#------------------------------------------------------------------------------
#$Date: 2017-10-13 02:32:00 +0300 (Fri, 13 Oct 2017) $
#$Revision: 201954 $
#$URL: file:///home/coder/svn-repositories/cod/cif/1/50/17/1501769.cif $
#------------------------------------------------------------------------------
#
# This file is available in the Crystallography Open Database (COD),
# http://www.crystallography.net/
#
# All data on this site have been placed in the public domain by the
# contributors.
#
data_1501769
loop_
_publ_author_name
'Herrera-Ambriz, Victor-Manuel'
'Maldonado, Jos\'e-Luis'
'Rodr\'iguez, Mario'
'Castro-Beltr\'an, Rigoberto'
'Ramos-Ort\'iz, Gabriel'
'Maga\~na-Vergara, Nancy-Evelyn'
'Meneses-Nava, Marco-Antonio'
'Barbosa-Garc\'ia, Oracio'
'Santillan, Rosa'
'Farf\'an, Norberto'
'Dang, Florian-Xuan'
'Lacroix, Pascal G.'
'Ledoux-Rak, Isabelle'
_publ_contact_author
;
      J. L. Maldonado
      Centro de Investigaciones en \'Optica
      Apartado Postal 1-948
      37000 Le\'on, Guanajuato
      M\'exico

;
_publ_section_title
;
 Highly Efficient Photorefractive Organic Polymers Based on Benzonitrile
 Shiff Bases Nonlinear Chromophores
;
_journal_issue                   48
_journal_name_full               'The Journal of Physical Chemistry C'
_journal_page_first              23955
_journal_paper_doi               10.1021/jp206204p
_journal_volume                  115
_journal_year                    2011
_chemical_formula_moiety         'C18 H19 N3'
_chemical_formula_sum            'C18 H19 N3'
_chemical_formula_weight         277.36
_chemical_name_common            'Compound X'
_chemical_name_systematic
;
 San341 (Mario)
;
_space_group_IT_number           2
_symmetry_cell_setting           triclinic
_symmetry_Int_Tables_number      2
_symmetry_space_group_name_Hall  '-P 1'
_symmetry_space_group_name_H-M   'P -1'
_atom_sites_solution_hydrogens   geom
_atom_sites_solution_primary     direct
_atom_sites_solution_secondary   difmap
_audit_creation_method           'WinGX routine CIF_UPDATE'
_cell_angle_alpha                84.5760(10)
_cell_angle_beta                 73.338(2)
_cell_angle_gamma                75.8810(10)
_cell_formula_units_Z            2
_cell_length_a                   7.6934(2)
_cell_length_b                   9.7091(3)
_cell_length_c                   11.3685(3)
_cell_measurement_reflns_used    6375
_cell_measurement_temperature    293(2)
_cell_measurement_theta_max      27.485
_cell_measurement_theta_min      0.814
_cell_measurement_wavelength     0.71073
_cell_volume                     788.67(4)
_computing_cell_refinement       'HKL Scalepack (Otwinowski & Minor 1997)'
_computing_data_collection       'Collect (Bruker AXS BV, 1997-2004)'
_computing_data_reduction
'HKL Denzo and Scalepack (Otwinowski & Minor 1997)'
_computing_molecular_graphics    'Ortep-3 for Windows (Farrugia, 1997)'
_computing_publication_material  'WinGX publication routines (Farrugia, 1999)'
_computing_structure_refinement  'SHELXL-97 (Sheldrick, 2008)'
_computing_structure_solution    'SIR2004 (Giacovazzo et al, 2004)'
_diffrn_ambient_temperature      293(2)
_diffrn_detector                 'CCD plate'
_diffrn_detector_area_resol_mean 9
_diffrn_measured_fraction_theta_full 0.983
_diffrn_measured_fraction_theta_max 0.983
_diffrn_measurement_device       '95mm CCD camera on \k-goniostat'
_diffrn_measurement_device_type  KappaCCD
_diffrn_measurement_method       'CCD rotation images, thick slices'
_diffrn_orient_matrix_type       'by Bruker AXS Collect from scalepack cell'
_diffrn_orient_matrix_UB_11      -0.782037E-1
_diffrn_orient_matrix_UB_12      0.5745E-2
_diffrn_orient_matrix_UB_13      -0.57785E-1
_diffrn_orient_matrix_UB_21      0.115277
_diffrn_orient_matrix_UB_22      -0.228717E-1
_diffrn_orient_matrix_UB_23      -0.698625E-1
_diffrn_orient_matrix_UB_31      0.26987E-2
_diffrn_orient_matrix_UB_32      -0.103592
_diffrn_orient_matrix_UB_33      0.147133E-1
_diffrn_radiation_monochromator  graphite
_diffrn_radiation_probe          x-ray
_diffrn_radiation_type           MoK\a
_diffrn_radiation_wavelength     0.71073
_diffrn_reflns_av_R_equivalents  0.0504
_diffrn_reflns_av_unetI/netI     0.052
_diffrn_reflns_limit_h_max       9
_diffrn_reflns_limit_h_min       -9
_diffrn_reflns_limit_k_max       12
_diffrn_reflns_limit_k_min       -11
_diffrn_reflns_limit_l_max       14
_diffrn_reflns_limit_l_min       -13
_diffrn_reflns_number            12077
_diffrn_reflns_reduction_process
;
 Scaled and merged with Sortav
 R.H. Blessing, (1987) Cryst. Rev. 1, 3-58
 R.H. Blessing, (1989) J. Appl. Cryst. 22, 396-397
;
_diffrn_reflns_theta_full        27.48
_diffrn_reflns_theta_max         27.48
_diffrn_reflns_theta_min         2.16
_diffrn_source                   'Enraf Nonius FR590'
_exptl_absorpt_coefficient_mu    0.070
_exptl_absorpt_correction_type   none
_exptl_crystal_colour            yellow
_exptl_crystal_density_diffrn    1.168
_exptl_crystal_density_method    'not measured'
_exptl_crystal_description       prism
_exptl_crystal_F_000             296
_exptl_crystal_size_max          0.3
_exptl_crystal_size_mid          0.275
_exptl_crystal_size_min          0.075
_refine_diff_density_max         0.175
_refine_diff_density_min         -0.212
_refine_diff_density_rms         0.059
_refine_ls_extinction_method     none
_refine_ls_goodness_of_fit_ref   1.081
_refine_ls_hydrogen_treatment    constr
_refine_ls_matrix_type           full
_refine_ls_number_parameters     192
_refine_ls_number_reflns         3545
_refine_ls_number_restraints     0
_refine_ls_restrained_S_all      1.081
_refine_ls_R_factor_all          0.1025
_refine_ls_R_factor_gt           0.0564
_refine_ls_shift/su_max          0.002
_refine_ls_shift/su_mean         0
_refine_ls_structure_factor_coef Fsqd
_refine_ls_weighting_details
'calc w=1/[\s^2^(Fo^2^)+(0.0904P)^2^+0.0176P] where P=(Fo^2^+2Fc^2^)/3'
_refine_ls_weighting_scheme      calc
_refine_ls_wR_factor_gt          0.1418
_refine_ls_wR_factor_ref         0.1731
_reflns_number_gt                2182
_reflns_number_total             3545
_reflns_threshold_expression     >2\s(I)
_cod_data_source_file            jp206204p_si_002.cif
_cod_data_source_block           341p-1
_cod_original_cell_volume        788.68(4)
_cod_original_sg_symbol_H-M      P-1
_cod_database_code               1501769
loop_
_symmetry_equiv_pos_as_xyz
'x, y, z'
'-x, -y, -z'
loop_
_atom_site_label
_atom_site_type_symbol
_atom_site_fract_x
_atom_site_fract_y
_atom_site_fract_z
_atom_site_U_iso_or_equiv
_atom_site_adp_type
_atom_site_occupancy
_atom_site_symmetry_multiplicity
_atom_site_calc_flag
_atom_site_refinement_flags
C1 C -0.0947(2) 0.19553(19) 0.54491(17) 0.0680(5) Uani 1 1 d .
C2 C 0.0230(2) 0.25491(17) 0.59317(14) 0.0583(4) Uani 1 1 d .
C3 C 0.1908(2) 0.17199(18) 0.60929(16) 0.0645(4) Uani 1 1 d .
H3 H 0.2276 0.0766 0.5891 0.077 Uiso 1 1 calc R
C4 C 0.3014(2) 0.23215(17) 0.65516(16) 0.0633(4) Uani 1 1 d .
H4 H 0.4121 0.1762 0.667 0.076 Uiso 1 1 calc R
C5 C 0.2509(2) 0.37497(17) 0.68417(14) 0.0565(4) Uani 1 1 d .
C6 C 0.0813(2) 0.45565(18) 0.67043(16) 0.0656(5) Uani 1 1 d .
H6 H 0.0433 0.5506 0.6918 0.079 Uiso 1 1 calc R
C7 C -0.0307(2) 0.39585(19) 0.62547(16) 0.0665(5) Uani 1 1 d .
H7 H -0.1437 0.4509 0.6167 0.08 Uiso 1 1 calc R
C8 C 0.3987(2) 0.55233(18) 0.69413(15) 0.0602(4) Uani 1 1 d .
H8 H 0.3522 0.5962 0.6296 0.072 Uiso 1 1 calc R
C9 C 0.5034(2) 0.62574(16) 0.74397(14) 0.0552(4) Uani 1 1 d .
C10 C 0.5719(2) 0.57186(16) 0.84445(14) 0.0564(4) Uani 1 1 d .
H10 H 0.552 0.4847 0.8799 0.068 Uiso 1 1 calc R
C11 C 0.6672(2) 0.64380(16) 0.89202(14) 0.0563(4) Uani 1 1 d .
H11 H 0.7093 0.6051 0.9596 0.068 Uiso 1 1 calc R
C12 C 0.7032(2) 0.77586(15) 0.84074(14) 0.0533(4) Uani 1 1 d .
C13 C 0.6355(2) 0.82881(18) 0.73858(15) 0.0641(4) Uani 1 1 d .
H13 H 0.6573 0.9148 0.7013 0.077 Uiso 1 1 calc R
C14 C 0.5382(2) 0.75578(18) 0.69324(15) 0.0642(5) Uani 1 1 d .
H14 H 0.494 0.7944 0.6264 0.077 Uiso 1 1 calc R
C15 C 0.8508(2) 0.80147(19) 1.00225(15) 0.0674(5) Uani 1 1 d .
H15A H 0.7593 0.7529 1.0547 0.081 Uiso 1 1 calc R
H15B H 0.8472 0.8846 1.0447 0.081 Uiso 1 1 calc R
C16 C 1.0406(3) 0.7044(2) 0.9822(2) 0.0951(7) Uani 1 1 d .
H16A H 1.0431 0.6194 0.9444 0.143 Uiso 1 1 calc R
H16B H 1.0685 0.6805 1.0597 0.143 Uiso 1 1 calc R
H16C H 1.1318 0.7514 0.9295 0.143 Uiso 1 1 calc R
C17 C 0.8467(2) 0.97977(18) 0.83098(17) 0.0687(5) Uani 1 1 d .
H17A H 0.8756 0.974 0.7425 0.082 Uiso 1 1 calc R
H17B H 0.9573 0.9906 0.8504 0.082 Uiso 1 1 calc R
C18 C 0.6923(3) 1.1086(2) 0.8726(2) 0.0936(6) Uani 1 1 d .
H18A H 0.583 1.0996 0.852 0.14 Uiso 1 1 calc R
H18B H 0.7305 1.1921 0.8323 0.14 Uiso 1 1 calc R
H18C H 0.6649 1.1163 0.9599 0.14 Uiso 1 1 calc R
N1 N 0.36626(19) 0.43072(15) 0.73359(13) 0.0631(4) Uani 1 1 d .
N2 N 0.79955(19) 0.84735(15) 0.88804(13) 0.0639(4) Uani 1 1 d .
N3 N -0.1914(2) 0.15048(18) 0.50701(18) 0.0915(6) Uani 1 1 d .
loop_
_atom_site_aniso_label
_atom_site_aniso_U_11
_atom_site_aniso_U_22
_atom_site_aniso_U_33
_atom_site_aniso_U_23
_atom_site_aniso_U_13
_atom_site_aniso_U_12
C1 0.0671(10) 0.0728(11) 0.0711(11) 0.0010(8) -0.0288(9) -0.0181(9)
C2 0.0594(9) 0.0686(10) 0.0518(9) 0.0030(7) -0.0196(7) -0.0203(8)
C3 0.0694(10) 0.0618(9) 0.0674(11) -0.0039(8) -0.0255(9) -0.0157(8)
C4 0.0631(10) 0.0636(10) 0.0685(11) -0.0012(8) -0.0293(8) -0.0111(8)
C5 0.0614(9) 0.0660(10) 0.0464(8) -0.0010(7) -0.0183(7) -0.0182(8)
C6 0.0678(10) 0.0615(10) 0.0673(11) -0.0078(8) -0.0209(9) -0.0095(8)
C7 0.0562(9) 0.0751(11) 0.0687(11) -0.0040(8) -0.0211(8) -0.0104(8)
C8 0.0618(9) 0.0693(10) 0.0522(9) -0.0006(7) -0.0199(8) -0.0150(8)
C9 0.0565(8) 0.0610(9) 0.0490(9) 0.0003(7) -0.0159(7) -0.0137(7)
C10 0.0616(9) 0.0557(9) 0.0533(9) 0.0050(7) -0.0174(7) -0.0163(7)
C11 0.0605(9) 0.0594(9) 0.0523(9) 0.0072(7) -0.0232(7) -0.0138(7)
C12 0.0533(8) 0.0572(9) 0.0501(9) 0.0001(7) -0.0144(7) -0.0136(7)
C13 0.0778(11) 0.0627(9) 0.0583(10) 0.0131(7) -0.0271(9) -0.0237(8)
C14 0.0750(10) 0.0703(10) 0.0544(9) 0.0095(8) -0.0288(8) -0.0206(8)
C15 0.0753(11) 0.0771(11) 0.0606(10) -0.0005(8) -0.0282(9) -0.0263(9)
C16 0.0803(13) 0.1100(16) 0.1024(16) 0.0067(13) -0.0431(12) -0.0171(12)
C17 0.0757(11) 0.0713(11) 0.0677(11) 0.0049(8) -0.0218(9) -0.0323(9)
C18 0.1164(16) 0.0687(12) 0.0955(16) -0.0016(10) -0.0277(13) -0.0223(12)
N1 0.0706(8) 0.0663(9) 0.0602(8) -0.0018(7) -0.0264(7) -0.0197(7)
N2 0.0741(9) 0.0672(8) 0.0623(8) 0.0087(6) -0.0298(7) -0.0284(7)
N3 0.0877(11) 0.0867(12) 0.1195(15) -0.0066(10) -0.0552(11) -0.0222(9)
loop_
_atom_type_symbol
_atom_type_description
_atom_type_scat_dispersion_real
_atom_type_scat_dispersion_imag
_atom_type_scat_source
C C 0.0033 0.0016 'International Tables Vol C Tables 4.2.6.8 and 6.1.1.4'
H H 0.0000 0.0000 'International Tables Vol C Tables 4.2.6.8 and 6.1.1.4'
N N 0.0061 0.0033 'International Tables Vol C Tables 4.2.6.8 and 6.1.1.4'
O O 0.0106 0.006 'International Tables Vol C Tables 4.2.6.8 and 6.1.1.4'
loop_
_geom_angle_atom_site_label_1
_geom_angle_atom_site_label_2
_geom_angle_atom_site_label_3
_geom_angle
N3 C1 C2 178.64(18)
C7 C2 C3 119.35(14)
C7 C2 C1 119.72(14)
C3 C2 C1 120.92(15)
C4 C3 C2 119.61(15)
C4 C3 H3 120.2
C2 C3 H3 120.2
C3 C4 C5 121.28(15)
C3 C4 H4 119.4
C5 C4 H4 119.4
C4 C5 C6 118.53(14)
C4 C5 N1 119.17(14)
C6 C5 N1 122.17(14)
C7 C6 C5 120.44(15)
C7 C6 H6 119.8
C5 C6 H6 119.8
C6 C7 C2 120.74(15)
C6 C7 H7 119.6
C2 C7 H7 119.6
N1 C8 C9 123.92(14)
N1 C8 H8 118
C9 C8 H8 118
C14 C9 C10 117.06(14)
C14 C9 C8 120.49(13)
C10 C9 C8 122.45(14)
C11 C10 C9 121.77(14)
C11 C10 H10 119.1
C9 C10 H10 119.1
C10 C11 C12 121.43(13)
C10 C11 H11 119.3
C12 C11 H11 119.3
N2 C12 C13 122.15(13)
N2 C12 C11 121.36(13)
C13 C12 C11 116.49(13)
C14 C13 C12 121.14(14)
C14 C13 H13 119.4
C12 C13 H13 119.4
C13 C14 C9 122.11(13)
C13 C14 H14 118.9
C9 C14 H14 118.9
N2 C15 C16 113.12(16)
N2 C15 H15A 109
C16 C15 H15A 109
N2 C15 H15B 109
C16 C15 H15B 109
H15A C15 H15B 107.8
C15 C16 H16A 109.5
C15 C16 H16B 109.5
H16A C16 H16B 109.5
C15 C16 H16C 109.5
H16A C16 H16C 109.5
H16B C16 H16C 109.5
N2 C17 C18 113.00(15)
N2 C17 H17A 109
C18 C17 H17A 109
N2 C17 H17B 109
C18 C17 H17B 109
H17A C17 H17B 107.8
C17 C18 H18A 109.5
C17 C18 H18B 109.5
H18A C18 H18B 109.5
C17 C18 H18C 109.5
H18A C18 H18C 109.5
H18B C18 H18C 109.5
C8 N1 C5 118.68(13)
C12 N2 C15 122.23(12)
C12 N2 C17 121.55(13)
C15 N2 C17 116.11(12)
loop_
_geom_bond_atom_site_label_1
_geom_bond_atom_site_label_2
_geom_bond_distance
C1 N3 1.144(2)
C1 C2 1.433(2)
C2 C7 1.382(2)
C2 C3 1.396(2)
C3 C4 1.376(2)
C3 H3 0.93
C4 C5 1.390(2)
C4 H4 0.93
C5 C6 1.392(2)
C5 N1 1.4048(19)
C6 C7 1.376(2)
C6 H6 0.93
C7 H7 0.93
C8 N1 1.279(2)
C8 C9 1.448(2)
C8 H8 0.93
C9 C14 1.392(2)
C9 C10 1.398(2)
C10 C11 1.366(2)
C10 H10 0.93
C11 C12 1.414(2)
C11 H11 0.93
C12 N2 1.3675(18)
C12 C13 1.410(2)
C13 C14 1.371(2)
C13 H13 0.93
C14 H14 0.93
C15 N2 1.462(2)
C15 C16 1.500(3)
C15 H15A 0.97
C15 H15B 0.97
C16 H16A 0.96
C16 H16B 0.96
C16 H16C 0.96
C17 N2 1.463(2)
C17 C18 1.504(3)
C17 H17A 0.97
C17 H17B 0.97
C18 H18A 0.96
C18 H18B 0.96
C18 H18C 0.96
loop_
_geom_torsion_atom_site_label_1
_geom_torsion_atom_site_label_2
_geom_torsion_atom_site_label_3
_geom_torsion_atom_site_label_4
_geom_torsion
C7 C2 C3 C4 -1.0(2)
C1 C2 C3 C4 179.62(15)
C2 C3 C4 C5 -1.0(3)
C3 C4 C5 C6 2.5(2)
C3 C4 C5 N1 178.45(15)
C4 C5 C6 C7 -2.0(2)
N1 C5 C6 C7 -177.81(15)
C5 C6 C7 C2 0.0(3)
C3 C2 C7 C6 1.5(3)
C1 C2 C7 C6 -179.11(16)
N1 C8 C9 C14 177.81(16)
N1 C8 C9 C10 -2.9(3)
C14 C9 C10 C11 0.6(2)
C8 C9 C10 C11 -178.64(14)
C9 C10 C11 C12 -0.8(2)
C10 C11 C12 N2 -179.64(14)
C10 C11 C12 C13 0.1(2)
N2 C12 C13 C14 -179.54(15)
C11 C12 C13 C14 0.7(2)
C12 C13 C14 C9 -0.9(3)
C10 C9 C14 C13 0.2(3)
C8 C9 C14 C13 179.49(15)
C9 C8 N1 C5 175.20(14)
C4 C5 N1 C8 137.24(17)
C6 C5 N1 C8 -47.0(2)
C13 C12 N2 C15 172.63(16)
C11 C12 N2 C15 -7.7(2)
C13 C12 N2 C17 -3.3(2)
C11 C12 N2 C17 176.36(14)
C16 C15 N2 C12 92.40(19)
C16 C15 N2 C17 -91.42(19)
C18 C17 N2 C12 85.0(2)
C18 C17 N2 C15 -91.22(19)
loop_
_cod_related_entry_id
_cod_related_entry_database
_cod_related_entry_code
1 ChemSpider 593505
