#------------------------------------------------------------------------------
#$Date: 2016-02-18 17:37:37 +0200 (Thu, 18 Feb 2016) $
#$Revision: 176729 $
#$URL: svn://www.crystallography.net/cod/cif/1/50/19/1501978.cif $
#------------------------------------------------------------------------------
#
# This file is available in the Crystallography Open Database (COD),
# http://www.crystallography.net/
#
# All data on this site have been placed in the public domain by the
# contributors.
#
data_1501978
loop_
_publ_author_name
'Emerson, Christopher R.'
'Zakharov, Lev N.'
'Blakemore, Paul R.'
_publ_section_title
;
 Iterative stereospecific reagent-controlled homologation using a
 functionalized \a-chloroalkyllithium: synthesis of cyclic targets related
 to epibatidine.
;
_journal_issue                   6
_journal_name_full               'Organic letters'
_journal_page_first              1318
_journal_page_last               1321
_journal_paper_doi               10.1021/ol103170y
_journal_volume                  13
_journal_year                    2011
_chemical_absolute_configuration ad
_chemical_formula_moiety         'C12 H15 Cl O3 S'
_chemical_formula_sum            'C12 H15 Cl O3 S'
_chemical_formula_weight         274.75
_chemical_name_systematic
;

 

 ?

 

;
_space_group_IT_number           4
_symmetry_cell_setting           monoclinic
_symmetry_space_group_name_Hall  'P 2yb'
_symmetry_space_group_name_H-M   'P 1 21 1'
_atom_sites_solution_hydrogens   geom
_atom_sites_solution_primary     direct
_atom_sites_solution_secondary   difmap
_audit_creation_method           SHELXLTL
_cell_angle_alpha                90.00
_cell_angle_beta                 107.309(2)
_cell_angle_gamma                90.00
_cell_formula_units_Z            2
_cell_length_a                   6.8959(12)
_cell_length_b                   9.5822(16)
_cell_length_c                   10.2161(17)
_cell_measurement_reflns_used    5324
_cell_measurement_temperature    173(2)
_cell_measurement_theta_max      28.26
_cell_measurement_theta_min      2.98
_cell_volume                     644.49(19)
_computing_cell_refinement       'Bruker SAINT'
_computing_data_collection       'Bruker SMART'
_computing_data_reduction        'Bruker SAINT'
_computing_molecular_graphics    'Bruker SHELXTL'
_computing_publication_material  'Bruker SHELXTL'
_computing_structure_refinement  'Bruker SHELXTL'
_computing_structure_solution    'Bruker SHELXTL'
_diffrn_ambient_temperature      173(2)
_diffrn_measured_fraction_theta_full 1.000
_diffrn_measured_fraction_theta_max 1.000
_diffrn_measurement_device_type  'Bruker Apex CCD area detector'
_diffrn_measurement_method       'phi and omega scans'
_diffrn_radiation_monochromator  graphite
_diffrn_radiation_source         'fine-focus sealed tube'
_diffrn_radiation_type           MoK\a
_diffrn_radiation_wavelength     0.71073
_diffrn_reflns_av_R_equivalents  0.0166
_diffrn_reflns_av_sigmaI/netI    0.0195
_diffrn_reflns_limit_h_max       8
_diffrn_reflns_limit_h_min       -8
_diffrn_reflns_limit_k_max       12
_diffrn_reflns_limit_k_min       -12
_diffrn_reflns_limit_l_max       13
_diffrn_reflns_limit_l_min       -13
_diffrn_reflns_number            7197
_diffrn_reflns_theta_full        26.99
_diffrn_reflns_theta_max         26.99
_diffrn_reflns_theta_min         2.09
_exptl_absorpt_coefficient_mu    0.451
_exptl_absorpt_correction_T_max  0.9866
_exptl_absorpt_correction_T_min  0.8400
_exptl_absorpt_correction_type   multi-scan
_exptl_absorpt_process_details   SADABS
_exptl_crystal_colour            colorless
_exptl_crystal_density_diffrn    1.416
_exptl_crystal_density_method    'not measured'
_exptl_crystal_description       plate
_exptl_crystal_F_000             288
_exptl_crystal_size_max          0.40
_exptl_crystal_size_mid          0.30
_exptl_crystal_size_min          0.03
_refine_diff_density_max         0.292
_refine_diff_density_min         -0.186
_refine_diff_density_rms         0.044
_refine_ls_abs_structure_details 'Flack H D (1983), Acta Cryst. A39, 876-881'
_refine_ls_abs_structure_Flack   0.03(5)
_refine_ls_extinction_method     none
_refine_ls_goodness_of_fit_ref   1.047
_refine_ls_hydrogen_treatment    mixed
_refine_ls_matrix_type           full
_refine_ls_number_parameters     202
_refine_ls_number_reflns         2804
_refine_ls_number_restraints     1
_refine_ls_restrained_S_all      1.047
_refine_ls_R_factor_all          0.0256
_refine_ls_R_factor_gt           0.0252
_refine_ls_shift/su_max          0.000
_refine_ls_shift/su_mean         0.000
_refine_ls_structure_factor_coef Fsqd
_refine_ls_weighting_details
'calc w=1/[\s^2^(Fo^2^)+(0.0511P)^2^+0.0328P] where P=(Fo^2^+2Fc^2^)/3'
_refine_ls_weighting_scheme      calc
_refine_ls_wR_factor_gt          0.0689
_refine_ls_wR_factor_ref         0.0695
_reflns_number_gt                2764
_reflns_number_total             2804
_reflns_threshold_expression     >2sigma(I)
_cod_data_source_file            ol103170y_si_003.cif
_cod_data_source_block           pb26(SsynH12)
_cod_depositor_comments
;
The following automatic conversions were performed:

'_symmetry_cell_setting' value 'Monoclinic' changed to 'monoclinic'
according to /home/saulius/struct/CIF-dictionaries/cif_core.dic
dictionary named 'cif_core.dic' version 2.4.1 from 2010-06-29.

Automatic conversion script
Id: cif_fix_values 1715 2011-07-08 13:25:40Z adriana 
;
_cod_original_sg_symbol_H-M      P2(1)
_cod_database_code               1501978
loop_
_symmetry_equiv_pos_as_xyz
'x, y, z'
'-x, y+1/2, -z'
loop_
_atom_site_label
_atom_site_type_symbol
_atom_site_fract_x
_atom_site_fract_y
_atom_site_fract_z
_atom_site_U_iso_or_equiv
_atom_site_adp_type
_atom_site_occupancy
_atom_site_symmetry_multiplicity
_atom_site_calc_flag
_atom_site_refinement_flags
Cl1 Cl 0.80170(7) 0.93223(4) 0.73895(4) 0.03594(11) Uani 1 1 d .
S1 S 0.91776(6) 0.84286(4) 0.49225(4) 0.02686(10) Uani 1 1 d .
O1 O 0.91895(19) 0.69719(12) 0.54421(13) 0.0354(3) Uani 1 1 d .
O2 O 1.4755(2) 1.01028(15) 0.90795(15) 0.0477(4) Uani 1 1 d .
O3 O 1.23009(19) 1.16587(13) 0.80943(13) 0.0355(3) Uani 1 1 d .
C1 C 0.9742(2) 0.95818(16) 0.64116(16) 0.0260(3) Uani 1 1 d .
C2 C 1.1931(3) 0.9320(2) 0.72480(17) 0.0318(3) Uani 1 1 d .
C3 C 1.2632(3) 1.02523(19) 0.84871(18) 0.0327(3) Uani 1 1 d .
C4 C 1.5525(3) 1.1438(2) 0.9626(2) 0.0414(4) Uani 1 1 d .
C5 C 1.3718(3) 1.2411(2) 0.9175(2) 0.0387(4) Uani 1 1 d .
C6 C 0.6602(2) 0.89274(16) 0.41270(15) 0.0240(3) Uani 1 1 d .
C7 C 0.6201(2) 1.02754(17) 0.36182(17) 0.0281(3) Uani 1 1 d .
C8 C 0.4213(3) 1.06262(18) 0.28893(17) 0.0300(3) Uani 1 1 d .
C9 C 0.2656(3) 0.96382(18) 0.26489(17) 0.0300(3) Uani 1 1 d .
C10 C 0.3113(2) 0.8304(2) 0.31651(18) 0.0330(3) Uani 1 1 d .
C11 C 0.5081(3) 0.79300(18) 0.39107(18) 0.0308(3) Uani 1 1 d .
C12 C 0.0523(3) 1.0040(2) 0.1834(2) 0.0411(4) Uani 1 1 d .
H12A H -0.0377 0.9233 0.1758 0.062 Uiso 1 1 calc R
H12B H 0.0510 1.0344 0.0916 0.062 Uiso 1 1 calc R
H12C H 0.0050 1.0804 0.2300 0.062 Uiso 1 1 calc R
H1 H 0.964(3) 1.046(2) 0.610(2) 0.031(5) Uiso 1 1 d .
H2A H 1.288(3) 0.945(2) 0.673(2) 0.030(5) Uiso 1 1 d .
H2B H 1.208(3) 0.831(3) 0.755(2) 0.050(7) Uiso 1 1 d .
H3 H 1.208(3) 1.004(2) 0.912(2) 0.038(6) Uiso 1 1 d .
H4A H 1.674(3) 1.170(2) 0.929(2) 0.035(5) Uiso 1 1 d .
H4B H 1.596(3) 1.134(3) 1.059(2) 0.040(6) Uiso 1 1 d .
H5A H 1.414(3) 1.318(3) 0.883(2) 0.038(6) Uiso 1 1 d .
H5B H 1.320(3) 1.260(2) 0.984(2) 0.032(5) Uiso 1 1 d .
H7 H 0.737(4) 1.103(3) 0.371(2) 0.044(6) Uiso 1 1 d .
H8 H 0.388(3) 1.153(2) 0.2641(19) 0.024(4) Uiso 1 1 d .
H10 H 0.206(3) 0.754(3) 0.303(2) 0.042(6) Uiso 1 1 d .
H11 H 0.542(3) 0.699(2) 0.428(2) 0.029(5) Uiso 1 1 d .
loop_
_atom_site_aniso_label
_atom_site_aniso_U_11
_atom_site_aniso_U_22
_atom_site_aniso_U_33
_atom_site_aniso_U_23
_atom_site_aniso_U_13
_atom_site_aniso_U_12
Cl1 0.0401(2) 0.0361(2) 0.0389(2) -0.00785(17) 0.02277(17) -0.00844(17)
S1 0.02640(18) 0.02772(18) 0.02756(17) -0.00061(15) 0.00973(13) 0.00627(14)
O1 0.0415(7) 0.0242(5) 0.0373(6) -0.0010(5) 0.0070(5) 0.0092(5)
O2 0.0365(7) 0.0462(8) 0.0471(8) -0.0001(6) -0.0079(6) 0.0088(6)
O3 0.0344(6) 0.0307(6) 0.0341(6) -0.0009(5) -0.0013(5) 0.0019(5)
C1 0.0288(7) 0.0217(7) 0.0301(7) 0.0005(6) 0.0126(6) 0.0003(6)
C2 0.0303(8) 0.0290(7) 0.0343(8) -0.0001(7) 0.0068(6) 0.0037(7)
C3 0.0328(8) 0.0342(8) 0.0294(8) 0.0045(7) 0.0070(7) 0.0011(7)
C4 0.0339(9) 0.0531(11) 0.0317(9) 0.0009(8) 0.0015(7) -0.0048(8)
C5 0.0408(10) 0.0398(10) 0.0315(9) -0.0046(8) 0.0048(7) -0.0049(8)
C6 0.0230(7) 0.0237(7) 0.0265(7) -0.0004(5) 0.0093(6) 0.0043(5)
C7 0.0280(8) 0.0233(7) 0.0329(8) 0.0003(6) 0.0088(6) -0.0008(6)
C8 0.0288(8) 0.0266(8) 0.0328(8) 0.0000(6) 0.0063(6) 0.0046(6)
C9 0.0264(8) 0.0380(9) 0.0279(7) -0.0054(6) 0.0115(6) 0.0020(6)
C10 0.0294(8) 0.0347(9) 0.0387(8) -0.0041(7) 0.0158(6) -0.0079(7)
C11 0.0349(8) 0.0249(7) 0.0360(9) -0.0001(7) 0.0158(7) -0.0003(6)
C12 0.0256(8) 0.0573(12) 0.0386(9) -0.0061(9) 0.0068(7) 0.0036(8)
loop_
_atom_type_symbol
_atom_type_description
_atom_type_scat_dispersion_real
_atom_type_scat_dispersion_imag
_atom_type_scat_source
C C 0.0033 0.0016 'International Tables Vol C Tables 4.2.6.8 and 6.1.1.4'
H H 0.0000 0.0000 'International Tables Vol C Tables 4.2.6.8 and 6.1.1.4'
O O 0.0106 0.0060 'International Tables Vol C Tables 4.2.6.8 and 6.1.1.4'
S S 0.1246 0.1234 'International Tables Vol C Tables 4.2.6.8 and 6.1.1.4'
Cl Cl 0.1484 0.1585 'International Tables Vol C Tables 4.2.6.8 and 6.1.1.4'
loop_
_geom_angle_atom_site_label_1
_geom_angle_atom_site_label_2
_geom_angle_atom_site_label_3
_geom_angle
O1 S1 C6 108.17(8)
O1 S1 C1 107.00(7)
C6 S1 C1 98.86(7)
C3 O2 C4 107.02(14)
C3 O3 C5 104.29(13)
C2 C1 Cl1 112.26(11)
C2 C1 S1 107.38(11)
Cl1 C1 S1 111.70(8)
C2 C1 H1 108.4(13)
Cl1 C1 H1 109.7(13)
S1 C1 H1 107.2(13)
C3 C2 C1 113.04(14)
C3 C2 H2A 106.6(13)
C1 C2 H2A 113.1(12)
C3 C2 H2B 109.5(14)
C1 C2 H2B 108.9(13)
H2A C2 H2B 105.4(18)
O3 C3 O2 106.18(14)
O3 C3 C2 110.16(14)
O2 C3 C2 109.36(15)
O3 C3 H3 111.8(15)
O2 C3 H3 106.5(15)
C2 C3 H3 112.5(16)
O2 C4 C5 104.77(15)
O2 C4 H4A 109.7(13)
C5 C4 H4A 115.1(13)
O2 C4 H4B 106.6(15)
C5 C4 H4B 110.8(14)
H4A C4 H4B 109.5(18)
O3 C5 C4 103.62(16)
O3 C5 H5A 109.9(15)
C4 C5 H5A 106.7(15)
O3 C5 H5B 111.1(15)
C4 C5 H5B 112.3(14)
H5A C5 H5B 113(2)
C11 C6 C7 121.59(15)
C11 C6 S1 119.40(12)
C7 C6 S1 118.69(12)
C6 C7 C8 118.65(15)
C6 C7 H7 122.4(14)
C8 C7 H7 118.8(13)
C7 C8 C9 120.87(16)
C7 C8 H8 120.1(12)
C9 C8 H8 118.7(12)
C10 C9 C8 118.91(15)
C10 C9 C12 121.34(16)
C8 C9 C12 119.75(16)
C9 C10 C11 121.41(16)
C9 C10 H10 122.9(14)
C11 C10 H10 115.7(14)
C6 C11 C10 118.56(16)
C6 C11 H11 119.5(12)
C10 C11 H11 122.0(12)
C9 C12 H12A 109.5
C9 C12 H12B 109.5
H12A C12 H12B 109.5
C9 C12 H12C 109.5
H12A C12 H12C 109.5
H12B C12 H12C 109.5
loop_
_geom_bond_atom_site_label_1
_geom_bond_atom_site_label_2
_geom_bond_distance
Cl1 C1 1.7841(16)
S1 O1 1.4925(13)
S1 C6 1.7843(16)
S1 C1 1.8260(16)
O2 C3 1.415(2)
O2 C4 1.433(3)
O3 C3 1.405(2)
O3 C5 1.432(2)
C1 C2 1.518(2)
C1 H1 0.90(2)
C2 C3 1.507(3)
C2 H2A 0.96(2)
C2 H2B 1.01(3)
C3 H3 0.87(2)
C4 C5 1.515(3)
C4 H4A 1.02(2)
C4 H4B 0.95(2)
C5 H5A 0.90(3)
C5 H5B 0.87(2)
C6 C11 1.387(2)
C6 C7 1.389(2)
C7 C8 1.393(2)
C7 H7 1.06(3)
C8 C9 1.397(2)
C8 H8 0.91(2)
C9 C10 1.383(3)
C9 C12 1.509(2)
C10 C11 1.391(2)
C10 H10 1.01(2)
C11 H11 0.98(2)
C12 H12A 0.9800
C12 H12B 0.9800
C12 H12C 0.9800
loop_
_geom_torsion_atom_site_label_1
_geom_torsion_atom_site_label_2
_geom_torsion_atom_site_label_3
_geom_torsion_atom_site_label_4
_geom_torsion
O1 S1 C1 C2 68.01(12)
C6 S1 C1 C2 -179.79(11)
O1 S1 C1 Cl1 -55.47(10)
C6 S1 C1 Cl1 56.72(10)
Cl1 C1 C2 C3 -59.25(17)
S1 C1 C2 C3 177.61(13)
C5 O3 C3 O2 -38.41(19)
C5 O3 C3 C2 -156.73(16)
C4 O2 C3 O3 27.25(19)
C4 O2 C3 C2 146.09(16)
C1 C2 C3 O3 -54.3(2)
C1 C2 C3 O2 -170.63(14)
C3 O2 C4 C5 -5.7(2)
C3 O3 C5 C4 33.58(19)
O2 C4 C5 O3 -17.1(2)
O1 S1 C6 C11 -9.30(15)
C1 S1 C6 C11 -120.56(13)
O1 S1 C6 C7 177.04(12)
C1 S1 C6 C7 65.78(14)
C11 C6 C7 C8 0.8(2)
S1 C6 C7 C8 174.30(12)
C6 C7 C8 C9 -1.2(2)
C7 C8 C9 C10 0.9(2)
C7 C8 C9 C12 -178.91(16)
C8 C9 C10 C11 -0.2(2)
C12 C9 C10 C11 179.68(15)
C7 C6 C11 C10 0.0(2)
S1 C6 C11 C10 -173.51(12)
C9 C10 C11 C6 -0.3(2)
