#------------------------------------------------------------------------------
#$Date: 2017-10-13 02:32:00 +0300 (Fri, 13 Oct 2017) $
#$Revision: 201954 $
#$URL: file:///home/coder/svn-repositories/cod/cif/1/50/49/1504903.cif $
#------------------------------------------------------------------------------
#
# This file is available in the Crystallography Open Database (COD),
# http://www.crystallography.net/
#
# All data on this site have been placed in the public domain by the
# contributors.
#
data_1504903
loop_
_publ_author_name
'Bridgwood, Katy L.'
'Tzschucke, C. Christoph'
'O'Brien, Matthew'
'Wittrock, Sven'
'Goodman, Jonathan M.'
'Davies, John E.'
'Logan, Angus W. J.'
'H\"uttl, Matthias R M'
'Ley, Steven V.'
_publ_section_title
;
 Enantiopure 2-substituted glyceraldehyde derivatives by aza-Claisen
 rearrangement or C-alkylation of enamines.
;
_journal_issue                   20
_journal_name_full               'Organic letters'
_journal_page_first              4537
_journal_page_last               4540
_journal_paper_doi               10.1021/ol8018242
_journal_volume                  10
_journal_year                    2008
_chemical_absolute_configuration
;
 848 Friedel pairs were averaged for the refinement
;
_chemical_formula_moiety         'C11 H17 N O5'
_chemical_formula_sum            'C11 H17 N O5'
_chemical_formula_weight         243.26
_chemical_name_systematic
; 
 ? 
;
_space_group_IT_number           4
_symmetry_cell_setting           monoclinic
_symmetry_space_group_name_Hall  'P 2yb'
_symmetry_space_group_name_H-M   'P 1 21 1'
_atom_sites_solution_hydrogens   geom
_atom_sites_solution_primary     direct
_atom_sites_solution_secondary   difmap
_audit_creation_method           SHELXL-97
_cell_angle_alpha                90.00
_cell_angle_beta                 103.477(2)
_cell_angle_gamma                90.00
_cell_formula_units_Z            2
_cell_length_a                   6.9222(3)
_cell_length_b                   8.7421(4)
_cell_length_c                   10.5953(5)
_cell_measurement_reflns_used    6718
_cell_measurement_temperature    120(2)
_cell_measurement_theta_max      27.88
_cell_measurement_theta_min      1.00
_cell_volume                     623.51(5)
_computing_cell_refinement       'HKL Scalepack (Otwinowski & Minor 1997)'
_computing_data_collection       'Collect (Nonius B.V. 1998)'
_computing_data_reduction
;
 HKL Denzo and Scalepack (Otwinowski & Minor 1997)
;
_computing_publication_material  'SHELXL-97 (Sheldrick 1997)'
_computing_structure_refinement  'SHELXL-97 (Sheldrick 1997)'
_computing_structure_solution    'SIR-92 (Altomare et al. 1994)'
_diffrn_ambient_temperature      120(2)
_diffrn_measured_fraction_theta_full 0.994
_diffrn_measured_fraction_theta_max 0.994
_diffrn_measurement_device_type  'Nonius Kappa CCD'
_diffrn_measurement_method       'Thin slice \w and \f scans'
_diffrn_radiation_source         'fine-focus sealed tube'
_diffrn_radiation_type           MoK\a
_diffrn_radiation_wavelength     0.71073
_diffrn_reflns_av_R_equivalents  0.0363
_diffrn_reflns_av_sigmaI/netI    0.0345
_diffrn_reflns_limit_h_max       8
_diffrn_reflns_limit_h_min       -9
_diffrn_reflns_limit_k_max       8
_diffrn_reflns_limit_k_min       -11
_diffrn_reflns_limit_l_max       13
_diffrn_reflns_limit_l_min       -13
_diffrn_reflns_number            6004
_diffrn_reflns_theta_full        27.86
_diffrn_reflns_theta_max         27.86
_diffrn_reflns_theta_min         3.82
_exptl_absorpt_coefficient_mu    0.102
_exptl_absorpt_correction_T_max  0.992
_exptl_absorpt_correction_T_min  0.932
_exptl_absorpt_correction_type   multi-scan
_exptl_absorpt_process_details
;
multi-scan from symmetry-related measurements 
 Sortav (Blessing 1995)
;
_exptl_crystal_colour            colourless
_exptl_crystal_density_diffrn    1.296
_exptl_crystal_density_method    'not measured'
_exptl_crystal_description       block
_exptl_crystal_F_000             260
_exptl_crystal_size_max          0.23
_exptl_crystal_size_mid          0.18
_exptl_crystal_size_min          0.12
_refine_diff_density_max         0.180
_refine_diff_density_min         -0.177
_refine_diff_density_rms         0.037
_refine_ls_abs_structure_details 'Flack H D (1983), Acta Cryst. A39, 876-881'
_refine_ls_abs_structure_Flack   0.4(13)
_refine_ls_extinction_method     none
_refine_ls_goodness_of_fit_ref   1.026
_refine_ls_hydrogen_treatment    constr
_refine_ls_matrix_type           full
_refine_ls_number_parameters     158
_refine_ls_number_reflns         1573
_refine_ls_number_restraints     1
_refine_ls_restrained_S_all      1.026
_refine_ls_R_factor_all          0.0492
_refine_ls_R_factor_gt           0.0368
_refine_ls_shift/su_max          0.000
_refine_ls_shift/su_mean         0.000
_refine_ls_structure_factor_coef Fsqd
_refine_ls_weighting_details
'calc w=1/[\s^2^(Fo^2^)+(0.0346P)^2^+0.1532P] where P=(Fo^2^+2Fc^2^)/3'
_refine_ls_weighting_scheme      calc
_refine_ls_wR_factor_gt          0.0791
_refine_ls_wR_factor_ref         0.0857
_reflns_number_gt                1343
_reflns_number_total             1573
_reflns_threshold_expression     >2sigma(I)
_cod_data_source_file            ol8018242_si_005.cif
_cod_data_source_block           sl0820
_cod_original_sg_symbol_H-M      P2(1)
_cod_database_code               1504903
loop_
_symmetry_equiv_pos_as_xyz
'x, y, z'
'-x, y+1/2, -z'
loop_
_atom_site_label
_atom_site_type_symbol
_atom_site_fract_x
_atom_site_fract_y
_atom_site_fract_z
_atom_site_U_iso_or_equiv
_atom_site_adp_type
_atom_site_occupancy
_atom_site_symmetry_multiplicity
_atom_site_calc_flag
_atom_site_refinement_flags
O1 O 0.7618(2) 0.51029(19) 0.37536(15) 0.0298(4) Uani 1 1 d .
O2 O 0.7046(2) 0.74821(19) 0.19713(15) 0.0277(4) Uani 1 1 d .
O3 O 0.4808(2) 0.4713(2) 0.20968(16) 0.0332(4) Uani 1 1 d .
O4 O 0.9560(2) 0.5823(2) 0.17087(15) 0.0319(4) Uani 1 1 d .
O5 O 0.6903(3) 1.0142(2) 0.43391(18) 0.0457(5) Uani 1 1 d .
N1 N 1.1351(3) 1.0098(3) 0.2621(2) 0.0458(6) Uani 1 1 d .
C1 C 0.6853(4) 0.6531(3) 0.4081(2) 0.0315(5) Uani 1 1 d .
H1A H 0.7312 0.6719 0.5025 0.038 Uiso 1 1 calc R
H1B H 0.5383 0.6505 0.3859 0.038 Uiso 1 1 calc R
C2 C 0.7581(3) 0.7803(3) 0.3329(2) 0.0270(5) Uani 1 1 d .
C3 C 0.6422(4) 0.9247(3) 0.3469(3) 0.0352(6) Uani 1 1 d .
H3 H 0.5243 0.9450 0.2826 0.042 Uiso 1 1 calc R
C4 C 0.7784(4) 0.3178(3) 0.2248(3) 0.0367(6) Uani 1 1 d .
H4A H 0.7346 0.2429 0.2811 0.055 Uiso 1 1 calc R
H4B H 0.9236 0.3249 0.2482 0.055 Uiso 1 1 calc R
H4C H 0.7343 0.2852 0.1341 0.055 Uiso 1 1 calc R
C5 C 0.6901(3) 0.4719(3) 0.2416(2) 0.0272(5) Uani 1 1 d .
C6 C 0.7486(3) 0.5983(3) 0.1548(2) 0.0275(5) Uani 1 1 d .
C7 C 0.6339(4) 0.5881(4) 0.0150(2) 0.0377(6) Uani 1 1 d .
H7A H 0.6614 0.6787 -0.0324 0.057 Uiso 1 1 calc R
H7B H 0.4914 0.5827 0.0115 0.057 Uiso 1 1 calc R
H7C H 0.6747 0.4961 -0.0250 0.057 Uiso 1 1 calc R
C8 C 0.3890(4) 0.3663(3) 0.2828(3) 0.0405(6) Uani 1 1 d .
H8A H 0.2507 0.3967 0.2761 0.061 Uiso 1 1 calc R
H8B H 0.4613 0.3680 0.3741 0.061 Uiso 1 1 calc R
H8C H 0.3926 0.2627 0.2480 0.061 Uiso 1 1 calc R
C9 C 1.0431(4) 0.6634(3) 0.0794(3) 0.0400(6) Uani 1 1 d .
H9A H 1.1876 0.6678 0.1122 0.060 Uiso 1 1 calc R
H9B H 0.9894 0.7675 0.0681 0.060 Uiso 1 1 calc R
H9C H 1.0115 0.6100 -0.0042 0.060 Uiso 1 1 calc R
C10 C 0.9817(4) 0.8047(3) 0.3881(2) 0.0328(5) Uani 1 1 d .
H10A H 1.0038 0.8374 0.4798 0.039 Uiso 1 1 calc R
H10B H 1.0516 0.7062 0.3864 0.039 Uiso 1 1 calc R
C11 C 1.0670(4) 0.9191(3) 0.3159(2) 0.0347(5) Uani 1 1 d .
loop_
_atom_site_aniso_label
_atom_site_aniso_U_11
_atom_site_aniso_U_22
_atom_site_aniso_U_33
_atom_site_aniso_U_23
_atom_site_aniso_U_13
_atom_site_aniso_U_12
O1 0.0360(9) 0.0254(8) 0.0266(8) 0.0013(7) 0.0046(7) -0.0009(7)
O2 0.0275(8) 0.0297(8) 0.0256(8) 0.0044(7) 0.0053(7) 0.0015(7)
O3 0.0238(8) 0.0395(10) 0.0368(8) 0.0025(7) 0.0081(7) -0.0038(7)
O4 0.0246(8) 0.0366(9) 0.0364(9) 0.0027(8) 0.0109(7) -0.0020(7)
O5 0.0601(12) 0.0328(9) 0.0479(11) -0.0040(9) 0.0204(10) 0.0011(9)
N1 0.0413(13) 0.0439(13) 0.0533(14) -0.0017(12) 0.0136(11) -0.0123(12)
C1 0.0391(14) 0.0280(12) 0.0286(11) -0.0002(10) 0.0103(10) -0.0016(11)
C2 0.0318(12) 0.0235(12) 0.0269(11) 0.0002(9) 0.0092(9) -0.0016(9)
C3 0.0395(14) 0.0313(13) 0.0373(13) 0.0050(12) 0.0140(11) 0.0009(12)
C4 0.0366(13) 0.0303(13) 0.0450(15) -0.0043(12) 0.0130(12) -0.0031(11)
C5 0.0229(11) 0.0302(12) 0.0283(11) -0.0025(9) 0.0054(9) -0.0065(10)
C6 0.0243(11) 0.0321(12) 0.0259(11) -0.0014(10) 0.0052(9) 0.0003(10)
C7 0.0352(13) 0.0503(15) 0.0276(11) 0.0001(12) 0.0071(10) -0.0005(13)
C8 0.0320(13) 0.0456(16) 0.0477(15) 0.0001(13) 0.0172(12) -0.0083(12)
C9 0.0365(14) 0.0470(16) 0.0419(14) -0.0011(12) 0.0198(12) -0.0065(13)
C10 0.0346(12) 0.0285(12) 0.0323(12) 0.0004(10) 0.0018(10) -0.0024(10)
C11 0.0292(12) 0.0340(13) 0.0389(13) -0.0039(11) 0.0041(10) -0.0025(11)
loop_
_atom_type_symbol
_atom_type_description
_atom_type_scat_dispersion_real
_atom_type_scat_dispersion_imag
_atom_type_scat_source
C C 0.0033 0.0016 'International Tables Vol C Tables 4.2.6.8 and 6.1.1.4'
H H 0.0000 0.0000 'International Tables Vol C Tables 4.2.6.8 and 6.1.1.4'
N N 0.0061 0.0033 'International Tables Vol C Tables 4.2.6.8 and 6.1.1.4'
O O 0.0106 0.0060 'International Tables Vol C Tables 4.2.6.8 and 6.1.1.4'
loop_
_geom_angle_atom_site_label_1
_geom_angle_atom_site_label_2
_geom_angle_atom_site_label_3
_geom_angle
C5 O1 C1 112.54(18)
C2 O2 C6 117.94(17)
C5 O3 C8 115.52(18)
C6 O4 C9 116.26(18)
O1 C1 C2 108.94(17)
O1 C1 H1A 109.9
C2 C1 H1A 109.9
O1 C1 H1B 109.9
C2 C1 H1B 109.9
H1A C1 H1B 108.3
O2 C2 C1 110.16(18)
O2 C2 C3 104.01(18)
C1 C2 C3 108.00(18)
O2 C2 C10 114.39(17)
C1 C2 C10 109.22(19)
C3 C2 C10 110.8(2)
O5 C3 C2 124.0(2)
O5 C3 H3 118.0
C2 C3 H3 118.0
C5 C4 H4A 109.5
C5 C4 H4B 109.5
H4A C4 H4B 109.5
C5 C4 H4C 109.5
H4A C4 H4C 109.5
H4B C4 H4C 109.5
O3 C5 O1 109.83(17)
O3 C5 C4 113.00(19)
O1 C5 C4 105.7(2)
O3 C5 C6 104.84(18)
O1 C5 C6 110.04(17)
C4 C5 C6 113.46(18)
O4 C6 O2 109.59(18)
O4 C6 C7 113.52(17)
O2 C6 C7 105.0(2)
O4 C6 C5 104.84(18)
O2 C6 C5 111.11(16)
C7 C6 C5 112.9(2)
C6 C7 H7A 109.5
C6 C7 H7B 109.5
H7A C7 H7B 109.5
C6 C7 H7C 109.5
H7A C7 H7C 109.5
H7B C7 H7C 109.5
O3 C8 H8A 109.5
O3 C8 H8B 109.5
H8A C8 H8B 109.5
O3 C8 H8C 109.5
H8A C8 H8C 109.5
H8B C8 H8C 109.5
O4 C9 H9A 109.5
O4 C9 H9B 109.5
H9A C9 H9B 109.5
O4 C9 H9C 109.5
H9A C9 H9C 109.5
H9B C9 H9C 109.5
C11 C10 C2 112.9(2)
C11 C10 H10A 109.0
C2 C10 H10A 109.0
C11 C10 H10B 109.0
C2 C10 H10B 109.0
H10A C10 H10B 107.8
N1 C11 C10 178.6(3)
loop_
_geom_bond_atom_site_label_1
_geom_bond_atom_site_label_2
_geom_bond_distance
O1 C5 1.428(3)
O1 C1 1.430(3)
O2 C2 1.427(3)
O2 C6 1.441(3)
O3 C5 1.409(3)
O3 C8 1.441(3)
O4 C6 1.413(3)
O4 C9 1.441(3)
O5 C3 1.196(3)
N1 C11 1.141(3)
C1 C2 1.520(3)
C1 H1A 0.9900
C1 H1B 0.9900
C2 C3 1.522(3)
C2 C10 1.536(3)
C3 H3 0.9500
C4 C5 1.507(3)
C4 H4A 0.9800
C4 H4B 0.9800
C4 H4C 0.9800
C5 C6 1.551(3)
C6 C7 1.512(3)
C7 H7A 0.9800
C7 H7B 0.9800
C7 H7C 0.9800
C8 H8A 0.9800
C8 H8B 0.9800
C8 H8C 0.9800
C9 H9A 0.9800
C9 H9B 0.9800
C9 H9C 0.9800
C10 C11 1.465(4)
C10 H10A 0.9900
C10 H10B 0.9900
loop_
_geom_torsion_atom_site_label_1
_geom_torsion_atom_site_label_2
_geom_torsion_atom_site_label_3
_geom_torsion_atom_site_label_4
_geom_torsion
C5 O1 C1 C2 -63.4(2)
C6 O2 C2 C1 -49.0(2)
C6 O2 C2 C3 -164.58(17)
C6 O2 C2 C10 74.4(2)
O1 C1 C2 O2 55.4(2)
O1 C1 C2 C3 168.40(19)
O1 C1 C2 C10 -71.0(2)
O2 C2 C3 O5 -155.3(2)
C1 C2 C3 O5 87.7(3)
C10 C2 C3 O5 -31.9(3)
C8 O3 C5 O1 -59.2(3)
C8 O3 C5 C4 58.6(3)
C8 O3 C5 C6 -177.35(19)
C1 O1 C5 O3 -55.9(2)
C1 O1 C5 C4 -178.13(17)
C1 O1 C5 C6 59.0(2)
C9 O4 C6 O2 -73.9(2)
C9 O4 C6 C7 43.1(3)
C9 O4 C6 C5 166.81(19)
C2 O2 C6 O4 -70.6(2)
C2 O2 C6 C7 167.20(18)
C2 O2 C6 C5 44.8(2)
O3 C5 C6 O4 -170.75(17)
O1 C5 C6 O4 71.2(2)
C4 C5 C6 O4 -47.0(2)
O3 C5 C6 O2 70.9(2)
O1 C5 C6 O2 -47.1(2)
C4 C5 C6 O2 -165.30(19)
O3 C5 C6 C7 -46.7(2)
O1 C5 C6 C7 -164.73(19)
C4 C5 C6 C7 77.1(3)
O2 C2 C10 C11 52.5(3)
C1 C2 C10 C11 176.4(2)
C3 C2 C10 C11 -64.7(3)
C2 C10 C11 N1 128(11)
loop_
_cod_related_entry_id
_cod_related_entry_code
_cod_related_entry_database
1 30651507 ChemSpider
