#------------------------------------------------------------------------------
#$Date: 2017-10-13 02:32:00 +0300 (Fri, 13 Oct 2017) $
#$Revision: 201954 $
#$URL: file:///home/coder/svn-repositories/cod/cif/1/50/46/1504676.cif $
#------------------------------------------------------------------------------
#
# This file is available in the Crystallography Open Database (COD),
# http://www.crystallography.net/
#
# All data on this site have been placed in the public domain by the
# contributors.
#
data_1504676
loop_
_publ_author_name
'Kendall, Jamie'
'McDonald, Robert'
'Ferguson, Michael J.'
'Tykwinski, Rik R.'
_publ_section_title
;
 Synthesis and solid-state structure of perfluorophenyl end-capped
 polyynes.
;
_journal_issue                   11
_journal_name_full               'Organic letters'
_journal_page_first              2163
_journal_page_last               2166
_journal_paper_doi               10.1021/ol800583r
_journal_volume                  10
_journal_year                    2008
_chemical_formula_moiety         'C20 H5 F5'
_chemical_formula_sum            'C20 H5 F5'
_chemical_formula_weight         340.24
_chemical_name_systematic
;

 ?

;
_space_group_IT_number           2
_symmetry_cell_setting           triclinic
_symmetry_space_group_name_Hall  '-P 1'
_symmetry_space_group_name_H-M   'P -1'
_atom_sites_solution_hydrogens   geom
_atom_sites_solution_primary     direct
_atom_sites_solution_secondary   difmap
_audit_creation_method           SHELXL-97
_cell_angle_alpha                91.906(3)
_cell_angle_beta                 94.375(3)
_cell_angle_gamma                114.390(2)
_cell_formula_units_Z            2
_cell_length_a                   7.3896(12)
_cell_length_b                   7.9448(13)
_cell_length_c                   14.452(2)
_cell_measurement_reflns_used    1348
_cell_measurement_temperature    193(2)
_cell_measurement_theta_max      24.56
_cell_measurement_theta_min      2.82
_cell_volume                     768.5(2)
_computing_cell_refinement       'Bruker SAINT (Bruker, 1997)'
_computing_data_collection       'Bruker SMART (Bruker, 1997)'
_computing_data_reduction        'Bruker SAINT (Bruker, 1997)'
_computing_molecular_graphics    'Bruker SHELXTL (Bruker, 1997)'
_computing_publication_material  'Bruker SHELXTL (Bruker, 1997)'
_computing_structure_refinement  'SHELXL-97 (Sheldrick, 1997)'
_computing_structure_solution    'SHELXS-97 (Sheldrick, 1990)'
_diffrn_ambient_temperature      193(2)
_diffrn_detector_area_resol_mean 8.192
_diffrn_measured_fraction_theta_full 0.999
_diffrn_measured_fraction_theta_max 0.999
_diffrn_measurement_device_type
'Bruker PLATFORM diffractometer/SMART 1000 CCD area detector'
_diffrn_measurement_method       '\w scans'
_diffrn_radiation_monochromator  graphite
_diffrn_radiation_source         'fine-focus sealed tube'
_diffrn_radiation_type           MoK\a
_diffrn_radiation_wavelength     0.71073
_diffrn_reflns_av_R_equivalents  0.0241
_diffrn_reflns_av_sigmaI/netI    0.0365
_diffrn_reflns_limit_h_max       8
_diffrn_reflns_limit_h_min       -8
_diffrn_reflns_limit_k_max       9
_diffrn_reflns_limit_k_min       -9
_diffrn_reflns_limit_l_max       17
_diffrn_reflns_limit_l_min       -17
_diffrn_reflns_number            5330
_diffrn_reflns_theta_full        25.00
_diffrn_reflns_theta_max         25.00
_diffrn_reflns_theta_min         1.42
_diffrn_standards_decay_%        0
_diffrn_standards_interval_time  0
_diffrn_standards_number         0
_exptl_absorpt_coefficient_mu    0.128
_exptl_absorpt_correction_T_max  0.9949
_exptl_absorpt_correction_T_min  0.9239
_exptl_absorpt_correction_type   integration
_exptl_absorpt_process_details   'Bruker SHELXTL (Bruker, 1997)'
_exptl_crystal_colour            colorless
_exptl_crystal_density_diffrn    1.470
_exptl_crystal_density_method    'not measured'
_exptl_crystal_description       plate
_exptl_crystal_F_000             340
_exptl_crystal_size_max          0.63
_exptl_crystal_size_mid          0.20
_exptl_crystal_size_min          0.04
_refine_diff_density_max         0.637
_refine_diff_density_min         -0.230
_refine_diff_density_rms         0.097
_refine_ls_extinction_method     none
_refine_ls_goodness_of_fit_ref   1.053
_refine_ls_hydrogen_treatment    constr
_refine_ls_matrix_type           full
_refine_ls_number_parameters     226
_refine_ls_number_reflns         2702
_refine_ls_number_restraints     0
_refine_ls_restrained_S_all      1.053
_refine_ls_R_factor_all          0.1182
_refine_ls_R_factor_gt           0.0710
_refine_ls_shift/su_max          0.000
_refine_ls_shift/su_mean         0.000
_refine_ls_structure_factor_coef Fsqd
_refine_ls_weighting_details
'calc w=1/[\s^2^(Fo^2^)+(0.1253P)^2^+0.0000P] where P=(Fo^2^+2Fc^2^)/3'
_refine_ls_weighting_scheme      calc
_refine_ls_wR_factor_gt          0.1701
_refine_ls_wR_factor_ref         0.2125
_reflns_number_gt                1522
_reflns_number_total             2702
_reflns_threshold_expression     I>2\s(I)
_cod_data_source_file            ol800583r-file004.cif
_cod_data_source_block           12
_cod_depositor_comments
;
The following automatic conversions were performed:

'_symmetry_cell_setting' value 'Triclinic' changed to 'triclinic'
according to /home/saulius/struct/CIF-dictionaries/cif_core.dic
dictionary named 'cif_core.dic' version 2.4.1 from 2010-06-29.

Automatic conversion script
Id: cif_fix_values 1715 2011-07-08 13:25:40Z adriana 
;
_cod_database_code               1504676
loop_
_symmetry_equiv_pos_as_xyz
'x, y, z'
'-x, -y, -z'
loop_
_atom_site_label
_atom_site_type_symbol
_atom_site_fract_x
_atom_site_fract_y
_atom_site_fract_z
_atom_site_U_iso_or_equiv
_atom_site_adp_type
_atom_site_occupancy
_atom_site_symmetry_multiplicity
_atom_site_calc_flag
_atom_site_refinement_flags
F12 F 0.4537(3) 0.8307(3) 0.14956(13) 0.0740(7) Uani 1 1 d .
F13 F 0.4814(4) 1.1098(3) 0.26973(15) 0.0838(7) Uani 1 1 d .
F14 F 0.3545(3) 1.0380(3) 0.43976(14) 0.0696(7) Uani 1 1 d .
F15 F 0.2067(3) 0.6871(3) 0.49219(14) 0.0828(7) Uani 1 1 d .
F16 F 0.1804(4) 0.4080(3) 0.37375(15) 0.0876(8) Uani 1 1 d .
C1 C 0.3022(4) 0.4646(5) 0.1943(2) 0.0495(8) Uani 1 1 d .
C2 C 0.2888(5) 0.3398(5) 0.1407(2) 0.0534(9) Uani 1 1 d .
C3 C 0.2718(4) 0.1953(5) 0.0825(2) 0.0521(9) Uani 1 1 d .
C4 C 0.2544(4) 0.0634(4) 0.0323(2) 0.0501(8) Uani 1 1 d .
C5 C 0.2323(4) -0.0870(5) -0.0223(2) 0.0514(8) Uani 1 1 d .
C6 C 0.2145(5) -0.2211(5) -0.0709(2) 0.0520(9) Uani 1 1 d .
C7 C 0.1988(5) -0.3675(5) -0.1280(2) 0.0519(9) Uani 1 1 d .
C8 C 0.1862(5) -0.4941(5) -0.1794(2) 0.0509(8) Uani 1 1 d .
C11 C 0.3151(4) 0.6111(4) 0.2573(2) 0.0471(8) Uani 1 1 d .
C12 C 0.3914(5) 0.7938(4) 0.2332(2) 0.0481(8) Uani 1 1 d .
C13 C 0.4049(5) 0.9353(4) 0.2940(2) 0.0525(8) Uani 1 1 d .
C14 C 0.3414(5) 0.8993(4) 0.3807(2) 0.0489(8) Uani 1 1 d .
C15 C 0.2672(5) 0.7225(5) 0.4067(2) 0.0531(9) Uani 1 1 d .
C16 C 0.2549(5) 0.5804(4) 0.3460(2) 0.0532(9) Uani 1 1 d .
C21 C 0.1708(4) -0.6442(4) -0.2416(2) 0.0455(8) Uani 1 1 d .
C22 C 0.1060(5) -0.8228(5) -0.2138(2) 0.0535(8) Uani 1 1 d .
H22 H 0.0741 -0.8460 -0.1516 0.064 Uiso 1 1 calc R
C23 C 0.0870(5) -0.9674(5) -0.2745(3) 0.0586(9) Uani 1 1 d .
H23 H 0.0419 -1.0895 -0.2545 0.070 Uiso 1 1 calc R
C24 C 0.1341(5) -0.9340(5) -0.3649(3) 0.0582(9) Uani 1 1 d .
H24 H 0.1206 -1.0337 -0.4072 0.070 Uiso 1 1 calc R
C25 C 0.1999(5) -0.7577(5) -0.3939(2) 0.0581(9) Uani 1 1 d .
H25 H 0.2327 -0.7359 -0.4559 0.070 Uiso 1 1 calc R
C26 C 0.2189(5) -0.6123(5) -0.3337(2) 0.0540(9) Uani 1 1 d .
H26 H 0.2644 -0.4905 -0.3542 0.065 Uiso 1 1 calc R
loop_
_atom_site_aniso_label
_atom_site_aniso_U_11
_atom_site_aniso_U_22
_atom_site_aniso_U_33
_atom_site_aniso_U_23
_atom_site_aniso_U_13
_atom_site_aniso_U_12
F12 0.0909(16) 0.0831(15) 0.0513(13) 0.0106(11) 0.0158(11) 0.0375(12)
F13 0.1133(18) 0.0526(13) 0.0842(16) 0.0095(11) 0.0077(13) 0.0331(12)
F14 0.0718(14) 0.0672(13) 0.0706(14) -0.0276(10) -0.0038(10) 0.0339(11)
F15 0.0959(17) 0.0810(15) 0.0583(13) -0.0078(11) 0.0262(12) 0.0217(13)
F16 0.118(2) 0.0489(12) 0.0806(16) 0.0020(11) 0.0309(14) 0.0168(12)
C1 0.0408(18) 0.058(2) 0.0519(19) -0.0110(17) 0.0005(15) 0.0241(16)
C2 0.0433(19) 0.061(2) 0.057(2) -0.0104(18) 0.0044(15) 0.0238(16)
C3 0.0417(19) 0.060(2) 0.056(2) -0.0115(18) 0.0008(16) 0.0244(16)
C4 0.0394(18) 0.056(2) 0.056(2) -0.0097(17) 0.0043(15) 0.0219(16)
C5 0.0398(18) 0.061(2) 0.054(2) -0.0121(17) 0.0016(15) 0.0229(16)
C6 0.0430(19) 0.061(2) 0.052(2) -0.0103(17) 0.0010(15) 0.0232(17)
C7 0.0400(18) 0.056(2) 0.059(2) -0.0122(18) 0.0039(15) 0.0213(16)
C8 0.0413(18) 0.060(2) 0.053(2) -0.0080(17) 0.0024(15) 0.0234(16)
C11 0.0374(17) 0.053(2) 0.051(2) -0.0116(16) -0.0009(14) 0.0209(15)
C12 0.0466(19) 0.056(2) 0.0437(19) 0.0002(16) 0.0034(15) 0.0241(16)
C13 0.053(2) 0.049(2) 0.058(2) -0.0004(16) -0.0014(16) 0.0249(16)
C14 0.0434(18) 0.051(2) 0.052(2) -0.0151(16) -0.0051(15) 0.0224(16)
C15 0.0504(19) 0.061(2) 0.0438(19) -0.0061(16) 0.0098(15) 0.0197(17)
C16 0.051(2) 0.0447(19) 0.058(2) -0.0047(16) 0.0071(16) 0.0155(16)
C21 0.0359(17) 0.0512(19) 0.050(2) -0.0115(16) -0.0025(14) 0.0215(15)
C22 0.0489(19) 0.061(2) 0.050(2) -0.0023(17) 0.0068(15) 0.0223(16)
C23 0.054(2) 0.0467(19) 0.071(3) -0.0083(18) 0.0012(18) 0.0185(16)
C24 0.054(2) 0.062(2) 0.062(2) -0.0178(19) -0.0042(17) 0.0300(18)
C25 0.058(2) 0.074(3) 0.045(2) -0.0101(18) 0.0027(16) 0.0312(19)
C26 0.056(2) 0.055(2) 0.054(2) -0.0018(16) 0.0046(16) 0.0263(16)
loop_
_atom_type_symbol
_atom_type_description
_atom_type_scat_dispersion_real
_atom_type_scat_dispersion_imag
_atom_type_scat_source
C C 0.0033 0.0016 'International Tables Vol C Tables 4.2.6.8 and 6.1.1.4'
H H 0.0000 0.0000 'International Tables Vol C Tables 4.2.6.8 and 6.1.1.4'
F F 0.0171 0.0103 'International Tables Vol C Tables 4.2.6.8 and 6.1.1.4'
loop_
_geom_angle_atom_site_label_1
_geom_angle_atom_site_label_2
_geom_angle_atom_site_label_3
_geom_angle
C2 C1 C11 179.2(3)
C1 C2 C3 178.2(4)
C4 C3 C2 178.3(4)
C3 C4 C5 178.6(4)
C6 C5 C4 179.4(3)
C5 C6 C7 177.8(4)
C8 C7 C6 178.8(4)
C7 C8 C21 179.4(4)
C16 C11 C12 116.5(3)
C16 C11 C1 122.1(3)
C12 C11 C1 121.5(3)
F12 C12 C13 119.6(3)
F12 C12 C11 118.8(3)
C13 C12 C11 121.6(3)
F13 C13 C12 120.4(3)
F13 C13 C14 119.3(3)
C12 C13 C14 120.3(3)
F14 C14 C15 120.2(3)
F14 C14 C13 120.1(3)
C15 C14 C13 119.7(3)
F15 C15 C14 119.8(3)
F15 C15 C16 120.1(3)
C14 C15 C16 120.1(3)
F16 C16 C15 118.6(3)
F16 C16 C11 119.6(3)
C15 C16 C11 121.8(3)
C22 C21 C26 118.6(3)
C22 C21 C8 121.3(3)
C26 C21 C8 120.1(3)
C23 C22 C21 121.0(3)
C22 C23 C24 119.7(3)
C25 C24 C23 120.3(3)
C24 C25 C26 120.5(3)
C25 C26 C21 119.9(3)
loop_
_geom_bond_atom_site_label_1
_geom_bond_atom_site_label_2
_geom_bond_distance
F12 C12 1.325(4)
F13 C13 1.334(4)
F14 C14 1.338(3)
F15 C15 1.345(4)
F16 C16 1.336(4)
C1 C2 1.203(4)
C1 C11 1.420(4)
C2 C3 1.358(5)
C3 C4 1.210(4)
C4 C5 1.354(4)
C5 C6 1.211(4)
C6 C7 1.362(5)
C7 C8 1.198(4)
C8 C21 1.430(4)
C11 C16 1.386(4)
C11 C12 1.391(4)
C12 C13 1.369(4)
C13 C14 1.369(5)
C14 C15 1.358(5)
C15 C16 1.375(4)
C21 C22 1.383(5)
C21 C26 1.407(4)
C22 C23 1.376(4)
C23 C24 1.384(5)
C24 C25 1.371(5)
C25 C26 1.376(4)
loop_
_geom_torsion_atom_site_label_1
_geom_torsion_atom_site_label_2
_geom_torsion_atom_site_label_3
_geom_torsion_atom_site_label_4
_geom_torsion
C11 C1 C2 C3 -77(32)
C1 C2 C3 C4 9(20)
C2 C3 C4 C5 4(24)
C3 C4 C5 C6 -103(38)
C4 C5 C6 C7 -73(41)
C5 C6 C7 C8 -15(22)
C6 C7 C8 C21 -27(45)
C2 C1 C11 C16 72(28)
C2 C1 C11 C12 -109(28)
C16 C11 C12 F12 179.0(3)
C1 C11 C12 F12 -0.3(4)
C16 C11 C12 C13 -0.4(4)
C1 C11 C12 C13 -179.7(3)
F12 C12 C13 F13 -0.4(5)
C11 C12 C13 F13 179.0(3)
F12 C12 C13 C14 -179.9(3)
C11 C12 C13 C14 -0.5(5)
F13 C13 C14 F14 0.7(5)
C12 C13 C14 F14 -179.9(3)
F13 C13 C14 C15 -178.6(3)
C12 C13 C14 C15 0.9(5)
F14 C14 C15 F15 0.1(5)
C13 C14 C15 F15 179.3(3)
F14 C14 C15 C16 -179.6(3)
C13 C14 C15 C16 -0.4(5)
F15 C15 C16 F16 0.6(5)
C14 C15 C16 F16 -179.7(3)
F15 C15 C16 C11 179.8(3)
C14 C15 C16 C11 -0.5(5)
C12 C11 C16 F16 -179.9(3)
C1 C11 C16 F16 -0.6(5)
C12 C11 C16 C15 0.8(5)
C1 C11 C16 C15 -179.8(3)
C7 C8 C21 C22 -153(33)
C7 C8 C21 C26 26(33)
C26 C21 C22 C23 -0.5(5)
C8 C21 C22 C23 178.5(3)
C21 C22 C23 C24 0.2(5)
C22 C23 C24 C25 0.2(5)
C23 C24 C25 C26 -0.4(5)
C24 C25 C26 C21 0.1(5)
C22 C21 C26 C25 0.4(5)
C8 C21 C26 C25 -178.7(3)
loop_
_cod_related_entry_id
_cod_related_entry_database
_cod_related_entry_code
1 ChemSpider 21117817
