#------------------------------------------------------------------------------
#$Date: 2016-02-18 17:37:37 +0200 (Thu, 18 Feb 2016) $
#$Revision: 176729 $
#$URL: svn://www.crystallography.net/cod/cif/1/50/41/1504135.cif $
#------------------------------------------------------------------------------
#
# This file is available in the Crystallography Open Database (COD),
# http://www.crystallography.net/
#
# All data on this site have been placed in the public domain by the
# contributors.
#
data_1504135
loop_
_publ_author_name
'Pinkerton, David M.'
'Banwell, Martin G.'
'Willis, Anthony C.'
_publ_section_title
;
 Chemoenzymatic access to versatile epoxyquinol synthons.
;
_journal_issue                   19
_journal_name_full               'Organic letters'
_journal_page_first              4290
_journal_page_last               4293
_journal_paper_doi               10.1021/ol9016657
_journal_volume                  11
_journal_year                    2009
_chemical_absolute_configuration ad
_chemical_compound_source        local
_chemical_formula_moiety         'C6 H7 Br O3'
_chemical_formula_sum            'C6 H7 Br O3'
_chemical_formula_weight         207.02
_space_group_IT_number           19
_symmetry_cell_setting           orthorhombic
_symmetry_space_group_name_Hall  'P 2ac 2ab'
_symmetry_space_group_name_H-M   'P 21 21 21'
_atom_sites_solution_hydrogens   geom
_atom_sites_solution_primary     direct
_audit_creation_date             08-11-19
_audit_creation_method           CRYSTALS_ver_12.85
_audit_update_record
;
2008-11-20 - Report on C6 H7 Br1 O3 
             by Anthony C. Willis
             for   David M. Pinkerton and Martin Banwell

2008-11-20 - passes checkcif tests with no warnings  
;
_cell_angle_alpha                90
_cell_angle_beta                 90
_cell_angle_gamma                90
_cell_formula_units_Z            4
_cell_length_a                   6.4569(2)
_cell_length_b                   8.5563(3)
_cell_length_c                   12.5272(4)
_cell_measurement_reflns_used    5746
_cell_measurement_temperature    200
_cell_measurement_theta_max      30
_cell_measurement_theta_min      2.6
_cell_volume                     692.09(4)
_computing_cell_refinement       'DENZO/SCALEPACK (Otwinowski & Minor, 1997)'
_computing_data_collection       'COLLECT (Nonius, 1997-2001).'
_computing_data_reduction        'DENZO/SCALEPACK (Otwinowski & Minor, 1997)'
_computing_molecular_graphics
; 
ORTEP-II (Johnson 1976) in teXsan (MSC, 1992-1997)
;
_computing_publication_material  'CRYSTALS (Betteridge et al., 2003)'
_computing_structure_refinement  'CRYSTALS (Betteridge et al., 2003)'
_computing_structure_solution    'SIR92 (Altomare et al., 1994)'
_diffrn_ambient_temperature      200
_diffrn_measured_fraction_theta_full 0.997
_diffrn_measured_fraction_theta_max 0.997
_diffrn_measurement_device       'Nonius KappaCCD'
_diffrn_measurement_device_type  Area
_diffrn_measurement_method       ' \f and \w scans with CCD '
_diffrn_radiation_monochromator  graphite
_diffrn_radiation_type           'Mo K\a'
_diffrn_radiation_wavelength     0.71073
_diffrn_reflns_av_R_equivalents  0.060
_diffrn_reflns_limit_h_max       9
_diffrn_reflns_limit_h_min       -9
_diffrn_reflns_limit_k_max       12
_diffrn_reflns_limit_k_min       -12
_diffrn_reflns_limit_l_max       17
_diffrn_reflns_limit_l_min       -16
_diffrn_reflns_number            8891
_diffrn_reflns_theta_full        30.028
_diffrn_reflns_theta_max         30.028
_diffrn_reflns_theta_min         2.883
_diffrn_standards_number         0
_exptl_absorpt_coefficient_mu    5.878
_exptl_absorpt_correction_T_max  0.983
_exptl_absorpt_correction_T_min  0.974
_exptl_absorpt_correction_type   integration
_exptl_absorpt_process_details
;
via Gaussian method (Coppens, 1970) implemented in maXus (2000)
;
_exptl_crystal_colour            'pale brown'
_exptl_crystal_density_diffrn    1.987
_exptl_crystal_density_method    'not measured'
_exptl_crystal_description       block
_exptl_crystal_F_000             408
_exptl_crystal_size_max          0.40
_exptl_crystal_size_mid          0.20
_exptl_crystal_size_min          0.16
_refine_diff_density_max         0.39
_refine_diff_density_min         -0.45
_refine_ls_abs_structure_details 'Flack (1983), 830 Friedel-pairs'
_refine_ls_abs_structure_Flack   -0.006(10)
_refine_ls_extinction_coef       23(2)
_refine_ls_extinction_method     'Larson (1970), Equation 22'
_refine_ls_goodness_of_fit_ref   1.0812
_refine_ls_hydrogen_treatment    refxyz
_refine_ls_matrix_type           full
_refine_ls_number_parameters     114
_refine_ls_number_reflns         2016
_refine_ls_number_restraints     0
_refine_ls_R_factor_all          0.0238
_refine_ls_R_factor_gt           0.0211
_refine_ls_shift/su_max          0.017964
_refine_ls_structure_factor_coef Fsqd
_refine_ls_weighting_details
;
 Method, part 1, Chebychev polynomial, (Watkin, 1994, Prince, 1982) 
 [weight] = 1.0/[A~0~*T~0~(x)+A~1~*T~1~(x) ... +A~n-1~]*T~n-1~(x)] 
 where A~i~ are the Chebychev coefficients listed below and x= Fcalc/Fmax 
 Method = Robust Weighting (Prince, 1982) 
 W = [weight] * [1-(deltaF/6*sigmaF)^2^]^2^ 
 A~i~ are: 
 38.3 44.7 11.8 
;
_refine_ls_weighting_scheme      calc
_refine_ls_wR_factor_all         0.0319
_refine_ls_wR_factor_gt          0.0309
_refine_ls_wR_factor_ref         0.0319
_reflns_limit_h_max              9
_reflns_limit_h_min              -9
_reflns_limit_k_max              12
_reflns_limit_k_min              0
_reflns_limit_l_max              17
_reflns_limit_l_min              0
_reflns_number_gt                1874
_reflns_number_total             2016
_reflns_threshold_expression     I>2.0\s(I)
_oxford_diffrn_Wilson_B_factor   2.73
_oxford_diffrn_Wilson_scale      0.27
_oxford_refine_ls_r_factor_ref   0.0238
_oxford_refine_ls_scale          1.944(9)
_oxford_reflns_number_all        2016
_oxford_reflns_threshold_expression_ref I>-10.0\s(I)
_oxford_structure_analysis_title '11181607 ban0833'
_cod_data_source_file            ol9016657_si_002.cif
_cod_data_source_block           ban0833
_cod_depositor_comments
;
The following automatic conversions were performed:

'_symmetry_cell_setting' value 'Orthorhombic' changed to
'orthorhombic' according to
/home/saulius/struct/CIF-dictionaries/cif_core.dic dictionary named
'cif_core.dic' version 2.4.2 from 2011-04-26.

Automatic conversion script
Id: cif_fix_values 1715 2011-07-08 13:25:40Z adriana 
;
_cod_original_sg_symbol_H-M      'P 21 21 21 '
_cod_database_code               1504135
loop_
_symmetry_equiv_pos_as_xyz
x,y,z
x+1/2,-y+1/2,-z
-x,y+1/2,-z+1/2
-x+1/2,-y,z+1/2
loop_
_atom_site_label
_atom_site_type_symbol
_atom_site_fract_x
_atom_site_fract_y
_atom_site_fract_z
_atom_site_U_iso_or_equiv
_atom_site_occupancy
_atom_site_adp_type
C1 C 0.4603(4) 0.5912(2) 0.59210(17) 0.0260 1.0000 Uani
C2 C 0.5229(4) 0.6726(3) 0.67594(18) 0.0269 1.0000 Uani
C3 C 0.3839(4) 0.7156(3) 0.76725(17) 0.0293 1.0000 Uani
C4 C 0.1774(5) 0.6370(3) 0.76401(19) 0.0321 1.0000 Uani
C5 C 0.1117(3) 0.5498(3) 0.66988(18) 0.0340 1.0000 Uani
C6 C 0.2443(4) 0.5342(3) 0.57275(18) 0.0292 1.0000 Uani
Br7 Br 0.65258(4) 0.54496(3) 0.480704(18) 0.0360 1.0000 Uani
O8 O 0.4788(3) 0.6730(2) 0.86642(14) 0.0352 1.0000 Uani
O9 O 0.1869(3) 0.4677(2) 0.76237(12) 0.0356 1.0000 Uani
O10 O 0.2470(3) 0.3709(2) 0.54453(13) 0.0349 1.0000 Uani
H21 H 0.663(5) 0.706(3) 0.6841(18) 0.0336 1.0000 Uiso
H31 H 0.364(4) 0.823(3) 0.7615(16) 0.0362 1.0000 Uiso
H41 H 0.074(4) 0.670(3) 0.811(2) 0.0384 1.0000 Uiso
H51 H -0.030(4) 0.536(3) 0.6569(19) 0.0411 1.0000 Uiso
H61 H 0.188(3) 0.600(2) 0.5113(18) 0.0355 1.0000 Uiso
H101 H 0.189(4) 0.357(3) 0.480(2) 0.0535 1.0000 Uiso
H81 H 0.556(5) 0.731(4) 0.883(3) 0.0534 1.0000 Uiso
loop_
_atom_site_aniso_label
_atom_site_aniso_U_11
_atom_site_aniso_U_22
_atom_site_aniso_U_33
_atom_site_aniso_U_23
_atom_site_aniso_U_13
_atom_site_aniso_U_12
C1 0.0307(12) 0.0209(11) 0.0264(11) 0.0017(8) -0.0003(9) 0.0011(9)
C2 0.0301(12) 0.0232(11) 0.0274(11) 0.0015(9) -0.0024(10) -0.0014(9)
C3 0.0390(15) 0.0239(11) 0.0252(11) -0.0007(9) -0.0025(10) -0.0004(10)
C4 0.0305(14) 0.0306(12) 0.0352(12) -0.0002(10) 0.0022(12) 0.0042(12)
C5 0.0266(12) 0.0331(11) 0.0424(12) 0.0005(12) -0.0052(9) 0.0017(12)
C6 0.0320(11) 0.0236(11) 0.0319(11) -0.0015(11) -0.0082(9) 0.0029(12)
Br7 0.04016(12) 0.03923(12) 0.02849(10) -0.00495(11) 0.00363(12) -0.00388(14)
O8 0.0433(11) 0.0365(10) 0.0257(8) -0.0003(7) -0.0058(8) -0.0071(8)
O9 0.0400(11) 0.0285(8) 0.0382(8) 0.0027(8) 0.0028(7) -0.0043(10)
O10 0.0434(10) 0.0244(8) 0.0370(10) -0.0062(7) -0.0131(8) 0.0003(7)
loop_
_atom_type_symbol
_atom_type_scat_dispersion_real
_atom_type_scat_dispersion_imag
_atom_type_scat_Cromer_Mann_a1
_atom_type_scat_Cromer_Mann_b1
_atom_type_scat_Cromer_Mann_a2
_atom_type_scat_Cromer_Mann_b2
_atom_type_scat_Cromer_Mann_a3
_atom_type_scat_Cromer_Mann_b3
_atom_type_scat_Cromer_Mann_a4
_atom_type_scat_Cromer_Mann_b4
_atom_type_scat_Cromer_Mann_c
_atom_type_scat_source
C 0.0033 0.0016 2.3100 20.8439 1.0200 10.2075 1.5886 0.5687 0.8650 51.6512
0.2156 'International Tables Vol C 4.2.6.8 and 6.1.1.4'
H 0.0000 0.0000 0.4930 10.5109 0.3229 26.1257 0.1402 3.1424 0.0408 57.7998
0.0030 'International Tables Vol C 4.2.6.8 and 6.1.1.4'
Br -0.2901 2.4595 17.1789 2.1723 5.2358 16.5796 5.6377 0.2609 3.9851 41.4328
2.9557 'International Tables Vol C 4.2.6.8 and 6.1.1.4'
O 0.0106 0.0060 3.0485 13.2771 2.2868 5.7011 1.5463 0.3239 0.8670 32.9089
0.2508 'International Tables Vol C 4.2.6.8 and 6.1.1.4'
loop_
_exptl_crystal_face_index_h
_exptl_crystal_face_index_k
_exptl_crystal_face_index_l
_exptl_crystal_face_perp_dist
1 1 0 0.200
-1 -1 0 0.180
1 -1 0 0.180
-1 1 0 0.160
0 1 1 0.150
0 -1 -1 0.120
1 0 1 0.170
-1 0 -1 0.180
0 -1 2 0.140
0 1 -2 0.130
1 5 12 0.160
1 0 -2 0.200
-1 0 2 0.180
-1 -5 -10 0.113
loop_
_geom_angle_atom_site_label_1
_geom_angle_atom_site_label_2
_geom_angle_atom_site_label_3
_geom_angle
_geom_angle_publ_flag
C2 C1 C6 125.8(2) yes
C2 C1 Br7 119.36(18) yes
C6 C1 Br7 114.83(15) yes
C1 C2 C3 123.4(2) yes
C1 C2 H21 122.2(14) no
C3 C2 H21 114.3(14) no
C2 C3 C4 113.8(2) yes
C2 C3 O8 110.0(2) yes
C4 C3 O8 106.90(18) yes
C2 C3 H31 105.4(15) no
C4 C3 H31 108.6(18) no
O8 C3 H31 112.2(14) no
C3 C4 C5 120.8(2) yes
C3 C4 O9 114.4(2) yes
C5 C4 O9 59.32(16) yes
C3 C4 H41 118.9(16) no
C5 C4 H41 117.2(16) no
O9 C4 H41 110.3(16) no
C4 C5 C6 122.5(2) yes
C4 C5 O9 60.04(13) yes
C6 C5 O9 114.8(2) yes
C4 C5 H51 119.1(16) no
C6 C5 H51 114.1(15) no
O9 C5 H51 114.2(16) no
C1 C6 C5 111.90(19) yes
C1 C6 O10 110.13(19) yes
C5 C6 O10 107.0(2) yes
C1 C6 H61 105.7(13) no
C5 C6 H61 111.3(12) no
O10 C6 H61 110.9(11) no
C3 O8 H81 111(3) no
C4 O9 C5 60.64(16) yes
C6 O10 H101 110.3(16) no
loop_
_geom_bond_atom_site_label_1
_geom_bond_atom_site_label_2
_geom_bond_distance
_geom_bond_publ_flag
C1 C2 1.324(3) yes
C1 C6 1.497(3) yes
C1 Br7 1.909(2) yes
C2 C3 1.500(3) yes
C2 H21 0.96(3) no
C3 C4 1.494(4) yes
C3 O8 1.433(3) yes
C3 H31 0.93(2) no
C4 C5 1.458(3) yes
C4 O9 1.450(3) yes
C4 H41 0.93(3) no
C5 C6 1.494(3) yes
C5 O9 1.439(3) yes
C5 H51 0.94(2) no
C6 O10 1.441(3) yes
C6 H61 1.02(2) no
O8 H81 0.73(3) no
O10 H101 0.90(3) no
loop_
_geom_contact_atom_site_label_1
_geom_contact_atom_site_label_2
_geom_contact_distance
_geom_contact_site_symmetry_2
_geom_contact_publ_flag
BR7 O8 3.345(2) 4_664 no
BR7 O9 3.507(2) 4_564 no
O8 O10 2.692(2) 4_565 no
O8 O10 2.692(3) 3_656 no
O8 C6 3.450(3) 4_565 no
O9 C2 3.238(3) 3_646 no
O9 C3 3.531(3) 3_646 no
O10 C4 3.549(3) 4_564 no
loop_
_geom_hbond_atom_site_label_D
_geom_hbond_atom_site_label_H
_geom_hbond_atom_site_label_A
_geom_hbond_site_symmetry_A
_geom_hbond_angle_DHA
_geom_hbond_distance_DH
_geom_hbond_distance_HA
_geom_hbond_distance_DA
_geom_hbond_publ_flag
O8 H81 O10 3_656 169(4) 0.73(3) 1.97(3) 2.692(3) no
O10 H101 O8 4_564 168(2) 0.90(3) 1.80(3) 2.692(3) no
loop_
_geom_torsion_atom_site_label_1
_geom_torsion_atom_site_label_2
_geom_torsion_atom_site_label_3
_geom_torsion_atom_site_label_4
_geom_torsion
_geom_torsion_publ_flag
Br7 C1 C2 C3 179.7(2) no
Br7 C1 C6 O10 51.3(2) no
Br7 C1 C6 C5 170.3(2) no
O8 C3 C2 C1 129.3(2) no
O8 C3 C4 O9 -64.2(2) no
O8 C3 C4 C5 -131.7(2) no
O9 C4 C3 C2 57.6(3) no
O9 C4 C5 C6 -101.9(2) no
O9 C5 C4 C3 101.8(3) no
O9 C5 C6 O10 62.4(2) no
O9 C5 C6 C1 -58.4(3) no
O10 C6 C1 C2 -131.0(2) no
O10 C6 C5 C4 131.4(2) no
C1 C2 C3 C4 9.3(3) no
C1 C6 C5 C4 10.6(3) no
C2 C1 C6 C5 -12.1(3) no
C2 C3 C4 C5 -10.0(3) no
C3 C2 C1 C6 2.1(4) no
C3 C4 O9 C5 -112.6(2) no
C3 C4 C5 C6 -0.1(4) no
C4 O9 C5 C6 114.7(2) no
