#------------------------------------------------------------------------------
#$Date: 2017-10-13 02:32:00 +0300 (Fri, 13 Oct 2017) $
#$Revision: 201954 $
#$URL: file:///home/coder/svn-repositories/cod/cif/1/50/58/1505805.cif $
#------------------------------------------------------------------------------
#
# This file is available in the Crystallography Open Database (COD),
# http://www.crystallography.net/
#
# All data on this site have been placed in the public domain by the
# contributors.
#
data_1505805
loop_
_publ_author_name
'Tuchinda, Patoomratana'
'Munyoo, Bamroong'
'Pohmakotr, Manat'
'Thinapong, Pongchan'
'Sophasan, Samaisukh'
'Santisuk, Thawatchai'
'Reutrakul, Vichai'
_publ_section_title
;
 Cytotoxic styryl-lactones from the leaves and twigs of Polyalthia crassa.
;
_journal_issue                   12
_journal_name_full               'Journal of natural products'
_journal_page_first              1728
_journal_page_last               1733
_journal_paper_doi               10.1021/np060323u
_journal_volume                  69
_journal_year                    2006
_chemical_compound_source        'Natural Product'
_chemical_formula_moiety         'C13 H12 O4 '
_chemical_formula_sum            'C13 H12 O4'
_chemical_formula_weight         232.235
_chemical_name_systematic
;
 ?
;
_space_group_IT_number           4
_symmetry_cell_setting           monoclinic
_symmetry_space_group_name_Hall  'P 2yb'
_symmetry_space_group_name_H-M   'P 1 21 1'
_atom_sites_solution_primary     direct
_atom_sites_solution_secondary   difmap
_audit_creation_method           maXus
_cell_angle_alpha                90.00
_cell_angle_beta                 99.310(3)
_cell_angle_gamma                90.00
_cell_formula_units_Z            2
_cell_length_a                   9.7649(9)
_cell_length_b                   4.8852(3)
_cell_length_c                   11.8369(11)
_cell_measurement_reflns_used    1031
_cell_measurement_temperature    298
_cell_measurement_theta_max      26.373
_cell_measurement_theta_min      0.998
_cell_volume                     557.22(8)
_computing_cell_refinement       'HKL Scalepack (Otwinowski & Minor 1997)'
_computing_data_collection       KappaCCD
_computing_data_reduction
'Denzo and Scalepak (Otwinowski & Minor, 1997)'
_computing_structure_refinement  'SHELXL-97 (Sheldrick, 1997)'
_computing_structure_solution
'SIR97(Cascarano al.,Acta Cryst.,1996,A52,C-79)'
_diffrn_measured_fraction_theta_full 0.930
_diffrn_measured_fraction_theta_max 0.930
_diffrn_measurement_device       KappaCCD
_diffrn_measurement_method       CCD
_diffrn_orient_matrix_type       X=UH
_diffrn_orient_matrix_UB_11      0.00914
_diffrn_orient_matrix_UB_12      0.03656
_diffrn_orient_matrix_UB_13      0.09669
_diffrn_orient_matrix_UB_21      -0.14378
_diffrn_orient_matrix_UB_22      0.14026
_diffrn_orient_matrix_UB_23      -0.03945
_diffrn_orient_matrix_UB_31      -0.05845
_diffrn_orient_matrix_UB_32      -0.04897
_diffrn_orient_matrix_UB_33      0.03891
_diffrn_radiation_source         'fine-focus sealed tube'
_diffrn_radiation_type           ' MoK\a'
_diffrn_radiation_wavelength_id  all
_diffrn_reflns_limit_h_max       12
_diffrn_reflns_limit_h_min       -12
_diffrn_reflns_limit_k_max       5
_diffrn_reflns_limit_k_min       -5
_diffrn_reflns_limit_l_max       14
_diffrn_reflns_limit_l_min       -14
_diffrn_reflns_number            1996
_diffrn_reflns_theta_full        26.39
_diffrn_reflns_theta_max         26.39
_diffrn_reflns_theta_min         2.51
_exptl_absorpt_coefficient_mu    0.10
_exptl_absorpt_correction_type   none
_exptl_crystal_colour            Colourless
_exptl_crystal_density_diffrn    1.384
_exptl_crystal_density_method    'not measured'
_exptl_crystal_description       Rod
_refine_diff_density_max         0.089
_refine_diff_density_min         -0.110
_refine_diff_density_rms         0.024
_refine_ls_abs_structure_details 'Flack H D (1983), Acta Cryst. A39, 876-881'
_refine_ls_abs_structure_Flack   -0.9(11)
_refine_ls_extinction_coef       0.19(5)
_refine_ls_extinction_expression Fc^*^=kFc[1+0.001xFc^2^\l^3^/sin(2\q)]^-1/4^
_refine_ls_extinction_method     SHELXL
_refine_ls_goodness_of_fit_ref   1.076
_refine_ls_hydrogen_treatment    refxyz
_refine_ls_matrix_type           full
_refine_ls_number_parameters     155
_refine_ls_number_reflns         1994
_refine_ls_number_restraints     1
_refine_ls_restrained_S_all      1.076
_refine_ls_R_factor_all          0.0441
_refine_ls_R_factor_gt           0.0375
_refine_ls_shift/su_max          0.000
_refine_ls_shift/su_mean         0.000
_refine_ls_structure_factor_coef Fsqd
_refine_ls_weighting_details
'calc w=1/[\s^2^(Fo^2^)+(0.0495P)^2^+0.0512P] where P=(Fo^2^+2Fc^2^)/3'
_refine_ls_weighting_scheme      calc
_refine_ls_wR_factor_gt          0.0928
_refine_ls_wR_factor_ref         0.0986
_reflns_number_gt                1784
_reflns_number_total             1994
_reflns_threshold_expression     >2sigma(I)
_cod_data_source_file            np060323usi20060714_042935.cif
_cod_data_source_block           global
_cod_depositor_comments
;
The following automatic conversions were performed:

'_symmetry_cell_setting' value 'Monoclinic' changed to 'monoclinic'
according to /home/saulius/struct/CIF-dictionaries/cif_core.dic
dictionary named 'cif_core.dic' version 2.4.1 from 2010-06-29.

Automatic conversion script
Id: cif_fix_values 1715 2011-07-08 13:25:40Z adriana 
;
_cod_original_sg_symbol_H-M      'P 21          '
_cod_original_formula_sum        'C13 H12 O4 '
_cod_database_code               1505805
loop_
_symmetry_equiv_pos_as_xyz
+X,+Y,+Z
'-X,+Y+ 1/2,-Z'
loop_
_atom_site_label
_atom_site_type_symbol
_atom_site_fract_x
_atom_site_fract_y
_atom_site_fract_z
_atom_site_U_iso_or_equiv
_atom_site_adp_type
_atom_site_occupancy
_atom_site_symmetry_multiplicity
_atom_site_calc_flag
_atom_site_refinement_flags
O1 O -0.29533(12) -0.2768(3) 0.02572(9) 0.0470(3) Uani 1 1 d .
O5 O -0.21197(13) -0.1988(3) -0.14343(10) 0.0571(4) Uani 1 1 d .
O7' O -0.53690(13) -0.2738(3) -0.18447(11) 0.0592(4) Uani 1 1 d .
C5 C -0.25904(17) -0.0665(4) -0.05225(14) 0.0454(4) Uani 1 1 d .
C9 C -0.26385(19) -0.0470(4) -0.34153(15) 0.0485(4) Uani 1 1 d .
O2' O -0.23181(15) -0.3904(4) 0.20945(12) 0.0672(5) Uani 1 1 d .
C6 C -0.38554(18) 0.0987(4) -0.10293(15) 0.0494(4) Uani 1 1 d .
C2 C -0.21913(18) -0.2412(5) 0.13054(15) 0.0503(5) Uani 1 1 d .
C7 C -0.44580(18) -0.0618(5) -0.20913(15) 0.0504(5) Uani 1 1 d .
C4 C -0.14571(19) 0.0891(5) 0.02138(18) 0.0571(5) Uani 1 1 d .
C8 C -0.31604(19) -0.1956(4) -0.24483(15) 0.0499(5) Uani 1 1 d .
C3 C -0.1259(2) -0.0066(5) 0.12656(19) 0.0583(5) Uani 1 1 d .
C10 C -0.1505(3) 0.1201(7) -0.32487(18) 0.0768(7) Uani 1 1 d .
C12 C -0.1820(3) 0.2302(7) -0.5246(2) 0.0840(8) Uani 1 1 d .
C14 C -0.3339(3) -0.0798(7) -0.45149(18) 0.0796(8) Uani 1 1 d .
C13 C -0.2930(3) 0.0602(8) -0.5426(2) 0.0934(10) Uani 1 1 d .
C11 C -0.1090(3) 0.2630(9) -0.4157(2) 0.0990(11) Uani 1 1 d .
H7' H -0.6187 -0.2128 -0.1879 0.071 Uiso 1 1 d R
H6A H -0.3500 0.2715 -0.1184 0.059 Uiso 1 1 d R
H6B H -0.4493 0.1034 -0.0388 0.059 Uiso 1 1 d R
H7 H -0.4893 0.0778 -0.2733 0.061 Uiso 1 1 d R
H4 H -0.1032 0.2388 -0.0116 0.069 Uiso 1 1 d R
H8 H -0.3490 -0.3843 -0.2715 0.060 Uiso 1 1 d R
H3 H -0.0665 0.0797 0.1838 0.070 Uiso 1 1 d R
H10 H -0.0958 0.1563 -0.2371 0.092 Uiso 1 1 d R
H12 H -0.1426 0.2827 -0.5958 0.101 Uiso 1 1 d R
H14 H -0.4122 -0.2105 -0.4686 0.095 Uiso 1 1 d R
H13 H -0.3413 0.0403 -0.6168 0.112 Uiso 1 1 d R
H11 H -0.0237 0.4076 -0.3861 0.119 Uiso 1 1 d R
loop_
_atom_site_aniso_label
_atom_site_aniso_U_11
_atom_site_aniso_U_22
_atom_site_aniso_U_33
_atom_site_aniso_U_23
_atom_site_aniso_U_13
_atom_site_aniso_U_12
O1 0.0529(7) 0.0471(8) 0.0406(6) 0.0053(5) 0.0065(5) -0.0045(5)
O5 0.0587(7) 0.0710(11) 0.0435(7) 0.0067(6) 0.0139(5) 0.0229(7)
O7' 0.0539(7) 0.0653(10) 0.0585(7) 0.0027(7) 0.0094(6) -0.0071(6)
C5 0.0480(9) 0.0454(11) 0.0453(9) 0.0056(7) 0.0155(7) 0.0029(7)
C9 0.0549(9) 0.0481(11) 0.0447(9) 0.0039(8) 0.0146(7) 0.0081(8)
O2' 0.0714(9) 0.0819(12) 0.0472(8) 0.0149(7) 0.0061(6) -0.0004(8)
C6 0.0499(9) 0.0430(11) 0.0562(10) 0.0053(8) 0.0113(8) 0.0037(8)
C2 0.0487(9) 0.0585(13) 0.0432(9) -0.0010(9) 0.0060(7) 0.0060(8)
C7 0.0514(10) 0.0530(12) 0.0480(10) 0.0100(8) 0.0116(8) 0.0043(8)
C4 0.0467(9) 0.0504(12) 0.0749(13) 0.0046(10) 0.0118(9) -0.0026(8)
C8 0.0557(10) 0.0492(12) 0.0459(9) 0.0064(8) 0.0117(7) 0.0071(8)
C3 0.0490(10) 0.0593(14) 0.0633(12) -0.0076(9) -0.0005(8) -0.0021(8)
C10 0.0871(15) 0.096(2) 0.0500(11) -0.0009(12) 0.0184(11) -0.0282(14)
C12 0.0979(18) 0.094(2) 0.0699(15) 0.0287(15) 0.0426(14) 0.0183(16)
C14 0.0773(14) 0.112(2) 0.0487(11) 0.0063(13) 0.0071(10) -0.0146(15)
C13 0.0948(19) 0.140(3) 0.0458(12) 0.0197(14) 0.0138(12) 0.015(2)
C11 0.115(2) 0.116(3) 0.0736(16) 0.0055(17) 0.0363(15) -0.043(2)
loop_
_atom_type_symbol
_atom_type_description
_atom_type_scat_dispersion_real
_atom_type_scat_dispersion_imag
_atom_type_scat_source
C C 0.0033 0.0016 'International Tables Vol C Tables 4.2.6.8 and 6.1.1.4'
H H 0.0000 0.0000 'International Tables Vol C Tables 4.2.6.8 and 6.1.1.4'
O O 0.0106 0.0060 'International Tables Vol C Tables 4.2.6.8 and 6.1.1.4'
loop_
_diffrn_radiation_wavelength
0.71073
loop_
_geom_angle_atom_site_label_1
_geom_angle_atom_site_label_2
_geom_angle_atom_site_label_3
_geom_angle
C2 O1 C5 109.62(14)
C5 O5 C8 111.23(12)
O5 C5 O1 107.82(16)
O5 C5 C4 112.27(14)
O1 C5 C4 102.75(14)
O5 C5 C6 106.82(14)
O1 C5 C6 111.02(13)
C4 C5 C6 115.94(19)
C10 C9 C14 118.3(2)
C10 C9 C8 122.90(19)
C14 C9 C8 118.83(19)
C5 C6 C7 103.58(16)
O2' C2 O1 121.54(19)
O2' C2 C3 129.61(18)
O1 C2 C3 108.84(16)
O7' C7 C6 112.14(14)
O7' C7 C8 108.37(17)
C6 C7 C8 102.71(14)
C3 C4 C5 110.58(19)
O5 C8 C9 110.91(15)
O5 C8 C7 106.01(13)
C9 C8 C7 113.31(16)
C4 C3 C2 108.11(18)
C9 C10 C11 121.2(2)
C13 C12 C11 119.9(2)
C9 C14 C13 121.0(3)
C12 C13 C14 120.2(2)
C12 C11 C10 119.5(3)
C7 O7' H7' 110.4
C5 C6 H6A 104.6
C7 C6 H6A 114.1
C5 C6 H6B 105.3
C7 C6 H6B 114.3
H6A C6 H6B 113.5
O7' C7 H7 115.1
C6 C7 H7 108.6
C8 C7 H7 109.2
C3 C4 H4 130.7
C5 C4 H4 118.6
O5 C8 H8 113.4
C9 C8 H8 109.3
C7 C8 H8 103.7
C4 C3 H3 120.9
C2 C3 H3 130.8
C9 C10 H10 119.4
C11 C10 H10 119.2
C13 C12 H12 115.2
C11 C12 H12 122.6
C9 C14 H14 121.1
C13 C14 H14 117.8
C12 C13 H13 118.8
C14 C13 H13 121.0
C12 C11 H11 128.3
C10 C11 H11 112.0
loop_
_geom_bond_atom_site_label_1
_geom_bond_atom_site_label_2
_geom_bond_distance
O1 C2 1.351(2)
O1 C5 1.462(2)
O5 C5 1.398(2)
O5 C8 1.442(2)
O7' C7 1.426(2)
C5 C4 1.500(3)
C5 C6 1.516(3)
C9 C10 1.364(3)
C9 C14 1.378(3)
C9 C8 1.512(2)
O2' C2 1.207(3)
C6 C7 1.517(3)
C2 C3 1.469(3)
C7 C8 1.544(3)
C4 C3 1.315(3)
C10 C11 1.395(4)
C12 C13 1.355(5)
C12 C11 1.378(4)
C14 C13 1.389(4)
O7' H7' 0.8470
C6 H6A 0.9420
C6 H6B 1.0570
C7 H7 1.0570
C4 H4 0.9550
C8 H8 1.0100
C3 H3 0.9200
C10 H10 1.1031
C12 H12 1.0139
C14 H14 0.9910
C13 H13 0.9321
C11 H11 1.1050
loop_
_refln_index_h
_refln_index_k
_refln_index_l
_refln_F_squared_meas
_refln_F_squared_calc
_refln_F_squared_sigma
-12 -1 2 2.5 1.0 0.7
-12 -1 3 3.6 1.1 0.7
-11 -2 -1 1.2 5.1 0.8
-11 -2 0 2.2 2.6 0.8
-11 -2 2 1.5 2.3 0.8
-11 -1 -2 5.0 3.6 0.8
-11 -1 -1 9.3 17.1 1.2
-11 -1 2 2.5 1.0 0.5
-11 -1 3 19.7 15.6 1.1
-11 -1 4 13.9 10.3 1.2
-11 -1 5 3.2 0.5 0.7
-11 -1 6 5.8 9.2 0.8
-10 -3 -1 2.1 0.6 0.4
-10 -3 0 4.1 0.0 0.5
-10 -3 1 3.7 1.8 0.4
-10 -3 2 2.5 7.2 0.5
-10 -3 3 1.4 2.4 0.4
-10 -3 4 4.6 3.2 0.7
-10 -3 5 2.9 0.6 0.5
-10 -3 6 1.7 6.4 0.5
-10 -2 -4 1.6 2.3 0.6
-10 -2 -3 2.2 0.7 0.5
-10 -2 -2 3.1 6.6 0.5
-10 -2 0 15.9 30.7 1.0
-10 -2 1 24.2 20.4 1.1
-10 -2 2 10.5 4.0 0.6
-10 -2 3 5.9 5.5 0.6
-10 -2 4 2.9 3.3 0.5
-10 -2 5 2.9 13.3 0.5
-10 -2 6 2.4 1.8 0.5
-10 -1 -6 2.7 1.9 0.7
-10 -1 -5 3.6 6.4 0.7
-10 -1 -4 3.0 1.9 0.6
-10 -1 -3 32.8 47.3 1.7
-10 -1 -2 15.4 10.7 0.9
-10 -1 0 27.1 19.8 1.3
-10 -1 1 7.0 15.7 0.5
-10 -1 2 1.0 15.3 0.4
-10 -1 3 13.6 6.5 1.0
-10 -1 5 1.2 2.8 0.3
-10 -1 6 15.1 11.5 1.3
-10 -1 7 31.9 16.3 1.6
-10 -1 8 10.0 15.9 1.1
-10 -1 9 1.5 3.0 0.8
-9 -4 0 6.8 5.4 0.6
-9 -4 1 2.3 3.0 0.4
-9 -4 2 1.0 0.1 0.4
-9 -4 3 2.1 1.0 0.4
-9 -4 4 7.2 8.0 0.6
-9 -3 -5 1.0 1.6 0.4
-9 -3 -3 0.6 5.1 0.3
-9 -3 -2 1.5 10.5 0.3
-9 -3 -1 2.3 4.9 0.5
-9 -3 0 10.8 11.2 0.7
-9 -3 1 4.0 4.2 0.5
-9 -3 2 1.1 0.2 0.3
-9 -3 3 4.9 21.5 0.5
-9 -3 4 4.4 5.7 0.4
-9 -3 5 4.0 4.6 0.4
-9 -3 6 7.7 11.3 0.7
-9 -3 7 2.1 3.0 0.5
-9 -3 8 2.4 0.8 0.5
-9 -2 -6 5.3 8.6 0.6
-9 -2 -5 2.2 1.4 0.5
-9 -2 -4 12.6 22.2 1.2
-9 -2 -3 6.2 3.0 0.6
-9 -2 -2 6.5 2.9 0.6
-9 -2 -1 12.5 2.0 0.8
-9 -2 0 14.3 32.8 0.8
-9 -2 1 2.8 13.3 0.4
-9 -2 2 3.0 3.8 0.7
-9 -2 4 5.7 5.5 0.5
-9 -2 6 9.9 4.4 0.6
-9 -2 7 12.5 20.0 1.0
-9 -2 8 7.1 1.9 0.6
-9 -2 10 1.8 0.0 0.6
-9 -1 -7 1.7 1.4 0.9
-9 -1 -6 9.2 10.6 0.8
-9 -1 -5 5.3 5.4 0.6
-9 -1 -4 24.9 25.2 1.2
-9 -1 -2 3.7 17.5 0.6
-9 -1 -1 15.7 20.8 0.7
-9 -1 0 45.0 26.5 1.7
-9 -1 1 49.8 37.2 1.8
-9 -1 2 10.2 9.6 0.7
-9 -1 3 63.2 50.3 2.3
-9 -1 4 27.5 21.9 1.1
-9 -1 5 17.3 19.3 0.9
-9 -1 6 4.4 7.9 0.9
-9 -1 7 16.3 10.4 0.9
-9 -1 8 2.8 1.2 0.4
-9 -1 9 1.0 5.1 0.4
-9 -1 11 3.9 2.3 0.8
-8 -4 -2 1.6 1.1 0.3
-8 -4 -1 1.4 3.3 0.3
-8 -4 0 1.2 2.2 0.3
-8 -4 1 1.5 9.7 0.5
-8 -4 3 2.5 2.7 0.5
-8 -4 4 6.0 5.6 0.8
-8 -4 5 9.1 9.5 0.6
-8 -4 7 1.7 4.9 0.4
-8 -3 -6 3.8 2.5 0.5
-8 -3 -5 7.8 16.8 0.7
-8 -3 -4 1.9 6.0 0.4
-8 -3 -2 11.6 21.1 1.0
-8 -3 -1 6.1 2.6 0.4
-8 -3 0 16.4 30.5 0.8
-8 -3 2 5.7 5.9 0.4
-8 -3 3 2.1 4.8 0.6
-8 -3 4 28.7 10.6 1.1
-8 -3 5 28.4 26.7 1.2
-8 -3 6 0.9 4.0 0.4
-8 -3 7 1.0 1.0 0.3
-8 -3 9 10.6 7.2 0.7
-8 -2 -8 5.6 4.7 0.8
-8 -2 -7 1.3 0.1 0.5
-8 -2 -6 0.5 2.8 0.3
-8 -2 -5 5.2 10.8 0.5
-8 -2 -4 19.8 15.6 1.3
-8 -2 -3 2.0 3.2 0.4
-8 -2 -2 29.0 26.4 1.1
-8 -2 -1 20.4 19.7 0.9
-8 -2 0 70.0 40.2 3.2
-8 -2 1 40.5 71.5 1.4
-8 -2 2 2.1 6.9 0.3
-8 -2 3 45.9 25.4 1.6
-8 -2 4 28.5 17.4 1.1
-8 -2 5 6.7 1.1 0.5
-8 -2 6 18.8 22.6 0.9
-8 -2 7 1.3 7.6 0.4
-8 -2 8 11.7 27.4 0.7
-8 -2 9 4.8 0.9 0.9
-8 -2 10 3.3 5.0 0.5
-8 -2 11 4.5 1.1 0.9
-8 -1 -6 7.8 0.8 0.8
-8 -1 -5 12.2 9.2 0.8
-8 -1 -4 54.0 48.6 2.0
-8 -1 -3 53.7 34.2 1.9
-8 -1 -2 3.1 6.9 0.4
-8 -1 -1 27.9 50.6 1.1
-8 -1 0 21.4 20.5 1.0
-8 -1 1 28.9 22.7 1.1
-8 -1 2 19.0 18.2 0.8
-8 -1 3 11.7 17.5 0.9
-8 -1 4 24.4 27.1 1.0
-8 -1 5 37.2 40.0 1.4
-8 -1 6 13.4 11.6 0.7
-8 -1 7 44.4 23.3 1.6
-8 -1 8 64.0 40.8 2.2
-8 -1 9 15.3 28.8 0.9
-8 -1 10 1.7 11.6 0.4
-8 -1 11 8.9 0.8 1.1
-7 -5 1 2.7 3.0 0.4
-7 -4 -5 1.6 6.3 0.3
-7 -4 -4 1.0 2.8 0.3
-7 -4 -3 3.1 9.1 0.4
-7 -4 -2 2.6 6.1 0.5
-7 -4 -1 12.8 16.3 0.8
-7 -4 0 4.9 9.8 0.4
-7 -4 1 1.5 3.3 0.3
-7 -4 3 0.4 1.0 0.2
-7 -4 4 15.1 32.5 0.8
-7 -4 5 1.0 0.4 0.3
-7 -4 6 4.7 9.0 0.4
-7 -4 7 19.9 13.4 1.3
-7 -3 -8 1.1 0.4 0.5
-7 -3 -7 7.1 0.3 0.6
-7 -3 -6 18.1 26.1 1.4
-7 -3 -5 2.9 3.2 0.4
-7 -3 -4 1.3 1.2 0.4
-7 -3 -3 21.4 17.7 0.9
-7 -3 -2 9.3 10.2 0.5
-7 -3 -1 3.0 17.4 0.5
-7 -3 0 23.4 25.8 0.9
-7 -3 1 10.6 2.3 0.6
-7 -3 2 18.1 9.7 0.8
-7 -3 3 63.1 37.2 3.0
-7 -3 4 15.3 3.0 0.8
-7 -3 5 33.4 37.5 1.1
-7 -3 6 14.5 6.4 0.7
-7 -3 7 9.3 15.3 0.6
-7 -3 10 6.4 1.2 0.6
-7 -2 -9 2.5 11.8 0.8
-7 -2 -7 4.6 5.8 0.5
-7 -2 -5 3.8 10.6 0.4
-7 -2 -4 6.8 3.3 0.5
-7 -2 -3 38.0 57.3 1.4
-7 -2 -2 80.8 51.0 2.4
-7 -2 -1 13.9 4.7 0.7
-7 -2 0 36.7 40.9 1.3
-7 -2 1 14.6 8.2 0.9
-7 -2 2 6.0 8.4 0.4
-7 -2 3 23.7 13.5 1.0
-7 -2 4 245.0 174.1 6.2
-7 -2 5 17.9 9.5 0.8
-7 -2 6 75.6 45.5 2.2
-7 -2 7 78.3 61.9 2.5
-7 -2 8 19.3 20.3 1.3
-7 -2 9 2.0 7.6 0.6
-7 -2 10 12.0 3.0 0.8
-7 -2 11 2.8 0.7 0.5
-7 -1 -8 3.3 4.8 0.5
-7 -1 -7 0.7 2.3 0.3
-7 -1 -6 24.6 30.3 1.1
-7 -1 -5 14.0 12.5 0.7
-7 -1 -4 65.1 68.1 2.1
-7 -1 -3 67.9 47.5 2.0
-7 -1 -2 57.3 45.4 1.7
-7 -1 -1 21.3 21.1 0.8
-7 -1 0 2.0 2.8 0.3
-7 -1 1 17.7 14.3 0.7
-7 -1 2 1.0 5.2 0.3
-7 -1 3 44.2 47.7 1.5
-7 -1 4 12.1 7.0 0.5
-7 -1 5 77.1 61.6 3.1
-7 -1 6 87.2 97.6 2.4
-7 -1 7 61.5 59.2 1.9
-7 -1 8 71.0 39.9 2.3
-7 -1 9 31.4 20.5 1.3
-7 -1 10 1.8 2.4 0.5
-7 -1 11 10.0 9.9 0.7
-7 -1 13 3.8 0.8 0.8
-6 -5 -3 2.0 0.0 0.4
-6 -5 -2 6.3 3.1 0.6
-6 -5 0 1.8 3.7 0.3
-6 -5 1 1.2 3.8 0.3
-6 -4 -7 10.1 22.2 0.6
-6 -4 -6 9.0 5.9 0.8
-6 -4 -5 1.6 1.7 0.3
-6 -4 -4 8.1 4.8 0.5
-6 -4 -2 2.5 20.5 0.3
-6 -4 -1 3.2 0.5 0.3
-6 -4 0 11.9 2.6 0.8
-6 -4 1 7.2 12.4 0.4
-6 -4 2 2.3 1.1 0.3
-6 -4 3 29.2 33.7 1.5
-6 -4 4 4.8 7.5 0.4
-6 -4 6 2.9 5.2 0.4
-6 -4 7 2.1 1.8 0.3
-6 -4 8 3.7 1.0 0.4
-6 -3 -9 1.9 1.6 0.4
-6 -3 -8 1.4 1.3 0.4
-6 -3 -7 8.0 5.5 0.6
-6 -3 -6 1.6 4.0 0.3
-6 -3 -5 7.8 2.4 0.4
-6 -3 -4 29.0 55.5 1.1
-6 -3 -3 53.6 31.6 1.7
-6 -3 -2 43.7 42.8 1.4
-6 -3 -1 33.5 29.0 1.1
-6 -3 0 34.1 46.0 1.7
-6 -3 1 2.1 5.6 0.3
-6 -3 2 31.2 36.5 1.1
-6 -3 3 57.6 60.8 2.3
-6 -3 4 172.9 122.5 4.4
-6 -3 5 3.6 4.0 0.3
-6 -3 6 7.0 5.7 0.4
-6 -3 7 8.5 16.1 0.9
-6 -3 8 5.9 4.5 0.8
-6 -3 11 2.2 1.0 0.4
-6 -2 -10 0.7 0.9 0.4
-6 -2 -9 2.8 0.3 0.4
-6 -2 -8 5.5 0.3 0.8
-6 -2 -7 104.1 93.0 3.4
-6 -2 -6 46.1 30.6 1.8
-6 -2 -5 17.9 12.7 1.2
-6 -2 -4 11.6 9.3 0.6
-6 -2 -3 42.4 42.0 1.3
-6 -2 -2 24.1 52.2 0.9
-6 -2 -1 6.3 1.1 0.7
-6 -2 0 22.1 16.9 0.8
-6 -2 1 37.1 20.2 1.2
-6 -2 2 14.4 16.0 0.6
-6 -2 3 116.6 103.3 2.8
-6 -2 4 14.9 33.5 0.9
-6 -2 5 24.4 29.3 0.8
-6 -2 6 186.4 149.3 4.8
-6 -2 7 3.6 1.9 0.4
-6 -2 8 13.7 3.0 0.6
-6 -2 9 4.5 2.4 0.6
-6 -2 10 2.6 5.7 0.4
-6 -2 12 14.0 12.9 1.2
-6 -1 -9 2.6 5.0 0.4
-6 -1 -8 7.5 12.1 0.6
-6 -1 -7 1.6 3.9 0.3
-6 -1 -6 69.7 36.0 2.3
-6 -1 -5 33.8 56.2 1.9
-6 -1 -4 196.0 243.3 4.9
-6 -1 -3 146.1 80.5 3.7
-6 -1 -2 28.5 36.6 1.4
-6 -1 -1 55.4 25.0 2.3
-6 -1 0 202.2 156.8 6.8
-6 -1 1 52.6 81.0 1.5
-6 -1 2 170.0 127.2 4.0
-6 -1 3 155.9 169.3 3.7
-6 -1 4 12.0 10.7 0.5
-6 -1 5 22.4 22.0 0.8
-6 -1 6 66.1 31.1 1.8
-6 -1 7 117.8 81.9 4.6
-6 -1 8 3.9 6.4 0.4
-6 -1 9 23.1 15.8 0.9
-6 -1 10 3.7 5.2 0.6
-6 -1 11 17.5 15.5 0.9
-6 -1 12 8.1 7.3 0.7
-5 -5 -4 1.4 4.9 0.4
-5 -5 -3 0.4 5.7 0.2
-5 -5 0 9.5 9.7 0.4
-5 -5 1 2.5 0.3 0.2
-5 -5 2 1.6 4.5 0.3
-5 -5 3 2.3 4.3 0.3
-5 -5 6 5.0 8.4 0.6
-5 -4 -8 3.4 14.0 0.5
-5 -4 -6 21.5 23.8 0.9
-5 -4 -4 3.0 3.5 0.3
-5 -4 -3 4.2 3.1 0.3
-5 -4 -2 1.7 0.0 0.4
-5 -4 -1 71.4 66.6 2.0
-5 -4 0 26.9 35.3 0.9
-5 -4 1 2.1 2.1 0.2
-5 -4 2 7.2 4.6 0.4
-5 -4 3 1.1 3.1 0.2
-5 -4 4 21.8 13.4 1.1
-5 -4 5 12.0 21.1 0.5
-5 -4 7 2.7 2.5 0.3
-5 -4 8 12.5 16.2 0.7
-5 -3 -9 6.6 18.5 1.0
-5 -3 -8 7.7 8.5 1.0
-5 -3 -7 82.8 50.3 3.4
-5 -3 -5 20.9 13.7 0.8
-5 -3 -4 13.5 29.3 0.8
-5 -3 -3 22.0 29.4 0.8
-5 -3 -1 10.9 14.0 0.6
-5 -3 0 96.7 77.6 2.7
-5 -3 1 69.3 76.0 1.9
-5 -3 2 21.4 64.8 0.7
-5 -3 3 142.2 146.0 3.7
-5 -3 4 25.1 11.5 0.8
-5 -3 5 122.2 98.3 3.2
-5 -3 6 8.2 5.6 0.5
-5 -3 7 21.0 32.1 0.8
-5 -3 8 23.2 1.9 1.4
-5 -3 9 7.2 3.4 0.5
-5 -3 10 8.6 22.5 0.6
-5 -3 11 3.5 2.7 0.8
-5 -3 12 3.3 1.0 0.8
-5 -2 -11 2.1 0.7 0.9
-5 -2 -10 2.4 6.3 0.5
-5 -2 -9 4.5 0.8 0.5
-5 -2 -8 18.2 18.7 0.9
-5 -2 -7 15.9 4.9 0.8
-5 -2 -6 36.6 71.4 1.8
-5 -2 -5 101.3 114.5 2.8
-5 -2 -4 50.4 50.1 1.5
-5 -2 -3 66.4 83.0 1.8
-5 -2 -2 33.4 23.8 1.0
-5 -2 -1 129.9 116.8 3.5
-5 -2 0 7.5 6.8 0.4
-5 -2 1 418.4 301.0 14.6
-5 -2 2 87.0 67.8 2.3
-5 -2 3 102.2 86.8 2.6
-5 -2 4 111.7 53.0 2.8
-5 -2 5 94.4 85.7 2.5
-5 -2 6 108.3 90.7 3.0
-5 -2 7 65.3 31.1 1.9
-5 -2 8 21.9 23.1 0.9
-5 -2 9 44.7 30.8 1.6
-5 -2 10 46.9 49.3 1.7
-5 -2 11 1.1 0.3 0.3
-5 -2 12 18.7 19.4 1.1
-5 -2 13 3.7 5.5 0.7
-5 -1 -12 2.7 1.5 0.8
-5 -1 -11 7.0 6.4 0.6
-5 -1 -10 2.1 7.7 0.4
-5 -1 -9 35.0 15.3 1.6
-5 -1 -8 74.7 70.1 2.4
-5 -1 -7 49.1 40.5 1.6
-5 -1 -6 16.4 13.0 0.7
-5 -1 -5 5.0 0.3 0.4
-5 -1 -4 23.4 34.8 0.8
-5 -1 -3 135.3 173.1 3.2
-5 -1 -2 50.2 11.8 1.3
-5 -1 -1 13.4 17.7 0.9
-5 -1 0 178.9 110.9 4.5
-5 -1 1 159.0 90.3 4.0
-5 -1 2 274.7 206.6 6.5
-5 -1 3 27.8 42.7 0.8
-5 -1 4 47.0 23.6 1.3
-5 -1 5 48.4 28.3 1.3
-5 -1 6 19.9 25.6 1.1
-5 -1 7 54.7 24.6 1.6
-5 -1 8 41.3 43.3 1.4
-5 -1 9 10.5 4.5 0.7
-5 -1 10 10.9 13.5 0.7
-5 -1 11 62.9 26.0 2.3
-5 -1 13 2.0 3.6 0.6
-4 -5 -6 28.1 21.9 1.6
-4 -5 -4 4.9 2.7 0.3
-4 -5 -1 5.3 11.8 0.4
-4 -5 2 7.8 10.9 0.5
-4 -5 5 2.8 0.3 0.4
-4 -5 6 0.7 3.2 0.4
-4 -5 7 0.7 0.2 0.3
-4 -4 -9 1.1 2.5 0.5
-4 -4 -8 1.2 2.1 0.3
-4 -4 -6 38.8 34.9 1.4
-4 -4 -5 12.7 18.2 0.5
-4 -4 -4 3.1 2.0 0.3
-4 -4 -3 3.9 4.0 0.5
-4 -4 -2 7.9 4.0 0.4
-4 -4 -1 16.1 4.8 0.9
-4 -4 0 46.8 21.0 1.8
-4 -4 1 30.8 28.1 1.3
-4 -4 2 5.1 2.4 0.3
-4 -4 3 94.2 70.8 2.5
-4 -4 4 10.3 3.8 0.4
-4 -4 5 23.3 31.3 1.1
-4 -4 7 1.1 2.8 0.4
-4 -4 8 3.1 1.2 0.6
-4 -4 10 6.0 5.3 0.5
-4 -3 -10 0.9 3.2 0.4
-4 -3 -9 3.0 7.0 0.6
-4 -3 -8 4.0 9.3 0.4
-4 -3 -7 17.5 22.8 1.1
-4 -3 -6 15.0 15.8 0.7
-4 -3 -5 59.7 61.9 1.7
-4 -3 -4 2.0 0.1 0.4
-4 -3 -3 69.4 22.1 2.6
-4 -3 -2 36.5 42.3 1.1
-4 -3 -1 33.7 13.3 1.1
-4 -3 0 40.1 43.0 1.1
-4 -3 1 2.5 4.8 0.2
-4 -3 2 22.2 14.5 1.0
-4 -3 3 5.2 1.7 0.4
-4 -3 5 35.6 16.6 1.1
-4 -3 6 44.7 35.9 1.9
-4 -3 7 41.5 43.3 1.4
-4 -3 8 22.6 20.0 0.9
-4 -3 9 2.3 16.7 0.5
-4 -3 10 13.4 2.3 1.1
-4 -3 11 1.0 1.0 0.4
-4 -2 -12 1.8 3.3 0.6
-4 -2 -11 1.4 6.2 0.4
-4 -2 -10 5.0 2.0 0.5
-4 -2 -9 16.0 10.5 0.8
-4 -2 -8 77.8 69.0 2.5
-4 -2 -7 85.8 38.1 2.6
-4 -2 -6 41.5 80.2 1.3
-4 -2 -5 98.7 108.9 2.6
-4 -2 -4 136.0 131.3 4.7
-4 -2 -3 43.2 18.7 1.3
-4 -2 -2 140.7 115.3 3.5
-4 -2 -1 99.4 120.4 2.7
-4 -2 0 98.7 75.7 2.5
-4 -2 1 559.5 598.4 19.3
-4 -2 2 10.5 28.5 0.6
-4 -2 3 499.7 364.2 16.1
-4 -2 4 364.7 253.6 12.9
-4 -2 5 21.7 6.2 0.7
-4 -2 6 10.6 23.3 0.5
-4 -2 7 23.6 7.2 0.8
-4 -2 8 0.8 1.7 0.3
-4 -2 9 9.8 16.2 0.5
-4 -2 10 9.2 4.9 0.6
-4 -2 11 12.2 5.6 1.0
-4 -2 12 12.3 24.8 1.4
-4 -2 13 1.5 3.6 0.6
-4 -1 -11 4.4 2.3 0.5
-4 -1 -10 4.5 0.4 0.5
-4 -1 -9 22.0 26.2 1.0
-4 -1 -8 6.0 0.4 0.4
-4 -1 -7 7.8 27.1 0.5
-4 -1 -6 23.1 10.2 0.8
-4 -1 -5 7.0 16.7 0.4
-4 -1 -4 246.5 178.2 5.8
-4 -1 -3 264.9 198.6 9.8
-4 -1 -2 170.9 130.6 4.2
-4 -1 -1 68.4 101.8 2.5
-4 -1 0 217.2 179.6 8.2
-4 -1 1 724.3 469.9 24.5
-4 -1 2 76.8 93.7 2.0
-4 -1 3 29.1 10.7 0.9
-4 -1 4 458.9 478.4 15.0
-4 -1 5 152.1 105.4 3.6
-4 -1 6 354.0 184.1 11.5
-4 -1 7 49.3 23.5 1.3
-4 -1 8 41.7 21.3 1.8
-4 -1 9 21.0 47.5 0.9
-4 -1 10 67.8 54.9 2.2
-4 -1 11 65.3 55.5 2.4
-4 -1 12 11.9 2.7 1.1
-4 -1 13 15.2 11.2 0.9
-4 -1 14 20.2 5.4 1.8
-3 -5 -7 2.7 10.6 0.4
-3 -5 -6 12.4 11.8 0.6
-3 -5 -5 2.2 1.7 0.4
-3 -5 -4 4.2 2.5 0.3
-3 -5 -3 0.9 0.2 0.2
-3 -5 -2 9.3 11.1 0.5
-3 -5 4 6.8 9.6 0.5
-3 -5 5 2.3 2.7 0.3
-3 -5 7 1.1 0.2 0.3
-3 -4 -9 3.7 4.0 0.5
-3 -4 -8 10.9 19.1 0.7
-3 -4 -7 9.5 8.5 0.6
-3 -4 -6 7.3 8.8 0.5
-3 -4 -5 1.3 1.1 0.3
-3 -4 -4 11.5 18.6 0.7
-3 -4 -3 60.2 45.4 2.5
-3 -4 -2 26.7 14.0 1.1
-3 -4 -1 37.2 33.3 1.1
-3 -4 0 3.0 5.3 0.2
-3 -4 1 9.8 3.1 0.3
-3 -4 4 53.5 32.6 2.1
-3 -4 6 9.8 10.4 0.5
-3 -4 7 3.7 11.1 0.5
-3 -4 8 9.9 24.9 0.6
-3 -4 9 4.1 5.8 0.7
-3 -3 -10 2.8 1.9 0.5
-3 -3 -8 10.3 7.4 0.6
-3 -3 -7 190.2 188.2 4.0
-3 -3 -6 19.7 14.8 1.1
-3 -3 -5 93.0 84.4 2.6
-3 -3 -4 12.5 11.8 0.5
-3 -3 -3 50.3 28.5 1.4
-3 -3 -2 10.1 2.7 0.6
-3 -3 -1 19.5 8.0 0.6
-3 -3 0 6.4 30.6 0.3
-3 -3 1 8.4 11.5 0.5
-3 -3 2 12.1 11.7 0.4
-3 -3 3 172.2 127.1 5.8
-3 -3 4 52.9 39.3 1.5
-3 -3 5 50.3 78.5 1.4
-3 -3 6 12.6 1.8 0.5
-3 -3 7 27.1 23.4 1.4
-3 -3 8 11.6 8.4 0.8
-3 -3 9 4.0 9.5 0.5
-3 -3 10 4.8 3.7 0.5
-3 -3 11 1.7 10.6 0.4
-3 -3 12 2.5 1.7 0.5
-3 -2 -11 2.7 0.2 0.5
-3 -2 -10 7.2 16.0 0.6
-3 -2 -9 22.2 6.5 1.0
-3 -2 -8 35.5 15.9 1.2
-3 -2 -6 12.6 4.6 0.6
-3 -2 -5 23.1 3.9 0.8
-3 -2 -4 127.8 114.4 3.2
-3 -2 -3 143.8 102.5 3.7
-3 -2 -2 19.9 30.5 0.7
-3 -2 -1 327.0 192.4 7.6
-3 -2 0 100.8 101.7 2.6
-3 -2 1 439.2 352.9 14.2
-3 -2 2 131.4 111.4 3.3
-3 -2 4 615.7 405.5 20.1
-3 -2 5 60.5 32.0 1.6
-3 -2 6 13.7 17.2 0.5
-3 -2 7 29.6 9.7 1.0
-3 -2 8 68.4 105.7 1.9
-3 -2 9 51.6 25.2 1.7
-3 -2 10 50.7 33.3 1.8
-3 -2 12 1.2 1.0 0.6
-3 -1 -13 2.1 3.6 0.7
-3 -1 -12 3.2 8.4 0.6
-3 -1 -11 1.1 1.2 0.4
-3 -1 -10 75.0 42.3 2.5
-3 -1 -9 56.2 47.9 1.8
-3 -1 -8 55.3 27.0 1.7
-3 -1 -7 142.7 183.3 3.5
-3 -1 -6 98.5 55.8 2.6
-3 -1 -5 121.4 66.2 3.0
-3 -1 -4 99.8 99.3 2.5
-3 -1 -3 14.2 1.5 0.7
-3 -1 -2 241.7 280.7 8.3
-3 -1 -1 727.4 510.1 16.9
-3 -1 4 26.4 51.3 0.8
-3 -1 5 234.6 130.7 5.7
-3 -1 6 2.7 3.5 0.3
-3 -1 7 17.1 13.0 0.7
-3 -1 8 24.4 13.3 0.9
-3 -1 9 2.5 2.2 0.4
-3 -1 10 79.6 42.7 2.4
-3 -1 11 100.0 85.2 3.9
-3 -1 12 28.7 25.6 1.2
-3 -1 13 16.5 15.4 1.1
-2 -5 -7 1.1 0.6 0.4
-2 -5 -5 4.6 12.5 0.4
-2 -5 -4 23.2 8.4 1.1
-2 -5 -3 7.5 13.5 0.4
-2 -5 4 10.8 3.8 0.6
-2 -5 5 7.0 14.3 0.4
-2 -5 7 1.9 0.2 0.3
-2 -5 8 5.7 8.3 0.6
-2 -4 -10 3.2 1.3 0.4
-2 -4 -9 1.0 6.6 0.3
-2 -4 -8 11.3 25.6 0.6
-2 -4 -7 19.8 10.3 1.1
-2 -4 -6 25.1 19.5 0.9
-2 -4 -5 0.6 0.9 0.4
-2 -4 -4 14.6 22.7 0.9
-2 -4 -3 77.0 58.7 3.1
-2 -4 -2 101.5 85.1 3.7
-2 -4 2 28.8 33.0 1.2
-2 -4 3 91.6 100.2 3.3
-2 -4 4 10.8 19.6 0.4
-2 -4 5 67.8 70.4 1.9
-2 -4 6 6.7 3.9 0.6
-2 -4 7 2.6 7.3 0.5
-2 -4 8 9.5 3.1 0.5
-2 -4 9 3.5 10.9 0.4
-2 -4 10 8.0 13.4 0.9
-2 -4 11 3.0 1.3 0.5
-2 -3 -12 1.8 0.3 0.6
-2 -3 -11 1.3 0.5 0.7
-2 -3 -10 4.5 6.0 0.6
-2 -3 -9 15.2 8.1 0.8
-2 -3 -8 12.6 8.3 0.7
-2 -3 -7 30.8 17.3 1.1
-2 -3 -6 35.4 64.5 1.1
-2 -3 -5 18.5 4.8 0.7
-2 -3 -4 98.1 88.9 3.5
-2 -3 -3 168.7 94.7 5.8
-2 -3 -1 89.7 80.6 3.4
-2 -3 0 1.2 2.4 0.1
-2 -3 1 44.3 47.5 1.2
-2 -3 2 141.5 123.7 4.9
-2 -3 3 116.2 73.7 2.9
-2 -3 5 3.7 5.1 0.5
-2 -3 6 64.7 79.0 1.8
-2 -3 7 31.3 43.2 1.1
-2 -3 8 45.8 25.2 1.4
-2 -3 9 10.7 6.2 0.9
-2 -3 10 2.5 4.0 0.5
-2 -3 11 2.7 3.6 0.8
-2 -2 -13 1.1 4.3 0.6
-2 -2 -12 11.2 8.5 1.2
-2 -2 -11 4.9 5.8 0.5
-2 -2 -10 39.4 27.7 1.5
-2 -2 -9 18.4 17.5 0.9
-2 -2 -8 220.5 194.7 5.8
-2 -2 -7 107.1 44.6 4.1
-2 -2 -6 13.4 17.8 0.6
-2 -2 -4 49.0 30.7 1.8
-2 -2 -3 82.0 71.7 2.2
-2 -2 -2 360.5 237.3 8.6
-2 -2 0 44.8 28.8 1.8
-2 -2 1 50.4 63.7 1.3
-2 -2 2 197.0 115.7 4.8
-2 -2 3 236.7 272.4 5.5
-2 -2 4 208.5 164.1 4.8
-2 -2 5 36.5 20.4 1.4
-2 -2 6 25.6 7.5 0.8
-2 -2 7 92.2 86.4 3.3
-2 -2 8 48.0 20.5 2.1
-2 -2 9 26.6 14.3 1.0
-2 -2 10 48.0 64.6 1.7
-2 -2 11 48.9 32.7 1.9
-2 -2 12 18.2 14.7 1.0
-2 -2 13 6.9 2.7 0.9
-2 -1 -12 8.5 0.5 0.7
-2 -1 -11 47.2 54.6 1.8
-2 -1 -10 35.2 10.5 1.3
-2 -1 -9 50.9 32.2 1.7
-2 -1 -8 28.8 21.9 1.6
-2 -1 -7 36.8 19.8 1.1
-2 -1 -6 239.5 228.5 5.5
-2 -1 -5 93.8 86.8 2.3
-2 -1 -2 13.1 4.4 0.5
-2 -1 -1 700.9 540.7 16.0
-2 -1 0 508.2 457.1 17.2
-2 -1 3 330.2 295.1 7.9
-2 -1 4 410.4 290.3 9.6
-2 -1 5 91.9 65.8 2.4
-2 -1 6 633.9 379.2 14.9
-2 -1 7 223.4 158.1 5.2
-2 -1 8 21.2 21.1 0.7
-2 -1 9 19.2 4.9 0.8
-2 -1 10 15.6 4.6 0.7
-2 -1 11 70.8 34.7 2.1
-2 -1 12 46.5 40.8 1.8
-2 -1 14 8.9 1.6 1.1
-1 -5 -7 0.8 0.0 0.3
-1 -5 -6 0.6 3.1 0.2
-1 -5 -4 3.6 5.1 0.2
-1 -5 4 15.7 19.0 0.8
-1 -5 5 1.4 1.4 0.3
-1 -5 6 5.7 9.0 0.3
-1 -5 8 3.8 7.5 0.4
-1 -4 -10 0.8 0.4 0.4
-1 -4 -9 9.5 13.9 0.6
-1 -4 -8 22.5 24.0 1.4
-1 -4 -7 9.4 27.2 0.5
-1 -4 -6 76.2 74.7 2.9
-1 -4 -5 37.4 41.2 1.1
-1 -4 -4 9.5 4.4 0.6
-1 -4 -2 48.3 59.0 1.3
-1 -4 2 8.6 10.5 0.4
-1 -4 4 32.9 44.5 0.9
-1 -4 5 26.1 16.1 0.8
-1 -4 6 1.0 0.2 0.3
-1 -4 7 22.7 10.8 0.8
-1 -4 8 3.9 2.1 0.3
-1 -4 9 5.1 9.4 0.7
-1 -4 10 3.4 2.6 0.5
-1 -4 11 3.4 8.9 0.6
-1 -3 -12 1.4 3.0 0.4
-1 -3 -10 0.8 4.4 0.4
-1 -3 -9 14.2 15.2 0.8
-1 -3 -8 23.6 15.1 1.2
-1 -3 -7 152.5 118.2 3.8
-1 -3 -6 5.5 8.6 0.4
-1 -3 -5 73.0 62.4 1.9
-1 -3 -3 32.8 34.3 1.5
-1 -3 -2 0.3 0.1 0.1
-1 -3 -1 128.2 162.1 3.2
-1 -3 1 268.2 272.7 9.0
-1 -3 2 189.0 128.8 6.6
-1 -3 3 72.0 58.4 2.7
-1 -3 4 8.4 9.1 0.4
-1 -3 5 26.8 20.2 1.4
-1 -3 6 4.2 16.9 0.4
-1 -3 7 55.0 24.0 1.6
-1 -3 8 109.5 111.7 3.0
-1 -3 10 5.3 5.5 0.8
-1 -3 11 2.5 0.7 0.5
-1 -3 12 6.8 4.6 0.6
-1 -2 -13 4.7 0.4 0.8
-1 -2 -12 2.3 8.0 0.5
-1 -2 -11 2.5 0.7 0.4
-1 -2 -10 3.2 2.8 0.4
-1 -2 -9 77.4 39.6 2.3
-1 -2 -8 11.5 12.4 0.6
-1 -2 -7 106.3 103.9 2.8
-1 -2 -6 101.1 61.5 4.1
-1 -2 -5 258.2 166.4 6.0
-1 -2 -4 124.2 76.6 4.9
-1 -2 -3 102.0 54.6 2.6
-1 -2 -2 29.6 44.0 1.1
-1 -2 0 19.8 19.4 0.8
-1 -2 2 173.7 90.5 6.2
-1 -2 3 41.0 40.2 1.1
-1 -2 5 111.1 60.2 4.1
-1 -2 6 217.4 189.4 4.9
-1 -2 7 229.3 147.5 5.5
-1 -2 8 4.0 5.7 0.5
-1 -2 9 10.2 4.9 0.9
-1 -2 10 10.0 15.6 0.6
-1 -2 11 27.1 29.3 1.3
-1 -2 12 7.8 1.7 0.9
-1 -1 -14 11.5 10.8 1.3
-1 -1 -13 2.1 1.6 0.8
-1 -1 -12 15.6 10.7 0.9
-1 -1 -11 19.4 7.0 1.0
-1 -1 -10 153.2 107.4 4.2
-1 -1 -9 68.7 68.0 2.0
-1 -1 -8 82.8 52.1 2.2
-1 -1 -7 34.8 43.2 1.5
-1 -1 -6 19.8 15.6 0.6
-1 -1 -5 426.7 206.4 13.7
-1 -1 -4 428.2 310.3 13.9
-1 -1 -3 28.7 16.8 0.8
-1 -1 -2 97.1 44.7 2.4
-1 -1 -1 347.5 300.7 11.4
-1 -1 3 451.5 273.0 10.4
-1 -1 4 464.2 394.3 14.9
-1 -1 5 132.0 56.4 3.4
-1 -1 6 69.5 102.3 1.8
-1 -1 7 67.7 43.9 1.9
-1 -1 8 47.4 49.7 1.4
-1 -1 9 62.2 64.5 1.7
-1 -1 10 102.5 44.5 2.9
-1 -1 11 63.3 43.9 2.2
-1 -1 12 12.8 13.8 1.0
-1 -1 13 0.8 2.4 0.4
-1 -1 14 3.9 2.7 0.7
0 -5 -8 15.1 26.7 1.0
0 -5 -7 8.3 8.9 0.5
0 -5 -6 8.2 3.8 0.6
0 -5 -5 1.7 0.0 0.2
0 -5 -4 2.5 9.6 0.2
0 -4 -10 3.0 2.3 0.5
0 -4 -9 4.7 2.9 0.7
0 -4 -8 26.9 12.7 1.1
0 -4 -7 36.5 48.1 1.6
0 -4 -6 23.0 13.0 0.8
0 -4 -5 8.9 6.0 0.4
0 -4 -4 10.4 11.3 0.6
0 -4 -3 27.6 18.6 0.8
0 -3 -12 3.0 2.0 0.6
0 -3 -11 2.5 0.5 0.8
0 -3 -10 37.0 32.7 1.4
0 -3 -9 44.4 26.8 2.4
0 -3 -8 16.8 42.1 0.8
0 -3 -7 39.9 20.7 1.8
0 -3 -6 31.7 34.7 1.0
0 -3 -5 87.3 73.8 3.2
0 -3 -4 56.5 12.0 1.6
0 -3 -3 152.2 149.4 3.8
0 -3 -2 99.5 124.9 3.6
0 -3 -1 72.0 56.4 2.5
0 -2 -12 6.0 9.5 0.6
0 -2 -11 15.5 15.1 1.3
0 -2 -10 53.6 38.2 1.9
0 -2 -9 45.7 42.9 1.5
0 -2 -8 48.0 11.3 1.7
0 -2 -7 88.2 82.7 2.2
0 -2 -6 49.3 27.8 1.3
0 -2 -5 57.8 84.0 1.6
0 -2 -4 86.3 24.2 3.5
0 -2 -3 186.7 174.5 6.3
0 -2 -2 5.6 15.8 0.4
0 -2 -1 133.3 96.6 4.5
0 -1 -14 3.0 1.6 0.9
0 -1 -13 2.1 1.3 0.5
0 -1 -12 6.7 3.3 0.6
0 -1 -11 27.1 10.6 1.1
0 -1 -10 136.6 74.4 3.9
0 -1 -9 36.3 27.6 1.1
0 -1 -8 105.2 118.5 2.5
0 -1 -7 93.8 55.6 2.3
0 -1 -6 189.8 103.5 4.7
0 -1 -5 6.8 0.7 0.6
0 -1 -3 238.1 254.6 5.6
0 -1 -2 50.9 82.1 1.8
0 0 2 91.6 160.3 2.2
0 0 4 31.8 1.6 1.3
0 0 5 244.1 177.7 5.9
0 0 6 212.5 149.1 5.2
0 0 7 10.6 28.1 0.5
0 0 8 2.1 0.0 0.3
0 0 9 187.5 152.1 4.5
0 0 10 26.9 4.8 0.9
0 0 11 21.6 29.0 1.4
0 0 12 36.8 3.5 1.5
0 0 13 2.5 10.9 0.5
0 0 14 2.0 0.6 0.9
0 1 2 51.7 82.2 1.9
0 1 5 7.9 0.7 0.4
0 1 6 189.3 103.7 4.6
0 1 7 92.5 55.6 3.2
0 1 8 100.4 118.5 2.5
0 1 9 37.8 27.6 1.2
0 1 10 127.0 74.4 3.4
0 1 11 25.5 10.6 1.2
0 1 12 6.7 3.3 0.6
0 1 13 1.4 1.2 0.5
0 1 14 2.4 1.6 0.8
0 2 2 5.7 15.8 0.3
0 2 3 177.2 174.6 5.9
0 2 4 81.5 24.2 3.0
0 2 6 47.2 27.9 1.8
0 2 7 83.4 82.8 2.2
0 2 8 43.1 11.3 1.7
0 2 9 47.0 42.9 1.4
0 2 10 53.0 38.1 1.8
0 2 11 16.8 15.1 0.8
0 2 12 5.3 9.5 0.8
0 3 3 150.2 149.3 5.0
0 3 4 56.2 12.0 2.2
0 3 5 89.2 73.9 2.4
0 3 6 33.1 34.7 1.4
0 3 7 40.0 20.7 1.2
0 3 8 16.9 42.0 0.7
0 3 9 46.5 26.8 1.5
0 3 10 38.6 32.7 1.4
0 3 12 2.3 2.0 0.4
0 4 5 8.1 6.0 0.4
0 4 6 21.1 13.1 0.7
0 4 7 34.9 48.1 1.0
0 4 8 27.1 12.8 0.9
0 4 9 4.2 2.9 0.5
0 4 10 3.9 2.3 0.4
0 4 11 1.4 5.4 0.4
1 0 -13 2.0 2.3 0.5
1 0 -12 3.1 0.1 0.5
1 0 -10 2.1 10.1 0.4
1 0 -9 16.9 43.0 0.7
1 0 -8 37.5 6.9 1.3
1 0 -7 1.2 6.9 0.4
1 0 -6 44.6 3.7 1.2
1 0 -5 401.3 408.5 9.3
1 0 -4 51.1 0.4 1.5
1 0 -3 404.5 296.6 9.4
1 0 -2 16.0 5.9 0.4
1 0 -1 30.4 116.4 1.4
1 0 3 266.8 231.3 6.4
1 0 5 4.7 0.6 0.3
1 0 6 118.8 35.6 2.9
1 0 7 316.0 339.5 7.3
1 0 8 69.4 70.6 1.8
1 0 9 6.8 9.5 0.6
1 0 11 54.5 25.8 1.9
1 0 12 18.4 17.2 1.4
1 0 14 3.4 10.2 0.7
1 1 -14 6.1 2.6 1.0
1 1 -12 14.1 13.8 0.8
1 1 -11 60.2 43.9 2.9
1 1 -10 99.0 44.4 3.9
1 1 -9 61.5 64.6 1.7
1 1 -8 45.1 49.7 1.5
1 1 -7 66.5 43.9 1.7
1 1 -6 68.8 102.1 3.1
1 1 -5 128.2 56.4 3.1
1 1 -4 465.6 394.1 10.8
1 1 -3 442.8 273.3 10.1
1 1 2 98.1 44.7 2.6
1 1 3 29.8 16.8 1.4
1 1 4 422.0 310.1 9.9
1 1 5 411.2 206.5 9.8
1 1 6 20.3 15.6 0.7
1 1 7 36.0 43.1 1.1
1 1 8 80.0 52.1 2.1
1 1 9 67.7 67.9 1.9
1 1 10 156.0 107.4 4.5
1 1 11 19.2 6.9 0.9
1 1 12 15.6 10.7 0.9
1 1 13 1.3 1.6 0.4
1 1 14 10.3 10.8 1.1
1 2 -13 10.4 6.0 0.8
1 2 -12 8.4 1.7 0.8
1 2 -11 26.2 29.3 1.6
1 2 -10 11.4 15.7 0.6
1 2 -9 10.1 4.9 0.5
1 2 -8 4.0 5.7 0.3
1 2 -7 227.7 147.5 7.6
1 2 -6 208.3 189.5 5.2
1 2 -5 111.4 60.5 3.9
1 2 -3 41.4 40.3 1.1
1 2 -2 165.2 90.5 4.0
1 2 0 19.6 19.3 0.8
1 2 2 29.9 43.9 1.2
1 2 3 97.9 54.6 3.6
1 2 4 115.1 76.6 4.0
1 2 5 262.5 166.4 6.7
1 2 7 107.3 104.0 2.9
1 2 8 11.1 12.5 0.5
1 2 9 76.0 39.6 2.2
1 2 10 2.5 2.8 0.7
1 2 11 1.9 0.7 0.4
1 2 12 1.4 7.9 0.5
1 2 13 3.3 0.4 0.5
1 3 -12 7.0 4.6 0.8
1 3 -11 1.4 0.7 0.3
1 3 -10 5.7 5.5 0.4
1 3 -8 116.6 111.7 3.3
1 3 -7 54.3 24.0 2.4
1 3 -6 4.1 16.9 0.3
1 3 -5 27.1 20.2 1.2
1 3 -4 8.9 9.2 0.5
1 3 -3 70.6 58.3 2.5
1 3 4 16.1 6.5 0.7
1 3 5 73.3 62.5 2.1
1 3 6 6.4 8.6 0.5
1 3 7 146.4 118.3 3.5
1 3 8 22.2 15.1 1.2
1 3 9 13.5 15.2 0.6
1 3 12 1.1 3.0 0.4
1 4 -11 4.9 8.9 0.6
1 4 -10 3.9 2.6 0.4
1 4 -9 5.4 9.3 0.4
1 4 -8 4.7 2.1 0.3
1 4 -7 24.0 10.8 0.8
1 4 -6 0.8 0.2 0.1
1 4 5 39.3 41.2 1.5
1 4 6 81.1 74.6 3.2
1 4 7 11.4 27.1 0.4
1 4 8 24.3 24.0 1.2
1 4 9 10.8 13.9 0.8
1 4 10 1.4 0.4 0.3
2 0 -12 12.0 3.1 1.2
2 0 -11 7.2 0.6 0.8
2 0 -10 157.4 109.2 4.1
2 0 -9 182.7 135.1 4.4
2 0 -8 23.6 14.1 0.8
2 0 -7 27.6 2.8 0.9
2 0 -6 2.5 2.6 0.3
2 0 -5 16.6 0.5 0.6
2 0 -4 19.0 20.1 0.6
2 0 -3 79.2 58.0 3.0
2 0 1 24.7 2.4 1.1
2 0 2 5.3 0.1 0.3
2 0 4 32.1 5.0 0.9
2 0 5 300.2 211.9 9.8
2 0 6 195.4 152.8 4.6
2 0 7 160.6 150.8 3.8
2 0 8 233.5 244.4 5.6
2 0 9 5.6 1.6 0.5
2 0 10 129.6 68.7 3.7
2 0 11 71.3 58.4 2.3
2 0 12 16.7 4.1 1.4
2 0 13 6.1 4.6 0.9
2 0 14 2.8 0.3 0.8
2 1 -14 7.0 1.6 0.9
2 1 -13 0.8 3.7 0.4
2 1 -12 49.3 40.8 1.8
2 1 -11 68.2 34.6 2.2
2 1 -10 15.7 4.6 0.7
2 1 -9 18.9 5.0 0.7
2 1 -8 21.8 21.2 0.8
2 1 -7 221.2 158.3 5.1
2 1 -6 622.8 379.7 19.8
2 1 -5 88.4 65.7 2.4
2 1 -4 392.9 290.4 9.1
2 1 -3 322.7 295.5 7.5
2 1 0 473.6 457.1 15.5
2 1 1 706.5 540.6 23.2
2 1 2 12.0 4.4 0.5
2 1 3 1026.5 701.1 34.8
2 1 5 93.0 86.8 2.4
2 1 6 242.9 228.3 5.6
2 1 7 37.8 19.7 1.6
2 1 8 27.6 21.9 1.2
2 1 9 50.8 32.2 1.5
2 1 10 33.1 10.4 1.3
2 1 11 46.7 54.6 2.7
2 1 12 7.7 0.4 0.9
2 2 -13 6.0 2.7 0.7
2 2 -12 18.8 14.6 0.9
2 2 -11 53.5 32.7 1.8
2 2 -10 48.2 64.5 1.5
2 2 -9 26.5 14.3 0.9
2 2 -8 44.6 20.5 1.8
2 2 -7 93.2 86.4 2.5
2 2 -6 23.9 7.5 0.8
2 2 -5 37.3 20.4 1.1
2 2 -4 205.2 164.1 4.9
2 2 -3 238.3 272.8 5.9
2 2 -2 187.5 115.9 6.5
2 2 -1 49.9 63.6 1.8
2 2 0 43.6 28.8 1.3
2 2 2 357.7 236.8 8.5
2 2 3 83.0 71.5 2.2
2 2 4 50.5 30.7 1.9
2 2 5 125.4 87.5 3.3
2 2 6 13.1 17.8 0.6
2 2 7 98.9 44.7 3.7
2 2 8 209.8 194.6 7.1
2 2 9 20.0 17.5 0.9
2 2 10 36.1 27.7 1.4
2 2 11 3.5 5.8 0.5
2 2 12 10.2 8.5 0.7
2 2 13 1.1 4.3 0.5
2 3 -12 15.7 24.3 1.2
2 3 -11 2.1 3.6 0.3
2 3 -10 2.9 4.0 0.3
2 3 -9 8.8 6.2 0.5
2 3 -8 51.1 25.1 1.6
2 3 -7 28.7 43.1 1.2
2 3 -6 63.2 79.1 2.7
2 3 -5 4.0 5.1 0.5
2 3 -4 108.0 58.4 3.9
2 3 -2 133.5 123.7 4.6
2 3 0 1.4 2.4 0.2
2 3 2 26.3 23.5 1.1
2 3 3 165.4 94.8 5.9
2 3 4 94.2 89.1 3.5
2 3 5 18.5 4.9 0.9
2 3 6 35.1 64.4 1.0
2 3 7 29.5 17.4 1.0
2 3 8 12.9 8.3 0.9
2 3 9 15.6 8.1 0.7
2 3 10 3.9 6.1 0.4
2 3 12 2.0 0.3 0.4
2 4 -11 2.7 1.3 0.5
2 4 -10 11.4 13.5 0.6
2 4 -9 3.5 10.9 0.5
2 4 -8 9.5 3.1 0.4
2 4 -7 3.0 7.3 0.3
2 4 -6 7.7 3.9 0.3
2 4 4 12.4 22.7 0.6
2 4 7 23.4 10.2 0.8
2 4 8 13.8 25.6 0.8
2 4 9 0.5 6.6 0.3
2 4 10 3.3 1.3 0.4
3 0 -14 2.7 9.3 0.7
3 0 -13 1.8 1.3 0.5
3 0 -12 5.0 3.6 0.5
3 0 -11 281.7 113.3 10.9
3 0 -9 7.6 13.8 0.5
3 0 -8 50.8 13.7 1.6
3 0 -7 32.3 38.2 1.0
3 0 -6 314.9 235.8 7.2
3 0 -5 297.7 166.0 6.9
3 0 -3 421.7 503.5 9.7
3 0 -2 106.5 65.5 2.6
3 0 -1 57.0 41.6 1.5
3 0 0 519.4 430.5 16.9
3 0 1 265.0 135.8 6.5
3 0 2 380.8 404.3 9.0
3 0 3 247.0 156.6 6.0
3 0 4 597.6 518.3 19.2
3 0 5 321.5 258.9 7.4
3 0 6 227.8 166.9 5.7
3 0 7 1.8 4.1 0.3
3 0 8 49.8 13.1 1.5
3 0 9 19.0 35.6 1.2
3 0 10 66.3 68.9 2.2
3 0 11 6.4 1.5 0.7
3 0 13 1.7 0.8 0.7
3 1 -13 15.6 15.4 0.9
3 1 -12 28.4 25.6 1.3
3 1 -11 95.1 85.2 3.1
3 1 -10 85.5 42.6 3.7
3 1 -9 3.1 2.2 0.4
3 1 -8 25.0 13.3 0.9
3 1 -7 16.9 13.0 0.7
3 1 -6 2.3 3.5 0.4
3 1 -5 238.9 130.7 5.9
3 1 -4 26.1 51.4 0.8
3 1 1 716.6 510.9 23.0
3 1 2 241.6 280.7 5.9
3 1 3 14.7 1.5 0.8
3 1 4 103.1 99.3 2.7
3 1 5 122.8 66.2 3.0
3 1 6 99.1 55.7 2.8
3 1 7 142.5 183.2 3.7
3 1 8 53.9 27.1 1.6
3 1 9 55.4 47.9 1.9
3 1 10 70.5 42.3 2.4
3 1 11 1.1 1.2 0.4
3 1 12 2.1 8.4 0.6
3 2 -13 1.4 3.6 0.5
3 2 -12 1.4 1.0 0.4
3 2 -11 2.2 3.1 0.5
3 2 -10 51.1 33.3 1.7
3 2 -9 56.0 25.2 2.7
3 2 -8 69.4 105.5 2.1
3 2 -7 30.0 9.8 0.9
3 2 -6 13.9 17.2 0.5
3 2 -5 57.9 31.9 1.6
3 2 -2 129.4 111.6 3.3
3 2 -1 415.6 352.5 13.7
3 2 0 100.5 101.8 2.7
3 2 1 329.4 192.2 8.2
3 2 2 19.7 30.4 0.6
3 2 3 141.0 102.2 4.8
3 2 5 23.2 4.0 0.7
3 2 6 11.4 4.6 0.5
3 2 7 0.9 2.2 0.3
3 2 8 36.8 15.9 1.4
3 2 9 22.0 6.5 1.3
3 2 10 8.2 15.9 0.6
3 2 11 3.1 0.2 0.5
3 3 -12 2.2 1.8 0.4
3 3 -11 0.9 10.5 0.3
3 3 -10 6.1 3.7 0.7
3 3 -9 4.3 9.5 0.4
3 3 -8 14.4 8.5 0.7
3 3 -7 23.8 23.4 0.9
3 3 -6 12.3 1.8 0.5
3 3 -5 49.2 78.5 1.5
3 3 -4 49.9 39.4 2.1
3 3 -3 179.3 127.1 6.1
3 3 -2 12.0 11.6 0.6
3 3 -1 8.6 11.5 0.3
3 3 0 6.0 30.7 0.4
3 3 1 19.7 8.0 0.9
3 3 3 48.2 28.6 1.5
3 3 4 12.2 11.9 0.5
3 3 5 87.6 84.4 2.3
3 3 6 18.3 14.9 0.7
3 3 7 192.4 188.1 6.7
3 3 8 9.8 7.4 0.5
3 3 10 3.6 1.9 0.4
3 3 11 1.0 4.8 0.3
3 4 -11 0.5 0.5 0.3
3 4 -10 0.5 0.6 0.3
3 4 -9 6.0 5.8 0.4
3 4 -8 10.3 24.8 0.7
3 4 -6 9.3 10.4 0.6
3 4 -4 54.0 32.5 2.0
3 4 -1 10.0 3.1 0.6
3 4 0 2.4 5.3 0.3
3 4 1 35.3 33.3 1.5
3 4 3 57.7 45.4 2.4
3 4 4 10.4 18.7 0.6
3 4 5 1.1 1.1 0.3
3 4 6 7.9 8.7 0.6
3 4 7 10.2 8.5 0.5
3 4 8 11.1 19.1 0.6
3 4 9 1.7 4.0 0.5
4 0 -12 16.8 19.4 0.9
4 0 -11 15.6 7.0 1.1
4 0 -9 25.3 22.7 0.9
4 0 -8 101.8 55.5 2.7
4 0 -7 187.1 111.7 4.5
4 0 -6 98.1 100.9 3.5
4 0 -5 302.8 173.6 7.0
4 0 -4 53.9 43.3 2.4
4 0 -3 200.8 133.5 5.1
4 0 -2 383.0 299.8 9.1
4 0 -1 344.5 285.3 8.0
4 0 0 88.9 47.4 2.3
4 0 1 2.7 20.0 0.2
4 0 2 83.5 44.6 2.1
4 0 3 2.0 2.4 0.3
4 0 4 164.2 124.4 4.1
4 0 5 34.4 6.5 1.1
4 0 6 60.7 75.6 1.6
4 0 7 12.5 18.6 0.6
4 0 8 2.8 0.2 0.6
4 0 9 1.4 0.4 0.5
4 0 12 6.3 7.7 1.1
4 1 -14 15.2 5.4 1.4
4 1 -13 18.0 11.3 1.5
4 1 -12 10.5 2.7 0.9
4 1 -11 68.2 55.5 2.3
4 1 -10 64.3 55.1 2.0
4 1 -9 23.1 47.5 0.9
4 1 -8 43.2 21.3 1.9
4 1 -7 51.5 23.5 1.5
4 1 -6 343.8 184.3 8.1
4 1 -5 154.8 105.5 5.3
4 1 -4 456.7 478.5 10.6
4 1 -3 28.1 10.7 0.8
4 1 -2 75.1 93.6 2.1
4 1 -1 682.1 470.0 21.9
4 1 0 216.5 179.5 5.0
4 1 1 69.0 101.8 1.9
4 1 2 168.5 130.3 4.2
4 1 3 265.7 198.7 6.9
4 1 4 241.5 178.2 6.0
4 1 5 8.3 16.7 0.6
4 1 6 22.5 10.1 0.9
4 1 7 7.9 27.2 0.7
4 1 8 7.5 0.4 0.6
4 1 9 19.4 26.2 0.9
4 1 10 2.5 0.3 0.7
4 1 11 6.1 2.3 0.6
4 1 12 2.0 1.3 0.9
4 2 -13 2.9 3.6 0.5
4 2 -12 14.9 24.8 1.2
4 2 -11 14.6 5.6 0.7
4 2 -10 9.7 4.9 0.6
4 2 -9 10.2 16.3 1.0
4 2 -8 0.8 1.8 0.3
4 2 -7 23.6 7.2 0.8
4 2 -6 11.4 23.3 0.5
4 2 -5 21.1 6.2 0.7
4 2 -4 361.1 253.6 8.3
4 2 -3 512.0 364.6 17.0
4 2 -2 10.0 28.4 0.4
4 2 -1 565.8 598.1 18.9
4 2 0 94.5 75.5 2.4
4 2 1 100.2 120.3 3.6
4 2 2 140.0 115.3 3.4
4 2 3 41.8 18.7 1.2
4 2 4 141.9 131.3 3.6
4 2 5 95.2 109.1 2.5
4 2 6 41.4 80.1 1.9
4 2 7 84.4 38.1 3.3
4 2 8 77.4 69.0 3.3
4 2 9 15.5 10.6 0.9
4 2 10 6.9 2.0 0.8
4 2 12 1.9 3.3 0.7
4 3 -12 3.3 2.2 0.4
4 3 -11 1.2 1.0 0.6
4 3 -10 13.2 2.3 0.7
4 3 -9 2.3 16.7 0.3
4 3 -8 21.8 20.1 0.9
4 3 -7 40.0 43.3 1.3
4 3 -6 44.9 35.9 1.3
4 3 -5 36.0 16.6 1.6
4 3 -3 4.0 1.7 0.3
4 3 -2 20.6 14.5 0.7
4 3 -1 3.0 4.8 0.4
4 3 0 41.8 43.0 1.7
4 3 1 32.2 13.4 1.0
4 3 2 35.5 42.3 1.1
4 3 3 67.6 22.1 1.8
4 3 4 1.4 0.1 0.3
4 3 5 57.5 61.8 1.7
4 3 6 16.2 15.7 0.7
4 3 7 18.0 22.9 0.8
4 3 8 4.9 9.3 0.4
4 3 9 3.0 7.0 0.4
4 3 10 1.0 3.2 0.4
4 4 -10 6.5 5.4 0.5
4 4 -8 4.4 1.2 0.5
4 4 -7 1.0 2.7 0.2
4 4 -6 12.6 23.5 0.6
4 4 -5 22.7 31.2 0.8
4 4 -4 10.6 3.8 0.4
4 4 -2 5.1 2.4 0.4
4 4 -1 29.6 28.1 0.9
4 4 0 47.0 21.0 1.3
4 4 1 16.7 4.8 0.9
4 4 2 7.7 4.1 0.6
4 4 3 3.6 4.0 0.3
4 4 4 3.2 2.0 0.4
4 4 5 13.3 18.3 0.9
4 4 6 40.9 34.9 1.9
4 4 7 15.2 7.8 1.1
4 4 9 1.6 2.5 0.5
4 5 5 4.2 4.7 0.4
5 0 -14 2.7 1.9 0.9
5 0 -12 15.6 18.1 0.9
5 0 -11 6.5 0.1 0.5
5 0 -10 15.8 6.8 0.8
5 0 -9 39.3 20.1 1.4
5 0 -8 68.8 44.0 2.7
5 0 -6 79.0 37.4 2.1
5 0 -5 137.3 200.1 3.2
5 0 -4 4.0 1.0 0.3
5 0 -3 86.1 106.0 2.5
5 0 -2 78.9 53.9 2.1
5 0 -1 17.9 1.4 0.7
5 0 0 86.0 90.5 2.3
5 0 1 140.5 143.3 3.3
5 0 2 72.4 93.7 2.0
5 0 3 503.6 311.6 16.0
5 0 5 50.2 73.4 1.3
5 0 6 4.3 2.3 0.4
5 0 7 0.8 13.3 0.4
5 0 8 0.8 2.5 0.3
5 0 9 12.2 15.4 0.7
5 0 10 2.3 0.3 0.4
5 0 11 2.6 0.1 0.5
5 1 -14 4.8 7.0 0.8
5 1 -13 2.6 3.6 0.5
5 1 -11 64.5 26.0 2.3
5 1 -10 11.5 13.4 0.7
5 1 -9 10.9 4.5 0.6
5 1 -8 40.9 43.3 1.3
5 1 -7 51.7 24.6 1.5
5 1 -6 20.5 25.6 0.7
5 1 -5 49.0 28.3 1.4
5 1 -4 47.8 23.6 1.4
5 1 -3 27.1 42.7 0.9
5 1 -2 262.2 206.5 6.1
5 1 -1 161.2 90.2 3.9
5 1 0 175.3 110.9 4.5
5 1 1 13.7 17.7 0.6
5 1 2 50.4 11.7 1.3
5 1 3 132.8 173.0 3.4
5 1 4 22.5 34.8 1.2
5 1 5 6.3 0.3 0.5
5 1 6 17.6 13.0 0.7
5 1 7 49.6 40.6 1.7
5 1 8 76.0 70.3 3.7
5 1 9 34.1 15.3 1.4
5 1 10 1.8 7.7 0.5
5 1 11 6.2 6.4 0.9
5 2 -13 4.6 5.5 0.6
5 2 -12 20.2 19.4 1.5
5 2 -10 45.9 49.3 1.7
5 2 -9 43.8 30.9 1.5
5 2 -8 18.4 23.2 1.2
5 2 -7 64.9 31.2 2.5
5 2 -6 101.0 90.9 2.6
5 2 -5 91.5 85.7 2.4
5 2 -4 118.8 53.1 5.0
5 2 -3 100.8 86.8 2.6
5 2 -2 90.4 67.9 2.4
5 2 -1 392.6 301.0 12.9
5 2 0 9.2 6.8 0.7
5 2 1 135.7 116.9 5.4
5 2 2 36.3 23.7 1.4
5 2 3 66.3 83.1 1.8
5 2 4 48.5 50.1 1.5
5 2 5 99.2 114.5 2.7
5 2 6 41.4 71.4 2.0
5 2 7 17.7 4.9 1.3
5 2 8 18.5 18.7 0.9
5 2 9 3.1 0.8 0.7
5 2 10 3.1 6.3 0.6
5 2 11 3.0 0.7 0.8
5 3 -12 2.3 1.0 0.6
5 3 -11 6.0 2.7 0.9
5 3 -10 8.8 22.5 0.9
5 3 -9 7.0 3.4 0.5
5 3 -8 21.0 1.9 0.8
5 3 -7 22.9 32.2 0.9
5 3 -6 8.2 5.6 0.5
5 3 -5 124.1 98.1 3.2
5 3 -4 25.5 11.5 0.8
5 3 -3 141.0 146.1 3.6
5 3 -2 20.5 64.6 0.7
5 3 -1 63.3 76.1 1.7
5 3 0 93.9 77.5 2.6
5 3 1 12.0 13.9 0.5
5 3 2 27.8 21.4 0.9
5 3 3 22.6 29.4 0.9
5 3 4 13.1 29.3 0.6
5 3 5 20.3 13.7 1.1
5 3 7 79.0 50.3 3.6
5 3 8 6.9 8.5 0.5
5 3 9 6.7 18.6 0.9
5 3 10 1.2 0.5 0.5
5 4 -9 1.7 2.6 0.4
5 4 -8 11.7 16.2 0.7
5 4 -7 2.9 2.5 0.4
5 4 -6 0.6 4.1 0.3
5 4 -5 10.2 21.1 0.5
5 4 -4 24.1 13.4 0.8
5 4 -3 1.5 3.2 0.2
5 4 -2 7.9 4.6 0.4
5 4 -1 2.8 2.1 0.3
5 4 0 26.1 35.2 0.9
5 4 1 68.6 66.7 1.9
5 4 2 2.7 0.0 0.3
5 4 3 4.6 3.0 0.4
5 4 4 4.3 3.4 0.5
5 4 6 21.8 23.8 1.0
5 4 7 0.9 0.7 0.3
5 4 8 4.4 14.0 0.6
5 5 -3 2.3 4.3 0.4
5 5 -1 2.7 0.3 0.3
5 5 0 9.0 9.8 0.7
6 0 -13 21.1 15.4 1.8
6 0 -12 37.4 25.4 1.8
6 0 -11 30.0 38.3 1.4
6 0 -10 4.4 11.9 0.6
6 0 -9 31.1 25.1 1.2
6 0 -8 134.4 78.6 3.7
6 0 -7 114.8 79.4 3.0
6 0 -6 13.4 1.1 0.6
6 0 -5 55.5 24.6 1.6
6 0 -4 91.3 112.6 2.4
6 0 -3 207.6 107.9 6.9
6 0 -2 447.2 411.1 10.5
6 0 -1 56.3 14.2 1.5
6 0 0 3.1 1.5 0.3
6 0 1 55.4 25.1 1.5
6 0 2 71.0 88.1 1.8
6 0 3 82.9 50.7 2.4
6 0 4 30.8 34.9 1.0
6 0 6 20.1 24.0 0.9
6 0 7 1.3 1.2 0.3
6 0 8 11.4 2.7 0.7
6 0 9 9.3 19.4 1.1
6 0 10 1.0 0.5 0.6
6 1 -13 1.4 2.3 0.6
6 1 -12 8.1 7.3 0.6
6 1 -11 16.5 15.5 0.9
6 1 -10 4.3 5.2 0.4
6 1 -9 25.1 15.8 1.1
6 1 -8 3.2 6.4 0.6
6 1 -7 113.4 82.0 3.2
6 1 -6 64.6 31.0 1.9
6 1 -5 22.4 22.0 0.8
6 1 -4 14.6 10.7 0.8
6 1 -3 155.3 169.4 3.6
6 1 -2 167.7 127.4 4.2
6 1 -1 52.0 81.0 2.0
6 1 0 205.0 157.0 5.1
6 1 1 56.4 25.0 1.6
6 1 3 150.0 80.5 3.7
6 1 4 193.7 243.2 5.2
6 1 5 29.2 56.2 1.1
6 1 6 66.9 36.1 2.2
6 1 7 1.7 3.9 0.4
6 1 8 7.9 12.1 0.9
6 1 9 3.7 5.0 0.5
6 2 -12 12.8 12.9 1.2
6 2 -10 2.9 5.7 0.7
6 2 -9 3.6 2.4 0.6
6 2 -8 12.8 3.0 0.7
6 2 -7 3.8 1.9 0.5
6 2 -6 186.5 149.3 4.9
6 2 -5 26.5 29.4 1.0
6 2 -4 16.3 33.5 0.7
6 2 -3 117.2 103.3 3.1
6 2 -2 14.4 16.1 0.6
6 2 -1 38.6 20.3 1.9
6 2 0 22.4 16.9 0.8
6 2 1 6.8 1.1 0.4
6 2 2 24.6 52.2 0.8
6 2 3 41.8 41.9 1.3
6 2 4 12.4 9.3 0.7
6 2 6 48.9 30.5 1.8
6 2 7 102.5 93.0 3.2
6 2 8 5.3 0.3 0.5
6 2 9 3.9 0.3 0.5
6 2 10 1.0 0.9 0.7
6 3 -10 3.5 4.7 0.5
6 3 -8 6.9 4.5 0.5
6 3 -7 8.7 16.1 0.6
6 3 -6 8.5 5.6 0.5
6 3 -5 3.7 4.0 0.5
6 3 -4 180.3 122.5 4.6
6 3 -3 57.9 60.7 1.6
6 3 -2 32.8 36.6 1.5
6 3 -1 2.2 5.6 0.3
6 3 0 37.5 46.0 1.2
6 3 1 34.5 29.0 1.1
6 3 2 43.8 42.8 1.3
6 3 3 58.9 31.5 2.0
6 3 5 8.7 2.4 0.6
6 3 6 2.6 4.0 0.4
6 3 7 8.2 5.6 0.9
6 3 9 3.1 1.6 0.7
6 4 -9 0.6 2.3 0.3
6 4 -8 3.1 1.0 0.5
6 4 -7 3.2 1.8 0.3
6 4 -6 1.9 5.2 0.3
6 4 -4 4.3 7.4 0.3
6 4 -3 30.0 33.6 1.0
6 4 -2 3.0 1.1 0.3
6 4 -1 7.3 12.4 0.4
6 4 0 12.3 2.6 0.8
6 4 1 3.0 0.5 0.3
6 4 2 3.1 20.5 0.3
6 4 4 7.4 4.8 0.5
6 4 5 2.0 1.7 0.3
6 4 6 10.4 5.9 0.7
6 4 7 10.1 22.1 0.9
6 5 -3 6.4 9.6 0.6
6 5 -1 0.8 3.8 0.2
6 5 0 2.0 3.7 0.2
6 5 1 3.7 7.2 0.3
6 5 3 3.3 0.0 0.4
7 0 -13 25.2 27.8 1.8
7 0 -10 11.6 2.9 0.7
7 0 -9 9.1 33.2 0.6
7 0 -8 28.6 20.5 1.6
7 0 -7 106.5 43.0 3.2
7 0 -6 1.1 1.7 0.5
7 0 -5 25.4 13.9 1.4
7 0 -4 24.8 30.2 0.9
7 0 -3 21.3 4.3 0.8
7 0 -2 65.2 71.8 1.9
7 0 -1 5.0 0.7 0.4
7 0 0 36.3 29.7 1.2
7 0 1 0.9 4.2 0.3
7 0 2 47.1 7.6 1.4
7 0 3 379.0 408.1 13.6
7 0 4 142.9 60.1 5.7
7 0 5 3.3 10.8 0.4
7 0 6 23.7 8.3 1.1
7 0 7 5.1 2.8 0.5
7 0 10 1.6 0.0 0.7
7 1 -13 4.4 0.8 0.8
7 1 -12 1.6 8.8 0.6
7 1 -11 10.7 9.9 0.7
7 1 -10 2.2 2.4 0.4
7 1 -9 29.7 20.4 1.3
7 1 -8 69.1 39.9 2.2
7 1 -7 64.0 59.2 2.0
7 1 -6 86.9 97.6 3.7
7 1 -5 77.2 61.7 2.2
7 1 -4 11.1 6.9 0.6
7 1 -3 43.3 47.7 1.3
7 1 -2 2.1 5.2 0.5
7 1 -1 18.2 14.3 0.7
7 1 0 2.3 2.8 0.3
7 1 1 23.0 21.1 0.9
7 1 2 55.7 45.4 1.8
7 1 3 67.5 47.5 2.0
7 1 4 68.4 68.1 2.2
7 1 5 15.4 12.5 0.8
7 1 6 23.9 30.3 1.1
7 2 -11 5.8 0.7 0.6
7 2 -10 13.2 3.0 0.8
7 2 -9 0.8 7.6 0.5
7 2 -8 21.0 20.3 0.9
7 2 -7 82.1 61.8 2.5
7 2 -6 77.9 45.5 2.3
7 2 -5 18.4 9.5 0.8
7 2 -4 239.9 174.2 8.1
7 2 -3 21.9 13.5 0.8
7 2 -2 6.0 8.4 0.4
7 2 -1 15.7 8.3 0.7
7 2 0 38.2 40.9 1.3
7 2 1 15.6 4.7 0.6
7 2 2 75.0 51.1 2.1
7 2 3 36.7 57.4 1.9
7 2 4 7.4 3.3 0.5
7 2 5 2.4 10.6 0.6
7 2 7 3.6 5.8 0.5
7 2 8 0.7 0.9 0.4
7 2 9 3.9 11.8 0.9
7 3 -10 5.9 1.2 0.6
7 3 -9 1.5 0.6 0.5
7 3 -7 9.3 15.3 0.9
7 3 -6 13.0 6.4 0.9
7 3 -5 32.8 37.4 1.9
7 3 -4 15.4 3.0 0.7
7 3 -3 64.1 37.2 2.2
7 3 -2 17.3 9.7 1.3
7 3 -1 10.7 2.3 0.5
7 3 0 25.1 25.8 0.9
7 3 1 3.2 17.4 0.3
7 3 2 10.5 10.2 0.6
7 3 3 23.7 17.7 1.5
7 3 4 1.9 1.2 0.3
7 3 5 3.9 3.2 0.7
7 3 6 18.9 26.1 1.0
7 3 7 6.2 0.3 0.6
7 4 -8 1.2 2.0 0.5
7 4 -7 21.4 13.4 1.4
7 4 -6 4.9 9.0 0.4
7 4 -5 2.0 0.4 0.3
7 4 -4 16.4 32.4 1.0
7 4 -3 1.0 1.0 0.5
7 4 -2 4.4 15.9 0.3
7 4 -1 1.2 3.3 0.2
7 4 0 4.1 9.8 0.4
7 4 1 14.7 16.3 0.6
7 4 2 2.7 6.1 0.3
7 4 3 3.6 9.1 0.6
7 4 5 1.4 6.3 0.5
7 5 -1 4.1 3.0 0.5
8 0 -11 6.0 1.0 0.8
8 0 -9 21.7 5.1 1.4
8 0 -8 44.8 49.5 2.3
8 0 -7 2.1 0.0 0.4
8 0 -5 128.1 97.9 3.9
8 0 -4 41.2 33.5 1.5
8 0 -2 11.4 15.4 0.7
8 0 -1 66.2 14.5 2.3
8 0 0 2.2 0.5 0.6
8 0 2 0.9 3.1 0.4
8 0 3 34.5 52.6 1.9
8 0 4 42.3 76.1 1.7
8 0 5 2.1 11.7 0.6
8 0 6 0.9 5.6 0.4
8 0 8 5.1 11.0 0.9
8 0 9 11.8 6.9 1.3
8 1 -11 6.8 0.8 0.6
8 1 -10 2.0 11.6 0.5
8 1 -9 16.0 28.8 0.9
8 1 -8 62.1 40.8 2.2
8 1 -7 51.7 23.2 2.5
8 1 -6 14.2 11.6 1.1
8 1 -5 34.6 39.9 2.0
8 1 -4 25.5 27.1 1.0
8 1 -3 11.2 17.5 0.6
8 1 -2 16.2 18.2 0.7
8 1 -1 28.2 22.7 1.0
8 1 0 22.8 20.4 0.9
8 1 1 27.7 50.6 1.1
8 1 2 3.9 6.9 0.4
8 1 3 52.7 34.1 2.0
8 1 4 53.4 48.5 2.0
8 1 5 12.1 9.2 0.7
8 1 6 6.4 0.8 0.6
8 1 8 1.6 5.2 0.6
8 1 9 1.5 0.2 0.6
8 2 -11 2.5 1.1 0.7
8 2 -10 4.7 4.9 0.6
8 2 -9 4.0 0.9 0.6
8 2 -8 13.5 27.5 0.8
8 2 -7 1.0 7.6 0.3
8 2 -6 20.2 22.6 0.9
8 2 -5 7.1 1.1 0.5
8 2 -4 29.6 17.4 1.1
8 2 -3 45.7 25.4 1.5
8 2 -2 1.3 7.0 0.4
8 2 -1 41.0 71.5 1.7
8 2 0 73.7 40.2 3.5
8 2 1 20.0 19.7 0.9
8 2 2 26.5 26.4 1.1
8 2 3 1.5 3.2 0.4
8 2 4 19.5 15.6 1.4
8 2 5 6.7 10.7 0.6
8 2 8 5.1 4.8 0.9
8 3 -9 10.7 7.3 0.7
8 3 -8 1.7 0.4 0.5
8 3 -6 0.6 4.0 0.3
8 3 -5 27.7 26.6 1.1
8 3 -4 26.2 10.6 1.7
8 3 -3 1.5 4.8 0.6
8 3 -2 6.6 5.9 0.5
8 3 0 16.8 30.5 0.8
8 3 1 6.5 2.6 0.6
8 3 2 9.0 21.1 0.6
8 3 3 1.2 0.5 0.3
8 3 4 2.2 6.0 0.5
8 3 5 8.1 16.8 0.6
8 3 6 4.0 2.5 0.6
8 4 -7 2.0 4.9 0.4
8 4 -5 7.5 9.5 0.7
8 4 -4 8.2 5.5 0.6
8 4 -3 0.8 2.7 0.5
8 4 -1 2.4 9.7 0.3
8 4 0 2.1 2.2 0.5
8 4 1 1.3 3.3 0.5
8 4 2 1.9 1.1 0.3
8 4 3 0.6 0.9 0.3
9 0 -11 2.3 16.8 0.7
9 0 -9 3.7 2.7 0.6
9 0 -8 1.4 2.5 0.4
9 0 -7 45.3 36.2 1.8
9 0 -6 1.9 11.1 0.4
9 0 -5 48.2 59.8 1.7
9 0 -4 14.6 12.9 0.8
9 0 -3 35.7 30.1 1.4
9 0 -2 144.3 125.1 4.1
9 0 -1 4.3 12.1 0.5
9 0 0 18.7 38.2 0.9
9 0 1 10.9 3.0 0.7
9 0 2 3.3 1.9 0.5
9 0 3 125.3 104.3 4.2
9 0 4 35.0 28.4 2.0
9 0 5 0.8 11.4 0.4
9 0 8 3.6 0.2 0.7
9 1 -11 4.3 2.3 0.9
9 1 -10 1.1 3.8 0.6
9 1 -8 3.9 1.2 0.6
9 1 -7 17.0 10.4 0.9
9 1 -6 5.6 7.9 0.7
9 1 -5 15.2 19.2 0.8
9 1 -4 27.6 21.8 1.2
9 1 -3 65.4 50.4 2.2
9 1 -2 9.1 9.7 0.7
9 1 -1 51.1 37.3 1.9
9 1 0 44.8 26.5 1.7
9 1 1 15.4 20.8 0.8
9 1 2 4.9 17.5 0.5
9 1 4 25.8 25.2 1.2
9 1 5 4.1 5.4 0.6
9 1 6 7.0 10.6 0.9
9 1 7 3.8 1.4 0.8
9 2 -9 0.9 1.8 0.5
9 2 -8 9.3 1.9 0.7
9 2 -7 11.3 20.0 0.8
9 2 -6 11.7 4.4 0.8
9 2 -4 4.5 5.5 0.5
9 2 -3 0.6 2.1 0.3
9 2 -2 1.8 3.9 0.4
9 2 -1 3.1 13.3 0.4
9 2 0 13.5 32.8 0.8
9 2 1 10.8 2.0 0.7
9 2 2 5.3 2.9 0.7
9 2 3 6.4 3.0 0.7
9 2 4 10.1 22.2 0.8
9 2 5 3.1 1.4 0.8
9 2 6 8.1 8.6 1.0
9 3 -8 1.9 0.8 0.4
9 3 -7 1.4 3.0 0.4
9 3 -6 7.6 11.3 0.8
9 3 -5 3.9 4.6 0.4
9 3 -4 4.0 5.6 0.5
9 3 -3 4.2 21.5 0.4
9 3 -2 0.9 0.2 0.4
9 3 -1 4.6 4.2 0.4
9 3 0 11.5 11.2 1.1
9 3 1 1.9 4.9 0.4
9 3 2 2.0 10.5 0.5
9 3 4 0.9 1.8 0.4
9 3 5 1.4 1.6 0.7
9 4 -4 6.7 8.0 0.6
9 4 -3 2.5 1.0 0.5
9 4 -2 1.3 0.1 0.4
9 4 -1 2.4 3.0 0.4
9 4 0 5.8 5.4 0.5
10 0 -8 27.6 20.3 1.6
10 0 -7 42.8 39.9 2.1
10 0 -6 3.6 7.5 0.7
10 0 -4 34.7 31.4 2.0
10 0 -3 22.8 4.3 1.1
10 0 -2 1.2 2.5 0.4
10 0 -1 1.7 0.3 0.4
10 0 0 2.1 0.8 0.6
10 0 1 0.8 0.0 0.4
10 0 2 13.4 38.1 0.9
10 0 3 2.5 0.0 0.4
10 0 4 1.5 0.9 0.8
10 0 5 12.3 8.3 1.4
10 0 6 1.6 5.7 0.7
10 1 -9 1.4 3.0 0.6
10 1 -8 12.9 15.8 0.9
10 1 -7 32.8 16.3 1.6
10 1 -6 15.5 11.5 0.9
10 1 -5 1.0 2.8 0.5
10 1 -3 14.9 6.4 0.8
10 1 -2 2.3 15.3 0.4
10 1 -1 7.3 15.7 0.6
10 1 0 25.9 19.9 1.3
10 1 1 2.2 2.7 0.6
10 1 2 17.7 10.7 1.5
10 1 3 35.6 47.3 1.8
10 1 4 3.2 1.9 0.7
10 1 5 1.4 6.4 0.9
10 1 6 4.3 1.9 0.9
10 2 -8 2.8 1.3 0.8
10 2 -6 2.6 1.8 0.5
10 2 -5 3.8 13.3 0.6
10 2 -4 1.9 3.3 0.7
10 2 -3 5.6 5.5 0.5
10 2 -2 9.5 4.0 0.7
10 2 -1 20.4 20.4 1.2
10 2 0 17.1 30.7 0.9
10 2 2 3.9 6.6 0.5
10 2 3 2.6 0.7 0.5
10 2 4 1.5 2.3 0.6
10 3 -6 1.1 6.4 0.4
10 3 -5 2.2 0.6 0.5
10 3 -4 3.5 3.2 0.5
10 3 -2 2.7 7.2 0.5
10 3 -1 4.4 1.8 0.5
10 3 0 4.2 0.0 0.5
10 3 1 4.1 0.6 0.6
11 0 -8 9.0 2.1 1.2
11 0 -7 61.4 27.9 3.3
11 0 -6 1.8 1.1 0.7
11 0 -2 1.2 1.3 0.4
11 0 -1 9.5 10.2 0.8
11 0 0 1.9 1.7 0.4
11 0 3 2.1 0.4 0.7
11 0 4 1.8 0.8 0.8
11 1 -8 13.5 16.2 1.3
11 1 -6 5.5 9.2 0.8
11 1 -5 3.8 0.5 0.7
11 1 -4 11.7 10.3 1.3
11 1 -3 20.3 15.6 1.1
11 1 -2 3.3 1.0 0.5
11 1 0 2.3 1.1 0.6
11 1 1 8.7 17.1 1.1
11 1 2 3.2 3.6 0.9
11 1 3 2.6 1.2 0.7
11 2 -2 1.1 2.3 0.6
11 2 0 3.3 2.6 0.6
11 2 1 1.9 5.2 0.6
11 2 2 1.3 10.9 0.8
12 0 -4 2.8 0.5 0.7
12 0 -3 12.6 11.0 1.3
12 0 -2 2.9 1.6 0.7
12 0 -1 2.2 0.0 0.7
12 0 0 10.5 10.0 1.2
12 1 -3 3.3 1.1 0.8
12 1 -2 1.1 1.0 0.6
loop_
_cod_related_entry_id
_cod_related_entry_database
_cod_related_entry_code
1 ChemSpider 17257365
