#------------------------------------------------------------------------------
#$Date: 2017-10-13 02:32:00 +0300 (Fri, 13 Oct 2017) $
#$Revision: 201954 $
#$URL: file:///home/coder/svn-repositories/cod/cif/1/50/52/1505278.cif $
#------------------------------------------------------------------------------
#
# This file is available in the Crystallography Open Database (COD),
# http://www.crystallography.net/
#
# All data on this site have been placed in the public domain by the
# contributors.
#
data_1505278
loop_
_publ_author_name
'Shing, Tony K. M.'
'Wong, Wai F.'
'Cheng, Hau M.'
'Kwok, Wun S.'
'So, King H.'
_publ_section_title
;
 Intramolecular nitrile oxide-alkene cycloaddition of sugar derivatives
 with unmasked hydroxyl group(s).
;
_journal_issue                   5
_journal_name_full               'Organic letters'
_journal_page_first              753
_journal_page_last               756
_journal_paper_doi               10.1021/ol062873p
_journal_volume                  9
_journal_year                    2007
_chemical_formula_sum            'C10 H15 N O4'
_chemical_formula_weight         213.23
_chemical_name_systematic
; 
 ? 
;
_space_group_IT_number           4
_symmetry_cell_setting           monoclinic
_symmetry_space_group_name_Hall  'P 2yb'
_symmetry_space_group_name_H-M   'P 1 21 1'
_atom_sites_solution_hydrogens   geom
_atom_sites_solution_primary     direct
_atom_sites_solution_secondary   difmap
_audit_creation_method           SHELXL-97
_cell_angle_alpha                90.00
_cell_angle_beta                 112.902(2)
_cell_angle_gamma                90.00
_cell_formula_units_Z            2
_cell_length_a                   7.2410(9)
_cell_length_b                   8.3118(11)
_cell_length_c                   9.2383(12)
_cell_measurement_reflns_used    955
_cell_measurement_temperature    293(2)
_cell_measurement_theta_max      27.97
_cell_measurement_theta_min      2.45
_cell_volume                     512.18(11)
_computing_cell_refinement       'BRUKER SMART CCD DIFFRACTOMETER'
_computing_data_collection       'BRUKER SMART CCD DIFFRACTOMETER'
_computing_data_reduction        'BRUKER SMART CCD DIFFRACTOMETER'
_computing_molecular_graphics    'SIEMENS SHELXTL'
_computing_publication_material  'SIEMENS SHELXTL'
_computing_structure_refinement  'SHELXL-97 (Sheldrick, 1997)'
_computing_structure_solution    'SHELXS-97 (Sheldrick, 1990)'
_diffrn_ambient_temperature      293(2)
_diffrn_measured_fraction_theta_full 0.996
_diffrn_measured_fraction_theta_max 0.996
_diffrn_measurement_device_type  'BRUKER SMART CCD DIFFRACTOMETER'
_diffrn_measurement_method       'OMEGA SCAN'
_diffrn_radiation_monochromator  graphite
_diffrn_radiation_source         'fine-focus sealed tube'
_diffrn_radiation_type           MoK\a
_diffrn_radiation_wavelength     0.71073
_diffrn_reflns_av_R_equivalents  0.0143
_diffrn_reflns_av_sigmaI/netI    0.0250
_diffrn_reflns_limit_h_max       8
_diffrn_reflns_limit_h_min       -9
_diffrn_reflns_limit_k_max       10
_diffrn_reflns_limit_k_min       -10
_diffrn_reflns_limit_l_max       12
_diffrn_reflns_limit_l_min       -7
_diffrn_reflns_number            3449
_diffrn_reflns_theta_full        28.00
_diffrn_reflns_theta_max         28.00
_diffrn_reflns_theta_min         2.39
_exptl_absorpt_coefficient_mu    0.107
_exptl_absorpt_correction_T_max  1.0000
_exptl_absorpt_correction_T_min  0.796115
_exptl_absorpt_correction_type   SADABS
_exptl_crystal_colour            colourless
_exptl_crystal_density_diffrn    1.383
_exptl_crystal_density_meas      0
_exptl_crystal_density_method    'not measured'
_exptl_crystal_description       block
_exptl_crystal_F_000             228
_exptl_crystal_size_max          0.50
_exptl_crystal_size_mid          0.40
_exptl_crystal_size_min          0.20
_refine_diff_density_max         0.185
_refine_diff_density_min         -0.196
_refine_diff_density_rms         0.042
_refine_ls_abs_structure_details 'Flack H D (1983), Acta Cryst. A39, 876-881'
_refine_ls_abs_structure_Flack   -0.6(9)
_refine_ls_extinction_method     none
_refine_ls_goodness_of_fit_ref   1.040
_refine_ls_hydrogen_treatment    riding
_refine_ls_matrix_type           full
_refine_ls_number_parameters     136
_refine_ls_number_reflns         2373
_refine_ls_number_restraints     1
_refine_ls_restrained_S_all      1.040
_refine_ls_R_factor_all          0.0388
_refine_ls_R_factor_gt           0.0350
_refine_ls_shift/su_max          0.002
_refine_ls_shift/su_mean         0.000
_refine_ls_structure_factor_coef Fsqd
_refine_ls_weighting_details
'calc w=1/[\s^2^(Fo^2^)+(0.0538P)^2^+0.0467P] where P=(Fo^2^+2Fc^2^)/3'
_refine_ls_weighting_scheme      calc
_refine_ls_wR_factor_gt          0.0876
_refine_ls_wR_factor_ref         0.0911
_reflns_number_gt                2199
_reflns_number_total             2373
_reflns_threshold_expression     >2sigma(I)
_cod_data_source_file            ol062873psi20061127_030028.cif
_cod_data_source_block           skca14p2
_cod_depositor_comments
;
The following automatic conversions were performed:

'_symmetry_cell_setting' value 'Monoclinic' changed to 'monoclinic'
according to /home/saulius/struct/CIF-dictionaries/cif_core.dic
dictionary named 'cif_core.dic' version 2.4.1 from 2010-06-29.

Automatic conversion script
Id: cif_fix_values 1715 2011-07-08 13:25:40Z adriana 
;
_cod_original_sg_symbol_H-M      P2(1)
_cod_database_code               1505278
loop_
_symmetry_equiv_pos_as_xyz
'x, y, z'
'-x, y+1/2, -z'
loop_
_atom_site_label
_atom_site_type_symbol
_atom_site_fract_x
_atom_site_fract_y
_atom_site_fract_z
_atom_site_U_iso_or_equiv
_atom_site_adp_type
_atom_site_occupancy
_atom_site_symmetry_multiplicity
_atom_site_calc_flag
_atom_site_refinement_flags
N1 N 0.54758(19) 0.27756(19) 0.40738(15) 0.0396(3) Uani 1 1 d .
O1 O 0.62023(18) 0.2097(2) 0.56104(14) 0.0529(4) Uani 1 1 d .
O2 O -0.14000(17) 0.34960(15) 0.29208(15) 0.0450(3) Uani 1 1 d .
H2A H -0.1890 0.3253 0.3555 0.068 Uiso 1 1 calc R
O3 O 0.12033(15) 0.14488(13) 0.08235(12) 0.0328(2) Uani 1 1 d .
O4 O 0.31829(16) 0.36507(13) 0.09803(13) 0.0339(2) Uani 1 1 d .
C1 C 0.4704(3) 0.2328(3) 0.6272(2) 0.0478(4) Uani 1 1 d .
H1B H 0.5121 0.3161 0.7070 0.057 Uiso 1 1 calc R
H1C H 0.4489 0.1339 0.6742 0.057 Uiso 1 1 calc R
C2 C 0.2802(2) 0.2826(2) 0.48970(18) 0.0354(3) Uani 1 1 d .
H2B H 0.2203 0.3782 0.5159 0.042 Uiso 1 1 calc R
C3 C 0.3671(2) 0.32170(18) 0.37075(17) 0.0300(3) Uani 1 1 d .
C4 C 0.1214(2) 0.1518(2) 0.41544(19) 0.0383(3) Uani 1 1 d .
H4A H 0.1844 0.0569 0.3938 0.046 Uiso 1 1 calc R
H4B H 0.0603 0.1218 0.4882 0.046 Uiso 1 1 calc R
C5 C -0.0387(2) 0.2138(2) 0.26366(18) 0.0344(3) Uani 1 1 d .
H5A H -0.1362 0.1280 0.2152 0.041 Uiso 1 1 calc R
C6 C 0.0456(2) 0.27442(18) 0.14560(17) 0.0297(3) Uani 1 1 d .
H6A H -0.0600 0.3309 0.0599 0.036 Uiso 1 1 calc R
C7 C 0.2329(2) 0.38177(18) 0.21134(16) 0.0287(3) Uani 1 1 d .
H7A H 0.1948 0.4939 0.2174 0.034 Uiso 1 1 calc R
C8 C 0.2460(2) 0.21659(19) 0.01288(17) 0.0316(3) Uani 1 1 d .
C9 C 0.4192(2) 0.1051(2) 0.0354(2) 0.0442(4) Uani 1 1 d .
H9A H 0.4884 0.0820 0.1453 0.066 Uiso 1 1 calc R
H9B H 0.5098 0.1555 -0.0038 0.066 Uiso 1 1 calc R
H9C H 0.3697 0.0068 -0.0208 0.066 Uiso 1 1 calc R
C10 C 0.1271(3) 0.2588(3) -0.15830(18) 0.0460(4) Uani 1 1 d .
H10A H 0.0191 0.3297 -0.1659 0.069 Uiso 1 1 calc R
H10B H 0.0738 0.1623 -0.2167 0.069 Uiso 1 1 calc R
H10C H 0.2134 0.3111 -0.2006 0.069 Uiso 1 1 calc R
loop_
_atom_site_aniso_label
_atom_site_aniso_U_11
_atom_site_aniso_U_22
_atom_site_aniso_U_33
_atom_site_aniso_U_23
_atom_site_aniso_U_13
_atom_site_aniso_U_12
N1 0.0292(6) 0.0545(8) 0.0371(7) 0.0004(6) 0.0150(5) 0.0007(6)
O1 0.0360(6) 0.0800(10) 0.0415(6) 0.0109(6) 0.0140(5) 0.0164(6)
O2 0.0387(6) 0.0443(7) 0.0666(8) 0.0060(6) 0.0364(6) 0.0069(5)
O3 0.0317(5) 0.0326(5) 0.0408(5) -0.0044(4) 0.0214(4) -0.0046(4)
O4 0.0362(5) 0.0358(6) 0.0387(5) -0.0044(4) 0.0244(4) -0.0092(4)
C1 0.0444(9) 0.0668(12) 0.0339(7) 0.0024(8) 0.0171(7) 0.0095(9)
C2 0.0352(7) 0.0423(8) 0.0350(7) 0.0013(6) 0.0206(6) 0.0053(6)
C3 0.0274(7) 0.0318(7) 0.0348(7) -0.0043(6) 0.0165(5) -0.0020(5)
C4 0.0393(8) 0.0407(8) 0.0439(8) 0.0079(7) 0.0259(7) 0.0018(7)
C5 0.0269(6) 0.0367(7) 0.0467(8) 0.0009(6) 0.0220(6) -0.0019(6)
C6 0.0237(6) 0.0320(7) 0.0355(7) 0.0018(6) 0.0139(5) 0.0001(5)
C7 0.0289(7) 0.0283(7) 0.0347(7) -0.0017(5) 0.0186(6) -0.0023(5)
C8 0.0286(6) 0.0367(8) 0.0338(7) -0.0026(6) 0.0168(5) -0.0031(6)
C9 0.0368(8) 0.0482(10) 0.0528(9) -0.0064(8) 0.0232(7) 0.0041(7)
C10 0.0464(9) 0.0589(11) 0.0350(8) 0.0007(8) 0.0182(7) -0.0039(8)
loop_
_atom_type_symbol
_atom_type_description
_atom_type_scat_dispersion_real
_atom_type_scat_dispersion_imag
_atom_type_scat_source
C C 0.0033 0.0016 'International Tables Vol C Tables 4.2.6.8 and 6.1.1.4'
H H 0.0000 0.0000 'International Tables Vol C Tables 4.2.6.8 and 6.1.1.4'
N N 0.0061 0.0033 'International Tables Vol C Tables 4.2.6.8 and 6.1.1.4'
O O 0.0106 0.0060 'International Tables Vol C Tables 4.2.6.8 and 6.1.1.4'
loop_
_geom_angle_atom_site_label_1
_geom_angle_atom_site_label_2
_geom_angle_atom_site_label_3
_geom_angle
C3 N1 O1 108.83(12)
N1 O1 C1 108.71(12)
C6 O3 C8 106.12(11)
C7 O4 C8 108.43(10)
O1 C1 C2 105.45(12)
C3 C2 C1 99.73(12)
C3 C2 C4 106.32(12)
C1 C2 C4 117.20(15)
N1 C3 C2 115.08(14)
N1 C3 C7 124.35(13)
C2 C3 C7 119.71(12)
C5 C4 C2 109.98(13)
O2 C5 C4 111.16(13)
O2 C5 C6 104.33(12)
C4 C5 C6 113.40(11)
O3 C6 C5 111.33(12)
O3 C6 C7 100.51(11)
C5 C6 C7 116.46(12)
O4 C7 C3 113.04(11)
O4 C7 C6 102.90(11)
C3 C7 C6 109.25(12)
O3 C8 O4 105.66(11)
O3 C8 C9 108.78(13)
O4 C8 C9 110.09(12)
O3 C8 C10 111.19(12)
O4 C8 C10 107.92(14)
C9 C8 C10 112.95(14)
loop_
_geom_bond_atom_site_label_1
_geom_bond_atom_site_label_2
_geom_bond_distance
N1 C3 1.2697(19)
N1 O1 1.4245(19)
O1 C1 1.450(2)
O2 C5 1.4249(19)
O3 C6 1.4283(18)
O3 C8 1.4317(17)
O4 C7 1.4144(16)
O4 C8 1.4475(18)
C1 C2 1.523(2)
C2 C3 1.4993(19)
C2 C4 1.537(2)
C3 C7 1.500(2)
C4 C5 1.520(2)
C5 C6 1.5279(19)
C6 C7 1.538(2)
C8 C9 1.507(2)
C8 C10 1.518(2)
loop_
_cod_related_entry_id
_cod_related_entry_code
_cod_related_entry_database
1 21199612 ChemSpider
