#------------------------------------------------------------------------------
#$Date: 2016-02-18 17:37:37 +0200 (Thu, 18 Feb 2016) $
#$Revision: 176729 $
#$URL: svn://www.crystallography.net/cod/cif/1/50/53/1505321.cif $
#------------------------------------------------------------------------------
#
# This file is available in the Crystallography Open Database (COD),
# http://www.crystallography.net/
#
# All data on this site have been placed in the public domain by the
# contributors.
#
data_1505321
loop_
_publ_author_name
'Brunker, Tim J.'
'Anderson, Brian J.'
'Blank, Natalia F.'
'Glueck, David S.'
'Rheingold, Arnold L.'
_publ_section_title
;
 Enantioselective synthesis of P-stereogenic benzophospholanes via
 palladium-catalyzed intramolecular cyclization.
;
_journal_issue                   6
_journal_name_full               'Organic letters'
_journal_page_first              1109
_journal_page_last               1112
_journal_paper_doi               10.1021/ol0700512
_journal_volume                  9
_journal_year                    2007
_chemical_formula_sum            'C14 H13 P S'
_chemical_formula_weight         244.27
_chemical_name_systematic
; 

 ? 

;
_space_group_IT_number           4
_symmetry_cell_setting           monoclinic
_symmetry_space_group_name_Hall  'P 2yb'
_symmetry_space_group_name_H-M   'P 1 21 1'
_atom_sites_solution_hydrogens   geom
_atom_sites_solution_primary     direct
_atom_sites_solution_secondary   difmap
_audit_creation_method           SHELXL-97
_cell_angle_alpha                90.00
_cell_angle_beta                 115.081(3)
_cell_angle_gamma                90.00
_cell_formula_units_Z            2
_cell_length_a                   8.3368(16)
_cell_length_b                   9.1981(17)
_cell_length_c                   8.8279(17)
_cell_measurement_reflns_used    3588
_cell_measurement_temperature    208(2)
_cell_measurement_theta_max      28.10
_cell_measurement_theta_min      2.55
_cell_volume                     613.1(2)
_computing_cell_refinement       'Bruker SMART'
_computing_data_collection       'Bruker SMART'
_computing_data_reduction        'Bruker SAINT'
_computing_molecular_graphics    'Bruker SHELXTL'
_computing_publication_material  'Bruker SHELXTL'
_computing_structure_refinement  'SHELXL-97 (Sheldrick, 1997)'
_computing_structure_solution    'SHELXS-97 (Sheldrick, 1990)'
_diffrn_ambient_temperature      208(2)
_diffrn_measured_fraction_theta_full 0.987
_diffrn_measured_fraction_theta_max 0.945
_diffrn_measurement_device_type  'CCD area detector'
_diffrn_measurement_method       'phi and omega scans'
_diffrn_radiation_monochromator  graphite
_diffrn_radiation_source         'fine-focus sealed tube'
_diffrn_radiation_type           MoK\a
_diffrn_radiation_wavelength     0.71073
_diffrn_reflns_av_R_equivalents  0.0266
_diffrn_reflns_av_sigmaI/netI    0.0381
_diffrn_reflns_limit_h_max       10
_diffrn_reflns_limit_h_min       -11
_diffrn_reflns_limit_k_max       11
_diffrn_reflns_limit_k_min       -11
_diffrn_reflns_limit_l_max       11
_diffrn_reflns_limit_l_min       -11
_diffrn_reflns_number            4124
_diffrn_reflns_theta_full        25.00
_diffrn_reflns_theta_max         28.33
_diffrn_reflns_theta_min         2.55
_exptl_absorpt_coefficient_mu    0.362
_exptl_absorpt_correction_T_max  0.943
_exptl_absorpt_correction_T_min  0.887
_exptl_absorpt_correction_type   multi-scan
_exptl_absorpt_process_details   sadabs
_exptl_crystal_colour            colorless
_exptl_crystal_density_diffrn    1.323
_exptl_crystal_density_method    'not measured'
_exptl_crystal_description       block
_exptl_crystal_F_000             256
_exptl_crystal_size_max          0.41
_exptl_crystal_size_mid          0.37
_exptl_crystal_size_min          0.21
_refine_diff_density_max         0.578
_refine_diff_density_min         -0.183
_refine_diff_density_rms         0.056
_refine_ls_abs_structure_details 'Flack H D (1983), Acta Cryst. A39, 876-881'
_refine_ls_abs_structure_Flack   0.01(7)
_refine_ls_extinction_method     none
_refine_ls_goodness_of_fit_ref   1.163
_refine_ls_hydrogen_treatment    constr
_refine_ls_matrix_type           full
_refine_ls_number_parameters     145
_refine_ls_number_reflns         2289
_refine_ls_number_restraints     1
_refine_ls_restrained_S_all      1.162
_refine_ls_R_factor_all          0.0344
_refine_ls_R_factor_gt           0.0339
_refine_ls_shift/su_max          0.005
_refine_ls_shift/su_mean         0.001
_refine_ls_structure_factor_coef Fsqd
_refine_ls_weighting_details
'calc w=1/[\s^2^(Fo^2^)+(0.0500P)^2^+0.0000P] where P=(Fo^2^+2Fc^2^)/3'
_refine_ls_weighting_scheme      calc
_refine_ls_wR_factor_gt          0.0845
_refine_ls_wR_factor_ref         0.0850
_reflns_number_gt                2238
_reflns_number_total             2289
_reflns_threshold_expression     >2sigma(I)
_cod_data_source_file            ol0700512si20070108_125626.cif
_cod_data_source_block           glu227
_cod_depositor_comments
;
The following automatic conversions were performed:

'_symmetry_cell_setting' value 'Monoclinic' changed to 'monoclinic'
according to /home/saulius/struct/CIF-dictionaries/cif_core.dic
dictionary named 'cif_core.dic' version 2.4.1 from 2010-06-29.

Automatic conversion script
Id: cif_fix_values 1715 2011-07-08 13:25:40Z adriana 
;
_cod_original_sg_symbol_H-M      P2(1)
_cod_database_code               1505321
loop_
_symmetry_equiv_pos_as_xyz
'x, y, z'
'-x, y+1/2, -z'
loop_
_atom_site_label
_atom_site_type_symbol
_atom_site_fract_x
_atom_site_fract_y
_atom_site_fract_z
_atom_site_U_iso_or_equiv
_atom_site_adp_type
_atom_site_occupancy
_atom_site_symmetry_multiplicity
_atom_site_calc_flag
_atom_site_refinement_flags
S1 S 0.81972(7) 0.96101(5) 0.23540(7) 0.03718(16) Uani 1 1 d .
P1 P 0.66446(6) 0.79143(6) 0.16366(6) 0.02600(13) Uani 1 1 d .
C1 C 0.7726(3) 0.6200(2) 0.1764(3) 0.0273(4) Uani 1 1 d .
C2 C 0.8605(3) 0.5312(3) 0.3147(3) 0.0324(4) Uani 1 1 d .
H2A H 0.8699 0.5584 0.4196 0.039 Uiso 1 1 calc R
C3 C 0.9338(3) 0.4013(2) 0.2941(3) 0.0373(5) Uani 1 1 d .
H3A H 0.9905 0.3398 0.3849 0.045 Uiso 1 1 calc R
C4 C 0.9222(3) 0.3638(3) 0.1384(3) 0.0397(5) Uani 1 1 d .
H4A H 0.9710 0.2764 0.1254 0.048 Uiso 1 1 calc R
C5 C 0.8390(3) 0.4538(3) 0.0007(3) 0.0372(5) Uani 1 1 d .
H5A H 0.8356 0.4284 -0.1026 0.045 Uiso 1 1 calc R
C6 C 0.7608(2) 0.5823(2) 0.0189(3) 0.0301(4) Uani 1 1 d .
C7 C 0.6577(3) 0.6875(3) -0.1187(3) 0.0352(5) Uani 1 1 d .
H7A H 0.5878 0.6354 -0.2211 0.042 Uiso 1 1 calc R
H7B H 0.7377 0.7525 -0.1396 0.042 Uiso 1 1 calc R
C8 C 0.5363(3) 0.7742(2) -0.0608(2) 0.0313(4) Uani 1 1 d .
H8A H 0.4265 0.7224 -0.0864 0.038 Uiso 1 1 calc R
H8B H 0.5092 0.8690 -0.1138 0.038 Uiso 1 1 calc R
C9 C 0.5196(2) 0.7719(2) 0.2682(2) 0.0268(4) Uani 1 1 d .
C10 C 0.5397(3) 0.8630(3) 0.3994(3) 0.0339(5) Uani 1 1 d .
H10A H 0.6290 0.9326 0.4363 0.041 Uiso 1 1 calc R
C11 C 0.4249(3) 0.8495(3) 0.4759(3) 0.0411(5) Uani 1 1 d .
H11A H 0.4376 0.9102 0.5645 0.049 Uiso 1 1 calc R
C12 C 0.2926(3) 0.7466(3) 0.4209(3) 0.0424(6) Uani 1 1 d .
H12A H 0.2156 0.7388 0.4719 0.051 Uiso 1 1 calc R
C13 C 0.2736(3) 0.6555(3) 0.2915(3) 0.0382(5) Uani 1 1 d .
H13A H 0.1845 0.5858 0.2558 0.046 Uiso 1 1 calc R
C14 C 0.3862(3) 0.6670(2) 0.2142(3) 0.0319(4) Uani 1 1 d .
H14A H 0.3732 0.6051 0.1265 0.038 Uiso 1 1 calc R
loop_
_atom_site_aniso_label
_atom_site_aniso_U_11
_atom_site_aniso_U_22
_atom_site_aniso_U_33
_atom_site_aniso_U_23
_atom_site_aniso_U_13
_atom_site_aniso_U_12
S1 0.0377(3) 0.0332(3) 0.0394(3) -0.0034(2) 0.0151(2) -0.0098(2)
P1 0.0269(2) 0.0262(2) 0.0249(2) -0.0002(2) 0.01104(19) -0.00091(19)
C1 0.0228(9) 0.0271(9) 0.0330(10) -0.0004(8) 0.0128(8) -0.0003(7)
C2 0.0271(10) 0.0379(11) 0.0311(11) 0.0034(9) 0.0113(9) -0.0015(8)
C3 0.0260(10) 0.0340(11) 0.0472(13) 0.0094(10) 0.0109(9) 0.0023(8)
C4 0.0294(10) 0.0321(11) 0.0585(15) -0.0072(11) 0.0194(10) 0.0007(9)
C5 0.0312(10) 0.0426(12) 0.0388(11) -0.0129(11) 0.0157(9) -0.0061(10)
C6 0.0266(10) 0.0322(11) 0.0335(10) -0.0057(9) 0.0146(8) -0.0059(8)
C7 0.0363(11) 0.0446(12) 0.0269(10) -0.0009(10) 0.0155(9) -0.0002(9)
C8 0.0329(10) 0.0338(11) 0.0249(9) 0.0024(9) 0.0101(8) -0.0006(9)
C9 0.0250(9) 0.0284(10) 0.0267(9) 0.0015(8) 0.0104(7) 0.0034(7)
C10 0.0352(11) 0.0370(11) 0.0286(10) -0.0011(9) 0.0128(8) 0.0017(9)
C11 0.0485(13) 0.0499(13) 0.0288(11) -0.0024(10) 0.0201(10) 0.0025(11)
C12 0.0422(12) 0.0552(14) 0.0392(12) 0.0081(11) 0.0262(11) 0.0063(11)
C13 0.0340(11) 0.0350(11) 0.0475(13) 0.0061(10) 0.0190(10) -0.0022(9)
C14 0.0368(11) 0.0277(10) 0.0338(11) 0.0001(9) 0.0176(9) 0.0026(8)
loop_
_atom_type_symbol
_atom_type_description
_atom_type_scat_dispersion_real
_atom_type_scat_dispersion_imag
_atom_type_scat_source
C C 0.0033 0.0016 'International Tables Vol C Tables 4.2.6.8 and 6.1.1.4'
H H 0.0000 0.0000 'International Tables Vol C Tables 4.2.6.8 and 6.1.1.4'
P P 0.1023 0.0942 'International Tables Vol C Tables 4.2.6.8 and 6.1.1.4'
S S 0.1246 0.1234 'International Tables Vol C Tables 4.2.6.8 and 6.1.1.4'
loop_
_geom_angle_atom_site_label_1
_geom_angle_atom_site_label_2
_geom_angle_atom_site_label_3
_geom_angle
C1 P1 C9 107.84(9)
C1 P1 C8 92.25(10)
C9 P1 C8 109.64(9)
C1 P1 S1 115.76(7)
C9 P1 S1 114.02(7)
C8 P1 S1 115.21(8)
C2 C1 C6 121.1(2)
C2 C1 P1 129.35(18)
C6 C1 P1 109.52(15)
C3 C2 C1 119.2(2)
C4 C3 C2 119.8(2)
C3 C4 C5 121.4(2)
C4 C5 C6 119.3(2)
C5 C6 C1 119.18(19)
C5 C6 C7 126.0(2)
C1 C6 C7 114.80(18)
C6 C7 C8 107.24(17)
C7 C8 P1 104.04(13)
C10 C9 C14 120.09(19)
C10 C9 P1 119.79(16)
C14 C9 P1 120.11(15)
C9 C10 C11 119.3(2)
C12 C11 C10 120.3(2)
C13 C12 C11 120.4(2)
C12 C13 C14 120.2(2)
C13 C14 C9 119.7(2)
loop_
_geom_bond_atom_site_label_1
_geom_bond_atom_site_label_2
_geom_bond_distance
S1 P1 1.9531(7)
P1 C1 1.796(2)
P1 C9 1.813(2)
P1 C8 1.816(2)
C1 C2 1.392(3)
C1 C6 1.395(3)
C2 C3 1.388(3)
C3 C4 1.380(4)
C4 C5 1.389(3)
C5 C6 1.392(3)
C6 C7 1.505(3)
C7 C8 1.536(3)
C9 C10 1.381(3)
C9 C14 1.395(3)
C10 C11 1.391(3)
C11 C12 1.376(4)
C12 C13 1.370(3)
C13 C14 1.379(3)
