#------------------------------------------------------------------------------
#$Date: 2017-10-13 02:32:00 +0300 (Fri, 13 Oct 2017) $
#$Revision: 201954 $
#$URL: file:///home/coder/svn-repositories/cod/cif/1/50/63/1506383.cif $
#------------------------------------------------------------------------------
#
# This file is available in the Crystallography Open Database (COD),
# http://www.crystallography.net/
#
# All data on this site have been placed in the public domain by the
# contributors.
#
data_1506383
loop_
_publ_author_name
'Nygren, Cara L.'
'Wilson, Chick C.'
'Turner, John F. C.'
_publ_section_title
;
 On the solid state structure of 4-iodobenzoic acid.
;
_journal_issue                   11
_journal_name_full               'The journal of physical chemistry. A'
_journal_page_first              2586
_journal_page_last               2593
_journal_paper_doi               10.1021/jp047189b
_journal_volume                  109
_journal_year                    2005
_chemical_formula_moiety         'C7 H5 I O2'
_chemical_formula_sum            'C7 H5 I O2'
_chemical_formula_weight         248.01
_chemical_melting_point          544.0(10)
_chemical_name_systematic
;
4-iodobenzoic acid
;
_space_group_IT_number           14
_symmetry_cell_setting           monoclinic
_symmetry_space_group_name_Hall  '-P 2yn'
_symmetry_space_group_name_H-M   'P 1 21/n 1'
_atom_sites_solution_hydrogens   geom
_atom_sites_solution_primary     direct
_atom_sites_solution_secondary   difmap
_audit_creation_method           SHELXL-97
_cell_angle_alpha                90.00
_cell_angle_beta                 90.852(5)
_cell_angle_gamma                90.00
_cell_formula_units_Z            4
_cell_length_a                   4.0960(13)
_cell_length_b                   5.9745(19)
_cell_length_c                   30.157(10)
_cell_measurement_reflns_used    5881
_cell_measurement_temperature    173(2)
_cell_measurement_theta_max      28.24
_cell_measurement_theta_min      2.70
_cell_volume                     737.9(4)
_computing_cell_refinement       'SAINT (Bruker 1997)'
_computing_data_collection       'SMART (Bruker 1997)'
_computing_data_reduction        'SAINT (Bruker 1997)'
_computing_molecular_graphics    'SHELXTL (Sheldrick, 1997)'
_computing_publication_material  'SHELXTL (Sheldrick, 1997)'
_computing_structure_refinement  'SHELX-97 (Sheldrick, 1997)'
_computing_structure_solution    'SHELX-97 (Sheldrick, 1997)'
_diffrn_ambient_temperature      173(2)
_diffrn_detector_area_resol_mean 'not measured'
_diffrn_measured_fraction_theta_full 0.972
_diffrn_measured_fraction_theta_max 0.972
_diffrn_measurement_device_type  'Bruker AXS CCD'
_diffrn_measurement_method       'phi and omega scans'
_diffrn_radiation_monochromator  graphite
_diffrn_radiation_source         'fine-focus sealed tube'
_diffrn_radiation_type           MoK\a
_diffrn_radiation_wavelength     0.71073
_diffrn_reflns_av_R_equivalents  0.0267
_diffrn_reflns_av_sigmaI/netI    0.0238
_diffrn_reflns_limit_h_max       5
_diffrn_reflns_limit_h_min       -5
_diffrn_reflns_limit_k_max       7
_diffrn_reflns_limit_k_min       -7
_diffrn_reflns_limit_l_max       39
_diffrn_reflns_limit_l_min       -39
_diffrn_reflns_number            7365
_diffrn_reflns_theta_full        28.24
_diffrn_reflns_theta_max         28.24
_diffrn_reflns_theta_min         2.70
_diffrn_standards_number         0
_exptl_absorpt_coefficient_mu    4.271
_exptl_absorpt_correction_T_max  0.711
_exptl_absorpt_correction_T_min  0.562
_exptl_absorpt_correction_type   multi-scan
_exptl_absorpt_process_details   '(SADABS; Sheldrick, 1996)'
_exptl_crystal_colour            colorless
_exptl_crystal_density_diffrn    2.232
_exptl_crystal_density_meas      ?
_exptl_crystal_density_method    'not measured'
_exptl_crystal_description       plate
_exptl_crystal_F_000             464
_exptl_crystal_size_max          0.12
_exptl_crystal_size_mid          0.10
_exptl_crystal_size_min          0.08
_refine_diff_density_max         1.834
_refine_diff_density_min         -3.515
_refine_diff_density_rms         0.185
_refine_ls_extinction_method     none
_refine_ls_goodness_of_fit_ref   1.344
_refine_ls_hydrogen_treatment    constr
_refine_ls_matrix_type           full
_refine_ls_number_parameters     92
_refine_ls_number_reflns         1781
_refine_ls_number_restraints     0
_refine_ls_restrained_S_all      1.344
_refine_ls_R_factor_all          0.0473
_refine_ls_R_factor_gt           0.0422
_refine_ls_shift/su_max          0.000
_refine_ls_shift/su_mean         0.000
_refine_ls_structure_factor_coef Fsqd
_refine_ls_weighting_details
'calc w=1/[\s^2^(Fo^2^)+(0.0224P)^2^+6.1649P] where P=(Fo^2^+2Fc^2^)/3'
_refine_ls_weighting_scheme      calc
_refine_ls_wR_factor_gt          0.1007
_refine_ls_wR_factor_ref         0.1021
_reflns_number_gt                1612
_reflns_number_total             1781
_reflns_threshold_expression     I>2\s(I)
_cod_data_source_file            jp047189bsi20040628_072525.cif
_cod_data_source_block           apr8m
_cod_depositor_comments
;
The following automatic conversions were performed:

'_chemical_melting_point' value '543-545K' was changed to '544.0(10)'
- the average value was taken and precision was estimated.

Automatic conversion script
Id: cif_fix_values 1715 2011-07-08 13:25:40Z adriana 

The following automatic conversions were performed:

'_exptl_crystal_density_meas' value 'not measured' was changed to '?'
- the value is perceived as not measured.

Automatic conversion script
Id: cif_fix_values 3008 2015-01-20 13:52:24Z robertas 
;
_cod_original_sg_symbol_H-M      'P 21/n'
_cod_database_code               1506383
loop_
_symmetry_equiv_pos_as_xyz
'x, y, z'
'-x+1/2, y+1/2, -z+1/2'
'-x, -y, -z'
'x-1/2, -y-1/2, z-1/2'
loop_
_atom_site_label
_atom_site_type_symbol
_atom_site_fract_x
_atom_site_fract_y
_atom_site_fract_z
_atom_site_U_iso_or_equiv
_atom_site_adp_type
_atom_site_occupancy
_atom_site_symmetry_multiplicity
_atom_site_calc_flag
_atom_site_refinement_flags
I1 I 0.12908(10) 0.78095(7) 0.209985(14) 0.02743(15) Uani 1 1 d .
O2 O -0.5242(15) 0.0077(9) 0.05547(17) 0.0408(13) Uani 1 1 d .
O1 O -0.2725(17) 0.2421(10) 0.01032(17) 0.0500(16) Uani 1 1 d .
C6 C -0.2978(17) 0.2495(11) 0.1301(2) 0.0289(14) Uani 1 1 d .
H6 H -0.4046 0.1149 0.1354 0.035 Uiso 1 1 calc R
C2 C -0.0831(18) 0.5197(12) 0.0791(2) 0.0308(15) Uani 1 1 d .
H2 H -0.0450 0.5661 0.0502 0.037 Uiso 1 1 calc R
C1 C -0.2447(16) 0.3182(11) 0.0868(2) 0.0260(13) Uani 1 1 d .
C7 C -0.3578(18) 0.1780(12) 0.0490(2) 0.0299(14) Uani 1 1 d .
C4 C -0.0347(15) 0.5797(11) 0.1570(2) 0.0233(12) Uani 1 1 d .
C5 C -0.1931(17) 0.3797(11) 0.1655(2) 0.0278(14) Uani 1 1 d .
H5 H -0.2285 0.3337 0.1945 0.033 Uiso 1 1 calc R
C3 C 0.0200(18) 0.6499(12) 0.1144(2) 0.0313(15) Uani 1 1 d .
H3 H 0.1262 0.7849 0.1094 0.038 Uiso 1 1 calc R
H1 H -0.3918 0.1579 -0.0133 0.10(4) Uiso 1 1 d R
loop_
_atom_site_aniso_label
_atom_site_aniso_U_11
_atom_site_aniso_U_22
_atom_site_aniso_U_33
_atom_site_aniso_U_23
_atom_site_aniso_U_13
_atom_site_aniso_U_12
I1 0.0259(2) 0.0306(2) 0.0258(2) -0.00383(18) -0.00158(15) -0.00128(17)
O2 0.061(4) 0.035(3) 0.026(3) -0.002(2) 0.005(2) -0.020(3)
O1 0.079(4) 0.047(3) 0.024(3) -0.002(2) 0.008(3) -0.031(3)
C6 0.036(4) 0.023(3) 0.028(3) 0.001(3) 0.004(3) -0.009(3)
C2 0.040(4) 0.031(4) 0.021(3) 0.002(3) 0.004(3) -0.009(3)
C1 0.029(3) 0.025(3) 0.025(3) -0.002(2) 0.004(2) -0.001(3)
C7 0.037(4) 0.028(3) 0.025(3) 0.001(3) 0.004(3) -0.004(3)
C4 0.018(3) 0.030(3) 0.022(3) -0.002(2) 0.001(2) 0.001(2)
C5 0.035(4) 0.027(3) 0.022(3) 0.002(3) 0.007(3) 0.000(3)
C3 0.037(4) 0.028(3) 0.030(4) 0.001(3) 0.004(3) -0.011(3)
loop_
_atom_type_symbol
_atom_type_description
_atom_type_scat_dispersion_real
_atom_type_scat_dispersion_imag
_atom_type_scat_source
C C 0.0033 0.0016 'International Tables Vol C Tables 4.2.6.8 and 6.1.1.4'
H H 0.0000 0.0000 'International Tables Vol C Tables 4.2.6.8 and 6.1.1.4'
O O 0.0106 0.0060 'International Tables Vol C Tables 4.2.6.8 and 6.1.1.4'
I I -0.4742 1.8119 'International Tables Vol C Tables 4.2.6.8 and 6.1.1.4'
loop_
_geom_angle_atom_site_label_1
_geom_angle_atom_site_label_2
_geom_angle_atom_site_label_3
_geom_angle
C7 O1 H1 111.3
C5 C6 C1 120.5(6)
C5 C6 H6 119.7
C1 C6 H6 119.7
C3 C2 C1 119.9(6)
C3 C2 H2 120.1
C1 C2 H2 120.1
C6 C1 C2 119.6(6)
C6 C1 C7 120.3(6)
C2 C1 C7 120.1(6)
O2 C7 O1 123.1(7)
O2 C7 C1 120.4(6)
O1 C7 C1 116.4(6)
C3 C4 C5 121.3(6)
C3 C4 I1 118.8(5)
C5 C4 I1 119.9(5)
C6 C5 C4 118.9(6)
C6 C5 H5 120.6
C4 C5 H5 120.6
C4 C3 C2 119.8(6)
C4 C3 H3 120.1
C2 C3 H3 120.1
loop_
_geom_bond_atom_site_label_1
_geom_bond_atom_site_label_2
_geom_bond_distance
I1 C4 2.101(6)
O2 C7 1.242(8)
O1 C7 1.281(8)
O1 H1 0.9949
C6 C5 1.384(9)
C6 C1 1.389(9)
C6 H6 0.9300
C2 C3 1.380(10)
C2 C1 1.395(9)
C2 H2 0.9300
C1 C7 1.485(9)
C4 C3 1.373(9)
C4 C5 1.385(9)
C5 H5 0.9300
C3 H3 0.9300
loop_
_geom_torsion_atom_site_label_1
_geom_torsion_atom_site_label_2
_geom_torsion_atom_site_label_3
_geom_torsion_atom_site_label_4
_geom_torsion
C5 C6 C1 C2 0.3(11)
C5 C6 C1 C7 -179.9(6)
C3 C2 C1 C6 -0.6(11)
C3 C2 C1 C7 179.7(7)
C6 C1 C7 O2 6.0(11)
C2 C1 C7 O2 -174.3(7)
C6 C1 C7 O1 -173.6(7)
C2 C1 C7 O1 6.2(10)
C1 C6 C5 C4 0.0(10)
C3 C4 C5 C6 -0.1(10)
I1 C4 C5 C6 -179.8(5)
C5 C4 C3 C2 -0.2(11)
I1 C4 C3 C2 179.5(6)
C1 C2 C3 C4 0.5(11)
loop_
_cod_related_entry_id
_cod_related_entry_database
_cod_related_entry_code
1 ChemSpider 11588
