#------------------------------------------------------------------------------
#$Date: 2017-10-13 02:32:00 +0300 (Fri, 13 Oct 2017) $
#$Revision: 201954 $
#$URL: file:///home/coder/svn-repositories/cod/cif/1/50/63/1506382.cif $
#------------------------------------------------------------------------------
#
# This file is available in the Crystallography Open Database (COD),
# http://www.crystallography.net/
#
# All data on this site have been placed in the public domain by the
# contributors.
#
data_1506382
loop_
_publ_author_name
'Nygren, Cara L.'
'Wilson, Chick C.'
'Turner, John F. C.'
_publ_section_title
;
 On the solid state structure of 4-iodobenzoic acid.
;
_journal_issue                   11
_journal_name_full               'The journal of physical chemistry. A'
_journal_page_first              2586
_journal_page_last               2593
_journal_paper_doi               10.1021/jp047189b
_journal_volume                  109
_journal_year                    2005
_chemical_formula_moiety         'C7 H5 I O2'
_chemical_formula_sum            'C7 H5 I O2'
_chemical_formula_weight         248.01
_chemical_melting_point          544.0(10)
_chemical_name_systematic
;
4-iodobenzoic acid
;
_space_group_IT_number           14
_symmetry_cell_setting           monoclinic
_symmetry_space_group_name_Hall  '-P 2yn'
_symmetry_space_group_name_H-M   'P 1 21/n 1'
_atom_sites_solution_hydrogens   geom
_atom_sites_solution_primary     direct
_atom_sites_solution_secondary   difmap
_audit_creation_method           SHELXL-97
_cell_angle_alpha                90.00
_cell_angle_beta                 90.893(4)
_cell_angle_gamma                90.00
_cell_formula_units_Z            4
_cell_length_a                   4.0778(11)
_cell_length_b                   5.9724(17)
_cell_length_c                   30.243(8)
_cell_measurement_reflns_used    7091
_cell_measurement_temperature    148(2)
_cell_measurement_theta_max      28.20
_cell_measurement_theta_min      2.69
_cell_volume                     736.5(3)
_computing_cell_refinement       'SAINT (Bruker 1997)'
_computing_data_collection       'SMART (Bruker 1997)'
_computing_data_reduction        'SAINT (Bruker 1997)'
_computing_molecular_graphics    'SHELXTL (Sheldrick, 1997)'
_computing_publication_material  'SHELXTL (Sheldrick, 1997)'
_computing_structure_refinement  'SHELX-97 (Sheldrick, 1997)'
_computing_structure_solution    'SHELX-97 (Sheldrick, 1997)'
_diffrn_ambient_temperature      148(2)
_diffrn_detector_area_resol_mean 'not measured'
_diffrn_measured_fraction_theta_full 0.957
_diffrn_measured_fraction_theta_max 0.957
_diffrn_measurement_device_type  'Bruker AXS CCD'
_diffrn_measurement_method       'phi and omega scans'
_diffrn_radiation_monochromator  graphite
_diffrn_radiation_source         'fine-focus sealed tube'
_diffrn_radiation_type           MoK\a
_diffrn_radiation_wavelength     0.71073
_diffrn_reflns_av_R_equivalents  0.0294
_diffrn_reflns_av_sigmaI/netI    0.0245
_diffrn_reflns_limit_h_max       5
_diffrn_reflns_limit_h_min       -5
_diffrn_reflns_limit_k_max       7
_diffrn_reflns_limit_k_min       -7
_diffrn_reflns_limit_l_max       40
_diffrn_reflns_limit_l_min       -40
_diffrn_reflns_number            6783
_diffrn_reflns_theta_full        28.20
_diffrn_reflns_theta_max         28.20
_diffrn_reflns_theta_min         2.69
_diffrn_standards_number         0
_exptl_absorpt_coefficient_mu    4.279
_exptl_absorpt_correction_T_max  0.573
_exptl_absorpt_correction_T_min  0.372
_exptl_absorpt_correction_type   multi-scan
_exptl_absorpt_process_details   '(SADABS; Sheldrick, 1996)'
_exptl_crystal_colour            colorless
_exptl_crystal_density_diffrn    2.237
_exptl_crystal_density_meas      ?
_exptl_crystal_density_method    'not measured'
_exptl_crystal_description       fragment
_exptl_crystal_F_000             464
_exptl_crystal_size_max          0.21
_exptl_crystal_size_mid          0.20
_exptl_crystal_size_min          0.13
_refine_diff_density_max         3.784
_refine_diff_density_min         -6.558
_refine_diff_density_rms         0.286
_refine_ls_extinction_method     none
_refine_ls_goodness_of_fit_ref   1.428
_refine_ls_hydrogen_treatment    constr
_refine_ls_matrix_type           full
_refine_ls_number_parameters     95
_refine_ls_number_reflns         1748
_refine_ls_number_restraints     0
_refine_ls_restrained_S_all      1.428
_refine_ls_R_factor_all          0.0626
_refine_ls_R_factor_gt           0.0612
_refine_ls_shift/su_max          0.000
_refine_ls_shift/su_mean         0.000
_refine_ls_structure_factor_coef Fsqd
_refine_ls_weighting_details
'calc w=1/[\s^2^(Fo^2^)+(0.0000P)^2^+21.4270P] where P=(Fo^2^+2Fc^2^)/3'
_refine_ls_weighting_scheme      calc
_refine_ls_wR_factor_gt          0.1532
_refine_ls_wR_factor_ref         0.1537
_reflns_number_gt                1703
_reflns_number_total             1748
_reflns_threshold_expression     I>2\s(I)
_cod_data_source_file            jp047189bsi20040628_072514.cif
_cod_data_source_block           apr21m
_cod_depositor_comments
;
The following automatic conversions were performed:

'_chemical_melting_point' value '543-545K' was changed to '544.0(10)'
- the average value was taken and precision was
estimated.

'_symmetry_cell_setting' value 'Monoclinic' changed to
'monoclinic' according to
/home/saulius/struct/CIF-dictionaries/cif_core.dic dictionary named
'cif_core.dic' version 2.4.1 from 2010-06-29.

Automatic conversion script
Id: cif_fix_values 1715 2011-07-08 13:25:40Z adriana 

The following automatic conversions were performed:

'_exptl_crystal_density_meas' value 'not measured' was changed to '?'
- the value is perceived as not measured.

Automatic conversion script
Id: cif_fix_values 3008 2015-01-20 13:52:24Z robertas 
;
_cod_original_cell_volume        736.4(4)
_cod_original_sg_symbol_H-M      'P 21/n'
_cod_database_code               1506382
loop_
_symmetry_equiv_pos_as_xyz
'x, y, z'
'-x+1/2, y+1/2, -z+1/2'
'-x, -y, -z'
'x-1/2, -y-1/2, z-1/2'
loop_
_atom_site_label
_atom_site_type_symbol
_atom_site_fract_x
_atom_site_fract_y
_atom_site_fract_z
_atom_site_U_iso_or_equiv
_atom_site_adp_type
_atom_site_occupancy
_atom_site_symmetry_multiplicity
_atom_site_calc_flag
_atom_site_refinement_flags
C1 C 0.965(3) 0.4193(18) 0.1573(3) 0.021(2) Uani 1 1 d .
C2 C 1.019(3) 0.348(2) 0.1144(4) 0.028(2) Uani 1 1 d .
H2 H 1.1233 0.2119 0.1094 0.034 Uiso 1 1 calc R
C3 C 0.806(3) 0.6201(18) 0.1657(4) 0.024(2) Uani 1 1 d .
H3 H 0.7698 0.6669 0.1946 0.029 Uiso 1 1 calc R
C4 C 0.918(3) 0.479(2) 0.0793(4) 0.027(2) Uani 1 1 d .
H4 H 0.9582 0.4333 0.0505 0.032 Uiso 1 1 calc R
C5 C 0.702(3) 0.7485(17) 0.1302(3) 0.025(2) Uani 1 1 d .
H5 H 0.5941 0.8829 0.1354 0.030 Uiso 1 1 calc R
C6 C 0.755(3) 0.6823(18) 0.0869(3) 0.025(2) Uani 1 1 d .
C7 C 0.642(3) 0.8217(18) 0.0490(4) 0.026(2) Uani 1 1 d .
I1 I 1.12882(16) 0.21790(12) 0.21011(2) 0.0233(2) Uani 1 1 d .
O1 O 0.728(3) 0.7558(17) 0.0105(3) 0.044(3) Uani 1 1 d .
H1 H 0.67(4) 0.84(3) -0.006(6) 0.06(6) Uiso 1 1 d .
O2 O 0.472(2) 0.9924(15) 0.0551(3) 0.035(2) Uani 1 1 d .
loop_
_atom_site_aniso_label
_atom_site_aniso_U_11
_atom_site_aniso_U_22
_atom_site_aniso_U_33
_atom_site_aniso_U_23
_atom_site_aniso_U_13
_atom_site_aniso_U_12
C1 0.017(5) 0.026(5) 0.022(5) 0.001(4) 0.004(4) -0.003(4)
C2 0.030(6) 0.027(6) 0.028(5) -0.003(4) 0.003(4) 0.008(5)
C3 0.032(6) 0.019(5) 0.022(5) -0.003(4) 0.004(4) 0.002(4)
C4 0.028(6) 0.031(6) 0.020(5) -0.002(4) 0.003(4) 0.007(5)
C5 0.035(6) 0.015(5) 0.026(5) 0.000(4) 0.005(4) 0.005(4)
C6 0.028(5) 0.022(5) 0.024(5) 0.001(4) 0.004(4) 0.003(4)
C7 0.032(6) 0.020(5) 0.026(5) -0.001(4) 0.003(4) 0.003(4)
I1 0.0210(3) 0.0243(4) 0.0244(3) 0.0030(3) -0.0019(2) 0.0010(3)
O1 0.072(7) 0.035(5) 0.025(4) 0.003(4) 0.006(4) 0.027(5)
O2 0.049(5) 0.030(4) 0.025(4) 0.000(3) 0.003(4) 0.017(4)
loop_
_atom_type_symbol
_atom_type_description
_atom_type_scat_dispersion_real
_atom_type_scat_dispersion_imag
_atom_type_scat_source
C C 0.0033 0.0016 'International Tables Vol C Tables 4.2.6.8 and 6.1.1.4'
H H 0.0000 0.0000 'International Tables Vol C Tables 4.2.6.8 and 6.1.1.4'
O O 0.0106 0.0060 'International Tables Vol C Tables 4.2.6.8 and 6.1.1.4'
I I -0.4742 1.8119 'International Tables Vol C Tables 4.2.6.8 and 6.1.1.4'
loop_
_geom_angle_atom_site_label_1
_geom_angle_atom_site_label_2
_geom_angle_atom_site_label_3
_geom_angle
C2 C1 C3 121.3(10)
C2 C1 I1 118.8(8)
C3 C1 I1 119.9(8)
C4 C2 C1 119.7(10)
C4 C2 H2 120.1
C1 C2 H2 120.1
C5 C3 C1 118.3(10)
C5 C3 H3 120.8
C1 C3 H3 120.8
C2 C4 C6 120.1(10)
C2 C4 H4 119.9
C6 C4 H4 119.9
C3 C5 C6 121.7(10)
C3 C5 H5 119.2
C6 C5 H5 119.2
C5 C6 C4 118.9(10)
C5 C6 C7 121.1(10)
C4 C6 C7 120.0(9)
O2 C7 O1 123.1(11)
O2 C7 C6 120.7(10)
O1 C7 C6 116.2(10)
C7 O1 H1 110(10)
loop_
_geom_bond_atom_site_label_1
_geom_bond_atom_site_label_2
_geom_bond_distance
C1 C2 1.385(14)
C1 C3 1.390(15)
C1 I1 2.100(11)
C2 C4 1.379(16)
C2 H2 0.9300
C3 C5 1.382(15)
C3 H3 0.9300
C4 C6 1.404(15)
C4 H4 0.9300
C5 C6 1.386(14)
C5 H5 0.9300
C6 C7 1.486(15)
C7 O2 1.247(13)
C7 O1 1.282(14)
O1 H1 0.73(18)
loop_
_geom_torsion_atom_site_label_1
_geom_torsion_atom_site_label_2
_geom_torsion_atom_site_label_3
_geom_torsion_atom_site_label_4
_geom_torsion
C3 C1 C2 C4 1.1(17)
I1 C1 C2 C4 -179.1(9)
C2 C1 C3 C5 -0.2(17)
I1 C1 C3 C5 179.9(8)
C1 C2 C4 C6 -1.4(18)
C1 C3 C5 C6 -0.3(17)
C3 C5 C6 C4 0.1(17)
C3 C5 C6 C7 179.8(11)
C2 C4 C6 C5 0.8(17)
C2 C4 C6 C7 -179.0(11)
C5 C6 C7 O2 -5.9(18)
C4 C6 C7 O2 173.9(11)
C5 C6 C7 O1 174.0(11)
C4 C6 C7 O1 -6.2(17)
loop_
_cod_related_entry_id
_cod_related_entry_code
_cod_related_entry_database
1 11588 ChemSpider
