#------------------------------------------------------------------------------
#$Date: 2017-10-13 02:32:00 +0300 (Fri, 13 Oct 2017) $
#$Revision: 201954 $
#$URL: file:///home/coder/svn-repositories/cod/cif/1/50/63/1506380.cif $
#------------------------------------------------------------------------------
#
# This file is available in the Crystallography Open Database (COD),
# http://www.crystallography.net/
#
# All data on this site have been placed in the public domain by the
# contributors.
#
data_1506380
loop_
_publ_author_name
'Nygren, Cara L.'
'Wilson, Chick C.'
'Turner, John F. C.'
_publ_section_title
;
 On the solid state structure of 4-iodobenzoic acid.
;
_journal_issue                   11
_journal_name_full               'The journal of physical chemistry. A'
_journal_page_first              2586
_journal_page_last               2593
_journal_paper_doi               10.1021/jp047189b
_journal_volume                  109
_journal_year                    2005
_chemical_formula_moiety         'C7 H5 I O2'
_chemical_formula_sum            'C7 H5 I O2'
_chemical_formula_weight         248.01
_chemical_melting_point          544.0(10)
_chemical_name_systematic
;
4-iodobenzoic acid
;
_space_group_IT_number           14
_symmetry_cell_setting           monoclinic
_symmetry_space_group_name_Hall  '-P 2yn'
_symmetry_space_group_name_H-M   'P 1 21/n 1'
_atom_sites_solution_hydrogens   geom
_atom_sites_solution_primary     direct
_atom_sites_solution_secondary   difmap
_audit_creation_method           shelxl-97
_cell_angle_alpha                90.00
_cell_angle_beta                 91.019(4)
_cell_angle_gamma                90.00
_cell_formula_units_Z            4
_cell_length_a                   4.0567(12)
_cell_length_b                   5.9409(17)
_cell_length_c                   30.223(9)
_cell_measurement_reflns_used    5544
_cell_measurement_temperature    103(2)
_cell_measurement_theta_max      28.33
_cell_measurement_theta_min      2.70
_cell_volume                     728.3(4)
_computing_cell_refinement       'SAINT (Bruker 1997)'
_computing_data_collection       'SMART (Bruker 1997)'
_computing_data_reduction        'SAINT (Bruker 1997)'
_computing_molecular_graphics    'SHELXTL (Sheldrick, 1997)'
_computing_publication_material  'SHELXTL (Sheldrick, 1997)'
_computing_structure_refinement  'SHELX-97 (Sheldrick, 1997)'
_computing_structure_solution    'SHELX-97 (Sheldrick, 1997)'
_diffrn_ambient_temperature      103(2)
_diffrn_detector_area_resol_mean 'not measured'
_diffrn_measured_fraction_theta_full 0.963
_diffrn_measured_fraction_theta_max 0.963
_diffrn_measurement_device_type  'Bruker AXS CCD'
_diffrn_measurement_method       'phi and omega scans'
_diffrn_radiation_monochromator  graphite
_diffrn_radiation_source         'fine-focus sealed tube'
_diffrn_radiation_type           MoK\a
_diffrn_radiation_wavelength     0.71073
_diffrn_reflns_av_R_equivalents  0.0232
_diffrn_reflns_av_sigmaI/netI    0.0227
_diffrn_reflns_limit_h_max       5
_diffrn_reflns_limit_h_min       -5
_diffrn_reflns_limit_k_max       7
_diffrn_reflns_limit_k_min       -7
_diffrn_reflns_limit_l_max       39
_diffrn_reflns_limit_l_min       -39
_diffrn_reflns_number            6519
_diffrn_reflns_theta_full        28.33
_diffrn_reflns_theta_max         28.33
_diffrn_reflns_theta_min         2.70
_diffrn_standards_number         0
_exptl_absorpt_coefficient_mu    4.327
_exptl_absorpt_correction_T_max  0.707
_exptl_absorpt_correction_T_min  0.565
_exptl_absorpt_correction_type   multi-scan
_exptl_absorpt_process_details   '(SADABS; Sheldrick, 1996)'
_exptl_crystal_colour            colorless
_exptl_crystal_density_diffrn    2.262
_exptl_crystal_density_method    'not measured'
_exptl_crystal_description       plate
_exptl_crystal_F_000             464
_exptl_crystal_size_max          0.12
_exptl_crystal_size_mid          0.10
_exptl_crystal_size_min          0.08
_refine_diff_density_max         2.138
_refine_diff_density_min         -3.125
_refine_diff_density_rms         0.177
_refine_ls_extinction_method     none
_refine_ls_goodness_of_fit_ref   1.331
_refine_ls_hydrogen_treatment    constr
_refine_ls_matrix_type           full
_refine_ls_number_parameters     92
_refine_ls_number_reflns         1759
_refine_ls_number_restraints     0
_refine_ls_restrained_S_all      1.331
_refine_ls_R_factor_all          0.0366
_refine_ls_R_factor_gt           0.0335
_refine_ls_shift/su_max          0.000
_refine_ls_shift/su_mean         0.000
_refine_ls_structure_factor_coef Fsqd
_refine_ls_weighting_details
'calc w=1/[\s^2^(Fo^2^)+(0.0136P)^2^+5.3224P] where P=(Fo^2^+2Fc^2^)/3'
_refine_ls_weighting_scheme      calc
_refine_ls_wR_factor_gt          0.0771
_refine_ls_wR_factor_ref         0.0778
_reflns_number_gt                1622
_reflns_number_total             1759
_reflns_threshold_expression     I>2\s(I)
_cod_data_source_file            jp047189bsi20040628_072449.cif
_cod_data_source_block           apr9m
_cod_depositor_comments
;
The following automatic conversions were performed:

'_chemical_melting_point' value '543-545K' was changed to '544.0(10)'
- the average value was taken and precision was estimated.

Automatic conversion script
Id: cif_fix_values 1715 2011-07-08 13:25:40Z adriana 
;
_cod_original_sg_symbol_H-M      'P 21/n'
_cod_database_code               1506380
loop_
_symmetry_equiv_pos_as_xyz
'x, y, z'
'-x+1/2, y+1/2, -z+1/2'
'-x, -y, -z'
'x-1/2, -y-1/2, z-1/2'
loop_
_atom_site_label
_atom_site_type_symbol
_atom_site_fract_x
_atom_site_fract_y
_atom_site_fract_z
_atom_site_U_iso_or_equiv
_atom_site_adp_type
_atom_site_occupancy
_atom_site_symmetry_multiplicity
_atom_site_calc_flag
_atom_site_refinement_flags
I1 I 0.62827(8) 0.78401(5) 0.210338(11) 0.01620(11) Uani 1 1 d .
O2 O -0.0292(11) 0.0083(7) 0.05490(13) 0.0254(9) Uani 1 1 d .
O1 O 0.2315(12) 0.2457(7) 0.01050(13) 0.0313(10) Uani 1 1 d .
C3 C 0.1992(13) 0.2498(8) 0.13016(17) 0.0183(10) Uani 1 1 d .
H3 H 0.0921 0.1140 0.1352 0.022 Uiso 1 1 calc R
C7 C 0.1394(13) 0.1780(9) 0.04923(17) 0.0189(10) Uani 1 1 d .
C5 C 0.4157(14) 0.5230(9) 0.07949(17) 0.0198(11) Uani 1 1 d .
H5 H 0.4552 0.5694 0.0507 0.024 Uiso 1 1 calc R
C4 C 0.2529(12) 0.3198(8) 0.08692(17) 0.0166(10) Uani 1 1 d .
C1 C 0.4625(12) 0.5827(9) 0.15748(17) 0.0157(10) Uani 1 1 d .
C2 C 0.3034(13) 0.3800(9) 0.16557(17) 0.0174(10) Uani 1 1 d .
H2 H 0.2677 0.3328 0.1944 0.021 Uiso 1 1 calc R
C6 C 0.5183(13) 0.6551(9) 0.11458(18) 0.0198(11) Uani 1 1 d .
H6 H 0.6239 0.7914 0.1096 0.024 Uiso 1 1 calc R
H1 H 0.1422 0.1669 -0.0137 0.07(3) Uiso 1 1 d R
loop_
_atom_site_aniso_label
_atom_site_aniso_U_11
_atom_site_aniso_U_22
_atom_site_aniso_U_33
_atom_site_aniso_U_23
_atom_site_aniso_U_13
_atom_site_aniso_U_12
I1 0.01493(16) 0.01765(17) 0.01599(17) -0.00209(13) -0.00085(11) -0.00073(13)
O2 0.038(2) 0.021(2) 0.0171(19) -0.0008(15) 0.0029(17) -0.0119(17)
O1 0.050(3) 0.029(2) 0.0148(19) -0.0019(17) 0.0054(17) -0.020(2)
C3 0.023(3) 0.011(2) 0.021(3) 0.0001(19) 0.0044(19) -0.0034(19)
C7 0.024(3) 0.016(3) 0.017(2) 0.0002(19) 0.0025(19) -0.001(2)
C5 0.024(3) 0.021(3) 0.014(2) 0.002(2) 0.002(2) -0.004(2)
C4 0.018(2) 0.015(3) 0.016(2) -0.0009(19) 0.0022(18) -0.0004(19)
C1 0.013(2) 0.019(2) 0.014(2) -0.0012(19) 0.0011(18) 0.0018(18)
C2 0.021(3) 0.015(2) 0.016(2) 0.0021(19) 0.0050(19) 0.0003(19)
C6 0.021(3) 0.018(3) 0.021(3) 0.001(2) 0.002(2) -0.005(2)
loop_
_atom_type_symbol
_atom_type_description
_atom_type_scat_dispersion_real
_atom_type_scat_dispersion_imag
_atom_type_scat_source
c c 0.0033 0.0016 'international tables vol c tables 4.2.6.8 and 6.1.1.4'
h h 0.0000 0.0000 'international tables vol c tables 4.2.6.8 and 6.1.1.4'
o o 0.0106 0.0060 'international tables vol c tables 4.2.6.8 and 6.1.1.4'
i i -0.4742 1.8119 'international tables vol c tables 4.2.6.8 and 6.1.1.4'
loop_
_geom_angle_atom_site_label_1
_geom_angle_atom_site_label_2
_geom_angle_atom_site_label_3
_geom_angle
C7 O1 H1 115.9
C2 C3 C4 120.6(5)
C2 C3 H3 119.7
C4 C3 H3 119.7
O2 C7 O1 123.2(5)
O2 C7 C4 121.6(5)
O1 C7 C4 115.2(5)
C6 C5 C4 120.4(5)
C6 C5 H5 119.8
C4 C5 H5 119.8
C3 C4 C5 119.5(5)
C3 C4 C7 119.9(5)
C5 C4 C7 120.6(5)
C6 C1 C2 121.1(5)
C6 C1 I1 118.7(4)
C2 C1 I1 120.2(4)
C3 C2 C1 119.1(5)
C3 C2 H2 120.5
C1 C2 H2 120.5
C5 C6 C1 119.4(5)
C5 C6 H6 120.3
C1 C6 H6 120.3
loop_
_geom_bond_atom_site_label_1
_geom_bond_atom_site_label_2
_geom_bond_distance
I1 C1 2.097(5)
O2 C7 1.232(6)
O1 C7 1.299(6)
O1 H1 0.9358
C3 C2 1.381(7)
C3 C4 1.392(7)
C3 H3 0.9300
C7 C4 1.484(7)
C5 C6 1.378(7)
C5 C4 1.396(7)
C5 H5 0.9300
C1 C6 1.388(7)
C1 C2 1.390(7)
C2 H2 0.9300
C6 H6 0.9300
loop_
_geom_torsion_atom_site_label_1
_geom_torsion_atom_site_label_2
_geom_torsion_atom_site_label_3
_geom_torsion_atom_site_label_4
_geom_torsion
C2 C3 C4 C5 0.4(8)
C2 C3 C4 C7 -180.0(5)
C6 C5 C4 C3 -1.0(8)
C6 C5 C4 C7 179.5(5)
O2 C7 C4 C3 6.8(8)
O1 C7 C4 C3 -173.0(5)
O2 C7 C4 C5 -173.7(5)
O1 C7 C4 C5 6.6(8)
C4 C3 C2 C1 0.1(8)
C6 C1 C2 C3 -0.2(8)
I1 C1 C2 C3 -179.5(4)
C4 C5 C6 C1 0.9(8)
C2 C1 C6 C5 -0.4(8)
I1 C1 C6 C5 178.9(4)
loop_
_cod_related_entry_id
_cod_related_entry_database
_cod_related_entry_code
1 ChemSpider 11588
