#------------------------------------------------------------------------------
#$Date: 2017-10-13 02:32:00 +0300 (Fri, 13 Oct 2017) $
#$Revision: 201954 $
#$URL: file:///home/coder/svn-repositories/cod/cif/1/50/63/1506386.cif $
#------------------------------------------------------------------------------
#
# This file is available in the Crystallography Open Database (COD),
# http://www.crystallography.net/
#
# All data on this site have been placed in the public domain by the
# contributors.
#
data_1506386
loop_
_publ_author_name
'Nygren, Cara L.'
'Wilson, Chick C.'
'Turner, John F. C.'
_publ_section_title
;
 On the solid state structure of 4-iodobenzoic acid.
;
_journal_issue                   11
_journal_name_full               'The journal of physical chemistry. A'
_journal_page_first              2586
_journal_page_last               2593
_journal_paper_doi               10.1021/jp047189b
_journal_volume                  109
_journal_year                    2005
_chemical_formula_moiety         'C7 H5 I O2'
_chemical_formula_sum            'C7 H5 I O2'
_chemical_formula_weight         248.01
_chemical_melting_point          544.0(10)
_chemical_name_systematic
;
4-iodobenzoic acid
;
_space_group_IT_number           14
_symmetry_cell_setting           monoclinic
_symmetry_space_group_name_Hall  '-P 2yn'
_symmetry_space_group_name_H-M   'P 1 21/n 1'
_atom_sites_solution_hydrogens   geom
_atom_sites_solution_primary     direct
_atom_sites_solution_secondary   difmap
_audit_creation_method           SHELXL-97
_cell_angle_alpha                90.00
_cell_angle_beta                 90.878(2)
_cell_angle_gamma                90.00
_cell_formula_units_Z            4
_cell_length_a                   4.1049(6)
_cell_length_b                   5.9933(9)
_cell_length_c                   30.179(5)
_cell_measurement_reflns_used    5201
_cell_measurement_temperature    301(2)
_cell_measurement_theta_max      28.24
_cell_measurement_theta_min      1.36
_cell_volume                     742.4(2)
_computing_cell_refinement       'SAINT (Bruker 1997)'
_computing_data_collection       'SMART (Bruker 1997)'
_computing_data_reduction        'SAINT (Bruker 1997)'
_computing_molecular_graphics    'SHELXTL (Sheldrick, 1997)'
_computing_publication_material  'SHELXTL (Sheldrick, 1997)'
_computing_structure_refinement  'SHELX-97 (Sheldrick, 1997)'
_computing_structure_solution    'SHELX-97 (Sheldrick, 1997)'
_diffrn_ambient_temperature      301(2)
_diffrn_detector_area_resol_mean 'not measured'
_diffrn_measured_fraction_theta_full 0.960
_diffrn_measured_fraction_theta_max 0.960
_diffrn_measurement_device_type  'Bruker AXS CCD'
_diffrn_measurement_method       'phi and omega scans'
_diffrn_radiation_monochromator  graphite
_diffrn_radiation_source         'fine-focus sealed tube'
_diffrn_radiation_type           MoK\a
_diffrn_radiation_wavelength     0.71073
_diffrn_reflns_av_R_equivalents  0.0312
_diffrn_reflns_av_sigmaI/netI    0.0276
_diffrn_reflns_limit_h_max       5
_diffrn_reflns_limit_h_min       -5
_diffrn_reflns_limit_k_max       8
_diffrn_reflns_limit_k_min       -7
_diffrn_reflns_limit_l_max       39
_diffrn_reflns_limit_l_min       -39
_diffrn_reflns_number            6917
_diffrn_reflns_theta_full        28.33
_diffrn_reflns_theta_max         28.33
_diffrn_reflns_theta_min         1.35
_diffrn_standards_number         0
_exptl_absorpt_coefficient_mu    4.245
_exptl_absorpt_correction_T_max  0.880
_exptl_absorpt_correction_T_min  0.342
_exptl_absorpt_correction_type   multi-scan
_exptl_absorpt_process_details   '(SADABS; Sheldrick, 1996)'
_exptl_crystal_colour            colorless
_exptl_crystal_density_diffrn    2.219
_exptl_crystal_density_meas      ?
_exptl_crystal_density_method    'not measured'
_exptl_crystal_description       plate
_exptl_crystal_F_000             464
_exptl_crystal_size_max          0.13
_exptl_crystal_size_mid          0.12
_exptl_crystal_size_min          0.03
_refine_diff_density_max         1.344
_refine_diff_density_min         -1.633
_refine_diff_density_rms         0.156
_refine_ls_extinction_method     none
_refine_ls_goodness_of_fit_ref   1.383
_refine_ls_hydrogen_treatment    constr
_refine_ls_matrix_type           full
_refine_ls_number_parameters     95
_refine_ls_number_reflns         1785
_refine_ls_number_restraints     0
_refine_ls_restrained_S_all      1.383
_refine_ls_R_factor_all          0.0591
_refine_ls_R_factor_gt           0.0507
_refine_ls_shift/su_max          0.000
_refine_ls_shift/su_mean         0.000
_refine_ls_structure_factor_coef Fsqd
_refine_ls_weighting_details
'calc w=1/[\s^2^(Fo^2^)+(0.0241P)^2^+3.5074P] where P=(Fo^2^+2Fc^2^)/3'
_refine_ls_weighting_scheme      calc
_refine_ls_wR_factor_gt          0.1147
_refine_ls_wR_factor_ref         0.1170
_reflns_number_gt                1516
_reflns_number_total             1785
_reflns_threshold_expression     I>2\s(I)
_cod_data_source_file            jp047189bsi20040628_072601.cif
_cod_data_source_block           may2m
_cod_depositor_comments
;
The following automatic conversions were performed:

'_chemical_melting_point' value '543-545K' was changed to '544.0(10)'
- the average value was taken and precision was estimated.

Automatic conversion script
Id: cif_fix_values 1715 2011-07-08 13:25:40Z adriana 

The following automatic conversions were performed:

'_exptl_crystal_density_meas' value 'not measured' was changed to '?'
- the value is perceived as not measured.

Automatic conversion script
Id: cif_fix_values 3008 2015-01-20 13:52:24Z robertas 
;
_cod_original_cell_volume        742.37(19)
_cod_original_sg_symbol_H-M      'P 21/n'
_cod_database_code               1506386
loop_
_symmetry_equiv_pos_as_xyz
'x, y, z'
'-x+1/2, y+1/2, -z+1/2'
'-x, -y, -z'
'x-1/2, -y-1/2, z-1/2'
loop_
_atom_site_label
_atom_site_type_symbol
_atom_site_fract_x
_atom_site_fract_y
_atom_site_fract_z
_atom_site_U_iso_or_equiv
_atom_site_adp_type
_atom_site_occupancy
_atom_site_symmetry_multiplicity
_atom_site_calc_flag
_atom_site_refinement_flags
_atom_site_disorder_assembly
_atom_site_disorder_group
C1 C 0.4676(18) -0.0743(12) 0.1565(2) 0.0419(15) Uani 1 1 d . . .
C2 C 0.523(2) -0.1423(13) 0.1140(3) 0.0515(19) Uani 1 1 d . . .
H2 H 0.6318 -0.2758 0.1089 0.062 Uiso 1 1 calc R . .
C3 C 0.314(2) 0.1221(13) 0.1652(2) 0.0480(18) Uani 1 1 d . . .
H3 H 0.2816 0.1686 0.1942 0.058 Uiso 1 1 calc R . .
C4 C 0.419(2) -0.0137(13) 0.0787(2) 0.053(2) Uani 1 1 d . . .
H4 H 0.4558 -0.0604 0.0498 0.064 Uiso 1 1 calc R . .
C5 C 0.208(2) 0.2500(12) 0.1299(2) 0.0511(18) Uani 1 1 d . . .
H5 H 0.0989 0.3832 0.1353 0.061 Uiso 1 1 calc R . .
C6 C 0.2594(19) 0.1840(12) 0.0864(2) 0.0456(16) Uani 1 1 d . . .
C7 C 0.145(2) 0.3240(14) 0.0488(3) 0.0518(19) Uani 1 1 d . . .
I1 I 0.63005(12) -0.27454(9) 0.209327(16) 0.0516(2) Uani 1 1 d . . .
O1 O 0.221(2) 0.2621(11) 0.0099(2) 0.081(2) Uani 1 1 d . . .
H1 H 0.12(3) 0.37(2) -0.015(4) 0.13(5) Uiso 1 1 d . A 1
O2 O -0.0162(18) 0.4927(10) 0.05595(19) 0.0682(18) Uani 1 1 d . . .
loop_
_atom_site_aniso_label
_atom_site_aniso_U_11
_atom_site_aniso_U_22
_atom_site_aniso_U_33
_atom_site_aniso_U_23
_atom_site_aniso_U_13
_atom_site_aniso_U_12
C1 0.037(4) 0.048(4) 0.041(4) 0.001(3) 0.000(3) -0.004(3)
C2 0.060(5) 0.048(4) 0.046(4) -0.002(3) 0.003(4) 0.016(4)
C3 0.059(5) 0.048(4) 0.037(4) -0.006(3) 0.009(3) 0.001(4)
C4 0.069(6) 0.055(4) 0.035(4) -0.003(3) 0.006(4) 0.017(4)
C5 0.068(5) 0.041(4) 0.045(4) -0.002(3) 0.009(3) 0.012(4)
C6 0.047(4) 0.043(4) 0.046(4) -0.001(3) 0.005(3) 0.002(3)
C7 0.068(5) 0.047(4) 0.041(4) -0.002(3) 0.005(4) 0.007(4)
I1 0.0485(3) 0.0578(3) 0.0482(3) 0.0073(2) -0.0057(2) 0.0024(2)
O1 0.126(6) 0.075(4) 0.043(3) 0.003(3) 0.009(3) 0.046(4)
O2 0.100(5) 0.057(3) 0.047(3) 0.004(3) 0.006(3) 0.033(3)
loop_
_atom_type_symbol
_atom_type_description
_atom_type_scat_dispersion_real
_atom_type_scat_dispersion_imag
_atom_type_scat_source
C C 0.0033 0.0016 'International Tables Vol C Tables 4.2.6.8 and 6.1.1.4'
H H 0.0000 0.0000 'International Tables Vol C Tables 4.2.6.8 and 6.1.1.4'
O O 0.0106 0.0060 'International Tables Vol C Tables 4.2.6.8 and 6.1.1.4'
I I -0.4742 1.8119 'International Tables Vol C Tables 4.2.6.8 and 6.1.1.4'
loop_
_geom_angle_atom_site_label_1
_geom_angle_atom_site_label_2
_geom_angle_atom_site_label_3
_geom_angle
C2 C1 C3 121.5(7)
C2 C1 I1 119.1(6)
C3 C1 I1 119.4(5)
C1 C2 C4 120.2(7)
C1 C2 H2 119.9
C4 C2 H2 119.9
C5 C3 C1 118.3(7)
C5 C3 H3 120.8
C1 C3 H3 120.8
C2 C4 C6 119.7(7)
C2 C4 H4 120.2
C6 C4 H4 120.2
C3 C5 C6 121.4(7)
C3 C5 H5 119.3
C6 C5 H5 119.3
C4 C6 C5 119.0(7)
C4 C6 C7 120.3(7)
C5 C6 C7 120.7(7)
O2 C7 O1 122.8(7)
O2 C7 C6 119.7(7)
O1 C7 C6 117.4(7)
C7 O1 H1 113(7)
loop_
_geom_bond_atom_site_label_1
_geom_bond_atom_site_label_2
_geom_bond_distance
C1 C2 1.368(10)
C1 C3 1.363(10)
C1 I1 2.097(7)
C2 C4 1.378(11)
C2 H2 0.9300
C3 C5 1.377(11)
C3 H3 0.9300
C4 C6 1.375(10)
C4 H4 0.9300
C5 C6 1.390(10)
C5 H5 0.9300
C6 C7 1.483(11)
C7 O2 1.229(9)
C7 O1 1.273(9)
O1 H1 1.07(14)
loop_
_geom_torsion_atom_site_label_1
_geom_torsion_atom_site_label_2
_geom_torsion_atom_site_label_3
_geom_torsion_atom_site_label_4
_geom_torsion
C3 C1 C2 C4 -1.1(13)
I1 C1 C2 C4 180.0(7)
C2 C1 C3 C5 1.5(12)
I1 C1 C3 C5 -179.6(6)
C1 C2 C4 C6 0.3(13)
C1 C3 C5 C6 -1.1(13)
C2 C4 C6 C5 0.1(13)
C2 C4 C6 C7 -179.8(8)
C3 C5 C6 C4 0.3(13)
C3 C5 C6 C7 -179.7(8)
C4 C6 C7 O2 175.2(8)
C5 C6 C7 O2 -4.7(13)
C4 C6 C7 O1 -5.1(13)
C5 C6 C7 O1 175.0(8)
loop_
_cod_related_entry_id
_cod_related_entry_code
_cod_related_entry_database
1 11588 ChemSpider
