#------------------------------------------------------------------------------
#$Date: 2017-10-13 02:32:00 +0300 (Fri, 13 Oct 2017) $
#$Revision: 201954 $
#$URL: file:///home/coder/svn-repositories/cod/cif/1/50/71/1507184.cif $
#------------------------------------------------------------------------------
#
# This file is available in the Crystallography Open Database (COD),
# http://www.crystallography.net/
#
# All data on this site have been placed in the public domain by the
# contributors.
#
data_1507184
loop_
_publ_author_name
'Koch, Michael'
'Blacque, Olivier'
'Venkatesan, Koushik'
_publ_section_title
;
 Syntheses and tunable emission properties of 2-alkynyl azulenes.
;
_journal_issue                   6
_journal_name_full               'Organic letters'
_journal_page_first              1580
_journal_page_last               1583
_journal_paper_doi               10.1021/ol300327b
_journal_volume                  14
_journal_year                    2012
_chemical_formula_moiety         'C18 H11 F'
_chemical_formula_sum            'C18 H11 F'
_chemical_formula_weight         246.27
_chemical_name_systematic        ' 2-[(4-fluorophenyl)ethynyl]azulene'
_space_group_IT_number           4
_symmetry_cell_setting           monoclinic
_symmetry_space_group_name_Hall  'P 2yb'
_symmetry_space_group_name_H-M   'P 1 21 1'
_atom_sites_solution_hydrogens   geom
_atom_sites_solution_primary     direct
_atom_sites_solution_secondary   difmap
_audit_creation_method           SHELXL-97
_cell_angle_alpha                90.00
_cell_angle_beta                 100.138(4)
_cell_angle_gamma                90.00
_cell_formula_units_Z            2
_cell_length_a                   7.5696(2)
_cell_length_b                   5.8934(2)
_cell_length_c                   14.6636(5)
_cell_measurement_reflns_used    3097
_cell_measurement_temperature    183(2)
_cell_measurement_theta_max      32.52
_cell_measurement_theta_min      2.73
_cell_volume                     643.94(4)
_computing_cell_refinement
;
CrysAlisPro, version 1.171.35.11 (Agilent, 2011)
;
_computing_data_collection
;
CrysAlisPro, version 1.171.35.11 (Agilent, 2011)
;
_computing_data_reduction
;
CrysAlisPro, version 1.171.35.11 (Agilent, 2011)
;
_computing_molecular_graphics
;
DIAMOND (Brandenburg, 2006)
;
_computing_publication_material
; 
<i>WinGX</i> (Farrugia, 1999), <i>PLATON for Windows</i> (Spek, 2003) and
<i>publCIF</i> (Westrip, 2010)
;
_computing_structure_refinement  ' SHELXL97 (Sheldrick, 2008)'
_computing_structure_solution    ' SHELXS97 (Sheldrick, 2008) '
_diffrn_ambient_temperature      183(2)
_diffrn_detector_area_resol_mean 10.4498
_diffrn_measured_fraction_theta_full 0.999
_diffrn_measured_fraction_theta_max 0.999
_diffrn_measurement_device_type  'Xcalibur, Ruby'
_diffrn_measurement_method       'omega scans'
_diffrn_radiation_monochromator  graphite
_diffrn_radiation_source         'Enhance (Mo) X-ray Source'
_diffrn_radiation_type           MoK\a
_diffrn_radiation_wavelength     0.71073
_diffrn_reflns_av_R_equivalents  0.0244
_diffrn_reflns_av_sigmaI/netI    0.0249
_diffrn_reflns_limit_h_max       10
_diffrn_reflns_limit_h_min       -8
_diffrn_reflns_limit_k_max       7
_diffrn_reflns_limit_k_min       -7
_diffrn_reflns_limit_l_max       19
_diffrn_reflns_limit_l_min       -19
_diffrn_reflns_number            5828
_diffrn_reflns_theta_full        28.28
_diffrn_reflns_theta_max         28.28
_diffrn_reflns_theta_min         2.73
_diffrn_standards_number         0
_exptl_absorpt_coefficient_mu    0.082
_exptl_absorpt_correction_T_max  0.993
_exptl_absorpt_correction_T_min  0.977
_exptl_absorpt_correction_type   analytical
_exptl_absorpt_process_details
;
CrysAlisPro, Version 1.171.35.11 (Agilent, 2011)
Analytical numeric absorption correction using a multifaceted crystal
model based on expressions derived by Clark & Reid (1995).
;
_exptl_crystal_colour            'dark blue'
_exptl_crystal_density_diffrn    1.270
_exptl_crystal_density_method    'not measured'
_exptl_crystal_description       plate
_exptl_crystal_F_000             256
_exptl_crystal_size_max          0.36
_exptl_crystal_size_mid          0.23
_exptl_crystal_size_min          0.09
_refine_diff_density_max         0.201
_refine_diff_density_min         -0.182
_refine_diff_density_rms         0.033
_refine_ls_extinction_method     none
_refine_ls_goodness_of_fit_ref   1.074
_refine_ls_hydrogen_treatment    constr
_refine_ls_matrix_type           full
_refine_ls_number_parameters     172
_refine_ls_number_reflns         1751
_refine_ls_number_restraints     1
_refine_ls_restrained_S_all      1.074
_refine_ls_R_factor_all          0.0459
_refine_ls_R_factor_gt           0.0400
_refine_ls_shift/su_max          0.000
_refine_ls_shift/su_mean         0.000
_refine_ls_structure_factor_coef Fsqd
_refine_ls_weighting_details
'calc w=1/[\s^2^(Fo^2^)+(0.0474P)^2^+0.0969P] where P=(Fo^2^+2Fc^2^)/3'
_refine_ls_weighting_scheme      calc
_refine_ls_wR_factor_gt          0.0977
_refine_ls_wR_factor_ref         0.1008
_reflns_number_gt                1566
_reflns_number_total             1751
_reflns_threshold_expression     >2sigma(I)
_iucr_refine_instructions_details
;
TITL mich2208 in P2(1)
CELL  0.71073   7.5696   5.8934  14.6636   90.000  100.138   90.000
ZERR     2.00   0.0002   0.0002   0.0005    0.000    0.004    0.000
LATT  -1
SYMM  - X, 1/2 + Y, - Z
SFAC  C    H    F
UNIT  36   22   2
MERG   3
SHEL 100 0.75
FMAP   2
PLAN   25
ACTA
BOND   $H
L.S.   8
WGHT    0.047400    0.096900
FVAR       8.28846
C1    1    0.574626   -0.158179    0.337476    11.00000    0.03252    0.04505 =
         0.04026    0.00766    0.00643    0.00262
C2    1    0.495391   -0.107104    0.263313    11.00000    0.03363    0.04139 =
         0.04350    0.00744    0.01038    0.00302
C3    1    0.406108   -0.060259    0.170478    11.00000    0.02578    0.03691 =
         0.03997    0.00652    0.00857   -0.00008
C4    1    0.309304    0.137367    0.138979    11.00000    0.03161    0.03123 =
         0.03534    0.00016    0.00876   -0.00014
AFIX  43
H4    2    0.289133    0.260838    0.175288    11.00000   -1.20000
AFIX   0
C5    1    0.248563    0.115285    0.043106    11.00000    0.02390    0.02661 =
         0.03564    0.00020    0.00830   -0.00259
C6    1    0.146781    0.272633   -0.013392    11.00000    0.02702    0.02494 =
         0.04234    0.00102    0.00992    0.00101
AFIX  43
H6    2    0.116667    0.403131    0.016081    11.00000   -1.20000
AFIX   0
C7    1    0.083599    0.262144   -0.107983    11.00000    0.02901    0.03316 =
         0.04176    0.00763    0.00269    0.00293
AFIX  43
H7    2    0.016727    0.386390   -0.133400    11.00000   -1.20000
AFIX   0
C8    1    0.106979    0.090029   -0.170112    11.00000    0.03515    0.04233 =
         0.03542    0.00190    0.00059   -0.00382
AFIX  43
H8    2    0.054608    0.117389   -0.231379    11.00000   -1.20000
AFIX   0
C9    1    0.196562   -0.116133   -0.154488    11.00000    0.03799    0.03745 =
         0.03879   -0.00913    0.00754   -0.00625
AFIX  43
H9    2    0.194860   -0.207109   -0.206457    11.00000   -1.20000
AFIX   0
C10   1    0.287798   -0.204043   -0.072112    11.00000    0.02870    0.02462 =
         0.04642   -0.00256    0.01201   -0.00381
AFIX  43
H10   2    0.339822   -0.345793   -0.076210    11.00000   -1.20000
AFIX   0
C11   1    0.312281   -0.109369    0.015913    11.00000    0.02197    0.02585 =
         0.03967    0.00397    0.00752   -0.00098
C12   1    0.407262   -0.209216    0.095681    11.00000    0.02895    0.02829 =
         0.04496    0.00582    0.00933    0.00440
AFIX  43
H12   2    0.462304   -0.350782    0.098983    11.00000   -1.20000
AFIX   0
C13   1    0.669338   -0.225931    0.427035    11.00000    0.02723    0.04041 =
         0.03471    0.00830    0.00637   -0.00114
C14   1    0.670779   -0.089468    0.504987    11.00000    0.03596    0.03394 =
         0.05133    0.00044    0.01216    0.00126
AFIX  43
H14   2    0.612368    0.049970    0.498813    11.00000   -1.20000
AFIX   0
C15   1    0.758005   -0.159208    0.591218    11.00000    0.04854    0.05531 =
         0.03565   -0.01105    0.00945   -0.00621
AFIX  43
H15   2    0.757883   -0.068823    0.643196    11.00000   -1.20000
AFIX   0
C16   1    0.844767   -0.364486    0.598570    11.00000    0.03799    0.05915 =
         0.03393    0.01013   -0.00023   -0.00548
C17   1    0.848070   -0.504768    0.523695    11.00000    0.03589    0.03792 =
         0.05081    0.00920    0.00681    0.00368
AFIX  43
H17   2    0.908525   -0.642767    0.530774    11.00000   -1.20000
AFIX   0
C18   1    0.758869   -0.434706    0.437532    11.00000    0.03697    0.03935 =
         0.03521   -0.00394    0.00813   -0.00049
AFIX  43
H18   2    0.758505   -0.527377    0.386165    11.00000   -1.20000
AFIX   0
F1    3    0.930041   -0.434585    0.682347    11.00000    0.07230    0.09673 =
         0.04013    0.01498   -0.00850    0.00114
HKLF    4
 
REM  mich2208 in P2(1)
REM R1 =  0.0400 for   1566 Fo > 4sig(Fo)  and  0.0459 for all   1751 data
REM    172 parameters refined using      1 restraints
 
END
 
WGHT      0.0473      0.0980
REM Highest difference peak  0.201,  deepest hole -0.182,  1-sigma level  0.033
Q1    1   0.1274  0.2082 -0.0617  11.00000  0.05    0.18
Q2    1   0.5258 -0.2252  0.2876  11.00000  0.05    0.17
Q3    1   0.2661  0.0032  0.0194  11.00000  0.05    0.15
Q4    1   0.1633  0.0018 -0.1414  11.00000  0.05    0.14
Q5    1   0.6089 -0.3889  0.3191  11.00000  0.05    0.14
Q6    1   0.8368 -0.2326  0.5852  11.00000  0.05    0.14
Q7    1   0.6249 -0.1740  0.3810  11.00000  0.05    0.14
Q8    1   0.4608 -0.1319  0.2153  11.00000  0.05    0.13
Q9    1   0.3804 -0.1453  0.1368  11.00000  0.05    0.13
Q10   1   0.5965 -0.1366  0.2876  11.00000  0.05    0.13
Q11   1   0.3057 -0.1976  0.0548  11.00000  0.05    0.13
Q12   1   0.2558 -0.1130 -0.1134  11.00000  0.05    0.13
Q13   1   0.7900 -0.4287  0.4967  11.00000  0.05    0.13
Q14   1   0.2585  0.2138  0.0131  11.00000  0.05    0.13
Q15   1   0.2804  0.1348  0.0896  11.00000  0.05    0.12
Q16   1   0.1636  0.1392  0.0095  11.00000  0.05    0.12
Q17   1   0.3457  0.0233  0.1619  11.00000  0.05    0.12
Q18   1   0.2605 -0.1544 -0.0221  11.00000  0.05    0.12
Q19   1   0.0328  0.5495 -0.1572  11.00000  0.05    0.12
Q20   1   0.7403 -0.1217  0.5400  11.00000  0.05    0.12
Q21   1   0.6983 -0.1323  0.4613  11.00000  0.05    0.11
Q22   1   0.1376  0.1711 -0.1344  11.00000  0.05    0.11
Q23   1   0.8785 -0.3888  0.5531  11.00000  0.05    0.11
Q24   1   0.6851 -0.3648  0.4297  11.00000  0.05    0.10
Q25   1   0.3955 -0.1192  0.0470  11.00000  0.05    0.10
;
_cod_data_source_file            ol300327b_si_002.cif
_cod_data_source_block           7
_cod_original_sg_symbol_H-M      'P 21'
_cod_database_code               1507184
loop_
_symmetry_equiv_pos_as_xyz
'x, y, z'
'-x, y+1/2, -z'
loop_
_atom_site_label
_atom_site_type_symbol
_atom_site_fract_x
_atom_site_fract_y
_atom_site_fract_z
_atom_site_U_iso_or_equiv
_atom_site_adp_type
_atom_site_occupancy
_atom_site_symmetry_multiplicity
_atom_site_calc_flag
_atom_site_refinement_flags
C1 C 0.5746(3) -0.1582(4) 0.33748(15) 0.0393(5) Uani 1 1 d .
C2 C 0.4954(3) -0.1071(5) 0.26331(15) 0.0391(5) Uani 1 1 d .
C3 C 0.4061(2) -0.0603(4) 0.17048(14) 0.0339(5) Uani 1 1 d .
C4 C 0.3093(3) 0.1374(4) 0.13898(13) 0.0324(4) Uani 1 1 d .
H4 H 0.2891 0.2608 0.1753 0.039 Uiso 1 1 calc R
C5 C 0.2486(2) 0.1153(4) 0.04311(13) 0.0283(4) Uani 1 1 d .
C6 C 0.1468(2) 0.2726(4) -0.01339(14) 0.0310(4) Uani 1 1 d .
H6 H 0.1167 0.4031 0.0161 0.037 Uiso 1 1 calc R
C7 C 0.0836(3) 0.2621(4) -0.10798(14) 0.0351(5) Uani 1 1 d .
H7 H 0.0167 0.3864 -0.1334 0.042 Uiso 1 1 calc R
C8 C 0.1070(3) 0.0900(4) -0.17011(15) 0.0383(5) Uani 1 1 d .
H8 H 0.0546 0.1174 -0.2314 0.046 Uiso 1 1 calc R
C9 C 0.1966(3) -0.1161(4) -0.15449(15) 0.0380(5) Uani 1 1 d .
H9 H 0.1949 -0.2071 -0.2065 0.046 Uiso 1 1 calc R
C10 C 0.2878(2) -0.2040(4) -0.07211(14) 0.0326(4) Uani 1 1 d .
H10 H 0.3398 -0.3458 -0.0762 0.039 Uiso 1 1 calc R
C11 C 0.3123(2) -0.1094(4) 0.01591(13) 0.0289(4) Uani 1 1 d .
C12 C 0.4073(2) -0.2092(4) 0.09568(14) 0.0337(5) Uani 1 1 d .
H12 H 0.4623 -0.3508 0.0990 0.040 Uiso 1 1 calc R
C13 C 0.6693(3) -0.2259(4) 0.42704(14) 0.0340(5) Uani 1 1 d .
C14 C 0.6708(3) -0.0895(4) 0.50499(15) 0.0399(5) Uani 1 1 d .
H14 H 0.6124 0.0500 0.4988 0.048 Uiso 1 1 calc R
C15 C 0.7580(3) -0.1592(5) 0.59122(16) 0.0463(6) Uani 1 1 d .
H15 H 0.7579 -0.0688 0.6432 0.056 Uiso 1 1 calc R
C16 C 0.8448(3) -0.3645(5) 0.59857(15) 0.0445(6) Uani 1 1 d .
C17 C 0.8481(3) -0.5048(4) 0.52370(15) 0.0416(5) Uani 1 1 d .
H17 H 0.9085 -0.6428 0.5308 0.050 Uiso 1 1 calc R
C18 C 0.7589(3) -0.4347(4) 0.43753(14) 0.0370(5) Uani 1 1 d .
H18 H 0.7585 -0.5274 0.3862 0.044 Uiso 1 1 calc R
F1 F 0.9300(2) -0.4346(4) 0.68235(10) 0.0719(6) Uani 1 1 d .
loop_
_atom_site_aniso_label
_atom_site_aniso_U_11
_atom_site_aniso_U_22
_atom_site_aniso_U_33
_atom_site_aniso_U_23
_atom_site_aniso_U_13
_atom_site_aniso_U_12
C1 0.0325(9) 0.0450(14) 0.0403(12) 0.0077(10) 0.0064(9) 0.0026(10)
C2 0.0336(9) 0.0414(12) 0.0435(12) 0.0074(10) 0.0104(9) 0.0030(10)
C3 0.0258(9) 0.0369(12) 0.0400(11) 0.0065(9) 0.0086(8) -0.0001(9)
C4 0.0316(9) 0.0312(11) 0.0353(10) 0.0002(9) 0.0088(8) -0.0001(9)
C5 0.0239(8) 0.0266(9) 0.0356(10) 0.0002(8) 0.0083(8) -0.0026(8)
C6 0.0270(8) 0.0249(9) 0.0423(11) 0.0010(8) 0.0099(8) 0.0010(8)
C7 0.0290(9) 0.0332(11) 0.0418(11) 0.0076(9) 0.0027(9) 0.0029(9)
C8 0.0352(10) 0.0423(13) 0.0354(10) 0.0019(10) 0.0006(9) -0.0038(10)
C9 0.0380(10) 0.0375(12) 0.0388(11) -0.0091(10) 0.0075(9) -0.0062(10)
C10 0.0287(8) 0.0246(9) 0.0464(11) -0.0026(9) 0.0120(8) -0.0038(8)
C11 0.0220(8) 0.0259(9) 0.0397(10) 0.0040(8) 0.0075(7) -0.0010(8)
C12 0.0289(9) 0.0283(10) 0.0450(11) 0.0058(9) 0.0093(9) 0.0044(9)
C13 0.0272(9) 0.0404(11) 0.0347(10) 0.0083(9) 0.0064(8) -0.0011(10)
C14 0.0360(10) 0.0339(11) 0.0513(13) 0.0004(11) 0.0122(10) 0.0013(10)
C15 0.0485(12) 0.0553(17) 0.0356(11) -0.0110(11) 0.0095(10) -0.0062(12)
C16 0.0380(11) 0.0592(16) 0.0339(11) 0.0101(11) -0.0002(9) -0.0055(12)
C17 0.0359(11) 0.0379(12) 0.0508(13) 0.0092(11) 0.0068(10) 0.0037(10)
C18 0.0370(11) 0.0394(13) 0.0352(10) -0.0039(10) 0.0081(9) -0.0005(10)
F1 0.0723(10) 0.0967(16) 0.0401(7) 0.0150(9) -0.0085(7) 0.0011(11)
loop_
_atom_type_symbol
_atom_type_description
_atom_type_scat_dispersion_real
_atom_type_scat_dispersion_imag
_atom_type_scat_source
C C 0.0033 0.0016 'International Tables Vol C Tables 4.2.6.8 and 6.1.1.4'
H H 0.0000 0.0000 'International Tables Vol C Tables 4.2.6.8 and 6.1.1.4'
F F 0.0171 0.0103 'International Tables Vol C Tables 4.2.6.8 and 6.1.1.4'
loop_
_geom_angle_atom_site_label_1
_geom_angle_atom_site_label_2
_geom_angle_atom_site_label_3
_geom_angle
C2 C1 C13 178.6(3)
C1 C2 C3 175.4(3)
C12 C3 C4 109.54(18)
C12 C3 C2 123.6(2)
C4 C3 C2 126.9(2)
C5 C4 C3 108.10(18)
C5 C4 H4 125.9
C3 C4 H4 125.9
C6 C5 C4 125.88(19)
C6 C5 C11 127.49(18)
C4 C5 C11 106.62(17)
C5 C6 C7 128.8(2)
C5 C6 H6 115.6
C7 C6 H6 115.6
C6 C7 C8 128.6(2)
C6 C7 H7 115.7
C8 C7 H7 115.7
C9 C8 C7 129.9(2)
C9 C8 H8 115.0
C7 C8 H8 115.0
C10 C9 C8 128.7(2)
C10 C9 H9 115.6
C8 C9 H9 115.6
C9 C10 C11 128.8(2)
C9 C10 H10 115.6
C11 C10 H10 115.6
C10 C11 C12 125.2(2)
C10 C11 C5 127.62(18)
C12 C11 C5 107.16(18)
C11 C12 C3 108.57(19)
C11 C12 H12 125.7
C3 C12 H12 125.7
C14 C13 C18 118.84(19)
C14 C13 C1 121.2(2)
C18 C13 C1 119.9(2)
C15 C14 C13 120.8(2)
C15 C14 H14 119.6
C13 C14 H14 119.6
C16 C15 C14 118.6(2)
C16 C15 H15 120.7
C14 C15 H15 120.7
F1 C16 C15 119.2(2)
F1 C16 C17 118.0(2)
C15 C16 C17 122.8(2)
C16 C17 C18 118.2(2)
C16 C17 H17 120.9
C18 C17 H17 120.9
C17 C18 C13 120.7(2)
C17 C18 H18 119.6
C13 C18 H18 119.6
loop_
_geom_bond_atom_site_label_1
_geom_bond_atom_site_label_2
_geom_bond_distance
C1 C2 1.185(3)
C1 C13 1.438(3)
C2 C3 1.436(3)
C3 C12 1.406(3)
C3 C4 1.410(3)
C4 C5 1.406(3)
C4 H4 0.9300
C5 C6 1.384(3)
C5 C11 1.487(3)
C6 C7 1.387(3)
C6 H6 0.9300
C7 C8 1.395(3)
C7 H7 0.9300
C8 C9 1.391(3)
C8 H8 0.9300
C9 C10 1.382(3)
C9 H9 0.9300
C10 C11 1.388(3)
C10 H10 0.9300
C11 C12 1.391(3)
C12 H12 0.9300
C13 C14 1.396(3)
C13 C18 1.400(3)
C14 C15 1.382(3)
C14 H14 0.9300
C15 C16 1.372(4)
C15 H15 0.9300
C16 F1 1.348(3)
C16 C17 1.378(3)
C17 C18 1.387(3)
C17 H17 0.9300
C18 H18 0.9300
loop_
_cod_related_entry_id
_cod_related_entry_database
_cod_related_entry_code
1 ChemSpider 30651802
