#------------------------------------------------------------------------------
#$Date: 2016-02-18 17:37:37 +0200 (Thu, 18 Feb 2016) $
#$Revision: 176729 $
#$URL: svn://www.crystallography.net/cod/cif/1/51/19/1511984.cif $
#------------------------------------------------------------------------------
#
# This file is available in the Crystallography Open Database (COD),
# http://www.crystallography.net/
#
# All data on this site have been placed in the public domain by the
# contributors.
#
data_1511984
loop_
_publ_author_name
'Sikora, Magdalena'
'Katrusiak, Andrzej'
_publ_section_title
;
 Pressure-Controlled Neutral--Ionic Transition and Disordering of
 NH&#x00B7;&#x00B7;&#x00B7;N Hydrogen Bonds in Pyrazole
;
_journal_issue                   20
_journal_name_full               'The Journal of Physical Chemistry C'
_journal_page_first              10661
_journal_paper_doi               10.1021/jp401389v
_journal_volume                  117
_journal_year                    2013
_chemical_formula_moiety         'C3 H4 N2'
_chemical_formula_sum            'C3 H4 N2'
_chemical_formula_weight         68.08
_chemical_melting_point          341
_chemical_name_common            pyrazole
_chemical_name_systematic
;

 ?

;
_space_group_IT_number           33
_symmetry_cell_setting           orthorhombic
_symmetry_space_group_name_Hall  'P 2c -2n'
_symmetry_space_group_name_H-M   'P n a 21'
_atom_sites_solution_hydrogens   geom
_atom_sites_solution_primary     direct
_atom_sites_solution_secondary   difmap
_audit_creation_method           SHELXL-97
_cell_angle_alpha                90.00
_cell_angle_beta                 90.00
_cell_angle_gamma                90.00
_cell_formula_units_Z            8
_cell_length_a                   6.971(2)
_cell_length_b                   12.783(5)
_cell_length_c                   8.247(6)
_cell_measurement_reflns_used    661
_cell_measurement_temperature    296(2)
_cell_measurement_theta_max      28.80
_cell_measurement_theta_min      3.19
_cell_volume                     734.9(6)
_computing_cell_refinement       'CrysAlisRED (Oxford Diffraction, 2004)'
_computing_data_collection       'CrysAlisCCD (Oxford Diffraction, 2004)'
_computing_data_reduction
'CrysAlisRED (Oxford Diffraction, 2004); REDSHABS (Katrusiak, A.  2003)'
_computing_molecular_graphics    'Mercury (Macrae et al., 2008))'
_computing_publication_material  'SHELXL--97 (Sheldrick, 1997)'
_computing_structure_refinement  'SHELXL--97 (Sheldrick, 1997)'
_computing_structure_solution    'SHELXS--97 (Sheldrick, 1997)'
_diffrn_ambient_environment      'diamond-anvil cell'
_diffrn_ambient_pressure         100000
_diffrn_ambient_temperature      296(2)
_diffrn_measured_fraction_theta_full 0.376
_diffrn_measured_fraction_theta_max 0.376
_diffrn_measurement_device_type  'KM-4 CCD'
_diffrn_measurement_method       '\f- and \w-scans'
_diffrn_radiation_monochromator  graphite
_diffrn_radiation_source         'fine-focus sealed tube'
_diffrn_radiation_type           MoK\a
_diffrn_radiation_wavelength     0.71073
_diffrn_reflns_av_R_equivalents  0.0724
_diffrn_reflns_av_sigmaI/netI    0.0536
_diffrn_reflns_limit_h_max       9
_diffrn_reflns_limit_h_min       -9
_diffrn_reflns_limit_k_max       16
_diffrn_reflns_limit_k_min       -16
_diffrn_reflns_limit_l_max       3
_diffrn_reflns_limit_l_min       -3
_diffrn_reflns_number            4282
_diffrn_reflns_theta_full        28.80
_diffrn_reflns_theta_max         28.80
_diffrn_reflns_theta_min         3.19
_exptl_absorpt_coefficient_mu    0.083
_exptl_absorpt_correction_T_max  0.875
_exptl_absorpt_correction_T_min  0.474
_exptl_absorpt_correction_type   integration
_exptl_absorpt_process_details
; 
 Correction for absorption of the diamond-anvil cell and the sample 
 were made using program REDSHABS (Katrusiak, A. (2003) REDSHABS. Adam
 Mickiewicz University Pozna\'n; Katrusiak, A. (2004) Z. Kristallogr.
 219, 461-467).
;
_exptl_crystal_colour            colourless
_exptl_crystal_density_diffrn    1.231
_exptl_crystal_density_method    'not measured'
_exptl_crystal_description       plate
_exptl_crystal_F_000             288
_exptl_crystal_size_max          0.27
_exptl_crystal_size_mid          0.27
_exptl_crystal_size_min          0.20
_refine_diff_density_max         0.131
_refine_diff_density_min         -0.128
_refine_diff_density_rms         0.037
_refine_ls_abs_structure_details 'Flack H D (1983), Acta Cryst. A39, 876-881'
_refine_ls_abs_structure_Flack   -10(10)
_refine_ls_extinction_method     none
_refine_ls_goodness_of_fit_ref   1.229
_refine_ls_hydrogen_treatment    constr
_refine_ls_matrix_type           full
_refine_ls_number_parameters     41
_refine_ls_number_reflns         661
_refine_ls_number_restraints     1
_refine_ls_restrained_S_all      1.228
_refine_ls_R_factor_all          0.1583
_refine_ls_R_factor_gt           0.0949
_refine_ls_shift/su_max          0.000
_refine_ls_shift/su_mean         0.000
_refine_ls_structure_factor_coef Fsqd
_refine_ls_weighting_details
'calc w=1/[\s^2^(Fo^2^)+(0.1026P)^2^+0.0729P] where P=(Fo^2^+2Fc^2^)/3'
_refine_ls_weighting_scheme      calc
_refine_ls_wR_factor_gt          0.2124
_refine_ls_wR_factor_ref         0.2400
_reflns_number_gt                444
_reflns_number_total             661
_reflns_threshold_expression     >2sigma(I)
_cod_data_source_file            jp401389v_si_002.cif
_cod_data_source_block           pyrazole_0.10GPa
_cod_depositor_comments
;
The following automatic conversions were performed:
'_atom_site_symetry_multiplicity' tag replaced with
'_atom_site_symmetry_multiplicity'.

Automatic conversion script
Id: cif_correct_tags 1440 2010-10-19 06:21:57Z saulius 
;
_cod_original_cell_volume        735.0(6)
_cod_database_code               1511984
loop_
_symmetry_equiv_pos_as_xyz
'x, y, z'
'-x+1/2, y+1/2, z+1/2'
'x+1/2, -y+1/2, z'
'-x, -y, z+1/2'
loop_
_atom_site_label
_atom_site_type_symbol
_atom_site_fract_x
_atom_site_fract_y
_atom_site_fract_z
_atom_site_U_iso_or_equiv
_atom_site_adp_type
_atom_site_occupancy
_atom_site_symmetry_multiplicity
_atom_site_calc_flag
_atom_site_refinement_flags
N1 N 0.0014(8) 0.8151(4) 0.307(2) 0.059(2) Uiso 1 1 d .
H1 H 0.0275 0.7739 0.2274 0.071 Uiso 1 1 calc R
N2 N -0.1178(8) 0.8995(4) 0.296(3) 0.0632(19) Uiso 1 1 d .
N11 N 0.0151(8) 0.6801(4) 0.033(2) 0.060(2) Uiso 1 1 d .
N12 N 0.1438(7) 0.5985(4) 0.015(2) 0.0561(17) Uiso 1 1 d .
H12 H 0.2189 0.5767 0.0905 0.067 Uiso 1 1 calc R
C3 C -0.1093(8) 0.9351(5) 0.453(2) 0.0460(18) Uiso 1 1 d .
H3 H -0.1816 0.9923 0.4870 0.055 Uiso 1 1 calc R
C4 C 0.0084(7) 0.8838(4) 0.558(2) 0.0539(19) Uiso 1 1 d .
H4 H 0.0354 0.8991 0.6662 0.065 Uiso 1 1 calc R
C5 C 0.0764(11) 0.8041(5) 0.465(2) 0.064(2) Uiso 1 1 d .
H5 H 0.1584 0.7513 0.4996 0.076 Uiso 1 1 calc R
C13 C 0.1362(8) 0.5551(6) -0.145(3) 0.062(2) Uiso 1 1 d .
H13 H 0.2098 0.5011 -0.1875 0.074 Uiso 1 1 calc R
C14 C 0.0003(8) 0.6096(5) -0.217(3) 0.067(2) Uiso 1 1 d .
H14 H -0.0432 0.5991 -0.3220 0.080 Uiso 1 1 calc R
C15 C -0.0670(10) 0.6846(4) -0.111(2) 0.0476(18) Uiso 1 1 d .
H15 H -0.1607 0.7333 -0.1387 0.057 Uiso 1 1 calc R
loop_
_atom_type_symbol
_atom_type_description
_atom_type_scat_dispersion_real
_atom_type_scat_dispersion_imag
_atom_type_scat_source
C C 0.0033 0.0016 'International Tables Vol C Tables 4.2.6.8 and 6.1.1.4'
H H 0.0000 0.0000 'International Tables Vol C Tables 4.2.6.8 and 6.1.1.4'
N N 0.0061 0.0033 'International Tables Vol C Tables 4.2.6.8 and 6.1.1.4'
loop_
_geom_angle_atom_site_label_1
_geom_angle_atom_site_label_2
_geom_angle_atom_site_label_3
_geom_angle
C5 N1 N2 111.4(16)
C5 N1 H1 124.3
N2 N1 H1 124.3
C3 N2 N1 99.9(15)
C15 N11 N12 102.7(14)
N11 N12 C13 111.4(14)
N11 N12 H12 124.3
C13 N12 H12 124.3
C4 C3 N2 117.8(10)
C4 C3 H3 121.1
N2 C3 H3 121.1
C3 C4 C5 102.2(16)
C3 C4 H4 128.9
C5 C4 H4 128.9
N1 C5 C4 108.6(9)
N1 C5 H5 125.7
C4 C5 H5 125.7
C14 C13 N12 103.7(12)
C14 C13 H13 128.2
N12 C13 H13 128.2
C13 C14 C15 109.2(19)
C13 C14 H14 125.4
C15 C14 H14 125.4
N11 C15 C14 113.0(10)
N11 C15 H15 123.5
C14 C15 H15 123.5
loop_
_geom_bond_atom_site_label_1
_geom_bond_atom_site_label_2
_geom_bond_distance
N1 C5 1.41(2)
N1 N2 1.365(8)
N1 H1 0.8600
N2 C3 1.38(3)
N11 C15 1.32(2)
N11 N12 1.384(7)
N12 C13 1.43(3)
N12 H12 0.8600
C3 C4 1.361(18)
C3 H3 0.9300
C4 C5 1.362(18)
C4 H4 0.9300
C5 H5 0.9300
C13 C14 1.318(17)
C13 H13 0.9300
C14 C15 1.38(2)
C14 H14 0.9300
C15 H15 0.9300
