#------------------------------------------------------------------------------
#$Date: 2016-02-18 17:37:37 +0200 (Thu, 18 Feb 2016) $
#$Revision: 176729 $
#$URL: svn://www.crystallography.net/cod/cif/1/51/19/1511985.cif $
#------------------------------------------------------------------------------
#
# This file is available in the Crystallography Open Database (COD),
# http://www.crystallography.net/
#
# All data on this site have been placed in the public domain by the
# contributors.
#
data_1511985
loop_
_publ_author_name
'Sikora, Magdalena'
'Katrusiak, Andrzej'
_publ_section_title
;
 Pressure-Controlled Neutral--Ionic Transition and Disordering of
 NH&#x00B7;&#x00B7;&#x00B7;N Hydrogen Bonds in Pyrazole
;
_journal_issue                   20
_journal_name_full               'The Journal of Physical Chemistry C'
_journal_page_first              10661
_journal_paper_doi               10.1021/jp401389v
_journal_volume                  117
_journal_year                    2013
_chemical_formula_moiety         'C3 H4 N2'
_chemical_formula_sum            'C3 H4 N2'
_chemical_formula_weight         68.08
_chemical_melting_point          341
_chemical_name_common            pyrazole
_chemical_name_systematic
;

pyrazole

;
_space_group_IT_number           33
_symmetry_cell_setting           orthorhombic
_symmetry_space_group_name_Hall  'P 2c -2n'
_symmetry_space_group_name_H-M   'P n a 21'
_atom_sites_solution_hydrogens   geom
_atom_sites_solution_primary     direct
_atom_sites_solution_secondary   difmap
_audit_creation_method           SHELXL-97
_cell_angle_alpha                90.00
_cell_angle_beta                 90.00
_cell_angle_gamma                90.00
_cell_formula_units_Z            8
_cell_length_a                   6.8805(8)
_cell_length_b                   12.6682(17)
_cell_length_c                   8.209(3)
_cell_measurement_reflns_used    483
_cell_measurement_temperature    296(2)
_cell_measurement_theta_max      27.39
_cell_measurement_theta_min      3.22
_cell_volume                     715.5(3)
_computing_cell_refinement       'CrysAlisRED (Oxford Diffraction, 2004)'
_computing_data_collection       'CrysAlisCCD (Oxford Diffraction, 2004)'
_computing_data_reduction
'CrysAlisRED (Oxford Diffraction, 2004); REDSHABS (Katrusiak, A.  2003)'
_computing_molecular_graphics    'Mercury (Macrae et al., 2008))'
_computing_publication_material  'SHELXL--97 (Sheldrick, 1997)'
_computing_structure_refinement  'SHELXL--97 (Sheldrick, 1997)'
_computing_structure_solution    'SHELXS--97 (Sheldrick, 1997)'
_diffrn_ambient_environment      'diamond-anvil cell'
_diffrn_ambient_pressure         250000
_diffrn_ambient_temperature      296(2)
_diffrn_measured_fraction_theta_full 0.333
_diffrn_measured_fraction_theta_max 0.333
_diffrn_measurement_device_type  'KM-4 CCD'
_diffrn_measurement_method       '\f- and \w-scans'
_diffrn_radiation_monochromator  graphite
_diffrn_radiation_source         'fine-focus sealed tube'
_diffrn_radiation_type           MoK\a
_diffrn_radiation_wavelength     0.71073
_diffrn_reflns_av_R_equivalents  0.0505
_diffrn_reflns_av_sigmaI/netI    0.0268
_diffrn_reflns_limit_h_max       8
_diffrn_reflns_limit_h_min       -8
_diffrn_reflns_limit_k_max       16
_diffrn_reflns_limit_k_min       -16
_diffrn_reflns_limit_l_max       2
_diffrn_reflns_limit_l_min       -2
_diffrn_reflns_number            3451
_diffrn_reflns_theta_full        27.39
_diffrn_reflns_theta_max         27.39
_diffrn_reflns_theta_min         3.22
_exptl_absorpt_coefficient_mu    0.085
_exptl_absorpt_correction_T_max  0.796
_exptl_absorpt_correction_T_min  0.529
_exptl_absorpt_correction_type   integration
_exptl_absorpt_process_details
; 
 Correction for absorption of the diamond-anvil cell and the sample 
 were made using program REDSHABS (Katrusiak, A. (2003) REDSHABS. Adam
 Mickiewicz University Pozna\'n; Katrusiak, A. (2004) Z. Kristallogr.
 219, 461-467).
;
_exptl_crystal_colour            colourless
_exptl_crystal_density_diffrn    1.264
_exptl_crystal_density_method    'not measured'
_exptl_crystal_description       plate
_exptl_crystal_F_000             288
_exptl_crystal_size_max          0.27
_exptl_crystal_size_mid          0.27
_exptl_crystal_size_min          0.20
_refine_diff_density_max         0.055
_refine_diff_density_min         -0.067
_refine_diff_density_rms         0.018
_refine_ls_abs_structure_details 'Flack H D (1983), Acta Cryst. A39, 876-881'
_refine_ls_abs_structure_Flack   -4(7)
_refine_ls_extinction_method     none
_refine_ls_goodness_of_fit_ref   1.031
_refine_ls_hydrogen_treatment    constr
_refine_ls_matrix_type           full
_refine_ls_number_parameters     91
_refine_ls_number_reflns         483
_refine_ls_number_restraints     61
_refine_ls_restrained_S_all      0.979
_refine_ls_R_factor_all          0.0594
_refine_ls_R_factor_gt           0.0388
_refine_ls_shift/su_max          0.000
_refine_ls_shift/su_mean         0.000
_refine_ls_structure_factor_coef Fsqd
_refine_ls_weighting_details
'calc w=1/[\s^2^(Fo^2^)+(0.0772P)^2^+0.0000P] where P=(Fo^2^+2Fc^2^)/3'
_refine_ls_weighting_scheme      calc
_refine_ls_wR_factor_gt          0.1020
_refine_ls_wR_factor_ref         0.1168
_reflns_number_gt                338
_reflns_number_total             483
_reflns_threshold_expression     >2sigma(I)
_cod_data_source_file            jp401389v_si_002.cif
_cod_data_source_block           pyrazole_0.25GPa
_cod_depositor_comments
;
The following automatic conversions were performed:
'_atom_site_symetry_multiplicity' tag replaced with
'_atom_site_symmetry_multiplicity'.

Automatic conversion script
Id: cif_correct_tags 1440 2010-10-19 06:21:57Z saulius 
;
_cod_database_code               1511985
loop_
_symmetry_equiv_pos_as_xyz
'x, y, z'
'-x+1/2, y+1/2, z+1/2'
'x+1/2, -y+1/2, z'
'-x, -y, z+1/2'
loop_
_atom_site_label
_atom_site_type_symbol
_atom_site_fract_x
_atom_site_fract_y
_atom_site_fract_z
_atom_site_U_iso_or_equiv
_atom_site_adp_type
_atom_site_occupancy
_atom_site_symmetry_multiplicity
_atom_site_calc_flag
_atom_site_refinement_flags
N1 N -0.0010(5) 0.8160(3) 0.3086(14) 0.060(4) Uani 1 1 d U
H1 H 0.0212 0.7760 0.2260 0.072 Uiso 1 1 calc R
N2 N -0.1205(6) 0.9012(3) 0.309(2) 0.057(4) Uani 1 1 d U
N11 N 0.0127(5) 0.6792(3) 0.0272(13) 0.066(4) Uani 1 1 d U
N12 N 0.1394(5) 0.5992(2) 0.0202(19) 0.058(4) Uani 1 1 d U
H12 H 0.2120 0.5782 0.0991 0.069 Uiso 1 1 calc R
C3 C -0.1115(7) 0.9407(4) 0.454(2) 0.055(4) Uani 1 1 d U
H3 H -0.1788 1.0009 0.4859 0.066 Uiso 1 1 calc R
C4 C 0.0088(4) 0.8838(2) 0.5562(14) 0.054(4) Uani 1 1 d U
H4 H 0.0373 0.8961 0.6654 0.065 Uiso 1 1 calc R
C5 C 0.0766(5) 0.8037(3) 0.455(2) 0.060(4) Uani 1 1 d U
H5 H 0.1621 0.7504 0.4858 0.072 Uiso 1 1 calc R
C13 C 0.1349(6) 0.5564(3) -0.132(2) 0.053(4) Uani 1 1 d U
H13 H 0.2117 0.5009 -0.1694 0.064 Uiso 1 1 calc R
C14 C -0.0026(4) 0.6094(2) -0.2219(19) 0.055(4) Uani 1 1 d U
H14 H -0.0406 0.5973 -0.3290 0.067 Uiso 1 1 calc R
C15 C -0.0715(6) 0.6854(3) -0.114(3) 0.053(4) Uani 1 1 d U
H15 H -0.1665 0.7347 -0.1406 0.064 Uiso 1 1 calc R
loop_
_atom_site_aniso_label
_atom_site_aniso_U_11
_atom_site_aniso_U_22
_atom_site_aniso_U_33
_atom_site_aniso_U_23
_atom_site_aniso_U_13
_atom_site_aniso_U_12
N1 0.0566(19) 0.0533(19) 0.069(11) 0.002(4) 0.003(5) -0.0005(13)
N2 0.0566(17) 0.055(2) 0.059(11) 0.006(4) -0.003(5) 0.0028(14)
N11 0.0598(19) 0.060(2) 0.078(12) -0.006(5) -0.006(5) 0.0014(15)
N12 0.0641(18) 0.051(2) 0.059(12) -0.005(4) -0.004(5) 0.0008(14)
C3 0.059(2) 0.049(3) 0.056(12) -0.009(4) -0.006(5) 0.0022(17)
C4 0.0531(16) 0.056(2) 0.053(11) -0.001(5) -0.005(5) -0.0026(17)
C5 0.051(2) 0.058(2) 0.070(12) 0.001(5) -0.004(5) 0.0041(15)
C13 0.0499(18) 0.054(3) 0.055(11) 0.000(4) -0.001(5) 0.0043(15)
C14 0.0486(15) 0.066(2) 0.052(11) -0.006(4) -0.021(4) -0.0098(16)
C15 0.0512(19) 0.049(2) 0.060(12) -0.003(4) 0.001(5) 0.0074(14)
loop_
_atom_type_symbol
_atom_type_description
_atom_type_scat_dispersion_real
_atom_type_scat_dispersion_imag
_atom_type_scat_source
C C 0.0033 0.0016 'International Tables Vol C Tables 4.2.6.8 and 6.1.1.4'
H H 0.0000 0.0000 'International Tables Vol C Tables 4.2.6.8 and 6.1.1.4'
N N 0.0061 0.0033 'International Tables Vol C Tables 4.2.6.8 and 6.1.1.4'
loop_
_geom_angle_atom_site_label_1
_geom_angle_atom_site_label_2
_geom_angle_atom_site_label_3
_geom_angle
C5 N1 N2 109.7(11)
C5 N1 H1 125.2
N2 N1 H1 125.2
C3 N2 N1 106.2(13)
C15 N11 N12 107.3(10)
N11 N12 C13 109.0(11)
N11 N12 H12 125.5
C13 N12 H12 125.5
N2 C3 C4 112.8(7)
N2 C3 H3 123.6
C4 C3 H3 123.6
C3 C4 C5 102.7(14)
C3 C4 H4 128.7
C5 C4 H4 128.7
N1 C5 C4 108.7(6)
N1 C5 H5 125.7
C4 C5 H5 125.7
N12 C13 C14 108.2(8)
N12 C13 H13 125.9
C14 C13 H13 125.9
C13 C14 C15 103.6(16)
C13 C14 H14 128.2
C15 C14 H14 128.2
N11 C15 C14 111.9(7)
N11 C15 H15 124.0
C14 C15 H15 124.0
loop_
_geom_bond_atom_site_label_1
_geom_bond_atom_site_label_2
_geom_bond_distance
N1 C5 1.33(2)
N1 N2 1.358(6)
N1 H1 0.8600
N2 C3 1.29(2)
N11 C15 1.30(2)
N11 N12 1.338(5)
N12 C13 1.37(2)
N12 H12 0.8600
C3 C4 1.382(17)
C3 H3 0.9300
C4 C5 1.390(17)
C4 H4 0.9300
C5 H5 0.9300
C13 C14 1.373(16)
C13 H13 0.9300
C14 C15 1.389(19)
C14 H14 0.9300
C15 H15 0.9300
