#------------------------------------------------------------------------------
#$Date: 2016-02-18 17:37:37 +0200 (Thu, 18 Feb 2016) $
#$Revision: 176729 $
#$URL: svn://www.crystallography.net/cod/cif/1/51/19/1511998.cif $
#------------------------------------------------------------------------------
#
# This file is available in the Crystallography Open Database (COD),
# http://www.crystallography.net/
#
# All data on this site have been placed in the public domain by the
# contributors.
#
data_1511998
loop_
_publ_author_name
'Sikora, Magdalena'
'Katrusiak, Andrzej'
_publ_section_title
;
 Pressure-Controlled Neutral--Ionic Transition and Disordering of
 NH&#x00B7;&#x00B7;&#x00B7;N Hydrogen Bonds in Pyrazole
;
_journal_issue                   20
_journal_name_full               'The Journal of Physical Chemistry C'
_journal_page_first              10661
_journal_paper_doi               10.1021/jp401389v
_journal_volume                  117
_journal_year                    2013
_chemical_formula_moiety         'C3 H4 N2'
_chemical_formula_sum            'C3 H4 N2'
_chemical_formula_weight         68.08
_chemical_melting_point          341
_chemical_name_common            pyrazole
_chemical_name_systematic
; 
pyrazole 
;
_space_group_IT_number           33
_symmetry_cell_setting           orthorhombic
_symmetry_space_group_name_Hall  'P 2c -2n'
_symmetry_space_group_name_H-M   'P n a 21'
_atom_sites_solution_hydrogens   geom
_atom_sites_solution_primary     direct
_atom_sites_solution_secondary   difmap
_audit_creation_method           SHELXL-97
_cell_angle_alpha                90.00
_cell_angle_beta                 90.00
_cell_angle_gamma                90.00
_cell_formula_units_Z            8
_cell_length_a                   6.8306(4)
_cell_length_b                   12.6103(6)
_cell_length_c                   8.2284(4)
_cell_measurement_reflns_used    1073
_cell_measurement_temperature    140(2)
_cell_measurement_theta_max      27.88
_cell_measurement_theta_min      2.96
_cell_volume                     708.76(6)
_computing_cell_refinement       'CrysAlisRED (Oxford Diffraction, 2004)'
_computing_data_collection       'CrysAlisCCD (Oxford Diffraction, 2004)'
_computing_data_reduction
'CrysAlisRED (Oxford Diffraction, 2004); REDSHABS (Katrusiak, A.  2003)'
_computing_molecular_graphics    'Mercury (Macrae et al., 2008))'
_computing_publication_material  'SHELXL--97 (Sheldrick, 1997)'
_computing_structure_refinement  'SHELXL--97 (Sheldrick, 1997)'
_computing_structure_solution    'SHELXS--97 (Sheldrick, 1997)'
_diffrn_ambient_temperature      140(2)
_diffrn_measured_fraction_theta_full 0.881
_diffrn_measured_fraction_theta_max 0.881
_diffrn_measurement_device_type  'KM-4 CCD'
_diffrn_measurement_method       '\f- and \w-scans'
_diffrn_radiation_monochromator  graphite
_diffrn_radiation_source         'fine-focus sealed tube'
_diffrn_radiation_type           MoK\a
_diffrn_radiation_wavelength     0.71073
_diffrn_reflns_av_R_equivalents  0.0102
_diffrn_reflns_av_sigmaI/netI    0.0242
_diffrn_reflns_limit_h_max       8
_diffrn_reflns_limit_h_min       -5
_diffrn_reflns_limit_k_max       15
_diffrn_reflns_limit_k_min       -16
_diffrn_reflns_limit_l_max       7
_diffrn_reflns_limit_l_min       -10
_diffrn_reflns_number            1978
_diffrn_reflns_theta_full        27.88
_diffrn_reflns_theta_max         27.88
_diffrn_reflns_theta_min         2.96
_exptl_absorpt_coefficient_mu    0.086
_exptl_absorpt_correction_T_max  0.970
_exptl_absorpt_correction_T_min  0.891
_exptl_absorpt_correction_type   none
_exptl_absorpt_process_details
; 
Correction for absorption was made using XEMP (SHELXTL, 
Sheldrick (1990)).
;
_exptl_crystal_colour            colourless
_exptl_crystal_density_diffrn    1.276
_exptl_crystal_density_method    'not measured'
_exptl_crystal_description       plate
_exptl_crystal_F_000             288
_exptl_crystal_size_max          1.44
_exptl_crystal_size_mid          1.12
_exptl_crystal_size_min          0.35
_refine_diff_density_max         0.142
_refine_diff_density_min         -0.207
_refine_diff_density_rms         0.039
_refine_ls_abs_structure_details 'Flack H D (1983), Acta Cryst. A39, 876-881'
_refine_ls_abs_structure_Flack   0(4)
_refine_ls_extinction_method     none
_refine_ls_goodness_of_fit_ref   0.976
_refine_ls_hydrogen_treatment    constr
_refine_ls_matrix_type           full
_refine_ls_number_parameters     93
_refine_ls_number_reflns         1073
_refine_ls_number_restraints     1
_refine_ls_restrained_S_all      0.975
_refine_ls_R_factor_all          0.0362
_refine_ls_R_factor_gt           0.0305
_refine_ls_shift/su_max          0.000
_refine_ls_shift/su_mean         0.000
_refine_ls_structure_factor_coef Fsqd
_refine_ls_weighting_details
'calc w=1/[\s^2^(Fo^2^)+(0.0449P)^2^+0.0000P] where P=(Fo^2^+2Fc^2^)/3'
_refine_ls_weighting_scheme      calc
_refine_ls_wR_factor_gt          0.0706
_refine_ls_wR_factor_ref         0.0720
_reflns_number_gt                915
_reflns_number_total             1073
_reflns_threshold_expression     >2sigma(I)
_cod_data_source_file            jp401389v_si_002.cif
_cod_data_source_block           pyrazole_140K
_cod_depositor_comments
;
The following automatic conversions were performed:
'_atom_site_symetry_multiplicity' tag replaced with
'_atom_site_symmetry_multiplicity'.

Automatic conversion script
Id: cif_correct_tags 1440 2010-10-19 06:21:57Z saulius 
;
_cod_database_code               1511998
loop_
_symmetry_equiv_pos_as_xyz
'x, y, z'
'-x+1/2, y+1/2, z+1/2'
'x+1/2, -y+1/2, z'
'-x, -y, z+1/2'
loop_
_atom_site_label
_atom_site_type_symbol
_atom_site_fract_x
_atom_site_fract_y
_atom_site_fract_z
_atom_site_U_iso_or_equiv
_atom_site_adp_type
_atom_site_occupancy
_atom_site_symmetry_multiplicity
_atom_site_calc_flag
_atom_site_refinement_flags
N1 N -0.00149(19) 0.81514(12) 0.6446(3) 0.0235(5) Uani 1 1 d .
H1 H 0.0209 0.7739 0.5635 0.028 Uiso 0.78(4) 1 calc PR
N2 N -0.1208(2) 0.90063(14) 0.6389(3) 0.0230(4) Uani 1 1 d .
H2 H -0.1869 0.9235 0.5571 0.028 Uiso 0.26(3) 1 calc PR
N11 N 0.0127(2) 0.67962(12) 0.3624(2) 0.0225(5) Uani 1 1 d .
H11 H -0.0098 0.7186 0.4461 0.027 Uiso 0.22(4) 1 calc PR
N12 N 0.1412(2) 0.59841(12) 0.3499(2) 0.0222(4) Uani 1 1 d .
H12 H 0.2160 0.5774 0.4276 0.027 Uiso 0.74(3) 1 calc PR
C3 C -0.1134(3) 0.94164(17) 0.7880(3) 0.0218(5) Uani 1 1 d .
H3 H -0.1813 1.0019 0.8207 0.026 Uiso 1 1 calc R
C4 C 0.0086(2) 0.88289(13) 0.8880(3) 0.0204(5) Uani 1 1 d .
H4 H 0.0375 0.8954 0.9968 0.025 Uiso 1 1 calc R
C5 C 0.0774(2) 0.80255(15) 0.7919(3) 0.0216(5) Uani 1 1 d .
H5 H 0.1632 0.7491 0.8233 0.026 Uiso 1 1 calc R
C13 C 0.1377(3) 0.55486(16) 0.2019(3) 0.0217(5) Uani 1 1 d .
H13 H 0.2132 0.4980 0.1664 0.026 Uiso 1 1 calc R
C14 C 0.0022(2) 0.60946(15) 0.1119(3) 0.0224(6) Uani 1 1 d .
H14 H -0.0329 0.5979 0.0042 0.027 Uiso 1 1 calc R
C15 C -0.0710(3) 0.68589(16) 0.2170(3) 0.0236(5) Uani 1 1 d .
H15 H -0.1665 0.7352 0.1892 0.028 Uiso 1 1 calc R
loop_
_atom_site_aniso_label
_atom_site_aniso_U_11
_atom_site_aniso_U_22
_atom_site_aniso_U_33
_atom_site_aniso_U_23
_atom_site_aniso_U_13
_atom_site_aniso_U_12
N1 0.0266(10) 0.0219(8) 0.0220(11) -0.0032(9) 0.0041(9) 0.0009(6)
N2 0.0236(8) 0.0244(9) 0.0210(11) 0.0001(10) -0.0032(8) 0.0003(6)
N11 0.0236(10) 0.0255(9) 0.0184(11) -0.0025(9) -0.0015(9) 0.0006(6)
N12 0.0251(8) 0.0212(8) 0.0203(11) 0.0036(10) -0.0034(8) 0.0005(6)
C3 0.0250(10) 0.0166(9) 0.0238(13) -0.0017(11) 0.0003(10) -0.0013(8)
C4 0.0220(9) 0.0247(10) 0.0146(12) 0.0021(9) -0.0009(9) -0.0012(7)
C5 0.0212(10) 0.0259(11) 0.0176(10) 0.0024(10) -0.0016(9) 0.0014(7)
C13 0.0240(10) 0.0213(10) 0.0199(11) -0.0016(11) 0.0007(9) 0.0002(8)
C14 0.0232(9) 0.0250(10) 0.0191(14) -0.0048(10) -0.0033(9) -0.0040(7)
C15 0.0182(9) 0.0239(11) 0.0286(12) 0.0002(10) -0.0014(10) 0.0009(7)
loop_
_atom_type_symbol
_atom_type_description
_atom_type_scat_dispersion_real
_atom_type_scat_dispersion_imag
_atom_type_scat_source
C C 0.0033 0.0016 'International Tables Vol C Tables 4.2.6.8 and 6.1.1.4'
H H 0.0000 0.0000 'International Tables Vol C Tables 4.2.6.8 and 6.1.1.4'
N N 0.0061 0.0033 'International Tables Vol C Tables 4.2.6.8 and 6.1.1.4'
loop_
_geom_angle_atom_site_label_1
_geom_angle_atom_site_label_2
_geom_angle_atom_site_label_3
_geom_angle
C5 N1 N2 111.71(19)
C5 N1 H1 124.1
N2 N1 H1 124.1
C3 N2 N1 104.70(18)
C3 N2 H2 127.6
N1 N2 H2 127.6
C15 N11 N12 104.81(18)
C15 N11 H11 127.6
N12 N11 H11 127.6
C13 N12 N11 111.66(18)
C13 N12 H12 124.2
N11 N12 H12 124.2
N2 C3 C4 111.3(2)
N2 C3 H3 124.4
C4 C3 H3 124.4
C5 C4 C3 105.0(3)
C5 C4 H4 127.5
C3 C4 H4 127.5
N1 C5 C4 107.32(18)
N1 C5 H5 126.3
C4 C5 H5 126.3
N12 C13 C14 107.3(2)
N12 C13 H13 126.3
C14 C13 H13 126.3
C13 C14 C15 104.8(3)
C13 C14 H14 127.6
C15 C14 H14 127.6
N11 C15 C14 111.39(19)
N11 C15 H15 124.3
C14 C15 H15 124.3
loop_
_geom_bond_atom_site_label_1
_geom_bond_atom_site_label_2
_geom_bond_distance
N1 C5 1.336(3)
N1 N2 1.352(2)
N1 H1 0.8600
N2 C3 1.333(4)
N2 H2 0.8600
N11 C15 1.328(3)
N11 N12 1.353(2)
N11 H11 0.8600
N12 C13 1.336(3)
N12 H12 0.8600
C3 C4 1.386(3)
C3 H3 0.9300
C4 C5 1.368(3)
C4 H4 0.9300
C5 H5 0.9300
C13 C14 1.370(3)
C13 H13 0.9300
C14 C15 1.388(3)
C14 H14 0.9300
C15 H15 0.9300
