#------------------------------------------------------------------------------
#$Date: 2016-02-18 17:37:37 +0200 (Thu, 18 Feb 2016) $
#$Revision: 176729 $
#$URL: svn://www.crystallography.net/cod/cif/1/51/27/1512704.cif $
#------------------------------------------------------------------------------
#
# This file is available in the Crystallography Open Database (COD),
# http://www.crystallography.net/
#
# All data on this site have been placed in the public domain by the
# contributors.
#
data_1512704
loop_
_publ_author_name
'Pradhumn Singh'
'Dipanwita Das'
'Om Prakash'
'Ajai K. Singh'
_publ_section_title
;
 Synthesis and structural chemistry of N-{2-(arylthio/seleno)
 ethyl}morpholine/piperidine-palladium(II) complexes as potent catalysts
 for the Heck reaction
;
_journal_name_full
;
Inorganica Chimica Acta
;
_journal_page_first              77
_journal_page_last               84
_journal_volume                  393
_journal_year                    2012
_chemical_formula_moiety         'C12 H18 Cl2 N2 Pd S'
_chemical_formula_sum            'C12 H18 Cl2 N2 Pd S'
_chemical_formula_weight         399.65
_space_group_IT_number           2
_symmetry_cell_setting           triclinic
_symmetry_space_group_name_Hall  '-P 1'
_symmetry_space_group_name_H-M   'P -1'
_atom_sites_solution_hydrogens   geom
_atom_sites_solution_primary     direct
_atom_sites_solution_secondary   difmap
_cell_angle_alpha                94.118(3)
_cell_angle_beta                 101.201(2)
_cell_angle_gamma                101.223(2)
_cell_formula_units_Z            2
_cell_length_a                   7.9462(13)
_cell_length_b                   8.5467(14)
_cell_length_c                   11.3279(18)
_cell_measurement_reflns_used    2652
_cell_measurement_temperature    100(2)
_cell_measurement_theta_max      28.30
_cell_measurement_theta_min      2.67
_cell_volume                     735.4(2)
_computing_cell_refinement       'Bruker SMART'
_computing_data_collection       'Bruker SMART'
_computing_data_reduction        'Bruker SAINT'
_computing_molecular_graphics    'Bruker SHELXTL'
_computing_publication_material  'Bruker SHELXTL'
_computing_structure_refinement  'SHELXL-97 (Sheldrick, 1997)'
_computing_structure_solution    'SHELXS-97 (Sheldrick, 1990)'
_diffrn_ambient_temperature      100(2)
_diffrn_measured_fraction_theta_full 0.991
_diffrn_measured_fraction_theta_max 0.991
_diffrn_measurement_device_type  'CCD area detector'
_diffrn_measurement_method       'phi and omega scans'
_diffrn_radiation_monochromator  graphite
_diffrn_radiation_source         'fine-focus sealed tube'
_diffrn_radiation_type           MoK\a
_diffrn_radiation_wavelength     0.71073
_diffrn_reflns_av_R_equivalents  0.0194
_diffrn_reflns_av_sigmaI/netI    0.0374
_diffrn_reflns_limit_h_max       9
_diffrn_reflns_limit_h_min       -9
_diffrn_reflns_limit_k_max       10
_diffrn_reflns_limit_k_min       -10
_diffrn_reflns_limit_l_max       13
_diffrn_reflns_limit_l_min       -13
_diffrn_reflns_number            3677
_diffrn_reflns_theta_full        24.99
_diffrn_reflns_theta_max         24.99
_diffrn_reflns_theta_min         1.84
_exptl_absorpt_coefficient_mu    1.750
_exptl_absorpt_correction_T_max  0.902
_exptl_absorpt_correction_T_min  0.740
_exptl_absorpt_correction_type   multi-scan
_exptl_absorpt_process_details   '(SADABS; Bruker, 2000)'
_exptl_crystal_colour            orange
_exptl_crystal_density_diffrn    1.805
_exptl_crystal_density_method    'not measured'
_exptl_crystal_description       needles
_exptl_crystal_F_000             400.0
_exptl_crystal_size_max          0.203
_exptl_crystal_size_mid          0.150
_exptl_crystal_size_min          0.065
_refine_diff_density_max         0.853
_refine_diff_density_min         -0.791
_refine_diff_density_rms         0.160
_refine_ls_extinction_method     none
_refine_ls_goodness_of_fit_ref   1.184
_refine_ls_hydrogen_treatment    constr
_refine_ls_matrix_type           full
_refine_ls_number_parameters     163
_refine_ls_number_reflns         2340
_refine_ls_number_restraints     0
_refine_ls_restrained_S_all      1.184
_refine_ls_R_factor_all          0.0380
_refine_ls_R_factor_gt           0.0334
_refine_ls_shift/su_max          0.001
_refine_ls_shift/su_mean         0.000
_refine_ls_structure_factor_coef Fsqd
_refine_ls_weighting_details
'calc w=1/[\s^2^(Fo^2^)+(0.0476P)^2^+2.7687P] where P=(Fo^2^+2Fc^2^)/3'
_refine_ls_weighting_scheme      calc
_refine_ls_wR_factor_gt          0.0857
_refine_ls_wR_factor_ref         0.1078
_reflns_number_gt                2186
_reflns_number_total             2594
_reflns_threshold_expression     >2sigma(I)
_cod_data_source_file            ICA-2013-394-77-84-1.cif
_cod_data_source_block           complex-4
_cod_original_sg_symbol_H-M      P-1
_cod_database_code               1512704
loop_
_symmetry_equiv_pos_as_xyz
'x, y, z'
'-x, -y, -z'
loop_
_atom_site_label
_atom_site_type_symbol
_atom_site_fract_x
_atom_site_fract_y
_atom_site_fract_z
_atom_site_U_iso_or_equiv
_atom_site_adp_type
_atom_site_occupancy
_atom_site_symmetry_multiplicity
_atom_site_calc_flag
_atom_site_refinement_flags
Pd1 Pd 1.00307(5) 0.29849(5) 0.33420(4) 0.01270(16) Uani 1 1 d .
S1 S 0.85730(17) 0.50074(16) 0.33691(14) 0.0168(3) Uani 1 1 d .
N1 N 0.7622(5) 0.1386(5) 0.3194(4) 0.0149(10) Uani 1 1 d .
Cl1 Cl 1.15835(16) 0.09935(15) 0.30698(13) 0.0189(3) Uani 1 1 d .
Cl2 Cl 1.25388(16) 0.49426(16) 0.35904(14) 0.0203(3) Uani 1 1 d .
N2 N 0.7426(6) 0.4870(6) 0.0954(5) 0.0248(12) Uani 1 1 d .
C1 C 0.9844(8) 0.7037(7) 0.1864(6) 0.0239(14) Uani 1 1 d .
H1 H 1.0644 0.7551 0.2560 0.029 Uiso 1 1 calc R
C2 C 0.9831(8) 0.7596(7) 0.0732(6) 0.0290(15) Uani 1 1 d .
H2 H 1.0637 0.8512 0.0657 0.035 Uiso 1 1 calc R
C3 C 0.8647(9) 0.6804(8) -0.0251(7) 0.0337(16) Uani 1 1 d .
H3 H 0.8629 0.7166 -0.1007 0.040 Uiso 1 1 calc R
C4 C 0.7475(9) 0.5464(8) -0.0119(6) 0.0320(15) Uani 1 1 d .
H4 H 0.6665 0.4929 -0.0803 0.038 Uiso 1 1 calc R
C5 C 0.8603(7) 0.5682(7) 0.1883(6) 0.0207(13) Uani 1 1 d .
C6 C 0.6346(7) 0.3819(7) 0.3159(6) 0.0241(14) Uani 1 1 d .
H6A H 0.5638 0.4405 0.3553 0.029 Uiso 1 1 calc R
H6B H 0.5806 0.3588 0.2303 0.029 Uiso 1 1 calc R
C7 C 0.6456(7) 0.2299(7) 0.3701(6) 0.0226(13) Uani 1 1 d .
H7A H 0.5287 0.1627 0.3565 0.027 Uiso 1 1 calc R
H7B H 0.6892 0.2546 0.4569 0.027 Uiso 1 1 calc R
C8 C 0.6926(7) 0.0764(7) 0.1868(5) 0.0165(12) Uani 1 1 d .
H8A H 0.7779 0.0259 0.1571 0.020 Uiso 1 1 calc R
H8B H 0.6766 0.1658 0.1408 0.020 Uiso 1 1 calc R
C9 C 0.5181(7) -0.0449(7) 0.1668(6) 0.0213(13) Uani 1 1 d .
H9A H 0.4298 0.0085 0.1890 0.026 Uiso 1 1 calc R
H9B H 0.4803 -0.0852 0.0815 0.026 Uiso 1 1 calc R
C10 C 0.5321(7) -0.1841(7) 0.2402(6) 0.0218(13) Uani 1 1 d .
H10A H 0.4165 -0.2522 0.2317 0.026 Uiso 1 1 calc R
H10B H 0.6062 -0.2478 0.2095 0.026 Uiso 1 1 calc R
C11 C 0.6082(7) -0.1260(7) 0.3722(6) 0.0227(13) Uani 1 1 d .
H11A H 0.6289 -0.2166 0.4155 0.027 Uiso 1 1 calc R
H11B H 0.5244 -0.0783 0.4063 0.027 Uiso 1 1 calc R
C12 C 0.7799(7) -0.0027(7) 0.3890(6) 0.0198(13) Uani 1 1 d .
H12A H 0.8217 0.0354 0.4744 0.024 Uiso 1 1 calc R
H12B H 0.8671 -0.0543 0.3630 0.024 Uiso 1 1 calc R
loop_
_atom_site_aniso_label
_atom_site_aniso_U_11
_atom_site_aniso_U_22
_atom_site_aniso_U_33
_atom_site_aniso_U_23
_atom_site_aniso_U_13
_atom_site_aniso_U_12
Pd1 0.0095(2) 0.0141(2) 0.0132(3) 0.00110(16) 0.00171(16) -0.00001(15)
S1 0.0153(6) 0.0165(7) 0.0181(9) 0.0002(5) 0.0042(6) 0.0020(5)
N1 0.015(2) 0.012(2) 0.016(3) 0.0005(18) 0.0020(19) 0.0006(17)
Cl1 0.0158(6) 0.0189(7) 0.0228(9) 0.0044(5) 0.0058(6) 0.0032(5)
Cl2 0.0124(6) 0.0187(7) 0.0269(9) -0.0008(6) 0.0035(5) -0.0021(5)
N2 0.029(3) 0.019(3) 0.021(3) -0.003(2) -0.006(2) 0.005(2)
C1 0.027(3) 0.022(3) 0.021(4) 0.002(2) 0.004(3) 0.004(2)
C2 0.032(3) 0.021(3) 0.034(4) 0.006(3) 0.005(3) 0.005(3)
C3 0.048(4) 0.031(4) 0.027(4) 0.006(3) 0.009(3) 0.019(3)
C4 0.050(4) 0.028(3) 0.018(4) 0.000(3) 0.000(3) 0.014(3)
C5 0.020(3) 0.018(3) 0.027(4) -0.001(2) 0.005(2) 0.010(2)
C6 0.012(2) 0.022(3) 0.038(4) -0.004(3) 0.007(3) 0.002(2)
C7 0.015(3) 0.019(3) 0.032(4) -0.002(2) 0.006(3) 0.001(2)
C8 0.016(2) 0.023(3) 0.008(3) 0.003(2) 0.005(2) -0.003(2)
C9 0.018(3) 0.028(3) 0.013(4) -0.002(2) 0.002(2) -0.003(2)
C10 0.017(3) 0.018(3) 0.026(4) -0.003(2) 0.003(2) -0.004(2)
C11 0.022(3) 0.018(3) 0.027(4) 0.004(2) 0.007(3) -0.001(2)
C12 0.017(3) 0.021(3) 0.017(4) 0.002(2) -0.003(2) -0.001(2)
loop_
_atom_type_symbol
_atom_type_description
_atom_type_scat_dispersion_real
_atom_type_scat_dispersion_imag
_atom_type_scat_source
C C 0.0033 0.0016 'International Tables Vol C Tables 4.2.6.8 and 6.1.1.4'
H H 0.0000 0.0000 'International Tables Vol C Tables 4.2.6.8 and 6.1.1.4'
N N 0.0061 0.0033 'International Tables Vol C Tables 4.2.6.8 and 6.1.1.4'
S S 0.1246 0.1234 'International Tables Vol C Tables 4.2.6.8 and 6.1.1.4'
Cl Cl 0.1484 0.1585 'International Tables Vol C Tables 4.2.6.8 and 6.1.1.4'
Pd Pd -0.9988 1.0072 'International Tables Vol C Tables 4.2.6.8 and 6.1.1.4'
loop_
_geom_angle_atom_site_label_1
_geom_angle_atom_site_label_2
_geom_angle_atom_site_label_3
_geom_angle
N1 Pd1 S1 87.79(12)
N1 Pd1 Cl2 173.89(12)
S1 Pd1 Cl2 86.56(5)
N1 Pd1 Cl1 94.89(12)
S1 Pd1 Cl1 172.58(5)
Cl2 Pd1 Cl1 91.01(5)
C5 S1 C6 102.4(3)
C5 S1 Pd1 102.18(18)
C6 S1 Pd1 98.96(19)
C7 N1 C12 108.9(4)
C7 N1 C8 113.0(4)
C12 N1 C8 108.2(4)
C7 N1 Pd1 106.8(3)
C12 N1 Pd1 112.4(3)
C8 N1 Pd1 107.7(3)
C5 N2 C4 115.0(5)
C5 C1 C2 115.8(6)
C5 C1 H1 122.1
C2 C1 H1 122.1
C3 C2 C1 119.8(6)
C3 C2 H2 120.1
C1 C2 H2 120.1
C2 C3 C4 119.0(7)
C2 C3 H3 120.5
C4 C3 H3 120.5
N2 C4 C3 123.6(6)
N2 C4 H4 118.2
C3 C4 H4 118.2
N2 C5 C1 126.7(6)
N2 C5 S1 117.8(4)
C1 C5 S1 115.5(5)
C7 C6 S1 107.7(4)
C7 C6 H6A 110.2
S1 C6 H6A 110.2
C7 C6 H6B 110.2
S1 C6 H6B 110.2
H6A C6 H6B 108.5
C6 C7 N1 113.1(5)
C6 C7 H7A 109.0
N1 C7 H7A 109.0
C6 C7 H7B 109.0
N1 C7 H7B 109.0
H7A C7 H7B 107.8
N1 C8 C9 111.7(4)
N1 C8 H8A 109.3
C9 C8 H8A 109.3
N1 C8 H8B 109.3
C9 C8 H8B 109.3
H8A C8 H8B 107.9
C10 C9 C8 112.0(5)
C10 C9 H9A 109.2
C8 C9 H9A 109.2
C10 C9 H9B 109.2
C8 C9 H9B 109.2
H9A C9 H9B 107.9
C11 C10 C9 111.0(5)
C11 C10 H10A 109.4
C9 C10 H10A 109.4
C11 C10 H10B 109.4
C9 C10 H10B 109.4
H10A C10 H10B 108.0
C10 C11 C12 111.4(5)
C10 C11 H11A 109.3
C12 C11 H11A 109.3
C10 C11 H11B 109.3
C12 C11 H11B 109.3
H11A C11 H11B 108.0
N1 C12 C11 113.0(4)
N1 C12 H12A 109.0
C11 C12 H12A 109.0
N1 C12 H12B 109.0
C11 C12 H12B 109.0
H12A C12 H12B 107.8
loop_
_geom_bond_atom_site_label_1
_geom_bond_atom_site_label_2
_geom_bond_distance
Pd1 N1 2.094(4)
Pd1 S1 2.2619(14)
Pd1 Cl2 2.2951(13)
Pd1 Cl1 2.3248(14)
S1 C5 1.822(7)
S1 C6 1.823(5)
N1 C7 1.490(7)
N1 C12 1.503(7)
N1 C8 1.514(7)
N2 C5 1.313(8)
N2 C4 1.354(8)
C1 C5 1.372(8)
C1 C2 1.399(9)
C1 H1 0.9300
C2 C3 1.349(9)
C2 H2 0.9300
C3 C4 1.366(10)
C3 H3 0.9300
C4 H4 0.9300
C6 C7 1.487(8)
C6 H6A 0.9700
C6 H6B 0.9700
C7 H7A 0.9700
C7 H7B 0.9700
C8 C9 1.528(7)
C8 H8A 0.9700
C8 H8B 0.9700
C9 C10 1.509(8)
C9 H9A 0.9700
C9 H9B 0.9700
C10 C11 1.508(9)
C10 H10A 0.9700
C10 H10B 0.9700
C11 C12 1.523(7)
C11 H11A 0.9700
C11 H11B 0.9700
C12 H12A 0.9700
C12 H12B 0.9700
loop_
_geom_torsion_atom_site_label_1
_geom_torsion_atom_site_label_2
_geom_torsion_atom_site_label_3
_geom_torsion_atom_site_label_4
_geom_torsion
N1 Pd1 S1 C5 -107.9(2)
Cl2 Pd1 S1 C5 74.43(19)
N1 Pd1 S1 C6 -3.0(3)
Cl2 Pd1 S1 C6 179.3(2)
S1 Pd1 N1 C7 -23.7(4)
Cl1 Pd1 N1 C7 163.2(3)
S1 Pd1 N1 C12 -143.1(4)
Cl1 Pd1 N1 C12 43.8(4)
S1 Pd1 N1 C8 97.8(3)
Cl1 Pd1 N1 C8 -75.2(3)
C5 C1 C2 C3 -0.2(9)
C1 C2 C3 C4 0.1(10)
C5 N2 C4 C3 0.1(9)
C2 C3 C4 N2 0.0(10)
C4 N2 C5 C1 -0.2(9)
C4 N2 C5 S1 177.7(4)
C2 C1 C5 N2 0.3(9)
C2 C1 C5 S1 -177.7(4)
C6 S1 C5 N2 -20.7(5)
Pd1 S1 C5 N2 81.4(4)
C6 S1 C5 C1 157.4(4)
Pd1 S1 C5 C1 -100.4(4)
C5 S1 C6 C7 134.5(5)
Pd1 S1 C6 C7 29.8(5)
S1 C6 C7 N1 -56.0(6)
C12 N1 C7 C6 174.0(5)
C8 N1 C7 C6 -65.8(6)
Pd1 N1 C7 C6 52.4(6)
C7 N1 C8 C9 -63.6(6)
C12 N1 C8 C9 57.0(6)
Pd1 N1 C8 C9 178.7(4)
N1 C8 C9 C10 -56.5(6)
C8 C9 C10 C11 53.1(6)
C9 C10 C11 C12 -52.2(6)
C7 N1 C12 C11 65.8(6)
C8 N1 C12 C11 -57.3(6)
Pd1 N1 C12 C11 -176.0(4)
C10 C11 C12 N1 56.0(7)
