#------------------------------------------------------------------------------
#$Date: 2016-02-18 17:37:37 +0200 (Thu, 18 Feb 2016) $
#$Revision: 176729 $
#$URL: svn://www.crystallography.net/cod/cif/1/51/35/1513586.cif $
#------------------------------------------------------------------------------
#
# This file is available in the Crystallography Open Database (COD),
# http://www.crystallography.net/
#
# All data on this site have been placed in the public domain by the
# contributors.
#
data_1513586
loop_
_publ_author_name
'Mukherjee, Arijit'
'Desiraju, Gautam R.'
_publ_section_title
;
 Halogen bonds in some dihalogenated phenols: applications to crystal
 engineering
;
_journal_issue                   1
_journal_name_full               IUCrJ
_journal_page_first              49
_journal_page_last               60
_journal_paper_doi               10.1107/S2052252513025657
_journal_volume                  1
_journal_year                    2014
_chemical_formula_moiety         'C6 H4 Cl I O'
_chemical_formula_sum            'C6 H4 Cl I O'
_chemical_formula_weight         254.44
_chemical_name_common            4-chloro-3-iodophenol
_space_group_IT_number           14
_symmetry_cell_setting           monoclinic
_symmetry_space_group_name_Hall  '-P 2ybc'
_symmetry_space_group_name_H-M   'P 1 21/c 1'
_atom_sites_solution_hydrogens   geom
_atom_sites_solution_primary     direct
_atom_sites_solution_secondary   difmap
_audit_creation_method           SHELXL-97
_cell_angle_alpha                90.00
_cell_angle_beta                 106.74(2)
_cell_angle_gamma                90.00
_cell_formula_units_Z            4
_cell_length_a                   11.26(2)
_cell_length_b                   4.321(8)
_cell_length_c                   15.88(3)
_cell_measurement_reflns_used    1957
_cell_measurement_temperature    296(2)
_cell_measurement_theta_max      27.5
_cell_measurement_theta_min      2.0
_cell_volume                     740(2)
_computing_cell_refinement       CrystalClear
_computing_data_collection       'CrystalClear (Rigaku, 2009)'
_computing_data_reduction        CrystalClear
_computing_structure_refinement  'SHELXL-97 (Sheldrick, 2008)'
_computing_structure_solution    'SHELXL-97 (Sheldrick, 2008)'
_diffrn_ambient_temperature      296(2)
_diffrn_measured_fraction_theta_full 0.992
_diffrn_measured_fraction_theta_max 0.992
_diffrn_radiation_monochromator  graphite
_diffrn_radiation_source         'fine-focus sealed tube'
_diffrn_radiation_type           MoK\a
_diffrn_radiation_wavelength     0.71073
_diffrn_reflns_av_R_equivalents  0.0797
_diffrn_reflns_av_sigmaI/netI    0.0525
_diffrn_reflns_limit_h_max       14
_diffrn_reflns_limit_h_min       -14
_diffrn_reflns_limit_k_max       5
_diffrn_reflns_limit_k_min       -5
_diffrn_reflns_limit_l_max       20
_diffrn_reflns_limit_l_min       -20
_diffrn_reflns_number            7380
_diffrn_reflns_theta_full        27.58
_diffrn_reflns_theta_max         27.58
_diffrn_reflns_theta_min         1.89
_exptl_absorpt_coefficient_mu    4.600
_exptl_absorpt_correction_T_max  1.000
_exptl_absorpt_correction_T_min  0.696
_exptl_absorpt_correction_type   multi-scan
_exptl_absorpt_process_details   'Jacobson, R. (1998) Private communication'
_exptl_crystal_colour            colourless
_exptl_crystal_density_diffrn    2.283
_exptl_crystal_density_method    'not measured'
_exptl_crystal_description       needle
_exptl_crystal_F_000             472
_exptl_crystal_size_max          0.4
_exptl_crystal_size_mid          0.2
_exptl_crystal_size_min          0.1
_refine_diff_density_max         0.752
_refine_diff_density_min         -1.247
_refine_diff_density_rms         0.188
_refine_ls_extinction_method     none
_refine_ls_goodness_of_fit_ref   0.999
_refine_ls_hydrogen_treatment    constr
_refine_ls_matrix_type           full
_refine_ls_number_parameters     83
_refine_ls_number_reflns         1716
_refine_ls_number_restraints     0
_refine_ls_restrained_S_all      0.999
_refine_ls_R_factor_all          0.0487
_refine_ls_R_factor_gt           0.0385
_refine_ls_shift/su_max          0.000
_refine_ls_shift/su_mean         0.000
_refine_ls_structure_factor_coef Fsqd
_refine_ls_weighting_details
'calc w=1/[\s^2^(Fo^2^)+(0.0677P)^2^] where P=(Fo^2^+2Fc^2^)/3'
_refine_ls_weighting_scheme      calc
_refine_ls_wR_factor_gt          0.0969
_refine_ls_wR_factor_ref         0.1238
_reflns_number_gt                1288
_reflns_number_total             1716
_reflns_threshold_expression     >2\s(I)
_cod_data_source_file            bi5001sup1.cif
_cod_data_source_block           4_296K
_cod_original_cell_volume        740(3)
_cod_original_sg_symbol_H-M      'P 21/c'
_cod_database_code               1513586
#BEGIN Tags that were not found in dictionaries:
_publcif_datablock.id            {1b5c35f0-3557-404e-9e44-e0e317885c2a}
#END Tags that were not found in dictionaries
loop_
_symmetry_equiv_pos_as_xyz
'x, y, z'
'-x, y+1/2, -z+1/2'
'-x, -y, -z'
'x, -y-1/2, z-1/2'
loop_
_atom_site_label
_atom_site_type_symbol
_atom_site_fract_x
_atom_site_fract_y
_atom_site_fract_z
_atom_site_U_iso_or_equiv
_atom_site_adp_type
_atom_site_occupancy
_atom_site_symmetry_multiplicity
_atom_site_calc_flag
_atom_site_refinement_flags
C1 C 0.3379(4) 0.5103(10) -0.2215(3) 0.0363(10) Uani 1 1 d .
C2 C 0.3576(4) 0.3890(10) -0.1383(3) 0.0360(9) Uani 1 1 d .
H2 H 0.4290 0.2761 -0.1122 0.043 Uiso 1 1 calc R
C3 C 0.2698(4) 0.4370(10) -0.0938(3) 0.0364(10) Uani 1 1 d .
C4 C 0.1633(4) 0.6029(12) -0.1338(3) 0.0392(10) Uani 1 1 d .
C5 C 0.1457(5) 0.7251(10) -0.2166(4) 0.0438(12) Uani 1 1 d .
H5 H 0.0748 0.8399 -0.2426 0.053 Uiso 1 1 calc R
C6 C 0.2328(5) 0.6781(12) -0.2611(3) 0.0427(11) Uani 1 1 d .
H6 H 0.2206 0.7588 -0.3173 0.051 Uiso 1 1 calc R
O1 O 0.4243(3) 0.4726(8) -0.2671(2) 0.0469(8) Uani 1 1 d .
H1O H 0.4764 0.3454 -0.2417 0.070 Uiso 1 1 calc R
Cl1 Cl 0.04978(13) 0.6648(4) -0.08293(11) 0.0618(4) Uani 1 1 d .
I1 I 0.30863(3) 0.25728(7) 0.03353(2) 0.04773(19) Uani 1 1 d .
loop_
_atom_site_aniso_label
_atom_site_aniso_U_11
_atom_site_aniso_U_22
_atom_site_aniso_U_33
_atom_site_aniso_U_23
_atom_site_aniso_U_13
_atom_site_aniso_U_12
C1 0.041(2) 0.035(2) 0.036(2) -0.0055(18) 0.016(2) -0.0050(18)
C2 0.036(2) 0.037(2) 0.035(2) -0.0032(19) 0.0094(19) -0.0014(19)
C3 0.042(2) 0.040(3) 0.027(2) -0.0021(17) 0.0092(18) -0.0095(19)
C4 0.036(2) 0.048(3) 0.037(2) -0.006(2) 0.015(2) -0.008(2)
C5 0.034(3) 0.050(3) 0.045(3) 0.004(2) 0.008(2) 0.0033(19)
C6 0.046(3) 0.050(3) 0.032(2) 0.001(2) 0.010(2) -0.002(2)
O1 0.052(2) 0.052(2) 0.046(2) 0.0007(15) 0.0272(17) 0.0029(16)
Cl1 0.0437(7) 0.0940(11) 0.0553(9) -0.0064(8) 0.0262(7) 0.0008(7)
I1 0.0646(3) 0.0498(3) 0.0299(3) 0.00291(11) 0.0153(2) -0.00526(14)
loop_
_atom_type_symbol
_atom_type_description
_atom_type_scat_dispersion_real
_atom_type_scat_dispersion_imag
_atom_type_scat_source
C C 0.0033 0.0016 'International Tables Vol C Tables 4.2.6.8 and 6.1.1.4'
H H 0.0000 0.0000 'International Tables Vol C Tables 4.2.6.8 and 6.1.1.4'
O O 0.0106 0.0060 'International Tables Vol C Tables 4.2.6.8 and 6.1.1.4'
Cl Cl 0.1484 0.1585 'International Tables Vol C Tables 4.2.6.8 and 6.1.1.4'
I I -0.4742 1.8119 'International Tables Vol C Tables 4.2.6.8 and 6.1.1.4'
loop_
_geom_angle_atom_site_label_1
_geom_angle_atom_site_label_2
_geom_angle_atom_site_label_3
_geom_angle
C6 C1 O1 117.8(4)
C6 C1 C2 121.2(4)
O1 C1 C2 121.0(4)
C1 C2 C3 119.3(4)
C4 C3 C2 119.7(4)
C4 C3 I1 123.2(3)
C2 C3 I1 117.1(4)
C5 C4 C3 120.3(4)
C5 C4 Cl1 117.8(4)
C3 C4 Cl1 121.9(4)
C4 C5 C6 120.3(5)
C1 C6 C5 119.2(5)
loop_
_geom_bond_atom_site_label_1
_geom_bond_atom_site_label_2
_geom_bond_distance
C1 C6 1.376(7)
C1 O1 1.380(5)
C1 C2 1.380(6)
C2 C3 1.385(6)
C3 C4 1.384(7)
C3 I1 2.092(6)
C4 C5 1.377(8)
C4 Cl1 1.719(5)
C5 C6 1.380(8)
