#------------------------------------------------------------------------------
#$Date: 2016-02-18 17:37:37 +0200 (Thu, 18 Feb 2016) $
#$Revision: 176729 $
#$URL: svn://www.crystallography.net/cod/cif/1/51/35/1513583.cif $
#------------------------------------------------------------------------------
#
# This file is available in the Crystallography Open Database (COD),
# http://www.crystallography.net/
#
# All data on this site have been placed in the public domain by the
# contributors.
#
data_1513583
loop_
_publ_author_name
'Mukherjee, Arijit'
'Desiraju, Gautam R.'
_publ_section_title
;
 Halogen bonds in some dihalogenated phenols: applications to crystal
 engineering
;
_journal_issue                   1
_journal_name_full               IUCrJ
_journal_page_first              49
_journal_page_last               60
_journal_paper_doi               10.1107/S2052252513025657
_journal_volume                  1
_journal_year                    2014
_chemical_formula_moiety         'C6 H4 Br Cl O'
_chemical_formula_sum            'C6 H4 Br Cl O'
_chemical_formula_weight         207.45
_chemical_name_common            3-bromo-4-chlorophenol
_space_group_IT_number           14
_symmetry_cell_setting           monoclinic
_symmetry_space_group_name_Hall  '-P 2ybc'
_symmetry_space_group_name_H-M   'P 1 21/c 1'
_atom_sites_solution_hydrogens   geom
_atom_sites_solution_primary     direct
_atom_sites_solution_secondary   difmap
_audit_creation_method           SHELXL-97
_cell_angle_alpha                90.00
_cell_angle_beta                 108.905(8)
_cell_angle_gamma                90.00
_cell_formula_units_Z            4
_cell_length_a                   11.457(3)
_cell_length_b                   4.1113(9)
_cell_length_c                   15.233(4)
_cell_measurement_reflns_used    5633
_cell_measurement_temperature    150(2)
_cell_measurement_theta_max      27.5
_cell_measurement_theta_min      3.6
_cell_volume                     678.8(3)
_computing_cell_refinement       CrystalClear
_computing_data_collection       'CrystalClear (Rigaku, 2009)'
_computing_data_reduction        CrystalClear
_computing_structure_refinement  'SHELXL-97 (Sheldrick, 2008)'
_computing_structure_solution    'SHELXL-97 (Sheldrick, 2008)'
_diffrn_ambient_temperature      150(2)
_diffrn_detector                 CCD
_diffrn_detector_area_resol_mean 13.6612
_diffrn_measured_fraction_theta_full 0.997
_diffrn_measured_fraction_theta_max 0.997
_diffrn_measurement_device
;
XtaLABmini: Fixed Chi 2 circle
;
_diffrn_measurement_device_type
;
Rigaku Mercury375R (2x2 bin mode)
;
_diffrn_measurement_specimen_support Fiber
_diffrn_radiation_monochromator  'Graphite Monochromator'
_diffrn_radiation_source         'fine-focus sealed tube'
_diffrn_radiation_type           MoK\a
_diffrn_radiation_wavelength     0.71073
_diffrn_reflns_av_R_equivalents  0.0623
_diffrn_reflns_av_sigmaI/netI    0.0513
_diffrn_reflns_limit_h_max       14
_diffrn_reflns_limit_h_min       -14
_diffrn_reflns_limit_k_max       5
_diffrn_reflns_limit_k_min       -5
_diffrn_reflns_limit_l_max       19
_diffrn_reflns_limit_l_min       -19
_diffrn_reflns_number            6341
_diffrn_reflns_theta_full        27.48
_diffrn_reflns_theta_max         27.48
_diffrn_reflns_theta_min         3.76
_exptl_absorpt_coefficient_mu    6.353
_exptl_absorpt_correction_T_max  1.000
_exptl_absorpt_correction_T_min  0.424
_exptl_absorpt_correction_type   multi-scan
_exptl_absorpt_process_details   'Jacobson, R. (1998) Private communication'
_exptl_crystal_colour            colourless
_exptl_crystal_density_diffrn    2.030
_exptl_crystal_density_method    'not measured'
_exptl_crystal_description       needle
_exptl_crystal_F_000             400
_exptl_crystal_size_max          0.3
_exptl_crystal_size_mid          0.2
_exptl_crystal_size_min          0.1
_refine_diff_density_max         0.536
_refine_diff_density_min         -0.864
_refine_diff_density_rms         0.113
_refine_ls_extinction_method     none
_refine_ls_goodness_of_fit_ref   1.083
_refine_ls_hydrogen_treatment    mixed
_refine_ls_matrix_type           full
_refine_ls_number_parameters     86
_refine_ls_number_reflns         1557
_refine_ls_number_restraints     0
_refine_ls_restrained_S_all      1.083
_refine_ls_R_factor_all          0.0460
_refine_ls_R_factor_gt           0.0360
_refine_ls_shift/su_max          0.000
_refine_ls_shift/su_mean         0.000
_refine_ls_structure_factor_coef Fsqd
_refine_ls_weighting_details
'calc w=1/[\s^2^(Fo^2^)+(0.0363P)^2^+0.1682P] where P=(Fo^2^+2Fc^2^)/3'
_refine_ls_weighting_scheme      calc
_refine_ls_wR_factor_gt          0.0842
_refine_ls_wR_factor_ref         0.0891
_reflns_number_gt                1316
_reflns_number_total             1557
_reflns_threshold_expression     >2\s(I)
_cod_data_source_file            bi5001sup1.cif
_cod_data_source_block           3
_cod_original_sg_symbol_H-M      'P 21/c'
_cod_database_code               1513583
#BEGIN Tags that were not found in dictionaries:
_publcif_datablock.id            {9fe5ff1f-6a0b-488e-8904-3e5bfb2862a2}
#END Tags that were not found in dictionaries
loop_
_symmetry_equiv_pos_as_xyz
'x, y, z'
'-x, y+1/2, -z+1/2'
'-x, -y, -z'
'x, -y-1/2, z-1/2'
loop_
_atom_site_label
_atom_site_type_symbol
_atom_site_fract_x
_atom_site_fract_y
_atom_site_fract_z
_atom_site_U_iso_or_equiv
_atom_site_adp_type
_atom_site_occupancy
_atom_site_symmetry_multiplicity
_atom_site_calc_flag
_atom_site_refinement_flags
C1 C 0.3393(3) -0.0149(8) -0.2213(2) 0.0240(7) Uani 1 1 d .
C2 C 0.3634(3) 0.1048(8) -0.1324(2) 0.0245(7) Uani 1 1 d .
H2 H 0.4360 0.2184 -0.1036 0.029 Uiso 1 1 calc R
C3 C 0.2786(3) 0.0539(8) -0.0865(2) 0.0237(7) Uani 1 1 d .
C4 C 0.1713(3) -0.1177(8) -0.1290(2) 0.0262(7) Uani 1 1 d .
C5 C 0.1483(3) -0.2368(7) -0.2187(3) 0.0276(8) Uani 1 1 d .
H5 H 0.0761 -0.3512 -0.2477 0.033 Uiso 1 1 calc R
C6 C 0.2327(3) -0.1849(8) -0.2642(2) 0.0264(8) Uani 1 1 d .
H6 H 0.2177 -0.2649 -0.3240 0.032 Uiso 1 1 calc R
O1 O 0.4218(2) 0.0260(6) -0.26856(16) 0.0286(5) Uani 1 1 d .
Cl1 Cl 0.06210(9) -0.1853(2) -0.07456(7) 0.0360(2) Uani 1 1 d .
Br1 Br 0.31546(3) 0.22009(8) 0.03487(2) 0.03044(15) Uani 1 1 d .
H1O H 0.467(4) 0.181(10) -0.252(3) 0.040(13) Uiso 1 1 d .
loop_
_atom_site_aniso_label
_atom_site_aniso_U_11
_atom_site_aniso_U_22
_atom_site_aniso_U_33
_atom_site_aniso_U_23
_atom_site_aniso_U_13
_atom_site_aniso_U_12
C1 0.0306(17) 0.0224(16) 0.0219(16) 0.0037(13) 0.0125(14) 0.0043(13)
C2 0.0229(17) 0.0259(16) 0.0225(17) 0.0007(13) 0.0041(14) 0.0026(14)
C3 0.0264(17) 0.0241(16) 0.0206(15) 0.0019(13) 0.0078(14) 0.0063(13)
C4 0.0255(18) 0.0287(17) 0.0273(18) 0.0040(14) 0.0129(15) 0.0039(14)
C5 0.0230(18) 0.0282(17) 0.029(2) -0.0020(13) 0.0044(16) -0.0007(13)
C6 0.0299(19) 0.0293(17) 0.0202(17) -0.0008(13) 0.0083(16) 0.0036(14)
O1 0.0286(14) 0.0346(14) 0.0275(12) 0.0001(11) 0.0160(11) -0.0015(11)
Cl1 0.0287(5) 0.0494(6) 0.0355(5) 0.0049(4) 0.0181(4) 0.0015(4)
Br1 0.0356(3) 0.0357(2) 0.0205(2) -0.00179(13) 0.00976(17) 0.00441(14)
loop_
_atom_type_symbol
_atom_type_description
_atom_type_scat_dispersion_real
_atom_type_scat_dispersion_imag
_atom_type_scat_source
C C 0.0033 0.0016 'International Tables Vol C Tables 4.2.6.8 and 6.1.1.4'
H H 0.0000 0.0000 'International Tables Vol C Tables 4.2.6.8 and 6.1.1.4'
O O 0.0106 0.0060 'International Tables Vol C Tables 4.2.6.8 and 6.1.1.4'
Cl Cl 0.1484 0.1585 'International Tables Vol C Tables 4.2.6.8 and 6.1.1.4'
Br Br -0.2901 2.4595 'International Tables Vol C Tables 4.2.6.8 and 6.1.1.4'
loop_
_geom_angle_atom_site_label_1
_geom_angle_atom_site_label_2
_geom_angle_atom_site_label_3
_geom_angle
O1 C1 C6 118.0(3)
O1 C1 C2 121.2(3)
C6 C1 C2 120.8(3)
C1 C2 C3 119.3(3)
C1 C2 H2 120.3
C3 C2 H2 120.3
C4 C3 C2 120.3(3)
C4 C3 Br1 121.8(2)
C2 C3 Br1 117.9(2)
C3 C4 C5 119.7(3)
C3 C4 Cl1 121.8(3)
C5 C4 Cl1 118.4(3)
C6 C5 C4 119.9(3)
C6 C5 H5 120.1
C4 C5 H5 120.1
C1 C6 C5 120.0(3)
C1 C6 H6 120.0
C5 C6 H6 120.0
C1 O1 H1O 115(3)
loop_
_geom_bond_atom_site_label_1
_geom_bond_atom_site_label_2
_geom_bond_distance
C1 O1 1.372(4)
C1 C6 1.375(5)
C1 C2 1.382(4)
C2 C3 1.384(4)
C2 H2 0.9300
C3 C4 1.382(4)
C3 Br1 1.887(3)
C4 C5 1.393(5)
C4 Cl1 1.733(3)
C5 C6 1.377(5)
C5 H5 0.9300
C6 H6 0.9300
O1 H1O 0.81(4)
