#------------------------------------------------------------------------------
#$Date: 2016-02-18 17:37:37 +0200 (Thu, 18 Feb 2016) $
#$Revision: 176729 $
#$URL: svn://www.crystallography.net/cod/cif/1/51/35/1513585.cif $
#------------------------------------------------------------------------------
#
# This file is available in the Crystallography Open Database (COD),
# http://www.crystallography.net/
#
# All data on this site have been placed in the public domain by the
# contributors.
#
data_1513585
loop_
_publ_author_name
'Mukherjee, Arijit'
'Desiraju, Gautam R.'
_publ_section_title
;
 Halogen bonds in some dihalogenated phenols: applications to crystal
 engineering
;
_journal_issue                   1
_journal_name_full               IUCrJ
_journal_page_first              49
_journal_page_last               60
_journal_paper_doi               10.1107/S2052252513025657
_journal_volume                  1
_journal_year                    2014
_chemical_formula_moiety         'C6 H4 Cl I O'
_chemical_formula_sum            'C6 H4 Cl I O'
_chemical_formula_weight         254.44
_chemical_name_common            4-chloro-3-iodophenol
_space_group_IT_number           14
_symmetry_cell_setting           monoclinic
_symmetry_space_group_name_Hall  '-P 2ybc'
_symmetry_space_group_name_H-M   'P 1 21/c 1'
_atom_sites_solution_hydrogens   geom
_atom_sites_solution_primary     direct
_atom_sites_solution_secondary   difmap
_audit_creation_method           SHELXL-97
_cell_angle_alpha                90.00
_cell_angle_beta                 107.016(18)
_cell_angle_gamma                90.00
_cell_formula_units_Z            4
_cell_length_a                   11.242(18)
_cell_length_b                   4.286(7)
_cell_length_c                   15.87(2)
_cell_measurement_reflns_used    2056
_cell_measurement_temperature    200(2)
_cell_measurement_theta_max      27.5
_cell_measurement_theta_min      2.6
_cell_volume                     731.2(19)
_computing_cell_refinement       CrystalClear
_computing_data_collection       'CrystalClear (Rigaku, 2009)'
_computing_data_reduction        CrystalClear
_computing_structure_refinement  'SHELXL-97 (Sheldrick, 2008)'
_computing_structure_solution    'SHELXL-97 (Sheldrick, 2008)'
_diffrn_ambient_temperature      200(2)
_diffrn_measured_fraction_theta_full 0.997
_diffrn_measured_fraction_theta_max 0.997
_diffrn_radiation_monochromator  graphite
_diffrn_radiation_source         'fine-focus sealed tube'
_diffrn_radiation_type           MoK\a
_diffrn_radiation_wavelength     0.71073
_diffrn_reflns_av_R_equivalents  0.0868
_diffrn_reflns_av_sigmaI/netI    0.0607
_diffrn_reflns_limit_h_max       14
_diffrn_reflns_limit_h_min       -14
_diffrn_reflns_limit_k_max       5
_diffrn_reflns_limit_k_min       -5
_diffrn_reflns_limit_l_max       20
_diffrn_reflns_limit_l_min       -20
_diffrn_reflns_number            7302
_diffrn_reflns_theta_full        27.54
_diffrn_reflns_theta_max         27.54
_diffrn_reflns_theta_min         1.89
_exptl_absorpt_coefficient_mu    4.656
_exptl_absorpt_correction_T_max  1.000
_exptl_absorpt_correction_T_min  0.691
_exptl_absorpt_correction_type   multi-scan
_exptl_absorpt_process_details   'Jacobson, R. (1998) Private communication'
_exptl_crystal_colour            colourless
_exptl_crystal_density_diffrn    2.311
_exptl_crystal_density_method    'not measured'
_exptl_crystal_description       needle
_exptl_crystal_F_000             472
_exptl_crystal_size_max          0.4
_exptl_crystal_size_mid          0.2
_exptl_crystal_size_min          0.1
_refine_diff_density_max         0.840
_refine_diff_density_min         -1.141
_refine_diff_density_rms         0.172
_refine_ls_extinction_method     none
_refine_ls_goodness_of_fit_ref   1.035
_refine_ls_hydrogen_treatment    constr
_refine_ls_matrix_type           full
_refine_ls_number_parameters     83
_refine_ls_number_reflns         1694
_refine_ls_number_restraints     0
_refine_ls_restrained_S_all      1.035
_refine_ls_R_factor_all          0.0403
_refine_ls_R_factor_gt           0.0333
_refine_ls_shift/su_max          0.000
_refine_ls_shift/su_mean         0.000
_refine_ls_structure_factor_coef Fsqd
_refine_ls_weighting_details
'calc w=1/[\s^2^(Fo^2^)+(0.0563P)^2^+0.0000P] where P=(Fo^2^+2Fc^2^)/3'
_refine_ls_weighting_scheme      calc
_refine_ls_wR_factor_gt          0.0819
_refine_ls_wR_factor_ref         0.1126
_reflns_number_gt                1348
_reflns_number_total             1694
_reflns_threshold_expression     >2\s(I)
_cod_data_source_file            bi5001sup1.cif
_cod_data_source_block           4_200K
_cod_original_cell_volume        731(2)
_cod_original_sg_symbol_H-M      'P 21/c'
_cod_database_code               1513585
#BEGIN Tags that were not found in dictionaries:
_publcif_datablock.id            {83f64cf4-c506-4e9f-8518-63732350b994}
#END Tags that were not found in dictionaries
loop_
_symmetry_equiv_pos_as_xyz
'x, y, z'
'-x, y+1/2, -z+1/2'
'-x, -y, -z'
'x, -y-1/2, z-1/2'
loop_
_atom_site_label
_atom_site_type_symbol
_atom_site_fract_x
_atom_site_fract_y
_atom_site_fract_z
_atom_site_U_iso_or_equiv
_atom_site_adp_type
_atom_site_occupancy
_atom_site_symmetry_multiplicity
_atom_site_calc_flag
_atom_site_refinement_flags
C1 C 0.3375(4) 0.5104(10) -0.2217(3) 0.0260(9) Uani 1 1 d .
C2 C 0.3574(4) 0.3888(10) -0.1383(3) 0.0252(9) Uani 1 1 d .
H2 H 0.4292 0.2750 -0.1122 0.030 Uiso 1 1 calc R
C3 C 0.2700(4) 0.4367(10) -0.0935(3) 0.0257(9) Uani 1 1 d .
C4 C 0.1630(4) 0.6041(11) -0.1337(3) 0.0275(9) Uani 1 1 d .
C5 C 0.1449(5) 0.7276(9) -0.2166(4) 0.0317(11) Uani 1 1 d .
H5 H 0.0737 0.8437 -0.2424 0.038 Uiso 1 1 calc R
C6 C 0.2318(5) 0.6805(11) -0.2619(3) 0.0303(10) Uani 1 1 d .
H6 H 0.2191 0.7617 -0.3182 0.036 Uiso 1 1 calc R
O1 O 0.4239(3) 0.4721(7) -0.2676(2) 0.0331(7) Uani 1 1 d .
H1O H 0.4669 0.3183 -0.2488 0.050 Uiso 1 1 calc R
Cl1 Cl 0.04922(12) 0.6667(4) -0.08245(9) 0.0436(3) Uani 1 1 d .
I1 I 0.30915(3) 0.25670(6) 0.03422(2) 0.03309(17) Uani 1 1 d .
loop_
_atom_site_aniso_label
_atom_site_aniso_U_11
_atom_site_aniso_U_22
_atom_site_aniso_U_33
_atom_site_aniso_U_23
_atom_site_aniso_U_13
_atom_site_aniso_U_12
C1 0.028(2) 0.026(2) 0.026(2) -0.0048(17) 0.0112(18) -0.0046(17)
C2 0.024(2) 0.026(2) 0.025(2) -0.0036(17) 0.0059(17) -0.0008(17)
C3 0.029(2) 0.028(2) 0.019(2) -0.0019(16) 0.0047(17) -0.0063(17)
C4 0.024(2) 0.035(2) 0.026(2) -0.0053(18) 0.0108(18) -0.0048(18)
C5 0.023(2) 0.039(3) 0.031(3) 0.0027(18) 0.004(2) 0.0030(17)
C6 0.032(2) 0.036(2) 0.023(2) 0.0005(19) 0.007(2) -0.0024(19)
O1 0.0371(17) 0.0349(19) 0.0334(18) 0.0008(14) 0.0198(15) 0.0023(14)
Cl1 0.0305(6) 0.0670(9) 0.0386(7) -0.0044(6) 0.0183(6) 0.0004(6)
I1 0.0446(3) 0.0348(3) 0.0205(2) 0.00214(10) 0.01058(18) -0.00332(12)
loop_
_atom_type_symbol
_atom_type_description
_atom_type_scat_dispersion_real
_atom_type_scat_dispersion_imag
_atom_type_scat_source
C C 0.0033 0.0016 'International Tables Vol C Tables 4.2.6.8 and 6.1.1.4'
H H 0.0000 0.0000 'International Tables Vol C Tables 4.2.6.8 and 6.1.1.4'
O O 0.0106 0.0060 'International Tables Vol C Tables 4.2.6.8 and 6.1.1.4'
Cl Cl 0.1484 0.1585 'International Tables Vol C Tables 4.2.6.8 and 6.1.1.4'
I I -0.4742 1.8119 'International Tables Vol C Tables 4.2.6.8 and 6.1.1.4'
loop_
_geom_angle_atom_site_label_1
_geom_angle_atom_site_label_2
_geom_angle_atom_site_label_3
_geom_angle
C2 C1 C6 121.3(4)
C2 C1 O1 121.2(4)
C6 C1 O1 117.5(4)
C1 C2 C3 119.7(4)
C4 C3 C2 119.4(4)
C4 C3 I1 123.1(3)
C2 C3 I1 117.5(3)
C5 C4 C3 120.3(4)
C5 C4 Cl1 117.9(4)
C3 C4 Cl1 121.8(4)
C4 C5 C6 120.7(4)
C1 C6 C5 118.6(5)
loop_
_geom_bond_atom_site_label_1
_geom_bond_atom_site_label_2
_geom_bond_distance
C1 C2 1.379(6)
C1 C6 1.381(6)
C1 O1 1.385(5)
C2 C3 1.387(6)
C3 C4 1.386(6)
C3 I1 2.091(5)
C4 C5 1.376(7)
C4 Cl1 1.726(5)
C5 C6 1.388(8)
