#------------------------------------------------------------------------------
#$Date: 2016-02-18 17:37:37 +0200 (Thu, 18 Feb 2016) $
#$Revision: 176729 $
#$URL: svn://www.crystallography.net/cod/cif/1/51/35/1513517.cif $
#------------------------------------------------------------------------------
#
# This file is available in the Crystallography Open Database (COD),
# http://www.crystallography.net/
#
# All data on this site have been placed in the public domain by the
# contributors.
#
data_1513517
loop_
_publ_author_name
'Lan, Ping'
'Banwell, Martin G.'
'Ward, Jas S.'
'Willis, Anthony C.'
_publ_section_title
;
 Chemoenzymatic total synthesis and reassignment of the absolute
 configuration of ribisin C.
;
_journal_issue                   1
_journal_name_full               'Organic letters'
_journal_page_first              228
_journal_page_last               231
_journal_paper_doi               10.1021/ol403220t
_journal_volume                  16
_journal_year                    2014
_chemical_absolute_configuration syn
_chemical_compound_source        'Research School of Chemistry'
_chemical_formula_moiety         'C14 H14 O5'
_chemical_formula_sum            'C14 H14 O5'
_chemical_formula_weight         262.26
_space_group_IT_number           4
_symmetry_cell_setting           monoclinic
_symmetry_space_group_name_Hall  'P 2yb'
_symmetry_space_group_name_H-M   'P 1 21 1'
_atom_sites_solution_hydrogens   difmap
_atom_sites_solution_primary     other
_audit_creation_date             13-09-08
_audit_creation_method           CRYSTALS_ver_14.23
_cell_angle_alpha                90
_cell_angle_beta                 107.731(4)
_cell_angle_gamma                90
_cell_formula_units_Z            2
_cell_length_a                   10.1746(8)
_cell_length_b                   4.7518(4)
_cell_length_c                   13.9532(10)
_cell_measurement_reflns_used    22049
_cell_measurement_temperature    200
_cell_measurement_theta_max      25
_cell_measurement_theta_min      2.55
_cell_volume                     642.56(9)
_computing_cell_refinement       'DENZO/SCALEPACK (Otwinowski & Minor, 1997)'
_computing_data_collection       'COLLECT (Nonius, 2001).'
_computing_data_reduction        'DENZO/SCALEPACK (Otwinowski & Minor, 1997)'
_computing_molecular_graphics    'Ortep-3 for windows (Farrugia, 1997)'
_computing_publication_material  'CRYSTALS (Betteridge et al., 2003)'
_computing_structure_refinement  'CRYSTALS (Betteridge et al., 2003)'
_computing_structure_solution    'Superflip (Palatinus & Chapuis, 2007)'
_diffrn_ambient_temperature      200
_diffrn_measured_fraction_theta_full 0.995
_diffrn_measured_fraction_theta_max 0.995
_diffrn_measurement_device       Area
_diffrn_measurement_device_type  'Nonius KappaCCD'
_diffrn_measurement_method       \w
_diffrn_radiation_monochromator  graphite
_diffrn_radiation_type           'Mo K\a'
_diffrn_radiation_wavelength     0.71073
_diffrn_reflns_av_R_equivalents  0.106
_diffrn_reflns_limit_h_max       12
_diffrn_reflns_limit_h_min       -12
_diffrn_reflns_limit_k_max       5
_diffrn_reflns_limit_k_min       -5
_diffrn_reflns_limit_l_max       16
_diffrn_reflns_limit_l_min       -16
_diffrn_reflns_number            10459
_diffrn_reflns_theta_full        25.098
_diffrn_reflns_theta_max         25.098
_diffrn_reflns_theta_min         2.955
_diffrn_standards_number         0
_exptl_absorpt_coefficient_mu    0.103
_exptl_absorpt_correction_T_max  0.997
_exptl_absorpt_correction_T_min  0.960
_exptl_absorpt_correction_type   integration
_exptl_absorpt_process_details
;
Gaussian integration (Coppens, 1970)
;
_exptl_crystal_colour            colourless
_exptl_crystal_density_diffrn    1.355
_exptl_crystal_density_method    'not measured'
_exptl_crystal_description       lath
_exptl_crystal_F_000             276
_exptl_crystal_size_max          0.730
_exptl_crystal_size_mid          0.080
_exptl_crystal_size_min          0.040
_refine_diff_density_max         0.19
_refine_diff_density_min         -0.20
_refine_ls_abs_structure_details
;
The enantiomer has been assigned by reference to an unchanging chiral
centre in the synthetic procedure.
;
_refine_ls_extinction_coef       300(50)
_refine_ls_extinction_method     'Larson (1970), Equation 22'
_refine_ls_goodness_of_fit_ref   1.0113
_refine_ls_hydrogen_treatment    constr
_refine_ls_matrix_type           full
_refine_ls_number_parameters     173
_refine_ls_number_reflns         1293
_refine_ls_number_restraints     1
_refine_ls_R_factor_all          0.0474
_refine_ls_R_factor_gt           0.0372
_refine_ls_shift/su_max          0.0000809
_refine_ls_shift/su_mean         0.0000123
_refine_ls_structure_factor_coef Fsqd
_refine_ls_weighting_details
;
 Method= Modified Sheldrick 
 w=1/[\s^2^(F^2^) + ( 0.06P)^2^ + 0.07P] 
 ,where P=(max(Fo^2^,0) + 2Fc^2^)/3 
;
_refine_ls_weighting_scheme      calc
_refine_ls_wR_factor_all         0.1004
_refine_ls_wR_factor_gt          0.0923
_refine_ls_wR_factor_ref         0.1004
_reflns_limit_h_max              11
_reflns_limit_h_min              -12
_reflns_limit_k_max              5
_reflns_limit_k_min              0
_reflns_limit_l_max              16
_reflns_limit_l_min              0
_reflns_number_gt                1085
_reflns_number_total             1294
_reflns_threshold_expression     I>2.0\s(I)
_oxford_diffrn_Wilson_B_factor   4.46
_oxford_diffrn_Wilson_scale      0.50
_oxford_refine_ls_r_factor_ref   0.0474
_oxford_refine_ls_scale          1.55(2)
_oxford_reflns_number_all        1293
_oxford_reflns_threshold_expression_ref I>-10.0\s(I)
_oxford_structure_analysis_title 'LPK11K2 At 10:11 on 8/ 9'
_cod_data_source_file            ol403220t_si_002.cif
_cod_data_source_block           LPK11K2
_cod_depositor_comments
;
The following automatic conversions were performed:

'_atom_sites_solution_primary' value 'Other' changed to 'other'
according to
/usr/data/users/saulius/automatic-downloads/current/ACS/lib/dictionaries/cif_core.dic
dictionary named 'cif_core.dic' version 2.4.2 from 2011-04-26.

Automatic conversion script
Id: cif_fix_values 2281 2013-09-26 08:29:07Z andrius 
;
_cod_original_sg_symbol_H-M      'P 21 '
_cod_database_code               1513517
#BEGIN Tags that were not found in dictionaries:
_iucr_refine_instruction_details_constraints
;
BLOCK SCALE X'S, U'S 
CONT EXTPARAM 
RIDE O   (  10,X'S) H   ( 101,X'S) 
RIDE C   (   3,X'S) H   (  31,X'S) 
RIDE C   (   5,X'S) H   (  52,X'S) H   (  51,X'S) H   (  53,X'S) 
RIDE C   (   6,X'S) H   (  61,X'S) 
RIDE C   (   8,X'S) H   (  81,X'S) H   (  82,X'S) H   (  83,X'S) 
RIDE C   (   9,X'S) H   (  91,X'S) 
RIDE C   (  14,X'S) H   ( 141,X'S) 
RIDE C   (  15,X'S) H   ( 151,X'S) 
RIDE C   (  16,X'S) H   ( 161,X'S) 
RIDE C   (  17,X'S) H   ( 171,X'S) 
END                                                                             
;
_iucr_refine_instruction_details_restraints
;
NO 
REM   HREST   START (DO NOT REMOVE THIS LINE) 
REM   HREST   END (DO NOT REMOVE THIS LINE) 
END                                                                             
;
#END Tags that were not found in dictionaries
loop_
_symmetry_equiv_pos_as_xyz
x,y,z
-x,y+1/2,-z
loop_
_atom_site_label
_atom_site_type_symbol
_atom_site_fract_x
_atom_site_fract_y
_atom_site_fract_z
_atom_site_U_iso_or_equiv
_atom_site_occupancy
_atom_site_adp_type
_atom_site_refinement_flags_posn
O1 O -0.1773(2) 0.4237(5) 0.34230(14) 0.0688 1.0000 Uani .
O4 O -0.3565(2) 0.7377(5) 0.19433(16) 0.0706 1.0000 Uani .
O7 O -0.2492(2) 1.0418(7) 0.06241(17) 0.0866 1.0000 Uani .
O10 O 0.0151(2) 0.8372(5) 0.04881(12) 0.0613 1.0000 Uani .
O12 O 0.19072(19) 0.6202(5) 0.22611(13) 0.0573 1.0000 Uani .
C2 C -0.1299(3) 0.5663(7) 0.28809(19) 0.0545 1.0000 Uani .
C3 C -0.2136(3) 0.7932(7) 0.2178(2) 0.0586 1.0000 Uani .
C5 C -0.4233(3) 0.9064(10) 0.2486(3) 0.0847 1.0000 Uani .
C6 C -0.1766(3) 0.8142(7) 0.1195(2) 0.0590 1.0000 Uani .
C8 C -0.3495(4) 0.9621(16) -0.0292(3) 0.1236 1.0000 Uani .
C9 C -0.0241(3) 0.8722(6) 0.13764(18) 0.0528 1.0000 Uani .
C11 C 0.0559(3) 0.6750(6) 0.21662(19) 0.0504 1.0000 Uani .
C13 C 0.2333(3) 0.4313(7) 0.30561(19) 0.0561 1.0000 Uani .
C14 C 0.3630(3) 0.3134(7) 0.3395(2) 0.0646 1.0000 Uani .
C15 C 0.3843(4) 0.1243(8) 0.4182(2) 0.0709 1.0000 Uani .
C16 C 0.2803(4) 0.0625(8) 0.4606(2) 0.0691 1.0000 Uani .
C17 C 0.1514(3) 0.1823(7) 0.4257(2) 0.0620 1.0000 Uani .
C18 C 0.1273(3) 0.3724(7) 0.34550(17) 0.0528 1.0000 Uani .
C19 C 0.0115(3) 0.5385(6) 0.28560(18) 0.0510 1.0000 Uani .
H31 H -0.1928 0.9767 0.2512 0.0666 1.0000 Uiso R
H51 H -0.4158 1.1020 0.2332 0.1271 1.0000 Uiso R
H52 H -0.5208 0.8530 0.2297 0.1265 1.0000 Uiso R
H53 H -0.3814 0.8822 0.3207 0.1268 1.0000 Uiso R
H61 H -0.2022 0.6382 0.0828 0.0686 1.0000 Uiso R
H81 H -0.3939 1.1254 -0.0634 0.1489 1.0000 Uiso R
H82 H -0.4159 0.8426 -0.0148 0.1489 1.0000 Uiso R
H83 H -0.3055 0.8647 -0.0705 0.1489 1.0000 Uiso R
H91 H -0.0006 1.0686 0.1625 0.0600 1.0000 Uiso R
H101 H -0.0041 0.9943 0.0187 0.0922 1.0000 Uiso R
H141 H 0.4315 0.3611 0.3107 0.0759 1.0000 Uiso R
H151 H 0.4700 0.0387 0.4439 0.0835 1.0000 Uiso R
H161 H 0.2999 -0.0660 0.5153 0.0824 1.0000 Uiso R
H171 H 0.0803 0.1410 0.4531 0.0724 1.0000 Uiso R
loop_
_atom_site_aniso_label
_atom_site_aniso_U_11
_atom_site_aniso_U_22
_atom_site_aniso_U_33
_atom_site_aniso_U_23
_atom_site_aniso_U_13
_atom_site_aniso_U_12
O1 0.0822(13) 0.0686(15) 0.0644(12) 0.0020(12) 0.0355(10) -0.0074(13)
O4 0.0639(12) 0.0756(16) 0.0742(13) -0.0142(13) 0.0239(10) -0.0009(12)
O7 0.0929(16) 0.0897(18) 0.0749(15) 0.0227(15) 0.0223(12) 0.0290(16)
O10 0.0935(14) 0.0488(12) 0.0501(10) 0.0021(10) 0.0344(9) 0.0071(11)
O12 0.0666(12) 0.0562(13) 0.0536(10) 0.0027(10) 0.0252(9) 0.0029(10)
C2 0.0714(17) 0.0510(17) 0.0443(13) -0.0092(14) 0.0226(12) -0.0045(15)
C3 0.0628(17) 0.0545(18) 0.0621(16) -0.0084(15) 0.0243(13) 0.0002(15)
C5 0.076(2) 0.095(3) 0.096(2) -0.019(3) 0.0473(18) -0.003(2)
C6 0.0749(19) 0.0512(17) 0.0505(14) 0.0005(14) 0.0184(13) 0.0086(16)
C8 0.088(2) 0.196(7) 0.077(2) 0.044(4) 0.0095(19) 0.025(4)
C9 0.0744(17) 0.0432(15) 0.0457(13) -0.0013(13) 0.0257(12) 0.0027(14)
C11 0.0660(17) 0.0435(15) 0.0447(13) -0.0057(12) 0.0216(12) -0.0001(14)
C13 0.0727(18) 0.0500(16) 0.0445(13) -0.0024(13) 0.0165(12) 0.0018(15)
C14 0.0680(18) 0.064(2) 0.0613(16) -0.0054(17) 0.0193(14) 0.0032(17)
C15 0.083(2) 0.066(2) 0.0564(17) -0.0029(17) 0.0105(15) 0.0110(19)
C16 0.091(2) 0.063(2) 0.0490(15) 0.0028(16) 0.0135(15) 0.0065(19)
C17 0.081(2) 0.0588(19) 0.0455(14) -0.0013(14) 0.0181(13) -0.0054(17)
C18 0.0720(17) 0.0478(17) 0.0395(12) -0.0053(13) 0.0181(12) -0.0018(14)
C19 0.0671(17) 0.0450(14) 0.0419(12) -0.0046(12) 0.0180(12) -0.0041(14)
loop_
_atom_type_symbol
_atom_type_scat_dispersion_real
_atom_type_scat_dispersion_imag
_atom_type_scat_Cromer_Mann_a1
_atom_type_scat_Cromer_Mann_b1
_atom_type_scat_Cromer_Mann_a2
_atom_type_scat_Cromer_Mann_b2
_atom_type_scat_Cromer_Mann_a3
_atom_type_scat_Cromer_Mann_b3
_atom_type_scat_Cromer_Mann_a4
_atom_type_scat_Cromer_Mann_b4
_atom_type_scat_Cromer_Mann_c
_atom_type_scat_source
C 0.0033 0.0016 2.3100 20.8439 1.0200 10.2075 1.5886 0.5687 0.8650 51.6512
0.2156 'International Tables Vol C 4.2.6.8 and 6.1.1.4'
H 0.0000 0.0000 0.4930 10.5109 0.3229 26.1257 0.1402 3.1424 0.0408 57.7998
0.0030 'International Tables Vol C 4.2.6.8 and 6.1.1.4'
O 0.0106 0.0060 3.0485 13.2771 2.2868 5.7011 1.5463 0.3239 0.8670 32.9089
0.2508 'International Tables Vol C 4.2.6.8 and 6.1.1.4'
loop_
_exptl_crystal_face_index_h
_exptl_crystal_face_index_k
_exptl_crystal_face_index_l
_exptl_crystal_face_perp_dist
1 0 0 0.020
-1 0 0 0.015
0 0 1 0.030
0 0 -1 0.045
-1 3 0 0.345
0 -1 4 0.241
1 -6 0 0.392
loop_
_geom_angle_atom_site_label_1
_geom_angle_atom_site_label_2
_geom_angle_atom_site_label_3
_geom_angle
_geom_angle_publ_flag
C3 O4 C5 113.5(2) yes
C6 O7 C8 114.3(4) yes
C9 O10 H101 104.2 no
C11 O12 C13 105.1(2) yes
O1 C2 C3 122.8(3) yes
O1 C2 C19 123.0(3) yes
C3 C2 C19 114.2(3) yes
C2 C3 O4 110.4(2) yes
C2 C3 C6 112.3(2) yes
O4 C3 C6 108.7(2) yes
C2 C3 H31 109.0 no
O4 C3 H31 109.5 no
C6 C3 H31 106.9 no
O4 C5 H51 110.1 no
O4 C5 H52 108.7 no
H51 C5 H52 109.4 no
O4 C5 H53 110.9 no
H51 C5 H53 107.8 no
H52 C5 H53 109.7 no
C3 C6 O7 109.1(2) yes
C3 C6 C9 112.3(2) yes
O7 C6 C9 106.7(3) yes
C3 C6 H61 108.4 no
O7 C6 H61 110.5 no
C9 C6 H61 109.8 no
O7 C8 H81 109.6 no
O7 C8 H82 109.3 no
H81 C8 H82 109.5 no
O7 C8 H83 109.5 no
H81 C8 H83 109.5 no
H82 C8 H83 109.5 no
C6 C9 O10 112.1(2) yes
C6 C9 C11 108.1(2) yes
O10 C9 C11 109.7(2) yes
C6 C9 H91 110.6 no
O10 C9 H91 108.1 no
C11 C9 H91 108.2 no
C9 C11 O12 120.0(2) yes
C9 C11 C19 127.3(2) yes
O12 C11 C19 112.7(2) yes
O12 C13 C14 124.7(3) yes
O12 C13 C18 111.1(3) yes
C14 C13 C18 124.2(3) yes
C13 C14 C15 116.0(3) yes
C13 C14 H141 121.1 no
C15 C14 H141 122.9 no
C14 C15 C16 121.3(3) yes
C14 C15 H151 119.5 no
C16 C15 H151 119.2 no
C15 C16 C17 121.9(3) yes
C15 C16 H161 118.5 no
C17 C16 H161 119.7 no
C16 C17 C18 117.8(3) yes
C16 C17 H171 122.7 no
C18 C17 H171 119.5 no
C17 C18 C13 118.9(3) yes
C17 C18 C19 136.4(3) yes
C13 C18 C19 104.7(2) yes
C2 C19 C18 132.1(3) yes
C2 C19 C11 121.5(3) yes
C18 C19 C11 106.4(2) yes
loop_
_geom_bond_atom_site_label_1
_geom_bond_atom_site_label_2
_geom_bond_distance
_geom_bond_publ_flag
O1 C2 1.219(3) yes
O4 C3 1.415(3) yes
O4 C5 1.411(4) yes
O7 C6 1.411(4) yes
O7 C8 1.423(5) yes
O10 C9 1.422(3) yes
O10 H101 0.849 no
O12 C11 1.362(3) yes
O12 C13 1.390(3) yes
C2 C3 1.530(4) yes
C2 C19 1.456(4) yes
C3 C6 1.532(4) yes
C3 H31 0.981 no
C5 H51 0.962 no
C5 H52 0.979 no
C5 H53 0.972 no
C6 C9 1.520(4) yes
C6 H61 0.974 no
C8 H81 0.950 no
C8 H82 0.950 no
C8 H83 0.950 no
C9 C11 1.486(4) yes
C9 H91 0.999 no
C11 C19 1.348(4) yes
C13 C14 1.378(4) yes
C13 C18 1.385(4) yes
C14 C15 1.383(5) yes
C14 H141 0.933 no
C15 C16 1.392(5) yes
C15 H151 0.929 no
C16 C17 1.375(5) yes
C16 H161 0.950 no
C17 C18 1.400(4) yes
C17 H171 0.937 no
C18 C19 1.452(4) yes
loop_
_geom_hbond_atom_site_label_D
_geom_hbond_atom_site_label_H
_geom_hbond_atom_site_label_A
_geom_hbond_site_symmetry_A
_geom_hbond_angle_DHA
_geom_hbond_distance_DH
_geom_hbond_distance_HA
_geom_hbond_distance_DA
_geom_hbond_publ_flag
C3 H31 O1 1_565 170.19(8) 0.981 2.456 3.426(5) yes
O10 H101 O10 2_555 170.10(12) 0.849 1.868 2.709(5) yes
#BEGIN Loops that were not found in dictionaries:
loop_
_oxford_refln_omitted_index_h
_oxford_refln_omitted_index_k
_oxford_refln_omitted_index_l
_oxford_refln_omitted_flag
6 1 11 x
#END Loops that were not found in dictionaries
