#------------------------------------------------------------------------------
#$Date: 2016-02-18 17:37:37 +0200 (Thu, 18 Feb 2016) $
#$Revision: 176729 $
#$URL: svn://www.crystallography.net/cod/cif/1/51/35/1513584.cif $
#------------------------------------------------------------------------------
#
# This file is available in the Crystallography Open Database (COD),
# http://www.crystallography.net/
#
# All data on this site have been placed in the public domain by the
# contributors.
#
data_1513584
loop_
_publ_author_name
'Mukherjee, Arijit'
'Desiraju, Gautam R.'
_publ_section_title
;
 Halogen bonds in some dihalogenated phenols: applications to crystal
 engineering
;
_journal_issue                   1
_journal_name_full               IUCrJ
_journal_page_first              49
_journal_page_last               60
_journal_paper_doi               10.1107/S2052252513025657
_journal_volume                  1
_journal_year                    2014
_chemical_formula_moiety         'C6 H4 Cl I O'
_chemical_formula_sum            'C6 H4 Cl I O'
_chemical_formula_weight         254.44
_chemical_name_common            4-chloro-3-iodophenol
_space_group_IT_number           14
_symmetry_cell_setting           monoclinic
_symmetry_space_group_name_Hall  '-P 2ybc'
_symmetry_space_group_name_H-M   'P 1 21/c 1'
_atom_sites_solution_hydrogens   geom
_atom_sites_solution_primary     direct
_atom_sites_solution_secondary   difmap
_audit_creation_method           SHELXL-97
_cell_angle_alpha                90.00
_cell_angle_beta                 106.933(19)
_cell_angle_gamma                90.00
_cell_formula_units_Z            4
_cell_length_a                   11.222(18)
_cell_length_b                   4.263(7)
_cell_length_c                   15.81(3)
_cell_measurement_reflns_used    1946
_cell_measurement_temperature    150(2)
_cell_measurement_theta_max      27.5
_cell_measurement_theta_min      2.6
_cell_volume                     724(2)
_computing_cell_refinement       CrystalClear
_computing_data_collection       'CrystalClear (Rigaku, 2009)'
_computing_data_reduction        CrystalClear
_computing_structure_refinement  'SHELXL-97 (Sheldrick, 2008)'
_computing_structure_solution    'SHELXL-97 (Sheldrick, 2008)'
_diffrn_ambient_temperature      150(2)
_diffrn_detector                 CCD
_diffrn_detector_area_resol_mean 13.6612
_diffrn_measured_fraction_theta_full 0.986
_diffrn_measured_fraction_theta_max 0.986
_diffrn_measurement_device
;
XtaLABmini: Fixed Chi 2 circle
;
_diffrn_measurement_device_type
;
Rigaku Mercury375R (2x2 bin mode)
;
_diffrn_measurement_specimen_support Fiber
_diffrn_radiation_monochromator  'Graphite Monochromator'
_diffrn_radiation_source         'fine-focus sealed tube'
_diffrn_radiation_type           MoK\a
_diffrn_radiation_wavelength     0.71073
_diffrn_reflns_av_R_equivalents  0.0911
_diffrn_reflns_av_sigmaI/netI    0.0602
_diffrn_reflns_limit_h_max       14
_diffrn_reflns_limit_h_min       -14
_diffrn_reflns_limit_k_max       5
_diffrn_reflns_limit_k_min       -5
_diffrn_reflns_limit_l_max       20
_diffrn_reflns_limit_l_min       -20
_diffrn_reflns_number            7191
_diffrn_reflns_theta_full        27.58
_diffrn_reflns_theta_max         27.58
_diffrn_reflns_theta_min         1.90
_exptl_absorpt_coefficient_mu    4.707
_exptl_absorpt_correction_T_max  1.000
_exptl_absorpt_correction_T_min  0.714
_exptl_absorpt_correction_type   multi-scan
_exptl_absorpt_process_details   'Jacobson, R. (1998) Private communication'
_exptl_crystal_colour            colourless
_exptl_crystal_density_diffrn    2.336
_exptl_crystal_density_method    'not measured'
_exptl_crystal_description       needle
_exptl_crystal_F_000             472
_exptl_crystal_size_max          0.4
_exptl_crystal_size_mid          0.2
_exptl_crystal_size_min          0.1
_refine_diff_density_max         0.991
_refine_diff_density_min         -1.069
_refine_diff_density_rms         0.174
_refine_ls_extinction_method     none
_refine_ls_goodness_of_fit_ref   1.042
_refine_ls_hydrogen_treatment    constr
_refine_ls_matrix_type           full
_refine_ls_number_parameters     83
_refine_ls_number_reflns         1667
_refine_ls_number_restraints     0
_refine_ls_restrained_S_all      1.042
_refine_ls_R_factor_all          0.0363
_refine_ls_R_factor_gt           0.0305
_refine_ls_shift/su_max          0.001
_refine_ls_shift/su_mean         0.000
_refine_ls_structure_factor_coef Fsqd
_refine_ls_weighting_details
'calc w=1/[\s^2^(Fo^2^)+(0.0521P)^2^] where P=(Fo^2^+2Fc^2^)/3'
_refine_ls_weighting_scheme      calc
_refine_ls_wR_factor_gt          0.0750
_refine_ls_wR_factor_ref         0.1095
_reflns_number_gt                1364
_reflns_number_total             1667
_reflns_threshold_expression     >2\s(I)
_cod_data_source_file            bi5001sup1.cif
_cod_data_source_block           4_150K
_cod_original_cell_volume        723(2)
_cod_original_sg_symbol_H-M      'P 21/c'
_cod_database_code               1513584
#BEGIN Tags that were not found in dictionaries:
_publcif_datablock.id            {c7a81966-60f0-4a5d-9e0c-e98f489cdfbd}
#END Tags that were not found in dictionaries
loop_
_symmetry_equiv_pos_as_xyz
'x, y, z'
'-x, y+1/2, -z+1/2'
'-x, -y, -z'
'x, -y-1/2, z-1/2'
loop_
_atom_site_label
_atom_site_type_symbol
_atom_site_fract_x
_atom_site_fract_y
_atom_site_fract_z
_atom_site_U_iso_or_equiv
_atom_site_adp_type
_atom_site_occupancy
_atom_site_symmetry_multiplicity
_atom_site_calc_flag
_atom_site_refinement_flags
C1 C 0.6626(4) 0.5108(10) 0.7218(3) 0.0194(9) Uani 1 1 d .
C2 C 0.6428(4) 0.3884(10) 0.6383(3) 0.0193(9) Uani 1 1 d .
H2 H 0.5710 0.2738 0.6121 0.023 Uiso 1 1 calc R
C3 C 0.7301(4) 0.4366(10) 0.5934(3) 0.0192(9) Uani 1 1 d .
C4 C 0.8374(4) 0.6053(11) 0.6336(3) 0.0209(9) Uani 1 1 d .
C5 C 0.8557(5) 0.7298(9) 0.7172(4) 0.0232(11) Uani 1 1 d .
H5 H 0.9271 0.8463 0.7431 0.028 Uiso 1 1 calc R
C6 C 0.7694(5) 0.6828(11) 0.7623(3) 0.0233(10) Uani 1 1 d .
H6 H 0.7821 0.7644 0.8188 0.028 Uiso 1 1 calc R
O1 O 0.5761(3) 0.4720(7) 0.7679(2) 0.0244(7) Uani 1 1 d .
H1O H 0.5355 0.3124 0.7507 0.037 Uiso 1 1 calc R
Cl1 Cl 0.95124(11) 0.6680(3) 0.58216(9) 0.0328(3) Uani 1 1 d .
I1 I 0.69048(3) 0.25625(6) 0.465297(19) 0.02397(16) Uani 1 1 d .
loop_
_atom_site_aniso_label
_atom_site_aniso_U_11
_atom_site_aniso_U_22
_atom_site_aniso_U_33
_atom_site_aniso_U_23
_atom_site_aniso_U_13
_atom_site_aniso_U_12
C1 0.0203(19) 0.020(2) 0.018(2) 0.0043(16) 0.0071(18) 0.0035(17)
C2 0.019(2) 0.019(2) 0.018(2) 0.0021(17) 0.0031(18) -0.0009(17)
C3 0.023(2) 0.021(2) 0.012(2) 0.0020(16) 0.0037(17) 0.0052(17)
C4 0.019(2) 0.025(2) 0.020(2) 0.0035(18) 0.0078(18) 0.0044(18)
C5 0.017(2) 0.028(3) 0.023(3) -0.0024(17) 0.003(2) -0.0019(16)
C6 0.027(2) 0.027(2) 0.016(2) 0.0003(19) 0.006(2) 0.003(2)
O1 0.0274(16) 0.0263(18) 0.0237(17) 0.0000(13) 0.0140(14) -0.0013(14)
Cl1 0.0234(6) 0.0505(8) 0.0284(7) 0.0033(6) 0.0137(5) -0.0002(6)
I1 0.0325(3) 0.0250(2) 0.0148(2) -0.00155(9) 0.00750(18) 0.00237(11)
loop_
_atom_type_symbol
_atom_type_description
_atom_type_scat_dispersion_real
_atom_type_scat_dispersion_imag
_atom_type_scat_source
C C 0.0033 0.0016 'International Tables Vol C Tables 4.2.6.8 and 6.1.1.4'
H H 0.0000 0.0000 'International Tables Vol C Tables 4.2.6.8 and 6.1.1.4'
O O 0.0106 0.0060 'International Tables Vol C Tables 4.2.6.8 and 6.1.1.4'
Cl Cl 0.1484 0.1585 'International Tables Vol C Tables 4.2.6.8 and 6.1.1.4'
I I -0.4742 1.8119 'International Tables Vol C Tables 4.2.6.8 and 6.1.1.4'
loop_
_geom_angle_atom_site_label_1
_geom_angle_atom_site_label_2
_geom_angle_atom_site_label_3
_geom_angle
C2 C1 O1 121.2(4)
C2 C1 C6 121.2(4)
O1 C1 C6 117.6(4)
C1 C2 C3 119.7(4)
C2 C3 C4 119.5(4)
C2 C3 I1 117.4(3)
C4 C3 I1 123.1(3)
C5 C4 C3 120.2(4)
C5 C4 Cl1 117.8(4)
C3 C4 Cl1 121.9(4)
C6 C5 C4 120.6(5)
C5 C6 C1 118.7(5)
loop_
_geom_bond_atom_site_label_1
_geom_bond_atom_site_label_2
_geom_bond_distance
C1 C2 1.377(6)
C1 O1 1.383(5)
C1 C6 1.391(7)
C2 C3 1.382(6)
C3 C4 1.387(6)
C3 I1 2.090(5)
C4 C5 1.383(7)
C4 Cl1 1.723(5)
C5 C6 1.375(8)
