#------------------------------------------------------------------------------
#$Date: 2016-02-14 16:26:36 +0200 (Sun, 14 Feb 2016) $
#$Revision: 176435 $
#$URL: svn://www.crystallography.net/cod/cif/1/51/46/1514631.cif $
#------------------------------------------------------------------------------
#
# This file is available in the Crystallography Open Database (COD),
# http://www.crystallography.net/
#
# All data on this site have been placed in the public domain by the
# contributors.
#
data_1514631
loop_
_publ_author_name
'Bu\<car, Dejan-Kre\<simir'
'Day, Graeme M.'
'Halasz, Ivan'
'Zhang, Geoff G. Z.'
'Sander, John R. G.'
'Reid, David G.'
'MacGillivray, Leonard R.'
'Duer, Melinda J.'
'Jones, William'
_publ_section_title
;
 The curious case of (caffeine)&#x00B7;(benzoic acid): how heteronuclear
 seeding allowed the formation of an elusive cocrystal
;
_journal_issue                   12
_journal_name_full               'Chemical Science'
_journal_page_first              4417
_journal_paper_doi               10.1039/c3sc51419f
_journal_volume                  4
_journal_year                    2013
_chemical_formula_moiety         'C8 H10 N4 O2, C7 H5 F1 O2'
_chemical_formula_sum            'C15 H15 F N4 O4'
_chemical_formula_weight         334.31
_space_group_IT_number           2
_symmetry_cell_setting           triclinic
_symmetry_space_group_name_Hall  '-P 1'
_symmetry_space_group_name_H-M   'P -1'
_cell_angle_alpha                105.8710(58)
_cell_angle_beta                 72.7172(63)
_cell_angle_gamma                71.1516(63)
_cell_formula_units_Z            2
_cell_length_a                   8.78113(87)
_cell_length_b                   10.06607(56)
_cell_length_c                   10.5609(14)
_cell_measurement_temperature    293
_cell_volume                     769.83(16)
_computing_cell_refinement       'TOPAS (Bruker 2009)'
_computing_data_collection       'X'Pert Data Collector (Panalytical)'
_computing_structure_refinement  'TOPAS (Bruker 2009)'
_computing_structure_solution    'TOPAS (Bruker 2009)'
_diffrn_ambient_temperature      293
_diffrn_detector_type            'X'Celerator RTMS'
_diffrn_measurement_device_type  'Panalytical X'pert PRO'
_diffrn_radiation_monochromator  none
_diffrn_radiation_type           'Cu K\a'
_diffrn_radiation_wavelength     1.5418
_diffrn_source                   'sealed X-ray tube'
_diffrn_source_target            Cu
_exptl_crystal_colour            white
_exptl_crystal_density_diffrn    1.442
_exptl_crystal_description       'microcrystaline powder'
_pd_char_colour                  white
_pd_meas_2theta_range_inc        0.033
_pd_meas_2theta_range_max        60
_pd_meas_2theta_range_min        3
_pd_meas_number_of_points        1726
_pd_meas_scan_method             cont
_pd_prep_temperature             293
_pd_proc_ls_background_function  'Chebyshev polynomial'
_pd_proc_ls_pref_orient_corr     'Spherical harmonics, 4th order'
_pd_proc_ls_profile_function     'Fundamental parameters'
_pd_proc_ls_prof_R_factor        0.059
_pd_proc_ls_prof_wR_expected     1.03
_pd_proc_ls_prof_wR_factor       0.078
_pd_spec_mounting                'packed powder pellet'
_pd_spec_mount_mode              reflection
_pd_spec_shape                   flat_sheet
_pd_spec_size_axial              14
_pd_spec_size_equat              10
_pd_spec_size_thick              0.5
_refine_ls_goodness_of_fit_all   7.53
_refine_ls_hydrogen_treatment    refall
_refine_ls_matrix_type           full
_refine_ls_number_parameters     167
_refine_ls_R_Fsqd_factor         0.021
_refine_ls_shift/su_max          <0.01
_refine_ls_structure_factor_coef Fsqd
_refine_ls_weighting_scheme      calc
_cod_data_source_file            c3sc51419f.txt
_cod_data_source_block           caf-3FBA
_cod_original_sg_symbol_H-M      P-1
_cod_original_formula_sum        'C15 H15 F1 N4 O4'
_cod_database_code               1514631
loop_
_symmetry_equiv_pos_as_xyz
'-x, -y, -z'
'x, y, z'
loop_
_atom_site_label
_atom_site_type_symbol
_atom_site_symmetry_multiplicity
_atom_site_fract_x
_atom_site_fract_y
_atom_site_fract_z
_atom_site_occupancy
_atom_site_B_iso_or_equiv
C1 C 2 0.27285(30) -0.23651(67) 0.06279(31) 1 5.51(25)
C2 C 2 0.40003(37) -0.33127(62) -0.08613(24) 1 5.51(25)
C3 C 2 0.58843(37) -0.40793(77) -0.12638(29) 1 5.51(25)
N1 N 2 0.63475(35) -0.37914(54) -0.00856(26) 1 5.51(25)
C4 C 2 0.50568(31) -0.28625(89) 0.13972(28) 1 5.51(25)
N2 N 2 0.32603(36) -0.21703(56) 0.17210(28) 1 5.51(25)
N3 N 2 0.10229(47) -0.1760(15) 0.07016(49) 1 5.51(25)
C5 C 2 0.12683(37) -0.23449(70) -0.07188(28) 1 5.51(25)
N4 N 2 0.30256(33) -0.32899(53) -0.17054(29) 1 5.51(25)
O1 O 2 0.55302(84) -0.2704(14) 0.23958(80) 1 5.51(25)
O2 O 2 0.70250(64) -0.4898(13) -0.25088(68) 1 5.51(25)
C6 C 2 0.19430(25) -0.12421(24) 0.32233(21) 1 5.51(25)
C7 C 2 0.82127(26) -0.44784(25) -0.03946(23) 1 5.51(25)
C8 C 2 0.37125(26) -0.41185(24) -0.32928(21) 1 5.51(25)
H1 H 2 0.0335(16) -0.2164(20) -0.1019(13) 1 5.51(25)
H2 H 2 0.2551(14) -0.1176(10) 0.3852(12) 1 5.51(25)
H3 H 2 0.1155(13) -0.1724(10) 0.3494(13) 1 5.51(25)
H4 H 2 0.1250(14) -0.0213(11) 0.3307(12) 1 5.51(25)
H5 H 2 0.8345(12) -0.4197(11) 0.0512(15) 1 5.51(25)
H6 H 2 0.8837(12) -0.40995(94) -0.1034(10) 1 5.51(25)
H7 H 2 0.8688(11) -0.5593(11) -0.0873(11) 1 5.51(25)
H8 H 2 0.3182(13) -0.4838(11) -0.3490(12) 1 5.51(25)
H9 H 2 0.5012(16) -0.4696(12) -0.3707(11) 1 5.51(25)
H10 H 2 0.3383(12) -0.33640(95) -0.3718(12) 1 5.51(25)
C11 C 2 -0.58941(31) 0.17525(61) 0.45061(26) 1 5.51(25)
C12 C 2 -0.76458(30) 0.27074(63) 0.54873(23) 1 5.51(25)
C13 C 2 -0.89549(35) 0.30928(65) 0.49977(26) 1 5.51(25)
C14 C 2 -0.85012(32) 0.25101(75) 0.34722(25) 1 5.51(25)
C15 C 2 -0.67340(34) 0.15547(61) 0.24815(23) 1 5.51(25)
C16 C 2 -0.53987(36) 0.11595(54) 0.29907(24) 1 5.51(25)
C17 C 2 -0.35604(34) 0.01973(35) 0.20342(24) 1 5.51(25)
O11 O 2 -0.28680(58) -0.04396(80) 0.06992(76) 1 5.51(25)
O12 O 2 -0.24559(62) -0.00355(70) 0.27100(35) 1 5.51(25)
F11 F 2 -0.97505(90) 0.2913(12) 0.29557(59) 1 5.51(25)
H11 H 2 -0.4982(17) 0.1486(15) 0.4850(12) 1 5.51(25)
H12 H 2 -0.7961(14) 0.3100(15) 0.6521(13) 1 5.51(25)
H13 H 2 -1.0203(15) 0.3768(15) 0.5702(11) 1 5.51(25)
H14 H 2 -0.6424(13) 0.1157(15) 0.1440(11) 1 5.51(25)
H15 H 2 -0.1227(15) -0.0710(12) 0.1971(13) 1 5.51(25)
loop_
_geom_angle_atom_site_label_1
_geom_angle_atom_site_label_2
_geom_angle_atom_site_label_3
_geom_angle
C17 O12 H15 109.1(8)
C3 N1 C7 117.8(3)
C4 N1 C7 119.2(3)
C3 N1 C4 123.0(4)
C1 N2 C6 119.9(4)
C4 N2 C6 120.6(3)
C1 N2 C4 119.6(3)
C1 N3 C5 104.1(5)
C2 N4 C8 127.6(3)
C5 N4 C8 127.2(3)
C2 N4 C5 105.1(3)
N2 C1 C2 120.9(4)
N3 C1 C2 110.0(3)
N2 C1 N3 129.1(3)
N4 C2 C1 106.6(3)
N4 C2 C3 131.3(2)
C1 C2 C3 122.1(3)
O2 C3 N1 120.9(5)
O2 C3 C2 125.0(5)
N1 C3 C2 114.1(3)
O1 C4 N2 119.3(5)
N1 C4 N2 120.3(3)
O1 C4 N1 120.4(6)
N3 C5 N4 114.2(5)
N3 C5 H1 124.1(9)
N4 C5 H1 121.6(8)
N2 C6 H3 109.8(7)
N2 C6 H4 108.4(7)
O11 C17 O12 116.8(4)
C12 C11 H11 120.1(7)
C16 C11 H11 118.7(8)
C11 C12 H12 120.0(9)
C13 C12 H12 119.7(9)
H2 C6 H3 109.5(10)
H2 C6 H4 110.1(10)
H3 C6 H4 110.1(10)
N2 C6 H2 109.0(7)
N1 C7 H6 108.9(7)
N1 C7 H7 108.8(7)
N1 C7 H5 109.3(8)
H5 C7 H7 109.8(10)
H6 C7 H7 110.0(8)
H5 C7 H6 110.0(10)
N4 C8 H8 108.9(7)
N4 C8 H10 109.1(7)
H8 C8 H9 109.8(10)
N4 C8 H9 109.0(7)
H9 C8 H10 110.2(10)
H8 C8 H10 109.9(10)
C12 C11 C16 121.2(3)
C11 C12 C13 120.3(2)
C12 C13 C14 120.0(3)
F11 C14 C15 118.8(4)
C13 C14 C15 119.8(4)
F11 C14 C13 121.4(4)
C14 C15 C16 119.9(2)
C11 C16 C17 118.4(3)
C15 C16 C17 122.8(2)
C11 C16 C15 118.9(3)
O11 C17 C16 128.4(4)
O12 C17 C16 114.9(2)
C12 C13 H13 119.9(8)
C14 C13 H13 120.0(8)
C14 C15 H14 119.8(9)
C16 C15 H14 120.3(8)
loop_
_geom_bond_atom_site_label_1
_geom_bond_atom_site_label_2
_geom_bond_distance
F11 C14 1.362(10)
O1 C4 1.234(9)
O2 C3 1.226(8)
O11 C17 1.230(8)
O12 C17 1.364(6)
O12 H15 0.985(14)
N1 C7 1.447(5)
N1 C4 1.439(4)
N1 C3 1.406(5)
N2 C4 1.390(7)
N2 C6 1.459(4)
N2 C1 1.358(5)
N3 C1 1.391(9)
N3 C5 1.374(6)
N4 C8 1.477(3)
N4 C2 1.406(5)
N4 C5 1.388(5)
C1 C2 1.441(4)
C2 C3 1.446(7)
C5 H1 0.946(17)
C6 H2 0.970(13)
C6 H3 0.986(12)
C6 H4 0.981(12)
C7 H5 0.975(14)
C7 H7 0.975(11)
C7 H6 0.978(10)
C8 H9 0.983(14)
C8 H10 0.992(11)
C8 H8 0.989(12)
C11 C16 1.415(3)
C11 C12 1.384(5)
C12 C13 1.383(6)
C13 C14 1.432(4)
C14 C15 1.396(5)
C15 C16 1.418(5)
C16 C17 1.432(4)
C11 H11 0.966(16)
C12 H12 0.969(12)
C13 H13 0.987(13)
C15 H14 0.978(10)
