#------------------------------------------------------------------------------
#$Date: 2016-02-18 17:37:37 +0200 (Thu, 18 Feb 2016) $
#$Revision: 176729 $
#$URL: svn://www.crystallography.net/cod/cif/1/51/57/1515720.cif $
#------------------------------------------------------------------------------
#
# This file is available in the Crystallography Open Database (COD),
# http://www.crystallography.net/
#
# All data on this site have been placed in the public domain by the
# contributors.
#
data_1515720
loop_
_publ_author_name
'Mondal, Barnali'
'Captain, Burjor'
'Ramamurthy, V.'
_publ_section_title
;
 Photodimerization of HCl salts of azastilbenes in the solid state.
;
_journal_issue                   6
_journal_name_full
'Photochemical &amp; photobiological sciences : Official journal of the European Photochemistry Association and the European Society for Photobiology'
_journal_page_first              891
_journal_page_last               894
_journal_paper_doi               10.1039/c1pp05070b
_journal_volume                  10
_journal_year                    2011
_chemical_formula_sum            'C13 H6 F5 N'
_chemical_formula_weight         271.19
_chemical_name_systematic
;
?
;
_space_group_IT_number           2
_symmetry_cell_setting           triclinic
_symmetry_space_group_name_Hall  '-P 1'
_symmetry_space_group_name_H-M   'P -1'
_atom_sites_solution_hydrogens   geom
_atom_sites_solution_primary     direct
_atom_sites_solution_secondary   difmap
_audit_creation_method           SHELXL-97
_cell_angle_alpha                71.3900(9)
_cell_angle_beta                 85.3708(9)
_cell_angle_gamma                80.5834(9)
_cell_formula_units_Z            2
_cell_length_a                   5.8613(4)
_cell_length_b                   9.2231(6)
_cell_length_c                   10.9709(7)
_cell_measurement_reflns_used    3750
_cell_measurement_temperature    296(2)
_cell_measurement_theta_max      32.03
_cell_measurement_theta_min      2.36
_cell_volume                     554.24(6)
_computing_cell_refinement       'SAINT+ V7.46A (Bruker, 2007)'
_computing_data_collection       'APEX2 v2.2-0 (Bruker, 2007)'
_computing_data_reduction        'SAINT+ V7.46A (Bruker, 2007)'
_computing_molecular_graphics    'XSHELL v4.02 (Bruker, 2000)'
_computing_publication_material  'XCIF v6.12 (Bruker, 2001)'
_computing_structure_refinement  'SHELXL-97 (Sheldrick, 2008)'
_computing_structure_solution    'SHELXS-97 (Sheldrick, 2008)'
_diffrn_ambient_temperature      296(2)
_diffrn_measured_fraction_theta_full 0.997
_diffrn_measured_fraction_theta_max 0.997
_diffrn_measurement_device_type  'Bruker SMART APEX2 CCD diffractometer'
_diffrn_measurement_method       'omega scans'
_diffrn_radiation_monochromator  graphite
_diffrn_radiation_source         'fine-focus sealed tube'
_diffrn_radiation_type           MoK\a
_diffrn_radiation_wavelength     0.71073
_diffrn_reflns_av_R_equivalents  0.0209
_diffrn_reflns_av_sigmaI/netI    0.0200
_diffrn_reflns_limit_h_max       7
_diffrn_reflns_limit_h_min       -7
_diffrn_reflns_limit_k_max       12
_diffrn_reflns_limit_k_min       -12
_diffrn_reflns_limit_l_max       14
_diffrn_reflns_limit_l_min       -14
_diffrn_reflns_number            7983
_diffrn_reflns_theta_full        29.00
_diffrn_reflns_theta_max         29.00
_diffrn_reflns_theta_min         1.96
_exptl_absorpt_coefficient_mu    0.155
_exptl_absorpt_correction_T_max  0.9846
_exptl_absorpt_correction_T_min  0.9236
_exptl_absorpt_correction_type   multi-scan
_exptl_absorpt_process_details   '(SADABS 2007/4 Bruker)'
_exptl_crystal_colour            Colourless
_exptl_crystal_density_diffrn    1.625
_exptl_crystal_density_method    'not measured'
_exptl_crystal_description       Bar
_exptl_crystal_F_000             272
_exptl_crystal_size_max          0.52
_exptl_crystal_size_mid          0.38
_exptl_crystal_size_min          0.10
_refine_diff_density_max         0.259
_refine_diff_density_min         -0.252
_refine_diff_density_rms         0.056
_refine_ls_extinction_coef       0.033(7)
_refine_ls_extinction_expression Fc^*^=kFc[1+0.001xFc^2^\l^3^/sin(2\q)]^-1/4^
_refine_ls_extinction_method     SHELXL
_refine_ls_goodness_of_fit_ref   1.079
_refine_ls_hydrogen_treatment    constr
_refine_ls_matrix_type           full
_refine_ls_number_parameters     173
_refine_ls_number_reflns         2930
_refine_ls_number_restraints     0
_refine_ls_restrained_S_all      1.079
_refine_ls_R_factor_all          0.0613
_refine_ls_R_factor_gt           0.0477
_refine_ls_shift/su_max          0.000
_refine_ls_shift/su_mean         0.000
_refine_ls_structure_factor_coef Fsqd
_refine_ls_weighting_details
'calc w=1/[\s^2^(Fo^2^)+(0.0723P)^2^+0.1099P] where P=(Fo^2^+2Fc^2^)/3'
_refine_ls_weighting_scheme      calc
_refine_ls_wR_factor_gt          0.1394
_refine_ls_wR_factor_ref         0.1545
_reflns_number_gt                2170
_reflns_number_total             2930
_reflns_threshold_expression     >2sigma(I)
_cod_data_source_file            c1pp05070b.txt
_cod_data_source_block           14-PentaFluoroStilbazole-Monomer
_cod_depositor_comments
;
The following automatic conversions were performed:

'_symmetry_cell_setting' value 'Triclinic' changed to 'triclinic'
according to
/usr/data/users/saulius/automatic-downloads/retrospective/RSC/lib/dictionaries/cif_core.dic
dictionary named 'cif_core.dic' version 2.4.2 from
2011-04-26.

'_exptl_absorpt_correction_type' value 'Multi-scan'
changed to 'multi-scan' according to
/usr/data/users/saulius/automatic-downloads/retrospective/RSC/lib/dictionaries/cif_core.dic
dictionary named 'cif_core.dic' version 2.4.2 from 2011-04-26.

Automatic conversion script
Id: cif_fix_values 2281 2013-09-26 08:29:07Z andrius 
;
_cod_original_sg_symbol_H-M      P-1
_cod_database_code               1515720
loop_
_symmetry_equiv_pos_as_xyz
'x, y, z'
'-x, -y, -z'
loop_
_atom_site_label
_atom_site_type_symbol
_atom_site_fract_x
_atom_site_fract_y
_atom_site_fract_z
_atom_site_U_iso_or_equiv
_atom_site_adp_type
_atom_site_occupancy
_atom_site_symmetry_multiplicity
_atom_site_calc_flag
_atom_site_refinement_flags
F1 F 0.35528(16) 0.54029(13) 0.88038(10) 0.0652(3) Uani 1 1 d .
F2 F 0.2530(2) 0.49335(15) 0.66495(11) 0.0783(4) Uani 1 1 d .
F3 F -0.1651(2) 0.61671(14) 0.55697(9) 0.0730(3) Uani 1 1 d .
F4 F -0.47311(18) 0.79536(15) 0.66630(12) 0.0774(4) Uani 1 1 d .
F5 F -0.37671(18) 0.84498(15) 0.88140(12) 0.0753(4) Uani 1 1 d .
N1 N 0.1683(3) 0.8688(2) 1.41633(15) 0.0650(4) Uani 1 1 d .
C1 C 0.3060(3) 0.7803(2) 1.35736(18) 0.0667(5) Uani 1 1 d .
H1 H 0.4489 0.7334 1.3926 0.080 Uiso 1 1 calc R
C2 C 0.2499(3) 0.7536(2) 1.24681(17) 0.0604(4) Uani 1 1 d .
H2 H 0.3533 0.6908 1.2096 0.073 Uiso 1 1 calc R
C3 C 0.0372(3) 0.82164(18) 1.19220(15) 0.0505(4) Uani 1 1 d .
C4 C -0.1062(3) 0.91334(19) 1.25425(16) 0.0561(4) Uani 1 1 d .
H4 H -0.2508 0.9613 1.2221 0.067 Uiso 1 1 calc R
C5 C -0.0339(3) 0.9331(2) 1.36352(17) 0.0610(4) Uani 1 1 d .
H5 H -0.1335 0.9955 1.4027 0.073 Uiso 1 1 calc R
C6 C -0.0448(3) 0.8027(2) 1.07569(16) 0.0562(4) Uani 1 1 d .
H6 H -0.1906 0.8543 1.0482 0.067 Uiso 1 1 calc R
C7 C 0.0691(3) 0.71957(18) 1.00716(14) 0.0500(3) Uani 1 1 d .
H7 H 0.2143 0.6685 1.0362 0.060 Uiso 1 1 calc R
C8 C -0.0035(2) 0.69680(16) 0.89018(13) 0.0444(3) Uani 1 1 d .
C9 C 0.1480(3) 0.60743(18) 0.82916(14) 0.0474(3) Uani 1 1 d .
C10 C 0.0982(3) 0.58104(19) 0.71814(15) 0.0517(4) Uani 1 1 d .
C11 C -0.1121(3) 0.64355(19) 0.66309(14) 0.0522(4) Uani 1 1 d .
C12 C -0.2683(3) 0.73291(19) 0.71949(15) 0.0524(4) Uani 1 1 d .
C13 C -0.2148(3) 0.75784(18) 0.83077(15) 0.0498(3) Uani 1 1 d .
loop_
_atom_site_aniso_label
_atom_site_aniso_U_11
_atom_site_aniso_U_22
_atom_site_aniso_U_33
_atom_site_aniso_U_23
_atom_site_aniso_U_13
_atom_site_aniso_U_12
F1 0.0490(5) 0.0832(7) 0.0622(6) -0.0273(5) -0.0181(4) 0.0112(5)
F2 0.0765(7) 0.0956(8) 0.0696(7) -0.0466(6) -0.0088(5) 0.0141(6)
F3 0.0875(8) 0.0882(8) 0.0538(6) -0.0318(5) -0.0216(5) -0.0137(6)
F4 0.0554(6) 0.0977(8) 0.0777(7) -0.0263(6) -0.0318(5) 0.0053(5)
F5 0.0564(6) 0.0944(8) 0.0795(7) -0.0445(6) -0.0162(5) 0.0190(5)
N1 0.0706(9) 0.0760(10) 0.0554(8) -0.0321(7) -0.0140(7) -0.0012(7)
C1 0.0587(10) 0.0830(12) 0.0618(10) -0.0311(9) -0.0171(8) 0.0048(8)
C2 0.0582(9) 0.0686(10) 0.0584(9) -0.0310(8) -0.0074(7) 0.0050(8)
C3 0.0582(9) 0.0495(8) 0.0453(7) -0.0159(6) -0.0085(6) -0.0066(6)
C4 0.0567(9) 0.0558(9) 0.0546(8) -0.0188(7) -0.0112(7) 0.0030(7)
C5 0.0679(10) 0.0620(10) 0.0560(9) -0.0267(8) -0.0059(7) 0.0012(8)
C6 0.0553(9) 0.0606(9) 0.0546(8) -0.0229(7) -0.0157(7) 0.0033(7)
C7 0.0509(8) 0.0552(8) 0.0449(7) -0.0163(6) -0.0093(6) -0.0049(6)
C8 0.0458(7) 0.0467(7) 0.0409(7) -0.0122(5) -0.0058(5) -0.0079(6)
C9 0.0426(7) 0.0530(8) 0.0450(7) -0.0133(6) -0.0093(5) -0.0027(6)
C10 0.0543(8) 0.0565(8) 0.0468(8) -0.0210(7) -0.0037(6) -0.0038(6)
C11 0.0592(9) 0.0583(9) 0.0425(7) -0.0158(6) -0.0119(6) -0.0133(7)
C12 0.0446(7) 0.0589(9) 0.0520(8) -0.0131(7) -0.0148(6) -0.0045(6)
C13 0.0451(7) 0.0541(8) 0.0510(8) -0.0191(6) -0.0061(6) -0.0012(6)
loop_
_atom_type_symbol
_atom_type_description
_atom_type_scat_dispersion_real
_atom_type_scat_dispersion_imag
_atom_type_scat_source
C C 0.0033 0.0016 'International Tables Vol C Tables 4.2.6.8 and 6.1.1.4'
H H 0.0000 0.0000 'International Tables Vol C Tables 4.2.6.8 and 6.1.1.4'
N N 0.0061 0.0033 'International Tables Vol C Tables 4.2.6.8 and 6.1.1.4'
F F 0.0171 0.0103 'International Tables Vol C Tables 4.2.6.8 and 6.1.1.4'
loop_
_geom_angle_atom_site_label_1
_geom_angle_atom_site_label_2
_geom_angle_atom_site_label_3
_geom_angle
C5 N1 C1 116.12(14)
N1 C1 C2 124.16(16)
C1 C2 C3 119.22(15)
C4 C3 C2 116.44(15)
C4 C3 C6 118.63(15)
C2 C3 C6 124.92(15)
C5 C4 C3 119.87(16)
N1 C5 C4 124.18(16)
C7 C6 C3 125.88(15)
C6 C7 C8 128.26(15)
C9 C8 C13 114.61(13)
C9 C8 C7 119.13(13)
C13 C8 C7 126.26(14)
F1 C9 C10 116.99(14)
F1 C9 C8 119.34(12)
C10 C9 C8 123.67(13)
F2 C10 C11 120.10(14)
F2 C10 C9 120.23(14)
C11 C10 C9 119.66(14)
F3 C11 C10 120.48(15)
F3 C11 C12 120.47(14)
C10 C11 C12 119.05(13)
F4 C12 C11 119.63(14)
F4 C12 C13 120.04(15)
C11 C12 C13 120.33(14)
F5 C13 C12 117.11(13)
F5 C13 C8 120.21(13)
C12 C13 C8 122.68(14)
loop_
_geom_bond_atom_site_label_1
_geom_bond_atom_site_label_2
_geom_bond_distance
F1 C9 1.3481(17)
F2 C10 1.3396(18)
F3 C11 1.3344(16)
F4 C12 1.3364(17)
F5 C13 1.3436(17)
N1 C5 1.324(2)
N1 C1 1.332(2)
C1 C2 1.386(2)
C2 C3 1.390(2)
C3 C4 1.389(2)
C3 C6 1.471(2)
C4 C5 1.377(2)
C6 C7 1.311(2)
C7 C8 1.470(2)
C8 C9 1.390(2)
C8 C13 1.394(2)
C9 C10 1.378(2)
C10 C11 1.372(2)
C11 C12 1.374(2)
C12 C13 1.381(2)
