#------------------------------------------------------------------------------
#$Date: 2016-02-18 17:37:37 +0200 (Thu, 18 Feb 2016) $
#$Revision: 176729 $
#$URL: svn://www.crystallography.net/cod/cif/1/51/57/1515718.cif $
#------------------------------------------------------------------------------
#
# This file is available in the Crystallography Open Database (COD),
# http://www.crystallography.net/
#
# All data on this site have been placed in the public domain by the
# contributors.
#
data_1515718
loop_
_publ_author_name
'Mondal, Barnali'
'Captain, Burjor'
'Ramamurthy, V.'
_publ_section_title
;
 Photodimerization of HCl salts of azastilbenes in the solid state.
;
_journal_issue                   6
_journal_name_full
'Photochemical &amp; photobiological sciences : Official journal of the European Photochemistry Association and the European Society for Photobiology'
_journal_page_first              891
_journal_page_last               894
_journal_paper_doi               10.1039/c1pp05070b
_journal_volume                  10
_journal_year                    2011
_chemical_formula_sum            'C13 H10 Cl3 N'
_chemical_formula_weight         286.57
_chemical_name_systematic
;
?
;
_space_group_IT_number           2
_symmetry_cell_setting           triclinic
_symmetry_space_group_name_Hall  '-P 1'
_symmetry_space_group_name_H-M   'P -1'
_atom_sites_solution_hydrogens   geom
_atom_sites_solution_primary     direct
_atom_sites_solution_secondary   difmap
_audit_creation_method           SHELXL-97
_cell_angle_alpha                96.3056(8)
_cell_angle_beta                 91.9793(8)
_cell_angle_gamma                93.8669(8)
_cell_formula_units_Z            2
_cell_length_a                   4.9487(3)
_cell_length_b                   7.8558(4)
_cell_length_c                   16.9993(9)
_cell_measurement_reflns_used    4949
_cell_measurement_temperature    296(2)
_cell_measurement_theta_max      30.75
_cell_measurement_theta_min      2.41
_cell_volume                     654.78(6)
_computing_cell_refinement       'SAINT+ V7.46A (Bruker, 2007)'
_computing_data_collection       'APEX2 v2.2-0 (Bruker, 2007)'
_computing_data_reduction        'SAINT+ V7.46A (Bruker, 2007)'
_computing_molecular_graphics    'XSHELL v4.02 (Bruker, 2000)'
_computing_publication_material  'XCIF v6.12 (Bruker, 2001)'
_computing_structure_refinement  'SHELXL-97 (Sheldrick, 2008)'
_computing_structure_solution    'SHELXS-97 (Sheldrick, 2008)'
_diffrn_ambient_temperature      296(2)
_diffrn_measured_fraction_theta_full 1.000
_diffrn_measured_fraction_theta_max 1.000
_diffrn_measurement_device_type  'Bruker SMART APEX2 CCD diffractometer'
_diffrn_measurement_method       'omega scans'
_diffrn_radiation_monochromator  graphite
_diffrn_radiation_source         'fine-focus sealed tube'
_diffrn_radiation_type           MoK\a
_diffrn_radiation_wavelength     0.71073
_diffrn_reflns_av_R_equivalents  0.0195
_diffrn_reflns_av_sigmaI/netI    0.0176
_diffrn_reflns_limit_h_max       5
_diffrn_reflns_limit_h_min       -5
_diffrn_reflns_limit_k_max       9
_diffrn_reflns_limit_k_min       -9
_diffrn_reflns_limit_l_max       20
_diffrn_reflns_limit_l_min       -20
_diffrn_reflns_number            7071
_diffrn_reflns_theta_full        25.00
_diffrn_reflns_theta_max         25.00
_diffrn_reflns_theta_min         1.21
_exptl_absorpt_coefficient_mu    0.675
_exptl_absorpt_correction_T_max  0.8769
_exptl_absorpt_correction_T_min  0.7037
_exptl_absorpt_correction_type   multi-scan
_exptl_absorpt_process_details   '(SADABS 2007/4 Bruker)'
_exptl_crystal_colour            colourless
_exptl_crystal_density_diffrn    1.453
_exptl_crystal_density_method    'not measured'
_exptl_crystal_description       Bar
_exptl_crystal_F_000             292
_exptl_crystal_size_max          0.56
_exptl_crystal_size_mid          0.28
_exptl_crystal_size_min          0.20
_refine_diff_density_max         0.639
_refine_diff_density_min         -0.890
_refine_diff_density_rms         0.066
_refine_ls_extinction_coef       0.065(6)
_refine_ls_extinction_expression Fc^*^=kFc[1+0.001xFc^2^\l^3^/sin(2\q)]^-1/4^
_refine_ls_extinction_method     SHELXL
_refine_ls_goodness_of_fit_ref   1.078
_refine_ls_hydrogen_treatment    constr
_refine_ls_matrix_type           full
_refine_ls_number_parameters     173
_refine_ls_number_reflns         2306
_refine_ls_number_restraints     0
_refine_ls_restrained_S_all      1.078
_refine_ls_R_factor_all          0.0635
_refine_ls_R_factor_gt           0.0593
_refine_ls_shift/su_max          0.000
_refine_ls_shift/su_mean         0.000
_refine_ls_structure_factor_coef Fsqd
_refine_ls_weighting_details
'calc w=1/[\s^2^(Fo^2^)+(0.0500P)^2^+0.9471P] where P=(Fo^2^+2Fc^2^)/3'
_refine_ls_weighting_scheme      calc
_refine_ls_wR_factor_gt          0.1463
_refine_ls_wR_factor_ref         0.1497
_reflns_number_gt                2129
_reflns_number_total             2306
_reflns_threshold_expression     >2sigma(I)
_cod_data_source_file            c1pp05070b.txt
_cod_data_source_block           12-35DiChloroStilbazole-HCl-Salt
_cod_depositor_comments
;
The following automatic conversions were performed:

'_symmetry_cell_setting' value 'Triclinic' changed to 'triclinic'
according to
/usr/data/users/saulius/automatic-downloads/retrospective/RSC/lib/dictionaries/cif_core.dic
dictionary named 'cif_core.dic' version 2.4.2 from
2011-04-26.

'_exptl_absorpt_correction_type' value 'Multi-scan'
changed to 'multi-scan' according to
/usr/data/users/saulius/automatic-downloads/retrospective/RSC/lib/dictionaries/cif_core.dic
dictionary named 'cif_core.dic' version 2.4.2 from 2011-04-26.

Automatic conversion script
Id: cif_fix_values 2281 2013-09-26 08:29:07Z andrius 
;
_cod_original_sg_symbol_H-M      P-1
_cod_database_code               1515718
loop_
_symmetry_equiv_pos_as_xyz
'x, y, z'
'-x, -y, -z'
loop_
_atom_site_label
_atom_site_type_symbol
_atom_site_fract_x
_atom_site_fract_y
_atom_site_fract_z
_atom_site_U_iso_or_equiv
_atom_site_adp_type
_atom_site_occupancy
_atom_site_symmetry_multiplicity
_atom_site_calc_flag
_atom_site_refinement_flags
Cl1 Cl 0.7952(3) 0.29628(17) 0.48818(8) 0.0981(5) Uani 1 1 d .
Cl2 Cl 0.6420(4) -0.32914(19) 0.33006(10) 0.1282(7) Uani 1 1 d .
Cl3 Cl 0.07115(17) 0.73142(10) 0.07489(5) 0.0583(3) Uani 1 1 d .
N1 N -0.6491(6) 0.3139(4) 0.06488(17) 0.0611(8) Uani 1 1 d .
H1 H -0.7744 0.3454 0.0345 0.073 Uiso 1 1 calc R
C1 C -0.4825(8) 0.4327(5) 0.1060(2) 0.0631(9) Uani 1 1 d .
H1A H -0.5002 0.5483 0.1013 0.076 Uiso 1 1 calc R
C2 C -0.2846(7) 0.3850(5) 0.1553(2) 0.0602(9) Uani 1 1 d .
H2 H -0.1665 0.4680 0.1841 0.072 Uiso 1 1 calc R
C3 C -0.2603(7) 0.2128(5) 0.1625(2) 0.0565(9) Uani 1 1 d .
C4 C -0.4378(8) 0.0950(5) 0.1168(2) 0.0628(9) Uani 1 1 d .
H4 H -0.4247 -0.0219 0.1191 0.075 Uiso 1 1 calc R
C5 C -0.6289(8) 0.1485(5) 0.0691(2) 0.0627(9) Uani 1 1 d .
H5 H -0.7479 0.0685 0.0389 0.075 Uiso 1 1 calc R
C6 C -0.0693(12) 0.1235(10) 0.2073(4) 0.0438(12) Uani 0.62 1 d P
H6 H -0.0564 0.0063 0.1942 0.053 Uiso 0.62 1 calc PR
C7 C 0.0865(12) 0.2060(8) 0.2664(4) 0.0482(12) Uani 0.62 1 d P
H7 H 0.0714 0.3228 0.2801 0.058 Uiso 0.62 1 calc PR
C8 C 0.2882(9) 0.1140(8) 0.3120(3) 0.0867(15) Uani 1 1 d .
C9 C 0.4232(8) 0.2148(7) 0.3702(3) 0.0782(13) Uani 1 1 d .
H9 H 0.3827 0.3288 0.3804 0.094 Uiso 1 1 calc R
C10 C 0.6198(7) 0.1541(5) 0.4153(2) 0.0630(9) Uani 1 1 d .
C11 C 0.6902(7) -0.0122(5) 0.4047(2) 0.0616(9) Uani 1 1 d .
H11 H 0.8250 -0.0504 0.4364 0.074 Uiso 1 1 calc R
C12 C 0.5545(9) -0.1195(6) 0.3455(2) 0.0730(11) Uani 1 1 d .
C13 C 0.3495(9) -0.0573(9) 0.2977(2) 0.0929(18) Uani 1 1 d .
H13 H 0.2572 -0.1302 0.2573 0.111 Uiso 1 1 calc R
C6B C -0.032(2) 0.2181(18) 0.2291(8) 0.053(2) Uani 0.38 1 d P
H6B H 0.0336 0.3206 0.2583 0.064 Uiso 0.38 1 calc PR
C7B C 0.061(2) 0.0740(13) 0.2415(6) 0.054(2) Uani 0.38 1 d P
H7B H 0.0073 -0.0332 0.2147 0.065 Uiso 0.38 1 calc PR
loop_
_atom_site_aniso_label
_atom_site_aniso_U_11
_atom_site_aniso_U_22
_atom_site_aniso_U_33
_atom_site_aniso_U_23
_atom_site_aniso_U_13
_atom_site_aniso_U_12
Cl1 0.1106(10) 0.0873(9) 0.0929(9) -0.0025(6) 0.0011(7) 0.0043(7)
Cl2 0.1804(17) 0.0851(9) 0.1141(12) -0.0130(8) 0.0240(11) 0.0026(10)
Cl3 0.0554(5) 0.0506(5) 0.0679(6) 0.0075(4) -0.0132(4) 0.0024(4)
N1 0.0429(15) 0.090(2) 0.0557(17) 0.0256(16) 0.0015(13) 0.0117(15)
C1 0.065(2) 0.056(2) 0.073(2) 0.0173(18) 0.0104(19) 0.0154(17)
C2 0.056(2) 0.066(2) 0.057(2) 0.0043(17) -0.0017(16) -0.0016(17)
C3 0.0436(17) 0.082(2) 0.0510(19) 0.0265(17) 0.0125(14) 0.0165(16)
C4 0.069(2) 0.054(2) 0.070(2) 0.0146(17) 0.0218(19) 0.0087(17)
C5 0.058(2) 0.075(2) 0.054(2) 0.0059(18) 0.0065(16) -0.0081(18)
C6 0.042(3) 0.044(3) 0.046(3) 0.009(3) -0.001(2) 0.007(3)
C7 0.048(3) 0.049(4) 0.048(3) 0.004(3) 0.000(3) 0.007(3)
C8 0.054(2) 0.141(5) 0.078(3) 0.056(3) 0.015(2) 0.024(3)
C9 0.060(2) 0.113(4) 0.072(3) 0.043(3) 0.011(2) 0.023(2)
C10 0.057(2) 0.079(3) 0.057(2) 0.0235(18) 0.0040(16) 0.0102(18)
C11 0.059(2) 0.079(3) 0.0502(19) 0.0196(18) -0.0046(16) 0.0128(18)
C12 0.079(3) 0.084(3) 0.056(2) 0.010(2) 0.007(2) -0.005(2)
C13 0.060(2) 0.172(6) 0.041(2) 0.017(3) -0.0060(17) -0.037(3)
C6B 0.053(6) 0.059(7) 0.045(6) 0.002(6) 0.001(5) -0.001(6)
C7B 0.055(5) 0.057(6) 0.051(5) 0.005(5) 0.003(4) 0.006(5)
loop_
_atom_type_symbol
_atom_type_description
_atom_type_scat_dispersion_real
_atom_type_scat_dispersion_imag
_atom_type_scat_source
C C 0.0033 0.0016 'International Tables Vol C Tables 4.2.6.8 and 6.1.1.4'
H H 0.0000 0.0000 'International Tables Vol C Tables 4.2.6.8 and 6.1.1.4'
N N 0.0061 0.0033 'International Tables Vol C Tables 4.2.6.8 and 6.1.1.4'
Cl Cl 0.1484 0.1585 'International Tables Vol C Tables 4.2.6.8 and 6.1.1.4'
loop_
_geom_angle_atom_site_label_1
_geom_angle_atom_site_label_2
_geom_angle_atom_site_label_3
_geom_angle
C5 N1 C1 122.0(3)
N1 C1 C2 119.8(3)
C1 C2 C3 119.9(3)
C4 C3 C2 117.4(3)
C4 C3 C6 110.0(4)
C2 C3 C6 132.5(5)
C4 C3 C6B 139.7(6)
C2 C3 C6B 102.7(6)
C6 C3 C6B 30.4(4)
C5 C4 C3 120.4(4)
N1 C5 C4 120.5(4)
C7 C6 C3 121.3(8)
C6 C7 C8 121.3(6)
C9 C8 C13 118.9(4)
C9 C8 C7 113.5(5)
C13 C8 C7 127.6(6)
C9 C8 C7B 153.6(6)
C13 C8 C7B 87.5(6)
C7 C8 C7B 40.2(4)
C8 C9 C10 121.1(5)
C9 C10 C11 123.1(4)
C9 C10 Cl1 118.3(4)
C11 C10 Cl1 118.6(3)
C12 C11 C10 117.2(4)
C11 C12 C13 120.2(4)
C11 C12 Cl2 118.2(3)
C13 C12 Cl2 121.6(4)
C8 C13 C12 119.4(4)
C7B C6B C3 116.8(14)
C6B C7B C8 107.0(11)
loop_
_geom_bond_atom_site_label_1
_geom_bond_atom_site_label_2
_geom_bond_distance
Cl1 C10 1.740(4)
Cl2 C12 1.726(5)
N1 C5 1.319(5)
N1 C1 1.324(5)
C1 C2 1.366(5)
C2 C3 1.385(5)
C3 C4 1.384(5)
C3 C6 1.457(7)
C3 C6B 1.569(15)
C4 C5 1.343(5)
C6 C7 1.328(9)
C7 C8 1.512(8)
C8 C9 1.328(7)
C8 C13 1.397(8)
C8 C7B 1.604(12)
C9 C10 1.360(5)
C10 C11 1.369(5)
C11 C12 1.365(5)
C12 C13 1.423(7)
C6B C7B 1.286(16)
