#------------------------------------------------------------------------------
#$Date: 2016-02-18 17:37:37 +0200 (Thu, 18 Feb 2016) $
#$Revision: 176729 $
#$URL: svn://www.crystallography.net/cod/cif/1/51/59/1515926.cif $
#------------------------------------------------------------------------------
#
# This file is available in the Crystallography Open Database (COD),
# http://www.crystallography.net/
#
# All data on this site have been placed in the public domain by the
# contributors.
#
data_1515926
loop_
_publ_author_name
'Fiore, Gina L.'
'Jing, Feng'
'Young, Jr., Victor G.'
'Cramer, Christopher J.'
'Hillmyer, Marc A.'
_publ_section_title
;
 High Tg aliphatic polyesters by the polymerization of spirolactide
 derivatives
;
_journal_issue                   6
_journal_name_full               'Polymer Chemistry'
_journal_page_first              870
_journal_paper_doi               10.1039/c0py00029a
_journal_volume                  1
_journal_year                    2010
_chemical_absolute_configuration rm
_chemical_formula_moiety         'C6 H6 O4'
_chemical_formula_sum            'C6 H6 O4'
_chemical_formula_weight         142.11
_chemical_name_common            08191a
_chemical_name_systematic
;
?
;
_space_group_IT_number           4
_symmetry_cell_setting           monoclinic
_symmetry_space_group_name_Hall  'P 2yb'
_symmetry_space_group_name_H-M   'P 1 21 1'
_atom_sites_solution_hydrogens   geom
_atom_sites_solution_primary     direct
_atom_sites_solution_secondary   difmap
_audit_creation_method           SHELXL-97
_cell_angle_alpha                90.00
_cell_angle_beta                 99.916(2)
_cell_angle_gamma                90.00
_cell_formula_units_Z            2
_cell_length_a                   5.7525(12)
_cell_length_b                   7.0293(15)
_cell_length_c                   7.8151(16)
_cell_measurement_reflns_used    2432
_cell_measurement_temperature    173(2)
_cell_measurement_theta_max      27.49
_cell_measurement_theta_min      3.60
_cell_volume                     311.29(11)
_computing_cell_refinement       'Bruker SMART'
_computing_data_collection       'Bruker SMART'
_computing_data_reduction        'Bruker SAINT'
_computing_molecular_graphics    'Bruker SHELXTL'
_computing_publication_material  'Bruker SHELXTL'
_computing_structure_refinement  'Bruker SHELXTL'
_computing_structure_solution    SIR-97
_diffrn_ambient_temperature      173(2)
_diffrn_measured_fraction_theta_full 0.986
_diffrn_measured_fraction_theta_max 0.986
_diffrn_measurement_device_type  'CCD area detector'
_diffrn_measurement_method       'phi and omega scans'
_diffrn_radiation_monochromator  graphite
_diffrn_radiation_source         'sealed tube'
_diffrn_radiation_type           MoK\a
_diffrn_radiation_wavelength     0.71073
_diffrn_reflns_av_R_equivalents  0.0216
_diffrn_reflns_av_sigmaI/netI    0.0157
_diffrn_reflns_limit_h_max       7
_diffrn_reflns_limit_h_min       -7
_diffrn_reflns_limit_k_max       9
_diffrn_reflns_limit_k_min       0
_diffrn_reflns_limit_l_max       10
_diffrn_reflns_limit_l_min       0
_diffrn_reflns_number            3225
_diffrn_reflns_theta_full        27.49
_diffrn_reflns_theta_max         27.49
_diffrn_reflns_theta_min         2.65
_exptl_absorpt_coefficient_mu    0.130
_exptl_absorpt_correction_T_max  0.9620
_exptl_absorpt_correction_T_min  0.9437
_exptl_absorpt_correction_type   multi-scan
_exptl_absorpt_process_details   'SADABS (Sheldrick, 2008)'
_exptl_crystal_colour            Colorless
_exptl_crystal_density_diffrn    1.516
_exptl_crystal_density_method    'not measured'
_exptl_crystal_description       Block
_exptl_crystal_F_000             148
_exptl_crystal_size_max          0.45
_exptl_crystal_size_mid          0.40
_exptl_crystal_size_min          0.30
_refine_diff_density_max         0.376
_refine_diff_density_min         -0.159
_refine_diff_density_rms         0.045
_refine_ls_abs_structure_details 'Flack H D (1983), Acta Cryst. A39, 876-881'
_refine_ls_abs_structure_Flack   0.0(16)
_refine_ls_extinction_method     none
_refine_ls_goodness_of_fit_ref   1.065
_refine_ls_hydrogen_treatment    constr
_refine_ls_matrix_type           full
_refine_ls_number_parameters     92
_refine_ls_number_reflns         766
_refine_ls_number_restraints     1
_refine_ls_restrained_S_all      1.064
_refine_ls_R_factor_all          0.0359
_refine_ls_R_factor_gt           0.0335
_refine_ls_shift/su_max          0.000
_refine_ls_shift/su_mean         0.000
_refine_ls_structure_factor_coef Fsqd
_refine_ls_weighting_details
'calc w=1/[\s^2^(Fo^2^)+(0.0671P)^2^+0.0379P] where P=(Fo^2^+2Fc^2^)/3'
_refine_ls_weighting_scheme      calc
_refine_ls_wR_factor_gt          0.0921
_refine_ls_wR_factor_ref         0.0953
_reflns_number_gt                723
_reflns_number_total             766
_reflns_threshold_expression     >2sigma(I)
_cod_data_source_file            c0py00029a.txt
_cod_data_source_block           08191a
_cod_depositor_comments
;
The following automatic conversions were performed:

'_symmetry_cell_setting' value 'Monoclinic' changed to 'monoclinic'
according to
/usr/data/users/saulius/automatic-downloads/retrospective/RSC/lib/dictionaries/cif_core.dic
dictionary named 'cif_core.dic' version 2.4.2 from
2011-04-26.

'_exptl_absorpt_correction_type' value 'Multi-scan'
changed to 'multi-scan' according to
/usr/data/users/saulius/automatic-downloads/retrospective/RSC/lib/dictionaries/cif_core.dic
dictionary named 'cif_core.dic' version 2.4.2 from 2011-04-26.

Automatic conversion script
Id: cif_fix_values 2281 2013-09-26 08:29:07Z andrius 
;
_cod_original_sg_symbol_H-M      P2(1)
_cod_database_code               1515926
loop_
_symmetry_equiv_pos_as_xyz
'x, y, z'
'-x, y+1/2, -z'
loop_
_atom_site_label
_atom_site_type_symbol
_atom_site_fract_x
_atom_site_fract_y
_atom_site_fract_z
_atom_site_U_iso_or_equiv
_atom_site_adp_type
_atom_site_occupancy
_atom_site_symmetry_multiplicity
_atom_site_calc_flag
_atom_site_refinement_flags
O1 O 0.7257(2) 0.5656(2) 0.34234(17) 0.0255(4) Uani 1 1 d .
O2 O 0.2724(2) 0.59780(19) 0.14447(17) 0.0260(4) Uani 1 1 d .
O3 O 0.3795(2) 0.8550(3) 0.0186(2) 0.0389(4) Uani 1 1 d .
O4 O 0.6313(3) 0.2965(3) 0.4527(2) 0.0414(5) Uani 1 1 d .
C1 C 0.4275(3) 0.7349(3) 0.1283(2) 0.0247(4) Uani 1 1 d .
C2 C 0.6610(3) 0.7297(3) 0.2463(2) 0.0255(4) Uani 1 1 d .
C3 C 0.5657(3) 0.4328(3) 0.3649(3) 0.0261(4) Uani 1 1 d .
C4 C 0.3088(3) 0.4651(3) 0.2882(2) 0.0251(4) Uani 1 1 d .
H4A H 0.2310 0.5200 0.3821 0.030 Uiso 1 1 calc R
C5 C 0.8114(4) 0.8713(4) 0.2588(3) 0.0352(5) Uani 1 1 d .
H5A H 0.9607 0.8604 0.3321 0.042 Uiso 1 1 calc R
H5B H 0.7711 0.9848 0.1945 0.042 Uiso 1 1 calc R
C6 C 0.1821(3) 0.2832(3) 0.2294(3) 0.0303(5) Uani 1 1 d .
H6A H 0.0185 0.3118 0.1770 0.045 Uiso 1 1 calc R
H6B H 0.1836 0.1989 0.3294 0.045 Uiso 1 1 calc R
H6C H 0.2615 0.2205 0.1434 0.045 Uiso 1 1 calc R
loop_
_atom_site_aniso_label
_atom_site_aniso_U_11
_atom_site_aniso_U_22
_atom_site_aniso_U_33
_atom_site_aniso_U_23
_atom_site_aniso_U_13
_atom_site_aniso_U_12
O1 0.0204(6) 0.0239(8) 0.0300(7) 0.0032(6) -0.0018(5) -0.0003(5)
O2 0.0219(6) 0.0231(8) 0.0303(7) 0.0037(6) -0.0029(5) -0.0017(5)
O3 0.0326(7) 0.0375(9) 0.0429(9) 0.0170(7) -0.0043(6) -0.0031(7)
O4 0.0342(8) 0.0317(10) 0.0536(10) 0.0180(8) -0.0056(7) 0.0002(7)
C1 0.0226(8) 0.0233(11) 0.0268(9) 0.0015(8) 0.0007(6) 0.0003(7)
C2 0.0253(8) 0.0241(10) 0.0255(9) 0.0032(8) -0.0003(6) -0.0012(7)
C3 0.0261(9) 0.0235(11) 0.0271(9) 0.0028(8) -0.0003(7) -0.0001(8)
C4 0.0244(8) 0.0222(11) 0.0269(9) 0.0008(8) -0.0005(6) -0.0019(7)
C5 0.0307(10) 0.0345(14) 0.0380(11) 0.0053(9) -0.0012(8) -0.0073(9)
C6 0.0314(10) 0.0243(11) 0.0336(10) 0.0007(8) 0.0009(7) -0.0072(8)
loop_
_atom_type_symbol
_atom_type_description
_atom_type_scat_dispersion_real
_atom_type_scat_dispersion_imag
_atom_type_scat_source
C C 0.0033 0.0016 'International Tables Vol C Tables 4.2.6.8 and 6.1.1.4'
H H 0.0000 0.0000 'International Tables Vol C Tables 4.2.6.8 and 6.1.1.4'
O O 0.0106 0.0060 'International Tables Vol C Tables 4.2.6.8 and 6.1.1.4'
loop_
_geom_angle_atom_site_label_1
_geom_angle_atom_site_label_2
_geom_angle_atom_site_label_3
_geom_angle
C3 O1 C2 121.39(14)
C1 O2 C4 121.97(14)
O3 C1 O2 120.02(16)
O3 C1 C2 121.99(18)
O2 C1 C2 117.97(16)
C5 C2 O1 118.50(16)
C5 C2 C1 122.64(18)
O1 C2 C1 118.82(17)
O4 C3 O1 118.30(16)
O4 C3 C4 122.39(18)
O1 C3 C4 119.22(17)
O2 C4 C6 108.23(15)
O2 C4 C3 113.88(15)
C6 C4 C3 112.47(16)
O2 C4 H4A 107.3
C6 C4 H4A 107.3
C3 C4 H4A 107.3
C2 C5 H5A 120.0
C2 C5 H5B 120.0
H5A C5 H5B 120.0
C4 C6 H6A 109.5
C4 C6 H6B 109.5
H6A C6 H6B 109.5
C4 C6 H6C 109.5
H6A C6 H6C 109.5
H6B C6 H6C 109.5
loop_
_geom_bond_atom_site_label_1
_geom_bond_atom_site_label_2
_geom_bond_distance
O1 C3 1.344(2)
O1 C2 1.391(2)
O2 C1 1.334(2)
O2 C4 1.447(2)
O3 C1 1.201(3)
O4 C3 1.200(3)
C1 C2 1.493(2)
C2 C5 1.311(3)
C3 C4 1.513(3)
C4 C6 1.504(3)
C4 H4A 1.0000
C5 H5A 0.9500
C5 H5B 0.9500
C6 H6A 0.9800
C6 H6B 0.9800
C6 H6C 0.9800
loop_
_geom_torsion_atom_site_label_1
_geom_torsion_atom_site_label_2
_geom_torsion_atom_site_label_3
_geom_torsion_atom_site_label_4
_geom_torsion
C4 O2 C1 O3 -171.72(19)
C4 O2 C1 C2 10.0(2)
C3 O1 C2 C5 165.77(19)
C3 O1 C2 C1 -16.6(3)
O3 C1 C2 C5 12.0(3)
O2 C1 C2 C5 -169.7(2)
O3 C1 C2 O1 -165.55(19)
O2 C1 C2 O1 12.7(3)
C2 O1 C3 O4 -178.15(18)
C2 O1 C3 C4 -1.7(3)
C1 O2 C4 C6 -152.75(16)
C1 O2 C4 C3 -26.9(2)
O4 C3 C4 O2 -160.98(19)
O1 C3 C4 O2 22.7(3)
O4 C3 C4 C6 -37.4(3)
O1 C3 C4 C6 146.28(18)
