#------------------------------------------------------------------------------
#$Date: 2016-02-18 17:37:37 +0200 (Thu, 18 Feb 2016) $
#$Revision: 176729 $
#$URL: svn://www.crystallography.net/cod/cif/1/51/61/1516197.cif $
#------------------------------------------------------------------------------
#
# This file is available in the Crystallography Open Database (COD),
# http://www.crystallography.net/
#
# All data on this site have been placed in the public domain by the
# contributors.
#
data_1516197
loop_
_publ_author_name
'Hathwar, Venkatesha R.'
'Thakur, Tejender S.'
'Dubey, Ritesh'
'Pavan, Mysore S.'
'Row, Tayur N Guru'
'Desiraju, Gautam R.'
_publ_section_title
;
 Extending the supramolecular synthon based fragment approach (SBFA) for
 transferability of multipole charge density parameters to
 monofluorobenzoic acids and their cocrystals with isonicotinamide:
 importance of C-H&#x00B7;&#x00B7;&#x00B7;O, C-H&#x00B7;&#x00B7;&#x00B7;F,
 and F&#x00B7;&#x00B7;&#x00B7;F intermolecular regions.
;
_journal_issue                   45
_journal_name_full               'The journal of physical chemistry. A'
_journal_page_first              12852
_journal_page_last               12863
_journal_paper_doi               10.1021/jp2039866
_journal_volume                  115
_journal_year                    2011
_chemical_compound_source        'see text'
_chemical_formula_moiety         'C7 H5 F O2'
_chemical_formula_sum            'C7 H5 F O2'
_chemical_formula_weight         140.11
_chemical_name_common            '3-fluorobenzoic acid'
_chemical_name_systematic        ?
_space_group_IT_number           14
_symmetry_cell_setting           monoclinic
_symmetry_Int_Tables_number      14
_symmetry_space_group_name_Hall  '-P 2yn'
_symmetry_space_group_name_H-M   'P 1 21/n 1'
_atom_sites_solution_hydrogens   geom
_atom_sites_solution_primary     direct
_atom_sites_solution_secondary   difmap
_cell_angle_alpha                90
_cell_angle_beta                 92.91(3)
_cell_angle_gamma                90
_cell_formula_units_Z            4
_cell_length_a                   6.7465(13)
_cell_length_b                   3.7192(7)
_cell_length_c                   24.285(5)
_cell_measurement_reflns_used    1158
_cell_measurement_temperature    100(2)
_cell_measurement_theta_max      27.4
_cell_measurement_theta_min      2.5
_cell_volume                     608.6(2)
_computing_cell_refinement
;
CrystalClear-SM Expert 2.0 rc14 (Rigaku, 2009)
;
_computing_data_collection
;
CrystalClear-SM Expert 2.0 rc14 (Rigaku, 2009)
;
_computing_data_reduction
;
CrystalClear-SM Expert 2.0 rc14 (Rigaku, 2009)
;
_computing_publication_material  'PLATON (Spek, 2003)'
_computing_structure_refinement  'SHELXL-97 (Sheldrick, 1997)'
_diffrn_ambient_temperature      100
_diffrn_detector_area_resol_mean 13.6612
_diffrn_measured_fraction_theta_full 0.998
_diffrn_measured_fraction_theta_max 0.998
_diffrn_measurement_details
;
scan:
    Number of images: 360
               Slice: -60.0000 - 120.0000
         Image width: 0.5000
            Exp time: 16.0000
       Rotation axis: Omega
               Omega: 0.0000
                 Chi: 54.0000
                 Phi: 0.0000
                 XTD: 49.3505
              2theta: 29.5484
scan:
    Number of images: 360
               Slice: -60.0000 - 120.0000
         Image width: 0.5000
            Exp time: 16.0000
       Rotation axis: Omega
               Omega: 0.0000
                 Chi: 54.0000
                 Phi: 120.0000
                 XTD: 49.3505
              2theta: 29.5484
scan:
    Number of images: 360
               Slice: -60.0000 - 120.0000
         Image width: 0.5000
            Exp time: 16.0000
       Rotation axis: Omega
               Omega: 0.0000
                 Chi: 54.0000
                 Phi: 240.0000
                 XTD: 49.3505
              2theta: 29.5484

;
_diffrn_measurement_device
;
XtaLABmini: Fixed Chi 2 circle
;
_diffrn_measurement_device_type
;
Rigaku Mercury375R (2x2 bin mode)
;
_diffrn_measurement_method       'profile data from \w-scans'
_diffrn_orient_matrix_type       d*Trek
_diffrn_orient_matrix_UB_11      0.148286
_diffrn_orient_matrix_UB_12      -0.003431
_diffrn_orient_matrix_UB_13      -0.005184
_diffrn_orient_matrix_UB_21      -0.004732
_diffrn_orient_matrix_UB_22      -0.265763
_diffrn_orient_matrix_UB_23      0.040517
_diffrn_orient_matrix_UB_31      0.000526
_diffrn_orient_matrix_UB_32      -0.006223
_diffrn_orient_matrix_UB_33      -0.040756
_diffrn_radiation_monochromator  'Graphite Monochromator'
_diffrn_radiation_probe          x-ray
_diffrn_radiation_source         'Sealed Tube'
_diffrn_radiation_type           MoK\a
_diffrn_radiation_wavelength     0.71073
_diffrn_reflns_av_R_equivalents  0.0767
_diffrn_reflns_av_sigmaI/netI    0.0511
_diffrn_reflns_limit_h_max       8
_diffrn_reflns_limit_h_min       -8
_diffrn_reflns_limit_k_max       4
_diffrn_reflns_limit_k_min       -4
_diffrn_reflns_limit_l_max       31
_diffrn_reflns_limit_l_min       -31
_diffrn_reflns_number            5565
_diffrn_reflns_theta_full        27.45
_diffrn_reflns_theta_max         27.45
_diffrn_reflns_theta_min         1.68
_exptl_absorpt_coefficient_mu    0.132
_exptl_absorpt_correction_T_max  0.993
_exptl_absorpt_correction_T_min  0.962
_exptl_absorpt_correction_type   multi-scan
_exptl_absorpt_process_details   'Jacobson, R. (1998) Private communication'
_exptl_crystal_colour            Colorless
_exptl_crystal_density_diffrn    1.529
_exptl_crystal_density_method    'Not Measured'
_exptl_crystal_description       Plate
_exptl_crystal_F_000             288
_exptl_crystal_size_max          0.300
_exptl_crystal_size_mid          0.200
_exptl_crystal_size_min          0.050
_refine_diff_density_max         0.290
_refine_diff_density_min         -0.266
_refine_diff_density_rms         0.066
_refine_ls_extinction_method     none
_refine_ls_goodness_of_fit_ref   1.094
_refine_ls_hydrogen_treatment    mixed
_refine_ls_matrix_type           full
_refine_ls_number_parameters     111
_refine_ls_number_reflns         1376
_refine_ls_number_restraints     0
_refine_ls_restrained_S_all      1.094
_refine_ls_R_factor_all          0.0610
_refine_ls_R_factor_gt           0.0467
_refine_ls_shift/su_max          0.000
_refine_ls_shift/su_mean         0.000
_refine_ls_structure_factor_coef Fsqd
_refine_ls_weighting_details
'calc w=1/[\s^2^(Fo^2^)+(0.0521P)^2^+0.3523P] where P=(Fo^2^+2Fc^2^)/3'
_refine_ls_weighting_scheme      calc
_refine_ls_wR_factor_gt          0.1144
_refine_ls_wR_factor_ref         0.1347
_reflns_number_gt                1111
_reflns_number_total             1376
_reflns_threshold_expression     I>2\s(I)
_cod_data_source_file            3FBzAplaton.cif
_cod_data_source_block           shelxl
_cod_depositor_comments
;
The following automatic conversions were performed:

'_exptl_absorpt_correction_type' value 'Multi-scan' changed to
'multi-scan' according to
/usr/data/users/saulius/automatic-downloads/retrospective/ACS/lib/dictionaries/cif_core.dic
dictionary named 'cif_core.dic' version 2.4.2 from 2011-04-26.

Automatic conversion script
Id: cif_fix_values 2281 2013-09-26 08:29:07Z andrius 
;
_cod_original_sg_symbol_H-M      'P 21/n'
_cod_database_code               1516197
loop_
_symmetry_equiv_pos_site_id
_symmetry_equiv_pos_as_xyz
1 x,y,z
2 1/2-x,1/2+y,1/2-z
3 -x,-y,-z
4 1/2+x,1/2-y,1/2+z
loop_
_atom_site_aniso_label
_atom_site_aniso_U_11
_atom_site_aniso_U_22
_atom_site_aniso_U_33
_atom_site_aniso_U_23
_atom_site_aniso_U_13
_atom_site_aniso_U_12
F1 0.0264(6) 0.0397(7) 0.0200(6) 0.0027(5) 0.0008(4) -0.0001(5)
O1 0.0287(7) 0.0336(8) 0.0194(6) 0.0024(6) 0.0020(5) -0.0073(6)
O2 0.0201(6) 0.0315(8) 0.0243(7) 0.0011(6) 0.0012(5) -0.0074(6)
C1 0.0187(8) 0.0148(8) 0.0223(9) -0.0011(6) 0.0025(6) 0.0013(7)
C2 0.0155(8) 0.0179(9) 0.0230(9) -0.0002(7) 0.0029(6) 0.0007(7)
C3 0.0230(9) 0.0193(8) 0.0196(8) 0.0001(7) 0.0022(6) 0.0035(7)
C4 0.0189(9) 0.0198(9) 0.0273(9) -0.0037(7) -0.0028(7) 0.0008(7)
C5 0.0181(8) 0.0192(9) 0.0315(10) -0.0003(7) 0.0031(7) -0.0023(7)
C6 0.0196(9) 0.0185(9) 0.0236(9) 0.0005(7) 0.0046(7) -0.0008(7)
C7 0.0182(8) 0.0179(8) 0.0207(8) -0.0010(7) 0.0029(6) 0.0007(7)
loop_
_atom_site_label
_atom_site_type_symbol
_atom_site_thermal_displace_type
_atom_site_fract_x
_atom_site_fract_y
_atom_site_fract_z
_atom_site_occupancy
_atom_site_U_iso_or_equiv
F1 F Uani 0.92868(16) 0.0892(3) 0.24934(4) 1.000 0.0287(4)
O1 O Uani 0.7309(2) 0.2140(4) 0.00876(5) 1.000 0.0272(4)
O2 O Uani 0.54101(18) -0.0616(4) 0.06870(5) 1.000 0.0253(4)
C1 C Uani 0.8496(2) 0.1823(5) 0.10184(7) 1.000 0.0186(5)
C2 C Uani 0.8113(2) 0.1004(5) 0.15641(7) 1.000 0.0187(5)
C3 C Uani 0.9600(3) 0.1691(5) 0.19589(7) 1.000 0.0206(5)
C4 C Uani 1.1418(3) 0.3141(5) 0.18393(8) 1.000 0.0221(5)
C5 C Uani 1.1770(3) 0.3951(5) 0.12962(8) 1.000 0.0229(5)
C6 C Uani 1.0309(3) 0.3303(5) 0.08837(7) 1.000 0.0205(5)
C7 C Uani 0.6950(2) 0.1041(5) 0.05779(7) 1.000 0.0189(5)
H1 H Uiso 0.605(6) 0.151(12) -0.0254(15) 1.000 0.125(16)
H2 H Uiso 0.686(3) -0.002(6) 0.1662(8) 1.000 0.027(6)
H4 H Uiso 1.242(3) 0.348(6) 0.2129(8) 1.000 0.024(5)
H5 H Uiso 1.311(3) 0.497(5) 0.1230(7) 1.000 0.011(4)
H6 H Uiso 1.054(3) 0.385(6) 0.0514(9) 1.000 0.029(6)
loop_
_atom_type_symbol
_atom_type_description
_atom_type_scat_dispersion_real
_atom_type_scat_dispersion_imag
_atom_type_scat_source
O O 0.0106 0.0060 'International Tables Vol C Tables 4.2.6.8 and 6.1.1.4'
F F 0.0171 0.0103 'International Tables Vol C Tables 4.2.6.8 and 6.1.1.4'
H H 0.0000 0.0000 'International Tables Vol C Tables 4.2.6.8 and 6.1.1.4'
C C 0.0033 0.0016 'International Tables Vol C Tables 4.2.6.8 and 6.1.1.4'
loop_
_geom_angle_atom_site_label_1
_geom_angle_atom_site_label_2
_geom_angle_atom_site_label_3
_geom_angle
_geom_angle_publ_flag
C7 O1 H1 115.0(19) no
C2 C1 C7 118.95(14) no
C6 C1 C7 120.04(15) no
C2 C1 C6 121.01(15) no
C1 C2 C3 117.21(14) no
F1 C3 C2 118.81(17) yes
F1 C3 C4 117.92(16) yes
C2 C3 C4 123.27(17) no
C3 C4 C5 118.76(18) no
C4 C5 C6 119.92(18) no
C1 C6 C5 119.82(17) no
O1 C7 C1 116.36(14) yes
O2 C7 C1 120.39(15) yes
O1 C7 O2 123.26(15) yes
C1 C2 H2 121.7(12) no
C3 C2 H2 121.1(12) no
C3 C4 H4 119.8(12) no
C5 C4 H4 121.4(12) no
C4 C5 H5 115.8(10) no
C6 C5 H5 124.3(10) no
C1 C6 H6 119.9(13) no
C5 C6 H6 120.3(13) no
loop_
_geom_bond_atom_site_label_1
_geom_bond_atom_site_label_2
_geom_bond_distance
_geom_bond_publ_flag
F1 C3 1.359(2) yes
O1 C7 1.293(2) yes
O2 C7 1.248(2) yes
O1 H1 1.18(4) no
C1 C6 1.395(2) no
C1 C7 1.484(2) no
C1 C2 1.397(2) no
C2 C3 1.376(2) no
C3 C4 1.384(3) no
C4 C5 1.385(3) no
C5 C6 1.390(3) no
C2 H2 0.97(2) no
C4 H4 0.96(2) no
C5 H5 1.00(2) no
C6 H6 0.94(2) no
loop_
_geom_contact_atom_site_label_1
_geom_contact_atom_site_label_2
_geom_contact_distance
_geom_contact_site_symmetry_2
_geom_contact_publ_flag
F1 F1 3.0462(17) 2_645 no
F1 F1 3.0462(17) 2_655 no
F1 H2 2.70(2) 2_655 no
F1 H4 2.53(2) 2_745 no
O1 O2 2.6220(19) 3_655 no
O1 C6 3.377(2) 3_765 no
O2 C7 3.391(2) 3_655 no
O2 C7 3.287(2) 1_545 no
O2 C5 3.387(2) 1_455 no
O2 O1 2.6220(19) 3_655 no
O1 H6 2.59(2) 3_765 no
O1 H1 2.69(4) 3_655 no
O1 H6 2.45(2) . no
O2 H5 2.655(19) 1_445 no
O2 H2 2.53(2) . no
O2 H1 1.44(4) 3_655 no
C1 C6 3.418(3) 1_545 no
C3 C4 3.426(3) 1_545 no
C4 C3 3.426(3) 1_565 no
C5 O2 3.387(2) 1_655 no
C6 C1 3.418(3) 1_565 no
C6 O1 3.377(2) 3_765 no
C7 O2 3.287(2) 1_565 no
C7 O2 3.391(2) 3_655 no
C7 H1 2.34(4) 3_655 no
H1 O1 2.69(4) 3_655 no
H1 O2 1.44(4) 3_655 no
H1 C7 2.34(4) 3_655 no
H1 H1 2.23(6) 3_655 no
H2 O2 2.53(2) . no
H2 F1 2.70(2) 2_645 no
H4 F1 2.53(2) 2_755 no
H4 H4 2.59(3) 2_745 no
H4 H4 2.59(3) 2_755 no
H5 O2 2.655(19) 1_665 no
H6 O1 2.45(2) . no
H6 O1 2.59(2) 3_765 no
loop_
_geom_hbond_atom_site_label_D
_geom_hbond_atom_site_label_H
_geom_hbond_atom_site_label_A
_geom_hbond_distance_DH
_geom_hbond_distance_HA
_geom_hbond_distance_DA
_geom_hbond_angle_DHA
_geom_hbond_site_symmetry_A
_geom_hbond_publ_flag
O1 H1 O2 1.18(4) 1.44(4) 2.6220(19) 177(4) 3_655 yes
C4 H4 F1 0.96(2) 2.53(2) 3.405(2) 152.6(16) 2_755 yes
C6 H6 O1 0.94(2) 2.59(2) 3.377(2) 142.1(17) 3_765 yes
loop_
_geom_torsion_atom_site_label_1
_geom_torsion_atom_site_label_2
_geom_torsion_atom_site_label_3
_geom_torsion_atom_site_label_4
_geom_torsion
_geom_torsion_publ_flag
C6 C1 C2 C3 -0.5(3) no
C7 C1 C2 C3 178.53(17) no
C2 C1 C6 C5 0.6(3) no
C7 C1 C6 C5 -178.47(17) no
C2 C1 C7 O1 174.09(17) no
C2 C1 C7 O2 -6.4(3) no
C6 C1 C7 O1 -6.9(3) no
C6 C1 C7 O2 172.62(18) no
C1 C2 C3 F1 -179.31(16) no
C1 C2 C3 C4 0.2(3) no
F1 C3 C4 C5 179.57(17) no
C2 C3 C4 C5 0.0(3) no
C3 C4 C5 C6 0.0(3) no
C4 C5 C6 C1 -0.3(3) no
