#------------------------------------------------------------------------------
#$Date: 2016-02-18 17:37:37 +0200 (Thu, 18 Feb 2016) $
#$Revision: 176729 $
#$URL: svn://www.crystallography.net/cod/cif/1/51/62/1516258.cif $
#------------------------------------------------------------------------------
#
# This file is available in the Crystallography Open Database (COD),
# http://www.crystallography.net/
#
# All data on this site have been placed in the public domain by the
# contributors.
#
data_1516258
loop_
_publ_author_name
'Lekin, Kristina'
'Phan, Hoa'
'Winter, Stephen M.'
'Wong, Joanne W. L.'
'Leitch, Alicea A.'
'Laniel, Dominique'
'Yong, Wenjun'
'Secco, Richard A.'
'Tse, John S.'
'Desgreniers, Serge'
'Dube, Paul A.'
'Shatruk, Michael'
'Oakley, Richard T.'
_publ_section_title
;
 Heat, Pressure and Light-Induced Interconversion of Bisdithiazolyl
 Radicals and Dimers.
;
_journal_issue                   22
_journal_name_full               'Journal of the American Chemical Society'
_journal_page_first              8050
_journal_paper_doi               10.1021/ja502753t
_journal_volume                  136
_journal_year                    2014
_chemical_formula_moiety         'C12 H6 F2 N6 S8'
_chemical_formula_sum            'C12 H6 F2 N6 S8'
_chemical_formula_weight         528.70
_chemical_name_common            FBPMe
_chemical_name_systematic        ' ?'
_space_group_IT_number           14
_symmetry_cell_setting           monoclinic
_symmetry_space_group_name_Hall  '-P 2ybc'
_symmetry_space_group_name_H-M   'P 1 21/c 1'
_cell_angle_alpha                90.0
_cell_angle_beta                 86.261(7)
_cell_angle_gamma                90.0
_cell_formula_units_Z            2
_cell_length_a                   3.86543(33)
_cell_length_b                   13.4994(21)
_cell_length_c                   14.4694(12)
_cell_measurement_temperature    293(2)
_cell_volume                     753.42(15)
_computing_structure_refinement  GSAS
_diffrn_ambient_temperature      293(2)
_diffrn_radiation_polarisn_ratio 0.95
_diffrn_radiation_probe          x-ray
_diffrn_radiation_type           synchrotron
_diffrn_radiation_wavelength     0.50918
_diffrn_source                   synchrotron
_diffrn_source_type              'Canadian Light Source'
_exptl_absorpt_correction_T_max  1.00000
_exptl_absorpt_correction_T_min  1.00000
_exptl_absorpt_process_details
;   GSAS Absorption/surface roughness correction: function number 0
 No correction is applied.
;
_exptl_crystal_colour            black
_exptl_crystal_density_diffrn    2.331
_pd_calc_method                  'Rietveld Refinement'
_pd_instr_location               ' ?'
_pd_meas_2theta_range_inc        0.01
_pd_meas_2theta_range_max        22.915
_pd_meas_2theta_range_min        0.005
_pd_meas_number_of_points        2292
_pd_phase_name                   'fbpme 4.88 GPa'
_pd_proc_2theta_range_inc        0.01
_pd_proc_2theta_range_max        22.9149
_pd_proc_2theta_range_min        0.0049
_pd_proc_info_datetime           2013-02-14T15:52:47
_pd_proc_info_excluded_regions   ' ?'
_pd_proc_ls_background_function
;   GSAS Background function number 1 with  8 terms.
 Shifted Chebyshev function of 1st kind
      1:    958.792     2:    238.470     3:   -28.8068     4:    14.7927    
      5:   -17.5032     6:   -7.85268     7:   -2.63282     8:    4.13171    
;
_pd_proc_ls_peak_cutoff          0.00100
_pd_proc_ls_profile_function
;
 CW Profile function number 2 with  18 terms
 Profile coefficients for Simpson's rule integration of pseudovoigt function
 C.J. Howard (1982). J. Appl. Cryst.,15,615-620.
 P. Thompson, D.E. Cox & J.B. Hastings (1987). J. Appl. Cryst.,20,79-83.
 Peak tails are ignored  where the intensity is below 0.0010 times the peak
   Aniso. broadening axis   0.0   0.0   1.0
;
_pd_proc_ls_prof_R_factor        0.0099
_pd_proc_ls_prof_wR_expected     0.0306
_pd_proc_ls_prof_wR_factor       0.0142
_pd_proc_number_of_points        2292
_pd_spec_mounting                ' ?'
_refine_ls_goodness_of_fit_all   0.46
_refine_ls_matrix_type           full
_refine_ls_number_parameters     1
_refine_ls_number_restraints     0
_refine_ls_R_Fsqd_factor         0.36353
_refine_ls_shift/su_max          0.01
_refine_ls_shift/su_mean         0.01
_reflns_d_resolution_high        1.824
_reflns_d_resolution_low         7.219
_reflns_limit_h_max              2
_reflns_limit_h_min              0
_reflns_limit_k_max              8
_reflns_limit_k_min              0
_reflns_limit_l_max              8
_reflns_limit_l_min              -7
_reflns_number_total             125
_cod_data_source_file            ja502753t_si_005.cif
_cod_data_source_block           FBPMe_4.88GPa
_cod_depositor_comments
;
The following automatic conversions were performed:

'_geom_bond_publ_flag' value 'N' changed to 'n' according to
/usr/data/users/saulius/crontab/automatic-downloads/rss-feeds/ACS/lib/dictionaries/cif_core.dic
dictionary named 'cif_core.dic' version 2.4.2 from 2011-04-26 (23
times).

'_geom_angle_publ_flag' value 'N' changed to 'n' according
to
/usr/data/users/saulius/crontab/automatic-downloads/rss-feeds/ACS/lib/dictionaries/cif_core.dic
dictionary named 'cif_core.dic' version 2.4.2 from 2011-04-26 (29
times).

Automatic conversion script
Id: cif_fix_values 2281 2013-09-26 08:29:07Z andrius 

 Adding full bibliography for 1516253--1516258.cif.
;
_cod_original_cell_volume        753.42(8)
_cod_database_code               1516258
#BEGIN Tags that were not found in dictionaries:
_gsas_exptl_extinct_corr_t_min   1.00000
_gsas_exptl_extinct_corr_t_max   1.00000
#END Tags that were not found in dictionaries
loop_
_symmetry_equiv_pos_site_id
_symmetry_equiv_pos_as_xyz
1 +x,+y,+z
2 -x,+y+1/2,-z+1/2
-1 -x,-y,-z
-2 +x,-y+1/2,+z+1/2
loop_
_atom_site_type_symbol
_atom_site_label
_atom_site_fract_x
_atom_site_fract_y
_atom_site_fract_z
_atom_site_occupancy
_atom_site_thermal_displace_type
_atom_site_U_iso_or_equiv
_atom_site_symmetry_multiplicity
S S1 1.39653 1.00797 0.61177 1.0 Uiso 0.0332 4
S S2 1.11948 0.96661 0.73464 1.0 Uiso 0.0332 4
S S3 0.39407 0.53149 0.5665 1.0 Uiso 0.0332 4
S S4 0.29141 0.64251 0.72939 1.0 Uiso 0.0332 4
F F1 0.60624 0.81888 0.81371 1.0 Uiso 0.0332 4
N N1 1.28598 0.91352 0.54748 1.0 Uiso 0.0332 4
N N2 0.96386 0.76755 0.54249 1.0 Uiso 0.0332 4
N N3 0.65505 0.62332 0.53537 1.0 Uiso 0.0332 4
C C1 1.0711 0.84979 0.58806 1.0 Uiso 0.0332 4
C C2 0.94763 0.86525 0.68306 1.0 Uiso 0.0332 4
C C3 0.71569 0.80087 0.72464 1.0 Uiso 0.0332 4
C C4 0.58877 0.71862 0.67961 1.0 Uiso 0.0332 4
C C5 0.72752 0.69948 0.58499 1.0 Uiso 0.0332 4
C C6 1.10104 0.75023 0.44685 1.0 Uiso 0.0332 4
H H6A 1.3017 0.79096 0.4337 1.0 Uiso 0.0664 4
H H6B 0.92712 0.76656 0.40484 1.0 Uiso 0.0664 4
H H6C 1.16412 0.68172 0.43933 1.0 Uiso 0.0664 4
loop_
_atom_type_symbol
_atom_type_number_in_cell
_atom_type_scat_dispersion_real
_atom_type_scat_dispersion_imag
_atom_type_scat_Cromer_Mann_a1
_atom_type_scat_Cromer_Mann_a2
_atom_type_scat_Cromer_Mann_a3
_atom_type_scat_Cromer_Mann_a4
_atom_type_scat_Cromer_Mann_b1
_atom_type_scat_Cromer_Mann_b2
_atom_type_scat_Cromer_Mann_b3
_atom_type_scat_Cromer_Mann_b4
_atom_type_scat_Cromer_Mann_c
_atom_type_scat_source
S 16.0 0.000 0.000 6.90530 1.46790 5.20340 22.2151 1.43790 0.25360 1.58630
56.1720 0.86690 International_Tables_Vol_C
F 4.0 0.000 0.000 3.53920 10.2825 2.64120 4.29440 1.51700 0.26150 1.02430
26.1476 0.27760 International_Tables_Vol_C
N 12.0 0.000 0.000 12.2126 0.00570 3.13220 9.89330 2.01250 28.9975 1.16630
0.58260 -11.529 International_Tables_Vol_C
C 24.0 0.000 0.000 2.31000 20.8439 1.02000 10.2075 1.58860 0.56870 0.86500
51.6512 0.21560 International_Tables_Vol_C
H 12.0 0.000 0.000 0.49300 10.5109 0.32291 26.1257 0.14019 3.14236 0.04081
57.7997 0.00304 International_Tables_Vol_C
loop_
_geom_angle_atom_site_label_1
_geom_angle_atom_site_label_2
_geom_angle_atom_site_label_3
_geom_angle
_geom_angle_site_symmetry_1
_geom_angle_site_symmetry_3
_geom_angle_publ_flag
S1 S2 C2 91.977 1_555 1_555 n
S2 S1 N1 97.808 1_555 1_555 n
S3 S3 N3 82.274 -1_666 1_555 n
C1 N2 C5 121.792 1_555 1_555 n
C1 N2 C6 118.7504 1_555 1_555 n
C5 N2 C6 119.457 1_555 1_555 n
S3 N3 C5 126.747 1_555 1_555 n
S1 N1 C1 115.793 1_555 1_555 n
N2 C1 N1 121.359 1_555 1_555 n
N2 C1 C2 119.0194 1_555 1_555 n
N1 C1 C2 119.616 1_555 1_555 n
N2 C5 N3 115.687 1_555 1_555 n
N2 C5 C4 118.812 1_555 1_555 n
N3 C5 C4 125.4964 1_555 1_555 n
F1 C3 C4 119.4344 1_555 1_555 n
F1 C3 C2 117.575 1_555 1_555 n
C4 C3 C2 122.990 1_555 1_555 n
S4 C4 C5 119.731 1_555 1_555 n
S4 C4 C3 122.844 1_555 1_555 n
C5 C4 C3 117.4230 1_555 1_555 n
S2 C2 C1 114.6854 1_555 1_555 n
S2 C2 C3 125.495 1_555 1_555 n
C1 C2 C3 119.816 1_555 1_555 n
N2 C6 H6A 109.466 1_555 1_555 n
N2 C6 H6B 109.583 1_555 1_555 n
N2 C6 H6C 109.4783 1_555 1_555 n
H6A C6 H6B 109.446 1_555 1_555 n
H6A C6 H6C 109.462 1_555 1_555 n
H6B C6 H6C 109.3923 1_555 1_555 n
loop_
_geom_bond_atom_site_label_1
_geom_bond_atom_site_label_2
_geom_bond_distance
_geom_bond_site_symmetry_2
_geom_bond_publ_flag
S2 S1 2.09071 1_555 n
S2 C2 1.71323 1_555 n
S4 S3 2.79941 1_555 n
S4 C4 1.66962 1_555 n
S1 S2 2.09071 1_555 n
S1 N1 1.65090 1_555 n
S3 S3 2.21165 -1_666 n
S3 N3 1.64257 1_555 n
F1 C3 1.35203 1_555 n
N2 C1 1.36922 1_555 n
N2 C5 1.40850 1_555 n
N2 C6 1.46806 1_555 n
N3 C5 1.29507 1_555 n
N1 C1 1.30813 1_555 n
C1 N2 1.36922 1_555 n
C1 C2 1.44059 1_555 n
C5 N3 1.29507 1_555 n
C5 C4 1.46050 1_555 n
C3 C4 1.39274 1_555 n
C3 C2 1.36042 1_555 n
C6 H6A 0.95963 1_555 n
C6 H6B 0.96091 1_555 n
C6 H6C 0.96082 1_555 n
loop_
_pd_meas_counts_total
_pd_proc_ls_weight
_pd_proc_intensity_bkg_calc
_pd_calc_intensity_total
595.0 0.0 -2611.13013 .
618.0 0.0 -2583.66992 .
630.0 0.0 -2556.40405 .
652.0 0.0 -2529.33179 .
664.0 0.0 -2502.45166 .
665.0 0.0 -2475.76245 .
661.0 0.0 -2449.26318 .
655.0 0.0 -2422.95288 .
645.0 0.0 -2396.83081 .
655.0 0.0 -2370.89453 .
665.0 0.0 -2345.14404 .
666.0 0.0 -2319.57861 .
637.0 0.0 -2294.19556 .
619.0 0.0 -2268.99536 .
597.0 0.0 -2243.97583 .
582.0 0.0 -2219.13623 .
575.0 0.0 -2194.47583 .
565.0 0.0 -2169.99390 .
563.0 0.0 -2145.68823 .
550.0 0.0 -2121.55884 .
543.0 0.0 -2097.60352 .
540.0 0.0 -2073.82227 .
530.0 0.0 -2050.21362 .
523.0 0.0 -2026.77686 .
529.0 0.0 -2003.51001 .
520.0 0.0 -1980.41321 .
498.0 0.0 -1957.48474 .
494.0 0.0 -1934.72400 .
492.0 0.0 -1912.12964 .
491.0 0.0 -1889.70068 .
483.0 0.0 -1867.43579 .
481.0 0.0 -1845.33484 .
474.0 0.0 -1823.39661 .
470.0 0.0 -1801.61938 .
471.0 0.0 -1780.00293 .
468.0 0.0 -1758.54565 .
465.0 0.0 -1737.24670 .
459.0 0.0 -1716.10571 .
450.0 0.0 -1695.12109 .
448.0 0.0 -1674.29211 .
445.0 0.0 -1653.61780 .
437.0 0.0 -1633.09717 .
430.0 0.0 -1612.72913 .
423.0 0.0 -1592.51294 .
419.0 0.0 -1572.44812 .
417.0 0.0 -1552.53296 .
410.0 0.0 -1532.76636 .
405.0 0.0 -1513.14795 .
399.0 0.0 -1493.67688 .
395.0 0.0 -1474.35205 .
399.0 0.0 -1455.17212 .
402.0 0.0 -1436.13684 .
401.0 0.0 -1417.24524 .
401.0 0.0 -1398.49561 .
399.0 0.0 -1379.88818 .
396.0 0.0 -1361.42126 .
391.0 0.0 -1343.09399 .
386.0 0.0 -1324.90662 .
383.0 0.0 -1306.85693 .
382.0 0.0 -1288.94446 .
381.0 0.0 -1271.16809 .
380.0 0.0 -1253.52771 .
374.0 0.0 -1236.02136 .
368.0 0.0 -1218.64929 .
365.0 0.0 -1201.41003 .
362.0 0.0 -1184.30286 .
359.0 0.0 -1167.32666 .
358.0 0.0 -1150.48120 .
359.0 0.0 -1133.76514 .
357.0 0.0 -1117.17773 .
355.0 0.0 -1100.71851 .
353.0 0.0 -1084.38586 .
350.0 0.0 -1068.17969 .
347.0 0.0 -1052.09900 .
343.0 0.0 -1036.14282 .
341.0 0.0 -1020.31067 .
339.0 0.0 -1004.60138 .
335.0 0.0 -989.01434 .
334.0 0.0 -973.54852 .
331.0 0.0 -958.20331 .
329.0 0.0 -942.97809 .
330.0 0.0 -927.87164 .
330.0 0.0 -912.88385 .
325.0 0.0 -898.01355 .
321.0 0.0 -883.25958 .
319.0 0.0 -868.62177 .
317.0 0.0 -854.09900 .
315.0 0.0 -839.69067 .
318.0 0.0 -825.39581 .
317.0 0.0 -811.21411 .
315.0 0.0 -797.14435 .
317.0 0.0 -783.18591 .
313.0 0.0 -769.33820 .
311.0 0.0 -755.60040 .
309.0 0.0 -741.97205 .
306.0 0.0 -728.45178 .
306.0 0.0 -715.03943 .
307.0 0.0 -701.73407 .
307.0 0.0 -688.53485 .
306.0 0.0 -675.44135 .
305.0 0.0 -662.45251 .
303.0 0.0 -649.56781 .
300.0 0.0 -636.78668 .
298.0 0.0 -624.10840 .
296.0 0.0 -611.53174 .
294.0 0.0 -599.05670 .
294.0 0.0 -586.68213 .
293.0 0.0 -574.40747 .
290.0 0.0 -562.23236 .
290.0 0.0 -550.15570 .
291.0 0.0 -538.17712 .
291.0 0.0 -526.29553 .
290.0 0.0 -514.51080 .
290.0 0.0 -502.82166 .
288.0 0.0 -491.22797 .
285.0 0.0 -479.72876 .
285.0 0.0 -468.32355 .
285.0 0.0 -457.01172 .
282.0 0.0 -445.79227 .
280.0 0.0 -434.66498 .
279.0 0.0 -423.62885 .
276.0 0.0 -412.68353 .
274.0 0.0 -401.82849 .
274.0 0.0 -391.06277 .
273.0 0.0 -380.38589 .
273.0 0.0 -369.79703 .
275.0 0.0 -359.29587 .
274.0 0.0 -348.88153 .
272.0 0.0 -338.55374 .
271.0 0.0 -328.31155 .
271.0 0.0 -318.15442 .
270.0 0.0 -308.08209 .
268.0 0.0 -298.09326 .
267.0 0.0 -288.18802 .
267.0 0.0 -278.36560 .
267.0 0.0 -268.62515 .
267.0 0.0 -258.96625 .
264.0 0.0 -249.38840 .
264.0 0.0 -239.89078 .
265.0 0.0 -230.47311 .
262.0 0.0 -221.13448 .
258.0 0.0 -211.87477 .
258.0 0.0 -202.69283 .
258.0 0.0 -193.58859 .
258.0 0.0 -184.56131 .
258.0 0.0 -175.61035 .
256.0 0.0 -166.73521 .
258.0 0.0 -157.93539 .
258.0 0.0 -149.21028 .
256.0 0.0 -140.55949 .
255.0 0.0 -131.98225 .
254.0 0.0 -123.47822 .
254.0 0.0 -115.04656 .
254.0 0.0 -106.68700 .
252.0 0.0 -98.39902 .
250.0 0.0 -90.18200 .
250.0 0.0 -82.03522 .
249.0 0.0 -73.95868 .
248.0 0.0 -65.95124 .
247.0 0.0 -58.01297 .
247.0 0.0 -50.14292 .
247.0 0.0 -42.34076 .
247.0 0.0 -34.60596 .
245.0 0.0 -26.93796 .
244.0 0.0 -19.33628 .
245.0 0.0 -11.80057 .
246.0 0.0 -4.33010 .
244.0 0.0 3.07544 .
241.0 0.0 10.41672 .
240.0 0.0 17.69414 .
239.0 0.0 24.90812 .
239.0 0.0 32.05912 .
238.0 0.0 39.14783 .
239.0 0.0 46.17448 .
240.0 0.0 53.13963 .
239.0 0.0 60.04382 .
240.0 0.0 66.88760 .
241.0 0.0 73.67115 .
240.0 0.0 80.39514 .
239.0 0.0 87.06002 .
239.0 0.0 93.66611 .
238.0 0.0 100.21415 .
239.0 0.0 106.70415 .
239.0 0.0 113.13705 .
240.0 0.0 119.51283 .
240.0 0.0 125.83228 .
239.0 0.0 132.09570 .
240.0 0.0 138.30367 .
239.0 0.0 144.45641 .
238.0 0.0 150.55447 .
238.0 0.0 156.59831 .
238.0 0.0 162.58839 .
239.0 0.0 168.52495 .
239.0 0.0 174.40854 .
237.0 0.0 180.23972 .
238.0 0.0 186.01855 .
239.0 0.0 191.74570 .
239.0 0.0 197.42152 .
240.0 0.0 203.04654 .
244.0 0.0 208.62094 .
244.0 0.0 214.14537 .
244.0 0.0 219.62007 .
242.0 0.0 225.04544 .
242.0 0.0 230.42200 .
241.0 0.0 235.75000 .
240.0 0.0 241.02989 .
239.0 0.0 246.26218 .
240.0 0.0 251.44701 .
242.0 0.0 256.58499 .
241.0 0.0 261.67633 .
242.0 0.0 266.72150 .
244.0 0.0 271.72101 .
246.0 0.0 276.67493 .
246.0 0.0 281.58392 .
248.0 0.0 286.44836 .
247.0 0.0 291.26828 .
247.0 0.0 296.04446 .
250.0 0.0 300.77695 .
252.0 0.0 305.46637 .
253.0 0.0 310.11279 .
255.0 0.0 314.71680 .
259.0 0.0 319.27869 .
264.0 0.0 323.79877 .
267.0 0.0 328.27747 .
272.0 0.0 332.71509 .
281.0 0.0 337.11200 .
287.0 0.0 341.46848 .
293.0 0.0 345.78488 .
301.0 0.0 350.06174 .
309.0 0.0 354.29910 .
318.0 0.0 358.49750 .
325.0 0.0 362.65707 .
329.0 0.0 366.77841 .
334.0 0.0 370.86169 .
342.0 0.0 374.90717 .
351.0 0.0 378.91531 .
360.0 0.0 382.88641 .
367.0 0.0 386.82077 .
375.0 0.0 390.71872 .
384.0 0.0 394.58066 .
389.0 0.0 398.40665 .
394.0 0.0 402.19730 .
404.0 0.0 405.95267 .
416.0 0.0 409.67331 .
422.0 0.0 413.35931 .
428.0 0.0 417.01114 .
435.0 0.0 420.62888 .
437.0 0.0 424.21295 .
440.0 0.0 427.76398 .
447.0 0.0 431.28159 .
454.0 0.0 434.76669 .
459.0 0.0 438.21918 .
462.0 0.0 441.63959 .
466.0 0.0 445.02811 .
471.0 0.0 448.38495 .
477.0 0.0 451.71060 .
479.0 0.0 455.00507 .
481.0 0.0 458.26877 .
484.0 0.0 461.50214 .
489.0 0.0 464.70526 .
495.0 0.0 467.87836 .
500.0 0.0 471.02182 .
503.0 0.0 474.13593 .
505.0 0.0 477.22089 .
505.0 0.0 480.27710 .
506.0 0.0 483.30469 .
509.0 0.0 486.30392 .
513.0 0.0 489.27521 .
513.0 0.0 492.21860 .
515.0 0.0 495.13446 .
522.0 0.0 498.02295 .
527.0 0.0 500.88452 .
526.0 0.0 503.71936 .
528.0 0.0 506.52759 .
532.0 0.0 509.30957 .
533.0 0.0 512.06567 .
535.0 0.0 514.79572 .
540.0 0.0 517.50043 .
546.0 0.0 520.17969 .
548.0 0.0 522.83398 .
551.0 0.0 525.46338 .
555.0 0.0 528.06818 .
554.0 0.0 530.64874 .
556.0 0.0 533.20502 .
559.0 0.0 535.73761 .
561.0 0.0 538.24640 .
565.0 0.0 540.73175 .
568.0 0.0 543.19409 .
572.0 0.0 545.63330 .
573.0 0.0 548.04974 .
575.0 0.0 550.44373 .
585.0 0.0 552.81531 .
597.0 0.0 555.16498 .
605.0 0.0 557.49255 .
610.0 0.0 559.79865 .
611.0 0.0 562.08313 .
607.0 0.0 564.34650 .
604.0 0.0 566.58887 .
603.0 0.0 568.81024 .
601.0 0.0 571.01111 .
599.0 0.0 573.19165 .
599.0 0.0 575.35199 .
601.0 0.0 577.49213 .
602.0 0.0 579.61255 .
604.0 0.0 581.71362 .
606.0 0.0 583.79486 .
606.0 0.0 585.85724 .
603.0 0.0 587.90051 .
604.0 0.0 589.92493 .
610.0 0.0 591.93079 .
614.0 0.0 593.91803 .
614.0 0.0 595.88715 .
612.0 0.0 597.83826 .
613.0 0.0 599.77148 .
617.0 0.0 601.68707 .
619.0 0.0 603.58508 .
622.0 0.0 605.46564 .
623.0 0.0 607.32922 .
624.0 0.0 609.17584 .
626.0 0.0 611.00568 .
628.0 0.0 612.81891 .
628.0 0.0 614.61566 .
626.0 0.0 616.39612 .
627.0 0.0 618.16046 .
628.0 0.0 619.90906 .
630.0 0.0 621.64172 .
632.0 0.0 623.35883 .
636.0 0.0 625.06055 .
639.0 0.0 626.74701 .
642.0 0.0 628.41833 .
643.0 0.0 630.07489 .
642.0 0.0 631.71655 .
643.0 0.0 633.34357 .
645.0 0.0 634.95630 .
646.0 0.0 636.55457 .
647.0 0.0 638.13879 .
651.0 0.0 639.70898 .
652.0 0.0 641.26544 .
651.0 0.0 642.80804 .
651.0 0.0 644.33734 .
651.0 0.0 645.85309 .
652.0 0.0 647.35565 .
654.0 0.0 648.84515 .
658.0 0.0 650.32178 .
658.0 0.0 651.78552 .
658.0 0.0 653.23645 .
659.0 0.0 654.67517 .
660.0 0.0 656.10150 .
659.0 0.0 657.51563 .
660.0 0.0 658.91742 .
665.0 0.001504 660.30743 660.45154
668.0 0.001497 661.68561 661.83496
669.0 0.001495 663.05212 663.20697
669.0 0.001495 664.40710 664.56781
669.0 0.001495 665.75061 665.91748
669.0 0.001495 667.08270 667.25616
668.0 0.001497 668.40387 668.58423
669.0 0.001495 669.71399 669.90173
672.0 0.001488 671.01312 671.20874
677.0 0.001477 672.30151 672.50543
677.0 0.001477 673.57928 673.79218
677.0 0.001477 674.84650 675.06885
678.0 0.001475 676.10321 676.33575
680.0 0.001471 677.34991 677.59338
680.0 0.001471 678.58624 678.84137
682.0 0.001466 679.81268 680.08032
683.0 0.001464 681.02911 681.31036
684.0 0.001462 682.23572 682.53149
684.0 0.001462 683.43274 683.74438
684.0 0.001462 684.62012 684.94885
686.0 0.001458 685.79810 686.14539
690.0 0.001449 686.96674 687.33417
695.0 0.001439 688.12604 688.51556
699.0 0.001431 689.27643 689.69006
698.0 0.001433 690.41766 690.85779
696.0 0.001437 691.55017 692.01947
693.0 0.001443 692.67377 693.17517
694.0 0.001441 693.78864 694.32568
697.0 0.001435 694.89502 695.47162
699.0 0.001431 695.99292 696.61377
698.0 0.001433 697.08240 697.75275
699.0 0.001431 698.16370 698.88983
700.0 0.001429 699.23688 700.02612
699.0 0.001431 700.30194 701.16302
698.0 0.001433 701.35901 702.30212
697.0 0.001435 702.40826 703.44586
702.0 0.001425 703.44983 704.59692
705.0 0.001418 704.48370 706.60468
706.0 0.001416 705.50989 707.80615
708.0 0.001412 706.52869 709.03113
710.0 0.001408 707.54022 710.29126
712.0 0.001404 708.54443 711.60638
711.0 0.001406 709.54138 713.01508
717.0 0.001395 710.53131 714.58911
719.0 0.001391 711.51422 716.45715
719.0 0.001391 712.49017 718.82855
721.0 0.001387 713.45941 722.00720
722.0 0.001385 714.42181 726.36890
730.0 0.001370 715.37762 732.28253
742.0 0.001348 716.32678 739.96759
755.0 0.001325 717.26959 749.31305
769.0 0.001300 718.20593 759.69397
779.0 0.001284 719.13605 769.81439
781.0 0.001280 720.05981 777.67902
775.0 0.001290 720.97766 781.14056
767.0 0.001304 721.88910 779.26514
757.0 0.001321 722.79486 773.13879
749.0 0.001335 723.69464 764.91895
745.0 0.001342 724.58862 756.54962
740.0 0.001351 725.47681 749.27692
735.0 0.001361 726.35931 743.68738
735.0 0.001361 727.23621 739.86578
738.0 0.001355 728.10773 737.57922
736.0 0.001359 728.97375 736.45685
735.0 0.001361 729.83441 736.12860
733.0 0.001364 730.68976 736.29938
735.0 0.001361 731.53986 736.84045
736.0 0.001359 732.38489 737.48755
735.0 0.001361 733.22479 738.24762
734.0 0.001362 734.05969 739.09149
736.0 0.001359 734.88953 740.01312
739.0 0.001353 735.71472 741.02521
742.0 0.001348 736.53503 742.16040
744.0 0.001344 737.35052 743.47455
746.0 0.001340 738.16150 745.04944
750.0 0.001333 738.96777 746.98285
753.0 0.001328 739.76959 749.36829
759.0 0.001318 740.56683 752.25873
766.0 0.001305 741.35974 755.62286
771.0 0.001297 742.14832 759.29944
773.0 0.001294 742.93243 762.95599
771.0 0.001297 743.71252 766.07672
768.0 0.001302 744.48834 768.08496
765.0 0.001307 745.26007 768.68884
758.0 0.001319 746.02783 768.12903
754.0 0.001326 746.79156 766.97827
751.0 0.001332 747.55139 765.78802
750.0 0.001333 748.30731 764.93616
749.0 0.001335 749.05939 764.62799
754.0 0.001326 749.80780 764.93707
757.0 0.001321 750.55237 765.85040
758.0 0.001319 751.29346 767.31714
756.0 0.001323 752.03088 769.28864
756.0 0.001323 752.76471 771.75159
759.0 0.001318 753.49506 774.75897
760.0 0.001316 754.22192 778.48358
766.0 0.001305 754.94556 783.34094
775.0 0.001290 755.66571 790.25226
783.0 0.001277 756.38263 801.12384
798.0 0.001253 757.09631 819.53967
826.0 0.001211 757.80676 851.45691
873.0 0.001145 758.51410 905.33936
952.0 0.001050 759.21844 990.89648
1078.0 0.000928 759.91956 1115.79675
1275.0 0.000784 760.61780 1280.67163
1516.0 0.000660 761.31299 1473.99084
1733.0 0.000577 762.00531 1668.83105
1858.0 0.000538 762.69476 1823.49841
1874.0 0.000534 763.38129 1891.67188
1800.0 0.000556 764.06525 1848.38977
1670.0 0.000599 764.74628 1710.47046
1511.0 0.000662 765.42462 1522.02197
1330.0 0.000752 766.10046 1326.98608
1168.0 0.000856 766.77368 1155.76440
1048.0 0.000954 767.44415 1023.10620
964.0 0.001037 768.11224 930.67035
905.0 0.001105 768.77783 871.89844
869.0 0.001151 769.44086 837.20306
846.0 0.001182 770.10150 817.69476
828.0 0.001208 770.75983 806.85236
814.0 0.001229 771.41571 800.62451
808.0 0.001238 772.06934 796.79999
802.0 0.001247 772.72070 794.27972
799.0 0.001252 773.36993 792.53912
795.0 0.001258 774.01685 791.30975
792.0 0.001263 774.66144 790.42450
789.0 0.001267 775.30420 789.75165
786.0 0.001272 775.94470 789.18188
789.0 0.001267 776.58313 788.65125
789.0 0.001267 777.21960 788.15521
787.0 0.001271 777.85406 787.72388
783.0 0.001277 778.48657 787.38861
782.0 0.001279 779.11700 787.16754
785.0 0.001274 779.74561 787.06421
788.0 0.001269 780.37238 787.06976
788.0 0.001269 780.99738 787.16785
787.0 0.001271 781.62036 787.34003
788.0 0.001269 782.24170 787.57001
787.0 0.001271 782.86127 787.84448
787.0 0.001271 783.47906 788.15424
789.0 0.001267 784.09515 788.49255
789.0 0.001267 784.70953 788.85486
791.0 0.001264 785.32220 789.23779
791.0 0.001264 785.93347 789.63873
791.0 0.001264 786.54291 790.05524
790.0 0.001266 787.15094 790.44122
790.0 0.001266 787.75732 790.88489
791.0 0.001264 788.36224 791.33948
791.0 0.001264 788.96558 791.80371
790.0 0.001266 789.56744 792.27661
794.0 0.001259 790.16791 792.75720
797.0 0.001255 790.76685 793.24451
795.0 0.001258 791.36450 793.73828
795.0 0.001258 791.96075 794.23737
796.0 0.001256 792.55554 794.74139
797.0 0.001255 793.14917 795.25000
797.0 0.001255 793.74127 795.76245
796.0 0.001256 794.33209 796.27844
799.0 0.001252 794.92181 796.79791
800.0 0.001250 795.51007 797.32001
800.0 0.001250 796.09723 797.84479
802.0 0.001247 796.68298 798.37177
805.0 0.001242 797.26764 798.90100
804.0 0.001244 797.85114 799.43213
805.0 0.001242 798.43341 799.96484
810.0 0.001235 799.01453 800.49902
812.0 0.001232 799.59448 801.03448
810.0 0.001235 800.17340 801.57129
808.0 0.001238 800.75110 802.10901
807.0 0.001239 801.32776 802.64764
805.0 0.001242 801.90338 803.18726
809.0 0.001236 802.47791 803.73309
812.0 0.001232 803.05145 804.27417
814.0 0.001229 803.62384 804.80121
812.0 0.001232 804.19531 805.34351
811.0 0.001233 804.76581 805.88629
811.0 0.001233 805.33533 806.42938
811.0 0.001233 805.90381 806.97272
813.0 0.001230 806.47137 807.51624
815.0 0.001227 807.03796 807.20868
815.0 0.001227 807.60358 807.77582
812.0 0.001232 808.16833 808.34222
811.0 0.001233 808.73218 808.90765
812.0 0.001232 809.29517 809.47229
813.0 0.001230 809.85712 810.03595
813.0 0.001230 810.41833 810.59894
813.0 0.001230 810.97870 811.16113
814.0 0.001229 811.53815 811.72455
812.0 0.001232 812.09674 812.28497
811.0 0.001233 812.65454 812.84467
815.0 0.001227 813.21149 813.40369
816.0 0.001225 813.76758 813.96185
817.0 0.001224 814.32300 814.51935
822.0 0.001217 814.87756 815.07599
822.0 0.001217 815.43127 815.63196
820.0 0.001220 815.98431 816.18719
818.0 0.001222 816.53638 816.74158
820.0 0.001220 817.08795 817.29559
820.0 0.001220 817.63855 817.84735
820.0 0.001220 818.18854 818.39984
821.0 0.001218 818.73773 818.95172
825.0 0.001212 819.28619 819.50293
827.0 0.001209 819.83392 820.05341
827.0 0.001209 820.38098 820.68140
825.0 0.001212 820.92731 821.23248
821.0 0.001218 821.47290 821.78296
822.0 0.001217 822.01776 822.33295
824.0 0.001214 822.56195 822.88245
826.0 0.001211 823.10541 823.43140
830.0 0.001205 823.64819 823.97992
830.0 0.001205 824.19037 824.52814
829.0 0.001206 824.73181 825.15057
831.0 0.001203 825.27271 825.69861
828.0 0.001208 825.81274 826.24615
829.0 0.001206 826.35217 826.79340
832.0 0.001202 826.89093 827.34052
832.0 0.001202 827.42914 827.88733
832.0 0.001202 827.96649 828.43378
832.0 0.001202 828.50342 828.98065
833.0 0.001200 829.03961 829.52728
832.0 0.001202 829.57507 830.07391
832.0 0.001202 830.10999 830.67828
834.0 0.001199 830.64429 831.22614
834.0 0.001199 831.17792 831.77441
834.0 0.001199 831.71088 832.32355
837.0 0.001195 832.24323 832.87372
838.0 0.001193 832.77484 833.42548
837.0 0.001195 833.30597 833.97961
836.0 0.001196 833.83643 834.53748
839.0 0.001192 834.36639 835.10229
841.0 0.001189 834.89557 835.67932
839.0 0.001192 835.42401 836.27972
838.0 0.001193 835.95203 836.92279
840.0 0.001190 836.47943 837.63794
841.0 0.001189 837.00610 838.46509
843.0 0.001186 837.53217 839.44843
843.0 0.001186 838.05768 840.62329
843.0 0.001186 838.58258 841.99561
845.0 0.001183 839.10681 843.51880
846.0 0.001182 839.63043 845.09204
846.0 0.001182 840.15338 846.53925
846.0 0.001182 840.67584 847.64600
845.0 0.001183 841.19751 848.23749
844.0 0.001185 841.71857 848.29486
845.0 0.001183 842.23907 847.97021
846.0 0.001182 842.75903 847.47876
845.0 0.001183 843.27826 847.00482
844.0 0.001185 843.79675 846.66901
846.0 0.001182 844.31488 846.52686
846.0 0.001182 844.83215 846.58075
847.0 0.001181 845.34894 846.79993
849.0 0.001178 845.86499 847.14075
849.0 0.001178 846.38049 847.56183
850.0 0.001176 846.89526 848.03143
851.0 0.001175 847.40948 848.52887
852.0 0.001174 847.92297 849.04169
852.0 0.001174 848.43604 849.56390
850.0 0.001176 848.94812 850.09161
851.0 0.001175 849.45978 850.62402
849.0 0.001178 849.97070 851.16022
847.0 0.001181 850.48096 851.70013
847.0 0.001181 850.99072 852.24371
848.0 0.001179 851.49969 852.79102
849.0 0.001178 852.00806 853.34247
851.0 0.001175 852.51563 853.89795
851.0 0.001175 853.02271 854.45856
853.0 0.001172 853.52893 855.02441
854.0 0.001171 854.03461 855.59644
853.0 0.001172 854.53961 856.10248
854.0 0.001171 855.04382 856.68896
855.0 0.001170 855.54742 857.28497
856.0 0.001168 856.05048 857.89215
855.0 0.001170 856.55255 858.51233
853.0 0.001172 857.05414 859.14795
853.0 0.001172 857.55499 859.80237
855.0 0.001170 858.05518 860.47925
858.0 0.001166 858.55457 861.18414
861.0 0.001161 859.05328 861.92456
858.0 0.001166 859.55133 862.71265
859.0 0.001164 860.04852 863.56976
862.0 0.001160 860.54510 864.53735
865.0 0.001156 861.04102 865.69427
870.0 0.001149 861.53607 867.18811
873.0 0.001145 862.03046 869.27777
879.0 0.001138 862.52411 872.37238
887.0 0.001127 863.01703 877.06055
899.0 0.001112 863.50903 884.05133
916.0 0.001092 864.00055 894.04114
938.0 0.001066 864.49121 907.45874
963.0 0.001038 864.98102 924.15344
983.0 0.001017 865.47015 943.10358
993.0 0.001007 865.95850 962.23328
992.0 0.001008 866.44611 978.41357
982.0 0.001018 866.93286 987.95996
964.0 0.001037 867.41882 988.16357
944.0 0.001059 867.90405 979.12433
928.0 0.001078 868.38849 963.66827
917.0 0.001091 868.87213 945.47284
907.0 0.001103 869.35492 927.60864
899.0 0.001112 869.83698 912.08685
893.0 0.001120 870.31818 899.87109
887.0 0.001127 870.79846 891.06982
882.0 0.001134 871.27814 885.22998
877.0 0.001140 871.75677 881.64850
874.0 0.001144 872.23468 879.62213
872.0 0.001147 872.71179 878.57147
872.0 0.001147 873.18799 878.09766
872.0 0.001147 873.66339 877.94952
874.0 0.001144 874.13788 877.98431
872.0 0.001147 874.61151 878.12573
869.0 0.001151 875.08441 878.33411
871.0 0.001148 875.55627 878.58856
875.0 0.001143 876.02747 878.87708
877.0 0.001140 876.49762 879.19159
875.0 0.001143 876.96686 879.52637
872.0 0.001147 877.43530 879.87622
872.0 0.001147 877.90283 880.23608
877.0 0.001140 878.36951 880.59924
879.0 0.001138 878.83521 880.95703
880.0 0.001136 879.29999 881.29718
880.0 0.001136 879.76392 881.60370
879.0 0.001138 880.22693 881.85699
880.0 0.001136 880.68896 882.03699
881.0 0.001135 881.15015 882.16785
884.0 0.001131 881.61029 882.16925
886.0 0.001129 882.06964 882.09613
890.0 0.001124 882.52795 882.11304
891.0 0.001122 882.98535 882.04803
891.0 0.001122 883.44171 882.12000
891.0 0.001122 883.89740 882.45245
893.0 0.001120 884.35175 883.04443
889.0 0.001125 884.80536 883.88293
889.0 0.001125 885.25793 884.87177
888.0 0.001126 885.70947 885.91107
886.0 0.001129 886.16003 886.92456
887.0 0.001127 886.60968 887.86591
887.0 0.001127 887.05829 888.71436
886.0 0.001129 887.50598 889.47028
887.0 0.001127 887.95270 890.81171
887.0 0.001127 888.39825 891.43396
886.0 0.001129 888.84290 892.01422
885.0 0.001130 889.28638 892.56824
885.0 0.001130 889.72906 893.10712
885.0 0.001130 890.17065 893.63812
883.0 0.001133 890.61115 894.16553
883.0 0.001133 891.05066 894.69220
886.0 0.001129 891.48920 895.21960
886.0 0.001129 891.92651 895.74835
887.0 0.001127 892.36292 896.27954
889.0 0.001125 892.79828 896.81335
891.0 0.001122 893.23248 897.35016
891.0 0.001122 893.66565 897.89020
891.0 0.001122 894.09790 898.43469
891.0 0.001122 894.52893 898.98328
892.0 0.001121 894.95898 899.53644
895.0 0.001117 895.38788 900.09509
897.0 0.001115 895.81573 900.65912
896.0 0.001116 896.24243 901.22949
893.0 0.001120 896.66803 901.80652
892.0 0.001121 897.09265 902.39099
895.0 0.001117 897.51611 902.95795
897.0 0.001115 897.93842 903.55878
899.0 0.001112 898.35980 904.16931
899.0 0.001112 898.77997 904.79010
899.0 0.001112 899.19897 905.42249
899.0 0.001112 899.61688 906.06714
900.0 0.001111 900.03369 906.72546
901.0 0.001110 900.44928 907.39893
903.0 0.001107 900.86383 908.12964
903.0 0.001107 901.27728 908.83899
903.0 0.001107 901.68951 909.56842
902.0 0.001109 902.10071 910.32074
902.0 0.001109 902.51068 911.09790
903.0 0.001107 902.91962 911.90363
904.0 0.001106 903.32727 912.74103
906.0 0.001104 903.73376 913.61444
907.0 0.001103 904.13922 914.52838
910.0 0.001099 904.54340 915.48901
912.0 0.001096 904.94641 916.50250
915.0 0.001093 905.34839 917.57678
916.0 0.001092 905.74921 918.72198
917.0 0.001091 906.14886 919.94891
918.0 0.001089 906.54718 921.27222
919.0 0.001088 906.94440 922.71094
921.0 0.001086 907.34052 924.28931
921.0 0.001086 907.73529 926.03827
925.0 0.001081 908.12903 927.99615
931.0 0.001074 908.52142 930.20605
939.0 0.001065 908.91284 932.71069
947.0 0.001056 909.30292 935.54388
955.0 0.001047 909.69183 938.72015
959.0 0.001043 910.07953 942.22638
962.0 0.001040 910.46606 946.01563
968.0 0.001033 910.85132 950.00696
973.0 0.001028 911.23553 954.10126
976.0 0.001025 911.61835 958.22095
975.0 0.001026 912.00018 962.36859
975.0 0.001026 912.38062 966.60754
975.0 0.001026 912.76001 971.02985
977.0 0.001024 913.13794 975.68555
978.0 0.001022 913.51483 980.56555
979.0 0.001021 913.89050 985.59772
982.0 0.001018 914.26495 990.68756
987.0 0.001013 914.63812 995.63794
991.0 0.001009 915.01013 1000.35327
995.0 0.001005 915.38104 1004.77960
1004.0 0.000996 915.75061 1008.96338
1014.0 0.000986 916.11877 1013.04962
1029.0 0.000972 916.48602 1017.22559
1039.0 0.000962 916.85181 1021.61230
1049.0 0.000953 917.21643 1026.13696
1052.0 0.000951 917.57983 1030.41431
1050.0 0.000952 917.94208 1033.67700
1044.0 0.000958 918.30298 1034.81311
1036.0 0.000965 918.66272 1032.68872
1025.0 0.000976 919.02130 1026.80652
1013.0 0.000987 919.37848 1017.75037
1003.0 0.000997 919.73456 1006.80817
994.0 0.001006 920.08942 995.46057
987.0 0.001013 920.44299 984.75763
980.0 0.001020 920.79541 975.38843
973.0 0.001028 921.14642 967.66772
964.0 0.001037 921.49628 961.60645
955.0 0.001047 921.84503 957.01532
950.0 0.001053 922.19238 955.44342
946.0 0.001057 922.53851 952.95679
942.0 0.001062 922.88348 951.11871
937.0 0.001067 923.22723 949.74200
935.0 0.001070 923.56976 948.69904
937.0 0.001067 923.91095 947.90662
938.0 0.001066 924.25104 947.31219
936.0 0.001068 924.58984 946.88208
936.0 0.001068 924.92737 946.59326
937.0 0.001067 925.26373 946.43005
938.0 0.001066 925.59882 946.38019
937.0 0.001067 925.93274 946.43561
938.0 0.001066 926.26538 946.58881
937.0 0.001067 926.59680 946.83545
938.0 0.001066 926.92694 947.17236
938.0 0.001066 927.25592 947.59808
941.0 0.001063 927.58380 948.11243
944.0 0.001059 927.91028 948.71698
945.0 0.001058 928.23566 949.41547
945.0 0.001058 928.55975 950.21564
949.0 0.001054 928.88269 951.13110
954.0 0.001048 929.20435 952.18762
954.0 0.001048 929.52478 953.43091
957.0 0.001045 929.84406 955.11224
960.0 0.001042 930.16205 956.99860
963.0 0.001038 930.47894 959.42371
968.0 0.001033 930.79462 962.58832
973.0 0.001028 931.10901 966.70331
986.0 0.001014 931.42224 971.93732
997.0 0.001003 931.73431 978.34430
1006.0 0.000994 932.04510 985.78925
1013.0 0.000987 932.35486 993.88647
1019.0 0.000981 932.66333 1001.96320
1020.0 0.000980 932.97058 1009.07422
1017.0 0.000983 933.27667 1014.18103
1012.0 0.000988 933.58167 1016.60461
1010.0 0.000990 933.88525 1016.48889
1006.0 0.000994 934.18787 1014.74280
1003.0 0.000997 934.48932 1012.52942
1001.0 0.000999 934.78955 1010.86078
1003.0 0.000997 935.08856 1010.45740
1006.0 0.000994 935.38647 1011.74182
1011.0 0.000989 935.68323 1014.84485
1015.0 0.000985 935.97882 1019.75122
1020.0 0.000980 936.27307 1026.21106
1026.0 0.000975 936.56647 1033.88037
1031.0 0.000970 936.85858 1042.32043
1038.0 0.000963 937.14960 1051.00366
1044.0 0.000958 937.43939 1059.33032
1054.0 0.000949 937.72809 1066.67737
1065.0 0.000939 938.01575 1072.50061
1076.0 0.000929 938.30225 1076.46448
1088.0 0.000919 938.58759 1078.55127
1098.0 0.000911 938.87177 1078.99084
1107.0 0.000903 939.15479 1078.18750
1107.0 0.000903 939.43689 1076.72180
1104.0 0.000906 939.71771 1074.89307
1101.0 0.000908 939.99750 1072.98914
1094.0 0.000914 940.27625 1070.75171
1086.0 0.000921 940.55377 1068.13599
1079.0 0.000927 940.83038 1064.92578
1068.0 0.000936 941.10583 1060.93884
1057.0 0.000946 941.38007 1056.09229
1042.0 0.000960 941.65350 1050.44312
1029.0 0.000972 941.92566 1044.19922
1018.0 0.000982 942.19684 1037.68823
1013.0 0.000987 942.46692 1031.26343
1012.0 0.000988 942.73602 1025.21997
1011.0 0.000989 943.00403 1020.29065
1010.0 0.000990 943.27106 1015.54541
1001.0 0.000999 943.53693 1011.55231
994.0 0.001006 943.80182 1008.30847
989.0 0.001011 944.06567 1005.77887
987.0 0.001013 944.32855 1003.91522
985.0 0.001015 944.59045 1002.66895
983.0 0.001017 944.85126 1002.00244
985.0 0.001015 945.11102 1001.89581
987.0 0.001013 945.37000 1002.35443
990.0 0.001010 945.62781 1003.41388
997.0 0.001003 945.88464 1005.14740
1006.0 0.000994 946.14056 1007.67090
1014.0 0.000986 946.39551 1011.14343
1024.0 0.000977 946.64948 1015.76135
1035.0 0.000966 946.90259 1021.74048
1046.0 0.000956 947.15460 1029.28906
1057.0 0.000946 947.40582 1038.57336
1067.0 0.000937 947.65594 1049.67480
1075.0 0.000930 947.90515 1062.66003
1084.0 0.000923 948.15350 1077.10510
1093.0 0.000915 948.40094 1092.71912
1103.0 0.000907 948.64746 1108.96802
1117.0 0.000895 948.89301 1125.37610
1133.0 0.000883 949.13782 1141.83057
1147.0 0.000872 949.38153 1158.62256
1160.0 0.000862 949.62457 1176.16211
1175.0 0.000851 949.86658 1194.72742
1197.0 0.000835 950.10779 1214.30786
1220.0 0.000820 950.34808 1234.88452
1249.0 0.000801 950.58759 1256.78845
1286.0 0.000778 950.82611 1280.97546
1327.0 0.000754 951.06396 1308.99768
1371.0 0.000729 951.30090 1342.67419
1418.0 0.000705 951.53711 1383.71655
1470.0 0.000680 951.77240 1433.18970
1525.0 0.000656 952.00690 1491.50537
1584.0 0.000631 952.24048 1557.83228
1641.0 0.000609 952.47357 1629.59351
1699.0 0.000589 952.70569 1701.96179
1742.0 0.000574 952.93707 1767.95972
1782.0 0.000561 953.16772 1819.74463
1801.0 0.000555 953.39740 1850.88794
1812.0 0.000552 953.62653 1858.20300
1799.0 0.000556 953.85492 1841.67114
1771.0 0.000565 954.08252 1802.82874
1725.0 0.000580 954.30945 1743.82813
1674.0 0.000597 954.53558 1668.38867
1609.0 0.000622 954.76099 1582.65198
1533.0 0.000652 954.98572 1493.92957
1456.0 0.000687 955.20984 1408.70752
1378.0 0.000726 955.43311 1331.64063
1307.0 0.000765 955.65576 1265.43237
1248.0 0.000801 955.87793 1211.04749
1201.0 0.000833 956.09924 1168.06689
1162.0 0.000861 956.32001 1135.15381
1133.0 0.000883 956.54004 1110.52576
1112.0 0.000899 956.75940 1092.35645
1093.0 0.000915 956.97833 1079.03796
1077.0 0.000929 957.19653 1069.30591
1066.0 0.000938 957.41406 1062.25684
1056.0 0.000947 957.63116 1057.30493
1048.0 0.000954 957.84747 1054.09717
1041.0 0.000961 958.06335 1052.41626
1037.0 0.000964 958.27863 1052.07690
1036.0 0.000965 958.49329 1052.86792
1037.0 0.000964 958.70758 1054.57581
1040.0 0.000962 958.92114 1057.04944
1043.0 0.000959 959.13428 1060.24231
1047.0 0.000955 959.34680 1064.18079
1055.0 0.000948 959.55890 1068.89246
1060.0 0.000943 959.77057 1074.33484
1065.0 0.000939 959.98163 1080.35815
1071.0 0.000934 960.19226 1086.69995
1081.0 0.000925 960.40222 1093.03040
1089.0 0.000918 960.61206 1099.08313
1097.0 0.000912 960.82111 1104.86792
1111.0 0.000900 961.02979 1110.87683
1128.0 0.000887 961.23822 1117.71362
1149.0 0.000870 961.44598 1126.35474
1171.0 0.000854 961.65363 1137.80530
1200.0 0.000833 961.86060 1153.18384
1236.0 0.000809 962.06726 1173.78662
1279.0 0.000782 962.27356 1201.14368
1322.0 0.000756 962.47949 1237.08618
1370.0 0.000730 962.68506 1283.74243
1420.0 0.000704 962.89026 1343.49597
1476.0 0.000678 963.09497 1418.82007
1544.0 0.000648 963.29962 1512.04895
1629.0 0.000614 963.50385 1625.03784
1736.0 0.000576 963.70764 1758.74866
1868.0 0.000535 963.91132 1912.74756
2031.0 0.000492 964.11462 2084.56714
2231.0 0.000448 964.31763 2268.85522
2441.0 0.000410 964.52026 2456.28027
2626.0 0.000381 964.72284 2632.48682
2758.0 0.000363 964.92499 2778.17456
2822.0 0.000354 965.12695 2872.02637
2832.0 0.000353 965.32874 2897.24878
2788.0 0.000359 965.53027 2848.84302
2711.0 0.000369 965.73163 2736.10254
2615.0 0.000382 965.93274 2578.08691
2482.0 0.000403 966.13361 2396.00220
2313.0 0.000432 966.33441 2207.73291
2113.0 0.000473 966.53485 2025.99341
1913.0 0.000523 966.73541 1858.65820
1728.0 0.000579 966.93567 1710.05603
1570.0 0.000637 967.13580 1581.87793
1450.0 0.000690 967.33582 1473.97620
1356.0 0.000737 967.53571 1384.94031
1278.0 0.000782 967.73553 1312.57129
1217.0 0.000822 967.93524 1254.27515
1170.0 0.000855 968.13489 1207.38538
1135.0 0.000881 968.33447 1169.41565
1106.0 0.000904 968.53394 1138.27832
1083.0 0.000923 968.73328 1112.22498
1065.0 0.000939 968.93274 1090.07019
1054.0 0.000949 969.13220 1071.01013
1045.0 0.000957 969.33154 1054.61377
1039.0 0.000962 969.53082 1040.76416
1032.0 0.000969 969.73016 1029.54871
1027.0 0.000974 969.92957 1021.08643
1022.0 0.000978 970.12903 1015.33820
1021.0 0.000979 970.32849 1011.99902
1019.0 0.000981 970.52783 1010.58612
1016.0 0.000984 970.72742 1010.40955
1010.0 0.000990 970.92706 1010.96307
1006.0 0.000994 971.12671 1011.81763
1005.0 0.000995 971.32642 1012.66925
1003.0 0.000997 971.52643 1013.31799
1004.0 0.000996 971.72644 1013.64136
1004.0 0.000996 971.92645 1013.58307
1002.0 0.000998 972.12677 1013.13702
998.0 0.001002 972.32709 1012.34802
1000.0 0.001000 972.52771 1011.30951
1001.0 0.000999 972.72845 1010.17029
1003.0 0.000997 972.92920 1009.05872
1005.0 0.000995 973.13043 1008.43848
1011.0 0.000989 973.33160 1008.58081
1020.0 0.000980 973.53320 1009.86481
1027.0 0.000974 973.73486 1012.61035
1032.0 0.000969 973.93683 1017.01489
1038.0 0.000963 974.13904 1023.15643
1045.0 0.000957 974.34155 1031.06775
1053.0 0.000950 974.54413 1040.81384
1061.0 0.000943 974.74731 1052.52991
1070.0 0.000935 974.95044 1066.40698
1082.0 0.000924 975.15405 1082.66089
1095.0 0.000913 975.35791 1101.49036
1118.0 0.000894 975.56226 1123.04114
1148.0 0.000871 975.76666 1147.36060
1176.0 0.000850 975.97162 1174.34375
1204.0 0.000831 976.17688 1203.65759
1236.0 0.000809 976.38245 1234.72083
1269.0 0.000788 976.58838 1266.88574
1300.0 0.000769 976.79468 1299.92810
1333.0 0.000750 977.00140 1334.60254
1367.0 0.000732 977.20862 1372.76257
1407.0 0.000711 977.41602 1416.62463
1457.0 0.000686 977.62421 1467.78345
1529.0 0.000654 977.83258 1526.35583
1609.0 0.000622 978.04144 1591.06165
1691.0 0.000591 978.25073 1656.28015
1759.0 0.000569 978.46063 1715.54602
1798.0 0.000556 978.67090 1759.51807
1801.0 0.000555 978.88165 1778.71765
1779.0 0.000562 979.09296 1767.24231
1722.0 0.000581 979.30475 1725.76868
1651.0 0.000606 979.51697 1661.03247
1563.0 0.000640 979.72986 1582.53552
1470.0 0.000680 979.94318 1499.12830
1382.0 0.000724 980.15723 1417.55530
1303.0 0.000767 980.37170 1342.28552
1242.0 0.000805 980.58667 1276.00134
1196.0 0.000836 980.80243 1220.03601
1161.0 0.000861 981.01862 1174.73572
1135.0 0.000881 981.23547 1139.76270
1116.0 0.000896 981.45300 1114.36218
1103.0 0.000907 981.67102 1097.59094
1096.0 0.000912 981.88971 1088.47180
1093.0 0.000915 982.10913 1086.04810
1093.0 0.000915 982.32916 1089.22168
1093.0 0.000915 982.54987 1096.49072
1095.0 0.000913 982.77124 1105.71899
1103.0 0.000907 982.99329 1114.27258
1108.0 0.000903 983.21600 1119.67383
1108.0 0.000903 983.43945 1120.49316
1109.0 0.000902 983.66370 1116.82251
1111.0 0.000900 983.88855 1109.95227
1114.0 0.000898 984.11414 1101.59265
1110.0 0.000901 984.34052 1093.23218
1103.0 0.000907 984.56769 1085.82422
1097.0 0.000912 984.79547 1079.71802
1090.0 0.000917 985.02423 1074.70142
1077.0 0.000929 985.25360 1070.16064
1064.0 0.000940 985.48389 1065.37683
1056.0 0.000947 985.71497 1059.98914
1050.0 0.000952 985.94678 1053.90930
1044.0 0.000958 986.17950 1047.65015
1041.0 0.000961 986.41302 1041.74976
1038.0 0.000963 986.64728 1036.68457
1036.0 0.000965 986.88245 1032.82495
1036.0 0.000965 987.11847 1030.44458
1036.0 0.000965 987.35547 1029.75171
1042.0 0.000960 987.59320 1030.92078
1045.0 0.000957 987.83191 1034.12585
1051.0 0.000951 988.07147 1039.54089
1059.0 0.000944 988.31189 1047.31018
1068.0 0.000936 988.55328 1057.48511
1077.0 0.000929 988.79559 1069.93738
1088.0 0.000919 989.03876 1084.26147
1100.0 0.000909 989.28296 1099.69397
1115.0 0.000897 989.52814 1115.03589
1127.0 0.000887 989.77417 1128.64221
1137.0 0.000880 990.02112 1138.56567
1142.0 0.000876 990.26923 1143.11633
1143.0 0.000875 990.51819 1141.62097
1139.0 0.000878 990.76819 1134.82617
1133.0 0.000883 991.01904 1124.50732
1125.0 0.000889 991.27100 1112.70349
1111.0 0.000900 991.52405 1101.16248
1095.0 0.000913 991.77795 1091.13342
1083.0 0.000923 992.03320 1083.35779
1075.0 0.000930 992.28912 1078.12842
1073.0 0.000932 992.54626 1075.36279
1072.0 0.000933 992.80444 1074.66919
1075.0 0.000930 993.06366 1075.40588
1080.0 0.000926 993.32385 1076.75220
1082.0 0.000924 993.58539 1077.80518
1084.0 0.000923 993.84778 1077.75537
1083.0 0.000923 994.11139 1076.09521
1080.0 0.000926 994.37592 1072.74963
1071.0 0.000934 994.64166 1068.03210
1062.0 0.000942 994.90857 1062.46021
1054.0 0.000949 995.17645 1056.56384
1050.0 0.000952 995.44568 1050.77686
1044.0 0.000958 995.71600 1045.41040
1037.0 0.000964 995.98730 1040.67175
1031.0 0.000970 996.25989 1036.69043
1029.0 0.000972 996.53351 1033.54492
1029.0 0.000972 996.80835 1031.27856
1029.0 0.000972 997.08435 1029.91052
1031.0 0.000970 997.36163 1029.44580
1033.0 0.000968 997.63995 1030.14783
1032.0 0.000969 997.91949 1031.45129
1034.0 0.000967 998.20026 1033.58215
1039.0 0.000962 998.48224 1036.46985
1044.0 0.000958 998.76550 1040.01257
1049.0 0.000953 999.04980 1044.10059
1055.0 0.000948 999.33539 1048.47192
1060.0 0.000943 999.62225 1052.89063
1066.0 0.000938 999.91034 1056.99048
1067.0 0.000937 1000.19958 1060.39307
1068.0 0.000936 1000.49017 1062.66357
1070.0 0.000935 1000.78186 1063.69604
1068.0 0.000936 1001.07495 1063.34521
1063.0 0.000941 1001.36926 1062.15076
1055.0 0.000948 1001.66473 1059.97864
1049.0 0.000953 1001.96167 1056.85889
1042.0 0.000960 1002.25977 1052.90381
1035.0 0.000966 1002.55920 1048.39673
1032.0 0.000969 1002.85986 1043.72925
1030.0 0.000971 1003.16174 1039.27783
1028.0 0.000973 1003.46503 1035.32495
1028.0 0.000973 1003.76953 1032.04504
1029.0 0.000972 1004.07544 1029.50806
1030.0 0.000971 1004.38263 1027.70178
1029.0 0.000972 1004.69110 1026.55603
1028.0 0.000973 1005.00085 1025.96851
1026.0 0.000975 1005.31189 1025.85535
1027.0 0.000974 1005.62445 1026.07043
1024.0 0.000977 1005.93817 1026.55872
1023.0 0.000978 1006.25342 1027.26758
1024.0 0.000977 1006.56970 1028.16443
1025.0 0.000976 1006.88770 1029.23010
1024.0 0.000977 1007.20679 1030.46533
1026.0 0.000975 1007.52728 1031.88049
1026.0 0.000975 1007.84900 1033.49536
1025.0 0.000976 1008.17224 1035.34338
1026.0 0.000975 1008.49670 1037.47339
1028.0 0.000973 1008.82281 1039.96277
1031.0 0.000970 1009.14996 1042.97156
1031.0 0.000970 1009.47876 1046.60913
1036.0 0.000965 1009.80865 1051.20959
1044.0 0.000958 1010.14008 1057.22363
1050.0 0.000952 1010.47278 1065.31030
1057.0 0.000946 1010.80701 1076.39453
1067.0 0.000937 1011.14258 1091.69434
1080.0 0.000926 1011.47937 1112.71069
1101.0 0.000908 1011.81769 1141.13733
1134.0 0.000882 1012.15735 1178.68054
1177.0 0.000850 1012.49860 1226.77283
1234.0 0.000810 1012.84100 1286.21167
1307.0 0.000765 1013.18481 1356.75000
1389.0 0.000720 1013.53015 1436.68628
1490.0 0.000671 1013.87683 1522.45972
1605.0 0.000623 1014.22485 1608.24561
1718.0 0.000582 1014.57434 1685.66162
1813.0 0.000552 1014.92523 1744.14685
1869.0 0.000535 1015.27759 1773.04565
1867.0 0.000536 1015.63123 1765.69043
1800.0 0.000556 1015.98639 1723.05896
1682.0 0.000595 1016.34283 1653.00012
1544.0 0.000648 1016.70074 1567.75854
1418.0 0.000705 1017.06006 1477.52942
1315.0 0.000760 1017.42078 1390.20532
1234.0 0.000810 1017.78284 1310.98523
1181.0 0.000847 1018.14636 1242.88501
1148.0 0.000871 1018.51154 1187.17163
1125.0 0.000889 1018.87769 1143.69043
1104.0 0.000906 1019.24567 1111.22327
1085.0 0.000922 1019.61469 1087.91406
1071.0 0.000934 1019.98541 1071.70789
1063.0 0.000941 1020.35742 1060.67761
1060.0 0.000943 1020.73090 1053.21631
1058.0 0.000945 1021.10583 1048.11035
1056.0 0.000947 1021.48181 1044.53333
1054.0 0.000949 1021.85938 1040.97668
1053.0 0.000950 1022.23853 1039.23657
1054.0 0.000949 1022.61908 1038.20190
1057.0 0.000946 1023.00085 1037.89807
1058.0 0.000945 1023.38409 1038.50598
1058.0 0.000945 1023.76892 1040.23535
1060.0 0.000943 1024.15466 1043.28552
1065.0 0.000939 1024.54248 1047.80286
1068.0 0.000936 1024.93115 1053.86816
1068.0 0.000936 1025.32141 1061.50342
1070.0 0.000935 1025.71313 1070.66736
1073.0 0.000932 1026.10620 1081.22461
1081.0 0.000925 1026.50061 1092.90259
1094.0 0.000914 1026.89612 1105.24585
1109.0 0.000902 1027.29358 1117.56885
1129.0 0.000886 1027.69226 1128.92932
1148.0 0.000871 1028.09216 1138.19775
1163.0 0.000860 1028.49353 1144.34070
1169.0 0.000855 1028.89612 1146.86890
1167.0 0.000857 1029.30017 1146.17151
1156.0 0.000865 1029.70557 1143.19360
1141.0 0.000876 1030.11255 1139.13049
1125.0 0.000889 1030.52051 1134.85291
1114.0 0.000898 1030.93005 1130.76355
1104.0 0.000906 1031.34106 1126.86060
1099.0 0.000910 1031.75330 1122.61560
1095.0 0.000913 1032.16675 1117.60559
1091.0 0.000917 1032.58167 1111.61694
1086.0 0.000921 1032.99792 1104.86218
1083.0 0.000923 1033.41565 1097.89709
1082.0 0.000924 1033.83447 1091.34155
1084.0 0.000923 1034.25464 1085.73206
1085.0 0.000922 1034.67627 1081.47339
1088.0 0.000919 1035.09912 1078.83777
1091.0 0.000917 1035.52332 1077.98743
1092.0 0.000916 1035.94897 1078.99292
1093.0 0.000915 1036.37549 1081.84290
1095.0 0.000913 1036.80371 1086.42834
1098.0 0.000911 1037.23328 1092.50146
1100.0 0.000909 1037.66370 1099.64600
1103.0 0.000907 1038.09546 1107.29700
1110.0 0.000901 1038.52881 1114.60437
1118.0 0.000894 1038.96350 1120.70703
1124.0 0.000890 1039.39905 1124.75269
1127.0 0.000887 1039.83594 1126.31641
1125.0 0.000889 1040.27429 1125.64148
1120.0 0.000893 1040.71375 1123.58838
1121.0 0.000892 1041.15430 1121.30640
1123.0 0.000890 1041.59631 1119.93445
1126.0 0.000888 1042.03943 1120.37219
1134.0 0.000882 1042.48376 1123.24780
1143.0 0.000875 1042.92957 1128.90161
1151.0 0.000869 1043.37622 1137.40112
1157.0 0.000864 1043.82410 1148.57324
1165.0 0.000858 1044.27332 1162.07434
1178.0 0.000849 1044.72375 1177.55188
1195.0 0.000837 1045.17493 1194.84985
1213.0 0.000824 1045.62781 1214.07300
1230.0 0.000813 1046.08179 1235.35535
1248.0 0.000801 1046.53662 1258.49365
1269.0 0.000788 1046.99255 1282.24927
1291.0 0.000775 1047.45007 1305.76440
1314.0 0.000761 1047.90845 1326.09583
1334.0 0.000750 1048.36780 1340.13269
1349.0 0.000741 1048.82849 1345.05090
1355.0 0.000738 1049.29016 1339.50269
1341.0 0.000746 1049.75293 1324.30518
1312.0 0.000762 1050.21667 1302.00659
1278.0 0.000782 1050.68164 1275.76013
1244.0 0.000804 1051.14783 1248.37097
1213.0 0.000824 1051.61475 1221.89587
1187.0 0.000842 1052.08276 1197.62317
1165.0 0.000858 1052.55188 1176.18433
1149.0 0.000870 1053.02197 1157.69800
1136.0 0.000880 1053.49304 1141.93835
1125.0 0.000889 1053.96533 1128.54077
1117.0 0.000895 1054.43848 1117.23999
1110.0 0.000901 1054.91248 1107.63367
1105.0 0.000905 1055.38770 1099.59753
1102.0 0.000907 1055.86365 1092.95911
1096.0 0.000912 1056.34058 1087.56067
1091.0 0.000917 1056.81873 1083.25562
1086.0 0.000921 1057.29749 1079.92017
1083.0 0.000923 1057.77734 1077.40491
1082.0 0.000924 1058.25793 1075.59717
1081.0 0.000925 1058.73962 1074.37659
1077.0 0.000929 1059.22205 1073.62805
1073.0 0.000932 1059.70520 1073.24683
1071.0 0.000934 1060.18945 1073.14465
1070.0 0.000935 1060.67480 1073.24500
1069.0 0.000935 1061.16040 1073.48450
1069.0 0.000935 1061.64722 1073.80408
1068.0 0.000936 1062.13501 1074.15515
1067.0 0.000937 1062.62305 1074.46729
1066.0 0.000938 1063.11206 1074.70337
1065.0 0.000939 1063.60217 1074.83484
1065.0 0.000939 1064.09290 1074.86670
1066.0 0.000938 1064.58411 1074.82751
1063.0 0.000941 1065.07617 1074.75708
1063.0 0.000941 1065.56934 1074.69104
1062.0 0.000942 1066.06299 1074.65747
1064.0 0.000940 1066.55713 1074.67566
1066.0 0.000938 1067.05225 1074.75647
1066.0 0.000938 1067.54785 1074.90527
1066.0 0.000938 1068.04407 1075.12097
1069.0 0.000935 1068.54089 1075.40002
1069.0 0.000935 1069.03870 1075.76904
1067.0 0.000937 1069.53662 1076.16125
1068.0 0.000936 1070.03564 1076.48608
1069.0 0.000935 1070.53516 1076.99854
1071.0 0.000934 1071.03516 1077.53186
1074.0 0.000931 1071.53577 1078.10999
1077.0 0.000929 1072.03687 1078.73413
1083.0 0.000923 1072.53845 1079.40979
1095.0 0.000913 1073.04041 1080.14563
1109.0 0.000902 1073.54309 1080.95435
1126.0 0.000888 1074.04639 1081.86279
1144.0 0.000874 1074.54993 1082.91382
1154.0 0.000867 1075.05396 1084.17188
1152.0 0.000868 1075.55835 1085.72986
1147.0 0.000872 1076.06348 1087.71155
1141.0 0.000876 1076.56860 1090.25781
1135.0 0.000881 1077.07434 1093.50903
1131.0 0.000884 1077.58069 1097.56921
1128.0 0.000887 1078.08691 1102.47510
1128.0 0.000887 1078.59412 1108.16736
1129.0 0.000886 1079.10120 1114.46680
1132.0 0.000883 1079.60864 1121.07544
1130.0 0.000885 1080.11658 1127.62708
1129.0 0.000886 1080.62451 1133.54004
1132.0 0.000883 1081.13306 1138.44067
1135.0 0.000881 1081.64148 1142.16125
1137.0 0.000880 1082.15039 1144.90552
1141.0 0.000876 1082.65967 1147.13428
1146.0 0.000873 1083.16882 1149.32727
1152.0 0.000868 1083.67822 1151.78638
1158.0 0.000864 1084.18799 1154.53479
1161.0 0.000861 1084.69763 1157.28247
1163.0 0.000860 1085.20776 1159.60986
1164.0 0.000859 1085.71790 1160.53870
1162.0 0.000861 1086.22791 1159.68042
1161.0 0.000861 1086.73804 1156.93494
1159.0 0.000863 1087.24829 1152.69202
1154.0 0.000867 1087.75867 1147.64075
1146.0 0.000873 1088.26904 1142.53308
1143.0 0.000875 1088.77954 1138.05823
1140.0 0.000877 1089.28979 1134.70361
1135.0 0.000881 1089.80017 1132.89697
1130.0 0.000885 1090.31079 1132.91138
1128.0 0.000887 1090.82092 1134.88477
1130.0 0.000885 1091.33118 1138.90942
1132.0 0.000883 1091.84106 1144.67920
1137.0 0.000880 1092.35095 1152.00964
1149.0 0.000870 1092.86108 1160.48035
1163.0 0.000860 1093.37073 1169.51001
1179.0 0.000848 1093.88025 1178.38501
1196.0 0.000836 1094.38953 1186.35254
1209.0 0.000827 1094.89868 1192.74133
1217.0 0.000822 1095.40747 1197.31360
1219.0 0.000820 1095.91638 1199.92737
1217.0 0.000822 1096.42468 1200.60071
1213.0 0.000824 1096.93286 1199.30127
1205.0 0.000830 1097.44043 1196.01904
1192.0 0.000839 1097.94824 1190.90149
1173.0 0.000853 1098.45520 1184.34399
1156.0 0.000865 1098.96191 1176.92383
1142.0 0.000876 1099.46851 1169.24756
1134.0 0.000882 1099.97461 1161.83716
1126.0 0.000888 1100.48022 1155.06445
1121.0 0.000892 1100.98547 1149.13293
1119.0 0.000894 1101.49011 1144.08167
1118.0 0.000894 1101.99414 1139.47253
1116.0 0.000896 1102.49780 1135.78918
1112.0 0.000899 1103.00110 1132.47034
1108.0 0.000903 1103.50391 1129.32849
1104.0 0.000906 1104.00598 1126.27612
1103.0 0.000907 1104.50745 1123.30530
1102.0 0.000907 1105.00830 1120.45679
1101.0 0.000908 1105.50879 1117.76843
1103.0 0.000907 1106.00854 1115.28076
1107.0 0.000903 1106.50757 1113.03564
1111.0 0.000900 1107.00574 1111.07813
1114.0 0.000898 1107.50354 1109.46582
1117.0 0.000895 1108.00049 1108.26990
1122.0 0.000891 1108.49683 1107.57581
1126.0 0.000888 1108.99207 1107.45288
1126.0 0.000888 1109.48657 1107.92505
1126.0 0.000888 1109.98047 1108.93518
1124.0 0.000890 1110.47363 1110.35840
1123.0 0.000890 1110.96582 1112.04138
1123.0 0.000890 1111.45715 1113.83948
1124.0 0.000890 1111.94727 1115.64063
1124.0 0.000890 1112.43689 1117.30945
1125.0 0.000889 1112.92566 1118.84338
1124.0 0.000890 1113.41321 1120.20190
1128.0 0.000887 1113.89966 1121.40845
1133.0 0.000883 1114.38538 1122.51880
1135.0 0.000881 1114.87024 1123.61328
1135.0 0.000881 1115.35364 1124.78809
1136.0 0.000880 1115.83630 1126.15894
1137.0 0.000880 1116.31787 1127.86011
1139.0 0.000878 1116.79810 1130.05029
1142.0 0.000876 1117.27747 1132.60901
1145.0 0.000873 1117.75562 1136.35132
1148.0 0.000871 1118.23254 1141.19312
1153.0 0.000867 1118.70813 1147.36975
1161.0 0.000861 1119.18286 1155.10999
1164.0 0.000859 1119.65613 1164.61499
1168.0 0.000856 1120.12830 1176.04443
1180.0 0.000847 1120.59912 1189.36926
1195.0 0.000837 1121.06873 1204.44922
1211.0 0.000826 1121.53699 1220.85437
1227.0 0.000815 1122.00378 1237.80127
1241.0 0.000806 1122.46936 1254.15723
1256.0 0.000796 1122.93359 1268.57288
1273.0 0.000786 1123.39624 1279.78589
1291.0 0.000775 1123.85779 1286.90381
1305.0 0.000766 1124.31763 1289.43372
1309.0 0.000764 1124.77588 1287.15808
1305.0 0.000766 1125.23291 1280.15271
1287.0 0.000777 1125.68835 1268.99524
1257.0 0.000796 1126.14221 1254.77087
1233.0 0.000811 1126.59473 1238.94385
1213.0 0.000824 1127.04541 1222.94507
1196.0 0.000836 1127.49463 1207.90759
1184.0 0.000845 1127.94214 1194.58313
1177.0 0.000850 1128.38794 1183.37891
1171.0 0.000854 1128.83252 1174.36121
1167.0 0.000857 1129.27515 1167.41028
1157.0 0.000864 1129.71606 1162.13257
1150.0 0.000870 1130.15515 1158.20764
1148.0 0.000871 1130.59265 1155.29883
1146.0 0.000873 1131.02832 1153.13110
1148.0 0.000871 1131.46228 1151.58850
1152.0 0.000868 1131.89429 1150.56921
1157.0 0.000864 1132.32446 1150.05359
1160.0 0.000862 1132.75293 1150.05298
1161.0 0.000861 1133.17944 1150.59119
1159.0 0.000863 1133.60400 1151.69312
1157.0 0.000864 1134.02686 1153.41675
1155.0 0.000866 1134.44763 1155.64307
1155.0 0.000866 1134.86646 1158.35620
1155.0 0.000866 1135.28308 1161.43762
1156.0 0.000865 1135.69824 1164.70398
1160.0 0.000862 1136.11108 1167.90173
1163.0 0.000860 1136.52185 1170.70813
1164.0 0.000859 1136.93066 1172.77014
1166.0 0.000858 1137.33716 1173.78662
1167.0 0.000857 1137.74182 1173.63049
1167.0 0.000857 1138.14417 1172.40320
1163.0 0.000860 1138.54456 1170.38306
1161.0 0.000861 1138.94275 1167.91309
1158.0 0.000864 1139.33850 1165.30762
1153.0 0.000867 1139.73218 1162.81445
1150.0 0.000870 1140.12390 1160.60779
1148.0 0.000871 1140.51318 1158.80347
1150.0 0.000870 1140.89990 1157.46924
1152.0 0.000868 1141.28455 1156.63745
1153.0 0.000867 1141.66711 1156.32178
1156.0 0.000865 1142.04700 1156.53918
1161.0 0.000861 1142.42493 1157.32886
1164.0 0.000859 1142.80005 1158.77039
1170.0 0.000855 1143.17322 1161.08301
1178.0 0.000849 1143.54370 1164.34595
1189.0 0.000841 1143.91174 1168.93054
1196.0 0.000836 1144.27747 1175.20825
1205.0 0.000830 1144.64050 1183.58655
1213.0 0.000824 1145.00122 1194.46143
1221.0 0.000819 1145.35950 1208.13770
1232.0 0.000812 1145.71497 1224.75427
1246.0 0.000803 1146.06824 1244.14380
1260.0 0.000794 1146.41882 1265.81677
1278.0 0.000782 1146.76660 1288.83789
1301.0 0.000769 1147.11218 1311.84814
1327.0 0.000754 1147.45496 1332.76025
1351.0 0.000740 1147.79517 1349.28992
1370.0 0.000730 1148.13232 1359.05774
1374.0 0.000728 1148.46716 1360.38953
1360.0 0.000735 1148.79944 1353.09778
1336.0 0.000749 1149.12866 1338.56812
1306.0 0.000766 1149.45544 1319.06531
1280.0 0.000781 1149.77942 1297.03320
1258.0 0.000795 1150.10034 1274.57715
1241.0 0.000806 1150.41858 1253.18530
1225.0 0.000816 1150.73425 1233.94592
1213.0 0.000824 1151.04712 1217.46362
1203.0 0.000831 1151.35669 1203.96875
1194.0 0.000838 1151.66394 1193.40210
1188.0 0.000842 1151.96814 1185.49731
1187.0 0.000842 1152.26917 1179.87085
1185.0 0.000844 1152.56763 1176.09705
1182.0 0.000846 1152.86316 1173.75220
1179.0 0.000848 1153.15564 1172.45386
1177.0 0.000850 1153.44507 1171.86597
1173.0 0.000853 1153.73181 1171.70056
1170.0 0.000855 1154.01550 1171.67432
1169.0 0.000855 1154.29602 1171.65039
1169.0 0.000855 1154.57361 1171.43274
1167.0 0.000857 1154.84827 1170.94238
1164.0 0.000859 1155.11987 1170.21912
1161.0 0.000861 1155.38818 1169.17322
1161.0 0.000861 1155.65356 1168.05212
1162.0 0.000861 1155.91589 1166.88696
1160.0 0.000862 1156.17480 1165.71521
1158.0 0.000864 1156.43103 1164.62646
1155.0 0.000866 1156.68408 1163.62378
1154.0 0.000867 1156.93359 1162.71680
1153.0 0.000867 1157.18030 1161.90686
1152.0 0.000868 1157.42371 1161.18909
1151.0 0.000869 1157.66418 1160.55786
1151.0 0.000869 1157.90112 1160.01526
1152.0 0.000868 1158.13489 1159.57080
1154.0 0.000867 1158.36560 1159.24768
1155.0 0.000866 1158.59290 1159.07471
1155.0 0.000866 1158.81689 1159.11182
1157.0 0.000864 1159.03796 1159.32031
1159.0 0.000863 1159.25537 1159.70984
1162.0 0.000861 1159.46960 1160.22925
1163.0 0.000860 1159.68079 1160.79871
1163.0 0.000860 1159.88831 1161.32520
1163.0 0.000860 1160.09277 1161.71912
1162.0 0.000861 1160.29395 1161.89111
1163.0 0.000860 1160.49158 1161.81982
1165.0 0.000858 1160.68579 1161.49500
1167.0 0.000857 1160.87683 1160.97217
1168.0 0.000856 1161.06445 1160.41187
1168.0 0.000856 1161.24878 1160.04700
1172.0 0.000853 1161.42944 1160.16382
1175.0 0.000851 1161.60718 1161.06519
1176.0 0.000850 1161.78125 1163.02856
1176.0 0.000850 1161.95166 1166.23621
1176.0 0.000850 1162.11890 1170.82178
1176.0 0.000850 1162.28284 1176.23730
1178.0 0.000849 1162.44312 1182.16895
1181.0 0.000847 1162.60010 1188.08362
1184.0 0.000845 1162.75342 1193.64075
1190.0 0.000840 1162.90356 1198.66174
1195.0 0.000837 1163.05005 1203.05383
1199.0 0.000834 1163.19299 1206.68555
1201.0 0.000833 1163.33252 1209.32568
1203.0 0.000831 1163.46875 1210.65430
1208.0 0.000828 1163.60120 1210.35510
1209.0 0.000827 1163.73047 1208.29504
1207.0 0.000829 1163.85596 1204.65881
1206.0 0.000829 1163.97815 1199.93042
1205.0 0.000830 1164.09692 1194.60840
1200.0 0.000833 1164.21204 1189.51819
1193.0 0.000838 1164.32361 1184.96484
1188.0 0.000842 1164.43176 1181.19958
1186.0 0.000843 1164.53625 1178.32007
1184.0 0.000845 1164.63721 1176.32202
1181.0 0.000847 1164.73499 1175.13818
1178.0 0.000849 1164.82910 1174.66589
1180.0 0.000847 1164.91931 1174.71436
1182.0 0.000846 1165.00635 1175.34302
1180.0 0.000847 1165.08984 1176.39771
1181.0 0.000847 1165.16980 1177.83472
1184.0 0.000845 1165.24609 1179.64978
1183.0 0.000845 1165.31909 1181.85522
1185.0 0.000844 1165.38843 1184.49988
1188.0 0.000842 1165.45422 1187.65210
1190.0 0.000840 1165.51672 1191.39807
1192.0 0.000839 1165.57544 1195.83838
1195.0 0.000837 1165.63086 1201.09229
1199.0 0.000834 1165.68250 1207.30066
1204.0 0.000831 1165.73083 1214.55908
1210.0 0.000826 1165.77576 1223.02222
1219.0 0.000820 1165.81702 1232.82983
1230.0 0.000813 1165.85486 1244.06812
1243.0 0.000805 1165.88916 1256.25427
1259.0 0.000794 1165.91980 1270.07056
1277.0 0.000783 1165.94727 1284.51941
1294.0 0.000773 1165.97119 1298.77625
1310.0 0.000763 1165.99133 1311.71167
1323.0 0.000756 1166.00842 1322.02124
1336.0 0.000749 1166.02197 1328.48718
1343.0 0.000745 1166.03210 1330.16626
1344.0 0.000744 1166.03870 1326.84802
1331.0 0.000751 1166.04175 1319.13367
1309.0 0.000764 1166.04150 1308.32483
1287.0 0.000777 1166.03809 1296.02661
1272.0 0.000786 1166.03101 1283.76074
1264.0 0.000791 1166.02051 1272.70813
1257.0 0.000796 1166.00684 1263.57031
1254.0 0.000797 1165.98962 1256.52649
1250.0 0.000800 1165.96924 1251.25073
1245.0 0.000803 1165.94543 1247.04773
1243.0 0.000805 1165.91809 1243.15039
1239.0 0.000807 1165.88782 1239.06360
1235.0 0.000810 1165.85413 1234.73279
1232.0 0.000812 1165.81702 1230.43042
1230.0 0.000813 1165.77661 1226.55408
1230.0 0.000813 1165.73315 1223.43579
1228.0 0.000814 1165.68652 1221.32275
1227.0 0.000815 1165.63635 1220.31970
1226.0 0.000816 1165.58325 1220.38147
1226.0 0.000816 1165.52686 1221.31665
1225.0 0.000816 1165.46729 1222.80664
1224.0 0.000817 1165.40466 1224.46252
1222.0 0.000818 1165.33899 1225.90698
1218.0 0.000821 1165.26990 1226.85010
1215.0 0.000823 1165.19800 1227.14294
1214.0 0.000824 1165.12292 1226.78357
1212.0 0.000825 1165.04480 1225.85291
1210.0 0.000826 1164.96362 1224.45422
1211.0 0.000826 1164.87927 1222.66077
1211.0 0.000826 1164.79248 1220.51526
1210.0 0.000826 1164.70239 1218.06555
1211.0 0.000826 1164.60913 1215.44629
1216.0 0.000822 1164.51343 1212.90845
1219.0 0.000820 1164.41467 1210.79724
1221.0 0.000819 1164.31299 1209.46423
1225.0 0.000816 1164.20862 1209.23022
1230.0 0.000813 1164.10144 1210.25867
1236.0 0.000809 1163.99133 1212.60669
1241.0 0.000806 1163.87842 1216.02649
1246.0 0.000803 1163.76318 1220.16077
1246.0 0.000803 1163.64514 1224.53430
1243.0 0.000805 1163.52429 1228.54834
1240.0 0.000806 1163.40088 1231.47070
1233.0 0.000811 1163.27515 1232.76270
1225.0 0.000816 1163.14636 1232.15979
1219.0 0.000820 1163.01526 1229.79846
1215.0 0.000823 1162.88159 1226.13538
1212.0 0.000825 1162.74573 1221.74023
1211.0 0.000826 1162.60730 1217.15686
1209.0 0.000827 1162.46655 1212.82837
1208.0 0.000828 1162.32336 1209.08142
1208.0 0.000828 1162.17773 1206.12354
1203.0 0.000831 1162.03003 1204.05798
1199.0 0.000834 1161.88013 1202.89197
1199.0 0.000834 1161.72791 1202.54761
1198.0 0.000835 1161.57361 1202.87781
1200.0 0.000833 1161.41736 1203.68433
1204.0 0.000831 1161.25879 1204.73657
1207.0 0.000829 1161.09814 1205.80518
1208.0 0.000828 1160.93567 1206.70251
1208.0 0.000828 1160.77124 1207.32434
1208.0 0.000828 1160.60461 1207.68237
1208.0 0.000828 1160.43665 1207.85608
1207.0 0.000829 1160.26660 1207.99316
1208.0 0.000828 1160.09485 1208.22852
1208.0 0.000828 1159.92126 1208.63367
1206.0 0.000829 1159.74622 1209.20032
1205.0 0.000830 1159.56921 1209.82410
1206.0 0.000829 1159.39099 1210.33813
1208.0 . . .
1206.0 . . .
1207.0 . . .
1209.0 . . .
1210.0 . . .
1211.0 . . .
1214.0 . . .
1217.0 . . .
1218.0 . . .
1219.0 . . .
1220.0 . . .
1224.0 . . .
1227.0 . . .
1230.0 . . .
1233.0 . . .
1234.0 . . .
1232.0 . . .
1232.0 . . .
1235.0 . . .
1236.0 . . .
1240.0 . . .
1243.0 . . .
1245.0 . . .
1247.0 . . .
1252.0 . . .
1256.0 . . .
1261.0 . . .
1268.0 . . .
1271.0 . . .
1276.0 . . .
1281.0 . . .
1287.0 . . .
1291.0 . . .
1294.0 . . .
1296.0 . . .
1297.0 . . .
1293.0 . . .
1286.0 . . .
1279.0 . . .
1273.0 . . .
1268.0 . . .
1264.0 . . .
1261.0 . . .
1258.0 . . .
1260.0 . . .
1257.0 . . .
1256.0 . . .
1258.0 . . .
1259.0 . . .
1258.0 . . .
1256.0 . . .
1255.0 . . .
1255.0 . . .
1255.0 . . .
1257.0 . . .
1263.0 . . .
1270.0 . . .
1280.0 . . .
1292.0 . . .
1304.0 . . .
1316.0 . . .
1319.0 . . .
1317.0 . . .
1307.0 . . .
1297.0 . . .
1291.0 . . .
1286.0 . . .
1283.0 . . .
1279.0 . . .
1277.0 . . .
1278.0 . . .
1278.0 . . .
1279.0 . . .
1279.0 . . .
1280.0 . . .
1285.0 . . .
1288.0 . . .
1289.0 . . .
1289.0 . . .
1288.0 . . .
1290.0 . . .
1290.0 . . .
1289.0 . . .
1290.0 . . .
1289.0 . . .
1290.0 . . .
1288.0 . . .
1286.0 . . .
1287.0 . . .
1286.0 . . .
1285.0 . . .
1284.0 . . .
1281.0 . . .
1281.0 . . .
1278.0 . . .
1274.0 . . .
1273.0 . . .
1270.0 . . .
1269.0 . . .
1268.0 . . .
1268.0 . . .
1272.0 . . .
1277.0 . . .
1283.0 . . .
1288.0 . . .
1290.0 . . .
1288.0 . . .
1280.0 . . .
1276.0 . . .
1271.0 . . .
1266.0 . . .
1262.0 . . .
1258.0 . . .
1256.0 . . .
1254.0 . . .
1250.0 . . .
1248.0 . . .
1247.0 . . .
1244.0 . . .
1244.0 . . .
1244.0 . . .
1247.0 . . .
1245.0 . . .
1245.0 . . .
1248.0 . . .
1247.0 . . .
1248.0 . . .
1248.0 . . .
1247.0 . . .
1248.0 . . .
1250.0 . . .
1252.0 . . .
1254.0 . . .
1257.0 . . .
1258.0 . . .
1258.0 . . .
1260.0 . . .
1260.0 . . .
1260.0 . . .
1263.0 . . .
1262.0 . . .
1261.0 . . .
1262.0 . . .
1262.0 . . .
1263.0 . . .
1263.0 . . .
1263.0 . . .
1267.0 . . .
1268.0 . . .
1271.0 . . .
1271.0 . . .
1271.0 . . .
1273.0 . . .
1275.0 . . .
1277.0 . . .
1277.0 . . .
1279.0 . . .
1281.0 . . .
1282.0 . . .
1286.0 . . .
1288.0 . . .
1289.0 . . .
1294.0 . . .
1297.0 . . .
1300.0 . . .
1303.0 . . .
1310.0 . . .
1318.0 . . .
1327.0 . . .
1336.0 . . .
1346.0 . . .
1349.0 . . .
1350.0 . . .
1348.0 . . .
1343.0 . . .
1341.0 . . .
1340.0 . . .
1341.0 . . .
1343.0 . . .
1340.0 . . .
1339.0 . . .
1334.0 . . .
1334.0 . . .
1330.0 . . .
1327.0 . . .
1325.0 . . .
1320.0 . . .
1317.0 . . .
1315.0 . . .
1311.0 . . .
1307.0 . . .
1302.0 . . .
1299.0 . . .
1296.0 . . .
1294.0 . . .
1294.0 . . .
1292.0 . . .
1291.0 . . .
1291.0 . . .
1292.0 . . .
1293.0 . . .
1292.0 . . .
1292.0 . . .
1294.0 . . .
1297.0 . . .
1299.0 . . .
1298.0 . . .
1298.0 . . .
1302.0 . . .
1304.0 . . .
1305.0 . . .
1303.0 . . .
1302.0 . . .
1305.0 . . .
1306.0 . . .
1307.0 . . .
1308.0 . . .
1308.0 . . .
1310.0 . . .
1310.0 . . .
1311.0 . . .
1312.0 . . .
1313.0 . . .
1314.0 . . .
1313.0 . . .
1316.0 . . .
1316.0 . . .
1316.0 . . .
1318.0 . . .
1318.0 . . .
1319.0 . . .
1321.0 . . .
1322.0 . . .
1321.0 . . .
1316.0 . . .
1311.0 . . .
1305.0 . . .
1301.0 . . .
1300.0 . . .
1298.0 . . .
1299.0 . . .
1297.0 . . .
1296.0 . . .
1295.0 . . .
1293.0 . . .
1291.0 . . .
1289.0 . . .
1289.0 . . .
1291.0 . . .
1293.0 . . .
1295.0 . . .
1295.0 . . .
1296.0 . . .
1299.0 . . .
1299.0 . . .
1302.0 . . .
1305.0 . . .
1307.0 . . .
1309.0 . . .
1311.0 . . .
1311.0 . . .
1314.0 . . .
1314.0 . . .
1315.0 . . .
1318.0 . . .
1322.0 . . .
1325.0 . . .
1326.0 . . .
1329.0 . . .
1333.0 . . .
1334.0 . . .
1337.0 . . .
1340.0 . . .
1342.0 . . .
1345.0 . . .
1347.0 . . .
1351.0 . . .
1356.0 . . .
1361.0 . . .
1363.0 . . .
1365.0 . . .
1368.0 . . .
1369.0 . . .
1371.0 . . .
1375.0 . . .
1377.0 . . .
1379.0 . . .
1380.0 . . .
1384.0 . . .
1386.0 . . .
1384.0 . . .
1385.0 . . .
1384.0 . . .
1383.0 . . .
1385.0 . . .
1384.0 . . .
1385.0 . . .
1384.0 . . .
1385.0 . . .
1385.0 . . .
1381.0 . . .
1379.0 . . .
1374.0 . . .
1368.0 . . .
1365.0 . . .
1359.0 . . .
1356.0 . . .
1354.0 . . .
1351.0 . . .
1348.0 . . .
1342.0 . . .
1341.0 . . .
1339.0 . . .
1336.0 . . .
1334.0 . . .
1332.0 . . .
1332.0 . . .
1330.0 . . .
1331.0 . . .
1334.0 . . .
1335.0 . . .
1340.0 . . .
1343.0 . . .
1348.0 . . .
1353.0 . . .
1354.0 . . .
1359.0 . . .
1363.0 . . .
1368.0 . . .
1374.0 . . .
1378.0 . . .
1382.0 . . .
1383.0 . . .
1386.0 . . .
1388.0 . . .
1388.0 . . .
1389.0 . . .
1387.0 . . .
1384.0 . . .
1382.0 . . .
1378.0 . . .
1376.0 . . .
1371.0 . . .
1369.0 . . .
1365.0 . . .
1358.0 . . .
1354.0 . . .
1352.0 . . .
1348.0 . . .
1344.0 . . .
1340.0 . . .
1339.0 . . .
1336.0 . . .
1333.0 . . .
1334.0 . . .
1333.0 . . .
1332.0 . . .
1332.0 . . .
1330.0 . . .
1331.0 . . .
1332.0 . . .
1332.0 . . .
1333.0 . . .
1335.0 . . .
1338.0 . . .
1344.0 . . .
1348.0 . . .
1353.0 . . .
1359.0 . . .
1371.0 . . .
1384.0 . . .
1395.0 . . .
1406.0 . . .
1414.0 . . .
1411.0 . . .
1403.0 . . .
1389.0 . . .
1376.0 . . .
1366.0 . . .
1359.0 . . .
1353.0 . . .
1349.0 . . .
1348.0 . . .
1347.0 . . .
1346.0 . . .
1344.0 . . .
1343.0 . . .
1345.0 . . .
1348.0 . . .
1346.0 . . .
1347.0 . . .
1349.0 . . .
1349.0 . . .
1352.0 . . .
1352.0 . . .
1352.0 . . .
1352.0 . . .
1350.0 . . .
1350.0 . . .
1349.0 . . .
1349.0 . . .
1350.0 . . .
1351.0 . . .
1349.0 . . .
1349.0 . . .
1351.0 . . .
1353.0 . . .
1354.0 . . .
1355.0 . . .
1358.0 . . .
1360.0 . . .
1363.0 . . .
1365.0 . . .
1368.0 . . .
1372.0 . . .
1371.0 . . .
1371.0 . . .
1373.0 . . .
1376.0 . . .
1375.0 . . .
1378.0 . . .
1379.0 . . .
1378.0 . . .
1375.0 . . .
1375.0 . . .
1378.0 . . .
1379.0 . . .
1380.0 . . .
1380.0 . . .
1378.0 . . .
1375.0 . . .
1370.0 . . .
1368.0 . . .
1366.0 . . .
1362.0 . . .
1357.0 . . .
1353.0 . . .
1350.0 . . .
1348.0 . . .
1345.0 . . .
1343.0 . . .
1343.0 . . .
1346.0 . . .
1348.0 . . .
1348.0 . . .
1349.0 . . .
1349.0 . . .
1352.0 . . .
1353.0 . . .
1355.0 . . .
1355.0 . . .
1356.0 . . .
1359.0 . . .
1361.0 . . .
1365.0 . . .
1365.0 . . .
1364.0 . . .
1366.0 . . .
1367.0 . . .
1368.0 . . .
1371.0 . . .
1376.0 . . .
1381.0 . . .
1382.0 . . .
1385.0 . . .
1386.0 . . .
1386.0 . . .
1389.0 . . .
1390.0 . . .
1390.0 . . .
1389.0 . . .
1387.0 . . .
1384.0 . . .
1381.0 . . .
1380.0 . . .
1376.0 . . .
1376.0 . . .
1376.0 . . .
1374.0 . . .
1371.0 . . .
1367.0 . . .
1366.0 . . .
1364.0 . . .
1360.0 . . .
1360.0 . . .
1359.0 . . .
1356.0 . . .
1355.0 . . .
1357.0 . . .
1357.0 . . .
1356.0 . . .
1354.0 . . .
1355.0 . . .
1355.0 . . .
1355.0 . . .
1354.0 . . .
1353.0 . . .
1353.0 . . .
1356.0 . . .
1356.0 . . .
1358.0 . . .
1361.0 . . .
1364.0 . . .
1365.0 . . .
1367.0 . . .
1367.0 . . .
1370.0 . . .
1373.0 . . .
1377.0 . . .
1382.0 . . .
1385.0 . . .
1388.0 . . .
1392.0 . . .
1397.0 . . .
1401.0 . . .
1404.0 . . .
1405.0 . . .
1408.0 . . .
1410.0 . . .
1409.0 . . .
1407.0 . . .
1407.0 . . .
1405.0 . . .
1402.0 . . .
1401.0 . . .
1400.0 . . .
1400.0 . . .
1396.0 . . .
1393.0 . . .
1389.0 . . .
1386.0 . . .
1383.0 . . .
1381.0 . . .
1380.0 . . .
1379.0 . . .
1378.0 . . .
1380.0 . . .
1382.0 . . .
1387.0 . . .
1388.0 . . .
1391.0 . . .
1391.0 . . .
1389.0 . . .
1388.0 . . .
1386.0 . . .
1386.0 . . .
1385.0 . . .
1383.0 . . .
1383.0 . . .
1383.0 . . .
1383.0 . . .
1380.0 . . .
1379.0 . . .
1379.0 . . .
1379.0 . . .
1379.0 . . .
1380.0 . . .
1381.0 . . .
1382.0 . . .
1384.0 . . .
1386.0 . . .
1388.0 . . .
1391.0 . . .
1393.0 . . .
1394.0 . . .
1395.0 . . .
1395.0 . . .
1393.0 . . .
1394.0 . . .
1393.0 . . .
1393.0 . . .
1393.0 . . .
1388.0 . . .
1386.0 . . .
1389.0 . . .
1390.0 . . .
1390.0 . . .
1391.0 . . .
1389.0 . . .
1388.0 . . .
1388.0 . . .
1389.0 . . .
1392.0 . . .
1393.0 . . .
1392.0 . . .
1394.0 . . .
1397.0 . . .
1397.0 . . .
1397.0 . . .
1399.0 . . .
1401.0 . . .
1405.0 . . .
1408.0 . . .
1413.0 . . .
1417.0 . . .
1419.0 . . .
1424.0 . . .
1426.0 . . .
1429.0 . . .
1430.0 . . .
1431.0 . . .
1432.0 . . .
1432.0 . . .
1432.0 . . .
1428.0 . . .
1425.0 . . .
1425.0 . . .
1425.0 . . .
1419.0 . . .
1416.0 . . .
1414.0 . . .
1411.0 . . .
1408.0 . . .
1405.0 . . .
1405.0 . . .
1406.0 . . .
1405.0 . . .
1405.0 . . .
1403.0 . . .
1402.0 . . .
1402.0 . . .
1399.0 . . .
1398.0 . . .
1396.0 . . .
1395.0 . . .
1395.0 . . .
1394.0 . . .
1393.0 . . .
1391.0 . . .
1391.0 . . .
1392.0 . . .
1391.0 . . .
1390.0 . . .
1388.0 . . .
1389.0 . . .
1387.0 . . .
1386.0 . . .
1386.0 . . .
1384.0 . . .
1380.0 . . .
1376.0 . . .
1375.0 . . .
1372.0 . . .
1368.0 . . .
1366.0 . . .
1363.0 . . .
1360.0 . . .
1356.0 . . .
1350.0 . . .
1346.0 . . .
1341.0 . . .
1333.0 . . .
1323.0 . . .
1312.0 . . .
1301.0 . . .
1290.0 . . .
1281.0 . . .
1269.0 . . .
1256.0 . . .
1241.0 . . .
1227.0 . . .
1213.0 . . .
1198.0 . . .
1182.0 . . .
1165.0 . . .
1151.0 . . .
1138.0 . . .
1127.0 . . .
1116.0 . . .
1107.0 . . .
1101.0 . . .
1060.0 . . .
947.0 . . .
853.0 . . .
768.0 . . .
700.0 . . .
646.0 . . .
596.0 . . .
557.0 . . .
512.0 . . .
459.0 . . .
413.0 . . .
370.0 . . .
321.0 . . .
258.0 . . .
164.0 . . .
36.0 . . .
loop_
_refln_index_h
_refln_index_k
_refln_index_l
_refln_observed_status
_refln_F_squared_meas
_refln_F_squared_calc
_refln_phase_calc
_refln_d_spacing
_gsas_i100_meas
0 0 2 o 760.473 775.537 180.00 7.21932 1.69
0 2 0 o 583.307 607.882 0.00 6.74969 0.50
0 1 2 o 5201.438 5190.500 0.00 6.36614 29.76
0 2 1 o 85.603 79.709 180.00 6.11456 0.04
1 0 0 o 2296.874 2198.796 180.00 3.85721 7.93
0 2 2 o 60.494 52.263 0.00 4.93042 0.21
1 1 0 o 0.045 0.054 0.00 3.70878 0.00
1 1 1 o 573.812 560.786 180.00 3.64770 0.18
0 1 3 o 2060.867 2017.277 0.00 4.53337 3.70
1 1 -1 o 1750.722 1745.483 180.00 3.53909 6.61
1 0 2 o 4575.621 4623.913 180.00 3.49820 4.54
0 3 1 o 0.000 493.539 180.00 4.29600 0.00
1 0 -2 o 0.000 1181.233 0.00 3.31344 0.00
1 1 2 o 0.000 33.453 0.00 3.38635 0.00
0 2 3 o 62.140 50.148 0.00 3.91869 0.16
0 3 2 o 1962.834 1891.250 0.00 3.81874 1.78
1 2 0 o 2432.998 2450.772 180.00 3.34894 7.63
1 1 -2 o 226.470 236.353 180.00 3.21793 1.85
1 2 1 o 5930.690 5912.628 180.00 3.30377 44.23
1 2 -1 o 0.000 199.685 0.00 3.22243 0.00
0 0 4 o 3585.508 3409.941 0.00 3.60966 1.65
0 1 4 o 225.925 233.906 0.00 3.48715 0.18
0 4 0 o 3929.137 3922.004 0.00 3.37485 1.26
1 1 3 o 0.000 738.189 0.00 3.03105 0.00
1 2 2 o 33848.879 33756.852 180.00 3.10585 100.00
0 4 1 o 45.759 44.980 180.00 3.28627 0.00
0 3 3 o 5151.748 5077.903 0.00 3.28695 7.92
1 2 -2 o 0.000 1129.584 180.00 2.97438 0.00
0 2 4 o 461.685 470.424 180.00 3.18307 0.66
1 1 -3 o 0.000 885.537 180.00 2.85253 0.00
1 3 0 o 5797.322 5747.549 0.00 2.92853 7.51
1 3 1 o 14775.664 14803.692 0.00 2.89818 34.95
1 3 -1 o 2118.998 2104.660 180.00 2.84280 7.17
0 4 2 o 1389.416 1535.447 0.00 3.05728 0.10
1 2 3 o 0.000 1561.675 180.00 2.82494 0.00
1 0 4 o 3482.314 3435.642 0.00 2.72576 3.51
1 3 2 o 946.714 913.876 180.00 2.76180 3.76
1 2 -3 o 70.892 68.652 180.00 2.67875 0.17
1 1 4 o 0.000 97.530 0.00 2.67183 0.00
0 1 5 o 653.831 619.666 0.00 2.82384 0.26
0 3 4 o 968.300 923.467 0.00 2.81567 1.35
1 3 -2 o 1187.991 1169.951 180.00 2.66813 1.78
0 4 3 o 2831.381 2736.725 0.00 2.76321 1.77
1 0 -4 o 0.000 1439.429 0.00 2.55381 0.00
0 5 1 o 18.740 20.308 0.00 2.65388 0.00
1 1 -4 o 0.000 1809.464 0.00 2.50930 0.00
1 3 3 o 18120.330 18565.930 180.00 2.55868 35.20
0 2 5 o 883.160 956.226 0.00 2.65495 0.64
1 4 0 o 0.000 210.324 180.00 2.53990 0.00
1 2 4 o 4.979 3.982 0.00 2.52745 0.00
1 4 1 o 0.000 198.914 180.00 2.52002 0.00
1 4 -1 o 2910.698 2767.406 0.00 2.48336 4.47
0 5 2 o 0.000 13.611 0.00 2.52882 0.00
1 3 -3 o 1839.139 1760.350 0.00 2.44854 0.24
1 2 -4 o 9384.573 9323.282 0.00 2.38856 13.32
1 4 2 o 636.684 616.282 180.00 2.42882 1.50
0 4 4 o 1783.613 1959.663 180.00 2.46521 1.55
1 4 -2 o 13.812 12.978 0.00 2.36437 0.05
1 1 5 o 0.000 1702.934 180.00 2.35108 0.00
0 3 5 o 1066.241 1036.451 180.00 2.43032 1.07
1 3 4 o 24.949 56.528 180.00 2.33138 0.06
0 0 6 o 13191.087 12804.402 180.00 2.40644 1.64
0 5 3 o 1.110 0.993 0.00 2.35469 0.00
0 1 6 o 3313.026 3227.717 0.00 2.36909 0.67
1 2 5 o 683.720 607.883 180.00 2.25090 1.30
0 6 0 o 7210.772 6457.742 0.00 2.24990 1.66
1 4 3 o 84.866 21.894 0.00 2.28720 0.11
1 3 -4 o 4208.447 4007.895 0.00 2.22104 1.98
1 1 -5 o 1492.193 1499.780 180.00 2.21226 4.04
1 5 0 o 0.000 427.345 0.00 2.21187 0.00
1 4 -3 o 268.238 301.416 180.00 2.20751 0.34
0 2 6 o 5701.393 4114.407 180.00 2.26669 2.02
0 6 1 o 1653.286 1592.213 180.00 2.22307 0.42
1 5 -1 o 0.000 361.138 180.00 2.17423 0.00
1 5 1 o 0.000 65.522 0.00 2.19871 0.00
1 2 -5 o 2016.415 1874.819 0.00 2.12819 4.38
0 5 4 o 458.029 169.683 0.00 2.16202 0.19
0 4 5 o 372.138 492.463 180.00 2.19413 0.32
0 6 2 o 0.000 3356.635 180.00 2.14800 0.00
1 0 6 o 488.459 490.520 180.00 2.10423 0.34
2 0 0 o 73.400 60.193 180.00 1.92860 0.06
1 5 2 o 1.348 1.149 0.00 2.13734 0.00
1 5 -2 o 3426.298 3243.579 0.00 2.09303 0.00
1 4 4 o 2319.954 2243.761 0.00 2.12050 1.50
1 1 6 o 1146.926 1340.008 180.00 2.07913 1.15
1 3 5 o 31.178 32.256 0.00 2.10907 0.08
0 3 6 o 3344.678 3245.908 0.00 2.12205 2.14
1 4 -4 o 8262.624 8195.354 0.00 2.03646 9.11
2 1 0 o 961.614 939.631 0.00 1.90922 1.41
2 1 1 o 1080.667 1056.094 0.00 1.90882 0.56
2 0 2 o 0.000 6903.438 0.00 1.89432 0.00
1 2 6 o 120.466 166.803 0.00 2.00888 0.16
1 3 -5 o 39.211 65.333 180.00 2.00713 0.12
1 5 3 o 83.265 81.065 180.00 2.03893 0.18
0 6 3 o 0.000 11350.328 0.00 2.03819 0.00
2 1 -1 o 1516.633 1509.471 180.00 1.87706 3.51
2 1 2 o 0.000 124.284 180.00 1.87594 0.00
1 0 -6 o -101.043 187.563 0.00 1.98440 0.10
1 5 -3 o 0.000 10.870 0.00 1.98187 0.00
0 1 7 o 712.233 696.150 180.00 2.03900 0.06
2 2 0 o 113.403 104.121 0.00 1.85439 0.09
2 2 1 o 864.245 795.985 180.00 1.85403 0.96
1 1 -6 o 0.000 1173.059 180.00 1.96330 0.00
1 6 0 o 0.000 2268.149 180.00 1.94344 0.00
2 0 -2 o 1029.065 1042.018 180.00 1.83368 2.32
0 5 5 o 1184.324 199.685 0.00 1.97217 0.66
2 2 -1 o 1375.902 1398.154 0.00 1.82488 0.11
2 2 2 o 602.521 612.594 0.00 1.82385 0.09
0 4 6 o 3553.092 1550.771 180.00 1.95934 2.53
1 6 -1 o 1391.999 1453.771 0.00 1.91776 0.37
1 4 5 o 2927.950 2356.832 180.00 1.94912 2.30
0 2 7 o 3585.421 599.146 180.00 1.97261 0.57
0 7 1 o 67.671 69.850 180.00 1.91151 0.02
1 2 -6 o 2228.275 2218.150 0.00 1.90382 2.88
1 6 1 o 0.002 0.001 0.00 1.93450 0.00
1 5 4 o 94.185 99.323 180.00 1.91819 0.11
0 6 4 o 350.557 358.780 180.00 1.90937 0.05
1 3 6 o 2530.821 2537.675 180.00 1.90612 3.43
1 4 -5 o 217.618 213.272 180.00 1.86780 0.84
0 7 2 o 17.258 15.317 0.00 1.86315 0.00
1 6 2 o 2523.518 2492.663 180.00 1.89231 3.36
1 6 -2 o 0.000 344.208 0.00 1.86135 0.00
1 5 -4 o 0.000 265.602 0.00 1.85531 0.00
1 1 7 o 1173.146 1084.163 0.00 1.85265 2.44
0 3 7 o 5.541 5.896 0.00 1.87505 0.00
