#------------------------------------------------------------------------------
#$Date: 2016-02-18 17:37:37 +0200 (Thu, 18 Feb 2016) $
#$Revision: 176729 $
#$URL: svn://www.crystallography.net/cod/cif/1/51/62/1516257.cif $
#------------------------------------------------------------------------------
#
# This file is available in the Crystallography Open Database (COD),
# http://www.crystallography.net/
#
# All data on this site have been placed in the public domain by the
# contributors.
#
data_1516257
loop_
_publ_author_name
'Lekin, Kristina'
'Phan, Hoa'
'Winter, Stephen M.'
'Wong, Joanne W. L.'
'Leitch, Alicea A.'
'Laniel, Dominique'
'Yong, Wenjun'
'Secco, Richard A.'
'Tse, John S.'
'Desgreniers, Serge'
'Dube, Paul A.'
'Shatruk, Michael'
'Oakley, Richard T.'
_publ_section_title
;
 Heat, Pressure and Light-Induced Interconversion of Bisdithiazolyl
 Radicals and Dimers.
;
_journal_issue                   22
_journal_name_full               'Journal of the American Chemical Society'
_journal_page_first              8050
_journal_paper_doi               10.1021/ja502753t
_journal_volume                  136
_journal_year                    2014
_chemical_formula_moiety         'C6 H3 F N3 S4'
_chemical_formula_sum            'C6 H3 F N3 S4'
_chemical_formula_weight         264.35
_chemical_name_common            FBPMe-radical-100K-cell-I
_chemical_name_systematic
; 
 ? 
;
_space_group_IT_number           14
_space_group_name_Hall           '-P 2ybc'
_symmetry_cell_setting           monoclinic
_symmetry_space_group_name_Hall  '-P 2ybc'
_symmetry_space_group_name_H-M   'P 1 21/c 1'
_atom_sites_solution_hydrogens   geom
_atom_sites_solution_primary     direct
_atom_sites_solution_secondary   difmap
_audit_creation_method           SHELXL-97
_cell_angle_alpha                90.00
_cell_angle_beta                 74.89(3)
_cell_angle_gamma                90.00
_cell_formula_units_Z            4
_cell_length_a                   4.789(5)
_cell_length_b                   12.683(14)
_cell_length_c                   16.281(16)
_cell_measurement_temperature    100(2)
_cell_volume                     954.7(17)
_computing_cell_refinement       'Saint V8.27(Bruker AXS, 2011)'
_computing_data_collection       'Apex2 V2012.12-0(Bruker AXS, 2012'
_computing_data_reduction        'Saint V8.27(Bruker AXS, 2011)'
_computing_publication_material  'SHELXL-97 (Sheldrick, 1997)'
_computing_structure_refinement  'SHELXL-97 (Sheldrick, 1997)'
_computing_structure_solution    'SHELXS-97 (Sheldrick, 1990)'
_diffrn_ambient_temperature      100(2)
_diffrn_measured_fraction_theta_full 0.995
_diffrn_measured_fraction_theta_max 0.995
_diffrn_measurement_device_type  'Bruker D8 Quest-photon 100 detector'
_diffrn_measurement_method       'profile data from \w scans'
_diffrn_radiation_monochromator  graphite
_diffrn_radiation_source         'micro-focus sealed tube'
_diffrn_radiation_type           MoK\a
_diffrn_radiation_wavelength     0.71073
_diffrn_reflns_av_R_equivalents  0.0000
_diffrn_reflns_av_sigmaI/netI    0.0820
_diffrn_reflns_limit_h_max       5
_diffrn_reflns_limit_h_min       -5
_diffrn_reflns_limit_k_max       15
_diffrn_reflns_limit_k_min       0
_diffrn_reflns_limit_l_max       20
_diffrn_reflns_limit_l_min       0
_diffrn_reflns_number            1915
_diffrn_reflns_theta_full        26.25
_diffrn_reflns_theta_max         26.25
_diffrn_reflns_theta_min         2.06
_exptl_absorpt_coefficient_mu    0.967
_exptl_absorpt_correction_T_max  0.9901
_exptl_absorpt_correction_T_min  0.8725
_exptl_absorpt_correction_type   multi-scan
_exptl_absorpt_process_details   SADABS
_exptl_crystal_colour            black
_exptl_crystal_density_diffrn    1.839
_exptl_crystal_density_method    'not measured'
_exptl_crystal_description       needle
_exptl_crystal_F_000             532
_exptl_crystal_size_max          0.14
_exptl_crystal_size_mid          0.01
_exptl_crystal_size_min          0.01
_refine_diff_density_max         0.929
_refine_diff_density_min         -0.668
_refine_diff_density_rms         0.183
_refine_ls_extinction_method     none
_refine_ls_goodness_of_fit_ref   1.286
_refine_ls_hydrogen_treatment    constr
_refine_ls_matrix_type           full
_refine_ls_number_parameters     128
_refine_ls_number_reflns         1915
_refine_ls_number_restraints     0
_refine_ls_restrained_S_all      1.286
_refine_ls_R_factor_all          0.1175
_refine_ls_R_factor_gt           0.0838
_refine_ls_shift/su_max          0.000
_refine_ls_shift/su_mean         0.000
_refine_ls_structure_factor_coef Fsqd
_refine_ls_weighting_details
'calc w=1/[\s^2^(Fo^2^)+(0.0926P)^2^+0.0000P] where P=(Fo^2^+2Fc^2^)/3'
_refine_ls_weighting_scheme      calc
_refine_ls_wR_factor_gt          0.1932
_refine_ls_wR_factor_ref         0.2046
_reflns_number_gt                1360
_reflns_number_total             1915
_reflns_threshold_expression     >2sigma(I)
_iucr_refine_instructions_details
;
TITL FBPMe_radical_cell1 in P21/c
CELL  0.71073    4.7890   12.6830   16.2810    90.000   74.89    90.000
ZERR  4           0.0050    0.0140    0.0160     0.000     0.030     0.000
LATT   1
SYMM   - X,  0.5+ Y, 0.5-Z
SFAC C H N F S
UNIT 24 12 12 4 16
TEMP -100.0000
ACTA
L.S. 10
FMAP 2
PLAN -2 0 0.00
HTAB
BOND $H
CONF
OMIT -3 56
WGHT    0.092600
FVAR       0.55578
S1    5   -0.416451    0.496763    0.878887    11.00000    0.02158    0.03261 =
         0.01469    0.00078   -0.00150    0.00345
S2    5   -0.165582    0.438544    0.758374    11.00000    0.02117    0.03031 =
         0.01208    0.00121   -0.00133    0.00035
S3    5    0.643061    0.065501    0.893680    11.00000    0.02945    0.03734 =
         0.02499    0.00335   -0.00674    0.00397
S4    5    0.644488    0.123173    0.769537    11.00000    0.02149    0.02862 =
         0.01620   -0.00143   -0.00134    0.00131
F1    4    0.324270    0.280896    0.681286    11.00000    0.02511    0.03563 =
         0.00999   -0.00137    0.00261    0.00115
N1    3   -0.279960    0.418634    0.942488    11.00000    0.02501    0.03151 =
         0.01652    0.00122   -0.00395    0.00306
N2    3    0.051230    0.280993    0.948105    11.00000    0.01888    0.03370 =
         0.01132    0.00325   -0.00075    0.00132
N3    3    0.386361    0.146794    0.952719    11.00000    0.02853    0.03234 =
         0.02091    0.00229   -0.00373    0.00357
C1    1   -0.075844    0.352868    0.902287    11.00000    0.01592    0.02344 =
         0.01726   -0.00104   -0.00531   -0.00242
C2    1    0.021745    0.349749    0.809074    11.00000    0.01678    0.02669 =
         0.02886    0.00130   -0.01045   -0.00253
C3    1    0.237067    0.282133    0.768762    11.00000    0.01988    0.03076 =
         0.00795    0.00178   -0.00201   -0.00389
C4    1    0.365884    0.212327    0.813726    11.00000    0.01338    0.02740 =
         0.02070   -0.00659    0.00081   -0.00232
C5    1    0.270465    0.211647    0.907378    11.00000    0.01695    0.03249 =
         0.02378    0.00074   -0.00459   -0.00005
C6    1   -0.055605    0.278709    1.042944    11.00000    0.02920    0.05388 =
         0.01089    0.00484   -0.00136    0.00575
AFIX 137
H6A   2   -0.025410    0.208232    1.063766    11.00000   -1.50000
H6B   2   -0.262349    0.295706    1.059774    11.00000   -1.50000
H6C   2    0.050910    0.330694    1.067462    11.00000   -1.50000
 
HKLF 4 1 1.0000  0.0000  0.0000  0.0000 1.0000  0.0000 0.0000  0.0000 1.0000
 
REM  twin4 in P21/c
REM R1 =  0.0838 for   1360 Fo > 4sig(Fo)  and  0.1175 for all   1915 data
REM    128 parameters refined using      0 restraints
 
END  
     
WGHT      0.1219      1.0951 
REM Highest difference peak  0.929,  deepest hole -0.668,  1-sigma level  0.183
Q1    1   0.0050  0.4013  0.7614  11.00000  0.05    0.93
Q2    1  -0.3743  0.5161  0.7426  11.00000  0.05    0.92
;
_cod_data_source_file            ja502753t_si_007.cif
_cod_data_source_block           twin4
_cod_depositor_comments
'Adding full bibliography for 1516253--1516258.cif.'
_cod_original_sg_symbol_H-M      'P 21/c'
_cod_database_code               1516257
loop_
_symmetry_equiv_pos_as_xyz
'x, y, z'
'-x, y+1/2, -z+1/2'
'-x, -y, -z'
'x, -y-1/2, z-1/2'
loop_
_atom_site_label
_atom_site_type_symbol
_atom_site_fract_x
_atom_site_fract_y
_atom_site_fract_z
_atom_site_U_iso_or_equiv
_atom_site_adp_type
_atom_site_occupancy
_atom_site_symmetry_multiplicity
_atom_site_calc_flag
_atom_site_refinement_flags
S3 S 0.6431(4) 0.06550(16) 0.89368(12) 0.0307(5) Uani 1 1 d .
S4 S 0.6445(4) 0.12317(15) 0.76954(11) 0.0228(5) Uani 1 1 d .
S1 S -0.4165(4) 0.49676(15) 0.87889(10) 0.0236(5) Uani 1 1 d .
S2 S -0.1656(4) 0.43854(15) 0.75837(10) 0.0217(5) Uani 1 1 d .
F1 F 0.3243(8) 0.2809(3) 0.6813(2) 0.0249(10) Uani 1 1 d .
N3 N 0.3864(13) 0.1468(5) 0.9527(4) 0.0278(15) Uani 1 1 d .
N2 N 0.0512(12) 0.2810(5) 0.9481(3) 0.0219(14) Uani 1 1 d .
N1 N -0.2800(12) 0.4186(5) 0.9425(3) 0.0246(14) Uani 1 1 d .
C5 C 0.2705(14) 0.2116(6) 0.9074(4) 0.0245(17) Uani 1 1 d .
C4 C 0.3659(14) 0.2123(5) 0.8137(4) 0.0215(16) Uani 1 1 d .
C3 C 0.2371(14) 0.2821(6) 0.7688(4) 0.0198(15) Uani 1 1 d .
C2 C 0.0217(14) 0.3497(6) 0.8091(4) 0.0233(16) Uani 1 1 d .
C1 C -0.0758(14) 0.3529(6) 0.9023(4) 0.0187(15) Uani 1 1 d .
C6 C -0.0556(16) 0.2787(7) 1.0429(4) 0.0320(19) Uani 1 1 d .
H6A H -0.0254 0.2082 1.0638 0.048 Uiso 1 1 calc R
H6B H -0.2623 0.2957 1.0598 0.048 Uiso 1 1 calc R
H6C H 0.0509 0.3307 1.0675 0.048 Uiso 1 1 calc R
loop_
_atom_site_aniso_label
_atom_site_aniso_U_11
_atom_site_aniso_U_22
_atom_site_aniso_U_33
_atom_site_aniso_U_23
_atom_site_aniso_U_13
_atom_site_aniso_U_12
S3 0.0294(11) 0.0373(12) 0.0250(10) 0.0033(9) -0.0067(8) 0.0040(9)
S4 0.0215(9) 0.0286(11) 0.0162(9) -0.0014(7) -0.0013(7) 0.0013(8)
S1 0.0216(9) 0.0326(12) 0.0147(8) 0.0008(7) -0.0015(7) 0.0035(8)
S2 0.0212(9) 0.0303(11) 0.0121(8) 0.0012(7) -0.0013(7) 0.0004(7)
F1 0.025(2) 0.036(3) 0.0100(19) -0.0014(17) 0.0026(16) 0.0012(18)
N3 0.029(3) 0.032(4) 0.021(3) 0.002(3) -0.004(3) 0.004(3)
N2 0.019(3) 0.034(4) 0.011(3) 0.003(2) -0.001(2) 0.001(3)
N1 0.025(3) 0.032(4) 0.017(3) 0.001(3) -0.004(3) 0.003(3)
C5 0.017(4) 0.032(5) 0.024(4) 0.001(3) -0.005(3) 0.000(3)
C4 0.013(3) 0.027(4) 0.021(4) -0.007(3) 0.001(3) -0.002(3)
C3 0.020(3) 0.031(4) 0.008(3) 0.002(3) -0.002(3) -0.004(3)
C2 0.017(4) 0.027(4) 0.029(4) 0.001(3) -0.010(3) -0.003(3)
C1 0.016(3) 0.023(4) 0.017(3) -0.001(3) -0.005(3) -0.002(3)
C6 0.029(4) 0.054(6) 0.011(4) 0.005(3) -0.001(3) 0.006(4)
loop_
_atom_type_symbol
_atom_type_description
_atom_type_scat_dispersion_real
_atom_type_scat_dispersion_imag
_atom_type_scat_source
C C 0.0033 0.0016 'International Tables Vol C Tables 4.2.6.8 and 6.1.1.4'
H H 0.0000 0.0000 'International Tables Vol C Tables 4.2.6.8 and 6.1.1.4'
N N 0.0061 0.0033 'International Tables Vol C Tables 4.2.6.8 and 6.1.1.4'
F F 0.0171 0.0103 'International Tables Vol C Tables 4.2.6.8 and 6.1.1.4'
S S 0.1246 0.1234 'International Tables Vol C Tables 4.2.6.8 and 6.1.1.4'
loop_
_geom_angle_atom_site_label_1
_geom_angle_atom_site_label_2
_geom_angle_atom_site_label_3
_geom_angle
N3 S3 S4 98.6(2)
C4 S4 S3 91.0(3)
N1 S1 S2 98.3(2)
C2 S2 S1 91.3(3)
C5 N3 S3 114.2(5)
C5 N2 C1 122.0(6)
C5 N2 C6 119.4(6)
C1 N2 C6 118.7(6)
C1 N1 S1 115.0(5)
N3 C5 N2 120.0(6)
N3 C5 C4 121.3(6)
N2 C5 C4 118.6(6)
C3 C4 C5 119.2(6)
C3 C4 S4 126.1(5)
C5 C4 S4 114.7(5)
C2 C3 F1 119.4(6)
C2 C3 C4 121.9(6)
F1 C3 C4 118.7(6)
C3 C2 C1 120.6(6)
C3 C2 S2 125.7(5)
C1 C2 S2 113.7(5)
N1 C1 N2 120.7(6)
N1 C1 C2 121.6(6)
N2 C1 C2 117.6(6)
N2 C6 H6A 109.5
N2 C6 H6B 109.5
H6A C6 H6B 109.5
N2 C6 H6C 109.5
H6A C6 H6C 109.5
H6B C6 H6C 109.5
loop_
_geom_bond_atom_site_label_1
_geom_bond_atom_site_label_2
_geom_bond_distance
S3 N3 1.698(6)
S3 S4 2.148(3)
S4 C4 1.754(7)
S1 N1 1.684(6)
S1 S2 2.147(3)
S2 C2 1.772(7)
F1 C3 1.376(7)
N3 C5 1.320(9)
N2 C5 1.397(9)
N2 C1 1.412(9)
N2 C6 1.495(8)
N1 C1 1.321(9)
C5 C4 1.473(10)
C4 C3 1.391(10)
C3 C2 1.370(10)
C2 C1 1.467(10)
C6 H6A 0.9800
C6 H6B 0.9800
C6 H6C 0.9800
loop_
_geom_torsion_atom_site_label_1
_geom_torsion_atom_site_label_2
_geom_torsion_atom_site_label_3
_geom_torsion_atom_site_label_4
_geom_torsion
N3 S3 S4 C4 -2.3(3)
N1 S1 S2 C2 -1.5(3)
S4 S3 N3 C5 2.3(6)
S2 S1 N1 C1 1.0(5)
S3 N3 C5 N2 178.4(5)
S3 N3 C5 C4 -1.1(9)
C1 N2 C5 N3 179.0(6)
C6 N2 C5 N3 -1.7(10)
C1 N2 C5 C4 -1.5(10)
C6 N2 C5 C4 177.8(6)
N3 C5 C4 C3 180.0(7)
N2 C5 C4 C3 0.4(10)
N3 C5 C4 S4 -1.1(9)
N2 C5 C4 S4 179.4(5)
S3 S4 C4 C3 -179.1(6)
S3 S4 C4 C5 2.1(5)
C5 C4 C3 C2 -0.6(10)
S4 C4 C3 C2 -179.4(6)
C5 C4 C3 F1 -178.9(6)
S4 C4 C3 F1 2.3(9)
F1 C3 C2 C1 -180.0(6)
C4 C3 C2 C1 1.7(10)
F1 C3 C2 S2 0.5(10)
C4 C3 C2 S2 -177.7(5)
S1 S2 C2 C3 -178.8(6)
S1 S2 C2 C1 1.7(5)
S1 N1 C1 N2 -178.3(5)
S1 N1 C1 C2 0.2(9)
C5 N2 C1 N1 -179.0(6)
C6 N2 C1 N1 1.7(10)
C5 N2 C1 C2 2.5(9)
C6 N2 C1 C2 -176.8(6)
C3 C2 C1 N1 178.9(6)
S2 C2 C1 N1 -1.6(9)
C3 C2 C1 N2 -2.6(10)
S2 C2 C1 N2 176.9(5)
