#------------------------------------------------------------------------------
#$Date: 2016-02-18 17:37:37 +0200 (Thu, 18 Feb 2016) $
#$Revision: 176729 $
#$URL: svn://www.crystallography.net/cod/cif/1/51/66/1516639.cif $
#------------------------------------------------------------------------------
#
# This file is available in the Crystallography Open Database (COD),
# http://www.crystallography.net/
#
# All data on this site have been placed in the public domain by the
# contributors.
#
data_1516639
loop_
_publ_author_name
'Awwadi, Firas F.'
'Willett, Roger D.'
'Peterson, Kirk A.'
'Twamley, Brendan'
_publ_section_title
;
 The nature of halogen...halide synthons: theoretical and crystallographic
 studies.
;
_journal_issue                   12
_journal_name_full               'The journal of physical chemistry. A'
_journal_page_first              2319
_journal_page_last               2328
_journal_paper_doi               10.1021/jp0660684
_journal_volume                  111
_journal_year                    2007
_chemical_formula_sum            'C5 H5 Br I N'
_chemical_formula_weight         285.91
_chemical_name_common            '[2-BrPyH][I]'
_chemical_name_systematic
; 
 ? 
;
_space_group_IT_number           29
_symmetry_cell_setting           orthorhombic
_symmetry_space_group_name_Hall  'P 2c -2ac'
_symmetry_space_group_name_H-M   'P c a 21'
_atom_sites_solution_hydrogens   geom
_atom_sites_solution_primary     direct
_atom_sites_solution_secondary   difmap
_audit_creation_method           SHELXL-97
_cell_angle_alpha                90.00
_cell_angle_beta                 90.00
_cell_angle_gamma                90.00
_cell_formula_units_Z            4
_cell_length_a                   14.2891(18)
_cell_length_b                   4.8298(6)
_cell_length_c                   10.9546(14)
_cell_measurement_reflns_used    4908
_cell_measurement_temperature    85(2)
_cell_measurement_theta_max      30.01
_cell_measurement_theta_min      2.85
_cell_volume                     756.02(17)
_computing_cell_refinement       'Bruker SAINT+ v. 6.36a'
_computing_data_collection       'Bruker SMART v. 5.626'
_computing_data_reduction        'Bruker SAINT+ v. 6.36a'
_computing_molecular_graphics    'XP, Bruker SHELXTL v. 6.12'
_computing_publication_material  'XCIF, Bruker SHELXTL v. 6.12'
_computing_structure_refinement  'XL, Bruker SHELXTL v. 6.12'
_computing_structure_solution    'XS, Bruker SHELXTL v. 6.12'
_diffrn_ambient_temperature      85(2)
_diffrn_detector_area_resol_mean 8.3
_diffrn_measured_fraction_theta_full 0.995
_diffrn_measured_fraction_theta_max 0.995
_diffrn_measurement_device_type  'Bruker/Siemens SMART APEX'
_diffrn_measurement_method       \w
_diffrn_radiation_monochromator  graphite
_diffrn_radiation_source         'normal-focus sealed tube'
_diffrn_radiation_type           MoK\a
_diffrn_radiation_wavelength     0.71073
_diffrn_reflns_av_R_equivalents  0.0316
_diffrn_reflns_av_sigmaI/netI    0.0432
_diffrn_reflns_limit_h_max       16
_diffrn_reflns_limit_h_min       -18
_diffrn_reflns_limit_k_max       6
_diffrn_reflns_limit_k_min       -6
_diffrn_reflns_limit_l_max       14
_diffrn_reflns_limit_l_min       -11
_diffrn_reflns_number            6687
_diffrn_reflns_theta_full        27.49
_diffrn_reflns_theta_max         27.49
_diffrn_reflns_theta_min         2.85
_diffrn_standards_decay_%        <0.01
_exptl_absorpt_coefficient_mu    9.423
_exptl_absorpt_correction_T_max  0.183
_exptl_absorpt_correction_T_min  0.102
_exptl_absorpt_correction_type   multi-scan
_exptl_absorpt_process_details   'SADABS: SAINT+, 2001'
_exptl_crystal_colour            colorless
_exptl_crystal_density_diffrn    2.512
_exptl_crystal_density_method    'not measured'
_exptl_crystal_description       fragment
_exptl_crystal_F_000             520
_exptl_crystal_size_max          0.31
_exptl_crystal_size_mid          0.19
_exptl_crystal_size_min          0.18
_refine_diff_density_max         1.382
_refine_diff_density_min         -1.817
_refine_diff_density_rms         0.197
_refine_ls_abs_structure_details 'Flack H D (1983), Acta Cryst. A39, 876-881'
_refine_ls_abs_structure_Flack   0.041(15)
_refine_ls_extinction_method     none
_refine_ls_goodness_of_fit_ref   1.064
_refine_ls_hydrogen_treatment    constr
_refine_ls_matrix_type           full
_refine_ls_number_parameters     73
_refine_ls_number_reflns         1644
_refine_ls_number_restraints     1
_refine_ls_restrained_S_all      1.064
_refine_ls_R_factor_all          0.0281
_refine_ls_R_factor_gt           0.0272
_refine_ls_shift/su_max          0.000
_refine_ls_shift/su_mean         0.000
_refine_ls_structure_factor_coef Fsqd
_refine_ls_weighting_details
'calc w=1/[\s^2^(Fo^2^)+(0.0367P)^2^] where P=(Fo^2^+2Fc^2^)/3'
_refine_ls_weighting_scheme      calc
_refine_ls_wR_factor_gt          0.0648
_refine_ls_wR_factor_ref         0.0651
_reflns_number_gt                1597
_reflns_number_total             1644
_reflns_threshold_expression     >2sigma(I)
_cod_data_source_file            jp0660684si20060917_081838.cif
_cod_data_source_block           bt610
_cod_depositor_comments
;
The following automatic conversions were performed:

'_symmetry_cell_setting' value 'Orthorhombic' changed to
'orthorhombic' according to
/usr/data/users/saulius/automatic-downloads/retrospective/ACS/lib/dictionaries/cif_core.dic
dictionary named 'cif_core.dic' version 2.4.2 from 2011-04-26.

Automatic conversion script
Id: cif_fix_values 2281 2013-09-26 08:29:07Z andrius 
;
_cod_original_sg_symbol_H-M      Pca2(1)
_cod_database_code               1516639
loop_
_symmetry_equiv_pos_as_xyz
'x, y, z'
'-x, -y, z+1/2'
'x+1/2, -y, z'
'-x+1/2, y, z+1/2'
loop_
_atom_site_label
_atom_site_type_symbol
_atom_site_fract_x
_atom_site_fract_y
_atom_site_fract_z
_atom_site_U_iso_or_equiv
_atom_site_adp_type
_atom_site_occupancy
_atom_site_symmetry_multiplicity
_atom_site_calc_flag
_atom_site_refinement_flags
I1 I 0.40037(2) 0.35541(5) 0.01070(3) 0.01385(10) Uani 1 1 d .
Br1 Br 0.37208(4) 0.18702(10) 0.32100(6) 0.01736(12) Uani 1 1 d .
C2 C 0.3059(4) -0.1376(8) 0.5220(7) 0.0184(10) Uani 1 1 d .
H2 H 0.2636 -0.2229 0.4667 0.022 Uiso 1 1 calc R
C1 C 0.3658(4) 0.0678(11) 0.4842(4) 0.0145(10) Uani 1 1 d .
N6 N 0.4237(3) 0.1920(8) 0.5636(4) 0.0145(8) Uani 1 1 d .
H6 H 0.4610 0.3243 0.5375 0.017 Uiso 1 1 calc R
C3 C 0.3095(4) -0.2167(11) 0.6447(5) 0.0186(10) Uani 1 1 d .
H3 H 0.2707 -0.3628 0.6731 0.022 Uiso 1 1 calc R
C4 C 0.3689(4) -0.0843(12) 0.7245(5) 0.0185(10) Uani 1 1 d .
H4 H 0.3699 -0.1346 0.8083 0.022 Uiso 1 1 calc R
C5 C 0.4260(4) 0.1186(10) 0.6825(5) 0.0160(10) Uani 1 1 d .
H5 H 0.4678 0.2094 0.7368 0.019 Uiso 1 1 calc R
loop_
_atom_site_aniso_label
_atom_site_aniso_U_11
_atom_site_aniso_U_22
_atom_site_aniso_U_33
_atom_site_aniso_U_23
_atom_site_aniso_U_13
_atom_site_aniso_U_12
I1 0.01971(17) 0.00789(14) 0.01396(17) 0.00013(14) -0.00098(13) -0.00069(9)
Br1 0.0225(3) 0.0166(2) 0.0130(2) 0.0018(2) -0.0009(2) -0.0005(2)
C2 0.023(2) 0.0140(19) 0.019(3) 0.002(2) -0.002(3) 0.0000(16)
C1 0.021(2) 0.010(2) 0.012(3) -0.0008(18) -0.0014(17) 0.0048(19)
N6 0.020(2) 0.0100(17) 0.013(2) -0.0010(17) 0.0010(19) 0.0001(17)
C3 0.022(3) 0.011(2) 0.023(3) 0.003(2) 0.003(2) 0.004(2)
C4 0.023(2) 0.018(2) 0.014(3) -0.001(2) 0.000(2) 0.005(2)
C5 0.023(3) 0.014(2) 0.011(3) -0.0027(18) -0.005(2) 0.004(2)
loop_
_atom_type_symbol
_atom_type_description
_atom_type_scat_dispersion_real
_atom_type_scat_dispersion_imag
_atom_type_scat_source
C C 0.0033 0.0016 'International Tables Vol C Tables 4.2.6.8 and 6.1.1.4'
H H 0.0000 0.0000 'International Tables Vol C Tables 4.2.6.8 and 6.1.1.4'
N N 0.0061 0.0033 'International Tables Vol C Tables 4.2.6.8 and 6.1.1.4'
Br Br -0.2901 2.4595 'International Tables Vol C Tables 4.2.6.8 and 6.1.1.4'
I I -0.4742 1.8119 'International Tables Vol C Tables 4.2.6.8 and 6.1.1.4'
loop_
_geom_angle_atom_site_label_1
_geom_angle_atom_site_label_2
_geom_angle_atom_site_label_3
_geom_angle
C1 C2 C3 117.6(5)
C1 C2 H2 121.2
C3 C2 H2 121.2
N6 C1 C2 120.8(5)
N6 C1 Br1 116.7(4)
C2 C1 Br1 122.5(5)
C1 N6 C5 121.5(5)
C1 N6 H6 119.2
C5 N6 H6 119.2
C4 C3 C2 120.4(5)
C4 C3 H3 119.8
C2 C3 H3 119.8
C5 C4 C3 119.4(5)
C5 C4 H4 120.3
C3 C4 H4 120.3
N6 C5 C4 120.1(5)
N6 C5 H5 119.9
C4 C5 H5 119.9
loop_
_geom_bond_atom_site_label_1
_geom_bond_atom_site_label_2
_geom_bond_distance
Br1 C1 1.881(5)
C2 C1 1.374(7)
C2 C3 1.398(9)
C2 H2 0.9500
C1 N6 1.341(7)
N6 C5 1.350(7)
N6 H6 0.8800
C3 C4 1.376(8)
C3 H3 0.9500
C4 C5 1.356(8)
C4 H4 0.9500
C5 H5 0.9500
