#------------------------------------------------------------------------------
#$Date: 2016-02-18 17:37:37 +0200 (Thu, 18 Feb 2016) $
#$Revision: 176729 $
#$URL: svn://www.crystallography.net/cod/cif/1/51/62/1516256.cif $
#------------------------------------------------------------------------------
#
# This file is available in the Crystallography Open Database (COD),
# http://www.crystallography.net/
#
# All data on this site have been placed in the public domain by the
# contributors.
#
data_1516256
loop_
_publ_author_name
'Lekin, Kristina'
'Phan, Hoa'
'Winter, Stephen M.'
'Wong, Joanne W. L.'
'Leitch, Alicea A.'
'Laniel, Dominique'
'Yong, Wenjun'
'Secco, Richard A.'
'Tse, John S.'
'Desgreniers, Serge'
'Dube, Paul A.'
'Shatruk, Michael'
'Oakley, Richard T.'
_publ_section_title
;
 Heat, Pressure and Light-Induced Interconversion of Bisdithiazolyl
 Radicals and Dimers.
;
_journal_issue                   22
_journal_name_full               'Journal of the American Chemical Society'
_journal_page_first              8050
_journal_paper_doi               10.1021/ja502753t
_journal_volume                  136
_journal_year                    2014
_chemical_formula_moiety         'C12 H6 F2 N6 S8'
_chemical_formula_sum            'C12 H6 F2 N6 S8'
_chemical_formula_weight         528.70
_chemical_name_common            FBPMe
_chemical_name_systematic        ' ?'
_space_group_IT_number           14
_symmetry_cell_setting           monoclinic
_symmetry_space_group_name_Hall  '-P 2ybc'
_symmetry_space_group_name_H-M   'P 1 21/c 1'
_cell_angle_alpha                90.0
_cell_angle_beta                 84.318(5)
_cell_angle_gamma                90.0
_cell_formula_units_Z            2
_cell_length_a                   4.12168(24)
_cell_length_b                   13.2722(11)
_cell_length_c                   14.8586(10)
_cell_measurement_temperature    293(2)
_cell_volume                     808.83(10)
_computing_structure_refinement  GSAS
_diffrn_ambient_temperature      293(2)
_diffrn_radiation_polarisn_ratio 0.95
_diffrn_radiation_probe          x-ray
_diffrn_radiation_type           synchrotron
_diffrn_radiation_wavelength     0.50918
_diffrn_source                   synchrotron
_diffrn_source_type              'Canadian Light Source'
_exptl_absorpt_correction_T_max  1.00000
_exptl_absorpt_correction_T_min  1.00000
_exptl_absorpt_process_details
;   GSAS Absorption/surface roughness correction: function number 0
 No correction is applied.
;
_exptl_crystal_colour            black
_exptl_crystal_density_diffrn    2.171
_pd_calc_method                  'Rietveld Refinement'
_pd_instr_location               ' ?'
_pd_meas_2theta_range_inc        0.01
_pd_meas_2theta_range_max        22.915
_pd_meas_2theta_range_min        0.005
_pd_meas_number_of_points        2292
_pd_phase_name                   'fbpme 2.53 GPa'
_pd_proc_2theta_range_inc        0.01
_pd_proc_2theta_range_max        22.91574
_pd_proc_2theta_range_min        0.00574
_pd_proc_info_datetime           2013-02-14T15:47:52
_pd_proc_info_excluded_regions   ' ?'
_pd_proc_ls_background_function
;   GSAS Background function number 1 with  8 terms.
 Shifted Chebyshev function of 1st kind
      1:    1036.42     2:    281.626     3:   -21.2695     4:    17.4568    
      5:   -14.7153     6:    7.45898     7:    8.25357     8:    2.71104    
;
_pd_proc_ls_peak_cutoff          0.00100
_pd_proc_ls_profile_function
;
 CW Profile function number 2 with  18 terms
 Profile coefficients for Simpson's rule integration of pseudovoigt function
 C.J. Howard (1982). J. Appl. Cryst.,15,615-620.
 P. Thompson, D.E. Cox & J.B. Hastings (1987). J. Appl. Cryst.,20,79-83.
 Peak tails are ignored  where the intensity is below 0.0010 times the peak
   Aniso. broadening axis   0.0   0.0   1.0
;
_pd_proc_ls_prof_R_factor        0.0105
_pd_proc_ls_prof_wR_expected     0.0295
_pd_proc_ls_prof_wR_factor       0.0158
_pd_proc_number_of_points        2292
_pd_spec_mounting                ' ?'
_refine_ls_goodness_of_fit_all   0.54
_refine_ls_matrix_type           full
_refine_ls_number_parameters     1
_refine_ls_number_restraints     0
_refine_ls_R_Fsqd_factor         0.17464
_refine_ls_shift/su_max          0.00
_refine_ls_shift/su_mean         0.00
_reflns_d_resolution_high        1.708
_reflns_d_resolution_low         7.393
_reflns_limit_h_max              2
_reflns_limit_h_min              0
_reflns_limit_k_max              8
_reflns_limit_k_min              0
_reflns_limit_l_max              8
_reflns_limit_l_min              -7
_reflns_number_total             172
_cod_data_source_file            ja502753t_si_004.cif
_cod_data_source_block           FBPMe_2.53GPa
_cod_depositor_comments
;
The following automatic conversions were performed:

'_geom_bond_publ_flag' value 'N' changed to 'n' according to
/usr/data/users/saulius/crontab/automatic-downloads/rss-feeds/ACS/lib/dictionaries/cif_core.dic
dictionary named 'cif_core.dic' version 2.4.2 from 2011-04-26 (24
times).

'_geom_angle_publ_flag' value 'N' changed to 'n' according
to
/usr/data/users/saulius/crontab/automatic-downloads/rss-feeds/ACS/lib/dictionaries/cif_core.dic
dictionary named 'cif_core.dic' version 2.4.2 from 2011-04-26 (29
times).

Automatic conversion script
Id: cif_fix_values 2281 2013-09-26 08:29:07Z andrius 

 Adding full bibliography for 1516253--1516258.cif.
;
_cod_original_cell_volume        808.83(5)
_cod_database_code               1516256
#BEGIN Tags that were not found in dictionaries:
_gsas_exptl_extinct_corr_t_min   1.00000
_gsas_exptl_extinct_corr_t_max   1.00000
#END Tags that were not found in dictionaries
loop_
_symmetry_equiv_pos_site_id
_symmetry_equiv_pos_as_xyz
1 +x,+y,+z
2 -x,+y+1/2,-z+1/2
-1 -x,-y,-z
-2 +x,-y+1/2,+z+1/2
loop_
_atom_site_type_symbol
_atom_site_label
_atom_site_fract_x
_atom_site_fract_y
_atom_site_fract_z
_atom_site_occupancy
_atom_site_thermal_displace_type
_atom_site_U_iso_or_equiv
_atom_site_symmetry_multiplicity
S S1 1.40884 1.003 0.62447 1.0 Uiso 0.0497 4
S S2 1.13122 0.95941 0.74356 1.0 Uiso 0.0497 4
S S3 0.40522 0.53488 0.56616 1.0 Uiso 0.0497 4
S S4 0.30906 0.64189 0.72913 1.0 Uiso 0.0497 4
N N1 1.29792 0.91143 0.55874 1.0 Uiso 0.0497 4
N N2 0.97553 0.76783 0.54958 1.0 Uiso 0.0497 4
N N3 0.66606 0.62593 0.53835 1.0 Uiso 0.0497 4
C C1 1.08341 0.84787 0.59663 1.0 Uiso 0.0497 4
C C2 0.96063 0.8611 0.69013 1.0 Uiso 0.0497 4
C C3 0.72993 0.79709 0.729 1.0 Uiso 0.0497 4
C C4 0.60355 0.71728 0.68251 1.0 Uiso 0.0497 4
C C5 0.74009 0.70009 0.58923 1.0 Uiso 0.0497 4
C C6 1.11095 0.75256 0.45536 1.0 Uiso 0.0497 4
F F1 0.62123 0.81297 0.81677 1.0 Uiso 0.0497 4
H H6A 1.30614 0.79173 0.44349 1.0 Uiso 0.0993 4
H H6B 0.95447 0.77341 0.41526 1.0 Uiso 0.0993 4
H H6C 1.16091 0.68243 0.44556 1.0 Uiso 0.0993 4
loop_
_atom_type_symbol
_atom_type_number_in_cell
_atom_type_scat_dispersion_real
_atom_type_scat_dispersion_imag
_atom_type_scat_Cromer_Mann_a1
_atom_type_scat_Cromer_Mann_a2
_atom_type_scat_Cromer_Mann_a3
_atom_type_scat_Cromer_Mann_a4
_atom_type_scat_Cromer_Mann_b1
_atom_type_scat_Cromer_Mann_b2
_atom_type_scat_Cromer_Mann_b3
_atom_type_scat_Cromer_Mann_b4
_atom_type_scat_Cromer_Mann_c
_atom_type_scat_source
S 16.0 0.000 0.000 6.90530 1.46790 5.20340 22.2151 1.43790 0.25360 1.58630
56.1720 0.86690 International_Tables_Vol_C
N 12.0 0.000 0.000 12.2126 0.00570 3.13220 9.89330 2.01250 28.9975 1.16630
0.58260 -11.529 International_Tables_Vol_C
C 24.0 0.000 0.000 2.31000 20.8439 1.02000 10.2075 1.58860 0.56870 0.86500
51.6512 0.21560 International_Tables_Vol_C
F 4.0 0.000 0.000 3.53920 10.2825 2.64120 4.29440 1.51700 0.26150 1.02430
26.1476 0.27760 International_Tables_Vol_C
H 12.0 0.000 0.000 0.49300 10.5109 0.32291 26.1257 0.14019 3.14236 0.04081
57.7997 0.00304 International_Tables_Vol_C
loop_
_geom_angle_atom_site_label_1
_geom_angle_atom_site_label_2
_geom_angle_atom_site_label_3
_geom_angle
_geom_angle_site_symmetry_1
_geom_angle_site_symmetry_3
_geom_angle_publ_flag
S2 S1 N1 97.843 1_555 1_555 n
S1 S2 C2 91.940 1_555 1_555 n
S3 S3 N3 85.449 -1_666 1_555 n
C5 N2 C1 121.772 1_555 1_555 n
C5 N2 C6 119.446 1_555 1_555 n
C1 N2 C6 118.7811 1_555 1_555 n
S1 N1 C1 115.772 1_555 1_555 n
S3 N3 C5 126.728 1_555 1_555 n
N2 C5 N3 115.664 1_555 1_555 n
N2 C5 C4 118.800 1_555 1_555 n
N3 C5 C4 125.5312 1_555 1_555 n
S4 C4 C5 119.724 1_555 1_555 n
S4 C4 C3 122.816 1_555 1_555 n
C5 C4 C3 117.4585 1_555 1_555 n
C4 C3 C2 122.965 1_555 1_555 n
C4 C3 F1 119.4669 1_555 1_555 n
C2 C3 F1 117.568 1_555 1_555 n
S2 C2 C3 125.472 1_555 1_555 n
S2 C2 C1 114.7200 1_555 1_555 n
C3 C2 C1 119.804 1_555 1_555 n
N2 C1 N1 121.338 1_555 1_555 n
N2 C1 C2 119.0526 1_555 1_555 n
N1 C1 C2 119.604 1_555 1_555 n
N2 C6 H6A 109.452 1_555 1_555 n
N2 C6 H6B 109.642 1_555 1_555 n
N2 C6 H6C 109.4781 1_555 1_555 n
H6A C6 H6B 109.390 1_555 1_555 n
H6A C6 H6C 109.492 1_555 1_555 n
H6B C6 H6C 109.3741 1_555 1_555 n
loop_
_geom_bond_atom_site_label_1
_geom_bond_atom_site_label_2
_geom_bond_distance
_geom_bond_site_symmetry_2
_geom_bond_publ_flag
S1 S2 2.09147 1_555 n
S1 N1 1.65176 1_555 n
S2 C2 1.71396 1_555 n
S3 S3 2.24254 -1_666 n
S3 S4 2.80140 1_555 n
S3 N3 1.64285 1_555 n
S4 C4 1.66968 1_555 n
N2 C5 1.40850 1_555 n
N2 C1 1.36985 1_555 n
N2 C6 1.46895 1_555 n
N1 C1 1.30833 1_555 n
N3 C5 1.29580 1_555 n
C5 C4 1.46127 1_555 n
C4 C3 1.39348 1_555 n
C3 C2 1.36041 1_555 n
C3 F1 1.35286 1_555 n
C2 S2 1.71396 1_555 n
C2 C1 1.44146 1_555 n
C1 N2 1.36985 1_555 n
C1 N1 1.30833 1_555 n
C6 H6A 0.95943 1_555 n
C6 H6B 0.96107 1_555 n
C6 H6C 0.96126 1_555 n
F1 C3 1.35286 1_555 n
loop_
_pd_meas_counts_total
_pd_proc_ls_weight
_pd_proc_intensity_bkg_calc
_pd_calc_intensity_total
547.0 0.0 -292.10352 .
598.0 0.0 -285.71844 .
661.0 0.0 -279.37125 .
685.0 0.0 -273.06201 .
649.0 0.0 -266.79047 .
619.0 0.0 -260.55630 .
619.0 0.0 -254.35921 .
646.0 0.0 -248.19911 .
646.0 0.0 -242.07581 .
635.0 0.0 -235.98889 .
622.0 0.0 -229.93829 .
612.0 0.0 -223.92380 .
582.0 0.0 -217.94492 .
580.0 0.0 -212.00171 .
579.0 0.0 -206.09398 .
568.0 0.0 -200.22124 .
558.0 0.0 -194.38351 .
539.0 0.0 -188.58057 .
541.0 0.0 -182.81192 .
538.0 0.0 -177.07776 .
533.0 0.0 -171.37756 .
527.0 0.0 -165.71112 .
516.0 0.0 -160.07854 .
508.0 0.0 -154.47928 .
507.0 0.0 -148.91319 .
504.0 0.0 -143.38005 .
489.0 0.0 -137.87981 .
483.0 0.0 -132.41216 .
482.0 0.0 -126.97696 .
482.0 0.0 -121.57391 .
480.0 0.0 -116.20268 .
468.0 0.0 -110.86339 .
454.0 0.0 -105.55552 .
452.0 0.0 -100.27931 .
448.0 0.0 -95.03407 .
445.0 0.0 -89.81975 .
441.0 0.0 -84.63637 .
441.0 0.0 -79.48351 .
438.0 0.0 -74.36113 .
430.0 0.0 -69.26884 .
426.0 0.0 -64.20657 .
423.0 0.0 -59.17429 .
413.0 0.0 -54.17153 .
414.0 0.0 -49.19808 .
409.0 0.0 -44.25401 .
404.0 0.0 -39.33889 .
401.0 0.0 -34.45278 .
396.0 0.0 -29.59529 .
393.0 0.0 -24.76634 .
393.0 0.0 -19.96571 .
394.0 0.0 -15.19309 .
392.0 0.0 -10.44864 .
384.0 0.0 -5.73188 .
381.0 0.0 -1.04256 .
379.0 0.0 3.61906 .
378.0 0.0 8.25357 .
374.0 0.0 12.86099 .
369.0 0.0 17.44155 .
368.0 0.0 21.99536 .
364.0 0.0 26.52271 .
363.0 0.0 31.02360 .
363.0 0.0 35.49825 .
360.0 0.0 39.94699 .
359.0 0.0 44.36983 .
356.0 0.0 48.76680 .
352.0 0.0 53.13841 .
350.0 0.0 57.48455 .
348.0 0.0 61.80563 .
347.0 0.0 66.10154 .
348.0 0.0 70.37268 .
347.0 0.0 74.61898 .
344.0 0.0 78.84085 .
340.0 0.0 83.03833 .
335.0 0.0 87.21149 .
331.0 0.0 91.36071 .
333.0 0.0 95.48592 .
334.0 0.0 99.58752 .
332.0 0.0 103.66543 .
330.0 0.0 107.71986 .
326.0 0.0 111.75107 .
323.0 0.0 115.75905 .
319.0 0.0 119.74418 .
317.0 0.0 123.70631 .
315.0 0.0 127.64603 .
313.0 0.0 131.56305 .
313.0 0.0 135.45766 .
312.0 0.0 139.33006 .
312.0 0.0 143.18047 .
309.0 0.0 147.00882 .
308.0 0.0 150.81546 .
307.0 0.0 154.60039 .
305.0 0.0 158.36389 .
298.0 0.0 162.10605 .
295.0 0.0 165.82683 .
297.0 0.0 169.52679 .
298.0 0.0 173.20566 .
298.0 0.0 176.86366 .
299.0 0.0 180.50107 .
301.0 0.0 184.11801 .
298.0 0.0 187.71460 .
293.0 0.0 191.29077 .
291.0 0.0 194.84697 .
292.0 0.0 198.38313 .
290.0 0.0 201.89952 .
286.0 0.0 205.39616 .
287.0 0.0 208.87318 .
285.0 0.0 212.33081 .
281.0 0.0 215.76909 .
280.0 0.0 219.18823 .
280.0 0.0 222.58827 .
280.0 0.0 225.96936 .
280.0 0.0 229.33180 .
279.0 0.0 232.67537 .
278.0 0.0 236.00043 .
277.0 0.0 239.30704 .
275.0 0.0 242.59546 .
273.0 0.0 245.86565 .
272.0 0.0 249.11783 .
271.0 0.0 252.35197 .
271.0 0.0 255.56848 .
271.0 0.0 258.76718 .
270.0 0.0 261.94830 .
269.0 0.0 265.11194 .
268.0 0.0 268.25830 .
267.0 0.0 271.38751 .
266.0 0.0 274.49954 .
265.0 0.0 277.59457 .
265.0 0.0 280.67276 .
264.0 0.0 283.73422 .
262.0 0.0 286.77908 .
260.0 0.0 289.80731 .
257.0 0.0 292.81931 .
255.0 0.0 295.81476 .
256.0 0.0 298.79416 .
256.0 0.0 301.75754 .
254.0 0.0 304.70493 .
253.0 0.0 307.63635 .
254.0 0.0 310.55206 .
255.0 0.0 313.45212 .
255.0 0.0 316.33670 .
255.0 0.0 319.20587 .
254.0 0.0 322.05954 .
253.0 0.0 324.89810 .
252.0 0.0 327.72165 .
250.0 0.0 330.53021 .
249.0 0.0 333.32370 .
251.0 0.0 336.10236 .
251.0 0.0 338.86642 .
249.0 0.0 341.61578 .
249.0 0.0 344.35065 .
249.0 0.0 347.07114 .
248.0 0.0 349.77740 .
245.0 0.0 352.46939 .
244.0 0.0 355.14722 .
243.0 0.0 357.81107 .
239.0 0.0 360.46100 .
238.0 0.0 363.09711 .
238.0 0.0 365.71957 .
239.0 0.0 368.32825 .
239.0 0.0 370.92349 .
239.0 0.0 373.50522 .
238.0 0.0 376.07367 .
238.0 0.0 378.62888 .
238.0 0.0 381.17084 .
239.0 0.0 383.69974 .
240.0 0.0 386.21561 .
239.0 0.0 388.71860 .
238.0 0.0 391.20883 .
238.0 0.0 393.68628 .
236.0 0.0 396.15106 .
234.0 0.0 398.60345 .
236.0 0.0 401.04327 .
236.0 0.0 403.47061 .
233.0 0.0 405.88580 .
231.0 0.0 408.28876 .
233.0 0.0 410.67966 .
235.0 0.0 413.05850 .
234.0 0.0 415.42532 .
233.0 0.0 417.78024 .
232.0 0.0 420.12347 .
232.0 0.0 422.45490 .
233.0 0.0 424.77475 .
234.0 0.0 427.08304 .
235.0 0.0 429.37991 .
233.0 0.0 431.66537 .
232.0 0.0 433.93945 .
233.0 0.0 436.20236 .
234.0 0.0 438.45422 .
234.0 0.0 440.69479 .
232.0 0.0 442.92447 .
232.0 0.0 445.14319 .
233.0 0.0 447.35104 .
232.0 0.0 449.54819 .
233.0 0.0 451.73459 .
233.0 0.0 453.91037 .
234.0 0.0 456.07565 .
233.0 0.0 458.23038 .
232.0 0.0 460.37476 .
232.0 0.0 462.50867 .
233.0 0.0 464.63248 .
233.0 0.0 466.74597 .
233.0 0.0 468.84940 .
234.0 0.0 470.94275 .
236.0 0.0 473.02615 .
237.0 0.0 475.09955 .
236.0 0.0 477.16321 .
238.0 0.0 479.21698 .
240.0 0.0 481.26114 .
242.0 0.0 483.29562 .
242.0 0.0 485.32043 .
241.0 0.0 487.33578 .
241.0 0.0 489.34171 .
242.0 0.0 491.33820 .
243.0 0.0 493.32541 .
245.0 0.0 495.30328 .
246.0 0.0 497.27206 .
246.0 0.0 499.23172 .
247.0 0.0 501.18231 .
250.0 0.0 503.12375 .
251.0 0.0 505.05643 .
252.0 0.0 506.98010 .
254.0 0.0 508.89502 .
257.0 0.0 510.80112 .
263.0 0.0 512.69855 .
272.0 0.0 514.58740 .
279.0 0.0 516.46765 .
285.0 0.0 518.33923 .
291.0 0.0 520.20245 .
299.0 0.0 522.05731 .
308.0 0.0 523.90369 .
318.0 0.0 525.74182 .
326.0 0.0 527.57178 .
333.0 0.0 529.39349 .
340.0 0.0 531.20703 .
351.0 0.0 533.01251 .
361.0 0.0 534.81000 .
369.0 0.0 536.59955 .
373.0 0.0 538.38110 .
382.0 0.0 540.15485 .
394.0 0.0 541.92084 .
403.0 0.0 543.67902 .
412.0 0.0 545.42957 .
419.0 0.0 547.17236 .
425.0 0.0 548.90753 .
428.0 0.0 550.63519 .
434.0 0.0 552.35535 .
443.0 0.0 554.06812 .
452.0 0.0 555.77344 .
459.0 0.0 557.47150 .
467.0 0.0 559.16217 .
474.0 0.0 560.84564 .
477.0 0.0 562.52191 .
480.0 0.0 564.19110 .
482.0 0.0 565.85309 .
485.0 0.0 567.50800 .
489.0 0.0 569.15588 .
496.0 0.0 570.79688 .
501.0 0.0 572.43091 .
505.0 0.0 574.05798 .
508.0 0.0 575.67834 .
508.0 0.0 577.29193 .
510.0 0.0 578.89868 .
516.0 0.0 580.49878 .
519.0 0.0 582.09222 .
522.0 0.0 583.67914 .
526.0 0.0 585.25946 .
529.0 0.0 586.83319 .
531.0 0.0 588.40051 .
534.0 0.0 589.96143 .
535.0 0.0 591.51581 .
542.0 0.0 593.06384 .
547.0 0.0 594.60565 .
548.0 0.0 596.14117 .
549.0 0.0 597.67047 .
553.0 0.0 599.19360 .
554.0 0.0 600.71051 .
558.0 0.0 602.22137 .
565.0 0.0 603.72607 .
567.0 0.0 605.22479 .
569.0 0.0 606.71759 .
573.0 0.0 608.20422 .
573.0 0.0 609.68512 .
571.0 0.0 611.16010 .
574.0 0.0 612.62921 .
578.0 0.0 614.09259 .
580.0 0.0 615.55005 .
583.0 0.0 617.00183 .
588.0 0.0 618.44788 .
595.0 0.0 619.88837 .
601.0 0.0 621.32330 .
605.0 0.0 622.75238 .
611.0 0.0 624.17609 .
617.0 0.0 625.59418 .
623.0 0.0 627.00684 .
625.0 0.0 628.41400 .
628.0 0.0 629.81586 .
628.0 0.0 631.21216 .
626.0 0.0 632.60315 .
623.0 0.0 633.98889 .
621.0 0.0 635.36932 .
622.0 0.0 636.74451 .
623.0 0.0 638.11438 .
625.0 0.0 639.47919 .
628.0 0.0 640.83868 .
630.0 0.0 642.19318 .
630.0 0.0 643.54260 .
627.0 0.0 644.88672 .
629.0 0.0 646.22601 .
634.0 0.0 647.56030 .
638.0 0.0 648.88940 .
638.0 0.0 650.21375 .
638.0 0.0 651.53314 .
640.0 0.0 652.84760 .
644.0 0.0 654.15729 .
647.0 0.0 655.46191 .
648.0 0.0 656.76190 .
647.0 0.0 658.05719 .
649.0 0.0 659.34766 .
650.0 0.0 660.63330 .
653.0 0.0 661.91443 .
653.0 0.0 663.19073 .
654.0 0.0 664.46252 .
655.0 0.0 665.72955 .
659.0 0.0 666.99213 .
662.0 0.0 668.25006 .
663.0 0.0 669.50354 .
665.0 0.0 670.75250 .
666.0 0.0 671.99683 .
667.0 0.0 673.23682 .
668.0 0.0 674.47235 .
667.0 0.0 675.70349 .
664.0 0.0 676.93024 .
666.0 0.0 678.15253 .
670.0 0.0 679.37061 .
676.0 0.0 680.58435 .
677.0 0.0 681.79382 .
676.0 0.0 682.99902 .
680.0 0.0 684.19983 .
681.0 0.0 685.39655 .
682.0 0.0 686.58911 .
684.0 0.0 687.77747 .
685.0 0.0 688.96149 .
686.0 0.0 690.14166 .
690.0 0.0 691.31763 .
691.0 0.0 692.48944 .
693.0 0.0 693.65723 .
695.0 0.0 694.82092 .
697.0 0.0 695.98071 .
699.0 0.0 697.13641 .
697.0 0.0 698.28815 .
698.0 0.001433 699.43597 699.49115
702.0 0.001425 700.57983 700.63751
705.0 0.001418 701.71973 701.78015
702.0 0.001425 702.85583 702.91919
699.0 0.001431 703.98792 704.05438
701.0 0.001427 705.11621 705.18610
705.0 0.001418 706.24072 706.31421
708.0 0.001412 707.36133 707.43878
706.0 0.001416 708.47821 708.55994
707.0 0.001414 709.59131 709.67761
706.0 0.001416 710.70050 710.79187
708.0 0.001412 711.80603 711.90283
713.0 0.001403 712.90790 713.01068
714.0 0.001401 714.00604 714.11536
715.0 0.001399 715.10040 715.21692
718.0 0.001393 716.19116 716.31561
720.0 0.001389 717.27826 717.41144
717.0 0.001395 718.36169 718.50458
716.0 0.001397 719.44159 719.59528
719.0 0.001391 720.51782 720.71155
720.0 0.001389 721.59045 721.79846
718.0 0.001393 722.65948 722.88361
719.0 0.001391 723.72498 723.96722
723.0 0.001383 724.78711 725.04999
727.0 0.001376 725.84552 726.13184
729.0 0.001372 726.90051 727.21381
731.0 0.001368 727.95203 728.29645
734.0 0.001362 729.00018 729.38086
736.0 0.001359 730.04468 730.46796
737.0 0.001357 731.08582 731.55957
739.0 0.001353 732.12354 732.65771
739.0 0.001353 733.15778 733.76532
739.0 0.001353 734.18872 734.88715
738.0 0.001355 735.21619 736.03192
739.0 0.001353 736.24042 737.22119
741.0 0.001350 737.26129 738.51056
743.0 0.001346 738.27875 740.04047
746.0 0.001340 739.29291 742.12152
753.0 0.001328 740.30383 745.32715
766.0 0.001305 741.31140 750.49396
789.0 0.001267 742.31573 758.47632
827.0 0.001209 743.31671 769.58447
871.0 0.001148 744.31451 782.89880
908.0 0.001101 745.30914 795.88403
924.0 0.001082 746.30054 804.79059
910.0 0.001099 747.28870 806.47070
879.0 0.001138 748.27368 800.79993
842.0 0.001188 749.25537 790.53735
812.0 0.001232 750.23401 779.24823
786.0 0.001272 751.20941 769.66962
773.0 0.001294 752.18176 763.02039
766.0 0.001305 753.15100 759.22552
763.0 0.001311 754.11707 757.55225
762.0 0.001312 755.08002 757.17938
760.0 0.001316 756.03992 757.49005
761.0 0.001314 756.99664 758.11951
761.0 0.001314 757.95044 758.88782
760.0 0.001316 758.90106 759.71704
761.0 0.001314 759.84875 760.57666
763.0 0.001311 760.79340 761.45392
763.0 0.001311 761.73492 762.34308
763.0 0.001311 762.67358 763.26990
766.0 0.001305 763.60913 764.17468
769.0 0.001300 764.54169 765.08435
770.0 0.001299 765.47131 765.99811
770.0 0.001299 766.39807 766.91516
770.0 0.001299 767.32178 767.83502
771.0 0.001297 768.24255 768.75745
774.0 0.001292 769.16034 769.68237
778.0 0.001285 770.07532 770.61029
780.0 0.001282 770.98749 771.54144
780.0 0.001282 771.89648 772.47620
781.0 0.001280 772.80280 773.41595
783.0 0.001277 773.70612 774.36169
782.0 0.001279 774.60657 775.31537
784.0 0.001276 775.50421 776.27960
790.0 0.001266 776.39899 778.44830
792.0 0.001263 777.29095 779.54468
789.0 0.001267 778.18018 780.68677
790.0 0.001266 779.06641 781.90991
788.0 0.001269 779.94995 783.26819
787.0 0.001271 780.83075 784.89911
789.0 0.001267 781.70862 787.04248
793.0 0.001261 782.58380 790.06708
794.0 0.001259 783.45599 794.42078
798.0 0.001253 784.32574 800.46802
803.0 0.001245 785.19257 808.22021
810.0 0.001235 786.05664 817.05414
814.0 0.001229 786.91815 825.53406
820.0 0.001220 787.77692 831.56482
821.0 0.001218 788.63269 833.43652
820.0 0.001220 789.48596 831.34998
819.0 0.001221 790.33661 827.58960
827.0 0.001209 791.18445 826.11542
848.0 0.001179 792.02960 833.62128
886.0 0.001129 792.87207 862.24072
959.0 0.001043 793.71198 931.70874
1089.0 0.000918 794.54919 1065.95471
1312.0 0.000762 795.38373 1279.27417
1629.0 0.000614 796.21558 1555.34143
1938.0 0.000516 797.04492 1833.71399
2109.0 0.000474 797.87158 2022.96362
2069.0 0.000483 798.69562 2046.47351
1877.0 0.000533 799.51697 1896.22034
1628.0 0.000614 800.33582 1636.35071
1390.0 0.000719 801.15216 1356.94360
1196.0 0.000836 801.96564 1126.52173
1062.0 0.000942 802.77686 971.40259
973.0 0.001028 803.58539 883.72144
918.0 0.001089 804.39124 841.35443
881.0 0.001135 805.19470 823.54901
857.0 0.001167 805.99554 816.88190
842.0 0.001188 806.79388 814.58081
832.0 0.001202 807.58972 813.84033
828.0 0.001208 808.38293 813.66809
824.0 0.001214 809.17377 813.74701
819.0 0.001221 809.96198 813.97174
816.0 0.001225 810.74768 814.29913
819.0 0.001221 811.53094 814.70490
820.0 0.001220 812.31171 815.17255
819.0 0.001221 813.08997 815.69067
821.0 0.001218 813.86572 816.25232
821.0 0.001218 814.63904 816.85730
820.0 0.001220 815.40991 817.51880
821.0 0.001218 816.17841 818.27679
822.0 0.001217 816.94427 819.21539
824.0 0.001214 817.70782 820.47113
824.0 0.001214 818.46887 822.20129
824.0 0.001214 819.22748 824.49384
825.0 0.001212 819.98383 827.24091
827.0 0.001209 820.73755 830.04877
831.0 0.001203 821.48901 832.28204
833.0 0.001200 822.23804 833.33063
832.0 0.001202 822.98462 833.04828
830.0 0.001205 823.72888 831.85681
830.0 0.001205 824.47076 830.40302
831.0 0.001203 825.21008 829.21338
831.0 0.001203 825.94727 828.54047
829.0 0.001206 826.68188 828.38696
831.0 0.001203 827.41431 828.62213
837.0 0.001195 828.14435 829.09351
837.0 0.001195 828.87195 829.68610
833.0 0.001200 829.59729 830.33325
835.0 0.001198 830.32019 831.00305
836.0 0.001196 831.04083 831.68201
833.0 0.001200 831.75922 832.36523
833.0 0.001200 832.47528 833.05035
834.0 0.001199 833.18890 833.73657
836.0 0.001196 833.90021 834.42316
834.0 0.001199 834.60931 835.10980
833.0 0.001200 835.31610 835.79614
836.0 0.001196 836.02063 836.48193
840.0 0.001190 836.72284 837.16699
841.0 0.001189 837.42273 837.85095
843.0 0.001186 838.12030 838.53375
843.0 0.001186 838.81561 839.21545
840.0 0.001190 839.50885 839.89594
837.0 0.001195 840.19965 840.57483
838.0 0.001193 840.88831 841.25232
840.0 0.001190 841.57465 841.92822
843.0 0.001186 842.25867 842.57446
844.0 0.001185 842.94061 843.24805
844.0 0.001185 843.62024 843.91968
841.0 0.001189 844.29767 844.58978
839.0 0.001192 844.97290 845.25800
843.0 0.001186 845.64594 845.92450
847.0 0.001181 846.31671 846.58917
847.0 0.001181 846.98529 847.25189
847.0 0.001181 847.65161 847.91272
849.0 0.001178 848.31573 848.57166
849.0 0.001178 848.97784 849.22882
848.0 0.001179 849.63757 849.88391
851.0 0.001175 850.29523 850.53717
854.0 0.001171 850.95068 851.18854
855.0 0.001170 851.60388 851.83783
856.0 0.001168 852.25507 852.48529
858.0 0.001166 852.90399 853.13074
855.0 0.001170 853.55084 853.77429
856.0 0.001168 854.19543 854.41577
859.0 0.001164 854.83795 855.05536
862.0 0.001160 855.47839 855.69305
860.0 0.001163 856.11664 856.32861
857.0 0.001167 856.75262 856.96216
857.0 0.001167 857.38672 857.59393
859.0 0.001164 858.01855 858.22363
860.0 0.001163 858.64838 858.85132
861.0 0.001161 859.27606 859.47711
865.0 0.001156 859.90155 860.10083
864.0 0.001157 860.52502 860.72260
863.0 0.001159 861.14642 861.34235
867.0 0.001153 861.76569 861.96014
868.0 0.001152 862.38275 862.57587
865.0 0.001156 862.99786 863.18970
864.0 0.001157 863.61096 863.80164
864.0 0.001157 864.22186 864.41144
863.0 0.001159 864.83069 865.01929
863.0 0.001159 865.43762 865.62537
864.0 0.001157 866.04236 866.22925
864.0 0.001157 866.64508 866.83124
865.0 0.001156 867.24579 867.43164
869.0 0.001151 867.84442 868.23682
872.0 0.001147 868.44098 868.83466
872.0 0.001147 869.03564 869.43079
871.0 0.001148 869.62811 870.02466
870.0 0.001149 870.21863 870.61688
872.0 0.001147 870.80713 871.20715
872.0 0.001147 871.39368 871.80652
871.0 0.001148 871.97803 872.39288
872.0 0.001147 872.56055 872.97760
874.0 0.001144 873.14105 873.56030
874.0 0.001144 873.71954 874.14117
873.0 0.001145 874.29608 874.72009
873.0 0.001145 874.87054 875.29712
873.0 0.001145 875.44312 875.87238
875.0 0.001143 876.01373 876.44562
880.0 0.001136 876.58228 877.01697
881.0 0.001135 877.14893 877.58655
878.0 0.001139 877.71356 878.15417
877.0 0.001140 878.27637 878.72009
879.0 0.001138 878.83716 879.28412
879.0 0.001138 879.39594 879.84619
879.0 0.001138 879.95282 880.40637
877.0 0.001140 880.50781 880.96490
879.0 0.001138 881.06079 881.52155
881.0 0.001135 881.61188 882.07629
884.0 0.001131 882.16101 882.62921
884.0 0.001131 882.70831 883.18054
885.0 0.001130 883.25372 883.72986
884.0 0.001131 883.79712 884.27759
881.0 0.001135 884.33868 884.82343
881.0 0.001135 884.87836 885.36737
882.0 0.001134 885.41614 885.90967
883.0 0.001133 885.95209 886.45020
883.0 0.001133 886.48596 886.98889
886.0 0.001129 887.01813 887.52606
889.0 0.001125 887.54840 888.06158
891.0 0.001122 888.07672 888.59558
891.0 0.001122 888.60327 889.12817
891.0 0.001122 889.12799 889.65930
891.0 0.001122 889.65070 890.18854
889.0 0.001125 890.17181 890.71606
888.0 0.001126 890.69080 891.24084
889.0 0.001125 891.20819 891.76361
893.0 0.001120 891.72363 892.54297
897.0 0.001115 892.23724 893.06970
896.0 0.001116 892.74902 893.59552
894.0 0.001119 893.25909 894.12067
894.0 0.001119 893.76715 894.64490
894.0 0.001119 894.27362 895.16876
894.0 0.001119 894.77814 895.69189
893.0 0.001120 895.28094 896.21442
893.0 0.001120 895.78192 896.73645
895.0 0.001117 896.28119 897.25824
895.0 0.001117 896.77856 897.77972
894.0 0.001119 897.27423 898.30133
892.0 0.001121 897.76807 898.82330
893.0 0.001120 898.26025 899.34601
896.0 0.001116 898.75055 899.86969
897.0 0.001115 899.23907 900.39459
897.0 0.001115 899.72601 900.92181
896.0 0.001116 900.21118 901.45166
897.0 0.001115 900.69452 901.98474
897.0 0.001115 901.17615 902.52246
899.0 0.001112 901.65601 903.06592
901.0 0.001110 902.13428 903.61682
900.0 0.001111 902.61078 904.17725
900.0 0.001111 903.08539 904.74969
901.0 0.001110 903.55841 905.33844
900.0 0.001111 904.02979 905.94861
900.0 0.001111 904.49945 906.58917
901.0 0.001110 904.96741 907.27905
906.0 0.001104 905.43353 908.07043
909.0 0.001100 905.89825 909.11420
912.0 0.001096 906.36108 910.81183
915.0 0.001093 906.82239 914.08527
921.0 0.001086 907.28192 920.67023
936.0 0.001068 907.73993 933.09821
960.0 0.001042 908.19617 953.84540
992.0 0.001008 908.65082 983.45483
1032.0 0.000969 909.10370 1018.41168
1074.0 0.000931 909.55505 1050.42664
1100.0 0.000909 910.00482 1068.64783
1103.0 0.000907 910.45288 1065.56641
1085.0 0.000922 910.89929 1042.89673
1052.0 0.000951 911.34418 1009.92993
1016.0 0.000984 911.78735 977.06921
984.0 0.001016 912.22906 951.07397
960.0 0.001042 912.66913 934.02905
945.0 0.001058 913.10754 924.58020
934.0 0.001071 913.54443 920.12537
929.0 0.001076 913.97974 918.36725
925.0 0.001081 914.41339 917.84906
921.0 0.001086 914.84552 917.83691
918.0 0.001089 915.27612 918.02441
916.0 0.001092 915.70520 918.29303
916.0 0.001092 916.13257 918.60529
917.0 0.001091 916.55853 918.94604
917.0 0.001091 916.98291 919.30737
916.0 0.001092 917.40582 919.68488
917.0 0.001091 917.82709 920.07489
917.0 0.001091 918.24695 920.47540
916.0 0.001092 918.66516 920.88403
917.0 0.001091 919.08197 921.32513
916.0 0.001092 919.49719 921.74683
917.0 0.001091 919.91101 922.17395
918.0 0.001089 920.32324 922.60529
919.0 0.001088 920.73413 923.04083
916.0 0.001092 921.14343 923.48010
915.0 0.001093 921.55133 923.92273
916.0 0.001092 921.95752 924.36865
917.0 0.001091 922.36255 924.81812
918.0 0.001089 922.76599 925.27075
921.0 0.001086 923.16803 925.72687
922.0 0.001085 923.56860 926.18634
921.0 0.001086 923.96783 926.65002
920.0 0.001087 924.36548 927.11743
919.0 0.001088 924.76178 927.58936
918.0 0.001089 925.15662 928.06598
916.0 0.001092 925.55017 928.54858
918.0 0.001089 925.94214 929.03705
922.0 0.001085 926.33270 929.53253
923.0 0.001083 926.72211 930.03632
923.0 0.001083 927.10999 930.54944
926.0 0.001080 927.49640 931.07336
929.0 0.001076 927.88153 931.61084
928.0 0.001078 928.26520 932.16431
928.0 0.001078 928.64771 932.73907
929.0 0.001076 929.02869 933.34406
931.0 0.001074 929.40839 934.00122
930.0 0.001075 929.78680 934.76288
936.0 0.001068 930.16382 935.74390
941.0 0.001063 930.53949 937.16608
945.0 0.001058 930.91388 939.38385
948.0 0.001055 931.28687 942.83356
954.0 0.001048 931.65857 947.85114
960.0 0.001042 932.02911 954.37451
961.0 0.001041 932.39832 961.65912
966.0 0.001035 932.76605 968.19080
969.0 0.001032 933.13269 972.01288
968.0 0.001033 933.49792 971.81116
967.0 0.001034 933.86212 968.04474
968.0 0.001033 934.22473 962.49170
968.0 0.001033 934.58636 956.98511
967.0 0.001034 934.94659 952.71143
967.0 0.001034 935.30566 950.09741
967.0 0.001034 935.66333 949.00555
967.0 0.001034 936.02002 949.04602
970.0 0.001031 936.37531 949.82599
973.0 0.001028 936.72955 951.17914
975.0 0.001026 937.08246 952.74603
976.0 0.001025 937.43420 954.55511
979.0 0.001021 937.78473 956.59100
983.0 0.001017 938.13409 958.84814
982.0 0.001018 938.48218 961.31952
979.0 0.001021 938.82935 963.98688
981.0 0.001019 939.17511 967.78436
985.0 0.001015 939.51984 970.70624
991.0 0.001009 939.86334 973.60199
996.0 0.001004 940.20575 976.31891
1001.0 0.000999 940.54700 978.67023
1002.0 0.000998 940.88715 980.46423
1000.0 0.001000 941.22607 981.54260
996.0 0.001004 941.56409 981.82587
988.0 0.001012 941.90088 981.33588
982.0 0.001018 942.23645 980.18958
977.0 0.001024 942.57111 978.59406
973.0 0.001028 942.90460 976.68561
969.0 0.001032 943.23706 974.66656
964.0 0.001037 943.56848 972.67273
961.0 0.001041 943.89862 970.79669
959.0 0.001043 944.22791 969.09546
956.0 0.001046 944.55603 967.59747
956.0 0.001046 944.88324 966.31213
958.0 0.001044 945.20929 965.23712
958.0 0.001044 945.53448 964.36285
956.0 0.001046 945.85846 963.67578
953.0 0.001049 946.18146 963.16217
953.0 0.001049 946.50348 962.80908
955.0 0.001047 946.82465 962.61047
957.0 0.001045 947.14471 962.57501
958.0 0.001044 947.46375 962.74103
962.0 0.001040 947.78186 963.19299
965.0 0.001036 948.09888 964.05841
967.0 0.001034 948.41510 965.46155
974.0 0.001027 948.73035 967.42413
982.0 0.001018 949.04468 969.75354
987.0 0.001013 949.35803 972.02087
987.0 0.001013 949.67041 973.65686
986.0 0.001014 949.98187 974.21606
984.0 0.001016 950.29242 973.82544
982.0 0.001018 950.60211 972.99280
980.0 0.001020 950.91083 972.28613
980.0 0.001020 951.21869 972.08600
980.0 0.001020 951.52570 972.51892
979.0 0.001021 951.83173 973.52533
976.0 0.001025 952.13708 974.97351
973.0 0.001028 952.44141 976.73944
974.0 0.001027 952.74500 978.73132
975.0 0.001026 953.04767 980.87213
973.0 0.001028 953.34949 983.07312
973.0 0.001028 953.65057 985.21771
975.0 0.001026 953.95062 987.17023
973.0 0.001028 954.25000 988.82111
972.0 0.001029 954.54858 990.13885
972.0 0.001029 954.84631 991.19513
972.0 0.001029 955.14331 992.13953
974.0 0.001027 955.43964 993.14679
979.0 0.001021 955.73492 994.37903
984.0 0.001016 956.02972 995.97955
984.0 0.001016 956.32343 998.09619
991.0 0.001009 956.61664 1000.93982
999.0 0.001001 956.90912 1004.86438
1007.0 0.000993 957.20062 1010.41730
1012.0 0.000988 957.49164 1018.45435
1024.0 0.000977 957.78192 1029.74951
1039.0 0.000962 958.07135 1044.65173
1057.0 0.000946 958.36011 1062.51904
1072.0 0.000933 958.64832 1081.42468
1089.0 0.000918 958.93561 1098.55786
1108.0 0.000903 959.22235 1111.50842
1120.0 0.000893 959.50836 1120.33447
1131.0 0.000884 959.79376 1127.53699
1143.0 0.000875 960.07855 1136.15564
1158.0 0.000864 960.36267 1148.22656
1169.0 0.000855 960.64606 1164.21545
1183.0 0.000845 960.92889 1183.11926
1199.0 0.000834 961.21100 1202.93909
1214.0 0.000824 961.49274 1221.28479
1224.0 0.000817 961.77356 1236.01282
1243.0 0.000805 962.05408 1245.85046
1253.0 0.000798 962.33380 1250.81140
1253.0 0.000798 962.61292 1254.11316
1246.0 0.000803 962.89160 1253.86792
1251.0 0.000799 963.16968 1253.99548
1263.0 0.000792 963.44714 1255.84131
1282.0 0.000780 963.72400 1259.57642
1310.0 0.000763 964.00037 1263.84473
1333.0 0.000750 964.27625 1265.82703
1333.0 0.000750 964.55164 1262.07556
1307.0 0.000765 964.82635 1250.02490
1262.0 0.000792 965.10071 1229.43237
1208.0 0.000828 965.37451 1202.69946
1162.0 0.000861 965.64783 1173.52417
1124.0 0.000890 965.92059 1145.18066
1093.0 0.000915 966.19293 1119.73877
1067.0 0.000937 966.46478 1098.07581
1049.0 0.000953 966.73627 1080.23267
1038.0 0.000963 967.00708 1065.81677
1030.0 0.000971 967.27765 1054.30249
1025.0 0.000976 967.54773 1045.18335
1023.0 0.000978 967.81738 1038.02148
1020.0 0.000980 968.08661 1032.44958
1019.0 0.000981 968.35529 1028.16174
1017.0 0.000983 968.62372 1024.90637
1018.0 0.000982 968.89178 1022.47864
1021.0 0.000979 969.15948 1020.71436
1021.0 0.000979 969.42657 1019.47827
1020.0 0.000980 969.69342 1018.65607
1020.0 0.000980 969.95990 1018.14960
1023.0 0.000978 970.22607 1017.96460
1022.0 0.000978 970.49176 1017.90448
1019.0 0.000981 970.75726 1018.07104
1019.0 0.000981 971.02240 1018.54932
1017.0 0.000983 971.28717 1019.48572
1014.0 0.000986 971.55176 1021.07007
1013.0 0.000987 971.81586 1023.47961
1015.0 0.000985 972.07965 1026.77393
1019.0 0.000981 972.34326 1030.77649
1021.0 0.000979 972.60657 1035.02979
1025.0 0.000976 972.86963 1038.90955
1027.0 0.000974 973.13239 1041.96301
1033.0 0.000968 973.39490 1044.31360
1037.0 0.000964 973.65717 1046.63025
1040.0 0.000962 973.91907 1049.72839
1046.0 0.000956 974.18091 1054.29883
1055.0 0.000948 974.44244 1060.84558
1067.0 0.000937 974.70386 1069.78467
1082.0 0.000924 974.96484 1081.60059
1103.0 0.000907 975.22589 1096.98352
1126.0 0.000888 975.48651 1116.90649
1155.0 0.000866 975.74719 1142.66882
1192.0 0.000839 976.00745 1175.92822
1238.0 0.000808 976.26764 1218.68127
1289.0 0.000776 976.52765 1273.39941
1349.0 0.000741 976.78760 1341.81543
1425.0 0.000702 977.04730 1425.61365
1512.0 0.000661 977.30701 1525.49536
1614.0 0.000620 977.56641 1642.24377
1737.0 0.000576 977.82581 1777.25427
1896.0 0.000527 978.08502 1930.21973
2083.0 0.000480 978.34424 2094.14038
2256.0 0.000443 978.60321 2250.15503
2376.0 0.000421 978.86218 2366.16235
2396.0 0.000417 979.12109 2406.55908
2322.0 0.000431 979.37988 2354.30396
2196.0 0.000455 979.63861 2224.30005
2034.0 0.000492 979.89740 2051.19189
1867.0 0.000536 980.15594 1868.07727
1706.0 0.000586 980.41449 1696.67310
1555.0 0.000643 980.67303 1548.13330
1442.0 0.000693 980.93164 1426.48901
1347.0 0.000742 981.19019 1331.30737
1271.0 0.000787 981.44867 1259.50830
1215.0 0.000823 981.70715 1206.76746
1173.0 0.000853 981.96576 1168.58887
1136.0 0.000880 982.22424 1140.99548
1111.0 0.000900 982.48285 1120.84485
1090.0 0.000917 982.74146 1105.85547
1075.0 0.000930 983.00012 1094.47253
1064.0 0.000940 983.25879 1085.67981
1056.0 0.000947 983.51758 1078.82629
1053.0 0.000950 983.77631 1073.49402
1049.0 0.000953 984.03528 1069.41016
1042.0 0.000960 984.29425 1066.39185
1040.0 0.000962 984.55322 1064.31360
1040.0 0.000962 984.81238 1063.08496
1041.0 0.000961 985.07166 1062.66345
1044.0 0.000958 985.33093 1062.93726
1049.0 0.000953 985.59052 1063.89929
1055.0 0.000948 985.85010 1065.57166
1061.0 0.000943 986.10974 1068.10571
1070.0 0.000935 986.36963 1071.93701
1083.0 0.000923 986.62964 1077.64246
1096.0 0.000912 986.88977 1086.39246
1109.0 0.000902 987.15021 1099.57043
1125.0 0.000889 987.41071 1118.45923
1145.0 0.000873 987.67133 1143.50818
1169.0 0.000855 987.93219 1173.56470
1198.0 0.000835 988.19324 1205.81165
1235.0 0.000810 988.45453 1237.00806
1275.0 0.000784 988.71606 1267.19788
1320.0 0.000758 988.97766 1302.43689
1379.0 0.000725 989.23962 1354.93835
1451.0 0.000689 989.50177 1434.35547
1539.0 0.000650 989.76416 1541.43225
1639.0 0.000610 990.02673 1666.30029
1754.0 0.000570 990.28961 1793.83337
1892.0 0.000529 990.55273 1912.03149
2054.0 0.000487 990.81616 2031.66443
2234.0 0.000448 991.07996 2178.34521
2439.0 0.000410 991.34375 2374.50000
2664.0 0.000375 991.60809 2623.59058
2876.0 0.0003477 991.87268 2900.52173
3058.0 0.0003270 992.13751 3147.87793
3166.0 0.0003159 992.40271 3287.62866
3167.0 0.0003158 992.66815 3261.25293
3034.0 0.0003296 992.93396 3072.99634
2803.0 0.000357 993.20013 2782.74756
2518.0 0.000397 993.46667 2460.35205
2224.0 0.000450 993.73352 2155.70972
1964.0 0.000509 994.00073 1895.38538
1756.0 0.000569 994.26831 1688.50146
1597.0 0.000626 994.53619 1532.68335
1478.0 0.000677 994.80444 1419.12048
1381.0 0.000724 995.07312 1336.79199
1300.0 0.000769 995.34222 1275.83887
1235.0 0.000810 995.61169 1229.29675
1185.0 0.000844 995.88153 1192.81543
1152.0 0.000868 996.15192 1163.80261
1128.0 0.000887 996.42255 1140.65808
1109.0 0.000902 996.69373 1122.18811
1093.0 0.000915 996.96515 1107.36145
1081.0 0.000925 997.23712 1095.28528
1070.0 0.000935 997.50964 1085.31934
1060.0 0.000943 997.78253 1077.06909
1051.0 0.000951 998.05591 1070.10449
1044.0 0.000958 998.32965 1064.24243
1039.0 0.000962 998.60388 1059.29004
1035.0 0.000966 998.87872 1055.08472
1031.0 0.000970 999.15399 1051.49231
1027.0 0.000974 999.42963 1048.42126
1026.0 0.000975 999.70593 1045.75159
1025.0 0.000976 999.98260 1043.43152
1025.0 0.000976 1000.25995 1041.40918
1023.0 0.000978 1000.53778 1039.64380
1024.0 0.000977 1000.81586 1038.10181
1024.0 0.000977 1001.09473 1036.75806
1024.0 0.000977 1001.37396 1035.58997
1022.0 0.000978 1001.65387 1034.58044
1022.0 0.000978 1001.93439 1033.71484
1019.0 0.000981 1002.21539 1032.98108
1018.0 0.000982 1002.49689 1032.36865
1019.0 0.000981 1002.77899 1031.86963
1020.0 0.000980 1003.06158 1031.47766
1022.0 0.000978 1003.34497 1031.18799
1024.0 0.000977 1003.62872 1030.99634
1024.0 0.000977 1003.91321 1030.90161
1024.0 0.000977 1004.19824 1030.90222
1024.0 0.000977 1004.48383 1030.99988
1026.0 0.000975 1004.77014 1031.19763
1030.0 0.000971 1005.05701 1031.50122
1033.0 0.000968 1005.34442 1031.92102
1037.0 0.000964 1005.63245 1032.47559
1038.0 0.000963 1005.92126 1033.19568
1041.0 0.000961 1006.21057 1034.13135
1043.0 0.000959 1006.50061 1035.36072
1043.0 0.000959 1006.79126 1036.99634
1046.0 0.000956 1007.08252 1039.18018
1048.0 0.000954 1007.37445 1042.06799
1049.0 0.000953 1007.66705 1045.79407
1053.0 0.000950 1007.96039 1050.77734
1060.0 0.000943 1008.25427 1056.23474
1067.0 0.000937 1008.54889 1062.22693
1074.0 0.000931 1008.84436 1068.17273
1079.0 0.000927 1009.14044 1073.20337
1081.0 0.000925 1009.43701 1076.53174
1076.0 0.000929 1009.73450 1078.11707
1074.0 0.000931 1010.03271 1078.86633
1076.0 0.000929 1010.33154 1080.13062
1079.0 0.000927 1010.63110 1083.23413
1085.0 0.000922 1010.93134 1089.46960
1093.0 0.000915 1011.23236 1100.25793
1109.0 0.000902 1011.53424 1117.40112
1134.0 0.000882 1011.83655 1143.31250
1166.0 0.000858 1012.13977 1181.11548
1211.0 0.000826 1012.44373 1234.54382
1277.0 0.000783 1012.74841 1307.42566
1373.0 0.000728 1013.05396 1402.37463
1491.0 0.000671 1013.36017 1519.21558
1635.0 0.000612 1013.66718 1653.48975
1791.0 0.000558 1013.97491 1796.32727
1943.0 0.000515 1014.28339 1940.57422
2094.0 0.000478 1014.59277 2089.63647
2268.0 0.000441 1014.90283 2250.88281
2449.0 0.000408 1015.21375 2416.09326
2576.0 0.000388 1015.52545 2549.28516
2600.0 0.000385 1015.83807 2593.77197
2482.0 0.000403 1016.15112 2509.72046
2269.0 0.000441 1016.46521 2313.28662
1998.0 0.000501 1016.78021 2060.94922
1744.0 0.000573 1017.09595 1807.52649
1546.0 0.000647 1017.41241 1587.83447
1398.0 0.000715 1017.72986 1417.13171
1295.0 0.000772 1018.04810 1295.99109
1224.0 0.000817 1018.36713 1216.17432
1177.0 0.000850 1018.68695 1166.40320
1146.0 0.000873 1019.00757 1136.42529
1122.0 0.000891 1019.32904 1118.72974
1108.0 0.000903 1019.65137 1108.58142
1101.0 0.000908 1019.97449 1103.29907
1096.0 0.000912 1020.29877 1101.40527
1094.0 0.000914 1020.62360 1101.94360
1093.0 0.000915 1020.94946 1104.02686
1093.0 0.000915 1021.27600 1106.56543
1094.0 0.000914 1021.60358 1108.27417
1092.0 0.000916 1021.93195 1108.21057
1091.0 0.000917 1022.26111 1106.58154
1090.0 0.000917 1022.59125 1104.87427
1091.0 0.000917 1022.92230 1105.10034
1098.0 0.000911 1023.25421 1109.00623
1107.0 0.000903 1023.58716 1117.62390
1117.0 0.000895 1023.92059 1130.96716
1132.0 0.000883 1024.25525 1147.73230
1148.0 0.000871 1024.59070 1165.18701
1162.0 0.000861 1024.92700 1179.39661
1173.0 0.000853 1025.26428 1187.04175
1179.0 0.000848 1025.60254 1188.18372
1182.0 0.000846 1025.94141 1185.42493
1180.0 0.000847 1026.28162 1181.04626
1173.0 0.000853 1026.62231 1175.50903
1166.0 0.000858 1026.96423 1168.50391
1157.0 0.000864 1027.30713 1160.28906
1147.0 0.000872 1027.65076 1152.24487
1138.0 0.000879 1027.99512 1148.28723
1136.0 0.000880 1028.34082 1152.26245
1145.0 0.000873 1028.68713 1168.48059
1170.0 0.000855 1029.03467 1200.17200
1217.0 0.000822 1029.38293 1247.83618
1286.0 0.000778 1029.73218 1307.51807
1367.0 0.000732 1030.08240 1369.47583
1429.0 0.000700 1030.43347 1417.94238
1448.0 0.000691 1030.78528 1435.29150
1422.0 0.000703 1031.13855 1413.82117
1364.0 0.000733 1031.49231 1363.26514
1296.0 0.000772 1031.84729 1302.11230
1235.0 0.000810 1032.20300 1246.12451
1194.0 0.000838 1032.55994 1204.12830
1169.0 0.000855 1032.91760 1177.86829
1153.0 0.000867 1033.27637 1163.45837
1142.0 0.000876 1033.63586 1155.67236
1133.0 0.000883 1033.99658 1145.53503
1124.0 0.000890 1034.35803 1132.61646
1113.0 0.000898 1034.72070 1118.12170
1103.0 0.000907 1035.08411 1103.99255
1094.0 0.000914 1035.44873 1091.59851
1087.0 0.000920 1035.81396 1081.54700
1082.0 0.000924 1036.18042 1073.83508
1079.0 0.000927 1036.54773 1068.07581
1076.0 0.000929 1036.91614 1063.78333
1071.0 0.000934 1037.28552 1060.57361
1068.0 0.000936 1037.65552 1058.19507
1064.0 0.000940 1038.02686 1056.47803
1061.0 0.000943 1038.39905 1055.28870
1060.0 0.000943 1038.77234 1053.96069
1059.0 0.000944 1039.14636 1053.49402
1059.0 0.000944 1039.52148 1052.08557
1063.0 0.000941 1039.89746 1052.04102
1063.0 0.000941 1040.27478 1052.12219
1063.0 0.000941 1040.65283 1052.31616
1063.0 0.000941 1041.03186 1052.61841
1065.0 0.000939 1041.41187 1053.04614
1065.0 0.000939 1041.79272 1053.65857
1067.0 0.000937 1042.17468 1054.60791
1073.0 0.000932 1042.55762 1056.21863
1077.0 0.000929 1042.94165 1059.07178
1081.0 0.000925 1043.32666 1064.00513
1085.0 0.000922 1043.71228 1071.90283
1090.0 0.000917 1044.09900 1083.21936
1098.0 0.000911 1044.48706 1097.37207
1104.0 0.000906 1044.87585 1112.35864
1111.0 0.000900 1045.26563 1124.94165
1117.0 0.000895 1045.65637 1131.84888
1121.0 0.000892 1046.04810 1131.94873
1121.0 0.000892 1046.44092 1127.04834
1120.0 0.000893 1046.83459 1119.84363
1122.0 0.000891 1047.22925 1112.14917
1121.0 0.000892 1047.62500 1104.87598
1116.0 0.000896 1048.02148 1098.84534
1113.0 0.000898 1048.41919 1095.01208
1112.0 0.000899 1048.81750 1094.15881
1112.0 0.000899 1049.21729 1096.52722
1115.0 0.000897 1049.61780 1101.77161
1118.0 0.000894 1050.01917 1108.79614
1120.0 0.000893 1050.42151 1115.68494
1120.0 0.000893 1050.82495 1120.05627
1117.0 0.000895 1051.22949 1120.39233
1111.0 0.000900 1051.63477 1117.43018
1107.0 0.000903 1052.04114 1113.44458
1106.0 0.000904 1052.44824 1110.39392
1108.0 0.000903 1052.85669 1108.98120
1111.0 0.000900 1053.26599 1108.64893
1115.0 0.000897 1053.67603 1108.15662
1115.0 0.000897 1054.08716 1106.63232
1112.0 0.000899 1054.49927 1104.33301
1109.0 0.000902 1054.91223 1102.28137
1106.0 0.000904 1055.32617 1101.53943
1102.0 0.000907 1055.74121 1102.83386
1103.0 0.000907 1056.15710 1106.55029
1108.0 0.000903 1056.57410 1113.06531
1120.0 0.000893 1056.99194 1123.36438
1137.0 0.000880 1057.41040 1139.99866
1164.0 0.000859 1057.83020 1168.46228
1204.0 0.000831 1058.25098 1218.60400
1274.0 0.000785 1058.67249 1305.66443
1394.0 0.000717 1059.09460 1448.51221
1587.0 0.000630 1059.51819 1663.89221
1886.0 0.000530 1059.94263 1956.47729
2282.0 0.000438 1060.36792 2307.60132
2711.0 0.000369 1060.79407 2666.75415
3053.0 0.0003275 1061.22119 2950.04834
3168.0 0.0003157 1061.64917 3061.23804
3005.0 0.0003328 1062.07825 2953.43311
2654.0 0.000377 1062.50806 2672.71313
2239.0 0.000447 1062.93896 2314.73999
1866.0 0.000536 1063.37073 1963.41650
1582.0 0.000632 1063.80322 1669.76147
1390.0 0.000719 1064.23657 1452.79138
1270.0 0.000787 1064.67102 1308.02197
1198.0 0.000835 1065.10632 1218.91541
1153.0 0.000867 1065.54272 1166.18518
1127.0 0.000887 1065.97974 1134.69995
1110.0 0.000901 1066.41772 1114.49780
1099.0 0.000910 1066.85657 1100.19202
1093.0 0.000915 1067.29639 1089.49292
1089.0 0.000918 1067.73682 1081.86938
1085.0 0.000922 1068.17810 1077.40466
1083.0 0.000923 1068.62061 1075.85266
1082.0 0.000924 1069.06396 1076.37231
1085.0 0.000922 1069.50806 1077.95593
1085.0 0.000922 1069.95300 1079.84192
1085.0 0.000922 1070.39880 1081.59741
1083.0 0.000923 1070.84546 1083.03613
1082.0 0.000924 1071.29272 1084.14856
1083.0 0.000923 1071.74121 1084.99548
1084.0 0.000923 1072.19055 1085.77026
1085.0 0.000922 1072.64050 1086.72522
1088.0 0.000919 1073.09155 1088.16589
1088.0 0.000919 1073.54285 1090.39172
1090.0 0.000917 1073.99548 1093.59265
1096.0 0.000912 1074.44861 1097.71167
1103.0 0.000907 1074.90283 1102.39771
1110.0 0.000901 1075.35779 1106.77673
1119.0 0.000894 1075.81335 1109.96582
1126.0 0.000888 1076.27002 1111.33875
1127.0 0.000887 1076.72729 1111.13867
1125.0 0.000889 1077.18530 1109.94934
1118.0 0.000894 1077.64429 1108.04724
1110.0 0.000901 1078.10413 1105.46777
1105.0 0.000905 1078.56433 1102.33105
1100.0 0.000909 1079.02563 1099.01978
1095.0 0.000913 1079.48767 1095.96472
1093.0 0.000915 1079.95032 1093.45129
1090.0 0.000917 1080.41382 1091.60059
1090.0 0.000917 1080.87830 1090.39844
1092.0 0.000916 1081.34302 1089.74219
1100.0 0.000909 1081.80884 1089.49463
1108.0 0.000903 1082.27515 1089.52722
1112.0 0.000899 1082.74231 1089.74341
1108.0 0.000903 1083.21021 1089.48071
1103.0 0.000907 1083.67883 1089.92554
1101.0 0.000908 1084.14832 1090.47046
1100.0 0.000909 1084.61829 1091.15710
1096.0 0.000912 1085.08899 1092.10791
1096.0 0.000912 1085.56018 1093.54456
1099.0 0.000910 1086.03235 1095.89709
1102.0 0.000907 1086.50513 1099.78198
1104.0 0.000906 1086.97876 1105.85681
1109.0 0.000902 1087.45276 1114.63696
1116.0 0.000896 1087.92761 1125.85754
1126.0 0.000888 1088.40283 1138.21692
1139.0 0.000878 1088.87903 1149.23267
1153.0 0.000867 1089.35559 1155.69324
1159.0 0.000863 1089.83301 1155.30640
1156.0 0.000865 1090.31116 1148.68750
1148.0 0.000871 1090.78992 1138.85999
1138.0 0.000879 1091.26904 1129.15613
1130.0 0.000885 1091.74890 1122.09277
1125.0 0.000889 1092.22913 1119.17773
1120.0 0.000893 1092.71033 1121.07141
1119.0 0.000894 1093.19189 1127.84863
1124.0 0.000890 1093.67419 1138.89087
1129.0 0.000886 1094.15686 1152.99731
1135.0 0.000881 1094.64026 1167.89795
1147.0 0.000872 1095.12427 1180.19312
1170.0 0.000855 1095.60876 1186.31714
1192.0 0.000839 1096.09375 1184.91248
1210.0 0.000826 1096.57922 1178.05396
1214.0 0.000824 1097.06531 1169.99146
1208.0 0.000828 1097.55188 1165.38086
1196.0 0.000836 1098.03931 1167.69836
1192.0 0.000839 1098.52698 1177.98438
1193.0 0.000838 1099.01489 1194.23499
1199.0 0.000834 1099.50354 1211.70471
1205.0 0.000830 1099.99292 1224.53882
1210.0 0.000826 1100.48254 1228.82849
1214.0 0.000824 1100.97266 1224.39990
1213.0 0.000824 1101.46301 1213.52417
1209.0 0.000827 1101.95422 1199.37659
1205.0 0.000830 1102.44568 1184.86157
1202.0 0.000832 1102.93762 1172.24414
1203.0 0.000831 1103.42993 1163.80627
1205.0 0.000830 1103.92285 1162.00830
1212.0 0.000825 1104.41614 1169.19238
1225.0 0.000816 1104.90955 1187.18445
1249.0 0.000801 1105.40369 1216.62769
1281.0 0.000781 1105.89807 1256.10413
1327.0 0.000754 1106.39294 1301.27319
1366.0 0.000732 1106.88818 1344.17725
1384.0 0.000723 1107.38379 1373.51526
1372.0 0.000729 1107.87976 1378.80017
1341.0 0.000746 1108.37622 1358.35266
1303.0 0.000767 1108.87256 1320.93225
1271.0 0.000787 1109.36938 1278.25232
1246.0 0.000803 1109.86682 1238.80286
1230.0 0.000813 1110.36450 1206.87061
1222.0 0.000818 1110.86243 1183.11572
1214.0 0.000824 1111.36047 1165.98962
1202.0 0.000832 1111.85925 1153.43176
1187.0 0.000842 1112.35803 1143.97314
1174.0 0.000852 1112.85706 1136.83081
1165.0 0.000858 1113.35645 1131.59973
1154.0 0.000867 1113.85608 1128.00256
1143.0 0.000875 1114.35608 1125.67371
1136.0 0.000880 1114.85608 1124.29102
1132.0 0.000883 1115.35645 1123.55652
1129.0 0.000886 1115.85693 1123.26050
1125.0 0.000889 1116.35779 1123.28967
1123.0 0.000890 1116.85889 1123.60242
1124.0 0.000890 1117.36023 1124.18066
1125.0 0.000889 1117.86121 1124.98596
1123.0 0.000890 1118.36292 1125.92529
1124.0 0.000890 1118.86475 1126.83374
1124.0 0.000890 1119.36658 1127.50342
1123.0 0.000890 1119.86877 1127.78162
1122.0 0.000891 1120.37085 1127.69214
1122.0 0.000891 1120.87317 1127.44531
1124.0 0.000890 1121.37561 1127.17432
1123.0 0.000890 1121.87830 1127.05334
1122.0 0.000891 1122.38086 1126.65747
1125.0 0.000889 1122.88342 1127.02991
1126.0 0.000888 1123.38623 1127.69836
1126.0 0.000888 1123.88940 1128.71130
1128.0 0.000887 1124.39221 1130.34192
1129.0 0.000886 1124.89539 1132.84851
1131.0 0.000884 1125.39856 1136.59277
1136.0 0.000880 1125.90137 1141.87390
1144.0 0.000874 1126.40466 1148.73840
1150.0 0.000870 1126.90796 1156.76929
1156.0 0.000865 1127.41113 1164.92615
1158.0 0.000864 1127.91406 1171.49121
1160.0 0.000862 1128.41736 1174.46643
1163.0 0.000860 1128.92041 1172.81775
1169.0 0.000855 1129.42358 1167.42993
1179.0 0.000848 1129.92676 1160.27124
1197.0 0.000835 1130.42969 1153.10718
1213.0 0.000824 1130.93262 1147.03918
1217.0 0.000822 1131.43555 1142.53210
1209.0 0.000827 1131.93835 1139.57202
1189.0 0.000841 1132.44104 1137.86890
1170.0 0.000855 1132.94373 1137.04980
1156.0 0.000865 1133.44604 1136.82764
1148.0 0.000871 1133.94849 1136.88391
1143.0 0.000875 1134.45081 1137.12097
1140.0 0.000877 1134.95264 1137.46704
1140.0 0.000877 1135.45471 1137.90002
1138.0 0.000879 1135.95654 1138.44299
1138.0 0.000879 1136.45813 1139.18921
1140.0 0.000877 1136.95947 1140.34692
1142.0 0.000876 1137.46069 1142.31702
1147.0 0.000872 1137.96179 1145.56177
1153.0 0.000867 1138.46265 1150.60779
1157.0 0.000864 1138.96326 1157.59998
1160.0 0.000862 1139.46350 1165.93665
1166.0 0.000858 1139.96350 1174.08594
1172.0 0.000853 1140.46338 1179.82947
1177.0 0.000850 1140.96289 1181.22803
1175.0 0.000851 1141.46228 1177.82104
1172.0 0.000853 1141.96143 1171.23242
1166.0 0.000858 1142.46008 1163.73914
1160.0 0.000862 1142.95825 1157.16309
1152.0 0.000868 1143.45642 1152.38062
1147.0 0.000872 1143.95435 1149.56714
1144.0 0.000874 1144.45166 1148.22717
1143.0 0.000875 1144.94861 1147.83630
1142.0 0.000876 1145.44543 1147.96362
1141.0 0.000876 1145.94189 1148.39392
1141.0 0.000876 1146.43762 1148.89880
1140.0 0.000877 1146.93335 1149.47754
1140.0 0.000877 1147.42822 1150.18115
1141.0 0.000876 1147.92297 1150.86365
1142.0 0.000876 1148.41748 1151.61450
1143.0 0.000875 1148.91125 1152.46204
1143.0 0.000875 1149.40479 1153.46631
1145.0 0.000873 1149.89771 1154.72864
1147.0 0.000872 1150.39026 1156.46399
1151.0 0.000869 1150.88232 1158.96753
1156.0 0.000865 1151.37378 1162.66113
1162.0 0.000861 1151.86499 1168.21387
1170.0 0.000855 1152.35559 1175.75586
1182.0 0.000846 1152.84570 1185.52148
1198.0 0.000835 1153.33496 1197.79285
1212.0 0.000825 1153.82397 1211.52441
1225.0 0.000816 1154.31250 1224.91821
1240.0 0.000806 1154.80017 1235.48242
1253.0 0.000798 1155.28723 1241.28003
1258.0 0.000795 1155.77417 1241.69885
1253.0 0.000798 1156.26025 1236.74182
1241.0 0.000806 1156.74561 1226.93738
1223.0 0.000818 1157.23071 1214.13611
1201.0 0.000833 1157.71484 1200.90820
1184.0 0.000845 1158.19836 1189.28699
1173.0 0.000853 1158.68152 1180.34070
1166.0 0.000858 1159.16370 1174.33887
1160.0 0.000862 1159.64551 1171.03772
1157.0 0.000864 1160.12646 1170.09277
1156.0 0.000865 1160.60669 1171.12781
1158.0 0.000864 1161.08618 1173.92151
1159.0 0.000863 1161.56494 1178.14270
1161.0 0.000861 1162.04321 1183.17493
1167.0 0.000857 1162.52063 1188.03149
1174.0 0.000852 1162.99719 1191.32471
1183.0 0.000845 1163.47314 1191.81567
1193.0 0.000838 1163.94849 1189.52759
1199.0 0.000834 1164.42285 1185.62085
1200.0 0.000833 1164.89636 1181.67993
1198.0 0.000835 1165.36951 1179.02112
1196.0 0.000836 1165.84143 1178.50928
1193.0 0.000838 1166.31250 1180.49670
1191.0 0.000840 1166.78296 1184.77100
1189.0 0.000841 1167.25256 1190.51318
1190.0 0.000840 1167.72131 1196.32666
1196.0 0.000836 1168.18933 1200.60852
1198.0 0.000835 1168.65637 1202.45032
1195.0 0.000837 1169.12231 1201.88867
1192.0 0.000839 1169.58752 1199.09277
1192.0 0.000839 1170.05200 1194.65930
1193.0 0.000838 1170.51550 1189.89380
1194.0 0.000838 1170.97791 1186.23193
1196.0 0.000836 1171.43958 1184.73560
1198.0 0.000835 1171.90039 1186.06384
1202.0 0.000832 1172.35986 1190.65771
1208.0 0.000828 1172.81885 1198.89880
1218.0 0.000821 1173.27661 1211.17981
1231.0 0.000812 1173.73364 1227.94458
1248.0 0.000801 1174.18945 1249.67615
1268.0 0.000789 1174.64441 1276.63220
1292.0 0.000774 1175.09827 1308.55737
1325.0 0.000755 1175.55127 1344.82739
1363.0 0.000734 1176.00305 1383.07471
1398.0 0.000715 1176.45398 1416.84998
1421.0 0.000704 1176.90356 1435.90247
1425.0 0.000702 1177.35254 1431.88354
1409.0 0.000710 1177.80029 1406.18164
1381.0 0.000724 1178.24695 1369.62122
1348.0 0.000742 1178.69214 1334.51453
1327.0 0.000754 1179.13696 1309.00098
1314.0 0.000761 1179.58032 1295.21387
1301.0 0.000769 1180.02271 1289.83350
1288.0 0.000776 1180.46375 1286.49890
1276.0 0.000784 1180.90393 1279.85132
1264.0 0.000791 1181.34277 1269.00977
1254.0 0.000797 1181.78052 1256.85242
1252.0 0.000799 1182.21729 1247.01318
1254.0 0.000797 1182.65271 1241.92749
1258.0 0.000795 1183.08691 1242.10339
1263.0 0.000792 1183.52026 1245.90796
1269.0 0.000788 1183.95215 1250.19617
1271.0 0.000787 1184.38306 1251.55554
1269.0 0.000788 1184.81274 1247.73706
1261.0 0.000793 1185.24109 1238.93323
1250.0 0.000800 1185.66821 1227.47339
1239.0 0.000807 1186.09399 1216.11340
1229.0 0.000814 1186.51880 1206.79089
1220.0 0.000820 1186.94238 1200.26550
1213.0 0.000824 1187.36450 1196.33667
1210.0 0.000826 1187.78540 1194.32385
1207.0 0.000829 1188.20520 1193.50244
1205.0 0.000830 1188.62366 1193.34167
1203.0 0.000831 1189.04089 1193.54199
1202.0 0.000832 1189.45679 1194.24341
1200.0 0.000833 1189.87134 1195.02209
1200.0 0.000833 1190.28455 1196.32556
1200.0 0.000833 1190.69666 1198.54578
1203.0 0.000831 1191.10718 1202.22815
1206.0 0.000829 1191.51672 1207.93042
1210.0 0.000826 1191.92468 1215.92493
1213.0 0.000824 1192.33130 1225.83093
1216.0 0.000822 1192.73657 1236.33081
1219.0 0.000820 1193.14063 1245.16003
1225.0 0.000816 1193.54333 1249.63086
1229.0 0.000814 1193.94446 1248.16614
1232.0 0.000812 1194.34436 1241.72974
1234.0 0.000810 1194.74316 1233.06018
1239.0 0.000807 1195.14001 1224.99548
1241.0 0.000806 1195.53613 1219.61194
1242.0 0.000805 1195.93018 1218.27148
1243.0 0.000805 1196.32336 1221.26245
1245.0 0.000803 1196.71484 1227.90125
1247.0 0.000802 1197.10486 1236.75598
1247.0 0.000802 1197.49390 1245.63721
1245.0 0.000803 1197.88110 1251.98572
1244.0 0.000804 1198.26685 1254.09827
1243.0 0.000805 1198.65137 1251.94128
1239.0 0.000807 1199.03442 1246.58093
1235.0 0.000810 1199.41589 1239.35962
1231.0 0.000812 1199.79602 1231.82556
1227.0 0.000815 1200.17480 1225.44348
1225.0 0.000816 1200.55188 1220.96130
1227.0 0.000815 1200.92761 1218.54944
1228.0 0.000814 1201.30200 1217.79785
1229.0 0.000814 1201.67468 1217.94531
1228.0 0.000814 1202.04602 1218.12915
1228.0 0.000814 1202.41589 1217.75195
1231.0 0.000812 1202.78430 1216.82043
1229.0 0.000814 1203.15100 1215.86914
1228.0 0.000814 1203.51648 1215.45435
1227.0 0.000815 1203.88037 1216.04272
1226.0 0.000816 1204.24255 1217.70569
1223.0 0.000818 1204.60339 1220.10278
1223.0 0.000818 1204.96289 1222.57446
1222.0 0.000818 1205.32068 1224.40259
1222.0 0.000818 1205.67700 1225.26184
1225.0 0.000816 1206.03198 1225.65503
1229.0 0.000814 1206.38513 1226.93652
1233.0 0.000811 1206.73694 1231.14673
1239.0 0.000807 1207.08716 1240.90161
1254.0 0.000797 1207.43579 1259.03979
1277.0 0.000783 1207.78296 1287.69189
1311.0 0.000763 1208.12854 1326.76355
1354.0 0.000739 1208.47278 1372.38049
1400.0 0.000714 1208.81531 1416.16602
1432.0 0.000698 1209.15637 1446.22070
1441.0 0.000694 1209.49585 1451.64124
1427.0 0.000701 1209.83386 1430.41541
1396.0 0.000716 1210.17029 1391.25513
1362.0 0.000734 1210.50525 1346.54248
1328.0 0.000753 1210.83838 1305.82190
1300.0 0.000769 1211.17017 1274.50378
1279.0 0.000782 1211.50037 1253.71826
1266.0 0.000790 1211.82935 1241.88220
1257.0 0.000796 1212.15637 1236.41223
1252.0 0.000799 1212.48169 1234.96753
1248.0 0.000801 1212.80591 1235.95337
1248.0 0.000801 1213.12842 1238.48083
1248.0 0.000801 1213.44946 1242.12976
1247.0 0.000802 1213.76880 1246.70056
1248.0 0.000801 1214.08655 1252.05591
1251.0 0.000799 1214.40283 1258.01013
1254.0 0.000797 1214.71777 1264.24756
1257.0 0.000796 1215.03088 1270.30847
1259.0 0.000794 1215.34277 1275.45679
1262.0 0.000792 1215.65308 1279.17957
1266.0 0.000790 1215.96143 1281.43286
1270.0 0.000787 1216.26855 1282.73853
1274.0 0.000785 1216.57422 1284.18237
1278.0 0.000782 1216.87817 1286.63220
1282.0 0.000780 1217.18066 1290.13293
1285.0 0.000778 1217.48169 1293.60291
1289.0 0.000776 1217.78113 1295.08594
1290.0 0.000775 1218.07910 1292.82935
1291.0 0.000775 1218.37561 1286.91528
1291.0 0.000775 1218.67053 1279.69153
1289.0 0.000776 1218.96375 1274.15271
1285.0 0.000778 1219.25574 1272.47156
1284.0 0.000779 1219.54614 1275.26123
1283.0 0.000779 1219.83496 1281.36108
1285.0 0.000778 1220.12244 1288.16638
1286.0 0.000778 1220.40845 1292.62048
1285.0 0.000778 1220.69299 1292.82654
1281.0 0.000781 1220.97583 1288.81274
1275.0 0.000784 1221.25745 1281.53149
1268.0 0.000789 1221.53748 1272.36377
1262.0 0.000792 1221.81604 1262.99634
1257.0 0.000796 1222.09326 1254.90088
1254.0 0.000797 1222.36902 1248.86316
1250.0 0.000800 1222.64331 1245.05469
1249.0 0.000801 1222.91602 1243.29419
1250.0 0.000800 1223.18738 1243.25256
1249.0 0.000801 1223.45740 1244.59961
1252.0 0.000799 1223.72571 1247.17883
1256.0 0.000796 1223.99316 1251.20227
1262.0 0.000792 1224.25879 1257.32751
1268.0 0.000789 1224.52332 1266.59802
1279.0 0.000782 1224.78625 1279.97229
1292.0 0.000774 1225.04773 1297.68359
1305.0 0.000766 1225.30798 1318.71008
1317.0 0.000759 1225.56689 1340.10339
1328.0 0.000753 1225.82458 1357.43542
1341.0 0.000746 1226.08081 1365.45020
1345.0 0.000743 1226.33582 1360.79712
1341.0 0.000746 1226.58923 1344.94617
1332.0 0.000751 1226.84180 1323.07275
1321.0 0.000757 1227.09265 1300.66638
1302.0 0.000768 1227.34229 1281.58789
1285.0 0.000778 1227.59070 1267.62378
1271.0 0.000787 1227.83789 1258.73340
1261.0 0.000793 1228.08386 1253.79602
1254.0 0.000797 1228.32874 1251.41052
1249.0 0.000801 1228.57214 1250.44080
1245.0 0.000803 1228.81458 1250.21228
1244.0 0.000804 1229.05566 1250.21985
1243.0 0.000805 1229.29529 1250.21521
1242.0 0.000805 1229.53418 1249.94592
1241.0 0.000806 1229.77173 1249.27698
1242.0 0.000805 1230.00806 1248.31946
1243.0 0.000805 1230.24353 1247.42834
1246.0 0.000803 1230.47766 1247.07043
1247.0 0.000802 1230.71069 1247.67603
1248.0 0.000801 1230.94275 1249.48767
1250.0 0.000800 1231.17358 1252.43152
1253.0 0.000798 1231.40369 1256.06934
1259.0 0.000794 1231.63257 1259.70691
1263.0 0.000792 1231.86011 1262.75415
1268.0 0.000789 1232.08691 1265.32886
1273.0 0.000786 1232.31287 1268.45459
1280.0 0.000781 1232.53760 1273.30786
1285.0 0.000778 1232.76147 1280.23474
1293.0 0.000773 1232.98438 1288.23303
1302.0 0.000768 1233.20642 1295.07861
1305.0 0.000766 1233.42761 1298.06262
1299.0 0.000770 1233.64795 1295.41626
1290.0 0.000775 1233.86731 1287.66785
1279.0 0.000782 1234.08594 1277.12463
1269.0 0.000788 1234.30334 1266.26636
1261.0 0.000793 1234.52039 1256.91455
1256.0 0.000796 1234.73657 1250.12891
1253.0 0.000798 1234.95203 1246.31323
1251.0 0.000799 1235.16663 1245.28943
1248.0 0.000801 1235.38025 1246.47485
1245.0 0.000803 1235.59363 1248.95667
1246.0 0.000803 1235.80615 1251.79211
1247.0 0.000802 1236.01807 1254.27771
1246.0 0.000803 1236.22925 1256.08679
1245.0 0.000803 1236.43982 1257.22314
1247.0 0.000802 1236.64990 1257.94946
1250.0 0.000800 1236.85938 1258.61816
1253.0 0.000798 1237.06836 1259.34424
1253.0 0.000798 1237.27686 1260.04187
1253.0 0.000798 1237.48462 1260.69263
1253.0 0.000798 1237.69202 1261.50769
1253.0 0.000798 1237.89929 1263.13245
1255.0 0.000797 1238.10583 1265.70313
1257.0 0.000796 1238.31201 1269.47925
1262.0 0.000792 1238.51782 1273.80615
1266.0 0.000790 1238.72327 1277.32227
1271.0 0.000787 1238.92859 1278.48108
1273.0 0.000786 1239.13342 1276.47559
1273.0 0.000786 1239.33801 1271.91394
1274.0 0.000785 1239.54260 1266.23853
1273.0 0.000786 1239.74695 1260.83215
1268.0 0.000789 1239.95093 1256.47668
1263.0 0.000792 1240.15491 1253.30396
1260.0 0.000794 1240.35889 1251.08350
1257.0 0.000796 1240.56262 1249.54980
1255.0 0.000797 1240.76624 1248.51599
1253.0 0.000798 1240.96997 1247.89453
1252.0 0.000799 1241.17371 1247.62048
1250.0 0.000800 1241.37744 1247.67529
1250.0 0.000800 1241.58142 1248.04919
1251.0 0.000799 1241.78552 1248.69189
1254.0 0.000797 1241.98950 1249.60437
1254.0 0.000797 1242.19385 1250.76379
1254.0 0.000797 1242.39844 1252.11707
1254.0 0.000797 1242.60315 1253.56921
1255.0 0.000797 1242.80823 1254.99329
1257.0 0.000796 1243.01343 1256.26929
1258.0 0.000795 1243.21912 1257.34741
1261.0 0.000793 1243.42529 1258.28333
1263.0 0.000792 1243.63196 1259.18176
1267.0 0.000789 1243.83911 1260.10657
1273.0 0.000786 1244.04651 1261.05347
1278.0 0.000782 1244.25452 1262.03821
1281.0 0.000781 1244.46301 1263.17285
1284.0 0.000779 1244.67236 1264.75232
1289.0 0.000776 1244.88232 1267.20605
1294.0 0.000773 1245.09290 1270.55103
1297.0 0.000771 1245.30432 1274.73425
1302.0 0.000768 1245.51636 1279.25146
1306.0 0.000766 1245.72913 1283.35083
1308.0 0.000765 1245.94312 1286.37415
1307.0 0.000765 1246.15784 1288.20935
1302.0 0.000768 1246.37341 1289.31323
1300.0 0.000769 1246.58997 1290.24963
1296.0 0.000772 1246.80762 1291.48755
1291.0 0.000775 1247.02637 1293.50977
1288.0 0.000776 1247.24609 1296.75696
1285.0 0.000778 1247.46704 1301.39941
1283.0 0.000779 1247.68921 1307.21106
1282.0 0.000780 1247.91284 1313.57678
1284.0 0.000779 1248.13745 1319.21362
1287.0 0.000777 1248.36353 1322.79138
1287.0 0.000777 1248.59119 1323.46497
1287.0 0.000777 1248.82007 1321.46436
1287.0 0.000777 1249.05042 1317.85022
1287.0 0.000777 1249.28235 1313.46191
1288.0 0.000776 1249.51587 1308.46985
1288.0 0.000776 1249.75085 1302.52429
1289.0 0.000776 1249.98804 1295.34717
1290.0 0.000775 1250.22632 1287.36707
1290.0 0.000775 1250.46655 1279.72156
1292.0 0.000774 1250.70911 1274.00183
1295.0 0.000772 1250.95300 1271.09436
1299.0 0.000770 1251.19910 1270.95032
1300.0 0.000769 1251.44727 1273.17114
1303.0 0.000767 1251.69714 1277.50574
1305.0 0.000766 1251.94934 1284.03955
1309.0 0.000764 1252.20374 1292.98242
1314.0 0.000761 1252.46021 1304.26965
1320.0 0.000758 1252.71899 1317.18433
1329.0 0.000752 1252.98010 1330.24023
1337.0 0.000748 1253.24377 1341.11926
1343.0 0.000745 1253.50964 1347.74902
1346.0 0.000743 1253.77820 1348.47278
1344.0 0.000744 1254.04919 1343.58643
1337.0 0.000748 1254.32263 1335.21704
1330.0 0.000752 1254.59924 1326.26135
1324.0 0.000755 1254.87805 1319.09656
1321.0 0.000757 1255.15991 1315.03394
1320.0 0.000758 1255.44470 1314.47778
1325.0 0.000755 1255.73242 1317.16443
1328.0 0.000753 1256.02307 1322.40918
1332.0 0.000751 1256.31653 1329.04065
1336.0 0.000749 1256.61340 1335.30103
1339.0 0.000747 1256.91345 1339.19775
1340.0 0.000746 1257.21655 1339.01001
1336.0 0.000749 1257.52319 1334.46680
1329.0 0.000752 1257.83264 1326.77466
1320.0 0.000758 1258.14612 1317.69373
1317.0 0.000759 1258.46301 1308.65259
1312.0 0.000762 1258.78333 1300.50671
1309.0 0.000764 1259.10718 1293.65784
1307.0 0.000765 1259.43506 1288.16333
1304.0 0.000767 1259.76648 1284.11340
1303.0 0.000767 1260.10193 1281.36182
1302.0 0.000768 1260.44141 1279.85608
1300.0 0.000769 1260.78430 1279.70166
1299.0 0.000770 1261.13184 1281.31030
1301.0 0.000769 1261.48315 1285.23755
1304.0 0.000767 1261.83887 1292.50659
1312.0 0.000762 1262.19885 1304.07581
1322.0 0.000756 1262.56323 1320.37415
1340.0 0.000746 1262.93201 1340.67419
1364.0 0.000733 1263.30542 1362.65967
1380.0 0.000725 1263.68323 1382.39856
1384.0 0.000723 1264.06567 1395.22498
1379.0 0.000725 1264.45300 1398.32507
1369.0 0.000730 1264.84509 1393.64966
1362.0 0.000734 1265.24194 1386.95557
1361.0 0.000735 1265.64417 1383.71216
1367.0 0.000732 1266.05103 1386.12341
1374.0 0.000728 1266.46350 1392.43347
1381.0 0.000724 1266.88074 1397.60388
1384.0 0.000723 1267.30347 1395.91650
1387.0 0.000721 1267.73169 1385.03174
1387.0 0.000721 1268.16528 1366.98889
1384.0 0.000723 1268.60449 1346.61450
1377.0 0.000726 1269.04919 1328.63708
1369.0 0.000730 1269.49988 1316.19238
1361.0 0.000735 1269.95593 1310.29614
1357.0 0.000737 1270.41833 1310.18066
1351.0 0.000740 1270.88672 1313.89624
1345.0 0.000743 1271.36108 1318.96179
1343.0 0.000745 1271.84143 1322.98987
1339.0 0.000747 1272.32837 1324.46460
1338.0 0.000747 1272.82129 1323.25305
1338.0 0.000747 1273.32092 1320.39343
1339.0 0.000747 1273.82715 1317.35352
1342.0 0.000745 1274.33997 1315.25464
1345.0 0.000743 1274.85938 1314.53650
1347.0 0.000742 1275.38562 1314.76160
1346.0 0.000743 1275.91895 1315.30334
1344.0 0.000744 1276.45911 1315.64954
1343.0 0.000745 1277.00671 1316.04932
1344.0 0.000744 1277.56116 1317.91968
1347.0 0.000742 1278.12305 1323.65869
1352.0 0.000740 1278.69226 1335.52783
1355.0 0.000738 1279.26917 1353.24182
1360.0 0.000735 1279.85339 1371.68311
1361.0 0.000735 1280.44543 1382.03503
1362.0 0.000734 1281.04541 1377.95642
1365.0 0.000733 1281.65320 1361.05151
1361.0 0.000735 1282.26917 1340.76990
1358.0 0.000736 1282.89307 1326.63232
1351.0 0.000740 1283.52539 1321.91675
1349.0 0.000741 1284.16589 1324.84424
1349.0 0.000741 1284.81458 1332.15723
1345.0 0.000743 1285.47217 1340.67590
1342.0 0.000745 1286.13843 1347.71069
1341.0 0.000746 1286.81323 1351.38074
1339.0 0.000747 1287.49719 1351.02234
1338.0 0.000747 1288.18982 1347.48975
1337.0 0.000748 1288.89185 1342.45178
1336.0 0.000749 1289.60291 1337.96655
1339.0 0.000747 1290.32336 1335.50415
1341.0 0.000746 1291.05310 1336.06506
1346.0 0.000743 1291.79260 1339.83057
1346.0 0.000743 1292.54175 1346.40002
1345.0 0.000743 1293.30066 1354.83459
1349.0 0.000741 1294.06958 1363.70825
1352.0 0.000740 1294.84839 1371.07434
1357.0 0.000737 1295.63733 1374.59277
1361.0 0.000735 1296.43665 1372.42004
1364.0 0.000733 1297.24622 1364.97913
1365.0 0.000733 1298.06641 1355.36206
1360.0 0.000735 1298.89709 1346.94080
1354.0 0.000739 1299.73877 1341.33472
1349.0 0.000741 1300.59094 1338.66345
1343.0 0.000745 1301.45435 1338.31335
1340.0 0.000746 1302.32874 1339.34827
1337.0 0.000748 1303.21484 1340.72632
1334.0 0.000750 1304.11182 1341.52161
1334.0 0.000750 1305.02039 1341.21155
1331.0 0.000751 1305.94080 1339.88757
1331.0 0.000751 1306.87280 1338.05884
1331.0 0.000751 1307.81689 1336.21655
1331.0 0.000751 1308.77307 1334.59668
1334.0 0.000750 1309.74133 1333.20935
1335.0 0.000749 1310.72192 1332.03101
1335.0 0.000749 1311.71472 1331.00684
1333.0 0.000750 1312.72009 1330.52490
1330.0 0.000752 1313.73853 1330.53943
1332.0 0.000751 1314.76978 1331.09741
1332.0 0.000751 1315.81360 1332.27051
1332.0 0.000751 1316.87109 1334.24890
1330.0 0.000752 1317.94153 1337.41455
1329.0 . . .
1333.0 . . .
1337.0 . . .
1342.0 . . .
1346.0 . . .
1350.0 . . .
1356.0 . . .
1360.0 . . .
1368.0 . . .
1377.0 . . .
1385.0 . . .
1394.0 . . .
1400.0 . . .
1404.0 . . .
1409.0 . . .
1409.0 . . .
1410.0 . . .
1408.0 . . .
1404.0 . . .
1401.0 . . .
1395.0 . . .
1394.0 . . .
1391.0 . . .
1386.0 . . .
1380.0 . . .
1372.0 . . .
1369.0 . . .
1366.0 . . .
1360.0 . . .
1360.0 . . .
1363.0 . . .
1365.0 . . .
1371.0 . . .
1382.0 . . .
1392.0 . . .
1395.0 . . .
1394.0 . . .
1393.0 . . .
1387.0 . . .
1386.0 . . .
1385.0 . . .
1385.0 . . .
1389.0 . . .
1392.0 . . .
1397.0 . . .
1403.0 . . .
1408.0 . . .
1413.0 . . .
1411.0 . . .
1408.0 . . .
1403.0 . . .
1396.0 . . .
1388.0 . . .
1379.0 . . .
1372.0 . . .
1368.0 . . .
1365.0 . . .
1365.0 . . .
1364.0 . . .
1363.0 . . .
1365.0 . . .
1365.0 . . .
1366.0 . . .
1370.0 . . .
1372.0 . . .
1378.0 . . .
1383.0 . . .
1384.0 . . .
1386.0 . . .
1387.0 . . .
1393.0 . . .
1396.0 . . .
1400.0 . . .
1408.0 . . .
1416.0 . . .
1420.0 . . .
1422.0 . . .
1426.0 . . .
1428.0 . . .
1428.0 . . .
1430.0 . . .
1431.0 . . .
1432.0 . . .
1432.0 . . .
1432.0 . . .
1431.0 . . .
1427.0 . . .
1422.0 . . .
1418.0 . . .
1411.0 . . .
1406.0 . . .
1400.0 . . .
1395.0 . . .
1391.0 . . .
1389.0 . . .
1389.0 . . .
1393.0 . . .
1395.0 . . .
1397.0 . . .
1398.0 . . .
1400.0 . . .
1404.0 . . .
1407.0 . . .
1408.0 . . .
1404.0 . . .
1401.0 . . .
1399.0 . . .
1397.0 . . .
1396.0 . . .
1393.0 . . .
1390.0 . . .
1388.0 . . .
1385.0 . . .
1387.0 . . .
1385.0 . . .
1388.0 . . .
1388.0 . . .
1383.0 . . .
1382.0 . . .
1381.0 . . .
1380.0 . . .
1377.0 . . .
1374.0 . . .
1374.0 . . .
1373.0 . . .
1370.0 . . .
1365.0 . . .
1364.0 . . .
1364.0 . . .
1363.0 . . .
1363.0 . . .
1364.0 . . .
1365.0 . . .
1367.0 . . .
1366.0 . . .
1365.0 . . .
1365.0 . . .
1364.0 . . .
1367.0 . . .
1370.0 . . .
1373.0 . . .
1375.0 . . .
1378.0 . . .
1380.0 . . .
1382.0 . . .
1387.0 . . .
1389.0 . . .
1389.0 . . .
1394.0 . . .
1398.0 . . .
1399.0 . . .
1399.0 . . .
1401.0 . . .
1405.0 . . .
1408.0 . . .
1410.0 . . .
1411.0 . . .
1410.0 . . .
1409.0 . . .
1407.0 . . .
1403.0 . . .
1402.0 . . .
1402.0 . . .
1403.0 . . .
1400.0 . . .
1398.0 . . .
1398.0 . . .
1397.0 . . .
1397.0 . . .
1394.0 . . .
1391.0 . . .
1392.0 . . .
1390.0 . . .
1391.0 . . .
1390.0 . . .
1388.0 . . .
1389.0 . . .
1387.0 . . .
1389.0 . . .
1395.0 . . .
1399.0 . . .
1404.0 . . .
1409.0 . . .
1414.0 . . .
1423.0 . . .
1432.0 . . .
1441.0 . . .
1447.0 . . .
1454.0 . . .
1462.0 . . .
1468.0 . . .
1474.0 . . .
1477.0 . . .
1482.0 . . .
1491.0 . . .
1498.0 . . .
1504.0 . . .
1505.0 . . .
1506.0 . . .
1504.0 . . .
1495.0 . . .
1490.0 . . .
1483.0 . . .
1475.0 . . .
1468.0 . . .
1458.0 . . .
1450.0 . . .
1441.0 . . .
1437.0 . . .
1434.0 . . .
1428.0 . . .
1424.0 . . .
1419.0 . . .
1417.0 . . .
1419.0 . . .
1417.0 . . .
1418.0 . . .
1418.0 . . .
1419.0 . . .
1420.0 . . .
1417.0 . . .
1416.0 . . .
1414.0 . . .
1416.0 . . .
1415.0 . . .
1413.0 . . .
1412.0 . . .
1408.0 . . .
1407.0 . . .
1407.0 . . .
1407.0 . . .
1408.0 . . .
1405.0 . . .
1404.0 . . .
1406.0 . . .
1406.0 . . .
1406.0 . . .
1409.0 . . .
1412.0 . . .
1416.0 . . .
1418.0 . . .
1423.0 . . .
1430.0 . . .
1439.0 . . .
1447.0 . . .
1454.0 . . .
1462.0 . . .
1466.0 . . .
1470.0 . . .
1472.0 . . .
1469.0 . . .
1470.0 . . .
1475.0 . . .
1480.0 . . .
1482.0 . . .
1485.0 . . .
1488.0 . . .
1489.0 . . .
1493.0 . . .
1493.0 . . .
1491.0 . . .
1484.0 . . .
1478.0 . . .
1471.0 . . .
1463.0 . . .
1458.0 . . .
1451.0 . . .
1445.0 . . .
1442.0 . . .
1438.0 . . .
1436.0 . . .
1433.0 . . .
1431.0 . . .
1430.0 . . .
1432.0 . . .
1437.0 . . .
1440.0 . . .
1441.0 . . .
1441.0 . . .
1442.0 . . .
1445.0 . . .
1448.0 . . .
1446.0 . . .
1443.0 . . .
1440.0 . . .
1438.0 . . .
1434.0 . . .
1433.0 . . .
1433.0 . . .
1432.0 . . .
1431.0 . . .
1429.0 . . .
1426.0 . . .
1426.0 . . .
1423.0 . . .
1421.0 . . .
1420.0 . . .
1419.0 . . .
1419.0 . . .
1418.0 . . .
1417.0 . . .
1418.0 . . .
1419.0 . . .
1421.0 . . .
1422.0 . . .
1423.0 . . .
1423.0 . . .
1423.0 . . .
1423.0 . . .
1424.0 . . .
1424.0 . . .
1426.0 . . .
1426.0 . . .
1424.0 . . .
1422.0 . . .
1424.0 . . .
1427.0 . . .
1432.0 . . .
1436.0 . . .
1438.0 . . .
1438.0 . . .
1437.0 . . .
1438.0 . . .
1440.0 . . .
1439.0 . . .
1436.0 . . .
1437.0 . . .
1439.0 . . .
1440.0 . . .
1442.0 . . .
1445.0 . . .
1447.0 . . .
1453.0 . . .
1457.0 . . .
1461.0 . . .
1463.0 . . .
1464.0 . . .
1463.0 . . .
1459.0 . . .
1453.0 . . .
1447.0 . . .
1442.0 . . .
1437.0 . . .
1436.0 . . .
1434.0 . . .
1431.0 . . .
1429.0 . . .
1430.0 . . .
1429.0 . . .
1427.0 . . .
1426.0 . . .
1424.0 . . .
1425.0 . . .
1427.0 . . .
1428.0 . . .
1427.0 . . .
1426.0 . . .
1427.0 . . .
1427.0 . . .
1428.0 . . .
1430.0 . . .
1430.0 . . .
1431.0 . . .
1429.0 . . .
1428.0 . . .
1429.0 . . .
1431.0 . . .
1430.0 . . .
1428.0 . . .
1429.0 . . .
1430.0 . . .
1430.0 . . .
1432.0 . . .
1434.0 . . .
1434.0 . . .
1433.0 . . .
1436.0 . . .
1437.0 . . .
1439.0 . . .
1440.0 . . .
1440.0 . . .
1443.0 . . .
1443.0 . . .
1442.0 . . .
1442.0 . . .
1443.0 . . .
1447.0 . . .
1449.0 . . .
1451.0 . . .
1452.0 . . .
1453.0 . . .
1454.0 . . .
1457.0 . . .
1459.0 . . .
1460.0 . . .
1461.0 . . .
1463.0 . . .
1462.0 . . .
1465.0 . . .
1470.0 . . .
1475.0 . . .
1479.0 . . .
1485.0 . . .
1492.0 . . .
1496.0 . . .
1499.0 . . .
1501.0 . . .
1500.0 . . .
1497.0 . . .
1493.0 . . .
1492.0 . . .
1491.0 . . .
1487.0 . . .
1487.0 . . .
1487.0 . . .
1485.0 . . .
1485.0 . . .
1483.0 . . .
1481.0 . . .
1479.0 . . .
1478.0 . . .
1480.0 . . .
1482.0 . . .
1481.0 . . .
1481.0 . . .
1482.0 . . .
1482.0 . . .
1481.0 . . .
1480.0 . . .
1481.0 . . .
1483.0 . . .
1482.0 . . .
1481.0 . . .
1481.0 . . .
1479.0 . . .
1479.0 . . .
1481.0 . . .
1480.0 . . .
1480.0 . . .
1479.0 . . .
1477.0 . . .
1473.0 . . .
1473.0 . . .
1472.0 . . .
1473.0 . . .
1474.0 . . .
1475.0 . . .
1476.0 . . .
1478.0 . . .
1479.0 . . .
1481.0 . . .
1483.0 . . .
1486.0 . . .
1487.0 . . .
1491.0 . . .
1493.0 . . .
1495.0 . . .
1496.0 . . .
1497.0 . . .
1497.0 . . .
1496.0 . . .
1492.0 . . .
1489.0 . . .
1487.0 . . .
1483.0 . . .
1481.0 . . .
1482.0 . . .
1483.0 . . .
1484.0 . . .
1483.0 . . .
1484.0 . . .
1486.0 . . .
1486.0 . . .
1487.0 . . .
1490.0 . . .
1492.0 . . .
1493.0 . . .
1494.0 . . .
1495.0 . . .
1495.0 . . .
1495.0 . . .
1494.0 . . .
1495.0 . . .
1493.0 . . .
1492.0 . . .
1495.0 . . .
1499.0 . . .
1500.0 . . .
1503.0 . . .
1505.0 . . .
1504.0 . . .
1501.0 . . .
1501.0 . . .
1502.0 . . .
1504.0 . . .
1505.0 . . .
1507.0 . . .
1507.0 . . .
1510.0 . . .
1513.0 . . .
1515.0 . . .
1515.0 . . .
1519.0 . . .
1523.0 . . .
1523.0 . . .
1523.0 . . .
1520.0 . . .
1520.0 . . .
1519.0 . . .
1518.0 . . .
1514.0 . . .
1512.0 . . .
1512.0 . . .
1509.0 . . .
1506.0 . . .
1502.0 . . .
1496.0 . . .
1496.0 . . .
1494.0 . . .
1492.0 . . .
1491.0 . . .
1488.0 . . .
1485.0 . . .
1481.0 . . .
1481.0 . . .
1478.0 . . .
1474.0 . . .
1471.0 . . .
1467.0 . . .
1463.0 . . .
1459.0 . . .
1454.0 . . .
1449.0 . . .
1445.0 . . .
1440.0 . . .
1436.0 . . .
1431.0 . . .
1422.0 . . .
1415.0 . . .
1408.0 . . .
1401.0 . . .
1394.0 . . .
1384.0 . . .
1376.0 . . .
1366.0 . . .
1354.0 . . .
1342.0 . . .
1327.0 . . .
1314.0 . . .
1299.0 . . .
1284.0 . . .
1270.0 . . .
1256.0 . . .
1241.0 . . .
1226.0 . . .
1217.0 . . .
1206.0 . . .
1195.0 . . .
1185.0 . . .
1175.0 . . .
1167.0 . . .
1124.0 . . .
1004.0 . . .
908.0 . . .
820.0 . . .
745.0 . . .
687.0 . . .
634.0 . . .
593.0 . . .
544.0 . . .
488.0 . . .
440.0 . . .
394.0 . . .
341.0 . . .
275.0 . . .
176.0 . . .
39.0 . . .
loop_
_refln_index_h
_refln_index_k
_refln_index_l
_refln_observed_status
_refln_F_squared_meas
_refln_F_squared_calc
_refln_phase_calc
_refln_d_spacing
_gsas_i100_meas
0 0 2 o 5337.687 1948.919 180.00 7.39277 4.53
0 2 0 o 302.352 274.073 0.00 6.63612 1.36
1 0 0 o 3417.249 2931.707 180.00 4.10143 4.14
0 1 2 o 6799.851 6102.270 0.00 6.45845 34.58
0 2 1 o 214.559 191.907 180.00 6.05428 0.30
1 1 0 o 2.949 2.971 0.00 3.91859 0.02
1 0 2 o 3397.907 3511.540 180.00 3.74730 17.87
0 2 2 o 0.005 0.027 0.00 4.93836 0.00
1 1 1 o 141.450 178.508 180.00 3.87979 0.68
1 1 -1 o 2084.995 2094.337 180.00 3.70209 11.74
0 1 3 o 3042.513 2418.915 0.00 4.62025 5.18
0 3 1 o 377.130 334.460 180.00 4.23842 1.06
1 1 2 o 102.379 108.420 0.00 3.60632 0.14
1 0 -2 o 1381.799 1420.354 0.00 3.44469 2.05
1 2 0 o 3456.431 3496.490 180.00 3.48886 6.95
0 2 3 o 126.030 88.390 0.00 3.95667 0.32
1 2 1 o 7879.207 8024.042 180.00 3.46140 63.46
0 3 2 o 2059.550 2136.480 0.00 3.79624 1.29
0 0 4 o 2866.708 2668.110 0.00 3.69639 0.61
1 1 -2 o 141.004 144.080 180.00 3.33422 1.70
1 2 -1 o 0.000 344.027 0.00 3.33344 0.00
0 1 4 o 362.551 437.258 0.00 3.56087 0.23
1 1 3 o 84.954 88.890 0.00 3.21917 1.10
1 2 2 o 26896.283 27087.592 180.00 3.26301 100.00
0 4 0 o 3189.535 3165.014 0.00 3.31806 3.60
0 4 1 o 182.632 172.165 180.00 3.23754 0.40
0 3 3 o 5047.569 5052.899 0.00 3.29224 10.73
1 2 -2 o 1109.460 1091.047 180.00 3.05734 1.18
0 2 4 o 687.618 647.862 180.00 3.22923 0.88
1 2 3 o 351.856 356.954 180.00 2.96790 0.31
1 0 4 o 4259.517 4481.211 0.00 2.89188 4.00
1 3 0 o 6873.575 7042.278 0.00 3.00775 16.61
1 1 -3 o 1169.916 1313.078 180.00 2.93498 1.67
1 3 1 o 13043.045 13273.361 0.00 2.99010 49.82
0 4 2 o 1052.292 1134.123 0.00 3.02714 0.37
1 3 -1 o 1545.006 1678.284 180.00 2.90645 2.85
1 1 4 o 158.734 143.651 0.00 2.82559 1.01
1 3 2 o 3157.270 3218.973 180.00 2.85941 12.70
0 1 5 o 894.499 949.805 0.00 2.88634 0.27
1 2 -3 o 234.441 202.720 180.00 2.74081 1.37
0 3 4 o 1114.338 1173.885 0.00 2.83660 1.66
1 0 -4 o 0.000 1155.268 0.00 2.61984 0.00
1 3 -2 o 961.141 897.643 180.00 2.71796 1.83
0 4 3 o 2716.663 2647.695 0.00 2.75242 1.78
1 2 4 o 94.854 96.251 0.00 2.65109 0.14
0 2 5 o 882.807 832.050 0.00 2.70107 0.65
1 3 3 o 22629.043 22802.213 180.00 2.65455 64.59
1 1 -4 o 2021.095 1600.298 0.00 2.57024 0.41
0 5 1 o 15.601 10.694 0.00 2.61268 0.02
1 4 0 o 389.967 323.938 180.00 2.57961 0.73
1 4 1 o 32.816 26.694 180.00 2.56844 0.25
1 1 5 o 0.000 906.309 180.00 2.47571 0.00
1 4 -1 o 2409.902 2341.751 0.00 2.51484 1.91
1 3 -3 o 812.414 818.837 0.00 2.48833 2.23
1 2 -4 o 9860.755 8489.861 0.00 2.43682 10.98
0 5 2 o 36.041 39.339 0.00 2.49829 0.02
1 4 2 o 72.653 64.269 180.00 2.48418 0.60
0 4 4 o 1999.271 1911.248 180.00 2.46918 2.39
0 0 6 o 11868.650 10977.267 180.00 2.46426 1.12
0 3 5 o 1068.276 840.784 180.00 2.45848 0.93
1 3 4 o 287.588 152.889 180.00 2.42062 0.15
0 1 6 o 3933.376 2276.387 0.00 2.42285 0.71
1 4 -2 o 20.145 32.900 0.00 2.38974 0.07
1 2 5 o 767.566 476.811 180.00 2.35581 2.47
1 4 3 o 0.200 0.041 0.00 2.34629 0.00
0 5 3 o 0.037 0.007 0.00 2.33704 0.00
1 1 -5 o 566.389 630.562 180.00 2.25987 1.73
0 2 6 o 2321.281 2553.311 180.00 2.31012 0.99
1 3 -4 o 3230.441 3322.001 0.00 2.25423 1.41
2 0 0 o 48.471 40.528 180.00 2.05071 0.01
1 0 6 o 0.000 352.650 180.00 2.21117 0.00
1 1 6 o 1866.663 1846.857 180.00 2.18111 0.03
0 6 0 o 4112.756 3786.517 0.00 2.21204 2.07
1 4 -3 o 259.083 313.019 180.00 2.22916 1.03
1 5 0 o 0.000 611.306 0.00 2.22845 0.00
1 5 1 o 4.734 2.999 0.00 2.22124 0.02
1 3 5 o 0.000 175.690 0.00 2.18965 0.00
0 6 1 o 2149.900 2113.865 180.00 2.18769 2.30
0 4 5 o 721.309 696.549 180.00 2.20762 0.69
2 1 1 o 1125.595 1059.918 0.00 2.03486 0.02
2 0 2 o 7699.476 7919.752 0.00 2.02850 3.11
2 1 0 o 708.867 743.046 0.00 2.02666 0.30
1 2 -5 o 3100.952 2846.208 0.00 2.16758 3.19
1 5 -1 o 0.000 166.447 180.00 2.18630 0.00
1 4 4 o 2489.682 2495.114 0.00 2.18008 6.76
2 1 2 o 0.000 30.018 180.00 2.00522 0.00
1 5 2 o 6.601 6.157 180.00 2.16607 0.03
0 5 4 o 999.559 765.357 0.00 2.15610 0.54
0 3 6 o 3378.796 2327.493 0.00 2.15282 1.92
0 6 2 o 2072.904 2312.334 180.00 2.11921 1.46
2 1 -1 o 1586.983 1566.495 180.00 1.98197 1.47
1 2 6 o 123.728 115.642 0.00 2.09778 0.72
1 5 -2 o 3398.612 3060.259 0.00 2.10260 1.26
2 1 3 o 0.000 402.502 180.00 1.94242 0.00
0 1 7 o 3740.111 2274.731 180.00 2.08597 0.47
2 2 1 o 413.085 404.441 180.00 1.96669 0.36
2 0 -2 o 0.000 922.942 180.00 1.92755 0.00
1 0 -6 o 49.807 56.580 180.00 2.02563 0.06
2 2 0 o 279.891 316.089 0.00 1.95929 0.51
1 5 3 o 246.697 216.836 180.00 2.07282 0.37
1 3 -5 o 32.357 30.618 0.00 2.03606 0.01
1 4 -4 o 6484.195 6352.745 0.00 2.05617 7.37
2 2 2 o 885.444 831.611 0.00 1.93990 1.06
2 2 -1 o 616.343 791.607 0.00 1.91882 2.00
1 1 -6 o 763.887 764.742 180.00 2.00244 0.91
2 1 -2 o 0.000 4.526 0.00 1.90754 0.00
2 0 4 o 973.344 655.038 180.00 1.87365 0.76
0 6 3 o 9128.339 9135.467 0.00 2.01809 1.45
0 2 7 o 67.045 61.547 180.00 2.01273 0.02
1 4 5 o 1410.149 1417.607 180.00 2.00680 1.28
2 2 3 o 312.493 241.516 0.00 1.88287 0.11
1 5 -3 o 30.640 26.477 180.00 1.99073 0.08
0 4 6 o 184.158 194.923 180.00 1.97834 0.12
1 3 6 o 3657.779 3790.859 180.00 1.97788 3.12
0 5 5 o 195.216 186.341 0.00 1.97534 0.15
2 1 4 o 1.352 1.453 180.00 1.85526 0.00
1 1 7 o 1363.894 1250.174 0.00 1.93743 1.22
1 2 -6 o 759.210 695.047 0.00 1.93738 0.70
2 2 -2 o 1714.645 2086.260 180.00 1.85104 2.28
1 5 4 o 40.384 50.031 180.00 1.95554 0.00
1 6 0 o 2168.787 2150.648 180.00 1.94693 0.56
1 6 1 o 3.775 3.491 0.00 1.94212 0.01
2 3 1 o 2.729 1.806 0.00 1.86688 0.01
2 3 0 o 602.050 507.445 180.00 1.86055 1.30
1 6 -1 o 0.000 668.000 0.00 1.91863 0.00
2 3 2 o 276.214 258.392 180.00 1.84391 1.04
2 1 -3 o 3758.694 3266.322 0.00 1.81302 4.18
0 3 7 o 431.863 498.626 180.00 1.90612 0.17
1 6 2 o 995.777 1045.427 180.00 1.90491 0.66
0 7 1 o 143.683 115.979 180.00 1.88064 0.11
1 2 7 o 0.493 0.372 180.00 1.87833 0.00
0 6 4 o 1100.042 715.489 180.00 1.89812 0.17
2 3 -1 o 1251.972 1121.107 0.00 1.82579 2.84
1 4 -5 o 0.000 0.402 0.00 1.88658 0.00
2 2 4 o 466.491 309.044 0.00 1.80316 0.05
1 5 -4 o 578.864 385.690 0.00 1.86462 0.68
2 3 3 o 20.397 16.367 0.00 1.79473 0.06
1 3 -6 o 685.018 538.839 180.00 1.84175 0.73
1 6 -2 o 0.000 436.928 0.00 1.86131 0.00
0 7 2 o 57.700 34.117 0.00 1.83659 0.04
0 0 8 o 193.178 287.613 180.00 1.84819 0.01
2 1 5 o 4057.795 3281.005 0.00 1.75366 15.21
1 6 3 o 0.000 318.224 0.00 1.84056 0.00
1 4 6 o 364.576 241.014 0.00 1.84003 0.04
2 3 -2 o 169.632 111.266 180.00 1.76711 0.03
0 1 8 o 1710.402 1379.777 180.00 1.83053 0.16
2 2 -3 o 290.294 189.597 180.00 1.76431 0.41
1 5 5 o 1862.487 1741.108 180.00 1.82757 0.82
2 4 1 o 45.822 36.568 180.00 1.74965 0.05
2 0 -4 o 2261.859 2294.129 180.00 1.72235 0.45
1 1 -7 o 4982.973 5087.928 0.00 1.78994 3.05
2 4 0 o 1855.982 1688.478 0.00 1.74443 0.94
0 5 6 o 45.972 31.470 0.00 1.80599 0.03
2 4 2 o 1856.729 1871.215 0.00 1.73070 3.72
1 3 7 o 229.889 232.628 180.00 1.79080 0.74
0 7 3 o 2605.349 1704.008 0.00 1.76960 0.67
2 3 4 o 13.107 12.585 0.00 1.72530 0.02
1 6 -3 o 2308.426 2146.435 0.00 1.78236 2.32
0 4 7 o 1815.836 1622.255 0.00 1.78182 0.79
0 2 8 o 3101.819 2451.986 0.00 1.78043 0.50
2 4 -1 o 1459.471 1505.616 180.00 1.71568 0.32
0 6 5 o 2419.464 1520.228 180.00 1.77130 1.02
2 2 5 o 39.789 40.921 0.00 1.70947 0.06
1 0 8 o 0.000 2093.784 0.00 1.75121 0.00
2 1 -4 o 87.648 91.747 180.00 1.70803 0.15
1 2 -7 o 588.566 579.036 180.00 1.74301 0.67
1 6 4 o 0.000 682.041 0.00 1.75698 0.00
1 1 8 o 352.158 363.202 0.00 1.73616 0.11
1 5 -5 o 0.000 10.547 0.00 1.73538 0.00
1 4 -6 o 0.000 1269.613 180.00 1.72891 0.00
1 7 0 o 138.031 151.293 0.00 1.72103 0.32
1 7 1 o 13.366 14.770 180.00 1.71771 0.02
