#------------------------------------------------------------------------------
#$Date: 2016-02-18 17:37:37 +0200 (Thu, 18 Feb 2016) $
#$Revision: 176729 $
#$URL: svn://www.crystallography.net/cod/cif/1/51/67/1516792.cif $
#------------------------------------------------------------------------------
#
# This file is available in the Crystallography Open Database (COD),
# http://www.crystallography.net/
#
# All data on this site have been placed in the public domain by the
# contributors.
#
data_1516792
loop_
_publ_author_name
'Cao, Dennis'
'Hong, Michael'
'Blackburn, Anthea K.'
'Liu, Zhichang'
'Holcroft, James M.'
'Stoddart, J. Fraser'
_publ_section_title
;
 Two-point halogen bonding between 3,6-dihalopyromellitic diimides
;
_journal_issue                   11
_journal_name_full               'Chem. Sci.'
_journal_page_first              4242
_journal_paper_doi               10.1039/C4SC00999A
_journal_volume                  5
_journal_year                    2014
_chemical_formula_moiety         'C10 H2 I2 N2 O4, 2(C12 H12 O2)'
_chemical_formula_sum            'C34 H26 I2 N2 O8'
_chemical_formula_weight         844.37
_chemical_name_systematic
;
 ?
;
_space_group_crystal_system      triclinic
_space_group_IT_number           2
_space_group_name_Hall           '-P 1'
_space_group_name_H-M_alt        'P -1'
_symmetry_space_group_name_Hall  '-P 1'
_symmetry_space_group_name_H-M   'P -1'
_atom_sites_solution_hydrogens   geom
_atom_sites_solution_primary     direct
_audit_creation_date             2014-02-04
_audit_creation_method
;
Olex2 1.2
(compiled 2013.12.10 svn.r2853 for OlexSys, GUI svn.r4736)
;
_cell_angle_alpha                82.120(2)
_cell_angle_beta                 80.651(3)
_cell_angle_gamma                79.408(2)
_cell_formula_units_Z            1
_cell_length_a                   6.6274(3)
_cell_length_b                   9.4654(3)
_cell_length_c                   12.3549(4)
_cell_measurement_reflns_used    3436
_cell_measurement_temperature    100(2)
_cell_measurement_theta_max      62.311
_cell_measurement_theta_min      3.648
_cell_volume                     747.10(5)
_computing_molecular_graphics    'Olex2 (Dolomanov et al., 2009)'
_computing_publication_material  'Olex2 (Dolomanov et al., 2009)'
_computing_structure_refinement  'ShelXL (Sheldrick, 2008)'
_computing_structure_solution    'ShelXS (Sheldrick, 2008)'
_diffrn_ambient_temperature      100.02
_diffrn_measured_fraction_theta_full 0.823
_diffrn_measured_fraction_theta_max 0.934
_diffrn_measurement_device_type  'Bruker APEX-II CCD'
_diffrn_measurement_method       '\f and \w scans'
_diffrn_radiation_monochromator  graphite
_diffrn_radiation_type           CuK\a
_diffrn_radiation_wavelength     1.54178
_diffrn_reflns_av_R_equivalents  0.0149
_diffrn_reflns_av_unetI/netI     0.0220
_diffrn_reflns_Laue_measured_fraction_full 0.823
_diffrn_reflns_Laue_measured_fraction_max 0.934
_diffrn_reflns_limit_h_max       7
_diffrn_reflns_limit_h_min       -4
_diffrn_reflns_limit_k_max       10
_diffrn_reflns_limit_k_min       -10
_diffrn_reflns_limit_l_max       14
_diffrn_reflns_limit_l_min       -11
_diffrn_reflns_number            4204
_diffrn_reflns_point_group_measured_fraction_full 0.823
_diffrn_reflns_point_group_measured_fraction_max 0.934
_diffrn_reflns_theta_full        67.679
_diffrn_reflns_theta_max         62.312
_diffrn_reflns_theta_min         3.648
_diffrn_standards_number         0
_exptl_absorpt_coefficient_mu    17.033
_exptl_absorpt_correction_T_max  0.7522
_exptl_absorpt_correction_T_min  0.6269
_exptl_absorpt_correction_type   multi-scan
_exptl_absorpt_process_details
;
SADABS-2012/1 (Bruker,2012) was used for absorption correction.
wR2(int) was 0.0432 before and 0.0222 after correction.
The Ratio of minimum to maximum transmission is 0.8334.
The \l/2 correction factor is 0.0015.
;
_exptl_crystal_colour            orange
_exptl_crystal_colour_primary    orange
_exptl_crystal_density_diffrn    1.877
_exptl_crystal_description       Needle
_exptl_crystal_F_000             414
_exptl_crystal_size_max          0.327
_exptl_crystal_size_mid          0.039
_exptl_crystal_size_min          0.029
_refine_diff_density_max         0.513
_refine_diff_density_min         -0.344
_refine_diff_density_rms         0.090
_refine_ls_extinction_method     none
_refine_ls_goodness_of_fit_ref   1.081
_refine_ls_hydrogen_treatment    mixed
_refine_ls_matrix_type           full
_refine_ls_number_parameters     210
_refine_ls_number_reflns         2217
_refine_ls_number_restraints     0
_refine_ls_restrained_S_all      1.081
_refine_ls_R_factor_all          0.0226
_refine_ls_R_factor_gt           0.0209
_refine_ls_shift/su_max          0.001
_refine_ls_shift/su_mean         0.000
_refine_ls_structure_factor_coef Fsqd
_refine_ls_weighting_details
'w=1/[\s^2^(Fo^2^)+(0.0339P)^2^+0.7294P] where P=(Fo^2^+2Fc^2^)/3'
_refine_ls_weighting_scheme      calc
_refine_ls_wR_factor_gt          0.0547
_refine_ls_wR_factor_ref         0.0557
_reflns_Friedel_coverage         0.000
_reflns_number_gt                2108
_reflns_number_total             2217
_reflns_threshold_expression     'I > 2\s(I)'
_cod_data_source_file            c4sc00999a1.cif
_cod_data_source_block           p-1
_cod_depositor_comments
'Adding full bibliography for 1516792--1516797.cif.'
_cod_database_code               1516792
#BEGIN Tags that were not found in dictionaries:
_shelxl_version_number           2013-4
_shelx_space_group_comment
;
The symmetry employed for this shelxl refinement is uniquely defined
by the following loop, which should always be used as a source of
symmetry information in preference to the above space-group names.
They are only intended as comments.
;
_shelx_estimated_absorpt_t_max   0.638
_shelx_estimated_absorpt_t_min   0.072
_olex2_refinement_description
;
1. Fixed Uiso
 At 1.2 times of:
  All C(H) groups, All N(H) groups
 At 1.5 times of:
  All C(H,H,H) groups
2.a Aromatic/amide H refined with riding coordinates:
 N1(H1), C14(H14), C16(H16), C17(H17), C7(H7), C9(H9), C11(H11)
2.b Idealised Me refined as rotating group:
 C12(H12A,H12B,H12C), C6(H6A,H6B,H6C)
;
_shelx_res_file
;
TITL P-1 in P-1
CELL 1.54178 6.6274 9.4654 12.3549 82.12 80.651 79.408
ZERR 1 0.0003 0.0003 0.0004 0.002 0.003 0.002
LATT 1
 
SFAC C H I N O
UNIT 34 26 2 2 8
 
L.S. 10
PLAN  5
SIZE 0.029 0.039 0.327
TEMP -173.13
BOND $H
fmap 2 53
MORE -1
ACTA
CONF
REM <HKL>/Volumes/C/Xray/DC_PMDII2_BHEAN/work/P-1.hkl</HKL>
 
WGHT    0.033900    0.729400
FVAR       0.14887
I1    3    0.397925    0.879485    0.782869    11.00000    0.01562    0.01641 =
         0.01196    0.00045   -0.00239   -0.00262
O1    5    0.669152    0.769157    0.262260    11.00000    0.03153    0.01685 =
         0.01716   -0.00854    0.00256   -0.00471
O2    5    0.543443    0.608153    0.628368    11.00000    0.02397    0.00957 =
         0.02054    0.00199    0.00126   -0.00287
N1    4    0.618817    0.656341    0.439724    11.00000    0.01774    0.00471 =
         0.02096   -0.00544    0.00122   -0.00244
AFIX  43
H1    2    0.651016    0.566348    0.423935    11.00000   -1.20000
AFIX   0
C1    1    0.622719    0.774689    0.359843    11.00000    0.00854    0.01254 =
         0.01946   -0.00662   -0.00093   -0.00154
C2    1    0.560132    0.692418    0.545679    11.00000    0.00651    0.00844 =
         0.02292   -0.00275   -0.00097   -0.00068
C3    1    0.561107    0.904603    0.423080    11.00000    0.00598    0.00994 =
         0.01309   -0.00295   -0.00134   -0.00167
C4    1    0.522848    0.855082    0.535006    11.00000    0.00428    0.00944 =
         0.01620   -0.00068   -0.00445   -0.00239
C5    1    0.461478    0.949711    0.615614    11.00000    0.00493    0.01193 =
         0.01102   -0.00041   -0.00292   -0.00184
 
O5    5    0.255432    0.600400    0.070271    11.00000    0.02058    0.01904 =
         0.02026    0.00311   -0.00248   -0.00203
C12   1    0.429953    0.591299    0.125447    11.00000    0.02379    0.02581 =
         0.02699    0.00684   -0.00941   -0.00279
AFIX 137
H12A  2    0.531204    0.645478    0.079298    11.00000   -1.50000
H12B  2    0.493534    0.489748    0.139368    11.00000   -1.50000
H12C  2    0.385655    0.632384    0.195784    11.00000   -1.50000
AFIX   0
C13   1    0.150767    0.736129    0.042555    11.00000    0.01885    0.02228 =
         0.00945    0.00094    0.00380   -0.00315
C14   1    0.210821    0.863165    0.057399    11.00000    0.01483    0.02773 =
         0.00995   -0.00074   -0.00081   -0.00526
AFIX  43
H14   2    0.332655    0.860701    0.089354    11.00000   -1.20000
AFIX   0
C15   1    0.089811    0.998021    0.024721    11.00000    0.01558    0.02303 =
         0.00878   -0.00227    0.00081   -0.00454
C16   1    0.146090    1.132196    0.037551    11.00000    0.01548    0.02691 =
         0.01385   -0.00320   -0.00159   -0.00736
AFIX  43
H16   2    0.267848    1.132324    0.068845    11.00000   -1.20000
AFIX   0
C17   1    0.028720    1.260225    0.005821    11.00000    0.01995    0.02155 =
         0.01274   -0.00195    0.00142   -0.00873
AFIX  43
H17   2    0.068300    1.348305    0.016418    11.00000   -1.20000
AFIX   0
 
O3    5    0.066219    0.592549    0.612552    11.00000    0.01776    0.00624 =
         0.01821    0.00089    0.00030    0.00015
C6    1    0.017543    0.573241    0.730963    11.00000    0.02417    0.01403 =
         0.01782    0.00415    0.00291   -0.00058
AFIX 137
H6A   2   -0.126996    0.616543    0.752798    11.00000   -1.50000
H6B   2    0.109236    0.620300    0.763725    11.00000   -1.50000
H6C   2    0.037256    0.469736    0.756968    11.00000   -1.50000
AFIX   0
C7    1    0.091608    0.745656    0.446648    11.00000    0.00744    0.01083 =
         0.01999   -0.00523   -0.00159   -0.00212
AFIX  43
H7    2    0.130555    0.661328    0.409355    11.00000   -1.20000
AFIX   0
C8    1    0.046014    0.732661    0.562908    11.00000    0.00379    0.01094 =
         0.01739    0.00148   -0.00200   -0.00171
C9    1   -0.011597    0.852630    0.618476    11.00000    0.00460    0.01272 =
         0.01249   -0.00037   -0.00170   -0.00061
AFIX  43
H9    2   -0.043203    0.842534    0.696665    11.00000   -1.20000
AFIX   0
C10   1   -0.023762    0.992897    0.557991    11.00000    0.00309    0.01209 =
         0.01511   -0.00093   -0.00332   -0.00131
C11   1   -0.079759    1.120251    0.612475    11.00000    0.00774    0.01298 =
         0.01508   -0.00444   -0.00146   -0.00001
AFIX  43
H11   2   -0.109288    1.112327    0.690720    11.00000   -1.20000
AFIX   0
HKLF 4
 
REM  P-1 in P-1
REM R1 =  0.0209 for    2108 Fo > 4sig(Fo)  and  0.0226 for all    2217 data
REM    210 parameters refined using      0 restraints
 
END  
     
WGHT      0.0339      0.7294 

REM Highest difference peak  0.513,  deepest hole -0.344,  1-sigma level  0.090
Q1    1   0.5286  0.8677  0.8327  11.00000  0.05    0.51
Q2    1   0.3669  0.9693  0.8049  11.00000  0.05    0.51
Q3    1   0.5021  0.8045  0.8010  11.00000  0.05    0.42
Q4    1   0.4272  0.9166  0.6908  11.00000  0.05    0.42
Q5    1   0.4462  0.7836  0.7497  11.00000  0.05    0.40

REM The information below was added by Olex2.
REM
REM R1 = 0.0209 for 2108 Fo > 4sig(Fo) and 0.0226 for all 4204 data
REM n/a parameters refined using n/a restraints
REM Highest difference peak 0.51, deepest hole -0.34
REM Mean Shift 0, Max Shift 0.

REM +++ Tabular Listing of Refinement Information +++
REM R1_all = 0.0226
REM R1_gt = 0.0209
REM wR_ref = 0.0557
REM GOOF = 1.081
REM Shift_max = 0
REM Shift_mean = 0
REM Reflections_all = 4204
REM Reflections_gt = 2108
REM Parameters = n/a
REM Hole = -0.34
REM Peak = 0.51
REM Flack = n/a

;
#END Tags that were not found in dictionaries
loop_
_space_group_symop_operation_xyz
'x, y, z'
'-x, -y, -z'
loop_
_atom_site_label
_atom_site_type_symbol
_atom_site_fract_x
_atom_site_fract_y
_atom_site_fract_z
_atom_site_U_iso_or_equiv
_atom_site_adp_type
_atom_site_occupancy
_atom_site_site_symmetry_order
_atom_site_calc_flag
_atom_site_refinement_flags_posn
I1 I 0.39792(3) 0.87949(2) 0.78287(2) 0.01481(9) Uani 1 1 d .
O1 O 0.6692(4) 0.7692(2) 0.26226(19) 0.0218(6) Uani 1 1 d .
O2 O 0.5434(4) 0.6082(2) 0.62837(19) 0.0189(5) Uani 1 1 d .
N1 N 0.6188(5) 0.6563(3) 0.4397(2) 0.0145(6) Uani 1 1 d .
H1 H 0.6510 0.5663 0.4239 0.017 Uiso 1 1 calc R
C1 C 0.6227(5) 0.7747(3) 0.3598(3) 0.0132(7) Uani 1 1 d .
C2 C 0.5601(5) 0.6924(3) 0.5457(3) 0.0127(7) Uani 1 1 d .
C3 C 0.5611(5) 0.9046(3) 0.4231(3) 0.0095(6) Uani 1 1 d .
C4 C 0.5228(5) 0.8551(3) 0.5350(3) 0.0095(6) Uani 1 1 d .
C5 C 0.4615(5) 0.9497(3) 0.6156(3) 0.0091(6) Uani 1 1 d .
O5 O 0.2554(4) 0.6004(3) 0.07027(19) 0.0207(5) Uani 1 1 d .
C12 C 0.4300(6) 0.5913(4) 0.1254(3) 0.0260(9) Uani 1 1 d .
H12A H 0.5312 0.6455 0.0793 0.039 Uiso 1 1 calc GR
H12B H 0.4935 0.4897 0.1394 0.039 Uiso 1 1 calc GR
H12C H 0.3857 0.6324 0.1958 0.039 Uiso 1 1 calc GR
C13 C 0.1508(6) 0.7361(4) 0.0426(3) 0.0178(8) Uani 1 1 d .
C14 C 0.2108(6) 0.8632(4) 0.0574(3) 0.0175(7) Uani 1 1 d .
H14 H 0.3327 0.8607 0.0894 0.021 Uiso 1 1 calc R
C15 C 0.0898(6) 0.9980(4) 0.0247(3) 0.0159(7) Uani 1 1 d .
C16 C 0.1461(6) 1.1322(4) 0.0376(3) 0.0182(8) Uani 1 1 d .
H16 H 0.2678 1.1323 0.0688 0.022 Uiso 1 1 calc R
C17 C 0.0287(6) 1.2602(4) 0.0058(3) 0.0178(8) Uani 1 1 d .
H17 H 0.0683 1.3483 0.0164 0.021 Uiso 1 1 calc R
O3 O 0.0662(4) 0.5925(2) 0.61255(18) 0.0149(5) Uani 1 1 d .
C6 C 0.0175(6) 0.5732(4) 0.7310(3) 0.0202(8) Uani 1 1 d .
H6A H -0.1270 0.6165 0.7528 0.030 Uiso 1 1 calc GR
H6B H 0.1092 0.6203 0.7637 0.030 Uiso 1 1 calc GR
H6C H 0.0373 0.4697 0.7570 0.030 Uiso 1 1 calc GR
C7 C 0.0916(5) 0.7457(3) 0.4466(3) 0.0124(7) Uani 1 1 d .
H7 H 0.1306 0.6613 0.4094 0.015 Uiso 1 1 calc R
C8 C 0.0460(5) 0.7327(3) 0.5629(3) 0.0109(7) Uani 1 1 d .
C9 C -0.0116(5) 0.8526(3) 0.6185(3) 0.0101(6) Uani 1 1 d .
H9 H -0.0432 0.8425 0.6967 0.012 Uiso 1 1 calc R
C10 C -0.0238(5) 0.9929(3) 0.5580(3) 0.0099(6) Uani 1 1 d .
C11 C -0.0798(5) 1.1203(3) 0.6125(3) 0.0119(7) Uani 1 1 d .
H11 H -0.1093 1.1123 0.6907 0.014 Uiso 1 1 calc R
loop_
_atom_site_aniso_label
_atom_site_aniso_U_11
_atom_site_aniso_U_22
_atom_site_aniso_U_33
_atom_site_aniso_U_23
_atom_site_aniso_U_13
_atom_site_aniso_U_12
I1 0.01562(13) 0.01641(13) 0.01196(13) 0.00045(8) -0.00239(8) -0.00262(8)
O1 0.0315(15) 0.0168(12) 0.0172(13) -0.0085(10) 0.0026(11) -0.0047(11)
O2 0.0240(14) 0.0096(11) 0.0205(13) 0.0020(10) 0.0013(11) -0.0029(10)
N1 0.0177(15) 0.0047(12) 0.0210(15) -0.0054(11) 0.0012(12) -0.0024(11)
C1 0.0085(17) 0.0125(16) 0.0195(19) -0.0066(13) -0.0009(14) -0.0015(13)
C2 0.0065(16) 0.0084(15) 0.0229(18) -0.0027(14) -0.0010(14) -0.0007(13)
C3 0.0060(15) 0.0099(15) 0.0131(16) -0.0029(12) -0.0013(13) -0.0017(12)
C4 0.0043(15) 0.0094(16) 0.0162(16) -0.0007(13) -0.0044(13) -0.0024(12)
C5 0.0049(15) 0.0119(15) 0.0110(15) -0.0004(12) -0.0029(13) -0.0018(12)
O5 0.0206(14) 0.0190(12) 0.0203(12) 0.0031(10) -0.0025(11) -0.0020(10)
C12 0.024(2) 0.026(2) 0.027(2) 0.0068(16) -0.0094(17) -0.0028(17)
C13 0.0189(19) 0.0223(18) 0.0095(16) 0.0009(13) 0.0038(14) -0.0031(15)
C14 0.0148(18) 0.0277(19) 0.0099(16) -0.0007(14) -0.0008(14) -0.0053(15)
C15 0.0156(18) 0.0230(18) 0.0088(15) -0.0023(13) 0.0008(13) -0.0045(14)
C16 0.0155(18) 0.0269(19) 0.0139(17) -0.0032(14) -0.0016(14) -0.0074(15)
C17 0.0199(19) 0.0215(18) 0.0127(16) -0.0019(13) 0.0014(15) -0.0087(15)
O3 0.0178(13) 0.0062(10) 0.0182(12) 0.0009(9) 0.0003(10) 0.0002(9)
C6 0.024(2) 0.0140(17) 0.0178(18) 0.0041(13) 0.0029(15) -0.0006(15)
C7 0.0074(16) 0.0108(15) 0.0200(17) -0.0052(13) -0.0016(13) -0.0021(13)
C8 0.0038(15) 0.0109(16) 0.0174(17) 0.0015(13) -0.0020(13) -0.0017(12)
C9 0.0046(15) 0.0127(16) 0.0125(16) -0.0004(12) -0.0017(13) -0.0006(12)
C10 0.0031(15) 0.0121(16) 0.0151(16) -0.0009(12) -0.0033(12) -0.0013(12)
C11 0.0077(16) 0.0130(16) 0.0151(16) -0.0044(13) -0.0015(13) 0.0000(13)
loop_
_atom_type_symbol
_atom_type_description
_atom_type_scat_dispersion_real
_atom_type_scat_dispersion_imag
_atom_type_scat_source
C C 0.0181 0.0091 'International Tables Vol C Tables 4.2.6.8 and 6.1.1.4'
H H 0.0000 0.0000 'International Tables Vol C Tables 4.2.6.8 and 6.1.1.4'
I I -0.3257 6.8362 'International Tables Vol C Tables 4.2.6.8 and 6.1.1.4'
N N 0.0311 0.0180 'International Tables Vol C Tables 4.2.6.8 and 6.1.1.4'
O O 0.0492 0.0322 'International Tables Vol C Tables 4.2.6.8 and 6.1.1.4'
loop_
_geom_angle_atom_site_label_1
_geom_angle_atom_site_label_2
_geom_angle_atom_site_label_3
_geom_angle
_geom_angle_site_symmetry_1
_geom_angle_site_symmetry_3
C1 N1 H1 123.0 . .
C2 N1 H1 123.0 . .
C2 N1 C1 114.0(3) . .
O1 C1 N1 125.6(3) . .
O1 C1 C3 129.5(3) . .
N1 C1 C3 105.0(3) . .
O2 C2 N1 125.9(3) . .
O2 C2 C4 128.7(3) . .
N1 C2 C4 105.4(3) . .
C4 C3 C1 107.9(3) . .
C5 C3 C1 129.5(3) 2_676 .
C5 C3 C4 122.6(3) 2_676 .
C3 C4 C2 107.8(3) . .
C5 C4 C2 130.3(3) . .
C5 C4 C3 121.9(3) . .
C3 C5 I1 121.7(2) 2_676 .
C3 C5 C4 115.5(3) 2_676 .
C4 C5 I1 122.9(2) . .
C13 O5 C12 116.9(3) . .
O5 C12 H12A 109.5 . .
O5 C12 H12B 109.5 . .
O5 C12 H12C 109.5 . .
H12A C12 H12B 109.5 . .
H12A C12 H12C 109.5 . .
H12B C12 H12C 109.5 . .
O5 C13 C14 124.9(3) . .
O5 C13 C17 115.0(3) . 2_575
C14 C13 C17 120.1(3) . 2_575
C13 C14 H14 120.1 . .
C13 C14 C15 119.8(3) . .
C15 C14 H14 120.1 . .
C14 C15 C16 121.9(3) . .
C15 C15 C14 120.2(4) 2_575 .
C15 C15 C16 117.9(4) 2_575 .
C15 C16 H16 119.4 . .
C17 C16 C15 121.2(3) . .
C17 C16 H16 119.4 . .
C13 C17 H17 119.6 2_575 .
C16 C17 C13 120.8(3) . 2_575
C16 C17 H17 119.6 . .
C8 O3 C6 116.7(2) . .
O3 C6 H6A 109.5 . .
O3 C6 H6B 109.5 . .
O3 C6 H6C 109.5 . .
H6A C6 H6B 109.5 . .
H6A C6 H6C 109.5 . .
H6B C6 H6C 109.5 . .
C8 C7 H7 120.0 . .
C11 C7 H7 120.0 2_576 .
C11 C7 C8 120.1(3) 2_576 .
O3 C8 C7 114.5(3) . .
C9 C8 O3 124.5(3) . .
C9 C8 C7 121.0(3) . .
C8 C9 H9 120.3 . .
C8 C9 C10 119.5(3) . .
C10 C9 H9 120.3 . .
C10 C10 C9 120.0(3) 2_576 .
C10 C10 C11 118.7(4) 2_576 .
C11 C10 C9 121.3(3) . .
C7 C11 C10 120.7(3) 2_576 .
C7 C11 H11 119.6 2_576 .
C10 C11 H11 119.6 . .
loop_
_geom_bond_atom_site_label_1
_geom_bond_atom_site_label_2
_geom_bond_distance
_geom_bond_site_symmetry_2
I1 C5 2.082(3) .
O1 C1 1.201(4) .
O2 C2 1.210(4) .
N1 H1 0.8800 .
N1 C1 1.389(4) .
N1 C2 1.375(4) .
C1 C3 1.505(4) .
C2 C4 1.505(4) .
C3 C4 1.396(4) .
C3 C5 1.385(4) 2_676
C4 C5 1.392(4) .
C5 C3 1.385(4) 2_676
O5 C12 1.419(5) .
O5 C13 1.370(4) .
C12 H12A 0.9800 .
C12 H12B 0.9800 .
C12 H12C 0.9800 .
C13 C14 1.378(5) .
C13 C17 1.408(6) 2_575
C14 H14 0.9500 .
C14 C15 1.422(5) .
C15 C15 1.416(8) 2_575
C15 C16 1.423(5) .
C16 H16 0.9500 .
C16 C17 1.360(5) .
C17 C13 1.408(6) 2_575
C17 H17 0.9500 .
O3 C6 1.440(4) .
O3 C8 1.375(4) .
C6 H6A 0.9800 .
C6 H6B 0.9800 .
C6 H6C 0.9800 .
C7 H7 0.9500 .
C7 C8 1.412(5) .
C7 C11 1.371(5) 2_576
C8 C9 1.370(4) .
C9 H9 0.9500 .
C9 C10 1.427(4) .
C10 C10 1.410(6) 2_576
C10 C11 1.422(4) .
C11 C7 1.371(5) 2_576
C11 H11 0.9500 .
loop_
_geom_torsion_atom_site_label_1
_geom_torsion_atom_site_label_2
_geom_torsion_atom_site_label_3
_geom_torsion_atom_site_label_4
_geom_torsion
_geom_torsion_site_symmetry_1
_geom_torsion_site_symmetry_4
O1 C1 C3 C4 -179.7(4) . .
O1 C1 C3 C5 1.4(6) . 2_676
O2 C2 C4 C3 -179.7(3) . .
O2 C2 C4 C5 0.3(6) . .
N1 C1 C3 C4 -0.7(4) . .
N1 C1 C3 C5 -179.5(3) . 2_676
N1 C2 C4 C3 0.3(4) . .
N1 C2 C4 C5 -179.7(3) . .
C1 N1 C2 O2 179.2(3) . .
C1 N1 C2 C4 -0.8(4) . .
C1 C3 C4 C2 0.2(4) . .
C1 C3 C4 C5 -179.7(3) . .
C2 N1 C1 O1 180.0(3) . .
C2 N1 C1 C3 0.9(4) . .
C2 C4 C5 I1 -1.1(5) . .
C2 C4 C5 C3 -179.2(3) . 2_676
C3 C4 C5 I1 178.8(2) . .
C3 C4 C5 C3 0.7(5) . 2_676
C5 C3 C4 C2 179.2(3) 2_676 .
C5 C3 C4 C5 -0.8(5) 2_676 .
O5 C13 C14 C15 179.6(3) . .
C12 O5 C13 C14 4.7(5) . .
C12 O5 C13 C17 -176.2(3) . 2_575
C13 C14 C15 C15 -1.1(6) . 2_575
C13 C14 C15 C16 -179.5(3) . .
C14 C15 C16 C17 180.0(3) . .
C15 C15 C16 C17 1.5(6) 2_575 .
C15 C16 C17 C13 -1.1(5) . 2_575
C17 C13 C14 C15 0.6(5) 2_575 .
O3 C8 C9 C10 178.9(3) . .
C6 O3 C8 C7 -178.8(3) . .
C6 O3 C8 C9 1.7(5) . .
C7 C8 C9 C10 -0.6(5) . .
C8 C9 C10 C10 -0.1(6) . 2_576
C8 C9 C10 C11 -179.0(3) . .
C9 C10 C11 C7 -179.8(3) . 2_576
C10 C10 C11 C7 1.4(6) 2_576 2_576
C11 C7 C8 O3 -179.2(3) 2_576 .
C11 C7 C8 C9 0.4(5) 2_576 .
loop_
_refln_index_h
_refln_index_k
_refln_index_l
_refln_F_squared_meas
_refln_F_squared_sigma
-1 0 0 77.47 1.14
-2 0 0 275.27 3.98
5 0 0 74.07 1.78
5 0 0 73.71 1.88
6 0 0 37.34 1.21
6 0 0 37.46 1.2
7 0 0 1.99 0.37
7 -1 0 27.95 0.9
6 -1 0 38.75 1.22
5 -1 0 22.48 0.91
-2 1 0 11.49 0.3
1 -1 0 142.82 2.06
-1 1 0 140.68 2.08
0 -1 0 144.96 2.11
0 1 0 146.27 2.11
-1 -1 0 -0.05 0.08
1 1 0 -0.07 0.08
-2 -1 0 22.17 0.42
-3 -1 0 50.74 0.86
5 1 0 39.57 1.16
5 1 0 38.95 1.25
6 1 0 0.81 0.42
6 1 0 0.61 0.37
7 1 0 16.53 0.73
7 1 0 15.59 0.7
7 -2 0 35.77 0.99
6 -2 0 27.32 1.01
6 -2 0 27.02 0.7
5 -2 0 1.57 0.4
4 -2 0 64.4 1.57
2 -2 0 226.35 3.28
-2 2 0 228.03 3.36
1 -2 0 44.63 0.72
-1 2 0 44.32 0.75
0 -2 0 8.88 0.26
0 2 0 8.58 0.26
-1 -2 0 33.53 0.57
1 2 0 33.07 0.57
-2 -2 0 148.37 2.2
2 2 0 145.45 2.16
-3 -2 0 88.24 1.41
6 2 0 13.28 0.78
6 2 0 12.3 0.81
7 2 0 30.39 1.03
6 -3 0 6.39 0.39
6 -3 0 5.53 0.58
5 -3 0 26.74 1.01
4 -3 0 32.44 1.03
4 -3 0 32.38 0.79
2 -3 0 96.61 1.49
-2 3 0 98.37 1.58
1 -3 0 11.44 0.32
-1 3 0 12.07 0.35
0 -3 0 42.39 0.73
0 3 0 41.81 0.74
-1 -3 0 219.37 3.22
1 3 0 215.53 3.21
-2 -3 0 119.12 1.84
2 3 0 118.16 1.81
-3 -3 0 24.02 0.54
6 3 0 43.05 1.41
7 3 0 25.71 0.97
6 -4 0 26.69 0.87
6 -4 0 26.43 0.65
5 -4 0 30.87 1.06
5 -4 0 33.25 0.9
4 -4 0 28.58 0.83
4 -4 0 27.59 0.96
4 -4 0 27.81 0.75
3 -4 0 1.45 0.23
-2 4 0 5.13 0.32
1 -4 0 149.24 2.25
-1 4 0 143.13 2.29
0 -4 0 226.14 3.38
0 4 0 225.67 3.4
-1 -4 0 157.35 2.43
1 4 0 159.82 2.44
-2 -4 0 18.14 0.48
2 4 0 19.75 0.46
-3 -4 0 0.37 0.18
4 4 0 28.18 0.75
5 4 0 90.33 1.74
6 4 0 31.39 1.2
7 4 0 2.82 0.45
5 -5 0 37.67 1.08
5 -5 0 39.06 0.98
4 -5 0 17.28 0.63
4 -5 0 16.71 0.7
3 -5 0 2.59 0.29
3 -5 0 2.22 0.32
2 -5 0 58.84 1.34
2 -5 0 59.41 1.25
-2 5 0 60.28 1.16
1 -5 0 94.88 1.58
-1 5 0 96.29 1.64
0 -5 0 25.29 0.58
0 5 0 24.25 0.6
-1 -5 0 18.84 0.51
1 5 0 18.95 0.51
-2 -5 0 26.79 0.65
2 5 0 28.15 0.62
-3 -5 0 7.64 0.4
3 5 0 7.07 0.48
3 5 0 8.31 0.43
4 5 0 60.58 1.31
5 5 0 23 0.74
6 5 0 0.26 0.42
7 5 0 5.7 0.59
5 -6 0 3.07 0.41
4 -6 0 2 0.29
4 -6 0 1.76 0.32
3 -6 0 40.16 1.03
3 -6 0 36.55 1.07
2 -6 0 74.46 1.57
2 -6 0 72.94 1.65
-2 6 0 73.85 1.46
1 -6 0 42.44 1.06
1 -6 0 42.25 0.87
-1 6 0 42.19 0.94
-1 6 0 41.72 1.05
0 -6 0 30.32 0.69
0 6 0 30.86 0.74
0 6 0 29.6 0.83
1 6 0 29.62 0.82
1 6 0 31.61 0.73
-2 -6 0 59 1.15
2 6 0 57.61 1.31
2 6 0 58.4 1.27
2 6 0 58.21 1.11
-3 -6 0 84 1.55
3 6 0 84.35 1.68
3 6 0 82.31 1.73
3 6 0 83.14 1.85
4 6 0 14.47 0.62
5 6 0 1.63 0.3
6 6 0 14.1 0.81
4 -7 0 6.01 0.51
4 -7 0 5.38 0.41
3 -7 0 46.17 1.23
3 -7 0 46.36 1.15
2 -7 0 1.02 0.35
2 -7 0 1.09 0.3
1 -7 0 33.44 0.96
-1 7 0 33.36 0.97
0 -7 0 65.47 1.27
0 -7 0 66.59 1.5
0 7 0 66.96 1.46
0 7 0 67.44 1.33
-1 -7 0 20.97 0.62
-1 -7 0 21.13 0.79
1 7 0 21.33 0.64
1 7 0 22.12 0.74
1 7 0 22.49 0.77
2 7 0 61.58 1.21
2 7 0 62.77 1.38
2 7 0 60.45 1.43
3 7 0 30.66 0.9
3 7 0 30.13 0.93
4 7 0 0.61 0.28
5 7 0 9.39 0.67
5 7 0 10.24 0.57
6 7 0 36.82 1.12
4 -8 0 31.52 0.72
4 -8 0 31.25 0.84
3 -8 0 5.97 0.57
3 -8 0 5.97 0.48
2 -8 0 3.14 0.38
1 -8 0 22.11 0.82
-1 8 0 20.58 0.8
0 -8 0 115.02 2.33
0 8 0 115.16 2.31
-1 -8 0 5.54 0.57
1 8 0 5.17 0.5
1 8 0 4.76 0.51
2 8 0 10.21 0.61
2 8 0 9.54 0.62
3 8 0 4.62 0.49
3 8 0 5.73 0.51
4 8 0 17.87 0.71
5 8 0 27.33 0.82
3 -9 0 0.17 0.23
3 -9 0 0.54 0.26
2 -9 0 10.83 0.58
1 -9 0 33.17 1.01
-1 9 0 34.51 1.01
0 -9 0 31.96 1.02
0 9 0 32.56 1.01
-1 -9 0 6.97 0.62
1 9 0 8.35 0.58
1 9 0 6.73 0.58
2 9 0 4.42 0.53
2 9 0 3.4 0.4
3 9 0 38.62 1.09
3 9 0 39.03 1
4 9 0 70.31 1.51
5 9 0 25.42 0.7
1 -10 0 16.58 0.67
-1 10 0 15.37 0.62
0 -10 0 2.72 0.41
0 10 0 3.11 0.37
-1 -10 0 1.09 0.33
1 10 0 0.89 0.29
1 10 0 1.38 0.31
2 10 0 15.36 0.67
2 10 0 16.11 0.63
3 10 0 25.93 0.78
3 10 0 23.94 0.66
3 10 -1 3.48 0.4
3 10 -1 3.56 0.33
2 10 -1 0.4 0.25
2 10 -1 0.45 0.24
1 10 -1 13.85 0.61
-1 -10 1 13.86 0.65
0 10 -1 29.08 0.86
0 -10 1 28.54 0.88
-1 10 -1 16.69 0.63
1 -10 1 16.05 0.65
4 9 -1 0.83 0.27
3 9 -1 24.15 0.82
3 9 -1 22.88 0.75
2 9 -1 66.37 1.51
2 9 -1 65.86 1.56
1 9 -1 59 1.42
1 9 -1 60.22 1.46
-1 -9 1 59.07 1.47
0 9 -1 11.77 0.66
0 -9 1 10.74 0.69
-1 9 -1 -0.05 0.27
1 -9 1 -0.01 0.3
2 -9 1 13.44 0.62
5 8 -1 3.78 0.45
4 8 -1 4.27 0.51
3 8 -1 51.63 1.31
3 8 -1 50.35 1.24
2 8 -1 69.94 1.62
2 8 -1 67.86 1.55
1 8 -1 15.79 0.74
1 8 -1 16.37 0.73
-1 -8 1 15.84 0.77
0 8 -1 8.24 0.59
0 -8 1 8.55 0.64
-1 8 -1 11.69 0.65
1 -8 1 10.92 0.64
2 -8 1 44.49 1.16
3 -8 1 38.44 1.07
3 -8 1 38.28 0.98
4 -8 1 4.97 0.43
6 7 -1 0.9 0.35
5 7 -1 13.29 0.63
4 7 -1 42.91 1.13
4 7 -1 39.72 1
3 7 -1 28.31 0.88
3 7 -1 29.04 0.93
2 7 -1 3.61 0.41
2 7 -1 2.49 0.35
1 7 -1 0.45 0.27
1 7 -1 0.54 0.22
1 7 -1 0.15 0.27
-1 -7 1 0.19 0.29
0 7 -1 17.18 0.7
0 -7 1 17.14 0.73
0 -7 1 16.81 0.54
1 -7 1 21.66 0.79
2 -7 1 80.69 1.85
2 -7 1 83.84 1.75
3 -7 1 0.55 0.27
3 -7 1 0.29 0.31
4 -7 1 4.52 0.39
4 -7 1 4.16 0.48
6 6 -1 14.05 0.8
5 6 -1 84.53 1.77
4 6 -1 67.24 1.49
4 6 -1 65.49 1.38
3 6 -1 20.32 0.74
3 6 -1 21.08 0.71
-3 -6 1 21.34 0.67
2 6 -1 -0.09 0.22
2 6 -1 0.25 0.18
2 6 -1 0.25 0.23
-2 -6 1 0.41 0.22
1 6 -1 93.93 1.83
1 6 -1 92.35 1.65
-1 -6 1 95.14 1.63
0 6 -1 87.04 1.74
0 6 -1 87.42 1.57
0 -6 1 87.79 1.52
-1 6 -1 48.04 1.04
1 -6 1 49.78 1.16
-2 6 -1 3.46 0.36
2 -6 1 3.56 0.48
2 -6 1 3.88 0.44
3 -6 1 25.56 0.87
3 -6 1 27.28 0.81
4 -6 1 5.07 0.42
4 -6 1 5.3 0.52
5 -6 1 61.03 1.29
7 5 -1 24.06 0.9
6 5 -1 5.1 0.68
5 5 -1 53.21 1.26
4 5 -1 0.41 0.23
-4 -5 1 0.35 0.23
3 5 -1 0.66 0.25
3 5 -1 0.51 0.2
3 5 -1 0.67 0.26
-3 -5 1 0.7 0.22
2 5 -1 67.6 1.39
2 5 -1 68.28 1.23
-2 -5 1 70.55 1.25
1 5 -1 64.51 1.15
-1 -5 1 61.93 1.14
0 5 -1 59.4 1.11
0 -5 1 59.2 1.07
-1 5 -1 5.42 0.33
1 -5 1 4.82 0.28
-2 5 -1 16.83 0.55
2 -5 1 17.64 0.61
2 -5 1 17.92 0.65
3 -5 1 39.58 1.04
3 -5 1 40.59 0.99
4 -5 1 83.49 1.75
4 -5 1 81.5 1.61
5 -5 1 14.99 0.59
5 -5 1 14.16 0.67
6 -5 1 -0.13 0.23
7 4 -1 41.12 1.25
6 4 -1 22.8 1.04
5 4 -1 10.74 0.55
4 4 -1 24.15 0.72
-3 -4 1 83.33 1.44
2 4 -1 44.62 0.82
-2 -4 1 42.12 0.83
1 4 -1 1.76 0.19
-1 -4 1 2.16 0.25
0 4 -1 0.16 0.16
0 -4 1 -0.14 0.15
-1 4 -1 35.77 0.74
1 -4 1 37.41 0.7
-2 4 -1 83.67 1.44
3 -4 1 99.73 1.87
3 -4 1 103.53 1.98
4 -4 1 15.96 0.74
4 -4 1 16.04 0.55
4 -4 1 16.56 0.62
5 -4 1 0.03 0.31
5 -4 1 0.04 0.24
6 -4 1 11.56 0.61
7 3 -1 15.37 0.78
6 3 -1 2.02 0.49
5 3 -1 23.59 0.7
4 3 -1 73.48 1.46
-3 -3 1 112.74 1.81
2 3 -1 53.41 0.92
-2 -3 1 53.96 0.94
1 3 -1 10.11 0.33
-1 -3 1 11.32 0.34
0 3 -1 113.46 1.74
0 -3 1 111.26 1.73
-1 3 -1 124.57 1.9
1 -3 1 121.25 1.87
-2 3 -1 221.07 3.32
4 -3 1 -0.36 0.28
5 -3 1 1.77 0.42
5 -3 1 1.93 0.27
6 -3 1 24.24 0.57
6 -3 1 25.6 0.93
7 2 -1 0.86 0.36
6 2 -1 12.54 0.81
5 2 -1 50.75 1.09
-3 -2 1 24.91 0.55
2 2 -1 1.77 0.2
-2 -2 1 1.71 0.22
1 2 -1 198.86 2.96
-1 -2 1 203.01 2.96
0 2 -1 162.99 2.44
0 -2 1 166.86 2.43
-1 2 -1 210.11 3.07
1 -2 1 207.42 3.04
-2 2 -1 14.55 0.36
4 -2 1 92.37 2
5 -2 1 61.79 1.6
6 -2 1 65.08 1.25
6 -2 1 67.9 1.66
7 -2 1 0.88 0.3
7 1 -1 13 0.65
6 1 -1 36.27 1.14
6 1 -1 34.72 1.21
5 1 -1 38.34 1.19
-3 -1 1 26.98 0.57
2 1 -1 93.48 1.42
-2 -1 1 95.08 1.46
1 1 -1 30.54 0.53
-1 -1 1 31.1 0.53
0 1 -1 79.08 1.16
0 -1 1 75.88 1.15
-1 1 -1 4.45 0.16
-2 1 -1 1.34 0.15
5 -1 1 45.28 1.37
5 -1 1 42.98 1.25
6 -1 1 6.2 0.65
6 -1 1 5.51 0.31
7 -1 1 5.21 0.54
7 0 -1 31.54 0.97
6 0 -1 33.51 1.11
5 0 -1 10.27 0.7
5 0 -1 10.86 0.74
-3 0 1 161.96 2.47
2 0 -1 26.84 0.47
-2 0 1 28.79 0.53
1 0 -1 43.17 0.68
-1 0 1 43.22 0.69
0 0 -1 28.42 0.44
0 0 1 28.95 0.44
5 0 1 -0.03 0.32
5 0 1 0.4 0.35
6 0 1 23.34 0.95
6 0 1 22.8 0.94
7 0 1 16.53 0.73
7 -1 -1 5.78 0.52
6 -1 -1 -0.16 0.34
5 -1 -1 20.13 0.9
-3 1 1 72.61 1.22
2 -1 -1 183.44 2.68
-2 1 1 183.54 2.73
1 -1 -1 34.29 0.57
-1 1 1 34 0.59
0 -1 -1 47.96 0.74
0 1 1 48.45 0.75
-1 -1 -1 276.27 3.95
-2 -1 -1 1000 14.26
4 1 1 185.61 3.81
5 1 1 28.7 1.07
5 1 1 28.81 0.97
6 1 1 14.35 0.83
6 1 1 14.11 0.78
7 1 1 50.71 1.29
7 1 1 51.43 1.39
6 -2 -1 1.23 0.4
5 -2 -1 96.59 2.21
4 -2 -1 41.48 1.18
4 -2 -1 39.7 0.91
-3 2 1 29.24 0.64
2 -2 -1 13.84 0.33
-2 2 1 14.21 0.39
1 -2 -1 165.93 2.47
-1 2 1 168.35 2.49
0 -2 -1 101.07 1.5
0 2 1 98.4 1.51
-1 -2 -1 70.67 1.1
1 2 1 71.14 1.09
-2 -2 -1 1.49 0.13
5 2 1 69.09 1.81
6 2 1 21.68 0.87
6 2 1 22.71 1.01
7 2 1 10.83 0.68
6 -3 -1 16.4 0.77
6 -3 -1 17.29 0.58
5 -3 -1 92.51 2.13
4 -3 -1 19.83 0.85
4 -3 -1 20.34 0.62
-3 3 1 0.58 0.18
2 -3 -1 74.04 1.18
-2 3 1 71.22 1.24
1 -3 -1 145.12 2.21
-1 3 1 146.6 2.24
0 -3 -1 313.34 4.56
0 3 1 311.44 4.57
-1 -3 -1 64.93 1.04
1 3 1 62.4 1.03
-2 -3 -1 0.36 0.14
2 3 1 0.24 0.11
-3 -3 -1 88.82 1.43
5 3 1 28.4 1.08
6 3 1 2.7 0.54
7 3 1 3.07 0.46
6 -4 -1 26.68 0.69
6 -4 -1 26.38 0.85
5 -4 -1 6.46 0.62
5 -4 -1 6.07 0.5
4 -4 -1 3.25 0.4
4 -4 -1 3.68 0.53
3 -4 -1 31.32 0.83
-3 4 1 32.94 0.79
2 -4 -1 12.07 0.37
-2 4 1 12.71 0.44
1 -4 -1 78.71 1.27
-1 4 1 73.61 1.3
0 -4 -1 4.12 0.26
0 4 1 3.82 0.27
-1 -4 -1 1.12 0.18
1 4 1 1.43 0.18
-2 -4 -1 167.67 2.61
2 4 1 173.6 2.57
-3 -4 -1 77.83 1.32
4 4 1 41.09 0.92
5 4 1 10.31 0.77
6 4 1 4.44 0.67
7 4 1 25.28 0.97
5 -5 -1 17.82 0.67
5 -5 -1 17.08 0.73
4 -5 -1 56.08 1.35
4 -5 -1 58.47 1.26
4 -5 -1 54.91 1.43
3 -5 -1 74.85 1.54
3 -5 -1 76.31 1.64
-3 5 1 72.69 1.46
2 -5 -1 83.71 1.64
2 -5 -1 80.72 1.73
-2 5 1 83.61 1.51
1 -5 -1 -0.01 0.15
-1 5 1 0.17 0.17
0 -5 -1 37.53 0.76
0 5 1 38.24 0.79
1 5 1 145.13 2.29
-2 -5 -1 120.42 1.95
2 5 1 118.78 1.9
-3 -5 -1 59.14 1.11
3 5 1 56.94 1.18
3 5 1 58 1.32
4 5 1 3.06 0.41
4 5 1 4.09 0.39
5 5 1 2.39 0.49
5 5 1 1.6 0.26
6 5 1 54 1.6
7 5 1 24.47 0.92
5 -6 -1 26.57 0.77
4 -6 -1 56.78 1.3
4 -6 -1 60.77 1.4
3 -6 -1 34.14 1.03
3 -6 -1 36.39 0.97
2 -6 -1 1.19 0.27
2 -6 -1 1.63 0.35
-2 6 1 1.39 0.25
1 -6 -1 15.88 0.61
1 -6 -1 15.93 0.49
-1 6 1 15.49 0.55
-1 6 1 15.66 0.63
0 -6 -1 77.21 1.37
0 6 1 74.99 1.56
0 6 1 79.3 1.41
-1 -6 -1 62.36 1.18
1 6 1 62.3 1.17
1 6 1 64.17 1.32
-2 -6 -1 30.84 0.75
2 6 1 31.47 0.86
2 6 1 31.76 0.7
2 6 1 32.6 0.84
-3 -6 -1 0.55 0.22
3 6 1 -0.09 0.22
3 6 1 0.23 0.25
3 6 1 0.21 0.22
4 6 1 33.01 0.93
4 6 1 34.42 1.01
5 6 1 21.8 0.97
5 6 1 22.96 0.74
6 6 1 43.46 1.35
4 -7 -1 50.53 1.22
4 -7 -1 49.32 1.11
3 -7 -1 4.75 0.5
3 -7 -1 4.51 0.44
2 -7 -1 0.61 0.31
1 -7 -1 43.07 1.16
-1 7 1 44.25 1.14
0 -7 -1 50.39 1.23
0 -7 -1 48.68 1.02
0 7 1 50.25 1.08
0 7 1 50.53 1.2
-1 -7 -1 45.23 0.98
1 7 1 45.66 1.11
1 7 1 44.28 0.98
1 7 1 45.19 1.15
-2 -7 -1 0.76 0.22
2 7 1 0.52 0.26
2 7 1 0.5 0.23
3 7 1 24.52 0.81
3 7 1 25.93 0.79
3 7 1 24.59 0.92
4 7 1 32.16 0.96
5 7 1 42.35 1.07
6 7 1 2.6 0.41
4 -8 -1 1.61 0.23
4 -8 -1 1.83 0.29
3 -8 -1 16.08 0.71
3 -8 -1 15.57 0.64
2 -8 -1 18.66 0.75
1 -8 -1 37.63 1.08
-1 8 1 34.58 1.04
0 -8 -1 0.3 0.32
0 8 1 0.62 0.29
1 8 1 0.9 0.3
1 8 1 0.64 0.27
2 8 1 80.13 1.72
2 8 1 83.88 1.81
3 8 1 7.32 0.57
3 8 1 7.62 0.54
4 8 1 39.73 1.07
5 8 1 3.42 0.43
3 -9 -1 25.59 0.7
2 -9 -1 43.06 1.09
1 -9 -1 2.4 0.36
-1 9 1 2.49 0.38
0 -9 -1 3.45 0.44
0 9 1 3.83 0.51
1 9 1 44.28 1.18
1 9 1 43.38 1.21
2 9 1 48.68 1.29
2 9 1 49.24 1.22
3 9 1 11.53 0.56
3 9 1 11.16 0.63
4 9 1 3.25 0.34
5 9 1 23.06 0.66
1 -10 -1 1.59 0.31
-1 10 1 2.08 0.31
0 -10 -1 17.09 0.72
0 10 1 18.01 0.7
1 10 1 17.61 0.69
1 10 1 19.32 0.75
2 10 1 20.72 0.72
2 10 1 22.34 0.79
3 10 1 1.12 0.23
3 10 1 2.34 0.33
4 10 1 5.63 0.42
3 10 -2 24.1 0.71
3 10 -2 21.66 0.62
2 10 -2 26.55 0.8
2 10 -2 26.98 0.77
1 10 -2 18.03 0.67
-1 -10 2 18.32 0.71
0 10 -2 1.11 0.3
0 -10 2 1.33 0.31
1 -10 2 5.14 0.44
4 9 -2 8.03 0.5
3 9 -2 29.15 0.9
3 9 -2 28.46 0.83
2 9 -2 8.11 0.57
2 9 -2 7.35 0.55
1 9 -2 0.37 0.31
-1 -9 2 -0.66 0.29
0 9 -2 11.34 0.66
0 -9 2 11.51 0.7
-1 9 -2 27.4 0.89
1 -9 2 27.09 0.91
2 -9 2 16.09 0.64
5 8 -2 46.57 1.09
4 8 -2 23.45 0.8
3 8 -2 20.87 0.8
3 8 -2 23.17 0.8
2 8 -2 2.34 0.37
2 8 -2 2.29 0.39
1 8 -2 78.37 1.71
1 8 -2 75.98 1.74
-1 -8 2 73.93 1.74
0 8 -2 85.76 1.9
0 -8 2 90.31 1.95
1 -8 2 66.48 1.55
2 -8 2 15.59 0.69
2 -8 2 15.57 0.78
3 -8 2 0.19 0.27
3 -8 2 0.21 0.3
6 7 -2 27.14 0.92
6 7 -2 27.36 0.66
5 7 -2 34.93 0.97
4 7 -2 10.2 0.63
4 7 -2 11.16 0.56
3 7 -2 0.37 0.3
3 7 -2 0.02 0.26
2 7 -2 19 0.78
2 7 -2 19 0.77
1 7 -2 49.74 1.29
1 7 -2 52.62 1.26
-1 -7 2 50.37 1.32
0 7 -2 10.29 0.59
0 -7 2 9.8 0.62
1 -7 2 20.86 0.79
2 -7 2 0.42 0.32
2 -7 2 0.04 0.27
3 -7 2 19.75 0.71
3 -7 2 19.36 0.8
4 -7 2 47.56 1.16
6 6 -2 21.98 0.65
6 6 -2 23.78 0.95
5 6 -2 2.33 0.36
4 6 -2 13.45 0.67
4 6 -2 13.34 0.6
3 6 -2 65.3 1.49
3 6 -2 66.54 1.46
2 6 -2 105.29 2.09
2 6 -2 101.01 2.02
2 6 -2 101.82 1.8
-2 -6 2 104.31 1.82
1 6 -2 36.56 0.97
1 6 -2 36.3 0.84
-1 -6 2 36.21 0.82
-1 -6 2 34.01 1
0 6 -2 5.17 0.38
0 6 -2 5.69 0.45
0 -6 2 5.11 0.32
0 -6 2 5 0.48
-1 6 -2 11.47 0.49
1 -6 2 12.66 0.56
2 -6 2 53.2 1.24
2 -6 2 56.19 1.34
3 -6 2 20.97 0.79
3 -6 2 23.33 0.74
4 -6 2 25.81 0.82
4 -6 2 24.72 0.76
5 -6 2 3.01 0.39
6 5 -2 0.09 0.43
6 5 -2 -0.28 0.22
5 5 -2 5.19 0.51
4 5 -2 15.28 0.65
3 5 -2 135.37 2.49
3 5 -2 137.65 2.56
-3 -5 2 139.29 2.3
2 5 -2 57.23 1.1
2 5 -2 59.27 1.26
-2 -5 2 58.18 1.12
1 5 -2 33.89 0.75
-1 -5 2 33.87 0.74
0 5 -2 7.62 0.37
-1 5 -2 132.19 2.17
1 -5 2 130.18 2.07
-2 5 -2 55.17 1.09
2 -5 2 51.53 1.15
2 -5 2 52.06 1.23
3 -5 2 40.09 0.97
3 -5 2 41.71 1.05
4 -5 2 -0.29 0.23
5 -5 2 12.34 0.64
5 -5 2 12.61 0.54
7 4 -2 0.8 0.37
6 4 -2 21.96 0.66
5 4 -2 44.28 1.1
4 4 -2 51.39 1.18
-4 -4 2 50.04 1.07
3 4 -2 65.06 1.31
-3 -4 2 64.28 1.21
2 4 -2 34.99 0.73
-2 -4 2 34.08 0.74
1 4 -2 9.4 0.37
-1 -4 2 9.16 0.36
0 4 -2 162.34 2.56
0 -4 2 167.78 2.53
-1 4 -2 3.69 0.28
1 -4 2 4.04 0.25
-2 4 -2 48.49 0.94
3 -4 2 0.75 0.23
3 -4 2 0.77 0.21
4 -4 2 23.91 0.86
4 -4 2 25.09 0.75
5 -4 2 49.44 1.33
5 -4 2 49.57 1.1
6 -4 2 35.88 1.02
7 3 -2 9.52 0.65
6 3 -2 34.41 1.26
4 3 -2 33.4 0.88
-4 -3 2 34.48 0.79
3 3 -2 0.08 0.15
-3 -3 2 -0.12 0.17
2 3 -2 68.22 1.14
-2 -3 2 66.46 1.16
1 3 -2 101.93 1.64
-1 -3 2 104.87 1.63
0 3 -2 68.94 1.12
0 -3 2 65.81 1.1
-1 3 -2 1.17 0.17
1 -3 2 0.8 0.14
-2 3 -2 5.21 0.28
3 -3 2 102.92 1.91
4 -3 2 104.72 2.24
4 -3 2 106.92 1.99
5 -3 2 27.47 0.98
5 -3 2 26.97 0.72
6 -3 2 8.21 0.62
7 2 -2 26.79 0.93
6 2 -2 63.37 1.75
5 2 -2 5.97 0.42
4 2 -2 1.11 0.24
-3 -2 2 42.04 0.82
2 2 -2 97.9 1.54
-2 -2 2 97.21 1.56
1 2 -2 215.1 3.19
-1 -2 2 216.81 3.19
0 2 -2 76.09 1.19
0 -2 2 74.5 1.17
-1 2 -2 0.87 0.13
1 -2 2 0.69 0.11
-2 2 -2 79.85 1.26
4 -2 2 58.97 1.44
5 -2 2 0.83 0.2
5 -2 2 1.41 0.38
6 -2 2 0.17 0.34
7 -2 2 19.82 0.73
7 1 -2 16.67 0.7
6 1 -2 9.78 0.72
6 1 -2 9.7 0.71
5 1 -2 19.05 0.87
5 1 -2 19.65 0.62
-3 -1 2 149.57 2.33
2 1 -2 97.93 1.54
-2 -1 2 102.06 1.57
1 1 -2 1.91 0.2
-1 -1 2 1.6 0.21
0 1 -2 26.07 0.46
0 -1 2 25.81 0.46
-1 1 -2 180.11 2.62
-2 1 -2 129.79 1.91
4 -1 2 10.37 0.59
5 -1 2 6.99 0.63
5 -1 2 6.21 0.56
6 -1 2 55.13 1.48
7 -1 2 35.84 1.03
7 0 -2 0.49 0.3
6 0 -2 6.53 0.66
5 0 -2 46.65 1.03
5 0 -2 47.14 1.34
5 0 -2 43.9 1.35
-3 0 2 99.25 1.63
2 0 -2 6.12 0.25
-2 0 2 6.29 0.29
1 0 -2 297.92 4.32
-1 0 2 297.33 4.32
0 0 -2 4.05 0.16
0 0 2 4.03 0.17
4 0 2 43.98 1.24
4 0 2 47.45 1.39
5 0 2 62.59 1.66
5 0 2 63.82 1.58
6 0 2 20.87 0.89
6 0 2 22.78 0.93
7 0 2 8.54 0.6
7 -1 -2 1.32 0.32
6 -1 -2 23.53 0.96
5 -1 -2 41.6 1.27
5 -1 -2 40.15 0.95
4 -1 -2 20.86 0.61
-3 1 2 0.62 0.18
2 -1 -2 30.43 0.57
-2 1 2 31.45 0.62
1 -1 -2 167.05 2.49
-1 1 2 170.28 2.51
0 -1 -2 26.1 0.45
0 1 2 26.47 0.47
-1 -1 -2 275.93 3.96
4 1 2 375.6 7.31
4 1 2 381.59 7.77
5 1 2 57.29 1.44
5 1 2 56.4 1.59
6 1 2 44.86 1.41
6 1 2 48.1 1.32
7 1 2 0.51 0.34
7 1 2 0.39 0.32
6 -2 -2 24.34 0.94
5 -2 -2 3.07 0.49
5 -2 -2 2.85 0.3
4 -2 -2 3.27 0.36
4 -2 -2 4.27 0.57
-3 2 2 78.72 1.37
2 -2 -2 174.28 2.59
-2 2 2 170.75 2.64
1 -2 -2 96.3 1.5
-1 2 2 97.5 1.52
0 -2 -2 227.08 3.3
0 2 2 224.8 3.31
-1 -2 -2 18.94 0.38
1 2 2 19.12 0.37
-2 -2 -2 3.87 0.19
4 2 2 88.91 2.17
4 2 2 90.32 2.05
5 2 2 23.27 0.97
5 2 2 23.87 0.84
6 2 2 14.78 0.74
6 2 2 13.34 0.84
7 2 2 15.03 0.75
6 -3 -2 1.99 0.39
6 -3 -2 1.11 0.26
5 -3 -2 1.66 0.27
5 -3 -2 1.45 0.41
4 -3 -2 15.96 0.59
4 -3 -2 15.12 0.77
-3 3 2 212.82 3.32
2 -3 -2 30.81 0.61
-2 3 2 28.82 0.66
1 -3 -2 28.77 0.58
-1 3 2 29.15 0.61
0 -3 -2 186.97 2.74
0 3 2 178.69 2.74
-1 -3 -2 181.29 2.7
1 3 2 181.57 2.7
-2 -3 -2 230.04 3.38
2 3 2 227.48 3.31
4 3 2 2.8 0.28
4 3 2 2.85 0.41
5 3 2 17.07 0.86
6 3 2 44.32 1.44
7 3 2 27.35 1
6 -4 -2 2.83 0.36
6 -4 -2 3.57 0.37
5 -4 -2 25.52 0.72
5 -4 -2 26.75 0.96
4 -4 -2 67.73 1.69
4 -4 -2 67.38 1.45
3 -4 -2 66.59 1.38
3 -4 -2 64.79 1.57
-3 4 2 65.79 1.29
2 -4 -2 4.95 0.29
-2 4 2 4.33 0.33
1 -4 -2 1.01 0.18
-1 4 2 0.88 0.19
0 -4 -2 38.42 0.74
0 4 2 38.32 0.75
1 4 2 53 0.93
-2 -4 -2 171.85 2.6
2 4 2 167.33 2.54
-3 -4 -2 10.99 0.36
4 4 2 19.04 0.61
5 4 2 44.89 1.38
6 4 2 37.77 1.31
7 4 2 13.32 0.75
5 -5 -2 37.57 0.99
5 -5 -2 35.22 0.86
5 -5 -2 36.57 1.06
4 -5 -2 13.25 0.58
4 -5 -2 12.35 0.64
4 -5 -2 12.29 0.68
3 -5 -2 0.48 0.24
2 -5 -2 26.83 0.78
-2 5 2 25.59 0.7
1 -5 -2 60.49 1.12
-1 5 2 62.87 1.17
0 -5 -2 68.73 1.21
0 5 2 68.63 1.23
-1 -5 -2 14.02 0.43
1 5 2 14.22 0.43
-2 -5 -2 2.17 0.27
2 5 2 2.02 0.23
-3 -5 -2 38.6 0.81
3 5 2 38 0.89
3 5 2 37.98 0.97
4 5 2 94.22 1.8
4 5 2 93.3 2.19
4 5 2 93.07 1.92
5 5 2 21.27 0.95
6 5 2 40.75 1.35
7 5 2 0.68 0.35
5 -6 -2 1.63 0.27
4 -6 -2 -0.01 0.23
4 -6 -2 0.1 0.29
3 -6 -2 32.77 1.03
3 -6 -2 37.2 0.99
2 -6 -2 90.09 1.84
1 -6 -2 135.78 2.23
1 -6 -2 138.49 2.55
-1 6 2 138.3 2.3
-1 6 2 133.11 2.5
0 -6 -2 58.68 1.11
0 6 2 56.84 1.26
0 6 2 58.02 1.14
-1 -6 -2 0.69 0.19
1 6 2 1.22 0.24
1 6 2 0.95 0.2
2 6 2 29.98 0.8
2 6 2 29.18 0.81
2 6 2 29.95 0.68
-3 -6 -2 82.72 1.49
3 6 2 82.14 1.6
3 6 2 80.57 1.66
3 6 2 81.8 1.77
4 6 2 47.87 1.16
4 6 2 50.75 1.27
5 6 2 18.67 0.88
5 6 2 17.12 0.63
6 6 2 -0.01 0.36
7 6 2 4.76 0.48
4 -7 -2 17.08 0.61
4 -7 -2 17.52 0.69
3 -7 -2 52.07 1.35
3 -7 -2 53.17 1.28
2 -7 -2 68.38 1.55
1 -7 -2 1.97 0.34
-1 7 2 1.74 0.31
0 -7 -2 0.84 0.21
0 -7 -2 0.97 0.31
0 7 2 1.04 0.28
0 7 2 1.1 0.3
0 7 2 0.63 0.21
-1 -7 -2 24.9 0.67
1 7 2 23.83 0.75
1 7 2 23.86 0.8
1 7 2 23.5 0.66
-2 -7 -2 77.21 1.48
2 7 2 79.14 1.67
2 7 2 78.48 1.6
3 7 2 46.32 1.1
3 7 2 46.57 1.15
3 7 2 45.89 1.26
4 7 2 17.27 0.69
4 7 2 14.94 0.73
5 7 2 6.5 0.48
6 7 2 22.56 0.83
3 -8 -2 30.07 0.87
2 -8 -2 17.8 0.74
-2 8 2 19.42 0.76
1 -8 -2 13.51 0.7
-1 8 2 12.81 0.66
0 -8 -2 4.4 0.54
0 8 2 4.75 0.49
0 8 2 4.41 0.48
1 8 2 90.68 1.87
1 8 2 89.35 1.92
2 8 2 4.99 0.49
2 8 2 6 0.51
3 8 2 13.76 0.66
3 8 2 14.31 0.62
4 8 2 10.2 0.63
4 8 2 10.58 0.59
5 8 2 7.95 0.49
2 -9 -2 10.96 0.56
-2 9 2 11.12 0.56
1 -9 -2 22.66 0.83
-1 9 2 21.63 0.81
0 -9 -2 57.19 1.42
0 9 2 60.45 1.43
1 9 2 22.75 0.84
1 9 2 23.04 0.81
2 9 2 0.37 0.28
2 9 2 1 0.29
3 9 2 11 0.61
3 9 2 10.08 0.52
4 9 2 42.99 1.08
5 9 2 11.2 0.47
1 -10 -2 29.77 0.85
-1 10 2 28.17 0.81
0 -10 -2 20.8 0.77
0 10 2 19.88 0.72
1 10 2 -0.01 0.24
1 10 2 0.78 0.29
2 10 2 3.15 0.41
2 10 2 3.76 0.4
3 10 2 30.38 0.89
4 10 2 30.83 0.79
2 10 -3 0.79 0.25
2 10 -3 1.35 0.27
1 10 -3 6.79 0.46
-1 -10 3 7.73 0.53
0 10 -3 26.48 0.79
0 -10 3 28.49 0.82
4 9 -3 16.11 0.61
3 9 -3 1.66 0.29
3 9 -3 1.18 0.31
2 9 -3 10.42 0.62
2 9 -3 10.68 0.59
1 9 -3 33.55 1.02
-1 -9 3 34.71 1.05
0 9 -3 31.3 0.97
0 -9 3 30.32 0.97
1 -9 3 10.71 0.62
2 -9 3 -0.16 0.25
2 -9 3 0.29 0.28
5 8 -3 3.39 0.38
4 8 -3 1.81 0.33
3 8 -3 20.5 0.8
3 8 -3 20.81 0.76
2 8 -3 11.27 0.64
2 8 -3 11.48 0.66
1 8 -3 58.64 1.45
-1 -8 3 59.29 1.48
0 8 -3 0.49 0.33
0 -8 3 0.14 0.33
1 -8 3 11.18 0.67
2 -8 3 37.86 1.04
2 -8 3 38.45 1.13
3 -8 3 36.87 0.91
3 -8 3 38.01 1.02
5 7 -3 11.05 0.59
4 7 -3 51.67 1.31
3 7 -3 75.22 1.64
3 7 -3 73.87 1.7
2 7 -3 60.74 1.49
2 7 -3 62.76 1.47
1 7 -3 39.72 1.11
-1 -7 3 37.23 1.12
0 7 -3 19.79 0.78
0 -7 3 20.05 0.83
1 -7 3 38.26 1.08
2 -7 3 61.04 1.52
2 -7 3 62.33 1.43
3 -7 3 60.68 1.45
3 -7 3 59.51 1.34
4 -7 3 11 0.56
6 6 -3 5.08 0.38
6 6 -3 6.19 0.6
5 6 -3 31.45 0.95
4 6 -3 43.91 1.18
3 6 -3 28.95 0.93
3 6 -3 31.04 0.92
2 6 -3 0.19 0.21
2 6 -3 0.56 0.27
2 6 -3 0.2 0.26
-2 -6 3 0.1 0.22
1 6 -3 24.17 0.8
1 6 -3 25.08 0.69
1 6 -3 23.05 0.8
-1 -6 3 25.35 0.84
-1 -6 3 23.75 0.66
0 6 -3 44.12 1.13
0 6 -3 45.89 1.01
0 -6 3 45.07 0.92
0 -6 3 44.25 1.15
-1 6 -3 37.08 0.9
1 -6 3 37.07 1.08
1 -6 3 36.55 0.99
2 -6 3 9.27 0.6
2 -6 3 8.13 0.53
3 -6 3 2.93 0.33
3 -6 3 2.16 0.34
4 -6 3 23.73 0.8
5 -6 3 11.94 0.45
6 5 -3 56.33 1.2
5 5 -3 45.22 1.15
4 5 -3 34.38 1
3 5 -3 0.62 0.25
3 5 -3 0.11 0.25
-3 -5 3 0.38 0.23
2 5 -3 19.02 0.7
2 5 -3 18.41 0.68
2 5 -3 19.16 0.56
-2 -5 3 18.92 0.58
1 5 -3 116.7 1.99
1 5 -3 120.22 2.23
-1 -5 3 119.57 1.97
0 5 -3 140.65 2.29
0 -5 3 139.07 2.22
-1 5 -3 58.5 1.14
-2 5 -3 0.71 0.2
2 -5 3 0.73 0.24
2 -5 3 0.47 0.25
3 -5 3 43.58 1.02
3 -5 3 42.68 1.09
4 -5 3 35.54 0.95
5 -5 3 21.03 0.79
5 -5 3 21.86 0.64
6 4 -3 38.46 0.94
5 4 -3 10.55 0.59
4 4 -3 0.6 0.25
3 4 -3 9.54 0.5
3 4 -3 10.02 0.39
3 4 -3 9.41 0.47
-3 -4 3 9.71 0.45
2 4 -3 49.75 0.98
-2 -4 3 51.21 0.99
1 4 -3 131.11 2.12
-1 -4 3 133.2 2.1
0 4 -3 19.77 0.54
0 -4 3 21.33 0.51
-1 4 -3 1.86 0.21
1 -4 3 1.85 0.18
-2 4 -3 25.59 0.63
2 -4 3 27.43 0.74
3 -4 3 36.17 1.03
3 -4 3 36.52 0.89
3 -4 3 35.48 0.83
4 -4 3 37.12 0.93
4 -4 3 38.3 1.09
5 -4 3 20.78 0.84
5 -4 3 21.01 0.62
6 -4 3 3.87 0.48
6 3 -3 2.93 0.37
5 3 -3 6.56 0.49
4 3 -3 64.7 1.38
-4 -3 3 60.95 1.24
3 3 -3 172.38 2.7
3 3 -3 174.31 2.99
-3 -3 3 172.91 2.74
2 3 -3 166.8 2.57
-2 -3 3 163.64 2.57
1 3 -3 21.27 0.52
-1 -3 3 22.18 0.51
0 3 -3 42.84 0.79
0 -3 3 41.33 0.76
-1 3 -3 76.82 1.28
1 -3 3 76.93 1.21
-2 3 -3 80.09 1.34
3 -3 3 13.31 0.46
3 -3 3 13.21 0.74
4 -3 3 25.74 0.89
4 -3 3 25.9 0.68
5 -3 3 36.05 1.13
5 -3 3 36.31 0.81
6 -3 3 22.09 0.86
6 2 -3 7.72 0.44
6 2 -3 9.31 0.73
5 2 -3 26.2 0.79
4 2 -3 77.4 1.58
-4 -2 3 79.6 1.46
3 2 -3 65.68 1.12
-3 -2 3 64.21 1.19
2 2 -3 3.94 0.26
-2 -2 3 3.48 0.29
1 2 -3 2.82 0.24
-1 -2 3 3.11 0.26
0 2 -3 78.62 1.25
0 -2 3 76.95 1.23
-1 2 -3 192.59 2.86
-2 2 -3 68.64 1.11
3 -2 3 2.4 0.41
4 -2 3 24.5 0.59
4 -2 3 23.99 0.88
4 -2 3 25.15 0.85
5 -2 3 88.67 2.03
5 -2 3 88.42 1.59
6 -2 3 31.63 1.05
7 -2 3 12.69 0.61
7 1 -3 4.4 0.47
6 1 -3 54.42 1.5
6 1 -3 50.45 1.43
5 1 -3 82.9 1.66
5 1 -3 82.48 1.97
4 1 -3 62.95 1.32
-4 -1 3 61.49 1.21
3 1 -3 1.24 0.17
-3 -1 3 1.2 0.21
2 1 -3 1.48 0.17
-2 -1 3 1.12 0.19
1 1 -3 144.32 2.17
-1 -1 3 142.31 2.17
0 1 -3 144.1 2.16
0 -1 3 145.75 2.15
-1 1 -3 69.29 1.07
4 -1 3 45.06 0.87
4 -1 3 45.06 1.23
4 -1 3 48.46 1.43
5 -1 3 50.01 1.35
5 -1 3 49.11 1.38
6 -1 3 13.53 0.76
6 -1 3 15.76 0.79
7 -1 3 -0.16 0.29
7 0 -3 15.74 0.67
6 0 -3 28.13 1.04
5 0 -3 17.2 0.88
5 0 -3 17.34 0.62
4 0 -3 0.27 0.2
-4 0 3 0.03 0.2
3 0 -3 27.75 0.56
-3 0 3 27.25 0.65
2 0 -3 63.57 1.06
-2 0 3 63.89 1.1
1 0 -3 623.95 9
-1 0 3 626.81 9.01
0 0 -3 1.78 0.2
0 0 3 1.03 0.13
-1 0 -3 1.25 0.14
4 0 3 72.42 1.88
4 0 3 71.29 1.71
5 0 3 24.92 0.96
5 0 3 25.56 0.92
6 0 3 0.88 0.38
6 0 3 0.44 0.36
7 0 3 12.84 0.65
7 0 3 10.89 0.65
6 -1 -3 13.53 0.79
5 -1 -3 -0.23 0.37
5 -1 -3 0.12 0.21
4 -1 -3 24.34 0.71
-3 1 3 96.41 1.63
2 -1 -3 117.99 1.83
-2 1 3 117.19 1.87
1 -1 -3 66.48 1.08
-1 1 3 66.6 1.09
0 -1 -3 23.2 0.45
0 1 3 23.09 0.45
-1 -1 -3 101.21 1.5
4 1 3 15.5 0.8
4 1 3 15.2 0.72
5 1 3 15.3 0.71
5 1 3 15.79 0.79
6 1 3 98.36 2.15
6 1 3 95.55 2.34
7 1 3 32.56 0.99
7 1 3 32.59 1.06
6 -2 -3 1.09 0.38
5 -2 -3 8.76 0.49
5 -2 -3 9.01 0.74
4 -2 -3 46.83 1.08
-3 2 3 25.99 0.65
2 -2 -3 0.85 0.15
-2 2 3 0.52 0.18
1 -2 -3 17.88 0.42
-1 2 3 17.99 0.45
0 -2 -3 70.19 1.11
0 2 3 68.59 1.12
-1 -2 -3 152.42 2.27
1 2 3 153.76 2.25
-2 -2 -3 130.27 1.94
4 2 3 37.96 1.12
4 2 3 35.93 1.18
5 2 3 26.72 0.89
5 2 3 28.5 1.06
6 2 3 158.82 3.09
6 2 3 153.9 3.45
7 2 3 15.13 0.75
6 -3 -3 49.98 1.31
5 -3 -3 32.94 1.15
5 -3 -3 33.34 0.87
4 -3 -3 52.98 1.44
4 -3 -3 50.64 1.19
3 -3 -3 3.65 0.33
-3 3 3 4.25 0.36
2 -3 -3 4.89 0.28
-2 3 3 4.24 0.32
1 -3 -3 216.98 3.27
-1 3 3 218.72 3.3
0 -3 -3 175.36 2.66
0 3 3 178.18 2.68
-1 -3 -3 75.29 1.21
1 3 3 75.04 1.2
-2 -3 -3 2.36 0.21
4 3 3 11.82 0.67
4 3 3 12.34 0.68
4 3 3 11.31 0.42
5 3 3 61.17 1.68
6 3 3 12.2 0.81
7 3 3 0.81 0.37
6 -4 -3 19.35 0.7
6 -4 -3 18.97 0.59
5 -4 -3 10.32 0.68
5 -4 -3 9.33 0.49
4 -4 -3 1.24 0.28
4 -4 -3 0.49 0.35
3 -4 -3 12.48 0.54
-3 4 3 11.59 0.51
2 -4 -3 95.27 1.61
-2 4 3 96.95 1.68
1 -4 -3 193.56 2.97
-1 4 3 193.99 3.01
0 -4 -3 45.45 0.84
0 4 3 44.81 0.85
-1 -4 -3 4.63 0.27
1 4 3 5.01 0.27
4 4 3 214.45 3.77
4 4 3 209.72 4.32
5 4 3 32.93 1.17
6 4 3 -0.08 0.39
7 4 3 13.12 0.72
5 -5 -3 1.18 0.32
5 -5 -3 1.57 0.3
5 -5 -3 1.32 0.24
4 -5 -3 18.46 0.79
4 -5 -3 17.06 0.69
3 -5 -3 62.65 1.42
2 -5 -3 51.94 1.09
2 -5 -3 54.68 1.24
-2 5 3 54.97 1.14
1 -5 -3 16.53 0.5
-1 5 3 18.44 0.55
0 -5 -3 0.97 0.19
0 5 3 0.69 0.19
-1 -5 -3 17.79 0.49
1 5 3 17.25 0.47
-2 -5 -3 17.4 0.49
3 5 3 48.51 1.13
4 5 3 20.65 0.63
4 5 3 21.03 0.85
4 5 3 20.74 0.7
5 5 3 9.68 0.72
6 5 3 10.63 0.75
7 5 3 25.37 0.91
5 -6 -3 3.52 0.4
5 -6 -3 4.27 0.31
4 -6 -3 22.88 0.74
4 -6 -3 22.84 0.82
3 -6 -3 24.66 0.88
3 -6 -3 23.79 0.81
2 -6 -3 7.83 0.51
-2 6 3 7.36 0.52
1 -6 -3 3.37 0.34
1 -6 -3 2.95 0.31
-1 6 3 3.37 0.42
-1 6 3 3.37 0.35
0 -6 -3 83.41 1.47
0 6 3 83.12 1.48
0 6 3 79.24 1.63
-1 -6 -3 109.23 1.88
1 6 3 113.48 1.87
1 6 3 112.59 2.07
-2 -6 -3 87.68 1.54
2 6 3 89.21 1.68
2 6 3 85.67 1.85
2 6 3 85.39 1.73
-3 -6 -3 2.27 0.26
3 6 3 1.97 0.26
3 6 3 2.42 0.28
3 6 3 1.97 0.3
4 6 3 3.9 0.48
4 6 3 4.45 0.42
5 6 3 46.32 1.38
6 6 3 26.64 0.98
7 6 3 24.24 0.9
4 -7 -3 13.19 0.6
4 -7 -3 12.73 0.56
3 -7 -3 1.48 0.3
2 -7 -3 1.26 0.31
-2 7 3 1.77 0.36
1 -7 -3 87.11 1.86
-1 7 3 88.34 1.85
0 -7 -3 72.18 1.61
0 7 3 70.88 1.61
0 7 3 74.04 1.57
-1 -7 -3 69.54 1.34
1 7 3 70.9 1.48
1 7 3 69.84 1.55
1 7 3 68.47 1.32
2 7 3 17.64 0.67
2 7 3 16.85 0.64
3 7 3 1.01 0.29
3 7 3 0.96 0.26
3 7 3 0.77 0.24
4 7 3 35 0.97
4 7 3 33.26 1.05
5 7 3 33.09 0.86
3 -8 -3 6.49 0.5
2 -8 -3 50.09 1.29
-2 8 3 51.79 1.29
1 -8 -3 72.63 1.66
-1 8 3 71.38 1.63
0 -8 -3 28.98 0.93
0 8 3 27.06 0.91
0 8 3 28.67 0.91
1 8 3 0.92 0.28
1 8 3 0.7 0.29
2 8 3 1.21 0.29
2 8 3 1.29 0.29
3 8 3 52.06 1.16
3 8 3 47.84 1.24
3 8 3 50.26 1.37
4 8 3 30.71 0.92
4 8 3 32.51 1.02
5 8 3 22.46 0.69
2 -9 -3 24.12 0.79
-2 9 3 24.38 0.78
1 -9 -3 22.37 0.81
-1 9 3 22.2 0.79
0 -9 -3 1.3 0.34
0 9 3 1.23 0.29
0 9 3 2.08 0.36
1 9 3 7.81 0.55
1 9 3 8.17 0.56
2 9 3 9.94 0.59
2 9 3 9.58 0.54
3 9 3 53.92 1.3
3 9 3 51.93 1.15
4 9 3 3.55 0.44
4 9 3 3.32 0.47
5 9 3 3.02 0.33
1 -10 -3 0.26 0.26
-1 10 3 -0.2 0.21
0 -10 -3 14.67 0.67
0 10 3 14.09 0.61
1 10 3 32.14 0.9
1 10 3 32.82 0.97
2 10 3 52.37 1.17
2 10 3 53.38 1.29
3 10 3 6.13 0.48
4 10 3 0.05 0.21
3 9 -4 34.95 0.87
3 9 -4 35.73 0.96
2 9 -4 25.96 0.84
2 9 -4 25.22 0.8
1 9 -4 3.94 0.5
-1 -9 4 3.04 0.44
0 9 -4 6.46 0.52
0 -9 4 5.64 0.56
1 -9 4 18.94 0.69
2 -9 4 35.05 0.97
2 -9 4 36.84 0.88
4 8 -4 51.43 1.22
3 8 -4 15.4 0.66
3 8 -4 14.67 0.71
2 8 -4 6.23 0.56
2 8 -4 5.64 0.56
-2 -8 4 6.01 0.61
1 8 -4 1.79 0.39
-1 -8 4 1.96 0.4
0 8 -4 13.71 0.69
0 -8 4 13.19 0.73
1 -8 4 42.2 1.14
2 -8 4 12.18 0.61
2 -8 4 12.94 0.7
3 -8 4 0.47 0.23
3 -8 4 0.78 0.29
5 7 -4 28.12 0.82
4 7 -4 4.7 0.52
3 7 -4 -0.26 0.28
3 7 -4 0.21 0.29
2 7 -4 21.51 0.84
2 7 -4 21.7 0.85
-2 -7 4 20.74 0.89
1 7 -4 27.01 0.95
-1 -7 4 27.59 0.96
0 7 -4 68.31 1.62
0 -7 4 72.11 1.64
1 -7 4 38.19 1.09
2 -7 4 4.31 0.58
2 -7 4 4.57 0.51
3 -7 4 13.99 0.68
3 -7 4 12.23 0.56
4 -7 4 50.58 1.14
5 6 -4 5.39 0.52
4 6 -4 0.3 0.31
3 6 -4 28.79 0.91
3 6 -4 28.7 0.96
2 6 -4 81.69 1.75
2 6 -4 81.49 1.77
-2 -6 4 78 1.8
1 6 -4 115.65 2.25
-1 -6 4 113.26 2.27
-1 -6 4 109.81 1.95
0 6 -4 40.43 1.1
0 6 -4 40.18 0.98
0 -6 4 41.24 1.1
1 -6 4 4.39 0.51
1 -6 4 4.48 0.45
2 -6 4 10.18 0.63
2 -6 4 9.13 0.58
3 -6 4 18.82 0.76
3 -6 4 18.92 0.69
4 -6 4 46.11 1.12
6 5 -4 15.75 0.56
5 5 -4 2.14 0.34
4 5 -4 35.43 1.06
3 5 -4 67.35 1.47
3 5 -4 64.93 1.5
2 5 -4 73.29 1.38
2 5 -4 70.26 1.57
2 5 -4 70.74 1.55
-2 -5 4 74.3 1.37
1 5 -4 10 0.46
1 5 -4 9.59 0.53
-1 -5 4 11.22 0.45
0 5 -4 13.56 0.6
0 5 -4 13.76 0.51
0 -5 4 14.89 0.63
0 -5 4 14.03 0.45
-1 5 -4 52.51 1.09
1 -5 4 51.44 1.27
1 -5 4 53.34 1.2
2 -5 4 102.99 2.11
2 -5 4 106.24 2.01
3 -5 4 56.74 1.25
3 -5 4 58.14 1.34
4 -5 4 5.04 0.47
5 -5 4 2.51 0.32
6 4 -4 0.69 0.24
4 4 -4 80.36 1.72
3 4 -4 37.79 1.01
3 4 -4 37.94 0.85
3 4 -4 38.24 0.98
-3 -4 4 38.73 0.9
2 4 -4 45.12 0.93
2 4 -4 45.07 1.07
-2 -4 4 44.51 0.93
1 4 -4 0.64 0.18
-1 -4 4 0.7 0.2
0 4 -4 4.5 0.31
0 -4 4 4.91 0.3
-1 4 -4 164.74 2.62
2 -4 4 70.16 1.46
3 -4 4 19.1 0.74
3 -4 4 18.11 0.63
3 -4 4 19.11 0.64
4 -4 4 2.1 0.28
4 -4 4 1.8 0.37
5 -4 4 26.2 0.66
5 -4 4 27.64 0.94
6 3 -4 26 0.73
5 3 -4 35.65 0.99
4 3 -4 33.12 0.93
3 3 -4 3.4 0.41
3 3 -4 2.79 0.29
-3 -3 4 3.62 0.36
2 3 -4 17.52 0.5
-2 -3 4 17.77 0.53
1 3 -4 107.62 1.76
-1 -3 4 107.34 1.74
0 3 -4 98.77 1.62
0 -3 4 99.11 1.58
-1 3 -4 123.21 1.96
1 -3 4 122.39 1.88
3 -3 4 1.09 0.39
3 -3 4 1.13 0.2
4 -3 4 18.24 0.77
4 -3 4 18.92 0.57
5 -3 4 26.87 0.96
6 -3 4 21.04 0.83
6 2 -4 21.09 0.95
6 2 -4 21.19 0.66
5 2 -4 25.5 0.81
-4 -2 4 2.1 0.3
3 2 -4 21.11 0.55
-3 -2 4 21.03 0.61
2 2 -4 153.08 2.38
-2 -2 4 149.97 2.39
1 2 -4 229.67 3.43
-1 -2 4 226.71 3.42
0 2 -4 128.01 1.97
0 -2 4 125.53 1.94
-1 2 -4 14.44 0.38
3 -2 4 85.53 2.1
4 -2 4 61.24 1.17
4 -2 4 62.81 1.49
4 -2 4 61.09 1.75
4 -2 4 60.64 1.55
5 -2 4 30.94 1.03
5 -2 4 28.84 1.07
6 -2 4 0.69 0.37
6 1 -4 6.72 0.65
6 1 -4 5.94 0.39
5 1 -4 6.31 0.72
5 1 -4 7.82 0.48
4 1 -4 99.23 1.94
-4 -1 4 97.51 1.78
3 1 -4 69.72 1.21
-3 -1 4 69.15 1.28
2 1 -4 103.27 1.65
-2 -1 4 100.38 1.67
1 1 -4 19.74 0.47
-1 -1 4 19.6 0.48
0 1 -4 1 0.15
0 -1 4 1.11 0.15
-1 1 -4 41.33 0.7
1 -1 4 39.78 0.63
3 -1 4 109.02 2.53
4 -1 4 29.64 0.96
4 -1 4 29.09 1.11
4 -1 4 29.57 0.92
5 -1 4 0.36 0.32
5 -1 4 0.09 0.34
6 -1 4 25.64 0.97
6 -1 4 23.85 0.95
7 -1 4 31.55 0.96
6 0 -4 2.78 0.47
6 0 -4 3.02 0.32
5 0 -4 17.71 0.66
5 0 -4 18.14 0.94
4 0 -4 96.1 1.86
-4 0 4 92.34 1.71
3 0 -4 87.06 1.43
-3 0 4 84.13 1.51
2 0 -4 51.36 0.91
-2 0 4 50.58 0.95
1 0 -4 56.63 0.97
-1 0 4 56.13 0.97
0 0 -4 51.65 0.87
0 0 4 51.35 0.86
-1 0 -4 197.9 2.91
4 0 4 1.66 0.35
4 0 4 2.13 0.42
5 0 4 30.17 1.06
5 0 4 29.67 1.26
5 0 4 29.23 0.98
6 0 4 31.99 1.13
6 0 4 31.58 1.07
7 0 4 31.21 0.97
7 0 4 30.86 0.99
6 -1 -4 28.64 0.72
6 -1 -4 29.25 1.04
5 -1 -4 44.59 1.38
5 -1 -4 44.34 1.07
4 -1 -4 39.62 1
-4 1 4 39.62 0.94
-3 1 4 13.07 0.48
2 -1 -4 6.92 0.32
-2 1 4 7.14 0.35
1 -1 -4 89.43 1.42
-1 1 4 87.34 1.43
0 -1 -4 311.15 4.53
0 1 4 309.48 4.53
-1 -1 -4 220.16 3.21
1 1 4 218.18 3.16
4 1 4 38.25 1.24
4 1 4 38.17 1.11
5 1 4 52.28 1.34
5 1 4 52.78 1.67
5 1 4 52.93 1.49
6 1 4 20.53 0.92
6 1 4 20.77 0.87
7 1 4 0.2 0.33
7 1 4 0.64 0.32
6 -2 -4 53.45 1.39
5 -2 -4 48.33 1.41
5 -2 -4 45.9 1.12
4 -2 -4 15.47 0.6
3 -2 -4 1.3 0.22
-3 2 4 1.42 0.24
2 -2 -4 53.63 0.96
-2 2 4 51.09 1
1 -2 -4 97.86 1.57
-1 2 4 97.4 1.59
0 -2 -4 25.72 0.53
0 2 4 26 0.53
-1 -2 -4 10.33 0.3
1 2 4 10.36 0.28
-2 -2 -4 10.62 0.27
4 2 4 84.98 1.97
4 2 4 84.6 2.13
4 2 4 83.12 1.48
5 2 4 59.88 1.59
5 2 4 53.61 1.69
5 2 4 55.23 1.37
6 2 4 6.21 0.66
6 2 4 7.21 0.61
7 2 4 13.68 0.73
6 -3 -4 27.31 0.89
5 -3 -4 0.75 0.38
5 -3 -4 0.36 0.23
4 -3 -4 20.89 0.72
3 -3 -4 24.22 0.71
-3 3 4 21.77 0.67
2 -3 -4 93.99 1.59
-2 3 4 96.19 1.65
1 -3 -4 7.84 0.33
-1 3 4 7.75 0.36
0 -3 -4 0.21 0.14
0 3 4 0.12 0.16
-1 -3 -4 79.66 1.29
1 3 4 78.89 1.27
-2 -3 -4 159.94 2.42
4 3 4 32.97 1.14
4 3 4 34.42 0.75
4 3 4 33.88 1.07
5 3 4 0.26 0.38
5 3 4 -0.14 0.35
6 3 4 5.3 0.68
7 3 4 23.3 0.91
5 -4 -4 11.89 0.53
5 -4 -4 12.53 0.71
4 -4 -4 47.62 1.15
4 -4 -4 44.87 1.33
3 -4 -4 41.75 1.05
-3 4 4 41.14 1.08
2 -4 -4 82.72 1.64
2 -4 -4 80.29 1.42
-2 4 4 80.65 1.64
-2 4 4 78.81 1.48
1 -4 -4 -0.03 0.15
-1 4 4 0.09 0.17
0 -4 -4 5.06 0.3
0 4 4 4.72 0.31
-1 -4 -4 323.39 4.87
1 4 4 333.15 4.84
-2 -4 -4 37.18 0.73
4 4 4 3.69 0.51
4 4 4 2.75 0.32
5 4 4 34.64 1.18
6 4 4 41.08 1.34
7 4 4 31.05 1.04
5 -5 -4 17.6 0.66
5 -5 -4 18.5 0.71
5 -5 -4 17.77 0.57
4 -5 -4 24.43 0.8
4 -5 -4 26.39 0.95
3 -5 -4 8.28 0.52
2 -5 -4 8.29 0.4
2 -5 -4 9.49 0.52
-2 5 4 9.03 0.53
-2 5 4 7.88 0.46
1 -5 -4 67.05 1.23
-1 5 4 66.11 1.4
-1 5 4 63.66 1.25
0 -5 -4 97.86 1.67
0 5 4 99.95 1.85
0 5 4 96.93 1.67
-1 -5 -4 120.1 1.95
1 5 4 118.02 1.92
-2 -5 -4 21.14 0.55
3 5 4 2.99 0.32
3 5 4 2.94 0.3
4 5 4 12.07 0.66
4 5 4 12.33 0.52
5 5 4 82.72 2.06
6 5 4 47.47 1.41
7 5 4 4.7 0.53
4 -6 -4 6.21 0.48
4 -6 -4 7.09 0.54
3 -6 -4 0.1 0.26
2 -6 -4 32.94 0.97
-2 6 4 31.15 0.95
1 -6 -4 48.14 1.04
1 -6 -4 49.21 1.23
-1 6 4 51.75 1.09
-1 6 4 50.47 1.2
0 -6 -4 34.95 0.8
0 6 4 34.03 0.96
0 6 4 35.56 0.82
0 6 4 34.27 0.9
-1 -6 -4 4.39 0.33
1 6 4 3.7 0.36
1 6 4 4.28 0.32
1 6 4 4.24 0.4
-2 -6 -4 12.74 0.46
2 6 4 12.68 0.5
2 6 4 11.73 0.58
2 6 4 12.43 0.52
3 6 4 48.88 1.2
3 6 4 48.6 1.13
4 6 4 33.07 0.96
4 6 4 32.44 0.88
5 6 4 22.72 0.9
6 6 4 1.5 0.37
4 -7 -4 10.21 0.54
4 -7 -4 10.19 0.5
3 -7 -4 7.15 0.52
2 -7 -4 19.2 0.76
-2 7 4 20.93 0.78
1 -7 -4 26.71 0.87
-1 7 4 25.61 0.86
0 -7 -4 2.95 0.38
0 7 4 2.92 0.37
0 7 4 2.46 0.34
1 7 4 21.79 0.63
1 7 4 21.15 0.72
1 7 4 21.89 0.75
2 7 4 76.87 1.57
2 7 4 77.34 1.65
3 7 4 72.11 1.55
3 7 4 72.01 1.66
4 7 4 43.74 1.19
4 7 4 44.65 1.12
3 -8 -4 31.21 0.88
2 -8 -4 14.81 0.69
-2 8 4 15.53 0.7
1 -8 -4 2.22 0.37
-1 8 4 2.55 0.38
0 -8 -4 37.84 1.12
0 8 4 38.41 1.1
0 8 4 40.31 1.09
1 8 4 57.25 1.4
1 8 4 57.33 1.33
2 8 4 45.34 1.1
2 8 4 44.75 1.18
3 8 4 31.87 0.93
3 8 4 30.46 1.02
4 8 4 5.08 0.56
4 8 4 4.51 0.47
2 -9 -4 -0.21 0.23
-2 9 4 0.6 0.26
1 -9 -4 18.99 0.75
-1 9 4 20.19 0.74
0 -9 -4 52.47 1.32
0 9 4 54.88 1.33
0 9 4 52.08 1.28
1 9 4 35.41 1.06
1 9 4 37.42 1.02
2 9 4 28.07 0.91
2 9 4 28.2 0.84
3 9 4 0 0.24
4 9 4 1.71 0.33
4 9 4 1.58 0.3
1 -10 -4 26.46 0.77
-1 10 4 24.95 0.74
0 10 4 14.79 0.62
0 10 4 14.69 0.58
1 10 4 14.32 0.65
1 10 4 14.11 0.58
2 10 4 3.8 0.44
2 10 4 3.94 0.38
3 10 4 14.12 0.6
4 10 4 25.15 0.68
2 9 -5 0.97 0.26
-2 -9 5 0.21 0.29
1 9 -5 25.86 0.81
-1 -9 5 25.21 0.86
0 9 -5 23.44 0.78
0 -9 5 25.22 0.81
1 -9 5 17.73 0.65
4 8 -5 1.58 0.29
-4 -8 5 1.33 0.33
3 8 -5 0.53 0.3
3 8 -5 0.67 0.27
2 8 -5 83.79 1.8
2 8 -5 84.6 1.85
-2 -8 5 87.51 1.89
1 8 -5 25.99 0.9
-1 -8 5 26.37 0.94
0 8 -5 40.94 1.14
0 -8 5 38.37 1.13
1 -8 5 0.45 0.32
2 -8 5 6.34 0.58
2 -8 5 5.5 0.47
3 -8 5 28.01 0.8
5 7 -5 0.3 0.23
4 7 -5 2.01 0.36
-4 -7 5 1.85 0.4
3 7 -5 34.74 1.01
3 7 -5 33.35 1.06
2 7 -5 36.1 1.1
2 7 -5 35.89 1.07
-2 -7 5 35.7 1.14
1 7 -5 1.65 0.38
-1 -7 5 2.66 0.42
0 7 -5 4.61 0.56
0 -7 5 3.62 0.44
1 -7 5 13.84 0.77
1 -7 5 14.98 0.72
2 -7 5 26.98 0.86
2 -7 5 29.36 0.96
3 -7 5 34.14 0.97
3 -7 5 32.76 0.84
4 -7 5 1.66 0.27
4 6 -5 28.02 0.95
-4 -6 5 29.98 1.03
3 6 -5 25.37 0.89
3 6 -5 25.98 0.93
2 6 -5 2.46 0.38
2 6 -5 2.77 0.39
-2 -6 5 3.55 0.46
1 6 -5 2.59 0.39
-1 -6 5 2.74 0.4
0 6 -5 55.71 1.39
0 -6 5 57.89 1.39
1 -6 5 81.29 1.72
1 -6 5 77.85 1.81
2 -6 5 65.63 1.59
2 -6 5 68.62 1.48
3 -6 5 14.31 0.69
3 -6 5 14.31 0.58
4 -6 5 0.73 0.28
5 5 -5 17.27 0.7
4 5 -5 67.96 1.59
3 5 -5 3.28 0.4
3 5 -5 4.4 0.53
2 5 -5 0.53 0.25
2 5 -5 0.47 0.28
-2 -5 5 0.38 0.3
1 5 -5 65.82 1.28
1 5 -5 63.27 1.44
-1 -5 5 61.37 1.22
-1 -5 5 61.36 1.44
0 5 -5 91.33 1.67
0 -5 5 89.87 1.85
-1 5 -5 55.21 1.17
1 -5 5 55.18 1.27
1 -5 5 56.35 1.37
2 -5 5 8.24 0.58
2 -5 5 7.57 0.49
3 -5 5 0.56 0.24
3 -5 5 0.2 0.27
4 -5 5 17.76 0.67
6 4 -5 22.55 0.65
5 4 -5 24.03 0.82
4 4 -5 9.68 0.63
3 4 -5 32.93 0.81
3 4 -5 32.59 0.99
2 4 -5 93.43 1.64
2 4 -5 91.05 1.87
2 4 -5 91.6 1.84
-2 -4 5 88.22 1.9
-2 -4 5 93.03 1.64
1 4 -5 117.08 2.21
1 4 -5 116.14 1.98
-1 -4 5 116.71 1.94
0 4 -5 63.51 1.19
0 -4 5 59.96 1.1
-1 4 -5 13.33 0.48
1 -4 5 13.1 0.62
2 -4 5 8.49 0.46
2 -4 5 7.77 0.49
3 -4 5 89.72 1.81
4 -4 5 101.74 1.97
6 3 -5 33.77 0.84
5 3 -5 4.01 0.48
4 3 -5 3.96 0.5
3 3 -5 71.73 1.34
3 3 -5 72.8 1.57
-3 -3 5 72.59 1.4
2 3 -5 47.75 1.11
2 3 -5 49.26 0.99
-2 -3 5 47.74 0.99
1 3 -5 55.39 1.05
-1 -3 5 54.07 1.02
0 3 -5 1.02 0.19
0 -3 5 1.06 0.18
-1 3 -5 3.44 0.28
2 -3 5 39.42 0.93
3 -3 5 108.66 2.6
3 -3 5 107.88 2.24
3 -3 5 109.31 2.04
4 -3 5 2.15 0.24
4 -3 5 2.45 0.39
5 -3 5 9.77 0.69
6 2 -5 0.49 0.37
6 2 -5 0.2 0.22
5 2 -5 5.03 0.48
4 2 -5 45.5 1.15
3 2 -5 39.61 1
3 2 -5 37.59 0.83
-3 -2 5 37.3 1.02
-3 -2 5 39.03 0.89
2 2 -5 72.63 1.29
-2 -2 5 71.96 1.31
1 2 -5 2.48 0.26
-1 -2 5 2.15 0.22
0 2 -5 71.01 1.23
0 -2 5 72.21 1.19
-1 2 -5 183.46 2.8
3 -2 5 37.39 0.82
3 -2 5 38.71 1.24
4 -2 5 7.66 0.59
4 -2 5 8.01 0.78
4 -2 5 8.85 0.64
4 -2 5 8.29 0.34
5 -2 5 0.97 0.38
6 -2 5 47.51 1.31
6 1 -5 13.38 0.74
6 1 -5 14.71 0.52
5 1 -5 51 1.21
4 1 -5 39.27 1.03
3 1 -5 50.24 1.16
3 1 -5 49.54 0.98
-3 -1 5 50.34 1.05
2 1 -5 27.36 0.63
-2 -1 5 27.17 0.66
1 1 -5 38.04 0.76
-1 -1 5 39.16 0.77
0 1 -5 126.23 1.95
0 -1 5 123.61 1.92
-1 1 -5 119.33 1.84
3 -1 5 2.21 0.4
3 -1 5 1.81 0.35
4 -1 5 28.91 1.15
4 -1 5 27.92 0.97
4 -1 5 29.62 0.93
5 -1 5 66.83 1.64
5 -1 5 66.05 1.97
5 -1 5 63.14 1.71
6 -1 5 37.74 1.2
6 -1 5 35.99 1.15
6 0 -5 42.46 0.93
5 0 -5 37.25 0.98
4 0 -5 24.4 0.77
3 0 -5 3.81 0.3
3 0 -5 3.62 0.37
-3 0 5 3.58 0.37
2 0 -5 298.59 4.44
-2 0 5 294.03 4.47
1 0 -5 30.38 0.65
-1 0 5 30.13 0.64
0 0 -5 285.7 4.2
0 0 5 282.89 4.18
-1 0 -5 14.75 0.36
3 0 5 83.5 2.07
4 0 5 79.47 1.75
4 0 5 79.55 1.89
4 0 5 78.58 2.1
5 0 5 37.52 1.22
5 0 5 37.65 1.42
5 0 5 37.76 1.13
6 0 5 3.23 0.46
6 0 5 4.53 0.6
7 0 5 2.1 0.38
6 -1 -5 18.92 0.57
6 -1 -5 19.38 0.85
5 -1 -5 5.61 0.46
5 -1 -5 5.13 0.73
4 -1 -5 0.83 0.26
3 -1 -5 34.55 0.75
3 -1 -5 33.61 0.89
-3 1 5 35.37 0.83
2 -1 -5 57.27 1.05
-2 1 5 56.51 1.08
1 -1 -5 54.17 0.97
-1 1 5 54.43 0.99
0 -1 -5 68.05 1.15
0 1 5 69.22 1.14
-1 -1 -5 7.79 0.27
1 1 5 7.77 0.21
3 1 5 72.59 1.84
4 1 5 18.7 0.92
4 1 5 19.09 0.78
5 1 5 1.87 0.41
5 1 5 1.74 0.51
5 1 5 1.39 0.36
6 1 5 3.81 0.53
6 1 5 4.21 0.57
7 1 5 29.14 0.99
6 -2 -5 -0.1 0.3
6 -2 -5 0.2 0.18
5 -2 -5 6.07 0.71
5 -2 -5 6.87 0.46
4 -2 -5 89.35 1.82
3 -2 -5 95.75 1.87
-3 2 5 94.18 1.72
2 -2 -5 78.03 1.35
-2 2 5 77.89 1.4
1 -2 -5 7.52 0.33
-1 2 5 7.83 0.35
0 -2 -5 45.35 0.83
0 2 5 46.55 0.84
-1 -2 -5 112.63 1.74
1 2 5 111.09 1.69
3 2 5 52.38 1.47
4 2 5 12.47 0.66
4 2 5 11.95 0.76
5 2 5 12.04 0.73
5 2 5 12.05 0.65
5 2 5 11.52 0.89
6 2 5 20.91 0.95
7 2 5 36.56 1.15
6 -3 -5 0.84 0.28
5 -3 -5 18.07 0.65
5 -3 -5 18.85 0.85
4 -3 -5 68.56 1.5
3 -3 -5 33.85 0.93
-3 3 5 36.73 0.89
2 -3 -5 1.85 0.22
-2 3 5 1.68 0.25
-2 3 5 1.82 0.32
1 -3 -5 12.94 0.42
-1 3 5 13.2 0.44
0 -3 -5 58.38 1.04
0 3 5 58.13 1.04
-1 -3 -5 40.77 0.77
1 3 5 41.16 0.74
-2 -3 -5 12.93 0.36
3 3 5 -0.31 0.27
4 3 5 55.08 1.6
4 3 5 55.4 1.45
4 3 5 54.73 1.09
5 3 5 63.29 1.68
5 3 5 61.36 1.83
6 3 5 36.83 1.24
7 3 5 19.35 0.84
5 -4 -5 26.74 0.92
5 -4 -5 23.68 0.73
4 -4 -5 14.64 0.64
4 -4 -5 15.64 0.81
3 -4 -5 11.25 0.58
2 -4 -5 31.67 0.75
2 -4 -5 31.77 0.88
-2 4 5 31.57 0.8
-2 4 5 30.86 0.88
1 -4 -5 64.78 1.19
-1 4 5 65.36 1.36
-1 4 5 63.89 1.22
0 -4 -5 93.38 1.55
0 4 5 89.34 1.54
-1 -4 -5 25.13 0.59
1 4 5 26.67 0.57
-2 -4 -5 1.7 0.19
3 4 5 121.94 2.25
4 4 5 58.97 1.54
4 4 5 61.16 1.26
5 4 5 34.42 1.15
6 4 5 7.63 0.67
7 4 5 3.34 0.45
5 -5 -5 16.86 0.63
5 -5 -5 16.82 0.55
5 -5 -5 17.33 0.64
4 -5 -5 -0.64 0.29
4 -5 -5 -0.07 0.23
3 -5 -5 10.32 0.56
2 -5 -5 45.03 1.13
2 -5 -5 43.47 0.96
-2 5 5 44.87 1.13
1 -5 -5 49.61 1.02
1 -5 -5 48.81 1.17
-1 5 5 50.12 1.21
-1 5 5 48.63 1.15
-1 5 5 49.91 1.04
0 -5 -5 10.41 0.42
0 5 5 11.02 0.43
0 5 5 11.77 0.51
-1 -5 -5 2.56 0.29
1 5 5 3.5 0.28
1 5 5 2.74 0.32
-2 -5 -5 38.65 0.81
2 5 5 38.09 0.97
2 5 5 36.71 0.84
3 5 5 124.42 2.27
3 5 5 126.71 2.4
4 5 5 8.69 0.49
5 5 5 44.6 1.04
5 5 5 43.46 1.3
6 5 5 10.44 0.67
7 5 5 25.12 0.88
4 -6 -5 20.71 0.7
3 -6 -5 56.03 1.35
2 -6 -5 43.3 1.14
-2 6 5 40.29 1.12
1 -6 -5 1.27 0.27
-1 6 5 1.96 0.33
-1 6 5 1.35 0.32
0 -6 -5 21.6 0.62
0 6 5 20.87 0.76
0 6 5 21.69 0.63
0 6 5 19.88 0.69
-1 -6 -5 66.86 1.3
1 6 5 68.16 1.47
1 6 5 67.14 1.4
1 6 5 67.9 1.25
-2 -6 -5 75.15 1.4
2 6 5 73.59 1.65
2 6 5 76.75 1.49
2 6 5 75.29 1.56
3 6 5 41.68 1.09
3 6 5 41.56 1.01
4 6 5 3.64 0.47
4 6 5 4.39 0.4
5 6 5 0.45 0.26
6 6 5 20.65 0.82
4 -7 -5 23.04 0.68
3 -7 -5 35.51 0.98
-3 7 5 38.22 1.12
2 -7 -5 0.96 0.28
-2 7 5 0.68 0.3
1 -7 -5 1.65 0.32
-1 7 5 1.07 0.31
0 7 5 31.68 0.94
0 7 5 32.26 0.97
1 7 5 40.49 1.02
1 7 5 37.92 1.07
2 7 5 16.7 0.61
2 7 5 16.56 0.74
2 7 5 17.04 0.67
3 7 5 0.61 0.27
3 7 5 0.43 0.24
4 7 5 30.47 0.96
4 7 5 31.71 0.89
5 7 5 52.19 1.26
3 -8 -5 0.66 0.25
-3 8 5 0.67 0.27
2 -8 -5 25.17 0.85
-2 8 5 26.49 0.86
1 -8 -5 8.88 0.61
-1 8 5 10.06 0.59
0 8 5 50.21 1.31
0 8 5 52.09 1.28
1 8 5 5.86 0.51
1 8 5 5.38 0.48
2 8 5 2.06 0.34
2 8 5 2.6 0.33
3 8 5 26.47 0.84
3 8 5 26.42 0.94
4 8 5 40.81 1.05
4 8 5 42.32 1.16
2 -9 -5 27.88 0.78
-2 9 5 25.74 0.77
1 -9 -5 34.96 0.98
-1 9 5 35.98 0.98
0 9 5 9.99 0.59
0 9 5 11.39 0.59
1 9 5 3 0.36
1 9 5 2.71 0.35
2 9 5 40.22 0.99
2 9 5 39.44 1.09
3 9 5 33.17 1.04
3 9 5 33.17 0.95
4 9 5 48.13 1.11
4 9 5 49.26 1.24
0 10 5 4.75 0.42
0 10 5 4.37 0.42
1 10 5 18.42 0.62
1 10 5 18.59 0.68
2 10 5 30.94 0.76
2 10 5 32.67 0.91
3 10 5 27.94 0.8
1 9 -6 11.57 0.53
-1 -9 6 12.86 0.6
-1 -9 6 11.57 0.49
0 -9 6 0.56 0.29
3 8 -6 28.37 0.86
-3 -8 6 30.03 0.88
2 8 -6 39.88 1.06
-2 -8 6 39 1.1
1 8 -6 -0.08 0.3
-1 -8 6 -0.09 0.34
0 8 -6 10.73 0.62
0 -8 6 10.86 0.63
1 -8 6 30.21 0.88
2 -8 6 21.37 0.78
2 -8 6 21.58 0.68
4 7 -6 36.94 0.97
-4 -7 6 34.57 0.98
3 7 -6 15.22 0.71
-3 -7 6 15.29 0.77
2 7 -6 0.75 0.34
2 7 -6 0.7 0.33
-2 -7 6 0.93 0.38
1 7 -6 24.64 0.91
-1 -7 6 24.66 0.95
0 7 -6 61.76 1.49
0 -7 6 59.87 1.49
1 -7 6 19.89 0.88
1 -7 6 19.76 0.79
2 -7 6 45.44 1.21
2 -7 6 42.96 1.09
3 -7 6 0.72 0.31
5 6 -6 53.58 1.19
4 6 -6 24.51 0.87
-4 -6 6 26.86 0.91
3 6 -6 0.83 0.35
2 6 -6 9.42 0.61
2 6 -6 9.63 0.68
-2 -6 6 9.07 0.7
1 6 -6 47.94 1.28
-1 -6 6 47.63 1.29
0 -6 6 11.91 0.7
1 -6 6 2.99 0.39
1 -6 6 2.53 0.4
2 -6 6 4.29 0.56
2 -6 6 6.42 0.52
3 -6 6 53.7 1.31
4 -6 6 30.54 0.81
5 5 -6 15.53 0.64
4 5 -6 10.3 0.65
-4 -5 6 10.97 0.73
3 5 -6 4.5 0.56
2 5 -6 72.06 1.62
2 5 -6 71.33 1.66
-2 -5 6 73.28 1.69
1 5 -6 17.69 0.74
-1 -5 6 17.02 0.74
0 -5 6 9.81 0.6
1 -5 6 21.57 0.74
1 -5 6 19.8 0.82
2 -5 6 66.34 1.44
2 -5 6 69.04 1.55
3 -5 6 51.23 1.25
4 -5 6 32.98 0.87
5 4 -6 9.68 0.57
4 4 -6 26.95 0.92
-4 -4 6 28.09 0.97
3 4 -6 62.49 1.48
-3 -4 6 60.82 1.49
2 4 -6 47.6 1.23
2 4 -6 46.11 1.19
2 4 -6 47.48 1.04
-2 -4 6 47.16 1.24
-2 -4 6 47.15 1.03
1 4 -6 1.06 0.24
1 4 -6 1.25 0.3
-1 -4 6 0.63 0.22
-1 -4 6 0.71 0.32
0 4 -6 25.99 0.71
0 -4 6 27.79 0.84
-1 4 -6 62.37 1.24
1 -4 6 63.26 1.35
1 -4 6 63.92 1.45
2 -4 6 53.77 1.17
2 -4 6 52.28 1.24
3 -4 6 32.35 0.9
4 -4 6 1.62 0.27
6 3 -6 4.93 0.37
5 3 -6 31.39 0.92
4 3 -6 69.86 1.59
3 3 -6 35.84 1.02
-3 -3 6 33.89 1.04
2 3 -6 -0.37 0.24
2 3 -6 -0.23 0.24
2 3 -6 0.08 0.19
-2 -3 6 -0.03 0.3
-2 -3 6 -0.09 0.2
1 3 -6 56.19 1.25
1 3 -6 54.71 1.1
-1 -3 6 55.56 1.07
0 3 -6 144.34 2.33
0 -3 6 141.11 2.24
-1 3 -6 75.45 1.36
1 -3 6 74.47 1.58
2 -3 6 71.62 1.49
2 -3 6 72.57 1.43
3 -3 6 8.12 0.44
4 -3 6 25.32 0.68
4 -3 6 24.66 1.14
6 2 -6 27.21 0.71
5 2 -6 45.96 1.15
4 2 -6 21.45 0.79
3 2 -6 0.19 0.19
3 2 -6 0.37 0.29
-3 -2 6 0.22 0.31
-3 -2 6 -0.04 0.22
2 2 -6 11.06 0.45
-2 -2 6 11.37 0.47
-2 -2 6 12.09 0.6
1 2 -6 78.06 1.37
-1 -2 6 76.06 1.35
0 2 -6 57.38 1.07
0 -2 6 57.08 1.01
-1 2 -6 17.71 0.47
2 -2 6 12.67 0.48
2 -2 6 12.73 0.69
3 -2 6 46.24 0.99
3 -2 6 44.88 1.42
4 -2 6 84.29 2.26
4 -2 6 83.11 1.54
6 1 -6 33.63 1
6 1 -6 33.7 0.81
5 1 -6 0.96 0.27
4 1 -6 0.34 0.25
3 1 -6 22.95 0.76
3 1 -6 21.38 0.61
-3 -1 6 22.01 0.67
-3 -1 6 21.14 0.78
2 1 -6 95.53 1.66
-2 -1 6 97.43 1.68
-2 -1 6 96.54 1.86
1 1 -6 60.68 1.12
-1 -1 6 60.52 1.11
0 1 -6 35.85 0.74
0 -1 6 38.26 0.72
-1 1 -6 15.18 0.42
3 -1 6 107.73 1.97
3 -1 6 111.29 2.64
3 -1 6 108.39 2.41
4 -1 6 61.41 1.63
4 -1 6 61.56 1.51
4 -1 6 63.82 1.84
5 -1 6 12.62 0.74
5 -1 6 11.99 0.96
5 -1 6 9.95 0.72
6 0 -6 1.32 0.22
6 0 -6 0.88 0.36
5 0 -6 9.07 0.53
4 0 -6 32.55 0.94
3 0 -6 131.31 2.46
3 0 -6 128.1 2.14
-3 0 6 131.9 2.21
-3 0 6 122.97 2.43
2 0 -6 94.32 1.64
-2 0 6 98.77 1.86
-2 0 6 95.63 1.66
1 0 -6 0.97 0.19
-1 0 6 0.93 0.2
0 0 -6 116.14 1.87
0 0 6 116.5 1.83
-1 0 -6 36.87 0.71
3 0 6 56.46 1.08
3 0 6 57.85 1.45
3 0 6 54.69 1.58
4 0 6 13.38 0.72
4 0 6 13.16 0.68
4 0 6 12.31 0.88
5 0 6 4.14 0.63
5 0 6 4.03 0.61
5 0 6 3.37 0.44
6 0 6 28.95 1.07
6 -1 -6 7.09 0.59
6 -1 -6 6.79 0.37
5 -1 -6 20.59 1
5 -1 -6 21.2 0.72
4 -1 -6 84.23 1.77
3 -1 -6 31.81 0.8
3 -1 -6 33.43 0.91
-3 1 6 32.09 0.94
-3 1 6 32.64 0.84
2 -1 -6 29.67 0.69
-2 1 6 28.76 0.82
-2 1 6 29.94 0.72
1 -1 -6 48.25 0.93
-1 1 6 48.75 0.94
0 -1 -6 88.03 1.48
0 1 6 91.26 1.46
-1 -1 -6 118.15 1.86
3 1 6 0.56 0.34
3 1 6 0.68 0.31
4 1 6 8.28 0.78
4 1 6 7.88 0.61
5 1 6 66.07 2.02
5 1 6 66.16 1.77
6 1 6 24.87 1.01
7 1 6 14.3 0.7
5 -2 -6 71.46 1.52
5 -2 -6 73.84 1.83
4 -2 -6 6.89 0.51
3 -2 -6 0.81 0.23
-3 2 6 0.37 0.32
2 -2 -6 31.7 0.74
-2 2 6 32.77 0.78
-2 2 6 30.83 0.88
1 -2 -6 42.41 0.85
-1 2 6 41.78 0.86
0 -2 -6 72.07 1.25
0 2 6 72.55 1.23
-1 -2 -6 26.54 0.57
1 2 6 26.53 0.52
3 2 6 53.2 1.06
3 2 6 53.03 1.36
3 2 6 53.78 1.55
4 2 6 49.03 1.56
4 2 6 48.27 1.34
5 2 6 63.04 1.68
5 2 6 59.9 1.91
6 2 6 7.24 0.71
7 2 6 0.12 0.35
5 -3 -6 23.98 0.92
5 -3 -6 26.32 0.76
4 -3 -6 0.98 0.27
3 -3 -6 23.77 0.79
-3 3 6 24.12 0.84
2 -3 -6 146.79 2.4
2 -3 -6 148.27 2.71
-2 3 6 148.55 2.46
-2 3 6 145.16 2.68
1 -3 -6 160.22 2.55
-1 3 6 162.16 2.81
-1 3 6 156.56 2.55
0 -3 -6 76.73 1.33
0 3 6 75.42 1.31
-1 -3 -6 0.54 0.16
1 3 6 0.64 0.15
3 3 6 36.74 1.05
3 3 6 37.57 0.84
4 3 6 56.76 1.12
4 3 6 57.51 1.49
4 3 6 57.29 1.7
5 3 6 14.97 0.98
5 3 6 14.83 0.79
6 3 6 0.19 0.39
7 3 6 16.07 0.77
5 -4 -6 -0.05 0.29
5 -4 -6 0.26 0.22
4 -4 -6 12.89 0.61
4 -4 -6 13.25 0.78
3 -4 -6 43.24 1.12
-3 4 6 39.49 1.14
2 -4 -6 31.31 0.77
2 -4 -6 31.2 0.9
-2 4 6 31 0.92
-2 4 6 31.57 0.82
1 -4 -6 10.3 0.43
-1 4 6 10.63 0.45
-1 4 6 9.99 0.52
0 -4 -6 23.15 0.6
0 4 6 22.52 0.58
0 4 6 22.75 0.67
-1 -4 -6 14.33 0.45
1 4 6 14.27 0.42
1 4 6 13.9 0.54
-2 -4 -6 82.76 1.43
2 4 6 83.41 1.68
3 4 6 46.52 1.41
3 4 6 47.54 1.06
4 4 6 2.14 0.45
4 4 6 1.71 0.24
4 4 6 2.29 0.37
5 4 6 12.31 0.86
5 4 6 12.94 0.74
6 4 6 33.99 1.15
7 4 6 25.97 0.91
4 -5 -6 62.32 1.4
4 -5 -6 62.64 1.51
3 -5 -6 34.74 1
-3 5 6 35.6 1.04
2 -5 -6 6.66 0.5
-2 5 6 7.37 0.55
1 -5 -6 9.13 0.52
1 -5 -6 9.54 0.44
-1 5 6 9.44 0.55
-1 5 6 10.02 0.58
-1 5 6 9.17 0.44
0 -5 -6 48.16 1.01
0 5 6 47.64 1.16
0 5 6 46.75 1.1
0 5 6 49.29 0.99
-1 -5 -6 62.24 1.17
1 5 6 57.66 1.4
1 5 6 60.15 1.31
1 5 6 60.41 1.24
-2 -5 -6 76.86 1.4
2 5 6 77.79 1.66
2 5 6 75.8 1.46
2 5 6 79.34 1.56
3 5 6 3.37 0.38
3 5 6 3.51 0.33
4 5 6 19.61 0.68
5 5 6 44.27 1.01
5 5 6 43.61 1.28
6 5 6 24.43 0.93
7 5 6 24.81 0.84
4 -6 -6 20.08 0.67
3 -6 -6 7.12 0.52
-3 6 6 7.48 0.57
2 -6 -6 2.78 0.37
-2 6 6 2.68 0.38
1 -6 -6 28.31 0.9
-1 6 6 24.98 0.86
-1 6 6 27.04 0.89
0 6 6 52.86 1.28
0 6 6 52.39 1.21
0 6 6 49.65 1.07
-1 -6 -6 16.96 0.57
1 6 6 16.97 0.61
1 6 6 17.75 0.67
-2 -6 -6 0.8 0.22
2 6 6 0.83 0.23
2 6 6 0.95 0.23
2 6 6 0.37 0.25
3 6 6 16.27 0.61
3 6 6 15.57 0.67
4 6 6 49.06 1.22
5 6 6 31.98 0.89
3 -7 -6 18.65 0.69
-3 7 6 20.52 0.73
2 -7 -6 50.97 1.27
-2 7 6 50.45 1.26
1 -7 -6 66.01 1.52
-1 7 6 65.02 1.49
-1 7 6 64.79 1.54
0 7 6 25.21 0.88
0 7 6 25.86 0.85
1 7 6 2.85 0.34
1 7 6 3.47 0.44
2 7 6 15.38 0.57
2 7 6 12.52 0.71
2 7 6 15.4 0.64
3 7 6 44.5 1.11
3 7 6 44.03 1.21
4 7 6 38.64 0.98
4 7 6 38.53 1.08
5 7 6 12.58 0.61
3 -8 -6 16.02 0.57
2 -8 -6 23.97 0.8
-2 8 6 24.53 0.81
1 -8 -6 1.26 0.32
-1 8 6 0.92 0.32
0 8 6 1.36 0.31
0 8 6 1.09 0.3
1 8 6 2.21 0.34
1 8 6 2.61 0.34
2 8 6 45.35 1.17
2 8 6 43.57 1.05
3 8 6 16.87 0.76
3 8 6 16.23 0.66
4 8 6 2.53 0.36
4 8 6 3.21 0.41
5 8 6 6.58 0.47
1 -9 -6 3.54 0.36
-1 9 6 3.23 0.42
0 9 6 21.84 0.75
0 9 6 23.66 0.81
1 9 6 35 1.01
1 9 6 33.97 0.92
2 9 6 33.38 0.96
2 9 6 32.2 0.83
3 9 6 0.83 0.26
3 9 6 1.21 0.31
4 9 6 4.61 0.48
4 9 6 4.59 0.39
0 10 6 23.28 0.67
0 10 6 23.76 0.71
1 10 6 17.15 0.55
1 10 6 16.83 0.63
2 10 6 1.03 0.25
3 10 6 3.53 0.38
-2 -8 7 7.55 0.54
-2 -8 7 7.55 0.5
1 8 -7 37.1 1
-1 -8 7 36.13 0.92
-1 -8 7 36.99 1.02
0 -8 7 45.27 1.15
1 -8 7 6.77 0.57
1 -8 7 6.71 0.5
3 7 -7 13.68 0.64
-3 -7 7 13.15 0.65
2 7 -7 11.9 0.64
-2 -7 7 12.56 0.72
-2 -7 7 12.01 0.65
1 7 -7 64.79 1.5
-1 -7 7 62.34 1.42
-1 -7 7 60.76 1.51
0 -7 7 5.9 0.58
0 -7 7 5.19 0.49
1 -7 7 0.74 0.34
1 -7 7 0.75 0.38
2 -7 7 20.23 0.7
2 -7 7 20.92 0.8
3 -7 7 26.27 0.77
-4 -6 7 47.22 1.18
3 6 -7 60.99 1.48
-3 -6 7 64.26 1.5
2 6 -7 79.41 1.76
-2 -6 7 76.28 1.8
-2 -6 7 76.99 1.73
1 6 -7 3.37 0.42
-1 -6 7 3.27 0.44
0 -6 7 -0.07 0.34
1 -6 7 25.81 0.88
1 -6 7 27.19 1.01
2 -6 7 31.37 1
2 -6 7 29.58 0.89
3 -6 7 21.56 0.78
4 -6 7 9.88 0.41
5 5 -7 38.28 0.94
4 5 -7 15.13 0.69
-4 -5 7 13.91 0.74
3 5 -7 75.89 1.75
-3 -5 7 77.77 1.74
2 5 -7 2.81 0.4
2 5 -7 2.77 0.42
-2 -5 7 2.3 0.42
-2 -5 7 3.28 0.45
1 5 -7 1.31 0.35
-1 -5 7 1.47 0.39
0 -5 7 23.11 0.86
1 -5 7 55.83 1.3
1 -5 7 50.61 1.39
2 -5 7 10.22 0.66
2 -5 7 11.24 0.59
3 -5 7 0.47 0.31
4 -5 7 29.03 0.76
5 4 -7 33.22 0.91
4 4 -7 0.85 0.31
-4 -4 7 1.38 0.41
3 4 -7 3.5 0.42
-3 -4 7 3.18 0.45
2 4 -7 40.15 1.16
-2 -4 7 41.26 1.17
-2 -4 7 41.57 1.14
1 4 -7 8.99 0.59
-1 -4 7 9.39 0.61
-1 -4 7 8.81 0.44
0 4 -7 139.28 2.41
0 -4 7 142.03 2.67
-1 4 -7 5.84 0.41
1 -4 7 5.9 0.42
1 -4 7 5.3 0.49
1 -4 7 4.82 0.58
2 -4 7 0.74 0.3
2 -4 7 0.51 0.26
3 -4 7 35.87 0.99
4 -4 7 34.66 0.85
5 3 -7 20.65 0.72
4 3 -7 1.13 0.3
-4 -3 7 1.57 0.42
3 3 -7 19.31 0.8
-3 -3 7 17.55 0.79
2 3 -7 66.65 1.53
-2 -3 7 65.95 1.55
-2 -3 7 66.37 1.5
1 3 -7 72.69 1.4
1 3 -7 73.72 1.59
-1 -3 7 71.51 1.53
-1 -3 7 73.97 1.35
-1 -3 7 72.7 1.61
0 3 -7 25.62 0.69
0 -3 7 26.4 0.81
0 -3 7 26.43 0.77
-1 3 -7 13.28 0.49
1 -3 7 13.39 0.58
1 -3 7 13.38 0.63
1 -3 7 13.86 0.5
2 -3 7 42.31 1.01
2 -3 7 42.65 1.08
3 -3 7 41.95 1.04
4 -3 7 71.89 2.05
4 -3 7 74.09 1.43
5 2 -7 1 0.28
4 2 -7 31.5 0.96
-4 -2 7 29.18 1.01
3 2 -7 81.89 1.79
-3 -2 7 82.95 1.78
2 2 -7 93.5 1.91
2 2 -7 92.94 1.68
-2 -2 7 92.93 1.85
-2 -2 7 88.13 1.93
-2 -2 7 94.17 1.67
1 2 -7 18.93 0.57
-1 -2 7 18.88 0.71
-1 -2 7 18.77 0.66
-1 -2 7 19.41 0.56
0 2 -7 0.11 0.17
0 -2 7 0.42 0.24
0 -2 7 0.15 0.16
-1 2 -7 62.36 1.19
1 -2 7 64.19 1.4
1 -2 7 65.07 1.23
2 -2 7 83 1.64
2 -2 7 80.71 1.56
2 -2 7 80.27 2.06
3 -2 7 57.66 1.22
3 -2 7 57.65 1.7
4 -2 7 38.14 1.43
4 -2 7 38.58 0.82
5 1 -7 36.25 0.98
4 1 -7 39.47 1.08
-4 -1 7 38.72 1.13
3 1 -7 31.29 0.93
-3 -1 7 29.69 0.95
2 1 -7 6.82 0.48
2 1 -7 6.79 0.39
-2 -1 7 7.23 0.54
-2 -1 7 7.49 0.43
-2 -1 7 6.96 0.51
1 1 -7 0.23 0.18
-1 -1 7 0.39 0.2
-1 -1 7 0.04 0.23
0 1 -7 55.56 1.06
0 -1 7 54.26 0.99
0 -1 7 54.54 1.21
-1 1 -7 71.18 1.26
2 -1 7 51.23 1.1
3 -1 7 0.7 0.42
3 -1 7 0.58 0.19
4 -1 7 23.28 1.14
5 -1 7 54.58 1.79
5 0 -7 30.22 0.86
4 0 -7 25.71 0.85
3 0 -7 3.47 0.41
-3 0 7 4.03 0.53
2 0 -7 2.02 0.25
2 0 -7 2.22 0.31
-2 0 7 1.75 0.35
-2 0 7 2.38 0.35
-2 0 7 1.96 0.27
1 0 -7 183.23 2.87
-1 0 7 180.59 2.85
-1 0 7 179.23 3.13
0 0 -7 78.82 1.38
0 0 7 76.66 1.31
-1 0 -7 34.81 0.73
2 0 7 0.01 0.17
3 0 7 14.71 0.83
3 0 7 15.18 0.47
4 0 7 46.76 1.4
4 0 7 49.98 1.65
5 0 7 51.26 1.75
5 0 7 50.03 1.49
5 -1 -7 16.62 0.89
5 -1 -7 17.31 0.64
4 -1 -7 0.42 0.27
3 -1 -7 8.72 0.54
-3 1 7 10 0.63
2 -1 -7 91.35 1.85
2 -1 -7 89.98 1.62
-2 1 7 93.43 1.82
-2 1 7 91.04 1.89
-2 1 7 92.89 1.65
1 -1 -7 198.85 3.09
-1 1 7 193.58 3.06
-1 1 7 195.34 3.35
0 -1 -7 35.85 0.77
0 1 7 37.12 0.74
-1 -1 -7 -0.01 0.13
3 1 7 78.93 1.85
3 1 7 76.8 2.05
3 1 7 76.19 1.46
4 1 7 129.98 3.17
4 1 7 126.02 2.84
5 1 7 22.39 1.21
5 1 7 21.04 0.96
6 1 7 0.32 0.42
5 -2 -7 14.13 0.77
5 -2 -7 14.46 0.58
4 -2 -7 15.54 0.67
3 -2 -7 78.43 1.67
-3 2 7 75.35 1.69
2 -2 -7 70.52 1.5
2 -2 -7 67.6 1.31
-2 2 7 68.71 1.49
-2 2 7 68.45 1.34
-2 2 7 68.35 1.61
1 -2 -7 6.91 0.35
-1 2 7 6.65 0.37
-1 2 7 6.52 0.46
0 -2 -7 11.87 0.41
0 2 7 10.21 0.38
-1 -2 -7 35.75 0.75
3 2 7 100.48 2.23
3 2 7 97.51 1.84
4 2 7 29.63 1.21
4 2 7 26.79 0.59
4 2 7 28.34 0.99
5 2 7 2.29 0.45
5 2 7 1.72 0.56
6 2 7 15.83 0.86
6 2 7 16.01 1.07
5 -3 -7 43.18 1.01
5 -3 -7 45.02 1.2
4 -3 -7 21.44 0.76
3 -3 -7 106.36 2.1
-3 3 7 98.8 2.08
2 -3 -7 1.01 0.25
2 -3 -7 1.07 0.21
-2 3 7 1.34 0.27
-2 3 7 1 0.32
1 -3 -7 0.31 0.18
-1 3 7 0.32 0.19
-1 3 7 0.29 0.25
-1 3 7 -0.21 0.23
0 -3 -7 124 2.03
0 3 7 119.84 2.18
0 3 7 120.02 1.98
-1 -3 -7 99.35 1.68
1 3 7 99.89 1.81
2 3 7 75.07 1.53
3 3 7 2.58 0.38
3 3 7 1.59 0.22
4 3 7 5.2 0.76
4 3 7 6.13 0.33
4 3 7 5.9 0.56
5 3 7 28.08 1.27
5 3 7 29.28 1.07
6 3 7 42.36 1.31
7 3 7 22.06 0.84
5 -4 -7 21.01 0.73
5 -4 -7 21.65 0.62
4 -4 -7 20.11 0.72
4 -4 -7 18.87 0.86
3 -4 -7 26.78 0.87
-3 4 7 27.63 0.95
2 -4 -7 0.6 0.26
-2 4 7 0.21 0.3
1 -4 -7 22.35 0.75
1 -4 -7 22.73 0.64
-1 4 7 22.6 0.79
-1 4 7 23.08 0.66
-1 4 7 23.09 0.76
0 -4 -7 147.7 2.42
0 4 7 147.49 2.7
0 4 7 145.72 2.61
0 4 7 144.94 2.38
-1 -4 -7 62.27 1.19
1 4 7 62.83 1.43
1 4 7 61.57 1.26
1 4 7 62.89 1.33
2 4 7 16.8 0.56
2 4 7 17.36 0.63
3 4 7 0.87 0.21
4 4 7 23.02 0.87
4 4 7 23.1 1.08
4 4 7 24.83 0.69
5 4 7 26.94 1
5 4 7 28.76 1.21
6 4 7 14.83 0.77
7 4 7 -0.24 0.3
4 -5 -7 0.38 0.24
4 -5 -7 0.26 0.29
3 -5 -7 17.93 0.71
-3 5 7 18.51 0.76
-2 5 7 62.94 1.46
1 -5 -7 38.83 1.06
-1 5 7 39.25 1.04
-1 5 7 38.82 1.09
0 -5 -7 30.06 0.77
0 5 7 29.36 0.73
0 5 7 28.63 0.83
0 5 7 30.87 0.9
-1 -5 -7 2.25 0.27
1 5 7 1.37 0.24
1 5 7 2.02 0.26
1 5 7 2.01 0.33
-2 -5 -7 20.14 0.65
2 5 7 18.94 0.71
2 5 7 19.82 0.64
3 5 7 29.36 0.78
3 5 7 28.32 0.84
4 5 7 125.48 2.42
5 5 7 6.55 0.4
5 5 7 6.51 0.58
6 5 7 0.01 0.33
4 -6 -7 4.85 0.38
3 -6 -7 57.8 1.36
-3 6 7 59.02 1.37
2 -6 -7 50.75 1.31
-2 6 7 54.05 1.32
1 -6 -7 46.21 1.22
-1 6 7 46.02 1.24
-1 6 7 47.11 1.2
0 6 7 3.02 0.35
0 6 7 3.6 0.48
1 6 7 11.89 0.54
1 6 7 11.75 0.59
2 6 7 42.91 0.97
2 6 7 43.3 1.07
2 6 7 42.36 1.16
3 6 7 32.88 0.97
3 6 7 34.06 0.9
4 6 7 22.67 0.78
5 6 7 2.92 0.31
3 -7 -7 6.5 0.45
-3 7 7 6.12 0.46
2 -7 -7 22.77 0.78
-2 7 7 23.12 0.8
1 -7 -7 1.55 0.3
-1 7 7 0.98 0.3
-1 7 7 1.13 0.32
0 7 7 19.89 0.74
0 7 7 19.78 0.79
1 7 7 47.23 1.13
1 7 7 47.96 1.23
2 7 7 36.21 1.01
2 7 7 34.78 1.09
2 7 7 36.75 0.88
3 7 7 6.78 0.56
3 7 7 5.81 0.47
4 7 7 3.59 0.39
4 7 7 3.25 0.38
5 7 7 15.35 0.61
2 -8 -7 2.05 0.3
-2 8 7 2 0.31
1 -8 -7 48.98 1.2
-1 8 7 48.38 1.18
-1 8 7 48.61 1.21
0 8 7 24.09 0.85
0 8 7 24.96 0.81
1 8 7 42.31 1.05
1 8 7 43.45 1.15
2 8 7 10.4 0.59
2 8 7 9.63 0.46
3 8 7 1.7 0.34
3 8 7 1.93 0.3
4 8 7 15.33 0.57
4 8 7 15.3 0.67
5 8 7 22.33 0.68
1 -9 -7 17.2 0.62
-1 9 7 17.4 0.6
0 9 7 10.5 0.52
0 9 7 11.33 0.58
1 9 7 0.18 0.23
1 9 7 0.24 0.25
2 9 7 7.57 0.51
3 9 7 22.04 0.7
3 9 7 22.32 0.79
4 9 7 30.66 0.75
4 9 7 31.91 0.89
1 10 7 4.62 0.39
2 10 7 23.61 0.69
0 -8 8 0.72 0.27
3 7 -8 27.68 0.78
-3 -7 8 26.88 0.78
-2 -7 8 1.11 0.32
-2 -7 8 0.99 0.34
1 7 -8 0.6 0.3
-1 -7 8 -0.09 0.29
-1 -7 8 -0.58 0.3
0 -7 8 19.87 0.75
1 -7 8 55.46 1.26
1 -7 8 54.87 1.36
2 -7 8 27.44 0.83
2 -7 8 25.75 0.69
-4 -6 8 12.37 0.57
-3 -6 8 0.41 0.33
-2 -6 8 8.73 0.63
-2 -6 8 8.07 0.66
1 6 -8 31.71 1.02
-1 -6 8 30.8 1.03
-1 -6 8 31.1 0.93
0 -6 8 35.8 0.92
0 -6 8 35.59 1.07
1 -6 8 28.62 1
1 -6 8 28.35 0.91
2 -6 8 0.25 0.33
2 -6 8 0.68 0.28
3 -6 8 1.42 0.3
4 5 -8 8.21 0.52
-4 -5 8 7.8 0.58
-3 -5 8 18.53 0.78
-2 -5 8 63.55 1.56
-2 -5 8 61.4 1.46
1 5 -8 102.6 2.15
-1 -5 8 100.59 2.03
-1 -5 8 101.86 2.16
0 -5 8 60.41 1.47
0 -5 8 61.08 1.34
1 -5 8 1.47 0.35
1 -5 8 1.11 0.38
2 -5 8 0.54 0.28
2 -5 8 0.36 0.33
3 -5 8 36.79 1
4 -5 8 16.84 0.49
4 4 -8 5.38 0.51
-4 -4 8 4.62 0.59
3 4 -8 40.24 1.15
-3 -4 8 41.13 1.15
-2 -4 8 6.88 0.61
-2 -4 8 7.32 0.62
1 4 -8 38.78 1.13
-1 -4 8 39.81 1.15
-1 -4 8 39.93 1.08
0 -4 8 2.53 0.39
0 -4 8 3.25 0.37
1 -4 8 2.23 0.34
1 -4 8 1.64 0.37
2 -4 8 72.08 1.52
2 -4 8 72.69 1.64
3 -4 8 34.3 0.97
4 -4 8 5.18 0.39
5 3 -8 17.61 0.61
4 3 -8 72.43 1.65
-4 -3 8 77.01 1.69
3 3 -8 28.01 0.95
-3 -3 8 31.22 1
2 3 -8 10.43 0.67
-2 -3 8 11.48 0.7
-2 -3 8 11.72 0.68
-1 -3 8 6.26 0.57
-1 -3 8 5.92 0.53
0 -3 8 37.2 1.04
0 -3 8 38.15 0.95
1 -3 8 56.33 1.39
1 -3 8 59.8 1.33
2 -3 8 77.79 1.7
2 -3 8 79.55 1.6
3 -3 8 4.25 0.48
4 -3 8 0.38 0.2
5 2 -8 29.02 0.82
4 2 -8 20.51 0.77
-4 -2 8 21.81 0.86
3 2 -8 26.36 0.9
-3 -2 8 27.31 0.95
2 2 -8 2.16 0.32
-2 -2 8 2.6 0.37
-2 -2 8 2.16 0.36
1 2 -8 45.01 1.01
-1 -2 8 44.03 0.94
-1 -2 8 43.35 1.08
-1 -2 8 43.79 1.16
0 2 -8 87.63 1.59
0 -2 8 84.27 1.75
0 -2 8 84.41 1.87
0 -2 8 87.62 1.67
-1 2 -8 53.21 1.11
1 -2 8 53.22 1.28
1 -2 8 57.07 1.23
2 -2 8 6.1 0.47
2 -2 8 5.73 0.44
2 -2 8 5.52 0.69
3 -2 8 22.04 1.08
3 -2 8 22.72 0.71
4 -2 8 19.05 1.07
5 1 -8 22.99 0.72
5 1 -8 21.79 0.88
4 1 -8 1.72 0.31
-4 -1 8 1.55 0.37
3 1 -8 26.23 0.9
-3 -1 8 27.36 0.94
-2 -1 8 59.54 1.38
-2 -1 8 59.76 1.45
1 1 -8 93.83 1.69
-1 -1 8 90.45 1.81
-1 -1 8 93.25 1.62
-1 -1 8 92.71 1.9
0 1 -8 72.01 1.36
0 -1 8 74.79 1.45
0 -1 8 70.75 1.52
0 -1 8 70.19 1.61
-1 1 -8 12.68 0.46
1 -1 8 12.18 0.59
1 -1 8 12.97 0.55
2 -1 8 2.63 0.35
2 -1 8 2.37 0.28
3 -1 8 53.17 1.67
3 -1 8 52.36 1.14
4 -1 8 48.31 1.64
5 -1 8 24.95 1.23
5 0 -8 9.77 0.49
5 0 -8 9.57 0.71
4 0 -8 7.79 0.55
-4 0 8 7.75 0.61
3 0 -8 63.32 1.46
-3 0 8 60.37 1.44
2 0 -8 13.86 0.62
-2 0 8 12.65 0.65
-2 0 8 13.73 0.7
1 0 -8 37.63 0.85
-1 0 8 35.82 0.94
-1 0 8 37.47 0.84
-1 0 8 36.41 1.01
0 0 -8 0.04 0.16
0 0 8 -0.13 0.21
0 0 8 -0.2 0.21
-1 0 -8 29.74 0.7
1 0 8 30.21 0.85
1 0 8 29.77 0.71
2 0 8 85.17 1.7
3 0 8 52.25 1.11
3 0 8 51.14 1.63
4 0 8 20.08 1.14
5 0 8 2.23 0.59
5 -1 -8 5.31 0.41
5 -1 -8 5.61 0.62
4 -1 -8 21.8 0.77
-4 1 8 22.02 0.86
3 -1 -8 40.76 1.12
-3 1 8 42.29 1.15
2 -1 -8 16.16 0.66
-2 1 8 15.5 0.73
-2 1 8 16.65 0.7
1 -1 -8 -0.05 0.18
-1 1 8 -0.01 0.26
-1 1 8 0.04 0.23
-1 1 8 -0.2 0.2
0 -1 -8 27.73 0.69
0 1 8 27.09 0.63
0 1 8 26.97 0.8
0 1 8 28.1 0.74
-1 -1 -8 210.55 3.26
1 1 8 209.01 3.79
1 1 8 208.31 3.46
2 1 8 17.96 0.6
3 1 8 25.71 1.13
3 1 8 26.51 0.69
4 1 8 12.26 0.95
5 1 8 12.97 1.06
5 -2 -8 14.15 0.55
5 -2 -8 14.46 0.72
4 -2 -8 20.62 0.74
-4 2 8 22.96 0.83
3 -2 -8 5.13 0.48
-3 2 8 4.6 0.57
2 -2 -8 5.99 0.47
-2 2 8 7.48 0.59
-2 2 8 6.41 0.58
1 -2 -8 34.68 0.83
-1 2 8 35.2 0.82
-1 2 8 35.02 0.93
-1 2 8 35.28 0.99
0 -2 -8 128 2.14
0 2 8 130.09 2.08
0 2 8 125.81 2.39
0 2 8 128.54 2.3
-1 -2 -8 65.96 1.22
1 2 8 65.24 1.36
1 2 8 63.63 1.43
1 2 8 64.07 1.25
2 2 8 41.29 1
2 2 8 40.7 0.92
3 2 8 0.26 0.19
4 2 8 41.78 1.6
4 2 8 42.14 0.87
4 2 8 44.18 1.32
5 2 8 40.69 1.33
5 2 8 42.44 1.62
6 2 8 61.2 1.61
6 2 8 57.39 1.89
4 -3 -8 11.35 0.56
-4 3 8 11.14 0.66
3 -3 -8 45.37 1.19
-3 3 8 48.86 1.25
2 -3 -8 29.11 0.9
-2 3 8 29.17 0.93
-2 3 8 29.23 0.96
1 -3 -8 131.74 2.24
-1 3 8 131.39 2.23
-1 3 8 131.33 2.44
-1 3 8 132.84 2.54
0 -3 -8 21.77 0.62
0 3 8 21.57 0.73
0 3 8 22.69 0.59
0 3 8 21.38 0.68
-1 -3 -8 7.42 0.37
1 3 8 7.3 0.4
1 3 8 7.31 0.45
1 3 8 7.26 0.52
2 3 8 6.53 0.4
2 3 8 6.75 0.47
3 3 8 62.52 1.33
4 3 8 31.13 1.43
4 3 8 41.68 1.23
4 3 8 42.07 0.88
5 3 8 24.46 0.98
5 3 8 23.78 1.23
6 3 8 3.17 0.6
6 3 8 2.44 0.46
4 -4 -8 5.42 0.43
4 -4 -8 5.41 0.57
-4 4 8 5.91 0.51
3 -4 -8 22.32 0.81
-3 4 8 24.44 0.9
2 -4 -8 43.22 1.17
-2 4 8 47.73 1.21
-2 4 8 44.86 1.28
-1 4 8 69.81 1.52
-1 4 8 68.73 1.57
0 -4 -8 7.94 0.42
0 4 8 7.41 0.49
-1 -4 -8 9.75 0.44
1 4 8 10.04 0.51
1 4 8 10.01 0.6
1 4 8 10.84 0.49
2 4 8 138.74 2.69
2 4 8 140.57 2.54
3 4 8 65.83 1.44
4 4 8 40.89 1.25
4 4 8 45.03 1.01
4 4 8 42.96 1.54
5 4 8 1.8 0.51
5 4 8 2.66 0.43
6 4 8 5.36 0.59
4 -5 -8 14.7 0.6
4 -5 -8 15.17 0.58
-4 5 8 15.75 0.61
3 -5 -8 24.91 0.81
-3 5 8 24.56 0.85
2 -5 -8 13.29 0.63
-2 5 8 13.29 0.68
-1 5 8 1.54 0.34
-1 5 8 1.16 0.31
0 5 8 5.4 0.5
0 5 8 5.05 0.49
1 5 8 29.63 0.88
1 5 8 31.4 0.82
1 5 8 31.42 1
2 5 8 41.23 1.02
2 5 8 41.68 1.13
3 5 8 4.48 0.38
3 5 8 4.92 0.48
4 5 8 9.41 0.51
6 5 8 25.62 0.87
3 -6 -8 8.1 0.52
-3 6 8 8.73 0.55
2 -6 -8 4.82 0.5
-2 6 8 4.72 0.52
-1 6 8 49.96 1.25
-1 6 8 51.14 1.31
0 6 8 91.58 1.95
0 6 8 91.56 1.85
1 6 8 59.58 1.4
1 6 8 59.57 1.3
2 6 8 25.46 0.8
2 6 8 25.53 0.89
3 6 8 3.08 0.39
3 6 8 2.94 0.36
4 6 8 13.43 0.62
5 6 8 38.58 0.89
3 -7 -8 1.27 0.24
-3 7 8 0.92 0.25
2 -7 -8 3.62 0.43
-2 7 8 3.48 0.45
-1 7 8 38.05 1.03
-1 7 8 38.85 1.09
0 7 8 33.32 1.02
0 7 8 34.79 0.96
1 7 8 21.47 0.7
1 7 8 22.82 0.81
2 7 8 0.8 0.27
2 7 8 0.81 0.3
3 7 8 14.94 0.69
3 7 8 14.85 0.62
4 7 8 35.56 0.99
5 7 8 12.04 0.5
2 -8 -8 19.18 0.62
-2 8 8 17.7 0.6
-1 8 8 15.87 0.64
-1 8 8 16.45 0.63
0 8 8 5.99 0.47
0 8 8 6.71 0.5
1 8 8 19.95 0.74
1 8 8 20.64 0.66
2 8 8 18.16 0.7
2 8 8 18.13 0.79
3 8 8 45.45 1.21
3 8 8 44.96 1.08
4 8 8 19.91 0.71
0 9 8 4.24 0.36
0 9 8 5.12 0.43
1 9 8 20.86 0.6
1 9 8 22.53 0.73
2 9 8 11.19 0.54
3 9 8 23.22 0.77
3 9 8 22.54 0.67
4 9 8 -0.11 0.22
-1 -7 9 34.65 0.94
-1 -7 9 32.92 0.76
0 -7 9 14.53 0.62
1 -7 9 8.76 0.57
1 -7 9 8.05 0.46
-3 -6 9 30.67 0.83
-2 -6 9 32.58 0.89
-2 -6 9 32.43 0.96
-1 -6 9 14.6 0.72
-1 -6 9 14.2 0.6
0 -6 9 1.67 0.35
1 -6 9 5.45 0.6
1 -6 9 5.9 0.5
2 -6 9 30.58 0.77
2 -6 9 30.91 0.92
3 -6 9 34.31 0.84
3 5 -9 34.62 0.98
-3 -5 9 34.44 0.98
-2 -5 9 12.77 0.72
-2 -5 9 10.26 0.64
-1 -5 9 0.56 0.33
-1 -5 9 0.16 0.35
0 -5 9 44.2 1.19
0 -5 9 46.33 1.05
1 -5 9 55.07 1.32
1 -5 9 57.63 1.45
2 -5 9 45.55 1.08
2 -5 9 47.1 1.21
3 -5 9 9.41 0.55
4 4 -9 67.79 1.46
-4 -4 9 67.93 1.46
3 4 -9 15.38 0.71
-3 -4 9 16.88 0.74
-2 -4 9 15.46 0.78
-2 -4 9 14.25 0.71
-1 -4 9 43.98 1.23
-1 -4 9 43.48 1.12
0 -4 9 20.81 0.71
0 -4 9 23.05 0.85
1 -4 9 84.43 1.76
1 -4 9 81.85 1.87
2 -4 9 21.76 0.82
2 -4 9 21.16 0.72
3 -4 9 3.27 0.37
4 3 -9 1.07 0.29
-4 -3 9 0.95 0.34
3 3 -9 7.15 0.56
-3 -3 9 7.07 0.65
-2 -3 9 30.14 0.98
-2 -3 9 30.91 1.02
-1 -3 9 62 1.4
-1 -3 9 61.99 1.51
0 -3 9 3.39 0.38
0 -3 9 3.42 0.43
1 -3 9 20.89 0.77
1 -3 9 20.62 0.84
2 -3 9 16.69 0.64
2 -3 9 16.04 0.73
3 -3 9 22.38 0.77
4 2 -9 2.03 0.33
-4 -2 9 1.8 0.38
3 2 -9 28.29 0.94
-3 -2 9 29.41 0.98
-2 -2 9 89.03 1.87
-2 -2 9 88.42 1.95
-1 -2 9 52.27 1.32
-1 -2 9 51.98 1.25
0 -2 9 12.41 0.64
0 -2 9 11.63 0.71
0 -2 9 11.52 0.57
1 -2 9 20.15 0.73
1 -2 9 19.92 0.8
2 -2 9 50.71 1.16
2 -2 9 51.28 1.27
2 -2 9 52.05 1.6
3 -2 9 78.34 2.2
3 -2 9 81.53 1.67
4 -2 9 8.93 0.89
5 1 -9 2.96 0.36
5 1 -9 3.86 0.35
4 1 -9 7.42 0.53
-4 -1 9 7.08 0.6
3 1 -9 39.52 1.11
-3 -1 9 40.26 1.12
2 1 -9 8.67 0.59
-2 -1 9 8.2 0.64
-2 -1 9 9.21 0.64
-1 -1 9 1.87 0.35
-1 -1 9 2.2 0.38
0 1 -9 27.29 0.76
0 -1 9 28.11 0.79
0 -1 9 28.7 0.87
1 -1 9 47.32 1.14
1 -1 9 48.32 1.22
2 -1 9 78.76 1.68
2 -1 9 78.37 1.57
3 -1 9 28.66 1.26
3 -1 9 28.53 0.82
4 -1 9 0.6 0.52
5 -1 9 13.68 0.99
5 0 -9 42.41 1.11
5 0 -9 41.08 0.95
4 0 -9 65.88 1.47
-4 0 9 65.55 1.5
3 0 -9 50.76 1.28
-3 0 9 49.21 1.27
2 0 -9 4.28 0.46
-2 0 9 4.39 0.53
-2 0 9 4.07 0.54
-1 0 9 33.42 0.8
-1 0 9 33.8 0.92
-1 0 9 32.58 0.99
0 0 -9 44.42 0.98
0 0 9 43.8 1.22
0 0 9 44.34 1.1
0 0 9 43.97 1.02
1 0 9 89.77 1.76
1 0 9 87.72 1.88
2 0 9 27.8 0.76
2 0 9 27.78 0.83
3 0 9 1.76 0.27
3 0 9 2.16 0.53
4 0 9 15.56 1.07
5 0 9 37.68 1.5
4 -1 -9 15.86 0.65
-4 1 9 16.35 0.73
3 -1 -9 1.55 0.31
-3 1 9 1.79 0.4
2 -1 -9 33.22 1
-2 1 9 34.35 1.02
-2 1 9 34.77 1.05
-1 1 9 29.39 0.76
-1 1 9 30.13 0.94
-1 1 9 29.19 0.88
0 -1 -9 48.23 1.05
0 1 9 48.93 1.1
0 1 9 48.3 1.18
-1 -1 -9 13.88 0.51
1 1 9 14.83 0.51
1 1 9 14.36 0.64
1 1 9 14.8 0.6
2 1 9 13.46 0.53
2 1 9 12.69 0.57
3 1 9 64.49 1.95
3 1 9 64.75 1.36
4 1 9 54.95 1.85
5 1 9 22.69 1.23
6 1 9 5.11 0.83
4 -2 -9 -0.01 0.22
-4 2 9 0.04 0.31
3 -2 -9 15.79 0.68
-3 2 9 15.9 0.74
2 -2 -9 18.64 0.74
-2 2 9 19.45 0.78
-2 2 9 19.45 0.81
-1 2 9 50.48 1.22
-1 2 9 51.86 1.3
0 -2 -9 3.39 0.34
0 2 9 3.25 0.42
0 2 9 3.08 0.33
-1 -2 -9 4.78 0.34
1 2 9 4.46 0.37
1 2 9 5.18 0.52
1 2 9 4.75 0.43
2 2 9 63.96 1.43
2 2 9 66.25 1.35
3 2 9 75.85 1.56
4 2 9 26.31 1.36
4 2 9 27.4 0.66
5 2 9 3.96 0.68
6 2 9 9.34 0.9
4 -3 -9 48.17 1.14
-4 3 9 47.38 1.16
3 -3 -9 13.75 0.61
-3 3 9 15.27 0.72
2 -3 -9 38.44 1.07
-2 3 9 37.45 1.07
-2 3 9 39.58 1.14
-1 3 9 5.68 0.51
-1 3 9 5.36 0.54
0 3 9 20.08 0.67
0 3 9 17.88 0.71
-1 -3 -9 57.15 1.19
1 3 9 59.7 1.31
1 3 9 58.05 1.19
1 3 9 57.74 1.4
2 3 9 61.81 1.32
2 3 9 62.63 1.41
3 3 9 32.86 0.9
5 3 9 4.9 0.69
6 3 9 12.73 0.92
4 -4 -9 50.19 1.11
4 -4 -9 49.03 1.22
-4 4 9 48.91 1.13
3 -4 -9 12.63 0.63
-3 4 9 14.85 0.71
2 -4 -9 6.9 0.53
-2 4 9 7.28 0.61
-2 4 9 7.31 0.61
-1 4 9 71.57 1.59
-1 4 9 74.03 1.66
0 4 9 20.85 0.77
0 4 9 21.14 0.72
1 4 9 160.5 2.98
1 4 9 164.64 2.83
1 4 9 161.92 3.16
2 4 9 16.34 0.6
2 4 9 16.04 0.69
3 4 9 0.48 0.26
4 4 9 40.86 1.56
4 4 9 41.37 0.98
5 4 9 41.94 1.52
6 4 9 30.9 1.17
3 -5 -9 0.71 0.24
-3 5 9 0.38 0.3
2 -5 -9 11.06 0.59
-2 5 9 10.83 0.63
-2 5 9 11.84 0.63
-1 5 9 27.03 0.86
-1 5 9 25.73 0.91
0 5 9 33.88 1.02
0 5 9 35.36 0.96
1 5 9 38.68 0.93
1 5 9 39.09 1.04
1 5 9 35.03 1.12
2 5 9 0.89 0.24
2 5 9 1.04 0.31
3 5 9 26.83 0.87
3 5 9 26.21 1.17
3 5 9 28.85 0.77
4 5 9 32.99 0.9
3 -6 -9 16.18 0.59
-3 6 9 16.06 0.59
2 -6 -9 31.99 0.92
-2 6 9 30.77 0.91
-1 6 9 25.36 0.88
-1 6 9 25.26 0.83
0 6 9 0.82 0.29
0 6 9 0.87 0.28
1 6 9 7.02 0.53
1 6 9 7.11 0.47
2 6 9 27.83 0.97
2 6 9 31.07 0.89
3 6 9 32.77 0.86
3 6 9 33.13 0.98
4 6 9 14.46 0.64
2 -7 -9 22.68 0.72
-2 7 9 23.7 0.71
-1 7 9 4.63 0.48
-1 7 9 4.79 0.45
0 7 9 1.88 0.31
0 7 9 1.26 0.3
1 7 9 49.11 1.22
1 7 9 48.47 1.1
2 7 9 67.42 1.59
2 7 9 65.26 1.47
3 7 9 52.41 1.21
3 7 9 56.77 1.35
4 7 9 12.74 0.59
-1 8 9 0.37 0.22
-1 8 9 0.06 0.2
0 8 9 14.01 0.62
0 8 9 14.04 0.54
1 8 9 24.63 0.67
1 8 9 25.91 0.8
2 8 9 14.79 0.61
2 8 9 14.12 0.68
3 8 9 0.1 0.25
3 8 9 0.6 0.22
4 8 9 7.94 0.47
1 9 9 15.1 0.57
2 9 9 0.16 0.2
3 9 9 14.24 0.57
3 9 9 13.88 0.48
-1 -6 10 15.05 0.64
-1 -6 10 14.35 0.49
0 -6 10 37.92 1
1 -6 10 28.74 0.89
1 -6 10 28.9 0.78
2 -6 10 20.97 0.7
-3 -5 10 1.61 0.3
-2 -5 10 20.35 0.76
-2 -5 10 20.53 0.71
-1 -5 10 36.42 1.05
-1 -5 10 36.72 0.92
0 -5 10 32.28 0.97
1 -5 10 6.54 0.54
1 -5 10 6.36 0.61
2 -5 10 3.76 0.51
2 -5 10 3.76 0.36
3 -5 10 22.8 0.66
3 4 -10 21.61 0.75
-3 -4 10 23.29 0.76
-2 -4 10 48.62 1.18
-2 -4 10 48.18 1.27
-1 -4 10 53.42 1.35
-1 -4 10 53.12 1.23
0 -4 10 10.93 0.68
0 -4 10 11.54 0.52
1 -4 10 9.75 0.6
1 -4 10 9.7 0.7
2 -4 10 46.67 1.19
2 -4 10 42.92 1.03
3 -4 10 55.59 1.24
4 3 -10 15.93 0.59
-4 -3 10 17.16 0.61
3 3 -10 45.75 1.15
-3 -3 10 45.78 1.14
-2 -3 10 34.38 1.01
-2 -3 10 32.99 1.05
-1 -3 10 8.08 0.64
-1 -3 10 7.92 0.59
0 -3 10 0.26 0.27
0 -3 10 0.24 0.33
1 -3 10 34.75 0.99
1 -3 10 35.13 1.1
2 -3 10 2.47 0.38
2 -3 10 3.41 0.42
3 -3 10 79.03 1.64
4 2 -10 58.91 1.29
-4 -2 10 57.02 1.28
3 2 -10 22.34 0.8
-3 -2 10 24.04 0.83
-2 -2 10 -0.26 0.31
-2 -2 10 0.75 0.35
-1 -2 10 19.07 0.75
-1 -2 10 19.47 0.83
0 -2 10 97.51 2.01
0 -2 10 97.17 1.86
1 -2 10 57.43 1.48
1 -2 10 61.73 1.38
2 -2 10 16.43 0.74
2 -2 10 16.18 0.62
3 -2 10 5.27 0.82
3 -2 10 5.3 0.52
4 -2 10 44.89 1.51
4 1 -10 19.82 0.68
-4 -1 10 22.44 0.74
3 1 -10 2.07 0.33
-3 -1 10 2.05 0.38
-2 -1 10 0.87 0.35
-2 -1 10 0.9 0.36
-1 -1 10 37.88 1.1
-1 -1 10 37.79 1.01
0 -1 10 52.5 1.15
0 -1 10 50.9 1.28
0 -1 10 48.68 1.42
1 -1 10 29.71 0.88
1 -1 10 28.43 0.97
2 -1 10 0.61 0.47
2 -1 10 0.06 0.29
2 -1 10 -0.04 0.22
3 -1 10 28.3 1.27
3 -1 10 27.48 0.83
4 -1 10 44.62 1.59
5 -1 10 35.24 1.31
4 0 -10 4.23 0.42
-4 0 10 4.36 0.5
3 0 -10 9.94 0.57
-3 0 10 10.48 0.67
-2 0 10 74.64 1.61
-2 0 10 72.32 1.7
-1 0 10 35.78 1
-1 0 10 38.27 1.11
0 0 10 1.56 0.34
0 0 10 1.5 0.3
1 0 10 4.08 0.54
1 0 10 3.53 0.46
2 0 10 35.78 1.01
2 0 10 35.28 0.9
3 0 10 48.67 1.13
3 0 10 46.8 1.65
4 0 10 41.16 1.57
5 0 10 11.07 0.95
4 -1 -10 23.05 0.72
-4 1 10 23.27 0.75
3 -1 -10 69.9 1.58
-3 1 10 71.52 1.58
-2 1 10 102.32 2.04
-2 1 10 97.36 2.12
-1 1 10 19.81 0.8
-1 1 10 19.13 0.75
0 1 10 1.76 0.32
0 1 10 1.85 0.3
1 1 10 19.13 0.77
1 1 10 18.89 0.71
2 1 10 60.63 1.31
2 1 10 61.69 1.42
3 1 10 41.67 1.55
3 1 10 41.78 1.03
4 1 10 4.66 0.68
5 1 10 4.78 0.67
4 -2 -10 29.46 0.81
-4 2 10 28.2 0.82
3 -2 -10 22.63 0.79
-3 2 10 23.68 0.83
-2 2 10 2.32 0.38
-2 2 10 2.71 0.4
-1 2 10 1.05 0.34
-1 2 10 1.09 0.32
0 2 10 35.96 0.93
0 2 10 35.38 1.04
1 2 10 43.72 1.11
1 2 10 44.43 1.19
2 2 10 48.1 1.21
2 2 10 48.05 1.1
3 2 10 -0.04 0.24
4 2 10 10.4 0.99
4 2 10 9.8 0.4
5 2 10 59.96 1.9
6 2 10 17.81 0.97
3 -3 -10 3.28 0.43
-3 3 10 2.24 0.37
2 -3 -10 5.49 0.46
-2 3 10 7.24 0.57
-2 3 10 6.24 0.56
-1 3 10 21.38 0.77
-1 3 10 22.5 0.83
0 3 10 29.23 0.92
0 3 10 30.62 0.87
1 3 10 14.04 0.57
1 3 10 15.75 0.65
1 3 10 14.78 0.72
2 3 10 7.39 0.56
2 3 10 6.57 0.45
3 3 10 9.21 0.55
4 3 10 50.9 1.06
4 3 10 48.06 1.77
5 3 10 30.16 1.33
6 3 10 13.49 0.88
3 -4 -10 7.01 0.49
-3 4 10 8.32 0.51
2 -4 -10 67.35 1.53
-2 4 10 65.81 1.49
-2 4 10 66.99 1.55
-1 4 10 32.94 1.04
-1 4 10 33.51 0.97
0 4 10 28.81 0.92
0 4 10 27.63 0.82
1 4 10 22.36 0.89
1 4 10 25.57 0.7
1 4 10 24.46 0.82
2 4 10 8.33 0.49
2 4 10 7.42 0.56
3 4 10 92.2 1.92
4 4 10 28.9 0.77
4 4 10 31.15 1.35
5 4 10 10.67 0.88
3 -5 -10 37.4 0.93
-3 5 10 36.41 0.92
2 -5 -10 21.83 0.75
-2 5 10 23.03 0.78
-2 5 10 23.51 0.81
-1 5 10 18.78 0.73
-1 5 10 18.07 0.76
0 5 10 0.06 0.26
0 5 10 0.11 0.26
1 5 10 27.58 0.87
1 5 10 28.13 0.74
1 5 10 27.27 0.97
2 5 10 27 0.93
2 5 10 27.23 0.82
3 5 10 147.28 3.49
3 5 10 144.27 2.6
3 5 10 144.92 2.82
4 5 10 0.68 0.45
4 5 10 0.57 0.25
2 -6 -10 2.6 0.31
-2 6 10 2.39 0.31
-1 6 10 3.82 0.45
-1 6 10 3.89 0.47
0 6 10 22.45 0.81
0 6 10 23.17 0.72
1 6 10 25.93 0.7
1 6 10 23.92 0.82
2 6 10 14.85 0.62
2 6 10 15.97 0.73
3 6 10 5.7 0.51
3 6 10 4.93 0.4
4 6 10 8.11 0.5
-1 7 10 24.86 0.71
-1 7 10 24.3 0.76
0 7 10 33.67 0.95
0 7 10 32.34 0.84
1 7 10 16.31 0.67
2 7 10 0.34 0.23
2 7 10 0.3 0.28
3 7 10 19.38 0.72
3 7 10 18.64 0.6
4 7 10 40.94 0.99
0 8 10 10.75 0.49
0 8 10 10 0.4
1 8 10 4.08 0.4
2 8 10 2.3 0.28
2 8 10 1.97 0.31
3 8 10 30.26 0.73
3 8 10 29.93 0.86
-1 -5 11 1.76 0.32
0 -5 11 2.84 0.35
1 -5 11 17.68 0.6
1 -5 11 17.51 0.71
2 -5 11 42.09 1.02
-2 -4 11 1.99 0.3
-2 -4 11 1.7 0.34
-1 -4 11 3.73 0.41
-1 -4 11 3.03 0.39
0 -4 11 32.28 0.94
1 -4 11 53.71 1.24
1 -4 11 56.09 1.36
2 -4 11 25.37 0.82
3 -4 11 0.11 0.22
-3 -3 11 -0.01 0.26
-2 -3 11 9.66 0.59
-2 -3 11 9.39 0.54
-1 -3 11 29.36 0.94
-1 -3 11 28.44 0.81
0 -3 11 72.14 1.61
1 -3 11 30.44 1
1 -3 11 29.71 0.89
2 -3 11 1.77 0.36
2 -3 11 2.28 0.28
3 -3 11 5.95 0.46
-3 -2 11 13.02 0.59
-2 -2 11 39.57 1.12
-2 -2 11 39.19 1.02
-1 -2 11 41.4 1.04
-1 -2 11 44.18 1.17
0 -2 11 9.91 0.5
0 -2 11 10.22 0.62
1 -2 11 0.06 0.34
1 -2 11 -0.1 0.27
2 -2 11 17.25 0.75
2 -2 11 14.79 0.59
3 -2 11 17.33 0.64
3 1 -11 32.48 0.91
-3 -1 11 32.77 0.92
-2 -1 11 70.37 1.52
-2 -1 11 68.57 1.59
-1 -1 11 22.62 0.87
-1 -1 11 22.04 0.78
0 -1 11 0.27 0.31
0 -1 11 0.32 0.27
1 -1 11 24.62 0.84
1 -1 11 25.01 0.92
2 -1 11 88.2 1.89
2 -1 11 85.7 2.36
2 -1 11 89.95 1.73
3 -1 11 48.04 1.61
3 -1 11 47.77 1.13
4 -1 11 18.13 1.01
3 0 -11 3.97 0.42
-3 0 11 4.64 0.48
-2 0 11 15.96 0.72
-2 0 11 16.6 0.74
-1 0 11 2.04 0.36
-1 0 11 1.86 0.35
0 0 11 13.44 0.68
0 0 11 13.48 0.58
1 0 11 40.31 1.17
1 0 11 41.16 1.08
2 0 11 12.62 0.67
2 0 11 13.65 0.57
3 0 11 5.68 0.84
3 0 11 4.71 0.48
4 0 11 7.46 0.91
5 0 11 19.08 0.99
3 -1 -11 0.27 0.22
-3 1 11 0.72 0.31
-2 1 11 5.42 0.58
-2 1 11 4.4 0.53
-1 1 11 65.91 1.57
-1 1 11 67.68 1.47
0 1 11 109.41 2.22
0 1 11 111.54 2.06
1 1 11 20.5 0.84
1 1 11 21.59 0.77
2 1 11 2.57 0.37
2 1 11 4.12 0.42
3 1 11 12.23 0.59
3 1 11 13.22 1.01
4 1 11 28.08 1.28
5 1 11 44.58 1.52
3 -2 -11 1.68 0.27
-3 2 11 1.68 0.31
-2 2 11 33.95 1.01
-2 2 11 34.01 0.97
-1 2 11 54.37 1.36
-1 2 11 51.87 1.24
0 2 11 39.27 1.1
0 2 11 39.77 0.98
1 2 11 11.23 0.6
1 2 11 10.56 0.68
2 2 11 2.31 0.35
2 2 11 1.91 0.28
3 2 11 28.01 0.85
3 2 11 28 1.28
4 2 11 35.04 1.42
5 2 11 14.01 0.94
3 -3 -11 31.05 0.86
-3 3 11 31.27 0.85
-2 3 11 35.96 1
-2 3 11 38.95 1.08
-1 3 11 14.07 0.66
-1 3 11 12.6 0.67
0 3 11 1.02 0.31
0 3 11 0.9 0.28
1 3 11 10.1 0.57
1 3 11 9.61 0.66
2 3 11 36.56 1.08
2 3 11 38.94 0.97
3 3 11 32.64 0.92
3 3 11 34.04 1.39
4 3 11 7.57 0.89
4 3 11 7.09 0.36
5 3 11 0.42 0.47
-2 4 11 4.42 0.45
-2 4 11 5.75 0.5
-1 4 11 2.77 0.37
-1 4 11 2.71 0.34
0 4 11 39.14 1.1
0 4 11 41.64 1
1 4 11 25.89 0.93
1 4 11 25.26 0.82
2 4 11 20.44 0.7
2 4 11 22.35 0.82
3 4 11 0.34 0.27
3 4 11 0.02 0.46
4 4 11 5.36 0.8
4 4 11 5.86 0.39
5 4 11 22.82 1.03
-2 5 11 0.58 0.26
-2 5 11 0.96 0.25
-1 5 11 17.85 0.65
-1 5 11 17.62 0.72
0 5 11 58.83 1.27
0 5 11 61.77 1.42
1 5 11 24.42 0.89
1 5 11 23.31 0.8
2 5 11 9.57 0.61
2 5 11 8.77 0.51
3 5 11 7.65 0.79
3 5 11 7.58 0.53
4 5 11 17.67 0.58
4 5 11 17.17 0.94
-1 6 11 27.67 0.83
-1 6 11 28.95 0.75
0 6 11 10.9 0.48
0 6 11 12.11 0.59
1 6 11 5.44 0.48
2 6 11 7.26 0.54
2 6 11 6.67 0.46
3 6 11 10.97 0.56
4 6 11 40.54 0.92
0 7 11 1 0.2
0 7 11 0.84 0.24
1 7 11 16.6 0.62
2 7 11 27.75 0.75
2 7 11 27.02 0.85
3 7 11 25.59 0.78
4 7 11 3.68 0.33
-1 -4 12 23.41 0.72
0 -4 12 25.34 0.74
1 -4 12 0.58 0.3
1 -4 12 1.23 0.25
2 -4 12 4.9 0.42
-2 -3 12 33.49 0.87
-2 -3 12 30.79 0.75
-1 -3 12 4.89 0.47
0 -3 12 0.63 0.28
1 -3 12 11.56 0.65
1 -3 12 11.26 0.54
2 -3 12 69.23 1.49
3 -3 12 34.58 0.76
-2 -2 12 8.69 0.53
-2 -2 12 7.95 0.46
-1 -2 12 1.84 0.3
-1 -2 12 1.8 0.34
0 -2 12 19.83 0.76
1 -2 12 43.43 1.07
1 -2 12 44.44 1.2
2 -2 12 55.41 1.3
3 -2 12 1.57 0.25
-2 -1 12 2.4 0.34
-2 -1 12 3.13 0.35
-1 -1 12 21.52 0.68
-1 -1 12 22.01 0.8
0 -1 12 50.12 1.23
1 -1 12 34.02 0.95
1 -1 12 36.99 1.07
2 -1 12 3.08 0.54
2 -1 12 3.07 0.37
3 -1 12 3.66 0.41
3 -1 12 4.17 0.59
-2 0 12 27.66 0.87
-2 0 12 25.79 0.77
-1 0 12 30.28 0.93
-1 0 12 29.96 0.83
0 0 12 61.33 1.42
1 0 12 9.72 0.56
1 0 12 9.76 0.68
2 0 12 0.87 0.49
2 0 12 0.7 0.31
2 0 12 0.83 0.23
3 0 12 24.29 0.74
3 0 12 25.07 1.21
4 0 12 40.8 1.4
-2 1 12 27 0.78
-2 1 12 26.06 0.84
-1 1 12 9.94 0.54
-1 1 12 9.96 0.62
0 1 12 1.33 0.29
0 1 12 1.39 0.34
1 1 12 35.34 0.99
1 1 12 37.34 1.1
2 1 12 33.65 0.87
2 1 12 35.91 1.02
3 1 12 38.82 1.45
3 1 12 39.21 0.97
4 1 12 3.56 0.58
-2 2 12 21.79 0.71
-2 2 12 22.73 0.77
-1 2 12 0.33 0.3
-1 2 12 0.56 0.29
0 2 12 15.84 0.56
0 2 12 15.86 0.7
1 2 12 70.86 1.63
1 2 12 66.65 1.49
2 2 12 59.9 1.4
2 2 12 56.76 1.25
3 2 12 26.69 0.8
3 2 12 27.44 1.23
4 2 12 0.14 0.45
-2 3 12 1.44 0.29
-2 3 12 1.33 0.27
-1 3 12 10.75 0.52
-1 3 12 10.76 0.6
0 3 12 32.16 0.81
0 3 12 32.1 0.95
1 3 12 27.52 0.95
1 3 12 26.83 0.84
2 3 12 18.28 0.64
2 3 12 20.64 0.79
3 3 12 1.15 0.5
3 3 12 0.73 0.28
4 3 12 10.75 0.87
-2 4 12 30.06 0.81
-2 4 12 27.74 0.73
-1 4 12 27.86 0.76
-1 4 12 28.53 0.86
0 4 12 40.53 0.91
0 4 12 41.59 1.07
1 4 12 11.78 0.67
1 4 12 11.28 0.58
2 4 12 4.06 0.39
2 4 12 4.13 0.52
3 4 12 17.06 0.65
3 4 12 19.32 1.01
4 4 12 20.87 1.01
-1 5 12 13.01 0.56
-1 5 12 12.7 0.47
0 5 12 1.97 0.3
1 5 12 1.54 0.28
1 5 12 1.2 0.34
2 5 12 70.05 1.47
2 5 12 75.98 1.64
3 5 12 8.87 0.75
3 5 12 7.01 0.46
4 5 12 28.59 0.62
0 6 12 3.4 0.39
1 6 12 25 0.74
2 6 12 27.95 0.74
2 6 12 28.22 0.84
3 6 12 11.04 0.51
-1 -2 13 30.44 0.81
0 -2 13 25.81 0.75
1 -2 13 1.82 0.26
1 -2 13 1.37 0.32
2 -2 13 0.38 0.25
-1 -1 13 31.48 0.87
0 -1 13 1.19 0.29
1 -1 13 8.18 0.57
1 -1 13 7.52 0.47
2 -1 13 32.09 0.88
-1 0 13 0.14 0.25
0 0 13 10.44 0.56
1 0 13 24.21 0.83
1 0 13 23.95 0.73
2 0 13 57.64 1.33
2 0 13 60.52 1.74
3 0 13 22.17 1.01
3 0 13 22.28 0.61
-1 1 13 14.22 0.49
-1 1 13 15.41 0.61
0 1 13 25.25 0.8
1 1 13 35.28 1.02
1 1 13 34.57 0.9
2 1 13 25.54 1.12
2 1 13 23.73 0.79
3 1 13 0.24 0.22
3 1 13 0.24 0.46
-1 2 13 34.53 0.77
-1 2 13 34.26 0.92
0 2 13 37.68 0.98
1 2 13 9.49 0.62
1 2 13 10.34 0.52
2 2 13 4.98 0.37
2 2 13 5.97 0.53
3 2 13 35.84 1.3
3 2 13 35.1 0.86
4 2 13 52.88 1.61
-1 3 13 31.97 0.72
-1 3 13 33.03 0.87
0 3 13 5.74 0.47
1 3 13 1.03 0.26
1 3 13 1.19 0.32
2 3 13 13.89 0.64
2 3 13 13.84 0.49
3 3 13 41.28 1.39
3 3 13 40.98 0.96
0 4 13 7.92 0.47
1 4 13 12.76 0.54
1 4 13 13.99 0.65
2 4 13 42.4 1.06
2 4 13 39.85 0.9
3 4 13 19.7 0.94
3 4 13 18.82 0.6
0 5 13 19.82 0.62
1 5 13 24.69 0.79
1 5 13 25.86 0.71
2 5 13 36.75 0.82
2 5 13 38.7 0.98
2 5 13 38.39 1.24
3 5 13 0.18 0.21
1 0 14 16.19 0.49
1 0 14 16.01 0.62
1 1 14 -0.09 0.26
1 1 14 0.37 0.2
2 1 14 20.15 0.65
1 2 14 12.28 0.46
1 2 14 13.06 0.59
2 2 14 39.93 0.96
1 3 14 46.47 1.1
1 3 14 45.63 0.97
