#------------------------------------------------------------------------------
#$Date: 2016-02-18 17:37:37 +0200 (Thu, 18 Feb 2016) $
#$Revision: 176729 $
#$URL: svn://www.crystallography.net/cod/cif/1/51/66/1516647.cif $
#------------------------------------------------------------------------------
#
# This file is available in the Crystallography Open Database (COD),
# http://www.crystallography.net/
#
# All data on this site have been placed in the public domain by the
# contributors.
#
data_1516647
loop_
_publ_author_name
'Awwadi, Firas F.'
'Willett, Roger D.'
'Peterson, Kirk A.'
'Twamley, Brendan'
_publ_section_title
;
 The nature of halogen...halide synthons: theoretical and crystallographic
 studies.
;
_journal_issue                   12
_journal_name_full               'The journal of physical chemistry. A'
_journal_page_first              2319
_journal_page_last               2328
_journal_paper_doi               10.1021/jp0660684
_journal_volume                  111
_journal_year                    2007
_chemical_formula_sum            'C5 H5 Br I N'
_chemical_formula_weight         285.91
_chemical_name_systematic
; 
 ? 
;
_space_group_IT_number           2
_symmetry_cell_setting           triclinic
_symmetry_space_group_name_Hall  '-P 1'
_symmetry_space_group_name_H-M   'P -1'
_atom_sites_solution_hydrogens   geom
_atom_sites_solution_primary     direct
_atom_sites_solution_secondary   difmap
_audit_creation_method           SHELXL-97
_cell_angle_alpha                80.18(2)
_cell_angle_beta                 79.48(2)
_cell_angle_gamma                88.909(18)
_cell_formula_units_Z            2
_cell_length_a                   4.9810(11)
_cell_length_b                   8.5067(16)
_cell_length_c                   9.4529(19)
_cell_measurement_reflns_used    20
_cell_measurement_temperature    295(2)
_cell_measurement_theta_max      12.36
_cell_measurement_theta_min      5.07
_cell_volume                     388.00(14)
_computing_cell_refinement       'Bruker XSCANS'
_computing_data_collection       'Bruker XSCANS'
_computing_data_reduction        'Bruker SHELXTL'
_computing_molecular_graphics    'Bruker SHELXTL'
_computing_publication_material  'Bruker SHELXTL'
_computing_structure_refinement  'SHELXL-97 (Sheldrick, 1997)'
_computing_structure_solution    'SHELXS-97 (Sheldrick, 1990)'
_diffrn_ambient_temperature      295(2)
_diffrn_measured_fraction_theta_full 0.999
_diffrn_measured_fraction_theta_max 0.999
_diffrn_measurement_device_type  'Bruker P4'
_diffrn_measurement_method       '\w scans'
_diffrn_radiation_monochromator  graphite
_diffrn_radiation_source         'fine-focus sealed tube'
_diffrn_radiation_type           MoK\a
_diffrn_radiation_wavelength     0.71073
_diffrn_reflns_av_R_equivalents  0.0395
_diffrn_reflns_av_sigmaI/netI    0.0564
_diffrn_reflns_limit_h_max       5
_diffrn_reflns_limit_h_min       -1
_diffrn_reflns_limit_k_max       9
_diffrn_reflns_limit_k_min       -9
_diffrn_reflns_limit_l_max       11
_diffrn_reflns_limit_l_min       -11
_diffrn_reflns_number            1820
_diffrn_reflns_theta_full        24.73
_diffrn_reflns_theta_max         24.73
_diffrn_reflns_theta_min         2.22
_diffrn_standards_interval_count 97
_diffrn_standards_number         3
_exptl_absorpt_coefficient_mu    9.180
_exptl_absorpt_correction_T_max  0.5171
_exptl_absorpt_correction_T_min  0.2222
_exptl_absorpt_correction_type   empirical
_exptl_crystal_colour            colorless
_exptl_crystal_density_diffrn    2.447
_exptl_crystal_density_method    'not measured'
_exptl_crystal_description       parallelepiped
_exptl_crystal_F_000             260
_exptl_crystal_size_max          0.1
_exptl_crystal_size_mid          0.4
_exptl_crystal_size_min          0.2
_refine_diff_density_max         0.845
_refine_diff_density_min         -0.969
_refine_diff_density_rms         0.162
_refine_ls_extinction_coef       0.063(5)
_refine_ls_extinction_expression Fc^*^=kFc[1+0.001xFc^2^\l^3^/sin(2\q)]^-1/4^
_refine_ls_extinction_method     SHELXL
_refine_ls_goodness_of_fit_ref   1.061
_refine_ls_hydrogen_treatment    mixed
_refine_ls_matrix_type           full
_refine_ls_number_parameters     74
_refine_ls_number_reflns         1327
_refine_ls_number_restraints     0
_refine_ls_restrained_S_all      1.061
_refine_ls_R_factor_all          0.0626
_refine_ls_R_factor_gt           0.0436
_refine_ls_shift/su_max          0.000
_refine_ls_shift/su_mean         0.000
_refine_ls_structure_factor_coef Fsqd
_refine_ls_weighting_details
'calc w=1/[\s^2^(Fo^2^)+(0.0635P)^2^+0.2154P] where P=(Fo^2^+2Fc^2^)/3'
_refine_ls_weighting_scheme      calc
_refine_ls_wR_factor_gt          0.1046
_refine_ls_wR_factor_ref         0.1157
_reflns_number_gt                1053
_reflns_number_total             1327
_reflns_threshold_expression     >2sigma(I)
_cod_data_source_file            jp0660684si20060917_081838.cif
_cod_data_source_block           fa242a
_cod_depositor_comments
;
The following automatic conversions were performed:

'_symmetry_cell_setting' value 'Triclinic' changed to 'triclinic'
according to
/usr/data/users/saulius/automatic-downloads/retrospective/ACS/lib/dictionaries/cif_core.dic
dictionary named 'cif_core.dic' version 2.4.2 from 2011-04-26.

Automatic conversion script
Id: cif_fix_values 2281 2013-09-26 08:29:07Z andrius 
;
_cod_original_sg_symbol_H-M      P-1
_cod_database_code               1516647
loop_
_symmetry_equiv_pos_as_xyz
'x, y, z'
'-x, -y, -z'
loop_
_atom_site_label
_atom_site_type_symbol
_atom_site_fract_x
_atom_site_fract_y
_atom_site_fract_z
_atom_site_U_iso_or_equiv
_atom_site_adp_type
_atom_site_occupancy
_atom_site_symmetry_multiplicity
_atom_site_calc_flag
_atom_site_refinement_flags
Br4 Br 1.3070(2) 0.77783(15) 0.99668(11) 0.0736(4) Uani 1 1 d .
C6 C 0.857(2) 0.8456(14) 0.6673(11) 0.069(3) Uani 1 1 d .
H6A H 0.7716 0.9284 0.6155 0.083 Uiso 1 1 calc R
C4 C 1.1282(18) 0.7495(10) 0.8448(8) 0.049(2) Uani 1 1 d .
C3 C 1.1139(19) 0.5982(11) 0.8103(10) 0.053(2) Uani 1 1 d .
H3A H 1.2003 0.5130 0.8585 0.064 Uiso 1 1 calc R
C2 C 0.972(2) 0.5760(11) 0.7053(10) 0.058(2) Uani 1 1 d .
H2A H 0.9651 0.4760 0.6789 0.069 Uiso 1 1 calc R
C5 C 0.998(2) 0.8739(12) 0.7723(11) 0.064(3) Uani 1 1 d .
H5A H 1.0064 0.9760 0.7944 0.076 Uiso 1 1 calc R
N1 N 0.8456(15) 0.6973(11) 0.6411(8) 0.058(2) Uani 1 1 d .
H1A H 0.7495 0.6796 0.5784 0.069 Uiso 1 1 calc R
I I 1.50067(13) 0.75474(7) 1.35358(7) 0.0554(3) Uani 1 1 d .
loop_
_atom_site_aniso_label
_atom_site_aniso_U_11
_atom_site_aniso_U_22
_atom_site_aniso_U_33
_atom_site_aniso_U_23
_atom_site_aniso_U_13
_atom_site_aniso_U_12
Br4 0.0789(8) 0.0926(9) 0.0589(6) -0.0259(6) -0.0238(5) -0.0153(6)
C6 0.071(7) 0.080(8) 0.053(6) -0.004(5) -0.013(5) 0.017(6)
C4 0.055(5) 0.055(6) 0.036(4) -0.008(4) -0.008(4) -0.011(4)
C3 0.065(6) 0.045(5) 0.053(5) -0.009(4) -0.016(4) 0.003(4)
C2 0.068(6) 0.049(5) 0.060(6) -0.012(5) -0.019(5) 0.000(5)
C5 0.076(7) 0.050(6) 0.066(6) -0.015(5) -0.013(5) 0.011(5)
N1 0.051(5) 0.081(6) 0.049(4) -0.022(4) -0.020(4) 0.000(4)
I 0.0638(5) 0.0531(5) 0.0575(4) -0.0138(3) -0.0287(3) 0.0049(3)
loop_
_atom_type_symbol
_atom_type_description
_atom_type_scat_dispersion_real
_atom_type_scat_dispersion_imag
_atom_type_scat_source
C C 0.0033 0.0016 'International Tables Vol C Tables 4.2.6.8 and 6.1.1.4'
H H 0.0000 0.0000 'International Tables Vol C Tables 4.2.6.8 and 6.1.1.4'
N N 0.0061 0.0033 'International Tables Vol C Tables 4.2.6.8 and 6.1.1.4'
Br Br -0.2901 2.4595 'International Tables Vol C Tables 4.2.6.8 and 6.1.1.4'
I I -0.4742 1.8119 'International Tables Vol C Tables 4.2.6.8 and 6.1.1.4'
loop_
_geom_angle_atom_site_label_1
_geom_angle_atom_site_label_2
_geom_angle_atom_site_label_3
_geom_angle
N1 C6 C5 118.6(9)
N1 C6 H6A 120.7
C5 C6 H6A 120.7
C5 C4 C3 119.5(8)
C5 C4 Br4 121.3(7)
C3 C4 Br4 119.1(7)
C2 C3 C4 119.2(9)
C2 C3 H3A 120.4
C4 C3 H3A 120.4
N1 C2 C3 119.5(8)
N1 C2 H2A 120.3
C3 C2 H2A 120.3
C6 C5 C4 119.2(9)
C6 C5 H5A 120.4
C4 C5 H5A 120.4
C2 N1 C6 123.9(8)
C2 N1 H1A 118.0
C6 N1 H1A 118.0
loop_
_geom_bond_atom_site_label_1
_geom_bond_atom_site_label_2
_geom_bond_distance
Br4 C4 1.873(8)
C6 N1 1.331(14)
C6 C5 1.371(14)
C6 H6A 0.9300
C4 C5 1.377(13)
C4 C3 1.386(12)
C3 C2 1.357(12)
C3 H3A 0.9300
C2 N1 1.317(12)
C2 H2A 0.9300
C5 H5A 0.9300
N1 H1A 0.8600
loop_
_geom_hbond_atom_site_label_D
_geom_hbond_atom_site_label_H
_geom_hbond_atom_site_label_A
_geom_hbond_distance_DH
_geom_hbond_distance_HA
_geom_hbond_distance_DA
_geom_hbond_angle_DHA
_geom_hbond_site_symmetry_A
N1 H1A I 0.86 2.63 3.434(7) 155.7 1_454
loop_
_geom_torsion_atom_site_label_1
_geom_torsion_atom_site_label_2
_geom_torsion_atom_site_label_3
_geom_torsion_atom_site_label_4
_geom_torsion
C5 C4 C3 C2 0.1(14)
Br4 C4 C3 C2 176.7(7)
C4 C3 C2 N1 -1.8(14)
N1 C6 C5 C4 1.4(15)
C3 C4 C5 C6 0.0(14)
Br4 C4 C5 C6 -176.4(8)
C3 C2 N1 C6 3.5(15)
C5 C6 N1 C2 -3.3(15)
