#------------------------------------------------------------------------------
#$Date: 2016-02-18 17:37:37 +0200 (Thu, 18 Feb 2016) $
#$Revision: 176729 $
#$URL: svn://www.crystallography.net/cod/cif/1/51/86/1518625.cif $
#------------------------------------------------------------------------------
#
# This file is available in the Crystallography Open Database (COD),
# http://www.crystallography.net/
#
# All data on this site have been placed in the public domain by the
# contributors.
#
data_1518625
loop_
_publ_author_name
'Cheng, Chi'
'Gao, Naixun'
'Yu, Changjiang'
'Wang, Zhaoyun'
'Wang, Jun'
'Hao, Erhong'
'Wei, Yun'
'Mu, Xiaolong'
'Tian, Yanli'
'Ran, Chongzhao'
'Jiao, Lijuan'
_publ_section_title
;
 Diversity-Oriented Facile Access to Highly Fluorescent Membrane-Permeable
 Benz[c,d]indole N-Heteroarene BF2 Dyes.
;
_journal_issue                   2
_journal_name_full               'Organic letters'
_journal_page_first              278
_journal_page_last               281
_journal_paper_doi               10.1021/ol503379c
_journal_volume                  17
_journal_year                    2015
_chemical_formula_sum            'C18 H9 B Br F2 N3'
_chemical_formula_weight         396.00
_chemical_name_systematic
; 
 ? 
;
_space_group_IT_number           2
_symmetry_cell_setting           triclinic
_symmetry_space_group_name_Hall  '-P 1'
_symmetry_space_group_name_H-M   'P -1'
_atom_sites_solution_hydrogens   geom
_atom_sites_solution_primary     direct
_atom_sites_solution_secondary   difmap
_audit_creation_method           SHELXL-97
_cell_angle_alpha                87.602(2)
_cell_angle_beta                 71.441(2)
_cell_angle_gamma                65.1790(10)
_cell_formula_units_Z            2
_cell_length_a                   9.1788(11)
_cell_length_b                   9.5551(11)
_cell_length_c                   9.9844(12)
_cell_measurement_reflns_used    3211
_cell_measurement_temperature    293(2)
_cell_measurement_theta_max      0.00
_cell_measurement_theta_min      0.00
_cell_volume                     749.15(15)
_computing_cell_refinement       'Bruker SMART'
_computing_data_collection       'Bruker SMART'
_computing_data_reduction        'Bruker SAINT'
_computing_molecular_graphics    'Bruker SHELXTL'
_computing_publication_material  'Bruker SHELXTL'
_computing_structure_refinement  'SHELXL-97 (Sheldrick, 1997)'
_computing_structure_solution    'SHELXS-97 (Sheldrick, 1990)'
_diffrn_ambient_temperature      293(2)
_diffrn_measured_fraction_theta_full 0.972
_diffrn_measured_fraction_theta_max 0.972
_diffrn_measurement_device_type  'CCD area detector'
_diffrn_measurement_method       'phi and omega scans'
_diffrn_radiation_monochromator  graphite
_diffrn_radiation_source         'fine-focus sealed tube'
_diffrn_radiation_type           MoK\a
_diffrn_radiation_wavelength     0.71073
_diffrn_reflns_av_R_equivalents  0.0201
_diffrn_reflns_av_sigmaI/netI    0.0325
_diffrn_reflns_limit_h_max       11
_diffrn_reflns_limit_h_min       -11
_diffrn_reflns_limit_k_max       12
_diffrn_reflns_limit_k_min       -11
_diffrn_reflns_limit_l_max       11
_diffrn_reflns_limit_l_min       -13
_diffrn_reflns_number            6485
_diffrn_reflns_theta_full        27.61
_diffrn_reflns_theta_max         27.61
_diffrn_reflns_theta_min         2.16
_exptl_absorpt_coefficient_mu    2.771
_exptl_absorpt_correction_T_max  0.7321
_exptl_absorpt_correction_T_min  0.6813
_exptl_absorpt_correction_type   multi-scan
_exptl_crystal_colour            colorless
_exptl_crystal_density_diffrn    1.756
_exptl_crystal_density_method    'not measured'
_exptl_crystal_description       block
_exptl_crystal_F_000             392
_exptl_crystal_size_max          0.15
_exptl_crystal_size_mid          0.13
_exptl_crystal_size_min          0.12
_refine_diff_density_max         0.744
_refine_diff_density_min         -0.315
_refine_diff_density_rms         0.068
_refine_ls_extinction_method     none
_refine_ls_goodness_of_fit_ref   1.059
_refine_ls_hydrogen_treatment    mixed
_refine_ls_matrix_type           full
_refine_ls_number_parameters     226
_refine_ls_number_reflns         3383
_refine_ls_number_restraints     0
_refine_ls_restrained_S_all      1.059
_refine_ls_R_factor_all          0.0507
_refine_ls_R_factor_gt           0.0368
_refine_ls_shift/su_max          0.001
_refine_ls_shift/su_mean         0.000
_refine_ls_structure_factor_coef Fsqd
_refine_ls_weighting_details
'calc w=1/[\s^2^(Fo^2^)+(0.0579P)^2^+0.2426P] where P=(Fo^2^+2Fc^2^)/3'
_refine_ls_weighting_scheme      calc
_refine_ls_wR_factor_gt          0.1003
_refine_ls_wR_factor_ref         0.1068
_reflns_number_gt                2686
_reflns_number_total             3383
_reflns_threshold_expression     >2sigma(I)
_cod_data_source_file            ol503379c_si_002.cif
_cod_data_source_block           131126b_0m
_cod_depositor_comments
;
The following automatic conversions were performed:

'_symmetry_cell_setting' value 'Triclinic' changed to 'triclinic'
according to
/usr/data/users/saulius/automatic-downloads/current/ACS/lib/dictionaries/cif_core.dic
dictionary named 'cif_core.dic' version 2.4.2 from 2011-04-26.

Automatic conversion script
Id: cif_fix_values 3008 2015-01-20 13:52:24Z robertas 
;
_cod_original_sg_symbol_H-M      P-1
_cod_database_code               1518625
loop_
_symmetry_equiv_pos_as_xyz
'x, y, z'
'-x, -y, -z'
loop_
_atom_site_label
_atom_site_type_symbol
_atom_site_fract_x
_atom_site_fract_y
_atom_site_fract_z
_atom_site_U_iso_or_equiv
_atom_site_adp_type
_atom_site_occupancy
_atom_site_symmetry_multiplicity
_atom_site_calc_flag
_atom_site_refinement_flags
B1 B 0.3008(3) 0.6944(4) 0.3710(3) 0.0377(6) Uani 1 1 d .
Br1 Br 0.20981(4) 1.16766(4) 0.96450(3) 0.05710(14) Uani 1 1 d .
C1 C 0.3211(3) 0.8414(3) 0.5726(3) 0.0337(5) Uani 1 1 d .
C2 C 0.1560(3) 0.9318(3) 0.6539(3) 0.0441(6) Uani 1 1 d .
H2 H 0.0653 0.9282 0.6338 0.053 Uiso 1 1 calc R
C3 C 0.1290(3) 1.0305(3) 0.7692(3) 0.0463(7) Uani 1 1 d .
H3 H 0.0178 1.0918 0.8262 0.056 Uiso 1 1 calc R
C4 C 0.2595(3) 1.0398(3) 0.8007(3) 0.0407(6) Uani 1 1 d .
C5 C 0.4330(3) 0.9511(3) 0.7156(3) 0.0340(5) Uani 1 1 d .
C6 C 0.5838(3) 0.9454(3) 0.7281(3) 0.0391(6) Uani 1 1 d .
H6 H 0.5786 1.0087 0.7994 0.047 Uiso 1 1 calc R
C7 C 0.7397(3) 0.8458(3) 0.6343(3) 0.0433(6) Uani 1 1 d .
H7 H 0.8375 0.8438 0.6451 0.052 Uiso 1 1 calc R
C8 C 0.7579(3) 0.7469(3) 0.5230(3) 0.0386(6) Uani 1 1 d .
H8 H 0.8647 0.6803 0.4621 0.046 Uiso 1 1 calc R
C9 C 0.6116(3) 0.7531(3) 0.5082(3) 0.0321(5) Uani 1 1 d .
C10 C 0.4537(3) 0.8549(3) 0.6041(3) 0.0322(5) Uani 1 1 d .
C11 C 0.5683(3) 0.6747(3) 0.4125(3) 0.0315(5) Uani 1 1 d .
C12 C 0.6726(3) 0.5620(3) 0.2993(3) 0.0348(5) Uani 1 1 d .
C13 C 0.6057(3) 0.4891(3) 0.2268(3) 0.0334(5) Uani 1 1 d .
C14 C 0.7098(3) 0.3655(3) 0.1204(3) 0.0414(6) Uani 1 1 d .
H14 H 0.8274 0.3292 0.0923 0.050 Uiso 1 1 calc R
C15 C 0.6401(4) 0.2969(3) 0.0570(3) 0.0454(6) Uani 1 1 d .
H15 H 0.7098 0.2148 -0.0141 0.054 Uiso 1 1 calc R
C16 C 0.4652(4) 0.3510(3) 0.0998(3) 0.0432(6) Uani 1 1 d .
H16 H 0.4162 0.3051 0.0586 0.052 Uiso 1 1 calc R
C17 C 0.3662(3) 0.4717(3) 0.2025(3) 0.0381(6) Uani 1 1 d .
H17 H 0.2487 0.5076 0.2313 0.046 Uiso 1 1 calc R
C18 C 0.8525(3) 0.5092(3) 0.2564(3) 0.0411(6) Uani 1 1 d .
F1 F 0.2426(2) 0.81112(19) 0.2880(2) 0.0545(4) Uani 1 1 d .
F2 F 0.1679(2) 0.6668(2) 0.45852(19) 0.0591(5) Uani 1 1 d .
N1 N 0.3954(2) 0.7308(2) 0.4537(2) 0.0338(5) Uani 1 1 d .
N2 N 0.4339(2) 0.5424(2) 0.2652(2) 0.0333(4) Uani 1 1 d .
N3 N 0.9970(3) 0.4673(4) 0.2199(3) 0.0609(7) Uani 1 1 d .
loop_
_atom_site_aniso_label
_atom_site_aniso_U_11
_atom_site_aniso_U_22
_atom_site_aniso_U_33
_atom_site_aniso_U_23
_atom_site_aniso_U_13
_atom_site_aniso_U_12
B1 0.0270(13) 0.0469(17) 0.0400(16) -0.0050(13) -0.0122(12) -0.0150(12)
Br1 0.0513(2) 0.0636(2) 0.0490(2) -0.01952(15) -0.01001(14) -0.02024(16)
C1 0.0271(11) 0.0411(14) 0.0328(12) -0.0002(10) -0.0107(10) -0.0137(10)
C2 0.0273(12) 0.0537(17) 0.0472(16) -0.0065(13) -0.0119(11) -0.0129(11)
C3 0.0287(12) 0.0531(17) 0.0447(16) -0.0103(13) -0.0067(11) -0.0086(11)
C4 0.0387(13) 0.0406(14) 0.0386(14) -0.0057(11) -0.0101(11) -0.0141(11)
C5 0.0340(12) 0.0355(13) 0.0334(13) 0.0025(10) -0.0109(10) -0.0157(10)
C6 0.0410(13) 0.0425(14) 0.0399(14) -0.0015(11) -0.0149(11) -0.0219(12)
C7 0.0342(13) 0.0514(16) 0.0538(17) 0.0013(13) -0.0186(12) -0.0237(12)
C8 0.0271(11) 0.0465(15) 0.0429(15) -0.0017(12) -0.0105(10) -0.0165(11)
C9 0.0281(11) 0.0354(12) 0.0350(13) 0.0014(10) -0.0120(9) -0.0144(9)
C10 0.0294(11) 0.0359(13) 0.0345(13) 0.0039(10) -0.0126(10) -0.0156(10)
C11 0.0248(11) 0.0379(13) 0.0335(12) 0.0015(10) -0.0109(9) -0.0139(9)
C12 0.0260(11) 0.0399(14) 0.0370(13) -0.0015(11) -0.0102(10) -0.0124(10)
C13 0.0317(12) 0.0368(13) 0.0338(13) 0.0029(10) -0.0119(10) -0.0157(10)
C14 0.0370(13) 0.0454(15) 0.0399(14) -0.0021(12) -0.0114(11) -0.0163(11)
C15 0.0570(17) 0.0396(15) 0.0398(15) -0.0003(12) -0.0169(13) -0.0200(13)
C16 0.0575(17) 0.0450(15) 0.0428(15) 0.0053(12) -0.0242(13) -0.0309(13)
C17 0.0403(13) 0.0439(14) 0.0420(14) 0.0065(11) -0.0203(11) -0.0244(11)
C18 0.0291(13) 0.0478(15) 0.0429(15) -0.0097(12) -0.0100(11) -0.0135(11)
F1 0.0555(10) 0.0453(9) 0.0637(11) -0.0019(8) -0.0385(9) -0.0082(8)
F2 0.0341(8) 0.0845(14) 0.0598(11) -0.0170(10) -0.0026(8) -0.0336(9)
N1 0.0240(9) 0.0403(11) 0.0365(11) -0.0041(9) -0.0112(8) -0.0118(8)
N2 0.0311(10) 0.0383(11) 0.0354(11) 0.0021(9) -0.0134(8) -0.0174(9)
N3 0.0315(12) 0.0761(19) 0.0661(18) -0.0177(15) -0.0101(12) -0.0169(12)
loop_
_atom_type_symbol
_atom_type_description
_atom_type_scat_dispersion_real
_atom_type_scat_dispersion_imag
_atom_type_scat_source
C C 0.0033 0.0016 'International Tables Vol C Tables 4.2.6.8 and 6.1.1.4'
H H 0.0000 0.0000 'International Tables Vol C Tables 4.2.6.8 and 6.1.1.4'
B B 0.0013 0.0007 'International Tables Vol C Tables 4.2.6.8 and 6.1.1.4'
N N 0.0061 0.0033 'International Tables Vol C Tables 4.2.6.8 and 6.1.1.4'
F F 0.0171 0.0103 'International Tables Vol C Tables 4.2.6.8 and 6.1.1.4'
Br Br -0.2901 2.4595 'International Tables Vol C Tables 4.2.6.8 and 6.1.1.4'
loop_
_geom_angle_atom_site_label_1
_geom_angle_atom_site_label_2
_geom_angle_atom_site_label_3
_geom_angle
F2 B1 F1 110.1(2)
F2 B1 N1 111.9(2)
F1 B1 N1 111.7(2)
F2 B1 N2 109.0(2)
F1 B1 N2 106.9(2)
N1 B1 N2 107.0(2)
C2 C1 N1 133.3(2)
C2 C1 C10 119.2(2)
N1 C1 C10 107.5(2)
C1 C2 C3 117.4(2)
C1 C2 H2 121.3
C3 C2 H2 121.3
C4 C3 C2 122.8(2)
C4 C3 H3 118.6
C2 C3 H3 118.6
C3 C4 C5 121.4(3)
C3 C4 Br1 119.4(2)
C5 C4 Br1 119.2(2)
C10 C5 C6 115.8(2)
C10 C5 C4 113.9(2)
C6 C5 C4 130.3(2)
C7 C6 C5 120.0(2)
C7 C6 H6 120.0
C5 C6 H6 120.0
C6 C7 C8 123.3(2)
C6 C7 H7 118.4
C8 C7 H7 118.4
C9 C8 C7 117.4(2)
C9 C8 H8 121.3
C7 C8 H8 121.3
C8 C9 C10 118.9(2)
C8 C9 C11 136.5(2)
C10 C9 C11 104.59(19)
C5 C10 C9 124.7(2)
C5 C10 C1 125.3(2)
C9 C10 C1 110.0(2)
N1 C11 C12 121.2(2)
N1 C11 C9 108.6(2)
C12 C11 C9 130.2(2)
C11 C12 C18 119.8(2)
C11 C12 C13 121.8(2)
C18 C12 C13 118.3(2)
N2 C13 C14 119.0(2)
N2 C13 C12 118.2(2)
C14 C13 C12 122.7(2)
C15 C14 C13 120.6(3)
C15 C14 H14 119.7
C13 C14 H14 119.7
C14 C15 C16 119.4(3)
C14 C15 H15 120.3
C16 C15 H15 120.3
C17 C16 C15 119.2(3)
C17 C16 H16 120.4
C15 C16 H16 120.4
C16 C17 N2 122.0(2)
C16 C17 H17 119.0
N2 C17 H17 119.0
N3 C18 C12 179.0(3)
C11 N1 C1 109.36(19)
C11 N1 B1 124.4(2)
C1 N1 B1 125.8(2)
C13 N2 C17 119.8(2)
C13 N2 B1 124.2(2)
C17 N2 B1 115.8(2)
loop_
_geom_bond_atom_site_label_1
_geom_bond_atom_site_label_2
_geom_bond_distance
B1 F2 1.376(3)
B1 F1 1.385(4)
B1 N1 1.514(3)
B1 N2 1.592(4)
Br1 C4 1.897(3)
C1 C2 1.371(3)
C1 N1 1.405(3)
C1 C10 1.406(3)
C2 C3 1.410(4)
C2 H2 0.9300
C3 C4 1.369(4)
C3 H3 0.9300
C4 C5 1.429(4)
C5 C10 1.387(3)
C5 C6 1.408(3)
C6 C7 1.381(4)
C6 H6 0.9300
C7 C8 1.412(4)
C7 H7 0.9300
C8 C9 1.374(3)
C8 H8 0.9300
C9 C10 1.405(3)
C9 C11 1.478(3)
C11 N1 1.365(3)
C11 C12 1.379(3)
C12 C18 1.426(3)
C12 C13 1.439(3)
C13 N2 1.360(3)
C13 C14 1.395(4)
C14 C15 1.373(4)
C14 H14 0.9300
C15 C16 1.382(4)
C15 H15 0.9300
C16 C17 1.354(4)
C16 H16 0.9300
C17 N2 1.368(3)
C17 H17 0.9300
C18 N3 1.145(3)
