#------------------------------------------------------------------------------
#$Date: 2015-06-04 09:56:09 +0300 (Thu, 04 Jun 2015) $
#$Revision: 137859 $
#$URL: svn://www.crystallography.net/cod/cif/1/52/02/1520240.cif $
#------------------------------------------------------------------------------
#
# This file is available in the Crystallography Open Database (COD),
# http://www.crystallography.net/
#
# All data on this site have been placed in the public domain by the
# contributors.
#
data_1520240
loop_
_publ_author_name
'Huth, Susanne L.'
'Threlfall, Terry L.'
'Hursthouse, Michael B.'
_publ_section_title
;
 4-(acetylamino)benzoic acid
;
_journal_name_full               'Crystal Structure Report Archive'
_journal_page_first              545
_journal_year                    2008
_chemical_formula_moiety         'C9 H9 N O3'
_chemical_formula_sum            'C9 H9 N O3'
_chemical_formula_weight         179.17
_chemical_name_systematic
;
 4-(acetylamino)benzoic acid
;
_space_group_IT_number           2
_symmetry_cell_setting           triclinic
_symmetry_space_group_name_Hall  '-P 1'
_symmetry_space_group_name_H-M   'P -1'
_atom_sites_solution_hydrogens   geom
_atom_sites_solution_primary     direct
_atom_sites_solution_secondary   difmap
_cell_angle_alpha                89.465(4)
_cell_angle_beta                 80.477(4)
_cell_angle_gamma                79.234(4)
_cell_formula_units_Z            2
_cell_length_a                   5.0214(3)
_cell_length_b                   6.8411(5)
_cell_length_c                   12.2219(10)
_cell_measurement_reflns_used    13033
_cell_measurement_temperature    120(2)
_cell_measurement_theta_max      27.48
_cell_measurement_theta_min      2.91
_cell_volume                     406.67(5)
_computing_cell_refinement
'DENZO (Otwinowski & Minor, 1997) & COLLECT (Hooft, R.W.W., 1998)'
_computing_data_collection       'COLLECT (Hooft, R.W.W., 1998)'
_computing_data_reduction
'DENZO (Otwinowski & Minor, 1997) & COLLECT (Hooft, R.W.W., 1998)'
_computing_structure_refinement  'SHELXL-97 (Sheldrick, 1997)'
_computing_structure_solution    'SHELXS-97 (Sheldrick, 1997)'
_diffrn_ambient_temperature      120(2)
_diffrn_measured_fraction_theta_full 0.992
_diffrn_measured_fraction_theta_max 0.992
_diffrn_measurement_device_type
'Bruker-Nonius APEX II CCD camera on \k-goniostat'
_diffrn_measurement_method       '\f & \w scans'
_diffrn_radiation_monochromator  '10cm confocal mirrors'
_diffrn_radiation_source         'Bruker-Nonius FR591 rotating anode'
_diffrn_radiation_type           MoK\a
_diffrn_radiation_wavelength     0.71073
_diffrn_reflns_av_R_equivalents  0.0578
_diffrn_reflns_av_sigmaI/netI    0.0572
_diffrn_reflns_limit_h_max       6
_diffrn_reflns_limit_h_min       -6
_diffrn_reflns_limit_k_max       8
_diffrn_reflns_limit_k_min       -8
_diffrn_reflns_limit_l_max       15
_diffrn_reflns_limit_l_min       -15
_diffrn_reflns_number            6968
_diffrn_reflns_theta_full        27.49
_diffrn_reflns_theta_max         27.49
_diffrn_reflns_theta_min         3.03
_exptl_absorpt_coefficient_mu    0.111
_exptl_absorpt_correction_T_max  0.9978
_exptl_absorpt_correction_T_min  0.9868
_exptl_absorpt_correction_type   multi-scan
_exptl_absorpt_process_details   'SADABS 2007/2 (Sheldrick, G.M., 2007)'
_exptl_crystal_colour            colourless
_exptl_crystal_density_diffrn    1.463
_exptl_crystal_density_method    'not measured'
_exptl_crystal_description       plate
_exptl_crystal_F_000             188
_exptl_crystal_size_max          0.12
_exptl_crystal_size_mid          0.08
_exptl_crystal_size_min          0.02
_refine_diff_density_max         0.314
_refine_diff_density_min         -0.271
_refine_diff_density_rms         0.066
_refine_ls_extinction_method     none
_refine_ls_goodness_of_fit_ref   1.094
_refine_ls_hydrogen_treatment    mixed
_refine_ls_matrix_type           full
_refine_ls_number_parameters     125
_refine_ls_number_reflns         1841
_refine_ls_number_restraints     1
_refine_ls_restrained_S_all      1.094
_refine_ls_R_factor_all          0.0999
_refine_ls_R_factor_gt           0.0644
_refine_ls_shift/su_max          0.001
_refine_ls_shift/su_mean         0.000
_refine_ls_structure_factor_coef Fsqd
_refine_ls_weighting_details
'calc w=1/[\s^2^(Fo^2^)+(0.0240P)^2^+0.6324P] where P=(Fo^2^+2Fc^2^)/3'
_refine_ls_weighting_scheme      calc
_refine_ls_wR_factor_gt          0.1258
_refine_ls_wR_factor_ref         0.1454
_reflns_number_gt                1328
_reflns_number_total             1841
_reflns_threshold_expression     >2sigma(I)
_cod_data_source_file            eCrystal-545.cif
_cod_data_source_block           2008lsh009
_cod_depositor_comments
;
Citation :
Huth, Susanne L. and Threlfall, Terry L. and 
Hursthouse, Michael B. (2008) 
University of Southampton, Crystal Structure Report Archive. 
(doi:10.5258/ecrystals/545)

More at:
http://ecrystals.chem.soton.ac.uk/545/

The following automatic conversions were performed:

'_symmetry_cell_setting' value 'Triclinic' changed to 'triclinic'
according to the built-in table from CIF Core dictionary named
'cif_core.dic' version 2.4.1 from 2010-06-29.

Automatic conversion script
Id: cif_fix_values 3392 2015-05-12 13:50:21Z andrius 
;
_cod_database_code               1520240
loop_
_symmetry_equiv_pos_as_xyz
'x, y, z'
'-x, -y, -z'
loop_
_atom_site_label
_atom_site_type_symbol
_atom_site_fract_x
_atom_site_fract_y
_atom_site_fract_z
_atom_site_U_iso_or_equiv
_atom_site_adp_type
_atom_site_occupancy
_atom_site_symmetry_multiplicity
_atom_site_calc_flag
_atom_site_refinement_flags
_atom_site_disorder_assembly
_atom_site_disorder_group
C1 C 0.6530(5) -0.2843(4) 0.7320(2) 0.0222(6) Uani 1 1 d . . .
C2 C 0.8267(5) -0.2657(4) 0.8069(2) 0.0248(6) Uani 1 1 d . . .
H2 H 0.9676 -0.3742 0.8178 0.030 Uiso 1 1 calc R . .
C3 C 0.7938(5) -0.0887(4) 0.8655(2) 0.0253(6) Uani 1 1 d . . .
H3 H 0.9151 -0.0753 0.9157 0.030 Uiso 1 1 calc R . .
C4 C 0.5847(5) 0.0707(4) 0.8517(2) 0.0217(5) Uani 1 1 d . . .
C5 C 0.4073(5) 0.0499(4) 0.7779(2) 0.0257(6) Uani 1 1 d . . .
H5 H 0.2623 0.1566 0.7688 0.031 Uiso 1 1 calc R . .
C6 C 0.4423(5) -0.1264(4) 0.7179(2) 0.0262(6) Uani 1 1 d . . .
H6 H 0.3226 -0.1398 0.6669 0.031 Uiso 1 1 calc R . .
C7 C 0.9142(5) -0.5834(4) 0.6265(2) 0.0240(6) Uani 1 1 d . . .
C8 C 0.8840(6) -0.7701(4) 0.5689(2) 0.0294(6) Uani 1 1 d . . .
H8A H 1.0218 -0.7959 0.5013 0.044 Uiso 1 1 calc R . .
H8B H 0.6996 -0.7530 0.5494 0.044 Uiso 1 1 calc R . .
H8C H 0.9110 -0.8827 0.6186 0.044 Uiso 1 1 calc R . .
C9 C 0.5484(5) 0.2604(4) 0.9141(2) 0.0231(6) Uani 1 1 d . . .
N1 N 0.6753(5) -0.4639(3) 0.67123(19) 0.0242(5) Uani 1 1 d . . .
H1N H 0.524(6) -0.489(4) 0.657(2) 0.029 Uiso 1 1 d . . .
O1 O 1.1423(4) -0.5457(3) 0.63167(16) 0.0290(5) Uani 1 1 d . . .
O2 O 0.3507(4) 0.3968(3) 0.90799(16) 0.0292(5) Uani 1 1 d . . .
O3 O 0.7366(4) 0.2718(3) 0.97405(17) 0.0306(5) Uani 1 1 d D . .
H3O H 0.700(7) 0.384(3) 1.011(3) 0.046 Uiso 1 1 d D . .
loop_
_atom_site_aniso_label
_atom_site_aniso_U_11
_atom_site_aniso_U_22
_atom_site_aniso_U_33
_atom_site_aniso_U_23
_atom_site_aniso_U_13
_atom_site_aniso_U_12
C1 0.0229(13) 0.0194(12) 0.0245(14) -0.0031(10) -0.0011(11) -0.0069(10)
C2 0.0250(13) 0.0212(12) 0.0282(15) -0.0005(11) -0.0059(11) -0.0030(10)
C3 0.0273(13) 0.0241(13) 0.0263(14) -0.0011(11) -0.0086(11) -0.0053(11)
C4 0.0230(13) 0.0201(12) 0.0217(13) -0.0009(10) -0.0021(10) -0.0053(10)
C5 0.0251(13) 0.0222(12) 0.0300(15) 0.0008(11) -0.0065(11) -0.0028(10)
C6 0.0254(13) 0.0248(13) 0.0301(15) -0.0025(11) -0.0091(12) -0.0045(11)
C7 0.0279(14) 0.0200(12) 0.0238(14) 0.0010(10) -0.0043(11) -0.0038(11)
C8 0.0343(15) 0.0219(12) 0.0314(16) -0.0040(11) -0.0041(12) -0.0045(11)
C9 0.0256(13) 0.0195(12) 0.0241(14) -0.0005(10) -0.0043(11) -0.0043(10)
N1 0.0222(11) 0.0213(10) 0.0302(13) -0.0039(9) -0.0069(10) -0.0046(9)
O1 0.0248(10) 0.0280(10) 0.0351(11) -0.0034(8) -0.0065(8) -0.0061(8)
O2 0.0332(11) 0.0205(9) 0.0332(11) -0.0036(8) -0.0084(9) -0.0008(8)
O3 0.0320(11) 0.0241(9) 0.0376(12) -0.0081(8) -0.0125(9) -0.0034(8)
loop_
_atom_type_symbol
_atom_type_description
_atom_type_scat_dispersion_real
_atom_type_scat_dispersion_imag
_atom_type_scat_source
C C 0.0033 0.0016 'International Tables Vol C Tables 4.2.6.8 and 6.1.1.4'
H H 0.0000 0.0000 'International Tables Vol C Tables 4.2.6.8 and 6.1.1.4'
N N 0.0061 0.0033 'International Tables Vol C Tables 4.2.6.8 and 6.1.1.4'
O O 0.0106 0.0060 'International Tables Vol C Tables 4.2.6.8 and 6.1.1.4'
loop_
_geom_angle_atom_site_label_1
_geom_angle_atom_site_label_2
_geom_angle_atom_site_label_3
_geom_angle
_geom_angle_site_symmetry_1
_geom_angle_site_symmetry_3
C2 C1 C6 120.1(2) . .
C2 C1 N1 121.8(2) . .
C6 C1 N1 118.1(2) . .
C3 C2 C1 119.7(2) . .
C3 C2 H2 120.2 . .
C1 C2 H2 120.2 . .
C2 C3 C4 120.8(2) . .
C2 C3 H3 119.6 . .
C4 C3 H3 119.6 . .
C5 C4 C3 119.3(2) . .
C5 C4 C9 119.7(2) . .
C3 C4 C9 121.1(2) . .
C6 C5 C4 120.1(2) . .
C6 C5 H5 120.0 . .
C4 C5 H5 120.0 . .
C5 C6 C1 120.1(2) . .
C5 C6 H6 119.9 . .
C1 C6 H6 119.9 . .
O1 C7 N1 123.4(2) . .
O1 C7 C8 121.3(2) . .
N1 C7 C8 115.2(2) . .
C7 C8 H8A 109.5 . .
C7 C8 H8B 109.5 . .
H8A C8 H8B 109.5 . .
C7 C8 H8C 109.5 . .
H8A C8 H8C 109.5 . .
H8B C8 H8C 109.5 . .
O2 C9 O3 123.7(2) . .
O2 C9 C4 121.1(2) . .
O3 C9 C4 115.3(2) . .
C7 N1 C1 125.2(2) . .
C7 N1 H1N 119(2) . .
C1 N1 H1N 115(2) . .
C9 O3 H3O 111(2) . .
loop_
_geom_bond_atom_site_label_1
_geom_bond_atom_site_label_2
_geom_bond_distance
_geom_bond_site_symmetry_2
C1 C2 1.386(4) .
C1 C6 1.395(3) .
C1 N1 1.419(3) .
C2 C3 1.382(4) .
C2 H2 0.9500 .
C3 C4 1.396(3) .
C3 H3 0.9500 .
C4 C5 1.394(4) .
C4 C9 1.477(3) .
C5 C6 1.385(4) .
C5 H5 0.9500 .
C6 H6 0.9500 .
C7 O1 1.232(3) .
C7 N1 1.353(3) .
C7 C8 1.508(4) .
C8 H8A 0.9800 .
C8 H8B 0.9800 .
C8 H8C 0.9800 .
C9 O2 1.241(3) .
C9 O3 1.301(3) .
N1 H1N 0.85(3) .
O3 H3O 0.867(18) .
loop_
_geom_hbond_atom_site_label_D
_geom_hbond_atom_site_label_H
_geom_hbond_atom_site_label_A
_geom_hbond_distance_DH
_geom_hbond_distance_HA
_geom_hbond_distance_DA
_geom_hbond_angle_DHA
_geom_hbond_site_symmetry_A
N1 H1N O1 0.85(3) 2.10(3) 2.950(3) 176(3) 1_455
O3 H3O O2 0.867(18) 1.760(19) 2.625(3) 175(3) 2_667
