#------------------------------------------------------------------------------
#$Date: 2016-02-13 21:28:24 +0200 (Sat, 13 Feb 2016) $
#$Revision: 176429 $
#$URL: svn://www.crystallography.net/cod/cif/1/52/61/1526116.cif $
#------------------------------------------------------------------------------
#
# This file is available in the Crystallography Open Database (COD),
# http://www.crystallography.net/
#
# All data on this site have been placed in the public domain by the
# contributors.
#
data_1526116
loop_
_publ_author_name
'Gomez, A.'
'Reguera, E.'
_publ_section_title
;
 The structure of three cadmium hexacyanometallates(II): Cd2 (Fe (C N)6) *
 8(H2 O), Cd2 (Ru (C N)6) * 8(H2 O) and Cd2 (Os (C N)6) * 8(H2 O)
;
_journal_name_full
'International Journal of Inorganic Materials'
_journal_page_first              1045
_journal_page_last               1051
_journal_volume                  3
_journal_year                    2001
_chemical_formula_sum            'C6 H16 Cd2 N6 O8 Os'
_chemical_name_systematic        'Cd2 (Os (C N)6) (H2 O)8'
_space_group_IT_number           14
_symmetry_space_group_name_Hall  '-P 2yn'
_symmetry_space_group_name_H-M   'P 1 21/n 1'
_cell_angle_alpha                90
_cell_angle_beta                 98.82
_cell_angle_gamma                90
_cell_formula_units_Z            2
_cell_length_a                   9.6385
_cell_length_b                   12.7161
_cell_length_c                   7.7606
_cell_volume                     939.924
_citation_journal_id_ASTM        IJIMCR
_cod_data_source_file            Gomez_IJIMCR_2001_1060.cif
_cod_data_source_block           C6H16Cd2N6O8Os1
_cod_original_cell_volume        939.9235
_cod_original_sg_symbol_Hall     '-P 2ybc (x-z,y,z)'
_cod_original_formula_sum        'C6 H16 Cd2 N6 O8 Os1'
_cod_database_code               1526116
loop_
_symmetry_equiv_pos_as_xyz
x,y,z
-x+1/2,y+1/2,-z+1/2
-x,-y,-z
x-1/2,-y-1/2,z-1/2
loop_
_atom_site_label
_atom_site_type_symbol
_atom_site_fract_x
_atom_site_fract_y
_atom_site_fract_z
_atom_site_occupancy
_atom_site_U_iso_or_equiv
Os1 Os+2 0.5 0.5 0.5 1 0.0
C1 C+2 0.593 0.3551 0.483 1 0.0
N2 N-3 0.698 0.589 0.242 1 0.0
Cd1 Cd+2 0.6316 0.0957 0.4239 1 0.0
C2 C+2 0.633 0.555 0.341 1 0.0
O3 O-2 0.226 0.229 0.399 1 0.0
N1 N-3 0.635 0.271 0.475 1 0.0
N3 N-3 0.27 0.437 0.176 1 0.0
O4 O-2 0.96 0.297 0.411 1 0.0
O2 O-2 0.413 0.095 0.572 1 0.0
C3 C+2 0.348 0.468 0.291 1 0.0
O1 O-2 0.454 0.099 0.175 1 0.0
