#------------------------------------------------------------------------------
#$Date: 2015-08-10 12:32:22 +0300 (Mon, 10 Aug 2015) $
#$Revision: 153313 $
#$URL: svn://www.crystallography.net/cod/cif/1/52/93/1529383.cif $
#------------------------------------------------------------------------------
#
# This file is available in the Crystallography Open Database (COD),
# http://www.crystallography.net/
#
# All data on this site have been placed in the public domain by the
# contributors.
#
data_1529383
loop_
_publ_author_name
'A.M. Astakhov'
'A.D. Vasilev'
'M.S. Molokeev'
'Yu.V. Kekin'
'L.A. Kruglyakova'
'R.S. Stepanov'
_publ_section_title
;
 Crystal and Molecular Structure of 2-nitro-1-ureidoguanidine
;
_journal_issue                   2
_journal_name_full               'Journal of Structural Chemistry'
_journal_page_first              326
_journal_page_last               329
_journal_paper_doi               10.1023/A:1025579614640
_journal_volume                  44
_journal_year                    2003
_chemical_formula_sum            'C2 H6 N6 O3'
_chemical_formula_weight         162.13
_space_group_crystal_system      monoclinic
_space_group_IT_number           14
_space_group_name_Hall           '-P 2yn'
_space_group_name_H-M_alt        'P 1 21/n 1'
_symmetry_space_group_name_Hall  '-P 2yn'
_symmetry_space_group_name_H-M   'P 1 21/n 1'
_atom_sites_solution_hydrogens   difmap
_audit_creation_method           SHELXL-2014/7
_cell_angle_alpha                90
_cell_angle_beta                 94.896(5)
_cell_angle_gamma                90
_cell_formula_units_Z            4
_cell_length_a                   4.4690(2)
_cell_length_b                   15.5660(10)
_cell_length_c                   9.4131(7)
_cell_measurement_temperature    293(2)
_cell_volume                     652.43(7)
_computing_structure_refinement  'SHELXL-2014/7 (Sheldrick, 2014)'
_diffrn_ambient_temperature      293(2)
_diffrn_measured_fraction_theta_full 0.991
_diffrn_measured_fraction_theta_max 0.930
_diffrn_radiation_wavelength     1.5406
_diffrn_reflns_av_R_equivalents  0.0337
_diffrn_reflns_av_unetI/netI     0.0173
_diffrn_reflns_laue_measured_fraction_full 0.991
_diffrn_reflns_laue_measured_fraction_max 0.930
_diffrn_reflns_limit_h_max       5
_diffrn_reflns_limit_h_min       0
_diffrn_reflns_limit_k_max       18
_diffrn_reflns_limit_k_min       0
_diffrn_reflns_limit_l_max       11
_diffrn_reflns_limit_l_min       -11
_diffrn_reflns_number            1321
_diffrn_reflns_point_group_measured_fraction_full 0.991
_diffrn_reflns_point_group_measured_fraction_max 0.930
_diffrn_reflns_theta_full        25.000
_diffrn_reflns_theta_max         70.059
_diffrn_reflns_theta_min         5.502
_exptl_absorpt_coefficient_mu    1.308
_exptl_crystal_density_diffrn    1.651
_exptl_crystal_F_000             336
_refine_diff_density_max         0.321
_refine_diff_density_min         -0.414
_refine_diff_density_rms         0.074
_refine_ls_extinction_coef       0.050(4)
_refine_ls_extinction_expression Fc^*^=kFc[1+0.001xFc^2^\l^3^/sin(2\q)]^-1/4^
_refine_ls_extinction_method     'SHELXL-2014/7 (Sheldrick 2014'
_refine_ls_goodness_of_fit_ref   1.092
_refine_ls_hydrogen_treatment    refall
_refine_ls_matrix_type           full
_refine_ls_number_parameters     127
_refine_ls_number_reflns         1157
_refine_ls_number_restraints     0
_refine_ls_restrained_S_all      1.092
_refine_ls_R_factor_all          0.0532
_refine_ls_R_factor_gt           0.0473
_refine_ls_shift/su_max          0.000
_refine_ls_shift/su_mean         0.000
_refine_ls_structure_factor_coef Fsqd
_refine_ls_weighting_details
'w=1/[\s^2^(Fo^2^)+(0.0766P)^2^+0.2615P] where P=(Fo^2^+2Fc^2^)/3'
_refine_ls_weighting_scheme      calc
_refine_ls_wR_factor_gt          0.1266
_refine_ls_wR_factor_ref         0.1315
_reflns_Friedel_coverage         0.000
_reflns_friedel_fraction_full    .
_reflns_friedel_fraction_max     .
_reflns_number_gt                995
_reflns_number_total             1157
_reflns_threshold_expression     'I > 2\s(I)'
_cod_data_source_file            C2H6N6O3.cif
_cod_data_source_block           x
_cod_database_code               1529383
_shelx_shelxl_version_number     2014/7
_shelx_space_group_comment
;
The symmetry employed for this shelxl refinement is uniquely defined
by the following loop, which should always be used as a source of
symmetry information in preference to the above space-group names.
They are only intended as comments.
;
_shelx_res_file
;

    xx.res created by SHELXL-2014/7

TITL x in P2(1)/n
CELL 1.5406   4.4690  15.5660   9.4131  90.000  94.896  90.000
ZERR    4.00   0.0002   0.001   0.0007   0.000   0.005   0.000
LATT  1
SYMM 0.5-X, 0.5+Y, 0.5-Z
SFAC C N O H
UNIT 8 24 12 24
OMIT -3 5 2
OMIT 1 5 2
L.S. 4
HTAB
BOND $H
ACTA 50
FMAP 2
PLAN 20
MPLA N5 C2 O3 N6 H4 H5 H6
MPLA N4 C1 N3 N1 N2 O1 O2 H1 H2 H3
WGHT    0.076600    0.261500
EXTI    0.050353
FVAR       0.62320   0.50000   0.05000
O1    3    0.079099    0.717162    0.217286    11.00000    0.11477    0.04586 =
         0.05916   -0.01857    0.04283   -0.01967
O2    3   -0.188600    0.611072    0.275875    11.00000    0.09472    0.06406 =
         0.04680   -0.00395    0.04135   -0.01632
N2    2   -0.023132    0.644186    0.193991    11.00000    0.05935    0.04230 =
         0.03216    0.00027    0.01430   -0.00121
N1    2    0.045331    0.595749    0.085006    11.00000    0.05580    0.03963 =
         0.03206   -0.00414    0.01671   -0.00649
C1    1    0.210989    0.629408   -0.015970    11.00000    0.03860    0.03637 =
         0.02934    0.00271    0.00624   -0.00066
N3    2    0.305168    0.708143   -0.029079    11.00000    0.08386    0.03750 =
         0.04558   -0.00338    0.03345   -0.01002
H1    4    0.263807    0.742907    0.034897    11.00000    0.07096
H2    4    0.397931    0.720583   -0.110398    11.00000    0.06044
N4    2    0.279679    0.569544   -0.108852    11.00000    0.05065    0.03591 =
         0.03350   -0.00145    0.01624   -0.00614
H3    4    0.200361    0.519571   -0.099905    11.00000    0.05154
N5    2    0.404933    0.591967   -0.231757    11.00000    0.02850    0.04777 =
         0.03185    0.00049    0.00981   -0.00042
H4    4    0.578717    0.581089   -0.235709    11.00000    0.04924
C2    1    0.222951    0.597496   -0.354548    11.00000    0.02769    0.07330 =
         0.03730   -0.00176    0.00709    0.00433
O3    3   -0.049261    0.600122   -0.350723    11.00000    0.02419    0.21879 =
         0.05298    0.00128    0.00856    0.00879
N6    2    0.358933    0.603530   -0.474111    11.00000    0.03316    0.10337 =
         0.03258   -0.00094    0.00694    0.00678
H5    4    0.541007    0.599788   -0.475862    11.00000    0.05829
H6    4    0.260157    0.599010   -0.552521    11.00000    0.07181
HKLF 4

REM  x in P2(1)/n
REM R1 =  0.0473 for     995 Fo > 4sig(Fo)  and  0.0532 for all    1157 data
REM    127 parameters refined using      0 restraints

END

WGHT      0.0768      0.2618

REM Instructions for potential hydrogen bonds
HTAB N3 O1
EQIV $1 x+1/2, -y+3/2, z-1/2
HTAB N3 O1_$1
EQIV $2 -x, -y+1, -z
HTAB N4 O2_$2
HTAB N4 N1_$2
EQIV $3 x+1, y, z
HTAB N5 O3_$3
HTAB N6 O3_$3
EQIV $4 x, y, z-1
HTAB N6 O2_$4
HTAB N6 N2_$4

REM Highest difference peak  0.321,  deepest hole -0.414,  1-sigma level  0.074
Q1    1  -0.0321  0.5424 -0.3498  11.00000  0.05    0.32
Q2    1  -0.0523  0.6214 -0.3563  11.00000  0.05    0.31
Q3    1  -0.0002  0.7433  0.3014  11.00000  0.05    0.22
Q4    1  -0.0980  0.7205  0.1590  11.00000  0.05    0.21
Q5    1  -0.2115  0.6508  0.3571  11.00000  0.05    0.19
Q6    1   0.1335  0.6097  0.0494  11.00000  0.05    0.19
Q7    1  -0.1484  0.6863  0.3022  11.00000  0.05    0.18
Q8    1   0.1070  0.7260  0.1182  11.00000  0.05    0.18
Q9    1   0.2654  0.5985 -0.0556  11.00000  0.05    0.17
Q10   1  -0.0171  0.5575  0.1641  11.00000  0.05    0.17
Q11   1  -0.1704  0.5391  0.2401  11.00000  0.05    0.15
Q12   1   0.4305  0.6730 -0.1993  11.00000  0.05    0.14
Q13   1   0.1759  0.7550  0.0036  11.00000  0.05    0.13
Q14   1   0.2775  0.6613  0.0032  11.00000  0.05    0.13
Q15   1  -0.2868  0.5237  0.3081  11.00000  0.05    0.12
Q16   1   0.1660  0.6830 -0.0538  11.00000  0.05    0.12
Q17   1   0.3443  0.7381 -0.1131  11.00000  0.05    0.12
Q18   1   0.2733  0.5447 -0.1011  11.00000  0.05    0.12
Q19   1   0.3177  0.8019 -0.0248  11.00000  0.05    0.12
Q20   1   0.0539  0.7961  0.1092  11.00000  0.05    0.11
;
_shelx_res_checksum              76364
_shelx_hkl_file
;
   1   0 -11    0.17    0.17
   1   1 -11   19.35    0.50
   0   1 -11   20.37    0.53
   0   2 -11    3.27    0.14
   1   2 -11    2.06    0.08
   1   3 -11    0.39    0.17
   0   3 -11    3.78    0.15
   0   4 -11    1.25    0.06
   1   4 -11    5.85    0.24
   1   5 -11    0.25    0.15
   0   5 -11   26.29    0.52
   2   0 -10   21.73    0.61
   0   0 -10    6.93    0.30
   0   1 -10   19.35    0.62
   1   1 -10    1.95    0.09
   2   1 -10    1.07    0.07
   3   1 -10    1.14    0.06
   3   2 -10    1.10    0.06
   2   2 -10   17.98    0.55
   1   2 -10   10.05    0.42
   0   2 -10    0.42    0.25
   0   3 -10   28.67    0.73
   1   3 -10    7.05    0.28
   2   3 -10    3.28    0.13
   2   4 -10    0.38    0.19
   1   4 -10    8.20    0.35
   0   4 -10    0.51    0.22
   0   5 -10    1.11    0.07
   1   5 -10    3.65    0.15
   2   5 -10    0.11    0.18
   2   6 -10    0.00    0.17
   1   6 -10   14.77    0.50
   0   6 -10    1.59    0.07
   0   7 -10    6.74    0.26
   1   7 -10    4.99    0.20
   2   7 -10    4.95    0.18
   1   8 -10    4.01    0.17
   0   8 -10    0.30    0.18
   0   9 -10    1.05    0.06
   1   9 -10    5.68    0.23
   1   0  -9   82.11    1.36
   3   0  -9   23.08    0.62
   3   1  -9   23.62    0.62
   2   1  -9    4.16    0.18
   1   1  -9   98.77    1.48
   0   1  -9   35.82    0.92
   0   2  -9  236.46    2.28
   1   2  -9    3.60    0.11
   2   2  -9   16.33    0.62
   3   2  -9    0.00    0.18
   3   3  -9    4.80    0.19
   2   3  -9   14.58    0.58
   1   3  -9   97.68    1.46
   0   3  -9    1.09    0.10
   0   4  -9    8.13    0.34
   1   4  -9   41.13    0.95
   2   4  -9    0.77    0.07
   3   4  -9    6.78    0.29
   3   5  -9    0.09    0.16
   2   5  -9    0.07    0.19
   1   5  -9    1.60    0.09
   0   5  -9    4.39    0.18
   0   6  -9   30.61    0.81
   1   6  -9   24.93    0.72
   2   6  -9    6.23    0.27
   3   6  -9    0.00    0.16
   3   7  -9    1.39    0.07
   2   7  -9    1.26    0.07
   1   7  -9   29.86    0.77
   0   7  -9   21.75    0.67
   0   8  -9   38.82    0.84
   1   8  -9    2.97    0.11
   2   8  -9    0.00    0.16
   2   9  -9   17.91    0.48
   1   9  -9    0.00    0.21
   0   9  -9    0.00    0.21
   0  10  -9    5.35    0.23
   1  10  -9   20.91    0.54
   2  10  -9    4.32    0.16
   1  11  -9    0.76    0.05
   0  11  -9    0.04    0.15
   4   0  -8   18.14    0.48
   2   0  -8  414.21    3.02
   0   0  -8   39.62    0.95
   0   1  -8    0.33    0.23
   1   1  -8   12.75    0.47
   2   1  -8    0.58    0.27
   3   1  -8   10.58    0.40
   4   1  -8    0.52    0.18
   4   2  -8    3.57    0.13
   3   2  -8    0.00    0.21
   2   2  -8    8.92    0.35
   1   2  -8  122.86    1.64
   0   2  -8   14.96    0.55
   0   3  -8  213.47    2.16
   1   3  -8   76.29    1.30
   2   3  -8    4.76    0.18
   3   3  -8    1.76    0.09
   4   3  -8    0.40    0.16
   4   4  -8    0.12    0.16
   3   4  -8   16.29    0.57
   2   4  -8  152.86    1.83
   1   4  -8   13.68    0.55
   0   4  -8   11.14    0.44
   0   5  -8    4.45    0.16
   1   5  -8    5.25    0.21
   2   5  -8    0.23    0.25
   3   5  -8    1.31    0.08
   3   6  -8    0.00    0.19
   2   6  -8   65.28    1.18
   1   6  -8    1.46    0.09
   0   6  -8   29.00    0.83
   0   7  -8   35.23    0.91
   1   7  -8    2.16    0.10
   2   7  -8    0.20    0.25
   3   7  -8    0.80    0.07
   3   8  -8    2.05    0.09
   2   8  -8   19.07    0.64
   1   8  -8   29.96    0.82
   0   8  -8    2.43    0.10
   0   9  -8    8.30    0.35
   1   9  -8   26.53    0.75
   2   9  -8    1.10    0.07
   3   9  -8    0.00    0.16
   2  10  -8    5.21    0.21
   1  10  -8    0.69    0.07
   0  10  -8    9.64    0.41
   0  11  -8    3.59    0.14
   1  11  -8   13.55    0.48
   2  11  -8    1.56    0.07
   2  12  -8    0.40    0.14
   1  12  -8    1.42    0.07
   0  12  -8    0.40    0.18
   0  13  -8   20.72    0.50
   1  13  -8    0.25    0.14
   1   0  -7  107.67    1.42
   3   0  -7  104.53    1.52
   4   1  -7    3.85    0.16
   3   1  -7    6.92    0.28
   2   1  -7  101.16    1.47
   1   1  -7   27.97    0.76
   0   1  -7  102.52    1.38
   0   2  -7   17.26    0.59
   1   2  -7   98.40    1.37
   2   2  -7   12.60    0.50
   3   2  -7   11.87    0.47
   4   2  -7    6.89    0.29
   4   3  -7    5.92    0.21
   3   3  -7    0.36    0.25
   2   3  -7   42.68    0.99
   1   3  -7    2.72    0.10
   0   3  -7   13.38    0.53
   0   4  -7   14.23    0.55
   1   4  -7    0.07    0.20
   2   4  -7   98.44    1.47
   3   4  -7   72.41    1.26
   4   4  -7    4.12    0.16
   4   5  -7    0.83    0.07
   3   5  -7    0.00    0.20
   2   5  -7   39.99    0.96
   1   5  -7    2.99    0.15
   0   5  -7   35.19    0.87
   0   6  -7    4.38    0.18
   1   6  -7    9.65    0.39
   2   6  -7    0.34    0.23
   3   6  -7    9.92    0.39
   4   6  -7    5.26    0.21
   4   7  -7    0.44    0.17
   3   7  -7    0.00    0.22
   2   7  -7    0.41    0.24
   1   7  -7   13.78    0.57
   0   7  -7   44.35    1.02
   0   8  -7   32.76    0.87
   1   8  -7    6.23    0.25
   2   8  -7    7.00    0.27
   3   8  -7    7.83    0.31
   3   9  -7    2.07    0.08
   2   9  -7    4.28    0.21
   1   9  -7    0.19    0.23
   0   9  -7   14.50    0.60
   0  10  -7   27.30    0.80
   1  10  -7    8.02    0.33
   2  10  -7   46.41    0.95
   3  10  -7    0.33    0.19
   3  11  -7    4.84    0.20
   2  11  -7    3.65    0.15
   1  11  -7    4.53    0.19
   0  11  -7   11.27    0.43
   0  12  -7   26.70    0.74
   1  12  -7   29.07    0.73
   2  12  -7    0.18    0.17
   2  13  -7    4.90    0.20
   1  13  -7    2.89    0.13
   0  13  -7    9.08    0.37
   0  14  -7    5.85    0.24
   1  14  -7    7.48    0.31
   0  15  -7   11.61    0.36
   4   0  -6   41.94    0.92
   2   0  -6   12.14    0.49
   0   0  -6    0.21    0.17
   0   1  -6    1.11    0.06
   1   1  -6   55.03    0.92
   2   1  -6  126.41    1.54
   3   1  -6    0.39    0.29
   4   1  -6    6.75    0.30
   4   2  -6    3.07    0.10
   3   2  -6  301.84    2.61
   2   2  -6    7.49    0.30
   1   2  -6   22.42    0.61
   0   2  -6   25.04    0.63
   0   3  -6   48.01    0.88
   1   3  -6    4.18    0.16
   2   3  -6   39.17    0.89
   3   3  -6   31.14    0.88
   4   3  -6   31.13    0.78
   4   4  -6   10.96    0.43
   3   4  -6   28.93    0.85
   2   4  -6   12.44    0.51
   1   4  -6   33.59    0.77
   0   4  -6    7.04    0.32
   0   5  -6    8.32    0.34
   1   5  -6   50.80    0.97
   2   5  -6   39.61    0.92
   3   5  -6   21.47    0.74
   4   5  -6    0.17    0.23
   4   6  -6   14.33    0.51
   3   6  -6  112.00    1.58
   2   6  -6    0.50    0.24
   1   6  -6  130.14    1.59
   0   6  -6   52.98    1.00
   0   7  -6   33.31    0.83
   1   7  -6    0.98    0.08
   2   7  -6    1.38    0.09
   3   7  -6    0.03    0.26
   4   7  -6    0.90    0.07
   4   8  -6    0.01    0.19
   3   8  -6   29.37    0.81
   2   8  -6    2.64    0.10
   1   8  -6    1.13    0.08
   0   8  -6   28.85    0.80
   0   9  -6   14.41    0.56
   1   9  -6   14.76    0.57
   2   9  -6    6.22    0.25
   3   9  -6   29.40    0.77
   4   9  -6    0.30    0.16
   3  10  -6    7.78    0.32
   2  10  -6    0.24    0.23
   1  10  -6   10.07    0.41
   0  10  -6   22.71    0.75
   0  11  -6   43.14    1.00
   1  11  -6    5.93    0.24
   2  11  -6   41.76    0.94
   3  11  -6   10.03    0.39
   3  12  -6    1.80    0.07
   2  12  -6    3.37    0.12
   1  12  -6   29.32    0.82
   0  12  -6   19.23    0.68
   0  13  -6   10.67    0.39
   1  13  -6    8.38    0.32
   2  13  -6   12.07    0.48
   3  13  -6    4.10    0.17
   2  13  -6   11.89    0.45
   3  13  -6    4.16    0.17
   2  14  -6    2.69    0.09
   1  14  -6   15.74    0.53
   0  14  -6    2.16    0.09
   0  15  -6    4.73    0.18
   1  15  -6    1.46    0.07
   0  16  -6    4.79    0.19
   1   0  -5   33.11    0.63
   3   0  -5   27.01    0.78
   5   0  -5   10.91    0.37
   5   1  -5    0.14    0.17
   4   1  -5    0.25    0.29
   3   1  -5    2.93    0.12
   2   1  -5   94.45    1.20
   1   1  -5   64.57    0.87
   0   1  -5   47.84    0.72
   0   2  -5   41.61    0.69
   1   2  -5   49.94    0.78
   2   2  -5   17.72    0.55
   3   2  -5  110.00    1.52
   4   2  -5  180.71    1.92
   5   2  -5    2.51    0.10
   5   3  -5    0.04    0.17
   4   3  -5    7.68    0.30
   3   3  -5    2.81    0.12
   2   3  -5   18.90    0.57
   1   3  -5  418.79    2.28
   0   3  -5  162.76    1.38
   0   4  -5   54.07    0.83
   1   4  -5   84.05    1.06
   2   4  -5   30.36    0.73
   3   4  -5   48.08    1.04
   4   4  -5  101.15    1.42
   4   5  -5    0.42    0.29
   3   5  -5   37.53    0.92
   2   5  -5    0.22    0.20
   1   5  -5   99.73    1.20
   0   5  -5  250.36    1.83
   0   6  -5    7.42    0.32
   1   6  -5   50.28    0.89
   2   6  -5   18.60    0.63
   3   6  -5  102.85    1.51
   4   6  -5   68.14    1.12
   4   7  -5   26.70    0.69
   3   7  -5    1.32    0.10
   2   7  -5   49.74    1.00
   1   7  -5   34.48    0.78
   0   7  -5   33.76    0.75
   0   8  -5   14.29    0.53
   1   8  -5    1.64    0.08
   2   8  -5    1.45    0.09
   3   8  -5    3.23    0.17
   4   8  -5   25.69    0.65
   4   9  -5    0.28    0.23
   3   9  -5   35.09    0.87
   2   9  -5    0.47    0.21
   1   9  -5  110.24    1.49
   0   9  -5    5.31    0.19
   0  10  -5    0.28    0.24
   1  10  -5  110.03    1.53
   2  10  -5    0.20    0.22
   3  10  -5    7.24    0.27
   4  10  -5    5.15    0.19
   3  11  -5    0.09    0.21
   2  11  -5    0.30    0.22
   1  11  -5    7.88    0.31
   0  11  -5   94.27    1.44
   0  12  -5    3.01    0.13
   1  12  -5    0.15    0.21
   2  12  -5    0.47    0.22
   3  12  -5   26.26    0.65
   3  13  -5    0.10    0.18
   2  13  -5   22.58    0.67
   1  13  -5   18.03    0.64
   0  13  -5    2.93    0.10
   0  14  -5    0.00    0.22
   1  14  -5   28.78    0.77
   2  14  -5    0.13    0.17
   3  14  -5    7.25    0.29
   2  15  -5    0.00    0.15
   1  15  -5    3.02    0.12
   0  15  -5    7.72    0.34
   0  16  -5    4.69    0.19
   1  16  -5    0.48    0.20
   0  17  -5    7.38    0.28
   4   0  -4    8.41    0.35
   2   0  -4  114.50    1.20
   0   0  -4  319.51    1.57
   0   1  -4  196.18    1.24
   1   1  -4  412.52    1.90
   2   1  -4    7.25    0.31
   3   1  -4   72.03    1.17
   4   1  -4   44.78    1.01
   5   1  -4   15.81    0.48
   5   2  -4    2.51    0.08
   4   2  -4    0.60    0.30
   3   2  -4  183.53    1.87
   2   2  -4   22.55    0.56
   1   2  -4  155.23    1.19
   0   2  -4  267.06    1.48
   0   3  -4  196.13    1.31
   1   3  -4   42.30    0.66
   2   3  -4  208.41    1.68
   3   3  -4   14.76    0.59
   4   3  -4   15.50    0.59
   5   3  -4    1.57    0.08
   5   4  -4    3.10    0.12
   4   4  -4    6.26    0.29
   3   4  -4   21.86    0.69
   2   4  -4   79.22    1.07
   1   4  -4  349.43    1.92
   0   4  -4   32.64    0.58
   0   5  -4    0.70    0.05
   1   5  -4  150.99    1.32
   2   5  -4   24.84    0.64
   3   5  -4   32.72    0.84
   4   5  -4    0.37    0.31
   5   5  -4   15.32    0.42
   4   6  -4   21.41    0.69
   3   6  -4    0.03    0.22
   2   6  -4    0.74    0.07
   1   6  -4    0.00    0.16
   0   6  -4    8.34    0.32
   0   7  -4   81.30    1.05
   1   7  -4   86.86    1.12
   2   7  -4   67.92    1.11
   3   7  -4    6.77    0.30
   4   7  -4   10.90    0.42
   4   8  -4   24.02    0.68
   3   8  -4   24.69    0.77
   2   8  -4  113.89    1.49
   1   8  -4    0.35    0.18
   0   8  -4   74.72    1.07
   0   9  -4   33.90    0.77
   1   9  -4   53.18    0.99
   2   9  -4  161.10    1.82
   3   9  -4    8.34    0.30
   4   9  -4    0.57    0.24
   4  10  -4   10.77    0.40
   3  10  -4    1.20    0.09
   2  10  -4   26.15    0.79
   1  10  -4  109.48    1.48
   0  10  -4   41.59    0.90
   0  11  -4    2.63    0.13
   1  11  -4   21.29    0.70
   2  11  -4   22.03    0.73
   3  11  -4   14.52    0.57
   4  11  -4    5.66    0.21
   3  12  -4    3.54    0.14
   2  12  -4   35.55    0.90
   1  12  -4   33.05    0.88
   0  12  -4   63.87    1.19
   0  13  -4  106.73    1.55
   1  13  -4    2.30    0.10
   2  13  -4   58.85    1.11
   3  13  -4    0.40    0.19
   3  14  -4    0.19    0.16
   2  14  -4    9.84    0.39
   1  14  -4    1.61    0.09
   0  14  -4    0.35    0.24
   0  15  -4   14.14    0.56
   1  15  -4    0.00    0.23
   2  15  -4    0.30    0.18
   2  16  -4    0.00    0.15
   1  16  -4   12.18    0.46
   0  16  -4    2.97    0.12
   0  17  -4    2.66    0.10
   1  17  -4    1.24    0.06
   1   0  -3    4.58    0.19
   3   0  -3    6.11    0.26
   4   1  -3   10.32    0.43
   3   1  -3   95.03    1.28
   2   1  -3    0.97    0.06
   1   1  -3  198.81    1.15
   0   1  -3   15.58    0.32
   0   2  -3  455.82    4.69
   1   2  -3  401.34    4.81
   2   2  -3  171.90    1.37
   3   2  -3   25.24    0.70
   3   3  -3   91.88    1.29
   2   3  -3  156.90    1.35
   1   3  -3  154.32    1.08
   0   3  -3   23.59    0.41
   0   4  -3  100.21    0.86
   1   4  -3  578.25    6.31
   2   4  -3   57.17    0.85
   3   4  -3    2.42    0.10
   4   5  -3   26.38    0.78
   3   5  -3    0.28    0.24
   2   5  -3   88.44    1.09
   1   5  -3   68.34    0.81
   0   5  -3   22.34    0.45
   0   6  -3   35.80    0.60
   1   6  -3  166.25    1.33
   2   6  -3   25.27    0.62
   3   6  -3   31.92    0.84
   4   6  -3    2.89    0.11
   4   7  -3    4.47    0.20
   3   7  -3  123.45    1.62
   2   7  -3    5.53    0.22
   1   7  -3    2.97    0.12
   0   7  -3    1.45    0.07
   0   8  -3   13.42    0.44
   1   8  -3  115.05    1.26
   2   8  -3  155.06    1.65
   3   8  -3   46.84    1.04
   4   8  -3    1.81    0.09
   4   9  -3   12.34    0.50
   3   9  -3   10.84    0.46
   2   9  -3   46.12    0.96
   1   9  -3   31.77    0.72
   0   9  -3   44.05    0.82
   0  10  -3   86.96    1.22
   1  10  -3   55.88    1.01
   2  10  -3    1.80    0.09
   3  10  -3   16.29    0.63
   4  10  -3    2.05    0.10
   4  11  -3    1.39    0.07
   3  11  -3   53.79    1.08
   2  11  -3   26.98    0.79
   1  11  -3   14.20    0.56
   0  11  -3    1.39    0.08
   0  12  -3   42.12    0.95
   1  12  -3   19.78    0.68
   2  12  -3   18.27    0.67
   3  12  -3   12.24    0.50
   4  12  -3    1.56    0.07
   3  13  -3   13.46    0.51
   2  13  -3    1.48    0.09
   1  13  -3   35.59    0.90
   0  13  -3   55.80    1.12
   0  14  -3   33.14    0.87
   1  14  -3  113.92    1.58
   2  14  -3    0.06    0.20
   3  14  -3    0.02    0.19
   3  15  -3    0.70    0.05
   2  15  -3    0.09    0.19
   1  15  -3    6.45    0.25
   0  15  -3    2.63    0.12
   0  16  -3    4.49    0.17
   1  16  -3    0.50    0.07
   2  16  -3    0.00    0.16
   2  17  -3    7.58    0.29
   1  17  -3    0.42    0.17
   0  17  -3    1.11    0.07
   0  18  -3    4.30    0.17
   1  18  -3    0.00    0.13
   4   0  -2   24.60    0.78
   2   0  -2  186.04    1.30
   0   0  -2  122.33    0.65
   0   1  -2  270.17    2.82
   1   1  -2  146.35    0.86
   2   1  -2  396.15    1.90
   3   1  -2    3.17    0.13
   4   1  -2    0.00    0.30
   4   2  -2    3.05    0.12
   3   2  -2  162.14    1.62
   2   2  -2   57.31    0.75
   1   2  -2    0.37    0.04
   0   2  -2    0.00    0.13
   0   3  -2  217.39    2.91
   1   3  -2  160.77    0.98
   2   3  -2   10.18    0.36
   3   3  -2    2.81    0.12
   4   3  -2    1.30    0.10
   4   4  -2   14.86    0.55
   3   4  -2    2.07    0.09
   2   4  -2    3.30    0.11
   1   4  -2   28.98    0.46
   0   4  -2   40.68    0.49
   0   5  -2   82.23    0.75
   1   5  -2  232.79    1.36
   2   5  -2   48.14    0.77
   3   5  -2    8.41    0.31
   3   6  -2   19.86    0.65
   2   6  -2   52.07    0.84
   1   6  -2   65.41    0.78
   0   6  -2   17.89    0.40
   0   7  -2  207.27    1.40
   1   7  -2   29.99    0.58
   2   7  -2   13.42    0.48
   3   7  -2  102.89    1.47
   4   8  -2    0.06    0.26
   3   8  -2   19.00    0.70
   2   8  -2   16.36    0.55
   1   8  -2   20.90    0.53
   0   8  -2    9.09    0.36
   0   9  -2    2.26    0.08
   1   9  -2    4.26    0.16
   2   9  -2    9.75    0.40
   3   9  -2    5.90    0.25
   4   9  -2   18.00    0.62
   4  10  -2    4.57    0.16
   3  10  -2   30.66    0.86
   2  10  -2   40.65    0.91
   1  10  -2   41.64    0.84
   0  10  -2    0.05    0.17
   0  11  -2   13.09    0.52
   1  11  -2  127.73    1.56
   2  11  -2    0.68    0.24
   3  11  -2   12.00    0.50
   4  11  -2    3.64    0.15
   4  12  -2    0.70    0.06
   3  12  -2    0.00    0.20
   2  12  -2   19.29    0.69
   1  12  -2    7.75    0.31
   0  12  -2    6.38    0.22
   0  13  -2   18.28    0.66
   1  13  -2   12.22    0.49
   2  13  -2   59.70    1.16
   3  13  -2    0.54    0.22
   3  14  -2    0.05    0.19
   2  14  -2   31.68    0.84
   1  14  -2   51.66    1.08
   0  14  -2    0.06    0.22
   0  15  -2    1.93    0.09
   1  15  -2   47.21    1.02
   2  15  -2    8.63    0.32
   3  15  -2    0.00    0.16
   2  16  -2    1.14    0.07
   1  16  -2    0.29    0.20
   0  16  -2   13.08    0.53
   0  17  -2   12.25    0.47
   1  17  -2    0.17    0.18
   2  17  -2    0.07    0.15
   1  18  -2    6.36    0.28
   0  18  -2    0.95    0.06
   1   0  -1  379.60    3.48
   3   0  -1  149.30    1.52
   4   1  -1   95.04    1.45
   3   1  -1    0.63    0.25
   2   1  -1   38.02    0.59
   1   1  -1   91.05    0.61
   0   1  -1   76.32    0.39
   0   2  -1   24.37    0.27
   1   2  -1  154.11    0.83
   2   2  -1   61.35    0.75
   3   2  -1    5.52    0.23
   4   2  -1    2.19    0.12
   4   3  -1   14.05    0.58
   3   3  -1   52.07    0.94
   2   3  -1    1.86    0.08
   1   3  -1   71.15    0.62
   0   3  -1  142.41    0.71
   0   4  -1  722.02    5.20
   1   4  -1  123.10    0.87
   2   4  -1  134.28    1.18
   3   4  -1    9.02    0.36
   4   4  -1    8.55    0.32
   4   5  -1   70.45    1.27
   3   5  -1   17.66    0.61
   2   5  -1   38.06    0.67
   1   5  -1   33.21    0.50
   0   5  -1  269.84    1.25
   0   6  -1    6.10    0.23
   1   6  -1  101.24    0.93
   2   6  -1  253.22    1.79
   3   6  -1   34.47    0.84
   4   6  -1   27.72    0.82
   3   7  -1   22.04    0.71
   2   7  -1   86.90    1.11
   1   7  -1  106.10    1.03
   0   7  -1   90.54    0.89
   0   8  -1   28.79    0.57
   1   8  -1    9.63    0.37
   2   8  -1    9.48    0.40
   3   8  -1   23.33    0.74
   3   9  -1   41.27    0.98
   2   9  -1   26.28    0.70
   1   9  -1    2.76    0.13
   0   9  -1    1.32    0.07
   0  10  -1  194.73    1.69
   1  10  -1   10.14    0.40
   2  10  -1    9.18    0.35
   3  10  -1   11.53    0.44
   4  10  -1    4.99    0.18
   4  11  -1    3.46    0.15
   3  11  -1    6.66    0.27
   2  11  -1   48.68    1.03
   1  11  -1    0.00    0.20
   0  11  -1   35.68    0.80
   0  12  -1   12.57    0.49
   1  12  -1    0.62    0.22
   2  12  -1   61.50    1.18
   3  12  -1    1.71    0.09
   4  12  -1    0.24    0.18
   3  13  -1   19.87    0.65
   2  13  -1    4.82    0.20
   1  13  -1   42.17    0.97
   0  13  -1   13.85    0.52
   0  14  -1    0.37    0.27
   1  14  -1    0.00    0.24
   2  14  -1    1.44    0.09
   3  14  -1    3.92    0.14
   3  15  -1    1.49    0.07
   2  15  -1   36.23    0.85
   1  15  -1   13.57    0.53
   0  15  -1   24.65    0.77
   0  16  -1    0.74    0.08
   1  16  -1    6.74    0.28
   2  16  -1   14.25    0.51
   2  17  -1    7.93    0.32
   1  17  -1   21.88    0.63
   0  17  -1    6.52    0.28
   0  18  -1    4.09    0.16
   1  18  -1    0.16    0.16
   4   0   0   17.29    0.63
   2   0   0   11.39    0.34
   1   1   0  376.01    3.44
   2   1   0  167.57    1.20
   3   1   0   87.58    1.18
   4   1   0    1.00    0.10
   4   2   0    0.61    0.30
   3   2   0   23.87    0.65
   2   2   0    6.04    0.26
   1   2   0  879.66    5.55
   0   2   0   26.69    0.25
   1   3   0  335.20    3.71
   2   3   0  402.58    1.94
   3   3   0   18.16    0.59
   4   3   0   22.46    0.75
   4   4   0    9.12    0.41
   3   4   0    5.89    0.25
   2   4   0    1.69    0.07
   1   4   0   65.56    0.63
   0   4   0 1510.27    7.22
   1   5   0   27.38    0.46
   2   5   0    0.16    0.16
   3   5   0    8.23    0.31
   4   5   0   11.87    0.48
   4   6   0    0.61    0.28
   3   6   0    2.24    0.10
   2   6   0    7.82    0.34
   1   6   0  143.48    1.09
   0   6   0 1372.18    8.78
   1   7   0   27.33    0.53
   2   7   0   58.48    0.92
   3   7   0   21.93    0.70
   3   8   0   17.03    0.63
   2   8   0    5.03    0.21
   1   8   0  328.81    1.95
   0   8   0  106.97    1.04
   1   9   0   61.53    0.92
   2   9   0   22.34    0.65
   3   9   0    0.00    0.25
   4  10   0    6.20    0.21
   3  10   0    0.00    0.26
   2  10   0    4.81    0.17
   1  10   0    1.14    0.07
   0  10   0  427.77    2.47
   1  11   0   45.62    0.92
   2  11   0    0.59    0.07
   3  11   0    0.00    0.25
   4  11   0    0.07    0.19
   4  12   0    0.38    0.19
   3  12   0   14.08    0.58
   2  12   0   11.20    0.44
   1  12   0    4.43    0.16
   0  12   0   25.02    0.71
   1  13   0    2.09    0.09
   2  13   0    4.17    0.17
   3  13   0    5.55    0.24
   3  14   0   11.08    0.41
   2  14   0    0.51    0.07
   1  14   0    0.31    0.21
   0  14   0   31.50    0.86
   1  15   0    0.39    0.22
   2  15   0    0.00    0.21
   3  15   0    0.00    0.18
   2  16   0   17.07    0.55
   1  16   0   20.01    0.65
   0  16   0   23.17    0.72
   1  17   0    0.73    0.07
   2  17   0    0.16    0.16
   1  18   0    0.33    0.15
   0  18   0    0.07    0.17
   1   0   1 1260.60    6.59
   3   0   1   73.85    1.10
   4   1   1    6.87    0.29
   3   1   1    5.26    0.23
   2   1   1  151.29    1.17
   1   1   1 1712.28    7.81
   0   1   1   84.23    1.19
   0   2   1   25.97    0.28
   1   2   1  258.92    3.20
   2   2   1  266.28    1.58
   3   2   1    6.63    0.24
   4   2   1    7.97    0.25
   4   3   1    0.06    0.25
   3   3   1    2.97    0.13
   2   3   1   14.74    0.41
   1   3   1   15.64    0.32
   0   3   1  155.78    0.75
   0   4   1  824.95    5.59
   1   4   1  850.70    6.66
   2   4   1   14.26    0.42
   3   4   1   25.36    0.71
   4   4   1    2.70    0.13
   4   5   1    9.44    0.39
   3   5   1    2.35    0.10
   2   5   1   14.56    0.44
   1   5   1   30.91    0.50
   0   5   1  268.82    3.59
   0   6   1    5.69    0.24
   1   6   1  222.78    1.39
   2   6   1   38.19    0.72
   3   6   1   15.10    0.57
   4   6   1    0.98    0.09
   3   7   1    0.47    0.24
   2   7   1  187.53    1.66
   1   7   1   34.84    0.61
   0   7   1   95.31    0.92
   0   8   1   29.32    0.57
   1   8   1   80.40    0.99
   2   8   1    8.48    0.35
   3   8   1   15.00    0.61
   3   9   1    0.00    0.24
   2   9   1    2.62    0.09
   1   9   1   21.49    0.57
   0   9   1    1.03    0.06
   0  10   1  203.75    1.73
   1  10   1   34.44    0.76
   2  10   1    4.04    0.16
   3  10   1    0.71    0.27
   4  11   1   10.71    0.41
   3  11   1    0.97    0.09
   2  11   1    8.71    0.34
   1  11   1    8.03    0.33
   0  11   1   36.98    0.82
   0  12   1   13.09    0.52
   1  12   1   11.79    0.45
   2  12   1    4.75    0.19
   3  12   1    7.83    0.31
   4  12   1    0.03    0.18
   3  13   1   14.76    0.55
   2  13   1    2.94    0.11
   1  13   1   54.65    1.11
   0  13   1   13.51    0.51
   0  14   1    0.50    0.22
   1  14   1    5.64    0.24
   2  14   1    6.37    0.27
   3  14   1    0.04    0.18
   3  15   1    2.25    0.10
   2  15   1   24.29    0.71
   1  15   1   46.43    1.03
   0  15   1   24.96    0.77
   0  16   1    0.68    0.07
   1  16   1    1.75    0.09
   2  16   1    0.34    0.19
   2  17   1    0.12    0.14
   1  17   1    0.06    0.17
   0  17   1    6.98    0.29
   0  18   1    4.04    0.15
   1  18   1    0.13    0.16
   4   0   2   23.99    0.76
   2   0   2  453.17    2.14
   0   0   2  127.73    0.67
   0   1   2  316.15    3.07
   1   1   2    8.76    0.26
   2   1   2  164.10    1.30
   3   1   2   16.69    0.57
   4   1   2   17.39    0.66
   4   2   2    2.79    0.11
   3   2   2    5.25    0.21
   2   2   2   64.73    0.85
   1   2   2 2038.72   10.05
   0   2   2    0.00    0.13
   0   3   2  250.41    3.17
   1   3   2  326.95    4.25
   2   3   2  650.58    7.80
   3   3   2    4.29    0.16
   4   3   2   29.04    0.83
   4   4   2    1.82    0.10
   3   4   2    2.42    0.10
   2   4   2    0.64    0.07
   1   4   2   55.68    0.66
   0   4   2   44.59    0.52
   0   5   2   87.56    0.78
   1   5   2   25.37    0.49
   2   5   2   11.31    0.43
   3   5   2   17.86    0.64
   4   5   2    0.06    0.25
   3   6   2   47.63    1.03
   2   6   2   16.79    0.52
   1   6   2  209.70    1.44
   0   6   2   18.73    0.41
   0   7   2  219.13    1.46
   1   7   2   15.81    0.45
   2   7   2   72.38    1.09
   3   7   2    8.96    0.36
   3   8   2   10.83    0.45
   2   8   2    3.93    0.16
   1   8   2  148.62    1.41
   0   8   2    9.44    0.37
   0   9   2    2.19    0.09
   1   9   2  123.06    1.38
   2   9   2    2.04    0.09
   3   9   2   21.85    0.74
   3  10   2    0.25    0.24
   2  10   2    0.16    0.22
   1  10   2   62.68    1.06
   0  10   2    0.08    0.18
   0  11   2   14.18    0.53
   1  11   2   20.01    0.65
   2  11   2    9.80    0.39
   3  11   2   16.78    0.64
   4  11   2    0.20    0.19
   4  12   2    0.01    0.16
   3  12   2    2.39    0.10
   2  12   2    4.07    0.17
   1  12   2    0.38    0.20
   0  12   2    6.29    0.24
   0  13   2   18.91    0.68
   1  13   2    5.52    0.21
   2  13   2    0.20    0.22
   3  13   2    9.30    0.40
   3  14   2    0.78    0.07
   2  14   2   32.83    0.85
   1  14   2    4.39    0.17
   0  14   2    0.00    0.22
   0  15   2    2.04    0.10
   1  15   2    6.02    0.24
   2  15   2    0.71    0.07
   3  15   2    4.93    0.19
   2  16   2    2.10    0.09
   1  16   2    2.57    0.12
   0  16   2   13.79    0.54
   0  17   2   11.87    0.46
   1  17   2    0.00    0.19
   2  17   2    2.26    0.09
   1  18   2    0.44    0.16
   0  18   2    0.86    0.06
   1   0   3  295.90    1.48
   3   0   3  252.72    2.21
   4   1   3   17.22    0.64
   3   1   3   59.16    1.10
   2   1   3   80.87    1.01
   1   1   3   55.98    0.66
   0   1   3   16.28    0.33
   0   2   3  522.35    5.11
   1   2   3  127.04    1.00
   2   2   3  276.48    1.86
   3   2   3   52.72    1.04
   4   2   3   50.98    1.07
   4   3   3    1.26    0.10
   3   3   3   21.59    0.70
   2   3   3  133.59    1.33
   1   3   3   92.11    0.89
   0   3   3   25.16    0.43
   0   4   3  107.80    0.90
   1   4   3   15.46    0.40
   2   4   3  239.95    1.83
   3   4   3  177.69    1.92
   3   5   3    0.79    0.29
   2   5   3   21.36    0.60
   1   5   3   17.42    0.44
   0   5   3   24.94    0.48
   0   6   3   37.63    0.62
   1   6   3  140.85    1.28
   2   6   3   80.61    1.16
   3   6   3   57.62    1.14
   3   7   3   10.30    0.43
   2   7   3   18.65    0.61
   1   7   3   14.42    0.47
   0   7   3    1.72    0.06
   0   8   3   13.37    0.44
   1   8   3   35.95    0.75
   2   8   3   40.89    0.91
   3   8   3    3.73    0.15
   3   9   3    0.18    0.24
   2   9   3   23.33    0.74
   1   9   3    2.14    0.08
   0   9   3   45.80    0.84
   0  10   3   91.24    1.26
   1  10   3   16.90    0.59
   2  10   3   13.63    0.52
   3  10   3    1.80    0.09
   4  10   3    0.23    0.19
   4  11   3    1.12    0.06
   3  11   3    1.74    0.09
   2  11   3    9.62    0.39
   1  11   3    4.13    0.13
   0  11   3    1.45    0.08
   0  12   3   44.21    0.99
   1  12   3    0.23    0.21
   2  12   3   10.53    0.43
   3  12   3   13.14    0.51
   3  13   3    3.82    0.15
   2  13   3    1.05    0.08
   1  13   3    0.49    0.08
   0  13   3   55.88    1.14
   0  14   3   32.78    0.89
   1  14   3    0.98    0.08
   2  14   3    0.62    0.25
   3  14   3    0.21    0.16
   2  15   3    0.62    0.06
   1  15   3    2.52    0.09
   0  15   3    2.68    0.11
   0  16   3    4.33    0.17
   1  16   3    8.62    0.35
   2  16   3    0.03    0.16
   1  17   3    1.05    0.06
   0  17   3    1.07    0.07
   0  18   3    4.15    0.18
   2   0   4    0.27    0.17
   0   0   4  331.77    1.61
   0   1   4  212.56    1.30
   1   1   4   85.02    0.93
   2   1   4   18.05    0.54
   3   1   4  100.52    1.47
   3   2   4   44.96    1.01
   2   2   4    9.79    0.39
   1   2   4   90.35    0.98
   0   2   4  286.32    1.55
   0   3   4  203.47    1.35
   1   3   4   14.64    0.43
   2   3   4   20.29    0.59
   3   3   4    9.31    0.41
   3   4   4   70.30    1.27
   2   4   4    7.17    0.33
   1   4   4   64.67    0.89
   0   4   4   34.08    0.59
   0   5   4    0.69    0.05
   1   5   4  323.58    2.04
   2   5   4   23.04    0.66
   3   5   4   88.10    1.43
   3   6   4    1.01    0.09
   2   6   4   24.96    0.72
   1   6   4   11.70    0.44
   0   6   4    8.87    0.35
   0   7   4   88.32    1.11
   1   7   4    0.11    0.18
   2   7   4   15.84    0.61
   3   7   4    0.06    0.24
   3   8   4   54.62    1.13
   2   8   4   11.31    0.46
   1   8   4    6.50    0.27
   0   8   4   76.54    1.10
   0   9   4   33.01    0.78
   1   9   4    0.10    0.24
   2   9   4    2.07    0.09
   3   9   4    1.47    0.09
   4   9   4    0.35    0.20
   4  10   4   10.23    0.35
   3  10   4    9.79    0.38
   2  10   4    0.99    0.08
   1  10   4    4.25    0.19
   0  10   4   43.68    0.94
   0  11   4    2.62    0.12
   1  11   4   79.65    1.35
   2  11   4    0.41    0.23
   3  11   4    0.10    0.20
   3  12   4   11.99    0.47
   2  12   4   14.37    0.59
   1  12   4   24.09    0.79
   0  12   4   65.80    1.23
   0  13   4  114.14    1.62
   1  13   4    0.29    0.23
   2  13   4    7.85    0.29
   3  13   4    0.00    0.17
   2  14   4    0.00    0.19
   1  14   4    3.95    0.17
   0  14   4    0.46    0.26
   0  15   4   13.90    0.55
   1  15   4   19.58    0.63
   2  15   4    0.74    0.06
   2  16   4    0.94    0.05
   1  16   4    0.00    0.16
   0  16   4    3.17    0.13
   0  17   4    2.58    0.10
   1  17   4    3.07    0.11
   1   0   5  163.66    1.47
   3   0   5   15.99    0.64
   4   1   5    2.20    0.09
   3   1   5    9.25    0.38
   2   1   5    0.00    0.20
   1   1   5  351.38    2.15
   0   1   5   52.62    0.77
   0   2   5   43.10    0.71
   1   2   5   61.07    0.93
   2   2   5    8.11    0.32
   3   2   5    2.89    0.11
   3   3   5    2.05    0.10
   2   3   5    6.43    0.26
   1   3   5   74.06    1.03
   0   3   5  177.54    1.46
   0   4   5   54.04    0.84
   1   4   5   18.73    0.55
   2   4   5    6.58    0.26
   3   4   5    7.75    0.33
   3   5   5   14.26    0.58
   2   5   5    0.37    0.21
   1   5   5    7.09    0.30
   0   5   5  263.48    1.91
   0   6   5    8.00    0.31
   1   6   5   22.76    0.66
   2   6   5    0.48    0.07
   3   6   5    4.40    0.15
   4   6   5    0.67    0.06
   4   7   5    2.76    0.10
   3   7   5    6.55    0.25
   2   7   5   10.11    0.43
   1   7   5  137.22    1.61
   0   7   5   35.23    0.78
   0   8   5   13.38    0.53
   1   8   5   36.41    0.88
   2   8   5    0.92    0.08
   3   8   5    0.00    0.22
   4   8   5    2.66    0.11
   3   9   5    0.59    0.22
   2   9   5   32.05    0.88
   1   9   5   18.52    0.67
   0   9   5    5.33    0.22
   0  10   5    0.10    0.22
   1  10   5   14.83    0.60
   2  10   5   21.51    0.73
   3  10   5    1.45    0.08
   3  11   5    7.99    0.32
   2  11   5   14.21    0.53
   1  11   5  106.72    1.57
   0  11   5   92.50    1.45
   0  12   5    3.10    0.14
   1  12   5   38.39    0.96
   2  12   5    2.68    0.12
   3  12   5    3.87    0.16
   2  13   5    5.91    0.24
   1  13   5    0.29    0.20
   0  13   5    2.80    0.11
   0  14   5    0.01    0.24
   1  14   5   14.15    0.55
   2  14   5    8.37    0.35
   2  15   5    3.03    0.13
   1  15   5    0.30    0.19
   0  15   5    7.73    0.33
   0  16   5    4.03    0.19
   1  16   5    1.34    0.06
   0  17   5    6.33    0.25
   4   0   6    2.52    0.08
   2   0   6   13.33    0.55
   0   0   6    0.00    0.16
   0   1   6    1.09    0.06
   1   1   6    0.24    0.20
   2   1   6    8.57    0.36
   3   1   6    0.92    0.08
   4   1   6    6.86    0.27
   4   2   6    2.84    0.10
   3   2   6    4.71    0.19
   2   2   6    6.98    0.28
   1   2   6    8.03    0.33
   0   2   6   25.49    0.64
   0   3   6   48.95    0.88
   1   3   6   11.38    0.45
   2   3   6    0.76    0.08
   3   3   6    0.61    0.25
   4   3   6   10.77    0.42
   4   4   6    0.39    0.19
   3   4   6    0.02    0.23
   2   4   6    0.48    0.22
   1   4   6   94.54    1.32
   0   4   6    7.39    0.29
   0   5   6    7.74    0.29
   1   5   6    0.74    0.27
   2   5   6   22.45    0.74
   3   5   6    1.99    0.09
   4   5   6    0.75    0.06
   4   6   6    4.82    0.19
   3   6   6    0.09    0.20
   2   6   6   12.58    0.51
   1   6   6    3.37    0.15
   0   6   6   54.70    1.01
   0   7   6   34.68    0.85
   1   7   6   22.17    0.71
   2   7   6    3.95    0.16
   3   7   6    0.00    0.22
   3   8   6    9.91    0.38
   2   8   6    0.00    0.24
   1   8   6    0.45    0.23
   0   8   6   30.24    0.82
   0   9   6   14.44    0.55
   1   9   6    1.58    0.09
   2   9   6   16.36    0.64
   3   9   6    5.85    0.24
   3  10   6    0.12    0.17
   2  10   6   41.01    0.96
   1  10   6   35.89    0.94
   0  10   6   22.65    0.74
   0  11   6   41.66    0.98
   1  11   6    7.01    0.27
   2  11   6    2.97    0.11
   3  11   6    0.11    0.17
   2  12   6    0.55    0.19
   1  12   6    1.86    0.09
   0  12   6   19.48    0.68
   0  13   6    9.85    0.39
   1  13   6    0.62    0.22
   2  13   6    1.95    0.08
   2  14   6    1.44    0.06
   1  14   6    0.43    0.20
   0  14   6    2.12    0.08
   0  15   6    4.58    0.18
   1  15   6    1.96    0.08
   0  16   6    4.67    0.19
   1   0   7   23.37    0.72
   3   0   7   12.85    0.47
   4   1   7    0.09    0.15
   3   1   7    0.57    0.07
   2   1   7   19.17    0.69
   1   1   7    7.98    0.32
   0   1   7  106.59    1.41
   0   2   7   17.94    0.61
   1   2   7    6.61    0.25
   2   2   7   13.76    0.54
   3   2   7    0.00    0.20
   3   3   7    0.44    0.21
   2   3   7   19.30    0.69
   1   3   7   59.39    1.13
   0   3   7   13.36    0.52
   0   4   7   14.35    0.56
   1   4   7    0.07    0.22
   2   4   7    4.36    0.17
   3   4   7   14.64    0.55
   3   5   7    1.16    0.08
   2   5   7    4.77    0.19
   1   5   7   28.97    0.82
   0   5   7   34.35    0.87
   0   6   7    4.99    0.18
   1   6   7    9.77    0.41
   2   6   7   24.82    0.79
   3   6   7    0.27    0.21
   3   7   7    2.22    0.08
   2   7   7    2.04    0.10
   1   7   7   40.52    0.99
   0   7   7   43.68    1.00
   0   8   7   30.65    0.86
   1   8   7    5.51    0.20
   2   8   7    3.91    0.15
   3   8   7   10.33    0.41
   3   9   7    4.10    0.16
   2   9   7   10.24    0.43
   1   9   7   58.09    1.14
   0   9   7   14.44    0.57
   0  10   7   27.85    0.81
   1  10   7    5.28    0.22
   2  10   7    7.30    0.31
   2  11   7    3.05    0.14
   1  11   7    4.62    0.17
   0  11   7   11.01    0.45
   0  12   7   25.92    0.71
   1  12   7    5.52    0.20
   2  12   7    0.08    0.17
   1  13   7   26.75    0.63
   0  13   7    9.07    0.38
   0  14   7    5.44    0.21
   1  14   7    1.89    0.08
   0  15   7   10.26    0.33
   2   0   8    5.33    0.23
   0   0   8   42.70    0.98
   0   1   8    0.06    0.21
   1   1   8   23.41    0.76
   2   1   8    1.72    0.09
   3   1   8    0.00    0.19
   3   2   8    0.22    0.18
   2   2   8    3.33    0.13
   1   2   8    0.54    0.24
   0   2   8   15.89    0.61
   0   3   8  208.96    2.16
   1   3   8    1.43    0.09
   2   3   8   19.17    0.67
   3   3   8    5.15    0.23
   3   4   8    0.02    0.17
   2   4   8    1.65    0.09
   1   4   8    0.54    0.25
   0   4   8   10.94    0.43
   0   5   8    4.53    0.17
   1   5   8   36.96    0.94
   2   5   8    8.13    0.35
   3   5   8    0.06    0.16
   3   6   8    0.29    0.15
   2   6   8   17.80    0.61
   1   6   8    0.27    0.22
   0   6   8   27.19    0.80
   0   7   8   36.23    0.93
   1   7   8    1.67    0.09
   2   7   8    5.67    0.25
   3   7   8   11.79    0.37
   2   8   8    0.16    0.17
   1   8   8    3.53    0.14
   0   8   8    2.42    0.11
   0   9   8    8.55    0.36
   1   9   8    6.01    0.22
   2   9   8   11.74    0.44
   2  10   8   10.19    0.39
   1  10   8    0.20    0.17
   0  10   8   10.22    0.40
   0  11   8    3.48    0.13
   1  11   8    8.59    0.39
   1  12   8    0.43    0.16
   0  12   8    0.36    0.18
   0  13   8   19.88    0.49
   1   0   9   53.23    1.08
   3   0   9    0.10    0.15
   3   1   9    4.08    0.16
   2   1   9    5.75    0.22
   1   1   9    2.99    0.15
   0   1   9   36.83    0.95
   0   2   9  236.40    2.30
   1   2   9    2.68    0.10
   2   2   9    1.80    0.08
   2   3   9    0.44    0.22
   1   3   9    7.07    0.28
   0   3   9    1.31    0.09
   0   4   9    6.46    0.28
   1   4   9    6.56    0.27
   2   4   9    5.70    0.24
   2   5   9    0.56    0.20
   1   5   9    5.84    0.24
   0   5   9    4.71    0.19
   0   6   9   31.21    0.82
   1   6   9    3.46    0.14
   2   6   9    0.02    0.17
   2   7   9    0.39    0.17
   1   7   9    1.24    0.07
   0   7   9   21.38    0.67
   0   8   9   37.56    0.83
   1   8   9    3.84    0.15
   2   8   9    0.23    0.14
   1   9   9    9.25    0.38
   0   9   9    0.00    0.20
   0  10   9    5.21    0.21
   1  10   9    6.33    0.24
   0  11   9    0.00    0.14
   2   0  10    0.02    0.17
   0   0  10    5.25    0.23
   0   1  10   21.37    0.66
   1   1  10    3.90    0.16
   2   1  10    0.86    0.06
   2   2  10    0.28    0.14
   1   2  10    2.03    0.08
   0   2  10    0.46    0.19
   0   3  10   26.70    0.72
   1   3  10    4.30    0.19
   2   3  10    0.05    0.16
   2   4  10    2.45    0.10
   1   4  10    0.28    0.19
   0   4  10    0.55    0.21
   0   5  10    1.05    0.07
   1   5  10    0.17    0.17
   1   6  10   12.40    0.43
   0   6  10    1.62    0.07
   0   7  10    6.35    0.25
   1   7  10    0.21    0.15
   0   8  10    0.18    0.16
   0   9  10    0.87    0.05
   1   0  11   76.94    0.88
   1   1  11    4.02    0.18
   0   1  11   19.90    0.52
   0   2  11    2.94    0.12
   1   2  11    3.31    0.13
   0   3  11    3.94    0.14
   0   4  11    1.16    0.06
   0   5  11   25.53    0.51
   0   0   0    0.00    0.00
;
_shelx_hkl_checksum              4752
loop_
_space_group_symop_operation_xyz
'x, y, z'
'-x+1/2, y+1/2, -z+1/2'
'-x, -y, -z'
'x-1/2, -y-1/2, z-1/2'
loop_
_atom_site_label
_atom_site_type_symbol
_atom_site_fract_x
_atom_site_fract_y
_atom_site_fract_z
_atom_site_U_iso_or_equiv
_atom_site_adp_type
_atom_site_occupancy
_atom_site_site_symmetry_order
_atom_site_calc_flag
_atom_site_refinement_flags_posn
_atom_site_refinement_flags_adp
_atom_site_refinement_flags_occupancy
_atom_site_disorder_assembly
_atom_site_disorder_group
O1 O 0.0791(5) 0.71716(10) 0.2173(2) 0.0712(6) Uani 1 1 d . . . . .
O2 O -0.1886(5) 0.61107(12) 0.27588(18) 0.0665(6) Uani 1 1 d . . . . .
N2 N -0.0231(4) 0.64419(11) 0.19399(17) 0.0440(5) Uani 1 1 d . . . . .
N1 N 0.0453(4) 0.59575(10) 0.08501(17) 0.0418(5) Uani 1 1 d . . . . .
C1 C 0.2110(4) 0.62941(12) -0.01597(19) 0.0346(5) Uani 1 1 d . . . . .
N3 N 0.3052(5) 0.70814(12) -0.0291(2) 0.0540(6) Uani 1 1 d . . . . .
H1 H 0.264(7) 0.743(2) 0.035(4) 0.071(9) Uiso 1 1 d . . . . .
H2 H 0.398(6) 0.7206(18) -0.110(3) 0.060(7) Uiso 1 1 d . . . . .
N4 N 0.2797(4) 0.56954(12) -0.10885(17) 0.0393(5) Uani 1 1 d . . . . .
H3 H 0.200(6) 0.5196(19) -0.100(3) 0.052(7) Uiso 1 1 d . . . . .
N5 N 0.4049(4) 0.59197(11) -0.23176(17) 0.0356(5) Uani 1 1 d . . . . .
H4 H 0.579(7) 0.5811(16) -0.236(3) 0.049(7) Uiso 1 1 d . . . . .
C2 C 0.2230(5) 0.59750(15) -0.3545(2) 0.0458(6) Uani 1 1 d . . . . .
O3 O -0.0493(4) 0.6001(2) -0.3507(2) 0.0984(10) Uani 1 1 d . . . . .
N6 N 0.3589(5) 0.60353(16) -0.4741(2) 0.0561(6) Uani 1 1 d . . . . .
H5 H 0.541(8) 0.5998(17) -0.476(3) 0.058(8) Uiso 1 1 d . . . . .
H6 H 0.260(8) 0.5990(19) -0.553(4) 0.072(9) Uiso 1 1 d . . . . .
loop_
_atom_site_aniso_label
_atom_site_aniso_U_11
_atom_site_aniso_U_22
_atom_site_aniso_U_33
_atom_site_aniso_U_23
_atom_site_aniso_U_13
_atom_site_aniso_U_12
O1 0.1148(16) 0.0459(9) 0.0592(11) -0.0186(8) 0.0428(10) -0.0197(9)
O2 0.0947(15) 0.0641(11) 0.0468(10) -0.0040(7) 0.0413(9) -0.0163(9)
N2 0.0594(12) 0.0423(9) 0.0322(8) 0.0003(7) 0.0143(8) -0.0012(8)
N1 0.0558(12) 0.0396(9) 0.0321(9) -0.0041(6) 0.0167(7) -0.0065(7)
C1 0.0386(11) 0.0364(9) 0.0293(9) 0.0027(7) 0.0062(7) -0.0007(8)
N3 0.0839(15) 0.0375(10) 0.0456(10) -0.0034(8) 0.0334(10) -0.0100(9)
N4 0.0506(11) 0.0359(9) 0.0335(8) -0.0015(6) 0.0162(7) -0.0061(7)
N5 0.0285(10) 0.0478(9) 0.0319(8) 0.0005(6) 0.0098(7) -0.0004(7)
C2 0.0277(12) 0.0733(15) 0.0373(11) -0.0018(9) 0.0071(8) 0.0043(10)
O3 0.0242(11) 0.219(3) 0.0530(11) 0.0013(14) 0.0086(7) 0.0088(12)
N6 0.0332(12) 0.1034(18) 0.0326(10) -0.0009(9) 0.0069(8) 0.0068(10)
loop_
_atom_type_symbol
_atom_type_description
_atom_type_scat_dispersion_real
_atom_type_scat_dispersion_imag
_atom_type_scat_source
C C 0.0181 0.0091 'International Tables Vol C Tables 4.2.6.8 and 6.1.1.4'
N N 0.0311 0.0180 'International Tables Vol C Tables 4.2.6.8 and 6.1.1.4'
O O 0.0492 0.0322 'International Tables Vol C Tables 4.2.6.8 and 6.1.1.4'
H H 0.0000 0.0000 'International Tables Vol C Tables 4.2.6.8 and 6.1.1.4'
loop_
_geom_angle_atom_site_label_1
_geom_angle_atom_site_label_2
_geom_angle_atom_site_label_3
_geom_angle
_geom_angle_site_symmetry_1
_geom_angle_site_symmetry_3
O2 N2 O1 120.53(17) . .
O2 N2 N1 115.94(17) . .
O1 N2 N1 123.48(17) . .
N2 N1 C1 119.74(16) . .
N3 C1 N4 120.06(18) . .
N3 C1 N1 128.87(18) . .
N4 C1 N1 111.06(17) . .
C1 N3 H1 116(2) . .
C1 N3 H2 116.6(17) . .
H1 N3 H2 127(3) . .
C1 N4 N5 120.59(17) . .
C1 N4 H3 116.6(17) . .
N5 N4 H3 120.8(17) . .
C2 N5 N4 118.41(18) . .
C2 N5 H4 119.2(19) . .
N4 N5 H4 117.0(19) . .
O3 C2 N6 123.5(2) . .
O3 C2 N5 120.2(2) . .
N6 C2 N5 116.2(2) . .
C2 N6 H5 123(2) . .
C2 N6 H6 120(2) . .
H5 N6 H6 116(3) . .
loop_
_geom_bond_atom_site_label_1
_geom_bond_atom_site_label_2
_geom_bond_distance
_geom_bond_site_symmetry_2
O1 N2 1.237(2) .
O2 N2 1.226(2) .
N2 N1 1.330(2) .
N1 C1 1.359(2) .
C1 N3 1.305(3) .
C1 N4 1.331(3) .
N3 H1 0.84(4) .
N3 H2 0.92(3) .
N4 N5 1.373(2) .
N4 H3 0.86(3) .
N5 C2 1.358(3) .
N5 H4 0.80(3) .
C2 O3 1.221(3) .
C2 N6 1.327(3) .
N6 H5 0.82(3) .
N6 H6 0.83(4) .

_cod_database_fobs_code 1529383
