#------------------------------------------------------------------------------
#$Date: 2015-08-10 12:59:56 +0300 (Mon, 10 Aug 2015) $
#$Revision: 153315 $
#$URL: svn://www.crystallography.net/cod/cif/1/52/93/1529385.cif $
#------------------------------------------------------------------------------
#
# This file is available in the Crystallography Open Database (COD),
# http://www.crystallography.net/
#
# All data on this site have been placed in the public domain by the
# contributors.
#
data_1529385
loop_
_publ_author_name
'A.D. Vasiliev'
'A.M. Astakhov'
'M.S. Molokeev'
'L.A. Kruglyakova'
'A.M. Sirotinin'
'R.S. Stepanov'
_publ_section_title
;
 Crystal and molecular structure of the nitramino derivatives of tetrazole
 and 1,2,4-triazole. III. 5-nitraminotetrazole lithium salt monohydrate
;
_journal_issue                   2
_journal_name_full               'Journal of Structural Chemistry'
_journal_page_first              360
_journal_page_last               364
_journal_paper_doi               10.1023/B:JORY.0000048894.84780.cd
_journal_volume                  45
_journal_year                    2004
_chemical_formula_sum            'C H3 Li N6 O3'
_chemical_formula_weight         154.03
_space_group_crystal_system      monoclinic
_space_group_IT_number           14
_space_group_name_Hall           '-P 2ybc'
_space_group_name_H-M_alt        'P 1 21/c 1'
_symmetry_space_group_name_Hall  '-P 2ybc'
_symmetry_space_group_name_H-M   'P 1 21/c 1'
_atom_sites_solution_hydrogens   difmap
_audit_creation_method           SHELXL-2014/7
_cell_angle_alpha                90
_cell_angle_beta                 106.629(6)
_cell_angle_gamma                90
_cell_formula_units_Z            4
_cell_length_a                   8.3789(5)
_cell_length_b                   10.1872(6)
_cell_length_c                   6.6709(5)
_cell_measurement_temperature    293(2)
_cell_volume                     545.60(6)
_computing_structure_refinement  'SHELXL-2014/7 (Sheldrick, 2014)'
_diffrn_ambient_temperature      293(2)
_diffrn_measured_fraction_theta_full 1.000
_diffrn_measured_fraction_theta_max 0.976
_diffrn_radiation_wavelength     1.54056
_diffrn_reflns_av_R_equivalents  0.0090
_diffrn_reflns_av_unetI/netI     0.0155
_diffrn_reflns_laue_measured_fraction_full 1.000
_diffrn_reflns_laue_measured_fraction_max 0.976
_diffrn_reflns_limit_h_max       9
_diffrn_reflns_limit_h_min       -10
_diffrn_reflns_limit_k_max       6
_diffrn_reflns_limit_k_min       -12
_diffrn_reflns_limit_l_max       8
_diffrn_reflns_limit_l_min       0
_diffrn_reflns_number            1104
_diffrn_reflns_point_group_measured_fraction_full 1.000
_diffrn_reflns_point_group_measured_fraction_max 0.976
_diffrn_reflns_theta_full        25.000
_diffrn_reflns_theta_max         69.969
_diffrn_reflns_theta_min         5.506
_exptl_absorpt_coefficient_mu    1.501
_exptl_crystal_density_diffrn    1.875
_exptl_crystal_F_000             312
_refine_diff_density_max         0.283
_refine_diff_density_min         -0.227
_refine_diff_density_rms         0.054
_refine_ls_extinction_coef       0.0150(13)
_refine_ls_extinction_expression Fc^*^=kFc[1+0.001xFc^2^\l^3^/sin(2\q)]^-1/4^
_refine_ls_extinction_method     'SHELXL-2014/7 (Sheldrick 2014'
_refine_ls_goodness_of_fit_ref   1.038
_refine_ls_hydrogen_treatment    refall
_refine_ls_matrix_type           full
_refine_ls_number_parameters     113
_refine_ls_number_reflns         1010
_refine_ls_number_restraints     0
_refine_ls_restrained_S_all      1.038
_refine_ls_R_factor_all          0.0324
_refine_ls_R_factor_gt           0.0296
_refine_ls_shift/su_max          0.025
_refine_ls_shift/su_mean         0.003
_refine_ls_structure_factor_coef Fsqd
_refine_ls_weighting_details
'w=1/[\s^2^(Fo^2^)+(0.0476P)^2^+0.2383P] where P=(Fo^2^+2Fc^2^)/3'
_refine_ls_weighting_scheme      calc
_refine_ls_wR_factor_gt          0.0796
_refine_ls_wR_factor_ref         0.0814
_reflns_Friedel_coverage         0.000
_reflns_friedel_fraction_full    .
_reflns_friedel_fraction_max     .
_reflns_number_gt                926
_reflns_number_total             1010
_reflns_threshold_expression     'I > 2\s(I)'
_cod_data_source_file            CH3LiN6O3.cif
_cod_data_source_block           a
_cod_database_code               1529385
_shelx_shelxl_version_number     2014/7
_shelx_space_group_comment
;
The symmetry employed for this shelxl refinement is uniquely defined
by the following loop, which should always be used as a source of
symmetry information in preference to the above space-group names.
They are only intended as comments.
;
_shelx_res_file
;

    MLS-5-NA.res created by SHELXL-2014/7

TITL MLS-5-NATZ  P21/c
CELL 1.54056  8.3789  10.1872   6.6709  90     106.629   90
ZERR    4.00  0.0005   0.0006   0.0005   0.0     0.006   0.0
LATT 1
SYMM -X, 0.5+Y, 0.5-Z
SFAC   C  O Li N H
UNIT   4 12 4 24 12
ACTA 50
L.S. 4
HTAB
BOND $H
FMAP 2
PLAN 20
MPLA O1 O2 N1 HN C N2 N3 N4 N5 N6
WGHT    0.047600    0.238300
EXTI    0.014955
FVAR       0.43970
O1    2    0.027313    0.518613    0.230990    11.00000    0.01677    0.02272 =
         0.03700    0.00078    0.01160    0.00140
O2    2    0.225658    0.378308    0.243938    11.00000    0.02428    0.01486 =
         0.05520    0.00052    0.01661    0.00208
N1    4    0.518665    0.454591    0.253773    11.00000    0.01665    0.01635 =
         0.02889    0.00063    0.00835   -0.00028
HN    5    0.491532    0.378540    0.259733    11.00000    0.03308
C     1    0.432840    0.567806    0.235620    11.00000    0.01964    0.01770 =
         0.01844   -0.00042    0.00499    0.00000
N2    4    0.677317    0.482338    0.260399    11.00000    0.01642    0.02304 =
         0.03085    0.00095    0.00679   -0.00021
N3    4    0.536582    0.665594    0.230564    11.00000    0.01859    0.01893 =
         0.02969    0.00021    0.00793   -0.00013
N4    4    0.685611    0.608614    0.245823    11.00000    0.01802    0.02042 =
         0.03002   -0.00002    0.00701   -0.00119
N5    4    0.270482    0.594901    0.225111    11.00000    0.01791    0.01612 =
         0.03276    0.00160    0.00791    0.00024
N6    4    0.174584    0.494366    0.233544    11.00000    0.01695    0.01799 =
         0.02287   -0.00060    0.00634    0.00041
LI    3    0.087393    0.291505    0.739646    11.00000    0.02408    0.02961 =
         0.03258    0.00143    0.01087   -0.00248
OW    2   -0.034408    0.285800    0.433801    11.00000    0.02493    0.01813 =
         0.02888   -0.00134    0.00765   -0.00173
HW1   5   -0.123634    0.238051    0.406977    11.00000    0.04450
HW2   5   -0.063674    0.359602    0.390807    11.00000    0.05581
HKLF 4

REM  MLS-5-NATZ  P21/c
REM R1 =  0.0296 for     926 Fo > 4sig(Fo)  and  0.0324 for all    1010 data
REM    113 parameters refined using      0 restraints

END

WGHT      0.0475      0.2043

REM Instructions for potential hydrogen bonds
EQIV $1 -x+1, y-1/2, -z+1/2
HTAB N1 N3_$1
EQIV $2 -x, y-1/2, -z+1/2
HTAB OW N5_$2
HTAB OW N6_$2
HTAB OW O1
EQIV $3 x-1, y, z
HTAB OW N2_$3

REM Highest difference peak  0.283,  deepest hole -0.227,  1-sigma level  0.054
Q1    1   0.0521  0.2304  0.5299  11.00000  0.05    0.28
Q2    1   0.4589  0.5035  0.2217  11.00000  0.05    0.23
Q3    1   0.3419  0.5746  0.1888  11.00000  0.05    0.22
Q4    1   0.2208  0.6500  0.1475  11.00000  0.05    0.18
Q5    1  -0.0285  0.4873  0.2591  11.00000  0.05    0.17
Q6    1   0.7732  0.6416  0.2779  11.00000  0.05    0.17
Q7    1   0.8256  0.4818  0.2358  11.00000  0.05    0.16
Q8    1   0.7613  0.4162  0.2958  11.00000  0.05    0.16
Q9    1   0.4803  0.6211  0.2768  11.00000  0.05    0.15
Q10   1   0.4579  0.6294  0.2024  11.00000  0.05    0.15
Q11   1   0.3164  0.5001  0.1550  11.00000  0.05    0.14
Q12   1   0.2598  0.5640  0.2376  11.00000  0.05    0.13
Q13   1   0.4949  0.7202  0.1960  11.00000  0.05    0.13
Q14   1   0.7574  0.3790  0.4487  11.00000  0.05    0.12
Q15   1   0.5948  0.4742  0.2575  11.00000  0.05    0.12
Q16   1   0.3358  0.7259  0.0455  11.00000  0.05    0.11
Q17   1   0.3340  0.3708  0.1901  11.00000  0.05    0.11
Q18   1  -0.1182  0.4984  0.4981  11.00000  0.05    0.11
Q19   1   0.5978  0.6450  0.1989  11.00000  0.05    0.11
Q20   1  -0.1657  0.3413  0.3662  11.00000  0.05    0.10
;
_shelx_res_checksum              95098
_shelx_hkl_file
;
  -2 -12   0    1.54    0.07
  -1 -12   0    5.08    0.21
   0 -12   0    1.27    0.06
   1 -12   0    4.56    0.19
   2 -12   0    1.53    0.06
   4 -11   0   16.49    0.45
   3 -11   0    6.34    0.25
   2 -11   0    0.22    0.13
   1 -11   0    5.64    0.23
  -1 -11   0    6.17    0.24
  -2 -11   0    0.00    0.15
  -3 -11   0    5.76    0.24
  -4 -11   0   17.44    0.46
  -5 -10   0    0.00    0.14
  -4 -10   0    0.01    0.15
  -3 -10   0   39.75    0.91
  -2 -10   0   47.84    1.03
  -1 -10   0   59.20    1.15
   0 -10   0   52.33    1.10
   1 -10   0   58.47    1.15
   2 -10   0   47.91    1.02
   3 -10   0   42.60    0.93
   4 -10   0    0.12    0.16
   5 -10   0    0.24    0.13
   6  -9   0    0.10    0.12
   5  -9   0    6.41    0.25
   4  -9   0   22.09    0.69
   3  -9   0   12.57    0.47
   2  -9   0    0.05    0.20
   1  -9   0    5.82    0.24
  -1  -9   0    6.46    0.24
  -2  -9   0    0.00    0.19
  -3  -9   0   12.24    0.47
  -4  -9   0   23.65    0.72
  -5  -9   0    6.28    0.27
  -6  -9   0    0.05    0.14
  -7  -8   0    1.13    0.05
  -6  -8   0   17.41    0.58
  -5  -8   0    8.14    0.30
  -4  -8   0    0.64    0.08
  -3  -8   0   14.52    0.53
  -2  -8   0  143.83    1.76
  -1  -8   0   53.83    1.06
   0  -8   0   53.45    1.04
   1  -8   0   53.79    1.06
   2  -8   0  148.75    1.77
   3  -8   0   15.64    0.60
   4  -8   0    1.37    0.07
   5  -8   0    8.21    0.35
   6  -8   0   16.70    0.55
   7  -8   0    1.15    0.05
   8  -7   0    3.87    0.15
   7  -7   0   19.71    0.58
   6  -7   0   10.61    0.40
   5  -7   0    0.22    0.15
   4  -7   0   18.64    0.65
   3  -7   0    1.43    0.07
   2  -7   0    7.37    0.31
   1  -7   0   39.40    0.83
  -1  -7   0   40.12    0.83
  -2  -7   0    7.20    0.29
  -3  -7   0    1.32    0.07
  -4  -7   0   19.20    0.66
  -5  -7   0    0.00    0.17
  -6  -7   0   10.20    0.40
  -7  -7   0   19.98    0.58
  -8  -7   0    4.35    0.16
  -8  -6   0    3.31    0.14
  -7  -6   0    4.32    0.20
  -6  -6   0   64.39    1.20
  -5  -6   0    9.50    0.37
  -4  -6   0    1.07    0.07
  -3  -6   0   12.19    0.48
  -2  -6   0   40.11    0.79
  -1  -6   0   15.89    0.48
   0  -6   0   19.79    0.52
   1  -6   0   17.51    0.50
   2  -6   0   42.46    0.79
   3  -6   0   13.89    0.50
   4  -6   0    1.04    0.07
   5  -6   0    9.32    0.35
   6  -6   0   64.04    1.20
   7  -6   0    4.32    0.19
   8  -6   0    3.71    0.15
   8  -5   0    6.75    0.28
   7  -5   0   52.64    1.05
   6  -5   0    5.28    0.22
   5  -5   0  112.51    1.50
   4  -5   0    5.73    0.23
   3  -5   0   24.71    0.59
   2  -5   0   50.59    0.77
   1  -5   0  193.16    1.39
  -1  -5   0  192.52    1.40
  -2  -5   0   49.56    0.76
  -3  -5   0   25.43    0.60
  -4  -5   0    6.39    0.23
  -5  -5   0  111.45    1.50
  -6  -5   0    5.87    0.22
  -7  -5   0   51.61    1.05
  -8  -5   0    6.99    0.27
  -9  -4   0    8.27    0.32
  -8  -4   0    4.31    0.17
  -7  -4   0    0.55    0.19
  -6  -4   0   97.83    1.45
  -5  -4   0   19.55    0.61
  -4  -4   0   23.27    0.59
  -3  -4   0   29.16    0.58
  -2  -4   0  389.86    1.86
  -1  -4   0  335.29    1.60
   0  -4   0   25.93    0.45
   1  -4   0  336.94    1.60
   2  -4   0  390.06    1.86
   3  -4   0   28.90    0.58
   4  -4   0   22.05    0.57
   5  -4   0   18.36    0.59
   6  -4   0   97.63    1.45
   7  -4   0    0.12    0.19
   8  -4   0    4.35    0.18
   9  -4   0    7.63    0.30
   9  -3   0    1.13    0.05
   8  -3   0    0.53    0.06
   7  -3   0    4.46    0.18
   6  -3   0   57.82    1.09
   5  -3   0   23.45    0.62
   4  -3   0   11.43    0.39
   3  -3   0   41.60    0.63
   2  -3   0   56.93    0.64
   1  -3   0    2.31    0.10
  -1  -3   0    2.21    0.08
  -2  -3   0   56.57    0.63
  -3  -3   0   41.64    0.63
  -4  -3   0   11.79    0.40
  -5  -3   0   24.01    0.64
  -6  -3   0   59.96    1.11
  -7  -3   0    4.88    0.20
  -8  -3   0    0.49    0.18
  -9  -3   0    0.99    0.05
  -9  -2   0    0.02    0.14
  -8  -2   0    6.96    0.29
  -7  -2   0    9.29    0.39
  -6  -2   0   89.53    1.32
  -5  -2   0    0.12    0.15
  -4  -2   0   22.12    0.50
  -3  -2   0    0.46    0.04
  -2  -2   0   78.92    0.66
  -1  -2   0  136.68    0.73
   0  -2   0  754.30    4.46
   1  -2   0  136.41    0.73
   2  -2   0   80.41    0.67
   3  -2   0    0.29    0.12
   4  -2   0   18.67    0.47
   5  -2   0    0.44    0.05
   6  -2   0   86.50    1.29
   7  -2   0    9.64    0.41
   8  -2   0    6.91    0.27
   9  -2   0    0.30    0.14
   9  -1   0    7.46    0.30
   8  -1   0   68.72    1.21
   7  -1   0    1.21    0.07
   6  -1   0   14.55    0.53
   5  -1   0   10.14    0.40
   4  -1   0   58.26    0.78
   3  -1   0   35.09    0.51
   2  -1   0   16.01    0.29
   1  -1   0   35.49    0.32
  -1  -1   0   35.50    0.32
  -2  -1   0   15.62    0.29
  -3  -1   0   35.66    0.51
  -4  -1   0   57.74    0.77
  -5  -1   0   10.18    0.39
  -6  -1   0   14.24    0.53
  -7  -1   0    1.12    0.07
  -8  -1   0   67.12    1.20
  -9  -1   0    7.73    0.30
  -9   0   0    3.56    0.12
  -8   0   0   31.89    0.83
  -7   0   0    1.54    0.08
  -6   0   0   57.55    1.04
  -5   0   0   15.66    0.48
  -4   0   0  635.58    7.21
  -3   0   0   30.49    0.46
  -2   0   0   87.92    0.61
  -1   0   0   16.22    0.20
   1   0   0   16.84    0.20
   2   0   0   88.10    0.61
   3   0   0   31.13    0.47
   4   0   0  643.74    7.25
   5   0   0   15.04    0.47
   6   0   0   57.60    1.04
   7   0   0    1.46    0.08
   8   0   0   32.90    0.85
   9   0   0    3.95    0.16
   1 -12   1    8.12    0.32
   0 -12   1    1.15    0.05
  -1 -12   1    6.18    0.27
  -2 -12   1    0.11    0.13
  -4 -11   1    0.53    0.04
  -3 -11   1    1.91    0.08
  -2 -11   1    9.79    0.39
  -1 -11   1    9.07    0.37
   0 -11   1    4.43    0.19
   1 -11   1    0.00    0.15
   2 -11   1    0.74    0.06
   3 -11   1    0.36    0.14
   4 -11   1    2.47    0.09
   5 -10   1    2.18    0.08
   4 -10   1   11.71    0.45
   3 -10   1   13.53    0.53
   2 -10   1    2.83    0.12
   1 -10   1   26.12    0.77
   0 -10   1   67.56    1.22
  -1 -10   1   48.31    1.04
  -2 -10   1    8.36    0.36
  -3 -10   1   29.12    0.78
  -4 -10   1    1.82    0.07
  -5 -10   1    0.68    0.05
  -6 -10   1    6.84    0.27
  -7  -9   1    0.66    0.04
  -6  -9   1    0.37    0.13
  -5  -9   1   13.52    0.53
  -4  -9   1   86.39    1.38
  -3  -9   1   23.55    0.75
  -2  -9   1    1.33    0.08
  -1  -9   1    1.00    0.07
   0  -9   1    5.93    0.23
   1  -9   1   22.72    0.76
   2  -9   1   50.71    1.08
   3  -9   1    1.11    0.07
   4  -9   1   36.59    0.85
   5  -9   1   22.49    0.61
   6  -9   1    0.43    0.14
   7  -8   1    1.41    0.05
   6  -8   1    4.30    0.16
   5  -8   1   73.33    1.21
   4  -8   1   16.55    0.62
   3  -8   1    1.61    0.08
   2  -8   1  106.20    1.52
   1  -8   1   32.67    0.84
   0  -8   1   31.88    0.83
  -1  -8   1   37.04    0.90
  -2  -8   1   51.54    1.07
  -3  -8   1    7.81    0.30
  -4  -8   1    0.00    0.16
  -5  -8   1   32.24    0.86
  -6  -8   1   12.49    0.49
  -7  -8   1    6.35    0.26
  -8  -7   1    0.71    0.05
  -7  -7   1    2.68    0.11
  -6  -7   1   78.19    1.30
  -5  -7   1    5.78    0.24
  -4  -7   1    4.51    0.20
  -3  -7   1    6.29    0.24
  -2  -7   1  276.29    2.26
  -1  -7   1   46.25    0.91
   0  -7   1   23.48    0.65
   1  -7   1    9.77    0.38
   2  -7   1   61.50    1.08
   3  -7   1    6.99    0.28
   4  -7   1    6.18    0.25
   5  -7   1    2.22    0.09
   6  -7   1   31.94    0.79
   7  -7   1    2.85    0.11
   8  -6   1    0.35    0.04
   7  -6   1    8.60    0.33
   6  -6   1   87.02    1.37
   5  -6   1   33.54    0.88
   4  -6   1    7.53    0.31
   3  -6   1   22.73    0.65
   2  -6   1    1.26    0.06
   1  -6   1   67.80    0.99
   0  -6   1    7.17    0.24
  -1  -6   1  112.31    1.25
  -2  -6   1    3.98    0.16
  -3  -6   1    1.36    0.07
  -4  -6   1    9.09    0.36
  -5  -6   1  139.93    1.72
  -6  -6   1   38.97    0.95
  -7  -6   1    0.70    0.06
  -8  -6   1   11.45    0.42
  -9  -5   1    0.62    0.04
  -8  -5   1   29.46    0.73
  -7  -5   1   29.00    0.80
  -6  -5   1   15.49    0.60
  -5  -5   1  102.64    1.41
  -4  -5   1    6.37    0.25
  -3  -5   1    3.42    0.11
  -2  -5   1    6.98    0.27
  -1  -5   1  157.81    1.31
   0  -5   1   37.74    0.64
   1  -5   1    9.19    0.34
   2  -5   1   74.76    0.98
   3  -5   1   40.54    0.79
   4  -5   1    7.11    0.29
   5  -5   1   57.82    1.13
   6  -5   1   10.96    0.43
   7  -5   1   24.14    0.70
   8  -5   1   14.77    0.45
   8  -4   1    0.19    0.16
   7  -4   1   71.09    1.23
   6  -4   1    4.65    0.17
   5  -4   1   95.69    1.38
   4  -4   1    8.24    0.34
   3  -4   1  240.31    1.76
   2  -4   1   13.46    0.39
   1  -4   1  152.33    1.15
   0  -4   1    0.02    0.12
  -1  -4   1   80.24    0.81
  -2  -4   1   60.36    0.75
  -3  -4   1  121.18    1.15
  -4  -4   1    8.08    0.33
  -5  -4   1    7.88    0.33
  -6  -4   1   48.49    1.01
  -7  -4   1   24.08    0.75
  -8  -4   1   13.55    0.53
  -9  -4   1    3.51    0.13
  -9  -3   1    0.31    0.16
  -8  -3   1   24.85    0.73
  -7  -3   1   62.03    1.17
  -6  -3   1    7.27    0.29
  -5  -3   1   49.25    0.88
  -4  -3   1    0.07    0.12
  -3  -3   1  392.27    1.87
  -2  -3   1  239.33    1.30
  -1  -3   1   84.86    0.72
   0  -3   1   40.53    0.50
   1  -3   1   63.61    0.66
   2  -3   1   14.56    0.37
   3  -3   1  101.54    1.05
   4  -3   1   15.90    0.50
   5  -3   1    3.54    0.14
   6  -3   1    0.80    0.07
   7  -3   1   38.20    0.93
   8  -3   1   23.76    0.65
   9  -3   1    3.49    0.13
   9  -2   1    0.47    0.04
   8  -2   1   17.42    0.58
   7  -2   1   35.83    0.90
   6  -2   1   10.29    0.39
   5  -2   1   70.88    1.11
   4  -2   1    7.80    0.31
   3  -2   1   40.21    0.63
   2  -2   1    1.29    0.05
   1  -2   1  129.33    0.82
   0  -2   1  191.59    0.90
  -1  -2   1  122.74    0.73
  -2  -2   1   31.68    0.43
  -3  -2   1  184.42    1.18
  -4  -2   1    0.00    0.12
  -5  -2   1   40.62    0.76
  -6  -2   1    0.35    0.17
  -7  -2   1  122.71    1.63
  -8  -2   1   16.89    0.61
  -9  -2   1    0.45    0.16
 -10  -1   1    0.62    0.04
  -9  -1   1    3.55    0.14
  -8  -1   1   84.92    1.36
  -7  -1   1   15.33    0.60
  -6  -1   1  121.07    1.46
  -5  -1   1  104.89    1.18
  -4  -1   1  135.52    1.14
  -3  -1   1   56.71    0.62
  -2  -1   1  315.21    3.46
  -1  -1   1   91.07    0.55
   0  -1   1    3.86    0.15
   1  -1   1  150.19    0.79
   2  -1   1  383.59    4.38
   3  -1   1   12.65    0.35
   4  -1   1  119.21    1.20
   5  -1   1   55.27    0.95
   6  -1   1   88.28    1.35
   7  -1   1   20.53    0.70
   8  -1   1   67.48    1.14
   9  -1   1    1.80    0.06
  -1 -12   2    0.31    0.04
   0 -12   2    3.24    0.14
   3 -11   2    3.13    0.13
   2 -11   2    3.89    0.16
   1 -11   2   22.37    0.58
   0 -11   2    1.13    0.06
  -1 -11   2    0.65    0.05
  -2 -11   2    0.08    0.15
  -3 -11   2    9.32    0.37
  -4 -11   2    9.17    0.34
  -6 -10   2    0.00    0.10
  -5 -10   2    3.50    0.14
  -4 -10   2    5.56    0.24
  -3 -10   2   15.12    0.56
  -2 -10   2   94.29    1.41
  -1 -10   2    9.47    0.38
   0 -10   2   14.39    0.57
   1 -10   2   33.01    0.82
   2 -10   2   59.78    1.05
   3 -10   2   15.93    0.51
   4 -10   2    0.29    0.04
   5  -9   2    0.20    0.14
   4  -9   2   34.89    0.77
   3  -9   2   14.33    0.55
   2  -9   2    0.02    0.19
   1  -9   2    2.36    0.10
   0  -9   2    0.97    0.07
  -1  -9   2    3.96    0.16
  -2  -9   2    0.36    0.22
  -3  -9   2   17.64    0.67
  -4  -9   2   27.93    0.80
  -5  -9   2    1.30    0.07
  -6  -9   2    3.67    0.16
  -7  -9   2   20.06    0.44
  -7  -8   2    2.70    0.11
  -6  -8   2   18.11    0.60
  -5  -8   2   15.28    0.60
  -4  -8   2    4.16    0.16
  -3  -8   2   26.06    0.79
  -2  -8   2  116.18    1.64
  -1  -8   2   43.48    0.99
   0  -8   2   48.27    1.04
   1  -8   2   66.03    1.22
   2  -8   2   75.07    1.31
   3  -8   2   12.63    0.50
   4  -8   2    0.50    0.18
   5  -8   2    3.82    0.17
   6  -8   2   14.50    0.41
   7  -7   2   16.26    0.40
   6  -7   2    2.03    0.07
   5  -7   2    1.10    0.07
   4  -7   2   10.21    0.39
   3  -7   2    0.23    0.20
   2  -7   2   17.50    0.62
   1  -7   2   31.67    0.81
   0  -7   2    0.61    0.06
  -1  -7   2   29.68    0.76
  -2  -7   2    0.00    0.19
  -3  -7   2    1.56    0.08
  -4  -7   2   21.40    0.71
  -5  -7   2    0.15    0.19
  -6  -7   2   12.10    0.51
  -7  -7   2   15.22    0.53
  -8  -7   2    6.42    0.27
  -8  -6   2    4.69    0.19
  -7  -6   2    7.08    0.29
  -6  -6   2   47.55    1.03
  -5  -6   2   33.22    0.86
  -4  -6   2    0.38    0.06
  -3  -6   2    3.51    0.13
  -2  -6   2   36.23    0.79
  -1  -6   2   40.59    0.81
   0  -6   2   35.70    0.76
   1  -6   2   26.90    0.68
   2  -6   2   50.41    0.97
   3  -6   2    3.91    0.17
   4  -6   2    0.00    0.17
   5  -6   2    1.45    0.08
   6  -6   2   60.36    1.06
   7  -6   2    1.39    0.07
   7  -5   2   16.39    0.53
   6  -5   2   15.16    0.58
   5  -5   2   31.50    0.85
   4  -5   2   21.67    0.69
   3  -5   2    0.00    0.17
   2  -5   2   71.29    1.06
   1  -5   2   53.60    0.86
   0  -5   2    9.89    0.38
  -1  -5   2  177.71    1.50
  -2  -5   2   47.95    0.81
  -3  -5   2   25.90    0.62
  -4  -5   2   11.82    0.47
  -5  -5   2   97.67    1.39
  -6  -5   2   16.71    0.64
  -7  -5   2   38.86    0.93
  -8  -5   2   17.75    0.58
  -9  -5   2    8.27    0.32
  -9  -4   2   12.46    0.43
  -8  -4   2    9.76    0.40
  -7  -4   2   10.39    0.45
  -6  -4   2   50.76    1.04
  -5  -4   2    1.55    0.07
  -4  -4   2   94.43    1.18
  -3  -4   2   18.75    0.49
  -2  -4   2   76.77    0.90
  -1  -4   2   37.71    0.63
   0  -4   2   12.24    0.37
   1  -4   2   72.05    0.90
   2  -4   2  109.17    1.20
   3  -4   2    7.39    0.29
   4  -4   2   19.35    0.64
   5  -4   2    6.80    0.28
   6  -4   2   63.49    1.19
   7  -4   2    7.41    0.28
   8  -4   2    0.11    0.12
   8  -3   2    7.19    0.27
   7  -3   2    0.02    0.18
   6  -3   2    1.81    0.08
   5  -3   2   87.46    1.36
   4  -3   2    3.27    0.13
   3  -3   2  113.00    1.26
   2  -3   2    5.93    0.23
   1  -3   2   47.67    0.67
   0  -3   2    1.07    0.05
  -1  -3   2   23.94    0.45
  -2  -3   2   37.71    0.58
  -3  -3   2  116.47    1.09
  -4  -3   2    3.30    0.15
  -5  -3   2   59.64    0.98
  -6  -3   2   21.73    0.66
  -7  -3   2    8.66    0.35
  -8  -3   2   17.09    0.62
  -9  -3   2   13.70    0.49
 -10  -2   2    0.32    0.04
  -9  -2   2    0.74    0.06
  -8  -2   2    5.57    0.20
  -7  -2   2   10.98    0.43
  -6  -2   2  191.68    1.89
  -5  -2   2   31.65    0.69
  -4  -2   2  197.43    1.49
  -3  -2   2  153.46    1.16
  -2  -2   2   89.31    0.81
  -1  -2   2   15.94    0.34
   0  -2   2 1294.32    8.43
   1  -2   2   48.47    0.63
   2  -2   2    1.62    0.06
   3  -2   2   19.29    0.50
   4  -2   2   18.07    0.56
   5  -2   2    1.80    0.08
   6  -2   2   37.93    0.94
   7  -2   2    6.18    0.25
   8  -2   2   11.39    0.42
   8  -1   2   10.79    0.42
   7  -1   2   15.47    0.58
   6  -1   2    5.39    0.18
   5  -1   2   13.70    0.51
   4  -1   2   25.23    0.65
   3  -1   2   40.74    0.71
   2  -1   2  105.09    0.98
   1  -1   2  195.32    1.16
   0  -1   2  168.60    0.99
  -1  -1   2   20.09    0.36
  -2  -1   2   10.28    0.28
  -3  -1   2    0.91    0.05
  -4  -1   2    8.58    0.32
  -5  -1   2   16.67    0.49
  -6  -1   2    3.72    0.14
  -7  -1   2    8.93    0.37
  -8  -1   2   17.57    0.64
  -9  -1   2    0.98    0.06
 -10  -1   2   10.07    0.34
 -10   0   2    0.88    0.05
  -9   0   2    4.45    0.18
  -8   0   2   74.23    1.29
  -7   0   2    6.63    0.27
  -6   0   2    4.71    0.19
  -5   0   2  159.06    1.47
  -4   0   2  152.14    1.25
  -3   0   2   99.98    0.88
  -2   0   2  190.28    1.07
  -1   0   2  950.41    6.39
   0   0   2 2644.71   10.88
   1   0   2  131.45    0.94
   2   0   2    1.48    0.09
   3   0   2    4.93    0.20
   4   0   2  262.52    2.01
   5   0   2    5.07    0.19
   6   0   2   54.33    1.11
   7   0   2   11.82    0.47
   8   0   2    2.24    0.08
  -3 -11   3    1.57    0.06
  -2 -11   3    0.33    0.14
  -1 -11   3    0.38    0.05
   0 -11   3    1.79    0.06
   1 -11   3    1.95    0.07
   3 -10   3   36.26    0.64
   2 -10   3   17.79    0.52
   1 -10   3   37.21    0.80
   0 -10   3   15.83    0.56
  -1 -10   3   70.14    1.16
  -2 -10   3   10.02    0.42
  -3 -10   3   21.49    0.62
  -4 -10   3    1.93    0.09
  -5 -10   3    0.31    0.04
  -6  -9   3   14.76    0.46
  -5  -9   3   54.35    0.97
  -4  -9   3   14.42    0.57
  -3  -9   3    0.26    0.16
  -2  -9   3   17.05    0.63
  -1  -9   3   27.67    0.80
   0  -9   3    2.28    0.09
   1  -9   3    0.29    0.15
   2  -9   3   28.76    0.76
   3  -9   3    1.62    0.07
   4  -9   3   21.93    0.52
   5  -8   3    6.58    0.25
   4  -8   3    0.83    0.06
   3  -8   3   11.06    0.45
   2  -8   3   10.76    0.44
   1  -8   3    2.31    0.09
   0  -8   3   74.00    1.32
  -1  -8   3    6.71    0.27
  -2  -8   3    7.76    0.28
  -3  -8   3   12.88    0.51
  -4  -8   3    0.52    0.19
  -5  -8   3   44.83    0.98
  -6  -8   3    8.20    0.36
  -7  -8   3    0.00    0.15
  -8  -7   3    2.15    0.09
  -7  -7   3    5.32    0.22
  -6  -7   3   23.39    0.71
  -5  -7   3    5.28    0.21
  -4  -7   3   14.51    0.55
  -3  -7   3   27.19    0.79
  -2  -7   3   66.87    1.22
  -1  -7   3    1.13    0.08
   0  -7   3    0.13    0.18
   1  -7   3    0.07    0.19
   2  -7   3   51.79    1.08
   3  -7   3    0.28    0.22
   4  -7   3    4.96    0.21
   5  -7   3    9.55    0.38
   6  -7   3    2.27    0.09
   6  -6   3   12.66    0.43
   5  -6   3   70.64    1.17
   4  -6   3    6.68    0.26
   3  -6   3   10.40    0.42
   2  -6   3   36.58    0.90
   1  -6   3  138.57    1.66
   0  -6   3   11.28    0.47
  -1  -6   3  149.51    1.68
  -2  -6   3   17.13    0.61
  -3  -6   3    0.19    0.16
  -4  -6   3    5.36    0.22
  -5  -6   3   71.39    1.27
  -6  -6   3   77.64    1.32
  -7  -6   3    4.73    0.20
  -8  -6   3    0.14    0.04
  -9  -5   3    0.10    0.13
  -8  -5   3   55.69    0.99
  -7  -5   3   66.75    1.20
  -6  -5   3   93.06    1.46
  -5  -5   3    1.83    0.08
  -4  -5   3   21.86    0.66
  -3  -5   3   18.96    0.59
  -2  -5   3  140.44    1.50
  -1  -5   3    0.00    0.15
   0  -5   3    0.92    0.06
   1  -5   3   45.42    0.90
   2  -5   3    2.97    0.12
   3  -5   3   13.59    0.56
   4  -5   3    5.80    0.23
   5  -5   3   24.95    0.74
   6  -5   3    9.82    0.39
   7  -5   3   30.91    0.56
   7  -4   3   18.14    0.49
   6  -4   3   25.11    0.70
   5  -4   3   19.22    0.68
   4  -4   3   13.00    0.54
   3  -4   3   18.89    0.64
   2  -4   3   93.25    1.28
   1  -4   3    1.92    0.08
   0  -4   3   42.67    0.78
  -1  -4   3    0.52    0.05
  -2  -4   3   60.61    0.92
  -3  -4   3   41.64    0.79
  -4  -4   3    2.08    0.08
  -5  -4   3    5.43    0.21
  -6  -4   3    8.90    0.35
  -7  -4   3   48.32    1.05
  -8  -4   3    1.65    0.07
  -9  -4   3    0.00    0.14
  -9  -3   3    1.54    0.07
  -8  -3   3    9.36    0.38
  -7  -3   3   23.03    0.73
  -6  -3   3    1.10    0.07
  -5  -3   3    6.16    0.26
  -4  -3   3   52.78    0.89
  -3  -3   3   67.22    0.94
  -2  -3   3   22.85    0.53
  -1  -3   3   15.39    0.44
   0  -3   3    0.79    0.06
   1  -3   3   17.84    0.50
   2  -3   3   13.33    0.48
   3  -3   3   34.81    0.81
   4  -3   3   11.23    0.41
   5  -3   3    2.74    0.10
   6  -3   3    1.90    0.09
   7  -3   3    4.06    0.18
   7  -2   3   18.76    0.56
   6  -2   3    0.72    0.07
   5  -2   3    4.85    0.20
   4  -2   3    4.11    0.16
   3  -2   3   49.14    0.93
   2  -2   3   29.63    0.66
   1  -2   3    0.30    0.16
   0  -2   3  175.11    1.34
  -1  -2   3   10.65    0.35
  -2  -2   3   45.22    0.69
  -3  -2   3  145.33    1.29
  -4  -2   3    4.41    0.16
  -5  -2   3   51.43    0.93
  -6  -2   3    2.25    0.08
  -7  -2   3   90.08    1.42
  -8  -2   3   54.84    1.10
  -9  -2   3    0.99    0.06
 -10  -2   3    2.97    0.12
 -10  -1   3    0.23    0.13
  -9  -1   3    2.78    0.10
  -8  -1   3   83.75    1.36
  -7  -1   3    1.36    0.08
  -6  -1   3  132.24    1.60
  -5  -1   3  152.09    1.55
  -4  -1   3   22.73    0.55
  -3  -1   3    5.92    0.22
  -2  -1   3  270.18    1.58
  -1  -1   3   83.83    0.87
   0  -1   3   85.03    0.91
   1  -1   3   16.50    0.45
   2  -1   3  123.20    1.28
   3  -1   3    1.14    0.06
   4  -1   3   69.29    1.18
   5  -1   3   16.57    0.63
   6  -1   3   46.27    1.02
   7  -1   3   14.88    0.51
  -4 -10   4    0.23    0.13
  -3 -10   4   26.38    0.60
  -2 -10   4   39.97    0.78
  -1 -10   4    6.29    0.25
   0 -10   4   10.43    0.39
   1 -10   4   25.77    0.56
   3  -9   4    0.30    0.13
   2  -9   4    6.24    0.25
   1  -9   4    8.40    0.35
   0  -9   4    0.23    0.19
  -1  -9   4    0.65    0.06
  -2  -9   4    7.15    0.29
  -3  -9   4   20.39    0.63
  -4  -9   4   23.81    0.65
  -5  -9   4    0.24    0.14
  -6  -9   4    4.23    0.18
  -7  -8   4    8.17    0.31
  -6  -8   4    4.78    0.19
  -5  -8   4    5.27    0.23
  -4  -8   4    0.32    0.06
  -3  -8   4   13.22    0.54
  -2  -8   4   85.88    1.42
  -1  -8   4   13.65    0.54
   0  -8   4   15.89    0.59
   1  -8   4   36.59    0.88
   2  -8   4   29.49    0.75
   3  -8   4    6.96    0.28
   4  -8   4    0.27    0.13
   5  -7   4    1.01    0.05
   4  -7   4    4.47    0.18
   3  -7   4    0.03    0.18
   2  -7   4   19.89    0.67
   1  -7   4   15.47    0.62
   0  -7   4    1.52    0.08
  -1  -7   4   12.82    0.51
  -2  -7   4    0.95    0.07
  -3  -7   4    1.55    0.08
  -4  -7   4   15.85    0.63
  -5  -7   4    0.45    0.20
  -6  -7   4    9.76    0.42
  -7  -7   4    9.91    0.39
  -8  -6   4    7.32    0.31
  -7  -6   4   15.40    0.53
  -6  -6   4    9.57    0.36
  -5  -6   4   25.20    0.77
  -4  -6   4    4.96    0.21
  -3  -6   4    6.51    0.24
  -2  -6   4    0.52    0.20
  -1  -6   4   11.57    0.46
   0  -6   4    9.32    0.38
   1  -6   4    9.36    0.39
   2  -6   4   24.04    0.76
   3  -6   4    1.52    0.08
   4  -6   4    0.79    0.06
   5  -6   4    0.71    0.05
   6  -5   4    3.49    0.14
   5  -5   4   19.74    0.57
   4  -5   4    3.24    0.12
   3  -5   4    3.76    0.14
   2  -5   4    8.70    0.34
   1  -5   4   42.68    0.97
   0  -5   4    0.25    0.21
  -1  -5   4   30.44    0.79
  -2  -5   4   52.20    1.03
  -3  -5   4   10.46    0.43
  -4  -5   4    9.09    0.35
  -5  -5   4   58.29    1.15
  -6  -5   4   13.63    0.56
  -7  -5   4   34.72    0.83
  -8  -5   4    9.56    0.40
  -9  -5   4   10.24    0.32
  -9  -4   4    3.31    0.11
  -8  -4   4    0.22    0.16
  -7  -4   4    5.06    0.21
  -6  -4   4   64.86    1.21
  -5  -4   4   21.87    0.71
  -4  -4   4    5.61    0.20
  -3  -4   4    0.70    0.07
  -2  -4   4   63.07    1.06
  -1  -4   4   32.22    0.77
   0  -4   4    0.70    0.07
   1  -4   4   32.70    0.82
   2  -4   4   26.55    0.78
   3  -4   4    0.63    0.07
   4  -4   4   14.09    0.58
   5  -4   4    0.34    0.15
   6  -4   4   11.59    0.40
   6  -3   4    3.10    0.12
   5  -3   4   16.28    0.59
   4  -3   4   11.70    0.48
   3  -3   4    2.87    0.12
   2  -3   4   14.62    0.58
   1  -3   4    4.45    0.19
   0  -3   4   78.53    1.15
  -1  -3   4    9.66    0.36
  -2  -3   4    4.05    0.13
  -3  -3   4  144.36    1.55
  -4  -3   4   11.62    0.46
  -5  -3   4   30.98    0.81
  -6  -3   4   20.18    0.68
  -7  -3   4    7.25    0.28
  -8  -3   4    3.04    0.11
  -9  -3   4    1.58    0.08
  -9  -2   4   14.10    0.48
  -8  -2   4   39.47    0.90
  -7  -2   4   13.94    0.56
  -6  -2   4   30.16    0.83
  -5  -2   4   11.60    0.45
  -4  -2   4    5.88    0.22
  -3  -2   4    1.57    0.07
  -2  -2   4    1.98    0.07
  -1  -2   4   35.12    0.73
   0  -2   4  307.40    2.15
   1  -2   4   17.72    0.59
   2  -2   4    2.88    0.10
   3  -2   4   16.73    0.64
   4  -2   4   17.30    0.65
   5  -2   4   14.25    0.57
   6  -2   4   39.58    0.80
   7  -1   4    3.92    0.18
   6  -1   4    0.37    0.16
   5  -1   4    1.60    0.08
   4  -1   4    0.00    0.20
   3  -1   4    5.05    0.19
   2  -1   4    2.28    0.09
   1  -1   4   12.10    0.47
   0  -1   4    4.24    0.17
  -1  -1   4  183.74    1.58
  -2  -1   4   36.93    0.72
  -3  -1   4   23.89    0.60
  -4  -1   4    0.46    0.18
  -5  -1   4   20.40    0.63
  -6  -1   4    0.90    0.07
  -7  -1   4    0.20    0.19
  -8  -1   4   24.71    0.73
  -9  -1   4    1.75    0.07
  -9   0   4   22.98    0.61
  -8   0   4   29.28    0.80
  -7   0   4    6.33    0.24
  -6   0   4   48.94    1.02
  -5   0   4    6.15    0.24
  -4   0   4  213.08    1.84
  -3   0   4   13.15    0.45
  -2   0   4    0.77    0.06
  -1   0   4  180.49    1.54
   0   0   4 1224.97   11.89
   1   0   4    7.50    0.30
   2   0   4    1.43    0.08
   3   0   4   17.59    0.63
   4   0   4   26.57    0.79
   5   0   4   18.41    0.64
   6   0   4    4.12    0.18
   7   0   4    0.25    0.12
  -4  -9   5   20.05    0.49
  -3  -9   5    1.09    0.06
  -2  -9   5    0.99    0.06
  -1  -9   5   12.73    0.42
   0  -9   5    1.84    0.09
   1  -9   5    4.23    0.19
   2  -8   5   23.17    0.53
   1  -8   5    3.27    0.15
   0  -8   5    4.22    0.18
  -1  -8   5   40.08    0.86
  -2  -8   5   20.79    0.63
  -3  -8   5    0.51    0.06
  -4  -8   5    3.33    0.14
  -5  -8   5   50.57    0.83
  -6  -8   5    5.81    0.25
  -7  -7   5    0.58    0.04
  -6  -7   5   53.17    0.87
  -5  -7   5    3.53    0.15
  -4  -7   5    0.28    0.20
  -3  -7   5    3.77    0.15
  -2  -7   5   52.39    1.07
  -1  -7   5    4.12    0.18
   0  -7   5    0.06    0.16
   1  -7   5    0.17    0.16
   2  -7   5   31.73    0.72
   3  -7   5    4.60    0.17
   4  -6   5    0.27    0.14
   3  -6   5    0.34    0.15
   2  -6   5    0.12    0.19
   1  -6   5    6.14    0.22
   0  -6   5   11.03    0.40
  -1  -6   5    5.35    0.21
  -2  -6   5    4.29    0.18
  -3  -6   5   25.65    0.77
  -4  -6   5    5.33    0.23
  -5  -6   5    8.56    0.33
  -6  -6   5   72.65    1.14
  -7  -6   5    3.74    0.16
  -8  -5   5    6.11    0.27
  -7  -5   5    5.82    0.23
  -6  -5   5   19.35    0.64
  -5  -5   5    8.74    0.39
  -4  -5   5    0.27    0.21
  -3  -5   5    2.88    0.12
  -2  -5   5   38.16    0.94
   2  -5   5    3.85    0.14
   3  -5   5    0.08    0.17
   4  -5   5    1.24    0.06
   5  -4   5   19.17    0.46
   4  -4   5    1.82    0.08
   3  -4   5   23.78    0.70
   1  -4   5   21.92    0.72
   0  -4   5    0.87    0.09
  -1  -4   5   11.59    0.51
  -2  -4   5    1.59    0.09
  -3  -4   5   47.94    1.05
  -4  -4   5    8.74    0.32
  -5  -4   5    6.86    0.29
  -6  -4   5    0.21    0.19
  -7  -4   5   30.96    0.76
  -8  -4   5    3.40    0.14
  -9  -3   5    0.00    0.12
  -8  -3   5   20.10    0.58
  -7  -3   5   38.14    0.89
  -6  -3   5    6.01    0.26
  -5  -3   5   34.60    0.89
  -4  -3   5    4.74    0.19
  -3  -3   5   37.88    0.91
  -2  -3   5   15.87    0.61
  -1  -3   5   20.36    0.69
   0  -3   5    0.67    0.09
   1  -3   5    4.11    0.18
   2  -3   5   14.03    0.54
   3  -3   5   22.34    0.73
   4  -3   5    0.00    0.18
   5  -3   5    0.06    0.13
   5  -2   5    0.94    0.06
   4  -2   5    0.16    0.19
   2  -2   5    0.34    0.22
   1  -2   5    5.34    0.25
   0  -2   5   12.06    0.48
  -1  -2   5   22.77    0.70
  -2  -2   5    0.00    0.23
  -3  -2   5   12.63    0.49
  -4  -2   5   19.43    0.66
  -5  -2   5   39.80    0.95
  -6  -2   5    3.33    0.13
  -7  -2   5   51.94    1.06
  -8  -2   5   47.99    0.91
  -9  -2   5    0.20    0.12
  -9  -1   5    0.19    0.14
  -8  -1   5   31.47    0.77
  -7  -1   5    0.83    0.07
  -6  -1   5   39.11    0.95
  -5  -1   5   49.60    1.05
  -4  -1   5   11.26    0.48
  -3  -1   5    3.56    0.13
  -2  -1   5   58.90    1.06
  -1  -1   5   15.56    0.59
   0  -1   5   50.58    1.02
   1  -1   5    0.40    0.25
   2  -1   5   20.01    0.71
   4  -1   5   41.45    0.92
   5  -1   5    0.45    0.16
  -4  -8   6    0.14    0.11
  -3  -8   6    7.62    0.30
  -2  -8   6   39.64    0.68
  -1  -8   6    2.75    0.11
   1  -7   6    6.33    0.24
   0  -7   6    0.78    0.06
  -1  -7   6    2.90    0.12
  -2  -7   6    1.26    0.07
  -3  -7   6    0.73    0.06
  -4  -7   6    8.52    0.32
  -5  -7   6    0.40    0.15
  -6  -6   6    1.26    0.06
  -5  -6   6   20.36    0.57
  -4  -6   6    2.15    0.08
  -3  -6   6    0.70    0.07
  -2  -6   6    1.63    0.08
   2  -6   6    4.56    0.20
   3  -5   6    0.22    0.13
  -3  -5   6   16.51    0.61
  -4  -5   6    0.09    0.18
  -5  -5   6   36.98    0.82
  -6  -5   6    3.86    0.15
  -7  -5   6   25.90    0.55
  -7  -4   6   24.23    0.58
  -6  -4   6    8.71    0.32
  -5  -4   6    2.75    0.10
  -4  -4   6    3.63    0.16
  -1  -4   6    6.64    0.24
   0  -4   6    4.24    0.16
   4  -3   6    5.26    0.21
   1  -3   6    3.06    0.14
   0  -3   6    6.34    0.28
  -1  -3   6    6.76    0.27
  -2  -3   6    7.00    0.29
  -4  -3   6    2.81    0.10
  -5  -3   6    0.21    0.18
  -6  -3   6   26.84    0.74
  -7  -3   6    1.48    0.07
  -8  -3   6    0.10    0.13
  -8  -2   6    6.85    0.26
  -7  -2   6    1.55    0.07
  -6  -2   6   38.23    0.89
  -5  -2   6    0.22    0.22
  -4  -2   6   11.30    0.45
  -3  -2   6    0.40    0.26
  -2  -2   6    0.72    0.28
  -1  -2   6   35.93    0.93
   0  -2   6   33.62    0.89
   1  -2   6    0.29    0.25
   4  -2   6    1.05    0.05
   4  -1   6    1.57    0.08
   1  -1   6    0.25    0.27
   0  -1   6   13.49    0.58
  -1  -1   6    6.41    0.26
  -2  -1   6    6.74    0.24
  -3  -1   6    7.09    0.30
  -4  -1   6   17.15    0.66
  -5  -1   6    1.28    0.08
  -6  -1   6    5.47    0.21
  -7  -1   6    6.23    0.25
  -8  -1   6   16.46    0.48
  -8   0   6   69.36    0.97
  -7   0   6    3.10    0.14
  -6   0   6    1.60    0.08
  -5   0   6   22.73    0.73
  -4   0   6   19.72    0.69
  -3   0   6    0.80    0.08
  -2   0   6    0.67    0.24
  -1   0   6   38.02    0.95
   0   0   6  354.97    2.84
   1   0   6    7.15    0.30
   4   0   6   23.38    0.54
  -3  -6   7    0.03    0.14
  -4  -6   7    1.40    0.06
  -5  -5   7    0.14    0.14
  -4  -5   7    0.41    0.15
  -4  -4   7    0.51    0.18
  -5  -4   7    3.06    0.11
  -6  -4   7    3.71    0.15
  -6  -3   7    0.48    0.17
  -5  -3   7   12.90    0.46
   0  -2   7    5.24    0.23
  -5  -2   7    3.34    0.14
  -6  -2   7    0.16    0.16
  -7  -2   7   32.35    0.58
  -7  -1   7    0.19    0.14
  -6  -1   7   12.07    0.44
  -5  -1   7   17.26    0.57
  -1  -1   7    0.40    0.24
   0  -1   7   14.81    0.54
   2   4   5    5.37    0.21
   3   1   5    0.40    0.24
  -1   6   6    2.65    0.10
   0   6   6    0.92    0.06
   1   6   6    1.56    0.07
   2   5   6    6.99    0.29
   1   5   6    3.96    0.16
   0   5   6    2.85    0.12
  -1   5   6   18.24    0.64
  -2   5   6    4.93    0.18
  -3   4   6    5.12    0.21
  -2   4   6    9.65    0.37
   1   4   6   19.99    0.65
   2   4   6   15.67    0.53
   3   4   6    3.65    0.15
   3   3   6    2.90    0.11
   2   3   6    0.04    0.20
  -3   3   6   11.95    0.43
   2   2   6    4.77    0.20
   3   2   6    0.86    0.06
   4   2   6    1.12    0.05
   3   1   6    0.23    0.18
  -1   6   7    9.65    0.32
  -2   6   7    1.92    0.07
  -3   5   7    8.41    0.34
  -2   5   7    3.93    0.15
  -1   5   7    0.00    0.14
   0   5   7    3.43    0.14
   1   4   7    2.24    0.08
   0   4   7    0.92    0.06
  -1   4   7    0.48    0.05
  -4   3   7    1.74    0.08
  -3   3   7   10.23    0.42
  -2   3   7    9.91    0.41
  -1   3   7   20.93    0.62
  -3   2   7   10.95    0.44
  -4   2   7    1.07    0.07
  -4   1   7    3.81    0.16
  -4   1   8    0.14    0.13
   0   0   0    0.00    0.00
;
_shelx_hkl_checksum              92975
loop_
_space_group_symop_operation_xyz
'x, y, z'
'-x, y+1/2, -z+1/2'
'-x, -y, -z'
'x, -y-1/2, z-1/2'
loop_
_atom_site_label
_atom_site_type_symbol
_atom_site_fract_x
_atom_site_fract_y
_atom_site_fract_z
_atom_site_U_iso_or_equiv
_atom_site_adp_type
_atom_site_occupancy
_atom_site_site_symmetry_order
_atom_site_calc_flag
_atom_site_refinement_flags_posn
_atom_site_refinement_flags_adp
_atom_site_refinement_flags_occupancy
_atom_site_disorder_assembly
_atom_site_disorder_group
O1 O 0.02731(12) 0.51861(10) 0.23099(17) 0.0247(3) Uani 1 1 d . . . . .
O2 O 0.22566(13) 0.37831(10) 0.24394(19) 0.0304(3) Uani 1 1 d . . . . .
N1 N 0.51867(15) 0.45459(13) 0.2538(2) 0.0203(3) Uani 1 1 d . . . . .
HN H 0.492(2) 0.379(2) 0.260(3) 0.033(5) Uiso 1 1 d . . . . .
C C 0.43284(17) 0.56781(13) 0.2356(2) 0.0187(3) Uani 1 1 d . . . . .
N2 N 0.67732(15) 0.48234(12) 0.2604(2) 0.0234(3) Uani 1 1 d . . . . .
N3 N 0.53658(15) 0.66559(12) 0.2306(2) 0.0222(3) Uani 1 1 d . . . . .
N4 N 0.68561(15) 0.60861(12) 0.2458(2) 0.0228(3) Uani 1 1 d . . . . .
N5 N 0.27048(14) 0.59490(11) 0.2251(2) 0.0221(3) Uani 1 1 d . . . . .
N6 N 0.17458(14) 0.49437(11) 0.23354(18) 0.0191(3) Uani 1 1 d . . . . .
Li Li 0.0874(3) 0.2915(3) 0.7396(4) 0.0282(6) Uani 1 1 d . . . . .
OW O -0.03441(13) 0.28580(11) 0.43380(17) 0.0240(3) Uani 1 1 d . . . . .
HW1 H -0.124(3) 0.238(2) 0.407(3) 0.044(6) Uiso 1 1 d . . . . .
HW2 H -0.064(3) 0.360(3) 0.391(4) 0.056(7) Uiso 1 1 d . . . . .
loop_
_atom_site_aniso_label
_atom_site_aniso_U_11
_atom_site_aniso_U_22
_atom_site_aniso_U_33
_atom_site_aniso_U_23
_atom_site_aniso_U_13
_atom_site_aniso_U_12
O1 0.0168(5) 0.0227(6) 0.0370(6) 0.0008(4) 0.0116(4) 0.0014(4)
O2 0.0243(5) 0.0149(5) 0.0552(8) 0.0005(5) 0.0166(5) 0.0021(4)
N1 0.0166(6) 0.0164(6) 0.0289(7) 0.0006(5) 0.0083(5) -0.0003(4)
C 0.0196(7) 0.0177(7) 0.0184(7) -0.0004(5) 0.0050(5) 0.0000(5)
N2 0.0164(6) 0.0230(7) 0.0309(7) 0.0010(5) 0.0068(5) -0.0002(5)
N3 0.0186(6) 0.0189(6) 0.0297(7) 0.0002(5) 0.0079(5) -0.0001(5)
N4 0.0180(6) 0.0204(6) 0.0300(7) 0.0000(5) 0.0070(5) -0.0012(5)
N5 0.0179(6) 0.0161(6) 0.0328(7) 0.0016(5) 0.0079(5) 0.0002(4)
N6 0.0170(6) 0.0180(6) 0.0229(6) -0.0006(4) 0.0063(5) 0.0004(4)
Li 0.0241(12) 0.0296(13) 0.0326(14) 0.0014(10) 0.0109(10) -0.0025(10)
OW 0.0249(6) 0.0181(5) 0.0289(6) -0.0013(4) 0.0077(4) -0.0017(4)
loop_
_atom_type_symbol
_atom_type_description
_atom_type_scat_dispersion_real
_atom_type_scat_dispersion_imag
_atom_type_scat_source
C C 0.0181 0.0091 'International Tables Vol C Tables 4.2.6.8 and 6.1.1.4'
O O 0.0492 0.0322 'International Tables Vol C Tables 4.2.6.8 and 6.1.1.4'
Li Li 0.0008 0.0003 'International Tables Vol C Tables 4.2.6.8 and 6.1.1.4'
N N 0.0311 0.0180 'International Tables Vol C Tables 4.2.6.8 and 6.1.1.4'
H H 0.0000 0.0000 'International Tables Vol C Tables 4.2.6.8 and 6.1.1.4'
loop_
_geom_angle_atom_site_label_1
_geom_angle_atom_site_label_2
_geom_angle_atom_site_label_3
_geom_angle
_geom_angle_site_symmetry_1
_geom_angle_site_symmetry_3
N6 O1 Li 128.84(11) . 3_566
N6 O2 Li 127.22(11) . 4_565
C N1 N2 108.65(12) . .
C N1 HN 132.2(14) . .
N2 N1 HN 119.1(14) . .
N3 C N1 107.94(12) . .
N3 C N5 119.66(12) . .
N1 C N5 132.39(13) . .
N4 N2 N1 106.26(11) . .
C N3 N4 105.82(12) . .
N2 N4 N3 111.33(11) . .
N2 N4 Li 122.48(12) . 3_666
N3 N4 Li 126.12(12) . 3_666
N6 N5 C 116.84(11) . .
O2 N6 O1 120.40(11) . .
O2 N6 N5 122.35(11) . .
O1 N6 N5 117.24(11) . .
OW Li OW 115.92(13) . 4_566
OW Li O2 96.28(12) . 4_566
OW Li O2 92.78(12) 4_566 4_566
OW Li N4 104.34(12) . 3_666
OW Li N4 139.67(14) 4_566 3_666
O2 Li N4 84.85(10) 4_566 3_666
OW Li O1 90.46(11) . 3_566
OW Li O1 88.39(11) 4_566 3_566
O2 Li O1 171.84(14) 4_566 3_566
N4 Li O1 89.03(11) 3_666 3_566
OW Li Li 146.98(10) . 4_566
OW Li Li 31.14(8) 4_566 4_566
O2 Li Li 86.37(12) 4_566 4_566
N4 Li Li 108.68(8) 3_666 4_566
O1 Li Li 90.49(10) 3_566 4_566
OW Li Li 31.49(7) . 4_565
OW Li Li 131.65(14) 4_566 4_565
O2 Li Li 69.76(11) 4_566 4_565
N4 Li Li 85.07(8) 3_666 4_565
O1 Li Li 115.14(11) 3_566 4_565
Li Li Li 151.55(17) 4_566 4_565
Li OW Li 117.37(13) . 4_565
Li OW HW1 112.6(14) . .
Li OW HW1 102.3(14) 4_565 .
Li OW HW2 110.2(18) . .
Li OW HW2 106.8(17) 4_565 .
HW1 OW HW2 107(2) . .
loop_
_geom_bond_atom_site_label_1
_geom_bond_atom_site_label_2
_geom_bond_distance
_geom_bond_site_symmetry_2
O1 N6 1.2538(15) .
O1 Li 2.194(3) 3_566
O2 N6 1.2525(16) .
O2 Li 2.078(3) 4_565
N1 C 1.3462(18) .
N1 N2 1.3473(17) .
N1 HN 0.81(2) .
C N3 1.3289(18) .
C N5 1.3701(18) .
N2 N4 1.2934(18) .
N3 N4 1.3542(17) .
N4 Li 2.135(3) 3_666
N5 N6 1.3129(17) .
Li OW 2.004(3) .
Li OW 2.024(3) 4_566
Li O2 2.078(3) 4_566
Li N4 2.135(3) 3_666
Li O1 2.194(3) 3_566
Li Li 3.4410(13) 4_566
Li Li 3.4410(13) 4_565
OW Li 2.024(3) 4_565
OW HW1 0.87(2) .
OW HW2 0.82(3) .

_cod_database_fobs_code 1529385
