#------------------------------------------------------------------------------
#$Date: 2015-12-09 13:12:36 +0200 (Wed, 09 Dec 2015) $
#$Revision: 170938 $
#$URL: svn://www.crystallography.net/cod/cif/1/52/93/1529301.cif $
#------------------------------------------------------------------------------
#
# This file is available in the Crystallography Open Database (COD),
# http://www.crystallography.net/
#
# All data on this site have been placed in the public domain by the
# contributors.
#
data_1529301
loop_
_publ_author_name
'Weiss, Ryan J.'
'Gordts, Philip L. S. M.'
'Le, Dzung'
'Xu, Ding'
'Esko, Jeffrey D.'
'Tor, Yitzhak'
_publ_section_title
;
 Small molecule antagonists of cell-surface heparan sulfate and
 heparin--protein interactions
;
_journal_issue                   10
_journal_name_full               'Chem. Sci.'
_journal_page_first              5984
_journal_paper_doi               10.1039/C5SC01208B
_journal_volume                  6
_journal_year                    2015
_chemical_formula_moiety         'C11 H10 N3 O, 2(C H4 O)'
_chemical_formula_sum            'C13 H18 N3 O3'
_chemical_formula_weight         264.30
_chemical_name_systematic
;
 ?
;
_space_group_crystal_system      triclinic
_space_group_IT_number           2
_space_group_name_Hall           '-P 1'
_space_group_name_H-M_alt        'P -1'
_symmetry_space_group_name_Hall  '-P 1'
_symmetry_space_group_name_H-M   'P -1'
_atom_sites_solution_hydrogens   mixed
_atom_sites_solution_primary     direct
_atom_sites_solution_secondary   difmap
_audit_creation_date             2014-07-02
_audit_creation_method
;
Olex2 1.2-beta
(compiled 2014.06.27 svn.r2953 for OlexSys, GUI svn.r4855)
;
_audit_update_record
;
2015-04-01 deposited with the CCDC.
2015-07-22 downloaded from the CCDC.
;
_cell_angle_alpha                102.993(5)
_cell_angle_beta                 91.548(6)
_cell_angle_gamma                92.630(6)
_cell_formula_units_Z            2
_cell_length_a                   6.2877(7)
_cell_length_b                   8.8655(9)
_cell_length_c                   12.0399(13)
_cell_measurement_reflns_used    8811
_cell_measurement_temperature    100
_cell_measurement_theta_max      69.439
_cell_measurement_theta_min      3.771
_cell_volume                     652.79(12)
_computing_cell_refinement       'SAINT v8.34A (Bruker, 2013)'
_computing_data_collection       'APEX2 v2013.6-2 (Bruker, 2013)'
_computing_data_reduction        'SAINT v8.34A (Bruker, 2013)'
_computing_molecular_graphics    'Olex2 (Dolomanov et al., 2009)'
_computing_publication_material  'Olex2 (Dolomanov et al., 2009)'
_computing_structure_refinement  'ShelXL (Sheldrick, 2008)'
_computing_structure_solution    'ShelXT (Sheldrick, 2008)'
_diffrn_ambient_temperature      100.0
_diffrn_detector                 'Bruker APEX-II CCD'
_diffrn_detector_area_resol_mean 7.9
_diffrn_detector_type            'CCD Area Detector'
_diffrn_measured_fraction_theta_full 0.983
_diffrn_measured_fraction_theta_max 0.959
_diffrn_measurement_device       'Kappa Four-Circle Diffractometer'
_diffrn_measurement_device_type  'Bruker X8 APEX II'
_diffrn_measurement_method       '\w and \f scans'
_diffrn_radiation_monochromator  'Double Bounce Multilayer Mirrors'
_diffrn_radiation_probe          x-ray
_diffrn_radiation_type           CuK\a
_diffrn_radiation_wavelength     1.54178
_diffrn_reflns_av_R_equivalents  0.0331
_diffrn_reflns_av_unetI/netI     0.0188
_diffrn_reflns_laue_measured_fraction_full 0.983
_diffrn_reflns_laue_measured_fraction_max 0.959
_diffrn_reflns_limit_h_max       7
_diffrn_reflns_limit_h_min       -7
_diffrn_reflns_limit_k_max       10
_diffrn_reflns_limit_k_min       -10
_diffrn_reflns_limit_l_max       14
_diffrn_reflns_limit_l_min       -12
_diffrn_reflns_number            20226
_diffrn_reflns_point_group_measured_fraction_full 0.983
_diffrn_reflns_point_group_measured_fraction_max 0.959
_diffrn_reflns_theta_full        68.000
_diffrn_reflns_theta_max         69.433
_diffrn_reflns_theta_min         3.770
_diffrn_source                   'Micro Focus Rotating Anode'
_diffrn_source_type              'Bruker FR-591'
_diffrn_standards_number         0
_exptl_absorpt_coefficient_mu    0.800
_exptl_absorpt_correction_T_max  0.7532
_exptl_absorpt_correction_T_min  0.6330
_exptl_absorpt_correction_type   multi-scan
_exptl_absorpt_process_details
;
SADABS-2014/2 (Bruker,2014) was used for absorption correction.
wR2(int) was 0.1543 before and 0.1014 after correction.
The Ratio of minimum to maximum transmission is 0.8404.
The \l/2 correction factor is 0.00150.
;
_exptl_crystal_colour            'Light Yellow'
_exptl_crystal_colour_modifier   light
_exptl_crystal_colour_primary    yellow
_exptl_crystal_density_diffrn    1.345
_exptl_crystal_description       Needle
_exptl_crystal_F_000             282
_exptl_crystal_size_max          0.317
_exptl_crystal_size_mid          0.031
_exptl_crystal_size_min          0.015
_refine_diff_density_max         0.283
_refine_diff_density_min         -0.214
_refine_diff_density_rms         0.050
_refine_ls_extinction_method     none
_refine_ls_goodness_of_fit_ref   1.059
_refine_ls_hydrogen_treatment    mixed
_refine_ls_matrix_type           full
_refine_ls_number_parameters     195
_refine_ls_number_reflns         2357
_refine_ls_number_restraints     5
_refine_ls_restrained_S_all      1.059
_refine_ls_R_factor_all          0.0490
_refine_ls_R_factor_gt           0.0427
_refine_ls_shift/su_max          0.000
_refine_ls_shift/su_mean         0.000
_refine_ls_structure_factor_coef Fsqd
_refine_ls_weighting_details
'w=1/[\s^2^(Fo^2^)+(0.0735P)^2^+0.1982P] where P=(Fo^2^+2Fc^2^)/3'
_refine_ls_weighting_scheme      calc
_refine_ls_wR_factor_gt          0.1156
_refine_ls_wR_factor_ref         0.1203
_reflns_Friedel_coverage         0.000
_reflns_number_gt                2050
_reflns_number_total             2357
_reflns_threshold_expression     'I > 2\s(I)'
_cod_data_source_file            c5sc01208b2.cif
_cod_data_source_block           Tor88
_cod_depositor_comments
;
The following automatic conversions were performed:

'_diffrn_radiation_probe' value 'X-ray' changed to 'x-ray' according
to
/usr/data/users/saulius/crontab/automatic-downloads/rss-feeds/RSC/lib/dictionaries/cif_core.dic
dictionary named 'cif_core.dic' version 2.4.2 from 2011-04-26.

'_exptl_crystal_colour_modifier' value 'Light' changed to 'light'
according to
/usr/data/users/saulius/crontab/automatic-downloads/rss-feeds/RSC/lib/dictionaries/cif_core.dic
dictionary named 'cif_core.dic' version 2.4.2 from 2011-04-26.

'_exptl_crystal_colour_primary' value 'Yellow' changed to 'yellow'
according to
/usr/data/users/saulius/crontab/automatic-downloads/rss-feeds/RSC/lib/dictionaries/cif_core.dic
dictionary named 'cif_core.dic' version 2.4.2 from 2011-04-26.

Automatic conversion script
Id: cif_fix_values 3271 2015-04-21 07:52:19Z andrius 

 Adding full bibliography for 1529300--1529303.cif.
;
_cod_database_code               1529301
_shelxl_version_number           2014-3
_shelx_space_group_comment
;
The symmetry employed for this shelxl refinement is uniquely defined
by the following loop, which should always be used as a source of
symmetry information in preference to the above space-group names.
They are only intended as comments.
;
_shelx_estimated_absorpt_t_max   0.988
_shelx_estimated_absorpt_t_min   0.786
_olex2_refinement_description
;
1. Fixed Uiso
 At 1.2 times of:
  All C(H) groups
 At 1.5 times of:
  All C(H,H,H) groups
2. Restrained distances
 O1S-H1S = O2S-H2S = N3-H3B = N3-H3A = N1-H1
 0.9 with sigma of 0.02
3.a Aromatic/amide H refined with riding coordinates:
 C3(H3), C4(H4), C7(H7), C9(H9)
3.b Idealised Me refined as rotating group:
 C2S(H2SA,H2SB,H2SC), C11(H11A,H11B,H11C), C1S(H1SA,H1SB,H1SC)
;
_shelx_res_file
;
TITL Tor88 in P-1 #2
CELL 1.54178 6.2877 8.8655 12.0399 102.993 91.548 92.63
ZERR 2 0.0007 0.0009 0.0013 0.0054 0.0058 0.0055
LATT 1

SFAC C H N O
UNIT 26 36 6 6
EQIV $1 +X,-1+Y,+Z
EQIV $2 -1+X,-1+Y,+Z
DFIX 0.9 O1S H1S O2S H2S N3 H3b N3 H3a N1 H1

L.S. 10
PLAN  20
SIZE 0.317 0.031 0.015
TEMP -173.15
HTAB O2S N2
HTAB N3 O2S_$1
HTAB O1S O2S_$2
HTAB N3 O1S
ACTA 136
REM Solution 1 R1 0.118 Rweak 0.004, Alpha = 0.0354 in P-1
BOND $H
fmap 2 53
REM <HKL>D:/frames/guest/Tor88/Tor88.hkl</HKL>

WGHT    0.073500    0.198200
FVAR       0.17836
O1    4    0.100285    0.693100    0.526001    11.00000    0.02711    0.02219 =
         0.03526    0.01045   -0.00425   -0.00416
N1    3    0.233986    0.481360    0.579573    11.00000    0.02175    0.01883 =
         0.02626    0.00638    0.00005   -0.00244
H1    2    0.204259    0.382740    0.574801    11.00000    0.01761
N2    3    1.003603    0.690988    0.820947    11.00000    0.02067    0.01960 =
         0.02272    0.00701    0.00148   -0.00298
N3    3    0.808607    0.218011    0.764924    11.00000    0.02610    0.01839 =
         0.03691    0.01052   -0.00473   -0.00258
H3A   2    0.686011    0.177767    0.727756    11.00000    0.03811
H3B   2    0.898014    0.155448    0.786269    11.00000    0.03282
C1    1    0.093111    0.556453    0.529001    11.00000    0.02119    0.02310 =
         0.02001    0.00666    0.00378    0.00040
C2    1    0.427811    0.537316    0.639566    11.00000    0.02206    0.02133 =
         0.02170    0.00594    0.00423   -0.00182
C2S   1    1.241037    1.059028    0.934843    11.00000    0.04839    0.02699 =
         0.04153    0.00850   -0.01267   -0.00727
AFIX 137
H2SA  2    1.393573    1.061081    0.920171    11.00000   -1.50000
H2SB  2    1.211988    0.994645    0.989624    11.00000   -1.50000
H2SC  2    1.198921    1.164748    0.966252    11.00000   -1.50000
AFIX   0
C3    1    0.503121    0.694410    0.658067    11.00000    0.02390    0.02052 =
         0.02531    0.00841    0.00267    0.00128
AFIX  43
H3    2    0.423215    0.766979    0.629672    11.00000   -1.20000
AFIX   0
C4    1    0.692175    0.740068    0.717284    11.00000    0.02639    0.01657 =
         0.02623    0.00678    0.00331   -0.00278
AFIX  43
H4    2    0.742177    0.845476    0.729492    11.00000   -1.20000
AFIX   0
C5    1    0.816261    0.635795    0.761120    11.00000    0.02141    0.02179 =
         0.02059    0.00643    0.00481   -0.00106
C6    1    0.740209    0.478081    0.740955    11.00000    0.02234    0.02051 =
         0.02119    0.00539    0.00524   -0.00268
C7    1    0.544333    0.432753    0.680613    11.00000    0.02299    0.01795 =
         0.02446    0.00654    0.00378   -0.00250
AFIX  43
H7    2    0.491665    0.327894    0.668017    11.00000   -1.20000
AFIX   0
C8    1    0.868884    0.371146    0.782704    11.00000    0.02472    0.02131 =
         0.02282    0.00729    0.00608   -0.00105
C9    1    1.055223    0.431163    0.842101    11.00000    0.02620    0.02171 =
         0.02672    0.01006    0.00291    0.00036
AFIX  43
H9    2    1.144417    0.364171    0.871108    11.00000   -1.20000
AFIX   0
C10   1    1.116138    0.589591    0.860682    11.00000    0.02257    0.02414 =
         0.02049    0.00745    0.00374   -0.00134
C11   1    1.316246    0.651331    0.929472    11.00000    0.02565    0.02619 =
         0.02840    0.00888   -0.00127   -0.00224
AFIX 137
H11A  2    1.392764    0.725242    0.893357    11.00000   -1.50000
H11B  2    1.406850    0.565452    0.933278    11.00000   -1.50000
H11C  2    1.279998    0.703678    1.006770    11.00000   -1.50000
AFIX   0

O1S   4    0.387127    0.065912    0.666207    11.00000    0.03067    0.02614 =
         0.03659    0.01251    0.00048   -0.00766
H1S   2    0.300890    0.035321    0.714411    11.00000    0.06217
C1S   1    0.263636    0.061914    0.565281    11.00000    0.03895    0.02380 =
         0.04228    0.01149   -0.00476   -0.00647
AFIX 137
H1SA  2    0.346239    0.111940    0.514375    11.00000   -1.50000
H1SB  2    0.133400    0.117082    0.584779    11.00000   -1.50000
H1SC  2    0.225861   -0.046045    0.526889    11.00000   -1.50000
AFIX   0

O2S   4    1.123188    0.996185    0.831262    11.00000    0.02950    0.02080 =
         0.03430    0.01073   -0.00439   -0.00489
H2S   2    1.096287    0.896246    0.825379    11.00000    0.06247
HKLF 4

REM  Tor88 in P-1 #2
REM R1 =  0.0427 for    2050 Fo > 4sig(Fo)  and  0.0490 for all    2357 data
REM    195 parameters refined using      5 restraints

END

WGHT      0.0735      0.1982

REM Highest difference peak  0.283,  deepest hole -0.214,  1-sigma level  0.050
Q1    1   0.7557  0.5583  0.7505  11.00000  0.05    0.28
Q2    1   1.0768  1.1374  0.8380  11.00000  0.05    0.28
Q3    1   1.0772  0.5155  0.8589  11.00000  0.05    0.26
Q4    1   1.3096  1.1473  0.9321  11.00000  0.05    0.25
Q5    1   0.6839  0.4561  0.7082  11.00000  0.05    0.23
Q6    1   1.0501  0.7583  0.8279  11.00000  0.05    0.21
Q7    1   0.7856  0.4361  0.7651  11.00000  0.05    0.21
Q8    1   0.9414  0.4249  0.8307  11.00000  0.05    0.19
Q9    1   0.4367  0.6179  0.6625  11.00000  0.05    0.18
Q10   1   0.4636  0.2912  0.6744  11.00000  0.05    0.18
Q11   1   0.4837  0.5966  0.6269  11.00000  0.05    0.18
Q12   1   0.4558  0.5003  0.6935  11.00000  0.05    0.18
Q13   1   1.3337  0.6231  0.9944  11.00000  0.05    0.17
Q14   1   0.7418  0.7010  0.7721  11.00000  0.05    0.17
Q15   1   0.1318  0.5379  0.5971  11.00000  0.05    0.17
Q16   1   0.3549  0.9054  0.6457  11.00000  0.05    0.17
Q17   1   1.0988  0.6174  0.8141  11.00000  0.05    0.17
Q18   1   1.1060  1.1392  0.9956  11.00000  0.05    0.16
Q19   1   1.2032  0.6169  0.9016  11.00000  0.05    0.16
Q20   1   0.0000  0.5000  0.5000  10.50000  0.05    0.15
;
_shelx_res_checksum              36550
_olex2_submission_special_instructions 'No special instructions were received'
loop_
_space_group_symop_operation_xyz
'x, y, z'
'-x, -y, -z'
loop_
_atom_site_label
_atom_site_type_symbol
_atom_site_fract_x
_atom_site_fract_y
_atom_site_fract_z
_atom_site_U_iso_or_equiv
_atom_site_adp_type
_atom_site_occupancy
_atom_site_site_symmetry_order
_atom_site_calc_flag
_atom_site_refinement_flags_posn
O1 O 0.10028(17) 0.69310(12) 0.52600(9) 0.0278(3) Uani 1 1 d .
N1 N 0.2340(2) 0.48136(15) 0.57957(11) 0.0222(3) Uani 1 1 d D
H1 H 0.204(3) 0.3827(17) 0.5748(14) 0.018(4) Uiso 1 1 d D
N2 N 1.00360(19) 0.69099(14) 0.82095(10) 0.0208(3) Uani 1 1 d .
N3 N 0.8086(2) 0.21801(15) 0.76492(12) 0.0267(3) Uani 1 1 d D
H3A H 0.686(3) 0.178(2) 0.7278(16) 0.038(5) Uiso 1 1 d D
H3B H 0.898(3) 0.155(2) 0.7863(16) 0.033(5) Uiso 1 1 d D
C1 C 0.0931(2) 0.55645(17) 0.52900(12) 0.0211(3) Uani 1 1 d .
C2 C 0.4278(2) 0.53732(17) 0.63957(12) 0.0216(3) Uani 1 1 d .
C2S C 1.2410(3) 1.0590(2) 0.93484(16) 0.0394(5) Uani 1 1 d .
H2SA H 1.3936 1.0611 0.9202 0.059 Uiso 1 1 calc GR
H2SB H 1.2120 0.9946 0.9896 0.059 Uiso 1 1 calc GR
H2SC H 1.1989 1.1647 0.9663 0.059 Uiso 1 1 calc GR
C3 C 0.5031(2) 0.69441(17) 0.65807(13) 0.0227(3) Uani 1 1 d .
H3 H 0.4232 0.7670 0.6297 0.027 Uiso 1 1 calc R
C4 C 0.6922(2) 0.74007(17) 0.71728(13) 0.0228(3) Uani 1 1 d .
H4 H 0.7422 0.8455 0.7295 0.027 Uiso 1 1 calc R
C5 C 0.8163(2) 0.63579(17) 0.76112(12) 0.0210(3) Uani 1 1 d .
C6 C 0.7402(2) 0.47808(17) 0.74096(12) 0.0213(3) Uani 1 1 d .
C7 C 0.5443(2) 0.43275(17) 0.68061(13) 0.0216(3) Uani 1 1 d .
H7 H 0.4917 0.3279 0.6680 0.026 Uiso 1 1 calc R
C8 C 0.8689(2) 0.37115(17) 0.78270(13) 0.0226(3) Uani 1 1 d .
C9 C 1.0552(2) 0.43116(17) 0.84210(13) 0.0241(3) Uani 1 1 d .
H9 H 1.1444 0.3642 0.8711 0.029 Uiso 1 1 calc R
C10 C 1.1161(2) 0.58959(17) 0.86068(13) 0.0220(3) Uani 1 1 d .
C11 C 1.3162(3) 0.65133(18) 0.92947(14) 0.0265(4) Uani 1 1 d .
H11A H 1.3928 0.7252 0.8934 0.040 Uiso 1 1 calc GR
H11B H 1.4068 0.5655 0.9333 0.040 Uiso 1 1 calc GR
H11C H 1.2800 0.7037 1.0068 0.040 Uiso 1 1 calc GR
O1S O 0.38713(19) 0.06591(13) 0.66621(10) 0.0306(3) Uani 1 1 d D
H1S H 0.301(4) 0.035(3) 0.7144(18) 0.062(7) Uiso 1 1 d D
C1S C 0.2636(3) 0.06191(19) 0.56528(15) 0.0348(4) Uani 1 1 d .
H1SA H 0.3462 0.1119 0.5144 0.052 Uiso 1 1 calc GR
H1SB H 0.1334 0.1171 0.5848 0.052 Uiso 1 1 calc GR
H1SC H 0.2259 -0.0460 0.5269 0.052 Uiso 1 1 calc GR
O2S O 1.12319(18) 0.99618(12) 0.83126(10) 0.0278(3) Uani 1 1 d D
H2S H 1.096(4) 0.896(2) 0.825(2) 0.062(7) Uiso 1 1 d D
loop_
_atom_site_aniso_label
_atom_site_aniso_U_11
_atom_site_aniso_U_22
_atom_site_aniso_U_33
_atom_site_aniso_U_23
_atom_site_aniso_U_13
_atom_site_aniso_U_12
O1 0.0271(6) 0.0222(6) 0.0353(6) 0.0104(5) -0.0042(5) -0.0042(4)
N1 0.0218(7) 0.0188(6) 0.0263(7) 0.0064(5) 0.0001(5) -0.0024(5)
N2 0.0207(6) 0.0196(6) 0.0227(7) 0.0070(5) 0.0015(5) -0.0030(5)
N3 0.0261(7) 0.0184(6) 0.0369(8) 0.0105(6) -0.0047(6) -0.0026(5)
C1 0.0212(8) 0.0231(7) 0.0200(7) 0.0067(6) 0.0038(6) 0.0004(6)
C2 0.0221(7) 0.0213(7) 0.0217(8) 0.0059(6) 0.0042(6) -0.0018(6)
C2S 0.0484(11) 0.0270(9) 0.0415(11) 0.0085(7) -0.0127(8) -0.0073(8)
C3 0.0239(8) 0.0205(7) 0.0253(8) 0.0084(6) 0.0027(6) 0.0013(6)
C4 0.0264(8) 0.0166(7) 0.0262(8) 0.0068(6) 0.0033(6) -0.0028(6)
C5 0.0214(7) 0.0218(7) 0.0206(7) 0.0064(6) 0.0048(6) -0.0011(6)
C6 0.0223(8) 0.0205(7) 0.0212(8) 0.0054(6) 0.0052(6) -0.0027(6)
C7 0.0230(8) 0.0180(7) 0.0245(8) 0.0065(6) 0.0038(6) -0.0025(6)
C8 0.0247(8) 0.0213(7) 0.0228(8) 0.0073(6) 0.0061(6) -0.0011(6)
C9 0.0262(8) 0.0217(8) 0.0267(8) 0.0101(6) 0.0029(6) 0.0004(6)
C10 0.0226(8) 0.0241(8) 0.0205(7) 0.0075(6) 0.0037(6) -0.0013(6)
C11 0.0257(8) 0.0262(8) 0.0284(8) 0.0089(6) -0.0013(6) -0.0022(6)
O1S 0.0307(6) 0.0261(6) 0.0366(7) 0.0125(5) 0.0005(5) -0.0077(5)
C1S 0.0390(10) 0.0238(8) 0.0423(10) 0.0115(7) -0.0048(8) -0.0065(7)
O2S 0.0295(6) 0.0208(5) 0.0343(6) 0.0107(4) -0.0044(5) -0.0049(4)
loop_
_atom_type_symbol
_atom_type_description
_atom_type_scat_dispersion_real
_atom_type_scat_dispersion_imag
_atom_type_scat_source
C C 0.0181 0.0091 'International Tables Vol C Tables 4.2.6.8 and 6.1.1.4'
H H 0.0000 0.0000 'International Tables Vol C Tables 4.2.6.8 and 6.1.1.4'
N N 0.0311 0.0180 'International Tables Vol C Tables 4.2.6.8 and 6.1.1.4'
O O 0.0492 0.0322 'International Tables Vol C Tables 4.2.6.8 and 6.1.1.4'
loop_
_geom_angle_atom_site_label_1
_geom_angle_atom_site_label_2
_geom_angle_atom_site_label_3
_geom_angle
_geom_angle_site_symmetry_3
C1 N1 H1 116.6(11) .
C1 N1 C2 129.64(13) .
C2 N1 H1 113.7(11) .
C10 N2 C5 117.16(12) .
H3A N3 H3B 119.1(19) .
C8 N3 H3A 122.5(14) .
C8 N3 H3B 118.3(13) .
O1 C1 N1 127.96(14) .
O1 C1 C1 121.71(17) 2_566
N1 C1 C1 110.33(15) 2_566
N1 C2 C3 122.46(14) .
C7 C2 N1 117.33(13) .
C7 C2 C3 120.20(14) .
H2SA C2S H2SB 109.5 .
H2SA C2S H2SC 109.5 .
H2SB C2S H2SC 109.5 .
O2S C2S H2SA 109.5 .
O2S C2S H2SB 109.5 .
O2S C2S H2SC 109.5 .
C2 C3 H3 120.5 .
C4 C3 C2 119.09(14) .
C4 C3 H3 120.5 .
C3 C4 H4 118.8 .
C3 C4 C5 122.31(13) .
C5 C4 H4 118.8 .
N2 C5 C4 118.85(13) .
N2 C5 C6 123.05(14) .
C4 C5 C6 118.10(14) .
C5 C6 C8 118.18(14) .
C7 C6 C5 119.04(14) .
C7 C6 C8 122.78(13) .
C2 C7 C6 121.25(13) .
C2 C7 H7 119.4 .
C6 C7 H7 119.4 .
N3 C8 C6 121.57(14) .
N3 C8 C9 121.54(14) .
C9 C8 C6 116.88(13) .
C8 C9 H9 119.4 .
C8 C9 C10 121.29(14) .
C10 C9 H9 119.4 .
N2 C10 C9 123.40(14) .
N2 C10 C11 116.99(13) .
C9 C10 C11 119.60(14) .
C10 C11 H11A 109.5 .
C10 C11 H11B 109.5 .
C10 C11 H11C 109.5 .
H11A C11 H11B 109.5 .
H11A C11 H11C 109.5 .
H11B C11 H11C 109.5 .
C1S O1S H1S 106.7(16) .
O1S C1S H1SA 109.5 .
O1S C1S H1SB 109.5 .
O1S C1S H1SC 109.5 .
H1SA C1S H1SB 109.5 .
H1SA C1S H1SC 109.5 .
H1SB C1S H1SC 109.5 .
C2S O2S H2S 109.1(16) .
loop_
_geom_bond_atom_site_label_1
_geom_bond_atom_site_label_2
_geom_bond_distance
_geom_bond_site_symmetry_2
O1 C1 1.2189(18) .
N1 H1 0.874(14) .
N1 C1 1.344(2) .
N1 C2 1.410(2) .
N2 C5 1.3743(19) .
N2 C10 1.331(2) .
N3 H3A 0.898(15) .
N3 H3B 0.880(15) .
N3 C8 1.3603(19) .
C1 C1 1.547(3) 2_566
C2 C3 1.417(2) .
C2 C7 1.374(2) .
C2S H2SA 0.9800 .
C2S H2SB 0.9800 .
C2S H2SC 0.9800 .
C2S O2S 1.419(2) .
C3 H3 0.9500 .
C3 C4 1.366(2) .
C4 H4 0.9500 .
C4 C5 1.416(2) .
C5 C6 1.422(2) .
C6 C7 1.408(2) .
C6 C8 1.438(2) .
C7 H7 0.9500 .
C8 C9 1.376(2) .
C9 H9 0.9500 .
C9 C10 1.405(2) .
C10 C11 1.498(2) .
C11 H11A 0.9800 .
C11 H11B 0.9800 .
C11 H11C 0.9800 .
O1S H1S 0.882(17) .
O1S C1S 1.417(2) .
C1S H1SA 0.9800 .
C1S H1SB 0.9800 .
C1S H1SC 0.9800 .
O2S H2S 0.881(17) .
loop_
_geom_hbond_atom_site_label_D
_geom_hbond_atom_site_label_H
_geom_hbond_atom_site_label_A
_geom_hbond_distance_DH
_geom_hbond_distance_HA
_geom_hbond_distance_DA
_geom_hbond_angle_DHA
_geom_hbond_site_symmetry_A
N3 H3A O1S 0.898(15) 2.118(16) 3.0059(18) 169.6(19) .
N3 H3B O2S 0.880(15) 2.186(16) 3.0653(18) 177.4(18) 1_545
O1S H1S O2S 0.882(17) 1.902(17) 2.7788(16) 172(2) 1_445
O2S H2S N2 0.881(17) 1.874(17) 2.7493(16) 172(2) .
