#------------------------------------------------------------------------------
#$Date: 2016-02-13 21:28:24 +0200 (Sat, 13 Feb 2016) $
#$Revision: 176429 $
#$URL: svn://www.crystallography.net/cod/cif/1/53/34/1533436.cif $
#------------------------------------------------------------------------------
#
# This file is available in the Crystallography Open Database (COD),
# http://www.crystallography.net/
#
# All data on this site have been placed in the public domain by the
# contributors.
#
data_1533436
loop_
_publ_author_name
'Goubard, F.'
'Tabuteau, A.'
_publ_section_title
;
 Synthesis, spectroscopic, thermal and structural characterization of
 complex ferrocyanides K Ln Fe(II) (C N)6 * 3.5(H2 O) (Ln = Gd - Ho)
;
_journal_name_full               'Structural Chemistry'
_journal_page_first              257
_journal_page_last               262
_journal_volume                  14
_journal_year                    2003
_chemical_formula_sum            'C6 H6.984 Dy Fe K N6 O3.492'
_chemical_name_systematic        'K Dy (Fe (C N)6) (H2 O)3.492'
_space_group_IT_number           63
_symmetry_space_group_name_Hall  '-C 2c 2'
_symmetry_space_group_name_H-M   'C m c m'
_cell_angle_alpha                90
_cell_angle_beta                 90
_cell_angle_gamma                90
_cell_formula_units_Z            4
_cell_length_a                   7.2583
_cell_length_b                   12.5089
_cell_length_c                   13.5474
_cell_volume                     1230.014
_citation_journal_id_ASTM        STCHES
_cod_data_source_file            Goubard_STCHES_2003_1038.cif
_cod_data_source_block           C6H6.984Dy1Fe1K1N6O3.492
_cod_original_formula_sum        'C6 H6.984 Dy1 Fe1 K1 N6 O3.492'
_cod_database_code               1533436
loop_
_symmetry_equiv_pos_as_xyz
x,y,z
-x,-y,z+1/2
x,-y,-z
-x,y,-z+1/2
-x,-y,-z
x,y,-z-1/2
-x,y,z
x,-y,z-1/2
x+1/2,y+1/2,z
-x+1/2,-y+1/2,z+1/2
x+1/2,-y+1/2,-z
-x+1/2,y+1/2,-z+1/2
-x+1/2,-y+1/2,-z
x+1/2,y+1/2,-z-1/2
-x+1/2,y+1/2,z
x+1/2,-y+1/2,z-1/2
loop_
_atom_site_label
_atom_site_type_symbol
_atom_site_fract_x
_atom_site_fract_y
_atom_site_fract_z
_atom_site_occupancy
_atom_site_U_iso_or_equiv
K1 K+1 0 0.658 0.084 0.5 0.0
Fe1 Fe+2 0 0 0 1 0.0
Dy1 Dy+3 0 0.341 0.25 1 0.0
C2 C+2 0 0.12 0.087 1 0.0
N1 N-3 0.205 0.397 0.126 1 0.0
O2 O-2 0.316 0.273 0.25 1 0.0
O3 O-2 0 0.542 0.25 0.492 0.0
C1 C+2 0.313 0.436 0.079 1 0.0
O1 O-2 0 0.677 0.092 0.5 0.0
N2 N-3 0 0.191 0.143 1 0.0
