#------------------------------------------------------------------------------
#$Date: 2016-03-05 10:40:05 +0200 (Sat, 05 Mar 2016) $
#$Revision: 177713 $
#$URL: svn://www.crystallography.net/cod/cif/1/54/06/1540686.cif $
#------------------------------------------------------------------------------
#
# This file is available in the Crystallography Open Database (COD),
# http://www.crystallography.net/
#
# All data on this site have been placed in the public domain by the
# contributors.
#
data_1540686
loop_
_publ_author_name
'Vallejo, Julia'
'Fortea-P\'erez, Francisco R.'
'Pardo, Emilio'
'Benmansour, Samia'
'Castro, Isabel'
'Krzystek, J.'
'Armentano, Donatella'
'Cano, Joan'
_publ_section_title
;
 Guest-dependent single-ion magnet behaviour in a cobalt(ii)
 metal--organic framework
;
_journal_issue                   3
_journal_name_full               'Chem. Sci.'
_journal_page_first              2286
_journal_paper_doi               10.1039/C5SC04461H
_journal_volume                  7
_journal_year                    2016
_chemical_formula_sum            'C74 H64 Co N14 S2'
_chemical_formula_weight         1272.44
_chemical_name_systematic
;
 ?
;
_space_group_crystal_system      triclinic
_space_group_IT_number           2
_space_group_name_Hall           '-P 1'
_space_group_name_H-M_alt        'P -1'
_symmetry_space_group_name_Hall  '-P 1'
_symmetry_space_group_name_H-M   'P -1'
_atom_sites_solution_hydrogens   geom
_audit_creation_method           SHELXL-2013
_audit_update_record
;
2015-07-30 deposited with the CCDC.
2015-12-10 downloaded from the CCDC.
;
_cell_angle_alpha                94.50(2)
_cell_angle_beta                 94.78(2)
_cell_angle_gamma                111.12(2)
_cell_formula_units_Z            1
_cell_length_a                   11.653(4)
_cell_length_b                   13.567(6)
_cell_length_c                   13.662(6)
_cell_measurement_reflns_used    2749
_cell_measurement_temperature    100(2)
_cell_measurement_theta_max      19.14
_cell_measurement_theta_min      2.33
_cell_volume                     1994.1(15)
_computing_cell_refinement       'Bruker SAINT'
_computing_data_collection       'Bruker APEX2'
_computing_data_reduction        'Bruker SAINT'
_computing_molecular_graphics    CrystalMaker
_computing_publication_material  'Bruker SHELXTL'
_computing_structure_refinement  'SHELXL-2013 (Sheldrick, 2013)'
_computing_structure_solution    'SHELXS-97 (Sheldrick, 2008)'
_diffrn_ambient_temperature      100(2)
_diffrn_measured_fraction_theta_full 0.563
_diffrn_measured_fraction_theta_max 0.966
_diffrn_measurement_device_type  'Bruker APEX-II CCD'
_diffrn_measurement_method       '\w scans'
_diffrn_radiation_source         'fine-focus sealed tube'
_diffrn_radiation_type           MoK\a
_diffrn_radiation_wavelength     0.71073
_diffrn_reflns_av_R_equivalents  0.0883
_diffrn_reflns_av_unetI/netI     0.1435
_diffrn_reflns_laue_measured_fraction_full 0.563
_diffrn_reflns_laue_measured_fraction_max 0.966
_diffrn_reflns_limit_h_max       11
_diffrn_reflns_limit_h_min       -11
_diffrn_reflns_limit_k_max       13
_diffrn_reflns_limit_k_min       -13
_diffrn_reflns_limit_l_max       13
_diffrn_reflns_limit_l_min       -13
_diffrn_reflns_number            11175
_diffrn_reflns_point_group_measured_fraction_full 0.563
_diffrn_reflns_point_group_measured_fraction_max 0.966
_diffrn_reflns_theta_full        25.242
_diffrn_reflns_theta_max         20.846
_diffrn_reflns_theta_min         1.620
_exptl_absorpt_coefficient_mu    0.313
_exptl_absorpt_correction_T_max  0.823
_exptl_absorpt_correction_T_min  0.789
_exptl_absorpt_correction_type   multi-scan
_exptl_absorpt_process_details   sadabs
_exptl_crystal_colour            ORANGE/BROWN
_exptl_crystal_density_diffrn    1.060
_exptl_crystal_description       CUBIC
_exptl_crystal_F_000             665
_exptl_crystal_preparation       'Magnetic properties'
_exptl_crystal_recrystallization_method
'SC to SC after immersing crystals in a solution of pyrrole'
_exptl_crystal_size_max          0.16
_exptl_crystal_size_mid          0.14
_exptl_crystal_size_min          0.10
_platon_squeeze_details
;
;
_refine_diff_density_max         2.124
_refine_diff_density_min         -0.775
_refine_diff_density_rms         0.166
_refine_ls_extinction_method     none
_refine_ls_goodness_of_fit_ref   1.884
_refine_ls_hydrogen_treatment    constr
_refine_ls_matrix_type           full
_refine_ls_number_parameters     143
_refine_ls_number_reflns         4058
_refine_ls_number_restraints     9
_refine_ls_restrained_S_all      1.886
_refine_ls_R_factor_all          0.2098
_refine_ls_R_factor_gt           0.1702
_refine_ls_shift/su_max          4.237
_refine_ls_shift/su_mean         0.030
_refine_ls_structure_factor_coef Fsqd
_refine_ls_weighting_details
'w=1/[\s^2^(Fo^2^)+(0.1000P)^2^] where P=(Fo^2^+2Fc^2^)/3'
_refine_ls_weighting_scheme      calc
_refine_ls_wR_factor_gt          0.3830
_refine_ls_wR_factor_ref         0.4078
_reflns_Friedel_coverage         0.000
_reflns_number_gt                2223
_reflns_number_total             4058
_reflns_threshold_expression     'I > 2\s(I)'
_cod_data_source_file            c5sc04461h2.cif
_cod_data_source_block           1@PYR_SQ
_cod_depositor_comments
;
The following automatic conversions were performed:

'_exptl_absorpt_correction_type' value 'MULTI-SCAN' changed to
'multi-scan' according to
/usr/data/users/saulius/crontab/automatic-downloads/rss-feeds/RSC/lib/dictionaries/cif_core.dic
dictionary named 'cif_core.dic' version 2.4.2 from 2011-04-26.

Automatic conversion script
Id: cif_fix_values 4268 2015-11-12 08:31:59Z antanas 

 Adding full bibliography for 1540680--1540686.cif.
;
_cod_original_cell_volume        1994.0(14)
_cod_database_code               1540686
_shelx_space_group_comment
;
The symmetry employed for this shelxl refinement is uniquely defined
by the following loop, which should always be used as a source of
symmetry information in preference to the above space-group names.
They are only intended as comments.
;
_shelxl_version_number           2013-4
_shelx_res_file
;
TITL    Sir2014_pyrrole 18/02/2015
CELL   0.71073    11.6530  13.5670  13.6620  94.5040  94.7770 111.1250
ZERR         1     0.0040   0.0060   0.0060   0.0200   0.0200   0.0200
LATT 1
SFAC C  H  N  S  Co
UNIT 74  64  14  2  1
L.S. 50
ACTA
FMAP 2
PLAN 25
DFIX 1.35 0.02 C9 C10  C9 C11
DFIX 1.45 0.02 C4 C7
DFIX 1.45 0.02 C8 C9
DFIX 1.06 0.02 C7 C8
FLAT 0.1 C17 C18 C19 C20 C21
FLAT 0.1 C4 C7 C8 C9
FLAT 0.1 C8 C9 C10 C11
TEMP -173
WGHT    0.100000
FVAR       0.99566
CO1   5    0.500000    0.500000    0.500000    10.50000    0.02391    0.03200 =
         0.03039    0.00160    0.01002    0.00026
N1    3    0.614514    0.593451    0.618734    11.00000    0.03667    0.05122 =
         0.04240    0.01333    0.02001    0.02016
C1    1    0.693519    0.657176    0.676243    11.00000    0.06089
S1    4    0.792212    0.751972    0.754293    11.00000    0.14043    0.20507 =
         0.05459   -0.04530    0.01866   -0.14132
AFIX  66
N2    3    0.617928    0.599408    0.397218    11.00000    0.01270    0.03877 =
         0.03651    0.00297   -0.00414    0.00100
C2    1    0.604434    0.563256    0.297304    11.00000    0.04995    0.03904 =
         0.03435   -0.01131   -0.00646   -0.00769
AFIX  43
H2A   2    0.547476    0.493862    0.272718    11.00000   -1.20000
AFIX  65
C3    1    0.674279    0.628636    0.233363    11.00000    0.06892
AFIX  43
H3A   2    0.665056    0.603928    0.165077    11.00000   -1.20000
AFIX  65
C4    1    0.757618    0.730170    0.269336    11.00000    0.07042
C5    1    0.771114    0.766323    0.369249    11.00000    0.10656    0.10457 =
         0.00977   -0.00594    0.01019   -0.08413
AFIX  43
H5A   2    0.828072    0.835716    0.393834    11.00000   -1.20000
AFIX  65
C6    1    0.701270    0.700943    0.433191    11.00000    0.09024    0.14828 =
         0.05124   -0.01868   -0.02191   -0.07078
AFIX  43
H6A   2    0.710493    0.725652    0.501478    11.00000   -1.20000
AFIX   0
C7    1    0.832175    0.797157    0.199661    11.00000    0.10614    0.13404 =
         0.05025   -0.02262    0.04407   -0.08679
C8    1    0.880144    0.855613    0.149276    11.00000    0.07876    0.18715 =
         0.09406   -0.03929    0.02294   -0.10467
C9    1    0.949608    0.921041    0.079076    11.00000    0.33338    0.34671 =
         0.05154   -0.07913    0.07762   -0.31794
C10   1    1.068868    0.994382    0.108877    11.00000    0.19963
AFIX  43
H10   2    1.123673    0.993923    0.164206    11.00000   -1.20000
AFIX   0
C11   1    0.900927    0.906862   -0.018710    11.00000    0.27974
AFIX  43
H11   2    0.844414    0.837237   -0.043081    11.00000   -1.20000
AFIX  66
N3    3    0.607622    0.394926    0.500198    11.00000   -0.00100
C12   1    0.623736    0.345757    0.412058    11.00000    0.06229
AFIX  43
H12   2    0.589524    0.358055    0.350755    11.00000   -1.20000
AFIX  65
C13   1    0.689908    0.278595    0.413613    11.00000    0.05657
AFIX  43
H13   2    0.700922    0.244990    0.353373    11.00000   -1.20000
AFIX  65
C14   1    0.739966    0.260601    0.503308    11.00000    0.02004
C15   1    0.723852    0.309769    0.591449    11.00000    0.05375
AFIX  43
H15   2    0.758064    0.297471    0.652752    11.00000   -1.20000
AFIX  65
C16   1    0.657681    0.376932    0.589896    11.00000    0.04052
AFIX  43
H16   2    0.646668    0.410536    0.650136    11.00000   -1.20000
AFIX   0
C17   1    0.813214    0.188625    0.504668    11.00000    0.01918    0.02757 =
         0.02466    0.00220   -0.00006    0.01366
C18   1    0.861035    0.136716    0.506585    11.00000    0.02834
C19   1    0.932684    0.061357    0.503074    11.00000    0.02049
C20   1    1.004704    0.066548    0.428864    11.00000    0.03994    0.02032 =
         0.02531    0.00593    0.00857    0.00830
AFIX  43
H20   2    1.007901    0.113033    0.379778    11.00000   -1.20000
AFIX   0
C21   1    0.925042   -0.000138    0.572770    11.00000    0.04936    0.02767 =
         0.03817    0.01149    0.02357   -0.00794
AFIX  43
H21   2    0.873768   -0.000531    0.623395    11.00000   -1.20000
AFIX   0
HKLF      4

REM     Sir2014_pyrrole 18/02/2015
REM R1 =  0.1702 for    2223 Fo > 4sig(Fo)  and  0.2098 for all    4058 data
REM    143 parameters refined using      9 restraints

END

WGHT      0.2000      0.0000

REM Highest difference peak  2.124,  deepest hole -0.775,  1-sigma level  0.166
Q1    1   0.7093  0.2831  0.4860  11.00000  0.05    1.93
Q2    1   0.5611  0.4389  0.5038  11.00000  0.05    1.89
Q3    1   0.9714  0.0178  0.4973  11.00000  0.05    1.16
Q4    1   0.7947  0.7028  0.2697  11.00000  0.05    1.01
Q5    1   1.0221  1.0416  0.1017  11.00000  0.05    0.97
Q6    1   0.7125  0.8246  0.7539  11.00000  0.05    0.89
Q7    1   0.7464  0.2608  0.5756  11.00000  0.05    0.88
Q8    1   0.6970  0.3400  0.5914  11.00000  0.05    0.83
Q9    1   0.5715  0.4092  0.4005  11.00000  0.05    0.77
Q10   1   0.8402  0.1219  0.5652  11.00000  0.05    0.76
Q11   1   0.7943  0.1789  0.4074  11.00000  0.05    0.76
Q12   1   0.9476  0.8708 -0.0247  11.00000  0.05    0.76
Q13   1   0.7056  0.5928  0.2415  11.00000  0.05    0.71
Q14   1   0.4821  0.4787  0.4162  11.00000  0.05    0.70
Q15   1   0.8497  0.9621 -0.0396  11.00000  0.05    0.70
Q16   1   0.7168  0.7840  0.2618  11.00000  0.05    0.70
Q17   1   0.8211  0.1976  0.5810  11.00000  0.05    0.69
Q18   1   0.6346  0.6708  0.2195  11.00000  0.05    0.65
Q19   1   0.9860 -0.0038  0.5789  11.00000  0.05    0.64
Q20   1   0.7725  0.7821  0.6615  11.00000  0.05    0.64
Q21   1   1.1081  0.9677  0.1165  11.00000  0.05    0.63
Q22   1   0.7588  0.7813  0.6219  11.00000  0.05    0.61
Q23   1   0.8387  0.6959  0.3712  11.00000  0.05    0.55
Q24   1   0.7303  0.7924  0.4949  11.00000  0.05    0.54
Q25   1   0.7627  0.8565  0.1705  11.00000  0.05    0.51
;
_shelx_res_checksum              23768
loop_
_space_group_symop_operation_xyz
'x, y, z'
'-x, -y, -z'
loop_
_atom_site_label
_atom_site_type_symbol
_atom_site_fract_x
_atom_site_fract_y
_atom_site_fract_z
_atom_site_U_iso_or_equiv
_atom_site_adp_type
_atom_site_occupancy
_atom_site_site_symmetry_order
_atom_site_calc_flag
_atom_site_refinement_flags_posn
_atom_site_refinement_flags_adp
_atom_site_refinement_flags_occupancy
Co1 Co 0.5000 0.5000 0.5000 0.0313(9) Uani 1 2 d S . P
N1 N 0.6145(9) 0.5935(8) 0.6187(8) 0.041(3) Uani 1 1 d . . .
C1 C 0.6935(14) 0.6572(12) 0.6762(12) 0.061(4) Uiso 1 1 d . . .
S1 S 0.7922(6) 0.7520(6) 0.7543(4) 0.194(4) Uani 1 1 d . . .
N2 N 0.6179(6) 0.5994(6) 0.3972(5) 0.032(3) Uani 1 1 d G . .
C2 C 0.6044(7) 0.5633(5) 0.2973(6) 0.049(4) Uani 1 1 d G . .
H2A H 0.5475 0.4939 0.2727 0.059 Uiso 1 1 calc R U .
C3 C 0.6743(9) 0.6286(7) 0.2334(5) 0.069(5) Uiso 1 1 d G . .
H3A H 0.6651 0.6039 0.1651 0.083 Uiso 1 1 calc R U .
C4 C 0.7576(8) 0.7302(7) 0.2693(6) 0.070(5) Uiso 1 1 d DG . .
C5 C 0.7711(9) 0.7663(5) 0.3692(7) 0.109(8) Uani 1 1 d G . .
H5A H 0.8281 0.8357 0.3938 0.130 Uiso 1 1 calc R U .
C6 C 0.7013(8) 0.7009(7) 0.4332(5) 0.132(9) Uani 1 1 d G . .
H6A H 0.7105 0.7257 0.5015 0.159 Uiso 1 1 calc R U .
C7 C 0.8322(18) 0.7972(15) 0.1997(12) 0.133(10) Uani 1 1 d D . .
C8 C 0.8801(17) 0.8556(17) 0.1493(14) 0.165(12) Uani 1 1 d D . .
C9 C 0.9496(19) 0.9210(14) 0.0791(15) 0.37(3) Uani 1 1 d D . .
C10 C 1.069(2) 0.994(2) 0.109(2) 0.200(12) Uiso 1 1 d D . .
H10 H 1.1237 0.9939 0.1642 0.240 Uiso 1 1 calc R U .
C11 C 0.901(3) 0.907(3) -0.019(2) 0.280(19) Uiso 1 1 d D . .
H11 H 0.8444 0.8372 -0.0431 0.336 Uiso 1 1 calc R U .
N3 N 0.6076(5) 0.3949(4) 0.5002(4) -0.0010(18) Uiso 1 1 d G . .
C12 C 0.6237(7) 0.3458(6) 0.4121(3) 0.062(4) Uiso 1 1 d G . .
H12 H 0.5895 0.3581 0.3508 0.075 Uiso 1 1 calc R U .
C13 C 0.6899(7) 0.2786(6) 0.4136(4) 0.057(4) Uiso 1 1 d G . .
H13 H 0.7009 0.2450 0.3534 0.068 Uiso 1 1 calc R U .
C14 C 0.7400(6) 0.2606(5) 0.5033(6) 0.020(3) Uiso 1 1 d G . .
C15 C 0.7239(7) 0.3098(6) 0.5914(4) 0.054(4) Uiso 1 1 d G . .
H15 H 0.7581 0.2975 0.6528 0.064 Uiso 1 1 calc R U .
C16 C 0.6577(7) 0.3769(5) 0.5899(3) 0.041(3) Uiso 1 1 d G . .
H16 H 0.6467 0.4105 0.6501 0.049 Uiso 1 1 calc R U .
C17 C 0.8132(9) 0.1886(8) 0.5047(8) 0.023(3) Uani 1 1 d . . .
C18 C 0.8610(10) 0.1367(9) 0.5066(8) 0.028(3) Uiso 1 1 d . . .
C19 C 0.9327(9) 0.0614(8) 0.5031(8) 0.020(3) Uiso 1 1 d . . .
C20 C 1.0047(10) 0.0665(8) 0.4289(8) 0.029(3) Uani 1 1 d . . .
H20 H 1.0079 0.1130 0.3798 0.035 Uiso 1 1 calc R U .
C21 C 0.9250(11) -0.0001(9) 0.5728(9) 0.043(4) Uani 1 1 d . . .
H21 H 0.8738 -0.0005 0.6234 0.052 Uiso 1 1 calc R U .
loop_
_atom_site_aniso_label
_atom_site_aniso_U_11
_atom_site_aniso_U_22
_atom_site_aniso_U_33
_atom_site_aniso_U_23
_atom_site_aniso_U_13
_atom_site_aniso_U_12
Co1 0.0239(14) 0.0320(16) 0.0304(17) 0.0016(11) 0.0100(11) 0.0003(11)
N1 0.037(6) 0.051(7) 0.042(7) 0.013(6) 0.020(6) 0.020(6)
S1 0.140(5) 0.205(7) 0.055(4) -0.045(4) 0.019(3) -0.141(5)
N2 0.013(5) 0.039(7) 0.037(7) 0.003(5) -0.004(5) 0.001(5)
C2 0.050(9) 0.039(9) 0.034(10) -0.011(7) -0.006(7) -0.008(7)
C5 0.107(13) 0.105(14) 0.010(9) -0.006(9) 0.010(9) -0.084(11)
C6 0.090(13) 0.148(19) 0.051(13) -0.019(12) -0.022(11) -0.071(14)
C7 0.106(15) 0.134(19) 0.050(13) -0.023(12) 0.044(11) -0.087(14)
C8 0.079(14) 0.19(2) 0.09(2) -0.039(17) 0.023(13) -0.105(15)
C9 0.33(4) 0.35(4) 0.052(16) -0.08(2) 0.08(2) -0.32(3)
C17 0.019(6) 0.028(7) 0.025(8) 0.002(5) 0.000(5) 0.014(6)
C20 0.040(7) 0.020(7) 0.025(7) 0.006(6) 0.009(6) 0.008(6)
C21 0.049(8) 0.028(8) 0.038(9) 0.011(6) 0.024(7) -0.008(7)
loop_
_atom_type_symbol
_atom_type_description
_atom_type_scat_dispersion_real
_atom_type_scat_dispersion_imag
_atom_type_scat_source
C C 0.0033 0.0016 'International Tables Vol C Tables 4.2.6.8 and 6.1.1.4'
H H 0.0000 0.0000 'International Tables Vol C Tables 4.2.6.8 and 6.1.1.4'
N N 0.0061 0.0033 'International Tables Vol C Tables 4.2.6.8 and 6.1.1.4'
S S 0.1246 0.1234 'International Tables Vol C Tables 4.2.6.8 and 6.1.1.4'
Co Co 0.3494 0.9721 'International Tables Vol C Tables 4.2.6.8 and 6.1.1.4'
loop_
_geom_angle_atom_site_label_1
_geom_angle_atom_site_label_2
_geom_angle_atom_site_label_3
_geom_angle
_geom_angle_site_symmetry_1
_geom_angle_site_symmetry_3
N1 Co1 N1 180.0(5) . 2_666
N1 Co1 N3 89.9(3) . 2_666
N1 Co1 N3 90.1(3) 2_666 2_666
N1 Co1 N3 90.1(3) . .
N1 Co1 N3 89.9(3) 2_666 .
N3 Co1 N3 180.0(3) 2_666 .
N1 Co1 N2 90.9(3) . .
N1 Co1 N2 89.1(3) 2_666 .
N3 Co1 N2 88.6(2) 2_666 .
N3 Co1 N2 91.4(2) . .
N1 Co1 N2 89.1(3) . 2_666
N1 Co1 N2 90.9(3) 2_666 2_666
N3 Co1 N2 91.4(2) 2_666 2_666
N3 Co1 N2 88.6(2) . 2_666
N2 Co1 N2 180.0 . 2_666
C1 N1 Co1 168.6(11) . .
N1 C1 S1 173.8(14) . .
C2 N2 C6 120.0 . .
C2 N2 Co1 120.8(4) . .
C6 N2 Co1 119.1(4) . .
C3 C2 N2 120.0 . .
C2 C3 C4 120.0 . .
C3 C4 C5 120.0 . .
C3 C4 C7 118.7(9) . .
C5 C4 C7 121.3(9) . .
C4 C5 C6 120.0 . .
C5 C6 N2 120.0 . .
C8 C7 C4 171(3) . .
C7 C8 C9 172(3) . .
C11 C9 C10 119(2) . .
C11 C9 C8 120(2) . .
C10 C9 C8 120(2) . .
C9 C10 C11 106(2) . 2_775
C9 C11 C10 129(3) . 2_775
C12 N3 C16 120.0 . .
C12 N3 Co1 120.8(3) . .
C16 N3 Co1 119.2(3) . .
N3 C12 C13 120.0 . .
C14 C13 C12 120.0 . .
C15 C14 C13 120.0 . .
C15 C14 C17 120.1(6) . .
C13 C14 C17 119.9(6) . .
C14 C15 C16 120.0 . .
C15 C16 N3 120.0 . .
C18 C17 C14 177.8(12) . .
C17 C18 C19 176.6(13) . .
C21 C19 C20 124.0(11) . .
C21 C19 C18 118.6(11) . .
C20 C19 C18 117.3(10) . .
C19 C20 C21 117.7(10) . 2_756
C19 C21 C20 118.3(11) . 2_756
loop_
_geom_bond_atom_site_label_1
_geom_bond_atom_site_label_2
_geom_bond_distance
_geom_bond_site_symmetry_2
Co1 N1 2.029(10) .
Co1 N1 2.029(10) 2_666
Co1 N3 2.212(4) 2_666
Co1 N3 2.212(4) .
Co1 N2 2.228(6) .
Co1 N2 2.228(6) 2_666
N1 C1 1.188(16) .
C1 S1 1.621(17) .
N2 C2 1.3900 .
N2 C6 1.3900 .
C2 C3 1.3900 .
C3 C4 1.3900 .
C4 C5 1.3900 .
C4 C7 1.480(13) .
C5 C6 1.3900 .
C7 C8 1.116(16) .
C8 C9 1.452(16) .
C9 C11 1.378(19) .
C9 C10 1.390(17) .
C10 C11 1.85(4) 2_775
C11 C10 1.85(4) 2_775
N3 C12 1.3900 .
N3 C16 1.3900 .
C12 C13 1.3900 .
C13 C14 1.3900 .
C14 C15 1.3900 .
C14 C17 1.511(11) .
C15 C16 1.3900 .
C17 C18 1.044(13) .
C18 C19 1.536(16) .
C19 C21 1.302(15) .
C19 C20 1.359(14) .
C20 C21 1.419(15) 2_756
C21 C20 1.419(15) 2_756
loop_
_platon_squeeze_void_nr
_platon_squeeze_void_average_x
_platon_squeeze_void_average_y
_platon_squeeze_void_average_z
_platon_squeeze_void_volume
_platon_squeeze_void_count_electrons
_platon_squeeze_void_content
1 -0.186 0.290 0.045 1279 617 ' '
