#------------------------------------------------------------------------------
#$Date: 2016-01-06 12:34:23 +0200 (Wed, 06 Jan 2016) $
#$Revision: 173599 $
#$URL: svn://www.crystallography.net/cod/cif/1/54/05/1540573.cif $
#------------------------------------------------------------------------------
#
# This file is available in the Crystallography Open Database (COD),
# http://www.crystallography.net/
#
# All data on this site have been placed in the public domain by the
# contributors.
#
data_1540573
loop_
_publ_author_name
'Druzhinin, Sergey I.'
'Galievsky, Victor A.'
'Demeter, Attila'
'Kovalenko, Sergey A.'
'Senyushkina, Tamara'
'Dubbaka, Srinivas R.'
'Knochel, Paul'
'Mayer, Peter'
'Grosse, Christian'
'Stalke, Dietmar'
'Zachariasse, Klaas A.'
_publ_section_title
;
 Two-State Intramolecular Charge Transfer (ICT) with
 3,5-Dimethyl-4-(dimethylamino)benzonitrile (MMD) and Its Meta-Isomer
 mMMD. Ground State Amino Twist Not Essential for ICT.
;
_journal_issue                   49
_journal_name_full               'The journal of physical chemistry. A'
_journal_page_first              11820
_journal_page_last               11836
_journal_paper_doi               10.1021/acs.jpca.5b09368
_journal_volume                  119
_journal_year                    2015
_chemical_formula_sum            'C12 H12 N2'
_chemical_formula_weight         184.24
_space_group_crystal_system      triclinic
_space_group_IT_number           2
_space_group_name_Hall           '-P 1'
_space_group_name_H-M_alt        'P -1'
_symmetry_space_group_name_Hall  '-P 1'
_symmetry_space_group_name_H-M   'P -1'
_atom_sites_solution_hydrogens   geom
_audit_creation_method           SHELXL-2014/7
_cell_angle_alpha                90.42(3)
_cell_angle_beta                 107.21(3)
_cell_angle_gamma                101.99(3)
_cell_formula_units_Z            2
_cell_length_a                   6.5750(13)
_cell_length_b                   7.9560(16)
_cell_length_c                   9.875(2)
_cell_measurement_temperature    223(2)
_cell_measurement_theta_max      24.98
_cell_measurement_theta_min      2.33
_cell_volume                     481.4(2)
_computing_structure_refinement  'SHELXL-2014/7 (Sheldrick, 2014)'
_diffrn_ambient_temperature      223(2)
_diffrn_measured_fraction_theta_full 0.991
_diffrn_measured_fraction_theta_max 0.991
_diffrn_measurement_device_type  'Enraf-nonius-CAD4 diffractometer'
_diffrn_radiation_type           MoK\a
_diffrn_radiation_wavelength     0.71073
_diffrn_reflns_av_R_equivalents  0.0362
_diffrn_reflns_av_unetI/netI     0.0137
_diffrn_reflns_laue_measured_fraction_full 0.991
_diffrn_reflns_laue_measured_fraction_max 0.991
_diffrn_reflns_limit_h_max       7
_diffrn_reflns_limit_h_min       -7
_diffrn_reflns_limit_k_max       9
_diffrn_reflns_limit_k_min       -9
_diffrn_reflns_limit_l_max       11
_diffrn_reflns_limit_l_min       -8
_diffrn_reflns_number            1710
_diffrn_reflns_point_group_measured_fraction_full 0.991
_diffrn_reflns_point_group_measured_fraction_max 0.991
_diffrn_reflns_theta_full        24.985
_diffrn_reflns_theta_max         24.985
_diffrn_reflns_theta_min         4.333
_diffrn_source                   'fine-focus sealed tube'
_exptl_absorpt_coefficient_mu    0.077
_exptl_absorpt_correction_type   none
_exptl_crystal_colour            colorless
_exptl_crystal_density_diffrn    1.271
_exptl_crystal_description       block
_exptl_crystal_F_000             196
_exptl_crystal_size_max          0.40
_exptl_crystal_size_mid          0.33
_exptl_crystal_size_min          0.30
_refine_diff_density_max         0.162
_refine_diff_density_min         -0.192
_refine_diff_density_rms         0.041
_refine_ls_extinction_method     none
_refine_ls_goodness_of_fit_ref   1.031
_refine_ls_hydrogen_treatment    constr
_refine_ls_matrix_type           full
_refine_ls_number_parameters     127
_refine_ls_number_reflns         1676
_refine_ls_number_restraints     0
_refine_ls_restrained_S_all      1.031
_refine_ls_R_factor_all          0.0437
_refine_ls_R_factor_gt           0.0379
_refine_ls_shift/su_max          0.000
_refine_ls_shift/su_mean         0.000
_refine_ls_structure_factor_coef Fsqd
_refine_ls_weighting_details
'w=1/[\s^2^(Fo^2^)+(0.0538P)^2^+0.1451P] where P=(Fo^2^+2Fc^2^)/3'
_refine_ls_weighting_scheme      calc
_refine_ls_wR_factor_gt          0.0966
_refine_ls_wR_factor_ref         0.1012
_reflns_Friedel_coverage         0.000
_reflns_number_gt                1462
_reflns_number_total             1676
_reflns_threshold_expression     'I > 2\s(I)'
_cod_data_source_file            jp5b09368_si_004.cif
_cod_data_source_block           cbq
_cod_depositor_comments
'Adding full bibliography for 1540571--1540573.cif.'
_cod_original_cell_volume        481.35(19)
_cod_database_code               1540573
_shelx_shelxl_version_number     2014/7
_shelx_space_group_comment
;
The symmetry employed for this shelxl refinement is uniquely defined
by the following loop, which should always be used as a source of
symmetry information in preference to the above space-group names.
They are only intended as comments.
;
_shelx_res_file
;

    cbq.res created by SHELXL-2014/7


TITL cbq in P-1
CELL 0.71073   6.5750   7.9560   9.8750  90.423 107.213 101.993
ZERR    2.00   0.0013   0.0016   0.0020   0.030   0.030   0.030
LATT 1
SFAC C  H  N
UNIT 24 24 4
L.S. 4
ACTA
LIST 4
BOND $H
CONF
FMAP 2
PLAN 5
TEMP -50
WGHT    0.053800    0.145100
FVAR       0.74502
N1    3    0.164658    0.833265    0.161602    11.00000    0.02191    0.02560 =
         0.02936    0.00070    0.00591    0.00183
C3    1    0.761494    0.994218    0.304025    11.00000    0.02241    0.02252 =
         0.02574    0.00320    0.00775    0.00600
AFIX  43
H3    2    0.888645    0.957494    0.304485    11.00000   -1.20000
AFIX   0
C6    1    0.383687    1.104397    0.305250    11.00000    0.02453    0.02848 =
         0.03174    0.00033    0.01029    0.00845
AFIX  43
H6    2    0.256167    1.140057    0.305510    11.00000   -1.20000
AFIX   0
C2    1    0.557548    0.891093    0.238141    11.00000    0.02359    0.02131 =
         0.02354    0.00311    0.00780    0.00499
N2    3    1.154514    1.358498    0.481484    11.00000    0.02937    0.02748 =
         0.04277   -0.00392    0.00678    0.00270
C7    1    0.986309    1.267879    0.433426    11.00000    0.02925    0.02143 =
         0.02691    0.00094    0.00825    0.00733
C1    1    0.369908    0.947058    0.238548    11.00000    0.02272    0.02414 =
         0.02250    0.00319    0.00753    0.00326
C5    1    0.587040    1.209002    0.371683    11.00000    0.03153    0.02327 =
         0.02704   -0.00142    0.00944    0.00688
AFIX  43
H5    2    0.598386    1.316022    0.417550    11.00000   -1.20000
AFIX   0
C4    1    0.775149    1.154378    0.370055    11.00000    0.02419    0.02209 =
         0.02154    0.00275    0.00560    0.00287
C8    1    0.159176    0.662148    0.222485    11.00000    0.02799    0.02774 =
         0.03591    0.00308    0.00971   -0.00180
AFIX  23
H8A   2    0.026674    0.580517    0.166591    11.00000   -1.20000
H8B   2    0.152804    0.672982    0.319988    11.00000   -1.20000
AFIX   0
C9    1    0.167599    0.809749    0.012072    11.00000    0.02993    0.03310 =
         0.02682    0.00025    0.00221    0.00278
AFIX  23
H9A   2    0.171056    0.920579   -0.030830    11.00000   -1.20000
H9B   2    0.033102    0.729435   -0.042804    11.00000   -1.20000
AFIX   0
C11   1    0.366462    0.739765    0.003140    11.00000    0.03485    0.03146 =
         0.03070   -0.00693    0.01073    0.00058
AFIX  23
H11A  2    0.316982    0.628279   -0.052368    11.00000   -1.20000
H11B  2    0.453839    0.820103   -0.043607    11.00000   -1.20000
AFIX   0
C10   1    0.360565    0.590335    0.223554    11.00000    0.03073    0.02233 =
         0.04026    0.00313    0.00435    0.00212
AFIX  23
H10A  2    0.442965    0.575113    0.321364    11.00000   -1.20000
H10B  2    0.314125    0.478102    0.169299    11.00000   -1.20000
AFIX   0
C12   1    0.504970    0.719217    0.156084    11.00000    0.02459    0.02290 =
         0.03548   -0.00294    0.00823    0.00441
AFIX  13
H12   2    0.639118    0.680668    0.156948    11.00000   -1.20000
AFIX   0
HKLF 4

REM  cbq in P-1
REM R1 =  0.0379 for    1462 Fo > 4sig(Fo)  and  0.0437 for all    1676 data
REM    127 parameters refined using      0 restraints

END

WGHT      0.0532      0.1516

REM Highest difference peak  0.162,  deepest hole -0.192,  1-sigma level  0.041
Q1    1   0.4635  0.8968  0.2817  11.00000  0.05    0.16
Q2    1   0.4635  0.9460  0.2063  11.00000  0.05    0.15
Q3    1   0.4681  0.9420 -0.0020  11.00000  0.05    0.13
Q4    1   0.5329  0.8205  0.1889  11.00000  0.05    0.12
Q5    1   0.5467  1.1335  0.5276  11.00000  0.05    0.12
;
_shelx_res_checksum              49513
_shelx_hkl_file
;
  -7   5   5    0.77    0.24
  -7   5   4    2.55    0.31
  -7   5   3    0.05    0.18
  -7   5   2    0.75    0.23
  -7   5   1    6.47    0.42
  -7   5   0    2.14    0.30
  -7   4   0    1.63    0.26
  -7   4   1    0.90    0.23
  -7   4   2    0.99    0.22
  -7   4   3   13.22    0.64
  -7   4   4    8.82    0.44
  -7   4   5    5.05    0.38
  -7   4   6    0.26    0.18
  -7   4   7   -0.11    0.22
  -7   3   7    6.52    0.58
  -7   3   6   42.77    0.98
  -7   3   5    0.90    0.22
  -7   3   4   13.27    0.62
  -7   3   3    8.68    0.57
  -7   3   2   -0.43    0.17
  -7   3   1    2.12    0.27
  -7   3   0    1.18    0.25
  -7   2   0   17.87    0.75
  -7   2   1   12.61    0.53
  -7   2   2    0.33    0.19
  -7   2   3    0.56    0.21
  -7   2   4    2.91    0.31
  -7   2   5    5.58    0.38
  -7   2   6   24.15    0.79
  -7   2   7    0.57    0.21
  -7   2   8   20.93    0.79
  -7   1   8   23.95    0.82
  -7   1   7    4.03    0.54
  -7   1   6    0.22    0.20
  -7   1   5    0.67    0.22
  -7   1   4    2.46    0.28
  -7   1   3    1.43    0.26
  -7   1   2    0.24    0.19
  -7   1   1    0.15    0.19
  -7   1   0    5.62    0.38
  -7   0   1    1.10    0.25
  -7   0   2    8.35    0.44
  -7   0   3    1.30    0.24
  -7   0   4    0.05    0.17
  -7   0   5    7.33    0.42
  -7   0   6    0.10    0.18
  -7   0   7    0.21    0.21
  -7  -1   6    2.08    0.32
  -7  -1   5    0.13    0.18
  -7  -1   4    1.24    0.25
  -7  -1   3    4.76    0.35
  -7  -1   2    0.48    0.20
  -7  -1   1    9.55    0.49
  -7  -2   2    6.94    0.43
  -7  -2   3   -0.03    0.19
  -7  -2   4    0.27    0.24
  -7  -2   5    1.84    0.30
  -6  -4   5   -0.27    0.19
  -6  -4   4    0.05    0.21
  -6  -4   3   13.51    0.68
  -6  -4   2    0.00    0.21
  -6  -4   1    0.73    0.24
  -6  -3   1    9.94    0.49
  -6  -3   2    7.89    0.43
  -6  -3   3   10.17    0.48
  -6  -3   4    4.54    0.34
  -6  -3   5    0.78    0.22
  -6  -3   6   10.56    0.66
  -6  -3   7  109.86    1.56
  -6  -2   8    4.15    0.36
  -6  -2   7  139.55    1.67
  -6  -2   6    6.62    0.40
  -6  -2   5   59.10    1.09
  -6  -2   4   22.92    0.64
  -6  -2   3    9.60    0.44
  -6  -2   2    0.11    0.20
  -6  -2   1    0.63    0.20
  -6  -1   1    0.46    0.19
  -6  -1   2    2.79    0.27
  -6  -1   3    6.53    0.35
  -6  -1   4    1.49    0.39
  -6  -1   5  184.44    1.74
  -6  -1   6   23.11    0.73
  -6  -1   7    0.05    0.19
  -6  -1   8    0.67    0.22
  -6  -1   9    0.98    0.24
  -6   0   9    4.50    0.36
  -6   0   8    0.86    0.24
  -6   0   7    1.53    0.25
  -6   0   6   12.67    0.57
  -6   0   5   59.16    1.00
  -6   0   4   18.79    0.53
  -6   0   3  226.02    1.86
  -6   0   2   35.45    0.71
  -6   0   1   53.22    0.88
  -6   1   0   93.47    1.22
  -6   1   1  118.96    1.35
  -6   1   2   15.29    0.48
  -6   1   3   17.10    0.50
  -6   1   4   16.92    0.48
  -6   1   5   23.47    0.60
  -6   1   6   13.94    0.48
  -6   1   7    2.65    0.27
  -6   1   8    4.40    0.33
  -6   1   9    1.12    0.26
  -6   2   9    0.75    0.23
  -6   2   8    0.10    0.19
  -6   2   7    5.54    0.36
  -6   2   6    0.23    0.17
  -6   2   5    9.06    0.40
  -6   2   4    7.88    0.37
  -6   2   3   22.35    0.55
  -6   2   2    1.62    0.21
  -6   2   1    1.03    0.19
  -6   2   0   35.63    0.79
  -6   3   0    2.92    0.27
  -6   3   1   25.24    0.62
  -6   3   2    6.18    0.47
  -6   3   3    5.77    0.31
  -6   3   4    7.52    0.36
  -6   3   5    0.39    0.18
  -6   3   6    8.89    0.41
  -6   3   7    5.48    0.37
  -6   3   8    0.76    0.22
  -6   3   9    0.11    0.21
  -6   4   8    3.34    0.33
  -6   4   7    0.19    0.22
  -6   4   6    0.05    0.16
  -6   4   5    0.35    0.17
  -6   4   4   16.58    0.52
  -6   4   3    1.99    0.25
  -6   4   2    5.41    0.35
  -6   4   1   14.38    0.50
  -6   4   0    0.86    0.19
  -6   5   0    9.60    0.43
  -6   5   1   14.10    0.51
  -6   5   2   13.66    0.48
  -6   5   3    0.22    0.18
  -6   5   4    1.41    0.25
  -6   5   5    0.05    0.18
  -6   5   6    2.72    0.29
  -6   5   7   10.45    0.48
  -6   5   8    0.54    0.24
  -6   6   6    8.96    0.68
  -6   6   5   16.88    0.60
  -6   6   4    0.61    0.19
  -6   6   3    0.05    0.19
  -6   6   2   -0.12    0.19
  -6   6   1    2.69    0.29
  -6   6   0    0.00    0.17
  -6   7   0    0.75    0.24
  -6   7   1   10.93    0.68
  -6   7   2    8.23    0.44
  -6   7   3    7.63    0.45
  -6   7   4   28.63    0.80
  -5   8   0    5.54    0.42
  -5   8   1    0.65    0.24
  -5   8   2    1.46    0.26
  -5   8   3    2.80    0.32
  -5   8   4    3.75    0.35
  -5   7   6    1.93    0.29
  -5   7   5    0.82    0.25
  -5   7   4    0.74    0.22
  -5   7   3    0.28    0.19
  -5   7   2    0.95    0.23
  -5   7   1    0.37    0.19
  -5   7   0    1.02    0.24
  -5   6   0    0.21    0.17
  -5   6   1   10.16    0.42
  -5   6   2    0.08    0.19
  -5   6   3    0.75    0.19
  -5   6   4   18.58    0.56
  -5   6   5   19.20    0.58
  -5   6   6    0.07    0.19
  -5   6   7    0.15    0.20
  -5   6   8    0.11    0.19
  -5   5   9    0.81    0.24
  -5   5   8    7.53    0.42
  -5   5   7   37.03    0.90
  -5   5   6   25.83    0.64
  -5   5   5   11.95    0.45
  -5   5   4    1.82    0.23
  -5   5   3    6.74    0.32
  -5   5   2    0.67    0.17
  -5   5   1    3.81    0.26
  -5   5   0   12.41    0.42
  -5   4   0    2.71    0.25
  -5   4   1    0.19    0.14
  -5   4   2    0.83    0.17
  -5   4   3    1.98    0.21
  -5   4   4    0.73    0.16
  -5   4   5   20.30    0.52
  -5   4   6    0.08    0.16
  -5   4   7   64.52    1.02
  -5   4   8   13.87    0.67
  -5   4   9   63.38    1.18
  -5   3  10   18.91    0.79
  -5   3   9   71.69    1.20
  -5   3   8    2.32    0.26
  -5   3   7   39.75    0.76
  -5   3   6   32.78    0.65
  -5   3   5   10.87    0.38
  -5   3   4    0.45    0.15
  -5   3   3    0.40    0.14
  -5   3   2   10.10    0.35
  -5   3   1    0.90    0.18
  -5   3   0    1.78    0.20
  -5   2   0    0.45    0.14
  -5   2   1    0.00    0.12
  -5   2   2    7.13    0.29
  -5   2   3    5.98    0.28
  -5   2   4    3.33    0.22
  -5   2   5   32.08    0.60
  -5   2   6    8.24    0.34
  -5   2   7   15.29    0.48
  -5   2   8    7.25    0.36
  -5   2   9    0.56    0.21
  -5   2  10    7.74    0.43
  -5   1  10    2.44    0.30
  -5   1   9    6.10    0.37
  -5   1   8    1.06    0.21
  -5   1   7   10.10    0.38
  -5   1   6   15.30    0.44
  -5   1   5  100.54    1.10
  -5   1   4   10.49    0.44
  -5   1   3    0.59    0.15
  -5   1   2    0.14    0.14
  -5   1   1    0.08    0.12
  -5   1   0   89.63    1.02
  -5   0   1  334.28    2.09
  -5   0   2    0.03    0.14
  -5   0   3  114.34    1.14
  -5   0   4   33.68    0.61
  -5   0   5    0.27    0.15
  -5   0   6    9.60    0.38
  -5   0   7    0.58    0.17
  -5   0   8   15.06    0.50
  -5   0   9    1.11    0.21
  -5   0  10    0.81    0.23
  -5  -1  10    5.01    0.36
  -5  -1   9   18.87    0.62
  -5  -1   8    7.76    0.39
  -5  -1   7    0.76    0.20
  -5  -1   6    0.28    0.17
  -5  -1   5   67.48    0.90
  -5  -1   4  102.14    1.10
  -5  -1   3   99.13    1.07
  -5  -1   2    3.55    0.25
  -5  -1   1  108.59    1.12
  -5  -2   1    1.95    0.22
  -5  -2   2  111.40    1.21
  -5  -2   3   35.59    0.66
  -5  -2   4    3.29    0.25
  -5  -2   5   31.13    0.64
  -5  -2   6    4.11    0.30
  -5  -2   7    2.84    0.28
  -5  -2   8    6.23    0.39
  -5  -2   9    0.47    0.22
  -5  -2  10    0.22    0.22
  -5  -3   9    1.32    0.26
  -5  -3   8    0.44    0.22
  -5  -3   7   21.46    0.64
  -5  -3   6   18.82    0.56
  -5  -3   5   73.19    1.05
  -5  -3   4   41.42    0.78
  -5  -3   3   13.23    0.47
  -5  -3   2   34.14    0.71
  -5  -3   1   10.78    0.42
  -5  -4   1   11.18    0.47
  -5  -4   2   94.47    1.30
  -5  -4   3    1.03    0.22
  -5  -4   4    9.00    0.44
  -5  -4   5    0.94    0.23
  -5  -4   6    0.71    0.24
  -5  -4   7   36.36    0.97
  -5  -4   8    6.79    0.45
  -5  -5   6   -0.03    0.21
  -5  -5   5   14.41    0.59
  -5  -5   4   43.07    0.95
  -5  -5   3    3.33    0.35
  -5  -5   2    0.54    0.22
  -5  -5   1    5.29    0.40
  -4  -6   6    0.21    0.24
  -4  -6   5   16.23    0.60
  -4  -6   4   14.23    0.56
  -4  -6   3    6.51    0.41
  -4  -6   2    2.55    0.31
  -4  -6   1    2.36    0.29
  -4  -5   1    0.04    0.19
  -4  -5   2   56.40    0.94
  -4  -5   3   20.65    0.59
  -4  -5   4    0.26    0.19
  -4  -5   5   11.62    0.49
  -4  -5   6    0.05    0.21
  -4  -5   7    0.88    0.22
  -4  -5   8   21.96    0.71
  -4  -4   9    5.99    0.39
  -4  -4   8   19.60    0.62
  -4  -4   7   12.32    0.46
  -4  -4   6   11.24    0.43
  -4  -4   5    1.53    0.22
  -4  -4   4    0.70    0.19
  -4  -4   3   10.51    0.40
  -4  -4   2    5.39    0.31
  -4  -4   1   12.18    0.43
  -4  -3   1    9.97    0.36
  -4  -3   2   17.50    0.46
  -4  -3   3    2.52    0.23
  -4  -3   4    6.23    0.30
  -4  -3   5   30.04    0.61
  -4  -3   6   13.20    0.45
  -4  -3   7   10.97    0.42
  -4  -3   8    0.92    0.20
  -4  -3   9   -0.05    0.19
  -4  -3  10    0.11    0.18
  -4  -2  10    9.94    0.50
  -4  -2   9   42.29    0.96
  -4  -2   8    3.35    0.28
  -4  -2   7    4.12    0.43
  -4  -2   6    4.43    0.27
  -4  -2   5    1.43    0.19
  -4  -2   4    1.47    0.18
  -4  -2   3   74.33    0.83
  -4  -2   2    0.99    0.16
  -4  -2   1   15.40    0.40
  -4  -1   1   -0.01    0.12
  -4  -1   2    2.63    0.19
  -4  -1   3   25.08    0.47
  -4  -1   4   15.91    0.38
  -4  -1   5    4.43    0.25
  -4  -1   6    7.96    0.32
  -4  -1   7   36.72    0.66
  -4  -1   8   34.88    0.67
  -4  -1   9   14.52    0.49
  -4  -1  10   23.35    0.67
  -4  -1  11    6.77    0.43
  -4   0  11    0.79    0.24
  -4   0  10   10.89    0.49
  -4   0   9    2.78    0.27
  -4   0   8   56.40    0.90
  -4   0   7    9.15    0.35
  -4   0   6    8.47    0.30
  -4   0   5   21.27    0.50
  -4   0   4   97.36    0.88
  -4   0   3    2.93    0.17
  -4   0   2   10.26    0.29
  -4   0   1    6.18    0.23
  -4   1   0   33.86    0.50
  -4   1   1    0.05    0.09
  -4   1   2   11.72    0.30
  -4   1   3    8.21    0.26
  -4   1   4    1.12    0.14
  -4   1   5    9.56    0.31
  -4   1   6    4.20    0.23
  -4   1   7   15.00    0.43
  -4   1   8   -0.07    0.15
  -4   1   9    0.02    0.17
  -4   1  10    0.35    0.21
  -4   1  11   13.11    0.58
  -4   2  11   29.22    0.83
  -4   2  10  111.55    1.48
  -4   2   9   69.06    1.11
  -4   2   8    4.63    0.31
  -4   2   7   15.30    0.44
  -4   2   6  119.10    1.11
  -4   2   5   41.89    0.62
  -4   2   4    2.07    0.17
  -4   2   3    0.09    0.10
  -4   2   2  202.08    1.32
  -4   2   1   38.33    0.53
  -4   2   0   22.39    0.41
  -4   3   0   21.55    0.44
  -4   3   1    5.52    0.24
  -4   3   2    4.23    0.20
  -4   3   3   38.85    0.58
  -4   3   4   10.09    0.32
  -4   3   5    8.14    0.30
  -4   3   6   17.26    0.46
  -4   3   7  312.12    2.16
  -4   3   8    1.14    0.20
  -4   3   9   66.33    1.14
  -4   3  10    9.48    0.47
  -4   4  10    4.04    0.37
  -4   4   9    0.12    0.19
  -4   4   8   32.44    0.73
  -4   4   7   73.30    1.07
  -4   4   6   37.79    0.67
  -4   4   5  191.32    1.50
  -4   4   4   12.91    0.37
  -4   4   3   22.68    0.46
  -4   4   2   10.09    0.33
  -4   4   1    3.44    0.21
  -4   4   0    0.06    0.12
  -4   5   0   28.54    0.57
  -4   5   1    4.90    0.26
  -4   5   2    5.68    0.27
  -4   5   3   62.56    0.87
  -4   5   4   32.74    0.62
  -4   5   5  317.89    2.16
  -4   5   6    6.55    0.35
  -4   5   7    0.38    0.17
  -4   5   8    2.18    0.26
  -4   5   9    1.50    0.56
  -4   6   8    4.77    0.38
  -4   6   7    0.40    0.19
  -4   6   6    0.76    0.22
  -4   6   5    0.25    0.16
  -4   6   4   23.34    0.58
  -4   6   3  282.03    2.02
  -4   6   2  174.60    1.54
  -4   6   1   16.08    0.47
  -4   6   0   25.43    0.57
  -4   7   0  209.99    1.86
  -4   7   1   24.53    0.63
  -4   7   2   10.73    0.44
  -4   7   3    0.34    0.17
  -4   7   4    0.20    0.18
  -4   7   5   25.99    0.70
  -4   7   6    0.32    0.20
  -4   7   7    0.13    0.24
  -4   8   5    2.13    0.29
  -4   8   4    0.25    0.20
  -4   8   3   14.26    0.54
  -4   8   2    4.31    0.63
  -4   8   1    6.44    0.41
  -4   8   0   14.49    0.56
  -3   9   3   -0.27    0.19
  -3   9   2    0.21    0.21
  -3   9   1    2.25    0.29
  -3   9   0    0.00    0.18
  -3   8   0    0.02    0.18
  -3   8   1   10.17    0.45
  -3   8   2    0.73    0.20
  -3   8   3   -0.14    0.16
  -3   8   4    0.02    0.19
  -3   8   5   19.68    0.64
  -3   8   6   27.89    0.95
  -3   7   7    5.88    0.41
  -3   7   6   -0.12    0.19
  -3   7   5    1.07    0.22
  -3   7   4   44.44    0.90
  -3   7   3    3.17    0.26
  -3   7   2    2.09    0.45
  -3   7   1    2.66    0.25
  -3   7   0    1.49    0.21
  -3   6   0  341.46    2.16
  -3   6   1   75.13    0.92
  -3   6   2   11.50    0.38
  -3   6   3    4.28    0.26
  -3   6   4   42.74    0.72
  -3   6   5   13.00    0.44
  -3   6   6   10.22    0.42
  -3   6   7    2.16    0.27
  -3   6   8   12.08    0.52
  -3   5   9    1.27    0.27
  -3   5   8    6.95    0.40
  -3   5   7   24.31    0.61
  -3   5   6    0.26    0.17
  -3   5   5    7.45    0.32
  -3   5   4    9.39    0.34
  -3   5   3  313.88    1.89
  -3   5   2    3.47    0.21
  -3   5   1   80.36    0.88
  -3   5   0  102.32    1.00
  -3   4   0  108.11    0.91
  -3   4   1   66.16    0.70
  -3   4   2  115.39    0.97
  -3   4   3   33.51    0.57
  -3   4   4   32.39    0.58
  -3   4   5   28.86    0.64
  -3   4   6    2.85    0.23
  -3   4   7    0.05    0.16
  -3   4   8   22.22    0.59
  -3   4   9    6.81    0.39
  -3   4  10    1.00    0.26
  -3   3  11    4.65    0.38
  -3   3  10    1.56    0.26
  -3   3   9    6.25    0.36
  -3   3   8    4.08    0.30
  -3   3   7   23.38    0.52
  -3   3   6    2.77    0.21
  -3   3   5  181.13    1.32
  -3   3   4   85.59    0.83
  -3   3   3   76.63    0.75
  -3   3   2   34.39    0.49
  -3   3   1  243.87    1.39
  -3   3   0  109.08    0.87
  -3   2   0  250.68    1.35
  -3   2   1  104.74    0.76
  -3   2   2  605.00    2.53
  -3   2   3   21.41    0.36
  -3   2   4   31.91    0.45
  -3   2   5    7.39    0.25
  -3   2   6   31.02    0.52
  -3   2   7   54.41    0.75
  -3   2   8    4.64    0.28
  -3   2   9    6.19    0.34
  -3   2  10   -0.09    0.18
  -3   2  11    7.49    0.44
  -3   1  11    3.37    0.33
  -3   1  10    7.33    0.38
  -3   1   9    4.36    0.29
  -3   1   8   13.41    0.43
  -3   1   7   17.95    0.42
  -3   1   6   12.61    0.34
  -3   1   5  116.63    0.95
  -3   1   4  221.43    1.31
  -3   1   3   33.69    0.42
  -3   1   2  239.27    1.28
  -3   1   1  262.17    1.35
  -3   1   0   25.57    0.36
  -3   0   1   18.39    0.31
  -3   0   2   14.59    0.28
  -3   0   3    9.71    0.24
  -3   0   4   69.77    0.69
  -3   0   5   -0.01    0.09
  -3   0   6  187.52    1.35
  -3   0   7   27.09    0.51
  -3   0   8   11.40    0.39
  -3   0   9    6.78    0.35
  -3   0  10    3.67    0.29
  -3   0  11    4.48    0.35
  -3  -1  11    2.93    0.33
  -3  -1  10    8.66    0.41
  -3  -1   9    4.43    0.30
  -3  -1   8   61.93    0.91
  -3  -1   7   19.01    0.45
  -3  -1   6   42.05    0.60
  -3  -1   5   30.89    0.47
  -3  -1   4   11.67    0.28
  -3  -1   3    2.27    0.15
  -3  -1   2   20.41    0.35
  -3  -1   1   95.30    0.76
  -3  -2   1  244.02    1.44
  -3  -2   2   17.83    0.35
  -3  -2   3  145.05    1.06
  -3  -2   4    0.28    0.11
  -3  -2   5    0.00    0.11
  -3  -2   6    0.56    0.13
  -3  -2   7    7.34    0.33
  -3  -2   8   16.98    0.48
  -3  -2   9   14.25    0.50
  -3  -2  10    5.36    0.37
  -3  -2  11    0.73    0.24
  -3  -3  10    3.68    0.35
  -3  -3   9    3.83    0.31
  -3  -3   8    0.04    0.16
  -3  -3   7    6.63    0.32
  -3  -3   6    4.68    0.26
  -3  -3   5   30.07    0.54
  -3  -3   4   42.03    0.61
  -3  -3   3   60.75    0.76
  -3  -3   2    3.62    0.21
  -3  -3   1   45.32    0.66
  -3  -4   1   -0.05    0.14
  -3  -4   2   40.46    0.65
  -3  -4   3   65.94    0.86
  -3  -4   4   21.95    0.59
  -3  -4   5   60.46    0.85
  -3  -4   6    5.68    0.31
  -3  -4   7    4.23    0.30
  -3  -4   8    0.78    0.20
  -3  -4   9    0.41    0.19
  -3  -4  10    3.65    0.34
  -3  -5   9    0.05    0.21
  -3  -5   8   16.38    0.58
  -3  -5   7   14.71    0.53
  -3  -5   6   58.25    0.93
  -3  -5   5   21.97    0.58
  -3  -5   4    0.52    0.17
  -3  -5   3    2.07    0.23
  -3  -5   2   70.82    0.96
  -3  -5   1    3.96    0.29
  -3  -6   1   14.25    0.50
  -3  -6   2   40.70    0.81
  -3  -6   3   22.98    0.61
  -3  -6   4    0.34    0.22
  -3  -6   5   26.15    0.69
  -3  -6   6    0.12    0.19
  -3  -6   7    6.53    0.43
  -3  -6   8    3.80    0.38
  -3  -7   6    0.32    0.21
  -3  -7   5   18.02    0.64
  -3  -7   4   48.42    1.10
  -3  -7   3    0.29    0.22
  -3  -7   2    0.34    0.22
  -3  -7   1    0.34    0.24
  -2  -8   4   38.41    0.92
  -2  -8   3   31.02    1.03
  -2  -8   2   31.97    0.97
  -2  -8   1    4.37    0.36
  -2  -7   1   30.01    0.72
  -2  -7   2  103.32    1.37
  -2  -7   3   93.79    1.32
  -2  -7   4    8.35    0.43
  -2  -7   5   19.05    0.61
  -2  -7   6    0.82    0.22
  -2  -7   7    3.66    0.34
  -2  -6   8    1.06    0.25
  -2  -6   7    4.79    0.35
  -2  -6   6   12.39    0.48
  -2  -6   5    0.73    0.20
  -2  -6   4    5.03    0.31
  -2  -6   3    9.76    0.39
  -2  -6   2   98.41    1.14
  -2  -6   1  298.59    2.13
  -2  -5   1   34.67    0.69
  -2  -5   2    0.14    0.14
  -2  -5   3   43.47    0.69
  -2  -5   4    0.79    0.17
  -2  -5   5   53.60    0.86
  -2  -5   6    2.70    0.25
  -2  -5   7    2.44    0.25
  -2  -5   8    0.00    0.18
  -2  -5   9    4.97    0.37
  -2  -4  10    2.24    0.31
  -2  -4   9   16.35    0.69
  -2  -4   8    4.22    0.31
  -2  -4   7   36.86    0.81
  -2  -4   6    3.30    0.45
  -2  -4   5    1.17    0.17
  -2  -4   4    1.50    0.17
  -2  -4   3    2.59    0.18
  -2  -4   2  105.02    0.96
  -2  -4   1   74.44    0.78
  -2  -3   1    1.76    0.13
  -2  -3   2   73.95    0.69
  -2  -3   3   13.09    0.31
  -2  -3   4   94.25    0.88
  -2  -3   5    7.85    0.28
  -2  -3   6    6.39    0.28
  -2  -3   7   49.69    0.75
  -2  -3   8    0.36    0.17
  -2  -3   9   26.21    0.76
  -2  -3  10    2.34    0.29
  -2  -3  11   42.01    0.97
  -2  -2  11    0.93    0.62
  -2  -2  10    0.11    0.18
  -2  -2   9    9.71    0.40
  -2  -2   8   69.20    0.98
  -2  -2   7   14.46    0.40
  -2  -2   6   -0.37    0.31
  -2  -2   5   14.52    0.32
  -2  -2   4  114.48    0.89
  -2  -2   3   53.35    0.57
  -2  -2   2  131.16    0.87
  -2  -2   1  219.67    1.20
  -2  -1   1   13.38    0.23
  -2  -1   2   50.51    0.47
  -2  -1   3   18.47    0.28
  -2  -1   4   17.54    0.30
  -2  -1   5   23.15    0.44
  -2  -1   6    0.00    0.10
  -2  -1   7    0.27    0.13
  -2  -1   8   -0.07    0.13
  -2  -1   9   -0.02    0.13
  -2  -1  10   -0.11    0.15
  -2  -1  11   11.54    0.53
  -2   0  11    0.92    0.25
  -2   0  10   52.18    1.05
  -2   0   9   26.08    0.70
  -2   0   8    1.11    0.18
  -2   0   7   20.43    0.51
  -2   0   6   16.60    0.36
  -2   0   5    1.08    0.12
  -2   0   4  194.63    1.10
  -2   0   3    1.49    0.10
  -2   0   2   62.40    0.49
  -2   0   1    0.04    0.06
  -2   1   0   75.82    0.53
  -2   1   1   93.74    0.58
  -2   1   2  620.04    2.69
  -2   1   3   33.65    0.40
  -2   1   4   37.77    0.42
  -2   1   5   58.85    0.64
  -2   1   6    2.15    0.16
  -2   1   7  119.63    1.10
  -2   1   8   52.71    0.83
  -2   1   9   28.50    0.62
  -2   1  10   10.04    0.44
  -2   1  11    0.35    0.20
  -2   2  11    0.18    0.21
  -2   2  10    0.05    0.18
  -2   2   9    0.40    0.16
  -2   2   8    3.17    0.24
  -2   2   7  145.13    1.26
  -2   2   6   21.84    0.42
  -2   2   5   81.56    0.74
  -2   2   4    0.31    0.09
  -2   2   3   14.07    0.25
  -2   2   2  102.42    0.69
  -2   2   1   54.87    0.45
  -2   2   0  835.30    3.47
  -2   3   0    0.27    0.08
  -2   3   1    5.08    0.17
  -2   3   2   71.13    0.60
  -2   3   3   79.06    0.71
  -2   3   4   22.61    0.39
  -2   3   5  188.88    1.31
  -2   3   6    4.05    0.23
  -2   3   7    1.60    0.19
  -2   3   8   14.46    0.61
  -2   3   9    4.04    0.30
  -2   3  10   11.19    0.70
  -2   3  11    4.64    0.41
  -2   4  10   17.72    0.62
  -2   4   9    5.02    0.36
  -2   4   8   28.14    0.79
  -2   4   7   18.00    0.50
  -2   4   6   29.59    0.57
  -2   4   5    0.97    0.15
  -2   4   4    0.84    0.14
  -2   4   3   59.12    0.64
  -2   4   2  195.40    1.23
  -2   4   1    0.12    0.09
  -2   4   0   63.51    0.66
  -2   5   0    0.03    0.10
  -2   5   1   29.60    0.52
  -2   5   2    0.52    0.12
  -2   5   3   37.17    0.62
  -2   5   4    8.92    0.31
  -2   5   5    1.09    0.39
  -2   5   6    8.38    0.36
  -2   5   7    2.64    0.26
  -2   5   8   81.62    1.23
  -2   5   9    3.99    0.35
  -2   6   8    0.75    0.25
  -2   6   7    2.96    0.29
  -2   6   6   21.43    0.60
  -2   6   5    5.09    0.30
  -2   6   4    2.54    0.23
  -2   6   3    5.02    0.28
  -2   6   2    1.52    0.17
  -2   6   1    0.55    0.14
  -2   6   0    8.21    0.31
  -2   7   0    2.49    0.24
  -2   7   1   50.56    0.79
  -2   7   2    0.41    0.17
  -2   7   3    8.23    0.37
  -2   7   4    0.84    0.19
  -2   7   5   18.28    0.66
  -2   7   6   36.27    0.90
  -2   7   7    0.03    0.20
  -2   8   6    2.76    0.32
  -2   8   5    4.67    0.36
  -2   8   4   29.89    0.74
  -2   8   3    1.03    0.21
  -2   8   2   10.76    0.44
  -2   8   1   18.35    0.67
  -2   8   0    7.00    0.37
  -2   9   0    0.15    0.20
  -2   9   1   12.03    0.72
  -2   9   2    1.79    0.29
  -2   9   3    1.07    0.24
  -1   9   3   13.56    0.60
  -1   9   2    1.05    0.24
  -1   9   1   -0.03    0.21
  -1   9   0    0.00    0.18
  -1   8   0   22.81    0.71
  -1   8   1   96.20    1.29
  -1   8   2    2.26    0.27
  -1   8   3    0.70    0.21
  -1   8   4    1.13    0.25
  -1   8   5    0.70    0.23
  -1   7   7    0.95    0.26
  -1   7   6    0.36    0.19
  -1   7   5    0.16    0.18
  -1   7   4   48.78    0.90
  -1   7   3   19.73    0.53
  -1   7   2   36.24    0.75
  -1   7   1    4.91    0.29
  -1   7   0   28.85    0.60
  -1   6   0   31.71    0.63
  -1   6   1    1.53    0.17
  -1   6   2   26.65    0.52
  -1   6   3    4.46    0.25
  -1   6   4   13.41    0.43
  -1   6   5    4.84    0.46
  -1   6   6   34.32    0.83
  -1   6   7    0.30    0.21
  -1   6   8   18.44    0.64
  -1   5   9    0.21    0.21
  -1   5   8    9.58    0.46
  -1   5   7    5.10    0.33
  -1   5   6   40.49    0.85
  -1   5   5    1.18    0.18
  -1   5   4   43.35    0.71
  -1   5   3    0.25    0.11
  -1   5   2   14.50    0.40
  -1   5   1    4.27    0.21
  -1   5   0   29.20    0.46
  -1   4   0  105.41    0.82
  -1   4   1  387.42    1.83
  -1   4   2   21.88    0.37
  -1   4   3   25.78    0.46
  -1   4   4    8.34    0.28
  -1   4   5    0.26    0.13
  -1   4   6    8.02    0.32
  -1   4   7    7.66    0.50
  -1   4   8   22.14    0.75
  -1   4   9    0.38    0.19
  -1   4  10    0.53    0.24
  -1   3  10    5.48    0.40
  -1   3   9    1.65    0.24
  -1   3   8    3.04    0.25
  -1   3   7    0.05    0.15
  -1   3   6    5.07    0.24
  -1   3   5   27.89    0.47
  -1   3   4    0.17    0.09
  -1   3   3  350.11    1.71
  -1   3   2    4.94    0.17
  -1   3   1  261.21    1.27
  -1   3   0  103.27    0.70
  -1   2   0  159.81    0.80
  -1   2   1  177.46    0.86
  -1   2   2  331.48    1.43
  -1   2   3  346.65    1.57
  -1   2   4   28.86    0.40
  -1   2   5   77.12    0.73
  -1   2   6   -0.12    0.09
  -1   2   7    1.88    0.18
  -1   2   8    3.71    0.25
  -1   2   9    2.21    0.25
  -1   2  10    0.28    0.19
  -1   2  11    0.88    0.24
  -1   1  11   -0.05    0.18
  -1   1  10    0.34    0.18
  -1   1   9   17.57    0.51
  -1   1   8    9.59    0.35
  -1   1   7    6.71    0.27
  -1   1   6   10.72    0.29
  -1   1   5  538.20    2.36
  -1   1   4   10.71    0.23
  -1   1   3   77.66    0.55
  -1   1   2  108.54    0.60
  -1   0   2 1732.34    7.34
  -1   0   3  500.08    2.26
  -1   0   4  190.99    1.05
  -1   0   5   22.07    0.35
  -1   0   6    0.62    0.10
  -1   0   7   48.54    0.71
  -1   0   8   45.53    0.74
  -1   0   9    0.92    0.19
  -1   0  10   17.38    0.55
  -1   0  11    0.56    0.23
  -1  -1  11    1.58    0.25
  -1  -1  10    7.86    0.40
  -1  -1   9    3.05    0.25
  -1  -1   8   31.05    0.66
  -1  -1   7    5.80    0.25
  -1  -1   6    4.30    0.20
  -1  -1   5  647.66    2.72
  -1  -1   4  353.44    1.62
  -1  -1   3  152.91    0.83
  -1  -1   2  341.19    1.39
  -1  -1   1  273.00    1.12
  -1  -2   1    1.16    0.08
  -1  -2   2  310.61    1.40
  -1  -2   3   31.36    0.39
  -1  -2   4  378.45    1.78
  -1  -2   5   60.45    0.65
  -1  -2   6  483.96    2.40
  -1  -2   7  126.58    1.13
  -1  -2   8    2.52    0.22
  -1  -2   9   19.05    0.54
  -1  -2  10    0.16    0.16
  -1  -2  11    4.65    0.36
  -1  -3  11    1.43    0.27
  -1  -3  10    5.56    0.38
  -1  -3   9   91.65    1.24
  -1  -3   8  155.78    1.47
  -1  -3   7  409.16    2.41
  -1  -3   6   33.99    0.56
  -1  -3   5   58.75    0.66
  -1  -3   4    6.89    0.31
  -1  -3   3  150.66    1.02
  -1  -3   2  268.12    1.40
  -1  -3   1   42.84    0.48
  -1  -4   1   32.35    0.46
  -1  -4   2    7.62    0.24
  -1  -4   3   85.06    0.83
  -1  -4   4    5.66    0.24
  -1  -4   5   13.77    0.45
  -1  -4   6   47.29    0.71
  -1  -4   7   20.60    0.52
  -1  -4   8    4.69    0.30
  -1  -4   9  115.50    1.47
  -1  -4  10    4.72    0.35
  -1  -5   9   10.19    0.49
  -1  -5   8    5.59    0.35
  -1  -5   7   11.90    0.58
  -1  -5   6   20.89    0.52
  -1  -5   5    0.10    0.13
  -1  -5   4    0.02    0.14
  -1  -5   3    4.27    0.23
  -1  -5   2  115.16    1.07
  -1  -5   1   47.47    0.67
  -1  -6   1    0.92    0.16
  -1  -6   2   10.24    0.37
  -1  -6   3    0.24    0.14
  -1  -6   4   11.59    0.40
  -1  -6   5   35.17    0.71
  -1  -6   6    1.78    0.23
  -1  -6   7   -0.02    0.18
  -1  -6   8    7.97    0.62
  -1  -6   9    4.51    0.38
  -1  -7   7    0.20    0.20
  -1  -7   6    7.03    0.40
  -1  -7   5    3.35    0.31
  -1  -7   4    0.23    0.17
  -1  -7   3    8.90    0.41
  -1  -7   2    1.42    0.22
  -1  -7   1   78.55    1.11
  -1  -8   1   10.56    0.47
  -1  -8   2    3.35    0.31
  -1  -8   3    0.58    0.19
  -1  -8   4    4.59    0.37
  -1  -8   5    1.27    0.26
  -1  -8   6    0.11    0.22
   0  -9   1    1.10    0.26
   0  -9   2    4.54    0.37
   0  -9   3   17.85    0.65
   0  -8   6    5.10    0.40
   0  -8   5    0.00    0.18
   0  -8   4    1.22    0.24
   0  -8   3    3.97    0.32
   0  -8   2    2.20    0.27
   0  -8   1   39.39    0.89
   0  -7   1    0.71    0.17
   0  -7   2    7.57    0.36
   0  -7   3    0.20    0.16
   0  -7   4   18.39    0.55
   0  -7   5   -0.02    0.15
   0  -7   6   19.43    0.72
   0  -7   7    0.66    0.20
   0  -6   9    1.36    0.27
   0  -6   8   -0.10    0.17
   0  -6   7    1.86    0.25
   0  -6   6   22.26    0.59
   0  -6   5   24.21    0.58
   0  -6   4   35.85    0.71
   0  -6   3    3.80    0.25
   0  -6   2    6.27    0.28
   0  -6   1    8.74    0.32
   0  -5   1    2.57    0.17
   0  -5   2   42.81    0.63
   0  -5   3   23.63    0.46
   0  -5   4   26.94    0.52
   0  -5   5    2.15    0.19
   0  -5   6   10.37    0.38
   0  -5   7    0.22    0.16
   0  -5   8   10.26    0.45
   0  -5   9   12.46    0.62
   0  -4  10    3.81    0.34
   0  -4   9    4.69    0.34
   0  -4   8    0.51    0.16
   0  -4   7  197.76    1.65
   0  -4   6   13.63    0.40
   0  -4   5    8.65    0.29
   0  -4   4   27.66    0.47
   0  -4   3  120.04    0.96
   0  -4   2  152.90    1.05
   0  -4   1    5.08    0.18
   0  -3   1  331.48    1.51
   0  -3   2    4.85    0.16
   0  -3   3    5.58    0.19
   0  -3   4  370.50    1.86
   0  -3   5  259.34    1.53
   0  -3   6   88.28    0.91
   0  -3   7   44.35    0.70
   0  -3   8    0.87    0.19
   0  -3   9    2.48    0.26
   0  -3  10    2.11    0.29
   0  -2  11    1.73    0.27
   0  -2  10    0.31    0.21
   0  -2   9    5.14    0.31
   0  -2   8   25.10    0.57
   0  -2   7   31.60    0.57
   0  -2   6    3.70    0.19
   0  -2   5  447.85    2.15
   0  -2   4  206.94    1.18
   0  -2   3    0.97    0.09
   0  -2   2 1192.54    5.22
   0  -2   1   16.79    0.24
   0  -1   2 2677.44   10.70
   0  -1   3 1764.00    7.15
   0  -1   4   78.69    0.64
   0  -1   5    2.16    0.14
   0  -1   6    5.35    0.22
   0  -1   7    7.84    0.30
   0  -1   8    1.60    0.19
   0  -1   9    5.88    0.34
   0  -1  10   15.69    0.54
   0  -1  11    4.10    0.37
   0   0  11    0.67    0.24
   0   0  10   -0.21    0.16
   0   0   9    8.51    0.38
   0   0   8   28.34    0.59
   0   0   7    4.37    0.24
   0   0   6   70.81    0.76
   0   0   5  161.77    1.06
   0   0   4  229.82    1.21
   0   0   3   13.94    0.21
   0   0   2  340.58    1.51
   0   1   2  443.12    1.93
   0   1   3   15.35    0.23
   0   1   4   81.16    0.65
   0   1   5   11.20    0.27
   0   1   6    8.08    0.27
   0   1   7   19.14    0.44
   0   1   8    8.39    0.34
   0   1   9    1.14    0.21
   0   1  10   12.33    0.50
   0   1  11    5.58    0.41
   0   2  10    1.64    0.27
   0   2   9    9.42    0.56
   0   2   8    5.82    0.30
   0   2   7    8.12    0.31
   0   2   6  142.40    1.17
   0   2   5   27.52    0.44
   0   2   4    0.73    0.10
   0   2   3    8.62    0.20
   0   2   2  145.01    0.82
   0   2   1  249.04    1.10
   0   2   0  519.98    2.21
   0   3   0    6.77    0.18
   0   3   1   13.02    0.24
   0   3   2   42.80    0.50
   0   3   3  213.04    1.25
   0   3   4   13.57    0.32
   0   3   5    1.86    0.16
   0   3   6    4.77    0.25
   0   3   7   56.44    0.87
   0   3   8   65.54    1.03
   0   3   9   11.79    0.49
   0   3  10   17.35    0.74
   0   4   9   16.62    0.73
   0   4   8   21.45    0.69
   0   4   7    2.98    0.26
   0   4   6   38.86    0.67
   0   4   5    0.58    0.14
   0   4   4    9.27    0.31
   0   4   3    9.81    0.29
   0   4   2   17.58    0.39
   0   4   1  128.02    0.93
   0   4   0   31.71    0.45
   0   5   0    4.21    0.21
   0   5   1    1.31    0.14
   0   5   2    1.36    0.15
   0   5   3    9.11    0.44
   0   5   4    5.56    0.29
   0   5   5    1.13    0.19
   0   5   6    8.41    0.37
   0   5   7    8.69    0.42
   0   5   8   -0.17    0.17
   0   6   7    1.36    0.25
   0   6   6   10.27    0.45
   0   6   5    0.97    0.21
   0   6   4    2.74    0.25
   0   6   3   10.70    0.39
   0   6   2    3.87    0.25
   0   6   1    0.20    0.13
   0   6   0    2.29    0.20
   0   7   0    6.37    0.34
   0   7   1   16.11    0.57
   0   7   2    5.87    0.34
   0   7   3    0.02    0.15
   0   7   4   12.62    0.51
   0   7   5    0.55    0.21
   0   7   6    2.94    0.31
   0   8   4    3.40    0.34
   0   8   3    0.10    0.17
   0   8   2   12.64    0.51
   0   8   1   -0.16    0.16
   0   8   0    2.61    0.27
   0   9   0    2.18    0.29
   0   9   1    9.80    0.64
   1   8   0   18.99    0.62
   1   8   1   19.93    0.66
   1   8   2    5.10    0.38
   1   8   3   30.86    0.84
   1   7   5   19.90    0.67
   1   7   4   23.02    0.67
   1   7   3    2.93    0.29
   1   7   2   15.68    0.51
   1   7   1    7.23    0.37
   1   7   0   15.61    0.50
   1   6   0  119.95    1.22
   1   6   1  114.73    1.22
   1   6   2  154.18    1.46
   1   6   3    8.11    0.38
   1   6   4   43.97    0.83
   1   6   5    0.95    0.25
   1   6   6    6.32    0.42
   1   6   7    4.40    0.62
   1   5   8    0.35    0.24
   1   5   7    9.95    0.46
   1   5   6    0.04    0.17
   1   5   5   41.96    0.86
   1   5   4  225.82    1.78
   1   5   3    2.16    0.21
   1   5   2   39.82    0.65
   1   5   1    0.42    0.13
   1   5   0   12.02    0.35
   1   4   0  110.48    0.91
   1   4   1    0.76    0.13
   1   4   2   91.56    0.90
   1   4   3   33.41    0.61
   1   4   4   70.46    0.85
   1   4   5    0.95    0.19
   1   4   6  219.33    1.82
   1   4   7    9.43    0.41
   1   4   8   35.92    0.92
   1   3   9   40.70    0.99
   1   3   8   88.97    1.25
   1   3   7   11.26    0.43
   1   3   6  353.26    2.25
   1   3   5   58.70    0.79
   1   3   4   21.77    0.43
   1   3   3    8.91    0.27
   1   3   2   -0.01    0.09
   1   3   1  135.71    0.93
   1   3   0    6.77    0.20
   1   2   0    8.88    0.22
   1   2   1   45.82    0.46
   1   2   2  289.61    1.44
   1   2   3   24.12    0.38
   1   2   4   62.49    0.66
   1   2   5    7.23    0.27
   1   2   6   18.14    0.51
   1   2   7  106.78    1.19
   1   2   8  120.33    1.39
   1   2   9   78.06    1.26
   1   2  10    1.64    0.30
   1   1  10    2.46    0.31
   1   1   9    0.29    0.18
   1   1   8    0.26    0.41
   1   1   7    6.34    0.30
   1   1   6  108.35    1.04
   1   1   5  113.69    0.97
   1   1   4    2.19    0.14
   1   1   3   32.72    0.39
   1   1   2   38.87    0.40
   1   1   1  685.56    2.84
   1   1   0  300.82    1.22
   1   0   1  416.05    1.81
   1   0   2    7.15    0.15
   1   0   3   21.61    0.34
   1   0   4   74.27    0.67
   1   0   5   77.35    0.77
   1   0   6    5.15    0.34
   1   0   7    0.70    0.16
   1   0   8   10.23    0.40
   1   0   9    2.15    0.24
   1   0  10    3.93    0.33
   1  -1  10    3.53    0.33
   1  -1   9    5.22    0.33
   1  -1   8   85.00    1.10
   1  -1   7    3.20    0.23
   1  -1   6    2.23    0.18
   1  -1   5   32.52    0.47
   1  -1   4  173.53    1.07
   1  -1   3   78.54    0.61
   1  -1   2    4.72    0.13
   1  -1   1   25.71    0.27
   1  -2   1   51.83    0.42
   1  -2   2   57.36    0.48
   1  -2   3    3.77    0.15
   1  -2   4    2.18    0.14
   1  -2   5    8.54    0.26
   1  -2   6    0.71    0.13
   1  -2   7    0.45    0.15
   1  -2   8    5.27    0.31
   1  -2   9   -0.02    0.16
   1  -2  10   21.86    0.68
   1  -3  10   14.12    0.57
   1  -3   9    0.46    0.18
   1  -3   8    2.41    0.24
   1  -3   7    1.73    0.19
   1  -3   6    3.18    0.21
   1  -3   5   19.78    0.46
   1  -3   4   86.14    0.77
   1  -3   3    0.45    0.10
   1  -3   2  192.95    1.09
   1  -3   1   87.31    0.65
   1  -4   1   91.13    0.77
   1  -4   2    0.17    0.08
   1  -4   3   23.02    0.44
   1  -4   4   18.01    0.39
   1  -4   5    0.03    0.12
   1  -4   6   19.39    0.55
   1  -4   7   33.01    0.70
   1  -4   8    0.11    0.17
   1  -4   9    1.48    0.24
   1  -5   9   23.54    0.80
   1  -5   8    1.11    0.21
   1  -5   7   15.32    0.50
   1  -5   6    3.47    0.26
   1  -5   5    0.35    0.13
   1  -5   4    4.43    0.24
   1  -5   3    4.59    0.22
   1  -5   2  120.48    1.04
   1  -5   1  224.19    1.44
   1  -6   1    0.33    0.12
   1  -6   2   46.56    0.70
   1  -6   3   41.57    0.72
   1  -6   4   78.42    1.00
   1  -6   5   -0.04    0.13
   1  -6   6    4.25    0.29
   1  -6   7    2.92    0.28
   1  -6   8    0.03    0.18
   1  -7   7    1.42    0.26
   1  -7   6   23.20    0.76
   1  -7   5    1.06    0.20
   1  -7   4    6.48    0.35
   1  -7   3    3.03    0.43
   1  -7   2    2.91    0.24
   1  -7   1   11.34    0.40
   1  -8   1   20.64    0.67
   1  -8   2    0.11    0.18
   1  -8   3    3.20    0.30
   1  -8   4    4.56    0.33
   1  -8   5    0.00    0.18
   1  -8   6    1.40    0.27
   1  -9   3    3.22    0.35
   1  -9   2    0.16    0.21
   1  -9   1   17.93    0.72
   2  -9   1    1.18    0.26
   2  -9   2   19.95    0.76
   2  -9   3   10.07    0.51
   2  -8   5   17.57    0.65
   2  -8   4   44.02    0.98
   2  -8   3    0.23    0.19
   2  -8   2   18.47    0.58
   2  -8   1    9.18    0.55
   2  -7   1    2.17    0.20
   2  -7   2    0.06    0.15
   2  -7   3   26.34    0.70
   2  -7   4    1.69    0.21
   2  -7   5    3.90    0.32
   2  -7   6    1.91    0.27
   2  -7   7    0.67    0.24
   2  -6   8    5.31    0.40
   2  -6   7   44.15    0.98
   2  -6   6    1.97    0.24
   2  -6   5   34.61    0.73
   2  -6   4   22.74    0.61
   2  -6   3    0.78    0.16
   2  -6   2   15.02    0.42
   2  -6   1   29.44    0.61
   2  -5   1   45.59    0.65
   2  -5   2  102.87    0.99
   2  -5   3    1.20    0.15
   2  -5   4    6.94    0.31
   2  -5   5  128.25    1.31
   2  -5   6    1.00    0.20
   2  -5   7   53.23    0.98
   2  -5   8    0.75    0.22
   2  -4   9    2.48    0.31
   2  -4   8   -0.05    0.16
   2  -4   7    4.01    0.29
   2  -4   6    7.82    0.35
   2  -4   5   84.13    0.97
   2  -4   4   38.41    0.63
   2  -4   3   48.27    0.63
   2  -4   2  106.65    0.90
   2  -4   1    1.18    0.12
   2  -3   1    2.99    0.14
   2  -3   2  162.34    1.07
   2  -3   3  197.37    1.27
   2  -3   4    3.41    0.19
   2  -3   5    0.24    0.12
   2  -3   6   -0.03    0.12
   2  -3   7    0.14    0.15
   2  -3   8   25.58    0.66
   2  -3   9    0.73    0.20
   2  -2   9    4.12    0.34
   2  -2   8   33.77    0.83
   2  -2   7    1.25    0.19
   2  -2   6   31.10    0.65
   2  -2   5    0.57    0.12
   2  -2   4    9.23    0.27
   2  -2   3    5.39    0.19
   2  -2   2   21.99    0.33
   2  -2   1  307.76    1.45
   2  -1   1   26.63    0.33
   2  -1   2    8.00    0.20
   2  -1   3    4.13    0.17
   2  -1   4   78.80    0.77
   2  -1   5   55.27    0.69
   2  -1   6   55.08    0.79
   2  -1   7   17.67    0.50
   2  -1   8   16.51    0.53
   2  -1   9    1.64    0.24
   2   0   9    7.58    0.42
   2   0   8    3.85    0.30
   2   0   7    0.00    0.13
   2   0   6   46.61    0.72
   2   0   5   20.91    0.44
   2   0   4   20.18    0.38
   2   0   3  231.28    1.33
   2   0   2   19.19    0.30
   2   0   1    1.19    0.09
   2   0   0   21.93    0.27
   2   1   0    8.46    0.19
   2   1   1  159.45    0.95
   2   1   2  154.57    1.00
   2   1   3  132.22    0.99
   2   1   4   49.54    0.63
   2   1   5   -0.26    0.10
   2   1   6   28.38    0.59
   2   1   7    0.14    0.15
   2   1   8    7.60    0.40
   2   1   9    7.24    0.43
   2   2   9    3.97    0.34
   2   2   8    0.37    0.19
   2   2   7   28.68    0.74
   2   2   6  109.52    1.21
   2   2   5    7.35    0.31
   2   2   4   26.91    0.49
   2   2   3   40.96    0.56
   2   2   2    1.08    0.12
   2   2   1  375.31    1.81
   2   2   0   55.56    0.57
   2   3   0    4.10    0.19
   2   3   1   75.28    0.76
   2   3   2    8.25    0.27
   2   3   3   62.56    0.77
   2   3   4   72.26    0.88
   2   3   5   36.12    0.66
   2   3   6   54.27    0.94
   2   3   7    4.22    0.33
   2   3   8    8.48    0.45
   2   4   8    0.16    0.22
   2   4   7    2.99    0.56
   2   4   6   10.21    0.46
   2   4   5   16.17    0.51
   2   4   4   91.15    1.11
   2   4   3    8.24    0.34
   2   4   2   45.99    0.69
   2   4   1   13.77    0.37
   2   4   0   13.50    0.36
   2   5   0  264.83    1.80
   2   5   1   42.28    0.75
   2   5   2  247.42    1.85
   2   5   3   60.80    0.95
   2   5   4   38.21    0.77
   2   5   5   14.70    0.69
   2   5   6    0.07    0.20
   2   5   7   19.48    0.83
   2   6   5    1.86    0.28
   2   6   4    3.30    0.33
   2   6   3   17.48    0.56
   2   6   2    4.51    0.31
   2   6   1    9.95    0.41
   2   6   0  237.36    1.87
   2   7   0    4.02    0.31
   2   7   1   23.51    0.66
   2   7   2   -0.10    0.19
   2   7   3    1.73    0.28
   2   7   4    2.69    0.35
   2   8   1    0.27    0.21
   2   8   0    1.37    0.29
   3   7   2   -0.13    0.21
   3   7   1   19.59    0.67
   3   7   0    7.73    0.45
   3   6   0   29.42    0.75
   3   6   1    0.09    0.18
   3   6   2    0.72    0.23
   3   6   3   -0.07    0.20
   3   6   4   37.95    0.93
   3   5   5    1.17    0.25
   3   5   4    0.94    0.23
   3   5   3   13.65    0.50
   3   5   2    6.18    0.34
   3   5   1    0.11    0.15
   3   5   0   19.46    0.51
   3   4   0   22.89    0.50
   3   4   1   12.97    0.41
   3   4   2   18.64    0.49
   3   4   3   10.06    0.40
   3   4   4   11.92    0.48
   3   4   5    0.00    0.18
   3   4   6    0.18    0.20
   3   3   7    4.09    0.36
   3   3   6    0.32    0.18
   3   3   5   10.52    0.43
   3   3   4   42.53    0.76
   3   3   3   10.85    0.39
   3   3   2    1.12    0.17
   3   3   1   57.19    0.75
   3   3   0    9.47    0.32
   3   2   0    0.68    0.11
   3   2   1   14.10    0.34
   3   2   2    0.55    0.13
   3   2   3   32.44    0.58
   3   2   4    1.62    0.20
   3   2   5    0.19    0.15
   3   2   6   30.89    0.78
   3   2   7   17.86    0.59
   3   2   8    0.69    0.51
   3   1   8   19.23    0.76
   3   1   7   21.22    0.72
   3   1   6    5.64    0.32
   3   1   5    6.88    0.31
   3   1   4    4.55    0.25
   3   1   3    0.20    0.12
   3   1   2    3.28    0.18
   3   1   1  248.42    1.44
   3   1   0    0.05    0.09
   3   0   0   87.52    0.73
   3   0   1   77.82    0.72
   3   0   2    4.51    0.19
   3   0   3  115.47    0.99
   3   0   4    6.01    0.26
   3   0   5    0.30    0.15
   3   0   6   22.39    0.57
   3   0   7    2.25    0.26
   3   0   8    4.61    0.37
   3  -1   8    3.57    0.31
   3  -1   7    0.81    0.19
   3  -1   6    0.65    0.17
   3  -1   5   37.24    0.65
   3  -1   4   31.72    0.58
   3  -1   3    1.87    0.16
   3  -1   2   39.80    0.51
   3  -1   1    2.89    0.16
   3  -2   1    0.50    0.10
   3  -2   2   44.21    0.55
   3  -2   3    9.77    0.29
   3  -2   4    1.49    0.16
   3  -2   5    4.69    0.28
   3  -2   6   -0.11    0.13
   3  -2   7    0.30    0.17
   3  -2   8    9.00    0.46
   3  -3   8    7.53    0.64
   3  -3   7    8.85    0.42
   3  -3   6    1.05    0.19
   3  -3   5    0.79    0.17
   3  -3   4    6.70    0.29
   3  -3   3   94.64    0.92
   3  -3   2    3.03    0.17
   3  -3   1   35.28    0.49
   3  -4   1    1.01    0.14
   3  -4   2    2.19    0.27
   3  -4   3    1.71    0.18
   3  -4   4    0.31    0.13
   3  -4   5    0.02    0.13
   3  -4   6    5.96    0.35
   3  -4   7    3.36    0.30
   3  -4   8    0.21    0.18
   3  -5   7    1.08    0.22
   3  -5   6   20.07    0.60
   3  -5   5   19.63    0.56
   3  -5   4    0.18    0.13
   3  -5   3   12.39    0.40
   3  -5   2  145.74    1.27
   3  -5   1   13.32    0.36
   3  -6   1   23.89    0.59
   3  -6   2   55.71    0.87
   3  -6   3    1.80    0.21
   3  -6   4    0.22    0.14
   3  -6   5   24.91    0.75
   3  -6   6    2.59    0.29
   3  -6   7    2.54    0.32
   3  -7   6    0.24    0.21
   3  -7   5   14.29    0.66
   3  -7   4    0.16    0.18
   3  -7   3    3.40    0.28
   3  -7   2  225.13    1.92
   3  -7   1   19.02    0.61
   3  -8   1    1.33    0.23
   3  -8   2   69.27    1.15
   3  -8   3   37.86    0.93
   3  -8   4   85.71    1.40
   3  -9   2    0.57    0.22
   3  -9   1    3.75    0.34
   4  -8   3    1.46    0.27
   4  -8   2   56.02    1.12
   4  -8   1    1.30    0.25
   4  -7   1    0.24    0.15
   4  -7   2    3.51    0.29
   4  -7   3   -0.02    0.17
   4  -7   4    1.87    0.28
   4  -7   5    0.27    0.19
   4  -6   6    0.46    0.21
   4  -6   5    8.10    0.44
   4  -6   4    0.02    0.16
   4  -6   3    2.38    0.25
   4  -6   2   10.37    0.42
   4  -6   1   45.54    0.82
   4  -5   1   21.59    0.59
   4  -5   2    2.47    0.21
   4  -5   3    8.26    0.36
   4  -5   4   -0.10    0.15
   4  -5   5    0.46    0.18
   4  -5   6    3.27    0.30
   4  -4   7   14.40    0.73
   4  -4   6    0.33    0.19
   4  -4   5    0.13    0.15
   4  -4   4    2.41    0.23
   4  -4   3   56.09    0.88
   4  -4   2   55.73    0.78
   4  -4   1   32.59    0.56
   4  -3   1   75.58    0.82
   4  -3   2    2.38    0.20
   4  -3   3    1.82    0.20
   4  -3   4   71.33    0.99
   4  -3   5    3.71    0.28
   4  -3   6   95.08    1.33
   4  -3   7    1.59    0.28
   4  -2   7    0.00    0.20
   4  -2   6   87.28    1.24
   4  -2   5   16.63    0.51
   4  -2   4    2.94    0.23
   4  -2   3  123.67    1.18
   4  -2   2   52.58    0.69
   4  -2   1    2.22    0.17
   4  -1   1    0.00    0.10
   4  -1   2    5.71    0.26
   4  -1   3   14.66    0.41
   4  -1   4   35.29    0.74
   4  -1   5   16.78    0.51
   4  -1   6   24.19    0.73
   4  -1   7    1.98    0.27
   4   0   7   40.33    0.99
   4   0   6   13.49    0.52
   4   0   5    2.56    0.26
   4   0   4  109.87    1.23
   4   0   3    2.76    0.23
   4   0   2   32.44    0.56
   4   0   1   28.07    0.50
   4   0   0   82.60    0.85
   4   1   0    6.58    0.26
   4   1   1   98.83    1.00
   4   1   2   17.15    0.44
   4   1   3    0.96    0.17
   4   1   4   34.21    0.68
   4   1   5   72.83    1.12
   4   1   6   29.61    0.82
   4   1   7    0.97    0.24
   4   2   6    0.47    0.20
   4   2   5    2.05    0.27
   4   2   4   43.26    0.88
   4   2   3   10.43    0.39
   4   2   2   36.41    0.66
   4   2   1    1.37    0.17
   4   2   0   16.80    0.43
   4   3   0   15.35    0.43
   4   3   1    0.42    0.16
   4   3   2   67.16    0.96
   4   3   3   13.17    0.49
   4   3   4    0.33    0.18
   4   3   5    4.78    0.37
   4   3   6    0.62    0.24
   4   4   5    9.78    0.51
   4   4   4   -0.25    0.17
   4   4   3    5.65    0.36
   4   4   2    0.04    0.17
   4   4   1    2.01    0.24
   4   4   0  106.19    1.26
   4   5   0    1.39    0.24
   4   5   1    2.56    0.27
   4   5   2    0.72    0.21
   4   5   3   16.36    0.61
   4   6   2    1.76    0.30
   4   6   1    0.72    0.23
   4   6   0    0.35    0.20
   5   5   1    8.18    0.48
   5   5   0    0.13    0.21
   5   4   0    0.99    0.23
   5   4   1    5.07    0.38
   5   4   2    3.43    0.33
   5   4   3    1.84    0.30
   5   3   4    1.65    0.29
   5   3   3    0.17    0.20
   5   3   2   17.87    0.71
   5   3   1   10.39    0.46
   5   3   0   12.85    0.48
   5   2   0   14.34    0.58
   5   2   1    0.30    0.18
   5   2   2   16.57    0.53
   5   2   3    7.96    0.41
   5   2   4    2.94    0.32
   5   2   5    0.46    0.22
   5   1   5   11.08    0.64
   5   1   4    2.27    0.28
   5   1   3    5.79    0.34
   5   1   2   12.97    0.45
   5   1   1   37.90    0.72
   5   1   0    0.14    0.14
   5   0   0  140.09    1.31
   5   0   1  110.31    1.20
   5   0   2    2.24    0.24
   5   0   3    0.51    0.18
   5   0   4    0.53    0.20
   5   0   5   26.06    0.80
   5   0   6    1.80    0.30
   5  -1   6    0.21    0.21
   5  -1   5    0.83    0.24
   5  -1   4   35.82    0.84
   5  -1   3   12.86    0.45
   5  -1   2  142.45    1.40
   5  -1   1  256.24    1.84
   5  -2   1   26.98    0.64
   5  -2   2   41.87    0.80
   5  -2   3  101.33    1.26
   5  -2   4   68.64    1.10
   5  -2   5   13.57    0.52
   5  -2   6    1.39    0.26
   5  -3   6   99.78    1.54
   5  -3   5    6.43    0.41
   5  -3   4   73.58    1.14
   5  -3   3   59.69    1.01
   5  -3   2   58.43    0.91
   5  -3   1   20.08    0.56
   5  -4   1   23.71    0.55
   5  -4   2    2.14    0.24
   5  -4   3   30.72    0.76
   5  -4   4    4.66    0.34
   5  -4   5   -0.12    0.17
   5  -5   5    0.94    0.26
   5  -5   4    1.96    0.27
   5  -5   3   11.48    0.47
   5  -5   2    8.33    0.53
   5  -5   1    0.66    0.18
   5  -6   1    0.39    0.17
   5  -6   2    6.97    0.39
   5  -6   3   10.45    0.49
   5  -6   4    0.21    0.18
   5  -7   3    0.61    0.24
   5  -7   2   -0.13    0.18
   5  -7   1    1.45    0.24
   5  -8   1    0.35    0.22
   6  -6   2    3.48    0.35
   6  -6   1   42.06    0.96
   6  -5   1   17.31    0.59
   6  -5   2    0.05    0.17
   6  -5   3    0.82    0.24
   6  -4   4    3.60    0.35
   6  -4   3    2.16    0.30
   6  -4   2    3.75    0.31
   6  -4   1   17.27    0.69
   6  -3   1    6.74    0.37
   6  -3   2   20.60    0.64
   6  -3   3    1.44    0.46
   6  -3   4    1.42    0.26
   6  -2   4    0.26    0.21
   6  -2   3    3.86    0.34
   6  -2   2   14.01    0.52
   6  -2   1   24.45    0.76
   6  -1   1   12.95    0.47
   6  -1   2    1.74    0.25
   6  -1   3    3.06    0.29
   6  -1   4    3.33    0.58
   6   0   4    9.07    0.48
   6   0   3    1.82    0.27
   6   0   2    0.46    0.19
   6   0   1    1.03    0.22
   6   0   0   33.51    0.79
   6   1   0    0.39    0.20
   6   1   1   31.75    0.76
   6   1   2   23.76    0.83
   6   1   3    1.38    0.26
   6   2   2    4.94    0.39
   6   2   1   13.28    0.73
   6   2   0   24.80    0.70
   6   3   0    6.97    0.43
   6   3   1   15.97    0.61
   7   1   0   -0.03    0.21
   7   0   0   -0.15    0.21
   7   0   1    7.17    0.46
   7  -1   1    0.47    0.24
   7  -2   1    0.34    0.21
   7  -3   1   21.26    0.71
   7  -4   1    0.43    0.21
   7  -5  -5    0.66    0.24
   7  -5  -4    2.62    0.28
   7  -5  -3    0.15    0.18
   7  -5  -2    1.13    0.23
   7  -5  -1    6.97    0.42
   7  -5   0    2.21    0.30
   7  -4   0    1.93    0.28
   7  -4  -1    1.27    0.25
   7  -4  -2    1.15    0.25
   7  -4  -3   14.11    0.68
   7  -4  -4    9.47    0.47
   7  -4  -5    5.28    0.38
   7  -4  -6    0.16    0.18
   7  -4  -7    0.35    0.22
   7  -3  -7    7.72    0.58
   7  -3  -6   43.99    1.00
   7  -3  -5    0.49    0.19
   7  -3  -4   12.93    0.52
   7  -3  -3    8.66    0.45
   7  -3  -2   -0.05    0.17
   7  -3  -1    2.38    0.29
   7  -3   0    0.55    0.23
   7  -2   0   19.50    0.72
   7  -2  -1   13.06    0.53
   7  -2  -2    0.12    0.19
   7  -2  -3    0.56    0.21
   7  -2  -4    3.09    0.30
   7  -2  -5    4.77    0.33
   7  -2  -6   22.18    0.76
   7  -2  -7    0.46    0.21
   7  -2  -8   19.43    0.81
   7  -1  -8   23.33    0.84
   7  -1  -7    3.53    0.33
   7  -1  -6    0.27    0.20
   0   0   0    0.00    0.00
;
_shelx_hkl_checksum              94254
loop_
_space_group_symop_operation_xyz
'x, y, z'
'-x, -y, -z'
loop_
_atom_site_label
_atom_site_type_symbol
_atom_site_fract_x
_atom_site_fract_y
_atom_site_fract_z
_atom_site_U_iso_or_equiv
_atom_site_adp_type
_atom_site_occupancy
_atom_site_site_symmetry_order
_atom_site_calc_flag
_atom_site_refinement_flags_posn
_atom_site_refinement_flags_adp
N1 N 0.16466(17) 0.83326(14) 0.16160(12) 0.0266(3) Uani 1 1 d . .
C3 C 0.7615(2) 0.99422(16) 0.30402(13) 0.0233(3) Uani 1 1 d . .
H3 H 0.8886 0.9575 0.3045 0.028 Uiso 1 1 calc R U
C6 C 0.3837(2) 1.10440(17) 0.30525(14) 0.0275(3) Uani 1 1 d . .
H6 H 0.2562 1.1401 0.3055 0.033 Uiso 1 1 calc R U
C2 C 0.5575(2) 0.89109(16) 0.23814(13) 0.0227(3) Uani 1 1 d . .
N2 N 1.15451(19) 1.35850(15) 0.48148(13) 0.0347(3) Uani 1 1 d . .
C7 C 0.9863(2) 1.26788(16) 0.43343(14) 0.0257(3) Uani 1 1 d . .
C1 C 0.3699(2) 0.94706(16) 0.23855(13) 0.0233(3) Uani 1 1 d . .
C5 C 0.5870(2) 1.20900(17) 0.37168(14) 0.0270(3) Uani 1 1 d . .
H5 H 0.5984 1.3160 0.4176 0.032 Uiso 1 1 calc R U
C4 C 0.7751(2) 1.15438(16) 0.37006(13) 0.0232(3) Uani 1 1 d . .
C8 C 0.1592(2) 0.66215(17) 0.22249(15) 0.0318(3) Uani 1 1 d . .
H8A H 0.0267 0.5805 0.1666 0.038 Uiso 1 1 calc R U
H8B H 0.1528 0.6730 0.3200 0.038 Uiso 1 1 calc R U
C9 C 0.1676(2) 0.80975(18) 0.01207(14) 0.0320(3) Uani 1 1 d . .
H9A H 0.1711 0.9206 -0.0308 0.038 Uiso 1 1 calc R U
H9B H 0.0331 0.7294 -0.0428 0.038 Uiso 1 1 calc R U
C11 C 0.3665(2) 0.73977(18) 0.00314(15) 0.0332(3) Uani 1 1 d . .
H11A H 0.3170 0.6283 -0.0524 0.040 Uiso 1 1 calc R U
H11B H 0.4538 0.8201 -0.0436 0.040 Uiso 1 1 calc R U
C10 C 0.3606(2) 0.59034(17) 0.22355(16) 0.0331(3) Uani 1 1 d . .
H10A H 0.4430 0.5751 0.3214 0.040 Uiso 1 1 calc R U
H10B H 0.3141 0.4781 0.1693 0.040 Uiso 1 1 calc R U
C12 C 0.5050(2) 0.71922(16) 0.15608(14) 0.0280(3) Uani 1 1 d . .
H12 H 0.6391 0.6807 0.1569 0.034 Uiso 1 1 calc R U
loop_
_atom_site_aniso_label
_atom_site_aniso_U_11
_atom_site_aniso_U_22
_atom_site_aniso_U_33
_atom_site_aniso_U_23
_atom_site_aniso_U_13
_atom_site_aniso_U_12
N1 0.0219(6) 0.0256(6) 0.0294(6) 0.0007(5) 0.0059(5) 0.0018(4)
C3 0.0224(6) 0.0225(6) 0.0257(7) 0.0032(5) 0.0078(5) 0.0060(5)
C6 0.0245(7) 0.0285(7) 0.0317(7) 0.0003(5) 0.0103(6) 0.0085(5)
C2 0.0236(6) 0.0213(6) 0.0235(6) 0.0031(5) 0.0078(5) 0.0050(5)
N2 0.0294(7) 0.0275(6) 0.0428(7) -0.0039(5) 0.0068(5) 0.0027(5)
C7 0.0292(7) 0.0214(6) 0.0269(7) 0.0009(5) 0.0083(6) 0.0073(6)
C1 0.0227(6) 0.0241(6) 0.0225(6) 0.0032(5) 0.0075(5) 0.0033(5)
C5 0.0315(7) 0.0233(7) 0.0270(7) -0.0014(5) 0.0094(6) 0.0069(5)
C4 0.0242(7) 0.0221(6) 0.0215(6) 0.0028(5) 0.0056(5) 0.0029(5)
C8 0.0280(7) 0.0277(7) 0.0359(8) 0.0031(6) 0.0097(6) -0.0018(6)
C9 0.0299(7) 0.0331(7) 0.0268(7) 0.0002(6) 0.0022(6) 0.0028(6)
C11 0.0349(8) 0.0315(7) 0.0307(7) -0.0069(6) 0.0107(6) 0.0006(6)
C10 0.0307(7) 0.0223(7) 0.0403(8) 0.0031(6) 0.0043(6) 0.0021(6)
C12 0.0246(7) 0.0229(7) 0.0355(8) -0.0029(5) 0.0082(6) 0.0044(5)
loop_
_atom_type_symbol
_atom_type_description
_atom_type_scat_dispersion_real
_atom_type_scat_dispersion_imag
_atom_type_scat_source
C C 0.0033 0.0016 'International Tables Vol C Tables 4.2.6.8 and 6.1.1.4'
H H 0.0000 0.0000 'International Tables Vol C Tables 4.2.6.8 and 6.1.1.4'
N N 0.0061 0.0033 'International Tables Vol C Tables 4.2.6.8 and 6.1.1.4'
loop_
_geom_angle_atom_site_label_1
_geom_angle_atom_site_label_2
_geom_angle_atom_site_label_3
_geom_angle
C1 N1 C8 107.94(10)
C1 N1 C9 106.68(10)
C8 N1 C9 107.33(11)
C2 C3 C4 118.81(12)
C2 C3 H3 120.6
C4 C3 H3 120.6
C1 C6 C5 119.46(12)
C1 C6 H6 120.3
C5 C6 H6 120.3
C3 C2 C1 120.01(12)
C3 C2 C12 127.68(12)
C1 C2 C12 112.26(11)
N2 C7 C4 178.81(14)
C6 C1 C2 121.12(12)
C6 C1 N1 123.10(12)
C2 C1 N1 115.75(11)
C6 C5 C4 119.59(12)
C6 C5 H5 120.2
C4 C5 H5 120.2
C5 C4 C3 121.00(12)
C5 C4 C7 119.25(11)
C3 C4 C7 119.72(11)
N1 C8 C10 112.31(11)
N1 C8 H8A 109.1
C10 C8 H8A 109.1
N1 C8 H8B 109.1
C10 C8 H8B 109.1
H8A C8 H8B 107.9
N1 C9 C11 112.33(11)
N1 C9 H9A 109.1
C11 C9 H9A 109.1
N1 C9 H9B 109.1
C11 C9 H9B 109.1
H9A C9 H9B 107.9
C12 C11 C9 108.11(11)
C12 C11 H11A 110.1
C9 C11 H11A 110.1
C12 C11 H11B 110.1
C9 C11 H11B 110.1
H11A C11 H11B 108.4
C12 C10 C8 108.36(11)
C12 C10 H10A 110.0
C8 C10 H10A 110.0
C12 C10 H10B 110.0
C8 C10 H10B 110.0
H10A C10 H10B 108.4
C2 C12 C10 107.24(11)
C2 C12 C11 107.01(11)
C10 C12 C11 107.79(11)
C2 C12 H12 111.5
C10 C12 H12 111.5
C11 C12 H12 111.5
loop_
_geom_bond_atom_site_label_1
_geom_bond_atom_site_label_2
_geom_bond_distance
N1 C1 1.4469(17)
N1 C8 1.4902(18)
N1 C9 1.4933(18)
C3 C2 1.3832(18)
C3 C4 1.4009(18)
C3 H3 0.9400
C6 C1 1.3836(19)
C6 C5 1.3860(19)
C6 H6 0.9400
C2 C1 1.3970(18)
C2 C12 1.5058(18)
N2 C7 1.1494(18)
C7 C4 1.4460(19)
C5 C4 1.3978(19)
C5 H5 0.9400
C8 C10 1.545(2)
C8 H8A 0.9800
C8 H8B 0.9800
C9 C11 1.548(2)
C9 H9A 0.9800
C9 H9B 0.9800
C11 C12 1.546(2)
C11 H11A 0.9800
C11 H11B 0.9800
C10 C12 1.542(2)
C10 H10A 0.9800
C10 H10B 0.9800
C12 H12 0.9900
loop_
_geom_torsion_atom_site_label_1
_geom_torsion_atom_site_label_2
_geom_torsion_atom_site_label_3
_geom_torsion_atom_site_label_4
_geom_torsion
C4 C3 C2 C1 -0.16(18)
C4 C3 C2 C12 177.16(12)
C5 C6 C1 C2 0.60(19)
C5 C6 C1 N1 -177.30(11)
C3 C2 C1 C6 -0.61(19)
C12 C2 C1 C6 -178.32(11)
C3 C2 C1 N1 177.43(10)
C12 C2 C1 N1 -0.27(16)
C8 N1 C1 C6 -124.79(13)
C9 N1 C1 C6 120.13(13)
C8 N1 C1 C2 57.21(14)
C9 N1 C1 C2 -57.87(14)
C1 C6 C5 C4 0.17(19)
C6 C5 C4 C3 -0.94(19)
C6 C5 C4 C7 176.94(11)
C2 C3 C4 C5 0.93(18)
C2 C3 C4 C7 -176.95(11)
C1 N1 C8 C10 -54.17(14)
C9 N1 C8 C10 60.48(14)
C1 N1 C9 C11 56.60(14)
C8 N1 C9 C11 -58.89(14)
N1 C9 C11 C12 -1.11(15)
N1 C8 C10 C12 -1.47(15)
C3 C2 C12 C10 125.14(13)
C1 C2 C12 C10 -57.37(14)
C3 C2 C12 C11 -119.42(14)
C1 C2 C12 C11 58.07(14)
C8 C10 C12 C2 55.88(14)
C8 C10 C12 C11 -59.04(14)
C9 C11 C12 C2 -54.69(14)
C9 C11 C12 C10 60.38(14)
