#------------------------------------------------------------------------------
#$Date: 2016-02-04 23:00:40 +0200 (Thu, 04 Feb 2016) $
#$Revision: 175856 $
#$URL: svn://www.crystallography.net/cod/cif/1/54/07/1540717.cif $
#------------------------------------------------------------------------------
#
# This file is available in the Crystallography Open Database (COD),
# http://www.crystallography.net/
#
# All data on this site have been placed in the public domain by the
# contributors.
#
data_1540717
loop_
_publ_author_name
'Mallick, Suman'
'Chandra, Falguni'
'Koner, Apurba L.'
_publ_section_title
;
 A ratiometric fluorescent probe for detection of biogenic primary amines
 with nanomolar sensitivity.
;
_journal_issue                   3
_journal_name_full               'The Analyst'
_journal_page_first              827
_journal_page_last               831
_journal_paper_doi               10.1039/c5an01911g
_journal_volume                  141
_journal_year                    2016
_chemical_formula_sum            'C14 H11 N O3'
_chemical_formula_weight         241.24
_chemical_name_systematic
;
 ?
;
_space_group_crystal_system      triclinic
_space_group_IT_number           2
_space_group_name_Hall           '-P 1'
_space_group_name_H-M_alt        'P -1'
_symmetry_space_group_name_Hall  '-P 1'
_symmetry_space_group_name_H-M   'P -1'
_atom_sites_solution_hydrogens   geom
_audit_creation_method           SHELXL-2014
_cell_angle_alpha                76.992(3)
_cell_angle_beta                 76.986(3)
_cell_angle_gamma                86.369(4)
_cell_formula_units_Z            2
_cell_length_a                   6.9160(7)
_cell_length_b                   8.3188(8)
_cell_length_c                   10.4144(9)
_cell_measurement_reflns_used    2002
_cell_measurement_temperature    218(2)
_cell_measurement_theta_max      24.987
_cell_measurement_theta_min      2.882
_cell_volume                     568.75(9)
_computing_cell_refinement       'Bruker XSCANS'
_computing_data_collection       'Bruker XSCANS'
_computing_data_reduction        'Bruker SHELXTL'
_computing_structure_refinement  'SHELXL-2013 (Sheldrick, 2013)'
_computing_structure_solution    'SHELXL-2013 (Sheldrick, 2013)'
_diffrn_ambient_temperature      218(2)
_diffrn_measured_fraction_theta_full 0.973
_diffrn_measured_fraction_theta_max 0.999
_diffrn_measurement_device_type  'Bruker P4'
_diffrn_measurement_method       '\w scans'
_diffrn_radiation_type           MoK\a
_diffrn_radiation_wavelength     0.71073
_diffrn_reflns_av_unetI/netI     0.0184
_diffrn_reflns_laue_measured_fraction_full 0.973
_diffrn_reflns_laue_measured_fraction_max 0.999
_diffrn_reflns_point_group_measured_fraction_full 0.973
_diffrn_reflns_point_group_measured_fraction_max 0.999
_diffrn_reflns_theta_full        25.242
_diffrn_reflns_theta_max         24.987
_diffrn_reflns_theta_min         2.882
_diffrn_source                   'sealed tube'
_exptl_absorpt_coefficient_mu    0.100
_exptl_absorpt_correction_T_max  0.985
_exptl_absorpt_correction_T_min  0.963
_exptl_absorpt_correction_type   multi-scan
_exptl_absorpt_process_details   SADABS
_exptl_crystal_colour            Yellow
_exptl_crystal_density_diffrn    1.409
_exptl_crystal_description       Needle
_exptl_crystal_F_000             252
_exptl_crystal_size_max          0.250
_exptl_crystal_size_mid          0.120
_exptl_crystal_size_min          0.090
_refine_diff_density_max         0.170
_refine_diff_density_min         -0.159
_refine_diff_density_rms         0.039
_refine_ls_extinction_method     none
_refine_ls_goodness_of_fit_ref   1.077
_refine_ls_hydrogen_treatment    constr
_refine_ls_matrix_type           full
_refine_ls_number_parameters     163
_refine_ls_number_reflns         2002
_refine_ls_number_restraints     0
_refine_ls_restrained_S_all      1.077
_refine_ls_R_factor_all          0.0516
_refine_ls_R_factor_gt           0.0398
_refine_ls_shift/su_max          0.000
_refine_ls_shift/su_mean         0.000
_refine_ls_structure_factor_coef Fsqd
_refine_ls_weighting_details
'w=1/[\s^2^(Fo^2^)+(0.0576P)^2^+0.1522P] where P=(Fo^2^+2Fc^2^)/3'
_refine_ls_weighting_scheme      calc
_refine_ls_wR_factor_gt          0.1103
_refine_ls_wR_factor_ref         0.1182
_reflns_Friedel_coverage         0.000
_reflns_number_gt                1582
_reflns_number_total             2002
_reflns_threshold_expression     'I > 2\s(I)'
_cod_data_source_file            c5an01911g2.cif
_cod_data_source_block           shelx
_cod_depositor_comments          'Adding full bibliography for 1540717.cif.'
_cod_database_code               1540717
_shelx_space_group_comment
;
The symmetry employed for this shelxl refinement is uniquely defined
by the following loop, which should always be used as a source of
symmetry information in preference to the above space-group names.
They are only intended as comments.
;
_shelx_estimated_absorpt_t_min   0.975
_shelx_estimated_absorpt_t_max   0.991
_shelxl_version_number           2014-3
_shelx_res_file
;
TITL suman in P-1
CELL  0.71073   6.9160   8.3188  10.4144   76.992   76.986   86.369
ZERR     2.00   0.0007   0.0008   0.0009    0.003    0.003    0.004
LATT   1
SFAC  C    H    N    O
UNIT  28   22   2    6
MERG   2
OMIT     -2.00 50.00
ACTA
CONF
HTAB
FMAP   2
PLAN   20
BOND   $H
SIZE 0.25 0.12 0.09
L.S.   10
WGHT    0.057600    0.152200
FVAR       0.21312
MOLE    1
C1    1    0.178103    0.376052    0.940817    11.00000    0.04709    0.04313 =
         0.03769   -0.00498   -0.00525   -0.00559
C2    1   -0.005274    0.382747    0.781436    11.00000    0.04107    0.04267 =
         0.04129   -0.00544   -0.00717   -0.00314
C3    1    0.164879    0.491757    0.718656    11.00000    0.03595    0.03710 =
         0.03776   -0.00805   -0.00581   -0.00119
C4    1    0.278372    0.485207    0.816357    11.00000    0.04072    0.03848 =
         0.03598   -0.00728   -0.00572   -0.00213
C5    1    0.451618    0.569262    0.786763    11.00000    0.04253    0.04555 =
         0.03696   -0.00760   -0.01207   -0.00242
AFIX  43
H5    2    0.525932    0.563447    0.851847    11.00000   -1.20000
AFIX   0
C6    1    0.515079    0.664773    0.655693    11.00000    0.03741    0.03768 =
         0.03895   -0.00859   -0.00616   -0.00172
C7    1    0.398897    0.674774    0.555854    11.00000    0.03655    0.03414 =
         0.03643   -0.00878   -0.00539    0.00099
C8    1    0.219467    0.583609    0.590982    11.00000    0.03760    0.04029 =
         0.03708   -0.00784   -0.01014   -0.00099
AFIX  43
H8    2    0.141935    0.586991    0.528114    11.00000   -1.20000
AFIX   0
C9    1    0.464007    0.770893    0.425575    11.00000    0.04373    0.03923 =
         0.03662   -0.00573   -0.00736   -0.00178
AFIX  43
H9    2    0.386096    0.778336    0.362353    11.00000   -1.20000
AFIX   0
C10   1    0.641977    0.855334    0.388478    11.00000    0.04534    0.03542 =
         0.04140   -0.00586   -0.00178   -0.00326
C11   1    0.756378    0.842607    0.488656    11.00000    0.04238    0.04663 =
         0.05154   -0.00816   -0.00426   -0.01154
AFIX  43
H11   2    0.876139    0.897899    0.466219    11.00000   -1.20000
AFIX   0
C12   1    0.695113    0.752297    0.615213    11.00000    0.04159    0.04888 =
         0.04571   -0.00810   -0.01151   -0.00798
AFIX  43
H12   2    0.773762    0.747547    0.677627    11.00000   -1.20000
AFIX   0
C13   1    0.888060    1.042332    0.223958    11.00000    0.06924    0.05351 =
         0.06260    0.00146    0.00637   -0.02100
AFIX  33
H13A  2    0.911292    1.095251    0.129985    11.00000   -1.50000
H13B  2    0.871540    1.124555    0.277266    11.00000   -1.50000
H13C  2    0.999231    0.972036    0.240826    11.00000   -1.50000
AFIX   0
C14   1    0.584746    0.972616    0.162267    11.00000    0.08450    0.06597 =
         0.04342    0.00330   -0.00933   -0.00726
AFIX  33
H14A  2    0.655225    1.036741    0.078018    11.00000   -1.50000
H14B  2    0.549600    0.868609    0.149093    11.00000   -1.50000
H14C  2    0.466479    1.031176    0.195063    11.00000   -1.50000
AFIX   0
N1    3    0.710034    0.944402    0.259897    11.00000    0.06207    0.05803 =
         0.04288    0.00521   -0.00294   -0.01757
O1    4    0.007998    0.317124    0.915325    11.00000    0.04746    0.05171 =
         0.04184    0.00016   -0.00529   -0.01337
O2    4    0.214725    0.334062    1.050393    11.00000    0.07244    0.07120 =
         0.03837    0.00446   -0.01503   -0.01981
O3    4   -0.137626    0.344883    0.738702    11.00000    0.04796    0.06929 =
         0.06061   -0.00167   -0.01662   -0.02010
HKLF    4

REM  suman in P-1
REM R1 =  0.0398 for    1582 Fo > 4sig(Fo)  and  0.0516 for all    2002 data
REM    163 parameters refined using      0 restraints

END

WGHT      0.0573      0.1231

REM Instructions for potential hydrogen bonds
EQIV $1 -x, -y+1, -z+1
HTAB C9 O3_$1
EQIV $2 x+1, y+1, z-1
HTAB C13 O1_$2

REM Highest difference peak  0.170,  deepest hole -0.159,  1-sigma level  0.039
Q1    1   0.4658  0.6623  0.6013  11.00000  0.05    0.17
Q2    1   0.4337  0.6936  0.6162  11.00000  0.05    0.16
Q3    1   0.2367  0.4616  0.7631  11.00000  0.05    0.14
Q4    1   0.1913  0.5107  0.7811  11.00000  0.05    0.14
Q5    1   0.9779  1.0153  0.1238  11.00000  0.05    0.13
Q6    1   0.3931  0.7379  0.3565  11.00000  0.05    0.12
Q7    1   0.2403  0.4617  0.8698  11.00000  0.05    0.11
Q8    1   0.6989  0.9271  0.0656  11.00000  0.05    0.11
Q9    1  -0.3093  0.4022  0.7751  11.00000  0.05    0.11
Q10   1   0.8556  1.1633  0.1792  11.00000  0.05    0.11
Q11   1   0.0885  0.4422  0.7370  11.00000  0.05    0.10
Q12   1   0.7196  0.8123  0.4255  11.00000  0.05    0.10
Q13   1   0.4618  0.6795  0.4859  11.00000  0.05    0.10
Q14   1   0.3249  0.6094  0.5730  11.00000  0.05    0.10
Q15   1   0.8393  0.6704  0.6614  11.00000  0.05    0.10
Q16   1   0.5159  0.6098  0.6889  11.00000  0.05    0.09
Q17   1   0.7584  0.7651  0.7227  11.00000  0.05    0.09
Q18   1   0.5258  1.1027  0.1292  11.00000  0.05    0.09
Q19   1   0.4569  0.6506  0.7138  11.00000  0.05    0.09
Q20   1   0.9684  0.8473  0.4757  11.00000  0.05    0.09
;
_shelx_res_checksum              59170
_shelx_hkl_file
;
   1   0   0    1.19    0.01
   2   0   0    3.28    0.03
   3   0   0    5.87    0.06
   4   0   0    7.10    0.08
   5   0   0    1.49    0.03
   6   0   0    1.44    0.04
   7   0   0    1.26    0.05
   8   0   0    0.33    0.05
  -8   1   0    0.10    0.05
  -7   1   0    0.03    0.03
  -6   1   0    0.36    0.02
  -5   1   0    2.19    0.04
  -4   1   0    0.23    0.01
  -3   1   0    1.35    0.02
  -2   1   0    1.20    0.01
  -1   1   0    1.84    0.02
   1   1   0   77.39    0.77
   2   1   0    1.99    0.03
   3   1   0   90.10    0.80
   4   1   0   13.93    0.14
   5   1   0    5.17    0.06
   6   1   0    4.23    0.06
   7   1   0    0.98    0.04
   8   1   0    0.02    0.04
  -7   2   0    0.15    0.04
  -6   2   0    0.14    0.02
  -5   2   0    0.13    0.01
  -4   2   0    0.45    0.02
  -3   2   0    0.00    0.01
  -2   2   0   35.02    0.33
  -1   2   0   26.71    0.26
   0   2   0    0.68    0.01
   1   2   0   10.23    0.10
   2   2   0    1.27    0.02
   3   2   0    4.49    0.06
   4   2   0    2.16    0.03
   5   2   0    0.14    0.01
   6   2   0    0.19    0.02
   7   2   0    1.60    0.05
  -7   3   0    0.06    0.03
  -6   3   0    0.26    0.02
  -5   3   0    0.86    0.03
  -4   3   0    0.00    0.01
  -3   3   0    0.16    0.01
  -2   3   0    3.38    0.04
  -1   3   0    9.33    0.09
   0   3   0   56.23    0.47
   1   3   0   10.62    0.10
   2   3   0   40.95    0.38
   3   3   0    0.68    0.02
   4   3   0    0.26    0.02
   5   3   0    2.24    0.04
   6   3   0    0.64    0.03
   7   3   0    0.31    0.03
  -7   4   0    2.09    0.07
  -6   4   0    0.37    0.03
  -5   4   0    0.00    0.02
  -4   4   0    1.15    0.03
  -3   4   0    0.10    0.01
  -2   4   0    1.69    0.02
  -1   4   0    2.69    0.03
   0   4   0    3.94    0.04
   1   4   0    8.19    0.08
   2   4   0    0.68    0.01
   3   4   0    4.76    0.06
   4   4   0    0.59    0.02
   5   4   0   11.81    0.13
   6   4   0    0.27    0.03
   7   4   0    0.17    0.03
  -6   5   0    0.24    0.03
  -5   5   0    0.19    0.02
  -4   5   0    2.62    0.04
  -3   5   0    0.55    0.02
  -2   5   0    0.01    0.01
  -1   5   0    0.84    0.02
   0   5   0    0.42    0.01
   1   5   0    0.08    0.01
   2   5   0    1.68    0.03
   3   5   0    0.50    0.02
   4   5   0    2.07    0.04
   5   5   0    1.39    0.04
   6   5   0    0.30    0.03
   7   5   0    0.04    0.04
  -6   6   0    0.10    0.04
  -5   6   0    0.24    0.03
  -4   6   0    0.84    0.03
  -3   6   0    0.19    0.02
  -2   6   0    0.38    0.02
  -1   6   0    0.13    0.01
   0   6   0    7.14    0.07
   1   6   0    1.16    0.02
   2   6   0    0.34    0.02
   3   6   0    0.03    0.01
   4   6   0    0.05    0.02
   5   6   0    0.52    0.03
   6   6   0    0.04    0.03
  -5   7   0    1.15    0.05
  -4   7   0    0.04    0.02
  -3   7   0    0.03    0.02
  -2   7   0   -0.01    0.01
  -1   7   0    0.03    0.02
   0   7   0    1.18    0.02
   1   7   0    1.23    0.03
   2   7   0    0.36    0.02
   3   7   0    3.48    0.06
   4   7   0    0.15    0.03
   5   7   0    0.33    0.03
  -4   8   0    0.02    0.03
  -3   8   0    0.37    0.03
  -2   8   0    2.05    0.05
  -1   8   0    0.14    0.02
   0   8   0    0.09    0.02
   1   8   0    0.10    0.02
   2   8   0    0.06    0.02
   3   8   0    0.40    0.03
   4   8   0    0.08    0.03
  -3   9   0    0.30    0.04
  -2   9   0    0.23    0.03
  -1   9   0    0.01    0.03
   0   9   0    0.14    0.03
   1   9   0    5.08    0.08
   2   9   0    3.50    0.07
   3   9   0    0.00    0.03
  -2  -9   1    0.01    0.03
  -1  -9   1    5.14    0.09
   0  -9   1    1.12    0.04
   1  -9   1    0.05    0.03
   2  -9   1    0.14    0.03
  -4  -8   1    0.04    0.03
  -3  -8   1    0.82    0.04
  -2  -8   1    2.12    0.05
  -1  -8   1    1.66    0.04
   0  -8   1    0.00    0.02
   1  -8   1   -0.01    0.02
   2  -8   1   -0.02    0.02
   3  -8   1    1.28    0.04
   4  -8   1    0.09    0.03
  -5  -7   1    0.26    0.03
  -4  -7   1    0.00    0.02
  -3  -7   1    3.48    0.06
  -2  -7   1   14.13    0.17
  -1  -7   1    0.55    0.02
   0  -7   1    0.88    0.02
   1  -7   1    0.26    0.02
   2  -7   1    1.68    0.04
   3  -7   1    0.08    0.02
   4  -7   1    0.02    0.02
   5  -7   1   -0.01    0.03
  -6  -6   1    0.06    0.03
  -5  -6   1    0.05    0.02
  -4  -6   1    0.32    0.02
  -3  -6   1    0.04    0.02
  -2  -6   1   -0.01    0.01
  -1  -6   1    0.19    0.01
   0  -6   1   -0.01    0.01
   1  -6   1    6.94    0.07
   2  -6   1    3.07    0.04
   3  -6   1    0.03    0.01
   4  -6   1    0.10    0.02
   5  -6   1    0.72    0.03
   6  -6   1    0.00    0.04
  -6  -5   1    0.19    0.03
  -5  -5   1    0.47    0.03
  -4  -5   1    3.93    0.06
  -3  -5   1    1.10    0.03
  -2  -5   1    2.89    0.03
  -1  -5   1    3.90    0.04
   0  -5   1    0.22    0.01
   1  -5   1    0.02    0.01
   2  -5   1    0.00    0.01
   3  -5   1   -0.01    0.01
   4  -5   1    6.28    0.08
   5  -5   1    1.16    0.04
   6  -5   1    0.14    0.03
  -7  -4   1    0.27    0.03
  -6  -4   1    0.93    0.04
  -5  -4   1    0.07    0.02
  -4  -4   1    0.06    0.01
  -3  -4   1    0.05    0.01
  -2  -4   1    1.37    0.02
  -1  -4   1   17.62    0.16
   0  -4   1    2.38    0.03
   1  -4   1    2.08    0.03
   2  -4   1    0.71    0.02
   3  -4   1    0.77    0.02
   4  -4   1    1.10    0.03
   5  -4   1    0.28    0.02
   6  -4   1    0.18    0.02
   7  -4   1    1.33    0.05
  -7  -3   1    0.16    0.03
  -6  -3   1    0.60    0.03
  -5  -3   1    1.32    0.03
  -4  -3   1    0.17    0.01
  -3  -3   1    1.22    0.03
  -2  -3   1    3.50    0.04
  -1  -3   1    9.97    0.09
   0  -3   1   16.20    0.15
   1  -3   1    1.33    0.02
   2  -3   1    0.01    0.01
   3  -3   1   11.60    0.12
   4  -3   1    2.54    0.04
   5  -3   1    2.09    0.04
   6  -3   1    0.64    0.03
   7  -3   1    1.08    0.04
  -7  -2   1    0.18    0.03
  -6  -2   1    9.51    0.12
  -5  -2   1    1.22    0.03
  -4  -2   1    4.90    0.06
  -3  -2   1    1.74    0.03
  -2  -2   1    7.08    0.07
  -1  -2   1    4.70    0.05
   0  -2   1   10.00    0.09
   1  -2   1   13.17    0.12
   2  -2   1    0.54    0.01
   3  -2   1    4.69    0.05
   4  -2   1    0.77    0.02
   5  -2   1    0.06    0.01
   6  -2   1    5.81    0.07
   7  -2   1    4.29    0.09
   8  -2   1    0.10    0.05
  -7  -1   1    0.30    0.03
  -6  -1   1    2.16    0.05
  -5  -1   1    0.52    0.02
  -4  -1   1    0.10    0.01
  -3  -1   1   29.85    0.28
  -2  -1   1    1.63    0.02
  -1  -1   1   93.41    0.89
   0  -1   1   28.89    0.32
   1  -1   1   12.75    0.11
   2  -1   1    2.83    0.03
   3  -1   1    0.25    0.01
   4  -1   1    2.91    0.04
   5  -1   1    1.36    0.03
   6  -1   1    0.50    0.03
   7  -1   1    1.66    0.06
   8  -1   1    0.18    0.05
  -7   0   1    0.81    0.04
  -6   0   1    0.26    0.02
  -5   0   1    0.79    0.02
  -4   0   1    1.15    0.03
  -3   0   1    0.08    0.01
  -2   0   1   13.95    0.12
  -1   0   1    0.02    0.00
   1   0   1  253.83    2.64
   2   0   1    0.26    0.01
   3   0   1    0.45    0.01
   4   0   1    0.92    0.02
   5   0   1    3.94    0.05
   6   0   1    0.86    0.03
   7   0   1    0.29    0.03
   8   0   1    0.03    0.06
  -7   1   1    1.02    0.05
  -6   1   1    1.08    0.04
  -5   1   1    2.81    0.04
  -4   1   1   33.55    0.29
  -3   1   1    0.00    0.01
  -2   1   1   18.75    0.16
  -1   1   1    7.53    0.08
   0   1   1   -0.47    0.00
   1   1   1    3.88    0.04
   2   1   1    2.63    0.03
   3   1   1    2.05    0.03
   4   1   1    5.99    0.07
   5   1   1    0.36    0.02
   6   1   1    0.47    0.02
   7   1   1    0.05    0.03
   8   1   1    0.05    0.04
  -7   2   1    0.59    0.05
  -6   2   1    0.81    0.03
  -5   2   1    2.89    0.04
  -4   2   1    3.73    0.04
  -3   2   1    1.82    0.02
  -2   2   1    3.72    0.04
  -1   2   1 1000.00   27.65
   0   2   1   33.13    0.26
   1   2   1    2.57    0.03
   2   2   1    2.18    0.03
   3   2   1    5.35    0.06
   4   2   1    1.15    0.03
   5   2   1    2.27    0.04
   6   2   1    2.27    0.04
   7   2   1    0.82    0.04
   8   2   1    0.05    0.04
  -7   3   1    0.55    0.05
  -6   3   1    0.79    0.03
  -5   3   1    0.04    0.02
  -4   3   1    0.27    0.02
  -3   3   1    0.10    0.01
  -2   3   1    0.70    0.02
  -1   3   1   82.92    0.69
   0   3   1   58.75    0.49
   1   3   1    0.38    0.01
   2   3   1   71.09    0.62
   3   3   1   36.11    0.35
   4   3   1    7.17    0.09
   5   3   1    7.42    0.09
   6   3   1    1.88    0.05
   7   3   1    0.02    0.02
  -7   4   1    0.05    0.04
  -6   4   1    0.01    0.03
  -5   4   1    0.21    0.02
  -4   4   1    0.04    0.01
  -3   4   1    2.07    0.03
  -2   4   1   11.22    0.10
  -1   4   1    0.03    0.01
   0   4   1    0.82    0.01
   1   4   1    0.60    0.01
   2   4   1    7.74    0.08
   3   4   1    3.22    0.04
   4   4   1   -0.02    0.01
   5   4   1    0.12    0.02
   6   4   1    4.30    0.07
   7   4   1    0.31    0.03
  -6   5   1    0.12    0.03
  -5   5   1   -0.04    0.02
  -4   5   1   -0.01    0.02
  -3   5   1    0.66    0.02
  -2   5   1    0.59    0.02
  -1   5   1    7.24    0.08
   0   5   1    4.60    0.05
   1   5   1   12.73    0.12
   2   5   1    0.57    0.02
   3   5   1    0.01    0.01
   4   5   1    1.33    0.03
   5   5   1    0.43    0.02
   6   5   1    0.04    0.02
   7   5   1    0.01    0.03
  -6   6   1    0.06    0.04
  -5   6   1    0.24    0.03
  -4   6   1    0.05    0.02
  -3   6   1    0.09    0.01
  -2   6   1    0.50    0.02
  -1   6   1    1.10    0.02
   0   6   1    2.83    0.04
   1   6   1    0.05    0.01
   2   6   1    0.73    0.02
   3   6   1    0.00    0.01
   4   6   1    8.53    0.09
   5   6   1    0.23    0.02
   6   6   1    0.54    0.03
  -5   7   1    0.61    0.04
  -4   7   1    0.43    0.03
  -3   7   1    0.02    0.02
  -2   7   1    0.03    0.01
  -1   7   1    0.08    0.01
   0   7   1    0.21    0.01
   1   7   1    0.71    0.02
   2   7   1    0.57    0.02
   3   7   1    1.52    0.04
   4   7   1    1.32    0.05
   5   7   1    0.15    0.02
   6   7   1    0.06    0.04
  -4   8   1   -0.02    0.03
  -3   8   1    0.00    0.02
  -2   8   1    0.02    0.02
  -1   8   1    1.84    0.04
   0   8   1    0.14    0.02
   1   8   1    0.08    0.02
   2   8   1    0.02    0.02
   3   8   1    0.00    0.02
   4   8   1    0.11    0.03
   5   8   1    0.08    0.03
  -3   9   1   -0.03    0.03
  -2   9   1    0.02    0.03
  -1   9   1    0.29    0.02
   0   9   1    0.23    0.03
   1   9   1    0.06    0.02
   2   9   1    1.77    0.06
   3   9   1    0.02    0.03
  -1  -9   2    0.11    0.03
   0  -9   2    0.78    0.05
   1  -9   2    0.30    0.03
   2  -9   2    0.05    0.05
  -3  -8   2    0.12    0.03
  -2  -8   2    0.22    0.03
  -1  -8   2    3.17    0.05
   0  -8   2    0.01    0.02
   1  -8   2   -0.03    0.03
   2  -8   2    0.11    0.03
   3  -8   2    0.05    0.03
   4  -8   2    0.01    0.04
  -4  -7   2    0.04    0.02
  -3  -7   2    0.01    0.02
  -2  -7   2   13.53    0.14
  -1  -7   2    6.06    0.08
   0  -7   2    0.59    0.02
   1  -7   2    0.58    0.03
   2  -7   2    1.52    0.05
   3  -7   2    0.04    0.02
   4  -7   2    0.01    0.02
   5  -7   2    0.05    0.03
  -5  -6   2    0.39    0.03
  -4  -6   2    1.91    0.04
  -3  -6   2    1.40    0.04
  -2  -6   2    3.21    0.04
  -1  -6   2    0.10    0.01
   0  -6   2    0.01    0.01
   1  -6   2    0.12    0.01
   2  -6   2    5.64    0.07
   3  -6   2    0.53    0.02
   4  -6   2    0.64    0.03
   5  -6   2    0.00    0.02
   6  -6   2    0.21    0.03
  -6  -5   2    0.36    0.04
  -5  -5   2    0.00    0.02
  -4  -5   2    0.84    0.03
  -3  -5   2   26.13    0.27
  -2  -5   2    3.87    0.05
  -1  -5   2    5.29    0.06
   0  -5   2    0.00    0.01
   1  -5   2    6.69    0.07
   2  -5   2    0.37    0.02
   3  -5   2   -0.01    0.01
   4  -5   2    0.04    0.01
   5  -5   2    0.98    0.04
   6  -5   2    0.13    0.03
  -6  -4   2   -0.06    0.03
  -5  -4   2    0.24    0.02
  -4  -4   2    0.36    0.02
  -3  -4   2    0.04    0.01
  -2  -4   2    2.54    0.03
  -1  -4   2    1.19    0.02
   0  -4   2   19.74    0.18
   1  -4   2   21.65    0.21
   2  -4   2    0.16    0.01
   3  -4   2    0.16    0.01
   4  -4   2    0.67    0.02
   5  -4   2    0.75    0.03
   6  -4   2   -0.03    0.02
   7  -4   2    0.05    0.04
  -7  -3   2    0.09    0.03
  -6  -3   2    0.31    0.03
  -5  -3   2    1.84    0.04
  -4  -3   2    0.92    0.03
  -3  -3   2    3.07    0.04
  -2  -3   2    6.27    0.07
  -1  -3   2    0.05    0.01
   0  -3   2    0.15    0.01
   1  -3   2    0.00    0.01
   2  -3   2    0.08    0.01
   3  -3   2   25.52    0.25
   4  -3   2    3.76    0.05
   5  -3   2    0.08    0.02
   6  -3   2    0.06    0.02
   7  -3   2    1.10    0.04
  -7  -2   2    0.50    0.04
  -6  -2   2   -0.02    0.02
  -5  -2   2    0.05    0.02
  -4  -2   2    0.45    0.02
  -3  -2   2    0.17    0.01
  -2  -2   2   16.97    0.16
  -1  -2   2   10.02    0.10
   0  -2   2    7.68    0.07
   1  -2   2    0.11    0.01
   2  -2   2    0.50    0.01
   3  -2   2    2.01    0.03
   4  -2   2    0.26    0.01
   5  -2   2    0.94    0.03
   6  -2   2    3.53    0.06
   7  -2   2    7.02    0.12
   8  -2   2    0.47    0.06
  -7  -1   2    0.13    0.03
  -6  -1   2    0.55    0.03
  -5  -1   2    0.07    0.02
  -4  -1   2    0.33    0.01
  -3  -1   2    5.13    0.06
  -2  -1   2   26.23    0.23
  -1  -1   2   49.62    0.45
   0  -1   2   12.44    0.13
   1  -1   2    7.16    0.07
   2  -1   2   34.89    0.31
   3  -1   2   11.17    0.10
   4  -1   2    9.61    0.10
   5  -1   2    1.16    0.03
   6  -1   2    0.62    0.03
   7  -1   2    0.05    0.03
   8  -1   2    0.02    0.05
  -7   0   2    4.31    0.08
  -6   0   2    1.28    0.04
  -5   0   2    1.20    0.03
  -4   0   2    0.69    0.02
  -3   0   2    1.06    0.02
  -2   0   2    1.21    0.02
  -1   0   2    3.78    0.04
   0   0   2   23.68    0.25
   1   0   2    0.96    0.01
   2   0   2   19.85    0.18
   3   0   2    7.68    0.08
   4   0   2    4.63    0.06
   5   0   2   13.39    0.14
   6   0   2    9.86    0.12
   7   0   2    0.26    0.03
   8   0   2    0.06    0.05
  -7   1   2    1.47    0.06
  -6   1   2    0.35    0.02
  -5   1   2    0.03    0.01
  -4   1   2    7.73    0.07
  -3   1   2    0.83    0.02
  -2   1   2   37.29    0.29
  -1   1   2   26.74    0.26
   0   1   2   13.87    0.12
   1   1   2    3.12    0.03
   2   1   2    1.06    0.02
   3   1   2    5.66    0.07
   4   1   2    1.63    0.03
   5   1   2    0.68    0.02
   6   1   2    4.17    0.07
   7   1   2    0.66    0.04
   8   1   2    0.24    0.05
  -7   2   2    0.13    0.03
  -6   2   2    0.21    0.02
  -5   2   2    0.25    0.02
  -4   2   2    0.64    0.02
  -3   2   2    3.31    0.04
  -2   2   2    1.56    0.02
  -1   2   2    1.06    0.02
   0   2   2  323.98    2.71
   1   2   2    6.57    0.08
   2   2   2    0.01    0.00
   3   2   2    0.74    0.02
   4   2   2   11.66    0.15
   5   2   2    2.23    0.04
   6   2   2    0.99    0.04
   7   2   2    0.11    0.03
   8   2   2   -0.01    0.04
  -7   3   2    0.08    0.04
  -6   3   2    0.27    0.02
  -5   3   2    7.59    0.09
  -4   3   2    0.12    0.01
  -3   3   2    0.96    0.02
  -2   3   2    0.33    0.01
  -1   3   2    0.28    0.01
   0   3   2    0.02    0.00
   1   3   2    0.00    0.00
   2   3   2    4.53    0.05
   3   3   2    7.36    0.07
   4   3   2    6.28    0.08
   5   3   2    3.41    0.05
   6   3   2    0.27    0.03
   7   3   2    0.14    0.04
   8   3   2    0.34    0.05
  -7   4   2    0.16    0.04
  -6   4   2    0.66    0.04
  -5   4   2    1.47    0.04
  -4   4   2    0.09    0.01
  -3   4   2    1.78    0.03
  -2   4   2  163.56    1.49
  -1   4   2   24.41    0.21
   0   4   2    0.03    0.00
   1   4   2    0.06    0.01
   2   4   2    1.42    0.02
   3   4   2    1.64    0.03
   4   4   2    1.94    0.03
   5   4   2    1.84    0.04
   6   4   2    0.81    0.04
   7   4   2    0.21    0.02
  -6   5   2    0.03    0.03
  -5   5   2    0.05    0.02
  -4   5   2    0.01    0.02
  -3   5   2    0.03    0.01
  -2   5   2   29.78    0.27
  -1   5   2   10.67    0.10
   0   5   2    0.01    0.01
   1   5   2   13.90    0.14
   2   5   2   27.79    0.30
   3   5   2    1.46    0.03
   4   5   2    5.18    0.06
   5   5   2    1.84    0.04
   6   5   2    0.12    0.02
   7   5   2    0.07    0.03
  -6   6   2    0.08    0.04
  -5   6   2    0.00    0.03
  -4   6   2    0.01    0.02
  -3   6   2    2.78    0.04
  -2   6   2    0.11    0.01
  -1   6   2    0.08    0.01
   0   6   2    0.31    0.01
   1   6   2    3.84    0.04
   2   6   2    0.90    0.02
   3   6   2    0.21    0.02
   4   6   2    0.60    0.03
   5   6   2    6.33    0.08
   6   6   2    0.25    0.03
  -5   7   2    0.01    0.04
  -4   7   2    0.11    0.02
  -3   7   2    0.02    0.02
  -2   7   2    0.63    0.02
  -1   7   2    0.76    0.02
   0   7   2    2.22    0.03
   1   7   2    0.50    0.02
   2   7   2    0.02    0.01
   3   7   2    0.69    0.03
   4   7   2    0.18    0.02
   5   7   2    0.03    0.03
   6   7   2    0.00    0.03
  -4   8   2    0.04    0.04
  -3   8   2    0.04    0.03
  -2   8   2    0.09    0.02
  -1   8   2    0.43    0.02
   0   8   2    0.28    0.02
   1   8   2    0.02    0.02
   2   8   2    0.01    0.02
   3   8   2    3.18    0.06
   4   8   2   -0.02    0.02
   5   8   2    0.51    0.04
  -3   9   2    0.00    0.03
  -2   9   2    0.10    0.03
  -1   9   2    0.15    0.02
   0   9   2    0.16    0.03
   1   9   2    0.18    0.03
   2   9   2    0.37    0.03
   3   9   2    0.68    0.04
   4   9   2    0.00    0.08
   0  10   2    0.04    0.05
  -3  -8   3    0.00    0.03
  -2  -8   3   -0.01    0.02
  -1  -8   3   -0.02    0.02
   0  -8   3    0.08    0.03
   1  -8   3    0.09    0.03
   2  -8   3    0.15    0.03
   3  -8   3    0.05    0.04
  -4  -7   3    0.32    0.03
  -3  -7   3   -0.01    0.02
  -2  -7   3    0.38    0.02
  -1  -7   3    2.56    0.04
   0  -7   3    0.19    0.02
   1  -7   3    0.03    0.02
   2  -7   3    0.47    0.03
   3  -7   3    0.04    0.03
   4  -7   3    0.69    0.04
   5  -7   3    0.00    0.04
  -5  -6   3    0.00    0.03
  -4  -6   3    0.13    0.02
  -3  -6   3    0.04    0.02
  -2  -6   3    3.78    0.05
  -1  -6   3    0.09    0.01
   0  -6   3    0.40    0.02
   1  -6   3    0.72    0.03
   2  -6   3    0.43    0.02
   3  -6   3    0.84    0.04
   4  -6   3    1.10    0.05
   5  -6   3    0.05    0.03
   6  -6   3    0.01    0.04
  -6  -5   3    0.04    0.03
  -5  -5   3    0.06    0.03
  -4  -5   3    0.20    0.02
  -3  -5   3   19.51    0.22
  -2  -5   3   19.22    0.18
  -1  -5   3    0.86    0.02
   0  -5   3    1.25    0.02
   1  -5   3    2.14    0.03
   2  -5   3    0.46    0.02
   3  -5   3    0.16    0.02
   4  -5   3    0.04    0.02
   5  -5   3    0.12    0.02
   6  -5   3    0.00    0.03
  -6  -4   3    0.54    0.04
  -5  -4   3    1.67    0.05
  -4  -4   3    0.49    0.02
  -3  -4   3    1.68    0.03
  -2  -4   3    1.04    0.02
  -1  -4   3    0.05    0.01
   0  -4   3    0.80    0.02
   1  -4   3   19.03    0.19
   2  -4   3    1.20    0.03
   3  -4   3    3.16    0.04
   4  -4   3    0.01    0.02
   5  -4   3    0.65    0.03
   6  -4   3    0.04    0.03
   7  -4   3    0.23    0.04
  -6  -3   3    0.04    0.02
  -5  -3   3    0.04    0.02
  -4  -3   3   26.08    0.24
  -3  -3   3    9.35    0.09
  -2  -3   3   11.60    0.12
  -1  -3   3    0.11    0.01
   0  -3   3   11.17    0.11
   1  -3   3    0.73    0.02
   2  -3   3    0.08    0.01
   3  -3   3    1.74    0.03
   4  -3   3    5.76    0.07
   5  -3   3    1.47    0.03
   6  -3   3    0.10    0.02
   7  -3   3    0.02    0.03
  -7  -2   3   -0.04    0.03
  -6  -2   3    0.10    0.02
  -5  -2   3    0.33    0.02
  -4  -2   3    0.07    0.01
  -3  -2   3    3.61    0.04
  -2  -2   3    4.18    0.04
  -1  -2   3   28.60    0.26
   0  -2   3   84.84    0.82
   1  -2   3    2.91    0.03
   2  -2   3   -0.01    0.01
   3  -2   3    0.00    0.01
   4  -2   3    4.23    0.05
   5  -2   3    0.01    0.01
   6  -2   3    0.31    0.02
   7  -2   3    0.12    0.04
   8  -2   3    1.17    0.07
  -7  -1   3    0.09    0.03
  -6  -1   3    0.27    0.03
  -5  -1   3    0.32    0.02
  -4  -1   3    0.91    0.02
  -3  -1   3    1.66    0.03
  -2  -1   3    0.83    0.02
  -1  -1   3    0.00    0.00
   0  -1   3    0.37    0.01
   1  -1   3    0.01    0.00
   2  -1   3   61.92    0.53
   3  -1   3   11.26    0.11
   4  -1   3    1.59    0.03
   5  -1   3    0.55    0.02
   6  -1   3    0.50    0.03
   7  -1   3    2.92    0.08
   8  -1   3    0.00    0.05
  -7   0   3    0.04    0.03
  -6   0   3    0.23    0.02
  -5   0   3    0.65    0.02
  -4   0   3    0.00    0.01
  -3   0   3    7.95    0.08
  -2   0   3    9.76    0.09
  -1   0   3    3.04    0.04
   0   0   3    3.27    0.04
   1   0   3    0.02    0.00
   2   0   3    0.88    0.01
   3   0   3    2.13    0.10
   4   0   3    1.56    0.03
   5   0   3    4.38    0.06
   6   0   3   14.93    0.16
   7   0   3    3.43    0.08
   8   0   3    0.05    0.04
  -7   1   3    0.16    0.03
  -6   1   3    0.05    0.02
  -5   1   3    0.14    0.02
  -4   1   3    1.44    0.03
  -3   1   3   12.21    0.11
  -2   1   3   25.20    0.23
  -1   1   3    7.57    0.07
   0   1   3   16.08    0.17
   1   1   3   34.85    0.33
   2   1   3   16.45    0.16
   3   1   3   14.68    0.15
   4   1   3    1.97    0.03
   5   1   3    0.03    0.01
   6   1   3    0.38    0.02
   7   1   3   -0.01    0.03
   8   1   3    0.02    0.04
  -7   2   3    0.91    0.04
  -6   2   3    0.09    0.02
  -5   2   3    0.14    0.02
  -4   2   3    0.00    0.01
  -3   2   3    0.04    0.01
  -2   2   3    0.07    0.01
  -1   2   3    2.48    0.03
   0   2   3    0.31    0.01
   1   2   3   11.16    0.11
   2   2   3   14.55    0.15
   3   2   3   17.31    0.17
   4   2   3   20.77    0.22
   5   2   3   12.38    0.13
   6   2   3    0.12    0.02
   7   2   3    0.06    0.03
   8   2   3   -0.06    0.04
  -7   3   3    0.03    0.04
  -6   3   3    0.04    0.02
  -5   3   3    1.93    0.04
  -4   3   3    1.79    0.03
  -3   3   3    6.04    0.06
  -2   3   3    6.78    0.07
  -1   3   3    7.88    0.07
   0   3   3    0.09    0.00
   1   3   3    0.11    0.01
   2   3   3    4.08    0.05
   3   3   3    0.69    0.01
   4   3   3    0.10    0.01
   5   3   3    5.22    0.07
   6   3   3    1.13    0.04
   7   3   3    0.11    0.04
   8   3   3    0.88    0.06
  -6   4   3    0.06    0.03
  -5   4   3    0.33    0.02
  -4   4   3    0.20    0.02
  -3   4   3    0.35    0.01
  -2   4   3    1.93    0.03
  -1   4   3  113.21    0.96
   0   4   3   10.19    0.10
   1   4   3    0.66    0.01
   2   4   3    0.01    0.00
   3   4   3    8.75    0.09
   4   4   3    2.45    0.04
   5   4   3    1.93    0.04
   6   4   3    0.82    0.04
   7   4   3    0.04    0.03
  -6   5   3    1.54    0.06
  -5   5   3    0.11    0.02
  -4   5   3    0.01    0.01
  -3   5   3   -0.01    0.01
  -2   5   3    0.08    0.01
  -1   5   3    2.74    0.03
   0   5   3    0.73    0.02
   1   5   3    1.57    0.02
   2   5   3    3.32    0.04
   3   5   3   12.28    0.14
   4   5   3    4.96    0.06
   5   5   3    0.70    0.03
   6   5   3    0.06    0.02
   7   5   3    0.30    0.03
  -5   6   3    0.07    0.03
  -4   6   3    0.36    0.02
  -3   6   3   21.36    0.20
  -2   6   3    9.56    0.09
  -1   6   3    0.25    0.01
   0   6   3    0.31    0.01
   1   6   3    0.40    0.01
   2   6   3    2.07    0.03
   3   6   3    0.78    0.03
   4   6   3    0.36    0.02
   5   6   3    0.28    0.02
   6   6   3    0.11    0.02
  -5   7   3    0.01    0.03
  -4   7   3    0.02    0.02
  -3   7   3    6.90    0.08
  -2   7   3    0.61    0.02
  -1   7   3    0.01    0.01
   0   7   3    0.95    0.02
   1   7   3    9.42    0.09
   2   7   3   -0.02    0.01
   3   7   3    1.63    0.03
   4   7   3    0.99    0.04
   5   7   3    0.09    0.03
   6   7   3    0.15    0.03
  -4   8   3    0.55    0.04
  -3   8   3    0.03    0.02
  -2   8   3    0.19    0.02
  -1   8   3    0.08    0.01
   0   8   3    0.92    0.03
   1   8   3   -0.01    0.02
   2   8   3    0.22    0.02
   3   8   3    0.48    0.02
   4   8   3    5.12    0.07
   5   8   3    0.24    0.04
  -3   9   3    0.18    0.04
  -2   9   3    0.06    0.02
  -1   9   3    0.22    0.02
   0   9   3    0.36    0.03
   1   9   3    0.04    0.02
   2   9   3    0.22    0.02
   3   9   3    0.05    0.03
   4   9   3    0.33    0.03
   0  10   3    0.00    0.04
   1  10   3   -0.01    0.03
  -2  -8   4    0.00    0.03
  -1  -8   4    0.01    0.03
   0  -8   4    0.44    0.03
   1  -8   4    2.26    0.06
   2  -8   4    0.83    0.04
   3  -8   4    0.03    0.04
  -3  -7   4    0.06    0.03
  -2  -7   4    0.13    0.02
  -1  -7   4    0.58    0.02
   0  -7   4    1.02    0.04
   1  -7   4    1.40    0.04
   2  -7   4    0.65    0.03
   3  -7   4    2.78    0.07
   4  -7   4    3.25    0.08
  -4  -6   4    0.05    0.02
  -3  -6   4    0.01    0.02
  -2  -6   4    0.04    0.02
  -1  -6   4    1.16    0.03
   0  -6   4    0.62    0.03
   1  -6   4    0.30    0.02
   2  -6   4    0.02    0.02
   3  -6   4    0.43    0.03
   4  -6   4    0.14    0.03
   5  -6   4    0.03    0.04
  -5  -5   4    0.61    0.04
  -4  -5   4   -0.02    0.02
  -3  -5   4    0.94    0.03
  -2  -5   4    5.24    0.06
  -1  -5   4    0.24    0.01
   0  -5   4    0.12    0.01
   1  -5   4    0.96    0.02
   2  -5   4    1.35    0.03
   3  -5   4    1.90    0.04
   4  -5   4    0.03    0.02
   5  -5   4    0.05    0.02
   6  -5   4   -0.03    0.03
  -6  -4   4    0.04    0.03
  -5  -4   4    0.00    0.02
  -4  -4   4    0.08    0.02
  -3  -4   4    2.23    0.04
  -2  -4   4    0.55    0.02
  -1  -4   4    2.23    0.03
   0  -4   4    1.79    0.03
   1  -4   4    1.72    0.03
   2  -4   4    5.13    0.06
   3  -4   4    5.20    0.06
   4  -4   4    0.05    0.02
   5  -4   4    0.00    0.02
   6  -4   4    0.02    0.03
   7  -4   4    0.41    0.04
  -6  -3   4    0.00    0.03
  -5  -3   4    0.29    0.02
  -4  -3   4   13.08    0.14
  -3  -3   4   32.51    0.29
  -2  -3   4    0.03    0.01
  -1  -3   4    1.34    0.02
   0  -3   4    0.36    0.01
   1  -3   4    3.27    0.04
   2  -3   4    0.65    0.02
   3  -3   4    0.17    0.01
   4  -3   4    0.89    0.03
   5  -3   4    0.03    0.02
   6  -3   4    0.00    0.02
   7  -3   4    0.38    0.04
  -6  -2   4    0.53    0.03
  -5  -2   4    0.18    0.02
  -4  -2   4    0.04    0.01
  -3  -2   4    1.16    0.02
  -2  -2   4    0.33    0.01
  -1  -2   4    1.36    0.02
   0  -2   4   37.10    0.36
   1  -2   4    0.06    0.01
   2  -2   4    9.25    0.09
   3  -2   4    0.08    0.01
   4  -2   4    1.37    0.03
   5  -2   4    0.19    0.02
   6  -2   4    0.27    0.02
   7  -2   4    0.19    0.04
  -7  -1   4   -0.13    0.09
  -6  -1   4    0.44    0.03
  -5  -1   4   13.54    0.13
  -4  -1   4    8.47    0.09
  -3  -1   4    7.13    0.07
  -2  -1   4    0.21    0.01
  -1  -1   4    4.49    0.06
   0  -1   4    0.45    0.01
   1  -1   4    1.19    0.02
   2  -1   4   12.58    0.15
   3  -1   4   22.08    0.20
   4  -1   4    8.03    0.09
   5  -1   4    0.57    0.02
   6  -1   4    0.11    0.02
   7  -1   4    3.25    0.08
   8  -1   4    0.07    0.05
  -7   0   4    0.05    0.04
  -6   0   4    0.04    0.02
  -5   0   4    0.63    0.02
  -4   0   4    1.35    0.03
  -3   0   4    3.60    0.04
  -2   0   4   13.34    0.13
  -1   0   4   76.26    0.80
   0   0   4    5.31    0.07
   1   0   4    0.05    0.00
   2   0   4    0.61    0.01
   3   0   4    7.27    0.07
   4   0   4    0.16    0.01
   5   0   4    1.78    0.04
   6   0   4    0.36    0.03
   7   0   4    5.43    0.10
   8   0   4    0.30    0.05
  -7   1   4    0.01    0.04
  -6   1   4    0.03    0.02
  -5   1   4    0.14    0.02
  -4   1   4    0.13    0.01
  -3   1   4    1.03    0.02
  -2   1   4    0.67    0.02
  -1   1   4    0.08    0.01
   0   1   4    0.10    0.01
   1   1   4   31.75    0.33
   2   1   4   16.80    0.16
   3   1   4   13.53    0.16
   4   1   4    2.03    0.03
   5   1   4   -0.03    0.01
   6   1   4    4.36    0.07
   7   1   4    0.15    0.04
   8   1   4    0.04    0.04
  -7   2   4    0.23    0.04
  -6   2   4    0.33    0.03
  -5   2   4   -0.01    0.02
  -4   2   4    1.52    0.03
  -3   2   4    1.87    0.03
  -2   2   4    0.05    0.01
  -1   2   4    2.67    0.03
   0   2   4    0.19    0.01
   1   2   4    0.94    0.01
   2   2   4    0.03    0.00
   3   2   4    0.15    0.01
   4   2   4    1.55    0.03
   5   2   4   19.09    0.21
   6   2   4   12.42    0.14
   7   2   4    0.05    0.03
   8   2   4    0.07    0.04
  -6   3   4    0.02    0.03
  -5   3   4    0.28    0.02
  -4   3   4    3.48    0.05
  -3   3   4    4.63    0.06
  -2   3   4    1.47    0.02
  -1   3   4    3.17    0.04
   0   3   4    8.36    0.08
   1   3   4   10.58    0.10
   2   3   4    4.07    0.05
   3   3   4    2.50    0.04
   4   3   4    1.18    0.03
   5   3   4    0.44    0.02
   6   3   4    0.06    0.02
   7   3   4   -0.05    0.04
   8   3   4    0.17    0.05
  -6   4   4   -0.01    0.03
  -5   4   4   -0.02    0.02
  -4   4   4    0.09    0.02
  -3   4   4    0.30    0.02
  -2   4   4    0.02    0.01
  -1   4   4    0.13    0.01
   0   4   4    0.57    0.01
   1   4   4    4.52    0.05
   2   4   4   12.01    0.13
   3   4   4   10.31    0.13
   4   4   4    7.67    0.08
   5   4   4    0.04    0.01
   6   4   4    0.16    0.02
   7   4   4    0.03    0.03
  -6   5   4    0.43    0.04
  -5   5   4    0.98    0.04
  -4   5   4    0.63    0.03
  -3   5   4    0.71    0.02
  -2   5   4    1.73    0.03
  -1   5   4    0.02    0.01
   0   5   4    0.33    0.01
   1   5   4    0.69    0.02
   2   5   4    0.00    0.01
   3   5   4    0.18    0.01
   4   5   4    2.86    0.04
   5   5   4    0.52    0.02
   6   5   4    0.01    0.02
   7   5   4    0.64    0.04
  -5   6   4   -0.04    0.03
  -4   6   4    0.04    0.02
  -3   6   4    0.67    0.03
  -2   6   4   26.78    0.28
  -1   6   4    4.98    0.06
   0   6   4    0.13    0.01
   1   6   4    0.02    0.01
   2   6   4    3.05    0.04
   3   6   4    1.55    0.03
   4   6   4    1.90    0.04
   5   6   4    1.13    0.03
   6   6   4    0.06    0.02
  -5   7   4    0.12    0.07
  -4   7   4    0.02    0.03
  -3   7   4    0.02    0.02
  -2   7   4    2.61    0.05
  -1   7   4    0.31    0.02
   0   7   4    0.50    0.02
   1   7   4    1.05    0.03
   2   7   4    7.01    0.08
   3   7   4    1.94    0.04
   4   7   4    0.68    0.03
   5   7   4    0.04    0.02
   6   7   4    0.16    0.02
  -4   8   4    2.36    0.08
  -3   8   4    2.73    0.06
  -2   8   4    0.11    0.02
  -1   8   4   -0.01    0.02
   0   8   4    0.09    0.02
   1   8   4    1.12    0.03
   2   8   4    0.06    0.02
   3   8   4    0.07    0.02
   4   8   4    0.05    0.02
   5   8   4    0.05    0.03
  -2   9   4    0.01    0.03
  -1   9   4    0.01    0.02
   0   9   4    2.19    0.06
   1   9   4    0.13    0.02
   2   9   4    0.39    0.03
   3   9   4    0.35    0.03
   4   9   4    0.10    0.03
   0  -8   5    0.66    0.04
   1  -8   5    0.29    0.04
  -2  -7   5    0.14    0.03
  -1  -7   5   -0.02    0.03
   0  -7   5    1.34    0.05
   1  -7   5    0.40    0.03
   2  -7   5    0.06    0.03
   3  -7   5    0.27    0.04
   4  -7   5    1.11    0.05
  -4  -6   5    0.16    0.03
  -3  -6   5   -0.01    0.02
  -2  -6   5    0.17    0.02
  -1  -6   5    0.95    0.03
   0  -6   5    5.28    0.07
   1  -6   5    2.00    0.04
   2  -6   5    0.01    0.02
   3  -6   5    1.81    0.05
   4  -6   5    2.34    0.07
   5  -6   5   -0.03    0.04
  -4  -5   5    0.02    0.02
  -3  -5   5    0.28    0.02
  -2  -5   5    2.20    0.05
  -1  -5   5    1.71    0.04
   0  -5   5    3.76    0.05
   1  -5   5    2.66    0.04
   2  -5   5    6.74    0.08
   3  -5   5    8.48    0.09
   4  -5   5    1.53    0.05
   5  -5   5    0.50    0.04
   6  -5   5    0.59    0.04
  -5  -4   5   -0.01    0.03
  -4  -4   5    0.02    0.02
  -3  -4   5    0.02    0.01
  -2  -4   5    2.41    0.04
  -1  -4   5    2.09    0.04
   0  -4   5    0.19    0.01
   1  -4   5    0.08    0.01
   2  -4   5    0.01    0.01
   3  -4   5    0.67    0.02
   4  -4   5    0.50    0.02
   5  -4   5    0.08    0.03
   6  -4   5    1.12    0.05
  -6  -3   5    0.33    0.05
  -5  -3   5   -0.04    0.03
  -4  -3   5    1.20    0.04
  -3  -3   5    5.34    0.06
  -2  -3   5    4.21    0.05
  -1  -3   5    1.17    0.02
   0  -3   5    0.76    0.02
   1  -3   5    6.21    0.07
   2  -3   5    3.55    0.04
   3  -3   5    0.02    0.01
   4  -3   5    0.38    0.02
   5  -3   5    0.02    0.02
   6  -3   5    0.36    0.03
   7  -3   5    0.03    0.03
  -6  -2   5    0.12    0.03
  -5  -2   5    0.19    0.02
  -4  -2   5    0.95    0.03
  -3  -2   5    0.54    0.02
  -2  -2   5    3.38    0.04
  -1  -2   5    1.02    0.02
   0  -2   5    3.72    0.05
   1  -2   5   17.34    0.19
   2  -2   5   16.26    0.16
   3  -2   5    0.04    0.01
   4  -2   5    0.36    0.02
   5  -2   5   -0.01    0.02
   6  -2   5    1.08    0.03
   7  -2   5    1.18    0.05
  -6  -1   5    0.09    0.03
  -5  -1   5    3.65    0.06
  -4  -1   5   28.19    0.25
  -3  -1   5    1.53    0.03
  -2  -1   5    0.41    0.02
  -1  -1   5    0.39    0.01
   0  -1   5    6.76    0.08
   1  -1   5    0.39    0.01
   2  -1   5    0.05    0.01
   3  -1   5    3.89    0.05
   4  -1   5    0.00    0.01
   5  -1   5    0.00    0.01
   6  -1   5    1.43    0.04
   7  -1   5    1.38    0.07
   8  -1   5    0.14    0.05
  -6   0   5    0.05    0.03
  -5   0   5    0.21    0.02
  -4   0   5    0.05    0.01
  -3   0   5    0.60    0.02
  -2   0   5    0.44    0.01
  -1   0   5   23.41    0.27
   0   0   5    6.73    0.08
   1   0   5    9.54    0.11
   2   0   5    0.15    0.01
   3   0   5    1.06    0.02
   4   0   5    0.38    0.02
   5   0   5    0.41    0.02
   6   0   5    0.26    0.03
   7   0   5    0.06    0.04
   8   0   5    0.05    0.05
  -6   1   5    3.89    0.07
  -5   1   5    3.95    0.06
  -4   1   5    1.30    0.03
  -3   1   5    0.08    0.01
  -2   1   5    0.39    0.01
  -1   1   5    0.62    0.02
   0   1   5    3.57    0.04
   1   1   5   17.87    0.19
   2   1   5   34.36    0.35
   3   1   5   18.11    0.18
   4   1   5    0.62    0.02
   5   1   5    0.15    0.02
   6   1   5    4.67    0.07
   7   1   5    0.02    0.03
   8   1   5   -0.05    0.05
  -6   2   5    0.53    0.04
  -5   2   5    0.33    0.03
  -4   2   5    1.25    0.03
  -3   2   5    3.33    0.05
  -2   2   5   20.00    0.19
  -1   2   5    0.87    0.01
   0   2   5    0.10    0.01
   1   2   5    0.06    0.01
   2   2   5    2.97    0.04
   3   2   5    0.01    0.01
   4   2   5    4.89    0.07
   5   2   5    0.33    0.02
   6   2   5   13.33    0.14
   7   2   5    0.29    0.03
   8   2   5    0.06    0.04
  -6   3   5    0.04    0.03
  -5   3   5    0.00    0.02
  -4   3   5    0.43    0.02
  -3   3   5    0.65    0.02
  -2   3   5    0.00    0.01
  -1   3   5    0.36    0.01
   0   3   5    2.08    0.03
   1   3   5    9.50    0.10
   2   3   5   16.36    0.16
   3   3   5    2.17    0.03
   4   3   5    0.07    0.02
   5   3   5    2.80    0.05
   6   3   5    0.25    0.02
   7   3   5    0.07    0.03
   8   3   5   -0.09    0.04
  -6   4   5   -0.02    0.04
  -5   4   5    0.17    0.03
  -4   4   5    0.14    0.02
  -3   4   5    0.01    0.01
  -2   4   5    0.80    0.02
  -1   4   5    0.03    0.01
   0   4   5    1.55    0.02
   1   4   5    0.37    0.01
   2   4   5    0.61    0.02
   3   4   5   -0.01    0.01
   4   4   5   13.25    0.16
   5   4   5   21.44    0.24
   6   4   5    0.10    0.02
   7   4   5    0.29    0.03
  -5   5   5    0.85    0.04
  -4   5   5    0.26    0.03
  -3   5   5    0.22    0.02
  -2   5   5    0.21    0.01
  -1   5   5    0.39    0.01
   0   5   5    3.00    0.04
   1   5   5    0.32    0.01
   2   5   5    1.78    0.03
   3   5   5    1.26    0.02
   4   5   5    0.09    0.02
   5   5   5    0.46    0.03
   6   5   5    0.03    0.02
   7   5   5    0.02    0.04
  -5   6   5    0.01    0.03
  -4   6   5    0.07    0.03
  -3   6   5   -0.01    0.02
  -2   6   5    0.00    0.01
  -1   6   5    0.14    0.01
   0   6   5    0.67    0.02
   1   6   5    2.08    0.03
   2   6   5    1.49    0.03
   3   6   5    2.49    0.04
   4   6   5    0.46    0.02
   5   6   5    0.14    0.02
   6   6   5    0.04    0.02
  -4   7   5    0.09    0.03
  -3   7   5    0.27    0.03
  -2   7   5    0.01    0.02
  -1   7   5    0.02    0.02
   0   7   5    0.06    0.01
   1   7   5    0.03    0.01
   2   7   5    0.20    0.02
   3   7   5    0.70    0.04
   4   7   5   -0.01    0.02
   5   7   5    0.01    0.02
   6   7   5    0.21    0.03
  -3   8   5    5.33    0.10
  -2   8   5    1.75    0.05
  -1   8   5    0.02    0.02
   0   8   5    0.02    0.02
   1   8   5    0.70    0.03
   2   8   5    0.69    0.03
   3   8   5    0.90    0.04
   4   8   5    0.61    0.03
   5   8   5    0.05    0.03
  -2   9   5   -0.01    0.03
  -1   9   5    0.17    0.02
   0   9   5    0.23    0.03
   1   9   5    2.46    0.06
   2   9   5    0.25    0.03
   3   9   5    0.35    0.03
   4   9   5    0.03    0.03
  -1  -7   6    0.06    0.04
   0  -7   6    0.80    0.04
   1  -7   6    1.79    0.06
   2  -7   6    0.12    0.04
   3  -7   6    0.08    0.04
  -3  -6   6    0.61    0.05
  -2  -6   6    0.26    0.03
  -1  -6   6    0.78    0.04
   0  -6   6    0.45    0.03
   1  -6   6    3.79    0.06
   2  -6   6    0.82    0.03
   3  -6   6    0.11    0.03
   4  -6   6    2.08    0.07
  -4  -5   6    0.13    0.03
  -3  -5   6    0.14    0.03
  -2  -5   6    0.28    0.02
  -1  -5   6    0.40    0.03
   0  -5   6    1.26    0.04
   1  -5   6    0.29    0.02
   2  -5   6    1.10    0.03
   3  -5   6    3.01    0.05
   4  -5   6    5.60    0.10
   5  -5   6    0.31    0.04
  -4  -4   6    0.09    0.03
  -3  -4   6    0.74    0.03
  -2  -4   6    1.29    0.04
  -1  -4   6    6.23    0.08
   0  -4   6    2.05    0.04
   1  -4   6    0.02    0.01
   2  -4   6    1.63    0.03
   3  -4   6    3.15    0.05
   4  -4   6    0.18    0.02
   5  -4   6    0.16    0.03
   6  -4   6   -0.01    0.03
  -5  -3   6   -0.04    0.03
  -4  -3   6    0.32    0.02
  -3  -3   6    2.63    0.05
  -2  -3   6    1.18    0.03
  -1  -3   6    5.17    0.06
   0  -3   6    5.45    0.07
   1  -3   6   10.89    0.12
   2  -3   6   14.38    0.15
   3  -3   6    3.77    0.06
   4  -3   6    0.86    0.03
   5  -3   6    1.10    0.04
   6  -3   6    0.16    0.03
   7  -3   6    0.69    0.04
  -5  -2   6   -0.01    0.03
  -4  -2   6    0.01    0.02
  -3  -2   6    2.39    0.05
  -2  -2   6    2.50    0.04
  -1  -2   6    0.02    0.01
   0  -2   6    0.83    0.02
   1  -2   6    0.75    0.02
   2  -2   6    2.12    0.04
   3  -2   6    0.87    0.03
   4  -2   6    0.10    0.02
   5  -2   6    2.66    0.04
   6  -2   6   -0.03    0.02
   7  -2   6    0.94    0.06
  -6  -1   6    0.02    0.04
  -5  -1   6    0.72    0.04
  -4  -1   6    2.74    0.05
  -3  -1   6    8.71    0.10
  -2  -1   6    1.62    0.03
  -1  -1   6    0.06    0.01
   0  -1   6    7.66    0.09
   1  -1   6    3.09    0.04
   2  -1   6    0.06    0.01
   3  -1   6    1.62    0.04
   4  -1   6    0.18    0.01
   5  -1   6    0.38    0.02
   6  -1   6   -0.04    0.02
   7  -1   6    0.09    0.04
  -6   0   6    0.12    0.04
  -5   0   6    0.37    0.03
  -4   0   6    0.13    0.02
  -3   0   6    1.36    0.03
  -2   0   6    0.04    0.01
  -1   0   6    2.82    0.04
   0   0   6   23.52    0.25
   1   0   6   18.60    0.23
   2   0   6    0.10    0.01
   3   0   6    0.99    0.02
   4   0   6    0.03    0.01
   5   0   6    1.32    0.03
   6   0   6    3.06    0.05
   7   0   6    0.21    0.03
  -6   1   6    0.33    0.04
  -5   1   6   13.99    0.17
  -4   1   6    3.57    0.07
  -3   1   6    0.04    0.01
  -2   1   6    0.55    0.02
  -1   1   6    4.48    0.06
   0   1   6    0.02    0.01
   1   1   6    0.80    0.02
   2   1   6    5.99    0.06
   3   1   6    0.04    0.01
   4   1   6    0.01    0.01
   5   1   6    2.51    0.04
   6   1   6    2.48    0.05
   7   1   6    0.03    0.03
   8   1   6    0.52    0.05
  -6   2   6    0.19    0.04
  -5   2   6    0.30    0.03
  -4   2   6    0.27    0.03
  -3   2   6    0.00    0.01
  -2   2   6    5.45    0.07
  -1   2   6   13.26    0.12
   0   2   6    3.04    0.05
   1   2   6    0.18    0.01
   2   2   6    0.45    0.01
   3   2   6    0.06    0.01
   4   2   6    0.29    0.02
   5   2   6    0.16    0.02
   6   2   6    0.43    0.03
   7   2   6    0.08    0.03
   8   2   6    0.05    0.05
  -6   3   6    1.46    0.08
  -5   3   6    0.07    0.03
  -4   3   6   -0.03    0.02
  -3   3   6    0.07    0.01
  -2   3   6    0.63    0.02
  -1   3   6    1.15    0.02
   0   3   6    5.85    0.06
   1   3   6   13.84    0.18
   2   3   6   14.03    0.14
   3   3   6    0.17    0.01
   4   3   6    0.10    0.01
   5   3   6    3.30    0.06
   6   3   6    0.01    0.03
   7   3   6    0.02    0.03
  -5   4   6    0.21    0.03
  -4   4   6    0.48    0.03
  -3   4   6    3.40    0.05
  -2   4   6    0.02    0.01
  -1   4   6    0.02    0.01
   0   4   6    0.15    0.01
   1   4   6    0.07    0.01
   2   4   6    0.02    0.01
   3   4   6    3.65    0.05
   4   4   6    0.13    0.01
   5   4   6   16.24    0.20
   6   4   6   -0.01    0.03
   7   4   6   -0.04    0.03
  -5   5   6    0.06    0.03
  -4   5   6    0.35    0.03
  -3   5   6    0.03    0.02
  -2   5   6    0.17    0.01
  -1   5   6    0.03    0.01
   0   5   6    3.82    0.04
   1   5   6    7.01    0.07
   2   5   6    0.69    0.02
   3   5   6   -0.01    0.01
   4   5   6    0.69    0.02
   5   5   6    0.09    0.02
   6   5   6    0.45    0.03
   7   5   6    0.01    0.04
  -4   6   6    0.05    0.03
  -3   6   6    0.19    0.02
  -2   6   6   -0.01    0.01
  -1   6   6    0.22    0.02
   0   6   6    1.77    0.03
   1   6   6    0.77    0.02
   2   6   6    0.37    0.02
   3   6   6    5.26    0.06
   4   6   6   17.91    0.19
   5   6   6    0.33    0.03
   6   6   6    0.33    0.03
  -4   7   6    0.05    0.03
  -3   7   6    0.00    0.02
  -2   7   6    0.02    0.02
  -1   7   6    0.32    0.02
   0   7   6    0.02    0.01
   1   7   6    0.59    0.02
   2   7   6    0.31    0.02
   3   7   6    0.08    0.02
   4   7   6    0.83    0.03
   5   7   6    0.07    0.02
   6   7   6   -0.03    0.03
  -3   8   6   -0.02    0.04
  -2   8   6    0.32    0.03
  -1   8   6    0.05    0.02
   0   8   6    0.17    0.02
   1   8   6    0.06    0.02
   2   8   6    0.43    0.03
   3   8   6    0.77    0.03
   4   8   6    0.07    0.03
   5   8   6    0.01    0.03
  -1   9   6   -0.01    0.02
   0   9   6    0.01    0.03
   1   9   6    0.05    0.02
   2   9   6    0.10    0.02
   3   9   6    0.05    0.03
  -2  -6   7    0.05    0.03
  -1  -6   7    0.15    0.04
   0  -6   7    0.28    0.04
   1  -6   7    0.14    0.03
   2  -6   7    0.09    0.03
   3  -6   7    0.00    0.03
   4  -6   7   -0.09    0.07
  -3  -5   7    0.22    0.04
  -2  -5   7    0.06    0.03
  -1  -5   7    1.71    0.05
   0  -5   7    2.43    0.06
   1  -5   7    0.83    0.03
   2  -5   7    0.14    0.02
   3  -5   7    0.40    0.03
   4  -5   7    0.04    0.03
   5  -5   7    0.26    0.04
  -4  -4   7    0.33    0.04
  -3  -4   7    0.11    0.03
  -2  -4   7    0.36    0.03
  -1  -4   7    0.21    0.02
   0  -4   7    9.78    0.15
   1  -4   7    1.10    0.04
   2  -4   7    1.41    0.03
   3  -4   7    3.30    0.06
   4  -4   7    4.91    0.08
   5  -4   7    0.94    0.05
   6  -4   7    0.27    0.05
  -4  -3   7    0.07    0.03
  -3  -3   7    0.77    0.04
  -2  -3   7    0.06    0.02
  -1  -3   7    1.99    0.05
   0  -3   7    1.31    0.04
   1  -3   7    3.38    0.06
   2  -3   7    4.50    0.06
   3  -3   7   17.29    0.21
   4  -3   7    2.58    0.05
   5  -3   7    1.91    0.06
   6  -3   7    1.84    0.07
  -5  -2   7    0.20    0.04
  -4  -2   7    0.69    0.04
  -3  -2   7    0.62    0.04
  -2  -2   7    3.99    0.07
  -1  -2   7    0.49    0.02
   0  -2   7    0.07    0.01
   1  -2   7    1.06    0.03
   2  -2   7    1.92    0.04
   3  -2   7    1.09    0.03
   4  -2   7    0.19    0.03
   5  -2   7    0.12    0.03
   6  -2   7    1.10    0.04
   7  -2   7    0.33    0.04
  -5  -1   7    0.07    0.03
  -4  -1   7    0.99    0.04
  -3  -1   7    0.22    0.02
  -2  -1   7    2.95    0.05
  -1  -1   7    3.78    0.06
   0  -1   7    7.61    0.09
   1  -1   7   12.29    0.15
   2  -1   7    6.33    0.08
   3  -1   7    0.41    0.02
   4  -1   7    0.76    0.03
   5  -1   7    0.75    0.03
   6  -1   7    1.30    0.04
   7  -1   7    0.08    0.03
  -5   0   7    0.01    0.03
  -4   0   7    1.57    0.05
  -3   0   7    1.22    0.03
  -2   0   7    0.21    0.01
  -1   0   7    2.18    0.04
   0   0   7    3.57    0.05
   1   0   7    2.46    0.04
   2   0   7    1.16    0.02
   3   0   7    0.00    0.01
   4   0   7    3.55    0.05
   5   0   7    0.34    0.03
   6   0   7    2.72    0.06
   7   0   7    0.08    0.03
  -5   1   7    0.89    0.05
  -4   1   7    7.38    0.09
  -3   1   7    0.40    0.02
  -2   1   7    0.01    0.01
  -1   1   7    3.10    0.04
   0   1   7    1.01    0.02
   1   1   7    0.03    0.01
   2   1   7    1.85    0.03
   3   1   7    0.47    0.02
   4   1   7    0.17    0.01
   5   1   7    0.32    0.02
   6   1   7    0.81    0.04
   7   1   7    0.36    0.05
  -5   2   7    0.01    0.03
  -4   2   7    0.09    0.02
  -3   2   7    0.10    0.02
  -2   2   7    0.78    0.02
  -1   2   7   11.41    0.13
   0   2   7    4.31    0.06
   1   2   7    0.04    0.01
   2   2   7    1.53    0.03
   3   2   7    0.23    0.01
   4   2   7    0.81    0.02
   5   2   7    3.86    0.06
   6   2   7    0.16    0.03
   7   2   7    0.12    0.04
  -5   3   7    2.66    0.08
  -4   3   7   -0.01    0.02
  -3   3   7    0.10    0.02
  -2   3   7    1.41    0.03
  -1   3   7    0.52    0.02
   0   3   7    2.14    0.04
   1   3   7    3.17    0.06
   2   3   7    0.00    0.01
   3   3   7    0.38    0.01
   4   3   7    2.06    0.04
   5   3   7    2.82    0.05
   6   3   7    0.46    0.04
   7   3   7    0.80    0.05
  -5   4   7    0.01    0.04
  -4   4   7    0.07    0.02
  -3   4   7    0.93    0.03
  -2   4   7    7.28    0.09
  -1   4   7    0.71    0.02
   0   4   7    0.03    0.01
   1   4   7    0.19    0.01
   2   4   7    0.09    0.01
   3   4   7    0.10    0.01
   4   4   7    0.04    0.02
   5   4   7    0.99    0.04
   6   4   7    0.41    0.04
   7   4   7    0.18    0.04
  -4   5   7   -0.01    0.02
  -3   5   7    0.34    0.03
  -2   5   7    0.05    0.02
  -1   5   7    0.57    0.02
   0   5   7    2.41    0.04
   1   5   7    6.08    0.07
   2   5   7    0.02    0.01
   3   5   7    0.09    0.01
   4   5   7    1.07    0.03
   5   5   7    0.20    0.02
   6   5   7    0.09    0.04
   7   5   7   -0.09    0.05
  -4   6   7    0.50    0.04
  -3   6   7    0.11    0.02
  -2   6   7    0.00    0.02
  -1   6   7    0.22    0.02
   0   6   7    0.02    0.01
   1   6   7    0.11    0.01
   2   6   7    1.11    0.03
   3   6   7    0.01    0.01
   4   6   7   10.99    0.12
   5   6   7    0.70    0.03
   6   6   7    0.07    0.04
  -3   7   7    0.01    0.03
  -2   7   7   -0.01    0.02
  -1   7   7    1.19    0.04
   0   7   7    2.44    0.05
   1   7   7    0.07    0.02
   2   7   7    0.08    0.02
   3   7   7    0.06    0.02
   4   7   7   -0.02    0.02
   5   7   7    0.33    0.02
  -2   8   7   -0.02    0.03
  -1   8   7    0.31    0.02
   0   8   7    0.41    0.03
   1   8   7    0.17    0.02
   2   8   7    1.24    0.04
   3   8   7    8.52    0.12
   4   8   7    0.43    0.03
   0   9   7    0.12    0.04
   1   9   7    0.02    0.03
   2   9   7    0.11    0.03
   3   9   7    0.72    0.04
   1  -6   8    0.10    0.04
   2  -6   8    0.02    0.05
  -2  -5   8    0.64    0.05
  -1  -5   8    0.52    0.05
   0  -5   8    0.29    0.04
   1  -5   8    0.16    0.04
   2  -5   8    0.01    0.03
   3  -5   8    0.00    0.03
   4  -5   8    0.05    0.04
  -3  -4   8    0.17    0.04
  -2  -4   8    0.27    0.05
  -1  -4   8    0.46    0.04
   0  -4   8    0.22    0.03
   1  -4   8    0.43    0.03
   2  -4   8    0.00    0.03
   3  -4   8    0.01    0.03
   4  -4   8    0.04    0.04
   5  -4   8    0.06    0.04
  -3  -3   8    0.04    0.03
  -2  -3   8    0.98    0.05
  -1  -3   8    1.59    0.06
   0  -3   8    1.74    0.05
   1  -3   8    0.18    0.03
   2  -3   8    1.13    0.04
   3  -3   8    0.07    0.02
   4  -3   8    0.62    0.04
   5  -3   8    0.02    0.04
   6  -3   8   -0.03    0.05
  -4  -2   8   -0.06    0.03
  -3  -2   8    0.03    0.03
  -2  -2   8    0.05    0.02
  -1  -2   8   12.98    0.17
   0  -2   8    0.72    0.03
   1  -2   8    3.47    0.05
   2  -2   8    3.14    0.05
   3  -2   8    8.69    0.12
   4  -2   8    0.95    0.04
   5  -2   8    0.51    0.04
   6  -2   8   -0.01    0.04
  -4  -1   8    0.65    0.04
  -3  -1   8    0.31    0.03
  -2  -1   8    1.45    0.05
  -1  -1   8    2.59    0.04
   0  -1   8    4.54    0.07
   1  -1   8    2.80    0.05
   2  -1   8   30.62    0.32
   3  -1   8    8.91    0.12
   4  -1   8    4.87    0.08
   5  -1   8    3.38    0.08
   6  -1   8    0.46    0.03
   7  -1   8   -0.08    0.04
  -4   0   8    0.11    0.03
  -3   0   8    1.21    0.04
  -2   0   8    0.09    0.02
  -1   0   8    0.03    0.01
   0   0   8    0.92    0.02
   1   0   8    0.32    0.02
   2   0   8    1.46    0.03
   3   0   8    0.14    0.01
   4   0   8    0.97    0.03
   5   0   8    2.84    0.05
   6   0   8    0.62    0.04
   7   0   8   -0.09    0.04
  -5   1   8    0.29    0.04
  -4   1   8    0.04    0.02
  -3   1   8    0.85    0.03
  -2   1   8    0.77    0.03
  -1   1   8    2.01    0.03
   0   1   8    4.84    0.07
   1   1   8    7.37    0.09
   2   1   8    0.02    0.01
   3   1   8    0.11    0.01
   4   1   8    1.10    0.03
   5   1   8    1.24    0.04
   6   1   8    0.03    0.03
   7   1   8    0.00    0.04
  -5   2   8    0.58    0.05
  -4   2   8    0.25    0.03
  -3   2   8    0.25    0.02
  -2   2   8    1.71    0.03
  -1   2   8    2.89    0.04
   0   2   8    0.90    0.03
   1   2   8    1.07    0.03
   2   2   8    0.05    0.02
   3   2   8    2.44    0.03
   4   2   8    0.79    0.03
   5   2   8    4.56    0.07
   6   2   8    0.18    0.03
   7   2   8    0.26    0.04
  -4   3   8    0.03    0.03
  -3   3   8    0.04    0.02
  -2   3   8    0.50    0.02
  -1   3   8    0.00    0.01
   0   3   8    0.28    0.02
   1   3   8    0.88    0.03
   2   3   8    0.47    0.03
   3   3   8    0.01    0.01
   4   3   8    1.19    0.03
   5   3   8    1.90    0.05
   6   3   8    0.34    0.04
   7   3   8    2.67    0.09
  -4   4   8    0.05    0.03
  -3   4   8    0.23    0.03
  -2   4   8    2.62    0.04
  -1   4   8    0.09    0.01
   0   4   8    0.01    0.01
   1   4   8    0.83    0.03
   2   4   8    0.15    0.02
   3   4   8    0.34    0.02
   4   4   8    2.33    0.04
   5   4   8    0.02    0.03
   6   4   8    0.00    0.03
   7   4   8    0.18    0.05
  -4   5   8    0.01    0.04
  -3   5   8    0.28    0.03
  -2   5   8    0.50    0.02
  -1   5   8    0.78    0.03
   0   5   8    0.82    0.03
   1   5   8    0.07    0.02
   2   5   8    0.63    0.02
   3   5   8    0.83    0.02
   4   5   8    1.57    0.04
   5   5   8    0.67    0.03
   6   5   8    0.61    0.04
  -3   6   8    2.23    0.06
  -2   6   8    0.20    0.02
  -1   6   8    0.04    0.01
   0   6   8    0.10    0.02
   1   6   8    0.06    0.02
   2   6   8    0.02    0.01
   3   6   8    0.00    0.02
   4   6   8    1.05    0.04
   5   6   8    1.01    0.04
   6   6   8    0.17    0.03
  -2   7   8    0.01    0.03
  -1   7   8    0.17    0.02
   0   7   8    2.25    0.05
   1   7   8    0.17    0.02
   2   7   8    0.06    0.02
   3   7   8    0.27    0.02
   4   7   8    0.33    0.02
   5   7   8   -0.04    0.03
  -1   8   8    0.02    0.03
   0   8   8    0.16    0.03
   1   8   8    0.22    0.03
   2   8   8    0.03    0.03
   3   8   8    4.17    0.07
   4   8   8    1.72    0.06
   0  -5   9   -0.05    0.06
   1  -5   9    0.56    0.06
   2  -5   9   -0.05    0.06
  -1  -4   9    0.57    0.05
   0  -4   9    0.03    0.04
   1  -4   9    0.03    0.03
   2  -4   9   -0.07    0.03
   3  -4   9   -0.01    0.03
   4  -4   9    0.02    0.04
  -2  -3   9    0.74    0.05
  -1  -3   9    0.46    0.04
   0  -3   9    0.29    0.03
   1  -3   9    0.05    0.02
   2  -3   9    0.01    0.03
   3  -3   9   -0.01    0.03
   4  -3   9    0.03    0.03
   5  -3   9    0.03    0.05
  -3  -2   9    0.14    0.03
  -2  -2   9    0.37    0.03
  -1  -2   9    0.16    0.03
   0  -2   9    0.81    0.04
   1  -2   9    0.09    0.02
   2  -2   9    0.02    0.02
   3  -2   9    0.04    0.02
   4  -2   9    0.56    0.04
   5  -2   9    0.36    0.04
   6  -2   9    0.00    0.07
  -3  -1   9    0.16    0.03
  -2  -1   9    0.43    0.03
  -1  -1   9    1.95    0.04
   0  -1   9    0.16    0.02
   1  -1   9    1.70    0.04
   2  -1   9    0.21    0.02
   3  -1   9    1.44    0.05
   4  -1   9    0.12    0.03
   5  -1   9    0.07    0.03
   6  -1   9    0.02    0.03
  -4   0   9   -0.05    0.04
  -3   0   9   -0.01    0.03
  -2   0   9    9.36    0.14
  -1   0   9    0.10    0.02
   0   0   9    2.82    0.05
   1   0   9    1.76    0.03
   2   0   9    7.41    0.09
   3   0   9    0.27    0.02
   4   0   9    0.47    0.03
   5   0   9    0.00    0.02
   6   0   9    0.00    0.03
  -4   1   9    0.17    0.04
  -3   1   9    0.65    0.03
  -2   1   9    2.20    0.05
  -1   1   9    2.54    0.05
   0   1   9    0.51    0.02
   1   1   9   28.09    0.31
   2   1   9   14.38    0.20
   3   1   9    5.31    0.07
   4   1   9    3.46    0.05
   5   1   9    0.29    0.02
   6   1   9    0.06    0.03
   7   1   9   -0.04    0.16
  -4   2   9    0.17    0.03
  -3   2   9    0.55    0.03
  -2   2   9    0.00    0.02
  -1   2   9    0.88    0.03
   0   2   9    0.02    0.02
   1   2   9    0.39    0.02
   2   2   9    0.04    0.02
   3   2   9    2.00    0.04
   4   2   9    4.43    0.06
   5   2   9    0.89    0.03
   6   2   9   -0.03    0.03
   7   2   9    0.22    0.06
  -4   3   9    0.02    0.04
  -3   3   9    0.09    0.03
  -2   3   9    0.17    0.03
  -1   3   9    1.02    0.04
   0   3   9    5.01    0.08
   1   3   9    0.25    0.02
   2   3   9    0.00    0.02
   3   3   9    0.51    0.02
   4   3   9    0.40    0.02
   5   3   9   -0.03    0.02
   6   3   9   -0.03    0.03
  -3   4   9    0.58    0.03
  -2   4   9    0.80    0.04
  -1   4   9    0.13    0.02
   0   4   9    0.64    0.03
   1   4   9    0.04    0.02
   2   4   9    0.74    0.04
   3   4   9    0.29    0.02
   4   4   9    3.80    0.06
   5   4   9    0.28    0.02
   6   4   9    0.10    0.03
  -3   5   9    0.05    0.03
  -2   5   9    0.10    0.03
  -1   5   9    0.31    0.02
   0   5   9    0.33    0.03
   1   5   9    0.20    0.02
   2   5   9    0.02    0.02
   3   5   9    1.01    0.03
   4   5   9    1.75    0.04
   5   5   9    0.23    0.03
   6   5   9    1.73    0.07
  -2   6   9    0.12    0.03
  -1   6   9   -0.02    0.02
   0   6   9    0.20    0.02
   1   6   9    0.05    0.04
   2   6   9    0.17    0.02
   3   6   9    0.64    0.03
   4   6   9    0.05    0.02
   5   6   9    0.08    0.03
  -2   7   9    0.07    0.03
  -1   7   9    0.11    0.03
   0   7   9    0.04    0.02
   1   7   9    0.35    0.04
   2   7   9    0.21    0.02
   3   7   9    0.55    0.03
   4   7   9    0.42    0.03
   0   8   9    0.07    0.03
   1   8   9    0.01    0.03
   2   8   9   -0.02    0.03
   3   8   9    0.47    0.03
   1  -4  10    0.02    0.05
   2  -4  10    0.05    0.06
  -1  -3  10   -0.05    0.04
   0  -3  10    0.43    0.04
   1  -3  10    0.01    0.04
   2  -3  10    0.35    0.04
   3  -3  10   -0.03    0.04
   4  -3  10    0.20    0.06
  -2  -2  10    0.42    0.05
  -1  -2  10    0.05    0.03
   0  -2  10   -0.01    0.03
   1  -2  10   -0.03    0.03
   2  -2  10   -0.03    0.03
   3  -2  10    0.02    0.03
   4  -2  10    0.92    0.05
   5  -2  10    1.07    0.07
  -2  -1  10    0.28    0.03
  -1  -1  10    0.22    0.03
   0  -1  10    0.18    0.03
   1  -1  10    0.10    0.03
   2  -1  10   -0.04    0.03
   3  -1  10    0.07    0.02
   4  -1  10    0.04    0.03
   5  -1  10    0.10    0.04
  -3   0  10    0.21    0.04
  -2   0  10    0.09    0.03
  -1   0  10    1.25    0.06
   0   0  10    0.13    0.02
   1   0  10    0.04    0.02
   2   0  10    0.05    0.02
   3   0  10    1.63    0.04
   4   0  10    0.55    0.03
   5   0  10    0.03    0.03
   6   0  10   -0.04    0.04
  -3   1  10    0.01    0.03
  -2   1  10    1.22    0.04
  -1   1  10    0.11    0.02
   0   1  10    1.11    0.04
   1   1  10    0.09    0.02
   2   1  10    2.53    0.04
   3   1  10    1.37    0.04
   4   1  10    0.39    0.02
   5   1  10    0.18    0.02
   6   1  10    0.04    0.04
  -3   2  10    3.95    0.08
  -2   2  10    0.07    0.02
  -1   2  10    1.03    0.04
   0   2  10    0.73    0.04
   1   2  10    3.34    0.07
   2   2  10    0.05    0.02
   3   2  10    0.36    0.02
   4   2  10    0.12    0.02
   5   2  10    0.17    0.03
   6   2  10    0.01    0.05
  -3   3  10    1.24    0.05
  -2   3  10    0.70    0.04
  -1   3  10    0.02    0.03
   0   3  10   12.79    0.20
   1   3  10   12.28    0.19
   2   3  10    2.31    0.06
   3   3  10    1.76    0.05
   4   3  10    0.09    0.02
   5   3  10    0.16    0.03
   6   3  10   -0.03    0.04
  -3   4  10   -0.03    0.03
  -2   4  10    0.59    0.03
  -1   4  10    0.07    0.04
   0   4  10    0.03    0.03
   1   4  10    0.02    0.03
   2   4  10    1.67    0.06
   3   4  10    3.37    0.08
   4   4  10    0.82    0.03
   5   4  10    0.09    0.03
   6   4  10    0.06    0.04
  -2   5  10    0.11    0.03
  -1   5  10    1.87    0.08
   0   5  10    0.37    0.05
   1   5  10    0.03    0.03
   2   5  10    0.05    0.03
   3   5  10    0.02    0.03
   4   5  10    0.03    0.02
   5   5  10    0.01    0.03
  -1   6  10    0.31    0.03
   0   6  10   -0.03    0.04
   1   6  10    0.09    0.04
   2   6  10    0.01    0.03
   3   6  10    2.13    0.07
   4   6  10    0.21    0.03
   0   7  10    0.09    0.06
   1   7  10    0.00    0.04
   2   7  10    0.20    0.04
   3   7  10    0.79    0.04
   0  -2  11    0.05    0.04
   1  -2  11    0.10    0.04
   2  -2  11   -0.02    0.04
   3  -2  11    0.01    0.05
  -1  -1  11    0.32    0.04
   0  -1  11   -0.01    0.03
   1  -1  11    0.36    0.05
   2  -1  11    0.07    0.04
   3  -1  11    0.08    0.04
   4  -1  11    1.12    0.05
  -1   0  11   -0.02    0.03
   0   0  11    0.05    0.03
   1   0  11   -0.03    0.03
   2   0  11    0.22    0.03
   3   0  11    1.07    0.04
   4   0  11    1.62    0.06
   5   0  11    0.14    0.04
  -2   1  11    0.05    0.04
  -1   1  11    0.13    0.03
   0   1  11    0.01    0.02
   1   1  11   -0.04    0.04
   2   1  11    0.11    0.02
   3   1  11    0.03    0.03
   4   1  11    0.20    0.03
   5   1  11    0.06    0.03
  -2   2  11    1.05    0.05
  -1   2  11    0.14    0.06
   0   2  11    0.15    0.04
   1   2  11   -0.03    0.03
   2   2  11    1.66    0.07
   3   2  11    0.48    0.05
   4   2  11    0.06    0.03
   5   2  11   -0.05    0.03
  -2   3  11    0.17    0.03
  -1   3  11    0.56    0.06
   0   3  11   -0.01    0.05
   1   3  11    2.52    0.08
   2   3  11    2.45    0.07
   3   3  11    0.57    0.04
   4   3  11    0.19    0.03
   5   3  11    0.21    0.04
  -1   4  11    0.35    0.06
   0   4  11    1.27    0.15
   1   4  11    0.03    0.04
   2   4  11    0.06    0.03
   3   4  11    0.25    0.04
   4   4  11    0.16    0.04
   5   4  11    0.13    0.04
  -1   5  11    3.59    0.14
   0   5  11    7.29    0.30
   1   5  11    0.26    0.06
   2   5  11    0.44    0.06
   3   5  11    0.04    0.04
   4   5  11    0.17    0.04
   0   6  11    0.18    0.11
   1   6  11    0.66    0.07
   2   6  11    1.20    0.09
   3   6  11    0.42    0.04
   1   0  12    0.05    0.04
   2   0  12   -0.01    0.03
   3   0  12    0.29    0.05
   0   1  12    0.19    0.07
   1   1  12   -0.04    0.06
   2   1  12    0.06    0.06
   3   1  12    0.41    0.03
   4   1  12    0.01    0.12
   0   2  12    0.07    0.07
   1   2  12    0.22    0.05
   2   2  12    0.55    0.05
   3   2  12    1.38    0.07
   4   2  12   -0.02    0.03
   0   3  12   -0.02    0.10
   1   3  12   -0.12    0.08
   2   3  12   -0.01    0.05
   3   3  12    0.23    0.05
   4   3  12   -0.04    0.08
   0   4  12    0.06    0.11
   1   4  12    0.81    0.11
   2   4  12    0.05    0.08
   3   4  12    0.06    0.10
   2   5  12    0.42    0.11
   0   0   0    0.00    0.00
;
_shelx_hkl_checksum              75307
loop_
_space_group_symop_operation_xyz
'x, y, z'
'-x, -y, -z'
loop_
_atom_site_label
_atom_site_type_symbol
_atom_site_fract_x
_atom_site_fract_y
_atom_site_fract_z
_atom_site_U_iso_or_equiv
_atom_site_adp_type
_atom_site_occupancy
_atom_site_site_symmetry_order
_atom_site_calc_flag
_atom_site_refinement_flags_posn
_atom_site_refinement_flags_adp
C1 C 0.1781(3) 0.3761(2) 0.94082(17) 0.0437(4) Uani 1 1 d . .
C2 C -0.0053(2) 0.3827(2) 0.78144(17) 0.0424(4) Uani 1 1 d . .
C3 C 0.1649(2) 0.49176(19) 0.71866(16) 0.0373(4) Uani 1 1 d . .
C4 C 0.2784(2) 0.48521(19) 0.81636(16) 0.0389(4) Uani 1 1 d . .
C5 C 0.4516(2) 0.5693(2) 0.78676(16) 0.0413(4) Uani 1 1 d . .
H5 H 0.5259 0.5634 0.8518 0.050 Uiso 1 1 calc R U
C6 C 0.5151(2) 0.66477(19) 0.65569(16) 0.0383(4) Uani 1 1 d . .
C7 C 0.3989(2) 0.67477(18) 0.55585(16) 0.0360(4) Uani 1 1 d . .
C8 C 0.2195(2) 0.58361(19) 0.59098(16) 0.0381(4) Uani 1 1 d . .
H8 H 0.1419 0.5870 0.5281 0.046 Uiso 1 1 calc R U
C9 C 0.4640(2) 0.7709(2) 0.42558(17) 0.0404(4) Uani 1 1 d . .
H9 H 0.3861 0.7783 0.3624 0.049 Uiso 1 1 calc R U
C10 C 0.6420(3) 0.8553(2) 0.38848(17) 0.0422(4) Uani 1 1 d . .
C11 C 0.7564(3) 0.8426(2) 0.48866(18) 0.0477(4) Uani 1 1 d . .
H11 H 0.8761 0.8979 0.4662 0.057 Uiso 1 1 calc R U
C12 C 0.6951(2) 0.7523(2) 0.61521(18) 0.0451(4) Uani 1 1 d . .
H12 H 0.7738 0.7475 0.6776 0.054 Uiso 1 1 calc R U
C13 C 0.8881(3) 1.0423(3) 0.2240(2) 0.0665(6) Uani 1 1 d . .
H13A H 0.9113 1.0953 0.1300 0.100 Uiso 1 1 calc R U
H13B H 0.8715 1.1246 0.2773 0.100 Uiso 1 1 calc R U
H13C H 0.9992 0.9720 0.2408 0.100 Uiso 1 1 calc R U
C14 C 0.5847(4) 0.9726(3) 0.1623(2) 0.0675(6) Uani 1 1 d . .
H14A H 0.6552 1.0367 0.0780 0.101 Uiso 1 1 calc R U
H14B H 0.5496 0.8686 0.1491 0.101 Uiso 1 1 calc R U
H14C H 0.4665 1.0312 0.1951 0.101 Uiso 1 1 calc R U
N1 N 0.7100(2) 0.9444(2) 0.25990(15) 0.0576(4) Uani 1 1 d . .
O1 O 0.00800(18) 0.31712(14) 0.91532(11) 0.0488(3) Uani 1 1 d . .
O2 O 0.2147(2) 0.33406(17) 1.05039(13) 0.0620(4) Uani 1 1 d . .
O3 O -0.13763(19) 0.34488(17) 0.73870(14) 0.0597(4) Uani 1 1 d . .
loop_
_atom_site_aniso_label
_atom_site_aniso_U_11
_atom_site_aniso_U_22
_atom_site_aniso_U_33
_atom_site_aniso_U_23
_atom_site_aniso_U_13
_atom_site_aniso_U_12
C1 0.0471(10) 0.0431(9) 0.0377(10) -0.0050(7) -0.0053(7) -0.0056(8)
C2 0.0411(9) 0.0427(9) 0.0413(10) -0.0054(7) -0.0072(7) -0.0031(7)
C3 0.0359(8) 0.0371(8) 0.0378(9) -0.0081(7) -0.0058(7) -0.0012(7)
C4 0.0407(9) 0.0385(9) 0.0360(9) -0.0073(7) -0.0057(7) -0.0021(7)
C5 0.0425(9) 0.0456(9) 0.0370(9) -0.0076(7) -0.0121(7) -0.0024(7)
C6 0.0374(9) 0.0377(9) 0.0389(9) -0.0086(7) -0.0062(7) -0.0017(7)
C7 0.0366(9) 0.0341(8) 0.0364(9) -0.0088(7) -0.0054(7) 0.0010(7)
C8 0.0376(9) 0.0403(9) 0.0371(9) -0.0078(7) -0.0101(7) -0.0010(7)
C9 0.0437(9) 0.0392(9) 0.0366(9) -0.0057(7) -0.0074(7) -0.0018(7)
C10 0.0453(10) 0.0354(9) 0.0414(10) -0.0059(7) -0.0018(7) -0.0033(7)
C11 0.0424(9) 0.0466(10) 0.0515(11) -0.0082(8) -0.0043(8) -0.0115(8)
C12 0.0416(9) 0.0489(10) 0.0457(10) -0.0081(8) -0.0115(7) -0.0080(8)
C13 0.0692(13) 0.0535(12) 0.0626(13) 0.0015(10) 0.0064(10) -0.0210(10)
C14 0.0845(15) 0.0660(13) 0.0434(11) 0.0033(9) -0.0093(10) -0.0073(11)
N1 0.0621(10) 0.0580(10) 0.0429(9) 0.0052(7) -0.0029(7) -0.0176(8)
O1 0.0475(7) 0.0517(7) 0.0418(7) 0.0002(5) -0.0053(5) -0.0134(5)
O2 0.0724(9) 0.0712(9) 0.0384(7) 0.0045(6) -0.0150(6) -0.0198(7)
O3 0.0480(8) 0.0693(9) 0.0606(8) -0.0017(7) -0.0166(6) -0.0201(6)
loop_
_atom_type_symbol
_atom_type_description
_atom_type_scat_dispersion_real
_atom_type_scat_dispersion_imag
_atom_type_scat_source
C C 0.0033 0.0016 'International Tables Vol C Tables 4.2.6.8 and 6.1.1.4'
H H 0.0000 0.0000 'International Tables Vol C Tables 4.2.6.8 and 6.1.1.4'
N N 0.0061 0.0033 'International Tables Vol C Tables 4.2.6.8 and 6.1.1.4'
O O 0.0106 0.0060 'International Tables Vol C Tables 4.2.6.8 and 6.1.1.4'
loop_
_geom_angle_atom_site_label_1
_geom_angle_atom_site_label_2
_geom_angle_atom_site_label_3
_geom_angle
O2 C1 O1 119.84(15)
O2 C1 C4 132.66(17)
O1 C1 C4 107.49(14)
O3 C2 O1 120.40(15)
O3 C2 C3 132.24(16)
O1 C2 C3 107.36(14)
C8 C3 C4 122.15(15)
C8 C3 C2 130.39(15)
C4 C3 C2 107.44(14)
C5 C4 C3 121.47(15)
C5 C4 C1 130.74(15)
C3 C4 C1 107.78(14)
C4 C5 C6 118.45(15)
C4 C5 H5 120.8
C6 C5 H5 120.8
C5 C6 C12 122.26(15)
C5 C6 C7 120.61(15)
C12 C6 C7 117.12(15)
C9 C7 C8 121.05(15)
C9 C7 C6 119.94(15)
C8 C7 C6 119.01(15)
C3 C8 C7 118.30(15)
C3 C8 H8 120.9
C7 C8 H8 120.9
C10 C9 C7 121.69(16)
C10 C9 H9 119.2
C7 C9 H9 119.2
N1 C10 C9 121.95(17)
N1 C10 C11 120.46(16)
C9 C10 C11 117.57(16)
C12 C11 C10 121.67(16)
C12 C11 H11 119.2
C10 C11 H11 119.2
C11 C12 C6 122.01(16)
C11 C12 H12 119.0
C6 C12 H12 119.0
N1 C13 H13A 109.5
N1 C13 H13B 109.5
H13A C13 H13B 109.5
N1 C13 H13C 109.5
H13A C13 H13C 109.5
H13B C13 H13C 109.5
N1 C14 H14A 109.5
N1 C14 H14B 109.5
H14A C14 H14B 109.5
N1 C14 H14C 109.5
H14A C14 H14C 109.5
H14B C14 H14C 109.5
C10 N1 C13 121.82(17)
C10 N1 C14 120.45(16)
C13 N1 C14 116.45(16)
C2 O1 C1 109.92(13)
loop_
_geom_bond_atom_site_label_1
_geom_bond_atom_site_label_2
_geom_bond_distance
C1 O2 1.195(2)
C1 O1 1.403(2)
C1 C4 1.460(2)
C2 O3 1.191(2)
C2 O1 1.400(2)
C2 C3 1.468(2)
C3 C8 1.359(2)
C3 C4 1.408(2)
C4 C5 1.365(2)
C5 C6 1.405(2)
C5 H5 0.9300
C6 C12 1.414(2)
C6 C7 1.436(2)
C7 C9 1.402(2)
C7 C8 1.428(2)
C8 H8 0.9300
C9 C10 1.390(2)
C9 H9 0.9300
C10 N1 1.370(2)
C10 C11 1.427(3)
C11 C12 1.351(2)
C11 H11 0.9300
C12 H12 0.9300
C13 N1 1.450(2)
C13 H13A 0.9600
C13 H13B 0.9600
C13 H13C 0.9600
C14 N1 1.450(3)
C14 H14A 0.9600
C14 H14B 0.9600
C14 H14C 0.9600
loop_
_geom_torsion_atom_site_label_1
_geom_torsion_atom_site_label_2
_geom_torsion_atom_site_label_3
_geom_torsion_atom_site_label_4
_geom_torsion
O3 C2 C3 C8 0.7(3)
O1 C2 C3 C8 179.79(16)
O3 C2 C3 C4 -177.74(19)
O1 C2 C3 C4 1.38(17)
C8 C3 C4 C5 -1.1(2)
C2 C3 C4 C5 177.49(15)
C8 C3 C4 C1 -179.91(15)
C2 C3 C4 C1 -1.34(17)
O2 C1 C4 C5 2.5(3)
O1 C1 C4 C5 -177.85(16)
O2 C1 C4 C3 -178.78(19)
O1 C1 C4 C3 0.83(17)
C3 C4 C5 C6 0.5(2)
C1 C4 C5 C6 179.01(16)
C4 C5 C6 C12 -178.30(15)
C4 C5 C6 C7 0.6(2)
C5 C6 C7 C9 179.86(14)
C12 C6 C7 C9 -1.2(2)
C5 C6 C7 C8 -1.2(2)
C12 C6 C7 C8 177.81(14)
C4 C3 C8 C7 0.5(2)
C2 C3 C8 C7 -177.71(15)
C9 C7 C8 C3 179.54(14)
C6 C7 C8 C3 0.6(2)
C8 C7 C9 C10 -177.56(15)
C6 C7 C9 C10 1.4(2)
C7 C9 C10 N1 177.49(15)
C7 C9 C10 C11 -0.7(2)
N1 C10 C11 C12 -178.34(17)
C9 C10 C11 C12 -0.1(3)
C10 C11 C12 C6 0.3(3)
C5 C6 C12 C11 179.32(16)
C7 C6 C12 C11 0.4(2)
C9 C10 N1 C13 175.31(17)
C11 C10 N1 C13 -6.5(3)
C9 C10 N1 C14 8.7(3)
C11 C10 N1 C14 -173.17(17)
O3 C2 O1 C1 178.38(16)
C3 C2 O1 C1 -0.87(17)
O2 C1 O1 C2 179.72(16)
C4 C1 O1 C2 0.05(17)
