#------------------------------------------------------------------------------
#$Date: 2016-08-07 11:04:07 +0300 (Sun, 07 Aug 2016) $
#$Revision: 185145 $
#$URL: file:///home/coder/svn-repositories/cod/cif/1/54/26/1542614.cif $
#------------------------------------------------------------------------------
#
# This file is available in the Crystallography Open Database (COD),
# http://www.crystallography.net/
#
# All data on this site have been placed in the public domain by the
# contributors.
#
data_1542614
loop_
_publ_author_name
'Jardim, Guilherme A. M.'
'da Silva J\'unior, Eufr\^anio N.'
'Bower, John F.'
_publ_section_title
;
 Overcoming naphthoquinone deactivation: rhodium-catalyzed C-5 selective
 C--H iodination as a gateway to functionalized derivatives
;
_journal_issue                   6
_journal_name_full               'Chem. Sci.'
_journal_page_first              3780
_journal_paper_doi               10.1039/C6SC00302H
_journal_volume                  7
_journal_year                    2016
_chemical_formula_moiety         'C10 H4 I2 O2'
_chemical_formula_sum            'C10 H4 I2 O2'
_chemical_formula_weight         409.93
_chemical_name_systematic
;
 ?
;
_space_group_crystal_system      monoclinic
_space_group_IT_number           14
_space_group_name_Hall           '-P 2yn'
_space_group_name_H-M_alt        'P 1 21/n 1'
_symmetry_space_group_name_Hall  '-P 2yn'
_symmetry_space_group_name_H-M   'P 1 21/n 1'
_atom_sites_solution_hydrogens   geom
_atom_sites_solution_primary     iterative
_audit_creation_date             2015-09-25
_audit_creation_method
;
Olex2 1.2
(compiled 2015.01.26 svn.r3150 for OlexSys, GUI svn.r4998)
;
_audit_update_record
;
2015-12-10 deposited with the CCDC.
2016-02-19 downloaded from the CCDC.
;
_cell_angle_alpha                90
_cell_angle_beta                 102.327(3)
_cell_angle_gamma                90
_cell_formula_units_Z            4
_cell_length_a                   13.9652(6)
_cell_length_b                   4.4527(2)
_cell_length_c                   16.4351(6)
_cell_measurement_reflns_used    3366
_cell_measurement_temperature    100(2)
_cell_measurement_theta_max      27.78
_cell_measurement_theta_min      2.54
_cell_volume                     998.42(7)
_computing_cell_refinement       'SAINT v8.34A (Bruker, 2013)'
_computing_data_reduction        'SAINT v8.34A (Bruker, 2013)'
_computing_molecular_graphics    'Olex2 (Dolomanov et al., 2009)'
_computing_publication_material  'Olex2 (Dolomanov et al., 2009)'
_computing_structure_refinement  'ShelXL (Sheldrick, 2008)'
_computing_structure_solution
;
Superflip (Palatinus & Chapuis, 2007;Palatinus & van der Lee, 2008;
Palatinus et al., 2012)
;
_diffrn_ambient_temperature      100(2)
_diffrn_detector                 'Bruker area detector'
_diffrn_detector_type            'CCD area detector'
_diffrn_measured_fraction_theta_full 1.000
_diffrn_measured_fraction_theta_max 0.997
_diffrn_measurement_device       'Bruker Apex II kappa CCD area detector'
_diffrn_measurement_device_type  'Bruker Apex II kappa CCD area detector'
_diffrn_measurement_method       '\f and \w scans'
_diffrn_radiation_monochromator  graphite
_diffrn_radiation_type           MoK\a
_diffrn_radiation_wavelength     0.71073
_diffrn_reflns_av_R_equivalents  0.0307
_diffrn_reflns_av_unetI/netI     0.0298
_diffrn_reflns_Laue_measured_fraction_full 1.000
_diffrn_reflns_Laue_measured_fraction_max 0.997
_diffrn_reflns_limit_h_max       18
_diffrn_reflns_limit_h_min       -18
_diffrn_reflns_limit_k_max       5
_diffrn_reflns_limit_k_min       -5
_diffrn_reflns_limit_l_max       21
_diffrn_reflns_limit_l_min       -21
_diffrn_reflns_number            8503
_diffrn_reflns_point_group_measured_fraction_full 1.000
_diffrn_reflns_point_group_measured_fraction_max 0.997
_diffrn_reflns_theta_full        26.000
_diffrn_reflns_theta_max         27.859
_diffrn_reflns_theta_min         1.740
_diffrn_source                   'fine-focus sealed tube'
_diffrn_standards_number         0
_exptl_absorpt_coefficient_mu    6.267
_exptl_absorpt_correction_T_max  0.7456
_exptl_absorpt_correction_T_min  0.5180
_exptl_absorpt_correction_type   multi-scan
_exptl_absorpt_process_details
;
SADABS-2014/5 (Bruker,2014/5) was used for absorption correction.
wR2(int) was 0.0638 before and 0.0406 after correction.
The Ratio of minimum to maximum transmission is 0.6947.
The \l/2 correction factor is 0.00150.
;
_exptl_crystal_colour            orange
_exptl_crystal_colour_primary    orange
_exptl_crystal_density_diffrn    2.727
_exptl_crystal_description       needle
_exptl_crystal_F_000             744
_exptl_crystal_size_max          0.32
_exptl_crystal_size_mid          0.2
_exptl_crystal_size_min          0.08
_refine_diff_density_max         0.647
_refine_diff_density_min         -0.523
_refine_diff_density_rms         0.134
_refine_ls_extinction_method     none
_refine_ls_goodness_of_fit_ref   1.029
_refine_ls_hydrogen_treatment    constr
_refine_ls_matrix_type           full
_refine_ls_number_parameters     127
_refine_ls_number_reflns         2370
_refine_ls_number_restraints     0
_refine_ls_restrained_S_all      1.029
_refine_ls_R_factor_all          0.0289
_refine_ls_R_factor_gt           0.0220
_refine_ls_shift/su_max          0.001
_refine_ls_shift/su_mean         0.000
_refine_ls_structure_factor_coef Fsqd
_refine_ls_weighting_details
'w=1/[\s^2^(Fo^2^)+(0.0180P)^2^] where P=(Fo^2^+2Fc^2^)/3'
_refine_ls_weighting_scheme      calc
_refine_ls_wR_factor_gt          0.0408
_refine_ls_wR_factor_ref         0.0426
_reflns_Friedel_coverage         0.000
_reflns_number_gt                2061
_reflns_number_total             2370
_reflns_threshold_expression     'I > 2\s(I)'
_cod_data_source_file            c6sc00302h2.cif
_cod_data_source_block           testm1
_cod_depositor_comments
'Adding full bibliography for 1542604--1542615.cif.'
_cod_database_code               1542614
_shelxl_version_number           2013-4
_shelx_space_group_comment
;
The symmetry employed for this shelxl refinement is uniquely defined
by the following loop, which should always be used as a source of
symmetry information in preference to the above space-group names.
They are only intended as comments.
;
_olex2_refinement_description
;
1. Fixed Uiso
 At 1.2 times of:
  All C(H) groups
2.a Aromatic/amide H refined with riding coordinates:
 C2(H2), C3(H3), C8(H8), C9(H9)
;
_shelx_res_file
;
TITL testm1 in P2(1)/n
CELL 0.71073 13.9652 4.4527 16.4351 90 102.3266 90
ZERR 4 0.0006 0.0002 0.0006 0 0.0029 0
LATT 1
SYMM 0.5-X,0.5+Y,0.5-Z
SFAC C H I O
UNIT 40 16 8 8

L.S. 4 0 0
PLAN  5
fmap 2 53
MORE -1
BOND $H
ACTA 52
CONF
REM <olex2.extras>
REM <HklSrc "%.\\testm1.hkl">
REM </olex2.extras>

WGHT    0.018000
FVAR       0.09189
I1    3    0.700796    0.777238    0.856240    11.00000    0.01493    0.01628 =
         0.02053   -0.00053   -0.00334   -0.00207
I2    3    0.336516    0.170325    0.541200    11.00000    0.01643    0.01900 =
         0.01126   -0.00130    0.00003   -0.00076
O1    4    0.572647    0.412547    0.941290    11.00000    0.02272    0.03729 =
         0.01305   -0.00270    0.00186   -0.00362
O2    4    0.316501   -0.119522    0.700236    11.00000    0.02230    0.02319 =
         0.01784   -0.00223    0.00373   -0.00943
C1    1    0.510454    0.320511    0.883805    11.00000    0.01340    0.01839 =
         0.01322   -0.00168    0.00421    0.00529
C2    1    0.429078    0.140156    0.900740    11.00000    0.01908    0.02503 =
         0.01535    0.00238    0.00538    0.00242
AFIX  43
H2    2    0.421484    0.121644    0.955372    11.00000   -1.20000
AFIX   0
C3    1    0.365766    0.002170    0.840361    11.00000    0.01612    0.01893 =
         0.01914    0.00377    0.00727   -0.00130
AFIX  43
H3    2    0.317502   -0.118967    0.854401    11.00000   -1.20000
AFIX   0
C4    1    0.369690    0.035085    0.752315    11.00000    0.01103    0.01653 =
         0.01631    0.00275    0.00235    0.00449
C5    1    0.440303    0.255159    0.729123    11.00000    0.01305    0.01014 =
         0.01251   -0.00056    0.00156    0.00292
C6    1    0.512145    0.387615    0.794050    11.00000    0.01163    0.01039 =
         0.01214   -0.00108    0.00051    0.00581
C7    1    0.582167    0.578024    0.772593    11.00000    0.01092    0.01299 =
         0.01518   -0.00196   -0.00016    0.00237
C8    1    0.578275    0.651592    0.689852    11.00000    0.01414    0.01389 =
         0.02134    0.00099    0.00692   -0.00120
AFIX  43
H8    2    0.624492    0.782296    0.676418    11.00000   -1.20000
AFIX   0
C9    1    0.506311    0.532192    0.627354    11.00000    0.01743    0.01696 =
         0.01100    0.00107    0.00410    0.00496
AFIX  43
H9    2    0.503242    0.587300    0.572276    11.00000   -1.20000
AFIX   0
C10   1    0.438691    0.330819    0.646270    11.00000    0.01149    0.01344 =
         0.01249   -0.00258    0.00072    0.00436
HKLF 4

REM  testm1 in P2(1)/n
REM R1 =  0.0220 for    2061 Fo > 4sig(Fo)  and  0.0289 for all    2370 data
REM    127 parameters refined using      0 restraints

END

WGHT      0.0180      0.0000

REM Highest difference peak  0.647,  deepest hole -0.523,  1-sigma level  0.134
Q1    1   0.7310  0.9328  0.8849  11.00000  0.05    0.65
Q2    1   0.3692  0.0511  0.5804  11.00000  0.05    0.63
Q3    1   0.3795  0.1453  0.5138  11.00000  0.05    0.56
Q4    1   0.3388 -0.0480  0.5344  11.00000  0.05    0.55
Q5    1   0.7415  0.6641  0.8958  11.00000  0.05    0.53
;
_shelx_res_checksum              44851
_olex2_submission_special_instructions 'No special instructions were received'
loop_
_space_group_symop_operation_xyz
'x, y, z'
'-x+1/2, y+1/2, -z+1/2'
'-x, -y, -z'
'x-1/2, -y-1/2, z-1/2'
loop_
_atom_site_label
_atom_site_type_symbol
_atom_site_fract_x
_atom_site_fract_y
_atom_site_fract_z
_atom_site_U_iso_or_equiv
_atom_site_adp_type
_atom_site_occupancy
_atom_site_site_symmetry_order
_atom_site_calc_flag
_atom_site_refinement_flags_posn
I1 I 0.70080(2) 0.77724(4) 0.85624(2) 0.01831(7) Uani 1 1 d .
I2 I 0.33652(2) 0.17033(4) 0.54120(2) 0.01600(6) Uani 1 1 d .
O1 O 0.57265(18) 0.4125(5) 0.94129(14) 0.0246(6) Uani 1 1 d .
O2 O 0.31650(17) -0.1195(5) 0.70024(14) 0.0212(5) Uani 1 1 d .
C1 C 0.5105(2) 0.3205(7) 0.8838(2) 0.0148(7) Uani 1 1 d .
C2 C 0.4291(3) 0.1402(7) 0.9007(2) 0.0196(7) Uani 1 1 d .
H2 H 0.4215 0.1216 0.9554 0.023 Uiso 1 1 calc R
C3 C 0.3658(2) 0.0022(7) 0.8404(2) 0.0175(7) Uani 1 1 d .
H3 H 0.3175 -0.1190 0.8544 0.021 Uiso 1 1 calc R
C4 C 0.3697(2) 0.0351(7) 0.7523(2) 0.0147(7) Uani 1 1 d .
C5 C 0.4403(2) 0.2552(6) 0.72912(19) 0.0121(6) Uani 1 1 d .
C6 C 0.5121(2) 0.3876(6) 0.79405(19) 0.0117(6) Uani 1 1 d .
C7 C 0.5822(2) 0.5780(6) 0.7726(2) 0.0135(6) Uani 1 1 d .
C8 C 0.5783(2) 0.6516(7) 0.6899(2) 0.0160(7) Uani 1 1 d .
H8 H 0.6245 0.7823 0.6764 0.019 Uiso 1 1 calc R
C9 C 0.5063(2) 0.5322(7) 0.62735(19) 0.0150(7) Uani 1 1 d .
H9 H 0.5032 0.5873 0.5723 0.018 Uiso 1 1 calc R
C10 C 0.4387(2) 0.3308(6) 0.64627(19) 0.0127(6) Uani 1 1 d .
loop_
_atom_site_aniso_label
_atom_site_aniso_U_11
_atom_site_aniso_U_22
_atom_site_aniso_U_33
_atom_site_aniso_U_23
_atom_site_aniso_U_13
_atom_site_aniso_U_12
I1 0.01493(12) 0.01628(11) 0.02053(12) -0.00053(8) -0.00334(9) -0.00207(8)
I2 0.01643(12) 0.01900(11) 0.01126(10) -0.00130(8) 0.00003(9) -0.00076(8)
O1 0.0227(14) 0.0373(14) 0.0130(12) -0.0027(10) 0.0019(11) -0.0036(11)
O2 0.0223(14) 0.0232(12) 0.0178(12) -0.0022(10) 0.0037(11) -0.0094(10)
C1 0.0134(17) 0.0184(16) 0.0132(16) -0.0017(12) 0.0042(14) 0.0053(13)
C2 0.0191(19) 0.0250(18) 0.0153(17) 0.0024(13) 0.0054(15) 0.0024(14)
C3 0.0161(18) 0.0189(17) 0.0191(17) 0.0038(13) 0.0073(15) -0.0013(13)
C4 0.0110(17) 0.0165(15) 0.0163(16) 0.0028(13) 0.0024(14) 0.0045(13)
C5 0.0130(16) 0.0101(14) 0.0125(15) -0.0006(11) 0.0016(13) 0.0029(12)
C6 0.0116(16) 0.0104(14) 0.0121(15) -0.0011(11) 0.0005(13) 0.0058(12)
C7 0.0109(17) 0.0130(14) 0.0152(15) -0.0020(12) -0.0002(13) 0.0024(12)
C8 0.0141(17) 0.0139(15) 0.0213(17) 0.0010(12) 0.0069(15) -0.0012(13)
C9 0.0174(18) 0.0170(15) 0.0110(15) 0.0011(12) 0.0041(14) 0.0050(13)
C10 0.0115(16) 0.0134(15) 0.0125(15) -0.0026(12) 0.0007(13) 0.0044(12)
loop_
_atom_type_symbol
_atom_type_description
_atom_type_scat_dispersion_real
_atom_type_scat_dispersion_imag
_atom_type_scat_source
C C 0.0033 0.0016 'International Tables Vol C Tables 4.2.6.8 and 6.1.1.4'
H H 0.0000 0.0000 'International Tables Vol C Tables 4.2.6.8 and 6.1.1.4'
I I -0.4742 1.8119 'International Tables Vol C Tables 4.2.6.8 and 6.1.1.4'
O O 0.0106 0.0060 'International Tables Vol C Tables 4.2.6.8 and 6.1.1.4'
loop_
_geom_angle_atom_site_label_1
_geom_angle_atom_site_label_2
_geom_angle_atom_site_label_3
_geom_angle
O1 C1 C2 119.6(3)
O1 C1 C6 122.5(3)
C2 C1 C6 117.9(3)
C1 C2 H2 119.0
C3 C2 C1 122.0(3)
C3 C2 H2 119.0
C2 C3 H3 119.0
C2 C3 C4 122.1(3)
C4 C3 H3 119.0
O2 C4 C3 119.4(3)
O2 C4 C5 121.8(3)
C3 C4 C5 118.8(3)
C6 C5 C4 118.5(3)
C10 C5 C4 122.1(3)
C10 C5 C6 119.4(3)
C5 C6 C1 119.6(3)
C7 C6 C1 121.7(3)
C7 C6 C5 118.8(3)
C6 C7 I1 125.9(2)
C8 C7 I1 113.6(2)
C8 C7 C6 120.5(3)
C7 C8 H8 119.7
C9 C8 C7 120.5(3)
C9 C8 H8 119.7
C8 C9 H9 119.8
C8 C9 C10 120.3(3)
C10 C9 H9 119.8
C5 C10 I2 125.5(2)
C9 C10 I2 114.1(2)
C9 C10 C5 120.3(3)
loop_
_geom_bond_atom_site_label_1
_geom_bond_atom_site_label_2
_geom_bond_distance
I1 C7 2.109(3)
I2 C10 2.116(3)
O1 C1 1.210(4)
O2 C4 1.219(4)
C1 C2 1.466(5)
C1 C6 1.510(4)
C2 H2 0.9300
C2 C3 1.330(5)
C3 H3 0.9300
C3 C4 1.467(4)
C4 C5 1.496(4)
C5 C6 1.427(4)
C5 C10 1.398(4)
C6 C7 1.395(4)
C7 C8 1.388(4)
C8 H8 0.9300
C8 C9 1.381(4)
C9 H9 0.9300
C9 C10 1.385(4)
loop_
_geom_torsion_atom_site_label_1
_geom_torsion_atom_site_label_2
_geom_torsion_atom_site_label_3
_geom_torsion_atom_site_label_4
_geom_torsion
I1 C7 C8 C9 178.2(2)
O1 C1 C2 C3 -171.4(3)
O1 C1 C6 C5 175.7(3)
O1 C1 C6 C7 -4.6(5)
O2 C4 C5 C6 -168.8(3)
O2 C4 C5 C10 10.4(5)
C1 C2 C3 C4 -3.6(5)
C1 C6 C7 I1 4.6(4)
C1 C6 C7 C8 -175.8(3)
C2 C1 C6 C5 -5.1(4)
C2 C1 C6 C7 174.6(3)
C2 C3 C4 O2 172.6(3)
C2 C3 C4 C5 -6.5(5)
C3 C4 C5 C6 10.3(4)
C3 C4 C5 C10 -170.6(3)
C4 C5 C6 C1 -4.4(4)
C4 C5 C6 C7 175.9(3)
C4 C5 C10 I2 2.6(4)
C4 C5 C10 C9 -179.0(3)
C5 C6 C7 I1 -175.7(2)
C5 C6 C7 C8 3.9(4)
C6 C1 C2 C3 9.4(5)
C6 C5 C10 I2 -178.3(2)
C6 C5 C10 C9 0.1(4)
C6 C7 C8 C9 -1.4(5)
C7 C8 C9 C10 -1.8(5)
C8 C9 C10 I2 -179.0(2)
C8 C9 C10 C5 2.4(5)
C10 C5 C6 C1 176.5(3)
C10 C5 C6 C7 -3.2(4)
