#------------------------------------------------------------------------------
#$Date: 2016-02-25 04:57:23 +0200 (Thu, 25 Feb 2016) $
#$Revision: 176886 $
#$URL: svn://www.crystallography.net/cod/cif/1/54/25/1542542.cif $
#------------------------------------------------------------------------------
#
# This file is available in the Crystallography Open Database (COD),
# http://www.crystallography.net/
#
# All data on this site have been placed in the public domain by the
# contributors.
#
data_1542542
loop_
_publ_author_name
'Numata, Takashi'
'Ikenomoto, Shun'
'Akitsu, Takashiro'
_publ_section_title
;
 4,4'-(1,2-Diazaniumylethane-1,2-diyl)dibenzoate trihydrate
;
_journal_coeditor_code           RZ4001
_journal_issue                   2
_journal_name_full               IUCrData
_journal_page_first              x160252
_journal_paper_doi               10.1107/S2414314616002522
_journal_volume                  1
_journal_year                    2016
_chemical_formula_iupac          'C16 H16 N2 O4, 3H2 O'
_chemical_formula_moiety         'C16 H16 N2 O4, 3(H2 O)'
_chemical_formula_sum            'C16 H22 N2 O7'
_chemical_formula_weight         354.35
_chemical_name_systematic
;
4,4'-(1,2-Diazaniumylethane-1,2-diyl)dibenzoate trihydrate
;
_space_group_crystal_system      triclinic
_space_group_IT_number           1
_space_group_name_Hall           'P 1'
_space_group_name_H-M_alt        'P 1'
_symmetry_space_group_name_Hall  'P 1'
_symmetry_space_group_name_H-M   'P 1'
_atom_sites_solution_hydrogens   mixed
_atom_sites_solution_primary     direct
_atom_sites_solution_secondary   difmap
_cell_angle_alpha                109.182(6)
_cell_angle_beta                 93.369(6)
_cell_angle_gamma                98.437(6)
_cell_formula_units_Z            1
_cell_length_a                   6.778(3)
_cell_length_b                   6.953(3)
_cell_length_c                   9.458(4)
_cell_measurement_reflns_used    2325
_cell_measurement_temperature    173
_cell_measurement_theta_max      27.54
_cell_measurement_theta_min      2.29
_cell_volume                     413.7(3)
_computing_cell_refinement
;
SAINT (Bruker, 2013)
;
_computing_data_collection
;
APEX2 (Bruker, 2013)
;
_computing_data_reduction
;
SAINT (Bruker, 2013)
;
_computing_molecular_graphics
;
SHELXTL (Sheldrick, 2008)
;
_computing_publication_material
;
SHELXTL (Sheldrick, 2008)
;
_computing_structure_refinement
;
SHELXL2014 (Sheldrick, 2015)
;
_computing_structure_solution
;
SHELXS2013 (Sheldrick, 2008)
;
_diffrn_ambient_temperature      173
_diffrn_detector_area_resol_mean 8.333
_diffrn_measured_fraction_theta_full 0.948
_diffrn_measured_fraction_theta_max 0.948
_diffrn_measurement_device_type  'Bruker APEXII CCD'
_diffrn_measurement_method       '\f and \w scans'
_diffrn_radiation_type           'Mo K\a'
_diffrn_radiation_wavelength     0.71073
_diffrn_reflns_av_R_equivalents  0.0194
_diffrn_reflns_limit_h_max       8
_diffrn_reflns_limit_h_min       -8
_diffrn_reflns_limit_k_max       9
_diffrn_reflns_limit_k_min       -8
_diffrn_reflns_limit_l_max       6
_diffrn_reflns_limit_l_min       -12
_diffrn_reflns_number            2325
_diffrn_reflns_theta_full        27.54
_diffrn_reflns_theta_max         27.54
_diffrn_reflns_theta_min         2.29
_exptl_absorpt_coefficient_mu    0.112
_exptl_absorpt_correction_T_max  0.990
_exptl_absorpt_correction_T_min  0.946
_exptl_absorpt_correction_type   multi-scan
_exptl_absorpt_process_details
;
(SADABS; Bruker, 2013)
;
_exptl_crystal_colour            colourless
_exptl_crystal_density_diffrn    1.422
_exptl_crystal_description       prism
_exptl_crystal_F_000             188
_exptl_crystal_size_max          0.491
_exptl_crystal_size_mid          0.342
_exptl_crystal_size_min          0.074
_refine_diff_density_max         0.372
_refine_diff_density_min         -0.214
_refine_ls_abs_structure_details
;
Flack <i>x</i> determined using 217 quotients [(I+)-(I-)]/[(I+)+(I-)]
(Parsons <i>et al.</i>,  2013)
;
_refine_ls_abs_structure_Flack   -0.2(10)
_refine_ls_extinction_coef       0.061(11)
_refine_ls_extinction_method
;
SHELXL2014 (Sheldrick 2015)
;
_refine_ls_goodness_of_fit_ref   1.031
_refine_ls_hydrogen_treatment    mixed
_refine_ls_matrix_type           full
_refine_ls_number_parameters     253
_refine_ls_number_reflns         2030
_refine_ls_number_restraints     3
_refine_ls_restrained_S_all      1.030
_refine_ls_R_factor_all          0.0394
_refine_ls_R_factor_gt           0.0383
_refine_ls_shift/su_max          0.001
_refine_ls_shift/su_mean         0.000
_refine_ls_structure_factor_coef Fsqd
_refine_ls_weighting_details
'w=1/[\s^2^(Fo^2^)+(0.0632P)^2^+0.1469P] where P=(Fo^2^+2Fc^2^)/3'
_refine_ls_weighting_scheme      calc
_refine_ls_wR_factor_gt          0.1009
_refine_ls_wR_factor_ref         0.1025
_reflns_number_gt                1969
_reflns_number_total             2030
_reflns_threshold_expression     'I > 2\s(I)'
_cod_data_source_file            rz4001sup1.cif
_cod_data_source_block           I
_cod_database_code               1542542
_shelx_hkl_file
;
  -1   0   0  415.92   12.54
   1   0   0  512.50   12.43
  -2   0   0   63.09    1.65
   2   0   0   57.36    1.68
  -3   0   0   39.49    1.12
  -4   0   0   18.63    0.59
  -5   0   0   54.94    1.58
  -6   0   0   56.35    1.64
  -7   0   0   10.17    0.42
  -8   0   0    3.53    0.24
  -8   1   0    0.77    0.13
  -7   1   0   41.10    1.27
  -6   1   0   26.26    0.84
  -5   1   0    5.27    0.24
  -4   1   0   11.53    0.40
  -3   1   0  120.27    3.28
  -2   1   0  199.37    5.35
   1  -1   0  123.08    3.31
   0  -1   0   19.31    0.52
   0   1   0   18.79    0.56
  -1  -1   0    8.66    0.26
   1   1   0    9.12    0.32
  -2  -1   0   68.36    1.83
   2   1   0   64.92    1.86
   2   1   0   68.96    1.91
  -3  -1   0   14.88    0.44
   3   1   0   13.44    0.48
   3   1   0   14.27    0.53
  -4  -1   0    8.42    0.30
  -5  -1   0    9.13    0.34
  -6  -1   0    1.61    0.15
  -7  -1   0    4.60    0.25
  -8  -1   0    1.25    0.16
  -8   2   0    0.91    0.14
  -7   2   0   20.00    0.70
  -6   2   0   79.86    2.28
  -5   2   0    9.86    0.38
  -4   2   0    1.87    0.13
  -3   2   0   17.21    0.54
   2  -2   0   98.29    2.68
   1  -2   0   49.35    1.36
   0  -2   0   34.45    0.95
   0   2   0   34.60    1.02
  -1  -2   0  295.76    7.83
   1   2   0  290.43    7.93
  -2  -2   0  109.59    2.99
   2   2   0  109.55    3.02
   2   2   0  114.42    3.14
  -3  -2   0  111.51    2.85
   3   2   0  106.89    3.01
   3   2   0   97.01    2.89
  -4  -2   0    9.29    0.32
   4   2   0    9.18    0.45
  -5  -2   0    1.36    0.12
  -6  -2   0    1.96    0.15
  -7  -2   0    2.07    0.18
  -8  -2   0   15.36    0.57
  -8   3   0    4.13    0.28
  -7   3   0    0.25    0.08
  -6   3   0    2.55    0.18
  -5   3   0   18.99    0.64
  -4   3   0  127.03    3.49
   3  -3   0    6.00    0.25
   2  -3   0    1.46    0.10
   1  -3   0   13.36    0.42
  -1   3   0   13.81    0.48
   0  -3   0   42.79    1.19
   0   3   0   41.40    1.19
   0   3   0   44.87    1.30
  -1  -3   0   38.10    1.04
   1   3   0   37.95    1.19
  -2  -3   0   94.62    2.50
   2   3   0   90.42    2.69
  -3  -3   0   11.70    0.36
   3   3   0   11.83    0.53
  -4  -3   0    2.54    0.13
   4   3   0    2.46    0.25
  -5  -3   0   21.35    0.65
   5   3   0   20.20    0.87
  -6  -3   0    0.66    0.10
  -8   4   0    4.30    0.29
  -7   4   0    3.51    0.24
  -6   4   0    4.52    0.26
  -5   4   0    1.34    0.14
   4  -4   0   28.87    0.91
   3  -4   0    3.77    0.20
   2  -4   0   22.28    0.69
  -2   4   0   22.75    0.74
   1  -4   0   10.38    0.36
  -1   4   0   11.63    0.45
   0  -4   0   28.69    0.84
   0   4   0   29.79    0.97
  -1  -4   0   11.98    0.36
   1   4   0   11.67    0.51
  -2  -4   0    4.31    0.15
   2   4   0    4.02    0.30
  -3  -4   0   12.71    0.37
   3   4   0   10.97    0.57
  -4  -4   0   16.53    0.49
   4   4   0   15.45    0.73
  -5  -4   0   16.47    0.51
   5   4   0   15.47    0.77
  -7   5   0    9.29    0.43
  -6   5   0    2.17    0.20
  -5   5   0    0.14    0.07
   4  -5   0    3.83    0.22
   3  -5   0    5.19    0.25
   2  -5   0   28.27    0.86
  -2   5   0   27.85    0.92
   1  -5   0    1.78    0.12
  -1   5   0    1.95    0.18
   0  -5   0    8.42    0.30
   0   5   0    8.62    0.43
  -1  -5   0    0.46    0.06
   1   5   0    0.51    0.13
  -2  -5   0    0.75    0.07
   2   5   0    0.68    0.16
  -3  -5   0    9.20    0.30
   3   5   0    8.49    0.52
   4   5   0    1.33    0.24
   5   5   0    4.94    0.44
   6   5   0   10.14    0.69
  -7   6   0    0.75    0.14
  -6   6   0    2.03    0.20
   4  -6   0    7.55    0.35
   3  -6   0    6.90    0.31
   2  -6   0   77.68    2.19
  -2   6   0   77.01    2.36
   1  -6   0   30.16    0.92
  -1   6   0   30.48    1.06
   0  -6   0   16.79    0.56
   0   6   0   18.34    0.74
  -1  -6   0    9.84    0.36
   1   6   0   10.82    0.55
  -2  -6   0    0.65    0.08
   2   6   0    0.66    0.17
   3   6   0    5.75    0.45
   4   6   0   14.82    0.80
  -6   7   0    0.95    0.16
   5  -7   0    2.15    0.22
   4  -7   0    1.95    0.20
   3  -7   0    4.04    0.24
   2  -7   0    9.48    0.39
   1  -7   0    2.82    0.19
  -1   7   0    2.96    0.27
   0  -7   0    1.85    0.15
   0   7   0    2.25    0.28
   1   7   0    0.79    0.18
   2   7   0    3.06    0.37
   3   7   0    3.61    0.43
   4  -8   0    7.40    0.38
   3  -8   0    3.36    0.24
   2  -8   0    0.76    0.16
   0   8   0   33.08    1.26
   1   8   0   48.24    1.73
   2   8  -1    3.10    0.40
   1   8  -1   11.91    0.68
   0   8  -1    0.41    0.16
  -1   8  -1    2.66    0.33
   4  -8   1    1.94    0.21
   3   7  -1    0.09    0.13
   2   7  -1   12.51    0.70
   1   7  -1    2.56    0.33
   0   7  -1    0.27    0.12
  -1   7  -1    6.20    0.40
   2  -7   1    0.95    0.12
   3  -7   1    2.22    0.20
   4  -7   1    0.73    0.13
  -5   7  -1    0.74    0.13
  -6   7  -1    3.34    0.25
   5   6  -1    0.82    0.23
   4   6  -1   13.96    0.75
   3   6  -1    3.97    0.37
   2   6  -1    0.99    0.21
   1   6  -1    8.23    0.48
   0   6  -1    1.74    0.23
   0  -6   1    1.33    0.12
  -1   6  -1    4.33    0.30
   1  -6   1    4.24    0.21
  -2   6  -1    1.47    0.19
   2  -6   1    1.31    0.13
   3  -6   1    2.10    0.18
   4  -6   1    5.57    0.29
  -5   6  -1   15.89    0.58
  -6   6  -1    2.04    0.20
  -7   6  -1    1.52    0.19
   6   5  -1    1.22    0.27
   5   5  -1   11.31    0.65
   4   5  -1    6.47    0.46
   3   5  -1    5.49    0.40
   2   5  -1    1.21    0.21
  -2  -5   1    1.40    0.08
   1   5  -1    4.37    0.32
  -1  -5   1    4.78    0.18
   0   5  -1   17.35    0.69
   0  -5   1   17.24    0.54
  -1   5  -1    8.88    0.42
   1  -5   1    8.35    0.31
  -2   5  -1    3.17    0.23
   2  -5   1    3.25    0.18
   3  -5   1   11.34    0.42
  -5   5  -1   18.40    0.64
  -6   5  -1    1.01    0.14
  -7   5  -1    6.25    0.34
   6   4  -1    6.81    0.50
   5   4  -1    0.58    0.16
   4   4  -1    4.51    0.34
  -4  -4   1    3.73    0.16
   3   4  -1   24.32    0.95
  -3  -4   1   26.17    0.72
   2   4  -1  123.40    3.64
  -2  -4   1  129.47    3.40
   1   4  -1   87.56    2.63
   1   4  -1   95.61    2.44
  -1  -4   1   86.75    2.44
   0   4  -1   15.01    0.57
   0   4  -1   13.98    0.46
   0  -4   1   14.36    0.44
   1  -4   1   78.63    2.17
   2  -4   1   57.49    1.62
   3  -4   1   70.00    1.98
  -4   4  -1    8.80    0.34
  -5   4  -1    9.71    0.39
  -6   4  -1    4.33    0.25
  -7   4  -1    4.43    0.27
  -8   4  -1    4.93    0.31
   6   3  -1    4.03    0.36
  -6  -3   1    3.61    0.22
   5   3  -1    0.71    0.16
  -5  -3   1    0.71    0.08
   4   3  -1    3.37    0.27
  -4  -3   1    3.16    0.14
   3   3  -1   43.43    1.40
  -3  -3   1   43.12    1.20
   2   3  -1    2.72    0.13
   2   3  -1    2.57    0.21
  -2  -3   1    2.75    0.10
   1   3  -1    7.79    0.36
   1   3  -1    7.94    0.24
  -1  -3   1    7.59    0.23
   0   3  -1    9.45    0.32
   0   3  -1   10.62    0.41
   1  -3   1   21.67    0.63
   2  -3   1    5.95    0.23
  -3   3  -1   22.94    0.70
  -4   3  -1   74.82    2.10
  -5   3  -1   14.78    0.52
  -6   3  -1   18.06    0.64
  -7   3  -1   23.14    0.80
  -8   3  -1   19.79    0.73
  -7  -2   1   20.60    0.68
  -6  -2   1    1.94    0.14
   5   2  -1    4.38    0.28
   5   2  -1    4.16    0.30
  -5  -2   1    4.01    0.19
   4   2  -1    3.57    0.22
   4   2  -1    3.57    0.25
  -4  -2   1    3.81    0.16
   3   2  -1   10.54    0.44
   3   2  -1    9.94    0.38
  -3  -2   1   10.17    0.32
   2   2  -1   53.23    1.57
  -2  -2   1   52.57    1.44
   1   2  -1   61.26    1.82
   1   2  -1   65.19    1.73
  -1  -2   1   64.93    1.71
   0   2  -1  755.86   20.20
   1  -2   1  816.07   21.99
  -2   2  -1   17.22    0.52
  -3   2  -1   35.77    1.03
  -4   2  -1    3.74    0.18
  -5   2  -1   15.24    0.53
  -6   2  -1  123.11    3.43
  -7   2  -1   17.38    0.63
  -8   2  -1    2.69    0.24
  -8  -1   1    8.16    0.37
  -7  -1   1    5.20    0.27
  -6  -1   1   19.99    0.66
  -5  -1   1    2.90    0.16
   4   1  -1   39.45    1.21
   4   1  -1   38.53    1.20
  -4  -1   1   38.98    1.12
   3   1  -1   85.00    2.42
   3   1  -1   86.03    2.40
  -3  -1   1   85.72    2.34
   2   1  -1  215.61    5.76
   2   1  -1  214.03    5.79
  -2  -1   1  210.94    5.72
   1   1  -1  588.97   15.96
   1   1  -1  602.65   15.92
   0   1  -1   65.23    1.80
  -1   1  -1   87.05    2.35
  -2   1  -1   50.61    1.40
  -3   1  -1  101.37    2.77
  -4   1  -1    8.39    0.31
  -5   1  -1   33.23    1.01
  -6   1  -1   20.41    0.69
  -7   1  -1    0.71    0.13
  -8   1  -1    1.32    0.16
  -8   0   1    3.93    0.25
  -7   0   1    0.65    0.12
  -6   0   1   93.57    2.63
  -5   0   1  108.64    3.01
   4   0  -1   22.06    0.77
  -4   0   1   22.82    0.69
   3   0  -1   34.39    1.04
  -3   0   1   34.23    0.98
   2   0  -1   12.78    0.39
   2   0  -1   12.46    0.42
  -2   0   1   12.62    0.38
   1   0  -1   67.66    1.87
   1   0  -1   70.76    1.89
   0   0  -1    0.26    0.03
   0   0  -1    0.26    0.02
  -1   0  -1   53.33    1.45
  -2   0  -1  243.57    6.53
  -3   0  -1    5.14    0.20
  -4   0  -1   62.60    1.76
  -5   0  -1   18.22    0.60
  -6   0  -1   12.03    0.45
  -7   0  -1   14.32    0.54
  -8   0  -1   15.51    0.59
  -8   1   1    2.23    0.21
  -7   1   1   10.38    0.43
  -6   1   1    5.74    0.27
  -5   1   1   11.81    0.43
  -4   1   1   10.99    0.38
   3  -1  -1   14.76    0.53
  -3   1   1   15.49    0.48
   2  -1  -1  207.46    5.38
   2  -1  -1  192.57    5.42
   1  -1  -1    7.73    0.24
   0  -1  -1  136.80    3.66
   0   1   1  136.29    3.70
  -1  -1  -1    4.77    0.15
   1   1   1    5.13    0.22
  -2  -1  -1   77.74    2.15
   2   1   1   80.54    2.26
  -3  -1  -1   22.83    0.67
  -4  -1  -1   23.69    0.72
  -5  -1  -1   33.58    1.01
  -6  -1  -1    4.99    0.25
  -7  -1  -1    5.63    0.29
  -8  -1  -1    0.86    0.13
  -8   2   1   12.88    0.53
  -7   2   1    6.13    0.31
  -6   2   1    9.09    0.38
  -5   2   1    3.10    0.18
  -4   2   1   30.06    0.90
   3  -2  -1  144.69    3.94
   2  -2  -1   46.51    1.31
   1  -2  -1  131.56    3.61
  -1   2   1  136.60    3.64
   0  -2  -1  165.12    4.42
   0   2   1  164.90    4.50
  -1  -2  -1   75.17    1.99
   1   2   1   72.15    2.10
  -2  -2  -1  281.68    7.76
   2   2   1  299.48    7.92
  -3  -2  -1   21.64    0.64
   3   2   1   21.95    0.80
  -4  -2  -1    1.49    0.10
  -5  -2  -1    0.67    0.09
  -6  -2  -1    7.22    0.31
  -7  -2  -1    0.85    0.13
  -8   3   1    2.51    0.23
  -7   3   1    0.16    0.08
  -6   3   1    0.10    0.06
  -5   3   1    7.39    0.32
   4  -3  -1    6.29    0.28
   3  -3  -1   15.75    0.52
   2  -3  -1   17.98    0.56
  -2   3   1   17.94    0.57
   1  -3  -1  127.76    3.50
  -1   3   1  130.74    3.56
   0  -3  -1   43.53    1.21
   0   3   1   43.48    1.31
  -1  -3  -1   38.07    1.03
   1   3   1   36.33    1.18
  -2  -3  -1   58.26    1.59
   2   3   1   58.43    1.78
  -3  -3  -1   10.87    0.34
   3   3   1   10.69    0.51
  -4  -3  -1    2.65    0.14
   4   3   1    2.38    0.26
  -5  -3  -1   12.77    0.44
  -6  -3  -1   24.20    0.76
  -7  -3  -1    1.43    0.16
  -8   4   1    1.45    0.18
  -7   4   1    1.72    0.18
  -6   4   1    0.47    0.10
   4  -4  -1   35.56    1.09
   3  -4  -1    2.85    0.17
   2  -4  -1   10.34    0.37
  -2   4   1   10.21    0.39
   1  -4  -1  160.72    4.45
  -1   4   1  168.12    4.54
   0  -4  -1    6.40    0.23
   0   4   1    6.55    0.33
  -1  -4  -1   24.12    0.69
   1   4   1   23.85    0.86
  -2  -4  -1    0.46    0.05
   2   4   1    0.30    0.11
  -3  -4  -1   10.71    0.33
   3   4   1    9.80    0.53
  -4  -4  -1   24.53    0.71
   4   4   1   22.87    0.98
  -5  -4  -1    9.11    0.33
   5   4   1    8.92    0.58
  -6  -4  -1    0.23    0.08
  -7   5   1    1.14    0.16
  -6   5   1    3.67    0.24
   5  -5  -1    2.57    0.23
   4  -5  -1   11.44    0.45
   3  -5  -1   20.96    0.69
   2  -5  -1    0.30    0.07
  -2   5   1    0.28    0.08
   1  -5  -1    3.05    0.16
  -1   5   1    2.84    0.21
   0  -5  -1    6.72    0.26
   0   5   1    7.07    0.38
  -1  -5  -1    6.74    0.25
   1   5   1    6.60    0.39
  -2  -5  -1    1.40    0.09
   2   5   1    1.31    0.21
  -3  -5  -1    6.62    0.24
   3   5   1    5.94    0.43
  -4  -5  -1    2.77    0.14
   4   5   1    2.31    0.34
   5   5   1    2.02    0.34
  -6   6   1    4.85    0.29
   5  -6  -1    0.36    0.10
   4  -6  -1   12.60    0.50
   3  -6  -1    9.64    0.40
   2  -6  -1    4.53    0.23
   1  -6  -1    0.48    0.09
  -1   6   1    0.33    0.10
   0  -6  -1   23.39    0.75
   0   6   1   24.45    0.91
  -1  -6  -1   48.05    1.40
   1   6   1   49.82    1.65
  -2  -6  -1   42.54    1.26
   2   6   1   44.85    1.54
  -3  -6  -1    2.72    0.15
   3   6   1    2.57    0.34
   4   6   1    4.34    0.44
   5  -7  -1    8.51    0.41
   4  -7  -1    4.05    0.26
   3  -7  -1    0.71    0.12
   2  -7  -1    2.30    0.18
   1  -7  -1    0.12    0.06
   0  -7  -1   18.73    0.63
   0   7   1   18.63    0.80
  -1  -7  -1    1.24    0.13
   1   7   1    1.54    0.25
   2   7   1    4.99    0.42
   3   7   1    0.66    0.21
   3  -8  -1    2.95    0.23
   2  -8  -1    0.16    0.08
   1  -8  -1   -0.04    0.06
   2   8  -2    3.30    0.42
   1   8  -2    3.12    0.39
   0   8  -2    3.84    0.37
  -1   8  -2    6.68    0.46
  -5   8  -2    0.15    0.11
   4   7  -2    3.55    0.44
   3   7  -2    2.37    0.36
   2   7  -2    3.32    0.35
   1   7  -2    1.34    0.25
   0   7  -2    1.85    0.27
  -1   7  -2    0.67    0.17
  -2   7  -2   14.51    0.66
   3  -7   2    2.23    0.20
  -5   7  -2    6.05    0.31
  -6   7  -2    6.89    0.36
   5   6  -2    4.93    0.44
   4   6  -2    1.63    0.28
   3   6  -2    9.51    0.57
   2   6  -2    4.57    0.37
   1   6  -2   18.72    0.81
   0   6  -2    2.79    0.27
  -1   6  -2    9.69    0.49
   1  -6   2    9.49    0.36
   2  -6   2   10.74    0.40
   3  -6   2    8.17    0.34
  -4   6  -2   17.08    0.59
  -5   6  -2    4.97    0.27
  -6   6  -2    0.88    0.14
  -7   6  -2    0.96    0.15
   6   5  -2    1.61    0.28
   5   5  -2    5.01    0.41
   4   5  -2    3.54    0.33
   3   5  -2    0.29    0.12
   2   5  -2    5.37    0.37
   1   5  -2   62.98    1.96
  -1  -5   2   61.75    1.72
   0   5  -2   26.97    0.84
   0   5  -2   27.79    0.99
   0  -5   2   27.93    0.81
  -1   5  -2    2.59    0.17
   1  -5   2    2.77    0.15
   2  -5   2    0.16    0.06
  -4   5  -2    8.47    0.34
  -5   5  -2    2.24    0.17
  -6   5  -2    0.14    0.08
  -7   5  -2   14.96    0.59
   7   4  -2   12.13    0.70
   6   4  -2   15.65    0.76
   5   4  -2    0.77    0.18
   4   4  -2    5.61    0.38
   3   4  -2    8.71    0.46
  -3  -4   2    8.68    0.30
   2   4  -2    1.40    0.19
   2   4  -2    1.25    0.10
  -2  -4   2    1.37    0.06
   1   4  -2   14.75    0.45
   1   4  -2   14.26    0.59
  -1  -4   2   14.82    0.43
   0   4  -2    3.42    0.18
   0  -4   2    3.87    0.15
   1  -4   2  206.34    5.56
   2  -4   2   48.00    1.36
  -3   4  -2    1.52    0.13
  -4   4  -2    2.98    0.17
  -5   4  -2   17.76    0.61
  -6   4  -2   40.58    1.25
  -7   4  -2   90.56    2.61
  -8   4  -2    9.83    0.46
   6   3  -2    0.83    0.18
   5   3  -2    4.40    0.32
   4   3  -2    2.25    0.18
   4   3  -2    2.36    0.22
  -4  -3   2    2.52    0.12
   3   3  -2   67.24    2.06
   3   3  -2   70.63    1.95
  -3  -3   2   67.38    1.86
   2   3  -2   39.36    1.10
   2   3  -2   36.30    1.21
  -2  -3   2   38.87    1.04
   1   3  -2   63.69    1.93
   1   3  -2   66.17    1.80
  -1  -3   2   67.00    1.77
   0   3  -2   52.24    1.52
   0  -3   2   55.70    1.47
   1  -3   2   16.57    0.50
  -2   3  -2   96.66    2.64
  -3   3  -2    2.37    0.13
  -4   3  -2    3.80    0.19
  -5   3  -2   20.30    0.67
  -6   3  -2    6.89    0.32
  -7   3  -2   22.66    0.79
  -8   3  -2    0.21    0.11
   6   2  -2   24.73    0.92
   6   2  -2   24.42    0.92
  -6  -2   2   24.71    0.77
   5   2  -2  318.63    8.89
   5   2  -2  329.52    8.88
  -5  -2   2  326.26    8.73
   4   2  -2   33.19    1.10
   4   2  -2   34.31    1.07
  -4  -2   2   33.92    0.97
   3   2  -2    4.20    0.25
   3   2  -2    4.30    0.21
  -3  -2   2    3.91    0.15
   2   2  -2    3.18    0.16
   2   2  -2    3.49    0.21
  -2  -2   2    3.38    0.12
   1   2  -2   22.71    0.67
  -1  -2   2   24.34    0.63
   0   2  -2  883.93   22.62
   0  -2   2  807.32   22.51
  -1   2  -2  960.07   25.85
  -2   2  -2  110.06    2.99
  -3   2  -2    1.79    0.11
  -4   2  -2   28.08    0.85
  -5   2  -2   24.26    0.77
  -6   2  -2    2.56    0.19
  -7   2  -2    1.77    0.19
  -8   2  -2   12.02    0.51
  -7  -1   2   16.68    0.58
   6   1  -2   54.90    1.74
  -6  -1   2   53.44    1.56
   5   1  -2    8.44    0.40
   5   1  -2    8.99    0.43
  -5  -1   2    8.74    0.33
   4   1  -2   18.51    0.64
   4   1  -2   19.17    0.67
  -4  -1   2   18.59    0.58
   3   1  -2   14.28    0.50
   3   1  -2   14.56    0.51
  -3  -1   2   14.00    0.44
   2   1  -2  106.42    2.92
   2   1  -2  103.95    2.93
  -2  -1   2  109.20    2.87
   1   1  -2    5.54    0.20
  -1  -1   2    5.63    0.18
   0   1  -2   46.37    1.29
  -1   1  -2   13.84    0.40
  -2   1  -2   10.52    0.33
  -3   1  -2   93.16    2.56
  -4   1  -2    0.08    0.04
  -5   1  -2    8.62    0.34
  -6   1  -2    8.55    0.36
  -7   1  -2    0.55    0.11
  -8   1  -2    0.87    0.14
  -8   0   2    0.78    0.13
  -7   0   2   14.28    0.53
  -6   0   2    2.66    0.17
   5   0  -2   21.10    0.77
  -5   0   2   19.59    0.65
   4   0  -2   24.27    0.83
  -4   0   2   24.20    0.73
   3   0  -2   19.80    0.65
   3   0  -2   19.03    0.58
  -3   0   2   19.21    0.58
   2   0  -2  116.14    3.02
   2   0  -2  110.19    3.07
   2   0  -2  108.61    3.02
   1   0  -2   58.76    1.61
   1   0  -2   58.16    1.58
   0   0  -2  128.37    3.42
   0   0  -2  123.62    3.40
  -1   0  -2   10.18    0.30
  -2   0  -2   60.94    1.67
  -3   0  -2  366.69    9.83
  -4   0  -2    6.18    0.25
  -5   0  -2    9.03    0.35
  -6   0  -2    0.81    0.12
  -7   0  -2   13.80    0.53
  -8   0  -2    4.23    0.27
  -8   1   2    1.61    0.18
  -7   1   2    3.99    0.24
  -6   1   2    0.69    0.10
   5  -1  -2   13.53    0.58
  -5   1   2   13.55    0.47
   4  -1  -2   91.49    2.62
  -4   1   2   90.05    2.51
   3  -1  -2  307.82    8.15
   3  -1  -2  298.34    8.22
   2  -1  -2   14.32    0.48
   2  -1  -2   14.03    0.44
   1  -1  -2   37.12    1.02
   1  -1  -2   36.67    1.05
   0  -1  -2  489.10   13.16
   0  -1  -2  496.45   13.15
  -1  -1  -2    4.00    0.14
  -1  -1  -2    4.07    0.15
  -2  -1  -2    4.77    0.17
  -3  -1  -2   10.26    0.34
  -4  -1  -2   10.84    0.38
  -5  -1  -2    2.60    0.16
  -6  -1  -2    4.46    0.24
  -7  -1  -2   12.49    0.49
  -8  -1  -2    0.92    0.14
  -8   2   2    0.42    0.10
  -7   2   2    1.48    0.16
  -6   2   2   11.08    0.43
  -5   2   2    2.35    0.16
   4  -2  -2   31.82    1.07
   4  -2  -2   32.67    0.98
   3  -2  -2   27.26    0.89
   3  -2  -2   27.88    0.83
   2  -2  -2   49.97    1.47
   2  -2  -2   51.10    1.42
  -2   2   2   50.56    1.38
   1  -2  -2  181.32    5.08
   1  -2  -2  190.53    5.06
  -1   2   2  192.69    5.08
   0  -2  -2  183.34    4.96
   0   2   2  186.79    5.04
  -1  -2  -2    3.66    0.13
   1   2   2    3.26    0.21
  -2  -2  -2    6.22    0.21
  -3  -2  -2    6.85    0.24
  -4  -2  -2    0.25    0.06
  -5  -2  -2  110.41    3.05
  -6  -2  -2    7.10    0.31
  -7  -2  -2    0.73    0.12
  -8   3   2    1.01    0.15
  -7   3   2   12.14    0.49
  -6   3   2    5.97    0.29
   4  -3  -2    3.38    0.19
   3  -3  -2    3.25    0.17
   2  -3  -2   33.35    0.98
  -2   3   2   34.35    0.98
   1  -3  -2    0.26    0.05
  -1   3   2    0.26    0.06
   0  -3  -2   10.39    0.33
   0   3   2   10.29    0.41
  -1  -3  -2   53.28    1.44
   1   3   2   51.75    1.60
  -2  -3  -2    3.02    0.13
   2   3   2    3.07    0.24
  -3  -3  -2   52.55    1.46
   3   3   2   53.13    1.72
  -4  -3  -2    4.66    0.20
  -5  -3  -2    2.69    0.17
  -6  -3  -2   -0.01    0.08
  -7  -3  -2    6.50    0.32
  -8   4   2    4.22    0.28
  -7   4   2   29.96    0.99
  -6   4   2   10.11    0.42
   5  -4  -2   14.55    0.54
   4  -4  -2   17.76    0.61
   3  -4  -2    1.43    0.13
   2  -4  -2   15.54    0.50
  -2   4   2   14.88    0.65
   1  -4  -2   70.06    2.01
  -1   4   2   74.60    2.09
   0  -4  -2    7.57    0.27
   0   4   2    7.54    0.36
  -1  -4  -2    1.48    0.09
   1   4   2    1.39    0.18
  -2  -4  -2    2.08    0.11
   2   4   2    1.72    0.22
  -3  -4  -2   17.19    0.51
   3   4   2   16.09    0.75
  -4  -4  -2    1.45    0.11
  -5  -4  -2    0.23    0.07
  -6  -4  -2   14.66    0.51
  -7   5   2    8.03    0.39
  -6   5   2    1.14    0.16
   5  -5  -2    3.05    0.22
   4  -5  -2    7.49    0.34
   3  -5  -2    1.73    0.16
   2  -5  -2    6.15    0.27
   1  -5  -2    2.79    0.16
  -1   5   2    2.69    0.20
   0  -5  -2    7.44    0.29
   0   5   2    7.89    0.40
  -1  -5  -2   44.75    1.30
   1   5   2   46.35    1.50
  -2  -5  -2    8.47    0.30
   2   5   2    8.20    0.48
  -3  -5  -2    9.17    0.32
   3   5   2    9.06    0.56
  -4  -5  -2    1.64    0.12
   4   5   2    1.38    0.28
  -5  -5  -2    4.25    0.20
   5  -6  -2   16.45    0.62
   4  -6  -2   40.84    1.26
   3  -6  -2   22.87    0.76
   2  -6  -2    4.71    0.24
   1  -6  -2    3.08    0.18
   0  -6  -2    6.49    0.29
   0   6   2    7.04    0.40
  -1  -6  -2   72.37    2.04
   1   6   2   71.91    2.27
  -2  -6  -2   40.34    1.21
   2   6   2   42.17    1.49
  -3  -6  -2   13.45    0.47
   3   6   2   13.93    0.76
  -4  -6  -2    0.15    0.06
   4   6   2    0.02    0.14
   5  -7  -2   27.15    0.94
   4  -7  -2   13.03    0.53
   3  -7  -2    4.44    0.26
   2  -7  -2   14.14    0.53
   1  -7  -2    0.12    0.06
   0  -7  -2    4.47    0.24
  -1  -7  -2    7.42    0.33
   1   7   2    8.28    0.51
  -2  -7  -2    0.89    0.12
   2   7   2    0.70    0.21
  -1   9  -3    2.85    0.38
   2   8  -3    0.13    0.17
   1   8  -3    2.93    0.38
   0   8  -3    4.52    0.41
  -1   8  -3    0.98    0.22
  -2   8  -3    0.45    0.16
   4   7  -3    0.86    0.24
   3   7  -3    0.29    0.16
   2   7  -3    3.23    0.35
   1   7  -3    0.62    0.19
   0   7  -3    5.10    0.40
  -1   7  -3    1.60    0.25
  -2   7  -3    5.90    0.40
  -4   7  -3    4.02    0.24
  -5   7  -3    0.67    0.12
  -6   7  -3    0.07    0.08
   5   6  -3   -0.04    0.11
   4   6  -3    4.91    0.43
   3   6  -3    7.34    0.50
   2   6  -3   29.29    1.14
   1   6  -3   27.82    1.08
   0   6  -3   34.00    1.23
  -1   6  -3    0.70    0.12
  -2   6  -3    8.01    0.38
   2  -6   3    8.17    0.33
  -3   6  -3   15.52    0.53
  -4   6  -3   20.74    0.69
  -5   6  -3    1.38    0.16
  -6   6  -3    7.32    0.35
  -7   6  -3   22.14    0.79
   6   5  -3    2.05    0.30
   5   5  -3    1.13    0.23
   4   5  -3    0.42    0.15
   3   5  -3    2.64    0.27
   2   5  -3    3.80    0.31
   1   5  -3   39.00    1.36
   1   5  -3   40.96    1.15
   0   5  -3   13.69    0.49
  -1   5  -3    3.59    0.22
   1  -5   3    3.57    0.16
  -3   5  -3   29.30    0.88
  -4   5  -3   14.69    0.51
  -5   5  -3    3.49    0.21
  -6   5  -3    8.26    0.37
  -7   5  -3    3.16    0.24
   6   4  -3    0.35    0.13
   5   4  -3   18.48    0.80
   4   4  -3   67.68    2.12
   3   4  -3    6.92    0.40
   3   4  -3    7.02    0.30
   2   4  -3    1.10    0.17
   2   4  -3    1.24    0.10
   1   4  -3   30.65    0.88
   1   4  -3   29.63    1.04
  -1  -4   3   29.91    0.84
   0   4  -3   64.36    1.77
   0  -4   3   59.37    1.69
  -1   4  -3  598.32   15.18
   1  -4   3  532.14   15.08
  -2   4  -3  161.38    4.37
  -3   4  -3   13.83    0.46
  -4   4  -3   26.10    0.81
  -5   4  -3   14.51    0.52
  -6   4  -3   11.24    0.45
  -7   4  -3    6.02    0.33
  -8   4  -3    0.97    0.17
   6   3  -3   54.37    1.76
   5   3  -3   36.49    1.25
   5   3  -3   37.19    1.21
   4   3  -3    1.68    0.18
   4   3  -3    1.51    0.20
   3   3  -3   13.51    0.56
   3   3  -3   15.25    0.50
  -3  -3   3   12.85    0.40
   2   3  -3   97.74    2.74
   2   3  -3   95.63    2.86
  -2  -3   3  105.59    2.67
   1   3  -3   47.40    1.33
   0   3  -3  230.20    6.23
  -1   3  -3   51.28    1.49
  -1   3  -3   50.83    1.40
  -2   3  -3   14.64    0.45
  -3   3  -3    2.02    0.12
  -4   3  -3   15.88    0.53
  -5   3  -3    7.32    0.31
  -6   3  -3    1.67    0.16
  -7   3  -3    2.95    0.24
  -8   3  -3    1.03    0.16
   7   2  -3    2.25    0.30
   6   2  -3   10.05    0.51
   5   2  -3    6.56    0.36
   5   2  -3    6.31    0.34
  -5  -2   3    6.04    0.24
   4   2  -3   28.65    0.97
   4   2  -3   30.19    0.96
  -4  -2   3   29.65    0.85
   3   2  -3   22.60    0.72
   3   2  -3   22.31    0.76
  -3  -2   3   22.19    0.64
   2   2  -3   13.02    0.43
   2   2  -3   13.38    0.49
  -2  -2   3   12.92    0.37
   1   2  -3  123.68    3.35
   0   2  -3  123.39    3.37
  -1   2  -3  160.49    4.21
  -1   2  -3  153.45    4.29
  -2   2  -3  109.87    2.98
  -3   2  -3  107.64    2.95
  -4   2  -3   86.51    2.41
  -5   2  -3    5.18    0.25
  -6   2  -3    5.96    0.29
  -7   2  -3    3.21    0.23
  -8   2  -3    4.09    0.28
   7   1  -3    9.64    0.55
   6   1  -3    0.26    0.12
  -6  -1   3    0.22    0.07
   5   1  -3   20.48    0.76
  -5  -1   3   19.89    0.63
   4   1  -3    3.97    0.22
   4   1  -3    3.68    0.24
  -4  -1   3    4.15    0.17
   3   1  -3   68.08    1.91
   3   1  -3   65.42    1.89
  -3  -1   3   66.18    1.83
   2   1  -3   47.06    1.35
  -2  -1   3   47.84    1.30
   1   1  -3  101.76    2.75
   1   1  -3  103.69    2.79
   0   1  -3  205.87    5.41
   0   1  -3  199.41    5.46
  -1   1  -3   11.96    0.34
  -1   1  -3   11.28    0.40
  -2   1  -3   41.67    1.17
  -3   1  -3    2.52    0.13
  -4   1  -3   14.25    0.48
  -5   1  -3    1.37    0.13
  -6   1  -3   17.20    0.60
  -7   1  -3    0.19    0.08
  -8   1  -3    0.24    0.09
  -8   0   3   10.81    0.45
  -7   0   3    1.70    0.16
   6   0  -3   11.86    0.57
  -6   0   3   11.49    0.43
   5   0  -3   26.38    0.94
  -5   0   3   26.32    0.81
  -4   0   3   18.84    0.59
   3   0  -3  261.68    6.97
   3   0  -3  257.91    7.06
   2   0  -3   21.75    0.62
   2   0  -3   20.77    0.66
   1   0  -3   17.29    0.49
   1   0  -3   17.34    0.52
   0   0  -3   44.55    1.24
   0   0  -3   44.79    1.21
  -1   0  -3   10.47    0.36
  -1   0  -3   11.07    0.32
  -2   0  -3    6.52    0.22
  -3   0  -3   35.17    1.01
  -4   0  -3    9.06    0.33
  -5   0  -3    2.27    0.15
  -6   0  -3   22.95    0.76
  -7   0  -3    0.83    0.13
  -8   0  -3    1.49    0.18
  -8   1   3    4.12    0.26
  -7   1   3    1.97    0.18
   6  -1  -3   19.62    0.81
  -6   1   3   20.14    0.67
   5  -1  -3    7.33    0.39
  -5   1   3    7.27    0.30
   4  -1  -3    2.18    0.19
   3  -1  -3   40.79    1.15
   3  -1  -3   39.24    1.22
   2  -1  -3   25.17    0.79
   2  -1  -3   26.02    0.74
   1  -1  -3   26.56    0.73
   1  -1  -3   24.96    0.75
   0  -1  -3   23.47    0.67
   0  -1  -3   24.01    0.66
  -1  -1  -3   68.88    1.84
  -1  -1  -3   67.28    1.86
  -2  -1  -3   39.02    1.10
  -2  -1  -3   37.35    1.07
  -3  -1  -3   28.11    0.82
  -4  -1  -3   25.43    0.77
  -5  -1  -3    1.83    0.14
  -6  -1  -3   12.00    0.46
  -7  -1  -3    6.34    0.32
  -8   2   3    0.06    0.07
  -7   2   3    0.03    0.06
  -6   2   3   16.53    0.59
   5  -2  -3    1.14    0.18
  -5   2   3    1.13    0.12
   4  -2  -3    4.33    0.21
   4  -2  -3    4.01    0.27
   3  -2  -3   10.32    0.43
   3  -2  -3   10.41    0.37
   2  -2  -3   10.88    0.41
   2  -2  -3   11.62    0.37
   1  -2  -3  188.90    5.00
   1  -2  -3  183.06    5.03
   0  -2  -3  183.15    5.16
   0  -2  -3  201.10    5.15
  -1  -2  -3   11.37    0.34
  -2  -2  -3   29.16    0.82
  -3  -2  -3    6.70    0.25
  -4  -2  -3    3.63    0.18
  -5  -2  -3    3.36    0.19
  -6  -2  -3    0.46    0.10
  -7  -2  -3   13.23    0.51
  -8   3   3    9.48    0.44
  -7   3   3    1.77    0.18
  -6   3   3    7.87    0.35
   5  -3  -3    5.28    0.27
   4  -3  -3   17.85    0.60
   3  -3  -3    3.53    0.18
   3  -3  -3    3.54    0.23
   2  -3  -3    8.99    0.32
   2  -3  -3    9.00    0.36
   1  -3  -3    1.57    0.10
  -1   3   3    1.83    0.13
   0  -3  -3   12.58    0.41
   0   3   3   13.67    0.51
  -1  -3  -3    5.22    0.19
   1   3   3    4.82    0.30
  -2  -3  -3    2.16    0.11
  -3  -3  -3   26.65    0.78
  -4  -3  -3    0.45    0.07
  -5  -3  -3    0.41    0.09
  -6  -3  -3    1.46    0.16
  -7   4   3    0.72    0.13
   5  -4  -3    8.76    0.38
   4  -4  -3   13.97    0.51
   3  -4  -3   41.22    1.22
   2  -4  -3   17.84    0.58
   1  -4  -3   35.37    1.06
  -1   4   3   37.22    1.13
   0  -4  -3   12.82    0.43
   0   4   3   13.37    0.54
  -1  -4  -3  127.10    3.46
   1   4   3  127.51    3.67
  -2  -4  -3  274.16    7.17
   2   4   3  258.98    7.44
  -3  -4  -3   62.21    1.73
  -4  -4  -3    2.38    0.14
  -5  -4  -3    0.98    0.11
  -7   5   3    2.31    0.23
   6  -5  -3    0.73    0.13
   5  -5  -3   36.85    1.16
   4  -5  -3   23.69    0.79
   3  -5  -3    2.79    0.18
   2  -5  -3    0.76    0.10
   1  -5  -3    4.35    0.21
   0  -5  -3   16.49    0.55
   0   5   3   17.73    0.69
  -1  -5  -3   13.08    0.45
   1   5   3   13.66    0.62
  -2  -5  -3    4.10    0.19
   2   5   3    4.33    0.36
  -3  -5  -3    5.51    0.23
  -4  -5  -3   12.75    0.44
   6  -6  -3    0.23    0.10
   5  -6  -3   19.56    0.71
   4  -6  -3   28.77    0.94
   3  -6  -3    1.20    0.14
   2  -6  -3    3.10    0.20
   1  -6  -3    1.38    0.14
   0  -6  -3    0.21    0.07
  -1  -6  -3    6.75    0.30
   1   6   3    7.31    0.46
  -2  -6  -3    1.36    0.13
   2   6   3    1.40    0.25
  -3  -6  -3   19.67    0.65
   4  -7  -3    0.14    0.08
   3  -7  -3    6.36    0.33
   2  -7  -3    6.39    0.32
   1  -7  -3    2.90    0.20
   0  -7  -3    0.49    0.09
  -1  -7  -3    0.13    0.07
  -1   9  -4    1.44    0.28
  -2   9  -4    0.40    0.18
   2   8  -4    5.22    0.48
   1   8  -4   14.69    0.80
   0   8  -4   11.16    0.66
  -1   8  -4    5.41    0.44
  -2   8  -4    1.96    0.29
   4   7  -4    1.02    0.25
   3   7  -4    0.32    0.16
   2   7  -4    4.17    0.40
   1   7  -4    2.05    0.30
   0   7  -4    1.49    0.25
  -1   7  -4    4.84    0.39
  -2   7  -4    8.14    0.42
  -3   7  -4    1.08    0.17
  -6   7  -4    2.77    0.23
   5   6  -4    0.51    0.18
   4   6  -4   19.19    0.89
   3   6  -4    3.34    0.34
   2   6  -4    2.94    0.30
   1   6  -4    3.05    0.30
   0   6  -4   19.15    0.84
   0   6  -4   21.06    0.69
  -1   6  -4   77.44    2.26
  -2   6  -4  203.69    5.64
  -4   6  -4    7.32    0.32
  -5   6  -4    0.23    0.08
  -6   6  -4    9.28    0.41
  -7   6  -4   24.92    0.87
   6   5  -4    6.02    0.46
   5   5  -4   12.48    0.66
   4   5  -4    2.58    0.28
   3   5  -4    9.29    0.52
   2   5  -4    1.94    0.14
   2   5  -4    2.08    0.26
   1   5  -4    2.34    0.15
   1   5  -4    1.72    0.22
   0   5  -4   42.28    1.27
  -1   5  -4   29.85    0.97
  -2   5  -4   30.68    0.91
  -2   5  -4   31.88    1.03
  -3   5  -4    2.26    0.14
  -4   5  -4    4.40    0.22
  -5   5  -4    0.39    0.08
  -6   5  -4    8.13    0.37
  -7   5  -4    9.47    0.43
   6   4  -4    0.82    0.18
   5   4  -4   50.17    1.67
   4   4  -4  114.82    3.39
   4   4  -4  116.07    3.27
   3   4  -4   19.67    0.65
   3   4  -4   18.57    0.76
   2   4  -4    1.00    0.10
   2   4  -4    1.03    0.17
   1   4  -4   19.60    0.62
   0   4  -4   56.99    1.65
  -1   4  -4   15.39    0.55
  -1   4  -4   14.33    0.44
  -2   4  -4   21.46    0.64
  -2   4  -4   21.65    0.75
  -3   4  -4   27.14    0.81
  -4   4  -4   31.01    0.94
  -5   4  -4    5.44    0.26
  -6   4  -4   12.52    0.49
  -7   4  -4    1.03    0.15
   6   3  -4    1.75    0.24
   5   3  -4    1.81    0.21
   5   3  -4    1.83    0.22
   4   3  -4    1.58    0.20
   4   3  -4    1.87    0.17
   3   3  -4    0.91    0.11
   3   3  -4    1.42    0.18
   2   3  -4   38.49    1.12
   1   3  -4    5.67    0.23
   0   3  -4   40.38    1.20
  -1   3  -4    7.07    0.23
  -1   3  -4    7.35    0.32
  -2   3  -4   14.06    0.44
  -3   3  -4    9.56    0.34
  -4   3  -4   41.16    1.21
  -5   3  -4   18.59    0.62
  -6   3  -4    4.26    0.24
  -7   3  -4    3.23    0.24
  -8   3  -4    0.63    0.15
   7   2  -4   10.03    0.56
   6   2  -4    5.47    0.37
   5   2  -4    2.37    0.22
   4   2  -4    0.74    0.12
   4   2  -4    1.05    0.14
   3   2  -4    5.44    0.28
   3   2  -4    5.70    0.26
  -3  -2   4    5.57    0.19
   2   2  -4  187.64    5.05
  -2  -2   4  184.61    4.97
   1   2  -4    6.93    0.25
   0   2  -4   20.17    0.63
   0   2  -4   19.70    0.54
  -1   2  -4   17.87    0.61
  -1   2  -4   18.52    0.52
  -2   2  -4   30.60    0.88
  -3   2  -4   67.86    1.89
  -4   2  -4   27.19    0.83
  -5   2  -4    6.46    0.29
  -6   2  -4   14.32    0.53
  -7   2  -4   13.57    0.54
  -8   2  -4    0.32    0.12
   7   1  -4    0.73    0.19
   6   1  -4    0.62    0.16
   5   1  -4   21.96    0.80
  -5  -1   4   21.45    0.67
   4   1  -4   18.94    0.63
   4   1  -4   19.04    0.68
  -4  -1   4   18.18    0.57
   3   1  -4   41.30    1.23
   3   1  -4   42.48    1.25
  -3  -1   4   41.73    1.17
   2   1  -4   39.37    1.14
   2   1  -4   38.55    1.08
   1   1  -4    1.43    0.10
   0   1  -4   58.76    1.65
   0   1  -4   59.37    1.59
  -1   1  -4   46.81    1.37
  -1   1  -4   47.67    1.29
  -2   1  -4   78.61    2.27
  -2   1  -4   80.52    2.18
  -3   1  -4   38.55    1.11
  -4   1  -4    0.93    0.10
  -5   1  -4    0.47    0.09
  -6   1  -4    9.78    0.40
  -7   1  -4   14.28    0.55
   7   0  -4    4.27    0.37
  -7   0   4    4.63    0.25
   6   0  -4    1.82    0.24
  -6   0   4    1.56    0.14
   5   0  -4    2.46    0.22
  -5   0   4    2.61    0.16
   4   0  -4   15.34    0.59
  -4   0   4   15.41    0.50
   3   0  -4    6.58    0.23
   3   0  -4    6.25    0.30
   3   0  -4    6.55    0.24
   2   0  -4   24.13    0.69
   2   0  -4   23.53    0.74
   1   0  -4   11.12    0.37
   1   0  -4   11.40    0.34
   0   0  -4 1000.00   25.65
   0   0  -4  890.99   25.42
  -1   0  -4   77.21    2.17
  -1   0  -4   79.27    2.12
  -2   0  -4   18.00    0.60
  -2   0  -4   18.11    0.54
  -3   0  -4   34.72    1.00
  -4   0  -4   12.54    0.43
  -5   0  -4   25.83    0.81
  -6   0  -4   25.00    0.82
  -7   0  -4    6.96    0.34
  -8   1   4    0.37    0.10
   7  -1  -4   13.51    0.67
  -7   1   4   12.91    0.50
   6  -1  -4    4.24    0.33
  -6   1   4    4.38    0.24
   5  -1  -4   10.36    0.49
  -5   1   4   10.24    0.39
   4  -1  -4    4.29    0.27
   4  -1  -4    4.39    0.21
   3  -1  -4   24.22    0.74
   3  -1  -4   24.68    0.81
   2  -1  -4   36.02    1.07
   2  -1  -4   35.83    1.02
   1  -1  -4   43.84    1.27
   1  -1  -4   45.21    1.24
   0  -1  -4    8.60    0.29
   0  -1  -4    9.18    0.27
  -1  -1  -4    3.03    0.14
  -1  -1  -4    3.02    0.12
  -2  -1  -4   34.27    0.97
  -2  -1  -4   34.36    1.00
  -3  -1  -4    9.89    0.34
  -4  -1  -4    5.63    0.24
  -5  -1  -4    7.58    0.32
  -6  -1  -4    4.75    0.26
  -7  -1  -4    3.60    0.24
  -8   2   4    0.70    0.13
  -7   2   4    8.07    0.37
   6  -2  -4   31.22    1.14
  -6   2   4   30.65    0.97
   5  -2  -4   12.69    0.48
   5  -2  -4   13.19    0.58
   4  -2  -4    5.04    0.30
   4  -2  -4    4.64    0.23
   3  -2  -4   31.80    1.01
   3  -2  -4   30.85    0.93
   2  -2  -4   23.12    0.73
   2  -2  -4   21.50    0.67
   1  -2  -4   18.34    0.59
   1  -2  -4   18.89    0.56
   0  -2  -4    0.02    0.03
   0  -2  -4    0.09    0.03
  -1  -2  -4   59.91    1.64
  -2  -2  -4  108.86    2.95
  -3  -2  -4  121.47    3.30
  -4  -2  -4   14.46    0.48
  -5  -2  -4    0.03    0.07
  -6  -2  -4    0.50    0.12
  -8   3   4    1.93    0.21
  -7   3   4    2.20    0.21
   5  -3  -4    5.71    0.28
   4  -3  -4   83.84    2.46
   4  -3  -4   83.13    2.36
   3  -3  -4    0.98    0.15
   3  -3  -4    0.85    0.10
   2  -3  -4    4.28    0.23
   2  -3  -4    3.96    0.19
   1  -3  -4   12.35    0.41
   0  -3  -4   20.79    0.62
  -1  -3  -4   76.18    2.09
  -2  -3  -4   60.42    1.67
  -3  -3  -4    7.51    0.27
  -4  -3  -4    1.78    0.13
  -5  -3  -4   25.90    0.80
  -6  -3  -4    1.98    0.18
  -7   4   4    2.82    0.24
   6  -4  -4    1.89    0.20
   5  -4  -4    2.15    0.19
   4  -4  -4   70.48    2.03
   3  -4  -4   49.33    1.44
   2  -4  -4   22.31    0.71
   1  -4  -4    2.52    0.15
   0  -4  -4    7.63    0.29
  -1  -4  -4    3.96    0.18
  -2  -4  -4   17.79    0.55
  -3  -4  -4    6.10    0.24
  -4  -4  -4    7.94    0.30
  -5  -4  -4    0.81    0.10
   6  -5  -4    1.66    0.19
   5  -5  -4    9.32    0.42
   4  -5  -4   17.99    0.64
   3  -5  -4    4.08    0.23
   2  -5  -4    5.03    0.25
   1  -5  -4    5.33    0.25
   0  -5  -4    0.62    0.09
  -1  -5  -4    0.80    0.10
  -2  -5  -4    0.33    0.06
  -3  -5  -4    0.79    0.09
  -4  -5  -4    5.49    0.25
   5  -6  -4    3.03    0.26
   4  -6  -4    2.78    0.21
   3  -6  -4    0.27    0.09
   2  -6  -4    0.73    0.11
   1  -6  -4   10.74    0.42
   0  -6  -4    3.64    0.21
  -1  -6  -4   14.53    0.52
  -2  -6  -4    1.08    0.12
   2  -7  -4    1.61    0.18
   1  -7  -4    5.43    0.29
  -1   9  -5   -0.12    0.12
   2   8  -5    5.93    0.51
   1   8  -5   12.11    0.71
   0   8  -5    2.03    0.32
  -1   8  -5    3.45    0.36
  -4   8  -5    3.60    0.32
   4   7  -5    0.26    0.16
   3   7  -5    0.09    0.14
   2   7  -5    8.22    0.55
   1   7  -5    6.80    0.48
   0   7  -5    0.11    0.12
  -1   7  -5   18.83    0.73
  -2   7  -5    0.69    0.15
  -3   7  -5    6.84    0.40
  -4   7  -5    0.36    0.11
   5   6  -5    5.48    0.44
   4   6  -5   56.61    1.94
   3   6  -5   43.83    1.57
   2   6  -5    1.62    0.24
   1   6  -5    9.33    0.54
   1   6  -5    9.84    0.38
   0   6  -5    4.96    0.29
  -1   6  -5   30.93    1.03
  -2   6  -5   35.24    1.17
  -3   6  -5    3.03    0.25
  -5   6  -5    0.65    0.11
  -6   6  -5   10.34    0.44
   5   5  -5   47.41    1.64
   4   5  -5    3.96    0.34
   3   5  -5    7.49    0.34
   3   5  -5    7.80    0.46
   2   5  -5    4.57    0.22
   2   5  -5    4.28    0.33
   1   5  -5   36.13    1.08
   0   5  -5   21.77    0.74
  -1   5  -5    5.86    0.32
  -2   5  -5    0.29    0.11
  -3   5  -5    8.69    0.33
  -3   5  -5    9.50    0.44
  -4   5  -5    1.47    0.13
  -5   5  -5    2.67    0.18
  -6   5  -5    4.19    0.25
  -7   5  -5    8.29    0.39
   5   4  -5    1.01    0.18
   5   4  -5    0.82    0.16
   4   4  -5    2.90    0.22
   4   4  -5    2.41    0.25
   3   4  -5    4.46    0.24
   3   4  -5    4.81    0.32
   2   4  -5   27.45    0.85
   1   4  -5   39.59    1.17
   0   4  -5    5.63    0.28
  -1   4  -5   34.47    1.10
  -2   4  -5   47.01    1.30
  -2   4  -5   45.40    1.44
  -3   4  -5   17.85    0.56
  -4   4  -5   45.68    1.33
  -5   4  -5    4.72    0.24
  -6   4  -5    3.43    0.22
  -7   4  -5    0.39    0.11
   7   3  -5    2.57    0.31
   6   3  -5    8.57    0.47
   5   3  -5    3.47    0.27
   4   3  -5    5.25    0.29
   4   3  -5    4.90    0.31
   3   3  -5   24.46    0.80
   3   3  -5   25.25    0.88
   2   3  -5   27.37    0.84
   1   3  -5    0.80    0.10
   0   3  -5    2.18    0.17
  -1   3  -5   98.70    2.69
  -1   3  -5  100.66    2.83
  -2   3  -5    6.90    0.35
  -2   3  -5    7.17    0.25
  -3   3  -5    1.48    0.11
  -4   3  -5   43.25    1.26
  -5   3  -5   11.38    0.43
  -6   3  -5    3.44    0.22
  -7   3  -5    5.46    0.31
   7   2  -5    0.54    0.18
   6   2  -5    3.72    0.31
   5   2  -5   15.72    0.63
   4   2  -5    3.94    0.24
   4   2  -5    3.86    0.25
   3   2  -5   12.25    0.48
   3   2  -5   11.84    0.45
   2   2  -5   61.94    1.76
   1   2  -5   25.92    0.78
   0   2  -5   11.59    0.32
   0   2  -5   11.06    0.41
  -1   2  -5  133.87    3.60
  -1   2  -5  134.34    3.73
  -2   2  -5    6.12    0.22
  -2   2  -5    6.15    0.32
  -3   2  -5   18.13    0.57
  -4   2  -5    0.10    0.05
  -5   2  -5    2.48    0.17
  -6   2  -5   28.36    0.91
  -7   2  -5    3.71    0.25
   8   1  -5    0.25    0.16
   7   1  -5    3.70    0.35
   6   1  -5    4.66    0.34
   5   1  -5    3.82    0.27
   4   1  -5    1.11    0.16
  -4  -1   5    1.32    0.09
   3   1  -5   20.46    0.69
   2   1  -5   69.21    1.86
   2   1  -5   67.30    1.93
   1   1  -5   64.43    1.78
   1   1  -5   62.63    1.72
   0   1  -5    0.43    0.03
   0   1  -5    0.57    0.08
  -1   1  -5   28.18    0.89
  -1   1  -5   29.14    0.80
  -2   1  -5   20.57    0.70
  -2   1  -5   19.41    0.59
  -3   1  -5    3.48    0.25
  -3   1  -5    3.43    0.16
  -4   1  -5    0.94    0.10
  -5   1  -5   27.21    0.86
  -6   1  -5    9.19    0.39
  -7   1  -5    0.65    0.12
   8   0  -5    4.36    0.41
   7   0  -5    0.38    0.16
   6   0  -5   19.16    0.78
  -6   0   5   18.25    0.64
   5   0  -5   31.79    1.09
  -5   0   5   31.59    0.95
   4   0  -5    5.03    0.22
   4   0  -5    4.85    0.28
   3   0  -5   22.19    0.65
   3   0  -5   20.83    0.72
   2   0  -5    9.82    0.33
   2   0  -5   10.59    0.38
   1   0  -5    9.95    0.30
   1   0  -5    9.56    0.34
   0   0  -5    2.54    0.10
   0   0  -5    2.43    0.13
  -1   0  -5   25.09    0.72
  -1   0  -5   26.06    0.78
  -2   0  -5   31.83    0.91
  -2   0  -5   32.43    0.99
  -3   0  -5    3.44    0.17
  -3   0  -5    3.39    0.23
  -4   0  -5   37.52    1.11
  -5   0  -5    4.60    0.24
  -6   0  -5    7.03    0.33
  -7   0  -5   16.64    0.62
   7  -1  -5    5.28    0.40
  -7   1   5    4.57    0.27
   6  -1  -5    1.32    0.20
  -6   1   5    1.44    0.15
   5  -1  -5    9.58    0.47
   4  -1  -5    5.16    0.23
   4  -1  -5    4.75    0.29
   3  -1  -5    6.10    0.24
   3  -1  -5    6.19    0.30
   2  -1  -5   23.97    0.71
   2  -1  -5   24.41    0.77
   1  -1  -5    0.14    0.04
   1  -1  -5    0.10    0.05
   0  -1  -5    9.10    0.31
   0  -1  -5    9.03    0.29
  -1  -1  -5    2.46    0.11
  -1  -1  -5    2.20    0.12
  -2  -1  -5   43.20    1.21
  -3  -1  -5   16.53    0.52
  -4  -1  -5   30.67    0.92
  -5  -1  -5    6.13    0.29
  -6  -1  -5    1.28    0.15
  -8   2   5    5.84    0.33
  -7   2   5    5.32    0.29
   6  -2  -5    8.35    0.47
  -6   2   5    7.86    0.35
   5  -2  -5    3.89    0.22
   5  -2  -5    3.93    0.29
   4  -2  -5   55.08    1.67
   4  -2  -5   53.52    1.57
   3  -2  -5  191.28    5.24
   3  -2  -5  195.19    5.33
   2  -2  -5   44.02    1.32
   2  -2  -5   44.68    1.27
   1  -2  -5   10.45    0.35
   1  -2  -5   10.57    0.38
   0  -2  -5   20.97    0.62
  -1  -2  -5    3.81    0.15
  -2  -2  -5  255.61    6.86
  -3  -2  -5  108.23    2.96
  -4  -2  -5    1.37    0.13
  -5  -2  -5    7.78    0.33
  -6  -2  -5    1.75    0.18
  -7   3   5    0.63    0.12
   5  -3  -5   21.83    0.74
   5  -3  -5   22.68    0.86
   4  -3  -5   46.27    1.41
   4  -3  -5   50.04    1.53
   3  -3  -5   32.41    0.99
   3  -3  -5   33.27    1.07
   2  -3  -5    5.16    0.23
   1  -3  -5   30.48    0.90
   0  -3  -5    9.67    0.34
  -1  -3  -5    2.62    0.13
  -2  -3  -5    2.82    0.14
  -3  -3  -5    5.12    0.21
  -4  -3  -5    2.40    0.15
  -5  -3  -5    0.21    0.08
  -7   4   5    4.36    0.28
   6  -4  -5    4.37    0.28
   5  -4  -5    0.71    0.13
   4  -4  -5   19.42    0.67
   3  -4  -5    1.39    0.14
   2  -4  -5   13.93    0.49
   1  -4  -5    4.13    0.21
   0  -4  -5   13.78    0.47
  -1  -4  -5    2.60    0.15
  -2  -4  -5    1.43    0.11
  -3  -4  -5   14.49    0.48
  -4  -4  -5   10.94    0.40
   6  -5  -5    3.31    0.29
   5  -5  -5    1.74    0.18
   4  -5  -5    2.60    0.22
   3  -5  -5    3.42    0.22
   2  -5  -5   35.90    1.10
   1  -5  -5   13.43    0.49
   0  -5  -5    0.81    0.10
  -1  -5  -5    1.43    0.14
  -2  -5  -5   12.09    0.44
  -3  -5  -5    0.55    0.09
   4  -6  -5    4.28    0.27
   3  -6  -5    2.81    0.21
   2  -6  -5    3.43    0.22
   1  -6  -5    3.51    0.22
   0  -6  -5    3.88    0.23
  -1  -6  -5    1.47    0.16
   2   8  -6    9.23    0.63
   1   8  -6    1.88    0.33
   0   8  -6    1.73    0.31
  -3   8  -6   53.47    1.75
  -4   8  -6   16.05    0.74
   4   7  -6   22.77    1.04
   3   7  -6    1.38    0.26
   2   7  -6    2.59    0.35
   1   7  -6    2.52    0.33
   0   7  -6    0.95    0.17
  -1   7  -6   11.01    0.52
  -2   7  -6    3.20    0.31
  -3   7  -6    1.75    0.24
  -4   7  -6    2.21    0.27
  -5   7  -6    7.08    0.45
   5   6  -6    2.19    0.31
   4   6  -6    5.93    0.45
   3   6  -6   11.86    0.64
   2   6  -6    6.64    0.30
   2   6  -6    5.84    0.43
   1   6  -6   20.13    0.68
   0   6  -6    6.30    0.34
  -1   6  -6   24.04    0.87
  -2   6  -6    2.47    0.27
  -4   6  -6   19.71    0.80
   5   5  -6    4.00    0.35
   4   5  -6    3.11    0.30
   4   5  -6    3.01    0.24
   3   5  -6   11.19    0.57
   3   5  -6   10.60    0.44
   2   5  -6   13.50    0.64
   2   5  -6   12.94    0.48
   1   5  -6   50.83    1.49
   0   5  -6   27.75    0.92
  -1   5  -6    4.42    0.30
  -2   5  -6    3.84    0.29
  -3   5  -6    3.26    0.27
  -4   5  -6    1.53    0.20
  -5   5  -6    0.12    0.06
  -6   5  -6    2.55    0.20
  -7   5  -6    0.16    0.09
   6   4  -6    1.62    0.24
   5   4  -6    1.46    0.20
   4   4  -6    4.06    0.31
   4   4  -6    3.96    0.26
   3   4  -6    1.29    0.14
   3   4  -6    1.06    0.18
   2   4  -6   28.65    0.89
   1   4  -6   26.45    0.83
   0   4  -6   11.97    0.48
  -1   4  -6   29.02    0.98
  -2   4  -6   18.59    0.72
  -3   4  -6    1.50    0.20
  -3   4  -6    1.55    0.11
  -4   4  -6    3.18    0.18
  -5   4  -6    1.93    0.17
  -6   4  -6    1.78    0.17
  -7   4  -6   22.07    0.77
   7   3  -6    3.97    0.36
   6   3  -6    0.50    0.14
   5   3  -6    3.52    0.27
   4   3  -6   10.28    0.47
   4   3  -6    9.90    0.44
   3   3  -6   33.16    1.05
   3   3  -6   33.80    1.12
   2   3  -6    8.63    0.34
   1   3  -6    5.28    0.24
   0   3  -6    6.45    0.31
  -1   3  -6    3.12    0.24
  -1   3  -6    3.12    0.12
  -2   3  -6    9.52    0.45
  -2   3  -6    9.79    0.32
  -3   3  -6    4.66    0.31
  -3   3  -6    4.44    0.20
  -4   3  -6    2.25    0.15
  -5   3  -6   11.22    0.43
  -6   3  -6    2.80    0.20
  -7   3  -6    7.52    0.37
   7   2  -6    2.86    0.32
   6   2  -6    2.04    0.26
   5   2  -6   58.76    1.81
   4   2  -6    2.47    0.20
   3   2  -6    1.50    0.14
   2   2  -6   12.36    0.45
   1   2  -6   12.02    0.42
   0   2  -6  135.97    3.77
   0   2  -6  137.48    3.66
  -1   2  -6  227.05    5.96
  -1   2  -6  217.89    6.10
  -2   2  -6   50.37    1.57
  -2   2  -6   51.14    1.42
  -3   2  -6    1.65    0.11
  -3   2  -6    1.86    0.22
  -4   2  -6   13.21    0.58
  -4   2  -6   12.92    0.45
  -5   2  -6   25.65    0.82
  -6   2  -6    1.77    0.17
  -7   2  -6    1.70    0.18
   7   1  -6    4.76    0.39
   6   1  -6   20.45    0.82
   5   1  -6    2.88    0.24
   4   1  -6   11.04    0.47
   3   1  -6    8.11    0.35
   2   1  -6    7.93    0.33
   2   1  -6    8.00    0.26
   1   1  -6    6.72    0.27
   0   1  -6    5.92    0.19
   0   1  -6    5.91    0.25
  -1   1  -6    0.52    0.11
  -1   1  -6    0.39    0.05
  -2   1  -6    0.46    0.12
  -2   1  -6    0.28    0.05
  -3   1  -6   31.72    1.07
  -3   1  -6   32.27    0.94
  -4   1  -6    4.00    0.28
  -4   1  -6    3.32    0.19
  -5   1  -6    9.13    0.37
  -6   1  -6    5.63    0.29
  -7   1  -6    0.09    0.09
   7   0  -6    4.83    0.39
   6   0  -6    1.70    0.24
   5   0  -6    4.41    0.30
   4   0  -6    4.37    0.27
   4   0  -6    4.00    0.20
   3   0  -6   19.75    0.60
   3   0  -6   19.23    0.68
   2   0  -6   44.53    1.32
   2   0  -6   44.64    1.25
   1   0  -6   21.53    0.68
   0   0  -6   20.72    0.65
   0   0  -6   21.42    0.61
  -1   0  -6   10.45    0.38
  -1   0  -6   10.18    0.32
  -2   0  -6   61.83    1.68
  -2   0  -6   59.98    1.77
  -3   0  -6  362.20    9.60
  -3   0  -6  353.28    9.73
  -4   0  -6   51.36    1.48
  -5   0  -6    6.57    0.30
  -6   0  -6    3.72    0.24
   7  -1  -6    2.64    0.32
   6  -1  -6    0.77    0.17
  -6   1   6    0.82    0.12
   5  -1  -6   12.77    0.46
   5  -1  -6   11.56    0.54
   4  -1  -6   91.10    2.55
   4  -1  -6   91.76    2.66
   3  -1  -6  140.45    3.90
   3  -1  -6  138.98    3.81
   2  -1  -6    1.57    0.14
   2  -1  -6    1.14    0.10
   1  -1  -6    5.65    0.25
   1  -1  -6    5.90    0.22
   0  -1  -6  113.33    3.08
   0  -1  -6  114.08    3.12
  -1  -1  -6   14.02    0.43
  -2  -1  -6   47.41    1.32
  -3  -1  -6   12.98    0.43
  -4  -1  -6    3.15    0.19
  -5  -1  -6    8.63    0.36
  -6  -1  -6    6.27    0.32
   7  -2  -6    3.06    0.36
  -7   2   6    3.22    0.23
   6  -2  -6    4.78    0.36
   5  -2  -6    0.85    0.12
   5  -2  -6    0.69    0.15
   4  -2  -6    6.31    0.29
   4  -2  -6    7.20    0.37
   3  -2  -6   32.89    1.08
   3  -2  -6   33.97    1.00
   2  -2  -6    5.19    0.22
   2  -2  -6    5.19    0.27
   1  -2  -6    0.41    0.06
   0  -2  -6    1.19    0.09
  -1  -2  -6    2.91    0.14
  -2  -2  -6    6.75    0.25
  -3  -2  -6    6.70    0.26
  -4  -2  -6   28.38    0.86
  -5  -2  -6    8.96    0.36
  -7   3   6    2.16    0.21
   6  -3  -6    5.21    0.38
   6  -3  -6    4.53    0.27
   5  -3  -6    0.06    0.09
   5  -3  -6    0.09    0.07
   4  -3  -6    0.23    0.10
   4  -3  -6    0.16    0.07
   3  -3  -6    2.62    0.17
   2  -3  -6    1.72    0.13
   1  -3  -6   13.62    0.46
   0  -3  -6    4.48    0.20
  -1  -3  -6    8.40    0.31
  -2  -3  -6    1.48    0.11
  -3  -3  -6   15.07    0.50
  -4  -3  -6    8.26    0.32
   6  -4  -6    6.28    0.34
   5  -4  -6    2.22    0.20
   4  -4  -6   17.42    0.62
   3  -4  -6    2.15    0.18
   2  -4  -6    0.44    0.09
   1  -4  -6    2.17    0.16
   0  -4  -6    7.04    0.30
  -1  -4  -6    5.14    0.24
  -2  -4  -6   14.13    0.49
  -3  -4  -6    6.43    0.28
   5  -5  -6    0.80    0.14
   4  -5  -6    3.61    0.25
   3  -5  -6    0.15    0.07
   2  -5  -6    2.03    0.18
   1  -5  -6    1.76    0.16
   0  -5  -6    3.82    0.22
  -1  -5  -6   12.05    0.45
  -2  -5  -6    0.18    0.07
   2   8  -7    2.42    0.39
   1   8  -7    0.45    0.18
   0   8  -7    0.26    0.16
  -2   8  -7    4.94    0.40
  -3   8  -7    0.86    0.22
   4   7  -7    3.86    0.41
   3   7  -7    0.34    0.16
   2   7  -7    5.07    0.42
   1   7  -7    0.94    0.21
   1   7  -7    1.13    0.21
   0   7  -7    5.66    0.34
  -1   7  -7    5.22    0.37
  -2   7  -7    8.42    0.48
  -3   7  -7    0.33    0.15
  -4   7  -7    2.08    0.29
  -5   7  -7    2.13    0.29
   5   6  -7    0.81    0.20
   4   6  -7    1.58    0.25
   3   6  -7    4.20    0.38
   3   6  -7    4.93    0.29
   2   6  -7    1.65    0.15
   2   6  -7    1.31    0.23
   1   6  -7   20.42    0.70
   0   6  -7    3.68    0.27
  -1   6  -7    4.38    0.33
  -2   6  -7    4.42    0.34
  -3   6  -7    3.43    0.32
  -4   6  -7    5.55    0.40
  -5   6  -7    3.71    0.32
  -6   6  -7    2.82    0.42
   5   5  -7    0.13    0.11
   4   5  -7    2.40    0.29
   4   5  -7    2.35    0.22
   3   5  -7    0.04    0.06
   3   5  -7    0.02    0.08
   2   5  -7    4.70    0.25
   1   5  -7   13.97    0.52
   0   5  -7    8.66    0.41
  -1   5  -7    0.56    0.15
  -2   5  -7    7.77    0.44
  -3   5  -7    6.88    0.42
  -4   5  -7    3.14    0.30
  -5   5  -7    3.21    0.30
   6   4  -7    0.93    0.18
   5   4  -7    1.87    0.23
   4   4  -7    4.15    0.31
   4   4  -7    3.94    0.27
   3   4  -7    5.64    0.30
   3   4  -7    6.38    0.38
   2   4  -7    1.26    0.14
   1   4  -7    6.60    0.30
   0   4  -7    9.02    0.41
  -1   4  -7   80.22    2.38
  -2   4  -7   38.08    1.28
  -3   4  -7    9.84    0.51
  -4   4  -7   13.32    0.63
  -4   4  -7   13.84    0.48
  -5   4  -7    7.63    0.33
  -5   4  -7    7.95    0.46
  -6   4  -7    6.00    0.30
   7   3  -7    1.10    0.21
   6   3  -7   12.92    0.61
   5   3  -7    4.80    0.33
   4   3  -7    0.27    0.09
   3   3  -7    6.92    0.33
   2   3  -7   10.19    0.40
   1   3  -7    6.98    0.30
   0   3  -7   91.02    2.59
  -1   3  -7    9.27    0.44
  -2   3  -7    7.58    0.41
  -2   3  -7    6.70    0.25
  -3   3  -7    1.23    0.11
  -3   3  -7    0.80    0.18
  -4   3  -7    7.05    0.44
  -4   3  -7    7.35    0.30
  -5   3  -7    2.26    0.17
  -5   3  -7    2.16    0.27
  -6   3  -7    1.86    0.18
   7   2  -7    0.87    0.21
   6   2  -7    2.71    0.30
   5   2  -7    0.56    0.13
   4   2  -7   18.90    0.70
   3   2  -7    2.82    0.20
   2   2  -7    3.07    0.19
   1   2  -7   12.25    0.44
   0   2  -7   27.63    0.87
  -1   2  -7   41.20    1.30
  -1   2  -7   42.30    1.15
  -2   2  -7   49.79    1.38
  -2   2  -7   48.77    1.55
  -3   2  -7  103.21    3.02
  -3   2  -7  101.99    2.82
  -4   2  -7  144.78    3.95
  -4   2  -7  142.89    4.15
  -5   2  -7   12.70    0.47
  -5   2  -7   12.50    0.61
  -6   2  -7    3.99    0.37
  -6   2  -7    2.24    0.20
   7   1  -7    5.30    0.41
   6   1  -7    0.01    0.10
   5   1  -7    3.49    0.27
   4   1  -7    7.63    0.38
   3   1  -7   37.59    1.18
   2   1  -7   20.63    0.69
   1   1  -7   28.68    0.88
   1   1  -7   28.40    0.81
   0   1  -7   21.38    0.69
   0   1  -7   22.13    0.62
  -1   1  -7    1.43    0.08
  -1   1  -7    1.64    0.17
  -2   1  -7   57.05    1.74
  -2   1  -7   58.13    1.60
  -3   1  -7   24.92    0.74
  -3   1  -7   23.58    0.88
  -4   1  -7    5.42    0.37
  -4   1  -7    5.49    0.25
  -5   1  -7    0.47    0.10
  -6   1  -7   12.30    0.48
   7   0  -7    2.54    0.31
   6   0  -7    3.27    0.29
   5   0  -7    7.87    0.42
   4   0  -7    1.86    0.21
   3   0  -7  145.32    3.96
   3   0  -7  145.53    4.06
   2   0  -7   98.11    2.74
   2   0  -7   96.19    2.66
   1   0  -7    5.62    0.26
   1   0  -7    5.72    0.21
   0   0  -7   12.04    0.37
   0   0  -7   11.48    0.41
  -1   0  -7    3.66    0.20
  -1   0  -7    3.77    0.15
  -2   0  -7    1.45    0.18
  -2   0  -7    1.32    0.10
  -3   0  -7   22.33    0.68
  -4   0  -7    2.74    0.18
  -5   0  -7   30.98    0.96
  -6   0  -7    9.58    0.42
   7  -1  -7    1.64    0.25
   6  -1  -7    6.71    0.42
   5  -1  -7    5.02    0.34
   5  -1  -7    5.26    0.27
   4  -1  -7    4.52    0.22
   4  -1  -7    4.24    0.28
   3  -1  -7    1.32    0.12
   3  -1  -7    1.28    0.16
   2  -1  -7    8.23    0.36
   2  -1  -7    8.64    0.31
   1  -1  -7    5.08    0.25
   1  -1  -7    4.96    0.21
   0  -1  -7    3.81    0.17
  -1  -1  -7    0.02    0.03
  -2  -1  -7    5.40    0.21
  -3  -1  -7    5.23    0.22
  -4  -1  -7    1.91    0.16
  -5  -1  -7   12.65    0.47
   7  -2  -7    6.94    0.48
   6  -2  -7    4.91    0.36
   6  -2  -7    4.32    0.26
   5  -2  -7   15.75    0.57
   5  -2  -7   15.77    0.68
   4  -2  -7    0.54    0.13
   4  -2  -7    0.90    0.11
   3  -2  -7    0.42    0.11
   3  -2  -7    0.61    0.09
   2  -2  -7    8.28    0.32
   1  -2  -7    3.03    0.16
   0  -2  -7   14.15    0.47
  -1  -2  -7    2.71    0.14
  -2  -2  -7   12.65    0.42
  -3  -2  -7    5.96    0.25
  -4  -2  -7    2.94    0.18
   6  -3  -7    7.12    0.45
   6  -3  -7    6.58    0.34
   5  -3  -7    0.56    0.11
   5  -3  -7    0.38    0.13
   4  -3  -7    2.45    0.19
   3  -3  -7    3.12    0.19
   2  -3  -7    0.93    0.12
   1  -3  -7   22.38    0.71
   0  -3  -7    6.50    0.27
  -1  -3  -7    3.67    0.19
  -2  -3  -7    9.67    0.36
  -3  -3  -7    0.97    0.11
   5  -4  -7    1.33    0.16
   4  -4  -7    1.39    0.16
   3  -4  -7    4.29    0.24
   2  -4  -7    4.31    0.24
   1  -4  -7    9.46    0.38
   0  -4  -7    2.99    0.19
  -1  -4  -7   11.91    0.44
  -2  -4  -7   54.88    1.60
   3  -5  -7    0.21    0.08
   2  -5  -7    0.79    0.12
   1  -5  -7    0.14    0.07
   0  -5  -7    9.05    0.39
   1   8  -8   11.18    0.70
  -1   8  -8    0.79    0.21
  -2   8  -8    1.38    0.26
  -3   8  -8    0.07    0.17
   3   7  -8    0.69    0.21
   2   7  -8    3.36    0.37
   1   7  -8    9.65    0.43
   0   7  -8    3.75    0.29
  -1   7  -8    7.54    0.45
  -2   7  -8    0.19    0.17
  -3   7  -8    0.90    0.23
  -4   7  -8    6.05    0.45
   4   6  -8    3.38    0.34
   3   6  -8    0.15    0.08
   3   6  -8    0.39    0.15
   2   6  -8    2.75    0.20
   1   6  -8    4.21    0.26
   0   6  -8    4.82    0.32
  -1   6  -8    4.03    0.34
  -2   6  -8   36.66    1.29
  -3   6  -8   11.42    0.61
  -4   6  -8    7.61    0.49
  -5   6  -8    1.33    0.25
   5   5  -8    1.57    0.23
   4   5  -8    0.93    0.16
   4   5  -8    0.67    0.17
   3   5  -8    1.15    0.21
   3   5  -8    0.97    0.15
   2   5  -8    3.65    0.23
   1   5  -8    0.52    0.11
   0   5  -8    7.85    0.40
  -1   5  -8   10.15    0.52
  -2   5  -8    9.98    0.54
  -3   5  -8    3.86    0.35
  -4   5  -8    5.49    0.41
  -5   5  -8    2.41    0.30
  -6   5  -8    8.47    0.64
   6   4  -8    1.16    0.22
   5   4  -8   13.92    0.62
   4   4  -8   33.15    1.11
   3   4  -8   16.44    0.62
   2   4  -8    1.20    0.15
   1   4  -8   18.63    0.66
   0   4  -8   26.41    0.90
  -1   4  -8    6.00    0.38
  -2   4  -8   12.64    0.60
  -3   4  -8    7.09    0.45
  -4   4  -8   31.31    1.18
  -5   4  -8   12.62    0.65
  -6   4  -8   16.47    0.61
  -6   4  -8   15.86    0.77
   6   3  -8    0.70    0.18
   5   3  -8    4.63    0.33
   4   3  -8    0.73    0.14
   3   3  -8    0.07    0.07
   2   3  -8   11.91    0.47
   1   3  -8    0.03    0.05
   0   3  -8   13.54    0.53
  -1   3  -8   10.07    0.48
  -2   3  -8    8.05    0.46
  -3   3  -8   24.05    0.95
  -4   3  -8   21.26    0.89
  -4   3  -8   20.78    0.68
  -5   3  -8    9.17    0.54
  -5   3  -8    8.26    0.36
  -6   3  -8    1.07    0.22
  -6   3  -8    0.84    0.14
   6   2  -8    2.47    0.28
   5   2  -8    1.04    0.18
   4   2  -8    1.19    0.17
   3   2  -8   10.79    0.46
   2   2  -8  178.55    4.92
   1   2  -8   31.15    0.97
   0   2  -8   11.11    0.44
  -1   2  -8    2.07    0.21
  -2   2  -8    9.48    0.32
  -2   2  -8    8.70    0.46
  -3   2  -8   68.40    1.93
  -3   2  -8   69.47    2.14
  -4   2  -8   58.08    1.68
  -4   2  -8   59.22    1.91
  -5   2  -8    3.05    0.37
  -5   2  -8    3.55    0.22
  -6   2  -8    3.13    0.23
   6   1  -8    0.75    0.18
   5   1  -8   11.88    0.55
   4   1  -8   18.26    0.70
   3   1  -8   81.82    2.38
   2   1  -8   36.14    1.13
   1   1  -8    1.21    0.13
   0   1  -8   17.89    0.54
   0   1  -8   18.30    0.61
  -1   1  -8   39.43    1.22
  -1   1  -8   40.74    1.12
  -2   1  -8   35.29    1.01
  -2   1  -8   35.45    1.15
  -3   1  -8    4.20    0.33
  -3   1  -8    4.14    0.21
  -4   1  -8   -0.11    0.07
  -5   1  -8    1.30    0.15
  -6   1  -8    0.04    0.10
   6   0  -8    2.35    0.29
   5   0  -8    3.03    0.26
   4   0  -8    4.05    0.28
   3   0  -8    2.38    0.20
   2   0  -8    3.68    0.18
   2   0  -8    3.26    0.22
   1   0  -8   10.02    0.40
   1   0  -8   10.23    0.35
   0   0  -8    4.07    0.17
   0   0  -8    3.78    0.21
  -1   0  -8   18.22    0.63
  -1   0  -8   18.57    0.56
  -2   0  -8    3.56    0.16
  -3   0  -8   16.34    0.52
  -4   0  -8   10.32    0.39
  -5   0  -8    0.71    0.13
   6  -1  -8    4.35    0.35
   5  -1  -8    2.48    0.27
   4  -1  -8    1.40    0.19
   3  -1  -8    1.54    0.18
   3  -1  -8    1.53    0.13
   2  -1  -8    1.97    0.13
   2  -1  -8    1.71    0.16
   1  -1  -8   13.93    0.46
   0  -1  -8   25.19    0.76
  -1  -1  -8    0.05    0.04
  -2  -1  -8   16.37    0.52
  -3  -1  -8   34.76    1.02
  -4  -1  -8    2.42    0.16
   6  -2  -8    0.23    0.13
   5  -2  -8    1.47    0.16
   5  -2  -8    1.61    0.23
   4  -2  -8    7.65    0.42
   4  -2  -8    7.98    0.34
   3  -2  -8   31.79    0.98
   2  -2  -8    3.70    0.20
   1  -2  -8    3.89    0.20
   0  -2  -8    4.82    0.22
  -1  -2  -8    2.46    0.15
  -2  -2  -8    0.12    0.05
  -3  -2  -8   14.41    0.49
  -4  -2  -8    7.20    0.33
   5  -3  -8    1.62    0.17
   4  -3  -8   13.88    0.52
   3  -3  -8    1.39    0.15
   2  -3  -8    0.31    0.08
   1  -3  -8    1.35    0.14
   0  -3  -8    7.11    0.31
  -1  -3  -8   17.77    0.60
  -2  -3  -8   12.66    0.46
   4  -4  -8   13.51    0.53
   3  -4  -8   16.60    0.61
   2  -4  -8   15.52    0.57
   1  -4  -8    2.80    0.21
   0  -4  -8    6.20    0.30
  -1  -4  -8    0.57    0.12
   2   7  -9    1.12    0.26
   2   7  -9    1.76    0.20
   1   7  -9    1.48    0.18
   0   7  -9    1.80    0.22
  -1   7  -9   11.17    0.57
  -2   7  -9    1.21    0.26
  -3   7  -9    1.54    0.28
   3   6  -9    9.05    0.56
   3   6  -9    8.94    0.44
   2   6  -9    2.44    0.21
   1   6  -9    6.93    0.36
   0   6  -9    3.93    0.29
  -1   6  -9    8.11    0.48
  -2   6  -9   10.99    0.60
  -3   6  -9    2.53    0.33
  -4   6  -9    0.19    0.17
   5   5  -9   18.26    0.76
   4   5  -9    2.85    0.26
   3   5  -9    4.03    0.28
   2   5  -9    2.32    0.20
   1   5  -9   10.52    0.46
   0   5  -9    3.25    0.27
  -1   5  -9    7.14    0.45
  -2   5  -9    2.74    0.34
  -3   5  -9    4.48    0.40
  -4   5  -9   -0.08    0.14
  -5   5  -9   12.82    0.70
   5   4  -9    1.38    0.21
   4   4  -9    2.64    0.24
   3   4  -9    3.02    0.23
   2   4  -9   32.13    1.05
   1   4  -9   68.73    2.02
   0   4  -9    6.35    0.35
  -1   4  -9    6.05    0.40
  -2   4  -9   14.83    0.70
  -3   4  -9   26.71    1.06
  -4   4  -9  102.94    3.15
  -5   4  -9   40.16    1.48
   6   3  -9    3.94    0.37
   5   3  -9    2.45    0.28
   4   3  -9    3.54    0.28
   3   3  -9   45.35    1.42
   2   3  -9   54.26    1.64
   1   3  -9    2.33    0.18
   0   3  -9    1.26    0.16
  -1   3  -9   27.10    0.96
  -2   3  -9    0.36    0.18
  -3   3  -9   24.25    0.98
  -4   3  -9    9.48    0.58
  -5   3  -9    4.80    0.44
   6   2  -9    0.74    0.18
   5   2  -9    7.66    0.44
   4   2  -9    0.14    0.09
   3   2  -9    1.98    0.19
   2   2  -9   28.39    0.94
   1   2  -9   13.39    0.51
   0   2  -9   31.37    1.00
  -1   2  -9    6.35    0.35
  -2   2  -9    9.77    0.50
  -3   2  -9    5.14    0.41
  -3   2  -9    4.79    0.29
  -4   2  -9    0.18    0.19
  -4   2  -9    0.18    0.10
  -5   2  -9    8.31    0.37
   6   1  -9    0.55    0.16
   5   1  -9    0.72    0.15
   4   1  -9    1.74    0.21
   3   1  -9    2.33    0.20
   2   1  -9   10.28    0.44
   1   1  -9    5.50    0.28
   0   1  -9   30.77    0.97
  -1   1  -9   19.81    0.69
  -2   1  -9    7.24    0.26
  -2   1  -9    6.79    0.38
  -3   1  -9    0.54    0.09
  -4   1  -9    1.63    0.16
  -5   1  -9    5.42    0.29
   6   0  -9    1.70    0.25
   5   0  -9    5.08    0.35
   4   0  -9    0.86    0.16
   3   0  -9    6.07    0.34
   2   0  -9    6.40    0.33
   1   0  -9    1.73    0.15
   0   0  -9   25.96    0.81
   0   0  -9   28.95    0.99
  -1   0  -9    6.89    0.26
  -2   0  -9    0.49    0.08
  -3   0  -9    5.80    0.25
  -4   0  -9   10.26    0.39
   5  -1  -9    4.55    0.34
   4  -1  -9    2.43    0.27
   3  -1  -9    4.20    0.29
   2  -1  -9    0.11    0.06
   1  -1  -9    1.15    0.12
   0  -1  -9    5.41    0.24
  -1  -1  -9    0.65    0.09
  -2  -1  -9    5.48    0.24
  -3  -1  -9    8.27    0.33
   5  -2  -9    0.42    0.16
   3  -2  -9   24.92    0.81
   2  -2  -9    9.79    0.39
   1  -2  -9    0.72    0.11
   0  -2  -9    1.30    0.13
  -1  -2  -9    1.16    0.12
  -2  -2  -9   57.84    1.67
   4  -3  -9   12.36    0.50
   3  -3  -9   11.13    0.45
   2  -3  -9    0.64    0.12
   1  -3  -9    3.26    0.22
   0  -3  -9    3.09    0.21
  -1  -3  -9    2.43    0.18
   1   7 -10    3.53    0.26
   0   7 -10    0.90    0.17
  -1   7 -10   10.39    0.56
  -2   7 -10    1.74    0.35
   3   6 -10    7.18    0.40
   3   6 -10    6.98    0.49
   2   6 -10    1.01    0.16
   1   6 -10   14.04    0.58
   0   6 -10    2.89    0.26
  -1   6 -10   25.06    0.97
  -2   6 -10   -0.17    0.18
  -3   6 -10    3.29    0.39
   4   5 -10    3.47    0.30
   3   5 -10    8.07    0.42
   2   5 -10   25.28    0.90
   1   5 -10   30.01    1.02
   0   5 -10    5.12    0.33
  -1   5 -10    1.29    0.23
  -2   5 -10    1.65    0.29
  -3   5 -10   11.11    0.66
  -4   5 -10   24.91    1.07
   4   4 -10    0.08    0.10
   3   4 -10    1.91    0.22
   2   4 -10   24.83    0.88
   1   4 -10   50.89    1.57
   0   4 -10    5.86    0.34
  -1   4 -10    3.75    0.33
  -2   4 -10    9.15    0.55
  -3   4 -10   12.37    0.69
  -4   4 -10    5.72    0.50
   5   3 -10    1.86    0.25
   4   3 -10   10.45    0.51
   3   3 -10   18.82    0.73
   2   3 -10    5.90    0.33
   1   3 -10    1.32    0.17
   0   3 -10    4.57    0.28
  -1   3 -10    0.44    0.15
  -2   3 -10    4.01    0.38
  -3   3 -10    4.15    0.42
  -4   3 -10    4.77    0.48
   5   2 -10    1.06    0.19
   4   2 -10    8.83    0.46
   3   2 -10    1.07    0.16
   2   2 -10    5.87    0.32
   1   2 -10    4.44    0.27
   0   2 -10    0.42    0.10
  -1   2 -10    3.98    0.27
  -2   2 -10    4.46    0.34
  -3   2 -10    4.36    0.52
   5   1 -10   12.53    0.60
   4   1 -10    0.08    0.09
   3   1 -10    5.40    0.33
   2   1 -10    6.55    0.35
   1   1 -10    0.06    0.06
   0   1 -10    5.98    0.31
  -1   1 -10    0.35    0.11
  -3   1 -10   17.39    0.60
  -4   1 -10    4.84    0.25
   5   0 -10    0.22    0.11
   4   0 -10    0.07    0.09
   3   0 -10    4.28    0.30
   2   0 -10    0.56    0.12
  -1   0 -10    2.20    0.21
  -2   0 -10    5.32    0.24
  -3   0 -10   63.35    1.80
   4  -1 -10   17.30    0.73
   0  -1 -10   11.10    0.42
  -1  -1 -10    9.52    0.37
  -2  -1 -10   29.00    0.90
   2  -2 -10    5.34    0.28
   1  -2 -10    0.67    0.11
   0  -2 -10    1.43    0.16
  -1  -2 -10    1.33    0.15
   1   6 -11   47.97    1.54
   0   6 -11   39.53    1.33
  -1   6 -11    6.98    0.47
   3   5 -11    1.04    0.26
   2   5 -11   27.35    0.98
   1   5 -11    5.55    0.34
   0   5 -11    4.09    0.30
  -1   5 -11    0.66    0.19
  -2   5 -11    8.47    0.57
   3   4 -11    4.06    0.31
   2   4 -11    0.29    0.11
   1   4 -11    2.80    0.24
   0   4 -11    5.02    0.33
  -1   4 -11   21.13    0.83
  -2   4 -11   23.89    0.97
  -3   4 -11    2.77    0.40
   4   3 -11    3.51    0.32
   3   3 -11    3.47    0.28
   2   3 -11    2.94    0.25
   1   3 -11    2.64    0.22
   0   3 -11   10.57    0.48
  -1   3 -11   22.14    0.83
  -2   3 -11    5.53    0.42
  -3   3 -11    2.60    0.35
   4   2 -11    0.17    0.11
   3   2 -11    1.39    0.19
   2   2 -11   10.90    0.50
   1   2 -11    0.29    0.10
   0   2 -11    6.98    0.36
  -1   2 -11   15.90    0.63
   4   1 -11    0.80    0.17
   3   1 -11    4.26    0.31
   2   1 -11    4.15    0.29
   1   1 -11    3.59    0.26
   3   0 -11   28.74    1.04
   1   4 -12    9.85    0.51
   0   4 -12    3.85    0.29
  -1   4 -12    1.47    0.22
   2   3 -12    4.09    0.31
   1   3 -12    3.54    0.28
   0   3 -12    7.23    0.40
  -1   3 -12    1.70    0.21
   2   2 -12   17.74    0.72
   1   2 -12    7.47    0.41
   0   2 -12    9.95    0.48
   0   0   0    0.00    0.00
;
_shelx_hkl_checksum              42731
_shelx_res_file
;
20160205=1.res created by SHELXL-2014/7
TITL 20160205=1 in P1
CELL 0.71073   6.77830   6.95340   9.45830 109.1820  93.3685  98.4370
ZERR    1.00   0.00300   0.00310   0.00420   0.0056   0.0060   0.0056
LATT -1
SFAC C  H  N  O
UNIT 16  22  2  7
L.S. 8
ACTA 50
BOND $h
FMAP 2
PLAN 1
HTAB O5 O4_$7
HTAB O6 O3_$2
HTAB O5 O7
HTAB O6 O4_$7
HTAB O7 O2_$6
HTAB O7 O1_$3
HTAB N2 O6_$5
HTAB N2 O2_$4
HTAB N2 O1_$4
HTAB N2 O5
HTAB N1 O2_$3
HTAB N1 O3_$2
HTAB N1 O5
HTAB C8 O5_$1
HTAB O5 O4_$7
HTAB O6 O3_$2
HTAB O5 O7
HTAB O6 O4_$7
HTAB O7 O2_$6
HTAB O7 O1_$3
HTAB N2 O6_$5
HTAB N2 O2_$4
HTAB N2 O1_$4
HTAB N2 O5
HTAB N1 O2_$3
HTAB N1 O3_$2
HTAB N1 O5
HTAB C8 O5_$1
CONF
SIZE 0.491 0.342 0.074
HTAB
EQIV $1 x-1, y, z
HTAB C8 O5_$1
HTAB N1 O5
EQIV $2 x, y+1, z+1
HTAB N1 O3_$2
EQIV $3 x, y, z-1
HTAB N1 O2_$3
HTAB N2 O5
EQIV $4 x, y-1, z-1
HTAB N2 O1_$4
HTAB N2 O2_$4
EQIV $5 x, y-1, z
HTAB N2 O6_$5
HTAB O7 O1_$3
EQIV $6 x+1, y, z-1
HTAB O7 O2_$6
EQIV $7 x+1, y+1, z+1
HTAB O6 O4_$7
HTAB O5 O7
HTAB O6 O3_$2
HTAB O5 O4_$7
TEMP -100
WGHT    0.063200    0.146900
EXTI    0.061325
FVAR       0.52434
MOLE 1
C2    1    0.266770   -0.043114    0.066047    11.00000    0.02149    0.01168 =
         0.00787    0.00124   -0.00625    0.00075
C14   1    0.637872    0.540861    1.039912    11.00000    0.02074    0.02028 =
         0.01113    0.00443   -0.00448   -0.00275
AFIX  43
H14   2    0.764197    0.615914    1.092752    11.00000   -1.20000
AFIX   0
C10   1    0.442359    0.309938    0.808918    11.00000    0.02249    0.01376 =
         0.00792    0.00358   -0.00302    0.00233
C13   1    0.467171    0.551606    1.115307    11.00000    0.02089    0.01433 =
         0.01117    0.00581   -0.00287    0.00169
C4    1    0.481052    0.176963    0.292538    11.00000    0.01681    0.01814 =
         0.01018    0.00245   -0.00602   -0.00164
AFIX  43
H4    2    0.609729    0.251748    0.340536    11.00000   -1.20000
AFIX   0
C15   1    0.625918    0.421942    0.888569    11.00000    0.01862    0.02174 =
         0.01214    0.00562   -0.00093   -0.00005
AFIX  43
H15   2    0.743861    0.416894    0.838909    11.00000   -1.20000
AFIX   0
C9    1    0.421493    0.181707    0.642235    11.00000    0.02181    0.01653 =
         0.00679    0.00359   -0.00279    0.00161
AFIX  13
H9    2    0.320634    0.054023    0.626242    11.00000   -1.20000
AFIX   0
C1    1    0.238926   -0.170926   -0.100089    11.00000    0.02614    0.01301 =
         0.01065    0.00141   -0.00668    0.00277
C12   1    0.282748    0.440564    1.036593    11.00000    0.01909    0.01838 =
         0.01178    0.00578   -0.00176    0.00115
AFIX  43
H12   2    0.165136    0.445924    1.086643    11.00000   -1.20000
AFIX   0
C8    1    0.338711    0.297829    0.543798    11.00000    0.01414    0.01616 =
         0.00855    0.00118   -0.00513   -0.00177
AFIX  13
H8    2    0.200122    0.314812    0.570295    11.00000   -1.20000
AFIX   0
C6    1    0.103608   -0.032521    0.148521    11.00000    0.01574    0.02076 =
         0.01458    0.00255   -0.00779   -0.00249
AFIX  43
H6    2   -0.026334   -0.100942    0.099231    11.00000   -1.20000
AFIX   0
C5    1    0.128014    0.077227    0.302731    11.00000    0.01807    0.02132 =
         0.01223    0.00231   -0.00261   -0.00159
AFIX  43
H5    2    0.015428    0.081367    0.358244    11.00000   -1.20000
AFIX   0
C3    1    0.455573    0.063028    0.138808    11.00000    0.01758    0.01761 =
         0.01018    0.00401   -0.00248    0.00229
AFIX  43
H3    2    0.568053    0.057729    0.083144    11.00000   -1.20000
AFIX   0
C16   1    0.489494    0.677325    1.281701    11.00000    0.02261    0.01628 =
         0.01164    0.00563   -0.00415    0.00494
C11   1    0.270602    0.321676    0.884575    11.00000    0.01889    0.01733 =
         0.01186    0.00433   -0.00526   -0.00120
AFIX  43
H11   2    0.144077    0.247583    0.831546    11.00000   -1.20000
AFIX   0
C7    1    0.317751    0.181116    0.375753    11.00000    0.01827    0.01559 =
         0.00982    0.00390   -0.00487    0.00193
O4    4    0.062539   -0.248870   -0.160890    11.00000    0.02730    0.03185 =
         0.01348   -0.00486   -0.01275    0.00399
O1    4    0.657051    0.786276    1.341801    11.00000    0.02392    0.02661 =
         0.01426   -0.00174   -0.00552    0.00118
O3    4    0.392853   -0.194105   -0.166461    11.00000    0.02849    0.02409 =
         0.01216   -0.00096   -0.00137    0.00061
O2    4    0.341258    0.665897    1.355116    11.00000    0.02449    0.03042 =
         0.01284    0.00723    0.00128    0.00784
MOLE 2
O6    4    0.770489    0.970178    0.810757    11.00000    0.02880    0.04873 =
         0.03866    0.02905    0.00357    0.01208
MOLE 3
O5    4    0.875495    0.460583    0.588891    11.00000    0.02349    0.02459 =
         0.01286    0.00118   -0.00520   -0.00579
MOLE 1
O7    4    0.944095    0.541490    0.342838    11.00000    0.02525    0.05232 =
         0.03047    0.02286    0.00193    0.00730
N1    3    0.457098    0.512836    0.581536    11.00000    0.02105    0.01636 =
         0.00890    0.00339   -0.00325    0.00129
AFIX 137
H1A   2    0.590412    0.507160    0.582246    11.00000   -1.50000
H1B   2    0.432928    0.593620    0.673990    11.00000   -1.50000
H1C   2    0.419457    0.567586    0.511165    11.00000   -1.50000
AFIX   0
N2    3    0.615893    0.113686    0.597921    11.00000    0.02273    0.01573 =
         0.00863    0.00297   -0.00410    0.00357
AFIX 137
H2A   2    0.704291    0.223312    0.594086    11.00000   -1.50000
H2B   2    0.593542    0.012552    0.505728    11.00000   -1.50000
H2C   2    0.667697    0.063958    0.667086    11.00000   -1.50000
AFIX   0
H19   2    0.874691    0.639278    0.346464    11.00000    0.04983
H18   2    1.070853    0.585740    0.333219    11.00000    0.02614
H20   2    0.867367    0.899749    0.811836    11.00000    0.05749
H17   2    0.903101    0.478350    0.507139    11.00000    0.06761
H21   2    0.667331    0.937399    0.841808    11.00000    0.05712
H16   2    0.950699    0.542827    0.664069    11.00000    0.04221
HKLF 4
REM  20160205=1 in P1
REM R1 =  0.0383 for    1969 Fo > 4sig(Fo)  and  0.0394 for all    2030 data
REM    253 parameters refined using      3 restraints
END
WGHT      0.0692      0.1051
REM Instructions for potential hydrogen bonds
HTAB C8 O5_$1
HTAB N1 O5
HTAB N1 O3_$2
HTAB N1 O2_$3
HTAB N2 O5
HTAB N2 O1_$4
HTAB N2 O2_$4
HTAB N2 O6_$5
HTAB O7 O1_$3
HTAB O7 O2_$6
HTAB O6 O4_$7
HTAB O5 O7
HTAB O6 O3_$2
HTAB O5 O4_$7
REM Highest difference peak  0.372,  deepest hole -0.214,  1-sigma level  0.062
Q1    1   0.5121  0.1460  0.6180  11.00000  0.05    0.37
;
_shelx_res_checksum              9268
loop_
_space_group_symop_operation_xyz
'x, y, z'
loop_
_atom_site_type_symbol
_atom_site_label
_atom_site_fract_x
_atom_site_fract_y
_atom_site_fract_z
_atom_site_U_iso_or_equiv
_atom_site_adp_type
_atom_site_calc_flag
_atom_site_occupancy
C C2 0.2668(4) -0.0431(4) 0.0660(3) 0.0148(5) Uani d 1
C C14 0.6379(4) 0.5409(4) 1.0399(3) 0.0186(6) Uani d 1
H H14 0.7642 0.6159 1.0928 0.022 Uiso calc 1
C C10 0.4424(4) 0.3099(4) 0.8089(3) 0.0150(5) Uani d 1
C C13 0.4672(4) 0.5516(4) 1.1153(3) 0.0154(5) Uani d 1
C C4 0.4811(4) 0.1770(4) 0.2925(3) 0.0165(5) Uani d 1
H H4 0.6097 0.2517 0.3405 0.02 Uiso calc 1
C C15 0.6259(4) 0.4219(4) 0.8886(3) 0.0180(5) Uani d 1
H H15 0.7439 0.4169 0.8389 0.022 Uiso calc 1
C C9 0.4215(4) 0.1817(4) 0.6422(3) 0.0155(5) Uani d 1
H H9 0.3206 0.054 0.6262 0.019 Uiso calc 1
C C1 0.2389(4) -0.1709(4) -0.1001(3) 0.0177(5) Uani d 1
C C12 0.2827(4) 0.4406(4) 1.0366(3) 0.0166(5) Uani d 1
H H12 0.1651 0.4459 1.0866 0.02 Uiso calc 1
C C8 0.3387(4) 0.2978(4) 0.5438(3) 0.0145(5) Uani d 1
H H8 0.2001 0.3148 0.5703 0.017 Uiso calc 1
C C6 0.1036(4) -0.0325(4) 0.1485(3) 0.0189(6) Uani d 1
H H6 -0.0263 -0.1009 0.0992 0.023 Uiso calc 1
C C5 0.1280(4) 0.0772(4) 0.3027(3) 0.0188(6) Uani d 1
H H5 0.0154 0.0814 0.3582 0.023 Uiso calc 1
C C3 0.4556(4) 0.0630(4) 0.1388(3) 0.0156(5) Uani d 1
H H3 0.5681 0.0577 0.0831 0.019 Uiso calc 1
C C16 0.4895(4) 0.6773(4) 1.2817(3) 0.0167(5) Uani d 1
C C11 0.2706(4) 0.3217(4) 0.8846(3) 0.0170(5) Uani d 1
H H11 0.1441 0.2476 0.8315 0.02 Uiso calc 1
C C7 0.3178(4) 0.1811(4) 0.3758(3) 0.0151(5) Uani d 1
O O4 0.0625(3) -0.2489(3) -0.1609(2) 0.0281(5) Uani d 1
O O1 0.6571(3) 0.7863(3) 1.3418(2) 0.0245(5) Uani d 1
O O3 0.3929(3) -0.1941(3) -0.1665(2) 0.0240(5) Uani d 1
O O2 0.3413(3) 0.6659(3) 1.3551(2) 0.0223(4) Uani d 1
O O6 0.7705(4) 0.9702(4) 0.8108(3) 0.0346(6) Uani d 1
O O5 0.8755(3) 0.4606(3) 0.5889(2) 0.0230(4) Uani d 1
O O7 0.9441(4) 0.5415(4) 0.3428(3) 0.0338(5) Uani d 1
N N1 0.4571(3) 0.5128(3) 0.5815(2) 0.0161(4) Uani d 1
H H1A 0.5904 0.5072 0.5822 0.024 Uiso calc 1
H H1B 0.4329 0.5936 0.674 0.024 Uiso calc 1
H H1C 0.4195 0.5676 0.5112 0.024 Uiso calc 1
N N2 0.6159(3) 0.1137(3) 0.5979(2) 0.0162(4) Uani d 1
H H2A 0.7043 0.2233 0.5941 0.024 Uiso calc 1
H H2B 0.5935 0.0126 0.5057 0.024 Uiso calc 1
H H2C 0.6677 0.064 0.6671 0.024 Uiso calc 1
H H19 0.875(7) 0.639(7) 0.346(5) 0.050(13) Uiso d 1
H H18 1.071(6) 0.586(5) 0.333(4) 0.026(9) Uiso d 1
H H20 0.867(8) 0.900(8) 0.812(6) 0.057(14) Uiso d 1
H H17 0.903(8) 0.478(8) 0.507(7) 0.068(16) Uiso d 1
H H21 0.667(8) 0.937(8) 0.842(6) 0.057(15) Uiso d 1
H H16 0.951(6) 0.543(7) 0.664(5) 0.042(11) Uiso d 1
loop_
_atom_site_aniso_label
_atom_site_aniso_U_11
_atom_site_aniso_U_22
_atom_site_aniso_U_33
_atom_site_aniso_U_12
_atom_site_aniso_U_13
_atom_site_aniso_U_23
C2 0.0215(12) 0.0117(12) 0.0079(11) 0.0007(10) -0.0062(9) 0.0012(9)
C14 0.0207(13) 0.0203(13) 0.0111(12) -0.0028(10) -0.0045(9) 0.0044(10)
C10 0.0225(13) 0.0138(12) 0.0079(12) 0.0023(10) -0.0030(9) 0.0036(9)
C13 0.0209(13) 0.0143(12) 0.0112(12) 0.0017(10) -0.0029(9) 0.0058(9)
C4 0.0168(12) 0.0181(13) 0.0102(12) -0.0016(10) -0.0060(9) 0.0025(9)
C15 0.0186(13) 0.0217(12) 0.0121(12) 0.0000(10) -0.0009(9) 0.0056(10)
C9 0.0218(12) 0.0165(12) 0.0068(11) 0.0016(10) -0.0028(9) 0.0036(9)
C1 0.0261(14) 0.0130(11) 0.0107(12) 0.0028(10) -0.0067(10) 0.0014(9)
C12 0.0191(13) 0.0184(12) 0.0118(12) 0.0012(10) -0.0018(9) 0.0058(10)
C8 0.0141(11) 0.0162(11) 0.0085(11) -0.0018(9) -0.0051(8) 0.0012(9)
C6 0.0157(12) 0.0208(13) 0.0146(13) -0.0025(10) -0.0078(10) 0.0025(10)
C5 0.0181(13) 0.0213(13) 0.0122(12) -0.0016(10) -0.0026(10) 0.0023(10)
C3 0.0176(12) 0.0176(12) 0.0102(12) 0.0023(10) -0.0025(9) 0.0040(9)
C16 0.0226(13) 0.0163(12) 0.0116(12) 0.0049(10) -0.0041(9) 0.0056(9)
C11 0.0189(12) 0.0173(12) 0.0119(12) -0.0012(10) -0.0053(10) 0.0043(10)
C7 0.0183(12) 0.0156(11) 0.0098(12) 0.0019(9) -0.0049(9) 0.0039(9)
O4 0.0273(10) 0.0318(11) 0.0135(10) 0.0040(8) -0.0128(8) -0.0049(8)
O1 0.0239(10) 0.0266(10) 0.0143(9) 0.0012(8) -0.0055(7) -0.0017(8)
O3 0.0285(10) 0.0241(10) 0.0122(9) 0.0006(8) -0.0014(8) -0.0010(7)
O2 0.0245(10) 0.0304(10) 0.0128(9) 0.0078(8) 0.0013(7) 0.0072(7)
O6 0.0288(12) 0.0487(15) 0.0387(13) 0.0121(11) 0.0036(10) 0.0291(11)
O5 0.0235(10) 0.0246(10) 0.0129(9) -0.0058(8) -0.0052(8) 0.0012(8)
O7 0.0253(12) 0.0523(14) 0.0305(12) 0.0073(11) 0.0019(9) 0.0229(10)
N1 0.0210(10) 0.0164(10) 0.0089(9) 0.0013(8) -0.0033(8) 0.0034(7)
N2 0.0227(10) 0.0157(9) 0.0086(9) 0.0036(8) -0.0041(7) 0.0030(8)
loop_
_atom_type_symbol
_atom_type_description
_atom_type_scat_dispersion_real
_atom_type_scat_dispersion_imag
_atom_type_scat_source
C C 0.0033 0.0016 'International Tables Vol C Tables 4.2.6.8 and 6.1.1.4'
H H 0.0000 0.0000 'International Tables Vol C Tables 4.2.6.8 and 6.1.1.4'
N N 0.0061 0.0033 'International Tables Vol C Tables 4.2.6.8 and 6.1.1.4'
O O 0.0106 0.0060 'International Tables Vol C Tables 4.2.6.8 and 6.1.1.4'
loop_
_geom_angle_atom_site_label_1
_geom_angle_atom_site_label_2
_geom_angle_atom_site_label_3
_geom_angle
C6 C2 C3 119.0(2)
C6 C2 C1 120.1(2)
C3 C2 C1 120.9(2)
C13 C14 C15 120.9(2)
C13 C14 H14 119.5
C15 C14 H14 119.5
C15 C10 C11 118.5(2)
C15 C10 C9 122.3(2)
C11 C10 C9 119.1(2)
C14 C13 C12 119.0(2)
C14 C13 C16 118.8(2)
C12 C13 C16 122.1(2)
C7 C4 C3 120.0(2)
C7 C4 H4 120.0
C3 C4 H4 120.0
C14 C15 C10 120.6(2)
C14 C15 H15 119.7
C10 C15 H15 119.7
N2 C9 C10 110.8(2)
N2 C9 C8 112.81(19)
C10 C9 C8 111.31(19)
N2 C9 H9 107.2
C10 C9 H9 107.2
C8 C9 H9 107.2
O4 C1 O3 124.7(2)
O4 C1 C2 117.4(2)
O3 C1 C2 117.9(2)
C11 C12 C13 120.1(2)
C11 C12 H12 119.9
C13 C12 H12 119.9
N1 C8 C7 110.9(2)
N1 C8 C9 111.91(18)
C7 C8 C9 114.34(19)
N1 C8 H8 106.4
C7 C8 H8 106.4
C9 C8 H8 106.4
C2 C6 C5 120.8(2)
C2 C6 H6 119.6
C5 C6 H6 119.6
C6 C5 C7 120.1(2)
C6 C5 H5 120.0
C7 C5 H5 120.0
C2 C3 C4 120.7(2)
C2 C3 H3 119.7
C4 C3 H3 119.7
O1 C16 O2 122.6(2)
O1 C16 C13 118.3(2)
O2 C16 C13 119.1(2)
C12 C11 C10 120.9(2)
C12 C11 H11 119.5
C10 C11 H11 119.5
C4 C7 C5 119.4(2)
C4 C7 C8 122.0(2)
C5 C7 C8 118.6(2)
H20 O6 H21 118.(5)
H17 O5 H16 113.(4)
H19 O7 H18 109.(4)
C8 N1 H1A 109.5
C8 N1 H1B 109.5
H1A N1 H1B 109.5
C8 N1 H1C 109.5
H1A N1 H1C 109.5
H1B N1 H1C 109.5
C9 N2 H2A 109.5
C9 N2 H2B 109.5
H2A N2 H2B 109.5
C9 N2 H2C 109.5
H2A N2 H2C 109.5
H2B N2 H2C 109.5
loop_
_geom_bond_atom_site_label_1
_geom_bond_atom_site_label_2
_geom_bond_distance
C2 C6 1.387(4)
C2 C3 1.393(3)
C2 C1 1.514(3)
C14 C13 1.393(4)
C14 C15 1.389(4)
C14 H14 0.95
C10 C15 1.394(4)
C10 C11 1.401(4)
C10 C9 1.521(3)
C13 C12 1.394(3)
C13 C16 1.514(3)
C4 C7 1.394(4)
C4 C3 1.395(3)
C4 H4 0.95
C15 H15 0.95
C9 N2 1.501(4)
C9 C8 1.549(3)
C9 H9 1.0
C1 O4 1.256(3)
C1 O3 1.252(4)
C12 C11 1.394(4)
C12 H12 0.95
C8 N1 1.507(3)
C8 C7 1.516(3)
C8 H8 1.0
C6 C5 1.393(4)
C6 H6 0.95
C5 C7 1.396(3)
C5 H5 0.95
C3 H3 0.95
C16 O1 1.255(3)
C16 O2 1.262(3)
C11 H11 0.95
O6 H20 0.88(6)
O6 H21 0.81(6)
O5 H17 0.85(6)
O5 H16 0.83(5)
O7 H19 0.87(5)
O7 H18 0.89(4)
N1 H1A 0.91
N1 H1B 0.91
N1 H1C 0.91
N2 H2A 0.91
N2 H2B 0.91
N2 H2C 0.91
loop_
_geom_hbond_atom_site_label_D
_geom_hbond_atom_site_label_H
_geom_hbond_atom_site_label_A
_geom_hbond_site_symmetry_A
_geom_hbond_distance_DH
_geom_hbond_distance_HA
_geom_hbond_distance_DA
_geom_hbond_angle_DHA
N1 H1A O5 1_555 0.91 2.01 2.911(3) 173
N1 H1B O3 1_566 0.91 1.80 2.686(3) 165
N1 H1C O2 1_554 0.91 1.90 2.807(3) 176
N2 H2A O5 1_555 0.91 1.89 2.798(3) 177
N2 H2B O1 1_544 0.91 1.93 2.787(3) 156
N2 H2C O6 1_545 0.91 1.83 2.744(4) 178
O7 H19 O1 1_554 0.87(5) 1.92(5) 2.768(4) 162(5)
O7 H18 O2 1_654 0.89(4) 1.81(4) 2.688(3) 166(4)
O6 H20 O4 1_666 0.87(6) 1.85(6) 2.720(4) 172(5)
O5 H17 O7 1_555 0.85(7) 1.77(7) 2.619(4) 172(6)
O6 H21 O3 1_566 0.81(6) 1.93(5) 2.696(3) 157(5)
O5 H16 O4 1_666 0.84(4) 1.83(4) 2.654(2) 166(4)
loop_
_geom_torsion_atom_site_label_1
_geom_torsion_atom_site_label_2
_geom_torsion_atom_site_label_3
_geom_torsion_atom_site_label_4
_geom_torsion
C15 C14 C13 C12 0.1(4)
C15 C14 C13 C16 177.8(2)
C13 C14 C15 C10 -0.2(4)
C11 C10 C15 C14 0.6(4)
C9 C10 C15 C14 178.5(2)
C15 C10 C9 N2 26.1(3)
C11 C10 C9 N2 -155.9(2)
C15 C10 C9 C8 -100.3(3)
C11 C10 C9 C8 77.7(3)
C6 C2 C1 O4 6.4(4)
C3 C2 C1 O4 -174.5(2)
C6 C2 C1 O3 -172.6(3)
C3 C2 C1 O3 6.6(4)
C14 C13 C12 C11 -0.3(4)
C16 C13 C12 C11 -177.9(2)
N2 C9 C8 N1 -73.5(2)
C10 C9 C8 N1 51.7(3)
N2 C9 C8 C7 53.6(3)
C10 C9 C8 C7 178.8(2)
C3 C2 C6 C5 -1.9(4)
C1 C2 C6 C5 177.3(2)
C2 C6 C5 C7 1.1(4)
C6 C2 C3 C4 0.5(4)
C1 C2 C3 C4 -178.6(2)
C7 C4 C3 C2 1.7(4)
C14 C13 C16 O1 8.0(4)
C12 C13 C16 O1 -174.4(2)
C14 C13 C16 O2 -170.7(2)
C12 C13 C16 O2 7.0(4)
C13 C12 C11 C10 0.6(4)
C15 C10 C11 C12 -0.8(4)
C9 C10 C11 C12 -178.8(2)
C3 C4 C7 C5 -2.5(4)
C3 C4 C7 C8 178.3(2)
C6 C5 C7 C4 1.2(4)
C6 C5 C7 C8 -179.6(2)
N1 C8 C7 C4 47.4(3)
C9 C8 C7 C4 -80.3(3)
N1 C8 C7 C5 -131.8(2)
C9 C8 C7 C5 100.6(3)

_cod_database_fobs_code 1542542
