#------------------------------------------------------------------------------
#$Date: 2016-03-13 16:09:15 +0200 (Sun, 13 Mar 2016) $
#$Revision: 178187 $
#$URL: svn://www.crystallography.net/cod/cif/1/54/28/1542849.cif $
#------------------------------------------------------------------------------
#
# This file is available in the Crystallography Open Database (COD),
# http://www.crystallography.net/
#
# All data on this site have been placed in the public domain by the
# contributors.
#
data_1542849
loop_
_publ_author_name
'Mukherjee, Arijit'
'Dixit, Karuna'
'Sarma, Siddhartha P.'
'Desiraju, Gautam R.'
_publ_section_title
;
 Aniline--phenol recognition: from solution through supramolecular
 synthons to cocrystals
;
_journal_coeditor_code           BI5032
_journal_issue                   4
_journal_name_full               IUCrJ
_journal_page_first              228
_journal_page_last               239
_journal_paper_doi               10.1107/S2052252514012081
_journal_volume                  1
_journal_year                    2014
_chemical_formula_moiety         'C6 H3 Cl3 O, C6 H4 Cl2 N'
_chemical_formula_sum            'C12 H7 Cl5 N O'
_chemical_formula_weight         358.44
_space_group_IT_number           2
_symmetry_cell_setting           triclinic
_symmetry_space_group_name_Hall  '-P 1'
_symmetry_space_group_name_H-M   'P -1'
_atom_sites_solution_hydrogens   geom
_atom_sites_solution_primary     direct
_atom_sites_solution_secondary   difmap
_audit_creation_method           SHELXL-97
_cell_angle_alpha                85.402(6)
_cell_angle_beta                 83.071(6)
_cell_angle_gamma                71.211(5)
_cell_formula_units_Z            2
_cell_length_a                   7.0681(6)
_cell_length_b                   9.5008(8)
_cell_length_c                   11.4095(9)
_cell_measurement_reflns_used    7095
_cell_measurement_temperature    150(2)
_cell_measurement_theta_max      27.5
_cell_measurement_theta_min      3.1
_cell_volume                     719.36(11)
_computing_cell_refinement
;
CrystalClear-SM Expert 2.0 r4 (Rigaku, 2009)
;
_computing_data_collection
;
CrystalClear-SM Expert 2.0 r4 (Rigaku, 2009)
;
_computing_data_reduction
;
CrystalClear-SM Expert 2.0 r4 (Rigaku, 2009)
;
_computing_structure_refinement  'SHELXL-97 (Sheldrick, 2008)'
_computing_structure_solution    'SHELXL-97 (Sheldrick, 2008)'
_diffrn_ambient_temperature      150(2)
_diffrn_detector                 CCD
_diffrn_detector_area_resol_mean 13.6612
_diffrn_measured_fraction_theta_full 0.997
_diffrn_measured_fraction_theta_max 0.997
_diffrn_measurement_device
;
XtaLABmini: Fixed Chi 2 circle
;
_diffrn_measurement_device_type
;
Rigaku Mercury375R (2x2 bin mode)
;
_diffrn_measurement_specimen_support Fiber
_diffrn_radiation_monochromator  'Graphite Monochromator'
_diffrn_radiation_source         'fine-focus sealed tube'
_diffrn_radiation_type           MoK\a
_diffrn_radiation_wavelength     0.71073
_diffrn_reflns_av_R_equivalents  0.0158
_diffrn_reflns_av_sigmaI/netI    0.0188
_diffrn_reflns_limit_h_max       9
_diffrn_reflns_limit_h_min       -9
_diffrn_reflns_limit_k_max       12
_diffrn_reflns_limit_k_min       -12
_diffrn_reflns_limit_l_max       14
_diffrn_reflns_limit_l_min       -14
_diffrn_reflns_number            7652
_diffrn_reflns_theta_full        27.48
_diffrn_reflns_theta_max         27.48
_diffrn_reflns_theta_min         3.06
_exptl_absorpt_coefficient_mu    0.997
_exptl_absorpt_correction_T_max  1.000
_exptl_absorpt_correction_T_min  0.826
_exptl_absorpt_correction_type   multi-scan
_exptl_absorpt_process_details   'Jacobson, R. (1998) Private communication'
_exptl_crystal_density_diffrn    1.655
_exptl_crystal_density_method    'not measured'
_exptl_crystal_F_000             358
_exptl_crystal_size_max          0.5
_exptl_crystal_size_mid          0.3
_exptl_crystal_size_min          0.2
_refine_diff_density_max         2.212
_refine_diff_density_min         -1.744
_refine_diff_density_rms         0.091
_refine_ls_extinction_method     none
_refine_ls_goodness_of_fit_ref   1.037
_refine_ls_hydrogen_treatment    mixed
_refine_ls_matrix_type           full
_refine_ls_number_parameters     194
_refine_ls_number_reflns         3293
_refine_ls_number_restraints     0
_refine_ls_restrained_S_all      1.037
_refine_ls_R_factor_all          0.0705
_refine_ls_R_factor_gt           0.0642
_refine_ls_shift/su_max          0.000
_refine_ls_shift/su_mean         0.000
_refine_ls_structure_factor_coef Fsqd
_refine_ls_weighting_details
'calc w=1/[\s^2^(Fo^2^)+(0.0452P)^2^+2.5468P] where P=(Fo^2^+2Fc^2^)/3'
_refine_ls_weighting_scheme      calc
_refine_ls_wR_factor_gt          0.1448
_refine_ls_wR_factor_ref         0.1496
_reflns_number_gt                2949
_reflns_number_total             3293
_reflns_threshold_expression     >2\s(I)
_cod_data_source_file            bi5032.cif
_cod_data_source_block           15
_cod_original_cell_volume        719.36(10)
_cod_database_code               1542849
loop_
_symmetry_equiv_pos_as_xyz
'x, y, z'
'-x, -y, -z'
loop_
_atom_site_label
_atom_site_type_symbol
_atom_site_fract_x
_atom_site_fract_y
_atom_site_fract_z
_atom_site_U_iso_or_equiv
_atom_site_adp_type
_atom_site_occupancy
_atom_site_symmetry_multiplicity
_atom_site_calc_flag
_atom_site_refinement_flags
C1 C -0.3681(4) 1.1658(3) 0.9778(3) 0.0236(6) Uani 1 1 d .
C2 C -0.3447(5) 1.0815(4) 1.0834(3) 0.0273(6) Uani 1 1 d .
H2 H -0.4039 1.1247 1.1547 0.033 Uiso 1 1 calc R
C3 C -0.2316(5) 0.9319(4) 1.0814(3) 0.0304(7) Uani 1 1 d .
C4 C -0.1393(5) 0.8651(3) 0.9765(3) 0.0308(7) Uani 1 1 d .
C5 C -0.1636(5) 0.9524(4) 0.8724(3) 0.0288(7) Uani 1 1 d .
C6 C -0.2772(5) 1.1009(3) 0.8719(3) 0.0255(6) Uani 1 1 d .
H6 H -0.2929 1.1571 0.8011 0.031 Uiso 1 1 calc R
C7 C 0.5446(6) 0.5887(4) 1.7238(3) 0.0436(10) Uani 1 1 d .
C8 C 0.4006(6) 0.5216(5) 1.7164(3) 0.0437(10) Uani 1 1 d .
H8 H 0.3868 0.4470 1.7715 0.052 Uiso 1 1 calc R
C9 C 0.2764(6) 0.5664(5) 1.6259(3) 0.0473(10) Uani 1 1 d .
C10 C 0.2955(7) 0.6789(5) 1.5434(3) 0.0481(11) Uani 1 1 d .
C11 C 0.4396(8) 0.7448(5) 1.5508(4) 0.0524(11) Uani 1 1 d .
C12 C 0.5649(7) 0.6998(5) 1.6404(4) 0.0507(11) Uani 1 1 d .
H12 H 0.6633 0.7441 1.6450 0.061 Uiso 1 1 calc R
O1 O -0.4772(4) 1.3120(3) 0.9718(2) 0.0312(5) Uani 1 1 d .
Cl1 Cl -0.04927(16) 0.87615(11) 0.73917(9) 0.0482(3) Uani 1 1 d .
Cl2 Cl 0.00093(15) 0.67852(10) 0.97457(11) 0.0494(3) Uani 1 1 d .
Cl3 Cl -0.20748(17) 0.82959(12) 1.21357(9) 0.0504(3) Uani 1 1 d .
Cl4 Cl 0.1081(3) 0.49479(18) 1.61913(15) 0.0323(3) Uani 0.50 1 d P
Cl5 Cl 0.1329(2) 0.73989(16) 1.43400(9) 0.0680(4) Uani 1 1 d .
Cl6 Cl 0.4440(5) 0.8717(3) 1.4549(2) 0.0745(8) Uani 0.50 1 d P
N1 N 0.6626(6) 0.5510(5) 1.8203(3) 0.0464(9) Uani 1 1 d .
H1A H 0.682(9) 0.455(8) 1.850(6) 0.09(2) Uiso 1 1 d .
H1B H 0.770(8) 0.569(6) 1.799(5) 0.062(17) Uiso 1 1 d .
H7 H -0.527(8) 1.343(6) 1.036(5) 0.057(15) Uiso 1 1 d .
loop_
_atom_site_aniso_label
_atom_site_aniso_U_11
_atom_site_aniso_U_22
_atom_site_aniso_U_33
_atom_site_aniso_U_23
_atom_site_aniso_U_13
_atom_site_aniso_U_12
C1 0.0199(13) 0.0234(14) 0.0270(15) -0.0007(11) -0.0053(11) -0.0051(11)
C2 0.0246(15) 0.0339(17) 0.0259(15) -0.0005(13) -0.0037(12) -0.0124(13)
C3 0.0278(16) 0.0330(17) 0.0353(17) 0.0117(14) -0.0140(13) -0.0155(13)
C4 0.0234(15) 0.0204(14) 0.051(2) 0.0015(14) -0.0125(14) -0.0071(12)
C5 0.0235(15) 0.0281(16) 0.0352(17) -0.0081(13) -0.0020(12) -0.0074(12)
C6 0.0243(14) 0.0249(15) 0.0272(15) -0.0014(12) -0.0041(12) -0.0070(12)
C7 0.049(2) 0.040(2) 0.0251(17) -0.0120(14) -0.0051(15) 0.0131(17)
C8 0.048(2) 0.040(2) 0.0280(17) -0.0071(15) -0.0060(16) 0.0103(17)
C9 0.046(2) 0.047(2) 0.0309(19) -0.0110(16) -0.0054(16) 0.0134(18)
C10 0.054(2) 0.048(2) 0.0209(16) -0.0078(15) -0.0060(16) 0.0167(19)
C11 0.064(3) 0.048(2) 0.0282(19) -0.0069(17) -0.0021(18) 0.006(2)
C12 0.058(3) 0.048(2) 0.034(2) -0.0139(18) -0.0031(18) 0.001(2)
O1 0.0336(12) 0.0260(12) 0.0272(12) -0.0043(9) -0.0034(10) 0.0010(9)
Cl1 0.0496(6) 0.0409(5) 0.0481(6) -0.0221(4) 0.0075(4) -0.0058(4)
Cl2 0.0407(5) 0.0213(4) 0.0866(8) 0.0015(4) -0.0237(5) -0.0051(3)
Cl3 0.0577(6) 0.0537(6) 0.0487(6) 0.0288(5) -0.0259(5) -0.0297(5)
Cl4 0.0344(8) 0.0299(8) 0.0346(8) 0.0035(6) -0.0066(6) -0.0129(6)
Cl5 0.0694(8) 0.0761(8) 0.0321(5) -0.0021(5) -0.0173(5) 0.0179(6)
Cl6 0.102(2) 0.0624(15) 0.0409(12) 0.0224(11) 0.0100(12) -0.0123(14)
N1 0.046(2) 0.049(2) 0.0303(17) -0.0105(15) -0.0095(15) 0.0072(17)
loop_
_atom_type_symbol
_atom_type_description
_atom_type_scat_dispersion_real
_atom_type_scat_dispersion_imag
_atom_type_scat_source
C C 0.0033 0.0016 'International Tables Vol C Tables 4.2.6.8 and 6.1.1.4'
H H 0.0000 0.0000 'International Tables Vol C Tables 4.2.6.8 and 6.1.1.4'
O O 0.0106 0.0060 'International Tables Vol C Tables 4.2.6.8 and 6.1.1.4'
Cl Cl 0.1484 0.1585 'International Tables Vol C Tables 4.2.6.8 and 6.1.1.4'
N N 0.0061 0.0033 'International Tables Vol C Tables 4.2.6.8 and 6.1.1.4'
loop_
_geom_angle_atom_site_label_1
_geom_angle_atom_site_label_2
_geom_angle_atom_site_label_3
_geom_angle
O1 C1 C6 117.0(3)
O1 C1 C2 123.0(3)
C6 C1 C2 120.1(3)
C3 C2 C1 119.2(3)
C4 C3 C2 121.6(3)
C4 C3 Cl3 120.3(3)
C2 C3 Cl3 118.2(3)
C3 C4 C5 118.0(3)
C3 C4 Cl2 121.3(3)
C5 C4 Cl2 120.7(3)
C6 C5 C4 121.5(3)
C6 C5 Cl1 118.3(3)
C4 C5 Cl1 120.1(3)
C5 C6 C1 119.6(3)
C8 C7 C12 119.9(4)
C8 C7 N1 119.7(4)
C12 C7 N1 120.3(5)
C7 C8 C9 119.3(4)
C8 C9 C10 120.7(5)
C8 C9 Cl4 119.7(4)
C10 C9 Cl4 119.6(3)
C11 C10 C9 119.8(4)
C11 C10 Cl5 119.7(3)
C9 C10 Cl5 120.5(4)
C10 C11 C12 119.8(4)
C10 C11 Cl6 115.2(4)
C12 C11 Cl6 125.0(5)
C11 C12 C7 120.5(5)
loop_
_geom_bond_atom_site_label_1
_geom_bond_atom_site_label_2
_geom_bond_distance
C1 O1 1.355(4)
C1 C6 1.389(4)
C1 C2 1.389(4)
C2 C3 1.388(5)
C3 C4 1.388(5)
C3 Cl3 1.723(3)
C4 C5 1.388(5)
C4 Cl2 1.731(3)
C5 C6 1.380(4)
C5 Cl1 1.730(3)
C7 C8 1.377(7)
C7 C12 1.394(6)
C7 N1 1.415(5)
C8 C9 1.389(5)
C9 C10 1.395(6)
C9 Cl4 1.561(5)
C10 C11 1.370(7)
C10 Cl5 1.736(4)
C11 C12 1.384(6)
C11 Cl6 1.568(5)
