#------------------------------------------------------------------------------
#$Date: 2016-04-04 17:14:59 +0300 (Mon, 04 Apr 2016) $
#$Revision: 181479 $
#$URL: svn://www.crystallography.net/cod/cif/1/54/26/1542601.cif $
#------------------------------------------------------------------------------
#
# This file is available in the Crystallography Open Database (COD),
# http://www.crystallography.net/
#
# All data on this site have been placed in the public domain by the
# contributors.
#
data_1542601
loop_
_publ_author_name
'Maheswari, R.'
'Manjula, J.'
'Gunasekaran, B.'
_publ_section_title
;
 (<i>E</i>)-4-Chloro-<i>N</i>'-(2,4,5-trifluorobenzylidene)benzohydrazide
;
_journal_coeditor_code           IS4002
_journal_issue                   3
_journal_name_full               IUCrData
_journal_page_first              x160304
_journal_paper_doi               10.1107/S2414314616003047
_journal_volume                  1
_journal_year                    2016
_chemical_formula_iupac          'C14 H8 Cl F3 N2 O'
_chemical_formula_moiety         'C14 H8 Cl F3 N2 O'
_chemical_formula_sum            'C14 H8 Cl F3 N2 O'
_chemical_formula_weight         312.67
_chemical_name_systematic
;
(<i>E</i>)-4-Chloro-<i>N</i>'-(2,4,5-trifluorobenzylidene)benzohydrazide
;
_space_group_IT_number           2
_space_group_name_Hall           '-P 1'
_symmetry_cell_setting           triclinic
_symmetry_space_group_name_Hall  '-P 1'
_symmetry_space_group_name_H-M   'P -1'
_atom_sites_solution_hydrogens   geom
_atom_sites_solution_primary     direct
_atom_sites_solution_secondary   difmap
_audit_creation_method           SHELXL97
_cell_angle_alpha                84.859(2)
_cell_angle_beta                 86.707(2)
_cell_angle_gamma                83.313(2)
_cell_formula_units_Z            2
_cell_length_a                   6.4998(2)
_cell_length_b                   7.4286(2)
_cell_length_c                   14.8289(4)
_cell_measurement_reflns_used    2925
_cell_measurement_temperature    295(2)
_cell_measurement_theta_max      26.50
_cell_measurement_theta_min      1.38
_cell_volume                     707.47(3)
_computing_cell_refinement
;
SAINT (Bruker, 2008)
;
_computing_data_collection
;
APEX2 (Bruker, 2008)
;
_computing_data_reduction
;
SAINT (Bruker, 2008)
;
_computing_molecular_graphics
;
PLATON (Spek, 2009)
;
_computing_publication_material
;
SHELXL97 (Sheldrick, 2008)
;
_computing_structure_refinement
;
SHELXL97 (Sheldrick, 2008)
;
_computing_structure_solution
;
SHELXS97 (Sheldrick, 2008)
;
_diffrn_ambient_temperature      295(2)
_diffrn_detector_area_resol_mean 0
_diffrn_measured_fraction_theta_full 0.998
_diffrn_measured_fraction_theta_max 0.998
_diffrn_measurement_device_type  'Bruker APEXII CCD'
_diffrn_measurement_method       '\w and \f'
_diffrn_radiation_monochromator  graphite
_diffrn_radiation_source         'fine-focus sealed tube'
_diffrn_radiation_type           MoK\a
_diffrn_radiation_wavelength     0.71073
_diffrn_reflns_av_R_equivalents  0.0250
_diffrn_reflns_av_sigmaI/netI    0.0218
_diffrn_reflns_limit_h_max       8
_diffrn_reflns_limit_h_min       -8
_diffrn_reflns_limit_k_max       9
_diffrn_reflns_limit_k_min       -9
_diffrn_reflns_limit_l_max       18
_diffrn_reflns_limit_l_min       -18
_diffrn_reflns_number            10440
_diffrn_reflns_theta_full        26.50
_diffrn_reflns_theta_max         26.50
_diffrn_reflns_theta_min         1.38
_diffrn_standards_interval_count 0
_diffrn_standards_interval_time  0
_exptl_absorpt_coefficient_mu    0.303
_exptl_absorpt_correction_T_max  0.9675
_exptl_absorpt_correction_T_min  0.9476
_exptl_absorpt_correction_type   multi-scan
_exptl_absorpt_process_details
;
(SADABS; Sheldrick, 1996)
;
_exptl_crystal_colour            colourless
_exptl_crystal_density_diffrn    1.468
_exptl_crystal_density_method    'not measured'
_exptl_crystal_description       block
_exptl_crystal_F_000             316
_exptl_crystal_size_max          0.18
_exptl_crystal_size_mid          0.16
_exptl_crystal_size_min          0.11
_refine_diff_density_max         0.211
_refine_diff_density_min         -0.182
_refine_ls_extinction_expression Fc^*^=kFc[1+0.001xFc^2^\l^3^/sin(2\q)]^-1/4^
_refine_ls_extinction_method     none
_refine_ls_goodness_of_fit_ref   0.994
_refine_ls_hydrogen_treatment    constr
_refine_ls_matrix_type           full
_refine_ls_number_parameters     191
_refine_ls_number_reflns         2925
_refine_ls_number_restraints     0
_refine_ls_restrained_S_all      0.994
_refine_ls_R_factor_all          0.0579
_refine_ls_R_factor_gt           0.0419
_refine_ls_shift/su_max          0.001
_refine_ls_shift/su_mean         0.000
_refine_ls_structure_factor_coef Fsqd
_refine_ls_weighting_details
'calc w=1/[\s^2^(Fo^2^)+(0.0569P)^2^+0.2152P] where P=(Fo^2^+2Fc^2^)/3'
_refine_ls_weighting_scheme      calc
_refine_ls_wR_factor_gt          0.1111
_refine_ls_wR_factor_ref         0.1203
_reflns_number_gt                2162
_reflns_number_total             2925
_reflns_threshold_expression     >2\s(I)
_iucr_refine_instructions_details
;
TITL MAHESWARY_P1_0m in P-1
CELL  0.71073   6.4998   7.4286  14.8289   84.859   86.707   83.313
ZERR     2.00   0.0002   0.0002   0.0004    0.002    0.002    0.002
LATT   1
SFAC  C    H    N    O    F    CL
UNIT  28 16 4 2 6 2
MERG   2
FMAP   2
PLAN   20
BOND $H
ACTA
CONF
HTAB C3 O1
HTAB C8 F1
size 0.11 0.16 0.18
L.S.   10
WGHT    0.056900    0.215200
EXTI    0.004143
FVAR       1.71180
MOLE    1
CL1   6    0.181095    0.173087    0.537116    11.00000    0.08801    0.10034 =
         0.04696   -0.01579   -0.01745   -0.01008
F1    5    0.217637    0.466490    1.234864    11.00000    0.05374    0.08419 =
         0.07784   -0.01176    0.00046    0.00980
F2    5    0.723581    0.347810    1.451019    11.00000    0.11735    0.10162 =
         0.04474   -0.01621   -0.01826   -0.00740
N2    3    0.584775    0.242478    1.038681    11.00000    0.04609    0.05740 =
         0.04419   -0.00633   -0.00988   -0.00586
N1    3    0.488971    0.233461    0.958764    11.00000    0.04057    0.06279 =
         0.04420   -0.01057   -0.00910   -0.00190
AFIX  43
H1    2    0.357978    0.265558    0.955460    11.00000   -1.20000
AFIX   0
F3    5    0.989717    0.192697    1.329322    11.00000    0.06186    0.09372 =
         0.06577   -0.00402   -0.02227   -0.00056
C4    1    0.486593    0.173082    0.801466    11.00000    0.04175    0.04393 =
         0.04334   -0.00473   -0.00217   -0.00493
C5    1    0.278239    0.235146    0.793645    11.00000    0.04051    0.05926 =
         0.04361   -0.01172    0.00048    0.00048
AFIX  43
H5    2    0.200537    0.277151    0.843690    11.00000   -1.20000
AFIX   0
C8    1    0.466592    0.303735    1.102382    11.00000    0.04587    0.05528 =
         0.04903   -0.00700   -0.00687   -0.00597
AFIX  43
H8    2    0.327848    0.341000    1.091792    11.00000   -1.20000
AFIX   0
C2    1    0.507682    0.109656    0.644540    11.00000    0.05907    0.05820 =
         0.04558   -0.01405    0.00844   -0.00557
AFIX  43
H2    2    0.584232    0.067560    0.594228    11.00000   -1.20000
AFIX   0
C7    1    0.601312    0.174311    0.886169    11.00000    0.04141    0.05771 =
         0.04884   -0.00410   -0.00396   -0.00437
C13   1    0.465776    0.408343    1.345163    11.00000    0.07280    0.05192 =
         0.04804   -0.00921    0.00951   -0.00640
AFIX  43
H13   2    0.372810    0.461881    1.387620    11.00000   -1.20000
AFIX   0
C6    1    0.184997    0.235192    0.712272    11.00000    0.04115    0.05960 =
         0.04936   -0.00982   -0.00617   -0.00002
AFIX  43
H6    2    0.045273    0.277065    0.707255    11.00000   -1.20000
AFIX   0
O1    4    0.787022    0.126025    0.887994    11.00000    0.04188    0.14194 =
         0.06257   -0.02150   -0.01100    0.01016
C1    1    0.301400    0.172511    0.638715    11.00000    0.05793    0.05187 =
         0.04170   -0.00824   -0.00558   -0.00894
C9    1    0.542342    0.317468    1.192130    11.00000    0.05014    0.04338 =
         0.04437   -0.00387   -0.00394   -0.01059
C14   1    0.411122    0.395671    1.257861    11.00000    0.05069    0.04718 =
         0.05494   -0.00446    0.00014   -0.00405
C10   1    0.742472    0.249034    1.216773    11.00000    0.05018    0.05017 =
         0.04554   -0.00647   -0.00315   -0.00726
AFIX  43
H10   2    0.836787    0.195908    1.174686    11.00000   -1.20000
AFIX   0
C3    1    0.599945    0.109742    0.725985    11.00000    0.04143    0.05243 =
         0.05333   -0.00922    0.00140   -0.00118
AFIX  43
H3    2    0.739552    0.066969    0.730511    11.00000   -1.20000
AFIX   0
C11   1    0.798533    0.260922    1.303572    11.00000    0.05619    0.05072 =
         0.04967   -0.00072   -0.01059   -0.00813
C12   1    0.661303    0.339325    1.366697    11.00000    0.07864    0.05410 =
         0.04166   -0.00640   -0.00784   -0.01231
HKLF 4
REM  MAHESWARY_P1_0m in P-1
REM R1 =  0.0419 for   2162 Fo > 4sig(Fo)  and  0.0579 for all   2925 data
REM    191 parameters refined using      0 restraints
END
WGHT      0.0605      0.1122
REM Highest difference peak  0.211,  deepest hole -0.182,  1-sigma level  0.039
Q1    1   0.0561  0.1928  0.9419  11.00000  0.05    0.21
Q2    1   0.1402  0.0748  0.9837  11.00000  0.05    0.21
Q3    1   0.5332  0.1803  0.8394  11.00000  0.05    0.20
Q4    1   0.8972 -0.0222  0.9410  11.00000  0.05    0.20
Q5    1   0.1410  0.1466  0.9612  11.00000  0.05    0.19
Q6    1   0.7673  0.2389  0.8826  11.00000  0.05    0.19
Q7    1   0.7426  0.3543  1.3219  11.00000  0.05    0.19
Q8    1   0.9677  0.1522  0.9582  11.00000  0.05    0.19
Q9    1   0.5478  0.1760  0.7643  11.00000  0.05    0.19
Q10   1   0.9329  0.1170  0.9767  11.00000  0.05    0.17
Q11   1   0.4653  0.3045  1.2344  11.00000  0.05    0.17
Q12   1   0.4988  0.2941  1.1554  11.00000  0.05    0.17
Q13   1   0.1162  0.2762  0.5604  11.00000  0.05    0.15
Q14   1   0.4440  0.3710  1.3063  11.00000  0.05    0.15
Q15   1   0.2500  0.1721  0.5990  11.00000  0.05    0.15
Q16   1   0.3435  0.1867  0.9778  11.00000  0.05    0.14
Q17   1   0.7528  0.2307  1.2609  11.00000  0.05    0.14
Q18   1   0.3089  0.1482  0.5567  11.00000  0.05    0.14
Q19   1   0.5639  0.1417  0.6795  11.00000  0.05    0.13
Q20   1   0.7391  0.0802  0.9111  11.00000  0.05    0.13
;
_cod_data_source_file            is4002sup1.cif
_cod_data_source_block           I
_cod_depositor_comments          'Adding full bibliography for 1542601.cif.'
_cod_database_code               1542601
_cod_database_fobs_code          1542601
loop_
_symmetry_equiv_pos_as_xyz
'x, y, z'
'-x, -y, -z'
loop_
_atom_site_type_symbol
_atom_site_label
_atom_site_fract_x
_atom_site_fract_y
_atom_site_fract_z
_atom_site_U_iso_or_equiv
_atom_site_adp_type
_atom_site_calc_flag
_atom_site_refinement_flags
_atom_site_occupancy
_atom_site_symmetry_multiplicity
Cl Cl1 0.18109(10) 0.17309(9) 0.53712(4) 0.0773(2) Uani d . 1 1
F F1 0.21764(19) 0.46649(19) 1.23486(9) 0.0731(4) Uani d . 1 1
F F2 0.7236(3) 0.3478(2) 1.45102(8) 0.0871(5) Uani d . 1 1
N N2 0.5848(2) 0.2425(2) 1.03868(10) 0.0488(4) Uani d . 1 1
N N1 0.4890(2) 0.2335(2) 0.95876(10) 0.0489(4) Uani d . 1 1
H H1 0.3580 0.2656 0.9555 0.059 Uiso calc R 1 1
F F3 0.9897(2) 0.19270(19) 1.32932(8) 0.0738(4) Uani d . 1 1
C C4 0.4866(3) 0.1731(2) 0.80147(11) 0.0429(4) Uani d . 1 1
C C5 0.2782(3) 0.2351(3) 0.79365(12) 0.0479(4) Uani d . 1 1
H H5 0.2005 0.2772 0.8437 0.058 Uiso calc R 1 1
C C8 0.4666(3) 0.3037(3) 1.10238(13) 0.0497(4) Uani d . 1 1
H H8 0.3278 0.3410 1.0918 0.060 Uiso calc R 1 1
C C2 0.5077(3) 0.1097(3) 0.64454(13) 0.0542(5) Uani d . 1 1
H H2 0.5842 0.0676 0.5942 0.065 Uiso calc R 1 1
C C7 0.6013(3) 0.1743(3) 0.88617(13) 0.0494(4) Uani d . 1 1
C C13 0.4658(4) 0.4083(3) 1.34516(13) 0.0578(5) Uani d . 1 1
H H13 0.3728 0.4619 1.3876 0.069 Uiso calc R 1 1
C C6 0.1850(3) 0.2352(3) 0.71227(12) 0.0500(5) Uani d . 1 1
H H6 0.0453 0.2771 0.7073 0.060 Uiso calc R 1 1
O O1 0.7870(2) 0.1260(3) 0.88799(10) 0.0826(5) Uani d . 1 1
C C1 0.3014(3) 0.1725(3) 0.63871(12) 0.0499(5) Uani d . 1 1
C C9 0.5423(3) 0.3175(2) 1.19213(12) 0.0455(4) Uani d . 1 1
C C14 0.4111(3) 0.3957(3) 1.25786(13) 0.0511(5) Uani d . 1 1
C C10 0.7425(3) 0.2490(3) 1.21677(12) 0.0483(4) Uani d . 1 1
H H10 0.8368 0.1959 1.1747 0.058 Uiso calc R 1 1
C C3 0.5999(3) 0.1097(3) 0.72598(13) 0.0492(4) Uani d . 1 1
H H3 0.7396 0.0670 0.7305 0.059 Uiso calc R 1 1
C C11 0.7985(3) 0.2609(3) 1.30357(13) 0.0519(5) Uani d . 1 1
C C12 0.6613(4) 0.3393(3) 1.36670(13) 0.0574(5) Uani d . 1 1
loop_
_atom_site_aniso_label
_atom_site_aniso_U_11
_atom_site_aniso_U_22
_atom_site_aniso_U_33
_atom_site_aniso_U_12
_atom_site_aniso_U_13
_atom_site_aniso_U_23
Cl1 0.0880(5) 0.1003(5) 0.0470(3) -0.0101(3) -0.0175(3) -0.0158(3)
F1 0.0537(7) 0.0842(9) 0.0778(8) 0.0098(6) 0.0005(6) -0.0118(7)
F2 0.1174(12) 0.1016(11) 0.0447(6) -0.0074(9) -0.0183(7) -0.0162(7)
N2 0.0461(9) 0.0574(10) 0.0442(8) -0.0059(7) -0.0099(7) -0.0063(7)
N1 0.0406(8) 0.0628(10) 0.0442(8) -0.0019(7) -0.0091(6) -0.0106(7)
F3 0.0619(8) 0.0937(10) 0.0658(7) -0.0006(7) -0.0223(6) -0.0040(7)
C4 0.0417(10) 0.0439(10) 0.0433(9) -0.0049(7) -0.0022(7) -0.0047(7)
C5 0.0405(10) 0.0593(11) 0.0436(9) 0.0005(8) 0.0005(7) -0.0117(8)
C8 0.0459(10) 0.0553(11) 0.0490(10) -0.0060(8) -0.0069(8) -0.0070(8)
C2 0.0591(12) 0.0582(12) 0.0456(10) -0.0056(9) 0.0084(9) -0.0140(9)
C7 0.0414(10) 0.0577(11) 0.0488(10) -0.0044(8) -0.0040(8) -0.0041(8)
C13 0.0728(14) 0.0519(12) 0.0480(10) -0.0064(10) 0.0095(10) -0.0092(9)
C6 0.0412(10) 0.0596(12) 0.0494(10) 0.0000(8) -0.0062(8) -0.0098(8)
O1 0.0419(8) 0.1419(16) 0.0626(9) 0.0102(9) -0.0110(7) -0.0215(9)
C1 0.0579(12) 0.0519(11) 0.0417(9) -0.0089(9) -0.0056(8) -0.0082(8)
C9 0.0501(10) 0.0434(10) 0.0444(9) -0.0106(8) -0.0039(8) -0.0039(8)
C14 0.0507(11) 0.0472(10) 0.0549(11) -0.0041(8) 0.0001(9) -0.0045(8)
C10 0.0502(11) 0.0502(11) 0.0455(9) -0.0073(8) -0.0032(8) -0.0065(8)
C3 0.0414(10) 0.0524(11) 0.0533(10) -0.0012(8) 0.0014(8) -0.0092(8)
C11 0.0562(12) 0.0507(11) 0.0497(10) -0.0081(9) -0.0106(9) -0.0007(8)
C12 0.0786(15) 0.0541(12) 0.0417(10) -0.0123(10) -0.0078(9) -0.0064(8)
loop_
_atom_type_symbol
_atom_type_description
_atom_type_scat_dispersion_real
_atom_type_scat_dispersion_imag
_atom_type_scat_source
C C 0.0033 0.0016 'International Tables Vol C Tables 4.2.6.8 and 6.1.1.4'
H H 0.0000 0.0000 'International Tables Vol C Tables 4.2.6.8 and 6.1.1.4'
N N 0.0061 0.0033 'International Tables Vol C Tables 4.2.6.8 and 6.1.1.4'
O O 0.0106 0.0060 'International Tables Vol C Tables 4.2.6.8 and 6.1.1.4'
F F 0.0171 0.0103 'International Tables Vol C Tables 4.2.6.8 and 6.1.1.4'
Cl Cl 0.1484 0.1585 'International Tables Vol C Tables 4.2.6.8 and 6.1.1.4'
loop_
_geom_angle_atom_site_label_1
_geom_angle_atom_site_label_2
_geom_angle_atom_site_label_3
_geom_angle
C8 N2 N1 114.85(15)
C7 N1 N2 119.69(15)
C7 N1 H1 120.2
N2 N1 H1 120.2
C5 C4 C3 118.83(16)
C5 C4 C7 124.05(16)
C3 C4 C7 117.10(16)
C6 C5 C4 120.65(16)
C6 C5 H5 119.7
C4 C5 H5 119.7
N2 C8 C9 121.75(17)
N2 C8 H8 119.1
C9 C8 H8 119.1
C1 C2 C3 119.12(17)
C1 C2 H2 120.4
C3 C2 H2 120.4
O1 C7 N1 122.38(17)
O1 C7 C4 121.28(17)
N1 C7 C4 116.33(16)
C12 C13 C14 117.17(18)
C12 C13 H13 121.4
C14 C13 H13 121.4
C1 C6 C5 119.17(17)
C1 C6 H6 120.4
C5 C6 H6 120.4
C2 C1 C6 121.46(17)
C2 C1 Cl1 120.08(15)
C6 C1 Cl1 118.46(15)
C14 C9 C10 117.17(17)
C14 C9 C8 119.73(17)
C10 C9 C8 123.07(17)
F1 C14 C13 117.91(17)
F1 C14 C9 118.15(17)
C13 C14 C9 123.93(18)
C11 C10 C9 119.38(18)
C11 C10 H10 120.3
C9 C10 H10 120.3
C2 C3 C4 120.77(17)
C2 C3 H3 119.6
C4 C3 H3 119.6
F3 C11 C10 120.38(18)
F3 C11 C12 118.47(17)
C10 C11 C12 121.14(19)
F2 C12 C13 119.85(19)
F2 C12 C11 118.9(2)
C13 C12 C11 121.21(18)
loop_
_geom_bond_atom_site_label_1
_geom_bond_atom_site_label_2
_geom_bond_distance
Cl1 C1 1.7363(18)
F1 C14 1.356(2)
F2 C12 1.345(2)
N2 C8 1.266(2)
N2 N1 1.380(2)
N1 C7 1.343(2)
N1 H1 0.8600
F3 C11 1.349(2)
C4 C5 1.387(3)
C4 C3 1.391(2)
C4 C7 1.498(2)
C5 C6 1.381(2)
C5 H5 0.9300
C8 C9 1.461(2)
C8 H8 0.9300
C2 C1 1.372(3)
C2 C3 1.379(3)
C2 H2 0.9300
C7 O1 1.220(2)
C13 C12 1.358(3)
C13 C14 1.376(3)
C13 H13 0.9300
C6 C1 1.376(3)
C6 H6 0.9300
C9 C14 1.380(3)
C9 C10 1.397(3)
C10 C11 1.371(2)
C10 H10 0.9300
C3 H3 0.9300
C11 C12 1.375(3)
loop_
_geom_torsion_atom_site_label_1
_geom_torsion_atom_site_label_2
_geom_torsion_atom_site_label_3
_geom_torsion_atom_site_label_4
_geom_torsion
C8 N2 N1 C7 178.48(18)
C3 C4 C5 C6 -0.4(3)
C7 C4 C5 C6 177.82(18)
N1 N2 C8 C9 178.32(16)
N2 N1 C7 O1 0.6(3)
N2 N1 C7 C4 -178.52(15)
C5 C4 C7 O1 -176.5(2)
C3 C4 C7 O1 1.8(3)
C5 C4 C7 N1 2.7(3)
C3 C4 C7 N1 -179.10(17)
C4 C5 C6 C1 0.1(3)
C3 C2 C1 C6 -0.1(3)
C3 C2 C1 Cl1 -179.75(15)
C5 C6 C1 C2 0.2(3)
C5 C6 C1 Cl1 179.82(15)
N2 C8 C9 C14 175.94(18)
N2 C8 C9 C10 -6.3(3)
C12 C13 C14 F1 -178.97(18)
C12 C13 C14 C9 0.1(3)
C10 C9 C14 F1 178.60(17)
C8 C9 C14 F1 -3.5(3)
C10 C9 C14 C13 -0.5(3)
C8 C9 C14 C13 177.41(19)
C14 C9 C10 C11 0.5(3)
C8 C9 C10 C11 -177.34(17)
C1 C2 C3 C4 -0.2(3)
C5 C4 C3 C2 0.5(3)
C7 C4 C3 C2 -177.88(18)
C9 C10 C11 F3 178.76(17)
C9 C10 C11 C12 -0.1(3)
C14 C13 C12 F2 180.00(18)
C14 C13 C12 C11 0.3(3)
F3 C11 C12 F2 1.1(3)
C10 C11 C12 F2 180.00(18)
F3 C11 C12 C13 -179.17(19)
C10 C11 C12 C13 -0.3(3)
