#------------------------------------------------------------------------------
#$Date: 2016-03-13 16:09:15 +0200 (Sun, 13 Mar 2016) $
#$Revision: 178187 $
#$URL: svn://www.crystallography.net/cod/cif/1/54/28/1542850.cif $
#------------------------------------------------------------------------------
#
# This file is available in the Crystallography Open Database (COD),
# http://www.crystallography.net/
#
# All data on this site have been placed in the public domain by the
# contributors.
#
data_1542850
loop_
_publ_author_name
'Mukherjee, Arijit'
'Dixit, Karuna'
'Sarma, Siddhartha P.'
'Desiraju, Gautam R.'
_publ_section_title
;
 Aniline--phenol recognition: from solution through supramolecular
 synthons to cocrystals
;
_journal_coeditor_code           BI5032
_journal_issue                   4
_journal_name_full               IUCrJ
_journal_page_first              228
_journal_page_last               239
_journal_paper_doi               10.1107/S2052252514012081
_journal_volume                  1
_journal_year                    2014
_chemical_formula_moiety         'C6 H3 Cl3 O, C6 H6 Br N'
_chemical_formula_sum            'C12 H9 Br Cl3 N O'
_chemical_formula_weight         369.46
_space_group_IT_number           2
_symmetry_cell_setting           triclinic
_symmetry_space_group_name_Hall  '-P 1'
_symmetry_space_group_name_H-M   'P -1'
_atom_sites_solution_hydrogens   geom
_atom_sites_solution_primary     direct
_atom_sites_solution_secondary   difmap
_audit_creation_method           SHELXL-97
_cell_angle_alpha                83.358(6)
_cell_angle_beta                 79.173(6)
_cell_angle_gamma                76.588(5)
_cell_formula_units_Z            2
_cell_length_a                   7.0562(15)
_cell_length_b                   9.373(2)
_cell_length_c                   11.110(2)
_cell_measurement_reflns_used    6533
_cell_measurement_temperature    150(2)
_cell_measurement_theta_max      27.6
_cell_measurement_theta_min      3.0
_cell_volume                     700.0(2)
_computing_cell_refinement
;
CrystalClear-SM Expert 2.0 r4 (Rigaku, 2009)
;
_computing_data_collection
;
CrystalClear-SM Expert 2.0 r4 (Rigaku, 2009)
;
_computing_data_reduction
;
CrystalClear-SM Expert 2.0 r4 (Rigaku, 2009)
;
_computing_structure_refinement  'SHELXL-97 (Sheldrick, 2008)'
_computing_structure_solution    'SHELXL-97 (Sheldrick, 2008)'
_diffrn_ambient_temperature      150(2)
_diffrn_detector                 CCD
_diffrn_detector_area_resol_mean 13.6612
_diffrn_measured_fraction_theta_full 0.997
_diffrn_measured_fraction_theta_max 0.997
_diffrn_measurement_device
;
XtaLABmini: Fixed Chi 2 circle
;
_diffrn_measurement_device_type
;
Rigaku Mercury375R (2x2 bin mode)
;
_diffrn_measurement_specimen_support Fiber
_diffrn_radiation_monochromator  'Graphite Monochromator'
_diffrn_radiation_source         'fine-focus sealed tube'
_diffrn_radiation_type           MoK\a
_diffrn_radiation_wavelength     0.71073
_diffrn_reflns_av_R_equivalents  0.0356
_diffrn_reflns_av_sigmaI/netI    0.0441
_diffrn_reflns_limit_h_max       9
_diffrn_reflns_limit_h_min       -9
_diffrn_reflns_limit_k_max       12
_diffrn_reflns_limit_k_min       -12
_diffrn_reflns_limit_l_max       14
_diffrn_reflns_limit_l_min       -14
_diffrn_reflns_number            7199
_diffrn_reflns_theta_full        27.48
_diffrn_reflns_theta_max         27.48
_diffrn_reflns_theta_min         3.01
_exptl_absorpt_coefficient_mu    3.494
_exptl_absorpt_correction_T_max  1.000
_exptl_absorpt_correction_T_min  0.540
_exptl_absorpt_correction_type   multi-scan
_exptl_absorpt_process_details   'Jacobson, R. (1998) Private communication'
_exptl_crystal_density_diffrn    1.753
_exptl_crystal_density_method    'not measured'
_exptl_crystal_F_000             364
_exptl_crystal_size_max          0.3
_exptl_crystal_size_mid          0.2
_exptl_crystal_size_min          0.1
_refine_diff_density_max         1.238
_refine_diff_density_min         -0.664
_refine_diff_density_rms         0.086
_refine_ls_extinction_method     none
_refine_ls_goodness_of_fit_ref   1.037
_refine_ls_hydrogen_treatment    mixed
_refine_ls_matrix_type           full
_refine_ls_number_parameters     175
_refine_ls_number_reflns         3204
_refine_ls_number_restraints     0
_refine_ls_restrained_S_all      1.037
_refine_ls_R_factor_all          0.0493
_refine_ls_R_factor_gt           0.0394
_refine_ls_shift/su_max          0.000
_refine_ls_shift/su_mean         0.000
_refine_ls_structure_factor_coef Fsqd
_refine_ls_weighting_details
'calc w=1/[\s^2^(Fo^2^)+(0.0434P)^2^+0.6163P] where P=(Fo^2^+2Fc^2^)/3'
_refine_ls_weighting_scheme      calc
_refine_ls_wR_factor_gt          0.0935
_refine_ls_wR_factor_ref         0.0978
_reflns_number_gt                2717
_reflns_number_total             3204
_reflns_threshold_expression     >2\s(I)
_cod_data_source_file            bi5032.cif
_cod_data_source_block           16
_cod_depositor_comments
;
The following automatic conversions were performed:

'_exptl_absorpt_correction_type' value 'Multi-scan' changed to
'multi-scan' according to
/usr/data/users/saulius/automatic-downloads/current/IUCr/lib/dictionaries/cif_core.dic
dictionary named 'cif_core.dic' version 2.4.2 from 2011-04-26.

Automatic conversion script
Id: cif_fix_values 4287 2015-11-16 14:04:37Z antanas 
;
_cod_original_cell_volume        700.0(3)
_cod_database_code               1542850
loop_
_symmetry_equiv_pos_as_xyz
'x, y, z'
'-x, -y, -z'
loop_
_atom_site_label
_atom_site_type_symbol
_atom_site_fract_x
_atom_site_fract_y
_atom_site_fract_z
_atom_site_U_iso_or_equiv
_atom_site_adp_type
_atom_site_occupancy
_atom_site_symmetry_multiplicity
_atom_site_calc_flag
_atom_site_refinement_flags
H2B H 0.675(6) -0.012(5) 1.345(4) 0.039(10) Uiso 1 1 d .
H1A H 0.760(6) 0.106(4) 1.291(4) 0.045(12) Uiso 1 1 d .
H1O H -0.505(6) 0.831(4) 0.539(4) 0.042(11) Uiso 1 1 d .
Br1 Br 0.10078(5) 0.20720(4) 0.93630(3) 0.04047(13) Uani 1 1 d .
Cl2 Cl -0.03637(12) 0.18035(8) 0.50580(9) 0.0394(2) Uani 1 1 d .
Cl3 Cl -0.25341(13) 0.33750(9) 0.74615(8) 0.0381(2) Uani 1 1 d .
Cl1 Cl -0.04579(13) 0.36577(10) 0.25074(8) 0.0408(2) Uani 1 1 d .
O1 O -0.4463(3) 0.8015(2) 0.4726(2) 0.0260(4) Uani 1 1 d .
C6 C -0.3482(4) 0.5794(3) 0.5978(3) 0.0216(6) Uani 1 1 d .
H6 H -0.4098 0.6244 0.6695 0.026 Uiso 1 1 calc R
C2 C -0.2584(4) 0.5919(3) 0.3777(3) 0.0233(6) Uani 1 1 d .
H2 H -0.2603 0.6452 0.3018 0.028 Uiso 1 1 calc R
C1 C -0.3529(4) 0.6578(3) 0.4853(3) 0.0209(5) Uani 1 1 d .
N1 N 0.6537(4) 0.0755(3) 1.3132(3) 0.0302(6) Uani 1 1 d .
C10 C 0.2818(4) 0.1611(3) 1.0498(3) 0.0276(6) Uani 1 1 d .
C7 C 0.5344(4) 0.1003(3) 1.2198(3) 0.0253(6) Uani 1 1 d .
C4 C -0.1559(4) 0.3636(3) 0.4976(3) 0.0250(6) Uani 1 1 d .
C9 C 0.4224(5) 0.2430(4) 1.0422(3) 0.0325(7) Uani 1 1 d .
H9 H 0.4312 0.3188 0.9810 0.039 Uiso 1 1 calc R
C5 C -0.2509(4) 0.4328(3) 0.6034(3) 0.0245(6) Uani 1 1 d .
C3 C -0.1616(4) 0.4455(3) 0.3857(3) 0.0263(6) Uani 1 1 d .
C12 C 0.3916(5) 0.0191(3) 1.2254(3) 0.0281(6) Uani 1 1 d .
H12 H 0.3802 -0.0559 1.2872 0.034 Uiso 1 1 calc R
C8 C 0.5511(5) 0.2117(3) 1.1268(3) 0.0314(7) Uani 1 1 d .
H8 H 0.6485 0.2653 1.1213 0.038 Uiso 1 1 calc R
C11 C 0.2659(5) 0.0490(3) 1.1397(3) 0.0295(6) Uani 1 1 d .
H11 H 0.1713 -0.0065 1.1430 0.035 Uiso 1 1 calc R
loop_
_atom_site_aniso_label
_atom_site_aniso_U_11
_atom_site_aniso_U_22
_atom_site_aniso_U_33
_atom_site_aniso_U_23
_atom_site_aniso_U_13
_atom_site_aniso_U_12
Br1 0.0381(2) 0.0539(2) 0.02721(19) 0.00268(14) -0.01176(14) -0.00325(16)
Cl2 0.0304(4) 0.0184(3) 0.0709(6) -0.0057(3) -0.0165(4) -0.0007(3)
Cl3 0.0480(5) 0.0303(4) 0.0375(5) 0.0152(3) -0.0177(4) -0.0116(3)
Cl1 0.0391(5) 0.0426(5) 0.0414(5) -0.0207(4) 0.0059(4) -0.0117(4)
O1 0.0296(11) 0.0185(10) 0.0268(12) 0.0016(8) -0.0064(9) 0.0007(8)
C6 0.0212(13) 0.0208(13) 0.0235(14) -0.0011(11) -0.0045(11) -0.0059(11)
C2 0.0224(14) 0.0250(14) 0.0239(14) 0.0012(11) -0.0061(11) -0.0079(11)
C1 0.0176(13) 0.0195(13) 0.0270(15) 0.0026(11) -0.0077(10) -0.0055(10)
N1 0.0294(14) 0.0277(14) 0.0342(15) -0.0027(11) -0.0109(11) -0.0027(12)
C10 0.0273(15) 0.0337(16) 0.0181(14) -0.0032(12) -0.0024(11) 0.0005(12)
C7 0.0268(15) 0.0240(14) 0.0234(15) -0.0054(11) -0.0041(11) -0.0002(12)
C4 0.0161(13) 0.0194(13) 0.0414(18) -0.0023(12) -0.0080(12) -0.0052(11)
C9 0.0361(17) 0.0372(17) 0.0207(15) 0.0054(12) 0.0011(12) -0.0095(14)
C5 0.0233(14) 0.0226(14) 0.0309(16) 0.0069(11) -0.0115(11) -0.0104(11)
C3 0.0204(14) 0.0281(15) 0.0329(16) -0.0104(12) -0.0016(11) -0.0083(12)
C12 0.0364(17) 0.0222(14) 0.0264(15) 0.0040(11) -0.0090(12) -0.0073(12)
C8 0.0334(17) 0.0327(16) 0.0290(16) -0.0007(13) 0.0009(13) -0.0145(14)
C11 0.0331(16) 0.0268(15) 0.0303(17) -0.0026(12) -0.0063(13) -0.0090(13)
loop_
_atom_type_symbol
_atom_type_description
_atom_type_scat_dispersion_real
_atom_type_scat_dispersion_imag
_atom_type_scat_source
C C 0.0033 0.0016 'International Tables Vol C Tables 4.2.6.8 and 6.1.1.4'
H H 0.0000 0.0000 'International Tables Vol C Tables 4.2.6.8 and 6.1.1.4'
N N 0.0061 0.0033 'International Tables Vol C Tables 4.2.6.8 and 6.1.1.4'
O O 0.0106 0.0060 'International Tables Vol C Tables 4.2.6.8 and 6.1.1.4'
Cl Cl 0.1484 0.1585 'International Tables Vol C Tables 4.2.6.8 and 6.1.1.4'
Br Br -0.2901 2.4595 'International Tables Vol C Tables 4.2.6.8 and 6.1.1.4'
loop_
_geom_angle_atom_site_label_1
_geom_angle_atom_site_label_2
_geom_angle_atom_site_label_3
_geom_angle
C1 C6 C5 119.5(3)
C3 C2 C1 118.8(3)
O1 C1 C6 122.8(3)
O1 C1 C2 116.6(2)
C6 C1 C2 120.6(3)
C11 C10 C9 121.2(3)
C11 C10 Br1 119.3(2)
C9 C10 Br1 119.5(2)
C12 C7 C8 119.5(3)
C12 C7 N1 119.9(3)
C8 C7 N1 120.5(3)
C3 C4 C5 118.0(3)
C3 C4 Cl2 121.2(2)
C5 C4 Cl2 120.8(2)
C10 C9 C8 119.5(3)
C6 C5 C4 121.3(3)
C6 C5 Cl3 118.0(2)
C4 C5 Cl3 120.7(2)
C2 C3 C4 121.8(3)
C2 C3 Cl1 118.0(2)
C4 C3 Cl1 120.2(2)
C11 C12 C7 120.4(3)
C9 C8 C7 120.0(3)
C10 C11 C12 119.5(3)
loop_
_geom_bond_atom_site_label_1
_geom_bond_atom_site_label_2
_geom_bond_distance
Br1 C10 1.906(3)
Cl2 C4 1.729(3)
Cl3 C5 1.727(3)
Cl1 C3 1.729(3)
O1 C1 1.360(3)
C6 C1 1.377(4)
C6 C5 1.386(4)
C2 C3 1.384(4)
C2 C1 1.391(4)
N1 C7 1.422(4)
C10 C11 1.372(4)
C10 C9 1.374(5)
C7 C12 1.385(4)
C7 C8 1.391(4)
C4 C3 1.386(4)
C4 C5 1.390(4)
C9 C8 1.388(5)
C12 C11 1.383(4)
