#------------------------------------------------------------------------------
#$Date: 2016-03-13 16:09:15 +0200 (Sun, 13 Mar 2016) $
#$Revision: 178187 $
#$URL: svn://www.crystallography.net/cod/cif/1/54/28/1542854.cif $
#------------------------------------------------------------------------------
#
# This file is available in the Crystallography Open Database (COD),
# http://www.crystallography.net/
#
# All data on this site have been placed in the public domain by the
# contributors.
#
data_1542854
loop_
_publ_author_name
'Mukherjee, Arijit'
'Dixit, Karuna'
'Sarma, Siddhartha P.'
'Desiraju, Gautam R.'
_publ_section_title
;
 Aniline--phenol recognition: from solution through supramolecular
 synthons to cocrystals
;
_journal_coeditor_code           BI5032
_journal_issue                   4
_journal_name_full               IUCrJ
_journal_page_first              228
_journal_page_last               239
_journal_paper_doi               10.1107/S2052252514012081
_journal_volume                  1
_journal_year                    2014
_chemical_formula_moiety         'C6 H3 Cl3 O, C6 H6 Cl N'
_chemical_formula_sum            'C12 H9 Cl4 N O'
_chemical_formula_weight         325.00
_space_group_IT_number           2
_symmetry_cell_setting           triclinic
_symmetry_space_group_name_Hall  '-P 1'
_symmetry_space_group_name_H-M   'P -1'
_atom_sites_solution_hydrogens   geom
_atom_sites_solution_primary     direct
_atom_sites_solution_secondary   difmap
_audit_creation_method           SHELXL-97
_cell_angle_alpha                99.035(14)
_cell_angle_beta                 107.107(6)
_cell_angle_gamma                102.219(10)
_cell_formula_units_Z            2
_cell_length_a                   7.208(9)
_cell_length_b                   9.333(10)
_cell_length_c                   10.884(13)
_cell_measurement_reflns_used    2132
_cell_measurement_temperature    150(2)
_cell_measurement_theta_max      27.5
_cell_measurement_theta_min      3.1
_cell_volume                     664.8(14)
_computing_cell_refinement
;
CrystalClear-SM Expert 2.0 rc14 (Rigaku, 2009)
;
_computing_data_collection
;
CrystalClear-SM Expert 2.0 rc14 (Rigaku, 2009)
;
_computing_data_reduction
;
CrystalClear-SM Expert 2.0 rc14 (Rigaku, 2009)
;
_computing_structure_refinement  'SHELXL-97 (Sheldrick, 2008)'
_computing_structure_solution    'SHELXL-97 (Sheldrick, 2008)'
_diffrn_ambient_temperature      150(2)
_diffrn_detector                 CCD
_diffrn_detector_area_resol_mean 13.6612
_diffrn_measured_fraction_theta_full 0.996
_diffrn_measured_fraction_theta_max 0.996
_diffrn_measurement_device
;
XtaLABmini: Fixed Chi 2 circle
;
_diffrn_measurement_device_type
;
Rigaku Mercury375R (2x2 bin mode)
;
_diffrn_measurement_specimen_support Fiber
_diffrn_radiation_monochromator  'Graphite Monochromator'
_diffrn_radiation_source         'fine-focus sealed tube'
_diffrn_radiation_type           MoK\a
_diffrn_radiation_wavelength     0.71073
_diffrn_reflns_av_R_equivalents  0.1559
_diffrn_reflns_av_sigmaI/netI    0.1254
_diffrn_reflns_limit_h_max       8
_diffrn_reflns_limit_h_min       -8
_diffrn_reflns_limit_k_max       11
_diffrn_reflns_limit_k_min       -11
_diffrn_reflns_limit_l_max       13
_diffrn_reflns_limit_l_min       -13
_diffrn_reflns_number            5849
_diffrn_reflns_theta_full        25.20
_diffrn_reflns_theta_max         25.20
_diffrn_reflns_theta_min         2.01
_exptl_absorpt_coefficient_mu    0.875
_exptl_absorpt_correction_T_max  1.000
_exptl_absorpt_correction_T_min  0.844
_exptl_absorpt_correction_type   multi-scan
_exptl_absorpt_process_details   'Jacobson, R. (1998) Private communication'
_exptl_crystal_density_diffrn    1.623
_exptl_crystal_density_method    'not measured'
_exptl_crystal_F_000             328
_exptl_crystal_size_max          0.20
_exptl_crystal_size_mid          0.20
_exptl_crystal_size_min          0.20
_refine_diff_density_max         0.450
_refine_diff_density_min         -0.446
_refine_diff_density_rms         0.115
_refine_ls_extinction_method     none
_refine_ls_goodness_of_fit_ref   1.144
_refine_ls_hydrogen_treatment    mixed
_refine_ls_matrix_type           full
_refine_ls_number_parameters     175
_refine_ls_number_reflns         2397
_refine_ls_number_restraints     0
_refine_ls_restrained_S_all      1.144
_refine_ls_R_factor_all          0.0452
_refine_ls_R_factor_gt           0.0422
_refine_ls_shift/su_max          0.000
_refine_ls_shift/su_mean         0.000
_refine_ls_structure_factor_coef Fsqd
_refine_ls_weighting_details
'calc w=1/[\s^2^(Fo^2^)+(0.0565P)^2^+0.0167P] where P=(Fo^2^+2Fc^2^)/3'
_refine_ls_weighting_scheme      calc
_refine_ls_wR_factor_gt          0.1161
_refine_ls_wR_factor_ref         0.1390
_reflns_number_gt                2240
_reflns_number_total             2397
_reflns_threshold_expression     >2\s(I)
_cod_data_source_file            bi5032.cif
_cod_data_source_block           20
_cod_original_cell_volume        664.9(13)
_cod_database_code               1542854
loop_
_symmetry_equiv_pos_as_xyz
'x, y, z'
'-x, -y, -z'
loop_
_atom_site_label
_atom_site_type_symbol
_atom_site_fract_x
_atom_site_fract_y
_atom_site_fract_z
_atom_site_U_iso_or_equiv
_atom_site_adp_type
_atom_site_occupancy
_atom_site_symmetry_multiplicity
_atom_site_calc_flag
_atom_site_refinement_flags
H1A H 0.070(4) 0.868(3) 0.286(3) 0.026(8) Uiso 1 1 d .
H1O H 0.049(4) 0.185(3) 0.557(3) 0.031(7) Uiso 1 1 d .
H1B H 0.019(4) 0.984(3) 0.333(3) 0.019(6) Uiso 1 1 d .
Cl1 Cl 0.27595(9) 0.59690(6) 0.24122(6) 0.0263(2) Uani 1 1 d .
Cl2 Cl 0.46362(8) 0.83079(5) 0.51627(7) 0.0277(2) Uani 1 1 d .
Cl3 Cl 0.07242(9) 0.25908(6) 0.22791(6) 0.0260(2) Uani 1 1 d .
Cl4 Cl -0.71511(9) 0.95479(7) 0.10761(7) 0.0302(2) Uani 1 1 d .
O1 O 0.0510(2) 0.20209(15) 0.47606(18) 0.0211(4) Uani 1 1 d .
N1 N -0.0066(3) 0.8943(2) 0.3094(2) 0.0208(5) Uani 1 1 d .
C7 C -0.1900(3) 0.8492(2) 0.2005(2) 0.0185(5) Uani 1 1 d .
C3 C 0.2616(3) 0.5415(2) 0.3828(2) 0.0180(5) Uani 1 1 d .
C9 C -0.5251(3) 0.8671(2) 0.1026(2) 0.0210(5) Uani 1 1 d .
C8 C -0.3424(3) 0.9193(2) 0.2042(2) 0.0201(5) Uani 1 1 d .
H8 H -0.3207 0.9997 0.2740 0.024 Uiso 1 1 calc R
C4 C 0.3422(3) 0.6451(2) 0.5047(3) 0.0186(5) Uani 1 1 d .
C5 C 0.3273(3) 0.6014(2) 0.6184(2) 0.0209(5) Uani 1 1 d .
H5 H 0.3822 0.6711 0.6996 0.025 Uiso 1 1 calc R
C1 C 0.1492(3) 0.3480(2) 0.4901(2) 0.0171(5) Uani 1 1 d .
C2 C 0.1676(3) 0.3918(2) 0.3767(2) 0.0172(5) Uani 1 1 d .
C12 C -0.2251(4) 0.7309(2) 0.0940(3) 0.0241(5) Uani 1 1 d .
H12 H -0.1236 0.6852 0.0901 0.029 Uiso 1 1 calc R
C6 C 0.2299(3) 0.4534(2) 0.6103(2) 0.0206(5) Uani 1 1 d .
H6 H 0.2187 0.4245 0.6864 0.025 Uiso 1 1 calc R
C10 C -0.5644(4) 0.7485(2) -0.0034(3) 0.0255(5) Uani 1 1 d .
H10 H -0.6893 0.7150 -0.0706 0.031 Uiso 1 1 calc R
C11 C -0.4110(4) 0.6810(2) -0.0062(3) 0.0268(6) Uani 1 1 d .
H11 H -0.4334 0.6010 -0.0764 0.032 Uiso 1 1 calc R
loop_
_atom_site_aniso_label
_atom_site_aniso_U_11
_atom_site_aniso_U_22
_atom_site_aniso_U_33
_atom_site_aniso_U_23
_atom_site_aniso_U_13
_atom_site_aniso_U_12
Cl1 0.0375(4) 0.0253(3) 0.0281(4) 0.0167(3) 0.0191(3) 0.0143(2)
Cl2 0.0295(4) 0.0138(3) 0.0415(5) 0.0093(3) 0.0146(3) 0.0041(2)
Cl3 0.0366(4) 0.0204(3) 0.0194(4) 0.0031(3) 0.0092(3) 0.0061(2)
Cl4 0.0298(4) 0.0360(4) 0.0382(5) 0.0166(3) 0.0211(3) 0.0175(3)
O1 0.0273(8) 0.0147(7) 0.0223(9) 0.0059(7) 0.0119(7) 0.0020(6)
N1 0.0227(10) 0.0173(10) 0.0253(12) 0.0054(8) 0.0124(9) 0.0050(8)
C7 0.0236(11) 0.0143(10) 0.0222(13) 0.0082(9) 0.0131(9) 0.0044(8)
C3 0.0177(11) 0.0188(10) 0.0246(14) 0.0102(10) 0.0116(10) 0.0095(8)
C9 0.0276(12) 0.0200(10) 0.0270(14) 0.0118(10) 0.0203(10) 0.0099(8)
C8 0.0291(12) 0.0153(10) 0.0214(13) 0.0061(9) 0.0165(10) 0.0048(8)
C4 0.0168(10) 0.0153(10) 0.0271(13) 0.0076(9) 0.0089(9) 0.0071(8)
C5 0.0221(11) 0.0194(11) 0.0227(13) 0.0032(9) 0.0096(9) 0.0072(8)
C1 0.0161(10) 0.0160(10) 0.0237(13) 0.0088(9) 0.0095(9) 0.0069(7)
C2 0.0165(10) 0.0182(10) 0.0191(12) 0.0052(9) 0.0066(8) 0.0081(8)
C12 0.0313(12) 0.0217(11) 0.0269(14) 0.0088(10) 0.0160(10) 0.0122(9)
C6 0.0211(11) 0.0207(11) 0.0235(13) 0.0076(10) 0.0102(10) 0.0074(8)
C10 0.0259(12) 0.0280(11) 0.0224(13) 0.0083(10) 0.0077(10) 0.0058(9)
C11 0.0355(13) 0.0213(11) 0.0219(14) 0.0000(10) 0.0105(11) 0.0070(9)
loop_
_atom_type_symbol
_atom_type_description
_atom_type_scat_dispersion_real
_atom_type_scat_dispersion_imag
_atom_type_scat_source
C C 0.0033 0.0016 'International Tables Vol C Tables 4.2.6.8 and 6.1.1.4'
H H 0.0000 0.0000 'International Tables Vol C Tables 4.2.6.8 and 6.1.1.4'
N N 0.0061 0.0033 'International Tables Vol C Tables 4.2.6.8 and 6.1.1.4'
O O 0.0106 0.0060 'International Tables Vol C Tables 4.2.6.8 and 6.1.1.4'
Cl Cl 0.1484 0.1585 'International Tables Vol C Tables 4.2.6.8 and 6.1.1.4'
loop_
_geom_angle_atom_site_label_1
_geom_angle_atom_site_label_2
_geom_angle_atom_site_label_3
_geom_angle
C12 C7 C8 119.5(2)
C12 C7 N1 121.1(2)
C8 C7 N1 119.2(2)
C4 C3 C2 119.0(2)
C4 C3 Cl1 120.53(17)
C2 C3 Cl1 120.47(17)
C8 C9 C10 122.8(2)
C8 C9 Cl4 118.64(18)
C10 C9 Cl4 118.59(19)
C9 C8 C7 118.7(2)
C5 C4 C3 120.6(2)
C5 C4 Cl2 119.13(18)
C3 C4 Cl2 120.24(18)
C6 C5 C4 119.7(2)
O1 C1 C6 123.4(2)
O1 C1 C2 117.3(2)
C6 C1 C2 119.3(2)
C1 C2 C3 120.6(2)
C1 C2 Cl3 119.20(17)
C3 C2 Cl3 120.22(18)
C11 C12 C7 120.1(2)
C5 C6 C1 120.8(2)
C9 C10 C11 117.8(2)
C12 C11 C10 121.1(2)
loop_
_geom_bond_atom_site_label_1
_geom_bond_atom_site_label_2
_geom_bond_distance
Cl1 C3 1.724(3)
Cl2 C4 1.735(3)
Cl3 C2 1.728(3)
Cl4 C9 1.747(3)
O1 C1 1.357(3)
N1 C7 1.420(3)
C7 C12 1.391(3)
C7 C8 1.400(3)
C3 C4 1.392(4)
C3 C2 1.400(3)
C9 C8 1.377(4)
C9 C10 1.383(4)
C4 C5 1.389(4)
C5 C6 1.387(3)
C1 C6 1.387(4)
C1 C2 1.393(4)
C12 C11 1.384(4)
C10 C11 1.389(4)
