#------------------------------------------------------------------------------
#$Date: 2016-08-07 11:04:07 +0300 (Sun, 07 Aug 2016) $
#$Revision: 185145 $
#$URL: file:///home/coder/svn-repositories/cod/cif/1/54/26/1542615.cif $
#------------------------------------------------------------------------------
#
# This file is available in the Crystallography Open Database (COD),
# http://www.crystallography.net/
#
# All data on this site have been placed in the public domain by the
# contributors.
#
data_1542615
loop_
_publ_author_name
'Jardim, Guilherme A. M.'
'da Silva J\'unior, Eufr\^anio N.'
'Bower, John F.'
_publ_section_title
;
 Overcoming naphthoquinone deactivation: rhodium-catalyzed C-5 selective
 C--H iodination as a gateway to functionalized derivatives
;
_journal_issue                   6
_journal_name_full               'Chem. Sci.'
_journal_page_first              3780
_journal_paper_doi               10.1039/C6SC00302H
_journal_volume                  7
_journal_year                    2016
_chemical_formula_moiety         'C10 H5 Br O2'
_chemical_formula_sum            'C10 H5 Br O2'
_chemical_formula_weight         237.05
_chemical_name_systematic
;
 ?
;
_space_group_crystal_system      monoclinic
_space_group_IT_number           14
_space_group_name_Hall           '-P 2ybc'
_space_group_name_H-M_alt        'P 1 21/c 1'
_symmetry_space_group_name_Hall  '-P 2ybc'
_symmetry_space_group_name_H-M   'P 1 21/c 1'
_atom_sites_solution_hydrogens   geom
_audit_creation_date             2015-10-27
_audit_creation_method
;
Olex2 1.2
(compiled 2015.09.30 svn.r3233 for OlexSys, GUI svn.r5103)
;
_audit_update_record
;
2015-12-10 deposited with the CCDC.
2016-02-19 downloaded from the CCDC.
;
_cell_angle_alpha                90
_cell_angle_beta                 94.413(5)
_cell_angle_gamma                90
_cell_formula_units_Z            4
_cell_length_a                   7.7808(5)
_cell_length_b                   8.1027(5)
_cell_length_c                   12.8379(9)
_cell_measurement_reflns_used    2514
_cell_measurement_temperature    100(2)
_cell_measurement_theta_max      27.89
_cell_measurement_theta_min      2.63
_cell_volume                     806.97(9)
_computing_cell_refinement       'SAINT v8.34A (Bruker, 2013)'
_computing_data_reduction        'SAINT v8.34A (Bruker, 2013)'
_computing_molecular_graphics    'Olex2 (Dolomanov et al., 2009)'
_computing_publication_material  'Olex2 (Dolomanov et al., 2009)'
_computing_structure_refinement  'ShelXL (Sheldrick, 2015)'
_computing_structure_solution
;
Superflip (Palatinus & Chapuis, 2007;Palatinus & van der Lee, 2008;
Palatinus et al., 2012)
;
_diffrn_ambient_temperature      100(2)
_diffrn_detector                 'Bruker area detector'
_diffrn_detector_type            'CCD area detector'
_diffrn_measured_fraction_theta_full 1.000
_diffrn_measured_fraction_theta_max 0.999
_diffrn_measurement_device       'Bruker Apex II kappa CCD area detector'
_diffrn_measurement_device_type  'Bruker Apex II kappa CCD area detector'
_diffrn_measurement_method       '\f and \w scans'
_diffrn_radiation_monochromator  graphite
_diffrn_radiation_type           MoK\a
_diffrn_radiation_wavelength     0.71073
_diffrn_reflns_av_R_equivalents  0.0306
_diffrn_reflns_av_unetI/netI     0.0295
_diffrn_reflns_Laue_measured_fraction_full 1.000
_diffrn_reflns_Laue_measured_fraction_max 0.999
_diffrn_reflns_limit_h_max       9
_diffrn_reflns_limit_h_min       -10
_diffrn_reflns_limit_k_max       10
_diffrn_reflns_limit_k_min       -10
_diffrn_reflns_limit_l_max       14
_diffrn_reflns_limit_l_min       -16
_diffrn_reflns_number            7204
_diffrn_reflns_point_group_measured_fraction_full 1.000
_diffrn_reflns_point_group_measured_fraction_max 0.999
_diffrn_reflns_theta_full        26.000
_diffrn_reflns_theta_max         28.019
_diffrn_reflns_theta_min         2.626
_diffrn_source                   'fine-focus sealed tube'
_diffrn_standards_number         0
_exptl_absorpt_coefficient_mu    5.048
_exptl_absorpt_correction_T_max  0.7456
_exptl_absorpt_correction_T_min  0.6471
_exptl_absorpt_correction_type   multi-scan
_exptl_absorpt_process_details
;
SADABS-2014/5 (Bruker,2014/5) was used for absorption correction.
wR2(int) was 0.0519 before and 0.0396 after correction.
The Ratio of minimum to maximum transmission is 0.8679.
The \l/2 correction factor is 0.00150.
;
_exptl_crystal_colour            yellow
_exptl_crystal_colour_primary    yellow
_exptl_crystal_density_diffrn    1.951
_exptl_crystal_description       plate
_exptl_crystal_F_000             464
_exptl_crystal_size_max          0.32
_exptl_crystal_size_mid          0.14
_exptl_crystal_size_min          0.11
_refine_diff_density_max         1.208
_refine_diff_density_min         -0.428
_refine_diff_density_rms         0.089
_refine_ls_extinction_method     none
_refine_ls_goodness_of_fit_ref   1.040
_refine_ls_hydrogen_treatment    constr
_refine_ls_matrix_type           full
_refine_ls_number_parameters     118
_refine_ls_number_reflns         1953
_refine_ls_number_restraints     0
_refine_ls_restrained_S_all      1.040
_refine_ls_R_factor_all          0.0327
_refine_ls_R_factor_gt           0.0248
_refine_ls_shift/su_max          0.001
_refine_ls_shift/su_mean         0.000
_refine_ls_structure_factor_coef Fsqd
_refine_ls_weighting_details
'w=1/[\s^2^(Fo^2^)+(0.0291P)^2^+0.4476P] where P=(Fo^2^+2Fc^2^)/3'
_refine_ls_weighting_scheme      calc
_refine_ls_wR_factor_gt          0.0569
_refine_ls_wR_factor_ref         0.0600
_reflns_Friedel_coverage         0.000
_reflns_number_gt                1671
_reflns_number_total             1953
_reflns_threshold_expression     'I > 2\s(I)'
_cod_data_source_file            c6sc00302h2.cif
_cod_data_source_block           testm1
_cod_depositor_comments
'Adding full bibliography for 1542604--1542615.cif.'
_cod_database_code               1542615
_shelxl_version_number           2013-4
_shelx_space_group_comment
;
The symmetry employed for this shelxl refinement is uniquely defined
by the following loop, which should always be used as a source of
symmetry information in preference to the above space-group names.
They are only intended as comments.
;
_olex2_refinement_description
;
1. Fixed Uiso
 At 1.2 times of:
  All C(H) groups
2.a Aromatic/amide H refined with riding coordinates:
 C3(H3), C4(H4), C5(H5), C8(H8), C9(H9)
;
_shelx_res_file
;
TITL testm1 in P2(1)/c
CELL 0.71073 7.7808 8.1027 12.8379 90 94.413 90
ZERR 4 0.0005 0.0005 0.0009 0 0.0045 0
LATT 1
SYMM -X,0.5+Y,0.5-Z
SFAC C H Br O
UNIT 40 20 4 8

L.S. 4 0 0
PLAN  5
MORE -1
BOND $H
CONF
fmap 2 53
acta 52
REM <olex2.extras>
REM <HklSrc "%.\\testm1.hkl">
REM </olex2.extras>

WGHT    0.029100    0.447600
FVAR       0.14196
BR1   3    0.542935    0.189119    0.385872    11.00000    0.01642    0.01214 =
         0.01336   -0.00123    0.00070   -0.00050
O1    4    0.963548    0.805616    0.610631    11.00000    0.02408    0.02194 =
         0.02485   -0.00206   -0.00549   -0.00362
O2    4    0.637664    0.499301    0.288043    11.00000    0.03723    0.01611 =
         0.01499    0.00101   -0.00456   -0.00055
C1    1    0.723501    0.479914    0.470541    11.00000    0.01078    0.01305 =
         0.01420    0.00101    0.00385    0.00392
C2    1    0.671289    0.317334    0.487763    11.00000    0.01097    0.01457 =
         0.01286   -0.00214    0.00106    0.00221
C3    1    0.709822    0.240749    0.583494    11.00000    0.01452    0.01587 =
         0.01466    0.00288    0.00286    0.00183
AFIX  43
H3    2    0.671232    0.133914    0.594238    11.00000   -1.20000
AFIX   0
C4    1    0.805515    0.322633    0.663178    11.00000    0.01617    0.02153 =
         0.01167    0.00331    0.00194    0.00564
AFIX  43
H4    2    0.833251    0.270070    0.726651    11.00000   -1.20000
AFIX   0
C5    1    0.859228    0.482041    0.647869    11.00000    0.01336    0.02258 =
         0.01266   -0.00156    0.00094    0.00233
AFIX  43
H5    2    0.923920    0.536750    0.701159    11.00000   -1.20000
AFIX   0
C6    1    0.817583    0.562198    0.553281    11.00000    0.00933    0.01375 =
         0.01646    0.00050    0.00161    0.00286
C7    1    0.873646    0.736410    0.541721    11.00000    0.01285    0.01603 =
         0.01950   -0.00199    0.00198    0.00097
C8    1    0.816126    0.823923    0.444766    11.00000    0.01652    0.01292 =
         0.02313    0.00069    0.00347    0.00145
AFIX  43
H8    2    0.842625    0.935143    0.438012    11.00000   -1.20000
AFIX   0
C9    1    0.727160    0.747125    0.366795    11.00000    0.01906    0.01250 =
         0.01784    0.00490    0.00145    0.00302
AFIX  43
H9    2    0.687151    0.808136    0.308533    11.00000   -1.20000
AFIX   0
C10   1    0.689198    0.568685    0.368892    11.00000    0.01273    0.01334 =
         0.01564    0.00030    0.00226    0.00199
HKLF 4

REM  testm1 in P2(1)/c
REM R1 =  0.0248 for    1671 Fo > 4sig(Fo)  and  0.0327 for all    1953 data
REM    118 parameters refined using      0 restraints

END

WGHT      0.0291      0.4476

REM Highest difference peak  1.208,  deepest hole -0.428,  1-sigma level  0.089
Q1    1   0.9171  0.4592  0.7277  11.00000  0.05    1.21
Q2    1   0.6974  0.5164  0.4223  11.00000  0.05    0.42
Q3    1   0.7176  0.3990  0.4760  11.00000  0.05    0.40
Q4    1   0.7664  0.5189  0.5209  11.00000  0.05    0.39
Q5    1   0.8162  0.7945  0.5015  11.00000  0.05    0.35
;
_shelx_res_checksum              39121
_olex2_submission_special_instructions 'No special instructions were received'
loop_
_space_group_symop_operation_xyz
'x, y, z'
'-x, y+1/2, -z+1/2'
'-x, -y, -z'
'x, -y-1/2, z-1/2'
loop_
_atom_site_label
_atom_site_type_symbol
_atom_site_fract_x
_atom_site_fract_y
_atom_site_fract_z
_atom_site_U_iso_or_equiv
_atom_site_adp_type
_atom_site_occupancy
_atom_site_site_symmetry_order
_atom_site_calc_flag
_atom_site_refinement_flags_posn
Br1 Br 0.54293(3) 0.18912(3) 0.38587(2) 0.01400(8) Uani 1 1 d .
O1 O 0.9635(2) 0.8056(2) 0.61063(14) 0.0240(4) Uani 1 1 d .
O2 O 0.6377(2) 0.4993(2) 0.28804(13) 0.0231(4) Uani 1 1 d .
C1 C 0.7235(3) 0.4799(3) 0.47054(18) 0.0125(5) Uani 1 1 d .
C2 C 0.6713(3) 0.3173(3) 0.48776(17) 0.0128(4) Uani 1 1 d .
C3 C 0.7098(3) 0.2407(3) 0.58349(18) 0.0149(5) Uani 1 1 d .
H3 H 0.6712 0.1339 0.5942 0.018 Uiso 1 1 calc R
C4 C 0.8055(3) 0.3226(3) 0.66318(18) 0.0164(5) Uani 1 1 d .
H4 H 0.8333 0.2701 0.7267 0.020 Uiso 1 1 calc R
C5 C 0.8592(3) 0.4820(3) 0.64787(18) 0.0162(5) Uani 1 1 d .
H5 H 0.9239 0.5367 0.7012 0.019 Uiso 1 1 calc R
C6 C 0.8176(3) 0.5622(3) 0.55328(18) 0.0131(4) Uani 1 1 d .
C7 C 0.8736(3) 0.7364(3) 0.54172(19) 0.0161(5) Uani 1 1 d .
C8 C 0.8161(3) 0.8239(3) 0.4448(2) 0.0174(5) Uani 1 1 d .
H8 H 0.8426 0.9351 0.4380 0.021 Uiso 1 1 calc R
C9 C 0.7272(3) 0.7471(3) 0.36679(19) 0.0165(5) Uani 1 1 d .
H9 H 0.6872 0.8081 0.3085 0.020 Uiso 1 1 calc R
C10 C 0.6892(3) 0.5687(3) 0.36889(18) 0.0138(5) Uani 1 1 d .
loop_
_atom_site_aniso_label
_atom_site_aniso_U_11
_atom_site_aniso_U_22
_atom_site_aniso_U_33
_atom_site_aniso_U_23
_atom_site_aniso_U_13
_atom_site_aniso_U_12
Br1 0.01642(13) 0.01214(12) 0.01336(12) -0.00123(9) 0.00070(8) -0.00050(9)
O1 0.0241(10) 0.0219(10) 0.0248(10) -0.0021(8) -0.0055(8) -0.0036(8)
O2 0.0372(11) 0.0161(9) 0.0150(9) 0.0010(7) -0.0046(8) -0.0005(8)
C1 0.0108(11) 0.0130(11) 0.0142(11) 0.0010(8) 0.0039(9) 0.0039(8)
C2 0.0110(10) 0.0146(11) 0.0129(10) -0.0021(9) 0.0011(8) 0.0022(9)
C3 0.0145(11) 0.0159(11) 0.0147(11) 0.0029(9) 0.0029(9) 0.0018(9)
C4 0.0162(11) 0.0215(13) 0.0117(11) 0.0033(9) 0.0019(9) 0.0056(10)
C5 0.0134(11) 0.0226(13) 0.0127(11) -0.0016(9) 0.0009(9) 0.0023(9)
C6 0.0093(10) 0.0138(11) 0.0165(11) 0.0005(9) 0.0016(8) 0.0029(9)
C7 0.0129(11) 0.0160(12) 0.0195(12) -0.0020(9) 0.0020(9) 0.0010(9)
C8 0.0165(12) 0.0129(12) 0.0231(13) 0.0007(10) 0.0035(10) 0.0015(9)
C9 0.0191(12) 0.0125(11) 0.0178(12) 0.0049(9) 0.0015(10) 0.0030(10)
C10 0.0127(11) 0.0133(11) 0.0156(11) 0.0003(9) 0.0023(9) 0.0020(9)
loop_
_atom_type_symbol
_atom_type_description
_atom_type_scat_dispersion_real
_atom_type_scat_dispersion_imag
_atom_type_scat_source
C C 0.0033 0.0016 'International Tables Vol C Tables 4.2.6.8 and 6.1.1.4'
H H 0.0000 0.0000 'International Tables Vol C Tables 4.2.6.8 and 6.1.1.4'
Br Br -0.2901 2.4595 'International Tables Vol C Tables 4.2.6.8 and 6.1.1.4'
O O 0.0106 0.0060 'International Tables Vol C Tables 4.2.6.8 and 6.1.1.4'
loop_
_geom_angle_atom_site_label_1
_geom_angle_atom_site_label_2
_geom_angle_atom_site_label_3
_geom_angle
C2 C1 C6 117.8(2)
C2 C1 C10 123.7(2)
C6 C1 C10 118.5(2)
C1 C2 Br1 123.41(17)
C3 C2 Br1 115.63(18)
C3 C2 C1 120.9(2)
C2 C3 H3 119.8
C4 C3 C2 120.4(2)
C4 C3 H3 119.8
C3 C4 H4 120.2
C5 C4 C3 119.7(2)
C5 C4 H4 120.2
C4 C5 H5 119.7
C4 C5 C6 120.6(2)
C6 C5 H5 119.7
C1 C6 C7 120.8(2)
C5 C6 C1 120.6(2)
C5 C6 C7 118.6(2)
O1 C7 C6 121.3(2)
O1 C7 C8 120.8(2)
C8 C7 C6 118.0(2)
C7 C8 H8 119.4
C9 C8 C7 121.3(2)
C9 C8 H8 119.4
C8 C9 H9 118.7
C8 C9 C10 122.6(2)
C10 C9 H9 118.7
O2 C10 C1 123.0(2)
O2 C10 C9 119.2(2)
C9 C10 C1 117.7(2)
loop_
_geom_bond_atom_site_label_1
_geom_bond_atom_site_label_2
_geom_bond_distance
Br1 C2 1.894(2)
O1 C7 1.221(3)
O2 C10 1.221(3)
C1 C2 1.401(3)
C1 C6 1.410(3)
C1 C10 1.496(3)
C2 C3 1.389(3)
C3 H3 0.9300
C3 C4 1.387(3)
C4 H4 0.9300
C4 C5 1.376(3)
C5 H5 0.9300
C5 C6 1.393(3)
C6 C7 1.488(3)
C7 C8 1.472(3)
C8 H8 0.9300
C8 C9 1.327(4)
C9 H9 0.9300
C9 C10 1.476(3)
loop_
_geom_torsion_atom_site_label_1
_geom_torsion_atom_site_label_2
_geom_torsion_atom_site_label_3
_geom_torsion_atom_site_label_4
_geom_torsion
Br1 C2 C3 C4 179.03(17)
O1 C7 C8 C9 175.9(2)
C1 C2 C3 C4 -1.9(3)
C1 C6 C7 O1 -175.7(2)
C1 C6 C7 C8 4.8(3)
C2 C1 C6 C5 1.2(3)
C2 C1 C6 C7 -178.5(2)
C2 C1 C10 O2 -12.1(3)
C2 C1 C10 C9 170.6(2)
C2 C3 C4 C5 1.4(3)
C3 C4 C5 C6 0.3(3)
C4 C5 C6 C1 -1.7(3)
C4 C5 C6 C7 178.0(2)
C5 C6 C7 O1 4.6(3)
C5 C6 C7 C8 -174.9(2)
C6 C1 C2 Br1 179.56(16)
C6 C1 C2 C3 0.6(3)
C6 C1 C10 O2 166.2(2)
C6 C1 C10 C9 -11.1(3)
C6 C7 C8 C9 -4.6(3)
C7 C8 C9 C10 -3.8(4)
C8 C9 C10 O2 -165.6(2)
C8 C9 C10 C1 11.8(3)
C10 C1 C2 Br1 -2.2(3)
C10 C1 C2 C3 178.8(2)
C10 C1 C6 C5 -177.2(2)
C10 C1 C6 C7 3.2(3)
