#------------------------------------------------------------------------------
#$Date: 2016-03-13 16:09:15 +0200 (Sun, 13 Mar 2016) $
#$Revision: 178187 $
#$URL: svn://www.crystallography.net/cod/cif/1/54/28/1542855.cif $
#------------------------------------------------------------------------------
#
# This file is available in the Crystallography Open Database (COD),
# http://www.crystallography.net/
#
# All data on this site have been placed in the public domain by the
# contributors.
#
data_1542855
loop_
_publ_author_name
'Mukherjee, Arijit'
'Dixit, Karuna'
'Sarma, Siddhartha P.'
'Desiraju, Gautam R.'
_publ_section_title
;
 Aniline--phenol recognition: from solution through supramolecular
 synthons to cocrystals
;
_journal_coeditor_code           BI5032
_journal_issue                   4
_journal_name_full               IUCrJ
_journal_page_first              228
_journal_page_last               239
_journal_paper_doi               10.1107/S2052252514012081
_journal_volume                  1
_journal_year                    2014
_chemical_formula_moiety         'C6 H3 Cl3 O, C6 H5 Cl2 N'
_chemical_formula_sum            'C12 H8 Cl5 N O'
_chemical_formula_weight         359.44
_space_group_IT_number           2
_symmetry_cell_setting           triclinic
_symmetry_space_group_name_Hall  '-P 1'
_symmetry_space_group_name_H-M   'P -1'
_atom_sites_solution_hydrogens   geom
_atom_sites_solution_primary     direct
_atom_sites_solution_secondary   difmap
_audit_creation_method           SHELXL-97
_cell_angle_alpha                77.966(5)
_cell_angle_beta                 74.889(5)
_cell_angle_gamma                77.979(5)
_cell_formula_units_Z            2
_cell_length_a                   7.1441(8)
_cell_length_b                   9.3027(10)
_cell_length_c                   11.8726(13)
_cell_measurement_reflns_used    7290
_cell_measurement_temperature    150
_cell_measurement_theta_max      27.5
_cell_measurement_theta_min      3.0
_cell_volume                     735.06(14)
_computing_cell_refinement
;
CrystalClear-SM Expert 2.0 r4 (Rigaku, 2009)
;
_computing_data_collection
;
CrystalClear-SM Expert 2.0 r4 (Rigaku, 2009)
;
_computing_data_reduction
;
CrystalClear-SM Expert 2.0 r4 (Rigaku, 2009)
;
_computing_structure_refinement  'SHELXL-97 (Sheldrick, 2008)'
_computing_structure_solution    'SHELXL-97 (Sheldrick, 2008)'
_diffrn_ambient_temperature      150(2)
_diffrn_detector                 CCD
_diffrn_detector_area_resol_mean 13.6612
_diffrn_measured_fraction_theta_full 0.997
_diffrn_measured_fraction_theta_max 0.997
_diffrn_measurement_device
;
XtaLABmini: Fixed Chi 2 circle
;
_diffrn_measurement_device_type
;
Rigaku Mercury375R (2x2 bin mode)
;
_diffrn_measurement_specimen_support Fiber
_diffrn_radiation_monochromator  'Graphite Monochromator'
_diffrn_radiation_source         'fine-focus sealed tube'
_diffrn_radiation_type           MoK\a
_diffrn_radiation_wavelength     0.71073
_diffrn_reflns_av_R_equivalents  0.0217
_diffrn_reflns_av_sigmaI/netI    0.0257
_diffrn_reflns_limit_h_max       9
_diffrn_reflns_limit_h_min       -9
_diffrn_reflns_limit_k_max       12
_diffrn_reflns_limit_k_min       -12
_diffrn_reflns_limit_l_max       15
_diffrn_reflns_limit_l_min       -15
_diffrn_reflns_number            7780
_diffrn_reflns_theta_full        27.48
_diffrn_reflns_theta_max         27.48
_diffrn_reflns_theta_min         2.99
_exptl_absorpt_coefficient_mu    0.975
_exptl_absorpt_correction_T_max  1.000
_exptl_absorpt_correction_T_min  0.761
_exptl_absorpt_correction_type   multi-scan
_exptl_absorpt_process_details   'Jacobson, R. (1998) Private communication'
_exptl_crystal_density_diffrn    1.624
_exptl_crystal_density_method    'not measured'
_exptl_crystal_F_000             360
_exptl_crystal_size_max          0.3
_exptl_crystal_size_mid          0.2
_exptl_crystal_size_min          0.1
_refine_diff_density_max         0.578
_refine_diff_density_min         -0.656
_refine_diff_density_rms         0.069
_refine_ls_extinction_method     none
_refine_ls_goodness_of_fit_ref   1.094
_refine_ls_hydrogen_treatment    mixed
_refine_ls_matrix_type           full
_refine_ls_number_parameters     181
_refine_ls_number_reflns         3366
_refine_ls_number_restraints     0
_refine_ls_restrained_S_all      1.094
_refine_ls_R_factor_all          0.0417
_refine_ls_R_factor_gt           0.0371
_refine_ls_shift/su_max          0.000
_refine_ls_shift/su_mean         0.000
_refine_ls_structure_factor_coef Fsqd
_refine_ls_weighting_details
'calc w=1/[\s^2^(Fo^2^)+(0.0443P)^2^+0.5725P] where P=(Fo^2^+2Fc^2^)/3'
_refine_ls_weighting_scheme      calc
_refine_ls_wR_factor_gt          0.0964
_refine_ls_wR_factor_ref         0.0992
_reflns_number_gt                3035
_reflns_number_total             3366
_reflns_threshold_expression     >2\s(I)
_cod_data_source_file            bi5032.cif
_cod_data_source_block           21
_cod_database_code               1542855
loop_
_symmetry_equiv_pos_as_xyz
'x, y, z'
'-x, -y, -z'
loop_
_atom_site_label
_atom_site_type_symbol
_atom_site_fract_x
_atom_site_fract_y
_atom_site_fract_z
_atom_site_U_iso_or_equiv
_atom_site_adp_type
_atom_site_occupancy
_atom_site_symmetry_multiplicity
_atom_site_calc_flag
_atom_site_refinement_flags
C1 C 0.3440(3) 0.3479(2) 0.01244(17) 0.0203(4) Uani 1 1 d .
C2 C 0.2305(3) 0.4010(2) 0.11532(17) 0.0205(4) Uani 1 1 d .
C3 C 0.1375(3) 0.5493(2) 0.11040(17) 0.0215(4) Uani 1 1 d .
C4 C 0.1565(3) 0.6433(2) 0.00203(19) 0.0231(4) Uani 1 1 d .
C5 C 0.2672(3) 0.5915(2) -0.09991(18) 0.0237(4) Uani 1 1 d .
H5 H 0.2792 0.6555 -0.1720 0.028 Uiso 1 1 calc R
C6 C 0.3606(3) 0.4445(2) -0.09522(18) 0.0223(4) Uani 1 1 d .
H6 H 0.4347 0.4103 -0.1642 0.027 Uiso 1 1 calc R
C7 C -0.4223(3) 0.1218(2) 0.72918(16) 0.0205(4) Uani 1 1 d .
C8 C -0.3499(3) 0.2238(2) 0.63179(18) 0.0266(4) Uani 1 1 d .
H8 H -0.2443 0.2683 0.6309 0.032 Uiso 1 1 calc R
C9 C -0.4374(4) 0.2575(2) 0.53649(19) 0.0352(5) Uani 1 1 d .
C10 C -0.5968(4) 0.1954(3) 0.5351(2) 0.0390(6) Uani 1 1 d .
H10 H -0.6552 0.2199 0.4707 0.047 Uiso 1 1 calc R
C11 C -0.6655(3) 0.0954(3) 0.6337(2) 0.0322(5) Uani 1 1 d .
C12 C -0.5822(3) 0.0569(2) 0.73044(19) 0.0257(4) Uani 1 1 d .
H12 H -0.6316 -0.0110 0.7953 0.031 Uiso 1 1 calc R
N1 N -0.3397(3) 0.0894(2) 0.82956(16) 0.0258(4) Uani 1 1 d .
O1 O 0.4330(2) 0.20375(14) 0.02337(12) 0.0235(3) Uani 1 1 d .
H1O H 0.5063 0.1876 -0.0400 0.035 Uiso 1 1 calc R
Cl1 Cl 0.20849(9) 0.27996(6) 0.24730(4) 0.03356(15) Uani 1 1 d .
Cl2 Cl 0.00063(8) 0.61395(6) 0.23798(5) 0.03226(14) Uani 1 1 d .
Cl3 Cl 0.04117(8) 0.82751(5) -0.00705(5) 0.03299(15) Uani 1 1 d .
Cl4 Cl -0.33851(13) 0.37939(8) 0.41388(5) 0.0610(2) Uani 1 1 d .
Cl5 Cl -0.86496(9) 0.01310(9) 0.63571(8) 0.0576(2) Uani 1 1 d .
H1A H -0.225(5) 0.109(3) 0.813(3) 0.043(8) Uiso 1 1 d .
H1B H -0.344(4) -0.001(3) 0.861(2) 0.037(7) Uiso 1 1 d .
loop_
_atom_site_aniso_label
_atom_site_aniso_U_11
_atom_site_aniso_U_22
_atom_site_aniso_U_33
_atom_site_aniso_U_23
_atom_site_aniso_U_13
_atom_site_aniso_U_12
C1 0.0178(8) 0.0188(9) 0.0258(9) -0.0054(7) -0.0067(7) -0.0028(7)
C2 0.0200(9) 0.0210(9) 0.0213(9) -0.0024(7) -0.0064(7) -0.0041(7)
C3 0.0167(8) 0.0231(9) 0.0270(10) -0.0094(7) -0.0040(7) -0.0043(7)
C4 0.0202(9) 0.0171(8) 0.0347(11) -0.0049(7) -0.0106(8) -0.0025(7)
C5 0.0243(9) 0.0212(9) 0.0257(10) 0.0021(7) -0.0091(8) -0.0057(7)
C6 0.0196(9) 0.0224(9) 0.0248(9) -0.0038(7) -0.0045(7) -0.0038(7)
C7 0.0207(9) 0.0174(8) 0.0193(9) -0.0039(7) -0.0004(7) 0.0016(7)
C8 0.0287(10) 0.0214(9) 0.0242(10) -0.0030(7) 0.0021(8) -0.0033(8)
C9 0.0486(14) 0.0266(10) 0.0200(10) -0.0028(8) 0.0010(9) 0.0045(10)
C10 0.0464(14) 0.0418(13) 0.0268(11) -0.0143(10) -0.0161(10) 0.0158(11)
C11 0.0233(10) 0.0342(11) 0.0412(12) -0.0199(10) -0.0082(9) 0.0056(8)
C12 0.0232(9) 0.0216(9) 0.0279(10) -0.0063(8) 0.0016(8) -0.0012(7)
N1 0.0263(9) 0.0241(9) 0.0241(9) -0.0028(7) -0.0046(7) -0.0002(7)
O1 0.0242(7) 0.0190(6) 0.0234(7) -0.0039(5) -0.0020(6) 0.0015(5)
Cl1 0.0463(3) 0.0284(3) 0.0204(2) -0.00056(19) -0.0050(2) -0.0008(2)
Cl2 0.0332(3) 0.0313(3) 0.0322(3) -0.0161(2) -0.0007(2) -0.0026(2)
Cl3 0.0330(3) 0.0173(2) 0.0500(3) -0.0056(2) -0.0157(2) 0.00116(19)
Cl4 0.0959(6) 0.0402(3) 0.0229(3) 0.0071(2) 0.0094(3) 0.0009(4)
Cl5 0.0275(3) 0.0733(5) 0.0863(6) -0.0494(4) -0.0142(3) -0.0015(3)
loop_
_atom_type_symbol
_atom_type_description
_atom_type_scat_dispersion_real
_atom_type_scat_dispersion_imag
_atom_type_scat_source
C C 0.0033 0.0016 'International Tables Vol C Tables 4.2.6.8 and 6.1.1.4'
H H 0.0000 0.0000 'International Tables Vol C Tables 4.2.6.8 and 6.1.1.4'
N N 0.0061 0.0033 'International Tables Vol C Tables 4.2.6.8 and 6.1.1.4'
O O 0.0106 0.0060 'International Tables Vol C Tables 4.2.6.8 and 6.1.1.4'
Cl Cl 0.1484 0.1585 'International Tables Vol C Tables 4.2.6.8 and 6.1.1.4'
loop_
_geom_angle_atom_site_label_1
_geom_angle_atom_site_label_2
_geom_angle_atom_site_label_3
_geom_angle
O1 C1 C6 123.27(17)
O1 C1 C2 117.63(17)
C6 C1 C2 119.10(17)
C3 C2 C1 120.48(18)
C3 C2 Cl1 120.89(15)
C1 C2 Cl1 118.63(14)
C4 C3 C2 119.28(18)
C4 C3 Cl2 120.66(15)
C2 C3 Cl2 120.06(15)
C5 C4 C3 120.54(17)
C5 C4 Cl3 119.12(16)
C3 C4 Cl3 120.34(16)
C4 C5 C6 120.31(18)
C5 C6 C1 120.28(18)
C8 C7 C12 120.21(19)
C8 C7 N1 119.94(19)
C12 C7 N1 119.78(18)
C9 C8 C7 118.9(2)
C8 C9 C10 122.4(2)
C8 C9 Cl4 118.0(2)
C10 C9 Cl4 119.63(19)
C11 C10 C9 117.1(2)
C12 C11 C10 122.7(2)
C12 C11 Cl5 118.41(19)
C10 C11 Cl5 118.84(19)
C11 C12 C7 118.7(2)
loop_
_geom_bond_atom_site_label_1
_geom_bond_atom_site_label_2
_geom_bond_distance
C1 O1 1.355(2)
C1 C6 1.393(3)
C1 C2 1.400(3)
C2 C3 1.398(3)
C2 Cl1 1.7195(19)
C3 C4 1.388(3)
C3 Cl2 1.725(2)
C4 C5 1.381(3)
C4 Cl3 1.7344(19)
C5 C6 1.388(3)
C7 C8 1.393(3)
C7 C12 1.394(3)
C7 N1 1.415(3)
C8 C9 1.382(3)
C9 C10 1.386(4)
C9 Cl4 1.736(2)
C10 C11 1.383(4)
C11 C12 1.378(3)
C11 Cl5 1.745(2)
