#------------------------------------------------------------------------------
#$Date: 2016-08-07 11:04:07 +0300 (Sun, 07 Aug 2016) $
#$Revision: 185145 $
#$URL: file:///home/coder/svn-repositories/cod/cif/1/54/26/1542613.cif $
#------------------------------------------------------------------------------
#
# This file is available in the Crystallography Open Database (COD),
# http://www.crystallography.net/
#
# All data on this site have been placed in the public domain by the
# contributors.
#
data_1542613
loop_
_publ_author_name
'Jardim, Guilherme A. M.'
'da Silva J\'unior, Eufr\^anio N.'
'Bower, John F.'
_publ_section_title
;
 Overcoming naphthoquinone deactivation: rhodium-catalyzed C-5 selective
 C--H iodination as a gateway to functionalized derivatives
;
_journal_issue                   6
_journal_name_full               'Chem. Sci.'
_journal_page_first              3780
_journal_paper_doi               10.1039/C6SC00302H
_journal_volume                  7
_journal_year                    2016
_chemical_formula_moiety         'C10 H5 I O2'
_chemical_formula_sum            'C10 H5 I O2'
_chemical_formula_weight         284.04
_chemical_name_systematic
;
 ?
;
_space_group_crystal_system      monoclinic
_space_group_IT_number           14
_space_group_name_Hall           '-P 2ybc'
_space_group_name_H-M_alt        'P 1 21/c 1'
_symmetry_space_group_name_Hall  '-P 2ybc'
_symmetry_space_group_name_H-M   'P 1 21/c 1'
_atom_sites_solution_hydrogens   geom
_atom_sites_solution_primary     iterative
_audit_creation_date             2015-04-27
_audit_creation_method
;
Olex2 1.2
(compiled 2015.01.26 svn.r3150 for OlexSys, GUI svn.r4998)
;
_audit_update_record
;
2015-12-10 deposited with the CCDC.
2016-02-19 downloaded from the CCDC.
;
_cell_angle_alpha                90
_cell_angle_beta                 106.661(4)
_cell_angle_gamma                90
_cell_formula_units_Z            4
_cell_length_a                   14.1706(8)
_cell_length_b                   4.1298(2)
_cell_length_c                   15.9165(10)
_cell_measurement_reflns_used    1850
_cell_measurement_temperature    100(2)
_cell_measurement_theta_max      24.52
_cell_measurement_theta_min      2.67
_cell_volume                     892.36(9)
_computing_cell_refinement       'SAINT v8.34A (Bruker, 2013)'
_computing_data_reduction        'SAINT v8.34A (Bruker, 2013)'
_computing_molecular_graphics    'Olex2 (Dolomanov et al., 2009)'
_computing_publication_material  'Olex2 (Dolomanov et al., 2009)'
_computing_structure_refinement  'ShelXL (Sheldrick, 2008)'
_computing_structure_solution
;
Superflip (Palatinus & Chapuis, 2007;Palatinus & van der Lee, 2008;
Palatinus et al., 2012)
;
_diffrn_ambient_temperature      100(2)
_diffrn_detector                 'Bruker area detector'
_diffrn_detector_type            'CCD area detector'
_diffrn_measured_fraction_theta_full 0.999
_diffrn_measured_fraction_theta_max 0.994
_diffrn_measurement_device       'Bruker Apex II kappa CCDC area detector'
_diffrn_measurement_device_type  'Bruker Apex II kappa CCDC area detector'
_diffrn_measurement_method       '\f and \w scans'
_diffrn_radiation_monochromator  graphite
_diffrn_radiation_type           MoK\a
_diffrn_radiation_wavelength     0.71073
_diffrn_reflns_av_R_equivalents  0.0539
_diffrn_reflns_av_unetI/netI     0.0552
_diffrn_reflns_Laue_measured_fraction_full 0.999
_diffrn_reflns_Laue_measured_fraction_max 0.994
_diffrn_reflns_limit_h_max       11
_diffrn_reflns_limit_h_min       -18
_diffrn_reflns_limit_k_max       5
_diffrn_reflns_limit_k_min       -5
_diffrn_reflns_limit_l_max       21
_diffrn_reflns_limit_l_min       -17
_diffrn_reflns_number            7669
_diffrn_reflns_point_group_measured_fraction_full 0.999
_diffrn_reflns_point_group_measured_fraction_max 0.994
_diffrn_reflns_theta_full        26.000
_diffrn_reflns_theta_max         28.027
_diffrn_reflns_theta_min         2.663
_diffrn_source                   'fine-focus sealed tube'
_diffrn_standards_number         0
_exptl_absorpt_coefficient_mu    3.547
_exptl_absorpt_correction_T_max  0.7456
_exptl_absorpt_correction_T_min  0.6068
_exptl_absorpt_correction_type   multi-scan
_exptl_absorpt_process_details
;
SADABS-2014/4 (Bruker,2014/4) was used for absorption correction.
wR2(int) was 0.0733 before and 0.0527 after correction.
The Ratio of minimum to maximum transmission is 0.8138.
The \l/2 correction factor is 0.00150.
;
_exptl_crystal_colour            orange
_exptl_crystal_colour_primary    orange
_exptl_crystal_density_diffrn    2.114
_exptl_crystal_description       plate
_exptl_crystal_F_000             536
_exptl_crystal_size_max          0.21
_exptl_crystal_size_mid          0.17
_exptl_crystal_size_min          0.06
_refine_diff_density_max         2.220
_refine_diff_density_min         -1.084
_refine_diff_density_rms         0.184
_refine_ls_extinction_method     none
_refine_ls_goodness_of_fit_ref   1.004
_refine_ls_hydrogen_treatment    constr
_refine_ls_matrix_type           full
_refine_ls_number_parameters     118
_refine_ls_number_reflns         2160
_refine_ls_number_restraints     0
_refine_ls_restrained_S_all      1.004
_refine_ls_R_factor_all          0.0617
_refine_ls_R_factor_gt           0.0414
_refine_ls_shift/su_max          0.001
_refine_ls_shift/su_mean         0.000
_refine_ls_structure_factor_coef Fsqd
_refine_ls_weighting_details
'w=1/[\s^2^(Fo^2^)+(0.0549P)^2^] where P=(Fo^2^+2Fc^2^)/3'
_refine_ls_weighting_scheme      calc
_refine_ls_wR_factor_gt          0.0932
_refine_ls_wR_factor_ref         0.1009
_reflns_Friedel_coverage         0.000
_reflns_number_gt                1644
_reflns_number_total             2160
_reflns_threshold_expression     'I > 2\s(I)'
_cod_data_source_file            c6sc00302h2.cif
_cod_data_source_block           testm1
_cod_depositor_comments
'Adding full bibliography for 1542604--1542615.cif.'
_cod_database_code               1542613
_shelxl_version_number           2013-4
_shelx_space_group_comment
;
The symmetry employed for this shelxl refinement is uniquely defined
by the following loop, which should always be used as a source of
symmetry information in preference to the above space-group names.
They are only intended as comments.
;
_olex2_refinement_description
;
1. Fixed Uiso
 At 1.2 times of:
  All C(H) groups
2.a Aromatic/amide H refined with riding coordinates:
 C4(H4), C5(H5), C6(H6), C7(H7), C10(H10)
;
_shelx_res_file
;
TITL
CELL 0.71073 14.1706 4.1298 15.9165 90 106.661 90
ZERR 4 0.0008 0.0002 0.001 0 0.0041 0
LATT 1
SYMM -X,0.5+Y,0.5-Z
SFAC C H I O
UNIT 40 20 4 8

L.S. 4 0 0
PLAN  20
TEMP -173(2)
fmap 2 53
MORE -1
BOND $H
ACTA 52
CONF
REM <olex2.extras>
REM <HklSrc "%.\\testm1.hkl">
REM </olex2.extras>

WGHT    0.054900
FVAR       0.14946
I1    3    0.859783   -0.341339    0.467500    11.00000    0.03346    0.02474 =
         0.02449    0.00060    0.01022    0.00548
O1    4    0.654724   -0.036206    0.467858    11.00000    0.02556    0.04582 =
         0.01883   -0.00294    0.00231    0.00411
O2    4    0.898147    0.079967    0.793322    11.00000    0.02757    0.04743 =
         0.01869    0.00041    0.00199   -0.00575
C1    1    0.813312   -0.123988    0.567149    11.00000    0.02548    0.02195 =
         0.02171    0.00165    0.00996   -0.00190
C2    1    0.709878   -0.000799    0.541955    11.00000    0.02570    0.02451 =
         0.02077   -0.00282    0.00860   -0.00555
C3    1    0.676708    0.164022    0.611971    11.00000    0.02312    0.02169 =
         0.01829    0.00649    0.00588   -0.00285
C4    1    0.582215    0.286921    0.592189    11.00000    0.02503    0.02454 =
         0.02541    0.00648    0.00472   -0.00513
AFIX  43
H4    2    0.538879    0.263298    0.534666    11.00000   -1.20000
AFIX   0
C5    1    0.550890    0.442338    0.655092    11.00000    0.02134    0.02372 =
         0.03988    0.00210    0.01124    0.00059
AFIX  43
H5    2    0.486455    0.531860    0.640227    11.00000   -1.20000
AFIX   0
C6    1    0.611977    0.471895    0.740903    11.00000    0.03727    0.02749 =
         0.03188   -0.00064    0.01704   -0.00259
AFIX  43
H6    2    0.588926    0.576345    0.784431    11.00000   -1.20000
AFIX   0
C7    1    0.706214    0.347444    0.761625    11.00000    0.03315    0.02678 =
         0.02163   -0.00033    0.01181   -0.00627
AFIX  43
H7    2    0.748457    0.366154    0.819744    11.00000   -1.20000
AFIX   0
C8    1    0.739594    0.194212    0.697418    11.00000    0.02156    0.02373 =
         0.01645    0.00063    0.00531   -0.00676
C9    1    0.841541    0.060898    0.719454    11.00000    0.02358    0.03047 =
         0.02500    0.00180    0.00825   -0.00513
C10   1    0.873263   -0.093261    0.648267    11.00000    0.01855    0.03441 =
         0.02550    0.00303    0.00615    0.00198
AFIX  43
H10   2    0.938686   -0.173271    0.660764    11.00000   -1.20000
AFIX   0
HKLF 4

REM
REM R1 =  0.0414 for    1644 Fo > 4sig(Fo)  and  0.0617 for all    2160 data
REM    118 parameters refined using      0 restraints

END

WGHT      0.0549      0.0000

REM Highest difference peak  2.220,  deepest hole -1.084,  1-sigma level  0.184
Q1    1   0.8634 -0.1566  0.4833  11.00000  0.05    2.22
Q2    1   0.7984 -0.3616  0.4572  11.00000  0.05    2.19
Q3    1   0.9400 -0.3426  0.4985  11.00000  0.05    1.51
Q4    1   0.9028 -0.3110  0.4367  11.00000  0.05    1.00
Q5    1   0.5755  0.4339  0.6185  11.00000  0.05    0.76
Q6    1   0.9151 -0.4980  0.4633  11.00000  0.05    0.63
Q7    1   0.7881  0.1262  0.6986  11.00000  0.05    0.58
Q8    1   0.6112  0.1762  0.6050  11.00000  0.05    0.54
Q9    1   0.5470  0.2699  0.6004  11.00000  0.05    0.54
Q10   1   0.9398  0.0364  0.7626  11.00000  0.05    0.49
Q11   1   0.6446  0.2814  0.6180  11.00000  0.05    0.47
Q12   1   0.6006  0.1164  0.4397  11.00000  0.05    0.47
Q13   1   0.5667  0.5416  0.6782  11.00000  0.05    0.46
Q14   1   0.7026  0.1724  0.5602  11.00000  0.05    0.44
Q15   1   0.4817  0.7027  0.6034  11.00000  0.05    0.44
Q16   1   0.8983 -0.2540  0.6158  11.00000  0.05    0.43
Q17   1   0.9260 -0.1539  0.8025  11.00000  0.05    0.43
Q18   1   0.6985 -0.0826  0.5031  11.00000  0.05    0.43
Q19   1   0.6836  0.0932  0.5807  11.00000  0.05    0.43
Q20   1   0.7226  0.2926  0.7344  11.00000  0.05    0.43
;
_shelx_res_checksum              89891
_olex2_submission_special_instructions 'No special instructions were received'
loop_
_space_group_symop_operation_xyz
'x, y, z'
'-x, y+1/2, -z+1/2'
'-x, -y, -z'
'x, -y-1/2, z-1/2'
loop_
_atom_site_label
_atom_site_type_symbol
_atom_site_fract_x
_atom_site_fract_y
_atom_site_fract_z
_atom_site_U_iso_or_equiv
_atom_site_adp_type
_atom_site_occupancy
_atom_site_site_symmetry_order
_atom_site_calc_flag
_atom_site_refinement_flags_posn
I1 I 0.85978(3) -0.34134(8) 0.46750(3) 0.02716(14) Uani 1 1 d .
O1 O 0.6547(3) -0.0362(11) 0.4679(3) 0.0309(9) Uani 1 1 d .
O2 O 0.8981(3) 0.0800(10) 0.7933(3) 0.0322(10) Uani 1 1 d .
C1 C 0.8133(4) -0.1240(12) 0.5671(4) 0.0224(11) Uani 1 1 d .
C2 C 0.7099(4) -0.0008(13) 0.5420(4) 0.0233(11) Uani 1 1 d .
C3 C 0.6767(4) 0.1640(12) 0.6120(4) 0.0210(11) Uani 1 1 d .
C4 C 0.5822(4) 0.2869(13) 0.5922(4) 0.0255(12) Uani 1 1 d .
H4 H 0.5389 0.2633 0.5347 0.031 Uiso 1 1 calc R
C5 C 0.5509(4) 0.4423(13) 0.6551(4) 0.0278(13) Uani 1 1 d .
H5 H 0.4865 0.5319 0.6402 0.033 Uiso 1 1 calc R
C6 C 0.6120(4) 0.4719(14) 0.7409(4) 0.0307(13) Uani 1 1 d .
H6 H 0.5889 0.5763 0.7844 0.037 Uiso 1 1 calc R
C7 C 0.7062(4) 0.3474(13) 0.7616(4) 0.0264(12) Uani 1 1 d .
H7 H 0.7485 0.3662 0.8197 0.032 Uiso 1 1 calc R
C8 C 0.7396(4) 0.1942(12) 0.6974(4) 0.0206(11) Uani 1 1 d .
C9 C 0.8415(4) 0.0609(13) 0.7195(4) 0.0261(12) Uani 1 1 d .
C10 C 0.8733(4) -0.0933(13) 0.6483(4) 0.0262(12) Uani 1 1 d .
H10 H 0.9387 -0.1733 0.6608 0.031 Uiso 1 1 calc R
loop_
_atom_site_aniso_label
_atom_site_aniso_U_11
_atom_site_aniso_U_22
_atom_site_aniso_U_33
_atom_site_aniso_U_23
_atom_site_aniso_U_13
_atom_site_aniso_U_12
I1 0.0335(2) 0.02474(18) 0.0245(2) 0.00060(17) 0.01022(15) 0.00548(15)
O1 0.026(2) 0.046(2) 0.019(2) -0.0029(19) 0.0023(17) 0.0041(18)
O2 0.028(2) 0.047(3) 0.019(2) 0.0004(19) 0.0020(17) -0.0057(17)
C1 0.025(3) 0.022(2) 0.022(3) 0.002(2) 0.010(2) -0.002(2)
C2 0.026(3) 0.025(3) 0.021(3) -0.003(2) 0.009(2) -0.006(2)
C3 0.023(3) 0.022(2) 0.018(3) 0.006(2) 0.006(2) -0.003(2)
C4 0.025(3) 0.025(3) 0.025(3) 0.006(2) 0.005(2) -0.005(2)
C5 0.021(3) 0.024(2) 0.040(4) 0.002(3) 0.011(3) 0.001(2)
C6 0.037(3) 0.027(3) 0.032(4) -0.001(3) 0.017(3) -0.003(2)
C7 0.033(3) 0.027(3) 0.022(3) 0.000(2) 0.012(2) -0.006(2)
C8 0.022(3) 0.024(3) 0.016(3) 0.001(2) 0.005(2) -0.007(2)
C9 0.024(3) 0.030(3) 0.025(3) 0.002(2) 0.008(2) -0.005(2)
C10 0.019(3) 0.034(3) 0.025(3) 0.003(2) 0.006(2) 0.002(2)
loop_
_atom_type_symbol
_atom_type_description
_atom_type_scat_dispersion_real
_atom_type_scat_dispersion_imag
_atom_type_scat_source
C C 0.0033 0.0016 'International Tables Vol C Tables 4.2.6.8 and 6.1.1.4'
H H 0.0000 0.0000 'International Tables Vol C Tables 4.2.6.8 and 6.1.1.4'
I I -0.4742 1.8119 'International Tables Vol C Tables 4.2.6.8 and 6.1.1.4'
O O 0.0106 0.0060 'International Tables Vol C Tables 4.2.6.8 and 6.1.1.4'
loop_
_geom_angle_atom_site_label_1
_geom_angle_atom_site_label_2
_geom_angle_atom_site_label_3
_geom_angle
C2 C1 I1 116.2(4)
C10 C1 I1 121.7(4)
C10 C1 C2 122.1(5)
O1 C2 C1 121.7(5)
O1 C2 C3 121.6(5)
C3 C2 C1 116.7(5)
C4 C3 C2 119.3(5)
C4 C3 C8 119.6(5)
C8 C3 C2 121.1(5)
C3 C4 H4 119.9
C5 C4 C3 120.2(6)
C5 C4 H4 119.9
C4 C5 H5 119.4
C4 C5 C6 121.1(5)
C6 C5 H5 119.4
C5 C6 H6 120.4
C7 C6 C5 119.2(5)
C7 C6 H6 120.4
C6 C7 H7 119.9
C6 C7 C8 120.1(6)
C8 C7 H7 119.9
C3 C8 C9 119.9(5)
C7 C8 C3 119.8(5)
C7 C8 C9 120.3(5)
O2 C9 C8 121.8(5)
O2 C9 C10 120.4(5)
C10 C9 C8 117.8(5)
C1 C10 C9 122.3(5)
C1 C10 H10 118.8
C9 C10 H10 118.8
loop_
_geom_bond_atom_site_label_1
_geom_bond_atom_site_label_2
_geom_bond_distance
I1 C1 2.087(5)
O1 C2 1.223(7)
O2 C9 1.221(7)
C1 C2 1.494(7)
C1 C10 1.333(8)
C2 C3 1.492(7)
C3 C4 1.381(7)
C3 C8 1.402(7)
C4 H4 0.9500
C4 C5 1.366(8)
C5 H5 0.9500
C5 C6 1.397(9)
C6 H6 0.9500
C6 C7 1.380(8)
C7 H7 0.9500
C7 C8 1.395(7)
C8 C9 1.491(8)
C9 C10 1.478(8)
C10 H10 0.9500
loop_
_geom_torsion_atom_site_label_1
_geom_torsion_atom_site_label_2
_geom_torsion_atom_site_label_3
_geom_torsion_atom_site_label_4
_geom_torsion
I1 C1 C2 O1 2.5(7)
I1 C1 C2 C3 -178.2(3)
I1 C1 C10 C9 179.8(4)
O1 C2 C3 C4 -1.6(8)
O1 C2 C3 C8 178.0(5)
O2 C9 C10 C1 178.8(5)
C1 C2 C3 C4 179.1(5)
C1 C2 C3 C8 -1.3(7)
C2 C1 C10 C9 0.8(8)
C2 C3 C4 C5 -179.1(5)
C2 C3 C8 C7 -179.5(5)
C2 C3 C8 C9 0.1(7)
C3 C4 C5 C6 -2.0(8)
C3 C8 C9 O2 -179.3(5)
C3 C8 C9 C10 1.5(7)
C4 C3 C8 C7 0.1(7)
C4 C3 C8 C9 179.7(5)
C4 C5 C6 C7 1.4(8)
C5 C6 C7 C8 0.0(8)
C6 C7 C8 C3 -0.7(8)
C6 C7 C8 C9 179.7(5)
C7 C8 C9 O2 0.3(8)
C7 C8 C9 C10 -178.9(5)
C8 C3 C4 C5 1.2(8)
C8 C9 C10 C1 -2.0(8)
C10 C1 C2 O1 -178.4(5)
C10 C1 C2 C3 0.8(7)
