#------------------------------------------------------------------------------
#$Date: 2016-03-04 14:04:11 +0200 (Fri, 04 Mar 2016) $
#$Revision: 177531 $
#$URL: svn://www.crystallography.net/cod/cif/1/54/24/1542482.cif $
#------------------------------------------------------------------------------
#
# This file is available in the Crystallography Open Database (COD),
# http://www.crystallography.net/
#
# All data on this site have been placed in the public domain by the
# contributors.
#
data_1542482
loop_
_publ_author_name
'Albat, Martin'
'Stock, Norbert'
_publ_section_title
;
 Polymeric structure of disodium <i>p</i>-terphenyl-4,4''-disulfonate
 [Na~2~(O~3~S-C~6~H~4~-C~6~H~4~-C~6~H~4~-SO~3~]
;
_journal_issue                   1
_journal_name_full               IUCrData
_journal_page_first              x160039
_journal_paper_doi               10.1107/S2414314616000390
_journal_volume                  1
_journal_year                    2016
_chemical_formula_iupac          '2Na +, C18 H12 O6 S2 2-'
_chemical_formula_moiety         '2(Na +), C18 H12 O6 S2 2-'
_chemical_formula_sum            'C18 H12 Na2 O6 S2'
_chemical_formula_weight         434.38
_chemical_name_systematic
;
Disodium <i>p</i>-terphenyl-4,4''-disulfonate
;
_space_group_crystal_system      monoclinic
_space_group_IT_number           14
_space_group_name_Hall           '-P 2ybc'
_space_group_name_H-M_alt        'P 1 21/c 1'
_symmetry_space_group_name_Hall  '-P 2ybc'
_symmetry_space_group_name_H-M   'P 1 21/c 1'
_atom_sites_solution_hydrogens   geom
_audit_creation_method           SHELXL-2014/7
_cell_angle_alpha                90
_cell_angle_beta                 91.38(3)
_cell_angle_gamma                90
_cell_formula_units_Z            2
_cell_length_a                   17.662(4)
_cell_length_b                   8.2854(17)
_cell_length_c                   5.9719(12)
_cell_measurement_reflns_used    8528
_cell_measurement_temperature    293(2)
_cell_measurement_theta_max      27.5
_cell_measurement_theta_min      2.3
_cell_volume                     873.7(3)
_computing_cell_refinement
;
X-Area (Stoe, 2008)
;
_computing_data_collection
;
X-Area (Stoe, 2008)
;
_computing_data_reduction
;
X-Area (Stoe, 2008)
;
_computing_molecular_graphics
;
DIAMOND (Brandenburg, 1999)
;
_computing_publication_material
;
publcif (Westrip, 2010)
;
_computing_structure_refinement
;
<i>SHELXL2014/7</i> (Sheldrick, 2015)
;
_computing_structure_solution
;
<i>SHELXS2014/7</i> (Sheldrick, 2008)
;
_diffrn_ambient_temperature      293(2)
_diffrn_measured_fraction_theta_full 0.993
_diffrn_measured_fraction_theta_max 0.982
_diffrn_measurement_device_type  'Stoe IPDS-2'
_diffrn_measurement_method       'Phi scan'
_diffrn_radiation_type           MoK\a
_diffrn_radiation_wavelength     0.71073
_diffrn_reflns_limit_h_max       7
_diffrn_reflns_limit_h_min       -5
_diffrn_reflns_limit_k_max       10
_diffrn_reflns_limit_k_min       -10
_diffrn_reflns_limit_l_max       20
_diffrn_reflns_limit_l_min       -22
_diffrn_reflns_number            1958
_diffrn_reflns_theta_full        25.242
_diffrn_reflns_theta_max         27.435
_diffrn_reflns_theta_min         2.307
_exptl_absorpt_coefficient_mu    0.390
_exptl_absorpt_correction_T_max  0.975
_exptl_absorpt_correction_T_min  0.902
_exptl_absorpt_correction_type   numerical
_exptl_absorpt_process_details
;
(X-SHAPE and X-RED; Stoe, 2008)
;
_exptl_crystal_colour            'light brown'
_exptl_crystal_density_diffrn    1.651
_exptl_crystal_description       needle
_exptl_crystal_F_000             444
_exptl_crystal_size_max          0.157
_exptl_crystal_size_mid          0.110
_exptl_crystal_size_min          0.054
_refine_diff_density_max         0.273
_refine_diff_density_min         -0.401
_refine_ls_extinction_method     none
_refine_ls_goodness_of_fit_ref   1.049
_refine_ls_hydrogen_treatment    constr
_refine_ls_matrix_type           full
_refine_ls_number_parameters     127
_refine_ls_number_reflns         1958
_refine_ls_number_restraints     0
_refine_ls_restrained_S_all      1.049
_refine_ls_R_factor_all          0.0986
_refine_ls_R_factor_gt           0.0483
_refine_ls_shift/su_max          0.000
_refine_ls_shift/su_mean         0.000
_refine_ls_structure_factor_coef Fsqd
_refine_ls_weighting_details
'w=1/[\s^2^(Fo^2^)+(0.0350P)^2^] where P=(Fo^2^+2Fc^2^)/3'
_refine_ls_weighting_scheme      calc
_refine_ls_wR_factor_gt          0.0937
_refine_ls_wR_factor_ref         0.1031
_reflns_number_gt                1076
_reflns_number_total             1958
_reflns_threshold_expression     'I > 2\s(I)'
_cod_data_source_file            bt4001sup1.cif
_cod_data_source_block           I
_cod_depositor_comments          'Adding full bibliography for 1542482.cif.'
_cod_database_code               1542482
_cod_database_fobs_code          1542482
_shelx_space_group_comment
;
The symmetry employed for this shelxl refinement is uniquely defined
by the following loop, which should always be used as a source of
symmetry information in preference to the above space-group names.
They are only intended as comments.
;
_shelx_hkl_file
;
   0   0   3   -1.13    1.64
   0   0   4  392.64    2.25
   0   0   5    1.63    1.18
   0   0   6   12.91    1.15
   0   0   7   -1.17    0.93
   0  -1   0    1.40    4.05
   0  -1   1   17.38    3.16
   0  -1   2    0.55    1.98
   0  -1   3    7.06    1.54
   0  -1   4    6.82    1.32
   0  -1   5   40.39    1.31
   0  -1   6   11.09    1.13
   0  -1   7    0.97    1.01
   0  -2   1    0.69    2.52
   0  -2   2    6.49    1.83
   0  -2   3  146.26    1.95
   0  -2   4   36.02    1.54
   0  -2   5    2.97    1.27
   0  -2   6    2.15    1.14
   0  -2   7    1.02    1.02
   0  -3   0    0.84    2.44
   0  -3   1   33.85    2.12
   0  -3   2   31.86    1.82
   0  -3   3   85.78    1.69
   0  -3   4    7.23    1.40
   0  -3   5   35.44    1.45
   0  -3   6    1.07    0.93
   0  -3   7    2.29    1.08
   0  -4   0   31.04    2.17
   0  -4   1  141.73    2.12
   0  -4   2   21.59    1.50
   0  -4   3    4.08    1.47
   0  -4   4   12.91    1.36
   0  -4   5    2.20    1.20
   0  -4   6    0.97    1.09
   0  -4   7    1.21    0.99
   0  -5   0   -1.00    1.58
   0  -5   1    5.91    1.60
   0  -5   2    2.19    1.45
   0  -5   3    0.25    1.35
   0  -5   4   17.05    1.31
   0  -5   5   -0.14    1.11
   0  -5   6    0.97    1.03
   0  -6   0   84.26    1.85
   0  -6   1    1.33    1.47
   0  -6   2   -1.41    1.44
   0  -6   3    6.80    1.31
   0  -6   4   20.93    1.21
   0  -6   5    1.50    1.04
   0  -6   6    1.23    0.95
   0  -7   0    1.83    1.39
   0  -7   1   13.43    1.44
   0  -7   2    0.95    1.34
   0  -7   3    2.61    1.25
   0  -7   4    0.12    1.12
   0  -7   5    0.61    1.00
   0  -8   0    2.08    1.26
   0  -8   1    0.96    1.07
   0  -8   2    1.46    1.16
   0  -8   3    1.16    1.13
   0  -8   4    2.47    1.11
   0  -8   5    0.78    1.01
   0  -9   0    1.13    1.06
   0  -9   1    1.90    1.08
   0  -9   2    4.78    1.04
   0  -9   3    2.23    1.15
   0  -9   4    0.44    0.89
   0 -10   0   21.04    1.15
   0 -10   1    0.02    0.97
   0 -10   2    0.41    1.00
   1   0  -7    0.82    0.96
   1   0  -6    4.80    1.06
   1   0  -5    1.98    1.23
   1   0  -4   84.66    1.64
   1   0  -3    1.77    1.50
   1   0   3   -0.28    1.57
   1   0   4   58.90    1.51
   1   0   5    0.24    1.21
   1   0   6   21.19    1.19
   1   0   7    0.21    0.93
   1  -1  -7    0.09    0.84
   1  -1  -6   11.22    1.17
   1  -1  -5   32.36    1.33
   1  -1  -4   17.62    1.46
   1  -1  -3  109.29    1.78
   1  -1  -2    0.79    2.07
   1  -1  -1    9.70    3.04
   1  -1   0    2.35    3.78
   1  -1   2   60.50    2.10
   1  -1   3   87.00    1.70
   1  -1   4    4.00    1.33
   1  -1   5   57.79    1.38
   1  -1   6   12.71    1.16
   1  -1   7    1.61    1.04
   1  -2  -7    1.28    0.99
   1  -2  -6    0.59    1.09
   1  -2  -5    0.75    1.28
   1  -2  -4    0.00    1.43
   1  -2  -3  209.74    2.07
   1  -2  -2   57.31    1.97
   1  -2  -1    0.22    2.47
   1  -2   0    5.52    3.38
   1  -2   1 1000.00    4.33
   1  -2   2    3.75    1.83
   1  -2   3  225.75    2.16
   1  -2   4   -0.19    1.43
   1  -2   5   10.02    1.32
   1  -2   6    8.24    1.17
   1  -2   7    2.52    1.02
   1  -3  -7    3.17    1.09
   1  -3  -6    0.67    1.08
   1  -3  -5   15.95    1.27
   1  -3  -4    1.60    1.38
   1  -3  -3  210.48    1.99
   1  -3  -2   64.52    1.77
   1  -3  -1   26.11    1.95
   1  -3   0    8.15    2.44
   1  -3   1  518.71    3.14
   1  -3   2   23.37    1.76
   1  -3   3   12.52    1.48
   1  -3   4    1.25    1.35
   1  -3   5   48.75    1.51
   1  -3   6    1.34    1.10
   1  -3   7   -0.32    1.02
   1  -4  -7    1.43    1.02
   1  -4  -6    1.97    1.06
   1  -4  -5    4.76    1.20
   1  -4  -4   22.52    1.41
   1  -4  -3    6.55    1.43
   1  -4  -2   62.79    1.66
   1  -4  -1  298.71    2.46
   1  -4   0   17.73    1.93
   1  -4   1   23.25    1.86
   1  -4   2   11.67    1.51
   1  -4   3    0.03    1.43
   1  -4   4    3.55    1.32
   1  -4   5    1.95    1.12
   1  -4   6    1.95    1.09
   1  -4   7    0.38    1.03
   1  -5  -6    0.54    1.05
   1  -5  -5    0.90    1.12
   1  -5  -4    6.22    1.25
   1  -5  -3    9.44    1.35
   1  -5  -2   26.41    1.56
   1  -5  -1   10.64    1.58
   1  -5   0    1.94    1.53
   1  -5   1   48.13    1.75
   1  -5   2   17.94    1.55
   1  -5   3    8.72    1.39
   1  -5   4    4.10    1.04
   1  -5   5    2.17    1.01
   1  -5   6    0.63    1.08
   1  -6  -6    1.08    1.05
   1  -6  -5    2.21    1.06
   1  -6  -4   29.75    1.31
   1  -6  -3    0.59    1.27
   1  -6  -2    7.59    1.41
   1  -6  -1    2.79    1.46
   1  -6   0   69.34    1.74
   1  -6   1    2.26    1.48
   1  -6   2   34.95    1.59
   1  -6   3    7.21    1.36
   1  -6   4    6.26    1.04
   1  -6   5    1.97    1.03
   1  -6   6    0.61    0.95
   1  -7  -5    0.92    1.04
   1  -7  -4    1.28    1.08
   1  -7  -3   15.23    1.28
   1  -7  -2    1.66    1.30
   1  -7  -1    9.22    1.38
   1  -7   0    2.69    1.41
   1  -7   1   59.44    1.63
   1  -7   2    1.83    1.29
   1  -7   3    2.42    1.22
   1  -7   4    0.56    1.10
   1  -7   5    6.03    1.10
   1  -8  -5    0.41    0.89
   1  -8  -4   -0.23    1.10
   1  -8  -3    0.83    1.14
   1  -8  -2    0.24    1.17
   1  -8  -1    4.01    1.11
   1  -8   0    5.15    1.11
   1  -8   1    7.72    1.18
   1  -8   2    1.98    1.21
   1  -8   3    1.61    1.13
   1  -8   4    1.13    1.08
   1  -8   5    1.05    1.06
   1  -9  -4    0.47    1.03
   1  -9  -3    5.82    1.20
   1  -9  -2    1.97    1.11
   1  -9  -1    3.88    1.13
   1  -9   0    2.22    1.09
   1  -9   1   30.40    1.25
   1  -9   2    4.73    1.12
   1  -9   3    3.09    1.11
   1  -9   4    0.22    1.00
   1 -10  -2    0.92    1.00
   1 -10  -1    0.52    0.98
   1 -10   0    2.52    1.00
   1 -10   1    1.60    0.99
   1 -10   2    1.90    1.00
   2   0  -7   -0.67    0.97
   2   0  -6    2.62    1.06
   2   0  -5   -1.46    1.26
   2   0  -4  124.69    1.75
   2   0  -3    1.43    1.54
   2   0   0  375.28    6.05
   2   0   3   -0.45    1.44
   2   0   4   12.99    1.41
   2   0   5    2.63    1.23
   2   0   6   15.29    1.13
   2   0   7    0.49    0.92
   2  -1  -7    4.94    1.08
   2  -1  -6    9.72    1.21
   2  -1  -5    3.74    1.20
   2  -1  -4   16.68    1.40
   2  -1  -3   65.19    1.63
   2  -1  -2   35.95    2.09
   2  -1  -1  143.30    3.73
   2  -1   0    1.28    3.71
   2  -1   1    7.10    3.10
   2  -1   2    7.15    1.91
   2  -1   3   96.69    1.71
   2  -1   4    3.94    1.33
   2  -1   5    7.54    1.26
   2  -1   6    5.81    1.14
   2  -1   7    2.53    1.02
   2  -2  -7    1.16    1.02
   2  -2  -6    1.52    1.18
   2  -2  -5    0.91    1.19
   2  -2  -4    0.88    1.48
   2  -2  -3   15.50    1.49
   2  -2  -2  161.30    2.25
   2  -2  -1   28.23    2.46
   2  -2   0  116.18    3.66
   2  -2   1   84.76    2.79
   2  -2   2   37.03    1.97
   2  -2   3   64.36    1.72
   2  -2   4   13.34    1.49
   2  -2   5    2.80    1.35
   2  -2   6   12.18    1.25
   2  -2   7    2.10    1.03
   2  -3  -7   16.15    1.20
   2  -3  -6    1.71    1.04
   2  -3  -5    2.67    1.09
   2  -3  -4    0.69    1.34
   2  -3  -3   52.39    1.62
   2  -3  -2  213.90    2.23
   2  -3  -1   21.65    1.93
   2  -3   0   36.78    2.29
   2  -3   1   90.19    2.20
   2  -3   2  304.48    2.44
   2  -3   3    3.03    1.48
   2  -3   4    8.12    1.46
   2  -3   5   37.02    1.36
   2  -3   6    0.72    1.12
   2  -3   7    0.33    1.03
   2  -4  -7    0.57    1.03
   2  -4  -6    1.48    1.09
   2  -4  -5    8.99    1.24
   2  -4  -4   11.95    1.38
   2  -4  -3   26.75    1.56
   2  -4  -2  182.77    2.00
   2  -4  -1  165.25    2.17
   2  -4   0    1.23    1.85
   2  -4   1   60.05    1.87
   2  -4   2  273.15    2.33
   2  -4   3    0.33    1.42
   2  -4   4    3.74    1.35
   2  -4   5    1.14    1.16
   2  -4   6   12.71    1.22
   2  -4   7    0.98    1.06
   2  -5  -6    1.80    1.07
   2  -5  -5   -0.78    1.13
   2  -5  -4    9.50    1.27
   2  -5  -3   21.29    1.46
   2  -5  -2   28.67    1.65
   2  -5  -1   51.38    1.81
   2  -5   0    2.48    1.53
   2  -5   1    8.24    1.65
   2  -5   2   23.20    1.54
   2  -5   3   42.97    1.48
   2  -5   4    2.11    1.26
   2  -5   5    1.70    1.09
   2  -5   6    0.66    1.01
   2  -6  -6    0.03    0.98
   2  -6  -5    3.06    1.10
   2  -6  -4   30.12    1.33
   2  -6  -3    1.27    1.28
   2  -6  -2   62.33    1.66
   2  -6  -1   26.94    1.60
   2  -6   0   47.62    1.75
   2  -6   1    6.44    1.62
   2  -6   2  264.12    2.35
   2  -6   3   28.08    1.45
   2  -6   4    1.07    1.09
   2  -6   5    0.99    1.01
   2  -6   6    4.90    1.04
   2  -7  -5   -0.19    1.03
   2  -7  -4    0.91    1.14
   2  -7  -3   21.96    1.33
   2  -7  -2    1.71    1.36
   2  -7  -1    1.07    1.40
   2  -7   0    6.96    1.37
   2  -7   1   11.48    1.35
   2  -7   2   27.83    1.52
   2  -7   3    2.20    1.24
   2  -7   4   -0.35    1.11
   2  -7   5    1.60    1.03
   2  -8  -5    0.99    1.06
   2  -8  -4    0.35    1.09
   2  -8  -3    0.54    1.15
   2  -8  -2    2.10    1.25
   2  -8  -1    6.86    1.28
   2  -8   0    1.57    1.21
   2  -8   1    5.17    1.19
   2  -8   2   30.05    1.46
   2  -8   3    3.05    1.20
   2  -8   4    0.58    1.12
   2  -8   5    0.48    1.04
   2  -9  -4    1.92    1.06
   2  -9  -3    4.03    1.17
   2  -9  -2    0.20    1.05
   2  -9  -1   -0.45    1.08
   2  -9   0    2.12    1.07
   2  -9   1    1.15    1.06
   2  -9   2    0.61    1.06
   2  -9   3    1.00    1.11
   2  -9   4    1.04    1.10
   2 -10  -2    1.39    1.02
   2 -10  -1    0.35    0.99
   2 -10   0    1.56    1.04
   2 -10   1    1.29    1.02
   2 -10   2   11.57    1.11
   3   0  -7   -0.47    1.00
   3   0  -6   56.88    1.44
   3   0  -5   -1.29    1.27
   3   0  -4  100.12    1.66
   3   0  -3    0.88    1.61
   3   0   0   23.15    3.37
   3   0   1    0.40    3.28
   3   0   2   51.06    2.08
   3   0   3    0.61    1.47
   3   0   4   20.32    1.52
   3   0   5   -0.48    1.23
   3   0   6    7.08    1.11
   3   0   7    1.13    0.98
   3  -1  -7    3.61    1.02
   3  -1  -6    1.98    1.11
   3  -1  -5    2.71    1.30
   3  -1  -4    1.96    1.41
   3  -1  -3   16.95    1.59
   3  -1  -2   60.18    2.18
   3  -1  -1  225.00    3.60
   3  -1   0   11.35    3.59
   3  -1   1    1.19    3.13
   3  -1   2  292.62    2.56
   3  -1   3   33.79    1.54
   3  -1   4    4.86    1.38
   3  -1   5    3.46    1.20
   3  -1   6    7.86    1.17
   3  -1   7    2.46    1.07
   3  -2  -7   -0.58    0.97
   3  -2  -6   34.85    1.35
   3  -2  -5    0.62    1.20
   3  -2  -4    8.18    1.49
   3  -2  -3    0.56    1.51
   3  -2  -2    2.79    1.88
   3  -2  -1  167.59    2.67
   3  -2   0   72.91    2.99
   3  -2   1   78.27    2.62
   3  -2   2   11.73    1.74
   3  -2   3   25.88    1.66
   3  -2   4   48.00    1.71
   3  -2   5    1.73    1.30
   3  -2   6    6.68    1.22
   3  -2   7    0.68    1.03
   3  -3  -7    8.68    1.13
   3  -3  -6   -0.28    1.08
   3  -3  -5    0.85    1.12
   3  -3  -4    5.76    1.36
   3  -3  -3   43.70    1.57
   3  -3  -2    5.79    1.63
   3  -3  -1  146.15    2.27
   3  -3   0   86.66    2.40
   3  -3   1   88.60    2.13
   3  -3   2   18.72    1.76
   3  -3   3   89.32    1.68
   3  -3   4    0.78    1.44
   3  -3   5   22.07    1.44
   3  -3   6   -0.72    1.14
   3  -3   7    4.30    1.00
   3  -4  -7    0.32    1.03
   3  -4  -6   14.56    1.17
   3  -4  -5   15.50    1.28
   3  -4  -4    4.08    1.35
   3  -4  -3   27.74    1.54
   3  -4  -2   17.88    1.54
   3  -4  -1   99.88    1.96
   3  -4   0    1.61    1.82
   3  -4   1   60.82    1.96
   3  -4   2   19.38    1.60
   3  -4   3    8.04    1.45
   3  -4   4    3.93    1.27
   3  -4   5    1.12    0.89
   3  -4   6    4.35    1.04
   3  -4   7    0.38    0.97
   3  -5  -6    0.01    1.00
   3  -5  -5    0.28    1.13
   3  -5  -4    7.51    1.28
   3  -5  -3   14.32    1.43
   3  -5  -2    4.06    1.56
   3  -5  -1  235.07    2.21
   3  -5   0    9.78    1.58
   3  -5   1    1.07    1.55
   3  -5   2    0.37    1.50
   3  -5   3  325.85    2.55
   3  -5   4    4.81    1.25
   3  -5   5    7.69    1.16
   3  -5   6   -1.66    0.97
   3  -6  -6    2.51    1.02
   3  -6  -5    0.56    1.11
   3  -6  -4   16.23    1.29
   3  -6  -3    1.27    1.29
   3  -6  -2   46.18    1.62
   3  -6  -1   19.20    1.57
   3  -6   0    1.36    1.50
   3  -6   1   27.68    1.63
   3  -6   2   45.51    1.57
   3  -6   3    1.12    1.32
   3  -6   4    0.50    1.12
   3  -6   5    0.78    1.04
   3  -6   6    0.37    0.96
   3  -7  -5   -0.22    1.07
   3  -7  -4    0.58    1.11
   3  -7  -3   17.61    1.34
   3  -7  -2    0.56    1.34
   3  -7  -1   22.24    1.45
   3  -7   0    8.37    1.37
   3  -7   1    2.27    1.34
   3  -7   2   17.80    1.46
   3  -7   3   58.51    1.63
   3  -7   4    1.29    1.11
   3  -7   5    0.31    0.87
   3  -8  -5    0.01    1.09
   3  -8  -4    2.94    1.06
   3  -8  -3    1.48    1.14
   3  -8  -2    1.13    1.12
   3  -8  -1    3.37    1.19
   3  -8   0   24.27    1.33
   3  -8   1    6.01    1.25
   3  -8   2    2.03    1.14
   3  -8   3    0.49    1.20
   3  -8   4    1.45    1.13
   3  -9  -4    1.06    1.00
   3  -9  -3    2.03    1.14
   3  -9  -2    1.80    1.12
   3  -9  -1    1.83    1.08
   3  -9   0    3.15    1.09
   3  -9   1    0.50    1.12
   3  -9   2    0.77    1.07
   3  -9   3    4.62    1.11
   3  -9   4    0.97    1.01
   3 -10  -2    1.41    1.04
   3 -10  -1    2.17    1.04
   3 -10   0    0.90    1.01
   3 -10   1   -0.06    0.86
   3 -10   2    1.81    1.02
   4   0  -7    0.56    1.00
   4   0  -6   57.49    1.40
   4   0  -5    1.13    1.24
   4   0  -4   28.23    1.48
   4   0  -3   -1.25    2.03
   4   0   0    1.52    3.19
   4   0   1   -0.38    2.98
   4   0   2   31.63    1.85
   4   0   3    1.14    1.52
   4   0   4  102.89    1.69
   4   0   5   -0.72    1.20
   4   0   6    6.43    0.81
   4   0   7    1.48    0.95
   4  -1  -7   -0.50    1.04
   4  -1  -6    2.11    1.09
   4  -1  -5   53.11    1.47
   4  -1  -4   -0.32    1.40
   4  -1  -3   11.78    1.62
   4  -1  -2   63.23    2.06
   4  -1  -1  732.32    4.32
   4  -1   0   61.70    3.76
   4  -1   1   95.75    2.86
   4  -1   2  246.02    2.68
   4  -1   3   58.84    1.72
   4  -1   4   58.90    1.52
   4  -1   5   24.37    1.28
   4  -1   6    2.30    1.14
   4  -1   7    0.47    1.02
   4  -2  -7    1.92    0.99
   4  -2  -6   17.47    1.24
   4  -2  -5   14.85    1.36
   4  -2  -4   25.02    1.49
   4  -2  -3   12.94    1.55
   4  -2  -2    1.51    1.70
   4  -2  -1   10.64    2.09
   4  -2   0  209.41    2.95
   4  -2   1   53.07    2.13
   4  -2   2    2.09    1.70
   4  -2   3   -0.07    1.40
   4  -2   4  240.46    2.34
   4  -2   5    2.69    1.33
   4  -2   6    2.31    1.18
   4  -2   7    1.18    1.05
   4  -3  -7    3.03    1.07
   4  -3  -6    0.94    1.12
   4  -3  -5   37.63    1.44
   4  -3  -4   12.10    1.44
   4  -3  -3   11.43    1.49
   4  -3  -2    0.34    1.70
   4  -3  -1    0.72    1.84
   4  -3   0  152.61    2.41
   4  -3   1  117.28    2.09
   4  -3   2   21.98    1.83
   4  -3   3   -0.51    1.49
   4  -3   4   33.22    1.46
   4  -3   5    9.84    1.39
   4  -3   6    0.86    1.20
   4  -3   7    1.35    0.95
   4  -4  -7    1.86    0.97
   4  -4  -6    4.36    1.05
   4  -4  -5    8.86    1.24
   4  -4  -4    1.48    1.30
   4  -4  -3   25.95    1.56
   4  -4  -2   10.64    1.52
   4  -4  -1  184.12    2.31
   4  -4   0  127.82    2.16
   4  -4   1    0.42    1.66
   4  -4   2    7.38    1.62
   4  -4   3    5.98    1.43
   4  -4   4  137.68    1.79
   4  -4   5    1.01    1.12
   4  -4   6    0.82    0.99
   4  -5  -6    0.89    1.00
   4  -5  -5   17.90    1.18
   4  -5  -4    2.91    1.25
   4  -5  -3    0.88    1.35
   4  -5  -2    6.73    1.50
   4  -5  -1   14.39    1.57
   4  -5   0   25.00    1.66
   4  -5   1   11.56    1.54
   4  -5   2    1.26    1.52
   4  -5   3   23.94    1.55
   4  -5   4    1.91    1.22
   4  -5   5    7.80    1.17
   4  -5   6   -0.04    1.00
   4  -6  -6    2.64    1.08
   4  -6  -5    0.74    1.10
   4  -6  -4    6.36    1.18
   4  -6  -3    1.57    1.27
   4  -6  -2   55.97    1.63
   4  -6  -1   12.36    1.56
   4  -6   0   37.21    1.63
   4  -6   1    2.27    1.45
   4  -6   2   11.10    1.48
   4  -6   3    7.71    1.40
   4  -6   4   27.45    1.23
   4  -6   5   -0.52    1.04
   4  -6   6   -0.72    0.98
   4  -7  -5    5.43    1.07
   4  -7  -4    0.18    1.13
   4  -7  -3    5.99    1.24
   4  -7  -2    0.07    1.28
   4  -7  -1    2.09    1.32
   4  -7   0    0.62    1.34
   4  -7   1    4.00    1.34
   4  -7   2   28.33    1.36
   4  -7   3    5.27    1.36
   4  -7   4    0.34    1.11
   4  -7   5    2.55    1.03
   4  -8  -4    5.47    1.13
   4  -8  -3   -0.15    1.14
   4  -8  -2    1.86    1.15
   4  -8  -1    2.45    1.19
   4  -8   0   32.59    1.45
   4  -8   1    5.22    1.20
   4  -8   2    1.66    1.18
   4  -8   3   -0.80    1.11
   4  -8   4    3.83    1.19
   4  -9  -3    1.11    1.10
   4  -9  -2    1.98    1.09
   4  -9  -1    0.27    1.07
   4  -9   0    1.87    1.06
   4  -9   1    3.32    1.08
   4  -9   2    1.60    1.11
   4  -9   3    1.45    1.07
   4 -10  -2    2.20    1.04
   4 -10  -1    2.46    1.02
   4 -10   0    3.23    1.05
   4 -10   1    0.45    1.01
   4 -10   2   -0.42    1.05
   5   0  -7    0.68    1.02
   5   0  -6   20.68    1.20
   5   0  -5    1.13    1.26
   5   0  -4    6.23    1.77
   5   0  -3   -0.86    1.57
   5   0   0  490.14    4.27
   5   0   1   -0.22    2.61
   5   0   2   31.35    1.96
   5   0   3    1.27    1.52
   5   0   4   56.32    1.56
   5   0   5   -0.41    1.22
   5   0   6    1.30    1.09
   5   0   7   -0.68    0.99
   5  -1  -7    0.24    0.98
   5  -1  -6    0.07    1.08
   5  -1  -5   58.46    1.58
   5  -1  -4    2.29    1.36
   5  -1  -3   25.89    1.69
   5  -1  -2   86.41    1.95
   5  -1  -1  589.86    3.94
   5  -1   0    7.90    2.95
   5  -1   1  346.13    3.30
   5  -1   2  326.88    2.82
   5  -1   3    8.14    1.52
   5  -1   4   20.93    1.45
   5  -1   5  229.51    1.94
   5  -1   6    3.29    1.18
   5  -1   7   -1.10    1.06
   5  -2  -7    0.31    1.03
   5  -2  -6    3.28    1.06
   5  -2  -5   13.10    1.25
   5  -2  -4   82.30    1.71
   5  -2  -3   77.49    1.70
   5  -2  -2   27.69    1.81
   5  -2  -1   44.90    2.07
   5  -2   0  210.16    2.88
   5  -2   1   14.06    1.95
   5  -2   2   72.78    1.97
   5  -2   3    5.12    1.42
   5  -2   4   75.78    1.59
   5  -2   5   37.65    1.57
   5  -2   6    2.16    1.18
   5  -2   7    0.89    1.10
   5  -3  -7    1.74    0.99
   5  -3  -6    1.38    1.13
   5  -3  -5   16.17    1.28
   5  -3  -4   11.56    1.39
   5  -3  -3    2.46    1.40
   5  -3  -2   -0.35    1.64
   5  -3  -1    2.88    1.78
   5  -3   0    1.72    1.86
   5  -3   1    3.33    1.81
   5  -3   2   45.39    1.98
   5  -3   3    2.63    1.38
   5  -3   4    2.17    1.36
   5  -3   5   25.63    1.29
   5  -3   6   -0.12    1.05
   5  -3   7    0.75    0.95
   5  -4  -6    2.57    1.04
   5  -4  -5   19.67    1.33
   5  -4  -4   51.02    1.56
   5  -4  -3   26.65    1.46
   5  -4  -2    0.62    1.44
   5  -4  -1   61.13    1.84
   5  -4   0    1.02    1.77
   5  -4   1   32.32    1.80
   5  -4   2    0.02    1.58
   5  -4   3    1.62    1.40
   5  -4   4    3.28    1.28
   5  -4   5    2.54    1.13
   5  -4   6    0.90    0.82
   5  -5  -6    1.42    1.10
   5  -5  -5    3.87    1.12
   5  -5  -4    2.01    1.19
   5  -5  -3    7.63    1.35
   5  -5  -2    8.15    1.47
   5  -5  -1   21.24    1.57
   5  -5   0    7.96    1.53
   5  -5   1  150.32    1.93
   5  -5   2    1.88    1.48
   5  -5   3    3.10    1.47
   5  -5   4    6.17    1.24
   5  -5   5   29.85    1.33
   5  -5   6   -0.51    0.99
   5  -6  -6    2.77    1.09
   5  -6  -5    0.03    1.09
   5  -6  -4   11.62    1.19
   5  -6  -3    2.40    1.24
   5  -6  -2   24.61    1.53
   5  -6  -1   10.58    1.54
   5  -6   0    2.02    1.46
   5  -6   1    0.63    1.48
   5  -6   2    2.42    1.36
   5  -6   3    4.78    1.35
   5  -6   4    0.48    1.11
   5  -6   5   -0.35    1.02
   5  -6   6    0.89    0.99
   5  -7  -5    3.89    1.09
   5  -7  -4    0.36    1.13
   5  -7  -3    0.85    1.24
   5  -7  -2    1.72    1.26
   5  -7  -1    4.06    1.32
   5  -7   0    5.95    1.33
   5  -7   1   22.97    1.41
   5  -7   2   13.16    1.33
   5  -7   3    0.52    1.24
   5  -7   4    1.17    1.11
   5  -7   5    1.84    1.05
   5  -8  -4   16.18    1.28
   5  -8  -3    0.17    1.16
   5  -8  -2    0.99    1.22
   5  -8  -1    0.30    1.18
   5  -8   0   12.85    1.25
   5  -8   1    2.91    1.16
   5  -8   2    2.28    1.18
   5  -8   3    0.37    1.12
   5  -8   4    4.33    1.08
   5  -9  -3    2.10    1.11
   5  -9  -2    1.44    1.09
   5  -9  -1    0.70    1.06
   5  -9   0   -0.35    1.08
   5  -9   1    4.47    1.10
   5  -9   2   -0.12    1.04
   5  -9   3    1.65    1.08
   5 -10  -2    1.06    1.06
   5 -10  -1    0.59    1.01
   5 -10   0    0.86    1.01
   5 -10   1    0.95    1.00
   5 -10   2    0.02    1.03
   6   0  -7   -0.23    1.00
   6   0  -6   21.73    1.19
   6   0  -5    1.95    1.20
   6   0  -4    1.16    1.41
   6   0  -3   -0.90    1.85
   6   0  -2  144.13    2.17
   6   0  -1   -0.07    2.39
   6   0   0  407.21    3.23
   6   0   1   -0.15    2.29
   6   0   2  314.72    2.66
   6   0   3    0.51    1.65
   6   0   4    2.02    1.43
   6   0   5    1.15    1.17
   6   0   6   45.09    1.38
   6   0   7   -0.86    0.96
   6  -1  -7    2.63    1.03
   6  -1  -6    1.09    1.07
   6  -1  -5   26.44    1.31
   6  -1  -4    2.22    1.36
   6  -1  -3   72.81    1.68
   6  -1  -2  155.62    2.20
   6  -1  -1  337.46    3.14
   6  -1   0   28.56    2.97
   6  -1   1   78.07    2.34
   6  -1   2  115.99    1.89
   6  -1   3   19.22    1.70
   6  -1   4   17.60    1.61
   6  -1   5   41.91    1.38
   6  -1   6    1.69    1.22
   6  -1   7    2.08    1.05
   6  -2  -7    0.39    0.99
   6  -2  -6    0.42    1.14
   6  -2  -5    4.49    1.21
   6  -2  -4   50.43    1.54
   6  -2  -3   21.80    1.71
   6  -2  -2   50.55    1.79
   6  -2  -1   52.32    2.00
   6  -2   0  172.39    2.58
   6  -2   1  116.05    2.21
   6  -2   2  276.48    2.45
   6  -2   3    5.86    1.44
   6  -2   4   29.59    1.49
   6  -2   5    0.04    1.16
   6  -2   6   35.96    1.30
   6  -2   7    0.09    0.96
   6  -3  -7    3.72    1.02
   6  -3  -6   -0.05    1.11
   6  -3  -5   10.57    1.16
   6  -3  -4    8.51    1.34
   6  -3  -3   45.26    1.53
   6  -3  -2    5.41    1.60
   6  -3  -1    1.71    1.74
   6  -3   0   -0.74    1.75
   6  -3   1  102.71    1.96
   6  -3   2    5.25    1.59
   6  -3   3   15.21    1.47
   6  -3   4   11.99    1.39
   6  -3   5   -0.34    1.17
   6  -3   6   -0.34    1.04
   6  -3   7    0.91    0.98
   6  -4  -6    0.21    1.07
   6  -4  -5   35.85    1.34
   6  -4  -4   27.43    1.33
   6  -4  -3    1.68    1.37
   6  -4  -2   22.82    1.52
   6  -4  -1   14.07    1.64
   6  -4   0    7.74    1.67
   6  -4   1    5.34    1.65
   6  -4   2   38.70    1.59
   6  -4   3   14.75    1.44
   6  -4   4    1.60    1.30
   6  -4   5    1.40    1.06
   6  -4   6    6.17    1.06
   6  -5  -6    0.30    1.15
   6  -5  -5    3.50    1.09
   6  -5  -4    1.74    1.29
   6  -5  -3  112.80    1.83
   6  -5  -2    3.08    1.49
   6  -5  -1    1.21    1.46
   6  -5   0    1.51    1.48
   6  -5   1   87.50    1.80
   6  -5   2    0.47    1.41
   6  -5   3    6.62    1.30
   6  -5   4   13.06    1.23
   6  -5   5    7.20    1.14
   6  -5   6    1.45    1.00
   6  -6  -6    0.64    1.02
   6  -6  -5    1.15    1.07
   6  -6  -4    8.14    1.16
   6  -6  -3    4.61    1.24
   6  -6  -2    4.50    1.35
   6  -6  -1    5.95    1.45
   6  -6   0    4.37    1.47
   6  -6   1    2.90    1.46
   6  -6   2    6.99    1.41
   6  -6   3    4.59    1.28
   6  -6   4    0.01    1.11
   6  -6   5    2.19    1.06
   6  -7  -5    0.83    1.06
   6  -7  -4    3.18    1.12
   6  -7  -3   13.48    1.28
   6  -7  -2    8.03    1.25
   6  -7  -1    0.17    1.29
   6  -7   0   14.08    1.35
   6  -7   1   12.86    1.34
   6  -7   2   18.01    1.34
   6  -7   3    0.24    1.17
   6  -7   4    2.90    1.08
   6  -7   5    0.79    1.05
   6  -8  -4    9.53    1.19
   6  -8  -3    1.52    1.13
   6  -8  -2    1.82    1.17
   6  -8  -1   -0.24    1.18
   6  -8   0    6.38    1.19
   6  -8   1    1.30    1.18
   6  -8   2   10.54    1.23
   6  -8   3    1.23    1.13
   6  -8   4    1.78    1.04
   6  -9  -3    3.18    1.10
   6  -9  -2    0.27    1.10
   6  -9  -1    0.23    1.07
   6  -9   0   -0.33    1.09
   6  -9   1    2.48    1.08
   6  -9   2    1.39    1.07
   6  -9   3    0.33    1.08
   6 -10  -1    1.97    1.02
   6 -10   0    1.47    1.02
   6 -10   1    0.49    1.02
   7   0  -7    0.08    0.98
   7   0  -6    1.46    1.04
   7   0  -5    1.24    1.24
   7   0  -4    1.41    1.65
   7   0  -3   -0.15    1.46
   7   0  -2   84.46    2.26
   7   0  -1   -0.17    2.14
   7   0   0  194.13    2.74
   7   0   1    0.36    1.84
   7   0   2   22.34    1.83
   7   0   3   -0.34    1.50
   7   0   4    2.36    1.52
   7   0   5    1.35    1.06
   7   0   6    0.53    1.07
   7   0   7   -0.79    1.06
   7  -1  -7    4.15    1.14
   7  -1  -6    1.66    1.07
   7  -1  -5   12.62    1.30
   7  -1  -4    4.08    1.31
   7  -1  -3   53.82    1.65
   7  -1  -2    8.18    1.66
   7  -1  -1  189.04    2.52
   7  -1   0   37.89    2.46
   7  -1   1   71.64    2.19
   7  -1   2  131.22    2.03
   7  -1   3  217.02    2.31
   7  -1   4   20.58    1.52
   7  -1   5    7.71    1.27
   7  -1   6    0.70    1.26
   7  -1   7    6.63    1.28
   7  -2  -7    1.46    0.99
   7  -2  -6   15.28    1.24
   7  -2  -5    6.63    1.16
   7  -2  -4   34.70    1.41
   7  -2  -3   54.55    1.58
   7  -2  -2  420.60    2.68
   7  -2  -1   47.24    1.94
   7  -2   0   99.96    2.32
   7  -2   1   12.54    1.85
   7  -2   2    7.08    1.49
   7  -2   3    1.54    1.40
   7  -2   4    4.50    1.35
   7  -2   5    2.24    1.39
   7  -2   6    3.04    1.09
   7  -2   7    0.47    0.94
   7  -3  -7    1.96    1.01
   7  -3  -6   11.86    1.18
   7  -3  -5    0.77    1.12
   7  -3  -4    0.94    1.25
   7  -3  -3   12.11    1.46
   7  -3  -2   47.50    1.62
   7  -3  -1    9.54    1.61
   7  -3   0   13.05    1.74
   7  -3   1   41.88    1.81
   7  -3   2   31.95    1.67
   7  -3   3   37.35    1.55
   7  -3   4    3.83    1.38
   7  -3   5    0.53    1.12
   7  -3   6    1.24    1.01
   7  -4  -6    8.36    1.13
   7  -4  -5   19.93    1.27
   7  -4  -4   14.60    1.26
   7  -4  -3    0.61    1.39
   7  -4  -2  146.13    1.90
   7  -4  -1    0.61    1.54
   7  -4   0    2.62    1.46
   7  -4   1    1.20    1.58
   7  -4   2   34.39    1.71
   7  -4   3   33.19    1.47
   7  -4   4    6.66    1.23
   7  -4   5    2.20    1.07
   7  -4   6    3.84    0.98
   7  -5  -6    1.78    1.06
   7  -5  -5    0.43    1.11
   7  -5  -4    1.68    1.23
   7  -5  -3  115.99    1.74
   7  -5  -2    8.50    1.51
   7  -5  -1    7.00    1.46
   7  -5   0    1.04    1.47
   7  -5   1  110.40    1.95
   7  -5   2    1.02    1.50
   7  -5   3   25.32    1.32
   7  -5   4    4.45    1.14
   7  -5   5    7.76    1.13
   7  -5   6    1.22    0.99
   7  -6  -5    0.99    1.05
   7  -6  -4    1.79    1.11
   7  -6  -3   -0.03    1.17
   7  -6  -2    6.90    1.37
   7  -6  -1    3.15    1.42
   7  -6   0    1.69    1.37
   7  -6   1    1.95    1.47
   7  -6   2   21.93    1.51
   7  -6   3    1.33    1.26
   7  -6   4    9.91    1.19
   7  -6   5    1.77    1.05
   7  -7  -5    0.91    1.09
   7  -7  -4    3.95    1.16
   7  -7  -3    9.51    1.22
   7  -7  -2   11.29    1.38
   7  -7  -1    1.25    1.26
   7  -7   0   27.15    1.38
   7  -7   1   14.49    1.31
   7  -7   2    2.52    1.22
   7  -7   3    5.04    1.22
   7  -7   4    5.81    1.12
   7  -7   5    0.15    1.00
   7  -8  -4    2.22    1.08
   7  -8  -3    1.20    1.18
   7  -8  -2   14.15    1.25
   7  -8  -1    1.80    1.16
   7  -8   0    0.85    1.18
   7  -8   1    2.32    1.17
   7  -8   2    6.77    1.20
   7  -8   3   -0.27    1.17
   7  -8   4    0.86    1.05
   7  -9  -3    1.50    1.15
   7  -9  -2   -1.32    1.07
   7  -9  -1    0.94    1.06
   7  -9   0    0.05    1.05
   7  -9   1    1.33    1.05
   7  -9   2    1.01    1.09
   7  -9   3    0.57    1.10
   7 -10  -1    1.09    1.06
   7 -10   0    1.22    1.01
   7 -10   1    1.13    0.99
   8   0  -7    0.28    0.99
   8   0  -6    0.45    1.03
   8   0  -5    1.50    1.14
   8   0  -4    1.58    1.37
   8   0  -3   -0.08    1.77
   8   0  -2   15.74    1.65
   8   0  -1    0.13    2.04
   8   0   0   61.13    1.88
   8   0   1    0.12    1.85
   8   0   2    6.91    1.50
   8   0   3    0.71    1.48
   8   0   4   72.35    1.66
   8   0   5    1.05    1.29
   8   0   6    4.00    1.13
   8   0   7   -0.64    1.12
   8  -1  -7    7.69    1.09
   8  -1  -6    1.64    1.06
   8  -1  -5   71.68    1.47
   8  -1  -4    3.98    1.32
   8  -1  -3   52.20    1.68
   8  -1  -2   35.55    1.74
   8  -1  -1  509.54    3.22
   8  -1   0   29.10    2.17
   8  -1   1   13.91    1.80
   8  -1   2   22.39    1.46
   8  -1   3   23.50    1.64
   8  -1   4   19.54    1.57
   8  -1   5    5.61    1.27
   8  -1   6   -0.17    1.06
   8  -1   7    0.78    1.06
   8  -2  -7    1.15    0.99
   8  -2  -6   15.95    1.21
   8  -2  -5   22.91    1.23
   8  -2  -4    1.57    1.37
   8  -2  -3   23.58    1.47
   8  -2  -2  229.36    2.29
   8  -2  -1   75.25    2.01
   8  -2   0   33.66    1.92
   8  -2   1    0.84    1.77
   8  -2   2   23.21    1.43
   8  -2   3   16.38    1.45
   8  -2   4    4.01    1.28
   8  -2   5    0.12    1.07
   8  -2   6    2.30    1.06
   8  -2   7    2.23    0.98
   8  -3  -6    0.80    1.04
   8  -3  -5   16.10    1.25
   8  -3  -4   -1.52    1.21
   8  -3  -3    0.03    1.42
   8  -3  -2    8.45    1.53
   8  -3  -1  100.47    1.84
   8  -3   0   31.08    1.67
   8  -3   1   31.19    1.66
   8  -3   2    2.52    1.53
   8  -3   3   12.46    1.30
   8  -3   4    1.05    1.23
   8  -3   5    6.01    1.13
   8  -3   6    2.79    0.99
   8  -4  -6    6.95    1.08
   8  -4  -5    1.60    1.04
   8  -4  -4   -0.08    1.14
   8  -4  -3    0.42    1.35
   8  -4  -2  115.83    1.83
   8  -4  -1    2.02    1.60
   8  -4   0    0.94    1.42
   8  -4   1    2.58    1.59
   8  -4   2   40.40    1.61
   8  -4   3    7.14    1.29
   8  -4   4   11.47    1.24
   8  -4   5    0.05    1.17
   8  -4   6    2.98    0.99
   8  -5  -6    1.15    1.08
   8  -5  -5    1.24    1.04
   8  -5  -4    3.33    1.15
   8  -5  -3   61.46    1.55
   8  -5  -2    4.76    1.38
   8  -5  -1   33.49    1.49
   8  -5   0    2.02    1.40
   8  -5   1   97.15    1.77
   8  -5   2    0.88    1.52
   8  -5   3   45.37    1.43
   8  -5   4    1.92    1.12
   8  -5   5    0.38    1.10
   8  -5   6    2.04    0.96
   8  -6  -5    0.69    1.05
   8  -6  -4   -0.01    1.09
   8  -6  -3    3.39    1.23
   8  -6  -2   11.21    1.33
   8  -6  -1    0.57    1.37
   8  -6   0    2.81    1.33
   8  -6   1    5.64    1.36
   8  -6   2   23.71    1.43
   8  -6   3    1.84    1.18
   8  -6   4   23.56    1.33
   8  -6   5    3.02    1.04
   8  -7  -5    3.69    1.10
   8  -7  -4    5.68    1.12
   8  -7  -3    3.69    1.19
   8  -7  -2    8.83    1.30
   8  -7  -1   13.02    1.25
   8  -7   0   33.56    1.31
   8  -7   1    4.23    1.17
   8  -7   2    1.53    1.23
   8  -7   3    2.45    1.22
   8  -7   4    2.67    1.07
   8  -7   5    0.00    1.07
   8  -8  -4    0.51    1.12
   8  -8  -3    1.04    1.11
   8  -8  -2    7.83    1.18
   8  -8  -1    1.92    1.12
   8  -8   0    1.85    1.12
   8  -8   1    4.89    1.11
   8  -8   2    9.75    1.21
   8  -8   3    1.17    1.13
   8  -8   4    0.13    1.03
   8  -9  -3    1.18    1.14
   8  -9  -2    1.98    1.04
   8  -9  -1    7.28    1.07
   8  -9   0    0.84    1.04
   8  -9   1    0.05    1.01
   8  -9   2    1.54    1.05
   8  -9   3    0.53    1.06
   8 -10   0    0.49    1.01
   9   0  -7   -0.24    0.98
   9   0  -6    6.20    1.10
   9   0  -5    0.49    1.11
   9   0  -4  306.20    2.29
   9   0  -3   -0.36    1.44
   9   0  -2   19.61    1.64
   9   0  -1    0.43    2.07
   9   0   0  347.22    2.63
   9   0   1   -0.01    1.82
   9   0   2   28.40    1.77
   9   0   3    0.06    1.43
   9   0   4   64.16    1.76
   9   0   5    0.77    1.28
   9   0   6    8.41    1.18
   9   0   7    1.55    1.11
   9  -1  -7    2.09    1.00
   9  -1  -6    1.31    1.05
   9  -1  -5    1.79    1.18
   9  -1  -4   36.98    1.51
   9  -1  -3    3.87    1.49
   9  -1  -2   22.85    1.53
   9  -1  -1  171.74    2.74
   9  -1   0  188.75    2.50
   9  -1   1    1.95    1.81
   9  -1   2    0.38    1.60
   9  -1   3   68.12    1.60
   9  -1   4    1.96    1.44
   9  -1   5    1.19    1.13
   9  -1   6    0.14    1.16
   9  -2  -7   -0.02    0.97
   9  -2  -6   18.36    1.23
   9  -2  -5    2.66    1.18
   9  -2  -4  139.41    1.82
   9  -2  -3   13.23    1.54
   9  -2  -2   83.94    1.83
   9  -2  -1   63.03    2.00
   9  -2   0   89.78    2.20
   9  -2   1    4.38    1.72
   9  -2   2    6.75    1.69
   9  -2   3   28.33    1.47
   9  -2   4    7.01    1.35
   9  -2   5    1.17    1.18
   9  -2   6    1.62    1.06
   9  -3  -6    1.82    1.00
   9  -3  -5    7.10    1.13
   9  -3  -4   11.05    1.25
   9  -3  -3   21.56    1.65
   9  -3  -2    0.07    1.56
   9  -3  -1   44.20    1.73
   9  -3   0    2.58    1.60
   9  -3   1   32.11    1.79
   9  -3   2    1.99    1.57
   9  -3   3    8.93    1.36
   9  -3   4   24.39    1.27
   9  -3   5   11.74    1.17
   9  -3   6    1.25    1.02
   9  -4  -6    1.28    1.00
   9  -4  -5    5.05    1.07
   9  -4  -4   13.53    1.22
   9  -4  -3    4.19    1.35
   9  -4  -2   29.36    1.64
   9  -4  -1    4.89    1.55
   9  -4   0   29.08    1.71
   9  -4   1    6.10    1.59
   9  -4   2   16.95    1.60
   9  -4   3   12.12    1.34
   9  -4   4    8.60    1.21
   9  -4   5    1.01    1.01
   9  -4   6    0.15    1.02
   9  -5  -6    0.61    1.04
   9  -5  -5    5.35    1.07
   9  -5  -4    1.00    1.18
   9  -5  -3   27.69    1.41
   9  -5  -2   -0.17    1.31
   9  -5  -1   52.38    1.57
   9  -5   0    1.21    1.25
   9  -5   1   33.00    1.57
   9  -5   2    1.56    1.39
   9  -5   3   34.12    1.36
   9  -5   4    5.00    1.11
   9  -5   5    3.32    1.02
   9  -5   6    1.02    0.97
   9  -6  -5    0.10    1.06
   9  -6  -4    0.50    1.14
   9  -6  -3    1.03    1.19
   9  -6  -2    7.50    1.30
   9  -6  -1    3.06    1.38
   9  -6   0   26.28    1.45
   9  -6   1    7.91    1.38
   9  -6   2    7.48    1.33
   9  -6   3    0.66    1.17
   9  -6   4    9.58    1.14
   9  -6   5    1.08    0.98
   9  -7  -5    2.24    1.07
   9  -7  -4    1.42    1.14
   9  -7  -3    1.13    1.16
   9  -7  -2    6.81    1.29
   9  -7  -1    9.91    1.31
   9  -7   0   17.77    1.32
   9  -7   1    0.44    1.14
   9  -7   2    1.44    1.22
   9  -7   3    4.42    1.21
   9  -7   4    1.76    1.07
   9  -8  -4    2.76    1.13
   9  -8  -3    0.62    1.07
   9  -8  -2    7.09    1.21
   9  -8  -1    1.55    1.14
   9  -8   0   15.28    1.27
   9  -8   1    5.02    1.13
   9  -8   2    6.87    1.21
   9  -8   3    0.88    1.15
   9  -8   4    0.32    1.13
   9  -9  -2    1.57    1.11
   9  -9  -1    2.21    1.07
   9  -9   0    1.25    1.04
   9  -9   1    1.63    1.04
   9  -9   2    1.05    1.06
  10   0  -7   -1.56    0.98
  10   0  -6    0.79    1.06
  10   0  -5    2.43    1.11
  10   0  -4    2.92    1.26
  10   0  -3    0.97    1.52
  10   0  -2    1.40    1.54
  10   0  -1    0.09    2.22
  10   0   0  144.25    2.10
  10   0   1    0.23    1.72
  10   0   2  111.04    2.08
  10   0   3    0.37    1.57
  10   0   4   98.62    1.87
  10   0   5   -0.65    1.30
  10   0   6   16.14    1.38
  10  -1  -6    0.12    0.99
  10  -1  -5    5.14    1.21
  10  -1  -4   14.56    1.52
  10  -1  -3   91.92    1.84
  10  -1  -2    9.67    1.59
  10  -1  -1  113.83    2.34
  10  -1   0   57.66    2.09
  10  -1   1   55.32    2.07
  10  -1   2    7.12    1.61
  10  -1   3   39.06    1.63
  10  -1   4    1.60    1.33
  10  -1   5    6.58    1.22
  10  -1   6    1.02    1.04
  10  -2  -6    7.49    1.19
  10  -2  -5    1.34    1.17
  10  -2  -4    8.54    1.24
  10  -2  -3   54.35    1.76
  10  -2  -2   20.45    1.69
  10  -2  -1   40.51    1.94
  10  -2   0   24.63    1.90
  10  -2   1   79.99    2.06
  10  -2   2    0.48    1.58
  10  -2   3   28.96    1.55
  10  -2   4   15.78    1.29
  10  -2   5    4.51    1.17
  10  -2   6    1.50    1.05
  10  -3  -6    1.30    1.00
  10  -3  -5    3.13    1.13
  10  -3  -4    0.34    1.17
  10  -3  -3  219.72    2.21
  10  -3  -2    0.46    1.54
  10  -3  -1    0.29    1.60
  10  -3   0   13.63    1.61
  10  -3   1  142.23    2.09
  10  -3   2    7.06    1.52
  10  -3   3    1.08    1.26
  10  -3   4   11.08    1.21
  10  -3   5    6.25    1.06
  10  -3   6    0.75    1.05
  10  -4  -6    2.19    1.00
  10  -4  -5    3.38    1.10
  10  -4  -4   11.04    1.34
  10  -4  -3   55.86    1.60
  10  -4  -2    3.91    1.40
  10  -4  -1    3.17    1.47
  10  -4   0   18.39    1.56
  10  -4   1   37.30    1.75
  10  -4   2    2.00    1.49
  10  -4   3   14.21    1.27
  10  -4   4    6.64    1.17
  10  -4   5    0.62    1.01
  10  -4   6    2.41    1.04
  10  -5  -5    3.72    1.13
  10  -5  -4    0.50    1.18
  10  -5  -3    4.47    1.28
  10  -5  -2    2.24    1.38
  10  -5  -1   37.72    1.52
  10  -5   0   11.73    1.54
  10  -5   1    5.89    1.47
  10  -5   2    0.62    1.35
  10  -5   3   16.33    1.26
  10  -5   4    2.47    1.08
  10  -5   5    1.13    0.99
  10  -6  -5    0.30    1.14
  10  -6  -4    3.22    1.23
  10  -6  -3    1.13    1.16
  10  -6  -2    0.44    1.23
  10  -6  -1    6.47    1.22
  10  -6   0   25.96    1.43
  10  -6   1    2.21    1.30
  10  -6   2    1.54    1.29
  10  -6   3    1.58    1.21
  10  -6   4    5.39    1.07
  10  -6   5   -0.16    0.99
  10  -7  -4    3.72    1.10
  10  -7  -3    4.09    1.16
  10  -7  -2    0.52    1.12
  10  -7  -1   13.93    1.35
  10  -7   0   10.26    1.23
  10  -7   1   26.10    1.33
  10  -7   2    1.02    1.25
  10  -7   3    2.01    1.09
  10  -7   4    1.08    1.08
  10  -8  -3    1.08    1.12
  10  -8  -2    1.25    1.06
  10  -8  -1   -0.62    1.06
  10  -8   0    8.02    1.15
  10  -8   1    1.00    1.04
  10  -8   2    1.65    1.04
  10  -8   3    0.17    1.14
  10  -9  -2    0.84    1.06
  10  -9  -1    2.90    1.03
  10  -9   0    0.81    1.02
  10  -9   1   11.27    1.14
  10  -9   2    1.42    1.04
  11   0  -6    0.37    1.05
  11   0  -5   -0.11    1.09
  11   0  -4    0.25    1.21
  11   0  -3    1.03    1.45
  11   0  -2    0.99    1.58
  11   0  -1    0.41    1.33
  11   0   0  129.90    1.95
  11   0   1   -0.37    1.81
  11   0   2  156.89    2.33
  11   0   3    0.04    1.54
  11   0   4   54.07    1.73
  11   0   5    0.94    1.14
  11   0   6   14.55    1.43
  11  -1  -6    1.42    1.00
  11  -1  -5    3.99    1.22
  11  -1  -4   30.35    1.52
  11  -1  -3    9.18    1.50
  11  -1  -2    4.92    1.54
  11  -1  -1   65.73    1.86
  11  -1   0   36.50    1.92
  11  -1   1   45.41    2.05
  11  -1   2   12.65    1.69
  11  -1   3    6.13    1.44
  11  -1   4    1.11    1.20
  11  -1   5    8.75    1.14
  11  -1   6    1.06    1.04
  11  -2  -6    0.41    1.01
  11  -2  -5    0.09    1.07
  11  -2  -4    6.18    1.23
  11  -2  -3    5.36    1.43
  11  -2  -2    3.03    1.58
  11  -2  -1   20.66    1.89
  11  -2   0    9.39    1.76
  11  -2   1    9.92    1.66
  11  -2   2   23.52    1.77
  11  -2   3   26.28    1.52
  11  -2   4   10.62    1.13
  11  -2   5    3.02    1.19
  11  -2   6    1.32    1.02
  11  -3  -6    1.99    1.06
  11  -3  -5    0.98    1.07
  11  -3  -4    1.08    1.12
  11  -3  -3   63.78    1.64
  11  -3  -2   22.37    1.63
  11  -3  -1    2.51    1.64
  11  -3   0   32.64    1.76
  11  -3   1   64.23    1.89
  11  -3   2    9.39    1.48
  11  -3   3    3.44    1.26
  11  -3   4    5.15    1.17
  11  -3   5    7.54    1.07
  11  -3   6    1.25    1.08
  11  -4  -6    2.00    1.05
  11  -4  -5    2.10    1.04
  11  -4  -4   15.14    1.31
  11  -4  -3    0.38    1.24
  11  -4  -2  131.23    1.99
  11  -4  -1    1.24    1.47
  11  -4   0    4.75    1.44
  11  -4   1    9.90    1.55
  11  -4   2   48.20    1.75
  11  -4   3   10.11    1.16
  11  -4   4    2.38    1.18
  11  -4   5   -0.04    1.04
  11  -4   6    1.24    0.97
  11  -5  -5    3.59    1.10
  11  -5  -4    1.28    1.20
  11  -5  -3    0.30    1.21
  11  -5  -2    1.88    1.33
  11  -5  -1   17.57    1.43
  11  -5   0   43.49    1.53
  11  -5   1    6.84    1.50
  11  -5   2    1.64    1.43
  11  -5   3    2.68    1.26
  11  -5   4    1.94    1.08
  11  -5   5    0.92    0.99
  11  -6  -5    2.26    1.16
  11  -6  -4    7.29    1.20
  11  -6  -3    1.35    1.19
  11  -6  -2   78.71    1.63
  11  -6  -1   13.38    1.31
  11  -6   0   22.44    1.36
  11  -6   1    0.52    1.26
  11  -6   2   39.05    1.53
  11  -6   3    1.42    1.21
  11  -6   4    1.07    1.10
  11  -6   5    1.06    0.98
  11  -7  -4    1.12    1.16
  11  -7  -3    2.51    1.12
  11  -7  -2    1.16    1.14
  11  -7  -1    0.71    1.13
  11  -7   0    1.21    1.13
  11  -7   1   17.51    1.21
  11  -7   2    0.20    1.20
  11  -7   3    0.93    1.12
  11  -7   4    1.19    1.03
  11  -8  -3   -0.18    1.07
  11  -8  -2    3.95    1.18
  11  -8  -1    2.10    1.17
  11  -8   0    5.84    1.16
  11  -8   1    0.99    1.11
  11  -8   2    1.16    1.17
  11  -8   3    1.58    1.05
  11  -9  -2   -0.31    0.97
  11  -9  -1    1.85    1.10
  11  -9   0    1.11    1.01
  11  -9   1    5.29    1.12
  12   0  -6    2.65    1.02
  12   0  -5    0.16    1.06
  12   0  -4    2.41    1.24
  12   0  -3    1.37    1.33
  12   0  -2   57.80    1.99
  12   0  -1    1.39    1.33
  12   0   0   22.37    1.48
  12   0   1   -0.18    1.95
  12   0   2  198.54    2.48
  12   0   3    0.41    1.44
  12   0   4   15.66    1.29
  12   0   5    1.29    1.38
  12   0   6    6.86    1.06
  12  -1  -6    1.38    1.04
  12  -1  -5    2.74    1.12
  12  -1  -4   18.62    1.33
  12  -1  -3    8.24    1.40
  12  -1  -2    1.61    1.54
  12  -1  -1   51.51    1.81
  12  -1   0   12.68    1.39
  12  -1   1   43.71    1.95
  12  -1   2    7.66    1.61
  12  -1   3   13.03    1.54
  12  -1   4    0.97    1.22
  12  -1   5    3.95    1.15
  12  -1   6    0.59    1.10
  12  -2  -6    0.47    0.99
  12  -2  -5   -0.32    1.08
  12  -2  -4    5.69    1.22
  12  -2  -3    1.69    1.38
  12  -2  -2    8.16    1.64
  12  -2  -1    0.99    1.63
  12  -2   0    1.16    1.66
  12  -2   1    2.35    1.61
  12  -2   2   16.41    1.61
  12  -2   3    3.93    1.44
  12  -2   4    2.75    1.22
  12  -2   5    2.74    1.20
  12  -2   6    0.69    1.07
  12  -3  -6    1.62    0.99
  12  -3  -5    3.65    1.09
  12  -3  -4    1.26    1.16
  12  -3  -3   71.44    1.68
  12  -3  -2   10.76    1.52
  12  -3  -1  144.66    2.18
  12  -3   0   22.30    1.66
  12  -3   1   39.45    1.76
  12  -3   2    2.82    1.58
  12  -3   3   60.88    1.47
  12  -3   4    3.10    1.08
  12  -3   5    4.14    1.12
  12  -3   6    0.41    1.00
  12  -4  -5    1.90    1.06
  12  -4  -4   10.62    1.17
  12  -4  -3    0.54    1.27
  12  -4  -2   10.02    1.49
  12  -4  -1   20.91    1.48
  12  -4   0    4.76    1.45
  12  -4   1    2.60    1.44
  12  -4   2   26.41    1.62
  12  -4   3   24.81    1.31
  12  -4   4    1.11    1.12
  12  -4   5    1.27    1.02
  12  -5  -5    1.64    1.14
  12  -5  -4    0.52    1.22
  12  -5  -3    6.07    1.27
  12  -5  -2    4.86    1.27
  12  -5  -1   63.73    1.59
  12  -5   0   22.50    1.46
  12  -5   1    4.40    1.25
  12  -5   2    0.74    1.37
  12  -5   3   18.37    1.35
  12  -5   4    2.16    1.09
  12  -5   5   -0.20    1.05
  12  -6  -5    2.20    1.16
  12  -6  -4    2.67    1.14
  12  -6  -3    1.55    1.20
  12  -6  -2    6.62    1.21
  12  -6  -1    5.21    1.14
  12  -6   0    8.90    1.22
  12  -6   1    3.80    1.28
  12  -6   2   32.75    1.38
  12  -6   3   -0.01    1.12
  12  -6   4    0.20    1.04
  12  -7  -4    0.95    1.18
  12  -7  -3    2.89    1.19
  12  -7  -2    0.49    1.12
  12  -7  -1   29.69    1.45
  12  -7   0    0.67    1.11
  12  -7   1    6.35    1.25
  12  -7   2    0.26    1.16
  12  -7   3    5.27    1.16
  12  -7   4   -0.04    1.07
  12  -8  -3    0.64    1.06
  12  -8  -2    0.54    1.06
  12  -8  -1    2.31    1.14
  12  -8   0   -0.11    0.91
  12  -8   1    0.40    1.03
  12  -8   2    0.34    1.08
  12  -8   3    1.46    1.05
  12  -9  -1    7.00    1.16
  12  -9   0    2.09    1.01
  13   0  -6    4.67    1.05
  13   0  -5    0.59    1.11
  13   0  -4    0.68    1.18
  13   0  -3   -0.02    1.32
  13   0  -2   81.46    2.17
  13   0  -1    0.70    1.35
  13   0   0   30.28    1.41
  13   0   1   -0.25    1.80
  13   0   2  164.49    2.40
  13   0   3    0.58    1.41
  13   0   4   11.75    1.31
  13   0   5    0.69    1.25
  13   0   6    1.91    1.10
  13  -1  -6    0.53    1.04
  13  -1  -5    3.42    1.12
  13  -1  -4   22.36    1.36
  13  -1  -3    7.65    1.36
  13  -1  -2    0.08    1.67
  13  -1  -1    3.37    1.37
  13  -1   0   70.33    1.72
  13  -1   1    1.27    1.74
  13  -1   2    7.66    1.59
  13  -1   3   27.62    1.58
  13  -1   4    4.23    1.22
  13  -1   5    0.08    1.12
  13  -1   6    0.28    1.12
  13  -2  -6    1.39    0.99
  13  -2  -5    0.62    1.06
  13  -2  -4    0.04    1.24
  13  -2  -3    0.23    1.31
  13  -2  -2   19.81    1.82
  13  -2  -1    7.45    1.59
  13  -2   0   85.43    1.98
  13  -2   1    8.62    1.70
  13  -2   2   13.29    1.71
  13  -2   3    2.26    1.35
  13  -2   4   12.61    1.27
  13  -2   5    3.13    1.14
  13  -2   6    0.04    1.07
  13  -3  -6    0.40    1.01
  13  -3  -5    4.03    1.09
  13  -3  -4    3.13    1.19
  13  -3  -3   32.47    1.57
  13  -3  -2   10.94    1.63
  13  -3  -1   41.94    1.77
  13  -3   0   31.59    1.72
  13  -3   1    6.70    1.53
  13  -3   2    7.32    1.55
  13  -3   3   37.88    1.45
  13  -3   4    1.42    1.17
  13  -3   5    0.86    1.20
  13  -4  -5    0.98    1.22
  13  -4  -4    0.69    1.28
  13  -4  -3    2.24    1.28
  13  -4  -2   26.14    1.44
  13  -4  -1    9.68    1.49
  13  -4   0   53.20    1.66
  13  -4   1    3.62    1.51
  13  -4   2   23.66    1.52
  13  -4   3   12.17    1.34
  13  -4   4   11.80    1.27
  13  -4   5    0.58    0.97
  13  -5  -5    0.30    1.16
  13  -5  -4    1.31    1.20
  13  -5  -3    3.12    1.26
  13  -5  -2    8.78    1.36
  13  -5  -1    1.29    1.20
  13  -5   0    2.14    1.27
  13  -5   1    3.71    1.40
  13  -5   2    1.16    1.36
  13  -5   3    9.50    1.28
  13  -5   4    0.84    1.11
  13  -5   5   -0.25    0.97
  13  -6  -4    1.37    1.09
  13  -6  -3    1.23    1.09
  13  -6  -2    7.83    1.22
  13  -6  -1    1.05    1.13
  13  -6   0    8.60    1.13
  13  -6   1    1.56    1.21
  13  -6   2   20.74    1.42
  13  -6   3    0.48    1.12
  13  -6   4    4.86    1.13
  13  -7  -4    0.58    1.23
  13  -7  -3    2.70    1.09
  13  -7  -2    0.72    1.07
  13  -7  -1    4.82    1.08
  13  -7   0    2.30    1.06
  13  -7   1    3.55    1.16
  13  -7   2    0.33    1.15
  13  -7   3    5.09    1.14
  13  -8  -2    0.85    1.13
  13  -8  -1    0.07    1.12
  13  -8   0    4.50    1.07
  13  -8   1    1.22    1.08
  13  -8   2    1.07    1.08
  14   0  -6    6.85    1.13
  14   0  -5    0.37    1.10
  14   0  -4   18.84    1.14
  14   0  -3   -0.67    1.23
  14   0  -2   72.54    2.17
  14   0  -1    0.92    1.34
  14   0   0   16.55    1.61
  14   0   1    2.58    1.60
  14   0   2   53.96    1.97
  14   0   3    0.63    1.56
  14   0   4   15.44    1.39
  14   0   5    0.12    1.15
  14  -1  -6   -0.25    1.06
  14  -1  -5    6.01    1.15
  14  -1  -4    1.76    1.21
  14  -1  -3    2.59    1.37
  14  -1  -2    0.66    1.64
  14  -1  -1   13.84    1.39
  14  -1   0   -0.49    1.38
  14  -1   1  230.79    2.51
  14  -1   2    0.73    1.70
  14  -1   3   15.47    1.41
  14  -1   4    3.49    1.22
  14  -1   5   12.98    1.36
  14  -2  -6    2.19    1.03
  14  -2  -5   -0.47    1.15
  14  -2  -4    8.12    1.18
  14  -2  -3    2.17    1.29
  14  -2  -2    4.51    1.53
  14  -2  -1    2.62    1.44
  14  -2   0   13.79    1.65
  14  -2   1    1.61    1.66
  14  -2   2    0.20    1.63
  14  -2   3    1.62    1.29
  14  -2   4    5.71    1.20
  14  -2   5    1.44    1.16
  14  -3  -5   12.86    1.21
  14  -3  -4    5.47    1.18
  14  -3  -3    1.95    1.33
  14  -3  -2    8.17    1.59
  14  -3  -1   62.06    1.87
  14  -3   0   16.76    1.50
  14  -3   1   43.34    1.71
  14  -3   2   -0.22    1.45
  14  -3   3   28.26    1.40
  14  -3   4    0.59    1.12
  14  -3   5    1.66    1.05
  14  -4  -5    0.88    1.09
  14  -4  -4    0.31    1.23
  14  -4  -3    7.12    1.35
  14  -4  -2    7.56    1.32
  14  -4  -1    9.27    1.39
  14  -4   0    2.71    1.39
  14  -4   1   15.14    1.41
  14  -4   2    0.76    1.48
  14  -4   3    2.37    1.16
  14  -4   4    6.03    1.15
  14  -4   5    0.49    0.96
  14  -5  -5   -0.48    1.10
  14  -5  -4    2.65    1.25
  14  -5  -3    0.64    1.31
  14  -5  -2    4.24    1.23
  14  -5  -1    0.79    1.25
  14  -5   0    4.01    1.25
  14  -5   1    1.57    1.28
  14  -5   2    0.97    1.41
  14  -5   3    7.36    1.24
  14  -5   4    2.12    1.21
  14  -6  -4    1.05    1.26
  14  -6  -3    0.99    1.13
  14  -6  -2   10.59    1.19
  14  -6  -1    1.93    1.13
  14  -6   0    1.44    1.27
  14  -6   1    4.91    1.22
  14  -6   2    8.44    1.34
  14  -6   3    0.19    1.10
  14  -6   4    4.39    1.15
  14  -7  -3    0.57    1.06
  14  -7  -2    0.89    1.06
  14  -7  -1    2.36    1.07
  14  -7   0   -0.60    1.04
  14  -7   1    0.10    1.16
  14  -7   2    0.98    1.20
  14  -7   3    2.27    1.13
  14  -8  -2    0.42    1.02
  14  -8  -1    0.51    1.09
  14  -8   0    3.37    1.08
  14  -8   1    2.63    1.06
  15   0  -5    0.10    1.03
  15   0  -4   21.86    1.38
  15   0  -3    0.16    1.30
  15   0  -2    7.82    1.21
  15   0  -1    0.84    1.21
  15   0   0   27.71    1.39
  15   0   1    0.10    1.24
  15   0   2   40.28    1.91
  15   0   3    0.14    1.35
  15   0   4    6.66    1.35
  15   0   5    0.70    0.97
  15  -1  -5    4.33    1.14
  15  -1  -4    1.74    1.16
  15  -1  -3    0.22    1.26
  15  -1  -2    2.58    1.50
  15  -1  -1   10.26    1.22
  15  -1   0   -0.08    1.20
  15  -1   1   13.05    1.43
  15  -1   2    1.88    1.47
  15  -1   3   10.86    1.42
  15  -1   4    3.59    1.19
  15  -1   5    6.99    1.17
  15  -2  -5    1.07    1.07
  15  -2  -4   19.63    1.32
  15  -2  -3    7.45    1.32
  15  -2  -2    5.90    1.56
  15  -2  -1    1.06    1.34
  15  -2   0   12.23    1.47
  15  -2   1   32.96    1.53
  15  -2   2   82.13    2.05
  15  -2   3    0.47    1.39
  15  -2   4    1.37    1.13
  15  -2   5    1.44    1.08
  15  -3  -5   14.49    1.28
  15  -3  -4    3.43    1.23
  15  -3  -3    2.52    1.33
  15  -3  -2    1.97    1.43
  15  -3  -1   18.71    1.55
  15  -3   0   12.63    1.39
  15  -3   1    6.17    1.48
  15  -3   2    5.04    1.46
  15  -3   3    3.48    1.14
  15  -3   4    1.12    1.07
  15  -3   5    1.55    1.11
  15  -4  -5   -0.42    1.16
  15  -4  -4    5.92    1.28
  15  -4  -3   -0.08    1.31
  15  -4  -2    2.09    1.23
  15  -4  -1   19.69    1.49
  15  -4   0    6.64    1.38
  15  -4   1    2.98    1.34
  15  -4   2    2.74    1.41
  15  -4   3    3.62    1.21
  15  -4   4    3.62    1.19
  15  -5  -4    1.11    1.16
  15  -5  -3    1.96    1.24
  15  -5  -2    3.12    1.23
  15  -5  -1    0.65    1.25
  15  -5   0    6.53    1.25
  15  -5   1    4.40    1.27
  15  -5   2    2.08    1.33
  15  -5   3    0.88    1.14
  15  -5   4    1.09    1.10
  15  -6  -3    0.28    1.06
  15  -6  -2    2.99    1.16
  15  -6  -1    0.94    1.15
  15  -6   0    7.36    1.23
  15  -6   1    1.21    1.19
  15  -6   2    1.36    1.22
  15  -6   3    1.25    1.12
  15  -7  -2    0.96    1.08
  15  -7  -1    5.65    1.23
  15  -7   0    0.31    1.12
  15  -7   1    0.67    1.14
  15  -7   2    1.04    1.18
  15  -8   0    3.22    1.06
  16   0  -5   -0.18    1.05
  16   0  -4   17.15    1.37
  16   0  -3   -0.45    1.33
  16   0  -2   52.13    1.37
  16   0  -1    0.33    1.11
  16   0   0   32.93    1.68
  16   0   1    0.65    1.14
  16   0   2    4.82    1.73
  16   0   3    0.88    1.31
  16   0   4    8.55    1.42
  16   0   5   -0.89    1.07
  16  -1  -5    3.04    1.06
  16  -1  -4    0.19    1.10
  16  -1  -3   10.02    1.43
  16  -1  -2    1.92    1.10
  16  -1  -1    3.60    1.13
  16  -1   0    0.79    1.13
  16  -1   1   13.46    1.18
  16  -1   2    0.54    1.60
  16  -1   3    4.43    1.31
  16  -1   4    3.07    1.28
  16  -1   5    3.12    1.22
  16  -2  -5    1.32    1.08
  16  -2  -4   16.01    1.31
  16  -2  -3    2.92    1.38
  16  -2  -2    1.29    1.24
  16  -2  -1    2.34    1.24
  16  -2   0    4.30    1.13
  16  -2   1   18.19    1.40
  16  -2   2   10.37    1.61
  16  -2   3   13.30    1.53
  16  -2   4    1.22    1.22
  16  -2   5    1.21    1.11
  16  -3  -5    7.60    1.23
  16  -3  -4    1.80    1.21
  16  -3  -3   16.99    1.50
  16  -3  -2    2.06    1.32
  16  -3  -1    0.97    1.27
  16  -3   0    2.45    1.34
  16  -3   1    7.61    1.49
  16  -3   2    0.60    1.56
  16  -3   3    1.40    1.26
  16  -3   4    0.29    1.13
  16  -4  -4    6.67    1.27
  16  -4  -3    1.48    1.26
  16  -4  -2    5.00    1.34
  16  -4  -1   25.50    1.59
  16  -4   0    2.38    1.29
  16  -4   1    2.28    1.33
  16  -4   2    8.16    1.46
  16  -4   3    7.55    1.33
  16  -4   4    1.63    1.09
  16  -5  -4    0.35    1.09
  16  -5  -3    4.26    1.30
  16  -5  -2    2.90    1.23
  16  -5  -1    0.38    1.23
  16  -5   0    0.96    1.19
  16  -5   1   10.02    1.36
  16  -5   2    1.83    1.41
  16  -5   3    4.80    1.26
  16  -5   4    0.85    1.27
  16  -6  -3   -0.13    1.18
  16  -6  -2   -0.13    1.08
  16  -6  -1    1.32    1.15
  16  -6   0    4.94    1.20
  16  -6   1    0.96    1.18
  16  -6   2   -0.12    1.23
  16  -6   3    1.06    1.14
  16  -7  -2    0.94    1.11
  16  -7  -1    1.59    1.16
  16  -7   0    0.91    1.07
  16  -7   1    2.69    1.13
  16  -7   2    0.92    1.37
  17   0  -5    0.45    1.05
  17   0  -4    5.14    1.24
  17   0  -3   -0.12    1.43
  17   0  -2    3.79    1.09
  17   0  -1    0.18    1.12
  17   0   0    8.93    1.27
  17   0   1   -0.62    1.07
  17   0   2    0.77    1.57
  17   0   3    0.18    1.55
  17   0   4    1.17    1.23
  17  -1  -5    7.53    1.17
  17  -1  -4    0.48    1.12
  17  -1  -3   11.63    1.54
  17  -1  -2    1.63    1.07
  17  -1  -1    1.17    1.21
  17  -1   0    4.45    1.11
  17  -1   1   20.04    1.42
  17  -1   2    1.12    1.74
  17  -1   3    0.43    1.42
  17  -1   4    4.09    1.35
  17  -2  -5    0.39    1.04
  17  -2  -4    6.04    1.29
  17  -2  -3    0.52    1.37
  17  -2  -2   16.25    1.48
  17  -2  -1    1.59    1.08
  17  -2   0    1.78    1.16
  17  -2   1   20.71    1.56
  17  -2   2   15.68    1.80
  17  -2   3    0.85    1.35
  17  -2   4    1.30    1.21
  17  -3  -4    2.09    1.18
  17  -3  -3   21.09    1.44
  17  -3  -2   -0.52    1.19
  17  -3  -1    0.06    1.28
  17  -3   0    1.64    1.33
  17  -3   1    7.16    1.31
  17  -3   2    2.26    1.43
  17  -3   3    0.52    1.37
  17  -3   4    1.86    1.16
  17  -4  -4    4.21    1.30
  17  -4  -3    5.24    1.34
  17  -4  -2   14.47    1.46
  17  -4  -1    1.31    1.31
  17  -4   0    0.32    1.23
  17  -4   1    1.86    1.38
  17  -4   2    6.76    1.52
  17  -4   3    1.94    1.18
  17  -4   4    4.69    1.22
  17  -5  -3    6.17    1.31
  17  -5  -2    1.29    1.16
  17  -5  -1    4.45    1.26
  17  -5   0    0.58    1.15
  17  -5   1    5.12    1.28
  17  -5   2    2.59    1.38
  17  -5   3    4.69    1.27
  17  -6  -2    2.49    1.10
  17  -6  -1    1.80    1.13
  17  -6   0    0.47    1.12
  17  -6   1    0.77    1.16
  17  -6   2    2.25    1.26
  17  -7  -1    1.14    1.17
  17  -7   0    0.09    1.11
  18   0  -4    2.73    1.23
  18   0  -3    1.80    0.96
  18   0  -2    3.27    1.02
  18   0  -1   -0.41    1.04
  18   0   0    1.57    1.07
  18   0   1    1.64    1.36
  18   0   2    2.99    1.23
  18   0   3    0.09    1.49
  18   0   4    0.25    1.24
  18  -1  -4    0.61    1.16
  18  -1  -3    4.96    1.31
  18  -1  -2    0.68    1.05
  18  -1  -1    5.88    1.13
  18  -1   0    0.51    1.16
  18  -1   1    8.51    1.20
  18  -1   2    0.49    1.49
  18  -1   3    7.66    1.68
  18  -1   4    0.87    1.29
  18  -2  -4    2.46    1.20
  18  -2  -3    1.24    1.20
  18  -2  -2   21.14    1.16
  18  -2  -1    0.35    1.03
  18  -2   0   10.03    1.13
  18  -2   1    5.42    1.12
  18  -2   2   11.55    1.63
  18  -2   3    1.48    1.35
  18  -2   4    1.77    1.24
  18  -3  -4    1.27    1.16
  18  -3  -3   11.39    1.45
  18  -3  -2    2.21    1.13
  18  -3  -1    5.61    1.36
  18  -3   0    4.57    1.13
  18  -3   1   -0.37    1.18
  18  -3   2    0.34    1.48
  18  -3   3    1.05    1.36
  18  -3   4    0.70    1.19
  18  -4  -3    4.47    1.18
  18  -4  -2   14.16    1.40
  18  -4  -1    1.13    1.11
  18  -4   0    1.28    1.21
  18  -4   1    1.74    1.43
  18  -4   2    6.54    1.62
  18  -4   3    2.03    1.47
  18  -5  -3    4.17    1.25
  18  -5  -2    1.10    1.17
  18  -5  -1   10.15    1.29
  18  -5   0    0.93    1.15
  18  -5   1    0.43    1.21
  18  -5   2    0.74    1.25
  18  -6  -2    3.18    1.20
  18  -6  -1    1.45    1.14
  18  -6   0    2.06    1.22
  18  -6   1    0.92    1.19
  19   0  -4    1.65    1.26
  19   0  -3    2.30    0.95
  19   0  -2    1.42    1.05
  19   0  -1   -0.23    1.01
  19   0   0    7.61    1.10
  19   0   1    3.03    1.30
  19   0   2    0.23    1.02
  19   0   3    0.33    1.74
  19   0   4    2.75    1.39
  19  -1  -4    0.44    1.05
  19  -1  -3    0.60    0.93
  19  -1  -2    2.66    1.01
  19  -1  -1   15.13    1.21
  19  -1   0    1.38    1.03
  19  -1   1    4.41    1.19
  19  -1   2    1.09    1.21
  19  -1   3    1.31    1.80
  19  -1   4    0.85    1.28
  19  -2  -4    2.83    1.26
  19  -2  -3    1.43    1.16
  19  -2  -2   11.97    1.17
  19  -2  -1    0.67    1.02
  19  -2   0   25.58    1.32
  19  -2   1    2.66    1.17
  19  -2   2    1.24    1.53
  19  -2   3   -0.43    1.50
  19  -3  -3    1.36    1.19
  19  -3  -2    2.29    1.29
  19  -3  -1    6.49    1.05
  19  -3   0   -0.58    1.11
  19  -3   1    1.27    1.22
  19  -3   2    0.90    1.25
  19  -3   3    1.63    1.41
  19  -4  -3    5.78    1.31
  19  -4  -2    7.28    1.14
  19  -4  -1   -0.26    0.93
  19  -4   0    5.52    1.28
  19  -4   1    1.76    1.18
  19  -4   2    0.34    1.48
  19  -5  -2    0.77    1.12
  19  -5  -1    7.09    1.15
  19  -5   0    0.32    1.08
  19  -5   1    0.52    1.30
  19  -5   2    0.61    1.25
  20   0  -3   -1.40    0.94
  20   0  -2    2.52    0.98
  20   0  -1    0.22    1.03
  20   0   0   10.45    1.08
  20   0   1   -0.08    1.02
  20   0   2    1.10    1.21
  20   0   3    0.58    2.50
  20  -1  -3    2.66    1.04
  20  -1  -2    1.93    0.98
  20  -1  -1    9.07    1.10
  20  -1   0    1.98    1.01
  20  -1   1    8.72    1.17
  20  -1   2    2.28    1.23
  20  -1   3   -0.02    2.00
  20  -2  -3    0.56    0.90
  20  -2  -2   -0.28    0.96
  20  -2  -1    0.22    0.98
  20  -2   0   23.51    1.26
  20  -2   1    0.12    1.22
  20  -2   2    0.08    1.19
  20  -2   3    0.37    1.69
  20  -3  -3    1.23    1.15
  20  -3  -2   -0.32    1.06
  20  -3  -1    1.52    0.99
  20  -3   0   -0.01    0.98
  20  -3   1    4.79    1.08
  20  -3   2    1.07    1.43
  20  -4  -2    1.93    1.10
  20  -4  -1    1.42    1.15
  20  -4   0    5.81    1.12
  20  -4   1    1.08    1.29
  20  -4   2    0.53    1.21
  20  -5   0    0.49    1.11
  21   0  -3    0.86    0.92
  21   0  -2    0.86    0.99
  21   0  -1   -0.11    1.24
  21   0   0    7.21    1.31
  21   0   1    1.86    0.98
  21   0   2    0.93    1.24
  21  -1  -3    2.24    0.97
  21  -1  -2    1.00    0.96
  21  -1  -1    2.30    0.94
  21  -1   0    1.34    0.95
  21  -1   1    9.68    1.11
  21  -1   2    2.15    1.17
  21  -2  -2    0.76    0.96
  21  -2  -1    1.59    1.00
  21  -2   0   12.85    1.13
  21  -2   1    0.32    1.04
  21  -2   2    1.20    1.20
  21  -3  -2    1.17    0.93
  21  -3  -1    4.81    1.00
  21  -3   0    0.79    1.08
  21  -3   1    4.67    1.14
  21  -4   0    4.21    1.08
  22   0  -2    2.49    0.96
  22   0  -1    0.66    0.96
  22   0   0    4.03    1.04
  22   0   1    1.92    1.19
  22  -1  -2   -0.67    0.94
  22  -1  -1    0.44    0.96
  22  -1   0    0.25    0.98
  22  -1   1    7.04    1.30
  22  -2  -1    0.32    0.99
  22  -2   0   -0.39    1.06
  22  -2   1    0.64    1.04
   0   0   0    0.00    0.00
;
_shelx_hkl_checksum              4081
_shelx_res_file
;
    natpds.res created by SHELXL-2014/7
TITL VERS1 IN P2(1)/C
CELL  0.71073 17.66200  8.28540  5.97190 90.00000 91.37900 90.00000
ZERR 2  0.00350  0.00170  0.00120  0.00000  0.03000  0.00000
LATT 1
SYMM -X, Y+1/2, -Z+1/2
SFAC C O S NA H
UNIT 36 12 4 4 24
PLAN 30
FMAP 2
L.S. 20
ACTA
BOND $H
WGHT    0.035000
FVAR       0.34067
S1    3    0.101595    1.006773    0.392086    11.00000    0.04260    0.04925 =
         0.04303   -0.00031    0.00196   -0.00060
O5    2    0.080180    1.173025    0.440310    11.00000    0.04576    0.05214 =
         0.05173   -0.00353    0.00523    0.00200
O6    2    0.056170    0.945730    0.201883    11.00000    0.04481    0.05561 =
         0.04130   -0.00400   -0.00585   -0.00205
C1    1    0.345877    1.003880    0.158390    11.00000    0.04390    0.05589 =
         0.04840   -0.00148    0.00537    0.00034
C2    1    0.424553    1.001339    0.077255    11.00000    0.04534    0.05336 =
         0.05293    0.00198    0.00643    0.00219
C9    1    0.325967    0.930143    0.356379    11.00000    0.04534    0.09309 =
         0.05797    0.01753    0.00368    0.00737
AFIX  43
H9A   5    0.363344    0.879048    0.442789    11.00000   -1.20000
AFIX   0
C3    1    0.447595    1.100462   -0.091412    11.00000    0.04904    0.10886 =
         0.08472    0.03989    0.01290    0.01615
AFIX  43
H3A   5    0.412724    1.171023   -0.157436    11.00000   -1.20000
AFIX   0
C4    1    0.478867    0.900870    0.166975    11.00000    0.05308    0.11440 =
         0.07856    0.04215    0.02053    0.01860
AFIX  43
H4A   5    0.465977    0.831361    0.282242    11.00000   -1.20000
AFIX   0
C10   1    0.288376    1.080343    0.036693    11.00000    0.04541    0.08518 =
         0.06357    0.02358    0.01188    0.00646
AFIX  43
H10A  5    0.299950    1.131946   -0.096479    11.00000   -1.20000
AFIX   0
C6    1    0.252425    0.929921    0.429894    11.00000    0.04536    0.08933 =
         0.05570    0.01570    0.00466    0.00418
AFIX  43
H6A   5    0.240651    0.878197    0.562810    11.00000   -1.20000
AFIX   0
C7    1    0.214488    1.082174    0.107241    11.00000    0.04707    0.08285 =
         0.06498    0.02628    0.00783    0.00617
AFIX  43
H7A   5    0.177008    1.133876    0.021954    11.00000   -1.20000
AFIX   0
C8    1    0.196650    1.006779    0.305115    11.00000    0.04217    0.05364 =
         0.04319   -0.00352    0.00504    0.00037
O7    2    0.098901    0.897875    0.583120    11.00000    0.04881    0.05725 =
         0.04550    0.01339    0.00255    0.00030
NA1   4    0.020201    0.815902    0.873413    11.00000    0.05232    0.05215 =
         0.04160   -0.00071    0.00044    0.00233
HKLF 4
REM  VERS1 IN P2(1)/C
REM R1 =  0.0483 for    1076 Fo > 4sig(Fo)  and  0.0986 for all    1958 data
REM    127 parameters refined using      0 restraints
END
WGHT      0.0651      0.0000
REM Highest difference peak  0.273,  deepest hole -0.401,  1-sigma level  0.057
Q1    1   0.4812  1.0049  0.2318  11.00000  0.05    0.27
Q2    1   0.4378  0.9961 -0.1488  11.00000  0.05    0.25
Q3    1   0.1652  1.0055  0.5030  11.00000  0.05    0.21
Q4    1   0.0362  0.9296  0.1173  11.00000  0.05    0.21
Q5    1   0.0421  1.0147  0.5515  11.00000  0.05    0.21
Q6    1   0.0324  0.9220  0.4336  11.00000  0.05    0.21
Q7    1   0.0538  1.1989  0.2440  11.00000  0.05    0.20
Q8    1   0.0198  0.9760  0.1461  11.00000  0.05    0.19
Q9    1   0.0071  0.8978  0.5271  11.00000  0.05    0.19
Q10   1   0.0339  1.0010  0.2842  11.00000  0.05    0.18
Q11   1   0.4363  1.0821  0.0619  11.00000  0.05    0.18
Q12   1   0.2149  1.0910  0.3222  11.00000  0.05    0.18
Q13   1   0.4485  0.9211  0.0725  11.00000  0.05    0.17
Q14   1   0.1111  0.9912  0.6141  11.00000  0.05    0.17
Q15   1   0.1483  1.1969  0.5490  11.00000  0.05    0.17
Q16   1   0.4510  1.1002  0.0099  11.00000  0.05    0.17
Q17   1   0.0727  0.7024  0.8600  11.00000  0.05    0.16
Q18   1   0.2015  1.0149  0.1898  11.00000  0.05    0.16
Q19   1   0.0872  1.0371  0.1570  11.00000  0.05    0.15
Q20   1   0.0429  1.3204  0.4618  11.00000  0.05    0.15
Q21   1   0.0771  0.9028  0.4858  11.00000  0.05    0.15
Q22   1   0.2229  0.9264  0.3105  11.00000  0.05    0.15
Q23   1   0.0904  0.8115  0.9747  11.00000  0.05    0.15
Q24   1   0.1309  0.8026  0.4334  11.00000  0.05    0.15
Q25   1   0.0249  1.1203  0.6524  11.00000  0.05    0.14
Q26   1   0.4398  0.7573  0.2516  11.00000  0.05    0.14
Q27   1   0.0920  1.1134  0.4350  11.00000  0.05    0.14
Q28   1   0.2836  1.0531 -0.1973  11.00000  0.05    0.14
Q29   1   0.1436  0.9196  0.3682  11.00000  0.05    0.14
Q30   1   0.0443  1.0981  0.3925  11.00000  0.05    0.14
;
_shelx_res_checksum              19163
loop_
_space_group_symop_operation_xyz
'x, y, z'
'-x, y+1/2, -z+1/2'
'-x, -y, -z'
'x, -y-1/2, z-1/2'
loop_
_atom_site_type_symbol
_atom_site_label
_atom_site_fract_x
_atom_site_fract_y
_atom_site_fract_z
_atom_site_U_iso_or_equiv
_atom_site_adp_type
_atom_site_calc_flag
_atom_site_occupancy
S S1 0.10160(5) 1.00677(12) 0.39209(13) 0.0449(2) Uani d 1
O O5 0.08018(12) 1.1730(3) 0.4403(4) 0.0498(6) Uani d 1
O O6 0.05617(12) 0.9457(3) 0.2019(4) 0.0474(6) Uani d 1
C C1 0.34588(18) 1.0039(5) 0.1584(5) 0.0493(7) Uani d 1
C C2 0.42455(18) 1.0013(5) 0.0773(5) 0.0505(8) Uani d 1
C C9 0.3260(2) 0.9301(6) 0.3564(6) 0.0654(11) Uani d 1
H H9A 0.3633 0.8790 0.4428 0.079 Uiso calc 1
C C3 0.4476(2) 1.1005(7) -0.0914(8) 0.0807(14) Uani d 1
H H3A 0.4127 1.1710 -0.1574 0.097 Uiso calc 1
C C4 0.4789(2) 0.9009(6) 0.1670(8) 0.0817(14) Uani d 1
H H4A 0.4660 0.8314 0.2822 0.098 Uiso calc 1
C C10 0.2884(2) 1.0803(6) 0.0367(7) 0.0645(11) Uani d 1
H H10A 0.3000 1.1319 -0.0965 0.077 Uiso calc 1
C C6 0.2524(2) 0.9299(6) 0.4299(6) 0.0634(11) Uani d 1
H H6A 0.2407 0.8782 0.5628 0.076 Uiso calc 1
C C7 0.2145(2) 1.0822(5) 0.1072(7) 0.0649(11) Uani d 1
H H7A 0.1770 1.1339 0.0220 0.078 Uiso calc 1
C C8 0.19665(17) 1.0068(5) 0.3051(5) 0.0463(7) Uani d 1
O O7 0.09890(13) 0.8979(3) 0.5831(4) 0.0505(6) Uani d 1
Na Na1 0.02020(7) 0.81590(17) 0.8734(2) 0.0487(4) Uani d 1
loop_
_atom_site_aniso_label
_atom_site_aniso_U_11
_atom_site_aniso_U_22
_atom_site_aniso_U_33
_atom_site_aniso_U_12
_atom_site_aniso_U_13
_atom_site_aniso_U_23
S1 0.0426(4) 0.0493(5) 0.0430(4) -0.0006(5) 0.0020(3) -0.0003(5)
O5 0.0458(13) 0.0521(15) 0.0517(13) 0.0020(11) 0.0052(10) -0.0035(12)
O6 0.0448(12) 0.0556(16) 0.0413(11) -0.0021(10) -0.0059(9) -0.0040(10)
C1 0.0439(16) 0.056(2) 0.0484(16) 0.000(2) 0.0054(13) -0.001(2)
C2 0.0453(16) 0.053(2) 0.0529(18) 0.002(2) 0.0064(14) 0.002(2)
C9 0.0453(19) 0.093(3) 0.058(2) 0.007(2) 0.0037(17) 0.018(2)
C3 0.049(2) 0.109(4) 0.085(3) 0.016(2) 0.013(2) 0.040(3)
C4 0.053(2) 0.114(4) 0.079(3) 0.019(3) 0.021(2) 0.042(3)
C10 0.0454(19) 0.085(3) 0.064(2) 0.006(2) 0.0119(17) 0.024(2)
C6 0.0454(19) 0.089(3) 0.056(2) 0.004(2) 0.0047(17) 0.016(2)
C7 0.047(2) 0.083(3) 0.065(2) 0.006(2) 0.0078(17) 0.026(2)
C8 0.0422(16) 0.054(2) 0.0432(15) 0.0004(18) 0.0050(13) -0.0035(18)
O7 0.0488(13) 0.0572(15) 0.0455(12) 0.0003(12) 0.0026(10) 0.0134(12)
Na1 0.0523(8) 0.0521(8) 0.0416(6) 0.0023(7) 0.0004(6) -0.0007(6)
loop_
_atom_type_symbol
_atom_type_description
_atom_type_scat_dispersion_real
_atom_type_scat_dispersion_imag
_atom_type_scat_source
C C 0.0033 0.0016 'International Tables Vol C Tables 4.2.6.8 and 6.1.1.4'
O O 0.0106 0.0060 'International Tables Vol C Tables 4.2.6.8 and 6.1.1.4'
S S 0.1246 0.1234 'International Tables Vol C Tables 4.2.6.8 and 6.1.1.4'
Na Na 0.0362 0.0249 'International Tables Vol C Tables 4.2.6.8 and 6.1.1.4'
H H 0.0000 0.0000 'International Tables Vol C Tables 4.2.6.8 and 6.1.1.4'
loop_
_geom_angle_atom_site_label_1
_geom_angle_atom_site_label_2
_geom_angle_atom_site_label_3
_geom_angle_site_symmetry_1
_geom_angle_site_symmetry_3
_geom_angle
O7 S1 O5 . . 114.63(15)
O7 S1 O6 . . 111.47(15)
O5 S1 O6 . . 109.83(14)
O7 S1 C8 . . 106.21(15)
O5 S1 C8 . . 108.07(17)
O6 S1 C8 . . 106.16(14)
O7 S1 Na1 . 3_576 132.52(10)
O5 S1 Na1 . 3_576 57.32(10)
O6 S1 Na1 . 3_576 52.52(10)
C8 S1 Na1 . 3_576 120.96(12)
O7 S1 Na1 . 4_575 57.24(11)
O5 S1 Na1 . 4_575 135.55(10)
O6 S1 Na1 . 4_575 54.37(10)
C8 S1 Na1 . 4_575 116.17(14)
Na1 S1 Na1 3_576 4_575 94.50(3)
S1 O5 Na1 . 2_556 138.38(14)
S1 O5 Na1 . 3_576 93.89(12)
Na1 O5 Na1 2_556 3_576 79.42(8)
S1 O6 Na1 . 1_554 162.26(15)
S1 O6 Na1 . 3_576 98.87(12)
Na1 O6 Na1 1_554 3_576 94.66(9)
S1 O6 Na1 . 4_575 97.02(12)
Na1 O6 Na1 1_554 4_575 82.89(8)
Na1 O6 Na1 3_576 4_575 129.73(10)
C9 C1 C10 . . 116.8(3)
C9 C1 C2 . . 122.2(3)
C10 C1 C2 . . 121.0(3)
C3 C2 C4 . . 115.8(3)
C3 C2 C1 . . 122.0(3)
C4 C2 C1 . . 122.3(3)
C6 C9 C1 . . 122.2(3)
C6 C9 H9A . . 118.9
C1 C9 H9A . . 118.9
C2 C3 C4 . 3_675 122.2(4)
C2 C3 H3A . . 118.9
C4 C3 H3A 3_675 . 118.9
C2 C4 C3 . 3_675 122.1(4)
C2 C4 H4A . . 119.0
C3 C4 H4A 3_675 . 119.0
C7 C10 C1 . . 122.0(3)
C7 C10 H10A . . 119.0
C1 C10 H10A . . 119.0
C8 C6 C9 . . 119.6(3)
C8 C6 H6A . . 120.2
C9 C6 H6A . . 120.2
C8 C7 C10 . . 119.6(3)
C8 C7 H7A . . 120.2
C10 C7 H7A . . 120.2
C7 C8 C6 . . 119.9(3)
C7 C8 S1 . . 119.3(3)
C6 C8 S1 . . 120.8(3)
S1 O7 Na1 . . 142.06(15)
S1 O7 Na1 . 4_575 94.19(12)
Na1 O7 Na1 . 4_575 80.62(8)
O6 Na1 O7 1_556 . 109.65(10)
O6 Na1 O5 1_556 2_546 91.54(9)
O7 Na1 O5 . 2_546 158.81(10)
O6 Na1 O6 1_556 3_576 85.34(9)
O7 Na1 O6 . 3_576 87.94(9)
O5 Na1 O6 2_546 3_576 94.19(9)
O6 Na1 O6 1_556 4_576 133.41(10)
O7 Na1 O6 . 4_576 77.66(9)
O5 Na1 O6 2_546 4_576 87.72(9)
O6 Na1 O6 3_576 4_576 141.19(6)
O6 Na1 O5 1_556 3_576 141.12(10)
O7 Na1 O5 . 3_576 81.99(9)
O5 Na1 O5 2_546 3_576 81.46(8)
O6 Na1 O5 3_576 3_576 57.40(8)
O6 Na1 O5 4_576 3_576 84.76(8)
O6 Na1 O7 1_556 4_576 76.82(9)
O7 Na1 O7 . 4_576 103.72(10)
O5 Na1 O7 2_546 4_576 80.34(9)
O6 Na1 O7 3_576 4_576 161.12(9)
O6 Na1 O7 4_576 4_576 57.13(8)
O5 Na1 O7 3_576 4_576 138.08(10)
O6 Na1 S1 1_556 3_576 113.35(8)
O7 Na1 S1 . 3_576 84.18(7)
O5 Na1 S1 2_546 3_576 87.65(7)
O6 Na1 S1 3_576 3_576 28.61(5)
O6 Na1 S1 4_576 3_576 113.16(7)
O5 Na1 S1 3_576 3_576 28.79(6)
O7 Na1 S1 4_576 3_576 164.60(8)
O6 Na1 S1 1_556 4_576 104.97(7)
O7 Na1 S1 . 4_576 89.64(8)
O5 Na1 S1 2_546 4_576 84.49(7)
O6 Na1 S1 3_576 4_576 169.62(7)
O6 Na1 S1 4_576 4_576 28.61(5)
O5 Na1 S1 3_576 4_576 112.26(7)
O7 Na1 S1 4_576 4_576 28.58(5)
S1 Na1 S1 3_576 4_576 141.04(5)
O6 Na1 Na1 1_556 4_575 161.83(7)
O7 Na1 Na1 . 4_575 52.60(7)
O5 Na1 Na1 2_546 4_575 106.25(8)
O6 Na1 Na1 3_576 4_575 96.78(7)
O6 Na1 Na1 4_576 4_575 46.20(7)
O5 Na1 Na1 3_576 4_575 48.55(6)
O7 Na1 Na1 4_576 4_575 102.09(8)
S1 Na1 Na1 3_576 4_575 71.96(4)
S1 Na1 Na1 4_576 4_575 73.82(5)
O6 Na1 Na1 1_556 4_576 50.90(6)
O7 Na1 Na1 . 4_576 143.71(6)
O5 Na1 Na1 2_546 4_576 52.03(7)
O6 Na1 Na1 3_576 4_576 116.16(7)
O6 Na1 Na1 4_576 4_576 95.35(8)
O5 Na1 Na1 3_576 4_576 133.37(7)
O7 Na1 Na1 4_576 4_576 46.78(6)
S1 Na1 Na1 3_576 4_576 130.06(4)
S1 Na1 Na1 4_576 4_576 70.96(5)
Na1 Na1 Na1 4_575 4_576 139.82(9)
O6 Na1 Na1 1_556 3_577 43.95(6)
O7 Na1 Na1 . 3_577 101.42(9)
O5 Na1 Na1 2_546 3_577 93.94(8)
O6 Na1 Na1 3_576 3_577 41.39(6)
O6 Na1 Na1 4_576 3_577 176.86(9)
O5 Na1 Na1 3_576 3_577 98.12(8)
O7 Na1 Na1 4_576 3_577 120.51(8)
S1 Na1 Na1 3_576 3_577 69.61(5)
S1 Na1 Na1 4_576 3_577 148.90(6)
Na1 Na1 Na1 4_575 3_577 135.44(7)
Na1 Na1 Na1 4_576 3_577 83.61(5)
loop_
_geom_bond_atom_site_label_1
_geom_bond_atom_site_label_2
_geom_bond_site_symmetry_2
_geom_bond_distance
S1 O7 . 1.456(2)
S1 O5 . 1.459(3)
S1 O6 . 1.465(2)
S1 C8 . 1.769(3)
S1 Na1 3_576 3.0225(17)
S1 Na1 4_575 3.0363(18)
O5 Na1 2_556 2.424(3)
O5 Na1 3_576 2.550(3)
O6 Na1 1_554 2.313(3)
O6 Na1 3_576 2.428(3)
O6 Na1 4_575 2.487(3)
C1 C9 . 1.384(5)
C1 C10 . 1.388(5)
C1 C2 . 1.483(5)
C2 C3 . 1.369(5)
C2 C4 . 1.369(5)
C9 C6 . 1.381(5)
C9 H9A . 0.9300
C3 C4 3_675 1.385(5)
C3 H3A . 0.9300
C4 C3 3_675 1.385(5)
C4 H4A . 0.9300
C10 C7 . 1.381(5)
C10 H10A . 0.9300
C6 C8 . 1.377(5)
C6 H6A . 0.9300
C7 C8 . 1.380(5)
C7 H7A . 0.9300
O7 Na1 . 2.348(3)
O7 Na1 4_575 2.560(3)
Na1 O6 1_556 2.313(3)
Na1 O5 2_546 2.424(3)
Na1 O6 3_576 2.428(3)
Na1 O6 4_576 2.487(3)
Na1 O5 3_576 2.550(3)
Na1 O7 4_576 2.560(3)
Na1 S1 3_576 3.0225(17)
Na1 S1 4_576 3.0363(18)
Na1 Na1 4_575 3.1794(11)
Na1 Na1 4_576 3.1794(11)
Na1 Na1 3_577 3.486(3)
