#------------------------------------------------------------------------------
#$Date: 2016-08-07 11:04:07 +0300 (Sun, 07 Aug 2016) $
#$Revision: 185145 $
#$URL: file:///home/coder/svn-repositories/cod/cif/1/54/26/1542610.cif $
#------------------------------------------------------------------------------
#
# This file is available in the Crystallography Open Database (COD),
# http://www.crystallography.net/
#
# All data on this site have been placed in the public domain by the
# contributors.
#
data_1542610
loop_
_publ_author_name
'Jardim, Guilherme A. M.'
'da Silva J\'unior, Eufr\^anio N.'
'Bower, John F.'
_publ_section_title
;
 Overcoming naphthoquinone deactivation: rhodium-catalyzed C-5 selective
 C--H iodination as a gateway to functionalized derivatives
;
_journal_issue                   6
_journal_name_full               'Chem. Sci.'
_journal_page_first              3780
_journal_paper_doi               10.1039/C6SC00302H
_journal_volume                  7
_journal_year                    2016
_chemical_formula_moiety         'C10 H4 I N O4'
_chemical_formula_sum            'C10 H4 I N O4'
_chemical_formula_weight         329.04
_chemical_name_systematic
;
 ?
;
_space_group_crystal_system      monoclinic
_space_group_IT_number           14
_space_group_name_Hall           '-P 2ybc'
_space_group_name_H-M_alt        'P 1 21/c 1'
_symmetry_space_group_name_Hall  '-P 2ybc'
_symmetry_space_group_name_H-M   'P 1 21/c 1'
_atom_sites_solution_hydrogens   geom
_audit_creation_date             2015-10-26
_audit_creation_method
;
Olex2 1.2
(compiled 2015.09.30 svn.r3233 for OlexSys, GUI svn.r5103)
;
_audit_update_record
;
2015-12-10 deposited with the CCDC.
2016-02-19 downloaded from the CCDC.
;
_cell_angle_alpha                90
_cell_angle_beta                 99.5625(14)
_cell_angle_gamma                90
_cell_formula_units_Z            4
_cell_length_a                   7.7794(3)
_cell_length_b                   9.0897(3)
_cell_length_c                   13.9834(5)
_cell_measurement_reflns_used    6582
_cell_measurement_temperature    100(2)
_cell_measurement_theta_max      27.88
_cell_measurement_theta_min      2.66
_cell_volume                     975.06(6)
_computing_cell_refinement       'SAINT v8.34A (Bruker, 2013)'
_computing_data_reduction        'SAINT v8.34A (Bruker, 2013)'
_computing_molecular_graphics    'Olex2 (Dolomanov et al., 2009)'
_computing_publication_material  'Olex2 (Dolomanov et al., 2009)'
_computing_structure_refinement  'ShelXL (Sheldrick, 2015)'
_computing_structure_solution
;
Superflip (Palatinus & Chapuis, 2007;Palatinus & van der Lee, 2008;
Palatinus et al., 2012)
;
_diffrn_ambient_temperature      100(2)
_diffrn_detector                 'Bruker area detector'
_diffrn_detector_type            'CCD area detector'
_diffrn_measured_fraction_theta_full 0.999
_diffrn_measured_fraction_theta_max 0.997
_diffrn_measurement_device       'Bruker Apex II kappa CCD area detector'
_diffrn_measurement_device_type  'Bruker Apex II kappa CCD area detector'
_diffrn_measurement_method       '\f and \w scans'
_diffrn_radiation_monochromator  graphite
_diffrn_radiation_type           MoK\a
_diffrn_radiation_wavelength     0.71073
_diffrn_reflns_av_R_equivalents  0.0147
_diffrn_reflns_av_unetI/netI     0.0133
_diffrn_reflns_Laue_measured_fraction_full 0.999
_diffrn_reflns_Laue_measured_fraction_max 0.997
_diffrn_reflns_limit_h_max       8
_diffrn_reflns_limit_h_min       -10
_diffrn_reflns_limit_k_max       11
_diffrn_reflns_limit_k_min       -11
_diffrn_reflns_limit_l_max       18
_diffrn_reflns_limit_l_min       -16
_diffrn_reflns_number            8574
_diffrn_reflns_point_group_measured_fraction_full 0.999
_diffrn_reflns_point_group_measured_fraction_max 0.997
_diffrn_reflns_theta_full        26.000
_diffrn_reflns_theta_max         27.921
_diffrn_reflns_theta_min         2.655
_diffrn_source                   'fine-focus sealed tube'
_diffrn_standards_number         0
_exptl_absorpt_coefficient_mu    3.281
_exptl_absorpt_correction_T_max  0.7456
_exptl_absorpt_correction_T_min  0.6200
_exptl_absorpt_correction_type   multi-scan
_exptl_absorpt_process_details
;
SADABS-2014/5 (Bruker,2014/5) was used for absorption correction.
wR2(int) was 0.0650 before and 0.0266 after correction.
The Ratio of minimum to maximum transmission is 0.8315.
The \l/2 correction factor is 0.00150.
;
_exptl_crystal_colour            red
_exptl_crystal_colour_primary    red
_exptl_crystal_density_diffrn    2.241
_exptl_crystal_description       block
_exptl_crystal_F_000             624
_exptl_crystal_size_max          0.32
_exptl_crystal_size_mid          0.32
_exptl_crystal_size_min          0.21
_refine_diff_density_max         0.499
_refine_diff_density_min         -0.396
_refine_diff_density_rms         0.070
_refine_ls_extinction_method     none
_refine_ls_goodness_of_fit_ref   1.109
_refine_ls_hydrogen_treatment    constr
_refine_ls_matrix_type           full
_refine_ls_number_parameters     145
_refine_ls_number_reflns         2322
_refine_ls_number_restraints     0
_refine_ls_restrained_S_all      1.109
_refine_ls_R_factor_all          0.0153
_refine_ls_R_factor_gt           0.0145
_refine_ls_shift/su_max          0.001
_refine_ls_shift/su_mean         0.000
_refine_ls_structure_factor_coef Fsqd
_refine_ls_weighting_details
'w=1/[\s^2^(Fo^2^)+(0.0123P)^2^+0.9842P] where P=(Fo^2^+2Fc^2^)/3'
_refine_ls_weighting_scheme      calc
_refine_ls_wR_factor_gt          0.0341
_refine_ls_wR_factor_ref         0.0344
_reflns_Friedel_coverage         0.000
_reflns_number_gt                2252
_reflns_number_total             2322
_reflns_threshold_expression     'I > 2\s(I)'
_cod_data_source_file            c6sc00302h2.cif
_cod_data_source_block           testm1
_cod_depositor_comments
'Adding full bibliography for 1542604--1542615.cif.'
_cod_database_code               1542610
_shelxl_version_number           2013-4
_shelx_space_group_comment
;
The symmetry employed for this shelxl refinement is uniquely defined
by the following loop, which should always be used as a source of
symmetry information in preference to the above space-group names.
They are only intended as comments.
;
_olex2_refinement_description
;
1. Fixed Uiso
 At 1.2 times of:
  All C(H) groups
2.a Aromatic/amide H refined with riding coordinates:
 C2(H2), C3(H3), C8(H8), C9(H9)
;
_shelx_res_file
;
TITL testm1 in P2(1)/c
CELL 0.71073 7.7794 9.0897 13.9834 90 99.5625 90
ZERR 4 0.0003 0.0003 0.0005 0 0.0014 0
LATT 1
SYMM -X,0.5+Y,0.5-Z
SFAC C H I N O
UNIT 40 16 4 4 16

L.S. 4 0 0
PLAN  5
TEMP -173.12
fmap 2 53
MORE -1
BOND $H
ACTA 52
CONF
REM <olex2.extras>
REM <HklSrc "%.\\testm1.hkl">
REM </olex2.extras>

WGHT    0.012300    0.984200
FVAR       0.13010
I1    3    0.463943    0.320368    0.633373    11.00000    0.01787    0.01143 =
         0.00964   -0.00233   -0.00081   -0.00336
O1    5    0.119988   -0.051595    0.205095    11.00000    0.02017    0.02244 =
         0.01498   -0.00771    0.00495    0.00020
O2    5   -0.112531    0.043870    0.246636    11.00000    0.01236    0.01911 =
         0.01889   -0.00276   -0.00356    0.00235
O3    5    0.446748   -0.004256    0.674191    11.00000    0.02029    0.01652 =
         0.01162    0.00257   -0.00312   -0.00263
O4    5    0.010752   -0.212582    0.370377    11.00000    0.01910    0.01568 =
         0.01615   -0.00169   -0.00171   -0.00521
N1    4    0.043254    0.014912    0.260847    11.00000    0.01415    0.01019 =
         0.00978   -0.00030    0.00007   -0.00071
C1    1    0.339218    0.199289    0.514146    11.00000    0.01107    0.01225 =
         0.00935   -0.00254    0.00105   -0.00004
C2    1    0.294049    0.280937    0.429230    11.00000    0.01464    0.00904 =
         0.01368   -0.00066    0.00089   -0.00015
AFIX  43
H2    2    0.327743    0.381301    0.428148    11.00000   -1.20000
AFIX   0
C3    1    0.200676    0.217599    0.346423    11.00000    0.01395    0.01190 =
         0.01010    0.00102    0.00045    0.00253
AFIX  43
H3    2    0.173659    0.272413    0.288013    11.00000   -1.20000
AFIX   0
C4    1    0.147914    0.073502    0.350648    11.00000    0.00873    0.01225 =
         0.00950   -0.00273    0.00059    0.00074
C5    1    0.189916   -0.012664    0.433338    11.00000    0.00842    0.01072 =
         0.01032   -0.00111    0.00235    0.00044
C6    1    0.292129    0.049981    0.516189    11.00000    0.00925    0.01108 =
         0.00837   -0.00036    0.00212    0.00024
C7    1    0.348409   -0.047035    0.602563    11.00000    0.01119    0.01281 =
         0.01019    0.00118    0.00309    0.00018
C8    1    0.286279   -0.200992    0.598269    11.00000    0.01784    0.01255 =
         0.01252    0.00298    0.00344   -0.00077
AFIX  43
H8    2    0.321669   -0.262849    0.652743    11.00000   -1.20000
AFIX   0
C9    1    0.182995   -0.256620    0.521445    11.00000    0.01848    0.01034 =
         0.01457    0.00126    0.00404   -0.00219
AFIX  43
H9    2    0.148933   -0.356931    0.522108    11.00000   -1.20000
AFIX   0
C10   1    0.120496   -0.166420    0.435672    11.00000    0.01121    0.01207 =
         0.01130   -0.00220    0.00370   -0.00032
HKLF 4

REM  testm1 in P2(1)/c
REM R1 =  0.0145 for    2252 Fo > 4sig(Fo)  and  0.0153 for all    2322 data
REM    145 parameters refined using      0 restraints

END

WGHT      0.0123      0.9842

REM Highest difference peak  0.499,  deepest hole -0.396,  1-sigma level  0.070
Q1    1   0.0984 -0.4457  0.5186  11.00000  0.05    0.50
Q2    1   0.1026  0.0427  0.3122  11.00000  0.05    0.44
Q3    1   0.3204  0.0048  0.5587  11.00000  0.05    0.43
Q4    1   0.1539 -0.2138  0.4800  11.00000  0.05    0.41
Q5    1   0.1600 -0.0839  0.4359  11.00000  0.05    0.41
;
_shelx_res_checksum              71851
_olex2_submission_special_instructions 'No special instructions were received'
loop_
_space_group_symop_operation_xyz
'x, y, z'
'-x, y+1/2, -z+1/2'
'-x, -y, -z'
'x, -y-1/2, z-1/2'
loop_
_atom_site_label
_atom_site_type_symbol
_atom_site_fract_x
_atom_site_fract_y
_atom_site_fract_z
_atom_site_U_iso_or_equiv
_atom_site_adp_type
_atom_site_occupancy
_atom_site_site_symmetry_order
_atom_site_calc_flag
_atom_site_refinement_flags_posn
I1 I 0.46394(2) 0.32037(2) 0.63337(2) 0.01333(4) Uani 1 1 d .
O1 O 0.11999(17) -0.05159(15) 0.20509(9) 0.0190(3) Uani 1 1 d .
O2 O -0.11253(16) 0.04387(15) 0.24664(9) 0.0175(3) Uani 1 1 d .
O3 O 0.44675(17) -0.00426(14) 0.67419(9) 0.0168(3) Uani 1 1 d .
O4 O 0.01075(17) -0.21258(15) 0.37038(9) 0.0175(3) Uani 1 1 d .
N1 N 0.04325(19) 0.01491(16) 0.26085(10) 0.0116(3) Uani 1 1 d .
C1 C 0.3392(2) 0.19929(18) 0.51415(12) 0.0110(3) Uani 1 1 d .
C2 C 0.2940(2) 0.28094(19) 0.42923(12) 0.0126(3) Uani 1 1 d .
H2 H 0.3277 0.3813 0.4281 0.015 Uiso 1 1 calc R
C3 C 0.2007(2) 0.21760(19) 0.34642(12) 0.0122(3) Uani 1 1 d .
H3 H 0.1737 0.2724 0.2880 0.015 Uiso 1 1 calc R
C4 C 0.1479(2) 0.07350(18) 0.35065(11) 0.0103(3) Uani 1 1 d .
C5 C 0.1899(2) -0.01266(18) 0.43334(11) 0.0097(3) Uani 1 1 d .
C6 C 0.2921(2) 0.04998(18) 0.51619(11) 0.0095(3) Uani 1 1 d .
C7 C 0.3484(2) -0.04704(19) 0.60256(12) 0.0112(3) Uani 1 1 d .
C8 C 0.2863(2) -0.20099(19) 0.59827(13) 0.0142(3) Uani 1 1 d .
H8 H 0.3217 -0.2628 0.6527 0.017 Uiso 1 1 calc R
C9 C 0.1830(2) -0.25662(19) 0.52145(13) 0.0143(3) Uani 1 1 d .
H9 H 0.1489 -0.3569 0.5221 0.017 Uiso 1 1 calc R
C10 C 0.1205(2) -0.16642(18) 0.43567(12) 0.0113(3) Uani 1 1 d .
loop_
_atom_site_aniso_label
_atom_site_aniso_U_11
_atom_site_aniso_U_22
_atom_site_aniso_U_33
_atom_site_aniso_U_23
_atom_site_aniso_U_13
_atom_site_aniso_U_12
I1 0.01787(7) 0.01143(6) 0.00964(6) -0.00233(4) -0.00081(4) -0.00336(4)
O1 0.0202(6) 0.0224(7) 0.0150(6) -0.0077(5) 0.0049(5) 0.0002(5)
O2 0.0124(6) 0.0191(6) 0.0189(6) -0.0028(5) -0.0036(5) 0.0024(5)
O3 0.0203(6) 0.0165(6) 0.0116(6) 0.0026(5) -0.0031(5) -0.0026(5)
O4 0.0191(6) 0.0157(6) 0.0162(6) -0.0017(5) -0.0017(5) -0.0052(5)
N1 0.0142(7) 0.0102(7) 0.0098(6) -0.0003(5) 0.0001(5) -0.0007(5)
C1 0.0111(7) 0.0122(8) 0.0094(7) -0.0025(6) 0.0011(6) 0.0000(6)
C2 0.0146(8) 0.0090(8) 0.0137(8) -0.0007(6) 0.0009(6) -0.0001(6)
C3 0.0139(8) 0.0119(8) 0.0101(7) 0.0010(6) 0.0004(6) 0.0025(6)
C4 0.0087(7) 0.0123(8) 0.0095(7) -0.0027(6) 0.0006(6) 0.0007(6)
C5 0.0084(7) 0.0107(8) 0.0103(7) -0.0011(6) 0.0023(6) 0.0004(6)
C6 0.0092(7) 0.0111(8) 0.0084(7) -0.0004(6) 0.0021(6) 0.0002(6)
C7 0.0112(7) 0.0128(8) 0.0102(7) 0.0012(6) 0.0031(6) 0.0002(6)
C8 0.0178(9) 0.0125(8) 0.0125(8) 0.0030(6) 0.0034(6) -0.0008(7)
C9 0.0185(8) 0.0103(8) 0.0146(8) 0.0013(6) 0.0040(7) -0.0022(7)
C10 0.0112(7) 0.0121(8) 0.0113(7) -0.0022(6) 0.0037(6) -0.0003(6)
loop_
_atom_type_symbol
_atom_type_description
_atom_type_scat_dispersion_real
_atom_type_scat_dispersion_imag
_atom_type_scat_source
C C 0.0033 0.0016 'International Tables Vol C Tables 4.2.6.8 and 6.1.1.4'
H H 0.0000 0.0000 'International Tables Vol C Tables 4.2.6.8 and 6.1.1.4'
I I -0.4742 1.8119 'International Tables Vol C Tables 4.2.6.8 and 6.1.1.4'
N N 0.0061 0.0033 'International Tables Vol C Tables 4.2.6.8 and 6.1.1.4'
O O 0.0106 0.0060 'International Tables Vol C Tables 4.2.6.8 and 6.1.1.4'
loop_
_geom_angle_atom_site_label_1
_geom_angle_atom_site_label_2
_geom_angle_atom_site_label_3
_geom_angle
O1 N1 O2 125.46(14)
O1 N1 C4 117.60(14)
O2 N1 C4 116.84(13)
C2 C1 I1 114.55(12)
C2 C1 C6 120.05(15)
C6 C1 I1 125.30(12)
C1 C2 H2 119.6
C3 C2 C1 120.88(16)
C3 C2 H2 119.6
C2 C3 H3 120.7
C4 C3 C2 118.55(15)
C4 C3 H3 120.7
C3 C4 N1 115.63(14)
C3 C4 C5 122.77(15)
C5 C4 N1 121.61(15)
C4 C5 C6 118.56(15)
C4 C5 C10 120.48(15)
C6 C5 C10 120.90(15)
C1 C6 C5 119.04(15)
C1 C6 C7 122.74(15)
C5 C6 C7 118.21(15)
O3 C7 C6 122.23(15)
O3 C7 C8 119.46(15)
C8 C7 C6 118.28(14)
C7 C8 H8 118.6
C9 C8 C7 122.84(16)
C9 C8 H8 118.6
C8 C9 H9 119.3
C8 C9 C10 121.43(16)
C10 C9 H9 119.3
O4 C10 C5 121.01(15)
O4 C10 C9 121.11(16)
C9 C10 C5 117.81(15)
loop_
_geom_bond_atom_site_label_1
_geom_bond_atom_site_label_2
_geom_bond_distance
I1 C1 2.0964(16)
O1 N1 1.2183(19)
O2 N1 1.2237(19)
O3 C7 1.219(2)
O4 C10 1.216(2)
N1 C4 1.478(2)
C1 C2 1.395(2)
C1 C6 1.407(2)
C2 H2 0.9500
C2 C3 1.386(2)
C3 H3 0.9500
C3 C4 1.377(2)
C4 C5 1.390(2)
C5 C6 1.412(2)
C5 C10 1.501(2)
C6 C7 1.501(2)
C7 C8 1.478(2)
C8 H8 0.9500
C8 C9 1.330(2)
C9 H9 0.9500
C9 C10 1.467(2)
loop_
_geom_torsion_atom_site_label_1
_geom_torsion_atom_site_label_2
_geom_torsion_atom_site_label_3
_geom_torsion_atom_site_label_4
_geom_torsion
I1 C1 C2 C3 -175.70(13)
I1 C1 C6 C5 172.33(12)
I1 C1 C6 C7 -8.7(2)
O1 N1 C4 C3 94.52(18)
O1 N1 C4 C5 -85.3(2)
O2 N1 C4 C3 -81.96(19)
O2 N1 C4 C5 98.27(19)
O3 C7 C8 C9 -177.99(17)
N1 C4 C5 C6 179.25(14)
N1 C4 C5 C10 -3.7(2)
C1 C2 C3 C4 2.3(3)
C1 C6 C7 O3 -4.3(2)
C1 C6 C7 C8 177.84(15)
C2 C1 C6 C5 -3.9(2)
C2 C1 C6 C7 175.14(15)
C2 C3 C4 N1 177.76(15)
C2 C3 C4 C5 -2.5(3)
C3 C4 C5 C6 -0.5(2)
C3 C4 C5 C10 176.55(15)
C4 C5 C6 C1 3.7(2)
C4 C5 C6 C7 -175.39(14)
C4 C5 C10 O4 -8.7(2)
C4 C5 C10 C9 174.20(15)
C5 C6 C7 O3 174.72(16)
C5 C6 C7 C8 -3.1(2)
C6 C1 C2 C3 0.9(3)
C6 C5 C10 O4 168.26(16)
C6 C5 C10 C9 -8.8(2)
C6 C7 C8 C9 -0.1(2)
C7 C8 C9 C10 -1.3(3)
C8 C9 C10 O4 -171.55(17)
C8 C9 C10 C5 5.5(2)
C10 C5 C6 C1 -173.38(15)
C10 C5 C6 C7 7.6(2)
