#------------------------------------------------------------------------------
#$Date: 2016-08-07 10:45:31 +0300 (Sun, 07 Aug 2016) $
#$Revision: 185089 $
#$URL: file:///home/coder/svn-repositories/cod/cif/1/54/24/1542404.cif $
#------------------------------------------------------------------------------
#
# This file is available in the Crystallography Open Database (COD),
# http://www.crystallography.net/
#
# All data on this site have been placed in the public domain by the
# contributors.
#
data_1542404
loop_
_publ_author_name
'Fernandes, Tiago A.'
'Santos, Carla I. M.'
'Andr\'e, V\^ania'
'Dias, Sara S. P.'
'Kirillova, Marina V.'
'Kirillov, Alexander M.'
_publ_section_title
;
 New aqua-soluble dicopper(ii) aminoalcoholate cores for mild and
 water-assisted catalytic oxidation of alkanes
;
_journal_issue                   12
_journal_name_full               'Catal. Sci. Technol.'
_journal_page_first              4584
_journal_paper_doi               10.1039/C5CY02084K
_journal_volume                  6
_journal_year                    2016
_chemical_formula_sum            'C12 H18 Cu N O6'
_chemical_formula_weight         335.81
_space_group_crystal_system      triclinic
_space_group_IT_number           2
_space_group_name_Hall           '-P 1'
_space_group_name_H-M_alt        'P -1'
_symmetry_space_group_name_Hall  '-P 1'
_symmetry_space_group_name_H-M   'P -1'
_atom_sites_solution_hydrogens   mixed
_audit_creation_method           SHELXL-2014/7
_audit_update_record
;
2015-11-12 deposited with the CCDC.
2016-02-04 downloaded from the CCDC.
;
_cell_angle_alpha                89.576(3)
_cell_angle_beta                 86.095(2)
_cell_angle_gamma                69.787(2)
_cell_formula_units_Z            2
_cell_length_a                   7.5973(6)
_cell_length_b                   8.1060(6)
_cell_length_c                   12.4901(12)
_cell_measurement_temperature    273(2)
_cell_volume                     720.03(10)
_computing_cell_refinement       'BRUKER SMART (Bruker, 2005)'
_computing_data_collection       'BRUKER SMART (Bruker, 2005)'
_computing_data_reduction        'BRUKER SAINT (Bruker, 2005)'
_computing_molecular_graphics    'ORTEP 3.2 (Farrugia, 1997) and Mercury 2.2'
_computing_structure_refinement  'SHELXL-97 (Sheldrick, 2008)'
_computing_structure_solution    'SIR 97 (Altomare et al, 1999)'
_diffrn_ambient_temperature      273(2)
_diffrn_measured_fraction_theta_full 0.997
_diffrn_measured_fraction_theta_max 0.998
_diffrn_measurement_device_type  'CCD area detector'
_diffrn_measurement_method       'phi and omega scans'
_diffrn_radiation_monochromator  graphite
_diffrn_radiation_source         'fine-focus sealed tube'
_diffrn_radiation_type           MoK\a
_diffrn_radiation_wavelength     0.71069
_diffrn_reflns_av_R_equivalents  0.0422
_diffrn_reflns_av_unetI/netI     0.0261
_diffrn_reflns_Laue_measured_fraction_full 0.997
_diffrn_reflns_Laue_measured_fraction_max 0.998
_diffrn_reflns_limit_h_max       9
_diffrn_reflns_limit_h_min       -9
_diffrn_reflns_limit_k_max       10
_diffrn_reflns_limit_k_min       -10
_diffrn_reflns_limit_l_max       15
_diffrn_reflns_limit_l_min       -15
_diffrn_reflns_number            24178
_diffrn_reflns_point_group_measured_fraction_full 0.997
_diffrn_reflns_point_group_measured_fraction_max 0.998
_diffrn_reflns_theta_full        25.242
_diffrn_reflns_theta_max         26.369
_diffrn_reflns_theta_min         2.678
_exptl_absorpt_coefficient_mu    1.540
_exptl_absorpt_correction_T_max  0.881
_exptl_absorpt_correction_T_min  0.785
_exptl_absorpt_correction_type   multi-scan
_exptl_absorpt_process_details   'SADABS (Bruker,2005)'
_exptl_crystal_colour            blue
_exptl_crystal_density_diffrn    1.549
_exptl_crystal_density_meas      ?
_exptl_crystal_description       block
_exptl_crystal_F_000             348
_exptl_crystal_size_max          0.18
_exptl_crystal_size_mid          0.15
_exptl_crystal_size_min          0.12
_refine_diff_density_max         0.594
_refine_diff_density_min         -0.278
_refine_diff_density_rms         0.086
_refine_ls_extinction_method     none
_refine_ls_goodness_of_fit_ref   1.098
_refine_ls_hydrogen_treatment    mixed
_refine_ls_matrix_type           full
_refine_ls_number_parameters     190
_refine_ls_number_reflns         2943
_refine_ls_number_restraints     38
_refine_ls_restrained_S_all      1.091
_refine_ls_R_factor_all          0.0394
_refine_ls_R_factor_gt           0.0316
_refine_ls_shift/su_max          0.000
_refine_ls_shift/su_mean         0.000
_refine_ls_structure_factor_coef Fsqd
_refine_ls_weighting_details
'w=1/[\s^2^(Fo^2^)+(0.0470P)^2^+0.1081P] where P=(Fo^2^+2Fc^2^)/3'
_refine_ls_weighting_scheme      calc
_refine_ls_wR_factor_gt          0.0762
_refine_ls_wR_factor_ref         0.0786
_reflns_Friedel_coverage         0.000
_reflns_number_gt                2555
_reflns_number_total             2943
_reflns_threshold_expression     'I > 2\s(I)'
_cod_data_source_file            c5cy02084k1.cif
_cod_data_source_block           shelx
_cod_depositor_comments
;
The following automatic conversions were performed:

'_exptl_crystal_density_meas' value 'not measured' was changed to '?'
- the value is perceived as not measured.

Automatic conversion script
Id: cif_fix_values 4268 2015-11-12 08:31:59Z antanas 

 Adding full bibliography for 1542404--1542405.cif.
;
_cod_database_code               1542404
_shelx_shelxl_version_number     2014/7
_shelx_space_group_comment
;
The symmetry employed for this shelxl refinement is uniquely defined
by the following loop, which should always be used as a source of
symmetry information in preference to the above space-group names.
They are only intended as comments.
;
_shelx_res_file
;

    shelx.res created by SHELXL-2014/7

TITL SPD018 in P1
CELL  0.71073   7.5973   8.1060  12.4901   89.576   86.095   69.787
ZERR     2.00   0.0006   0.0006   0.0012    0.003    0.002    0.002
LATT   1
SFAC  C    H    N    O    CU
UNIT  24 36 2 12 2
MERG   2
OMIT    -7  -3   3
OMIT     0   2   3
OMIT     3   2   0
OMIT     2  -1   4
OMIT    -1   2   4
OMIT     0   3   4
SHEL 999 0.800
DELU
FMAP   2
PLAN   20
ACTA
BOND
LIST   6
L.S.  10
TEMP     0.00
WGHT    0.047000    0.108100
FVAR       0.81715
C1    1    0.123105   -0.244103    0.292660    11.00000    0.03037    0.02528 =
         0.02514    0.00369   -0.00598   -0.00761
C2    1    0.282914   -0.326975    0.363447    11.00000    0.02732    0.02847 =
         0.02273    0.00373   -0.00466   -0.00649
C3    1    0.273401   -0.451066    0.435626    11.00000    0.02617    0.02976 =
         0.02698    0.00502   -0.00422   -0.01052
AFIX  43
H3    2    0.168706   -0.485952    0.440148    11.00000   -1.20000
AFIX   0
C4    1    0.443052   -0.275055    0.355031    11.00000    0.03588    0.03523 =
         0.03165    0.01380   -0.00858   -0.01625
AFIX  43
H4    2    0.450549   -0.192638    0.304381    11.00000   -1.20000
AFIX   0
C5    1    0.421025   -0.527776    0.503974    11.00000    0.02603    0.02618 =
         0.02118    0.00035    0.00004   -0.01008
C6    1    0.586141   -0.344361    0.420206    11.00000    0.02914    0.03695 =
         0.03345    0.01201   -0.00583   -0.01633
AFIX  43
H6    2    0.689301   -0.307231    0.414747    11.00000   -1.20000
AFIX   0
C7    1    0.183310   -0.322453   -0.021614    11.00000    0.03751    0.02214 =
         0.03444    0.00632   -0.00743   -0.00353
AFIX  23
H7A   2    0.069367   -0.350162   -0.008598    11.00000   -1.20000
H7B   2    0.275829   -0.392309    0.025724    11.00000   -1.20000
AFIX   0
C8    1    0.258188   -0.361928   -0.138280    11.00000    0.03647    0.02419 =
         0.03952   -0.00332   -0.00546    0.00041
AFIX  23
H8A   2    0.387102   -0.364727   -0.146063    11.00000   -1.20000
H8B   2    0.257233   -0.476618   -0.159167    11.00000   -1.20000
AFIX   0
C9    1    0.259262   -0.176074   -0.295054    11.00000    0.03816    0.03782 =
         0.03343   -0.00791    0.01225   -0.01242
AFIX  23
H9A   2    0.178059   -0.102047   -0.346197    11.00000   -1.20000
H9B   2    0.340059   -0.281938   -0.333062    11.00000   -1.20000
AFIX   0
C10   1    0.379873   -0.080554   -0.253675    11.00000    0.03000    0.04465 =
         0.06249   -0.00278    0.00549   -0.01464
AFIX  23
H10A  2    0.472309   -0.160069   -0.209965    11.00000   -1.20000
H10B  2    0.447298   -0.048119   -0.314229    11.00000   -1.20000
AFIX   0
C11   1    0.003729   -0.286612   -0.262440    11.00000    0.03740    0.03566 =
         0.03153   -0.00838   -0.00246   -0.01558
AFIX  23
H11A  2    0.071697   -0.392706   -0.304162    11.00000   -1.20000
H11B  2   -0.063860   -0.197525   -0.311512    11.00000   -1.20000
AFIX   0
C12   1   -0.135798   -0.323827   -0.182966    11.00000    0.03755    0.03481 =
         0.04789   -0.00605   -0.00156   -0.01855
AFIX  23
H12A  2   -0.228943   -0.353206   -0.220526    11.00000   -1.20000
H12B  2   -0.071907   -0.422363   -0.138733    11.00000   -1.20000
AFIX   0
N008  3    0.140834   -0.225415   -0.210136    11.00000    0.02578    0.02784 =
         0.02575   -0.00243   -0.00032   -0.00756
O1    4    0.148894   -0.132683    0.227303    11.00000    0.02942    0.03714 =
         0.02813    0.01365   -0.00940   -0.01053
O2    4   -0.018466   -0.286338    0.303482    11.00000    0.03565    0.04768 =
         0.05718    0.02640   -0.02021   -0.02235
O1W   4   -0.456562   -0.215969    0.042561    11.00000    0.03773    0.04519 =
         0.05472   -0.00794    0.00323   -0.01416
O3    4    0.145491   -0.141302   -0.002633    11.00000    0.02804    0.02115 =
         0.02302    0.00222   -0.00487   -0.00078
O4    4    0.278637    0.071473   -0.192566    11.00000    0.03537    0.03559 =
         0.04055    0.00428   -0.01178   -0.01218
AFIX 147
H4A   2    0.211063    0.145325   -0.231240    11.00000   -1.50000
AFIX   0
O5    4   -0.223911   -0.171117   -0.118119    11.00000    0.04094    0.03905 =
         0.04520   -0.00842    0.00656   -0.01895
CU1   5    0.001231    0.008403    0.116163    11.00000    0.02470    0.02284 =
         0.01916    0.00351   -0.00311   -0.00366
H1W   2   -0.423229   -0.174499    0.090282    11.00000    0.05308
H2W   2   -0.554712   -0.174125    0.037699    11.00000    0.06206
HKLF    4

REM  SPD018 in P1
REM R1 =  0.0316 for    2555 Fo > 4sig(Fo)  and  0.0394 for all    2943 data
REM    190 parameters refined using     38 restraints

END

WGHT      0.0470      0.1081

REM Highest difference peak  0.594,  deepest hole -0.278,  1-sigma level  0.086
Q1    1  -0.3012 -0.1910 -0.0735  11.00000  0.05    0.59
Q2    1   0.0781 -0.1363 -0.1629  11.00000  0.05    0.46
Q3    1   0.0702 -0.1057  0.0591  11.00000  0.05    0.42
Q4    1   0.5000 -0.5000  0.5000  10.50000  0.05    0.37
Q5    1  -0.0538 -0.2038  0.3376  11.00000  0.05    0.37
Q6    1  -0.1853 -0.2351 -0.1398  11.00000  0.05    0.36
Q7    1   0.1077 -0.1430  0.2434  11.00000  0.05    0.36
Q8    1   0.4021 -0.3317  0.3915  11.00000  0.05    0.35
Q9    1   0.1814 -0.1434  0.0187  11.00000  0.05    0.35
Q10   1   0.1815 -0.1782 -0.0002  11.00000  0.05    0.34
Q11   1   0.0779 -0.2213 -0.2169  11.00000  0.05    0.33
Q12   1   0.1831 -0.1854 -0.2408  11.00000  0.05    0.33
Q13   1   0.2674 -0.3845  0.3954  11.00000  0.05    0.33
Q14   1   0.4065 -0.5670  0.5443  11.00000  0.05    0.32
Q15   1   0.2588  0.1129 -0.1787  11.00000  0.05    0.32
Q16   1  -0.0610 -0.0685  0.0703  11.00000  0.05    0.32
Q17   1   0.1930 -0.1410  0.2557  11.00000  0.05    0.31
Q18   1  -0.0762 -0.2845 -0.2231  11.00000  0.05    0.30
Q19   1   0.0544 -0.3152  0.2756  11.00000  0.05    0.30
Q20   1   0.1875 -0.1863  0.2033  11.00000  0.05    0.30
;
_shelx_res_checksum              37602
loop_
_space_group_symop_operation_xyz
'x, y, z'
'-x, -y, -z'
loop_
_atom_site_label
_atom_site_type_symbol
_atom_site_fract_x
_atom_site_fract_y
_atom_site_fract_z
_atom_site_U_iso_or_equiv
_atom_site_adp_type
_atom_site_occupancy
_atom_site_site_symmetry_order
_atom_site_calc_flag
_atom_site_refinement_flags_posn
_atom_site_refinement_flags_adp
C1 C 0.1231(3) -0.2441(3) 0.29266(17) 0.0273(5) Uani 1 1 d . U
C2 C 0.2829(3) -0.3270(3) 0.36345(17) 0.0269(5) Uani 1 1 d . U
C3 C 0.2734(3) -0.4511(3) 0.43563(17) 0.0273(5) Uani 1 1 d . U
H3 H 0.1687 -0.4860 0.4401 0.033 Uiso 1 1 calc R U
C4 C 0.4431(3) -0.2751(3) 0.35503(19) 0.0330(5) Uani 1 1 d . U
H4 H 0.4505 -0.1926 0.3044 0.040 Uiso 1 1 calc R U
C5 C 0.4210(3) -0.5278(3) 0.50397(16) 0.0243(4) Uani 1 1 d . U
C6 C 0.5861(3) -0.3444(3) 0.42021(18) 0.0318(5) Uani 1 1 d . U
H6 H 0.6893 -0.3072 0.4147 0.038 Uiso 1 1 calc R U
C7 C 0.1833(3) -0.3225(3) -0.02161(19) 0.0329(5) Uani 1 1 d . U
H7A H 0.0694 -0.3502 -0.0086 0.040 Uiso 1 1 calc R U
H7B H 0.2758 -0.3923 0.0257 0.040 Uiso 1 1 calc R U
C8 C 0.2582(3) -0.3619(3) -0.1383(2) 0.0361(5) Uani 1 1 d . U
H8A H 0.3871 -0.3647 -0.1461 0.043 Uiso 1 1 calc R U
H8B H 0.2572 -0.4766 -0.1592 0.043 Uiso 1 1 calc R U
C9 C 0.2593(3) -0.1761(3) -0.2951(2) 0.0373(6) Uani 1 1 d . U
H9A H 0.1781 -0.1020 -0.3462 0.045 Uiso 1 1 calc R U
H9B H 0.3401 -0.2819 -0.3331 0.045 Uiso 1 1 calc R U
C10 C 0.3799(3) -0.0806(4) -0.2537(2) 0.0457(7) Uani 1 1 d . U
H10A H 0.4723 -0.1601 -0.2100 0.055 Uiso 1 1 calc R U
H10B H 0.4473 -0.0481 -0.3142 0.055 Uiso 1 1 calc R U
C11 C 0.0037(3) -0.2866(3) -0.26244(19) 0.0340(5) Uani 1 1 d . U
H11A H 0.0717 -0.3927 -0.3042 0.041 Uiso 1 1 calc R U
H11B H -0.0639 -0.1975 -0.3115 0.041 Uiso 1 1 calc R U
C12 C -0.1358(3) -0.3238(3) -0.1830(2) 0.0385(6) Uani 1 1 d . U
H12A H -0.2289 -0.3532 -0.2205 0.046 Uiso 1 1 calc R U
H12B H -0.0719 -0.4224 -0.1387 0.046 Uiso 1 1 calc R U
N008 N 0.1408(2) -0.2254(2) -0.21014(14) 0.0270(4) Uani 1 1 d . U
O1 O 0.1489(2) -0.1327(2) 0.22730(12) 0.0315(4) Uani 1 1 d . U
O2 O -0.0185(2) -0.2863(2) 0.30348(15) 0.0441(5) Uani 1 1 d . U
O1W O -0.4566(3) -0.2160(3) 0.0426(2) 0.0462(5) Uani 1 1 d . .
O3 O 0.1455(2) -0.14130(19) -0.00263(11) 0.0260(3) Uani 1 1 d . U
O4 O 0.2786(2) 0.0715(2) -0.19257(14) 0.0368(4) Uani 1 1 d . U
H4A H 0.2111 0.1453 -0.2312 0.055 Uiso 1 1 calc R U
O5 O -0.2239(2) -0.1711(2) -0.11812(14) 0.0408(4) Uani 1 1 d . U
Cu1 Cu 0.00123(3) 0.00840(3) 0.11616(2) 0.02337(10) Uani 1 1 d . U
H1W H -0.423(4) -0.174(4) 0.090(3) 0.053(11) Uiso 1 1 d . .
H2W H -0.555(5) -0.174(5) 0.038(3) 0.062(12) Uiso 1 1 d . .
loop_
_atom_site_aniso_label
_atom_site_aniso_U_11
_atom_site_aniso_U_22
_atom_site_aniso_U_33
_atom_site_aniso_U_23
_atom_site_aniso_U_13
_atom_site_aniso_U_12
C1 0.0304(11) 0.0253(12) 0.0251(11) 0.0037(9) -0.0060(9) -0.0076(9)
C2 0.0273(10) 0.0285(12) 0.0227(11) 0.0037(9) -0.0047(8) -0.0065(9)
C3 0.0262(10) 0.0298(12) 0.0270(11) 0.0050(9) -0.0042(9) -0.0105(9)
C4 0.0359(12) 0.0352(13) 0.0317(12) 0.0138(10) -0.0086(10) -0.0162(10)
C5 0.0260(10) 0.0262(11) 0.0212(10) 0.0003(8) 0.0000(8) -0.0101(9)
C6 0.0291(11) 0.0370(13) 0.0334(12) 0.0120(10) -0.0058(9) -0.0163(10)
C7 0.0375(12) 0.0221(12) 0.0344(13) 0.0063(10) -0.0074(10) -0.0035(10)
C8 0.0365(12) 0.0242(12) 0.0395(13) -0.0033(10) -0.0055(10) 0.0004(10)
C9 0.0382(13) 0.0378(14) 0.0334(13) -0.0079(11) 0.0123(10) -0.0124(11)
C10 0.0300(12) 0.0447(16) 0.0625(18) -0.0028(14) 0.0055(12) -0.0146(11)
C11 0.0374(12) 0.0357(14) 0.0315(12) -0.0084(10) -0.0025(10) -0.0156(10)
C12 0.0375(13) 0.0348(14) 0.0479(15) -0.0061(11) -0.0016(11) -0.0186(11)
N008 0.0258(9) 0.0278(10) 0.0257(9) -0.0024(8) -0.0003(7) -0.0076(8)
O1 0.0294(8) 0.0371(9) 0.0281(8) 0.0137(7) -0.0094(6) -0.0105(7)
O2 0.0356(9) 0.0477(11) 0.0572(12) 0.0264(9) -0.0202(8) -0.0224(8)
O1W 0.0377(12) 0.0452(12) 0.0547(13) -0.0079(10) 0.0032(10) -0.0142(10)
O3 0.0280(7) 0.0211(8) 0.0230(8) 0.0022(6) -0.0049(6) -0.0008(6)
O4 0.0354(9) 0.0356(10) 0.0405(10) 0.0043(8) -0.0118(7) -0.0122(7)
O5 0.0409(9) 0.0390(10) 0.0452(10) -0.0084(8) 0.0066(8) -0.0189(8)
Cu1 0.02470(15) 0.02284(16) 0.01916(15) 0.00351(10) -0.00311(9) -0.00366(10)
loop_
_atom_type_symbol
_atom_type_description
_atom_type_scat_dispersion_real
_atom_type_scat_dispersion_imag
_atom_type_scat_source
C C 0.0033 0.0016 'International Tables Vol C Tables 4.2.6.8 and 6.1.1.4'
H H 0.0000 0.0000 'International Tables Vol C Tables 4.2.6.8 and 6.1.1.4'
N N 0.0061 0.0033 'International Tables Vol C Tables 4.2.6.8 and 6.1.1.4'
O O 0.0106 0.0060 'International Tables Vol C Tables 4.2.6.8 and 6.1.1.4'
Cu Cu 0.3201 1.2651 'International Tables Vol C Tables 4.2.6.8 and 6.1.1.4'
loop_
_geom_angle_atom_site_label_1
_geom_angle_atom_site_label_2
_geom_angle_atom_site_label_3
_geom_angle
_geom_angle_site_symmetry_1
_geom_angle_site_symmetry_3
O2 C1 O1 126.1(2) . .
O2 C1 C2 119.08(19) . .
O1 C1 C2 114.77(19) . .
C3 C2 C4 119.9(2) . .
C3 C2 C1 120.3(2) . .
C4 C2 C1 119.8(2) . .
C2 C3 C5 120.9(2) . .
C6 C4 C2 120.8(2) . .
C6 C5 C5 119.4(2) 2_646 2_646
C6 C5 C3 122.0(2) 2_646 .
C5 C5 C3 118.6(2) 2_646 .
C4 C6 C5 120.4(2) . 2_646
O3 C7 C8 107.22(18) . .
N008 C8 C7 110.74(18) . .
N008 C9 C10 114.1(2) . .
O4 C10 C9 113.9(2) . .
N008 C11 C12 112.83(19) . .
O5 C12 C11 108.01(19) . .
C9 N008 C11 108.57(17) . .
C9 N008 C8 111.41(18) . .
C11 N008 C8 111.68(18) . .
C9 N008 Cu1 108.72(14) . 2
C11 N008 Cu1 109.42(13) . 2
C8 N008 Cu1 106.98(13) . 2
C1 O1 Cu1 133.49(14) . .
C7 O3 Cu1 129.48(13) . .
C7 O3 Cu1 108.89(13) . 2
Cu1 O3 Cu1 96.98(6) . 2
O3 Cu1 O3 83.02(6) . 2
O3 Cu1 O1 95.40(6) . .
O3 Cu1 O1 177.92(6) 2 .
O3 Cu1 N008 162.05(7) . 2
O3 Cu1 N008 84.79(7) 2 2
O1 Cu1 N008 97.05(7) . 2
O3 Cu1 Cu1 41.56(4) . 2
O3 Cu1 Cu1 41.46(4) 2 2
O1 Cu1 Cu1 136.94(5) . 2
N008 Cu1 Cu1 125.03(5) 2 2
loop_
_geom_bond_atom_site_label_1
_geom_bond_atom_site_label_2
_geom_bond_distance
_geom_bond_site_symmetry_2
C1 O2 1.235(3) .
C1 O1 1.269(3) .
C1 C2 1.510(3) .
C2 C3 1.363(3) .
C2 C4 1.416(3) .
C3 C5 1.419(3) .
C4 C6 1.361(3) .
C5 C6 1.411(3) 2_646
C5 C5 1.417(4) 2_646
C6 C5 1.411(3) 2_646
C7 O3 1.414(3) .
C7 C8 1.522(3) .
C8 N008 1.496(3) .
C9 N008 1.486(3) .
C9 C10 1.506(4) .
C10 O4 1.404(3) .
C11 N008 1.487(3) .
C11 C12 1.508(3) .
C12 O5 1.416(3) .
N008 Cu1 2.0452(18) 2
O1 Cu1 1.9482(14) .
O3 Cu1 1.9395(14) .
O3 Cu1 1.9434(14) 2
Cu1 O3 1.9434(14) 2
Cu1 N008 2.0453(18) 2
Cu1 Cu1 2.9076(6) 2
