#------------------------------------------------------------------------------
#$Date: 2016-08-10 04:12:06 +0300 (Wed, 10 Aug 2016) $
#$Revision: 185715 $
#$URL: file:///home/coder/svn-repositories/cod/cif/1/54/38/1543866.cif $
#------------------------------------------------------------------------------
#
# This file is available in the Crystallography Open Database (COD),
# http://www.crystallography.net/. The original data for this entry
# were provided by IUCr Journals, http://journals.iucr.org/.
#
# The file may be used within the scientific community so long as
# proper attribution is given to the journal article from which the
# data were obtained.
#
data_1543866
loop_
_publ_author_name
'G\"orbitz, Carl Henrik'
'Karen, Pavel'
'Du\<sek, Michal'
'Pet\<r\'i\<cek, V\'aclav'
_publ_section_title
;
 An exceptional series of phase transitions in hydrophobic amino acids
 with linear side chains
;
_journal_issue                   5
_journal_name_full               IUCrJ
_journal_page_first
;
;
_journal_paper_doi               10.1107/S2052252516010472
_journal_volume                  3
_journal_year                    2016
_chemical_absolute_configuration rm
_chemical_formula_moiety         'C5 H11 N O2'
_chemical_formula_sum            'C5 H11 N O2'
_chemical_formula_weight         117.15
_chemical_name_common            L-norvaline
_chemical_name_systematic
;
 S-2-aminopentanoic acid
;
_space_group_crystal_system      monoclinic
_space_group_IT_number           5
_space_group_name_Hall           'C 2y'
_space_group_name_H-M_alt        'C 1 2 1'
_symmetry_space_group_name_Hall  'C 2y'
_symmetry_space_group_name_H-M   'C 1 2 1'
_atom_sites_solution_hydrogens   geom
_atom_sites_solution_primary     direct
_atom_sites_solution_secondary   difmap
_audit_creation_method           SHELXL-2013
_cell_angle_alpha                90
_cell_angle_beta                 104.770(5)
_cell_angle_gamma                90
_cell_formula_units_Z            4
_cell_length_a                   9.589(4)
_cell_length_b                   5.2054(19)
_cell_length_c                   14.698(7)
_cell_measurement_reflns_used    1201
_cell_measurement_temperature    293(2)
_cell_measurement_theta_max      24.88
_cell_measurement_theta_min      2.59
_cell_volume                     709.4(5)
_computing_cell_refinement       'APEX2 (Bruker, 2014)'
_computing_data_collection       'APEX2 (Bruker, 2014)'
_computing_data_reduction        'APEX2 (Bruker, 2014)'
_computing_molecular_graphics    'MERCURY (Macrae et al., 2008)'
_computing_publication_material  'SHELXL (Sheldrick, 2015b)'
_computing_structure_refinement  'SHELXL (Sheldrick, 2015b)'
_computing_structure_solution    'SHELXT (Sheldrick, 2015a)'
_diffrn_ambient_temperature      293(2)
_diffrn_detector_area_resol_mean 8.3
_diffrn_measured_fraction_theta_full 0.963
_diffrn_measured_fraction_theta_max 0.993
_diffrn_measurement_device_type  'Bruker Apex II CCD diffractometer'
_diffrn_measurement_method
'Sets of exposures each taken over 0.5\% \w rotation'
_diffrn_radiation_monochromator  graphite
_diffrn_radiation_type           MoK\a
_diffrn_radiation_wavelength     0.71073
_diffrn_reflns_av_R_equivalents  0.0159
_diffrn_reflns_av_unetI/netI     0.0264
_diffrn_reflns_Laue_measured_fraction_full 0.963
_diffrn_reflns_Laue_measured_fraction_max 0.993
_diffrn_reflns_limit_h_max       11
_diffrn_reflns_limit_h_min       -7
_diffrn_reflns_limit_k_max       6
_diffrn_reflns_limit_k_min       -6
_diffrn_reflns_limit_l_max       17
_diffrn_reflns_limit_l_min       -17
_diffrn_reflns_number            1748
_diffrn_reflns_point_group_measured_fraction_full 0.862
_diffrn_reflns_point_group_measured_fraction_max 0.890
_diffrn_reflns_theta_full        25.242
_diffrn_reflns_theta_max         25.021
_diffrn_reflns_theta_min         2.867
_exptl_absorpt_coefficient_mu    0.084
_exptl_absorpt_correction_T_max  1.000
_exptl_absorpt_correction_T_min  0.856
_exptl_absorpt_correction_type   multi-scan
_exptl_absorpt_process_details   'SADABS (Bruker, 2014)'
_exptl_crystal_colour            colourless
_exptl_crystal_density_diffrn    1.097
_exptl_crystal_density_method    'not measured'
_exptl_crystal_description       plate
_exptl_crystal_F_000             256
_exptl_crystal_size_max          0.73
_exptl_crystal_size_mid          0.65
_exptl_crystal_size_min          0.14
_refine_diff_density_max         0.117
_refine_diff_density_min         -0.104
_refine_diff_density_rms         0.029
_refine_ls_extinction_method     none
_refine_ls_goodness_of_fit_ref   1.095
_refine_ls_hydrogen_treatment    constr
_refine_ls_matrix_type           full
_refine_ls_number_parameters     156
_refine_ls_number_reflns         1120
_refine_ls_number_restraints     1165
_refine_ls_restrained_S_all      0.872
_refine_ls_R_factor_all          0.0535
_refine_ls_R_factor_gt           0.0388
_refine_ls_shift/su_max          0.000
_refine_ls_shift/su_mean         0.000
_refine_ls_structure_factor_coef Fsqd
_refine_ls_weighting_details
;
 w=1/[\s^2^(Fo^2^)+(0.0634P)^2^+0.1166P]
 where P=(Fo^2^+2Fc^2^)/3
;
_refine_ls_weighting_scheme      calc
_refine_ls_wR_factor_gt          0.1034
_refine_ls_wR_factor_ref         0.1154
_reflns_Friedel_coverage         0.600
_reflns_Friedel_fraction_full    0.734
_reflns_Friedel_fraction_max     0.758
_reflns_number_gt                904
_reflns_number_total             1120
_reflns_threshold_expression     'I > 2\s(I)'
_cod_data_source_file            ed5010.cif
_cod_data_source_block           Nva293
_cod_database_code               1543866
_shelx_space_group_comment
;
The symmetry employed for this shelxl refinement is uniquely defined
by the following loop, which should always be used as a source of
symmetry information in preference to the above space-group names.
They are only intended as comments.
;
_shelxl_version_number           2013-2
_shelx_res_file
;
TITL Nva in C2
CELL 0.71073   9.5894   5.2054  14.6975  90.000 104.770  90.000
ZERR    4.00   0.0035   0.0019   0.0066   0.000   0.005   0.000
LATT -7
SYMM -X, Y, -Z
SFAC C H N O
UNIT 20 44 4 8
LIST 4
TEMP 20.000

L.S. 5

ACTA
BOND $H
CONF

FMAP 2
PLAN 5

ISOR 0.02
DELU 0.005
SIMU 0.025

EQIV $1 -0.5+X, 0.5+Y, Z
EQIV $2 X, 1+Y, Z
EQIV $3 1-X, Y, 1-Z

HTAB N11 O11_$1
HTAB N11 O21_$1
HTAB N11 O21_$2
HTAB N11 O11_$3

EADP O11 O12 O13 O14
EADP O21 O22 O23 O24
EADP N11 N12 N13 N14
EADP C11 C12 C13 C14
EADP C21 C22 C23 C24
EADP C31 C32 C33 C34

SHEL 100.0 0.84

SUMP 1.00 0.01 1.0 2 1.0 3 1.0 4 1.0 5

WGHT    0.063400    0.116600
FVAR       0.44607   0.36858   0.25008   0.18394   0.19739
PART 1
O11   4    0.576929    0.332647    0.421580    21.00000    0.02987    0.05422 =
         0.08276    0.00094    0.02158    0.00887
O21   4    0.478887   -0.022081    0.347056    21.00000    0.05147    0.05210 =
         0.09226    0.00216    0.03625    0.00773
N11   3    0.333023    0.564116    0.420972    21.00000    0.03387    0.05927 =
         0.09060    0.01208    0.02432    0.01955
AFIX  37
H1    2    0.245281    0.627575    0.416250    21.00000   -1.50000
H2    2    0.386586    0.680932    0.401364    21.00000   -1.50000
H3    2    0.373900    0.524250    0.480709    21.00000   -1.50000
AFIX   0
C11   1    0.470293    0.198007    0.382674    21.00000    0.03369    0.05298 =
         0.08206    0.00314    0.02162    0.00854
C21   1    0.321859    0.330137    0.361968    21.00000    0.03262    0.06117 =
         0.08677    0.00687    0.01817    0.00832
AFIX  13
H21   2    0.253119    0.212082    0.379118    21.00000   -1.20000
AFIX   0
C31   1    0.266551    0.398091    0.258383    21.00000    0.05981    0.08916 =
         0.08819    0.01250    0.01776    0.01157
AFIX  23
H31   2    0.182076    0.506775    0.250137    21.00000   -1.20000
H32   2    0.340018    0.494962    0.238504    21.00000   -1.20000
AFIX   0
C41   1    0.227686    0.162118    0.196686    21.00000    0.10888    0.13306 =
         0.10340   -0.01650    0.01217   -0.00991
AFIX  23
H41   2    0.163983    0.052145    0.221067    21.00000   -1.20000
H42   2    0.314248    0.065626    0.196752    21.00000   -1.20000
AFIX   0
C51   1    0.151876    0.246756    0.095026    21.00000    0.21598    0.19003 =
         0.11389   -0.00892   -0.02854   -0.01465
AFIX  33
H51   2    0.140514    0.100887    0.053818    21.00000   -1.50000
H52   2    0.209317    0.374718    0.074595    21.00000   -1.50000
H53   2    0.058831    0.317098    0.093686    21.00000   -1.50000
AFIX   0

PART 2
SAME 0.004 0.006 O11 > C51
O12   4    0.579689    0.356025    0.405955    31.00000    0.02987    0.05422 =
         0.08276    0.00094    0.02158    0.00887
O22   4    0.498198   -0.042839    0.371993    31.00000    0.05147    0.05210 =
         0.09226    0.00216    0.03625    0.00773
N12   3    0.329443    0.563491    0.405365    31.00000    0.03387    0.05927 =
         0.09060    0.01208    0.02432    0.01955
AFIX  33
H4    2    0.240129    0.625334    0.393986    31.00000   -1.50000
H5    2    0.381848    0.662509    0.377422    31.00000   -1.50000
H6    2    0.368864    0.561831    0.467130    31.00000   -1.50000
AFIX   0
C12   1    0.480143    0.194084    0.386516    31.00000    0.03369    0.05298 =
         0.08206    0.00314    0.02162    0.00854
C22   1    0.325258    0.298253    0.367972    31.00000    0.03262    0.06117 =
         0.08677    0.00687    0.01817    0.00832
AFIX  13
H22   2    0.271686    0.190036    0.401894    31.00000   -1.20000
AFIX   0
C32   1    0.247944    0.292059    0.264001    31.00000    0.05981    0.08916 =
         0.08819    0.01250    0.01776    0.01157
AFIX  23
H33   2    0.236931    0.114889    0.242932    31.00000   -1.20000
H34   2    0.152287    0.364678    0.255311    31.00000   -1.20000
AFIX   0
C42   1    0.327742    0.439635    0.204123    31.00000    0.10770
AFIX  23
H43   2    0.421667    0.362769    0.209587    31.00000   -1.20000
H44   2    0.341996    0.615992    0.225822    31.00000   -1.20000
AFIX   0
C52   1    0.238907    0.433879    0.100012    31.00000    0.17393
AFIX  33
H54   2    0.288856    0.528985    0.062075    31.00000   -1.50000
H55   2    0.146039    0.509892    0.095001    31.00000   -1.50000
H56   2    0.226813    0.259197    0.078492    31.00000   -1.50000
AFIX   0

PART 3
SAME 0.004 0.006 O11 > C51
O13   4    0.580980    0.339237    0.408586    41.00000    0.02987    0.05422 =
         0.08276    0.00094    0.02158    0.00887
O23   4    0.491122   -0.057961    0.398572    41.00000    0.05147    0.05210 =
         0.09226    0.00216    0.03625    0.00773
N13   3    0.311662    0.532997    0.394607    41.00000    0.03387    0.05927 =
         0.09060    0.01208    0.02432    0.01955
AFIX  33
H7    2    0.330249    0.498617    0.455846    41.00000   -1.50000
H8    2    0.221765    0.591024    0.374375    41.00000   -1.50000
H9    2    0.372949    0.651843    0.384798    41.00000   -1.50000
AFIX   0
C13   1    0.479413    0.182617    0.384174    41.00000    0.03369    0.05298 =
         0.08206    0.00314    0.02162    0.00854
C23   1    0.328350    0.295745    0.342664    41.00000    0.03262    0.06117 =
         0.08677    0.00687    0.01817    0.00832
AFIX  13
H23   2    0.256657    0.170514    0.351546    41.00000   -1.20000
AFIX   0
C33   1    0.301433    0.349832    0.237978    41.00000    0.05981    0.08916 =
         0.08819    0.01250    0.01776    0.01157
AFIX  23
H35   2    0.376636    0.462328    0.227745    41.00000   -1.20000
H36   2    0.306611    0.189880    0.205138    41.00000   -1.20000
AFIX   0
C43   1    0.155963    0.473781    0.197229    41.00000    0.11283
AFIX  23
H45   2    0.152719    0.640826    0.225867    41.00000   -1.20000
H46   2    0.080353    0.367912    0.210620    41.00000   -1.20000
AFIX   0
C53   1    0.131268    0.504276    0.089479    41.00000    0.17912
AFIX  33
H57   2    0.038852    0.581938    0.063604    41.00000   -1.50000
H58   2    0.134159    0.338452    0.061432    41.00000   -1.50000
H59   2    0.205485    0.611342    0.076604    41.00000   -1.50000
AFIX   0

PART 4
SAME 0.004 0.006 O11 > C51
O14   4    0.577332    0.347872    0.394303    51.00000    0.02987    0.05422 =
         0.08276    0.00094    0.02158    0.00887
O24   4    0.471613   -0.036479    0.372334    51.00000    0.05147    0.05210 =
         0.09226    0.00216    0.03625    0.00773
N14   3    0.323828    0.551668    0.411340    51.00000    0.03387    0.05927 =
         0.09060    0.01208    0.02432    0.01955
AFIX  33
H10   2    0.237668    0.626741    0.399279    51.00000   -1.50000
H11   2    0.390215    0.667327    0.407061    51.00000   -1.50000
H12   2    0.345058    0.486093    0.469167    51.00000   -1.50000
AFIX   0
C14   1    0.468963    0.207240    0.366254    51.00000    0.03369    0.05298 =
         0.08206    0.00314    0.02162    0.00854
C24   1    0.321401    0.343042    0.342183    51.00000    0.03262    0.06117 =
         0.08677    0.00687    0.01817    0.00832
AFIX  13
H24   2    0.247567    0.217903    0.347561    51.00000   -1.20000
AFIX   0
C34   1    0.282740    0.449825    0.242604    51.00000    0.05981    0.08916 =
         0.08819    0.01250    0.01776    0.01157
AFIX  23
H37   2    0.196022    0.553016    0.233364    51.00000   -1.20000
H38   2    0.359978    0.561007    0.234700    51.00000   -1.20000
AFIX   0
C44   1    0.258192    0.240459    0.168663    51.00000    0.10624
AFIX  23
H47   2    0.335800    0.115812    0.184661    51.00000   -1.20000
H48   2    0.257539    0.314320    0.107963    51.00000   -1.20000
AFIX   0
C54   1    0.112161    0.106112    0.163273    51.00000    0.16501
AFIX  33
H60   2    0.044359    0.151439    0.105317    51.00000   -1.50000
H61   2    0.075839    0.160346    0.215303    51.00000   -1.50000
H62   2    0.125787   -0.076705    0.165860    51.00000   -1.50000

AFIX   0
HKLF 4

REM  Nva in C2
REM R1 =  0.0388 for     904 Fo > 4sig(Fo)  and  0.0535 for all    1120 data
REM    156 parameters refined using   1165 restraints

END

WGHT      0.0634      0.1166

REM Highest difference peak  0.117,  deepest hole -0.104,  1-sigma level  0.029
Q1    1   0.5720  0.4889  0.4442  11.00000  0.05    0.11
Q2    1   0.6127  0.3256  0.4873  11.00000  0.05    0.10
Q3    1   0.5444  0.3565  0.3307  11.00000  0.05    0.09
Q4    1   0.4344 -0.0421  0.2997  11.00000  0.05    0.09
Q5    1   0.2577  0.0531  0.0769  11.00000  0.05    0.09
;
_shelx_res_checksum              28899
_shelx_hkl_file
;
   2   0  -2  806.86   14.82
   2   0  -2  819.86   15.06
   4   0  -4  174.32    3.16
   4   0  -4  174.24    3.16
   6   0  -6    1.03    0.13
   6   0  -6    1.21    0.16
   8   0  -8    0.00    0.16
  10   0 -10    1.34    0.24
   1   1  -1  934.56   17.69
   1   1  -1  976.02   17.39
  -1   1   1 1000.00   23.07
  -3   1   3    5.93    0.27
   3   1  -3    6.31    0.20
   3   1  -3    6.60    0.21
   5   1  -5   27.75    0.62
  -5   1   5   27.81    0.79
   5   1  -5   27.24    0.62
   5  -1  -5   28.81    0.65
   5  -1  -5   27.73    0.55
   7   1  -7    3.60    0.26
   7   1  -7    3.65    0.24
   7  -1  -7    3.78    0.31
   9   1  -9    4.54    0.29
   9   1  -9    4.36    0.29
   9  -1  -9    4.28    0.34
  11   1 -11    0.88    0.22
  11  -1 -11    0.94    0.28
   0   2   0   89.69    1.61
   0   2   0   87.88    2.16
   0   2   0   84.11    1.57
  -2   2   2    6.00    0.31
   2   2  -2    6.26    0.21
   2   2  -2    5.90    0.16
  -2  -2   2    5.60    0.27
  -4   2   4   26.48    0.81
   4   2  -4   27.32    0.62
   4   2  -4   27.05    0.56
   6   2  -6   41.53    0.88
  -6   2   6   43.48    1.22
   6   2  -6   43.43    0.94
   8   2  -8    0.84    0.15
   8   2  -8    1.23    0.20
   8  -2  -8    0.88    0.22
  10   2 -10    1.12    0.19
  10   2 -10    1.51    0.25
  10  -2 -10    1.19    0.27
   1   3  -1   58.19    1.12
  -1   3   1   57.35    1.51
   1   3  -1   58.23    1.04
  -1   3   1   49.74    1.07
   1   3  -1   57.85    1.48
   3   3  -3   10.73    0.26
   3   3  -3   10.59    0.34
  -3   3   3   10.29    0.49
  -3  -3   3   10.39    0.44
   5   3  -5   43.54    0.87
   5   3  -5   42.57    0.96
  -5   3   5   42.78    1.26
   7   3  -7   10.37    0.41
  -7   3   7   10.17    0.57
   7   3  -7   10.76    0.34
   9   3  -9    2.67    0.24
   9   3  -9    2.65    0.29
   9  -3  -9    2.35    0.30
   0   4   0    1.11    0.27
   0   4   0    1.19    0.15
   2   4  -2    1.13    0.13
   2   4  -2    0.75    0.17
  -2   4   2    1.22    0.29
  -2  -4   2    1.16    0.31
   4   4  -4    6.43    0.33
  -4   4   4    6.61    0.48
   6   4  -6    5.43    0.32
  -6   4   6    4.35    0.47
   8   4  -8    3.38    0.32
   8  -4  -8    3.05    0.34
  -1  -5   1   11.53    0.62
  -3   5   3    2.78    0.39
   3   5  -3    2.75    0.26
   5   5  -5    2.33    0.28
   7   5  -7    0.39    0.24
   7  -5  -7    0.57    0.35
   0  -6   0    1.87    0.49
   2  -6  -2    0.54    0.38
   4   6  -4    0.00    0.22
   4  -6  -4    0.71    0.36
  10   0  -9   -0.05    0.18
   8   0  -7    2.59    0.28
   6   0  -5   41.28    0.88
   6   0  -5   40.72    0.83
   4   0  -3  323.26    5.68
   4   0  -3  314.10    5.73
   2   0  -1  511.54    9.23
   2   0  -1  510.42    9.14
  -2   0   3  211.36    5.11
   2   0  -3  215.07    3.85
   4   0  -5   38.30    0.77
   4   0  -5   40.28    0.81
   6   0  -7    9.23    0.36
   6   0  -7    9.24    0.28
   8   0  -9   -0.08    0.17
  10   0 -11    0.86    0.24
  11   1 -10   -0.12    0.17
  11  -1 -10    0.03    0.23
   9   1  -8   10.68    0.40
   9   1  -8   10.56    0.38
   9  -1  -8   10.31    0.45
   7   1  -6    3.05    0.22
   7   1  -6    3.35    0.25
   7  -1  -6    3.26    0.28
   5   1  -4    1.91    0.18
  -5   1   4    1.73    0.23
   5   1  -4    1.56    0.16
   5  -1  -4    1.82    0.21
   3   1  -2   93.74    1.72
  -3   1   2   92.90    2.26
   3   1  -2   89.32    1.68
   1   1   0  162.16    2.91
  -1   1   0  161.90    3.86
   1   1   0  160.28    3.86
   1   1   0  158.43    2.87
   1   1  -2   84.34    1.54
  -1   1   2   83.31    2.04
  -1  -1   2   82.34    2.03
  -3   1   4  128.18    3.09
   3   1  -4  131.22    2.35
   3   1  -4  123.11    2.31
   5   1  -6   23.76    0.56
  -5   1   6   24.23    0.71
   5   1  -6   24.01    0.56
   5  -1  -6   24.69    0.50
   7   1  -8   15.07    0.44
   7   1  -8   15.63    0.47
   7  -1  -8   15.51    0.51
   9   1 -10    2.79    0.28
   9   1 -10    2.73    0.25
   9  -1 -10    2.52    0.28
  11   1 -12    1.70    0.25
  10   2  -9    8.21    0.39
  10   2  -9    8.49    0.36
  10  -2  -9    7.94    0.45
   8   2  -7    5.22    0.26
   8   2  -7    5.49    0.30
   8  -2  -7    4.67    0.34
  -6   2   5   26.60    0.84
   6   2  -5   25.72    0.64
   6   2  -5   25.49    0.59
   6  -2  -5   26.05    0.66
  -4   2   3   20.90    0.67
   4   2  -3   20.21    0.45
   4   2  -3   20.69    0.51
  -2   2   1   11.86    0.44
   2   2  -1   11.57    0.26
   2   2  -1   11.65    0.38
   2   2  -1   12.09    0.31
   0   2   1   22.56    0.45
   0   2  -1   22.71    0.47
   0   2   1   22.91    0.47
   0   2  -1   24.02    0.44
   0   2   1   22.10    0.65
  -2   2   3   67.54    1.72
   2   2  -3   67.38    1.23
   2   2  -3   68.60    1.30
  -2  -2   3   65.94    1.67
   4   2  -5   13.24    0.37
  -4   2   5   12.74    0.49
   4   2  -5   12.71    0.32
   6   2  -7   28.75    0.70
  -6   2   7   28.23    0.89
   6   2  -7   28.97    0.65
   8   2  -9    1.00    0.15
   8   2  -9    0.96    0.20
   8  -2  -9    0.67    0.22
  10   2 -11    0.57    0.23
  10   2 -11    0.21    0.17
  10  -2 -11    0.36    0.25
   9   3  -8    2.91    0.24
   9   3  -8    3.80    0.31
   9  -3  -8    2.82    0.31
   7   3  -6   11.08    0.35
   7   3  -6   11.09    0.42
   7  -3  -6   10.63    0.44
   5   3  -4   27.90    0.61
   5   3  -4   28.26    0.70
  -5   3   4   28.91    0.94
  -3   3   2    8.57    0.46
   3   3  -2    7.74    0.22
   3   3  -2    7.79    0.30
  -1   3   0   79.39    2.03
   1   3   0   77.52    2.00
   1   3   0   77.87    1.44
   1   3   0   80.41    1.51
   1   3  -2   30.50    0.57
   1   3  -2   29.41    0.64
  -1   3   2   30.10    0.60
  -1   3   2   28.80    0.88
  -1  -3   2   28.83    0.88
   3   3  -4    6.65    0.27
   3   3  -4    6.77    0.20
  -3   3   4    6.67    0.40
  -3  -3   4    6.35    0.37
  -5   3   6   40.01    1.21
   5   3  -6   40.18    0.92
   5   3  -6   41.74    0.83
  -7   3   8    4.79    0.43
   7   3  -8    5.30    0.26
   7   3  -8    4.99    0.30
   9   3 -10    0.86    0.24
   9  -3 -10    1.11    0.27
   8   4  -7    1.49    0.26
   8  -4  -7    1.45    0.25
   8  -4  -7    1.38    0.35
   6   4  -5    6.67    0.34
   4   4  -3    8.70    0.37
   4   4  -3    9.35    0.28
  -4   4   3    9.73    0.53
   2   4  -1   12.05    0.53
   2   4  -1   11.89    0.39
   2   4  -1   12.13    0.30
   0   4   1    2.47    0.35
   0   4   1    2.39    0.19
   0   4  -1    2.40    0.19
   0  -4   1    2.61    0.41
   2   4  -3    9.41    0.35
  -2   4   3   10.02    0.53
  -2  -4   3    9.88    0.54
  -4   4   5   16.11    0.68
   4   4  -5   16.61    0.51
  -6   4   7    0.93    0.33
   6   4  -7    1.02    0.21
   8   4  -9    3.79    0.33
  -8   4   9    3.13    0.48
   7   5  -6    0.76    0.25
   7  -5  -6    0.91    0.39
   5   5  -4    2.89    0.30
   5  -5  -4    3.62    0.44
   3   5  -2    2.44    0.25
   3  -5  -2    2.96    0.43
   1  -5   0   14.48    0.70
  -1   5   2    2.34    0.37
   1   5  -2    2.19    0.23
  -1  -5   2    2.37    0.43
  -3   5   4    3.66    0.44
   3   5  -4    3.46    0.28
   5   5  -6    1.54    0.25
  -5   5   6    1.10    0.38
   7   5  -8   -0.03    0.23
   4   6  -3    0.14    0.22
   4  -6  -3    0.21    0.39
   2  -6  -1   -0.05    0.41
   0  -6   1    0.47    0.47
   0  -6  -1    1.47    0.42
   4   6  -5    0.07    0.22
  10   0  -8    0.19    0.18
   8   0  -6    4.73    0.30
   6   0  -4   67.25    1.32
   6   0  -4   66.14    1.28
   4   0  -2  365.53    6.50
   2   0   0   34.13    0.65
   0   0   2   60.86    1.51
  -2   0   4  294.42    7.05
   2   0  -4  297.75    5.33
   4   0  -6   10.38    0.32
  -4   0   6   10.36    0.33
   4   0  -6    9.87    0.27
   6   0  -8   13.62    0.37
   6   0  -8   13.91    0.45
   8   0 -10    0.49    0.20
  10   0 -12   -0.23    0.22
  11   1  -9    1.41    0.22
  11  -1  -9    1.28    0.26
   9   1  -7   12.97    0.43
   9   1  -7   12.99    0.42
   9  -1  -7   13.15    0.49
   7   1  -5   21.76    0.54
   7   1  -5   20.87    0.54
   7  -1  -5   21.96    0.59
   5   1  -3   53.86    1.07
   5   1  -3   53.16    1.05
   5  -1  -3   53.91    1.07
   5  -1  -3   53.09    1.39
   3   1  -1  684.00   12.13
   3   1  -1  670.66   12.03
   3  -1  -1  686.20   12.05
   3  -1  -1  669.21   16.06
   1   1   1  129.26    3.04
   1   1   1  125.99    2.26
   1  -1   1  124.11    3.06
  -1   1   3  302.19    7.00
   1   1  -3  275.17    5.25
   1   1  -3  303.35    5.28
  -1  -1   3  295.51    7.00
   3   1  -5  132.41    2.39
  -3   1   5  128.63    3.15
   3   1  -5  124.64    2.35
   3  -1  -5  133.51    2.35
  -5   1   7    8.85    0.37
   5   1  -7    9.34    0.30
   5   1  -7    9.55    0.33
   5  -1  -7    9.25    0.25
   7   1  -9   14.17    0.44
   7   1  -9   14.59    0.46
   7  -1  -9   14.74    0.51
   9   1 -11    1.99    0.23
   9  -1 -11    2.01    0.28
  10   2  -8   12.35    0.45
  10   2  -8   12.08    0.42
  10  -2  -8   11.66    0.52
   8   2  -6    3.79    0.26
   8   2  -6    4.03    0.24
   8  -2  -6    3.95    0.31
   6   2  -4    2.24    0.18
   6   2  -4    1.88    0.21
   6  -2  -4    2.46    0.29
   6  -2  -4    2.09    0.21
   4   2  -2   40.68    0.84
   4   2  -2   38.88    0.78
  -2   2   0   10.12    0.22
   2   2   0    9.85    0.33
   2   2   0    9.96    0.23
   2   2   0   10.35    0.28
   2  -2   0   10.00    0.42
   0   2   2    7.50    0.19
   0   2  -2    7.63    0.21
   0   2  -2    7.46    0.16
   0   2   2    7.31    0.30
   0  -2   2    7.05    0.35
   2   2  -4  135.24    2.45
  -2   2   4  131.15    3.24
  -2  -2   4  130.44    3.19
   4   2  -6    5.24    0.21
   4   2  -6    4.93    0.24
  -4   2   6    4.93    0.32
   6   2  -8    5.88    0.29
   6   2  -8    5.91    0.27
  -6   2   8    5.29    0.40
   8   2 -10    2.85    0.24
   8   2 -10    3.22    0.27
   8  -2 -10    2.99    0.33
  10   2 -12    1.67    0.27
  10  -2 -12    1.11    0.29
   9   3  -7    2.55    0.28
   9   3  -7    1.79    0.18
   9  -3  -7    2.04    0.27
   7   3  -5    6.68    0.27
   7   3  -5    6.45    0.33
   7  -3  -5    6.34    0.34
   7  -3  -5    6.81    0.47
   5   3  -3   25.20    0.55
   5   3  -3   25.04    0.63
   5  -3  -3   24.48    0.86
   3   3  -1    3.62    0.22
   3   3  -1    3.80    0.27
   3   3  -1    3.63    0.15
   3  -3  -1    3.85    0.38
   1   3   1   30.67    0.91
   1   3   1   32.17    0.68
  -1   3  -1   32.75    0.66
   1   3   1   31.73    0.63
   1  -3   1   31.85    0.97
   1   3  -3   38.95    0.80
  -1   3   3   39.45    1.08
   1   3  -3   34.88    0.71
  -1  -3   3   39.22    1.09
   3   3  -5    3.69    0.15
   3   3  -5    3.61    0.22
  -3   3   5    3.55    0.34
  -3  -3   5    3.95    0.31
  -5   3   7   20.40    0.74
   5   3  -7   20.27    0.56
   7   3  -9    1.49    0.22
  -7   3   9    1.45    0.31
   9   3 -11    0.12    0.21
   9  -3 -11    0.07    0.25
   8   4  -6    4.44    0.33
   8  -4  -6    4.10    0.51
   8  -4  -6    4.40    0.37
   6   4  -4    2.81    0.20
   6   4  -4    2.12    0.25
   6  -4  -4    2.60    0.41
   4   4  -2   40.03    0.94
   4   4  -2   42.26    0.83
   4  -4  -2   40.61    1.27
   2   4   0   16.01    0.46
   2   4   0   16.57    0.63
   2   4   0   16.24    0.38
   2  -4   0   16.36    0.72
   0   4   2    3.61    0.37
   0   4  -2    3.66    0.21
   0  -4   2    3.74    0.45
   2   4  -4   10.28    0.37
  -2   4   4   10.24    0.55
  -2  -4   4   11.89    0.56
  -4   4   6    9.81    0.53
   4   4  -6    8.91    0.37
   6   4  -8    0.51    0.20
  -6   4   8    0.38    0.30
  -8   4  10    1.67    0.44
   8   4 -10    2.72    0.32
   7   5  -5    1.31    0.26
   7  -5  -5    0.89    0.42
   5   5  -3    3.14    0.30
   5  -5  -3    3.69    0.47
   3   5  -1    3.53    0.27
   3  -5  -1    3.57    0.47
   1   5   1    5.93    0.49
   1  -5   1    5.99    0.55
   1   5  -3    1.74    0.21
  -1   5   3    1.67    0.34
  -1  -5   3    1.77    0.43
  -3   5   5    0.65    0.31
   3   5  -5    0.83    0.21
   5   5  -7    1.76    0.26
  -5   5   7    1.04    0.36
   4   6  -2    0.28    0.22
   4  -6  -2    0.14    0.40
   2  -6   0    0.87    0.46
   0  -6   2   -0.45    0.46
  -2   6   4    0.67    0.40
   4   6  -6    0.33    0.24
  10   0  -7    2.03    0.22
   8   0  -5    0.14    0.15
   6   0  -3   11.59    0.36
   4   0  -1   44.99    0.87
   4   0  -1   43.75    1.11
   2   0   1   60.42    1.49
   2   0   1   62.21    1.12
   0   0   3  155.89    3.73
   2   0  -5  123.97    2.23
  -2   0   5  121.79    2.95
   4   0  -7   96.05    1.79
  -4   0   7   95.41    2.34
   4   0  -7   97.38    1.82
   6   0  -9    6.35    0.26
   6   0  -9    6.59    0.33
   8   0 -11    1.32    0.23
  10   0 -13   -0.62    0.22
  11   1  -8    2.80    0.27
  11  -1  -8    2.47    0.28
   9   1  -6   11.49    0.40
   9  -1  -6   11.84    0.45
   7   1  -4   34.77    0.77
   7   1  -4   34.33    0.76
   7  -1  -4   34.73    0.80
   5   1  -2  145.74    2.65
   5   1  -2  144.92    2.69
   5  -1  -2  146.41    2.67
   5  -1  -2  144.35    3.54
   3   1   0  483.09    8.58
   3  -1   0  491.53    8.58
   3  -1   0  477.65   11.48
   1   1   2   62.39    1.51
   1   1   2   61.44    1.12
   1  -1   2   60.92    1.53
  -1   1   4  229.98    5.37
   1   1  -4  218.25    4.02
   1   1  -4  226.37    4.05
   3   1  -6   38.41    0.77
  -3   1   6   38.91    1.03
   3   1  -6   38.81    0.79
   3  -1  -6   39.76    0.74
  -3  -1   6   37.99    0.97
  -5   1   8    4.45    0.29
   5   1  -8    4.35    0.22
   5   1  -8    4.60    0.27
   7   1 -10    4.18    0.31
   7   1 -10    3.88    0.25
   7  -1 -10    3.91    0.32
   9   1 -12    0.98    0.22
   9  -1 -12    0.76    0.25
  10   2  -7    5.56    0.30
  10  -2  -7    5.14    0.39
   8   2  -5    0.28    0.15
   8   2  -5    0.25    0.12
   8  -2  -5    0.32    0.18
   6   2  -3    7.18    0.27
   6   2  -3    7.01    0.29
   6  -2  -3    7.24    0.33
   6  -2  -3    7.07    0.47
   4   2  -1   45.62    0.94
   4   2  -1   45.53    0.89
   4  -2  -1   46.43    1.26
   2   2   1   42.85    0.81
   2   2   1   42.32    0.85
   2   2   1   42.71    1.10
   2  -2   1   42.98    1.17
   0   2   3   24.48    0.48
   0   2   3   24.04    0.69
   0   2  -3   23.97    0.51
   0  -2   3   24.66    0.71
   2   2  -5  118.05    2.15
   2   2  -5  122.03    2.24
  -2   2   5  118.95    2.96
  -2  -2   5  120.94    2.91
   4   2  -7   13.40    0.39
  -4   2   7   13.07    0.51
   4   2  -7   13.73    0.35
   6   2  -9    0.47    0.16
   6   2  -9    0.13    0.12
  -6   2   9    0.32    0.21
   8   2 -11    1.74    0.18
   8   2 -11    2.08    0.24
   8  -2 -11    1.55    0.26
   9   3  -6    0.54    0.14
   9   3  -6    0.44    0.20
   9  -3  -6    0.49    0.21
   7   3  -4    1.91    0.19
   7   3  -4    2.02    0.23
   7  -3  -4    2.48    0.35
   7  -3  -4    2.29    0.24
   5   3  -2   30.80    0.74
   5   3  -2   31.18    0.65
   5  -3  -2   30.83    1.01
   3   3   0    1.57    0.16
   3   3   0    1.35    0.12
   3   3   0    1.42    0.18
   3  -3   0    1.55    0.29
   1   3   2   15.39    0.54
   1   3   2   16.20    0.35
  -1   3  -2   15.63    0.37
   1  -3   2   15.42    0.64
   1   3  -4   67.67    1.35
  -1   3   4   68.69    1.81
  -1  -3   4   71.05    1.80
   3   3  -6    0.17    0.13
  -3   3   6   -0.08    0.19
  -3  -3   6    0.54    0.21
  -5   3   8    4.84    0.39
   5   3  -8    4.77    0.28
   7   3 -10    2.37    0.27
  -7   3  10    2.94    0.37
   9   3 -12    0.80    0.25
   9  -3 -12    0.82    0.28
   8   4  -5   13.03    0.40
   8   4  -5   12.52    0.49
   8  -4  -5   12.96    0.71
   8  -4  -5   12.20    0.51
   6   4  -3    0.99    0.12
   6   4  -3    1.00    0.21
   6  -4  -3    0.88    0.35
   4   4  -1   54.61    1.06
   4   4  -1   54.01    1.17
   4  -4  -1   54.08    1.58
   2   4   1    8.38    0.25
   2   4   1    8.50    0.31
   2   4   1    8.46    0.46
   2  -4   1    8.40    0.56
   0   4   3    2.16    0.34
   0   4  -3    2.33    0.19
   0  -4   3    2.64    0.39
   2   4  -5    1.83    0.21
  -2   4   5    2.34    0.32
  -2  -4   5    2.61    0.40
  -4   4   7    1.62    0.30
   4   4  -7    1.55    0.21
   6   4  -9    2.24    0.26
  -6   4   9    1.74    0.34
  -8   4  11    0.68    0.38
   8   4 -11    1.15    0.27
   7   5  -4    1.44    0.26
   7  -5  -4    1.53    0.45
   5   5  -2    2.27    0.26
   5  -5  -2    2.30    0.43
   3   5   0    2.53    0.24
   3   5   0    2.37    0.16
   3  -5   0    2.51    0.44
   1   5   2   -0.11    0.26
   1  -5   2   -0.13    0.40
  -1   5   4    5.35    0.45
   1   5  -4    4.87    0.29
  -1  -5   4    5.02    0.53
   3   5  -6    0.29    0.19
  -3   5   6    0.51    0.30
   5   5  -8    1.83    0.26
  -5   5   8    1.66    0.37
   4  -6  -1   -0.23    0.41
   2  -6   1    0.27    0.46
   0   6   3   -0.35    0.36
   0  -6   3   -0.45    0.48
  -2   6   5    1.03    0.40
   4   6  -7   -0.05    0.23
  12   0  -8    0.13    0.19
  10   0  -6    1.91    0.21
   8   0  -4   22.91    0.59
   6   0  -2   27.87    0.63
   4   0   0   35.67    0.99
   4   0   0   43.65    0.79
   2   0   2   13.83    0.39
   2   0   2   13.93    0.29
   0   0   4  884.94   21.27
  -2   0   6    6.96    0.24
   2   0  -6    7.07    0.19
  -4   0   8  115.23    2.82
   4   0  -8  116.39    2.15
   6   0 -10    0.43    0.19
   6   0 -10    0.59    0.13
   8   0 -12    1.13    0.24
  10   0 -14   -0.21    0.24
  11   1  -7    1.84    0.22
  11  -1  -7    1.89    0.25
   9   1  -5   21.01    0.57
   9  -1  -5   21.57    0.61
   7   1  -3   29.19    0.67
   7  -1  -3   29.28    0.70
   7  -1  -3   28.84    0.87
   5   1  -1   98.60    1.82
   5  -1  -1   96.31    2.43
   5  -1  -1   99.01    1.84
   3   1   1  117.42    2.12
   3  -1   1  119.58    2.13
   3  -1   1  115.03    2.86
   1   1   3   30.74    0.80
   1   1   3   31.13    0.58
   1  -1   3   31.00    0.82
   1   1  -5  152.28    2.77
   1   1  -5  155.60    2.81
  -1   1   5  156.91    3.72
  -1  -1   5  153.13    3.70
  -3   1   7    4.63    0.25
   3   1  -7    4.42    0.21
   3   1  -7    4.71    0.20
  -3  -1   7    4.74    0.20
   3  -1  -7    4.72    0.15
  -5   1   9    0.74    0.18
   5   1  -9    0.95    0.14
   5   1  -9    0.82    0.16
   7   1 -11    0.51    0.15
   7   1 -11    0.37    0.18
   7  -1 -11    0.40    0.20
   9   1 -13    0.01    0.19
   9  -1 -13   -0.49    0.22
  10   2  -6   -0.01    0.14
  10  -2  -6   -0.18    0.20
   8   2  -4    3.28    0.22
   8  -2  -4    3.22    0.29
   6   2  -2   11.32    0.33
   6   2  -2   11.59    0.37
   6  -2  -2   11.64    0.39
   6  -2  -2   11.02    0.56
   4   2   0    1.02    0.12
   4  -2   0    1.22    0.23
   4  -2   0    0.90    0.12
   2   2   2  141.91    2.58
  -2   2  -2  145.75    2.60
   2   2   2  144.25    3.47
   2  -2   2  143.22    3.52
   0   2  -4    4.78    0.18
   0   2   4    4.61    0.25
   0  -2   4    4.63    0.30
  -2   2   6   45.16    1.22
   2   2  -6   44.51    0.84
   2   2  -6   45.18    0.92
  -2  -2   6   46.08    1.16
   4   2  -8    8.06    0.30
   4   2  -8    8.03    0.27
  -4   2   8    7.98    0.40
   6   2 -10    5.22    0.27
   6   2 -10    5.47    0.29
  -6   2  10    5.91    0.38
   8   2 -12    0.12    0.18
   8  -2 -12    0.21    0.23
   9   3  -5    1.40    0.17
   9  -3  -5    1.18    0.23
   7   3  -3    2.29    0.20
   7   3  -3    2.30    0.23
   7  -3  -3    2.31    0.24
   7  -3  -3    2.93    0.39
   5   3  -1   26.80    0.58
   5   3  -1   26.07    0.65
   5  -3  -1   27.10    0.64
   5  -3  -1   27.28    0.93
   3   3   1   12.73    0.31
   3   3   1   12.45    0.45
  -3   3  -1   12.48    0.30
   3  -3   1   12.55    0.60
  -1   3  -3   59.71    1.16
   1   3   3   60.65    1.13
   1   3   3   59.33    1.57
   1  -3   3   60.58    1.62
   1   3  -5   28.35    0.64
  -1   3   5   27.94    0.87
  -1  -3   5   29.29    0.87
   3   3  -7    2.55    0.21
  -3   3   7    2.32    0.31
   5   3  -9    5.51    0.30
  -5   3   9    5.94    0.41
   7   3 -11    3.49    0.29
  -7   3  11    4.01    0.39
   9   3 -13    0.89    0.27
   8   4  -4   14.52    0.42
   8   4  -4   14.42    0.51
   8  -4  -4   13.77    0.75
   8  -4  -4   13.34    0.53
   6   4  -2    5.49    0.31
   6   4  -2    5.61    0.24
   6  -4  -2    5.26    0.52
   4   4   0   25.67    0.56
   4  -4   0   25.52    0.95
   2   4   2    6.70    0.23
   2   4   2    6.66    0.41
   2  -4   2    7.22    0.56
   0   4   4    0.86    0.25
   0   4  -4    1.04    0.15
   0  -4   4    1.40    0.38
  -2   4   6   -0.08    0.22
   2   4  -6    0.07    0.14
  -2  -4   6   -0.11    0.30
  -4   4   8    0.00    0.24
   4   4  -8   -0.07    0.15
  -6   4  10    1.85    0.34
   6   4 -10    1.61    0.25
   7  -5  -3    2.24    0.48
   5   5  -1    1.89    0.18
   5  -5  -1    1.81    0.43
   3   5   1    0.08    0.08
   3  -5   1    0.04    0.38
   1   5   3    4.15    0.43
   1  -5   3    3.59    0.52
   1   5  -5    4.41    0.27
  -1   5   5    4.83    0.43
  -1  -5   5    3.85    0.51
  -3   5   7    2.99    0.39
   3   5  -7    2.60    0.26
   5   5  -9    1.25    0.25
  -5   5   9    0.76    0.34
   4  -6   0   -0.40    0.41
   2  -6   2   -0.49    0.46
   0   6   4    0.44    0.36
   0  -6   4   -0.30    0.53
  -2   6   6    0.21    0.33
  12   0  -7    6.76    0.38
  10   0  -5    0.63    0.17
   8   0  -3   65.49    1.33
   6   0  -1   99.52    1.87
   6   0  -1  100.00    2.43
   4   0   1  111.91    2.74
   4   0   1  115.32    2.07
   2   0   3   67.84    1.70
   2   0   3   71.05    1.26
   0   0   5  616.29   14.59
  -2   0   7    1.57    0.15
   2   0  -7    1.75    0.12
   4   0  -9   38.22    0.79
  -4   0   9   37.59    1.00
   6   0 -11    1.89    0.24
   6   0 -11    2.05    0.20
   8   0 -13    0.28    0.23
  11   1  -6    0.90    0.18
  11  -1  -6    1.02    0.22
   9   1  -4   26.93    0.66
   9  -1  -4   27.10    0.70
   7   1  -2   10.92    0.34
   7  -1  -2   10.96    0.48
   7  -1  -2   10.84    0.38
   5   1   0    9.60    0.28
   5  -1   0    9.65    0.41
   5  -1   0    9.71    0.30
   3   1   2  156.82    3.78
   3   1   2  158.82    2.83
   3  -1   2  161.53    2.83
   3  -1   2  154.85    3.82
   1   1   4   13.62    0.29
   1   1   4   13.48    0.40
   1  -1   4   13.38    0.44
  -1   1   6   86.90    2.12
   1   1  -6   85.56    1.60
  -1  -1   6   84.62    2.09
   3   1  -8    5.53    0.22
  -3   1   8    5.76    0.29
   3   1  -8    5.62    0.25
  -3  -1   8    5.33    0.24
   3  -1  -8    5.67    0.18
   5   1 -10    0.26    0.13
  -5   1  10    0.30    0.17
   5   1 -10    0.27    0.15
   7   1 -12    1.31    0.22
   7   1 -12    1.72    0.20
   7  -1 -12    1.46    0.25
   9  -1 -14   -0.31    0.24
  10   2  -5    3.13    0.25
  10  -2  -5    3.10    0.33
   8   2  -3    4.50    0.24
   8  -2  -3    4.22    0.47
   8  -2  -3    4.51    0.31
   6   2  -1   22.48    0.53
   6  -2  -1   22.64    0.80
   6  -2  -1   23.23    0.58
   4   2   1   14.75    0.35
   4  -2   1   15.28    0.39
   4  -2   1   14.76    0.59
   2   2   3  126.32    3.04
  -2   2  -3  125.27    2.28
   2   2   3  123.96    2.25
   2  -2   3  124.60    2.25
   2  -2   3  124.49    3.09
   0   2  -5    0.74    0.10
   0   2   5    0.76    0.14
   0  -2   5    0.81    0.17
  -2   2   7    4.51    0.30
   2   2  -7    4.58    0.22
  -2  -2   7    5.09    0.25
  -4   2   9    0.76    0.21
   4   2  -9    0.68    0.15
   6   2 -11    7.94    0.35
  -6   2  11    8.60    0.44
   8   2 -13    0.07    0.18
   8  -2 -13    0.04    0.24
   9   3  -4    2.78    0.23
   9  -3  -4    2.88    0.28
   7   3  -2    7.50    0.28
   7  -3  -2    7.40    0.55
   7  -3  -2    7.35    0.35
   5   3   0   15.83    0.40
   5  -3   0   16.35    0.71
   5  -3   0   16.28    0.46
   3   3   2   27.21    0.80
  -3   3  -2   27.38    0.57
   3   3   2   27.56    0.57
   3  -3   2   27.68    0.92
  -1   3  -4   28.89    0.63
   1   3   4   29.35    0.60
   1   3   4   28.76    0.87
   1  -3   4   30.26    0.92
   1   3  -6    1.06    0.14
  -1   3   6    1.00    0.21
  -1  -3   6    1.30    0.26
   3   3  -8    5.34    0.28
  -3   3   8    5.78    0.40
   5   3 -10    9.85    0.39
  -5   3  10   10.41    0.52
   7   3 -12    1.48    0.24
  -7   3  12    2.48    0.36
   8   4  -3    5.73    0.27
   8  -4  -3    5.46    0.59
   6   4  -1    8.35    0.28
   6  -4  -1    8.24    0.58
   4   4   1    1.50    0.17
   4  -4   1    1.49    0.39
   2   4   3   14.96    0.60
   2   4   3   14.90    0.37
   2  -4   3   15.57    0.72
   0   4   5    0.97    0.26
   0   4  -5    0.97    0.16
   0  -4   5    1.05    0.38
   2   4  -7    1.54    0.19
  -2   4   7    1.40    0.27
  -2  -4   7    1.06    0.32
   4   4  -9    0.16    0.16
  -4   4   9    0.34    0.26
   6   4 -11   -0.08    0.19
  -6   4  11    0.42    0.28
   7   5  -2    4.25    0.24
   7  -5  -2    3.75    0.56
   5   5   0    0.69    0.12
   5  -5   0    0.34    0.39
   3   5   2    2.55    0.17
   3  -5   2    2.21    0.46
   1   5   4    7.31    0.47
   1  -5   4    6.87    0.60
   1   5  -6    1.56    0.21
  -1   5   6    1.87    0.32
  -1  -5   6    1.26    0.43
   3   5  -8    2.43    0.27
  -3   5   8    2.75    0.38
  -5   5  10    0.45    0.32
   5   5 -10    0.26    0.23
   4  -6   1   -0.58    0.41
   2  -6   3   -1.08    0.48
   0   6   5    0.69    0.35
   0  -6   5   -1.04    0.52
  -2   6   7   -0.16    0.32
  12   0  -6   17.29    0.57
  10   0  -4   -0.09    0.14
   8   0  -2   45.98    0.98
   6   0   0   12.59    0.39
   4   0   2   25.62    0.69
   4   0   2   25.76    0.53
   2   0   4  124.74    3.07
   2   0   4  129.96    2.28
   0   0   6  227.42    5.42
  -2   0   8   30.46    0.83
   2   0  -8   31.20    0.64
   4   0 -10    2.93    0.19
  -4   0  10    2.79    0.22
   6   0 -12    3.61    0.32
   6   0 -12    3.26    0.24
   8   0 -14   -0.24    0.22
  11   1  -5    0.55    0.17
  11  -1  -5    0.33    0.18
   9   1  -3   13.96    0.43
   9  -1  -3   14.04    0.46
   7   1  -1    3.60    0.22
   7  -1  -1    3.53    0.36
   7  -1  -1    4.00    0.25
   5   1   1   10.76    0.34
   5   1   1   11.43    0.31
   5  -1   1   11.71    0.47
   5  -1   1   11.59    0.32
   3   1   3  158.26    3.83
   3   1   3  161.00    2.87
   3  -1   3  163.02    2.86
   3  -1   3  157.79    3.87
   1   1   5   56.91    1.05
   1   1   5   57.27    1.43
   1  -1   5   56.40    1.44
   1   1  -7  109.48    2.02
  -1   1   7  109.72    2.67
  -1  -1   7  107.22    2.64
  -3   1   9   16.62    0.55
   3   1  -9   16.18    0.43
   3   1  -9   17.04    0.43
  -3  -1   9   16.45    0.50
   3  -1  -9   16.57    0.38
  -5   1  11    1.76    0.26
   5   1 -11    1.71    0.19
   5   1 -11    1.53    0.20
   7   1 -13    1.49    0.23
   7   1 -13    1.80    0.21
   7  -1 -13    1.99    0.27
   9  -1 -15   -0.20    0.27
  10   2  -4    7.84    0.34
  10  -2  -4    7.92    0.40
   8   2  -2    0.60    0.13
   8  -2  -2    0.42    0.18
   8  -2  -2    0.21    0.30
   6   2   0   31.39    0.68
   6  -2   0   32.18    0.72
   6  -2   0   31.93    1.00
   4   2   2   11.44    0.30
   4   2   2   11.64    0.38
   4  -2   2   11.83    0.52
   4  -2   2   11.49    0.32
   2   2   4   26.57    0.75
  -2   2  -4   27.02    0.55
   2   2   4   26.74    0.54
   2  -2   4   26.74    0.80
   0   2  -6    4.44    0.19
   0   2   6    4.42    0.26
   0  -2   6    4.48    0.29
  -2   2   8    8.88    0.39
   2   2  -8    8.46    0.29
  -2  -2   8    8.60    0.35
  -4   2  10    3.03    0.31
   4   2 -10    2.94    0.24
   6   2 -12    4.71    0.29
  -6   2  12    5.11    0.38
   8   2 -14    0.49    0.22
   8  -2 -14    0.13    0.25
  11   3  -5    1.55    0.21
  11  -3  -5    1.01    0.27
   9   3  -3    3.18    0.23
   9  -3  -3    2.86    0.28
   7   3  -1   11.97    0.36
   7  -3  -1   12.31    0.66
   7  -3  -1   12.06    0.43
   5   3   1    9.37    0.29
   5  -3   1    9.84    0.58
   3   3   3   14.61    0.35
  -3   3  -3   14.29    0.36
   3   3   3   14.34    0.51
   3  -3   3   15.01    0.66
   1   3   5    3.32    0.16
  -1   3  -5    3.34    0.20
   1   3   5    2.90    0.29
   1  -3   5    3.42    0.39
  -1   3   7    1.27    0.22
   1   3  -7    1.39    0.16
  -1  -3   7    1.48    0.29
  -3   3   9    1.87    0.28
   3   3  -9    2.14    0.22
  -5   3  11    5.73    0.41
   5   3 -11    4.68    0.30
  -7   3  13    0.61    0.27
   7   3 -13    0.15    0.20
   8   4  -2    1.02    0.16
   8  -4  -2    0.75    0.45
   6   4   0    4.99    0.22
   6  -4   0    4.61    0.53
   4   4   2   21.49    0.51
   4  -4   2   21.67    0.86
   2   4   4   12.81    0.34
  -2   4  -4   12.59    0.37
   2   4   4   12.87    0.54
   2  -4   4   13.29    0.67
   0   4   6    6.26    0.42
   0   4  -6    5.76    0.27
   0  -4   6    6.29    0.49
  -2   4   8    1.75    0.28
   2   4  -8    1.69    0.20
  -4   4  10    0.18    0.25
   4   4 -10    0.12    0.17
   6   4 -12    0.06    0.20
  -6   4  12    0.31    0.29
   7   5  -1    3.28    0.23
   7  -5  -1    2.36    0.52
   5   5   1    1.08    0.14
   5  -5   1    0.57    0.42
   3   5   3    5.77    0.23
   3  -5   3    5.52    0.57
   1   5   5    4.15    0.40
   1  -5   5    3.47    0.55
   1   5  -7    0.03    0.17
  -1   5   7    0.16    0.25
   3   5  -9    0.71    0.21
  -3   5   9    0.89    0.31
   5   5 -11    0.08    0.22
  -5   5  11    0.44    0.32
   4   6   2    0.12    0.13
   4  -6   2   -0.57    0.45
   0   6   6    0.48    0.34
  -2   6   8    0.63    0.35
   2   6  -8    0.24    0.24
  12   0  -5   15.59    0.54
  10   0  -3    0.27    0.16
   8   0  -1    5.07    0.27
   6   0   1    3.33    0.22
   6   0   1    3.12    0.20
   4   0   3    3.51    0.20
   4   0   3    3.54    0.15
   2   0   5    0.33    0.09
   0   0   7   36.59    0.97
   2   0  -9   45.36    0.89
  -2   0   9   43.55    1.16
   4   0 -11    1.04    0.15
  -4   0  11    0.99    0.17
   6   0 -13    0.49    0.22
   8   0 -15    0.18    0.25
  11   1  -4    1.89    0.22
  11  -1  -4    1.86    0.23
   9   1  -2   12.86    0.41
   9  -1  -2   12.29    0.42
   7   1   0   29.81    0.67
   7  -1   0   30.39    0.69
   7  -1   0   30.51    0.90
   5   1   2   35.04    0.90
   5   1   2   34.25    0.71
   5  -1   2   34.96    0.71
   5  -1   2   34.00    0.97
   3   1   4   89.07    2.21
   3   1   4   90.57    1.65
   3  -1   4   89.36    2.24
   3  -1   4   91.77    1.63
   1   1   6   17.11    0.51
   1   1   6   17.21    0.36
   1  -1   6   17.10    0.52
  -1   1   8   50.85    1.32
   1   1  -8   51.75    1.01
  -1  -1   8   48.86    1.29
   3   1 -10   12.89    0.38
   3   1 -10   12.36    0.38
  -3   1  10   12.70    0.48
  -3  -1  10   13.15    0.43
   3  -1 -10   13.07    0.33
   5   1 -12    1.34    0.19
  -5   1  12    1.23    0.22
   7   1 -14    1.13    0.21
   7  -1 -14    0.74    0.25
  10   2  -3    7.30    0.32
  10  -2  -3    6.74    0.37
   8   2  -1    1.70    0.19
   8  -2  -1    1.61    0.20
   8  -2  -1    1.63    0.33
   6   2   1   18.25    0.45
   6  -2   1   18.72    0.48
   6  -2   1   18.75    0.70
   4   2   3    9.80    0.35
   4   2   3    9.87    0.27
   4  -2   3    9.91    0.28
   4  -2   3   10.18    0.48
   2   2   5    1.20    0.17
   2   2   5    1.03    0.11
  -2   2  -5    1.28    0.13
   2  -2   5    1.64    0.25
   0   2   7    1.13    0.17
   0   2  -7    1.18    0.13
   0  -2   7    1.18    0.19
   2   2  -9   26.25    0.63
  -2   2   9   26.44    0.82
  -2  -2   9   26.86    0.76
   4   2 -11    1.95    0.21
  -4   2  11    2.22    0.31
   6   2 -13    1.39    0.22
  -6   2  13    2.12    0.34
   8   2 -15    0.15    0.22
   8  -2 -15    0.39    0.28
  11   3  -4    1.31    0.21
  11  -3  -4    1.11    0.26
   9   3  -2    1.59    0.17
   9  -3  -2    1.02    0.46
   9  -3  -2    1.43    0.24
   7   3   0    8.10    0.29
   7  -3   0    7.79    0.58
   5   3   2    2.79    0.18
   5  -3   2    3.59    0.47
   3   3   4    4.00    0.18
  -3   3  -4    3.96    0.19
   3   3   4    3.60    0.29
   3  -3   4    4.23    0.46
  -1   3  -6    1.18    0.15
   1   3   6    1.10    0.13
   1   3   6    0.81    0.20
   1  -3   6    1.15    0.31
   1   3  -8    3.54    0.23
  -1   3   8    3.39    0.33
  -1  -3   8    3.50    0.36
   3   3 -10    0.53    0.16
  -3   3  10    0.46    0.23
   5   3 -12    0.61    0.20
  -5   3  12    1.10    0.28
   7   3 -14    0.31    0.22
   8   4  -1    4.83    0.26
   8  -4  -1    4.08    0.58
   6   4   1    1.70    0.18
   6  -4   1    1.20    0.43
   4   4   3   34.42    0.73
   4  -4   3   33.91    1.15
   2   4   5    3.14    0.34
   2   4   5    2.98    0.18
  -2   4  -5    3.17    0.22
   2  -4   5    3.13    0.44
   0   4   7    6.83    0.42
   0   4  -7    6.21    0.29
   0  -4   7    6.51    0.50
  -2   4   9    1.09    0.26
   2   4  -9    0.95    0.18
  -4   4  11    0.30    0.26
   4   4 -11   -0.08    0.17
   6   4 -13    0.19    0.22
  -6   4  13    0.66    0.31
   7   5   0    1.90    0.20
   7  -5   0    0.74    0.50
   5   5   2    1.60    0.18
   5  -5   2    0.67    0.44
   3   5   4    3.20    0.20
   3  -5   4    2.82    0.50
   1   5   6    0.89    0.28
   1  -5   6   -0.64    0.43
   1   5  -8    0.21    0.18
  -1   5   8    0.39    0.27
  -3   5  10    0.53    0.29
   3   5 -10    0.09    0.20
   4   6   3    0.26    0.14
   0   6   7    0.86    0.34
  12   0  -4    2.83    0.29
  10   0  -2    2.89    0.25
   8   0   0    7.17    0.30
   6   0   2   21.08    0.61
   6   0   2   20.64    0.50
   4   0   4   18.65    0.55
   4   0   4   18.75    0.41
   2   0   6   43.74    1.15
   2   0   6   44.73    0.82
   0   0   8   37.59    1.01
   2   0 -10    3.94    0.20
  -2   0  10    3.94    0.26
  -4   0  12    4.29    0.28
   4   0 -12    4.12    0.24
   6   0 -14   -0.16    0.21
  11   1  -3    3.00    0.26
  11  -1  -3    3.00    0.27
   9   1  -1   13.87    0.43
   9  -1  -1   14.02    0.44
   7   1   1   26.25    0.61
   7  -1   1   27.17    0.83
   7  -1   1   26.98    0.63
   5   1   3   55.77    1.11
   5   1   3   58.02    1.45
   5  -1   3   58.43    1.51
   5  -1   3   57.82    1.10
   3   1   5   47.92    1.25
   3   1   5   49.73    0.93
   3  -1   5   48.40    1.28
   3  -1   5   48.61    0.90
   1   1   7    2.29    0.20
   1   1   7    2.06    0.12
   1  -1   7    2.09    0.20
   1   1  -9   27.03    0.60
  -1   1   9   26.38    0.77
  -1  -1   9   25.68    0.75
   3   1 -11    4.70    0.26
  -3   1  11    4.45    0.31
  -3  -1  11    4.58    0.27
   3  -1 -11    4.32    0.21
   5   1 -13    0.47    0.17
  -5   1  13    0.52    0.21
   7   1 -15    0.37    0.20
   7  -1 -15    0.33    0.25
  10   2  -2    3.04    0.25
  10  -2  -2    2.79    0.28
   8   2   0    3.40    0.21
   8  -2   0    3.51    0.39
   8  -2   0    3.28    0.26
   6   2   2    2.82    0.19
   6  -2   2    2.99    0.40
   6  -2   2    2.54    0.23
   4   2   4    6.88    0.30
   4   2   4    7.13    0.23
   4  -2   4    7.31    0.44
   2   2   6   14.53    0.35
   2   2   6   14.52    0.49
   2  -2   6   14.61    0.56
   0   2  -8    2.72    0.19
   0   2   8    2.37    0.24
   0  -2   8    2.75    0.26
   2   2 -10   23.83    0.60
  -2   2  10   23.37    0.78
  -2  -2  10   24.59    0.72
   4   2 -12    0.62    0.18
  -4   2  12    0.56    0.24
  -6   2  14    0.89    0.27
   6   2 -14    0.69    0.21
   9   3  -1    0.43    0.14
   9  -3  -1   -0.47    0.41
   7   3   1    1.68    0.18
   7  -3   1    1.57    0.42
   5   3   3    3.81    0.19
   5  -3   3    4.66    0.49
  -3   3  -5    0.68    0.13
   3   3   5    0.88    0.19
   3   3   5    0.82    0.10
   3  -3   5    1.13    0.32
  -1   3  -7    3.37    0.22
   1   3   7    3.31    0.30
   1  -3   7    3.59    0.39
   1   3  -9    2.72    0.23
  -1   3   9    2.76    0.32
  -1  -3   9    2.84    0.33
   3   3 -11    1.05    0.19
  -3   3  11    1.21    0.27
   5   3 -13    0.20    0.19
  -5   3  13    0.53    0.27
   7   3 -15    0.06    0.23
   8   4   0    8.09    0.32
   8  -4   0    7.03    0.69
   6   4   2    1.90    0.19
   6  -4   2    1.28    0.45
   4   4   4   18.97    0.47
   4  -4   4   18.48    0.81
   2   4   6    1.50    0.14
   2   4   6    2.00    0.31
  -2   4  -6    1.91    0.19
   2  -4   6    1.48    0.41
   0   4   8    2.86    0.34
   0   4  -8    2.39    0.22
   0  -4   8    2.76    0.40
   2   4 -10    0.64    0.19
  -2   4  10    0.66    0.25
  -4   4  12    0.13    0.26
   4   4 -12   -0.07    0.19
  -6   4  14    0.98    0.34
   7   5   1    3.29    0.24
   7  -5   1    1.94    0.55
   5   5   3    0.35    0.13
   5  -5   3    0.01    0.42
   3   5   5    0.47    0.13
   3   5   5    0.95    0.27
   3  -5   5   -0.52    0.41
   1   5   7    0.79    0.29
   1   5  -9    0.16    0.19
  -1   5   9    0.40    0.28
  -3   5  11    0.34    0.29
   3   5 -11    0.22    0.22
   4   6   4    0.11    0.13
   2   6   6    0.79    0.33
   0   6   8    0.49    0.33
  12   0  -3    2.52    0.29
  10   0  -1    3.02    0.26
   8   0   1   44.21    0.94
   6   0   3   30.85    0.84
   6   0   3   29.83    0.65
   4   0   5    2.75    0.14
   4   0   5    2.69    0.21
   2   0   7    0.36    0.11
   2   0   7    0.25    0.05
   0   0   9   12.42    0.44
   2   0 -11   -0.04    0.11
  -2   0  11   -0.11    0.14
  -4   0  13    6.42    0.35
   4   0 -13    5.89    0.29
  11   1  -2    3.70    0.27
  11  -1  -2    3.33    0.29
   9   1   0    8.30    0.32
   9  -1   0    8.02    0.34
   7   1   2   17.07    0.45
   7  -1   2   17.82    0.62
   7  -1   2   17.75    0.47
   5   1   4   31.38    0.67
   5   1   4   32.25    0.88
   5  -1   4   32.39    0.93
   5  -1   4   32.86    0.66
   3   1   6   16.36    0.52
   3   1   6   16.49    0.37
   3  -1   6   16.17    0.53
   1   1   8    9.98    0.26
   1   1   8   10.45    0.39
   1  -1   8   10.35    0.38
  -1   1  10   12.68    0.48
   1   1 -10   12.77    0.37
  -1  -1  10   12.93    0.46
   3   1 -12    0.07    0.15
  -3   1  12   -0.07    0.18
   3  -1 -12    0.21    0.12
  -3  -1  12   -0.01    0.16
  -5   1  14    0.62    0.23
   5   1 -14    0.45    0.19
   7  -1 -16   -0.06    0.25
  10   2  -1    2.17    0.22
  10  -2  -1    1.76    0.22
   8   2   1    2.31    0.20
   8  -2   1    2.19    0.36
   8  -2   1    2.41    0.24
   6   2   3    0.84    0.11
   6  -2   3    0.85    0.28
   4   2   5    6.62    0.31
   4   2   5    6.13    0.22
   4  -2   5    6.92    0.43
   2   2   7   34.19    0.70
   2   2   7   33.89    0.96
   2  -2   7   33.95    0.99
   0   2  -9    0.75    0.14
   0   2   9    0.72    0.18
   0  -2   9    1.14    0.21
   2   2 -11    4.90    0.28
  -2   2  11    4.85    0.36
  -2  -2  11    5.59    0.31
   4   2 -13   -0.09    0.17
  -4   2  13    0.00    0.23
   6   2 -15    0.31    0.21
   9   3   0    1.66    0.18
   9  -3   0    0.64    0.47
   7   3   2    5.04    0.24
   7  -3   2    4.04    0.52
   5   3   4    7.49    0.26
   5  -3   4    7.44    0.52
   3   3   6    2.62    0.20
   3   3   6    2.57    0.28
  -3   3  -6    2.63    0.19
   3  -3   6    2.91    0.43
   1   3   8    9.05    0.44
  -1   3  -8    9.40    0.33
   1  -3   8    8.99    0.51
  -1   3  10    0.22    0.20
   1   3 -10    0.36    0.15
  -1  -3  10   -0.02    0.21
  -3   3  12    0.87    0.26
   3   3 -12    0.76    0.20
   5   3 -14    0.29    0.21
  -5   3  14    1.13    0.31
   8   4   1    5.77    0.27
   8  -4   1    4.67    0.61
   6   4   3    2.57    0.20
   6  -4   3    2.14    0.46
   4   4   5    3.02    0.34
   4   4   5    2.21    0.20
   4  -4   5    2.44    0.43
   2   4   7    5.60    0.39
   2   4   7    5.38    0.24
  -2   4  -7    5.50    0.28
   2  -4   7    4.92    0.51
   0   4   9    0.47    0.24
   0   4  -9    0.49    0.17
   0  -4   9    0.19    0.34
   2   4 -11    0.15    0.18
  -2   4  11    0.12    0.24
   4   4 -13   -0.25    0.18
  -4   4  13    0.17    0.27
   7   5   2    4.60    0.26
   7  -5   2    2.82    0.56
   5   5   4    0.05    0.12
   5  -5   4   -0.59    0.38
   3   5   6    1.83    0.32
   3   5   6    1.87    0.19
   3  -5   6    0.55    0.46
  -1   5  -8    0.67    0.20
   1   5   8    1.29    0.31
   1  -5   8   -0.39    0.45
  -1   5  10    0.27    0.27
   1   5 -10   -0.04    0.19
   3   5 -12    0.24    0.23
  -3   5  12    0.86    0.32
  12   0  -2   14.85    0.53
  10   0   0    0.41    0.17
   8   0   2   54.05    1.11
   6   0   4   12.79    0.46
   6   0   4   12.75    0.35
   4   0   6   -0.14    0.11
   4   0   6   -0.02    0.06
   2   0   8    0.44    0.13
   2   0   8    0.17    0.05
   0   0  10    6.60    0.33
   2   0 -12    4.45    0.24
  -2   0  12    4.67    0.31
   4   0 -14    4.63    0.28
  -4   0  14    5.03    0.34
  11   1  -1    3.93    0.28
  11  -1  -1    3.72    0.30
   9   1   1    5.47    0.27
   9  -1   1    5.29    0.29
   7   1   3    4.97    0.24
   7  -1   3    4.70    0.26
   7  -1   3    4.79    0.35
   5   1   5    0.42    0.14
   5   1   5    0.32    0.09
   5  -1   5    0.54    0.18
   5  -1   5    0.29    0.09
   3   1   7   34.50    0.69
   3   1   7   34.78    0.96
   3  -1   7   34.20    0.97
   1   1   9    1.10    0.17
   1  -1   9    1.49    0.21
  -1   1  11    3.35    0.30
   1   1 -11    3.35    0.23
  -1  -1  11    3.59    0.27
  -3   1  13    3.99    0.32
   3   1 -13    3.79    0.27
   3  -1 -13    3.53    0.22
  -3  -1  13    3.65    0.30
  -5   1  15    0.48    0.24
   5   1 -15    0.21    0.20
   7  -1 -17    0.16    0.27
  10   2   0    1.40    0.19
  10  -2   0    1.12    0.21
   8   2   2    0.87    0.14
   8  -2   2    0.76    0.31
   6   2   4    2.56    0.19
   6  -2   4    2.79    0.34
   4   2   6    6.91    0.33
   4   2   6    6.87    0.24
   4  -2   6    7.00    0.42
  -2   2  -8   32.78    0.72
   2   2   8   33.28    0.69
   2   2   8   32.74    0.95
   2  -2   8   33.22    0.97
   0   2  10    1.10    0.21
   0   2 -10    1.07    0.16
   0  -2  10    0.99    0.21
  -2   2  12    0.45    0.22
   2   2 -12    0.34    0.17
  -2  -2  12    0.05    0.19
   4   2 -14    0.27    0.20
  -4   2  14    0.23    0.24
   6   2 -16    0.22    0.23
   9  -3   1    0.50    0.46
   7   3   3    3.86    0.22
   7  -3   3    3.20    0.49
   5   3   5    1.38    0.14
   5  -3   5    1.36    0.35
   3   3   7   14.00    0.55
   3   3   7   14.57    0.39
  -3   3  -7   13.52    0.40
   3  -3   7   14.21    0.63
  -1   3  -9    8.69    0.34
   1   3   9    9.05    0.46
   1  -3   9    9.32    0.48
  -1   3  11    0.29    0.21
   1   3 -11    0.08    0.15
  -1  -3  11    0.38    0.23
  -3   3  13    0.58    0.26
   3   3 -13   -0.07    0.18
   5   3 -15    0.21    0.23
  -5   3  15    0.70    0.31
   8   4   2    1.33    0.17
   8  -4   2    0.05    0.49
   6   4   4    1.43    0.16
   6  -4   4    0.73    0.42
   4   4   6    1.22    0.15
   4   4   6    1.54    0.27
   4  -4   6    0.85    0.38
  -2   4  -8    4.19    0.27
   2   4   8    4.86    0.39
   2  -4   8    3.99    0.48
   0   4  10    0.22    0.23
   0   4 -10    0.23    0.17
   0  -4  10   -0.44    0.31
   2   4 -12   -0.10    0.18
  -2   4  12    0.07    0.24
  -4   4  14    0.13    0.28
   4   4 -14    0.12    0.22
   7   5   3    3.27    0.24
   5   5   5    0.17    0.14
   3   5   7    2.06    0.20
   3   5   7    3.04    0.38
   3  -5   7    0.74    0.46
  -1   5  -9    0.45    0.20
   1   5   9    0.67    0.29
   1  -5   9   -0.76    0.42
  -1   5  11    0.10    0.27
   1   5 -11   -0.22    0.20
  12   0  -1   19.03    0.59
  10   0   1    0.05    0.15
   8   0   3   19.46    0.50
   6   0   5    0.40    0.11
   6   0   5    0.56    0.17
   4   0   7    0.09    0.07
   4   0   7   -0.29    0.13
   2   0   9    1.36    0.21
   2   0   9    1.41    0.11
   0   0  11    0.10    0.16
   2   0 -13    3.98    0.24
  -2   0  13    4.47    0.32
  -4   0  15    0.89    0.23
   4   0 -15    0.37    0.19
  11   1   0    3.78    0.27
  11  -1   0    3.74    0.32
   9   1   2    2.19    0.21
   9  -1   2    2.16    0.21
   7   1   4    1.30    0.14
   7  -1   4    1.30    0.16
   7  -1   4    1.35    0.24
   5   1   6   13.15    0.47
   5   1   6   12.83    0.34
   5  -1   6   13.21    0.50
   3   1   8   19.00    0.63
   3   1   8   19.38    0.44
   3  -1   8   19.31    0.63
   1   1  10    3.59    0.28
   1  -1  10    3.50    0.28
   1   1 -12    3.84    0.24
  -1   1  12    3.77    0.31
  -1  -1  12    3.66    0.31
  -3   1  14    2.59    0.30
   3   1 -14    2.15    0.24
  -3  -1  14    2.52    0.29
   3  -1 -14    2.03    0.21
   5   1 -16   -0.18    0.20
  10   2   1    0.63    0.17
   8   2   3    0.65    0.14
   8  -2   3    0.30    0.31
   6   2   5    8.62    0.29
   6  -2   5    8.54    0.49
   4   2   7    4.18    0.29
   4   2   7    4.15    0.20
   4  -2   7    4.42    0.36
   2   2   9    7.98    0.27
  -2   2  -9    7.62    0.29
   2   2   9    7.46    0.39
   2  -2   9    8.18    0.41
   0   2  11    0.35    0.19
   0   2 -11    0.37    0.15
   0  -2  11    0.44    0.20
  -2   2  13    1.72    0.28
   2   2 -13    1.51    0.21
  -2  -2  13    1.69    0.25
  -4   2  15    0.55    0.27
   4   2 -15    0.04    0.21
   6   2 -17    0.00    0.24
   9   3   2    0.39    0.15
   9  -3   2   -0.61    0.41
   7   3   4    2.13    0.20
   7  -3   4    1.87    0.42
  -5   3  -6    1.53    0.15
   5   3   6    1.54    0.24
   5   3   6    1.41    0.14
   5  -3   6    1.14    0.33
   3   3   8    5.44    0.23
   3   3   8    5.63    0.36
  -3   3  -8    5.58    0.27
   3  -3   8    5.95    0.45
   1   3  10    0.59    0.22
  -1   3 -10    0.75    0.17
   1  -3  10    0.64    0.26
   1   3 -12   -0.05    0.16
  -1   3  12   -0.08    0.20
  -1  -3  12   -0.16    0.22
  -3   3  14    0.22    0.26
   3   3 -14    0.09    0.20
  -5   3  16    0.41    0.31
   5   3 -16   -0.02    0.24
   8   4   3    0.57    0.16
   8  -4   3   -0.28    0.47
   6   4   5    0.34    0.13
   6  -4   5   -0.32    0.37
   4   4   7    3.00    0.21
   4   4   7    3.14    0.34
   4  -4   7    1.97    0.40
  -2   4  -9    0.52    0.18
   2   4   9    0.69    0.26
   2  -4   9   -0.10    0.36
   0   4  11    1.63    0.29
   0   4 -11    1.40    0.22
   0  -4  11    1.30    0.35
  -2   4  13    0.36    0.26
   2   4 -13    0.00    0.20
   5   5   6    0.08    0.12
   5  -5   6   -0.73    0.38
   3   5   8    1.50    0.33
   3  -5   8   -0.30    0.42
   1   5  10    0.48    0.29
  -1   5 -10    0.13    0.20
  -1   5  12    0.55    0.29
   1   5 -12   -0.17    0.22
  10   0   2    0.31    0.16
   8   0   4   -0.14    0.13
   6   0   6   16.28    0.56
   6   0   6   15.49    0.40
   4   0   8    0.21    0.08
   4   0   8   -0.03    0.14
   2   0  10   -0.16    0.14
   0   0  12    1.49    0.23
  -2   0  14   -0.13    0.19
   2   0 -14   -0.21    0.14
   4   0 -16    0.13    0.19
  11   1   1    3.28    0.27
  11  -1   1    3.45    0.30
   9   1   3    2.28    0.21
   9  -1   3    1.97    0.23
   7   1   5   11.42    0.34
   7  -1   5   11.22    0.50
   5   1   7    9.19    0.29
   5   1   7    9.76    0.40
   5  -1   7    9.12    0.43
   3   1   9    0.39    0.18
   3   1   9    0.53    0.10
   3  -1   9    0.66    0.18
   1   1  11    5.54    0.33
   1  -1  11    5.51    0.33
   1   1 -13    1.77    0.21
  -1   1  13    1.83    0.27
  -1  -1  13    1.75    0.27
   3   1 -15    0.16    0.19
  -3   1  15    0.46    0.23
  -3  -1  15    0.31    0.22
   5   1 -17    0.00    0.23
  10   2   2    0.49    0.16
   8   2   4    2.16    0.20
   8  -2   4    1.91    0.35
   6   2   6   13.44    0.38
   6   2   6   13.50    0.50
   6  -2   6   13.29    0.58
   4   2   8    0.67    0.12
   4   2   8    0.60    0.19
   4  -2   8    0.79    0.23
  -2   2 -10    0.72    0.14
   2   2  10    0.75    0.21
   2   2  10    0.77    0.11
   2  -2  10    0.47    0.22
   0   2 -12    0.72    0.16
   0   2  12    0.65    0.20
   0  -2  12    0.63    0.22
  -2   2  14    1.56    0.28
   2   2 -14    1.32    0.22
  -2  -2  14    1.91    0.28
  -4   2  16    0.23    0.28
   4   2 -16   -0.10    0.22
   9   3   3    0.00    0.14
   7   3   5    2.93    0.22
   7  -3   5    3.13    0.43
   5   3   7    0.95    0.14
  -5   3  -7    1.16    0.15
   5   3   7    1.11    0.24
   5  -3   7    0.71    0.30
   3   3   9    0.06    0.11
  -3   3  -9    0.06    0.14
   3   3   9    0.06    0.21
   3  -3   9    0.20    0.26
  -1   3 -11    1.02    0.18
   1   3  11    1.19    0.25
   1  -3  11    1.10    0.27
   1   3 -13    0.10    0.18
  -1   3  13    0.15    0.22
  -1  -3  13   -0.14    0.23
   3   3 -15   -0.04    0.21
  -3   3  15    0.61    0.29
   8   4   4    1.03    0.17
   8  -4   4    0.30    0.46
   6   4   6   -0.11    0.12
   6  -4   6   -0.48    0.35
   4   4   8    2.54    0.20
   4   4   8    2.61    0.34
  -2   4 -10    0.33    0.19
   2   4  10    0.62    0.27
   2  -4  10   -0.20    0.33
   0   4 -12    1.03    0.22
   0   4  12    1.26    0.29
   0  -4  12    1.62    0.35
   2   4 -14   -0.10    0.21
  -2   4  14    0.58    0.27
   5   5   7   -0.01    0.12
   3   5   9    0.76    0.32
   3  -5   9   -0.90    0.40
   1   5  11    0.48    0.30
  -1   5 -11   -0.05    0.22
   1  -5  11   -0.81    0.40
  10   0   3    1.24    0.19
   8   0   5    8.43    0.32
   6   0   7   18.89    0.46
   6   0   7   19.70    0.66
   4   0   9   -0.10    0.16
   4   0   9    0.00    0.08
   2   0  11    0.18    0.18
   0   0  13    0.40    0.19
  -2   0  15   -0.18    0.20
   2   0 -15   -0.21    0.14
   4   0 -17   -0.12    0.20
  11   1   2    3.46    0.29
   9   1   4    1.75    0.20
   7   1   6   12.47    0.38
   7  -1   6   13.88    0.55
   5   1   8    5.23    0.22
   5   1   8    5.72    0.34
   5  -1   8    5.64    0.35
   3   1  10    1.24    0.22
   3   1  10    1.31    0.14
   3  -1  10    1.29    0.21
   1   1  12    2.94    0.29
   1  -1  12    2.94    0.29
   1   1 -14    0.27    0.16
  -1   1  14    0.39    0.22
  -1  -1  14    0.52    0.23
   3   1 -16   -0.19    0.18
  -3   1  16    0.01    0.23
  -3  -1  16    0.07    0.23
   5   1 -18   -0.08    0.25
  10   2   3    2.44    0.23
   8   2   5    1.03    0.16
   8  -2   5    0.97    0.32
   6   2   7    5.01    0.23
   6   2   7    5.30    0.33
   6  -2   7    4.78    0.38
   4   2   9    1.67    0.24
   4   2   9    1.96    0.18
   4  -2   9    1.34    0.25
  -2   2 -11    2.75    0.21
   2   2  11    2.80    0.29
   2  -2  11    2.77    0.30
   0   2  13    0.15    0.19
   0   2 -13    0.14    0.15
   0  -2  13    0.19    0.21
  -2   2  15    0.40    0.25
   2   2 -15    0.20    0.20
  -2  -2  15    0.68    0.26
   4   2 -17    0.13    0.24
  -4   2  17    0.28    0.30
   9   3   4    0.29    0.16
   9  -3   4   -0.32    0.40
   7   3   6    0.94    0.16
   7  -3   6    0.54    0.36
  -5   3  -8    0.00    0.12
   5   3   8   -0.10    0.20
   5   3   8   -0.08    0.12
   5  -3   8   -0.31    0.25
  -3   3 -10   -0.04    0.14
   3   3  10    0.01    0.21
   3   3  10   -0.22    0.11
   3  -3  10   -0.22    0.23
  -1   3 -12    1.37    0.21
   1   3  12    1.20    0.26
   1  -3  12    1.52    0.30
  -1   3  14    0.21    0.23
   1   3 -14    0.13    0.19
  -1  -3  14   -0.13    0.25
  -3   3  16    0.39    0.29
   3   3 -16   -0.02    0.23
   8   4   5    0.12    0.15
   6   4   7    0.38    0.15
   6  -4   7   -0.40    0.34
   4   4   9    1.04    0.16
   4   4   9    1.19    0.28
   4  -4   9    0.35    0.33
  -2   4 -11    0.51    0.20
   2   4  11    0.88    0.28
   2  -4  11    0.12    0.34
   0   4 -13    0.29    0.21
   0   4  13    0.82    0.28
   0  -4  13    0.22    0.33
   3   5  10    0.86    0.33
  10   0   4    1.83    0.21
   8   0   6    7.52    0.30
   6   0   8    0.74    0.22
   4   0  10    6.86    0.38
   2   0  12    1.18    0.22
   0   0  14    0.05    0.20
   2   0 -16   -0.09    0.16
  -2   0  16    0.04    0.22
  11   1   3    4.01    0.30
   9   1   5   -0.19    0.13
   7   1   7    2.39    0.28
   7   1   7    2.39    0.20
   7  -1   7    2.39    0.31
   5   1   9    2.37    0.28
   5   1   9    1.98    0.17
   5  -1   9    1.75    0.27
   3   1  11    0.32    0.19
   3   1  11    0.05    0.11
   3  -1  11    0.27    0.18
   1   1  13   -0.10    0.17
   1  -1  13    0.05    0.18
   1   1 -15    0.02    0.16
  -1   1  15    0.14    0.22
  -1  -1  15    0.32    0.23
  -3   1  17    0.23    0.26
   3   1 -17    0.02    0.21
  10   2   4    4.29    0.28
   8   2   6   -0.05    0.13
   8  -2   6   -0.14    0.27
   6   2   8   -0.02    0.11
   6   2   8    0.03    0.18
   6  -2   8   -0.06    0.23
   4   2  10    0.21    0.19
   4   2  10    0.01    0.11
   4  -2  10    0.18    0.20
  -2   2 -12    1.00    0.16
   2   2  12    0.92    0.23
   2  -2  12    1.08    0.24
   0   2 -14   -0.04    0.15
   0   2  14   -0.02    0.19
   0  -2  14   -0.14    0.21
   2   2 -16   -0.27    0.20
  -2   2  16    0.13    0.25
  -2  -2  16    0.12    0.27
   4   2 -18   -0.14    0.25
   9   3   5    0.81    0.17
   9  -3   5    0.17    0.40
   7   3   7    0.12    0.14
   7  -3   7   -0.30    0.32
  -5   3  -9    0.77    0.16
   5   3   9    0.61    0.15
   5   3   9    0.90    0.25
   5  -3   9    0.13    0.26
   3   3  11    0.81    0.14
  -3   3 -11    0.56    0.17
   3   3  11    0.92    0.26
   3  -3  11    0.51    0.26
   1   3  13    1.13    0.27
  -1   3 -13    1.06    0.21
   1  -3  13    1.26    0.30
  -1   3  15    0.13    0.24
   1   3 -15    0.10    0.21
  -1  -3  15    0.10    0.28
   6   4   8    0.23    0.16
   6  -4   8   -0.19    0.33
   4   4  10    0.43    0.27
   4   4  10   -0.10    0.14
   4  -4  10   -0.39    0.30
   2   4  12    0.77    0.28
  -2   4 -12    0.47    0.21
   2  -4  12    0.08    0.31
   0   4 -14    0.06    0.21
   0   4  14    0.33    0.26
   0  -4  14    0.19    0.33
   6   0   9    1.69    0.27
   4   0  11    4.94    0.35
   2   0  13    0.13    0.18
   0   0  15   -0.13    0.21
  -2   0  17    0.25    0.25
   2   0 -17    0.10    0.19
   9   1   6   -0.01    0.15
   7   1   8    0.02    0.22
   7   1   8    0.12    0.12
   7  -1   8    0.03    0.24
   5   1  10    3.16    0.31
   5   1  10    2.96    0.19
   5  -1  10    2.77    0.31
   3   1  12    0.12    0.18
   3  -1  12   -0.05    0.17
  -1   1 -14    0.00    0.13
   1   1  14    0.13    0.19
   1  -1  14    0.00    0.21
   1   1 -16   -0.09    0.17
  -1   1  16   -0.11    0.23
  -1  -1  16    0.11    0.24
  -3   1  18    0.48    0.29
   3   1 -18    0.01    0.23
  10   2   5    3.04    0.27
   8   2   7    0.18    0.14
   8  -2   7   -0.08    0.29
   6   2   9    1.16    0.15
   6   2   9    1.52    0.26
   6  -2   9    1.06    0.28
   4   2  11    0.10    0.11
   4   2  11    0.23    0.21
   4  -2  11    0.14    0.20
   2   2  13    0.94    0.24
  -2   2 -13    1.09    0.18
   2  -2  13    1.18    0.25
   0   2 -15   -0.19    0.15
   0   2  15   -0.04    0.21
   0  -2  15   -0.23    0.23
   2   2 -17    0.05    0.22
  -2   2  17    0.18    0.27
   9  -3   6    0.08    0.39
   7   3   8    0.49    0.15
   7  -3   8    0.06    0.31
  -5   3 -10    0.75    0.17
   5   3  10    0.86    0.26
   5   3  10    0.50    0.15
   5  -3  10    0.32    0.26
   3   3  12    1.00    0.27
  -3   3 -12    0.74    0.18
   3  -3  12    0.78    0.28
   1   3  14    0.29    0.24
  -1   3 -14    0.12    0.18
   1  -3  14    0.46    0.28
  -1   3  16    0.34    0.27
   1   3 -16   -0.33    0.20
  -1  -3  16   -0.03    0.30
   6   4   9    0.13    0.16
   6  -4   9   -0.62    0.30
   4   4  11    0.52    0.29
   4   4  11   -0.21    0.14
  -4   4 -11   -0.03    0.18
   4  -4  11   -0.23    0.28
  -2   4 -13   -0.11    0.20
   2   4  13    0.57    0.28
   2  -4  13   -0.58    0.31
   6   0  10    0.68    0.25
   4   0  12    0.04    0.20
   2   0  14    0.13    0.19
   0   0 -16   -0.01    0.15
   0   0  16    0.15    0.24
   2   0 -18    0.12    0.20
  -2   0  18    0.46    0.29
   9   1   7    0.14    0.15
   7   1   9    0.68    0.15
   7   1   9    0.62    0.26
   7  -1   9    0.43    0.26
   5   1  11    1.27    0.26
   5  -1  11    1.22    0.25
   3   1  13    0.13    0.20
   3  -1  13    0.14    0.19
   1   1  15    0.13    0.20
  -1   1 -15    0.10    0.15
   1  -1  15    0.14    0.23
   1   1 -17    0.00    0.18
  -1   1  17    0.19    0.25
   1  -1 -17   -0.03    0.16
  -1  -1  17    0.18    0.27
   8   2   8   -0.13    0.14
   8  -2   8   -0.31    0.28
   6   2  10    1.42    0.27
   6   2  10    1.29    0.17
   6  -2  10    0.83    0.27
   4   2  12    0.31    0.13
   4   2  12    0.17    0.23
   4  -2  12    0.43    0.22
  -2   2 -14    0.21    0.15
   2   2  14    0.33    0.22
   2  -2  14    0.14    0.22
   0   2  16    0.07    0.22
   0   2 -16   -0.04    0.17
   0  -2  16   -0.21    0.27
   7   3   9    0.31    0.16
   7  -3   9   -0.22    0.28
   5   3  11    0.52    0.27
  -5   3 -11    0.11    0.16
   5   3  11    0.14    0.13
   5  -3  11   -0.03    0.25
  -3   3 -13    0.36    0.18
   3   3  13    0.33    0.26
   3  -3  13    0.28    0.26
   1   3  15    0.28    0.24
  -1   3 -15   -0.01    0.19
   1  -3  15   -0.02    0.29
   8   0   9    0.11    0.27
   6   0  11    0.44    0.26
   4   0  13    0.13    0.21
   2   0  15   -0.02    0.20
   0   0 -17    0.03    0.16
   0   0  17    0.26    0.25
   7   1  10    0.69    0.28
   7  -1  10    0.46    0.27
   5   1  12    0.55    0.25
   5  -1  12    0.30    0.22
   3   1  14   -0.05    0.20
   3  -1  14    0.02    0.20
   1   1  16    0.20    0.22
  -1   1 -16    0.13    0.16
   1  -1  16   -0.09    0.24
   1   1 -18    0.24    0.21
  -1   1  18    0.33    0.28
   1  -1 -18    0.08    0.19
  -1  -1  18    0.33    0.31
   8   2   9   -0.03    0.15
   8  -2   9   -0.33    0.28
   6   2  11    0.83    0.17
   6   2  11    1.22    0.29
   6  -2  11    0.66    0.27
   4   2  13    0.17    0.25
   4  -2  13    0.05    0.21
   2   2  15    0.11    0.22
  -2   2 -15    0.04    0.16
   2  -2  15   -0.17    0.23
   0   2 -17    0.04    0.19
   0   2  17    0.11    0.24
   0  -2  17   -0.01    0.31
   5   3  12    0.27    0.28
  -5   3 -12    0.21    0.17
   5   3  12   -0.20    0.14
   5  -3  12   -0.04    0.24
  -3   3 -14   -0.12    0.18
   3   3  14    0.20    0.27
   3  -3  14    0.09    0.26
   8   0  10   -0.03    0.29
   6   0  12    0.36    0.27
   4   0  14   -0.02    0.21
   2   0  16   -0.08    0.22
   0   0  18    0.42    0.28
   0   0 -18    0.19    0.20
   7   1  11    0.82    0.30
   7  -1  11    0.57    0.28
   5   1  13    0.09    0.24
   5  -1  13    0.14    0.22
   3   1  15    0.15    0.22
   3  -1  15   -0.05    0.22
  -1   1 -17    0.27    0.18
   1   1  17    0.19    0.24
   1  -1  17    0.09    0.26
   6   2  12    0.27    0.14
   6   2  12    0.38    0.28
   6  -2  12    0.19    0.25
   4   2  14    0.12    0.25
   4  -2  14   -0.34    0.21
  -2   2 -16   -0.22    0.17
   2   2  16   -0.10    0.23
   2  -2  16   -0.11    0.25
   6   0  13   -0.02    0.27
   4   0  15    0.26    0.24
   2   0  17    0.29    0.25
   7   1  12    0.50    0.30
   7  -1  12    0.31    0.28
   5   1  14    0.00    0.25
   5  -1  14   -0.14    0.24
   3   1  16    0.12    0.24
   3  -1  16   -0.15    0.24
   0   0   0    0.00    0.00
;
_shelx_hkl_checksum              6379
loop_
_space_group_symop_operation_xyz
'x, y, z'
'-x, y, -z'
'x+1/2, y+1/2, z'
'-x+1/2, y+1/2, -z'
loop_
_atom_site_label
_atom_site_type_symbol
_atom_site_fract_x
_atom_site_fract_y
_atom_site_fract_z
_atom_site_U_iso_or_equiv
_atom_site_adp_type
_atom_site_occupancy
_atom_site_site_symmetry_order
_atom_site_calc_flag
_atom_site_refinement_flags_posn
_atom_site_refinement_flags_adp
_atom_site_refinement_flags_occupancy
_atom_site_disorder_assembly
_atom_site_disorder_group
O11 O 0.577(2) 0.333(5) 0.422(3) 0.054(4) Uani 0.369(14) 1 d D U P A 1
O21 O 0.479(3) -0.022(3) 0.3471(14) 0.062(3) Uani 0.369(14) 1 d D U P A 1
N11 N 0.333(4) 0.564(6) 0.4210(14) 0.0597(17) Uani 0.369(14) 1 d D U P A 1
H1 H 0.2453 0.6276 0.4162 0.090 Uiso 0.369(14) 1 calc R U P A 1
H2 H 0.3866 0.6809 0.4014 0.090 Uiso 0.369(14) 1 calc R U P A 1
H3 H 0.3739 0.5242 0.4807 0.090 Uiso 0.369(14) 1 calc R U P A 1
C11 C 0.470(2) 0.198(4) 0.3827(17) 0.0550(13) Uani 0.369(14) 1 d D U P A 1
C21 C 0.322(2) 0.330(4) 0.3620(9) 0.0596(17) Uani 0.369(14) 1 d D U P A 1
H21 H 0.2531 0.2121 0.3791 0.072 Uiso 0.369(14) 1 calc R U P A 1
C31 C 0.2666(17) 0.398(3) 0.2584(8) 0.079(2) Uani 0.369(14) 1 d D U P A 1
H31 H 0.1821 0.5068 0.2501 0.095 Uiso 0.369(14) 1 calc R U P A 1
H32 H 0.3400 0.4950 0.2385 0.095 Uiso 0.369(14) 1 calc R U P A 1
C41 C 0.228(2) 0.162(3) 0.1967(10) 0.118(4) Uani 0.369(14) 1 d D U P A 1
H41 H 0.1640 0.0521 0.2211 0.141 Uiso 0.369(14) 1 calc R U P A 1
H42 H 0.3142 0.0656 0.1968 0.141 Uiso 0.369(14) 1 calc R U P A 1
C51 C 0.152(3) 0.247(4) 0.0950(11) 0.186(10) Uani 0.369(14) 1 d D U P A 1
H51 H 0.1405 0.1009 0.0538 0.279 Uiso 0.369(14) 1 calc R U P A 1
H52 H 0.2093 0.3747 0.0746 0.279 Uiso 0.369(14) 1 calc R U P A 1
H53 H 0.0588 0.3171 0.0937 0.279 Uiso 0.369(14) 1 calc R U P A 1
O12 O 0.580(3) 0.356(8) 0.406(9) 0.054(4) Uani 0.250(9) 1 d D U P B 2
O22 O 0.498(4) -0.043(5) 0.372(4) 0.062(3) Uani 0.250(9) 1 d D U P B 2
N12 N 0.329(5) 0.563(8) 0.405(2) 0.0597(17) Uani 0.250(9) 1 d D U P B 2
H4 H 0.2401 0.6253 0.3940 0.090 Uiso 0.250(9) 1 calc R U P B 2
H5 H 0.3818 0.6625 0.3774 0.090 Uiso 0.250(9) 1 calc R U P B 2
H6 H 0.3689 0.5618 0.4671 0.090 Uiso 0.250(9) 1 calc R U P B 2
C12 C 0.480(2) 0.194(5) 0.387(2) 0.0550(13) Uani 0.250(9) 1 d D U P B 2
C22 C 0.325(3) 0.298(5) 0.3680(9) 0.0596(17) Uani 0.250(9) 1 d D U P B 2
H22 H 0.2717 0.1900 0.4019 0.072 Uiso 0.250(9) 1 calc R U P B 2
C32 C 0.2479(17) 0.292(4) 0.2640(10) 0.079(2) Uani 0.250(9) 1 d D U P B 2
H33 H 0.2369 0.1149 0.2429 0.095 Uiso 0.250(9) 1 calc R U P B 2
H34 H 0.1523 0.3647 0.2553 0.095 Uiso 0.250(9) 1 calc R U P B 2
C42 C 0.328(2) 0.440(5) 0.2041(12) 0.108(6) Uiso 0.250(9) 1 d D U P B 2
H43 H 0.4217 0.3628 0.2096 0.129 Uiso 0.250(9) 1 calc R U P B 2
H44 H 0.3420 0.6160 0.2258 0.129 Uiso 0.250(9) 1 calc R U P B 2
C52 C 0.239(3) 0.434(8) 0.1000(12) 0.174(12) Uiso 0.250(9) 1 d D U P B 2
H54 H 0.2889 0.5290 0.0621 0.261 Uiso 0.250(9) 1 calc R U P B 2
H55 H 0.1460 0.5099 0.0950 0.261 Uiso 0.250(9) 1 calc R U P B 2
H56 H 0.2268 0.2592 0.0785 0.261 Uiso 0.250(9) 1 calc R U P B 2
O13 O 0.581(3) 0.339(6) 0.409(11) 0.054(4) Uani 0.184(9) 1 d D U P C 3
O23 O 0.491(4) -0.058(4) 0.3986(18) 0.062(3) Uani 0.184(9) 1 d D U P C 3
N13 N 0.312(5) 0.533(8) 0.3946(18) 0.0597(17) Uani 0.184(9) 1 d D U P C 3
H7 H 0.3302 0.4986 0.4558 0.090 Uiso 0.184(9) 1 calc R U P C 3
H8 H 0.2218 0.5910 0.3744 0.090 Uiso 0.184(9) 1 calc R U P C 3
H9 H 0.3729 0.6518 0.3848 0.090 Uiso 0.184(9) 1 calc R U P C 3
C13 C 0.479(3) 0.183(4) 0.384(3) 0.0550(13) Uani 0.184(9) 1 d D U P C 3
C23 C 0.328(3) 0.296(5) 0.3427(15) 0.0596(17) Uani 0.184(9) 1 d D U P C 3
H23 H 0.2567 0.1705 0.3515 0.072 Uiso 0.184(9) 1 calc R U P C 3
C33 C 0.301(2) 0.350(7) 0.2380(14) 0.079(2) Uani 0.184(9) 1 d D U P C 3
H35 H 0.3766 0.4623 0.2277 0.095 Uiso 0.184(9) 1 calc R U P C 3
H36 H 0.3066 0.1899 0.2051 0.095 Uiso 0.184(9) 1 calc R U P C 3
C43 C 0.156(2) 0.474(6) 0.1972(15) 0.113(6) Uiso 0.184(9) 1 d D U P C 3
H45 H 0.1527 0.6408 0.2259 0.135 Uiso 0.184(9) 1 calc R U P C 3
H46 H 0.0804 0.3679 0.2106 0.135 Uiso 0.184(9) 1 calc R U P C 3
C53 C 0.131(4) 0.504(10) 0.0895(15) 0.179(16) Uiso 0.184(9) 1 d D U P C 3
H57 H 0.0389 0.5819 0.0636 0.269 Uiso 0.184(9) 1 calc R U P C 3
H58 H 0.1342 0.3385 0.0614 0.269 Uiso 0.184(9) 1 calc R U P C 3
H59 H 0.2055 0.6113 0.0766 0.269 Uiso 0.184(9) 1 calc R U P C 3
O14 O 0.577(3) 0.348(9) 0.394(4) 0.054(4) Uani 0.197(13) 1 d D U P D 4
O24 O 0.472(4) -0.036(6) 0.372(5) 0.062(3) Uani 0.197(13) 1 d D U P D 4
N14 N 0.324(6) 0.552(9) 0.4113(19) 0.0597(17) Uani 0.197(13) 1 d D U P D 4
H10 H 0.2377 0.6267 0.3993 0.090 Uiso 0.197(13) 1 calc R U P D 4
H11 H 0.3902 0.6673 0.4071 0.090 Uiso 0.197(13) 1 calc R U P D 4
H12 H 0.3451 0.4861 0.4692 0.090 Uiso 0.197(13) 1 calc R U P D 4
C14 C 0.469(3) 0.207(6) 0.366(2) 0.0550(13) Uani 0.197(13) 1 d D U P D 4
C24 C 0.321(3) 0.343(6) 0.3422(16) 0.0596(17) Uani 0.197(13) 1 d D U P D 4
H24 H 0.2476 0.2179 0.3476 0.072 Uiso 0.197(13) 1 calc R U P D 4
C34 C 0.283(3) 0.450(4) 0.2426(16) 0.079(2) Uani 0.197(13) 1 d D U P D 4
H37 H 0.1960 0.5530 0.2334 0.095 Uiso 0.197(13) 1 calc R U P D 4
H38 H 0.3600 0.5610 0.2347 0.095 Uiso 0.197(13) 1 calc R U P D 4
C44 C 0.258(3) 0.240(5) 0.1687(19) 0.106(7) Uiso 0.197(13) 1 d D U P D 4
H47 H 0.3358 0.1158 0.1847 0.127 Uiso 0.197(13) 1 calc R U P D 4
H48 H 0.2575 0.3143 0.1080 0.127 Uiso 0.197(13) 1 calc R U P D 4
C54 C 0.112(3) 0.106(7) 0.163(3) 0.165(13) Uiso 0.197(13) 1 d D U P D 4
H60 H 0.0444 0.1514 0.1053 0.248 Uiso 0.197(13) 1 calc R U P D 4
H61 H 0.0758 0.1603 0.2153 0.248 Uiso 0.197(13) 1 calc R U P D 4
H62 H 0.1258 -0.0767 0.1659 0.248 Uiso 0.197(13) 1 calc R U P D 4
loop_
_atom_site_aniso_label
_atom_site_aniso_U_11
_atom_site_aniso_U_22
_atom_site_aniso_U_33
_atom_site_aniso_U_23
_atom_site_aniso_U_13
_atom_site_aniso_U_12
O11 0.0299(9) 0.054(2) 0.083(10) 0.001(4) 0.022(2) 0.0089(11)
O21 0.051(5) 0.052(2) 0.092(9) 0.002(4) 0.036(5) 0.008(2)
N11 0.034(3) 0.059(3) 0.091(4) 0.012(3) 0.024(3) 0.020(3)
C11 0.0337(18) 0.0530(19) 0.082(4) 0.003(2) 0.0216(18) 0.0085(13)
C21 0.0326(13) 0.061(3) 0.087(3) 0.007(3) 0.018(2) 0.0083(18)
C31 0.060(3) 0.089(5) 0.088(3) 0.013(3) 0.018(3) 0.012(3)
C41 0.109(8) 0.133(8) 0.103(6) -0.017(6) 0.012(6) -0.010(7)
C51 0.216(18) 0.190(18) 0.114(8) -0.009(9) -0.029(12) -0.015(15)
O12 0.0299(9) 0.054(2) 0.083(10) 0.001(4) 0.022(2) 0.0089(11)
O22 0.051(5) 0.052(2) 0.092(9) 0.002(4) 0.036(5) 0.008(2)
N12 0.034(3) 0.059(3) 0.091(4) 0.012(3) 0.024(3) 0.020(3)
C12 0.0337(18) 0.0530(19) 0.082(4) 0.003(2) 0.0216(18) 0.0085(13)
C22 0.0326(13) 0.061(3) 0.087(3) 0.007(3) 0.018(2) 0.0083(18)
C32 0.060(3) 0.089(5) 0.088(3) 0.013(3) 0.018(3) 0.012(3)
O13 0.0299(9) 0.054(2) 0.083(10) 0.001(4) 0.022(2) 0.0089(11)
O23 0.051(5) 0.052(2) 0.092(9) 0.002(4) 0.036(5) 0.008(2)
N13 0.034(3) 0.059(3) 0.091(4) 0.012(3) 0.024(3) 0.020(3)
C13 0.0337(18) 0.0530(19) 0.082(4) 0.003(2) 0.0216(18) 0.0085(13)
C23 0.0326(13) 0.061(3) 0.087(3) 0.007(3) 0.018(2) 0.0083(18)
C33 0.060(3) 0.089(5) 0.088(3) 0.013(3) 0.018(3) 0.012(3)
O14 0.0299(9) 0.054(2) 0.083(10) 0.001(4) 0.022(2) 0.0089(11)
O24 0.051(5) 0.052(2) 0.092(9) 0.002(4) 0.036(5) 0.008(2)
N14 0.034(3) 0.059(3) 0.091(4) 0.012(3) 0.024(3) 0.020(3)
C14 0.0337(18) 0.0530(19) 0.082(4) 0.003(2) 0.0216(18) 0.0085(13)
C24 0.0326(13) 0.061(3) 0.087(3) 0.007(3) 0.018(2) 0.0083(18)
C34 0.060(3) 0.089(5) 0.088(3) 0.013(3) 0.018(3) 0.012(3)
loop_
_atom_type_symbol
_atom_type_description
_atom_type_scat_dispersion_real
_atom_type_scat_dispersion_imag
_atom_type_scat_source
C C 0.0033 0.0016 'International Tables Vol C Tables 4.2.6.8 and 6.1.1.4'
H H 0.0000 0.0000 'International Tables Vol C Tables 4.2.6.8 and 6.1.1.4'
N N 0.0061 0.0033 'International Tables Vol C Tables 4.2.6.8 and 6.1.1.4'
O O 0.0106 0.0060 'International Tables Vol C Tables 4.2.6.8 and 6.1.1.4'
loop_
_geom_angle_atom_site_label_1
_geom_angle_atom_site_label_2
_geom_angle_atom_site_label_3
_geom_angle
C21 N11 H1 109.5
C21 N11 H2 109.5
H1 N11 H2 109.5
C21 N11 H3 109.5
H1 N11 H3 109.5
H2 N11 H3 109.5
O11 C11 O21 124.2(10)
O11 C11 C21 116.5(6)
O21 C11 C21 118.4(5)
N11 C21 C31 110.4(5)
N11 C21 C11 109.0(4)
C31 C21 C11 111.8(5)
N11 C21 H21 108.5
C31 C21 H21 108.5
C11 C21 H21 108.5
C41 C31 C21 112.3(8)
C41 C31 H31 109.1
C21 C31 H31 109.1
C41 C31 H32 109.1
C21 C31 H32 109.1
H31 C31 H32 107.9
C31 C41 C51 109.3(9)
C31 C41 H41 109.8
C51 C41 H41 109.8
C31 C41 H42 109.8
C51 C41 H42 109.8
H41 C41 H42 108.3
C41 C51 H51 109.5
C41 C51 H52 109.5
H51 C51 H52 109.5
C41 C51 H53 109.5
H51 C51 H53 109.5
H52 C51 H53 109.5
C22 N12 H4 109.5
C22 N12 H5 109.5
H4 N12 H5 109.5
C22 N12 H6 109.5
H4 N12 H6 109.5
H5 N12 H6 109.5
O12 C12 O22 124.3(11)
O12 C12 C22 116.7(7)
O22 C12 C22 118.6(5)
N12 C22 C32 110.7(6)
N12 C22 C12 109.2(5)
C32 C22 C12 111.8(5)
N12 C22 H22 108.4
C32 C22 H22 108.4
C12 C22 H22 108.4
C42 C32 C22 112.6(9)
C42 C32 H33 109.1
C22 C32 H33 109.1
C42 C32 H34 109.1
C22 C32 H34 109.1
H33 C32 H34 107.8
C32 C42 C52 109.4(10)
C32 C42 H43 109.8
C52 C42 H43 109.8
C32 C42 H44 109.8
C52 C42 H44 109.8
H43 C42 H44 108.2
C42 C52 H54 109.5
C42 C52 H55 109.5
H54 C52 H55 109.5
C42 C52 H56 109.5
H54 C52 H56 109.5
H55 C52 H56 109.5
C23 N13 H7 109.5
C23 N13 H8 109.5
H7 N13 H8 109.5
C23 N13 H9 109.5
H7 N13 H9 109.5
H8 N13 H9 109.5
O13 C13 O23 124.4(12)
O13 C13 C23 116.7(6)
O23 C13 C23 118.5(6)
N13 C23 C33 110.8(6)
N13 C23 C13 109.2(5)
C33 C23 C13 111.8(6)
N13 C23 H23 108.3
C33 C23 H23 108.3
C13 C23 H23 108.3
C43 C33 C23 112.4(9)
C43 C33 H35 109.1
C23 C33 H35 109.1
C43 C33 H36 109.1
C23 C33 H36 109.1
H35 C33 H36 107.9
C33 C43 C53 109.5(10)
C33 C43 H45 109.8
C53 C43 H45 109.8
C33 C43 H46 109.8
C53 C43 H46 109.8
H45 C43 H46 108.2
C43 C53 H57 109.5
C43 C53 H58 109.5
H57 C53 H58 109.5
C43 C53 H59 109.5
H57 C53 H59 109.5
H58 C53 H59 109.5
C24 N14 H10 109.5
C24 N14 H11 109.5
H10 N14 H11 109.5
C24 N14 H12 109.5
H10 N14 H12 109.5
H11 N14 H12 109.5
O14 C14 O24 124.1(12)
O14 C14 C24 116.4(7)
O24 C14 C24 118.3(7)
N14 C24 C34 110.4(6)
N14 C24 C14 109.0(5)
C34 C24 C14 111.9(6)
N14 C24 H24 108.5
C34 C24 H24 108.5
C14 C24 H24 108.5
C44 C34 C24 112.5(9)
C44 C34 H37 109.1
C24 C34 H37 109.1
C44 C34 H38 109.1
C24 C34 H38 109.1
H37 C34 H38 107.8
C34 C44 C54 109.6(10)
C34 C44 H47 109.8
C54 C44 H47 109.8
C34 C44 H48 109.8
C54 C44 H48 109.8
H47 C44 H48 108.2
C44 C54 H60 109.5
C44 C54 H61 109.5
H60 C54 H61 109.5
C44 C54 H62 109.5
H60 C54 H62 109.5
H61 C54 H62 109.5
loop_
_geom_bond_atom_site_label_1
_geom_bond_atom_site_label_2
_geom_bond_distance
O11 C11 1.251(6)
O21 C11 1.271(8)
N11 C21 1.483(7)
N11 H1 0.8900
N11 H2 0.8900
N11 H3 0.8900
C11 C21 1.540(5)
C21 C31 1.521(8)
C21 H21 0.9800
C31 C41 1.516(12)
C31 H31 0.9700
C31 H32 0.9700
C41 C51 1.550(15)
C41 H41 0.9700
C41 H42 0.9700
C51 H51 0.9600
C51 H52 0.9600
C51 H53 0.9600
O12 C12 1.251(6)
O22 C12 1.271(8)
N12 C22 1.483(7)
N12 H4 0.8900
N12 H5 0.8900
N12 H6 0.8900
C12 C22 1.539(5)
C22 C32 1.519(9)
C22 H22 0.9800
C32 C42 1.514(12)
C32 H33 0.9700
C32 H34 0.9700
C42 C52 1.550(15)
C42 H43 0.9700
C42 H44 0.9700
C52 H54 0.9600
C52 H55 0.9600
C52 H56 0.9600
O13 C13 1.251(7)
O23 C13 1.270(9)
N13 C23 1.482(7)
N13 H7 0.8900
N13 H8 0.8900
N13 H9 0.8900
C13 C23 1.538(5)
C23 C33 1.520(9)
C23 H23 0.9800
C33 C43 1.515(12)
C33 H35 0.9700
C33 H36 0.9700
C43 C53 1.549(15)
C43 H45 0.9700
C43 H46 0.9700
C53 H57 0.9600
C53 H58 0.9600
C53 H59 0.9600
O14 C14 1.252(6)
O24 C14 1.272(9)
N14 C24 1.484(7)
N14 H10 0.8900
N14 H11 0.8900
N14 H12 0.8900
C14 C24 1.540(5)
C24 C34 1.520(9)
C24 H24 0.9800
C34 C44 1.515(12)
C34 H37 0.9700
C34 H38 0.9700
C44 C54 1.549(15)
C44 H47 0.9700
C44 H48 0.9700
C54 H60 0.9600
C54 H61 0.9600
C54 H62 0.9600
loop_
_geom_hbond_atom_site_label_D
_geom_hbond_atom_site_label_H
_geom_hbond_atom_site_label_A
_geom_hbond_distance_DH
_geom_hbond_distance_HA
_geom_hbond_distance_DA
_geom_hbond_angle_DHA
_geom_hbond_site_symmetry_A
N11 H1 O11 0.89 1.95 2.828(19) 166.9 3_455
N11 H1 O21 0.89 2.62 3.32(5) 136.9 3_455
N11 H2 O21 0.89 2.04 2.92(5) 170.8 1_565
N11 H3 O11 0.89 1.71 2.56(4) 157.0 2_656
loop_
_geom_torsion_atom_site_label_1
_geom_torsion_atom_site_label_2
_geom_torsion_atom_site_label_3
_geom_torsion_atom_site_label_4
_geom_torsion
O11 C11 C21 N11 -19(3)
O21 C11 C21 N11 172(2)
O11 C11 C21 C31 104(3)
O21 C11 C21 C31 -66(2)
N11 C21 C31 C41 -169.7(17)
C11 C21 C31 C41 68.8(17)
C21 C31 C41 C51 171.8(18)
O12 C12 C22 N12 -17(7)
O22 C12 C22 N12 170(4)
O12 C12 C22 C32 106(7)
O22 C12 C22 C32 -67(4)
N12 C22 C32 C42 65(2)
C12 C22 C32 C42 -57(2)
C22 C32 C42 C52 -178(2)
O13 C13 C23 N13 -38(9)
O23 C13 C23 N13 136(3)
O13 C13 C23 C33 85(9)
O23 C13 C23 C33 -101(3)
N13 C23 C33 C43 -55(3)
C13 C23 C33 C43 -177(2)
C23 C33 C43 C53 -176(3)
O14 C14 C24 N14 -38(4)
O24 C14 C24 N14 130(4)
O14 C14 C24 C34 84(4)
O24 C14 C24 C34 -108(4)
N14 C24 C34 C44 -172(3)
C14 C24 C34 C44 66(3)
C24 C34 C44 C54 73(3)
