#------------------------------------------------------------------------------
#$Date: 2016-09-24 04:20:53 +0300 (Sat, 24 Sep 2016) $
#$Revision: 186756 $
#$URL: file:///home/coder/svn-repositories/cod/cif/1/54/41/1544192.cif $
#------------------------------------------------------------------------------
#
# This file is available in the Crystallography Open Database (COD),
# http://www.crystallography.net/. The original data for this entry
# were provided by IUCr Journals, http://journals.iucr.org/.
#
# The file may be used within the scientific community so long as
# proper attribution is given to the journal article from which the
# data were obtained.
#
data_1544192
loop_
_publ_author_name
'Posel, Maciej'
'Stoeckli-Evans, Helen'
_publ_section_title
;
 (<i>E</i>)-<i>N</i>,<i>N</i>'-(1,2-Dicyanoethene-1,2-diyl)dipicolinamide
;
_journal_issue                   9
_journal_name_full               IUCrData
_journal_page_first              x161464
_journal_paper_doi               10.1107/S2414314616014644
_journal_volume                  1
_journal_year                    2016
_chemical_formula_iupac          'C16 H10 N6 O2'
_chemical_formula_moiety         'C16 H10 N6 O2'
_chemical_formula_sum            'C16 H10 N6 O2'
_chemical_formula_weight         318.30
_chemical_name_systematic
;
(<i>E</i>)-<i>N</i>,<i>N</i>'-(1,2-Dicyanoethene-1,2-diyl)dipicolinamide
;
_space_group_crystal_system      triclinic
_space_group_IT_number           2
_space_group_name_Hall           '-P 1'
_space_group_name_H-M_alt        'P -1'
_symmetry_space_group_name_Hall  '-P 1'
_symmetry_space_group_name_H-M   'P -1'
_atom_sites_solution_hydrogens   mixed
_audit_creation_method           SHELXL-2014/6
_cell_angle_alpha                106.819(19)
_cell_angle_beta                 96.077(18)
_cell_angle_gamma                92.804(18)
_cell_formula_units_Z            1
_cell_length_a                   5.1939(11)
_cell_length_b                   8.0697(17)
_cell_length_c                   9.1482(15)
_cell_measurement_reflns_used    18
_cell_measurement_temperature    293(2)
_cell_measurement_theta_max      19.5
_cell_measurement_theta_min      12.5
_cell_volume                     363.69(13)
_computing_cell_refinement
;
STADI4 (Stoe & Cie, 1997)
;
_computing_data_collection
;
STADI4 (Stoe & Cie, 1997)
;
_computing_data_reduction
;
X-RED (Stoe & Cie, 1997)
;
_computing_molecular_graphics
;
PLATON (Spek, 2009) and Mercury (Macrae <i>et al.</i>,  2008)
;
_computing_publication_material
;
SHELXL2014/6 (Sheldrick, 2015), PLATON (Spek, 2009) and
publCIF (Westrip,
2010)
;
_computing_structure_refinement
;
<i>SHELXL2014/6</i> (Sheldrick, 2015)
;
_computing_structure_solution
;
SHELXS-97 (Sheldrick, 2008)
;
_diffrn_ambient_temperature      293(2)
_diffrn_measured_fraction_theta_full 0.974
_diffrn_measured_fraction_theta_max 0.999
_diffrn_measurement_device       'STOE--Siemens AED2, 4-circle'
_diffrn_measurement_method       '\w/2\q scans'
_diffrn_radiation_monochromator  'plane graphite'
_diffrn_radiation_source         'fine-focus sealed tube'
_diffrn_radiation_type           MoK\a
_diffrn_radiation_wavelength     0.71073
_diffrn_reflns_av_R_equivalents  0.0
_diffrn_reflns_limit_h_max       6
_diffrn_reflns_limit_h_min       -6
_diffrn_reflns_limit_k_max       9
_diffrn_reflns_limit_k_min       -9
_diffrn_reflns_limit_l_max       10
_diffrn_reflns_limit_l_min       0
_diffrn_reflns_number            1281
_diffrn_reflns_theta_full        25.242
_diffrn_reflns_theta_max         25.011
_diffrn_reflns_theta_min         2.646
_diffrn_standards_decay_%        4
_diffrn_standards_interval_time  60
_diffrn_standards_number         3
_exptl_absorpt_coefficient_mu    0.102
_exptl_absorpt_correction_type   none
_exptl_crystal_colour            yellow
_exptl_crystal_density_diffrn    1.444
_exptl_crystal_description       needle
_exptl_crystal_F_000             164
_exptl_crystal_size_max          0.722
_exptl_crystal_size_mid          0.304
_exptl_crystal_size_min          0.304
_refine_diff_density_max         0.170
_refine_diff_density_min         -0.169
_refine_ls_extinction_coef       0.063(14)
_refine_ls_extinction_expression Fc^*^=kFc[1+0.001xFc^2^\l^3^/sin(2\q)]^-1/4^
_refine_ls_extinction_method     SHELXL
_refine_ls_goodness_of_fit_ref   1.404
_refine_ls_hydrogen_treatment    mixed
_refine_ls_matrix_type           full
_refine_ls_number_parameters     114
_refine_ls_number_reflns         1281
_refine_ls_number_restraints     0
_refine_ls_restrained_S_all      1.404
_refine_ls_R_factor_all          0.0781
_refine_ls_R_factor_gt           0.0728
_refine_ls_shift/su_max          0.000
_refine_ls_shift/su_mean         0.000
_refine_ls_structure_factor_coef Fsqd
_refine_ls_weighting_details
'w=1/[\s^2^(Fo^2^)+(0.0451P)^2^+0.1443P] where P=(Fo^2^+2Fc^2^)/3'
_refine_ls_weighting_scheme      calc
_refine_ls_wR_factor_gt          0.1522
_refine_ls_wR_factor_ref         0.1551
_reflns_number_gt                1196
_reflns_number_total             1281
_reflns_threshold_expression     'I > 2\s(I)'
_cod_data_source_file            hg4014sup1.cif
_cod_data_source_block           I
_cod_database_code               1544192
_shelx_space_group_comment
;
The symmetry employed for this shelxl refinement is uniquely defined
by the following loop, which should always be used as a source of
symmetry information in preference to the above space-group names.
They are only intended as comments.
;
_shelx_estimated_absorpt_t_min   0.930
_shelx_estimated_absorpt_t_max   0.970
_shelx_hkl_file
;
   1   0   0 1916.56    6.34   0
   2   0   0    0.57    0.51   0
   3   0   0   67.45    1.89   0
   4   0   0   19.46    1.25   0
   5   0   0   15.96    1.22   0
   6   0   0    9.99    1.19   0
  -6   1   0   10.75    1.31   0
  -5   1   0   13.78    1.22   0
  -4   1   0   -0.22    0.63   0
  -3   1   0  102.17    2.30   0
  -2   1   0    1.39    0.61   0
  -1   1   0   11.73    0.67   0
   0   1   0  788.22    3.21   0
   1   1   0    5.18    0.53   0
   2   1   0  845.19    5.44   0
   3   1   0  267.03    3.77   0
   4   1   0   20.60    1.25   0
   5   1   0   26.43    1.62   0
   6   1   0   15.24    1.38   0
  -6   2   0   10.18    1.23   0
  -5   2   0    6.89    0.97   0
  -4   2   0   41.90    1.97   0
  -3   2   0   27.51    1.40   0
  -2   2   0    7.86    0.66   0
  -1   2   0  415.80    3.25   0
   0   2   0   10.71    0.62   0
   1   2   0  476.29    3.62   0
   2   2   0  311.03    3.54   0
   3   2   0  254.77    3.84   0
   4   2   0   37.71    1.95   0
   5   2   0    2.40    0.85   0
  -5   3   0   14.89    1.34   0
  -4   3   0    3.01    0.79   0
  -3   3   0   66.26    2.04   0
  -2   3   0  432.67    4.38   0
  -1   3   0   66.08    1.59   0
   0   3   0  116.67    1.98   0
   1   3   0   23.63    1.13   0
   2   3   0   10.22    0.76   0
   3   3   0   38.05    1.78   0
   4   3   0  206.31    4.26   0
   5   3   0    3.20    1.12   0
  -5   4   0    1.21    0.97   0
  -4   4   0   10.40    1.04   0
  -3   4   0    3.74    0.72   0
  -2   4   0  122.99    2.57   0
  -1   4   0  173.50    2.86   0
   0   4   0   31.85    1.28   0
   1   4   0    3.40    0.57   0
   2   4   0   39.63    1.62   0
   3   4   0    2.99    0.70   0
   4   4   0   24.30    1.55   0
   5   4   0    4.96    0.94   0
  -5   5   0    7.65    1.13   0
  -4   5   0    2.06    0.91   0
  -3   5   0   34.70    1.88   0
  -2   5   0    6.48    0.78   0
  -1   5   0    8.39    0.78   0
   0   5   0    1.87    0.65   0
   1   5   0    0.26    0.60   0
   2   5   0   12.81    1.02   0
   3   5   0    2.10    0.84   0
   4   5   0    3.45    0.82   0
  -4   6   0   10.01    1.12   0
  -3   6   0    3.28    0.91   0
  -2   6   0    3.91    0.74   0
  -1   6   0   64.88    2.26   0
   0   6   0    9.60    0.89   0
   1   6   0   45.84    1.92   0
   2   6   0    1.80    0.84   0
   3   6   0   10.11    1.09   0
   4   6   0   23.61    1.61   0
  -4   7   0    3.30    0.99   0
  -3   7   0    3.18    0.93   0
  -2   7   0    3.79    0.83   0
  -1   7   0    1.10    0.78   0
   0   7   0   10.27    1.01   0
   1   7   0   16.61    1.26   0
   2   7   0   63.66    2.67   0
   3   7   0    3.09    1.02   0
  -3   8   0    3.91    0.94   0
  -2   8   0   24.70    1.64   0
  -1   8   0   17.40    1.37   0
   0   8   0    3.72    0.89   0
   1   8   0   84.00    3.13   0
   2   8   0   12.57    1.30   0
  -1   9   0   16.57    1.48   0
   0   9   0   26.47    1.80   0
  -1  -9   1   22.56    1.68   0
   0  -9   1    8.45    1.13   0
   1  -9   1    2.42    0.98   0
   2  -9   1    4.70    0.97   0
  -2  -8   1    6.55    1.08   0
  -1  -8   1   -0.59    0.83   0
   0  -8   1    7.07    1.03   0
   1  -8   1    8.05    1.04   0
   2  -8   1    7.32    0.99   0
   3  -8   1    3.86    0.87   0
  -3  -7   1    9.73    1.14   0
  -2  -7   1    1.22    0.87   0
  -1  -7   1   20.72    1.41   0
   0  -7   1    5.24    0.84   0
   1  -7   1    1.91    0.74   0
   2  -7   1    3.95    0.83   0
   3  -7   1    3.02    0.84   0
   4  -7   1    6.60    1.01   0
  -4  -6   1    1.36    0.95   0
  -3  -6   1    3.21    0.80   0
  -2  -6   1    3.78    0.82   0
  -1  -6   1    7.91    0.89   0
   0  -6   1    9.99    0.90   0
   1  -6   1    1.39    0.66   0
   2  -6   1    2.98    0.77   0
   3  -6   1   22.60    1.40   0
   4  -6   1    4.05    0.95   0
   5  -6   1    1.37    1.01   0
  -5  -5   1    2.90    1.03   0
  -4  -5   1   12.53    1.20   0
  -3  -5   1  124.44    3.21   0
  -2  -5   1   21.82    1.30   0
  -1  -5   1   10.55    0.87   0
   0  -5   1    1.93    0.58   0
   1  -5   1    9.84    0.82   0
   2  -5   1   43.06    1.70   0
   3  -5   1   66.06    2.33   0
   4  -5   1    8.26    0.98   0
   5  -5   1    3.04    1.05   0
  -5  -4   1   25.23    1.64   0
  -4  -4   1    5.79    0.82   0
  -3  -4   1   53.54    1.97   0
  -2  -4   1  368.23    4.55   0
  -1  -4   1   75.17    1.89   0
   0  -4   1  390.64    4.05   0
   1  -4   1   90.47    2.05   0
   2  -4   1   57.35    1.82   0
   3  -4   1    8.87    0.84   0
   4  -4   1    4.08    0.81   0
   5  -4   1   17.61    1.41   0
  -5  -3   1   90.43    3.17   0
  -4  -3   1    3.64    0.77   0
  -3  -3   1   39.97    1.64   0
  -2  -3   1  617.47    5.31   0
  -1  -3   1  349.34    3.53   0
   0  -3   1  102.47    1.82   0
   1  -3   1    1.51    0.58   0
   2  -3   1   10.91    0.77   0
   3  -3   1   17.99    1.13   0
   4  -3   1    3.84    0.79   0
   5  -3   1    7.21    1.00   0
  -5  -2   1    4.74    0.98   0
  -4  -2   1    4.50    0.81   0
  -3  -2   1  103.50    2.43   0
  -2  -2   1   37.55    1.30   0
  -1  -2   1   -0.50    0.56   0
   0  -2   1 3791.04   16.16   0
   1  -2   1 9999.00   43.58   0
   2  -2   1  288.66    3.33   0
   3  -2   1    3.12    0.70   0
   4  -2   1   41.11    2.01   0
   5  -2   1    2.73    0.92   0
   6  -2   1    1.72    0.88   0
  -6  -1   1    9.39    1.14   0
  -5  -1   1   21.03    1.41   0
  -4  -1   1   29.16    1.68   0
  -3  -1   1   53.26    1.73   0
  -2  -1   1  758.16    5.07   0
  -1  -1   1  271.66    2.32   0
   0  -1   1  251.01    1.74   0
   1  -1   1  979.02    4.51   0
   2  -1   1   28.91    1.13   0
   3  -1   1  339.72    4.22   0
   4  -1   1   18.33    1.18   0
   5  -1   1   23.15    1.56   0
   6  -1   1    9.08    1.26   0
  -6   0   1   18.18    1.43   0
  -5   0   1   20.69    1.38   0
  -4   0   1   32.20    1.73   0
  -3   0   1   42.15    1.55   0
  -2   0   1  426.38    3.73   0
  -1   0   1 1836.34    6.51   0
   1   0   1    8.28    0.56   0
   2   0   1  150.88    2.32   0
   3   0   1  397.20    4.57   0
   4   0   1   15.06    1.10   0
   5   0   1    1.83    0.75   0
   6   0   1    0.73    0.94   0
  -6   1   1   15.59    1.47   0
  -5   1   1    0.84    0.90   0
  -4   1   1   37.70    1.82   0
  -3   1   1   73.62    1.98   0
  -2   1   1  175.17    2.47   0
  -1   1   1  823.14    4.21   0
   0   1   1  595.13    3.14   0
   1   1   1   62.13    1.32   0
   2   1   1  112.87    2.11   0
   3   1   1    7.40    0.74   0
   4   1   1   -0.14    0.65   0
   5   1   1  108.59    3.42   0
  -6   2   1    6.15    1.15   0
  -5   2   1   13.02    1.24   0
  -4   2   1    1.54    0.63   0
  -3   2   1  162.16    3.02   0
  -2   2   1   27.20    1.14   0
  -1   2   1  152.21    2.12   0
   0   2   1  765.63    4.46   0
   1   2   1  167.83    2.33   0
   2   2   1   74.81    1.87   0
   3   2   1  123.43    2.79   0
   4   2   1   10.24    0.99   0
   5   2   1   23.67    1.56   0
  -5   3   1  103.41    3.36   0
  -4   3   1    1.06    0.71   0
  -3   3   1    2.73    0.62   0
  -2   3   1  314.27    3.85   0
  -1   3   1    4.36    0.58   0
   0   3   1   43.84    1.33   0
   1   3   1   32.87    1.27   0
   2   3   1   64.88    1.90   0
   3   3   1    5.80    0.77   0
   4   3   1   12.28    1.10   0
   5   3   1    2.57    0.86   0
  -5   4   1    3.02    1.06   0
  -4   4   1   39.87    2.14   0
  -3   4   1   72.70    2.34   0
  -2   4   1    2.63    0.65   0
  -1   4   1   74.24    1.97   0
   0   4   1  245.05    3.45   0
   1   4   1    2.27    0.55   0
   2   4   1   52.99    1.88   0
   3   4   1    8.59    0.95   0
   4   4   1    1.87    0.83   0
   5   4   1   19.11    1.56   0
  -5   5   1    4.32    1.00   0
  -4   5   1   26.15    1.62   0
  -3   5   1    9.77    0.95   0
  -2   5   1    0.55    0.68   0
  -1   5   1   14.63    0.95   0
   0   5   1   21.12    1.32   0
   1   5   1   44.78    1.80   0
   2   5   1   29.82    1.60   0
   3   5   1   49.30    2.40   0
   4   5   1    5.92    0.94   0
  -4   6   1   13.95    1.27   0
  -3   6   1    8.06    1.00   0
  -2   6   1   35.63    1.95   0
  -1   6   1  145.16    3.36   0
   0   6   1    9.23    0.91   0
   1   6   1    2.70    0.80   0
   2   6   1  261.01    4.94   0
   3   6   1    3.75    1.08   0
   4   6   1   18.03    1.52   0
  -4   7   1    4.60    0.95   0
  -3   7   1    3.74    0.89   0
  -2   7   1    3.11    0.89   0
  -1   7   1    3.45    0.76   0
   0   7   1   66.02    2.55   0
   1   7   1  104.75    3.30   0
   2   7   1   17.77    1.37   0
   3   7   1    4.07    0.97   0
  -3   8   1    1.74    0.96   0
  -2   8   1    4.35    0.99   0
  -1   8   1    8.28    1.07   0
   0   8   1   39.01    2.26   0
   1   8   1   23.27    1.64   0
   2   8   1    8.24    1.26   0
  -1  -9   2    1.71    0.90   0
   0  -9   2    4.82    1.02   0
   1  -9   2    4.19    1.08   0
   2  -9   2    0.15    0.92   0
  -3  -8   2    3.31    1.01   0
  -2  -8   2    5.02    0.92   0
  -1  -8   2    6.64    0.99   0
   0  -8   2    3.31    0.98   0
   1  -8   2    5.97    0.91   0
   2  -8   2    0.63    0.77   0
   3  -8   2    3.96    0.89   0
  -3  -7   2   15.73    1.34   0
  -2  -7   2   23.34    1.43   0
  -1  -7   2    1.99    0.83   0
   0  -7   2    0.15    0.72   0
   1  -7   2    1.31    0.63   0
   2  -7   2    3.53    0.83   0
   3  -7   2   17.11    1.34   0
   4  -7   2    5.66    1.09   0
  -4  -6   2   18.65    1.42   0
  -3  -6   2   11.72    1.12   0
  -2  -6   2   11.07    0.99   0
  -1  -6   2   94.19    2.66   0
   0  -6   2   46.56    1.84   0
   1  -6   2   56.93    2.07   0
   2  -6   2   36.36    1.94   0
   3  -6   2    3.67    0.89   0
   4  -6   2    2.14    0.98   0
  -5  -5   2    1.49    0.90   0
  -4  -5   2  132.58    3.70   0
  -3  -5   2    9.66    1.00   0
  -2  -5   2   71.23    2.25   0
  -1  -5   2  254.86    3.85   0
   0  -5   2  106.46    2.43   0
   1  -5   2   26.93    1.42   0
   2  -5   2   32.74    1.68   0
   3  -5   2   10.95    1.00   0
   4  -5   2    4.45    0.84   0
   5  -5   2    3.57    1.02   0
  -5  -4   2    2.08    0.81   0
  -4  -4   2    7.11    0.93   0
  -3  -4   2   34.68    1.79   0
  -2  -4   2   26.33    1.41   0
  -1  -4   2   68.66    1.80   0
   0  -4   2   34.73    1.28   0
   1  -4   2 1476.57    8.26   0
   2  -4   2 1306.98    8.53   0
   3  -4   2   75.04    2.35   0
   4  -4   2   11.57    1.12   0
   5  -4   2    4.50    1.00   0
  -5  -3   2   13.79    1.28   0
  -4  -3   2   11.86    1.01   0
  -3  -3   2    1.73    0.66   0
  -2  -3   2   13.13    0.84   0
  -1  -3   2  263.36    3.10   0
   0  -3   2  120.61    2.01   0
   1  -3   2  256.38    3.07   0
   2  -3   2  133.44    2.53   0
   3  -3   2    3.63    0.66   0
   4  -3   2   29.47    1.77   0
   5  -3   2    4.73    0.84   0
  -5  -2   2   80.20    2.93   0
  -4  -2   2    6.52    0.85   0
  -3  -2   2    5.50    0.69   0
  -2  -2   2  115.70    2.19   0
  -1  -2   2  300.00    2.93   0
   0  -2   2 3039.14   13.57   0
   1  -2   2    0.53    0.55   0
   2  -2   2    1.46    0.53   0
   3  -2   2   79.32    2.21   0
   4  -2   2   75.54    2.50   0
   5  -2   2    1.74    0.81   0
  -6  -1   2    6.59    1.11   0
  -5  -1   2   88.25    2.98   0
  -4  -1   2   43.47    2.02   0
  -3  -1   2    3.08    0.68   0
  -2  -1   2   81.64    1.78   0
  -1  -1   2  298.05    2.66   0
   0  -1   2  127.77    1.59   0
   1  -1   2 1109.58    5.38   0
   2  -1   2   31.50    1.21   0
   3  -1   2   14.37    0.92   0
   4  -1   2    3.16    0.78   0
   5  -1   2    7.86    1.09   0
  -6   0   2   14.28    1.41   0
  -5   0   2   38.73    2.09   0
  -4   0   2    3.48    0.85   0
  -3   0   2    6.72    0.70   0
  -2   0   2  441.87    3.95   0
  -1   0   2    0.68    0.52   0
   0   0   2    2.34    0.52   0
   1   0   2  184.88    2.22   0
   2   0   2    4.01    0.57   0
   3   0   2    8.79    0.79   0
   4   0   2   53.79    2.11   0
   5   0   2   15.74    1.32   0
  -6   1   2   31.78    1.94   0
  -5   1   2  309.44    5.54   0
  -4   1   2  190.05    3.75   0
  -3   1   2    3.73    0.61   0
  -2   1   2   37.08    1.28   0
  -1   1   2 1233.14    5.89   0
   0   1   2  202.18    2.24   0
   1   1   2    2.83    0.51   0
   2   1   2    2.88    0.55   0
   3   1   2   57.08    1.91   0
   4   1   2   25.03    1.47   0
   5   1   2   18.31    1.38   0
  -6   2   2    0.57    0.97   0
  -5   2   2    8.53    1.02   0
  -4   2   2    4.99    0.80   0
  -3   2   2  190.31    3.36   0
  -2   2   2  377.94    4.06   0
  -1   2   2  249.19    2.94   0
   0   2   2  891.10    5.43   0
   1   2   2  107.18    2.07   0
   2   2   2    2.60    0.62   0
   3   2   2   53.73    1.97   0
   4   2   2   41.55    2.17   0
   5   2   2   13.84    1.35   0
  -5   3   2   13.73    1.31   0
  -4   3   2   23.77    1.37   0
  -3   3   2  208.79    3.73   0
  -2   3   2   40.24    1.51   0
  -1   3   2   48.04    1.54   0
   0   3   2   11.62    0.76   0
   1   3   2    6.51    0.66   0
   2   3   2   41.10    1.61   0
   3   3   2   17.48    1.16   0
   4   3   2   16.17    1.24   0
   5   3   2    3.79    0.95   0
  -5   4   2    4.52    0.95   0
  -4   4   2    3.41    0.86   0
  -3   4   2   56.46    2.14   0
  -2   4   2   18.86    1.08   0
  -1   4   2  379.76    4.58   0
   0   4   2  365.72    4.45   0
   1   4   2    2.03    0.65   0
   2   4   2   12.56    0.98   0
   3   4   2  358.39    5.62   0
   4   4   2   -0.83    0.86   0
  -5   5   2    5.01    1.03   0
  -4   5   2   -0.85    0.84   0
  -3   5   2   20.58    1.35   0
  -2   5   2    9.22    0.89   0
  -1   5   2    9.35    0.90   0
   0   5   2    2.13    0.59   0
   1   5   2  196.99    3.79   0
   2   5   2  235.18    4.43   0
   3   5   2    2.24    0.80   0
   4   5   2    8.45    1.11   0
  -4   6   2    1.75    0.88   0
  -3   6   2   11.15    1.13   0
  -2   6   2    7.25    0.88   0
  -1   6   2    4.30    0.98   0
   0   6   2   20.96    1.33   0
   1   6   2  172.64    3.93   0
   2   6   2   58.13    2.69   0
   3   6   2    4.96    0.91   0
  -3   7   2    1.74    0.85   0
  -2   7   2    2.25    0.89   0
  -1   7   2   11.94    1.18   0
   0   7   2   15.67    1.30   0
   1   7   2   17.03    1.26   0
   2   7   2    1.91    0.78   0
  -2   8   2    3.56    0.95   0
  -1   8   2    4.01    0.95   0
   0   8   2    5.15    0.99   0
   1   8   2    1.40    0.99   0
  -1  -9   3    3.51    0.96   0
   0  -9   3    3.90    0.97   0
   1  -9   3    2.09    0.87   0
   2  -9   3    2.29    1.00   0
  -3  -8   3    2.87    0.91   0
  -2  -8   3    5.03    1.07   0
  -1  -8   3    4.74    1.00   0
   0  -8   3   13.67    1.25   0
   1  -8   3   17.79    1.36   0
   2  -8   3    4.24    0.91   0
   3  -8   3    5.17    1.22   0
  -4  -7   3    4.29    1.01   0
  -3  -7   3   67.38    2.81   0
  -2  -7   3    2.31    0.96   0
  -1  -7   3   27.16    1.64   0
   0  -7   3   62.23    2.41   0
   1  -7   3   37.28    2.02   0
   2  -7   3    0.70    0.81   0
   3  -7   3    7.94    1.08   0
   4  -7   3    4.40    0.94   0
  -4  -6   3    3.14    0.92   0
  -3  -6   3    3.73    0.80   0
  -2  -6   3   65.02    2.30   0
  -1  -6   3    1.27    0.77   0
   0  -6   3   32.66    1.69   0
   1  -6   3   57.85    2.09   0
   2  -6   3  232.27    4.34   0
   3  -6   3  137.50    3.64   0
   4  -6   3    9.11    1.17   0
  -5  -5   3    8.81    1.25   0
  -4  -5   3    2.11    0.76   0
  -3  -5   3   17.24    1.21   0
  -2  -5   3   28.20    1.51   0
  -1  -5   3    1.84    0.61   0
   0  -5   3    2.17    0.56   0
   1  -5   3    0.94    0.69   0
   2  -5   3   41.61    1.93   0
   3  -5   3   19.08    1.27   0
   4  -5   3    4.78    0.86   0
   5  -5   3    2.78    0.85   0
  -5  -4   3    2.12    0.97   0
  -4  -4   3   60.29    2.47   0
  -3  -4   3    9.91    0.91   0
  -2  -4   3    2.51    0.58   0
  -1  -4   3  115.31    2.39   0
   0  -4   3    2.66    0.65   0
   1  -4   3  705.97    5.88   0
   2  -4   3    2.88    0.75   0
   3  -4   3    3.44    0.69   0
   4  -4   3   33.30    1.82   0
   5  -4   3    5.31    1.03   0
  -5  -3   3   18.95    1.41   0
  -4  -3   3  106.63    2.99   0
  -3  -3   3   86.52    2.38   0
  -2  -3   3  112.06    2.36   0
  -1  -3   3    2.38    0.59   0
   0  -3   3  326.70    3.46   0
   1  -3   3   13.16    0.78   0
   2  -3   3  281.25    3.82   0
   3  -3   3   24.16    1.43   0
   4  -3   3    2.61    0.71   0
   5  -3   3    1.00    0.88   0
  -5  -2   3   41.88    2.17   0
  -4  -2   3   45.65    2.18   0
  -3  -2   3    7.80    0.76   0
  -2  -2   3  160.31    2.67   0
  -1  -2   3   61.28    1.50   0
   0  -2   3  236.81    2.68   0
   1  -2   3    0.91    0.56   0
   2  -2   3    1.96    0.59   0
   3  -2   3   15.27    0.99   0
   4  -2   3    5.61    0.82   0
   5  -2   3    4.47    0.99   0
  -6  -1   3    0.81    0.93   0
  -5  -1   3  158.26    4.06   0
  -4  -1   3  682.47    7.13   0
  -3  -1   3  162.10    3.00   0
  -2  -1   3    0.29    0.57   0
  -1  -1   3   10.21    0.65   0
   0  -1   3  280.28    2.77   0
   1  -1   3   51.13    1.37   0
   2  -1   3   22.50    1.21   0
   3  -1   3    6.55    0.77   0
   4  -1   3    1.55    0.65   0
   5  -1   3    3.86    0.89   0
  -6   0   3    5.89    1.25   0
  -5   0   3    0.64    0.94   0
  -4   0   3   83.52    2.57   0
  -3   0   3    4.37    0.67   0
  -2   0   3  778.23    5.61   0
  -1   0   3  320.63    3.15   0
   0   0   3  340.56    3.11   0
   1   0   3 1014.89    5.92   0
   2   0   3    2.93    0.64   0
   3   0   3   16.55    1.07   0
   4   0   3   78.83    2.70   0
   5   0   3   15.16    1.39   0
  -6   1   3    4.58    1.23   0
  -5   1   3  114.59    3.52   0
  -4   1   3    6.13    0.81   0
  -3   1   3   15.00    0.95   0
  -2   1   3 1490.30    8.11   0
  -1   1   3    8.63    0.64   0
   0   1   3  121.13    2.05   0
   1   1   3  161.34    2.52   0
   2   1   3   27.39    1.35   0
   3   1   3    2.01    0.65   0
   4   1   3    3.64    0.95   0
   5   1   3    7.99    1.05   0
  -5   2   3    3.72    1.01   0
  -4   2   3    2.19    0.78   0
  -3   2   3   25.23    1.49   0
  -2   2   3   35.37    1.41   0
  -1   2   3  290.31    3.50   0
   0   2   3 1227.93    7.12   0
   1   2   3  325.54    3.89   0
   2   2   3    1.33    0.61   0
   3   2   3   88.30    2.64   0
   4   2   3  138.20    3.77   0
   5   2   3    1.62    1.08   0
  -5   3   3    3.67    0.90   0
  -4   3   3    2.13    0.80   0
  -3   3   3    4.68    0.73   0
  -2   3   3   44.36    1.66   0
  -1   3   3   14.22    0.90   0
   0   3   3  117.74    2.47   0
   1   3   3   -1.19    0.53   0
   2   3   3  394.56    5.13   0
   3   3   3  192.51    4.03   0
   4   3   3    3.91    0.91   0
  -5   4   3    1.20    1.07   0
  -4   4   3   18.91    1.34   0
  -3   4   3   13.04    1.07   0
  -2   4   3   24.99    1.34   0
  -1   4   3   42.62    1.69   0
   0   4   3    2.23    0.65   0
   1   4   3   17.47    1.10   0
   2   4   3  529.92    6.38   0
   3   4   3   46.98    2.38   0
   4   4   3   -1.46    0.85   0
  -4   5   3    0.93    0.84   0
  -3   5   3    4.80    0.89   0
  -2   5   3    3.27    0.76   0
  -1   5   3   10.23    0.94   0
   0   5   3   41.14    2.00   0
   1   5   3    9.74    0.97   0
   2   5   3    3.94    0.88   0
   3   5   3    2.17    0.83   0
  -4   6   3    3.11    0.89   0
  -3   6   3    4.01    1.01   0
  -2   6   3   16.99    1.27   0
  -1   6   3    2.93    0.76   0
   0   6   3   14.50    1.13   0
   1   6   3    9.06    1.04   0
   2   6   3    4.25    0.85   0
   3   6   3   26.43    1.71   0
  -3   7   3   21.89    1.63   0
  -2   7   3    5.81    1.01   0
  -1   7   3    9.39    1.13   0
   0   7   3    8.92    1.11   0
   1   7   3    0.57    0.78   0
   2   7   3    2.52    0.92   0
  -1   8   3    9.28    1.18   0
   0   8   3   11.78    1.34   0
  -1  -9   4    1.89    0.94   0
   0  -9   4    3.38    0.96   0
   1  -9   4   16.74    1.46   0
   2  -9   4    6.41    1.13   0
  -3  -8   4    3.19    0.91   0
  -2  -8   4    3.89    0.86   0
  -1  -8   4   20.15    1.44   0
   0  -8   4    5.64    0.88   0
   1  -8   4    4.90    0.83   0
   2  -8   4   18.18    1.49   0
   3  -8   4   32.64    2.10   0
  -3  -7   4    1.21    0.98   0
  -2  -7   4   22.03    1.44   0
  -1  -7   4   16.39    1.22   0
   0  -7   4    2.97    0.89   0
   1  -7   4    2.55    0.66   0
   2  -7   4    5.90    0.95   0
   3  -7   4    3.17    1.07   0
   4  -7   4    5.24    1.07   0
  -4  -6   4    2.28    0.85   0
  -3  -6   4   12.51    1.17   0
  -2  -6   4   36.78    1.99   0
  -1  -6   4    2.10    0.63   0
   0  -6   4   19.20    1.28   0
   1  -6   4   24.48    1.40   0
   2  -6   4   89.90    2.84   0
   3  -6   4    3.39    0.93   0
   4  -6   4    5.80    0.98   0
  -5  -5   4    5.49    1.10   0
  -4  -5   4   21.31    1.47   0
  -3  -5   4   30.43    1.87   0
  -2  -5   4    9.15    0.87   0
  -1  -5   4   40.12    1.67   0
   0  -5   4    7.19    0.71   0
   1  -5   4   96.59    2.50   0
   2  -5   4    7.78    0.87   0
   3  -5   4   23.44    1.53   0
   4  -5   4    1.53    0.86   0
   5  -5   4    2.88    0.87   0
  -5  -4   4    2.63    0.91   0
  -4  -4   4   80.36    2.76   0
  -3  -4   4    7.06    0.85   0
  -2  -4   4    2.61    0.62   0
  -1  -4   4   99.42    2.34   0
   0  -4   4    1.72    0.58   0
   1  -4   4  144.05    2.80   0
   2  -4   4   10.82    0.88   0
   3  -4   4    2.90    0.76   0
   4  -4   4    3.27    0.86   0
   5  -4   4    4.68    1.03   0
  -5  -3   4    4.91    1.01   0
  -4  -3   4  465.08    6.28   0
  -3  -3   4  492.97    5.78   0
  -2  -3   4  147.57    2.84   0
  -1  -3   4   23.90    1.23   0
   0  -3   4   56.08    1.61   0
   1  -3   4   10.93    0.78   0
   2  -3   4    9.40    0.78   0
   3  -3   4    2.66    0.65   0
   4  -3   4    2.02    0.73   0
   5  -3   4    1.09    0.89   0
  -5  -2   4    2.30    0.74   0
  -4  -2   4   39.20    2.09   0
  -3  -2   4   82.74    2.35   0
  -2  -2   4    0.48    0.58   0
  -1  -2   4  490.82    4.44   0
   0  -2   4   36.10    1.28   0
   1  -2   4   11.66    0.80   0
   2  -2   4  115.09    2.55   0
   3  -2   4    8.15    0.86   0
   4  -2   4    2.90    0.70   0
   5  -2   4   42.75    2.61   0
  -5  -1   4   63.48    2.88   0
  -4  -1   4  139.36    3.37   0
  -3  -1   4    5.52    0.64   0
  -2  -1   4   36.39    1.38   0
  -1  -1   4 2274.07    9.76   0
   0  -1   4  188.38    2.64   0
   1  -1   4    3.49    0.57   0
   2  -1   4   40.70    1.56   0
   3  -1   4    8.07    0.87   0
   4  -1   4    2.72    0.79   0
   5  -1   4   12.04    1.29   0
  -5   0   4    2.77    0.99   0
  -4   0   4   19.96    1.31   0
  -3   0   4   15.77    0.99   0
  -2   0   4  110.47    2.34   0
  -1   0   4   12.78    0.82   0
   0   0   4 1302.97    7.13   0
   1   0   4  703.24    5.57   0
   2   0   4  185.81    3.23   0
   3   0   4    3.41    0.70   0
   4   0   4   87.12    3.01   0
   5   0   4   14.62    1.41   0
  -5   1   4    5.06    1.00   0
  -4   1   4    4.73    0.79   0
  -3   1   4    8.20    0.85   0
  -2   1   4   11.90    0.84   0
  -1   1   4    9.33    0.74   0
   0   1   4   50.26    1.53   0
   1   1   4   66.64    1.86   0
   2   1   4   13.47    0.90   0
   3   1   4  263.12    4.54   0
   4   1   4   61.48    2.77   0
   5   1   4    2.27    1.04   0
  -5   2   4    0.10    0.99   0
  -4   2   4    8.48    1.00   0
  -3   2   4   68.27    2.23   0
  -2   2   4   83.75    2.26   0
  -1   2   4    4.90    0.64   0
   0   2   4   36.16    1.45   0
   1   2   4    4.07    0.61   0
   2   2   4   41.17    1.88   0
   3   2   4  598.31    7.10   0
   4   2   4   14.49    1.33   0
  -5   3   4    4.67    0.97   0
  -4   3   4    5.05    0.81   0
  -3   3   4   11.46    1.01   0
  -2   3   4   63.70    2.09   0
  -1   3   4   17.36    1.05   0
   0   3   4   94.28    2.44   0
   1   3   4   30.65    1.63   0
   2   3   4    2.97    0.68   0
   3   3   4    7.53    0.96   0
   4   3   4    7.28    1.02   0
  -5   4   4    2.81    1.02   0
  -4   4   4    5.73    1.03   0
  -3   4   4    6.93    0.95   0
  -2   4   4   19.32    1.24   0
  -1   4   4    3.30    0.76   0
   0   4   4    2.92    0.74   0
   1   4   4    5.00    0.79   0
   2   4   4   15.27    1.18   0
   3   4   4   14.52    1.26   0
   4   4   4    9.29    1.23   0
  -4   5   4    5.83    1.25   0
  -3   5   4   17.60    1.37   0
  -2   5   4   89.87    2.91   0
  -1   5   4    1.13    0.79   0
   0   5   4   44.76    2.17   0
   1   5   4   18.64    1.29   0
   2   5   4    3.90    0.81   0
   3   5   4    7.24    1.05   0
  -3   6   4   46.32    2.50   0
  -2   6   4   12.13    1.23   0
  -1   6   4    5.11    0.84   0
   0   6   4   11.53    1.18   0
   1   6   4   25.31    1.62   0
   2   6   4   11.66    1.21   0
  -2   7   4    6.71    1.19   0
  -1   7   4    3.84    0.93   0
   0   7   4    8.76    1.19   0
   1   7   4    3.63    1.00   0
  -1  -9   5    9.86    1.16   0
   0  -9   5    8.04    1.12   0
   1  -9   5    1.87    0.96   0
  -3  -8   5    3.61    0.96   0
  -2  -8   5    4.73    0.97   0
  -1  -8   5   24.06    1.57   0
   0  -8   5    3.49    0.84   0
   1  -8   5    2.14    0.79   0
   2  -8   5    9.46    1.16   0
   3  -8   5   14.57    1.38   0
  -3  -7   5    5.35    1.10   0
  -2  -7   5    5.31    0.93   0
  -1  -7   5   -0.19    0.79   0
   0  -7   5    5.63    0.80   0
   1  -7   5   12.46    1.11   0
   2  -7   5   10.20    1.11   0
   3  -7   5    2.08    0.91   0
  -4  -6   5    2.52    0.82   0
  -3  -6   5   26.44    1.63   0
  -2  -6   5    3.24    0.74   0
  -1  -6   5    3.32    0.74   0
   0  -6   5   11.74    1.04   0
   1  -6   5    4.39    0.88   0
   2  -6   5   13.63    1.19   0
   3  -6   5    3.21    0.80   0
   4  -6   5    0.45    0.88   0
  -4  -5   5    3.08    0.88   0
  -3  -5   5  435.36    6.22   0
  -2  -5   5  195.00    3.83   0
  -1  -5   5   59.72    2.09   0
   0  -5   5   56.80    1.98   0
   1  -5   5    3.51    0.75   0
   2  -5   5   10.57    0.99   0
   3  -5   5    7.49    0.97   0
   4  -5   5    3.79    0.87   0
  -5  -4   5   13.69    1.32   0
  -4  -4   5    3.99    0.95   0
  -3  -4   5  108.57    3.00   0
  -2  -4   5   22.38    1.32   0
  -1  -4   5   36.37    1.52   0
   0  -4   5   24.55    1.36   0
   1  -4   5   13.24    0.93   0
   2  -4   5    2.35    0.72   0
   3  -4   5    6.09    0.86   0
   4  -4   5    6.55    1.01   0
  -5  -3   5    3.07    0.80   0
  -4  -3   5  115.41    3.33   0
  -3  -3   5   78.28    2.45   0
  -2  -3   5    7.58    0.78   0
  -1  -3   5  140.48    2.75   0
   0  -3   5  581.22    5.44   0
   1  -3   5   35.31    1.44   0
   2  -3   5    2.97    0.69   0
   3  -3   5    2.33    0.73   0
   4  -3   5    2.96    0.80   0
   5  -3   5    4.22    0.95   0
  -5  -2   5    8.29    1.15   0
  -4  -2   5    1.92    0.74   0
  -3  -2   5   66.38    2.22   0
  -2  -2   5  123.88    2.67   0
  -1  -2   5   27.67    1.36   0
   0  -2   5    4.04    0.61   0
   1  -2   5  767.91    6.35   0
   2  -2   5  160.13    3.22   0
   3  -2   5   64.67    2.36   0
   4  -2   5   20.39    1.43   0
   5  -2   5   22.45    1.73   0
  -5  -1   5   33.55    2.02   0
  -4  -1   5    1.57    0.86   0
  -3  -1   5    3.61    0.65   0
  -2  -1   5  176.90    3.13   0
  -1  -1   5   18.08    1.12   0
   0  -1   5    3.98    0.58   0
   1  -1   5  140.13    2.75   0
   2  -1   5    6.60    0.74   0
   3  -1   5   46.07    2.14   0
   4  -1   5   47.04    2.52   0
   5  -1   5   20.42    1.66   0
  -5   0   5    4.49    1.16   0
  -4   0   5   19.13    1.30   0
  -3   0   5    1.86    0.64   0
  -2   0   5   24.94    1.39   0
  -1   0   5   18.38    1.10   0
   0   0   5    1.23    0.55   0
   1   0   5    9.61    0.81   0
   2   0   5    2.01    0.69   0
   3   0   5  114.32    3.12   0
   4   0   5  230.40    4.98   0
   5   0   5    7.31    1.19   0
  -5   1   5   11.75    1.18   0
  -4   1   5   18.37    1.28   0
  -3   1   5    1.41    0.66   0
  -2   1   5   12.48    0.92   0
  -1   1   5   58.31    1.83   0
   0   1   5   43.86    1.61   0
   1   1   5  178.96    3.32   0
   2   1   5    1.63    0.57   0
   3   1   5    2.98    0.81   0
   4   1   5    6.38    0.90   0
  -5   2   5    7.95    1.11   0
  -4   2   5    3.84    0.99   0
  -3   2   5   63.81    2.32   0
  -2   2   5    7.63    0.83   0
  -1   2   5   25.41    1.48   0
   0   2   5   13.57    0.98   0
   1   2   5   17.94    1.11   0
   2   2   5    9.50    0.96   0
   3   2   5   33.01    2.01   0
   4   2   5   13.70    1.26   0
  -5   3   5   22.38    1.69   0
  -4   3   5   45.23    2.37   0
  -3   3   5   34.68    2.00   0
  -2   3   5   96.41    2.78   0
  -1   3   5  153.24    3.32   0
   0   3   5   18.54    1.20   0
   1   3   5   40.26    1.97   0
   2   3   5    3.74    0.79   0
   3   3   5    6.84    0.90   0
   4   3   5    1.25    0.96   0
  -4   4   5   19.81    1.50   0
  -3   4   5   60.16    2.46   0
  -2   4   5   96.51    2.98   0
  -1   4   5    4.17    0.79   0
   0   4   5   21.17    1.32   0
   1   4   5   15.35    1.19   0
   2   4   5   15.59    1.27   0
   3   4   5    9.06    1.19   0
  -4   5   5   10.42    1.24   0
  -3   5   5   75.78    3.00   0
  -2   5   5  119.06    3.54   0
  -1   5   5    2.21    0.90   0
   0   5   5    4.93    0.86   0
   1   5   5   33.98    2.05   0
   2   5   5    4.30    0.94   0
  -3   6   5   13.57    1.37   0
  -2   6   5    3.29    0.76   0
  -1   6   5   18.23    1.45   0
   0   6   5   19.56    1.49   0
   1   6   5    2.59    0.88   0
  -1  -9   6    2.99    1.01   0
   0  -9   6    2.10    0.91   0
   1  -9   6    3.38    0.93   0
  -2  -8   6    2.35    0.93   0
  -1  -8   6    2.83    0.90   0
   0  -8   6    2.17    0.95   0
   1  -8   6    2.83    0.82   0
   2  -8   6    4.40    0.83   0
  -3  -7   6    5.48    0.98   0
  -2  -7   6  159.20    4.20   0
  -1  -7   6   75.85    2.71   0
   0  -7   6    5.75    0.87   0
   1  -7   6   18.20    1.35   0
   2  -7   6   -0.73    0.73   0
   3  -7   6   -1.05    0.89   0
  -4  -6   6   26.29    1.70   0
  -3  -6   6   11.47    1.14   0
  -2  -6   6   68.55    2.62   0
  -1  -6   6   13.97    1.11   0
   0  -6   6   10.02    1.01   0
   1  -6   6    0.82    0.73   0
   2  -6   6    7.57    0.97   0
   3  -6   6    1.44    0.84   0
   4  -6   6    3.27    0.88   0
  -4  -5   6   37.65    2.22   0
  -3  -5   6   76.33    2.68   0
  -2  -5   6   56.90    2.24   0
  -1  -5   6    3.16    0.68   0
   0  -5   6   84.74    2.55   0
   1  -5   6   50.62    2.02   0
   2  -5   6    3.72    0.77   0
   3  -5   6    2.41    0.76   0
   4  -5   6    4.06    0.99   0
  -5  -4   6    7.62    1.07   0
  -4  -4   6    3.47    0.81   0
  -3  -4   6    3.62    0.84   0
  -2  -4   6   19.10    1.24   0
  -1  -4   6   62.12    2.13   0
   0  -4   6    1.78    0.63   0
   1  -4   6    6.07    0.74   0
   2  -4   6  127.63    3.33   0
   3  -4   6   54.52    2.58   0
   4  -4   6    8.96    1.09   0
  -5  -3   6    1.88    0.90   0
  -4  -3   6   15.28    1.28   0
  -3  -3   6    4.50    0.70   0
  -2  -3   6    3.67    0.75   0
  -1  -3   6  197.16    3.50   0
   0  -3   6   64.92    2.04   0
   1  -3   6    8.65    0.86   0
   2  -3   6   40.37    2.00   0
   3  -3   6    8.12    0.96   0
   4  -3   6   15.15    1.33   0
  -5  -2   6   18.03    1.49   0
  -4  -2   6    1.12    0.81   0
  -3  -2   6   10.33    0.93   0
  -2  -2   6    2.31    0.59   0
  -1  -2   6    1.06    0.57   0
   0  -2   6   40.20    1.60   0
   1  -2   6    4.90    0.70   0
   2  -2   6   13.00    1.00   0
   3  -2   6    3.43    0.75   0
   4  -2   6   72.81    2.99   0
  -5  -1   6    7.38    1.00   0
  -4  -1   6   10.25    1.03   0
  -3  -1   6   18.29    1.18   0
  -2  -1   6    0.61    0.58   0
  -1  -1   6    2.00    0.74   0
   0  -1   6    2.37    0.60   0
   1  -1   6    3.04    0.69   0
   2  -1   6   44.25    2.01   0
   3  -1   6    2.95    0.82   0
   4  -1   6    2.44    0.92   0
  -5   0   6    3.61    0.89   0
  -4   0   6   12.89    1.12   0
  -3   0   6   17.27    1.17   0
  -2   0   6  174.01    3.43   0
  -1   0   6    3.49    0.75   0
   0   0   6    3.02    0.67   0
   1   0   6    4.65    0.71   0
   2   0   6   10.10    0.92   0
   3   0   6   18.96    1.35   0
   4   0   6   23.55    1.61   0
  -5   1   6   22.71    1.57   0
  -4   1   6   49.06    2.51   0
  -3   1   6   42.99    2.13   0
  -2   1   6  106.87    2.81   0
  -1   1   6  356.33    4.84   0
   0   1   6   46.59    1.83   0
   1   1   6   30.03    1.68   0
   2   1   6   32.27    1.88   0
   3   1   6    4.35    0.85   0
   4   1   6   18.35    1.54   0
  -5   2   6    2.37    0.97   0
  -4   2   6    5.68    0.94   0
  -3   2   6   58.45    2.55   0
  -2   2   6  201.77    4.02   0
  -1   2   6   50.87    2.00   0
   0   2   6   13.09    1.03   0
   1   2   6   13.66    1.09   0
   2   2   6    5.88    0.88   0
   3   2   6    3.93    0.83   0
  -4   3   6    0.94    0.90   0
  -3   3   6   41.51    2.25   0
  -2   3   6  300.39    5.17   0
  -1   3   6  160.19    3.69   0
   0   3   6    2.42    0.76   0
   1   3   6    8.17    0.96   0
   2   3   6   44.71    2.35   0
   3   3   6    8.70    1.15   0
  -4   4   6   11.80    1.35   0
  -3   4   6   16.54    1.39   0
  -2   4   6   10.13    1.10   0
  -1   4   6    3.62    0.84   0
   0   4   6   42.54    2.26   0
   1   4   6   46.12    2.39   0
   2   4   6    4.64    1.00   0
  -3   5   6    6.07    1.04   0
  -2   5   6    0.39    0.80   0
  -1   5   6   11.48    1.15   0
   0   5   6    9.09    1.06   0
   1   5   6    9.64    1.09   0
  -1   6   6    4.26    0.97   0
   0   6   6    5.81    1.18   0
  -2  -8   7    5.99    1.21   0
  -1  -8   7   25.34    1.67   0
   0  -8   7    8.34    1.12   0
   1  -8   7    1.22    0.87   0
   2  -8   7    3.88    0.92   0
  -3  -7   7   41.34    2.37   0
  -2  -7   7   22.68    1.63   0
  -1  -7   7   16.35    1.38   0
   0  -7   7    7.06    0.97   0
   1  -7   7   14.64    1.30   0
   2  -7   7    4.60    1.09   0
   3  -7   7    4.32    1.07   0
  -3  -6   7    3.61    0.91   0
  -2  -6   7    7.01    0.96   0
  -1  -6   7    1.79    0.81   0
   0  -6   7    6.11    0.86   0
   1  -6   7    1.99    0.85   0
   2  -6   7    4.35    0.96   0
   3  -6   7   19.94    1.56   0
  -4  -5   7    2.81    0.94   0
  -3  -5   7    8.58    1.02   0
  -2  -5   7    6.89    0.97   0
  -1  -5   7    3.11    0.78   0
   0  -5   7   39.91    2.00   0
   1  -5   7   12.40    1.15   0
   2  -5   7    4.82    0.82   0
   3  -5   7   11.60    1.17   0
  -4  -4   7   20.63    1.47   0
  -3  -4   7    9.40    1.05   0
  -2  -4   7    1.90    0.71   0
  -1  -4   7    3.62    0.80   0
   0  -4   7    2.91    0.75   0
   1  -4   7   36.53    1.95   0
   2  -4   7    3.80    0.81   0
   3  -4   7    6.46    0.95   0
   4  -4   7    4.76    1.00   0
  -4  -3   7   19.24    1.42   0
  -3  -3   7   -1.37    0.82   0
  -2  -3   7    2.26    0.65   0
  -1  -3   7   14.21    1.06   0
   0  -3   7   17.32    1.14   0
   1  -3   7   25.29    1.48   0
   2  -3   7    3.80    0.77   0
   3  -3   7    3.81    0.86   0
   4  -3   7    2.41    0.95   0
  -5  -2   7   20.24    1.56   0
  -4  -2   7   13.16    1.21   0
  -3  -2   7    3.17    0.79   0
  -2  -2   7    3.24    0.76   0
  -1  -2   7   60.45    2.15   0
   0  -2   7   22.75    1.34   0
   1  -2   7   14.24    1.07   0
   2  -2   7    2.78    0.65   0
   3  -2   7    2.40    0.77   0
   4  -2   7    4.29    1.12   0
  -5  -1   7    2.29    0.84   0
  -4  -1   7   73.40    2.81   0
  -3  -1   7   39.23    2.04   0
  -2  -1   7   66.39    2.29   0
  -1  -1   7   54.80    2.01   0
   0  -1   7  300.48    4.64   0
   1  -1   7    3.67    0.69   0
   2  -1   7   12.50    1.05   0
   3  -1   7   32.85    1.92   0
   4  -1   7    2.74    0.88   0
  -5   0   7    4.76    1.04   0
  -4   0   7   19.35    1.37   0
  -3   0   7    2.95    0.72   0
  -2   0   7  169.52    3.67   0
  -1   0   7  219.23    4.02   0
   0   0   7    3.60    0.88   0
   1   0   7   36.45    1.92   0
   2   0   7    1.04    0.74   0
   3   0   7    3.62    0.87   0
   4   0   7    2.33    0.88   0
  -4   1   7    9.73    1.11   0
  -3   1   7    1.57    0.74   0
  -2   1   7  194.65    4.08   0
  -1   1   7  490.09    6.24   0
   0   1   7   88.06    2.72   0
   1   1   7    3.58    0.81   0
   2   1   7    3.34    0.73   0
   3   1   7    7.11    1.02   0
  -4   2   7    6.49    1.04   0
  -3   2   7    8.04    1.04   0
  -2   2   7   27.37    1.58   0
  -1   2   7    5.35    0.87   0
   0   2   7    8.41    0.95   0
   1   2   7   65.40    2.57   0
   2   2   7   28.18    1.81   0
   3   2   7    3.32    0.95   0
  -4   3   7    7.76    1.18   0
  -3   3   7    3.83    0.87   0
  -2   3   7   14.45    1.26   0
  -1   3   7    9.16    1.05   0
   0   3   7    0.73    0.77   0
   1   3   7   28.85    1.75   0
   2   3   7   16.38    1.45   0
  -3   4   7    4.00    0.92   0
  -2   4   7    2.76    0.91   0
  -1   4   7    1.99    0.92   0
   0   4   7    3.81    0.93   0
   1   4   7    3.93    0.86   0
  -2   5   7    7.86    1.13   0
  -1   5   7    4.79    1.00   0
   0   5   7    4.68    1.01   0
  -1  -8   8    1.20    1.03   0
   0  -8   8    0.28    1.00   0
   1  -8   8    2.38    0.97   0
  -2  -7   8    5.02    1.17   0
  -1  -7   8    3.73    1.05   0
   0  -7   8    4.18    1.03   0
   1  -7   8    2.91    0.95   0
   2  -7   8    2.12    0.88   0
  -3  -6   8    1.24    0.99   0
  -2  -6   8    0.16    0.97   0
  -1  -6   8    3.60    0.84   0
   0  -6   8    1.46    0.83   0
   1  -6   8    6.12    0.92   0
   2  -6   8    8.31    1.10   0
  -3  -5   8    9.07    1.09   0
  -2  -5   8    3.21    0.89   0
  -1  -5   8    2.61    0.86   0
   0  -5   8    9.60    1.09   0
   1  -5   8   17.69    1.33   0
   2  -5   8    7.83    1.13   0
   3  -5   8    2.73    0.83   0
  -4  -4   8    4.86    1.00   0
  -3  -4   8   10.18    1.10   0
  -2  -4   8    3.05    0.86   0
  -1  -4   8    1.78    0.68   0
   0  -4   8    4.54    0.84   0
   1  -4   8   36.36    2.16   0
   2  -4   8    4.15    0.88   0
   3  -4   8    4.05    0.93   0
  -4  -3   8    5.06    1.13   0
  -3  -3   8   77.75    2.84   0
  -2  -3   8   37.88    2.07   0
  -1  -3   8   37.64    2.06   0
   0  -3   8    2.58    0.73   0
   1  -3   8   60.28    2.36   0
   2  -3   8    3.00    0.81   0
   3  -3   8   11.44    1.18   0
  -4  -2   8    4.29    0.91   0
  -3  -2   8   37.10    2.06   0
  -2  -2   8    2.17    0.65   0
  -1  -2   8  182.78    3.94   0
   0  -2   8   69.38    2.48   0
   1  -2   8    2.08    0.86   0
   2  -2   8    8.86    1.08   0
   3  -2   8    2.40    0.79   0
  -4  -1   8    4.56    0.94   0
  -3  -1   8   14.04    1.18   0
  -2  -1   8    4.80    0.88   0
  -1  -1   8  394.95    5.79   0
   0  -1   8  291.60    5.01   0
   1  -1   8   46.86    2.30   0
   2  -1   8    2.42    0.74   0
   3  -1   8    4.39    0.89   0
  -4   0   8    2.54    0.73   0
  -3   0   8    4.84    0.86   0
  -2   0   8    2.82    0.82   0
  -1   0   8    4.55    0.82   0
   0   0   8   10.69    1.04   0
   1   0   8    2.38    0.71   0
   2   0   8   42.28    2.43   0
   3   0   8    7.45    1.15   0
  -4   1   8    4.99    1.11   0
  -3   1   8   16.44    1.30   0
  -2   1   8    1.25    0.82   0
  -1   1   8    7.17    0.96   0
   0   1   8    4.29    1.01   0
   1   1   8    1.84    0.85   0
   2   1   8   23.78    1.63   0
  -3   2   8    3.33    0.90   0
  -2   2   8    2.54    0.82   0
  -1   2   8   11.97    1.19   0
   0   2   8    1.00    0.70   0
   1   2   8    4.82    0.86   0
   2   2   8    0.91    0.91   0
  -3   3   8   10.34    1.17   0
  -2   3   8    5.39    1.07   0
  -1   3   8    3.78    1.01   0
   0   3   8    5.90    0.93   0
   1   3   8    3.52    1.17   0
  -1   4   8    4.33    1.11   0
   0   4   8    5.09    1.31   0
  -1  -7   9    4.61    0.97   0
   0  -7   9    1.02    0.89   0
   1  -7   9    1.91    1.03   0
  -2  -6   9    2.70    1.05   0
  -1  -6   9    4.03    0.96   0
   0  -6   9    3.88    0.91   0
   1  -6   9    3.65    0.97   0
   2  -6   9   14.97    1.49   0
  -3  -5   9   12.95    1.28   0
  -2  -5   9   32.66    1.85   0
  -1  -5   9   35.01    2.03   0
   0  -5   9    5.19    0.93   0
   1  -5   9    4.91    0.90   0
   2  -5   9    8.88    1.16   0
  -3  -4   9    9.63    1.12   0
  -2  -4   9   16.05    1.39   0
  -1  -4   9    6.42    0.97   0
   0  -4   9   54.09    2.66   0
   1  -4   9   13.22    1.29   0
   2  -4   9    4.35    0.91   0
  -3  -3   9    0.86    0.86   0
  -2  -3   9   16.25    1.27   0
  -1  -3   9    4.07    0.88   0
   0  -3   9  276.16    5.27   0
   1  -3   9  120.80    3.54   0
   2  -3   9   17.19    1.35   0
  -3  -2   9    6.22    1.03   0
  -2  -2   9    2.41    0.94   0
  -1  -2   9    1.96    0.74   0
   0  -2   9    2.74    0.78   0
   1  -2   9   12.35    1.21   0
   2  -2   9    4.79    0.97   0
  -3  -1   9    1.62    0.99   0
  -2  -1   9    1.94    0.71   0
  -1  -1   9    4.87    0.89   0
   0  -1   9    2.52    0.78   0
   1  -1   9    2.20    0.78   0
   2  -1   9    3.84    1.01   0
  -3   0   9   20.93    1.56   0
  -2   0   9    4.17    0.90   0
  -1   0   9    0.50    0.74   0
   0   0   9   21.94    1.44   0
   1   0   9    6.21    0.92   0
   2   0   9    1.64    0.95   0
  -3   1   9    1.92    0.92   0
  -2   1   9    6.70    1.04   0
  -1   1   9   21.30    1.44   0
   0   1   9    0.68    0.80   0
   1   1   9    2.40    0.84   0
  -2   2   9   11.23    1.26   0
  -1   2   9    6.57    1.05   0
   0   2   9    2.45    0.81   0
   1   2   9    3.96    0.95   0
  -1  -6  10    9.69    1.20   0
   0  -6  10   11.05    1.24   0
  -2  -5  10    2.11    0.85   0
  -1  -5  10   10.71    1.25   0
   0  -5  10    5.08    1.05   0
   1  -5  10   85.98    3.42   0
  -2  -4  10    3.53    1.06   0
  -1  -4  10    9.05    1.18   0
   0  -4  10    3.98    0.96   0
   1  -4  10   -0.38    0.92   0
  -2  -3  10    0.11    0.95   0
  -1  -3  10    8.07    1.08   0
   0  -3  10    3.92    0.96   0
   1  -3  10    4.98    1.00   0
  -3  -2  10    4.26    1.00   0
  -2  -2  10   17.56    1.44   0
  -1  -2  10    4.46    0.97   0
   0  -2  10    4.86    1.02   0
   1  -2  10    7.88    1.13   0
  -2  -1  10    2.92    0.84   0
  -1  -1  10    2.23    0.79   0
   0  -1  10    9.08    1.13   0
   1  -1  10    3.55    0.91   0
  -2   0  10   32.58    1.96   0
  -1   0  10    4.84    0.92   0
   0   0  10    3.39    1.00   0
  -1   1  10   -1.28    0.90   0
   0   0   0    0.00    0.00   0
;
_shelx_hkl_checksum              48822
_shelx_res_file
;
TITL MP_93_1
CELL  0.71073  5.19390  8.06970  9.14820 106.81900 96.07700 92.80400
ZERR 1  0.00109  0.00171  0.00147  0.01930  0.01830  0.01800
LATT 1
SFAC C H N O
UNIT 16 10 6 2
ACTA
CONF
SIZE 0.722 0.304 0.304
BOND $H
PLAN 30
FMAP 2
L.S. 9
HTAB
EQIV $1 X-1, Y, Z
HTAB N2 O1_$1
HTAB N2 N1
EQIV $2 X-1, Y-1, Z-1
HTAB C2 N3_$2
EQIV $3 -X+2, -Y+1, -Z
HTAB C4 O1_$3
WGHT    0.045100    0.144300
EXTI    0.063305
FVAR       1.25836
O1    4    0.896923    0.471555    0.215778    11.00000    0.04496    0.09103 =
         0.04885    0.00029    0.01335   -0.02136
N1    3    0.349460    0.189338    0.013684    11.00000    0.03811    0.04774 =
         0.04954    0.01101    0.00723   -0.00207
N2    3    0.511325    0.411848    0.291034    11.00000    0.03594    0.05348 =
         0.03697    0.00591    0.00767   -0.00978
H2N   2    0.358921    0.359720    0.255167    11.00000    0.06903
N3    3    0.925881    0.762774    0.538354    11.00000    0.06637    0.07394 =
         0.06448    0.00640    0.00501   -0.03207
C1    1    0.263232    0.082885   -0.125382    11.00000    0.04294    0.05141 =
         0.05486    0.00773   -0.00325   -0.00347
AFIX  43
H1    2    0.109389    0.013749   -0.137083    11.00000   -1.20000
AFIX   0
C2    1    0.388887    0.069110   -0.253307    11.00000    0.06146    0.05572 =
         0.04413    0.00272   -0.00428    0.00143
AFIX  43
H2    2    0.320977   -0.007483   -0.348329    11.00000   -1.20000
AFIX   0
C3    1    0.615362    0.170192   -0.237924    11.00000    0.06382    0.06736 =
         0.03871    0.01087    0.01197    0.00329
AFIX  43
H3    2    0.702957    0.164407   -0.322593    11.00000   -1.20000
AFIX   0
C4    1    0.711452    0.280697   -0.094868    11.00000    0.04565    0.05467 =
         0.04539    0.01097    0.01097   -0.00265
AFIX  43
H4    2    0.865208    0.350647   -0.080734    11.00000   -1.20000
AFIX   0
C5    1    0.573691    0.284777    0.026619    11.00000    0.03910    0.04226 =
         0.03873    0.00931    0.00714    0.00253
C6    1    0.679131    0.398560    0.183749    11.00000    0.03828    0.04988 =
         0.04371    0.01274    0.00968   -0.00270
C7    1    0.567764    0.511936    0.444199    11.00000    0.03347    0.04364 =
         0.03941    0.00940    0.00707   -0.00503
C8    1    0.773828    0.648993    0.487372    11.00000    0.04256    0.05633 =
         0.03908    0.00934    0.00820   -0.00942
HKLF 4
REM  MP_93_1
REM R1 =  0.0728 for    1196 Fo > 4sig(Fo)  and  0.0781 for all    1281 data
REM    114 parameters refined using      0 restraints
END
WGHT      0.0451      0.1443
REM Instructions for potential hydrogen bonds
HTAB N2 N1
HTAB C2 N3_$2
HTAB C4 O1_$3
REM Highest difference peak  0.170,  deepest hole -0.169,  1-sigma level  0.037
Q1    1   0.5854  0.3775  0.0824  11.00000  0.05    0.17
Q2    1   0.5886  0.4283  0.4987  11.00000  0.05    0.16
Q3    1   0.7710  0.5495  0.1799  11.00000  0.05    0.15
Q4    1   0.6996  0.2447 -0.0019  11.00000  0.05    0.15
Q5    1   0.5546  0.3206 -0.0488  11.00000  0.05    0.15
Q6    1   0.6570  0.2923  0.1271  11.00000  0.05    0.15
Q7    1   0.2313  0.1413 -0.2117  11.00000  0.05    0.12
Q8    1   0.3250  0.3038  0.0462  11.00000  0.05    0.12
Q9    1   0.4915  0.5144  0.2365  11.00000  0.05    0.12
Q10   1   0.4149  0.2793  0.2760  11.00000  0.05    0.12
Q11   1   0.5856  0.4034  0.3764  11.00000  0.05    0.11
Q12   1   0.4582  0.2536  0.0251  11.00000  0.05    0.11
Q13   1   1.0039  0.8425  0.6375  11.00000  0.05    0.11
Q14   1   0.3762  0.1856  0.1124  11.00000  0.05    0.10
Q15   1   0.2177  0.2503  0.0814  11.00000  0.05    0.10
Q16   1   0.4226 -0.0754 -0.3529  11.00000  0.05    0.10
Q17   1   1.0005  0.4500  0.3336  11.00000  0.05    0.10
Q18   1   0.5918  0.0590 -0.2432  11.00000  0.05    0.10
Q19   1   0.2900  0.0550 -0.3804  11.00000  0.05    0.10
Q20   1   0.2634  0.1959 -0.0560  11.00000  0.05    0.10
Q21   1   0.1502 -0.0389 -0.3247  11.00000  0.05    0.10
Q22   1   0.9679  0.8989  0.6206  11.00000  0.05    0.10
Q23   1   0.9499  0.5226  0.3238  11.00000  0.05    0.09
Q24   1   0.9525  0.6442  0.4880  11.00000  0.05    0.09
Q25   1   1.1122  0.7839  0.5645  11.00000  0.05    0.09
Q26   1   0.3895  0.0662  0.0587  11.00000  0.05    0.09
Q27   1   0.6297  0.3476  0.2468  11.00000  0.05    0.09
Q28   1   0.8421  0.4776  0.1030  11.00000  0.05    0.09
Q29   1   0.7093  0.1579 -0.1524  11.00000  0.05    0.09
Q30   1   0.4398 -0.0566 -0.4568  11.00000  0.05    0.08
;
_shelx_res_checksum              92816
_shelxl_version_number           2014/6
loop_
_space_group_symop_operation_xyz
'x, y, z'
'-x, -y, -z'
loop_
_atom_site_type_symbol
_atom_site_label
_atom_site_fract_x
_atom_site_fract_y
_atom_site_fract_z
_atom_site_U_iso_or_equiv
_atom_site_adp_type
_atom_site_calc_flag
_atom_site_occupancy
O O1 0.8969(4) 0.4716(3) 0.2158(2) 0.0663(7) Uani d 1
N N1 0.3495(4) 0.1893(3) 0.0137(3) 0.0459(6) Uani d 1
N N2 0.5113(4) 0.4118(3) 0.2910(3) 0.0440(6) Uani d 1
H H2N 0.359(7) 0.360(4) 0.255(4) 0.069(10) Uiso d 1
N N3 0.9259(6) 0.7628(4) 0.5384(3) 0.0728(9) Uani d 1
C C1 0.2632(5) 0.0829(4) -0.1254(3) 0.0524(8) Uani d 1
H H1 0.1094 0.0137 -0.1371 0.063 Uiso calc 1
C C2 0.3889(6) 0.0691(4) -0.2533(3) 0.0573(8) Uani d 1
H H2 0.3210 -0.0075 -0.3483 0.069 Uiso calc 1
C C3 0.6154(6) 0.1702(4) -0.2379(3) 0.0573(8) Uani d 1
H H3 0.7030 0.1644 -0.3226 0.069 Uiso calc 1
C C4 0.7115(6) 0.2807(4) -0.0949(3) 0.0492(7) Uani d 1
H H4 0.8652 0.3506 -0.0807 0.059 Uiso calc 1
C C5 0.5737(5) 0.2848(3) 0.0266(3) 0.0405(6) Uani d 1
C C6 0.6791(5) 0.3986(4) 0.1837(3) 0.0441(7) Uani d 1
C C7 0.5678(5) 0.5119(3) 0.4442(3) 0.0396(6) Uani d 1
C C8 0.7738(5) 0.6490(4) 0.4874(3) 0.0473(7) Uani d 1
loop_
_atom_site_aniso_label
_atom_site_aniso_U_11
_atom_site_aniso_U_22
_atom_site_aniso_U_33
_atom_site_aniso_U_12
_atom_site_aniso_U_13
_atom_site_aniso_U_23
O1 0.0450(12) 0.0910(17) 0.0489(13) -0.0214(11) 0.0134(9) 0.0003(11)
N1 0.0381(12) 0.0477(13) 0.0495(14) -0.0021(10) 0.0072(10) 0.0110(11)
N2 0.0359(12) 0.0535(14) 0.0370(13) -0.0098(10) 0.0077(10) 0.0059(10)
N3 0.0664(18) 0.0739(19) 0.0645(18) -0.0321(16) 0.0050(14) 0.0064(15)
C1 0.0429(16) 0.0514(17) 0.0549(19) -0.0035(13) -0.0033(13) 0.0077(14)
C2 0.0615(19) 0.0557(18) 0.0441(17) 0.0014(15) -0.0043(14) 0.0027(14)
C3 0.0638(19) 0.067(2) 0.0387(16) 0.0033(16) 0.0120(14) 0.0109(14)
C4 0.0456(16) 0.0547(17) 0.0454(17) -0.0026(13) 0.0110(12) 0.0110(13)
C5 0.0391(14) 0.0423(14) 0.0387(15) 0.0025(11) 0.0071(11) 0.0093(11)
C6 0.0383(14) 0.0499(16) 0.0437(16) -0.0027(12) 0.0097(12) 0.0127(12)
C7 0.0335(13) 0.0436(15) 0.0394(15) -0.0050(11) 0.0071(10) 0.0094(11)
C8 0.0426(15) 0.0563(17) 0.0391(15) -0.0094(13) 0.0082(12) 0.0093(13)
loop_
_atom_type_symbol
_atom_type_description
_atom_type_scat_dispersion_real
_atom_type_scat_dispersion_imag
_atom_type_scat_source
C C 0.0033 0.0016 'International Tables Vol C Tables 4.2.6.8 and 6.1.1.4'
H H 0.0000 0.0000 'International Tables Vol C Tables 4.2.6.8 and 6.1.1.4'
N N 0.0061 0.0033 'International Tables Vol C Tables 4.2.6.8 and 6.1.1.4'
O O 0.0106 0.0060 'International Tables Vol C Tables 4.2.6.8 and 6.1.1.4'
loop_
_geom_angle_atom_site_label_1
_geom_angle_atom_site_label_2
_geom_angle_atom_site_label_3
_geom_angle_site_symmetry_1
_geom_angle
C1 N1 C5 . 116.4(2)
C6 N2 C7 . 124.1(2)
C6 N2 H2N . 115(2)
C7 N2 H2N . 121(2)
N1 C1 C2 . 123.7(3)
N1 C1 H1 . 118.1
C2 C1 H1 . 118.1
C3 C2 C1 . 118.8(3)
C3 C2 H2 . 120.6
C1 C2 H2 . 120.6
C2 C3 C4 . 118.9(3)
C2 C3 H3 . 120.5
C4 C3 H3 . 120.5
C5 C4 C3 . 118.2(3)
C5 C4 H4 . 120.9
C3 C4 H4 . 120.9
N1 C5 C4 . 123.9(3)
N1 C5 C6 . 116.9(2)
C4 C5 C6 . 119.2(2)
O1 C6 N2 . 122.1(3)
O1 C6 C5 . 123.5(2)
N2 C6 C5 . 114.3(2)
C7 C7 N2 2_666 122.5(3)
C7 C7 C8 2_666 117.8(3)
N2 C7 C8 . 119.7(2)
N3 C8 C7 . 171.7(3)
loop_
_geom_bond_atom_site_label_1
_geom_bond_atom_site_label_2
_geom_bond_site_symmetry_2
_geom_bond_distance
O1 C6 . 1.215(3)
N1 C1 . 1.329(3)
N1 C5 . 1.339(3)
N2 C6 . 1.365(3)
N2 C7 . 1.392(3)
N2 H2N . 0.86(3)
N3 C8 . 1.135(4)
C1 C2 . 1.379(4)
C1 H1 . 0.9300
C2 C3 . 1.369(4)
C2 H2 . 0.9300
C3 C4 . 1.378(4)
C3 H3 . 0.9300
C4 C5 . 1.378(4)
C4 H4 . 0.9300
C5 C6 . 1.493(4)
C7 C7 2_666 1.352(5)
C7 C8 . 1.438(4)
loop_
_geom_hbond_atom_site_label_D
_geom_hbond_atom_site_label_H
_geom_hbond_atom_site_label_A
_geom_hbond_site_symmetry_A
_geom_hbond_distance_DH
_geom_hbond_distance_HA
_geom_hbond_distance_DA
_geom_hbond_angle_DHA
N2 H2N N1 . 0.86(3) 2.23(3) 2.671(3) 111(3)
C2 H2 N3 1_444 0.93 2.61 3.354(4) 138
C4 H4 O1 2_765 0.93 2.51 3.274(4) 140
loop_
_geom_torsion_atom_site_label_1
_geom_torsion_atom_site_label_2
_geom_torsion_atom_site_label_3
_geom_torsion_atom_site_label_4
_geom_torsion_site_symmetry_4
_geom_torsion
C5 N1 C1 C2 . -1.0(4)
N1 C1 C2 C3 . -0.1(5)
C1 C2 C3 C4 . 0.7(5)
C2 C3 C4 C5 . -0.2(4)
C1 N1 C5 C4 . 1.6(4)
C1 N1 C5 C6 . -177.1(2)
C3 C4 C5 N1 . -1.0(4)
C3 C4 C5 C6 . 177.7(3)
C7 N2 C6 O1 . 1.8(5)
C7 N2 C6 C5 . -179.4(2)
N1 C5 C6 O1 . 168.8(3)
C4 C5 C6 O1 . -10.0(4)
N1 C5 C6 N2 . -10.0(4)
C4 C5 C6 N2 . 171.2(3)
C6 N2 C7 C7 2_666 -161.8(3)
C6 N2 C7 C8 . 19.5(4)

_cod_database_fobs_code 1544192
