#------------------------------------------------------------------------------
#$Date: 2017-04-22 05:22:27 +0300 (Sat, 22 Apr 2017) $
#$Revision: 195684 $
#$URL: file:///home/coder/svn-repositories/cod/cif/1/54/57/1545787.cif $
#------------------------------------------------------------------------------
#
# This file is available in the Crystallography Open Database (COD),
# http://www.crystallography.net/
#
# All data on this site have been placed in the public domain by the
# contributors.
#
data_1545787
loop_
_publ_author_name
'Pramanik, Titas'
'Srinivas, Pavan Mysore'
'Tayur, Guru Row N.'
_publ_section_title
;
 FDHALO17: Do halogen bonds dictate the packing preferences in solid
 solutions?
;
_journal_name_full               'Faraday Discuss.'
_journal_paper_doi               10.1039/C7FD00084G
_journal_year                    2017
_chemical_formula_moiety         'C7 H4 Br Cl O2'
_chemical_formula_sum            'C7 H4 Br Cl O2'
_chemical_formula_weight         235.46
_chemical_name_common            '2-Bromo-4chlorobenzoic acid'
_chemical_name_systematic        '2-Bromo-4chlorobenzoic acid'
_space_group_crystal_system      triclinic
_space_group_IT_number           2
_space_group_name_Hall           '-P 1'
_space_group_name_H-M_alt        'P -1'
_symmetry_space_group_name_Hall  '-P 1'
_symmetry_space_group_name_H-M   'P -1'
_atom_sites_solution_hydrogens   geom
_audit_creation_method           SHELXL-2014/7
_audit_update_record
;
2017-02-27 deposited with the CCDC.
2017-04-21 downloaded from the CCDC.
;
_cell_angle_alpha                89.014(3)
_cell_angle_beta                 89.991(5)
_cell_angle_gamma                78.651(5)
_cell_formula_units_Z            2
_cell_length_a                   3.8949(3)
_cell_length_b                   8.2939(3)
_cell_length_c                   11.8408(5)
_cell_measurement_reflns_used    2975
_cell_measurement_temperature    100(2)
_cell_measurement_theta_max      29.9600
_cell_measurement_theta_min      3.0500
_cell_volume                     374.97(4)
_computing_structure_refinement  'SHELXL-2014/7 (Sheldrick, 2014)'
_diffrn_ambient_temperature      100(2)
_diffrn_measured_fraction_theta_full 0.999
_diffrn_measured_fraction_theta_max 0.886
_diffrn_measurement_device_type  'Xcalibur, Eos, Nova'
_diffrn_radiation_type           MoK\a
_diffrn_radiation_wavelength     0.71073
_diffrn_reflns_av_R_equivalents  0.0452
_diffrn_reflns_av_unetI/netI     0.0508
_diffrn_reflns_Laue_measured_fraction_full 0.999
_diffrn_reflns_Laue_measured_fraction_max 0.886
_diffrn_reflns_limit_h_max       5
_diffrn_reflns_limit_h_min       -5
_diffrn_reflns_limit_k_max       11
_diffrn_reflns_limit_k_min       -11
_diffrn_reflns_limit_l_max       15
_diffrn_reflns_limit_l_min       -16
_diffrn_reflns_number            5698
_diffrn_reflns_point_group_measured_fraction_full 0.999
_diffrn_reflns_point_group_measured_fraction_max 0.886
_diffrn_reflns_theta_full        25.242
_diffrn_reflns_theta_max         30.382
_diffrn_reflns_theta_min         2.505
_exptl_absorpt_coefficient_mu    5.774
_exptl_crystal_colour            colourless
_exptl_crystal_density_diffrn    2.085
_exptl_crystal_description       Needle
_exptl_crystal_F_000             228
_refine_diff_density_max         0.629
_refine_diff_density_min         -0.592
_refine_diff_density_rms         0.131
_refine_ls_extinction_method     none
_refine_ls_goodness_of_fit_ref   1.121
_refine_ls_hydrogen_treatment    constr
_refine_ls_matrix_type           full
_refine_ls_number_parameters     100
_refine_ls_number_reflns         2009
_refine_ls_number_restraints     0
_refine_ls_restrained_S_all      1.121
_refine_ls_R_factor_all          0.0394
_refine_ls_R_factor_gt           0.0340
_refine_ls_shift/su_max          0.001
_refine_ls_shift/su_mean         0.000
_refine_ls_structure_factor_coef Fsqd
_refine_ls_weighting_details
'w=1/[\s^2^(Fo^2^)+(0.0249P)^2^+0.4110P] where P=(Fo^2^+2Fc^2^)/3'
_refine_ls_weighting_scheme      calc
_refine_ls_wR_factor_gt          0.0757
_refine_ls_wR_factor_ref         0.0804
_reflns_Friedel_coverage         0.000
_reflns_number_gt                1827
_reflns_number_total             2009
_reflns_threshold_expression     'I > 2\s(I)'
_cod_data_source_file            c7fd00084g2.cif
_cod_data_source_block           shelx
_cod_database_code               1545787
_shelx_shelxl_version_number     2014/7
_shelx_space_group_comment
;
The symmetry employed for this shelxl refinement is uniquely defined
by the following loop, which should always be used as a source of
symmetry information in preference to the above space-group names.
They are only intended as comments.
;
_shelx_res_file
;

    shelx.res created by SHELXL-2014/7

TITL red in P1
CELL  0.71073   3.8949   8.2939  11.8408   89.014   89.991   78.651
ZERR     2.00   0.0003   0.0003   0.0005    0.003    0.005    0.005
LATT   1
SFAC  C    H    O    CL   BR
UNIT  14 8 4 2 2
MERG   2
FMAP   2
PLAN   20
ACTA
L.S.  10
WGHT    0.024900    0.411000
FVAR       5.65030
BR1   5    0.580489    0.917572    0.334291    11.00000    0.02357    0.01180 =
         0.02241    0.00198   -0.00454   -0.00361
CL2   4    0.838292    0.258811    0.406881    11.00000    0.02590    0.01198 =
         0.02266    0.00424   -0.00607   -0.00257
O2    3    0.254061    0.964400    0.108304    11.00000    0.03625    0.01871 =
         0.02581    0.00724   -0.01008   -0.00812
O1    3    0.021511    0.778110    0.017967    11.00000    0.03429    0.01816 =
         0.02078    0.00681   -0.00792   -0.00463
AFIX  83
H1    2   -0.055204    0.857990   -0.022805    11.00000   -1.50000
AFIX   0
C3    1    0.525915    0.710956    0.281282    11.00000    0.01900    0.01083 =
         0.02010    0.00051    0.00255   -0.00457
C4    1    0.665543    0.578549    0.351666    11.00000    0.01850    0.01684 =
         0.01671   -0.00009   -0.00143   -0.00247
AFIX  43
H4    2    0.770814    0.595504    0.419771    11.00000   -1.20000
AFIX   0
C5    1    0.645962    0.420393    0.319035    11.00000    0.01853    0.01571 =
         0.01919    0.00479    0.00379   -0.00065
C2    1    0.361115    0.686280    0.178793    11.00000    0.01694    0.01639 =
         0.01598    0.00447    0.00124   -0.00148
C1    1    0.209709    0.822899    0.100055    11.00000    0.01889    0.01977 =
         0.01663    0.00250    0.00133   -0.00238
C6    1    0.489222    0.390964    0.218197    11.00000    0.02331    0.01185 =
         0.01889    0.00053   -0.00083   -0.00246
AFIX  43
H6    2    0.480672    0.284418    0.196892    11.00000   -1.20000
AFIX   0
C7    1    0.345460    0.525333    0.150008    11.00000    0.01991    0.01849 =
         0.01670    0.00095   -0.00059   -0.00538
AFIX  43
H7    2    0.235212    0.507473    0.083008    11.00000   -1.20000
AFIX   0
HKLF    4

REM  red in P1
REM R1 =  0.0340 for    1827 Fo > 4sig(Fo)  and  0.0394 for all    2009 data
REM    100 parameters refined using      0 restraints

END

WGHT      0.0247      0.4123

REM Highest difference peak  0.629,  deepest hole -0.592,  1-sigma level  0.131
Q1    1   0.3009  0.9658  0.2948  11.00000  0.05    0.63
Q2    1   0.8798  0.9115  0.3174  11.00000  0.05    0.62
Q3    1   0.8494  0.8438  0.3808  11.00000  0.05    0.58
Q4    1   0.7505  0.8948  0.2745  11.00000  0.05    0.56
Q5    1   0.3205  0.7391  0.1434  11.00000  0.05    0.55
Q6    1   0.4425  0.9422  0.3998  11.00000  0.05    0.53
Q7    1   0.5016  0.2793  0.4195  11.00000  0.05    0.53
Q8    1   0.2813  0.9155  0.3594  11.00000  0.05    0.53
Q9    1   0.4023  1.0600  0.3028  11.00000  0.05    0.52
Q10   1   0.7058  0.9992  0.2780  11.00000  0.05    0.52
Q11   1   0.7182  0.7769  0.3231  11.00000  0.05    0.51
Q12   1   0.7704  0.1254  0.3649  11.00000  0.05    0.49
Q13   1   0.6404  0.4128  0.2650  11.00000  0.05    0.47
Q14   1   0.1126  0.6167  0.0782  11.00000  0.05    0.45
Q15   1   0.5096  0.8377  0.4172  11.00000  0.05    0.45
Q16   1   0.4015  0.9542  0.4923  11.00000  0.05    0.44
Q17   1   0.2806  0.9844  0.1444  11.00000  0.05    0.44
Q18   1   0.5601  0.2266  0.4367  11.00000  0.05    0.43
Q19   1   0.6372  1.0381  0.3856  11.00000  0.05    0.41
Q20   1   0.1005  0.9586  0.1174  11.00000  0.05    0.40
;
_shelx_res_checksum              30259
loop_
_space_group_symop_operation_xyz
'x, y, z'
'-x, -y, -z'
loop_
_atom_site_label
_atom_site_type_symbol
_atom_site_fract_x
_atom_site_fract_y
_atom_site_fract_z
_atom_site_U_iso_or_equiv
_atom_site_adp_type
_atom_site_occupancy
_atom_site_site_symmetry_order
_atom_site_calc_flag
_atom_site_refinement_flags_posn
_atom_site_refinement_flags_adp
Br1 Br 0.58049(8) 0.91757(4) 0.33429(3) 0.01927(11) Uani 1 1 d . .
Cl2 Cl 0.8383(2) 0.25881(9) 0.40688(7) 0.02039(18) Uani 1 1 d . .
O2 O 0.2541(7) 0.9644(3) 0.1083(2) 0.0266(6) Uani 1 1 d . .
O1 O 0.0215(7) 0.7781(3) 0.0180(2) 0.0246(5) Uani 1 1 d . .
H1 H -0.0552 0.8580 -0.0228 0.037 Uiso 1 1 calc R U
C3 C 0.5259(8) 0.7110(4) 0.2813(3) 0.0164(6) Uani 1 1 d . .
C4 C 0.6655(8) 0.5785(4) 0.3517(3) 0.0175(6) Uani 1 1 d . .
H4 H 0.7708 0.5955 0.4198 0.021 Uiso 1 1 calc R U
C5 C 0.6460(8) 0.4204(4) 0.3190(3) 0.0182(6) Uani 1 1 d . .
C2 C 0.3611(8) 0.6863(4) 0.1788(3) 0.0167(6) Uani 1 1 d . .
C1 C 0.2097(8) 0.8229(4) 0.1001(3) 0.0187(7) Uani 1 1 d . .
C6 C 0.4892(9) 0.3910(4) 0.2182(3) 0.0182(6) Uani 1 1 d . .
H6 H 0.4807 0.2844 0.1969 0.022 Uiso 1 1 calc R U
C7 C 0.3455(8) 0.5253(4) 0.1500(3) 0.0182(6) Uani 1 1 d . .
H7 H 0.2352 0.5075 0.0830 0.022 Uiso 1 1 calc R U
loop_
_atom_site_aniso_label
_atom_site_aniso_U_11
_atom_site_aniso_U_22
_atom_site_aniso_U_33
_atom_site_aniso_U_23
_atom_site_aniso_U_13
_atom_site_aniso_U_12
Br1 0.02357(18) 0.01180(16) 0.02241(19) 0.00198(12) -0.00454(13) -0.00361(12)
Cl2 0.0259(4) 0.0120(3) 0.0227(4) 0.0042(3) -0.0061(3) -0.0026(3)
O2 0.0363(14) 0.0187(12) 0.0258(13) 0.0072(10) -0.0101(11) -0.0081(10)
O1 0.0343(14) 0.0182(12) 0.0208(13) 0.0068(9) -0.0079(11) -0.0046(10)
C3 0.0190(15) 0.0108(13) 0.0201(16) 0.0005(12) 0.0026(13) -0.0046(11)
C4 0.0185(15) 0.0168(15) 0.0167(16) -0.0001(12) -0.0014(12) -0.0025(12)
C5 0.0185(15) 0.0157(15) 0.0192(16) 0.0048(12) 0.0038(13) -0.0007(12)
C2 0.0169(14) 0.0164(14) 0.0160(16) 0.0045(12) 0.0012(12) -0.0015(12)
C1 0.0189(15) 0.0198(15) 0.0166(16) 0.0025(12) 0.0013(13) -0.0024(12)
C6 0.0233(16) 0.0118(14) 0.0189(16) 0.0005(12) -0.0008(13) -0.0025(12)
C7 0.0199(15) 0.0185(15) 0.0167(16) 0.0009(12) -0.0006(13) -0.0054(12)
loop_
_atom_type_symbol
_atom_type_description
_atom_type_scat_dispersion_real
_atom_type_scat_dispersion_imag
_atom_type_scat_source
C C 0.0033 0.0016 'International Tables Vol C Tables 4.2.6.8 and 6.1.1.4'
H H 0.0000 0.0000 'International Tables Vol C Tables 4.2.6.8 and 6.1.1.4'
O O 0.0106 0.0060 'International Tables Vol C Tables 4.2.6.8 and 6.1.1.4'
Cl Cl 0.1484 0.1585 'International Tables Vol C Tables 4.2.6.8 and 6.1.1.4'
Br Br -0.2901 2.4595 'International Tables Vol C Tables 4.2.6.8 and 6.1.1.4'
loop_
_geom_angle_atom_site_label_1
_geom_angle_atom_site_label_2
_geom_angle_atom_site_label_3
_geom_angle
C4 C3 C2 120.7(3)
C4 C3 Br1 114.7(2)
C2 C3 Br1 124.7(2)
C3 C4 C5 119.2(3)
C6 C5 C4 121.8(3)
C6 C5 Cl2 120.6(2)
C4 C5 Cl2 117.5(3)
C7 C2 C3 118.1(3)
C7 C2 C1 118.9(3)
C3 C2 C1 123.0(3)
O2 C1 O1 122.1(3)
O2 C1 C2 124.2(3)
O1 C1 C2 113.6(3)
C5 C6 C7 118.1(3)
C6 C7 C2 122.2(3)
loop_
_geom_bond_atom_site_label_1
_geom_bond_atom_site_label_2
_geom_bond_distance
Br1 C3 1.886(3)
Cl2 C5 1.731(3)
O2 C1 1.225(4)
O1 C1 1.319(4)
C3 C4 1.389(4)
C3 C2 1.410(4)
C4 C5 1.390(4)
C5 C6 1.388(5)
C2 C7 1.396(4)
C2 C1 1.484(4)
C6 C7 1.390(4)
