#------------------------------------------------------------------------------
#$Date: 2017-04-04 16:24:38 +0300 (Tue, 04 Apr 2017) $
#$Revision: 194863 $
#$URL: file:///home/coder/svn-repositories/cod/cif/1/54/53/1545319.cif $
#------------------------------------------------------------------------------
#
# This file is available in the Crystallography Open Database (COD),
# http://www.crystallography.net/
#
# All data on this site have been placed in the public domain by the
# contributors.
#
data_1545319
loop_
_publ_author_name
'Elbaz, Giselle A.'
'Straus, Daniel B.'
'Semonin, Octavi E.'
'Hull, Trevor D.'
'Paley, Daniel W.'
'Kim, Philip'
'Owen, Jonathan S.'
'Kagan, Cherie R.'
'Roy, Xavier'
_publ_section_title
;
 Unbalanced Hole and Electron Diffusion in Lead Bromide Perovskites.
;
_journal_issue                   3
_journal_name_full               'Nano letters'
_journal_page_first              1727
_journal_page_last               1732
_journal_paper_doi               10.1021/acs.nanolett.6b05022
_journal_volume                  17
_journal_year                    2017
_chemical_formula_moiety         'Br3 Pb, C2 H5 N'
_chemical_formula_sum            'C H5 Br3 N2 Pb'
_chemical_formula_weight         491.99
_space_group_crystal_system      cubic
_space_group_IT_number           221
_space_group_name_Hall           '-P 4 2 3'
_space_group_name_H-M_alt        'P m -3 m'
_symmetry_space_group_name_Hall  '-P 4 2 3'
_symmetry_space_group_name_H-M   'P m -3 m'
_atom_sites_solution_hydrogens   geom
_audit_creation_date             2016-11-16
_audit_creation_method
;
Olex2 1.2
(compiled 2016.11.07 svn.r3353 for OlexSys, GUI svn.r5261)
;
_cell_angle_alpha                90
_cell_angle_beta                 90
_cell_angle_gamma                90
_cell_formula_units_Z            1
_cell_length_a                   5.96976(19)
_cell_length_b                   5.96976(19)
_cell_length_c                   5.96976(19)
_cell_measurement_reflns_used    941
_cell_measurement_temperature    300.3(4)
_cell_measurement_theta_max      25.5790
_cell_measurement_theta_min      4.7900
_cell_volume                     212.751(12)
_computing_cell_refinement       'CrysAlisPro 1.171.38.41 (Rigaku OD, 2015)'
_computing_data_collection       'CrysAlisPro 1.171.38.41 (Rigaku OD, 2015)'
_computing_data_reduction        'CrysAlisPro 1.171.38.41 (Rigaku OD, 2015)'
_computing_molecular_graphics    'Olex2 (Dolomanov et al., 2009)'
_computing_publication_material  'Olex2 (Dolomanov et al., 2009)'
_computing_structure_refinement  'SHELXL-2014/7 (Sheldrick, 2014)'
_diffrn_ambient_environment      air
_diffrn_ambient_temperature      300
_diffrn_detector                 'CCD plate'
_diffrn_detector_area_resol_mean 8.0549
_diffrn_detector_type            EosS2
_diffrn_measured_fraction_theta_full 1.000
_diffrn_measured_fraction_theta_max 0.967
_diffrn_measurement_details
;
List of Runs (angles in degrees, time in seconds):

  # Type    Start    End  Width  t~exp~   \w     \q     \k     \f   Frames
--------------------------------------------------------------------------
  1  \w      5.00  30.00   1.00    3.00    --   17.19  57.00  90.00   25
  2  \w     63.00  89.00   1.00    3.00    --   17.19 178.00   0.00   26
  3  \w    -10.00  84.00   1.00    3.00    --   17.19  77.00-150.00   94
  4  \w      5.00  56.00   1.00    3.00    --   17.19 -99.00   0.00   51
  5  \w    -43.00  42.00   1.00    3.00    --   17.19 -19.00 -90.00   85
  6  \w    -49.00  44.00   1.00    3.00    --   17.19 -77.00  90.00   93
;
_diffrn_measurement_device       'four-circle diffractometer'
_diffrn_measurement_device_type  'SuperNova, Dual, Cu at zero, EosS2'
_diffrn_measurement_method       '\w scans'
_diffrn_orient_matrix_type
'CrysAlisPro convention (1999,Acta A55,543-557)'
_diffrn_orient_matrix_UB_11      -0.1165584000
_diffrn_orient_matrix_UB_12      0.0084147000
_diffrn_orient_matrix_UB_13      0.0215552000
_diffrn_orient_matrix_UB_21      -0.0232651000
_diffrn_orient_matrix_UB_22      -0.0381252000
_diffrn_orient_matrix_UB_23      -0.1101123000
_diffrn_orient_matrix_UB_31      -0.0012562000
_diffrn_orient_matrix_UB_32      -0.1122434000
_diffrn_orient_matrix_UB_33      0.0387992000
_diffrn_radiation_monochromator  mirror
_diffrn_radiation_probe          x-ray
_diffrn_radiation_type           MoK\a
_diffrn_radiation_wavelength     0.71073
_diffrn_reflns_av_R_equivalents  0.0901
_diffrn_reflns_av_unetI/netI     0.0247
_diffrn_reflns_Laue_measured_fraction_full 1.000
_diffrn_reflns_Laue_measured_fraction_max 0.967
_diffrn_reflns_limit_h_max       7
_diffrn_reflns_limit_h_min       -8
_diffrn_reflns_limit_k_max       7
_diffrn_reflns_limit_k_min       -7
_diffrn_reflns_limit_l_max       7
_diffrn_reflns_limit_l_min       -8
_diffrn_reflns_number            1800
_diffrn_reflns_point_group_measured_fraction_full 1.000
_diffrn_reflns_point_group_measured_fraction_max 0.967
_diffrn_reflns_theta_full        26.000
_diffrn_reflns_theta_max         29.635
_diffrn_reflns_theta_min         3.413
_diffrn_source_type              'SuperNova (Mo) X-ray Source'
_exptl_absorpt_coefficient_mu    33.821
_exptl_absorpt_correction_T_max  0.125
_exptl_absorpt_correction_T_min  0.050
_exptl_absorpt_correction_type   gaussian
_exptl_absorpt_process_details
;
CrysAlisPro 1.171.38.41 (Rigaku Oxford Diffraction, 2015)
Numerical absorption correction based on gaussian integration over
            a multifaceted crystal model
Spherical absorption correction
 using equivalent radius and absorption coefficient.
Empirical absorption correction using spherical harmonics,
 implemented in SCALE3 ABSPACK scaling algorithm.
;
_exptl_crystal_colour            orange
_exptl_crystal_colour_primary    orange
_exptl_crystal_density_diffrn    3.840
_exptl_crystal_description       block
_exptl_crystal_F_000             212
_exptl_crystal_size_max          0.188
_exptl_crystal_size_mid          0.136
_exptl_crystal_size_min          0.116
_refine_diff_density_max         0.918
_refine_diff_density_min         -0.850
_refine_diff_density_rms         0.149
_refine_ls_extinction_coef       0.0148(16)
_refine_ls_extinction_expression Fc^*^=kFc[1+0.001xFc^2^\l^3^/sin(2\q)]^-1/4^
_refine_ls_extinction_method     'SHELXL-2014/7 (Sheldrick 2014'
_refine_ls_goodness_of_fit_ref   1.265
_refine_ls_hydrogen_treatment    constr
_refine_ls_matrix_type           full
_refine_ls_number_parameters     12
_refine_ls_number_reflns         87
_refine_ls_number_restraints     0
_refine_ls_restrained_S_all      1.265
_refine_ls_R_factor_all          0.0266
_refine_ls_R_factor_gt           0.0213
_refine_ls_shift/su_max          0.000
_refine_ls_shift/su_mean         0.000
_refine_ls_structure_factor_coef Fsqd
_refine_ls_weighting_details
'w=1/[\s^2^(Fo^2^)+(0.0185P)^2^+0.4016P] where P=(Fo^2^+2Fc^2^)/3'
_refine_ls_weighting_scheme      calc
_refine_ls_wR_factor_gt          0.0461
_refine_ls_wR_factor_ref         0.0537
_reflns_Friedel_coverage         0.000
_reflns_number_gt                84
_reflns_number_total             87
_reflns_threshold_expression     'I > 2\s(I)'
_cod_data_source_file            nl6b05022_si_002.cif
_cod_data_source_block           300-bcorr2
_cod_depositor_comments
'Adding full bibliography for 1545319--1545320.cif.'
_cod_original_cell_volume        212.75(2)
_cod_database_code               1545319
_chemical_oxdiff_formula         'Pb Br3 C N2 H5'
_shelx_space_group_comment
;
The symmetry employed for this shelxl refinement is uniquely defined
by the following loop, which should always be used as a source of
symmetry information in preference to the above space-group names.
They are only intended as comments.
;
_reflns_odcompleteness_completeness 100.00
_reflns_odcompleteness_iscentric 1
_reflns_odcompleteness_theta     26.32
_olex2_refinement_description
;
1. Fixed Uiso
 At 1.2 times of:
  All C(H) groups, All N(H,H) groups
2. Others
 Uiso(C1)=Uiso(N2)=Uiso(N3)=FVAR(1)
 Fixed Sof: C1(0.02083) H1(0.02083) N2(0.02083) H2A(0.02083) H2B(0.02083)
 N3(0.02083) H3A(0.02083) H3B(0.02083)
3.a Free rotating group:
 C1(N2,N3)
3.b Aromatic/amide H refined with riding coordinates:
 C1(H1)
3.c X=CH2 refined with riding coordinates:
 N2(H2A,H2B), N3(H3A,H3B)
;
_shelx_res_file
;
    300-bcorr2.res created by SHELXL-2014/7

TITL 300-bcorr2 in Pm-3m
REM Pm-3m (#221 in standard setting)
CELL 0.71073   5.969764   5.969764   5.969764  90.0000  90.0000  90.0000
ZERR    1.00   0.000188   0.000188   0.000188   0.0000   0.0000   0.0000
LATT  1
SYMM -x,-y, z
SYMM -x, y,-z
SYMM  x,-y,-z
SYMM  z, x, y
SYMM  z,-x,-y
SYMM -z,-x, y
SYMM -z, x,-y
SYMM  y, z, x
SYMM -y, z,-x
SYMM  y,-z,-x
SYMM -y,-z, x
SYMM  y, x,-z
SYMM -y,-x,-z
SYMM  y,-x, z
SYMM -y, x, z
SYMM  x, z,-y
SYMM -x, z, y
SYMM -x,-z,-y
SYMM  x,-z, y
SYMM  z, y,-x
SYMM  z,-y, x
SYMM -z, y, x
SYMM -z,-y,-x
SFAC C H N Br Pb
UNIT 1.00 5.00 2.00 3.00 1.00
L.S. 300
PLAN  20
BOND $H
list 4
MORE -1
CONF
fmap 2
acta 52
damp 1000
temp 293
REM <olex2.extras>
REM <HklSrc "%./acorr.hkl">
REM </olex2.extras>

WGHT    0.018500    0.401600
EXTI    0.014792
FVAR       6.72818   0.02424
PB1   5    0.500000    0.500000    0.500000    10.02083    0.04113    0.04113 =
         0.04113    0.00000    0.00000    0.00000
BR2   4    0.500000    0.000000    0.500000    10.06250    0.10935    0.03836 =
         0.10935    0.00000    0.00000    0.00000
PART -1
AFIX   6
C1    1   -0.079373   -0.013912   -0.021928    10.02083   21.00000
AFIX  43
H1    2   -0.206885   -0.102559   -0.009626    10.02083   -1.20000
AFIX   5
N2    3   -0.038012    0.121988    0.141002    10.02083   21.00000
AFIX  93
H2A   2    0.078243    0.206929    0.136204    10.02083   -1.20000
H2B   2   -0.126702    0.127618    0.254384    10.02083   -1.20000
AFIX   5
N3    3    0.040383   -0.037949   -0.200631    10.02083   21.00000
AFIX  93
H3A   2    0.159645    0.040843   -0.218554    10.02083   -1.20000
H3B   2    0.000821   -0.132740   -0.301639    10.02083   -1.20000
AFIX   0
HKLF 4

REM  300-bcorr2 in Pm-3m
REM R1 =  0.0213 for      84 Fo > 4sig(Fo)  and  0.0266 for all      87 data
REM     12 parameters refined using      0 restraints

END

WGHT      0.0125      0.6939

REM Highest difference peak  0.918,  deepest hole -0.850,  1-sigma level  0.149
Q1    1   0.4064  0.4064  0.4064  10.16667  0.05    0.92
Q2    1   0.0000  0.0000 -0.2531  10.12500  0.05    0.53
Q3    1   0.0000  0.0000  0.0000  10.02083  0.05    0.42
Q4    1   0.0000 -0.1998 -0.5000  10.25000  0.05    0.38
Q5    1   0.3603  0.0666  0.5000  10.50000  0.05    0.38
Q6    1   0.5000  0.1789  0.5000  10.12500  0.05    0.37
Q7    1   0.5000  0.5000  0.3024  10.12500  0.05    0.35
Q8    1   0.5000  0.0000  0.3555  10.25000  0.05    0.31
Q9    1   0.5000  0.1415  0.4292  10.50000  0.05    0.31
Q10   1   0.2820  0.1554  0.5000  10.50000  0.05    0.28
Q11   1  -0.1403  0.0000  0.0000  10.12500  0.05    0.28
Q12   1   0.2240  0.0000 -0.2240  10.25000  0.05    0.26
Q13   1   0.5000  0.1191  0.2852  10.50000  0.05    0.25
Q14   1   0.1602  0.1602  0.1602  10.16667  0.05    0.24
Q15   1  -0.2465  0.2465  0.4278  10.50000  0.05    0.21
Q16   1  -0.3202  0.3202  0.3202  10.16667  0.05    0.21
Q17   1   0.2619  0.1006 -0.2619  10.50000  0.05    0.19
Q18   1   0.0000 -0.2845 -0.4027  10.50000  0.05    0.18
Q19   1   0.1042 -0.2697 -0.3902  11.00000  0.05    0.14
Q20   1   0.3412  0.1294  0.5000  10.50000  0.05    0.14
;
_shelx_res_checksum              63601
_shelx_hkl_file
;
   0  -1   0 286679. 10579.7   6
  -1   0   0 307240. 10448.5   5
   0   1  -1 127238. 4950.35   3
   0  -1   1 133971. 5682.45   2
   0  -1   1 107922. 5065.87   4
  -1  -1   0 101082. 4920.06   6
  -1  -1   0 112550. 5111.53   4
   1   0  -1 115738. 4209.88   6
  -1   1   0 103938. 5049.68   3
  -1   0  -1 113062. 5102.24   3
  -1   0   1 120458. 4299.15   6
   1  -1   0 115576. 4655.35   5
  -1   1   0 119270. 4625.83   5
   0  -1   1 115081. 4728.84   5
   0  -1  -1 106502. 5492.94   6
  -1   0   1 98905.8 5155.67   5
   1   1   1 18906.0 1727.81   1
   1   1   1 18326.5 1386.22   4
   1  -1  -1 20830.4 1975.43   6
   1   1  -1 20835.2 1195.12   6
  -1  -1  -1 18882.9 2009.19   6
   1  -1   1 21515.4 2025.60   2
  -1  -1   1 19272.1 1161.77   6
  -1   1  -1 26363.6 2289.84   3
  -1   1   1 18911.5 1863.20   5
  -1  -1   1 24268.6 1890.52   2
  -1  -1   1 19383.4 1885.18   5
  -1   1  -1 21558.4 1391.96   4
   2   0   0 703390. 25752.6   3
   0   2   0 751557. 25769.8   1
  -2   0   0 760195. 26701.7   5
  -2   0   0 782365. 26148.9   3
   0  -2   0 726102. 27178.9   6
   0   1  -2 269381. 10058.2   3
   0  -1   2 316557. 10801.5   3
  -2   1   0 272965. 10767.9   5
   1   2   0 276128. 10268.8   5
   0  -2  -1 265584. 12163.8   6
   0  -1  -2 271645. 11918.2   6
  -1   2   0 291520. 9583.06   5
  -2   1   0 266753. 10131.1   2
  -2   0   1 248057. 11353.9   5
  -2  -1   0 238128. 10848.0   3
  -2  -1   0 289292. 11568.0   5
  -2  -1   0 256843. 10763.9   4
   1  -2   0 263207. 11683.7   6
   2   1   0 269618. 10690.9   3
   0   2  -1 320686. 9695.68   5
   1   2   0 312919. 11605.3   6
   0   2  -1 267850. 11009.6   6
  -2   1   0 298614. 11439.2   3
   1  -2   0 276685. 9642.26   1
  -2   0   1 299221. 10082.9   3
  -2   0   1 294473. 10084.0   6
   0  -2   1 288693. 11402.2   4
   2   0   1 263715. 10119.8   1
  -1  -2   0 243857. 11185.3   6
  -1  -2   0 286804. 11438.6   4
   1   0  -2 272584. 10088.0   6
  -1   0  -2 304876. 11314.9   3
  -2   0  -1 267412. 11019.9   3
   2  -1   0 309217. 11248.4   5
   0  -2   1 296953. 9608.92   5
  -1   0   2 270248. 11873.6   5
   2   0  -1 270567. 10065.4   3
   1  -1   2 77989.6 4732.66   3
   2  -1   1 87511.2 4543.21   5
   1   1  -2 88662.3 3156.72   3
   1  -2  -1 77935.0 5314.41   6
   1   2  -1 88638.8 4743.16   2
   1  -1   2 85855.9 3945.30   4
  -1   1   2 75603.3 5204.81   5
  -1   2  -1 81489.6 4831.98   3
  -1   2  -1 83210.2 4230.69   4
  -2   1  -1 90522.7 5491.43   3
   1  -2   1 94741.0 5603.99   2
  -2  -1  -1 80620.4 4060.60   4
   2  -1   1 96515.4 4847.50   2
  -2  -1  -1 87989.2 5308.29   3
   1   1  -2 99530.5 5349.07   5
  -2   1   1 74096.4 4764.08   5
  -1  -2  -1 74171.8 5335.30   6
   2  -1  -1 82171.2 4889.42   5
   1  -1  -2 81957.5 4902.70   6
  -2  -1   1 76950.9 3469.15   6
   1   2  -1 91430.0 4446.01   6
   2   1   1 79939.2 4542.82   1
   2   1  -1 73975.4 3436.97   3
  -1   2   1 84123.3 4632.11   5
  -2   1   1 89078.3 4871.51   6
  -1   1  -2 79934.9 4625.54   3
  -1  -2   1 80016.4 4388.55   6
   1   2   1 78819.3 4301.83   4
  -1  -1   2 67908.2 4728.81   5
  -1  -2   1 81249.5 5221.61   4
   2   1   1 87722.6 4271.88   4
   1   2   1 82508.3 4708.94   1
  -1  -2   1 90522.4 4596.17   5
   1  -2   1 82685.6 3229.58   5
  -1   1   2 89343.5 5010.19   6
  -2  -1   1 80118.9 4945.00   5
  -2   1   1 85475.4 4645.18   3
  -1  -1  -2 75079.5 5143.69   6
   1   2  -1 83223.2 4258.89   5
  -2   0  -2 506822. 15140.6   3
  -2   0   2 514334. 12159.0   6
   2   2   0 432748. 13382.0   5
   2   2   0 497118. 14518.9   4
  -2  -2   0 466405. 14455.9   4
  -2   0   2 418438. 14896.3   5
   0  -2   2 476050. 14919.5   4
  -2   2   0 460081. 13605.5   2
   2   0  -2 457432. 11881.9   6
   0  -2   2 447086. 13201.5   5
  -2   2   0 498353. 12998.2   5
   0  -2   2 491835. 15263.8   2
  -2  -2   0 423940. 14093.9   6
  -2   0  -2 499388. 13395.6   1
   2  -2   0 521016. 13312.1   5
   0   2  -2 556091. 14037.2   3
   0  -2  -2 463974. 16058.7   6
  -2   0   2 468072. 11843.9   3
  -2   2   0 499143. 14874.4   3
   2   2   0 485638. 13646.7   6
  -2   2   1 204821. 7947.01   5
  -1   2   2 251857. 9691.41   6
   2   2   1 206144. 8493.73   1
  -2   1   2 254431. 8585.85   6
  -2  -2   1 229708. 8974.86   5
   1  -2   2 230487. 7850.96   4
   2   1   2 214110. 6557.37   4
  -2   2   1 236908. 9344.26   6
   1   2  -2 264569. 8784.83   5
  -1  -2  -2 202723. 9918.15   6
   1  -2   2 233084. 9313.30   2
  -1  -2   2 255054. 9868.61   2
  -2  -1  -2 237420. 8690.48   1
  -2  -2  -1 215608. 8122.74   4
   2  -2  -1 226267. 8639.47   5
  -2   1   2 210072. 9176.13   5
  -2   2  -1 215837. 8900.61   3
  -1   2  -2 224794. 7783.70   4
   1  -2   2 213487. 8814.82   3
   1  -2  -2 211549. 9631.70   6
  -1   2  -2 253815. 9159.45   3
   2   2  -1 213146. 6894.18   6
   2   2   1 220354. 8044.06   4
   1   2  -2 235598. 7221.48   6
  -2   1  -2 229631. 9116.92   3
   2  -2   1 245707. 9173.89   2
   2  -2   1 243704. 7308.46   5
   1   2  -2 219089. 6837.66   3
   2  -1  -2 232943. 8423.10   6
  -2  -2   1 204430. 9108.89   4
  -2  -1  -2 245446. 10094.8   3
   2   2  -1 233734. 7630.68   2
  -2  -2   1 220157. 7481.03   6
  -1   2   2 189022. 8632.85   5
   2  -2  -1 209744. 9127.18   6
   2   2  -1 210743. 8317.17   5
  -2   1  -2 224775. 6713.65   1
  -2  -1   2 220922. 7647.91   2
  -1  -2   2 217212. 9305.11   4
  -2  -2  -1 196471. 9178.29   6
  -1  -2   2 174163. 7810.62   5
  -2  -1   2 189406. 8852.85   5
  -2   2  -2 368506. 11064.2   3
   2   2  -2 299850. 5486.89   6
   2   2  -2 334534. 9937.27   5
   2   2   2 288092. 7711.00   4
  -2   2   2 313900. 10293.6   5
  -2  -2   2 297797. 10611.7   4
   2  -2  -2 340504. 11140.3   6
   2  -2   2 321526. 10060.9   2
  -2   2  -2 296567. 5201.02   1
  -2  -2  -2 286036. 11135.9   6
  -2   2  -2 327531. 7518.33   4
  -2  -2   2 256244. 9187.72   5
  -3   0   0 144364. 7474.06   3
   0   0   3 141154. 6727.37   3
   0   3   0 156557. 7037.00   1
   0   0  -3 144716. 7564.51   6
  -3   0   0 148920. 7999.14   5
   3   0   0 135341. 6968.48   3
   3   0   0 171038. 5559.56   2
   0  -3   0 145996. 8448.44   6
   3   0   1 37218.4 2793.64   1
   0  -1   3 42609.5 2978.26   3
  -3   0   1 43714.1 2978.42   3
   0  -3  -1 44447.2 3373.52   1
  -3  -1   0 32620.9 3043.41   3
   0  -3   1 42990.4 3821.59   6
   0   1   3 39135.7 3366.57   3
  -1   0  -3 28968.1 3548.71   3
   3  -1   0 39104.8 3282.43   3
   1   3   0 41511.9 3379.29   1
   0   1  -3 32360.4 2660.95   3
  -1  -3   0 36646.3 3674.71   6
   1  -3   0 41583.6 4019.46   6
  -1   0   3 32561.5 2300.45   3
  -3   0   1 35194.2 3374.10   5
  -3   1   0 41414.3 3470.41   5
   3   0   1 30121.8 2985.48   3
  -1   0   3 37411.1 3891.91   5
  -3   1   0 41345.0 3404.26   3
   1   0   3 27320.7 2876.93   3
  -1  -3   0 41730.3 3663.70   4
   3   0  -1 39121.1 2817.37   3
   0   3  -1 43405.1 3633.33   6
   0  -3  -1 41508.6 4173.84   6
   3  -1   0 43610.3 3582.56   5
   0  -3   1 42025.6 3671.61   4
   0  -1  -3 36561.2 3810.19   6
   1   0  -3 39728.0 3058.39   6
   1   3   0 40968.9 2640.13   5
   1   3   0 49407.4 3821.96   6
  -3   0  -1 41331.5 3526.31   3
  -1   3   0 40108.4 1918.73   5
  -3  -1   0 40291.0 3762.86   5
   0   3  -1 44310.2 1976.58   5
   3   1   0 33650.3 2822.74   3
  -1   1  -3 689.182 439.649   3
   1   3  -1 1925.33 559.014   5
  -1   1   3 811.001 656.327   5
  -1   3  -1 467.917 555.432   3
  -1   3   1 1023.66 465.163   5
  -3  -1   1 230.406 431.854   3
   3  -1   1 944.804 476.936   2
   1   3   1 910.713 550.767   1
  -1  -3   1 978.656 546.391   6
  -1   3  -1 1628.14 565.030   4
  -1  -3  -1 1754.60 896.026   6
  -3   1   1 1318.09 686.200   3
   1  -3  -1 1700.98 637.982   1
   1  -1  -3 684.469 676.567   6
   3   1   1 397.193 500.764   3
   1  -1   3 1575.67 531.657   4
  -1  -1  -3 1341.90 893.976   6
   1  -1   3 1576.99 655.599   3
  -3   1  -1 1057.50 752.163   3
   1   3  -1 1363.03 635.974   6
  -1   3  -1 1377.49 415.747   1
  -3   1   1 733.950 552.582   5
  -3   1   1 802.197 513.301   6
  -3  -1  -1 1340.21 764.433   3
   3   1  -1 1849.75 505.142   3
  -1  -1   3 217.822 258.191   3
   1  -3  -1 706.021 828.210   6
  -3  -1  -1 862.541 400.458   4
   3   1   1 861.875 517.622   1
  -1   1   3 593.598 448.058   6
  -1  -3   1 1500.09 698.216   4
   3  -1   1 1296.88 600.990   5
  -3  -1   1 516.775 482.666   5
  -1  -1   3 881.387 668.669   5
   3  -1   1 1274.41 394.397   1
   0  -2   3 117623. 6965.43   4
  -2  -3   0 118875. 7134.24   4
   2   0  -3 130551. 5477.39   6
   0  -2   3 127632. 6357.14   3
  -2   3   0 117012. 6968.85   3
  -3   2   0 116234. 6252.72   5
  -2   0   3 112969. 4810.83   3
  -2   0  -3 124542. 7123.52   3
   0   3  -2 119726. 6734.50   6
  -2  -3   0 106004. 6901.88   6
   3  -2   0 132399. 6541.67   5
  -3  -2   0 110059. 6496.21   6
  -2   3   0 120549. 5115.56   5
  -3  -2   0 116514. 6815.87   4
   0  -2   3 120695. 7498.48   2
   2  -3   0 125138. 4947.38   1
   0  -3   2 128445. 5532.34   5
  -2   0   3 111871. 7476.49   5
  -3   0   2 130513. 5216.23   3
   2   3   0 111310. 5824.84   5
  -3   0   2 124565. 5290.41   6
   0  -3   2 134889. 7616.92   4
   3   2   0 38990.4 5113.72   3
   0   2  -3 117842. 5759.72   3
   2   3   0 124497. 6696.24   6
  -3   0  -2 215001. 9008.81   3
   0   3  -2 105445. 6167.55   3
   0  -2  -3 113430. 7647.50   6
   0  -3  -2 108833. 7936.36   6
   2  -3   0 132374. 5736.46   5
  -3   0   2 118833. 7539.95   5
   0  -2   3 112404. 6762.59   5
  -3   2   0 123101. 7162.93   3
  -3   2   0 99155.8 5561.97   2
  -3  -2  -1 35215.2 3632.07   6
  -1  -3  -2 34228.2 4117.67   6
   2  -3  -1 37080.8 4037.86   6
  -3   1   2 44970.3 3386.71   3
  -3   2   1 38639.5 3776.08   3
   2   3  -1 36947.4 3148.68   5
  -1   3  -2 42247.1 3390.19   4
  -3   2  -1 35656.1 3550.81   3
   1  -3   2 42349.4 4061.39   2
  -3  -2  -1 37737.0 3245.70   4
   1   3  -2 31094.4 2602.12   3
  -3   1   2 43737.8 3323.19   6
   1  -2   3 37708.5 3894.33   2
  -1  -3   2 42717.3 4221.84   4
  -3   1  -2 32186.5 1631.36   4
   2   3   1 43370.0 3746.32   1
  -2   3  -1 42191.0 3839.82   3
  -2   1   3 45073.4 3442.32   6
  -2  -3   1 38811.3 3936.24   4
   1  -3  -2 37259.3 4258.37   6
  -3  -1   2 29018.1 2077.98   2
  -1  -2   3 37262.2 3749.50   4
  -2  -3   1 43701.8 3495.09   6
  -3  -1   2 30366.9 3420.84   5
   1   2  -3 37897.3 2238.56   3
  -2   3   1 34024.2 2801.46   5
  -3  -2   1 40229.3 2908.61   6
  -3  -2   1 45649.3 4220.28   5
  -3   1   2 38698.5 3922.77   5
   3   2  -1 32494.8 2642.86   3
   2   1   3 38044.0 2208.25   4
   2  -1  -3 44385.7 3567.79   6
  -3   1  -2 41977.3 4119.25   3
  -2  -1  -3 33396.1 3779.43   6
  -3  -2   1 34941.8 3641.54   4
  -1  -2  -3 39174.5 4453.00   6
  -3   2   1 34600.9 3176.69   5
  -2  -3   1 45137.6 3624.36   5
  -3  -1  -2 43181.3 4070.68   3
   3  -2   1 37851.1 3011.63   5
   3   2  -1 42125.8 2648.41   2
   1  -3   2 39892.7 3406.48   4
  -2  -3  -1 42890.1 3804.58   4
   1   2  -3 41529.9 2822.53   6
   1  -2   3 39817.3 3254.78   4
   1  -2  -3 36545.4 3772.77   6
  -1  -2   3 32168.5 3374.31   5
   2  -3   1 41919.1 2271.31   5
  -2  -1  -3 48836.0 4516.24   3
  -1   2   3 30543.6 3515.88   5
  -1   2  -3 38349.2 3349.38   3
  -2   1   3 37573.6 4079.56   5
  -2   3  -1 37528.4 2944.91   4
  -1  -2   3 44773.5 4179.84   2
   1   3  -2 47440.9 3241.79   5
  -2  -1   3 34215.8 3735.64   5
   2   3  -1 41179.6 3172.98   6
   3   2   1 36325.8 3366.74   1
  -2   1  -3 29415.6 3310.88   3
  -2  -3  -1 34753.1 3916.29   6
  -1   3   2 33799.6 3292.20   5
  -1  -3   2 42766.2 3279.51   5
   1  -3   2 35792.9 2231.13   5
   1   3  -2 43681.0 3298.20   6
  -1   3  -2 41080.2 3632.80   3
   3  -2   2 95839.0 5807.43   2
  -2  -2  -3 77438.2 6602.20   6
  -3  -2   2 86719.0 6396.89   4
  -2  -2   3 84177.3 6160.48   5
  -3   2  -2 93954.4 4182.29   4
  -2  -3   2 99843.3 6119.53   5
   2  -3   2 94490.5 6240.82   2
   2   2   3 88139.3 4605.50   4
  -2   3  -2 91378.8 4962.51   4
   3   2   2 91332.6 5746.24   1
   2  -2   3 104217. 6759.22   2
  -3   2   2 102525. 6084.35   3
  -2   3   2 85700.4 5705.52   5
   2  -2  -3 99885.6 6669.41   6
   2   3  -2 98815.1 5608.06   5
   2   3  -2 103323. 4800.18   6
   3  -2   2 90433.3 5111.17   5
  -2  -3   2 91523.3 6764.15   4
   2  -3   2 88947.6 4005.67   5
   3   2   2 98602.4 5135.49   4
  -3  -2   2 82059.2 5877.61   5
  -3   2   2 94702.1 6239.19   5
  -2   2   3 84971.0 6395.98   5
  -2  -2   3 76425.6 5285.83   2
  -2   2  -3 95217.4 6172.41   3
   3   2  -2 61631.2 3299.33   3
  -3   2  -2 85036.8 6025.23   3
  -3  -2  -2 77261.9 6255.84   6
   2  -3  -2 108108. 7406.48   6
  -2   3  -2 91715.2 5871.56   3
  -2  -3  -2 87625.0 6906.03   6
  -3   3   0 26828.6 3249.98   3
   0  -3   3 22603.8 3063.43   4
   0  -3   3 23812.7 3113.75   2
   0  -3  -3 24102.3 3569.65   6
  -3  -3   0 22840.5 2963.74   4
  -3   0   3 26268.4 1800.91   6
   0   3  -3 25101.9 2900.89   6
  -3   0   3 26318.8 3469.28   5
  -3   3   0 23460.8 2275.29   5
  -3   0  -3 23917.0 3185.23   3
   3  -3   0 27893.7 2595.70   5
  -3   0   3 24822.9 1602.84   3
   0   3  -3 23832.3 2528.32   3
   0  -3   3 20783.2 2346.94   5
  -3   0  -3 22980.2 2490.75   1
  -3  -3   0 23415.8 2925.08   6
  -3   1   3 4042.96 1414.95   5
   1   3  -3 4386.99 1018.05   6
  -3  -3   1 4347.12 1095.54   6
  -3   3  -1 4222.92 1326.52   3
   1  -3   3 4538.38 1099.51   5
  -1   3   3 3658.07 1222.54   5
  -3   1  -3 2851.65 1305.56   3
   1  -3   3 3400.39 1112.19   4
   1  -3  -3 4349.70 1414.89   6
  -3  -3  -1 3242.71 1192.14   6
  -3   1  -3 4207.61 887.545   1
   1  -3   3 4054.16 1354.78   2
  -3   1   3 2806.87 1039.45   3
  -3  -1  -3 3362.39 1373.76   3
  -3  -3   1 4324.80 1358.67   4
  -1  -3   3 4984.95 1482.17   2
  -1  -3   3 3210.05 1344.49   4
  -1  -3  -3 2748.25 1340.22   6
  -1   3  -3 4045.77 1157.44   3
   3   3  -1 4283.96 970.711   2
   3  -1  -3 4074.02 1039.14   6
  -3   1   3 3535.87 989.655   6
   3   3  -1-41.7719 335.460   3
   1   3  -3 3402.67 749.142   3
  -3  -1   3 3860.38 894.652   2
  -3  -3   1 5402.58 1454.52   5
   3   3   1 4181.84 1217.46   1
  -3   3   1 3748.72 1276.94   3
  -3   3   1 4761.09 1050.67   5
  -3  -3  -1 4237.13 1224.55   4
  -3  -1   3 4411.48 1512.60   5
  -1  -3   3 4768.01 1237.26   5
   3  -3   1 4778.17 954.939   5
   3   3   2 21269.8 2802.68   1
   2  -3  -3 26331.7 3615.18   6
   3  -3   2 22964.4 2810.99   2
  -3  -2  -3 21687.1 3339.36   6
  -3   3   2 19874.3 3036.68   3
  -3  -3  -2 24907.2 3704.45   6
  -2   3  -3 21935.1 2218.72   4
  -2  -3   3 22669.4 3284.63   4
  -3   3  -2 21112.2 2039.48   4
  -3   3  -2 19562.9 2730.85   3
  -2   3  -3 23356.7 3006.77   3
  -3  -3   2 27938.5 3437.37   5
  -2  -3  -3 23164.2 3641.80   6
  -3   2  -3 24278.9 1722.18   1
   3  -3   2 20810.4 1926.78   5
  -2  -3   3 20883.0 2694.32   5
   2  -3   3 24244.9 3059.97   2
  -3  -2   3 19034.4 2878.08   5
   2   3  -3 25187.2 1801.58   6
  -3   3   2 24135.0 2874.27   5
   3  -2   3 23980.1 3100.79   2
  -3   2   3 22765.8 3090.78   5
  -3   2  -3 21676.4 3032.89   3
  -2   3   3 19725.1 2901.27   5
  -3  -2   3 16655.3 2065.45   2
   3  -2  -3 24018.3 2988.19   6
  -3  -3   2 20435.0 3118.59   4
   3   2   3 24191.6 2151.98   4
   2   3  -3 22754.3 1618.64   3
   3  -3  -2 26122.8 3463.86   6
  -3  -3   2 19703.1 1620.03   6
  -3   3   3 4462.85 1403.45   5
  -3  -3  -3 9010.46 2344.71   6
   3  -3   3 6011.44 1596.32   2
  -3   3  -3 4714.08 1508.79   3
  -3  -3   3 4805.12 1594.52   4
   3  -3  -3 6240.02 1798.00   6
  -3  -3   3 4294.54 1403.44   5
   0  -4   0 245522. 12465.2   6
   0   0  -4 233055. 11104.3   6
   0   4   0 232163. 7981.31   5
   0   4   0 247382. 9985.83   1
  -4   0   0 252201. 11633.5   5
  -4   0   0 242243. 10660.1   3
   1   0  -4 118689. 6671.65   6
   4   0  -1 94228.0 5500.45   3
   1  -4   0 122469. 8258.22   6
  -1  -4   0 117937. 7856.92   6
  -1   0  -4 129276. 7514.34   3
  -4  -1   0 82081.4 5968.65   3
   0  -1  -4 111964. 7766.97   6
   0   1  -4 86099.4 5774.92   3
   1   4   0 114110. 5176.19   5
  -4   1   0 118099. 6764.87   3
   4   0   1 97456.9 5671.00   1
   1   4   0 125341. 6829.02   1
  -4   0  -1 130425. 7600.40   3
  -1   0   4 122413. 5571.88   3
  -4   1   0 112379. 7030.62   5
  -4   0   1 129257. 6361.36   3
   0  -1   4 98731.4 6833.00   5
   0  -4   1 122751. 7690.19   6
  -1   0   4 98724.0 7132.55   5
  -4   0   1 102922. 6749.18   5
   0  -1   4 104484. 5791.03   3
   0   4  -1 112167. 5864.20   1
   0  -4  -1 109698. 8147.45   6
   1  -1  -4 54868.3 4524.63   6
  -4  -1  -1 58455.4 3912.27   4
   1   4   1 67264.2 4719.10   1
  -1  -4   1 63758.8 5359.78   4
  -1   4  -1 54044.5 4487.95   3
  -1  -4   1 59506.4 4908.66   6
   4  -1   1 60011.4 3543.94   2
  -1   4  -1 62068.2 3352.95   1
  -1  -1   4 55087.8 5065.88   5
  -1  -4  -1 48765.5 4996.75   6
   4   1   1 50437.3 3961.55   1
  -4  -1   1 17448.7 2635.49   3
   1  -1   4 54702.1 3718.34   4
  -4   1   1 50967.4 4264.63   5
  -4  -1  -1 44595.7 4522.95   3
   4  -1   1 54818.6 3326.89   1
   4   1  -1 40441.9 3120.64   3
  -1   1   4 52194.4 4104.51   3
  -1   1  -4 39230.0 3952.62   3
   1   4  -1 56830.6 3196.78   5
   1   1  -4 61024.9 3898.30   6
  -1   4   1 64755.9 3768.36   5
  -1  -1  -4 54448.8 5158.32   6
  -1   1   4 46588.7 4627.54   5
  -4   1   1 66617.4 4412.93   3
  -1  -1   4 33268.7 2576.67   3
   1  -4  -1 56172.0 5635.50   6
  -4  -1   1 51976.7 4747.96   5
  -4   1  -1 49230.3 4581.11   3
   0  -2   4 148726. 7666.90   3
   0   4  -2 161637. 8230.40   3
   2   4   0 158851. 8467.70   1
  -2  -4   0 170233. 9497.34   4
  -2   4   0 157246. 8950.60   3
   2   0  -4 164041. 7130.30   6
   0  -4   2 194938. 10168.2   4
   0  -2   4 150013. 8650.38   4
  -4  -2   0 159553. 8706.24   4
  -2  -4   0 155499. 9298.82   6
  -2   0   4 216094. 6858.67   3
   0  -2  -4 150932. 9994.95   6
  -4   0   2 178068. 7171.17   3
   0   2  -4 158885. 7302.50   3
   0  -2   4 152789. 9067.37   5
  -4   0   2 135042. 8472.06   5
   0  -4  -2 147890. 10010.5   6
  -2   4   0 154393. 5796.96   5
  -2   0   4 144383. 9573.65   5
  -4   0  -2 147320. 5707.94   4
  -2   0  -4 140201. 9228.82   3
  -4   2   0 170711. 8752.19   5
  -4   0  -2 150823. 9231.89   3
   2   4   0 142164. 7180.25   5
  -4  -2   0 168218. 8666.20   6
  -4   0   2 148695. 6661.92   6
  -4   2   0 160329. 8619.83   3
   2  -4  -1 96161.9 7325.91   6
   1  -4  -2 86187.6 7201.07   6
  -1  -2   4 94368.8 6599.29   2
  -1   4  -2 99515.8 6078.69   3
  -4  -2  -1 79571.3 5864.07   6
   2   4  -1 90964.0 5031.36   5
  -2   4  -1 88996.5 6055.88   3
   4   2   1 82952.3 5441.71   1
   4   1   2 84137.7 5290.72   1
  -4  -1  -2 86727.3 3932.87   4
  -2  -4   1 96321.1 6845.81   4
   2   1  -4 80774.3 3386.82   6
  -4  -1   2 74886.6 3205.43   6
   2  -1   4 89749.4 3676.30   4
   2  -1  -4 86536.5 5278.17   6
  -4   2   1 66411.2 3897.91   2
  -4  -1   2 99070.9 3686.30   6
  -4  -2   1 106561. 5298.30   6
  -1  -2  -4 91855.2 7495.12   6
   4  -2   1 90426.5 3426.02   1
  -2  -1  -4 81767.4 6453.51   6
   2  -4  -1 94543.8 4983.22   1
   1  -2  -4 88660.8 6471.09   6
   2   4   1 98985.2 6288.21   1
  -1  -4  -2 84448.6 7101.16   6
   4  -1   2 99298.8 5661.20   2
  -4  -2  -1 98634.9 5646.04   4
  -2   1   4 105173. 5393.82   6
  -2  -4  -1 87393.6 6788.60   6
  -4  -2   1 85177.3 6163.56   4
  -2  -4   1 93591.7 6093.99   6
  -4   1   2 87382.1 4901.71   6
  -4  -1  -2 90002.3 6626.59   3
  -1  -4   2 97244.1 4589.50   5
  -4  -2   1 101355. 7128.62   5
   1   2  -4 27688.3 2945.99   3
  -2   1  -4 70977.7 5289.71   3
  -4   1   2 76530.5 5817.53   5
  -1   2  -4 82611.6 5070.40   3
  -4   1  -2 97615.1 6920.67   3
  -2   4   1 88329.1 4472.02   5
  -1  -4   2 102121. 7243.69   4
  -2  -1   4 80114.7 6498.84   5
  -1  -2   4 84707.8 6240.67   5
   4   2  -1 50750.7 3782.55   3
  -2   1   4 81942.8 6504.99   5
   1   4  -2 107030. 4833.73   5
  -1   2   4 71086.4 5853.28   5
  -4   2  -1 75425.6 5545.24   3
  -1   4   2 82498.8 5309.69   5
  -4   1   2 111497. 5591.25   3
   4   1  -2 32650.3 2907.63   3
   1  -2   4 94043.5 5625.21   4
  -4  -1   2 75276.5 5700.54   5
  -1  -2   4 82011.3 5990.79   4
  -4   2   1 105149. 6260.27   3
  -4   2   1 79765.1 5249.39   5
  -4   2   2 145858. 7579.12   3
  -4  -2  -2 105416. 5412.80   4
   2  -2   4 110910. 4982.38   4
  -4   2  -2 106000. 4529.12   4
  -2  -4  -2 110882. 8413.14   6
  -2  -4   2 123057. 8201.33   4
   2   2  -4 93188.2 3518.06   6
   2   2  -4 98603.2 3574.82   6
  -2  -2   4 96639.9 6483.44   2
  -2   2   4 97211.8 7281.06   5
   2  -4  -2 128495. 8963.25   6
  -2  -4   2 124503. 6550.68   5
  -4  -2   2 114374. 7711.63   4
  -4  -2   2 93529.6 6600.68   5
  -4   2   2 103596. 6770.53   5
   2  -2  -4 111116. 7095.67   6
  -2   2  -4 102887. 6537.59   3
   4   2   2 106456. 6595.70   1
  -2  -2  -4 98905.8 7949.82   6
  -2  -2   4 107676. 7410.50   5
  -2   4   2 118164. 6490.31   5
  -4   2  -2 105330. 6864.97   3
   4  -2   2 110071. 6233.63   2
   2   2   4 98737.4 5140.55   4
  -2  -4   2 115421. 6150.75   6
  -4  -2  -2 94879.1 7107.87   6
   2   4  -2 117967. 6043.54   6
   4   2  -2 43116.2 3539.76   3
  -2   4  -2 128451. 7480.12   3
  -3   4   0 59490.2 4973.65   3
   0  -3  -4 61021.3 6063.90   6
  -3  -4   0 53591.3 4866.04   4
   0  -4   3 66273.5 5609.03   4
  -4  -3   0 55531.3 4710.43   4
   0  -3   4 61154.8 5186.20   4
  -4  -3   0 65942.5 5070.97   6
   0  -3   4 56587.1 5051.33   2
   3   4   0 53607.6 4303.81   1
   0  -4  -3 49221.7 5470.65   6
  -4   0  -3 53607.9 5029.40   3
  -3   4   0 58582.5 3013.75   5
  -4   3   0 56557.9 4016.75   5
  -3   0  -4 61505.4 5147.15   3
  -3   0   4 34666.3 1668.96   3
  -4   0   3 68906.1 2798.01   3
  -4   0   3 60697.7 5381.81   5
   0  -4   3 64738.5 3430.19   5
  -3   0   4 58273.8 5472.45   5
   0   3  -4 56863.5 3714.29   3
   0  -3   4 53476.0 4413.48   5
  -3  -4   0 57921.5 4886.40   6
  -4   0   3 68696.0 2953.74   6
  -4   3   0 59067.8 4830.31   3
   0   4  -3 57328.2 4216.52   3
  -3   4  -1 33006.8 3893.30   3
   1   4  -3 30118.1 2793.82   3
  -4   3   1 35649.9 3924.14   3
   3  -4  -1 36271.8 2808.93   1
   1  -3  -4 26895.3 3852.27   6
  -3  -4  -1 33818.7 3797.33   4
   1  -4   3 37023.7 3902.74   4
  -3   4   1 30108.0 3719.97   3
  -4  -3  -1 32452.2 3486.25   4
   1  -3   4 37906.6 3746.65   4
   1   3  -4 37079.2 3080.29   6
   3  -4   1 34866.7 2337.34   5
  -1  -4   3 34764.3 4267.55   4
   1  -4  -3 32121.4 4435.25   6
  -4  -3   1 34905.0 4054.93   4
  -1  -3   4 28835.2 3554.59   2
  -1  -4  -3 31335.8 4465.24   6
  -3   1  -4 19146.0 3188.58   3
  -4   1   3 35641.1 3050.68   6
  -3  -4  -1 32897.1 4323.65   6
  -1  -3   4 34209.9 4145.03   4
   4   3  -1 35545.4 2630.82   2
  -1  -3  -4 26949.4 4202.74   6
  -4  -3  -1 33163.8 4040.01   6
  -3  -1  -4 23750.3 3549.89   6
  -3   1   4 38533.4 3063.00   6
  -4   1   3 32757.8 4158.34   5
  -3  -4   1 32405.4 4052.99   4
   3   4   1 30248.3 3385.05   1
  -3  -1  -4 35385.4 4242.13   3
   3  -1  -4 35316.6 3164.96   6
  -4  -1  -3 31178.0 4080.82   3
  -4   3   1 25998.6 2780.16   5
  -1  -4   3 33298.7 2990.29   5
  -3   4   1 25838.8 2438.22   5
  -4  -1   3 28053.1 3665.09   5
  -4   1  -3 31491.8 3914.90   3
   1  -4   3 30834.6 2049.19   5
  -3  -1   4 31707.5 4104.94   5
   1   3  -4 31357.2 2340.65   3
  -1  -3   4 27346.4 3310.89   5
  -3   1   4 31801.7 4086.95   5
  -1   3  -4 30728.2 3125.97   3
   1  -3   4 31914.6 3402.38   5
   4   3  -1 16891.0 2267.10   3
  -1   4   3 27153.9 3323.58   5
   4   3   1 30334.3 3338.23   1
  -3  -4   1 32219.4 3439.32   6
  -1   3   4 22782.4 3268.20   5
  -4   3  -1 26168.4 3268.35   3
  -4  -3   1 35478.0 3242.38   6
  -1   4  -3 32354.2 3480.08   3
  -4   1   3 38547.1 3091.87   3
   1  -3   4 32395.9 3852.76   2
  -2  -4   3 44716.1 5011.45   4
   2   4  -3 33783.9 2684.94   3
  -4   2   3 53423.0 4476.50   3
  -4   3   2 52368.9 4767.75   3
  -3  -2   4 36801.4 3511.39   2
  -4  -3  -2 42406.4 4949.08   6
   3  -4  -2 45543.1 5206.51   6
   3  -2  -4 48928.9 4465.89   6
   2  -4  -3 47066.8 5410.47   6
   2  -3  -4 44098.7 4801.36   6
  -2  -3   4 35252.9 3822.97   2
  -3  -4   2 46854.0 5135.96   4
   4   3   2 39530.3 4035.63   1
  -2  -4  -3 37791.9 5030.06   6
  -4  -3   2 45898.9 4964.28   4
  -2  -3   4 38046.8 4605.46   4
  -2  -3  -4 40080.6 5286.70   6
  -3  -2  -4 42824.0 5096.58   6
   2  -3   4 40022.7 4433.64   2
  -4  -2  -3 35824.3 4448.09   6
   3  -2   4 47006.4 4756.69   2
   4  -2   3 46456.4 4313.26   2
  -3  -4  -2 42731.1 5092.42   6
  -3  -4   2 56113.6 4850.03   5
  -4  -3   2 51784.4 5039.78   5
  -2  -4   3 52307.0 4466.04   5
  -4  -2   3 34445.7 3971.98   5
  -4   3   2 39641.6 3930.60   5
  -3   2  -4 41102.2 4268.94   3
  -3  -2   4 49475.9 5205.50   5
  -2  -3   4 46975.7 4720.53   5
  -4   2   3 43404.4 4654.16   5
  -3   4   2 46909.2 4000.50   5
  -4   2  -3 40014.3 4518.31   3
  -3   2   4 44502.3 4904.06   5
  -2   3  -4 44019.4 4119.75   3
  -2   4   3 44251.1 4313.76   5
  -2   3   4 36879.0 4327.10   5
   2  -4   3 45881.8 2735.81   5
  -4   3  -2 36726.8 4043.13   3
  -3  -4   2 36250.2 2968.68   6
  -4  -3   2 35604.9 2202.90   6
  -2   4  -3 47927.9 4266.59   3
  -3   4  -2 43016.5 4154.94   3
  -3   4   3 16888.8 2676.00   5
  -4   3   3 20590.5 2939.98   3
   4  -3   3 18606.8 2705.62   2
  -4  -3  -3 17855.5 3395.69   6
   3  -3  -4 22908.2 3389.30   6
  -3  -3  -4 18003.5 3602.44   6
  -3   3  -4 14181.8 2576.30   3
   3  -3   4 18681.7 2947.94   2
  -3  -4   3 18173.6 3253.02   4
   3  -4  -3 18461.3 3359.98   6
  -3  -4  -3 14828.8 3182.55   6
  -4  -3   3 19476.7 3337.99   4
  -3  -4   3 24762.4 3378.92   5
  -4  -3   3 16377.3 2640.07   5
  -4   3   3 21116.0 3215.40   5
  -3  -3   4 15645.5 2779.68   5
  -3   3   4 19734.2 3224.48   5
  -4   3  -3 16574.8 2717.03   3
  -3  -3   4 19372.6 3284.16   4
  -3   4  -3 14868.5 2463.80   3
   0  -4   4 60118.1 5669.48   2
   0  -4   4 66462.5 6012.69   4
   4   4   0 56332.9 4879.02   1
  -4  -4   0 72019.4 5958.63   6
   0  -4   4 58745.9 4268.24   5
  -4   0  -4 58902.0 5911.08   3
  -4  -4   0 67157.2 5831.43   4
  -4   0   4 66175.1 6450.78   5
   0   4  -4 57057.2 4194.23   3
   0  -4  -4 57834.0 6486.97   6
  -4   4   0 70253.0 5960.08   3
  -4   4   1 51601.6 4965.98   3
  -1  -4  -4 43227.2 5643.82   6
  -1  -4   4 37727.8 4331.70   2
  -4  -4  -1 45133.9 4471.49   4
   1  -4   4 42313.5 4355.21   4
  -4  -4   1 43873.2 4782.47   4
  -1  -4   4 45025.1 4996.34   4
   1  -4  -4 35995.0 4865.99   6
  -4  -4   1 46144.9 4017.22   6
  -4  -4  -1 48747.3 5162.80   6
   1  -4   4 35276.4 4242.47   2
  -4  -1  -4 32856.8 4308.53   6
  -4  -1   4 33330.5 2888.61   2
  -4   1  -4 36265.0 4312.27   3
  -4   4   1 33135.5 3005.70   5
   4   4   1 40837.2 4007.82   1
  -1  -4   4 42915.2 3943.24   5
  -4  -1   4 47348.1 5310.90   5
  -4   1   4 44541.4 5088.00   5
  -4  -1  -4 43231.1 4989.02   3
   1  -4   4 38075.0 3143.69   5
  -1   4  -4 41192.6 3753.37   3
   1   4  -4 38532.6 2926.20   3
  -1   4   4 33688.1 4018.37   5
  -4   4  -1 43254.6 4400.97   3
  -4   1   4 45630.8 3276.12   3
  -4   2   4 46185.7 3848.41   3
  -4   4   2 48921.5 4855.59   3
   4   4   2 40476.7 4216.67   1
   2  -4   4 40601.5 4570.13   2
  -4  -4   2 49753.5 5352.99   4
  -2  -4   4 45178.7 5199.47   4
  -2  -4  -4 46139.8 5854.79   6
  -4  -4  -2 45126.7 5366.40   6
  -4  -2  -4 40633.0 5143.04   6
   4  -2   4 45565.4 4795.24   2
  -4   4  -2 40668.4 4234.63   3
  -4  -4   2 50840.9 5126.17   5
  -2  -4   4 45225.6 4277.08   5
  -4   4   2 35431.4 3563.32   5
  -4  -2   4 40716.2 4738.78   5
  -4   2  -4 40499.1 4569.43   3
  -4   2   4 49325.9 5212.68   5
  -2   4   4 40963.7 4485.12   5
  -2   4  -4 39666.4 4100.15   3
   2  -4  -4 43953.5 5229.98   6
  -4   3   4 12154.6 2318.56   3
  -4   4   3 17439.8 2933.45   3
   3  -4   4 21878.8 3269.00   2
   4  -3   4 22138.8 3179.91   2
  -3  -4   4 20356.2 3584.52   4
  -3  -4  -4 22920.8 4197.33   6
  -4  -4  -3 20655.1 3851.83   6
  -4  -3   4 21721.5 3728.94   4
  -3  -4   4 22492.8 3135.19   5
  -4  -3  -4 20405.9 3922.09   6
   3  -4  -4 22239.1 3639.95   6
  -4   3  -4 12095.2 2776.00   3
  -4  -4   3 22139.1 3780.91   4
  -4  -4   3 24522.5 3514.19   5
  -4  -3   4 16236.3 2892.50   5
  -4   4   3 24036.4 3287.17   5
  -4   3   4 21266.7 3423.91   5
  -3   4   4 20060.5 3197.43   5
  -3   4  -4 22707.2 3243.05   3
  -4   4  -3 15927.1 2700.52   3
  -4  -4   4 22146.4 3862.74   4
   4  -4   4 16617.5 2796.80   2
  -4   4  -4 16129.6 2817.05   3
   4  -4  -4 18819.9 3368.88   6
  -4  -4  -4 18038.3 3799.17   6
  -4  -4   4 17392.2 2860.65   5
  -4   4   4 19547.0 3218.55   5
   0  -5   0 32783.8 4331.13   6
   0   0  -5 28492.0 3569.74   6
  -5   0   0 25175.3 3287.78   3
   0   5   0 27723.1 1671.20   5
  -1   0   5 13947.7 2623.20   5
   0  -5  -1 13282.7 2827.00   6
   0  -1   5 10653.6 2192.91   5
   0  -5   1 16822.4 2939.16   6
   0   1  -5 5946.65 1647.40   3
   5   0   1 11185.5 1772.61   1
   0  -1  -5 15188.0 2876.11   6
   0   1  -5 14064.9 2194.90   6
  -5  -1   0 8173.58 1877.11   3
   1   0  -5 15932.3 2378.84   6
   5   0   1 13933.3 1440.48   2
  -5  -1   0 13205.8 2281.30   4
  -1   0  -5 13159.6 2439.78   6
   1  -5   0 15308.1 3025.67   6
  -1  -5   0 16336.3 2965.37   6
   0   5  -1 14781.4 1979.35   1
  -5   0   1 14284.4 2446.15   5
  -5   0  -1 16553.6 2824.78   3
   1   5   0 15555.5 1550.80   5
  -5   0   1 14243.4 2058.65   3
  -5   1   0 14210.2 2311.33   3
  -1   0   5 6856.55 1305.59   3
   1   5   0 14700.9 2217.46   1
   1   5  -1 3361.77 951.650   1
  -1   5  -1 1643.94 1118.49   3
  -1   5   1 4116.12 816.712   5
  -1  -1   5 2656.59 1172.53   5
  -1   1   5 2051.52 1121.72   5
   1  -1   5 2822.91 947.566   4
   1  -1  -5 3522.59 1237.40   6
  -5  -1   1 1014.64 778.722   3
  -1   1  -5 386.933 1033.17   3
  -5  -1  -1 2776.94 957.328   4
  -5  -1  -1 1521.59 1116.71   3
  -1  -5   1 4624.63 1603.76   4
  -1  -5   1 4129.36 1460.26   6
   1  -5  -1 5659.51 2023.14   6
  -1  -5  -1 2214.17 1132.85   6
  -5   1  -1 3129.01 1205.09   3
   1   1  -5 3474.97 1060.88   6
  -1  -1  -5 3827.78 1561.48   6
  -5   1   1 3017.08 1080.86   3
   5  -1   1 3406.68 882.716   1
  -1  -1   5 1399.00 600.463   3
   5   1   1 2714.92 960.737   1
   1   5   1 3742.84 930.219   5
  -5  -1   1 3859.51 1395.17   5
  -5   1   1 2316.24 1061.08   5
   0  -5   2 33181.6 4195.80   4
   0   5  -2 17232.9 2677.44   3
   5   0   2 25783.0 2671.24   1
  -2   5   0 20814.6 3094.51   3
  -2  -5   0 25463.1 3708.83   6
  -5   0  -2 21751.4 1664.04   4
   0  -5  -2 26449.9 4126.52   6
   2   0  -5 22802.4 2296.42   6
  -5  -2   0 24093.9 3198.38   4
   0  -2  -5 25196.3 3893.65   6
   0  -2   5 22986.0 2993.01   4
  -5  -2   0 28652.8 3281.82   6
  -2   0  -5 21398.0 3438.88   3
  -5   0  -2 20657.8 3268.24   3
  -5   0   2 20274.5 2973.14   5
  -5   0   2 27656.3 2492.52   3
   2   5   0 26927.3 3030.76   1
  -2   0   5 25023.7 3667.11   5
   0  -2   5 22010.8 3253.70   5
  -5   2   0 23566.7 2989.53   3
  -2  -1   5 13588.4 2758.90   5
  -1  -2   5 14122.5 2711.49   5
  -2   1   5 12714.3 2629.31   5
  -1   5  -2 11178.6 2291.31   3
   1   5  -2 7280.75 1707.43   3
  -1   2   5 11494.9 2350.93   5
  -2  -5   1 17657.7 3108.06   4
  -5  -1  -2 12488.5 1430.93   4
  -5  -1   2 1030.44 810.163   3
  -5  -2  -1 14212.1 2170.56   4
   2  -1   5 13169.5 1426.58   4
  -1  -2  -5 11667.2 2841.46   6
  -5   1  -2 10006.0 2386.59   3
   2  -1  -5 13751.2 2094.10   6
   1  -2   5 12271.7 2026.04   4
  -5  -1  -2 11255.7 2542.75   3
   1  -2  -5 15189.3 2796.98   6
   2   1  -5 12362.7 1364.66   6
  -2   1  -5 8250.97 2004.39   3
   5  -1   2 14870.4 1976.72   2
   5   1   2 13664.1 2153.29   1
   1  -5  -2 14280.1 3037.38   6
  -1   2  -5 1789.59 1220.61   3
  -1  -5   2 14166.8 2817.41   4
   2  -5  -1 14445.6 3048.53   6
   5  -2   1 12668.4 1315.51   1
  -5  -1   2 16450.0 1588.51   6
  -1  -5  -2 10828.4 2685.16   6
  -2  -5  -1 13375.1 2799.52   6
   2   5  -1 13582.2 2068.16   1
  -5  -2   1 13287.2 2532.34   4
   2   5   1 16149.8 2551.12   1
  -1   5  -2 14603.2 1668.72   1
  -1  -2   5 12328.3 2305.22   4
  -2  -1  -5 11956.3 2645.25   6
  -2  -5   1 15610.3 2675.21   6
  -5  -2  -1 11244.6 2259.10   6
  -5   2  -1 10364.7 2209.58   3
  -5   2   1 10944.2 1981.22   5
  -5   1   2 12935.0 2292.46   5
  -2   5   1 14312.2 1520.28   5
  -5   1   2 15287.6 2093.49   3
  -1   5   2 12768.8 1923.02   5
  -5   2   1 13635.1 2245.79   3
  -5  -2   1 13060.4 2757.10   5
   5   2   1 9901.75 1894.47   1
  -5  -1   2 12950.2 2330.35   5
  -5  -2   1 18093.6 2194.90   6
  -2   5  -1 12149.6 2285.98   3
  -2   5  -2 19014.8 2919.94   3
  -5  -2  -2 21253.9 2237.86   4
   5  -2   2 20658.2 2470.26   2
   2  -2   5 21358.1 2045.36   4
  -2  -5   2 23893.4 3716.39   4
   2  -5  -2 24562.7 4150.67   6
   2  -2  -5 20855.4 2936.00   6
  -2  -5  -2 22789.3 3882.80   6
  -5  -2   2 19547.1 3312.56   4
   5   2   2 19415.3 2725.09   1
  -2  -2   5 20591.2 2977.75   2
  -2  -2  -5 16821.3 3490.17   6
  -5  -2  -2 16126.4 2932.87   6
  -5  -2   2 17028.2 2842.75   5
  -2   2  -5 28862.7 3610.23   3
  -5   2   2 18583.6 2710.20   5
  -5   2  -2 17219.5 2789.57   3
  -2  -2   5 18968.2 3207.16   5
  -2   5   2 22496.4 2508.34   5
  -2   2   5 17354.0 3085.16   5
  -5   2   2 26062.1 3005.60   3
  -3   0   5 10112.9 2490.52   5
   0  -3   5 8446.17 1964.92   5
   3   5   0 9041.91 1859.02   1
  -3   0  -5 6115.30 2151.48   3
  -5   0  -3 6310.61 2086.70   3
   0  -5   3 12101.8 2691.14   4
   0  -5  -3 10239.2 2682.49   6
  -3  -5   0 9629.46 2141.21   6
  -5  -3   0 10797.4 2207.99   4
  -5  -3   0 13675.1 2433.55   6
   0  -3  -5 8656.26 2610.27   6
   0  -3   5 9978.17 2169.10   4
   0   3  -5 9321.75 1502.17   3
  -5   3   0 9055.01 1999.62   3
   0   5  -3 10730.2 1933.93   3
   0  -3   5 9503.21 2293.13   2
  -3  -5   0 11518.6 2465.65   4
  -5   0   3 11853.4 2393.43   5
  -3   5   0 10689.6 2271.46   3
  -3  -1   5 4973.84 1805.60   5
   5  -1   3 6012.46 1517.35   2
  -1  -3   5 3499.76 1381.99   5
  -3   5   1 2521.98 1302.61   3
   5   3   1 4326.20 1369.65   1
  -3   1   5 4093.49 1654.83   5
   1  -3   5 3759.51 1280.94   5
  -1   5   3 4541.47 1397.94   5
  -1   3   5 2832.73 1279.00   5
   3   5   1 4869.82 1491.35   1
  -5  -1  -3 3528.42 1644.93   3
  -5  -3   1 6015.84 1321.72   6
  -3   1  -5 1306.63 1264.55   3
  -3  -5   1 6287.63 1802.70   4
  -1  -5   3 7748.31 2179.67   4
  -3  -5   1 6134.57 1621.09   6
  -5   1  -3 5570.30 1835.03   3
   1  -5  -3 4263.92 1873.18   6
   1  -3   5 3518.87 1206.77   4
  -1  -5  -3 4558.00 1858.33   6
   1  -3  -5 4209.15 1697.36   6
   3  -1  -5 6503.62 1386.17   6
  -3  -5  -1 4238.77 1694.95   6
  -1   3  -5 4847.98 1281.19   3
  -1  -3   5 3497.22 1509.89   4
  -5  -3  -1 7304.57 1724.07   4
  -5  -3  -1 4802.78 1680.27   6
  -3  -1  -5 3112.59 1312.29   6
  -5   1   3 5858.04 1224.98   3
  -5   3  -1 2523.09 1163.38   3
  -5   3   1 6075.82 1642.75   3
  -1  -3  -5 5608.61 2038.78   6
  -1   5  -3 4277.56 1422.68   3
  -1  -3   5 4349.55 1530.06   2
  -5  -3   1 4079.88 1582.40   4
  -3   5  -1 4425.36 1567.06   3
   1   5  -3 1608.37 1079.27   3
  -5   3   1 4446.93 1240.94   5
   1  -3   5 4447.32 1636.82   2
  -5  -1   3 5268.53 1610.27   5
  -5   1   3 4443.06 1475.39   5
  -3   2   5 10571.1 2483.04   5
   5   3   2 8404.44 1918.16   1
  -2   5   3 10931.5 2068.05   5
  -2   3   5 6931.38 1952.16   5
  -3   5   2 9433.12 2199.06   3
   2  -5  -3 10845.2 2783.47   6
   3  -2  -5 9054.58 1911.42   6
  -3   2  -5 11903.4 2336.59   3
  -3  -5   2 9508.75 2442.11   4
  -2  -5   3 11409.3 2731.23   4
  -2  -5  -3 9381.46 2609.66   6
  -3  -5  -2 8344.24 2441.02   6
  -2   3  -5 8994.63 1917.94   3
  -5   2  -3 8845.10 2268.51   3
   2  -3  -5 9905.89 2316.19   6
  -5  -3   2 9454.83 2357.78   4
  -3  -5   2 7891.51 1544.85   6
  -2  -3   5 8922.59 2292.57   4
  -2  -3  -5 12116.4 3220.01   6
  -5  -3  -2 9829.44 2466.68   6
  -3  -2  -5 8155.20 2319.18   6
  -5  -2  -3 9335.47 2353.04   6
  -2  -5   3 9787.20 1652.72   5
  -5   3  -2 7657.26 1820.42   3
   3  -5  -2 9127.30 2549.92   6
  -2   5  -3 8000.92 1863.34   3
  -2  -3   5 7330.03 1736.26   2
   5  -2   3 9630.59 1902.95   2
  -3   5  -2 10214.6 2127.15   3
  -5   3   2 9108.47 2124.67   3
  -3  -2   5 8266.49 1717.99   2
  -5  -3   2 9570.86 2320.64   5
   2  -3   5 8494.87 2176.12   2
  -5  -2   3 8321.49 1965.72   5
  -5   3   2 7048.23 1588.92   5
   2   5  -3 6056.61 1251.30   3
  -5   2   3 12545.6 2021.45   3
  -5   2   3 8465.43 2027.47   5
  -3   5   2 9595.00 1699.67   5
  -3  -2   5 12952.6 2819.31   5
  -2  -3   5 7802.42 2023.29   5
  -3   5   3 5477.34 1510.05   5
  -3   3   5 4603.35 1591.93   5
   3  -5  -3 7197.79 2324.85   6
   3  -3  -5 5062.26 1579.16   6
  -3  -5   3 2940.75 1529.90   4
  -3   3  -5 4274.58 1501.95   3
  -5  -3   3 5463.33 2002.91   4
  -3  -3   5 4385.15 1784.99   4
  -3  -3  -5 5087.26 2266.36   6
  -5  -3  -3 5321.04 2004.19   6
  -5   3  -3 2188.73 1250.49   3
   5  -3   3 5262.04 1458.97   2
  -3  -3   5 3349.38 1209.28   2
  -3  -5  -3 3737.95 1859.92   6
  -3   5  -3 4240.60 1395.10   3
  -5   3   3 4929.75 1561.83   3
   3  -3   5 4496.83 1591.46   2
  -3  -5   3 5483.66 1497.21   5
  -5  -3   3 4855.69 1685.20   5
  -5   3   3 4066.58 1393.34   5
  -3  -3   5 4847.31 1745.80   5
  -4   5   0 17136.8 2995.25   3
   0  -5   4 19053.2 3344.03   4
   0  -4   5 16877.5 2992.88   4
  -4  -5   0 18148.4 3022.64   6
  -4   0  -5 10639.6 2771.41   3
  -5  -4   0 19943.6 3139.81   6
  -5   0  -4 16525.5 2972.21   3
  -4  -5   0 16610.3 3015.50   4
   5   4   0 15470.4 2527.75   1
  -5  -4   0 14804.4 2805.95   4
   0  -5  -4 15741.6 3465.27   6
   0  -4  -5 13034.5 3199.87   6
   0  -4   5 12824.3 2674.84   2
  -4   0   5 19057.3 3482.13   5
   0   4  -5 13892.3 1959.63   3
   0  -4   5 13991.2 2186.82   5
   0   5  -4 14312.0 2061.47   3
   4   5   0 12471.3 2292.68   1
  -5   4   0 17313.0 2902.83   3
  -5   0   4 15176.7 2910.70   5
  -4   1   5 14064.3 2991.88   5
  -1   5   4 9657.75 2211.71   5
  -1   4   5 8792.26 2183.52   5
   4   5   1 12688.1 2299.85   1
  -5  -1  -4 6172.12 2122.14   3
  -4   1  -5 9788.69 2403.85   3
  -5  -4  -1 13097.4 2444.44   4
  -5   1  -4 7052.54 2383.04   3
   1  -4   5 11092.8 2229.08   4
  -4  -5   1 12252.4 2648.73   4
  -1  -5   4 13417.9 2903.70   4
  -4  -5   1 13419.0 2389.56   6
   1  -5  -4 10242.1 2678.10   6
   1  -4  -5 9127.78 2630.60   6
  -5  -4   1 10799.1 2443.44   4
  -1  -4   5 11534.0 2606.50   4
  -1  -5  -4 11801.8 3188.94   6
  -4  -5  -1 11027.4 2564.81   6
  -1  -4  -5 11047.0 3097.29   6
  -5  -4  -1 14380.1 2894.09   6
  -1   4  -5 8366.71 1707.16   3
  -4  -1  -5 9173.57 2387.21   6
  -1  -4   5 9871.65 2240.32   2
   5   4   1 9101.42 1934.80   1
   1  -4   5 9573.58 2243.07   2
  -1   5  -4 10065.2 1862.81   3
  -5   4  -1 12818.7 2396.63   3
  -4   5  -1 11020.1 2294.41   3
  -5   4   1 14306.3 2720.96   3
  -5   4   1 8723.83 1612.16   5
  -4   5   1 9370.53 2344.52   3
  -5  -1   4 11577.3 2474.87   5
  -5   1   4 13041.1 2906.50   5
  -4  -1   5 13246.1 2947.62   5
  -1  -4   5 10587.0 2053.29   5
  -5   4   2 16900.1 3060.95   3
  -4   2   5 14195.7 2969.11   5
   4  -2   5 10873.3 2434.27   2
  -2   4   5 11829.1 2528.97   5
  -4   2  -5 7379.60 2230.00   3
   2  -5  -4 12731.0 3109.10   6
   2  -4  -5 11206.9 2723.85   6
  -5   2  -4 10189.3 2687.68   3
  -4  -5   2 11843.2 2813.33   4
  -2  -5   4 12136.2 2902.10   4
  -5  -4   2 15232.9 3159.27   4
  -2  -4   5 13192.4 2906.16   4
  -2  -5  -4 12547.0 3192.43   6
  -4  -5  -2 12838.5 3195.86   6
  -2  -4  -5 14369.7 3506.33   6
  -5  -4  -2 11225.5 2779.50   6
  -2   4  -5 10692.3 2083.57   3
  -4  -2  -5 13092.6 3032.41   6
  -2  -4   5 10140.3 2208.25   2
  -5  -2  -4 8626.06 2528.34   6
  -5   4  -2 8038.94 1968.84   3
  -5   4   2 10329.5 1843.91   5
  -2   5  -4 13474.3 2358.58   3
   2  -4   5 13414.1 2714.93   2
  -4   5  -2 13374.3 2536.96   3
   5   4   2 12599.8 2343.27   1
  -2   5   4 14803.5 2585.15   5
   5  -2   4 14274.5 2562.63   2
  -5  -2   4 10369.6 2402.86   5
  -2  -4   5 11877.7 2362.02   5
  -4  -2   5 13322.2 2961.65   5
  -5   2   4 12440.9 2778.80   5
  -4   5   2 11499.8 2390.07   3
  -4   5   3 4801.30 1774.63   3
  -4   3   5 9712.25 2461.17   5
  -3   5   4 6960.55 1764.42   5
  -3   4   5 7059.11 2077.90   5
   3  -5  -4 4932.78 1844.74   6
   3  -4  -5 8240.81 2185.10   6
  -4  -5   3 7631.54 2284.64   4
  -3  -5   4 8565.47 2371.31   4
  -4   3  -5 5546.86 1861.27   3
  -5  -4   3 6849.16 2304.72   4
  -3  -5  -4 5736.36 2322.54   6
  -3  -4   5 6959.48 2206.56   4
  -4  -5  -3 6797.69 2362.09   6
  -5   3  -4 4111.91 1583.85   3
  -3  -4  -5 6005.85 2330.70   6
  -5  -4  -3 7117.28 2516.39   6
  -3   4  -5 7745.26 2116.97   3
  -5  -3   4 3953.46 1910.23   4
  -4  -3   5 5912.24 2080.90   4
  -4  -3  -5 8158.96 2748.25   6
  -5  -3  -4 7600.14 2377.52   6
  -5   4  -3 4465.52 1620.74   3
   5  -3   4 7945.11 1964.62   2
  -3   5  -4 7147.52 1823.15   3
   3  -4   5 7948.44 2097.17   2
  -4   5  -3 6854.93 1782.59   3
   4  -3   5 8663.29 2134.95   2
  -4  -5   3 8271.04 2009.12   5
  -5   4   3 7740.02 2029.13   3
  -5  -4   3 5999.06 1858.96   5
  -5  -3   4 6872.88 1849.45   5
  -3  -4   5 9702.80 2165.76   5
  -4  -3   5 5745.27 1767.95   5
  -5   4   3 5904.09 1587.24   5
  -5   3   4 7154.95 2100.53   5
  -4   4   5 6281.19 1871.22   5
  -4   5   4 1382.27 1014.86   3
  -4   4   5 1169.97 972.561   3
   4  -5  -4 9092.92 2581.52   6
   4  -4  -5 6168.60 1976.83   6
  -4  -5  -4 6500.67 2432.42   6
  -4   4  -5 4438.25 1718.73   3
  -5  -4  -4 5435.44 2248.49   6
  -5   4  -4 3278.33 1511.80   3
   4  -4   5 6922.74 2093.28   2
  -4   5  -4 5146.44 1688.20   3
  -4  -5   4 8138.59 2099.89   5
  -5  -4   4 5537.71 1799.89   5
  -5   4   4 5242.03 1673.99   3
  -4  -4   5 6659.15 1912.42   5
  -5   4   4 7904.01 2078.05   5
  -4   5   4 6280.56 1777.12   5
  -5   0  -5 1708.36 1640.12   3
  -5  -5   0 6058.56 1846.71   4
   0  -5   5 4143.09 1759.97   4
   5   5   0 5109.86 1479.89   1
   0  -5  -5 5260.47 2111.12   6
  -5   5   0 5940.65 1900.13   3
  -5   0   5 6872.99 2159.13   5
  -1   5   5 3465.49 1366.17   5
   5   5   1 4728.84 1457.15   1
  -5   1  -5 2138.63 1456.03   3
  -5  -5  -1 4930.07 1508.22   4
   1  -5   5 4796.37 1731.59   4
  -5  -5   1 4358.63 1646.89   4
  -1  -5   5 4313.99 1757.81   4
   1  -5  -5 3129.39 1976.10   6
  -1  -5  -5 2929.08 1870.34   6
  -5  -5  -1 2450.57 1397.71   6
  -5  -1  -5 2945.87 1427.59   6
  -1   5  -5 2601.70 977.055   3
  -5   5  -1 5240.30 1725.95   3
  -5   5   1 6285.92 1926.50   3
  -5  -1   5 4835.15 1791.61   5
  -5   1   5 4920.29 1973.88   5
  -2   5   5 6396.57 1875.46   5
  -5   2  -5 1045.68 1446.06   3
   2  -5  -5 7269.43 2348.83   6
  -5  -5   2 6013.45 2066.32   4
  -2  -5   5 2706.07 1436.94   4
  -2  -5  -5 6011.52 2432.02   6
  -5  -5  -2 5620.31 2135.82   6
  -5  -2  -5 3708.65 1782.44   6
   5   5   2 4237.83 1382.48   1
  -2   5  -5 4240.96 1381.14   3
  -5   5  -2 2946.81 1306.42   3
  -5   5   2 5330.93 1887.90   3
  -5  -2   5 3744.05 1591.37   5
   5  -2   5 2923.88 1286.34   2
  -5   2   5 6228.16 2154.93   5
  -3   5   5 3492.99 1427.88   5
   3  -5  -5 5582.84 2041.85   6
  -5  -5  -3 4665.48 2135.91   6
  -3   5  -5 1951.46 1237.78   3
   5  -3   5 5210.17 1848.81   2
  -5   5   3 3321.01 1343.15   3
  -5  -3   5 4717.02 1689.57   5
  -5   3   5 4979.90 1997.47   5
  -4   5   5 609.935 868.060   3
   4  -5  -5 3095.03 1618.39   6
  -5  -5   4 4333.38 1601.04   5
  -5   5   4 2673.81 1457.83   3
  -4   5   5 3221.63 1486.27   5
   0  -6   0 54643.2 6066.33   6
   0   0  -6 48991.0 4985.63   6
   0   0   6 41826.4 4604.66   5
   1   6   0 41483.1 3869.18   1
   1  -6   0 38453.1 5091.62   6
  -1  -6   0 36013.9 4841.28   6
   0   6  -1 38682.1 3455.29   1
   0  -6  -1 35378.3 4878.60   6
  -6  -1   0 7542.88 2342.70   3
   1   0  -6 34186.4 3714.28   6
   0  -1  -6 32158.1 4492.73   6
  -6  -1   0 33559.4 3956.93   4
  -6   0  -1 36808.3 3370.02   4
  -1   0  -6 32706.0 4173.45   6
   0   1  -6 31945.1 3599.37   6
  -6   0   1 28398.1 3644.69   5
  -6   0  -1 18582.0 3021.86   3
  -6   0   1 10267.8 2394.83   3
  -6   1   0 30370.8 3789.18   3
  -1   0   6 33729.0 4248.72   5
   0  -1   6 25973.5 3711.80   5
   6   0   1 31520.0 3177.95   1
   6   1   1 22523.0 2789.23   1
  -1   6  -1 15371.8 2902.59   3
  -1  -6   1 29855.4 4075.11   6
  -1   1  -6 4875.41 2152.52   3
   1  -6  -1 31650.0 4719.59   6
  -1  -6  -1 21039.8 3746.86   6
  -6  -1   1 2814.89 1312.58   3
  -6  -1  -1 9672.53 2477.08   3
  -6  -1  -1 23877.6 2826.90   4
   1  -1  -6 25508.7 3474.35   6
   1  -1   6 22864.5 2685.19   4
   1   1  -6 24645.4 2900.50   6
  -1  -1  -6 25334.9 3982.83   6
  -1   1  -6 25750.1 3348.86   6
   1   6  -1 27681.1 2989.81   1
  -6  -1   1 28165.8 3712.50   5
  -6   1   1 24282.7 3226.61   5
  -6   1  -1 22947.0 3190.51   3
  -6   1   1 23637.8 3128.45   3
   6  -1   1 24718.8 2529.93   1
  -1  -1   6 24566.6 3629.95   5
  -1   1   6 22646.7 3457.12   5
   6   0   2 34876.9 3333.37   1
   0   6  -2 20316.6 3122.35   3
  -2   6   0 34506.8 4065.67   3
  -2  -6   0 41363.9 4979.84   6
   0  -6  -2 32531.2 4941.41   6
  -6  -2   0 38110.6 4223.98   4
   0  -2  -6 38447.8 5099.97   6
   0  -2   6 29694.7 3541.07   4
  -6  -2   0 43515.0 4344.92   6
  -2   0  -6 33199.8 4200.65   6
   2   6   0 37185.6 3687.30   1
  -6   0  -2 19497.3 3718.45   3
  -6   0   2 34538.0 3983.98   5
   0   6  -2 40538.4 3381.17   1
  -6   2   0 37413.8 3990.29   3
  -2   0   6 33583.1 4406.87   5
   0  -2   6 34685.6 4299.67   5
  -1   6  -2 25101.8 3298.44   3
  -2   6  -1 26010.4 3468.51   3
  -2  -6   1 32943.9 4530.95   4
  -1  -6   2 32035.2 4600.97   4
   1   6  -2 12583.8 2355.20   3
   2  -6  -1 30759.4 4828.89   6
  -2  -6   1 26839.9 3822.66   6
   1  -6  -2 30958.8 4815.93   6
  -6  -2  -1 27441.7 3186.97   4
  -2  -6  -1 28634.7 4476.05   6
  -2   1  -6 7910.19 2603.75   3
  -1  -6  -2 26710.7 4448.55   6
  -6  -1  -2 13115.2 3049.83   3
   2  -1  -6 26119.8 3063.63   6
   1  -2   6 24381.6 2979.35   4
   1  -2  -6 27234.4 3961.74   6
  -1   2  -6 2321.55 1615.99   3
   1   6  -2 24496.5 2776.56   1
   6   1   2 23756.3 3001.72   1
  -6  -2   1 28019.2 3997.33   4
  -1  -2  -6 29116.9 4681.52   6
  -1  -2   6 23370.4 3357.99   4
  -2  -1  -6 24254.9 3895.62   6
  -6  -2  -1 29658.9 3868.75   6
  -6   2   1 20055.6 2888.04   5
  -6  -1   2 24936.1 3524.13   5
  -6   1   2 19633.0 3045.48   5
  -6   1  -2 20468.2 3400.43   3
  -6   1   2 30440.4 3081.55   3
  -6   2  -1 17579.3 3047.35   3
  -2  -1   6 27736.5 4041.01   5
  -1  -2   6 24272.2 3725.82   5
  -2   1   6 27283.5 3957.80   5
  -6   2   1 26793.8 3206.39   3
  -1   2   6 23971.8 3627.56   5
   1  -2   6 20231.9 3055.95   5
   2   6  -1 25180.4 3016.40   1
   6   2   1 23995.0 3029.79   1
  -2   6  -2 29148.7 3731.33   3
  -2  -6   2 31798.5 4611.52   4
   2  -6  -2 29197.1 4807.55   6
  -2  -6  -2 27825.9 4542.08   6
   2  -2  -6 25949.9 3399.33   6
  -6  -2   2 28283.7 4280.36   4
   6   2   2 21236.0 2931.38   1
  -6  -2  -2 23725.2 3779.23   6
  -2  -2   6 28570.4 3683.65   2
  -2  -2  -6 21918.5 4091.81   6
  -6  -2   2 27422.9 3756.43   5
  -6   2   2 18271.7 2729.54   5
  -6   2  -2 19487.2 3101.11   3
  -2  -2   6 25917.0 3960.81   5
  -2   2   6 23876.8 3771.01   5
  -6   2   2 29029.5 3268.11   3
  -3   0   6 13679.0 2892.26   5
   0   6  -3 15321.3 2481.95   3
  -3   6   0 18258.9 3012.39   3
  -3   0  -6 10102.2 2961.85   3
  -3  -6   0 21038.5 3491.86   6
  -6  -3   0 18845.7 3106.91   4
   0  -3   6 15804.2 2821.55   4
   0  -3  -6 23001.9 4252.43   6
  -6  -3   0 23875.6 3353.69   6
  -6   0  -3 13734.5 3244.75   3
   0  -3   6 19749.7 3433.38   2
   0  -6  -3 16614.0 3653.39   6
   3   6   0 20058.7 2795.81   1
   6   3   0 16861.9 2725.58   1
  -3   0  -6 16367.5 3020.57   6
  -6   0   3 16100.8 2806.54   5
   0  -3   6 18476.9 3088.23   5
  -6   3   0 17359.4 2803.91   3
  -3   6   1 14298.7 2786.86   3
  -3  -1   6 13817.0 2968.37   5
  -1  -3   6 15554.3 2940.62   5
  -3   6  -1 16309.3 2919.85   3
  -3   1   6 12448.9 2852.67   5
   1  -3   6 10565.3 2160.65   5
   3   6  -1 14677.4 2317.41   1
  -1   3   6 12854.0 2702.43   5
  -6  -3  -1 14082.9 2420.83   4
   3   6   1 14812.6 2520.57   1
  -3  -6   1 16935.2 3072.59   6
  -6  -1  -3 7657.40 2702.09   3
  -3   1  -6 3632.35 2060.49   3
   6  -1   3 14187.5 2193.88   2
  -3  -6   1 19297.8 3448.68   4
  -1  -6   3 17669.4 3534.60   4
  -1   3  -6 917.196 1116.12   3
  -6   1  -3 4812.55 2123.35   3
   1  -6  -3 16088.8 3585.85   6
  -1  -6  -3 13562.8 3240.63   6
  -3  -6  -1 18564.0 3599.11   6
   1  -3  -6 15247.8 3241.71   6
  -6  -3   1 14266.2 2841.66   4
  -1  -3   6 15105.0 2806.67   4
  -1  -3  -6 14415.2 3395.77   6
  -6  -3  -1 18257.4 3212.91   6
  -3  -1  -6 10411.1 2741.37   6
  -6   3   1 12794.0 2191.74   5
  -6   3  -1 10219.4 2214.80   3
   6   3   1 15203.8 2487.58   1
  -6   3   1 15739.7 2555.47   3
  -1  -3   6 14720.1 2773.24   2
   1   6  -3 8562.83 1793.06   3
  -6  -1   3 11726.1 2453.27   5
  -6   1   3 14284.5 2606.21   5
   1  -3   6 14168.6 2924.04   2
  -1   6  -3 15228.1 2419.03   3
  -2  -3   6 14515.8 2917.80   5
  -3   2   6 14704.9 2966.76   5
  -3   6   2 9399.75 2427.43   3
  -2   3   6 14311.9 2882.38   5
   2  -3   6 8946.89 1912.20   5
  -2  -6   3 22563.7 4014.49   4
   6  -2   3 14654.5 2245.72   2
  -3   2  -6 4587.98 1865.38   3
   3  -6  -2 17981.1 3840.81   6
  -3  -6   2 17004.2 3333.52   4
  -2   3  -6 1794.15 1195.26   3
   2  -6  -3 14736.2 3466.55   6
  -3  -2   6 13973.2 2489.76   2
   2  -3  -6 13115.7 2797.07   6
  -2  -6  -3 15958.7 3614.84   6
  -3  -6  -2 17341.3 3559.93   6
  -6   2  -3 10983.1 2542.59   3
  -6  -3   2 18364.2 3466.32   4
  -2  -3   6 11856.5 2696.78   4
  -2  -3  -6 12270.4 3298.00   6
  -6  -3  -2 14085.0 3005.95   6
  -3  -2  -6 11977.8 2992.95   6
  -6  -2   3 15937.7 3303.32   4
  -6   3  -2 9733.74 2184.84   3
  -6  -2  -3 9588.79 2527.99   6
  -6   3   2 13477.9 2275.75   5
  -2   6  -3 13506.4 2465.77   3
  -2  -3   6 10436.2 2200.51   2
  -3   6  -2 12409.5 2535.09   3
  -6  -3   2 16109.6 3009.36   5
  -6   3   2 19727.2 2836.10   3
  -6  -2   3 13877.8 2690.05   5
  -6   2   3 14009.5 2545.46   5
   2  -3   6 16913.0 3181.58   2
   6   3   2 12553.0 2303.65   1
  -3  -2   6 16805.7 3313.86   5
  -3   3   6 6838.61 2040.43   5
   3  -6  -3 7800.35 2523.56   6
  -3  -6   3 9565.38 2691.02   4
  -3   3  -6 510.856 997.954   3
  -3  -6  -3 9462.31 2803.98   6
  -6   3  -3 4801.75 1652.03   3
  -6  -3   3 5708.61 2041.68   4
  -3  -3   6 8875.38 2464.92   4
  -3  -3  -6 10825.2 3104.53   6
  -6  -3  -3 8383.38 2483.68   6
  -3  -3   6 7734.54 1836.24   2
  -3   6  -3 9143.08 2052.13   3
  -6  -3   3 5755.24 1862.82   5
   3  -3   6 8426.00 2185.93   2
  -6   3   3 6360.00 1690.89   5
  -3  -3   6 9740.60 2660.27   5
  -4   0  -6 7887.18 2699.88   3
   6   4   0 15949.1 2655.12   1
  -6   0  -4 3667.36 2395.04   3
  -4  -6   0 15751.4 3126.48   4
   0  -6   4 18569.1 3572.49   4
  -6  -4   0 15083.1 2942.67   4
  -4  -6   0 17858.8 3238.21   6
   0  -4   6 16357.0 2953.11   4
   0  -6  -4 14387.7 3537.25   6
   0  -4  -6 15517.3 3641.24   6
  -4   0  -6 11418.3 2597.46   6
   4   6   0 14853.6 2542.20   1
   0  -4   6 14679.0 2938.15   2
  -6   4   0 17902.9 2938.40   3
  -4   6   0 14501.8 2923.11   3
  -6   0   4 14200.2 2843.83   5
  -4   0   6 17261.8 3418.61   5
  -4   1   6 11104.1 2666.05   5
  -1   4   6 11241.0 2570.19   5
  -6  -1  -4 4397.98 2385.22   3
  -4   1  -6 3366.68 2264.04   3
   4   6  -1 10663.8 2101.91   1
  -6   1  -4 5539.54 2120.50   3
  -4  -6   1 15808.0 3240.87   4
  -6  -4  -1 11627.6 2360.67   4
  -1  -6   4 13542.5 3148.74   4
   6   4   1 11376.2 2224.52   1
   1  -6  -4 10146.0 2958.16   6
  -1  -6  -4 13501.8 3401.41   6
  -6  -4   1 11740.6 2695.61   4
   1  -4  -6 11924.2 3002.03   6
  -4  -6  -1 13967.0 3018.71   6
  -1  -4   6 11463.8 2620.74   4
  -1  -4  -6 14330.7 3688.55   6
  -6  -4  -1 16402.4 3146.43   6
  -4  -1  -6 11139.0 2769.17   6
  -6  -1  -4 9265.44 2556.12   6
  -1  -4   6 11901.3 2505.33   2
  -6   4  -1 14728.3 2595.52   3
  -1   6  -4 9402.60 2038.02   3
  -6   4   1 15075.0 2680.55   3
   1  -4   6 9482.61 2393.58   2
  -4   6  -1 13270.9 2675.76   3
  -6  -1   4 13917.8 2791.89   5
  -4   6   1 10789.9 2639.92   3
  -6   1   4 13379.9 2685.11   5
   4   6   1 11608.5 2279.05   1
  -4  -1   6 15561.8 3288.72   5
   6  -1   4 12758.8 2396.86   2
  -4   2   6 11032.1 2719.61   5
   4  -2   6 11289.9 2589.56   2
  -2   4   6 9570.66 2334.77   5
  -4   2  -6 586.941 1412.25   3
  -4  -6   2 14512.7 3156.29   4
  -2  -6   4 14152.0 3256.09   4
   2  -6  -4 11710.6 3115.24   6
  -6   2  -4 11817.4 2698.60   3
   2  -4  -6 13465.8 3089.99   6
  -2   4  -6 11683.8 2168.89   3
  -2  -6  -4 14148.0 3492.69   6
  -6  -4   2 13742.8 3074.13   4
  -4  -6  -2 12229.1 3100.57   6
  -2  -4   6 9763.56 2593.00   4
  -2  -4  -6 11856.1 3295.12   6
  -6  -4  -2 10521.0 2812.86   6
  -4  -2  -6 8800.56 2620.15   6
  -6  -2  -4 7376.16 2348.77   6
  -2  -4   6 8977.45 2176.65   2
  -6   4  -2 10540.5 2225.00   3
  -2   6  -4 11754.1 2244.55   3
   6   4   2 9280.53 2023.26   1
   2  -4   6 8882.53 2276.62   2
  -6   4   2 12120.9 2479.21   3
   6  -2   4 11483.8 2221.90   2
  -4   6  -2 9922.33 2237.52   3
  -6   4   2 9163.98 1791.47   5
  -6  -2   4 11099.2 2470.81   5
  -6   2   4 12086.3 2494.91   5
  -4   6   2 6372.32 2199.24   3
  -4  -2   6 12573.7 2973.51   5
  -2  -4   6 10558.2 2427.70   5
  -3   4   6 4697.69 1726.29   5
  -4   3  -6 1275.34 1118.72   3
  -3   4  -6 5436.70 1762.55   3
  -6  -4  -3 8305.14 2669.01   6
   6  -3   4 7529.48 1893.14   2
  -3   6  -4 7304.09 1856.93   3
  -6   4   3 6177.22 1907.39   3
  -6  -4   3 6087.02 2032.25   5
  -6   4   3 5824.69 1590.21   5
  -6   3   4 7904.56 1954.51   5
  -3  -4   6 8336.44 2087.34   5
  -4  -3   6 9554.85 2448.14   5
  -4  -4   6 6191.99 1959.09   5
   0   6   5 5743.83 1890.75   5
   0   5   6 2772.62 1498.50   5
  -5  -6   0 5432.32 2025.93   4
   0  -6   5 7760.70 2415.20   4
  -6  -5   0 6764.73 2063.60   4
   0  -5   6 4405.43 1600.56   4
   6  -1   5 3489.86 1477.45   2
  -1   5   6 4399.79 1676.69   5
  -6  -5  -1 4751.83 1684.95   4
  -1  -6   5 4935.65 2002.08   4
  -6  -5   1 3815.99 1810.08   4
  -1  -5   6 6784.11 2130.02   4
  -5  -6  -2 6513.09 2347.77   6
  -6  -5  -2 5394.43 2099.40   6
  -2   6  -5 3224.68 1256.02   3
   6  -2   5 3725.18 1421.39   2
   0   0   7 3054.12 1348.39   5
  -7   0   0 211.368 697.623   3
   0  -7   0 5320.11 2042.29   6
   0   0  -7 4640.58 1703.68   6
   0   7  -1 1809.28 1130.93   3
  -1   0   7 4328.16 1623.86   5
   0  -1   7 2854.01 1308.74   5
   0   1   7 2203.36 1145.99   5
  -7  -1   0 360.337 763.099   3
  -7   0  -1 2046.67 1385.67   3
  -1  -7   0 4002.22 1764.34   6
   0  -7  -1 3042.14 1673.63   6
  -7   1   0 3647.31 1419.09   3
   0  -1  -7 3259.62 1523.83   6
  -1   0  -7 3382.33 1493.52   6
  -1  -1   7 2136.05 1256.03   5
  -1   1   7 1720.35 1175.65   5
   1  -1   7 899.422 830.760   5
  -7  -1  -1-127.216 775.236   3
  -1  -7   1 2030.45 1387.67   6
   1  -7  -1 2424.46 1555.02   6
  -1  -7  -1 1836.67 1410.62   6
  -7   1  -1 2788.65 1349.00   3
  -7   1   1 2510.34 1096.58   3
  -1  -1  -7 1685.84 1331.72   6
  -7  -1   1 2986.81 1270.86   4
  -1   1  -7 1937.19 1116.43   6
  -7   1   1 1828.84 1009.73   5
   1   7  -1 2582.46 1074.44   1
   7   1   1 2719.23 1096.85   1
  -1   7  -1 1704.00 1160.44   3
  -2   0   7 4425.46 1838.41   5
   0  -2   7 2959.49 1366.99   5
   0   2   7 2523.81 1188.37   5
  -7   0  -2 1796.10 1398.75   3
  -2  -7   0 3778.21 1796.77   6
   0  -7  -2 6660.49 2321.63   6
  -7  -2   0 4175.33 1649.66   4
   0  -2  -7 3708.99 1773.31   6
  -7   2   0 4666.53 1570.22   3
  -2   0  -7 5617.19 1905.21   6
   7   2   0 4941.65 1507.08   1
   2   7   0 3976.02 1323.28   1
  -7   0   2 3503.04 1417.94   5
   0   7  -2 2377.93 1165.65   3
  -2   7   0 2300.56 1210.24   3
   1   7  -2 1793.07 924.134   3
  -2  -1   7 3624.80 1624.21   5
  -1  -2   7 4317.91 1659.92   5
  -2   1   7 4887.20 1824.53   5
  -1   2   7 2832.17 1378.13   5
  -2   7   1 757.072 1012.43   3
   1  -2   7 1757.69 1090.83   5
   2   7  -1 3343.89 1189.62   1
  -7  -1  -2 1407.36 1200.05   3
   1   7  -2 3336.61 1125.55   1
  -2  -7   1 3379.49 1556.46   6
  -7   1  -2 526.121 1105.27   3
   1  -7  -2 4281.57 2141.96   6
  -2  -7  -1 1664.18 1283.77   6
  -1  -7  -2 5121.12 2121.73   6
   1  -2  -7 3183.13 1589.31   6
  -7   2  -1 2669.47 1343.52   3
  -7  -2   1 3725.66 1663.98   4
  -1  -2  -7 2916.09 1645.58   6
  -1  -2   7 3164.62 1344.79   4
  -7   2   1 3567.44 1254.19   3
  -2  -1  -7 3559.92 1649.15   6
  -7  -2  -1 2573.80 1322.15   6
  -2   1  -7 4998.13 1711.66   6
  -1   2  -7 2836.61 1180.93   6
   7   1   2 2868.56 1032.97   1
   7   2   1 2472.90 1142.42   1
  -7   2   1 2421.91 1050.22   5
  -7  -1   2 2616.20 1260.92   5
  -7   1   2 1543.95 936.790   5
  -1   7  -2 1788.61 1008.11   3
  -2   7  -1 2706.68 1225.92   3
  -2  -2   7 2540.52 1338.65   5
  -2  -2   7 2617.93 1294.69   2
   2  -2   7 1681.26 1038.01   5
   2   7  -2 3853.56 1249.91   1
  -2   2  -7 1881.39 1137.17   3
  -2  -7  -2 4320.01 1948.07   6
  -7   2  -2 2191.45 1213.30   3
  -2  -2  -7 4351.46 2075.23   6
  -7  -2   2 5003.62 1905.61   4
  -2  -2   7 4748.03 1795.05   4
  -7  -2  -2 3873.04 1601.11   6
   7   2   2 3496.92 1160.06   1
  -2   7  -2 4915.93 1571.95   3
  -7   2   2 4067.28 1426.02   5
   3   7   0 2656.55 1133.62   1
   0  -3   7 3188.55 1332.96   5
  -7   0  -3 1781.73 1519.81   3
   7   3   0 1883.42 1046.97   1
  -3  -7   0 3630.08 1706.60   6
   0  -3  -7 4083.09 1987.78   6
  -3   0  -7 2447.32 1304.40   6
  -7   3   0 2052.71 1175.53   3
   0   7  -3 1407.54 829.724   3
   0  -3   7 4137.86 1778.31   2
  -1  -3   7 2261.89 1159.76   5
  -3   1  -7-223.411 761.939   3
  -7  -1  -3 1806.75 1554.32   3
  -3  -7  -1 1812.01 1467.45   6
   1  -3  -7 1383.98 1211.88   6
   3   7  -1 1558.73 886.559   1
  -7  -3   1 2819.63 1500.49   4
  -1  -3   7 2590.88 1310.25   4
  -1  -3  -7 2019.26 1453.30   6
  -7   3  -1 2880.10 1372.57   3
   7   3   1 984.473 793.129   1
  -3  -1  -7 2574.00 1471.09   6
  -3   1  -7 2218.62 1234.08   6
  -7  -1  -3 2290.27 1401.90   6
  -7   3   1 2289.70 1093.16   3
  -1   7  -3 3260.28 1208.09   3
  -1  -3   7 2399.29 1277.53   2
  -2  -3   7 2259.27 1399.58   5
  -3   2  -7 387.006 940.824   3
  -3  -7  -2 3559.26 1885.94   6
   2   7  -3 2610.92 997.150   1
  -7  -3   2 3037.95 1702.37   4
  -2  -3   7 3109.33 1560.18   4
  -7  -3  -2 2465.38 1345.38   6
  -7  -2  -3 1571.26 1293.96   6
   7   3   2 2986.29 1233.17   1
  -2   7  -3 2474.09 1230.10   3
  -2  -3   7 2582.64 1183.38   2
   3   7  -2 2000.35 950.331   1
  -7   3   2 3273.97 1277.27   5
  -3   3  -7 409.724 898.928   3
  -4  -7  -1 2905.97 1742.03   6
   1  -4  -7 4273.53 2079.00   6
  -1  -4   7 2419.86 1355.24   4
  -7   4   2 3724.87 1424.72   3
  -8   0  -1 479.232 1139.23   3
  -8   1   0 2387.60 1314.61   3
  -8  -1  -1 1787.82 1260.08   3
  -1  -1  -8 6962.21 2254.12   6
  -8   2   0 5612.73 1642.74   3
   0   0   0    0.00    0.00   0

TITL 300-bcorr2 in Pm-3m
REM Pm-3m (#221 in standard setting)
CELL 0.71073   5.969764   5.969764   5.969764  90.0000  90.0000  90.0000
ZERR    1.00   0.000188   0.000188   0.000188   0.0000   0.0000   0.0000
LATT  1
SYMM -x,-y, z
SYMM -x, y,-z
SYMM  x,-y,-z
SYMM  z, x, y
SYMM  z,-x,-y
SYMM -z,-x, y
SYMM -z, x,-y
SYMM  y, z, x
SYMM -y, z,-x
SYMM  y,-z,-x
SYMM -y,-z, x
SYMM  y, x,-z
SYMM -y,-x,-z
SYMM  y,-x, z
SYMM -y, x, z
SYMM  x, z,-y
SYMM -x, z, y
SYMM -x,-z,-y
SYMM  x,-z, y
SYMM  z, y,-x
SYMM  z,-y, x
SYMM -z, y, x
SYMM -z,-y,-x
SFAC C H N Br Pb
UNIT 1.00 5.00 2.00 3.00 1.00
TREF
HKLF 4
END
;
_shelx_hkl_checksum              40758
_shelx_shelxl_version_number     2014/7
_olex2_submission_special_instructions 'No special instructions were received'
_oxdiff_exptl_absorpt_empirical_details
;
Empirical correction (ABSPACK) includes:
- Absorption correction using spherical harmonics
- Frame scaling
;
_oxdiff_exptl_absorpt_empirical_full_max 1.636
_oxdiff_exptl_absorpt_empirical_full_min 0.628
_oxdiff_exptl_absorpt_spherical_max 0.083
_oxdiff_exptl_absorpt_spherical_min 0.056
loop_
_space_group_symop_operation_xyz
'x, y, z'
'-x, -y, z'
'-x, y, -z'
'x, -y, -z'
'z, x, y'
'z, -x, -y'
'-z, -x, y'
'-z, x, -y'
'y, z, x'
'-y, z, -x'
'y, -z, -x'
'-y, -z, x'
'y, x, -z'
'-y, -x, -z'
'y, -x, z'
'-y, x, z'
'x, z, -y'
'-x, z, y'
'-x, -z, -y'
'x, -z, y'
'z, y, -x'
'z, -y, x'
'-z, y, x'
'-z, -y, -x'
'-x, -y, -z'
'x, y, -z'
'x, -y, z'
'-x, y, z'
'-z, -x, -y'
'-z, x, y'
'z, x, -y'
'z, -x, y'
'-y, -z, -x'
'y, -z, x'
'-y, z, x'
'y, z, -x'
'-y, -x, z'
'y, x, z'
'-y, x, -z'
'y, -x, -z'
'-x, -z, y'
'x, -z, -y'
'x, z, y'
'-x, z, -y'
'-z, -y, x'
'-z, y, -x'
'z, -y, -x'
'z, y, x'
loop_
_atom_site_label
_atom_site_type_symbol
_atom_site_fract_x
_atom_site_fract_y
_atom_site_fract_z
_atom_site_U_iso_or_equiv
_atom_site_adp_type
_atom_site_occupancy
_atom_site_site_symmetry_order
_atom_site_calc_flag
_atom_site_refinement_flags_posn
_atom_site_refinement_flags_adp
_atom_site_refinement_flags_occupancy
_atom_site_disorder_assembly
_atom_site_disorder_group
Pb1 Pb 0.5000 0.5000 0.5000 0.04113(17) Uani 1 48 d S T P . .
Br2 Br 0.5000 0.0000 0.5000 0.0857(5) Uani 1 16 d S T P . .
C1 C -0.079(4) -0.014(7) -0.022(5) 0.024(12) Uiso 0.0208 1 d . . . A -1
H1 H -0.2069 -0.1026 -0.0096 0.029 Uiso 0.0208 1 calc R . . A -1
N2 N -0.038(9) 0.122(12) 0.141(9) 0.024(12) Uiso 0.0208 1 d G . . A -1
H2A H 0.0782 0.2069 0.1362 0.029 Uiso 0.0208 1 calc R . . A -1
H2B H -0.1267 0.1276 0.2544 0.029 Uiso 0.0208 1 calc RS T P A -1
N3 N 0.040(7) -0.038(11) -0.201(6) 0.024(12) Uiso 0.0208 1 d G . . A -1
H3A H 0.1596 0.0408 -0.2186 0.029 Uiso 0.0208 1 calc R . . A -1
H3B H 0.0008 -0.1327 -0.3016 0.029 Uiso 0.0208 1 calc RS T P A -1
loop_
_atom_site_aniso_label
_atom_site_aniso_U_11
_atom_site_aniso_U_22
_atom_site_aniso_U_33
_atom_site_aniso_U_23
_atom_site_aniso_U_13
_atom_site_aniso_U_12
Pb1 0.04113(17) 0.04113(17) 0.04113(17) 0.000 0.000 0.000
Br2 0.1093(8) 0.0384(7) 0.1093(8) 0.000 0.000 0.000
loop_
_atom_type_symbol
_atom_type_description
_atom_type_scat_dispersion_real
_atom_type_scat_dispersion_imag
_atom_type_scat_source
C C 0.0033 0.0016 'International Tables Vol C Tables 4.2.6.8 and 6.1.1.4'
H H 0.0000 0.0000 'International Tables Vol C Tables 4.2.6.8 and 6.1.1.4'
N N 0.0061 0.0033 'International Tables Vol C Tables 4.2.6.8 and 6.1.1.4'
Br Br -0.2901 2.4595 'International Tables Vol C Tables 4.2.6.8 and 6.1.1.4'
Pb Pb -3.3944 10.1111 'International Tables Vol C Tables 4.2.6.8 and 6.1.1.4'
loop_
_exptl_crystal_face_index_h
_exptl_crystal_face_index_k
_exptl_crystal_face_index_l
_exptl_crystal_face_perp_dist
-6 -4 4 0.0418
1 -7 -4 0.0377
-3 3 7 0.0686
3 -2 -7 0.0589
-8 1 2 0.0399
6 6 0 0.0767
0 -8 3 0.0399
5 -5 4 0.0324
5 -7 0 0.0458
5 6 -4 0.0825
-6 4 -4 0.0754
-1 8 -3 0.0961
8 -1 -3 0.0760
loop_
_geom_angle_atom_site_label_1
_geom_angle_atom_site_label_2
_geom_angle_atom_site_label_3
_geom_angle
_geom_angle_site_symmetry_1
_geom_angle_site_symmetry_3
Br2 Pb1 Br2 90.0 9_655 .
Br2 Pb1 Br2 90.0 . 5
Br2 Pb1 Br2 90.0 . 5_556
Br2 Pb1 Br2 180.0 5 5_556
Br2 Pb1 Br2 90.0 1_565 5
Br2 Pb1 Br2 90.0 9_655 5_556
Br2 Pb1 Br2 90.0 9_655 1_565
Br2 Pb1 Br2 90.0 1_565 5_556
Br2 Pb1 Br2 180.0 9_655 9
Br2 Pb1 Br2 90.0 . 9
Br2 Pb1 Br2 180.0 . 1_565
Br2 Pb1 Br2 90.0 5 9
Br2 Pb1 Br2 90.0 5_556 9
Br2 Pb1 Br2 90.0 9_655 5
Br2 Pb1 Br2 90.0 1_565 9
Pb1 Br2 Pb1 180.0 1_545 .
N2 C1 H1 117.1 . .
N2 C1 N3 125.9 . .
N3 C1 H1 117.1 . .
C1 N2 H2A 120.0 . .
C1 N2 H2B 120.0 . .
H2A N2 H2B 120.0 . .
C1 N3 H3A 120.0 . .
C1 N3 H3B 120.0 . .
H3A N3 H3B 120.0 . .
loop_
_geom_bond_atom_site_label_1
_geom_bond_atom_site_label_2
_geom_bond_distance
_geom_bond_site_symmetry_2
Pb1 Br2 2.98488(10) 9_655
Pb1 Br2 2.98488(10) 1_565
Pb1 Br2 2.98488(10) 5_556
Pb1 Br2 2.98488(10) 9
Pb1 Br2 2.98488(10) 5
Pb1 Br2 2.98488(10) .
Br2 Pb1 2.98488(10) 1_545
C1 H1 0.9300 .
C1 N2 1.2904 .
C1 N3 1.2922 .
N2 H2A 0.8600 .
N2 H2B 0.8600 .
N3 H3A 0.8600 .
N3 H3B 0.8600 .
loop_
_exptl_oxdiff_crystal_face_indexfrac_h
_exptl_oxdiff_crystal_face_indexfrac_k
_exptl_oxdiff_crystal_face_indexfrac_l
_exptl_oxdiff_crystal_face_x
_exptl_oxdiff_crystal_face_y
_exptl_oxdiff_crystal_face_z
-6.1464 -4.3706 3.7173 0.7598 -0.0997 0.6425
0.5090 -7.4530 -4.0418 -0.2092 0.7174 0.6791
-2.5623 3.4442 7.4687 0.4886 -0.8941 -0.0936
2.5670 -2.4462 -7.4597 -0.4806 0.8550 -0.0181
-7.9598 1.2719 2.4237 0.9907 -0.1302 -0.0387
5.7395 6.1149 0.4645 -0.6075 -0.4178 -0.6755
0.3865 -7.9945 2.6177 -0.0559 0.0076 0.9984
4.9964 -5.3673 4.1611 -0.5378 -0.3698 0.7576
5.2996 -6.5442 0.3509 -0.6652 0.0876 0.7415
4.9496 5.6782 -3.7379 -0.6097 0.0799 -0.7886
-5.8437 4.3875 -4.2026 0.6275 0.4314 -0.6482
-0.5890 8.0050 -2.5486 0.0811 -0.0109 -0.9966
8.0207 -1.0181 -2.9743 -1.0076 0.1797 -0.0112
