#------------------------------------------------------------------------------
#$Date: 2017-04-22 05:22:27 +0300 (Sat, 22 Apr 2017) $
#$Revision: 195684 $
#$URL: file:///home/coder/svn-repositories/cod/cif/1/54/57/1545783.cif $
#------------------------------------------------------------------------------
#
# This file is available in the Crystallography Open Database (COD),
# http://www.crystallography.net/
#
# All data on this site have been placed in the public domain by the
# contributors.
#
data_1545783
loop_
_publ_author_name
'Pramanik, Titas'
'Srinivas, Pavan Mysore'
'Tayur, Guru Row N.'
_publ_section_title
;
 FDHALO17: Do halogen bonds dictate the packing preferences in solid
 solutions?
;
_journal_name_full               'Faraday Discuss.'
_journal_paper_doi               10.1039/C7FD00084G
_journal_year                    2017
_chemical_formula_moiety         'C7 H4 Br Cl O2'
_chemical_formula_sum            'C7 H4 Br Cl O2'
_chemical_formula_weight         235.46
_chemical_name_systematic
'4-bromo-2-chlorobenzoic acid/2-bromo-4-chlorobenzoic acid'
_space_group_crystal_system      monoclinic
_space_group_IT_number           14
_space_group_name_Hall           '-P 2yn'
_space_group_name_H-M_alt        'P 1 21/n 1'
_symmetry_space_group_name_Hall  '-P 2yn'
_symmetry_space_group_name_H-M   'P 1 21/n 1'
_atom_sites_solution_hydrogens   geom
_audit_creation_method           SHELXL-2016/6
_audit_update_record
;
2017-04-18 deposited with the CCDC.
2017-04-21 downloaded from the CCDC.
;
_cell_angle_alpha                90
_cell_angle_beta                 105.819(9)
_cell_angle_gamma                90
_cell_formula_units_Z            4
_cell_length_a                   7.2271(7)
_cell_length_b                   8.9480(7)
_cell_length_c                   12.1887(11)
_cell_measurement_reflns_used    1979
_cell_measurement_temperature    100(2)
_cell_measurement_theta_max      27.4960
_cell_measurement_theta_min      2.7960
_cell_volume                     758.37(12)
_computing_structure_refinement  'SHELXL-2016/6 (Sheldrick, 2016)'
_diffrn_ambient_temperature      100(2)
_diffrn_measured_fraction_theta_full 1.000
_diffrn_measured_fraction_theta_max 1.000
_diffrn_measurement_device_type  'Xcalibur, Eos, Nova'
_diffrn_radiation_type           MoK\a
_diffrn_radiation_wavelength     0.71073
_diffrn_reflns_av_R_equivalents  0.0569
_diffrn_reflns_av_unetI/netI     0.0700
_diffrn_reflns_Laue_measured_fraction_full 1.000
_diffrn_reflns_Laue_measured_fraction_max 1.000
_diffrn_reflns_limit_h_max       9
_diffrn_reflns_limit_h_min       -9
_diffrn_reflns_limit_k_max       10
_diffrn_reflns_limit_k_min       -11
_diffrn_reflns_limit_l_max       15
_diffrn_reflns_limit_l_min       -15
_diffrn_reflns_number            5398
_diffrn_reflns_point_group_measured_fraction_full 1.000
_diffrn_reflns_point_group_measured_fraction_max 1.000
_diffrn_reflns_theta_full        25.242
_diffrn_reflns_theta_max         27.482
_diffrn_reflns_theta_min         2.863
_exptl_absorpt_coefficient_mu    5.710
_exptl_crystal_colour            Colorless
_exptl_crystal_density_diffrn    2.062
_exptl_crystal_description       BLOCK
_exptl_crystal_F_000             456
_exptl_crystal_recrystallization_method
'Re-crystallisation from solvent: Methanol'
_refine_diff_density_max         0.577
_refine_diff_density_min         -0.486
_refine_diff_density_rms         0.130
_refine_ls_extinction_method     none
_refine_ls_goodness_of_fit_ref   1.100
_refine_ls_hydrogen_treatment    constr
_refine_ls_matrix_type           full
_refine_ls_number_parameters     107
_refine_ls_number_reflns         1737
_refine_ls_number_restraints     4
_refine_ls_restrained_S_all      1.100
_refine_ls_R_factor_all          0.0618
_refine_ls_R_factor_gt           0.0458
_refine_ls_shift/su_max          0.001
_refine_ls_shift/su_mean         0.000
_refine_ls_structure_factor_coef Fsqd
_refine_ls_weighting_details
'w=1/[\s^2^(Fo^2^)+(0.0235P)^2^+0.7369P] where P=(Fo^2^+2Fc^2^)/3'
_refine_ls_weighting_scheme      calc
_refine_ls_wR_factor_gt          0.0865
_refine_ls_wR_factor_ref         0.0947
_reflns_Friedel_coverage         0.000
_reflns_number_gt                1374
_reflns_number_total             1737
_reflns_threshold_expression     'I > 2\s(I)'
_cod_data_source_file            c7fd00084g2.cif
_cod_data_source_block           shelx
_cod_database_code               1545783
_shelx_shelxl_version_number     2016/6
_shelx_space_group_comment
;
The symmetry employed for this shelxl refinement is uniquely defined
by the following loop, which should always be used as a source of
symmetry information in preference to the above space-group names.
They are only intended as comments.
;
_shelx_res_file
;
TITL red in P2(1)/n
    shelx.res
    created by SHELXL-2016/6 at 15:54:50 on 17-Apr-2017
CELL  0.71073   7.2271   8.9480  12.1887   90.000  105.819   90.000
ZERR     4.00   0.0007   0.0007   0.0011    0.000    0.009    0.000
LATT   1
SYMM  1/2 - X, 1/2 + Y, 1/2 - Z
SFAC  C    H    O    CL   BR
UNIT  28 16 8 4 4
MERG   2
EADP BR1 CL2
EADP BR2 CL1
DFIX 1.900 0.005 C5 BR2
DFIX 1.900 0.005 C3 BR1
DFIX 1.740 0.005 C3 CL2
DFIX 1.740 0.005 C5 CL1
FMAP   2
PLAN   20
ACTA
LIST   3
L.S.   5
WGHT    0.023500    0.736900
FVAR       2.14301   0.75205
PART    1
BR1   5    0.389317    0.121498    0.241334    21.00000    0.03351    0.01867 =
         0.01423    0.00130    0.00437    0.00075
CL1   4    0.079744   -0.322408   -0.049742    21.00000    0.02329    0.00691 =
         0.03880   -0.00756    0.00927   -0.00048
PART    2
CL2   4    0.383647    0.131099    0.225118   -21.00000    0.03351    0.01867 =
         0.01423    0.00130    0.00437    0.00075
BR2   5    0.087159   -0.343229   -0.055628   -21.00000    0.02329    0.00691 =
         0.03880   -0.00756    0.00927   -0.00048
PART    0
O1    3    0.410557    0.359752   -0.092644    11.00000    0.04014    0.01635 =
         0.02227    0.00388    0.00757   -0.00431
O2    3    0.445378    0.369412    0.094553    11.00000    0.04289    0.01710 =
         0.02554   -0.00672    0.00988   -0.01123
AFIX  83
H2    2    0.486474    0.452666    0.085677    11.00000   -1.50000
AFIX   0
C1    1    0.396161    0.301873   -0.000585    11.00000    0.01225    0.01295 =
         0.01592    0.00162    0.00354    0.00207
C2    1    0.316434    0.147098   -0.006499    11.00000    0.01523    0.01520 =
         0.01573    0.00114    0.00382    0.00028
C3    1    0.307219    0.059079    0.087506    11.00000    0.01876    0.01700 =
         0.01651   -0.00125    0.00494    0.00178
C6    1    0.176301   -0.059740   -0.129848    11.00000    0.01960    0.01872 =
         0.02006   -0.00455    0.00582    0.00034
AFIX  43
H6    2    0.130396   -0.099592   -0.202690    11.00000   -1.20000
AFIX   0
C4    1    0.238134   -0.084831    0.074970    11.00000    0.01748    0.01666 =
         0.02181    0.00299    0.00881    0.00180
AFIX  43
H4    2    0.234717   -0.142066    0.138077    11.00000   -1.20000
AFIX   0
C7    1    0.248670    0.083061   -0.114220    11.00000    0.01453    0.01832 =
         0.02201    0.00024    0.00679    0.00192
AFIX  43
H7    2    0.252562    0.139004   -0.177857    11.00000   -1.20000
AFIX   0
C5    1    0.173399   -0.142416   -0.035023    11.00000    0.01620    0.01293 =
         0.03152    0.00001    0.00767    0.00181
HKLF    4




REM  red in P2(1)/n
REM R1 =  0.0458 for    1374 Fo > 4sig(Fo)  and  0.0618 for all    1737 data
REM    107 parameters refined using      4 restraints

END

WGHT      0.0235      0.7397

REM Highest difference peak  0.577,  deepest hole -0.486,  1-sigma level  0.130
Q1    1   0.2531  0.1455  0.2367  11.00000  0.05    0.58
Q2    1   0.5239  0.1177  0.2419  11.00000  0.05    0.54
Q3    1   0.4810  0.2179  0.2190  11.00000  0.05    0.49
Q4    1   0.4431  0.4525 -0.1000  11.00000  0.05    0.49
Q5    1   0.2793  0.1169 -0.0518  11.00000  0.05    0.48
Q6    1   0.3814 -0.1989 -0.0606  11.00000  0.05    0.43
Q7    1  -0.0814 -0.2137  0.0008  11.00000  0.05    0.42
Q8    1   0.2042 -0.3315 -0.0681  11.00000  0.05    0.42
Q9    1   0.0580 -0.2371 -0.0372  11.00000  0.05    0.42
Q10   1   0.0462 -0.0981 -0.2404  11.00000  0.05    0.41
Q11   1   0.3233 -0.0288 -0.2642  11.00000  0.05    0.40
Q12   1   0.1408  0.0421 -0.1241  11.00000  0.05    0.40
Q13   1  -0.0146 -0.3262 -0.1677  11.00000  0.05    0.40
Q14   1   0.3327 -0.2125  0.0984  11.00000  0.05    0.39
Q15   1   0.3057  0.1248  0.0404  11.00000  0.05    0.39
Q16   1   0.4490  0.4332 -0.1771  11.00000  0.05    0.39
Q17   1  -0.0013 -0.2131  0.0884  11.00000  0.05    0.39
Q18   1   0.1839 -0.1205 -0.2314  11.00000  0.05    0.38
Q19   1  -0.1074 -0.1412 -0.2047  11.00000  0.05    0.38
Q20   1   0.5199  0.0136  0.2385  11.00000  0.05    0.37
;
_shelx_res_checksum              1437
loop_
_space_group_symop_operation_xyz
'x, y, z'
'-x+1/2, y+1/2, -z+1/2'
'-x, -y, -z'
'x-1/2, -y-1/2, z-1/2'
loop_
_atom_site_label
_atom_site_type_symbol
_atom_site_fract_x
_atom_site_fract_y
_atom_site_fract_z
_atom_site_U_iso_or_equiv
_atom_site_adp_type
_atom_site_occupancy
_atom_site_site_symmetry_order
_atom_site_calc_flag
_atom_site_refinement_flags_posn
_atom_site_refinement_flags_adp
_atom_site_refinement_flags_occupancy
_atom_site_disorder_assembly
_atom_site_disorder_group
Br1 Br 0.3893(5) 0.1215(3) 0.24133(9) 0.0226(3) Uani 0.752(2) 1 d D . P A 1
Cl1 Cl 0.080(3) -0.3224(8) -0.0497(19) 0.0228(11) Uani 0.752(2) 1 d D . P A 1
Cl2 Cl 0.384(4) 0.131(3) 0.2251(8) 0.0226(3) Uani 0.248(2) 1 d D . P A 2
Br2 Br 0.087(3) -0.3432(10) -0.056(2) 0.0228(11) Uani 0.248(2) 1 d D . P A 2
O1 O 0.4106(4) 0.3598(3) -0.0926(3) 0.0264(8) Uani 1 1 d . . . . .
O2 O 0.4454(5) 0.3694(4) 0.0946(3) 0.0284(8) Uani 1 1 d . . . . .
H2 H 0.486474 0.452666 0.085677 0.043 Uiso 1 1 calc R U . . .
C1 C 0.3962(5) 0.3019(5) -0.0006(4) 0.0138(9) Uani 1 1 d . . . . .
C2 C 0.3164(6) 0.1471(5) -0.0065(4) 0.0155(9) Uani 1 1 d . . . . .
C3 C 0.3072(6) 0.0591(5) 0.0875(3) 0.0174(9) Uani 1 1 d D . . . .
C6 C 0.1763(6) -0.0597(5) -0.1298(4) 0.0194(10) Uani 1 1 d . . . . .
H6 H 0.130396 -0.099592 -0.202690 0.023 Uiso 1 1 calc R U . . .
C4 C 0.2381(6) -0.0848(5) 0.0750(4) 0.0180(9) Uani 1 1 d . . . . .
H4 H 0.234717 -0.142066 0.138077 0.022 Uiso 1 1 calc R U . . .
C7 C 0.2487(6) 0.0831(5) -0.1142(4) 0.0179(10) Uani 1 1 d . . . . .
H7 H 0.252562 0.139004 -0.177857 0.022 Uiso 1 1 calc R U . . .
C5 C 0.1734(6) -0.1424(3) -0.0350(4) 0.0200(10) Uani 1 1 d D . . . .
loop_
_atom_site_aniso_label
_atom_site_aniso_U_11
_atom_site_aniso_U_22
_atom_site_aniso_U_33
_atom_site_aniso_U_23
_atom_site_aniso_U_13
_atom_site_aniso_U_12
Br1 0.0335(4) 0.0187(5) 0.0142(5) 0.0013(6) 0.0044(7) 0.0008(4)
Cl1 0.0233(12) 0.0069(17) 0.039(2) -0.008(2) 0.0093(9) 0.000(2)
Cl2 0.0335(4) 0.0187(5) 0.0142(5) 0.0013(6) 0.0044(7) 0.0008(4)
Br2 0.0233(12) 0.0069(17) 0.039(2) -0.008(2) 0.0093(9) 0.000(2)
O1 0.040(2) 0.0163(19) 0.0223(19) 0.0039(14) 0.0076(15) -0.0043(14)
O2 0.043(2) 0.0171(18) 0.0255(19) -0.0067(15) 0.0099(16) -0.0112(15)
C1 0.012(2) 0.013(2) 0.016(2) 0.0016(18) 0.0035(17) 0.0021(16)
C2 0.015(2) 0.015(2) 0.016(2) 0.0011(18) 0.0038(17) 0.0003(17)
C3 0.019(2) 0.017(2) 0.017(2) -0.0013(18) 0.0049(18) 0.0018(18)
C6 0.020(2) 0.019(3) 0.020(2) -0.0045(19) 0.0058(18) 0.0003(18)
C4 0.017(2) 0.017(2) 0.022(2) 0.0030(19) 0.0088(18) 0.0018(17)
C7 0.015(2) 0.018(2) 0.022(2) 0.0002(19) 0.0068(18) 0.0019(17)
C5 0.016(2) 0.013(2) 0.032(3) 0.000(2) 0.0077(19) 0.0018(17)
loop_
_atom_type_symbol
_atom_type_description
_atom_type_scat_dispersion_real
_atom_type_scat_dispersion_imag
_atom_type_scat_source
C C 0.0033 0.0016 'International Tables Vol C Tables 4.2.6.8 and 6.1.1.4'
H H 0.0000 0.0000 'International Tables Vol C Tables 4.2.6.8 and 6.1.1.4'
O O 0.0106 0.0060 'International Tables Vol C Tables 4.2.6.8 and 6.1.1.4'
Cl Cl 0.1484 0.1585 'International Tables Vol C Tables 4.2.6.8 and 6.1.1.4'
Br Br -0.2901 2.4595 'International Tables Vol C Tables 4.2.6.8 and 6.1.1.4'
loop_
_geom_angle_atom_site_label_1
_geom_angle_atom_site_label_2
_geom_angle_atom_site_label_3
_geom_angle
O1 C1 O2 123.0(4)
O1 C1 C2 117.4(4)
O2 C1 C2 119.6(4)
C7 C2 C3 117.0(4)
C7 C2 C1 117.3(4)
C3 C2 C1 125.7(4)
C4 C3 C2 122.0(4)
C4 C3 Cl2 117.7(8)
C2 C3 Cl2 120.3(8)
C4 C3 Br1 113.2(3)
C2 C3 Br1 124.8(3)
C7 C6 C5 118.4(4)
C3 C4 C5 118.0(4)
C6 C7 C2 122.4(4)
C6 C5 C4 122.1(3)
C6 C5 Cl1 120.4(8)
C4 C5 Cl1 117.5(8)
C6 C5 Br2 118.5(9)
C4 C5 Br2 119.4(9)
loop_
_geom_bond_atom_site_label_1
_geom_bond_atom_site_label_2
_geom_bond_distance
Br1 C3 1.890(4)
Cl1 C5 1.737(4)
Cl2 C3 1.740(5)
Br2 C5 1.896(5)
O1 C1 1.266(5)
O2 C1 1.269(5)
C1 C2 1.494(6)
C2 C7 1.393(6)
C2 C3 1.407(6)
C3 C4 1.374(6)
C6 C7 1.374(6)
C6 C5 1.377(6)
C4 C5 1.393(6)
