#------------------------------------------------------------------------------
#$Date: 2017-05-06 01:04:09 +0300 (Sat, 06 May 2017) $
#$Revision: 196416 $
#$URL: file:///home/coder/svn-repositories/cod/cif/1/54/56/1545606.cif $
#------------------------------------------------------------------------------
#
# This file is available in the Crystallography Open Database (COD),
# http://www.crystallography.net/
#
# All data on this site have been placed in the public domain by the
# contributors.
#
data_1545606
loop_
_publ_author_name
'Pedersen, Anders H.'
'Geoghegan, Blaise L.'
'Nichol, Gary S.'
'Lupton, David W.'
'Murray, Keith S.'
'Mart\'inez-Lillo, Jos\'e'
'Gass, Ian A.'
'Brechin, Euan K.'
_publ_section_title
;
 Hexahalorhenate(iv) salts of metal oxazolidine nitroxides.
;
_journal_issue                   16
_journal_name_full
'Dalton transactions (Cambridge, England : 2003)'
_journal_page_first              5250
_journal_page_last               5259
_journal_paper_doi               10.1039/c7dt00752c
_journal_volume                  46
_journal_year                    2017
_chemical_formula_moiety         'Br6 Re, C30 H32 Cu N6 O4'
_chemical_formula_sum            'C30 H32 Br6 Cu N6 O4 Re'
_chemical_formula_weight         1269.81
_space_group_crystal_system      triclinic
_space_group_IT_number           2
_space_group_name_Hall           '-P 1'
_space_group_name_H-M_alt        'P -1'
_symmetry_space_group_name_Hall  '-P 1'
_symmetry_space_group_name_H-M   'P -1'
_atom_sites_solution_hydrogens   geom
_atom_sites_solution_primary     iterative
_audit_creation_date             2016-04-08
_audit_creation_method
;
Olex2 1.2
(compiled 2016.02.19 svn.r3266 for OlexSys, GUI svn.r5155)
;
_audit_update_record
;
2017-02-24 deposited with the CCDC.
2017-03-20 downloaded from the CCDC.
;
_cell_angle_alpha                107.144(3)
_cell_angle_beta                 100.370(2)
_cell_angle_gamma                93.917(2)
_cell_formula_units_Z            1
_cell_length_a                   8.07321(20)
_cell_length_b                   10.8110(4)
_cell_length_c                   11.0629(4)
_cell_measurement_reflns_used    16223
_cell_measurement_temperature    120.00(10)
_cell_measurement_theta_max      30.9090
_cell_measurement_theta_min      3.3370
_cell_volume                     899.99(5)
_computing_cell_refinement
;
CrysAlisPro, Agilent Technologies,
Version 1.171.37.35e (release 07-10-2014 CrysAlis171 .NET)
(compiled Oct  7 2014,17:20:27)
;
_computing_data_collection
;
CrysAlisPro, Agilent Technologies,
Version 1.171.37.35e (release 07-10-2014 CrysAlis171 .NET)
(compiled Oct  7 2014,17:20:27)
;
_computing_data_reduction
;
CrysAlisPro, Agilent Technologies,
Version 1.171.37.35e (release 07-10-2014 CrysAlis171 .NET)
(compiled Oct  7 2014,17:20:27)
;
_computing_molecular_graphics    'Olex2 (Dolomanov et al., 2009)'
_computing_publication_material  'Olex2 (Dolomanov et al., 2009)'
_computing_structure_refinement  'ShelXL (Sheldrick, 2015)'
_computing_structure_solution    'olex2.solve (Bourhis et al., 2015)'
_diffrn_ambient_environment      N~2~
_diffrn_ambient_temperature      120.00(10)
_diffrn_detector                 'CCD plate'
_diffrn_detector_area_resol_mean 5.1574
_diffrn_detector_type            Atlas
_diffrn_measured_fraction_theta_full 0.999
_diffrn_measured_fraction_theta_max 0.956
_diffrn_measurement_details
;
#__ type_ start__ end____ width___ exp.time_
  1 omega  -83.00   13.00   1.0000   20.0000
omega____ theta____ kappa____ phi______ frames
    -      -13.2412  -57.0000    0.0000 96

#__ type_ start__ end____ width___ exp.time_
  2 omega  -83.00   13.00   1.0000   20.0000
omega____ theta____ kappa____ phi______ frames
    -      -13.2412  -57.0000  120.0000 96

#__ type_ start__ end____ width___ exp.time_
  3 omega  -40.00   57.00   1.0000   20.0000
omega____ theta____ kappa____ phi______ frames
    -      -13.2412   57.0000  -90.0000 97

#__ type_ start__ end____ width___ exp.time_
  4 omega  -17.00   89.00   1.0000   20.0000
omega____ theta____ kappa____ phi______ frames
    -       14.8037   77.0000   30.0000 106

#__ type_ start__ end____ width___ exp.time_
  5 omega   34.00  100.00   1.0000   20.0000
omega____ theta____ kappa____ phi______ frames
    -       14.8037 -178.0000  150.0000 66

#__ type_ start__ end____ width___ exp.time_
  6 omega   35.00  102.00   1.0000   20.0000
omega____ theta____ kappa____ phi______ frames
    -       14.8037  178.0000  120.0000 67

#__ type_ start__ end____ width___ exp.time_
  7 omega  -86.00    9.00   1.0000   20.0000
omega____ theta____ kappa____ phi______ frames
    -      -13.2412  -38.0000 -150.0000 95

#__ type_ start__ end____ width___ exp.time_
  8 omega  -40.00   57.00   1.0000   20.0000
omega____ theta____ kappa____ phi______ frames
    -      -13.2412   57.0000 -180.0000 97

#__ type_ start__ end____ width___ exp.time_
  9 omega  -20.00   55.00   1.0000   20.0000
omega____ theta____ kappa____ phi______ frames
    -       14.8037  -99.0000   30.0000 75

#__ type_ start__ end____ width___ exp.time_
 10 omega  -20.00   55.00   1.0000   20.0000
omega____ theta____ kappa____ phi______ frames
    -       14.8037  -99.0000  -60.0000 75

#__ type_ start__ end____ width___ exp.time_
 11 omega   34.00  100.00   1.0000   20.0000
omega____ theta____ kappa____ phi______ frames
    -       14.8037 -178.0000 -120.0000 66

#__ type_ start__ end____ width___ exp.time_
 12 omega  -20.00   27.00   1.0000   20.0000
omega____ theta____ kappa____ phi______ frames
    -      -13.2412  -99.0000  150.0000 47

#__ type_ start__ end____ width___ exp.time_
 13 omega  -20.00   55.00   1.0000   20.0000
omega____ theta____ kappa____ phi______ frames
    -       14.8037  -99.0000   90.0000 75

#__ type_ start__ end____ width___ exp.time_
 14 omega   -8.00   87.00   1.0000   20.0000
omega____ theta____ kappa____ phi______ frames
    -       14.8037   38.0000    0.0000 95

#__ type_ start__ end____ width___ exp.time_
 15 omega  -20.00   55.00   1.0000   20.0000
omega____ theta____ kappa____ phi______ frames
    -       14.8037  -99.0000 -120.0000 75

#__ type_ start__ end____ width___ exp.time_
 16 omega  -20.00   55.00   1.0000   20.0000
omega____ theta____ kappa____ phi______ frames
    -       14.8037  -99.0000  150.0000 75

#__ type_ start__ end____ width___ exp.time_
 17 omega   34.00  100.00   1.0000   20.0000
omega____ theta____ kappa____ phi______ frames
    -       14.8037 -178.0000   90.0000 66

#__ type_ start__ end____ width___ exp.time_
 18 omega  -20.00   55.00   1.0000   20.0000
omega____ theta____ kappa____ phi______ frames
    -       14.8037  -99.0000  -30.0000 75

#__ type_ start__ end____ width___ exp.time_
 19 omega  -20.00   55.00   1.0000   20.0000
omega____ theta____ kappa____ phi______ frames
    -       14.8037  -99.0000    0.0000 75

#__ type_ start__ end____ width___ exp.time_
 20 omega  -58.00   37.00   1.0000   20.0000
omega____ theta____ kappa____ phi______ frames
    -       14.8037  -38.0000  -90.0000 95

#__ type_ start__ end____ width___ exp.time_
 21 omega  -20.00   55.00   1.0000   20.0000
omega____ theta____ kappa____ phi______ frames
    -       14.8037  -99.0000 -180.0000 75

#__ type_ start__ end____ width___ exp.time_
 22 omega  -72.00   52.00   1.0000   20.0000
omega____ theta____ kappa____ phi______ frames
    -       14.8037    0.0000 -180.0000 124
;
_diffrn_measurement_device       'four-circle diffractometer'
_diffrn_measurement_device_type  'SuperNova, Dual, Cu at zero, Atlas'
_diffrn_measurement_method       '\w scans'
_diffrn_orient_matrix_UB_11      0.0291030000
_diffrn_orient_matrix_UB_12      -0.0317180000
_diffrn_orient_matrix_UB_13      0.0460406000
_diffrn_orient_matrix_UB_21      0.0751353000
_diffrn_orient_matrix_UB_22      -0.0095711000
_diffrn_orient_matrix_UB_23      -0.0244694000
_diffrn_orient_matrix_UB_31      0.0402565000
_diffrn_orient_matrix_UB_32      0.0607986000
_diffrn_orient_matrix_UB_33      0.0446209000
_diffrn_radiation_monochromator  mirror
_diffrn_radiation_probe          x-ray
_diffrn_radiation_type           MoK\a
_diffrn_radiation_wavelength     0.71073
_diffrn_reflns_av_R_equivalents  0.1455
_diffrn_reflns_av_unetI/netI     0.0689
_diffrn_reflns_Laue_measured_fraction_full 0.999
_diffrn_reflns_Laue_measured_fraction_max 0.956
_diffrn_reflns_limit_h_max       11
_diffrn_reflns_limit_h_min       -11
_diffrn_reflns_limit_k_max       15
_diffrn_reflns_limit_k_min       -15
_diffrn_reflns_limit_l_max       16
_diffrn_reflns_limit_l_min       -16
_diffrn_reflns_number            47495
_diffrn_reflns_point_group_measured_fraction_full 0.999
_diffrn_reflns_point_group_measured_fraction_max 0.956
_diffrn_reflns_theta_full        26.000
_diffrn_reflns_theta_max         31.173
_diffrn_reflns_theta_min         3.052
_diffrn_source                   'SuperNova (Mo) X-ray Source'
_exptl_absorpt_coefficient_mu    10.655
_exptl_absorpt_correction_T_max  0.778
_exptl_absorpt_correction_T_min  0.198
_exptl_absorpt_correction_type   gaussian
_exptl_absorpt_process_details
;
CrysAlisPro, Agilent Technologies,
Version 1.171.37.35e (release 07-10-2014 CrysAlis171 .NET)
(compiled Oct  7 2014,17:20:27)
Numerical absorption correction based on gaussian integration over
            a multifaceted crystal model
;
_exptl_crystal_colour            brown
_exptl_crystal_colour_primary    brown
_exptl_crystal_density_diffrn    2.343
_exptl_crystal_description       plate
_exptl_crystal_F_000             600
_exptl_crystal_size_max          0.3183
_exptl_crystal_size_mid          0.1188
_exptl_crystal_size_min          0.0239
_refine_diff_density_max         3.100
_refine_diff_density_min         -3.417
_refine_diff_density_rms         0.276
_refine_ls_extinction_method     none
_refine_ls_goodness_of_fit_ref   1.025
_refine_ls_hydrogen_treatment    constr
_refine_ls_matrix_type           full
_refine_ls_number_parameters     222
_refine_ls_number_reflns         5554
_refine_ls_number_restraints     0
_refine_ls_restrained_S_all      1.025
_refine_ls_R_factor_all          0.0681
_refine_ls_R_factor_gt           0.0537
_refine_ls_shift/su_max          0.000
_refine_ls_shift/su_mean         0.000
_refine_ls_structure_factor_coef Fsqd
_refine_ls_weighting_details
'w=1/[\s^2^(Fo^2^)+(0.0687P)^2^+3.8789P] where P=(Fo^2^+2Fc^2^)/3'
_refine_ls_weighting_scheme      calc
_refine_ls_wR_factor_gt          0.1277
_refine_ls_wR_factor_ref         0.1379
_reflns_Friedel_coverage         0.000
_reflns_number_gt                4607
_reflns_number_total             5554
_reflns_threshold_expression     'I > 2\s(I)'
_cod_data_source_file            c7dt00752c2.cif
_cod_data_source_block           eb16113_refinalized
_cod_depositor_comments
'Adding full bibliography for 1545597--1545607.cif.'
_cod_database_code               1545606
_chemical_oxdiff_formula         'C15 H16 Br6 Cu N3 O2 Re'
_chemical_oxdiff_usercomment     '@ 120 K AHP346B'
_shelx_space_group_comment
;
The symmetry employed for this shelxl refinement is uniquely defined
by the following loop, which should always be used as a source of
symmetry information in preference to the above space-group names.
They are only intended as comments.
;
_reflns_odcompleteness_completeness 99.86
_reflns_odcompleteness_iscentric 1
_reflns_odcompleteness_theta     26.32
_olex2_refinement_description
;
1. Fixed Uiso
 At 1.2 times of:
  All C(H) groups, All C(H,H) groups
 At 1.5 times of:
  All C(H,H,H) groups
2.a Secondary CH2 refined with riding coordinates:
 C12(H12a,H12b)
2.b Aromatic/amide H refined with riding coordinates:
 C1(H1), C2(H2), C3(H3), C4(H4), C6(H6), C7(H7), C8(H8), C9(H9)
2.c Idealised Me refined as rotating group:
 C14(H14a,H14b,H14c), C15(H15a,H15b,H15c)
;
_shelx_res_file
;
    eb16113_refinalized.res created by SHELXL-2014/7

TITL
CELL 0.71073 8.073207 10.810999 11.062878 107.1437 100.3701 93.9173
ZERR 1 0.000195 0.000358 0.000369 0.0029 0.0024 0.0023
LATT 1
SFAC C H Br Cu N O Re
UNIT 30 32 6 1 6 4 1

L.S. 20
PLAN  20
MORE -1
BOND $H
CONF
fmap 2
acta 52
REM <olex2.extras>
REM <HklSrc "%.\\EB16113_refinalized.hkl">
REM </olex2.extras>

WGHT    0.068700    3.878900
FVAR       2.87657
RE1   7   -0.500000   -0.500000    0.000000    10.50000    0.01730    0.01943 =
         0.02050    0.00606    0.00880    0.00784
BR1   3   -0.462001   -0.260542    0.122135    11.00000    0.02692    0.02034 =
         0.02958    0.00388    0.00640    0.00816
BR2   3   -0.222663   -0.522543    0.131147    11.00000    0.02257    0.02845 =
         0.02562    0.00676    0.00600    0.01275
BR3   3   -0.347402   -0.454918   -0.165478    11.00000    0.02825    0.03605 =
         0.02962    0.01420    0.01625    0.00894
CU1   4    0.000000    0.000000    0.500000    10.50000    0.02071    0.01718 =
         0.02265    0.00681    0.01064    0.00661
O1    6   -0.276852    0.037263    0.435490    11.00000    0.02693    0.04069 =
         0.03710    0.02009    0.01554    0.01214
O2    6   -0.222693    0.136886    0.171094    11.00000    0.03240    0.04570 =
         0.03697    0.02190    0.01319    0.01414
N1    5   -0.069028   -0.170976    0.527297    11.00000    0.02557    0.01927 =
         0.02364    0.00610    0.01357    0.00806
N2    5    0.000635   -0.086299    0.312025    11.00000    0.02111    0.01964 =
         0.02767    0.00513    0.01090    0.00458
N3    5   -0.291898    0.073008    0.335338    11.00000    0.02402    0.02896 =
         0.03195    0.00768    0.00799    0.00678
C1    1   -0.194587   -0.259206    0.443276    11.00000    0.03266    0.02582 =
         0.03011    0.00199    0.01595    0.00092
AFIX  43
H1    2   -0.248869   -0.241637    0.369692    11.00000   -1.20000
AFIX   0
C2    1   -0.245561   -0.375295    0.462851    11.00000    0.03940    0.02878 =
         0.03101    0.00231    0.01684   -0.00462
AFIX  43
H2    2   -0.331917   -0.435456    0.403072    11.00000   -1.20000
AFIX   0
C3    1   -0.166018   -0.399784    0.572316    11.00000    0.04334    0.02367 =
         0.04069    0.00723    0.02017    0.00375
AFIX  43
H3    2   -0.199991   -0.476576    0.587944    11.00000   -1.20000
AFIX   0
C4    1   -0.036724   -0.311712    0.658822    11.00000    0.03193    0.03314 =
         0.03566    0.01203    0.01391    0.00645
AFIX  43
H4    2    0.018929   -0.328362    0.732532    11.00000   -1.20000
AFIX   0
C5    1    0.009162   -0.196972    0.633711    11.00000    0.02413    0.02572 =
         0.03303    0.00912    0.01343    0.00712
C6    1    0.071944   -0.194603    0.271359    11.00000    0.02589    0.02887 =
         0.04243    0.00880    0.01811    0.00624
AFIX  43
H6    2    0.123148   -0.231215    0.332520    11.00000   -1.20000
AFIX   0
C7    1    0.073434   -0.254849    0.143205    11.00000    0.02861    0.02950 =
         0.04704    0.00902    0.02163    0.01127
AFIX  43
H7    2    0.125738   -0.329683    0.118704    11.00000   -1.20000
AFIX   0
C8    1   -0.002626   -0.202984    0.053915    11.00000    0.03014    0.02895 =
         0.03435    0.00251    0.01579    0.00119
AFIX  43
H8    2   -0.003264   -0.242281   -0.033149    11.00000   -1.20000
AFIX   0
C9    1   -0.079764   -0.091253    0.091815    11.00000    0.02791    0.03281 =
         0.03008    0.00666    0.01024    0.00433
AFIX  43
H9    2   -0.132872   -0.054548    0.031371    11.00000   -1.20000
AFIX   0
C10   1   -0.075278   -0.035968    0.222550    11.00000    0.02021    0.03038 =
         0.02877    0.00782    0.01194    0.00561
C11   1   -0.148616    0.092209    0.272238    11.00000    0.02413    0.02737 =
         0.03462    0.01547    0.00940    0.01110
C12   1   -0.399661    0.135613    0.162502    11.00000    0.03729    0.07448 =
         0.05293    0.03614    0.01237    0.01842
AFIX  23
H12A  2   -0.460107    0.056365    0.097702    11.00000   -1.20000
H12B  2   -0.437288    0.209854    0.138097    11.00000   -1.20000
AFIX   0
C13   1   -0.434917    0.142246    0.296008    11.00000    0.02675    0.03117 =
         0.03624    0.01085    0.00851    0.01269
C14   1   -0.407356    0.281059    0.389086    11.00000    0.04259    0.03085 =
         0.07851    0.00379    0.01243    0.01825
AFIX 137
H14A  2   -0.411205    0.278562    0.474572    11.00000   -1.50000
H14B  2   -0.494920    0.328646    0.361571    11.00000   -1.50000
H14C  2   -0.298584    0.323407    0.389742    11.00000   -1.50000
AFIX   0
C15   1   -0.601571    0.064951    0.289533    11.00000    0.02085    0.03679 =
         0.06078    0.00957    0.00942    0.00652
AFIX 137
H15A  2   -0.608690   -0.021923    0.231480    11.00000   -1.50000
H15B  2   -0.694034    0.106694    0.258798    11.00000   -1.50000
H15C  2   -0.607710    0.061049    0.374215    11.00000   -1.50000
AFIX   0
HKLF 4

REM
REM R1 =  0.0537 for    4607 Fo > 4sig(Fo)  and  0.0681 for all    5554 data
REM    222 parameters refined using      0 restraints

END

WGHT      0.0687      3.8786

REM Highest difference peak  3.100,  deepest hole -3.417,  1-sigma level  0.276
Q1    1  -0.5037 -0.5674 -0.0567  11.00000  0.05    3.10
Q2    1  -0.5319 -0.4966 -0.0851  11.00000  0.05    2.35
Q3    1  -0.6037 -0.5351  0.0517  11.00000  0.05    2.07
Q4    1  -0.5520 -0.5778 -0.0066  11.00000  0.05    2.02
Q5    1  -0.3713 -0.5282 -0.2106  11.00000  0.05    1.85
Q6    1  -0.3246 -0.4597 -0.0794  11.00000  0.05    1.71
Q7    1  -0.4938 -0.5394  0.0390  11.00000  0.05    1.64
Q8    1  -0.4055 -0.5245 -0.1636  11.00000  0.05    1.57
Q9    1  -0.4317 -0.1857  0.1800  11.00000  0.05    1.56
Q10   1  -0.3758 -0.2364  0.0829  11.00000  0.05    1.56
Q11   1  -0.2043 -0.4519  0.1944  11.00000  0.05    1.41
Q12   1  -0.2578 -0.4810  0.1798  11.00000  0.05    1.40
Q13   1  -0.5278 -0.4167 -0.0205  11.00000  0.05    1.36
Q14   1  -0.3396 -0.3732  0.0003  11.00000  0.05    1.30
Q15   1  -0.5482 -0.3203  0.0459  11.00000  0.05    1.30
Q16   1  -0.2441 -0.5841  0.0712  11.00000  0.05    1.26
Q17   1   0.0269  0.0717  0.5652  11.00000  0.05    1.18
Q18   1  -0.4972 -0.3481  0.1262  11.00000  0.05    1.17
Q19   1  -0.6320 -0.3570 -0.0023  11.00000  0.05    1.15
Q20   1   0.0425 -0.1557  0.2104  11.00000  0.05    1.09
;
_shelx_res_checksum              95998
_shelx_shelxl_version_number     2014/7
_olex2_submission_special_instructions 'No special instructions were received'
loop_
_space_group_symop_operation_xyz
'x, y, z'
'-x, -y, -z'
loop_
_atom_site_label
_atom_site_type_symbol
_atom_site_fract_x
_atom_site_fract_y
_atom_site_fract_z
_atom_site_U_iso_or_equiv
_atom_site_adp_type
_atom_site_occupancy
_atom_site_site_symmetry_order
_atom_site_calc_flag
_atom_site_refinement_flags_posn
_atom_site_refinement_flags_adp
_atom_site_refinement_flags_occupancy
Re1 Re -0.5000 -0.5000 0.0000 0.01821(10) Uani 1 2 d S T P
Br1 Br -0.46200(8) -0.26054(6) 0.12214(6) 0.02617(15) Uani 1 1 d . . .
Br2 Br -0.22266(7) -0.52254(6) 0.13115(6) 0.02534(15) Uani 1 1 d . . .
Br3 Br -0.34740(8) -0.45492(7) -0.16548(6) 0.02886(16) Uani 1 1 d . . .
Cu1 Cu 0.0000 0.0000 0.5000 0.0190(2) Uani 1 2 d S T P
O1 O -0.2769(6) 0.0373(5) 0.4355(5) 0.0316(10) Uani 1 1 d . . .
O2 O -0.2227(6) 0.1369(5) 0.1711(5) 0.0351(11) Uani 1 1 d . . .
N1 N -0.0690(6) -0.1710(5) 0.5273(5) 0.0216(10) Uani 1 1 d . . .
N2 N 0.0006(6) -0.0863(5) 0.3120(5) 0.0225(10) Uani 1 1 d . . .
N3 N -0.2919(7) 0.0730(6) 0.3353(5) 0.0283(11) Uani 1 1 d . . .
C1 C -0.1946(9) -0.2592(6) 0.4433(7) 0.0299(14) Uani 1 1 d . . .
H1 H -0.2489 -0.2416 0.3697 0.036 Uiso 1 1 calc R . .
C2 C -0.2456(9) -0.3753(7) 0.4629(7) 0.0338(15) Uani 1 1 d . . .
H2 H -0.3319 -0.4355 0.4031 0.041 Uiso 1 1 calc R . .
C3 C -0.1660(10) -0.3998(7) 0.5723(7) 0.0351(15) Uani 1 1 d . . .
H3 H -0.2000 -0.4766 0.5879 0.042 Uiso 1 1 calc R . .
C4 C -0.0367(9) -0.3117(7) 0.6588(7) 0.0323(14) Uani 1 1 d . . .
H4 H 0.0189 -0.3284 0.7325 0.039 Uiso 1 1 calc R . .
C5 C 0.0092(8) -0.1970(6) 0.6337(6) 0.0265(13) Uani 1 1 d . . .
C6 C 0.0719(8) -0.1946(7) 0.2714(7) 0.0313(14) Uani 1 1 d . . .
H6 H 0.1231 -0.2312 0.3325 0.038 Uiso 1 1 calc R . .
C7 C 0.0734(9) -0.2548(7) 0.1432(7) 0.0335(15) Uani 1 1 d . . .
H7 H 0.1257 -0.3297 0.1187 0.040 Uiso 1 1 calc R . .
C8 C -0.0026(9) -0.2030(7) 0.0539(7) 0.0317(14) Uani 1 1 d . . .
H8 H -0.0033 -0.2423 -0.0331 0.038 Uiso 1 1 calc R . .
C9 C -0.0798(8) -0.0913(7) 0.0918(7) 0.0304(14) Uani 1 1 d . . .
H9 H -0.1329 -0.0545 0.0314 0.036 Uiso 1 1 calc R . .
C10 C -0.0753(8) -0.0360(7) 0.2226(6) 0.0258(13) Uani 1 1 d . . .
C11 C -0.1486(8) 0.0922(7) 0.2722(7) 0.0266(13) Uani 1 1 d . . .
C12 C -0.3997(11) 0.1356(11) 0.1625(9) 0.050(2) Uani 1 1 d . . .
H12A H -0.4601 0.0564 0.0977 0.060 Uiso 1 1 calc R . .
H12B H -0.4373 0.2099 0.1381 0.060 Uiso 1 1 calc R . .
C13 C -0.4349(8) 0.1422(7) 0.2960(7) 0.0306(14) Uani 1 1 d . . .
C14 C -0.4074(11) 0.2811(8) 0.3891(10) 0.053(2) Uani 1 1 d . . .
H14A H -0.4112 0.2786 0.4746 0.079 Uiso 1 1 calc GR . .
H14B H -0.4949 0.3286 0.3616 0.079 Uiso 1 1 calc GR . .
H14C H -0.2986 0.3234 0.3897 0.079 Uiso 1 1 calc GR . .
C15 C -0.6016(9) 0.0650(8) 0.2895(9) 0.0405(18) Uani 1 1 d . . .
H15A H -0.6087 -0.0219 0.2315 0.061 Uiso 1 1 calc GR . .
H15B H -0.6940 0.1067 0.2588 0.061 Uiso 1 1 calc GR . .
H15C H -0.6077 0.0610 0.3742 0.061 Uiso 1 1 calc GR . .
loop_
_atom_site_aniso_label
_atom_site_aniso_U_11
_atom_site_aniso_U_22
_atom_site_aniso_U_33
_atom_site_aniso_U_23
_atom_site_aniso_U_13
_atom_site_aniso_U_12
Re1 0.01730(16) 0.01943(17) 0.02050(16) 0.00606(12) 0.00880(11) 0.00784(12)
Br1 0.0269(3) 0.0203(3) 0.0296(3) 0.0039(2) 0.0064(2) 0.0082(2)
Br2 0.0226(3) 0.0285(3) 0.0256(3) 0.0068(2) 0.0060(2) 0.0127(2)
Br3 0.0282(3) 0.0360(4) 0.0296(3) 0.0142(3) 0.0163(2) 0.0089(3)
Cu1 0.0207(5) 0.0172(5) 0.0226(5) 0.0068(4) 0.0106(4) 0.0066(4)
O1 0.027(2) 0.041(3) 0.037(3) 0.020(2) 0.016(2) 0.012(2)
O2 0.032(2) 0.046(3) 0.037(3) 0.022(2) 0.013(2) 0.014(2)
N1 0.026(2) 0.019(2) 0.024(2) 0.0061(19) 0.014(2) 0.0081(19)
N2 0.021(2) 0.020(2) 0.028(2) 0.005(2) 0.011(2) 0.0046(19)
N3 0.024(3) 0.029(3) 0.032(3) 0.008(2) 0.008(2) 0.007(2)
C1 0.033(3) 0.026(3) 0.030(3) 0.002(3) 0.016(3) 0.001(3)
C2 0.039(4) 0.029(3) 0.031(3) 0.002(3) 0.017(3) -0.005(3)
C3 0.043(4) 0.024(3) 0.041(4) 0.007(3) 0.020(3) 0.004(3)
C4 0.032(3) 0.033(4) 0.036(3) 0.012(3) 0.014(3) 0.006(3)
C5 0.024(3) 0.026(3) 0.033(3) 0.009(3) 0.013(2) 0.007(2)
C6 0.026(3) 0.029(3) 0.042(4) 0.009(3) 0.018(3) 0.006(3)
C7 0.029(3) 0.030(3) 0.047(4) 0.009(3) 0.022(3) 0.011(3)
C8 0.030(3) 0.029(3) 0.034(3) 0.003(3) 0.016(3) 0.001(3)
C9 0.028(3) 0.033(4) 0.030(3) 0.007(3) 0.010(3) 0.004(3)
C10 0.020(3) 0.030(3) 0.029(3) 0.008(3) 0.012(2) 0.006(2)
C11 0.024(3) 0.027(3) 0.035(3) 0.015(3) 0.009(2) 0.011(2)
C12 0.037(4) 0.074(6) 0.053(5) 0.036(5) 0.012(4) 0.018(4)
C13 0.027(3) 0.031(3) 0.036(3) 0.011(3) 0.009(3) 0.013(3)
C14 0.043(4) 0.031(4) 0.079(6) 0.004(4) 0.012(4) 0.018(3)
C15 0.021(3) 0.037(4) 0.061(5) 0.010(4) 0.009(3) 0.007(3)
loop_
_atom_type_symbol
_atom_type_description
_atom_type_scat_dispersion_real
_atom_type_scat_dispersion_imag
_atom_type_scat_source
C C 0.0033 0.0016 'International Tables Vol C Tables 4.2.6.8 and 6.1.1.4'
H H 0.0000 0.0000 'International Tables Vol C Tables 4.2.6.8 and 6.1.1.4'
Br Br -0.2901 2.4595 'International Tables Vol C Tables 4.2.6.8 and 6.1.1.4'
Cu Cu 0.3201 1.2651 'International Tables Vol C Tables 4.2.6.8 and 6.1.1.4'
N N 0.0061 0.0033 'International Tables Vol C Tables 4.2.6.8 and 6.1.1.4'
O O 0.0106 0.0060 'International Tables Vol C Tables 4.2.6.8 and 6.1.1.4'
Re Re -1.0185 7.2310 'International Tables Vol C Tables 4.2.6.8 and 6.1.1.4'
loop_
_exptl_crystal_face_index_h
_exptl_crystal_face_index_k
_exptl_crystal_face_index_l
_exptl_crystal_face_perp_dist
_exptl_oxdiff_crystal_face_indexfrac_h
_exptl_oxdiff_crystal_face_indexfrac_k
_exptl_oxdiff_crystal_face_indexfrac_l
_exptl_oxdiff_crystal_face_x
_exptl_oxdiff_crystal_face_y
_exptl_oxdiff_crystal_face_z
-5 -4 0 0.1197 -5.0020 -3.9584 -0.0549 -0.0225 -0.3366 -0.4445
5 -1 -4 0.0460 4.9961 -0.9916 -3.9981 -0.0072 0.4827 -0.0376
-5 1 4 0.0728 -4.9961 0.9916 3.9981 0.0072 -0.4827 0.0376
-2 5 5 0.0960 -1.9929 4.9529 5.0474 0.0173 -0.3206 0.4461
5 3 -1 0.1090 5.0009 2.9700 -0.9562 0.0073 0.3707 0.3392
1 -5 4 0.0119 0.9902 -5.0193 3.9713 0.3709 0.0253 -0.0881
-1 5 -4 0.0119 -0.9902 5.0193 -3.9713 -0.3709 -0.0253 0.0881
loop_
_geom_angle_atom_site_label_1
_geom_angle_atom_site_label_2
_geom_angle_atom_site_label_3
_geom_angle
_geom_angle_site_symmetry_1
_geom_angle_site_symmetry_3
Br1 Re1 Br1 180.0 2_445 .
Br1 Re1 Br3 89.48(2) . 2_445
Br1 Re1 Br3 90.52(2) 2_445 2_445
Br1 Re1 Br3 89.48(2) 2_445 .
Br1 Re1 Br3 90.52(2) . .
Br2 Re1 Br1 89.92(2) 2_445 .
Br2 Re1 Br1 89.92(2) . 2_445
Br2 Re1 Br1 90.08(2) 2_445 2_445
Br2 Re1 Br1 90.08(2) . .
Br2 Re1 Br2 180.0 . 2_445
Br2 Re1 Br3 90.05(2) . 2_445
Br2 Re1 Br3 90.05(2) 2_445 .
Br2 Re1 Br3 89.95(2) . .
Br2 Re1 Br3 89.95(2) 2_445 2_445
Br3 Re1 Br3 180.0 . 2_445
O1 Cu1 O1 180.0(3) 2_556 .
N1 Cu1 O1 94.37(19) 2_556 2_556
N1 Cu1 O1 94.37(19) . .
N1 Cu1 O1 85.63(19) . 2_556
N1 Cu1 O1 85.63(19) 2_556 .
N1 Cu1 N1 180.0 . 2_556
N2 Cu1 O1 87.93(19) 2_556 2_556
N2 Cu1 O1 92.07(19) 2_556 .
N2 Cu1 O1 92.07(19) . 2_556
N2 Cu1 O1 87.93(19) . .
N2 Cu1 N1 92.8(2) . .
N2 Cu1 N1 92.8(2) 2_556 2_556
N2 Cu1 N1 87.2(2) 2_556 .
N2 Cu1 N1 87.2(2) . 2_556
N2 Cu1 N2 180.0(3) . 2_556
N3 O1 Cu1 110.6(4) . .
C11 O2 C12 111.1(5) . .
C1 N1 Cu1 121.7(5) . .
C1 N1 C5 118.7(6) . .
C5 N1 Cu1 119.6(4) . .
C6 N2 Cu1 122.5(5) . .
C6 N2 C10 117.7(6) . .
C10 N2 Cu1 119.8(4) . .
O1 N3 C11 123.8(5) . .
O1 N3 C13 122.2(5) . .
C11 N3 C13 111.0(5) . .
N1 C1 H1 119.0 . .
N1 C1 C2 122.1(7) . .
C2 C1 H1 119.0 . .
C1 C2 H2 120.7 . .
C3 C2 C1 118.6(7) . .
C3 C2 H2 120.7 . .
C2 C3 H3 119.8 . .
C4 C3 C2 120.4(7) . .
C4 C3 H3 119.8 . .
C3 C4 H4 120.8 . .
C3 C4 C5 118.4(7) . .
C5 C4 H4 120.8 . .
N1 C5 C4 121.9(6) . .
N1 C5 C11 116.7(6) . 2_556
C4 C5 C11 121.4(6) . 2_556
N2 C6 H6 118.4 . .
N2 C6 C7 123.2(7) . .
C7 C6 H6 118.4 . .
C6 C7 H7 120.7 . .
C8 C7 C6 118.6(6) . .
C8 C7 H7 120.7 . .
C7 C8 H8 120.0 . .
C7 C8 C9 120.1(6) . .
C9 C8 H8 120.0 . .
C8 C9 H9 121.0 . .
C10 C9 C8 117.9(7) . .
C10 C9 H9 121.0 . .
N2 C10 C9 122.5(6) . .
N2 C10 C11 116.7(5) . .
C9 C10 C11 120.7(6) . .
O2 C11 N3 103.5(5) . .
O2 C11 C5 109.6(5) . 2_556
O2 C11 C10 112.0(5) . .
N3 C11 C5 110.6(5) . 2_556
N3 C11 C10 111.0(5) . .
C5 C11 C10 110.1(5) 2_556 .
O2 C12 H12A 110.2 . .
O2 C12 H12B 110.2 . .
O2 C12 C13 107.6(6) . .
H12A C12 H12B 108.5 . .
C13 C12 H12A 110.2 . .
C13 C12 H12B 110.2 . .
N3 C13 C12 96.8(5) . .
N3 C13 C14 108.6(6) . .
N3 C13 C15 109.5(6) . .
C14 C13 C12 112.9(7) . .
C15 C13 C12 113.5(7) . .
C15 C13 C14 114.0(6) . .
C13 C14 H14A 109.5 . .
C13 C14 H14B 109.5 . .
C13 C14 H14C 109.5 . .
H14A C14 H14B 109.5 . .
H14A C14 H14C 109.5 . .
H14B C14 H14C 109.5 . .
C13 C15 H15A 109.5 . .
C13 C15 H15B 109.5 . .
C13 C15 H15C 109.5 . .
H15A C15 H15B 109.5 . .
H15A C15 H15C 109.5 . .
H15B C15 H15C 109.5 . .
loop_
_geom_bond_atom_site_label_1
_geom_bond_atom_site_label_2
_geom_bond_distance
_geom_bond_site_symmetry_2
Re1 Br1 2.5103(6) .
Re1 Br1 2.5103(6) 2_445
Re1 Br2 2.5082(6) 2_445
Re1 Br2 2.5082(6) .
Re1 Br3 2.5224(6) .
Re1 Br3 2.5224(6) 2_445
Cu1 O1 2.321(5) .
Cu1 O1 2.321(5) 2_556
Cu1 N1 2.017(5) 2_556
Cu1 N1 2.017(5) .
Cu1 N2 2.014(5) .
Cu1 N2 2.014(5) 2_556
O1 N3 1.266(7) .
O2 C11 1.400(8) .
O2 C12 1.414(9) .
N1 C1 1.344(8) .
N1 C5 1.347(8) .
N2 C6 1.334(8) .
N2 C10 1.340(9) .
N3 C11 1.487(8) .
N3 C13 1.487(8) .
C1 H1 0.9300 .
C1 C2 1.383(10) .
C2 H2 0.9300 .
C2 C3 1.372(11) .
C3 H3 0.9300 .
C3 C4 1.371(10) .
C4 H4 0.9300 .
C4 C5 1.389(10) .
C5 C11 1.530(9) 2_556
C6 H6 0.9300 .
C6 C7 1.377(10) .
C7 H7 0.9300 .
C7 C8 1.350(11) .
C8 H8 0.9300 .
C8 C9 1.386(10) .
C9 H9 0.9300 .
C9 C10 1.385(9) .
C10 C11 1.534(9) .
C11 C5 1.530(9) 2_556
C12 H12A 0.9700 .
C12 H12B 0.9700 .
C12 C13 1.536(11) .
C13 C14 1.524(11) .
C13 C15 1.513(10) .
C14 H14A 0.9600 .
C14 H14B 0.9600 .
C14 H14C 0.9600 .
C15 H15A 0.9600 .
C15 H15B 0.9600 .
C15 H15C 0.9600 .
loop_
_geom_torsion_atom_site_label_1
_geom_torsion_atom_site_label_2
_geom_torsion_atom_site_label_3
_geom_torsion_atom_site_label_4
_geom_torsion
_geom_torsion_site_symmetry_4
Cu1 O1 N3 C11 -2.0(7) .
Cu1 O1 N3 C13 -160.5(5) .
Cu1 N1 C1 C2 -178.4(5) .
Cu1 N1 C5 C4 178.2(5) .
Cu1 N1 C5 C11 -0.3(7) 2_556
Cu1 N2 C6 C7 180.0(5) .
Cu1 N2 C10 C9 -179.7(5) .
Cu1 N2 C10 C11 4.1(7) .
O1 N3 C11 O2 -177.3(6) .
O1 N3 C11 C5 -60.1(8) 2_556
O1 N3 C11 C10 62.4(8) .
O1 N3 C13 C12 -170.6(7) .
O1 N3 C13 C14 72.4(8) .
O1 N3 C13 C15 -52.7(8) .
O2 C12 C13 N3 -30.4(8) .
O2 C12 C13 C14 83.1(8) .
O2 C12 C13 C15 -145.2(7) .
N1 C1 C2 C3 0.7(10) .
N2 C6 C7 C8 -0.8(10) .
N2 C10 C11 O2 179.2(5) .
N2 C10 C11 N3 -65.7(7) .
N2 C10 C11 C5 57.1(7) 2_556
C1 N1 C5 C4 -0.2(9) .
C1 N1 C5 C11 -178.7(5) 2_556
C1 C2 C3 C4 -1.2(10) .
C2 C3 C4 C5 1.0(10) .
C3 C4 C5 N1 -0.3(10) .
C3 C4 C5 C11 178.1(6) 2_556
C5 N1 C1 C2 0.0(9) .
C6 N2 C10 C9 -0.8(9) .
C6 N2 C10 C11 -177.1(5) .
C6 C7 C8 C9 0.1(10) .
C7 C8 C9 C10 0.1(10) .
C8 C9 C10 N2 0.2(10) .
C8 C9 C10 C11 176.3(6) .
C9 C10 C11 O2 2.9(8) .
C9 C10 C11 N3 118.0(6) .
C9 C10 C11 C5 -119.2(6) 2_556
C10 N2 C6 C7 1.2(9) .
C11 O2 C12 C13 23.6(9) .
C11 N3 C13 C12 28.3(7) .
C11 N3 C13 C14 -88.7(7) .
C11 N3 C13 C15 146.3(6) .
C12 O2 C11 N3 -4.8(8) .
C12 O2 C11 C5 -122.7(7) 2_556
C12 O2 C11 C10 114.9(7) .
C13 N3 C11 O2 -16.6(7) .
C13 N3 C11 C5 100.6(6) 2_556
C13 N3 C11 C10 -136.9(6) .
