#------------------------------------------------------------------------------
#$Date: 2017-04-22 05:22:27 +0300 (Sat, 22 Apr 2017) $
#$Revision: 195684 $
#$URL: file:///home/coder/svn-repositories/cod/cif/1/54/57/1545789.cif $
#------------------------------------------------------------------------------
#
# This file is available in the Crystallography Open Database (COD),
# http://www.crystallography.net/
#
# All data on this site have been placed in the public domain by the
# contributors.
#
data_1545789
loop_
_publ_author_name
'Pramanik, Titas'
'Srinivas, Pavan Mysore'
'Tayur, Guru Row N.'
_publ_section_title
;
 FDHALO17: Do halogen bonds dictate the packing preferences in solid
 solutions?
;
_journal_name_full               'Faraday Discuss.'
_journal_paper_doi               10.1039/C7FD00084G
_journal_year                    2017
_chemical_formula_moiety         'C7 H4 Br Cl O2'
_chemical_formula_sum            'C7 H4 Br Cl O2'
_chemical_formula_weight         235.46
_chemical_name_systematic
'2-bromo-4-chlorobenzoic acid/4-bromo-2-chlorobenzoic acid'
_space_group_crystal_system      triclinic
_space_group_IT_number           2
_space_group_name_Hall           '-P 1'
_space_group_name_H-M_alt        'P -1'
_symmetry_space_group_name_Hall  '-P 1'
_symmetry_space_group_name_H-M   'P -1'
_atom_sites_solution_hydrogens   geom
_audit_creation_method           SHELXL-2016/6
_audit_update_record
;
2017-04-18 deposited with the CCDC.
2017-04-21 downloaded from the CCDC.
;
_cell_angle_alpha                88.909(6)
_cell_angle_beta                 89.987(8)
_cell_angle_gamma                78.731(6)
_cell_formula_units_Z            2
_cell_length_a                   3.9007(4)
_cell_length_b                   8.3070(4)
_cell_length_c                   11.9258(12)
_cell_measurement_reflns_used    1943
_cell_measurement_temperature    100(2)
_cell_measurement_theta_max      27.4720
_cell_measurement_theta_min      3.0130
_cell_volume                     378.91(6)
_computing_structure_refinement  'SHELXL-2016/6 (Sheldrick, 2016)'
_diffrn_ambient_temperature      100(2)
_diffrn_measured_fraction_theta_full 0.999
_diffrn_measured_fraction_theta_max 0.999
_diffrn_measurement_device_type  'Xcalibur, Eos, Nova'
_diffrn_radiation_type           MoK\a
_diffrn_radiation_wavelength     0.71073
_diffrn_reflns_av_R_equivalents  0.1228
_diffrn_reflns_av_unetI/netI     0.0945
_diffrn_reflns_Laue_measured_fraction_full 0.999
_diffrn_reflns_Laue_measured_fraction_max 0.999
_diffrn_reflns_limit_h_max       4
_diffrn_reflns_limit_h_min       -5
_diffrn_reflns_limit_k_max       10
_diffrn_reflns_limit_k_min       -10
_diffrn_reflns_limit_l_max       15
_diffrn_reflns_limit_l_min       -15
_diffrn_reflns_number            5270
_diffrn_reflns_point_group_measured_fraction_full 0.999
_diffrn_reflns_point_group_measured_fraction_max 0.999
_diffrn_reflns_theta_full        25.242
_diffrn_reflns_theta_max         27.445
_diffrn_reflns_theta_min         2.501
_exptl_absorpt_coefficient_mu    5.714
_exptl_crystal_colour            Colorless
_exptl_crystal_density_diffrn    2.064
_exptl_crystal_description       Plate
_exptl_crystal_F_000             228
_exptl_crystal_recrystallization_method
'Re-crystallisation from solvent: Methanol'
_refine_diff_density_max         1.060
_refine_diff_density_min         -1.877
_refine_diff_density_rms         0.205
_refine_ls_extinction_method     none
_refine_ls_goodness_of_fit_ref   1.075
_refine_ls_hydrogen_treatment    constr
_refine_ls_matrix_type           full
_refine_ls_number_parameters     107
_refine_ls_number_reflns         1718
_refine_ls_number_restraints     4
_refine_ls_restrained_S_all      1.076
_refine_ls_R_factor_all          0.0734
_refine_ls_R_factor_gt           0.0601
_refine_ls_shift/su_max          0.001
_refine_ls_shift/su_mean         0.000
_refine_ls_structure_factor_coef Fsqd
_refine_ls_weighting_details
'w=1/[\s^2^(Fo^2^)+(0.0669P)^2^+0.0228P] where P=(Fo^2^+2Fc^2^)/3'
_refine_ls_weighting_scheme      calc
_refine_ls_wR_factor_gt          0.1340
_refine_ls_wR_factor_ref         0.1481
_reflns_Friedel_coverage         0.000
_reflns_number_gt                1427
_reflns_number_total             1718
_reflns_threshold_expression     'I > 2\s(I)'
_cod_data_source_file            c7fd00084g2.cif
_cod_data_source_block           shelx
_cod_database_code               1545789
_shelx_shelxl_version_number     2016/6
_shelx_space_group_comment
;
The symmetry employed for this shelxl refinement is uniquely defined
by the following loop, which should always be used as a source of
symmetry information in preference to the above space-group names.
They are only intended as comments.
;
_shelx_res_file
;
TITL new in P-1
    shelx.res
    created by SHELXL-2016/6 at 16:24:34 on 17-Apr-2017
CELL  0.71073   3.9007   8.3070  11.9258   88.909   89.987   78.731
ZERR     2.00   0.0004   0.0004   0.0012    0.006    0.008    0.006
LATT   1
SFAC  C    H    O    CL   BR
UNIT  14 8 4 2 2
MERG   2
EADP BR1 CL2
EADP BR2 CL1
DFIX 1.900 0.005 C3 BR1
DFIX 1.900 0.005 C5 BR2
DFIX 1.740 0.005 C3 CL2
DFIX 1.740 0.005 C5 CL1
FMAP   2
PLAN   20
ACTA
LIST   3
L.S.   5
WGHT    0.066900    0.022800
FVAR       6.35525   0.81362
PART    1
BR1   5    0.580859    0.416199    0.332873    21.00000    0.02900    0.01185 =
         0.03010   -0.00028   -0.00671   -0.00110
CL1   4    0.826306   -0.240923    0.405504    21.00000    0.02234    0.01225 =
         0.02885    0.00387   -0.00968    0.00328
PART    2
CL2   4    0.576490    0.402500    0.323877   -21.00000    0.02900    0.01185 =
         0.03010   -0.00028   -0.00671   -0.00110
BR2   5    0.873004   -0.250785    0.413253   -21.00000    0.02234    0.01225 =
         0.02885    0.00387   -0.00968    0.00328
PART    0
O1    3    0.020654    0.277319    0.016998    11.00000    0.04025    0.02597 =
         0.02962    0.00727   -0.01092   -0.00233
AFIX  83
H1    2   -0.056140    0.356548   -0.023972    11.00000   -1.50000
AFIX   0
O2    3    0.254168    0.464589    0.108234    11.00000    0.04438    0.01904 =
         0.03257    0.00502   -0.01181   -0.01005
C3    1    0.526510    0.209983    0.279489    11.00000    0.01717    0.01597 =
         0.02811   -0.00170    0.00034   -0.00058
C4    1    0.663607    0.077946    0.350127    11.00000    0.02099    0.02016 =
         0.02427    0.00155   -0.00023    0.00407
AFIX  43
H4    2    0.765024    0.094821    0.418382    11.00000   -1.20000
AFIX   0
C2    1    0.360854    0.186407    0.178452    11.00000    0.02101    0.01586 =
         0.02640   -0.00013   -0.00372    0.00273
C7    1    0.345724    0.024086    0.149759    11.00000    0.02483    0.02438 =
         0.02376   -0.00234    0.00012   -0.00115
AFIX  43
H7    2    0.236865    0.006171    0.083041    11.00000   -1.20000
AFIX   0
C6    1    0.487317   -0.109527    0.217473    11.00000    0.02313    0.01867 =
         0.02978   -0.00269   -0.00324   -0.00430
AFIX  43
H6    2    0.476551   -0.215971    0.197173    11.00000   -1.20000
AFIX   0
C5    1    0.646335   -0.078590    0.317040    11.00000    0.01794    0.02042 =
         0.02304    0.00211    0.00155    0.00092
C1    1    0.211678    0.324349    0.100076    11.00000    0.02283    0.02630 =
         0.01761    0.00229    0.00118   -0.00162
HKLF    4




REM  new in P-1
REM R1 =  0.0601 for    1427 Fo > 4sig(Fo)  and  0.0734 for all    1718 data
REM    107 parameters refined using      4 restraints

END

WGHT      0.0675      0.0228

REM Highest difference peak  1.060,  deepest hole -1.877,  1-sigma level  0.205
Q1    1   0.3886  0.4124  0.3991  11.00000  0.05    1.06
Q2    1   0.7139  0.4039  0.3974  11.00000  0.05    0.94
Q3    1   0.3279  0.3573  0.3275  11.00000  0.05    0.80
Q4    1   0.3921  0.4362  0.2782  11.00000  0.05    0.73
Q5    1   0.7216  0.4195  0.2563  11.00000  0.05    0.71
Q6    1   1.0482 -0.5282  0.4545  11.00000  0.05    0.70
Q7    1   0.8770 -0.2361  0.3316  11.00000  0.05    0.69
Q8    1   0.4814  0.5221  0.4059  11.00000  0.05    0.68
Q9    1   0.6331  0.3284  0.4378  11.00000  0.05    0.67
Q10   1   0.7785 -0.3951  0.4592  11.00000  0.05    0.66
Q11   1   0.8604  0.4668  0.3287  11.00000  0.05    0.65
Q12   1   0.6328  0.4349  0.2424  11.00000  0.05    0.64
Q13   1   0.8215 -0.2103  0.4904  11.00000  0.05    0.58
Q14   1   0.5420  0.1195  0.4933  11.00000  0.05    0.57
Q15   1   0.3434  0.4560  0.3045  11.00000  0.05    0.57
Q16   1   1.1051 -0.3865  0.4536  11.00000  0.05    0.56
Q17   1   0.6870  0.2996  0.2516  11.00000  0.05    0.56
Q18   1   0.2831  0.5217  0.4254  11.00000  0.05    0.55
Q19   1   0.6758 -0.2410  0.4829  11.00000  0.05    0.53
Q20   1  -0.0012  0.3111  0.2351  11.00000  0.05    0.53
;
_shelx_res_checksum              52901
loop_
_space_group_symop_operation_xyz
'x, y, z'
'-x, -y, -z'
loop_
_atom_site_label
_atom_site_type_symbol
_atom_site_fract_x
_atom_site_fract_y
_atom_site_fract_z
_atom_site_U_iso_or_equiv
_atom_site_adp_type
_atom_site_occupancy
_atom_site_site_symmetry_order
_atom_site_calc_flag
_atom_site_refinement_flags_posn
_atom_site_refinement_flags_adp
_atom_site_refinement_flags_occupancy
_atom_site_disorder_assembly
_atom_site_disorder_group
Br1 Br 0.5809(13) 0.4162(3) 0.3329(4) 0.0240(3) Uani 0.814(2) 1 d D . P A 1
Cl1 Cl 0.826(3) -0.2409(13) 0.4055(11) 0.0221(9) Uani 0.814(2) 1 d D . P A 1
Cl2 Cl 0.576(15) 0.403(3) 0.324(4) 0.0240(3) Uani 0.186(2) 1 d D . P A 2
Br2 Br 0.873(6) -0.251(2) 0.413(2) 0.0221(9) Uani 0.186(2) 1 d D . P A 2
O1 O 0.0207(10) 0.2773(5) 0.0170(3) 0.0326(9) Uani 1 1 d . . . . .
H1 H -0.056140 0.356548 -0.023972 0.049 Uiso 1 1 calc R U . . .
O2 O 0.2542(10) 0.4646(4) 0.1082(3) 0.0315(9) Uani 1 1 d . . . . .
C3 C 0.5265(12) 0.2100(4) 0.2795(4) 0.0208(10) Uani 1 1 d D . . . .
C4 C 0.6636(12) 0.0779(5) 0.3501(4) 0.0229(11) Uani 1 1 d . . . . .
H4 H 0.765024 0.094821 0.418382 0.028 Uiso 1 1 calc R U . . .
C2 C 0.3609(12) 0.1864(5) 0.1785(4) 0.0220(11) Uani 1 1 d . . . . .
C7 C 0.3457(13) 0.0241(6) 0.1498(4) 0.0248(11) Uani 1 1 d . . . . .
H7 H 0.236865 0.006171 0.083041 0.030 Uiso 1 1 calc R U . . .
C6 C 0.4873(13) -0.1095(6) 0.2175(4) 0.0238(11) Uani 1 1 d . . . . .
H6 H 0.476551 -0.215971 0.197173 0.029 Uiso 1 1 calc R U . . .
C5 C 0.6463(12) -0.0786(5) 0.3170(4) 0.0211(10) Uani 1 1 d D . . . .
C1 C 0.2117(13) 0.3243(6) 0.1001(4) 0.0227(11) Uani 1 1 d . . . . .
loop_
_atom_site_aniso_label
_atom_site_aniso_U_11
_atom_site_aniso_U_22
_atom_site_aniso_U_33
_atom_site_aniso_U_23
_atom_site_aniso_U_13
_atom_site_aniso_U_12
Br1 0.0290(4) 0.0119(5) 0.0301(10) -0.0003(4) -0.0067(6) -0.0011(5)
Cl1 0.022(3) 0.0122(12) 0.0289(17) 0.0039(6) -0.0097(15) 0.0033(14)
Cl2 0.0290(4) 0.0119(5) 0.0301(10) -0.0003(4) -0.0067(6) -0.0011(5)
Br2 0.022(3) 0.0122(12) 0.0289(17) 0.0039(6) -0.0097(15) 0.0033(14)
O1 0.040(2) 0.0260(19) 0.030(2) 0.0073(15) -0.0109(18) -0.0023(16)
O2 0.044(2) 0.0190(17) 0.033(2) 0.0050(15) -0.0118(18) -0.0100(16)
C3 0.017(2) 0.016(2) 0.028(3) -0.0017(18) 0.000(2) -0.0006(18)
C4 0.021(3) 0.020(2) 0.024(3) 0.0015(19) 0.000(2) 0.0041(19)
C2 0.021(3) 0.016(2) 0.026(3) -0.0001(19) -0.004(2) 0.0027(18)
C7 0.025(3) 0.024(2) 0.024(3) -0.002(2) 0.000(2) -0.001(2)
C6 0.023(3) 0.019(2) 0.030(3) -0.0027(19) -0.003(2) -0.0043(19)
C5 0.018(2) 0.020(2) 0.023(2) 0.0021(19) 0.002(2) 0.0009(18)
C1 0.023(3) 0.026(3) 0.018(2) 0.0023(19) 0.001(2) -0.002(2)
loop_
_atom_type_symbol
_atom_type_description
_atom_type_scat_dispersion_real
_atom_type_scat_dispersion_imag
_atom_type_scat_source
C C 0.0033 0.0016 'International Tables Vol C Tables 4.2.6.8 and 6.1.1.4'
H H 0.0000 0.0000 'International Tables Vol C Tables 4.2.6.8 and 6.1.1.4'
O O 0.0106 0.0060 'International Tables Vol C Tables 4.2.6.8 and 6.1.1.4'
Cl Cl 0.1484 0.1585 'International Tables Vol C Tables 4.2.6.8 and 6.1.1.4'
Br Br -0.2901 2.4595 'International Tables Vol C Tables 4.2.6.8 and 6.1.1.4'
loop_
_geom_angle_atom_site_label_1
_geom_angle_atom_site_label_2
_geom_angle_atom_site_label_3
_geom_angle
C4 C3 C2 121.1(4)
C4 C3 Cl2 116.1(18)
C2 C3 Cl2 122.9(18)
C4 C3 Br1 114.3(4)
C2 C3 Br1 124.6(4)
C5 C4 C3 118.8(4)
C3 C2 C7 117.7(4)
C3 C2 C1 122.8(4)
C7 C2 C1 119.5(4)
C6 C7 C2 122.3(5)
C7 C6 C5 117.5(4)
C4 C5 C6 122.7(4)
C4 C5 Cl1 117.8(6)
C6 C5 Cl1 119.6(6)
C4 C5 Br2 115.5(9)
C6 C5 Br2 121.8(9)
O2 C1 O1 122.5(4)
O2 C1 C2 124.8(4)
O1 C1 C2 112.7(4)
loop_
_geom_bond_atom_site_label_1
_geom_bond_atom_site_label_2
_geom_bond_distance
Br1 C3 1.889(4)
Cl1 C5 1.732(4)
Cl2 C3 1.741(5)
Br2 C5 1.894(5)
O1 C1 1.348(6)
O2 C1 1.214(6)
C3 C4 1.391(6)
C3 C2 1.402(6)
C4 C5 1.380(6)
C2 C7 1.410(7)
C2 C1 1.491(6)
C7 C6 1.384(7)
C6 C5 1.391(7)
