#------------------------------------------------------------------------------
#$Date: 2017-04-22 05:22:27 +0300 (Sat, 22 Apr 2017) $
#$Revision: 195684 $
#$URL: file:///home/coder/svn-repositories/cod/cif/1/54/57/1545786.cif $
#------------------------------------------------------------------------------
#
# This file is available in the Crystallography Open Database (COD),
# http://www.crystallography.net/
#
# All data on this site have been placed in the public domain by the
# contributors.
#
data_1545786
loop_
_publ_author_name
'Pramanik, Titas'
'Srinivas, Pavan Mysore'
'Tayur, Guru Row N.'
_publ_section_title
;
 FDHALO17: Do halogen bonds dictate the packing preferences in solid
 solutions?
;
_journal_name_full               'Faraday Discuss.'
_journal_paper_doi               10.1039/C7FD00084G
_journal_year                    2017
_chemical_formula_moiety         'C7 H4 Br Cl O2'
_chemical_formula_sum            'C7 H4 Br Cl O2'
_chemical_formula_weight         235.46
_chemical_name_common            '4-bromo-2chlorobenzoic acid'
_space_group_crystal_system      monoclinic
_space_group_IT_number           14
_space_group_name_Hall           '-P 2yn'
_space_group_name_H-M_alt        'P 1 21/n 1'
_symmetry_space_group_name_Hall  '-P 2yn'
_symmetry_space_group_name_H-M   'P 1 21/n 1'
_atom_sites_solution_hydrogens   geom
_audit_creation_method           SHELXL-2014/7
_audit_update_record
;
2017-02-27 deposited with the CCDC.
2017-04-21 downloaded from the CCDC.
;
_cell_angle_alpha                90
_cell_angle_beta                 104.676(3)
_cell_angle_gamma                90
_cell_formula_units_Z            4
_cell_length_a                   7.2560(2)
_cell_length_b                   9.0227(2)
_cell_length_c                   11.9855(3)
_cell_measurement_reflns_used    8766
_cell_measurement_temperature    100(2)
_cell_measurement_theta_max      27.4450
_cell_measurement_theta_min      2.8300
_cell_volume                     759.07(3)
_computing_structure_refinement  'SHELXL-2014/7 (Sheldrick, 2014)'
_diffrn_ambient_temperature      100(2)
_diffrn_measured_fraction_theta_full 1.000
_diffrn_measured_fraction_theta_max 1.000
_diffrn_measurement_device_type  'Xcalibur, Eos, Nova'
_diffrn_radiation_type           MoK\a
_diffrn_radiation_wavelength     0.71073
_diffrn_reflns_av_R_equivalents  0.0358
_diffrn_reflns_av_unetI/netI     0.0170
_diffrn_reflns_Laue_measured_fraction_full 1.000
_diffrn_reflns_Laue_measured_fraction_max 1.000
_diffrn_reflns_limit_h_max       9
_diffrn_reflns_limit_h_min       -9
_diffrn_reflns_limit_k_max       11
_diffrn_reflns_limit_k_min       -11
_diffrn_reflns_limit_l_max       15
_diffrn_reflns_limit_l_min       -15
_diffrn_reflns_number            13288
_diffrn_reflns_point_group_measured_fraction_full 1.000
_diffrn_reflns_point_group_measured_fraction_max 1.000
_diffrn_reflns_theta_full        25.242
_diffrn_reflns_theta_max         27.486
_diffrn_reflns_theta_min         2.861
_exptl_absorpt_coefficient_mu    5.705
_exptl_crystal_colour            Colorless
_exptl_crystal_density_diffrn    2.060
_exptl_crystal_description       Block
_exptl_crystal_F_000             456
_refine_diff_density_max         0.390
_refine_diff_density_min         -0.322
_refine_diff_density_rms         0.059
_refine_ls_extinction_method     none
_refine_ls_goodness_of_fit_ref   1.120
_refine_ls_hydrogen_treatment    constr
_refine_ls_matrix_type           full
_refine_ls_number_parameters     119
_refine_ls_number_reflns         1743
_refine_ls_number_restraints     0
_refine_ls_restrained_S_all      1.120
_refine_ls_R_factor_all          0.0214
_refine_ls_R_factor_gt           0.0198
_refine_ls_shift/su_max          0.003
_refine_ls_shift/su_mean         0.000
_refine_ls_structure_factor_coef Fsqd
_refine_ls_weighting_details
'w=1/[\s^2^(Fo^2^)+(0.0240P)^2^+0.4121P] where P=(Fo^2^+2Fc^2^)/3'
_refine_ls_weighting_scheme      calc
_refine_ls_wR_factor_gt          0.0508
_refine_ls_wR_factor_ref         0.0516
_reflns_Friedel_coverage         0.000
_reflns_number_gt                1656
_reflns_number_total             1743
_reflns_threshold_expression     'I > 2\s(I)'
_cod_data_source_file            c7fd00084g2.cif
_cod_data_source_block           shelx
_cod_database_code               1545786
_shelx_shelxl_version_number     2014/7
_shelx_space_group_comment
;
The symmetry employed for this shelxl refinement is uniquely defined
by the following loop, which should always be used as a source of
symmetry information in preference to the above space-group names.
They are only intended as comments.
;
_shelx_res_file
;

    shelx.res created by SHELXL-2014/7

TITL red1 in P2(1)/n
CELL  0.71073   7.2560   9.0227  11.9855   90.000  104.676   90.000
ZERR     4.00   0.0002   0.0002   0.0003    0.000    0.003    0.000
LATT   1
SYMM  1/2 - X, 1/2 + Y, 1/2 - Z
SFAC  C    H    O    CL   BR
UNIT  28 16 8 4 4
MERG   2
FMAP   2
PLAN   20
ACTA
LIST   3
L.S.   5
WGHT    0.024000    0.412100
FVAR       4.99907   0.51779
PART    1
BR1   5    0.920107    0.334913    0.057962    21.00000    0.01968    0.01136 =
         0.03289   -0.00592    0.00434   -0.00554
CL1   4    0.634481   -0.120688   -0.231662    21.00000    0.02697    0.01926 =
         0.00866   -0.00013   -0.00534    0.00046
PART    2
CL2   4    0.901635    0.318711    0.050496   -21.00000    0.02067    0.01189 =
         0.03421   -0.00852    0.00272   -0.00968
BR2   5    0.608425   -0.119901   -0.245764   -21.00000    0.02976    0.01788 =
         0.01230   -0.00065   -0.00250    0.00147
PART    0
O2    3    0.583218   -0.362150    0.089086    11.00000    0.03891    0.01958 =
         0.01961    0.00235    0.00549   -0.00670
O1    3    0.561973   -0.369787   -0.099263    11.00000    0.04551    0.01835 =
         0.02099   -0.00389    0.00951   -0.01086
AFIX  83
H1    2    0.521125   -0.452970   -0.091847    11.00000   -1.50000
AFIX   0
C5    1    0.824419    0.139379    0.035486    11.00000    0.01783    0.01274 =
         0.02808   -0.00227    0.00621    0.00062
C6    1    0.818322    0.055572    0.131694    11.00000    0.02122    0.02136 =
         0.01936   -0.00358    0.00288   -0.00035
AFIX  43
H6    2    0.861215    0.094406    0.205616    11.00000   -1.20000
AFIX   0
C2    1    0.681896   -0.149501    0.004517    11.00000    0.01702    0.01471 =
         0.01889    0.00039    0.00424    0.00198
C4    1    0.761999    0.083062   -0.075196    11.00000    0.02095    0.01659 =
         0.02144    0.00284    0.00655    0.00224
AFIX  43
H4    2    0.766678    0.140959   -0.138616    11.00000   -1.20000
AFIX   0
C7    1    0.746924   -0.086970    0.114837    11.00000    0.02087    0.02011 =
         0.01792    0.00157    0.00508    0.00106
AFIX  43
H7    2    0.741748   -0.143525    0.178844    11.00000   -1.20000
AFIX   0
C3    1    0.692220   -0.061144   -0.090367    11.00000    0.01890    0.01605 =
         0.01817   -0.00107    0.00523    0.00243
C1    1    0.604787   -0.303303   -0.000113    11.00000    0.01882    0.01659 =
         0.01712    0.00048    0.00276    0.00159
HKLF    4

REM  red1 in P2(1)/n
REM R1 =  0.0198 for    1656 Fo > 4sig(Fo)  and  0.0214 for all    1743 data
REM    119 parameters refined using      0 restraints

END

WGHT      0.0240      0.4124

REM Highest difference peak  0.390,  deepest hole -0.322,  1-sigma level  0.059
Q1    1   0.6478 -0.2209 -0.0033  11.00000  0.05    0.39
Q2    1   0.6867 -0.1156 -0.0398  11.00000  0.05    0.32
Q3    1   0.4902 -0.1330 -0.2351  11.00000  0.05    0.31
Q4    1   0.7183 -0.1154  0.0578  11.00000  0.05    0.30
Q5    1   0.6971  0.0184 -0.0811  11.00000  0.05    0.29
Q6    1   0.8099 -0.0224  0.1162  11.00000  0.05    0.28
Q7    1   0.8121  0.0908  0.0787  11.00000  0.05    0.28
Q8    1   0.6999 -0.1178  0.2349  11.00000  0.05    0.27
Q9    1   0.8579  0.2191  0.0388  11.00000  0.05    0.27
Q10   1   0.7806  0.1146 -0.0223  11.00000  0.05    0.25
Q11   1   0.5026 -0.0451 -0.2642  11.00000  0.05    0.25
Q12   1   0.5542 -0.0170 -0.2718  11.00000  0.05    0.25
Q13   1   0.9717  0.3092  0.1448  11.00000  0.05    0.24
Q14   1   0.8767  0.3337 -0.0275  11.00000  0.05    0.19
Q15   1   0.7739  0.0991 -0.1016  11.00000  0.05    0.18
Q16   1   0.5379 -0.4394  0.0782  11.00000  0.05    0.18
Q17   1   0.6063 -0.4520  0.0978  11.00000  0.05    0.17
Q18   1   0.5758 -0.3278 -0.0482  11.00000  0.05    0.17
Q19   1   0.6485 -0.0767 -0.1382  11.00000  0.05    0.17
Q20   1   0.7288 -0.1870 -0.2346  11.00000  0.05    0.17
;
_shelx_res_checksum              85118
loop_
_space_group_symop_operation_xyz
'x, y, z'
'-x+1/2, y+1/2, -z+1/2'
'-x, -y, -z'
'x-1/2, -y-1/2, z-1/2'
loop_
_atom_site_label
_atom_site_type_symbol
_atom_site_fract_x
_atom_site_fract_y
_atom_site_fract_z
_atom_site_U_iso_or_equiv
_atom_site_adp_type
_atom_site_occupancy
_atom_site_site_symmetry_order
_atom_site_calc_flag
_atom_site_refinement_flags_posn
_atom_site_refinement_flags_adp
_atom_site_refinement_flags_occupancy
_atom_site_disorder_assembly
_atom_site_disorder_group
Br1 Br 0.9201(6) 0.3349(5) 0.0580(5) 0.0217(4) Uani 0.5178(12) 1 d . . P A 1
Cl1 Cl 0.6345(15) -0.1207(13) -0.2317(9) 0.0201(8) Uani 0.5178(12) 1 d . . P A
1
Cl2 Cl 0.9016(18) 0.3187(13) 0.0505(13) 0.0230(10) Uani 0.4822(12) 1 d . . P A
2
Br2 Br 0.6084(7) -0.1199(6) -0.2458(4) 0.0214(5) Uani 0.4822(12) 1 d . . P A 2
O2 O 0.5832(2) -0.36215(14) 0.08909(11) 0.0264(3) Uani 1 1 d . . . . .
O1 O 0.5620(2) -0.36979(14) -0.09926(11) 0.0281(3) Uani 1 1 d . . . . .
H1 H 0.5211 -0.4530 -0.0918 0.042 Uiso 1 1 calc R U . . .
C5 C 0.8244(2) 0.13938(18) 0.03549(16) 0.0195(3) Uani 1 1 d . . . . .
C6 C 0.8183(2) 0.0556(2) 0.13169(15) 0.0211(3) Uani 1 1 d . . . . .
H6 H 0.8612 0.0944 0.2056 0.025 Uiso 1 1 calc R U . . .
C2 C 0.6819(2) -0.14950(18) 0.00452(15) 0.0169(3) Uani 1 1 d . . . . .
C4 C 0.7620(2) 0.08306(19) -0.07520(15) 0.0194(3) Uani 1 1 d . . . . .
H4 H 0.7667 0.1410 -0.1386 0.023 Uiso 1 1 calc R U . . .
C7 C 0.7469(2) -0.08697(19) 0.11484(15) 0.0196(3) Uani 1 1 d . . . . .
H7 H 0.7417 -0.1435 0.1788 0.024 Uiso 1 1 calc R U . . .
C3 C 0.6922(2) -0.06114(18) -0.09037(14) 0.0176(3) Uani 1 1 d . . . . .
C1 C 0.6048(2) -0.30330(18) -0.00011(14) 0.0178(3) Uani 1 1 d . . . . .
loop_
_atom_site_aniso_label
_atom_site_aniso_U_11
_atom_site_aniso_U_22
_atom_site_aniso_U_33
_atom_site_aniso_U_23
_atom_site_aniso_U_13
_atom_site_aniso_U_12
Br1 0.0197(8) 0.0114(8) 0.0329(7) -0.0059(6) 0.0043(6) -0.0055(6)
Cl1 0.027(2) 0.0193(8) 0.0087(16) -0.0001(10) -0.0053(13) 0.0005(12)
Cl2 0.0207(17) 0.0119(19) 0.0342(15) -0.0085(12) 0.0027(12) -0.0097(11)
Br2 0.0298(11) 0.0179(4) 0.0123(10) -0.0007(6) -0.0025(7) 0.0015(6)
O2 0.0389(8) 0.0196(6) 0.0196(6) 0.0024(5) 0.0055(6) -0.0067(6)
O1 0.0455(9) 0.0183(6) 0.0210(7) -0.0039(5) 0.0095(6) -0.0109(6)
C5 0.0178(8) 0.0127(7) 0.0281(9) -0.0023(7) 0.0062(7) 0.0006(6)
C6 0.0212(8) 0.0214(8) 0.0194(8) -0.0036(7) 0.0029(6) -0.0003(7)
C2 0.0170(8) 0.0147(7) 0.0189(8) 0.0004(6) 0.0042(6) 0.0020(6)
C4 0.0209(8) 0.0166(8) 0.0214(8) 0.0028(6) 0.0066(7) 0.0022(6)
C7 0.0209(8) 0.0201(8) 0.0179(8) 0.0016(6) 0.0051(7) 0.0011(6)
C3 0.0189(8) 0.0160(8) 0.0182(8) -0.0011(6) 0.0052(6) 0.0024(6)
C1 0.0188(8) 0.0166(8) 0.0171(8) 0.0005(6) 0.0028(6) 0.0016(6)
loop_
_atom_type_symbol
_atom_type_description
_atom_type_scat_dispersion_real
_atom_type_scat_dispersion_imag
_atom_type_scat_source
C C 0.0033 0.0016 'International Tables Vol C Tables 4.2.6.8 and 6.1.1.4'
H H 0.0000 0.0000 'International Tables Vol C Tables 4.2.6.8 and 6.1.1.4'
O O 0.0106 0.0060 'International Tables Vol C Tables 4.2.6.8 and 6.1.1.4'
Cl Cl 0.1484 0.1585 'International Tables Vol C Tables 4.2.6.8 and 6.1.1.4'
Br Br -0.2901 2.4595 'International Tables Vol C Tables 4.2.6.8 and 6.1.1.4'
loop_
_geom_angle_atom_site_label_1
_geom_angle_atom_site_label_2
_geom_angle_atom_site_label_3
_geom_angle
C4 C5 C6 121.59(16)
C4 C5 Cl2 117.9(5)
C6 C5 Cl2 120.5(5)
C4 C5 Br1 119.9(2)
C6 C5 Br1 118.5(2)
C7 C6 C5 118.35(16)
C7 C2 C3 117.36(15)
C7 C2 C1 116.23(15)
C3 C2 C1 126.40(15)
C5 C4 C3 119.22(16)
C6 C7 C2 122.37(16)
C4 C3 C2 121.11(15)
C4 C3 Cl1 114.2(4)
C2 C3 Cl1 124.6(4)
C4 C3 Br2 114.1(2)
C2 C3 Br2 124.8(2)
O2 C1 O1 122.64(16)
O2 C1 C2 119.66(15)
O1 C1 C2 117.70(15)
loop_
_geom_bond_atom_site_label_1
_geom_bond_atom_site_label_2
_geom_bond_distance
Br1 C5 1.890(4)
Cl1 C3 1.724(11)
Cl2 C5 1.707(11)
Br2 C3 1.883(5)
O2 C1 1.239(2)
O1 C1 1.297(2)
C5 C4 1.385(2)
C5 C6 1.389(2)
C6 C7 1.382(2)
C2 C7 1.405(2)
C2 C3 1.406(2)
C2 C1 1.492(2)
C4 C3 1.391(2)
