#------------------------------------------------------------------------------
#$Date: 2017-05-06 01:04:09 +0300 (Sat, 06 May 2017) $
#$Revision: 196416 $
#$URL: file:///home/coder/svn-repositories/cod/cif/1/54/55/1545597.cif $
#------------------------------------------------------------------------------
#
# This file is available in the Crystallography Open Database (COD),
# http://www.crystallography.net/
#
# All data on this site have been placed in the public domain by the
# contributors.
#
data_1545597
loop_
_publ_author_name
'Pedersen, Anders H.'
'Geoghegan, Blaise L.'
'Nichol, Gary S.'
'Lupton, David W.'
'Murray, Keith S.'
'Mart\'inez-Lillo, Jos\'e'
'Gass, Ian A.'
'Brechin, Euan K.'
_publ_section_title
;
 Hexahalorhenate(iv) salts of metal oxazolidine nitroxides.
;
_journal_issue                   16
_journal_name_full
'Dalton transactions (Cambridge, England : 2003)'
_journal_page_first              5250
_journal_page_last               5259
_journal_paper_doi               10.1039/c7dt00752c
_journal_volume                  46
_journal_year                    2017
_chemical_formula_moiety         'Br6 Re, C30 H32 Fe N6 O4'
_chemical_formula_sum            'C30 H32 Br6 Fe N6 O4 Re'
_chemical_formula_weight         1262.12
_space_group_crystal_system      triclinic
_space_group_IT_number           2
_space_group_name_Hall           '-P 1'
_space_group_name_H-M_alt        'P -1'
_symmetry_space_group_name_Hall  '-P 1'
_symmetry_space_group_name_H-M   'P -1'
_atom_sites_solution_hydrogens   geom
_atom_sites_solution_primary     iterative
_audit_creation_date             2016-06-17
_audit_creation_method
;
Olex2 1.2
(compiled 2016.02.19 svn.r3266 for OlexSys, GUI svn.r5155)
;
_audit_update_record
;
2017-02-24 deposited with the CCDC.
2017-03-20 downloaded from the CCDC.
;
_cell_angle_alpha                105.576(5)
_cell_angle_beta                 101.890(5)
_cell_angle_gamma                93.681(4)
_cell_formula_units_Z            1
_cell_length_a                   8.0539(4)
_cell_length_b                   10.6650(6)
_cell_length_c                   11.0535(7)
_cell_measurement_reflns_used    3897
_cell_measurement_temperature    120.00(10)
_cell_measurement_theta_max      28.8700
_cell_measurement_theta_min      3.3750
_cell_volume                     887.72(9)
_computing_cell_refinement
;
CrysAlisPro, Agilent Technologies,
Version 1.171.37.35e (release 07-10-2014 CrysAlis171 .NET)
(compiled Oct  7 2014,17:20:27)
;
_computing_data_collection
;
CrysAlisPro, Agilent Technologies,
Version 1.171.37.35e (release 07-10-2014 CrysAlis171 .NET)
(compiled Oct  7 2014,17:20:27)
;
_computing_data_reduction
;
CrysAlisPro, Agilent Technologies,
Version 1.171.37.35e (release 07-10-2014 CrysAlis171 .NET)
(compiled Oct  7 2014,17:20:27)
;
_computing_molecular_graphics    'Olex2 (Dolomanov et al., 2009)'
_computing_publication_material  'Olex2 (Dolomanov et al., 2009)'
_computing_structure_refinement  'ShelXL (Sheldrick, 2015)'
_computing_structure_solution    'olex2.solve (Bourhis et al., 2015)'
_diffrn_ambient_environment      N~2~
_diffrn_ambient_temperature      120.00(10)
_diffrn_detector                 'CCD plate'
_diffrn_detector_area_resol_mean 5.1574
_diffrn_detector_type            Atlas
_diffrn_measured_fraction_theta_full 0.999
_diffrn_measured_fraction_theta_max 0.880
_diffrn_measurement_details
;
#__ type_ start__ end____ width___ exp.time_
  1 omega  -59.00   38.00   1.0000   15.0000
omega____ theta____ kappa____ phi______ frames
    -       10.9935  -57.0000   30.0000 97

#__ type_ start__ end____ width___ exp.time_
  2 omega  -59.00   38.00   1.0000   15.0000
omega____ theta____ kappa____ phi______ frames
    -       10.9935  -57.0000 -120.0000 97

#__ type_ start__ end____ width___ exp.time_
  3 omega  -20.00   85.00   1.0000   15.0000
omega____ theta____ kappa____ phi______ frames
    -       10.9935   77.0000  -60.0000 105

#__ type_ start__ end____ width___ exp.time_
  4 omega  -16.00   81.00   1.0000   15.0000
omega____ theta____ kappa____ phi______ frames
    -       10.9935   57.0000 -180.0000 97

#__ type_ start__ end____ width___ exp.time_
  5 omega  -16.00   81.00   1.0000   15.0000
omega____ theta____ kappa____ phi______ frames
    -       10.9935   57.0000   30.0000 97

#__ type_ start__ end____ width___ exp.time_
  6 omega  -20.00   46.00   1.0000   15.0000
omega____ theta____ kappa____ phi______ frames
    -       10.9935  -99.0000  -30.0000 66

#__ type_ start__ end____ width___ exp.time_
  7 omega  -20.00   51.00   1.0000   15.0000
omega____ theta____ kappa____ phi______ frames
    -       10.9935  -99.0000 -180.0000 71
;
_diffrn_measurement_device       'four-circle diffractometer'
_diffrn_measurement_device_type  'SuperNova, Dual, Cu at zero, Atlas'
_diffrn_measurement_method       '\w scans'
_diffrn_orient_matrix_UB_11      0.0285498000
_diffrn_orient_matrix_UB_12      -0.0157371000
_diffrn_orient_matrix_UB_13      0.0586380000
_diffrn_orient_matrix_UB_21      0.0859301000
_diffrn_orient_matrix_UB_22      0.0189137000
_diffrn_orient_matrix_UB_23      -0.0003129000
_diffrn_orient_matrix_UB_31      -0.0057629000
_diffrn_orient_matrix_UB_32      0.0651111000
_diffrn_orient_matrix_UB_33      0.0353871000
_diffrn_radiation_monochromator  mirror
_diffrn_radiation_probe          x-ray
_diffrn_radiation_type           MoK\a
_diffrn_radiation_wavelength     0.71073
_diffrn_reflns_av_R_equivalents  0.0706
_diffrn_reflns_av_unetI/netI     0.0810
_diffrn_reflns_Laue_measured_fraction_full 0.999
_diffrn_reflns_Laue_measured_fraction_max 0.880
_diffrn_reflns_limit_h_max       11
_diffrn_reflns_limit_h_min       -11
_diffrn_reflns_limit_k_max       13
_diffrn_reflns_limit_k_min       -14
_diffrn_reflns_limit_l_max       15
_diffrn_reflns_limit_l_min       -15
_diffrn_reflns_number            15756
_diffrn_reflns_point_group_measured_fraction_full 0.999
_diffrn_reflns_point_group_measured_fraction_max 0.880
_diffrn_reflns_theta_full        26.000
_diffrn_reflns_theta_max         29.760
_diffrn_reflns_theta_min         3.077
_diffrn_source                   'SuperNova (Mo) X-ray Source'
_exptl_absorpt_coefficient_mu    10.612
_exptl_absorpt_correction_T_max  0.758
_exptl_absorpt_correction_T_min  0.299
_exptl_absorpt_correction_type   gaussian
_exptl_absorpt_process_details
;
CrysAlisPro, Agilent Technologies,
Version 1.171.37.35e (release 07-10-2014 CrysAlis171 .NET)
(compiled Oct  7 2014,17:20:27)
Numerical absorption correction based on gaussian integration over
            a multifaceted crystal model
Empirical absorption correction using spherical harmonics,
 implemented in SCALE3 ABSPACK scaling algorithm.
;
_exptl_crystal_colour            'dark green'
_exptl_crystal_colour_modifier   dark
_exptl_crystal_colour_primary    green
_exptl_crystal_density_diffrn    2.361
_exptl_crystal_description       plate
_exptl_crystal_F_000             597
_exptl_crystal_size_max          0.1998
_exptl_crystal_size_mid          0.0864
_exptl_crystal_size_min          0.0305
_refine_diff_density_max         2.010
_refine_diff_density_min         -1.893
_refine_diff_density_rms         0.240
_refine_ls_extinction_method     none
_refine_ls_goodness_of_fit_ref   1.069
_refine_ls_hydrogen_treatment    constr
_refine_ls_matrix_type           full
_refine_ls_number_parameters     222
_refine_ls_number_reflns         4460
_refine_ls_number_restraints     0
_refine_ls_restrained_S_all      1.069
_refine_ls_R_factor_all          0.0666
_refine_ls_R_factor_gt           0.0493
_refine_ls_shift/su_max          0.000
_refine_ls_shift/su_mean         0.000
_refine_ls_structure_factor_coef Fsqd
_refine_ls_weighting_details
'w=1/[\s^2^(Fo^2^)+(0.0272P)^2^] where P=(Fo^2^+2Fc^2^)/3'
_refine_ls_weighting_scheme      calc
_refine_ls_wR_factor_gt          0.0815
_refine_ls_wR_factor_ref         0.0875
_reflns_Friedel_coverage         0.000
_reflns_number_gt                3685
_reflns_number_total             4460
_reflns_threshold_expression     'I > 2\s(I)'
_cod_data_source_file            c7dt00752c2.cif
_cod_data_source_block           eb16092_refinalized
_cod_depositor_comments
'Adding full bibliography for 1545597--1545607.cif.'
_cod_database_code               1545597
_chemical_oxdiff_formula         'C15 H16 Br6 Fe N3 O2 Re'
_chemical_oxdiff_usercomment     '@ 120 K AHP349B'
_shelx_space_group_comment
;
The symmetry employed for this shelxl refinement is uniquely defined
by the following loop, which should always be used as a source of
symmetry information in preference to the above space-group names.
They are only intended as comments.
;
_reflns_odcompleteness_completeness 99.86
_reflns_odcompleteness_iscentric 1
_reflns_odcompleteness_theta     26.32
_olex2_refinement_description
;
1. Fixed Uiso
 At 1.2 times of:
  All C(H) groups, All C(H,H) groups
 At 1.5 times of:
  All C(H,H,H) groups
2.a Secondary CH2 refined with riding coordinates:
 C12(H12A,H12B)
2.b Aromatic/amide H refined with riding coordinates:
 C1(H1), C2(H2), C3(H3), C4(H4), C6(H6), C7(H7), C8(H8), C9(H9)
2.c Idealised Me refined as rotating group:
 C14(H14A,H14B,H14C), C15(H15A,H15B,H15C)
;
_shelx_res_file
;
    eb16092_refinalized.res created by SHELXL-2014/7

TITL
CELL 0.71073 8.053932 10.664952 11.053479 105.5758 101.8898 93.6805
ZERR 1 0.000415 0.000584 0.000716 0.0052 0.0049 0.0043
LATT 1
SFAC C H Br Fe N O Re
UNIT 30 32 6 1 6 4 1

L.S. 20
PLAN  20
MORE -1
BOND $H
CONF
fmap 2
acta 52
REM <olex2.extras>
REM <HklSrc "%.\\EB16092_refinalized.hkl">
REM </olex2.extras>

WGHT    0.027200
FVAR       1.60432
RE1   7    0.500000    0.500000    0.500000    10.50000    0.01029    0.01103 =
         0.01062    0.00308    0.00430    0.00449
BR1   3    0.463935    0.259445    0.382202    11.00000    0.01804    0.01300 =
         0.01559    0.00194    0.00365    0.00461
BR2   3    0.218786    0.522977    0.366120    11.00000    0.01325    0.01870 =
         0.01554    0.00478    0.00210    0.00704
BR3   3    0.648694    0.551068    0.335652    11.00000    0.01708    0.02166 =
         0.01683    0.00885    0.00896    0.00602
FE1   4    0.000000    0.000000    0.000000    10.50000    0.01014    0.01019 =
         0.01061    0.00333    0.00464    0.00359
O1    6    0.224789   -0.034617    0.050698    11.00000    0.01429    0.01797 =
         0.01062    0.00583    0.00541    0.00653
O2    6   -0.223920    0.133868   -0.328211    11.00000    0.01115    0.02186 =
         0.01365    0.01104    0.00517    0.00438
N1    5    0.081337    0.165576   -0.027152    11.00000    0.00989    0.01289 =
         0.01186    0.00254    0.00876    0.00616
N2    5   -0.008729    0.088739    0.181301    11.00000    0.01012    0.01295 =
         0.01361    0.00366    0.00664    0.00236
N3    5   -0.270684    0.058418   -0.162896    11.00000    0.00817    0.01941 =
         0.01433    0.00915    0.00396    0.00740
C1    1    0.206839    0.253471    0.058315    11.00000    0.01069    0.01428 =
         0.01397    0.00417    0.00330    0.00088
AFIX  43
H1    2    0.260418    0.234856    0.133318    11.00000   -1.20000
AFIX   0
C2    1    0.258291    0.369524    0.038452    11.00000    0.01447    0.01825 =
         0.01320   -0.00088    0.00461    0.00241
AFIX  43
H2    2    0.345828    0.428646    0.099062    11.00000   -1.20000
AFIX   0
C3    1    0.178756    0.398204   -0.072852    11.00000    0.02414    0.01098 =
         0.02287    0.00381    0.01599    0.00006
AFIX  43
H3    2    0.213126    0.476455   -0.087929    11.00000   -1.20000
AFIX   0
C4    1    0.047815    0.309515   -0.161374    11.00000    0.01585    0.01297 =
         0.01818    0.00975    0.00921    0.00559
AFIX  43
H4    2   -0.008100    0.327257   -0.236242    11.00000   -1.20000
AFIX   0
C5    1    0.002290    0.193915   -0.135656    11.00000    0.01195    0.01301 =
         0.01158    0.00123    0.00756    0.00681
C6    1   -0.080343    0.199575    0.215388    11.00000    0.01049    0.01211 =
         0.01466    0.00577    0.00448    0.00039
AFIX  43
H6    2   -0.127633    0.237245    0.151589    11.00000   -1.20000
AFIX   0
C7    1   -0.086313    0.259415    0.341188    11.00000    0.01372    0.01542 =
         0.01670    0.00035    0.01034    0.00351
AFIX  43
H7    2   -0.139110    0.334832    0.361721    11.00000   -1.20000
AFIX   0
C8    1   -0.012552    0.205277    0.435763    11.00000    0.01915    0.02043 =
         0.01376    0.00020    0.01105    0.00440
AFIX  43
H8    2   -0.014020    0.244399    0.521481    11.00000   -1.20000
AFIX   0
C9    1    0.063546    0.092779    0.402907    11.00000    0.01348    0.01589 =
         0.01457    0.00350    0.00515    0.00201
AFIX  43
H9    2    0.115382    0.055740    0.465940    11.00000   -1.20000
AFIX   0
C10   1    0.061305    0.036645    0.275625    11.00000    0.01019    0.01305 =
         0.01383    0.00583    0.00751    0.00178
C11   1   -0.137861    0.089024   -0.227935    11.00000    0.01185    0.01074 =
         0.01329    0.00627    0.00517    0.00046
C12   1   -0.404640    0.131013   -0.327400    11.00000    0.01508    0.02672 =
         0.02148    0.01342    0.00385    0.01061
AFIX  23
H12A  2   -0.469628    0.052137   -0.389857    11.00000   -1.20000
H12B  2   -0.448906    0.206677   -0.349033    11.00000   -1.20000
AFIX   0
C13   1   -0.418243    0.133196   -0.190792    11.00000    0.01596    0.01587 =
         0.01596    0.00667    0.00402    0.00666
C14   1   -0.581978    0.059558   -0.187263    11.00000    0.01327    0.01807 =
         0.02571    0.00544    0.00630    0.00444
AFIX 137
H14A  2   -0.595067   -0.028477   -0.242936    11.00000   -1.50000
H14B  2   -0.676850    0.102789   -0.216069    11.00000   -1.50000
H14C  2   -0.578531    0.057359   -0.100531    11.00000   -1.50000
AFIX   0
C15   1   -0.384644    0.273162   -0.098432    11.00000    0.02022    0.01876 =
         0.02150   -0.00375    0.00609    0.00751
AFIX 137
H15A  2   -0.374712    0.269406   -0.011459    11.00000   -1.50000
H15B  2   -0.477867    0.320541   -0.121215    11.00000   -1.50000
H15C  2   -0.280353    0.317012   -0.104900    11.00000   -1.50000
AFIX   0
HKLF 4

REM
REM R1 =  0.0493 for    3685 Fo > 4sig(Fo)  and  0.0666 for all    4460 data
REM    222 parameters refined using      0 restraints

END

WGHT      0.0272      0.0000

REM Highest difference peak  2.010,  deepest hole -1.893,  1-sigma level  0.240
Q1    1   0.4771  0.4623  0.4071  11.00000  0.05    2.01
Q2    1   0.3626  0.5093  0.4157  11.00000  0.05    1.31
Q3    1   0.4441  0.3184  0.4867  11.00000  0.05    1.19
Q4    1   0.4753  0.4178  0.5020  11.00000  0.05    1.14
Q5    1   0.5056  0.5971  0.5406  11.00000  0.05    1.13
Q6    1   0.4321  0.5063  0.5079  11.00000  0.05    1.09
Q7    1   0.5853  0.5286  0.4155  11.00000  0.05    1.08
Q8    1   0.3471  0.5791  0.3717  11.00000  0.05    1.05
Q9    1   0.2988  0.4121  0.3747  11.00000  0.05    1.02
Q10   1   0.2974  0.3877  0.3924  11.00000  0.05    1.01
Q11   1   0.3891  0.4261  0.4834  11.00000  0.05    0.95
Q12   1   0.2852  0.5729  0.3066  11.00000  0.05    0.94
Q13   1   0.7618  0.4952  0.4695  11.00000  0.05    0.92
Q14   1   0.4671  0.1792  0.4315  11.00000  0.05    0.89
Q15   1   0.4201  0.6148  0.4689  11.00000  0.05    0.88
Q16   1   0.4074  0.2976  0.3176  11.00000  0.05    0.88
Q17   1   0.0416  0.5606  0.3403  11.00000  0.05    0.86
Q18   1  -0.1283  0.2027  0.2788  11.00000  0.05    0.83
Q19   1   0.6112  0.5180  0.2480  11.00000  0.05    0.83
Q20   1   0.5060  0.4815  0.3187  11.00000  0.05    0.82
;
_shelx_res_checksum              32170
_shelx_shelxl_version_number     2014/7
_olex2_submission_special_instructions 'No special instructions were received'
loop_
_space_group_symop_operation_xyz
'x, y, z'
'-x, -y, -z'
loop_
_atom_site_label
_atom_site_type_symbol
_atom_site_fract_x
_atom_site_fract_y
_atom_site_fract_z
_atom_site_U_iso_or_equiv
_atom_site_adp_type
_atom_site_occupancy
_atom_site_site_symmetry_order
_atom_site_calc_flag
_atom_site_refinement_flags_posn
_atom_site_refinement_flags_adp
_atom_site_refinement_flags_occupancy
Re1 Re 0.5000 0.5000 0.5000 0.01023(10) Uani 1 2 d S T P
Br1 Br 0.46393(8) 0.25944(6) 0.38220(6) 0.01589(15) Uani 1 1 d . . .
Br2 Br 0.21879(8) 0.52298(6) 0.36612(6) 0.01582(15) Uani 1 1 d . . .
Br3 Br 0.64869(8) 0.55107(6) 0.33565(6) 0.01694(15) Uani 1 1 d . . .
Fe1 Fe 0.0000 0.0000 0.0000 0.0098(3) Uani 1 2 d S T P
O1 O 0.2248(5) -0.0346(4) 0.0507(4) 0.0134(9) Uani 1 1 d . . .
O2 O -0.2239(5) 0.1339(4) -0.3282(4) 0.0139(9) Uani 1 1 d . . .
N1 N 0.0813(6) 0.1656(5) -0.0272(5) 0.0106(11) Uani 1 1 d . . .
N2 N -0.0087(6) 0.0887(5) 0.1813(5) 0.0116(11) Uani 1 1 d . . .
N3 N -0.2707(6) 0.0584(5) -0.1629(5) 0.0126(11) Uani 1 1 d . . .
C1 C 0.2068(7) 0.2535(6) 0.0583(6) 0.0129(13) Uani 1 1 d . . .
H1 H 0.2604 0.2349 0.1333 0.016 Uiso 1 1 calc R . .
C2 C 0.2583(8) 0.3695(6) 0.0385(6) 0.0162(14) Uani 1 1 d . . .
H2 H 0.3458 0.4286 0.0991 0.019 Uiso 1 1 calc R . .
C3 C 0.1788(8) 0.3982(6) -0.0729(6) 0.0181(15) Uani 1 1 d . . .
H3 H 0.2131 0.4765 -0.0879 0.022 Uiso 1 1 calc R . .
C4 C 0.0478(8) 0.3095(6) -0.1614(6) 0.0137(13) Uani 1 1 d . . .
H4 H -0.0081 0.3273 -0.2362 0.016 Uiso 1 1 calc R . .
C5 C 0.0023(7) 0.1939(6) -0.1357(6) 0.0117(13) Uani 1 1 d . . .
C6 C -0.0803(7) 0.1996(6) 0.2154(6) 0.0119(12) Uani 1 1 d . . .
H6 H -0.1276 0.2372 0.1516 0.014 Uiso 1 1 calc R . .
C7 C -0.0863(8) 0.2594(6) 0.3412(6) 0.0150(13) Uani 1 1 d . . .
H7 H -0.1391 0.3348 0.3617 0.018 Uiso 1 1 calc R . .
C8 C -0.0126(8) 0.2053(6) 0.4358(6) 0.0175(14) Uani 1 1 d . . .
H8 H -0.0140 0.2444 0.5215 0.021 Uiso 1 1 calc R . .
C9 C 0.0635(7) 0.0928(6) 0.4029(6) 0.0145(13) Uani 1 1 d . . .
H9 H 0.1154 0.0557 0.4659 0.017 Uiso 1 1 calc R . .
C10 C 0.0613(7) 0.0366(6) 0.2756(6) 0.0112(13) Uani 1 1 d . . .
C11 C -0.1379(7) 0.0890(6) -0.2279(6) 0.0111(12) Uani 1 1 d . . .
C12 C -0.4046(8) 0.1310(7) -0.3274(6) 0.0195(14) Uani 1 1 d . . .
H12A H -0.4696 0.0521 -0.3899 0.023 Uiso 1 1 calc R . .
H12B H -0.4489 0.2067 -0.3490 0.023 Uiso 1 1 calc R . .
C13 C -0.4182(8) 0.1332(6) -0.1908(6) 0.0153(13) Uani 1 1 d . . .
C14 C -0.5820(8) 0.0596(6) -0.1873(6) 0.0188(14) Uani 1 1 d . . .
H14A H -0.5951 -0.0285 -0.2429 0.028 Uiso 1 1 calc GR . .
H14B H -0.6768 0.1028 -0.2161 0.028 Uiso 1 1 calc GR . .
H14C H -0.5785 0.0574 -0.1005 0.028 Uiso 1 1 calc GR . .
C15 C -0.3846(8) 0.2732(6) -0.0984(6) 0.0217(15) Uani 1 1 d . . .
H15A H -0.3747 0.2694 -0.0115 0.032 Uiso 1 1 calc GR . .
H15B H -0.4779 0.3205 -0.1212 0.032 Uiso 1 1 calc GR . .
H15C H -0.2804 0.3170 -0.1049 0.032 Uiso 1 1 calc GR . .
loop_
_atom_site_aniso_label
_atom_site_aniso_U_11
_atom_site_aniso_U_22
_atom_site_aniso_U_33
_atom_site_aniso_U_23
_atom_site_aniso_U_13
_atom_site_aniso_U_12
Re1 0.01029(18) 0.01103(18) 0.01062(18) 0.00308(13) 0.00430(14) 0.00449(13)
Br1 0.0180(3) 0.0130(3) 0.0156(3) 0.0019(2) 0.0036(3) 0.0046(3)
Br2 0.0133(3) 0.0187(3) 0.0155(3) 0.0048(3) 0.0021(3) 0.0070(2)
Br3 0.0171(3) 0.0217(3) 0.0168(3) 0.0088(3) 0.0090(3) 0.0060(3)
Fe1 0.0101(6) 0.0102(6) 0.0106(6) 0.0033(5) 0.0046(5) 0.0036(5)
O1 0.014(2) 0.018(2) 0.011(2) 0.0058(18) 0.0054(18) 0.0065(18)
O2 0.011(2) 0.022(2) 0.014(2) 0.0110(19) 0.0052(18) 0.0044(18)
N1 0.010(2) 0.013(3) 0.012(3) 0.003(2) 0.009(2) 0.006(2)
N2 0.010(3) 0.013(3) 0.014(3) 0.004(2) 0.007(2) 0.002(2)
N3 0.008(2) 0.019(3) 0.014(3) 0.009(2) 0.004(2) 0.007(2)
C1 0.011(3) 0.014(3) 0.014(3) 0.004(3) 0.003(3) 0.001(2)
C2 0.014(3) 0.018(3) 0.013(3) -0.001(3) 0.005(3) 0.002(3)
C3 0.024(4) 0.011(3) 0.023(4) 0.004(3) 0.016(3) 0.000(3)
C4 0.016(3) 0.013(3) 0.018(3) 0.010(3) 0.009(3) 0.006(3)
C5 0.012(3) 0.013(3) 0.012(3) 0.001(2) 0.008(3) 0.007(2)
C6 0.010(3) 0.012(3) 0.015(3) 0.006(2) 0.004(3) 0.000(2)
C7 0.014(3) 0.015(3) 0.017(3) 0.000(3) 0.010(3) 0.004(3)
C8 0.019(3) 0.020(3) 0.014(3) 0.000(3) 0.011(3) 0.004(3)
C9 0.013(3) 0.016(3) 0.015(3) 0.003(3) 0.005(3) 0.002(3)
C10 0.010(3) 0.013(3) 0.014(3) 0.006(2) 0.008(3) 0.002(2)
C11 0.012(3) 0.011(3) 0.013(3) 0.006(2) 0.005(3) 0.000(2)
C12 0.015(3) 0.027(4) 0.021(4) 0.013(3) 0.004(3) 0.011(3)
C13 0.016(3) 0.016(3) 0.016(3) 0.007(3) 0.004(3) 0.007(3)
C14 0.013(3) 0.018(3) 0.026(4) 0.005(3) 0.006(3) 0.004(3)
C15 0.020(3) 0.019(3) 0.021(4) -0.004(3) 0.006(3) 0.008(3)
loop_
_atom_type_symbol
_atom_type_description
_atom_type_scat_dispersion_real
_atom_type_scat_dispersion_imag
_atom_type_scat_source
C C 0.0033 0.0016 'International Tables Vol C Tables 4.2.6.8 and 6.1.1.4'
H H 0.0000 0.0000 'International Tables Vol C Tables 4.2.6.8 and 6.1.1.4'
Br Br -0.2901 2.4595 'International Tables Vol C Tables 4.2.6.8 and 6.1.1.4'
Fe Fe 0.3463 0.8444 'International Tables Vol C Tables 4.2.6.8 and 6.1.1.4'
N N 0.0061 0.0033 'International Tables Vol C Tables 4.2.6.8 and 6.1.1.4'
O O 0.0106 0.0060 'International Tables Vol C Tables 4.2.6.8 and 6.1.1.4'
Re Re -1.0185 7.2310 'International Tables Vol C Tables 4.2.6.8 and 6.1.1.4'
loop_
_exptl_crystal_face_index_h
_exptl_crystal_face_index_k
_exptl_crystal_face_index_l
_exptl_crystal_face_perp_dist
_exptl_oxdiff_crystal_face_indexfrac_h
_exptl_oxdiff_crystal_face_indexfrac_k
_exptl_oxdiff_crystal_face_indexfrac_l
_exptl_oxdiff_crystal_face_x
_exptl_oxdiff_crystal_face_y
_exptl_oxdiff_crystal_face_z
11 -5 -3 0.0382 10.8004 -5.2829 -3.2804 0.1991 0.8292 -0.5223
-1 -12 -4 0.0746 -1.1281 -12.3355 -4.0827 -0.0775 -0.3290 -0.9412
-10 7 4 0.0315 -10.2484 6.7755 3.7180 -0.1812 -0.7537 0.6318
-3 10 9 0.0689 -2.5477 9.5895 8.8931 0.2978 -0.0403 0.9538
-1 11 -13 0.0119 -1.0129 10.9858 -12.8592 -0.9558 0.1248 0.2661
3 -9 -9 0.0762 2.5316 -9.4262 -9.0719 -0.3113 0.0421 -0.9494
1 -11 12 0.0155 1.1243 -11.4094 12.4806 0.9435 -0.1231 -0.3077
loop_
_geom_angle_atom_site_label_1
_geom_angle_atom_site_label_2
_geom_angle_atom_site_label_3
_geom_angle
_geom_angle_site_symmetry_1
_geom_angle_site_symmetry_3
Br1 Re1 Br1 180.0 . 2_666
Br1 Re1 Br3 90.19(2) . .
Br1 Re1 Br3 90.19(2) 2_666 2_666
Br1 Re1 Br3 89.81(2) 2_666 .
Br1 Re1 Br3 89.81(2) . 2_666
Br2 Re1 Br1 90.38(2) 2_666 2_666
Br2 Re1 Br1 89.62(2) . 2_666
Br2 Re1 Br1 89.62(2) 2_666 .
Br2 Re1 Br1 90.38(2) . .
Br2 Re1 Br2 180.0 . 2_666
Br2 Re1 Br3 89.79(2) . .
Br2 Re1 Br3 89.79(2) 2_666 2_666
Br2 Re1 Br3 90.21(2) . 2_666
Br2 Re1 Br3 90.21(2) 2_666 .
Br3 Re1 Br3 180.0 . 2_666
O1 Fe1 O1 180.0 . 2
O1 Fe1 N1 88.71(18) . 2
O1 Fe1 N1 88.71(18) 2 .
O1 Fe1 N1 91.29(18) 2 2
O1 Fe1 N1 91.29(18) . .
O1 Fe1 N2 87.72(18) . 2
O1 Fe1 N2 92.28(18) 2 2
O1 Fe1 N2 92.28(18) . .
O1 Fe1 N2 87.72(18) 2 .
N1 Fe1 N1 180.0 . 2
N1 Fe1 N2 87.70(19) . 2
N1 Fe1 N2 87.70(19) 2 .
N1 Fe1 N2 92.30(19) 2 2
N1 Fe1 N2 92.30(19) . .
N2 Fe1 N2 180.0 2 .
N3 O1 Fe1 117.9(3) 2 .
C11 O2 C12 109.7(4) . .
C1 N1 Fe1 123.2(4) . .
C1 N1 C5 118.7(5) . .
C5 N1 Fe1 118.0(4) . .
C6 N2 Fe1 123.2(4) . .
C6 N2 C10 117.8(5) . .
C10 N2 Fe1 119.0(4) . .
O1 N3 C11 119.2(4) 2 .
O1 N3 C13 121.2(4) 2 .
C11 N3 C13 109.8(5) . .
N1 C1 H1 119.0 . .
N1 C1 C2 122.0(6) . .
C2 C1 H1 119.0 . .
C1 C2 H2 120.3 . .
C1 C2 C3 119.4(6) . .
C3 C2 H2 120.3 . .
C2 C3 H3 120.3 . .
C4 C3 C2 119.5(6) . .
C4 C3 H3 120.3 . .
C3 C4 H4 120.9 . .
C5 C4 C3 118.3(6) . .
C5 C4 H4 120.9 . .
N1 C5 C4 122.1(6) . .
N1 C5 C11 115.5(5) . .
C4 C5 C11 122.3(6) . .
N2 C6 H6 118.7 . .
N2 C6 C7 122.5(6) . .
C7 C6 H6 118.7 . .
C6 C7 H7 120.7 . .
C8 C7 C6 118.6(5) . .
C8 C7 H7 120.7 . .
C7 C8 H8 120.2 . .
C7 C8 C9 119.7(6) . .
C9 C8 H8 120.2 . .
C8 C9 H9 120.7 . .
C10 C9 C8 118.7(6) . .
C10 C9 H9 120.7 . .
N2 C10 C9 122.7(5) . .
N2 C10 C11 114.1(5) . 2
C9 C10 C11 123.2(5) . 2
O2 C11 N3 104.8(4) . .
O2 C11 C5 110.9(5) . .
O2 C11 C10 113.0(5) . 2
N3 C11 C5 111.1(5) . .
N3 C11 C10 107.5(5) . 2
C10 C11 C5 109.4(5) 2 .
O2 C12 H12A 110.4 . .
O2 C12 H12B 110.4 . .
O2 C12 C13 106.7(5) . .
H12A C12 H12B 108.6 . .
C13 C12 H12A 110.4 . .
C13 C12 H12B 110.4 . .
N3 C13 C12 96.7(4) . .
N3 C13 C14 110.5(5) . .
N3 C13 C15 111.0(5) . .
C12 C13 C15 112.1(5) . .
C14 C13 C12 113.3(5) . .
C14 C13 C15 112.2(5) . .
C13 C14 H14A 109.5 . .
C13 C14 H14B 109.5 . .
C13 C14 H14C 109.5 . .
H14A C14 H14B 109.5 . .
H14A C14 H14C 109.5 . .
H14B C14 H14C 109.5 . .
C13 C15 H15A 109.5 . .
C13 C15 H15B 109.5 . .
C13 C15 H15C 109.5 . .
H15A C15 H15B 109.5 . .
H15A C15 H15C 109.5 . .
H15B C15 H15C 109.5 . .
loop_
_geom_bond_atom_site_label_1
_geom_bond_atom_site_label_2
_geom_bond_distance
_geom_bond_site_symmetry_2
Re1 Br1 2.5132(6) 2_666
Re1 Br1 2.5132(6) .
Re1 Br2 2.5029(6) .
Re1 Br2 2.5029(6) 2_666
Re1 Br3 2.5249(6) .
Re1 Br3 2.5249(6) 2_666
Fe1 O1 1.873(4) .
Fe1 O1 1.873(4) 2
Fe1 N1 1.963(5) .
Fe1 N1 1.963(5) 2
Fe1 N2 1.991(5) 2
Fe1 N2 1.991(5) .
O1 N3 1.316(6) 2
O2 C11 1.396(7) .
O2 C12 1.456(7) .
N1 C1 1.342(7) .
N1 C5 1.356(7) .
N2 C6 1.345(7) .
N2 C10 1.350(7) .
N3 O1 1.316(6) 2
N3 C11 1.472(7) .
N3 C13 1.499(7) .
C1 H1 0.9300 .
C1 C2 1.367(9) .
C2 H2 0.9300 .
C2 C3 1.386(9) .
C3 H3 0.9300 .
C3 C4 1.383(9) .
C4 H4 0.9300 .
C4 C5 1.381(8) .
C5 C11 1.522(8) .
C6 H6 0.9300 .
C6 C7 1.378(8) .
C7 H7 0.9300 .
C7 C8 1.375(9) .
C8 H8 0.9300 .
C8 C9 1.378(8) .
C9 H9 0.9300 .
C9 C10 1.369(8) .
C10 C11 1.522(8) 2
C11 C10 1.521(8) 2
C12 H12A 0.9700 .
C12 H12B 0.9700 .
C12 C13 1.530(9) .
C13 C14 1.504(8) .
C13 C15 1.536(8) .
C14 H14A 0.9600 .
C14 H14B 0.9600 .
C14 H14C 0.9600 .
C15 H15A 0.9600 .
C15 H15B 0.9600 .
C15 H15C 0.9600 .
loop_
_geom_torsion_atom_site_label_1
_geom_torsion_atom_site_label_2
_geom_torsion_atom_site_label_3
_geom_torsion_atom_site_label_4
_geom_torsion
_geom_torsion_site_symmetry_1
_geom_torsion_site_symmetry_4
Fe1 N1 C1 C2 -178.4(4) . .
Fe1 N1 C5 C4 178.3(4) . .
Fe1 N1 C5 C11 -2.5(6) . .
Fe1 N2 C6 C7 179.6(4) . .
Fe1 N2 C10 C9 178.8(4) . .
Fe1 N2 C10 C11 -0.9(7) . 2
O1 N3 C11 O2 -168.6(4) 2 .
O1 N3 C11 C5 -48.8(7) 2 .
O1 N3 C11 C10 70.9(6) 2 2
O1 N3 C13 C12 178.8(5) 2 .
O1 N3 C13 C14 -63.2(7) 2 .
O1 N3 C13 C15 62.0(7) 2 .
O2 C12 C13 N3 -32.4(6) . .
O2 C12 C13 C14 -148.1(5) . .
O2 C12 C13 C15 83.6(6) . .
N1 Fe1 O1 N3 125.8(4) . 2
N1 Fe1 O1 N3 -54.2(4) 2 2
N1 C1 C2 C3 0.2(8) . .
N1 C5 C11 O2 173.1(4) . .
N1 C5 C11 N3 57.0(6) . .
N1 C5 C11 C10 -61.7(6) . 2
N2 Fe1 O1 N3 -146.6(4) 2 2
N2 Fe1 O1 N3 33.4(4) . 2
N2 C6 C7 C8 1.6(9) . .
C1 N1 C5 C4 0.6(8) . .
C1 N1 C5 C11 179.7(5) . .
C1 C2 C3 C4 0.5(8) . .
C2 C3 C4 C5 -0.7(8) . .
C3 C4 C5 N1 0.1(8) . .
C3 C4 C5 C11 -178.9(5) . .
C4 C5 C11 O2 -7.8(7) . .
C4 C5 C11 N3 -123.9(6) . .
C4 C5 C11 C10 117.4(6) . 2
C5 N1 C1 C2 -0.8(8) . .
C6 N2 C10 C9 -0.8(9) . .
C6 N2 C10 C11 179.5(5) . 2
C6 C7 C8 C9 -0.6(9) . .
C7 C8 C9 C10 -0.9(9) . .
C8 C9 C10 N2 1.7(9) . .
C8 C9 C10 C11 -178.7(5) . 2
C10 N2 C6 C7 -0.9(8) . .
C11 O2 C12 C13 22.0(6) . .
C11 N3 C13 C12 33.2(6) . .
C11 N3 C13 C14 151.2(5) . .
C11 N3 C13 C15 -83.6(6) . .
C12 O2 C11 N3 -0.4(6) . .
C12 O2 C11 C5 -120.4(5) . .
C12 O2 C11 C10 116.4(5) . 2
C13 N3 C11 O2 -22.3(6) . .
C13 N3 C11 C5 97.5(6) . .
C13 N3 C11 C10 -142.7(5) . 2
