#------------------------------------------------------------------------------
#$Date: 2017-04-22 05:22:27 +0300 (Sat, 22 Apr 2017) $
#$Revision: 195684 $
#$URL: file:///home/coder/svn-repositories/cod/cif/1/54/57/1545788.cif $
#------------------------------------------------------------------------------
#
# This file is available in the Crystallography Open Database (COD),
# http://www.crystallography.net/
#
# All data on this site have been placed in the public domain by the
# contributors.
#
data_1545788
loop_
_publ_author_name
'Pramanik, Titas'
'Srinivas, Pavan Mysore'
'Tayur, Guru Row N.'
_publ_section_title
;
 FDHALO17: Do halogen bonds dictate the packing preferences in solid
 solutions?
;
_journal_name_full               'Faraday Discuss.'
_journal_paper_doi               10.1039/C7FD00084G
_journal_year                    2017
_chemical_formula_moiety         'C7 H4 Br Cl O2'
_chemical_formula_sum            'C7 H4 Br Cl O2'
_chemical_formula_weight         235.46
_chemical_name_systematic
'4-bromo-2-chlorobenzoic acid/2-bromo-4-chlorobenzoic acid'
_space_group_crystal_system      monoclinic
_space_group_IT_number           14
_space_group_name_Hall           '-P 2yn'
_space_group_name_H-M_alt        'P 1 21/n 1'
_symmetry_space_group_name_Hall  '-P 2yn'
_symmetry_space_group_name_H-M   'P 1 21/n 1'
_atom_sites_solution_hydrogens   geom
_audit_creation_method           SHELXL-2016/6
_audit_update_record
;
2017-04-18 deposited with the CCDC.
2017-04-21 downloaded from the CCDC.
;
_cell_angle_alpha                90
_cell_angle_beta                 105.406(5)
_cell_angle_gamma                90
_cell_formula_units_Z            4
_cell_length_a                   7.2385(4)
_cell_length_b                   8.9976(5)
_cell_length_c                   12.1313(6)
_cell_measurement_reflns_used    2653
_cell_measurement_temperature    100(2)
_cell_measurement_theta_max      27.4430
_cell_measurement_theta_min      2.8390
_cell_volume                     761.71(7)
_computing_structure_refinement  'SHELXL-2016/6 (Sheldrick, 2016)'
_diffrn_ambient_temperature      100(2)
_diffrn_measured_fraction_theta_full 1.000
_diffrn_measured_fraction_theta_max 0.999
_diffrn_measurement_device_type  'Xcalibur, Eos, Nova'
_diffrn_radiation_type           MoK\a
_diffrn_radiation_wavelength     0.71073
_diffrn_reflns_av_R_equivalents  0.0440
_diffrn_reflns_av_unetI/netI     0.0487
_diffrn_reflns_Laue_measured_fraction_full 1.000
_diffrn_reflns_Laue_measured_fraction_max 0.999
_diffrn_reflns_limit_h_max       9
_diffrn_reflns_limit_h_min       -9
_diffrn_reflns_limit_k_max       11
_diffrn_reflns_limit_k_min       -10
_diffrn_reflns_limit_l_max       15
_diffrn_reflns_limit_l_min       -15
_diffrn_reflns_number            5434
_diffrn_reflns_point_group_measured_fraction_full 1.000
_diffrn_reflns_point_group_measured_fraction_max 0.999
_diffrn_reflns_theta_full        25.242
_diffrn_reflns_theta_max         27.484
_diffrn_reflns_theta_min         2.856
_exptl_absorpt_coefficient_mu    5.685
_exptl_crystal_colour            Colorless
_exptl_crystal_density_diffrn    2.053
_exptl_crystal_description       Block
_exptl_crystal_F_000             456
_exptl_crystal_recrystallization_method
'Re-crystallisation from solvent: methanol'
_refine_diff_density_max         0.410
_refine_diff_density_min         -0.408
_refine_diff_density_rms         0.101
_refine_ls_extinction_method     none
_refine_ls_goodness_of_fit_ref   1.063
_refine_ls_hydrogen_treatment    constr
_refine_ls_matrix_type           full
_refine_ls_number_parameters     107
_refine_ls_number_reflns         1750
_refine_ls_number_restraints     4
_refine_ls_restrained_S_all      1.066
_refine_ls_R_factor_all          0.0411
_refine_ls_R_factor_gt           0.0330
_refine_ls_shift/su_max          0.004
_refine_ls_shift/su_mean         0.001
_refine_ls_structure_factor_coef Fsqd
_refine_ls_weighting_details
'w=1/[\s^2^(Fo^2^)+(0.0238P)^2^] where P=(Fo^2^+2Fc^2^)/3'
_refine_ls_weighting_scheme      calc
_refine_ls_wR_factor_gt          0.0648
_refine_ls_wR_factor_ref         0.0682
_reflns_Friedel_coverage         0.000
_reflns_number_gt                1512
_reflns_number_total             1750
_reflns_threshold_expression     'I > 2\s(I)'
_cod_data_source_file            c7fd00084g2.cif
_cod_data_source_block           shelx
_cod_database_code               1545788
_shelx_shelxl_version_number     2016/6
_shelx_space_group_comment
;
The symmetry employed for this shelxl refinement is uniquely defined
by the following loop, which should always be used as a source of
symmetry information in preference to the above space-group names.
They are only intended as comments.
;
_shelx_res_file
;
TITL red in P2(1)/n
    shelx.res
    created by SHELXL-2016/6 at 10:44:20 on 17-Apr-2017
CELL  0.71073   7.2385   8.9976  12.1313   90.000  105.406   90.000
ZERR     4.00   0.0004   0.0005   0.0006    0.000    0.005    0.000
LATT   1
SYMM  1/2 - X, 1/2 + Y, 1/2 - Z
SFAC  C    H    O    CL   BR
UNIT  28 16 8 4 4
MERG   2
EADP BR1 CL2
EADP BR2 CL1
DFIX 1.900 0.005 C3 BR1 C5 BR2
DFIX 1.740 0.005 C3 CL2 C5 CL1
FMAP   2
PLAN   20
ACTA
LIST   3
L.S.   2
WGHT    0.023800
FVAR       3.51167   0.71458
PART    1
BR1   5    0.887259    0.877784    0.242644    21.00000    0.03069    0.01779 =
         0.01304    0.00175    0.00364   -0.00052
CL1   4    0.585092    1.320651   -0.056718    21.00000    0.02072    0.00821 =
         0.03421    0.00162    0.00630    0.00333
PART    2
CL2   4    0.887829    0.884701    0.230913   -21.00000    0.03069    0.01779 =
         0.01304    0.00175    0.00364   -0.00052
BR2   5    0.583643    1.339570   -0.051294   -21.00000    0.02072    0.00821 =
         0.03421    0.00162    0.00630    0.00333
PART    0
O1    3    0.913429    0.638988   -0.090592    11.00000    0.03596    0.01882 =
         0.01985   -0.00312    0.00672    0.00567
O2    3    0.941407    0.630493    0.096360    11.00000    0.04113    0.01695 =
         0.02152    0.00483    0.00856    0.01103
AFIX  83
H2    2    0.981964    0.547239    0.088235    11.00000   -1.50000
AFIX   0
C1    1    0.895001    0.697336   -0.000469    11.00000    0.01333    0.01415 =
         0.01781    0.00037    0.00313   -0.00362
C2    1    0.817696    0.851335   -0.005306    11.00000    0.01168    0.01136 =
         0.01911    0.00102    0.00358   -0.00091
C3    1    0.807926    0.939721    0.088728    11.00000    0.01548    0.01631 =
         0.01559    0.00207    0.00613   -0.00094
C4    1    0.678355    1.058457   -0.130714    11.00000    0.01744    0.02059 =
         0.01807    0.00225    0.00391   -0.00223
AFIX  43
H4    2    0.634161    1.098170   -0.203772    11.00000   -1.20000
AFIX   0
C5    1    0.674008    1.141288   -0.035189    11.00000    0.01213    0.01308 =
         0.02789    0.00146    0.00555    0.00085
C6    1    0.738250    1.084275    0.074262    11.00000    0.01654    0.01511 =
         0.02065   -0.00380    0.00637   -0.00395
AFIX  43
H6    2    0.734832    1.141955    0.137304    11.00000   -1.20000
AFIX   0
C7    1    0.750010    0.915255   -0.114824    11.00000    0.01846    0.01750 =
         0.01659   -0.00375    0.00553   -0.00247
AFIX  43
H7    2    0.753697    0.859136   -0.178582    11.00000   -1.20000
AFIX   0
HKLF    4




REM  red in P2(1)/n
REM R1 =  0.0330 for    1512 Fo > 4sig(Fo)  and  0.0411 for all    1750 data
REM    107 parameters refined using      4 restraints

END

WGHT      0.0238      0.0000

REM Highest difference peak  0.410,  deepest hole -0.408,  1-sigma level  0.101
Q1    1   0.8589  0.8125 -0.0647  11.00000  0.05    0.41
Q2    1   0.8130  1.0304  0.0799  11.00000  0.05    0.41
Q3    1   0.8065  0.7647  0.2469  11.00000  0.05    0.37
Q4    1   0.7456  0.9926 -0.0949  11.00000  0.05    0.37
Q5    1   0.7498  1.2609 -0.0186  11.00000  0.05    0.36
Q6    1   0.4137  1.3339 -0.0139  11.00000  0.05    0.35
Q7    1   0.9248  0.9964  0.2028  11.00000  0.05    0.34
Q8    1   0.8027  0.8873  0.0390  11.00000  0.05    0.34
Q9    1   0.8357  0.9142  0.1208  11.00000  0.05    0.33
Q10   1   0.5616  1.0187  0.0250  11.00000  0.05    0.33
Q11   1   1.0844  0.8833  0.3044  11.00000  0.05    0.33
Q12   1   0.8419  0.6205 -0.1207  11.00000  0.05    0.32
Q13   1   0.7589  1.0822  0.1370  11.00000  0.05    0.32
Q14   1   1.0008  0.9631  0.3070  11.00000  0.05    0.32
Q15   1   0.9777  0.5612 -0.0847  11.00000  0.05    0.32
Q16   1   0.5290  1.1258 -0.1176  11.00000  0.05    0.32
Q17   1   0.8220  0.7561  0.0012  11.00000  0.05    0.31
Q18   1   0.9902  0.6058  0.1018  11.00000  0.05    0.31
Q19   1   0.7874  0.8936 -0.0421  11.00000  0.05    0.31
Q20   1   0.7220  0.9398  0.0874  11.00000  0.05    0.31
;
_shelx_res_checksum              14260
loop_
_space_group_symop_operation_xyz
'x, y, z'
'-x+1/2, y+1/2, -z+1/2'
'-x, -y, -z'
'x-1/2, -y-1/2, z-1/2'
loop_
_atom_site_label
_atom_site_type_symbol
_atom_site_fract_x
_atom_site_fract_y
_atom_site_fract_z
_atom_site_U_iso_or_equiv
_atom_site_adp_type
_atom_site_occupancy
_atom_site_site_symmetry_order
_atom_site_calc_flag
_atom_site_refinement_flags_posn
_atom_site_refinement_flags_adp
_atom_site_refinement_flags_occupancy
_atom_site_disorder_assembly
_atom_site_disorder_group
Br1 Br 0.8873(5) 0.8778(4) 0.24264(12) 0.02092(19) Uani 0.7146(14) 1 d D . P A
1
Cl1 Cl 0.585(2) 1.3207(7) -0.0567(14) 0.0212(6) Uani 0.7146(14) 1 d D . P A 1
Cl2 Cl 0.888(3) 0.885(3) 0.2309(8) 0.02092(19) Uani 0.2854(14) 1 d D . P A 2
Br2 Br 0.584(2) 1.3396(8) -0.0513(15) 0.0212(6) Uani 0.2854(14) 1 d D . P A 2
O1 O 0.9134(3) 0.6390(2) -0.09059(15) 0.0250(5) Uani 1 1 d . . . . .
O2 O 0.9414(3) 0.6305(2) 0.09636(16) 0.0265(5) Uani 1 1 d . . . . .
H2 H 0.981964 0.547239 0.088235 0.040 Uiso 1 1 calc R U . . .
C1 C 0.8950(3) 0.6973(3) -0.0005(2) 0.0153(6) Uani 1 1 d . . . . .
C2 C 0.8177(4) 0.8513(3) -0.0053(2) 0.0141(6) Uani 1 1 d . . . . .
C3 C 0.8079(3) 0.9397(3) 0.08873(19) 0.0154(6) Uani 1 1 d D . . . .
C4 C 0.6784(4) 1.0585(3) -0.1307(2) 0.0189(6) Uani 1 1 d . . . . .
H4 H 0.634161 1.098170 -0.203772 0.023 Uiso 1 1 calc R U . . .
C5 C 0.6740(4) 1.1413(3) -0.0352(2) 0.0177(6) Uani 1 1 d D . . . .
C6 C 0.7383(4) 1.0843(3) 0.0743(2) 0.0172(6) Uani 1 1 d . . . . .
H6 H 0.734832 1.141955 0.137304 0.021 Uiso 1 1 calc R U . . .
C7 C 0.7500(4) 0.9153(3) -0.1148(2) 0.0174(6) Uani 1 1 d . . . . .
H7 H 0.753697 0.859136 -0.178582 0.021 Uiso 1 1 calc R U . . .
loop_
_atom_site_aniso_label
_atom_site_aniso_U_11
_atom_site_aniso_U_22
_atom_site_aniso_U_33
_atom_site_aniso_U_23
_atom_site_aniso_U_13
_atom_site_aniso_U_12
Br1 0.0307(2) 0.0178(5) 0.0130(4) 0.0017(4) 0.0036(4) -0.0005(2)
Cl1 0.0207(3) 0.0082(13) 0.0342(12) 0.0016(16) 0.0063(6) 0.0033(14)
Cl2 0.0307(2) 0.0178(5) 0.0130(4) 0.0017(4) 0.0036(4) -0.0005(2)
Br2 0.0207(3) 0.0082(13) 0.0342(12) 0.0016(16) 0.0063(6) 0.0033(14)
O1 0.0360(12) 0.0188(13) 0.0199(10) -0.0031(9) 0.0067(9) 0.0057(9)
O2 0.0411(13) 0.0169(12) 0.0215(10) 0.0048(9) 0.0086(9) 0.0110(10)
C1 0.0133(12) 0.0142(16) 0.0178(13) 0.0004(12) 0.0031(11) -0.0036(12)
C2 0.0117(12) 0.0114(15) 0.0191(13) 0.0010(11) 0.0036(11) -0.0009(11)
C3 0.0155(13) 0.0163(16) 0.0156(12) 0.0021(11) 0.0061(10) -0.0009(12)
C4 0.0174(14) 0.0206(17) 0.0181(13) 0.0023(12) 0.0039(11) -0.0022(13)
C5 0.0121(13) 0.0131(16) 0.0279(14) 0.0015(12) 0.0055(11) 0.0009(12)
C6 0.0165(14) 0.0151(16) 0.0206(13) -0.0038(12) 0.0064(11) -0.0040(12)
C7 0.0185(14) 0.0175(16) 0.0166(13) -0.0038(12) 0.0055(11) -0.0025(12)
loop_
_atom_type_symbol
_atom_type_description
_atom_type_scat_dispersion_real
_atom_type_scat_dispersion_imag
_atom_type_scat_source
C C 0.0033 0.0016 'International Tables Vol C Tables 4.2.6.8 and 6.1.1.4'
H H 0.0000 0.0000 'International Tables Vol C Tables 4.2.6.8 and 6.1.1.4'
O O 0.0106 0.0060 'International Tables Vol C Tables 4.2.6.8 and 6.1.1.4'
Cl Cl 0.1484 0.1585 'International Tables Vol C Tables 4.2.6.8 and 6.1.1.4'
Br Br -0.2901 2.4595 'International Tables Vol C Tables 4.2.6.8 and 6.1.1.4'
loop_
_geom_angle_atom_site_label_1
_geom_angle_atom_site_label_2
_geom_angle_atom_site_label_3
_geom_angle
O1 C1 O2 122.7(3)
O1 C1 C2 118.8(2)
O2 C1 C2 118.5(2)
C3 C2 C7 117.0(2)
C3 C2 C1 126.4(2)
C7 C2 C1 116.7(2)
C6 C3 C2 121.4(2)
C6 C3 Cl2 113.9(9)
C2 C3 Cl2 124.6(9)
C6 C3 Br1 114.0(2)
C2 C3 Br1 124.6(2)
C7 C4 C5 118.4(2)
C6 C5 C4 121.8(2)
C6 C5 Cl1 120.5(6)
C4 C5 Cl1 117.7(6)
C6 C5 Br2 117.9(6)
C4 C5 Br2 120.3(6)
C5 C6 C3 119.1(2)
C4 C7 C2 122.3(2)
loop_
_geom_bond_atom_site_label_1
_geom_bond_atom_site_label_2
_geom_bond_distance
Br1 C3 1.886(3)
Cl1 C5 1.731(4)
Cl2 C3 1.739(5)
Br2 C5 1.892(4)
O1 C1 1.251(3)
O2 C1 1.282(3)
C1 C2 1.490(4)
C2 C3 1.408(3)
C2 C7 1.411(4)
C3 C6 1.389(4)
C4 C7 1.383(4)
C4 C5 1.385(4)
C5 C6 1.384(4)
