#------------------------------------------------------------------------------
#$Date: 2017-04-22 05:22:27 +0300 (Sat, 22 Apr 2017) $
#$Revision: 195684 $
#$URL: file:///home/coder/svn-repositories/cod/cif/1/54/57/1545784.cif $
#------------------------------------------------------------------------------
#
# This file is available in the Crystallography Open Database (COD),
# http://www.crystallography.net/
#
# All data on this site have been placed in the public domain by the
# contributors.
#
data_1545784
loop_
_publ_author_name
'Pramanik, Titas'
'Srinivas, Pavan Mysore'
'Tayur, Guru Row N.'
_publ_section_title
;
 FDHALO17: Do halogen bonds dictate the packing preferences in solid
 solutions?
;
_journal_name_full               'Faraday Discuss.'
_journal_paper_doi               10.1039/C7FD00084G
_journal_year                    2017
_chemical_formula_moiety         'C7 H4 Br Cl O2'
_chemical_formula_sum            'C7 H4 Br Cl O2'
_chemical_formula_weight         235.46
_chemical_name_common            '4-bromo-2-chlorobenzoic acid'
_space_group_crystal_system      monoclinic
_space_group_IT_number           14
_space_group_name_Hall           '-P 2yn'
_space_group_name_H-M_alt        'P 1 21/n 1'
_symmetry_space_group_name_Hall  '-P 2yn'
_symmetry_space_group_name_H-M   'P 1 21/n 1'
_atom_sites_solution_hydrogens   geom
_audit_creation_method           SHELXL-2014/7
_audit_update_record
;
2017-02-27 deposited with the CCDC.
2017-04-21 downloaded from the CCDC.
;
_cell_angle_alpha                90
_cell_angle_beta                 102.916(4)
_cell_angle_gamma                90
_cell_formula_units_Z            4
_cell_length_a                   7.2738(3)
_cell_length_b                   9.0627(3)
_cell_length_c                   11.7233(5)
_cell_measurement_reflns_used    2841
_cell_measurement_temperature    100(2)
_cell_measurement_theta_max      27.4710
_cell_measurement_theta_min      2.8520
_cell_volume                     753.25(5)
_computing_structure_refinement  'SHELXL-2014/7 (Sheldrick, 2014)'
_diffrn_ambient_temperature      100(2)
_diffrn_measured_fraction_theta_full 1.000
_diffrn_measured_fraction_theta_max 1.000
_diffrn_measurement_device_type  'Xcalibur, Eos, Nova'
_diffrn_radiation_type           MoK\a
_diffrn_radiation_wavelength     0.71073
_diffrn_reflns_av_R_equivalents  0.0376
_diffrn_reflns_av_unetI/netI     0.0405
_diffrn_reflns_Laue_measured_fraction_full 1.000
_diffrn_reflns_Laue_measured_fraction_max 1.000
_diffrn_reflns_limit_h_max       9
_diffrn_reflns_limit_h_min       -9
_diffrn_reflns_limit_k_max       11
_diffrn_reflns_limit_k_min       -11
_diffrn_reflns_limit_l_max       14
_diffrn_reflns_limit_l_min       -15
_diffrn_reflns_number            5392
_diffrn_reflns_point_group_measured_fraction_full 1.000
_diffrn_reflns_point_group_measured_fraction_max 1.000
_diffrn_reflns_theta_full        25.242
_diffrn_reflns_theta_max         27.479
_diffrn_reflns_theta_min         2.869
_exptl_absorpt_coefficient_mu    5.749
_exptl_crystal_colour            colourless
_exptl_crystal_density_diffrn    2.076
_exptl_crystal_description       block
_exptl_crystal_F_000             456
_refine_diff_density_max         0.349
_refine_diff_density_min         -0.440
_refine_diff_density_rms         0.094
_refine_ls_extinction_method     none
_refine_ls_goodness_of_fit_ref   1.058
_refine_ls_hydrogen_treatment    constr
_refine_ls_matrix_type           full
_refine_ls_number_parameters     100
_refine_ls_number_reflns         1728
_refine_ls_number_restraints     0
_refine_ls_restrained_S_all      1.058
_refine_ls_R_factor_all          0.0346
_refine_ls_R_factor_gt           0.0276
_refine_ls_shift/su_max          0.000
_refine_ls_shift/su_mean         0.000
_refine_ls_structure_factor_coef Fsqd
_refine_ls_weighting_details
'w=1/[\s^2^(Fo^2^)+(0.0247P)^2^+0.0041P] where P=(Fo^2^+2Fc^2^)/3'
_refine_ls_weighting_scheme      calc
_refine_ls_wR_factor_gt          0.0586
_refine_ls_wR_factor_ref         0.0621
_reflns_Friedel_coverage         0.000
_reflns_number_gt                1499
_reflns_number_total             1728
_reflns_threshold_expression     'I > 2\s(I)'
_cod_data_source_file            c7fd00084g2.cif
_cod_data_source_block           shelx
_cod_database_code               1545784
_shelx_shelxl_version_number     2014/7
_shelx_space_group_comment
;
The symmetry employed for this shelxl refinement is uniquely defined
by the following loop, which should always be used as a source of
symmetry information in preference to the above space-group names.
They are only intended as comments.
;
_shelx_res_file
;

    shelx.res created by SHELXL-2014/7


TITL red in P2(1)/n
CELL  0.71073   7.2738   9.0627  11.7233   90.000  102.916   90.000
ZERR     4.00   0.0003   0.0003   0.0005    0.000    0.004    0.000
LATT   1
SYMM  1/2 - X, 1/2 + Y, 1/2 - Z
SFAC  C    H    O    CL   BR
UNIT  28 16 8 4 4
MERG   2
FMAP   2
PLAN   20
ACTA
LIST   3
L.S.  5
WGHT    0.024700    0.004100
FVAR       4.53257
BR1   5    0.414458    0.167911    0.058342    11.00000    0.02087    0.01147 =
         0.03011    0.00264    0.00412    0.00321
CL1   4    0.122110    0.618015   -0.237892    11.00000    0.03790    0.01469 =
         0.01453    0.00094    0.00266    0.00014
O1    3    0.078155    0.863228    0.087633    11.00000    0.03287    0.01487 =
         0.01681   -0.00110    0.00310    0.00666
O2    3    0.067554    0.869677   -0.103513    11.00000    0.03574    0.01514 =
         0.01934    0.00284    0.00549    0.01031
AFIX  83
H2    2    0.026575    0.952760   -0.096821    11.00000   -1.50000
AFIX   0
C1    1    0.320770    0.363752    0.034776    11.00000    0.01427    0.00985 =
         0.02640    0.00117    0.00466    0.00061
C2    1    0.103716    0.804160   -0.001719    11.00000    0.01589    0.01292 =
         0.01652   -0.00069    0.00115   -0.00134
C3    1    0.179840    0.650172    0.002377    11.00000    0.01326    0.01242 =
         0.01754    0.00070    0.00262   -0.00170
C4    1    0.311957    0.448212    0.131885    11.00000    0.01970    0.01736 =
         0.01769    0.00310    0.00076   -0.00060
AFIX  43
H4    2    0.352141    0.410349    0.207070    11.00000   -1.20000
AFIX   0
C5    1    0.261868    0.418463   -0.077607    11.00000    0.01840    0.01254 =
         0.02069   -0.00453    0.00522   -0.00201
AFIX  43
H5    2    0.268590    0.360250   -0.141879    11.00000   -1.20000
AFIX   0
C6    1    0.192471    0.561726   -0.093107    11.00000    0.01594    0.01394 =
         0.01672    0.00035    0.00182   -0.00073
C7    1    0.242018    0.590018    0.114255    11.00000    0.01866    0.01744 =
         0.01610   -0.00256    0.00260   -0.00124
AFIX  43
H7    2    0.236035    0.647552    0.179014    11.00000   -1.20000
AFIX   0
HKLF    4

REM  red in P2(1)/n
REM R1 =  0.0276 for    1499 Fo > 4sig(Fo)  and  0.0346 for all    1728 data
REM    100 parameters refined using      0 restraints

END

WGHT      0.0246      0.0082

REM Highest difference peak  0.349,  deepest hole -0.440,  1-sigma level  0.094
Q1    1   0.2587  0.3915 -0.0182  11.00000  0.05    0.35
Q2    1   0.2703  0.3920  0.0882  11.00000  0.05    0.34
Q3    1   0.2226  0.6037  0.0543  11.00000  0.05    0.34
Q4    1   0.4513  0.1795 -0.0363  11.00000  0.05    0.33
Q5    1   0.5064  0.3960  0.0336  11.00000  0.05    0.33
Q6    1   0.5318  0.1608  0.1496  11.00000  0.05    0.31
Q7    1   0.0896  0.9678  0.0756  11.00000  0.05    0.31
Q8    1   0.2101  0.6053  0.1352  11.00000  0.05    0.30
Q9    1   0.1963  0.5687 -0.1834  11.00000  0.05    0.30
Q10   1   0.2981  0.9970 -0.0937  11.00000  0.05    0.29
Q11   1   0.1280  0.6320  0.1805  11.00000  0.05    0.29
Q12   1   0.0071  0.8823  0.1059  11.00000  0.05    0.29
Q13   1   0.1162  0.8172  0.1385  11.00000  0.05    0.29
Q14   1   0.2764  0.5762 -0.1741  11.00000  0.05    0.29
Q15   1   0.4020  0.3012  0.0337  11.00000  0.05    0.28
Q16   1   0.4788  0.1115  0.0995  11.00000  0.05    0.28
Q17   1   0.0640  0.5342 -0.2828  11.00000  0.05    0.28
Q18   1   0.1379  0.6020 -0.0537  11.00000  0.05    0.28
Q19   1   0.2450  0.6413 -0.0218  11.00000  0.05    0.27
Q20   1   0.1868  0.4775 -0.0850  11.00000  0.05    0.27
;
_shelx_res_checksum              33197
loop_
_space_group_symop_operation_xyz
'x, y, z'
'-x+1/2, y+1/2, -z+1/2'
'-x, -y, -z'
'x-1/2, -y-1/2, z-1/2'
loop_
_atom_site_label
_atom_site_type_symbol
_atom_site_fract_x
_atom_site_fract_y
_atom_site_fract_z
_atom_site_U_iso_or_equiv
_atom_site_adp_type
_atom_site_occupancy
_atom_site_site_symmetry_order
_atom_site_calc_flag
_atom_site_refinement_flags_posn
_atom_site_refinement_flags_adp
Br1 Br 0.41446(4) 0.16791(3) 0.05834(2) 0.02106(10) Uani 1 1 d . .
Cl1 Cl 0.12211(10) 0.61802(7) -0.23789(5) 0.02288(17) Uani 1 1 d . .
O1 O 0.0782(3) 0.86323(18) 0.08763(15) 0.0219(4) Uani 1 1 d . .
O2 O 0.0676(3) 0.8697(2) -0.10351(15) 0.0235(5) Uani 1 1 d . .
H2 H 0.0266 0.9528 -0.0968 0.035 Uiso 1 1 calc R U
C1 C 0.3208(4) 0.3638(3) 0.0348(2) 0.0168(6) Uani 1 1 d . .
C2 C 0.1037(4) 0.8042(3) -0.0017(2) 0.0155(5) Uani 1 1 d . .
C3 C 0.1798(3) 0.6502(3) 0.0024(2) 0.0145(5) Uani 1 1 d . .
C4 C 0.3120(4) 0.4482(3) 0.1319(2) 0.0188(6) Uani 1 1 d . .
H4 H 0.3521 0.4103 0.2071 0.023 Uiso 1 1 calc R U
C5 C 0.2619(4) 0.4185(3) -0.0776(2) 0.0171(6) Uani 1 1 d . .
H5 H 0.2686 0.3603 -0.1419 0.020 Uiso 1 1 calc R U
C6 C 0.1925(3) 0.5617(3) -0.0931(2) 0.0158(5) Uani 1 1 d . .
C7 C 0.2420(4) 0.5900(3) 0.1143(2) 0.0176(6) Uani 1 1 d . .
H7 H 0.2360 0.6476 0.1790 0.021 Uiso 1 1 calc R U
loop_
_atom_site_aniso_label
_atom_site_aniso_U_11
_atom_site_aniso_U_22
_atom_site_aniso_U_33
_atom_site_aniso_U_23
_atom_site_aniso_U_13
_atom_site_aniso_U_12
Br1 0.02087(15) 0.01147(15) 0.03011(17) 0.00264(11) 0.00412(12) 0.00321(10)
Cl1 0.0379(4) 0.0147(3) 0.0145(3) 0.0009(3) 0.0027(3) 0.0001(3)
O1 0.0329(12) 0.0149(9) 0.0168(9) -0.0011(8) 0.0031(8) 0.0067(8)
O2 0.0357(12) 0.0151(9) 0.0193(10) 0.0028(8) 0.0055(9) 0.0103(9)
C1 0.0143(13) 0.0098(11) 0.0264(14) 0.0012(11) 0.0047(11) 0.0006(10)
C2 0.0159(12) 0.0129(12) 0.0165(13) -0.0007(11) 0.0012(10) -0.0013(10)
C3 0.0133(12) 0.0124(12) 0.0175(13) 0.0007(10) 0.0026(10) -0.0017(10)
C4 0.0197(13) 0.0174(13) 0.0177(13) 0.0031(11) 0.0008(11) -0.0006(11)
C5 0.0184(13) 0.0125(12) 0.0207(13) -0.0045(11) 0.0052(11) -0.0020(11)
C6 0.0159(13) 0.0139(12) 0.0167(12) 0.0003(11) 0.0018(10) -0.0007(10)
C7 0.0187(13) 0.0174(13) 0.0161(12) -0.0026(11) 0.0026(10) -0.0012(11)
loop_
_atom_type_symbol
_atom_type_description
_atom_type_scat_dispersion_real
_atom_type_scat_dispersion_imag
_atom_type_scat_source
C C 0.0033 0.0016 'International Tables Vol C Tables 4.2.6.8 and 6.1.1.4'
H H 0.0000 0.0000 'International Tables Vol C Tables 4.2.6.8 and 6.1.1.4'
O O 0.0106 0.0060 'International Tables Vol C Tables 4.2.6.8 and 6.1.1.4'
Cl Cl 0.1484 0.1585 'International Tables Vol C Tables 4.2.6.8 and 6.1.1.4'
Br Br -0.2901 2.4595 'International Tables Vol C Tables 4.2.6.8 and 6.1.1.4'
loop_
_geom_angle_atom_site_label_1
_geom_angle_atom_site_label_2
_geom_angle_atom_site_label_3
_geom_angle
C5 C1 C4 121.6(2)
C5 C1 Br1 119.89(19)
C4 C1 Br1 118.55(19)
O1 C2 O2 122.9(2)
O1 C2 C3 120.3(2)
O2 C2 C3 116.8(2)
C6 C3 C7 117.5(2)
C6 C3 C2 126.8(2)
C7 C3 C2 115.6(2)
C7 C4 C1 118.3(2)
C1 C5 C6 119.0(2)
C5 C6 C3 121.2(2)
C5 C6 Cl1 114.91(19)
C3 C6 Cl1 123.86(19)
C4 C7 C3 122.3(2)
loop_
_geom_bond_atom_site_label_1
_geom_bond_atom_site_label_2
_geom_bond_distance
Br1 C1 1.899(2)
Cl1 C6 1.736(2)
O1 C2 1.227(3)
O2 C2 1.306(3)
C1 C5 1.383(3)
C1 C4 1.385(3)
C2 C3 1.498(3)
C3 C6 1.396(3)
C3 C7 1.399(3)
C4 C7 1.381(3)
C5 C6 1.390(3)
