#------------------------------------------------------------------------------
#$Date: 2017-04-22 05:22:27 +0300 (Sat, 22 Apr 2017) $
#$Revision: 195684 $
#$URL: file:///home/coder/svn-repositories/cod/cif/1/54/57/1545790.cif $
#------------------------------------------------------------------------------
#
# This file is available in the Crystallography Open Database (COD),
# http://www.crystallography.net/
#
# All data on this site have been placed in the public domain by the
# contributors.
#
data_1545790
loop_
_publ_author_name
'Pramanik, Titas'
'Srinivas, Pavan Mysore'
'Tayur, Guru Row N.'
_publ_section_title
;
 FDHALO17: Do halogen bonds dictate the packing preferences in solid
 solutions?
;
_journal_name_full               'Faraday Discuss.'
_journal_paper_doi               10.1039/C7FD00084G
_journal_year                    2017
_chemical_formula_moiety         'C7 H4 Br Cl O2'
_chemical_formula_sum            'C7 H4 Br Cl O2'
_chemical_formula_weight         235.46
_chemical_name_systematic
'4-bromo-2-chlobenzoic acid/ 2-bromo-4-chlorobenzoic acid'
_space_group_crystal_system      monoclinic
_space_group_IT_number           14
_space_group_name_Hall           '-P 2yn'
_space_group_name_H-M_alt        'P 1 21/n 1'
_symmetry_space_group_name_Hall  '-P 2yn'
_symmetry_space_group_name_H-M   'P 1 21/n 1'
_atom_sites_solution_hydrogens   geom
_audit_creation_method           SHELXL-2016/6
_audit_update_record
;
2017-04-18 deposited with the CCDC.
2017-04-21 downloaded from the CCDC.
;
_cell_angle_alpha                90
_cell_angle_beta                 105.036(4)
_cell_angle_gamma                90
_cell_formula_units_Z            4
_cell_length_a                   7.2399(3)
_cell_length_b                   9.0087(2)
_cell_length_c                   12.0539(4)
_cell_measurement_reflns_used    3289
_cell_measurement_temperature    100(2)
_cell_measurement_theta_max      29.6800
_cell_measurement_theta_min      2.8680
_cell_volume                     759.26(5)
_computing_structure_refinement  'SHELXL-2016/6 (Sheldrick, 2016)'
_diffrn_ambient_temperature      100(2)
_diffrn_measured_fraction_theta_full 1.000
_diffrn_measured_fraction_theta_max 0.870
_diffrn_measurement_device_type  'Xcalibur, Eos, Nova'
_diffrn_radiation_type           MoK\a
_diffrn_radiation_wavelength     0.71073
_diffrn_reflns_av_R_equivalents  0.0321
_diffrn_reflns_av_unetI/netI     0.0341
_diffrn_reflns_Laue_measured_fraction_full 1.000
_diffrn_reflns_Laue_measured_fraction_max 0.870
_diffrn_reflns_limit_h_max       9
_diffrn_reflns_limit_h_min       -9
_diffrn_reflns_limit_k_max       12
_diffrn_reflns_limit_k_min       -12
_diffrn_reflns_limit_l_max       16
_diffrn_reflns_limit_l_min       -14
_diffrn_reflns_number            5835
_diffrn_reflns_point_group_measured_fraction_full 1.000
_diffrn_reflns_point_group_measured_fraction_max 0.870
_diffrn_reflns_theta_full        25.242
_diffrn_reflns_theta_max         30.408
_diffrn_reflns_theta_min         2.859
_exptl_absorpt_coefficient_mu    5.703
_exptl_crystal_colour            Colorless
_exptl_crystal_density_diffrn    2.060
_exptl_crystal_description       Block
_exptl_crystal_F_000             456
_exptl_crystal_recrystallization_method
'Re-crystallisation from solvent: methanol'
_refine_diff_density_max         0.381
_refine_diff_density_min         -0.579
_refine_diff_density_rms         0.093
_refine_ls_extinction_method     none
_refine_ls_goodness_of_fit_ref   1.067
_refine_ls_hydrogen_treatment    constr
_refine_ls_matrix_type           full
_refine_ls_number_parameters     107
_refine_ls_number_reflns         2007
_refine_ls_number_restraints     4
_refine_ls_restrained_S_all      1.071
_refine_ls_R_factor_all          0.0330
_refine_ls_R_factor_gt           0.0277
_refine_ls_shift/su_max          0.008
_refine_ls_shift/su_mean         0.001
_refine_ls_structure_factor_coef Fsqd
_refine_ls_weighting_details
'w=1/[\s^2^(Fo^2^)+(0.0282P)^2^+0.3256P] where P=(Fo^2^+2Fc^2^)/3'
_refine_ls_weighting_scheme      calc
_refine_ls_wR_factor_gt          0.0641
_refine_ls_wR_factor_ref         0.0667
_reflns_Friedel_coverage         0.000
_reflns_number_gt                1791
_reflns_number_total             2007
_reflns_threshold_expression     'I > 2\s(I)'
_cod_data_source_file            c7fd00084g2.cif
_cod_data_source_block           shelx
_cod_database_code               1545790
_shelx_shelxl_version_number     2016/6
_shelx_space_group_comment
;
The symmetry employed for this shelxl refinement is uniquely defined
by the following loop, which should always be used as a source of
symmetry information in preference to the above space-group names.
They are only intended as comments.
;
_shelx_res_file
;
TITL red in P2(1)/n
    shelx.res
    created by SHELXL-2016/6 at 10:27:16 on 17-Apr-2017
CELL  0.71073   7.2399   9.0087  12.0539   90.000  105.036   90.000
ZERR     4.00   0.0003   0.0002   0.0004    0.000    0.004    0.000
LATT   1
SYMM  1/2 - X, 1/2 + Y, 1/2 - Z
SFAC  C    H    O    CL   BR
UNIT  28 16 8 4 4
MERG   2
EADP BR1 CL2
EADP BR2 CL1
DFIX 1.900 0.005 C5 BR2
DFIX 1.900 0.005 C3 BR1
DFIX 1.740 0.005 C3 CL2
DFIX 1.740 0.005 C5 CL1
FMAP   2
PLAN   20
ACTA
LIST   3
L.S.   5
WGHT    0.028200    0.325600
FVAR       5.11134   0.61514
PART    1
BR1   5    0.884219    0.378886    0.243970    21.00000    0.03148    0.01546 =
         0.01280    0.00104    0.00490   -0.00110
CL1   4    0.579267    0.816379   -0.055174    21.00000    0.02020    0.00328 =
         0.03449    0.00386    0.00613   -0.00068
PART    2
CL2   4    0.891135    0.381208    0.231353   -21.00000    0.03148    0.01546 =
         0.01280    0.00104    0.00490   -0.00110
BR2   5    0.588105    0.838735   -0.055034   -21.00000    0.02020    0.00328 =
         0.03449    0.00386    0.00613   -0.00068
PART    0
O1    3    0.915054    0.138482   -0.089903    11.00000    0.03529    0.01731 =
         0.01988   -0.00288    0.00600    0.00566
O2    3    0.939774    0.130341    0.097881    11.00000    0.04391    0.01642 =
         0.02038    0.00403    0.00914    0.01080
AFIX  83
H2    2    0.980465    0.046998    0.090405    11.00000   -1.50000
AFIX   0
C1    1    0.895561    0.196521   -0.000289    11.00000    0.01417    0.01212 =
         0.01840   -0.00082    0.00306   -0.00206
C5    1    0.675397    0.639786   -0.035483    11.00000    0.01411    0.01064 =
         0.02745    0.00184    0.00526    0.00070
C2    1    0.817972    0.351161   -0.004927    11.00000    0.01320    0.01127 =
         0.01911   -0.00021    0.00401   -0.00146
C3    1    0.807675    0.439017    0.089115    11.00000    0.01600    0.01444 =
         0.01573    0.00233    0.00394   -0.00264
C6    1    0.680192    0.556750   -0.131369    11.00000    0.01755    0.01786 =
         0.01964    0.00346    0.00448    0.00042
AFIX  43
H6    2    0.636494    0.595822   -0.204942    11.00000   -1.20000
AFIX   0
C4    1    0.737887    0.583739    0.074401    11.00000    0.01807    0.01455 =
         0.01939   -0.00300    0.00727   -0.00054
AFIX  43
H4    2    0.733492    0.641589    0.137566    11.00000   -1.20000
AFIX   0
C7    1    0.752079    0.413713   -0.114312    11.00000    0.01845    0.01752 =
         0.01728   -0.00097    0.00615   -0.00034
AFIX  43
H7    2    0.756729    0.357059   -0.178029    11.00000   -1.20000
AFIX   0
HKLF    4




REM  red in P2(1)/n
REM R1 =  0.0277 for    1791 Fo > 4sig(Fo)  and  0.0330 for all    2007 data
REM    107 parameters refined using      4 restraints

END

WGHT      0.0280      0.3279

REM Highest difference peak  0.381,  deepest hole -0.579,  1-sigma level  0.093
Q1    1   0.8268  0.4118  0.1348  11.00000  0.05    0.38
Q2    1   1.0730  0.2212  0.1991  11.00000  0.05    0.35
Q3    1   0.8657  0.2758  0.0063  11.00000  0.05    0.35
Q4    1   0.7278  0.4900 -0.1149  11.00000  0.05    0.35
Q5    1   0.6547  0.6936 -0.0429  11.00000  0.05    0.33
Q6    1   0.8090  0.2805  0.2762  11.00000  0.05    0.31
Q7    1   0.7543  0.3866 -0.0551  11.00000  0.05    0.30
Q8    1   0.4988  0.7419  0.0028  11.00000  0.05    0.30
Q9    1   0.6702  0.9336  0.0007  11.00000  0.05    0.30
Q10   1   0.8910  0.5883  0.2407  11.00000  0.05    0.29
Q11   1   0.9724  0.2817  0.1929  11.00000  0.05    0.29
Q12   1   0.8223  0.3942  0.0423  11.00000  0.05    0.29
Q13   1   1.0536  0.3631  0.3982  11.00000  0.05    0.28
Q14   1   0.7501  0.8658 -0.0443  11.00000  0.05    0.28
Q15   1   1.0317  0.3807  0.2593  11.00000  0.05    0.28
Q16   1   1.0292  0.2383  0.1170  11.00000  0.05    0.28
Q17   1   1.0229 -0.0413  0.0858  11.00000  0.05    0.28
Q18   1   0.7434  0.6332  0.0206  11.00000  0.05    0.28
Q19   1   0.9131  0.6611  0.0801  11.00000  0.05    0.27
Q20   1   0.6270  0.2038 -0.1086  11.00000  0.05    0.27
;
_shelx_res_checksum              92892
loop_
_space_group_symop_operation_xyz
'x, y, z'
'-x+1/2, y+1/2, -z+1/2'
'-x, -y, -z'
'x-1/2, -y-1/2, z-1/2'
loop_
_atom_site_label
_atom_site_type_symbol
_atom_site_fract_x
_atom_site_fract_y
_atom_site_fract_z
_atom_site_U_iso_or_equiv
_atom_site_adp_type
_atom_site_occupancy
_atom_site_site_symmetry_order
_atom_site_calc_flag
_atom_site_refinement_flags_posn
_atom_site_refinement_flags_adp
_atom_site_refinement_flags_occupancy
_atom_site_disorder_assembly
_atom_site_disorder_group
Br1 Br 0.8842(4) 0.3789(4) 0.24397(12) 0.0201(2) Uani 0.6151(13) 1 d D . P A 1
Cl1 Cl 0.5793(12) 0.8164(5) -0.0552(10) 0.0195(4) Uani 0.6151(13) 1 d D . P A 1
Cl2 Cl 0.8911(19) 0.3812(15) 0.2314(5) 0.0201(2) Uani 0.3849(13) 1 d D . P A 2
Br2 Br 0.5881(7) 0.8387(3) -0.0550(6) 0.0195(4) Uani 0.3849(13) 1 d D . P A 2
O1 O 0.9151(2) 0.13848(17) -0.08990(13) 0.0244(4) Uani 1 1 d . . . . .
O2 O 0.9398(3) 0.13034(17) 0.09788(14) 0.0268(4) Uani 1 1 d . . . . .
H2 H 0.980465 0.046998 0.090405 0.040 Uiso 1 1 calc R U . . .
C1 C 0.8956(3) 0.1965(2) -0.00029(18) 0.0151(4) Uani 1 1 d . . . . .
C5 C 0.6754(3) 0.6398(2) -0.0355(2) 0.0174(4) Uani 1 1 d D . . . .
C2 C 0.8180(3) 0.3512(2) -0.00493(18) 0.0146(4) Uani 1 1 d . . . . .
C3 C 0.8077(3) 0.4390(2) 0.08912(16) 0.0154(4) Uani 1 1 d D . . . .
C6 C 0.6802(3) 0.5567(2) -0.13137(19) 0.0184(4) Uani 1 1 d . . . . .
H6 H 0.636494 0.595822 -0.204942 0.022 Uiso 1 1 calc R U . . .
C4 C 0.7379(3) 0.5837(2) 0.07440(19) 0.0169(4) Uani 1 1 d . . . . .
H4 H 0.733492 0.641589 0.137566 0.020 Uiso 1 1 calc R U . . .
C7 C 0.7521(3) 0.4137(2) -0.11431(18) 0.0175(4) Uani 1 1 d . . . . .
H7 H 0.756729 0.357059 -0.178029 0.021 Uiso 1 1 calc R U . . .
loop_
_atom_site_aniso_label
_atom_site_aniso_U_11
_atom_site_aniso_U_22
_atom_site_aniso_U_33
_atom_site_aniso_U_23
_atom_site_aniso_U_13
_atom_site_aniso_U_12
Br1 0.0315(3) 0.01546(18) 0.0128(4) 0.0010(4) 0.0049(4) -0.00110(18)
Cl1 0.0202(5) 0.0033(8) 0.0345(2) 0.0039(10) 0.0061(3) -0.0007(8)
Cl2 0.0315(3) 0.01546(18) 0.0128(4) 0.0010(4) 0.0049(4) -0.00110(18)
Br2 0.0202(5) 0.0033(8) 0.0345(2) 0.0039(10) 0.0061(3) -0.0007(8)
O1 0.0353(10) 0.0173(7) 0.0199(9) -0.0029(6) 0.0060(7) 0.0057(7)
O2 0.0439(10) 0.0164(7) 0.0204(8) 0.0040(6) 0.0091(8) 0.0108(7)
C1 0.0142(9) 0.0121(8) 0.0184(10) -0.0008(8) 0.0031(8) -0.0021(7)
C5 0.0141(9) 0.0106(8) 0.0275(12) 0.0018(8) 0.0053(8) 0.0007(7)
C2 0.0132(9) 0.0113(8) 0.0191(10) -0.0002(7) 0.0040(8) -0.0015(7)
C3 0.0160(10) 0.0144(9) 0.0157(10) 0.0023(8) 0.0039(8) -0.0026(8)
C6 0.0175(10) 0.0179(9) 0.0196(11) 0.0035(8) 0.0045(8) 0.0004(8)
C4 0.0181(10) 0.0145(9) 0.0194(10) -0.0030(8) 0.0073(8) -0.0005(8)
C7 0.0184(10) 0.0175(9) 0.0173(10) -0.0010(8) 0.0061(8) -0.0003(8)
loop_
_atom_type_symbol
_atom_type_description
_atom_type_scat_dispersion_real
_atom_type_scat_dispersion_imag
_atom_type_scat_source
C C 0.0033 0.0016 'International Tables Vol C Tables 4.2.6.8 and 6.1.1.4'
H H 0.0000 0.0000 'International Tables Vol C Tables 4.2.6.8 and 6.1.1.4'
O O 0.0106 0.0060 'International Tables Vol C Tables 4.2.6.8 and 6.1.1.4'
Cl Cl 0.1484 0.1585 'International Tables Vol C Tables 4.2.6.8 and 6.1.1.4'
Br Br -0.2901 2.4595 'International Tables Vol C Tables 4.2.6.8 and 6.1.1.4'
loop_
_geom_angle_atom_site_label_1
_geom_angle_atom_site_label_2
_geom_angle_atom_site_label_3
_geom_angle
O1 C1 O2 123.17(19)
O1 C1 C2 119.06(18)
O2 C1 C2 117.77(18)
C4 C5 C6 122.05(18)
C4 C5 Cl1 119.3(4)
C6 C5 Cl1 118.6(4)
C4 C5 Br2 118.8(3)
C6 C5 Br2 119.1(3)
C7 C2 C3 117.29(18)
C7 C2 C1 116.28(18)
C3 C2 C1 126.42(19)
C4 C3 C2 121.31(18)
C4 C3 Cl2 115.3(5)
C2 C3 Cl2 123.3(5)
C4 C3 Br1 113.52(18)
C2 C3 Br1 125.16(18)
C5 C6 C7 117.94(19)
C5 C4 C3 118.86(19)
C6 C7 C2 122.5(2)
loop_
_geom_bond_atom_site_label_1
_geom_bond_atom_site_label_2
_geom_bond_distance
Br1 C3 1.884(2)
Cl1 C5 1.728(4)
Cl2 C3 1.743(5)
Br2 C5 1.895(3)
O1 C1 1.241(2)
O2 C1 1.289(3)
C1 C2 1.498(3)
C5 C4 1.380(3)
C5 C6 1.385(3)
C2 C7 1.399(3)
C2 C3 1.400(3)
C3 C4 1.393(3)
C6 C7 1.385(3)
