#------------------------------------------------------------------------------
#$Date: 2017-06-06 09:20:00 +0300 (Tue, 06 Jun 2017) $
#$Revision: 197562 $
#$URL: file:///home/coder/svn-repositories/cod/cif/1/54/62/1546269.cif $
#------------------------------------------------------------------------------
#
# This file is available in the Crystallography Open Database (COD),
# http://www.crystallography.net/. The original data for this entry
# were provided by IUCr Journals, http://journals.iucr.org/.
#
# The file may be used within the scientific community so long as
# proper attribution is given to the journal article from which the
# data were obtained.
#
data_1546269
loop_
_publ_author_name
'Rajput, Lalit'
'Banik, Manas'
'Yarava, Jayasubba Reddy'
'Joseph, Sumy'
'Pandey, Manoj Kumar'
'Nishiyama, Yusuke'
'Desiraju, Gautam R.'
_publ_section_title
;
 Exploring the salt--cocrystal continuum with solid-state NMR using
 natural-abundance samples: implications for crystal engineering
;
_journal_issue                   4
_journal_name_full               IUCrJ
_journal_page_first
;
;
_journal_paper_doi               10.1107/S205225251700687X
_journal_volume                  4
_journal_year                    2017
_chemical_formula_moiety         'C6 H Cl5 O, C6 H7 N'
_chemical_formula_sum            'C12 H8 Cl5 N O'
_chemical_formula_weight         359.44
_chemical_melting_point          77(2)
_chemical_name_common            '4-Methylpyridine Pentachlorophenol'
_chemical_name_systematic
;
 ?
;
_space_group_IT_number           2
_symmetry_cell_setting           triclinic
_symmetry_space_group_name_Hall  '-P 1'
_symmetry_space_group_name_H-M   'P -1'
_atom_sites_solution_hydrogens   geom
_atom_sites_solution_primary     direct
_atom_sites_solution_secondary   difmap
_audit_creation_method           SHELXL-97
_cell_angle_alpha                69.945(5)
_cell_angle_beta                 85.055(5)
_cell_angle_gamma                76.133(5)
_cell_formula_units_Z            2
_cell_length_a                   7.3382(8)
_cell_length_b                   8.8986(9)
_cell_length_c                   11.8245(11)
_cell_measurement_reflns_used    5272
_cell_measurement_temperature    110(2)
_cell_measurement_theta_max      27.46
_cell_measurement_theta_min      3.235
_cell_volume                     704.17(13)
_computing_structure_refinement  'SHELXL-97 (Sheldrick, 2008)'
_diffrn_ambient_temperature      110(2)
_diffrn_measured_fraction_theta_full 0.997
_diffrn_measured_fraction_theta_max 0.997
_diffrn_measurement_device_type  'Bruker P4'
_diffrn_measurement_method       '\w scans'
_diffrn_radiation_monochromator  graphite
_diffrn_radiation_source         'fine-focus sealed tube'
_diffrn_radiation_type           MoK\a
_diffrn_radiation_wavelength     0.71073
_diffrn_reflns_av_R_equivalents  0.0523
_diffrn_reflns_av_sigmaI/netI    0.0450
_diffrn_reflns_limit_h_max       9
_diffrn_reflns_limit_h_min       -9
_diffrn_reflns_limit_k_max       10
_diffrn_reflns_limit_k_min       -10
_diffrn_reflns_limit_l_max       14
_diffrn_reflns_limit_l_min       -14
_diffrn_reflns_number            11629
_diffrn_reflns_theta_full        25.99
_diffrn_reflns_theta_max         25.99
_diffrn_reflns_theta_min         3.35
_exptl_absorpt_coefficient_mu    1.018
_exptl_absorpt_correction_T_max  0.876
_exptl_absorpt_correction_T_min  0.833
_exptl_absorpt_correction_type   empirical
_exptl_absorpt_process_details   SADABS
_exptl_crystal_colour            Colorless
_exptl_crystal_density_diffrn    1.695
_exptl_crystal_density_method    'not measured'
_exptl_crystal_description       Needle
_exptl_crystal_F_000             360
_exptl_crystal_size_max          0.27
_exptl_crystal_size_mid          0.15
_exptl_crystal_size_min          0.13
_refine_diff_density_max         0.365
_refine_diff_density_min         -0.276
_refine_diff_density_rms         0.069
_refine_ls_extinction_method     none
_refine_ls_goodness_of_fit_ref   1.102
_refine_ls_hydrogen_treatment    mixed
_refine_ls_matrix_type           full
_refine_ls_number_parameters     193
_refine_ls_number_reflns         2756
_refine_ls_number_restraints     0
_refine_ls_restrained_S_all      1.102
_refine_ls_R_factor_all          0.0614
_refine_ls_R_factor_gt           0.0396
_refine_ls_shift/su_max          0.000
_refine_ls_shift/su_mean         0.000
_refine_ls_structure_factor_coef Fsqd
_refine_ls_weighting_details
'calc w=1/[\s^2^(Fo^2^)+(0.0398P)^2^+0.5163P] where P=(Fo^2^+2Fc^2^)/3'
_refine_ls_weighting_scheme      calc
_refine_ls_wR_factor_gt          0.0964
_refine_ls_wR_factor_ref         0.1034
_reflns_number_gt                2106
_reflns_number_total             2756
_reflns_threshold_expression     >2\s(I)
_iucr_refine_instructions_details
;

TITL CNT1-LT1 in P-1
CELL  0.71073   7.3382   8.8986  11.8245   69.945   85.055   76.133
ZERR     2.00   0.0008   0.0009   0.0011    0.005    0.005    0.005
LATT   1
SFAC  C    H    N    O    CL
UNIT  24   16   2    2    10
MERG   2
OMIT    -2.00  52.00
FMAP   2
PLAN    3
LIST 4
ACTA
BOND
WGHT     0.03980     0.51630
L.S.  20
FVAR     0.19792
C1    1    0.390329    0.826779    0.229282    11.00000    0.02069    0.02757 =
        0.02530   -0.00917    0.00030   -0.01114
C2    1    0.360900    0.782446    0.129881    11.00000    0.02154    0.02480 =
        0.03071   -0.01019    0.00305   -0.01103
C3    1    0.285994    0.899871    0.023197    11.00000    0.01987    0.03394 =
        0.02456   -0.01186    0.00197   -0.01386
C4    1    0.235347    1.064800    0.011767    11.00000    0.02011    0.02799 =
        0.02573   -0.00458    0.00313   -0.00707
C5    1    0.261794    1.111719    0.108567    11.00000    0.02228    0.02332 =
        0.03132   -0.01131    0.00352   -0.00925
C6    1    0.339567    0.993673    0.214634    11.00000    0.02201    0.02977 =
        0.02652   -0.01382    0.00349   -0.01137
C7    1    0.841604    0.821498    0.405413    11.00000    0.04432    0.03012 =
        0.02463   -0.00732    0.00169   -0.00968
C8    1    0.997076    0.808119    0.467889    11.00000    0.03380    0.03637 =
        0.04064   -0.02116    0.01138   -0.01727
C9    1    1.035603    0.688774    0.579120    11.00000    0.02533    0.03478 =
        0.03990   -0.02374   -0.00027   -0.00271
C10   1    0.913621    0.584095    0.622037    11.00000    0.03394    0.02719 =
        0.02461   -0.00805   -0.00228   -0.00033
C11   1    0.761093    0.601684    0.555166    11.00000    0.03008    0.02637 =
        0.03013   -0.01178    0.00488   -0.00981
C12   1    1.203487    0.670401    0.651208    11.00000    0.03534    0.06998 =
        0.06524   -0.03261   -0.01524   -0.00928
AFIX  137
H12A  2    1.264896    0.758757    0.611574    11.00000   -1.50000
H12B  2    1.289223    0.567601    0.657986    11.00000   -1.50000
H12C  2    1.163549    0.673110    0.730100    11.00000   -1.50000
AFIX    0
N1    3    0.724502    0.720160    0.448148    11.00000    0.03023    0.03180 =
        0.02656   -0.01031   -0.00026   -0.00786
O1    4    0.459039    0.712459    0.329553    11.00000    0.03795    0.02779 =
        0.02749   -0.00500   -0.00804   -0.01337
CL1   5    0.421254    0.578439    0.143100    11.00000    0.04477    0.02525 =
        0.03617   -0.01225   -0.00480   -0.01018
CL2   5    0.253971    0.838326   -0.095846    11.00000    0.03714    0.04155 =
        0.02657   -0.01548   -0.00162   -0.01352
CL3   5    0.143344    1.210329   -0.120732    11.00000    0.03481    0.03536 =
        0.03019   -0.00184   -0.00475   -0.00702
CL4   5    0.198425    1.314846    0.096551    11.00000    0.04666    0.02463 =
        0.04850   -0.01444   -0.00192   -0.00706
CL5   5    0.376896    1.052465    0.334368    11.00000    0.03948    0.03754 =
        0.03314   -0.02067    0.00112   -0.01192
H1    2    0.580861    0.720256    0.378366    11.00000    0.08997
H7    2    0.807163    0.903548    0.331890    11.00000    0.01939
H8    2    1.077521    0.874081    0.433621    11.00000    0.03537
H10   2    0.929322    0.499247    0.694795    11.00000    0.03239
H11   2    0.676599    0.527592    0.578761    11.00000    0.02845
HKLF 4
END

;
_cod_data_source_file            lq5005.cif
_cod_data_source_block           CNT1-LT
_cod_depositor_comments
;
The following automatic conversions were performed:

'_chemical_melting_point' value '75-79' was changed to '77(2)' - the
average value was taken and precision was estimated.

'_symmetry_cell_setting' value 'Triclinic' changed to 'triclinic'
according to
/home/data/users/saulius/crontab/automatic-downloads/rss-feeds/IUCr/lib/dictionaries/cif_core.dic
dictionary named 'cif_core.dic' version 2.4.2 from 2011-04-26.

'_exptl_absorpt_correction_type' value 'Empirical' changed to
'empirical' according to
/home/data/users/saulius/crontab/automatic-downloads/rss-feeds/IUCr/lib/dictionaries/cif_core.dic
dictionary named 'cif_core.dic' version 2.4.2 from 2011-04-26.

Automatic conversion script
Id: cif_fix_values 4973 2017-02-22 13:04:09Z antanas 
;
_cod_original_cell_volume        704.17(12)
_cod_original_sg_symbol_H-M      P-1
_cod_database_code               1546269
loop_
_symmetry_equiv_pos_as_xyz
'x, y, z'
'-x, -y, -z'
loop_
_atom_site_label
_atom_site_type_symbol
_atom_site_fract_x
_atom_site_fract_y
_atom_site_fract_z
_atom_site_U_iso_or_equiv
_atom_site_adp_type
_atom_site_occupancy
_atom_site_symmetry_multiplicity
_atom_site_calc_flag
_atom_site_refinement_flags
C1 C 0.3903(4) 0.8268(4) 0.2293(2) 0.0234(7) Uani 1 1 d .
C2 C 0.3609(4) 0.7824(4) 0.1299(3) 0.0246(7) Uani 1 1 d .
C3 C 0.2860(4) 0.8999(4) 0.0232(3) 0.0243(7) Uani 1 1 d .
C4 C 0.2353(4) 1.0648(4) 0.0118(3) 0.0257(7) Uani 1 1 d .
C5 C 0.2618(4) 1.1117(4) 0.1086(3) 0.0245(7) Uani 1 1 d .
C6 C 0.3396(4) 0.9937(4) 0.2146(3) 0.0241(7) Uani 1 1 d .
C7 C 0.8416(5) 0.8215(4) 0.4054(3) 0.0334(8) Uani 1 1 d .
C8 C 0.9971(5) 0.8081(4) 0.4679(3) 0.0338(8) Uani 1 1 d .
C9 C 1.0356(4) 0.6888(4) 0.5791(3) 0.0311(7) Uani 1 1 d .
C10 C 0.9136(4) 0.5841(4) 0.6220(3) 0.0298(7) Uani 1 1 d .
C11 C 0.7611(4) 0.6017(4) 0.5552(3) 0.0279(7) Uani 1 1 d .
C12 C 1.2035(5) 0.6704(5) 0.6512(4) 0.0537(11) Uani 1 1 d .
H12A H 1.2649 0.7588 0.6116 0.081 Uiso 1 1 calc R
H12B H 1.2892 0.5676 0.6580 0.081 Uiso 1 1 calc R
H12C H 1.1635 0.6731 0.7301 0.081 Uiso 1 1 calc R
N1 N 0.7245(4) 0.7202(3) 0.4481(2) 0.0292(6) Uani 1 1 d .
O1 O 0.4590(3) 0.7125(2) 0.32955(18) 0.0306(5) Uani 1 1 d .
Cl1 Cl 0.42125(12) 0.57844(9) 0.14310(7) 0.0342(2) Uani 1 1 d .
Cl2 Cl 0.25397(11) 0.83833(10) -0.09585(7) 0.0331(2) Uani 1 1 d .
Cl3 Cl 0.14334(11) 1.21033(10) -0.12073(7) 0.0357(2) Uani 1 1 d .
Cl4 Cl 0.19843(12) 1.31485(10) 0.09655(8) 0.0394(2) Uani 1 1 d .
Cl5 Cl 0.37690(11) 1.05247(10) 0.33437(7) 0.0338(2) Uani 1 1 d .
H1 H 0.581(7) 0.720(5) 0.378(4) 0.090(15) Uiso 1 1 d .
H7 H 0.807(4) 0.904(4) 0.332(3) 0.019(7) Uiso 1 1 d .
H8 H 1.078(5) 0.874(4) 0.434(3) 0.035(9) Uiso 1 1 d .
H10 H 0.929(4) 0.499(4) 0.695(3) 0.032(9) Uiso 1 1 d .
H11 H 0.677(4) 0.528(4) 0.579(3) 0.028(8) Uiso 1 1 d .
loop_
_atom_site_aniso_label
_atom_site_aniso_U_11
_atom_site_aniso_U_22
_atom_site_aniso_U_33
_atom_site_aniso_U_23
_atom_site_aniso_U_13
_atom_site_aniso_U_12
C1 0.0207(15) 0.0276(16) 0.0253(16) -0.0092(13) 0.0003(12) -0.0111(13)
C2 0.0215(16) 0.0248(16) 0.0307(16) -0.0102(13) 0.0030(13) -0.0110(13)
C3 0.0199(16) 0.0339(17) 0.0246(15) -0.0119(13) 0.0020(12) -0.0139(13)
C4 0.0201(15) 0.0280(17) 0.0257(16) -0.0046(13) 0.0031(12) -0.0071(13)
C5 0.0223(15) 0.0233(15) 0.0313(16) -0.0113(13) 0.0035(13) -0.0093(13)
C6 0.0220(16) 0.0298(17) 0.0265(16) -0.0138(13) 0.0035(13) -0.0114(13)
C7 0.044(2) 0.0301(18) 0.0246(17) -0.0073(14) 0.0017(15) -0.0097(16)
C8 0.0338(19) 0.036(2) 0.041(2) -0.0212(16) 0.0114(16) -0.0173(16)
C9 0.0253(17) 0.0348(18) 0.0399(19) -0.0237(15) -0.0003(14) -0.0027(14)
C10 0.0339(19) 0.0272(17) 0.0246(16) -0.0080(14) -0.0023(14) -0.0003(14)
C11 0.0301(18) 0.0264(17) 0.0301(17) -0.0118(13) 0.0049(14) -0.0098(14)
C12 0.035(2) 0.070(3) 0.065(3) -0.033(2) -0.0152(19) -0.0093(19)
N1 0.0302(15) 0.0318(15) 0.0266(14) -0.0103(11) -0.0003(11) -0.0079(12)
O1 0.0380(13) 0.0278(12) 0.0275(11) -0.0050(9) -0.0080(10) -0.0134(10)
Cl1 0.0448(5) 0.0253(4) 0.0362(4) -0.0122(3) -0.0048(4) -0.0102(4)
Cl2 0.0371(5) 0.0415(5) 0.0266(4) -0.0155(3) -0.0016(3) -0.0135(4)
Cl3 0.0348(5) 0.0354(5) 0.0302(4) -0.0018(3) -0.0047(3) -0.0070(4)
Cl4 0.0467(5) 0.0246(4) 0.0485(5) -0.0144(4) -0.0019(4) -0.0071(4)
Cl5 0.0395(5) 0.0375(5) 0.0331(4) -0.0207(3) 0.0011(3) -0.0119(4)
loop_
_atom_type_symbol
_atom_type_description
_atom_type_scat_dispersion_real
_atom_type_scat_dispersion_imag
_atom_type_scat_source
C C 0.0033 0.0016 'International Tables Vol C Tables 4.2.6.8 and 6.1.1.4'
H H 0.0000 0.0000 'International Tables Vol C Tables 4.2.6.8 and 6.1.1.4'
N N 0.0061 0.0033 'International Tables Vol C Tables 4.2.6.8 and 6.1.1.4'
O O 0.0106 0.0060 'International Tables Vol C Tables 4.2.6.8 and 6.1.1.4'
Cl Cl 0.1484 0.1585 'International Tables Vol C Tables 4.2.6.8 and 6.1.1.4'
loop_
_geom_angle_atom_site_label_1
_geom_angle_atom_site_label_2
_geom_angle_atom_site_label_3
_geom_angle
O1 C1 C6 123.7(3)
O1 C1 C2 119.8(3)
C6 C1 C2 116.5(3)
C3 C2 C1 121.3(3)
C3 C2 Cl1 120.3(2)
C1 C2 Cl1 118.4(2)
C4 C3 C2 120.8(3)
C4 C3 Cl2 119.9(2)
C2 C3 Cl2 119.2(2)
C3 C4 C5 119.1(3)
C3 C4 Cl3 120.8(2)
C5 C4 Cl3 120.2(2)
C4 C5 C6 119.8(3)
C4 C5 Cl4 119.7(2)
C6 C5 Cl4 120.4(2)
C5 C6 C1 122.5(3)
C5 C6 Cl5 119.9(2)
C1 C6 Cl5 117.7(2)
N1 C7 C8 122.1(3)
C7 C8 C9 120.1(3)
C8 C9 C10 117.2(3)
C8 C9 C12 121.9(3)
C10 C9 C12 120.9(3)
C11 C10 C9 120.4(3)
N1 C11 C10 121.5(3)
C7 N1 C11 118.8(3)
loop_
_geom_bond_atom_site_label_1
_geom_bond_atom_site_label_2
_geom_bond_distance
C1 O1 1.313(3)
C1 C6 1.394(4)
C1 C2 1.409(4)
C2 C3 1.388(4)
C2 Cl1 1.717(3)
C3 C4 1.386(4)
C3 Cl2 1.727(3)
C4 C5 1.388(4)
C4 Cl3 1.720(3)
C5 C6 1.391(4)
C5 Cl4 1.713(3)
C6 Cl5 1.731(3)
C7 N1 1.338(4)
C7 C8 1.372(5)
C8 C9 1.378(5)
C9 C10 1.387(5)
C9 C12 1.503(4)
C10 C11 1.373(4)
C11 N1 1.339(4)
