#------------------------------------------------------------------------------
#$Date: 2017-06-27 04:13:01 +0300 (Tue, 27 Jun 2017) $
#$Revision: 198148 $
#$URL: file:///home/coder/svn-repositories/cod/cif/1/54/63/1546392.cif $
#------------------------------------------------------------------------------
#
# This file is available in the Crystallography Open Database (COD),
# http://www.crystallography.net/
#
# All data on this site have been placed in the public domain by the
# contributors.
#
data_1546392
loop_
_publ_author_name
'Landmann, Johannes'
'Hennig, Philipp T.'
'Ignat'ev, Nikolai'
'Finze, Maik'
_publ_section_title
;
 Borylation of Fluorinated Arenes with the Boron-centred Nucleophile
 B(CN)32&#x2212; -- a Unique Entry to Aryltricyanoborates
;
_journal_name_full               'Chem. Sci.'
_journal_paper_doi               10.1039/C7SC02249B
_journal_year                    2017
_chemical_formula_moiety         'C9 H3 B F2 K N3'
_chemical_formula_sum            'C9 H3 B F2 K N3'
_chemical_formula_weight         241.05
_space_group_crystal_system      monoclinic
_space_group_IT_number           14
_space_group_name_Hall           '-P 2ybc'
_space_group_name_H-M_alt        'P 1 21/c 1'
_symmetry_space_group_name_Hall  '-P 2ybc'
_symmetry_space_group_name_H-M   'P 1 21/c 1'
_atom_sites_solution_hydrogens   difmap
_atom_sites_solution_primary     iterative
_atom_sites_solution_secondary   difmap
_audit_creation_method           SHELXL-2014/7
_audit_update_record
;
2017-05-09 deposited with the CCDC.
2017-06-26 downloaded from the CCDC.
;
_cell_angle_alpha                90
_cell_angle_beta                 99.762(3)
_cell_angle_gamma                90
_cell_formula_units_Z            4
_cell_length_a                   11.1415(11)
_cell_length_b                   12.3048(12)
_cell_length_c                   7.4382(7)
_cell_measurement_reflns_used    2924
_cell_measurement_temperature    100(2)
_cell_measurement_theta_max      26.41
_cell_measurement_theta_min      3.31
_cell_volume                     1004.97(17)
_computing_cell_refinement       'Saint+ ver. V8.34A (Bruker AXS)'
_computing_data_collection       'APEX2 ver. 2014.9 (Bruker AXS)'
_computing_data_reduction        'Saint+ ver. V8.34A (Bruker AXS)'
_computing_molecular_graphics    'ShelXLe (Huebschle et all, 2011)'
_computing_publication_material  'SHELXL-2014/7 (Sheldrick, 2014)'
_computing_structure_refinement  'SHELXL-2014/7 (Sheldrick, 2014)'
_computing_structure_solution    'SHELXT (Sheldrick, 2014)'
_diffrn_ambient_temperature      100(2)
_diffrn_detector                 'CCD area detector (Apex2)'
_diffrn_measured_fraction_theta_full 1.000
_diffrn_measured_fraction_theta_max 0.996
_diffrn_measurement_device_type  'Bruker X8-APEX II'
_diffrn_measurement_method       '\f and \w scans'
_diffrn_radiation_monochromator  graphite
_diffrn_radiation_type           MoK\a
_diffrn_radiation_wavelength     0.71073
_diffrn_reflns_av_R_equivalents  0.0481
_diffrn_reflns_av_unetI/netI     0.0400
_diffrn_reflns_Laue_measured_fraction_full 1.000
_diffrn_reflns_Laue_measured_fraction_max 0.996
_diffrn_reflns_limit_h_max       14
_diffrn_reflns_limit_h_min       -12
_diffrn_reflns_limit_k_max       15
_diffrn_reflns_limit_k_min       -15
_diffrn_reflns_limit_l_max       9
_diffrn_reflns_limit_l_min       -9
_diffrn_reflns_number            9084
_diffrn_reflns_point_group_measured_fraction_full 1.000
_diffrn_reflns_point_group_measured_fraction_max 0.996
_diffrn_reflns_theta_full        26.000
_diffrn_reflns_theta_max         26.811
_diffrn_reflns_theta_min         1.855
_diffrn_source                   'rotating-anode (Nonius FR-591)'
_exptl_absorpt_coefficient_mu    0.527
_exptl_absorpt_correction_T_max  0.7454
_exptl_absorpt_correction_T_min  0.6667
_exptl_absorpt_correction_type   multi-scan
_exptl_absorpt_process_details   'SadAbs 2014/5 (Bruker AXS)'
_exptl_crystal_colour            colourless
_exptl_crystal_density_diffrn    1.593
_exptl_crystal_description       block
_exptl_crystal_F_000             480
_exptl_crystal_size_max          0.450
_exptl_crystal_size_mid          0.200
_exptl_crystal_size_min          0.200
_refine_diff_density_max         0.374
_refine_diff_density_min         -0.355
_refine_diff_density_rms         0.064
_refine_ls_extinction_method     none
_refine_ls_goodness_of_fit_ref   1.055
_refine_ls_hydrogen_treatment    refall
_refine_ls_matrix_type           full
_refine_ls_number_parameters     157
_refine_ls_number_reflns         2139
_refine_ls_number_restraints     0
_refine_ls_restrained_S_all      1.055
_refine_ls_R_factor_all          0.0414
_refine_ls_R_factor_gt           0.0317
_refine_ls_shift/su_max          0.001
_refine_ls_shift/su_mean         0.000
_refine_ls_structure_factor_coef Fsqd
_refine_ls_weighting_details
'w=1/[\s^2^(Fo^2^)+(0.0411P)^2^+0.2526P] where P=(Fo^2^+2Fc^2^)/3'
_refine_ls_weighting_scheme      calc
_refine_ls_wR_factor_gt          0.0780
_refine_ls_wR_factor_ref         0.0835
_reflns_Friedel_coverage         0.000
_reflns_number_gt                1779
_reflns_number_total             2139
_reflns_threshold_expression     'I > 2\s(I)'
_cod_data_source_file            c7sc02249b2.cif
_cod_data_source_block           JL084_JL_KB3d
_cod_database_code               1546392
_shelx_shelxl_version_number     2014/7
_shelx_space_group_comment
;
The symmetry employed for this shelxl refinement is uniquely defined
by the following loop, which should always be used as a source of
symmetry information in preference to the above space-group names.
They are only intended as comments.
;
_shelx_estimated_absorpt_t_min   0.797
_shelx_estimated_absorpt_t_max   0.902
_shelx_res_file
;

    fertig_a.res created by SHELXL-2014/7


TITL fertig_a.res in P2(1)/c
REM Old TITL fertig in P2(1)/c
REM SHELXT solution in P2(1)/c
REM R1 0.075,  Rweak 0.003,  Alpha 0.021,  Orientation as input
REM Formula found by SHELXT:  C9 B N3 F2 K
CELL  0.71073  11.1415  12.3048   7.4382   90.000   99.762   90.000
ZERR    4.000   0.0011   0.0012   0.0007    0.000    0.003    0.000
LATT  1
SYMM -X, 1/2+Y, 1/2-Z
SFAC C H B N F K
UNIT 36 12 4 12 8 4
TEMP -100
SIZE 0.2 0.2 0.45
L.S. 10
BOND $H
ACTA 52
LIST 4
FMAP 2
PLAN 20
WGHT    0.041100    0.252600
FVAR       0.64058
K1    6    1.130682    0.654580    0.032358    11.00000    0.01593    0.00933 =
         0.01287    0.00038    0.00312   -0.00003
B1    3    0.812787    0.577773    0.467156    11.00000    0.01282    0.00740 =
         0.01241   -0.00070    0.00109   -0.00015
H1    2    0.778838    0.794341    0.506521    11.00000    0.01176
F1    5    0.610748    0.934877    0.462133    11.00000    0.03019    0.00903 =
         0.03522    0.00149    0.00811    0.00791
N1    4    0.900890    0.559103    0.833276    11.00000    0.01860    0.00814 =
         0.01714    0.00011   -0.00054    0.00229
C1    1    0.864332    0.565715    0.680388    11.00000    0.01054    0.00419 =
         0.01879   -0.00032    0.00268    0.00058
N2    4    0.989672    0.680197    0.311820    11.00000    0.01480    0.01027 =
         0.01841   -0.00127    0.00380    0.00108
H2    2    0.410575    0.829978    0.355861    11.00000    0.03325
F2    5    0.361463    0.631582    0.290771    11.00000    0.00891    0.03461 =
         0.03995   -0.00266   -0.00280    0.00061
C2    1    0.916339    0.637276    0.376564    11.00000    0.01230    0.00819 =
         0.01124   -0.00247   -0.00187    0.00480
N3    4    0.791571    0.372883    0.317988    11.00000    0.01348    0.01265 =
         0.01795   -0.00122    0.00113    0.00077
H3    2    0.560151    0.532066    0.347175    11.00000    0.02185
C3    1    0.797323    0.458437    0.380482    11.00000    0.00720    0.01246 =
         0.01275    0.00224    0.00051    0.00139
C4    1    0.689590    0.649615    0.434262    11.00000    0.01236    0.01096 =
         0.00741    0.00129    0.00243    0.00188
C5    1    0.700541    0.761647    0.464909    11.00000    0.01521    0.01102 =
         0.01101    0.00112    0.00105    0.00104
C6    1    0.598147    0.825839    0.434754    11.00000    0.02235    0.00988 =
         0.01563    0.00134    0.00612    0.00558
C8    1    0.474901    0.674626    0.349794    11.00000    0.00995    0.02620 =
         0.01644    0.00062   -0.00042   -0.00031
C7    1    0.482846    0.785403    0.377229    11.00000    0.01674    0.02181 =
         0.01854    0.00425    0.00362    0.00945
C9    1    0.573783    0.605475    0.376508    11.00000    0.01408    0.01485 =
         0.01276   -0.00044    0.00185   -0.00049
HKLF 4

REM  fertig_a.res in P2(1)/c
REM R1 =  0.0317 for    1779 Fo > 4sig(Fo)  and  0.0414 for all    2139 data
REM    157 parameters refined using      0 restraints

END

WGHT      0.0420      0.2522

REM Highest difference peak  0.374,  deepest hole -0.355,  1-sigma level  0.064
Q1    1   0.7460  0.6024  0.4371  11.00000  0.05    0.37
Q2    1   0.8348  0.5801  0.5757  11.00000  0.05    0.32
Q3    1   0.6476  0.7883  0.4089  11.00000  0.05    0.26
Q4    1   0.6329  0.6337  0.3821  11.00000  0.05    0.25
Q5    1   0.6849  0.7098  0.4657  11.00000  0.05    0.25
Q6    1   1.2103  0.6592  0.1294  11.00000  0.05    0.24
Q7    1   0.5263  0.6426  0.3121  11.00000  0.05    0.23
Q8    1   0.8478  0.6068  0.4067  11.00000  0.05    0.22
Q9    1   1.1180  0.6530  0.1695  11.00000  0.05    0.22
Q10   1   0.5461  0.8148  0.3494  11.00000  0.05    0.22
Q11   1   0.5426  0.7973  0.4588  11.00000  0.05    0.21
Q12   1   1.0833  0.6882  0.3085  11.00000  0.05    0.19
Q13   1   0.4392  0.6601  0.3385  11.00000  0.05    0.19
Q14   1   0.8380  0.5577  0.7272  11.00000  0.05    0.18
Q15   1   1.1159  0.6458 -0.1157  11.00000  0.05    0.18
Q16   1   0.8340  0.3422  0.2344  11.00000  0.05    0.18
Q17   1   0.9273  0.5513  0.7193  11.00000  0.05    0.18
Q18   1   0.4882  0.7901  0.2732  11.00000  0.05    0.18
Q19   1   1.0563  0.6474 -0.0851  11.00000  0.05    0.18
Q20   1   0.2823  0.6590  0.2620  11.00000  0.05    0.17
;
_shelx_res_checksum              31308
loop_
_space_group_symop_operation_xyz
'x, y, z'
'-x, y+1/2, -z+1/2'
'-x, -y, -z'
'x, -y-1/2, z-1/2'
loop_
_atom_site_label
_atom_site_type_symbol
_atom_site_fract_x
_atom_site_fract_y
_atom_site_fract_z
_atom_site_U_iso_or_equiv
_atom_site_adp_type
_atom_site_occupancy
_atom_site_site_symmetry_order
_atom_site_calc_flag
K1 K 1.13068(3) 0.65458(3) 0.03236(5) 0.01263(12) Uani 1 1 d
B1 B 0.81279(17) 0.57777(15) 0.4672(3) 0.0110(4) Uani 1 1 d
H1 H 0.7788(17) 0.7943(15) 0.507(3) 0.012(5) Uiso 1 1 d
F1 F 0.61075(10) 0.93488(8) 0.46213(16) 0.0245(3) Uani 1 1 d
N1 N 0.90089(13) 0.55910(11) 0.8333(2) 0.0150(3) Uani 1 1 d
C1 C 0.86433(14) 0.56572(13) 0.6804(2) 0.0111(4) Uani 1 1 d
N2 N 0.98967(13) 0.68020(12) 0.3118(2) 0.0144(3) Uani 1 1 d
H2 H 0.411(2) 0.8300(18) 0.356(3) 0.033(6) Uiso 1 1 d
F2 F 0.36146(9) 0.63158(10) 0.29077(17) 0.0286(3) Uani 1 1 d
C2 C 0.91634(14) 0.63728(13) 0.3766(2) 0.0110(3) Uani 1 1 d
N3 N 0.79157(13) 0.37288(12) 0.3180(2) 0.0149(3) Uani 1 1 d
H3 H 0.5602(18) 0.5321(17) 0.347(3) 0.022(5) Uiso 1 1 d
C3 C 0.79732(14) 0.45844(13) 0.3805(2) 0.0109(4) Uani 1 1 d
C4 C 0.68959(14) 0.64961(13) 0.4343(2) 0.0102(3) Uani 1 1 d
C5 C 0.70054(15) 0.76165(14) 0.4649(2) 0.0126(4) Uani 1 1 d
C6 C 0.59815(16) 0.82584(14) 0.4348(3) 0.0156(4) Uani 1 1 d
C8 C 0.47490(15) 0.67463(16) 0.3498(3) 0.0178(4) Uani 1 1 d
C7 C 0.48285(16) 0.78540(16) 0.3772(3) 0.0190(4) Uani 1 1 d
C9 C 0.57378(15) 0.60547(15) 0.3765(2) 0.0139(4) Uani 1 1 d
loop_
_atom_site_aniso_label
_atom_site_aniso_U_11
_atom_site_aniso_U_22
_atom_site_aniso_U_33
_atom_site_aniso_U_23
_atom_site_aniso_U_13
_atom_site_aniso_U_12
K1 0.0159(2) 0.0093(2) 0.0129(2) 0.00038(15) 0.00312(14) -0.00003(13)
B1 0.0128(9) 0.0074(9) 0.0124(10) -0.0007(8) 0.0011(7) -0.0001(7)
F1 0.0302(6) 0.0090(5) 0.0352(7) 0.0015(5) 0.0081(5) 0.0079(4)
N1 0.0186(7) 0.0081(7) 0.0171(9) 0.0001(6) -0.0005(6) 0.0023(6)
C1 0.0105(7) 0.0042(8) 0.0188(10) -0.0003(7) 0.0027(7) 0.0006(6)
N2 0.0148(7) 0.0103(7) 0.0184(8) -0.0013(6) 0.0038(6) 0.0011(6)
F2 0.0089(5) 0.0346(7) 0.0400(8) -0.0027(6) -0.0028(5) 0.0006(4)
C2 0.0123(8) 0.0082(8) 0.0112(8) -0.0025(7) -0.0019(6) 0.0048(6)
N3 0.0135(7) 0.0126(8) 0.0179(8) -0.0012(7) 0.0011(6) 0.0008(6)
C3 0.0072(7) 0.0125(8) 0.0127(9) 0.0022(7) 0.0005(6) 0.0014(6)
C4 0.0124(8) 0.0110(8) 0.0074(8) 0.0013(7) 0.0024(6) 0.0019(6)
C5 0.0152(8) 0.0110(8) 0.0110(9) 0.0011(7) 0.0011(7) 0.0010(6)
C6 0.0223(9) 0.0099(8) 0.0156(9) 0.0013(7) 0.0061(7) 0.0056(7)
C8 0.0100(8) 0.0262(10) 0.0164(10) 0.0006(8) -0.0004(7) -0.0003(7)
C7 0.0167(9) 0.0218(10) 0.0185(10) 0.0042(8) 0.0036(7) 0.0095(7)
C9 0.0141(8) 0.0148(9) 0.0128(9) -0.0004(8) 0.0018(7) -0.0005(7)
loop_
_atom_type_symbol
_atom_type_description
_atom_type_scat_dispersion_real
_atom_type_scat_dispersion_imag
_atom_type_scat_source
C C 0.0033 0.0016 'International Tables Vol C Tables 4.2.6.8 and 6.1.1.4'
H H 0.0000 0.0000 'International Tables Vol C Tables 4.2.6.8 and 6.1.1.4'
B B 0.0013 0.0007 'International Tables Vol C Tables 4.2.6.8 and 6.1.1.4'
N N 0.0061 0.0033 'International Tables Vol C Tables 4.2.6.8 and 6.1.1.4'
F F 0.0171 0.0103 'International Tables Vol C Tables 4.2.6.8 and 6.1.1.4'
K K 0.2009 0.2494 'International Tables Vol C Tables 4.2.6.8 and 6.1.1.4'
loop_
_geom_angle_atom_site_label_1
_geom_angle_atom_site_label_2
_geom_angle_atom_site_label_3
_geom_angle
_geom_angle_site_symmetry_1
_geom_angle_site_symmetry_3
N2 K1 N1 74.25(4) . 3_766
N2 K1 N2 91.28(4) . 4_575
N1 K1 N2 139.11(4) 3_766 4_575
N2 K1 N3 163.90(4) . 3_765
N1 K1 N3 106.28(4) 3_766 3_765
N2 K1 N3 77.84(4) 4_575 3_765
N2 K1 F2 93.62(4) . 1_655
N1 K1 F2 80.17(4) 3_766 1_655
N2 K1 F2 139.80(4) 4_575 1_655
N3 K1 F2 102.35(4) 3_765 1_655
N2 K1 N1 82.61(4) . 1_554
N1 K1 N1 70.35(5) 3_766 1_554
N2 K1 N1 69.96(4) 4_575 1_554
N3 K1 N1 82.51(4) 3_765 1_554
F2 K1 N1 150.22(4) 1_655 1_554
N2 K1 N3 77.73(4) . 2_755
N1 K1 N3 138.12(5) 3_766 2_755
N2 K1 N3 71.02(4) 4_575 2_755
N3 K1 N3 109.17(4) 3_765 2_755
F2 K1 N3 71.16(4) 1_655 2_755
N1 K1 N3 135.52(4) 1_554 2_755
N2 K1 C1 65.45(4) . 3_766
N1 K1 C1 17.97(4) 3_766 3_766
N2 K1 C1 148.42(4) 4_575 3_766
N3 K1 C1 119.30(4) 3_765 3_766
F2 K1 C1 66.43(4) 1_655 3_766
N1 K1 C1 85.41(4) 1_554 3_766
N3 K1 C1 120.29(4) 2_755 3_766
N2 K1 K1 40.47(3) . 4_576
N1 K1 K1 100.25(3) 3_766 4_576
N2 K1 K1 91.51(3) 4_575 4_576
N3 K1 K1 149.80(3) 3_765 4_576
F2 K1 K1 68.00(2) 1_655 4_576
N1 K1 K1 120.57(3) 1_554 4_576
N3 K1 K1 40.93(3) 2_755 4_576
C1 K1 K1 84.15(3) 3_766 4_576
N2 K1 K1 129.92(3) . 4_575
N1 K1 K1 143.62(3) 3_766 4_575
N2 K1 K1 39.24(3) 4_575 4_575
N3 K1 K1 42.27(3) 3_765 4_575
F2 K1 K1 118.49(2) 1_655 4_575
N1 K1 K1 85.03(3) 1_554 4_575
N3 K1 K1 78.05(3) 2_755 4_575
C1 K1 K1 160.37(3) 3_766 4_575
K1 K1 K1 115.463(17) 4_576 4_575
N2 K1 K1 75.94(3) . 3_765
N1 K1 K1 35.99(3) 3_766 3_765
N2 K1 K1 103.84(3) 4_575 3_765
N3 K1 K1 94.97(3) 3_765 3_765
F2 K1 K1 116.06(3) 1_655 3_765
N1 K1 K1 34.36(3) 1_554 3_765
N3 K1 K1 153.05(3) 2_755 3_765
C1 K1 K1 51.69(3) 3_766 3_765
K1 K1 K1 115.088(10) 4_576 3_765
K1 K1 K1 115.367(10) 4_575 3_765
C1 B1 C3 108.07(14) . .
C1 B1 C2 107.18(13) . .
C3 B1 C2 106.54(14) . .
C1 B1 C4 110.72(14) . .
C3 B1 C4 114.21(14) . .
C2 B1 C4 109.81(14) . .
C1 N1 K1 111.66(12) . 3_766
C1 N1 K1 126.75(12) . 1_556
K1 N1 K1 109.65(5) 3_766 1_556
N1 C1 B1 178.74(17) . .
N1 C1 K1 50.37(10) . 3_766
B1 C1 K1 130.77(10) . 3_766
C2 N2 K1 141.49(13) . .
C2 N2 K1 116.22(13) . 4_576
K1 N2 K1 100.29(5) . 4_576
C8 F2 K1 145.58(11) . 1_455
N2 C2 B1 179.59(17) . .
C3 N3 K1 117.75(12) . 3_765
C3 N3 K1 133.05(13) . 2_745
K1 N3 K1 96.80(4) 3_765 2_745
N3 C3 B1 177.01(16) . .
C9 C4 C5 118.88(15) . .
C9 C4 B1 123.35(15) . .
C5 C4 B1 117.77(15) . .
C6 C5 C4 119.51(16) . .
C6 C5 H1 119.6(11) . .
C4 C5 H1 120.9(11) . .
F1 C6 C5 118.72(16) . .
F1 C6 C7 118.04(15) . .
C5 C6 C7 123.24(17) . .
F2 C8 C7 117.48(16) . .
F2 C8 C9 118.54(16) . .
C7 C8 C9 123.97(17) . .
C6 C7 C8 115.88(16) . .
C6 C7 H2 123.7(13) . .
C8 C7 H2 120.4(13) . .
C8 C9 C4 118.51(17) . .
C8 C9 H3 117.9(12) . .
C4 C9 H3 123.5(12) . .
loop_
_geom_bond_atom_site_label_1
_geom_bond_atom_site_label_2
_geom_bond_distance
_geom_bond_site_symmetry_2
K1 N2 2.8277(15) .
K1 N1 2.8557(15) 3_766
K1 N2 2.9014(15) 4_575
K1 N3 2.9019(16) 3_765
K1 F2 2.9513(12) 1_655
K1 N1 2.9736(15) 1_554
K1 N3 2.9796(15) 2_755
K1 C1 3.4461(17) 3_766
K1 K1 4.3984(5) 4_576
K1 K1 4.3984(5) 4_575
K1 K1 4.7653(8) 3_765
B1 C1 1.600(3) .
B1 C3 1.601(2) .
B1 C2 1.608(3) .
B1 C4 1.616(2) .
F1 C6 1.3607(19) .
N1 C1 1.144(2) .
N1 K1 2.8557(15) 3_766
N1 K1 2.9736(15) 1_556
C1 K1 3.4461(17) 3_766
N2 C2 1.145(2) .
N2 K1 2.9015(15) 4_576
F2 C8 1.372(2) .
F2 K1 2.9513(11) 1_455
N3 C3 1.148(2) .
N3 K1 2.9019(16) 3_765
N3 K1 2.9796(15) 2_745
C4 C9 1.399(2) .
C4 C5 1.399(2) .
C5 C6 1.374(2) .
C5 H1 0.963(18) .
C6 C7 1.376(3) .
C8 C7 1.379(3) .
C8 C9 1.379(2) .
C7 H2 0.96(2) .
C9 H3 0.94(2) .
