#------------------------------------------------------------------------------
#$Date: 2017-06-06 09:20:00 +0300 (Tue, 06 Jun 2017) $
#$Revision: 197562 $
#$URL: file:///home/coder/svn-repositories/cod/cif/1/54/62/1546268.cif $
#------------------------------------------------------------------------------
#
# This file is available in the Crystallography Open Database (COD),
# http://www.crystallography.net/. The original data for this entry
# were provided by IUCr Journals, http://journals.iucr.org/.
#
# The file may be used within the scientific community so long as
# proper attribution is given to the journal article from which the
# data were obtained.
#
data_1546268
loop_
_publ_author_name
'Rajput, Lalit'
'Banik, Manas'
'Yarava, Jayasubba Reddy'
'Joseph, Sumy'
'Pandey, Manoj Kumar'
'Nishiyama, Yusuke'
'Desiraju, Gautam R.'
_publ_section_title
;
 Exploring the salt--cocrystal continuum with solid-state NMR using
 natural-abundance samples: implications for crystal engineering
;
_journal_issue                   4
_journal_name_full               IUCrJ
_journal_page_first
;
;
_journal_paper_doi               10.1107/S205225251700687X
_journal_volume                  4
_journal_year                    2017
_chemical_formula_moiety         'C6 Cl5 O, C6 H8 N'
_chemical_formula_sum            'C12 H8 Cl5 N O'
_chemical_formula_weight         359.44
_chemical_melting_point          77(2)
_chemical_name_common            '4-Methylpyridinium Pentachlorophenolate'
_chemical_name_systematic
;
 ?
;
_space_group_IT_number           2
_symmetry_cell_setting           triclinic
_symmetry_space_group_name_Hall  '-P 1'
_symmetry_space_group_name_H-M   'P -1'
_atom_sites_solution_hydrogens   geom
_atom_sites_solution_primary     direct
_atom_sites_solution_secondary   difmap
_audit_creation_method           SHELXL-97
_cell_angle_alpha                69.82(3)
_cell_angle_beta                 85.61(4)
_cell_angle_gamma                76.26(4)
_cell_formula_units_Z            2
_cell_length_a                   7.389(8)
_cell_length_b                   8.922(8)
_cell_length_c                   12.014(12)
_cell_measurement_reflns_used    1777
_cell_measurement_temperature    298
_cell_measurement_theta_max      32.9
_cell_measurement_theta_min      2.5
_cell_volume                     722.1(13)
_computing_structure_refinement  'SHELXL-97 (Sheldrick, 2008)'
_diffrn_ambient_temperature      298
_diffrn_measured_fraction_theta_full 0.995
_diffrn_measured_fraction_theta_max 0.995
_diffrn_measurement_device_type  Rigaku
_diffrn_measurement_method       'profile data from \w-scans'
_diffrn_radiation_monochromator  graphite
_diffrn_radiation_source         'fine-focus sealed tube'
_diffrn_radiation_type           MoK\a
_diffrn_radiation_wavelength     0.71073
_diffrn_reflns_av_R_equivalents  0.0633
_diffrn_reflns_av_sigmaI/netI    0.0567
_diffrn_reflns_limit_h_max       9
_diffrn_reflns_limit_h_min       -9
_diffrn_reflns_limit_k_max       11
_diffrn_reflns_limit_k_min       -11
_diffrn_reflns_limit_l_max       14
_diffrn_reflns_limit_l_min       -14
_diffrn_reflns_number            6793
_diffrn_reflns_theta_full        25.99
_diffrn_reflns_theta_max         25.99
_diffrn_reflns_theta_min         1.81
_exptl_absorpt_coefficient_mu    0.993
_exptl_absorpt_correction_T_max  1.000
_exptl_absorpt_correction_T_min  0.723
_exptl_absorpt_correction_type   multi-scan
_exptl_absorpt_process_details   SADABS
_exptl_crystal_colour            colorless
_exptl_crystal_density_diffrn    1.653
_exptl_crystal_density_method    'not measured'
_exptl_crystal_description       needle
_exptl_crystal_F_000             360
_exptl_crystal_size_max          0.25
_exptl_crystal_size_mid          0.16
_exptl_crystal_size_min          0.14
_refine_diff_density_max         0.524
_refine_diff_density_min         -0.599
_refine_diff_density_rms         0.149
_refine_ls_extinction_method     none
_refine_ls_goodness_of_fit_ref   1.155
_refine_ls_hydrogen_treatment    mixed
_refine_ls_matrix_type           full
_refine_ls_number_parameters     192
_refine_ls_number_reflns         2815
_refine_ls_number_restraints     0
_refine_ls_restrained_S_all      1.155
_refine_ls_R_factor_all          0.0726
_refine_ls_R_factor_gt           0.0505
_refine_ls_shift/su_max          0.039
_refine_ls_shift/su_mean         0.003
_refine_ls_structure_factor_coef Fsqd
_refine_ls_weighting_details
'calc w=1/[\s^2^(Fo^2^)+(0.1071P)^2^+0.0000P] where P=(Fo^2^+2Fc^2^)/3'
_refine_ls_weighting_scheme      calc
_refine_ls_wR_factor_gt          0.1613
_refine_ls_wR_factor_ref         0.1943
_reflns_number_gt                2152
_reflns_number_total             2815
_reflns_threshold_expression     >2\s(I)
_iucr_refine_instructions_details
;

TITL data in P-1
CELL  0.71073   7.3888   8.9218  12.0139   69.817   85.609   76.260
ZERR     2.00   0.0077   0.0078   0.0123    0.028    0.035    0.037
LATT   1
SFAC  C    H    N    O    CL
UNIT  24   16   2    2    10
MERG   2
OMIT  -2.00 52.00
FMAP   2
PLAN   10
ACTA
BOND
WGHT     0.10710
L.S.   10
FVAR     0.48211
H10   2    0.932610    0.010114    0.681728    11.00000    0.04927
H7    2    0.818200    0.402573    0.339467    11.00000    0.05204
H11   2    0.680611    0.044241    0.570376    11.00000    0.05593
H8    2    1.064911    0.377563    0.438389    11.00000    0.07176
H1N   2    0.631800    0.221300    0.409800    11.00000    0.05000
MOLE    1
CL1   5    0.420599    0.078765    0.144215    11.00000    0.07087    0.04105 =
        0.06130   -0.02117   -0.00660   -0.01640
CL2   5    0.254223    0.336978   -0.094047    11.00000    0.05935    0.06857 =
        0.04525   -0.02614   -0.00143   -0.02166
CL5   5    0.373488    0.554655    0.329070    11.00000    0.06480    0.06067 =
        0.05652   -0.03491    0.00356   -0.01860
CL4   5    0.197113    0.815612    0.092055    11.00000    0.07081    0.04053 =
        0.08521   -0.02404   -0.00224   -0.01104
CL3   5    0.143103    0.708921   -0.121385    11.00000    0.05650    0.05946 =
        0.05118   -0.00141   -0.00751   -0.01275
C1    1    0.390061    0.327996    0.227168    11.00000    0.03780    0.04371 =
        0.04493   -0.01745    0.00312   -0.01685
C3    1    0.285242    0.398850    0.022972    11.00000    0.03385    0.05040 =
        0.04196   -0.01854    0.00441   -0.01909
C6    1    0.338008    0.495310    0.211277    11.00000    0.03840    0.04628 =
        0.04760   -0.02224    0.00573   -0.01569
O1    4    0.459198    0.213346    0.327003    11.00000    0.06407    0.04377 =
        0.04559   -0.00809   -0.00657   -0.02106
C4    1    0.234715    0.564336    0.010048    11.00000    0.03503    0.04319 =
        0.04336   -0.00889    0.00202   -0.01256
C5    1    0.261084    0.613101    0.106090    11.00000    0.03766    0.04064 =
        0.05233   -0.01736    0.00667   -0.01380
C2    1    0.360746    0.282899    0.129169    11.00000    0.03761    0.03800 =
        0.04518   -0.01661    0.00132   -0.01366
MOLE    2
N1    3    0.722713    0.223273    0.446698    11.00000    0.05292    0.05132 =
        0.04476   -0.01628   -0.00336   -0.01706
C10   1    0.910847    0.087748    0.619698    11.00000    0.05432    0.04480 =
        0.04280   -0.00947   -0.00463   -0.00307
C9    1    1.032302    0.189414    0.577984    11.00000    0.04084    0.05754 =
        0.05890   -0.03162   -0.00480   -0.00061
C8    1    0.994323    0.308605    0.467834    11.00000    0.05103    0.05992 =
        0.06690   -0.02523    0.01079   -0.02701
C7    1    0.839582    0.322349    0.406300    11.00000    0.07260    0.04992 =
        0.03977   -0.00938   -0.00066   -0.02005
C11   1    0.759476    0.105926    0.552127    11.00000    0.05145    0.04445 =
        0.05054   -0.01516   -0.00158   -0.01132
C12   1    1.198315    0.172253    0.650467    11.00000    0.05920    0.10466 =
        0.10997   -0.05286   -0.02629   -0.01119
AFIX   33
H12A  2    1.266611    0.253471    0.607551    11.00000   -1.50000
H12B  2    1.277449    0.064935    0.665718    11.00000   -1.50000
H12C  2    1.156694    0.187415    0.724330    11.00000   -1.50000
AFIX    0
HKLF 4
END
;
_cod_data_source_file            lq5005.cif
_cod_data_source_block           CNT-1-RT
_cod_depositor_comments
;
The following automatic conversions were performed:

'_chemical_melting_point' value '75-79' was changed to '77(2)' - the
average value was taken and precision was estimated.

'_exptl_absorpt_correction_type' value 'Multi-scan' changed to
'multi-scan' according to
/home/data/users/saulius/crontab/automatic-downloads/rss-feeds/IUCr/lib/dictionaries/cif_core.dic
dictionary named 'cif_core.dic' version 2.4.2 from 2011-04-26.

Automatic conversion script
Id: cif_fix_values 4973 2017-02-22 13:04:09Z antanas 
;
_cod_original_cell_volume        722.1(12)
_cod_original_sg_symbol_H-M      P-1
_cod_database_code               1546268
loop_
_symmetry_equiv_pos_as_xyz
'x, y, z'
'-x, -y, -z'
loop_
_atom_site_label
_atom_site_type_symbol
_atom_site_fract_x
_atom_site_fract_y
_atom_site_fract_z
_atom_site_U_iso_or_equiv
_atom_site_adp_type
_atom_site_occupancy
_atom_site_symmetry_multiplicity
_atom_site_calc_flag
_atom_site_refinement_flags
H10 H 0.930(6) 0.010(5) 0.684(4) 0.054(13) Uiso 1 1 d .
H7 H 0.815(5) 0.398(5) 0.344(4) 0.046(11) Uiso 1 1 d .
H11 H 0.684(5) 0.047(5) 0.574(4) 0.047(12) Uiso 1 1 d .
H8 H 1.068(7) 0.389(6) 0.436(5) 0.080(15) Uiso 1 1 d .
H1N H 0.643(13) 0.179(11) 0.411(8) 0.19(4) Uiso 1 1 d .
Cl1 Cl 0.42078(16) 0.07870(12) 0.14420(10) 0.0545(3) Uani 1 1 d .
Cl2 Cl 0.25422(14) 0.33695(14) -0.09403(9) 0.0533(3) Uani 1 1 d .
Cl5 Cl 0.37352(15) 0.55455(14) 0.32908(9) 0.0549(3) Uani 1 1 d .
Cl4 Cl 0.19713(17) 0.81558(13) 0.09201(12) 0.0637(4) Uani 1 1 d .
Cl3 Cl 0.14316(15) 0.70894(14) -0.12139(10) 0.0588(4) Uani 1 1 d .
C1 C 0.3905(5) 0.3280(5) 0.2269(3) 0.0388(8) Uani 1 1 d .
C3 C 0.2856(5) 0.3987(5) 0.0228(3) 0.0390(8) Uani 1 1 d .
C6 C 0.3381(5) 0.4953(5) 0.2113(3) 0.0395(8) Uani 1 1 d .
O1 O 0.4596(4) 0.2132(3) 0.3269(2) 0.0498(7) Uani 1 1 d .
C4 C 0.2345(5) 0.5642(5) 0.0099(3) 0.0399(8) Uani 1 1 d .
C5 C 0.2613(5) 0.6128(5) 0.1062(3) 0.0412(9) Uani 1 1 d .
C2 C 0.3611(5) 0.2826(4) 0.1290(3) 0.0378(8) Uani 1 1 d .
N1 N 0.7232(5) 0.2236(4) 0.4472(3) 0.0483(8) Uani 1 1 d .
C10 C 0.9108(6) 0.0877(5) 0.6198(4) 0.0483(10) Uani 1 1 d .
C9 C 1.0322(5) 0.1896(5) 0.5784(4) 0.0493(10) Uani 1 1 d .
C8 C 0.9945(6) 0.3087(6) 0.4680(4) 0.0543(11) Uani 1 1 d .
C7 C 0.8402(6) 0.3221(6) 0.4066(4) 0.0535(11) Uani 1 1 d .
C11 C 0.7595(6) 0.1061(5) 0.5523(4) 0.0480(10) Uani 1 1 d .
C12 C 1.1992(7) 0.1723(8) 0.6500(6) 0.0852(17) Uani 1 1 d .
H12A H 1.2671 0.2537 0.6067 0.128 Uiso 1 1 calc R
H12B H 1.2784 0.0651 0.6647 0.128 Uiso 1 1 calc R
H12C H 1.1588 0.1870 0.7241 0.128 Uiso 1 1 calc R
loop_
_atom_site_aniso_label
_atom_site_aniso_U_11
_atom_site_aniso_U_22
_atom_site_aniso_U_33
_atom_site_aniso_U_23
_atom_site_aniso_U_13
_atom_site_aniso_U_12
Cl1 0.0698(7) 0.0401(6) 0.0601(7) -0.0210(5) -0.0071(5) -0.0160(5)
Cl2 0.0581(6) 0.0679(7) 0.0440(6) -0.0259(5) -0.0019(4) -0.0219(5)
Cl5 0.0637(7) 0.0598(7) 0.0555(6) -0.0346(5) 0.0035(5) -0.0187(5)
Cl4 0.0694(7) 0.0400(6) 0.0838(8) -0.0238(5) -0.0024(6) -0.0108(5)
Cl3 0.0552(6) 0.0587(7) 0.0503(6) -0.0014(5) -0.0078(5) -0.0127(5)
C1 0.0359(17) 0.044(2) 0.043(2) -0.0178(17) 0.0023(15) -0.0169(16)
C3 0.0328(17) 0.050(2) 0.0411(19) -0.0179(17) 0.0054(15) -0.0198(16)
C6 0.0362(17) 0.047(2) 0.044(2) -0.0232(17) 0.0044(16) -0.0163(16)
O1 0.0622(16) 0.0434(15) 0.0445(15) -0.0080(12) -0.0075(13) -0.0212(13)
C4 0.0325(17) 0.043(2) 0.041(2) -0.0084(16) 0.0008(15) -0.0120(15)
C5 0.0351(17) 0.039(2) 0.053(2) -0.0177(17) 0.0072(16) -0.0139(15)
C2 0.0366(17) 0.0376(19) 0.045(2) -0.0169(16) 0.0020(15) -0.0144(15)
N1 0.0536(19) 0.050(2) 0.0451(18) -0.0170(16) -0.0050(15) -0.0168(16)
C10 0.053(2) 0.044(2) 0.042(2) -0.0113(18) -0.0054(19) -0.0029(19)
C9 0.0400(19) 0.056(2) 0.058(2) -0.032(2) -0.0058(18) -0.0003(18)
C8 0.051(2) 0.058(3) 0.064(3) -0.026(2) 0.008(2) -0.025(2)
C7 0.070(3) 0.050(2) 0.038(2) -0.0072(19) 0.000(2) -0.020(2)
C11 0.050(2) 0.043(2) 0.049(2) -0.0131(18) 0.0005(19) -0.0110(19)
C12 0.057(3) 0.102(5) 0.108(4) -0.050(4) -0.028(3) -0.011(3)
loop_
_atom_type_symbol
_atom_type_description
_atom_type_scat_dispersion_real
_atom_type_scat_dispersion_imag
_atom_type_scat_source
C C 0.0033 0.0016 'International Tables Vol C Tables 4.2.6.8 and 6.1.1.4'
H H 0.0000 0.0000 'International Tables Vol C Tables 4.2.6.8 and 6.1.1.4'
N N 0.0061 0.0033 'International Tables Vol C Tables 4.2.6.8 and 6.1.1.4'
O O 0.0106 0.0060 'International Tables Vol C Tables 4.2.6.8 and 6.1.1.4'
Cl Cl 0.1484 0.1585 'International Tables Vol C Tables 4.2.6.8 and 6.1.1.4'
loop_
_geom_angle_atom_site_label_1
_geom_angle_atom_site_label_2
_geom_angle_atom_site_label_3
_geom_angle
O1 C1 C6 124.0(3)
O1 C1 C2 119.5(3)
C6 C1 C2 116.4(3)
C4 C3 C2 120.7(3)
C4 C3 Cl2 119.5(3)
C2 C3 Cl2 119.8(3)
C5 C6 C1 122.7(3)
C5 C6 Cl5 119.8(3)
C1 C6 Cl5 117.5(3)
C3 C4 C5 118.9(3)
C3 C4 Cl3 121.1(3)
C5 C4 Cl3 120.0(3)
C6 C5 C4 119.6(4)
C6 C5 Cl4 121.0(3)
C4 C5 Cl4 119.4(3)
C3 C2 C1 121.6(4)
C3 C2 Cl1 120.1(3)
C1 C2 Cl1 118.2(3)
C7 N1 C11 118.1(4)
C9 C10 C11 120.3(4)
C10 C9 C8 117.1(4)
C10 C9 C12 121.5(5)
C8 C9 C12 121.4(5)
C7 C8 C9 119.7(4)
N1 C7 C8 122.9(4)
N1 C11 C10 121.9(4)
loop_
_geom_bond_atom_site_label_1
_geom_bond_atom_site_label_2
_geom_bond_distance
Cl1 C2 1.715(4)
Cl2 C3 1.724(4)
Cl5 C6 1.729(4)
Cl4 C5 1.709(4)
Cl3 C4 1.719(4)
C1 O1 1.323(4)
C1 C6 1.399(5)
C1 C2 1.415(5)
C3 C4 1.391(6)
C3 C2 1.391(5)
C6 C5 1.389(5)
C4 C5 1.409(5)
N1 C7 1.326(5)
N1 C11 1.330(5)
C10 C9 1.373(6)
C10 C11 1.376(6)
C9 C8 1.382(6)
C9 C12 1.506(6)
C8 C7 1.365(6)
