#------------------------------------------------------------------------------
#$Date: 2017-09-02 09:31:49 +0300 (Sat, 02 Sep 2017) $
#$Revision: 200123 $
#$URL: file:///home/coder/svn-repositories/cod/cif/1/54/69/1546930.cif $
#------------------------------------------------------------------------------
#
# This file is available in the Crystallography Open Database (COD),
# http://www.crystallography.net/. The original data for this entry
# were provided by IUCr Journals, http://journals.iucr.org/.
#
# The file may be used within the scientific community so long as
# proper attribution is given to the journal article from which the
# data were obtained.
#
data_1546930
loop_
_publ_author_name
'Bull, Craig L.'
'Flowitt-Hill, Giles'
'de Gironcoli, Stefano'
'K\"u\,c\"ukbenli, Emine'
'Parsons, Simon'
'Pham, Cong Huy'
'Playford, Helen Y.'
'Tucker, Matthew G.'
_publ_section_title
;
 \z-Glycine: insight into the mechanism of a polymorphic phase transition
;
_journal_issue                   5
_journal_name_full               IUCrJ
_journal_page_first              569
_journal_page_last               574
_journal_paper_doi               10.1107/S205225251701096X
_journal_volume                  4
_journal_year                    2017
_chemical_absolute_configuration rm
_chemical_formula_moiety         'C2 D5 N O2'
_chemical_formula_sum            'C2 D5 N O2'
_chemical_formula_weight         80.097
_chemical_name_systematic        beta-glycine-d5
_space_group_IT_number           4
_symmetry_cell_setting           monoclinic
_symmetry_space_group_name_Hall  'P 2yb'
_symmetry_space_group_name_H-M   'P 1 21 1'
_cell_angle_alpha                90
_cell_angle_beta                 113.261(4)
_cell_angle_gamma                90
_cell_formula_units_Z            2
_cell_length_a                   5.0907(2)
_cell_length_b                   6.25954(16)
_cell_length_c                   5.38710(19)
_cell_measurement_pressure       0
_cell_measurement_temperature    290
_cell_volume                     157.709(10)
_diffrn_ambient_temperature      290
_diffrn_detector                 'ZnS scintillator'
_diffrn_detector_type            custom
_diffrn_measurement_device_type  'PEARL, ISIS'
_diffrn_radiation_type           Neutron
_diffrn_source                   'Pulsed neutron source'
_exptl_absorpt_correction_type   empirical
_exptl_absorpt_process_details
;
Calculated using custom ISIS software.
;
_exptl_crystal_density_diffrn    1.686
_pd_block_diffractogram_id       RT
_pd_char_colour                  Colourless
_pd_char_particle_morphology     Block
_pd_instr_dist_spec/detc         600
_pd_instr_dist_src/spec          12600
_pd_instr_location               'ISIS, Rutherford Appleton Laboratory'
_pd_meas_2theta_fixed            90
_pd_meas_scan_method             Time-of-flight
_pd_proc_info_data_reduction
;
Custom ISIS software
;
_pd_proc_info_excluded_regions
;
excluded short TOF region above

;
_pd_proc_ls_background_function  'Chebychev polynomial'
_pd_proc_ls_pref_orient_corr
; 
Modelling of preferred orientation was found to be unnecessary.
;
_pd_proc_ls_profile_function
;
Voigt function convoluted with a back-to-back double exponential.
;
_pd_proc_ls_prof_R_factor        3.21969435
_pd_proc_ls_prof_wR_factor       3.55009557
_pd_spec_mounting                'TiZr Capsule'
_pd_spec_mount_mode              transmission
_refine_ls_extinction_method     none
_refine_ls_goodness_of_fit_all   0.977798177
_refine_ls_hydrogen_treatment    refxyz
_refine_ls_matrix_type           sparse
_refine_ls_number_constraints    21
_refine_ls_number_parameters     62
_refine_ls_number_restraints     0
_refine_ls_shift/su_max          <0.001
_refine_ls_weighting_scheme      sigma
_iucr_refine_instructions_details
;

####Topas .inp file for final refinement cycle:####


    r_exp  3.63070382          
    r_exp_dash  12.9794289 
    r_wp  3.55009557         
    r_wp_dash  12.691262        
    r_p  3.21969435          
    r_p_dash  12.3007209        
    weighted_Durbin_Watson  0.451664151
    gof  0.977798177           


do_errors



            prm !dnh  1.05          ' from Acta B36 115 1980
            prm !dch  1.09
          prm !dcn  1.48
          prm !dcc  1.53
          prm !dco  1.25
          prm !acch  109
          prm !acnh  109
          prm !ancc  112 
          prm !acco1 117
          prm !acco2 117     


#define INCLUDE_ZETA
#define INCLUDE_GAMMA_PAWLEY
#define INCLUDE_BETA
 
xdd PRL91305_91312_tof.xye xye_format
      
    neutron_data
    x_calculation_step = Yobs_dx_at(Xo);
  weighting =  1/SigmaYobs^2;


'############################################################

 TOF_LAM(0.001)
     TOF_x_axis_calibration(!t0, 2.90479, !difc, 4837.35127, !difa,-0.36636)
   
   prm !exp1  5.57911 min 1 max 10
  
      TOF_Exponential(!p1, 30.84298,!p2, 47.23187, exp1, difc, +)
   push_peak        
      TOF_Exponential(!p3, 16.25530,!p4,  2.29958, exp1, difc, +)
   bring_2nd_peak_to_top      
      TOF_Exponential(!p5, 9167.96334,!p6,  639.11639_LIMIT_MIN_57.5204755, exp1, difc, -)
      scale_top_peak  !p7  1180.69154 min .001 del = Val .05 + 1; 
   add_pop_1st_2nd_peak    

'############################################################


   bkg  @  1.34027335` -0.0806233989`  0.249477759`  0.0156838539`  0.0627070558`  0.0594608411`
   scale_pks = D_spacing^4;         

   start_X 3000 '9651
  'finish_X 19000
   


#ifdef INCLUDE_ZETA

   str     
      phase_name zeta
            space_group I1       'choose this setting to make relationship with epsilon phase clearer
      a  @  5.102937`
      b  @  6.345044`
      c  @  5.432940`
      al @  85.90878`
      be @  114.26560`
      ga @  103.54819`
        MVW( 150.133, 155.844`, 0.377`)
    TOF_PV(@,  418.50996`, @  ,   0.703894789`_LIMIT_MIN_0, difc)
        scale @  0.0123860904`
    
    
    'geometric parameters:
          prm ztors  31.09795` min -180.0 max 180.0   ' torsion N1C2C1O2
            prm ztornh3 -162.47763`_LIMIT_MIN_-180 min -180.0 max 180.0   ' NH3+ torsion
    
     rigid
            load z_matrix
            {
            N1
            C2   N1  =dcn;
            C1   C2  =dcc;  N1 =ancc;
            O1   C1  =dco;  C2 =acco1; N1  =180+ztors;    
            O2   C1  =dco;  C2 =acco2; N1  =ztors;        
            H1   C2  =dch;  C1 =acch;  O2  =120+ztors;
            H2   C2  =dch;  C1 =acch;  O2  =-120+ztors;
            H3   N1  =dnh;  C2 =acnh;  C1  =ztornh3;     
            H4   N1  =dnh;  C2 =acnh;  C1  =ztornh3-120; 
            H5   N1  =dnh;  C2 =acnh;  C1  =ztornh3+120; 
            }    

            rotate @  -142.90624` min -180 max 180  qa 1        
            rotate @  -136.96397` min -180 max 180  qb 1        
            rotate @   98.65679` min -180 max 180  qc 1         
            
            translate    'not refined to fix origin
              ta   0.71144        
              tb   0.68132             
              tc   0.77926   

          prm b1z  0.69044` 'overall isotropic thermal parameter 
          site  N1   x   0.71144` y  0.68132` z  0.77926` occ  N  1.0  beq  =b1z;
          site  C1   x   0.52726` y  0.76758` z  1.11192` occ  C  1.0  beq  =b1z;
          site  C2   x   0.49942` y  0.78375` z  0.82022` occ  C  1.0  beq  =b1z;
          site  O1   x   0.29760` y  0.75556` z  1.14801` occ  O  1.0  beq  =b1z;
          site  O2   x   0.77756` y  0.76760` z  1.29222` occ  O  1.0  beq  =b1z;
          site  H1   x   0.27672` y  0.70205` z  0.68619` occ  D  1.0  beq  =1.2*b1z;
          site  H2   x   0.54241` y  0.95427` z  0.77032` occ  D  1.0  beq  =1.2*b1z;
          site  H3   x   0.73153` y  0.73716` z  0.59980` occ  D  1.0  beq  =1.5*b1z;
          site  H4   x   0.63276` y  0.51226` z  0.76582` occ  D  1.0  beq  =1.5*b1z;
          site  H5   x   0.91694` y  0.72357` z  0.94377` occ  D  1.0  beq  =1.5*b1z;

       
    Out_CIF_STR(zeta.cif)

#endif  'include zeta

   


#ifdef INCLUDE_GAMMA_PAWLEY
hkl_Is
       phase_name gamma_glycine
        space_group "P31"
        Trigonal( @  6.983059`, @  5.569676`)
        MVW( 225.200, 235.208`, 68.992`)
    TOF_PV(@,  2015.98693`,  ,   0, difc)
        load hkl_m_d_th2 I 
        {
               1   1   1   6    2.958306     14310.06499   @  2.82975`
               1   1   0   6    3.491530     16888.19371   @  1.42969`
        }
#endif 'INCLUDE_GAMMA_PAWLEY






#ifdef INCLUDE_BETA

    str
      phase_name beta
            space_group "P21"
     
      a @  5.090721`
      b @  6.259554`
      c @  5.387061`
      al  90        
      be @   113.26065`
      ga  90       
        MVW( 150.133, 157.709`, 3.234`)
    TOF_PV(@,  441.34451`, @ ,   0.0488689972`_LIMIT_MIN_0, difc)
    scale @  0.104876339`

    'geometric parameters:
          local btors  23.71842` ' torsion N1C2C1O2
            local btornh3  190.81796` ' NH3+ torsion

          rigid
            load z_matrix
            {
            N1
            C2   N1  =dcn;
            C1   C2  =dcc;  N1 =ancc;
            O1   C1  =dco;  C2 =acco1; N1  =180+btors;    
            O2   C1  =dco;  C2 =acco2; N1  =btors;        
            H1   C2  =dch;  C1 =acch;  O2  =120+btors;
            H2   C2  =dch;  C1 =acch;  O2  =-120+btors;
            H3   N1  =dnh;  C2 =acnh;  C1  =btornh3;     
            H4   N1  =dnh;  C2 =acnh;  C1  =btornh3-120; 
            H5   N1  =dnh;  C2 =acnh;  C1  =btornh3+120; 
            }    

            rotate @  -359.86801` qa 1
            rotate @  -86.62581` qb 1
            rotate @  -32.99827` qc 1
            
            'Fix the x and z coordinates of N1 to Boldyreva's values
            translate
              ta   @   0.85227`
              tb      0.25
              tc   @   0.23709`

    'Coords from Z-matrix
    prm b1  1.33511`
        site O1   x  0.41031` y  0.37769` z   0.59861` occ O  1 beq =b1;
        site O2   x  0.87933` y  0.32163` z   0.74323` occ O  1 beq =b1;
        site N1   x  0.85227` y  0.25000` z   0.23709` occ N  1 beq =b1;
        site C1   x  0.63665` y  0.35371` z   0.56288` occ C  1 beq =b1;
        site C2   x  0.61463` y  0.36465` z   0.27157` occ C  1 beq =b1;
        site H1   x  0.41369` y  0.29198` z   0.13848` occ D  1 beq =1.2*b1;
        site H2   x  0.62090` y  0.53147` z   0.21615` occ D  1 beq =1.2*b1;
        site H3   x  0.85039` y  0.28655` z   0.04617` occ D  1 beq =1.5*b1;
        site H4   x  0.82454` y  0.08499` z   0.25224` occ D  1 beq =1.5*b1;
        site H5   x  1.04654` y  0.29901` z   0.38897` occ D  1 beq =1.5*b1;




       
    Out_CIF_STR(beta.cif) 

#endif   'include beta


      str
      space_group "Fm-3m"
      phase_name lead  'pressure marker. Note T=100K
      MVW( 828.800, 120.968`, 2.299`)
      Cubic( @  4.945645`)
      site Pb1 x  0.00  y 0.00  z 0.00 occ Pb 1 beq @  1.14230`
      scale  @  0.0176054676`
      TOF_PV( @  ,  329.25318` , @ ,  0.591691826`_LIMIT_MIN_0 , difc)        

      str
      space_group "R-3c"
      phase_name Al2O3  'part of PE cell, not centred in beam.
      Hexagonal( @  4.749571`, @   12.967410`)  
      TOF_PV(@ ,  904.20244` ,@ ,  0.330499378`, difc)        
      site  Al1  x    0.        y   0.      z @  0.35093` occ  Al   1   beq @  -0.17847`
      site  O1   x  @  0.30908` y   0.      z    0.25     occ  O    1   beq @  -0.28625`
      scale @  0.020375193`

      str
      space_group "P42/nmc"
      phase_name ZrO2  'part of PE cell, not centred in beam.
      Tetragonal(  @  3.614236` , @  4.929384`)
      TOF_PV( @ ,  1777.71236` , ,  0, difc)
      site   Zr1  x   0.75   y   0.25   z     0.75     occ  Zr   1   beq @  19.94109`_LIMIT_MAX_20
      site   O1   x   0.25   y   0.25   z  @   0.59476` occ  O    1   beq  @  19.98278`_LIMIT_MAX_20
      scale @   0.253804737`


'end of Topas input file.
;
_cod_data_source_file            lq5008.cif
_cod_data_source_block           beta_glycine_290K
_cod_depositor_comments
;
The following automatic conversions were performed:

'_symmetry_cell_setting' value 'Monoclinic' changed to 'monoclinic'
according to
/home/data/users/saulius/crontab/automatic-downloads/rss-feeds/IUCr/lib/dictionaries/cif_core.dic
dictionary named 'cif_core.dic' version 2.4.2 from 2011-04-26.

Automatic conversion script
Id: cif_fix_values 4973 2017-02-22 13:04:09Z antanas 
;
_cod_original_cell_volume        157.710(10)
_cod_original_sg_symbol_H-M      P21
_cod_database_code               1546930
_pd_proc_ls_prof_r_expected      3.63070382
loop_
_symmetry_equiv_pos_as_xyz
'x, y, z '
'-x, y+1/2, -z '
loop_
_atom_site_label
_atom_site_type_symbol
_atom_site_symmetry_multiplicity
_atom_site_fract_x
_atom_site_fract_y
_atom_site_fract_z
_atom_site_occupancy
_atom_site_B_iso_or_equiv
O1 O 2 0.410(2) 0.378(3) 0.5987(13) 1 1.33(4)
O2 O 2 0.8795(16) 0.3217(13) 0.7432(8) 1 1.33(4)
N1 N 2 0.8522(7) 0.25 0.2370(7) 1 1.33(4)
C1 C 2 0.6367(16) 0.3537(16) 0.5629(10) 1 1.33(4)
C2 C 2 0.6146(14) 0.3646(14) 0.2716(9) 1 1.33(4)
H1 D 2 0.4136(8) 0.292(2) 0.1385(10) 1 1.60(5)
H2 D 2 0.621(3) 0.5315(14) 0.2161(12) 1 1.60(5)
H3 D 2 0.8504(12) 0.2867(10) 0.0461(9) 1 2.00(6)
H4 D 2 0.824(2) 0.08499(18) 0.2520(17) 1 2.00(6)
H5 D 2 1.0465(9) 0.2989(13) 0.3890(11) 1 2.00(6)
loop_
_geom_angle_atom_site_label_1
_geom_angle_atom_site_label_2
_geom_angle_atom_site_label_3
_geom_angle
_geom_angle_publ_flag
O1 C1 O2 126.00 yes
O1 C1 C2 117.00 yes
O2 C1 C2 117.00 yes
C2 N1 H5 109.00 yes
C2 N1 H3 109.00 yes
C2 N1 H4 109.00 yes
H4 N1 H5 110.00 yes
H3 N1 H4 110.00 yes
H3 N1 H5 110.00 yes
N1 C2 C1 112.00 yes
N1 C2 H1 108.00 yes
N1 C2 H2 108.00 yes
C1 C2 H1 109.00 yes
C1 C2 H2 109.00 yes
H1 C2 H2 110.00 yes
loop_
_geom_bond_atom_site_label_1
_geom_bond_atom_site_label_2
_geom_bond_distance
_geom_bond_publ_flag
O1 C1 1.2500 yes
O2 C1 1.2500 yes
N1 C2 1.4800 yes
C1 C2 1.5300 no
N1 H3 1.0500 yes
N1 H4 1.0500 yes
N1 H5 1.0500 yes
C2 H1 1.0900 yes
C2 H2 1.0900 yes
loop_
_geom_torsion_atom_site_label_1
_geom_torsion_atom_site_label_2
_geom_torsion_atom_site_label_3
_geom_torsion_atom_site_label_4
_geom_torsion
_geom_torsion_publ_flag
O1 C1 C2 N1 -156.3(3) no
O2 C1 C2 N1 23.7(3) no
