#------------------------------------------------------------------------------
#$Date: 2017-06-06 09:20:00 +0300 (Tue, 06 Jun 2017) $
#$Revision: 197562 $
#$URL: file:///home/coder/svn-repositories/cod/cif/1/54/62/1546265.cif $
#------------------------------------------------------------------------------
#
# This file is available in the Crystallography Open Database (COD),
# http://www.crystallography.net/. The original data for this entry
# were provided by IUCr Journals, http://journals.iucr.org/.
#
# The file may be used within the scientific community so long as
# proper attribution is given to the journal article from which the
# data were obtained.
#
data_1546265
loop_
_publ_author_name
'Rajput, Lalit'
'Banik, Manas'
'Yarava, Jayasubba Reddy'
'Joseph, Sumy'
'Pandey, Manoj Kumar'
'Nishiyama, Yusuke'
'Desiraju, Gautam R.'
_publ_section_title
;
 Exploring the salt--cocrystal continuum with solid-state NMR using
 natural-abundance samples: implications for crystal engineering
;
_journal_issue                   4
_journal_name_full               IUCrJ
_journal_page_first
;
;
_journal_paper_doi               10.1107/S205225251700687X
_journal_volume                  4
_journal_year                    2017
_chemical_formula_moiety         'C7 H5 N O4, C7 H9 N'
_chemical_formula_sum            'C14 H14 N2 O4'
_chemical_formula_weight         274.27
_chemical_name_common            '3-Ethylpyridine 4-Nitrobenzoic acid'
_chemical_name_systematic
;
 ?
;
_space_group_IT_number           2
_symmetry_cell_setting           triclinic
_symmetry_space_group_name_Hall  '-P 1'
_symmetry_space_group_name_H-M   'P -1'
_atom_sites_solution_hydrogens   geom
_atom_sites_solution_primary     direct
_atom_sites_solution_secondary   difmap
_audit_creation_method           SHELXL-97
_cell_angle_alpha                87.967(17)
_cell_angle_beta                 88.58(3)
_cell_angle_gamma                80.207(18)
_cell_formula_units_Z            2
_cell_length_a                   6.631(5)
_cell_length_b                   7.032(6)
_cell_length_c                   14.216(12)
_cell_measurement_reflns_used    2645
_cell_measurement_temperature    110
_cell_measurement_theta_max      33.4
_cell_measurement_theta_min      2.9
_cell_volume                     652.7(9)
_computing_structure_refinement  'SHELXL-97 (Sheldrick, 2008)'
_diffrn_ambient_temperature      110
_diffrn_measured_fraction_theta_full 0.996
_diffrn_measured_fraction_theta_max 0.996
_diffrn_measurement_device_type  Rigaku
_diffrn_measurement_method       'profile data from \w-scans'
_diffrn_radiation_monochromator  graphite
_diffrn_radiation_source         'fine-focus sealed tube'
_diffrn_radiation_type           MoK\a
_diffrn_radiation_wavelength     0.71073
_diffrn_reflns_av_R_equivalents  0.0712
_diffrn_reflns_av_sigmaI/netI    0.0610
_diffrn_reflns_limit_h_max       8
_diffrn_reflns_limit_h_min       -8
_diffrn_reflns_limit_k_max       8
_diffrn_reflns_limit_k_min       -8
_diffrn_reflns_limit_l_max       17
_diffrn_reflns_limit_l_min       -17
_diffrn_reflns_number            6144
_diffrn_reflns_theta_full        26.00
_diffrn_reflns_theta_max         26.00
_diffrn_reflns_theta_min         1.43
_exptl_absorpt_coefficient_mu    0.104
_exptl_absorpt_correction_T_max  1.000
_exptl_absorpt_correction_T_min  0.835
_exptl_absorpt_correction_type   multi-scan
_exptl_absorpt_process_details   SADABS
_exptl_crystal_colour            colorless
_exptl_crystal_density_diffrn    1.396
_exptl_crystal_density_method    'not measured'
_exptl_crystal_description       block
_exptl_crystal_F_000             288
_exptl_crystal_size_max          0.21
_exptl_crystal_size_mid          0.18
_exptl_crystal_size_min          0.14
_refine_diff_density_max         0.333
_refine_diff_density_min         -0.325
_refine_diff_density_rms         0.074
_refine_ls_extinction_method     none
_refine_ls_goodness_of_fit_ref   1.105
_refine_ls_hydrogen_treatment    mixed
_refine_ls_matrix_type           full
_refine_ls_number_parameters     237
_refine_ls_number_reflns         2555
_refine_ls_number_restraints     0
_refine_ls_restrained_S_all      1.105
_refine_ls_R_factor_all          0.0477
_refine_ls_R_factor_gt           0.0427
_refine_ls_shift/su_max          0.000
_refine_ls_shift/su_mean         0.000
_refine_ls_structure_factor_coef Fsqd
_refine_ls_weighting_details
'calc w=1/[\s^2^(Fo^2^)+(0.0749P)^2^+0.0851P] where P=(Fo^2^+2Fc^2^)/3'
_refine_ls_weighting_scheme      calc
_refine_ls_wR_factor_gt          0.1203
_refine_ls_wR_factor_ref         0.1338
_reflns_number_gt                2366
_reflns_number_total             2555
_reflns_threshold_expression     >2\s(I)
_iucr_refine_instructions_details
;
TITL datap1 in P-1
CELL  0.71073   6.6306   7.0317  14.2163   87.967   88.578   80.207
ZERR     2.00   0.0053   0.0055   0.0118    0.017    0.025    0.018
LATT   1
SFAC  C    H    N    O
UNIT  28   28   4    8
MERG   2
OMIT    -2.00  52.00
FMAP   2
PLAN   10
ACTA
BOND
WGHT     0.07490     0.08510
L.S.  20
FVAR     0.66215
C1    1    0.269498    0.231698    0.236321    11.00000    0.01868    0.02028 =
        0.02013    0.00029    0.00073   -0.00279
C2    1    0.190215    0.217451    0.328025    11.00000    0.02308    0.01774 =
        0.01999    0.00094   -0.00019   -0.00316
C3    1   -0.020969    0.275313    0.340359    11.00000    0.02320    0.02482 =
        0.02148    0.00060    0.00560   -0.00194
C4    1   -0.140474    0.341814    0.263697    11.00000    0.01867    0.02860 =
        0.02726    0.00096    0.00279   -0.00181
C5    1   -0.047456    0.354065    0.175001    11.00000    0.02021    0.02408 =
        0.02098    0.00116   -0.00236   -0.00336
C6    1    0.329152    0.147003    0.408750    11.00000    0.02604    0.02450 =
        0.02173    0.00342   -0.00136    0.00088
C7    1    0.401408    0.312370    0.457632    11.00000    0.02941    0.03259 =
        0.02310    0.00510   -0.00606   -0.00565
C12   1    0.564701    0.279604    0.827460    11.00000    0.01520    0.02152 =
        0.02138    0.00148   -0.00041   -0.00079
C11   1    0.683891    0.271426    0.744975    11.00000    0.02060    0.02178 =
        0.01780    0.00250   -0.00232   -0.00212
C10   1    0.894794    0.217794    0.752828    11.00000    0.01862    0.01855 =
        0.01892    0.00025    0.00343   -0.00348
C9    1    0.990632    0.172210    0.838205    11.00000    0.01448    0.02171 =
        0.02527    0.00225    0.00010   -0.00147
C8    1    0.868583    0.182688    0.919650    11.00000    0.01856    0.02258 =
        0.01907    0.00311   -0.00329   -0.00255
C13   1    0.656206    0.235115    0.914165    11.00000    0.01585    0.01628 =
        0.01947    0.00218   -0.00036   -0.00137
C14   1    0.532576    0.235544    1.004896    11.00000    0.01775    0.02077 =
        0.01900    0.00213   -0.00182   -0.00352
N1    3    0.154822    0.298683    0.161763    11.00000    0.01905    0.02158 =
        0.02080   -0.00002    0.00167   -0.00397
N2    3    1.022444    0.207650    0.665609    11.00000    0.02266    0.02503 =
        0.02311    0.00019    0.00465   -0.00384
O1    4    0.339365    0.318960    0.997504    11.00000    0.01549    0.03168 =
        0.01971    0.00354    0.00095    0.00159
O2    4    0.609917    0.163360    1.077430    11.00000    0.02040    0.04170 =
        0.01856    0.00795   -0.00077   -0.00065
O3    4    0.936129    0.235857    0.589766    11.00000    0.03346    0.05090 =
        0.01856    0.00142    0.00286   -0.00528
O4    4    1.209656    0.171849    0.673510    11.00000    0.01924    0.05442 =
        0.03303   -0.00014    0.00774   -0.00197
H1    2    0.414102    0.194022    0.219786    11.00000    0.02536
H1A   2    0.274461    0.314608    1.066041    11.00000    0.06890
H3    2   -0.077668    0.271154    0.403263    11.00000    0.02815
H4    2   -0.289966    0.382393    0.270979    11.00000    0.04497
H5    2   -0.125276    0.400091    0.120997    11.00000    0.01908
H6A   2    0.257137    0.074303    0.456376    11.00000    0.03722
H6B   2    0.446039    0.058231    0.383053    11.00000    0.03523
H7A   2    0.488846    0.265232    0.508386    11.00000    0.04359
H7B   2    0.286355    0.401330    0.484604    11.00000    0.03642
H7C   2    0.475022    0.385574    0.412556    11.00000    0.04349
H12   2    0.415878    0.317564    0.821315    11.00000    0.03337
H11   2    0.622786    0.303929    0.684212    11.00000    0.03160
H9    2    1.134968    0.131354    0.841324    11.00000    0.03284
H8    2    0.930116    0.155226    0.980552    11.00000    0.02807
HKLF 4
END


;
_cod_data_source_file            lq5005.cif
_cod_data_source_block           CO-1-LT
_cod_depositor_comments
;
The following automatic conversions were performed:

'_exptl_absorpt_correction_type' value 'Multi-scan' changed to
'multi-scan' according to
/home/data/users/saulius/crontab/automatic-downloads/rss-feeds/IUCr/lib/dictionaries/cif_core.dic
dictionary named 'cif_core.dic' version 2.4.2 from 2011-04-26.

Automatic conversion script
Id: cif_fix_values 4973 2017-02-22 13:04:09Z antanas 
;
_cod_original_cell_volume        652.6(9)
_cod_original_sg_symbol_H-M      P-1
_cod_database_code               1546265
loop_
_symmetry_equiv_pos_as_xyz
'x, y, z'
'-x, -y, -z'
loop_
_atom_site_label
_atom_site_type_symbol
_atom_site_fract_x
_atom_site_fract_y
_atom_site_fract_z
_atom_site_U_iso_or_equiv
_atom_site_adp_type
_atom_site_occupancy
_atom_site_symmetry_multiplicity
_atom_site_calc_flag
C1 C 0.26950(18) 0.23170(17) 0.23632(9) 0.0198(3) Uani 1 1 d
C2 C 0.19022(19) 0.21745(17) 0.32802(9) 0.0203(3) Uani 1 1 d
C3 C -0.0210(2) 0.27531(19) 0.34036(9) 0.0235(3) Uani 1 1 d
C4 C -0.14047(19) 0.34181(19) 0.26370(9) 0.0252(3) Uani 1 1 d
C5 C -0.04746(18) 0.35406(18) 0.17500(9) 0.0218(3) Uani 1 1 d
C6 C 0.3292(2) 0.14700(19) 0.40875(9) 0.0248(3) Uani 1 1 d
C7 C 0.4014(2) 0.3124(2) 0.45763(9) 0.0284(3) Uani 1 1 d
C12 C 0.56470(18) 0.27960(18) 0.82746(9) 0.0197(3) Uani 1 1 d
C11 C 0.68389(18) 0.27143(17) 0.74498(9) 0.0203(3) Uani 1 1 d
C10 C 0.89479(18) 0.21779(17) 0.75283(8) 0.0187(3) Uani 1 1 d
C9 C 0.99063(18) 0.17221(18) 0.83820(9) 0.0208(3) Uani 1 1 d
C8 C 0.86858(18) 0.18269(18) 0.91965(9) 0.0202(3) Uani 1 1 d
C13 C 0.65621(17) 0.23511(16) 0.91416(8) 0.0174(3) Uani 1 1 d
C14 C 0.53258(18) 0.23554(17) 1.00490(8) 0.0192(3) Uani 1 1 d
N1 N 0.15482(16) 0.29868(15) 0.16176(7) 0.0205(3) Uani 1 1 d
N2 N 1.02244(16) 0.20765(16) 0.66561(8) 0.0237(3) Uani 1 1 d
O1 O 0.33936(13) 0.31896(13) 0.99750(6) 0.0231(3) Uani 1 1 d
O2 O 0.60992(13) 0.16336(15) 1.07743(6) 0.0276(3) Uani 1 1 d
O3 O 0.93613(16) 0.23586(16) 0.58977(7) 0.0346(3) Uani 1 1 d
O4 O 1.20966(14) 0.17185(16) 0.67351(7) 0.0362(3) Uani 1 1 d
H1 H 0.414(2) 0.194(2) 0.2198(11) 0.025(4) Uiso 1 1 d
H1A H 0.274(4) 0.315(3) 1.0660(18) 0.069(7) Uiso 1 1 d
H3 H -0.078(2) 0.271(2) 0.4033(12) 0.028(4) Uiso 1 1 d
H4 H -0.290(3) 0.382(3) 0.2710(14) 0.045(5) Uiso 1 1 d
H5 H -0.125(2) 0.400(2) 0.1210(11) 0.019(3) Uiso 1 1 d
H6A H 0.257(3) 0.074(2) 0.4564(13) 0.037(4) Uiso 1 1 d
H6B H 0.446(3) 0.058(3) 0.3831(12) 0.035(4) Uiso 1 1 d
H7A H 0.489(3) 0.265(3) 0.5084(14) 0.044(5) Uiso 1 1 d
H7B H 0.286(3) 0.401(3) 0.4846(13) 0.036(4) Uiso 1 1 d
H7C H 0.475(3) 0.386(3) 0.4126(13) 0.043(5) Uiso 1 1 d
H12 H 0.416(3) 0.318(2) 0.8213(12) 0.033(4) Uiso 1 1 d
H11 H 0.623(3) 0.304(2) 0.6842(13) 0.032(4) Uiso 1 1 d
H9 H 1.135(3) 0.131(2) 0.8413(12) 0.033(4) Uiso 1 1 d
H8 H 0.930(2) 0.155(2) 0.9806(12) 0.028(4) Uiso 1 1 d
loop_
_atom_site_aniso_label
_atom_site_aniso_U_11
_atom_site_aniso_U_22
_atom_site_aniso_U_33
_atom_site_aniso_U_23
_atom_site_aniso_U_13
_atom_site_aniso_U_12
C1 0.0187(6) 0.0203(6) 0.0201(6) 0.0003(5) 0.0007(5) -0.0028(4)
C2 0.0231(6) 0.0177(6) 0.0200(6) 0.0009(4) -0.0002(5) -0.0032(4)
C3 0.0232(6) 0.0248(7) 0.0215(6) 0.0006(5) 0.0056(5) -0.0019(5)
C4 0.0187(6) 0.0286(7) 0.0273(7) 0.0010(5) 0.0028(5) -0.0018(5)
C5 0.0202(6) 0.0241(6) 0.0210(6) 0.0012(5) -0.0024(5) -0.0034(5)
C6 0.0260(6) 0.0245(7) 0.0217(6) 0.0034(5) -0.0014(5) 0.0009(5)
C7 0.0294(7) 0.0326(7) 0.0231(7) 0.0051(6) -0.0061(5) -0.0057(6)
C12 0.0152(6) 0.0215(6) 0.0214(6) 0.0015(5) -0.0004(5) -0.0008(4)
C11 0.0206(6) 0.0218(6) 0.0178(6) 0.0025(5) -0.0023(5) -0.0021(5)
C10 0.0186(6) 0.0185(6) 0.0189(6) 0.0003(5) 0.0034(5) -0.0035(4)
C9 0.0145(6) 0.0217(6) 0.0253(6) 0.0022(5) 0.0001(5) -0.0015(4)
C8 0.0186(6) 0.0226(6) 0.0191(6) 0.0031(5) -0.0033(5) -0.0026(5)
C13 0.0159(6) 0.0163(6) 0.0195(6) 0.0022(4) -0.0004(5) -0.0014(4)
C14 0.0177(6) 0.0208(6) 0.0190(6) 0.0021(5) -0.0018(5) -0.0035(4)
N1 0.0191(5) 0.0216(5) 0.0208(5) 0.0000(4) 0.0017(4) -0.0040(4)
N2 0.0227(6) 0.0250(6) 0.0231(6) 0.0002(4) 0.0046(4) -0.0038(4)
O1 0.0155(4) 0.0317(5) 0.0197(5) 0.0035(4) 0.0010(3) 0.0016(3)
O2 0.0204(5) 0.0417(6) 0.0186(5) 0.0079(4) -0.0008(4) -0.0007(4)
O3 0.0335(6) 0.0509(7) 0.0186(5) 0.0014(4) 0.0029(4) -0.0053(5)
O4 0.0192(5) 0.0544(7) 0.0330(6) -0.0001(5) 0.0077(4) -0.0020(4)
loop_
_atom_type_symbol
_atom_type_description
_atom_type_scat_dispersion_real
_atom_type_scat_dispersion_imag
_atom_type_scat_source
C C 0.0033 0.0016 'International Tables Vol C Tables 4.2.6.8 and 6.1.1.4'
H H 0.0000 0.0000 'International Tables Vol C Tables 4.2.6.8 and 6.1.1.4'
N N 0.0061 0.0033 'International Tables Vol C Tables 4.2.6.8 and 6.1.1.4'
O O 0.0106 0.0060 'International Tables Vol C Tables 4.2.6.8 and 6.1.1.4'
loop_
_geom_angle_atom_site_label_1
_geom_angle_atom_site_label_2
_geom_angle_atom_site_label_3
_geom_angle
N1 C1 C2 123.68(12)
C3 C2 C1 116.77(12)
C3 C2 C6 122.48(12)
C1 C2 C6 120.74(12)
C4 C3 C2 119.88(12)
C3 C4 C5 119.35(13)
N1 C5 C4 121.60(12)
C2 C6 C7 112.23(12)
C13 C12 C11 120.33(12)
C10 C11 C12 117.91(12)
C9 C10 C11 123.15(11)
C9 C10 N2 118.56(12)
C11 C10 N2 118.29(12)
C10 C9 C8 117.90(12)
C9 C8 C13 120.38(12)
C12 C13 C8 120.33(11)
C12 C13 C14 122.11(12)
C8 C13 C14 117.55(12)
O2 C14 O1 124.54(11)
O2 C14 C13 121.12(12)
O1 C14 C13 114.33(11)
C5 N1 C1 118.70(11)
O3 N2 O4 123.75(11)
O3 N2 C10 118.35(12)
O4 N2 C10 117.90(12)
loop_
_geom_bond_atom_site_label_1
_geom_bond_atom_site_label_2
_geom_bond_distance
C1 N1 1.3440(18)
C1 C2 1.400(2)
C2 C3 1.399(2)
C2 C6 1.5060(19)
C3 C4 1.384(2)
C4 C5 1.396(2)
C5 N1 1.3420(19)
C6 C7 1.526(2)
C12 C13 1.389(2)
C12 C11 1.3951(19)
C11 C10 1.391(2)
C10 C9 1.386(2)
C10 N2 1.4807(18)
C9 C8 1.393(2)
C8 C13 1.397(2)
C13 C14 1.5109(19)
C14 O2 1.2184(17)
C14 O1 1.3202(17)
N2 O3 1.2273(17)
N2 O4 1.2311(17)
