#------------------------------------------------------------------------------
#$Date: 2017-06-06 09:20:00 +0300 (Tue, 06 Jun 2017) $
#$Revision: 197562 $
#$URL: file:///home/coder/svn-repositories/cod/cif/1/54/62/1546270.cif $
#------------------------------------------------------------------------------
#
# This file is available in the Crystallography Open Database (COD),
# http://www.crystallography.net/. The original data for this entry
# were provided by IUCr Journals, http://journals.iucr.org/.
#
# The file may be used within the scientific community so long as
# proper attribution is given to the journal article from which the
# data were obtained.
#
data_1546270
loop_
_publ_author_name
'Rajput, Lalit'
'Banik, Manas'
'Yarava, Jayasubba Reddy'
'Joseph, Sumy'
'Pandey, Manoj Kumar'
'Nishiyama, Yusuke'
'Desiraju, Gautam R.'
_publ_section_title
;
 Exploring the salt--cocrystal continuum with solid-state NMR using
 natural-abundance samples: implications for crystal engineering
;
_journal_issue                   4
_journal_name_full               IUCrJ
_journal_page_first
;
;
_journal_paper_doi               10.1107/S205225251700687X
_journal_volume                  4
_journal_year                    2017
_chemical_formula_moiety         'C6 H Cl5 O, C6 H7 N'
_chemical_formula_sum            'C12 H8 Cl5 N O'
_chemical_formula_weight         359.44
_chemical_melting_point          77(2)
_chemical_name_common            '4-Methylpyridine Pentachlorophenol'
_chemical_name_systematic
;
 ?
;
_space_group_IT_number           2
_symmetry_cell_setting           triclinic
_symmetry_space_group_name_Hall  '-P 1'
_symmetry_space_group_name_H-M   'P -1'
_atom_sites_solution_hydrogens   geom
_atom_sites_solution_primary     direct
_atom_sites_solution_secondary   difmap
_audit_creation_method           SHELXL-97
_cell_angle_alpha                69.770(3)
_cell_angle_beta                 85.869(3)
_cell_angle_gamma                76.324(4)
_cell_formula_units_Z            2
_cell_length_a                   7.3857(8)
_cell_length_b                   8.9202(10)
_cell_length_c                   12.0227(12)
_cell_measurement_reflns_used    2874
_cell_measurement_temperature    298(2)
_cell_measurement_theta_max      24.78
_cell_measurement_theta_min      3.33
_cell_volume                     722.10(13)
_computing_structure_refinement  'SHELXL-97 (Sheldrick, 2008)'
_diffrn_ambient_temperature      298(2)
_diffrn_measured_fraction_theta_full 0.989
_diffrn_measured_fraction_theta_max 0.989
_diffrn_measurement_device_type  'Bruker P4'
_diffrn_measurement_method       '\w scans'
_diffrn_radiation_monochromator  graphite
_diffrn_radiation_source         'fine-focus sealed tube'
_diffrn_radiation_type           MoK\a
_diffrn_radiation_wavelength     0.71073
_diffrn_reflns_av_R_equivalents  0.0393
_diffrn_reflns_av_sigmaI/netI    0.0594
_diffrn_reflns_limit_h_max       9
_diffrn_reflns_limit_h_min       -9
_diffrn_reflns_limit_k_max       11
_diffrn_reflns_limit_k_min       -11
_diffrn_reflns_limit_l_max       14
_diffrn_reflns_limit_l_min       -14
_diffrn_reflns_number            6870
_diffrn_reflns_theta_full        26.00
_diffrn_reflns_theta_max         26.00
_diffrn_reflns_theta_min         3.33
_exptl_absorpt_coefficient_mu    0.993
_exptl_absorpt_correction_T_max  0.879
_exptl_absorpt_correction_T_min  0.836
_exptl_absorpt_correction_type   empirical
_exptl_absorpt_process_details   SADABS
_exptl_crystal_colour            Colorless
_exptl_crystal_density_diffrn    1.653
_exptl_crystal_density_method    'not measured'
_exptl_crystal_description       Needle
_exptl_crystal_F_000             360
_exptl_crystal_size_max          0.27
_exptl_crystal_size_mid          0.15
_exptl_crystal_size_min          0.13
_refine_diff_density_max         0.282
_refine_diff_density_min         -0.214
_refine_diff_density_rms         0.066
_refine_ls_extinction_method     none
_refine_ls_goodness_of_fit_ref   1.040
_refine_ls_hydrogen_treatment    mixed
_refine_ls_matrix_type           full
_refine_ls_number_parameters     193
_refine_ls_number_reflns         2799
_refine_ls_number_restraints     0
_refine_ls_restrained_S_all      1.040
_refine_ls_R_factor_all          0.0936
_refine_ls_R_factor_gt           0.0466
_refine_ls_shift/su_max          0.001
_refine_ls_shift/su_mean         0.000
_refine_ls_structure_factor_coef Fsqd
_refine_ls_weighting_details
'calc w=1/[\s^2^(Fo^2^)+(0.0638P)^2^+0.0000P] where P=(Fo^2^+2Fc^2^)/3'
_refine_ls_weighting_scheme      calc
_refine_ls_wR_factor_gt          0.1136
_refine_ls_wR_factor_ref         0.1288
_reflns_number_gt                1751
_reflns_number_total             2799
_reflns_threshold_expression     >2\s(I)
_iucr_refine_instructions_details
;
TITL CNT1-RT1 in P-1
CELL  0.71073   7.3857   8.9202  12.0227   69.770   85.869   76.324
ZERR     2.00   0.0008   0.0010   0.0012    0.003    0.003    0.004
LATT   1
SFAC  C    H    N    O    CL
UNIT  24   16   2    2    10
MERG   2
OMIT    -2.00  52.00
FMAP   2
PLAN   10
ACTA
BOND
WGHT     0.06380
L.S.  20
FVAR     0.21098
C1    1    0.110521    0.671863    0.773742    11.00000    0.03692    0.04607 =
        0.04287   -0.01473    0.00223   -0.01722
C2    1    0.161707    0.504561    0.789543    11.00000    0.03807    0.04474 =
        0.04874   -0.02483    0.00653   -0.01682
C3    1    0.238441    0.388436    0.894553    11.00000    0.03476    0.03726 =
        0.06114   -0.01812    0.00642   -0.01373
C4    1    0.264146    0.435544    0.989904    11.00000    0.03342    0.04596 =
        0.04656   -0.01132    0.00302   -0.01303
C5    1    0.214050    0.601496    0.977333    11.00000    0.03374    0.05301 =
        0.04316   -0.01969    0.00559   -0.02138
C6    1    0.139392    0.716631    0.871253    11.00000    0.03404    0.04131 =
        0.04957   -0.02010    0.00797   -0.01727
C7    1    0.661460    0.677653    0.593902    11.00000    0.06904    0.05215 =
        0.04613   -0.01256   -0.00095   -0.01739
C8    1    0.506944    0.691513    0.531214    11.00000    0.05487    0.05715 =
        0.06745   -0.02491    0.01153   -0.02467
C9    1    0.468233    0.809989    0.422376    11.00000    0.04788    0.05271 =
        0.06279   -0.03419   -0.00475   -0.00229
C10   1    0.590227    0.911544    0.381149    11.00000    0.05620    0.04636 =
        0.04320   -0.01335   -0.00428   -0.00167
C11   1    0.740766    0.892635    0.448549    11.00000    0.05115    0.04755 =
        0.05650   -0.01910    0.00638   -0.01708
C12   1    0.301412    0.829627    0.348464    11.00000    0.06348    0.10724 =
        0.11512   -0.05013   -0.02960   -0.01053
AFIX  137
H12A  2    0.209221    0.780466    0.398917    11.00000   -1.50000
H12B  2    0.339566    0.776737    0.290612    11.00000   -1.50000
H12C  2    0.249538    0.944148    0.308937    11.00000   -1.50000
AFIX    0
N1    3    0.777980    0.776714    0.553330    11.00000    0.05760    0.05228 =
        0.04612   -0.01675   -0.00216   -0.01869
O1    4    0.042381    0.785530    0.674171    11.00000    0.06640    0.04851 =
        0.04789   -0.00953   -0.01037   -0.02342
CL1   5    0.127231    0.444960    0.672018    11.00000    0.06869    0.06579 =
        0.06133   -0.03940    0.00598   -0.02064
CL2   5    0.302881    0.184376    0.908962    11.00000    0.07359    0.04232 =
        0.09148   -0.02557   -0.00208   -0.01090
CL3   5    0.356931    0.291547    1.121723    11.00000    0.05781    0.06394 =
        0.05567   -0.00372   -0.00590   -0.01335
CL4   5    0.245801    0.662977    1.094062    11.00000    0.06125    0.07573 =
        0.04867   -0.03042   -0.00052   -0.02372
CL5   5    0.079129    0.920793    0.855955    11.00000    0.07254    0.04341 =
        0.06724   -0.02430   -0.00690   -0.01680
H1    2   -0.058951    0.779601    0.638997    11.00000    0.12375
H7    2    0.694942    0.597068    0.668283    11.00000    0.05716
H8    2    0.433459    0.616543    0.567993    11.00000    0.07269
H10   2    0.566850    0.993733    0.312608    11.00000    0.04511
H11   2    0.824309    0.957339    0.423676    11.00000    0.04101
HKLF 4
END

;
_cod_data_source_file            lq5005.cif
_cod_data_source_block           CNT1-RT
_cod_depositor_comments
;
The following automatic conversions were performed:

'_chemical_melting_point' value '75-79' was changed to '77(2)' - the
average value was taken and precision was estimated.

'_symmetry_cell_setting' value 'Triclinic' changed to 'triclinic'
according to
/home/data/users/saulius/crontab/automatic-downloads/rss-feeds/IUCr/lib/dictionaries/cif_core.dic
dictionary named 'cif_core.dic' version 2.4.2 from 2011-04-26.

'_exptl_absorpt_correction_type' value 'Empirical' changed to
'empirical' according to
/home/data/users/saulius/crontab/automatic-downloads/rss-feeds/IUCr/lib/dictionaries/cif_core.dic
dictionary named 'cif_core.dic' version 2.4.2 from 2011-04-26.

Automatic conversion script
Id: cif_fix_values 4973 2017-02-22 13:04:09Z antanas 
;
_cod_original_sg_symbol_H-M      P-1
_cod_database_code               1546270
loop_
_symmetry_equiv_pos_as_xyz
'x, y, z'
'-x, -y, -z'
loop_
_atom_site_label
_atom_site_type_symbol
_atom_site_fract_x
_atom_site_fract_y
_atom_site_fract_z
_atom_site_U_iso_or_equiv
_atom_site_adp_type
_atom_site_occupancy
_atom_site_symmetry_multiplicity
_atom_site_calc_flag
_atom_site_refinement_flags
C1 C 0.1105(4) 0.6719(4) 0.7737(3) 0.0408(8) Uani 1 1 d .
C2 C 0.1617(4) 0.5046(4) 0.7895(3) 0.0404(8) Uani 1 1 d .
C3 C 0.2384(4) 0.3884(4) 0.8946(3) 0.0433(8) Uani 1 1 d .
C4 C 0.2641(4) 0.4355(4) 0.9899(3) 0.0426(8) Uani 1 1 d .
C5 C 0.2141(4) 0.6015(4) 0.9773(3) 0.0406(8) Uani 1 1 d .
C6 C 0.1394(4) 0.7166(4) 0.8713(3) 0.0392(8) Uani 1 1 d .
C7 C 0.6615(6) 0.6777(5) 0.5939(3) 0.0561(10) Uani 1 1 d .
C8 C 0.5069(5) 0.6915(5) 0.5312(4) 0.0572(10) Uani 1 1 d .
C9 C 0.4682(5) 0.8100(4) 0.4224(3) 0.0519(9) Uani 1 1 d .
C10 C 0.5902(5) 0.9115(5) 0.3811(3) 0.0506(9) Uani 1 1 d .
C11 C 0.7408(5) 0.8926(4) 0.4485(3) 0.0506(9) Uani 1 1 d .
C12 C 0.3014(6) 0.8296(6) 0.3485(4) 0.0919(15) Uani 1 1 d .
H12A H 0.2092 0.7805 0.3989 0.138 Uiso 1 1 calc R
H12B H 0.3396 0.7767 0.2906 0.138 Uiso 1 1 calc R
H12C H 0.2495 0.9441 0.3089 0.138 Uiso 1 1 calc R
N1 N 0.7780(4) 0.7767(3) 0.5533(2) 0.0507(7) Uani 1 1 d .
O1 O 0.0424(4) 0.7855(3) 0.6742(2) 0.0537(6) Uani 1 1 d .
Cl1 Cl 0.12723(13) 0.44496(12) 0.67202(8) 0.0598(3) Uani 1 1 d .
Cl2 Cl 0.30288(14) 0.18438(11) 0.90896(9) 0.0686(3) Uani 1 1 d .
Cl3 Cl 0.35693(13) 0.29155(12) 1.12172(8) 0.0633(3) Uani 1 1 d .
Cl4 Cl 0.24580(12) 0.66298(12) 1.09406(7) 0.0579(3) Uani 1 1 d .
Cl5 Cl 0.07913(13) 0.92079(10) 0.85595(8) 0.0585(3) Uani 1 1 d .
H1 H -0.059(7) 0.780(6) 0.639(4) 0.124(19) Uiso 1 1 d .
H7 H 0.695(4) 0.597(4) 0.668(3) 0.057(10) Uiso 1 1 d .
H8 H 0.433(5) 0.617(4) 0.568(3) 0.073(12) Uiso 1 1 d .
H10 H 0.567(4) 0.994(4) 0.313(3) 0.045(10) Uiso 1 1 d .
H11 H 0.824(4) 0.957(4) 0.424(2) 0.041(9) Uiso 1 1 d .
loop_
_atom_site_aniso_label
_atom_site_aniso_U_11
_atom_site_aniso_U_22
_atom_site_aniso_U_33
_atom_site_aniso_U_23
_atom_site_aniso_U_13
_atom_site_aniso_U_12
C1 0.0369(18) 0.046(2) 0.043(2) -0.0147(18) 0.0022(16) -0.0172(15)
C2 0.0381(17) 0.0447(19) 0.049(2) -0.0248(17) 0.0065(16) -0.0168(15)
C3 0.0348(17) 0.0373(18) 0.061(2) -0.0181(17) 0.0064(16) -0.0137(14)
C4 0.0334(17) 0.046(2) 0.0466(19) -0.0113(16) 0.0030(15) -0.0130(15)
C5 0.0337(17) 0.053(2) 0.0432(19) -0.0197(17) 0.0056(15) -0.0214(16)
C6 0.0340(17) 0.0413(18) 0.050(2) -0.0201(16) 0.0080(15) -0.0173(14)
C7 0.069(3) 0.052(2) 0.046(2) -0.013(2) -0.001(2) -0.017(2)
C8 0.055(2) 0.057(2) 0.067(3) -0.025(2) 0.012(2) -0.025(2)
C9 0.048(2) 0.053(2) 0.063(2) -0.034(2) -0.0047(19) -0.0023(18)
C10 0.056(2) 0.046(2) 0.043(2) -0.0133(19) -0.0043(19) -0.0017(19)
C11 0.051(2) 0.048(2) 0.057(2) -0.0191(19) 0.006(2) -0.0171(19)
C12 0.063(3) 0.107(4) 0.115(4) -0.050(3) -0.030(3) -0.011(2)
N1 0.0576(19) 0.0523(18) 0.0461(17) -0.0167(16) -0.0022(15) -0.0187(15)
O1 0.0664(17) 0.0485(15) 0.0479(15) -0.0095(12) -0.0104(13) -0.0234(13)
Cl1 0.0687(6) 0.0658(6) 0.0613(6) -0.0394(5) 0.0060(5) -0.0206(5)
Cl2 0.0736(7) 0.0423(5) 0.0915(8) -0.0256(5) -0.0021(6) -0.0109(5)
Cl3 0.0578(6) 0.0639(6) 0.0557(6) -0.0037(5) -0.0059(5) -0.0133(5)
Cl4 0.0612(6) 0.0757(7) 0.0487(5) -0.0304(5) -0.0005(4) -0.0237(5)
Cl5 0.0725(6) 0.0434(5) 0.0672(6) -0.0243(4) -0.0069(5) -0.0168(4)
loop_
_atom_type_symbol
_atom_type_description
_atom_type_scat_dispersion_real
_atom_type_scat_dispersion_imag
_atom_type_scat_source
C C 0.0033 0.0016 'International Tables Vol C Tables 4.2.6.8 and 6.1.1.4'
H H 0.0000 0.0000 'International Tables Vol C Tables 4.2.6.8 and 6.1.1.4'
N N 0.0061 0.0033 'International Tables Vol C Tables 4.2.6.8 and 6.1.1.4'
O O 0.0106 0.0060 'International Tables Vol C Tables 4.2.6.8 and 6.1.1.4'
Cl Cl 0.1484 0.1585 'International Tables Vol C Tables 4.2.6.8 and 6.1.1.4'
loop_
_geom_angle_atom_site_label_1
_geom_angle_atom_site_label_2
_geom_angle_atom_site_label_3
_geom_angle
O1 C1 C2 123.7(3)
O1 C1 C6 119.8(3)
C2 C1 C6 116.5(3)
C3 C2 C1 122.2(3)
C3 C2 Cl1 120.0(2)
C1 C2 Cl1 117.7(2)
C2 C3 C4 120.2(3)
C2 C3 Cl2 120.6(3)
C4 C3 Cl2 119.2(3)
C3 C4 C5 119.0(3)
C3 C4 Cl3 120.6(3)
C5 C4 Cl3 120.4(3)
C6 C5 C4 120.1(3)
C6 C5 Cl4 120.0(2)
C4 C5 Cl4 119.9(2)
C5 C6 C1 121.9(3)
C5 C6 Cl5 119.9(2)
C1 C6 Cl5 118.1(2)
N1 C7 C8 122.5(4)
C9 C8 C7 120.2(4)
C8 C9 C10 116.8(3)
C8 C9 C12 122.5(4)
C10 C9 C12 120.7(4)
C11 C10 C9 120.2(3)
N1 C11 C10 122.6(4)
C11 N1 C7 117.8(3)
loop_
_geom_bond_atom_site_label_1
_geom_bond_atom_site_label_2
_geom_bond_distance
C1 O1 1.312(4)
C1 C2 1.398(4)
C1 C6 1.407(4)
C2 C3 1.382(4)
C2 Cl1 1.726(3)
C3 C4 1.389(4)
C3 Cl2 1.719(3)
C4 C5 1.395(4)
C4 Cl3 1.722(3)
C5 C6 1.383(4)
C5 Cl4 1.722(3)
C6 Cl5 1.716(3)
C7 N1 1.327(4)
C7 C8 1.371(5)
C8 C9 1.366(5)
C9 C10 1.374(5)
C9 C12 1.512(5)
C10 C11 1.367(5)
C11 N1 1.322(4)
