#------------------------------------------------------------------------------
#$Date: 2017-07-22 07:07:55 +0300 (Sat, 22 Jul 2017) $
#$Revision: 198912 $
#$URL: file:///home/coder/svn-repositories/cod/cif/1/54/65/1546586.cif $
#------------------------------------------------------------------------------
#
# This file is available in the Crystallography Open Database (COD),
# http://www.crystallography.net/
#
# All data on this site have been placed in the public domain by the
# contributors.
#
data_1546586
loop_
_publ_author_name
'Kuwar, Anil'
'Torawane, Pritam D.'
'Keshav, Karunesh'
'Kumawat, Mukesh Kumar'
'Srivastava, Rohit'
'thangaraj, anand'
'Sahoo, Suban K.'
'Borse, Amulrao Uttamrao'
_publ_section_title
;
 A novel terephthalaldehyde based turn-on fluorescent chemosensor for Cu2+
 and its application in living cells imaging
;
_journal_name_full               'Photochem. Photobiol. Sci.'
_journal_paper_doi               10.1039/C7PP00182G
_journal_year                    2017
_chemical_formula_moiety         'C20 H16 N4 O2'
_chemical_formula_sum            'C20 H16 N4 O2'
_chemical_formula_weight         344.372
_space_group_crystal_system      monoclinic
_space_group_IT_number           14
_space_group_name_Hall           '-P 2ybc'
_space_group_name_H-M_alt        'P 1 21/c 1'
_symmetry_space_group_name_Hall  '-P 2ybc'
_symmetry_space_group_name_H-M   'P 1 21/c 1'
_atom_sites_solution_hydrogens   geom
_audit_creation_method           SHELXL-2016/4
_audit_update_record
;
2016-12-23 deposited with the CCDC.
2017-07-21 downloaded from the CCDC.
;
_cell_angle_alpha                90.000(5)
_cell_angle_beta                 91.525(5)
_cell_angle_gamma                90.000(5)
_cell_formula_units_Z            2
_cell_length_a                   8.473(5)
_cell_length_b                   5.922(5)
_cell_length_c                   15.324(5)
_cell_measurement_reflns_used    4646
_cell_measurement_temperature    293(2)
_cell_measurement_theta_max      0.915
_cell_measurement_theta_min      0.881
_cell_volume                     768.6(8)
_computing_structure_refinement  'SHELXL-2016/4 (Sheldrick, 2016)'
_computing_structure_solution    'SHELXT 2014/4 (Sheldrick, 2014)'
_diffrn_ambient_temperature      293(2)
_diffrn_measured_fraction_theta_full 0.996
_diffrn_measured_fraction_theta_max 0.987
_diffrn_measurement_device_type  'CCD area detector'
_diffrn_radiation_monochromator  graphite
_diffrn_radiation_source         'fine-focus sealed tube'
_diffrn_radiation_type           'Cu K\a'
_diffrn_radiation_wavelength     1.54184
_diffrn_reflns_av_R_equivalents  0.0622
_diffrn_reflns_av_unetI/netI     0.0495
_diffrn_reflns_Laue_measured_fraction_full 0.996
_diffrn_reflns_Laue_measured_fraction_max 0.987
_diffrn_reflns_limit_h_max       10
_diffrn_reflns_limit_h_min       -10
_diffrn_reflns_limit_k_max       7
_diffrn_reflns_limit_k_min       -5
_diffrn_reflns_limit_l_max       18
_diffrn_reflns_limit_l_min       -18
_diffrn_reflns_number            4635
_diffrn_reflns_point_group_measured_fraction_full 0.996
_diffrn_reflns_point_group_measured_fraction_max 0.987
_diffrn_reflns_theta_full        72.83
_diffrn_reflns_theta_max         72.83
_diffrn_reflns_theta_min         5.22
_exptl_absorpt_coefficient_mu    0.759
_exptl_absorpt_correction_type   multi-scan
_exptl_crystal_colour            Yellow
_exptl_crystal_density_diffrn    1.367
_exptl_crystal_description       block
_exptl_crystal_F_000             332
_exptl_crystal_size_max          0.16
_exptl_crystal_size_mid          0.13
_exptl_crystal_size_min          0.11
_exptl_transmission_factor_max   0.915
_exptl_transmission_factor_min   0.881
_refine_diff_density_max         0.481
_refine_diff_density_min         -0.525
_refine_diff_density_rms         0.147
_refine_ls_extinction_method     none
_refine_ls_goodness_of_fit_ref   1.256
_refine_ls_hydrogen_treatment    constr
_refine_ls_matrix_type           full
_refine_ls_number_parameters     110
_refine_ls_number_reflns         1492
_refine_ls_number_restraints     0
_refine_ls_restrained_S_all      1.256
_refine_ls_R_factor_all          0.0861
_refine_ls_R_factor_gt           0.0619
_refine_ls_shift/su_max          0.014
_refine_ls_shift/su_mean         0.002
_refine_ls_structure_factor_coef Fsqd
_refine_ls_weighting_details
'w=1/[\s^2^(Fo^2^)+(0.1000P)^2^+0.5513P] where P=(Fo^2^+2Fc^2^)/3'
_refine_ls_weighting_scheme      calc
_refine_ls_wR_factor_gt          0.1570
_refine_ls_wR_factor_ref         0.2223
_reflns_Friedel_coverage         0.000
_reflns_number_gt                1253
_reflns_number_total             1492
_reflns_threshold_expression     'I > 2\s(I)'
_cod_data_source_file            c7pp00182g2.cif
_cod_data_source_block           Kuwar
_cod_database_code               1546586
_shelx_shelxl_version_number     2016/4
_shelx_space_group_comment
;
The symmetry employed for this shelxl refinement is uniquely defined
by the following loop, which should always be used as a source of
symmetry information in preference to the above space-group names.
They are only intended as comments.
;
_shelx_res_file
;
TITL    mr-kv-k_cu_a.res in P2(1)/c
 mr-kv-k_cu.res created by SHELXL-2016/4 at 17:43:22 on 22-Nov-2016
CELL   0.71073      8.473    5.922   15.324   90.000   91.525   90.000
ZERR         4      0.005    0.005    0.005    0.005    0.005    0.005
LATT 1
SYMM -X, 0.50000+Y, 0.50000-Z
SFAC C  H  N  O
UNIT 24  36  8  4
MERG 2
OMIT -2 52
L.S. 4
ACTA
FMAP 2
PLAN 66
WGHT    0.100000    0.551290
FVAR       1.43843
C1    1    0.549649    0.069577    0.635387    11.00000    0.02809    0.03021 =
         0.02553   -0.00176    0.00198   -0.00250
C6    1    0.649171    0.255732    0.622727    11.00000    0.03189    0.03082 =
         0.02763    0.00219   -0.00235   -0.00344
C5    1    0.793932    0.272024    0.665764    11.00000    0.03265    0.04268 =
         0.03227    0.00289   -0.00603   -0.01127
AFIX  43
H5    2    0.858327    0.397062    0.657691    11.00000   -1.20000
AFIX   0
C10   1   -0.032504    0.199610    0.455905    11.00000    0.02956    0.02988 =
         0.03769    0.00027    0.00198   -0.00526
AFIX  43
H10   2   -0.054268    0.333542    0.426267    11.00000   -1.20000
AFIX   0
N2    3    0.404114    0.089126    0.589649    11.00000    0.02567    0.03241 =
         0.02908   -0.00098    0.00004   -0.00442
C9    1    0.112636    0.170490    0.497663    11.00000    0.02853    0.03071 =
         0.03789   -0.00234    0.00380   -0.00892
AFIX  43
H9    2    0.187592    0.285019    0.495979    11.00000   -1.20000
AFIX   0
C11   1    0.299610   -0.064005    0.587895    11.00000    0.02942    0.03122 =
         0.03259   -0.00064    0.00227   -0.00308
AFIX  43
H11   2    0.319758   -0.200586    0.615998    11.00000   -1.20000
AFIX   0
C4    1    0.841559    0.098675    0.721218    11.00000    0.03291    0.05376 =
         0.03227    0.00024   -0.00655    0.00022
AFIX  43
H4    2    0.940129    0.105965    0.749256    11.00000   -1.20000
AFIX   0
O1    4    0.599879    0.421144    0.567141    11.00000    0.03888    0.03829 =
         0.04903    0.01507   -0.01555   -0.01277
AFIX 147
H1    2    0.511316    0.390774    0.547687    11.00000   -1.50000
AFIX   0
C3    1    0.744676   -0.085230    0.735535    11.00000    0.03779    0.03930 =
         0.03814    0.00876   -0.00042    0.00474
AFIX  43
H3    2    0.776868   -0.198118    0.774262    11.00000   -1.20000
AFIX   0
C8    1    0.147514   -0.028897    0.542220    11.00000    0.02634    0.03103 =
         0.03114   -0.00335    0.00339   -0.00398
C2    1    0.599983   -0.100541    0.692101    11.00000    0.03588    0.03244 =
         0.03539    0.00495    0.00434   -0.00262
AFIX  43
H2    2    0.535867   -0.225518    0.700883    11.00000   -1.20000
AFIX   0
HKLF      4




REM     mr-kv-k_cu_a.res in P2(1)/c
REM R1 =  0.0619 for    1253 Fo > 4sig(Fo)  and  0.0861 for all    1492 data
REM    110 parameters refined using      0 restraints

END

WGHT      0.1502      0.0298

REM Highest difference peak  0.481,  deepest hole -0.525,  1-sigma level  0.147
Q1    1  -0.0858  0.3469  0.3897  11.00000  0.05    0.48
Q2    1   0.4139 -0.1227  0.5459  11.00000  0.05    0.41
Q3    1   0.3919 -0.0789  0.5539  11.00000  0.05    0.41
Q4    1   0.3380  0.0835  0.6190  11.00000  0.05    0.41
Q5    1   0.9937 -0.0997  0.7583  11.00000  0.05    0.39
Q6    1   0.3821  0.1921  0.5877  11.00000  0.05    0.37
Q7    1   0.3826  0.2382  0.6173  11.00000  0.05    0.37
Q8    1   0.1380  0.1025  0.5410  11.00000  0.05    0.32
Q9    1   0.5057  0.2398  0.4544  11.00000  0.05    0.31
Q10   1   0.7796 -0.0816  0.7188  11.00000  0.05    0.30
Q11   1   0.1657  0.3126  0.5205  11.00000  0.05    0.29
Q12   1   1.0733 -0.0423  0.6816  11.00000  0.05    0.29
Q13   1   0.3469 -0.4416  0.6294  11.00000  0.05    0.28
Q14   1   0.7037 -0.1460  0.6874  11.00000  0.05    0.27
Q15   1   0.3248 -0.3417  0.6959  11.00000  0.05    0.26
Q16   1   0.2555 -0.3145  0.6829  11.00000  0.05    0.26
Q17   1   0.3291 -0.1715  0.7161  11.00000  0.05    0.24
Q18   1   0.9225 -0.3402  0.8387  11.00000  0.05    0.23
Q19   1   0.6667 -0.4701  0.7778  11.00000  0.05    0.22
Q20   1   0.7640  0.3950  0.6830  11.00000  0.05    0.20
Q21   1   0.7551  0.0726  0.7819  11.00000  0.05    0.20
Q22   1   0.7116  0.4590  0.7654  11.00000  0.05    0.19
Q23   1   0.5669  0.5954  0.5376  11.00000  0.05    0.18
Q24   1   0.4805  0.4996  0.5020  11.00000  0.05    0.16
Q25   1   0.5885 -0.0773  0.6541  11.00000  0.05    0.15
Q26   1   0.2748 -0.1493  0.5065  11.00000  0.05    0.12
Q27   1   0.7822  0.1810  0.5722  11.00000  0.05    0.11
Q28   1   0.2112 -0.0977  0.4603  11.00000  0.05    0.10
Q29   1   0.5271  0.4713  0.5823  11.00000  0.05    0.09
Q30   1   0.6780  0.0762  0.5647  11.00000  0.05    0.07
Q31   1   0.8043  0.2283  0.6812  11.00000  0.05    0.07
Q32   1   0.5331  0.2526  0.6893  11.00000  0.05    0.02
;
_shelx_res_checksum              12371
loop_
_space_group_symop_operation_xyz
'x, y, z'
'-x, y+1/2, -z+1/2'
'-x, -y, -z'
'x, -y-1/2, z-1/2'
loop_
_atom_site_label
_atom_site_type_symbol
_atom_site_fract_x
_atom_site_fract_y
_atom_site_fract_z
_atom_site_U_iso_or_equiv
_atom_site_adp_type
_atom_site_occupancy
_atom_site_site_symmetry_order
_atom_site_calc_flag
_atom_site_refinement_flags_posn
_atom_site_refinement_flags_adp
C1 C 0.5496(3) 0.0696(4) 0.63539(16) 0.0279(6) Uani 1 1 d . .
C6 C 0.6492(3) 0.2557(4) 0.62273(16) 0.0302(6) Uani 1 1 d . .
C5 C 0.7939(3) 0.2720(5) 0.66576(17) 0.0360(7) Uani 1 1 d . .
H5 H 0.858327 0.397062 0.657691 0.043 Uiso 1 1 calc R U
C10 C -0.0325(3) 0.1996(4) 0.45591(17) 0.0324(6) Uani 1 1 d . .
H10 H -0.054268 0.333542 0.426267 0.039 Uiso 1 1 calc R U
N2 N 0.4041(2) 0.0891(4) 0.58965(13) 0.0291(6) Uani 1 1 d . .
C9 C 0.1126(3) 0.1705(5) 0.49766(17) 0.0323(6) Uani 1 1 d . .
H9 H 0.187592 0.285019 0.495979 0.039 Uiso 1 1 calc R U
C11 C 0.2996(3) -0.0640(4) 0.58789(17) 0.0311(6) Uani 1 1 d . .
H11 H 0.319758 -0.200586 0.615998 0.037 Uiso 1 1 calc R U
C4 C 0.8416(3) 0.0987(5) 0.72122(18) 0.0398(7) Uani 1 1 d . .
H4 H 0.940129 0.105965 0.749256 0.048 Uiso 1 1 calc R U
O1 O 0.5999(2) 0.4211(3) 0.56714(14) 0.0424(6) Uani 1 1 d . .
H1 H 0.511316 0.390774 0.547687 0.064 Uiso 1 1 calc R U
C3 C 0.7447(3) -0.0852(5) 0.73553(19) 0.0384(7) Uani 1 1 d . .
H3 H 0.776868 -0.198118 0.774262 0.046 Uiso 1 1 calc R U
C8 C 0.1475(3) -0.0289(5) 0.54222(16) 0.0295(6) Uani 1 1 d . .
C2 C 0.6000(3) -0.1005(5) 0.69210(17) 0.0345(7) Uani 1 1 d . .
H2 H 0.535867 -0.225518 0.700883 0.041 Uiso 1 1 calc R U
loop_
_atom_site_aniso_label
_atom_site_aniso_U_11
_atom_site_aniso_U_22
_atom_site_aniso_U_33
_atom_site_aniso_U_23
_atom_site_aniso_U_13
_atom_site_aniso_U_12
C1 0.0281(12) 0.0302(13) 0.0255(12) -0.0018(9) 0.0020(9) -0.0025(10)
C6 0.0319(13) 0.0308(13) 0.0276(12) 0.0022(9) -0.0024(10) -0.0034(10)
C5 0.0326(13) 0.0427(16) 0.0323(13) 0.0029(11) -0.0060(10) -0.0113(11)
C10 0.0296(13) 0.0299(13) 0.0377(13) 0.0003(11) 0.0020(10) -0.0053(10)
N2 0.0257(11) 0.0324(12) 0.0291(11) -0.0010(8) 0.0000(8) -0.0044(8)
C9 0.0285(12) 0.0307(14) 0.0379(14) -0.0023(11) 0.0038(10) -0.0089(10)
C11 0.0294(13) 0.0312(14) 0.0326(13) -0.0006(10) 0.0023(10) -0.0031(10)
C4 0.0329(13) 0.0538(18) 0.0323(14) 0.0002(12) -0.0066(11) 0.0002(12)
O1 0.0389(11) 0.0383(12) 0.0490(12) 0.0151(9) -0.0156(9) -0.0128(8)
C3 0.0378(14) 0.0393(16) 0.0381(15) 0.0088(11) -0.0004(11) 0.0047(12)
C8 0.0263(12) 0.0310(13) 0.0311(12) -0.0033(10) 0.0034(9) -0.0040(10)
C2 0.0359(14) 0.0324(14) 0.0354(14) 0.0049(11) 0.0043(11) -0.0026(11)
loop_
_atom_type_symbol
_atom_type_description
_atom_type_scat_dispersion_real
_atom_type_scat_dispersion_imag
_atom_type_scat_source
C C 0.0033 0.0016 'International Tables Vol C Tables 4.2.6.8 and 6.1.1.4'
H H 0.0000 0.0000 'International Tables Vol C Tables 4.2.6.8 and 6.1.1.4'
N N 0.0061 0.0033 'International Tables Vol C Tables 4.2.6.8 and 6.1.1.4'
O O 0.0106 0.0060 'International Tables Vol C Tables 4.2.6.8 and 6.1.1.4'
loop_
_geom_angle_atom_site_label_1
_geom_angle_atom_site_label_2
_geom_angle_atom_site_label_3
_geom_angle
_geom_angle_site_symmetry_1
_geom_angle_site_symmetry_3
C2 C1 C6 118.7(2) . .
C2 C1 N2 128.4(2) . .
C6 C1 N2 112.8(2) . .
O1 C6 C5 120.3(2) . .
O1 C6 C1 118.5(2) . .
C5 C6 C1 121.2(2) . .
C6 C5 C4 118.8(3) . .
C9 C10 C8 120.7(3) . 3_556
C11 N2 C1 123.7(2) . .
C10 C9 C8 120.5(2) . .
N2 C11 C8 120.9(2) . .
C3 C4 C5 121.0(2) . .
C2 C3 C4 119.8(3) . .
C9 C8 C10 118.8(2) . 3_556
C9 C8 C11 121.8(2) . .
C10 C8 C11 119.3(2) 3_556 .
C3 C2 C1 120.5(2) . .
loop_
_geom_bond_atom_site_label_1
_geom_bond_atom_site_label_2
_geom_bond_distance
_geom_bond_site_symmetry_2
C1 C2 1.390(4) .
C1 C6 1.405(4) .
C1 N2 1.407(3) .
C6 O1 1.357(3) .
C6 C5 1.380(4) .
C5 C4 1.386(4) .
C10 C9 1.382(4) .
C10 C8 1.405(4) 3_556
N2 C11 1.267(3) .
C9 C8 1.392(4) .
C11 C8 1.465(4) .
C4 C3 1.385(4) .
C3 C2 1.382(4) .
C8 C10 1.405(4) 3_556
