#------------------------------------------------------------------------------
#$Date: 2017-10-10 04:47:24 +0300 (Tue, 10 Oct 2017) $
#$Revision: 201870 $
#$URL: file:///home/coder/svn-repositories/cod/cif/1/54/76/1547646.cif $
#------------------------------------------------------------------------------
#
# This file is available in the Crystallography Open Database (COD),
# http://www.crystallography.net/
#
# All data on this site have been placed in the public domain by the
# contributors.
#
data_1547646
loop_
_publ_author_name
'Chai, Zhaofei'
'Wang, Can'
'Wang, Jinfeng'
'Liu, Fan'
'Xie, Yujun'
'Zhang, Yongzheng'
'Li, Jian-Rong Jeff'
'Li, Qianqian'
'Li, Zhen'
_publ_section_title
;
 Abnormal Room Temperature Phosphorescence of Purely Organic
 Boron-Containing Compounds: the Relationship between the Emissive
 Behavior and the Molecular Packing, and the Potential Related
 Applications
;
_journal_name_full               'Chem. Sci.'
_journal_paper_doi               10.1039/C7SC04098A
_journal_year                    2017
_chemical_formula_sum            'C7 H9 B O3'
_chemical_formula_weight         151.95
_chemical_name_systematic
; 
 ? 
;
_space_group_IT_number           14
_symmetry_cell_setting           monoclinic
_symmetry_space_group_name_Hall  '-P 2yn'
_symmetry_space_group_name_H-M   'P 1 21/n 1'
_atom_sites_solution_hydrogens   geom
_atom_sites_solution_primary     direct
_atom_sites_solution_secondary   difmap
_audit_creation_method           SHELXL-97
_audit_update_record
;
2017-05-02 deposited with the CCDC.
2017-10-09 downloaded from the CCDC.
;
_cell_angle_alpha                90.00
_cell_angle_beta                 111.069(2)
_cell_angle_gamma                90.00
_cell_formula_units_Z            4
_cell_length_a                   11.2586(15)
_cell_length_b                   5.0616(7)
_cell_length_c                   13.8819(18)
_cell_measurement_reflns_used    59
_cell_measurement_temperature    296(2)
_cell_measurement_theta_max      20
_cell_measurement_theta_min      7.5
_cell_volume                     738.20(17)
_computing_cell_refinement       'Bruker SMART'
_computing_data_collection       'Bruker SMART'
_computing_data_reduction        'Bruker SAINT'
_computing_molecular_graphics    'Bruker SHELXTL'
_computing_publication_material  'Bruker SHELXTL'
_computing_structure_refinement  'SHELXL-97 (Sheldrick, 1997)'
_computing_structure_solution    'SHELXS-97 (Sheldrick, 1990)'
_diffrn_ambient_temperature      296(2)
_diffrn_measured_fraction_theta_full 0.998
_diffrn_measured_fraction_theta_max 0.998
_diffrn_measurement_device_type  bruker
_diffrn_radiation_monochromator  graphite
_diffrn_radiation_source         'fine-focus sealed tube'
_diffrn_radiation_type           MoK\a
_diffrn_radiation_wavelength     0.71073
_diffrn_reflns_av_R_equivalents  0.0181
_diffrn_reflns_av_sigmaI/netI    0.0180
_diffrn_reflns_limit_h_max       14
_diffrn_reflns_limit_h_min       -13
_diffrn_reflns_limit_k_max       6
_diffrn_reflns_limit_k_min       -6
_diffrn_reflns_limit_l_max       17
_diffrn_reflns_limit_l_min       -15
_diffrn_reflns_number            4509
_diffrn_reflns_theta_full        26.49
_diffrn_reflns_theta_max         26.49
_diffrn_reflns_theta_min         2.01
_exptl_absorpt_coefficient_mu    0.103
_exptl_absorpt_correction_T_max  0.9737
_exptl_absorpt_correction_T_min  0.9697
_exptl_absorpt_correction_type   multi-scan
_exptl_absorpt_process_details   SADABS
_exptl_crystal_colour            colourless
_exptl_crystal_density_diffrn    1.367
_exptl_crystal_density_method    'not measured'
_exptl_crystal_description       block
_exptl_crystal_F_000             320
_exptl_crystal_size_max          0.30
_exptl_crystal_size_mid          0.28
_exptl_crystal_size_min          0.26
_refine_diff_density_max         0.261
_refine_diff_density_min         -0.132
_refine_diff_density_rms         0.032
_refine_ls_extinction_coef       0.086(8)
_refine_ls_extinction_expression Fc^*^=kFc[1+0.001xFc^2^\l^3^/sin(2\q)]^-1/4^
_refine_ls_extinction_method     SHELXL
_refine_ls_goodness_of_fit_ref   1.004
_refine_ls_hydrogen_treatment    constr
_refine_ls_matrix_type           full
_refine_ls_number_parameters     104
_refine_ls_number_reflns         1524
_refine_ls_number_restraints     0
_refine_ls_restrained_S_all      1.004
_refine_ls_R_factor_all          0.0379
_refine_ls_R_factor_gt           0.0341
_refine_ls_shift/su_max          0.000
_refine_ls_shift/su_mean         0.000
_refine_ls_structure_factor_coef Fsqd
_refine_ls_weighting_details
'calc w=1/[\s^2^(Fo^2^)+(0.0450P)^2^+0.2149P] where P=(Fo^2^+2Fc^2^)/3'
_refine_ls_weighting_scheme      calc
_refine_ls_wR_factor_gt          0.0886
_refine_ls_wR_factor_ref         0.0917
_reflns_number_gt                1359
_reflns_number_total             1524
_reflns_threshold_expression     >2sigma(I)
_cod_data_source_file            c7sc04098a5.cif
_cod_data_source_block           190920czp_0m
_cod_depositor_comments
;
The following automatic conversions were performed:

'_symmetry_cell_setting' value 'Monoclinic' changed to 'monoclinic'
according to
/home/data/users/saulius/crontab/automatic-downloads/rss-feeds/RSC/lib/dictionaries/cif_core.dic
dictionary named 'cif_core.dic' version 2.4.2 from 2011-04-26.

Automatic conversion script
Id: cif_fix_values 4973 2017-02-22 13:04:09Z antanas 
;
_cod_original_sg_symbol_H-M      P2(1)/n
_cod_database_code               1547646
loop_
_symmetry_equiv_pos_as_xyz
'x, y, z'
'-x+1/2, y+1/2, -z+1/2'
'-x, -y, -z'
'x-1/2, -y-1/2, z-1/2'
loop_
_atom_site_label
_atom_site_type_symbol
_atom_site_fract_x
_atom_site_fract_y
_atom_site_fract_z
_atom_site_U_iso_or_equiv
_atom_site_adp_type
_atom_site_occupancy
_atom_site_symmetry_multiplicity
_atom_site_calc_flag
_atom_site_refinement_flags
B1 B 0.79639(12) -0.0643(3) 0.40880(9) 0.0307(3) Uani 1 1 d .
C1 C 0.84249(10) -0.0291(2) 0.52843(8) 0.0294(3) Uani 1 1 d .
C2 C 0.80007(12) 0.1758(2) 0.57480(9) 0.0352(3) Uani 1 1 d .
H2 H 0.7429 0.2978 0.5330 0.042 Uiso 1 1 calc R
C3 C 0.84008(12) 0.2046(2) 0.68124(9) 0.0374(3) Uani 1 1 d .
H3 H 0.8085 0.3411 0.7100 0.045 Uiso 1 1 calc R
C4 C 0.92755(11) 0.0274(2) 0.74397(8) 0.0331(3) Uani 1 1 d .
C5 C 0.97235(11) -0.1784(2) 0.70021(9) 0.0361(3) Uani 1 1 d .
H5 H 1.0311 -0.2976 0.7423 0.043 Uiso 1 1 calc R
C6 C 0.92972(11) -0.2057(2) 0.59457(9) 0.0331(3) Uani 1 1 d .
H6 H 0.9598 -0.3456 0.5663 0.040 Uiso 1 1 calc R
C7 C 0.93240(17) 0.2491(3) 0.89691(10) 0.0544(4) Uani 1 1 d .
H7A H 0.9565 0.4144 0.8754 0.082 Uiso 1 1 calc R
H7B H 0.9707 0.2337 0.9706 0.082 Uiso 1 1 calc R
H7C H 0.8415 0.2416 0.8766 0.082 Uiso 1 1 calc R
O1 O 0.97474(10) 0.0374(2) 0.84963(6) 0.0470(3) Uani 1 1 d .
O2 O 0.80626(9) -0.30584(16) 0.36986(6) 0.0406(3) Uani 1 1 d .
H2A H 0.7910 -0.2933 0.3077 0.061 Uiso 1 1 calc R
O3 O 0.74395(9) 0.13751(17) 0.34118(6) 0.0395(3) Uani 1 1 d .
H3A H 0.7537 0.2773 0.3730 0.059 Uiso 1 1 calc R
loop_
_atom_site_aniso_label
_atom_site_aniso_U_11
_atom_site_aniso_U_22
_atom_site_aniso_U_33
_atom_site_aniso_U_23
_atom_site_aniso_U_13
_atom_site_aniso_U_12
B1 0.0376(6) 0.0283(6) 0.0256(6) -0.0007(5) 0.0105(5) -0.0042(5)
C1 0.0366(6) 0.0268(6) 0.0248(5) 0.0000(4) 0.0113(4) -0.0044(4)
C2 0.0458(6) 0.0297(6) 0.0281(6) 0.0024(4) 0.0109(5) 0.0039(5)
C3 0.0516(7) 0.0312(6) 0.0306(6) -0.0031(5) 0.0162(5) 0.0041(5)
C4 0.0407(6) 0.0359(6) 0.0217(5) -0.0013(4) 0.0100(4) -0.0044(5)
C5 0.0388(6) 0.0372(7) 0.0290(6) 0.0035(5) 0.0081(5) 0.0058(5)
C6 0.0397(6) 0.0307(6) 0.0298(6) -0.0021(4) 0.0136(5) 0.0018(5)
C7 0.0843(11) 0.0508(8) 0.0267(6) -0.0083(6) 0.0182(7) 0.0030(8)
O1 0.0631(6) 0.0509(6) 0.0221(4) -0.0026(4) 0.0093(4) 0.0075(5)
O2 0.0674(6) 0.0279(5) 0.0235(4) -0.0010(3) 0.0128(4) 0.0008(4)
O3 0.0622(6) 0.0295(5) 0.0236(4) 0.0005(3) 0.0113(4) 0.0036(4)
loop_
_atom_type_symbol
_atom_type_description
_atom_type_scat_dispersion_real
_atom_type_scat_dispersion_imag
_atom_type_scat_source
C C 0.0033 0.0016 'International Tables Vol C Tables 4.2.6.8 and 6.1.1.4'
H H 0.0000 0.0000 'International Tables Vol C Tables 4.2.6.8 and 6.1.1.4'
B B 0.0013 0.0007 'International Tables Vol C Tables 4.2.6.8 and 6.1.1.4'
O O 0.0106 0.0060 'International Tables Vol C Tables 4.2.6.8 and 6.1.1.4'
loop_
_geom_angle_atom_site_label_1
_geom_angle_atom_site_label_2
_geom_angle_atom_site_label_3
_geom_angle
O2 B1 O3 118.41(10)
O2 B1 C1 118.86(10)
O3 B1 C1 122.72(11)
C2 C1 C6 116.67(10)
C2 C1 B1 122.57(10)
C6 C1 B1 120.75(10)
C3 C2 C1 122.41(11)
C4 C3 C2 119.12(11)
O1 C4 C3 124.34(11)
O1 C4 C5 115.73(11)
C3 C4 C5 119.93(10)
C6 C5 C4 119.95(11)
C5 C6 C1 121.90(11)
C4 O1 C7 117.11(10)
loop_
_geom_bond_atom_site_label_1
_geom_bond_atom_site_label_2
_geom_bond_distance
B1 O2 1.3575(16)
B1 O3 1.3691(15)
B1 C1 1.5618(16)
C1 C2 1.3924(16)
C1 C6 1.3994(16)
C2 C3 1.3889(16)
C3 C4 1.3842(17)
C4 O1 1.3697(13)
C4 C5 1.3885(17)
C5 C6 1.3763(16)
C7 O1 1.4251(17)
loop_
_geom_torsion_atom_site_label_1
_geom_torsion_atom_site_label_2
_geom_torsion_atom_site_label_3
_geom_torsion_atom_site_label_4
_geom_torsion
O2 B1 C1 C2 -158.32(12)
O3 B1 C1 C2 20.37(18)
O2 B1 C1 C6 21.65(16)
O3 B1 C1 C6 -159.66(12)
C6 C1 C2 C3 -0.79(18)
B1 C1 C2 C3 179.18(11)
C1 C2 C3 C4 1.53(19)
C2 C3 C4 O1 179.38(11)
C2 C3 C4 C5 -1.11(18)
O1 C4 C5 C6 179.56(11)
C3 C4 C5 C6 0.01(18)
C4 C5 C6 C1 0.75(19)
C2 C1 C6 C5 -0.36(17)
B1 C1 C6 C5 179.67(11)
C3 C4 O1 C7 -1.59(19)
C5 C4 O1 C7 178.88(12)
