#------------------------------------------------------------------------------
#$Date: 2017-10-05 10:17:18 +0300 (Thu, 05 Oct 2017) $
#$Revision: 201717 $
#$URL: file:///home/coder/svn-repositories/cod/cif/1/54/75/1547566.cif $
#------------------------------------------------------------------------------
#
# This file is available in the Crystallography Open Database (COD),
# http://www.crystallography.net/
#
# All data on this site have been placed in the public domain by the
# contributors.
#
data_1547566
loop_
_publ_author_name
'Rozen, Shlomo'
'Shaffer, Avshalom'
_publ_section_title
;
 Synthesis of N,N-Dioxopyridazines.
;
_journal_issue                   18
_journal_name_full               'Organic letters'
_journal_page_first              4707
_journal_page_last               4709
_journal_paper_doi               10.1021/acs.orglett.7b02310
_journal_volume                  19
_journal_year                    2017
_chemical_absolute_configuration unk
_chemical_formula_moiety         'C4 H4 N2 O2'
_chemical_formula_sum            'C4 H4 N2 O2'
_chemical_formula_weight         112.09
_space_group_crystal_system      monoclinic
_space_group_IT_number           7
_space_group_name_Hall           'P -2yac'
_space_group_name_H-M_alt        'P 1 n 1'
_symmetry_space_group_name_Hall  'P -2yac'
_symmetry_space_group_name_H-M   'P 1 n 1'
_atom_sites_solution_hydrogens   geom
_atom_sites_solution_primary     direct
_atom_sites_solution_secondary   difmap
_audit_creation_method           SHELXL-2014/7
_cell_angle_alpha                90
_cell_angle_beta                 97.068(5)
_cell_angle_gamma                90
_cell_formula_units_Z            2
_cell_length_a                   3.8868(3)
_cell_length_b                   5.4329(5)
_cell_length_c                   10.8693(10)
_cell_measurement_reflns_used    981
_cell_measurement_temperature    110(2)
_cell_measurement_theta_max      28.312
_cell_measurement_theta_min      3.750
_cell_volume                     227.78(3)
_computing_cell_refinement       'Saint, Bruker-AXS'
_computing_data_collection       'Apex2, Bruker-AXS'
_computing_data_reduction        'Saint, Bruker-AXS'
_computing_structure_refinement  'SHELXL-2014/7 (Sheldrick, 2014)'
_computing_structure_solution    'SHELXT-2014 (Sheldrick, 2015)'
_diffrn_ambient_temperature      110(2)
_diffrn_detector_area_resol_mean 1.75
_diffrn_measured_fraction_theta_full 0.998
_diffrn_measured_fraction_theta_max 0.995
_diffrn_measurement_device_type  'ApexDuo, Bruker-AXS'
_diffrn_measurement_method       '0.5 deg. \f and \w scans'
_diffrn_radiation_type           MoK\a
_diffrn_radiation_wavelength     0.71073
_diffrn_reflns_av_R_equivalents  0.0195
_diffrn_reflns_av_unetI/netI     0.0270
_diffrn_reflns_Laue_measured_fraction_full 0.998
_diffrn_reflns_Laue_measured_fraction_max 0.995
_diffrn_reflns_limit_h_max       5
_diffrn_reflns_limit_h_min       -5
_diffrn_reflns_limit_k_max       7
_diffrn_reflns_limit_k_min       -7
_diffrn_reflns_limit_l_max       13
_diffrn_reflns_limit_l_min       -14
_diffrn_reflns_number            2169
_diffrn_reflns_point_group_measured_fraction_full 0.942
_diffrn_reflns_point_group_measured_fraction_max 0.921
_diffrn_reflns_theta_full        25.242
_diffrn_reflns_theta_max         28.312
_diffrn_reflns_theta_min         3.750
_diffrn_source                   'ImuS micro-focus'
_exptl_absorpt_coefficient_mu    0.134
_exptl_absorpt_correction_T_max  0.995
_exptl_absorpt_correction_T_min  0.971
_exptl_absorpt_correction_type   multi-scan
_exptl_absorpt_process_details   'Sadabs, Bruker-AXS'
_exptl_crystal_colour            colorless
_exptl_crystal_density_diffrn    1.634
_exptl_crystal_description       block
_exptl_crystal_F_000             116
_exptl_crystal_size_max          0.328
_exptl_crystal_size_mid          0.184
_exptl_crystal_size_min          0.040
_refine_diff_density_max         0.158
_refine_diff_density_min         -0.188
_refine_diff_density_rms         0.040
_refine_ls_abs_structure_details
;
 Flack x determined using 427 quotients [(I+)-(I-)]/[(I+)+(I-)]
 (Parsons, Flack and Wagner, Acta Cryst. B69 (2013) 249-259).
;
_refine_ls_abs_structure_Flack   0.3(6)
_refine_ls_extinction_method     none
_refine_ls_goodness_of_fit_ref   1.092
_refine_ls_hydrogen_treatment    constr
_refine_ls_matrix_type           full
_refine_ls_number_parameters     73
_refine_ls_number_reflns         1044
_refine_ls_number_restraints     2
_refine_ls_restrained_S_all      1.091
_refine_ls_R_factor_all          0.0316
_refine_ls_R_factor_gt           0.0292
_refine_ls_shift/su_max          0.000
_refine_ls_shift/su_mean         0.000
_refine_ls_structure_factor_coef Fsqd
_refine_ls_weighting_details
'w=1/[\s^2^(Fo^2^)+(0.0357P)^2^+0.0394P] where P=(Fo^2^+2Fc^2^)/3'
_refine_ls_weighting_scheme      calc
_refine_ls_wR_factor_gt          0.0710
_refine_ls_wR_factor_ref         0.0731
_reflns_Friedel_coverage         0.841
_reflns_Friedel_fraction_full    0.886
_reflns_Friedel_fraction_max     0.847
_reflns_number_gt                981
_reflns_number_total             1044
_reflns_threshold_expression     'I > 2\s(I)'
_cod_data_source_file            ol7b02310_si_001.cif
_cod_data_source_block           N,N-dioxopyridazine
_cod_database_code               1547566
_shelx_shelxl_version_number     2014/7
_shelx_space_group_comment
;
The symmetry employed for this shelxl refinement is uniquely defined
by the following loop, which should always be used as a source of
symmetry information in preference to the above space-group names.
They are only intended as comments.
;
_shelx_estimated_absorpt_t_min   0.957
_shelx_estimated_absorpt_t_max   0.995
_shelx_res_file
;

    roz6a.res created by SHELXL-2014/7


TITL mo_roz6a_0m_a.res in Pn
REM Old TITL mo_roz6a_0m in Pn

REM SHELXT solution in Pn
REM R1 0.071,  Rweak 0.007,  Alpha 0.000,  Orientation as input
REM Flack x = -0.064 ( 0.573 ) from Parsons' quotients
REM Formula found by SHELXT:  C5 N O2

CELL  0.71073   3.8868   5.4329  10.8693   90.000   97.068   90.000
ZERR    2.000   0.0003   0.0005   0.0010    0.000    0.005    0.000
LATT -1
SYMM 1/2+X, -Y, 1/2+Z
SFAC C H N O
UNIT 8 8 4 4
TEMP -163.000
SIZE 0.040 0.184 0.328
ACTA
L.S. 10
BOND $H
LIST 6
FMAP 2
PLAN 20
WGHT    0.035700    0.039400
FVAR       2.18818
C1    1    0.519557    0.451501    0.629193    11.00000    0.01364    0.01661 =
         0.01282   -0.00212   -0.00011    0.00105
AFIX  43
H1    2    0.594588    0.585183    0.682147    11.00000   -1.20000
AFIX   0
C2    1    0.330069    0.266437    0.673339    11.00000    0.01565    0.01994 =
         0.01065    0.00208    0.00266    0.00489
AFIX  43
H2    2    0.275479    0.270887    0.756136    11.00000   -1.20000
AFIX   0
C3    1    0.218596    0.072145    0.595680    11.00000    0.01368    0.01455 =
         0.01762    0.00587    0.00357    0.00044
AFIX  43
H3    2    0.087557   -0.058504    0.624729    11.00000   -1.20000
AFIX   0
N5    3    0.488402    0.253302    0.432745    11.00000    0.01301    0.01353 =
         0.01193   -0.00107    0.00119    0.00203
O5    4    0.575753    0.260281    0.324933    11.00000    0.02605    0.02232 =
         0.00939    0.00022    0.00654    0.00225
N6    3    0.602713    0.448807    0.511976    11.00000    0.01441    0.01050 =
         0.01226    0.00046    0.00091   -0.00014
O6    4    0.783822    0.612338    0.467214    11.00000    0.02145    0.01643 =
         0.02178    0.00345    0.00547   -0.00553
C4    1    0.300420    0.071074    0.475783    11.00000    0.01521    0.01247 =
         0.01735   -0.00081    0.00150    0.00151
AFIX  43
H4    2    0.222511   -0.061142    0.422282    11.00000   -1.20000
AFIX   0
HKLF 4

REM  mo_roz6a_0m_a.res in Pn
REM R1 =  0.0292 for     981 Fo > 4sig(Fo)  and  0.0316 for all    1044 data
REM     73 parameters refined using      2 restraints

END

WGHT      0.0349      0.0403

REM Highest difference peak  0.158,  deepest hole -0.188,  1-sigma level  0.040
Q1    1   1.1073  0.6034  0.5033  11.00000  0.05    0.16
Q2    1   0.5216  0.3679  0.4711  11.00000  0.05    0.16
Q3    1   0.6300  0.4045  0.5814  11.00000  0.05    0.15
Q4    1   0.3339  0.1831  0.4512  11.00000  0.05    0.14
Q5    1   0.5870  0.3983  0.2938  11.00000  0.05    0.14
Q6    1   0.5106  0.3260  0.6629  11.00000  0.05    0.13
Q7    1   0.3349  0.0356  0.5481  11.00000  0.05    0.13
Q8    1   0.4234  0.2941  0.8329  11.00000  0.05    0.12
Q9    1   0.2899  0.2862  0.3334  11.00000  0.05    0.12
Q10   1   0.3364  0.1404  0.6410  11.00000  0.05    0.12
Q11   1   0.5206  0.0991  0.4748  11.00000  0.05    0.12
Q12   1   0.8218  0.3576  0.3517  11.00000  0.05    0.12
Q13   1   0.6133  0.0102  0.6670  11.00000  0.05    0.12
Q14   1   0.3903  0.5153  0.8107  11.00000  0.05    0.12
Q15   1   0.3497  0.3837  0.6333  11.00000  0.05    0.11
Q16   1   0.8316  0.2719  0.3042  11.00000  0.05    0.11
Q17   1  -0.1783  0.2972  0.7517  11.00000  0.05    0.11
Q18   1   0.2216  0.1906  0.6324  11.00000  0.05    0.10
Q19   1  -0.0912  0.0340  0.6212  11.00000  0.05    0.10
Q20   1  -0.0916  0.1512  0.5554  11.00000  0.05    0.10
;
_shelx_res_checksum              60305
_shelx_hkl_file
;
  -1   0   0   -0.60    0.70
  -1   0   0   -0.90    0.60
   1   0   0   -0.20    0.70
   1   0   0    0.60    0.90
   1   0   0    0.20    0.70
  -1   0   0   -0.50    0.60
   2   0   0  173.38    6.50
   2   0   0  176.98    6.80
  -2   0   0  173.98    5.30
  -2   0   0  167.88    6.50
  -3   0   0   -0.60    0.90
   3   0   0    0.30    1.40
  -3   0   0   -1.10    0.60
   3   0   0    0.60    1.20
  -4   0   0  537.45   17.70
  -4   0   0  544.75   14.60
  -5   0   0    0.30    1.60
   0  -1   0 1093.79   21.50
   0   1   0 1084.79   21.50
  -1  -1   0 5864.51  115.09
   1  -1   0 5912.21  112.19
   1  -1   0 5669.03  116.19
  -1  -1   0 5563.04  111.89
  -1  -1   0 5710.33  114.69
   1  -1   0 5956.70  112.49
  -1  -1   0 5858.61  112.09
  -1   1   0 5973.20  114.29
  -1   1   0 5870.11  112.29
   1   1   0 5886.81  112.79
   1   1   0 5920.51  112.29
   1   1   0 6081.49  115.49
   2  -1   0  551.64   14.50
  -2  -1   0  544.85   13.60
   2  -1   0  556.94   15.30
  -2   1   0  565.34   13.60
   2   1   0  549.35   14.20
   2   1   0  572.64   14.30
  -3  -1   0  478.15   13.70
   3  -1   0  468.45   14.50
   3  -1   0  438.36   15.20
   3   1   0  474.15   14.30
   3   1   0  481.65   14.40
  -3   1   0  456.35   12.80
  -3   1   0  491.85   15.60
  -4  -1   0   82.49    4.30
   4  -1   0   90.49    7.20
  -4  -1   0   88.99    5.80
  -4   1   0   80.09    4.80
  -4   1   0   82.39    8.10
  -5   1   0   34.70    5.80
   0  -2   0   16.30    1.70
   0   2   0   17.80    1.60
  -1  -2   0  450.75   11.20
   1  -2   0  471.35   11.00
  -1  -2   0  456.85   10.50
   1  -2   0  451.45   12.10
  -1  -2   0  460.35   10.30
   1   2   0  444.06   10.20
   1   2   0  456.45   10.60
   1   2   0  459.05   11.50
  -1   2   0  453.75   11.30
  -1   2   0  467.15   10.80
   2  -2   0  295.77   10.60
   2  -2   0  317.47    9.80
  -2  -2   0  324.57    8.60
   2   2   0  319.37    9.30
   2   2   0  337.47   10.00
   2   2   0  307.27    8.70
  -2   2   0  329.67    9.80
  -3  -2   0   50.59    3.40
   3  -2   0   40.80    4.40
   3  -2   0   37.90    5.00
  -3   2   0   43.90    4.20
   3   2   0   54.59    5.00
   3   2   0   45.80    4.40
  -4  -2   0    4.80    1.80
   4  -2   0    2.10    2.40
  -4   2   0    5.10    1.80
   4   2   0    3.80    2.10
  -4   2   0    0.30    1.80
   0  -3   0   88.09    3.90
  -1  -3   0  500.15   11.60
   1  -3   0  492.75   13.70
   1   3   0  493.95   13.20
   2  -3   0  283.77   10.70
  -2  -3   0  277.37    7.80
   2   3   0  266.87    9.40
  -3  -3   0  246.78    7.90
   3   3   0  252.17   10.10
   4  -3   0   12.20    3.90
  -4   3   0    5.90    3.10
   4   3   0    2.40    1.90
   0  -4   0  296.17    9.10
  -1  -4   0  355.16    9.60
   1  -4   0  363.86   11.80
  -1   4   0  366.56    8.90
   1   4   0  359.36   10.30
   1   4   0  358.46   11.50
  -2  -4   0  468.55   11.80
   2  -4   0  465.85   15.70
   2   4   0  483.25   14.70
   2   4   0  467.55   13.80
   3  -4   0    7.40    3.10
   3   4   0   12.50    2.80
   4  -4   0   11.20    3.70
   4   4   0   15.20    3.30
   0  -5   0   31.30    3.60
   1  -5   0  710.73   20.00
  -1  -5   0  719.43   17.30
   1   5   0  724.03   20.00
   2  -5   0    0.10    1.50
   2   5   0   -0.30    1.40
   3  -5   0  188.28   11.10
   3   5   0  201.08   10.10
   0  -6   0  862.01   22.50
   0   6   0  896.81   24.90
   1  -6   0  272.57   11.30
   1   6   0  249.08   11.10
   2  -6   0    0.50    2.10
   2   6   0    2.30    2.10
   0   7   0   -0.90    1.70
   1   7   0   84.19    8.20
  -4   0   1   -3.00    1.00
  -4   0   1   -0.10    0.90
   4   0  -1   -2.00    1.40
   4   0  -1    1.00    2.00
  -3   0   1  512.85   15.20
   3   0  -1  538.35   15.70
  -3   0   1  526.05   13.60
   3   0  -1  526.95   15.90
   2   0  -1   -0.70    0.80
   2   0  -1   -0.50    0.80
  -2   0   1    0.60    0.70
   1   0  -1  844.92   17.50
   1   0  -1  826.92   17.50
   1   0  -1  798.02   17.50
  -1   0   1  817.62   17.30
  -1   0   1  814.22   17.00
   0   0  -1   -5.90    0.20
   0   0   1   -6.00    0.30
   0   0   1   -6.00    0.30
   0   0  -1   -6.50    0.20
  -1   0  -1 9796.82  190.38
  -1   0  -1 9764.92  187.88
  -1   0  -1 9758.52  189.98
   1   0   1 9999.00  195.18
  -1   0  -1 9836.22  192.68
   1   0   1 9611.64  189.48
  -1   0  -1 9907.91  194.68
   1   0   1 9775.22  196.28
  -2   0  -1    0.20    0.90
   2   0   1   -1.20    0.80
  -2   0  -1   -0.10    0.50
   2   0   1   -0.50    0.90
  -3   0  -1  178.08    8.30
  -3   0  -1  193.68    6.20
  -4   0  -1   -0.20    1.50
  -4   0  -1   -1.30    0.70
  -5   0  -1   36.10    5.70
   5  -1  -1   14.40    4.20
  -5   1   1    7.50    2.90
   4  -1  -1   16.70    4.00
  -4  -1   1   16.50    3.00
  -4  -1   1    8.80    1.90
   4  -1  -1   10.30    2.90
  -4   1   1   11.20    3.20
  -4   1   1    3.90    1.60
   4   1  -1    7.60    2.60
   3  -1  -1  100.89    5.90
   3  -1  -1   97.89    6.20
  -3  -1   1   97.89    4.90
   3   1  -1  106.69    6.00
   3   1  -1  106.99    5.70
  -3   1   1  105.39    5.20
  -2  -1   1  892.71   19.80
   2  -1  -1  926.21   22.10
  -2  -1   1  915.21   20.10
   2  -1  -1  894.51   21.10
   2   1  -1  889.81   20.50
   2   1  -1  908.21   20.90
  -2   1   1  931.21   20.60
   2   1  -1  901.71   20.70
   1  -1  -1 2951.00   55.89
  -1  -1   1 2821.22   54.39
  -1  -1   1 2592.04   54.09
  -1  -1   1 2868.41   54.79
  -1  -1   1 2868.71   53.99
   1  -1  -1 2781.42   55.09
   1   1  -1 2783.02   54.89
  -1   1   1 2893.21   55.09
   1   1  -1 2870.61   54.59
  -1   1   1 2756.52   55.19
   1   1  -1 2747.63   54.79
   0  -1  -1 3034.80   59.09
   0  -1  -1 3057.09   58.89
   0  -1   1 3061.09   59.69
   0  -1  -1 3070.59   61.19
   0   1  -1 3201.38   59.19
   0   1   1 3049.09   59.09
   0   1   1 2973.70   58.79
   0   1   1 3036.30   59.09
   0   1   1 3007.70   59.29
  -1  -1  -1 6637.34  133.29
  -1  -1  -1 6518.85  131.49
   1  -1   1 7317.37  141.99
   1  -1   1 7108.99  131.49
  -1  -1  -1 7039.80  131.99
   1   1   1 6850.71  134.79
   1   1   1 6695.73  133.39
   2  -1   1 1540.85   36.30
  -2  -1  -1 1701.13   35.10
  -2   1  -1 1638.24   33.90
  -2   1  -1 1625.74   36.80
   2   1   1 1682.83   35.10
   2   1   1 1646.84   35.60
  -3  -1  -1   59.99    4.30
   3  -1   1   48.70    5.30
  -3  -1  -1   55.89    2.70
   3   1   1   53.49    5.10
  -3   1  -1   56.09    5.90
  -3   1  -1   54.49    3.40
   4  -1   1    7.80    3.00
  -4  -1  -1   10.50    2.60
  -4   1  -1    9.00    2.00
  -4   1  -1   10.70    3.20
  -5   1  -1  143.39    9.80
   4  -2  -1   15.90    3.70
   4  -2  -1   23.60    4.00
   4   2  -1   22.00    3.70
  -4   2   1   28.50    3.90
  -4   2   1   30.90    5.30
   4   2  -1   24.10    4.30
   3  -2  -1   64.89    4.80
  -3  -2   1   57.39    3.30
   3  -2  -1   50.19    5.70
   3   2  -1   60.29    4.40
  -3   2   1   65.29    4.40
   3   2  -1   69.39    4.50
  -2  -2   1  923.71   20.00
   2  -2  -1  813.72   21.00
   2  -2  -1  799.82   19.70
  -2  -2   1  790.52   17.20
   2   2  -1  797.92   19.10
   2   2  -1  778.92   19.00
  -2   2   1  798.02   19.60
   1  -2  -1  826.92   17.70
   1  -2  -1  798.22   19.10
   1   2  -1  799.92   17.10
  -1   2   1  842.42   17.70
   1   2  -1  837.22   16.70
  -1   2   1  810.32   18.80
   0  -2   1  598.04   13.20
   0  -2  -1  609.24   13.90
   0   2  -1  608.84   13.10
   0   2   1  587.44   13.70
   0   2   1  609.04   14.10
   1  -2   1 1134.39   25.70
  -1  -2  -1 1179.28   24.70
  -1  -2  -1 1155.58   23.80
   1   2   1 1197.68   24.80
  -2  -2  -1 1491.25   31.90
   2  -2   1 1437.36   34.20
   2   2   1 1525.05   32.20
   2   2   1 1524.15   33.40
   3  -2   1  724.43   21.70
  -3  -2  -1  723.33   18.60
  -3   2  -1  717.33   21.90
   3   2   1  719.43   20.00
   4  -2   1  156.98   10.00
  -4  -2  -1  140.69    7.30
   4   2   1  153.38    8.80
  -4   2  -1  155.58    9.80
  -4   3   1   69.59    6.70
   4   3  -1   84.69    7.50
  -3  -3   1    3.80    1.00
   3  -3  -1    5.80    2.00
   3  -3  -1    7.10    2.50
  -3   3   1    4.90    2.10
   3   3  -1    5.80    1.80
   3   3  -1    3.90    1.50
   2  -3  -1   71.49    4.10
   2  -3  -1   78.29    5.30
  -2  -3   1   67.09    3.00
   2   3  -1   78.09    4.40
   2   3  -1   67.59    3.60
   2   3  -1   70.69    2.90
  -2   3   1   74.09    4.80
   1  -3  -1  244.88    8.60
   1  -3  -1  252.77    6.90
   1   3  -1  254.57    8.00
   1   3  -1  245.18    6.10
   1   3  -1  255.27    6.80
   0  -3  -1  562.34   14.20
   0  -3   1  584.34   13.70
   0   3   1  588.64   14.70
  -1  -3  -1   57.99    3.20
   1  -3   1   62.99    4.00
  -1  -3  -1   62.89    2.30
   1   3   1   59.79    3.40
   1   3   1   53.49    3.70
  -2  -3  -1  851.31   19.90
   2  -3   1  868.31   22.90
   2   3   1  863.81   20.30
   2   3   1  846.82   21.60
   3  -3   1   97.09    7.10
  -3  -3  -1   89.99    4.80
   3   3   1   95.09    6.30
   4  -3   1   32.50    5.60
   4   3   1   36.90    5.30
  -4   3  -1   34.90    5.80
   4  -4  -1    8.70    3.60
   4   4  -1    5.00    2.10
   3  -4  -1  192.18   10.40
   3   4  -1  181.68    8.60
   2  -4  -1  400.56   14.10
   2   4  -1  371.46   12.30
   1  -4  -1  163.98    7.40
  -1  -4   1  159.68    4.90
   1   4  -1  170.28    7.00
   1   4  -1  157.88    5.80
   0  -4  -1   40.10    3.10
   0  -4   1   40.70    2.80
   0   4   1   41.20    4.10
  -1  -4  -1  781.42   18.50
   1  -4   1  793.62   20.40
   1   4   1  780.52   19.20
   1   4   1  780.52   20.40
   2  -4   1  599.74   18.10
  -2  -4  -1  575.94   14.70
   2   4   1  552.04   15.10
   2   4   1  582.04   17.20
   3  -4   1   33.30    5.40
   3   4   1   30.50    4.40
   4  -4   1   77.69    9.00
   4   4   1   93.09    7.10
  -4   4  -1   71.49    8.90
   3  -5  -1   83.39    9.00
   3   5  -1   73.29    6.80
   2  -5  -1  109.99    7.50
   2   5  -1  105.19    6.40
   1  -5  -1  139.99    7.50
  -1  -5   1  142.99    5.10
   1   5  -1  148.99    7.40
   0  -5   1 1225.08   27.60
   0  -5  -1 1193.58   28.30
   0   5   1 1192.48   29.70
  -1  -5  -1  289.97    9.50
   1  -5   1  308.07   11.10
   1   5   1  284.27   11.20
   2  -5   1   39.30    5.50
   2   5   1   38.00    4.80
   3  -5   1   57.29    7.30
   3   5   1   88.89    7.90
   2  -6  -1    6.40    2.80
   2   6  -1   -1.50    1.30
   1  -6  -1    8.80    2.60
   1   6  -1    8.40    2.70
   0  -6  -1  163.68    7.70
   0  -6   1  178.28    8.50
   0   6   1  177.38    9.20
   0   6  -1  157.88    8.60
   1  -6   1  344.17   12.70
   1   6   1  334.97   13.40
   2  -6   1   75.29    7.80
   2   6   1   86.59    7.90
   1  -7  -1   52.59    6.50
   1   7  -1   57.29    6.40
  -1   7   1   60.69    7.00
   0   7   1   34.90    5.60
   0   7  -1   37.50    5.40
   1   7   1  114.89    8.20
   5   0  -2    0.10    1.60
   4   0  -2   38.30    5.50
  -4   0   2   38.90    4.70
   4   0  -2   31.90    4.70
  -4   0   2   30.60    3.70
   3   0  -2   -0.50    1.00
   3   0  -2    0.90    1.20
  -3   0   2   -1.00    0.90
  -2   0   2  405.76   10.30
   2   0  -2  377.96   11.10
   2   0  -2  413.76   11.30
   1   0  -2   -0.70    0.70
  -1   0   2    0.00    0.70
   1   0  -2   -0.40    0.70
  -1   0   2   -0.20    0.70
   0   0  -2 4199.68   81.29
   0   0   2 4299.77   82.99
   0   0  -2 4075.09   84.29
   0   0   2 4375.46   83.29
   1   0   2   -0.20    0.30
   1   0   2    1.10    0.40
  -1   0  -2   -1.50    0.70
  -1   0  -2    0.70    0.90
   1   0   2    0.00    0.60
  -2   0  -2  298.87    7.10
  -2   0  -2  296.57    9.90
   2   0   2  297.87    9.90
  -3   0  -2   -1.20    0.50
  -3   0  -2    0.50    1.30
  -4   0  -2  107.79    7.50
  -5   0  -2   -1.80    1.60
   5  -1  -2   64.99    8.10
   5  -1  -2   66.39    7.70
  -5   1   2   78.19    6.80
   5   1  -2   72.29    8.00
  -5   1   2   56.69    7.00
  -4  -1   2    8.40    2.00
   4  -1  -2    9.40    2.90
   4  -1  -2   14.30    3.40
   4   1  -2   11.50    3.00
  -4   1   2   13.80    3.30
  -4   1   2   12.80    2.60
   3  -1  -2  128.19    6.90
  -3  -1   2  118.09    5.20
   3  -1  -2  115.49    6.30
  -3   1   2  108.99    5.50
   3   1  -2  115.09    5.90
  -2  -1   2   84.59    3.30
  -2  -1   2   78.19    3.30
   2  -1  -2   82.09    4.60
   2  -1  -2   78.69    4.30
   2   1  -2   82.39    3.70
  -2   1   2   84.39    4.10
   2   1  -2   83.69    4.20
   1  -1  -2  228.88    6.90
  -1  -1   2  222.98    5.20
   1  -1  -2  218.78    6.30
  -1  -1   2  227.38    5.20
   1   1  -2  217.38    5.20
   1   1  -2  226.38    6.20
  -1   1   2  225.18    6.50
   1   1  -2  229.48    5.30
   0  -1  -2  176.68    5.30
   0  -1  -2  169.78    4.50
   0  -1  -2  178.38    4.90
   0  -1  -2  167.28    5.20
   0   1  -2  163.68    4.90
   0   1   2  173.18    4.60
   0   1   2  166.88    5.00
   0   1   2  177.08    5.30
   0   1  -2  172.78    4.50
  -1  -1  -2 1884.41   39.40
   1  -1   2 1934.41   39.90
  -1  -1  -2 1945.11   39.40
   1  -1   2 1955.00   38.40
   1   1   2 1899.61   39.40
  -1   1  -2 1949.90   40.40
  -2  -1  -2  760.92   15.10
   2  -1   2  790.92   20.10
  -2  -1  -2  729.93   18.70
   2   1   2  776.52   19.00
   2   1   2  750.32   19.20
  -3  -1  -2   68.89    2.60
   3  -1   2   75.09    5.90
  -3  -1  -2   75.89    5.10
   3   1   2   56.89    5.30
  -3   1  -2   69.09    5.70
  -4  -1  -2  107.79    6.90
   4   1   2  100.99    7.50
  -4   1  -2   99.89    7.70
   4  -2  -2   96.29    7.50
   4  -2  -2   86.89    6.60
  -4   2   2  109.19    6.50
   4   2  -2   95.89    6.20
   4   2  -2   95.79    6.60
   3  -2  -2  129.19    6.80
   3  -2  -2  124.39    7.30
  -3  -2   2  125.99    4.50
   3   2  -2  120.99    5.90
  -3   2   2  127.89    6.50
   3   2  -2  135.19    6.60
   2  -2  -2  378.46   11.10
   2  -2  -2  372.96   12.20
  -2  -2   2  383.86    9.20
  -2  -2   2  388.06    9.90
   2   2  -2  395.16   10.80
  -2   2   2  370.26   11.40
   2   2  -2  394.86   10.40
   1  -2  -2  490.25   11.40
   1  -2  -2  468.25   12.70
   1  -2  -2  454.95   11.30
   1   2  -2  476.05   11.00
  -1   2   2  460.45   12.30
   1   2  -2  497.95   11.20
   0  -2   2 3442.56   64.89
   0  -2  -2 3236.98   66.09
   0   2   2 3262.97   66.09
   0   2   2 3342.57   65.69
   0   2  -2 3438.86   64.79
  -1  -2  -2   96.09    3.20
   1  -2   2   93.29    4.50
  -1  -2  -2   89.49    3.50
  -1  -2  -2   90.09    4.20
   1   2   2   90.99    4.20
   1   2   2   90.79    4.40
   2  -2   2 1985.40   43.80
  -2  -2  -2 1958.90   41.50
   2   2   2 1977.80   41.90
  -2   2  -2 1947.81   44.40
   2   2   2 1930.41   42.70
   3  -2   2   30.90    4.60
  -3  -2  -2   44.00    4.50
   3   2   2   40.80    4.70
  -3   2  -2   39.20    5.10
  -4  -2  -2  400.26   13.90
   4  -2   2  396.46   17.00
  -4   2  -2  401.66   16.80
   4   2   2  392.26   15.40
   4  -3  -2   15.10    3.50
   4  -3  -2   10.40    3.30
   4   3  -2   16.70    3.40
   4   3  -2   15.90    3.20
  -4   3   2   15.10    3.30
   3  -3  -2   61.09    6.80
   3  -3  -2   76.99    5.30
  -3   3   2   72.69    6.40
   3   3  -2   64.09    4.60
   3   3  -2   70.99    4.70
   2  -3  -2  136.49    7.20
   2  -3  -2  140.49    6.00
   2   3  -2  145.09    5.50
   2   3  -2  132.09    5.70
  -2   3   2  151.68    6.90
   1  -3  -2 2187.68   46.60
   1   3  -2 2198.38   44.80
   1   3  -2 2188.68   43.20
   1   3  -2 2209.88   43.30
  -1   3   2 2154.18   46.10
   0  -3  -2   97.39    4.70
   0  -3   2   96.79    3.90
   0   3  -2  115.59    4.50
   0   3   2   97.79    4.80
  -1  -3  -2   30.00    3.00
  -1  -3  -2   32.20    3.20
   1  -3   2   28.90    3.40
  -1  -3  -2   30.30    1.80
   1   3   2   34.20    3.40
   1   3   2   26.90    3.10
   2  -3   2  136.09    7.30
  -2  -3  -2  150.98    6.20
   2   3   2  136.09    6.90
   2   3   2  148.99    7.10
  -3  -3  -2 1971.70   43.10
   3  -3   2 2045.50   47.80
   3   3   2 1973.40   45.90
  -3   3  -2 1915.71   47.90
   4  -3   2   88.69    9.70
   4   3   2   85.59    8.20
  -4   3  -2  100.49   10.20
   4  -4  -2   58.79    8.50
   3  -4  -2    7.80    3.10
   3  -4  -2    3.00    1.60
  -3   4   2    6.90    2.40
   3   4  -2    6.90    2.10
   3   4  -2    5.30    1.70
   2  -4  -2  257.67    8.60
   2  -4  -2  252.07   10.80
   2   4  -2  246.78    7.50
   2   4  -2  246.88    9.10
   1  -4  -2  337.47   11.70
   1  -4  -2  357.76    8.90
   1   4  -2  343.07    7.70
   1   4  -2  350.66   10.80
   0  -4  -2  198.28    7.80
   0  -4   2  202.68    6.70
   0   4  -2  205.78    4.80
  -1  -4  -2  378.96   11.30
   1  -4   2  375.96   12.10
   1   4   2  389.76   12.70
  -2  -4  -2  479.45   13.60
   2  -4   2  479.85   15.90
  -2  -4  -2  470.75   13.50
   2   4   2  473.45   15.50
  -3  -4  -2   38.90    4.50
   3  -4   2   48.40    6.60
   3   4   2   42.60    5.50
  -3   4  -2   34.90    5.60
   4  -4   2   96.99   10.30
   4   4   2   90.79    8.70
   3  -5  -2   31.20    5.50
   3   5  -2   39.40    4.80
   2  -5  -2   70.99    7.40
   2   5  -2   59.89    5.50
   1  -5  -2   21.00    3.70
   1   5  -2   21.40    3.30
   0  -5   2   51.79    3.40
   0  -5  -2   47.10    3.90
   0   5   2   48.50    5.00
  -1  -5  -2  200.48    7.90
   1  -5   2  194.98    8.60
   1   5   2  201.98    9.30
  -2  -5  -2   36.70    4.00
   2  -5   2   39.60    5.30
   2   5   2   48.10    5.80
   3  -5   2    6.20    3.10
   3   5   2    7.50    2.90
  -3   5  -2    5.40    3.20
   2  -6  -2   45.40    6.60
   2   6  -2   43.90    5.10
   1  -6  -2   43.30    5.50
   1   6  -2   34.20    4.70
   0  -6  -2   88.99    5.80
   0   6   2   85.99    6.60
  -1  -6  -2  283.87   12.00
   1  -6   2  274.97   11.00
   1   6   2  273.97   12.20
   2  -6   2   94.39    7.20
   2   6   2   80.89    8.00
   1  -7  -2   27.80    5.00
  -1   7   2   31.80    5.10
   1   7  -2   23.70    4.10
   0   7   2   36.70    5.60
   0   7  -2   38.00    5.60
   1   7   2  190.58   10.70
   5   0  -3   15.20    4.00
  -5   0   3   18.30    3.40
   5   0  -3   16.10    4.00
   4   0  -3   -1.20    1.30
  -4   0   3    0.20    1.30
   4   0  -3   -0.80    1.40
  -4   0   3   -0.50    1.10
   3   0  -3  276.77   10.10
   3   0  -3  263.87   10.10
   2   0  -3   -2.70    0.80
   2   0  -3   -1.80    1.00
  -2   0   3   -2.80    0.50
   2   0  -3   -2.90    0.70
   1   0  -3 1774.92   35.70
  -1   0   3 1770.72   35.40
  -1   0   3 1814.72   35.60
   1   0  -3 1710.53   36.10
   0   0  -3   -4.00    0.60
   0   0   3   -4.60    0.80
   0   0   3   -5.50    0.60
   0   0  -3   -5.30    0.80
   1   0   3  238.48    7.50
  -1   0  -3  226.88    7.60
  -1   0  -3  232.38    7.20
   2   0   3    0.20    0.80
  -2   0  -3    0.40    1.00
   3   0   3  302.67   12.10
  -3   0  -3  292.07   11.70
  -4   0  -3    0.10    1.80
   5  -1  -3  188.88   11.50
   5  -1  -3  181.68   10.70
   5   1  -3  186.68   10.70
  -5   1   3  178.88    9.20
  -5   1   3  177.28   10.30
   4  -1  -3   47.60    5.60
  -4  -1   3   60.19    4.30
   4  -1  -3   79.49    6.40
   4   1  -3   78.79    5.80
   4   1  -3   57.29    5.90
  -4   1   3   70.19    5.10
  -3  -1   3   49.40    3.20
   3  -1  -3   39.60    4.70
   3  -1  -3   51.69    5.00
  -3   1   3   55.39    4.90
   3   1  -3   53.59    3.90
   3   1  -3   44.20    4.40
   2  -1  -3  406.66   11.50
  -2  -1   3  398.86    9.40
   2  -1  -3  389.36   11.50
   2  -1  -3  403.66   11.90
   2   1  -3  402.66   11.40
   2   1  -3  386.66    9.70
   2   1  -3  405.16   11.30
   2   1  -3  379.56   10.20
  -2   1   3  404.46   11.30
  -1  -1   3  197.48    4.70
   1  -1  -3  198.98    6.20
   1  -1  -3  191.08    6.50
  -1  -1   3  211.98    5.00
   1   1  -3  200.18    5.00
   1   1  -3  194.58    6.10
   1   1  -3  202.28    4.40
  -1   1   3  200.28    6.50
   0  -1  -3 1629.44   33.50
   0  -1  -3 1636.54   34.40
   0  -1  -3 1635.54   34.20
   0  -1   3 1687.13   33.80
   0   1   3 1729.83   33.80
   0   1  -3 1711.83   33.40
   0   1  -3 1599.34   33.70
   0   1   3 1684.33   33.10
  -1  -1  -3 2131.89   44.50
   1   1   3 2114.09   44.40
  -1   1  -3 2201.08   45.70
   1   1   3 2154.58   44.60
  -1   1  -3 2170.38   45.20
  -2  -1  -3  169.08    7.10
   2   1   3  166.48    7.30
  -2   1  -3  179.28    8.00
  -3  -1  -3   54.69    5.50
   3   1   3   34.80    4.60
  -3   1  -3   40.60    5.50
  -4  -1  -3  113.59    7.60
   4   1   3  117.19    8.40
  -4   1  -3  119.89    8.50
   4  -2  -3   79.19    7.70
   4  -2  -3   59.69    7.40
  -4   2   3   72.39    6.50
   4   2  -3   70.19    6.70
   3  -2  -3  175.18    9.00
   3  -2  -3  193.58    8.30
  -3   2   3  172.48    7.90
   3   2  -3  175.38    6.80
   3   2  -3  184.78    7.90
   2  -2  -3  245.18    8.30
   2  -2  -3  238.78    8.20
   2  -2  -3  249.18    9.20
  -2  -2   3  233.48    6.60
   2   2  -3  231.78    7.80
  -2   2   3  250.97    8.70
   2   2  -3  233.98    8.00
   1  -2  -3  477.25   13.30
   1  -2  -3  495.05   11.90
   1   2  -3  492.95   11.10
   1   2  -3  483.65   11.70
  -1   2   3  485.45   13.10
  -1   2   3  481.35   12.70
   0  -2  -3  737.93   17.60
   0  -2  -3  738.63   17.80
   0   2  -3  767.82   16.20
   0   2  -3  736.83   17.10
   0   2   3  747.23   16.70
   0   2   3  731.83   17.80
   0   2   3  735.43   17.40
  -1  -2  -3 1142.19   25.60
   1  -2   3 1122.69   25.80
  -1  -2  -3 1120.19   22.90
  -1   2  -3 1136.29   26.60
   1   2   3 1141.69   25.70
   2  -2   3  411.16   13.60
  -2  -2  -3  408.36   12.30
  -2   2  -3  408.96   14.10
   2   2   3  398.96   12.90
   3  -2   3  820.02   24.60
  -3  -2  -3  828.82   22.10
   3   2   3  814.82   23.20
  -3   2  -3  843.92   25.00
  -4  -2  -3  241.98   10.70
  -4   2  -3  238.08   12.90
   4   2   3  242.58   11.90
   4  -3  -3  218.08   12.00
   4  -3  -3  223.08   10.90
   4   3  -3  239.78   10.50
  -4   3   3  223.98   10.70
   3  -3  -3   65.29    6.90
   3  -3  -3   68.49    5.10
  -3   3   3   74.09    5.50
   3   3  -3   63.39    4.10
   3   3  -3   67.19    4.70
   2  -3  -3   68.59    4.10
   2  -3  -3   64.99    5.00
   2   3  -3   66.39    3.70
   2   3  -3   65.19    3.70
  -2   3   3   63.19    4.70
   1  -3  -3  152.58    6.90
   1  -3  -3  152.48    5.30
  -1   3   3  156.28    6.60
   1   3  -3  149.79    4.40
   1   3  -3  151.88    5.50
   1   3  -3  159.68    5.10
   1   3  -3  161.98    4.30
   0  -3  -3 1567.34   34.10
   0  -3   3 1596.04   32.20
   0   3  -3 1457.55   35.00
   0   3   3 1588.04   34.10
  -1  -3  -3   21.90    3.10
  -1  -3  -3   18.60    2.80
   1  -3   3   17.50    2.60
   1   3   3   17.00    2.80
   2  -3   3   78.89    5.70
  -2  -3  -3   87.99    5.20
  -2   3  -3   90.29    6.50
   2   3   3   91.79    5.80
   3  -3   3   89.29    7.30
  -3  -3  -3  105.69    6.10
   3   3   3  110.79    7.20
  -3   3  -3  115.29    8.30
  -4   3  -3  445.06   19.20
   4   3   3  467.05   17.80
   4  -4  -3    7.40    2.80
   4  -4  -3    4.90    3.20
  -4   4   3    0.00    1.90
   4   4  -3    6.50    2.20
   3  -4  -3    2.90    2.20
   3  -4  -3    1.50    1.30
   3   4  -3    1.60    1.30
   3   4  -3    2.10    1.40
  -3   4   3    4.20    2.30
   2  -4  -3   15.70    3.40
   2  -4  -3   10.80    2.10
  -2   4   3   11.80    2.90
   2   4  -3   15.40    2.30
   2   4  -3   14.20    2.00
   1  -4  -3    4.30    1.00
   1  -4  -3    8.60    2.40
   1   4  -3    5.00    1.50
   1   4  -3   11.30    1.50
   1   4  -3    9.70    1.40
   0  -4   3   41.90    2.80
   0  -4  -3   46.40    4.70
  -1  -4  -3  329.97   10.80
   1  -4   3  340.97   11.40
   1   4   3  330.07   11.80
  -2  -4  -3  254.97    9.40
  -2  -4  -3  262.47    9.70
   2  -4   3  255.47   11.00
   2   4   3  256.57   10.80
  -2   4  -3  259.07   12.10
   3  -4   3   19.80    4.30
  -3  -4  -3   21.80    3.40
  -3   4  -3   19.30    4.40
   3   4   3   18.90    3.90
   4  -4   3  221.88   13.30
   4   4   3  214.58   11.80
   3  -5  -3   17.90    4.30
   2  -5  -3    9.00    3.00
   2  -5  -3    9.40    2.10
   2   5  -3    9.80    2.20
   1  -5  -3   22.20    3.70
   1   5  -3   17.50    2.80
   0  -5  -3   -1.40    0.90
   0  -5   3    1.00    0.90
   0   5   3    0.50    1.30
  -1  -5  -3   90.19    5.40
   1  -5   3   89.59    5.70
   1   5   3   83.29    6.10
   2  -5   3  132.19    8.10
  -2  -5  -3  137.49    6.80
   2   5   3  139.19    8.40
   3  -5   3   43.40    6.80
   3   5   3   44.30    6.00
  -3   5  -3   46.60    7.10
   2  -6  -3    6.50    2.90
   2   6  -3    1.80    1.60
   1  -6  -3   61.09    6.70
   1   6  -3   66.99    6.10
  -1   6   3   61.09    6.50
   0  -6  -3    5.60    2.10
   0   6   3    0.60    1.80
  -1  -6  -3   12.20    2.70
   1  -6   3   11.60    2.80
   1   6   3    7.80    2.80
   2  -6   3  111.89    7.90
  -2   6  -3  126.49    9.40
   2   6   3  133.09    8.80
   0   7   3  107.69    8.40
   0   7  -3  123.79    8.10
   5   0  -4   -1.20    1.70
  -5   0   4    0.20    1.40
   5   0  -4   -0.30    2.10
  -4   0   4  398.36   13.50
  -4   0   4  398.46   13.70
   4   0  -4  429.36   15.30
   3   0  -4    0.00    1.00
   3   0  -4    0.10    1.20
  -2   0   4  483.45   11.10
  -2   0   4  491.05   12.00
   2   0  -4  473.45   12.70
   2   0  -4  455.85   13.10
  -1   0   4    0.60    0.70
   1   0  -4   -0.50    0.70
  -1   0   4   -0.50    0.30
   1   0  -4   -0.60    0.70
   0   0   4  715.43   15.80
   0   0   4  758.72   16.90
   0   0  -4  709.43   16.70
   0   0  -4  730.33   15.70
   1   0   4   -0.70    0.30
  -1   0  -4   -1.50    0.90
   1   0   4   -0.90    1.00
   3   0   4    0.10    1.50
  -3   0  -4    0.00    1.40
  -4   0  -4   12.20    3.40
  -5  -1   4  101.19    6.50
   5  -1  -4  109.19    8.70
   5  -1  -4  104.59    9.80
  -5   1   4  105.79    7.20
   5   1  -4  112.09    8.40
   4  -1  -4   13.60    3.30
   4  -1  -4   12.60    3.20
   4   1  -4   11.60    3.30
  -4   1   4   11.90    2.90
   4   1  -4   14.10    3.10
   3  -1  -4    1.40    1.50
   3  -1  -4    0.60    1.40
  -3  -1   4    2.80    1.00
  -3  -1   4    2.70    1.00
   3   1  -4    0.40    1.10
   3   1  -4    1.40    1.50
  -3   1   4    0.70    1.30
   2  -1  -4  132.99    6.00
  -2  -1   4  127.59    4.00
   2  -1  -4  131.79    5.90
  -2  -1   4  124.69    3.50
   2   1  -4  130.89    5.80
   2   1  -4  118.79    4.70
   1  -1  -4  656.83   15.90
  -1  -1   4  641.94   13.80
   1   1  -4  635.54   13.80
  -1   1   4  637.24   15.60
   1   1  -4  643.04   13.90
   0  -1  -4  347.67   10.00
   0  -1  -4  344.17    9.10
   0  -1   4  344.27    9.50
   0   1  -4  350.76    8.80
   0   1  -4  355.76    9.50
   0   1   4  366.16   10.10
   0   1   4  361.86    9.30
   1  -1   4 1287.67   28.70
  -1  -1  -4 1230.98   28.30
   1   1   4 1215.78   27.90
   1   1   4 1293.97   28.50
   1   1   4 1243.18   24.40
  -1   1  -4 1279.67   28.80
  -2  -1  -4  510.75   15.00
  -2   1  -4  500.15   15.70
  -3  -1  -4  185.78    8.90
   3   1   4  182.98    9.30
  -3   1  -4  201.48   10.10
  -4  -1  -4  112.89    7.70
   4   1   4  128.29    9.00
  -4   1  -4  119.79    8.80
   4  -2  -4  194.28   10.20
   4  -2  -4  197.58   10.70
   4   2  -4  204.68    9.90
  -4   2   4  210.28    9.90
   3  -2  -4  139.59    7.90
   3  -2  -4  145.89    7.30
  -3   2   4  127.59    6.90
   3   2  -4  141.79    6.90
   3   2  -4  131.79    5.40
   2  -2  -4  203.08    8.50
   2  -2  -4  200.48    7.70
   2  -2  -4  207.18    7.80
   2   2  -4  198.48    7.40
   2   2  -4  207.28    5.80
   1  -2  -4  420.46   11.00
   1  -2  -4  410.56   12.20
   1   2  -4  413.36    8.90
  -1   2   4  401.86   11.40
   1   2  -4  420.66    9.40
   0  -2  -4  232.98    7.90
   0  -2  -4  226.08    8.00
   0   2  -4  222.68    6.50
   0   2   4  232.78    8.00
   0   2  -4  210.08    7.20
   0   2   4  222.48    6.80
   0   2   4  231.78    7.50
  -1  -2  -4  326.07   10.40
   1   2   4  312.27   10.20
  -1   2  -4  329.77   11.00
  -2  -2  -4   49.70    4.10
  -2   2  -4   58.29    6.10
   2   2   4   60.29    5.40
  -3  -2  -4   41.30    4.90
   3   2   4   33.70    4.80
  -3   2  -4   29.90    4.90
  -4  -2  -4  113.09    7.60
   4   2   4  115.69    8.50
  -4   2  -4  134.59    9.70
   4  -3  -4   20.40    4.60
   4  -3  -4   20.30    3.90
   4   3  -4   23.00    4.00
  -4   3   4   26.40    4.40
   3  -3  -4  527.95   18.00
   3  -3  -4  502.45   15.90
   3   3  -4  524.95   13.80
   3   3  -4  517.75   15.40
  -3   3   4  522.45   16.80
   2  -3  -4  101.29    5.20
   2  -3  -4  108.79    6.50
   2  -3  -4  105.19    5.30
   2   3  -4   98.99    5.00
   2   3  -4  104.69    4.30
  -2   3   4  106.89    6.20
   1  -3  -4   73.19    3.70
   1  -3  -4   75.69    5.00
  -1   3   4   76.59    4.60
   1   3  -4   85.19    3.70
   1   3  -4   78.69    3.70
   1   3  -4   73.69    2.80
   0  -3  -4   60.99    4.30
   0   3   4   63.79    4.20
   0   3  -4   64.79    3.90
   0   3   4   62.39    3.70
  -1  -3  -4  184.28    7.60
  -1  -3  -4  183.08    7.70
   1  -3   4  184.48    7.70
  -1   3  -4  193.18    8.50
  -2  -3  -4   22.90    3.50
   2  -3   4   20.70    3.70
  -2   3  -4   24.50    4.10
   2   3   4   24.80    3.60
  -3  -3  -4  225.28    9.80
  -3   3  -4  233.38   12.20
   3   3   4  220.28   10.90
  -4   3  -4   76.99    9.50
   4   3   4   76.59    8.30
   4  -4  -4   16.40    3.70
   4  -4  -4   10.20    4.00
  -4   4   4   10.60    3.40
   4   4  -4   14.40    3.20
   3  -4  -4  113.19    6.70
   3  -4  -4  117.59    8.40
   3   4  -4  121.09    6.20
  -3   4   4  125.09    7.90
   2  -4  -4  159.78    8.80
   2  -4  -4  166.78    6.80
   2   4  -4  168.88    6.30
   2   4  -4  160.08    6.50
  -2   4   4  162.38    8.30
   1  -4  -4    7.70    1.50
   1  -4  -4    7.80    2.30
   1  -4  -4    6.90    1.40
   1   4  -4    5.90    1.10
   1   4  -4    8.10    1.70
   1   4  -4    5.00    1.30
  -1   4   4    5.10    1.80
   1   4  -4    9.70    1.50
   0  -4  -4  163.38    4.90
   0  -4  -4  154.38    7.40
   0   4   4  161.28    7.60
   0   4  -4  149.59    6.80
  -1  -4  -4   47.90    4.10
   1  -4   4   41.30    4.40
  -1  -4  -4   47.70    4.80
   1   4   4   45.70    4.60
  -1   4  -4   48.20    5.20
  -2  -4  -4   44.70    5.10
   2  -4   4   41.10    5.50
  -2  -4  -4   43.50    4.80
   2   4   4   38.20    5.00
  -2   4  -4   46.20    6.10
  -3  -4  -4    0.00    1.30
   3  -4   4   -1.20    1.60
   3   4   4   -3.30    1.20
  -3   4  -4   -1.20    1.80
   3  -5  -4   -0.30    1.20
   3  -5  -4    2.20    2.40
   2  -5  -4   51.49    6.80
   2  -5  -4   47.10    5.50
   2   5  -4   43.40    4.40
   1  -5  -4   74.69    5.90
   1   5  -4   60.39    4.40
  -1   5   4   66.99    6.20
   0  -5  -4   62.79    5.00
   0   5  -4   56.09    4.60
   0   5   4   60.99    6.20
  -1  -5  -4   52.59    4.50
   1  -5   4   61.69    4.70
  -1   5  -4   47.80    5.80
   1   5   4   55.09    5.90
   2  -5   4   12.10    3.20
  -2  -5  -4   10.10    2.60
   2   5   4   13.40    3.50
  -2   5  -4   15.90    4.00
   3  -5   4  228.78   12.60
   3   5   4  238.28   12.50
  -3   5  -4  227.58   13.20
   2  -6  -4   76.29    8.80
   1  -6  -4   28.80    4.70
  -1   6   4   17.90    3.80
   1   6  -4   33.80    4.40
   0  -6  -4   37.80    5.20
   0   6   4   32.40    4.90
  -1  -6  -4   76.39    5.60
  -1   6  -4   75.39    7.60
   1   6   4   79.49    7.50
   2  -6   4  134.29    8.70
   2   6   4  149.19    9.60
  -2   6  -4  129.79    9.50
   5   0  -5  389.36   16.50
   5   0  -5  374.76   15.90
  -5   0   5  381.46   14.50
   4   0  -5   -2.10    1.50
   4   0  -5   -1.70    1.40
   3   0  -5  227.38    9.20
   3   0  -5  247.78    9.80
   3   0  -5  229.58    9.70
  -3   0   5  228.18    7.10
   2   0  -5   -0.50    0.70
   2   0  -5   -0.80    1.10
  -2   0   5   -0.30    0.60
  -2   0   5   -0.60    0.40
   1   0  -5 1857.31   39.30
   1   0  -5 1901.01   39.20
  -1   0   5 1908.11   36.90
  -1   0   5 1931.41   39.20
   0   0   5    6.30    1.20
   0   0   5    4.90    1.30
   0   0  -5    4.10    1.30
   0   0  -5    3.70    0.90
   1   0   5  204.78    7.60
  -1   0  -5  200.78    7.90
  -2   0  -5   -0.20    1.40
   2   0   5    0.70    1.30
   2   0   5    0.50    0.30
   3   0   5  728.33   22.30
  -3   0  -5  703.93   21.80
  -4   0  -5    0.80    2.20
  -5  -1   5  263.97   11.30
  -5   1   5  238.28   11.40
   4  -1  -5  265.27   12.00
   4  -1  -5  268.77   11.80
   4   1  -5  257.17   11.50
   4   1  -5  268.87   10.80
  -4   1   5  265.67   11.20
  -3  -1   5  383.16   10.10
   3  -1  -5  386.26   13.40
   3  -1  -5  385.26   13.10
   3  -1  -5  384.86   13.30
  -3   1   5  375.86   12.70
   3   1  -5  378.36   12.80
   3   1  -5  386.16   11.80
   3   1  -5  412.46   13.50
  -2  -1   5  485.25   11.10
   2  -1  -5  484.05   14.00
   2  -1  -5  491.25   13.90
   2   1  -5  465.85   12.00
   2   1  -5  456.05   13.40
  -1  -1   5  409.96   10.00
   1  -1  -5  402.76   11.50
   1  -1  -5  399.66   11.50
  -1   1   5  409.16   11.40
   1   1  -5  399.56    9.90
  -1   1   5  394.96    9.90
   1   1  -5  410.96   10.00
   0  -1   5   85.59    4.20
   0  -1  -5   75.49    4.40
   0  -1  -5   72.99    3.50
   0   1   5   79.39    3.80
   0   1   5   84.29    4.40
   0   1  -5   80.09    4.00
   0   1  -5   83.09    3.40
  -1  -1  -5  207.08    8.10
  -1   1  -5  215.58    8.40
   1   1   5  213.18    5.10
   1   1   5  214.38    7.90
  -2  -1  -5  147.19    7.40
  -2   1  -5  148.79    7.90
  -3  -1  -5   43.10    5.30
  -3   1  -5   37.50    5.10
   3   1   5   48.50    5.70
  -4  -1  -5  120.79    8.40
   4   1   5  128.29    9.40
  -4   1  -5  135.29    9.60
   4  -2  -5   46.60    6.60
   4  -2  -5   37.80    5.30
   4   2  -5   49.10    5.80
  -4   2   5   38.90    5.10
   3  -2  -5   79.69    5.60
   3  -2  -5   91.49    6.40
   3   2  -5   75.79    5.20
  -3   2   5   88.49    5.80
   3   2  -5   81.49    5.40
   3   2  -5   78.79    4.00
   2  -2  -5  624.84   16.70
   2  -2  -5  620.34   17.70
  -2   2   5  601.34   16.90
   2   2  -5  604.54   16.30
   1  -2  -5  141.29    6.60
  -1   2   5  146.09    5.60
   1   2  -5  136.89    4.30
  -1   2   5  151.08    6.10
   0  -2  -5  272.77    9.30
   0  -2  -5  259.67    9.10
   0   2  -5  246.88    7.90
   0   2   5  256.77    8.50
   0   2   5  263.27    7.70
   0   2  -5  264.67    8.40
  -1  -2  -5  146.49    6.90
  -1   2  -5  141.29    7.00
   1   2   5  134.99    6.40
  -2  -2  -5   26.70    3.80
  -2   2  -5   18.00    3.40
   2   2   5   30.10    4.00
  -3  -2  -5   39.10    5.20
  -3   2  -5   34.30    5.20
   3   2   5   34.60    4.70
  -4  -2  -5  109.99    7.90
   4   2   5  120.09    8.80
  -4   2  -5   94.59   10.00
   4  -3  -5   39.20    6.70
   4  -3  -5   36.30    5.30
  -4   3   5   50.19    6.30
   4   3  -5   32.70    4.70
   3  -3  -5   56.79    5.70
   3  -3  -5   51.29    6.10
   3   3  -5   61.79    4.60
  -3   3   5   55.99    5.90
   2  -3  -5   33.40    3.70
   2  -3  -5   33.90    4.70
   2  -3  -5   37.30    4.10
   2   3  -5   36.00    3.80
  -2   3   5   38.70    4.60
   1  -3  -5    7.40    1.70
   1  -3  -5    8.10    2.30
   1   3  -5    7.20    1.10
  -1   3   5    7.80    2.00
  -1   3   5    9.50    2.20
   0  -3  -5  206.68    8.50
   0  -3  -5  210.38    8.60
   0   3   5  210.18    7.30
   0   3  -5  214.38    7.90
   0   3   5  205.98    8.20
  -1  -3  -5   21.50    3.20
  -1  -3  -5   23.80    3.60
  -1   3  -5   21.80    3.50
   1   3   5   17.20    2.90
  -2  -3  -5  211.78    9.30
   2   3   5  190.68    9.30
  -2   3  -5  179.08    9.80
  -3  -3  -5    1.90    1.90
  -3   3  -5    5.20    3.00
   3   3   5    1.90    2.20
  -4  -3  -5   -0.20    1.80
   4   3   5    1.20    2.30
   4  -4  -5   15.10    3.50
   4  -4  -5   16.30    4.80
  -4   4   5   14.50    3.90
   4   4  -5   10.00    2.80
   3  -4  -5  126.49    8.80
   3  -4  -5  110.99    6.70
  -3   4   5  115.19    7.90
   3   4  -5  124.99    6.50
   2  -4  -5  347.37   11.10
   2  -4  -5  342.17   13.70
   2   4  -5  339.77   10.00
   2   4  -5  352.36   10.80
  -2   4   5  333.17   12.80
   1  -4  -5  258.67   10.90
   1  -4  -5  253.57    8.10
   1   4  -5  272.67    8.20
   1   4  -5  262.47    7.40
  -1   4   5  269.97   10.20
  -1   4   5  256.97   10.00
   1   4  -5  258.67    8.40
   0  -4  -5   22.20    3.80
   0   4   5   18.50    3.10
   0   4  -5   17.20    2.80
  -1  -4  -5  147.49    7.50
  -1  -4  -5  151.68    7.80
   1   4   5  150.98    7.90
  -1   4  -5  154.78    8.20
  -2  -4  -5   11.70    2.80
  -2  -4  -5    9.30    2.80
  -2   4  -5   13.20    3.60
   2   4   5   12.40    3.10
  -3  -4  -5   96.69    6.70
   3   4   5  111.19    8.30
  -3   4  -5  105.69    8.80
   3  -5  -5  103.29    6.50
   3  -5  -5   97.49    8.40
  -3   5   5   98.49    9.00
   2  -5  -5   41.00    6.10
  -2   5   5   38.40    5.60
   1  -5  -5  149.69    8.60
   1   5  -5  153.78    6.90
  -1   5   5  150.88    8.20
   0  -5  -5  153.18    8.20
   0   5   5  154.98    8.30
   0   5  -5  135.39    7.10
  -1  -5  -5   57.29    5.90
   1   5   5   48.20    5.60
  -1   5  -5   62.29    6.70
  -2  -5  -5  167.98    8.60
  -2  -5  -5  156.08    8.30
  -2   5  -5  165.88   10.20
   2   5   5  167.18    9.70
  -3  -5  -5   47.80    7.90
   3   5   5   33.80    5.70
   2  -6  -5   11.00    3.60
  -2   6   5    9.30    3.00
   1  -6  -5   87.99    7.10
  -1   6   5  102.29    7.40
   1   6  -5   86.99    5.80
   0  -6  -5   78.29    6.30
   0   6   5   78.29    7.60
  -1  -6  -5    1.10    1.70
   1   6   5    1.00    2.00
  -1   6  -5    4.20    2.00
  -2   6  -5   60.89    7.80
   2   6   5   74.19    8.20
   4   0  -6 1703.23   42.30
   4   0  -6 1764.02   41.60
   3   0  -6    0.50    1.20
   3   0  -6   -2.40    1.20
   2   0  -6   49.70    5.10
  -2   0   6   35.60    2.80
  -2   0   6   38.30    1.60
  -2   0   6   41.00    1.70
   2   0  -6   36.50    3.60
   1   0  -6   -0.30    0.90
   1   0  -6    1.00    1.10
  -1   0   6    0.50    0.90
  -1   0   6    0.20    0.50
   0   0   6 3388.16   66.19
   0   0   6 3386.96   67.89
   0   0  -6 3301.17   65.79
   0   0  -6 3276.07   67.79
   1   0   6    0.90    1.00
  -1   0  -6   -0.10    1.10
   2   0   6   79.19    5.60
  -2   0  -6   75.59    5.70
   2   0   6   84.29    2.40
   3   0   6   -0.50    1.60
  -3   0  -6   -2.20    1.50
  -4   0  -6   54.29    7.40
   4  -1  -6   30.00    4.70
   4  -1  -6   35.40    5.30
  -4   1   6   44.00    5.40
   4   1  -6   33.70    4.80
   3  -1  -6  782.82   22.00
   3  -1  -6  776.22   21.90
   3  -1  -6  777.22   22.00
   3   1  -6  781.52   21.90
   3   1  -6  819.22   20.20
   2  -1  -6  341.67   11.20
   2  -1  -6  330.47   11.20
  -2  -1   6  334.77    8.80
   2   1  -6  336.77    9.60
   2   1  -6  326.27   11.00
   1  -1  -6  829.62   20.70
   1  -1  -6  818.22   20.50
  -1  -1   6  840.02   19.00
  -1   1   6  855.91   18.60
   1   1  -6  829.12   18.90
   1   1  -6  846.12   18.90
   0  -1   6  569.44   14.90
   0  -1  -6  539.85   15.30
   0   1   6  562.54   14.10
   0   1  -6  563.64   13.40
   0   1  -6  558.44   14.80
  -1  -1  -6  199.78    8.40
  -1   1  -6  203.48    8.50
   1   1   6  204.18    8.00
  -2  -1  -6   44.60    5.10
   2   1   6   40.80    4.70
  -2   1  -6   46.00    5.20
  -3  -1  -6   65.19    6.70
   3   1   6   70.89    7.00
  -3   1  -6   63.79    7.10
  -4  -1  -6   39.00    6.10
  -4   1  -6   29.20    5.60
   4   1   6   23.60    4.70
   4  -2  -6    0.40    1.70
   4  -2  -6   -1.30    1.40
  -4   2   6   -1.20    1.50
   4   2  -6   -1.60    1.40
   3  -2  -6   89.59    6.50
   3  -2  -6   86.69    6.10
   3  -2  -6   90.89    6.00
  -3   2   6   91.49    6.20
   3   2  -6   90.69    5.90
   3   2  -6   98.99    6.10
   2  -2  -6  320.17   11.00
   2  -2  -6  332.67   12.00
  -2   2   6  336.47   11.40
   2   2  -6  331.07   10.90
   1  -2  -6  106.39    5.90
  -1  -2   6  108.09    4.20
   1   2  -6  107.29    3.80
   1   2  -6  113.99    4.10
   1   2  -6  106.09    3.40
  -1   2   6  111.09    5.00
  -1   2   6  105.99    5.20
   0  -2  -6   24.50    3.30
   0  -2  -6   25.20    3.40
   0  -2   6   20.20    2.70
   0   2   6   26.20    2.70
   0   2   6   23.80    2.90
   0   2  -6   25.30    2.60
   0   2  -6   22.60    2.80
  -1  -2  -6   34.00    4.20
   1   2   6   34.20    1.90
  -1   2  -6   40.20    4.70
   1   2   6   36.40    4.00
  -2  -2  -6   63.39    5.30
   2   2   6   56.39    5.80
  -2   2  -6   61.29    6.40
  -3  -2  -6   24.30    4.50
   3   2   6   18.00    3.70
  -3   2  -6   21.00    4.70
  -4  -2  -6   64.59    7.40
   4   2   6   77.59    8.70
  -4   2  -6   60.29    8.10
   4  -3  -6    3.60    3.00
   4  -3  -6    4.40    2.30
  -4   3   6    3.70    2.70
   4   3  -6    1.60    1.40
   3  -3  -6  109.79    7.80
   3  -3  -6  109.59    6.80
   3   3  -6  117.69    6.50
  -3   3   6  113.29    7.30
   3   3  -6  109.49    6.50
   2  -3  -6  172.98    7.70
   2  -3  -6  187.98    9.20
  -2   3   6  175.88    8.40
   2   3  -6  183.78    5.00
   2   3  -6  172.98    7.40
   1  -3  -6  609.94   15.60
   1  -3  -6  574.74   17.60
  -1   3   6  598.24   16.60
   1   3  -6  586.44   13.60
  -1   3   6  573.64   16.00
   0  -3  -6   30.40    4.20
   0  -3  -6   23.30    3.70
   0   3   6   26.70    3.00
   0   3  -6   30.10    3.50
   0   3   6   23.70    3.30
  -1  -3  -6  196.58    8.90
  -1  -3  -6  202.38    9.10
  -1   3  -6  205.78    9.40
   1   3   6  198.08    8.90
  -2  -3  -6    8.30    2.80
  -2   3  -6    6.70    2.80
   2   3   6    5.70    2.20
  -3  -3  -6   76.39    6.30
   3   3   6   66.19    6.90
  -3   3  -6   73.09    8.50
   3  -4  -6  186.68   10.90
   3  -4  -6  170.38    8.60
  -3   4   6  184.38   10.10
   3   4  -6  176.38    8.20
   2  -4  -6  425.36   15.90
   2  -4  -6  427.16   13.10
   2  -4  -6  401.56   12.80
  -2   4   6  397.66   14.60
   2   4  -6  420.96   12.70
   1  -4  -6   32.30    3.50
   1  -4  -6   26.30    4.30
  -1   4   6   23.00    3.30
  -1   4   6   29.80    4.20
   1   4  -6   24.50    2.00
   1   4  -6   27.40    2.80
   0  -4  -6   39.30    4.80
   0   4   6   39.00    4.60
   0   4  -6   43.30    4.60
  -1  -4  -6   13.30    2.90
  -1  -4  -6    6.80    2.50
  -1   4  -6   11.00    2.80
   1   4   6    9.10    2.70
  -2  -4  -6   69.79    5.90
  -2  -4  -6   63.19    6.60
  -2   4  -6   69.09    7.70
   2   4   6   59.99    6.60
  -3  -4  -6    0.50    1.70
   3   4   6    3.10    2.60
  -3   4  -6    0.30    2.30
   3  -5  -6  351.96   16.60
   3  -5  -6  401.86   19.10
  -3   5   6  355.66   15.40
   2  -5  -6    4.00    2.60
  -2   5   6    0.10    1.90
  -2   5   6   -0.50    1.40
   1  -5  -6  235.88   11.40
  -1   5   6  250.37   10.90
   1   5  -6  236.58    8.80
   0  -5  -6   -0.70    1.40
   0   5   6    0.00    1.60
   0   5  -6    1.70    1.50
  -1  -5  -6   52.99    6.40
  -1   5  -6   52.39    6.20
   1   5   6   49.00    5.90
  -2  -5  -6   30.00    4.70
  -2  -5  -6   25.70    4.50
  -2   5  -6   36.00    5.90
   2   5   6   37.30    5.60
   2  -6  -6    3.50    2.80
  -2   6   6    4.40    2.50
   1  -6  -6   20.50    4.30
  -1   6   6    8.10    2.80
   0  -6  -6  149.69    9.10
   0   6   6  141.19    9.00
  -1  -6  -6  102.59    7.30
  -1   6  -6  103.39    7.60
   1   6   6  112.99    8.30
   4   0  -7    0.60    1.40
   4   0  -7    2.30    2.10
   3   0  -7  831.72   22.80
   3   0  -7  769.42   21.40
  -2   0   7   -0.30    0.80
   2   0  -7    1.20    1.20
   2   0  -7   -0.50    1.20
   1   0  -7  297.07    9.70
  -1   0   7  306.07    7.60
   1   0  -7  288.27    9.60
  -1   0   7  320.17    9.80
   1   0   7  213.78    8.50
  -1   0  -7  211.98    9.10
  -2   0  -7   -0.80    1.40
   2   0   7   -2.50    1.00
   3   0   7   29.70    5.00
  -3   0  -7   37.80    5.40
  -4   0  -7   -0.90    2.10
   4  -1  -7   75.89    8.00
   4  -1  -7   87.19    8.10
  -4   1   7   84.69    7.50
   4   1  -7   78.09    7.40
   4   1  -7   87.99   10.80
   3  -1  -7  571.34   18.00
   3  -1  -7  569.54   17.60
   3   1  -7  561.54   17.60
   3   1  -7  566.64   15.80
   2  -1  -7  701.53   19.30
   2  -1  -7  711.23   19.40
  -2  -1   7  723.23   16.60
  -2   1   7  699.43   15.90
   2   1  -7  675.33   18.90
   2   1  -7  698.93   17.20
   1  -1  -7   78.99    4.90
   1  -1  -7   70.59    4.80
  -1  -1   7   78.79    4.00
  -1   1   7   78.99    3.70
   1   1  -7   84.09    4.20
   1   1  -7   83.79    4.20
   0  -1  -7   63.09    4.70
   0   1  -7   65.19    3.40
   0   1   7   55.69    3.70
   0   1  -7   69.19    4.40
  -1  -1  -7  875.11   23.00
   1   1   7  867.81   22.00
  -1   1  -7  825.12   22.70
  -2  -1  -7  122.19    7.60
   2   1   7  110.69    6.90
  -2   1  -7  134.39    8.00
  -3  -1  -7   19.80    4.20
  -3   1  -7   21.30    4.30
   3   1   7   23.80    4.60
  -4  -1  -7   49.99    6.70
   4   1   7   46.40    6.60
  -4   1  -7   61.59    8.40
   4  -2  -7   32.40    5.00
   4  -2  -7   37.50    5.90
  -4   2   7   34.00    5.30
   4   2  -7   35.20    5.00
   3  -2  -7  135.39    7.70
   3  -2  -7  128.59    7.60
   3  -2  -7  133.99    8.00
   3   2  -7  130.59    7.50
  -3   2   7  131.49    7.70
   2  -2  -7  661.53   19.40
  -2  -2   7  654.03   14.00
   2  -2  -7  651.13   18.30
   2   2  -7  644.84   18.10
   2   2  -7  641.24   14.90
  -2   2   7  671.53   18.60
  -2   2   7  661.93   16.40
  -1  -2   7 1375.26   29.30
   1  -2  -7 1368.16   32.40
   1   2  -7 1345.07   28.40
  -1   2   7 1379.06   30.10
   1   2  -7 1326.37   28.90
  -1   2   7 1346.07   30.70
   1   2  -7 1351.16   27.00
   0  -2  -7  468.85   14.70
   0  -2  -7  477.05   14.80
   0   2   7  470.55   12.50
   0   2  -7  464.55   13.60
   0   2   7  477.25   13.80
  -1  -2  -7  160.78    8.10
   1   2   7  156.28    7.60
   1   2   7  151.68    4.80
  -1   2  -7  152.48    7.90
  -2  -2  -7  163.28    8.80
   2   2   7  175.08    9.10
  -2   2  -7  168.38    9.50
  -3  -2  -7   32.60    5.20
   3   2   7   30.20    5.00
  -3   2  -7   42.70    6.60
   4  -3  -7   94.59    8.10
   4  -3  -7   93.89    8.80
  -4   3   7   80.59    8.30
   4   3  -7   76.39    7.40
   3  -3  -7   23.80    4.10
   3  -3  -7   26.30    4.00
   3  -3  -7   20.20    4.40
   3   3  -7   41.00    5.00
   3   3  -7   23.10    4.00
  -3   3   7   18.20    3.70
   2  -3  -7  590.34   18.80
   2  -3  -7  583.44   16.90
  -2   3   7  575.94   17.70
   2   3  -7  572.64   16.50
  -2   3   7  566.94   16.00
   1  -3  -7  146.59    8.00
  -1   3   7  134.59    6.60
   1   3  -7  152.48    5.30
  -1   3   7  160.38    7.30
   0  -3  -7  239.08   10.20
   0  -3  -7  225.78   10.00
   0   3  -7  235.18    8.90
   0   3   7  243.38    9.50
   0   3   7  225.18    8.10
  -1  -3  -7    0.30    1.70
  -1  -3  -7    1.20    1.60
   1   3   7   -0.10    1.30
  -1   3  -7   -1.50    1.10
  -2  -3  -7  107.39    7.40
  -2   3  -7  113.29    8.00
   2   3   7   93.19    7.00
  -3  -3  -7   15.90    3.90
  -3   3  -7   12.70    4.10
   3   3   7   20.10    4.20
   3  -4  -7  215.28    9.90
   3  -4  -7  198.88   11.50
   3   4  -7  225.28    9.70
  -3   4   7  203.58   11.00
   3   4  -7  222.58    9.50
   2  -4  -7  393.86   15.60
   2  -4  -7  385.26   13.00
  -2   4   7  397.56   13.50
   2   4  -7  396.16   12.70
  -2   4   7  388.96   14.50
   1  -4  -7   82.09    4.70
   1  -4  -7   77.69    6.40
  -1   4   7   73.99    5.40
  -1   4   7   89.09    5.90
   0  -4  -7  235.48   10.80
   0   4   7  249.38    9.30
   0   4  -7  259.67    9.90
   0   4   7  242.18   10.50
  -1  -4  -7   28.20    4.40
  -1  -4  -7   26.60    4.60
   1   4   7   32.50    4.60
  -1   4  -7   18.70    3.70
  -2  -4  -7    5.70    2.70
  -2  -4  -7    6.10    2.70
  -2   4  -7    7.50    3.20
   2   4   7    2.30    2.10
  -3  -4  -7    0.10    2.00
   3   4   7    0.30    1.90
  -3   4  -7    2.20    2.20
   3  -5  -7  122.09    9.70
  -3   5   7  110.99   10.00
   2  -5  -7   35.90    5.90
  -2   5   7   27.80    4.40
  -2   5   7   32.50    5.00
   1  -5  -7   67.39    7.50
  -1   5   7   84.39    6.30
  -1   5   7   68.69    6.80
   0  -5  -7  151.38    9.00
   0   5  -7  155.08    9.40
   0   5   7  153.48    8.80
  -1  -5  -7   51.79    6.60
  -1   5  -7   47.00    6.10
   1   5   7   49.70    6.20
  -2  -5  -7   17.70    3.90
  -2  -5  -7   13.30    3.50
  -2   5  -7   21.80    4.90
   2   5   7   15.70    4.00
   1  -6  -7   11.30    3.50
  -1   6   7   10.90    3.50
   0  -6  -7   63.99    7.50
   0   6   7   77.39    7.80
  -1  -6  -7    7.20    2.60
   1   6   7    3.40    2.50
   4   0  -8   71.69    8.00
   4   0  -8   71.59    6.00
   4   0  -8   73.09    7.20
   3   0  -8   -0.10    1.20
   3   0  -8    1.40    1.80
   2   0  -8  149.99    6.90
   2   0  -8  133.09    7.20
  -1   0   8    0.00    0.50
   1   0  -8   -1.10    0.90
   1   0  -8   -0.40    1.10
   0   0   8  347.57   10.20
   0   0  -8  333.57   11.50
  -1   0  -8    0.10    1.40
   1   0   8    0.80    1.30
  -2   0  -8  457.15   16.20
   2   0   8  403.06   15.00
   3   0   8    1.00    2.20
  -3   0  -8    4.10    2.60
   4  -1  -8    7.90    2.80
   4  -1  -8    1.10    2.00
   4  -1  -8    2.90    2.40
  -4   1   8    0.20    1.80
   4   1  -8    3.70    2.60
   4   1  -8    3.30    2.00
   3  -1  -8  160.08    8.50
   3  -1  -8  163.78    8.80
   3   1  -8  161.98    7.20
   3   1  -8  176.38    8.90
   2  -1  -8  288.97   11.10
   2  -1  -8  287.77   11.00
  -2  -1   8  300.37    9.10
  -2   1   8  289.77    8.10
   2   1  -8  300.77    9.60
   2   1  -8  297.07   11.10
  -1  -1   8  115.79    5.50
   1  -1  -8  123.99    6.60
   1  -1  -8  115.19    6.30
   1   1  -8  117.19    3.20
   1   1  -8  117.19    5.50
   1   1  -8  119.09    5.50
  -1   1   8  115.39    4.80
   0  -1  -8  213.38    9.10
   0   1  -8  203.38    8.40
   0   1   8  198.48    7.60
  -1  -1  -8  374.56   13.50
   1   1   8  358.56   12.40
  -1   1  -8  356.76   13.10
  -2  -1  -8   50.99    6.10
   2   1   8   60.49    6.10
  -2   1  -8   48.20    6.10
  -3  -1  -8   45.00    6.40
  -3   1  -8   27.50    5.40
   3   1   8   33.00    5.40
   4  -2  -8  232.18   11.60
   4  -2  -8  193.08   11.20
   4   2  -8  199.08   10.70
  -4   2   8  212.48   11.20
   4   2  -8  226.98   11.10
   3  -2  -8   27.70    4.80
   3  -2  -8   25.40    4.20
  -3   2   8   27.80    3.10
  -3   2   8   26.60    4.70
   3   2  -8   24.60    4.50
   2  -2  -8  765.52   21.10
   2  -2  -8  752.62   22.00
  -2   2   8  757.52   21.00
  -2   2   8  765.62   18.70
   2   2  -8  759.82   17.50
   2   2  -8  768.92   20.90
   1  -2  -8   37.30    4.60
  -1  -2   8   43.60    3.20
   1  -2  -8   47.20    5.10
   1   2  -8   47.80    3.30
  -1   2   8   46.70    4.30
   1   2  -8   47.80    3.20
  -1   2   8   48.80    3.50
   0  -2  -8 1163.58   29.50
   0  -2  -8 1188.38   29.50
   0   2   8 1156.38   27.80
   0   2  -8 1178.68   28.20
   0   2   8 1172.98   26.50
  -1  -2  -8   63.09    6.40
  -1   2  -8   86.09    6.20
   1   2   8   83.99    5.70
   1   2   8   82.19    3.50
  -2  -2  -8  253.47   11.70
  -2   2  -8  242.28   11.90
   2   2   8  244.18   11.30
  -3  -2  -8   12.90    3.80
   3   2   8    7.00    2.90
  -3   2  -8    5.30    3.10
   4  -3  -8    9.80    3.50
   4  -3  -8    2.70    2.70
  -4   3   8    5.50    2.80
   4   3  -8    4.70    2.50
   3  -3  -8   17.00    3.60
   3  -3  -8   16.60    4.20
   3  -3  -8   24.70    4.40
  -3   3   8   15.80    3.60
   3   3  -8    9.70    2.90
  -3   3   8   16.40    2.90
   2  -3  -8  106.99    7.50
   2  -3  -8  111.29    6.50
  -2   3   8  119.59    6.10
  -2   3   8  122.39    7.30
   2   3  -8  121.09    6.70
   1  -3  -8 2503.05   55.99
  -1   3   8 2514.15   53.39
  -1   3   8 2425.96   53.59
   1   3  -8 2500.75   50.79
   0  -3  -8  185.58    9.30
   0  -3  -8  179.48    9.20
   0   3   8  187.48    7.40
   0   3   8  189.88    8.70
   0   3  -8  182.78    8.10
  -1  -3  -8    6.10    2.80
  -1  -3  -8    3.00    2.10
   1   3   8    7.60    2.50
  -1   3  -8   10.30    2.90
  -2  -3  -8    2.10    2.10
   2   3   8    2.30    2.10
  -2   3  -8    3.70    2.20
  -3  -3  -8  186.68   10.90
  -3   3  -8  213.48   12.60
   3   3   8  204.28   11.70
   3  -4  -8  145.29    8.20
   3  -4  -8  149.59   10.10
   3  -4  -8  136.49    8.00
  -3   4   8  127.69    8.90
  -3   4   8  134.69    7.50
   3   4  -8  136.39    7.80
   3   4  -8  133.69    7.60
   2  -4  -8  201.28    9.00
   2  -4  -8  228.18   11.60
  -2   4   8  217.58   10.50
  -2   4   8  223.88    9.70
   2   4  -8  214.58    9.10
   1  -4  -8   50.69    4.80
   1  -4  -8   41.20    5.50
  -1   4   8   48.80    5.20
  -1   4   8   57.69    5.80
   0  -4  -8  264.57   11.90
   0   4   8  262.77   11.30
   0   4  -8  256.77   10.30
   0   4   8  268.47    9.80
  -1  -4  -8  258.27   12.20
  -1  -4  -8  271.07   12.20
  -1   4  -8  279.67   12.30
   1   4   8  276.37   12.20
  -2  -4  -8   27.80    5.00
  -2  -4  -8   34.50    5.30
   2   4   8   41.90    5.90
  -2   4  -8   21.20    4.60
   2  -5  -8   41.20    6.40
  -2   5   8   28.90    5.20
  -2   5   8   32.20    4.70
   1  -5  -8    1.50    2.20
  -1   5   8    2.70    2.00
  -1   5   8    2.20    2.00
   0  -5  -8    1.40    2.00
   0   5   8    1.10    1.80
  -1  -5  -8   63.79    7.10
  -1   5  -8   57.49    6.90
   1   5   8   51.39    6.40
  -2  -5  -8    6.30    2.80
  -2  -5  -8    1.10    2.30
   2   5   8    2.70    2.50
  -2   5  -8    3.30    2.40
   0  -6  -8   87.99    7.60
   0   6   8   86.89    8.50
   4   0  -9   -1.50    1.40
   4   0  -9    2.30    1.90
   4   0  -9    0.10    1.90
   3   0  -9   56.39    6.50
   3   0  -9   66.29    5.10
   2   0  -9    1.20    1.40
   2   0  -9   -1.10    1.30
   1   0  -9  461.95   14.00
  -1   0   9  430.76   11.00
   1   0  -9  443.16   13.80
   0   0   9    0.80    0.90
   0   0  -9   -1.30    1.20
   1   0   9  522.85   16.20
  -1   0  -9  541.85   17.50
  -2   0  -9    1.30    2.00
   2   0   9   -1.20    1.30
  -3   0  -9  146.19   10.10
   3   0   9  138.99    9.60
   4  -1  -9   99.29    8.00
   4  -1  -9  111.19    9.80
   4  -1  -9  114.69    8.00
   4   1  -9  105.09    7.80
  -4   1   9   90.89    8.20
   4   1  -9  111.79   10.80
   3  -1  -9  192.08    9.60
   3  -1  -9  179.08    9.60
   3   1  -9  182.18    7.90
   3   1  -9  180.88    9.50
   2  -1  -9   74.19    5.60
   2  -1  -9   70.09    5.60
  -2   1   9   70.49    3.40
   2   1  -9   71.79    4.50
   2   1  -9   81.59    5.90
   1  -1  -9   35.60    4.60
   1  -1  -9   36.60    4.30
  -1   1   9   37.20    3.20
   1   1  -9   39.00    4.10
   1   1  -9   34.40    3.70
   0  -1  -9  384.76   13.40
   0  -1  -9  386.66   13.70
   0   1  -9  378.06   12.90
   0   1   9  376.06   11.90
  -1  -1  -9  627.24   19.50
   1   1   9  609.04   18.20
  -1   1  -9  614.44   19.30
  -2  -1  -9  208.58   10.90
   2   1   9  216.48   10.70
  -2   1  -9  218.38   11.20
  -3  -1  -9  133.49    9.50
   3   1   9  147.19    9.60
  -3   1  -9  130.59    9.60
   4  -2  -9   30.50    5.40
   4  -2  -9   38.40    5.60
   4  -2  -9   24.50    5.00
   4   2  -9   31.30    5.40
  -4   2   9   38.30    5.90
   4   2  -9   42.10    6.10
   3  -2  -9  201.28   10.50
   3  -2  -9  210.58   10.40
   3   2  -9  215.88   10.30
  -3   2   9  195.38   10.10
   2  -2  -9  126.89    7.40
   2  -2  -9  138.59    8.10
   2   2  -9  130.79    5.30
  -2   2   9  120.69    5.60
  -2   2   9  143.29    7.60
   2   2  -9  137.39    7.60
   1  -2  -9  712.03   20.70
   1  -2  -9  696.13   20.40
  -1   2   9  675.33   18.60
   1   2  -9  667.03   17.60
  -1   2   9  688.73   18.00
   1   2  -9  674.63   17.00
   0  -2  -9  481.45   16.20
   0  -2  -9  483.15   16.30
   0   2   9  475.85   13.40
   0   2   9  499.45   14.90
   0   2  -9  492.85   15.20
  -1  -2  -9  256.97   11.80
   1   2   9  253.57   10.90
   1   2   9  260.97    7.60
  -1   2  -9  275.47   11.70
  -2  -2  -9   31.20    4.90
  -2   2  -9   29.80    5.10
   2   2   9   30.20    4.80
  -3  -2  -9   41.80    6.30
   3   2   9   27.10    4.90
  -3   2  -9   45.00    6.90
   3  -3  -9    1.60    2.10
   3  -3  -9    2.70    2.30
  -3   3   9    4.60    2.50
  -3   3   9    2.70    1.80
   3   3  -9    6.00    2.40
   2  -3  -9   24.70    4.00
   2  -3  -9   20.00    4.50
  -2   3   9   19.90    3.20
   2   3  -9   25.10    4.10
  -2   3   9   16.20    3.30
   1  -3  -9   85.99    6.60
  -1   3   9   86.89    5.50
  -1   3   9   78.39    5.40
   1   3  -9   73.69    4.20
   0  -3  -9  874.71   25.80
   0  -3  -9  930.91   26.10
   0   3   9  937.21   22.70
   0   3  -9  924.41   24.10
   0   3   9  913.91   24.60
  -1  -3  -9   68.09    7.00
  -1  -3  -9   64.39    7.40
  -1   3  -9   55.69    6.30
   1   3   9   63.29    6.50
  -2  -3  -9   28.80    5.20
  -2   3  -9   38.20    6.10
   2   3   9   43.20    6.10
  -3  -3  -9   20.40    4.70
   3   3   9   17.20    4.10
   3  -4  -9  145.29   10.20
   3  -4  -9  149.19    8.50
   3  -4  -9  146.39    8.60
  -3   4   9  156.38    8.10
  -3   4   9  144.89    9.60
   3   4  -9  126.89    8.00
   2  -4  -9  113.09    6.80
   2  -4  -9  117.89    8.60
   2   4  -9  112.79    6.80
  -2   4   9  115.69    6.90
  -2   4   9  117.59    7.90
   1  -4  -9    8.80    3.30
   1  -4  -9    8.20    2.50
  -1   4   9   10.80    2.90
  -1   4   9    7.90    2.60
   0  -4  -9  384.16   15.30
   0  -4  -9  381.66   15.50
   0   4  -9  384.46   13.30
   0   4   9  388.56   14.60
   0   4   9  355.96   12.20
  -1  -4  -9  364.96   15.20
  -1  -4  -9  364.56   15.00
   1   4   9  348.57   14.60
  -1   4  -9  351.76   14.50
  -2  -4  -9   17.50    4.10
  -2  -4  -9   18.70    4.50
  -2   4  -9   16.30    4.20
   2   4   9   20.80    4.50
   2  -5  -9  143.49   10.20
  -2   5   9  162.48    9.70
  -2   5   9  151.58    8.80
   1  -5  -9   50.29    7.30
  -1   5   9   56.79    6.30
  -1   5   9   44.30    5.90
   0  -5  -9   16.90    4.00
   0   5   9   18.30    4.10
  -1  -5  -9  123.29    9.10
  -1  -5  -9  127.69    8.90
  -1   5  -9  119.09    8.40
   1   5   9  123.79    8.80
   4   0 -10   58.59    7.00
   4   0 -10   58.59    7.30
   3   0 -10   -0.40    1.60
   3   0 -10    1.80    1.60
   2   0 -10  724.83   20.30
   1   0 -10    0.60    1.50
   1   0 -10    1.20    1.70
  -1   0  10   -0.20    0.60
   0   0 -10   36.20    4.60
   0   0  10   47.60    4.30
   1   0  10    0.90    1.50
  -1   0 -10   -0.30    1.60
  -2   0 -10 1648.73   42.50
   2   0  10 1635.54   41.40
  -3   0 -10    2.30    2.90
   4  -1 -10   16.70    4.50
   4  -1 -10   11.90    3.60
   4  -1 -10   18.80    4.30
  -4   1  10   13.80    3.80
   4   1 -10   13.10    3.60
   4   1 -10   14.60    4.10
   3  -1 -10  163.48    9.40
   3  -1 -10  170.18    9.20
   3   1 -10  150.58    9.00
   2  -1 -10  142.99    8.10
   2  -1 -10  140.99    8.20
   2   1 -10  151.38    6.90
   1  -1 -10  296.27   11.80
   1  -1 -10  295.97   11.80
   1   1 -10  300.77   10.80
   1   1 -10  296.47   10.50
  -1   1  10  296.87    9.40
   0  -1 -10  140.49    7.90
   0  -1 -10  137.09    7.90
   0   1 -10  132.19    7.40
   0   1  10  125.09    6.40
  -1  -1 -10  538.05   18.30
  -1   1 -10  516.75   17.90
   1   1  10  528.45   16.80
  -2  -1 -10   67.59    7.70
  -2   1 -10   61.99    7.30
   2   1  10   57.29    6.40
  -3  -1 -10  177.28   11.40
   3   1  10  190.58   11.50
  -3   1 -10  172.38   14.50
   3  -2 -10   37.00    5.70
   3  -2 -10   41.90    5.70
  -3   2  10   38.20    5.40
   3   2 -10   44.50    6.20
   2  -2 -10   64.69    6.50
   2  -2 -10   77.79    6.40
  -2   2  10   63.49    4.10
  -2   2  10   75.59    6.90
   2   2 -10   69.59    6.80
   1  -2 -10   51.99    6.00
   1  -2 -10   47.40    6.10
   1   2 -10   46.40    4.60
   1   2 -10   44.70    3.60
  -1   2  10   48.50    4.40
  -1   2  10   62.69    5.60
   0  -2 -10  129.69    8.10
   0  -2 -10  121.39    7.90
   0   2  10  131.29    6.10
   0   2 -10  133.59    7.30
   0   2  10  124.19    6.90
  -1  -2 -10  188.68   10.40
  -1   2 -10  176.18    9.70
   1   2  10  183.78    9.40
  -2  -2 -10    4.40    2.90
  -2   2 -10    3.00    2.20
   2   2  10    7.40    2.70
   3  -3 -10   51.79    7.00
   3  -3 -10   58.79    7.30
  -3   3  10   46.80    6.40
   3   3 -10   46.30    6.20
   2  -3 -10   11.80    3.80
   2  -3 -10   22.20    4.00
   2   3 -10   26.90    4.40
  -2   3  10   11.80    2.50
  -2   3  10   21.40    4.10
   1  -3 -10   89.49    7.10
  -1   3  10   96.19    6.20
  -1   3  10   77.99    5.50
   0  -3 -10  117.89    8.20
   0  -3 -10  107.59    7.80
   0   3  10   95.29    5.60
   0   3  10  109.89    6.80
   0   3 -10   95.89    6.30
  -1  -3 -10   23.00    4.50
  -1  -3 -10   30.10    5.00
  -1   3 -10   29.20    4.70
   1   3  10   32.60    4.90
  -2  -3 -10    2.20    2.20
   2   3  10    0.30    1.90
  -2   3 -10   -1.00    2.00
   2  -4 -10   61.39    6.70
   2  -4 -10   72.89    8.70
  -2   4  10   54.79    6.40
   2   4 -10   66.59    6.60
  -2   4  10   62.49    6.30
   1  -4 -10    5.70    2.40
   1  -4 -10    6.50    2.90
  -1   4  10    3.10    2.00
  -1   4  10    4.50    2.30
   0  -4 -10  195.88   11.20
   0  -4 -10  205.78   11.30
   0   4  10  224.98   10.80
   0   4  10  208.68    8.70
  -1  -4 -10  213.78   11.90
  -1  -4 -10  237.68   12.30
   1   4  10  214.48   11.50
  -1   4 -10  214.88   11.40
   1  -5 -10  249.28   13.30
  -1   5  10  271.17   12.00
  -1   5  10  260.47   12.10
   0  -5 -10   27.20    5.10
   0   5  10   14.70    3.90
   3   0 -11    6.60    2.30
   3   0 -11    7.20    2.90
   2   0 -11    0.40    1.40
   1   0 -11  518.25   16.80
   1   0 -11  537.35   16.90
   0   0 -11    2.50    2.00
   0   0  11    1.40    1.20
  -1   0 -11   25.70    4.70
   1   0  11   37.80    4.80
   2   0  11   -1.80    1.50
  -2   0 -11   -1.20    2.00
   3  -1 -11   38.60    6.10
   3  -1 -11   48.60    6.20
   3   1 -11   40.10    5.90
   2  -1 -11   33.70    5.00
   2  -1 -11   37.10    5.30
   2   1 -11   32.00    4.20
   1  -1 -11   35.10    4.80
   1  -1 -11   35.40    5.00
   1   1 -11   40.30    4.90
   1   1 -11   35.70    4.50
  -1   1  11   42.60    3.80
   0  -1 -11  331.47   13.60
   0  -1 -11  337.97   13.80
   0   1  11  342.27   11.90
   0   1 -11  344.97   13.10
  -1  -1 -11  117.79    8.40
   1   1  11  132.79    7.80
  -1   1 -11  143.09    8.90
  -2  -1 -11  143.49    9.80
  -2   1 -11  153.28   10.10
   2   1  11  159.78    9.70
   3  -2 -11   21.40    4.50
   3  -2 -11   16.20    4.00
  -3   2  11   10.60    3.60
   3   2 -11   15.60    3.90
   2  -2 -11   19.80    4.40
   2  -2 -11   13.30    3.30
  -2   2  11   13.80    3.30
   1  -2 -11   89.09    6.90
   1  -2 -11   88.79    7.00
   1   2 -11   94.59    5.60
  -1   2  11   88.19    5.40
  -1   2  11   87.59    5.80
   1   2 -11   92.79    5.40
   0  -2 -11  127.89    8.50
   0  -2 -11  130.09    8.50
   0   2  11  121.89    7.10
   0   2  11  128.59    6.30
   0   2 -11  122.69    7.40
  -1  -2 -11   86.99    8.60
   1   2  11   78.49    7.50
  -1   2 -11   85.59    7.00
  -2  -2 -11   11.00    3.90
   2   2  11   19.10    4.00
  -2   2 -11   17.60    4.30
   3  -3 -11    5.10    2.90
   3  -3 -11    2.10    2.50
  -3   3  11    3.50    2.90
   3   3 -11    6.30    2.70
   2  -3 -11  130.69    9.10
   2  -3 -11  114.89    7.70
  -2   3  11  122.69    8.00
   2   3 -11  124.29    7.90
   1  -3 -11   -2.40    1.60
  -1   3  11    2.20    1.60
  -1   3  11    2.90    1.90
   0  -3 -11    5.10    2.90
   0  -3 -11    9.10    3.50
   0   3  11   12.10    3.10
   0   3 -11    6.10    2.60
   0   3  11   12.40    2.60
  -1  -3 -11   59.99    7.10
  -1  -3 -11   72.49    8.40
   1   3  11   67.39    7.20
  -1   3 -11   64.49    7.50
  -2   3 -11   86.29    9.10
   2   3  11   91.29    8.90
   2  -4 -11    4.40    2.90
   2  -4 -11    8.20    2.90
   2   4 -11    1.10    1.90
  -2   4  11    1.20    2.30
  -2   4  11    0.70    1.50
   1  -4 -11  159.58   10.50
  -1   4  11  152.98    8.50
  -1   4  11  157.88    8.80
   0  -4 -11  123.29    9.20
   0  -4 -11   91.49    9.10
   0   4  11  110.19    7.80
  -1  -4 -11  107.59   10.80
   1   4  11   91.39    8.60
  -1   4 -11  103.79    8.00
   3   0 -12    1.30    1.50
   3   0 -12   -0.20    1.90
   2   0 -12   27.90    4.50
   1   0 -12    2.50    1.90
   1   0 -12   -0.40    1.60
   0   0  12   87.79    5.60
   0   0 -12   79.49    6.50
   0   0 -12   82.19    6.90
   1   0  12   -1.40    1.30
  -1   0 -12   -1.20    1.60
  -2   0 -12   79.79    8.70
   2   0  12   75.89    8.10
   3  -1 -12   46.50    7.00
   3  -1 -12   38.20    5.70
   3   1 -12   29.40    5.40
   2  -1 -12    0.70    1.60
   2   1 -12    5.40    2.00
   1  -1 -12   40.50    5.50
   1  -1 -12   35.60    5.20
   1   1 -12   37.00    4.80
   1   1 -12   38.30    4.80
   0  -1 -12   20.10    4.40
   0  -1 -12   29.90    5.40
   0   1  12   18.70    3.20
   0   1 -12   23.70    4.30
  -1  -1 -12   76.99    8.20
   1   1  12   81.99    7.70
  -1   1 -12   75.69    7.80
  -2  -1 -12    1.80    4.40
   2   1  12    4.40    2.40
  -2   1 -12    3.30    2.50
   3  -2 -12   26.80    5.20
   3  -2 -12   28.20    5.50
  -3   2  12   17.80    4.20
   3   2 -12   18.50    4.10
   2  -2 -12   49.90    6.60
   2  -2 -12   49.99    7.00
  -2   2  12   52.99    6.30
   1  -2 -12   27.90    4.70
   1  -2 -12   31.20    5.30
  -1   2  12   23.00    3.70
   1   2 -12   13.00    2.90
  -1   2  12   22.40    3.30
   1   2 -12   23.80    4.30
   0  -2 -12  156.18    9.80
   0  -2 -12  161.98   10.00
   0   2  12  147.89    8.20
   0   2  12  148.79    7.10
   0   2 -12  164.78    9.00
  -1  -2 -12   52.29    7.30
  -1  -2 -12   52.29    7.10
   1   2  12   53.09    6.40
  -1   2 -12   39.60    5.80
   2  -3 -12    4.20    2.40
   2  -3 -12    8.70    3.30
  -2   3  12    8.10    2.90
   2   3 -12    2.50    2.90
   1  -3 -12   92.69    8.00
  -1   3  12   82.79    6.10
  -1   3  12   75.69    5.60
   0  -3 -12   11.80    3.60
   0  -3 -12   23.70    5.30
   0   3  12   19.50    3.80
   0   3 -12   13.10    3.20
  -1  -3 -12  311.97   15.00
  -1  -3 -12  333.77   22.10
  -1   3 -12  295.37   14.00
   1  -4 -12    5.70    2.80
  -1   4  12    3.00    2.10
  -1   4  12    1.60    2.00
   0  -4 -12  156.08   10.70
   2   0 -13   -0.50    1.40
   1   0 -13   23.30    4.20
   1   0 -13   22.30    4.10
   0   0 -13   -0.60    1.70
   0   0 -13    4.60    2.80
   1   0  13  106.69    7.60
  -1   0 -13  108.69    8.60
   2  -1 -13   64.89    7.20
   1  -1 -13   21.70    4.30
   1  -1 -13   19.20    4.00
   1   1 -13   24.70    4.00
   1   1 -13   19.70    3.60
   0  -1 -13   29.90    5.10
   0  -1 -13   40.20    6.00
   0   1 -13   36.70    5.50
   0   1 -13   47.90    6.20
   0   1  13   34.70    4.50
  -1  -1 -13   -1.20    2.40
  -1   1 -13   -1.60    2.10
   1   1  13    1.60    1.80
   2  -2 -13   85.09    8.90
   2  -2 -13   91.99    9.70
  -2   2  13   80.09    7.80
   1  -2 -13   66.09    8.10
   1  -2 -13   44.10    6.10
  -1   2  13   55.09    5.90
   0  -2 -13   35.90    5.70
   0  -2 -13   40.60    6.20
   0   2  13   30.50    4.40
   0   2 -13   48.20    6.00
  -1  -2 -13   88.69    9.40
   1   2  13   89.99    8.30
  -1   2 -13   99.29    8.10
   1  -3 -13   19.30    4.80
  -1   3  13   22.00    3.90
   0  -3 -13    0.80    2.10
   0   3  13    1.10    2.00
   1   0 -14    2.40    2.00
   1   0 -14    0.40    1.80
   0   0 -14   85.99    8.90
   0   0 -14   91.59    7.80
   1  -1 -14   35.20    6.10
   1  -1 -14   41.90    5.90
   1   1 -14   40.30    5.50
   0  -1 -14   14.90    4.00
   0  -1 -14   18.40    4.40
   0   1 -14   14.30    3.90
   0   1 -14   17.10    4.00

_computing_structure_solution     'SHELXT 2014/4 (Sheldrick, 2014)'
;
_shelx_hkl_checksum              33162
loop_
_space_group_symop_operation_xyz
'x, y, z'
'x+1/2, -y, z+1/2'
loop_
_atom_site_label
_atom_site_type_symbol
_atom_site_fract_x
_atom_site_fract_y
_atom_site_fract_z
_atom_site_U_iso_or_equiv
_atom_site_adp_type
_atom_site_occupancy
_atom_site_site_symmetry_order
_atom_site_calc_flag
_atom_site_refinement_flags_posn
_atom_site_refinement_flags_adp
C1 C 0.5196(5) 0.4515(4) 0.62919(18) 0.0145(5) Uani 1 1 d . .
H1 H 0.5946 0.5852 0.6821 0.017 Uiso 1 1 calc R U
C2 C 0.3301(6) 0.2664(4) 0.6733(2) 0.0153(4) Uani 1 1 d . .
H2 H 0.2755 0.2709 0.7561 0.018 Uiso 1 1 calc R U
C3 C 0.2186(5) 0.0721(4) 0.59568(19) 0.0151(4) Uani 1 1 d . .
H3 H 0.0876 -0.0585 0.6247 0.018 Uiso 1 1 calc R U
N5 N 0.4884(4) 0.2533(3) 0.43274(15) 0.0129(4) Uani 1 1 d . .
O5 O 0.5758(4) 0.2603(3) 0.32493(14) 0.0189(4) Uani 1 1 d . .
N6 N 0.6027(4) 0.4488(3) 0.51198(15) 0.0125(4) Uani 1 1 d . .
O6 O 0.7838(4) 0.6123(3) 0.46721(16) 0.0197(4) Uani 1 1 d . .
C4 C 0.3004(5) 0.0711(4) 0.4758(2) 0.0151(4) Uani 1 1 d . .
H4 H 0.2225 -0.0611 0.4223 0.018 Uiso 1 1 calc R U
loop_
_atom_site_aniso_label
_atom_site_aniso_U_11
_atom_site_aniso_U_22
_atom_site_aniso_U_33
_atom_site_aniso_U_23
_atom_site_aniso_U_13
_atom_site_aniso_U_12
C1 0.0136(11) 0.0166(12) 0.0128(10) -0.0021(7) -0.0001(8) 0.0011(8)
C2 0.0157(10) 0.0199(11) 0.0106(8) 0.0021(8) 0.0027(7) 0.0049(8)
C3 0.0137(10) 0.0146(11) 0.0176(10) 0.0059(8) 0.0036(8) 0.0004(8)
N5 0.0130(9) 0.0135(10) 0.0119(9) -0.0011(7) 0.0012(7) 0.0020(7)
O5 0.0261(9) 0.0223(9) 0.0094(7) 0.0002(6) 0.0065(6) 0.0022(7)
N6 0.0144(9) 0.0105(9) 0.0123(8) 0.0005(7) 0.0009(7) -0.0001(7)
O6 0.0215(7) 0.0164(7) 0.0218(7) 0.0034(6) 0.0055(6) -0.0055(7)
C4 0.0152(10) 0.0125(10) 0.0174(10) -0.0008(9) 0.0015(8) 0.0015(9)
loop_
_atom_type_symbol
_atom_type_description
_atom_type_scat_dispersion_real
_atom_type_scat_dispersion_imag
_atom_type_scat_source
C C 0.0033 0.0016 'International Tables Vol C Tables 4.2.6.8 and 6.1.1.4'
H H 0.0000 0.0000 'International Tables Vol C Tables 4.2.6.8 and 6.1.1.4'
N N 0.0061 0.0033 'International Tables Vol C Tables 4.2.6.8 and 6.1.1.4'
O O 0.0106 0.0060 'International Tables Vol C Tables 4.2.6.8 and 6.1.1.4'
loop_
_geom_angle_atom_site_label_1
_geom_angle_atom_site_label_2
_geom_angle_atom_site_label_3
_geom_angle
N6 C1 C2 121.6(2)
N6 C1 H1 119.2
C2 C1 H1 119.2
C1 C2 C3 119.2(2)
C1 C2 H2 120.4
C3 C2 H2 120.4
C4 C3 C2 119.2(2)
C4 C3 H3 120.4
C2 C3 H3 120.4
O5 N5 C4 124.36(17)
O5 N5 N6 116.51(16)
C4 N5 N6 119.12(15)
O6 N6 C1 124.23(17)
O6 N6 N5 116.33(15)
C1 N6 N5 119.44(16)
N5 C4 C3 121.52(19)
N5 C4 H4 119.2
C3 C4 H4 119.2
loop_
_geom_bond_atom_site_label_1
_geom_bond_atom_site_label_2
_geom_bond_distance
C1 N6 1.353(2)
C1 C2 1.368(3)
C1 H1 0.9500
C2 C3 1.387(3)
C2 H2 0.9500
C3 C4 1.379(3)
C3 H3 0.9500
N5 O5 1.260(2)
N5 C4 1.348(2)
N5 N6 1.405(2)
N6 O6 1.267(2)
C4 H4 0.9500
