#------------------------------------------------------------------------------
#$Date: 2017-12-15 02:05:34 +0200 (Fri, 15 Dec 2017) $
#$Revision: 204264 $
#$URL: file:///home/coder/svn-repositories/cod/cif/1/54/84/1548454.cif $
#------------------------------------------------------------------------------
#
# This file is available in the Crystallography Open Database (COD),
# http://www.crystallography.net/
#
# All data on this site have been placed in the public domain by the
# contributors.
#
data_1548454
loop_
_publ_author_name
'Mondal, Arobendo'
'Gaultois, Michael W.'
'Pell, Andrew J.'
'Iannuzzi, Marcella'
'Grey, Clare P.'
'Hutter, J\"urg'
'Kaupp, Martin'
_publ_section_title
;
 Large-Scale Computation of Nuclear Magnetic Resonance Shifts for
 Paramagnetic Solids Using CP2K.
;
_journal_name_full               'Journal of chemical theory and computation'
_journal_paper_doi               10.1021/acs.jctc.7b00991
_journal_year                    2017
_chemical_absolute_configuration syn
_chemical_formula_moiety         'C3 H5 O3 -, Li +'
_chemical_formula_sum            'C3 H5 Li O3'
_chemical_formula_weight         96.01
_space_group_crystal_system      monoclinic
_space_group_IT_number           4
_space_group_name_Hall           'P 2yb'
_space_group_name_H-M_alt        'P 1 21 1'
_symmetry_space_group_name_Hall  'P 2yb'
_symmetry_space_group_name_H-M   'P 1 21 1'
_atom_sites_solution_hydrogens   mixed
_audit_creation_method           SHELXL-2014/7
_cell_angle_alpha                90
_cell_angle_beta                 98.226(7)
_cell_angle_gamma                90
_cell_formula_units_Z            2
_cell_length_a                   4.5412(4)
_cell_length_b                   4.8838(4)
_cell_length_c                   10.1982(10)
_cell_measurement_reflns_used    1681
_cell_measurement_temperature    180(2)
_cell_measurement_theta_max      66.76
_cell_measurement_theta_min      4.38
_cell_volume                     223.85(3)
_computing_cell_refinement       'SAINT (Bruker, 2014)'
_computing_data_collection       'APEX2 (Bruker, 2014)'
_computing_data_reduction        SAINT
_computing_molecular_graphics    'Mercury (Macrae et al., 2008)'
_computing_publication_material  SHELXL
_computing_structure_refinement  'SHELXL (Sheldrick, 2015)'
_computing_structure_solution    'SHELXT (Sheldrick, 2015)'
_diffrn_ambient_temperature      180(2)
_diffrn_measured_fraction_theta_full 1.000
_diffrn_measured_fraction_theta_max 1.000
_diffrn_measurement_device_type  'Bruker D8-QUEST PHOTON-100'
_diffrn_measurement_method       '\w and \f-scans'
_diffrn_radiation_type           CuK\a
_diffrn_radiation_wavelength     1.54178
_diffrn_reflns_av_R_equivalents  0.0531
_diffrn_reflns_av_unetI/netI     0.0492
_diffrn_reflns_Laue_measured_fraction_full 1.000
_diffrn_reflns_Laue_measured_fraction_max 1.000
_diffrn_reflns_limit_h_max       5
_diffrn_reflns_limit_h_min       -5
_diffrn_reflns_limit_k_max       5
_diffrn_reflns_limit_k_min       -5
_diffrn_reflns_limit_l_max       12
_diffrn_reflns_limit_l_min       -11
_diffrn_reflns_number            2423
_diffrn_reflns_point_group_measured_fraction_full 0.975
_diffrn_reflns_point_group_measured_fraction_max 0.975
_diffrn_reflns_theta_full        66.966
_diffrn_reflns_theta_max         66.966
_diffrn_reflns_theta_min         4.380
_diffrn_source                   'Incoatec I\mS Cu microsource'
_exptl_absorpt_coefficient_mu    1.064
_exptl_absorpt_correction_T_max  0.7528
_exptl_absorpt_correction_T_min  0.5135
_exptl_absorpt_correction_type   multi-scan
_exptl_absorpt_process_details   'SADABS (Bruker, 2014)'
_exptl_crystal_colour            colourless
_exptl_crystal_density_diffrn    1.424
_exptl_crystal_description       lath
_exptl_crystal_F_000             100
_exptl_crystal_size_max          0.300
_exptl_crystal_size_mid          0.080
_exptl_crystal_size_min          0.020
_refine_diff_density_max         0.172
_refine_diff_density_min         -0.204
_refine_diff_density_rms         0.049
_refine_ls_abs_structure_details
;
Absolute structure assigned from known L-lactate material.
(S)-configuration at C2
;
_refine_ls_extinction_method     none
_refine_ls_goodness_of_fit_ref   1.090
_refine_ls_hydrogen_treatment    mixed
_refine_ls_matrix_type           full
_refine_ls_number_parameters     69
_refine_ls_number_reflns         769
_refine_ls_number_restraints     1
_refine_ls_restrained_S_all      1.089
_refine_ls_R_factor_all          0.0533
_refine_ls_R_factor_gt           0.0444
_refine_ls_shift/su_max          0.000
_refine_ls_shift/su_mean         0.000
_refine_ls_structure_factor_coef Fsqd
_refine_ls_weighting_details
'w=1/[\s^2^(Fo^2^)+(0.0636P)^2^+0.0995P] where P=(Fo^2^+2Fc^2^)/3'
_refine_ls_weighting_scheme      calc
_refine_ls_wR_factor_gt          0.1127
_refine_ls_wR_factor_ref         0.1206
_reflns_Friedel_coverage         0.720
_reflns_Friedel_fraction_full    0.942
_reflns_Friedel_fraction_max     0.942
_reflns_number_gt                686
_reflns_number_total             769
_reflns_threshold_expression     'I > 2\s(I)'
_cod_data_source_file            ct7b00991_si_002.cif
_cod_data_source_block           CG_B2_0003
_cod_database_code               1548454
_cambridge_user_name             'Michael Gaultois'
_cambridge_user_crsid            mg757
_cambridge_supervisor_name       'Clare Grey'
_cambridge_supervisor_crsid      cpg27
_cambridge_crystallographer_name 'Andrew Bond'
_cambridge_crystallographer_crsid adb29
_cambridge_sample_id             'MWG Li-lactate'
_cambridge_data_id               CG_B2_0003
_ccdc_publ_extra_info
;
_cambridge_sample_id MWG Li-lactate
_cambridge_data_id CG_B2_0003
;
_shelx_space_group_comment
;
The symmetry employed for this shelxl refinement is uniquely defined
by the following loop, which should always be used as a source of
symmetry information in preference to the above space-group names.
They are only intended as comments.
;
_shelx_estimated_absorpt_t_min   0.741
_shelx_estimated_absorpt_t_max   0.979
_shelx_res_file
;

    CG_B2_0003.res created by SHELXL-2014/7


TITL CG_B2_0003 in P2(1)
CELL  1.54178   4.5412   4.8838  10.1982   90.000   98.226   90.000
ZERR    2.000   0.0004   0.0004   0.0010    0.000    0.007    0.000
LATT -1
SYMM -X, 1/2+Y, -Z
SFAC C H O LI
UNIT 6 10 6 2
SIZE 0.30 0.08 0.02
TEMP -93
L.S. 20
ACTA
EQIV $1 x, y-1, z
HTAB O3 O1_$1
BOND $H
CONF
LIST 4
FMAP 2
PLAN -5
WGHT    0.063600    0.099500
FVAR       2.97911
LI1   4    1.045340    0.942727    0.588209    11.00000    0.02741    0.01406 =
         0.03155   -0.00067    0.00679    0.00096
O1    3    0.806897    0.678360    0.665614    11.00000    0.02497    0.01924 =
         0.03943    0.00020    0.00677   -0.00186
H3    2    0.544308   -0.075909    0.695240    11.00000    0.06083
O2    3    0.820158    0.275264    0.566657    11.00000    0.02568    0.01808 =
         0.02925    0.00142    0.00611    0.00236
O3    3    0.404081    0.059892    0.706549    11.00000    0.02227    0.01789 =
         0.04061   -0.00346    0.00608   -0.00314
C1    1    0.732960    0.430050    0.649941    11.00000    0.01443    0.01437 =
         0.03151    0.00173   -0.00058    0.00141
C2    1    0.535470    0.316206    0.747062    11.00000    0.02273    0.01927 =
         0.03126   -0.00307    0.00692   -0.00202
AFIX  13
H2A   2    0.372106    0.450665    0.753548    11.00000   -1.20000
AFIX   0
C3    1    0.723238    0.292246    0.883401    11.00000    0.05619    0.05056 =
         0.02763   -0.00051    0.00655   -0.01844
AFIX 137
H3A   2    0.597619    0.230011    0.948070    11.00000   -1.50000
H3B   2    0.808581    0.471372    0.910315    11.00000   -1.50000
H3C   2    0.883941    0.159987    0.879262    11.00000   -1.50000

AFIX   0
HKLF 4

REM  CG_B2_0003 in P2(1)
REM R1 =  0.0444 for     686 Fo > 4sig(Fo)  and  0.0533 for all     769 data
REM     69 parameters refined using      1 restraints

END

WGHT      0.0633      0.1003

REM Highest difference peak  0.172,  deepest hole -0.204,  1-sigma level  0.049
Q1    1   1.0635  0.7680  0.6631  11.00000  0.05    0.17
Q2    1   1.0203  0.5639  0.8391  11.00000  0.05    0.16
Q3    1   0.7076  0.8746  0.8999  11.00000  0.05    0.15
Q4    1   1.0810  0.7648  0.8598  11.00000  0.05    0.15
Q5    1   1.2967  0.8221  0.6750  11.00000  0.05    0.14
;
_shelx_res_checksum              49507
_shelx_hkl_file
;
   1   0   0  974.70   64.59
   1   0   0  807.22   51.49
   1   0   0  952.90   61.99
  -1   0   0  981.10   61.99
  -1   0   0  877.91   63.79
  -1   0   0  908.61   55.39
  -2   0   0 1568.44  115.39
   2   0   0 1404.36  113.49
  -2   0   0 1474.15   84.79
  -2   0   0 1551.34   84.59
   2   0   0 1441.86   84.49
  -2   0   0 1518.85   94.59
   3   0   0  633.74   38.90
  -3   0   0  554.34  182.28
   3   0   0  615.84   45.30
   3   0   0  675.33   39.40
  -3   0   0  634.04   39.20
  -3   0   0  614.64   39.30
   4   0   0  109.99   20.50
   5   0   0  116.79   17.00
  -5   0   0  122.89   25.50
   0   1   0    6.10    8.60
   1  -1   0 6740.63  352.26
  -1  -1   0 6232.38  346.77
  -1  -1   0 5228.18  336.77
   1   1   0 6603.84  355.76
   1   1   0 6360.06  367.36
  -1   1   0 6118.69  371.36
   1   1   0 6767.12  363.66
  -1   1   0 6542.85  368.46
   1   1   0 5814.42  355.46
  -1   1   0 6600.44  355.66
   2  -1   0  181.28   66.69
  -2  -1   0  197.08   16.80
  -2   1   0  153.38   13.60
   2   1   0  150.58   13.50
   2   1   0  149.19   13.50
  -2   1   0  219.78   55.59
   2   1   0  173.28   12.90
  -2   1   0  209.38   64.69
  -2   1   0  184.58   12.30
   2   1   0  210.68   56.29
   3  -1   0   65.09   12.10
  -3   1   0   57.19   11.30
  -3   1   0   61.39    9.70
   3   1   0   55.09   10.20
   3   1   0   68.69    9.30
   4  -1   0   67.29   13.60
  -4   1   0   80.59   13.60
   4   1   0   59.59   24.00
   4   1   0   70.69   12.70
   4   1   0   89.19   14.10
  -4   1   0   50.09   11.70
   5  -1   0  140.39   13.90
  -5   1   0  107.29   14.50
   0  -2   0  931.51   53.59
   0   2   0 1297.97   92.89
   0   2   0 1202.88   95.79
   1  -2   0  229.98   18.00
  -1  -2   0  269.57   17.40
   1   2   0  290.97   21.50
   1   2   0  319.17   19.20
  -1   2   0  237.58   62.89
  -1   2   0  313.37   18.50
   2  -2   0  536.95   48.60
  -2  -2   0  635.34   37.90
   2  -2   0  677.73   45.40
   2  -2   0  592.94   39.00
  -2   2   0  812.12  160.88
  -2   2   0  598.44   39.40
  -2   2   0  707.33   38.80
   2   2   0  614.74   39.70
   2   2   0  687.53   39.40
   3  -2   0  866.41   52.39
   3  -2   0  840.52   62.49
   3   2   0  895.81   53.49
  -3   2   0  882.01   52.99
   3   2   0  933.41   53.89
  -3   2   0  905.81   53.49
   4  -2   0  210.18   19.40
   4  -2   0  222.88   47.00
   4   2   0  192.08   18.50
  -4   2   0  235.18   18.30
  -4   2   0  224.08   17.80
   4   2   0  226.48   17.70
   5  -2   0  192.18   13.80
  -5   2   0  157.98   14.50
   0  -3   0   15.40   15.10
   0  -3   0   -4.50    5.80
   0   3   0 -127.89  117.59
   1  -3   0  853.81   57.09
   1  -3   0  797.62   54.29
  -1  -3   0  757.12   61.09
  -1  -3   0  821.42   48.30
   1   3   0  893.81   52.39
  -1   3   0  912.71   51.79
  -1   3   0  874.71  243.58
   2  -3   0  217.38   29.60
   2  -3   0  287.07   43.50
   2  -3   0  246.58   23.10
  -2  -3   0  253.67   20.40
  -2   3   0  271.87   18.70
  -2   3   0  266.47   22.50
   2   3   0  270.57   19.80
   2   3   0  259.17   22.80
   3  -3   0  205.18   31.10
   3  -3   0  217.28   19.60
   3   3   0  248.08   18.70
  -3   3   0  239.18   17.80
   3   3   0  240.58   22.60
  -4  -3   0  394.36   34.20
   4  -3   0  454.75   33.80
   4  -3   0  450.75   27.70
  -4   3   0  481.45   29.10
  -4   3   0  468.55   29.70
   4   3   0  484.75   28.60
   4   3   0  382.66   29.40
   0  -4   0  161.88   17.30
   0  -4   0  116.19   27.50
   0  -4   0  115.69   26.10
  -1  -4   0  514.65   49.50
   1  -4   0  630.44   44.70
  -1  -4   0  560.34   37.80
   1   4   0  691.73   42.60
   2  -4   0  210.88   29.70
  -2  -4   0  190.48   38.50
  -2  -4   0  265.97   23.90
   2   4   0  272.57   21.00
  -2   4   0  284.67   26.00
  -2   4   0  291.17   20.60
   2   4   0  250.87   24.30
   3  -4   0   27.90    9.20
  -3  -4   0   32.50   18.00
  -3   4   0   56.79   10.20
   3   4   0   56.89   11.40
  -3   4   0   54.39   13.70
   3   4   0   35.60    9.20
   0  -5   0    8.70   17.70
   1  -5   0  332.47   29.80
   2  -5   0  423.96   31.30
   5   0  -1   31.30   12.10
  -5   0   1   18.00   10.90
  -4   0   1  180.48   31.60
   4   0  -1  157.28   22.60
   3   0  -1  284.57   30.70
  -3   0   1  236.68   21.40
  -3   0   1   18.40  165.08
   3   0  -1  269.87   20.00
   3   0  -1  277.67   20.40
  -3   0   1  282.77   21.10
  -2   0   1 3116.39  173.28
  -2   0   1 3069.39  212.68
   2   0  -1 2901.61  172.98
  -2   0   1 3204.88  197.88
  -2   0   1 2894.21  173.28
   2   0  -1 3360.76  217.28
   2   0  -1 3186.68  173.18
   1   0  -1 2340.87  132.99
  -1   0   1 2282.97  139.69
  -1   0   1 2257.77  136.39
   0   0  -1 5562.84  306.87
   0   0   1 5771.92  306.57
   0   0   1 5022.60  302.57
   1   0   1 9999.00  525.35
   1   0   1 8941.30  512.95
  -1   0  -1 9573.84  524.95
  -1   0  -1 9235.58  523.85
  -1   0  -1 8361.66  512.85
   1   0   1 9325.57  525.85
  -2   0  -1  410.46   72.39
  -2   0  -1  300.17   42.00
  -2   0  -1  337.97   23.00
  -2   0  -1  290.67   62.99
   2   0   1  277.47   70.79
   2   0   1  402.96   22.80
  -2   0  -1  384.66   23.30
   2   0   1  300.17   69.89
   2   0   1  367.16   23.50
   2   0   1  375.46   23.40
  -3   0  -1 2741.33  154.08
   3   0   1 2854.41  157.18
   3   0   1 2844.82  153.68
  -3   0  -1 2766.42  153.78
   3   0   1 2425.56  153.98
   4   0   1   63.89   15.60
   5   0   1  208.48   18.10
   5  -1  -1   72.69   11.90
   5   1  -1   63.19   20.40
  -5   1   1   43.30    8.20
  -4   1   1  163.08   19.40
  -4   1   1  138.49   22.60
   4   1  -1  152.78   17.80
   4   1  -1  142.79   26.70
   3  -1  -1   90.79   13.30
  -3  -1   1   58.79   24.70
   3  -1  -1  117.89   36.30
  -3   1   1   83.49   10.70
   3   1  -1   79.59   12.10
  -3   1   1   89.29   12.30
   3   1  -1   81.59   10.70
  -2  -1   1 1458.05   83.19
  -2   1   1 1558.74   89.09
   2   1  -1 1530.85   88.89
  -2   1   1 1476.95  114.29
  -2   1   1 1499.15  158.28
   2   1  -1 1657.13   88.99
  -2   1   1 1658.93   88.99
  -2   1   1 1553.94  133.39
   1  -1  -1 3546.85  194.88
  -1  -1   1 2896.71  181.28
  -1  -1   1 3316.57  191.88
   1   1  -1 3748.53  203.78
  -1   1   1 3636.54  203.68
  -1   1   1 3876.51  219.88
  -1   1   1 3481.15  222.18
  -1   1   1 3661.13  216.48
  -1   1   1 3550.44  226.58
   0  -1  -1 3454.45  187.68
   0  -1  -1 3057.09  189.38
   0   1   1 3073.09  162.38
   0   1  -1 2473.35  162.38
   0   1   1 2891.91  164.58
  -1  -1  -1 1491.45   86.09
  -1  -1  -1 1536.15   91.29
   1  -1   1 1591.84  101.99
   1  -1   1 1485.35  105.99
  -1   1  -1 1538.85  108.69
  -1   1  -1 1606.24  105.99
   1   1   1 1500.05  124.39
  -1   1  -1 1625.54   91.09
   1   1   1 1671.43   91.39
  -1   1  -1 1754.82  109.59
   1   1   1 1668.33  105.19
   2  -1   1  902.11  116.49
  -2   1  -1 1033.60   99.09
   2   1   1 1056.59  105.29
   2   1   1 1074.59   65.29
  -2   1  -1 1203.18  118.19
  -2   1  -1 1148.09   65.39
   2   1   1 1086.29   65.69
   2   1   1 1271.37   65.79
  -2   1  -1 1230.58   65.29
  -3   1  -1  148.49   13.30
   3   1   1  120.49   13.60
   3   1   1  141.19   14.30
  -3   1  -1  127.39   12.50
   4  -1   1  262.37   24.00
   4  -1   1  225.78   49.50
   4   1   1  248.28   40.30
  -4   1  -1  239.08   22.50
  -4   1  -1  240.48   20.40
   4   1   1  255.77   20.50
   5  -1   1  152.18   13.40
   5   1   1  135.49   25.60
  -5   1  -1  119.99   14.90
   5  -2  -1  127.09   11.20
  -5   2   1  104.49   11.60
   4  -2  -1  135.69   16.90
   4  -2  -1  154.78   29.30
   4   2  -1  147.19   16.00
  -4   2   1  142.99   15.50
   4   2  -1  150.78   14.90
  -4   2   1  153.78   15.70
   3  -2  -1 1284.57   72.99
   3  -2  -1 1185.78   81.09
  -3   2   1 1518.45   85.69
   3   2  -1 1508.95   85.39
  -3   2   1 1358.46   84.29
   3   2  -1 1483.85   84.69
  -2  -2   1 1165.78   64.09
   2  -2  -1 1087.69   64.19
   2  -2  -1 1017.00   71.39
  -2   2   1 1325.57   73.49
   2   2  -1 1200.58   73.89
   2   2  -1 1415.96   73.89
  -2   2   1 1221.58   73.89
  -2   2   1 1266.17  185.88
  -1  -2   1  482.45   30.00
   1   2  -1  545.95   53.79
  -1   2   1  603.14   34.80
   1   2  -1  645.74   35.40
  -1   2   1  549.35   91.39
  -1   2   1  648.84   73.19
   0  -2   1   24.60    5.00
   0  -2  -1   -6.20   29.10
   0   2  -1    0.80   27.70
   0   2   1   44.90   26.00
   0   2  -1   22.50   29.70
   1  -2   1 2881.51  175.58
  -1  -2  -1 3445.76  202.08
  -1  -2  -1 3123.29  175.78
   1   2   1 3301.77  192.88
  -1   2  -1 3482.35  192.08
  -1   2  -1 3355.16  224.28
   1   2   1 3647.03  192.48
  -2  -2  -1  976.90   55.89
   2  -2   1 1007.10   59.79
   2  -2   1  851.11   56.49
   2   2   1 1001.30   53.39
  -2   2  -1  973.00   52.49
   2   2   1  828.02   53.99
   2   2   1  846.42   53.79
  -2   2  -1  846.32  171.28
   3  -2   1  157.88   36.00
   3  -2   1  195.58   19.30
   3   2   1  151.18   13.20
   3   2   1  167.28   16.40
  -3   2  -1  174.68   12.90
  -3   2  -1  169.78   14.70
   4  -2   1  426.16   29.80
  -4   2  -1  429.46   27.10
  -4   2  -1  397.76   27.30
   4   2   1  428.06   27.20
   4   2   1  378.46   28.00
  -4  -3   1   92.39   18.40
   4  -3  -1   86.19   21.40
   4  -3  -1  111.19   13.20
   4   3  -1  107.99   14.60
  -4   3   1  145.09   13.90
  -4   3   1  100.29   14.70
   4   3  -1  144.59   13.00
   3  -3  -1  304.47   32.70
  -3  -3   1  318.07   28.70
   3  -3  -1  256.87   23.60
  -3   3   1  286.27   20.50
   3   3  -1  290.17   20.90
   2  -3  -1  216.48   28.20
   2  -3  -1  171.18   23.10
  -2  -3   1  152.58   33.10
  -2  -3   1  247.38   18.40
   2   3  -1  283.57   24.60
   2   3  -1  290.77   20.70
  -2   3   1  244.28   23.20
  -2   3   1  279.37   19.30
   1  -3  -1  295.57   28.50
  -1  -3   1  261.07   20.10
  -1  -3   1  267.17   35.50
  -1   3   1  303.97   21.00
  -1   3   1  442.26  206.28
   1   3  -1  322.27   22.10
   0  -3  -1 1937.21  112.59
   0  -3   1 1885.81  114.89
   0  -3   1 1966.60  114.49
   0  -3   1 1890.21  109.29
   0  -3  -1 1905.81  108.69
   0   3  -1 1942.91  212.48
   0   3   1 1921.31  229.48
  -1  -3  -1  417.36   41.40
   1  -3   1  512.95   40.70
  -1  -3  -1  523.45   30.90
   1  -3   1  567.74   39.80
   1  -3   1  418.66   34.20
   1   3   1  516.15   31.20
   1   3   1  477.35   33.90
  -1   3  -1  763.12  201.58
  -1   3  -1  515.15   30.60
   2  -3   1  143.59   24.00
  -2  -3  -1  174.68   15.40
   2  -3   1  116.79   29.30
  -2   3  -1  152.28   16.80
  -2   3  -1  133.49   12.30
   2   3   1  138.89   15.40
   2   3   1  131.49   17.70
   3  -3   1  268.27   21.10
   3  -3   1  206.88   33.30
  -3   3  -1  228.48   17.90
  -3   3  -1  268.97   17.70
   3   3   1  233.48   18.40
   3   3   1  229.78   18.10
   4  -3   1  350.16   21.30
   4  -3   1  306.87   28.10
  -4  -3  -1  269.87   29.50
  -4   3  -1  341.07   21.40
  -4   3  -1  316.67   21.80
   4   3   1  281.17   22.10
   4   3   1  305.17   21.00
   3  -4  -1   98.09   17.10
  -3  -4   1   70.99   15.70
   3   4  -1  128.99   14.80
  -3   4   1  129.79   15.80
  -2  -4   1   -7.40   19.90
   2  -4  -1    5.20   12.10
  -2  -4   1   29.40   12.40
   2   4  -1   13.60   13.30
   2   4  -1   26.40    8.70
  -2   4   1   24.30    8.50
  -2   4   1   38.00   13.70
  -1  -4   1  139.59   22.20
   1  -4  -1  108.49   24.00
  -1  -4   1  125.69   18.20
  -1   4   1  118.59   15.70
   0  -4  -1  129.29   19.10
   0  -4  -1  105.19   24.10
   0  -4   1  133.29   22.90
   1  -4   1  423.86   39.70
  -1  -4  -1  380.66   42.60
   1  -4   1  409.76   34.30
  -1  -4  -1  411.86   29.70
   1   4   1  429.46   28.90
  -2  -4  -1   18.40   28.70
   2  -4   1   61.09   16.70
   2  -4   1   87.89   17.30
   2   4   1   64.29   12.20
   2   4   1   76.19   12.40
  -2   4  -1   78.19   14.70
  -2   4  -1   98.89   12.30
   3  -4   1   73.29   14.10
  -3  -4  -1   62.89   21.90
   3   4   1   56.39   11.00
   3   4   1   49.30    9.00
  -3   4  -1   69.79   13.10
  -3   4  -1   33.60    8.50
  -2  -5   1   76.19   18.70
   2  -5  -1  117.49   16.00
  -1  -5   1   -4.80   18.70
  -1  -5   1   -1.20   17.00
   0  -5   1  351.96   40.40
   1  -5   1  246.58   28.90
   2  -5   1  511.05   35.70
   5   0  -2   11.60   10.20
  -5   0   2   -0.80    8.60
   4   0  -2  275.77   30.60
  -4   0   2  291.77   32.80
  -3   0   2  882.11   51.69
   3   0  -2  857.11   51.09
   3   0  -2  824.52   56.89
   3   0  -2  887.31   50.69
  -3   0   2  862.01   52.19
   2   0  -2 3510.35  218.78
  -2   0   2 3795.12  257.17
  -2   0   2 3845.92  231.78
  -2   0   2 3687.53  207.88
  -2   0   2 3828.22  281.27
  -2   0   2 3874.31  207.98
   2   0  -2 3541.55  207.48
  -1   0   2  878.01   70.39
   1   0  -2  925.51   49.00
  -1   0   2  721.43   71.59
  -1   0   2  872.21   49.10
   0   0   2 3643.54  206.08
   0   0  -2 3664.53  215.78
   0   0   2 3797.92  214.18
  -1   0  -2 8702.03  509.45
  -1   0  -2 9521.35  526.05
   1   0   2 8392.56  509.65
   1   0   2 9688.43  526.15
  -1   0  -2 9452.85  525.35
   1   0   2 9378.46  528.05
   1   0   2 9091.09  509.65
  -2   0  -2  300.17   19.20
   2   0   2  273.97   20.40
   2   0   2  299.17   20.40
   2   0   2  305.07   20.10
  -2   0  -2  305.37   20.00
  -2   0  -2  212.98   78.49
   2   0   2  297.57   86.49
  -2   0  -2  309.17   85.09
   3   0   2  507.35   39.70
  -3   0  -2  533.65   34.60
  -3   0  -2  566.74   34.50
   3   0   2  510.25   34.90
   4   0   2  253.37   27.80
   5   0   2   34.50    8.80
   5  -1  -2  114.99   13.30
   5   1  -2   39.20   28.60
  -5   1   2   80.89   12.40
   4  -1  -2  502.35   35.50
  -4  -1   2  485.55   43.80
  -4   1   2  527.35   38.10
   4   1  -2  642.64   60.89
  -4   1   2  579.24   41.80
   4   1  -2  633.64   39.30
   4   1  -2  486.65   36.00
  -3  -1   2  348.37   39.10
   3  -1  -2  379.46   28.80
   3   1  -2  483.15   30.60
  -3   1   2  460.45   30.70
  -3   1   2  476.75   31.00
   3   1  -2  513.85   30.70
  -2  -1   2  743.23   47.20
   2  -1  -2  899.11   89.49
  -2  -1   2  871.81  146.29
  -2   1   2  915.51   49.90
  -2   1   2  848.62   49.99
  -2   1   2  809.72  104.29
   2   1  -2  909.11   49.70
  -2   1   2  804.52  105.09
   2   1  -2  815.32   49.70
  -1  -1   2 1253.87   92.09
  -1  -1   2 1121.19   68.99
   1  -1  -2 1314.17   86.29
  -1  -1   2 1180.88   89.09
  -1   1   2 1301.57   73.69
  -1   1   2 1269.57  102.29
   1   1  -2 1302.37   73.49
  -1   1   2 1369.56  100.59
   0  -1  -2  340.67   34.20
   0  -1   2  346.97   33.80
   0  -1   2  328.87   21.10
   0  -1   2  341.57   42.20
   0  -1   2  310.67   19.90
   0  -1  -2  370.26   47.10
   0   1   2  340.17   44.30
   0   1  -2  351.66   31.00
   0   1  -2  322.57   40.50
   0   1   2  326.37   20.00
  -1  -1  -2 2629.14  180.78
   1  -1   2 2761.32  155.98
   1  -1   2 2854.11  175.78
   1  -1   2 2873.81  181.48
  -1   1  -2 3127.49  188.68
   1   1   2 3042.10  166.18
  -1   1  -2 3011.10  165.88
   1   1   2 3020.70  194.38
   1   1   2 2857.91  166.28
   1   1   2 2831.42  189.48
  -1   1  -2 2922.41  186.28
   2  -1   2 2095.19  121.09
   2  -1   2 2113.79  120.59
   2   1   2 2061.39  114.69
   2   1   2 2073.79  114.99
  -2   1  -2 2169.08  114.39
  -2   1  -2 1797.42  149.09
  -2   1  -2 2037.50  114.29
   2   1   2 1736.93  165.28
  -2   1  -2 2198.58  175.88
   2   1   2 2067.19  114.29
   3  -1   2   17.20   11.50
   3   1   2    1.00   11.10
   3   1   2    7.90    6.90
  -3   1  -2    8.10    6.80
   3   1   2   13.30    7.50
   3   1   2    4.00   21.60
  -3   1  -2    8.20    5.60
   4  -1   2   38.50   25.70
   4  -1   2   14.50   11.40
   4   1   2    8.40   11.60
  -4   1  -2    8.80   13.80
   4   1   2   32.10   22.90
   5  -1   2   65.19    9.20
   5   1   2   34.40   14.60
  -5   1  -2   -0.50   11.10
   5  -2  -2  206.68   14.40
  -5  -2   2  180.98   18.10
  -5   2   2  216.98   16.60
   4  -2  -2  127.59   16.30
  -4   2   2  146.99   15.70
  -4   2   2  155.08   15.20
   4   2  -2  148.99   14.80
   4   2  -2  115.59   15.40
   3  -2  -2  115.49   16.80
   3  -2  -2  162.98   33.40
  -3  -2   2  126.29   20.50
   3   2  -2  117.29   11.90
  -3   2   2  140.09   14.90
   3   2  -2  135.79   15.30
  -3   2   2  127.39   11.70
  -2  -2   2  823.52   47.40
   2  -2  -2  753.12   47.30
   2  -2  -2  756.02   54.69
   2   2  -2 1012.00   53.99
  -2   2   2  965.80   53.89
  -2   2   2  845.12   58.29
  -2   2   2  625.04  185.68
   2   2  -2  961.80   55.69
   1  -2  -2  555.74   87.79
  -1  -2   2  566.44   34.70
  -1   2   2  557.34  111.99
   1   2  -2  681.63   37.80
   1   2  -2  658.63   66.09
  -1   2   2  641.04   39.60
   0  -2   2  634.24   40.50
   0  -2  -2  759.12   75.59
   0  -2  -2  661.43   39.10
   0   2  -2  710.33   66.99
   0   2   2  664.33   39.10
   0   2  -2  677.93   74.39
  -1  -2  -2  209.68   15.40
  -1  -2  -2  184.68   46.00
   1   2   2  179.98   13.20
  -1   2  -2  180.38   56.49
   1   2   2  243.48   67.89
   1   2   2  148.79   18.20
  -1   2  -2  258.97   73.79
  -1   2  -2  170.98   13.00
   1   2   2  185.18   14.90
   2  -2   2  479.05   33.20
   2  -2   2  505.75   36.00
   2   2   2  520.95   30.30
   2   2   2  447.66   31.80
  -2   2  -2  459.45   29.70
   2   2   2  467.45   30.30
  -2   2  -2  509.05   29.20
   3  -2   2  179.48   20.10
  -3   2  -2  162.48   14.70
  -3   2  -2  165.88   13.10
   3   2   2  161.08   14.10
   3   2   2  173.08   16.30
   4  -2   2  432.86   41.10
   4  -2   2  582.94   34.20
  -4   2  -2  543.35   32.30
   4   2   2  480.65   31.70
   4   2   2  517.95   34.70
  -4   2  -2  492.45   33.00
   4  -3  -2   40.50   14.90
  -4  -3   2   25.10   12.60
   4  -3  -2   26.50    7.80
   4   3  -2   36.10    9.40
  -4   3   2   14.80    7.50
  -4   3   2   20.00    9.50
   4   3  -2   25.70    7.40
   3  -3  -2  879.31   53.79
   3  -3  -2  892.61   60.19
  -3  -3   2  891.31   57.59
  -3   3   2 1058.39   64.29
  -3   3   2 1194.48   68.79
   3   3  -2 1046.00   64.39
   2  -3  -2  928.01   53.99
   2  -3  -2  856.91   57.19
  -2  -3   2  773.02   58.69
  -2  -3   2  906.11   53.29
  -2   3   2  999.60   60.89
   2   3  -2 1044.30   59.69
   2   3  -2  993.30   60.89
  -2   3   2 1047.30   59.79
  -1  -3   2  589.54   34.50
   1  -3  -2  512.55   38.40
  -1  -3   2  461.65   41.30
   1   3  -2  649.24   38.90
  -1   3   2  657.33   38.90
   0  -3  -2  597.74   44.60
   0  -3   2  719.23   47.30
   0  -3  -2  642.64   38.90
   0  -3   2  637.04   56.09
   0  -3   2  642.04   40.20
   0   3   2  641.44   37.90
  -1  -3  -2  302.47   33.10
   1  -3   2  300.87   23.20
  -1  -3  -2  315.57   21.40
   1  -3   2  319.57   36.00
   1  -3   2  258.07   29.90
   1   3   2  303.17   19.80
  -1   3  -2  438.36  353.06
   1   3   2  281.97   23.60
  -1   3  -2  265.07   19.00
   2  -3   2   45.10   12.50
   2  -3   2   27.10   18.50
   2  -3   2   50.99   11.90
  -2   3  -2   38.90   10.00
  -2   3  -2   37.60    7.40
   2   3   2   43.50    8.80
   2   3   2   34.10    9.80
   3  -3   2  140.89   32.40
   3  -3   2  213.68   18.90
   3   3   2  203.98   17.10
  -3   3  -2  208.88   16.00
   3   3   2  204.18   16.50
  -3   3  -2  219.98   16.50
  -4  -3  -2   67.19   17.40
   4  -3   2   88.59   18.90
  -4   3  -2   80.39   11.30
   4   3   2   72.89   10.90
   4   3   2   61.99   11.50
  -4   3  -2   67.39   12.40
  -3  -4   2  188.28   23.60
   3  -4  -2  262.47   22.40
   3   4  -2  275.57   20.60
   3   4  -2  269.07   21.80
  -3   4   2  261.07   21.30
   2  -4  -2  943.31   58.99
  -2  -4   2  964.90   57.69
  -2  -4   2  816.12   59.49
  -2   4   2 1101.49   64.29
   2   4  -2 1066.49   63.99
  -2   4   2 1039.10   82.79
   2   4  -2 1147.49   65.89
  -1  -4   2 1372.46   86.49
   1  -4  -2 1392.86   84.79
  -1  -4   2 1419.06   83.19
  -1   4   2 1499.45   86.09
   0  -4  -2  141.39   24.30
   0  -4   2  127.19   24.10
   0  -4   2  124.39   19.80
   0  -4   2  130.79   26.40
   0   4   2  110.39   23.90
   0   4   2  134.99   14.40
   1  -4   2    4.10   15.50
   1  -4   2   32.90   14.50
   1  -4   2  -12.50   17.70
  -1  -4  -2    4.50   17.30
  -1   4  -2   16.00    9.30
   1   4   2   12.60    8.20
   2  -4   2  115.29   21.40
   2  -4   2  110.09   20.50
   2   4   2  116.49   14.90
   2   4   2   95.89   12.80
  -2   4  -2  117.69   13.20
  -2   4  -2   99.79   19.10
   3  -4   2   33.60   10.80
   3   4   2   30.60    8.10
   3   4   2   20.00    7.20
  -3   4  -2   41.20    8.70
  -2  -5   2  301.77   26.30
   2  -5  -2  329.27   24.10
  -2  -5   2  295.17   36.20
  -1  -5   2   47.20   15.30
  -1  -5   2   56.79   22.50
   0  -5   2  271.87   27.60
   0  -5  -2  299.27   29.40
   1  -5   2   88.19   17.80
   2  -5   2   21.30   11.90
   2   5   2   10.60   11.50
  -5   0   3   -6.00    6.80
   5   0  -3   -0.20   10.50
   4   0  -3   77.59   18.70
  -4   0   3   87.89   16.80
   3   0  -3  321.97   33.00
   3   0  -3  318.37   23.20
  -3   0   3  349.37   25.70
   3   0  -3  353.76   23.30
  -3   0   3  301.77   34.30
  -2   0   3   43.20   89.89
   2   0  -3  147.79   11.60
  -2   0   3  145.79   14.60
   2   0  -3  115.99   12.10
  -2   0   3  177.18   52.49
   2   0  -3  131.49   35.90
  -2   0   3   66.09   84.59
   1   0  -3 2533.45  139.89
  -1   0   3 2368.26  140.19
  -1   0   3 2611.24  164.88
   1   0  -3 2529.35  166.38
   0   0   3 4623.74  254.07
   0   0   3 4485.65  267.47
   0   0   3 4695.73  254.07
   0   0   3 4852.31  269.37
   0   0  -3 4116.79  270.27
   1   0   3 6173.98  367.16
  -1   0  -3 6379.36  342.77
   1   0   3 6112.59  343.17
   1   0   3 6834.82  343.07
  -1   0  -3 5696.33  342.67
   1   0   3 5856.31  367.36
  -1   0  -3 6022.70  367.46
   2   0   3  111.89   12.10
   2   0   3  103.59   12.00
  -2   0  -3   93.09   12.40
  -2   0  -3  100.59   10.10
   2   0   3   94.99   13.00
   3   0   3   42.70   15.60
  -3   0  -3   27.50   11.20
  -3   0  -3   13.90   11.50
   3   0   3  -25.10   18.70
   4   0   3  111.39   17.80
   5   0   3  117.59   13.40
   5  -1  -3    3.30    7.10
  -5  -1   3  -11.70   18.00
  -5   1   3    5.40    6.60
  -4  -1   3  218.18   29.10
   4  -1  -3  211.28   22.70
  -4   1   3  252.27   29.30
   4   1  -3  258.57   19.20
   4   1  -3  244.18   62.29
   4   1  -3  224.48   20.80
  -4   1   3  260.67   21.10
   3  -1  -3  121.69   20.50
  -3  -1   3   94.49   16.30
   3   1  -3  126.69   14.40
  -3   1   3  137.49   14.30
   3   1  -3  138.89   13.10
  -3   1   3  125.89   15.00
  -2  -1   3  615.64   39.00
   2  -1  -3  702.93   95.89
  -2   1   3  791.42   46.70
   2   1  -3  856.21   46.10
   2   1  -3  760.62   45.90
  -2   1   3  616.04  120.29
  -2   1   3  817.62   46.40
  -1  -1   3 8279.67  464.35
  -1  -1   3 7335.27  443.96
   1  -1  -3 8334.97  464.05
   1   1  -3 8269.17  453.85
  -1   1   3 7923.11  454.15
  -1   1   3 8324.37  476.85
   0  -1  -3  776.82   93.49
   0  -1   3  998.70   74.89
   0  -1   3  947.61   79.99
   0  -1  -3  969.30   74.99
   0  -1   3  942.11   54.69
   0   1   3  878.31   78.99
   0   1   3  855.31   49.80
   0   1  -3  906.71   49.50
   0   1  -3  835.32   80.29
   1  -1   3  477.35   93.59
   1  -1   3  424.76   79.19
   1  -1   3  516.95   30.60
   1   1   3  522.55   32.50
   1   1   3  501.45   32.30
  -1   1  -3  525.85   72.49
  -1   1  -3  553.04   31.60
   1   1   3  472.65   75.19
   1   1   3  600.04   32.20
  -1   1  -3  523.55   97.89
   2  -1   3 2519.65  146.19
   2  -1   3 2657.63  146.89
   2  -1   3 2522.35  145.89
   2   1   3 2309.77  137.79
  -2   1  -3 2336.27  216.18
   2   1   3 2501.85  137.19
   2   1   3 2368.06  137.59
  -2   1  -3 2522.45  137.19
  -2   1  -3 2543.55  137.29
   3  -1   3   12.30   11.10
   3   1   3   -5.90   11.60
   3   1   3   -6.30    7.90
  -3   1  -3    2.90    6.90
   3   1   3   37.60   21.80
  -3   1  -3    1.40    5.10
   4  -1   3  219.78   21.40
   4   1   3  209.88   29.50
  -4   1  -3  188.28   20.60
   5  -2  -3  263.37   16.30
  -5  -2   3  203.08   19.60
  -5   2   3  272.47   19.00
   4  -2  -3  135.09   17.30
  -4   2   3  166.68   15.70
   4   2  -3  158.68   15.80
  -4   2   3  137.89   17.50
   4   2  -3  166.88   15.10
  -3  -2   3  492.75   47.90
   3  -2  -3  435.26   43.30
   3  -2  -3  462.65   31.80
  -3  -2   3  452.25   33.50
   3   2  -3  549.54   34.00
  -3   2   3  545.55   35.30
  -3   2   3  554.84   34.30
   3   2  -3  563.54   34.90
   2  -2  -3  996.10   60.59
  -2  -2   3 1105.39   71.29
   2  -2  -3  946.81   66.19
  -2  -2   3 1065.39   60.99
   2   2  -3 1145.19   69.39
  -2   2   3 1226.48   69.49
   2   2  -3 1298.67   69.29
  -2   2   3 1161.18   69.69
  -1  -2   3  936.11   59.19
   1  -2  -3 1169.48  117.59
  -1   2   3 1002.60   56.19
   1   2  -3 1009.60   55.69
  -1   2   3  925.91   57.59
   0  -2  -3 1108.49  106.69
   0  -2   3 1070.49   63.49
   0   2   3 1059.79   59.29
   0   2  -3 1082.59   94.19
   0   2   3  871.31   61.99
   0   2  -3 1141.09   58.79
   1  -2   3   45.00   15.30
  -1  -2  -3   18.70   62.69
  -1  -2  -3   31.00   19.20
   1  -2   3  -24.60  126.39
  -1   2  -3  -48.60   82.09
   1   2   3   21.00    7.90
   1   2   3  159.98   99.19
   1   2   3   17.00    5.70
  -1   2  -3   15.20    4.50
   1   2   3   12.70    6.70
   2  -2   3  559.24   36.70
   2  -2   3  457.35   34.30
   2  -2   3  500.85   34.00
   2   2   3  432.86   28.80
   2   2   3  447.56   29.00
   2   2   3  465.35   33.30
  -2   2  -3  475.55   28.10
  -2   2  -3  438.36   28.50
   3  -2   3  542.25   36.90
   3   2   3  541.35   33.60
  -3   2  -3  503.75   32.30
  -3   2  -3  530.45   33.10
   3   2   3  499.15   32.90
   4  -2   3   13.30    6.90
   4  -2   3    6.10   14.20
  -4   2  -3   38.30   10.20
   4   2   3   24.90   13.50
  -4   2  -3   21.70    8.40
   4  -3  -3   32.60   19.00
  -4  -3   3   34.20   10.80
   4   3  -3   42.70    9.40
  -4   3   3   38.40    8.00
  -4   3   3   26.40   10.10
   4   3  -3   30.70    7.50
  -3  -3   3  333.87   35.40
   3  -3  -3  441.06   36.20
   3  -3  -3  408.76   28.30
  -3  -3   3  387.16   34.40
  -3   3   3  522.85   33.30
  -3   3   3  522.45   33.30
   3   3  -3  514.25   32.90
   3   3  -3  512.75   33.00
  -2  -3   3  627.94   49.99
   2  -3  -3  726.03   48.20
  -2  -3   3  746.43   44.90
  -2   3   3  857.41   50.89
  -2   3   3  875.71   52.59
   2   3  -3  846.52   52.19
  -1  -3   3  429.66   52.59
  -1  -3   3  527.85   40.40
  -1  -3   3  576.04   35.20
   1  -3  -3  513.25   38.30
   1   3  -3  592.74   35.20
  -1   3   3  567.94   39.70
  -1   3   3  591.04   35.50
   0  -3  -3  926.01   60.39
   0  -3   3  925.11   61.19
   0  -3   3 1026.10   73.19
   0  -3   3  961.00   58.09
   0   3   3  814.02   50.29
   0   3  -3  912.71   49.99
   1  -3   3  810.92   59.89
   1  -3   3  566.64   43.00
  -1  -3  -3  701.23   54.79
   1   3   3  492.55   34.60
  -1   3  -3  538.35   32.40
   1   3   3  534.45   34.70
   1   3   3  566.54   33.20
   2  -3   3   77.99   18.80
  -2   3  -3  143.19   16.80
   2   3   3  157.58   17.60
  -2   3  -3  171.88   13.30
   2   3   3  177.38   14.50
   3  -3   3  188.98   32.50
   3   3   3  209.68   17.20
  -3   3  -3  214.48   16.30
   3   3   3  208.38   16.90
  -3   3  -3  222.68   16.90
   4  -3   3   99.39   17.30
   4   3   3   96.09   12.70
  -4   3  -3   97.69   12.80
  -4   3  -3   65.79   19.20
   3  -4  -3  115.09   17.10
  -3  -4   3   74.09   16.80
  -3   4   3  110.59   15.20
  -3   4   3  134.39   14.80
   3   4  -3  108.99   14.40
   3   4  -3  106.39   13.90
  -3   4   3  175.28   27.70
   2  -4  -3  662.23   45.00
  -2  -4   3  648.04   44.30
  -2  -4   3  623.14   45.50
   2   4  -3  741.43   45.40
  -2   4   3  733.23   45.70
  -2   4   3  746.03   47.10
   2   4  -3  777.22   48.00
   1  -4  -3   42.30   12.10
  -1  -4   3   78.49   15.40
  -1  -4   3   66.99   13.20
  -1   4   3   66.59   12.30
  -1   4   3   59.59   17.30
   1   4  -3   51.49   10.60
   0  -4  -3  375.76   33.40
   0  -4   3  358.36   31.70
   0  -4   3  387.86   33.20
   0   4   3  318.17   22.10
   0   4   3  307.77   30.40
   1  -4   3  505.65   41.90
  -1  -4  -3  495.95   45.00
   1  -4   3  595.74   40.30
   1  -4   3  607.24   50.19
  -1   4  -3  499.95   32.20
   1   4   3  497.35   31.80
   2  -4   3  370.36   35.20
   2   4   3  242.28   19.30
   2   4   3  236.48   18.50
  -2   4  -3  255.87   18.80
  -2   4  -3  232.78   21.70
   3  -4   3   41.30   11.80
   3   4   3   21.80    8.30
  -3   4  -3   20.30    8.20
   3   4   3   16.20    7.20
  -3   4  -3   26.20    9.70
  -2  -5   3  414.76   39.90
  -2  -5   3  459.65   32.40
   2  -5  -3  502.75   31.50
  -2   5   3  283.27   28.50
  -1  -5   3  145.39   20.70
  -1  -5   3  163.38   23.30
   1  -5  -3  184.78   19.30
  -1   5   3  123.19   20.80
   0  -5   3   19.70   12.50
   0  -5  -3   20.50   12.40
   0  -5   3    3.50   20.20
   0   5   3   25.30   21.00
   1  -5   3   96.89   17.80
   1  -5   3   67.79   12.10
   1   5   3   44.20   12.70
   2  -5   3    6.90   11.30
   2   5   3   11.30   10.10
   5   0  -4   93.59   15.30
  -5   0   4  100.99   13.10
   4   0  -4    0.80   16.50
  -4   0   4   16.70   11.40
  -3   0   4  439.46   33.90
   3   0  -4  509.35   30.50
   3   0  -4  487.85   30.70
   3   0  -4  446.06   37.60
   2   0  -4 3504.35  185.28
  -2   0   4 3191.08  188.08
   2   0  -4 3265.47  217.38
   2   0  -4 3236.68  184.98
  -2   0   4 3028.10  222.88
  -2   0   4 3435.96  185.88
  -2   0   4 3403.56  283.67
  -2   0   4 3414.36  185.58
  -1   0   4 1285.97   79.29
  -1   0   4 1501.35   79.59
  -1   0   4 1246.78   79.69
  -1   0   4 1594.74  132.49
   1   0  -4 1537.75   79.19
   1   0  -4 1385.36   79.29
   1   0  -4 1417.66  133.99
  -1   0   4 1345.47   79.89
   0   0  -4  637.64   43.80
   0   0  -4  650.13  101.69
   0   0   4  781.62   43.80
   0   0   4  857.01   73.99
   0   0   4  793.92   43.80
   0   0   4  616.04   94.19
   0   0  -4  786.02   43.60
  -1   0  -4 1543.55   94.09
   1   0   4 1829.62   94.49
   1   0   4 1825.92   94.99
   1   0   4 1587.74   93.99
   1   0   4 1627.14  141.39
   1   0   4 1458.45  155.68
  -1   0  -4 1491.65  163.18
  -1   0  -4 1716.63   94.19
  -2   0  -4  712.33   44.80
  -2   0  -4  788.32   45.30
   2   0   4  773.72   50.79
   2   0   4  742.63   45.50
   3   0   4  114.69   22.40
   3   0   4   84.49   17.60
  -3   0  -4  100.89   15.50
   4   0   4  306.27   24.70
   5  -1  -4   90.29   11.80
  -5  -1   4  113.09   19.80
  -5  -1   4   79.39   17.50
  -5   1   4   87.19   11.80
  -4  -1   4  564.64   41.60
   4  -1  -4  572.94   38.50
  -4   1   4  629.04   43.10
   4   1  -4  621.34   37.50
  -4   1   4  596.54   39.30
   4   1  -4  585.24   38.70
  -3  -1   4  582.64   41.80
   3  -1  -4  564.14   38.60
  -3   1   4  694.63   42.60
   3   1  -4  706.33   41.70
  -3   1   4  680.93   42.80
   3   1  -4  714.43   41.80
  -3   1   4  656.03   48.90
   2  -1  -4  364.56   83.19
  -2  -1   4  363.16   24.60
   2  -1  -4  345.57   27.60
  -2  -1   4  296.47   31.30
   2   1  -4  394.86   81.09
   2   1  -4  428.36   26.70
  -2   1   4  424.56   27.20
   2   1  -4  448.56   26.60
  -2   1   4  425.16   27.50
  -1  -1   4 1968.00  118.19
  -1  -1   4 2030.50  117.39
   1  -1  -4 2132.39  152.08
  -1  -1   4 2095.59  168.78
  -1  -1   4 2226.48  130.69
   1   1  -4 1803.12  110.19
  -1   1   4 1951.90  168.38
   1   1  -4 2083.09  110.19
  -1   1   4 2070.99  110.79
  -1   1   4 1903.01  110.69
   0  -1   4  781.62  100.69
   0  -1  -4  745.63  123.19
   0  -1   4  700.53   97.29
   0  -1   4  749.82   44.20
   0  -1   4  743.53   45.90
   0   1  -4  646.24   40.60
   0   1   4  636.74   40.10
   0   1   4  571.14  100.99
   0   1   4  676.43   40.50
   0   1  -4  719.43   39.60
   0   1   4  778.92   40.20
   0   1  -4  594.74  104.59
   1  -1   4 1277.97  146.89
   1  -1   4 1217.18   71.89
   1   1   4 1266.57   71.79
  -1   1  -4 1272.97   71.09
   1   1   4 1239.98   70.99
  -1   1  -4 1118.39  123.49
   1   1   4 1180.48  128.79
   1   1   4 1303.57   71.39
   2  -1   4 1077.09   62.69
   2  -1   4  989.80   60.69
   2  -1   4  988.40   61.79
   2   1   4  945.81   55.79
  -2   1  -4  956.70   55.19
  -2   1  -4  950.90   55.19
   2   1   4  924.31   66.49
   2   1   4  972.20   55.19
   2   1   4  903.31   55.59
   3  -1   4  967.20   60.29
   3   1   4  892.51   56.49
  -3   1  -4  878.41   53.29
   3   1   4  936.81   63.79
   3   1   4  847.72   53.59
  -3   1  -4  887.11   53.19
   3   1   4  924.61   53.49
   4  -1   4   72.29   11.80
   4   1   4   58.99   16.30
  -4   1  -4   74.09   17.40
   4  -2  -4   86.99   15.40
  -4  -2   4   26.80   16.50
  -4   2   4   75.59   13.50
  -4   2   4   86.79   16.90
   4   2  -4   81.09   11.90
  -4   2   4  120.59   20.90
   4   2  -4   63.79   12.80
  -3  -2   4   85.59   19.00
  -3  -2   4   78.49   17.10
   3  -2  -4   94.39   21.90
   3  -2  -4   96.19   13.50
  -3   2   4   80.79   13.70
  -3   2   4   79.49   11.40
   3   2  -4   87.39   13.30
   3   2  -4   72.19   10.50
   2  -2  -4  158.78   18.20
   2  -2  -4  161.48   28.20
  -2  -2   4  178.98   18.40
  -2  -2   4  152.28   30.00
  -2  -2   4  169.58   29.50
   2   2  -4  222.28   15.90
  -2   2   4  216.28   16.60
   2   2  -4  201.98   16.80
  -2   2   4  225.98   18.10
   1  -2  -4   58.59   14.90
  -1  -2   4   53.99   12.10
  -1  -2   4   58.19   12.60
   1  -2  -4   41.80   84.19
  -1  -2   4   82.69   19.90
  -1  -2   4   43.00   15.40
  -1   2   4   85.09   12.70
   1   2  -4   61.79    9.40
   1   2  -4   71.19    8.20
  -1   2   4   68.79    9.20
   0  -2   4   83.19   16.20
   0  -2   4   76.89   12.90
   0  -2  -4   64.29   72.49
   0  -2   4   80.29   17.30
   0  -2  -4   92.09   17.80
   0   2   4   96.99   13.60
   0   2  -4   85.39   17.20
   0   2   4   94.09   10.00
   0   2   4   76.99   11.60
   0   2  -4  100.09    9.50
  -1  -2  -4    5.20   16.80
   1  -2   4   18.30   13.10
   1  -2   4   25.40   13.10
   1  -2   4    7.10    7.00
  -1  -2  -4   26.20  105.29
  -1   2  -4   14.60    5.20
   1   2   4   11.00    6.30
   1   2   4   17.90    7.80
  -1   2  -4   48.80  121.49
   1   2   4   16.00    7.20
   2  -2   4 1495.85   89.89
   2  -2   4 1434.96   88.59
   2  -2   4 1634.74   90.39
   2   2   4 1372.96   78.29
   2   2   4 1362.26   78.79
   2   2   4 1438.46   77.69
  -2   2  -4 1282.57   77.19
  -2   2  -4 1254.57   77.29
   3  -2   4  479.45   33.60
   3   2   4  400.06   40.70
   3   2   4  372.16   27.60
   3   2   4  458.85   27.20
  -3   2  -4  415.66   27.00
  -3   2  -4  419.86   26.80
   4  -2   4  130.99   21.90
   4  -2   4  103.09   11.70
  -4   2  -4  104.59   15.40
   4   2   4   95.79   19.30
  -4  -3   4    9.40   10.30
  -4  -3   4   -4.50    7.70
  -4   3   4   22.20    8.60
   4   3  -4   10.80    6.80
  -4   3   4    5.10   11.70
   4   3  -4   22.40    9.30
  -4   3   4   18.60   10.30
  -3  -3   4   61.09   15.70
  -3  -3   4   64.09   15.50
  -3   3   4   89.89   14.10
  -3   3   4  152.38   24.80
   3   3  -4  114.19   12.60
  -3   3   4  103.69   13.40
  -2  -3   4  153.18   26.10
  -2  -3   4  151.98   19.30
  -2  -3   4  139.09   25.10
   2  -3  -4  154.28   24.10
   2   3  -4  191.68   15.40
  -2   3   4  197.38   16.30
   2   3  -4  198.08   19.40
  -2   3   4  209.48   20.60
  -1  -3   4  107.09   23.30
   1  -3  -4  117.19   21.20
  -1  -3   4  103.19   16.60
  -1   3   4  118.89   17.80
   1   3  -4  131.29   12.60
  -1   3   4  108.79   12.40
   0  -3   4 1502.05   91.49
   0  -3  -4 1464.95   95.59
   0  -3   4 1397.96  122.69
   0  -3   4 1561.34   88.59
   0   3  -4 1421.46   77.89
   0   3   4 1281.87   78.99
   0   3   4 1372.86   78.49
   0   3   4 1385.26   79.99
  -1  -3  -4  300.17   32.00
   1  -3   4  326.07   28.60
   1  -3   4  233.58   40.50
   1  -3   4  297.17   26.00
   1   3   4  261.77   21.60
  -1   3  -4  253.37   18.80
   1   3   4  268.67   22.90
   2  -3   4   30.50   13.10
   2  -3   4   14.00   18.80
   2  -3   4  -16.80   18.50
   2  -3   4   14.20   11.40
  -2   3  -4   33.60    9.50
  -2   3  -4   26.60    6.30
   2   3   4   19.60    9.30
   2   3   4   -1.70   19.90
   2   3   4   14.50    7.00
   3  -3   4   31.20   13.00
  -3   3  -4   56.69    9.80
   3   3   4   51.59    9.10
   3   3   4   33.80    8.00
  -3   3  -4   62.69   10.70
  -3  -4   4   37.00   18.30
  -3  -4   4   26.00    7.80
  -3   4   4   93.29   13.60
   3   4  -4   88.49   12.70
   3   4  -4   64.59   10.90
  -2  -4   4   50.19   15.30
   2  -4  -4   41.80   12.40
  -2  -4   4   34.70   13.80
  -2   4   4   49.00   11.80
   2   4  -4   40.60    9.00
  -2   4   4   38.50    9.60
   2   4  -4   47.60   12.80
  -1  -4   4 1088.19   66.69
   1  -4  -4 1084.19   66.19
  -1  -4   4  982.60   66.29
  -1   4   4  953.50   59.49
  -1   4   4 1013.60   60.59
   1   4  -4 1070.19   59.29
   0  -4   4  545.75   39.70
   0  -4   4  488.55   40.20
   0  -4  -4  545.55   40.00
   0   4   4  445.46   35.60
   0   4   4  414.16   27.90
   1  -4   4  396.56   48.60
  -1  -4  -4  432.16   37.50
   1  -4   4  437.66   32.70
   1  -4   4  389.66   38.30
   1   4   4  358.26   25.70
  -1   4  -4  360.16   25.10
   1   4   4  369.76   24.90
   2  -4   4   82.19   18.90
   2  -4   4   95.79   14.50
   2   4   4   55.69    9.50
  -2   4  -4   48.20   10.90
   2   4   4   59.59    9.40
  -2   4  -4   76.39   13.20
   3  -4   4   12.00   10.50
   3   4   4   21.40   13.10
  -3   4  -4   27.90    9.10
  -3   4  -4    0.10   11.40
  -2  -5   4   -1.90    8.70
   2  -5  -4   21.30    7.00
  -2   5   4    6.80   13.90
  -1  -5   4   61.69   17.80
   1  -5  -4   62.49   11.40
  -1  -5   4   63.19   12.40
  -1   5   4   48.60   14.10
  -1   5   4   74.99   16.00
   0  -5   4  160.28   17.60
   0  -5  -4  150.68   20.20
   0   5   4   56.99   13.70
   0   5   4   69.69   16.50
   1  -5   4  216.88   17.40
   1   5   4  129.19   18.40
  -5   0   5   77.59   11.20
   5   0  -5   76.79   11.80
   4   0  -5   33.90   16.10
  -4   0   5   24.20   10.40
   3   0  -5  118.19   17.50
  -3   0   5  179.08   25.40
   3   0  -5  165.88   17.00
   3   0  -5  177.18   27.60
  -2   0   5  108.59   23.00
   2   0  -5   67.59   85.59
   2   0  -5  115.39   11.00
  -2   0   5  112.69   15.00
   2   0  -5  118.99   21.00
   2   0  -5  129.49   12.40
  -2   0   5   99.09   15.80
  -2   0   5  -11.80  118.29
  -1   0   5   81.79   10.50
  -1   0   5   52.59   11.90
   1   0  -5   66.39   10.80
  -1   0   5   71.39   12.00
   1   0  -5   77.19   92.69
  -1   0   5   80.99   11.20
  -1   0   5   59.19   77.69
   1   0  -5   66.29    8.60
   0   0  -5  908.51  174.28
   0   0  -5 1340.57   73.89
   0   0  -5 1260.07   73.89
   0   0   5 1438.36   74.29
   0   0   5 1189.78  150.08
   0   0   5 1327.47   73.89
   0   0   5 1319.07  124.29
   0   0   5 1201.68   73.59
   1   0   5 2163.08  121.69
   1   0   5 2261.37  125.19
  -1   0  -5 2197.08  122.19
   1   0   5 1918.91  121.99
  -1   0  -5 2251.07  122.09
   2   0   5   -1.80   11.80
  -2   0  -5    5.60    8.00
   2   0   5    6.50    6.20
   2   0   5    7.60   15.50
  -2   0  -5   15.40    9.10
   3   0   5  215.88   26.30
   3   0   5  203.48   23.30
   4   0   5   88.09   15.10
   5  -1  -5  132.09   13.00
  -5  -1   5  118.29   23.50
  -5  -1   5  153.88   20.90
  -5   1   5  136.59   24.40
  -5   1   5  161.78   13.70
  -4  -1   5  328.17   27.50
   4  -1  -5  250.47   24.00
  -4   1   5  305.67   27.80
   4   1  -5  317.77   22.70
   4   1  -5  308.67   25.00
  -3  -1   5 1145.69   67.59
   3  -1  -5 1030.00   65.39
  -3   1   5 1306.17   79.09
  -3   1   5 1322.27   75.39
   3   1  -5 1228.28   74.19
   3   1  -5 1316.87   74.49
  -2  -1   5  113.29   17.60
  -2  -1   5   88.49   26.40
   2  -1  -5  111.89   19.10
  -2  -1   5  158.48   23.00
   2  -1  -5   70.89  121.29
   2   1  -5  132.39   12.80
  -2   1   5  138.89   14.60
  -2   1   5  160.88   22.10
  -2   1   5   94.29  149.79
   2   1  -5  146.99   11.90
  -2   1   5  141.69   13.90
  -1  -1   5  219.58   26.00
   1  -1  -5  415.26   91.39
  -1  -1   5  230.58   22.20
  -1  -1   5  271.47   19.70
   1   1  -5  290.97   17.90
   1   1  -5  263.77   18.30
  -1   1   5  264.87   19.50
  -1   1   5  289.37   19.00
   0  -1   5 2371.06  132.29
   0  -1   5 2310.37  132.69
   0  -1   5 2315.77  191.98
   0   1   5 2167.98  113.69
   0   1  -5 1914.81  113.19
   0   1   5 1911.91  113.09
   0   1   5 2033.90  114.09
   1  -1   5  432.76   29.00
   1  -1   5  467.85   37.10
   1  -1   5  379.66   31.30
   1   1   5  389.36   25.90
   1   1   5  403.96   26.30
  -1   1  -5  392.56   26.00
  -1   1  -5  419.26   25.90
   1   1   5  409.26   27.40
   2  -1   5  838.02   51.79
   2  -1   5  795.22   50.79
   2   1   5  772.82   47.00
  -2   1  -5  771.82   46.00
   2   1   5  679.53   46.20
   2   1   5  794.82   45.80
   2   1   5  803.72   57.49
   3  -1   5  320.87   27.40
   3   1   5  366.36   31.40
   3   1   5  376.96   30.00
   3   1   5  402.66   39.70
  -3   1  -5  337.47   29.70
   4  -1   5  102.49   12.70
   4   1   5   70.19   14.80
   4  -2  -5  573.14   33.80
  -4  -2   5  447.86   37.70
  -4  -2   5  587.94   39.00
  -4   2   5  656.33   40.10
   4   2  -5  693.03   39.40
  -4   2   5  643.84   41.80
  -4   2   5  615.74   43.00
  -3  -2   5   -2.00   14.30
   3  -2  -5   -1.40   10.70
  -3  -2   5   -4.20   15.20
  -3  -2   5   10.00   20.10
   3   2  -5   21.20    6.50
  -3   2   5   24.00    9.70
  -3   2   5   27.00   17.00
  -3   2   5   18.40    8.40
   3   2  -5   10.40    7.60
   2  -2  -5  149.09   28.90
  -2  -2   5  103.59   18.80
  -2  -2   5  115.69   29.40
  -2   2   5  143.39   26.00
  -2   2   5  156.98   14.50
   2   2  -5  138.29   12.30
  -2   2   5  146.49   15.60
   2   2  -5  134.59   13.90
  -1  -2   5   66.99   14.50
   1  -2  -5   40.90   16.40
  -1  -2   5   42.60    9.50
  -1  -2   5   82.29   19.30
  -1  -2   5   56.89   11.40
   1   2  -5   57.59   11.90
  -1   2   5   76.39   10.10
  -1   2   5   53.69    9.70
   1   2  -5   65.39    8.50
   0  -2  -5  417.36   37.00
   0  -2   5  426.56   29.50
   0  -2  -5  180.68  139.19
   0  -2   5  422.56   36.00
   0  -2   5  438.66   30.90
   0  -2   5  426.96   36.30
   0   2   5  393.16   26.10
   0   2   5  397.26   25.80
   0   2  -5  383.36   30.50
   0   2  -5  395.16   24.80
   0   2   5  403.26   25.50
   1  -2   5  612.24   39.00
   1  -2   5  529.55   38.80
  -1  -2  -5  543.65   44.00
   1  -2   5  623.74   41.10
  -1   2  -5  528.85   32.10
   1   2   5  502.35   32.40
   1   2   5  496.95   33.30
   1   2   5  525.65   32.50
   2  -2   5   28.60   12.00
   2  -2   5   37.50   12.10
   2   2   5   28.90    9.80
   2   2   5   31.50    7.50
   2   2   5   27.00    9.00
  -2   2  -5   23.70    5.70
  -2   2  -5   35.30    8.60
   3  -2   5  123.19   17.40
   3   2   5  112.69   13.10
   3   2   5  117.49   14.50
  -3   2  -5   92.49   12.40
   3   2   5   73.49   27.00
   4  -2   5   66.39    9.10
   4  -2   5   84.99   18.30
  -4   2  -5   60.69   15.20
  -4  -3   5  102.79   15.10
   4   3  -5   93.19   15.30
  -4   3   5  114.09   18.20
   4   3  -5  118.49   12.30
  -4   3   5  141.59   18.90
  -4   3   5  111.49   22.80
  -3  -3   5   35.90   13.40
  -3  -3   5    6.40   15.50
   3   3  -5   59.19   10.50
   3   3  -5   64.59   11.90
  -3   3   5   70.29   32.70
  -3   3   5   49.60    9.40
  -3   3   5   56.79   10.60
  -2  -3   5  714.23   52.49
  -2  -3   5  755.72   46.80
   2  -3  -5  780.02   52.29
  -2  -3   5  755.22   50.69
  -2  -3   5  865.21   58.59
   2   3  -5  831.52   50.19
  -2   3   5  860.31   50.89
   2   3  -5  809.72   49.00
  -2   3   5  833.22   50.29
  -1  -3   5  118.89   23.90
  -1  -3   5  205.18   32.90
   1  -3  -5  131.49   23.50
   1   3  -5  128.99   18.30
  -1   3   5  126.19   12.00
  -1   3   5  140.59   17.00
   1   3  -5  124.59   11.60
   0  -3   5  502.75   36.50
   0  -3   5  554.94   39.50
   0  -3  -5  515.15   40.00
   0   3   5  507.15   32.60
   0   3  -5  428.86   34.60
   0   3   5  477.25   31.50
   0   3   5  459.45   29.60
  -1  -3  -5  213.08   29.10
   1  -3   5  149.39   25.00
   1  -3   5  186.18   23.50
   1   3   5  138.69   13.00
   1   3   5  124.69   19.00
  -1   3  -5  100.09   17.70
   1   3   5  129.89   16.40
  -1   3  -5  137.79   13.20
   2  -3   5   49.00   20.20
   2  -3   5   54.39   12.30
   2  -3   5   62.19   13.50
  -2   3  -5   45.40    9.10
   2   3   5   66.29   10.80
  -2   3  -5   40.90    8.50
   2   3   5   27.60    8.20
   2   3   5   87.79   41.00
   3   3   5  179.28   14.40
   3   3   5  158.78   16.10
  -3   3  -5  181.18   14.80
  -3   3  -5  156.58   14.70
  -3  -4   5  235.78   36.00
  -3  -4   5  228.18   19.60
  -3   4   5  284.37   21.00
  -3   4   5  285.67   22.00
   3   4  -5  258.37   20.90
   3   4  -5  294.27   23.10
  -2  -4   5   10.60   10.80
  -2  -4   5   10.50   13.90
   2   4  -5   41.30   10.60
  -2   4   5    7.60    8.70
  -2   4   5   22.70   10.10
   1  -4  -5  848.82   55.39
  -1  -4   5  888.21   57.59
  -1  -4   5  836.32   55.19
   1   4  -5  728.93   46.50
  -1   4   5  629.24   48.60
   1   4  -5  746.23   44.00
  -1   4   5  808.12   45.00
  -1   4   5  737.83   44.40
   0  -4   5  110.99   20.50
   0  -4  -5  126.79   23.00
   0  -4   5  124.19   20.60
   0   4  -5   82.69   15.20
   0   4   5   81.69   12.10
   0   4   5   77.79   14.50
   0   4   5  117.99   21.00
  -1  -4  -5  172.88   30.50
   1  -4   5  202.08   30.10
   1  -4   5  145.79   20.10
   1  -4   5  136.79   22.60
   1   4   5  133.99   15.00
  -1   4  -5  117.69   20.00
  -1   4  -5  117.49   14.40
   1   4   5  103.59   13.30
   2  -4   5  274.67   28.90
   2  -4   5  216.08   19.40
   2   4   5  163.68   15.40
  -2   4  -5  141.79   15.60
  -2   4  -5  152.08   16.80
   2   4   5  197.88   14.20
  -1  -5   5    6.80    6.40
  -1  -5   5   33.70   19.60
   1  -5  -5   12.40    7.50
  -1   5   5   -8.70   12.30
   0  -5   5  110.29   13.30
   0  -5  -5  106.89   17.00
   0   5   5   55.19   14.00
   0   5   5   92.39   17.20
   1  -5   5   77.79   11.20
   1   5   5   69.79   14.10
  -5   0   6   21.40    7.60
  -5   0   6   14.70    5.80
  -4   0   6    8.20   11.30
  -3   0   6  261.17   28.60
   3   0  -6  270.07   22.10
   3   0  -6  183.48   29.00
   2   0  -6 1733.93  100.09
  -2   0   6 1766.72  102.89
  -2   0   6 1805.22  102.19
   2   0  -6 1855.01  100.29
   2   0  -6 1325.77  282.97
  -1   0   6   14.60    8.80
  -1   0   6    5.20   15.30
  -1   0   6    9.00    8.60
  -1   0   6   10.10    8.70
  -1   0   6    4.00    7.30
  -1   0   6   -2.60   14.50
   1   0  -6    0.20    7.10
   0   0   6  126.49   16.00
   0   0   6  141.89   24.00
   0   0   6  156.88   15.00
   0   0  -6  182.48   14.50
   0   0   6  130.09   16.20
  -1   0  -6   36.00    8.20
   1   0   6   60.39   11.20
   1   0   6   54.29   15.50
  -1   0  -6   48.10    9.70
   1   0   6   29.10   12.20
   2   0   6    5.30   14.70
  -2   0  -6  -13.00   11.50
   2   0   6    2.60    8.30
  -2   0  -6    2.40   11.30
   3   0   6   14.60   18.20
   3   0   6   27.50   15.00
   4   0   6   -1.40    7.30
  -4  -1   6  191.68   31.80
  -4  -1   6  311.67   26.30
   4  -1  -6  242.68   24.10
  -4   1   6  353.86   36.10
  -4   1   6  358.86   35.90
   4   1  -6  300.07   24.60
  -3  -1   6  259.37   27.50
  -3  -1   6  213.08   40.30
   3  -1  -6  209.38   22.70
   3   1  -6  225.98   18.00
  -3   1   6  251.57   27.80
   3   1  -6  217.28   16.90
  -3   1   6  206.78   21.00
  -2  -1   6  481.15   35.90
  -2  -1   6  548.25   49.50
  -2   1   6  528.35   35.90
   2   1  -6  588.64   34.70
  -2   1   6  603.34   35.70
  -2   1   6  545.75   49.40
   2   1  -6  586.94   34.40
  -2   1   6  541.95   43.60
  -1  -1   6 1484.75   91.59
  -1  -1   6 1493.05   93.09
   1  -1  -6 1564.94  102.39
  -1  -1   6 1839.72  106.99
  -1  -1   6 1578.94   91.69
  -1   1   6 1410.36  100.59
  -1   1   6 1602.04   88.19
  -1   1   6 1614.64   88.69
   1   1  -6 1478.85   87.79
   1   1  -6 1468.95   87.79
  -1   1   6 1553.24   89.39
  -1   1   6 1731.63  110.09
   0  -1   6 1111.09   71.89
   0  -1   6  989.20   63.99
   0  -1   6 1161.68   63.99
   0  -1  -6 1096.79   70.79
   0  -1   6  916.11   66.99
   0  -1   6 1191.08   63.99
   0  -1   6  834.82  253.67
   0   1   6 1043.60   59.59
   0   1  -6  984.30   59.39
   0   1  -6 1049.70   59.39
   0   1   6  997.90   58.99
   1  -1   6  761.92   52.69
   1  -1   6  818.42   48.10
   1  -1   6  758.42   49.70
   1   1   6  731.83   43.70
   1   1   6  651.93   43.00
  -1   1  -6  706.33   42.80
   1   1   6  708.93   54.99
   1   1   6  689.63   42.50
  -1   1  -6  747.73   43.00
   2  -1   6   48.20   14.20
   2  -1   6   36.80   12.50
   2  -1   6   26.10   12.50
   2   1   6   38.90    9.20
   2   1   6   46.10   21.10
   2   1   6   30.40    9.80
   3  -1   6   66.09   17.60
   3  -1   6   29.90   10.40
   3   1   6   58.89   18.80
   3   1   6   76.09   21.10
  -3   1  -6   71.19   14.20
  -3   1  -6   50.49   13.60
   4  -1   6  188.58   15.10
  -4  -2   6   18.10   13.90
  -4  -2   6  -11.70   11.00
  -4  -2   6    5.10    8.20
   4   2  -6   16.20   10.40
  -4   2   6   27.60    9.40
   4   2  -6   21.30    7.90
  -4   2   6   -7.50   11.60
  -3  -2   6   77.19   15.30
  -3  -2   6   71.09   12.60
  -3  -2   6   82.19   20.80
   3   2  -6   89.09   10.90
   3   2  -6   77.69   10.70
  -3   2   6   79.29   12.00
  -3   2   6   91.19   14.00
  -3   2   6   98.99   17.70
  -2  -2   6   83.19   13.50
  -2  -2   6  120.39   23.90
   2  -2  -6  144.39   33.80
  -2  -2   6   79.59   16.30
  -2  -2   6  102.19   21.60
  -2   2   6  121.89   26.00
  -2   2   6  118.19   11.80
  -2   2   6  104.89   14.00
   2   2  -6   90.59   12.30
   2   2  -6   99.29    9.70
  -1  -2   6  383.26   38.00
  -1  -2   6  324.27   36.40
  -1  -2   6  311.47   26.50
   1  -2  -6  339.77   39.40
  -1   2   6  275.57   21.90
   1   2  -6  300.67   19.30
   1   2  -6  284.17   20.70
  -1   2   6  288.27   20.70
  -1   2   6  286.77   21.10
   0  -2   6  761.32   46.50
   0  -2   6  654.73   47.70
   0  -2   6  748.33   49.90
   0   2   6  665.03   41.70
   0   2  -6  678.43   41.30
   0   2   6  683.03   40.40
   0   2   6  632.04   40.50
  -1  -2  -6 1017.10   68.29
   1  -2   6 1093.59   65.69
   1  -2   6 1097.69   64.69
   1  -2   6 1019.80   64.09
  -1   2  -6  915.31   57.69
   1   2   6  945.31   57.49
   1   2   6  958.80   58.89
  -1   2  -6  988.20   57.59
   1   2   6 1061.29   59.49
   2  -2   6  125.59   21.70
   2  -2   6  105.09   19.10
   2  -2   6  125.59   23.60
   2   2   6  109.49   18.40
   2   2   6  101.29   16.40
  -2   2  -6   79.99   11.40
   2   2   6   82.29   13.30
  -2   2  -6  112.79   20.40
   3  -2   6  290.07   21.20
  -3   2  -6  327.67   28.30
   3   2   6  276.47   20.90
  -3   2  -6  271.07   20.80
  -4  -3   6  230.88   19.70
   4   3  -6  291.37   20.10
  -4   3   6  289.37   21.50
   3  -3  -6   10.80   16.90
  -3  -3   6    5.70   11.10
  -3  -3   6   28.80    8.40
  -3   3   6   37.60    9.20
   3   3  -6   27.50    7.50
   3   3  -6   41.60    8.20
  -2  -3   6  299.57   23.30
  -2  -3   6  269.97   29.50
  -2  -3   6  304.97   30.00
  -2  -3   6  250.57   34.90
   2  -3  -6  346.47   31.30
   2   3  -6  320.27   21.40
  -2   3   6  305.47   22.70
   2   3  -6  321.47   21.90
  -2   3   6  316.97   22.80
   1  -3  -6   67.29   14.70
  -1  -3   6   32.30   15.40
  -1  -3   6   66.69   15.70
  -1  -3   6   73.19   15.30
   1   3  -6   63.29   11.50
  -1   3   6   58.39   10.20
   1   3  -6   49.60    9.70
  -1   3   6   44.30    8.60
  -1   3   6   66.19   13.20
   0  -3   6  231.88   26.50
   0  -3  -6  232.68   28.60
   0  -3   6  203.18   25.30
   0   3   6  169.98   17.40
   0   3  -6  185.18   22.30
   0   3   6  189.48   20.20
   0   3   6  174.68   15.40
  -1  -3  -6  701.43   50.89
   1  -3   6  710.23   49.50
   1  -3   6  740.13   47.70
   1  -3   6  668.93   60.19
   1   3   6  530.55   35.70
   1   3   6  593.04   39.90
  -1   3  -6  586.04   35.70
   2  -3   6  275.97   26.20
   2  -3   6  274.47   35.60
   2  -3   6  187.98   19.90
   2   3   6  179.88   17.20
  -2   3  -6  214.28   17.40
   2   3   6  163.98   35.20
  -2   3  -6  200.58   16.30
   2   3   6  231.58   16.70
   3  -3   6  177.58   21.10
  -3   3  -6  153.18   14.40
  -3   3  -6  111.19   15.50
   3   3   6  183.98   20.20
  -3  -4   6  757.52   43.30
   3  -4  -6  644.14   48.10
  -3   4   6  773.02   50.79
   3   4  -6  785.22   46.70
  -3   4   6  819.52   46.80
   2  -4  -6   33.00    9.70
  -2  -4   6   15.30   10.10
  -2  -4   6   22.90   21.60
  -2   4   6    8.20    8.60
   2   4  -6   15.30    8.70
   2   4  -6   26.40    9.50
  -2   4   6   17.10    9.90
  -2   4   6    9.20   21.10
  -1  -4   6  117.99   25.30
  -1  -4   6   69.39   14.50
   1  -4  -6  103.09   24.90
  -1   4   6  115.19   14.00
   1   4  -6  139.49   20.30
  -1   4   6  129.29   22.30
  -1   4   6  103.89   14.90
   0  -4   6  362.06   32.20
   0   4   6  461.45   40.60
   0   4   6  536.75   32.10
   0   4   6  512.55   32.10
   0   4  -6  480.95   32.60
   1  -4   6  135.69   15.10
   1  -4   6   87.29   22.10
  -1   4  -6  138.69   17.30
   1   4   6   96.39   13.10
   2  -4   6  330.97   24.20
   2  -4   6  394.86   29.60
  -2   4  -6  289.77   20.80
   2   4   6  235.88   20.10
  -1  -5   6   36.40    7.70
   1  -5  -6   56.49   12.30
  -1   5   6    7.40   11.10
   0  -5   6  165.88   14.20
   0  -5  -6  156.38   16.60
   0   5   6  122.09   15.90
  -4   0   7  121.79   18.90
  -4   0   7  140.59   16.60
  -3   0   7  117.19   24.00
  -3   0   7  112.09   18.90
  -2   0   7  794.72   51.89
  -2   0   7  808.92   52.59
   2   0  -7  819.02   48.70
  -1   0   7  -11.60   13.60
  -1   0   7   17.70   16.00
  -1   0   7    6.10   13.90
  -1   0   7   -1.80    9.10
   1   0  -7    4.50    8.20
   1   0  -7   -0.50    8.10
   0   0  -7  434.86   30.30
   0   0   7  465.55   35.40
   0   0   7  468.45   45.60
   0   0   7  516.15   30.70
   0   0  -7  438.76   30.50
   1   0   7   56.49   12.30
  -1   0  -7   50.49   10.90
  -1   0  -7   30.20   10.60
   1   0   7   46.70   14.30
   2   0   7    1.00    9.60
  -2   0  -7   38.40   15.10
   2   0   7   20.10   14.50
   3   0   7   -2.40    9.80
  -4  -1   7   24.80    9.40
  -4  -1   7   35.50    9.40
  -4   1   7   40.50    9.30
   4   1  -7   51.59   29.00
  -4   1   7   18.10   18.60
  -3  -1   7  493.75   35.60
  -3  -1   7  515.85   57.69
  -3  -1   7  505.25   38.20
  -3   1   7  535.95   46.30
  -3   1   7  400.36   33.20
   3   1  -7  532.45   31.00
   3   1  -7  479.35   30.80
  -3   1   7  488.05   37.40
  -2  -1   7  175.18   20.40
  -2  -1   7  157.48   24.30
  -2  -1   7  178.78   25.70
  -2   1   7  157.28   31.30
  -2   1   7  198.78   17.60
   2   1  -7  143.79   13.00
  -2   1   7  171.88   26.40
   2   1  -7  182.08   16.20
  -2   1   7  180.88   22.00
  -2   1   7  208.68   35.10
   1  -1  -7  337.77   47.00
  -1  -1   7  356.96   27.00
  -1   1   7  296.97   38.00
  -1   1   7  321.27   23.80
   1   1  -7  333.77   22.50
  -1   1   7  287.37   23.00
  -1   1   7  307.27   42.20
  -1   1   7  337.07   22.50
   0  -1   7  451.65   29.80
   0  -1   7  358.16   42.60
   0  -1   7  368.36   41.80
   0  -1   7  422.16   29.40
   0   1  -7  394.66   25.60
   0   1   7  390.26   40.20
   0   1   7  406.86   26.70
   0   1   7  353.76   26.10
   0   1   7  359.96   25.50
   1  -1   7  577.04   40.30
   1  -1   7  529.55   44.00
   1  -1   7  608.54   39.30
  -1   1  -7  502.15   32.90
   1   1   7  519.15   32.70
   1   1   7  465.35   33.60
   1   1   7  453.45   45.00
   1   1   7  556.94   34.60
  -1   1  -7  510.05   34.20
   2  -1   7  467.35   35.50
   2  -1   7  461.35   36.10
  -2   1  -7  335.37   25.50
   2   1   7  380.66   29.10
   2   1   7  395.06   40.40
   3  -1   7  197.98   18.00
   3  -1   7  184.38   39.70
  -3   1  -7  214.18   24.10
   3   1   7  192.58   25.90
   3   1   7  187.48   29.20
  -4  -2   7   52.19   15.00
  -4  -2   7   38.60    9.30
  -4   2   7   36.50    9.10
   4   2  -7   34.90   14.40
   4   2  -7   20.80   19.00
  -3  -2   7   82.99   19.80
  -3  -2   7   56.19   13.00
  -3  -2   7   58.29   11.80
  -3   2   7   80.99   25.00
  -3   2   7   81.59   13.90
  -3   2   7   80.79   13.10
   3   2  -7   91.59   11.20
  -3   2   7   70.19   17.50
  -2  -2   7   70.59   16.50
   2  -2  -7   90.39   24.50
  -2  -2   7  112.89   17.50
  -2  -2   7  102.09   21.70
  -2  -2   7   98.39   15.30
   2   2  -7   94.69   10.20
  -2   2   7  112.49   13.90
  -2   2   7   85.79   13.30
  -2   2   7  100.89   20.20
   2   2  -7   90.99   12.70
   1  -2  -7   56.09   18.20
  -1  -2   7   85.49   15.00
  -1  -2   7   66.79   12.50
  -1  -2   7   56.69   19.70
  -1  -2   7   81.99   16.40
  -1   2   7   68.59   15.00
  -1   2   7   74.69   13.00
   1   2  -7   75.69   13.40
  -1   2   7   70.59   10.80
   1   2  -7   75.29    8.50
   0  -2   7   16.30   15.80
   0  -2   7   31.10   15.30
   0  -2   7   34.60   12.90
   0  -2  -7   42.70   16.40
   0   2  -7   28.10    9.70
   0   2   7   15.60    6.60
   0   2   7   16.50    8.40
   0   2   7   34.70    9.40
   0   2  -7   29.90    6.90
   1  -2   7  278.77   26.70
   1  -2   7  340.87   29.60
   1  -2   7  301.87   27.10
   1   2   7  266.77   23.70
  -1   2  -7  280.37   21.40
   1   2   7  276.47   20.70
  -1   2  -7  261.07   19.80
   1   2   7  218.98   20.00
   2  -2   7  339.57   27.00
   2  -2   7  362.06   31.70
   2  -2   7  328.87   28.50
   2   2   7  304.67   20.10
  -2   2  -7  224.78   20.00
  -2   2  -7  317.57   20.90
   2   2   7  224.68   21.80
   2   2   7  298.57   27.70
   3  -2   7   68.19   10.70
  -3   2  -7   63.59   15.20
  -3   2  -7   78.19   14.00
  -3  -3   7    7.80   12.10
  -3  -3   7   -3.10    8.90
  -3   3   7   -7.90   11.80
  -3   3   7    3.40    8.10
   3   3  -7   17.00    8.20
   3   3  -7    0.80    7.10
  -2  -3   7  111.09   21.50
  -2  -3   7  124.79   25.90
   2  -3  -7  135.09   26.70
   2   3  -7   86.29   11.20
  -2   3   7  101.59   14.00
  -2   3   7  123.99   13.50
   2   3  -7  126.89   13.70
  -1  -3   7  382.86   33.50
   1  -3  -7  423.36   35.10
  -1  -3   7  379.26   35.20
  -1  -3   7  436.36   34.50
   1   3  -7  389.76   27.70
  -1   3   7  413.66   32.40
  -1   3   7  417.46   26.70
  -1   3   7  413.96   27.60
   0  -3  -7  179.58   26.50
   0  -3   7  200.98   23.70
   0  -3   7  162.78   24.10
   0   3  -7  181.48   18.20
   0   3   7  159.18   15.50
   0   3   7  179.28   22.10
   0   3   7  165.78   15.20
   0   3  -7  176.58   15.90
   1  -3   7  616.84   42.20
   1  -3   7  640.64   45.70
   1  -3   7  619.54   61.99
   1   3   7  486.15   38.50
  -1   3  -7  588.14   34.10
   1   3   7  488.95   33.70
   1   3   7  527.95   33.00
   2  -3   7   62.39   20.50
   2  -3   7   66.29   13.00
   2   3   7   30.70    7.60
  -2   3  -7   21.10    7.80
   2   3   7   20.10    9.80
  -2  -4   7   97.69   18.40
  -2  -4   7   81.29   12.40
   2  -4  -7   96.69   17.20
  -2   4   7  117.19   14.10
  -2   4   7  136.99   15.70
  -1  -4   7  435.06   29.50
   1  -4  -7  446.26   31.10
  -1  -4   7  379.26   50.59
  -1   4   7  422.36   25.20
   1   4  -7  350.36   26.50
   1   4  -7  383.96   27.20
  -1   4   7  358.36   26.00
   0  -4  -7  527.25   36.90
   0  -4   7  563.94   35.50
   0   4  -7  529.65   32.80
   0   4   7  512.25   30.80
   0   4   7  428.66   31.20
   1  -4   7   63.99   17.60
   1  -4   7   66.69   11.70
  -1   4  -7   75.39   16.70
  -1   4  -7   71.29   14.50
   1   4   7   43.60   10.10
   1   4   7   69.49   10.50
  -4   0   8  153.18   15.90
  -4   0   8  127.09   17.40
  -3   0   8  124.09   18.70
  -3   0   8  104.59   22.10
  -2   0   8   51.99   14.00
  -2   0   8   72.39   16.70
   1   0  -8 1244.38   76.69
  -1   0   8 1359.86   78.89
  -1   0   8 1283.67   78.49
  -1   0   8 1292.57   80.49
  -1   0   8 1380.66   78.19
   0   0   8   58.59   13.20
   0   0  -8   38.20   10.40
   0   0   8   66.19   15.80
   0   0  -8   33.30   11.00
   0   0   8   42.90   21.30
   1   0   8  136.79   25.90
  -1   0  -8  131.59   19.50
   1   0   8  161.38   19.20
   2   0   8    0.30   15.00
   2   0   8    7.20   13.80
   3   0   8   -5.90    9.40
  -4  -1   8   40.80    8.40
  -4  -1   8   37.40    7.90
  -4   1   8   69.69   12.70
  -4   1   8   33.80   16.90
  -3  -1   8  151.98   19.30
  -3  -1   8  125.19   23.30
   3   1  -8  120.19   15.50
  -3   1   8  185.48   33.50
  -3   1   8  139.59   23.40
  -2  -1   8  127.49   19.70
  -2  -1   8  116.19   29.50
  -2  -1   8  100.19   16.00
  -2   1   8   88.79   21.30
  -2   1   8  160.08   31.30
   2   1  -8  110.89   14.80
  -2   1   8  126.89   25.00
  -2   1   8  106.39   17.30
  -1  -1   8   27.80   12.60
  -1  -1   8   49.50   13.60
  -1  -1   8   35.10   11.80
  -1   1   8   43.20   20.70
  -1   1   8   13.50   10.30
  -1   1   8   43.50   12.60
  -1   1   8   50.39   31.90
  -1   1   8   50.69   10.60
   1   1  -8   34.00    6.90
   1   1  -8   23.00    8.70
   0  -1   8  715.93   44.70
   0  -1   8  591.84   46.40
   0  -1   8  707.73   49.40
   0   1   8  623.24   38.00
   0   1   8  520.65   37.90
   0   1   8  672.43   39.90
   0   1   8  602.44   47.10
   0   1  -8  590.74   37.20
   1  -1   8    6.90   11.20
   1  -1   8   -0.30   17.30
   1  -1   8   -4.00   12.20
   1  -1   8   14.20   20.90
  -1   1  -8    0.80    7.70
   1   1   8   32.50   19.10
   1   1   8    2.50   13.20
  -1   1  -8   14.50    9.20
   1   1   8    1.30   10.00
   2  -1   8  100.79   19.60
   2  -1   8  117.69   21.50
  -2   1  -8  110.89   19.40
  -2   1  -8  114.99   15.90
   2   1   8  133.19   31.20
   3  -1   8   88.89   11.30
   3  -1   8   52.69   21.30
   3   1   8   55.09   12.50
  -4  -2   8   69.89    8.50
  -4  -2   8   41.00    8.80
  -4   2   8   85.29   13.70
  -3  -2   8  151.78   29.30
  -3  -2   8  192.88   16.00
  -3  -2   8  199.68   20.20
  -3   2   8  210.88   18.20
  -3   2   8  154.58   27.60
   3   2  -8  203.68   16.30
  -2  -2   8   67.19   21.00
  -2  -2   8   28.70   11.10
   2  -2  -8   56.39   27.30
  -2  -2   8   27.70   17.30
  -2  -2   8   43.90   13.30
   2   2  -8   25.40    6.60
   2   2  -8   20.90    7.60
  -2   2   8   43.30    8.90
  -2   2   8  -15.90   19.20
  -2   2   8   14.00   11.00
   1  -2  -8   92.29   20.30
  -1  -2   8  103.39   21.30
  -1  -2   8  121.79   18.00
  -1  -2   8   86.79   15.50
  -1   2   8  130.79   21.40
  -1   2   8   99.49   13.90
   1   2  -8  131.59   21.50
  -1   2   8  135.79   20.20
   0  -2   8  167.88   22.60
   0  -2   8  177.18   26.90
   0  -2   8  195.98   21.40
   0   2  -8  170.48   15.20
   0   2   8  146.19   16.20
   0   2   8  167.68   20.70
   1  -2   8  335.77   31.70
   1  -2   8  342.47   30.20
   1  -2   8  338.67   26.90
   1   2   8  284.07   20.40
   1   2   8  227.88   21.80
  -1   2  -8  315.47   21.20
  -1   2  -8  287.07   21.00
   2  -2   8  165.58   15.40
   2  -2   8  146.49   26.90
   2   2   8  155.38   29.80
   2   2   8  108.69   14.90
  -2   2  -8  147.49   14.90
   3  -2   8   15.40   10.20
   3  -2   8   23.40    6.10
  -3  -3   8   -8.40   10.90
  -3  -3   8    2.50    9.40
  -3   3   8    6.20   13.60
   3   3  -8   11.80   12.30
  -2  -3   8  277.57   25.90
   2  -3  -8  329.67   29.30
  -2  -3   8  296.97   26.00
   2   3  -8  315.07   22.60
  -2   3   8  343.27   22.80
  -2   3   8  312.97   35.40
  -1  -3   8  186.48   30.80
  -1  -3   8  258.97   28.30
  -1   3   8  192.48   27.50
  -1   3   8  238.98   17.50
   1   3  -8  224.98   17.60
  -1   3   8  171.28   17.70
   1   3  -8  222.98   18.80
   0  -3   8   31.40   15.10
   0  -3   8   18.70   15.10
   0  -3  -8   31.70   15.40
   0   3   8   21.20   16.20
   0   3   8   24.50    8.80
   0   3   8   19.40    9.40
   0   3  -8   35.60    8.60
   1  -3   8   18.10   14.90
   1  -3   8   39.30   22.50
   1  -3   8   33.10    9.90
   1   3   8   15.40   13.20
  -1   3  -8   15.90    8.40
   1   3   8   61.99   22.20
  -1   3  -8   21.70    9.90
   1   3   8   25.90    7.90
   2  -3   8   41.30   15.60
   2  -3   8   50.89    9.10
   2  -3   8   43.40   28.00
  -2   3  -8   28.00   12.10
   2   3   8   35.40    8.80
  -2  -4   8  180.18   15.60
   2  -4  -8  168.78   25.40
   2   4  -8  185.58   18.10
  -2   4   8  191.38   16.00
  -1  -4   8   53.39   17.60
   1  -4  -8   64.49   13.50
  -1   4   8   24.20   11.20
  -1   4   8    9.40   10.30
   1   4  -8   24.00   11.40
   0  -4   8   31.50    7.90
   0  -4   8   17.60   13.50
   0   4   8   20.30   11.30
   0   4   8   24.80   10.00
   0   4  -8   24.40   10.30
   0   4  -8    6.70   11.10
   1  -4   8  113.39   11.70
   1   4   8   85.99   10.40
  -1   4  -8  103.19   15.80
  -4   0   9   38.50    7.10
  -4   0   9   33.10    8.20
  -3   0   9   10.50    9.10
  -3   0   9    8.90    9.30
  -2   0   9 1370.16   80.29
  -2   0   9 1294.47   80.69
   1   0  -9  278.37   25.60
  -1   0   9  296.57   36.10
  -1   0   9  370.96   29.50
  -1   0   9  308.77   35.90
   0   0   9  423.06   35.50
   0   0   9  487.25   36.70
   0   0   9  428.06   36.10
   1   0   9   -5.80   13.40
   1   0   9  -15.60   41.00
   2   0   9  102.79   17.50
   2   0   9   68.69   25.10
   3   0   9   91.29   11.80
  -4  -1   9   38.00    7.40
  -4  -1   9   34.10    7.00
  -4   1   9    7.70   15.10
  -3  -1   9  192.38   20.70
  -3  -1   9  219.58   17.80
  -3   1   9  224.08   23.30
   3   1  -9  168.88   22.20
  -3   1   9  192.18   28.10
  -2  -1   9   63.89   14.20
  -2  -1   9   62.09   13.90
  -2   1   9   86.89   20.00
   2   1  -9   56.19   11.70
  -2   1   9   40.00   22.60
  -1  -1   9  348.37   33.80
  -1  -1   9  361.96   33.80
  -1  -1   9  355.36   28.80
  -1   1   9  353.56   35.50
   1   1  -9  286.57   22.10
  -1   1   9  257.27   31.80
   0  -1   9  319.57   29.70
   0  -1   9  321.07   28.30
   0   1  -9  239.98   20.70
   0   1  -9  270.87   20.10
   0   1   9  250.57   34.60
   0   1   9  312.17   27.30
   1  -1   9   13.00   12.40
   1  -1   9    8.70   12.70
   1  -1   9    3.60   27.60
   1   1   9   -3.20   13.00
  -1   1  -9   -0.70    9.30
   1   1   9   29.50   19.10
  -1   1  -9    2.20   11.20
   2  -1   9   22.90    8.80
   2  -1   9   64.19   25.40
  -2   1  -9   10.50   16.10
   2   1   9   53.49   27.00
   2   1   9   27.00   16.10
  -3  -2   9   64.39   11.00
  -3  -2   9   49.30    9.50
   3   2  -9   35.60   14.20
   3   2  -9   37.70    9.10
  -2  -2   9  121.09   14.60
  -2  -2   9  122.59   22.30
  -2  -2   9   94.79   25.60
   2   2  -9  119.59   13.90
   2   2  -9  125.49   12.90
  -2   2   9  123.89   15.60
  -1  -2   9   54.09   33.60
  -1  -2   9   24.60   10.00
  -1  -2   9   25.60   12.80
  -1  -2   9    7.70   15.90
  -1   2   9   32.30   12.40
  -1   2   9   30.00   18.20
   1   2  -9   39.80    8.50
  -1   2   9   28.60    9.60
   1   2  -9   26.60    8.40
   0  -2   9  330.27   26.90
   0  -2   9  432.16   48.10
   0  -2   9  332.37   30.90
   0   2  -9  316.37   21.60
   0   2  -9  291.97   21.70
   0   2   9  292.37   28.90
   0   2   9  281.87   21.60
   1  -2   9  113.49   21.20
   1  -2   9  108.49   14.10
   1  -2   9  106.79   22.80
   1   2   9   54.59   16.90
   1   2   9   80.59   13.40
  -1   2  -9   83.19   14.00
   2  -2   9    5.00   15.70
   2  -2   9   15.00    6.60
  -2   2  -9   30.20   19.40
  -2  -3   9    4.40   20.50
   2   3  -9   -6.50    7.80
   2   3  -9    5.90    9.60
  -2   3   9   -5.80    9.70
  -1  -3   9  431.76   38.60
  -1  -3   9  421.46   30.10
  -1   3   9  318.47   27.00
  -1   3   9  426.96   24.90
   1   3  -9  359.86   25.20
   0  -3   9    6.50   22.50
   0  -3   9   -0.70   10.60
   0   3   9    5.50    8.10
   0   3  -9   16.00    8.50
   0   3   9   22.90   30.00
   0   3   9   11.70   11.70
   0   3  -9   19.00    8.30
   1  -3   9   67.09   13.40
   1  -3   9   81.79   17.50
   1   3   9   22.20   13.50
  -1   3  -9   43.10   10.30
   1   3   9   39.00   19.30
  -3   0  10   22.60    8.90
  -3   0  10   25.30   10.70
  -2   0  10  122.49   21.60
  -2   0  10  115.69   17.40
  -1   0  10  367.16   30.70
   0   0  10   68.69   17.90
   0   0  10   66.69   16.10
   0   0  10  119.59   30.80
   1   0  10  243.18   29.60
   1   0  10  245.98   39.00
   1   0  10  296.37   24.50
   2   0  10  -14.30    8.10
   2   0  10    0.80   14.80
  -3  -1  10  155.78   14.40
  -3  -1  10  169.68   16.70
  -3   1  10  146.89   20.90
  -3   1  10  134.39   21.50
  -2  -1  10   78.59   14.20
  -2  -1  10   90.69   18.20
  -2   1  10  114.69   18.80
  -2   1  10   91.79   20.70
  -1  -1  10    7.00   10.70
  -1  -1  10   17.50   19.30
   1   1 -10   -2.80   12.90
  -1   1  10   -7.00   30.70
   1   1 -10    9.80    9.40
  -1   1  10   25.60   16.70
   0  -1  10   28.60   12.30
   0  -1  10   36.30   15.80
   0   1 -10   23.10   14.90
   0   1  10   22.10   19.70
   0   1 -10   17.40   10.00
   0   1  10   15.90   13.60
   0   1  10   40.10   22.40
   1  -1  10   21.00    8.80
   1  -1  10   50.19   16.60
  -1   1 -10   13.00   12.50
   1   1  10  -13.40   12.60
   1   1  10   61.79   25.90
   2  -1  10  119.29   27.70
   2   1  10   33.90   19.00
   2   1  10    5.30   13.70
  -3  -2  10    7.70    7.70
  -3  -2  10    5.10    6.30
  -2  -2  10   15.00    7.40
  -2  -2  10    6.50    8.30
   2   2 -10   -2.10   12.80
  -1  -2  10  226.78   36.80
  -1  -2  10  260.17   19.40
  -1   2  10  335.37   61.29
   1   2 -10  222.48   17.60
   1   2 -10  207.18   18.80
  -1   2  10  225.58   21.90
   0  -2  10  154.08   14.70
   0   2 -10  131.39   14.00
   0   2  10  123.79   20.60
   0   2  10  168.98   27.80
   0   2 -10  111.29   15.30
   1  -2  10  139.39   12.50
  -1   2 -10   77.29   15.70
  -1  -3  10   37.90   22.10
  -1   3  10   76.49   12.30
   1   3 -10   98.29   16.50
   1   3 -10   81.29   12.40
   0  -3  10  125.99   20.40
   0  -3  10  167.88   27.00
   0   3 -10  120.59   13.90
   0   3  10  131.59   15.40
  -3   0  11   13.40    7.10
  -2   0  11   42.70   12.50
  -2   0  11    7.90   10.40
  -1   0  11  401.96   29.10
   0   0  11   -0.10    9.00
   0   0  11  -16.60   21.00
   1   0  11   63.19   12.40
   1   0  11   10.60   19.50
  -2  -1  11   43.00    9.60
  -2   1  11   86.79   15.80
  -1  -1  11   20.10    8.40
  -1   1  11   27.80   16.20
   0  -1  11  156.08   32.50
   0  -1  11  134.39   14.30
   0   1  11  135.19   20.70
   1  -1  11   46.20   21.00
   1  -1  11   20.00    6.80
   1   1  11    6.20   12.40
  -2  -2  11   49.90    9.80
  -1  -2  11    2.30    6.20
   1   2 -11    6.50   10.00
   0  -2  11    7.30   29.80
   0  -2  11   -2.50    5.90
   0   2 -11    6.20   11.10
  -1   0  12  304.37   21.40
   0   0  12   14.80    7.60
   0   0   0    0.00    0.00

_computing_structure_solution     'SHELXT 2014/5 (Sheldrick, 2014)'
;
_shelx_hkl_checksum              44203
loop_
_space_group_symop_operation_xyz
'x, y, z'
'-x, y+1/2, -z'
loop_
_atom_site_label
_atom_site_type_symbol
_atom_site_fract_x
_atom_site_fract_y
_atom_site_fract_z
_atom_site_U_iso_or_equiv
_atom_site_adp_type
_atom_site_occupancy
_atom_site_site_symmetry_order
_atom_site_calc_flag
_atom_site_refinement_flags_posn
_atom_site_refinement_flags_adp
Li1 Li 1.0453(16) 0.9427(15) 0.5882(7) 0.0241(15) Uani 1 1 d . .
O1 O 0.8069(6) 0.6784(5) 0.6656(3) 0.0277(8) Uani 1 1 d . .
H3 H 0.544(16) -0.076(14) 0.695(7) 0.06(2) Uiso 1 1 d . .
O2 O 0.8202(6) 0.2753(6) 0.5667(3) 0.0241(7) Uani 1 1 d . .
O3 O 0.4041(6) 0.0599(7) 0.7065(3) 0.0268(7) Uani 1 1 d . .
C1 C 0.7330(8) 0.4300(8) 0.6499(4) 0.0205(9) Uani 1 1 d . .
C2 C 0.5355(9) 0.3162(9) 0.7471(4) 0.0241(9) Uani 1 1 d . .
H2A H 0.3721 0.4507 0.7535 0.029 Uiso 1 1 calc R U
C3 C 0.7232(13) 0.2922(13) 0.8834(4) 0.0447(13) Uani 1 1 d . .
H3A H 0.5976 0.2300 0.9481 0.067 Uiso 1 1 calc R U
H3B H 0.8086 0.4714 0.9103 0.067 Uiso 1 1 calc R U
H3C H 0.8839 0.1600 0.8793 0.067 Uiso 1 1 calc R U
loop_
_atom_site_aniso_label
_atom_site_aniso_U_11
_atom_site_aniso_U_22
_atom_site_aniso_U_33
_atom_site_aniso_U_23
_atom_site_aniso_U_13
_atom_site_aniso_U_12
Li1 0.027(3) 0.014(3) 0.032(4) -0.001(3) 0.007(3) 0.001(3)
O1 0.0250(15) 0.0192(17) 0.0394(18) 0.0002(12) 0.0068(12) -0.0019(12)
O2 0.0257(15) 0.0181(16) 0.0293(15) 0.0014(14) 0.0061(11) 0.0024(12)
O3 0.0223(14) 0.0179(15) 0.0406(17) -0.0035(14) 0.0061(13) -0.0031(12)
C1 0.0144(17) 0.014(2) 0.032(2) 0.0017(17) -0.0006(15) 0.0014(16)
C2 0.023(2) 0.019(2) 0.031(2) -0.0031(18) 0.0069(16) -0.0020(17)
C3 0.056(3) 0.051(3) 0.028(2) -0.001(3) 0.007(2) -0.018(3)
loop_
_atom_type_symbol
_atom_type_description
_atom_type_scat_dispersion_real
_atom_type_scat_dispersion_imag
_atom_type_scat_source
C C 0.0181 0.0091 'International Tables Vol C Tables 4.2.6.8 and 6.1.1.4'
H H 0.0000 0.0000 'International Tables Vol C Tables 4.2.6.8 and 6.1.1.4'
O O 0.0492 0.0322 'International Tables Vol C Tables 4.2.6.8 and 6.1.1.4'
Li Li 0.0008 0.0003 'International Tables Vol C Tables 4.2.6.8 and 6.1.1.4'
loop_
_geom_angle_atom_site_label_1
_geom_angle_atom_site_label_2
_geom_angle_atom_site_label_3
_geom_angle
_geom_angle_site_symmetry_1
_geom_angle_site_symmetry_3
O2 Li1 O1 107.1(3) 1_565 .
O2 Li1 O2 119.1(4) 1_565 2_756
O1 Li1 O2 108.1(4) . 2_756
O2 Li1 O3 101.8(4) 1_565 1_665
O1 Li1 O3 114.1(4) . 1_665
O2 Li1 O3 106.9(3) 2_756 1_665
O2 Li1 Li1 38.96(13) 1_565 2_756
O1 Li1 Li1 138.4(5) . 2_756
O2 Li1 Li1 83.6(4) 2_756 2_756
O3 Li1 Li1 99.2(3) 1_665 2_756
C1 Li1 Li1 62.0(3) 2_756 2_756
O2 Li1 Li1 126.2(5) 1_565 2_746
O1 Li1 Li1 70.5(2) . 2_746
O2 Li1 Li1 38.1(2) 2_756 2_746
O3 Li1 Li1 129.0(4) 1_665 2_746
C1 Li1 Li1 59.6(3) 2_756 2_746
Li1 Li1 Li1 107.6(5) 2_756 2_746
C1 O1 Li1 138.4(4) . .
C1 O2 Li1 130.9(3) . 1_545
C1 O2 Li1 117.7(3) . 2_746
Li1 O2 Li1 103.0(2) 1_545 2_746
C2 O3 Li1 135.2(4) . 1_445
C2 O3 H3 113(4) . .
Li1 O3 H3 104(4) 1_445 .
O2 C1 O1 124.4(4) . .
O2 C1 C2 119.6(4) . .
O1 C1 C2 115.9(4) . .
O3 C2 C3 110.7(4) . .
O3 C2 C1 113.0(3) . .
C3 C2 C1 108.3(3) . .
O3 C2 H2A 108.2 . .
C3 C2 H2A 108.2 . .
C1 C2 H2A 108.2 . .
C2 C3 H3A 109.5 . .
C2 C3 H3B 109.5 . .
H3A C3 H3B 109.5 . .
C2 C3 H3C 109.5 . .
H3A C3 H3C 109.5 . .
H3B C3 H3C 109.5 . .
loop_
_geom_bond_atom_site_label_1
_geom_bond_atom_site_label_2
_geom_bond_distance
_geom_bond_site_symmetry_2
Li1 O2 1.915(8) 1_565
Li1 O1 1.925(8) .
Li1 O2 1.953(7) 2_756
Li1 O3 1.969(8) 1_665
Li1 Li1 3.026(9) 2_756
Li1 Li1 3.026(9) 2_746
O1 C1 1.262(5) .
O2 C1 1.243(5) .
O2 Li1 1.915(8) 1_545
O2 Li1 1.953(8) 2_746
O3 C2 1.422(6) .
O3 Li1 1.969(8) 1_445
O3 H3 0.94(7) .
C1 C2 1.533(5) .
C2 C3 1.528(7) .
C2 H2A 1.0000 .
C3 H3A 0.9800 .
C3 H3B 0.9800 .
C3 H3C 0.9800 .
loop_
_geom_hbond_atom_site_label_D
_geom_hbond_atom_site_label_H
_geom_hbond_atom_site_label_A
_geom_hbond_distance_DH
_geom_hbond_distance_HA
_geom_hbond_distance_DA
_geom_hbond_angle_DHA
_geom_hbond_site_symmetry_A
O3 H3 O1 0.94(7) 1.75(7) 2.685(4) 177(7) 1_545
loop_
_geom_torsion_atom_site_label_1
_geom_torsion_atom_site_label_2
_geom_torsion_atom_site_label_3
_geom_torsion_atom_site_label_4
_geom_torsion
_geom_torsion_site_symmetry_1
_geom_torsion_site_symmetry_4
Li1 O2 C1 O1 119.0(5) 1_545 .
Li1 O2 C1 O1 -23.2(6) 2_746 .
Li1 O2 C1 C2 -57.6(5) 1_545 .
Li1 O2 C1 C2 160.3(4) 2_746 .
Li1 O2 C1 Li1 142.1(4) 1_545 2_746
Li1 O1 C1 O2 1.5(7) . .
Li1 O1 C1 C2 178.2(4) . .
Li1 O1 C1 Li1 -12.7(6) . 2_746
Li1 O3 C2 C3 153.6(4) 1_445 .
Li1 O3 C2 C1 -84.8(5) 1_445 .
O2 C1 C2 O3 -16.9(5) . .
O1 C1 C2 O3 166.3(3) . .
O2 C1 C2 C3 106.1(5) . .
O1 C1 C2 C3 -70.7(5) . .
