#------------------------------------------------------------------------------
#$Date: 2017-11-18 08:27:06 +0200 (Sat, 18 Nov 2017) $
#$Revision: 203329 $
#$URL: file:///home/coder/svn-repositories/cod/cif/1/54/81/1548115.cif $
#------------------------------------------------------------------------------
#
# This file is available in the Crystallography Open Database (COD),
# http://www.crystallography.net/. The original data for this entry
# were provided by IUCr Journals, http://journals.iucr.org/.
#
# The file may be used within the scientific community so long as
# proper attribution is given to the journal article from which the
# data were obtained.
#
data_1548115
loop_
_publ_author_name
'Dakovi\'c, Marijana'
'Soldin, \<Zeljka'
'Kukovec, Boris-Marko'
'Kodrin, Ivan'
'Aaker\"oy, Christer B.'
'Baus, Nea'
'Rinkovec, Tamara'
_publ_section_title
;
 Building inorganic supramolecular architectures using principles adopted
 from the organic solid state
;
_journal_issue                   1
_journal_name_full               IUCrJ
_journal_page_first
;
;
_journal_paper_doi               10.1107/S2052252517015494
_journal_volume                  5
_journal_year                    2018
_chemical_formula_sum            'C8 H8 Br2 Cd N4 O2'
_chemical_formula_weight         464.40
_space_group_crystal_system      monoclinic
_space_group_IT_number           14
_space_group_name_Hall           '-P 2yn'
_space_group_name_H-M_alt        'P 1 21/n 1'
_symmetry_space_group_name_Hall  '-P 2yn'
_symmetry_space_group_name_H-M   'P 1 21/n 1'
_atom_sites_solution_hydrogens   mixed
_audit_creation_method           SHELXL-2014/7
_cell_angle_alpha                90
_cell_angle_beta                 93.712(9)
_cell_angle_gamma                90
_cell_formula_units_Z            2
_cell_length_a                   3.8840(3)
_cell_length_b                   23.164(2)
_cell_length_c                   7.0359(8)
_cell_measurement_reflns_used    624
_cell_measurement_temperature    296(2)
_cell_measurement_theta_max      26.7580
_cell_measurement_theta_min      5.2550
_cell_volume                     631.68(10)
_computing_structure_refinement  'SHELXL-2014/7 (Sheldrick, 2014)'
_diffrn_ambient_temperature      296(2)
_diffrn_measured_fraction_theta_full 0.996
_diffrn_measured_fraction_theta_max 0.996
_diffrn_measurement_device_type
'Oxford Diffraction Xcalibur2 diffractometer with Sapphire 3 CCD detector'
_diffrn_measurement_method       \w-scan
_diffrn_radiation_type           MoK\a
_diffrn_radiation_wavelength     0.71073
_diffrn_reflns_av_R_equivalents  0.0284
_diffrn_reflns_av_unetI/netI     0.0500
_diffrn_reflns_Laue_measured_fraction_full 0.996
_diffrn_reflns_Laue_measured_fraction_max 0.996
_diffrn_reflns_limit_h_max       4
_diffrn_reflns_limit_h_min       -4
_diffrn_reflns_limit_k_max       27
_diffrn_reflns_limit_k_min       -14
_diffrn_reflns_limit_l_max       7
_diffrn_reflns_limit_l_min       -8
_diffrn_reflns_number            1940
_diffrn_reflns_point_group_measured_fraction_full 0.996
_diffrn_reflns_point_group_measured_fraction_max 0.996
_diffrn_reflns_theta_full        24.991
_diffrn_reflns_theta_max         24.991
_diffrn_reflns_theta_min         4.562
_exptl_absorpt_coefficient_mu    8.049
_exptl_absorpt_correction_T_max  1.00000
_exptl_absorpt_correction_T_min  0.32097
_exptl_absorpt_correction_type   multi-scan
_exptl_absorpt_process_details
;
CrysAlisPro, Agilent Technologies,
Version 1.171.37.35 (release 13-08-2014 CrysAlis171 .NET)
(compiled Aug 13 2014,18:06:01)
Empirical absorption correction using spherical harmonics,
 implemented in SCALE3 ABSPACK scaling algorithm.
;
_exptl_crystal_colour            colourless
_exptl_crystal_density_diffrn    2.442
_exptl_crystal_description       prism
_exptl_crystal_F_000             436
_exptl_crystal_size_max          0.80
_exptl_crystal_size_mid          0.10
_exptl_crystal_size_min          0.06
_refine_diff_density_max         1.667
_refine_diff_density_min         -0.793
_refine_diff_density_rms         0.170
_refine_ls_extinction_method     none
_refine_ls_goodness_of_fit_ref   1.147
_refine_ls_hydrogen_treatment    mixed
_refine_ls_matrix_type           full
_refine_ls_number_parameters     82
_refine_ls_number_reflns         1108
_refine_ls_number_restraints     1
_refine_ls_restrained_S_all      1.147
_refine_ls_R_factor_all          0.0550
_refine_ls_R_factor_gt           0.0445
_refine_ls_shift/su_max          0.000
_refine_ls_shift/su_mean         0.000
_refine_ls_structure_factor_coef Fsqd
_refine_ls_weighting_details
'w=1/[\s^2^(Fo^2^)+(0.0454P)^2^+0.0985P] where P=(Fo^2^+2Fc^2^)/3'
_refine_ls_weighting_scheme      calc
_refine_ls_wR_factor_gt          0.0962
_refine_ls_wR_factor_ref         0.1012
_reflns_Friedel_coverage         0.000
_reflns_number_gt                944
_reflns_number_total             1108
_reflns_threshold_expression     'I > 2\s(I)'
_cod_data_source_file            lq5009.cif
_cod_data_source_block           5
_cod_original_cell_volume        631.67(10)
_cod_database_code               1548115
_shelx_shelxl_version_number     2014/7
_shelx_space_group_comment
;
The symmetry employed for this shelxl refinement is uniquely defined
by the following loop, which should always be used as a source of
symmetry information in preference to the above space-group names.
They are only intended as comments.
;
_shelx_res_file
;

    shelxl.res created by SHELXL-2014/7


TITL exp_505 in P2(1)/n
CELL  0.71073   3.8840  23.1636   7.0359   90.000   93.712   90.000
ZERR     2   0.0003   0.0021   0.0008    0.000    0.009    0.000
LATT   1
SYMM  1/2 - X, 1/2 + Y, 1/2 - Z
SFAC  C    H    N    O    BR   CD
UNIT  16 16 8 4 4 2
MERG   2
OMIT    -1.00  50.00
FMAP   2
PLAN   20
BOND $H
HTAB
HTAB C1 Br1
EQIV $1 x+1/2, -y+1/2, z-1/2
HTAB N2 O1_$1
DFIX 0.86 N2 H21
CONF
ACTA
TEMP 23
L.S.   10
WGHT    0.045400    0.098500
FVAR       5.76675
CD1   6    0.500000    0.000000    0.500000    10.50000    0.03027    0.02212 =
         0.02961   -0.00101    0.00781   -0.00126
BR1   5    0.971666    0.042102    0.259911    11.00000    0.03339    0.03390 =
         0.02948    0.00459    0.00762   -0.00015
N1    3    0.514463    0.090867    0.665340    11.00000    0.04295    0.02139 =
         0.02491   -0.00566    0.00890   -0.00347
N2    3    0.593574    0.190076    0.654918    11.00000    0.05970    0.02395 =
         0.03685    0.00181    0.01897   -0.00328
H21   2    0.660024    0.216676    0.582061    11.00000   -1.20000
O1    4    0.449084    0.252009    0.888318    11.00000    0.11039    0.03143 =
         0.04944   -0.01983    0.03256    0.00121

C1    1    0.607197    0.137550    0.580658    11.00000    0.04301    0.02165 =
         0.03283   -0.00072    0.01104    0.00423
AFIX  43
H1    2    0.688685    0.133964    0.459808    11.00000   -1.20000
AFIX   0
C2    1    0.465867    0.201424    0.831075    11.00000    0.05185    0.03515 =
         0.03188   -0.00161    0.01467    0.00338
C3    1    0.367304    0.149978    0.925023    11.00000    0.04911    0.03143 =
         0.03096   -0.00127    0.01712   -0.00534
AFIX  43
H3    2    0.281678    0.152358    1.045191    11.00000   -1.20000
AFIX   0
C4    1    0.396383    0.098783    0.842950    11.00000    0.05040    0.03423 =
         0.02199    0.00249    0.00775   -0.00666
AFIX  43
H4    2    0.332794    0.066294    0.909989    11.00000   -1.20000

AFIX   0
HKLF 4

REM  exp_505 in P2(1)/n
REM R1 =  0.0445 for     944 Fo > 4sig(Fo)  and  0.0550 for all    1108 data
REM     82 parameters refined using      1 restraints

END

WGHT      0.0453      0.1126

REM Instructions for potential hydrogen bonds
HTAB N2 O1_$1
HTAB C1 Br1
EQIV $2 x-1, y, z+1
HTAB C4 Br1_$2
EQIV $3 -x+1, -y, -z+1
HTAB C4 Br1_$3

REM Highest difference peak  1.667,  deepest hole -0.793,  1-sigma level  0.170
Q1    1   0.2493  0.0000  0.5134  11.00000  0.05    1.67
Q2    1   0.0000  0.0000  0.5000  10.50000  0.05    1.42
Q3    1   0.7226  0.0425  0.2668  11.00000  0.05    1.36
Q4    1   1.2373  0.0406  0.2394  11.00000  0.05    1.24
Q5    1   1.4687  0.0424  0.2585  11.00000  0.05    1.13
Q6    1   0.4399  0.0823  1.0195  11.00000  0.05    0.56
Q7    1   0.3956  0.2513  0.7897  11.00000  0.05    0.44
Q8    1   0.8737  0.0464  0.3937  11.00000  0.05    0.42
Q9    1   0.9399  0.1340  0.4414  11.00000  0.05    0.41
Q10   1   0.4720 -0.0016  0.7205  11.00000  0.05    0.39
Q11   1   0.9238  0.2411  0.8661  11.00000  0.05    0.38
Q12   1   0.1951  0.0872  1.0258  11.00000  0.05    0.36
Q13   1   0.8381  0.1547  0.9112  11.00000  0.05    0.36
Q14   1   0.1650  0.0437  0.7462  11.00000  0.05    0.36
Q15   1   0.5227  0.1381  1.0919  11.00000  0.05    0.35
Q16   1   0.1414  0.1262  0.5675  11.00000  0.05    0.35
Q17   1   0.7272  0.0755  0.1093  11.00000  0.05    0.34
Q18   1  -0.0885  0.1022  0.9202  11.00000  0.05    0.34
Q19   1   0.1050  0.0734  0.6345  11.00000  0.05    0.34
Q20   1   0.8481  0.2457  0.9021  11.00000  0.05    0.33
;
_shelx_res_checksum              52093
_shelx_hkl_file
;
   0   0  -2 53214.9 2242.83   1
   0   0   2 52423.9 2467.75   2
   0   0  -2 54925.6 2651.16   2
   0   0  -3 149.555 433.642   2
   0   0  -3-128.660 619.935   1
   0   0  -4 295611. 8599.71   1
   0   0  -5 469.693 1080.27   1
   0   0  -6 2509.00 1271.54   1
   0   0  -7-1585.76 1050.61   1
   0   0  -8 63054.0 4582.38   3
   0   0  -8 73545.9 5422.74   1
   0   0  -9-1979.11 920.549   3
   0  -1  -2 17005.4 1269.60   1
   0   1  -2 20396.9 1523.06   2
   0   1   2 19924.6 1529.09   2
   0  -1  -2 17819.8 1539.23   2
   0   1   3 65220.5 3344.23   2
   0  -1  -3 71254.7 3183.56   1
   0   1  -3 67561.4 3113.15   1
   0  -1  -4 1292.49 849.295   1
   0   1  -4-160.108 717.189   1
   0   1  -5 158900. 6421.00   1
   0  -1  -5 155988. 6361.17   1
   0  -1  -6 3352.13 1595.81   1
   0   1  -6 1114.48 1047.89   1
   0   1  -7 4797.18 1316.36   3
   0  -1  -7 5809.52 1851.81   1
   0   1  -7 4051.57 1572.03   1
   0  -1  -8 530.868 898.725   3
   0   1  -8 2066.16 1142.63   3
   0  -1  -9 16424.4 2516.16   3
   0  -2  -2 18132.9 1367.55   1
   0   2   2 17515.4 1492.94   2
   0   2   2 16063.8 1257.27   1
   0  -2  -2 18769.6 1581.93   2
   0   2  -2 18801.5 1239.56   3
   0  -2  -3 205638. 6136.81   1
   0   2   3 199114. 6602.53   2
   0   2  -3 213356. 7015.01   2
   0  -2  -4 685245. 16102.5   1
   0   2  -4 730518. 16257.4   1
   0   2   4 695632. 16796.8   2
   0   2  -5 77946.0 4275.35   1
   0   2  -5 74311.0 4078.34   3
   0  -2  -5 69614.7 4173.70   1
   0   2  -6 846.129 987.395   1
   0   2  -6 1218.64 833.914   3
   0  -2  -6 3710.69 1513.01   1
   0   2  -7 21693.0 2556.85   3
   0   2  -7 24208.9 2898.47   1
   0   2  -8 66856.4 4660.39   3
   0   2  -8 76325.0 5527.03   1
   0  -2  -9 5115.21 1460.44   3
   0   3  -2 8665.53 874.825   3
   0  -3  -2 11310.2 1259.78   2
   0   3   2 8487.86 1000.69   1
   0   3   2 9907.19 1140.81   2
   0   3   3 132109. 5121.78   2
   0  -3  -3 133713. 4657.65   1
   0   3  -3 132733. 4390.30   3
   0   3  -3 135062. 5193.02   2
   0  -3  -4 8915.58 1605.26   1
   0   3   4 7444.43 1454.22   2
   0   3  -4 6707.50 1143.19   3
   0   3  -5 127588. 5431.64   3
   0   3  -5 131470. 5717.92   1
   0  -3  -5 121046. 5568.05   1
   0   3  -6 9764.13 1665.32   3
   0   3  -6 9138.82 1808.68   1
   0   3  -7 7226.99 1623.91   3
   0   3  -7 5863.63 1708.22   1
   0   3  -8 3983.80 1322.64   3
   0   3  -8 4461.81 1872.26   1
   0  -3  -9 13895.0 2403.90   3
   0   3  -9 25407.4 3634.66   1
   0  -4  -1 520508. 10458.5   2
   0  -4   1 508306. 9523.57   3
   0   4   1 510295. 10380.0   2
   0   4   2 9040.95 1026.89   1
   0  -4  -2 10883.3 1250.63   2
   0   4  -2 9857.24 904.064   3
   0   4   2 9950.66 1148.08   2
   0  -4   2 11084.9 881.776   3
   0   4  -3 179208. 5228.51   3
   0   4   3 163751. 6017.97   2
   0   4  -4 314195. 8615.49   3
   0   4   4 317613. 9738.14   2
   0   4  -5 113860. 4977.70   3
   0   4   5 107763. 5696.79   2
   0   4  -6 6951.86 1450.20   1
   0   4  -6 2826.36 1139.22   3
   0   4  -7 39362.8 3661.27   1
   0   4  -7 33387.7 3060.39   3
   0   4  -8 62588.0 4960.76   1
   0   4  -8 49774.8 4005.32   3
   0   4  -9 10674.6 2602.24   1
   0  -5   0 197.318 227.838   3
   0   5   0 293.888 231.374   2
   0  -5  -1 249929. 6275.28   2
   0   5  -1 259305. 5636.98   3
   0  -5   1 256119. 5607.89   3
   0   5   1 257676. 6332.93   2
   0   5   2 51202.3 2701.21   2
   0   5  -2 48791.0 2008.47   3
   0  -5   2 50392.7 2009.88   3
   0  -5  -2 48957.8 2727.86   2
   0   5   3 125468. 5129.76   2
   0   5  -3 130477. 4233.23   3
   0   5   4 7185.69 1403.38   2
   0   5  -4 7045.12 1130.45   3
   0   5  -5 62163.4 3591.52   3
   0   5   5 59612.2 4247.57   2
   0   5  -6 5152.41 1355.23   1
   0   5  -6 3271.40 997.810   3
   0   5  -7 30777.4 3288.40   1
   0   5  -7 26225.7 2737.54   3
   0   5  -8 6380.11 1796.10   1
   0   5  -8 7306.68 1564.67   3
   0   5  -9 12292.1 2633.79   1
   0   6   0 120198. 3357.68   2
   0  -6   0 128234. 3450.09   3
   0   6  -1 442151. 9060.67   3
   0  -6   1 452048. 9129.46   3
   0   6   1 426569. 9804.39   2
   0  -6  -1 427730. 9779.24   2
   0   6  -2 292415. 6764.06   3
   0  -6   2 286007. 6653.97   3
   0   6   2 287421. 7982.76   2
   0   6   3 184020. 6674.42   2
   0   6  -3 199206. 5551.83   3
   0   6  -4 144059. 5062.14   3
   0   6   4 131930. 6011.43   2
   0   6  -5 164554. 5992.41   3
   0   6   5 141191. 6849.25   2
   0   6  -6 21730.8 2303.45   3
   0   6  -7 47095.7 3592.68   3
   0   6  -7 60560.1 4476.84   1
   0   6  -8 9011.42 2163.15   1
   0   6  -8 9211.08 1741.67   3
   0  -7   0 43.8265 230.095   3
   0   7   0 467.786 326.782   2
   0   7   1 185916. 5317.85   2
   0  -7  -1 182397. 5275.59   2
   0  -7   1 187418. 4692.11   3
   0   7  -1 183839. 4675.91   3
   0   7  -2 3768.70 684.625   3
   0   7   2 3358.52 839.098   2
   0  -7   2 3554.17 551.088   3
   0   7   3 168276. 6310.42   2
   0  -7   3 171474. 5020.32   3
   0   7  -3 173527. 5039.78   3
   0   7   4 7707.57 1537.85   2
   0   7  -4 7716.29 1129.10   3
   0   7   5 38802.4 3444.67   2
   0   7  -5 37278.6 2694.21   3
   0   7  -6 21065.0 2236.58   3
   0   7   6 20315.2 2713.28   2
   0   7  -7 32571.1 3008.85   3
   0   7  -7 29502.1 3228.39   1
   0   7  -8 6116.23 1696.01   1
   0   8   0 35823.4 1805.68   2
   0  -8   0 37650.2 1816.01   3
   0   8   1 482292. 10981.7   2
   0  -8  -1 478404. 10893.8   2
   0   8  -1 476167. 10174.5   3
   0  -8   1 489033. 10179.3   3
   0   8   2 662543. 15337.8   2
   0   8  -2 681966. 13794.8   3
   0  -8   2 665106. 13655.2   3
   0   8   3 222892. 7561.22   2
   0   8  -3 221547. 6153.53   3
   0   8   4 6355.15 1487.71   2
   0   8  -4 4169.93 865.495   3
   0   8   5 31660.7 3191.42   2
   0   8  -5 27798.4 2298.37   3
   0   8  -6 51591.1 3439.70   3
   0   8   6 56682.7 4598.32   2
   0   8  -7 15957.6 2379.16   1
   0   8  -7 10901.4 1698.83   3
   0   8  -8 2335.06 1427.36   1
   0  -9   0 443.861 258.811   3
   0   9   0 171.177 316.989   2
   0   9   1 197119. 5899.83   2
   0  -9   1 194842. 5200.42   3
   0   9  -1 195628. 5189.80   3
   0   9  -2 36327.9 1944.84   3
   0  -9   2 32526.7 1774.74   3
   0   9   2 34265.5 2422.52   2
   0   9   3 204164. 7440.73   2
   0   9  -3 223603. 6328.14   3
   0   9   4 3011.86 1248.91   2
   0   9  -4 3336.35 765.251   3
   0   9  -5 12293.7 1547.38   3
   0   9   5 12558.1 2084.71   2
   0   9  -6 2593.85 1038.49   3
   0   9   6 3093.81 1435.97   2
   0   9  -7 30282.5 2784.25   3
   0   9  -8-1978.52 1424.19   1
   0  10   0 2381.42 592.046   2
   0  10   1 118557. 4390.25   2
   0  10  -1 117367. 3876.89   3
   0 -10   1 116970. 3834.73   3
   0  10  -2 388909. 9081.46   3
   0  10   2 368124. 10257.1   2
   0  10   3 51216.8 3452.53   2
   0  10  -3 50393.9 2582.72   3
   0  10  -4 5931.87 1069.27   3
   0  10   4 7538.09 1603.70   2
   0  10  -5 7674.83 1243.10   3
   0  10   5 6010.50 1704.66   2
   0  10   6 290331. 11162.8   2
   0  10  -6 263160. 8677.28   3
   0  10  -7 5759.00 1354.64   3
   0  10  -8-913.494 1012.53   1
   0  11   0 234.266 411.072   2
   0  11   1 124685. 4732.71   2
   0  11  -1 132477. 4323.30   3
   0  11   2 9592.09 1452.51   2
   0  11  -2 7838.50 1025.69   3
   0  11   3 116309. 5500.63   2
   0  11  -3 113933. 4237.24   3
   0  11   4 4039.89 1277.76   2
   0  11  -4 6116.81 1180.49   3
   0  11  -5 21088.7 2015.88   3
   0  11   5 22772.3 2910.42   2
   0  11   6 1752.83 1424.16   2
   0  11  -6 2062.23 852.920   3
   0  11  -7 49482.1 3607.68   3
   0  11   7 51711.6 4828.42   2
   0  11  -8-1794.83 1221.70   1
   0  12   0 1291.95 654.551   2
   0  12   1 20991.4 1873.61   2
   0  12  -1 20082.1 1611.85   3
   0  12  -1 18307.1 1560.68   2
   0  12   2 581660. 14562.1   2
   0  12  -2 593881. 13079.4   3
   0  12  -3 3886.73 939.198   3
   0  12   3 4826.04 1077.06   2
   0  12   4 18499.9 2481.95   2
   0  12  -4 19886.7 1860.71   3
   0  12  -5 16128.2 1868.24   3
   0  12   5 12732.8 2283.23   2
   0  12   6 162490. 8315.11   2
   0  12  -6 159337. 6498.33   3
   0  12   7 2617.98 1622.49   2
   0  12  -8 480.799 1286.46   1
   0  13   0 375.281 559.280   2
   0  13   1 76375.0 3801.74   2
   0  13  -1 81509.5 3429.72   3
   0  13  -1 73899.0 3377.76   2
   0  13   2 2406.17 1186.23   2
   0  13  -2 1480.70 709.353   3
   0  13  -3 111221. 4376.32   3
   0  13   3 94796.1 5258.48   2
   0  13   4 13461.5 2113.76   2
   0  13  -4 13111.9 1543.28   3
   0  13   5 20851.2 2781.13   2
   0  13  -5 17742.1 1860.60   3
   0  13   6 2301.88 1287.44   2
   0  13  -6 4570.80 1189.47   3
   0  13   7 48478.7 4807.00   2
   0  14   0 5604.77 1006.91   2
   0  14   1 45741.1 2974.19   2
   0  14  -1 41397.9 2502.70   2
   0  14  -2 488568. 11699.8   3
   0  14   2 480797. 13062.5   2
   0  14  -3 35933.4 2405.17   3
   0  14   3 35238.9 3130.97   2
   0  14  -4 1347.14 843.137   3
   0  14   4 903.485 960.583   2
   0  14   5 14392.5 2401.55   2
   0  14  -5 17714.6 1939.06   3
   0  14   6 87746.5 6116.57   2
   0  14  -6 79498.3 4469.28   3
   0  14   7 5952.11 1819.22   2
   0  15   0 455.709 635.787   2
   0  15   1 111702. 4989.49   2
   0  15  -1 97214.3 4147.36   2
   0  15   2 7830.08 1611.88   2
   0  15  -2 5928.45 1170.28   3
   0  15  -3 94695.5 4166.09   3
   0  15   3 93735.9 5300.04   2
   0  15  -4 4331.73 1013.68   3
   0  15   4 6819.36 1745.56   2
   0  15  -5 13753.4 1740.93   3
   0  15   5 14166.4 2493.10   2
   0  15   6 3299.07 1444.96   2
   0  15  -6 2464.11 968.860   3
   0  15   7 18368.4 2994.67   2
   0  16   0 19108.0 1918.94   2
   0  16   1 177241. 6737.13   2
   0  16  -1 170472. 5971.79   2
   0  16  -2 195919. 6508.99   3
   0  16   2 201362. 7689.15   2
   0  16  -2 188897. 6314.83   2
   0  16   3 55920.0 4113.04   2
   0  16  -3 55815.3 3227.66   3
   0  16  -4 3411.83 907.330   3
   0  16   4 1657.89 1030.50   2
   0  16   5 38010.4 3885.67   2
   0  16  -5 34203.2 2832.75   3
   0  16   6 42470.4 4378.03   2
   0  16   7 12085.4 2575.17   2
   0  17   0 143.427 564.528   2
   0  17  -1 83592.4 4068.49   2
   0  17   1 85797.9 4635.98   2
   0  17   2 4289.31 1340.70   2
   0  17  -2 4122.16 1066.74   3
   0  17  -2 4263.43 989.097   2
   0  17   3 42860.4 3695.96   2
   0  17  -3 45377.0 2978.25   3
   0  17   4 6082.71 1662.80   2
   0  17  -4 5335.73 1132.80   3
   0  17   5 30494.4 3533.67   2
   0  17  -5 28611.9 2590.58   3
   0  17   6 4646.15 1590.41   2
   0  17   7 11207.4 2495.65   2
   0  18   0 8119.41 1405.38   2
   0  18  -1 60749.9 3537.94   2
   0  18   1 64673.6 4122.11   2
   0  18  -2 50072.5 3095.18   2
   0  18   2 54045.4 3911.63   2
   0  18   3 87445.1 5480.02   2
   0  18  -3 85465.1 4325.30   3
   0  18  -4 66140.2 3840.50   3
   0  18   4 63653.0 4894.18   2
   0  18  -5 49031.3 3446.14   3
   0  18   5 52500.9 4681.38   2
   0  18   6 14277.1 2689.51   2
   0  19   0 3464.62 1157.68   2
   0  19  -1 28861.5 2569.05   2
   0  19   1 28166.8 2857.54   2
   0  19  -2 2322.06 813.910   2
   0  19   2 2056.65 1093.98   2
   0  19  -3 47396.1 3316.97   3
   0  19  -3 46813.4 3119.45   2
   0  19   3 53028.6 4345.23   2
   0  19   4 1468.33 1026.56   2
   0  19  -4 1047.78 610.769   3
   0  19  -5 34753.6 2930.54   3
   0  19   5 38373.8 4130.51   2
   0  19   6 358.159 969.199   2
   0  20   0 274571. 9344.53   2
   0  20  -1 31891.7 2724.49   2
   0  20   1 32945.4 3135.64   2
   0  20  -2 1651.25 880.116   2
   0  20   2 3590.04 1224.11   2
   0  20   3 51798.8 4398.27   2
   0  20  -3 46966.0 3208.51   2
   0  20  -3 55469.1 3584.14   3
   0  20  -4 45200.2 3387.20   3
   0  20   4 41747.9 4187.98   2
   0  20   5 27938.5 3654.19   2
   0  20   6 1562.23 1282.32   2
   0  21   0 7808.35 1667.71   2
   0  21   1 64075.0 4409.64   2
   0  21  -1 63831.1 4040.76   2
   0  21  -2 8126.92 1421.38   2
   0  21   2 9276.19 1936.43   2
   0  21  -3 8123.15 1402.46   2
   0  21   3 10344.1 2006.94   2
   0  21   4 614.020 969.642   2
   0  21  -4 2419.69 1093.96   3
   0  21   5 36882.8 4197.04   2
   0  21   6 2482.40 1645.62   2
   0  22   0 189844. 7976.00   2
   0  22  -1 25763.0 2677.57   2
   0  22   1 26798.8 3047.44   2
   0  22   2 179.466 984.091   2
   0  22  -2 1668.79 800.273   2
   0  22   3 5271.85 1645.93   2
   0  22   4 95478.3 6541.92   2
   0  22  -4 90595.3 5101.99   3
   0  22   5 5037.67 1839.91   2
   0  23   0 7741.75 1797.68   2
   0  23  -1 54593.4 4006.09   2
   0  23   1 55041.6 4348.04   2
   0  23  -2 1730.60 793.428   2
   0  23   2 2690.89 1250.08   2
   0  23   3 10932.3 2198.14   2
   0  23   4 1368.63 1149.90   2
   0  23   5 27155.3 3763.53   2
   0  24   0 144509. 7327.34   2
   0  24  -1 3679.54 1276.00   2
   0  24   1 1408.98 1062.66   2
   0  24  -2 2591.25 1018.46   2
   0  24   2 2500.61 1178.72   2
   0  24   3-263.192 884.646   2
   0  24   4 79697.8 6228.48   2
   0  24   5-1902.39 1512.32   2
   0  25   0 2035.45 1195.68   2
   0  25   1 21548.0 2891.40   2
   0  25  -1 26103.3 2905.18   2
   0  25   2 450.339 834.828   2
   0  25   3 11833.2 2374.04   2
   0  25   4 869.614 1323.57   2
   0  26   0 72572.2 5277.79   2
   0  26  -1 6206.49 1590.33   2
   0  26   1 11513.9 2256.73   2
   0  26   2-423.711 1317.84   2
   0  26   3 5856.67 1790.48   2
   0  26   4 50428.9 5138.90   2
   0  27   0 2405.24 1309.38   2
   0  27   1 18766.6 3005.63   2
   0  27  -1 16625.7 2571.51   2
   0  27   2-752.362 884.055   2
   0  27   3 8121.80 2093.00   2
   0  28   0 31976.2 3681.59   2
   0  28   1 18129.3 3026.88   2
   0  28   2 10978.4 2418.75   2
   0  28   3 8529.85 2249.64   2
   0  29   0 823.580 1008.95   2
   0  29   1 14204.5 2670.39   2
   0  29   2 2465.45 1273.61   2
   0  29   3 21829.5 3432.41   2
   0  30   1 20202.3 3241.67   2
   0  30   2 14183.8 2865.66   2
   0  31   1 13108.7 2705.50   2
   1   0  -9-673.059 1631.98   1
   1   0  -8 670.146 1465.23   1
   1   0  -7 96872.9 6144.21   1
   1   0  -6-1000.30 1414.54   1
   1   0  -5 14991.1 2195.24   1
  -1   0   5 12568.4 1663.16   2
  -1   0   4 20.8754 441.949   2
   1   0  -4-560.898 994.085   1
  -1   0   3 281785. 7286.93   2
   1   0  -3 286662. 7396.85   2
  -1   0   2 362.584 373.631   2
   1   0  -2 272.921 240.823   3
  -1   0   1 41224.1 1382.48   3
   1   0  -1 37935.3 1399.11   3
   1   0   0 253.557 270.942   3
  -1   0   0 1825.72 397.595   3
  -1   0  -1 244596. 6165.15   3
  -1   0  -2 573.868 655.877   3
   1   0   2 207.294 222.310   1
  -1   0  -3 125996. 5145.54   3
  -1   0  -4 785.084 976.760   3
  -1   0  -5 36758.1 3300.57   3
  -1   0  -6 1412.41 1491.58   3
  -1   0  -7 34190.9 3653.13   3
  -1   0  -8-102.969 916.083   3
  -1   0  -9 573.482 1188.10   3
   1   1  -9 6205.33 2045.58   1
   1  -1  -9 3538.17 1892.48   1
   1  -1  -8 4329.30 1846.87   1
   1   1  -8 889.830 1408.88   1
   1  -1  -7 4487.70 2041.05   1
   1   1  -7-1764.99 1755.31   1
   1   1  -6 240455. 9313.71   1
  -1   1   6 238980. 8855.01   2
   1  -1  -6 243253. 9468.34   1
   1   1  -5-257.447 1065.59   1
  -1   1   5 1535.72 852.130   2
  -1  -1   5 1189.78 669.628   2
   1  -1  -5 51.3219 1156.24   1
  -1   1   4 26991.2 2122.90   2
   1  -1  -4 25907.2 2433.68   1
  -1  -1   4 28431.3 2082.63   2
   1  -1  -3 14458.8 1753.80   1
  -1  -1   3 16780.6 1328.92   2
   1   1  -3 17169.8 1333.62   2
  -1   1   3 14764.3 1317.81   2
   1  -1  -3 16521.8 1437.37   2
   1   1  -2 976533. 17911.6   3
   1  -1  -2 985992. 20020.3   1
   1  -1  -2 974144. 18513.3   3
  -1  -1   2 999999. 18476.9   2
  -1   1   2 990330. 18982.4   2
  -1   1   1 101557. 2678.03   3
   1  -1  -1 104870. 2767.50   3
   1   1  -1 101718. 2427.95   3
   1  -1   0 32077.1 1491.27   3
  -1  -1   0 32640.1 1409.76   3
   1   1   0 30521.8 1453.39   3
  -1   1   0 30547.7 1404.02   3
  -1  -1  -1 511106. 11184.6   3
  -1   1  -1 518148. 11133.7   3
   1  -1   1 536407. 11313.1   3
  -1   1  -2 603354. 13265.5   3
   1   1   2 589021. 11458.4   1
   1   1   3 3085.46 516.647   1
  -1   1  -3 2263.02 918.632   3
  -1   1  -4 32197.0 2822.76   3
  -1   1  -5 1440.72 1067.32   3
  -1   1  -6 221687. 9059.24   3
  -1  -1  -6 217294. 9173.40   3
  -1   1  -7 2084.74 1506.30   3
  -1  -1  -7 3493.71 1573.50   3
  -1   1  -8 5578.37 1662.78   3
  -1  -1  -8 5241.00 1553.76   3
  -1  -1  -9 530.167 1048.90   3
  -1   1  -9-1820.64 1385.51   3
   1   2  -9 2571.39 1879.15   1
   1   2  -8 4288.50 1666.95   1
   1  -2  -8 6372.04 2283.61   1
   1  -2  -7 69263.5 5211.17   1
   1   2  -7 76559.6 5342.79   1
   1   2  -7 62495.3 3725.82   3
  -1   2   6 5660.24 1351.82   2
   1  -2  -6 8693.45 1913.91   1
   1   2  -6 3867.90 1436.75   1
  -1   2   5 9122.63 1542.78   2
   1  -2  -5 7552.07 1682.38   1
   1   2  -5 6491.67 1608.65   1
   1  -2  -4 12334.1 1754.67   1
  -1  -2   4 13277.6 1387.60   2
   1   2  -4 14117.1 1576.78   2
  -1   2   4 17209.9 1752.01   2
  -1  -2   3 228207. 5886.29   2
   1  -2  -3 231826. 6734.81   2
   1  -2  -3 218759. 7081.21   1
   1   2  -3 229485. 5845.53   2
  -1   2   3 214922. 6252.93   2
   1  -2  -2 23134.3 1314.89   3
  -1  -2   2 22970.9 1075.86   2
   1  -2  -2 22292.8 1675.04   1
  -1   2   2 22972.7 1438.08   2
   1   2  -2 20120.2 754.216   3
   1   2  -1 162605. 2750.74   3
  -1   2   1 166864. 3440.85   3
   1  -2  -1 165914. 3979.88   1
   1  -2  -1 164591. 3507.74   3
  -1  -2   0 1358.77 389.340   3
   1  -2   0 1763.46 428.109   1
   1  -2   0 1392.62 365.342   3
  -1   2   0 1266.58 396.417   3
  -1   2  -1 366743. 8447.21   3
   1  -2   1 369702. 8548.02   3
  -1   2  -2 1820.63 331.544   1
  -1   2  -2 2472.40 826.314   3
  -1   2  -3 77068.6 3804.80   3
   1   2   3 79592.0 2901.21   1
  -1   2  -3 77136.4 2750.60   1
  -1   2  -4 1975.80 785.458   1
  -1   2  -4-292.823 830.421   3
  -1   2  -5 26033.6 2730.43   3
  -1   2  -5 25157.4 2245.00   1
  -1   2  -6 12.6706 1173.81   3
  -1  -2  -7 26293.5 3243.53   3
  -1   2  -7 33659.1 3565.29   3
  -1  -2  -8 745.957 1014.00   3
  -1   2  -8 2483.83 1369.00   3
  -1  -2  -9 3144.40 1467.70   3
  -1   2  -9-630.401 1072.27   3
   1   3  -9 7883.20 2300.06   1
   1  -3  -8 1065.47 1580.76   1
   1   3  -8 2462.81 1557.22   1
   1  -3  -7 13150.8 2506.65   1
   1   3  -7 7881.70 1943.90   1
   1  -3  -6 141611. 7000.89   1
  -1   3   6 135354. 6607.77   2
   1   3  -6 149916. 7022.90   1
   1   3  -6 135727. 5246.28   3
   1  -3  -5 50071.8 3767.43   1
  -1   3   5 43634.4 3320.81   2
   1   3  -4 9019.74 1279.80   2
   1  -3  -4 8959.39 1588.58   1
  -1   3   4 8892.33 1377.12   2
  -1   3   3 141213. 4828.54   2
  -1  -3   3 140426. 4089.39   2
   1  -3  -3 136876. 5322.45   1
   1   3  -3 147771. 4097.46   2
   1  -3  -2 411726. 9205.91   3
   1  -3  -2 438010. 10219.1   1
  -1  -3   2 425555. 8254.57   2
  -1   3   2 419410. 9536.47   2
  -1   3   1 171129. 4939.96   1
  -1   3   1 175066. 4421.82   3
   1  -3  -1 179699. 4826.46   1
   1  -3  -1 178792. 4556.36   3
  -1   3   0 107295. 3306.94   3
  -1   3   0 101919. 2827.78   1
   1  -3   0 99474.9 3122.66   3
   1  -3   1 253257. 6478.53   3
  -1   3  -1 252000. 6387.40   3
  -1   3  -2 752962. 13973.3   1
  -1   3  -2 765346. 16130.6   3
  -1   3  -3 119866. 3550.82   1
   1   3   3 112388. 3771.32   1
  -1   3  -3 121562. 4834.76   3
  -1   3  -4 4930.99 966.542   1
  -1   3  -4 4263.26 1128.73   3
  -1   3  -5 44677.6 2814.11   1
  -1   3  -5 39617.5 3322.13   3
  -1   3  -6 110810. 6129.43   3
  -1   3  -6 123217. 5511.93   1
  -1   3  -7 13175.3 2406.27   3
  -1  -3  -8-696.420 1033.51   3
  -1   3  -8 392.493 1006.27   3
  -1   3  -9 1737.12 1109.42   3
   1   4  -9 4014.56 2071.93   1
   1   4  -8 7941.38 1988.33   1
   1  -4  -7 59424.4 4782.82   1
  -1   4   7 52662.1 4397.71   2
   1   4  -7 57564.5 4519.21   1
   1  -4  -6 34820.2 3505.32   1
   1   4  -6 30223.5 2283.77   3
   1   4  -6 32771.6 3230.53   1
  -1   4   6 32179.6 3153.82   2
  -1   4   5 36244.9 3019.14   2
   1   4  -5 36063.7 2253.77   3
   1  -4  -4 41160.5 3157.33   1
   1   4  -4 40985.4 1987.32   3
  -1   4   4 38174.5 2787.22   2
   1   4  -4 44631.9 2683.81   2
   1  -4  -3 247258. 7759.72   1
   1   4  -3 268826. 5943.03   2
   1   4  -3 252041. 5432.11   3
  -1   4   3 241665. 7199.46   2
   1  -4  -2 15025.2 1217.96   3
  -1   4   2 16593.9 1370.49   2
  -1   4   1 64190.8 2377.63   3
  -1   4   1 63422.3 2672.84   1
   1  -4  -1 61243.3 2394.16   3
   1  -4  -1 65845.4 2612.10   1
  -1   4   0 1515.20 466.367   1
   1  -4   0 1499.66 430.099   3
  -1   4   0 1796.13 533.104   3
  -1  -4  -1 123366. 4451.32   2
   1  -4   1 117011. 3873.59   3
  -1   4  -1 115368. 3835.98   3
  -1   4  -2-400.484 482.725   3
   1   4   3 137742. 4300.80   1
  -1   4  -3 138927. 5295.60   3
  -1   4  -4 821.522 897.773   3
  -1   4  -4 83.3160 549.725   1
  -1   4  -5 47728.0 2958.34   1
  -1   4  -5 45779.7 3564.97   3
  -1   4  -6 4076.19 1482.25   3
  -1   4  -6 2743.01 1349.14   1
  -1   4  -7 16821.1 2581.75   3
  -1   4  -8 2038.70 1260.89   3
  -1  -4  -8 3541.13 1508.76   3
  -1   4  -9 2797.70 1387.95   3
   1   5  -9 5326.95 2043.37   1
   1   5  -8 5394.94 1859.58   1
  -1   5   7 46709.5 4153.32   2
   1   5  -7 46246.1 4171.53   1
   1  -5  -6 59091.6 4535.50   1
   1   5  -6 61606.0 3249.81   3
  -1   5   6 64391.9 4539.44   2
   1  -5  -5 57611.0 4113.94   1
  -1   5   5 51204.0 3674.58   2
   1   5  -5 50866.9 2572.70   3
   1   5  -4 37314.4 1789.37   3
   1  -5  -4 42856.5 3304.70   1
   1   5  -4 37711.6 2364.85   2
  -1   5   4 40594.1 2864.02   2
   1   5  -3 171469. 3818.59   3
   1  -5  -3 173807. 6211.85   1
   1   5  -3 181725. 4199.54   2
  -1   5   3 179320. 5846.98   2
   1  -5  -2 261432. 6708.34   3
  -1   5   2 263859. 6966.81   2
   1  -5  -2 246567. 7066.45   1
  -1   5   1 465975. 9914.04   3
  -1  -5   1 450275. 8691.50   2
   1  -5  -1 450968. 9943.60   3
  -1   5   1 454072. 10329.3   1
   1  -5   0 63862.6 2596.93   3
  -1  -5   0 62679.4 2519.16   2
  -1   5   0 63698.7 2579.97   3
  -1  -5  -1 257032. 7415.76   2
  -1   5  -1 270772. 6878.77   3
  -1   5  -2 236079. 6764.63   3
  -1   5  -3 215025. 6927.29   3
  -1   5  -4 38330.8 2298.58   1
  -1   5  -4 35624.9 2855.72   3
  -1   5  -5 76532.2 4551.71   3
  -1   5  -5 80984.5 3882.86   1
  -1   5  -6 48211.6 3892.40   3
  -1   5  -6 55199.8 3577.62   1
  -1   5  -7 24985.9 3015.64   3
  -1   5  -8 3433.73 1489.07   3
  -1   5  -9 10078.8 2207.73   3
   1   6  -9 12050.6 2692.14   1
   1   6  -8 13504.3 2585.27   1
  -1   6   7 25624.6 3105.56   2
   1   6  -7 21194.1 3051.65   1
  -1   6   6 14782.8 2241.98   2
   1   6  -6 11379.2 1348.18   3
   1   6  -5 24828.3 1690.62   3
  -1   6   5 25251.6 2575.10   2
   1   6  -4 20943.2 1676.34   2
  -1   6   4 21676.2 2199.88   2
   1   6  -4 20264.1 1227.46   3
   1   6  -3 93074.7 2309.74   3
   1   6  -3 92528.6 2376.19   2
  -1   6   3 96296.9 4118.34   2
  -1   6   2 31193.6 2025.90   2
  -1  -6   1 315875. 6204.75   2
   1  -6  -1 304518. 7581.24   3
  -1   6   1 320265. 7919.86   1
  -1   6   1 306832. 7542.25   3
  -1   6   0 24340.7 1637.22   3
  -1  -6   0 20160.7 1399.55   2
   1  -6   0 20999.8 1550.98   3
  -1  -6  -1 159364. 5527.53   2
  -1   6  -1 174031. 5233.68   3
  -1   6  -2 3578.43 863.328   3
  -1   6  -3 69844.3 3641.57   3
  -1   6  -4 1870.28 1074.14   3
  -1   6  -5 49824.7 3685.15   3
  -1   6  -5 47040.6 3006.96   1
  -1   6  -6 1998.61 1013.54   1
  -1   6  -6 3133.70 1164.40   3
  -1   6  -7 19987.9 2825.03   3
  -1   6  -8 1810.41 1219.46   3
  -1   6  -9 4454.36 1549.70   3
   1   7  -9 7727.47 2207.82   1
  -1   7   8 16786.1 2735.03   2
   1   7  -8 13660.3 2535.10   1
  -1   7   7 23505.1 3137.83   2
  -1   7   6 1242.86 912.027   2
   1   7  -6 2398.64 695.214   3
  -1   7   5 84879.9 4923.95   2
   1   7  -5 83771.2 3197.11   3
   1   7  -4 216982. 6084.83   2
   1   7  -4 205744. 5078.27   3
  -1   7   4 208679. 7473.20   2
  -1   7   3 216419. 7020.29   2
   1   7  -3 217038. 4589.77   3
  -1   7   2 123033. 4591.54   2
  -1  -7   2 127998. 2703.78   3
  -1   7   1 210797. 5918.14   1
  -1  -7   1 199920. 4294.96   2
  -1   7   1 202664. 5659.58   3
  -1   7   0 235299. 6367.50   3
  -1  -7   0 232983. 6126.35   2
  -1  -7  -1 176783. 5906.82   2
  -1   7  -1 184728. 5573.24   3
  -1   7  -2 105823. 4191.94   3
  -1   7  -3 190939. 6441.11   3
  -1   7  -4 100097. 4844.11   3
  -1   7  -5 86503.6 4842.60   3
  -1   7  -6 236.923 917.766   3
  -1   7  -6 491.701 731.260   1
  -1   7  -7 29017.0 3252.60   3
  -1   7  -8 17826.2 2709.12   3
  -1   7  -9 9392.02 2208.55   3
  -1   8   8 5987.09 1793.66   2
   1   8  -8 4443.31 1633.18   1
  -1   8   7 832.474 1034.91   2
  -1   8   6 7577.18 1778.32   2
  -1   8   5 125331. 6125.91   2
   1   8  -5 124041. 4005.99   3
   1   8  -4 12474.3 1154.96   2
  -1   8   4 14786.5 1900.10   2
   1   8  -4 14949.7 1011.75   3
   1   8  -3 75583.7 2124.81   3
  -1   8   3 82635.1 3968.22   2
  -1   8   2 16100.3 1604.02   2
  -1  -8   2 16950.2 762.225   3
  -1   8   1 111627. 3979.11   3
  -1  -8   1 111476. 2989.78   3
  -1  -8   1 107348. 2744.36   2
  -1  -8   0 5990.39 774.258   2
  -1   8   0 5655.11 980.068   3
   1   8   0 6184.94 1004.39   2
   1   8   1 110465. 4849.84   2
  -1   8  -1 107960. 4092.09   3
  -1   8  -2 4031.20 857.954   3
   1   8   2 4495.89 1192.11   2
  -1   8  -3 118879. 4846.89   3
  -1   8  -4 635.013 840.365   3
  -1   8  -5 45360.3 3487.54   3
  -1   8  -6 1904.40 915.410   1
  -1   8  -6 3380.34 1318.55   3
  -1   8  -7 9672.04 2034.63   3
  -1   8  -8 2535.23 1303.18   3
  -1   9   8 44166.4 4573.02   2
   1   9  -8 43698.1 4286.84   1
  -1   9   7 23773.5 3125.77   2
  -1   9   6 1333.43 955.111   2
  -1   9   5 114137. 5995.28   2
   1   9  -5 123310. 4028.15   3
  -1   9   4 218875. 7644.64   2
   1   9  -4 213416. 4966.64   3
   1   9  -3 58092.9 1910.31   3
  -1   9   3 54706.2 3284.83   2
  -1  -9   2 689.783 211.778   3
  -1   9   2 874.022 607.271   2
  -1   9   1 32914.7 2143.63   3
  -1  -9   1 34037.4 1541.49   3
  -1   9   1 31341.2 2247.52   2
  -1  -9   1 32762.7 1342.46   2
  -1   9   0 624130. 13653.2   3
   1   9   0 607785. 14296.9   2
  -1  -9   0 619645. 13185.6   2
   1   9   1 81269.0 4199.96   2
  -1   9  -1 78837.6 3512.10   3
  -1   9  -2 1451.70 798.767   3
   1   9   2 1016.68 877.410   2
  -1   9  -3 19546.8 1966.54   3
   1   9   3 20918.0 2493.68   2
  -1   9  -4 227312. 7758.25   3
  -1   9  -5 64688.6 4102.08   3
  -1   9  -6 2746.77 1221.02   3
  -1   9  -6 1316.94 801.272   1
  -1   9  -7 40955.8 3811.09   3
  -1   9  -8 24141.5 3111.97   3
  -1  10   8 2376.63 1303.59   2
  -1  10   7 922.732 986.346   2
  -1  10   6 4286.43 1519.40   2
  -1  10   5 97575.6 5587.09   2
   1  10  -5 94884.5 3375.90   3
   1  10  -4 180.620 256.044   3
   1  10  -4 272.189 219.920   2
  -1  10   4 544.516 871.559   2
  -1  10   3 21559.0 2138.81   2
  -1 -10   3 22440.3 1132.80   3
  -1 -10   2 56.9271 176.965   3
  -1  10   2 901.531 684.245   2
  -1 -10   1 321295. 7248.40   3
   1  10  -1 337612. 8267.73   2
   1  10   0 5343.95 1101.37   2
  -1  10   0 4132.33 1065.66   3
  -1 -10   0 4157.54 690.398   2
  -1  10  -1 126060. 4762.71   3
   1  10   1 126659. 5510.63   2
  -1  10  -2 394.486 684.316   3
   1  10   2 313.160 615.955   2
   1  10   3 48192.3 3780.68   2
  -1  10  -3 45745.0 3031.53   3
  -1  10  -4 2620.63 1207.35   3
  -1  10  -5 33127.8 2991.98   3
  -1  10  -6 2005.73 1114.09   3
  -1  10  -7 5643.93 1617.42   3
  -1  10  -8 2200.53 1266.26   3
  -1  11   8 63388.8 5654.02   2
  -1  11   7 2287.47 1336.10   2
  -1  11   6 3338.85 1316.05   2
   1  11  -5 414.640 346.829   3
  -1  11   5 960.579 884.951   2
  -1  11   4 181656. 7267.41   2
   1  11  -4 178015. 4748.69   3
  -1  11   3 13658.2 1814.31   2
  -1 -11   3 15702.9 1002.19   3
   1  11  -2 34340.7 1597.54   2
  -1 -11   2 30292.2 1486.15   3
  -1  11   2 28118.8 2324.88   2
   1  11  -1 27789.4 1984.29   2
  -1 -11   1 25307.2 1481.50   3
  -1  11   1 25131.1 2107.31   2
   1  11   0 743364. 17595.2   2
  -1  11   0 798674. 16877.7   3
  -1 -11   0 768443. 16107.2   2
   1  11   1 8498.58 1480.02   2
  -1  11  -1 9154.16 1348.00   3
   1  11   2 48253.5 3539.89   2
  -1  11  -2 49146.8 2943.05   3
   1  11   3 31454.8 3214.71   2
  -1  11  -3 31571.0 2692.40   3
   1  11   4 301833. 11145.2   2
  -1  11  -4 291733. 9436.97   3
  -1  11  -5-220.892 858.289   3
  -1  11  -6 403.080 830.853   3
  -1  11  -7-619.230 950.856   3
  -1  11  -8 37673.1 3790.14   3
  -1  12   8 849.508 1072.33   2
  -1  12   7 1636.72 1102.98   2
  -1  12   6 484.674 933.345   2
  -1  12   5 153846. 7423.68   2
   1  12  -4 481.549 430.341   3
  -1  12   4 1326.59 873.373   2
  -1  12   3 4168.41 1175.63   2
  -1 -12   3 5072.01 622.577   3
   1  12  -2-36.2193 328.854   2
  -1 -12   2 229.059 235.791   3
  -1 -12   1 111478. 3621.62   3
   1  12  -1 109533. 4435.66   2
  -1  12   1 107115. 4630.48   2
   1  12   0 497.112 637.172   2
  -1 -12   0 518.684 336.037   2
  -1  12   0 1831.97 1025.70   3
   1  12   1 65637.9 4038.35   2
  -1  12  -1 64348.8 3384.34   3
   1  12   2 771.374 803.257   2
  -1  12  -2-1358.54 737.599   3
   1  12   3 66636.3 4583.39   2
  -1  12  -3 61064.4 3627.84   3
  -1  12  -4 2328.43 1191.50   3
   1  12   4 2203.35 1481.67   2
  -1  12  -5 65488.6 4289.12   3
  -1  12  -6-415.309 834.518   3
  -1  12  -7 4006.84 1387.58   3
  -1  12  -8 1148.12 962.966   3
  -1  13   8 31627.9 4099.67   2
  -1  13   7 4.10482 873.392   2
  -1  13   6 1742.36 1118.33   2
  -1  13   5 19398.1 2682.04   2
   1  13  -4 330182. 7794.41   3
  -1  13   4 286523. 10293.4   2
  -1 -13   3 17032.8 1169.18   3
  -1  13   3 20642.5 2271.84   2
  -1 -13   2 1254.84 427.331   3
  -1  13   2 1610.01 747.861   2
   1  13  -2 817.184 348.553   2
   1  13  -1 1454.11 731.478   2
  -1  13   1 1186.91 751.162   2
  -1  13   0 452901. 11417.4   3
   1  13   0 423489. 12033.4   2
   1  13   1 4375.70 1301.74   2
  -1  13  -1 5324.36 1174.58   3
   1  13   2 1197.08 781.665   2
  -1  13  -2 985.300 879.203   3
   1  13   3 5646.49 1587.18   2
  -1  13  -3 4153.27 1242.08   3
   1  13   4 204447. 9223.63   2
  -1  13  -4 215240. 8068.66   3
  -1  13  -5 12626.2 2039.97   3
  -1  13  -6 6329.85 1545.58   3
  -1  13  -7 4012.52 1351.62   3
  -1  13  -8 30540.7 3493.48   3
  -1  14   7 368.955 1238.84   2
  -1  14   6 5410.33 1682.10   2
  -1  14   5 54831.8 4431.78   2
  -1  14   4 1606.42 1060.34   2
  -1  14   3 25539.9 2561.68   2
   1  14  -3 15759.4 1168.14   2
  -1  14   2 2202.67 947.875   2
   1  14  -2 1064.12 382.836   2
   1  14  -1 157550. 6006.74   2
  -1  14   1 156287. 6032.71   2
   1  14   0 9935.56 1583.90   2
  -1  14   0 11405.2 1717.31   3
   1  14   1 76739.9 4599.38   2
  -1  14  -1 68679.7 3749.54   3
  -1  14  -2 33.7251 745.525   3
   1  14   2 901.124 933.588   2
  -1  14  -3 49911.8 3377.45   3
   1  14   3 49669.0 4063.65   2
  -1  14  -4 1790.74 1054.04   3
   1  14   4 1810.23 1408.61   2
  -1  14  -5 27188.7 2909.98   3
  -1  14  -6 588.262 967.960   3
  -1  14  -7 7796.61 1889.11   3
  -1  15   7 13215.4 2540.00   2
  -1  15   6 1801.69 1187.27   2
  -1  15   5 15463.5 2344.49   2
  -1  15   4 139294. 6813.44   2
   1  15  -3 11453.1 1185.02   2
  -1  15   3 29010.8 2763.54   2
  -1  15   2 3612.17 1029.45   2
   1  15  -2 2998.14 801.765   2
   1  15  -1 75838.7 4100.09   2
  -1  15   1 67451.6 3987.23   2
  -1  15   0 316012. 9363.88   3
   1  15   0 325414. 10366.6   2
   1  15   1 68156.6 4456.73   2
  -1  15  -1 63825.7 3647.79   3
   1  15   2 823.686 818.704   2
  -1  15  -2 292.352 784.360   3
   1  15   3 52345.8 4350.92   2
  -1  15  -3 49918.1 3501.70   3
   1  15   4 122833. 7071.16   2
  -1  15  -4 115327. 5708.28   3
   1  15   5 26442.1 3453.16   2
  -1  15  -5 25623.6 2777.11   3
  -1  15  -6-350.183 832.540   3
  -1  15  -7 9224.08 2040.05   3
  -1  16   7 9010.61 2206.25   2
  -1  16   6 9276.77 2167.24   2
  -1  16   5 33177.8 3626.28   2
  -1  16   4 12125.6 2079.00   2
  -1  16   3 38519.7 3341.49   2
   1  16  -2 6398.64 1131.84   2
  -1  16   2 8205.93 1626.43   2
   1  16  -1 97337.8 4951.32   2
  -1  16   1 93955.4 4845.06   2
   1  16   0 2185.05 1180.49   2
  -1  16   0 2369.90 1045.55   2
  -1  16   0 1950.42 1125.45   3
  -1  16  -1 40341.1 3034.12   3
   1  16   1 44545.4 3672.41   2
   1  16   2 446.769 1014.38   2
  -1  16  -2 31.4644 685.804   3
  -1  16  -3 51390.8 3656.23   3
   1  16   3 52941.6 4419.29   2
   1  16   4 975.973 1016.51   2
  -1  16  -4 2249.78 1157.38   3
   1  16   5 31690.0 3737.80   2
  -1  16  -5 21867.9 2646.08   3
  -1  16  -6 928.775 815.564   3
  -1  16  -7 7152.53 1788.13   3
  -1  17   7 7052.08 1952.22   2
  -1  17   6 2702.50 1400.79   2
  -1  17   5 31403.4 3558.53   2
  -1  17   4 72069.3 4955.74   2
  -1  17   3 90547.5 5342.99   2
  -1  17   2 19229.3 2376.36   2
   1  17  -2 18367.3 2019.52   2
  -1  17   1 67315.4 4213.80   2
   1  17  -1 82957.7 4702.98   2
   1  17   0 46135.9 3658.98   2
  -1  17   0 32550.7 2857.64   2
  -1  17  -1 59183.9 3709.82   3
   1  17   1 57387.0 4301.99   2
  -1  17  -2 47619.5 3347.56   3
   1  17   2 48043.7 4154.52   2
   1  17   3 82441.6 5645.93   2
  -1  17  -3 76329.8 4518.47   3
   1  17   4 70094.9 5548.50   2
  -1  17  -4 71432.6 4592.39   3
   1  17   5 39543.1 4308.13   2
  -1  17  -5 34589.0 3391.01   3
  -1  17  -6 2229.42 1217.67   3
  -1  17  -7 8753.58 1940.04   3
  -1  18   6 7421.12 1826.49   2
  -1  18   5 10587.3 2164.13   2
  -1  18   4 11368.6 2050.55   2
  -1  18   3 46822.7 3860.55   2
  -1  18   2 2375.09 1191.44   2
   1  18  -2 811.936 593.695   2
   1  18  -1 36909.7 3228.23   2
  -1  18   1 34772.3 3124.42   2
   1  18   0 1685.84 1169.65   2
  -1  18   0-762.886 617.699   2
  -1  18  -1 51437.4 3525.07   3
   1  18   1 57219.1 4514.51   2
   1  18   2 4500.24 1667.58   2
  -1  18  -2 2532.28 1052.32   3
  -1  18  -3 48345.2 3693.54   3
   1  18   3 53757.7 4698.75   2
   1  18   4 752.197 1035.88   2
  -1  18  -4 2024.76 1148.94   3
  -1  18  -5 10911.9 1992.16   3
   1  18   5 11275.0 2412.11   2
  -1  18  -6 1783.56 1142.30   3
  -1  19   6 24722.4 3446.14   2
  -1  19   5 13334.7 2499.67   2
  -1  19   4 8278.29 1766.40   2
  -1  19   3 16990.3 2425.66   2
   1  19  -2 52761.9 3883.27   2
  -1  19   2 68236.6 4522.75   2
   1  19  -1 97205.7 5612.58   2
  -1  19   1 99548.4 5426.28   2
   1  19   0 20580.1 2589.48   2
  -1  19   0 12758.3 1928.99   2
  -1  19  -1 172454. 7035.79   3
   1  19   1 186382. 8572.47   2
  -1  19  -2 71387.8 4380.07   3
   1  19   2 70973.3 5254.74   2
  -1  19  -3 35539.2 3178.48   3
   1  19   3 36855.0 4007.54   2
   1  19   4 9494.40 2139.10   2
  -1  19  -4 10096.9 1966.84   3
   1  19   5 14985.2 2922.08   2
  -1  19  -5 14458.0 2322.39   3
  -1  19  -6 18316.5 2668.00   3
  -1  20   6 2201.74 1455.39   2
  -1  20   5 8460.64 2001.37   2
  -1  20   4 2320.78 1306.89   2
  -1  20   3 52807.8 4317.99   2
  -1  20   2 15523.2 2253.16   2
  -1  20   1 8035.01 1748.39   2
   1  20  -1 11107.6 1976.02   2
   1  20   0 6873.66 1768.02   2
  -1  20   0 5614.85 1426.97   2
   1  20   1 40075.7 3949.92   2
  -1  20  -1 30925.7 3023.51   2
  -1  20  -1 35761.5 3107.77   3
   1  20   2 4922.39 1771.01   2
  -1  20  -2 5708.53 1462.87   3
  -1  20  -3 46526.7 3759.23   3
   1  20   3 52541.0 4784.89   2
   1  20   4 2271.43 1250.53   2
  -1  20  -4-214.223 908.253   3
   1  20   5 8890.55 2226.63   2
  -1  20  -5 9878.17 2061.20   3
  -1  20  -6 1994.86 1309.04   3
  -1  21   5 12076.6 2432.40   2
  -1  21   4 866.469 888.172   2
  -1  21   3 23187.5 2940.34   2
  -1  21   2 132108. 6840.01   2
   1  21  -1 23140.9 2903.05   2
  -1  21   1 21145.2 2627.86   2
   1  21   0 12858.5 2371.44   2
  -1  21   0 10360.9 1840.21   2
   1  21   1 18808.3 2879.29   2
  -1  21  -1 15120.9 2229.03   2
  -1  21  -2 84000.2 5041.24   3
   1  21   2 90250.6 6251.28   2
   1  21   3 21194.9 3106.72   2
  -1  21  -3 16971.7 2317.87   3
   1  21   4 341.329 1033.17   2
  -1  21  -4-327.451 887.634   3
   1  21   5 11044.4 2320.37   2
  -1  21  -5 8783.62 1939.93   3
  -1  21  -6 38079.4 3921.12   3
  -1  22   5 1308.95 1175.95   2
  -1  22   4 819.154 1242.72   2
  -1  22   3 39849.2 3898.73   2
  -1  22   2 316.274 915.691   2
   1  22  -1 45703.0 4178.46   2
  -1  22   1 41096.0 3719.00   2
   1  22   0 794.640 1154.46   2
  -1  22   0 1148.34 918.703   2
   1  22   1 57014.7 4860.39   2
  -1  22  -1 45717.0 3759.09   2
   1  22   2 2021.62 1526.22   2
  -1  22  -2 2521.78 1368.18   3
   1  22   3 9003.47 2224.38   2
  -1  22  -3 8767.14 1773.06   3
   1  22   4 1308.47 899.417   2
  -1  22  -4 102.458 860.916   3
   1  22   5 3017.93 1449.00   2
  -1  22  -5 6793.35 1754.34   3
  -1  23   5 1376.07 1114.61   2
  -1  23   4 710.522 819.068   2
  -1  23   3 3775.81 1454.53   2
  -1  23   2 100817. 6148.16   2
  -1  23   1 1651.20 1207.88   2
   1  23   0 671.249 833.628   2
  -1  23   0 1358.87 1017.61   2
   1  23   1 266.306 1061.98   2
  -1  23  -1 523.915 931.024   2
  -1  23  -2 116300. 6190.26   3
  -1  23  -2 105200. 6030.72   2
   1  23   3 1725.92 1195.06   2
  -1  23  -3 1430.83 954.258   3
   1  23   4 1655.35 1416.20   2
  -1  23  -4 1955.12 1019.49   3
   1  23   5-176.795 1252.76   2
  -1  23  -5 1787.77 1034.25   3
  -1  24   4-240.120 955.691   2
  -1  24   3 41521.9 4178.13   2
  -1  24   2 2359.58 1429.86   2
  -1  24   1 8725.24 1940.96   2
   1  24   0 1900.75 1375.07   2
  -1  24   0 993.758 836.640   2
   1  24   1 32660.9 3901.55   2
  -1  24  -1 21511.9 2757.65   2
   1  24   2 3173.41 1624.88   2
  -1  24  -2 2648.43 1251.97   2
   1  24   3 17377.6 3068.15   2
  -1  24  -3 20405.4 2679.27   3
   1  24   4 197.559 974.901   2
  -1  24  -4 576.275 921.226   3
  -1  24  -5 7490.59 1959.49   3
  -1  25   4 338.811 972.214   2
  -1  25   3 2207.00 1283.32   2
  -1  25   2 66184.6 5200.47   2
  -1  25   1 6924.42 1820.03   2
   1  25   0 1027.77 1006.55   2
  -1  25   0 410.937 787.916   2
   1  25   1 9059.27 2248.12   2
  -1  25  -1 2859.35 1253.40   2
   1  25   2 99965.6 7300.37   2
  -1  25  -2 65655.3 4811.21   2
  -1  25  -3 1137.90 956.900   2
   1  25   3 3205.90 1541.99   2
  -1  25  -3 3361.98 1373.92   3
   1  25   4 788.437 1027.13   2
  -1  25  -4 992.028 1002.10   3
  -1  25  -5-762.806 1146.12   3
  -1  26   3 16969.4 2877.76   2
  -1  26   2 3491.20 1538.21   2
  -1  26   1 12185.7 2402.51   2
  -1  26   0 200.173 960.216   2
  -1  26  -1 17674.7 2622.54   2
   1  26   1 22580.1 3490.27   2
  -1  26  -2 328.096 847.848   2
   1  26   2 3024.25 1697.17   2
   1  26   3 14872.2 3064.84   2
   1  26   4 1883.56 1475.40   2
  -1  26  -4 565.958 971.128   3
  -1  27   3 11911.2 2485.58   2
  -1  27   2 59335.4 5200.52   2
  -1  27   1 10660.3 2234.66   2
  -1  27   0 1116.62 943.770   2
   1  27   1 10893.8 2689.51   2
  -1  27  -1 6537.36 1751.62   2
   1  27   2 47992.5 5253.30   2
  -1  27  -2 38083.7 3847.68   2
   1  27   3 13951.1 2948.61   2
  -1  27  -4 4301.35 1615.76   3
  -1  28   2 4199.74 1713.15   2
  -1  28   1 6238.34 1797.70   2
  -1  28   0 590.826 1168.91   2
  -1  28  -1 11999.5 2337.21   2
   1  28   2 4409.72 2068.84   2
  -1  28  -2 1152.64 956.098   2
   1  28   3 10449.6 2534.82   2
  -1  29   2 14459.6 2776.50   2
  -1  29   1 6410.59 1841.86   2
  -1  29   0 6027.06 1789.31   2
  -1  29  -1 7793.51 1850.88   2
   1  29   2 21325.8 3698.14   2
   1  29   3 10718.4 2693.09   2
  -1  30   1 15433.7 2835.48   2
  -1  30   0-648.875 928.811   2
  -1  30  -1 10133.0 2185.52   2
  -1  31   0 20756.0 3273.10   2
   2   0  -8 55875.0 5178.58   1
   2   0  -7-2550.06 1533.14   1
  -2   0   6 1201.99 740.552   2
   2   0  -6 2224.69 1338.66   1
   2   0  -5-1401.28 1286.08   1
  -2   0   5 357.814 440.825   2
   2   0  -4 222347. 8373.32   1
  -2   0   4 230620. 7013.56   2
   2   0  -4 243229. 6315.97   3
   2   0  -3 328.816 274.532   3
  -2   0   3-398.819 327.114   2
  -2   0   2 9959.84 921.748   3
   2   0  -2 10625.6 986.125   3
   2   0  -1 610.533 488.691   3
  -2   0   1 260.159 450.541   3
  -2   0   0 897799. 18117.5   3
  -2   0  -1-504.167 499.387   3
  -2   0  -2 120739. 5061.10   3
  -2   0  -3 363.858 871.090   3
  -2   0  -4 193570. 8016.50   3
  -2   0  -5 661.901 1024.52   3
  -2   0  -6 508.136 1224.75   3
  -2   0  -7-2287.71 1445.12   3
  -2   0  -8 27691.7 4002.25   3
   2  -1  -8 1471.59 1611.33   1
   2   1  -8 637.822 1502.37   1
   2   1  -7 21.9155 1620.65   1
   2  -1  -7-739.263 1298.67   1
  -2   1   6 669.352 499.320   2
   2  -1  -6 1241.12 1328.49   1
   2   1  -6 2639.65 1318.88   1
  -2   1   5 179963. 6769.39   2
  -2  -1   5 191786. 6567.39   2
   2  -1  -5 170883. 7702.64   1
   2   1  -5 174402. 7725.44   1
  -2  -1   4 1563.05 636.647   2
   2   1  -4 2250.34 507.619   3
   2  -1  -4 1159.46 510.206   3
   2  -1  -4 1393.02 1022.93   1
  -2   1   4 1812.22 676.623   2
   2   1  -3 2488.13 440.601   3
  -2   1   3 2257.10 629.534   2
   2  -1  -3 2086.57 523.798   3
  -2  -1   3 2979.25 611.157   2
   2  -1  -3 2321.87 887.217   1
  -2  -1   2 6222.09 668.187   3
   2  -1  -2 5970.44 789.485   3
  -2   1   2 5440.45 740.541   3
   2   1  -2 6188.89 721.362   3
   2   1  -1 312510. 7610.03   3
   2  -1  -1 302536. 7707.83   3
  -2  -1   1 325173. 7413.92   3
  -2   1   1 297310. 7358.21   3
  -2  -1   0 6539.55 1015.42   3
  -2   1   0 5658.10 1043.11   3
  -2  -1  -1 50454.8 2792.67   3
  -2   1  -1 55706.1 2895.89   3
  -2  -1  -2 800.475 685.318   3
  -2   1  -2 1252.54 795.657   3
  -2  -1  -3 78087.4 4346.48   3
   2   1   3 74393.4 2221.68   1
  -2  -1  -4 2999.33 1394.61   3
  -2   1  -4 4512.91 1813.05   3
  -2  -1  -5 26540.7 3090.20   3
  -2   1  -5 21477.5 2835.40   3
  -2  -1  -6 2514.71 1285.89   3
  -2   1  -6-939.249 1305.01   3
  -2  -1  -7 9980.41 2437.23   3
  -2   1  -7 4258.73 1818.01   3
  -2   1  -8 1264.56 1603.41   3
   2  -2  -8 52509.1 5235.52   1
   2   2  -8 43479.5 4634.77   1
   2   2  -7 12269.3 2420.78   1
   2  -2  -7 12321.3 2413.08   1
  -2   2   6 746.952 577.164   2
   2  -2  -6 2712.28 1323.40   1
  -2   2   5 20349.4 2171.50   2
  -2  -2   5 20894.4 1932.75   2
   2  -2  -5 20590.3 2754.58   1
  -2  -2   4 325054. 8352.81   2
   2  -2  -4 310558. 10142.0   1
  -2   2   4 318087. 8954.62   2
   2   2  -4 319746. 7001.87   3
   2  -2  -3 74754.4 3958.60   1
  -2   2   3 71347.1 3300.68   2
  -2  -2   3 70334.8 2836.61   2
   2   2  -3 68963.7 2207.73   3
   2  -2  -3 73891.4 3037.40   3
  -2  -2   2 12216.2 808.990   3
  -2   2   2 12580.3 1103.80   3
   2  -2  -2 11270.8 1373.88   1
   2  -2  -2 11025.2 1092.52   3
   2   2  -2 11319.5 898.682   3
   2  -2  -1 75410.4 3184.38   1
   2   2  -1 76126.9 2983.48   3
  -2  -2   1 69946.0 2560.57   3
  -2   2   1 71115.6 2907.33   3
  -2  -2   0 394004. 9323.65   3
   2  -2   0 411074. 8856.88   1
  -2   2   0 399202. 9653.75   3
  -2  -2  -1 78.9748 543.907   3
   2  -2   1 735.637 210.609   1
  -2  -2  -2 1099.15 713.715   3
  -2   2  -2 1886.03 973.593   3
  -2  -2  -3 17632.0 2279.07   3
  -2   2  -3 14135.1 1847.68   3
   2   2   3 15646.0 1022.48   1
  -2  -2  -4 213538. 8607.24   3
  -2   2  -4 226321. 8631.93   3
  -2  -2  -5 30903.9 3439.27   3
  -2   2  -5 32504.7 3367.56   3
  -2  -2  -6 3966.48 1623.73   3
  -2   2  -6 3076.77 1462.60   3
  -2  -2  -7 6578.76 2002.04   3
  -2   2  -7 10460.9 2457.95   3
  -2   2  -8 30680.1 4075.79   3
   2   3  -8 6598.74 2127.59   1
   2  -3  -8 10841.8 2436.84   1
  -2   3   7 1214.12 921.781   2
   2  -3  -7 3689.47 1985.35   1
   2   3  -7 492.848 1199.36   1
  -2   3   6 12274.5 1862.57   2
   2   3  -6 12550.9 2323.81   1
   2  -3  -6 14796.5 2587.88   1
  -2   3   5 151782. 6333.09   2
  -2  -3   5 159542. 5538.96   2
   2  -3  -5 143641. 7046.49   1
  -2  -3   4 18988.7 1508.40   2
  -2   3   4 17182.2 1758.23   2
   2  -3  -4 14710.5 2111.81   1
   2   3  -4 12825.4 732.399   3
   2  -3  -3 13274.1 1756.85   1
  -2   3   3 14616.1 1484.48   2
   2   3  -3 16570.9 776.152   3
  -2  -3   3 17266.0 1248.39   2
  -2  -3   2 2878.32 381.684   3
  -2   3   2 3649.34 711.999   3
  -2   3   1 191193. 5491.77   3
   2  -3  -1 188606. 5656.69   1
  -2  -3   1 182714. 4673.59   3
  -2  -3   0 13859.1 1283.22   3
  -2   3   0 16986.1 1604.70   3
   2  -3   0 15666.4 1108.41   1
  -2  -3  -1 48760.2 2760.08   3
  -2   3  -1 50924.4 2794.61   3
  -2  -3  -2 26593.7 2360.84   3
  -2   3  -2 24872.9 2235.50   3
   2   3   3 74477.2 2599.22   1
  -2   3  -3 80175.7 4342.75   3
  -2  -3  -3 74676.2 4450.22   3
  -2  -3  -4 4447.59 1772.04   3
  -2   3  -4 3665.85 1634.15   3
  -2  -3  -5 22723.9 2983.03   3
  -2   3  -5 22747.0 2840.07   3
  -2  -3  -6 2018.38 1385.47   3
  -2   3  -6-1265.57 1157.60   3
  -2  -3  -7 7123.05 2080.66   3
  -2   3  -7 9761.55 2344.50   3
  -2   3  -8 733.907 1366.98   3
   2   4  -8 35743.5 4230.13   1
   2  -4  -8 37441.3 4383.63   1
   2  -4  -7 17350.4 2922.17   1
  -2   4   7 13102.6 2246.46   2
   2   4  -7 13753.6 2502.95   1
  -2   4   6 3052.36 1008.34   2
   2  -4  -6 503.073 1346.61   1
  -2   4   5 51024.7 3479.95   2
   2  -4  -5 50118.8 4127.48   1
  -2  -4   4 134029. 4230.32   2
  -2   4   4 123521. 5148.29   2
   2  -4  -4 126694. 6000.57   1
  -2   4   3 71071.2 3489.47   2
  -2  -4   3 74165.8 2586.36   2
   2  -4  -3 75326.7 4092.62   1
  -2  -4   2 5445.43 428.586   3
  -2   4   2 8653.60 1050.47   3
   2  -4  -2 7885.53 1369.64   1
  -2   4   1 100750. 3776.94   3
  -2  -4   1 94090.3 2906.44   3
   2  -4  -1 95037.2 3718.71   1
  -2  -4   0 298666. 7607.56   3
  -2   4   0 324774. 8463.93   3
  -2   4  -1 166975. 5695.62   3
  -2  -4  -1 168746. 5632.89   3
  -2  -4  -2 25960.1 2345.48   3
  -2   4  -2 27745.2 2395.74   3
  -2  -4  -3 96734.2 5122.30   3
  -2   4  -3 97703.6 4912.21   3
  -2  -4  -4 137766. 6789.47   3
  -2   4  -4 130937. 6329.51   3
  -2  -4  -5 41324.9 4064.53   3
  -2   4  -5 41727.4 3778.47   3
  -2  -4  -6 620.429 1184.37   3
  -2   4  -6 2103.01 1336.80   3
  -2  -4  -7 17146.1 3026.38   3
  -2   4  -7 19560.2 3031.01   3
  -2   4  -8 17478.0 3044.16   3
   2   5  -8 20232.9 3102.77   1
  -2   5   7 9809.70 1916.85   2
   2  -5  -7 16590.3 2901.43   1
   2   5  -7 11807.3 2275.18   1
  -2   5   6 22197.8 2584.46   2
   2  -5  -6 25548.7 3323.98   1
  -2   5   5 32063.1 2802.11   2
   2  -5  -5 34816.0 3480.30   1
  -2  -5   4 21589.7 1361.97   2
   2  -5  -4 21832.0 2632.34   1
  -2   5   4 18786.0 1902.08   2
   2  -5  -3 91272.7 4622.33   1
  -2   5   3 84363.9 3942.58   2
  -2  -5   3 86653.6 2677.19   2
  -2   5   2 60890.8 2683.37   3
   2  -5  -2 64950.8 3295.99   1
  -2   5   1 142927. 4865.62   3
   2  -5  -1 145080. 4786.46   1
  -2  -5   1 143874. 3850.02   3
  -2  -5   0 40913.5 2151.09   3
  -2   5   0 40718.5 2445.22   3
  -2  -5  -1 36563.8 2441.88   3
  -2   5  -1 36315.4 2496.70   3
  -2   5  -2 3673.18 1165.21   3
  -2   5  -3 86078.1 4631.26   3
  -2   5  -4 2683.60 1300.54   3
  -2   5  -5 27430.2 3101.72   3
  -2  -5  -6-978.202 1163.26   3
  -2   5  -6-157.850 1167.59   3
  -2  -5  -7 4754.06 1822.21   3
  -2   5  -7 9361.05 2485.87   3
  -2   5  -8 491.893 1251.43   3
   2   6  -8 7981.24 2148.98   1
  -2   6   7 16666.4 2518.72   2
   2   6  -7 12672.9 2399.72   1
  -2   6   6 26269.3 2883.47   2
   2  -6  -6 33249.1 3660.71   1
  -2   6   5 84642.9 4726.62   2
   2  -6  -5 88613.8 5473.08   1
   2  -6  -4 100185. 5319.81   1
  -2   6   4 96997.4 4758.82   2
  -2  -6   3 116013. 2979.87   2
   2  -6  -3 125138. 5479.58   1
  -2   6   3 124119. 5042.11   2
  -2   6   2 96168.8 3859.53   3
   2  -6  -2 103340. 4452.94   1
  -2   6   1 110504. 4291.27   3
  -2  -6   1 113761. 3276.99   3
  -2  -6   0 46511.4 2380.93   3
  -2   6   0 47115.5 2714.50   3
  -2   6  -1 179109. 6263.00   3
  -2   6  -2 78601.2 4068.66   3
  -2   6  -3 81253.1 4489.32   3
  -2   6  -4 29270.8 2972.01   3
  -2   6  -5 47079.1 4041.75   3
  -2   6  -6 10636.2 2319.54   3
  -2  -6  -7 25574.2 3821.36   3
  -2   6  -7 25712.0 3424.28   3
  -2   7   8 6547.03 1856.32   2
   2   7  -8 5004.58 1720.40   1
  -2   7   7 28511.6 3296.61   2
  -2   7   6 40878.1 3669.90   2
  -2   7   5 17240.0 2210.84   2
   2  -7  -5 23997.8 3019.72   1
   2  -7  -4 67867.9 4446.61   1
  -2   7   4 71767.1 4074.06   2
  -2   7   3 115604. 5008.25   2
  -2   7   2 17309.9 1645.27   3
  -2   7   1 62612.0 3164.01   3
  -2  -7   1 63901.8 2315.17   3
  -2   7   0 5233.73 1097.54   3
  -2   7   0 4726.84 813.387   1
  -2   7  -1 110252. 4934.74   3
  -2   7  -2 3930.82 1213.90   3
  -2   7  -3 47466.3 3400.23   3
  -2   7  -4 787.356 1032.37   3
  -2   7  -5 21559.4 2771.53   3
  -2   7  -6 1472.59 1091.79   3
  -2   7  -7 8323.35 2071.44   3
  -2  -7  -7 10989.2 2567.55   3
  -2   8   8 1506.52 1155.01   2
   2   8  -8 1133.19 1125.39   1
  -2   8   7 18812.8 2755.92   2
  -2   8   6 40197.2 3749.42   2
  -2   8   5 11503.8 1769.39   2
  -2   8   4 22390.4 2274.72   2
  -2   8   3 44952.1 3074.30   2
  -2   8   2 264174. 7695.54   3
  -2  -8   2 268363. 5773.14   2
  -2   8   1 174151. 5903.76   3
  -2  -8   1 180429. 5331.09   2
  -2  -8   1 171692. 4601.49   3
  -2   8   0 8554.42 1274.41   3
  -2   8   0 8714.93 1122.04   1
  -2   8  -1 150666. 4373.26   1
  -2   8  -1 141101. 5650.08   3
  -2   8  -2 177031. 4157.79   1
  -2   8  -2 221160. 7321.88   3
  -2   8  -3 88588.2 4847.02   3
  -2   8  -4-909.185 1008.83   3
  -2   8  -5 32952.1 3329.21   3
  -2   8  -6 30629.7 3602.55   3
  -2   8  -7 6236.24 1893.95   3
  -2   9   8 2662.28 1359.61   2
  -2   9   7 52944.5 4644.60   2
  -2   9   6 5613.24 1553.10   2
  -2   9   5 6886.35 1465.90   2
  -2   9   4 10089.2 1642.05   2
  -2   9   3 161390. 6411.17   2
  -2   9   2 29847.5 2484.83   2
  -2   9   1 16732.4 1723.31   3
  -2  -9   1 19824.4 1496.05   2
  -2   9   0 16062.5 1755.75   3
  -2   9  -1 129904. 5414.79   3
  -2   9  -1 141720. 4432.35   1
  -2   9  -2 190.048 992.263   3
  -2   9  -2 1956.73 552.108   1
  -2   9  -3 27287.3 2619.93   3
  -2   9  -4 351.206 851.642   3
  -2   9  -5 15904.4 2443.35   3
  -2   9  -6 2935.38 1671.46   3
  -2   9  -7 16607.3 2873.99   3
  -2  10   8 3703.51 1586.99   2
  -2  10   7 8640.91 2071.34   2
  -2  10   6 111427. 6476.39   2
  -2  10   5 4545.23 1305.52   2
  -2  10   4 13126.5 1872.82   2
  -2  10   3 11305.3 1682.99   2
  -2 -10   2 178268. 2273.59   3
  -2  10   2 252805. 7225.76   2
  -2 -10   1 42762.2 2252.75   2
  -2  10   1 38333.4 2674.49   3
  -2  10   0 1840.02 804.163   3
  -2  10  -1 39165.4 2249.47   1
  -2  10  -1 34849.5 2815.49   3
  -2  10  -2 251733. 8671.07   3
  -2  10  -3 24411.9 2558.06   3
  -2  10  -4 582.321 1060.74   3
  -2  10  -5 9847.32 2060.95   3
  -2  10  -6 96749.5 6226.18   3
  -2  10  -7 3299.39 1425.79   3
  -2  11   8 810.486 1041.50   2
  -2  11   7 66346.4 5397.96   2
  -2  11   6-1559.10 1086.28   2
  -2  11   5 1178.66 863.451   2
  -2  11   4 6333.19 1438.76   2
  -2  11   3 132073. 5965.78   2
  -2 -11   2 1192.67 259.263   3
  -2  11   2 4003.39 1118.49   2
  -2 -11   1 15828.4 1294.75   2
  -2  11   1 18348.4 2012.67   3
  -2  11   0-147.039 825.945   3
  -2  11  -1 146043. 4962.33   1
  -2  11  -1 143799. 5887.69   3
  -2  11  -2 2370.37 1304.87   3
  -2  11  -3 18713.9 2372.92   3
  -2  11  -4 36.8261 970.273   3
  -2  11  -5 22588.9 2910.33   3
  -2  11  -6 384.750 1062.92   3
  -2  11  -7 9182.36 2275.07   3
  -2  12   8 1675.95 1193.08   2
  -2  12   7 2746.95 1401.49   2
  -2  12   6 83945.1 5778.62   2
  -2  12   5 7009.91 1518.24   2
  -2  12   4 1868.38 836.760   2
  -2  12   3 6734.12 1457.42   2
  -2  12   2 293059. 9522.09   2
  -2  12   1 7363.18 1432.34   3
  -2 -12   1 5592.89 767.236   2
  -2  12   0 2907.77 1188.33   3
  -2  12  -1 2780.50 1272.46   3
  -2  12  -2 251699. 8746.36   3
  -2  12  -3 4063.31 1445.83   3
  -2  12  -4 3717.14 1362.27   3
  -2  12  -5 90.2516 929.997   3
  -2  12  -6 70075.5 5415.26   3
  -2  12  -7-1302.74 1245.30   3
  -2  13   7 49342.7 4744.44   2
  -2  13   6 2193.56 1283.70   2
  -2  13   5 900.988 795.046   2
  -2  13   4 17251.3 2356.39   2
  -2  13   3 98568.7 5324.79   2
  -2  13   2 5789.27 1438.36   2
  -2  13   1 12534.2 1765.52   3
  -2  13   0 1359.61 919.534   3
  -2  13  -1 135950. 6046.94   3
  -2  13  -2 3899.45 1608.93   3
  -2  13  -3 19063.8 2391.56   3
  -2  13  -4 33.0457 986.363   3
  -2  13  -5 19151.8 2824.41   3
  -2  13  -6 1536.31 1372.30   3
  -2  13  -7 9639.68 2403.91   3
  -2  14   7-430.930 1106.28   2
  -2  14   6 85046.2 6054.68   2
  -2  14   5 6518.67 1647.75   2
  -2  14   4 5078.46 1313.06   2
  -2  14   3 20706.5 2449.75   2
  -2  14   2 182660. 7375.35   2
  -2  14   1 25795.0 2556.24   3
  -2  14   0 3913.23 1299.80   3
  -2  14  -1 25499.8 2606.86   3
  -2  14  -2 198218. 7932.98   3
  -2  14  -3 17980.7 2400.44   3
  -2  14  -4 2073.05 1271.08   3
  -2  14  -5 7290.12 1886.61   3
  -2  14  -6 45465.7 4485.36   3
  -2  14  -7 4373.40 1923.41   3
  -2  15   7 24852.9 3490.01   2
  -2  15   6 6502.41 1706.17   2
  -2  15   5 3265.91 1396.97   2
  -2  15   4 10189.2 1899.67   2
  -2  15   3 121920. 6254.80   2
  -2  15   2 19339.8 2333.53   2
  -2  15   1 29705.0 2763.54   3
  -2  15   0 2966.15 1268.09   3
  -2  15  -1 52405.8 3787.50   3
  -2  15  -2 4262.12 1587.51   3
  -2  15  -3 20127.2 2541.31   3
  -2  15  -4 1834.88 1249.77   3
  -2  15  -5 15622.7 2592.33   3
  -2  15  -6-252.762 1208.06   3
  -2  15  -7 6563.03 2112.49   3
  -2  16   7 2646.99 1239.16   2
  -2  16   6 23736.8 3238.90   2
  -2  16   5 14309.6 2354.04   2
  -2  16   4 5131.69 1572.10   2
  -2  16   3 34100.5 3293.03   2
  -2  16   2 121416. 6039.82   2
  -2  16   1 51715.2 3630.57   3
  -2  16   1 49535.6 3833.83   2
  -2  16   0 9629.86 1767.67   3
  -2  16  -1 91322.8 5042.65   3
  -2  16  -2 100672. 5570.16   3
  -2  16  -3 45061.9 3845.46   3
  -2  16  -4 3071.77 1248.62   3
  -2  16  -5 10514.3 2130.80   3
  -2  16  -6 19871.6 3031.87   3
  -2  17   6 8582.59 2001.25   2
  -2  17   5 15402.1 2507.97   2
  -2  17   4 9480.96 1920.25   2
  -2  17   3 34628.9 3425.04   2
  -2  17   2 8903.01 1705.58   2
  -2  17   1 36695.2 3421.21   2
  -2  17   0 21004.6 2554.26   3
  -2  17  -1 38378.9 3339.94   3
  -2  17  -2 5322.95 1510.94   3
  -2  17  -3 21158.1 2735.51   3
  -2  17  -4 835.574 1009.21   3
  -2  17  -5 16683.4 2624.11   3
  -2  17  -6 695.289 1149.85   3
  -2  18   6 10279.6 2354.33   2
  -2  18   5 24138.5 3208.11   2
  -2  18   4 30941.5 3440.57   2
  -2  18   3 38224.7 3640.41   2
  -2  18   2 14968.4 2285.73   2
  -2  18   1 45131.6 3790.91   2
  -2  18   0 18867.2 2403.78   3
  -2  18  -1 24338.4 2783.10   3
  -2  18  -2 44493.5 3777.09   3
  -2  18  -3 35315.0 3533.39   3
  -2  18  -4 24994.2 3131.34   3
  -2  18  -5 22654.6 3112.90   3
  -2  18  -6 4445.51 1544.98   3
  -2  19   6 4772.32 1652.26   2
  -2  19   5 34822.3 3943.55   2
  -2  19   4 6395.59 1589.30   2
  -2  19   3 12756.7 2222.98   2
  -2  19   2 7283.96 1700.70   2
  -2  19   1 21778.2 2764.35   2
  -2  19   0 8487.88 1845.18   3
  -2  19  -1 35214.6 3293.60   3
  -2  19  -2 2496.78 1245.10   3
  -2  19  -3 31344.0 3357.47   3
  -2  19  -4 4156.13 1617.88   3
  -2  19  -5 8449.07 2148.48   3
  -2  19  -6-1568.89 1417.75   3
  -2  20   5 12034.7 2391.18   2
  -2  20   4 31453.3 3597.08   2
  -2  20   3 25623.3 3123.69   2
  -2  20   2 9091.72 1868.94   2
  -2  20   1 30265.5 3332.21   2
  -2  20   0 104192. 5807.84   3
  -2  20  -1 9840.48 1971.08   3
  -2  20  -2 510.201 1086.28   3
  -2  20  -3 21055.5 2897.01   3
  -2  20  -4 27850.4 3501.05   3
  -2  20  -5 14469.9 2681.63   3
  -2  21   5 38880.0 4309.58   2
  -2  21   4 1566.32 1127.44   2
  -2  21   3 3639.92 1514.94   2
  -2  21   2 437.861 761.221   2
  -2  21   1 56460.7 4436.70   2
  -2  21   0 2966.10 1419.25   2
  -2  21   0 6774.61 1953.55   3
  -2  21  -1 14771.4 2388.74   3
  -2  21  -2 6192.71 1698.88   3
  -2  21  -3 14342.2 2389.03   3
  -2  21  -4 4235.97 1685.59   3
  -2  21  -5 12919.3 2548.33   3
  -2  22   4 50886.6 4826.62   2
  -2  22   3 1181.38 893.614   2
  -2  22   2 740.988 1037.54   2
  -2  22   1 3128.58 1291.88   2
  -2  22   0 91838.3 5982.34   2
  -2  22  -1 11250.3 2104.33   3
  -2  22  -2-200.712 985.712   3
  -2  22  -3 9775.17 2189.19   3
  -2  22  -4 45121.9 4437.79   3
  -2  22  -5 1699.53 1312.16   3
  -2  23   4 203.567 939.531   2
  -2  23   3 4798.60 1610.26   2
  -2  23   2 251.654 796.794   2
  -2  23   1 48059.7 4394.89   2
  -2  23   0 2047.07 1022.59   2
  -2  23  -1 6906.16 1952.31   3
  -2  23  -2-80.6952 1159.89   3
  -2  23  -3 12430.9 2327.82   3
  -2  23  -4 2810.31 1558.99   3
  -2  24   3 1266.11 1313.46   2
  -2  24   2 2284.16 1485.67   2
  -2  24   1-167.454 910.196   2
  -2  24   0 84192.1 5820.97   2
  -2  24  -1-479.666 827.221   2
  -2  24  -1-1875.24 1416.57   3
  -2  24  -2 160.962 1012.11   3
  -2  24  -3 545.305 1328.66   3
  -2  24  -4 36360.4 4057.46   3
  -2  25   3 2007.66 1344.25   2
  -2  25   2 1311.78 1064.47   2
  -2  25   1 29418.3 3648.81   2
  -2  25   0 1691.93 1504.77   2
  -2  25  -1 5167.28 1784.89   2
  -2  25  -2-763.240 1046.85   3
  -2  25  -3 19381.8 2996.17   3
  -2  26   2 156.594 907.541   2
  -2  26   1 373.426 757.737   2
  -2  26   0 39346.8 4186.24   2
  -2  26  -1 3500.22 1541.36   2
  -2  26  -2-523.308 949.083   3
  -2  26  -2 335.055 704.159   2
  -2  27   1 19281.2 3103.25   2
  -2  27   0 1320.11 961.184   2
  -2  27  -1 6352.34 1979.91   2
  -2  27  -2 562.931 745.527   2
  -2  28  -1 8926.24 2140.40   2
  -2  28  -2 1578.57 1147.59   2
   3   0  -7 74506.1 5950.29   1
   3   0  -6-430.533 1464.58   1
   3   0  -5-973.619 1401.14   1
  -3   0   4-10.3898 403.853   2
   3   0  -4-495.118 1150.01   1
   3   0  -3 155345. 6816.98   1
  -3   0   3 174289. 5932.21   2
  -3   0   2 1071.69 571.997   3
  -3   0   1 2278.21 745.041   3
  -3   0   0 206.502 602.953   3
  -3   0  -1 125638. 5303.04   3
  -3   0  -2 386.822 1188.05   3
  -3   0  -3 5284.70 1524.27   3
  -3   0  -4 921.217 1116.46   3
  -3   0  -5 21857.4 3170.26   3
  -3   0  -6 3726.09 1681.48   3
   3   1  -7 512.201 1363.07   1
   3  -1  -7 1824.80 1469.22   1
   3   1  -6 85811.3 5951.70   1
   3  -1  -6 90541.9 6151.34   1
   3  -1  -5 890.255 1156.17   1
   3   1  -5 1892.49 1198.34   1
  -3   1   4-939.512 551.403   2
  -3  -1   4-448.672 437.403   2
   3   1  -4 516.672 990.322   1
   3  -1  -4-497.287 1140.29   1
   3  -1  -3 961.328 1012.85   1
  -3  -1   3 1662.22 652.747   2
  -3   1   3 624.392 590.438   2
  -3  -1   2 254526. 6701.48   3
  -3   1   2 255116. 7054.36   3
   3  -1  -2 249303. 8214.64   1
  -3  -1   1 32.2215 544.004   3
  -3   1   1 364.777 533.857   3
  -3  -1   0 1689.07 651.111   3
  -3   1   0 2520.92 835.354   3
   3  -1   0 568.220 462.641   1
   3  -1   1 20651.5 1227.35   1
  -3  -1  -1 23404.0 2275.53   3
  -3   1  -1 21802.6 2114.21   3
  -3  -1  -2 131428. 5905.13   3
  -3   1  -2 124183. 5781.23   3
  -3  -1  -3 11158.4 2009.38   3
  -3   1  -3 11365.4 1921.83   3
  -3  -1  -4 2995.87 1174.42   3
  -3   1  -4 2297.80 1363.49   3
  -3  -1  -5 1104.34 1293.84   3
  -3   1  -5 1063.88 1397.27   3
  -3  -1  -6 46185.1 4804.75   3
  -3   1  -6 56878.0 5212.81   3
   3  -2  -7 64020.5 5579.11   1
   3   2  -7 60990.4 5401.06   1
   3  -2  -6 10388.2 2065.62   1
   3   2  -6 8028.93 2080.45   1
   3  -2  -5-1470.35 1285.40   1
   3   2  -5-1201.21 1470.72   1
  -3   2   5 753.642 567.243   2
   3  -2  -4 11744.1 2140.55   1
  -3   2   4 10515.7 1472.83   2
  -3  -2   3 124250. 4614.41   2
  -3   2   3 125376. 5196.01   2
   3  -2  -3 119233. 5757.60   1
  -3  -2   2 15188.0 1296.76   3
  -3   2   2 13779.7 1460.86   3
   3  -2  -2 15371.4 1818.46   1
  -3  -2   1 10306.9 1247.75   3
  -3   2   1 11985.3 1421.24   3
   3  -2  -1 8550.25 1298.44   1
   3  -2   0 8066.88 996.969   1
  -3  -2   0 8118.83 1199.69   3
  -3   2   0 6685.94 1161.15   3
   3  -2   1 117680. 3248.04   1
  -3  -2  -1 129887. 5301.89   3
  -3   2  -1 119950. 5206.95   3
  -3  -2  -2 1341.01 1145.20   3
  -3   2  -2 3753.93 1515.76   3
  -3  -2  -3 4407.37 1351.91   3
  -3   2  -3 3127.69 1274.36   3
  -3  -2  -4 243.129 993.367   3
  -3   2  -4-56.2483 910.787   3
  -3  -2  -5 18224.9 2898.24   3
  -3   2  -5 19662.7 2917.80   3
  -3  -2  -6 3729.85 2226.96   3
  -3   2  -6 3792.39 1981.60   3
   3  -3  -7 4295.78 1782.68   1
   3   3  -7 2540.51 1699.91   1
   3  -3  -6 45709.7 4435.48   1
   3   3  -6 48568.5 4561.68   1
   3  -3  -5 9217.46 2073.64   1
  -3   3   5 10571.4 1623.54   2
   3  -3  -4 1193.63 1094.52   1
  -3   3   4 2507.52 916.319   2
  -3  -3   3 33676.3 2154.88   2
  -3   3   3 33891.7 2612.63   2
   3  -3  -3 30814.9 2903.45   1
  -3  -3   2 128488. 3964.22   3
  -3   3   2 128791. 4694.71   3
   3  -3  -2 119430. 5288.86   1
   3  -3  -1 33796.0 2386.36   1
  -3  -3   1 33609.4 2088.32   3
  -3   3   1 32396.4 2376.59   3
   3  -3   0 3523.18 806.432   1
  -3  -3   0 2598.58 827.584   3
  -3   3   0 3445.73 1098.79   3
  -3  -3  -1 38860.0 2851.20   3
  -3   3  -1 40716.6 3041.48   3
  -3  -3  -2 186291. 7179.94   3
  -3   3  -2 171209. 6924.54   3
  -3  -3  -3 31101.5 3144.83   3
  -3   3  -3 26851.6 2868.58   3
  -3  -3  -4 688.540 997.936   3
  -3   3  -4 483.986 1230.21   3
  -3  -3  -5 10186.2 2349.72   3
  -3   3  -5 7790.61 1998.19   3
  -3  -3  -6 33891.4 4218.57   3
  -3   3  -6 27483.8 3723.11   3
   3  -4  -7 38154.8 4287.75   1
   3   4  -7 34194.2 4008.18   1
   3  -4  -6 25875.6 3505.65   1
   3   4  -6 20258.5 3046.79   1
   3  -4  -5 7498.84 1996.82   1
  -3   4   5 5807.31 1239.14   2
   3  -4  -4 52332.6 4102.98   1
  -3   4   4 55348.3 3548.20   2
  -3  -4   3 105484. 3914.82   2
  -3   4   3 99844.8 4774.89   2
   3  -4  -3 101111. 5315.63   1
  -3  -4   2 43079.0 1992.16   3
  -3   4   2 40294.0 2580.60   3
   3  -4  -2 42244.6 3048.39   1
   3  -4  -1 10527.1 1469.23   1
  -3  -4   1 9049.93 1090.74   3
  -3   4   1 10233.3 1398.60   3
  -3  -4   0 12760.7 1440.65   3
  -3   4   0 10330.0 1492.98   3
  -3  -4  -1 59140.8 3510.24   3
  -3   4  -1 63615.2 3801.68   3
  -3  -4  -2 2229.85 1206.55   3
  -3   4  -2 5183.24 1490.59   3
  -3  -4  -3 26153.9 3019.80   3
  -3   4  -3 23460.9 2865.29   3
  -3  -4  -4 2143.40 1383.45   3
  -3   4  -4 2033.06 1225.97   3
  -3  -4  -5 18879.0 3092.97   3
  -3   4  -5 18747.5 2905.17   3
  -3  -4  -6 2749.25 1683.96   3
  -3   4  -6 3767.19 1731.79   3
   3   5  -7 10048.3 2492.62   1
   3  -5  -7 14436.4 2934.00   1
   3  -5  -6 29359.3 3557.81   1
   3  -5  -5 20042.8 3016.37   1
  -3   5   5 21550.7 2364.58   2
   3  -5  -4 15725.5 2402.24   1
  -3   5   4 16711.6 2010.93   2
   3  -5  -3 30867.3 2990.73   1
  -3   5   3 30909.2 2672.93   2
  -3   5   2 79459.7 3867.90   3
   3  -5  -2 80624.4 4291.75   1
  -3  -5   2 79894.9 2727.75   3
  -3   5   1 98019.9 4491.90   3
   3  -5  -1 91382.3 4081.11   1
  -3  -5   1 94349.5 3559.42   3
  -3  -5   0 22076.1 1895.24   3
  -3   5   0 19765.5 2091.11   3
  -3  -5  -1 62442.1 3664.59   3
  -3   5  -1 63130.7 3933.30   3
  -3  -5  -2 63143.4 4066.72   3
  -3   5  -2 60211.2 4042.35   3
  -3  -5  -3 36290.0 3491.96   3
  -3   5  -3 34381.7 3167.49   3
  -3  -5  -4 10363.5 2302.17   3
  -3   5  -4 6720.97 1710.18   3
  -3  -5  -5 24812.0 3503.41   3
  -3   5  -5 26026.2 3394.53   3
  -3  -5  -6 12651.6 2815.85   3
  -3   5  -6 12833.9 2641.14   3
   3  -6  -7 8368.18 2310.64   1
   3   6  -7 5784.28 1891.20   1
  -3   6   6 20032.5 2478.46   2
   3  -6  -6 20000.7 3064.84   1
   3  -6  -5 17546.4 2797.23   1
  -3   6   5 11783.2 1851.04   2
   3  -6  -4 23039.3 2901.62   1
  -3   6   4 24231.3 2466.52   2
   3  -6  -3 66331.0 4291.52   1
  -3   6   3 64287.8 3939.56   2
  -3   6   2 26992.7 2231.41   3
   3  -6  -2 26225.1 2524.67   1
  -3   6   1 62464.6 3596.84   3
  -3  -6   1 58119.5 2655.56   3
  -3  -6   0 24487.3 1986.54   3
  -3   6   0 24882.4 2335.24   3
  -3  -6  -1 28361.1 2457.18   3
  -3   6  -1 25743.1 2582.65   3
  -3  -6  -2 16893.4 2268.91   3
  -3   6  -2 18008.0 2347.58   3
  -3  -6  -3 26695.0 3078.54   3
  -3   6  -3 31713.0 3125.29   3
  -3  -6  -4 2992.72 1396.60   3
  -3   6  -4 1970.39 1217.66   3
  -3  -6  -5 15395.7 2876.85   3
  -3   6  -5 10985.6 2298.25   3
  -3  -6  -6 412.961 1185.36   3
  -3   6  -6-268.739 1156.42   3
  -3   7   6 10923.8 1952.87   2
   3  -7  -5 22240.0 2980.95   1
  -3   7   5 20618.3 2427.48   2
   3  -7  -4 88099.7 5401.23   1
  -3   7   4 86806.9 4905.29   2
   3  -7  -3 53082.1 3851.38   1
  -3   7   3 46241.1 3374.86   2
  -3   7   2 19465.4 1930.74   3
  -3   7   1 56039.4 3414.51   3
  -3  -7   1 54835.4 2540.07   3
  -3  -7   0 48908.3 2808.16   3
  -3   7   0 45263.4 3186.59   3
  -3  -7  -1 42909.9 3066.26   3
  -3   7  -1 45608.9 3392.91   3
  -3  -7  -2 12351.1 1975.34   3
  -3   7  -2 14347.3 2071.69   3
  -3  -7  -3 39621.6 3787.62   3
  -3   7  -3 44397.0 3730.91   3
  -3  -7  -4 24702.3 3316.55   3
  -3   7  -4 25585.9 2966.70   3
  -3  -7  -5 18176.7 2973.35   3
  -3   7  -5 16772.7 2629.68   3
  -3  -7  -6 1074.05 1253.45   3
  -3   7  -6-79.2741 1140.09   3
  -3   8   6 12949.1 2182.65   2
  -3   8   5 87547.3 5170.27   2
  -3   8   4 13277.5 1939.20   2
  -3   8   3 5964.30 1310.12   2
  -3   8   2 19592.8 2021.70   3
  -3   8   1 74167.2 4030.63   3
  -3  -8   1 71621.3 2973.30   3
  -3  -8   0 22075.6 1969.01   3
  -3   8   0 19179.1 2218.75   3
  -3  -8  -1 20734.5 2202.35   3
  -3   8  -1 22343.1 2484.75   3
  -3  -8  -2 10852.5 1891.93   3
  -3   8  -2 11858.5 1979.46   3
  -3  -8  -3 28478.6 3312.86   3
  -3   8  -3 28581.5 3059.18   3
  -3  -8  -4 2501.71 1358.88   3
  -3   8  -4 3366.64 1519.54   3
  -3  -8  -5 10181.1 2480.55   3
  -3   8  -5 10558.0 2199.75   3
  -3  -8  -6 182.856 1365.71   3
  -3   8  -6-603.378 1321.33   3
  -3   9   6 2889.55 1267.38   2
  -3   9   5 23810.3 2770.96   2
  -3   9   4 71271.0 4564.15   2
  -3   9   3 35563.4 3074.55   2
  -3   9   2 2495.88 935.843   3
  -3   9   1 15494.5 2013.31   3
  -3  -9   1 16421.8 1393.52   3
  -3   9   0 149388. 6415.42   3
  -3  -9   0 161778. 5772.20   3
  -3   9  -1 12352.5 1892.06   3
  -3  -9  -1 17301.1 2054.78   3
  -3  -9  -2-340.076 942.099   3
  -3   9  -2 953.049 1118.89   3
  -3  -9  -3 9682.98 2141.32   3
  -3   9  -3 14038.4 2348.05   3
  -3  -9  -4 65491.3 5402.78   3
  -3   9  -4 65342.6 4991.85   3
  -3  -9  -5 5459.65 1871.24   3
  -3   9  -5 5618.18 1644.33   3
  -3  -9  -6-1154.25 1504.16   3
  -3   9  -6-2848.47 1278.76   3
  -3  10   7 434.505 880.430   2
  -3  10   6 6087.57 1709.45   2
  -3  10   5 81735.5 5223.95   2
  -3  10   4 3302.08 1186.53   2
  -3  10   3 2101.37 1113.14   2
  -3  10   2 2023.22 970.178   3
  -3  10   1 112981. 5285.73   3
  -3 -10   0 5840.75 1250.00   3
  -3  10   0 6891.42 1664.76   3
  -3 -10  -1 6563.89 1418.15   3
  -3  10  -1 8320.66 1646.80   3
  -3 -10  -2 1525.89 783.059   3
  -3  10  -2 1576.15 924.822   3
  -3 -10  -3 32397.6 3528.13   3
  -3  10  -3 33218.2 3408.63   3
  -3 -10  -4 4070.65 1857.81   3
  -3  10  -4 2837.27 1842.11   3
  -3 -10  -5 7839.95 2272.27   3
  -3  10  -5 7050.66 1927.62   3
  -3  11   7 1746.83 1141.33   2
  -3  11   6 466.491 805.012   2
  -3  11   5 1292.86 1031.97   2
  -3  11   4 64396.8 4591.21   2
  -3  11   3-172.640 601.712   2
  -3  11   2 135.133 723.454   3
  -3  11   1 5433.98 1462.51   3
  -3  11   0 199465. 7780.58   3
  -3 -11   0 202343. 6923.98   3
  -3 -11  -1 3021.94 1021.28   3
  -3  11  -1 3141.94 1308.94   3
  -3  11  -2 1835.15 983.597   3
  -3 -11  -2 1649.03 1010.77   3
  -3  11  -3 4349.02 1604.95   3
  -3 -11  -4 82817.0 6362.34   3
  -3  11  -4 96338.3 6240.00   3
  -3  11  -5 167.180 1199.72   3
  -3 -11  -5 1310.51 1207.72   3
  -3  12   7-228.131 818.242   2
  -3  12   6 37.4600 765.696   2
  -3  12   5 85743.4 5562.62   2
  -3  12   4 57.9207 918.504   2
  -3  12   3 2728.96 1061.31   2
  -3  12   2 130.954 701.551   3
  -3  12   1 109045. 5412.76   3
  -3 -12   0 1739.97 945.854   3
  -3  12   0 2214.82 1267.41   3
  -3  12  -1 7892.26 1672.45   3
  -3 -12  -1 6045.61 1315.65   3
  -3  12  -2 1382.24 1159.72   3
  -3  12  -3 31332.1 3369.64   3
  -3  12  -4 3746.49 1929.29   3
  -3  12  -5 4120.71 1493.73   3
  -3  13   7 287.400 1163.39   2
  -3  13   6 2271.64 1121.61   2
  -3  13   5-505.201 885.848   2
  -3  13   4 108239. 6299.35   2
  -3  13   3 9729.88 1851.71   2
  -3  13   2 2203.53 1097.02   3
  -3  13   1 4783.90 1588.98   3
  -3  13   0 127168. 6222.51   3
  -3 -13   0 137190. 5707.93   3
  -3  13  -1 1402.95 1020.60   3
  -3  13  -2 2452.73 1204.64   3
  -3  13  -3 2931.20 1504.48   3
  -3  13  -4 54817.8 4841.61   3
  -3  13  -5 212.765 1263.95   3
  -3  14   6 3418.32 1357.87   2
  -3  14   5 44693.1 4222.94   2
  -3  14   4 3897.38 1512.16   2
  -3  14   3 2829.40 1286.07   2
  -3  14   2-43.8059 802.285   2
  -3  14   1 78274.6 4798.72   3
  -3  14   0 9612.37 1846.08   3
  -3 -14   0 8371.12 1535.55   3
  -3  14  -1 3844.33 1391.69   3
  -3  14  -2 2692.12 1351.42   3
  -3  14  -3 33812.8 3549.38   3
  -3  14  -4 2341.13 1500.04   3
  -3  14  -5-2347.18 1511.99   3
  -3  15   6 3400.37 1394.68   2
  -3  15   5 9785.53 2000.26   2
  -3  15   4 55365.4 4576.15   2
  -3  15   3 4192.83 1351.44   2
  -3  15   2 2878.11 1169.67   2
  -3  15   1 13432.2 2170.84   3
  -3  15   0 83394.3 5124.94   3
  -3  15  -1 13569.3 2150.89   3
  -3  15  -2 2432.69 1253.75   3
  -3  15  -3 11524.6 2370.52   3
  -3  15  -4 33787.5 3771.95   3
  -3  15  -5 9938.20 2401.82   3
  -3  16   5 23011.0 3161.09   2
  -3  16   4 16798.2 2671.14   2
  -3  16   3 16393.2 2544.49   2
  -3  16   2 14149.0 2331.16   2
  -3  16   1 36695.4 3422.25   3
  -3  16   0 7159.22 1791.61   3
  -3  16  -1 4213.06 1457.03   3
  -3  16  -2 5412.91 1737.63   3
  -3  16  -3 28484.1 3476.15   3
  -3  16  -4 3802.27 1844.17   3
  -3  17   5 7709.69 1924.69   2
  -3  17   4 31430.0 3562.40   2
  -3  17   3 23712.7 3014.20   2
  -3  17   2 9631.52 1983.14   2
  -3  17   1 32637.4 3334.83   3
  -3  17   0 28461.6 3184.43   3
  -3  17  -1 19280.5 2708.69   3
  -3  17  -2 20694.4 2940.00   3
  -3  17  -3 18660.7 2926.98   3
  -3  17  -4 19006.7 3165.13   3
  -3  18   5 7609.65 1984.44   2
  -3  18   4 17841.8 2825.78   2
  -3  18   3 16734.8 2680.15   2
  -3  18   2 13507.4 2363.82   2
  -3  18   1 21300.1 2730.51   3
  -3  18   0 5791.12 1685.22   3
  -3  18  -1 25651.9 3054.50   3
  -3  18  -2 3907.16 1505.43   3
  -3  18  -3 13314.9 2598.44   3
  -3  18  -4 4244.11 1802.08   3
  -3  19   4 8596.39 2050.74   2
  -3  19   3 7665.03 1937.70   2
  -3  19   2 25196.5 3252.02   2
  -3  19   1 12400.5 2293.80   3
  -3  19   1 11155.8 2264.84   2
  -3  19   0 7822.47 1778.24   3
  -3  19  -1 35750.6 3692.00   3
  -3  19  -2 22818.5 3123.66   3
  -3  19  -3 23057.8 3312.73   3
  -3  20   3 27690.7 3535.45   2
  -3  20   2 7204.33 1805.51   2
  -3  20   1 2718.55 1225.82   2
  -3  20   0 12970.4 2344.78   3
  -3  20  -1 31282.2 3489.65   3
  -3  20  -2 2260.88 1470.66   3
  -3  20  -3 8611.51 2154.12   3
  -3  21   3 7364.03 1972.83   2
  -3  21   2 55045.9 4909.35   2
  -3  21   1 6560.09 1897.38   2
  -3  21   0-52.6899 867.888   3
  -3  21  -1 9156.01 2185.52   3
  -3  21  -2 25170.5 3363.54   3
  -3  22   2 3017.33 1486.26   2
  -3  22   1 5858.11 1811.00   2
  -3  22   0-2589.71 1402.20   3
  -3  22  -1 20630.6 3087.32   3
  -3  23   0 40.3485 1014.04   2
   4   0  -5 4105.65 1642.92   1
   4   0  -4 54331.5 4402.60   1
   4   0  -3-147.366 1032.89   1
   4   0  -2-617.207 897.897   1
  -4   0   1 6502.85 1386.51   3
  -4   0   0 87314.7 4813.18   3
  -4   0  -1-689.297 830.130   3
  -4   0  -2 4604.09 1412.71   3
  -4   0  -3 4751.25 1680.27   3
  -4   0  -4 40661.0 4155.79   3
   4   1  -5 75901.5 5717.89   1
   4  -1  -5 70522.4 5435.05   1
   4  -1  -4 4676.94 1597.58   1
   4   1  -4 2422.76 1279.58   1
   4  -1  -3-920.366 1109.09   1
   4   1  -3 307.394 1002.33   1
   4  -1  -2 1994.60 895.234   1
   4   1  -2 1824.74 901.603   1
  -4  -1   1 96159.4 4454.56   3
  -4   1   1 96215.8 4681.82   3
  -4  -1   0 12921.0 1993.57   3
  -4   1   0 7808.17 1712.59   3
  -4  -1  -1 589.794 740.969   3
  -4   1  -1-559.900 929.894   3
  -4  -1  -2 2298.52 1112.24   3
  -4   1  -2 863.092 876.409   3
  -4  -1  -3 25171.9 3083.10   3
  -4   1  -3 23192.6 2902.31   3
  -4  -1  -4 9385.77 2267.50   3
  -4   1  -4 10492.3 2450.44   3
   4   2  -5 7686.17 2058.86   1
   4  -2  -5 5901.03 1897.07   1
   4   2  -4 64110.7 4863.88   1
   4  -2  -4 54205.9 4490.26   1
   4  -2  -3 2046.22 1160.77   1
   4   2  -3 3531.87 1253.35   1
   4  -2  -2-204.761 739.730   1
  -4   2   1 19683.3 2189.00   3
  -4  -2   0 86926.8 4532.40   3
  -4   2   0 82004.6 4594.82   3
  -4  -2  -1 7351.63 1532.20   3
  -4   2  -1 4556.24 1403.07   3
  -4  -2  -2 1588.39 1009.82   3
  -4   2  -2-1543.98 1177.61   3
  -4  -2  -3 8591.42 2135.35   3
  -4   2  -3 7692.16 1934.67   3
  -4  -2  -4 29765.4 3701.37   3
  -4   2  -4 30380.3 3658.11   3
   4  -3  -5 48867.1 4553.36   1
   4   3  -5 45514.4 4472.78   1
   4   3  -4 11354.3 2341.31   1
   4  -3  -4 11026.7 2225.62   1
   4  -3  -3 1343.98 1204.06   1
   4  -3  -2 5500.94 1334.44   1
  -4   3   1 69797.1 4084.44   3
  -4  -3   0 13518.7 1805.95   3
  -4   3   0 9857.57 1836.16   3
  -4  -3  -1 4454.49 1324.68   3
  -4   3  -1 3713.86 1289.27   3
  -4  -3  -2 6614.89 1599.47   3
  -4   3  -2 7376.85 1750.92   3
  -4  -3  -3 23886.6 3009.32   3
  -4   3  -3 25732.0 3110.30   3
  -4  -3  -4 8559.43 2177.04   3
  -4   3  -4 8157.81 2016.70   3
   4   4  -5 5194.87 1965.02   1
   4  -4  -5 5904.66 1856.01   1
   4  -4  -4 28352.1 3261.56   1
   4  -4  -3 14983.3 2297.64   1
  -4   4   2 8486.18 1421.88   3
   4  -4  -2 10453.5 1730.01   1
  -4   4   1 19141.6 2216.27   3
  -4  -4   0 62016.9 3697.35   3
  -4   4   0 65291.3 4168.28   3
  -4  -4  -1 16800.2 2133.49   3
  -4   4  -1 16354.5 2348.05   3
  -4  -4  -2 3965.34 1319.40   3
  -4   4  -2 4915.02 1389.24   3
  -4  -4  -3 18032.2 2726.73   3
  -4   4  -3 18724.4 2820.89   3
  -4  -4  -4 16545.5 2760.43   3
  -4   4  -4 21747.0 3169.45   3
   4  -5  -5 19163.6 3061.79   1
   4  -5  -4 18925.6 2801.82   1
  -4   5   4 16382.9 2175.29   2
   4  -5  -3 26448.1 2882.26   1
  -4   5   2 20984.9 2115.80   3
  -4   5   1 24613.8 2534.73   3
  -4  -5   0 23301.8 2226.20   3
  -4   5   0 28448.7 2798.71   3
  -4  -5  -1 8069.21 1682.77   3
  -4   5  -1 12576.8 2091.36   3
  -4  -5  -2 9384.18 1868.81   3
  -4   5  -2 7376.99 1822.43   3
  -4   5  -3 21997.8 2953.63   3
  -4  -5  -3 23115.3 3062.59   3
  -4  -5  -4 3292.44 1610.79   3
  -4   5  -4 2244.26 1413.05   3
   4  -6  -5 5464.36 1947.84   1
  -4   6   4 24159.0 2689.81   2
   4  -6  -4 24219.4 3064.26   1
   4  -6  -3 28061.8 2980.62   1
  -4   6   3 25799.3 2767.25   2
  -4   6   2 17545.2 2097.73   3
  -4   6   1 20732.4 2307.65   3
  -4   6   0 13983.1 2064.18   3
  -4   6  -1 19940.4 2496.79   3
  -4  -6  -1 21150.4 2430.51   3
  -4  -6  -2 13241.7 2291.29   3
  -4   6  -2 15901.5 2441.29   3
  -4  -6  -3 20359.7 2889.64   3
  -4   6  -3 18927.8 2859.43   3
  -4  -6  -4 8521.15 2105.86   3
  -4   6  -4 6106.46 1903.74   3
  -4   7   4 34212.7 3248.25   2
  -4   7   3 37881.2 3487.76   2
  -4   7   2 28507.2 2651.89   3
  -4   7   1 10579.5 1846.39   3
  -4   7   0 14757.1 2176.81   3
  -4  -7  -1 22773.5 2576.38   3
  -4   7  -1 22776.0 2702.91   3
  -4  -7  -2 10356.6 2113.30   3
  -4   7  -2 7477.46 1824.40   3
  -4  -7  -3 12166.5 2327.99   3
  -4   7  -3 7753.03 1921.98   3
  -4  -7  -4 2092.67 1202.86   3
  -4   7  -4 2885.44 1372.21   3
  -4   8   4 9021.97 1779.27   2
  -4   8   3 9753.48 1898.91   2
  -4   8   2 40293.4 3216.53   3
  -4   8   1 16291.2 2152.33   3
  -4   8   0 5232.69 1408.07   3
  -4  -8  -1 25460.5 2717.25   3
  -4   8  -1 24311.6 2842.30   3
  -4  -8  -2 28245.2 3126.17   3
  -4   8  -2 30274.2 3327.96   3
  -4  -8  -3 8664.56 1966.71   3
  -4   8  -3 10351.2 2175.59   3
  -4  -8  -4 359.374 1075.21   3
  -4   8  -4 1122.32 1423.42   3
  -4   9   5 1343.90 917.220   2
  -4   9   4 7049.81 1636.79   2
  -4   9   3 43894.0 3830.20   2
  -4   9   2 15116.4 2106.63   3
  -4   9   1 1348.26 1032.79   3
  -4   9   0 7917.41 1695.01   3
  -4  -9  -1 44767.1 3558.72   3
  -4   9  -1 41476.0 3725.03   3
  -4  -9  -2 7329.03 1826.90   3
  -4   9  -2 5657.89 1821.83   3
  -4  -9  -3 3248.81 1453.89   3
  -4   9  -3 153.521 1000.07   3
  -4  -9  -4-377.751 1257.22   3
  -4  10   5 2164.52 1127.00   2
  -4  10   4 1259.90 950.012   2
  -4  10   3 4759.38 1425.40   2
  -4  10   2 68507.7 4450.38   3
  -4  10   1 3972.21 1163.46   3
  -4  10   0 2952.46 1243.77   3
  -4  10  -1 13533.6 2325.81   3
  -4 -10  -2 43599.7 3983.00   3
  -4  10  -2 44207.9 4060.07   3
  -4 -10  -3 449.760 880.539   3
  -4  10  -3 1955.73 1492.22   3
  -4 -10  -4-1438.60 1300.88   3
  -4  11   5 1777.99 982.623   2
  -4  11   4 1152.91 1043.46   2
  -4  11   3 53432.5 4396.56   2
  -4  11   2 4993.44 1418.72   3
  -4  11   1 799.738 738.031   3
  -4  11   0 2007.21 977.931   3
  -4  11  -1 47937.3 4120.89   3
  -4 -11  -2 7106.49 2015.31   3
  -4  11  -2 8043.05 2156.86   3
  -4 -11  -3 409.701 1104.23   3
  -4  11  -3 1527.53 1172.71   3
  -4 -11  -4-1076.98 1268.74   3
  -4  12   5-291.604 554.832   2
  -4  12   4 90.0541 809.276   2
  -4  12   3 4470.42 1536.23   2
  -4  12   2 52238.0 4016.70   3
  -4  12   1 246.770 740.233   3
  -4  12   0 1383.50 1105.20   3
  -4  12  -1 6127.72 1794.53   3
  -4 -12  -2 46395.6 4291.08   3
  -4  12  -2 54155.0 4620.70   3
  -4 -12  -3 1473.51 1045.81   3
  -4  12  -3 2333.02 1481.49   3
  -4 -12  -4 1128.17 1498.02   3
  -4  13   5-215.348 658.775   2
  -4  13   4 2436.86 1100.68   2
  -4  13   3 45987.1 4200.76   2
  -4  13   2 11665.2 2185.75   3
  -4  13   1 298.288 1013.65   3
  -4  13   0 1520.61 1012.84   3
  -4  13  -1 44032.2 4163.51   3
  -4  13  -2 7086.42 2015.86   3
  -4 -13  -3-713.626 1222.64   3
  -4 -13  -4 3858.93 2082.31   3
  -4  14   4 559.958 1037.92   2
  -4  14   3 4348.70 1526.21   2
  -4  14   2 31665.9 3281.88   3
  -4  14   1 2740.71 1290.33   3
  -4  14   0-1.56339 930.055   3
  -4  14  -1 9395.30 2138.67   3
  -4  14  -2 32764.8 3795.76   3
  -4 -14  -3 4061.69 1840.95   3
  -4  15   3 40537.7 4108.60   2
  -4  15   2 11606.1 2350.82   2
  -4  15   1 1656.00 1231.78   3
  -4  15   0 4180.84 1506.46   3
  -4  15  -1 18430.9 2793.39   3
  -4 -15  -3 3890.63 1666.05   3
  -4  16   2 27925.1 3511.59   2
  -4  16   1 8844.72 2096.27   3
  -4  16   0 3639.61 1416.60   3
  -4  16  -1 11061.7 2330.78   3
  -4  17   1 8209.47 1916.21   3
  -4  17   0 8180.44 2051.84   3
  -4  18   1 10979.5 2198.61   3
  -5   0  -2 2647.35 1515.15   3
  -5  -1  -2 20769.9 2991.29   3
  -5   1  -2 20194.4 2984.18   3
  -5   2  -1 25002.8 3058.82   3
  -5  -2  -2 3137.69 1466.78   3
  -5   2  -2 1531.84 1427.59   3
  -5   3  -1 1696.29 1230.90   3
  -5   3  -2 15722.7 2707.62   3
  -5   4  -1 15389.3 2442.94   3
  -5   5  -1 7011.35 1681.12   3
  -5   6  -1 5233.00 1507.18   3
  -5   7   0 8495.94 1959.28   3
  -5   7  -1 2872.05 1325.40   3
  -5   8   0 6378.03 1808.60   3
  -5   9   0 17986.1 2686.40   3
   0   0   0    0.00    0.00   0
TITL exp_505 in P2(1)/n
REM P2(1)/n (#14 in standard setting)
CELL 0.71073   3.884019  23.163621   7.035930  90.0000  93.7115  90.0000
ZERR    1.00   0.000319   0.002067   0.000766   0.0000   0.0088   0.0000
LATT  1
SYMM -x+1/2, y+1/2,-z+1/2
SFAC C H N O Br Cd
UNIT 18.00 10.00 4.00 2.00 2.00 1.00
TREF
HKLF 4
END
;
_shelx_hkl_checksum              89329
loop_
_space_group_symop_operation_xyz
'x, y, z'
'-x+1/2, y+1/2, -z+1/2'
'-x, -y, -z'
'x-1/2, -y-1/2, z-1/2'
loop_
_atom_site_label
_atom_site_type_symbol
_atom_site_fract_x
_atom_site_fract_y
_atom_site_fract_z
_atom_site_U_iso_or_equiv
_atom_site_adp_type
_atom_site_occupancy
_atom_site_site_symmetry_order
_atom_site_calc_flag
_atom_site_refinement_flags_posn
_atom_site_refinement_flags_adp
_atom_site_refinement_flags_occupancy
Cd1 Cd 0.5000 0.0000 0.5000 0.0271(3) Uani 1 2 d S . P
Br1 Br 0.97167(17) 0.04210(3) 0.25991(10) 0.0320(3) Uani 1 1 d . . .
N1 N 0.5145(14) 0.0909(2) 0.6653(8) 0.0295(14) Uani 1 1 d . . .
N2 N 0.5936(18) 0.1901(3) 0.6549(9) 0.0395(17) Uani 1 1 d D . .
H21 H 0.66(2) 0.217(2) 0.582(10) 0.047 Uiso 1 1 d D U .
O1 O 0.4491(19) 0.2520(3) 0.8883(8) 0.063(2) Uani 1 1 d . . .
C1 C 0.6072(19) 0.1375(3) 0.5807(11) 0.0321(17) Uani 1 1 d . . .
H1 H 0.6887 0.1340 0.4598 0.039 Uiso 1 1 calc R U .
C2 C 0.466(2) 0.2014(4) 0.8311(11) 0.039(2) Uani 1 1 d . . .
C3 C 0.367(2) 0.1500(3) 0.9250(11) 0.0365(19) Uani 1 1 d . . .
H3 H 0.2817 0.1524 1.0452 0.044 Uiso 1 1 calc R U .
C4 C 0.3964(19) 0.0988(3) 0.8429(10) 0.0353(18) Uani 1 1 d . . .
H4 H 0.3328 0.0663 0.9100 0.042 Uiso 1 1 calc R U .
loop_
_atom_site_aniso_label
_atom_site_aniso_U_11
_atom_site_aniso_U_22
_atom_site_aniso_U_33
_atom_site_aniso_U_23
_atom_site_aniso_U_13
_atom_site_aniso_U_12
Cd1 0.0303(4) 0.0221(4) 0.0296(4) -0.0010(3) 0.0078(3) -0.0013(3)
Br1 0.0334(4) 0.0339(5) 0.0295(4) 0.0046(3) 0.0076(3) -0.0001(4)
N1 0.043(3) 0.021(3) 0.025(3) -0.006(3) 0.009(3) -0.003(3)
N2 0.060(5) 0.024(3) 0.037(4) 0.002(3) 0.019(4) -0.003(3)
O1 0.110(5) 0.031(3) 0.049(4) -0.020(3) 0.033(4) 0.001(4)
C1 0.043(4) 0.022(4) 0.033(4) -0.001(3) 0.011(3) 0.004(4)
C2 0.052(5) 0.035(5) 0.032(5) -0.002(4) 0.015(4) 0.003(4)
C3 0.049(5) 0.031(4) 0.031(4) -0.001(4) 0.017(4) -0.005(4)
C4 0.050(5) 0.034(4) 0.022(4) 0.002(3) 0.008(3) -0.007(4)
loop_
_atom_type_symbol
_atom_type_description
_atom_type_scat_dispersion_real
_atom_type_scat_dispersion_imag
_atom_type_scat_source
C C 0.0033 0.0016 'International Tables Vol C Tables 4.2.6.8 and 6.1.1.4'
H H 0.0000 0.0000 'International Tables Vol C Tables 4.2.6.8 and 6.1.1.4'
N N 0.0061 0.0033 'International Tables Vol C Tables 4.2.6.8 and 6.1.1.4'
O O 0.0106 0.0060 'International Tables Vol C Tables 4.2.6.8 and 6.1.1.4'
Br Br -0.2901 2.4595 'International Tables Vol C Tables 4.2.6.8 and 6.1.1.4'
Cd Cd -0.8075 1.2024 'International Tables Vol C Tables 4.2.6.8 and 6.1.1.4'
loop_
_geom_angle_atom_site_label_1
_geom_angle_atom_site_label_2
_geom_angle_atom_site_label_3
_geom_angle
_geom_angle_site_symmetry_1
_geom_angle_site_symmetry_3
N1 Cd1 N1 180.0 3_656 .
N1 Cd1 Br1 89.49(13) 3_656 3_656
N1 Cd1 Br1 90.51(13) . 3_656
N1 Cd1 Br1 90.51(13) 3_656 .
N1 Cd1 Br1 89.49(13) . .
Br1 Cd1 Br1 180.0 3_656 .
N1 Cd1 Br1 91.15(14) 3_656 1_455
N1 Cd1 Br1 88.85(14) . 1_455
Br1 Cd1 Br1 90.16(2) 3_656 1_455
Br1 Cd1 Br1 89.84(2) . 1_455
N1 Cd1 Br1 88.85(14) 3_656 3_756
N1 Cd1 Br1 91.15(14) . 3_756
Br1 Cd1 Br1 89.84(2) 3_656 3_756
Br1 Cd1 Br1 90.16(2) . 3_756
Br1 Cd1 Br1 180.00(3) 1_455 3_756
Cd1 Br1 Cd1 89.84(2) . 1_655
C1 N1 C4 115.2(6) . .
C1 N1 Cd1 120.4(4) . .
C4 N1 Cd1 124.0(5) . .
C1 N2 C2 123.4(6) . .
C1 N2 H21 114(5) . .
C2 N2 H21 123(5) . .
N1 C1 N2 124.4(6) . .
N1 C1 H1 117.8 . .
N2 C1 H1 117.8 . .
O1 C2 N2 119.8(7) . .
O1 C2 C3 128.0(7) . .
N2 C2 C3 112.2(7) . .
C4 C3 C2 120.8(6) . .
C4 C3 H3 119.6 . .
C2 C3 H3 119.6 . .
C3 C4 N1 124.0(7) . .
C3 C4 H4 118.0 . .
N1 C4 H4 118.0 . .
loop_
_geom_bond_atom_site_label_1
_geom_bond_atom_site_label_2
_geom_bond_distance
_geom_bond_site_symmetry_2
Cd1 N1 2.404(6) 3_656
Cd1 N1 2.404(6) .
Cd1 Br1 2.7498(7) 3_656
Cd1 Br1 2.7498(7) .
Cd1 Br1 2.7507(8) 1_455
Cd1 Br1 2.7507(8) 3_756
Br1 Cd1 2.7508(8) 1_655
N1 C1 1.297(9) .
N1 C4 1.371(9) .
N2 C1 1.327(9) .
N2 C2 1.390(9) .
N2 H21 0.85(2) .
O1 C2 1.242(10) .
C1 H1 0.9300 .
C2 C3 1.427(10) .
C3 C4 1.327(10) .
C3 H3 0.9300 .
C4 H4 0.9300 .
loop_
_geom_hbond_atom_site_label_D
_geom_hbond_atom_site_label_H
_geom_hbond_atom_site_label_A
_geom_hbond_distance_DH
_geom_hbond_distance_HA
_geom_hbond_distance_DA
_geom_hbond_angle_DHA
_geom_hbond_site_symmetry_A
C1 H1 Br1 0.93 2.81 3.521(7) 133.8 .
N2 H21 O1 0.85(2) 1.96(4) 2.750(8) 154(7) 4_665
loop_
_geom_torsion_atom_site_label_1
_geom_torsion_atom_site_label_2
_geom_torsion_atom_site_label_3
_geom_torsion_atom_site_label_4
_geom_torsion
C4 N1 C1 N2 0.0(12)
Cd1 N1 C1 N2 173.8(6)
C2 N2 C1 N1 -2.3(13)
C1 N2 C2 O1 -177.3(9)
C1 N2 C2 C3 2.7(12)
O1 C2 C3 C4 178.9(9)
N2 C2 C3 C4 -1.1(12)
C2 C3 C4 N1 -1.0(14)
C1 N1 C4 C3 1.6(12)
Cd1 N1 C4 C3 -171.9(6)
