#------------------------------------------------------------------------------
#$Date: 2019-11-17 07:27:49 +0200 (Sun, 17 Nov 2019) $
#$Revision: 228668 $
#$URL: file:///home/coder/svn-repositories/cod/cif/1/54/98/1549831.cif $
#------------------------------------------------------------------------------
#
# This file is available in the Crystallography Open Database (COD),
# http://www.crystallography.net/
#
# All data on this site have been placed in the public domain by the
# contributors.
#
data_1549831
loop_
_publ_author_name
'Conesa-Egea, Javier'
'Nogal, Noem\'i'
'Mart\'inez, Jos\'e Ignacio'
'Fern\'andez-Moreira, Vanesa'
'Rodr\'iguez-Mendoza, Ulises R'
'Gonz\'alez-Platas, Javier'
'G\'omez-Garc\'ia, Carlos J'
'Delgado, Salom\'e'
'Zamora, F\'elix'
'Amo-Ochoa, Pilar'
_publ_section_title
;
 Smart composite films of nanometric thickness based on copper-iodine
 coordination polymers. Toward sensors.
;
_journal_issue                   41
_journal_name_full               'Chemical science'
_journal_page_first              8000
_journal_page_last               8010
_journal_paper_doi               10.1039/c8sc03085e
_journal_volume                  9
_journal_year                    2018
_chemical_formula_moiety         'C7 H8 Cu I N2 O2'
_chemical_formula_sum            'C7 H8 Cu I N2 O2'
_chemical_formula_weight         342.59
_space_group_crystal_system      triclinic
_space_group_IT_number           2
_space_group_name_Hall           '-P 1'
_space_group_name_H-M_alt        'P -1'
_symmetry_space_group_name_Hall  '-P 1'
_symmetry_space_group_name_H-M   'P -1'
_atom_sites_solution_hydrogens   geom
_atom_sites_solution_primary     dual
_audit_creation_date             2017-07-10
_audit_creation_method
;
Olex2 1.2
(compiled 2017.03.28 svn.r3405 for OlexSys, GUI svn.r5337)
;
_audit_update_record
;
2018-03-01 deposited with the CCDC.
2018-08-23 downloaded from the CCDC.
;
_cell_angle_alpha                87.267(12)
_cell_angle_beta                 88.673(6)
_cell_angle_gamma                86.652(11)
_cell_formula_units_Z            2
_cell_length_a                   3.9970(2)
_cell_length_b                   8.9646(17)
_cell_length_c                   10.6952(8)
_cell_measurement_reflns_used    1373
_cell_measurement_temperature    296(1)
_cell_measurement_theta_max      24.9200
_cell_measurement_theta_min      3.7930
_cell_volume                     382.06(8)
_computing_cell_refinement       'CrysAlisPro 1.171.38.46 (Rigaku OD, 2015)'
_computing_data_collection       'CrysAlisPro 1.171.38.46 (Rigaku OD, 2015)'
_computing_data_reduction        'CrysAlisPro 1.171.38.46 (Rigaku OD, 2015)'
_computing_molecular_graphics    'Olex2 (Dolomanov et al., 2009)'
_computing_publication_material  'Olex2 (Dolomanov et al., 2009)'
_computing_structure_refinement  'ShelXL (Sheldrick, 2015)'
_computing_structure_solution    'ShelXT (Sheldrick, 2015)'
_diffrn_ambient_pressure         5630000(40000)
_diffrn_ambient_temperature      296(1)
_diffrn_detector                 'CCD plate'
_diffrn_detector_area_resol_mean 16.2536
_diffrn_detector_type            EosS2
_diffrn_measured_fraction_theta_full 0.360
_diffrn_measured_fraction_theta_max 0.360
_diffrn_measurement_details
;
List of Runs (angles in degrees, time in seconds):

  # Type    Start    End  Width  t~exp~   \w     \q     \k     \f   Frames
#--------------------------------------------------------------------------
  1  \w    -28.00   3.00   0.50   35.00    --   23.62  97.00 -35.00   62
  2  \w    -46.00   4.00   0.50   35.00    --   23.62  26.00 172.00  100
  3  \w    -47.00  20.00   0.50   35.00    --   23.62  26.00  -7.00  134
  4  \w    -28.00  48.00   0.50   35.00    --   23.62 -26.00-172.00  152
  5  \w    -49.00 -17.00   0.50   35.00    --   23.62 134.00 -57.00   64
  6  \w    -20.00  27.00   0.50   35.00    --   23.62  39.00 -12.00   94
  7  \w    -49.00 -17.00   0.50   35.00    --   23.62 134.00 123.00   64
  8  \w     18.00  79.00   0.50   35.00    --   23.62-114.00-135.00  122
  9  \w    -22.00  17.00   0.50   35.00    --   23.62  39.00 167.00   78
 10  \w    -10.00  46.00   0.50   35.00    --   23.62 -53.00  17.00  112
 11  \w     -7.00  48.00   0.50   35.00    --  -24.32 -26.00   7.00  110
 12  \w    -31.00  47.00   0.50   35.00    --  -24.32 -26.00-172.00  156
 13  \w    -75.00   1.00   0.50   35.00    --  -24.32  97.00 -35.00  152
 14  \w    -24.00  22.00   0.50   35.00    --  -24.32 -39.00  12.00   92
 15  \w    -34.00   4.00   0.50   35.00    --  -24.32  13.00  -3.00   76
 16  \w    -57.00  17.00   0.50   35.00    --  -24.32  53.00 162.00  148
;
_diffrn_measurement_device       'four-circle diffractometer'
_diffrn_measurement_device_type  'SuperNova, Dualflex, EosS2'
_diffrn_measurement_method       '\w scans'
_diffrn_orient_matrix_type
'CrysAlisPro convention (1999,Acta A55,543-557)'
_diffrn_orient_matrix_UB_11      0.0079531000
_diffrn_orient_matrix_UB_12      -0.0786342000
_diffrn_orient_matrix_UB_13      0.0118831000
_diffrn_orient_matrix_UB_21      0.1706103000
_diffrn_orient_matrix_UB_22      -0.0039256000
_diffrn_orient_matrix_UB_23      -0.0199826000
_diffrn_orient_matrix_UB_31      0.0494075000
_diffrn_orient_matrix_UB_32      0.0098289000
_diffrn_orient_matrix_UB_33      0.0622062000
_diffrn_radiation_monochromator  graphite
_diffrn_radiation_probe          x-ray
_diffrn_radiation_type           MoK\a
_diffrn_radiation_wavelength     0.71073
_diffrn_reflns_av_R_equivalents  0.0545
_diffrn_reflns_av_unetI/netI     0.0332
_diffrn_reflns_Laue_measured_fraction_full 0.360
_diffrn_reflns_Laue_measured_fraction_max 0.360
_diffrn_reflns_limit_h_max       4
_diffrn_reflns_limit_h_min       -4
_diffrn_reflns_limit_k_max       4
_diffrn_reflns_limit_k_min       -4
_diffrn_reflns_limit_l_max       12
_diffrn_reflns_limit_l_min       -12
_diffrn_reflns_number            2720
_diffrn_reflns_point_group_measured_fraction_full 0.360
_diffrn_reflns_point_group_measured_fraction_max 0.360
_diffrn_reflns_theta_full        25.023
_diffrn_reflns_theta_max         25.023
_diffrn_reflns_theta_min         3.815
_diffrn_source                   'fine-focus sealed X-ray tube'
_diffrn_source_type              'Enhance (Mo) X-ray Source'
_exptl_absorpt_coefficient_mu    6.857
_exptl_absorpt_correction_T_max  0.287
_exptl_absorpt_correction_T_min  0.216
_exptl_absorpt_correction_type   gaussian
_exptl_absorpt_process_details
;
CrysAlisPro 1.171.38.46 (Rigaku Oxford Diffraction, 2015)
Numerical absorption correction based on gaussian integration over
            a multifaceted crystal model (Absorb Angel (2004) J. Appl. Cryst. 37:486-492)
;
_exptl_crystal_colour            'light brown'
_exptl_crystal_colour_modifier   light
_exptl_crystal_colour_primary    brown
_exptl_crystal_density_diffrn    2.978
_exptl_crystal_description       plate
_exptl_crystal_F_000             324
_exptl_crystal_preparation       'mounted in a diamond-anvil cell '
_exptl_crystal_size_max          0.085
_exptl_crystal_size_mid          0.039
_exptl_crystal_size_min          0.02
_refine_diff_density_max         0.698
_refine_diff_density_min         -1.478
_refine_diff_density_rms         0.165
_refine_ls_extinction_method     none
_refine_ls_goodness_of_fit_ref   1.087
_refine_ls_hydrogen_treatment    constr
_refine_ls_matrix_type           full
_refine_ls_number_parameters     46
_refine_ls_number_reflns         486
_refine_ls_number_restraints     0
_refine_ls_restrained_S_all      1.087
_refine_ls_R_factor_all          0.0571
_refine_ls_R_factor_gt           0.0485
_refine_ls_shift/su_max          0.000
_refine_ls_shift/su_mean         0.000
_refine_ls_structure_factor_coef Fsqd
_refine_ls_weighting_details
'w=1/[\s^2^(Fo^2^)+(0.0370P)^2^+11.5922P] where P=(Fo^2^+2Fc^2^)/3'
_refine_ls_weighting_scheme      calc
_refine_ls_wR_factor_gt          0.1064
_refine_ls_wR_factor_ref         0.1103
_reflns_Friedel_coverage         0.000
_reflns_number_gt                428
_reflns_number_total             486
_reflns_threshold_expression     'I > 2\s(I)'
_cod_data_source_file            c8sc03085e2.cif
_cod_data_source_block           JCE140CS_563GPa
_cod_depositor_comments
'Adding full bibliography for 1549820--1549832.cif.'
_cod_database_code               1549831
_shelx_shelxl_version_number     2017/1
_shelx_space_group_comment
;
The symmetry employed for this shelxl refinement is uniquely defined
by the following loop, which should always be used as a source of
symmetry information in preference to the above space-group names.
They are only intended as comments.
;
_exptl_oxdiff_absorpt_process_details
;
Gaussian integration over a grid
of 16 x 16 x 16 points =  4096 total grid points
  Based upon method of Burnham (1966)

 Data corrected for diamond-anvil cell absorption
 Note that exptl_absorpt_correction_tmin and _tmax
 the total correction factors applied to the intensities
 The individual factors are:
         range of dac transmission factors (min-max)      0.278     0.352
         range of gasket transmission (min-max)           0.997     1.000
         range of P media transmission (min-max)          1.000     1.000

 thickness of diamond anvil 1: 15.500 mm, mu =  0.0202 mm-1
       thickness of platten 1: 44.000 mm, mu =  0.0047 mm-1

 thickness of diamond anvil 2: 15.500 mm, mu =  0.0202 mm-1
       thickness of platten 2: 44.000 mm, mu =  0.0047 mm-1

    Gasket shadowing corrections were made based upon
    Gasket thickness =  50.0 microns, radius = 105.0 microns
    Gasket absorption coeff =        21.00 mm-1
    REFLECTION WAS CONSIDERED TOTALLY OBSCURED IF
 FRACTION CRYSTAL ILLUMINATED WAS LESS THAN 0.00

    Non-absorbing pressure medium
;
_reflns_odcompleteness_completeness 36.00
_reflns_odcompleteness_iscentric 1
_reflns_odcompleteness_theta     24.97
_olex2_refinement_description
;
1. Fixed Uiso
 At 1.2 times of:
  All C(H) groups, All N(H,H) groups
 At 1.5 times of:
  All C(H,H,H) groups
2. Uiso/Uaniso restraints and constraints
Uanis(Cu1) = Uanis(I1)
3.a Aromatic/amide H refined with riding coordinates:
 C5(H5), C4(H4), C2(H2)
3.b Fitted hexagon refined as free rotating group:
 N1(C5,C4,C3,C2,C1)
3.c X=CH2 refined with riding coordinates:
 N2(H2A,H2B)
3.d Idealised Me refined as rotating group:
 C7(H7A,H7B,H7C)
;
_olex2_submission_special_instructions 'No special instructions were received'
_oxdiff_exptl_absorpt_empirical_details
;
Empirical correction (ABSPACK) includes:
- Absorption correction using spherical harmonics
- Frame scaling
;
_oxdiff_exptl_absorpt_empirical_full_max 2.018
_oxdiff_exptl_absorpt_empirical_full_min 0.650
loop_
_space_group_symop_operation_xyz
'x, y, z'
'-x, -y, -z'
loop_
_atom_site_label
_atom_site_type_symbol
_atom_site_fract_x
_atom_site_fract_y
_atom_site_fract_z
_atom_site_U_iso_or_equiv
_atom_site_adp_type
_atom_site_occupancy
_atom_site_site_symmetry_order
_atom_site_calc_flag
_atom_site_refinement_flags_posn
I1 I 1.2789(2) 0.1227(3) 0.64261(10) 0.0188(16) Uani 1 1 d .
Cu1 Cu 0.7936(5) 0.1135(6) 0.48951(19) 0.0188(16) Uani 1 1 d .
O1 O 0.241(3) 0.741(4) 0.1467(12) 0.021(3) Uiso 1 1 d .
N1 N 0.719(2) 0.2862(19) 0.3675(8) 0.015(3) Uiso 1 1 d .
C5 C 0.474(2) 0.395(2) 0.3995(7) 0.014(4) Uiso 1 1 d G
H5 H 0.361261 0.387217 0.476429 0.017 Uiso 1 1 calc R
C4 C 0.396(2) 0.515(2) 0.3164(9) 0.017(4) Uiso 1 1 d G
H4 H 0.232412 0.588223 0.337812 0.021 Uiso 1 1 calc R
C3 C 0.564(2) 0.5271(19) 0.2014(9) 0.013(4) Uiso 1 1 d G
C2 C 0.809(2) 0.418(2) 0.1694(7) 0.017(4) Uiso 1 1 d G
H2 H 0.921422 0.426031 0.092434 0.021 Uiso 1 1 calc R
C1 C 0.886(2) 0.298(2) 0.2524(9) 0.014(4) Uiso 1 1 d G
O2 O 0.659(3) 0.672(3) 0.0163(11) 0.025(3) Uiso 1 1 d .
N2 N 1.118(3) 0.191(4) 0.2253(14) 0.024(4) Uiso 1 1 d .
H2A H 1.225347 0.194830 0.154621 0.028 Uiso 1 1 calc R
H2B H 1.161138 0.117398 0.278439 0.028 Uiso 1 1 calc R
C6 C 0.495(4) 0.654(5) 0.1125(15) 0.017(4) Uiso 1 1 d .
C7 C 0.188(4) 0.879(6) 0.0712(19) 0.029(5) Uiso 1 1 d .
H7A H 0.190661 0.857737 -0.015897 0.044 Uiso 1 1 calc GR
H7B H 0.362212 0.945055 0.086341 0.044 Uiso 1 1 calc GR
H7C H -0.025622 0.927007 0.093340 0.044 Uiso 1 1 calc GR
loop_
_atom_site_aniso_label
_atom_site_aniso_U_11
_atom_site_aniso_U_22
_atom_site_aniso_U_33
_atom_site_aniso_U_23
_atom_site_aniso_U_13
_atom_site_aniso_U_12
I1 0.0169(5) 0.020(5) 0.0193(6) -0.0005(12) 0.0007(3) 0.0016(7)
Cu1 0.0169(5) 0.020(5) 0.0193(6) -0.0005(12) 0.0007(3) 0.0016(7)
loop_
_atom_type_symbol
_atom_type_description
_atom_type_scat_dispersion_real
_atom_type_scat_dispersion_imag
_atom_type_scat_source
C C 0.0033 0.0016 'International Tables Vol C Tables 4.2.6.8 and 6.1.1.4'
H H 0.0000 0.0000 'International Tables Vol C Tables 4.2.6.8 and 6.1.1.4'
Cu Cu 0.3201 1.2651 'International Tables Vol C Tables 4.2.6.8 and 6.1.1.4'
I I -0.4742 1.8119 'International Tables Vol C Tables 4.2.6.8 and 6.1.1.4'
N N 0.0061 0.0033 'International Tables Vol C Tables 4.2.6.8 and 6.1.1.4'
O O 0.0106 0.0060 'International Tables Vol C Tables 4.2.6.8 and 6.1.1.4'
loop_
_exptl_crystal_face_index_h
_exptl_crystal_face_index_k
_exptl_crystal_face_index_l
_exptl_crystal_face_perp_dist
1 0 5 0.0101
-1 0 -5 0.0101
1 0 -1 0.0391
-5 0 1 0.0353
0 12 -2 0.0175
0 -12 2 0.0175
loop_
_geom_angle_atom_site_label_1
_geom_angle_atom_site_label_2
_geom_angle_atom_site_label_3
_geom_angle
_geom_angle_site_symmetry_1
_geom_angle_site_symmetry_3
Cu1 I1 Cu1 101.15(7) . 1_655
Cu1 I1 Cu1 58.58(17) . 2_756
Cu1 I1 Cu1 75.16(13) 1_655 2_756
I1 Cu1 I1 104.84(13) 1_455 2_756
I1 Cu1 I1 101.15(7) . 1_455
I1 Cu1 I1 121.42(17) . 2_756
Cu1 Cu1 I1 59.54(16) 2_756 2_756
Cu1 Cu1 I1 117.4(2) 2_756 1_455
Cu1 Cu1 I1 61.88(10) 2_756 .
N1 Cu1 I1 117.6(4) . .
N1 Cu1 I1 104.2(4) . 2_756
N1 Cu1 I1 105.9(3) . 1_455
N1 Cu1 Cu1 136.2(3) . 2_756
C6 O1 C7 115.3(19) . .
C5 N1 Cu1 116.7(5) . .
C5 N1 C1 120.0 . .
C1 N1 Cu1 123.2(5) . .
N1 C5 H5 120.0 . .
C4 C5 N1 120.0 . .
C4 C5 H5 120.0 . .
C5 C4 H4 120.0 . .
C5 C4 C3 120.0 . .
C3 C4 H4 120.0 . .
C4 C3 C2 120.0 . .
C4 C3 C6 121.6(10) . .
C2 C3 C6 118.4(10) . .
C3 C2 H2 120.0 . .
C1 C2 C3 120.0 . .
C1 C2 H2 120.0 . .
C2 C1 N1 120.0 . .
N2 C1 N1 118.0(13) . .
N2 C1 C2 122.0(13) . .
C1 N2 H2A 120.0 . .
C1 N2 H2B 120.0 . .
H2A N2 H2B 120.0 . .
O1 C6 C3 112.8(17) . .
O2 C6 O1 125(3) . .
O2 C6 C3 122(3) . .
O1 C7 H7A 109.5 . .
O1 C7 H7B 109.5 . .
O1 C7 H7C 109.5 . .
H7A C7 H7B 109.5 . .
H7A C7 H7C 109.5 . .
H7B C7 H7C 109.5 . .
loop_
_geom_bond_atom_site_label_1
_geom_bond_atom_site_label_2
_geom_bond_distance
_geom_bond_site_symmetry_2
I1 Cu1 2.575(2) .
I1 Cu1 2.599(2) 1_655
I1 Cu1 2.634(5) 2_756
Cu1 Cu1 2.549(9) 2_756
Cu1 N1 1.990(16) .
O1 C6 1.30(3) .
O1 C7 1.46(6) .
N1 C5 1.3900 .
N1 C1 1.3900 .
C5 H5 0.9300 .
C5 C4 1.3900 .
C4 H4 0.9300 .
C4 C3 1.3900 .
C3 C2 1.3900 .
C3 C6 1.47(4) .
C2 H2 0.9300 .
C2 C1 1.3900 .
C1 N2 1.33(3) .
O2 C6 1.21(2) .
N2 H2A 0.8600 .
N2 H2B 0.8600 .
C7 H7A 0.9600 .
C7 H7B 0.9600 .
C7 H7C 0.9600 .
loop_
_exptl_oxdiff_crystal_face_indexfrac_h
_exptl_oxdiff_crystal_face_indexfrac_k
_exptl_oxdiff_crystal_face_indexfrac_l
_exptl_oxdiff_crystal_face_x
_exptl_oxdiff_crystal_face_y
_exptl_oxdiff_crystal_face_z
1.0124 0.0167 4.9984 0.0661 0.0728 0.3611
-1.0124 -0.0167 -4.9984 -0.0661 -0.0728 -0.3611
0.9953 0.0032 -0.9938 -0.0041 0.1897 -0.0126
-4.9881 -0.0251 0.9744 -0.0261 -0.8704 -0.1861
0.0512 12.4196 -2.0030 -1.0000 0.0000 0.0000
-0.0512 -12.4196 2.0030 1.0000 0.0000 0.0000
