#------------------------------------------------------------------------------
#$Date: 2018-03-30 05:46:02 +0300 (Fri, 30 Mar 2018) $
#$Revision: 207193 $
#$URL: file:///home/coder/svn-repositories/cod/cif/1/54/91/1549176.cif $
#------------------------------------------------------------------------------
#
# This file is available in the Crystallography Open Database (COD),
# http://www.crystallography.net/. The original data for this entry
# were provided by IUCr Journals, http://journals.iucr.org/.
#
# The file may be used within the scientific community so long as
# proper attribution is given to the journal article from which the
# data were obtained.
#
data_1549176
loop_
_publ_author_name
'El Hafi, Mohamed'
'Lahmidi, Sanae'
'Boulhaoua, Mohammed'
'Ramli, Youssef'
'Essassi, El Mokhtar'
'Mague, Joel T.'
_publ_section_title
;
 1-Methyl-1<i>H</i>-pyrazolo[3,4-<i>d</i>]pyrimidin-4(5<i>H</i>)-one
;
_journal_coeditor_code           HB4222
_journal_issue                   3
_journal_name_full               IUCrData
_journal_page_first              x180483
_journal_paper_doi               10.1107/S2414314618004832
_journal_volume                  3
_journal_year                    2018
_chemical_formula_iupac          'C6 H6 N4 O'
_chemical_formula_moiety         'C6 H6 N4 O'
_chemical_formula_sum            'C6 H6 N4 O'
_chemical_formula_weight         150.15
_chemical_name_systematic
;
1-Methyl-1<i>H</i>-pyrazolo[3,4-<i>d</i>]pyrimidin-4(5<i>H</i>)-one
;
_space_group_crystal_system      triclinic
_space_group_IT_number           2
_space_group_name_Hall           '-P 1'
_space_group_name_H-M_alt        'P -1'
_symmetry_space_group_name_Hall  '-P 1'
_symmetry_space_group_name_H-M   'P -1'
_atom_sites_solution_hydrogens   difmap
_atom_sites_solution_primary     direct
_atom_sites_solution_secondary   difmap
_audit_creation_method           SHELXL-2016/6
_cell_angle_alpha                93.396(4)
_cell_angle_beta                 92.812(4)
_cell_angle_gamma                92.361(4)
_cell_formula_units_Z            2
_cell_length_a                   3.8342(2)
_cell_length_b                   5.5701(3)
_cell_length_c                   15.0346(9)
_cell_measurement_reflns_used    1864
_cell_measurement_temperature    150(2)
_cell_measurement_theta_max      72.1926
_cell_measurement_theta_min      2.9483
_cell_volume                     319.83(3)
_computing_cell_refinement
;
<i>SAINT</i> (Bruker, 2016)
;
_computing_data_collection
;
<i>APEX3</i> (Bruker, 2016)
;
_computing_data_reduction
;
<i>SAINT</i>  (Bruker, 2016)
;
_computing_molecular_graphics
;
<i>DIAMOND</i> (Brandenburg & Putz, 2012)
;
_computing_publication_material
;
<i>SHELXTL</i> (Sheldrick, 2008)
;
_computing_structure_refinement
;
<i>SHELXL2016</i> (Sheldrick, 2015<i>b</i>)
;
_computing_structure_solution
;
<i>SHELXT</i> (Sheldrick, 2015<i>a</i>)
;
_diffrn_ambient_temperature      150(2)
_diffrn_detector_area_resol_mean 10.4167
_diffrn_measured_fraction_theta_full 0.956
_diffrn_measured_fraction_theta_max 0.940
_diffrn_measurement_device_type  'Bruker D8 VENTURE PHOTON 100 CMOS'
_diffrn_measurement_method       '\w scans'
_diffrn_radiation_monochromator  mirror
_diffrn_radiation_type           CuK\a
_diffrn_radiation_wavelength     1.54178
_diffrn_reflns_av_R_equivalents  0.0266
_diffrn_reflns_limit_h_max       4
_diffrn_reflns_limit_h_min       -4
_diffrn_reflns_limit_k_max       6
_diffrn_reflns_limit_k_min       -6
_diffrn_reflns_limit_l_max       18
_diffrn_reflns_limit_l_min       -18
_diffrn_reflns_number            2352
_diffrn_reflns_theta_full        68.000
_diffrn_reflns_theta_max         72.320
_diffrn_reflns_theta_min         2.948
_exptl_absorpt_coefficient_mu    0.963
_exptl_absorpt_correction_T_max  0.99
_exptl_absorpt_correction_T_min  0.85
_exptl_absorpt_correction_type   multi-scan
_exptl_absorpt_process_details
;
(<i>SADABS</i>; Bruker, 2016)
;
_exptl_crystal_colour            colourless
_exptl_crystal_density_diffrn    1.559
_exptl_crystal_density_method    'not measured'
_exptl_crystal_description       plate
_exptl_crystal_F_000             156
_exptl_crystal_size_max          0.205
_exptl_crystal_size_mid          0.070
_exptl_crystal_size_min          0.013
_refine_diff_density_max         0.179
_refine_diff_density_min         -0.217
_refine_ls_extinction_method     none
_refine_ls_goodness_of_fit_ref   1.091
_refine_ls_hydrogen_treatment    refall
_refine_ls_matrix_type           full
_refine_ls_number_parameters     124
_refine_ls_number_reflns         1191
_refine_ls_number_restraints     0
_refine_ls_restrained_S_all      1.091
_refine_ls_R_factor_all          0.0492
_refine_ls_R_factor_gt           0.0417
_refine_ls_shift/su_max          0.000
_refine_ls_shift/su_mean         0.000
_refine_ls_structure_factor_coef Fsqd
_refine_ls_weighting_details
'w=1/[\s^2^(Fo^2^)+(0.0552P)^2^+0.1016P] where P=(Fo^2^+2Fc^2^)/3'
_refine_ls_weighting_scheme      calc
_refine_ls_wR_factor_gt          0.1012
_refine_ls_wR_factor_ref         0.1080
_reflns_number_gt                1037
_reflns_number_total             1191
_reflns_threshold_expression     'I > 2\s(I)'
_cod_data_source_file            hb4222sup1.cif
_cod_data_source_block           I
_cod_database_code               1549176
_shelx_space_group_comment
;
The symmetry employed for this shelxl refinement is uniquely defined
by the following loop, which should always be used as a source of
symmetry information in preference to the above space-group names.
They are only intended as comments.
;
_shelx_estimated_absorpt_t_min   0.827
_shelx_estimated_absorpt_t_max   0.988
_shelx_hkl_file
;
   1   0   0 1492.15   44.60
  -2   0   0   86.79    3.00
  -3   0   0   73.29    3.00
  -4   0   0   44.60    2.00
  -4   1   0    6.40    1.50
  -4   1   0    4.10    1.40
  -3   1   0    0.50    0.50
  -3   1   0    0.40    1.00
  -2   1   0  142.99    4.60
   1  -1   0  494.45   14.50
  -1   1   0  463.15   14.50
   1   1   0  485.15   14.70
  -2  -1   0    4.80    1.10
   2   1   0    6.90    2.00
  -3  -1   0    1.30    0.90
  -3  -1   0    0.70    0.60
  -4  -1   0    2.60    1.00
  -4   2   0    1.80    0.70
  -3   2   0   10.30    1.40
  -2   2   0  527.45   16.10
   1  -2   0   57.29    2.00
  -1   2   0   53.29    2.00
   1   2   0  130.69    4.20
   1   2   0  124.49    4.20
   1   2   0  133.49    4.30
  -2  -2   0  134.39    4.40
  -2  -2   0  126.89    4.70
   2   2   0  129.29    5.50
  -3  -2   0    6.20    1.40
  -3  -2   0    4.90    1.30
  -4  -2   0    0.70    0.60
  -4  -2   0    1.50    0.40
  -4   3   0    2.20    0.80
  -3   3   0    2.20    0.60
  -3   3   0    1.80    0.80
  -2   3   0    0.80    0.90
  -2   3   0    1.40    0.60
  -2   3   0    2.90    1.40
  -1   3   0   80.79    2.90
   0   3   0   76.39    2.70
   1   3   0   28.90    1.50
  -2  -3   0   16.80    1.40
  -2  -3   0   19.70    2.20
   2   3   0   19.50    1.90
  -3  -3   0  165.38    5.40
  -3  -3   0  163.98    5.50
   3   3   0  155.78    5.50
  -4  -3   0   10.20    0.90
  -4  -3   0   10.10    1.00
   4   3   0   11.00    2.10
  -3   4   0    3.80    1.50
  -3   4   0    4.30    1.00
  -2   4   0    8.20    1.60
  -2   4   0   10.40    2.00
  -2   4   0    8.30    1.50
  -1   4   0    0.10    1.00
  -1   4   0    0.30    0.70
  -1   4   0    0.70    0.90
   0   4   0  106.69    4.20
   0   4   0  108.79    3.80
   0   4   0  108.09    4.10
  -1  -4   0   24.60    1.80
   1   4   0   26.00    1.60
  -2  -4   0   31.00    1.90
   2   4   0   28.50    1.80
  -3  -4   0    0.40    0.50
   3   4   0   -0.20    1.10
  -3   5   0   13.80    1.00
  -2   5   0    4.20    1.40
  -2   5   0    4.10    1.10
  -1   5   0   21.90    1.90
  -1   5   0   19.30    1.60
   0   5   0   52.89    2.70
   0   5   0   56.49    2.50
   0   5   0   52.79    2.80
  -1  -5   0    6.90    1.60
   1   5   0    6.30    1.20
  -2  -5   0    2.50    0.90
   2   5   0    0.00    0.80
  -3  -5   0    5.50    0.70
  -2   6   0   36.70    1.80
  -1   6   0  275.37    8.70
  -1   6   0  285.47    8.90
  -1   6   0  277.77    8.80
   0   6   0  108.29    3.90
   1   6   0   32.10    2.00
  -2  -6   1   20.90    1.30
   1   6  -1   -0.30    0.80
   0   6  -1  126.69    4.40
   0   6  -1  131.29    5.10
  -1   6  -1    9.00    2.10
  -1   6  -1    8.50    1.10
  -1   6  -1    6.40    1.00
  -2   6  -1    7.60    0.80
  -3  -5   1   48.70    1.70
   2   5  -1   12.80    1.40
  -2  -5   1   15.10    1.10
   1   5  -1  247.78    8.30
  -1  -5   1  273.67    8.30
   0   5  -1  599.34   18.50
   0   5  -1  589.14   18.30
   0   5  -1  605.74   18.30
  -1   5  -1   49.20    2.40
  -1   5  -1   48.10    2.30
  -2   5  -1   16.60    1.70
  -2   5  -1   19.70    1.40
  -2   5  -1   20.00    2.40
  -3   5  -1   11.20    0.90
   3   4  -1    2.00    0.70
  -3  -4   1    5.10    1.70
  -3  -4   1    2.20    0.70
   2   4  -1    2.70    0.60
   1   4  -1   64.49    2.50
  -1  -4   1   60.79    2.70
   0   4  -1   24.90    1.50
   0   4  -1   26.30    2.40
   0   4  -1   23.20    2.30
   0  -4   1   19.60    2.90
  -1   4  -1   50.69    2.30
  -1   4  -1   52.49    2.20
  -1   4  -1   48.80    2.70
  -2   4  -1   34.50    2.30
  -2   4  -1   34.40    2.10
  -2   4  -1   32.10    1.90
  -3   4  -1   -0.10    0.60
  -3   4  -1   -1.20    0.70
   3   3  -1   33.50    2.00
  -3  -3   1   34.00    2.00
   2   3  -1   57.89    2.40
  -2  -3   1   55.69    2.40
  -2  -3   1   54.69    3.00
   1   3  -1  172.78    5.60
   0   3  -1    5.90    1.00
  -1   3  -1    6.40    1.10
  -2   3  -1   27.40    1.90
  -2   3  -1   29.40    1.80
  -2   3  -1   26.10    2.70
  -3   3  -1    3.90    1.50
  -4   3  -1   40.80    2.60
   4   2  -1   78.89    2.90
  -4  -2   1   79.69    2.80
  -4  -2   1   73.49    2.80
  -3  -2   1    5.00    1.40
   2   2  -1   31.70    3.30
  -2  -2   1   34.00    1.90
  -2  -2   1   31.70    2.30
   1   2  -1   15.10    1.00
   1   2  -1   13.90    1.20
   1   2  -1   14.50    1.10
  -1   2  -1    9.00    1.00
  -2   2  -1   -0.30    0.40
  -3   2  -1   35.50    2.00
  -4   2  -1   12.10    1.80
  -4  -1   1    0.40    0.50
  -3  -1   1   53.19    2.70
  -3  -1   1   53.69    2.60
  -2  -1   1  134.19    4.50
   1   1  -1  127.79    4.10
   1  -1   1 1372.36   41.10
  -2   1  -1    8.50    1.00
  -3   1  -1    4.00    1.30
  -4   1  -1   83.29    3.10
  -4   1  -1   77.59    3.10
  -4   0   1    0.90    0.50
  -3   0   1   10.30    1.40
  -3   0   1   11.60    2.70
  -2   0   1  118.49    4.00
   1   0  -1 1950.30   56.29
  -1   0   1 1805.82   56.29
   0   0  -1   57.69    1.80
   1   0   1  348.17   10.70
  -2   0  -1    0.50    0.40
   2   0   1    0.40    0.90
  -3   0  -1    1.10    0.80
  -3   0  -1    2.40    1.20
  -4   0  -1   59.59    2.40
  -4   1   1    9.10    1.70
  -3   1   1   20.50    1.60
  -3   1   1   18.20    2.50
  -2   1   1  841.32   25.30
   1  -1  -1 9999.00  291.07
  -1   1   1 9516.55  291.27
   0  -1  -1  399.46   12.10
   0   1   1  409.36   12.10
   1   1   1  219.18    7.00
   1   1   1  224.88    6.90
  -2  -1  -1  289.27    9.20
   2   1   1  305.07    9.70
  -3  -1  -1   55.59    2.50
  -3  -1  -1   53.49    2.50
  -4  -1  -1    6.90    1.00
  -4  -1  -1   11.10    1.60
  -4   2   1    0.90    0.60
  -3   2   1   52.19    2.60
  -3   2   1   58.59    2.50
  -2   2   1  309.97    9.80
  -2   2   1  299.07    9.40
  -1   2   1  414.66   12.40
  -1   2   1  392.86   12.20
   1   2   1    0.50    0.40
   1   2   1    0.00    0.70
   1   2   1   -0.20    0.40
  -2  -2  -1   15.60    1.50
  -2  -2  -1   12.60    1.90
  -3  -2  -1   11.00    1.70
  -3  -2  -1   11.60    1.30
  -4  -2  -1    8.20    1.00
  -4  -2  -1    7.30    1.10
   4   2   1    7.10    1.30
  -4   3   1   17.80    1.80
  -3   3   1  185.68    6.40
  -3   3   1  200.88    6.30
  -2   3   1    7.60    1.60
  -2   3   1    8.20    2.30
  -2   3   1    5.60    1.30
   0   3   1    9.60    1.00
   1   3   1  175.28    5.60
  -2  -3  -1   16.80    2.20
  -2  -3  -1   13.20    1.50
   2   3   1   15.40    1.40
  -3  -3  -1    0.00    0.70
  -3  -3  -1    0.20    0.70
   3   3   1    0.30    0.60
  -4  -3  -1    1.30    0.40
  -4  -3  -1    0.90    0.50
  -3   4   1    0.10    0.60
  -3   4   1   -0.10    0.50
  -2   4   1   29.00    1.90
  -2   4   1   24.20    2.00
  -2   4   1   25.20    1.60
  -1   4   1   57.49    2.40
  -1   4   1   53.89    2.50
  -1   4   1   55.69    2.70
   0   4   1   11.00    2.30
   0   4   1    9.30    2.00
   0   4   1    9.10    1.10
  -1  -4  -1   54.69    2.60
   1   4   1   59.89    2.80
   2   4   1  181.58    6.00
  -3  -4  -1    6.00    0.90
   3   4   1    8.10    1.30
  -3   5   1    7.50    0.80
  -3   5   1    7.70    1.90
  -2   5   1    0.20    0.70
  -2   5   1    0.70    0.50
  -1   5   1   47.50    2.90
  -1   5   1   43.40    2.20
  -1   5   1   45.90    2.20
   0   5   1   12.00    1.80
   0   5   1   13.40    2.10
   0   5   1   12.90    1.50
  -1  -5  -1   24.10    1.80
   1   5   1   22.10    1.50
  -2  -5  -1    0.80    0.60
   2   5   1    0.60    0.60
  -3  -5  -1   31.00    1.20
  -2   6   1   10.40    0.80
  -1   6   1   32.20    1.90
  -1   6   1   30.50    1.50
   0   6   1    7.20    1.30
   1   6   1    0.00    0.60
  -2  -6   2   12.50    1.10
   1   6  -2   -1.00    1.00
  -1  -6   2    0.40    0.80
   0   6  -2   50.79    2.70
   0   6  -2   50.09    2.20
   0   6  -2   51.89    2.40
  -1   6  -2   41.10    1.80
  -1   6  -2   40.10    1.80
  -2   6  -2   -0.10    0.40
  -2   6  -2    0.20    0.50
  -3  -5   2   18.50    0.90
   2   5  -2    8.30    1.50
  -2  -5   2   12.70    1.00
   1   5  -2  173.08    5.80
  -1  -5   2  179.38    5.80
   0   5  -2    3.10    1.00
   0   5  -2    1.40    0.80
   0   5  -2    5.90    1.60
   0  -5   2    2.30    1.30
  -1   5  -2   22.10    1.90
  -2   5  -2    8.50    1.80
  -2   5  -2    4.30    1.30
  -3   5  -2    5.30    0.90
   3   4  -2    0.90    0.70
  -3  -4   2    0.90    0.50
  -3  -4   2    1.90    0.80
   2   4  -2  432.96   13.50
  -2  -4   2  434.96   13.50
   1   4  -2  777.02   23.60
  -1  -4   2  784.32   23.70
   0   4  -2   29.60    1.70
   0   4  -2   31.10    2.60
   0   4  -2   32.80    2.20
  -1   4  -2   74.89    3.00
  -1   4  -2   73.89    3.40
  -1   4  -2   76.69    2.90
  -2   4  -2   27.00    2.30
  -2   4  -2   24.20    2.00
  -2   4  -2   26.40    1.70
  -3   4  -2    3.80    1.10
  -4  -3   2    4.10    1.20
  -4  -3   2    4.70    1.00
   3   3  -2    4.60    1.40
  -3  -3   2    4.00    1.20
  -3  -3   2    4.60    1.40
   2   3  -2   67.09    2.60
  -2  -3   2   57.39    2.90
  -2  -3   2   65.09    2.60
  -1  -3   2   19.70    1.80
   0   3  -2  187.98    5.90
  -1   3  -2   49.20    2.80
  -1   3  -2   47.40    2.00
  -2   3  -2    0.10    0.80
  -2   3  -2   -1.00    1.50
  -2   3  -2    0.50    0.50
  -3   3  -2   14.80    1.70
  -3   3  -2   11.30    1.70
   4   2  -2   26.40    1.60
  -4  -2   2   23.90    2.00
  -4  -2   2   27.20    1.40
  -3  -2   2   67.49    3.00
  -3  -2   2   67.89    2.80
   2   2  -2  100.99    4.90
  -2  -2   2  102.99    4.00
  -2  -2   2  105.89    3.70
   1   2  -2   18.90    1.10
   1   2  -2   18.90    1.40
  -2   2  -2   20.70    1.40
   2  -2   2   18.40    2.80
  -3   2  -2  119.09    4.30
  -4   2  -2    0.80    0.80
  -4  -1   2    2.40    0.60
  -3  -1   2   19.30    1.60
  -3  -1   2   18.50    1.80
  -3  -1   2   16.40    2.20
  -2  -1   2    0.30    0.50
   1   1  -2  229.18    7.10
  -1  -1   2  230.48    7.20
   1  -1   2    5.50    0.60
   1  -1   2    6.50    0.80
  -2   1  -2  238.08    7.60
   2  -1   2  251.07    8.10
  -3   1  -2   10.40    1.50
  -3   1  -2   12.50    1.70
  -4   1  -2   22.20    1.60
  -4   0   2   10.70    1.20
  -3   0   2   60.79    2.60
  -2   0   2   13.00    1.10
   1   0  -2  415.66   12.50
  -1   0   2  407.36   12.70
   0   0  -2  855.61   25.70
   0   0   2  856.31   25.80
   1   0   2  213.98    6.70
  -2   0  -2   10.50    1.10
   2   0   2   11.80    1.70
  -3   0  -2  319.87   10.30
  -3   0  -2  310.77   10.10
  -3   0  -2  326.87   10.10
  -4   0  -2   25.60    1.50
  -4   1   2   10.30    1.70
  -4   1   2    9.80    1.40
  -3   1   2    8.00    1.30
  -3   1   2    7.90    1.90
  -2   1   2  637.74   19.80
  -2   1   2  633.14   19.20
   1  -1  -2    2.70    0.70
  -1   1   2    2.00    0.60
   0  -1  -2   91.99    2.90
   0   1   2   90.19    2.90
   1   1   2   17.90    1.00
   2   1   2   14.80    2.30
  -3  -1  -2  172.48    5.80
  -3  -1  -2  173.88    5.90
  -4  -1  -2   11.80    1.10
  -4  -1  -2    7.00    1.50
   4   1   2   10.50    1.70
  -4   2   2    1.90    0.70
  -3   2   2  440.16   14.00
  -3   2   2  473.75   14.20
  -2   2   2 1953.00   56.59
  -2   2   2 1848.22   56.59
  -2   2   2 1874.21   57.19
   1  -2  -2    1.30    0.50
  -1   2   2    0.60    0.40
  -1   2   2    1.00    0.50
   0  -2  -2  290.77    8.90
   0   2   2  289.47    8.80
   1   2   2  676.43   20.30
   1   2   2  666.53   20.20
  -2  -2  -2   26.10    1.70
  -2  -2  -2   27.70    2.10
  -3  -2  -2   10.60    1.30
  -3  -2  -2   10.30    1.60
   3   2   2   13.20    1.50
  -4  -2  -2   49.40    2.00
  -4  -2  -2   45.80    1.90
   4   2   2   50.59    2.20
  -4   3   2   15.40    1.70
  -3   3   2  137.89    5.70
  -3   3   2  150.58    4.90
  -2   3   2   44.10    2.00
  -2   3   2   47.40    2.10
  -2   3   2   43.60    2.80
  -1   3   2  113.59    4.40
  -1   3   2  116.39    4.10
  -1   3   2  110.69    3.90
   0   3   2    0.90    0.40
  -1  -3  -2   46.20    2.60
   1   3   2   47.30    2.00
  -2  -3  -2   34.00    2.60
  -2  -3  -2   36.10    1.90
   2   3   2   38.50    1.90
  -3  -3  -2   -0.50    0.70
  -3  -3  -2   -0.10    0.60
   3   3   2    0.60    0.60
  -4  -3  -2   17.90    1.00
  -4  -3  -2   13.90    1.20
  -3   4   2    0.60    0.60
  -3   4   2    0.90    0.50
  -2   4   2   39.40    1.90
  -2   4   2   34.30    2.20
  -1   4   2   10.70    1.60
  -1   4   2    7.70    1.70
  -1   4   2    9.90    1.60
   0   4   2   84.79    3.80
   0   4   2   85.19    3.50
   0   4   2   90.09    3.30
  -1  -4  -2   12.20    1.70
   1   4   2   11.30    1.30
  -2  -4  -2    0.50    0.70
   2   4   2    0.30    0.50
  -3  -4  -2    3.90    1.10
  -3   5   2    6.80    1.60
  -3   5   2    3.40    0.70
  -2   5   2   18.40    1.70
  -2   5   2   17.60    1.40
  -1   5   2    2.20    0.80
  -1   5   2    3.70    1.50
  -1   5   2    1.60    0.60
   0   5   2   91.49    3.50
   0   5   2   85.69    3.40
   0   5   2   89.89    3.70
  -1  -5  -2  121.69    4.40
   1   5   2  123.89    4.40
  -2  -5  -2    3.10    1.00
   2   5   2    4.00    1.30
  -2   6   2   11.80    0.80
  -1   6   2    6.10    1.10
  -1   6   2    8.80    1.40
   0   6   2   18.40    1.50
   1   6   2    4.40    1.40
  -2  -6   3   11.40    0.90
  -1  -6   3    2.20    0.70
   0   6  -3    8.10    1.50
   0   6  -3    6.50    1.40
  -1   6  -3   13.30    1.50
  -1   6  -3   12.60    1.20
  -2   6  -3    2.60    0.90
  -2   6  -3    2.00    0.70
  -3  -5   3   10.20    0.70
   2   5  -3   -1.00    0.60
  -2  -5   3    0.30    0.50
   1   5  -3   77.69    3.10
  -1  -5   3   83.19    3.10
   0   5  -3   30.20    2.30
   0   5  -3   32.90    2.40
   0   5  -3   31.60    2.10
   0  -5   3   33.50    2.40
  -1   5  -3    0.10    0.80
  -1   5  -3    0.30    1.00
  -1   5  -3    0.80    1.00
  -2   5  -3   49.10    2.50
  -2   5  -3   46.10    2.20
  -3   5  -3   51.39    1.90
  -3  -4   3   28.40    1.40
  -3  -4   3   29.30    1.90
   2   4  -3  133.69    4.60
  -2  -4   3  129.39    4.60
   1   4  -3    3.80    1.40
   0   4  -3   65.89    2.70
   0   4  -3   61.59    2.90
   0   4  -3   64.99    3.40
  -1   4  -3    3.00    0.70
  -1   4  -3    5.40    1.50
  -2   4  -3   28.10    1.80
  -2   4  -3   22.90    2.20
  -3   4  -3    3.40    1.10
  -4  -3   3    1.30    0.90
  -4  -3   3    2.90    0.80
   3   3  -3  431.86   13.50
  -3  -3   3  438.76   13.40
  -3  -3   3  428.66   13.50
   2   3  -3  578.94   16.70
  -2  -3   3  495.65   17.40
  -2  -3   3  563.94   16.90
   1   3  -3    1.20    0.90
   0   3  -3  179.38    5.70
  -1   3  -3   66.89    2.90
  -1   3  -3   69.99    3.20
  -1   3  -3   69.99    2.70
  -2   3  -3    6.50    2.60
  -2   3  -3   10.20    1.50
  -2   3  -3   12.10    1.50
  -3   3  -3   22.50    2.00
  -3   3  -3   25.40    1.90
   4   2  -3    3.60    1.40
  -3  -2   3   49.60    2.40
  -3  -2   3   48.40    2.30
   2   2  -3    4.60    2.20
  -2  -2   3   10.40    1.80
  -2  -2   3    9.00    1.70
   1   2  -3  216.38    6.80
  -2   2  -3   64.49    2.60
   2  -2   3   66.99    4.00
  -3   2  -3    0.90    0.70
  -4  -1   3   41.10    1.90
  -3  -1   3   27.60    1.80
  -3  -1   3   26.50    1.90
  -3  -1   3   29.00    2.30
  -2  -1   3    6.30    1.30
   1   1  -3    0.20    0.40
  -1  -1   3    0.00    0.30
   1  -1   3  284.37    8.40
   1  -1   3  254.77    8.40
  -2   1  -3  238.88    7.50
   2  -1   3  240.18    8.00
  -3   1  -3   25.90    1.80
  -3   1  -3   20.10    1.90
  -4   1  -3    3.60    1.40
  -4   0   3    3.90    1.20
  -3   0   3   13.30    1.80
  -3   0   3   10.40    1.50
  -2   0   3   31.40    2.40
  -2   0   3   31.60    1.60
   1   0  -3   18.10    1.00
  -1   0   3   15.70    1.00
   0   0  -3    0.70    0.20
   0   0   3    0.50    0.20
   1   0   3 1081.19   32.70
  -2   0  -3    0.20    0.50
   2   0   3    0.20    0.90
  -3   0  -3   46.30    2.50
  -3   0  -3   43.50    2.20
  -3   0  -3   47.20    2.20
  -4   0  -3    0.00    0.50
  -4   1   3   15.80    2.00
  -4   1   3   19.60    1.70
  -3   1   3    0.20    0.50
  -3   1   3    0.00    1.10
  -2   1   3  195.58    6.80
  -2   1   3  186.78    6.10
   1  -1  -3   68.39    2.40
  -1   1   3   67.89    2.40
   0  -1  -3  251.37    7.70
   0   1   3  250.07    7.70
   1   1   3   63.19    2.30
  -2  -1  -3  809.62   24.70
  -2  -1  -3  813.12   24.60
  -3  -1  -3    8.80    1.40
  -3  -1  -3    9.50    1.30
  -4  -1  -3    3.40    1.00
  -4  -1  -3    4.90    1.30
   4   1   3    1.60    0.90
  -4   2   3    0.70    0.70
  -3   2   3  139.49    4.80
  -3   2   3  143.29    4.90
  -2   2   3    9.60    1.10
  -2   2   3    8.00    1.30
   1  -2  -3    0.80    0.60
  -1   2   3    1.90    0.60
  -1   2   3    1.00    0.40
   0  -2  -3   17.30    1.10
   0   2   3   12.80    1.10
   0   2   3   17.20    0.90
   1   2   3  139.79    4.60
   1   2   3  131.09    4.40
  -2  -2  -3  261.77    8.50
  -2  -2  -3  268.77    8.30
   2   2   3  259.67    8.30
  -3  -2  -3   64.09    2.80
  -3  -2  -3   64.69    2.70
   3   2   3   61.79    2.70
  -4  -2  -3    0.10    0.70
  -4  -2  -3    0.00    0.50
   4   2   3   -0.40    0.60
  -4   3   3  199.88    6.50
  -3   3   3  386.76   11.40
  -3   3   3  349.96   11.60
  -2   3   3    5.70    1.30
  -2   3   3    6.70    1.20
  -2   3   3    8.10    1.20
  -1   3   3  163.18    5.60
  -1   3   3  163.48    5.70
  -1   3   3  174.68    5.40
   0   3   3  502.55   15.60
  -1  -3  -3   -0.70    0.90
   1   3   3    0.70    0.50
   2   3   3    4.90    1.40
  -3  -3  -3   95.69    3.40
  -3  -3  -3   89.29    3.30
   3   3   3   82.79    3.80
  -4  -3  -3    0.50    0.50
  -4  -3  -3    0.60    0.60
  -3   4   3    4.90    1.30
  -3   4   3    3.10    0.90
  -2   4   3   14.30    1.70
  -2   4   3   13.50    1.40
  -2   4   3   14.00    2.30
  -1   4   3    2.90    0.60
  -1   4   3    5.60    1.50
   0   4   3   39.80    2.20
   0   4   3   39.10    1.80
   0   4   3   38.40    2.70
  -1  -4  -3   44.80    2.60
   1   4   3   47.40    2.10
  -2  -4  -3   11.80    1.40
   2   4   3   12.20    1.80
  -3  -4  -3   22.00    1.20
   3   4   3   20.60    1.50
  -3   5   3    6.40    1.50
  -3   5   3    6.60    0.70
  -2   5   3   17.30    1.20
  -2   5   3   16.80    2.00
  -1   5   3   14.50    2.30
  -1   5   3   13.40    1.40
  -1   5   3   14.90    1.60
   0   5   3    3.40    1.30
  -1  -5  -3    1.90    1.60
  -2  -5  -3    7.50    1.10
   2   5   3    9.00    1.10
  -2   6   3    1.10    0.40
  -1   6   3   60.89    2.30
  -1   6   3   63.39    2.50
   0   6   3   46.70    2.20
   1   6   3   -0.60    0.60
  -2  -6   4    3.40    0.80
  -1  -6   4    6.80    1.10
   0   6  -4   16.20    1.50
   0   6  -4   16.40    1.50
  -1   6  -4   90.89    3.10
  -1   6  -4   88.19    3.20
  -2   6  -4   10.10    0.80
  -2   6  -4   10.10    1.30
  -3  -5   4   14.90    0.80
   2   5  -4    1.20    0.70
  -2  -5   4    2.20    0.80
   1   5  -4   49.40    2.60
  -1  -5   4   48.40    2.30
   0   5  -4   13.60    1.80
   0   5  -4   15.40    2.10
   0   5  -4   11.60    2.20
   0  -5   4   13.40    2.10
  -1   5  -4    6.30    1.40
  -1   5  -4   10.40    1.70
  -2   5  -4   22.40    1.40
  -2   5  -4   23.10    1.60
  -3   5  -4    2.50    0.90
   3   4  -4    2.20    0.80
  -3  -4   4    1.10    0.70
  -3  -4   4    1.60    0.80
   2   4  -4   63.59    2.80
  -2  -4   4   64.99    2.60
  -2  -4   4   67.19    3.50
   1   4  -4    5.00    1.70
   1   4  -4    3.70    1.50
  -1  -4   4    4.50    1.00
   0   4  -4    2.40    0.90
   0   4  -4    3.70    1.30
  -1   4  -4  164.68    5.50
  -1   4  -4  152.18    5.60
  -1   4  -4  168.08    5.50
  -2   4  -4  143.39    4.90
  -2   4  -4  142.69    5.30
  -3   4  -4    0.90    0.60
  -4  -3   4   27.60    1.30
   3   3  -4   56.69    2.60
  -3  -3   4   56.89    2.50
  -3  -3   4   58.39    2.40
   2   3  -4   13.50    1.60
  -2  -3   4   13.40    1.50
  -2  -3   4   14.20    2.00
   1   3  -4   84.69    3.30
   0   3  -4    6.40    1.50
  -1   3  -4  115.79    4.10
  -1   3  -4  112.09    4.00
  -1   3  -4  116.69    4.40
  -2   3  -4    2.80    0.80
  -2   3  -4    4.60    1.40
  -3   3  -4    2.80    1.10
   4   2  -4  255.37    8.20
  -4  -2   4  265.87    8.40
  -3  -2   4  252.97    8.40
  -3  -2   4  254.77    8.10
  -2  -2   4   14.80    1.90
  -2  -2   4   18.90    1.80
   1   2  -4  323.77   10.00
  -2   2  -4   94.59    4.20
  -2   2  -4  102.79    3.60
  -2   2  -4   91.49    4.40
  -3   2  -4   70.59    3.30
  -3   2  -4   59.09    3.30
  -4  -1   4   28.60    1.80
  -3  -1   4    1.20    0.70
  -3  -1   4    1.00    0.60
  -2  -1   4  136.39    4.80
  -2  -1   4  133.09    4.60
   1   1  -4    0.70    0.40
  -1  -1   4    0.20    0.40
   0   1  -4   14.50    0.70
   0  -1   4   13.10    0.60
   1  -1   4  164.38    5.20
  -2   1  -4    0.80    0.60
   2  -1   4    1.10    1.30
  -3   1  -4    3.70    0.90
  -3   1  -4    4.60    1.30
  -4   1  -4    1.40    0.60
  -4   0   4    4.60    1.20
  -3   0   4    1.00    0.60
  -3   0   4    1.20    0.80
  -2   0   4   10.70    1.30
  -2   0   4   10.40    2.30
   1   0  -4  149.79    4.70
  -1   0   4  142.49    4.70
   0   0  -4  600.74   18.20
   0   0   4  611.34   18.40
   1   0   4  214.28    6.70
  -2   0  -4   82.89    3.10
   2   0   4   85.09    3.80
  -3   0  -4    8.00    1.70
  -3   0  -4    9.80    1.40
  -4   0  -4   14.60    1.20
  -4   1   4   10.30    1.50
  -3   1   4    1.10    0.60
  -3   1   4    2.00    1.10
  -2   1   4    0.60    1.40
   1  -1  -4    8.70    0.90
  -1   1   4    8.70    0.90
   0  -1  -4 1252.67   37.50
   1   1   4   39.20    1.70
  -2  -1  -4   55.89    2.40
  -2  -1  -4   53.99    2.50
  -3  -1  -4    4.50    1.50
  -3  -1  -4    5.50    1.30
  -4  -1  -4   46.60    2.00
  -4  -1  -4   46.80    2.10
   4   1   4   45.20    2.30
  -4   2   4    0.20    0.60
  -3   2   4   54.19    2.30
  -2   2   4    5.20    1.30
  -1   2   4   20.60    1.60
  -1   2   4   18.60    1.10
   0  -2  -4   65.49    2.50
   0   2   4   66.79    2.40
   0   2   4   66.09    2.40
   1   2   4  945.41   28.00
   1   2   4  921.11   28.30
  -2  -2  -4    0.40    0.70
  -2  -2  -4    0.60    0.80
   2   2   4    1.00    0.70
  -3  -2  -4   -0.60    1.10
  -3  -2  -4    0.30    0.80
   3   2   4    0.90    0.60
  -4  -2  -4   40.80    1.70
  -4  -2  -4   40.80    1.80
   4   2   4   40.50    2.20
  -4   3   4   28.90    1.80
  -3   3   4    5.20    1.30
  -3   3   4    4.80    1.10
  -2   3   4    6.30    1.30
  -2   3   4    4.20    1.40
  -1   3   4   16.00    1.50
  -1   3   4   11.80    1.90
  -1   3   4   15.10    1.20
   0   3   4  193.88    5.80
   0   3   4  195.48    6.10
   0   3   4  154.68    6.90
  -1  -3  -4  164.58    5.80
   1   3   4  176.78    5.60
  -2  -3  -4  137.19    4.70
  -2  -3  -4  127.19    5.00
   2   3   4  146.19    4.70
  -3  -3  -4    4.30    1.40
  -3  -3  -4    3.30    1.10
   3   3   4    5.10    1.40
  -3   4   4    6.70    1.40
  -3   4   4    6.80    0.90
  -2   4   4   86.29    3.50
  -2   4   4   85.19    3.70
  -1   4   4  260.47    8.20
  -1   4   4  250.97    8.30
  -1   4   4  254.37    8.10
   0   4   4   18.30    1.60
  -1  -4  -4    2.80    1.10
  -2  -4  -4   80.39    3.00
   2   4   4   75.69    3.60
  -3  -4  -4    7.70    0.90
   3   4   4    7.10    1.30
  -2   5   4    8.40    1.00
  -2   5   4    6.60    1.80
  -1   5   4    7.80    1.40
  -1   5   4    9.10    1.40
   0   5   4   32.70    1.90
   1   5   4   36.90    1.80
  -2  -5  -4   13.80    1.20
   2   5   4   14.90    1.30
   2  -6  -4    0.00    0.50
  -2   6   4    0.30    0.40
  -1   6   4    1.40    0.90
  -1   6   4    0.60    0.60
   0  -6  -4    3.20    1.20
   1   6   4    4.40    1.40
  -1  -6   5    0.90    0.60
   0   6  -5   81.59    3.00
   0   6  -5   83.69    3.10
  -1   6  -5   32.30    1.70
  -1   6  -5   29.30    1.50
  -2   6  -5   -0.20    0.30
  -2   6  -5   -0.10    0.50
  -2  -5   5   15.30    1.10
   1   5  -5    4.30    1.60
  -1  -5   5    2.10    0.70
   0   5  -5  230.08    7.50
   0   5  -5  215.38    7.20
   0  -5   5  217.28    7.30
  -1   5  -5    2.80    1.50
  -1   5  -5    5.40    1.50
  -2   5  -5    0.20    0.60
  -2   5  -5    0.40    0.80
  -3   5  -5    3.00    0.90
   3   4  -5    6.20    2.10
  -3  -4   5    1.60    0.70
  -3  -4   5    1.30    0.50
   2   4  -5   74.29    3.10
  -2  -4   5   74.59    3.50
  -2  -4   5   79.09    2.90
   1   4  -5    1.30    0.90
   1   4  -5   -0.20    1.30
   0   4  -5   17.70    2.10
   0   4  -5   14.60    1.80
  -1   4  -5   45.60    2.60
  -1   4  -5   48.70    2.30
  -2   4  -5   10.00    1.50
  -2   4  -5   11.00    2.10
  -3   4  -5    0.10    0.70
  -4  -3   5    4.90    0.80
   3   3  -5   29.20    2.20
  -3  -3   5   31.80    1.90
  -3  -3   5   35.40    1.80
   2   3  -5    1.40    0.70
  -2  -3   5    0.30    0.90
  -2  -3   5    3.50    1.30
   1   3  -5   23.10    2.00
   1   3  -5   24.50    2.50
  -1  -3   5   22.70    3.30
   0   3  -5  476.75   14.70
   0   3  -5  471.85   14.60
  -1   3  -5  246.48    8.10
  -1   3  -5  243.78    7.80
  -1   3  -5  236.48    8.00
  -2   3  -5    1.80    1.40
  -2   3  -5    4.00    1.00
   4   2  -5    9.70    1.80
  -4  -2   5    8.70    1.30
  -3  -2   5   13.10    1.70
  -3  -2   5   15.80    1.60
  -2  -2   5   51.99    2.60
  -2  -2   5   56.99    2.60
   1   2  -5    0.10    0.70
   1   2  -5    1.60    0.80
  -1  -2   5    0.00    0.70
  -2   2  -5   33.80    3.20
  -2   2  -5   31.70    2.90
  -2   2  -5   25.50    2.60
  -2   2  -5   32.60    3.00
  -3   2  -5   18.20    2.50
  -4  -1   5   72.19    2.80
  -3  -1   5   25.60    1.90
  -3  -1   5   28.50    1.90
  -2  -1   5  251.57    8.10
  -2  -1   5  245.08    9.60
  -2  -1   5  248.38    8.20
   1   1  -5  214.78    6.80
  -1  -1   5  216.98    6.90
   0   1  -5  161.88    4.90
   0  -1   5  149.59    4.80
   1  -1   5  496.15   15.10
  -2   1  -5  202.98    6.40
  -2   1  -5  185.38    6.30
  -2   1  -5  193.78    6.40
  -3   1  -5    1.80    0.90
  -3   1  -5    3.70    1.40
  -3   1  -5    2.70    1.10
  -4   1  -5    4.10    1.30
  -4   0   5    0.90    0.60
  -3   0   5   37.10    2.10
  -3   0   5   32.80    2.30
  -2   0   5    0.30    0.50
   1   0  -5    3.00    0.90
  -1   0   5    2.10    0.80
   0   0  -5  257.57    8.00
   0   0   5  258.87    8.00
   1   0   5    8.40    0.90
  -2   0  -5    8.60    1.60
  -2   0  -5    9.90    1.70
  -3   0  -5    0.00    0.90
  -3   0  -5    0.60    0.60
  -4   0  -5    9.00    1.20
  -4   1   5    0.70    0.60
  -3   1   5    9.90    2.60
  -3   1   5    6.60    1.40
  -2   1   5   27.90    1.80
  -2   1   5   29.60    1.50
   1  -1  -5  333.27   10.80
  -1   1   5  347.27   10.80
  -1   1   5  355.16   10.80
   0  -1  -5   14.10    1.00
   0   1   5   13.10    1.00
  -1  -1  -5  151.78    5.30
   1   1   5  151.48    5.10
  -2  -1  -5   32.60    1.80
  -2  -1  -5   32.30    1.90
  -3  -1  -5   23.70    1.70
  -3  -1  -5   26.80    1.70
   3   1   5   29.30    2.50
  -4  -1  -5   34.70    2.40
  -4  -1  -5   32.60    1.60
   4   1   5   32.50    2.80
  -4   2   5   -0.30    0.60
  -3   2   5   -0.10    0.50
  -2   2   5   17.80    1.40
  -2   2   5   16.70    1.50
  -1   2   5  362.46   11.50
  -1   2   5  365.96   11.10
   0  -2  -5  110.29    4.10
   0   2   5  121.79    4.00
   0   2   5  117.49    3.80
   1   2   5   51.39    2.70
   1   2   5   51.99    2.10
  -2  -2  -5   48.70    2.20
  -2  -2  -5   49.30    2.50
   2   2   5   48.60    2.20
  -3  -2  -5   77.69    3.00
  -3  -2  -5   78.99    3.50
   3   2   5   80.49    3.20
  -4  -2  -5    0.90    0.40
  -4   3   5   18.20    1.90
  -3   3   5    6.90    1.10
  -3   3   5    6.40    1.30
  -2   3   5    0.20    0.60
  -2   3   5    2.80    1.10
  -1   3   5   57.09    2.70
  -1   3   5   57.69    2.30
  -1   3   5   58.29    2.50
   0   3   5  400.26   12.30
  -1  -3  -5   23.40    2.00
  -1  -3  -5   22.40    2.70
   1   3   5   23.40    1.40
  -2  -3  -5    6.40    2.20
  -2  -3  -5    8.60    1.30
   2   3   5    7.00    1.40
  -3  -3  -5   41.70    1.80
  -3  -3  -5   42.50    2.10
   3   3   5   40.00    2.20
  -3   4   5    1.60    0.60
  -3   4   5    2.90    0.70
  -2   4   5    7.90    1.40
  -2   4   5    9.20    1.30
  -1   4   5  126.49    4.40
  -1   4   5  125.89    4.40
   0   4   5   31.10    1.80
  -1  -4  -5  137.79    5.20
  -1  -4  -5  137.49    5.00
   1   4   5  144.39    4.80
  -2  -4  -5   12.40    1.40
   2   4   5   11.20    1.40
  -3  -4  -5    1.70    0.50
   3   4   5    1.20    0.70
  -2   5   5   71.09    2.50
  -2   5   5   68.39    2.80
  -1   5   5   22.60    1.60
  -1   5   5   20.50    1.60
   0   5   5   20.10    1.70
   1   5   5   33.50    1.80
  -2  -5  -5    4.70    0.90
   2   5   5    6.60    1.30
   2  -6  -5    0.90    0.60
   1  -6  -5   12.10    1.10
  -1   6   5   10.10    1.60
   0  -6  -5   38.60    1.90
   0   6   5   40.70    1.90
   1   6   5    1.00    0.60
  -1  -6   6    5.20    0.90
   0   6  -6   20.80    1.50
   0   6  -6   18.10    1.30
   0  -6   6   11.90    2.60
  -1   6  -6   14.90    1.40
  -1   6  -6   13.00    1.30
  -2   6  -6   41.80    1.60
  -2   6  -6   38.20    1.50
  -2  -5   6    2.30    0.80
  -1  -5   6  139.59    4.80
   0   5  -6   17.80    2.20
   0   5  -6   17.70    1.70
  -1   5  -6   -0.10    0.90
  -1   5  -6    0.10    0.70
  -2   5  -6    2.30    0.80
  -2   5  -6    1.60    0.60
  -3  -4   6   22.20    1.50
  -3  -4   6   21.80    1.10
  -2  -4   6    5.90    2.20
  -2  -4   6    2.30    0.80
   1   4  -6  245.78    8.10
   0   4  -6    1.20    1.20
   0   4  -6    0.40    1.00
  -1   4  -6    5.90    2.10
  -1   4  -6    3.80    1.40
  -1   4  -6    5.60    1.80
  -2   4  -6   27.70    2.40
  -2   4  -6   31.10    1.80
  -4  -3   6    2.20    0.80
   3   3  -6   63.89    3.10
  -3  -3   6   68.29    2.60
  -3  -3   6   72.19    2.90
   2   3  -6    6.60    2.00
  -2  -3   6    7.30    1.40
  -2  -3   6    8.20    1.70
   1   3  -6   11.20    2.20
  -1  -3   6   14.20    2.50
   0   3  -6   46.80    3.10
   0   3  -6   49.10    2.40
   0   3  -6   48.00    2.60
  -1   3  -6   40.10    2.30
  -1   3  -6   42.10    2.50
  -1   3  -6   39.40    2.50
  -2   3  -6    4.70    1.40
  -2   3  -6    4.20    1.10
  -4  -2   6    6.80    0.90
  -3  -2   6    9.30    1.70
  -3  -2   6    7.90    1.50
   2   2  -6   20.10    3.10
  -2  -2   6   23.80    2.00
  -2  -2   6   19.30    1.90
   1  -2   6   20.70    1.70
  -2   2  -6  113.29    4.10
  -2   2  -6   98.19    4.20
  -2   2  -6  108.79    4.60
  -3   2  -6   88.99    3.50
  -3   2  -6   78.89    3.70
  -4  -1   6    7.00    1.00
  -3  -1   6   32.60    2.10
   2   1  -6    2.30    1.40
  -2  -1   6    2.30    0.70
  -2  -1   6    4.60    1.70
   1   1  -6  437.76   13.30
  -1  -1   6  424.46   13.30
   0   1  -6    0.00    0.50
   0  -1   6    0.00    0.30
   1  -1   6   58.19    2.40
  -2   1  -6   41.30    2.30
  -3   1  -6   56.19    2.70
  -3   1  -6   55.89    2.60
  -4   1  -6    7.00    1.20
  -4   0   6   21.00    1.50
   3   0  -6  113.09    4.90
  -3   0   6  123.39    4.50
  -3   0   6  125.79    4.40
  -2   0   6   50.29    2.80
   1   0  -6  103.79    3.70
  -1   0   6  101.39    3.60
   0   0  -6  854.01   26.40
   0   0   6  896.61   26.40
  -1   0  -6  451.95   14.10
   1   0   6  451.55   14.00
  -2   0  -6    4.80    1.50
  -2   0  -6    1.90    0.90
  -3   0  -6   12.70    1.40
  -3   0  -6   13.30    1.60
  -4   0  -6   -1.10    0.90
  -4   0  -6    0.00    0.50
  -4   1   6    7.30    1.60
  -3   1   6   -1.20    1.20
  -3   1   6   -0.60    0.60
  -2   1   6    7.00    1.20
  -2   1   6    4.80    1.30
  -1   1   6  116.19    3.90
  -1   1   6  121.89    4.30
   0  -1  -6   44.80    2.10
   0   1   6   48.10    1.90
   1   1   6   14.80    1.70
   1   1   6   15.60    1.60
  -2  -1  -6    4.60    1.50
  -2  -1  -6    4.50    1.30
  -3  -1  -6   45.40    2.20
  -3  -1  -6   49.00    2.80
   3   1   6   44.70    2.60
  -4  -1  -6   13.40    1.20
  -4  -1  -6   14.10    1.10
  -4   2   6    2.90    0.70
  -3   2   6    2.80    0.60
  -2   2   6   96.89    3.50
  -2   2   6   94.49    3.40
  -1   2   6    2.40    0.50
  -1   2   6    5.10    2.20
   0   2   6   73.69    3.00
   0   2   6   74.79    2.60
   1   2   6   69.99    2.60
  -2  -2  -6   11.80    1.60
  -2  -2  -6   10.70    1.80
   2   2   6   15.30    1.70
  -3  -2  -6  104.19    3.70
  -3  -2  -6  101.39    3.70
   3   2   6   97.09    3.90
  -4  -2  -6    8.90    0.90
  -4  -2  -6    7.60    0.90
  -3   3   6   14.80    1.60
  -2   3   6   68.69    2.80
  -2   3   6   71.89    2.90
  -1   3   6  102.69    3.50
  -1   3   6   98.29    3.60
   0   3   6   41.20    1.80
  -1  -3  -6  117.19    4.70
  -1  -3  -6  119.39    4.40
   1   3   6  127.19    4.10
  -2  -3  -6   65.79    2.70
  -2  -3  -6   62.59    3.40
  -3  -3  -6   -0.10    0.60
  -3  -3  -6   -0.80    0.70
   3   3   6   -0.50    0.70
  -3   4   6    0.10    0.50
  -2   4   6   36.40    1.80
  -2   4   6   32.30    2.50
  -1   4   6   96.79    3.40
  -1   4   6   89.09    3.40
   0   4   6   27.80    1.80
  -1  -4  -6   31.20    2.50
   1   4   6   29.50    1.60
   2   4   6   22.50    1.70
  -3  -4  -6    4.60    1.00
  -2   5   6   47.50    1.90
  -1   5   6    0.80    0.70
  -1   5   6    0.20    0.60
   0   5   6   62.39    3.00
   1   5   6    9.60    1.40
   2   5   6    0.30    0.70
   1  -6  -6   25.20    1.50
  -1   6   6   22.30    1.70
   0  -6  -6   10.10    1.60
   0   6   6   14.20    1.50
  -1  -6   7    0.10    1.10
   0   6  -7    0.40    0.70
   0   6  -7    0.20    0.80
   0  -6   7    0.40    0.90
  -1   6  -7   19.90    1.20
  -1   6  -7   18.20    1.60
  -2  -5   7   14.80    1.00
   1   5  -7   23.80    1.90
  -1  -5   7   22.80    1.60
   0   5  -7   67.89    2.80
   0   5  -7   70.89    3.30
  -1   5  -7   93.89    3.50
  -1   5  -7   93.09    3.70
  -2   5  -7   13.70    1.10
  -2   5  -7   10.90    1.40
  -3  -4   7   -0.10    0.60
  -3  -4   7    0.20    0.40
  -2  -4   7  131.79    4.50
  -2  -4   7  130.89    4.80
   1   4  -7    2.80    1.30
   0   4  -7    5.00    2.10
   0   4  -7    2.10    0.90
  -1   4  -7   30.80    2.00
  -1   4  -7   29.80    2.30
  -1   4  -7   31.50    2.30
  -2   4  -7   56.29    2.50
  -2   4  -7   59.69    2.90
  -3  -3   7   14.20    1.30
  -3  -3   7   18.50    1.30
   2   3  -7  128.49    5.10
  -2  -3   7  133.29    4.50
  -2  -3   7  128.19    4.70
   1   3  -7   26.30    2.10
  -1  -3   7   24.40    2.40
   0   3  -7   35.00    2.70
   0   3  -7   31.20    2.10
   0   3  -7   31.10    2.10
  -1   3  -7  128.59    4.70
  -1   3  -7  131.59    4.90
  -1   3  -7  131.99    4.70
  -2   3  -7    0.10    1.20
  -2   3  -7    1.20    1.30
  -2   3  -7    3.10    1.30
  -4  -2   7   34.00    1.50
   3   2  -7   21.70    2.20
  -3  -2   7   18.50    1.80
  -3  -2   7   16.00    1.90
   2   2  -7   -1.20    1.40
  -2  -2   7   -0.20    1.00
  -2  -2   7    0.30    0.90
   1   2  -7   18.90    1.70
   1   2  -7   18.20    2.00
  -1  -2   7   13.30    2.00
  -1   2  -7   35.60    2.60
  -1   2  -7   40.80    2.50
  -1   2  -7   38.40    2.60
  -2   2  -7   14.80    2.80
  -2   2  -7   21.50    2.00
  -2   2  -7   17.90    2.10
  -3   2  -7   16.30    2.10
  -3   2  -7   19.90    1.90
  -4  -1   7    5.90    1.00
  -3  -1   7   17.30    2.80
   2   1  -7  327.57   10.80
  -2  -1   7  348.37   10.70
  -2  -1   7  341.37   10.60
   1   1  -7   23.70    2.20
  -1  -1   7   27.20    1.80
   0   1  -7   48.20    2.20
   0  -1   7   44.20    1.90
   1  -1   7  233.98    7.60
  -2   1  -7  162.58    5.50
  -2   1  -7  166.38    5.50
  -2   1  -7  152.48    6.40
  -3   1  -7    0.40    0.90
  -3   1  -7   -1.20    0.80
  -4   0   7   13.50    1.40
   3   0  -7    8.80    2.00
  -3   0   7   11.60    1.80
  -2   0   7  147.79    5.00
  -2   0   7  144.99    5.20
  -1   0   7   22.40    1.70
   0   0  -7   42.20    2.10
   0   0   7   44.50    1.80
   1   0   7   95.39    3.70
  -2   0  -7   75.19    3.00
  -2   0  -7   75.39    3.00
  -3   0  -7   35.60    2.00
  -3   0  -7   35.70    2.20
  -4   0  -7   57.39    2.30
  -4   0  -7   53.69    2.30
  -4   1   7   44.30    2.20
  -3   1   7   15.80    1.70
  -3   1   7   14.30    2.60
  -2   1   7   49.99    2.20
  -2   1   7   45.70    4.10
  -1   1   7  389.46   12.60
  -1   1   7  405.36   12.20
   0   1   7  262.07    8.40
   1   1   7   45.80    2.70
  -2  -1  -7   18.30    1.60
  -2  -1  -7   17.70    1.70
   2   1   7   15.50    2.00
  -3  -1  -7    6.60    1.40
  -3  -1  -7    4.20    1.40
   3   1   7    2.20    1.20
  -4  -1  -7   17.00    1.10
  -4  -1  -7   18.30    1.20
  -4   2   7    1.30    0.70
  -3   2   7    5.00    1.50
   2  -2  -7   34.50    2.70
  -2   2   7   35.70    1.90
  -2   2   7   36.00    1.90
  -1   2   7   41.20    2.00
   0  -2  -7    6.60    1.80
   0   2   7    5.60    1.30
  -1  -2  -7    8.40    1.90
  -1  -2  -7    4.10    1.50
  -1  -2  -7    8.40    2.40
   1   2   7    5.20    1.40
  -2  -2  -7   79.89    3.40
  -2  -2  -7   81.79    3.10
   2   2   7   81.89    3.30
  -3  -2  -7    3.30    1.20
  -3  -2  -7    7.20    2.10
   3   2   7    1.70    0.90
  -3   3   7   16.40    2.60
  -2   3   7   12.20    1.30
  -2   3   7   11.00    1.30
  -1   3   7   24.30    1.60
  -1   3   7   23.70    1.70
   0   3   7   60.99    2.50
  -1  -3  -7    6.10    1.90
   1   3   7    4.30    1.50
  -2  -3  -7  149.29    5.60
  -2  -3  -7  159.58    5.20
   2   3   7  149.99    5.20
  -3  -3  -7    5.20    1.50
  -3   4   7    5.00    1.40
  -2   4   7   49.20    2.30
  -1   4   7   20.20    1.60
  -1   4   7   19.00    1.50
   0   4   7  147.79    5.20
  -1  -4  -7   27.30    2.30
   1   4   7   26.00    1.60
   2   4   7    5.10    1.20
  -3  -4  -7    9.40    0.90
   2  -5  -7   10.40    1.30
  -2   5   7   10.70    1.30
  -1   5   7    8.10    1.40
  -1   5   7    8.60    1.30
   0  -5  -7   51.49    2.30
   0   5   7   51.59    2.90
   1   5   7   15.90    1.60
   1  -6  -7   16.70    1.10
   0  -6  -7    7.90    1.20
  -1  -6   8    6.00    0.80
   0   6  -8    3.30    1.40
   0   6  -8    4.60    1.00
  -1   6  -8   77.39    2.70
  -1   6  -8   77.89    2.90
  -2  -5   8    2.80    0.80
   1   5  -8    1.10    0.90
  -1  -5   8   -0.40    0.60
   0   5  -8   29.40    2.90
   0   5  -8   32.30    1.80
  -1   5  -8   91.39    3.60
  -1   5  -8   95.39    3.40
  -2   5  -8    0.40    0.60
  -2   5  -8    0.20    0.70
  -3  -4   8   20.60    1.10
  -2  -4   8   13.70    1.90
  -2  -4   8   16.10    1.40
   1   4  -8  188.58    6.50
   0   4  -8   79.79    3.70
   0   4  -8   79.99    3.30
  -1   4  -8   42.60    2.30
  -1   4  -8   42.20    3.40
  -1   4  -8   41.90    2.40
  -2   4  -8    2.50    1.10
  -2   4  -8    6.10    1.70
  -3  -3   8   60.69    2.40
   2   3  -8    0.10    1.40
  -2  -3   8    1.10    0.80
  -2  -3   8    1.70    0.80
   1   3  -8   13.50    1.80
  -1  -3   8    7.80    2.00
   0   3  -8   96.19    4.00
   0   3  -8   91.99    3.60
   0   3  -8   91.49    3.60
  -1   3  -8   39.90    2.40
  -1   3  -8   38.00    3.70
  -2   3  -8   63.99    3.20
  -2   3  -8   61.69    3.00
  -2   3  -8   59.89    3.00
  -4  -2   8   18.70    1.40
  -3  -2   8   35.90    2.10
  -2  -2   8   30.00    2.00
  -2  -2   8   31.20    2.20
   1   2  -8   57.09    2.70
   1   2  -8   57.19    2.60
   0   2  -8  288.07    9.10
   0   2  -8  288.27    9.20
   0   2  -8  291.07    9.20
   0   2  -8  281.97    9.40
  -1   2  -8   25.50    2.00
  -1   2  -8   19.50    2.10
  -1   2  -8   22.80    2.30
  -1   2  -8   23.20    2.50
  -2   2  -8   49.60    2.60
  -2   2  -8   50.09    3.20
  -2   2  -8   55.79    2.60
  -3   2  -8    0.50    0.70
  -3   2  -8    0.00    0.90
  -4  -1   8   11.10    1.00
   3   1  -8    2.90    1.50
  -3  -1   8    2.40    0.90
   2   1  -8    0.70    0.90
  -2  -1   8    0.90    0.80
   1   1  -8   24.20    2.40
  -1  -1   8   21.70    2.30
   0   1  -8  121.69    4.70
   0  -1   8  126.19    4.30
  -1   1  -8   33.90    2.60
  -1   1  -8   34.20    2.10
  -1   1  -8   35.90    2.10
   1  -1   8   34.00    2.70
  -2   1  -8   75.49    3.10
  -2   1  -8   70.59    4.20
  -2   1  -8   77.89    3.10
  -3   1  -8    0.60    0.90
  -3   1  -8   -1.10    0.80
  -4   1  -8    5.90    1.10
  -4   0   8    9.70    1.40
   3   0  -8  120.09    4.40
  -3   0   8  112.99    4.30
  -3   0   8  124.29    4.50
   2   0  -8    1.10    1.00
  -2   0   8   -0.90    1.00
  -2   0   8   -0.40    0.80
  -1   0   8    4.70    1.90
   0   0   8  256.77    8.20
  -1   0  -8  176.78    6.80
  -1   0  -8  181.28    6.10
   1   0   8  188.18    6.50
  -2   0  -8   19.00    1.60
  -2   0  -8   17.00    1.80
  -3   0  -8  352.96   11.20
  -3   0  -8  342.67   10.90
  -4   0  -8   96.49    3.40
  -4   0  -8  103.79    3.70
  -3   1   8   35.60    2.30
  -3   1   8   43.20    2.90
  -2   1   8   22.90    3.20
  -2   1   8   22.80    1.80
  -1   1   8   16.90    2.20
   0   1   8   70.59    3.00
  -1  -1  -8   38.80    2.80
  -1  -1  -8   43.50    2.40
  -1  -1  -8   42.50    2.50
  -2  -1  -8   94.19    3.60
  -2  -1  -8   97.09    3.70
  -3  -1  -8  134.79    4.60
  -3  -1  -8  127.69    4.60
  -4  -1  -8   11.60    1.00
  -4  -1  -8    8.70    0.90
  -3   2   8   21.30    1.80
  -2   2   8  160.78    5.40
   1  -2  -8   69.09    2.90
  -1   2   8   66.09    2.70
  -1   2   8   65.29    2.60
   0  -2  -8   81.39    3.30
   0   2   8   78.19    3.10
  -1  -2  -8   20.10    2.70
  -1  -2  -8   21.60    2.20
  -1  -2  -8   23.10    2.30
   1   2   8   26.90    1.90
  -2  -2  -8   13.90    2.00
  -2  -2  -8    9.70    1.50
  -3  -2  -8   20.80    1.30
  -3  -2  -8   18.90    1.50
  -3   3   8   10.00    1.60
   2  -3  -8   27.00    2.20
  -2   3   8   28.40    1.70
  -2   3   8   28.30    1.60
  -1   3   8   -0.10    0.70
  -1   3   8    0.40    0.70
   0   3   8    7.00    1.60
  -1  -3  -8   54.79    3.00
  -1  -3  -8   50.09    2.80
   1   3   8   52.89    2.30
  -2  -3  -8    0.30    0.80
   2   3   8   -0.70    0.80
  -3  -3  -8    4.90    0.90
  -3   4   8    5.90    1.80
   2  -4  -8    8.50    1.50
  -2   4   8    7.20    1.30
  -1   4   8   30.30    1.80
  -1   4   8   27.20    1.90
   0  -4  -8   15.10    1.80
   0   4   8   16.20    1.70
  -1  -4  -8  134.19    4.80
   1   4   8  133.29    4.60
   2   4   8    5.50    1.70
   2  -5  -8    9.40    1.20
  -2   5   8   11.40    1.70
   1  -5  -8   79.49    2.90
  -1   5   8   74.89    3.10
   0  -5  -8    4.10    1.20
   0   5   8    3.90    1.40
   1   5   8    1.00    0.80
  -1  -6   9   32.00    1.30
   0   6  -9    1.40    0.60
   0   6  -9    0.20    1.00
   0  -6   9   -0.80    0.70
  -1   6  -9   31.20    1.50
  -1   6  -9   31.20    1.30
   1   5  -9    7.30    1.40
  -1  -5   9    5.90    1.00
   0   5  -9  168.98    5.70
   0   5  -9  161.88    5.50
  -1   5  -9   50.79    2.70
  -1   5  -9   48.60    2.40
  -2   5  -9  107.39    3.50
  -2   5  -9   99.99    3.60
  -3  -4   9    7.00    1.00
  -3  -4   9    6.90    1.30
  -2  -4   9    4.50    1.00
  -2  -4   9    4.90    1.70
   1   4  -9   11.10    1.80
  -1  -4   9   17.00    2.80
   0   4  -9  201.58    6.90
   0   4  -9  193.98    6.60
   0   4  -9  196.48    6.90
  -1   4  -9   15.60    2.00
  -1   4  -9   12.40    1.60
  -1   4  -9   13.20    1.70
  -2   4  -9   63.69    2.70
  -2   4  -9   66.49    2.80
  -2   4  -9   63.89    2.50
  -3  -3   9    8.40    1.20
  -3  -3   9   11.20    1.20
   2   3  -9  215.98    7.40
  -2  -3   9  219.68    7.20
  -2  -3   9  224.38    7.30
   1   3  -9   19.30    1.80
  -1  -3   9   16.90    2.10
   0   3  -9   87.99    4.00
   0   3  -9   88.79    3.80
  -1   3  -9    7.00    2.30
  -1   3  -9    6.90    1.60
  -1   3  -9    5.80    1.80
  -1   3  -9    5.60    1.90
  -2   3  -9   91.89    3.90
  -2   3  -9   92.09    3.60
  -2   3  -9   90.19    3.80
  -4  -2   9   22.30    1.10
  -3  -2   9    0.40    0.60
   2   2  -9   13.30    2.10
  -2  -2   9   14.50    2.10
  -2  -2   9   18.70    1.80
   1   2  -9  143.49    4.90
   1   2  -9  137.09    4.80
   1   2  -9  132.39    5.70
   0   2  -9    2.50    1.20
   0   2  -9    1.00    0.80
   0   2  -9    0.00    0.90
   0   2  -9    1.90    0.80
  -1   2  -9  112.39    4.40
  -1   2  -9  108.29    4.10
  -1   2  -9  115.99    4.10
  -1   2  -9  109.89    4.40
  -2   2  -9   18.20    2.50
  -2   2  -9   12.50    1.80
  -2   2  -9   14.90    1.70
  -3   2  -9    6.40    1.40
  -3   2  -9    5.80    1.50
  -4  -1   9    1.30    0.60
   3   1  -9   17.70    2.40
  -3  -1   9   18.20    2.50
  -2  -1   9   46.90    2.50
   1   1  -9  220.38    7.90
   1   1  -9  218.18    7.20
   0   1  -9  155.48    5.40
   0   1  -9  151.98    5.70
   0   1  -9  180.08    6.10
   0  -1   9  157.68    5.70
  -1   1  -9   43.30    2.20
  -1   1  -9   44.50    2.20
  -1   1  -9   41.60    2.70
  -2   1  -9    6.80    2.90
  -2   1  -9    5.30    1.50
  -2   1  -9    4.80    1.50
  -3   1  -9    1.00    0.60
  -3   1  -9   -1.10    0.90
  -4   0   9   -0.10    0.70
   3   0  -9    4.70    1.70
  -3   0   9    2.20    0.90
  -3   0   9    2.70    1.00
   2   0  -9    1.50    1.00
  -2   0   9    0.70    0.90
   1   0  -9  105.39    4.00
   0   0   9   47.00    2.60
  -1   0  -9  156.48    5.30
  -1   0  -9  153.78    5.60
  -1   0  -9  154.78    5.30
  -2   0  -9    5.70    1.50
  -2   0  -9    6.30    1.60
  -3   0  -9   17.90    1.50
  -3   0  -9   15.90    1.50
  -4   0  -9    8.30    0.90
   3  -1  -9    7.20    1.70
  -3   1   9    5.90    2.10
  -2   1   9    3.40    0.90
  -2   1   9    1.40    1.40
   1  -1  -9  142.19    5.10
   0  -1  -9  139.79    4.90
  -1  -1  -9   56.69    2.60
  -1  -1  -9   58.69    3.00
  -1  -1  -9   57.29    2.80
  -2  -1  -9  567.04   17.30
  -2  -1  -9  551.64   17.40
  -3  -1  -9  133.39    4.50
  -3  -1  -9  133.69    4.60
  -3   2   9   13.40    1.90
   2  -2  -9    0.20    1.30
  -2   2   9    0.90    0.70
   1  -2  -9   39.00    2.30
  -1   2   9   39.40    2.20
   0  -2  -9    6.30    1.60
  -1  -2  -9  142.29    5.20
  -1  -2  -9  142.79    5.20
  -1  -2  -9  150.58    5.10
  -2  -2  -9  179.38    6.20
  -2  -2  -9  194.78    6.30
  -3  -2  -9    9.20    1.10
  -3  -2  -9    8.70    1.20
  -3   3   9   40.40    2.40
  -2   3   9    6.50    1.50
   1  -3  -9   59.59    2.80
  -1   3   9   61.19    2.70
   0  -3  -9   20.70    1.80
   0   3   9   23.00    2.10
  -1  -3  -9   14.50    2.40
  -1  -3  -9   17.00    2.10
   1   3   9   17.00    2.00
  -2  -3  -9   12.20    1.50
  -3  -3  -9    0.70    0.50
   2  -4  -9    1.00    0.80
  -2   4   9   -0.20    0.60
   1  -4  -9    1.90    0.90
  -1   4   9    1.10    0.60
   0  -4  -9   22.10    1.80
   0   4   9   23.50    1.90
  -1  -4  -9    7.20    1.90
   1   4   9    8.40    2.00
  -2  -4  -9    5.20    1.50
   2  -5  -9   10.10    1.10
   1  -5  -9   22.80    1.50
  -1   5   9   21.30    2.00
   0  -5  -9   67.99    2.60
   0   5   9   66.89    2.90
   0   6 -10    3.00    0.90
  -2  -5  10   38.40    1.50
   1   5 -10    0.90    0.70
  -1  -5  10    0.50    0.60
   0   5 -10   39.40    2.30
   0   5 -10   37.60    1.80
  -1   5 -10    2.20    0.60
  -1   5 -10    1.80    0.80
  -2   5 -10    0.00    0.60
  -2   5 -10   -0.70    0.60
   2   4 -10    3.10    1.30
  -2  -4  10    4.00    1.50
  -2  -4  10    4.30    1.00
   1   4 -10  235.08    7.50
  -1  -4  10  217.38    7.60
   0   4 -10   11.70    2.20
   0   4 -10   12.00    1.70
  -1   4 -10  264.37    8.40
  -1   4 -10  251.67    8.60
  -1   4 -10  261.77    8.40
  -2   4 -10  242.28    7.70
  -2   4 -10  252.47    7.90
  -2   4 -10  240.08    7.80
  -3  -3  10   12.00    1.30
   2   3 -10    0.80    1.10
  -2  -3  10    0.40    0.70
  -2  -3  10    0.60    0.80
   1   3 -10  168.98    5.70
   1   3 -10  165.18    6.40
  -1  -3  10  159.38    5.70
   0   3 -10   80.29    3.70
   0   3 -10   82.49    3.40
   0   3 -10   79.99    3.30
  -1   3 -10  113.29    4.50
  -1   3 -10  106.09    4.20
  -1   3 -10  110.79    4.10
  -1   3 -10  107.89    4.20
  -2   3 -10   60.29    3.00
  -2   3 -10   64.89    3.30
  -2   3 -10   60.19    2.70
  -3  -2  10  160.98    5.50
   2   2 -10   -0.50    1.00
  -2  -2  10   -0.30    0.70
  -2  -2  10    0.30    1.10
   1   2 -10   77.49    4.20
   1   2 -10   84.39    3.80
   1   2 -10   85.49    3.30
   0   2 -10    0.40    0.70
   0   2 -10   -0.10    0.90
   0   2 -10    0.70    0.80
   0   2 -10    1.70    1.20
  -1   2 -10  251.87    7.90
  -1   2 -10  244.68    8.20
  -1   2 -10  234.98    8.00
  -2   2 -10   11.60    1.70
  -2   2 -10   10.30    1.60
  -2   2 -10   15.30    2.40
  -3   2 -10    0.70    0.70
  -3   2 -10    0.40    0.80
  -4  -1  10    1.20    0.50
   3   1 -10   13.50    1.80
  -3  -1  10   11.90    1.60
   2   1 -10  137.19    4.90
  -2  -1  10  138.79    5.00
   1   1 -10    7.60    2.20
   1   1 -10    6.00    1.70
   1   1 -10    6.40    1.60
   0   1 -10   57.99    2.90
   0   1 -10   58.69    2.80
   0   1 -10   61.69    2.60
   0   1 -10   62.49    3.00
  -1   1 -10   35.80    2.00
  -1   1 -10   33.50    2.00
  -1   1 -10   33.00    2.60
  -2   1 -10   10.50    1.50
  -2   1 -10   12.20    1.50
  -2   1 -10   13.00    2.90
  -3   1 -10   21.90    1.50
  -3   1 -10   21.20    1.40
   3   0 -10   29.70    1.90
  -3   0  10   27.70    2.10
   2   0 -10   81.19    3.30
  -2   0  10   82.09    3.50
   1   0 -10  203.48    7.30
   1   0 -10  227.78    7.10
   0   0 -10   17.30    2.00
   0   0 -10   17.70    2.40
   0   0 -10   11.60    1.80
   0   0 -10   13.10    2.60
  -1   0 -10    1.00    0.90
  -1   0 -10    1.00    0.70
  -1   0 -10    1.90    1.20
  -2   0 -10    1.80    0.80
  -2   0 -10    2.80    1.30
  -3   0 -10  104.19    3.70
  -3   0 -10  108.49    3.70
   3  -1 -10    4.00    1.50
  -2   1  10   32.10    3.00
   1  -1 -10   20.60    2.00
   0  -1 -10  102.29    4.20
   0  -1 -10  106.79    3.90
   0  -1 -10  100.19    4.00
  -1  -1 -10   29.50    2.10
  -1  -1 -10   31.80    2.10
  -1  -1 -10   29.80    2.40
  -2  -1 -10   13.90    1.70
  -2  -1 -10   17.40    1.50
  -3  -1 -10    6.80    1.10
  -3  -1 -10    7.10    1.40
  -3   2  10    2.30    1.50
   2  -2 -10   55.79    3.00
  -2   2  10   57.99    2.90
   1  -2 -10   54.89    2.60
  -1  -2 -10  560.04   17.20
  -1  -2 -10  574.34   17.40
  -1  -2 -10  552.44   17.30
  -2  -2 -10  114.39    4.20
  -3  -2 -10   18.20    1.30
  -3  -2 -10   15.50    1.30
   3  -3 -10    1.00    0.70
   2  -3 -10   13.80    2.00
  -2   3  10   14.40    1.80
   1  -3 -10    0.80    1.20
  -1   3  10    0.30    1.00
   0  -3 -10  141.89    4.90
   0   3  10  135.19    5.40
  -1  -3 -10  157.18    5.50
  -2  -3 -10    0.50    0.70
  -3  -3 -10   25.90    1.20
   2  -4 -10   27.40    1.60
  -2   4  10   26.40    2.10
   1  -4 -10   18.90    1.90
  -1   4  10   14.70    1.90
   0  -4 -10   13.40    1.60
   0   4  10   13.60    2.20
  -1  -4 -10    2.10    1.00
   2  -5 -10    1.30    0.70
   1  -5 -10    2.10    0.60
   0  -5 -10    6.10    1.10
   1   5 -11    0.80    0.70
  -1  -5  11    2.40    0.90
   0   5 -11    6.40    1.60
   0   5 -11    3.50    1.00
  -1   5 -11   11.10    1.40
  -1   5 -11   13.20    1.90
   2   4 -11   15.60    1.90
  -2  -4  11   13.60    1.60
  -2  -4  11   13.50    1.10
  -1  -4  11   36.70    2.50
   0   4 -11    0.40    1.20
   0   4 -11    0.50    0.90
  -1   4 -11    0.10    0.70
  -1   4 -11    0.20    0.90
  -2   4 -11    5.50    1.40
  -2   4 -11    6.20    1.30
  -2   4 -11    3.90    1.40
  -3  -3  11   -0.20    0.40
  -2  -3  11  196.48    6.30
  -2  -3  11  177.38    6.10
   1   3 -11    6.20    1.50
   1   3 -11    1.50    1.80
  -1  -3  11    2.90    0.90
   0   3 -11  380.16   12.60
   0   3 -11  383.86   12.20
   0   3 -11  392.96   12.20
  -1   3 -11  539.35   16.80
  -1   3 -11  572.64   17.40
  -1   3 -11  520.55   17.00
  -2   3 -11  123.79    4.50
  -2   3 -11  124.19    4.30
  -2   3 -11  115.59    4.30
  -3  -2  11    9.50    1.20
   2   2 -11   98.79    3.90
  -2  -2  11   98.39    3.80
  -2  -2  11   95.09    3.80
   1   2 -11  133.69    4.70
   1   2 -11  132.79    4.70
   1   2 -11  132.19    5.40
  -1  -2  11  127.09    5.70
   0   2 -11  139.69    5.20
   0   2 -11  142.79    5.00
   0   2 -11  139.89    4.90
  -1   2 -11  141.49    5.20
  -1   2 -11  151.78    5.40
  -1   2 -11  153.18    5.20
  -1   2 -11  154.98    5.60
  -2   2 -11    3.90    1.30
  -2   2 -11    3.60    1.40
  -2   2 -11    7.20    2.30
  -3   2 -11   22.60    1.50
  -3   2 -11   19.50    1.50
   3   1 -11   15.20    1.80
  -3  -1  11   13.50    1.50
   2   1 -11   44.10    2.40
  -2  -1  11   45.40    2.50
   1   1 -11   20.60    2.60
   1   1 -11   17.60    2.30
   0   1 -11  318.17    9.80
   0   1 -11  289.67    9.90
   0   1 -11  317.97    9.80
   0   1 -11  306.37    9.80
  -1   1 -11    2.20    0.80
  -1   1 -11    5.50    2.00
  -1   1 -11    3.10    1.00
  -2   1 -11    2.70    1.00
  -2   1 -11    3.70    1.60
  -2   1 -11    5.10    1.40
  -3   1 -11   12.20    1.30
  -3   1 -11   12.40    1.20
   3   0 -11   68.49    2.80
  -3   0  11   69.79    2.80
   2   0 -11   14.60    1.60
  -2   0  11   14.00    2.00
   1   0 -11    2.70    1.10
   1   0 -11   -0.30    0.90
   0   0 -11   32.90    2.30
   0   0 -11   33.70    2.60
   0   0 -11   33.10    2.60
   0   0 -11   33.70    2.00
  -1   0 -11    3.80    1.40
  -1   0 -11    3.40    1.30
  -1   0 -11    2.80    1.20
  -2   0 -11   52.89    2.90
  -2   0 -11   57.09    3.60
  -3   0 -11   11.30    1.10
   3  -1 -11   11.20    1.30
   2  -1 -11  140.59    5.10
  -2   1  11  123.39    5.10
   1  -1 -11    0.40    0.90
   0  -1 -11   -0.90    1.30
   0  -1 -11    0.90    1.10
   0  -1 -11   -0.10    0.90
  -1  -1 -11   20.00    2.10
  -1  -1 -11   20.00    1.90
  -1  -1 -11   18.70    1.80
  -2  -1 -11  141.29    5.10
  -2  -1 -11  156.48    5.30
  -3  -1 -11   16.20    1.10
  -3  -1 -11   17.20    1.30
   3  -2 -11   10.30    1.20
   2  -2 -11   19.40    2.40
   1  -2 -11   33.20    2.10
   0  -2 -11   56.79    2.60
  -1  -2 -11   16.80    2.30
  -1  -2 -11   13.00    2.10
  -1  -2 -11   17.50    2.20
  -2  -2 -11    1.60    0.80
  -3  -2 -11    3.80    1.10
  -3  -2 -11    4.20    1.10
   3  -3 -11   22.50    1.30
   2  -3 -11   15.40    1.70
   1  -3 -11  102.69    3.90
   0  -3 -11  439.16   14.00
  -1  -3 -11   49.20    2.70
  -2  -3 -11   28.10    1.70
   2  -4 -11    0.70    0.70
   1  -4 -11   89.19    3.50
   1  -4 -11   92.39    3.30
   0  -4 -11   80.39    3.00
  -1  -4 -11    0.30    0.90
   0  -5 -11    0.80    0.70
   1   5 -12    0.80    0.60
  -1  -5  12    0.70    0.50
   0   5 -12   -0.30    0.60
   0   5 -12    1.40    0.90
  -1   5 -12    5.10    1.10
  -1   5 -12    3.20    1.10
   2   4 -12    0.70    1.10
  -2  -4  12    0.10    0.50
   1   4 -12    3.10    1.30
  -1  -4  12    5.90    2.00
   0   4 -12   11.50    1.90
   0   4 -12   16.50    1.40
  -1   4 -12    9.30    1.50
  -1   4 -12    5.90    1.30
  -1   4 -12    9.90    1.30
  -2   4 -12   39.00    1.80
  -2   4 -12   42.00    2.00
  -3  -3  12   20.20    1.10
   2   3 -12   18.80    1.60
  -2  -3  12   17.60    1.50
  -2  -3  12   17.10    1.40
   1   3 -12    2.00    1.10
   1   3 -12   -0.20    1.70
  -1  -3  12    0.70    0.90
   0   3 -12    3.30    1.30
   0   3 -12    5.00    2.00
   0   3 -12    4.30    1.20
  -1   3 -12   10.30    1.50
  -1   3 -12   12.50    2.10
  -1   3 -12    7.40    1.80
  -2   3 -12   65.69    2.60
  -2   3 -12   68.79    3.00
   2   2 -12   33.80    2.20
  -2  -2  12   35.50    2.00
   1   2 -12  358.76   11.70
   1   2 -12  347.37   11.40
   1   2 -12  364.66   11.40
  -1  -2  12  365.06   11.90
   0   2 -12  652.03   20.40
   0   2 -12  642.84   20.20
   0   2 -12  657.83   20.00
  -1   2 -12   73.29    3.50
  -1   2 -12   73.09    3.10
  -1   2 -12   68.69    3.30
  -1   2 -12   71.79    3.40
  -2   2 -12  161.08    5.60
  -3   2 -12    0.50    0.60
   3   1 -12   23.60    1.80
  -3  -1  12   25.60    1.60
   2   1 -12  103.99    4.00
  -2  -1  12  105.29    4.00
   1   1 -12  106.89    4.50
   1   1 -12  109.19    4.00
   1   1 -12  106.29    4.40
   0   1 -12  220.98    7.20
   0   1 -12  213.68    7.20
   0   1 -12  214.48    7.30
  -1   1 -12    2.80    1.10
  -1   1 -12    4.70    1.60
  -1   1 -12    6.00    1.90
  -2   1 -12   16.60    2.50
  -2   1 -12   22.00    1.70
  -2   1 -12   22.40    1.70
  -3   1 -12   16.40    1.20
  -3   1 -12   16.10    1.30
   3   0 -12   22.10    1.60
  -3   0  12   21.20    1.70
   2   0 -12   52.19    2.60
  -2   0  12   51.09    2.70
   1   0 -12  156.58    5.30
   1   0 -12  151.48    5.50
   0   0 -12    1.40    1.00
   0   0 -12    2.50    0.80
   0   0 -12    2.90    1.30
  -1   0 -12    2.60    0.80
  -1   0 -12    4.20    1.60
  -1   0 -12    6.20    2.70
  -2   0 -12   67.39    2.80
  -2   0 -12   66.59    2.80
  -2   0 -12   67.29    3.60
  -3   0 -12   11.20    1.00
  -3   0 -12   12.70    1.10
   3  -1 -12    5.20    1.10
   2  -1 -12    7.50    1.50
  -2   1  12    4.30    1.30
   1  -1 -12    5.30    2.00
   1  -1 -12    8.10    1.60
   0  -1 -12   -0.60    1.00
   0  -1 -12    1.90    1.40
   0  -1 -12    0.70    0.80
  -1  -1 -12   69.79    3.00
  -1  -1 -12   67.59    2.90
  -1  -1 -12   66.29    3.20
  -2  -1 -12    7.50    1.40
  -3  -1 -12   41.50    1.80
  -3  -1 -12   43.50    1.70
   3  -2 -12   45.80    2.30
   2  -2 -12    0.40    0.90
   1  -2 -12    0.80    1.00
   1  -2 -12    1.60    1.00
   0  -2 -12   47.70    2.40
  -1  -2 -12  120.49    4.50
  -1  -2 -12  117.89    4.60
  -1  -2 -12  129.09    4.60
  -2  -2 -12   12.20    1.50
  -2  -2 -12   11.50    1.30
   3  -3 -12    7.90    0.90
   2  -3 -12    6.10    1.20
   2  -3 -12    1.80    1.00
   1  -3 -12   55.79    2.50
   1  -3 -12   53.19    3.20
   0  -3 -12    6.70    1.60
  -1  -3 -12   -0.70    0.90
  -2  -3 -12    3.70    1.00
   2  -4 -12   69.09    2.50
   2  -4 -12   69.09    2.70
   1  -4 -12  198.28    6.40
   0  -4 -12   12.00    1.30
  -1  -4 -12   36.70    2.30
   0   5 -13    8.40    1.60
   0   5 -13    5.80    0.90
   0  -5  13    6.20    0.90
   2   4 -13    1.10    1.20
  -2  -4  13    0.30    0.70
  -2  -4  13    2.30    0.90
   1   4 -13    0.60    0.90
  -1  -4  13    2.40    0.90
   0   4 -13    3.30    1.20
   0   4 -13    3.90    1.50
   0  -4  13    3.00    1.60
  -1   4 -13    0.10    0.70
  -1   4 -13    0.80    0.80
  -1   4 -13    0.70    0.60
  -2   4 -13   14.90    1.50
  -2  -3  13    0.40    0.60
  -2  -3  13    1.40    0.80
   1   3 -13   12.20    2.90
   1   3 -13   13.40    1.60
  -1  -3  13   12.70    1.90
   0   3 -13    6.90    1.70
   0   3 -13    5.70    1.50
  -1   3 -13   59.59    2.60
  -2   3 -13   -0.40    0.60
  -2   3 -13    1.60    0.90
  -3  -2  13    4.50    1.00
   2   2 -13    1.80    0.80
  -2  -2  13    1.30    0.60
   1   2 -13   13.80    1.80
   1   2 -13   16.80    2.80
  -1  -2  13   14.60    1.80
   0   2 -13    8.60    1.90
   0   2 -13    6.00    1.60
   0   2 -13    5.60    1.60
  -1   2 -13  103.29    4.20
  -1   2 -13  105.19    3.90
  -1   2 -13   99.49    3.80
  -1   2 -13  104.79    4.50
  -2   2 -13   23.00    1.50
  -2   2 -13   23.90    1.50
  -2   2 -13   26.40    2.00
  -3   2 -13   36.00    1.60
   3   1 -13   41.10    2.00
  -3  -1  13   40.70    2.20
   2   1 -13  247.48    8.20
  -2  -1  13  258.67    8.20
   1   1 -13  518.35   15.90
   1   1 -13  520.55   16.00
   1   1 -13  494.35   15.80
   0   1 -13    2.70    1.20
   0   1 -13    3.30    1.10
   0   1 -13    1.50    0.70
   0   1 -13    1.80    1.00
  -1   1 -13  222.08    7.40
  -1   1 -13  227.28    7.80
  -1   1 -13  233.68    7.60
  -2   1 -13   -0.50    0.70
  -2   1 -13   -0.30    0.50
  -3   1 -13   13.30    1.40
  -3   1 -13   12.60    1.10
   3   0 -13   42.80    1.90
  -3   0  13   41.30    2.00
   2   0 -13   78.19    3.20
  -2   0  13   80.59    3.20
   1   0 -13  151.68    5.30
   1   0 -13  152.28    5.50
   0   0 -13   42.70    2.60
   0   0 -13   43.80    2.20
   0   0 -13   43.00    2.50
   0   0 -13   37.30    2.70
  -1   0 -13    8.20    1.50
  -1   0 -13    4.60    1.90
  -1   0 -13    9.60    1.70
  -2   0 -13   14.70    2.10
  -2   0 -13   16.60    2.40
  -2   0 -13   13.30    1.80
  -3   0 -13   21.70    1.20
  -3   0 -13   22.50    1.20
   3  -1 -13   47.10    2.10
   2  -1 -13   42.10    2.20
   1  -1 -13    6.90    1.80
   1  -1 -13    6.30    1.60
  -1   1  13   10.30    2.30
   0  -1 -13    2.10    0.90
   0  -1 -13    1.00    1.30
   0  -1 -13    0.50    1.50
  -1  -1 -13  121.79    4.60
  -1  -1 -13  124.29    4.30
  -1  -1 -13  119.59    4.40
  -2  -1 -13    0.90    0.60
  -2  -1 -13    1.80    0.70
  -3  -1 -13   20.70    1.20
  -3  -1 -13   21.40    1.10
   3  -2 -13    8.80    0.90
   2  -2 -13   -1.20    1.10
   2  -2 -13   -0.30    0.60
   1  -2 -13    4.60    1.70
   1  -2 -13    7.00    1.70
   0  -2 -13   43.00    2.40
  -1  -2 -13    3.60    1.10
  -1  -2 -13    5.10    2.00
  -2  -2 -13   67.39    2.60
  -2  -2 -13   64.49    2.50
   2  -3 -13    1.70    0.90
   2  -3 -13    0.70    0.70
   1  -3 -13   53.29    2.50
   1  -3 -13   55.59    2.40
   0  -3 -13   68.69    2.80
  -1  -3 -13    6.50    1.70
   1  -4 -13    1.20    0.90
   0  -4 -13    0.00    0.70
   1   4 -14    4.50    1.10
  -1  -4  14    7.90    1.70
  -1  -4  14    5.90    0.90
   0   4 -14   15.10    1.60
   0   4 -14   15.90    1.20
  -1   4 -14    7.10    1.20
   2   3 -14    1.20    0.70
  -2  -3  14    1.10    0.60
   1   3 -14    3.70    1.70
   1   3 -14    4.10    1.30
  -1  -3  14    2.80    0.80
   0   3 -14    2.50    1.00
   0   3 -14    1.00    0.80
   0   3 -14    1.50    0.70
   0  -3  14    0.40    0.70
  -1   3 -14   24.20    1.80
  -1   3 -14   24.40    1.70
  -2   3 -14    5.40    1.00
  -3  -2  14   -0.20    0.40
   2   2 -14    9.30    1.40
  -2  -2  14    7.30    1.20
   1   2 -14    4.70    1.50
  -1  -2  14    4.30    1.50
   0   2 -14   69.69    2.90
   0   2 -14   65.99    2.90
   0   2 -14   63.29    3.20
  -1   2 -14    1.80    0.80
  -1   2 -14    1.20    1.10
  -1   2 -14    1.30    0.80
  -2   2 -14   45.10    2.00
  -2   2 -14   46.90    2.40
  -2   2 -14   46.00    1.90
   3   1 -14    0.30    0.70
  -3  -1  14    0.40    0.50
   2   1 -14   20.40    2.00
  -2  -1  14   19.50    1.50
   1   1 -14    0.40    1.00
   1   1 -14   -0.20    1.20
  -1  -1  14   -0.20    0.80
   0   1 -14   63.69    3.10
   0   1 -14   68.99    3.00
   0   1 -14   74.19    3.70
  -1   1 -14   97.79    4.00
  -1   1 -14   96.19    3.70
  -1   1 -14   94.39    3.60
  -2   1 -14   43.30    1.90
  -2   1 -14   40.30    2.50
  -2   1 -14   44.40    1.90
   3   0 -14  112.09    3.70
  -3   0  14  107.49    4.20
   2   0 -14  273.17    8.90
  -2   0  14  280.57    8.80
   1   0 -14   14.30    1.80
   1   0 -14   18.80    2.10
  -1   0  14   17.60    1.90
   0   0 -14  158.28    5.80
   0   0 -14  157.48    5.50
   0   0 -14  156.38    5.60
  -1   0 -14    1.50    0.90
  -1   0 -14    3.20    1.30
  -1   0 -14    0.90    1.10
  -2   0 -14   21.20    2.20
  -2   0 -14   20.60    1.40
  -2   0 -14   25.30    1.80
   3  -1 -14   42.30    1.90
   2  -1 -14   63.09    2.60
   1  -1 -14   72.49    3.10
   1  -1 -14   76.39    3.20
  -1   1  14   70.99    3.40
   0  -1 -14   -1.00    1.50
  -1  -1 -14    2.00    1.00
  -1  -1 -14    1.50    0.70
  -2  -1 -14   33.50    1.70
  -2  -1 -14   37.40    1.70
   2  -2 -14    4.50    1.10
   2  -2 -14    2.50    1.30
   1  -2 -14   -0.30    0.80
   1  -2 -14   -0.10    0.80
   0  -2 -14  128.29    4.90
  -1  -2 -14    5.70    2.00
  -1  -2 -14    2.90    1.00
  -2  -2 -14   19.30    1.60
  -2  -2 -14   18.20    2.20
   2  -3 -14    9.00    1.10
   2  -3 -14    7.80    2.00
   1  -3 -14   14.60    2.10
   0  -3 -14    3.70    1.20
  -1  -3 -14   57.59    2.50
   1  -4 -14   21.80    1.30
   0  -4 -14    5.00    1.10
   1   4 -15    3.30    0.90
  -1  -4  15    4.90    0.90
   0   4 -15    1.40    0.60
   0   4 -15    0.60    0.80
  -1   4 -15    5.20    1.00
   2   3 -15    0.40    0.60
  -2  -3  15   -0.10    0.50
   1   3 -15   24.50    1.60
  -1  -3  15   23.80    1.50
   0   3 -15   11.50    1.50
   0   3 -15    9.70    1.10
   0   3 -15   10.00    1.30
   0  -3  15   10.70    1.40
  -1   3 -15    9.60    1.00
  -1   3 -15    8.30    1.40
  -1   3 -15    8.60    2.30
   2   2 -15    1.10    0.50
  -2  -2  15    1.80    0.60
   1   2 -15    5.30    1.10
   1   2 -15    3.30    1.40
  -1  -2  15    3.30    1.20
   0   2 -15   20.00    1.50
   0   2 -15   21.80    1.70
   0   2 -15   21.80    1.90
  -1   2 -15   16.80    1.80
  -1   2 -15   14.80    1.30
  -2   2 -15    4.90    1.50
  -2   2 -15    6.50    1.00
   2   1 -15    2.40    0.80
  -2  -1  15    3.60    1.20
   1   1 -15   41.60    2.50
   0   1 -15   14.60    1.80
   0   1 -15    9.30    1.60
   0   1 -15   12.30    1.80
  -1   1 -15   30.40    2.00
  -1   1 -15   31.20    1.70
  -1   1 -15   29.40    1.70
  -2   1 -15    1.70    0.50
  -2   1 -15    0.20    1.50
  -2   1 -15    3.00    0.90
   2   0 -15   -0.10    0.60
  -2   0  15   -0.50    0.70
   1   0 -15   17.80    2.50
  -1   0  15   17.60    2.60
   0   0 -15  129.09    4.80
  -1   0 -15   28.50    1.60
  -1   0 -15   28.70    1.80
  -1   0 -15   28.00    1.90
  -2   0 -15    5.50    0.90
  -2   0 -15    4.30    1.30
  -2   0 -15    4.00    1.00
   2  -1 -15   41.80    2.00
   1  -1 -15   67.09    2.90
   1  -1 -15   66.99    2.80
  -1   1  15   65.69    3.00
   0  -1 -15    0.70    1.00
  -1  -1 -15   16.40    2.00
  -1  -1 -15   20.10    1.50
  -1  -1 -15   21.50    1.70
  -2  -1 -15    1.30    0.50
  -2  -1 -15    1.40    1.20
   2  -2 -15   53.39    2.50
   1  -2 -15    0.00    0.90
   1  -2 -15    0.50    0.80
   0  -2 -15    2.50    1.00
  -1  -2 -15   29.30    1.80
   1  -3 -15   52.69    2.20
   0  -3 -15   16.20    1.50
  -1  -3 -15   12.30    2.00
   1   3 -16    0.30    0.60
  -1  -3  16   -0.70    0.70
  -1  -3  16   -0.50    0.60
   0   3 -16   21.90    1.70
   0   3 -16   24.40    1.40
   0  -3  16   24.20    1.60
  -1   3 -16   56.79    2.30
  -1   3 -16   57.99    2.10
   1  -3  16   49.30    2.30
   2   2 -16   21.90    1.60
  -2  -2  16   25.50    2.00
   1   2 -16    7.20    1.10
   1   2 -16    6.20    2.30
  -1  -2  16    6.40    1.20
   0   2 -16   14.70    1.60
   0   2 -16   11.20    1.30
   0   2 -16   16.40    1.50
  -1   2 -16   15.10    1.30
  -1   2 -16   14.50    1.40
   2   1 -16    4.90    1.10
  -2  -1  16    2.80    1.10
   1   1 -16   11.20    1.30
   1   1 -16   12.30    1.80
  -1  -1  16   12.50    1.60
   0   1 -16   14.70    1.60
   0   1 -16   14.30    1.60
   0   1 -16   15.90    1.70
  -1   1 -16    0.70    0.80
  -1   1 -16    0.70    0.70
  -2   1 -16   31.70    1.40
   2   0 -16   16.00    1.20
  -2   0  16   16.10    1.50
   1   0 -16   16.20    1.50
   1   0 -16   14.10    1.60
  -1   0  16   19.30    1.60
   0   0 -16   11.20    1.80
   0   0 -16    8.10    1.50
  -1   0 -16    2.40    0.80
  -2   0 -16    2.30    0.80
  -2   0 -16    4.80    1.00
   2  -1 -16    0.80    0.50
   1  -1 -16   67.49    2.70
   1  -1 -16   73.99    2.90
   0  -1 -16    8.60    1.30
  -1  -1 -16    5.00    1.30
   2  -2 -16   18.70    1.30
   1  -2 -16    0.40    0.80
   0  -2 -16    9.30    1.70
  -1  -2 -16    0.00    0.80
   0  -3 -16   10.20    1.20
   0   3 -17   17.10    1.60
   0   3 -17   20.80    1.20
   0  -3  17   19.60    1.60
   1   2 -17   33.90    1.70
  -1  -2  17   34.70    1.60
   0   2 -17   55.19    3.20
   0   2 -17   65.69    3.10
   0  -2  17   71.29    2.50
  -1   2 -17   17.80    1.20
  -1   2 -17   15.10    1.90
   2   1 -17    3.70    0.80
  -2  -1  17    1.70    0.50
   1   1 -17   16.00    3.10
  -1  -1  17   16.30    1.60
   0   1 -17    8.60    2.20
   0   1 -17   10.50    1.70
  -1   1 -17   22.30    1.50
   2   0 -17    3.50    0.90
   1   0 -17    5.50    1.50
   1   0 -17   10.80    1.20
  -1   0  17    8.00    1.50
   0   0 -17    2.30    0.80
  -1   0 -17   49.10    2.00
  -1   0 -17   37.90    2.30
   1  -1 -17    0.80    0.80
   0  -1 -17    8.80    1.20
  -1  -1 -17    3.40    1.30
   1  -2 -17    2.00    0.70
   0  -2 -17   -0.20    0.60
   0   2 -18   23.60    1.50
   0  -2  18   24.90    1.40
   1   1 -18   50.89    2.00
  -1  -1  18   50.09    1.90
   0   1 -18   12.30    1.90
   0  -1  18   14.00    1.70
   1   0 -18    1.70    1.00
   1   0 -18    1.80    0.70
  -1   0  18    1.60    0.90
   0   0 -18   20.90    1.50
   0   0  18   21.80    1.50
   0  -1 -18   39.60    1.70
   0   0   0    0.00    0.00
_computing_structure_solution     'SHELXT 2014/5 (Sheldrick, 2014)'
;
_shelx_hkl_checksum              37723
_shelx_res_file
;
TITL JTM829_0m_a.res in P-1
    JTM829_0m_a.res
    created by SHELXL-2016/6 at 14:35:39 on 14-Sep-2017
REM Old TITL JTM829_0m in P-1
REM SHELXT solution in P-1
REM R1 0.114,  Rweak 0.008,  Alpha 0.031,  Orientation as input
REM Formula found by SHELXT:  C9 N2
CELL  1.54178   3.8342   5.5701  15.0346   93.396   92.812   92.361
ZERR    2.000   0.0002   0.0003   0.0009    0.004    0.004    0.004
LATT  1
SFAC C H N O
UNIT 12 12 8 2
TEMP -123
SIZE 0.013 0.07 0.205
L.S. 5
BOND $H
LIST 6
FMAP 2
PLAN 5
EQIV $1 -x+1, -y+1, -z+2
HTAB N1 O1_$1
EQIV $2 x+1, y+1, z
HTAB C2 O1_$2
EQIV $3 -x, -y+1, -z+1
HTAB C4 N4_$3
EQIV $4 x-1, y-1, z
HTAB C5 N2_$4
CONF
ACTA 136
WGHT    0.055200    0.101600
FVAR       1.05098
O1    4    0.252122    0.309648    0.917035    11.00000    0.03591    0.02317 =
         0.01923    0.00672    0.00103   -0.00375
N1    3    0.547153    0.669838    0.901913    11.00000    0.03007    0.02132 =
         0.01851    0.00405   -0.00051   -0.00091
H1    2    0.613635    0.673415    0.963701    11.00000    0.04892
N2    3    0.610291    0.861739    0.766593    11.00000    0.02857    0.01939 =
         0.02217    0.00418    0.00108   -0.00106
N3    3    0.316080    0.631263    0.642820    11.00000    0.02694    0.02084 =
         0.01701    0.00458    0.00215   -0.00044
N4    3    0.123968    0.417202    0.626633    11.00000    0.02778    0.02154 =
         0.02254    0.00300    0.00089   -0.00220
C1    1    0.348229    0.466848    0.867157    11.00000    0.02355    0.01971 =
         0.01966    0.00372    0.00137    0.00211
C2    1    0.666218    0.850508    0.852264    11.00000    0.02715    0.01933 =
         0.02288    0.00358    0.00087    0.00018
H2    2    0.810291    0.976807    0.887305    11.00000    0.03138
C3    1    0.413675    0.667288    0.729906    11.00000    0.02263    0.02006 =
         0.01900    0.00449    0.00134    0.00223
C4    1    0.409335    0.777134    0.570136    11.00000    0.03288    0.02957 =
         0.01942    0.00830    0.00338   -0.00148
H4A   2    0.442570    0.942208    0.592078    11.00000    0.05682
H4B   2    0.232202    0.747432    0.521111    11.00000    0.05582
H4C   2    0.623038    0.724493    0.545480    11.00000    0.05550
C5    1    0.101352    0.322562    0.705147    11.00000    0.02591    0.02152 =
         0.02099    0.00465    0.00032   -0.00066
H5    2   -0.039215    0.170315    0.709527    11.00000    0.03439
C6    1    0.278857    0.472340    0.773315    11.00000    0.02316    0.02008 =
         0.01987    0.00520    0.00197    0.00107
HKLF 4
REM  JTM829_0m_a.res in P-1
REM R1 =  0.0417 for    1037 Fo > 4sig(Fo)  and  0.0492 for all    1191 data
REM    124 parameters refined using      0 restraints
END
WGHT      0.0552      0.1016
REM Highest difference peak  0.179,  deepest hole -0.217,  1-sigma level  0.055
Q1    1   0.3588  1.0048  0.8961  11.00000  0.05    0.18
Q2    1   0.3361  0.4423  0.8168  11.00000  0.05    0.17
Q3    1   0.4980  0.5338  0.5663  11.00000  0.05    0.16
Q4    1   0.3461  0.3504  0.5583  11.00000  0.05    0.16
Q5    1   0.2385  0.9752  0.5862  11.00000  0.05    0.15
;
_shelx_res_checksum              71756
loop_
_space_group_symop_operation_xyz
'x, y, z'
'-x, -y, -z'
loop_
_atom_site_type_symbol
_atom_site_label
_atom_site_fract_x
_atom_site_fract_y
_atom_site_fract_z
_atom_site_U_iso_or_equiv
_atom_site_adp_type
_atom_site_calc_flag
_atom_site_occupancy
O O1 0.2521(3) 0.3096(2) 0.91704(8) 0.0260(3) Uani d 1
N N1 0.5472(4) 0.6698(3) 0.90191(10) 0.0233(4) Uani d 1
H H1 0.614(6) 0.673(5) 0.9637(19) 0.049(7) Uiso d 1
N N2 0.6103(4) 0.8617(2) 0.76659(9) 0.0233(4) Uani d 1
N N3 0.3161(4) 0.6313(2) 0.64282(9) 0.0215(4) Uani d 1
N N4 0.1240(4) 0.4172(3) 0.62663(10) 0.0240(4) Uani d 1
C C1 0.3482(4) 0.4668(3) 0.86716(10) 0.0208(4) Uani d 1
C C2 0.6662(5) 0.8505(3) 0.85226(11) 0.0231(4) Uani d 1
H H2 0.810(6) 0.977(4) 0.8873(15) 0.031(5) Uiso d 1
C C3 0.4137(4) 0.6673(3) 0.72991(11) 0.0204(4) Uani d 1
C C4 0.4093(5) 0.7771(3) 0.57014(12) 0.0270(4) Uani d 1
H H4A 0.443(7) 0.942(5) 0.5921(18) 0.057(8) Uiso d 1
H H4B 0.232(8) 0.747(5) 0.5211(19) 0.056(8) Uiso d 1
H H4C 0.623(7) 0.724(5) 0.5455(19) 0.056(7) Uiso d 1
C C5 0.1014(4) 0.3226(3) 0.70515(11) 0.0228(4) Uani d 1
H H5 -0.039(6) 0.170(4) 0.7095(15) 0.034(6) Uiso d 1
C C6 0.2789(4) 0.4723(3) 0.77331(11) 0.0208(4) Uani d 1
loop_
_atom_site_aniso_label
_atom_site_aniso_U_11
_atom_site_aniso_U_22
_atom_site_aniso_U_33
_atom_site_aniso_U_12
_atom_site_aniso_U_13
_atom_site_aniso_U_23
O1 0.0359(7) 0.0232(6) 0.0192(6) -0.0038(5) 0.0010(5) 0.0067(5)
N1 0.0301(8) 0.0213(7) 0.0185(7) -0.0009(6) -0.0005(6) 0.0040(6)
N2 0.0286(8) 0.0194(7) 0.0222(7) -0.0011(6) 0.0011(6) 0.0042(6)
N3 0.0269(8) 0.0208(7) 0.0170(7) -0.0004(5) 0.0022(5) 0.0046(5)
N4 0.0278(8) 0.0215(7) 0.0225(7) -0.0022(6) 0.0009(6) 0.0030(6)
C1 0.0235(9) 0.0197(8) 0.0197(8) 0.0021(6) 0.0014(6) 0.0037(6)
C2 0.0272(9) 0.0193(8) 0.0229(8) 0.0002(7) 0.0009(7) 0.0036(7)
C3 0.0226(8) 0.0201(8) 0.0190(8) 0.0022(6) 0.0013(6) 0.0045(6)
C4 0.0329(10) 0.0296(10) 0.0194(8) -0.0015(8) 0.0034(7) 0.0083(7)
C5 0.0259(9) 0.0215(8) 0.0210(8) -0.0007(6) 0.0003(6) 0.0046(7)
C6 0.0232(8) 0.0201(8) 0.0199(8) 0.0011(6) 0.0020(6) 0.0052(6)
loop_
_atom_type_symbol
_atom_type_description
_atom_type_scat_dispersion_real
_atom_type_scat_dispersion_imag
_atom_type_scat_source
C C 0.0181 0.0091 'International Tables Vol C Tables 4.2.6.8 and 6.1.1.4'
H H 0.0000 0.0000 'International Tables Vol C Tables 4.2.6.8 and 6.1.1.4'
N N 0.0311 0.0180 'International Tables Vol C Tables 4.2.6.8 and 6.1.1.4'
O O 0.0492 0.0322 'International Tables Vol C Tables 4.2.6.8 and 6.1.1.4'
loop_
_geom_angle_atom_site_label_1
_geom_angle_atom_site_label_2
_geom_angle_atom_site_label_3
_geom_angle
C2 N1 C1 124.42(15)
C2 N1 H1 119.3(16)
C1 N1 H1 116.2(16)
C2 N2 C3 111.89(15)
C3 N3 N4 110.92(13)
C3 N3 C4 128.07(15)
N4 N3 C4 120.86(14)
C5 N4 N3 105.95(14)
O1 C1 N1 120.32(15)
O1 C1 C6 127.84(15)
N1 C1 C6 111.84(14)
N2 C2 N1 125.64(16)
N2 C2 H2 120.7(13)
N1 C2 H2 113.6(13)
N3 C3 N2 124.83(15)
N3 C3 C6 107.44(15)
N2 C3 C6 127.73(16)
N3 C4 H4A 109.3(17)
N3 C4 H4B 108.7(17)
H4A C4 H4B 115(2)
N3 C4 H4C 110.3(18)
H4A C4 H4C 109(2)
H4B C4 H4C 104(2)
N4 C5 C6 110.88(15)
N4 C5 H5 119.6(13)
C6 C5 H5 129.5(13)
C3 C6 C5 104.80(14)
C3 C6 C1 118.47(15)
C5 C6 C1 136.72(15)
loop_
_geom_bond_atom_site_label_1
_geom_bond_atom_site_label_2
_geom_bond_distance
O1 C1 1.242(2)
N1 C2 1.365(2)
N1 C1 1.398(2)
N1 H1 0.95(3)
N2 C2 1.301(2)
N2 C3 1.366(2)
N3 C3 1.345(2)
N3 N4 1.378(2)
N3 C4 1.450(2)
N4 C5 1.326(2)
C1 C6 1.425(2)
C2 H2 0.99(2)
C3 C6 1.394(2)
C4 H4A 0.96(3)
C4 H4B 0.98(3)
C4 H4C 0.97(3)
C5 C6 1.412(2)
C5 H5 0.99(2)
loop_
_geom_hbond_atom_site_label_D
_geom_hbond_atom_site_label_H
_geom_hbond_atom_site_label_A
_geom_hbond_site_symmetry_A
_geom_hbond_distance_DH
_geom_hbond_distance_HA
_geom_hbond_distance_DA
_geom_hbond_angle_DHA
N1 H1 O1 2_667 0.95(3) 1.84(3) 2.7866(18) 178(2)
C2 H2 O1 1_665 0.99(2) 2.46(2) 3.399(2) 157.8(17)
C4 H4B N4 2_566 0.98(3) 2.65(3) 3.599(2) 164(2)
C5 H5 N2 1_445 0.99(2) 2.37(2) 3.323(2) 161.7(18)
loop_
_geom_torsion_atom_site_label_1
_geom_torsion_atom_site_label_2
_geom_torsion_atom_site_label_3
_geom_torsion_atom_site_label_4
_geom_torsion
C3 N3 N4 C5 0.59(19)
C4 N3 N4 C5 176.43(16)
C2 N1 C1 O1 179.52(16)
C2 N1 C1 C6 -0.9(2)
C3 N2 C2 N1 -0.1(3)
C1 N1 C2 N2 0.7(3)
N4 N3 C3 N2 179.13(15)
C4 N3 C3 N2 3.7(3)
N4 N3 C3 C6 -0.70(19)
C4 N3 C3 C6 -176.15(16)
C2 N2 C3 N3 -179.94(16)
C2 N2 C3 C6 -0.1(3)
N3 N4 C5 C6 -0.25(19)
N3 C3 C6 C5 0.51(19)
N2 C3 C6 C5 -179.31(16)
N3 C3 C6 C1 179.64(14)
N2 C3 C6 C1 -0.2(3)
N4 C5 C6 C3 -0.2(2)
N4 C5 C6 C1 -179.04(19)
O1 C1 C6 C3 -179.84(16)
N1 C1 C6 C3 0.7(2)
O1 C1 C6 C5 -1.1(3)
N1 C1 C6 C5 179.45(19)

_cod_database_fobs_code 1549176
