#------------------------------------------------------------------------------
#$Date: 2018-05-15 18:58:00 +0300 (Tue, 15 May 2018) $
#$Revision: 207789 $
#$URL: file:///home/coder/svn-repositories/cod/cif/1/54/94/1549412.cif $
#------------------------------------------------------------------------------
#
# This file is available in the Crystallography Open Database (COD),
# http://www.crystallography.net/. The original data for this entry
# were provided by IUCr Journals, http://journals.iucr.org/.
#
# The file may be used within the scientific community so long as
# proper attribution is given to the journal article from which the
# data were obtained.
#
data_1549412
loop_
_publ_author_name
'Yang, Annabeth P.'
'LaDuca, Robert L.'
_publ_contact_author             'LaDuca, Robert L.'
_publ_section_title
;
 Poly[diaquabis(\m-hydrogen
 benzene-1,2,4-tricarboxylato)copper(II)disodium]: a novel 4,5,6-connected
 trinodal net
;
_journal_coeditor_code           LH4034
_journal_issue                   5
_journal_name_full               IUCrData
_journal_page_first              x180676
_journal_paper_doi               10.1107/S2414314618006764
_journal_volume                  3
_journal_year                    2018
_chemical_formula_iupac          '[Cu Na2 (C9 H4 O6)2 (H2 O)4]'
_chemical_formula_moiety         'C18 H16 Cu Na2 O16'
_chemical_formula_sum            'C18 H16 Cu Na2 O16'
_chemical_formula_weight         597.83
_chemical_name_systematic
;
Poly[diaquabis(\m-hydrogen benzene-1,2,4-tricarboxylato)copper(II)disodium]
;
_space_group_crystal_system      triclinic
_space_group_IT_number           2
_space_group_name_Hall           '-P 1'
_space_group_name_H-M_alt        'P -1'
_symmetry_space_group_name_Hall  '-P 1'
_symmetry_space_group_name_H-M   'P -1'
_atom_sites_solution_hydrogens   geom
_atom_sites_solution_primary     dual
_atom_sites_solution_secondary   difmap
_audit_creation_method
;
 Olex2 1.2 (compiled
 2017.03.02 svn.r3394 for
 OlexSys, GUI svn.r5324)
;
_cell_angle_alpha                105.071(2)
_cell_angle_beta                 93.073(2)
_cell_angle_gamma                109.955(2)
_cell_formula_units_Z            1
_cell_length_a                   6.9048(9)
_cell_length_b                   7.0555(9)
_cell_length_c                   11.8449(15)
_cell_measurement_reflns_used    2453
_cell_measurement_temperature    173(2)
_cell_measurement_theta_max      25.38
_cell_measurement_theta_min      3.18
_cell_volume                     517.26(12)
_computing_cell_refinement
;
SAINT (Bruker, 2013)
;
_computing_data_collection
;
COSMO (Bruker, 2009)
;
_computing_data_reduction
;
SAINT (Bruker, 2013)
;
_computing_molecular_graphics
;
<i>Crystal Maker</i> (Palmer, 2018)
;
_computing_publication_material
;
OLEX2 (Dolomanov <i>et al.</i>,  2009)
;
_computing_structure_refinement
;
SHELXL2014 (Sheldrick, 2015b) within OLEX2 (Dolomanov <i>et al.</i>,
2009)
;
_computing_structure_solution
;
SHELXT (Sheldrick, 2015a)
;
_diffrn_ambient_temperature      173(2)
_diffrn_detector_area_resol_mean 7.9
_diffrn_measured_fraction_theta_full 0.997
_diffrn_measured_fraction_theta_max 0.997
_diffrn_measurement_device       'three-circle diffractometer'
_diffrn_measurement_device_type  'Bruker SMART CCD 1K area detector'
_diffrn_measurement_method       \w
_diffrn_radiation_monochromator  graphite
_diffrn_radiation_type           MoK\a
_diffrn_radiation_wavelength     0.71073
_diffrn_reflns_av_R_equivalents  0.0311
_diffrn_reflns_limit_h_max       8
_diffrn_reflns_limit_h_min       -8
_diffrn_reflns_limit_k_max       8
_diffrn_reflns_limit_k_min       -8
_diffrn_reflns_limit_l_max       14
_diffrn_reflns_limit_l_min       -13
_diffrn_reflns_number            4640
_diffrn_reflns_theta_full        25.39
_diffrn_reflns_theta_max         25.39
_diffrn_reflns_theta_min         1.80
_diffrn_standards_number         0
_exptl_absorpt_coefficient_mu    1.189
_exptl_absorpt_correction_T_max  0.7452
_exptl_absorpt_correction_T_min  0.6587
_exptl_absorpt_correction_type   multi-scan
_exptl_absorpt_process_details
;
(SADABS; Bruker, 2015)
;
_exptl_crystal_colour            blue
_exptl_crystal_density_diffrn    1.913
_exptl_crystal_density_method    'not measured'
_exptl_crystal_description       needle
_exptl_crystal_F_000             301
_exptl_crystal_size_max          0.263
_exptl_crystal_size_mid          0.078
_exptl_crystal_size_min          0.026
_refine_diff_density_max         0.481
_refine_diff_density_min         -0.353
_refine_ls_extinction_method     none
_refine_ls_goodness_of_fit_ref   1.073
_refine_ls_hydrogen_treatment    mixed
_refine_ls_matrix_type           full
_refine_ls_number_parameters     199
_refine_ls_number_reflns         1906
_refine_ls_number_restraints     3
_refine_ls_restrained_S_all      1.074
_refine_ls_R_factor_all          0.0493
_refine_ls_R_factor_gt           0.0395
_refine_ls_shift/su_max          0.000
_refine_ls_shift/su_mean         0.000
_refine_ls_structure_factor_coef Fsqd
_refine_ls_weighting_details
'calc w=1/[\s^2^(Fo^2^)+(0.0511P)^2^+0.2450P] where P=(Fo^2^+2Fc^2^)/3'
_refine_ls_weighting_scheme      calc
_refine_ls_wR_factor_gt          0.0929
_refine_ls_wR_factor_ref         0.0990
_reflns_number_gt                1606
_reflns_number_total             1906
_reflns_threshold_expression     >2sigma(I)
_iucr_refine_instructions_details
;
TITL nacu124btc_a.res in P-1
REM Old TITL NaCu124btc in P-1
REM SHELXT solution in P-1
REM R1 0.082, Rweak 0.007, Alpha 0.050, Orientation as input
REM Formula found by SHELXT: C18 O16 Na2 Cu
CELL 0.71073 6.9048 7.0555 11.8449 105.071 93.073 109.955
ZERR 1 0.0009 0.0009 0.0015 0.002 0.002 0.002
LATT 1
SFAC C H Cu Na O
UNIT 18 14 1 2 16
EQIV $1 -X,1-Y,1-Z
EQIV $2 1-X,2-Y,1-Z
EQIV $3 1-X,1-Y,1-Z
EQIV $4 2-X,2-Y,1-Z
EQIV $5 +X,+Y,1+Z
DFIX 0.85 O8 H8b
DFIX 0.85 O8 H8a
DANG 1.3 H8a H8b
L.S. 16
PLAN  4
SIZE 0.026 0.078 0.263
TEMP -100(2)
HTAB O6 O7
HTAB O7 O1_$1
HTAB O7 O4_$2
HTAB O7 O3_$3
HTAB O8 O4_$4
HTAB O8 O2_$5
HTAB C4 O5
HTAB C6 O1
HTAB C6 O6
BOND $H
CONF
fmap 2
acta
REM <olex2.extras>
REM <HklSrc "%.\\NaCu124btc.hkl">
REM </olex2.extras>
WGHT    0.051100    0.245000
FVAR       0.78271
CU1   3    0.000000    0.500000    0.000000    10.50000    0.01632    0.02189 =
         0.01477    0.00651    0.00442    0.00743
NA1   4    0.389303    0.836006    0.876617    11.00000    0.02067    0.02730 =
         0.01960    0.00382    0.00471    0.00285
O1    5    0.201857    0.515522    0.126306    11.00000    0.01448    0.02633 =
         0.01326    0.00831    0.00009    0.00321
O2    5    0.475776    0.763129    0.090544    11.00000    0.02713    0.02850 =
         0.02047    0.01310    0.00164    0.00197
O3    5    0.810866    0.515539    0.117667    11.00000    0.01798    0.02110 =
         0.01406    0.00450    0.00448    0.00605
O4    5    0.973003    0.861581    0.169535    11.00000    0.03249    0.02253 =
         0.04556    0.01485    0.02661    0.00853
O5    5    0.496642    0.790800    0.686048    11.00000    0.02210    0.03418 =
         0.01593    0.00672    0.00311    0.00836
O6    5    0.207160    0.713247    0.560237    11.00000    0.02137    0.03921 =
         0.01612    0.00946    0.00800    0.01440
H6    2    0.166549    0.721689    0.613667    11.00000    0.03858
O7    5    0.050280    0.754381    0.757066    11.00000    0.02409    0.02108 =
         0.02461    0.00921    0.01039    0.00964
H7A   2    0.031750    0.846464    0.770380    11.00000    0.02070
H7B   2   -0.036489    0.673220    0.782987    11.00000    0.03805
O8    5    0.741766    0.975181    0.964917    11.00000    0.02555    0.03497 =
         0.02802    0.01809    0.01139    0.01516
C1    1    0.508410    0.681528    0.269660    11.00000    0.01786    0.01268 =
         0.01366    0.00520    0.00313    0.00602
C2    1    0.721650    0.716721    0.284411    11.00000    0.01730    0.01304 =
         0.02078    0.00863    0.00637    0.00539
C3    1    0.827983    0.761602    0.396861    11.00000    0.01323    0.02179 =
         0.02209    0.00719    0.00223    0.00675
H3    2    0.965089    0.780135    0.411236    11.00000    0.02014
C4    1    0.726820    0.772403    0.494239    11.00000    0.01928    0.01862 =
         0.01660    0.00470   -0.00076    0.00412
H4    2    0.805694    0.811482    0.573969    11.00000    0.02718
C5    1    0.515029    0.738313    0.480248    11.00000    0.02025    0.01336 =
         0.01586    0.00567    0.00387    0.00471
C6    1    0.407628    0.691654    0.367823    11.00000    0.01690    0.01504 =
         0.01786    0.00396    0.00258    0.00529
H6A   2    0.258982    0.666991    0.357928    11.00000    0.01062
C7    1    0.390556    0.652272    0.150957    11.00000    0.01903    0.02042 =
         0.01623    0.00683    0.00744    0.01141
C8    1    0.843181    0.699965    0.181766    11.00000    0.01380    0.02073 =
         0.01789    0.00812    0.00175    0.00725
C9    1    0.407489    0.750105    0.586116    11.00000    0.02241    0.01559 =
         0.01769    0.00546    0.00640    0.00624
H8A   2    0.836233    1.037846    0.930760    11.00000   -1.50000
H8B   2    0.769899    0.877104    0.973486    11.00000   -1.50000
HKLF 4
REM  nacu124btc_a.res in P-1
REM R1 =  0.0395 for   1606 Fo > 4sig(Fo)  and  0.0493 for all   1906 data
REM    199 parameters refined using      3 restraints
END
WGHT      0.0512      0.2456
REM Highest difference peak  0.481,  deepest hole -0.353,  1-sigma level  0.092
Q1    1   0.6345  0.7325  0.2759  11.00000  0.05    0.48
Q2    1   0.0821  0.5513  0.1012  11.00000  0.05    0.44
Q3    1   0.7770  0.7176  0.2296  11.00000  0.05    0.39
Q4    1   0.5991  0.7249  0.4804  11.00000  0.05    0.38
  REM The information below was added by Olex2.
  REM
  REM R1 = 0.0395 for 1606 Fo > 4sig(Fo) and 0.0493 for all 4640 data
  REM n/a parameters refined using n/a restraints
  REM Highest difference peak 0.48, deepest hole -0.35
  REM Mean Shift 0, Max Shift 0.000.
  REM +++ Tabular Listing of Refinement Information +++
  REM R1_all = 0.0493
  REM R1_gt = 0.0395
  REM wR_ref = 0.0990
  REM GOOF = 1.073
  REM Shift_max = 0.000
  REM Shift_mean = 0
  REM Reflections_all = 4640
  REM Reflections_gt = 1606
  REM Parameters = n/a
  REM Hole = -0.35
  REM Peak = 0.48
  REM Flack = n/a
;
_cod_data_source_file            lh4034sup1.cif
_cod_data_source_block           I
_cod_original_cell_volume        517.26(11)
_cod_database_code               1549412
loop_
_space_group_symop_id
_space_group_symop_operation_xyz
1 'x, y, z'
2 '-x, -y, -z'
loop_
_atom_site_type_symbol
_atom_site_label
_atom_site_fract_x
_atom_site_fract_y
_atom_site_fract_z
_atom_site_U_iso_or_equiv
_atom_site_adp_type
_atom_site_calc_flag
_atom_site_occupancy
Cu Cu1 0.0000 0.5000 0.0000 0.01725(19) Uani d 1
Na Na1 0.38930(19) 0.8360(2) 0.87662(11) 0.0247(3) Uani d 1
O O1 0.2019(3) 0.5155(3) 0.12631(18) 0.0188(5) Uani d 1
O O2 0.4758(4) 0.7631(4) 0.09054(19) 0.0265(6) Uani d 1
O O3 0.8109(3) 0.5155(3) 0.11767(18) 0.0181(5) Uani d 1
O O4 0.9730(4) 0.8616(4) 0.1695(2) 0.0322(6) Uani d 1
O O5 0.4966(4) 0.7908(4) 0.68605(19) 0.0248(6) Uani d 1
O O6 0.2072(4) 0.7132(4) 0.5602(2) 0.0242(6) Uani d 1
H H6 0.167(7) 0.722(7) 0.614(4) 0.039(13) Uiso d 1
O O7 0.0503(4) 0.7544(5) 0.7571(2) 0.0221(6) Uani d 1
H H7A 0.032(6) 0.846(6) 0.770(3) 0.021(12) Uiso d 1
H H7B -0.036(7) 0.673(7) 0.783(4) 0.038(12) Uiso d 1
O O8 0.7418(4) 0.9752(4) 0.9649(2) 0.0264(6) Uani d 1
H H8A 0.836(5) 1.038(5) 0.931(3) 0.028 Uiso d 1
H H8B 0.770(5) 0.877(4) 0.973(3) 0.028 Uiso d 1
C C1 0.5084(5) 0.6815(5) 0.2697(3) 0.0143(6) Uani d 1
C C2 0.7216(5) 0.7167(5) 0.2844(3) 0.0162(7) Uani d 1
C C3 0.8280(5) 0.7616(5) 0.3969(3) 0.0188(7) Uani d 1
H H3 0.965(6) 0.780(5) 0.411(3) 0.020(9) Uiso d 1
C C4 0.7268(5) 0.7724(5) 0.4942(3) 0.0192(7) Uani d 1
H H4 0.806(5) 0.811(5) 0.574(3) 0.027(10) Uiso d 1
C C5 0.5150(5) 0.7383(5) 0.4802(3) 0.0166(7) Uani d 1
C C6 0.4076(5) 0.6917(5) 0.3678(3) 0.0170(7) Uani d 1
H H6A 0.259(5) 0.667(5) 0.358(2) 0.011(8) Uiso d 1
C C7 0.3906(5) 0.6523(5) 0.1510(3) 0.0170(7) Uani d 1
C C8 0.8432(5) 0.7000(5) 0.1818(3) 0.0168(7) Uani d 1
C C9 0.4075(5) 0.7501(5) 0.5861(3) 0.0185(7) Uani d 1
loop_
_atom_site_aniso_label
_atom_site_aniso_U_11
_atom_site_aniso_U_22
_atom_site_aniso_U_33
_atom_site_aniso_U_12
_atom_site_aniso_U_13
_atom_site_aniso_U_23
Cu1 0.0163(3) 0.0219(3) 0.0148(3) 0.0074(2) 0.0044(2) 0.0065(2)
Na1 0.0207(7) 0.0273(8) 0.0196(7) 0.0028(6) 0.0047(6) 0.0038(6)
O1 0.0145(12) 0.0263(13) 0.0133(11) 0.0032(10) 0.0001(9) 0.0083(9)
O2 0.0271(14) 0.0285(14) 0.0205(12) 0.0020(11) 0.0016(10) 0.0131(11)
O3 0.0180(12) 0.0211(13) 0.0141(11) 0.0060(10) 0.0045(9) 0.0045(9)
O4 0.0325(15) 0.0225(13) 0.0456(16) 0.0085(12) 0.0266(12) 0.0148(11)
O5 0.0221(13) 0.0342(14) 0.0159(13) 0.0084(11) 0.0031(10) 0.0067(10)
O6 0.0214(14) 0.0392(15) 0.0161(13) 0.0144(12) 0.0080(11) 0.0095(11)
O7 0.0241(14) 0.0211(14) 0.0246(14) 0.0096(12) 0.0104(11) 0.0092(11)
O8 0.0256(14) 0.0350(16) 0.0280(13) 0.0152(12) 0.0114(11) 0.0181(12)
C1 0.0179(16) 0.0127(15) 0.0137(15) 0.0060(13) 0.0031(12) 0.0052(12)
C2 0.0173(16) 0.0130(16) 0.0208(17) 0.0054(13) 0.0064(13) 0.0086(13)
C3 0.0132(17) 0.0218(18) 0.0221(17) 0.0067(14) 0.0022(13) 0.0072(14)
C4 0.0193(18) 0.0186(17) 0.0166(17) 0.0041(14) -0.0008(14) 0.0047(14)
C5 0.0202(17) 0.0134(16) 0.0159(16) 0.0047(13) 0.0039(13) 0.0057(13)
C6 0.0169(17) 0.0150(16) 0.0179(17) 0.0053(13) 0.0026(13) 0.0040(13)
C7 0.0190(18) 0.0204(17) 0.0162(16) 0.0114(14) 0.0074(13) 0.0068(13)
C8 0.0138(16) 0.0207(18) 0.0179(16) 0.0072(14) 0.0017(13) 0.0081(14)
C9 0.0224(18) 0.0156(16) 0.0177(17) 0.0062(14) 0.0064(14) 0.0055(13)
loop_
_atom_type_symbol
_atom_type_description
_atom_type_scat_dispersion_real
_atom_type_scat_dispersion_imag
_atom_type_scat_source
C C 0.0033 0.0016 'International Tables Vol C Tables 4.2.6.8 and 6.1.1.4'
H H 0.0000 0.0000 'International Tables Vol C Tables 4.2.6.8 and 6.1.1.4'
Cu Cu 0.3201 1.2651 'International Tables Vol C Tables 4.2.6.8 and 6.1.1.4'
Na Na 0.0362 0.0249 'International Tables Vol C Tables 4.2.6.8 and 6.1.1.4'
O O 0.0106 0.0060 'International Tables Vol C Tables 4.2.6.8 and 6.1.1.4'
loop_
_geom_angle_atom_site_label_1
_geom_angle_atom_site_label_2
_geom_angle_atom_site_label_3
_geom_angle_site_symmetry_1
_geom_angle_site_symmetry_3
_geom_angle
_geom_angle_publ_flag
O1 Cu1 O1 . 2_565 180.0 y
O1 Cu1 O3 2_565 2_665 87.13(9) y
O1 Cu1 O3 2_565 1_455 92.88(9) y
O1 Cu1 O3 . 2_665 92.87(9) y
O1 Cu1 O3 . 1_455 87.13(9) y
O3 Cu1 O3 2_665 1_455 180.00(14) y
O3 Na1 O2 2_666 2_676 162.81(9) y
O3 Na1 O7 2_666 . 77.27(10) y
O5 Na1 O2 . 2_676 89.20(8) y
O5 Na1 O3 . 2_666 105.37(9) y
O5 Na1 O7 . . 81.70(9) y
O5 Na1 O8 . 2_677 150.41(10) y
O7 Na1 O2 . 2_676 96.31(10) y
O8 Na1 O2 2_677 2_676 66.08(9) y
O8 Na1 O2 . 2_676 72.51(9) y
O8 Na1 O3 . 2_666 115.87(9) y
O8 Na1 O3 2_677 2_666 97.25(9) y
O8 Na1 O5 . . 89.37(9) y
O8 Na1 O7 . . 165.87(11) y
O8 Na1 O7 2_677 . 85.02(9) y
O8 Na1 O8 . 2_677 97.79(8) y
C7 O1 Cu1 . . 122.27(19) ?
Na1 O2 Na1 2_676 1_554 71.48(7) ?
C7 O2 Na1 . 2_676 132.9(2) ?
C7 O2 Na1 . 1_554 139.5(2) ?
Cu1 O3 Na1 1_655 2_666 109.41(9) ?
C8 O3 Cu1 . 1_655 114.38(19) ?
C8 O3 Na1 . 2_666 135.22(19) ?
C9 O5 Na1 . . 133.8(2) ?
C9 O6 H6 . . 107(4) ?
Na1 O7 H7A . . 106(3) ?
Na1 O7 H7B . . 106(3) ?
H7A O7 H7B . . 107(4) ?
Na1 O8 Na1 . 2_677 82.21(8) ?
Na1 O8 H8A 2_677 . 122(2) ?
Na1 O8 H8A . . 121(3) ?
Na1 O8 H8B . . 107(3) ?
Na1 O8 H8B 2_677 . 118(3) ?
H8A O8 H8B . . 105(3) ?
C2 C1 C7 . . 121.4(3) ?
C6 C1 C2 . . 119.1(3) ?
C6 C1 C7 . . 119.3(3) ?
C1 C2 C8 . . 122.9(3) ?
C3 C2 C1 . . 119.5(3) ?
C3 C2 C8 . . 117.5(3) ?
C2 C3 H3 . . 123(2) ?
C4 C3 C2 . . 121.0(3) ?
C4 C3 H3 . . 116(2) ?
C3 C4 H4 . . 120(2) ?
C3 C4 C5 . . 119.8(3) ?
C5 C4 H4 . . 120(2) ?
C4 C5 C9 . . 119.2(3) ?
C6 C5 C4 . . 119.4(3) ?
C6 C5 C9 . . 121.3(3) ?
C1 C6 C5 . . 121.1(3) ?
C1 C6 H6A . . 119.4(17) ?
C5 C6 H6A . . 119.5(17) ?
O1 C7 C1 . . 115.1(3) ?
O2 C7 O1 . . 126.2(3) ?
O2 C7 C1 . . 118.6(3) ?
O3 C8 C2 . . 116.0(3) ?
O4 C8 O3 . . 124.3(3) ?
O4 C8 C2 . . 119.6(3) ?
O5 C9 O6 . . 123.9(3) ?
O5 C9 C5 . . 123.1(3) ?
O6 C9 C5 . . 113.0(3) ?
loop_
_geom_bond_atom_site_label_1
_geom_bond_atom_site_label_2
_geom_bond_site_symmetry_2
_geom_bond_distance
_geom_bond_publ_flag
Cu1 O1 . 1.944(2) y
Cu1 O1 2_565 1.944(2) y
Cu1 O3 1_455 1.9681(19) y
Cu1 O3 2_665 1.9681(19) y
Na1 O2 2_676 2.571(3) y
Na1 O3 2_666 2.413(3) y
Na1 O5 . 2.390(2) y
Na1 O7 . 2.473(3) y
Na1 O8 . 2.354(3) y
Na1 O8 2_677 2.413(3) y
O1 C7 . 1.292(4) ?
O2 Na1 1_554 2.787(3) ?
O2 Na1 2_676 2.571(3) ?
O2 C7 . 1.222(4) ?
O3 Cu1 1_655 1.9681(19) ?
O3 Na1 2_666 2.413(3) ?
O3 C8 . 1.261(4) ?
O4 C8 . 1.236(4) ?
O5 C9 . 1.219(4) ?
O6 H6 . 0.70(4) ?
O6 C9 . 1.320(4) ?
O7 H7A . 0.68(4) ?
O7 H7B . 0.81(5) ?
O8 Na1 2_677 2.413(3) ?
O8 H8A . 0.842(18) ?
O8 H8B . 0.808(18) ?
C1 C2 . 1.400(4) ?
C1 C6 . 1.385(4) ?
C1 C7 . 1.514(4) ?
C2 C3 . 1.389(4) ?
C2 C8 . 1.516(4) ?
C3 H3 . 0.91(4) ?
C3 C4 . 1.379(4) ?
C4 H4 . 0.99(4) ?
C4 C5 . 1.392(4) ?
C5 C6 . 1.390(4) ?
C5 C9 . 1.489(4) ?
C6 H6A . 0.98(3) ?
loop_
_geom_hbond_atom_site_label_D
_geom_hbond_atom_site_label_H
_geom_hbond_atom_site_label_A
_geom_hbond_site_symmetry_A
_geom_hbond_distance_DH
_geom_hbond_distance_HA
_geom_hbond_distance_DA
_geom_hbond_angle_DHA
_geom_hbond_publ_flag
O6 H6 O7 . 0.70(4) 1.91(4) 2.613(3) 177(5) y
O7 H7A O4 2_676 0.68(4) 2.01(4) 2.685(4) 169(4) y
O7 H7B O1 2_566 0.81(5) 2.02(5) 2.816(4) 168(4) y
O8 H8A O4 2_776 0.842(18) 1.902(19) 2.736(3) 170(4) y
O8 H8B O2 1_556 0.808(18) 2.54(3) 2.720(3) 94(3) y
loop_
_geom_torsion_atom_site_label_1
_geom_torsion_atom_site_label_2
_geom_torsion_atom_site_label_3
_geom_torsion_atom_site_label_4
_geom_torsion_site_symmetry_1
_geom_torsion_site_symmetry_4
_geom_torsion
Cu1 Na1 O5 C9 1_556 . 59.0(3)
Cu1 Na1 O8 Na1 1_556 2_677 -66.87(8)
Cu1 O1 C7 O2 . . -12.0(4)
Cu1 O1 C7 C1 . . 164.65(18)
Cu1 O3 C8 O4 1_655 . 4.1(4)
Cu1 O3 C8 C2 1_655 . -171.8(2)
Na1 Cu1 O1 C7 1_554 . 12.9(2)
Na1 Cu1 O1 C7 2_566 . -167.1(2)
Na1 Na1 O5 C9 2_677 . -138.8(3)
Na1 O2 C7 O1 2_676 . 114.2(3)
Na1 O2 C7 O1 1_554 . -0.6(5)
Na1 O2 C7 C1 2_676 . -62.4(4)
Na1 O2 C7 C1 1_554 . -177.12(19)
Na1 O3 C8 O4 2_666 . 171.2(2)
Na1 O3 C8 C2 2_666 . -4.7(4)
Na1 O5 C9 O6 . . -2.0(5)
Na1 O5 C9 C5 . . 177.6(2)
O1 Cu1 O1 C7 2_565 . 23(9)
O2 Na1 O5 C9 1_556 . 146.4(3)
O2 Na1 O5 C9 2_676 . -95.6(3)
O2 Na1 O8 Na1 2_676 2_677 61.83(8)
O2 Na1 O8 Na1 1_556 2_677 -60.30(8)
O3 Cu1 O1 C7 2_665 . 52.4(2)
O3 Cu1 O1 C7 1_455 . -127.6(2)
O3 Na1 O5 C9 2_666 . 75.2(3)
O3 Na1 O8 Na1 2_666 2_677 -102.00(10)
O5 Na1 O8 Na1 . 2_677 151.19(10)
O7 Na1 O5 C9 . . 0.9(3)
O7 Na1 O8 Na1 . 2_677 100.6(4)
O8 Na1 O5 C9 . . -168.1(3)
O8 Na1 O5 C9 2_677 . -63.3(4)
O8 Na1 O8 Na1 2_677 2_677 0.0
C1 C2 C3 C4 . . -0.1(5)
C1 C2 C8 O3 . . -74.2(4)
C1 C2 C8 O4 . . 109.7(4)
C2 C1 C6 C5 . . 0.7(5)
C2 C1 C7 O1 . . 143.0(3)
C2 C1 C7 O2 . . -40.1(4)
C2 C3 C4 C5 . . -0.1(5)
C3 C2 C8 O3 . . 103.4(3)
C3 C2 C8 O4 . . -72.7(4)
C3 C4 C5 C6 . . 0.6(5)
C3 C4 C5 C9 . . 179.9(3)
C4 C5 C6 C1 . . -1.0(5)
C4 C5 C9 O5 . . 0.8(5)
C4 C5 C9 O6 . . -179.6(3)
C6 C1 C2 C3 . . -0.2(4)
C6 C1 C2 C8 . . 177.4(3)
C6 C1 C7 O1 . . -42.6(4)
C6 C1 C7 O2 . . 134.3(3)
C6 C5 C9 O5 . . -179.9(3)
C6 C5 C9 O6 . . -0.3(4)
C7 C1 C2 C3 . . 174.2(3)
C7 C1 C2 C8 . . -8.2(4)
C7 C1 C6 C5 . . -173.8(3)
C8 C2 C3 C4 . . -177.8(3)
C9 C5 C6 C1 . . 179.8(3)
loop_
_refln_index_h
_refln_index_k
_refln_index_l
_refln_F_squared_meas
1 0 0 41.1
1 0 0 51.29
-2 0 0 584.64
2 0 0 592.14
2 0 0 567.74
-3 0 0 110.49
3 0 0 108.79
3 0 0 104.39
-4 0 0 1040
-4 0 0 1075.39
4 0 0 1046.5
4 0 0 1043.2
-5 0 0 701.03
5 0 0 711.63
-6 0 0 145.39
6 0 0 143.19
-7 0 0 8.6
7 0 0 13.2
8 -1 0 -1.2
-8 1 0 -0.2
7 -1 0 5.4
-7 1 0 7
6 -1 0 744.03
-6 1 0 797.72
5 -1 0 504.25
5 -1 0 482.95
-5 1 0 510.55
4 -1 0 3.6
4 -1 0 -1.5
-4 1 0 0.8
3 -1 0 665.23
-3 1 0 696.13
2 -1 0 601.24
2 -1 0 623.24
-2 1 0 607.84
1 -1 0 654.23
1 -1 0 654.43
0 -1 0 914.61
0 -1 0 898.31
-1 -1 0 305.87
-1 -1 0 307.97
1 1 0 301.77
-2 -1 0 846.92
-2 -1 0 878.11
2 1 0 862.01
-3 -1 0 890.51
-3 -1 0 870.21
3 1 0 904.31
-4 -1 0 331.67
4 1 0 368.66
-5 -1 0 157.78
5 1 0 157.88
-6 -1 0 2.1
6 1 0 6.5
-7 -1 0 57.59
7 1 0 116.39
8 -2 0 5.1
-8 2 0 5.4
7 -2 0 70.69
-7 2 0 56.49
6 -2 0 109.99
6 -2 0 100.59
-6 2 0 100.49
5 -2 0 571.24
5 -2 0 565.14
-5 2 0 587.24
4 -2 0 107.59
4 -2 0 102.39
-4 2 0 100.69
3 -2 0 312.37
3 -2 0 321.07
-3 2 0 309.17
2 -2 0 338.17
2 -2 0 317.17
2 -2 0 298.97
-2 2 0 321.97
1 -2 0 3603.24
1 -2 0 3582.74
1 -2 0 3635.84
0 -2 0 2571.14
0 -2 0 2546.85
-1 -2 0 1766.22
-1 -2 0 1793.32
-1 -2 0 1729.43
1 2 0 1729.03
-2 -2 0 403.56
-2 -2 0 396.16
-2 -2 0 412.36
2 2 0 396.26
-3 -2 0 495.25
-3 -2 0 508.55
3 2 0 514.75
-4 -2 0 35.3
4 2 0 35.3
-5 -2 0 80.39
5 2 0 66.89
-6 -2 0 7.2
8 -3 0 27.2
-8 3 0 14.3
7 -3 0 4.9
7 -3 0 4.5
-7 3 0 5.6
6 -3 0 55.49
6 -3 0 51.79
-6 3 0 33.6
5 -3 0 111.39
5 -3 0 107.39
-5 3 0 142.49
4 -3 0 145.59
4 -3 0 147.69
-4 3 0 147.29
3 -3 0 12.2
3 -3 0 5
3 -3 0 7.9
-3 3 0 5.1
2 -3 0 683.23
2 -3 0 699.33
2 -3 0 654.73
1 -3 0 633.54
1 -3 0 605.54
1 -3 0 629.34
1 -3 0 613.64
0 -3 0 745.73
0 -3 0 657.13
0 -3 0 679.33
-1 -3 0 384.86
-1 -3 0 363.56
-1 -3 0 385.26
1 3 0 395.46
-2 -3 0 237.18
-2 -3 0 256.87
-2 -3 0 271.07
2 3 0 249.38
-3 -3 0 398.06
-3 -3 0 396.16
-4 -3 0 53.39
-4 -3 0 40.6
-5 -3 0 396.96
-5 -3 0 324.37
-6 -3 0 165.78
-6 -3 0 190.88
8 -4 0 5.2
-8 4 0 6.5
7 -4 0 14
7 -4 0 11.6
-7 4 0 13.8
6 -4 0 54.39
6 -4 0 70.19
-6 4 0 66.29
5 -4 0 60.19
5 -4 0 75.79
-5 4 0 70.29
4 -4 0 933.11
4 -4 0 924.61
4 -4 0 987.5
-4 4 0 940.81
3 -4 0 94.29
3 -4 0 90.49
3 -4 0 94.69
2 -4 0 10
2 -4 0 12
2 -4 0 10.7
1 -4 0 192.58
1 -4 0 183.68
1 -4 0 190.38
0 -4 0 1972.5
0 -4 0 2045.2
0 -4 0 1996.1
-1 -4 0 30.5
-1 -4 0 47.7
-1 -4 0 33.6
-2 -4 0 21
-2 -4 0 30.7
-3 -4 0 56.29
-3 -4 0 39.1
-4 -4 0 238.58
-4 -4 0 248.28
-5 -4 0 15.2
-5 -4 0 10.1
8 -5 0 12.8
8 -5 0 5
-8 5 0 -2.2
7 -5 0 209.48
7 -5 0 215.68
-7 5 0 188.58
6 -5 0 201.28
6 -5 0 218.18
-6 5 0 202.08
5 -5 0 647.14
5 -5 0 583.34
5 -5 0 621.74
-5 5 0 647.94
4 -5 0 207.28
4 -5 0 212.48
4 -5 0 186.58
-4 5 0 210.98
3 -5 0 62.29
3 -5 0 66.09
3 -5 0 50.89
2 -5 0 197.38
2 -5 0 178.88
1 -5 0 55.89
1 -5 0 67.99
1 -5 0 69.19
0 -5 0 354.66
0 -5 0 345.47
0 -5 0 319.67
-1 -5 0 461.65
-1 -5 0 443.16
-2 -5 0 6.7
-2 -5 0 14.1
-3 -5 0 1.7
-3 -5 0 1.7
-4 -5 0 10.3
-4 -5 0 8.6
7 -6 0 0.7
7 -6 0 0.8
-7 6 0 -2.5
6 -6 0 110.59
6 -6 0 83.29
-6 6 0 72.09
5 -6 0 356.06
5 -6 0 274.57
-5 6 0 361.66
4 -6 0 -0.3
4 -6 0 -0.5
-4 6 0 0.4
3 -6 0 26.4
3 -6 0 23.1
2 -6 0 9.3
2 -6 0 0.9
1 -6 0 66.19
1 -6 0 60.79
1 -6 0 76.29
0 -6 0 142.39
0 -6 0 150.48
-1 -6 0 15.2
-1 -6 0 0
-2 -6 0 35
-2 -6 0 13.1
-3 -6 0 61.49
-3 -6 0 50.09
6 -7 0 89.29
6 -7 0 88.59
-6 7 0 84.59
5 -7 0 1.2
5 -7 0 -0.2
-5 7 0 -2.7
4 -7 0 16
4 -7 0 18
3 -7 0 20.1
3 -7 0 16.9
2 -7 0 3
2 -7 0 2.7
1 -7 0 45.8
0 -7 0 25.9
0 -7 0 33.9
-1 -7 0 7.8
-1 -7 0 7.2
4 -8 0 139.49
4 -8 0 150.98
3 -8 0 33
3 -8 0 31
2 -8 0 42.7
1 -8 1 65.59
2 -8 1 49
2 -8 1 16.6
3 -8 1 15.5
3 -8 1 9.7
4 -8 1 36.1
4 -8 1 26.6
-5 8 -1 303.67
5 -8 1 280.47
5 -8 1 254.47
-1 -7 1 125.49
-1 -7 1 114.49
0 -7 1 126.49
0 -7 1 142.89
1 -7 1 2.3
1 -7 1 4.7
2 -7 1 45.3
2 -7 1 46.5
3 -7 1 15.1
3 -7 1 21.4
4 -7 1 45.6
4 -7 1 69.39
-5 7 -1 72.59
5 -7 1 61.49
5 -7 1 40.4
-6 7 -1 96.09
6 -7 1 101.59
6 -7 1 119.29
-3 -6 1 16.6
-3 -6 1 20.7
-2 -6 1 28.3
-2 -6 1 54.49
-1 -6 1 132.99
-1 -6 1 107.49
0 -6 1 1050.19
0 -6 1 1046.6
0 -6 1 1026
1 -6 1 3.9
1 -6 1 -1.6
2 -6 1 10.6
2 -6 1 12.7
3 -6 1 3.3
3 -6 1 15.5
4 -6 1 190.38
4 -6 1 231.88
-5 6 -1 148.79
5 -6 1 135.49
5 -6 1 154.18
-6 6 -1 16.2
6 -6 1 28
6 -6 1 29.1
-7 6 -1 19.5
7 -6 1 42.1
7 -6 1 39.9
-4 -5 1 9
-4 -5 1 0.8
-3 -5 1 45.3
-3 -5 1 72.79
-2 -5 1 102.59
-2 -5 1 112.49
-1 -5 1 125.49
-1 -5 1 106.49
-1 -5 1 129.29
0 -5 1 27.5
0 -5 1 46
1 -5 1 162.18
1 -5 1 188.58
2 -5 1 141.49
2 -5 1 127.89
3 -5 1 41.5
3 -5 1 47.7
3 -5 1 52.09
-4 5 -1 60.29
4 -5 1 87.69
4 -5 1 72.69
4 -5 1 78.29
-5 5 -1 156.18
5 -5 1 159.48
5 -5 1 144.89
5 -5 1 163.78
-6 5 -1 22.2
6 -5 1 31
6 -5 1 17.9
-7 5 -1 413.36
7 -5 1 386.56
7 -5 1 376.86
8 -5 1 1.6
-5 -4 1 33.4
-5 -4 1 20
-4 -4 1 214.78
-4 -4 1 220.88
-3 -4 1 34.5
-3 -4 1 27.1
-2 -4 1 -2.8
-2 -4 1 5.8
-1 -4 1 204.88
-1 -4 1 196.28
-1 -4 1 197.38
0 -4 1 120.89
0 -4 1 109.99
1 -4 1 3496.15
1 -4 1 3304.57
2 -4 1 -1
2 -4 1 -0.6
2 -4 1 3.4
3 -4 1 54.69
3 -4 1 56.89
3 -4 1 57.89
-4 4 -1 179.78
4 -4 1 181.88
4 -4 1 176.08
4 -4 1 216.48
-5 4 -1 135.59
5 -4 1 129.99
5 -4 1 150.48
-6 4 -1 174.78
6 -4 1 203.28
6 -4 1 201.18
-7 4 -1 7.6
7 -4 1 17.8
7 -4 1 17.1
8 -4 1 20.5
-6 -3 1 13.1
-6 -3 1 11.9
-5 -3 1 498.15
-5 -3 1 528.85
-4 -3 1 102.19
-4 -3 1 80.19
-3 -3 1 14.6
-3 -3 1 4.1
2 3 -1 1245.18
-2 -3 1 1149.19
-2 -3 1 1204.28
-2 -3 1 1212.68
1 3 -1 454.45
-1 -3 1 469.55
-1 -3 1 473.05
-1 -3 1 461.15
0 -3 1 1610.04
0 -3 1 1626.44
1 -3 1 737.33
1 -3 1 745.43
1 -3 1 691.93
2 -3 1 221.08
2 -3 1 211.58
2 -3 1 214.58
-3 3 -1 1397.66
3 -3 1 1406.26
3 -3 1 1441.86
3 -3 1 1444.56
-4 3 -1 55.99
4 -3 1 44.9
4 -3 1 48.5
-5 3 -1 637.24
5 -3 1 630.14
5 -3 1 637.74
-6 3 -1 610.94
6 -3 1 613.44
6 -3 1 626.54
-7 3 -1 91.39
7 -3 1 85.29
8 -3 1 20.1
-6 -2 1 106.69
5 2 -1 195.08
-5 -2 1 199.88
4 2 -1 141.79
-4 -2 1 125.29
3 2 -1 0.1
-3 -2 1 2.7
-3 -2 1 6.6
2 2 -1 22.5
-2 -2 1 31
-2 -2 1 18.7
-2 -2 1 23.5
1 2 -1 554.74
-1 -2 1 588.64
-1 -2 1 558.44
-1 -2 1 559.14
0 -2 1 9999
0 -2 1 9631.74
0 -2 1 9514.65
0 -2 1 9736.23
1 -2 1 2016.8
1 -2 1 2035.4
1 -2 1 1983.9
2 -2 1 416.06
2 -2 1 408.46
2 -2 1 411.36
3 -2 1 173.58
3 -2 1 161.28
4 -2 1 713.83
4 -2 1 724.33
-5 2 -1 415.26
5 -2 1 420.36
5 -2 1 415.56
-6 2 -1 -0.3
6 -2 1 -3.3
6 -2 1 0.1
-7 2 -1 20.7
7 -2 1 15.6
8 -2 1 7.8
7 1 -1 42.4
-7 -1 1 47.1
6 1 -1 684.33
-6 -1 1 684.93
5 1 -1 137.29
-5 -1 1 125.79
4 1 -1 176.58
-4 -1 1 170.58
-4 -1 1 186.28
3 1 -1 1.9
-3 -1 1 6.2
-3 -1 1 7.2
2 1 -1 87.19
-2 -1 1 87.69
-2 -1 1 91.99
1 1 -1 518.25
-1 -1 1 491.95
-1 -1 1 508.25
0 1 -1 982.7
0 -1 1 988.7
0 -1 1 974.9
0 -1 1 971.3
0 -1 1 967
1 -1 1 697.23
1 -1 1 706.73
1 -1 1 700.23
-2 1 -1 20.6
2 -1 1 20.5
2 -1 1 15.5
3 -1 1 79.99
3 -1 1 69.29
4 -1 1 245.28
4 -1 1 255.17
-5 1 -1 124.69
5 -1 1 126.19
5 -1 1 93.69
-6 1 -1 92.69
6 -1 1 102.69
-7 1 -1 146.89
7 -1 1 145.89
7 0 -1 3.5
-7 0 1 1.2
6 0 -1 14.3
-6 0 1 6.5
5 0 -1 298.57
5 0 -1 298.97
-5 0 1 321.07
-5 0 1 329.07
4 0 -1 20.8
4 0 -1 28.5
-4 0 1 35.4
-4 0 1 31.5
3 0 -1 183.68
3 0 -1 190.58
-3 0 1 167.78
-3 0 1 192.08
2 0 -1 -1.1
2 0 -1 1.3
-2 0 1 2.2
1 0 -1 46.5
1 0 -1 45.9
-1 0 1 38.1
-1 0 1 40.7
0 0 -1 953.2
0 0 -1 991.7
0 0 1 957.8
0 0 1 952
-1 0 -1 3141.59
1 0 1 3202.58
1 0 1 3136.69
2 0 1 879.31
2 0 1 887.81
3 0 1 869.61
3 0 1 873.81
-4 0 -1 151.58
4 0 1 144.39
4 0 1 152.58
-5 0 -1 319.37
5 0 1 340.37
-6 0 -1 135.09
6 0 1 118.69
-7 0 -1 94.19
7 0 1 83.49
8 -1 -1 7.2
-8 1 1 12.3
7 -1 -1 8.1
-7 1 1 4.2
6 -1 -1 153.78
-6 1 1 112.89
-6 1 1 144.29
5 -1 -1 291.97
5 -1 -1 305.47
-5 1 1 305.27
4 -1 -1 99.79
4 -1 -1 112.29
-4 1 1 89.49
3 -1 -1 646.44
3 -1 -1 648.54
-3 1 1 682.33
2 -1 -1 2.2
2 -1 -1 11
-2 1 1 1.7
1 -1 -1 1392.96
1 -1 -1 1382.56
-1 1 1 1414.06
0 -1 -1 7
0 -1 -1 4.4
0 -1 -1 8.9
0 1 1 9.4
-1 -1 -1 506.85
1 1 1 506.55
-2 -1 -1 1386.56
2 1 1 1393.66
-3 -1 -1 3.2
-3 -1 -1 -0.4
3 1 1 2.3
-4 -1 -1 25.6
4 1 1 29.7
-5 -1 -1 163.78
5 1 1 156.18
-6 -1 -1 32.5
6 1 1 53.29
7 1 1 -1.8
8 -2 -1 6.3
-8 2 1 12.9
7 -2 -1 137.69
-7 2 1 116.79
6 -2 -1 162.38
6 -2 -1 126.29
-6 2 1 144.29
5 -2 -1 627.44
5 -2 -1 552.74
-5 2 1 588.54
4 -2 -1 2169.68
4 -2 -1 2097.69
-4 2 1 2172.08
3 -2 -1 10.2
3 -2 -1 8.7
-3 2 1 9.3
2 -2 -1 4.5
2 -2 -1 6.3
-2 2 1 10.7
1 -2 -1 4045
1 -2 -1 4077.79
1 -2 -1 4061.59
1 -2 -1 4090.89
0 -2 -1 1701.93
0 -2 -1 1669.23
0 -2 -1 1701.03
0 2 1 1698.83
-1 -2 -1 902.91
-1 -2 -1 895.81
-1 -2 -1 930.41
1 2 1 914.61
-2 -2 -1 256.67
-2 -2 -1 241.88
-2 -2 -1 242.98
2 2 1 236.48
-3 -2 -1 91.89
3 2 1 83.39
-4 -2 -1 326.57
4 2 1 300.77
-5 -2 -1 33.4
5 2 1 29.7
-6 -2 -1 33.2
8 -3 -1 -1.8
-8 3 1 -2.9
7 -3 -1 69.69
7 -3 -1 79.29
-7 3 1 105.79
6 -3 -1 108.39
6 -3 -1 111.89
-6 3 1 106.09
5 -3 -1 184.98
5 -3 -1 178.98
-5 3 1 211.78
4 -3 -1 0.4
4 -3 -1 2.3
-4 3 1 5
3 -3 -1 26.8
3 -3 -1 21.1
3 -3 -1 24.9
-3 3 1 33
2 -3 -1 310.27
2 -3 -1 320.37
2 -3 -1 315.97
1 -3 -1 10.6
1 -3 -1 7.3
1 -3 -1 12.2
1 -3 -1 17.3
0 -3 -1 678.03
0 -3 -1 644.64
0 -3 -1 663.83
-1 -3 -1 161.88
-1 -3 -1 133.29
-1 -3 -1 133.69
1 3 1 141.49
-2 -3 -1 0
-2 -3 -1 0.5
-3 -3 -1 114.99
-3 -3 -1 128.29
-4 -3 -1 53.19
-4 -3 -1 41.2
-5 -3 -1 217.58
-5 -3 -1 218.38
8 -4 -1 58.09
8 -4 -1 54.39
-8 4 1 41.9
7 -4 -1 8.9
7 -4 -1 5.2
-7 4 1 5.2
6 -4 -1 156.68
6 -4 -1 155.28
-6 4 1 166.38
5 -4 -1 44.1
5 -4 -1 65.09
-5 4 1 35
4 -4 -1 47.9
4 -4 -1 52.09
4 -4 -1 50.49
-4 4 1 45
3 -4 -1 5.2
3 -4 -1 14.8
3 -4 -1 8.3
2 -4 -1 29.9
2 -4 -1 38.1
2 -4 -1 36.6
1 -4 -1 94.79
1 -4 -1 99.69
1 -4 -1 88.39
0 -4 -1 380.36
0 -4 -1 337.97
0 -4 -1 329.07
-1 -4 -1 10.6
-1 -4 -1 10.9
-1 -4 -1 6.8
-2 -4 -1 249.68
-2 -4 -1 238.98
-3 -4 -1 7.7
-3 -4 -1 12.9
-4 -4 -1 110.89
-4 -4 -1 108.89
-5 -4 -1 8
-5 -4 -1 7.4
7 -5 -1 92.69
7 -5 -1 104.79
-7 5 1 119.49
6 -5 -1 77.99
6 -5 -1 101.79
-6 5 1 103.09
5 -5 -1 87.39
5 -5 -1 112.59
5 -5 -1 134.49
-5 5 1 113.69
4 -5 -1 265.27
4 -5 -1 222.38
4 -5 -1 240.68
-4 5 1 241.88
3 -5 -1 236.08
3 -5 -1 236.68
2 -5 -1 405.06
2 -5 -1 371.46
1 -5 -1 219.18
1 -5 -1 213.78
0 -5 -1 124.29
0 -5 -1 114.49
0 -5 -1 125.09
-1 -5 -1 475.95
-1 -5 -1 472.65
-2 -5 -1 121.99
-2 -5 -1 105.89
-3 -5 -1 46.4
-3 -5 -1 62.99
-4 -5 -1 40.3
-4 -5 -1 63.89
7 -6 -1 14.1
7 -6 -1 -3.5
-7 6 1 0.7
6 -6 -1 15.9
-6 6 1 2.4
5 -6 -1 361.76
5 -6 -1 411.36
-5 6 1 406.26
4 -6 -1 42.5
4 -6 -1 48.1
-4 6 1 38
3 -6 -1 57.79
3 -6 -1 69.69
2 -6 -1 7.4
2 -6 -1 7.9
1 -6 -1 18.7
1 -6 -1 20.3
0 -6 -1 108.79
0 -6 -1 109.89
-1 -6 -1 46.9
-1 -6 -1 25.6
-2 -6 -1 0.5
-2 -6 -1 6.8
6 -7 -1 141.99
6 -7 -1 102.19
-6 7 1 131.09
5 -7 -1 46.1
5 -7 -1 51.09
-5 7 1 49.4
4 -7 -1 51.59
4 -7 -1 55.99
3 -7 -1 55.39
3 -7 -1 64.09
2 -7 -1 3.9
2 -7 -1 3.4
1 -7 -1 31.3
0 -7 -1 15.5
0 -7 -1 18.3
-1 -7 -1 9.2
-1 -7 -1 -1.6
3 -8 -1 5.2
3 -8 -1 -3.2
1 -8 2 159.98
2 -8 2 82.09
2 -8 2 59.79
3 -8 2 4.6
3 -8 2 4
4 -8 2 117.19
4 -8 2 125.79
-5 8 -2 37.1
5 -8 2 29.8
5 -8 2 19.2
-1 -7 2 250.67
-1 -7 2 295.97
0 -7 2 35.4
0 -7 2 21.1
1 -7 2 214.88
1 -7 2 211.88
2 -7 2 20.5
2 -7 2 47
3 -7 2 3.3
3 -7 2 -1.5
4 -7 2 146.99
4 -7 2 118.79
-5 7 -2 49.7
5 -7 2 66.69
5 -7 2 38.3
-6 7 -2 96.79
6 -7 2 93.59
6 -7 2 72.89
-3 -6 2 39.1
-3 -6 2 42.2
-2 -6 2 3.2
-2 -6 2 -1.4
-1 -6 2 98.39
-1 -6 2 123.69
0 -6 2 32.7
0 -6 2 40.4
1 -6 2 1950.1
1 -6 2 1997
2 -6 2 22
2 -6 2 19.5
3 -6 2 201.78
3 -6 2 211.68
4 -6 2 10.1
4 -6 2 19.3
-5 6 -2 297.67
5 -6 2 296.77
5 -6 2 283.37
-6 6 -2 60.19
6 -6 2 60.99
6 -6 2 48.7
7 -6 2 25.5
7 -6 2 65.49
-4 -5 2 31
-4 -5 2 57.89
-3 -5 2 4.5
-3 -5 2 0.7
-2 -5 2 225.58
-2 -5 2 209.68
-1 -5 2 -0.5
-1 -5 2 1.6
-1 -5 2 -0.4
0 -5 2 141.19
0 -5 2 150.88
0 -5 2 136.19
1 -5 2 5.2
1 -5 2 10.5
2 -5 2 221.18
2 -5 2 228.18
3 -5 2 32.8
3 -5 2 25.8
3 -5 2 14.3
-4 5 -2 10.4
4 -5 2 3.5
4 -5 2 6.5
-5 5 -2 92.79
5 -5 2 100.69
5 -5 2 107.29
5 -5 2 83.39
-6 5 -2 20
6 -5 2 19
6 -5 2 46.3
7 -5 2 0
7 -5 2 13.2
-5 -4 2 46.9
-5 -4 2 19.8
-4 -4 2 232.88
-4 -4 2 265.47
-3 -4 2 2.1
-3 -4 2 6.7
-2 -4 2 159.28
-2 -4 2 179.98
-2 -4 2 169.78
-1 -4 2 424.36
-1 -4 2 432.56
-1 -4 2 464.25
0 -4 2 753.92
0 -4 2 773.12
1 -4 2 280.07
1 -4 2 261.77
1 -4 2 270.27
2 -4 2 169.88
2 -4 2 178.08
2 -4 2 206.08
3 -4 2 14.1
3 -4 2 15.9
-4 4 -2 1582.84
4 -4 2 1580.14
4 -4 2 1577.54
4 -4 2 1589.84
5 -4 2 3.1
5 -4 2 3.8
6 -4 2 90.39
6 -4 2 111.19
7 -4 2 14.3
7 -4 2 7.2
8 -4 2 57.59
-6 -3 2 7.6
-6 -3 2 8.8
-5 -3 2 32.6
-5 -3 2 43.1
-4 -3 2 2.8
-4 -3 2 2.7
3 3 -2 11
-3 -3 2 23.3
-3 -3 2 17.3
-3 -3 2 18.7
2 3 -2 134.69
-2 -3 2 145.79
-2 -3 2 138.29
-2 -3 2 137.59
1 3 -2 313.27
-1 -3 2 323.27
0 -3 2 155.28
0 -3 2 140.39
0 -3 2 142.69
0 -3 2 138.49
1 -3 2 1118.99
1 -3 2 1094.99
1 -3 2 1078.99
2 -3 2 37.4
2 -3 2 30
2 -3 2 31.9
3 -3 2 1194.98
3 -3 2 1167.28
3 -3 2 1200.68
4 -3 2 214.98
4 -3 2 172.28
5 -3 2 276.27
5 -3 2 261.47
6 -3 2 422.96
6 -3 2 410.96
7 -3 2 109.99
8 -3 2 53.49
6 2 -2 62.09
-6 -2 2 59.59
5 2 -2 114.19
-5 -2 2 136.19
4 2 -2 73.19
-4 -2 2 59.29
3 2 -2 642.74
-3 -2 2 651.53
-3 -2 2 631.74
2 2 -2 0.5
-2 -2 2 1.8
-2 -2 2 4.9
-2 -2 2 0.1
1 2 -2 61.29
-1 -2 2 54.89
-1 -2 2 63.19
0 -2 2 1677.83
0 -2 2 1637.44
0 -2 2 1672.83
0 -2 2 1622.44
1 -2 2 1635.54
1 -2 2 1636.84
-2 2 -2 181.58
2 -2 2 193.88
2 -2 2 207.28
2 -2 2 201.58
-3 2 -2 151.48
3 -2 2 132.59
3 -2 2 165.98
-4 2 -2 17.7
4 -2 2 34.6
4 -2 2 31.9
-5 2 -2 395.36
5 -2 2 374.16
5 -2 2 373.46
-6 2 -2 -0.4
6 -2 2 3.5
7 -2 2 147.19
8 -2 2 55.69
7 1 -2 1.3
-7 -1 2 -5.1
6 1 -2 489.65
-6 -1 2 474.25
5 1 -2 197.38
-5 -1 2 189.48
4 1 -2 860.71
-4 -1 2 864.21
-4 -1 2 858.41
3 1 -2 184.28
-3 -1 2 185.38
-3 -1 2 193.78
2 1 -2 1164.68
-2 -1 2 1170.48
1 1 -2 648.44
-1 -1 2 650.33
-1 -1 2 643.24
0 1 -2 619.74
0 -1 2 643.44
0 -1 2 622.24
1 -1 2 870.51
1 -1 2 839.12
1 -1 2 829.72
-2 1 -2 2585.64
2 -1 2 2584.84
2 -1 2 2633.34
-3 1 -2 99.89
3 -1 2 88.99
3 -1 2 91.19
-4 1 -2 182.18
4 -1 2 169.38
4 -1 2 177.28
-5 1 -2 40.7
5 -1 2 27.9
6 -1 2 125.09
7 -1 2 32
7 0 -2 118.89
-7 0 2 126.39
6 0 -2 -4.4
-6 0 2 -4.2
5 0 -2 427.06
5 0 -2 481.35
-5 0 2 426.56
-5 0 2 435.76
4 0 -2 68.49
4 0 -2 58.29
-4 0 2 71.79
3 0 -2 82.69
3 0 -2 75.89
-3 0 2 97.09
-3 0 2 100.69
2 0 -2 85.39
2 0 -2 74.29
-2 0 2 73.69
-2 0 2 85.19
1 0 -2 358.06
-1 0 2 327.77
-1 0 2 342.07
0 0 -2 362.46
0 0 -2 356.16
0 0 -2 358.66
0 0 2 354.76
0 0 2 357.86
0 0 2 343.87
-1 0 -2 25.7
1 0 2 24.4
1 0 2 23.6
-2 0 -2 249.68
2 0 2 257.37
2 0 2 251.47
-3 0 -2 512.95
3 0 2 510.25
3 0 2 520.15
-4 0 -2 444.96
4 0 2 430.66
5 0 2 60.79
6 0 2 57.89
7 0 2 6.1
8 -1 -2 2.1
-8 1 2 10.6
7 -1 -2 66.89
-7 1 2 64.19
6 -1 -2 162.98
6 -1 -2 157.18
-6 1 2 156.68
5 -1 -2 173.58
5 -1 -2 196.78
-5 1 2 181.18
4 -1 -2 82.19
4 -1 -2 74.09
-4 1 2 82.79
3 -1 -2 1389.26
3 -1 -2 1367.26
-3 1 2 1405.36
2 -1 -2 97.49
2 -1 -2 100.29
-2 1 2 109.59
1 -1 -2 1053.29
1 -1 -2 1058.39
1 -1 -2 1046.5
-1 1 2 1076.99
0 -1 -2 25.8
0 -1 -2 26.4
0 1 2 32.3
-1 -1 -2 322.77
1 1 2 347.77
1 1 2 338.47
2 1 2 482.15
3 1 2 549.54
4 1 2 27.4
5 1 2 246.48
-6 -1 -2 -2.4
6 1 2 -11.7
7 1 2 68.79
8 -2 -2 86.29
-8 2 2 55.79
7 -2 -2 15.8
7 -2 -2 23.1
-7 2 2 25.6
6 -2 -2 155.88
6 -2 -2 134.19
-6 2 2 159.28
5 -2 -2 0.2
5 -2 -2 9
-5 2 2 3.6
4 -2 -2 1608.24
4 -2 -2 1569.04
-4 2 2 1622.54
3 -2 -2 275.57
3 -2 -2 264.77
-3 2 2 294.27
2 -2 -2 1285.17
2 -2 -2 1208.38
-2 2 2 1211.38
1 -2 -2 1622.04
1 -2 -2 1674.83
1 -2 -2 1624.94
1 -2 -2 1670.13
0 -2 -2 421.66
0 -2 -2 412.46
0 -2 -2 405.56
0 2 2 408.96
-1 -2 -2 654.73
-1 -2 -2 651.43
-1 -2 -2 637.84
1 2 2 672.73
-2 -2 -2 784.02
-2 -2 -2 784.02
2 2 2 776.12
-3 -2 -2 368.76
-3 -2 -2 407.46
3 2 2 400.26
-4 -2 -2 312.17
4 2 2 318.27
-5 -2 -2 1.6
8 -3 -2 51.19
-8 3 2 43
7 -3 -2 248.58
7 -3 -2 200.98
-7 3 2 256.07
6 -3 -2 14.1
6 -3 -2 15.8
-6 3 2 17.6
5 -3 -2 43.6
5 -3 -2 50.69
-5 3 2 65.19
4 -3 -2 297.17
4 -3 -2 297.37
-4 3 2 317.27
3 -3 -2 48.5
3 -3 -2 56.19
3 -3 -2 43.3
-3 3 2 45.9
2 -3 -2 1135.19
2 -3 -2 1126.69
2 -3 -2 1135.59
1 -3 -2 377.76
1 -3 -2 370.16
1 -3 -2 366.46
1 -3 -2 369.86
0 -3 -2 266.77
0 -3 -2 253.37
0 -3 -2 249.97
0 3 2 255.77
-1 -3 -2 113.19
-1 -3 -2 125.19
-1 -3 -2 118.79
1 3 2 114.69
-2 -3 -2 35.5
-2 -3 -2 26.7
-3 -3 -2 42.2
-3 -3 -2 23.3
-4 -3 -2 4.9
-4 -3 -2 5.8
-5 -3 -2 4.3
-5 -3 -2 -1.3
8 -4 -2 95.59
8 -4 -2 116.79
-8 4 2 111.59
7 -4 -2 67.89
7 -4 -2 47.7
-7 4 2 63.49
6 -4 -2 132.19
6 -4 -2 111.59
-6 4 2 117.39
5 -4 -2 593.44
5 -4 -2 623.74
-5 4 2 589.74
4 -4 -2 4.3
4 -4 -2 5.2
4 -4 -2 5.6
-4 4 2 -0.6
3 -4 -2 327.17
3 -4 -2 317.47
3 -4 -2 304.57
-3 4 2 329.87
2 -4 -2 1.3
2 -4 -2 1.2
2 -4 -2 3.6
1 -4 -2 117.39
1 -4 -2 141.19
0 -4 -2 359.66
0 -4 -2 387.46
0 -4 -2 380.06
-1 -4 -2 3.3
-1 -4 -2 3.6
-2 -4 -2 92.39
-2 -4 -2 118.49
-3 -4 -2 16.2
-3 -4 -2 5.8
-4 -4 -2 20.2
-4 -4 -2 21.6
7 -5 -2 4.3
7 -5 -2 -4.4
-7 5 2 0.6
6 -5 -2 168.78
6 -5 -2 186.18
-6 5 2 170.58
5 -5 -2 16.1
5 -5 -2 7.7
-5 5 2 17.3
4 -5 -2 51.79
4 -5 -2 51.09
4 -5 -2 64.39
-4 5 2 42
3 -5 -2 83.99
3 -5 -2 77.09
2 -5 -2 32.4
2 -5 -2 48.7
1 -5 -2 248.78
1 -5 -2 270.27
0 -5 -2 4.8
0 -5 -2 0.8
-1 -5 -2 340.37
-1 -5 -2 339.87
-2 -5 -2 183.58
-2 -5 -2 167.68
-3 -5 -2 83.99
-3 -5 -2 71.69
7 -6 -2 36.3
7 -6 -2 37.1
-7 6 2 28.2
6 -6 -2 3.8
-6 6 2 2.3
5 -6 -2 76.69
5 -6 -2 53.79
-5 6 2 48.8
4 -6 -2 155.58
4 -6 -2 120.19
-4 6 2 137.99
3 -6 -2 27.3
3 -6 -2 24.9
2 -6 -2 279.67
2 -6 -2 252.97
1 -6 -2 43.8
1 -6 -2 42.4
0 -6 -2 10.1
0 -6 -2 -1.3
-1 -6 -2 4
-1 -6 -2 1.9
-2 -6 -2 12.5
-2 -6 -2 14.4
6 -7 -2 1
6 -7 -2 17.8
-6 7 2 -0.2
5 -7 -2 30.9
5 -7 -2 38.3
-5 7 2 22.9
4 -7 -2 15.6
4 -7 -2 39.3
-4 7 2 19.6
3 -7 -2 455.95
3 -7 -2 496.15
2 -7 -2 58.39
2 -7 -2 59.99
1 -7 -2 24.5
1 -7 -2 18.5
0 -7 -2 69.19
0 -7 -2 78.49
1 -8 3 100.29
1 -8 3 110.79
2 -8 3 7.7
2 -8 3 23.8
3 -8 3 1.1
3 -8 3 0.1
4 -8 3 -2
4 -8 3 -5.7
-5 8 -3 57.69
5 -8 3 82.49
5 -8 3 68.99
-2 -7 3 -0.4
-1 -7 3 96.29
-1 -7 3 88.19
0 -7 3 3.5
0 -7 3 6.7
1 -7 3 59.49
1 -7 3 57.89
2 -7 3 253.67
2 -7 3 243.28
3 -7 3 23
3 -7 3 18.2
4 -7 3 21.7
4 -7 3 12.7
-5 7 -3 51.09
5 -7 3 54.99
5 -7 3 35.1
6 -7 3 29.9
-3 -6 3 -2.2
-2 -6 3 48.5
-2 -6 3 59.09
-1 -6 3 41.5
-1 -6 3 48.9
0 -6 3 0.6
0 -6 3 1.6
0 -6 3 -3.2
1 -6 3 66.09
1 -6 3 59.69
2 -6 3 101.79
2 -6 3 104.49
3 -6 3 407.96
3 -6 3 368.66
4 -6 3 274.47
4 -6 3 265.37
-5 6 -3 -0.3
5 -6 3 -2.2
5 -6 3 8
6 -6 3 29.5
6 -6 3 54.29
7 -6 3 98.89
7 -6 3 92.89
-4 -5 3 59.79
-3 -5 3 61.89
-3 -5 3 90.29
-2 -5 3 376.46
-2 -5 3 400.06
-1 -5 3 20.6
-1 -5 3 29.2
0 -5 3 214.38
0 -5 3 233.28
0 -5 3 224.18
1 -5 3 25.7
1 -5 3 40.3
2 -5 3 317.07
2 -5 3 281.77
2 -5 3 339.47
3 -5 3 294.57
3 -5 3 317.07
3 -5 3 326.87
-4 5 -3 -0.1
4 -5 3 5.5
4 -5 3 2
5 -5 3 24.3
5 -5 3 20.3
6 -5 3 93.19
6 -5 3 105.99
7 -5 3 10.3
7 -5 3 18.8
-5 -4 3 21.8
-4 -4 3 249.28
-4 -4 3 204.58
-3 -4 3 347.27
-3 -4 3 375.56
-2 -4 3 89.79
-2 -4 3 94.59
-2 -4 3 85.49
-1 -4 3 211.78
-1 -4 3 232.48
0 -4 3 821.92
0 -4 3 813.42
0 -4 3 817.42
0 -4 3 844.12
1 -4 3 244.28
1 -4 3 243.58
1 -4 3 256.57
2 -4 3 456.75
2 -4 3 484.05
2 -4 3 454.45
3 -4 3 -0.1
3 -4 3 -1
-4 4 -3 368.36
4 -4 3 349.57
4 -4 3 326.77
4 -4 3 364.56
-5 4 -3 29
5 -4 3 16.7
5 -4 3 33
6 -4 3 102.19
6 -4 3 84.89
7 -4 3 65.89
8 -4 3 64.39
-6 -3 3 28.1
-5 -3 3 61.89
-5 -3 3 52.39
-4 -3 3 11.5
-4 -3 3 19
3 3 -3 3.9
-3 -3 3 -0.7
-3 -3 3 4.5
-3 -3 3 1.9
2 3 -3 88.99
-2 -3 3 97.99
-2 -3 3 119.29
-2 -3 3 97.49
1 3 -3 30.3
-1 -3 3 34.6
-1 -3 3 26.1
-1 -3 3 27.3
0 -3 3 217.68
0 -3 3 207.18
0 -3 3 199.38
0 -3 3 204.88
1 -3 3 322.47
1 -3 3 305.17
1 -3 3 304.57
2 -3 3 0.1
2 -3 3 3.2
-3 3 -3 174.68
3 -3 3 181.08
3 -3 3 173.98
3 -3 3 160.28
-4 3 -3 18.6
4 -3 3 12.5
4 -3 3 13.7
-5 3 -3 49.9
5 -3 3 58.39
5 -3 3 46
6 -3 3 190.18
6 -3 3 184.58
7 -3 3 32
8 -3 3 74.99
6 2 -3 15
-6 -2 3 28.3
5 2 -3 182.98
-5 -2 3 199.28
4 2 -3 1.1
-4 -2 3 5.5
-4 -2 3 -1.7
3 2 -3 406.56
-3 -2 3 427.66
-3 -2 3 409.66
2 2 -3 184.98
-2 -2 3 186.88
-2 -2 3 212.38
1 2 -3 479.05
-1 -2 3 455.65
-1 -2 3 502.05
-1 -2 3 479.15
0 2 -3 632.04
0 -2 3 659.23
0 -2 3 650.93
0 -2 3 658.23
1 -2 3 40.7
1 -2 3 52.79
1 -2 3 55.19
-2 2 -3 76.69
2 -2 3 66.69
2 -2 3 86.19
2 -2 3 83.59
-3 2 -3 2200.18
3 -2 3 2262.77
3 -2 3 2230.48
-4 2 -3 53.49
4 -2 3 60.29
4 -2 3 47.5
-5 2 -3 285.17
5 -2 3 315.37
5 -2 3 289.57
6 -2 3 36
7 -2 3 174.38
7 1 -3 1
-7 -1 3 9.7
6 1 -3 322.57
-6 -1 3 326.07
5 1 -3 9
-5 -1 3 1.1
-5 -1 3 3.9
4 1 -3 115.49
-4 -1 3 129.49
3 1 -3 1171.38
-3 -1 3 1128.79
2 1 -3 1740.13
-2 -1 3 1755.52
-2 -1 3 1808.62
1 1 -3 824.42
-1 -1 3 762.62
-1 -1 3 798.52
0 1 -3 37.9
0 -1 3 45.6
0 -1 3 37.2
0 -1 3 44.8
1 -1 3 831.02
1 -1 3 825.12
-2 1 -3 6275.37
2 -1 3 6213.88
2 -1 3 6135.79
-3 1 -3 287.37
3 -1 3 269.77
3 -1 3 279.27
-4 1 -3 317.67
4 -1 3 332.67
4 -1 3 316.87
-5 1 -3 37.7
5 -1 3 39.6
6 -1 3 29.6
7 -1 3 185.18
7 0 -3 129.49
-7 0 3 116.59
6 0 -3 -1.7
-6 0 3 7.4
-6 0 3 3.4
5 0 -3 43.1
5 0 -3 44.6
-5 0 3 57.19
4 0 -3 1151.58
4 0 -3 1168.58
-4 0 3 1204.88
-4 0 3 1190.48
3 0 -3 121.69
3 0 -3 122.99
-3 0 3 130.29
-3 0 3 127.69
-2 0 3 391.46
-2 0 3 404.66
1 0 -3 2.8
1 0 -3 -0.3
-1 0 3 -2
-1 0 3 1.9
0 0 -3 174.38
0 0 -3 174.18
0 0 3 182.18
0 0 3 167.68
0 0 3 182.58
-1 0 -3 35.2
1 0 3 38
1 0 3 27.1
-2 0 -3 269.97
2 0 3 286.27
2 0 3 285.07
-3 0 -3 200.18
3 0 3 220.78
3 0 3 207.28
-4 0 -3 56.19
4 0 3 59.79
-5 0 -3 162.38
5 0 3 142.39
6 0 3 137.99
7 0 3 48.9
8 -1 -3 172.58
-8 1 3 177.18
7 -1 -3 224.38
-7 1 3 203.08
6 -1 -3 -1.9
6 -1 -3 1.9
-6 1 3 0.3
-6 1 3 7.3
5 -1 -3 295.47
5 -1 -3 272.27
-5 1 3 349.96
-5 1 3 341.37
4 -1 -3 24.2
4 -1 -3 22
-4 1 3 29.5
3 -1 -3 2005.4
3 -1 -3 2077.19
-3 1 3 2018.8
2 -1 -3 209.58
2 -1 -3 222.08
-2 1 3 209.48
1 -1 -3 2.1
1 -1 -3 4.4
1 -1 -3 9.1
-1 1 3 6.8
0 -1 -3 2.8
0 -1 -3 8
0 1 3 8.2
0 1 3 10.8
-1 -1 -3 195.38
-1 -1 -3 193.28
1 1 3 190.38
1 1 3 188.48
-2 -1 -3 168.48
2 1 3 164.38
-3 -1 -3 558.24
3 1 3 548.95
-4 -1 -3 1
4 1 3 1
-5 -1 -3 103.89
5 1 3 113.89
6 1 3 32.4
8 -2 -3 99.99
-8 2 3 106.79
7 -2 -3 4.6
7 -2 -3 7.1
-7 2 3 -0.3
-7 2 3 -1.6
6 -2 -3 222.28
6 -2 -3 220.68
-6 2 3 189.98
5 -2 -3 65.29
5 -2 -3 56.89
-5 2 3 59.49
4 -2 -3 61.29
4 -2 -3 55.39
-4 2 3 53.79
3 -2 -3 89.09
3 -2 -3 85.79
-3 2 3 84.59
2 -2 -3 104.99
2 -2 -3 101.69
2 -2 -3 101.89
-2 2 3 79.09
1 -2 -3 1133.39
1 -2 -3 1174.58
1 -2 -3 1114.79
1 -2 -3 1119.79
0 -2 -3 306.87
0 -2 -3 307.07
0 -2 -3 318.77
0 2 3 310.67
-1 -2 -3 51.79
-1 -2 -3 47.4
-1 -2 -3 53.99
1 2 3 54.79
-2 -2 -3 319.57
2 2 3 332.27
-3 -2 -3 165.98
3 2 3 135.49
-4 -2 -3 625.94
4 2 3 644.24
-6 -2 -3 11.1
8 -3 -3 0.2
8 -3 -3 1.2
-8 3 3 -0.3
-8 3 3 2.7
7 -3 -3 163.18
7 -3 -3 198.58
-7 3 3 175.48
6 -3 -3 447.56
6 -3 -3 425.76
-6 3 3 412.76
5 -3 -3 0.9
5 -3 -3 8
-5 3 3 4.3
4 -3 -3 273.47
4 -3 -3 269.87
-4 3 3 316.87
3 -3 -3 -2.1
3 -3 -3 -1.9
3 -3 -3 1.3
-3 3 3 0.4
2 -3 -3 2694.83
2 -3 -3 2800.52
2 -3 -3 2721.63
1 -3 -3 4.7
1 -3 -3 5.9
1 -3 -3 5.8
-1 3 3 4.9
0 -3 -3 7.3
0 -3 -3 2.3
0 -3 -3 4.7
0 3 3 8.8
-1 -3 -3 486.95
-1 -3 -3 504.45
-2 -3 -3 196.18
-2 -3 -3 200.28
-3 -3 -3 61.69
-3 -3 -3 55.19
-4 -3 -3 30
-4 -3 -3 28.3
-5 -3 -3 -1.7
8 -4 -3 89.59
8 -4 -3 103.29
-8 4 3 91.99
7 -4 -3 160.78
7 -4 -3 162.28
-7 4 3 170.58
6 -4 -3 10.4
6 -4 -3 6.1
-6 4 3 8.9
5 -4 -3 914.81
5 -4 -3 933.91
-5 4 3 934.51
4 -4 -3 75.59
4 -4 -3 76.99
4 -4 -3 106.59
-4 4 3 79.79
3 -4 -3 719.23
3 -4 -3 759.52
3 -4 -3 793.92
-3 4 3 783.92
2 -4 -3 501.75
2 -4 -3 505.75
2 -4 -3 521.65
1 -4 -3 50.19
1 -4 -3 58.39
0 -4 -3 31.4
0 -4 -3 19
0 -4 -3 26.3
-1 -4 -3 26.5
-1 -4 -3 30.5
-2 -4 -3 232.48
-2 -4 -3 233.48
-3 -4 -3 672.13
-3 -4 -3 623.04
-4 -4 -3 98.89
-4 -4 -3 95.89
7 -5 -3 69.59
7 -5 -3 95.69
-7 5 3 88.89
6 -5 -3 40.9
6 -5 -3 52.89
-6 5 3 45.1
5 -5 -3 5.5
5 -5 -3 0.7
-5 5 3 3.7
4 -5 -3 -1.6
4 -5 -3 2
4 -5 -3 4.5
-4 5 3 -1.8
3 -5 -3 1092.59
3 -5 -3 1077.69
2 -5 -3 58.89
2 -5 -3 62.09
1 -5 -3 64.69
1 -5 -3 56.09
1 -5 -3 55.39
0 -5 -3 39.2
0 -5 -3 17.4
-1 -5 -3 0.1
-1 -5 -3 12
-2 -5 -3 117.19
-2 -5 -3 137.29
-3 -5 -3 119.69
-3 -5 -3 89.49
6 -6 -3 61.69
-6 6 3 80.29
5 -6 -3 16.4
5 -6 -3 25.6
-5 6 3 31.3
4 -6 -3 89.99
4 -6 -3 82.79
-4 6 3 74.69
3 -6 -3 42.1
3 -6 -3 42.5
2 -6 -3 145.29
2 -6 -3 158.28
1 -6 -3 18.9
1 -6 -3 27.1
0 -6 -3 56.49
0 -6 -3 57.19
-1 -6 -3 6.3
-1 -6 -3 10.1
5 -7 -3 -1.8
5 -7 -3 -1.8
-5 7 3 -0.1
4 -7 -3 55.79
4 -7 -3 68.59
-4 7 3 53.59
3 -7 -3 22.4
3 -7 -3 18.6
2 -7 -3 269.47
1 -7 -3 18.7
1 -7 -3 16.5
0 -8 4 23.9
1 -8 4 51.59
1 -8 4 72.09
2 -8 4 134.19
2 -8 4 149.49
3 -8 4 100.89
3 -8 4 111.69
4 -8 4 9.4
4 -8 4 14.7
-5 8 -4 -1
5 -8 4 -6.1
-2 -7 4 22.9
-1 -7 4 87.99
0 -7 4 0.4
0 -7 4 2.9
1 -7 4 65.29
1 -7 4 70.29
2 -7 4 208.28
2 -7 4 194.28
3 -7 4 82.59
3 -7 4 89.59
4 -7 4 -2.7
4 -7 4 4.8
-5 7 -4 24.9
5 -7 4 6.8
6 -7 4 35.1
-3 -6 4 -1.9
-2 -6 4 24.8
-1 -6 4 0.6
0 -6 4 -0.6
0 -6 4 1.9
1 -6 4 31.6
1 -6 4 27.8
2 -6 4 10.6
2 -6 4 19.8
3 -6 4 14.2
3 -6 4 25.1
4 -6 4 184.78
4 -6 4 153.98
5 -6 4 -1.5
5 -6 4 5.1
6 -6 4 62.39
6 -6 4 78.09
7 -6 4 26
7 -6 4 29
-4 -5 4 21.1
-3 -5 4 38.4
-2 -5 4 594.14
-2 -5 4 583.84
-1 -5 4 7.2
-1 -5 4 4
-1 -5 4 4.2
0 -5 4 165.88
0 -5 4 171.48
1 -5 4 40.4
1 -5 4 34
2 -5 4 403.56
2 -5 4 414.06
2 -5 4 416.96
3 -5 4 571.84
3 -5 4 640.54
3 -5 4 569.54
-4 5 -4 99.49
4 -5 4 89.79
4 -5 4 128.99
4 -5 4 106.59
5 -5 4 23.3
5 -5 4 25.1
6 -5 4 184.38
6 -5 4 165.28
7 -5 4 4.9
7 -5 4 12.9
-5 -4 4 8.1
-4 -4 4 -0.8
-3 -4 4 710.83
-3 -4 4 717.43
-2 -4 4 76.09
-2 -4 4 82.29
-1 -4 4 408.76
-1 -4 4 431.76
-1 -4 4 399.26
-1 -4 4 374.26
0 -4 4 134.69
0 -4 4 146.99
0 -4 4 135.39
1 -4 4 56.59
1 -4 4 57.49
1 -4 4 55.59
2 -4 4 541.35
2 -4 4 519.45
2 -4 4 529.15
3 -4 4 931.61
3 -4 4 929.81
3 -4 4 912.51
-4 4 -4 213.48
4 -4 4 215.08
4 -4 4 214.68
4 -4 4 203.78
5 -4 4 31.1
5 -4 4 53.59
6 -4 4 7.2
6 -4 4 5.4
7 -4 4 198.48
-6 -3 4 163.58
-5 -3 4 0.4
4 3 -4 103.09
-4 -3 4 110.89
-4 -3 4 102.09
3 3 -4 345.57
-3 -3 4 383.06
-3 -3 4 364.76
2 3 -4 587.24
-2 -3 4 608.74
-2 -3 4 572.04
-2 -3 4 572.74
1 3 -4 73.09
-1 -3 4 66.59
-1 -3 4 57.29
-1 -3 4 58.79
0 -3 4 711.53
0 -3 4 677.33
0 -3 4 666.03
1 -3 4 899.21
1 -3 4 871.91
2 -3 4 348.67
2 -3 4 328.27
2 -3 4 337.27
-3 3 -4 48
3 -3 4 60.09
3 -3 4 40.9
3 -3 4 44.2
-4 3 -4 47.9
4 -3 4 52.19
4 -3 4 58.09
5 -3 4 8.1
5 -3 4 6.9
6 -3 4 25.9
7 -3 4 104.59
6 2 -4 4.1
-6 -2 4 -2.7
5 2 -4 322.07
-5 -2 4 296.87
4 2 -4 368.96
-4 -2 4 401.46
3 2 -4 177.28
-3 -2 4 189.08
-3 -2 4 164.48
2 2 -4 643.14
-2 -2 4 615.64
-2 -2 4 647.04
-2 -2 4 629.04
1 2 -4 48.1
-1 -2 4 48.2
-1 -2 4 62.89
-1 -2 4 50.99
0 2 -4 523.85
0 -2 4 517.05
0 -2 4 512.65
0 -2 4 531.55
1 -2 4 166.78
1 -2 4 171.98
1 -2 4 168.18
-2 2 -4 950.3
2 -2 4 953.9
2 -2 4 979.6
2 -2 4 988.4
-3 2 -4 849.52
3 -2 4 879.31
3 -2 4 851.21
-4 2 -4 10.3
4 -2 4 5.7
4 -2 4 13.5
5 -2 4 71.49
6 -2 4 86.09
7 -2 4 200.98
7 1 -4 -3.3
-7 -1 4 6
6 1 -4 12.3
-6 -1 4 -1.1
5 1 -4 17
-5 -1 4 18.1
4 1 -4 5.6
-4 -1 4 2.5
-4 -1 4 6.5
3 1 -4 1103.59
-3 -1 4 1099.49
-3 -1 4 1070.49
2 1 -4 31.2
-2 -1 4 29.8
-2 -1 4 21.7
1 1 -4 174.38
-1 -1 4 159.18
-1 -1 4 164.48
0 1 -4 2.4
0 -1 4 -1
0 -1 4 -1
0 -1 4 1.5
1 -1 4 44.6
1 -1 4 31.4
2 -1 4 3546.45
2 -1 4 3590.14
-3 1 -4 293.17
3 -1 4 302.47
3 -1 4 298.27
-4 1 -4 401.96
4 -1 4 395.36
5 -1 4 44.4
6 -1 4 31.3
7 -1 4 235.48
7 0 -4 139.89
-7 0 4 133.49
6 0 -4 96.59
-6 0 4 109.49
-6 0 4 100.79
5 0 -4 110.29
5 0 -4 76.39
-5 0 4 113.09
-5 0 4 128.49
4 0 -4 821.62
4 0 -4 836.92
-4 0 4 797.82
-4 0 4 751.62
3 0 -4 673.33
3 0 -4 650.33
-3 0 4 613.24
2 0 -4 1084.19
2 0 -4 1020.6
-2 0 4 1032.7
-2 0 4 1093.49
1 0 -4 2596.44
-1 0 4 2588.34
-1 0 4 2565.84
0 0 -4 59.39
0 0 -4 54.29
0 0 4 67.79
0 0 4 70.29
0 0 4 62.29
-1 0 -4 50.69
1 0 4 51.39
1 0 4 63.59
-2 0 -4 107.39
2 0 4 108.79
2 0 4 93.59
-3 0 -4 434.06
3 0 4 430.26
-4 0 -4 1347.77
4 0 4 1330.77
5 0 4 229.28
6 0 4 36.6
7 0 4 6.8
7 -1 -4 472.65
7 -1 -4 495.35
-7 1 4 506.45
-7 1 4 439.76
6 -1 -4 400.06
6 -1 -4 405.26
-6 1 4 347.97
-6 1 4 365.16
5 -1 -4 14.7
5 -1 -4 18.3
-5 1 4 19.2
-5 1 4 11.3
4 -1 -4 160.38
4 -1 -4 163.68
-4 1 4 172.38
-4 1 4 178.98
3 -1 -4 464.35
3 -1 -4 434.66
-3 1 4 430.96
-3 1 4 432.66
2 -1 -4 7378.16
2 -1 -4 7493.55
-2 1 4 7385.96
-2 1 4 7470.75
1 -1 -4 96.49
1 -1 -4 101.49
1 -1 -4 114.99
-1 1 4 103.59
-1 1 4 92.69
0 -1 -4 4.8
0 -1 -4 5.5
0 -1 -4 5.6
0 1 4 5.4
0 1 4 10.9
-1 -1 -4 1228.68
-1 -1 -4 1265.57
1 1 4 1241.18
1 1 4 1236.58
-2 -1 -4 93.89
2 1 4 97.29
-3 -1 -4 514.45
3 1 4 518.75
-4 -1 -4 -0.6
4 1 4 2.4
5 1 4 55.79
6 1 4 96.89
8 -2 -4 85.79
-8 2 4 61.89
-8 2 4 61.59
7 -2 -4 58.59
7 -2 -4 28.8
-7 2 4 36.2
-7 2 4 29.2
6 -2 -4 -4.1
6 -2 -4 3.7
-6 2 4 2
-6 2 4 4.1
5 -2 -4 255.67
5 -2 -4 224.98
-5 2 4 222.88
4 -2 -4 6.5
4 -2 -4 5.6
-4 2 4 3.1
3 -2 -4 104.89
3 -2 -4 129.49
-3 2 4 119.19
2 -2 -4 37.6
2 -2 -4 46.7
2 -2 -4 41.1
-2 2 4 37.8
1 -2 -4 32.3
1 -2 -4 34.4
1 -2 -4 43.1
-1 2 4 36.7
0 -2 -4 13.2
0 -2 -4 26.9
0 -2 -4 11.1
0 2 4 15.1
-1 -2 -4 17.1
-1 -2 -4 21.2
1 2 4 19.6
1 2 4 16.2
-2 -2 -4 532.55
2 2 4 536.35
-3 -2 -4 353.36
-3 -2 -4 341.97
3 2 4 331.77
-4 -2 -4 184.88
-4 -2 -4 162.78
-5 -2 -4 141.09
8 -3 -4 58.79
8 -3 -4 47
-8 3 4 31.5
-8 3 4 43.6
7 -3 -4 146.59
7 -3 -4 116.39
-7 3 4 108.89
6 -3 -4 71.89
6 -3 -4 54.39
-6 3 4 62.19
5 -3 -4 197.78
5 -3 -4 237.68
-5 3 4 217.18
4 -3 -4 199.28
4 -3 -4 197.58
-4 3 4 180.68
3 -3 -4 1142.99
3 -3 -4 1087.39
3 -3 -4 1131.39
-3 3 4 1115.79
2 -3 -4 2.1
2 -3 -4 0.7
2 -3 -4 4.6
-2 3 4 2.3
1 -3 -4 73.29
1 -3 -4 88.49
1 -3 -4 79.69
-1 3 4 78.59
0 -3 -4 -0.4
0 -3 -4 -1.4
0 -3 -4 -2
0 3 4 2
-1 -3 -4 271.87
-1 -3 -4 247.78
-2 -3 -4 467.55
-2 -3 -4 475.75
-3 -3 -4 214.58
-3 -3 -4 251.37
-4 -3 -4 12.8
-5 -3 -4 2.2
7 -4 -4 11.4
7 -4 -4 24.9
-7 4 4 12.7
6 -4 -4 8.6
6 -4 -4 4.5
-6 4 4 8
5 -4 -4 28.4
5 -4 -4 18.1
-5 4 4 32.4
4 -4 -4 146.59
4 -4 -4 122.19
4 -4 -4 138.69
-4 4 4 127.39
3 -4 -4 599.34
3 -4 -4 616.04
3 -4 -4 609.44
-3 4 4 631.74
2 -4 -4 385.26
2 -4 -4 407.16
2 -4 -4 408.36
1 -4 -4 172.28
1 -4 -4 155.38
1 -4 -4 209.48
0 -4 -4 312.77
0 -4 -4 318.77
-1 -4 -4 1.5
-1 -4 -4 1.2
-2 -4 -4 178.98
-2 -4 -4 180.28
-3 -4 -4 184.88
-3 -4 -4 179.18
-4 -4 -4 191.68
7 -5 -4 36.3
7 -5 -4 43.2
-7 5 4 24.5
6 -5 -4 567.44
6 -5 -4 586.54
-6 5 4 547.45
5 -5 -4 99.49
-5 5 4 124.19
4 -5 -4 29
4 -5 -4 32.3
-4 5 4 27.1
3 -5 -4 264.67
3 -5 -4 277.37
-3 5 4 250.37
2 -5 -4 238.18
2 -5 -4 200.28
1 -5 -4 39
1 -5 -4 26.5
1 -5 -4 33
0 -5 -4 0.2
0 -5 -4 3.2
-1 -5 -4 0.1
-1 -5 -4 -2.6
-2 -5 -4 53.59
-2 -5 -4 34
6 -6 -4 112.09
-6 6 4 90.69
5 -6 -4 -4.7
5 -6 -4 7.6
-5 6 4 2
4 -6 -4 131.69
4 -6 -4 120.99
-4 6 4 115.39
3 -6 -4 -2
3 -6 -4 1.8
2 -6 -4 213.08
2 -6 -4 197.78
1 -6 -4 76.29
1 -6 -4 71.19
0 -6 -4 20.6
0 -6 -4 34
-1 -6 -4 95.99
-1 -6 -4 88.69
4 -7 -4 17.5
4 -7 -4 15
-4 7 4 29.7
3 -7 -4 30.7
3 -7 -4 37.7
2 -7 -4 35.9
1 -8 5 87.19
1 -8 5 85.09
2 -8 5 38.4
2 -8 5 89.89
3 -8 5 88.79
3 -8 5 102.49
4 -8 5 126.29
5 -8 5 -4.4
-2 -7 5 57.19
-1 -7 5 42.2
0 -7 5 -4.3
0 -7 5 0.1
1 -7 5 15.2
1 -7 5 25.1
2 -7 5 219.58
2 -7 5 249.28
3 -7 5 356.16
3 -7 5 283.77
4 -7 5 12
5 -7 5 9.5
6 -7 5 34.5
-3 -6 5 111.79
-2 -6 5 132.39
-1 -6 5 33
-1 -6 5 35.3
0 -6 5 -0.6
0 -6 5 4.6
1 -6 5 9.1
1 -6 5 11.7
2 -6 5 72.19
2 -6 5 68.79
3 -6 5 117.19
3 -6 5 106.29
4 -6 5 108.79
4 -6 5 110.89
5 -6 5 52.59
5 -6 5 51.69
6 -6 5 -4.5
6 -6 5 13.8
7 -6 5 109.99
7 -6 5 70.59
-4 -5 5 46.5
-3 -5 5 68.69
-2 -5 5 784.92
-2 -5 5 794.02
-1 -5 5 46.6
-1 -5 5 43.4
0 -5 5 61.19
0 -5 5 62.29
1 -5 5 309.97
1 -5 5 261.27
1 -5 5 275.57
2 -5 5 120.69
2 -5 5 150.48
2 -5 5 155.98
3 -5 5 203.48
3 -5 5 169.58
4 -5 5 29.4
4 -5 5 30.5
5 -5 5 78.69
5 -5 5 97.79
6 -5 5 182.78
6 -5 5 195.28
7 -5 5 5.7
-5 -4 5 230.98
-4 -4 5 144.49
-3 -4 5 264.17
-2 -4 5 10.3
-2 -4 5 9.5
1 4 -5 57.09
-1 -4 5 49.6
-1 -4 5 52.79
-1 -4 5 52.79
-1 -4 5 55.89
0 -4 5 188.18
0 -4 5 147.89
0 -4 5 170.88
1 -4 5 86.79
1 -4 5 74.79
1 -4 5 82.49
2 -4 5 309.17
2 -4 5 271.97
3 -4 5 409.56
3 -4 5 398.66
3 -4 5 430.56
4 -4 5 17.8
4 -4 5 16.9
5 -4 5 671.33
5 -4 5 656.73
6 -4 5 2
6 -4 5 4.4
7 -4 5 231.68
-6 -3 5 82.79
-5 -3 5 124.39
4 3 -5 61.49
-4 -3 5 70.89
3 3 -5 857.31
-3 -3 5 875.71
-3 -3 5 852.31
2 3 -5 3.9
-2 -3 5 5.6
-2 -3 5 6.5
-2 -3 5 4
1 3 -5 1957.4
-1 -3 5 1945.51
-1 -3 5 1992.4
-1 -3 5 1947.61
-1 -3 5 1954.2
0 -3 5 102.89
0 -3 5 96.29
1 -3 5 416.06
1 -3 5 410.86
1 -3 5 410.26
2 -3 5 1890.31
2 -3 5 1918.01
2 -3 5 1880.41
-3 3 -5 217.78
3 -3 5 230.88
3 -3 5 204.98
4 -3 5 54.79
4 -3 5 49
5 -3 5 0.9
5 -3 5 7
6 -3 5 8.4
7 -3 5 286.97
6 2 -5 46
-6 -2 5 79.19
5 2 -5 73.29
-5 -2 5 72.99
4 2 -5 1512.65
-4 -2 5 1555.44
-4 -2 5 1459.25
3 2 -5 126.29
-3 -2 5 115.09
-3 -2 5 103.29
2 2 -5 1891.71
-2 -2 5 1819.92
-2 -2 5 1803.52
-2 -2 5 1843.72
1 2 -5 29.4
-1 -2 5 28.2
-1 -2 5 23.3
0 -2 5 81.49
0 -2 5 72.79
0 -2 5 80.39
1 -2 5 54.69
1 -2 5 57.59
1 -2 5 55.89
2 -2 5 835.02
2 -2 5 786.62
-3 2 -5 766.32
3 -2 5 745.03
3 -2 5 754.52
4 -2 5 1100.69
4 -2 5 1012.4
5 -2 5 545.95
6 -2 5 111.29
7 -2 5 32.4
7 1 -5 179.28
-7 -1 5 196.78
6 1 -5 75.89
-6 -1 5 54.49
5 1 -5 246.58
-5 -1 5 251.07
-5 -1 5 269.87
4 1 -5 4.1
-4 -1 5 5.6
-4 -1 5 9.9
3 1 -5 421.36
-3 -1 5 424.86
-3 -1 5 422.36
2 1 -5 1958
-2 -1 5 1956.1
-2 -1 5 2031.5
1 1 -5 1642.34
-1 -1 5 1603.24
-1 -1 5 1634.54
0 1 -5 67.59
0 -1 5 62.29
0 -1 5 65.19
0 -1 5 62.39
1 -1 5 2.3
1 -1 5 -0.9
2 -1 5 352.56
2 -1 5 356.16
-3 1 -5 24.7
3 -1 5 22
3 -1 5 15.1
4 -1 5 126.59
5 -1 5 39.1
6 -1 5 116.69
7 -1 5 -0.8
7 0 -5 222.78
-7 0 5 235.88
6 0 -5 -0.2
-6 0 5 1.3
-6 0 5 5.2
5 0 -5 247.98
-5 0 5 233.38
-5 0 5 254.47
4 0 -5 16.8
4 0 -5 14
-4 0 5 18.9
-4 0 5 11
3 0 -5 663.73
3 0 -5 651.93
-3 0 5 692.13
-3 0 5 660.73
2 0 -5 117.99
-2 0 5 136.39
-2 0 5 117.39
1 0 -5 2066.69
1 0 -5 2040.2
-1 0 5 1962
-1 0 5 2084.29
0 0 -5 20.9
0 0 -5 13.1
0 0 5 20.9
0 0 5 25.5
0 0 5 19.9
-1 0 -5 2534.75
1 0 5 2594.24
1 0 5 2558.34
-2 0 -5 88.89
2 0 5 93.39
2 0 5 89.49
-3 0 -5 538.35
3 0 5 546.85
4 0 5 -0.3
5 0 5 413.16
6 0 5 52.69
7 -1 -5 86.39
7 -1 -5 100.59
-7 1 5 117.69
-7 1 5 98.49
6 -1 -5 16.3
6 -1 -5 19.3
-6 1 5 12.8
-6 1 5 14
5 -1 -5 544.55
5 -1 -5 538.85
-5 1 5 547.55
-5 1 5 523.95
4 -1 -5 99.49
4 -1 -5 76.09
-4 1 5 88.49
3 -1 -5 310.17
3 -1 -5 348.37
-3 1 5 330.07
-3 1 5 351.96
2 -1 -5 382.96
2 -1 -5 377.26
-2 1 5 375.76
-2 1 5 386.96
1 -1 -5 240.28
1 -1 -5 224.68
1 -1 -5 206.18
-1 1 5 226.38
-1 1 5 208.18
-1 1 5 230.78
0 -1 -5 301.27
0 -1 -5 323.87
0 1 5 291.17
0 1 5 300.37
-1 -1 -5 1304.67
-1 -1 -5 1361.76
1 1 5 1395.46
1 1 5 1352.16
-2 -1 -5 209.48
-2 -1 -5 215.38
2 1 5 213.78
-3 -1 -5 699.13
3 1 5 662.13
4 1 5 22.8
5 1 5 124.09
6 1 5 23.7
7 -2 -5 8.8
7 -2 -5 10.4
-7 2 5 4.1
-7 2 5 15
6 -2 -5 85.79
6 -2 -5 78.69
-6 2 5 92.99
-6 2 5 111.19
5 -2 -5 120.59
5 -2 -5 100.49
-5 2 5 120.59
-5 2 5 120.29
4 -2 -5 195.08
4 -2 -5 195.68
-4 2 5 165.08
3 -2 -5 401.86
3 -2 -5 367.46
-3 2 5 357.66
2 -2 -5 225.48
2 -2 -5 218.48
2 -2 -5 232.88
-2 2 5 249.38
1 -2 -5 0.5
1 -2 -5 0.4
1 -2 -5 1.1
-1 2 5 1.2
-1 2 5 0.5
-1 2 5 0.4
0 -2 -5 540.45
0 -2 -5 581.04
0 2 5 564.64
0 2 5 558.14
-1 -2 -5 843.12
-1 -2 -5 860.71
1 2 5 862.31
-2 -2 -5 578.54
-2 -2 -5 595.74
2 2 5 573.54
-3 -2 -5 76.29
-3 -2 -5 65.19
3 2 5 87.09
-4 -2 -5 113.09
-5 -2 -5 25.7
7 -3 -5 183.68
7 -3 -5 151.48
-7 3 5 175.08
-7 3 5 191.58
6 -3 -5 353.96
6 -3 -5 339.87
-6 3 5 297.97
5 -3 -5 124.49
5 -3 -5 146.39
-5 3 5 136.79
4 -3 -5 159.08
4 -3 -5 164.38
-4 3 5 145.69
3 -3 -5 897.31
3 -3 -5 896.91
3 -3 -5 886.11
-3 3 5 866.91
2 -3 -5 281.17
2 -3 -5 251.57
-2 3 5 256.77
1 -3 -5 140.39
1 -3 -5 156.28
1 -3 -5 124.89
-1 3 5 150.88
0 -3 -5 3.2
0 -3 -5 7.6
0 -3 -5 12.1
0 3 5 9.4
0 3 5 3.4
-1 -3 -5 66.29
-1 -3 -5 80.99
-2 -3 -5 227.98
-3 -3 -5 0.8
-4 -3 -5 345.97
7 -4 -5 40.9
7 -4 -5 58.49
-7 4 5 38.4
6 -4 -5 0.2
6 -4 -5 -4.2
-6 4 5 5.4
5 -4 -5 6.6
5 -4 -5 0.2
-5 4 5 7.2
4 -4 -5 8.5
4 -4 -5 14.1
4 -4 -5 10.2
-4 4 5 12.2
3 -4 -5 17.1
3 -4 -5 16.4
3 -4 -5 10.7
-3 4 5 16.8
2 -4 -5 276.37
2 -4 -5 278.97
2 -4 -5 247.48
1 -4 -5 114.09
1 -4 -5 108.99
1 -4 -5 102.09
0 -4 -5 1.7
0 -4 -5 7.2
-1 -4 -5 391.46
-1 -4 -5 324.87
-2 -4 -5 15.9
-2 -4 -5 15.7
-3 -4 -5 194.98
7 -5 -5 21
7 -5 -5 32
-7 5 5 21.6
6 -5 -5 27.7
6 -5 -5 18.4
-6 5 5 19.5
5 -5 -5 70.89
-5 5 5 57.39
4 -5 -5 85.69
4 -5 -5 107.19
-4 5 5 117.49
3 -5 -5 169.78
3 -5 -5 154.88
-3 5 5 161.88
2 -5 -5 91.99
2 -5 -5 75.29
1 -5 -5 18.4
1 -5 -5 14.4
0 -5 -5 145.39
0 -5 -5 138.09
-1 -5 -5 39.1
-1 -5 -5 60.59
-2 -5 -5 64.29
-2 -5 -5 69.89
6 -6 -5 84.59
-6 6 5 81.59
5 -6 -5 42.8
5 -6 -5 61.59
-5 6 5 64.09
4 -6 -5 138.59
4 -6 -5 172.78
-4 6 5 163.38
3 -6 -5 29.2
3 -6 -5 28.4
-3 6 5 58.99
2 -6 -5 59.29
1 -6 -5 149.79
1 -6 -5 133.09
0 -6 -5 27.9
0 -6 -5 32.8
1 -8 6 71.79
1 -8 6 63.09
2 -8 6 12.3
2 -8 6 22.9
3 -8 6 197.08
4 -8 6 107.39
-2 -7 6 197.78
-1 -7 6 47.8
-1 -7 6 22.8
0 -7 6 38.9
0 -7 6 50.79
1 -7 6 38.1
1 -7 6 53.09
2 -7 6 -1.8
2 -7 6 2.3
3 -7 6 220.08
4 -7 6 -4.1
5 -7 6 194.38
6 -7 6 3.6
-3 -6 6 293.77
-2 -6 6 74.29
-2 -6 6 122.49
-1 -6 6 197.48
-1 -6 6 228.38
0 -6 6 237.98
0 -6 6 238.78
1 -6 6 60.29
1 -6 6 39.4
2 -6 6 105.49
2 -6 6 108.49
3 -6 6 68.89
4 -6 6 40.2
5 -6 6 470.65
5 -6 6 449.95
6 -6 6 42.4
6 -6 6 16.7
-4 -5 6 -1.5
-3 -5 6 115.39
-2 -5 6 53.59
-2 -5 6 68.49
-1 -5 6 505.85
-1 -5 6 487.95
0 -5 6 13.2
0 -5 6 6.1
1 -5 6 184.38
1 -5 6 167.98
1 -5 6 153.28
2 -5 6 465.15
2 -5 6 464.95
2 -5 6 486.55
3 -5 6 14.9
3 -5 6 13.9
4 -5 6 21
4 -5 6 13.6
5 -5 6 11.9
5 -5 6 1.3
6 -5 6 124.49
6 -5 6 147.79
7 -5 6 73.19
-5 -4 6 4.8
-4 -4 6 239.08
-3 -4 6 56.99
-3 -4 6 60.29
-2 -4 6 3.9
-2 -4 6 9.5
1 4 -6 11.4
-1 -4 6 4.2
-1 -4 6 6.4
-1 -4 6 2.7
0 -4 6 9.1
0 -4 6 17.6
0 -4 6 12.4
1 -4 6 31.4
1 -4 6 30.8
2 -4 6 373.66
2 -4 6 374.36
2 -4 6 348.87
3 -4 6 307.77
3 -4 6 327.47
4 -4 6 77.59
4 -4 6 63.39
5 -4 6 156.18
5 -4 6 144.99
6 -4 6 145.79
7 -4 6 136.79
-6 -3 6 115.39
-5 -3 6 166.48
4 3 -6 403.06
-4 -3 6 380.76
-4 -3 6 418.86
3 3 -6 573.04
-3 -3 6 528.95
-3 -3 6 565.84
2 3 -6 442.86
-2 -3 6 464.85
-2 -3 6 459.15
1 3 -6 2.4
-1 -3 6 -2
-1 -3 6 4
0 -3 6 85.69
0 -3 6 78.39
0 -3 6 68.89
1 -3 6 606.84
1 -3 6 608.44
1 -3 6 583.74
2 -3 6 851.61
2 -3 6 891.21
3 -3 6 153.08
3 -3 6 147.29
4 -3 6 393.76
4 -3 6 413.66
5 -3 6 119.99
6 -3 6 30
7 -3 6 50.69
6 2 -6 -1.6
-6 -2 6 8.1
5 2 -6 10.1
-5 -2 6 22.5
-5 -2 6 9.3
4 2 -6 167.28
-4 -2 6 139.09
-4 -2 6 166.98
3 2 -6 17.2
-3 -2 6 10.8
-3 -2 6 17.2
2 2 -6 654.23
-2 -2 6 736.53
-2 -2 6 679.43
1 2 -6 475.05
-1 -2 6 476.55
-1 -2 6 475.45
-1 -2 6 477.45
0 -2 6 199.48
0 -2 6 219.68
0 -2 6 193.68
1 -2 6 1178.48
1 -2 6 1176.38
1 -2 6 1149.08
2 -2 6 15.2
2 -2 6 6
3 -2 6 300.77
3 -2 6 307.57
4 -2 6 209.28
5 -2 6 277.37
6 -2 6 71.39
7 -2 6 8.2
7 1 -6 192.78
-7 -1 6 217.18
6 1 -6 38.9
-6 -1 6 31.9
-6 -1 6 22.6
5 1 -6 851.81
-5 -1 6 867.01
-5 -1 6 857.11
4 1 -6 16.7
-4 -1 6 14.3
-4 -1 6 9.3
3 1 -6 300.97
-3 -1 6 290.17
-3 -1 6 259.37
2 1 -6 460.95
-2 -1 6 480.45
-2 -1 6 445.96
1 1 -6 116.59
-1 -1 6 119.49
-1 -1 6 135.69
-1 -1 6 121.49
0 1 -6 349.47
0 -1 6 327.67
0 -1 6 319.37
0 -1 6 365.86
1 -1 6 58.49
1 -1 6 63.89
2 -1 6 13.7
2 -1 6 13.8
3 -1 6 22.3
3 -1 6 31.4
4 -1 6 21.4
5 -1 6 195.28
6 -1 6 53.29
7 0 -6 7.7
-7 0 6 20.9
-7 0 6 16.1
6 0 -6 91.39
-6 0 6 93.19
-6 0 6 107.49
5 0 -6 158.88
-5 0 6 144.29
-5 0 6 160.78
4 0 -6 109.49
-4 0 6 89.49
-4 0 6 109.79
3 0 -6 303.87
-3 0 6 336.47
-3 0 6 318.97
2 0 -6 0.7
-2 0 6 1.6
-2 0 6 -0.5
1 0 -6 1051.19
1 0 -6 1023.5
-1 0 6 1036.7
-1 0 6 1025.9
-1 0 6 1089.79
0 0 -6 115.09
0 0 6 131.69
0 0 6 118.99
0 0 6 128.09
-1 0 -6 16
1 0 6 14.8
1 0 6 19.9
1 0 6 12.5
2 0 6 630.74
2 0 6 644.64
3 0 6 229.78
4 0 6 141.19
5 0 6 0.8
6 0 6 21.9
7 -1 -6 64.49
7 -1 -6 86.79
-7 1 6 86.49
-7 1 6 75.09
6 -1 -6 11.4
6 -1 -6 14.9
-6 1 6 -0.1
-6 1 6 9.5
5 -1 -6 101.49
5 -1 -6 112.19
-5 1 6 113.49
-5 1 6 122.69
4 -1 -6 180.98
4 -1 -6 204.78
-4 1 6 179.28
-4 1 6 173.18
3 -1 -6 147.59
3 -1 -6 145.19
-3 1 6 149.69
-3 1 6 144.69
2 -1 -6 264.87
2 -1 -6 248.18
-2 1 6 266.47
-2 1 6 285.77
1 -1 -6 6.8
1 -1 -6 5.3
1 -1 -6 1.4
-1 1 6 4.6
-1 1 6 3.8
-1 1 6 4.6
0 -1 -6 4.5
0 1 6 2.8
0 1 6 4
0 1 6 2.9
-1 -1 -6 721.73
-1 -1 -6 731.13
1 1 6 724.23
1 1 6 683.43
-2 -1 -6 105.59
-2 -1 -6 88.69
2 1 6 108.09
-3 -1 -6 194.18
3 1 6 209.88
4 1 6 163.78
5 1 6 36.7
7 -2 -6 20.2
7 -2 -6 17.8
-7 2 6 15.8
-7 2 6 18
6 -2 -6 62.19
6 -2 -6 55.69
-6 2 6 39.5
-6 2 6 50.49
5 -2 -6 341.87
5 -2 -6 317.87
-5 2 6 363.56
-5 2 6 347.97
4 -2 -6 183.38
4 -2 -6 173.48
-4 2 6 183.38
-4 2 6 170.48
3 -2 -6 306.57
3 -2 -6 310.57
-3 2 6 300.87
-3 2 6 301.17
2 -2 -6 660.03
2 -2 -6 674.93
2 -2 -6 708.93
-2 2 6 682.93
-2 2 6 689.93
1 -2 -6 41.4
1 -2 -6 39.4
1 -2 -6 43.4
1 -2 -6 43.1
-1 2 6 44
-1 2 6 54.09
-1 2 6 44.5
0 -2 -6 884.41
0 -2 -6 842.32
0 -2 -6 852.41
0 2 6 827.02
0 2 6 826.42
-1 -2 -6 34.5
-1 -2 -6 43.9
1 2 6 49.9
-2 -2 -6 138.39
-2 -2 -6 161.38
2 2 6 174.48
-3 -2 -6 71.89
3 2 6 51.79
-4 -2 -6 3.1
-5 -2 -6 118.99
7 -3 -6 7.4
7 -3 -6 2.5
-7 3 6 6.2
-7 3 6 10.6
6 -3 -6 263.17
6 -3 -6 241.18
-6 3 6 282.77
-6 3 6 248.48
5 -3 -6 70.29
5 -3 -6 69.99
-5 3 6 72.09
4 -3 -6 169.48
4 -3 -6 171.18
-4 3 6 156.58
3 -3 -6 355.86
3 -3 -6 332.07
3 -3 -6 332.17
-3 3 6 335.47
2 -3 -6 4.4
2 -3 -6 5.8
-2 3 6 5.1
-2 3 6 6.4
1 -3 -6 338.77
1 -3 -6 352.36
1 -3 -6 330.27
-1 3 6 342.87
-1 3 6 340.17
0 -3 -6 214.18
0 -3 -6 191.48
0 3 6 222.88
-1 -3 -6 53.09
-2 -3 -6 135.39
-2 -3 -6 139.29
-3 -3 -6 14.4
-4 -3 -6 121.89
7 -4 -6 90.19
7 -4 -6 81.69
-7 4 6 75.69
-7 4 6 72.59
6 -4 -6 24.6
6 -4 -6 34.3
-6 4 6 32.4
5 -4 -6 23
5 -4 -6 18.5
-5 4 6 22.4
4 -4 -6 42.1
4 -4 -6 44.2
-4 4 6 55.89
3 -4 -6 22.7
3 -4 -6 36.6
3 -4 -6 24.9
-3 4 6 29.8
2 -4 -6 45.8
2 -4 -6 24.2
-2 4 6 31.1
1 -4 -6 219.08
1 -4 -6 205.68
1 -4 -6 221.08
0 -4 -6 5.3
0 -4 -6 8.5
-1 -4 -6 91.69
-1 -4 -6 100.39
-2 -4 -6 4.3
-3 -4 -6 62.29
6 -5 -6 20.7
6 -5 -6 14.5
-6 5 6 17.1
5 -5 -6 79.69
-5 5 6 77.79
4 -5 -6 7.1
4 -5 -6 4.2
-4 5 6 -1.5
3 -5 -6 34.7
3 -5 -6 41.6
-3 5 6 55.19
2 -5 -6 204.98
2 -5 -6 192.08
1 -5 -6 16.1
1 -5 -6 24
0 -5 -6 143.39
0 -5 -6 179.98
-1 -5 -6 56.29
-1 -5 -6 65.59
5 -6 -6 70.39
5 -6 -6 83.59
-5 6 6 83.89
4 -6 -6 24.6
4 -6 -6 20.4
-4 6 6 42.6
3 -6 -6 61.09
3 -6 -6 62.69
-3 6 6 49.6
2 -6 -6 17.2
1 -6 -6 76.89
1 -6 -6 91.19
1 -8 7 75.69
1 -8 7 52.79
2 -8 7 18
3 -8 7 94.59
4 -8 7 18.3
-1 -7 7 42.7
-1 -7 7 34.1
0 -7 7 1.8
0 -7 7 6.8
1 -7 7 23.1
1 -7 7 14.1
2 -7 7 24.1
3 -7 7 4.1
4 -7 7 -5.2
5 -7 7 143.29
-3 -6 7 13.7
-2 -6 7 20.1
-2 -6 7 13
-1 -6 7 59.19
-1 -6 7 42
0 -6 7 543.35
0 -6 7 515.35
1 -6 7 3.4
1 -6 7 7.3
2 -6 7 690.23
3 -6 7 29.2
3 -6 7 22
4 -6 7 156.18
4 -6 7 167.18
5 -6 7 3.2
5 -6 7 -0.3
6 -6 7 311.67
6 -6 7 294.37
-4 -5 7 196.08
-3 -5 7 44.8
-3 -5 7 75.29
-2 -5 7 3.2
-2 -5 7 12.3
-1 -5 7 52.29
-1 -5 7 44.5
0 -5 7 36.7
0 -5 7 46.8
0 -5 7 42.8
1 -5 7 403.96
1 -5 7 421.06
1 -5 7 435.66
2 -5 7 140.59
3 -5 7 17.6
3 -5 7 15.6
4 -5 7 147.19
4 -5 7 172.18
5 -5 7 9.3
5 -5 7 7.6
6 -5 7 53.19
6 -5 7 49.6
-5 -4 7 133.99
-4 -4 7 118.59
-4 -4 7 108.89
-3 -4 7 100.79
-3 -4 7 139.29
2 4 -7 167.98
-2 -4 7 180.68
-2 -4 7 162.98
-2 -4 7 174.58
1 4 -7 202.58
-1 -4 7 188.18
-1 -4 7 184.08
-1 -4 7 229.48
0 -4 7 135.89
0 -4 7 117.39
1 -4 7 246.68
1 -4 7 242.58
1 -4 7 243.28
2 -4 7 221.28
2 -4 7 246.78
3 -4 7 349.87
3 -4 7 338.67
4 -4 7 49.5
4 -4 7 29.1
5 -4 7 229.98
5 -4 7 203.88
6 -4 7 -2.3
7 -4 7 1.4
-6 -3 7 181.48
5 3 -7 45.6
-5 -3 7 37.5
-5 -3 7 50.69
4 3 -7 -0.6
-4 -3 7 2.5
-4 -3 7 1.1
3 3 -7 84.49
-3 -3 7 54.99
-3 -3 7 82.89
2 3 -7 288.97
-2 -3 7 265.97
-2 -3 7 281.47
1 3 -7 159.08
-1 -3 7 159.88
-1 -3 7 174.98
-1 -3 7 168.58
0 -3 7 373.46
0 -3 7 355.96
0 -3 7 362.96
1 -3 7 5.2
1 -3 7 1.7
1 -3 7 8.2
2 -3 7 313.07
2 -3 7 311.27
3 -3 7 1.4
3 -3 7 -0.5
4 -3 7 201.38
4 -3 7 205.68
5 -3 7 504.45
6 -3 7 51.09
6 2 -7 5.4
-6 -2 7 3.4
5 2 -7 2.7
-5 -2 7 1.2
-5 -2 7 4.3
4 2 -7 120.19
-4 -2 7 107.49
-4 -2 7 133.39
3 2 -7 37.6
-3 -2 7 47.3
-3 -2 7 32.9
2 2 -7 5.8
-2 -2 7 12.7
-2 -2 7 7.6
1 2 -7 432.86
-1 -2 7 432.56
-1 -2 7 443.56
-1 -2 7 426.16
0 -2 7 67.09
0 -2 7 69.29
0 -2 7 60.29
1 -2 7 80.69
1 -2 7 84.59
2 -2 7 270.07
2 -2 7 286.07
3 -2 7 39.8
3 -2 7 66.29
4 -2 7 325.57
5 -2 7 -2.9
6 -2 7 267.87
6 1 -7 3.5
-6 -1 7 9
-6 -1 7 5.8
5 1 -7 393.66
-5 -1 7 374.86
-5 -1 7 352.76
4 1 -7 145.69
-4 -1 7 127.49
-4 -1 7 146.99
3 1 -7 613.94
-3 -1 7 581.04
-3 -1 7 610.74
2 1 -7 389.96
-2 -1 7 394.86
-2 -1 7 411.16
1 1 -7 142.79
-1 -1 7 124.29
-1 -1 7 141.09
-1 -1 7 140.89
0 1 -7 576.84
0 -1 7 571.94
0 -1 7 552.14
0 -1 7 571.64
1 -1 7 1602.54
1 -1 7 1567.74
2 -1 7 -0.3
2 -1 7 1.4
3 -1 7 254.57
4 -1 7 0.9
5 -1 7 184.18
6 -1 7 71.49
7 0 -7 2.1
-7 0 7 0.9
-7 0 7 9.8
6 0 -7 190.58
-6 0 7 162.28
-6 0 7 172.38
5 0 -7 441.36
-5 0 7 446.66
-5 0 7 479.65
4 0 -7 87.69
-4 0 7 106.09
-4 0 7 78.59
3 0 -7 177.48
-3 0 7 177.38
-3 0 7 167.28
2 0 -7 1.3
-2 0 7 3.7
-2 0 7 5.4
1 0 -7 431.86
1 0 -7 427.86
-1 0 7 419.26
-1 0 7 422.36
-1 0 7 412.96
0 0 -7 1051.79
0 0 7 1089.19
0 0 7 1048.3
0 0 7 1126.49
1 0 7 7.9
1 0 7 7.1
2 0 7 65.69
3 0 7 31.7
4 0 7 29.4
5 0 7 275.37
6 0 7 14.4
7 -1 -7 -0.3
-7 1 7 -5
-7 1 7 -0.2
6 -1 -7 404.16
6 -1 -7 436.26
-6 1 7 394.76
-6 1 7 420.96
5 -1 -7 0.9
5 -1 -7 2.4
-5 1 7 0.5
-5 1 7 -1
4 -1 -7 374.46
4 -1 -7 303.37
-4 1 7 299.87
-4 1 7 303.67
3 -1 -7 41.5
3 -1 -7 46.5
-3 1 7 46.6
-3 1 7 31.8
2 -1 -7 1.2
2 -1 -7 0.4
-2 1 7 2.2
-2 1 7 1.5
1 -1 -7 44.5
1 -1 -7 55.69
-1 1 7 39
-1 1 7 42.6
-1 1 7 58.89
0 -1 -7 184.68
0 1 7 188.18
0 1 7 197.88
0 1 7 217.58
-1 -1 -7 25.1
-1 -1 -7 33.5
1 1 7 27.5
-2 -1 -7 17.9
2 1 7 37.8
-3 -1 -7 49.6
3 1 7 47.1
-4 -1 -7 364.16
4 1 7 352.66
-5 -1 -7 32.5
5 1 7 46.8
7 -2 -7 71.39
7 -2 -7 74.19
-7 2 7 64.59
-7 2 7 62.19
6 -2 -7 22.9
6 -2 -7 31
-6 2 7 19.8
-6 2 7 27.9
5 -2 -7 286.27
5 -2 -7 233.88
-5 2 7 264.77
-5 2 7 286.47
4 -2 -7 72.09
4 -2 -7 50.89
-4 2 7 53.79
-4 2 7 72.99
3 -2 -7 17.8
3 -2 -7 8.1
-3 2 7 9.6
-3 2 7 10.4
2 -2 -7 516.75
2 -2 -7 520.15
-2 2 7 501.25
-2 2 7 537.35
-2 2 7 545.85
1 -2 -7 255.87
1 -2 -7 276.17
1 -2 -7 259.57
-1 2 7 253.57
-1 2 7 297.47
-1 2 7 289.87
0 -2 -7 310.27
0 -2 -7 278.67
0 2 7 291.17
0 2 7 273.67
-1 -2 -7 127.29
-1 -2 -7 120.09
1 2 7 118.69
-2 -2 -7 25.9
2 2 7 22.1
-3 -2 -7 186.28
-4 -2 -7 95.79
7 -3 -7 44.1
7 -3 -7 43.9
-7 3 7 39.9
-7 3 7 42.1
6 -3 -7 31.4
6 -3 -7 12.3
-6 3 7 31.7
-6 3 7 16.8
5 -3 -7 60.69
5 -3 -7 41.8
-5 3 7 50.19
-5 3 7 53.49
4 -3 -7 -1.1
4 -3 -7 0.5
-4 3 7 -2.5
-4 3 7 -3.3
3 -3 -7 418.96
3 -3 -7 418.86
-3 3 7 387.76
-3 3 7 402.16
2 -3 -7 50.79
2 -3 -7 52.29
-2 3 7 37.5
-2 3 7 31.2
-2 3 7 45.2
1 -3 -7 250.37
1 -3 -7 251.07
-1 3 7 237.68
-1 3 7 254.47
-1 3 7 239.48
0 -3 -7 154.58
-1 -3 -7 107.49
-1 -3 -7 102.29
-2 -3 -7 52.29
-3 -3 -7 9.9
6 -4 -7 199.08
6 -4 -7 242.88
-6 4 7 215.88
-6 4 7 232.08
5 -4 -7 151.58
5 -4 -7 146.39
-5 4 7 130.49
-5 4 7 163.28
4 -4 -7 162.58
4 -4 -7 176.38
-4 4 7 173.58
3 -4 -7 0.2
3 -4 -7 0.5
-3 4 7 5.1
2 -4 -7 8.6
2 -4 -7 0.8
-2 4 7 4.2
-2 4 7 0
1 -4 -7 324.47
1 -4 -7 369.56
0 -4 -7 25.9
0 -4 -7 31.2
-1 -4 -7 65.29
-2 -4 -7 13.4
6 -5 -7 28.3
6 -5 -7 31.5
-6 5 7 29.2
5 -5 -7 190.28
-5 5 7 168.08
4 -5 -7 122.99
4 -5 -7 164.28
-4 5 7 134.89
3 -5 -7 -0.6
3 -5 -7 -1.3
-3 5 7 1.3
2 -5 -7 -2
-2 5 7 0.5
1 -5 -7 10.9
1 -5 -7 23.5
0 -5 -7 212.18
0 -5 -7 193.08
-1 -5 -7 112.79
3 -6 -7 16.2
-3 6 7 19.9
2 -6 -7 9.9
-2 6 7 9.1
2 -8 8 17.6
3 -8 8 4.8
-1 -7 8 19.6
-1 -7 8 0.4
0 -7 8 169.88
0 -7 8 196.08
1 -7 8 77.29
2 -7 8 5.1
3 -7 8 0.8
4 -7 8 6
5 -7 8 35.5
-3 -6 8 14.4
-2 -6 8 3.8
-2 -6 8 9.3
-1 -6 8 15.6
-1 -6 8 14.1
0 -6 8 325.27
0 -6 8 341.77
1 -6 8 1.6
2 -6 8 30
3 -6 8 57.59
4 -6 8 169.18
4 -6 8 164.58
5 -6 8 94.59
5 -6 8 109.59
6 -6 8 4.7
6 -6 8 -4.6
-4 -5 8 5.1
-3 -5 8 57.89
-3 -5 8 39.5
-2 -5 8 -3.5
-2 -5 8 2.2
-1 -5 8 213.58
-1 -5 8 194.68
0 -5 8 1.7
0 -5 8 1.7
0 -5 8 3.2
1 -5 8 95.89
2 -5 8 100.59
2 -5 8 113.79
3 -5 8 -2.3
3 -5 8 0.5
4 -5 8 292.07
4 -5 8 253.27
5 -5 8 122.89
5 -5 8 122.19
6 -5 8 54.99
-5 -4 8 156.38
-4 -4 8 219.38
-4 -4 8 255.97
-3 -4 8 17.6
-3 -4 8 25.5
2 4 -8 193.88
-2 -4 8 204.28
-2 -4 8 199.58
1 4 -8 538.95
-1 -4 8 532.85
-1 -4 8 499.55
0 -4 8 176.98
0 -4 8 198.28
0 -4 8 208.28
1 -4 8 798.22
1 -4 8 823.82
2 -4 8 1.2
2 -4 8 -3.9
3 -4 8 276.37
3 -4 8 305.07
4 -4 8 57.39
4 -4 8 58.39
5 -4 8 70.69
6 -4 8 131.19
5 3 -8 155.98
-5 -3 8 178.78
-5 -3 8 163.48
4 3 -8 21.4
-4 -3 8 45.1
-4 -3 8 32
3 3 -8 57.29
-3 -3 8 64.79
-3 -3 8 67.19
2 3 -8 106.89
-2 -3 8 82.99
-2 -3 8 90.49
-2 -3 8 106.19
1 3 -8 -2.7
-1 -3 8 -0.3
-1 -3 8 0.4
-1 -3 8 6.1
0 -3 8 750.02
0 -3 8 735.63
0 -3 8 750.62
1 -3 8 138.99
1 -3 8 118.29
2 -3 8 2.1
2 -3 8 2.5
3 -3 8 -0.7
3 -3 8 1.5
4 -3 8 4.1
4 -3 8 7.4
5 -3 8 402.96
6 -3 8 46.4
6 2 -8 215.68
-6 -2 8 192.28
-6 -2 8 193.28
5 2 -8 172.68
-5 -2 8 149.69
-5 -2 8 157.28
4 2 -8 61.79
-4 -2 8 78.99
-4 -2 8 61.99
3 2 -8 46.9
-3 -2 8 31.6
-3 -2 8 22.1
2 2 -8 25.1
-2 -2 8 27.4
-2 -2 8 16
-2 -2 8 26.1
1 2 -8 517.25
-1 -2 8 517.15
-1 -2 8 550.34
-1 -2 8 544.65
0 -2 8 418.06
0 -2 8 410.26
1 -2 8 24.8
1 -2 8 20.9
2 -2 8 32
3 -2 8 30.6
3 -2 8 34
4 -2 8 304.17
5 -2 8 74.49
6 -2 8 86.49
6 1 -8 135.29
-6 -1 8 103.99
-6 -1 8 109.79
5 1 -8 132.39
-5 -1 8 152.48
-5 -1 8 155.68
4 1 -8 77.89
-4 -1 8 92.49
-4 -1 8 100.09
3 1 -8 3.1
-3 -1 8 1.2
-3 -1 8 -1.1
2 1 -8 122.19
-2 -1 8 168.98
-2 -1 8 133.49
1 1 -8 534.65
-1 -1 8 564.64
-1 -1 8 563.44
-1 -1 8 545.95
0 1 -8 679.13
0 -1 8 671.23
0 -1 8 635.14
-1 1 -8 905.71
1 -1 8 835.32
1 -1 8 889.31
2 -1 8 1
2 -1 8 1.7
3 -1 8 196.88
4 -1 8 236.08
5 -1 8 103.99
6 -1 8 157.08
7 0 -8 -3.5
-7 0 8 2.9
-7 0 8 -6.5
6 0 -8 33.9
-6 0 8 17.1
-6 0 8 18.8
5 0 -8 257.37
-5 0 8 273.77
4 0 -8 18.3
-4 0 8 23.3
-4 0 8 16.2
3 0 -8 123.79
-3 0 8 73.89
-3 0 8 101.09
2 0 -8 83.09
-2 0 8 71.79
-2 0 8 72.19
1 0 -8 93.69
1 0 -8 92.99
-1 0 8 105.19
-1 0 8 85.69
-1 0 8 80.79
0 0 -8 780.42
0 0 8 769.22
0 0 8 784.02
-1 0 -8 46.1
1 0 8 54.19
1 0 8 47.9
-2 0 -8 43.6
2 0 8 54.09
3 0 8 263.17
4 0 8 0.7
5 0 8 172.18
7 -1 -8 2.3
-7 1 8 18.4
-7 1 8 11.8
6 -1 -8 376.96
-6 1 8 361.26
-6 1 8 340.07
5 -1 -8 27.2
-5 1 8 23.9
-5 1 8 30.7
4 -1 -8 318.57
-4 1 8 340.67
-4 1 8 375.26
3 -1 -8 343.37
-3 1 8 304.97
-3 1 8 291.17
2 -1 -8 69.69
-2 1 8 70.19
-2 1 8 85.19
-2 1 8 86.49
1 -1 -8 25.8
1 -1 -8 23.3
-1 1 8 31.2
-1 1 8 39.2
-1 1 8 38.1
0 -1 -8 240.68
0 1 8 195.68
0 1 8 205.58
-1 -1 -8 22.9
1 1 8 34.3
-2 -1 -8 148.29
2 1 8 154.78
-3 -1 -8 95.09
3 1 8 115.99
-4 -1 -8 140.19
4 1 8 146.39
7 -2 -8 11.8
7 -2 -8 8.7
-7 2 8 2.1
-7 2 8 17.3
6 -2 -8 44.7
6 -2 -8 42.6
-6 2 8 65.99
-6 2 8 65.79
5 -2 -8 281.07
5 -2 -8 296.97
-5 2 8 238.28
-5 2 8 246.28
4 -2 -8 72.69
4 -2 -8 89.29
-4 2 8 64.49
-4 2 8 79.49
3 -2 -8 34.3
3 -2 -8 37.6
-3 2 8 37.8
-3 2 8 38.7
2 -2 -8 64.39
2 -2 -8 55.69
-2 2 8 46.8
-2 2 8 52.09
-2 2 8 57.69
1 -2 -8 576.24
-1 2 8 627.84
-1 2 8 611.14
-1 2 8 595.54
0 -2 -8 96.69
0 -2 -8 76.19
0 2 8 81.99
-1 -2 -8 102.39
1 2 8 85.09
-2 -2 -8 10.1
2 2 8 5.4
-3 -2 -8 7.5
-4 -2 -8 116.99
6 -3 -8 11.3
6 -3 -8 13.4
-6 3 8 12.9
-6 3 8 1.8
5 -3 -8 239.58
5 -3 -8 263.67
-5 3 8 229.48
-5 3 8 213.28
4 -3 -8 -1.9
4 -3 -8 6.4
-4 3 8 1.7
-4 3 8 -0.5
3 -3 -8 4.3
3 -3 -8 2
-3 3 8 -0.9
-3 3 8 2.4
2 -3 -8 126.29
2 -3 -8 113.59
2 -3 -8 117.69
-2 3 8 118.79
-2 3 8 116.59
-2 3 8 95.19
1 -3 -8 465.05
1 -3 -8 466.35
1 -3 -8 463.55
-1 3 8 476.85
-1 3 8 474.95
0 -3 -8 215.38
-1 -3 -8 198.88
-2 -3 -8 32.9
-3 -3 -8 59.19
6 -4 -8 275.17
6 -4 -8 232.88
-6 4 8 264.57
-6 4 8 248.68
5 -4 -8 97.49
5 -4 -8 133.19
-5 4 8 88.49
-5 4 8 100.29
4 -4 -8 272.27
4 -4 -8 237.88
-4 4 8 276.17
-4 4 8 230.98
3 -4 -8 12.5
3 -4 -8 5.7
-3 4 8 9.4
-3 4 8 8.7
2 -4 -8 68.89
2 -4 -8 58.89
-2 4 8 66.79
1 -4 -8 108.99
1 -4 -8 102.69
-1 4 8 123.79
0 -4 -8 128.79
-1 -4 -8 146.49
5 -5 -8 19.3
-5 5 8 16.4
-5 5 8 16.8
4 -5 -8 180.48
-4 5 8 150.08
-4 5 8 181.88
3 -5 -8 2.3
3 -5 -8 2.7
-3 5 8 7
-3 5 8 0.5
2 -5 -8 370.86
-2 5 8 379.96
1 -5 -8 77.39
1 -5 -8 59.29
-1 5 8 69.69
-1 -7 9 68.49
-1 -7 9 49.8
0 -7 9 95.09
1 -7 9 109.89
2 -7 9 119.39
3 -7 9 4.2
4 -7 9 134.59
-2 -6 9 4.1
-2 -6 9 -1.9
-1 -6 9 31.3
-1 -6 9 24.7
0 -6 9 172.78
1 -6 9 47
2 -6 9 0.9
3 -6 9 24.3
3 -6 9 46.2
4 -6 9 24.2
4 -6 9 15.3
5 -6 9 88.89
5 -6 9 49.4
-3 -5 9 86.79
-3 -5 9 94.79
-2 -5 9 9.3
-2 -5 9 0.1
-1 -5 9 113.79
-1 -5 9 111.39
0 -5 9 61.49
1 -5 9 128.49
1 -5 9 114.39
2 -5 9 2.7
2 -5 9 2.6
3 -5 9 -7.6
3 -5 9 -2.2
4 -5 9 61.69
4 -5 9 68.59
5 -5 9 307.67
5 -5 9 336.87
6 -5 9 11.2
-4 -4 9 66.69
-4 -4 9 105.99
3 4 -9 52.59
-3 -4 9 49.4
-3 -4 9 29.7
-3 -4 9 43.5
2 4 -9 104.39
-2 -4 9 129.29
-2 -4 9 129.79
-2 -4 9 118.29
-1 -4 9 645.64
-1 -4 9 654.23
-1 -4 9 676.13
0 -4 9 106.69
0 -4 9 125.59
1 -4 9 190.98
1 -4 9 180.88
2 -4 9 11.4
2 -4 9 20.5
3 -4 9 131.89
3 -4 9 146.59
4 -4 9 376.76
4 -4 9 406.26
5 -4 9 94.29
6 -4 9 89.09
5 3 -9 70.99
-5 -3 9 94.89
-5 -3 9 93.09
4 3 -9 6.6
-4 -3 9 2.1
-4 -3 9 7.5
3 3 -9 4.9
-3 -3 9 7.4
-3 -3 9 14
2 3 -9 291.07
-2 -3 9 338.67
-2 -3 9 300.87
-2 -3 9 315.27
1 3 -9 59.09
-1 -3 9 76.59
-1 -3 9 64.79
-1 -3 9 65.89
0 -3 9 692.83
0 -3 9 673.13
1 -3 9 74.39
1 -3 9 85.69
2 -3 9 0.9
2 -3 9 0.2
3 -3 9 100.29
3 -3 9 135.29
4 -3 9 31.1
5 -3 9 83.89
6 -3 9 195.88
6 2 -9 118.99
-6 -2 9 119.69
-6 -2 9 100.59
5 2 -9 429.56
-5 -2 9 439.46
-5 -2 9 461.75
4 2 -9 119.39
-4 -2 9 112.49
-4 -2 9 117.69
3 2 -9 182.88
-3 -2 9 182.78
-3 -2 9 166.58
2 2 -9 3.5
-2 -2 9 -1.3
-2 -2 9 2.8
-2 -2 9 -0.1
1 2 -9 171.48
-1 -2 9 187.18
-1 -2 9 181.78
-1 -2 9 172.38
0 -2 9 794.02
0 -2 9 809.62
1 -2 9 17.1
1 -2 9 10.6
2 -2 9 79.89
2 -2 9 90.79
3 -2 9 19.1
4 -2 9 8.8
5 -2 9 38.3
6 1 -9 131.79
-6 -1 9 89.19
-6 -1 9 113.39
5 1 -9 30.4
-5 -1 9 41.5
-5 -1 9 23.1
4 1 -9 223.98
-4 -1 9 247.48
-4 -1 9 197.18
3 1 -9 84.29
-3 -1 9 56.89
-3 -1 9 65.09
2 1 -9 5.7
-2 -1 9 -0.8
-2 -1 9 0.2
-2 -1 9 0.8
1 1 -9 5.9
-1 -1 9 2.4
-1 -1 9 6.1
-1 -1 9 5.2
0 -1 9 233.98
0 -1 9 267.47
-1 1 -9 418.06
1 -1 9 392.16
1 -1 9 465.55
2 -1 9 66.29
3 -1 9 11
4 -1 9 210.58
5 -1 9 175.88
6 0 -9 55.99
-6 0 9 55.09
-6 0 9 57.49
5 0 -9 168.38
-5 0 9 196.98
-5 0 9 218.38
4 0 -9 -1.7
-4 0 9 5.7
-4 0 9 2.3
3 0 -9 3.2
-3 0 9 4.1
-3 0 9 1.4
2 0 -9 64.39
-2 0 9 74.49
-2 0 9 82.09
-2 0 9 78.69
1 0 -9 314.47
-1 0 9 331.17
-1 0 9 321.07
0 0 -9 149.88
0 0 9 162.58
0 0 9 159.68
-1 0 -9 4.8
1 0 9 13.6
1 0 9 8.5
-2 0 -9 65.39
2 0 9 51.99
-3 0 -9 91.29
3 0 9 68.29
-4 0 -9 69.99
4 0 9 67.09
5 0 9 248.08
6 -1 -9 168.38
-6 1 9 236.48
-6 1 9 185.08
5 -1 -9 157.18
-5 1 9 149.69
-5 1 9 172.48
4 -1 -9 66.49
-4 1 9 63.69
-4 1 9 58.99
3 -1 -9 180.08
-3 1 9 196.48
-3 1 9 193.08
2 -1 -9 0.1
-2 1 9 -2.2
-2 1 9 3
-2 1 9 -0.4
1 -1 -9 1920.61
1 -1 -9 1927.41
-1 1 9 1850.21
-1 1 9 1848.42
0 -1 -9 154.78
0 1 9 159.38
0 1 9 148.39
-1 -1 -9 128.99
1 1 9 111.69
-2 -1 -9 2.9
2 1 9 3.5
-3 -1 -9 24.2
3 1 9 20.9
-4 -1 -9 116.99
4 1 9 115.79
6 -2 -9 69.09
6 -2 -9 66.69
-6 2 9 59.69
-6 2 9 89.59
5 -2 -9 60.29
5 -2 -9 57.49
-5 2 9 71.09
-5 2 9 80.29
4 -2 -9 201.78
4 -2 -9 225.08
-4 2 9 215.18
3 -2 -9 25.4
3 -2 -9 47.1
-3 2 9 28.4
-3 2 9 23.5
2 -2 -9 74.39
-2 2 9 72.69
-2 2 9 81.09
-2 2 9 68.69
-1 2 9 187.08
-1 2 9 167.78
0 -2 -9 67.29
0 2 9 76.89
-1 -2 -9 184.68
1 2 9 230.48
-2 -2 -9 13.4
-3 -2 -9 32.9
6 -3 -9 24.7
6 -3 -9 16
-6 3 9 19.9
-6 3 9 23.2
5 -3 -9 84.79
5 -3 -9 67.59
-5 3 9 64.39
-5 3 9 87.49
4 -3 -9 87.79
4 -3 -9 111.79
-4 3 9 109.39
-4 3 9 108.39
3 -3 -9 -0.6
3 -3 -9 8.9
-3 3 9 9.6
-3 3 9 7.3
-3 3 9 3.2
2 -3 -9 128.79
2 -3 -9 162.48
-2 3 9 136.99
-2 3 9 114.59
-2 3 9 135.29
1 -3 -9 373.56
0 -3 -9 365.36
-1 -3 -9 24.1
-2 -3 -9 29.2
5 -4 -9 164.78
5 -4 -9 131.89
-5 4 9 148.09
-5 4 9 153.18
4 -4 -9 8.7
4 -4 -9 5.7
-4 4 9 11.2
-4 4 9 -3.4
3 -4 -9 93.59
-3 4 9 110.79
-3 4 9 103.99
2 -4 -9 40.4
-2 4 9 52.29
1 -4 -9 82.09
0 -4 -9 67.99
0 -7 10 85.99
1 -7 10 126.09
2 -7 10 96.99
3 -7 10 10.2
-2 -6 10 34.9
-2 -6 10 67.99
-1 -6 10 234.48
0 -6 10 5.5
1 -6 10 131.49
2 -6 10 6.8
2 -6 10 -1.3
3 -6 10 121.39
3 -6 10 127.69
4 -6 10 58.89
4 -6 10 98.69
-3 -5 10 109.29
-3 -5 10 103.09
-2 -5 10 120.49
-2 -5 10 118.79
-1 -5 10 256.27
0 -5 10 18.4
0 -5 10 26.1
1 -5 10 103.59
1 -5 10 108.39
2 -5 10 -1.9
2 -5 10 -0.6
3 -5 10 164.58
3 -5 10 154.08
4 -5 10 8.1
4 -5 10 -0.2
5 -5 10 132.09
-4 -4 10 121.19
-4 -4 10 139.69
3 4 -10 67.09
-3 -4 10 34.4
-3 -4 10 51.09
-3 -4 10 58.29
2 4 -10 8
-2 -4 10 10.2
-2 -4 10 10.9
-2 -4 10 18.7
-1 -4 10 42.8
-1 -4 10 29.7
0 -4 10 541.85
0 -4 10 535.25
1 -4 10 6.9
1 -4 10 8.2
2 -4 10 32.6
2 -4 10 20.5
3 -4 10 38
3 -4 10 36.3
4 -4 10 60.39
4 -4 10 47.1
5 -4 10 37
5 3 -10 42.5
-5 -3 10 36.8
-5 -3 10 53.39
4 3 -10 80.69
-4 -3 10 69.19
-4 -3 10 98.09
3 3 -10 0.6
-3 -3 10 2.4
-3 -3 10 -1.8
-3 -3 10 -0.3
2 3 -10 72.19
-2 -3 10 90.49
-2 -3 10 68.69
-2 -3 10 69.59
1 3 -10 199.88
-1 -3 10 206.78
-1 -3 10 199.78
0 -3 10 1226.08
0 -3 10 1092.79
1 -3 10 77.89
1 -3 10 91.89
2 -3 10 129.39
2 -3 10 171.78
3 -3 10 5.6
3 -3 10 1.4
4 -3 10 158.08
5 -3 10 45.9
5 2 -10 445.16
-5 -2 10 465.95
-5 -2 10 425.16
4 2 -10 4
-4 -2 10 1.9
-4 -2 10 1.1
3 2 -10 519.95
-3 -2 10 571.44
-3 -2 10 532.05
-3 -2 10 542.25
2 2 -10 27
-2 -2 10 15.7
-2 -2 10 25.8
-2 -2 10 24.3
1 2 -10 752.92
-1 -2 10 755.32
-1 -2 10 736.33
0 -2 10 72.19
0 -2 10 86.09
1 -2 10 56.09
1 -2 10 67.19
2 -2 10 339.47
2 -2 10 383.46
3 -2 10 131.99
4 -2 10 40.1
5 -2 10 126.69
6 1 -10 63.79
-6 -1 10 46.3
-6 -1 10 45.1
5 1 -10 4.7
-5 -1 10 18.9
-5 -1 10 2.2
4 1 -10 36.1
-4 -1 10 39.4
-4 -1 10 20.5
3 1 -10 191.28
-3 -1 10 177.18
-3 -1 10 172.68
2 1 -10 -0.3
-2 -1 10 -0.6
-2 -1 10 -0.2
-2 -1 10 -1.5
1 1 -10 1286.07
-1 -1 10 1229.98
-1 -1 10 1255.07
0 -1 10 297.57
0 -1 10 288.97
1 -1 10 219.48
1 -1 10 218.38
2 -1 10 12.6
3 -1 10 161.68
4 -1 10 40.1
6 0 -10 6
-6 0 10 9.9
-6 0 10 12
5 0 -10 42.6
-5 0 10 25.2
-5 0 10 33.6
4 0 -10 252.77
-4 0 10 223.68
-4 0 10 255.77
3 0 -10 81.29
-3 0 10 72.69
-3 0 10 80.39
2 0 -10 373.06
-2 0 10 361.26
-2 0 10 368.26
1 0 -10 3.9
-1 0 10 11.7
-1 0 10 16.5
0 0 10 145.89
0 0 10 153.78
1 0 10 32.7
2 0 10 -0.7
-3 0 -10 91.59
3 0 10 127.49
-4 0 -10 27.4
4 0 10 33.4
6 -1 -10 23.3
-6 1 10 27.4
-6 1 10 28.5
5 -1 -10 44.3
-5 1 10 29.7
-5 1 10 39.9
4 -1 -10 116.19
-4 1 10 122.29
-4 1 10 134.29
3 -1 -10 130.59
-3 1 10 111.49
-3 1 10 125.99
-3 1 10 129.89
2 -1 -10 76.89
-2 1 10 64.59
-2 1 10 60.39
-1 1 10 36.9
-1 1 10 28.5
0 1 10 1124.29
1 1 10 63.89
-2 -1 -10 251.07
2 1 10 232.48
-3 -1 -10 -5.4
3 1 10 4.9
6 -2 -10 128.39
-6 2 10 92.19
-6 2 10 106.59
5 -2 -10 130.69
-5 2 10 130.99
-5 2 10 146.09
4 -2 -10 35.6
-4 2 10 35.1
-4 2 10 32.2
3 -2 -10 70.59
-3 2 10 66.29
-3 2 10 63.79
-3 2 10 68.69
2 -2 -10 15.1
-2 2 10 25.9
-2 2 10 18
-1 2 10 204.18
0 -2 -10 1.2
0 2 10 2.8
-1 -2 -10 157.98
1 2 10 208.58
-2 -2 -10 59.59
5 -3 -10 180.78
5 -3 -10 206.48
-5 3 10 198.08
-5 3 10 177.38
4 -3 -10 81.99
4 -3 -10 71.89
-4 3 10 54.29
-4 3 10 76.69
-4 3 10 79.99
3 -3 -10 28.4
3 -3 -10 45.2
-3 3 10 35.8
-3 3 10 37.3
-3 3 10 35.9
2 -3 -10 153.98
-2 3 10 127.39
1 -3 -10 73.99
0 -3 -10 4.3
-1 -3 -10 29.9
4 -4 -10 0.6
-4 4 10 3.1
-4 4 10 -8.1
3 -4 -10 47.6
-3 4 10 57.29
-3 4 10 57.19
1 -4 -10 30
-1 -6 11 65.49
0 -6 11 172.98
1 -6 11 9.3
2 -6 11 1.3
2 -6 11 -1.2
3 -6 11 123.99
3 -6 11 128.89
4 -6 11 62.29
4 -6 11 52.99
-2 -5 11 88.69
-1 -5 11 3.9
-1 -5 11 1.8
0 -5 11 936.21
0 -5 11 1007.4
1 -5 11 29
1 -5 11 38.9
2 -5 11 83.99
2 -5 11 82.49
3 -5 11 12.2
3 -5 11 18.2
4 -5 11 64.69
4 -5 11 86.39
3 4 -11 102.49
-3 -4 11 118.29
-3 -4 11 61.29
-3 -4 11 88.89
2 4 -11 1.3
-2 -4 11 -0.1
-2 -4 11 1.8
-1 -4 11 99.39
-1 -4 11 78.39
0 -4 11 -1.6
0 -4 11 1.6
1 -4 11 19.8
1 -4 11 35.3
2 -4 11 227.18
2 -4 11 222.18
3 -4 11 16.1
3 -4 11 11.2
4 -4 11 43.3
4 3 -11 37.2
-4 -3 11 35.3
-4 -3 11 33.3
-4 -3 11 38.9
3 3 -11 162.98
-3 -3 11 194.68
-3 -3 11 151.38
-3 -3 11 147.69
2 3 -11 103.29
-2 -3 11 75.09
-2 -3 11 67.79
-1 -3 11 73.89
-1 -3 11 74.29
0 -3 11 170.98
0 -3 11 159.78
1 -3 11 270.77
1 -3 11 261.67
2 -3 11 63.49
2 -3 11 77.69
3 -3 11 163.88
4 -3 11 32.2
5 2 -11 84.89
-5 -2 11 36.5
-5 -2 11 57.69
4 2 -11 20.4
-4 -2 11 9
-4 -2 11 30.4
3 2 -11 75.09
-3 -2 11 82.19
-3 -2 11 60.09
-3 -2 11 50.09
2 2 -11 149.79
-2 -2 11 120.09
-2 -2 11 144.39
-1 -2 11 120.89
-1 -2 11 137.89
0 -2 11 149.99
0 -2 11 133.19
1 -2 11 30.3
1 -2 11 10.4
2 -2 11 188.98
3 -2 11 267.37
4 -2 11 14.3
5 1 -11 1.5
-5 -1 11 5.3
-5 -1 11 6
4 1 -11 219.68
-4 -1 11 200.88
-4 -1 11 190.98
3 1 -11 153.98
-3 -1 11 125.79
-3 -1 11 145.29
-3 -1 11 152.48
2 1 -11 11
-2 -1 11 3.5
-2 -1 11 3.3
-1 -1 11 94.49
-1 -1 11 62.19
0 -1 11 274.57
0 -1 11 292.67
1 -1 11 77.69
1 -1 11 89.09
2 -1 11 63.89
3 -1 11 7.6
-4 1 -11 110.19
4 -1 11 110.09
5 0 -11 75.99
-5 0 11 95.29
-5 0 11 91.39
4 0 -11 169.48
-4 0 11 209.78
-4 0 11 203.38
3 0 -11 9.7
-3 0 11 8.9
-3 0 11 13.5
2 0 -11 369.96
-2 0 11 351.76
-2 0 11 380.76
-1 0 11 59.09
-1 0 11 70.39
0 0 11 12.7
0 0 11 7.4
1 0 11 137.29
2 0 11 22.3
-3 0 -11 39.1
3 0 11 29.7
5 -1 -11 29.9
-5 1 11 19.7
-5 1 11 33.7
4 -1 -11 0.3
-4 1 11 -4.5
-4 1 11 -2.2
3 -1 -11 69.49
-3 1 11 70.69
-3 1 11 92.49
2 -1 -11 169.68
-2 1 11 165.38
-2 1 11 142.29
-1 1 11 -0.3
-1 1 11 0.4
0 1 11 31.4
1 1 11 2.6
-2 -1 -11 85.79
2 1 11 95.49
5 -2 -11 14.5
-5 2 11 25.8
-5 2 11 2.9
4 -2 -11 11.6
-4 2 11 5.5
-4 2 11 12.8
-4 2 11 -1.5
3 -2 -11 147.49
-3 2 11 179.68
-3 2 11 148.69
2 -2 -11 36.4
-2 2 11 29.9
-2 2 11 34.4
-1 2 11 65.89
0 2 11 2.9
-1 -2 -11 19
4 -3 -11 247.58
-4 3 11 191.88
-4 3 11 213.38
-4 3 11 198.18
3 -3 -11 191.78
-3 3 11 186.68
-3 3 11 178.68
0 -6 12 -5.9
1 -6 12 127.89
2 -6 12 15.1
2 -6 12 17.5
-2 -5 12 112.99
-1 -5 12 0.8
-1 -5 12 15.3
0 -5 12 -2
0 -5 12 1
1 -5 12 281.47
1 -5 12 287.27
2 -5 12 112.49
2 -5 12 142.29
3 -5 12 224.68
3 -5 12 212.48
3 4 -12 91.19
-3 -4 12 115.39
-3 -4 12 98.79
2 4 -12 89.99
-2 -4 12 96.39
-2 -4 12 55.09
-1 -4 12 27.5
-1 -4 12 37.7
0 -4 12 69.89
0 -4 12 81.39
1 -4 12 12.6
1 -4 12 2.8
2 -4 12 411.96
2 -4 12 420.66
3 -4 12 56.59
3 -4 12 30.6
4 -4 12 19.1
4 3 -12 174.08
-4 -3 12 168.08
-4 -3 12 134.79
-4 -3 12 161.68
3 3 -12 224.78
-3 -3 12 219.98
-3 -3 12 234.38
2 3 -12 40.2
-2 -3 12 34.5
-2 -3 12 26.2
-1 -3 12 209.48
-1 -3 12 192.98
0 -3 12 16.2
0 -3 12 13.9
1 -3 12 116.49
1 -3 12 102.99
2 -3 12 30.1
2 -3 12 35.9
3 -3 12 13.9
4 -3 12 121.59
4 2 -12 5
-4 -2 12 4.1
-4 -2 12 4.8
3 2 -12 6.8
-3 -2 12 30.1
-3 -2 12 21.7
2 2 -12 111.79
-2 -2 12 114.99
-2 -2 12 140.19
-1 -2 12 32.5
-1 -2 12 17.5
0 -2 12 5.9
0 -2 12 3
1 -2 12 91.59
1 -2 12 73.79
2 -2 12 15.7
3 -2 12 257.67
4 1 -12 70.09
-4 -1 12 83.89
-4 -1 12 52.49
3 1 -12 180.48
-3 -1 12 187.88
-3 -1 12 177.68
2 1 -12 213.58
-2 -1 12 181.58
-2 -1 12 203.78
-1 -1 12 2.7
-1 -1 12 6.8
0 -1 12 44.3
0 -1 12 60.99
1 -1 12 20.8
2 -1 12 336.67
3 -1 12 64.09
4 0 -12 153.78
-4 0 12 147.49
-4 0 12 195.88
3 0 -12 112.59
-3 0 12 117.29
-3 0 12 131.89
2 0 -12 315.27
-2 0 12 278.67
-2 0 12 277.17
-1 0 12 60.59
-1 0 12 40.2
0 0 12 10.3
1 0 12 144.69
2 0 12 263.87
4 -1 -12 24.5
-4 1 12 41.9
-4 1 12 33.7
3 -1 -12 168.28
-3 1 12 162.48
-3 1 12 160.38
2 -1 -12 18.2
-2 1 12 4.4
-2 1 12 5.4
-1 1 12 2.5
0 1 12 6
1 1 12 126.79
3 -2 -12 114.29
-3 2 12 112.79
-3 2 12 113.89
-2 2 12 19.1
-1 2 12 48.9
0 2 12 4.2
0 -5 13 2.5
0 -5 13 6.5
1 -5 13 27.2
1 -5 13 29
2 -5 13 16.6
2 -5 13 14.7
-2 -4 13 149.19
-2 -4 13 157.88
-1 -4 13 11.4
-1 -4 13 28.2
0 -4 13 17.4
0 -4 13 14.4
1 -4 13 -3.3
1 -4 13 3
2 -4 13 343.37
2 -4 13 307.07
3 3 -13 333.87
-3 -3 13 359.06
-3 -3 13 329.17
2 3 -13 67.29
-2 -3 13 93.29
-2 -3 13 100.19
-1 -3 13 68.19
-1 -3 13 73.19
0 -3 13 13.1
0 -3 13 14.4
1 -3 13 99.79
1 -3 13 101.19
2 -3 13 264.27
3 -3 13 36.9
3 2 -13 45.7
-3 -2 13 45.9
-3 -2 13 51.49
2 2 -13 137.49
-2 -2 13 83.49
-2 -2 13 120.19
-1 -2 13 13.8
-1 -2 13 19
0 -2 13 -0.9
0 -2 13 -5.6
1 -2 13 92.29
1 -2 13 103.49
2 -2 13 7.3
3 1 -13 55.79
-3 -1 13 50.49
-3 -1 13 57.79
2 1 -13 34.8
-2 -1 13 52.09
-2 -1 13 38.6
-1 -1 13 -1.9
-1 -1 13 -7.3
0 -1 13 84.19
0 -1 13 107.59
1 -1 13 59.99
2 -1 13 26.5
3 0 -13 5.7
-3 0 13 26.8
-3 0 13 5.4
2 0 -13 165.88
-2 0 13 163.28
-2 0 13 167.28
-1 0 13 37.8
-1 0 13 35.8
0 0 13 5.4
1 0 13 75.79
3 -1 -13 243.08
-3 1 13 255.37
-3 1 13 236.48
-2 1 13 113.39
-2 1 13 97.49
-1 1 13 11.3
-1 -3 14 108.49
-1 -3 14 99.19
0 -3 14 40.3
0 -3 14 20.3
1 -3 14 141.09
1 -3 14 116.09
-2 -2 14 443.86
-2 -2 14 432.46
-1 -2 14 22.1
-1 -2 14 18.9
0 -2 14 5.9
0 -2 14 3.1
1 -2 14 205.28
-1 -1 14 0.1
-1 -1 14 -2.3
0 -1 14 69.99

_cod_database_fobs_code 1549412
