#------------------------------------------------------------------------------
#$Date: 2019-11-17 07:25:38 +0200 (Sun, 17 Nov 2019) $
#$Revision: 228658 $
#$URL: file:///home/coder/svn-repositories/cod/cif/1/54/98/1549861.cif $
#------------------------------------------------------------------------------
#
# This file is available in the Crystallography Open Database (COD),
# http://www.crystallography.net/
#
# All data on this site have been placed in the public domain by the
# contributors.
#
data_1549861
loop_
_publ_author_name
'Das, Deb Kumar'
'Kumar Pampana, V. Kishore'
'Hwang, Kuo Chu'
_publ_section_title
;
 Copper catalyzed photoredox synthesis of \a-keto esters, quinoxaline, and
 naphthoquinone: controlled oxidation of terminal alkynes to glyoxals.
;
_journal_issue                   37
_journal_name_full               'Chemical science'
_journal_page_first              7318
_journal_page_last               7326
_journal_paper_doi               10.1039/c8sc03447h
_journal_volume                  9
_journal_year                    2018
_chemical_formula_sum            'C12 H12 Cu N2 O6'
_chemical_formula_weight         343.78
_space_group_crystal_system      triclinic
_space_group_IT_number           2
_space_group_name_Hall           '-P 1'
_space_group_name_H-M_alt        'P -1'
_symmetry_space_group_name_Hall  '-P 1'
_symmetry_space_group_name_H-M   'P -1'
_atom_sites_solution_hydrogens   mixed
_audit_creation_method           SHELXL-2014/6
_audit_update_record
;
2018-06-05 deposited with the CCDC.
2018-08-29 downloaded from the CCDC.
;
_cell_angle_alpha                76.038(2)
_cell_angle_beta                 85.125(2)
_cell_angle_gamma                72.2290(10)
_cell_formula_units_Z            1
_cell_length_a                   5.0866(4)
_cell_length_b                   7.5068(5)
_cell_length_c                   9.0684(6)
_cell_measurement_reflns_used    4579
_cell_measurement_temperature    99(2)
_cell_measurement_theta_max      26.7016
_cell_measurement_theta_min      2.9258
_cell_volume                     319.98(4)
_computing_cell_refinement       'SAINT V8.34A (Bruker AXS Inc., 2013)'
_computing_data_collection       'Bruker APEX2'
_computing_data_reduction        'SAINT V8.34A (Bruker AXS Inc., 2013)'
_computing_molecular_graphics    'Bruker SHELXTL'
_computing_publication_material  'Bruker SHELXTL'
_computing_structure_refinement  'SHELXL-2014/6 (Sheldrick, 2014)'
_diffrn_ambient_temperature      99(2)
_diffrn_detector_area_resol_mean 8.3333
_diffrn_measured_fraction_theta_full 0.994
_diffrn_measured_fraction_theta_max 0.990
_diffrn_measurement_device_type  'Bruker APEX-II CCD'
_diffrn_measurement_method       '\f and \w scans'
_diffrn_radiation_type           MoK\a
_diffrn_radiation_wavelength     0.71073
_diffrn_reflns_av_R_equivalents  0.0132
_diffrn_reflns_av_unetI/netI     0.0117
_diffrn_reflns_Laue_measured_fraction_full 0.994
_diffrn_reflns_Laue_measured_fraction_max 0.990
_diffrn_reflns_limit_h_max       4
_diffrn_reflns_limit_h_min       -6
_diffrn_reflns_limit_k_max       9
_diffrn_reflns_limit_k_min       -9
_diffrn_reflns_limit_l_max       11
_diffrn_reflns_limit_l_min       -11
_diffrn_reflns_number            5170
_diffrn_reflns_point_group_measured_fraction_full 0.994
_diffrn_reflns_point_group_measured_fraction_max 0.990
_diffrn_reflns_theta_full        25.242
_diffrn_reflns_theta_max         26.702
_diffrn_reflns_theta_min         2.926
_exptl_absorpt_coefficient_mu    1.738
_exptl_absorpt_correction_T_max  0.95
_exptl_absorpt_correction_T_min  0.78
_exptl_absorpt_correction_type   multi-scan
_exptl_absorpt_process_details   'SADABS V2014/4 (Bruker AXS Inc.)'
_exptl_crystal_colour            blue
_exptl_crystal_density_diffrn    1.784
_exptl_crystal_density_meas      ?
_exptl_crystal_density_method    'not measured'
_exptl_crystal_description       tabullar
_exptl_crystal_F_000             175
_exptl_crystal_size_max          0.15
_exptl_crystal_size_mid          0.12
_exptl_crystal_size_min          0.03
_refine_diff_density_max         0.394
_refine_diff_density_min         -0.290
_refine_diff_density_rms         0.051
_refine_ls_extinction_method     none
_refine_ls_goodness_of_fit_ref   1.160
_refine_ls_hydrogen_treatment    constr
_refine_ls_matrix_type           full
_refine_ls_number_parameters     98
_refine_ls_number_reflns         1351
_refine_ls_number_restraints     0
_refine_ls_restrained_S_all      1.160
_refine_ls_R_factor_all          0.0172
_refine_ls_R_factor_gt           0.0172
_refine_ls_shift/su_max          0.000
_refine_ls_shift/su_mean         0.000
_refine_ls_structure_factor_coef Fsqd
_refine_ls_weighting_details
'w=1/[\s^2^(Fo^2^)+(0.0118P)^2^+0.2585P] where P=(Fo^2^+2Fc^2^)/3'
_refine_ls_weighting_scheme      calc
_refine_ls_wR_factor_gt          0.0442
_refine_ls_wR_factor_ref         0.0442
_reflns_Friedel_coverage         0.000
_reflns_number_gt                1349
_reflns_number_total             1351
_reflns_threshold_expression     'I > 2\s(I)'
_cod_data_source_file            c8sc03447h2.cif
_cod_data_source_block           mo_170824lt_0m_a
_cod_depositor_comments
;
The following automatic conversions were performed:

'_exptl_crystal_density_meas' value 'not measured' was changed to '?'
- the value is perceived as not measured.

Automatic conversion script
Id: cif_fix_values 4973 2017-02-22 13:04:09Z antanas 

 Adding full bibliography for 1549859--1549861.cif.
;
_cod_database_code               1549861
_shelx_space_group_comment
;
The symmetry employed for this shelxl refinement is uniquely defined
by the following loop, which should always be used as a source of
symmetry information in preference to the above space-group names.
They are only intended as comments.
;
_shelxl_version_number           2014/6
_shelx_res_file
;
TITL mo_170824lt_0m_a.res in P-1
CELL  0.71073   5.0866   7.5068   9.0684   76.038   85.125   72.229
ZERR    1.000   0.0004   0.0005   0.0006    0.002    0.002    0.001
LATT 1
SFAC C  H  N  O  Cu
UNIT 12  12  2  6  1
L.S. 4
ACTA
BOND $H
FMAP 2
PLAN 5
TEMP -173.540

WGHT    0.011800    0.258500
FVAR       1.98135   0.50000
CU1   5    1.000000    0.000000    0.500000    10.50000    0.00496    0.00921 =
         0.00981   -0.00015    0.00105    0.00045
N1    3    0.781923    0.229099    0.359076    11.00000    0.00745    0.01005 =
         0.01106   -0.00332   -0.00013   -0.00243
O1    4    0.669078    0.042372    0.627005    11.00000    0.00760    0.01114 =
         0.01141   -0.00118    0.00111   -0.00064
O2    4    0.225052    0.216154    0.616495    11.00000    0.00726    0.01462 =
         0.01443   -0.00392    0.00268   -0.00086
O3    4    0.231175    0.057949    0.941466    11.00000    0.02598    0.04282 =
         0.01623    0.00414    0.00153   -0.01480
C1    1    0.463372    0.179809    0.564422    11.00000    0.00967    0.00915 =
         0.01165   -0.00506   -0.00031   -0.00246
C2    1    0.526981    0.300467    0.414253    11.00000    0.00835    0.01077 =
         0.01045   -0.00467   -0.00036   -0.00330
C3    1    0.344316    0.469973    0.339661    11.00000    0.00932    0.01138 =
         0.01436   -0.00560   -0.00156   -0.00119
AFIX  43
H3    2    0.164583    0.516967    0.379980    11.00000   -1.20000
AFIX   0
C4    1    0.430709    0.569826    0.204053    11.00000    0.01490    0.01007 =
         0.01481   -0.00163   -0.00454   -0.00134
AFIX  43
H4    2    0.312008    0.688555    0.151323    11.00000   -1.20000
AFIX   0
C5    1    0.691830    0.494487    0.146456    11.00000    0.01627    0.01468 =
         0.01099   -0.00043   -0.00078   -0.00642
AFIX  43
H5    2    0.753045    0.560427    0.053357    11.00000   -1.20000
AFIX   0
C6    1    0.862549    0.322103    0.226029    11.00000    0.01055    0.01360 =
         0.01159   -0.00299    0.00088   -0.00435
AFIX  43
H6    2    1.039893    0.268898    0.185557    11.00000   -1.20000
AFIX   1
H7    2    0.240800    0.089100    0.846400    11.00000    0.05000
PART 1 21.00
H8    2    0.108700    0.019000    0.979000    21.00000    0.05000
PART 2 -21.00
H8'   2    0.388100    0.020800    0.971400   -21.00000    0.05000
PART 0

AFIX   0
HKLF 4

REM  mo_170824lt_0m_a.res in P-1
REM R1 =  0.0172 for    1349 Fo > 4sig(Fo)  and  0.0172 for all    1351 data
REM     98 parameters refined using      0 restraints

END

WGHT      0.0117      0.2575

REM Highest difference peak  0.394,  deepest hole -0.290,  1-sigma level  0.051
Q1    1   0.4893  0.2413  0.4830  11.00000  0.05    0.39
Q2    1   0.4397  0.3818  0.3852  11.00000  0.05    0.29
Q3    1   0.6529  0.2723  0.3841  11.00000  0.05    0.28
Q4    1   0.7800  0.4203  0.1960  11.00000  0.05    0.28
Q5    1   0.5470  0.5119  0.1636  11.00000  0.05    0.26
;
_shelx_res_checksum              21984
loop_
_space_group_symop_operation_xyz
'x, y, z'
'-x, -y, -z'
loop_
_atom_site_label
_atom_site_type_symbol
_atom_site_fract_x
_atom_site_fract_y
_atom_site_fract_z
_atom_site_U_iso_or_equiv
_atom_site_adp_type
_atom_site_occupancy
_atom_site_site_symmetry_order
_atom_site_calc_flag
_atom_site_refinement_flags_posn
_atom_site_refinement_flags_adp
_atom_site_refinement_flags_occupancy
_atom_site_disorder_assembly
_atom_site_disorder_group
Cu1 Cu 1.0000 0.0000 0.5000 0.00901(8) Uani 1 2 d S . P . .
N1 N 0.7819(2) 0.22910(16) 0.35908(13) 0.0094(2) Uani 1 1 d . . . . .
O1 O 0.66908(19) 0.04237(14) 0.62701(11) 0.0109(2) Uani 1 1 d . . . . .
O2 O 0.22505(19) 0.21615(14) 0.61649(11) 0.0127(2) Uani 1 1 d . . . . .
O3 O 0.2312(3) 0.0579(2) 0.94147(13) 0.0293(3) Uani 1 1 d . . . . .
C1 C 0.4634(3) 0.17981(19) 0.56442(15) 0.0097(3) Uani 1 1 d . . . . .
C2 C 0.5270(3) 0.30047(19) 0.41425(15) 0.0093(3) Uani 1 1 d . . . . .
C3 C 0.3443(3) 0.4700(2) 0.33966(16) 0.0116(3) Uani 1 1 d . . . . .
H3 H 0.1646 0.5170 0.3800 0.014 Uiso 1 1 calc R U . . .
C4 C 0.4307(3) 0.5698(2) 0.20405(16) 0.0137(3) Uani 1 1 d . . . . .
H4 H 0.3120 0.6886 0.1513 0.016 Uiso 1 1 calc R U . . .
C5 C 0.6918(3) 0.4945(2) 0.14646(16) 0.0140(3) Uani 1 1 d . . . . .
H5 H 0.7530 0.5604 0.0534 0.017 Uiso 1 1 calc R U . . .
C6 C 0.8625(3) 0.3221(2) 0.22603(15) 0.0118(3) Uani 1 1 d . . . . .
H6 H 1.0399 0.2689 0.1856 0.014 Uiso 1 1 calc R U . . .
H7 H 0.2408 0.0891 0.8464 0.050 Uiso 1 1 d . . . . .
H8 H 0.1087 0.0190 0.9790 0.050 Uiso 0.5 1 d . . P A 1
H8' H 0.3881 0.0208 0.9714 0.050 Uiso 0.5 1 d . . P A 2
loop_
_atom_site_aniso_label
_atom_site_aniso_U_11
_atom_site_aniso_U_22
_atom_site_aniso_U_33
_atom_site_aniso_U_23
_atom_site_aniso_U_13
_atom_site_aniso_U_12
Cu1 0.00496(12) 0.00921(12) 0.00981(12) -0.00015(8) 0.00105(8) 0.00045(8)
N1 0.0074(5) 0.0100(5) 0.0111(5) -0.0033(4) -0.0001(4) -0.0024(4)
O1 0.0076(4) 0.0111(5) 0.0114(5) -0.0012(4) 0.0011(4) -0.0006(4)
O2 0.0073(4) 0.0146(5) 0.0144(5) -0.0039(4) 0.0027(4) -0.0009(4)
O3 0.0260(6) 0.0428(8) 0.0162(6) 0.0041(5) 0.0015(5) -0.0148(6)
C1 0.0097(6) 0.0091(6) 0.0117(6) -0.0051(5) -0.0003(5) -0.0025(5)
C2 0.0083(6) 0.0108(6) 0.0105(6) -0.0047(5) -0.0004(5) -0.0033(5)
C3 0.0093(6) 0.0114(6) 0.0144(6) -0.0056(5) -0.0016(5) -0.0012(5)
C4 0.0149(7) 0.0101(6) 0.0148(7) -0.0016(5) -0.0045(5) -0.0013(5)
C5 0.0163(7) 0.0147(7) 0.0110(6) -0.0004(5) -0.0008(5) -0.0064(6)
C6 0.0106(6) 0.0136(6) 0.0116(6) -0.0030(5) 0.0009(5) -0.0044(5)
loop_
_atom_type_symbol
_atom_type_description
_atom_type_scat_dispersion_real
_atom_type_scat_dispersion_imag
_atom_type_scat_source
C C 0.0033 0.0016 'International Tables Vol C Tables 4.2.6.8 and 6.1.1.4'
H H 0.0000 0.0000 'International Tables Vol C Tables 4.2.6.8 and 6.1.1.4'
N N 0.0061 0.0033 'International Tables Vol C Tables 4.2.6.8 and 6.1.1.4'
O O 0.0106 0.0060 'International Tables Vol C Tables 4.2.6.8 and 6.1.1.4'
Cu Cu 0.3201 1.2651 'International Tables Vol C Tables 4.2.6.8 and 6.1.1.4'
loop_
_geom_angle_atom_site_label_1
_geom_angle_atom_site_label_2
_geom_angle_atom_site_label_3
_geom_angle
_geom_angle_site_symmetry_1
_geom_angle_site_symmetry_3
O1 Cu1 O1 180.0 . 2_756
O1 Cu1 N1 96.11(4) . 2_756
O1 Cu1 N1 83.89(4) 2_756 2_756
O1 Cu1 N1 83.89(4) . .
O1 Cu1 N1 96.11(4) 2_756 .
N1 Cu1 N1 180.0 2_756 .
C6 N1 C2 119.62(12) . .
C6 N1 Cu1 128.11(9) . .
C2 N1 Cu1 112.14(9) . .
C1 O1 Cu1 114.33(8) . .
H7 O3 H8 118.5 . .
H7 O3 H8' 106.4 . .
O2 C1 O1 125.04(12) . .
O2 C1 C2 119.79(12) . .
O1 C1 C2 115.16(11) . .
N1 C2 C3 122.27(13) . .
N1 C2 C1 113.86(11) . .
C3 C2 C1 123.86(12) . .
C2 C3 C4 118.19(13) . .
C2 C3 H3 120.9 . .
C4 C3 H3 120.9 . .
C5 C4 C3 119.37(13) . .
C5 C4 H4 120.3 . .
C3 C4 H4 120.3 . .
C6 C5 C4 119.34(13) . .
C6 C5 H5 120.3 . .
C4 C5 H5 120.3 . .
N1 C6 C5 121.16(13) . .
N1 C6 H6 119.4 . .
C5 C6 H6 119.4 . .
loop_
_geom_bond_atom_site_label_1
_geom_bond_atom_site_label_2
_geom_bond_distance
_geom_bond_site_symmetry_2
Cu1 O1 1.9446(9) .
Cu1 O1 1.9446(9) 2_756
Cu1 N1 1.9589(11) 2_756
Cu1 N1 1.9589(11) .
N1 C6 1.3400(18) .
N1 C2 1.3469(17) .
O1 C1 1.2809(16) .
O2 C1 1.2369(16) .
O3 H7 0.8383 .
O3 H8 0.7852 .
O3 H8' 0.8081 .
C1 C2 1.5127(18) .
C2 C3 1.3819(19) .
C3 C4 1.390(2) .
C3 H3 0.9500 .
C4 C5 1.387(2) .
C4 H4 0.9500 .
C5 C6 1.385(2) .
C5 H5 0.9500 .
C6 H6 0.9500 .
