#------------------------------------------------------------------------------
#$Date: 2018-06-08 18:48:12 +0300 (Fri, 08 Jun 2018) $
#$Revision: 208221 $
#$URL: file:///home/coder/svn-repositories/cod/cif/1/54/95/1549525.cif $
#------------------------------------------------------------------------------
#
# This file is available in the Crystallography Open Database (COD),
# http://www.crystallography.net/. The original data for this entry
# were provided by IUCr Journals, http://journals.iucr.org/.
#
# The file may be used within the scientific community so long as
# proper attribution is given to the journal article from which the
# data were obtained.
#
data_1549525
loop_
_publ_author_name
'Kumar, Prashant'
'Cabaj, Malgorzata Katarzyna'
'Pazio, Aleksandra'
'Dominiak, Paulina Maria'
_publ_section_title
;
 Protonated nucleobases are not fully ionized in their chloride salt
 crystals and form metastable base pairs further stabilized by the
 surrounding anions
;
_journal_coeditor_code           LC5097SUP1
_journal_issue                   4
_journal_name_full               IUCrJ
_journal_page_first
;
;
_journal_paper_doi               10.1107/S2052252518006346
_journal_volume                  5
_journal_year                    2018
_chemical_formula_moiety         'C4 H6 N3 O, Cl'
_chemical_formula_sum            'C4 H6 Cl N3 O'
_chemical_formula_weight         147.557
_chemical_name_systematic        'cytosinium chloride'
_space_group_crystal_system      monoclinic
_space_group_IT_number           14
_space_group_name_Hall           '-P 2yn'
_space_group_name_H-M_alt        'P 1 21/n 1'
_symmetry_space_group_name_Hall  '-P 2yn'
_symmetry_space_group_name_H-M   'P 1 21/n 1'
_atom_sites_solution_hydrogens   difmap
_atom_sites_solution_primary     direct
_atom_sites_solution_secondary   difmap
_cell_angle_alpha                90.
_cell_angle_beta                 95.970(1)
_cell_angle_gamma                90.
_cell_formula_units_Z            4
_cell_length_a                   8.1481(1)
_cell_length_b                   6.8774(1)
_cell_length_c                   10.9947(1)
_cell_measurement_reflns_used    14655
_cell_measurement_temperature    89.9(3)
_cell_measurement_theta_max      45.4730
_cell_measurement_theta_min      2.9550
_cell_volume                     612.777(13)
_computing_cell_refinement
;
CrysAlisPro, Agilent Technologies,
Version 1.171.37.31 (release 14-01-2014 CrysAlis171 .NET)
(compiled Jan 14 2014,18:38:05)
;
_computing_data_collection
;
CrysAlisPro, Agilent Technologies,
Version 1.171.37.31 (release 14-01-2014 CrysAlis171 .NET)
(compiled Jan 14 2014,18:38:05)
;
_computing_data_reduction
;
CrysAlisPro, Agilent Technologies,
Version 1.171.37.31 (release 14-01-2014 CrysAlis171 .NET)
(compiled Jan 14 2014,18:38:05)
;
_computing_structure_refinement  'MoPro (J. Appl. Cryst. 2005, 38, 38-54)'
_computing_structure_solution    'ShelXS (Sheldrick, 2008)'
_diffrn_ambient_environment      N~2~
_diffrn_ambient_temperature      89.9(3)
_diffrn_detector                 'CCD plate'
_diffrn_detector_area_resol_mean 16.0026
_diffrn_detector_type            Eos
_diffrn_measured_fraction_theta_full 1.000
_diffrn_measured_fraction_theta_max 1.000
_diffrn_measurement_details
;
#__ type_ start__ end____ width___ exp.time_
  1 omega  -24.00   71.00   1.0000    4.0000
omega____ theta____ kappa____ phi______ frames
    -        0.0000   57.0000   90.0000 95

#__ type_ start__ end____ width___ exp.time_
  2 omega  -24.00   71.00   1.0000    4.0000
omega____ theta____ kappa____ phi______ frames
    -        0.0000   57.0000  -30.0000 95

#__ type_ start__ end____ width___ exp.time_
  3 omega  -32.00   74.00   1.0000    4.0000
omega____ theta____ kappa____ phi______ frames
    -        0.0000   37.0000 -180.0000 106

#__ type_ start__ end____ width___ exp.time_
  4 omega  -32.00   74.00   1.0000    4.0000
omega____ theta____ kappa____ phi______ frames
    -        0.0000   37.0000  -90.0000 106

#__ type_ start__ end____ width___ exp.time_
  5 omega  -24.00   71.00   1.0000    4.0000
omega____ theta____ kappa____ phi______ frames
    -        0.0000   57.0000   30.0000 95

#__ type_ start__ end____ width___ exp.time_
  6 omega  -20.00   45.00   1.0000    4.0000
omega____ theta____ kappa____ phi______ frames
    -        0.0000  -99.0000   60.0000 65

#__ type_ start__ end____ width___ exp.time_
  7 omega  -20.00   45.00   1.0000    4.0000
omega____ theta____ kappa____ phi______ frames
    -        0.0000  -99.0000 -150.0000 65

#__ type_ start__ end____ width___ exp.time_
  8 omega  -71.00   24.00   1.0000    4.0000
omega____ theta____ kappa____ phi______ frames
    -        0.0000  -57.0000  120.0000 95

#__ type_ start__ end____ width___ exp.time_
  9 omega  -32.00   74.00   1.0000    4.0000
omega____ theta____ kappa____ phi______ frames
    -        0.0000   37.0000   60.0000 106

#__ type_ start__ end____ width___ exp.time_
 10 omega -132.00  -26.00   1.0000   30.0000
omega____ theta____ kappa____ phi______ frames
    -      -59.3035  -77.0000   90.8077 106

#__ type_ start__ end____ width___ exp.time_
 11 omega -132.00  -26.00   1.0000   30.0000
omega____ theta____ kappa____ phi______ frames
    -      -59.3035  -77.0000 -120.0000 106

#__ type_ start__ end____ width___ exp.time_
 12 omega  -92.00   13.00   1.0000   30.0000
omega____ theta____ kappa____ phi______ frames
    -      -59.3035   77.0000   90.0000 105

#__ type_ start__ end____ width___ exp.time_
 13 omega -132.00  -26.00   1.0000   30.0000
omega____ theta____ kappa____ phi______ frames
    -      -59.3035  -77.0000  -60.0000 106

#__ type_ start__ end____ width___ exp.time_
 14 omega -132.00  -26.00   1.0000   30.0000
omega____ theta____ kappa____ phi______ frames
    -      -59.3035  -77.0000   30.0000 106

#__ type_ start__ end____ width___ exp.time_
 15 omega -119.00   -2.00   1.0000   30.0000
omega____ theta____ kappa____ phi______ frames
    -      -59.3035  125.0000 -120.0000 117

#__ type_ start__ end____ width___ exp.time_
 16 omega -132.00  -26.00   1.0000   30.0000
omega____ theta____ kappa____ phi______ frames
    -      -59.3035  -77.0000   60.0000 106

#__ type_ start__ end____ width___ exp.time_
 17 omega -132.00  -26.00   1.0000   30.0000
omega____ theta____ kappa____ phi______ frames
    -      -59.3035  -77.0000  120.0000 106

#__ type_ start__ end____ width___ exp.time_
 18 omega -132.00  -26.00   1.0000   30.0000
omega____ theta____ kappa____ phi______ frames
    -      -59.3035  -77.0000    0.0000 106

#__ type_ start__ end____ width___ exp.time_
 19 omega -132.00  -82.00   1.0000   30.0000
omega____ theta____ kappa____ phi______ frames
    -      -59.3035  -77.0000  -17.2181 50

;
_diffrn_measurement_device       'four-circle diffractometer'
_diffrn_measurement_device_type  'SuperNova, Single source at offset, Eos'
_diffrn_measurement_method       '\w scans'
_diffrn_orient_matrix_UB_11      -0.0567298000
_diffrn_orient_matrix_UB_12      0.0638542000
_diffrn_orient_matrix_UB_13      0.0242919000
_diffrn_orient_matrix_UB_21      -0.0424838000
_diffrn_orient_matrix_UB_22      -0.0809796000
_diffrn_orient_matrix_UB_23      0.0216129000
_diffrn_orient_matrix_UB_31      0.0513481000
_diffrn_orient_matrix_UB_32      0.0035149000
_diffrn_orient_matrix_UB_33      0.0561536000
_diffrn_radiation_monochromator  mirror
_diffrn_radiation_probe          x-ray
_diffrn_radiation_source         'fine-focus sealed tube'
_diffrn_radiation_type           MoK\a
_diffrn_radiation_wavelength     0.71073
_diffrn_reflns_av_R_equivalents  0.0423
_diffrn_reflns_av_sigmaI/netI    0.04630
_diffrn_reflns_limit_h_max       16
_diffrn_reflns_limit_h_min       -16
_diffrn_reflns_limit_k_max       13
_diffrn_reflns_limit_k_min       -13
_diffrn_reflns_limit_l_max       22
_diffrn_reflns_limit_l_min       -22
_diffrn_reflns_number            82389
_diffrn_reflns_theta_full        45.33
_diffrn_reflns_theta_max         45.33
_diffrn_reflns_theta_min         2.97
_diffrn_source                   'SuperNova (Mo) X-ray Source'
_exptl_absorpt_coefficient_mu    0.535
_exptl_absorpt_correction_T_max  1.00000
_exptl_absorpt_correction_T_min  0.83870
_exptl_absorpt_correction_type   multi-scan
_exptl_absorpt_process_details
;
CrysAlisPro, Agilent Technologies,
Version 1.171.37.31 (release 14-01-2014 CrysAlis171 .NET)
(compiled Jan 14 2014,18:38:05)
Empirical absorption correction using spherical harmonics,
 implemented in SCALE3 ABSPACK scaling algorithm.
;
_exptl_crystal_colour            'transparent colorless'
_exptl_crystal_density_diffrn    1.600
_exptl_crystal_density_method    'not measured'
_exptl_crystal_description       block
_exptl_crystal_F_000             304
_exptl_crystal_size_max          0.1648
_exptl_crystal_size_mid          0.1246
_exptl_crystal_size_min          0.0492
_refine_diff_density_max         0.27
_refine_diff_density_min         -0.26
_refine_ls_extinction_method     none
_refine_ls_goodness_of_fit_ref   1.210
_refine_ls_hydrogen_treatment    refxyz
_refine_ls_matrix_type           full
_refine_ls_number_parameters     276
_refine_ls_number_reflns         4590
_refine_ls_number_restraints     6
_refine_ls_restrained_S_all      0.000
_refine_ls_R_factor_gt           0.0159
_refine_ls_shift/su_max          -0.002
_refine_ls_shift/su_mean         0.000
_refine_ls_structure_factor_coef F
_refine_ls_weighting_scheme      sigma
_refine_ls_wR_factor_gt          0.0237
_refine_ls_wR_factor_ref         0.0237
_reflns_d_resolution_high        0.50
_reflns_d_resolution_low         6.86
_reflns_limit_h_max              16
_reflns_limit_h_min              -16
_reflns_limit_k_max              13
_reflns_limit_k_min              0
_reflns_limit_l_max              22
_reflns_limit_l_min              0
_reflns_number_gt                4590
_reflns_number_observed          4590
_reflns_number_total             5144
_reflns_threshold_expression     >2.0sigma(I)
_iucr_refine_instructions_details
; 
! MoPro v16 07/09/2017 18:38:56 D:\measurments\ChargeDensity\cytosine_gosia\ref
#_lsdb_sif2_f_dec_21_2015\new_refs_sep_2017\ref_exp_cl-\mopro_lsdb10.par
! reflections hkl file : D:\measurments\ChargeDensity\cytosine_gosia\ref_lsdb_s
#if2_f_dec_21_2015\new_refs_sep_2017\ref_exp_cl-\sortav_freeformat.hkl refin. vs. F^1
! atomic table file : C:\Program Files (x86)\MoProSuite\LibMoPro\mopro.tab
! wave functions file : C:\Program Files (x86)\MoProSuite\LibMoPro\WAVEF_Su_Cop
#pens_relativistic
! Constraints file : D:\measurments\ChargeDensity\cytosine_gosia\ref_lsdb_sif2_
#f_dec_21_2015\new_refs_sep_2017\ref_exp_cl-\CONSTRAIN
! Restraints file : D:\measurments\ChargeDensity\cytosine_gosia\ref_lsdb_sif2_f
#_dec_21_2015\new_refs_sep_2017\ref_exp_cl-\RESTRAIN.txt
! RF factor = 1.587 % RI factor = 1.847%
! wR2F factor = 2.372 % wR2I factor = 4.278%
! g.o.f.(F**1) = 1.341 Nvar= 263 Nref= 4590 Nfree= 0 0.07<sinT/l< 1.00

! P00 Dip Qua Oct Hex l=5 l=6
! Cl- nl = 4 4 4 6 8 8 8
! Cl- zeta= 4.259 4.259 4.259 4.259 4.259 4.259 4.259
! O nl = 2 2 2 3 4 4 4
! O zeta= 4.466 4.466 4.466 4.466 4.466 4.466 4.466
! N nl = 2 2 2 3 4 4 4
! N zeta= 3.839 3.839 3.839 3.839 3.839 3.839 3.839
! C nl = 2 2 2 3 4 4 4
! C zeta= 3.176 3.176 3.176 3.176 3.176 3.176 3.176
! H nl = 1 1 2 2 2 2 2
! H zeta= 2.000 2.000 2.000 2.000 2.000 2.000 2.000

WSIG 1.00000 ! weighting scheme
 ! SPACE GROUP P ?

CELL 8.1481 6.8774 10.9947 90.0000 95.9699 90.0000 0.71073
ZERR 0.0000 0.0000 0.0000 0.0000 0.0000 0.0000

SYMM 2 P CENTRO
 X , Y, Z
 1/2-X , 1/2+Y, 1/2-Z

SCALE 1 7.082720

FMULT 1.00000

UOVER 0.00000 0.00000 0.00000 0.00000 0.00000 0.00000 ANI

SOLVT 0.00000 50.00000

EXTIN 0.00000 GAUSSIAN ISOT TYP1 ! G*10^4


DUMMY 1
DUMY 0.20129 0.63797 0.51790 D1 0 ! atom # 16

KAPPA 9
 1.016356 1. ! # 1 1 MOL CL1 1X Cl-
 0.986996 0.870623 ! # 2 1 MOL O2 1X O
 0.987384 0.883090 ! # 3 1 MOL N1 2X N
 1.020769 1.054270 ! # 4 1 MOL C6 3X C
 1.010310 1.244161 ! # 5 1 MOL N7 1X N
 1.016865 1.009712 ! # 6 1 MOL C4 1X C
 1.110000 1.158000 ! # 7 1 MOL H6 2X H
 1.155000 1.368000 ! # 8 1 MOL H7B 2X H
 1.166000 1.383000 ! # 9 1 MOL H3 2X H


ATOMS 15

ATOM 1 CL1 MOL 1 0.557537 0.124370 0.662831 1.0000 1 Cl-
 XY H7B H5 HEX K1 V0 M0 Q0
UANI 0.017304 0.012718 0.009662 0.003433 -.000005 0.002588
 7.87818 0. 0.004 0.003 -.067 0.028 -.044 -.015 0.006 0.005
 -.006 -.007 -.002 0.012 0.006 0.004 -.004
 0.018 -.034 -.013 0.086 -.036 0.020 0.034 -.065 0.022

ATOM 2 O2 MOL 1 -0.013058 0.841207 0.372756 1.0000 1 O
 XY C2 N1 HEX K2 V0 M0 Q0
UANI 0.016178 0.013591 0.010458 0.005830 -.005044 -.002197
 6.26122 0. -.053 -.004 0. -.042 0. 0. -.044 0.013
 0. -.003 0. 0. 0. 0.036 0.017
 0.010 0. 0. 0.001 0.023 0. 0. -.002 -.035

ATOM 3 N1 MOL 1 0.148879 0.812477 0.554645 1.0000 1 N
 XY D1 C6 HEX K3 V0 M0 Q0
UANI 0.013360 0.010565 0.008295 0.003150 -.002869 -.001924
 5.25378 0. -.018 -.050 0. -.056 0. 0. -.011 -.006
 0. 0.029 0. 0. 0. -.227 0.004
 0.032 0. 0. -.041 -.001 0. 0. -.025 0.065

ATOM 4 N3 MOL 1 0.139714 0.566987 0.409187 1.0000 1 N
 XY D1 C4 HEX K3 V0 M0 Q0
UANI 0.011767 0.009652 0.008443 0.002092 -.001396 -.001725
 5.16876 0. -.012 -.049 0. -.042 0. 0. 0.014 -.024
 0. 0.020 0.028 0. 0. -.197 0.027
 0.018 0. 0. -.007 0.026 0. 0. 0.003 -.004

ATOM 5 C6 MOL 1 0.261926 0.709202 0.628535 1.0000 1 C
 XY D1 N1 HEX K4 V0 M0 Q0
UANI 0.013472 0.011845 0.008475 0.002536 -.003068 -.001300
 3.74192 0. 0.014 -.053 0. -.207 0. 0. 0.031 -.045
 0. 0.024 -.029 0. 0. -.206 -.014
 -.038 0. 0. -.025 -.054 0. 0. -.020 -.054

ATOM 6 C2 MOL 1 0.087292 0.748042 0.441612 1.0000 1 C
 XY D1 N1 HEX K4 V0 M0 Q0
UANI 0.011085 0.010026 0.008063 0.002707 -.002304 -.001224
 3.64785 0. -.090 0.009 0. -.248 0. 0. 0.094 -.021
 0. -.016 0.005 0. 0. -.250 -.001
 0.074 0. 0. 0.008 0.030 0. 0. 0.010 0.018

ATOM 7 N7 MOL 1 0.296041 0.288498 0.436217 1.0000 1 N
 ZX C4 H7B HEX K5 V0 M0 Q0
UANI 0.016535 0.010831 0.014466 0.004173 0.000707 -.001896
 4.84930 0. 0. 0. -.018 0.002 0. 0. 0.034 0.
 0.073 0. 0. -.095 0. 0. 0.
 0.013 0. 0. 0.020 0. 0. 0. -.011 0.

ATOM 8 C5 MOL 1 0.317231 0.532645 0.594933 1.0000 1 C
 XY D1 C6 HEX K4 V0 M0 Q0
UANI 0.012500 0.011350 0.009858 0.002709 -.001965 -.000054
 3.92671 0. 0.042 0.064 0. -.115 0. 0. -.014 0.004
 0. 0.011 0.017 0. 0. -.228 -.006
 -.004 0. 0. 0.020 -.015 0. 0. -.023 -.012

ATOM 9 C4 MOL 1 0.252823 0.458397 0.478714 1.0000 1 C
 XY D1 N3 HEX K6 V0 M0 Q0
UANI 0.010709 0.009241 0.009716 0.001692 0.000092 -.000453
 3.92178 0. -.002 -.044 0. -.305 0. 0. 0.022 -.028
 0. -.023 -.002 0. 0. -.290 -.019
 0.095 0. 0. 0.048 -.020 0. 0. -.015 -.005

ATOM 10 H6 MOL 1 0.306758 0.778129 0.711902 1.0000 1 H
 ZY C6 C5 QUA K7 V0 M0 Q0
UANI 0.038782 0.029958 0.020713 0.008029 -.011038 -.009674
 1.02706 0. 0. 0. 0.169 0.126 0. 0. 0. 0.

ATOM 11 H7B MOL 1 0.381593 0.204976 0.485565 1.0000 1 H
 ZY N7 C4 QUA K8 V0 M0 Q0
UANI 0.027726 0.023120 0.022999 0.008178 -.004866 0.001509
 0.85277 0. 0. 0. 0.131 0.110 0. 0. 0. 0.

ATOM 12 H5 MOL 1 0.409162 0.450561 0.651932 1.0000 1 H
 ZY C5 C6 QUA K7 V0 M0 Q0
UANI 0.028185 0.025430 0.021358 0.008532 -.005944 0.002055
 1.03492 0. 0. 0. 0.192 0.091 0. 0. 0. 0.

ATOM 13 H3 MOL 1 0.102599 0.518475 0.323591 1.0000 1 H
 ZY N3 C4 QUA K9 V0 M0 Q0
UANI 0.036288 0.026917 0.018714 0.009419 -.008430 -.007872
 0.78039 0. 0. 0. 0.078 0.088 0. 0. 0. 0.

ATOM 14 H7A MOL 1 0.250748 0.246691 0.350760 1.0000 1 H
 ZY N7 C4 QUA K8 V0 M0 Q0
UANI 0.035876 0.028091 0.021073 0.008369 -.008994 -.007763
 0.89082 0. 0. 0. 0.161 0.051 0. 0. 0. 0.

ATOM 15 H1 MOL 1 0.105201 0.939762 0.582847 1.0000 1 H
 ZY N1 C6 QUA K9 V0 M0 Q0
UANI 0.034600 0.022775 0.024099 0.011031 -.006357 -.008044
 0.76456 0. 0. 0. 0.112 0.104 0. 0. 0. 0.

ANHAR 0 3 ! number_of_anharmonic_atoms max_order
! 1 ! atom number
! 0.00E+00 0.00E+00 0.00E+00 0.00E+00 0.00E+00 0.00E+00 0.00E+00 0.00E+00
! 0.00E+00 0.00E+00


STOP
;
_cod_data_source_file            lc5097.cif
_cod_data_source_block           CC
_cod_original_cell_volume        612.78(1)
_cod_database_code               1549525
loop_
_symmetry_equiv_pos_as_xyz
'x, y, z'
'-x+1/2, y+1/2, -z+1/2'
'-x, -y, -z'
'x+1/2, -y+1/2, z+1/2'
loop_
_atom_site_type_symbol
_atom_site_label
_atom_site_fract_x
_atom_site_fract_y
_atom_site_fract_z
_atom_site_U_iso_or_equiv
_atom_site_adp_type
_atom_site_occupancy
_atom_site_calc_flag
_atom_site_refinement_flags_posn
_atom_site_refinement_flags_adp
Cl CL1 0.557537(11) 0.124370(11) 0.662831(8) 0.013327(12) Uani 1 d . .
O O2 -0.01306(4) 0.84121(5) 0.37276(3) 0.01386(3) Uani 1 d . .
N N1 0.14888(4) 0.81248(5) 0.55465(3) 0.01102(3) Uani 1 d . .
N N3 0.13971(4) 0.56699(4) 0.40919(3) 0.01013(3) Uani 1 d . .
C C6 0.26193(5) 0.70920(5) 0.62854(4) 0.01156(3) Uani 1 d . .
C C2 0.08729(4) 0.74804(5) 0.44161(3) 0.00996(3) Uani 1 d . .
N N7 0.29604(4) 0.28850(6) 0.43622(3) 0.01401(4) Uani 1 d . .
C C5 0.31723(4) 0.53264(5) 0.59493(4) 0.01146(3) Uani 1 d . .
C C4 0.25282(4) 0.45840(5) 0.47871(3) 0.00996(3) Uani 1 d . .
H H6 0.3068(19) 0.778(2) 0.712(3) 0.03081 Uani 1 d D U
H H7B 0.3816(9) 0.2050(12) 0.4856(8) 0.02514 Uani 1 d D U
H H5 0.4092(9) 0.4506(14) 0.6519(8) 0.02559 Uani 1 d D U
H H3 0.1026(15) 0.5185(17) 0.3236(6) 0.02810 Uani 1 d D U
H H7A 0.2507(12) 0.2467(14) 0.3508(6) 0.02918 Uani 1 d D U
H H1 0.105(2) 0.940(5) 0.5828(17) 0.02782 Uani 1 d D U
loop_
_atom_site_aniso_label
_atom_site_aniso_U_11
_atom_site_aniso_U_22
_atom_site_aniso_U_33
_atom_site_aniso_U_12
_atom_site_aniso_U_13
_atom_site_aniso_U_23
CL1 0.01730(4) 0.01272(4) 0.00966(4) 0.00343(2) -0.00001(2) 0.00259(2)
O2 0.01618(11) 0.01359(10) 0.01046(12) 0.00583(10) -0.00504(10) -0.00220(9)
N1 0.01336(10) 0.01056(10) 0.00830(11) 0.00315(8) -0.00287(9) -0.00192(8)
N3 0.01177(10) 0.00965(9) 0.00844(10) 0.00209(8) -0.00140(9) -0.00172(8)
C6 0.01347(11) 0.01184(11) 0.00848(12) 0.00254(10) -0.00307(10) -0.00130(9)
C2 0.01109(10) 0.01003(10) 0.00806(11) 0.00271(9) -0.00230(10) -0.00122(9)
N7 0.01654(12) 0.01083(12) 0.01447(14) 0.00417(10) 0.00071(14) -0.00190(9)
C5 0.01250(11) 0.01135(11) 0.00986(12) 0.00271(9) -0.00197(10) -0.00005(9)
C4 0.01071(10) 0.00924(10) 0.00972(12) 0.00169(8) 0.00009(10) -0.00045(8)
H6 0.03878 0.02996 0.02071 0.00803 -0.01104 -0.00967
H7B 0.02773 0.02312 0.02300 0.00818 -0.00487 0.00151
H5 0.02819 0.02543 0.02136 0.00853 -0.00594 0.00206
H3 0.03629 0.02692 0.01871 0.00942 -0.00843 -0.00787
H7A 0.03588 0.02809 0.02107 0.00837 -0.00899 -0.00776
H1 0.03460 0.02277 0.02410 0.01103 -0.00636 -0.00804
loop_
_atom_type_symbol
_atom_type_description
_atom_type_scat_dispersion_real
_atom_type_scat_dispersion_imag
_atom_type_scat_source
C C 0.0033 0.0016 'Su & Coppens. Acta. Cryst. (1997) A53, 749-762. '
H H 0.0000 0.0000 'Su & Coppens. Acta. Cryst. (1997) A53, 749-762. '
N N 0.0061 0.0033 'Su & Coppens. Acta. Cryst. (1997) A53, 749-762. '
O O 0.0106 0.0060 'Su & Coppens. Acta. Cryst. (1997) A53, 749-762. '
Cl Cl 0.1484 0.1585 'Su & Coppens. Acta. Cryst. (1997) A53, 749-762. '
loop_
_geom_angle_atom_site_label_1
_geom_angle_atom_site_label_2
_geom_angle_atom_site_label_3
_geom_angle
C2 N1 C6 122.36(3)
C2 N1 H1 117.(1)
C6 N1 H1 121.(1)
C2 N3 C4 124.24(3)
C2 N3 H3 117.9(7)
C4 N3 H3 117.4(7)
N1 C6 C5 121.74(3)
N1 C6 H6 115.6(10)
C5 C6 H6 123.(1)
O2 C2 N1 123.18(3)
O2 C2 N3 120.98(3)
N1 C2 N3 115.80(3)
C4 N7 H7A 119.6(5)
C4 N7 H7B 120.3(5)
H7A N7 H7B 119.8(7)
C4 C5 C6 117.53(3)
C4 C5 H5 120.0(5)
C6 C5 H5 122.5(5)
N3 C4 N7 118.55(3)
N3 C4 C5 118.22(3)
N7 C4 C5 123.22(3)
loop_
_geom_bond_atom_site_label_1
_geom_bond_atom_site_label_2
_geom_bond_distance
O2 C2 1.2343(5)
N1 C2 1.3649(5)
N1 C6 1.3628(5)
N1 H1 1.01(4)
N3 C2 1.3754(5)
N3 C4 1.3583(5)
N3 H3 1.015(5)
C6 C5 1.3596(5)
C6 H6 1.06(3)
N7 C4 1.3198(6)
N7 H7A 1.015(5)
N7 H7B 1.016(5)
C5 C4 1.4246(5)
C5 H5 1.084(5)
loop_
_geom_hbond_atom_site_label_D
_geom_hbond_atom_site_label_H
_geom_hbond_atom_site_label_A
_geom_hbond_distance_DH
_geom_hbond_distance_HA
_geom_hbond_distance_DA
_geom_hbond_angle_DHA
_geom_hbond_site_symmetry_A
N3 H3 CL1 1.015(5) 2.022(6) 3.0232(4) 168.6(3) 4_454
N7 H7A CL1 1.015(5) 2.619(8) 3.4577(4) 140.0(4) 4_454
N7 H7B CL1 1.016(5) 2.362(7) 3.3042(4) 153.8(4) 1
C5 H5 CL1 1.084(5) 2.545(8) 3.4600(4) 141.5(4) 1
C6 H6 O2 1.06(3) 2.33(2) 3.1093(6) 129.(1) 4_565
N1 H1 O2 1.01(4) 1.77(4) 2.7782(5) 175.61(14) 3_576
N1 H1 C2 1.01(4) 2.66(4) 3.5856(5) 153.7(5) 3_576
N7 H7B CL1 1.016(5) 2.865(10) 3.3079(5) 107.0(6) 3_656
loop_
_geom_torsion_atom_site_label_1
_geom_torsion_atom_site_label_2
_geom_torsion_atom_site_label_3
_geom_torsion_atom_site_label_4
_geom_torsion
O2 C2 N1 C6 -178.771(14)
O2 C2 N1 H1 3.(2)
O2 C2 N3 C4 178.22(4)
O2 C2 N3 H3 6.(1)
N1 C2 N3 C4 -3.85(5)
N1 C2 N3 H3 -175.9(4)
N1 C6 C5 C4 0.12(5)
N1 C6 C5 H5 178.56(12)
N3 C2 N1 C6 3.35(6)
N3 C2 N1 H1 -175.3(4)
N3 C4 N7 H7A 4.(1)
N3 C4 N7 H7B 179.08(15)
N3 C4 C5 C6 -0.51(6)
N3 C4 C5 H5 -178.99(19)
C6 C5 C4 N7 -179.57(6)
C2 N1 C6 C5 -1.65(6)
C2 N1 C6 H6 176.1(6)
C2 N3 C4 N7 -178.39(6)
C2 N3 C4 C5 2.50(5)
N7 C4 N3 H3 -6.(1)
N7 C4 C5 H5 2.(1)
C5 C4 N3 H3 174.6(4)
C5 C4 N7 H7A -176.6(3)
C5 C4 N7 H7B -2.(1)
C5 C6 N1 H1 176.9(3)
C4 C5 C6 H6 -177.5(4)
H6 C6 N1 H1 -5.(2)
H6 C6 C5 H5 1.(1)
