#------------------------------------------------------------------------------
#$Date: 2019-11-17 08:01:54 +0200 (Sun, 17 Nov 2019) $
#$Revision: 228780 $
#$URL: file:///home/coder/svn-repositories/cod/cif/1/54/90/1549021.cif $
#------------------------------------------------------------------------------
#
# This file is available in the Crystallography Open Database (COD),
# http://www.crystallography.net/
#
# All data on this site have been placed in the public domain by the
# contributors.
#
data_1549021
loop_
_publ_author_name
'Roy, Bibhisan'
'Reddy, Mallu Chenna'
'Hazra, Partha'
_publ_section_title
;
 Developing the structure-property relationship to design solid state
 multi-stimuli responsive materials and their potential applications in
 different fields.
;
_journal_issue                   14
_journal_name_full               'Chemical science'
_journal_page_first              3592
_journal_page_last               3606
_journal_paper_doi               10.1039/c8sc00143j
_journal_volume                  9
_journal_year                    2018
_chemical_formula_moiety         'C15 H11 N O3 S'
_chemical_formula_sum            'C15 H11 N O3 S'
_chemical_formula_weight         285.31
_space_group_crystal_system      triclinic
_space_group_IT_number           2
_space_group_name_Hall           '-P 1'
_space_group_name_H-M_alt        'P -1'
_symmetry_space_group_name_Hall  '-P 1'
_symmetry_space_group_name_H-M   'P -1'
_atom_sites_solution_hydrogens   geom
_audit_creation_method           SHELXL-2014/7
_audit_update_record
;
2017-09-04 deposited with the CCDC.
2018-03-05 downloaded from the CCDC.
;
_cell_angle_alpha                85.46(3)
_cell_angle_beta                 77.90(3)
_cell_angle_gamma                70.37(3)
_cell_formula_units_Z            2
_cell_length_a                   7.089(8)
_cell_length_b                   7.256(8)
_cell_length_c                   13.569(15)
_cell_measurement_reflns_used    1242
_cell_measurement_temperature    296(2)
_cell_measurement_theta_max      24.49
_cell_measurement_theta_min      2.98
_cell_volume                     642.8(12)
_computing_structure_refinement  'SHELXL-2014/7 (Sheldrick, 2014)'
_diffrn_ambient_temperature      296(2)
_diffrn_measured_fraction_theta_full 0.999
_diffrn_measured_fraction_theta_max 0.987
_diffrn_measurement_device_type  'Bruker APEX-II CCD'
_diffrn_measurement_method       '\f and \w scans'
_diffrn_radiation_type           MoK\a
_diffrn_radiation_wavelength     0.71073
_diffrn_reflns_av_R_equivalents  0.1089
_diffrn_reflns_av_unetI/netI     0.1294
_diffrn_reflns_Laue_measured_fraction_full 0.999
_diffrn_reflns_Laue_measured_fraction_max 0.987
_diffrn_reflns_limit_h_max       9
_diffrn_reflns_limit_h_min       -9
_diffrn_reflns_limit_k_max       9
_diffrn_reflns_limit_k_min       -5
_diffrn_reflns_limit_l_max       18
_diffrn_reflns_limit_l_min       -18
_diffrn_reflns_number            11089
_diffrn_reflns_point_group_measured_fraction_full 0.999
_diffrn_reflns_point_group_measured_fraction_max 0.987
_diffrn_reflns_theta_full        25.242
_diffrn_reflns_theta_max         28.525
_diffrn_reflns_theta_min         1.535
_exptl_absorpt_coefficient_mu    0.258
_exptl_absorpt_correction_type   none
_exptl_crystal_colour            colorless
_exptl_crystal_density_diffrn    1.474
_exptl_crystal_description       block
_exptl_crystal_F_000             296.0
_exptl_crystal_size_max          0.3
_exptl_crystal_size_mid          0.2
_exptl_crystal_size_min          0.1
_refine_diff_density_max         0.453
_refine_diff_density_min         -0.633
_refine_diff_density_rms         0.108
_refine_ls_extinction_method     none
_refine_ls_goodness_of_fit_ref   0.812
_refine_ls_hydrogen_treatment    constr
_refine_ls_matrix_type           full
_refine_ls_number_parameters     181
_refine_ls_number_reflns         3233
_refine_ls_number_restraints     0
_refine_ls_restrained_S_all      0.812
_refine_ls_R_factor_all          0.1190
_refine_ls_R_factor_gt           0.0577
_refine_ls_shift/su_max          0.000
_refine_ls_shift/su_mean         0.000
_refine_ls_structure_factor_coef Fsqd
_refine_ls_weighting_details
'w=1/[\s^2^(Fo^2^)+(0.1000P)^2^+0.4944P] where P=(Fo^2^+2Fc^2^)/3'
_refine_ls_weighting_scheme      calc
_refine_ls_wR_factor_gt          0.1364
_refine_ls_wR_factor_ref         0.1751
_reflns_Friedel_coverage         0.000
_reflns_number_gt                1861
_reflns_number_total             3275
_reflns_threshold_expression     'I > 2\s(I)'
_cod_data_source_file            c8sc00143j3.cif
_cod_data_source_block           CH-574_a
_cod_depositor_comments
'Adding full bibliography for 1549020--1549023.cif.'
_cod_database_code               1549021
_shelx_shelxl_version_number     2014/7
_shelx_space_group_comment
;
The symmetry employed for this shelxl refinement is uniquely defined
by the following loop, which should always be used as a source of
symmetry information in preference to the above space-group names.
They are only intended as comments.
;
_shelx_res_file
;

    CH-574_a.res created by SHELXL-2014/7

TITL CH-574_a.res in P-1
CELL  0.71073   7.0887   7.2561  13.5691   85.459   77.898   70.374
ZERR    8.000   0.0075   0.0078   0.0148    0.025    0.025    0.030
LATT 1
SFAC C  H  N  O  S
UNIT 8  8  8  8  8
L.S. 10
ACTA
BOND $H
FMAP 2
PLAN 20
TEMP 23.000
WGHT    0.100000    0.494350
FVAR       0.94951
S001  5    0.494310    0.256061    0.170082    11.00000    0.02508    0.01779 =
         0.02382   -0.00005   -0.00437   -0.00666
O002  4    0.336983    0.225692    0.127549    11.00000    0.02487    0.03385 =
         0.03418   -0.00395   -0.01102   -0.00599
O003  4    0.548597    0.432078    0.141450    11.00000    0.03979    0.01768 =
         0.02730    0.00600   -0.00386   -0.01100
O004  4    0.261998    0.897717    0.402864    11.00000    0.04213    0.01565 =
         0.03964   -0.00081   -0.00220   -0.01421
N005  3    0.366187    0.592328    0.330605    11.00000    0.02812    0.01610 =
         0.02341   -0.00087   -0.00078   -0.01034
AFIX  43
H005  2    0.411140    0.624240    0.270068    11.00000   -1.20000
AFIX   0
C006  1    0.252909    0.268382    0.539412    11.00000    0.02446    0.01678 =
         0.02491   -0.00106   -0.00473   -0.00816
AFIX  43
H006  2    0.286888    0.139479    0.519798    11.00000   -1.20000
AFIX   0
C007  1    0.367573    0.403441    0.360272    11.00000    0.01698    0.01696 =
         0.02962    0.00206   -0.00427   -0.00957
C008  1    0.285227    0.411548    0.470091    11.00000    0.01990    0.02060 =
         0.02560    0.00031   -0.00725   -0.00973
C009  1    0.715919    0.050801    0.140405    11.00000    0.02478    0.02145 =
         0.01838   -0.00004   -0.00479   -0.00751
C00A  1    0.232543    0.606111    0.500261    11.00000    0.02006    0.01568 =
         0.03059    0.00027   -0.00814   -0.00653
C00B  1    0.113153    0.518676    0.668743    11.00000    0.02857    0.02640 =
         0.02130   -0.00258   -0.00387   -0.01020
AFIX  43
H00B  2    0.054286    0.552335    0.735611    11.00000   -1.20000
AFIX   0
C00C  1    0.424099    0.247162    0.300365    11.00000    0.02186    0.01523 =
         0.02779    0.00096   -0.00225   -0.00934
AFIX  43
H00C  2    0.425625    0.127217    0.330599    11.00000   -1.20000
AFIX   0
C00D  1    0.145468    0.662922    0.599369    11.00000    0.02289    0.02124 =
         0.02800   -0.00625   -0.00393   -0.00836
AFIX  43
H00D  2    0.110029    0.792147    0.618788    11.00000   -1.20000
AFIX   0
C00E  1    0.283670    0.723148    0.410276    11.00000    0.02040    0.02025 =
         0.03011   -0.00051   -0.00401   -0.00924
C00F  1    0.905392    0.064790    0.145842    11.00000    0.02904    0.02410 =
         0.02439    0.00227   -0.00724   -0.01300
AFIX  43
H00F  2    0.914856    0.180793    0.165472    11.00000   -1.20000
AFIX   0
C00G  1    0.699558   -0.122246    0.111086    11.00000    0.02207    0.02315 =
         0.02508   -0.00235   -0.00180   -0.01015
AFIX  43
H00G  2    0.572742   -0.129653    0.107455    11.00000   -1.20000
AFIX   0
C00H  1    0.168014    0.324041    0.639204    11.00000    0.02818    0.02729 =
         0.02644    0.00736   -0.00893   -0.01346
AFIX  43
H00H  2    0.147372    0.230186    0.687122    11.00000   -1.20000
AFIX   0
C00I  1    1.079832   -0.097807    0.121386    11.00000    0.02360    0.03707 =
         0.02997    0.00648   -0.00546   -0.01221
AFIX  43
H00I  2    1.207247   -0.091060    0.124328    11.00000   -1.20000
AFIX   0
C00J  1    1.062581   -0.270077    0.092582    11.00000    0.02711    0.02759 =
         0.02522    0.00205   -0.00275    0.00084
AFIX  43
H00J  2    1.179279   -0.378463    0.076502    11.00000   -1.20000
AFIX   0
C00K  1    0.874148   -0.282935    0.087437    11.00000    0.03685    0.01998 =
         0.02751   -0.00262   -0.00454   -0.00937
AFIX  43
H00K  2    0.864999   -0.399314    0.068130    11.00000   -1.20000
AFIX   0
HKLF 4

REM  CH-574_a.res in P-1
REM R1 =  0.0577 for    1861 Fo > 4sig(Fo)  and  0.1190 for all    3233 data
REM    181 parameters refined using      0 restraints

END

WGHT      0.0593      0.0000

REM Highest difference peak  0.453,  deepest hole -0.633,  1-sigma level  0.108
Q1    1   0.4130  0.2905  0.2570  11.00000  0.05    0.45
Q2    1   0.4993  0.3572  0.1785  11.00000  0.05    0.45
Q3    1   0.7124 -0.0330  0.1193  11.00000  0.05    0.45
Q4    1   0.5296  0.5939  0.3788  11.00000  0.05    0.42
Q5    1   0.2664  0.4960  0.4832  11.00000  0.05    0.40
Q6    1  -0.0625  0.4378  0.7608  11.00000  0.05    0.39
Q7    1   0.3831  0.1484  0.3152  11.00000  0.05    0.37
Q8    1   0.7943 -0.3264  0.0011  11.00000  0.05    0.37
Q9    1   0.5958  0.3476  0.3218  11.00000  0.05    0.37
Q10   1   0.2195  0.2428  0.7608  11.00000  0.05    0.36
Q11   1   1.0000 -0.5000  0.0000  10.50000  0.05    0.36
Q12   1   0.9804 -0.4834  0.0253  11.00000  0.05    0.35
Q13   1  -0.1281  0.2807  0.7640  11.00000  0.05    0.34
Q14   1   0.2737  0.9155  0.6334  11.00000  0.05    0.34
Q15   1   0.3039  0.1059  0.0914  11.00000  0.05    0.34
Q16   1   0.7267  0.0211  0.1996  11.00000  0.05    0.34
Q17   1   1.2561 -0.4377  0.1947  11.00000  0.05    0.33
Q18   1   1.2662 -0.4969  0.1322  11.00000  0.05    0.33
Q19   1   0.1904  0.9212  0.4985  11.00000  0.05    0.33
Q20   1   0.6924  0.2607  0.0590  11.00000  0.05    0.32
;
_shelx_res_checksum              9401
loop_
_space_group_symop_operation_xyz
'x, y, z'
'-x, -y, -z'
loop_
_atom_site_label
_atom_site_type_symbol
_atom_site_fract_x
_atom_site_fract_y
_atom_site_fract_z
_atom_site_U_iso_or_equiv
_atom_site_adp_type
_atom_site_occupancy
_atom_site_site_symmetry_order
_atom_site_calc_flag
_atom_site_refinement_flags_posn
_atom_site_refinement_flags_adp
S001 S 0.49431(12) 0.25606(11) 0.17008(6) 0.0224(2) Uani 1 1 d . .
O002 O 0.3370(3) 0.2257(3) 0.12755(17) 0.0309(6) Uani 1 1 d . .
O003 O 0.5486(4) 0.4321(3) 0.14145(17) 0.0286(6) Uani 1 1 d . .
O004 O 0.2620(4) 0.8977(3) 0.40286(18) 0.0321(6) Uani 1 1 d . .
N005 N 0.3662(4) 0.5923(4) 0.3306(2) 0.0224(6) Uani 1 1 d . .
H005 H 0.4111 0.6242 0.2701 0.027 Uiso 1 1 calc R U
C006 C 0.2529(5) 0.2684(4) 0.5394(2) 0.0216(7) Uani 1 1 d . .
H006 H 0.2869 0.1395 0.5198 0.026 Uiso 1 1 calc R U
C007 C 0.3676(5) 0.4034(4) 0.3603(2) 0.0203(7) Uani 1 1 d . .
C008 C 0.2852(5) 0.4115(4) 0.4701(2) 0.0208(7) Uani 1 1 d . .
C009 C 0.7159(5) 0.0508(4) 0.1404(2) 0.0215(7) Uani 1 1 d . .
C00A C 0.2325(5) 0.6061(4) 0.5003(2) 0.0215(7) Uani 1 1 d . .
C00B C 0.1132(5) 0.5187(5) 0.6687(2) 0.0251(7) Uani 1 1 d . .
H00B H 0.0543 0.5523 0.7356 0.030 Uiso 1 1 calc R U
C00C C 0.4241(5) 0.2472(4) 0.3004(2) 0.0213(7) Uani 1 1 d . .
H00C H 0.4256 0.1272 0.3306 0.026 Uiso 1 1 calc R U
C00D C 0.1455(5) 0.6629(5) 0.5994(2) 0.0236(7) Uani 1 1 d . .
H00D H 0.1100 0.7921 0.6188 0.028 Uiso 1 1 calc R U
C00E C 0.2837(5) 0.7231(4) 0.4103(2) 0.0230(7) Uani 1 1 d . .
C00F C 0.9054(5) 0.0648(5) 0.1458(2) 0.0246(7) Uani 1 1 d . .
H00F H 0.9149 0.1808 0.1655 0.029 Uiso 1 1 calc R U
C00G C 0.6996(5) -0.1222(4) 0.1111(2) 0.0230(7) Uani 1 1 d . .
H00G H 0.5727 -0.1297 0.1075 0.028 Uiso 1 1 calc R U
C00H C 0.1680(5) 0.3240(5) 0.6392(2) 0.0261(7) Uani 1 1 d . .
H00H H 0.1474 0.2302 0.6871 0.031 Uiso 1 1 calc R U
C00I C 1.0798(5) -0.0978(5) 0.1214(2) 0.0300(8) Uani 1 1 d . .
H00I H 1.2072 -0.0911 0.1243 0.036 Uiso 1 1 calc R U
C00J C 1.0626(5) -0.2701(5) 0.0926(2) 0.0297(8) Uani 1 1 d . .
H00J H 1.1793 -0.3785 0.0765 0.036 Uiso 1 1 calc R U
C00K C 0.8741(5) -0.2829(5) 0.0874(2) 0.0282(8) Uani 1 1 d . .
H00K H 0.8650 -0.3993 0.0681 0.034 Uiso 1 1 calc R U
loop_
_atom_site_aniso_label
_atom_site_aniso_U_11
_atom_site_aniso_U_22
_atom_site_aniso_U_33
_atom_site_aniso_U_23
_atom_site_aniso_U_13
_atom_site_aniso_U_12
S001 0.0251(5) 0.0178(4) 0.0238(4) 0.0000(3) -0.0044(3) -0.0067(3)
O002 0.0249(13) 0.0339(13) 0.0342(14) -0.0039(11) -0.0110(10) -0.0060(11)
O003 0.0398(15) 0.0177(11) 0.0273(12) 0.0060(9) -0.0039(10) -0.0110(10)
O004 0.0421(15) 0.0156(11) 0.0396(14) -0.0008(10) -0.0022(11) -0.0142(11)
N005 0.0281(15) 0.0161(13) 0.0234(13) -0.0009(10) -0.0008(11) -0.0103(11)
C006 0.0245(17) 0.0168(15) 0.0249(16) -0.0011(12) -0.0047(13) -0.0082(13)
C007 0.0170(15) 0.0170(15) 0.0296(17) 0.0021(12) -0.0043(13) -0.0096(12)
C008 0.0199(16) 0.0206(15) 0.0256(16) 0.0003(13) -0.0073(13) -0.0097(13)
C009 0.0248(17) 0.0214(16) 0.0184(15) 0.0000(12) -0.0048(13) -0.0075(13)
C00A 0.0201(16) 0.0157(14) 0.0306(17) 0.0003(13) -0.0081(13) -0.0065(13)
C00B 0.0286(18) 0.0264(17) 0.0213(16) -0.0026(13) -0.0039(13) -0.0102(14)
C00C 0.0219(16) 0.0152(15) 0.0278(17) 0.0010(12) -0.0023(13) -0.0093(13)
C00D 0.0229(17) 0.0212(16) 0.0280(17) -0.0062(13) -0.0039(14) -0.0084(13)
C00E 0.0204(16) 0.0202(16) 0.0301(17) -0.0005(13) -0.0040(13) -0.0092(13)
C00F 0.0290(18) 0.0241(16) 0.0244(16) 0.0023(13) -0.0072(14) -0.0130(14)
C00G 0.0221(17) 0.0231(16) 0.0251(16) -0.0023(13) -0.0018(13) -0.0101(14)
C00H 0.0282(18) 0.0273(17) 0.0264(17) 0.0074(14) -0.0089(14) -0.0135(15)
C00I 0.0236(18) 0.037(2) 0.0300(18) 0.0065(15) -0.0055(14) -0.0122(16)
C00J 0.0271(19) 0.0276(18) 0.0252(17) 0.0020(14) -0.0027(14) 0.0008(15)
C00K 0.037(2) 0.0200(16) 0.0275(17) -0.0026(13) -0.0045(15) -0.0094(15)
loop_
_atom_type_symbol
_atom_type_description
_atom_type_scat_dispersion_real
_atom_type_scat_dispersion_imag
_atom_type_scat_source
C C 0.0033 0.0016 'International Tables Vol C Tables 4.2.6.8 and 6.1.1.4'
H H 0.0000 0.0000 'International Tables Vol C Tables 4.2.6.8 and 6.1.1.4'
N N 0.0061 0.0033 'International Tables Vol C Tables 4.2.6.8 and 6.1.1.4'
O O 0.0106 0.0060 'International Tables Vol C Tables 4.2.6.8 and 6.1.1.4'
S S 0.1246 0.1234 'International Tables Vol C Tables 4.2.6.8 and 6.1.1.4'
loop_
_geom_angle_atom_site_label_1
_geom_angle_atom_site_label_2
_geom_angle_atom_site_label_3
_geom_angle
O002 S001 O003 118.46(15)
O002 S001 C00C 107.94(16)
O003 S001 C00C 108.91(14)
O002 S001 C009 107.64(15)
O003 S001 C009 108.53(17)
C00C S001 C009 104.48(15)
C00E N005 C007 112.2(3)
C00E N005 H005 123.9
C007 N005 H005 123.9
C008 C006 C00H 117.9(3)
C008 C006 H006 121.0
C00H C006 H006 121.0
C00C C007 N005 126.9(3)
C00C C007 C008 126.8(3)
N005 C007 C008 106.2(2)
C006 C008 C00A 120.7(3)
C006 C008 C007 131.7(3)
C00A C008 C007 107.6(3)
C00G C009 C00F 121.1(3)
C00G C009 S001 119.5(3)
C00F C009 S001 119.4(2)
C00D C00A C008 121.7(3)
C00D C00A C00E 130.2(3)
C008 C00A C00E 108.1(3)
C00D C00B C00H 121.0(3)
C00D C00B H00B 119.5
C00H C00B H00B 119.5
C007 C00C S001 123.9(3)
C007 C00C H00C 118.0
S001 C00C H00C 118.0
C00A C00D C00B 117.5(3)
C00A C00D H00D 121.3
C00B C00D H00D 121.3
O004 C00E N005 124.5(3)
O004 C00E C00A 129.6(3)
N005 C00E C00A 105.9(3)
C00I C00F C009 118.9(3)
C00I C00F H00F 120.5
C009 C00F H00F 120.5
C00K C00G C009 119.3(3)
C00K C00G H00G 120.4
C009 C00G H00G 120.4
C006 C00H C00B 121.3(3)
C006 C00H H00H 119.4
C00B C00H H00H 119.4
C00J C00I C00F 119.7(3)
C00J C00I H00I 120.1
C00F C00I H00I 120.1
C00K C00J C00I 121.0(3)
C00K C00J H00J 119.5
C00I C00J H00J 119.5
C00G C00K C00J 119.9(3)
C00G C00K H00K 120.0
C00J C00K H00K 120.0
loop_
_geom_bond_atom_site_label_1
_geom_bond_atom_site_label_2
_geom_bond_distance
S001 O002 1.442(3)
S001 O003 1.456(3)
S001 C00C 1.735(4)
S001 C009 1.762(3)
O004 C00E 1.222(4)
N005 C00E 1.392(4)
N005 C007 1.395(4)
N005 H005 0.8600
C006 C008 1.390(5)
C006 C00H 1.393(4)
C006 H006 0.9300
C007 C00C 1.346(4)
C007 C008 1.480(5)
C008 C00A 1.405(4)
C009 C00G 1.395(4)
C009 C00F 1.398(4)
C00A C00D 1.389(4)
C00A C00E 1.483(5)
C00B C00D 1.396(5)
C00B C00H 1.401(4)
C00B H00B 0.9300
C00C H00C 0.9300
C00D H00D 0.9300
C00F C00I 1.393(5)
C00F H00F 0.9300
C00G C00K 1.385(5)
C00G H00G 0.9300
C00H H00H 0.9300
C00I C00J 1.389(5)
C00I H00I 0.9300
C00J C00K 1.386(5)
C00J H00J 0.9300
C00K H00K 0.9300
