#------------------------------------------------------------------------------
#$Date: 2019-11-17 07:37:53 +0200 (Sun, 17 Nov 2019) $
#$Revision: 228698 $
#$URL: file:///home/coder/svn-repositories/cod/cif/1/54/98/1549885.cif $
#------------------------------------------------------------------------------
#
# This file is available in the Crystallography Open Database (COD),
# http://www.crystallography.net/
#
# All data on this site have been placed in the public domain by the
# contributors.
#
data_1549885
loop_
_publ_author_name
'Oldknow, Samuel'
'Martir, Diego Rota'
'Pritchard, Victoria E.'
'Blitz, Mark A.'
'Fishwick, Colin W. G.'
'Zysman-Colman, Eli'
'Hardie, Michaele J.'
_publ_section_title
;
 Structure-switching M<sub>3</sub>L<sub>2</sub> Ir(iii) coordination cages
 with photo-isomerising azo-aromatic linkers.
;
_journal_issue                   42
_journal_name_full               'Chemical science'
_journal_page_first              8150
_journal_page_last               8159
_journal_paper_doi               10.1039/c8sc03499k
_journal_volume                  9
_journal_year                    2018
_chemical_formula_sum            'C12 H16 N3 Na O6'
_chemical_formula_weight         321.27
_chemical_name_systematic
;
octaaquodibis(4-[2-(4-pyridyl)diazenyl]-benzoate)sodium(I) 
;
_space_group_crystal_system      triclinic
_space_group_IT_number           2
_space_group_name_Hall           '-P 1'
_space_group_name_H-M_alt        'P -1'
_symmetry_space_group_name_Hall  '-P 1'
_symmetry_space_group_name_H-M   'P -1'
_atom_sites_solution_hydrogens   difmap
_audit_creation_method           SHELXL-2014/7
_audit_update_record
;
2018-07-30 deposited with the CCDC.
2018-08-29 downloaded from the CCDC.
;
_cell_angle_alpha                88.175(4)
_cell_angle_beta                 83.629(5)
_cell_angle_gamma                69.716(6)
_cell_formula_units_Z            2
_cell_length_a                   6.1765(4)
_cell_length_b                   7.0883(4)
_cell_length_c                   17.5927(6)
_cell_measurement_reflns_used    5957
_cell_measurement_temperature    120(2)
_cell_measurement_theta_max      73.7970
_cell_measurement_theta_min      5.1010
_cell_volume                     717.98(7)
_computing_cell_refinement
;
CrysAlisPro, Agilent Technologies,
Version 1.171.37.33 (release 27-03-2014 CrysAlis171 .NET)
(compiled Mar 27 2014,17:12:48)
;
_computing_data_collection
;
CrysAlisPro, Agilent Technologies,
Version 1.171.37.33 (release 27-03-2014 CrysAlis171 .NET)
(compiled Mar 27 2014,17:12:48)
;
_computing_data_reduction
;
CrysAlisPro, Agilent Technologies,
Version 1.171.37.33 (release 27-03-2014 CrysAlis171 .NET)
(compiled Mar 27 2014,17:12:48)
;
_computing_structure_refinement  'SHELXL-2014/7 (Sheldrick, 2014)'
_diffrn_ambient_temperature      120(2)
_diffrn_measured_fraction_theta_full 0.965
_diffrn_measured_fraction_theta_max 0.944
_diffrn_measurement_device_type  'Agilent Supernova'
_diffrn_measurement_method       '\w scans'
_diffrn_radiation_type           CuK\a
_diffrn_radiation_wavelength     1.54184
_diffrn_reflns_av_R_equivalents  0.0520
_diffrn_reflns_av_unetI/netI     0.0336
_diffrn_reflns_Laue_measured_fraction_full 0.965
_diffrn_reflns_Laue_measured_fraction_max 0.944
_diffrn_reflns_limit_h_max       7
_diffrn_reflns_limit_h_min       -7
_diffrn_reflns_limit_k_max       8
_diffrn_reflns_limit_k_min       -8
_diffrn_reflns_limit_l_max       20
_diffrn_reflns_limit_l_min       -19
_diffrn_reflns_number            13098
_diffrn_reflns_point_group_measured_fraction_full 0.965
_diffrn_reflns_point_group_measured_fraction_max 0.944
_diffrn_reflns_theta_full        67.684
_diffrn_reflns_theta_max         73.971
_diffrn_reflns_theta_min         5.059
_diffrn_source                   'fine-focus sealed tube'
_exptl_absorpt_coefficient_mu    1.274
_exptl_absorpt_correction_T_max  0.963
_exptl_absorpt_correction_T_min  0.855
_exptl_absorpt_correction_type   gaussian
_exptl_absorpt_process_details
;
CrysAlisPro, Agilent Technologies,
Version 1.171.37.33 (release 27-03-2014 CrysAlis171 .NET)
(compiled Mar 27 2014,17:12:48)
Numerical absorption correction based on gaussian integration over
            a multifaceted crystal model
Empirical absorption correction using spherical harmonics,
 implemented in SCALE3 ABSPACK scaling algorithm.
;
_exptl_crystal_colour            yellow
_exptl_crystal_density_diffrn    1.486
_exptl_crystal_description       needle
_exptl_crystal_F_000             336
_exptl_crystal_size_max          0.190
_exptl_crystal_size_mid          0.050
_exptl_crystal_size_min          0.040
_refine_diff_density_max         0.249
_refine_diff_density_min         -0.212
_refine_diff_density_rms         0.052
_refine_ls_extinction_method     none
_refine_ls_goodness_of_fit_ref   1.056
_refine_ls_hydrogen_treatment    refall
_refine_ls_matrix_type           full
_refine_ls_number_parameters     263
_refine_ls_number_reflns         2761
_refine_ls_number_restraints     0
_refine_ls_restrained_S_all      1.056
_refine_ls_R_factor_all          0.0420
_refine_ls_R_factor_gt           0.0342
_refine_ls_shift/su_max          0.000
_refine_ls_shift/su_mean         0.000
_refine_ls_structure_factor_coef Fsqd
_refine_ls_weighting_details
'w=1/[\s^2^(Fo^2^)+(0.0570P)^2^+0.0305P] where P=(Fo^2^+2Fc^2^)/3'
_refine_ls_weighting_scheme      calc
_refine_ls_wR_factor_gt          0.0911
_refine_ls_wR_factor_ref         0.0973
_reflns_Friedel_coverage         0.000
_reflns_number_gt                2329
_reflns_number_total             2761
_reflns_threshold_expression     'I > 2\s(I)'
_cod_data_source_file            c8sc03499k2.cif
_cod_data_source_block           C_CCDC1
_cod_depositor_comments
'Adding full bibliography for 1549883--1549886.cif.'
_cod_database_code               1549885
_shelx_shelxl_version_number     2014/7
_shelx_space_group_comment
;
The symmetry employed for this shelxl refinement is uniquely defined
by the following loop, which should always be used as a source of
symmetry information in preference to the above space-group names.
They are only intended as comments.
;
_shelx_estimated_absorpt_t_min   0.794
_shelx_estimated_absorpt_t_max   0.951
_shelx_res_file
;

    C:\Users\chmmjh\Desktop\SAM_O\PRECUR~1\S014AP.res created by SHELXL-2014/7

TITL S01-4AP in P1
CELL 1.54184 6.1765 7.0883 17.5927 88.175 83.629 69.716
ZERR 2.0000 0.0004 0.0004 0.0006 0.004 0.005 0.006
LATT 1
SFAC C H N NA O
UNIT 24 32 6 2 12
MERG 2
FMAP 2
GRID
PLAN 20
TEMP -153
SIZE 0.19 0.05 0.04
L.S. 20
ACTA
WGHT    0.057000    0.030500
FVAR       7.82101
NA2   4    1.072606    0.118314    0.076413    11.00000    0.01530    0.01813 =
         0.01413    0.00074    0.00007   -0.00390
O4    5    1.324407   -0.173159    0.122213    11.00000    0.01570    0.02733 =
         0.03543    0.01161   -0.00107   -0.00359
O3    5    0.773090    0.430115    0.051684    11.00000    0.01843    0.01976 =
         0.01726   -0.00001   -0.00166   -0.00470
O6    5    0.777366   -0.021508    0.052559    11.00000    0.01755    0.02016 =
         0.01619    0.00227    0.00163   -0.00531
O5    5    1.331544    0.325158    0.076514    11.00000    0.01853    0.02097 =
         0.01385   -0.00026   -0.00059   -0.00343
O1    5   -0.129157    0.432614    0.798463    11.00000    0.01616    0.02636 =
         0.01500   -0.00088    0.00293   -0.00557
O2    5    0.228056    0.308678    0.835424    11.00000    0.01954    0.02367 =
         0.01269    0.00199   -0.00120   -0.00640
N3    3    0.437921    0.250267    0.468604    11.00000    0.01934    0.02095 =
         0.01422   -0.00037    0.00114   -0.00557
N2    3    0.648597    0.227814    0.451736    11.00000    0.01889    0.02207 =
         0.01273   -0.00043    0.00149   -0.00534
N1    3    0.892071    0.169599    0.216586    11.00000    0.01935    0.02112 =
         0.01420   -0.00022    0.00114   -0.00365
C6    1    0.364888    0.270758    0.548659    11.00000    0.01936    0.01687 =
         0.01154    0.00032    0.00168   -0.00508
C7    1    0.514539    0.250855    0.604820    11.00000    0.01573    0.02340 =
         0.01673    0.00018    0.00146   -0.00540
C10   1    0.040798    0.341602    0.645857    11.00000    0.01530    0.02145 =
         0.01514   -0.00031    0.00141   -0.00528
C9    1    0.188042    0.323658    0.702311    11.00000    0.01729    0.01355 =
         0.01308    0.00175    0.00057   -0.00374
C3    1    0.719150    0.209164    0.371434    11.00000    0.01882    0.01517 =
         0.01372    0.00014    0.00142   -0.00439
C12   1    0.087917    0.358243    0.784734    11.00000    0.01681    0.01556 =
         0.01420    0.00054    0.00147   -0.00603
C4    1    0.570370    0.237836    0.315025    11.00000    0.01766    0.02359 =
         0.01647   -0.00066    0.00078   -0.00448
C11   1    0.127891    0.313045    0.569269    11.00000    0.01838    0.02305 =
         0.01463   -0.00003   -0.00215   -0.00605
C8    1    0.426744    0.276366    0.680981    11.00000    0.01692    0.02162 =
         0.01382    0.00171   -0.00214   -0.00477
C2    1    0.956175    0.161903    0.349279    11.00000    0.01857    0.02314 =
         0.01434    0.00061   -0.00093   -0.00575
C1    1    1.032200    0.142374    0.271761    11.00000    0.01679    0.02323 =
         0.01615   -0.00095    0.00262   -0.00505
C5    1    0.664033    0.217239    0.239439    11.00000    0.02124    0.02586 =
         0.01510   -0.00038   -0.00164   -0.00518
H7    2    0.679202    0.218986    0.591316    11.00000    0.02050
H8    2    0.526148    0.266423    0.719090    11.00000    0.02318
H4    2    0.406295    0.269172    0.328876    11.00000    0.03048
H10   2   -0.120549    0.370889    0.659891    11.00000    0.02233
H11   2    0.032095    0.320641    0.530412    11.00000    0.02011
H2    2    1.061329    0.146837    0.385022    11.00000    0.02762
H5    2    0.558571    0.238334    0.198685    11.00000    0.02801
H1    2    1.198768    0.108816    0.255381    11.00000    0.02307
H4A   2    1.453712   -0.203437    0.139507    11.00000    0.03333
H3A   2    0.650363    0.414281    0.063109    11.00000    0.03606
H3B   2    0.785112    0.502739    0.084294    11.00000    0.02674
H5A   2    1.286689    0.402232    0.036570    11.00000    0.04411
H5B   2    1.261487    0.410404    0.115525    11.00000    0.03433
H4B   2    1.253042   -0.245061    0.147851    11.00000    0.03384
H6A   2    0.784424   -0.114798    0.084389    11.00000    0.03280
H6B   2    0.646521    0.062801    0.059623    11.00000    0.03788
HKLF 4

REM  S01-4AP in P1
REM R1 =  0.0342 for    2329 Fo > 4sig(Fo)  and  0.0420 for all    2761 data
REM    263 parameters refined using      0 restraints

END

WGHT      0.0574      0.0309

REM Highest difference peak  0.249,  deepest hole -0.212,  1-sigma level  0.052
Q1    1   0.1288  0.3579  0.6747  11.00000  0.05    0.25
Q2    1   0.8274  0.1694  0.3610  11.00000  0.05    0.23
Q3    1   0.2972  0.3088  0.6929  11.00000  0.05    0.20
Q4    1   0.1447  0.3224  0.7413  11.00000  0.05    0.20
Q5    1   0.4316  0.2292  0.5708  11.00000  0.05    0.19
Q6    1   0.7746  0.1951  0.4951  11.00000  0.05    0.19
Q7    1   0.6265  0.2763  0.2773  11.00000  0.05    0.18
Q8    1   0.9946  0.0986  0.3087  11.00000  0.05    0.18
Q9    1   0.6573  0.2607  0.3473  11.00000  0.05    0.18
Q10   1   0.0377  0.3298  0.8602  11.00000  0.05    0.18
Q11   1   0.9237  0.1435  0.2396  11.00000  0.05    0.17
Q12   1   0.3702  0.2370  0.8177  11.00000  0.05    0.17
Q13   1   0.2095  0.3198  0.5592  11.00000  0.05    0.17
Q14   1  -0.1911  0.5224  0.8271  11.00000  0.05    0.16
Q15   1   0.6120  0.1964  0.2905  11.00000  0.05    0.16
Q16   1   1.0435  0.6350  0.0702  11.00000  0.05    0.16
Q17   1   0.6772  0.2114  0.4699  11.00000  0.05    0.15
Q18   1   0.5638  0.3140  0.1916  11.00000  0.05    0.15
Q19   1   0.2882  0.4237  0.3812  11.00000  0.05    0.15
Q20   1   0.4687  0.2197  0.6284  11.00000  0.05    0.14
;
_shelx_res_checksum              30154
loop_
_space_group_symop_operation_xyz
'x, y, z'
'-x, -y, -z'
loop_
_atom_site_label
_atom_site_type_symbol
_atom_site_fract_x
_atom_site_fract_y
_atom_site_fract_z
_atom_site_U_iso_or_equiv
_atom_site_adp_type
_atom_site_occupancy
_atom_site_site_symmetry_order
_atom_site_calc_flag
Na2 Na 1.07261(8) 0.11831(7) 0.07641(3) 0.01649(16) Uani 1 1 d
O4 O 1.32441(19) -0.17316(16) 0.12221(7) 0.0276(3) Uani 1 1 d
O3 O 0.77309(18) 0.43012(15) 0.05168(6) 0.0190(2) Uani 1 1 d
O6 O 0.77737(17) -0.02151(16) 0.05256(6) 0.0186(2) Uani 1 1 d
O5 O 1.33154(17) 0.32516(15) 0.07651(6) 0.0188(2) Uani 1 1 d
O1 O -0.12916(16) 0.43261(15) 0.79846(6) 0.0200(2) Uani 1 1 d
O2 O 0.22806(16) 0.30868(14) 0.83542(6) 0.0190(2) Uani 1 1 d
N3 N 0.4379(2) 0.25027(17) 0.46860(7) 0.0188(3) Uani 1 1 d
N2 N 0.6486(2) 0.22781(17) 0.45174(7) 0.0186(3) Uani 1 1 d
N1 N 0.8921(2) 0.16960(17) 0.21659(7) 0.0193(3) Uani 1 1 d
C6 C 0.3649(2) 0.27076(19) 0.54866(8) 0.0165(3) Uani 1 1 d
C7 C 0.5145(2) 0.2509(2) 0.60482(8) 0.0192(3) Uani 1 1 d
C10 C 0.0408(2) 0.3416(2) 0.64586(8) 0.0178(3) Uani 1 1 d
C9 C 0.1880(2) 0.32366(18) 0.70231(8) 0.0153(3) Uani 1 1 d
C3 C 0.7192(2) 0.20916(18) 0.37143(8) 0.0165(3) Uani 1 1 d
C12 C 0.0879(2) 0.35824(19) 0.78473(8) 0.0157(3) Uani 1 1 d
C4 C 0.5704(2) 0.2378(2) 0.31503(9) 0.0201(3) Uani 1 1 d
C11 C 0.1279(2) 0.3130(2) 0.56927(8) 0.0189(3) Uani 1 1 d
C8 C 0.4267(2) 0.2764(2) 0.68098(8) 0.0179(3) Uani 1 1 d
C2 C 0.9562(2) 0.1619(2) 0.34928(8) 0.0191(3) Uani 1 1 d
C1 C 1.0322(2) 0.1424(2) 0.27176(8) 0.0195(3) Uani 1 1 d
C5 C 0.6640(2) 0.2172(2) 0.23944(9) 0.0215(3) Uani 1 1 d
H7 H 0.679(3) 0.219(3) 0.5913(11) 0.020(4) Uiso 1 1 d
H8 H 0.526(3) 0.266(3) 0.7191(11) 0.023(4) Uiso 1 1 d
H4 H 0.406(4) 0.269(3) 0.3289(12) 0.030(5) Uiso 1 1 d
H10 H -0.121(3) 0.371(3) 0.6599(11) 0.022(4) Uiso 1 1 d
H11 H 0.032(3) 0.321(3) 0.5304(11) 0.020(4) Uiso 1 1 d
H2 H 1.061(3) 0.147(3) 0.3850(12) 0.028(5) Uiso 1 1 d
H5 H 0.559(3) 0.238(3) 0.1987(12) 0.028(5) Uiso 1 1 d
H1 H 1.199(3) 0.109(3) 0.2554(11) 0.023(4) Uiso 1 1 d
H4A H 1.454(4) -0.203(3) 0.1395(13) 0.033(5) Uiso 1 1 d
H3A H 0.650(4) 0.414(3) 0.0631(14) 0.036(6) Uiso 1 1 d
H3B H 0.785(3) 0.503(3) 0.0843(12) 0.027(5) Uiso 1 1 d
H5A H 1.287(4) 0.402(4) 0.0366(15) 0.044(6) Uiso 1 1 d
H5B H 1.261(4) 0.410(3) 0.1155(14) 0.034(5) Uiso 1 1 d
H4B H 1.253(4) -0.245(3) 0.1479(13) 0.034(5) Uiso 1 1 d
H6A H 0.784(3) -0.115(3) 0.0844(13) 0.033(5) Uiso 1 1 d
H6B H 0.647(4) 0.063(4) 0.0596(13) 0.038(6) Uiso 1 1 d
loop_
_atom_site_aniso_label
_atom_site_aniso_U_11
_atom_site_aniso_U_22
_atom_site_aniso_U_33
_atom_site_aniso_U_23
_atom_site_aniso_U_13
_atom_site_aniso_U_12
Na2 0.0153(3) 0.0181(3) 0.0141(3) 0.0007(2) 0.00007(19) -0.0039(2)
O4 0.0157(5) 0.0273(5) 0.0354(7) 0.0116(5) -0.0011(4) -0.0036(4)
O3 0.0184(5) 0.0198(5) 0.0173(6) 0.0000(4) -0.0017(4) -0.0047(4)
O6 0.0176(5) 0.0202(5) 0.0162(6) 0.0023(4) 0.0016(4) -0.0053(4)
O5 0.0185(5) 0.0210(4) 0.0138(5) -0.0003(4) -0.0006(4) -0.0034(4)
O1 0.0162(5) 0.0264(5) 0.0150(5) -0.0009(4) 0.0029(4) -0.0056(4)
O2 0.0195(5) 0.0237(5) 0.0127(5) 0.0020(4) -0.0012(4) -0.0064(4)
N3 0.0193(6) 0.0210(5) 0.0142(7) -0.0004(5) 0.0011(4) -0.0056(4)
N2 0.0189(5) 0.0221(5) 0.0127(7) -0.0004(5) 0.0015(4) -0.0053(4)
N1 0.0194(6) 0.0211(5) 0.0142(6) -0.0002(4) 0.0011(4) -0.0036(4)
C6 0.0194(6) 0.0169(6) 0.0115(7) 0.0003(5) 0.0017(5) -0.0051(5)
C7 0.0157(6) 0.0234(6) 0.0167(8) 0.0002(5) 0.0015(5) -0.0054(5)
C10 0.0153(6) 0.0215(6) 0.0151(8) -0.0003(5) 0.0014(5) -0.0053(5)
C9 0.0173(6) 0.0135(5) 0.0131(7) 0.0018(5) 0.0006(5) -0.0037(5)
C3 0.0188(6) 0.0152(6) 0.0137(8) 0.0001(5) 0.0014(5) -0.0044(5)
C12 0.0168(6) 0.0156(6) 0.0142(7) 0.0005(5) 0.0015(5) -0.0060(5)
C4 0.0177(7) 0.0236(7) 0.0165(8) -0.0007(5) 0.0008(5) -0.0045(5)
C11 0.0184(6) 0.0231(6) 0.0146(8) 0.0000(5) -0.0021(5) -0.0061(5)
C8 0.0169(6) 0.0216(6) 0.0138(7) 0.0017(5) -0.0021(5) -0.0048(5)
C2 0.0186(7) 0.0231(6) 0.0143(8) 0.0006(5) -0.0009(5) -0.0058(5)
C1 0.0168(6) 0.0232(6) 0.0161(8) -0.0010(5) 0.0026(5) -0.0051(5)
C5 0.0212(7) 0.0259(7) 0.0151(8) -0.0004(6) -0.0016(5) -0.0052(5)
loop_
_atom_type_symbol
_atom_type_description
_atom_type_scat_dispersion_real
_atom_type_scat_dispersion_imag
_atom_type_scat_source
C C 0.0181 0.0091 'International Tables Vol C Tables 4.2.6.8 and 6.1.1.4'
H H 0.0000 0.0000 'International Tables Vol C Tables 4.2.6.8 and 6.1.1.4'
N N 0.0311 0.0180 'International Tables Vol C Tables 4.2.6.8 and 6.1.1.4'
Na Na 0.1353 0.1239 'International Tables Vol C Tables 4.2.6.8 and 6.1.1.4'
O O 0.0492 0.0322 'International Tables Vol C Tables 4.2.6.8 and 6.1.1.4'
loop_
_geom_angle_atom_site_label_1
_geom_angle_atom_site_label_2
_geom_angle_atom_site_label_3
_geom_angle
_geom_angle_site_symmetry_1
_geom_angle_site_symmetry_3
O4 Na2 O6 91.89(4) . 2_755
O4 Na2 O3 169.54(5) . .
O6 Na2 O3 98.27(4) 2_755 .
O4 Na2 O6 96.03(4) . .
O6 Na2 O6 84.51(4) 2_755 .
O3 Na2 O6 82.52(4) . .
O4 Na2 O5 97.10(4) . .
O6 Na2 O5 89.48(4) 2_755 .
O3 Na2 O5 85.56(4) . .
O6 Na2 O5 165.73(4) . .
O4 Na2 N1 83.50(4) . .
O6 Na2 N1 170.41(4) 2_755 .
O3 Na2 N1 86.09(4) . .
O6 Na2 N1 87.61(4) . .
O5 Na2 N1 99.41(4) . .
O4 Na2 Na2 95.38(4) . 2_755
O6 Na2 Na2 42.85(3) 2_755 2_755
O3 Na2 Na2 90.40(3) . 2_755
O6 Na2 Na2 41.66(3) . 2_755
O5 Na2 Na2 131.00(4) . 2_755
N1 Na2 Na2 129.05(4) . 2_755
Na2 O6 Na2 95.49(4) 2_755 .
N2 N3 C6 113.95(12) . .
N3 N2 C3 113.43(12) . .
C1 N1 C5 116.51(13) . .
C1 N1 Na2 118.75(9) . .
C5 N1 Na2 124.71(10) . .
C11 C6 C7 120.31(13) . .
C11 C6 N3 115.65(12) . .
C7 C6 N3 124.03(12) . .
C8 C7 C6 119.79(12) . .
C11 C10 C9 120.73(12) . .
C10 C9 C8 119.25(13) . .
C10 C9 C12 119.46(12) . .
C8 C9 C12 121.28(12) . .
C4 C3 C2 118.65(13) . .
C4 C3 N2 125.02(12) . .
C2 C3 N2 116.31(12) . .
O1 C12 O2 124.64(13) . .
O1 C12 C9 117.58(12) . .
O2 C12 C9 117.78(11) . .
C5 C4 C3 118.43(13) . .
C10 C11 C6 119.45(13) . .
C7 C8 C9 120.44(13) . .
C1 C2 C3 118.19(13) . .
N1 C1 C2 124.11(13) . .
N1 C5 C4 124.09(13) . .
loop_
_geom_bond_atom_site_label_1
_geom_bond_atom_site_label_2
_geom_bond_distance
_geom_bond_site_symmetry_2
Na2 O4 2.2980(12) .
Na2 O6 2.3810(11) 2_755
Na2 O3 2.4039(11) .
Na2 O6 2.4358(11) .
Na2 O5 2.5168(11) .
Na2 N1 2.5734(13) .
Na2 Na2 3.5653(10) 2_755
O6 Na2 2.3810(11) 2_755
O1 C12 1.2570(17) .
O2 C12 1.2682(17) .
N3 N2 1.2571(17) .
N3 C6 1.4264(19) .
N2 C3 1.4278(19) .
N1 C1 1.3369(19) .
N1 C5 1.3464(19) .
C6 C11 1.3961(19) .
C6 C7 1.3978(19) .
C7 C8 1.381(2) .
C10 C11 1.388(2) .
C10 C9 1.3935(19) .
C9 C8 1.4034(19) .
C9 C12 1.505(2) .
C3 C4 1.389(2) .
C3 C2 1.3961(19) .
C4 C5 1.381(2) .
C2 C1 1.387(2) .
