#------------------------------------------------------------------------------
#$Date: 2019-11-17 09:07:44 +0200 (Sun, 17 Nov 2019) $
#$Revision: 229016 $
#$URL: file:///home/coder/svn-repositories/cod/cif/1/54/91/1549188.cif $
#------------------------------------------------------------------------------
#
# This file is available in the Crystallography Open Database (COD),
# http://www.crystallography.net/
#
# All data on this site have been placed in the public domain by the
# contributors.
#
data_1549188
loop_
_publ_author_name
'Ye, Jin'
'Barrio, Maria'
'C\'eolin, Ren\'e'
'Qureshi, Navid'
'Negrier, Philippe'
'Rietveld, Ivo B.'
'Tamarit, Josep Llu\'is'
_publ_section_title
;
 An order--disorder phase transition in the van der Waals based solvate of
 C60 and CClBrH2
;
_journal_issue                   19
_journal_name_full               CrystEngComm
_journal_page_first              2729
_journal_paper_doi               10.1039/C8CE00271A
_journal_volume                  20
_journal_year                    2018
_chemical_formula_moiety         'C60, 2(C H2 Br Cl)'
_chemical_formula_sum            'C62 H4 Br2 Cl2'
_chemical_formula_weight         979.35
_space_group_IT_number           191
_space_group_name_Hall           '-P 6 2'
_space_group_name_H-M_alt        'P 6/m m m'
_symmetry_cell_setting           hexagonal
_symmetry_space_group_name_Hall  '-P 6 2'
_symmetry_space_group_name_H-M   'P 6/m m m'
_cell_angle_alpha                90.0000
_cell_angle_beta                 90.0000
_cell_angle_gamma                120.000
_cell_formula_units_Z            1
_cell_length_a                   10.056(3)
_cell_length_b                   10.056(3)
_cell_length_c                   10.070(2)
_cell_measurement_temperature    333
_cell_volume                     881.9(4)
_computing_structure_refinement  FULLPROF
_diffrn_ambient_temperature      333
_diffrn_measurement_device_type  'Inel CPS120'
_diffrn_radiation_monochromator  graphite
_diffrn_radiation_source         'fine-focus sealed tube'
_diffrn_radiation_type           CuK\a~1~
_diffrn_radiation_wavelength     1.540562
_exptl_crystal_colour            black
_exptl_crystal_density_diffrn    1.845
_exptl_crystal_description       'Powder Sample'
_pd_meas_2theta_range_inc        0.029000
_pd_meas_2theta_range_max        111.88400
_pd_meas_2theta_range_min        0.29200
_pd_meas_number_of_points        3849
_pd_proc_2theta_range_inc        0.029000
_pd_proc_2theta_range_max        111.8414
_pd_proc_2theta_range_min        0.2494
_pd_proc_ls_prof_R_factor        3.0817
_pd_proc_ls_prof_wR_expected     3.0613
_pd_proc_ls_prof_wR_factor       4.0040
_pd_proc_wavelength              1.540600
_refine_ls_number_parameters     35
_refine_ls_number_reflns         307
_refine_ls_number_restraints     0
_refine_ls_R_I_factor            7.2171
_cod_data_source_file            c8ce00271a1.cif
_cod_data_source_block           Rietveld_Fullerene:2CH2ClBr
_cod_depositor_comments
;
The following automatic conversions were performed:

'_symmetry_cell_setting' value 'Hexagonal' changed to 'hexagonal'
according to
/home/data/users/saulius/crontab/automatic-downloads/rss-feeds/RSC/lib/dictionaries/cif_core.dic
dictionary named 'cif_core.dic' version 2.4.2 from 2011-04-26.

Automatic conversion script
Id: cif_fix_values 4973 2017-02-22 13:04:09Z antanas 

 Adding full bibliography for 1549188--1549189.cif.
;
_cod_database_code               1549188
_pd_proc_ls_prof_cr_factor       30.4647
_pd_proc_ls_prof_cwr_factor      18.4281
_pd_proc_ls_prof_cwr_expected    14.0891
_pd_proc_ls_prof_chi2            1.7108
_pd_proc_ls_prof_echi2           1.7246
loop_
_symmetry_equiv_pos_as_xyz
x,y,z
x-y,x,z
-y,x-y,z
-x,-y,z
-x+y,-x,z
y,-x+y,z
-y,-x,z
-x,-x+y,z
-x+y,y,z
y,x,z
x,x-y,z
x-y,-y,z
-x,-y,-z
-x+y,-x,-z
y,-x+y,-z
x,y,-z
x-y,x,-z
-y,x-y,-z
y,x,-z
x,x-y,-z
x-y,-y,-z
-y,-x,-z
-x,-x+y,-z
-x+y,y,-z
loop_
_atom_site_label
_atom_site_type_symbol
_atom_site_fract_x
_atom_site_fract_y
_atom_site_fract_z
_atom_site_U_iso_or_equiv
_atom_site_adp_type
_atom_site_occupancy
C SpHS 0.00000 0.00000 0.00000 0.00000 Uiso 1.00000
M1 C 0.32957 0.71131 0.54392 0.00000 Uiso 0.08333
M2 H 0.23537 0.71468 0.53382 0.00000 Uiso 0.08333
M3 H 0.33689 0.68188 0.63418 0.00000 Uiso 0.08333
M4 Cl 0.49483 0.90176 0.50841 0.00000 Uiso 0.04167
M5 Br 0.32883 0.56759 0.42547 0.00000 Uiso 0.04167
M6 Br 0.49483 0.90176 0.50841 0.00000 Uiso 0.04167
M7 Cl 0.32883 0.56759 0.42547 0.00000 Uiso 0.04167
loop_
_atom_type_symbol
_atom_type_scat_Cromer_Mann_a1
_atom_type_scat_Cromer_Mann_b1
_atom_type_scat_Cromer_Mann_a2
_atom_type_scat_Cromer_Mann_b2
_atom_type_scat_Cromer_Mann_a3
_atom_type_scat_Cromer_Mann_b3
_atom_type_scat_Cromer_Mann_a4
_atom_type_scat_Cromer_Mann_b4
_atom_type_scat_Cromer_Mann_c
_atom_type_scat_dispersion_real
_atom_type_scat_dispersion_imag
_atom_type_scat_source
c 2.31000 20.84390 1.02000 10.20750 1.58860 0.56870 0.86500 51.65120 0.21560
0.01700 0.00900
International_Tables_for_Crystallography_Vol.C(1991)_Tables_6.1.1.4_and_6.1.1.5
h 0.49300 10.51090 0.32291 26.12570 0.14019 3.14236 0.04081 57.79970 0.00304
0.00000 0.00000
International_Tables_for_Crystallography_Vol.C(1991)_Tables_6.1.1.4_and_6.1.1.5
cl 11.46040 0.01040 7.19640 1.16620 6.25560 18.51940 1.64550 47.77840 -9.55740
0.34800 0.70200
International_Tables_for_Crystallography_Vol.C(1991)_Tables_6.1.1.4_and_6.1.1.5
br 17.17890 2.17230 5.23580 16.57960 5.63770 0.26090 3.98510 41.43280 2.95570
-0.76700 1.28300
International_Tables_for_Crystallography_Vol.C(1991)_Tables_6.1.1.4_and_6.1.1.5
