#------------------------------------------------------------------------------
#$Date: 2019-11-17 04:52:23 +0200 (Sun, 17 Nov 2019) $
#$Revision: 227965 $
#$URL: file:///home/coder/svn-repositories/cod/cif/1/54/97/1549739.cif $
#------------------------------------------------------------------------------
#
# This file is available in the Crystallography Open Database (COD),
# http://www.crystallography.net/
#
# All data on this site have been placed in the public domain by the
# contributors.
#
data_1549739
loop_
_publ_author_name
'Tahmouresilerd, Babak'
'Larson, Patrick J.'
'Unruh, Daniel K.'
'Cozzolino, Anthony F.'
_publ_section_title
;
 Make room for iodine: systematic pore tuning of multivariate
 metal--organic frameworks for the catalytic oxidation of hydroquinones
 using hypervalent iodine
;
_journal_issue                   17
_journal_name_full               'Catalysis Science &amp; Technology'
_journal_page_first              4349
_journal_paper_doi               10.1039/C8CY00794B
_journal_volume                  8
_journal_year                    2018
_chemical_formula_sum            'C8 H4.19 Al I0.82 O5'
_chemical_formula_weight         310.83
_space_group_IT_number           74
_space_group_name_Hall           '-I 2b 2'
_space_group_name_H-M_alt        'I m m a'
_symmetry_cell_setting           orthorhombic
_symmetry_Int_Tables_number      74
_symmetry_space_group_name_Hall  '-I 2b 2'
_symmetry_space_group_name_H-M   'I m m a'
_atom_sites_solution_hydrogens   mixed
_atom_sites_solution_primary     dual
_atom_sites_solution_secondary   difmap
_audit_creation_date             2017-10-03T13:19:50-00:00
_audit_creation_method           'WinGX routine CIF_UPDATE'
_audit_update_record
;
2018-04-18 deposited with the CCDC.
2018-07-30 downloaded from the CCDC.
;
_cell_angle_alpha                90
_cell_angle_beta                 90
_cell_angle_gamma                90
_cell_formula_units_Z            4
_cell_length_a                   16.501(4)
_cell_length_b                   6.6194(18)
_cell_length_c                   13.210(4)
_cell_measurement_reflns_used    1575
_cell_measurement_temperature    100(2)
_cell_measurement_theta_max      24.95
_cell_measurement_theta_min      2.47
_cell_volume                     1442.9(7)
_computing_cell_refinement       'Bruker SAINT'
_computing_data_collection       'Bruker APEX2'
_computing_data_reduction        'Bruker SAINT'
_computing_structure_refinement  'SHELXL 2014/7 (Sheldrick, 2014)'
_computing_structure_solution    'SHELXT 2014/5 (Sheldrick, 2014)'
_diffrn_ambient_temperature      100(2)
_diffrn_measured_fraction_theta_full 1
_diffrn_measured_fraction_theta_max 1
_diffrn_measurement_device_type  'Bruker APEX-II CCD'
_diffrn_measurement_method       '\w scans'
_diffrn_radiation_monochromator  graphite
_diffrn_radiation_source         'fine-focus sealed tube'
_diffrn_radiation_type           MoK\a
_diffrn_radiation_wavelength     0.71073
_diffrn_reflns_av_R_equivalents  0.0558
_diffrn_reflns_av_unetI/netI     0.0367
_diffrn_reflns_Laue_measured_fraction_full 1
_diffrn_reflns_Laue_measured_fraction_max 1
_diffrn_reflns_limit_h_max       19
_diffrn_reflns_limit_h_min       -19
_diffrn_reflns_limit_k_max       7
_diffrn_reflns_limit_k_min       -7
_diffrn_reflns_limit_l_max       15
_diffrn_reflns_limit_l_min       -15
_diffrn_reflns_number            6080
_diffrn_reflns_point_group_measured_fraction_full 1
_diffrn_reflns_point_group_measured_fraction_max 1
_diffrn_reflns_theta_full        25.242
_diffrn_reflns_theta_max         25.367
_diffrn_reflns_theta_min         1.975
_exptl_absorpt_coefficient_mu    1.883
_exptl_absorpt_correction_T_max  0.2590
_exptl_absorpt_correction_T_min  0.2013
_exptl_absorpt_correction_type   multi-scan
_exptl_absorpt_process_details   SADABS
_exptl_crystal_colour            yellow
_exptl_crystal_density_diffrn    1.431
_exptl_crystal_description       block
_exptl_crystal_F_000             594
_exptl_crystal_size_max          0.25
_exptl_crystal_size_mid          0.23
_exptl_crystal_size_min          0.19
_refine_diff_density_max         1.74
_refine_diff_density_min         -0.689
_refine_diff_density_rms         0.23
_refine_ls_extinction_coef       0.10(2)
_refine_ls_extinction_expression Fc^*^=kFc[1+0.001xFc^2^\l^3^/sin(2\q)]^-1/4^
_refine_ls_extinction_method     'SHELXL-2014/7 (Sheldrick 2014'
_refine_ls_goodness_of_fit_ref   1.123
_refine_ls_hydrogen_treatment    mixed
_refine_ls_matrix_type           full
_refine_ls_number_parameters     80
_refine_ls_number_reflns         754
_refine_ls_number_restraints     61
_refine_ls_restrained_S_all      1.103
_refine_ls_R_factor_all          0.1326
_refine_ls_R_factor_gt           0.127
_refine_ls_shift/su_max          0
_refine_ls_shift/su_mean         0
_refine_ls_structure_factor_coef Fsqd
_refine_ls_weighting_details
'w=1/[\s^2^(Fo^2^)+(0.1964P)^2^+24.6562P] where P=(Fo^2^+2Fc^2^)/3'
_refine_ls_weighting_scheme      calc
_refine_ls_wR_factor_gt          0.3491
_refine_ls_wR_factor_ref         0.3533
_reflns_number_gt                666
_reflns_number_total             754
_reflns_threshold_expression     'I > 2\s(I)'
_cod_data_source_file            c8cy00794b2.cif
_cod_data_source_block           MIL53_101_3
_cod_depositor_comments
'Adding full bibliography for 1549739--1549740.cif.'
_cod_database_code               1549739
_shelx_estimated_absorpt_t_min   0.650
_shelx_estimated_absorpt_t_max   0.716
_shelx_res_file
;

    coz17_07_a_sq.res created by SHELXL-2014/7


TITL coz17_07_a.res in Imma
REM Old TITL coz17_07 in Imma

REM SHELXT solution in Imma
REM R1 0.372,  Rweak 0.050,  Alpha 0.054,  Orientation as input
REM Formula found by SHELXT:  C10 Al9 I O5

CELL  0.71073  16.5008   6.6194  13.2102   90.000   90.000   90.000
ZERR   4.000   0.0044   0.0018   0.0035    0.000    0.000    0.000
LATT  2
SYMM -X, 1/2-Y, Z
SYMM -X, 1/2+Y, -Z
SYMM X, -Y, -Z
SFAC C H O AL I
UNIT 32 16.74 20 4 3.264
SIZE 0.25 0.23 0.19
TEMP -173.250
L.S. 10 0    3
BOND $H
FMAP 2
PLAN 50
RIGU

ACTA
LIST 4

EQIV $2 3/2-x, +y, 3/2-z

FREE C3A C3B C3B C3B_$2 C3A C3A_$2

DFIX 31 C3A I1A C3A I1B C3B I2
DFIX 0.96 0.02 O1 H1

ABIN
WGHT    0.196400   24.656200
EXTI    0.103464
FVAR       0.67967   0.76373   2.25628   0.10799
PART  1
I1A   5    0.749051    0.663383    0.580130    20.15000    0.05988    0.04859 =
         0.09696    0.03639   -0.05005   -0.02189
I1B   5    0.797110    0.569598    0.551111   -20.15000    0.09106    0.07993 =
         0.11622    0.04753   -0.01655   -0.00201
I2    5    0.604417    0.627880    0.809163    40.50000    0.09080    0.09464 =
         0.08508   -0.04196   -0.05389    0.05615
AL1   4    0.500000    0.500000    0.500000    10.25000    0.01941    0.01373 =
         0.02525    0.00069    0.00000    0.00000
O1    3    0.500000    0.250000    0.438821    10.25000    0.02255    0.01783 =
         0.02194    0.00000    0.00000    0.00000
H1    2    0.500000    0.250000    0.366049    10.25000   -1.20000
O2    3    0.583149    0.419258    0.591510    11.00000    0.03322    0.01855 =
         0.04174   -0.00367   -0.01481    0.00454
C1    1    0.610940    0.250000    0.616507    10.50000    0.02774    0.01716 =
         0.03662    0.00000   -0.00534    0.00000
C2    1    0.683469    0.250000    0.686248    10.50000    0.03654    0.01895 =
         0.05768    0.00000   -0.02429    0.00000
C3A   1    0.737273    0.411921    0.686904    10.50000    0.05236    0.02263 =
         0.07754    0.00583   -0.03623   -0.00132
AFIX  43
H3A   2    0.731081    0.519567    0.639975    10.35000   -1.20000
AFIX   0
C3B   1    0.698489    0.414627    0.741589    10.50000    0.05314    0.01985 =
         0.07447   -0.00131   -0.03955    0.00731
AFIX  43
H3B   2    0.666437    0.532660    0.733179   -40.50000   -1.20000
AFIX   0
HKLF 4

REM  coz17_07_a.res in Imma
REM R1 =  0.1270 for     666 Fo > 4sig(Fo)  and  0.1326 for all     754 data
REM     80 parameters refined using     61 restraints

END

WGHT      0.2000      0.0000

REM Highest difference peak  1.740,  deepest hole -0.689,  1-sigma level  0.230
Q1    1   0.5000  0.6549  0.8262  10.50000  0.05    1.74
Q2    1   0.5000  0.2500  0.7896  10.25000  0.05    1.03
Q3    1   0.5000  0.4407  0.8329  10.50000  0.05    0.91
Q4    1   0.7152  0.6572  0.6384  11.00000  0.05    0.82
Q5    1   0.8158  0.5034  0.5408  11.00000  0.05    0.76
Q6    1   0.8032  0.6583  0.5370  11.00000  0.05    0.76
Q7    1   0.6619  0.2500  0.6584  10.50000  0.05    0.66
Q8    1   0.7179  0.4618  0.7143  11.00000  0.05    0.58
Q9    1   0.5900  0.6170  0.9373  11.00000  0.05    0.51
Q10   1   0.7175  0.7500  0.5695  10.50000  0.05    0.49
Q11   1   0.8893  0.3981  0.5401  11.00000  0.05    0.40
Q12   1   0.7765  0.7249  0.6362  11.00000  0.05    0.35
Q13   1   0.5000  0.2500  0.5069  10.25000  0.05    0.34
Q14   1   0.7499  0.5723  0.5505  11.00000  0.05    0.34
Q15   1   0.5574  0.7500  0.8515  10.50000  0.05    0.33
Q16   1   0.8685  0.7500  0.4585  10.50000  0.05    0.31
Q17   1   0.5423  0.4290  0.5418  11.00000  0.05    0.29
Q18   1   0.5000  0.5387  0.9159  10.50000  0.05    0.23
Q19   1   0.5000  0.1516  0.4672  10.50000  0.05    0.23
Q20   1   0.5807  0.2500  0.9180  10.50000  0.05    0.22
Q21   1   0.6629  0.7500  0.5118  10.50000  0.05    0.21
Q22   1   0.5732  0.2500  0.5490  10.50000  0.05    0.19
Q23   1   0.5193  0.2500  0.8736  10.50000  0.05    0.19
Q24   1   0.6224  0.4007  0.6314  11.00000  0.05    0.18
Q25   1   0.5644  0.3963  0.6114  11.00000  0.05    0.18
Q26   1   0.5712  0.6595  0.7591  11.00000  0.05    0.17
Q27   1   0.7793  0.4184  0.6897  11.00000  0.05    0.17
Q28   1   0.5000  0.2500  0.7188  10.25000  0.05    0.16
Q29   1   0.5000  0.4987  0.7623  10.50000  0.05    0.16
Q30   1   0.5000  0.4793  0.6708  10.50000  0.05    0.15
Q31   1   0.5881  0.2500  0.6271  10.50000  0.05    0.15
Q32   1   0.5000  0.5000  1.0000  10.25000  0.05    0.14
Q33   1   0.6609  0.7500  0.7293  10.50000  0.05    0.13
Q34   1   0.6676  0.7500  0.8091  10.50000  0.05    0.13
Q35   1   0.6046  0.3482  0.5884  11.00000  0.05    0.13
Q36   1   0.5000  0.2500  0.9569  10.25000  0.05    0.11
Q37   1   0.4501  0.2500  0.4091  10.50000  0.05    0.09
Q38   1   0.5906  0.5297  0.5729  11.00000  0.05    0.08
Q39   1   0.5000  0.2500  0.3016  10.25000  0.05    0.06
;
_shelx_res_checksum              40201
_shelx_fab_file
;
    2    0    0     34.09      0.00
    4    0    0     18.85      0.00
    6    0    0      7.50      0.00
    8    0    0      4.74      0.00
   10    0    0      5.76      0.00
   12    0    0      4.89      0.00
   14    0    0      2.17      0.00
   16    0    0      0.63      0.00
   18    0    0      0.84      0.00
    0    2    0    -17.20      0.00
    2    2    0    -13.34      0.00
    4    2    0     -5.80      0.00
    6    2    0     -1.67      0.00
    8    2    0     -2.74      0.00
   10    2    0     -4.74      0.00
   12    2    0     -3.91      0.00
   14    2    0     -1.17      0.00
   16    2    0      0.48      0.00
   18    2    0      0.29      0.00
    0    4    0     -0.64      0.00
    2    4    0     -0.98      0.00
    4    4    0     -1.36      0.00
    6    4    0     -0.85      0.00
    8    4    0      0.20      0.00
   10    4    0      0.66      0.00
   12    4    0      0.18      0.00
   14    4    0     -0.45      0.00
   16    4    0     -0.50      0.00
    0    6    0      2.49      0.00
    2    6    0      1.69      0.00
    4    6    0      0.10      0.00
    6    6    0     -0.74      0.00
    8    6    0     -0.29      0.00
   10    6    0      0.55      0.00
   12    6    0      0.73      0.00
    1    0    1    -33.36      0.00
    3    0    1    -21.65      0.00
    5    0    1     -8.43      0.00
    7    0    1     -2.55      0.00
    9    0    1     -3.21      0.00
   11    0    1     -4.16      0.00
   13    0    1     -2.48      0.00
   15    0    1     -0.40      0.00
   17    0    1     -0.11      0.00
   19    0    1     -0.63      0.00
    0    1    1     10.78      0.00
    2    1    1      9.26      0.00
    4    1    1      6.05      0.00
    6    1    1      3.72      0.00
    8    1    1      3.11      0.00
   10    1    1      2.97      0.00
   12    1    1      2.20      0.00
   14    1    1      1.16      0.00
   16    1    1      0.68      0.00
   18    1    1      0.69      0.00
    1    2    1     12.76      0.00
    3    2    1      6.72      0.00
    5    2    1      0.93      0.00
    7    2    1      0.17      0.00
    9    2    1      2.66      0.00
   11    2    1      3.69      0.00
   13    2    1      1.84      0.00
   15    2    1     -0.40      0.00
   17    2    1     -0.87      0.00
   19    2    1     -0.20      0.00
    0    3    1     -2.82      0.00
    2    3    1     -2.36      0.00
    4    3    1     -1.46      0.00
    6    3    1     -1.04      0.00
    8    3    1     -1.21      0.00
   10    3    1     -1.29      0.00
   12    3    1     -0.89      0.00
   14    3    1     -0.36      0.00
   16    3    1     -0.15      0.00
   18    3    1     -0.19      0.00
    1    4    1      0.81      0.00
    3    4    1      1.31      0.00
    5    4    1      1.32      0.00
    7    4    1      0.47      0.00
    9    4    1     -0.36      0.00
   11    4    1     -0.33      0.00
   13    4    1      0.29      0.00
   15    4    1      0.62      0.00
   17    4    1      0.38      0.00
    0    5    1     -1.61      0.00
    2    5    1     -1.35      0.00
    4    5    1     -0.78      0.00
    6    5    1     -0.27      0.00
    8    5    1     -0.05      0.00
   10    5    1     -0.07      0.00
   12    5    1     -0.14      0.00
   14    5    1     -0.10      0.00
    1    6    1     -1.62      0.00
    3    6    1     -0.40      0.00
    5    6    1      0.78      0.00
    7    6    1      0.80      0.00
    9    6    1     -0.06      0.00
   11    6    1     -0.67      0.00
   13    6    1     -0.46      0.00
    0    7    1      0.78      0.00
    2    7    1      0.55      0.00
    4    7    1      0.08      0.00
    6    7    1     -0.21      0.00
    8    7    1     -0.18      0.00
    0    0    2     21.51      0.00
    2    0    2     16.19      0.00
    4    0    2      5.36      0.00
    6    0    2     -1.80      0.00
    8    0    2     -2.00      0.00
   10    0    2      0.52      0.00
   12    0    2      1.03      0.00
   14    0    2     -0.40      0.00
   16    0    2     -1.12      0.00
   18    0    2     -0.45      0.00
    1    1    2    -12.89      0.00
    3    1    2     -8.51      0.00
    5    1    2     -3.90      0.00
    7    1    2     -2.37      0.00
    9    1    2     -2.97      0.00
   11    1    2     -2.92      0.00
   13    1    2     -1.56      0.00
   15    1    2     -0.45      0.00
   17    1    2     -0.50      0.00
   19    1    2     -0.82      0.00
    0    2    2     -6.48      0.00
    2    2    2     -3.72      0.00
    4    2    2      1.35      0.00
    6    2    2      3.35      0.00
    8    2    2      1.21      0.00
   10    2    2     -1.41      0.00
   12    2    2     -1.36      0.00
   14    2    2      0.49      0.00
   16    2    2      1.55      0.00
   18    2    2      1.07      0.00
    1    3    2      2.90      0.00
    3    3    2      1.61      0.00
    5    3    2      0.56      0.00
    7    3    2      0.76      0.00
    9    3    2      1.42      0.00
   11    3    2      1.33      0.00
   13    3    2      0.52      0.00
   15    3    2     -0.04      0.00
   17    3    2      0.00      0.00
    0    4    2     -0.70      0.00
    2    4    2     -1.04      0.00
    4    4    2     -1.44      0.00
    6    4    2     -1.12      0.00
    8    4    2     -0.32      0.00
   10    4    2      0.05      0.00
   12    4    2     -0.28      0.00
   14    4    2     -0.69      0.00
   16    4    2     -0.61      0.00
    1    5    2      2.10      0.00
    3    5    2      1.36      0.00
    5    5    2      0.43      0.00
    7    5    2     -0.10      0.00
    9    5    2     -0.09      0.00
   11    5    2      0.14      0.00
   13    5    2      0.19      0.00
   15    5    2      0.07      0.00
    0    6    2      0.46      0.00
    2    6    2     -0.03      0.00
    4    6    2     -0.94      0.00
    6    6    2     -1.19      0.00
    8    6    2     -0.49      0.00
   10    6    2      0.38      0.00
   12    6    2      0.58      0.00
    1    7    2     -0.96      0.00
    3    7    2     -0.29      0.00
    5    7    2      0.37      0.00
    7    7    2      0.48      0.00
    9    7    2      0.20      0.00
    1    0    3     -9.28      0.00
    3    0    3     -3.00      0.00
    5    0    3      3.40      0.00
    7    0    3      4.86      0.00
    9    0    3      2.39      0.00
   11    0    3      0.29      0.00
   13    0    3      0.49      0.00
   15    0    3      1.41      0.00
   17    0    3      1.29      0.00
   19    0    3      0.52      0.00
    0    1    3      7.78      0.00
    2    1    3      5.00      0.00
    4    1    3     -0.26      0.00
    6    1    3     -2.65      0.00
    8    1    3     -1.11      0.00
   10    1    3      0.87      0.00
   12    1    3      0.63      0.00
   14    1    3     -0.67      0.00
   16    1    3     -0.83      0.00
   18    1    3      0.11      0.00
    1    2    3      0.94      0.00
    3    2    3     -2.08      0.00
    5    2    3     -4.38      0.00
    7    2    3     -3.36      0.00
    9    2    3     -0.56      0.00
   11    2    3      0.83      0.00
   13    2    3     -0.08      0.00
   15    2    3     -1.45      0.00
   17    2    3     -1.60      0.00
    0    3    3     -1.10      0.00
    2    3    3     -0.24      0.00
    4    3    3      1.16      0.00
    6    3    3      1.21      0.00
    8    3    3     -0.02      0.00
   10    3    3     -0.83      0.00
   12    3    3     -0.35      0.00
   14    3    3      0.48      0.00
   16    3    3      0.58      0.00
   18    3    3      0.17      0.00
    1    4    3      0.40      0.00
    3    4    3      0.90      0.00
    5    4    3      1.15      0.00
    7    4    3      0.79      0.00
    9    4    3      0.34      0.00
   11    4    3      0.34      0.00
   13    4    3      0.64      0.00
   15    4    3      0.70      0.00
    0    5    3     -1.64      0.00
    2    5    3     -1.20      0.00
    4    5    3     -0.24      0.00
    6    5    3      0.47      0.00
    8    5    3      0.49      0.00
   10    5    3      0.06      0.00
   12    5    3     -0.23      0.00
   14    5    3     -0.14      0.00
    1    6    3      0.62      0.00
    3    6    3      1.01      0.00
    5    6    3      1.20      0.00
    7    6    3      0.73      0.00
    9    6    3     -0.09      0.00
   11    6    3     -0.55      0.00
    0    7    3      0.91      0.00
    2    7    3      0.47      0.00
    4    7    3     -0.35      0.00
    6    7    3     -0.69      0.00
    8    7    3     -0.36      0.00
    0    0    4      7.22      0.00
    2    0    4      4.98      0.00
    4    0    4      0.58      0.00
    6    0    4     -1.94      0.00
    8    0    4     -1.24      0.00
   10    0    4      0.56      0.00
   12    0    4      1.04      0.00
   14    0    4      0.14      0.00
   16    0    4     -0.65      0.00
   18    0    4     -0.60      0.00
    1    1    4      0.69      0.00
    3    1    4      4.75      0.00
    5    1    4      7.68      0.00
    7    1    4      6.04      0.00
    9    1    4      2.22      0.00
   11    1    4      0.48      0.00
   13    1    4      1.35      0.00
   15    1    4      2.09      0.00
   17    1    4      1.16      0.00
   19    1    4     -0.10      0.00
    0    2    4     -1.63      0.00
    2    2    4     -0.55      0.00
    4    2    4      1.27      0.00
    6    2    4      1.55      0.00
    8    2    4      0.04      0.00
   10    2    4     -1.39      0.00
   12    2    4     -1.20      0.00
   14    2    4      0.14      0.00
   16    2    4      1.08      0.00
   18    2    4      0.94      0.00
    1    3    4     -1.00      0.00
    3    3    4     -2.26      0.00
    5    3    4     -2.79      0.00
    7    3    4     -1.58      0.00
    9    3    4     -0.01      0.00
   11    3    4      0.22      0.00
   13    3    4     -0.63      0.00
   15    3    4     -1.08      0.00
   17    3    4     -0.65      0.00
    0    4    4      0.22      0.00
    2    4    4     -0.10      0.00
    4    4    4     -0.63      0.00
    6    4    4     -0.81      0.00
    8    4    4     -0.61      0.00
   10    4    4     -0.46      0.00
   12    4    4     -0.55      0.00
   14    4    4     -0.62      0.00
   16    4    4     -0.40      0.00
    1    5    4      0.33      0.00
    3    5    4     -0.29      0.00
    5    5    4     -0.93      0.00
    7    5    4     -0.97      0.00
    9    5    4     -0.38      0.00
   11    5    4      0.19      0.00
   13    5    4      0.26      0.00
    0    6    4     -0.63      0.00
    2    6    4     -0.67      0.00
    4    6    4     -0.68      0.00
    6    6    4     -0.43      0.00
    8    6    4      0.07      0.00
   10    6    4      0.47      0.00
   12    6    4      0.46      0.00
    1    7    4     -0.58      0.00
    3    7    4      0.09      0.00
    5    7    4      0.61      0.00
    7    7    4      0.43      0.00
    1    0    5     -9.25      0.00
    3    0    5     -7.07      0.00
    5    0    5     -4.46      0.00
    7    0    5     -3.09      0.00
    9    0    5     -3.03      0.00
   11    0    5     -3.13      0.00
   13    0    5     -2.46      0.00
   15    0    5     -1.22      0.00
   17    0    5     -0.26      0.00
    0    1    5     -3.01      0.00
    2    1    5     -4.95      0.00
    4    1    5     -7.87      0.00
    6    1    5     -7.27      0.00
    8    1    5     -3.25      0.00
   10    1    5     -0.05      0.00
   12    1    5     -0.16      0.00
   14    1    5     -1.65      0.00
   16    1    5     -1.71      0.00
   18    1    5     -0.42      0.00
    1    2    5      4.48      0.00
    3    2    5      3.50      0.00
    5    2    5      2.55      0.00
    7    2    5      2.37      0.00
    9    2    5      2.66      0.00
   11    2    5      2.49      0.00
   13    2    5      1.48      0.00
   15    2    5      0.21      0.00
   17    2    5     -0.46      0.00
    0    3    5      0.59      0.00
    2    3    5      1.31      0.00
    4    3    5      2.27      0.00
    6    3    5      1.78      0.00
    8    3    5      0.22      0.00
   10    3    5     -0.56      0.00
   12    3    5      0.10      0.00
   14    3    5      0.96      0.00
   16    3    5      0.88      0.00
    1    4    5     -0.09      0.00
    3    4    5      0.35      0.00
    5    4    5      0.80      0.00
    7    4    5      0.92      0.00
    9    4    5      0.79      0.00
   11    4    5      0.66      0.00
   13    4    5      0.58      0.00
   15    4    5      0.42      0.00
    0    5    5      0.49      0.00
    2    5    5      0.71      0.00
    4    5    5      1.12      0.00
    6    5    5      1.16      0.00
    8    5    5      0.58      0.00
   10    5    5     -0.16      0.00
   12    5    5     -0.42      0.00
   14    5    5     -0.12      0.00
    1    6    5     -0.01      0.00
    3    6    5     -0.11      0.00
    5    6    5     -0.24      0.00
    7    6    5     -0.36      0.00
    9    6    5     -0.41      0.00
   11    6    5     -0.35      0.00
    0    7    5      0.68      0.00
    2    7    5      0.36      0.00
    4    7    5     -0.20      0.00
    6    7    5     -0.29      0.00
    0    0    6     10.35      0.00
    2    0    6      9.77      0.00
    4    0    6      8.20      0.00
    6    0    6      6.07      0.00
    8    0    6      4.29      0.00
   10    0    6      3.44      0.00
   12    0    6      3.11      0.00
   14    0    6      2.43      0.00
   16    0    6      1.25      0.00
   18    0    6      0.29      0.00
    1    1    6      0.92      0.00
    3    1    6      3.13      0.00
    5    1    6      3.88      0.00
    7    1    6      1.31      0.00
    9    1    6     -1.96      0.00
   11    1    6     -2.51      0.00
   13    1    6     -0.61      0.00
   15    1    6      0.83      0.00
   17    1    6      0.43      0.00
    0    2    6     -5.86      0.00
    2    2    6     -5.62      0.00
    4    2    6     -4.92      0.00
    6    2    6     -3.92      0.00
    8    2    6     -2.99      0.00
   10    2    6     -2.37      0.00
   12    2    6     -1.82      0.00
   14    2    6     -0.99      0.00
   16    2    6     -0.10      0.00
    1    3    6      0.86      0.00
    3    3    6     -0.12      0.00
    5    3    6     -0.53      0.00
    7    3    6      0.27      0.00
    9    3    6      1.08      0.00
   11    3    6      0.69      0.00
   13    3    6     -0.36      0.00
   15    3    6     -0.75      0.00
    0    4    6     -0.77      0.00
    2    4    6     -0.94      0.00
    4    4    6     -1.28      0.00
    6    4    6     -1.49      0.00
    8    4    6     -1.41      0.00
   10    4    6     -1.10      0.00
   12    4    6     -0.78      0.00
   14    4    6     -0.55      0.00
    1    5    6     -0.53      0.00
    3    5    6     -0.70      0.00
    5    5    6     -0.75      0.00
    7    5    6     -0.36      0.00
    9    5    6      0.29      0.00
   11    5    6      0.65      0.00
   13    5    6      0.38      0.00
    0    6    6      0.57      0.00
    2    6    6      0.66      0.00
    4    6    6      0.76      0.00
    6    6    6      0.67      0.00
    8    6    6      0.37      0.00
   10    6    6      0.09      0.00
    1    7    6     -0.75      0.00
    3    7    6     -0.33      0.00
    5    7    6     -0.01      0.00
    1    0    7     -5.93      0.00
    3    0    7     -5.70      0.00
    5    0    7     -4.49      0.00
    7    0    7     -2.44      0.00
    9    0    7     -0.97      0.00
   11    0    7     -0.93      0.00
   13    0    7     -1.46      0.00
   15    0    7     -1.23      0.00
   17    0    7     -0.32      0.00
    0    1    7      2.63      0.00
    2    1    7      1.62      0.00
    4    1    7      0.29      0.00
    6    1    7      1.06      0.00
    8    1    7      3.33      0.00
   10    1    7      4.25      0.00
   12    1    7      2.70      0.00
   14    1    7      0.56      0.00
   16    1    7     -0.08      0.00
    1    2    7      3.48      0.00
    3    2    7      3.44      0.00
    5    2    7      2.80      0.00
    7    2    7      1.56      0.00
    9    2    7      0.56      0.00
   11    2    7      0.35      0.00
   13    2    7      0.41      0.00
   15    2    7      0.08      0.00
   17    2    7     -0.39      0.00
    0    3    7     -1.91      0.00
    2    3    7     -1.36      0.00
    4    3    7     -0.51      0.00
    6    3    7     -0.44      0.00
    8    3    7     -0.86      0.00
   10    3    7     -0.73      0.00
   12    3    7      0.12      0.00
   14    3    7      0.71      0.00
   16    3    7      0.42      0.00
    1    4    7      1.97      0.00
    3    4    7      2.03      0.00
    5    4    7      2.08      0.00
    7    4    7      1.95      0.00
    9    4    7      1.56      0.00
   11    4    7      1.07      0.00
   13    4    7      0.72      0.00
    0    5    7     -0.24      0.00
    2    5    7     -0.20      0.00
    4    5    7     -0.15      0.00
    6    5    7     -0.27      0.00
    8    5    7     -0.63      0.00
   10    5    7     -0.89      0.00
   12    5    7     -0.69      0.00
    1    6    7     -0.60      0.00
    3    6    7     -0.71      0.00
    5    6    7     -0.64      0.00
    7    6    7     -0.24      0.00
    9    6    7      0.21      0.00
    0    7    7      0.80      0.00
    2    7    7      0.61      0.00
    0    0    8     -0.67      0.00
    2    0    8     -0.28      0.00
    4    0    8     -0.01      0.00
    6    0    8     -0.94      0.00
    8    0    8     -2.27      0.00
   10    0    8     -2.27      0.00
   12    0    8     -0.88      0.00
   14    0    8      0.24      0.00
   16    0    8      0.04      0.00
    1    1    8     -1.78      0.00
    3    1    8     -0.91      0.00
    5    1    8     -0.78      0.00
    7    1    8     -1.98      0.00
    9    1    8     -3.03      0.00
   11    1    8     -2.46      0.00
   13    1    8     -0.84      0.00
   15    1    8      0.13      0.00
   17    1    8     -0.13      0.00
    0    2    8      0.16      0.00
    2    2    8     -0.12      0.00
    4    2    8     -0.32      0.00
    6    2    8      0.32      0.00
    8    2    8      1.31      0.00
   10    2    8      1.49      0.00
   12    2    8      0.83      0.00
   14    2    8      0.36      0.00
   16    2    8      0.55      0.00
    1    3    8      0.69      0.00
    3    3    8      0.03      0.00
    5    3    8     -0.47      0.00
    7    3    8     -0.45      0.00
    9    3    8     -0.42      0.00
   11    3    8     -0.81      0.00
   13    3    8     -1.18      0.00
   15    3    8     -0.91      0.00
    0    4    8     -2.31      0.00
    2    4    8     -2.22      0.00
    4    4    8     -2.04      0.00
    6    4    8     -1.81      0.00
    8    4    8     -1.45      0.00
   10    4    8     -0.96      0.00
   12    4    8     -0.59      0.00
   14    4    8     -0.48      0.00
    1    5    8      0.97      0.00
    3    5    8      0.92      0.00
    5    5    8      0.87      0.00
    7    5    8      0.91      0.00
    9    5    8      0.97      0.00
   11    5    8      0.81      0.00
    0    6    8      0.09      0.00
    2    6    8      0.17      0.00
    4    6    8      0.23      0.00
    6    6    8      0.00      0.00
    8    6    8     -0.42      0.00
    1    0    9      3.89      0.00
    3    0    9      2.87      0.00
    5    0    9      2.42      0.00
    7    0    9      3.03      0.00
    9    0    9      3.27      0.00
   11    0    9      2.03      0.00
   13    0    9      0.36      0.00
   15    0    9     -0.10      0.00
    0    1    9     -2.01      0.00
    2    1    9     -2.16      0.00
    4    1    9     -2.12      0.00
    6    1    9     -1.35      0.00
    8    1    9     -0.29      0.00
   10    1    9      0.10      0.00
   12    1    9     -0.36      0.00
   14    1    9     -0.81      0.00
   16    1    9     -0.56      0.00
    1    2    9     -1.40      0.00
    3    2    9     -0.76      0.00
    5    2    9     -0.58      0.00
    7    2    9     -1.21      0.00
    9    2    9     -1.64      0.00
   11    2    9     -1.14      0.00
   13    2    9     -0.37      0.00
   15    2    9     -0.28      0.00
    0    3    9      1.15      0.00
    2    3    9      1.39      0.00
    4    3    9      1.77      0.00
    6    3    9      1.91      0.00
    8    3    9      1.87      0.00
   10    3    9      1.89      0.00
   12    3    9      1.89      0.00
   14    3    9      1.51      0.00
    1    4    9      1.40      0.00
    3    4    9      1.13      0.00
    5    4    9      0.82      0.00
    7    4    9      0.53      0.00
    9    4    9      0.22      0.00
   11    4    9      0.00      0.00
   13    4    9      0.04      0.00
    0    5    9     -0.98      0.00
    2    5    9     -0.96      0.00
    4    5    9     -0.87      0.00
    6    5    9     -0.75      0.00
    8    5    9     -0.66      0.00
   10    5    9     -0.55      0.00
    1    6    9      0.30      0.00
    3    6    9      0.18      0.00
    5    6    9      0.18      0.00
    0    0   10     -2.50      0.00
    2    0   10     -1.77      0.00
    4    0   10     -0.64      0.00
    6    0   10     -0.48      0.00
    8    0   10     -0.92      0.00
   10    0   10     -0.60      0.00
   12    0   10      0.48      0.00
   14    0   10      0.97      0.00
    1    1   10      5.02      0.00
    3    1   10      4.52      0.00
    5    1   10      3.60      0.00
    7    1   10      2.58      0.00
    9    1   10      1.84      0.00
   11    1   10      1.51      0.00
   13    1   10      1.34      0.00
   15    1   10      0.98      0.00
    0    2   10     -0.02      0.00
    2    2   10     -0.47      0.00
    4    2   10     -1.08      0.00
    6    2   10     -0.90      0.00
    8    2   10     -0.26      0.00
   10    2   10     -0.10      0.00
   12    2   10     -0.47      0.00
   14    2   10     -0.50      0.00
    1    3   10     -1.96      0.00
    3    3   10     -2.04      0.00
    5    3   10     -2.10      0.00
    7    3   10     -2.12      0.00
    9    3   10     -2.11      0.00
   11    3   10     -2.00      0.00
   13    3   10     -1.63      0.00
    0    4   10     -0.18      0.00
    2    4   10      0.00      0.00
    4    4   10      0.35      0.00
    6    4   10      0.58      0.00
    8    4   10      0.70      0.00
   10    4   10      0.73      0.00
    1    5   10      0.25      0.00
    3    5   10      0.20      0.00
    5    5   10      0.10      0.00
    7    5   10     -0.01      0.00
    9    5   10     -0.05      0.00
    0    6   10     -0.23      0.00
    2    6   10     -0.17      0.00
    4    6   10     -0.08      0.00
    1    0   11     -1.07      0.00
    3    0   11     -2.06      0.00
    5    0   11     -2.70      0.00
    7    0   11     -2.39      0.00
    9    0   11     -1.95      0.00
   11    0   11     -2.03      0.00
   13    0   11     -2.04      0.00
    0    1   11     -4.40      0.00
    2    1   11     -3.89      0.00
    4    1   11     -2.74      0.00
    6    1   11     -1.72      0.00
    8    1   11     -1.18      0.00
   10    1   11     -0.94      0.00
   12    1   11     -0.75      0.00
   14    1   11     -0.53      0.00
    1    2   11      2.12      0.00
    3    2   11      2.67      0.00
    5    2   11      2.84      0.00
    7    2   11      2.29      0.00
    9    2   11      1.63      0.00
   11    2   11      1.39      0.00
   13    2   11      1.17      0.00
    0    3   11      0.93      0.00
    2    3   11      0.85      0.00
    4    3   11      0.72      0.00
    6    3   11      0.76      0.00
    8    3   11      0.96      0.00
   10    3   11      1.10      0.00
   12    3   11      1.00      0.00
    1    4   11     -0.39      0.00
    3    4   11     -0.68      0.00
    5    4   11     -0.94      0.00
    7    4   11     -1.01      0.00
    9    4   11     -0.94      0.00
    0    5   11      0.54      0.00
    2    5   11      0.55      0.00
    4    5   11      0.60      0.00
    6    5   11      0.64      0.00
    0    0   12      2.04      0.00
    2    0   12      2.50      0.00
    4    0   12      3.22      0.00
    6    0   12      3.32      0.00
    8    0   12      2.88      0.00
   10    0   12      2.49      0.00
   12    0   12      2.19      0.00
    1    1   12      1.15      0.00
    3    1   12      0.07      0.00
    5    1   12     -1.05      0.00
    7    1   12     -1.37      0.00
    9    1   12     -1.07      0.00
   11    1   12     -0.70      0.00
    0    2   12     -1.95      0.00
    2    2   12     -2.20      0.00
    4    2   12     -2.51      0.00
    6    2   12     -2.30      0.00
    8    2   12     -1.72      0.00
   10    2   12     -1.25      0.00
   12    2   12     -0.95      0.00
    1    3   12      0.59      0.00
    3    3   12      0.85      0.00
    5    3   12      0.94      0.00
    7    3   12      0.63      0.00
    9    3   12      0.16      0.00
    0    4   12     -0.18      0.00
    2    4   12     -0.02      0.00
    4    4   12      0.26      0.00
    6    4   12      0.42      0.00
    8    4   12      0.42      0.00
    1    5   12     -0.70      0.00
    3    5   12     -0.74      0.00
    1    0   13     -0.36      0.00
    3    0   13     -0.85      0.00
    5    0   13     -1.26      0.00
    7    0   13     -1.33      0.00
    9    0   13     -1.23      0.00
   11    0   13     -1.11      0.00
    0    1   13      0.73      0.00
    2    1   13      1.38      0.00
    4    1   13      2.56      0.00
    6    1   13      3.05      0.00
    8    1   13      2.54      0.00
   10    1   13      1.66      0.00
    1    2   13      0.05      0.00
    3    2   13      0.27      0.00
    5    2   13      0.36      0.00
    7    2   13      0.18      0.00
    9    2   13     -0.02      0.00
    0    3   13     -0.83      0.00
    2    3   13     -1.04      0.00
    4    3   13     -1.34      0.00
    6    3   13     -1.23      0.00
    8    3   13     -0.70      0.00
    1    4   13      0.88      0.00
    3    4   13      0.67      0.00
    5    4   13      0.45      0.00
    0    0   14     -1.71      0.00
    2    0   14     -1.55      0.00
    4    0   14     -1.21      0.00
    6    0   14     -0.81      0.00
    8    0   14     -0.42      0.00
    1    1   14     -0.35      0.00
    3    1   14     -1.36      0.00
    5    1   14     -2.22      0.00
    7    1   14     -2.09      0.00
    9    1   14     -1.25      0.00
    0    2   14      1.58      0.00
    2    2   14      1.53      0.00
    4    2   14      1.44      0.00
    6    2   14      1.35      0.00
    8    2   14      1.21      0.00
    1    3   14     -0.13      0.00
    3    3   14      0.25      0.00
    5    3   14      0.47      0.00
    1    0   15      1.51      0.00
    3    0   15      1.47      0.00
    5    0   15      1.24      0.00
    0    1   15     -1.43      0.00
    2    1   15     -0.89      0.00
    4    1   15      0.09      0.00
    6    1   15      0.51      0.00
    1    2   15     -1.30      0.00
    3    2   15     -1.38      0.00
   19    2    3     -0.80      0.00
   19    0    5      0.05      0.00
   17    3    6     -0.27      0.00
   15    4    7      0.50      0.00
    4    7    7      0.24      0.00
    7    6    9      0.41      0.00
   12    4   10      0.55      0.00
   13    1   12     -0.46      0.00
   11    3   12     -0.12      0.00
    7    0   15      0.76      0.00
    5    2   15     -1.39      0.00
    0    0    0      0.00      0.00
# SQUEEZE RESULTS (Version = 150216)
# Note: Data are Listed for all Voids in the P1 Unit Cell
# i.e. Centre of Gravity, Solvent Accessible Volume,
# Recovered number of Electrons in the Void and
# Details about the Squeezed Material
loop_
  _platon_squeeze_void_nr
  _platon_squeeze_void_average_x
  _platon_squeeze_void_average_y
  _platon_squeeze_void_average_z
  _platon_squeeze_void_volume
  _platon_squeeze_void_count_electrons
  _platon_squeeze_void_content
   1  0.000  0.022  0.500        50        21 ' '
   2  0.500  0.022  1.000        50        21 ' '
_platon_squeeze_void_probe_radius                  1.20
_platon_squeeze_details
)
TITL coz17_07_aI m m a      R = 0.14
CELL   16.5010    6.6194   13.2100     90.00     90.00     90.00
SPGR Imma
# Solvent Accessible Volume =       100
# Electrons Found in S.A.V. =        41
# Note: Atoms in Void as Cxxx and Qxxx all others
C101 0.500 0.740 0.187 !       2.66 eA-3
Q102 0.500 0.356 0.174 !       2.09 eA-3
C103 0.500 0.348-0.003 !       1.19 eA-3
Q104 0.310 0.364 0.045 !       0.94 eA-3
Q105 0.543 0.536 0.122 !       0.93 eA-3
Q106 0.406 0.749 0.047 !       0.79 eA-3
Q107 0.679 0.505 0.029 !       0.77 eA-3
Q108 0.789 0.347 0.139 !       0.75 eA-3
C109 0.500 0.727 0.094 !       0.72 eA-3
Q110 0.413 0.398 0.076 !       0.64 eA-3
Q111 0.841 0.744 0.156 !       0.62 eA-3
Q112 0.417 0.248 0.031 !       0.59 eA-3
Q113 0.777 0.964 0.221 !       0.52 eA-3
)
;
_shelx_fab_checksum              32064
loop_
_symmetry_equiv_pos_as_xyz
'x, y, z'
'-x, -y+1/2, z'
'-x, y+1/2, -z'
'x, -y, -z'
'x+1/2, y+1/2, z+1/2'
'-x+1/2, -y+1, z+1/2'
'-x+1/2, y+1, -z+1/2'
'x+1/2, -y+1/2, -z+1/2'
'-x, -y, -z'
'x, y-1/2, -z'
'x, -y-1/2, z'
'-x, y, z'
'-x+1/2, -y+1/2, -z+1/2'
'x+1/2, y, -z+1/2'
'x+1/2, -y, z+1/2'
'-x+1/2, y+1/2, z+1/2'
loop_
_atom_site_label
_atom_site_type_symbol
_atom_site_fract_x
_atom_site_fract_y
_atom_site_fract_z
_atom_site_U_iso_or_equiv
_atom_site_adp_type
_atom_site_occupancy
_atom_site_calc_flag
_atom_site_disorder_assembly
_atom_site_disorder_group
I1A I 0.7491(4) 0.6634(9) 0.5801(5) 0.068(2) Uani 0.115(2) d A 1
I1B I 0.7971(18) 0.570(4) 0.5511(19) 0.096(7) Uani 0.035(2) d A 1
I2 I 0.6044(10) 0.628(2) 0.8092(11) 0.090(7) Uani 0.054(3) d A 1
Al1 Al 0.5 0.5 0.5 0.0195(13) Uani 1 d A 1
O1 O 0.5 0.25 0.4388(6) 0.021(2) Uani 1 d A 1
H1 H 0.5 0.25 0.3660(17) 0.025 Uiso 1 d B 1
O2 O 0.5831(3) 0.4193(7) 0.5915(3) 0.0312(16) Uani 1 d A 1
C1 C 0.6109(6) 0.25 0.6165(7) 0.027(2) Uani 1 d A 1
C2 C 0.6835(6) 0.25 0.6862(9) 0.038(2) Uani 1 d A 1
C3A C 0.7373(11) 0.412(2) 0.6869(14) 0.051(4) Uani 0.5 d A 1
H3A H 0.7311 0.5196 0.64 0.061 Uiso 0.35 calc A 1
C3B C 0.6985(10) 0.415(2) 0.7416(14) 0.049(3) Uani 0.5 d A 1
H3B H 0.6664 0.5327 0.7332 0.059 Uiso 0.446(3) calc A 1
loop_
_atom_site_aniso_label
_atom_site_aniso_U_11
_atom_site_aniso_U_22
_atom_site_aniso_U_33
_atom_site_aniso_U_23
_atom_site_aniso_U_13
_atom_site_aniso_U_12
I1A 0.060(4) 0.049(3) 0.097(5) 0.036(3) -0.050(3) -0.022(3)
I1B 0.091(10) 0.080(10) 0.116(12) 0.048(8) -0.017(9) -0.002(8)
I2 0.091(10) 0.095(11) 0.085(10) -0.042(8) -0.054(7) 0.056(8)
Al1 0.0194(19) 0.014(2) 0.025(2) 0.0007(13) 0 0
O1 0.023(4) 0.018(4) 0.022(4) 0 0 0
O2 0.033(3) 0.019(2) 0.042(3) -0.0037(17) -0.0148(19) 0.0045(18)
C1 0.028(4) 0.017(4) 0.037(4) 0 -0.005(3) 0
C2 0.037(5) 0.019(4) 0.058(5) 0 -0.024(4) 0
C3A 0.052(7) 0.023(6) 0.078(8) 0.006(5) -0.036(5) -0.001(5)
C3B 0.053(7) 0.020(5) 0.074(7) -0.001(5) -0.040(5) 0.007(5)
loop_
_atom_type_symbol
_atom_type_description
_atom_type_scat_dispersion_real
_atom_type_scat_dispersion_imag
_atom_type_scat_source
C C 0.0033 0.0016 'International Tables Vol C Tables 4.2.6.8 and 6.1.1.4'
H H 0 0 'International Tables Vol C Tables 4.2.6.8 and 6.1.1.4'
O O 0.0106 0.006 'International Tables Vol C Tables 4.2.6.8 and 6.1.1.4'
Al Al 0.0645 0.0514 'International Tables Vol C Tables 4.2.6.8 and 6.1.1.4'
I I -0.4742 1.8119 'International Tables Vol C Tables 4.2.6.8 and 6.1.1.4'
loop_
_geom_angle_atom_site_label_1
_geom_angle_atom_site_label_2
_geom_angle_atom_site_label_3
_geom_angle
_geom_angle_site_symmetry_1
_geom_angle_site_symmetry_3
I1B I1A I1A 125.2(13) . 11_575
I1B I1A I1B 98.7(18) . 11_575
I1B I1A C3A 81.8(11) . .
I1A I1A C3A 139.5(5) 11_575 .
I1B I1A C3A 147.2(9) 11_575 .
I1A I1A I1B 129.0(6) 11_575 4_566
I1B I1A I1B 107.2(9) 11_575 4_566
C3A I1A I1B 90.3(8) . 4_566
I1B I1A I2 60.5(16) . 7_646
I1A I1A I2 94.8(3) 11_575 7_646
I1B I1A I2 80.3(9) 11_575 7_646
C3A I1A I2 71.4(5) . 7_646
I1B I1A I2 92.1(7) 4_566 7_646
I1B I1A I1A 48.7(16) . 4_566
I1A I1A I1A 135.62(18) 11_575 4_566
I1B I1A I1A 120.3(7) 11_575 4_566
C3A I1A I1A 84.7(5) . 4_566
I2 I1A I1A 107.5(5) 7_646 4_566
I1B I1A I2 81.5(16) . 13_666
I1A I1A I2 63.9(3) 11_575 13_666
I1B I1A I2 52.3(9) 11_575 13_666
C3A I1A I2 95.9(5) . 13_666
I1B I1A I2 110.9(7) 4_566 13_666
I1A I1A I2 129.7(3) 4_566 13_666
I1A I1B I1B 128.2(17) . 4_566
I1B I1B I1A 131.7(17) 4_566 11_575
I1A I1B C3A 70.6(11) . .
I1B I1B C3A 112.9(19) 4_566 .
I1A I1B C3A 94.7(12) 11_575 .
I1A I1B I1B 54.8(13) . 11_575
I1B I1B I1B 124.3(15) 4_566 11_575
C3A I1B I1B 117.0(9) . 11_575
I1A I1B I1A 112.1(19) . 4_566
I1A I1B I1A 124.8(13) 11_575 4_566
C3A I1B I1A 97.3(10) . 4_566
I1B I1B I1A 129.0(6) 11_575 4_566
I1A I1B I2 97.3(19) . 7_646
I1B I1B I2 134.4(13) 4_566 7_646
I1A I1B I2 88.8(12) 11_575 7_646
C3A I1B I2 76.8(9) . 7_646
I1B I1B I2 81.1(7) 11_575 7_646
I1A I1B I2 146.4(14) 4_566 7_646
I2 I2 C3B 128.3(7) 11_575 .
I2 I2 I1B 98.9(7) 11_575 7_646
C3B I2 I1B 75.5(7) . 7_646
I2 I2 I1A 85.2(3) 11_575 7_646
C3B I2 I1A 70.9(5) . 7_646
I2 I2 I1A 63.9(3) 11_575 13_666
C3B I2 I1A 86.0(6) . 13_666
O1 Al1 O1 180 . 9_666
O1 Al1 O2 88.5(2) . 9_666
O1 Al1 O2 91.5(2) 9_666 9_666
O1 Al1 O2 91.5(2) . 12_655
O1 Al1 O2 88.5(2) 9_666 12_655
O2 Al1 O2 87.9(3) 9_666 12_655
O1 Al1 O2 88.5(2) . 4_566
O1 Al1 O2 91.5(2) 9_666 4_566
O2 Al1 O2 92.1(3) 9_666 4_566
O2 Al1 O2 180 12_655 4_566
O1 Al1 O2 91.5(2) . .
O1 Al1 O2 88.5(2) 9_666 .
O2 Al1 O2 180 9_666 .
O2 Al1 O2 92.1(3) 12_655 .
O2 Al1 O2 87.9(3) 4_566 .
Al1 O1 Al1 127.9(4) . 2_655
Al1 O1 H1 116.0(2) . .
Al1 O1 H1 116.0(2) 2_655 .
C1 O2 Al1 132.9(5) . .
O2 C1 O2 126.5(8) . 11_565
O2 C1 C2 116.8(4) . .
O2 C1 C2 116.8(4) 11_565 .
C3B C2 C3B 109.4(15) . 11_565
C3B C2 C3A 120.4(11) . 11_565
C3B C2 C3A 120.4(11) 11_565 .
C3A C2 C3A 100.7(16) 11_565 .
C3B C2 C1 118.8(8) . .
C3B C2 C1 118.7(8) 11_565 .
C3A C2 C1 120.6(8) 11_565 .
C3A C2 C1 120.6(8) . .
C2 C3A C3B 119.3(12) . 7_646
C2 C3A I1A 129.6(10) . .
C3B C3A I1A 110.6(11) 7_646 .
C2 C3A I1B 128.2(14) . .
C3B C3A I1B 101.1(14) 7_646 .
C2 C3A H3A 120.3 . .
C3B C3A H3A 120.3 7_646 .
C2 C3B C3A 119.5(12) . 7_646
C2 C3B I2 126.4(12) . .
C3A C3B I2 104.8(12) 7_646 .
C2 C3B H3B 120.2 . .
C3A C3B H3B 120.2 7_646 .
loop_
_geom_bond_atom_site_label_1
_geom_bond_atom_site_label_2
_geom_bond_distance
_geom_bond_site_symmetry_2
I1A I1B 1.08(3) .
I1A I1A 1.147(12) 11_575
I1A I1B 1.97(3) 11_575
I1A C3A 2.190(16) .
I1A I1B 2.45(3) 4_566
I1A I2 2.836(14) 7_646
I1A I1A 3.027(15) 4_566
I1A I2 3.145(16) 13_666
I1B I1B 1.63(6) 4_566
I1B I1A 1.97(3) 11_575
I1B C3A 2.30(2) .
I1B I1B 2.39(6) 11_575
I1B I1A 2.45(3) 4_566
I1B I2 2.49(3) 7_646
I2 I2 1.62(3) 11_575
I2 C3B 2.280(18) .
I2 I1B 2.49(3) 7_646
I2 I1A 2.835(14) 7_646
I2 I1A 3.145(16) 13_666
Al1 O1 1.842(4) .
Al1 O1 1.842(4) 9_666
Al1 O2 1.905(4) 9_666
Al1 O2 1.905(4) 12_655
Al1 O2 1.905(4) 4_566
Al1 O2 1.905(4) .
O1 Al1 1.842(4) 2_655
O1 H1 0.96(2) .
O2 C1 1.255(6) .
C1 O2 1.255(6) 11_565
C1 C2 1.510(13) .
C2 C3B 1.335(15) .
C2 C3B 1.335(15) 11_565
C2 C3A 1.392(16) 11_565
C2 C3A 1.392(17) .
C3A C3B 1.420(19) 7_646
C3A H3A 0.95 .
C3B C3A 1.420(19) 7_646
C3B H3B 0.95 .
