#------------------------------------------------------------------------------
#$Date: 2019-11-17 07:27:49 +0200 (Sun, 17 Nov 2019) $
#$Revision: 228668 $
#$URL: file:///home/coder/svn-repositories/cod/cif/1/54/98/1549832.cif $
#------------------------------------------------------------------------------
#
# This file is available in the Crystallography Open Database (COD),
# http://www.crystallography.net/
#
# All data on this site have been placed in the public domain by the
# contributors.
#
data_1549832
loop_
_publ_author_name
'Conesa-Egea, Javier'
'Nogal, Noem\'i'
'Mart\'inez, Jos\'e Ignacio'
'Fern\'andez-Moreira, Vanesa'
'Rodr\'iguez-Mendoza, Ulises R'
'Gonz\'alez-Platas, Javier'
'G\'omez-Garc\'ia, Carlos J'
'Delgado, Salom\'e'
'Zamora, F\'elix'
'Amo-Ochoa, Pilar'
_publ_section_title
;
 Smart composite films of nanometric thickness based on copper-iodine
 coordination polymers. Toward sensors.
;
_journal_issue                   41
_journal_name_full               'Chemical science'
_journal_page_first              8000
_journal_page_last               8010
_journal_paper_doi               10.1039/c8sc03085e
_journal_volume                  9
_journal_year                    2018
_chemical_formula_moiety         'C7 H8 Cu I N2 O2'
_chemical_formula_sum            'C7 H8 Cu I N2 O2'
_chemical_formula_weight         342.59
_space_group_crystal_system      triclinic
_space_group_IT_number           2
_space_group_name_Hall           '-P 1'
_space_group_name_H-M_alt        'P -1'
_symmetry_space_group_name_Hall  '-P 1'
_symmetry_space_group_name_H-M   'P -1'
_atom_sites_solution_hydrogens   geom
_atom_sites_solution_primary     dual
_audit_creation_date             2017-07-12
_audit_creation_method
;
Olex2 1.2
(compiled 2017.03.28 svn.r3405 for OlexSys, GUI svn.r5337)
;
_audit_update_record
;
2018-03-01 deposited with the CCDC.
2018-08-23 downloaded from the CCDC.
;
_cell_angle_alpha                86.619(15)
_cell_angle_beta                 88.825(7)
_cell_angle_gamma                86.015(14)
_cell_formula_units_Z            2
_cell_length_a                   4.0313(3)
_cell_length_b                   9.110(2)
_cell_length_c                   10.8051(11)
_cell_measurement_reflns_used    924
_cell_measurement_temperature    296(1)
_cell_measurement_theta_max      24.7700
_cell_measurement_theta_min      3.7650
_cell_volume                     395.12(10)
_computing_cell_refinement       'CrysAlisPro 1.171.38.46 (Rigaku OD, 2015)'
_computing_data_collection       'CrysAlisPro 1.171.38.46 (Rigaku OD, 2015)'
_computing_data_reduction        'CrysAlisPro 1.171.38.46 (Rigaku OD, 2015)'
_computing_molecular_graphics    'Olex2 (Dolomanov et al., 2009)'
_computing_publication_material  'Olex2 (Dolomanov et al., 2009)'
_computing_structure_refinement  'ShelXL (Sheldrick, 2015)'
_computing_structure_solution    'ShelXT (Sheldrick, 2015)'
_diffrn_ambient_pressure         4180000(40000)
_diffrn_ambient_temperature      296(1)
_diffrn_detector                 'CCD plate'
_diffrn_detector_area_resol_mean 16.2536
_diffrn_detector_type            EosS2
_diffrn_measured_fraction_theta_full 0.358
_diffrn_measured_fraction_theta_max 0.358
_diffrn_measurement_details
;
List of Runs (angles in degrees, time in seconds):

  # Type    Start    End  Width  t~exp~   \w     \q     \k     \f   Frames
#--------------------------------------------------------------------------
  1  \w    -23.00   4.00   0.50   35.00    --   25.83  97.00 143.00   54
  2  \w    -22.00   4.00   0.50   35.00    --   25.83  97.00 -35.00   52
  3  \w     -9.00  29.00   0.50   35.00    --   25.83 -39.00-167.00   76
  4  \w    -43.00 -17.00   0.50   35.00    --   25.83 134.00 -57.00   52
  5  \w    -21.00   4.00   0.50   35.00    --   25.83  39.00 167.00   50
  6  \w    -27.00   9.00   0.50   35.00    --   25.83   0.00   0.00   72
  7  \w    -19.00  27.00   0.50   35.00    --   25.83  39.00 -12.00   92
  8  \w    -44.00 -17.00   0.50   35.00    --   25.83 134.00 123.00   54
  9  \w    -38.00   7.00   0.50   35.00    --  -26.45   0.00 180.00   90
 10  \w    -62.00   0.00   0.50   35.00    --  -26.45  67.00 157.00  124
 11  \w    -75.00  -8.00   0.50   35.00    --  -26.45  97.00 -35.00  134
 12  \w    -44.00  17.00   0.50   35.00    --  -26.45  13.00  -3.00  122
 13  \w    -26.00  16.00   0.50   35.00    --  -26.45 -39.00  12.00   84
;
_diffrn_measurement_device       'four-circle diffractometer'
_diffrn_measurement_device_type  'SuperNova, Dualflex, EosS2'
_diffrn_measurement_method       '\w scans'
_diffrn_orient_matrix_type
'CrysAlisPro convention (1999,Acta A55,543-557)'
_diffrn_orient_matrix_UB_11      0.0099291000
_diffrn_orient_matrix_UB_12      -0.0775112000
_diffrn_orient_matrix_UB_13      0.0123033000
_diffrn_orient_matrix_UB_21      0.1692090000
_diffrn_orient_matrix_UB_22      -0.0037627000
_diffrn_orient_matrix_UB_23      -0.0196202000
_diffrn_orient_matrix_UB_31      0.0488422000
_diffrn_orient_matrix_UB_32      0.0094737000
_diffrn_orient_matrix_UB_33      0.0615561000
_diffrn_radiation_monochromator  graphite
_diffrn_radiation_probe          x-ray
_diffrn_radiation_type           MoK\a
_diffrn_radiation_wavelength     0.71073
_diffrn_reflns_av_R_equivalents  0.0555
_diffrn_reflns_av_unetI/netI     0.0501
_diffrn_reflns_Laue_measured_fraction_full 0.358
_diffrn_reflns_Laue_measured_fraction_max 0.358
_diffrn_reflns_limit_h_max       4
_diffrn_reflns_limit_h_min       -4
_diffrn_reflns_limit_k_max       4
_diffrn_reflns_limit_k_min       -4
_diffrn_reflns_limit_l_max       12
_diffrn_reflns_limit_l_min       -12
_diffrn_reflns_number            1981
_diffrn_reflns_point_group_measured_fraction_full 0.358
_diffrn_reflns_point_group_measured_fraction_max 0.358
_diffrn_reflns_theta_full        24.993
_diffrn_reflns_theta_max         24.993
_diffrn_reflns_theta_min         1.888
_diffrn_source                   'fine-focus sealed X-ray tube'
_diffrn_source_type              'Enhance (Mo) X-ray Source'
_exptl_absorpt_coefficient_mu    6.631
_exptl_absorpt_correction_T_max  0.290
_exptl_absorpt_correction_T_min  0.216
_exptl_absorpt_correction_type   gaussian
_exptl_absorpt_process_details
;
CrysAlisPro 1.171.38.46 (Rigaku Oxford Diffraction, 2015)
Numerical absorption correction based on gaussian integration over
            a multifaceted crystal model (Absorb Angel (2004) J. Appl. Cryst. 37:486-492)
;
_exptl_crystal_colour            orange
_exptl_crystal_colour_primary    orange
_exptl_crystal_density_diffrn    2.880
_exptl_crystal_description       plate
_exptl_crystal_F_000             324
_exptl_crystal_preparation       'mounted in a diamond-anvil cell '
_exptl_crystal_size_max          0.084
_exptl_crystal_size_mid          0.04
_exptl_crystal_size_min          0.02
_refine_diff_density_max         0.818
_refine_diff_density_min         -1.247
_refine_diff_density_rms         0.217
_refine_ls_extinction_method     none
_refine_ls_goodness_of_fit_ref   1.159
_refine_ls_hydrogen_treatment    constr
_refine_ls_matrix_type           full
_refine_ls_number_parameters     46
_refine_ls_number_reflns         498
_refine_ls_number_restraints     0
_refine_ls_restrained_S_all      1.159
_refine_ls_R_factor_all          0.0749
_refine_ls_R_factor_gt           0.0592
_refine_ls_shift/su_max          0.000
_refine_ls_shift/su_mean         0.000
_refine_ls_structure_factor_coef Fsqd
_refine_ls_weighting_details
'w=1/[\s^2^(Fo^2^)+(0.0636P)^2^+12.0836P] where P=(Fo^2^+2Fc^2^)/3'
_refine_ls_weighting_scheme      calc
_refine_ls_wR_factor_gt          0.1422
_refine_ls_wR_factor_ref         0.1507
_reflns_Friedel_coverage         0.000
_reflns_number_gt                414
_reflns_number_total             498
_reflns_threshold_expression     'I > 2\s(I)'
_cod_data_source_file            c8sc03085e2.cif
_cod_data_source_block           JCE140CS_418GPa
_cod_depositor_comments
'Adding full bibliography for 1549820--1549832.cif.'
_cod_original_cell_volume        395.12(11)
_cod_database_code               1549832
_shelx_shelxl_version_number     2017/1
_shelx_space_group_comment
;
The symmetry employed for this shelxl refinement is uniquely defined
by the following loop, which should always be used as a source of
symmetry information in preference to the above space-group names.
They are only intended as comments.
;
_exptl_oxdiff_absorpt_process_details
;
Gaussian integration over a grid
of 16 x 16 x 16 points =  4096 total grid points
  Based upon method of Burnham (1966)

 Data corrected for diamond-anvil cell absorption
 Note that exptl_absorpt_correction_tmin and _tmax
 the total correction factors applied to the intensities
 The individual factors are:
         range of dac transmission factors (min-max)      0.262     0.352
         range of gasket transmission (min-max)           0.998     1.000
         range of P media transmission (min-max)          1.000     1.000

 thickness of diamond anvil 1: 15.500 mm, mu =  0.0202 mm-1
       thickness of platten 1: 44.000 mm, mu =  0.0047 mm-1

 thickness of diamond anvil 2: 15.500 mm, mu =  0.0202 mm-1
       thickness of platten 2: 44.000 mm, mu =  0.0047 mm-1

    Gasket shadowing corrections were made based upon
    Gasket thickness =  50.0 microns, radius = 110.0 microns
    Gasket absorption coeff =        21.00 mm-1
    REFLECTION WAS CONSIDERED TOTALLY OBSCURED IF
 FRACTION CRYSTAL ILLUMINATED WAS LESS THAN 0.00

    Non-absorbing pressure medium
;
_reflns_odcompleteness_completeness 35.72
_reflns_odcompleteness_iscentric 1
_reflns_odcompleteness_theta     24.97
_olex2_refinement_description
;
1. Fixed Uiso
 At 1.2 times of:
  All C(H) groups, All N(H,H) groups
 At 1.5 times of:
  All C(H,H,H) groups
2. Uiso/Uaniso restraints and constraints
Uanis(Cu1) = Uanis(I1)
3.a Aromatic/amide H refined with riding coordinates:
 C5(H5), C4(H4), C2(H2)
3.b Fitted hexagon refined as free rotating group:
 N1(C5,C4,C3,C2,C1)
3.c X=CH2 refined with riding coordinates:
 N2(H2A,H2B)
3.d Idealised Me refined as rotating group:
 C7(H7A,H7B,H7C)
;
_olex2_submission_special_instructions 'No special instructions were received'
_oxdiff_exptl_absorpt_empirical_details
;
Empirical correction (ABSPACK) includes:
- Absorption correction using spherical harmonics
- Frame scaling
;
_oxdiff_exptl_absorpt_empirical_full_max 1.811
_oxdiff_exptl_absorpt_empirical_full_min 0.594
loop_
_space_group_symop_operation_xyz
'x, y, z'
'-x, -y, -z'
loop_
_atom_site_label
_atom_site_type_symbol
_atom_site_fract_x
_atom_site_fract_y
_atom_site_fract_z
_atom_site_U_iso_or_equiv
_atom_site_adp_type
_atom_site_occupancy
_atom_site_site_symmetry_order
_atom_site_calc_flag
_atom_site_refinement_flags_posn
I1 I 1.2774(3) 0.1217(4) 0.63910(14) 0.016(2) Uani 1 1 d .
Cu1 Cu 0.7931(6) 0.1125(8) 0.4871(3) 0.016(2) Uani 1 1 d .
O1 O 0.251(3) 0.745(5) 0.1481(15) 0.023(4) Uiso 1 1 d .
N1 N 0.719(3) 0.294(3) 0.3650(11) 0.024(5) Uiso 1 1 d .
C5 C 0.477(3) 0.402(3) 0.3964(10) 0.021(5) Uiso 1 1 d G
H5 H 0.365555 0.394134 0.472486 0.025 Uiso 1 1 calc R
C4 C 0.400(3) 0.522(3) 0.3139(12) 0.018(5) Uiso 1 1 d G
H4 H 0.238013 0.594297 0.334850 0.021 Uiso 1 1 calc R
C3 C 0.566(3) 0.534(3) 0.2001(12) 0.015(5) Uiso 1 1 d G
C2 C 0.809(3) 0.426(3) 0.1688(10) 0.015(5) Uiso 1 1 d G
H2 H 0.919886 0.433562 0.092637 0.018 Uiso 1 1 calc R
C1 C 0.885(3) 0.306(3) 0.2512(12) 0.017(5) Uiso 1 1 d G
O2 O 0.658(4) 0.675(5) 0.0176(14) 0.029(4) Uiso 1 1 d .
N2 N 1.116(4) 0.189(6) 0.2239(19) 0.030(5) Uiso 1 1 d .
H2A H 1.217441 0.189573 0.153166 0.036 Uiso 1 1 calc R
H2B H 1.154993 0.117097 0.277857 0.036 Uiso 1 1 calc R
C6 C 0.497(5) 0.660(6) 0.1120(19) 0.015(5) Uiso 1 1 d .
C7 C 0.189(6) 0.870(8) 0.074(2) 0.032(6) Uiso 1 1 d .
H7A H 0.164188 0.844540 -0.009992 0.047 Uiso 1 1 calc GR
H7B H 0.371206 0.931963 0.078393 0.047 Uiso 1 1 calc GR
H7C H -0.011753 0.921840 0.101943 0.047 Uiso 1 1 calc GR
loop_
_atom_site_aniso_label
_atom_site_aniso_U_11
_atom_site_aniso_U_22
_atom_site_aniso_U_33
_atom_site_aniso_U_23
_atom_site_aniso_U_13
_atom_site_aniso_U_12
I1 0.0168(7) 0.007(7) 0.0238(8) 0.0013(16) 0.0009(4) 0.0020(10)
Cu1 0.0168(7) 0.007(7) 0.0238(8) 0.0013(16) 0.0009(4) 0.0020(10)
loop_
_atom_type_symbol
_atom_type_description
_atom_type_scat_dispersion_real
_atom_type_scat_dispersion_imag
_atom_type_scat_source
C C 0.0033 0.0016 'International Tables Vol C Tables 4.2.6.8 and 6.1.1.4'
H H 0.0000 0.0000 'International Tables Vol C Tables 4.2.6.8 and 6.1.1.4'
Cu Cu 0.3201 1.2651 'International Tables Vol C Tables 4.2.6.8 and 6.1.1.4'
I I -0.4742 1.8119 'International Tables Vol C Tables 4.2.6.8 and 6.1.1.4'
N N 0.0061 0.0033 'International Tables Vol C Tables 4.2.6.8 and 6.1.1.4'
O O 0.0106 0.0060 'International Tables Vol C Tables 4.2.6.8 and 6.1.1.4'
loop_
_exptl_crystal_face_index_h
_exptl_crystal_face_index_k
_exptl_crystal_face_index_l
_exptl_crystal_face_perp_dist
1 0 5 0.0101
-1 0 -5 0.0101
5 0 -3 0.0386
-5 0 1 0.0327
0 13 -2 0.0175
0 -13 2 0.0175
loop_
_geom_angle_atom_site_label_1
_geom_angle_atom_site_label_2
_geom_angle_atom_site_label_3
_geom_angle
_geom_angle_site_symmetry_1
_geom_angle_site_symmetry_3
Cu1 I1 Cu1 101.41(9) . 1_655
Cu1 I1 Cu1 58.7(2) . 2_756
Cu1 I1 Cu1 75.87(17) 1_655 2_756
I1 Cu1 I1 121.3(2) . 2_756
I1 Cu1 I1 101.41(9) . 1_455
I1 Cu1 I1 104.13(17) 1_455 2_756
Cu1 Cu1 I1 116.8(3) 2_756 1_455
Cu1 Cu1 I1 61.57(12) 2_756 .
Cu1 Cu1 I1 59.8(2) 2_756 2_756
N1 Cu1 I1 107.0(5) . 2_756
N1 Cu1 I1 115.5(5) . .
N1 Cu1 I1 105.5(4) . 1_455
N1 Cu1 Cu1 137.4(4) . 2_756
C6 O1 C7 114(2) . .
C5 N1 Cu1 117.5(7) . .
C5 N1 C1 120.0 . .
C1 N1 Cu1 122.4(7) . .
N1 C5 H5 120.0 . .
N1 C5 C4 120.0 . .
C4 C5 H5 120.0 . .
C5 C4 H4 120.0 . .
C3 C4 C5 120.0 . .
C3 C4 H4 120.0 . .
C4 C3 C6 121.5(13) . .
C2 C3 C4 120.0 . .
C2 C3 C6 118.5(13) . .
C3 C2 H2 120.0 . .
C3 C2 C1 120.0 . .
C1 C2 H2 120.0 . .
N1 C1 N2 116.7(17) . .
C2 C1 N1 120.0 . .
C2 C1 N2 123.2(16) . .
C1 N2 H2A 120.0 . .
C1 N2 H2B 120.0 . .
H2A N2 H2B 120.0 . .
O1 C6 C3 112(2) . .
O2 C6 O1 127(5) . .
O2 C6 C3 121(4) . .
O1 C7 H7A 109.5 . .
O1 C7 H7B 109.5 . .
O1 C7 H7C 109.5 . .
H7A C7 H7B 109.5 . .
H7A C7 H7C 109.5 . .
H7B C7 H7C 109.5 . .
loop_
_geom_bond_atom_site_label_1
_geom_bond_atom_site_label_2
_geom_bond_distance
_geom_bond_site_symmetry_2
I1 Cu1 2.586(3) .
I1 Cu1 2.623(3) 1_655
I1 Cu1 2.633(6) 2_756
Cu1 Cu1 2.557(12) 2_756
Cu1 N1 2.06(2) .
O1 C6 1.28(4) .
O1 C7 1.37(7) .
N1 C5 1.3900 .
N1 C1 1.3900 .
C5 H5 0.9300 .
C5 C4 1.3900 .
C4 H4 0.9300 .
C4 C3 1.3900 .
C3 C2 1.3900 .
C3 C6 1.47(5) .
C2 H2 0.9300 .
C2 C1 1.3900 .
C1 N2 1.40(4) .
O2 C6 1.20(3) .
N2 H2A 0.8600 .
N2 H2B 0.8600 .
C7 H7A 0.9600 .
C7 H7B 0.9600 .
C7 H7C 0.9600 .
loop_
_exptl_oxdiff_crystal_face_indexfrac_h
_exptl_oxdiff_crystal_face_indexfrac_k
_exptl_oxdiff_crystal_face_indexfrac_l
_exptl_oxdiff_crystal_face_x
_exptl_oxdiff_crystal_face_y
_exptl_oxdiff_crystal_face_z
1.0000 -0.0000 5.0000 0.0714 0.0711 0.3566
-1.0000 0.0000 -5.0000 -0.0714 -0.0711 -0.3566
5.0000 0.0000 -3.0000 0.0127 0.9049 0.0595
-5.0000 -0.0000 1.0000 -0.0373 -0.8657 -0.1827
0.0506 12.5938 -1.9784 -1.0000 0.0000 0.0000
-0.0506 -12.5938 1.9784 1.0000 0.0000 0.0000
