#------------------------------------------------------------------------------
#$Date: 2019-05-24 10:11:19 +0300 (Fri, 24 May 2019) $
#$Revision: 215474 $
#$URL: file:///home/coder/svn-repositories/cod/cif/1/55/11/1551118.cif $
#------------------------------------------------------------------------------
#
# This file is available in the Crystallography Open Database (COD),
# http://www.crystallography.net/
#
# All data on this site have been placed in the public domain by the
# contributors.
#
data_1551118
loop_
_publ_author_name
'Anna Worthy'
'Arnaud Grosjean'
'Michael C. Pfrunder'
'Yanan Xu'
'Cheng Yan'
'Grant Edwards'
'Jack K. Clegg'
'John C. McMurtrie'
_publ_section_title
;
 Atomic resolution of structural changes in elastic crystals of copper(II)
 acetylacetonate
;
_journal_name_full               'Nature Chemistry'
_journal_page_first              65
_journal_page_last               69
_journal_paper_doi               10.1038/nchem.2848
_journal_volume                  10
_journal_year                    2018
_chemical_formula_moiety         'C10 H14 Cu O4'
_chemical_formula_sum            'C10 H14 Cu O4'
_chemical_formula_weight         261.75
_space_group_crystal_system      monoclinic
_space_group_IT_number           14
_space_group_name_Hall           '-P 2yn'
_space_group_name_H-M_alt        'P 1 21/n 1'
_symmetry_space_group_name_Hall  '-P 2yn'
_symmetry_space_group_name_H-M   'P 1 21/n 1'
_atom_sites_solution_hydrogens   geom
_cell_angle_alpha                90
_cell_angle_beta                 92.77(3)
_cell_angle_gamma                90
_cell_formula_units_Z            2
_cell_length_a                   10.259(2)
_cell_length_b                   4.6730(9)
_cell_length_c                   11.230(2)
_cell_measurement_reflns_used    317
_cell_measurement_temperature    100(2)
_cell_measurement_theta_max      29.505
_cell_measurement_theta_min      4.794
_cell_volume                     537.74(18)
_computing_cell_refinement       'XDS (Kabsch, 1993)'
_computing_data_collection       'BluIce (McPhillips, 2002)'
_computing_data_reduction        'XDS (Kabsch, 1993)'
_computing_molecular_graphics    'Olex2 (Dolomanov et al., 2009)'
_computing_publication_material  'Olex2 (Dolomanov et al., 2009)'
_computing_structure_refinement  'ShelXL (Sheldrick, 2015)'
_computing_structure_solution    'Known structure'
_diffrn_ambient_temperature      100(2)
_diffrn_measured_fraction_theta_full 0.188
_diffrn_measured_fraction_theta_max 0.183
_diffrn_measurement_device_type  'ADSC Quantum 315r'
_diffrn_measurement_method       'Phi Scan'
_diffrn_radiation_monochromator  'Silicon Double Crystal'
_diffrn_radiation_type           Synchrotron
_diffrn_radiation_wavelength     0.7108
_diffrn_reflns_av_R_equivalents  0.0545
_diffrn_reflns_av_unetI/netI     0.0383
_diffrn_reflns_Laue_measured_fraction_full 0.188
_diffrn_reflns_Laue_measured_fraction_max 0.183
_diffrn_reflns_limit_h_max       9
_diffrn_reflns_limit_h_min       -14
_diffrn_reflns_limit_k_max       5
_diffrn_reflns_limit_k_min       -6
_diffrn_reflns_limit_l_max       12
_diffrn_reflns_limit_l_min       -1
_diffrn_reflns_number            317
_diffrn_reflns_point_group_measured_fraction_full 0.188
_diffrn_reflns_point_group_measured_fraction_max 0.183
_diffrn_reflns_theta_full        26.000
_diffrn_reflns_theta_max         29.505
_diffrn_reflns_theta_min         4.794
_diffrn_source                   Synchrotron
_exptl_absorpt_coefficient_mu    2.021
_exptl_absorpt_correction_type   multi-scan
_exptl_absorpt_process_details   'XDS (Kabsch, 1993)'
_exptl_crystal_colour            'dark blue'
_exptl_crystal_colour_lustre     .
_exptl_crystal_colour_modifier   dark
_exptl_crystal_colour_primary    blue
_exptl_crystal_density_diffrn    1.617
_exptl_crystal_description       needle
_exptl_crystal_F_000             270
_exptl_crystal_size_max          1
_exptl_crystal_size_mid          0.1
_exptl_crystal_size_min          0.1
_refine_diff_density_max         0.265
_refine_diff_density_min         -0.308
_refine_diff_density_rms         0.075
_refine_ls_extinction_coef       .
_refine_ls_extinction_method     none
_refine_ls_goodness_of_fit_ref   1.080
_refine_ls_hydrogen_treatment    constr
_refine_ls_matrix_type           full
_refine_ls_number_parameters     32
_refine_ls_number_reflns         275
_refine_ls_number_restraints     0
_refine_ls_restrained_S_all      1.080
_refine_ls_R_factor_all          0.0727
_refine_ls_R_factor_gt           0.0592
_refine_ls_shift/su_max          0.000
_refine_ls_shift/su_mean         0.000
_refine_ls_structure_factor_coef Fsqd
_refine_ls_weighting_details
'w=1/[\s^2^(Fo^2^)+(0.0817P)^2^+3.0091P] where P=(Fo^2^+2Fc^2^)/3'
_refine_ls_weighting_scheme      calc
_refine_ls_wR_factor_gt          0.1444
_refine_ls_wR_factor_ref         0.1538
_reflns_Friedel_coverage         0.000
_reflns_Friedel_fraction_full    .
_reflns_Friedel_fraction_max     .
_reflns_number_gt                224
_reflns_number_total             275
_reflns_threshold_expression     'I > 2\s(I)'
_cod_data_source_file            nchem.2848-s6-b.cif
_cod_data_source_block           b
_cod_depositor_comments
;
The following automatic conversions were performed:

'_exptl_absorpt_correction_type' value 'Multi-Scan' changed to
'multi-scan' according to the built-in table from CIF Core dictionary
named 'cif_core.dic' version 2.4.5 from 2014-11-21.

Automatic conversion script
Id: cif_fix_values 6524 2018-11-02 12:15:13Z antanas 
;
_cod_original_cell_volume        537.74(19)
_cod_database_code               1551118
_shelx_space_group_comment
;
The symmetry employed for this shelxl refinement is uniquely defined
by the following loop, which should always be used as a source of
symmetry information in preference to the above space-group names.
They are only intended as comments.
;
_shelx_estimated_absorpt_t_max   0.823
_shelx_estimated_absorpt_t_min   0.237
_olex2_refinement_description
;
1. Fixed Uiso
 At 1.2 times of:
  All C(H) groups
 At 1.5 times of:
  All C(H,H,H) groups
2.a Aromatic/amide H refined with riding coordinates:
 C3(H3)
2.b Idealised Me refined as rotating group:
 C1(H1a,H1b,H1c), C5(H5a,H5c,H5b)
;
_shelx_res_file
;
TITL 5 in P2(1)/n
CELL 0.71073 10.259 4.673 11.23 90 92.768 90
ZERR 2 0.00205 0.00093 0.00225 0 0.03 0
LATT 1
SYMM 0.5-X,0.5+Y,0.5-Z
SFAC C H Cu O
UNIT 20 28 2 8

L.S. 50
PLAN  25
SIZE 0.1 0.1 1
TEMP -173(2)
LIST 1
MORE -1
BOND $H
CONF
fmap 2
acta 52
REM <olex2.extras>
REM <HklSrc "%.\\b.hkl">
REM </olex2.extras>

WGHT    0.081700    3.009100
FVAR       0.75799
C1    1    0.179994   -0.062028    0.449702    11.00000    0.01273
AFIX 137
H1A   2    0.118818    0.082793    0.476461    11.00000   -1.50000
H1B   2    0.192777   -0.209084    0.511379    11.00000   -1.50000
H1C   2    0.144530   -0.150465    0.375929    11.00000   -1.50000
AFIX   0
C2    1    0.310211    0.078770    0.426931    11.00000    0.01066
C3    1    0.391452   -0.028070    0.339204    11.00000    0.01750
AFIX  43
H3    2    0.361331   -0.189594    0.294478    11.00000   -1.20000
AFIX   0
C4    1    0.512117    0.085073    0.313307    11.00000    0.01142
C5    1    0.583634   -0.048923    0.213629    11.00000    0.01725
AFIX 137
H5A   2    0.642400    0.092459    0.180460    11.00000   -1.50000
H5C   2    0.520552   -0.113846    0.151077    11.00000   -1.50000
H5B   2    0.634542   -0.212679    0.244411    11.00000   -1.50000
AFIX   0
O1    4    0.336984    0.296581    0.494272    11.00000    0.01257
O2    4    0.565322    0.300864    0.364244    11.00000    0.01145
CU1   3    0.500000    0.500000    0.500000    10.50000    0.00996
HKLF 4

REM  5 in P2(1)/n
REM R1 =  0.0592 for     224 Fo > 4sig(Fo)  and  0.0727 for all     275 data
REM     32 parameters refined using      0 restraints

END

WGHT      0.0816      3.0124

REM Highest difference peak  0.265,  deepest hole -0.308,  1-sigma level  0.075
Q1    1   0.5645  0.5545  0.4232  11.00000  0.05    0.26
Q2    1   0.6593 -0.1594  0.3778  11.00000  0.05    0.26
Q3    1   0.6509 -0.0094  0.2359  11.00000  0.05    0.25
Q4    1   0.6266 -0.1314  0.3797  11.00000  0.05    0.24
Q5    1   0.2633 -0.0298  0.6066  11.00000  0.05    0.24
Q6    1   0.7581 -0.0169  0.2240  11.00000  0.05    0.24
Q7    1   0.5290  0.7023  0.5164  11.00000  0.05    0.23
Q8    1   0.3989 -0.2376  0.2176  11.00000  0.05    0.23
Q9    1   0.4536  0.4896  0.2714  11.00000  0.05    0.23
Q10   1   0.7037 -0.2875  0.2472  11.00000  0.05    0.23
Q11   1   0.0983 -0.2524  0.2919  11.00000  0.05    0.23
Q12   1   0.4531  0.5487  0.4780  11.00000  0.05    0.23
Q13   1   0.4588  0.1165  0.2168  11.00000  0.05    0.23
Q14   1   0.1763  0.3464  0.4910  11.00000  0.05    0.22
Q15   1   0.4361  0.0084  0.2952  11.00000  0.05    0.21
Q16   1   0.1401  0.0036  0.5658  11.00000  0.05    0.21
Q17   1   0.5309 -0.0405  0.1027  11.00000  0.05    0.21
Q18   1   0.7228  0.3634  0.2006  11.00000  0.05    0.21
Q19   1   0.5088  0.0109  0.1379  11.00000  0.05    0.20
Q20   1   0.3633 -0.2392  0.4177  11.00000  0.05    0.20
Q21   1   0.4898 -0.0057  0.0623  11.00000  0.05    0.20
Q22   1   0.5225  0.0048  0.1952  11.00000  0.05    0.20
Q23   1   0.4576  0.1910  0.5633  11.00000  0.05    0.19
Q24   1   0.6997  0.3323  0.2162  11.00000  0.05    0.19
Q25   1   0.3088 -0.1717  0.4916  11.00000  0.05    0.19
;
_shelx_res_checksum              95602
_shelx_hkl_file
;
   2   0   1    0.33    0.46
  -4   0  -1    1.65    0.76
  -5   0  -1 2978.00   60.17
   6   0   5   -1.41    1.74
  -6   0  -1    0.60    1.21
   7   0   7  198.40    5.73
   7   0   6    0.61    2.88
  -7   0  -1  741.00   15.34
   8   0  10  152.10    7.22
   8   0   9   -0.65    4.84
   8   0   8  131.60    5.43
   9   0  11   27.30    7.84
  -9   0   0   -1.33    2.28
 -10   0   0  515.30   11.38
 -12   0   1   -1.43    4.31
 -13   0   2    8.16    5.93
 -14   0   2   18.97    7.39
 -14   0   3   -7.97    7.41
 -13   1   2  191.30    6.42
 -11   1   1    2.43    2.70
  -9   1   0   64.00    2.12
   8  -1   9  103.50    4.80
   8  -1  10    3.35    4.71
   6  -1   5  591.60   12.55
  -1   1   0  199.00    4.29
   0  -1   0    0.94    0.86
   1   1   1  573.70   11.87
   3   1   2 1803.00   36.53
  -3  -1  -1   30.96    1.53
   4   1   3 1394.00   28.45
  -4  -1  -1  908.00   18.68
   5   1   4  838.10   17.47
  -5  -1  -1  186.10    4.53
   6   1   6    1.11    2.70
   6   1   5  694.20   14.74
  -6  -1  -1  247.80    5.77
   7   1   7   31.20    4.46
   7   1   6  284.60    7.71
  -7  -1  -1    2.30    1.98
   8   1  12   23.08    6.67
   8   1  11  149.00    8.02
   8   1  10   -0.65    5.93
   8   1   9  111.80    6.36
   8   1   8   31.21    4.86
  -8  -1  -1  360.90    8.26
  -9  -1   0   56.68    3.73
 -10  -1   0   31.75    3.96
 -11  -1   1    2.16    4.45
 -12  -1   1  259.50    8.53
 -13  -1   1    4.67    5.55
 -13  -1   2  215.60    8.35
 -14  -1   2    3.26    7.72
  -6   2   0  538.30   11.27
  -5   2   0  197.70    4.47
  -4   2   0  997.20   20.43
   4  -2   3    4.43    1.29
  -3   2   0   64.62    2.14
   3  -2   2   34.29    1.63
  -1   2   1  786.90   16.31
   1  -2   1  208.10    4.87
   0   2   1   93.01    2.87
   1   2   2   55.61    2.34
  -1  -2   0   18.85    1.74
   2   2   3   71.49    2.65
   2   2   2  134.90    3.74
  -2  -2   0 1213.00   24.94
   3   2   3 1279.00   26.33
  -3  -2   0   56.76    2.44
   4   2   5   -4.83    2.56
   4   2   4 1274.00   26.33
  -4  -2  -1   61.18    2.68
  -4  -2   0  995.70   20.67
   5   2   6   62.36    4.20
   5   2   5  685.20   14.82
  -5  -2  -1  561.20   12.15
  -5  -2   0  221.50    5.59
   6   2   8  175.60    6.41
   6   2   7   11.00    4.38
   6   2   6  283.60    8.00
  -6  -2  -1  323.90    7.70
  -6  -2   0  575.90   12.56
   7   2  12   16.50    6.60
   7   2  11   42.30    6.51
   7   2  10    4.34    6.20
   7   2   9  223.80    7.38
   7   2   8   21.10    4.81
   7   2   7  402.50   10.25
  -7  -2  -1  374.60    8.75
  -7  -2   0   16.40    3.09
   8   2  11   -9.50    6.45
   8   2  10  166.80    7.33
  -8  -2   0  592.90   13.41
  -9  -2   0   42.20    4.11
 -10  -2   0  664.80   15.31
 -10  -2   1   53.27    5.02
 -11  -2   1  210.70    7.49
 -12  -2   1   10.18    5.57
 -12  -2   2   67.86    6.42
 -13  -2   2    6.92    6.63
 -13  -2   3  267.90    9.32
 -11   3   3   -0.50    4.03
  -9   3   2  352.80    8.35
  -8   3   2    6.19    2.96
   7  -3  10   95.70    5.27
  -6   3   1  622.10   13.46
   6  -3   7  288.40    7.00
  -5   3   1   59.47    2.91
   5  -3   5    5.99    2.24
   5  -3   6  583.90   12.75
  -4   3   1 1237.00   25.49
   4  -3   4    9.85    2.54
  -3   3   2  849.20   17.83
  -3   3   1    6.00    2.21
   3  -3   3  113.40    3.78
  -2   3   2    9.71    2.32
   2  -3   2   13.49    2.37
   2  -3   3 1148.00   23.88
  -1   3   2  672.40   14.40
   1  -3   2  967.90   20.29
   0   3   3  627.60   13.59
   0   3   2    3.79    2.27
   0  -3   1   86.50    3.43
   0  -3   2    3.32    2.34
   1   3   4  765.00   16.55
   1   3   3   27.23    2.67
  -1  -3   1   11.96    2.58
   2   3   5  568.40   12.69
   2   3   4  163.30    5.14
   2   3   3 1231.00   25.65
  -2  -3   0   40.62    3.05
  -2  -3   1 1049.00   22.04
   3   3   6  937.30   20.09
   3   3   5  207.80    6.26
   3   3   4  630.50   14.00
  -3  -3   0  794.60   17.08
  -3  -3   1    4.07    2.79
   4   3   7  687.50   15.35
   4   3   6   72.27    4.45
   4   3   5  800.30   17.42
  -4  -3   0   -3.43    2.84
  -4  -3   1 1495.00   31.17
   5   3  10   40.43    5.27
   5   3   9   15.16    4.74
   5   3   8   82.58    5.30
   5   3   7  184.10    6.41
   5   3   6  647.20   14.62
  -5  -3   0  872.50   18.80
  -5  -3   1   68.86    3.69
   6   3  11   98.61    6.63
   6   3  10   95.76    6.49
   6   3   9   45.15    5.63
   6   3   8   -1.54    4.87
   6   3   7  398.10    9.88
  -6  -3   0   80.02    4.15
  -6  -3   1  544.00   12.40
   7   3  11   -0.15    6.44
   7   3  10  108.60    6.90
  -7  -3   0  495.40   11.53
  -7  -3   1  122.90    4.89
  -8  -3   0   45.77    4.23
  -8  -3   1  438.80   10.50
  -9  -3   0  294.20    8.07
  -9  -3   1   28.75    4.49
  -9  -3   2  394.50    9.84
 -10  -3   1  129.30    6.54
 -10  -3   2    1.31    5.02
 -11  -3   1   -5.21    5.76
 -11  -3   2  107.20    6.53
 -11  -3   3    3.68    5.22
 -12  -3   2   31.09    6.16
 -12  -3   3   32.82    5.82
 -10   4   5    9.08    7.21
  -9   4   4    6.59    6.07
  -8   4   4  173.70    7.16
  -8   4   3   67.26    5.68
  -7   4   4    5.48    5.04
  -7   4   3  255.00    7.79
  -6   4   4  321.50    8.82
  -6   4   3   75.21    5.29
   6  -4  10   85.01    9.34
  -5   4   4   12.06    4.35
  -5   4   3  416.90   10.59
   5  -4   7  154.80    6.56
   5  -4   8    2.16    6.00
   5  -4   9  364.30   10.17
  -4   4   4  255.80    7.65
  -4   4   3   10.80    4.60
   4  -4   6   67.78    5.10
   4  -4   7   43.28    5.14
  -3   4   4  465.40   11.26
  -3   4   3  425.30   10.46
   3  -4   5  163.30    6.06
   3  -4   6   70.41    4.82
  -2   4   4  158.70    5.84
  -2   4   3  246.90    7.11
   2  -4   5    6.75    3.87
  -1   4   5  194.60    6.33
  -1   4   4  107.10    4.88
  -1   4   3  407.60   10.01
   1  -4   3  396.80    9.57
   1  -4   4   40.39    4.03
   0   4   6  465.60   11.20
   0   4   5   29.56    3.96
   0   4   4  431.30   10.54
   0  -4   2  385.60    9.33
   0  -4   3   53.45    3.92
   1   4   7  403.00   10.18
   1   4   6   17.67    4.19
   1   4   5  427.50   10.44
   1   4   4   56.91    4.20
  -1  -4   2   41.29    3.58
  -1  -4   3  400.50    9.70
   2   4   8  180.80    6.52
   2   4   7   -1.21    4.21
   2   4   6  171.20    6.01
   2   4   5   10.14    4.07
  -2  -4   1    1.65    3.11
  -2  -4   2  484.50   11.21
  -2  -4   3  257.70    7.09
   3   4  10   26.25    5.27
   3   4   9  168.80    6.37
   3   4   8    5.29    4.52
   3   4   7  112.10    5.43
   3   4   6   80.31    4.80
  -3  -4   1  308.90    7.96
  -3  -4   2    6.65    3.35
   4   4  11   11.95    5.74
   4   4  10  193.50    7.27
   4   4   9    6.05    4.88
   4   4   8  313.00    8.93
   4   4   7   29.49    4.87
  -4  -4   1  529.00   12.14
  -4  -4   2  518.10   11.97
   5   4  10   90.62    6.34
   5   4   9  326.40    9.25
   5   4   8    3.80    4.23
  -5  -4   1  169.70    5.81
  -5  -4   2  115.10    5.00
  -6  -4   1    7.30    4.00
  -6  -4   2  344.30    8.98
  -7  -4   1  204.90    6.72
  -7  -4   2   96.66    5.07
  -7  -4   3  304.30    8.33
  -8  -4   1   51.29    4.72
  -8  -4   2  262.90    7.96
  -8  -4   3   63.72    5.04
  -9  -4   1  169.50    6.49
  -9  -4   2  102.60    5.83
  -9  -4   3  188.20    6.96
 -10  -4   2  161.90    7.25
 -10  -4   3   25.16    5.63
 -10  -4   4  117.50    6.59
 -11  -4   2    6.31    5.97
  -8   5   5  209.70    8.91
  -7   5   6  266.30    9.36
  -7   5   5   -3.37    6.74
  -6   5   7   84.48    6.42
  -6   5   6    0.06    5.93
  -6   5   5  432.70   11.54
  -5   5   7   10.72    5.57
  -5   5   6  240.50    8.47
  -5   5   5    8.27    5.78
  -4   5   8   -1.73    5.43
  -4   5   7   96.16    6.12
  -4   5   6    0.38    5.55
  -4   5   5  325.10    9.22
   4  -5   8   36.36    7.15
  -3   5   8   30.59    5.80
  -3   5   6  337.10   10.34
  -3   5   5    8.39    5.19
   3  -5   7   -3.79    6.00
   3  -5   8  116.40    6.98
   3  -5   9   -2.97    6.91
  -2   5   9   58.31    6.04
  -2   5   8   -1.53    5.49
  -2   5   7  212.00    7.46
  -2   5   6   64.38    5.60
  -2   5   5  493.60   12.29
   2  -5   6    4.15    5.22
   2  -5   7  265.00    8.65
   2  -5   8   18.09    6.23
  -1   5   9   -0.14    5.57
  -1   5   8  188.70    6.87
  -1   5   7    0.54    4.98
  -1   5   6  508.20   12.45
   1  -5   5    9.57    4.96
   1  -5   6  181.70    6.98
   1  -5   7    3.82    5.55
   0   5   9  174.50    6.91
   0   5   8   68.34    6.03
   0   5   7  252.40    7.82
   0   5   6    7.44    4.86
   0  -5   4    4.51    5.14
   0  -5   5  306.40    8.56
   0  -5   6    2.32    5.22
   1   5   9   -6.35    5.45
   1   5   8  262.40    8.24
   1   5   7    2.96    5.16
  -1  -5   3    1.34    4.09
  -1  -5   4  402.80   10.22
  -1  -5   5   19.19    4.64
   2   5   9  212.80    7.87
   2   5   8    8.20    5.38
  -2  -5   3   42.65    4.70
  -2  -5   4   39.86    4.55
  -2  -5   5  478.10   11.60
   3   5   9   -6.09    5.75
  -3  -5   3   86.44    5.04
  -3  -5   4  144.20    5.91
  -3  -5   5    8.07    4.77
  -4  -5   3   14.78    4.40
  -4  -5   4   -0.21    4.55
  -4  -5   5  350.30    9.61
  -5  -5   2   64.70    4.67
  -5  -5   3    5.04    4.69
  -5  -5   4  233.80    7.62
  -5  -5   5   17.20    5.45
  -6  -5   2   -6.52    4.31
  -6  -5   3  292.90    8.73
  -6  -5   4  -11.09    5.12
  -6  -5   5  447.60   11.52
  -7  -5   3    1.49    5.07
  -7  -5   4  454.00   11.51
  -7  -5   5   -2.77    5.62
  -8  -5   3  134.70    7.03
  -8  -5   4    7.61    5.71
  -8  -5   5  183.50    7.63
  -3  -6   5   46.70    6.99
   0   0   0    0.00    0.00
;
_shelx_hkl_checksum              53246
_olex2_submission_special_instructions 'No special instructions were received'
loop_
_space_group_symop_operation_xyz
'x, y, z'
'-x+1/2, y+1/2, -z+1/2'
'-x, -y, -z'
'x-1/2, -y-1/2, z-1/2'
loop_
_atom_site_label
_atom_site_type_symbol
_atom_site_fract_x
_atom_site_fract_y
_atom_site_fract_z
_atom_site_U_iso_or_equiv
_atom_site_adp_type
_atom_site_occupancy
_atom_site_site_symmetry_order
_atom_site_calc_flag
_atom_site_refinement_flags_posn
_atom_site_refinement_flags_adp
_atom_site_refinement_flags_occupancy
_atom_site_disorder_assembly
_atom_site_disorder_group
C1 C 0.1800(11) -0.0620(16) 0.4497(13) 0.0127(18) Uiso 1 1 d . . . . .
H1A H 0.1188 0.0828 0.4765 0.019 Uiso 1 1 calc GR . . . .
H1B H 0.1928 -0.2091 0.5114 0.019 Uiso 1 1 calc GR . . . .
H1C H 0.1445 -0.1505 0.3759 0.019 Uiso 1 1 calc GR . . . .
C2 C 0.3102(10) 0.0788(16) 0.4269(12) 0.0107(17) Uiso 1 1 d . . . . .
C3 C 0.3915(13) -0.0281(18) 0.3392(15) 0.0175(19) Uiso 1 1 d . . . . .
H3 H 0.3613 -0.1896 0.2945 0.021 Uiso 1 1 calc R . . . .
C4 C 0.5121(10) 0.0851(18) 0.3133(12) 0.0114(17) Uiso 1 1 d . . . . .
C5 C 0.5836(11) -0.0489(18) 0.2136(15) 0.017(2) Uiso 1 1 d . . . . .
H5A H 0.6424 0.0925 0.1805 0.026 Uiso 1 1 calc GR . . . .
H5C H 0.5206 -0.1138 0.1511 0.026 Uiso 1 1 calc GR . . . .
H5B H 0.6345 -0.2127 0.2444 0.026 Uiso 1 1 calc GR . . . .
O1 O 0.3370(8) 0.2966(11) 0.4943(9) 0.0126(14) Uiso 1 1 d . . . . .
O2 O 0.5653(7) 0.3009(12) 0.3642(9) 0.0115(13) Uiso 1 1 d . . . . .
Cu1 Cu 0.5000 0.5000 0.5000 0.0100(6) Uiso 1 2 d S T P . .
loop_
_atom_type_symbol
_atom_type_description
_atom_type_scat_dispersion_real
_atom_type_scat_dispersion_imag
_atom_type_scat_source
C C 0.0033 0.0016 'International Tables Vol C Tables 4.2.6.8 and 6.1.1.4'
H H 0.0000 0.0000 'International Tables Vol C Tables 4.2.6.8 and 6.1.1.4'
Cu Cu 0.3201 1.2651 'International Tables Vol C Tables 4.2.6.8 and 6.1.1.4'
O O 0.0106 0.0060 'International Tables Vol C Tables 4.2.6.8 and 6.1.1.4'
loop_
_geom_angle_atom_site_label_1
_geom_angle_atom_site_label_2
_geom_angle_atom_site_label_3
_geom_angle
_geom_angle_site_symmetry_1
_geom_angle_site_symmetry_3
H1A C1 H1B 109.5 . .
H1A C1 H1C 109.5 . .
H1B C1 H1C 109.5 . .
C2 C1 H1A 109.5 . .
C2 C1 H1B 109.5 . .
C2 C1 H1C 109.5 . .
C3 C2 C1 121.1(10) . .
O1 C2 C1 114.0(11) . .
O1 C2 C3 124.9(10) . .
C2 C3 H3 117.5 . .
C4 C3 C2 125.0(10) . .
C4 C3 H3 117.5 . .
C3 C4 C5 118.0(9) . .
O2 C4 C3 125.2(12) . .
O2 C4 C5 116.8(11) . .
C4 C5 H5A 109.5 . .
C4 C5 H5C 109.5 . .
C4 C5 H5B 109.5 . .
H5A C5 H5C 109.5 . .
H5A C5 H5B 109.5 . .
H5C C5 H5B 109.5 . .
C2 O1 Cu1 124.8(9) . .
C4 O2 Cu1 125.4(9) . .
O1 Cu1 O1 180.0 3_666 .
O1 Cu1 O2 94.0(3) 3_666 3_666
O1 Cu1 O2 86.0(3) 3_666 .
O1 Cu1 O2 86.0(3) . 3_666
O1 Cu1 O2 94.0(3) . .
O2 Cu1 O2 180.0 . 3_666
loop_
_geom_bond_atom_site_label_1
_geom_bond_atom_site_label_2
_geom_bond_distance
_geom_bond_site_symmetry_2
C1 H1A 0.9800 .
C1 H1B 0.9800 .
C1 H1C 0.9800 .
C1 C2 1.522(16) .
C2 C3 1.41(2) .
C2 O1 1.290(11) .
C3 H3 0.9500 .
C3 C4 1.390(17) .
C4 C5 1.50(2) .
C4 O2 1.270(11) .
C5 H5A 0.9800 .
C5 H5C 0.9800 .
C5 H5B 0.9800 .
O1 Cu1 1.922(7) .
O2 Cu1 1.933(10) .
Cu1 O1 1.922(8) 3_666
Cu1 O2 1.933(10) 3_666
loop_
_geom_torsion_atom_site_label_1
_geom_torsion_atom_site_label_2
_geom_torsion_atom_site_label_3
_geom_torsion_atom_site_label_4
_geom_torsion
_geom_torsion_site_symmetry_1
_geom_torsion_site_symmetry_2
_geom_torsion_site_symmetry_3
_geom_torsion_site_symmetry_4
C1 C2 C3 C4 -179.3(10) . . . .
C1 C2 O1 Cu1 173.6(7) . . . .
C2 C3 C4 C5 -177.7(12) . . . .
C2 C3 C4 O2 -1(2) . . . .
C3 C2 O1 Cu1 -6.1(17) . . . .
C3 C4 O2 Cu1 6.5(16) . . . .
C5 C4 O2 Cu1 -176.3(7) . . . .
O1 C2 C3 C4 0(2) . . . .
