#------------------------------------------------------------------------------
#$Date: 2019-05-24 11:59:48 +0300 (Fri, 24 May 2019) $
#$Revision: 215482 $
#$URL: file:///home/coder/svn-repositories/cod/cif/1/55/11/1551124.cif $
#------------------------------------------------------------------------------
#
# This file is available in the Crystallography Open Database (COD),
# http://www.crystallography.net/
#
# All data on this site have been placed in the public domain by the
# contributors.
#
data_1551124
loop_
_publ_author_name
'Anna Worthy'
'Arnaud Grosjean'
'Michael C. Pfrunder'
'Yanan Xu'
'Cheng Yan'
'Grant Edwards'
'Jack K. Clegg'
'John C. McMurtrie'
_publ_section_title
;
 Atomic resolution of structural changes in elastic crystals of copper(II)
 acetylacetonate
;
_journal_name_full               'Nature Chemistry'
_journal_page_first              65
_journal_page_last               69
_journal_paper_doi               10.1038/nchem.2848
_journal_volume                  10
_journal_year                    2018
_chemical_formula_moiety         'C10 H14 Cu O4'
_chemical_formula_sum            'C10 H14 Cu O4'
_chemical_formula_weight         261.75
_space_group_crystal_system      monoclinic
_space_group_IT_number           14
_space_group_name_Hall           '-P 2yn'
_space_group_name_H-M_alt        'P 1 21/n 1'
_symmetry_space_group_name_Hall  '-P 2yn'
_symmetry_space_group_name_H-M   'P 1 21/n 1'
_atom_sites_solution_hydrogens   geom
_cell_angle_alpha                90
_cell_angle_beta                 92.33(3)
_cell_angle_gamma                90
_cell_formula_units_Z            2
_cell_length_a                   10.278(2)
_cell_length_b                   4.6290(9)
_cell_length_c                   11.318(2)
_cell_measurement_reflns_used    283
_cell_measurement_temperature    100(2)
_cell_measurement_theta_max      29.607
_cell_measurement_theta_min      9.684
_cell_volume                     538.03(18)
_computing_cell_refinement       'XDS (Kabsch, 1993)'
_computing_data_collection       'BluIce (McPhillips, 2002)'
_computing_data_reduction        'XDS (Kabsch, 1993)'
_computing_molecular_graphics    'Olex2 (Dolomanov et al., 2009)'
_computing_publication_material  'Olex2 (Dolomanov et al., 2009)'
_computing_structure_refinement  'ShelXL (Sheldrick, 2015)'
_computing_structure_solution    'Known Structure'
_diffrn_ambient_temperature      100(2)
_diffrn_measured_fraction_theta_full 0.189
_diffrn_measured_fraction_theta_max 0.187
_diffrn_measurement_device_type  'ADSC Quantum 315r'
_diffrn_measurement_method       'Phi Scan'
_diffrn_radiation_monochromator  'Silicon Double Crystal'
_diffrn_radiation_type           Synchrotron
_diffrn_radiation_wavelength     0.7108
_diffrn_reflns_av_unetI/netI     0.0211
_diffrn_reflns_Laue_measured_fraction_full 0.189
_diffrn_reflns_Laue_measured_fraction_max 0.187
_diffrn_reflns_number            283
_diffrn_reflns_point_group_measured_fraction_full 0.189
_diffrn_reflns_point_group_measured_fraction_max 0.187
_diffrn_reflns_theta_full        26.000
_diffrn_reflns_theta_max         29.607
_diffrn_reflns_theta_min         9.684
_diffrn_source                   Synchrotron
_exptl_absorpt_coefficient_mu    2.020
_exptl_absorpt_correction_type   multi-scan
_exptl_absorpt_process_details   'XDS (Kabsch, 1993)'
_exptl_crystal_colour            'dark blue'
_exptl_crystal_colour_lustre     .
_exptl_crystal_colour_modifier   dark
_exptl_crystal_colour_primary    blue
_exptl_crystal_density_diffrn    1.616
_exptl_crystal_description       needle
_exptl_crystal_F_000             270
_exptl_crystal_size_max          1
_exptl_crystal_size_mid          0.05
_exptl_crystal_size_min          0.05
_refine_diff_density_max         0.382
_refine_diff_density_min         -0.457
_refine_diff_density_rms         0.061
_refine_ls_extinction_coef       .
_refine_ls_extinction_method     none
_refine_ls_goodness_of_fit_ref   1.135
_refine_ls_hydrogen_treatment    constr
_refine_ls_matrix_type           full
_refine_ls_number_parameters     32
_refine_ls_number_reflns         283
_refine_ls_number_restraints     0
_refine_ls_restrained_S_all      1.135
_refine_ls_R_factor_all          0.0599
_refine_ls_R_factor_gt           0.0540
_refine_ls_shift/su_max          0.000
_refine_ls_shift/su_mean         0.000
_refine_ls_structure_factor_coef Fsqd
_refine_ls_weighting_details
'w=1/[\s^2^(Fo^2^)+(0.0253P)^2^+3.1118P] where P=(Fo^2^+2Fc^2^)/3'
_refine_ls_weighting_scheme      calc
_refine_ls_wR_factor_gt          0.1180
_refine_ls_wR_factor_ref         0.1217
_reflns_Friedel_coverage         0.000
_reflns_Friedel_fraction_full    .
_reflns_Friedel_fraction_max     .
_reflns_number_gt                255
_reflns_number_total             283
_reflns_threshold_expression     'I > 2\s(I)'
_cod_data_source_file            nchem.2848-s5-i.cif
_cod_data_source_block           i
_cod_depositor_comments
;
The following automatic conversions were performed:

'_exptl_absorpt_correction_type' value 'Multi-Scan' changed to
'multi-scan' according to the built-in table from CIF Core dictionary
named 'cif_core.dic' version 2.4.5 from 2014-11-21.

Automatic conversion script
Id: cif_fix_values 6524 2018-11-02 12:15:13Z antanas 
;
_cod_original_cell_volume        538.03(19)
_cod_database_code               1551124
_shelx_space_group_comment
;
The symmetry employed for this shelxl refinement is uniquely defined
by the following loop, which should always be used as a source of
symmetry information in preference to the above space-group names.
They are only intended as comments.
;
_shelx_estimated_absorpt_t_max   0.906
_shelx_estimated_absorpt_t_min   0.237
_olex2_refinement_description
;
1. Fixed Uiso
 At 1.2 times of:
  All C(H) groups
 At 1.5 times of:
  All C(H,H,H) groups
2.a Aromatic/amide H refined with riding coordinates:
 C3(H3)
2.b Idealised Me refined as rotating group:
 C1(H1A,H1B,H1C), C5(H5A,H5B,H5C)
;
_shelx_res_file
;
TITL 12 in P2(1)/n
CELL 0.71073 10.278 4.629 11.318 90 92.327 90
ZERR 2 0.00206 0.00093 0.00226 0 0.03 0
LATT 1
SYMM 0.5-X,0.5+Y,0.5-Z
SFAC C H Cu O
UNIT 20 28 2 8

L.S. 50
PLAN  25
SIZE 0.05 0.05 1
TEMP -173(2)
LIST 1
MORE -1
BOND $H
CONF
fmap 2
acta 52
REM <olex2.extras>
REM <HklSrc "%.\\i.hkl">
REM </olex2.extras>

WGHT    0.025300    3.111800
FVAR       0.52762
C1    1    0.181693   -0.064247    0.446136    11.00000    0.02341
AFIX 137
H1A   2    0.121522    0.073664    0.480456    11.00000   -1.50000
H1B   2    0.194943   -0.228518    0.499906    11.00000   -1.50000
H1C   2    0.144965   -0.132949    0.369966    11.00000   -1.50000
AFIX   0
C2    1    0.309020    0.080453    0.427989    11.00000    0.01558
C3    1    0.390115   -0.030601    0.339173    11.00000    0.02115
AFIX  43
H3    2    0.359938   -0.193014    0.294663    11.00000   -1.20000
AFIX   0
C4    1    0.510278    0.084739    0.314121    11.00000    0.01662
C5    1    0.586136   -0.053423    0.217241    11.00000    0.02271
AFIX 137
H5A   2    0.658485    0.072996    0.197224    11.00000   -1.50000
H5B   2    0.528578   -0.082460    0.147083    11.00000   -1.50000
H5C   2    0.620486   -0.240307    0.244657    11.00000   -1.50000
AFIX   0
O1    4    0.338304    0.294575    0.493960    11.00000    0.01861
O2    4    0.566335    0.298901    0.367194    11.00000    0.01776
CU1   3    0.500000    0.500000    0.500000    10.50000    0.01606
HKLF 4

REM  12 in P2(1)/n
REM R1 =  0.0540 for     255 Fo > 4sig(Fo)  and  0.0599 for all     283 data
REM     32 parameters refined using      0 restraints

END

WGHT      0.0253      3.1119

REM Highest difference peak  0.382,  deepest hole -0.457,  1-sigma level  0.061
Q1    1   0.5316  0.7015  0.5541  11.00000  0.05    0.38
Q2    1   0.4675  0.5421  0.4708  11.00000  0.05    0.32
Q3    1   0.5000  0.0000  0.5000  10.50000  0.05    0.32
Q4    1   0.4215  0.6360  0.4066  11.00000  0.05    0.27
Q5    1   0.4984  0.2149  0.5121  11.00000  0.05    0.23
Q6    1   0.5739  0.6284  0.6025  11.00000  0.05    0.20
Q7    1   0.3940  0.5200  0.5452  11.00000  0.05    0.20
Q8    1   0.2779  0.0085  0.3570  11.00000  0.05    0.20
Q9    1   0.3843 -0.5296  0.3360  11.00000  0.05    0.20
Q10   1   0.4599 -0.0269  0.0548  11.00000  0.05    0.20
Q11   1   0.3154  0.5920  0.4888  11.00000  0.05    0.20
Q12   1   0.5364  0.0721  0.1262  11.00000  0.05    0.19
Q13   1   0.5269  0.3288  0.3233  11.00000  0.05    0.19
Q14   1   0.5560 -0.0003  0.1976  11.00000  0.05    0.18
Q15   1   0.4825 -0.0245  0.3583  11.00000  0.05    0.18
Q16   1   0.2369 -0.5016  0.3595  11.00000  0.05    0.17
Q17   1   0.0924 -0.3077  0.3230  11.00000  0.05    0.17
Q18   1   0.4049  0.5014  0.4580  11.00000  0.05    0.17
Q19   1   0.3569  0.0001  0.4426  11.00000  0.05    0.17
Q20   1   0.1803 -0.2857  0.3892  11.00000  0.05    0.16
Q21   1   0.1385 -0.1136  0.2736  11.00000  0.05    0.16
Q22   1   0.4182  0.0568  0.3011  11.00000  0.05    0.16
Q23   1   0.6506 -0.5375  0.2228  11.00000  0.05    0.16
Q24   1   0.6183 -0.0858  0.2445  11.00000  0.05    0.16
Q25   1   0.6910  0.2111  0.2282  11.00000  0.05    0.16
;
_shelx_res_checksum              84110
_shelx_hkl_file
;
 -12   1   2    0.29    0.21
   6  -1 -10    8.03    0.23
   6  -1 -11  122.30    2.50
   5  -1  -7  137.50    2.79
  -4   1   2  240.20    4.83
   4  -1  -5  283.10    5.71
   4   1  -4   44.48    0.90
   5   1  -6  389.20    7.87
  -5  -1   2  395.80    7.96
   6   1  -8   22.40    0.48
  -6  -1   2   34.25    0.70
   7   1 -13    0.20    0.34
  -7  -1   2  278.80    5.62
  -8  -1   2  116.20    2.36
  -9  -1   2  354.00    7.16
 -10  -1   2    4.78    0.18
 -11  -1   2  151.60    3.09
 -13  -1   1    0.37    0.29
 -14  -1   1   82.12    1.72
 -12   2   2   23.96    0.56
 -11   2   2   -0.01    0.21
 -10   2   2   73.46    1.50
  -9   2   2    1.75    0.24
  -7   2   2   11.31    0.29
  -6   2   2  214.90    4.32
   6  -2 -12   21.25    0.59
   6  -2 -13    6.55    0.40
  -5   2   2   45.15    0.92
   5  -2  -8    1.04    0.20
   5  -2  -9  344.20    6.93
   5  -2 -10   18.83    0.45
   5  -2 -11  107.00    2.19
  -4   2   2 1003.00   20.11
   4  -2  -6  225.90    4.54
   4  -2  -7   44.65    0.92
  -3   2   1  847.30   16.98
   3  -2  -5  268.80    5.40
  -2   2   1   11.63    0.25
   2  -2  -3    4.71    0.13
   2  -2  -4  373.80    7.49
   1  -2  -3  730.20   14.63
   2   2  -2  829.50   16.62
   3   2  -3 1138.00   22.81
  -3  -2   0   22.25    0.46
   4   2  -5    3.15    0.13
   4   2  -4  284.10    5.71
  -4  -2   1  102.60    2.06
   5   2  -7   60.98    1.24
   5   2  -6    3.95    0.16
  -5  -2   1  311.40    6.25
   6   2 -10   57.44    1.19
   6   2  -9    0.84    0.19
   6   2  -8   45.74    0.96
  -6  -2   1    1.50    0.11
  -7  -2   1  197.00    3.96
  -8  -2   1   23.12    0.51
  -9  -2   1  298.70    6.01
 -10  -2   1   22.26    0.50
 -11  -2   1   80.23    1.64
 -12  -2   1    2.72    0.28
 -13  -2   0    8.27    0.37
 -12   3   1   11.40    0.41
 -11   3   1    0.22    0.28
 -10   3   1   40.34    0.88
 -10   3   2    1.27    0.26
  -9   3   2  148.10    3.00
  -7   3   2  121.30    2.45
  -6   3   1  203.80    4.10
  -6   3   2   -0.07    0.14
  -5   3   1   24.45    0.52
   5  -3 -12   26.99    0.68
  -4   3   1  517.50   10.37
   4  -3  -8   33.11    0.74
   4  -3  -9  131.00    2.65
   4  -3 -10   46.56    0.98
   4  -3 -11  142.50    2.88
   4  -3 -12    9.21    0.36
   4  -3 -13   30.35    0.70
  -3   3   0  387.60    7.77
  -3   3   1    1.40    0.12
   3  -3  -6  188.40    3.80
   3  -3  -7    3.47    0.23
   3  -3  -8  193.30    3.90
   3  -3  -9    0.19    0.21
  -2   3   0   16.65    0.36
   2  -3  -5  332.70    6.67
   2  -3  -6  193.50    3.89
   2  -3  -7   65.21    1.34
  -1   3  -1   21.53    0.45
  -1   3   0   35.21    0.72
   1  -3  -4  315.20    6.32
   1  -3  -5   84.73    1.71
   0   3  -2    1.89    0.18
   0   3  -1   37.09    0.76
   0  -3  -3  284.90    5.72
   0  -3  -4   13.65    0.31
   1   3  -2  266.40    5.34
  -1  -3  -2  380.60    7.63
  -1  -3  -3   11.59    0.27
   2   3  -4    1.23    0.16
   2   3  -3  439.90    8.82
  -2  -3  -1  266.20    5.34
  -2  -3  -2    7.33    0.20
   3   3  -5    3.28    0.17
   3   3  -4  427.10    8.57
  -3  -3  -1   -0.03    0.12
  -3  -3  -2  286.50    5.75
   4   3  -7  177.40    3.58
   4   3  -5  166.60    3.35
  -4  -3   0    0.09    0.13
  -4  -3  -1  237.70    4.77
   5   3 -10   59.11    1.23
   5   3  -9   17.25    0.42
   5   3  -8  161.90    3.26
   5   3  -7    3.87    0.21
  -5  -3   0  366.50    7.35
   6   3 -12    1.05    0.32
   6   3 -11   24.22    0.57
   6   3 -10    1.52    0.26
  -6  -3  -1   67.93    1.40
  -7  -3   0  205.20    4.13
  -8  -3   0   22.02    0.50
  -9  -3   0  134.00    2.71
 -10  -3   0   44.03    0.93
 -10  -3  -1  157.30    3.19
 -11  -3   0   49.96    1.05
 -11  -3  -1    1.80    0.27
 -12  -3   0   -0.22    0.31
 -12  -3  -1   38.83    0.85
 -11   4   0    1.48    0.34
 -10   4   0   29.20    0.67
 -10   4   1    3.59    0.30
  -9   4   0    1.03    0.25
  -9   4   1   88.00    1.80
  -8   4   0   74.11    1.52
  -8   4   1   24.64    0.57
  -7   4   0    1.34    0.23
  -7   4   1   89.06    1.81
  -6   4   0   61.84    1.26
  -6   4   1    2.27    0.19
  -5   4   0   21.19    0.47
  -5   4   1   71.39    1.46
  -4   4  -1   35.87    0.75
  -4   4   0   55.51    1.14
  -3   4  -1  114.60    2.31
  -3   4   0   11.82    0.29
   3  -4 -10    5.41    0.31
   3  -4 -11   10.55    0.37
   3  -4 -12   11.12    0.48
  -2   4  -2  147.30    2.96
  -2   4  -1   39.53    0.82
   2  -4  -8  118.00    2.39
   2  -4  -9    5.43    0.27
   2  -4 -10   32.80    0.72
   2  -4 -11    3.83    0.30
   2  -4 -12   30.36    0.70
  -1   4  -3  178.40    3.60
  -1   4  -2   96.74    1.95
  -1   4  -1  225.10    4.52
   1  -4  -6   12.20    0.32
   1  -4  -7  224.40    4.51
   1  -4  -8    5.11    0.25
   1  -4  -9   87.05    1.77
   1  -4 -10    4.99    0.26
   1  -4 -11   31.22    0.75
   0   4  -3   17.34    0.39
   0   4  -2  183.60    3.69
   0  -4  -5   10.06    0.29
   0  -4  -6  204.10    4.10
   0  -4  -7    0.00    0.21
   0  -4  -8  157.80    3.18
   1   4  -5   87.63    1.79
   1   4  -4   41.62    0.86
   1   4  -3  140.30    2.82
  -1  -4  -4   15.30    0.37
  -1  -4  -5  149.80    3.02
  -1  -4  -6    5.31    0.24
   2   4  -6   96.13    1.95
   2   4  -5   11.94    0.30
   2   4  -4   61.11    1.25
  -2  -4  -3  118.50    2.39
  -2  -4  -4  164.60    3.31
  -2  -4  -5    4.84    0.22
   3   4  -8    5.26    0.24
   3   4  -7   89.82    1.82
   3   4  -6    0.74    0.19
   3   4  -5   53.61    1.10
  -3  -4  -3  144.50    2.91
  -3  -4  -4    0.98    0.19
  -3  -4  -5   55.44    1.17
   4   4 -11    5.70    0.31
   4   4 -10   22.64    0.53
   4   4  -9    1.27    0.24
   4   4  -8   82.16    1.67
   4   4  -7    6.24    0.24
  -4  -4  -2  143.30    2.89
  -4  -4  -3   -0.15    0.19
  -4  -4  -4  123.10    2.49
   5   4 -11   29.82    0.69
   5   4 -10   11.77    0.37
   5   4  -9   76.31    1.59
  -5  -4  -2    3.56    0.22
  -5  -4  -3  194.50    3.91
  -6  -4  -2  219.40    4.41
  -6  -4  -3    2.06    0.22
  -7  -4  -1  125.00    2.53
  -7  -4  -2   -0.03    0.22
  -7  -4  -3  134.80    2.72
  -8  -4  -1    8.33    0.29
  -8  -4  -3    1.85    0.23
  -9  -4  -1   25.75    0.59
  -9  -4  -2    0.22    0.26
  -9  -4  -3   23.93    0.55
 -10  -4  -1   14.09    0.47
 -10  -4  -2   11.18    0.37
 -10  -4  -3    2.70    0.28
  -8   5  -2    0.80    0.28
  -8   5  -1    6.63    0.31
  -7   5  -2   29.42    0.66
  -7   5  -1    2.87    0.25
  -6   5  -2    0.38    0.23
  -6   5  -1  124.80    2.52
  -5   5  -3   -0.04    0.20
  -5   5  -2  116.40    2.35
  -5   5  -1   17.10    0.41
  -4   5  -3   41.05    0.86
  -4   5  -2    2.94    0.22
  -4   5  -1  137.40    2.77
  -3   5  -4   19.04    0.44
  -3   5  -3   -0.28    0.20
  -3   5  -2   74.61    1.52
  -2   5  -5   23.31    0.57
  -2   5  -4    0.68    0.20
  -2   5  -3   19.49    0.45
  -2   5  -2    3.18    0.19
  -1   5  -5   -0.07    0.20
  -1   5  -4   21.60    0.48
  -1   5  -3    9.79    0.28
   0   5  -7   62.81    1.29
   0   5  -6    2.65    0.21
   0   5  -5   95.63    1.94
   0   5  -4    3.83    0.21
   0  -5  -9   51.43    1.08
   1   5  -9    3.70    0.36
   1   5  -8   48.55    1.02
   1   5  -7   -0.08    0.23
   1   5  -6  153.80    3.10
   1   5  -5    4.37    0.22
  -1  -5  -7    0.01    0.22
  -1  -5  -8   77.16    1.58
  -1  -5  -9    0.14    0.26
   2   5  -9   16.74    0.44
   2   5  -8    1.14    0.26
   2   5  -7   69.73    1.43
   2   5  -6   20.21    0.47
  -2  -5  -6    1.01    0.21
  -2  -5  -7   68.15    1.40
  -2  -5  -8    2.22    0.25
  -2  -5  -9   49.93    1.05
   3   5  -9   -0.26    0.28
   3   5  -8    8.76    0.31
  -3  -5  -5   24.72    0.56
  -3  -5  -6   42.58    0.89
  -3  -5  -7    0.46    0.24
  -3  -5  -8   25.12    0.57
  -3  -5  -9   -0.11    0.28
  -4  -5  -5   40.01    0.84
  -4  -5  -6    0.64    0.24
  -4  -5  -7   18.09    0.45
  -4  -5  -8    6.80    0.30
  -5  -5  -4   69.80    1.43
  -5  -5  -5    0.02    0.24
  -5  -5  -6   49.16    1.03
  -5  -5  -7    1.82    0.26
  -5  -5  -8    7.07    0.34
  -6  -5  -4    4.58    0.26
  -6  -5  -5   73.82    1.51
  -6  -5  -6    3.74    0.27
  -6  -5  -7   14.02    0.40
  -7  -5  -4   52.42    1.10
  -7  -5  -5   -0.24    0.28
  -8  -5  -4   -0.62    0.33
  -3   6  -4    0.39    0.27
   0   0   0    0.00    0.00
;
_shelx_hkl_checksum              12368
_olex2_submission_special_instructions 'No special instructions were received'
loop_
_space_group_symop_operation_xyz
'x, y, z'
'-x+1/2, y+1/2, -z+1/2'
'-x, -y, -z'
'x-1/2, -y-1/2, z-1/2'
loop_
_atom_site_label
_atom_site_type_symbol
_atom_site_fract_x
_atom_site_fract_y
_atom_site_fract_z
_atom_site_U_iso_or_equiv
_atom_site_adp_type
_atom_site_occupancy
_atom_site_site_symmetry_order
_atom_site_calc_flag
_atom_site_refinement_flags_posn
_atom_site_refinement_flags_adp
_atom_site_refinement_flags_occupancy
_atom_site_disorder_assembly
_atom_site_disorder_group
C1 C 0.1817(11) -0.0642(15) 0.4461(12) 0.0234(16) Uiso 1 1 d . . . . .
H1A H 0.1215 0.0737 0.4805 0.035 Uiso 1 1 calc GR . . . .
H1B H 0.1949 -0.2285 0.4999 0.035 Uiso 1 1 calc GR . . . .
H1C H 0.1450 -0.1329 0.3700 0.035 Uiso 1 1 calc GR . . . .
C2 C 0.3090(9) 0.0805(13) 0.4280(10) 0.0156(14) Uiso 1 1 d . . . . .
C3 C 0.3901(10) -0.0306(14) 0.3392(11) 0.0211(15) Uiso 1 1 d . . . . .
H3 H 0.3599 -0.1930 0.2947 0.025 Uiso 1 1 calc R . . . .
C4 C 0.5103(9) 0.0847(13) 0.3141(10) 0.0166(15) Uiso 1 1 d . . . . .
C5 C 0.5861(11) -0.0534(15) 0.2172(11) 0.0227(16) Uiso 1 1 d . . . . .
H5A H 0.6585 0.0730 0.1972 0.034 Uiso 1 1 calc GR . . . .
H5B H 0.5286 -0.0825 0.1471 0.034 Uiso 1 1 calc GR . . . .
H5C H 0.6205 -0.2403 0.2447 0.034 Uiso 1 1 calc GR . . . .
O1 O 0.3383(7) 0.2946(10) 0.4940(8) 0.0186(12) Uiso 1 1 d . . . . .
O2 O 0.5663(7) 0.2989(10) 0.3672(8) 0.0178(11) Uiso 1 1 d . . . . .
Cu1 Cu 0.5000 0.5000 0.5000 0.0161(5) Uiso 1 2 d S T P . .
loop_
_atom_type_symbol
_atom_type_description
_atom_type_scat_dispersion_real
_atom_type_scat_dispersion_imag
_atom_type_scat_source
C C 0.0033 0.0016 'International Tables Vol C Tables 4.2.6.8 and 6.1.1.4'
H H 0.0000 0.0000 'International Tables Vol C Tables 4.2.6.8 and 6.1.1.4'
Cu Cu 0.3201 1.2651 'International Tables Vol C Tables 4.2.6.8 and 6.1.1.4'
O O 0.0106 0.0060 'International Tables Vol C Tables 4.2.6.8 and 6.1.1.4'
loop_
_geom_angle_atom_site_label_1
_geom_angle_atom_site_label_2
_geom_angle_atom_site_label_3
_geom_angle
_geom_angle_site_symmetry_1
_geom_angle_site_symmetry_3
H1A C1 H1B 109.5 . .
H1A C1 H1C 109.5 . .
H1B C1 H1C 109.5 . .
C2 C1 H1A 109.5 . .
C2 C1 H1B 109.5 . .
C2 C1 H1C 109.5 . .
C3 C2 C1 118.4(8) . .
O1 C2 C1 117.2(8) . .
O1 C2 C3 124.3(8) . .
C2 C3 H3 118.1 . .
C4 C3 C2 123.8(8) . .
C4 C3 H3 118.1 . .
C3 C4 C5 118.4(8) . .
O2 C4 C3 126.1(8) . .
O2 C4 C5 115.5(8) . .
C4 C5 H5A 109.5 . .
C4 C5 H5B 109.5 . .
C4 C5 H5C 109.5 . .
H5A C5 H5B 109.5 . .
H5A C5 H5C 109.5 . .
H5B C5 H5C 109.5 . .
C2 O1 Cu1 126.4(5) . .
C4 O2 Cu1 125.1(5) . .
O1 Cu1 O1 180.0 3_666 .
O1 Cu1 O2 93.8(3) 3_666 3_666
O1 Cu1 O2 86.2(3) 3_666 .
O1 Cu1 O2 86.2(3) . 3_666
O1 Cu1 O2 93.8(3) . .
O2 Cu1 O2 180.0 . 3_666
loop_
_geom_bond_atom_site_label_1
_geom_bond_atom_site_label_2
_geom_bond_distance
_geom_bond_site_symmetry_2
C1 H1A 0.9800 .
C1 H1B 0.9800 .
C1 H1C 0.9800 .
C1 C2 1.492(13) .
C2 C3 1.427(12) .
C2 O1 1.270(10) .
C3 H3 0.9500 .
C3 C4 1.385(13) .
C4 C5 1.513(13) .
C4 O2 1.284(10) .
C5 H5A 0.9800 .
C5 H5B 0.9800 .
C5 H5C 0.9800 .
O1 Cu1 1.914(7) .
O2 Cu1 1.917(7) .
Cu1 O1 1.914(7) 3_666
Cu1 O2 1.917(7) 3_666
loop_
_geom_torsion_atom_site_label_1
_geom_torsion_atom_site_label_2
_geom_torsion_atom_site_label_3
_geom_torsion_atom_site_label_4
_geom_torsion
_geom_torsion_site_symmetry_1
_geom_torsion_site_symmetry_2
_geom_torsion_site_symmetry_3
_geom_torsion_site_symmetry_4
C1 C2 C3 C4 -179.9(11) . . . .
C1 C2 O1 Cu1 174.3(9) . . . .
C2 C3 C4 C5 -179.8(9) . . . .
C2 C3 C4 O2 1.5(17) . . . .
C3 C2 O1 Cu1 -5.1(13) . . . .
C3 C4 O2 Cu1 3.2(13) . . . .
C5 C4 O2 Cu1 -175.6(8) . . . .
O1 C2 C3 C4 -0.5(17) . . . .
