#------------------------------------------------------------------------------
#$Date: 2019-05-24 10:11:04 +0300 (Fri, 24 May 2019) $
#$Revision: 215472 $
#$URL: file:///home/coder/svn-repositories/cod/cif/1/55/11/1551116.cif $
#------------------------------------------------------------------------------
#
# This file is available in the Crystallography Open Database (COD),
# http://www.crystallography.net/
#
# All data on this site have been placed in the public domain by the
# contributors.
#
data_1551116
loop_
_publ_author_name
'Anna Worthy'
'Arnaud Grosjean'
'Michael C. Pfrunder'
'Yanan Xu'
'Cheng Yan'
'Grant Edwards'
'Jack K. Clegg'
'John C. McMurtrie'
_publ_section_title
;
 Atomic resolution of structural changes in elastic crystals of copper(II)
 acetylacetonate
;
_journal_name_full               'Nature Chemistry'
_journal_page_first              65
_journal_page_last               69
_journal_paper_doi               10.1038/nchem.2848
_journal_volume                  10
_journal_year                    2018
_chemical_formula_moiety         'C10 H14 Cu O4'
_chemical_formula_sum            'C10 H14 Cu O4'
_chemical_formula_weight         261.75
_space_group_crystal_system      monoclinic
_space_group_IT_number           14
_space_group_name_Hall           '-P 2yn'
_space_group_name_H-M_alt        'P 1 21/n 1'
_symmetry_space_group_name_Hall  '-P 2yn'
_symmetry_space_group_name_H-M   'P 1 21/n 1'
_atom_sites_solution_hydrogens   geom
_cell_angle_alpha                90
_cell_angle_beta                 92.95(3)
_cell_angle_gamma                90
_cell_formula_units_Z            2
_cell_length_a                   10.231(2)
_cell_length_b                   4.7000(9)
_cell_length_c                   11.191(2)
_cell_measurement_reflns_used    293
_cell_measurement_temperature    100(2)
_cell_measurement_theta_max      29.608
_cell_measurement_theta_min      9.668
_cell_volume                     537.41(18)
_computing_cell_refinement       'XDS (Kabsch, 1993)'
_computing_data_collection       'BluIce (McPhillips, 2002)'
_computing_data_reduction        'XDS (Kabsch, 1993)'
_computing_molecular_graphics    'Olex2 (Dolomanov et al., 2009)'
_computing_publication_material  'Olex2 (Dolomanov et al., 2009)'
_computing_structure_refinement  'ShelXL (Sheldrick, 2015)'
_computing_structure_solution    'Known Structure'
_diffrn_ambient_temperature      100(2)
_diffrn_measured_fraction_theta_full 0.189
_diffrn_measured_fraction_theta_max 0.192
_diffrn_measurement_device_type  'ADSC Quantum 315r'
_diffrn_measurement_method       'Phi Scan'
_diffrn_radiation_monochromator  'Silicon Double Crystal'
_diffrn_radiation_type           Synchrotron
_diffrn_radiation_wavelength     0.7108
_diffrn_reflns_av_unetI/netI     0.0358
_diffrn_reflns_Laue_measured_fraction_full 0.189
_diffrn_reflns_Laue_measured_fraction_max 0.192
_diffrn_reflns_number            293
_diffrn_reflns_point_group_measured_fraction_full 0.189
_diffrn_reflns_point_group_measured_fraction_max 0.192
_diffrn_reflns_theta_full        26.000
_diffrn_reflns_theta_max         29.608
_diffrn_reflns_theta_min         9.668
_diffrn_source                   Synchrotron
_exptl_absorpt_coefficient_mu    2.022
_exptl_absorpt_correction_type   multi-scan
_exptl_absorpt_process_details   'XDS (Kabsch, 1993)'
_exptl_crystal_colour            'dark blue'
_exptl_crystal_colour_lustre     .
_exptl_crystal_colour_modifier   dark
_exptl_crystal_colour_primary    blue
_exptl_crystal_density_diffrn    1.618
_exptl_crystal_description       needle
_exptl_crystal_F_000             270
_exptl_crystal_size_max          1
_exptl_crystal_size_mid          0.05
_exptl_crystal_size_min          0.05
_refine_diff_density_max         0.391
_refine_diff_density_min         -0.413
_refine_diff_density_rms         0.068
_refine_ls_extinction_coef       .
_refine_ls_extinction_method     none
_refine_ls_goodness_of_fit_ref   1.103
_refine_ls_hydrogen_treatment    constr
_refine_ls_matrix_type           full
_refine_ls_number_parameters     32
_refine_ls_number_reflns         293
_refine_ls_number_restraints     0
_refine_ls_restrained_S_all      1.103
_refine_ls_R_factor_all          0.0880
_refine_ls_R_factor_gt           0.0641
_refine_ls_shift/su_max          0.000
_refine_ls_shift/su_mean         0.000
_refine_ls_structure_factor_coef Fsqd
_refine_ls_weighting_details
'w=1/[\s^2^(Fo^2^)+(0.0819P)^2^+3.1868P] where P=(Fo^2^+2Fc^2^)/3'
_refine_ls_weighting_scheme      calc
_refine_ls_wR_factor_gt          0.1556
_refine_ls_wR_factor_ref         0.1740
_reflns_Friedel_coverage         0.000
_reflns_Friedel_fraction_full    .
_reflns_Friedel_fraction_max     .
_reflns_number_gt                225
_reflns_number_total             293
_reflns_threshold_expression     'I > 2\s(I)'
_cod_data_source_file            nchem.2848-s5-b.cif
_cod_data_source_block           b
_cod_depositor_comments
;
The following automatic conversions were performed:

'_exptl_absorpt_correction_type' value 'Multi-Scan' changed to
'multi-scan' according to the built-in table from CIF Core dictionary
named 'cif_core.dic' version 2.4.5 from 2014-11-21.

Automatic conversion script
Id: cif_fix_values 6524 2018-11-02 12:15:13Z antanas 
;
_cod_original_cell_volume        537.41(19)
_cod_database_code               1551116
_shelx_space_group_comment
;
The symmetry employed for this shelxl refinement is uniquely defined
by the following loop, which should always be used as a source of
symmetry information in preference to the above space-group names.
They are only intended as comments.
;
_shelx_estimated_absorpt_t_max   0.906
_shelx_estimated_absorpt_t_min   0.237
_olex2_refinement_description
;
1. Fixed Uiso
 At 1.2 times of:
  All C(H) groups
 At 1.5 times of:
  All C(H,H,H) groups
2.a Aromatic/amide H refined with riding coordinates:
 C3(H3)
2.b Idealised Me refined as rotating group:
 C1(H1a,H1b,H1c), C5(H5a,H5b,H5c)
;
_shelx_res_file
;
TITL 5 in P2(1)/n
CELL 0.71073 10.231 4.7 11.191 90 92.948 90
ZERR 2 0.00205 0.00094 0.00224 0 0.03 0
LATT 1
SYMM 0.5-X,0.5+Y,0.5-Z
SFAC C H Cu O
UNIT 20 28 2 8

L.S. 50
PLAN  25
SIZE 0.05 0.05 1
LIST 1
MORE -1
BOND $H
CONF
fmap 2
acta 52
OMIT -3 2 1
REM <olex2.extras>
REM <HklSrc "%.\\b.hkl">
REM </olex2.extras>

WGHT    0.081900    3.186800
FVAR       1.26455
C1    1    0.183456   -0.061513    0.447617    11.00000    0.01949
AFIX 137
H1A   2    0.134023    0.053239    0.500057    11.00000   -1.50000
H1B   2    0.199008   -0.245142    0.483128    11.00000   -1.50000
H1C   2    0.135163   -0.083500    0.372344    11.00000   -1.50000
AFIX   0
C2    1    0.311553    0.080127    0.427856    11.00000    0.01624
C3    1    0.390048   -0.030519    0.339962    11.00000    0.02091
AFIX  43
H3    2    0.360215   -0.189031    0.296939    11.00000   -1.20000
AFIX   0
C4    1    0.509598    0.084540    0.314161    11.00000    0.01429
C5    1    0.586917   -0.052040    0.217065    11.00000    0.02353
AFIX 137
H5A   2    0.663568    0.059620    0.204482    11.00000   -1.50000
H5B   2    0.533523   -0.061289    0.144076    11.00000   -1.50000
H5C   2    0.612529   -0.240777    0.241267    11.00000   -1.50000
AFIX   0
O1    4    0.338821    0.295388    0.495375    11.00000    0.01919
O2    4    0.565401    0.301395    0.367342    11.00000    0.01737
CU1   3    0.500000    0.500000    0.500000    10.50000    0.01533
HKLF 4

REM  5 in P2(1)/n
REM R1 =  0.0641 for     225 Fo > 4sig(Fo)  and  0.0880 for all     293 data
REM     32 parameters refined using      0 restraints

END

WGHT      0.0819      3.1860

REM Highest difference peak  0.391,  deepest hole -0.413,  1-sigma level  0.068
Q1    1   0.5000  0.0000  0.5000  10.50000  0.05    0.39
Q2    1   0.5259  0.7052  0.5473  11.00000  0.05    0.33
Q3    1   0.4244  0.6299  0.4025  11.00000  0.05    0.31
Q4    1   0.5849  0.4917  0.5320  11.00000  0.05    0.29
Q5    1   0.4894 -0.0015  0.3714  11.00000  0.05    0.26
Q6    1   0.4196  0.3840  0.3998  11.00000  0.05    0.25
Q7    1   0.3757 -0.5081  0.3063  11.00000  0.05    0.25
Q8    1   0.3612 -0.2109  0.4394  11.00000  0.05    0.25
Q9    1   0.5779  0.5223  0.4226  11.00000  0.05    0.24
Q10   1   0.4576  0.6256  0.5547  11.00000  0.05    0.23
Q11   1   0.5139  0.2370  0.5034  11.00000  0.05    0.21
Q12   1   0.1416 -0.5489  0.4886  11.00000  0.05    0.21
Q13   1   0.4434  0.0865  0.3006  11.00000  0.05    0.21
Q14   1   0.4352  0.1653  0.3933  11.00000  0.05    0.20
Q15   1   0.0963 -0.3195  0.2963  11.00000  0.05    0.19
Q16   1   0.6631 -0.4970  0.2248  11.00000  0.05    0.19
Q17   1   0.5564  0.0160  0.2017  11.00000  0.05    0.19
Q18   1   0.0998 -0.0022  0.5908  11.00000  0.05    0.18
Q19   1   0.5247  0.6766  0.4331  11.00000  0.05    0.18
Q20   1   0.5244  0.3270  0.3225  11.00000  0.05    0.18
Q21   1   0.0360  0.1670  0.6062  11.00000  0.05    0.18
Q22   1   0.6899  0.2006  0.2200  11.00000  0.05    0.17
Q23   1   0.4647 -0.0868  0.3224  11.00000  0.05    0.17
Q24   1   0.1611  0.1727  0.4607  11.00000  0.05    0.17
Q25   1   0.3871  0.2267  0.5987  11.00000  0.05    0.17
;
_shelx_res_checksum              39441
_shelx_hkl_file
;
  12   0  -2  965.20   22.44
  12   1  -2   -6.01    9.39
  -6  -1   9  966.70   21.38
  -6  -1  10   44.28    8.42
  -5  -1   7  745.60   16.33
   4   1  -2 1354.00   27.61
  -4  -1   5 1506.00   30.83
  -4   1   4  225.90    5.85
  -5   1   6 1990.00   40.95
   5  -1  -2 2313.00   46.93
  -6   1   8  104.80    6.20
   6  -1  -2  198.60    5.60
  -7   1  13   -5.68   13.19
  -7   1  12  435.20   15.31
   7  -1  -2 1449.00   29.92
   8  -1  -2  550.60   13.15
   9  -1  -2 1742.00   36.34
  10  -1  -2   14.56    7.01
  11  -1  -2 1012.00   22.86
  13  -1  -1  -11.03   12.37
  14  -1  -1  837.00   27.15
  12   2  -2  151.70   13.71
  11   2  -2   -3.41   11.29
  10   2  -2  454.40   12.93
   9   2  -2   23.32   10.60
   7   2  -2   56.50    6.84
   6   2  -2 1308.00   27.29
  -6  -2  11   22.70   19.61
  -6  -2  12  110.10   14.72
  -6  -2  13   57.21   18.83
   5   2  -2  255.80    7.33
  -5  -2   8   15.43    8.11
  -5  -2   9 1989.00   42.07
  -5  -2  10  120.40   10.74
   4   2  -2 5620.00  113.30
  -4  -2   6 1371.00   28.66
  -4  -2   7  261.50    8.83
   3   2  -1 4217.00   85.20
  -3  -2   4  494.60   12.33
  -3  -2   5 1552.00   32.13
   2   2  -1   67.84    4.04
  -2  -2   3   34.69    4.05
  -2  -2   4 2213.00   45.17
  -2   2   2 4850.00   97.87
  -3   2   3 6571.00  132.40
   3  -2   0  144.50    5.32
  -4   2   5   22.13    5.18
  -4   2   4 1880.00   38.68
   4  -2  -1  564.50   12.69
  -5   2   7  305.10    9.59
  -5   2   6   30.37    6.11
   5  -2  -1 1679.00   34.58
  -6   2  10  307.70   13.01
  -6   2   9   -3.17    8.95
  -6   2   8  298.20   10.15
   6  -2  -1   15.46    5.09
  -7   2  13   14.87   24.33
   7  -2  -1 1116.00   23.82
   8  -2  -1  130.60    7.73
   9  -2  -1 1681.00   35.55
  10  -2  -1  143.40    9.94
  11  -2  -1  500.80   15.85
  12  -2  -1   17.92   12.83
  13  -2   0   60.29   14.87
  12   3  -1   73.53   15.97
  11   3  -1   -0.82   13.73
  10   3  -1  252.80   15.07
  10   3  -2   -3.89   13.00
   9   3  -2  947.30   23.19
   8   3  -2   37.67    9.78
   7   3  -2  664.00   17.30
   6   3  -1 1015.00   22.54
   6   3  -2  -14.25    6.26
   5   3  -1  145.40    7.25
  -5  -3  11   42.24   15.17
  -5  -3  12  170.10   16.85
   4   3  -1 3056.00   62.34
  -4  -3   8  194.10   11.52
  -4  -3   9  805.40   20.65
  -4  -3  10  239.50   13.57
  -4  -3  11  850.20   22.79
  -4  -3  12   60.10   15.07
  -4  -3  13  167.30   16.54
   3   3   0 1888.00   39.47
   3   3  -1    2.51    5.53
  -3  -3   6 1181.00   25.70
  -3  -3   8 1135.00   27.85
   2   3   0  101.90    5.76
  -2  -3   5 1981.00   41.04
  -2  -3   6 1035.00   23.10
   1   3   1  111.80    5.92
   1   3   0  217.70    7.13
  -1  -3   4 1940.00   40.16
  -1  -3   5  477.10   12.06
   0   3   1  191.70    7.14
   0  -3   3 1652.00   34.40
   0  -3   4   69.90    5.66
  -1   3   2 1628.00   34.04
   1  -3   2 2274.00   46.72
   1  -3   3   57.43    5.69
  -2   3   3 2714.00   55.61
   2  -3   1 1405.00   29.51
   2  -3   2   25.99    5.41
  -3   3   5   28.29    7.21
  -3   3   4 2675.00   55.00
   3  -3   1    9.70    5.33
  -4   3   7 1048.00   27.03
  -4   3   6  155.40    9.69
  -4   3   5  979.60   22.15
   4  -3   0    8.64    5.66
   4  -3   1 1378.00   29.08
  -5   3   9   99.12   10.34
  -5   3   8  920.20   21.87
  -5   3   7    3.68    9.62
   5  -3   0 2037.00   42.23
   5  -3   1  944.40   21.14
  -6   3  12   35.68   15.75
  -6   3  11  118.70   14.54
  -6   3  10   34.81   12.47
   6  -3   0  200.00    8.74
   7  -3   0 1114.00   25.18
   8  -3   0  106.30   10.28
   9  -3   0  811.10   20.21
  10  -3   0  260.60   13.25
  10  -3   1  681.20   22.30
  11  -3   0  376.30   14.74
  11  -3   1   20.96   11.62
  12  -3   0  -28.45   12.92
  12  -3   1  321.60   15.34
  11   4   0   28.35   15.42
  11   4  -1  318.70   18.94
  10   4   0  189.50   15.29
  10   4  -1   14.58   14.24
   9   4   0   -7.19   12.50
   9   4  -1  576.10   18.05
   8   4   0  496.50   16.60
   8   4  -1  146.90   12.67
   7   4   0   14.33   10.45
   7   4  -1  534.40   15.75
   6   4   0  354.80   12.10
   6   4  -1   30.52    9.55
   5   4   0  132.60    8.99
   5   4  -1  449.80   12.93
   4   4   1  235.10    9.36
   4   4   0  327.70   11.14
   3   4   1  749.10   17.69
   3   4   0   77.92    7.47
  -3  -4   9  405.60   16.10
  -3  -4  10    8.49   13.14
  -3  -4  11   67.78   15.48
   2   4   2  815.10   18.86
   2   4   1  265.50    9.29
  -2  -4   7  108.10    9.92
  -2  -4   8  713.80   19.43
  -2  -4   9   31.41   11.93
  -2  -4  10  209.90   14.42
  -2  -4  11   -5.72   14.22
  -2  -4  12  147.40   16.17
   1   4   2  608.60   15.34
   1   4   1 1348.00   28.93
  -1  -4   6   72.20    9.14
  -1  -4   7 1486.00   32.66
  -1  -4   8   19.05   11.01
  -1  -4   9  531.40   16.92
  -1  -4  10    8.82   17.85
   0   4   3   91.79    7.31
   0   4   2 1152.00   25.25
   0  -4   5   84.61    9.03
   0  -4   6 1140.00   25.65
   0  -4   7   12.77    9.09
  -1   4   4  280.60    9.67
  -1   4   3  940.50   21.15
   1  -4   4   98.61    8.42
   1  -4   5  870.10   20.71
   1  -4   6   39.34    8.96
  -2   4   6  626.10   16.39
  -2   4   5   71.28    8.55
  -2   4   4  375.30   11.59
   2  -4   3  775.70   18.87
   2  -4   4  989.60   22.59
   2  -4   5   20.41    8.42
  -3   4   8   47.72   14.04
  -3   4   7  538.90   15.39
  -3   4   6    4.88    8.68
  -3   4   5  328.60   11.46
   3  -4   2  -13.86    7.32
   3  -4   3  902.80   21.09
   3  -4   4  -13.98    8.72
  -4   4  11   10.43   16.39
  -4   4  10  107.70   12.69
  -4   4   9    7.26   11.90
  -4   4   8  585.00   17.01
  -4   4   7   41.89   10.58
   4  -4   2  828.90   19.77
   4  -4   3   23.61    8.67
   4  -4   4  778.20   19.10
  -5   4  11  164.70   16.24
  -5   4  10   55.27   14.11
  -5   4   9  542.20   16.84
   5  -4   2   14.81    8.69
   5  -4   3 1071.00   24.51
   6  -4   1  139.60    9.32
   6  -4   2 1297.00   28.81
   6  -4   3   13.51   10.57
   7  -4   1  742.20   19.14
   7  -4   2   -5.29    9.86
   7  -4   3  764.70   19.25
   8  -4   1   57.88   10.46
   8  -4   2  583.10   18.35
   8  -4   3   -0.66   10.92
   9  -4   1  181.80   12.65
   9  -4   2   -0.04   11.17
   9  -4   3  160.80   11.54
  10  -4   1   82.81   12.23
  10  -4   2   93.80   13.65
  10  -4   3   22.67   13.25
   9   5   1   25.69   14.99
   9   5   0   53.27   16.20
   8   5   2   40.65   13.17
   8   5   1   42.56   12.98
   8   5   0   -1.03   12.09
   7   5   2  181.80   13.39
   7   5   1   -6.72   12.13
   7   5   0  351.30   15.77
   6   5   2   11.15   11.31
   6   5   1  770.30   20.13
   5   5   2  668.50   17.35
   5   5   1  141.50   11.06
   4   5   3  257.80   11.44
   4   5   2   13.64   10.02
   4   5   1  890.50   21.13
   3   5   3   -6.55    9.15
   3   5   2  463.60   13.80
   2   5   4   -6.72    9.27
   2   5   3  133.30    9.82
   2   5   2   22.54    8.83
   1   5   5  -18.05    9.04
   1   5   4  155.50    9.99
   1   5   3   55.50    8.82
   0   5   6  -18.29   10.45
   0   5   5  657.70   17.50
   0   5   4   38.86    9.04
   0  -5   8  109.10   11.46
   0  -5   9  336.40   14.72
  -1   5   8  242.50   12.86
  -1   5   7   17.49   11.40
  -1   5   6  984.00   23.33
  -1   5   5   52.28    9.28
   1  -5   7    0.27   11.51
   1  -5   8  437.70   15.39
   1  -5   9   15.36   11.94
  -2   5   9  105.80   13.75
  -2   5   8   -2.33   12.58
  -2   5   7  467.20   15.84
  -2   5   6  152.70   11.42
   2  -5   6    9.17   10.12
   2  -5   7  389.40   13.76
   2  -5   8  -14.73   12.36
   2  -5   9  298.30   13.95
  -3   5   9   -8.63   13.64
  -3   5   8   64.16   13.11
  -3   5   7   52.20   12.91
   3  -5   5  125.10   10.88
   3  -5   6  259.60   12.30
   3  -5   7   -7.20   12.13
   3  -5   8  175.20   12.20
   3  -5   9    7.92   13.69
   4  -5   4   10.94   10.12
   4  -5   5  238.10   11.86
   4  -5   6   -1.05   11.53
   4  -5   7  141.80   13.22
   4  -5   8   54.27   13.61
   5  -5   4  427.10   15.25
   5  -5   5  -11.54   11.94
   5  -5   6  312.40   13.47
   5  -5   7   17.09   13.46
   5  -5   8   57.28   13.62
   6  -5   4   10.49   11.03
   6  -5   5  451.90   15.68
   6  -5   6   23.56   12.77
   6  -5   7  104.40   13.31
   7  -5   4  352.90   14.42
   7  -5   5   -3.40   12.39
   8  -5   3  170.10   16.96
   8  -5   4   -0.44   14.53
   4   6   4  127.60   15.12
   4   6   3  -14.56   11.50
   3   6   5   38.20   16.01
   3   6   4   16.55   12.17
   2   6   5    0.24   11.84
   2   6   4  207.80   12.80
   1   6   6   34.86   18.26
   1   6   5  270.80   12.92
   0   6   6  278.10   14.17
   0   0   0    0.00    0.00
;
_shelx_hkl_checksum              7376
_olex2_submission_special_instructions 'No special instructions were received'
loop_
_space_group_symop_operation_xyz
'x, y, z'
'-x+1/2, y+1/2, -z+1/2'
'-x, -y, -z'
'x-1/2, -y-1/2, z-1/2'
loop_
_atom_site_label
_atom_site_type_symbol
_atom_site_fract_x
_atom_site_fract_y
_atom_site_fract_z
_atom_site_U_iso_or_equiv
_atom_site_adp_type
_atom_site_occupancy
_atom_site_site_symmetry_order
_atom_site_calc_flag
_atom_site_refinement_flags_posn
_atom_site_refinement_flags_adp
_atom_site_refinement_flags_occupancy
_atom_site_disorder_assembly
_atom_site_disorder_group
C1 C 0.1835(13) -0.0615(19) 0.4476(15) 0.019(2) Uiso 1 1 d . . . . .
H1A H 0.1340 0.0532 0.5001 0.029 Uiso 1 1 calc GR . . . .
H1B H 0.1990 -0.2451 0.4831 0.029 Uiso 1 1 calc GR . . . .
H1C H 0.1352 -0.0835 0.3723 0.029 Uiso 1 1 calc GR . . . .
C2 C 0.3116(12) 0.0801(18) 0.4279(13) 0.0162(18) Uiso 1 1 d . . . . .
C3 C 0.3900(15) -0.0305(18) 0.3400(15) 0.021(2) Uiso 1 1 d . . . . .
H3 H 0.3602 -0.1890 0.2969 0.025 Uiso 1 1 calc R . . . .
C4 C 0.5096(11) 0.0845(17) 0.3142(12) 0.0143(19) Uiso 1 1 d . . . . .
C5 C 0.5869(16) -0.0520(19) 0.2171(17) 0.024(2) Uiso 1 1 d . . . . .
H5A H 0.6636 0.0596 0.2045 0.035 Uiso 1 1 calc GR . . . .
H5B H 0.5335 -0.0613 0.1441 0.035 Uiso 1 1 calc GR . . . .
H5C H 0.6125 -0.2408 0.2413 0.035 Uiso 1 1 calc GR . . . .
O1 O 0.3388(10) 0.2954(13) 0.4954(10) 0.0192(15) Uiso 1 1 d . . . . .
O2 O 0.5654(9) 0.3014(13) 0.3673(10) 0.0174(15) Uiso 1 1 d . . . . .
Cu1 Cu 0.5000 0.5000 0.5000 0.0153(7) Uiso 1 2 d S T P . .
loop_
_atom_type_symbol
_atom_type_description
_atom_type_scat_dispersion_real
_atom_type_scat_dispersion_imag
_atom_type_scat_source
C C 0.0033 0.0016 'International Tables Vol C Tables 4.2.6.8 and 6.1.1.4'
H H 0.0000 0.0000 'International Tables Vol C Tables 4.2.6.8 and 6.1.1.4'
Cu Cu 0.3201 1.2651 'International Tables Vol C Tables 4.2.6.8 and 6.1.1.4'
O O 0.0106 0.0060 'International Tables Vol C Tables 4.2.6.8 and 6.1.1.4'
loop_
_geom_angle_atom_site_label_1
_geom_angle_atom_site_label_2
_geom_angle_atom_site_label_3
_geom_angle
_geom_angle_site_symmetry_1
_geom_angle_site_symmetry_3
H1A C1 H1B 109.5 . .
H1A C1 H1C 109.5 . .
H1B C1 H1C 109.5 . .
C2 C1 H1A 109.5 . .
C2 C1 H1B 109.5 . .
C2 C1 H1C 109.5 . .
C3 C2 C1 118.5(11) . .
O1 C2 C1 115.4(10) . .
O1 C2 C3 126.2(11) . .
C2 C3 H3 118.4 . .
C4 C3 C2 123.2(11) . .
C4 C3 H3 118.4 . .
C3 C4 C5 118.9(11) . .
O2 C4 C3 125.8(11) . .
O2 C4 C5 115.3(10) . .
C4 C5 H5A 109.5 . .
C4 C5 H5B 109.5 . .
C4 C5 H5C 109.5 . .
H5A C5 H5B 109.5 . .
H5A C5 H5C 109.5 . .
H5B C5 H5C 109.5 . .
C2 O1 Cu1 125.0(7) . .
C4 O2 Cu1 125.4(7) . .
O1 Cu1 O1 180.0 3_666 .
O2 Cu1 O1 94.0(4) 3_666 3_666
O2 Cu1 O1 86.0(4) 3_666 .
O2 Cu1 O1 86.0(4) . 3_666
O2 Cu1 O1 94.0(4) . .
O2 Cu1 O2 180.0(4) 3_666 .
loop_
_geom_bond_atom_site_label_1
_geom_bond_atom_site_label_2
_geom_bond_distance
_geom_bond_site_symmetry_2
C1 H1A 0.9600 .
C1 H1B 0.9600 .
C1 H1C 0.9600 .
C1 C2 1.496(15) .
C2 C3 1.401(17) .
C2 O1 1.285(13) .
C3 H3 0.9300 .
C3 C4 1.381(17) .
C4 C5 1.519(18) .
C4 O2 1.298(12) .
C5 H5A 0.9600 .
C5 H5B 0.9600 .
C5 H5C 0.9600 .
O1 Cu1 1.907(9) .
O2 Cu1 1.904(9) .
Cu1 O1 1.907(9) 3_666
Cu1 O2 1.904(9) 3_666
loop_
_geom_torsion_atom_site_label_1
_geom_torsion_atom_site_label_2
_geom_torsion_atom_site_label_3
_geom_torsion_atom_site_label_4
_geom_torsion
_geom_torsion_site_symmetry_1
_geom_torsion_site_symmetry_2
_geom_torsion_site_symmetry_3
_geom_torsion_site_symmetry_4
C1 C2 C3 C4 179.7(15) . . . .
C1 C2 O1 Cu1 174.8(10) . . . .
C2 C3 C4 C5 180.0(14) . . . .
C2 C3 C4 O2 1(2) . . . .
C3 C2 O1 Cu1 -4.9(18) . . . .
C3 C4 O2 Cu1 3.7(17) . . . .
C5 C4 O2 Cu1 -175.1(11) . . . .
O1 C2 C3 C4 -1(2) . . . .
