#------------------------------------------------------------------------------
#$Date: 2019-05-24 12:01:18 +0300 (Fri, 24 May 2019) $
#$Revision: 215494 $
#$URL: file:///home/coder/svn-repositories/cod/cif/1/55/11/1551136.cif $
#------------------------------------------------------------------------------
#
# This file is available in the Crystallography Open Database (COD),
# http://www.crystallography.net/
#
# All data on this site have been placed in the public domain by the
# contributors.
#
data_1551136
loop_
_publ_author_name
'Anna Worthy'
'Arnaud Grosjean'
'Michael C. Pfrunder'
'Yanan Xu'
'Cheng Yan'
'Grant Edwards'
'Jack K. Clegg'
'John C. McMurtrie'
_publ_section_title
;
 Atomic resolution of structural changes in elastic crystals of copper(II)
 acetylacetonate
;
_journal_name_full               'Nature Chemistry'
_journal_page_first              65
_journal_page_last               69
_journal_paper_doi               10.1038/nchem.2848
_journal_volume                  10
_journal_year                    2018
_chemical_formula_moiety         'C10 H14 Cu O4'
_chemical_formula_sum            'C10 H14 Cu O4'
_chemical_formula_weight         261.75
_space_group_crystal_system      monoclinic
_space_group_IT_number           14
_space_group_name_Hall           '-P 2yn'
_space_group_name_H-M_alt        'P 1 21/n 1'
_symmetry_space_group_name_Hall  '-P 2yn'
_symmetry_space_group_name_H-M   'P 1 21/n 1'
_atom_sites_solution_hydrogens   geom
_cell_angle_alpha                90
_cell_angle_beta                 92.49(3)
_cell_angle_gamma                90
_cell_formula_units_Z            2
_cell_length_a                   10.276(2)
_cell_length_b                   4.6400(9)
_cell_length_c                   11.298(2)
_cell_measurement_reflns_used    299
_cell_measurement_temperature    100(2)
_cell_measurement_theta_max      29.469
_cell_measurement_theta_min      4.821
_cell_volume                     538.19(18)
_computing_cell_refinement       'XDS (Kabsch, 1993)'
_computing_data_collection       'BluIce (McPhillips, 2002)'
_computing_data_reduction        'XDS (Kabsch, 1993)'
_computing_molecular_graphics    'Olex2 (Dolomanov et al., 2009)'
_computing_publication_material  'Olex2 (Dolomanov et al., 2009)'
_computing_structure_refinement  'ShelXL (Sheldrick, 2015)'
_computing_structure_solution    'Known structure'
_diffrn_ambient_temperature      100(2)
_diffrn_measured_fraction_theta_full 0.173
_diffrn_measured_fraction_theta_max 0.173
_diffrn_measurement_device_type  'ADSC Quantum 315r'
_diffrn_measurement_method       'Phi Scan'
_diffrn_radiation_monochromator  'Silicon Double Crystal'
_diffrn_radiation_type           Synchrotron
_diffrn_radiation_wavelength     0.7108
_diffrn_reflns_av_R_equivalents  0.0146
_diffrn_reflns_av_unetI/netI     0.0208
_diffrn_reflns_Laue_measured_fraction_full 0.173
_diffrn_reflns_Laue_measured_fraction_max 0.173
_diffrn_reflns_limit_h_max       9
_diffrn_reflns_limit_h_min       -14
_diffrn_reflns_limit_k_max       5
_diffrn_reflns_limit_k_min       -5
_diffrn_reflns_limit_l_max       12
_diffrn_reflns_limit_l_min       -1
_diffrn_reflns_number            299
_diffrn_reflns_point_group_measured_fraction_full 0.173
_diffrn_reflns_point_group_measured_fraction_max 0.173
_diffrn_reflns_theta_full        26.000
_diffrn_reflns_theta_max         29.469
_diffrn_reflns_theta_min         4.821
_diffrn_source                   Synchrotron
_exptl_absorpt_coefficient_mu    2.019
_exptl_absorpt_correction_type   multi-scan
_exptl_absorpt_process_details   'XDS (Kabsch, 1993)'
_exptl_crystal_colour            'dark blue'
_exptl_crystal_colour_lustre     .
_exptl_crystal_colour_modifier   dark
_exptl_crystal_colour_primary    blue
_exptl_crystal_density_diffrn    1.615
_exptl_crystal_description       needle
_exptl_crystal_F_000             270
_exptl_crystal_size_max          1
_exptl_crystal_size_mid          0.1
_exptl_crystal_size_min          0.1
_refine_diff_density_max         0.340
_refine_diff_density_min         -0.295
_refine_diff_density_rms         0.050
_refine_ls_extinction_coef       .
_refine_ls_extinction_method     none
_refine_ls_goodness_of_fit_ref   1.157
_refine_ls_hydrogen_treatment    constr
_refine_ls_matrix_type           full
_refine_ls_number_parameters     32
_refine_ls_number_reflns         260
_refine_ls_number_restraints     0
_refine_ls_restrained_S_all      1.157
_refine_ls_R_factor_all          0.0477
_refine_ls_R_factor_gt           0.0449
_refine_ls_shift/su_max          0.000
_refine_ls_shift/su_mean         0.000
_refine_ls_structure_factor_coef Fsqd
_refine_ls_weighting_details
'w=1/[\s^2^(Fo^2^)+(0.0001P)^2^+2.2693P] where P=(Fo^2^+2Fc^2^)/3'
_refine_ls_weighting_scheme      calc
_refine_ls_wR_factor_gt          0.0962
_refine_ls_wR_factor_ref         0.0983
_reflns_Friedel_coverage         0.000
_reflns_Friedel_fraction_full    .
_reflns_Friedel_fraction_max     .
_reflns_number_gt                242
_reflns_number_total             260
_reflns_threshold_expression     'I > 2\s(I)'
_cod_data_source_file            nchem.2848-s6-i.cif
_cod_data_source_block           i
_cod_depositor_comments
;
The following automatic conversions were performed:

'_exptl_absorpt_correction_type' value 'Multi-Scan' changed to
'multi-scan' according to the built-in table from CIF Core dictionary
named 'cif_core.dic' version 2.4.5 from 2014-11-21.

Automatic conversion script
Id: cif_fix_values 6524 2018-11-02 12:15:13Z antanas 
;
_cod_original_cell_volume        538.19(19)
_cod_database_code               1551136
_shelx_space_group_comment
;
The symmetry employed for this shelxl refinement is uniquely defined
by the following loop, which should always be used as a source of
symmetry information in preference to the above space-group names.
They are only intended as comments.
;
_shelx_estimated_absorpt_t_max   0.824
_shelx_estimated_absorpt_t_min   0.237
_olex2_refinement_description
;
1. Fixed Uiso
 At 1.2 times of:
  All C(H) groups
 At 1.5 times of:
  All C(H,H,H) groups
2.a Aromatic/amide H refined with riding coordinates:
 C3(H3)
2.b Idealised Me refined as rotating group:
 C1(H1a,H1b,H1c), C5(H5a,H5b,H5c)
;
_shelx_res_file
;
TITL 3b in P2(1)/n
CELL 0.71073 10.276 4.64 11.298 90 92.488 90
ZERR 2 0.00206 0.00093 0.00226 0 0.03 0
LATT 1
SYMM 0.5-X,0.5+Y,0.5-Z
SFAC C H Cu O
UNIT 20 28 2 8

L.S. 50
PLAN  25
SIZE 0.1 0.1 1
TEMP -173(2)
LIST 1
MORE -1
BOND $H
CONF
fmap 2
acta 52
REM <olex2.extras>
REM <HklSrc "%.\\i.hkl">
REM </olex2.extras>

WGHT    0.000100    2.269300
FVAR       1.12370
C1    1    0.181242   -0.062028    0.448294    11.00000    0.01711
AFIX 137
H1A   2    0.119724    0.082727    0.475274    11.00000   -1.50000
H1B   2    0.193589   -0.211588    0.508992    11.00000   -1.50000
H1C   2    0.146652   -0.149470    0.374496    11.00000   -1.50000
AFIX   0
C2    1    0.309195    0.078885    0.427091    11.00000    0.01328
C3    1    0.389260   -0.029812    0.339548    11.00000    0.01673
AFIX  43
H3    2    0.358633   -0.191977    0.295207    11.00000   -1.20000
AFIX   0
C4    1    0.511321    0.084346    0.312993    11.00000    0.01458
C5    1    0.584292   -0.050592    0.214659    11.00000    0.01992
AFIX 137
H5A   2    0.648122   -0.188362    0.248138    11.00000   -1.50000
H5B   2    0.629454    0.099862    0.171477    11.00000   -1.50000
H5C   2    0.522860   -0.151221    0.160273    11.00000   -1.50000
AFIX   0
O1    4    0.337301    0.294926    0.494968    11.00000    0.01587
O2    4    0.565854    0.298851    0.365058    11.00000    0.01646
CU1   3    0.500000    0.500000    0.500000    10.50000    0.01345
HKLF 4

REM  3b in P2(1)/n
REM R1 =  0.0449 for     242 Fo > 4sig(Fo)  and  0.0477 for all     260 data
REM     32 parameters refined using      0 restraints

END

WGHT      0.0001      2.2693

REM Highest difference peak  0.340,  deepest hole -0.295,  1-sigma level  0.050
Q1    1   0.4836  0.5445  0.4661  11.00000  0.05    0.34
Q2    1   0.5634  0.5768  0.4206  11.00000  0.05    0.19
Q3    1   0.4472  0.6661  0.5358  11.00000  0.05    0.18
Q4    1   0.4292  0.1779  0.5801  11.00000  0.05    0.18
Q5    1   0.4861  0.2528  0.5187  11.00000  0.05    0.18
Q6    1   0.5326  0.7070  0.5145  11.00000  0.05    0.18
Q7    1   0.5973  0.2463  0.4046  11.00000  0.05    0.18
Q8    1   0.5985  0.4864  0.4793  11.00000  0.05    0.17
Q9    1   0.5392 -0.1291  0.3786  11.00000  0.05    0.16
Q10   1   0.3675  0.5268  0.5449  11.00000  0.05    0.16
Q11   1   0.6634  0.0008  0.2173  11.00000  0.05    0.15
Q12   1   0.6501  0.0922  0.4185  11.00000  0.05    0.15
Q13   1   0.3877  0.2543  0.5243  11.00000  0.05    0.15
Q14   1   0.6963  0.2423  0.3386  11.00000  0.05    0.14
Q15   1   0.4163  0.3695  0.4377  11.00000  0.05    0.14
Q16   1   0.4936 -0.2870  0.3164  11.00000  0.05    0.14
Q17   1   0.5711 -0.2617  0.1977  11.00000  0.05    0.14
Q18   1   0.6183  0.3444  0.2620  11.00000  0.05    0.14
Q19   1   0.5311  0.3297  0.3414  11.00000  0.05    0.13
Q20   1   0.4324 -0.0901  0.4425  11.00000  0.05    0.13
Q21   1   0.6536 -0.0846  0.2969  11.00000  0.05    0.13
Q22   1   0.4564  0.0128  0.3545  11.00000  0.05    0.13
Q23   1   0.1830 -0.1416  0.2779  11.00000  0.05    0.12
Q24   1   0.4435  0.0354  0.2857  11.00000  0.05    0.12
Q25   1   0.2714 -0.2473  0.3763  11.00000  0.05    0.12
;
_shelx_res_checksum              64986
_shelx_hkl_file
;
   2   0   1    0.38    0.10
  -4   0  -1   -0.07    0.15
   6   0   5    0.36    0.34
  -6   0  -1    0.02    0.25
   7   0   7  444.60    9.04
   7   0   6    1.72    0.63
  -7   0  -1 1675.00   33.74
   8   0  10  276.20    5.84
   8   0   9   -2.43    1.11
   8   0   8  220.10    4.62
   9   0  11   45.51    1.93
  -9   0   0    0.10    0.43
 -10   0   0 1134.00   22.87
 -12   0   1   -1.07    0.82
 -13   0   2   -0.10    1.04
 -14   0   2   47.02    2.04
 -14   0   3    2.25    1.28
 -14  -1   2    3.72    1.46
 -13  -1   2  393.80    8.10
 -13  -1   1    5.70    1.07
 -12  -1   1  485.60    9.92
 -11  -1   1   15.60    0.95
 -10  -1   0   67.83    1.62
  -9  -1   0  111.20    2.42
  -8  -1  -1  907.10   18.26
   8   1   8   41.41    1.41
   8   1   9  185.80    3.99
   8   1  10    8.59    1.29
   8   1  11  219.00    4.74
   8   1  12   33.86    1.78
  -7  -1  -1    3.69    0.40
   7   1   7   64.69    1.68
  -6  -1  -1  466.80    9.42
   6   1   5 1255.00   25.20
   6   1   6    2.76    0.58
  -5  -1  -1  386.80    7.81
   5   1   4 1662.00   33.36
  -3  -1  -1   67.14    1.41
   0  -1   0    0.41    0.17
  -1   1   0  450.60    9.06
   6  -1   5 1290.00   26.69
   8  -1   9  194.60    4.11
  -9   1   0  135.10    2.86
 -11   1   1   18.13    0.65
 -13   1   2  418.20    8.66
 -13  -2   3  425.20    8.74
 -13  -2   2    1.03    1.16
 -12  -2   2  117.90    2.69
 -12  -2   1   17.16    1.20
 -11  -2   1  391.40    8.02
 -10  -2   1  105.50    2.40
 -10  -2   0 1530.00   30.80
  -9  -2   0  111.90    2.46
  -8  -2   0 1307.00   26.27
   8   2  10  249.60    5.29
   8   2  11   -4.29    1.42
  -7  -2   0   24.72    0.79
  -7  -2  -1  936.20   18.85
   7   2   8   20.28    1.12
   7   2   9  434.30    8.88
   7   2  10   11.22    1.20
   7   2  11   63.17    1.90
   7   2  12   37.83    1.71
  -6  -2   0 1111.00   22.32
  -6  -2  -1  802.80   16.16
   6   2   6  531.00   10.77
   6   2   7    0.17    0.78
   6   2   8  364.80    7.48
  -5  -2   0  361.20    7.32
  -5  -2  -1 1255.00   25.20
   5   2   5 1371.00   27.54
   5   2   6  140.80    3.05
  -4  -2   0 1845.00   36.99
  -4  -2  -1  139.90    2.89
   4   2   4 2570.00   51.53
   4   2   5   -0.26    0.45
  -3  -2   0  101.80    2.14
   3   2   3 2503.00   50.19
   2   2   2  213.40    4.35
   2   2   3  134.00    2.77
  -1  -2   0   31.96    0.77
   1   2   2  104.80    2.18
   0   2   1  154.20    3.16
   1  -2   1  403.10    8.13
   3  -2   2   89.40    1.85
  -3   2   0  101.40    2.09
   4  -2   3   16.27    0.44
  -5   2   0  357.50    7.25
  -6   2   0 1179.00   24.03
 -12  -3   3   61.75    1.76
 -12  -3   2   57.75    1.66
 -11  -3   3    9.34    0.92
 -11  -3   2  180.00    3.86
 -11  -3   1   -0.20    1.00
 -10  -3   2    8.59    0.89
  -9  -3   2  706.80   14.28
  -9  -3   1   52.26    1.40
  -9  -3   0  648.30   13.11
  -8  -3   1  830.40   16.75
  -8  -3   0  106.90    2.34
  -7  -3   1  207.90    4.33
  -7  -3   0  989.20   19.93
   7   3  10  165.10    3.67
   7   3  11    3.54    1.42
  -6  -3   1 1068.00   21.50
  -6  -3   0  172.90    3.63
   6   3   8   -0.55    1.01
   6   3   9   73.76    1.97
   6   3  10  175.80    3.82
   6   3  11  159.30    3.56
  -5  -3   1  114.60    2.47
  -5  -3   0 1770.00   35.54
   5   3   6 1043.00   21.01
   5   3   7  312.00    6.42
   5   3   8  169.40    3.65
   5   3   9   31.16    1.28
   5   3  10   86.22    2.11
  -4  -3   1 2547.00   51.08
  -4  -3   0    0.49    0.54
   4   3   5 1380.00   27.75
   4   3   6  139.30    3.04
   4   3   7 1356.00   27.26
  -3  -3   1    8.22    0.61
  -3  -3   0 1824.00   36.61
   3   3   4 1132.00   22.78
   3   3   5  418.00    8.51
   3   3   6 2064.00   41.44
  -2  -3   1 1827.00   36.68
  -2  -3   0   76.91    1.71
   2   3   3 2193.00   44.00
   2   3   4  313.90    6.42
   2   3   5 1204.00   24.20
  -1  -3   1   13.99    0.60
   1   3   3   58.72    1.37
   1   3   4 1692.00   33.98
   0  -3   2    8.82    0.51
   0  -3   1  181.90    3.76
   0   3   2    7.58    0.47
   0   3   3 1373.00   27.56
   1  -3   2 1907.00   38.28
  -1   3   2 1328.00   26.66
   2  -3   3 2107.00   42.29
   2  -3   2   36.33    0.91
  -2   3   2   14.20    0.56
   3  -3   3  216.80    4.44
  -3   3   1    6.64    0.44
  -3   3   2 2008.00   40.29
   4  -3   4   14.47    0.57
  -4   3   1 2546.00   51.11
   5  -3   6 1031.00   20.85
  -5   3   1  115.40    2.42
   6  -3   7  576.50   11.80
  -6   3   1 1107.00   22.31
   7  -3  10  164.70    3.61
  -8   3   2   16.45    0.74
  -9   3   2  729.30   14.82
 -11   3   3    9.77    0.86
 -11  -4   2   20.13    1.27
 -10  -4   4  162.10    3.51
 -10  -4   3   45.05    1.48
 -10  -4   2  277.50    5.75
  -9  -4   3  307.80    6.36
  -9  -4   2  172.40    3.67
  -9  -4   1  437.70    8.95
  -8  -4   3  102.70    2.32
  -8  -4   2  452.40    9.21
  -8  -4   1  105.80    2.37
  -7  -4   3  508.70   10.32
  -7  -4   2  177.90    3.75
  -7  -4   1  408.10    8.32
  -6  -4   2  604.00   12.24
  -6  -4   1    8.29    0.83
  -5  -4   2  200.30    4.19
  -5  -4   1  334.90    6.85
   5   4   9  556.80   11.29
   5   4  10  177.80    3.84
  -4  -4   2  894.80   18.03
  -4  -4   1 1065.00   21.42
   4   4   7   60.17    1.61
   4   4   8  492.10   10.02
   4   4   9   11.47    1.07
   4   4  10  322.30    6.64
   4   4  11    6.31    1.21
  -3  -4   2    3.88    0.67
  -3  -4   1  605.30   12.23
   3   4   6  135.00    2.94
   3   4   7  185.60    3.95
   3   4   8   -0.38    0.92
   3   4   9  332.40    6.83
   3   4  10   49.03    1.52
   3   4  11  253.30    5.31
  -2  -4   3  417.30    8.48
  -2  -4   2  901.10   18.15
   2   4   5   28.66    1.09
   2   4   6  314.30    6.46
   2   4   7    3.32    0.96
   2   4   8  345.00    7.08
  -1  -4   3  701.50   14.16
  -1  -4   2   90.74    2.01
   1   4   4   78.38    1.86
   1   4   5  760.40   15.36
   1   4   6   33.04    1.13
   1   4   7  790.00   15.96
   0  -4   3   85.49    1.90
   0  -4   2  886.60   17.86
   0   4   4  745.10   15.05
   0   4   5   48.57    1.41
   0   4   6 1003.00   20.22
   1  -4   4   71.69    1.67
   1  -4   3  811.40   16.37
  -1   4   3  695.20   14.05
  -1   4   4  199.60    4.19
  -1   4   5  401.90    8.21
   2  -4   5   26.82    0.93
   2  -4   4  887.60   17.97
  -2   4   3  412.50    8.40
  -2   4   4  294.90    6.07
   3  -4   6  125.20    2.73
   3  -4   5  289.30    5.96
  -3   4   3  780.60   15.77
  -3   4   4  954.80   19.25
   4  -4   7   62.89    1.67
   4  -4   6  133.30    2.90
  -4   4   3   24.20    1.08
  -4   4   4  543.20   11.03
   5  -4   9  557.20   11.36
   5  -4   8    2.15    1.09
   5  -4   7  349.90    7.19
  -5   4   3  876.50   17.71
  -5   4   4   18.83    0.94
   6  -4  10  178.60    4.12
  -6   4   3  139.10    3.05
  -6   4   4  728.00   14.73
  -7   4   3  550.90   11.21
  -7   4   4    3.63    1.00
  -8   4   3  112.70    2.60
  -8   4   4  379.00    7.78
  -9   4   4    4.35    1.22
 -10   4   4  176.80    4.06
 -10   4   5   30.50    1.63
  -8  -5   4   17.25    1.21
  -8  -5   3  226.20    4.74
  -7  -5   5   -0.08    0.94
  -7  -5   4  812.00   16.39
  -7  -5   3    0.25    1.02
  -6  -5   5  736.80   14.90
  -6  -5   4    0.42    0.90
  -6  -5   3  540.10   10.97
  -5  -5   5   22.46    1.16
  -5  -5   4  360.50    7.38
  -5  -5   3    1.20    0.94
  -4  -5   5  526.30   10.69
  -4  -5   4   22.90    0.99
  -4  -5   3   23.94    0.98
  -3  -5   5   21.18    0.96
  -3  -5   4  205.80    4.32
  -3  -5   3  181.80    3.85
   3   5   9    1.92    1.14
  -2  -5   5  766.50   15.48
  -2  -5   4   95.08    2.19
  -2  -5   3   89.02    2.07
   2   5   8   16.98    1.20
   2   5   9  323.40    6.71
  -1  -5   6  846.60   17.09
  -1  -5   5   24.69    1.05
  -1  -5   4  718.20   14.51
   1   5   7    1.85    1.02
   1   5   8  420.60    8.61
   1   5   9    1.94    1.09
   0  -5   6    7.53    0.91
   0  -5   5  519.80   10.55
   0   5   6    7.95    1.03
   0   5   7  375.70    7.70
   0   5   8  109.70    2.52
   0   5   9  284.00    5.92
   1  -5   7    0.23    0.93
   1  -5   6  306.40    6.31
   1  -5   5    3.18    0.84
  -1   5   6  810.40   16.38
  -1   5   7   -0.40    1.07
  -1   5   8  290.00    6.03
  -1   5   9   26.07    1.32
   2  -5   8   21.50    1.17
   2  -5   7  419.80    8.58
   2  -5   6    9.51    0.95
  -2   5   5  760.70   15.38
  -2   5   6  107.50    2.48
  -2   5   7  348.10    7.15
  -2   5   8    1.90    1.20
  -2   5   9   95.51    2.33
   3  -5   9    1.53    1.25
   3  -5   8  188.50    4.07
   3  -5   7    4.15    1.11
  -3   5   5   18.33    1.16
  -3   5   6  512.80   10.46
  -3   5   7    4.42    1.18
  -3   5   8   48.10    1.67
  -4   5   5  536.80   10.92
  -4   5   6    3.59    1.08
  -4   5   7  182.70    3.92
  -4   5   8   -1.54    1.07
  -5   5   5   21.89    1.21
  -5   5   6  439.80    8.99
  -5   5   7   12.07    1.20
  -5   5   8   33.64    1.42
  -6   5   5  735.00   14.88
  -6   5   6   19.89    1.32
  -6   5   7  138.80    3.13
  -7   5   5    3.89    1.38
  -7   5   6  464.10    9.50
   0   0   0    0.00    0.00
;
_shelx_hkl_checksum              24709
_olex2_submission_special_instructions 'No special instructions were received'
loop_
_space_group_symop_operation_xyz
'x, y, z'
'-x+1/2, y+1/2, -z+1/2'
'-x, -y, -z'
'x-1/2, -y-1/2, z-1/2'
loop_
_atom_site_label
_atom_site_type_symbol
_atom_site_fract_x
_atom_site_fract_y
_atom_site_fract_z
_atom_site_U_iso_or_equiv
_atom_site_adp_type
_atom_site_occupancy
_atom_site_site_symmetry_order
_atom_site_calc_flag
_atom_site_refinement_flags_posn
_atom_site_refinement_flags_adp
_atom_site_refinement_flags_occupancy
_atom_site_disorder_assembly
_atom_site_disorder_group
C1 C 0.1812(8) -0.0620(12) 0.4483(9) 0.0171(13) Uiso 1 1 d . . . . .
H1A H 0.1197 0.0827 0.4753 0.026 Uiso 1 1 calc GR . . . .
H1B H 0.1936 -0.2116 0.5090 0.026 Uiso 1 1 calc GR . . . .
H1C H 0.1467 -0.1495 0.3745 0.026 Uiso 1 1 calc GR . . . .
C2 C 0.3092(7) 0.0789(11) 0.4271(8) 0.0133(12) Uiso 1 1 d . . . . .
C3 C 0.3893(8) -0.0298(12) 0.3395(9) 0.0167(13) Uiso 1 1 d . . . . .
H3 H 0.3586 -0.1920 0.2952 0.020 Uiso 1 1 calc R . . . .
C4 C 0.5113(7) 0.0843(12) 0.3130(9) 0.0146(12) Uiso 1 1 d . . . . .
C5 C 0.5843(8) -0.0506(13) 0.2147(10) 0.0199(13) Uiso 1 1 d . . . . .
H5A H 0.6481 -0.1884 0.2481 0.030 Uiso 1 1 calc GR . . . .
H5B H 0.6295 0.0999 0.1715 0.030 Uiso 1 1 calc GR . . . .
H5C H 0.5229 -0.1512 0.1603 0.030 Uiso 1 1 calc GR . . . .
O1 O 0.3373(5) 0.2949(8) 0.4950(6) 0.0159(10) Uiso 1 1 d . . . . .
O2 O 0.5659(5) 0.2989(8) 0.3651(7) 0.0165(10) Uiso 1 1 d . . . . .
Cu1 Cu 0.5000 0.5000 0.5000 0.0134(4) Uiso 1 2 d S T P . .
loop_
_atom_type_symbol
_atom_type_description
_atom_type_scat_dispersion_real
_atom_type_scat_dispersion_imag
_atom_type_scat_source
C C 0.0033 0.0016 'International Tables Vol C Tables 4.2.6.8 and 6.1.1.4'
H H 0.0000 0.0000 'International Tables Vol C Tables 4.2.6.8 and 6.1.1.4'
Cu Cu 0.3201 1.2651 'International Tables Vol C Tables 4.2.6.8 and 6.1.1.4'
O O 0.0106 0.0060 'International Tables Vol C Tables 4.2.6.8 and 6.1.1.4'
loop_
_geom_angle_atom_site_label_1
_geom_angle_atom_site_label_2
_geom_angle_atom_site_label_3
_geom_angle
_geom_angle_site_symmetry_1
_geom_angle_site_symmetry_3
H1A C1 H1B 109.5 . .
H1A C1 H1C 109.5 . .
H1B C1 H1C 109.5 . .
C2 C1 H1A 109.5 . .
C2 C1 H1B 109.5 . .
C2 C1 H1C 109.5 . .
C3 C2 C1 120.0(7) . .
O1 C2 C1 114.9(8) . .
O1 C2 C3 125.1(7) . .
C2 C3 H3 117.7 . .
C4 C3 C2 124.7(6) . .
C4 C3 H3 117.7 . .
C3 C4 C5 118.6(6) . .
O2 C4 C3 125.1(9) . .
O2 C4 C5 116.3(8) . .
C4 C5 H5A 109.5 . .
C4 C5 H5B 109.5 . .
C4 C5 H5C 109.5 . .
H5A C5 H5B 109.5 . .
H5A C5 H5C 109.5 . .
H5B C5 H5C 109.5 . .
C2 O1 Cu1 125.1(6) . .
C4 O2 Cu1 125.4(7) . .
O1 Cu1 O1 180.0 3_666 .
O1 Cu1 O2 94.1(3) . .
O1 Cu1 O2 85.9(3) . 3_666
O1 Cu1 O2 94.1(3) 3_666 3_666
O1 Cu1 O2 85.9(3) 3_666 .
O2 Cu1 O2 180.0(2) . 3_666
loop_
_geom_bond_atom_site_label_1
_geom_bond_atom_site_label_2
_geom_bond_distance
_geom_bond_site_symmetry_2
C1 H1A 0.9800 .
C1 H1B 0.9800 .
C1 H1C 0.9800 .
C1 C2 1.497(11) .
C2 C3 1.407(13) .
C2 O1 1.287(8) .
C3 H3 0.9500 .
C3 C4 1.406(11) .
C4 C5 1.504(14) .
C4 O2 1.274(8) .
C5 H5A 0.9800 .
C5 H5B 0.9800 .
C5 H5C 0.9800 .
O1 Cu1 1.922(5) .
O2 Cu1 1.935(7) .
Cu1 O1 1.922(5) 3_666
Cu1 O2 1.935(7) 3_666
loop_
_geom_torsion_atom_site_label_1
_geom_torsion_atom_site_label_2
_geom_torsion_atom_site_label_3
_geom_torsion_atom_site_label_4
_geom_torsion
_geom_torsion_site_symmetry_1
_geom_torsion_site_symmetry_2
_geom_torsion_site_symmetry_3
_geom_torsion_site_symmetry_4
C1 C2 C3 C4 -179.5(7) . . . .
C1 C2 O1 Cu1 174.2(5) . . . .
C2 C3 C4 C5 -178.4(8) . . . .
C2 C3 C4 O2 0.6(14) . . . .
C3 C2 O1 Cu1 -4.8(12) . . . .
C3 C4 O2 Cu1 4.8(11) . . . .
C5 C4 O2 Cu1 -176.2(5) . . . .
O1 C2 C3 C4 -0.6(15) . . . .
