#------------------------------------------------------------------------------
#$Date: 2019-05-24 12:00:26 +0300 (Fri, 24 May 2019) $
#$Revision: 215487 $
#$URL: file:///home/coder/svn-repositories/cod/cif/1/55/11/1551129.cif $
#------------------------------------------------------------------------------
#
# This file is available in the Crystallography Open Database (COD),
# http://www.crystallography.net/
#
# All data on this site have been placed in the public domain by the
# contributors.
#
data_1551129
loop_
_publ_author_name
'Anna Worthy'
'Arnaud Grosjean'
'Michael C. Pfrunder'
'Yanan Xu'
'Cheng Yan'
'Grant Edwards'
'Jack K. Clegg'
'John C. McMurtrie'
_publ_section_title
;
 Atomic resolution of structural changes in elastic crystals of copper(II)
 acetylacetonate
;
_journal_name_full               'Nature Chemistry'
_journal_page_first              65
_journal_page_last               69
_journal_paper_doi               10.1038/nchem.2848
_journal_volume                  10
_journal_year                    2018
_chemical_formula_moiety         'C10 H14 Cu O4'
_chemical_formula_sum            'C10 H14 Cu O4'
_chemical_formula_weight         261.75
_space_group_crystal_system      monoclinic
_space_group_IT_number           14
_space_group_name_Hall           '-P 2yn'
_space_group_name_H-M_alt        'P 1 21/n 1'
_symmetry_space_group_name_Hall  '-P 2yn'
_symmetry_space_group_name_H-M   'P 1 21/n 1'
_atom_sites_solution_hydrogens   geom
_cell_angle_alpha                90
_cell_angle_beta                 91.94(3)
_cell_angle_gamma                90
_cell_formula_units_Z            2
_cell_length_a                   10.305(2)
_cell_length_b                   4.5730(9)
_cell_length_c                   11.428(2)
_cell_measurement_reflns_used    284
_cell_measurement_temperature    100(2)
_cell_measurement_theta_max      29.472
_cell_measurement_theta_min      9.322
_cell_volume                     538.23(18)
_computing_cell_refinement       'XDS (Kabsch, 1993)'
_computing_data_collection       'BluIce (McPhillips, 2002)'
_computing_data_reduction        'XDS (Kabsch, 1993)'
_computing_molecular_graphics    'Olex2 (Dolomanov et al., 2009)'
_computing_publication_material  'Olex2 (Dolomanov et al., 2009)'
_computing_structure_refinement  'ShelXL (Sheldrick, 2015)'
_computing_structure_solution    'Known Structure'
_diffrn_ambient_temperature      100(2)
_diffrn_measured_fraction_theta_full 0.196
_diffrn_measured_fraction_theta_max 0.189
_diffrn_measurement_device_type  'ADSC Quantum 315r'
_diffrn_measurement_method       'Phi Scan'
_diffrn_radiation_monochromator  'Silicon Double Crystal'
_diffrn_radiation_type           Synchrotron
_diffrn_radiation_wavelength     0.7108
_diffrn_reflns_av_unetI/netI     0.0258
_diffrn_reflns_Laue_measured_fraction_full 0.196
_diffrn_reflns_Laue_measured_fraction_max 0.189
_diffrn_reflns_number            284
_diffrn_reflns_point_group_measured_fraction_full 0.196
_diffrn_reflns_point_group_measured_fraction_max 0.189
_diffrn_reflns_theta_full        26.000
_diffrn_reflns_theta_max         29.472
_diffrn_reflns_theta_min         9.322
_diffrn_source                   Synchrotron
_exptl_absorpt_coefficient_mu    2.019
_exptl_absorpt_correction_type   multi-scan
_exptl_absorpt_process_details   'XDS (Kabsch, 1993)'
_exptl_crystal_colour            'dark blue'
_exptl_crystal_colour_lustre     .
_exptl_crystal_colour_modifier   dark
_exptl_crystal_colour_primary    blue
_exptl_crystal_density_diffrn    1.615
_exptl_crystal_description       needle
_exptl_crystal_F_000             270
_exptl_crystal_size_max          1
_exptl_crystal_size_mid          0.05
_exptl_crystal_size_min          0.05
_refine_diff_density_max         0.461
_refine_diff_density_min         -0.462
_refine_diff_density_rms         0.073
_refine_ls_extinction_coef       .
_refine_ls_extinction_method     none
_refine_ls_goodness_of_fit_ref   1.070
_refine_ls_hydrogen_treatment    constr
_refine_ls_matrix_type           full
_refine_ls_number_parameters     32
_refine_ls_number_reflns         284
_refine_ls_number_restraints     0
_refine_ls_restrained_S_all      1.070
_refine_ls_R_factor_all          0.0710
_refine_ls_R_factor_gt           0.0602
_refine_ls_shift/su_max          0.000
_refine_ls_shift/su_mean         0.000
_refine_ls_structure_factor_coef Fsqd
_refine_ls_weighting_details
'w=1/[\s^2^(Fo^2^)+(0.0657P)^2^+4.1976P] where P=(Fo^2^+2Fc^2^)/3'
_refine_ls_weighting_scheme      calc
_refine_ls_wR_factor_gt          0.1466
_refine_ls_wR_factor_ref         0.1565
_reflns_Friedel_coverage         0.000
_reflns_Friedel_fraction_full    .
_reflns_Friedel_fraction_max     .
_reflns_number_gt                242
_reflns_number_total             284
_reflns_threshold_expression     'I > 2\s(I)'
_cod_data_source_file            nchem.2848-s5-n.cif
_cod_data_source_block           n
_cod_depositor_comments
;
The following automatic conversions were performed:

'_exptl_absorpt_correction_type' value 'Multi-Scan' changed to
'multi-scan' according to the built-in table from CIF Core dictionary
named 'cif_core.dic' version 2.4.5 from 2014-11-21.

Automatic conversion script
Id: cif_fix_values 6524 2018-11-02 12:15:13Z antanas 
;
_cod_original_cell_volume        538.23(19)
_cod_database_code               1551129
_shelx_space_group_comment
;
The symmetry employed for this shelxl refinement is uniquely defined
by the following loop, which should always be used as a source of
symmetry information in preference to the above space-group names.
They are only intended as comments.
;
_shelx_estimated_absorpt_t_max   0.906
_shelx_estimated_absorpt_t_min   0.237
_olex2_refinement_description
;
1. Fixed Uiso
 At 1.2 times of:
  All C(H) groups
 At 1.5 times of:
  All C(H,H,H) groups
2.a Aromatic/amide H refined with riding coordinates:
 C3(H3)
2.b Idealised Me refined as rotating group:
 C1(H1A,H1B,H1C), C5(H5A,H5B,H5C)
;
_shelx_res_file
;
TITL 2b in P2(1)/n
CELL 0.71073 10.305 4.573 11.428 90 91.936 90
ZERR 2 0.00206 0.00091 0.00229 0 0.03 0
LATT 1
SYMM 0.5-X,0.5+Y,0.5-Z
SFAC C H Cu O
UNIT 20 28 2 8

L.S. 50
PLAN  25
SIZE 0.05 0.05 1
TEMP -173(2)
LIST 1
MORE -1
BOND $H
CONF
fmap 2
acta 52
REM <olex2.extras>
REM <HklSrc "%.\\n.hkl">
REM </olex2.extras>

WGHT    0.065700    4.197600
FVAR       0.61982
C1    1    0.181129   -0.066024    0.446151    11.00000    0.01990
AFIX 137
H1A   2    0.120439    0.078126    0.476473    11.00000   -1.50000
H1B   2    0.192605   -0.225954    0.502636    11.00000   -1.50000
H1C   2    0.146379   -0.144017    0.371614    11.00000   -1.50000
AFIX   0
C2    1    0.309273    0.077093    0.427423    11.00000    0.01575
C3    1    0.389942   -0.031625    0.340175    11.00000    0.02151
AFIX  43
H3    2    0.359447   -0.193483    0.294972    11.00000   -1.20000
AFIX   0
C4    1    0.511921    0.083183    0.315803    11.00000    0.01455
C5    1    0.584913   -0.056438    0.216624    11.00000    0.02349
AFIX 137
H5A   2    0.650912    0.079863    0.189632    11.00000   -1.50000
H5B   2    0.523810   -0.102527    0.151665    11.00000   -1.50000
H5C   2    0.627023   -0.236567    0.244704    11.00000   -1.50000
AFIX   0
O1    4    0.340292    0.292949    0.494711    11.00000    0.02021
O2    4    0.566049    0.296831    0.368133    11.00000    0.01709
CU1   3    0.500000    0.500000    0.500000    10.50000    0.01583
HKLF 4

REM  2b in P2(1)/n
REM R1 =  0.0602 for     242 Fo > 4sig(Fo)  and  0.0710 for all     284 data
REM     32 parameters refined using      0 restraints

END

WGHT      0.0647      4.1810

REM Highest difference peak  0.461,  deepest hole -0.462,  1-sigma level  0.073
Q1    1   0.5452  0.7007  0.5487  11.00000  0.05    0.46
Q2    1   0.4967  0.5047  0.4255  11.00000  0.05    0.40
Q3    1   0.5026  0.2110  0.5128  11.00000  0.05    0.33
Q4    1   0.4585 -0.0047  0.0601  11.00000  0.05    0.30
Q5    1   0.4165  0.4975  0.5608  11.00000  0.05    0.30
Q6    1   0.3817 -0.5070  0.3249  11.00000  0.05    0.26
Q7    1   0.4137  0.3987  0.3767  11.00000  0.05    0.25
Q8    1   0.1435 -0.5597  0.4896  11.00000  0.05    0.25
Q9    1   0.5726  0.0013  0.1717  11.00000  0.05    0.24
Q10   1   0.4448  0.6933  0.4406  11.00000  0.05    0.23
Q11   1   0.4210 -0.3709  0.3920  11.00000  0.05    0.23
Q12   1   0.5157  0.0028  0.4824  11.00000  0.05    0.22
Q13   1   0.4768 -0.0025  0.2603  11.00000  0.05    0.21
Q14   1   0.3641 -0.0075  0.4165  11.00000  0.05    0.21
Q15   1   0.5266  0.1085  0.1108  11.00000  0.05    0.21
Q16   1   0.5114 -0.1708  0.0418  11.00000  0.05    0.20
Q17   1   0.0966 -0.3369  0.3473  11.00000  0.05    0.19
Q18   1   0.5339  0.7100  0.4443  11.00000  0.05    0.18
Q19   1   0.5948 -0.1239  0.2495  11.00000  0.05    0.18
Q20   1   0.4321  0.1801  0.3770  11.00000  0.05    0.17
Q21   1   0.4575 -0.1025  0.4278  11.00000  0.05    0.17
Q22   1   0.3483 -0.2480  0.4241  11.00000  0.05    0.17
Q23   1   0.6806  0.0016  0.2046  11.00000  0.05    0.17
Q24   1   0.5158 -0.1216  0.1009  11.00000  0.05    0.17
Q25   1   0.2780 -0.3108  0.4067  11.00000  0.05    0.17
;
_shelx_res_checksum              77800
_shelx_hkl_file
;
  13   1  -2  109.60    2.88
  -6  -1  10    9.21    0.93
  -6  -1  11  154.10    3.37
  -5  -1   7  182.40    3.78
   4   1  -2  341.10    6.89
  -4  -1   5  376.30    7.62
  -4   1   4   67.13    1.44
  -5   1   6  523.40   10.62
   5  -1  -2  578.50   11.67
  -6   1   9  231.10    4.83
  -6   1   8   30.68    1.08
   6  -1  -2   48.13    1.08
   7  -1  -2  346.20    7.05
   9  -1  -2  467.90    9.58
  10  -1  -2    8.56    0.87
  11  -1  -2  260.20    5.43
  12  -1  -2    1.78    1.66
  13  -1  -1    2.08    1.98
  14  -1  -1  221.60    4.98
  12   2  -2   32.69    1.69
  11   2  -2    0.15    1.29
  10   2  -2   99.17    2.37
   6   2  -2  332.60    6.76
   5   2  -2   71.31    1.58
  -5  -2   9  441.10    9.02
  -5  -2  10   26.14    1.43
  -5  -2  11  145.70    3.36
  -5  -2  12   -4.01    2.03
   4   2  -2 1375.00   27.61
  -4  -2   6  253.00    5.19
  -4  -2   7   59.75    1.50
   3   2  -1 1235.00   24.82
  -3  -2   5  365.10    7.40
   2   2  -1   18.90    0.60
  -2  -2   3    6.69    0.54
  -2  -2   4  498.00   10.05
  -1  -2   3  921.80   18.52
  -1   2   1  549.80   11.10
  -2   2   2 1103.00   22.16
  -3   2   3 1490.00   29.93
   3  -2   0   29.34    0.80
  -4   2   5    3.11    0.63
  -4   2   4  431.10    8.84
   4  -2  -1  155.30    3.22
  -5   2   7   78.59    1.86
  -5   2   6    3.95    0.74
   5  -2  -1  448.40    9.06
  -6   2  11    4.51    1.43
  -6   2  10   85.43    2.22
  -6   2   9    1.15    1.10
   6  -2  -1    1.91    0.59
   7  -2  -1  280.90    5.75
   8  -2  -1   34.97    1.19
   9  -2  -1  465.70    9.50
  10  -2  -1   32.63    1.41
  11  -2  -1  132.00    3.10
  12  -2  -1    9.00    1.66
  13  -2   0   12.73    1.88
  12   3  -1   21.13    2.04
  11   3  -1    2.20    1.68
  11   3  -2   68.37    2.82
  10   3  -1   53.71    1.98
  10   3  -2    3.01    1.46
   9   3  -2  211.00    4.60
   8   3  -2    7.15    1.37
   7   3  -2  166.30    3.68
   6   3  -1  301.40    6.23
   6   3  -2   -1.43    0.83
   5   3  -1   33.86    1.08
   5   3  -2  372.50    7.76
   4   3  -1  698.00   14.08
  -4  -3   9  165.30    3.65
  -4  -3  10   60.60    1.95
  -4  -3  11  181.00    4.07
  -4  -3  12   14.85    1.80
  -4  -3  13   50.43    2.27
   3   3   0  531.70   10.75
   3   3  -1    2.07    0.63
  -3  -3   7    2.84    1.30
  -3  -3   8  223.60    4.81
  -3  -3   9    0.27    1.15
  -3  -3  10  258.00    5.55
   2   3   0   22.71    0.82
  -2  -3   5  411.80    8.37
  -2  -3   6  259.80    5.40
  -2  -3   7   83.66    2.08
   1   3   1   33.54    0.98
   1   3   0   54.21    1.31
  -1  -3   4  410.50    8.33
  -1  -3   5  102.20    2.27
   0   3   2    4.41    0.64
   0   3   1   57.94    1.42
   0  -3   3  384.40    7.81
   0  -3   4   16.23    0.82
  -1   3   3   22.13    0.93
  -1   3   2  355.30    7.24
   1  -3   2  504.30   10.19
   1  -3   3   15.78    0.78
  -2   3   4    0.22    0.68
  -2   3   3  565.60   11.45
   2  -3   1  402.30    8.18
   2  -3   2   13.59    0.75
  -3   3   5    3.77    0.88
  -3   3   4  543.90   11.03
   3  -3   1   -1.26    0.66
   3  -3   2  429.30    8.71
  -4   3   7  235.20    5.02
  -4   3   6   36.40    1.36
  -4   3   5  199.80    4.27
   4  -3   0   -0.81    0.84
   4  -3   1  318.10    6.51
  -5   3  10   82.28    2.22
  -5   3   9   24.19    1.39
  -5   3   8  207.70    4.44
  -5   3   7    2.51    1.20
   5  -3   0  465.70    9.45
   5  -3   1  280.70    5.84
  -6   3  12    2.64    1.92
  -6   3  11   32.80    1.74
  -6   3  10    3.07    2.21
   6  -3   0   55.31    1.64
   6  -3   1  111.80    2.57
   7  -3   0  272.50    5.70
   8  -3   0   30.57    1.45
   9  -3   0  201.20    4.35
  10  -3   0   75.20    2.20
  10  -3   1  223.60    4.85
  11  -3   0   81.55    2.39
  11  -3   1    2.56    1.59
  12  -3   0   -1.19    1.72
  12  -3   1   70.64    2.40
  11   4   0    2.64    1.95
  11   4  -1   92.53    3.15
  10   4   0   36.62    1.90
  10   4  -1    5.84    1.69
   9   4   0   -0.49    1.52
   9   4  -1  120.90    3.05
   8   4   0  102.80    2.62
   8   4  -1   35.86    1.65
   7   4   0    3.35    1.31
   7   4  -1  132.70    3.10
   6   4   0   87.81    2.18
   6   4  -1    4.93    1.04
   5   4   0   30.57    1.20
   5   4  -1  113.20    2.78
   4   4   1   47.28    1.41
   4   4   0   86.12    2.10
   3   4   1  148.20    3.22
   3   4   0   18.98    1.00
  -3  -4  11   11.38    1.71
   2   4   2  193.70    4.09
   2   4   1   53.14    1.47
  -2  -4   8  151.40    3.53
  -2  -4   9    8.43    1.43
  -2  -4  10   37.31    1.73
  -2  -4  11    2.74    1.67
  -2  -4  12   38.85    2.03
   1   4   3  234.30    4.87
   1   4   2  118.10    2.63
   1   4   1  343.00    7.02
  -1  -4   6   19.81    1.30
  -1  -4   7  285.20    5.95
  -1  -4   8    5.94    1.24
  -1  -4   9  103.50    2.65
  -1  -4  10    6.24    1.45
  -1  -4  11   36.69    1.68
  -1  -4  12    3.52    1.79
   0   4   4  203.40    4.29
   0   4   3   23.30    1.03
   0   4   2  268.30    5.54
   0  -4   5   13.28    1.15
   0  -4   6  254.90    5.35
   0  -4   7    0.47    1.22
   0  -4   8  197.90    4.25
  -1   4   5  106.50    2.43
  -1   4   4   54.41    1.48
  -1   4   3  186.80    3.96
   1  -4   4   20.81    1.16
   1  -4   5  188.90    4.05
   1  -4   6    5.49    1.23
   1  -4   7  197.30    4.23
  -2   4   6  122.40    2.77
  -2   4   5   15.36    1.03
  -2   4   4   92.16    2.19
   2  -4   3  167.60    3.60
   2  -4   4  206.90    4.39
   2  -4   5    5.76    1.12
   2  -4   6   81.37    2.11
  -3   4   8    7.42    1.25
  -3   4   7  121.70    2.83
  -3   4   6    3.60    1.09
  -3   4   5   71.59    2.06
   3  -4   3  203.50    4.35
   3  -4   4    0.87    1.14
   3  -4   5   74.29    1.93
  -4   4  11    6.92    1.77
  -4   4  10   25.37    1.72
  -4   4   9    0.56    1.45
  -4   4   8   99.28    2.46
  -4   4   7    7.08    1.14
   4  -4   2  209.30    4.44
   4  -4   3   -1.03    1.17
   4  -4   4  173.70    3.80
  -5   4  11   40.44    2.09
  -5   4  10   15.94    1.65
   5  -4   2    6.51    1.22
   5  -4   3  271.20    5.70
   5  -4   4   19.59    1.30
   6  -4   2  296.70    6.20
   6  -4   3    2.71    1.27
   7  -4   1  169.80    3.85
   7  -4   2    1.70    1.27
   7  -4   3  199.10    4.31
   8  -4   1   12.28    1.39
   8  -4   2  128.20    3.20
   8  -4   3    1.39    1.42
   9  -4   1   34.75    1.81
   9  -4   2    0.53    1.47
   9  -4   3   37.32    1.74
  10  -4   2   20.46    1.70
  10  -4   3    2.52    1.62
   8   5   2   -1.89    1.64
   8   5   1   12.59    1.65
   7   5   2   40.66    1.79
   7   5   1    4.18    1.44
   6   5   3  104.70    2.61
   6   5   2   -0.67    1.32
   6   5   1  170.40    3.80
   5   5   3    2.74    1.26
   5   5   2  164.70    3.64
   5   5   1   25.16    1.39
   4   5   3   59.04    1.77
   4   5   2    1.01    1.19
   4   5   1  209.60    4.47
   3   5   4   27.69    1.40
   3   5   3   -2.62    1.16
   3   5   2  110.20    2.58
   2   5   5   35.41    1.39
   2   5   4   -0.32    1.18
   2   5   3   30.99    1.36
   2   5   2    6.83    1.01
   1   5   6   54.57    1.69
   1   5   5    4.84    1.14
   1   5   4   30.82    1.33
   1   5   3   22.62    1.20
   0   5   7   77.80    2.13
   0   5   6   -0.11    1.24
   0   5   5  119.00    2.77
   0   5   4    5.95    1.20
   0  -5   9   50.89    2.25
  -1   5   9    4.23    1.52
  -1   5   8   64.33    2.10
  -1   5   7    0.57    1.32
  -1   5   6  207.60    4.48
  -1   5   5    5.49    1.18
   1  -5   8   88.96    2.43
   1  -5   9    2.18    1.66
  -2   5   9   19.29    1.74
  -2   5   8    1.75    1.56
  -2   5   7   99.15    2.56
  -2   5   6   26.60    1.62
   2  -5   6    3.61    1.79
   2  -5   7   80.57    2.29
   2  -5   8    0.32    1.59
   2  -5   9   57.84    2.07
  -3   5   9   -1.56    1.69
  -3   5   8   11.99    1.65
   3  -5   6   50.60    1.82
   3  -5   7    3.28    1.50
   3  -5   8   28.62    1.71
   3  -5   9    0.71    1.78
   4  -5   5   54.97    1.83
   4  -5   6   -0.80    1.53
   4  -5   7   21.35    1.62
   4  -5   8    8.78    1.67
   5  -5   4   55.48    2.74
   5  -5   5   -0.94    1.53
   5  -5   6   65.87    2.11
   5  -5   7    3.29    1.63
   6  -5   4    8.61    1.45
   6  -5   5  106.30    2.73
   6  -5   6    5.82    1.65
   7  -5   4   68.61    2.22
   7  -5   5    0.27    1.67
   0   0   0    0.00    0.00
;
_shelx_hkl_checksum              37073
_olex2_submission_special_instructions 'No special instructions were received'
loop_
_space_group_symop_operation_xyz
'x, y, z'
'-x+1/2, y+1/2, -z+1/2'
'-x, -y, -z'
'x-1/2, -y-1/2, z-1/2'
loop_
_atom_site_label
_atom_site_type_symbol
_atom_site_fract_x
_atom_site_fract_y
_atom_site_fract_z
_atom_site_U_iso_or_equiv
_atom_site_adp_type
_atom_site_occupancy
_atom_site_site_symmetry_order
_atom_site_calc_flag
_atom_site_refinement_flags_posn
_atom_site_refinement_flags_adp
_atom_site_refinement_flags_occupancy
_atom_site_disorder_assembly
_atom_site_disorder_group
C1 C 0.1811(13) -0.0660(18) 0.4462(14) 0.0199(19) Uiso 1 1 d . . . . .
H1A H 0.1204 0.0781 0.4765 0.030 Uiso 1 1 calc GR . . . .
H1B H 0.1926 -0.2260 0.5026 0.030 Uiso 1 1 calc GR . . . .
H1C H 0.1464 -0.1440 0.3716 0.030 Uiso 1 1 calc GR . . . .
C2 C 0.3093(12) 0.0771(17) 0.4274(12) 0.0158(18) Uiso 1 1 d . . . . .
C3 C 0.3899(13) -0.0316(17) 0.3402(13) 0.022(2) Uiso 1 1 d . . . . .
H3 H 0.3594 -0.1935 0.2950 0.026 Uiso 1 1 calc R . . . .
C4 C 0.5119(12) 0.0832(16) 0.3158(12) 0.0145(17) Uiso 1 1 d . . . . .
C5 C 0.5849(15) -0.0564(19) 0.2166(15) 0.023(2) Uiso 1 1 d . . . . .
H5A H 0.6509 0.0799 0.1896 0.035 Uiso 1 1 calc GR . . . .
H5B H 0.5238 -0.1025 0.1517 0.035 Uiso 1 1 calc GR . . . .
H5C H 0.6270 -0.2366 0.2447 0.035 Uiso 1 1 calc GR . . . .
O1 O 0.3403(10) 0.2929(13) 0.4947(10) 0.0202(15) Uiso 1 1 d . . . . .
O2 O 0.5660(9) 0.2968(12) 0.3681(10) 0.0171(14) Uiso 1 1 d . . . . .
Cu1 Cu 0.5000 0.5000 0.5000 0.0158(6) Uiso 1 2 d S T P . .
loop_
_atom_type_symbol
_atom_type_description
_atom_type_scat_dispersion_real
_atom_type_scat_dispersion_imag
_atom_type_scat_source
C C 0.0033 0.0016 'International Tables Vol C Tables 4.2.6.8 and 6.1.1.4'
H H 0.0000 0.0000 'International Tables Vol C Tables 4.2.6.8 and 6.1.1.4'
Cu Cu 0.3201 1.2651 'International Tables Vol C Tables 4.2.6.8 and 6.1.1.4'
O O 0.0106 0.0060 'International Tables Vol C Tables 4.2.6.8 and 6.1.1.4'
loop_
_geom_angle_atom_site_label_1
_geom_angle_atom_site_label_2
_geom_angle_atom_site_label_3
_geom_angle
_geom_angle_site_symmetry_1
_geom_angle_site_symmetry_3
H1A C1 H1B 109.5 . .
H1A C1 H1C 109.5 . .
H1B C1 H1C 109.5 . .
C2 C1 H1A 109.5 . .
C2 C1 H1B 109.5 . .
C2 C1 H1C 109.5 . .
C3 C2 C1 119.4(10) . .
O1 C2 C1 117.0(10) . .
O1 C2 C3 123.6(10) . .
C2 C3 H3 117.8 . .
C4 C3 C2 124.3(11) . .
C4 C3 H3 117.8 . .
C3 C4 C5 117.4(11) . .
O2 C4 C3 125.5(10) . .
O2 C4 C5 117.1(10) . .
C4 C5 H5A 109.5 . .
C4 C5 H5B 109.5 . .
C4 C5 H5C 109.5 . .
H5A C5 H5B 109.5 . .
H5A C5 H5C 109.5 . .
H5B C5 H5C 109.5 . .
C2 O1 Cu1 126.9(7) . .
C4 O2 Cu1 125.7(7) . .
O1 Cu1 O1 180.0 . 3_666
O1 Cu1 O2 86.3(4) . 3_666
O1 Cu1 O2 93.7(4) . .
O1 Cu1 O2 93.7(4) 3_666 3_666
O1 Cu1 O2 86.3(4) 3_666 .
O2 Cu1 O2 180.0 . 3_666
loop_
_geom_bond_atom_site_label_1
_geom_bond_atom_site_label_2
_geom_bond_distance
_geom_bond_site_symmetry_2
C1 H1A 0.9800 .
C1 H1B 0.9800 .
C1 H1C 0.9800 .
C1 C2 1.496(16) .
C2 C3 1.410(16) .
C2 O1 1.285(13) .
C3 H3 0.9500 .
C3 C4 1.399(16) .
C4 C5 1.522(18) .
C4 O2 1.265(12) .
C5 H5A 0.9800 .
C5 H5B 0.9800 .
C5 H5C 0.9800 .
O1 Cu1 1.898(9) .
O2 Cu1 1.915(8) .
Cu1 O1 1.898(9) 3_666
Cu1 O2 1.915(8) 3_666
loop_
_geom_torsion_atom_site_label_1
_geom_torsion_atom_site_label_2
_geom_torsion_atom_site_label_3
_geom_torsion_atom_site_label_4
_geom_torsion
_geom_torsion_site_symmetry_1
_geom_torsion_site_symmetry_2
_geom_torsion_site_symmetry_3
_geom_torsion_site_symmetry_4
C1 C2 C3 C4 -179.4(14) . . . .
C1 C2 O1 Cu1 175.2(11) . . . .
C2 C3 C4 C5 -178.6(13) . . . .
C2 C3 C4 O2 0(2) . . . .
C2 O1 Cu1 O2 -174.2(10) . . . 3_666
C2 O1 Cu1 O2 5.8(10) . . . .
C3 C2 O1 Cu1 -3.6(16) . . . .
C3 C4 O2 Cu1 4.3(16) . . . .
C5 C4 O2 Cu1 -176.9(11) . . . .
O1 C2 C3 C4 -1(2) . . . .
