#------------------------------------------------------------------------------
#$Date: 2019-05-24 10:10:53 +0300 (Fri, 24 May 2019) $
#$Revision: 215471 $
#$URL: file:///home/coder/svn-repositories/cod/cif/1/55/11/1551115.cif $
#------------------------------------------------------------------------------
#
# This file is available in the Crystallography Open Database (COD),
# http://www.crystallography.net/
#
# All data on this site have been placed in the public domain by the
# contributors.
#
data_1551115
loop_
_publ_author_name
'Anna Worthy'
'Arnaud Grosjean'
'Michael C. Pfrunder'
'Yanan Xu'
'Cheng Yan'
'Grant Edwards'
'Jack K. Clegg'
'John C. McMurtrie'
_publ_section_title
;
 Atomic resolution of structural changes in elastic crystals of copper(II)
 acetylacetonate
;
_journal_name_full               'Nature Chemistry'
_journal_page_first              65
_journal_page_last               69
_journal_paper_doi               10.1038/nchem.2848
_journal_volume                  10
_journal_year                    2018
_chemical_formula_moiety         'C10 H14 Cu O4'
_chemical_formula_sum            'C10 H14 Cu O4'
_chemical_formula_weight         261.75
_space_group_crystal_system      monoclinic
_space_group_IT_number           14
_space_group_name_Hall           '-P 2yn'
_space_group_name_H-M_alt        'P 1 21/n 1'
_symmetry_space_group_name_Hall  '-P 2yn'
_symmetry_space_group_name_H-M   'P 1 21/n 1'
_atom_sites_solution_hydrogens   geom
_cell_angle_alpha                90
_cell_angle_beta                 93.01(3)
_cell_angle_gamma                90
_cell_formula_units_Z            2
_cell_length_a                   10.225(2)
_cell_length_b                   4.7080(9)
_cell_length_c                   11.187(2)
_cell_measurement_reflns_used    299
_cell_measurement_temperature    100(2)
_cell_measurement_theta_max      29.573
_cell_measurement_theta_min      9.666
_cell_volume                     537.79(18)
_computing_cell_refinement       'XDS (Kabsch, 1993)'
_computing_data_collection       'BluIce (McPhillips, 2002)'
_computing_data_reduction        'XDS (Kabsch, 1993)'
_computing_molecular_graphics    'Olex2 (Dolomanov et al., 2009)'
_computing_publication_material  'Olex2 (Dolomanov et al., 2009)'
_computing_structure_refinement  'ShelXL (Sheldrick, 2015)'
_computing_structure_solution    'Known Structure'
_diffrn_ambient_temperature      100(2)
_diffrn_measured_fraction_theta_full 0.194
_diffrn_measured_fraction_theta_max 0.197
_diffrn_measurement_device_type  MX2
_diffrn_measurement_method       'Phi Scan'
_diffrn_radiation_monochromator  'Silicon Double Crystal'
_diffrn_radiation_type           Synchrotron
_diffrn_radiation_wavelength     0.7108
_diffrn_reflns_av_unetI/netI     0.1464
_diffrn_reflns_Laue_measured_fraction_full 0.194
_diffrn_reflns_Laue_measured_fraction_max 0.197
_diffrn_reflns_number            299
_diffrn_reflns_point_group_measured_fraction_full 0.194
_diffrn_reflns_point_group_measured_fraction_max 0.197
_diffrn_reflns_theta_full        26.000
_diffrn_reflns_theta_max         29.573
_diffrn_reflns_theta_min         9.666
_diffrn_source                   Synchrotron
_exptl_absorpt_coefficient_mu    2.021
_exptl_absorpt_correction_type   multi-scan
_exptl_absorpt_process_details   'XDS (Kabsch, 1993)'
_exptl_crystal_colour            'dark blue'
_exptl_crystal_colour_lustre     .
_exptl_crystal_colour_modifier   dark
_exptl_crystal_colour_primary    blue
_exptl_crystal_density_diffrn    1.616
_exptl_crystal_description       needle
_exptl_crystal_F_000             270
_exptl_crystal_size_max          1
_exptl_crystal_size_mid          0.05
_exptl_crystal_size_min          0.05
_refine_diff_density_max         0.373
_refine_diff_density_min         -0.413
_refine_diff_density_rms         0.099
_refine_ls_extinction_coef       .
_refine_ls_extinction_method     none
_refine_ls_goodness_of_fit_ref   1.138
_refine_ls_hydrogen_treatment    constr
_refine_ls_matrix_type           full
_refine_ls_number_parameters     32
_refine_ls_number_reflns         299
_refine_ls_number_restraints     0
_refine_ls_restrained_S_all      1.138
_refine_ls_R_factor_all          0.1839
_refine_ls_R_factor_gt           0.0896
_refine_ls_shift/su_max          0.000
_refine_ls_shift/su_mean         0.000
_refine_ls_structure_factor_coef Fsqd
_refine_ls_weighting_details
'w=1/[\s^2^(Fo^2^)+6.9213P] where P=(Fo^2^+2Fc^2^)/3'
_refine_ls_weighting_scheme      calc
_refine_ls_wR_factor_gt          0.1516
_refine_ls_wR_factor_ref         0.1942
_reflns_Friedel_coverage         0.000
_reflns_Friedel_fraction_full    .
_reflns_Friedel_fraction_max     .
_reflns_number_gt                157
_reflns_number_total             299
_reflns_threshold_expression     'I > 2\s(I)'
_cod_data_source_file            nchem.2848-s5-a.cif
_cod_data_source_block           a
_cod_depositor_comments
;
The following automatic conversions were performed:

'_exptl_absorpt_correction_type' value 'Multi-Scan' changed to
'multi-scan' according to the built-in table from CIF Core dictionary
named 'cif_core.dic' version 2.4.5 from 2014-11-21.

Automatic conversion script
Id: cif_fix_values 6524 2018-11-02 12:15:13Z antanas 
;
_cod_original_cell_volume        537.79(19)
_cod_database_code               1551115
_shelx_space_group_comment
;
The symmetry employed for this shelxl refinement is uniquely defined
by the following loop, which should always be used as a source of
symmetry information in preference to the above space-group names.
They are only intended as comments.
;
_shelx_estimated_absorpt_t_max   0.906
_shelx_estimated_absorpt_t_min   0.237
_olex2_refinement_description
;
1. Fixed Uiso
 At 1.2 times of:
  All C(H) groups
 At 1.5 times of:
  All C(H,H,H) groups
2.a Aromatic/amide H refined with riding coordinates:
 C3(H3)
2.b Idealised Me refined as rotating group:
 C1(H1A,H1B,H1C), C5(H5A,H5B,H5C)
;
_shelx_res_file
;
TITL 4 in P2(1)/n
CELL 0.71073 10.225 4.708 11.187 90 93.013 90
ZERR 2 0.00204 0.00094 0.00224 0 0.03 0
LATT 1
SYMM 0.5-X,0.5+Y,0.5-Z
SFAC C H Cu O
UNIT 20 28 2 8

L.S. 50
PLAN  25
SIZE 0.05 0.05 1
TEMP -173(2)
LIST 1
MORE -1
BOND $H
CONF
fmap 2
acta 52
REM <olex2.extras>
REM <HklSrc "%.\\a.hkl">
REM </olex2.extras>

WGHT    0.000000    6.921300
FVAR       1.29467
C1    1    0.178309   -0.060654    0.438014    11.00000    0.02246
AFIX 137
H1A   2    0.119407    0.073573    0.475094    11.00000   -1.50000
H1B   2    0.188392   -0.230770    0.488135    11.00000   -1.50000
H1C   2    0.141402   -0.114024    0.358557    11.00000   -1.50000
AFIX   0
C2    1    0.310781    0.077281    0.426048    11.00000    0.02702
C3    1    0.389689   -0.031356    0.341339    11.00000    0.02156
AFIX  43
H3    2    0.361438   -0.197983    0.299619    11.00000   -1.20000
AFIX   0
C4    1    0.508564    0.088838    0.313234    11.00000    0.01991
C5    1    0.588456   -0.051722    0.212563    11.00000    0.01376
AFIX 137
H5A   2    0.661154    0.073042    0.193380    11.00000   -1.50000
H5B   2    0.530897   -0.080573    0.140758    11.00000   -1.50000
H5C   2    0.623131   -0.235277    0.240782    11.00000   -1.50000
AFIX   0
O1    4    0.339548    0.294489    0.496894    11.00000    0.02047
O2    4    0.560404    0.298786    0.363003    11.00000    0.02181
CU1   3    0.500000    0.500000    0.500000    10.50000    0.01754
HKLF 4

REM  4 in P2(1)/n
REM R1 =  0.0896 for     157 Fo > 4sig(Fo)  and  0.1839 for all     299 data
REM     32 parameters refined using      0 restraints

END

WGHT      0.0000      6.9203

REM Highest difference peak  0.373,  deepest hole -0.413,  1-sigma level  0.099
Q1    1   0.1433 -0.0027  0.2783  11.00000  0.05    0.37
Q2    1   0.4585  0.2566  0.5262  11.00000  0.05    0.36
Q3    1   0.3866  0.5098  0.3983  11.00000  0.05    0.35
Q4    1   0.4576 -0.3771  0.3634  11.00000  0.05    0.34
Q5    1   0.5070  0.5029  0.4574  11.00000  0.05    0.32
Q6    1   0.2963 -0.3420  0.2608  11.00000  0.05    0.32
Q7    1   0.3880 -0.4079  0.3148  11.00000  0.05    0.31
Q8    1   0.0008  0.2897  0.5006  11.00000  0.05    0.31
Q9    1   0.5378  0.6701  0.4179  11.00000  0.05    0.30
Q10   1   0.4013  0.5861  0.4854  11.00000  0.05    0.30
Q11   1   0.4670 -0.0107  0.1322  11.00000  0.05    0.29
Q12   1   0.4570  0.3256  0.3922  11.00000  0.05    0.29
Q13   1   0.4592  0.2442  0.3031  11.00000  0.05    0.29
Q14   1   0.6809 -0.2365  0.1844  11.00000  0.05    0.28
Q15   1   0.5436  0.4630  0.2360  11.00000  0.05    0.28
Q16   1   0.5852  0.4873  0.4103  11.00000  0.05    0.28
Q17   1   0.3586  0.3821  0.5397  11.00000  0.05    0.27
Q18   1   0.6427  0.3788  0.4595  11.00000  0.05    0.27
Q19   1   0.2061  0.0094  0.5725  11.00000  0.05    0.27
Q20   1   0.1593 -0.0347  0.3784  11.00000  0.05    0.27
Q21   1   0.0771 -0.1015  0.5002  11.00000  0.05    0.27
Q22   1   0.5545 -0.3409  0.0767  11.00000  0.05    0.26
Q23   1  -0.0050 -0.0382  0.4573  11.00000  0.05    0.26
Q24   1   0.0973 -0.3718  0.2925  11.00000  0.05    0.26
Q25   1   0.3958  0.1653  0.2555  11.00000  0.05    0.26
;
_shelx_res_checksum              26174
_shelx_hkl_file
;
  -7   0  13 -123.40   46.55
  12   0  -2 1115.00   41.08
  12   1  -2   39.34   47.25
  -6  -1   9  897.20   48.84
  -6  -1  10   62.90   56.99
  -5  -1   7  868.70   38.94
   4   1  -2 1522.00   37.04
  -4  -1   5 1569.00   40.12
  -4   1   4  250.80   21.48
  -5   1   6 2217.00   64.63
   5  -1  -2 2404.00   55.02
  -6   1   8  140.80   37.32
   6  -1  -2  174.20   21.61
  -7   1  13   12.11   90.24
  -7   1  12   38.92   69.59
  -7   1  11   84.63   62.04
   7  -1  -2 1938.00   50.15
   8  -1  -2  749.30   37.47
   9  -1  -2 2115.00   59.20
  10  -1  -2  -36.85   44.31
  11  -1  -2 1051.00   57.57
  13  -1  -1  -83.34   75.81
  14  -1  -1  524.20  136.30
  13   2  -1   19.83  132.50
  12   2  -2  195.30   77.74
  11   2  -2  -71.84   66.23
  10   2  -2  586.30   55.58
   9   2  -2   68.58   47.61
   8   2  -2  145.00   56.07
   7   2  -2   53.88   34.50
   6   2  -2 1423.00   46.95
  -6  -2  11  139.60   80.78
  -6  -2  12    7.50   95.21
  -6  -2  13  -43.20  142.10
   5   2  -2  259.00   30.91
  -5  -2   8   -8.96   51.74
  -5  -2   9 1889.00   78.05
  -5  -2  10   50.45   72.69
   4   2  -2 6580.00  139.90
  -4  -2   6 1383.00   47.18
  -4  -2   7  316.90   42.66
   3   2  -1 4744.00  104.00
  -3  -2   4  519.80   30.32
  -3  -2   5 1594.00   48.65
   2   2  -1   62.75   23.54
  -2  -2   3   -2.03   23.93
  -2  -2   4 2383.00   59.78
  -2   2   2 4987.00  109.90
  -3   2   3 6789.00  145.60
   3  -2   0  162.60   26.99
  -4   2   5    9.22   33.15
  -4   2   4 2291.00   61.64
   4  -2  -1  526.50   32.03
  -5   2   7  389.30   48.61
  -5   2   6   36.09   38.63
   5  -2  -1 1764.00   51.46
  -6   2  10  143.30   95.96
  -6   2   9   -8.84   57.83
  -6   2   8  324.20   51.90
   6  -2  -1   20.56   32.74
  -7   2  13  -41.55  134.60
  -7   2  12  105.60  104.40
   7  -2  -1 1289.00   50.39
   8  -2  -1  156.30   46.61
   9  -2  -1 1955.00   72.73
  10  -2  -1  184.30   64.04
  11  -2  -1  462.80   76.21
  12  -2  -1  -17.03   86.57
  13  -2   0   37.72   97.29
  12   3  -1  -17.88   99.83
  11   3  -1 -121.50   92.23
  10   3  -1  243.90   76.19
  10   3  -2    4.21   82.54
   9   3  -2  967.80   84.62
   8   3  -2   73.51   60.12
   7   3  -2  551.80   60.61
   6   3  -1  915.80   51.72
   6   3  -2   -5.59   40.33
   5   3  -1  111.20   41.13
  -5  -3  11  129.50   84.47
  -5  -3  12  110.40  104.30
   4   3  -1 2868.00   76.36
  -4  -3   8   94.72   71.33
  -4  -3   9  410.60   71.92
  -4  -3  10  149.90   77.82
  -4  -3  11  446.80   88.07
  -4  -3  12   23.72   97.60
  -4  -3  13   45.29  101.00
   3   3   0 2172.00   64.65
   3   3  -1  -29.72   33.53
  -3  -3   6 1082.00   54.50
   2   3   0   44.06   35.58
  -2  -3   5 2112.00   64.43
  -2  -3   6  964.00   54.93
   1   3   1  133.90   32.04
   1   3   0  240.40   36.18
  -1  -3   4 2008.00   61.94
  -1  -3   5  552.40   42.23
   0   3   1  240.20   35.79
   0  -3   3 1617.00   54.82
   0  -3   4   50.52   32.06
  -1   3   2 1441.00   51.22
   1  -3   2 2165.00   61.80
   1  -3   3   81.31   35.30
  -2   3   3 2385.00   68.55
   2  -3   1 1404.00   49.47
   2  -3   2    7.25   37.43
  -3   3   5   77.68   44.23
  -3   3   4 2769.00   78.30
   3  -3   1   17.77   37.58
  -4   3   6  201.00   60.34
  -4   3   5  904.30   53.51
   4  -3   0   12.49   36.06
   4  -3   1 1495.00   55.82
  -5   3   9  150.10   72.77
  -5   3   8  545.30   64.94
  -5   3   7  -89.25   59.40
   5  -3   0 2302.00   68.22
   5  -3   1 1100.00   53.51
  -6   3  12  206.40  109.40
  -6   3  11   50.77   89.84
  -6   3  10   49.05   82.56
  -6   3   9  137.60   67.20
   6  -3   0  130.80   49.18
   7  -3   0 1056.00   65.28
   8  -3   0   84.25   68.24
   9  -3   0  858.60   74.19
  10  -3   0  224.30   74.89
  10  -3   1  747.60   85.60
  11  -3   0  508.80   85.48
  11  -3   1  104.20   86.07
  12  -3   0 -102.90   89.49
  12  -3   1  351.30   95.33
  11   4   0  -79.04  100.90
  11   4  -1  279.10  119.90
  10   4   0  149.20   95.59
  10   4  -1   39.24   94.61
   9   4   0 -191.10   81.93
   9   4  -1  545.40   78.98
   8   4   0  389.90   81.07
   8   4  -1   12.78   79.73
   7   4   0   57.19   66.65
   7   4  -1  382.30   68.13
   6   4   0  426.40   59.52
   6   4  -1   28.39   56.45
   5   4   0  -10.33   54.43
   5   4  -1  364.30   50.00
   4   4   1  197.20   48.24
   4   4   0  443.40   58.86
   3   4   1  759.50   56.75
   3   4   0  -23.38   54.17
  -3  -4   9  228.80   70.76
  -3  -4  10   45.15   81.79
  -3  -4  11  173.90  101.20
  -3  -4  12 -124.00  132.00
   2   4   2  941.60   53.11
   2   4   1  294.80   54.20
  -2  -4   7  126.70   68.20
  -2  -4   8  652.80   74.16
  -2  -4   9   90.42   74.10
  -2  -4  10  140.80   79.56
  -2  -4  11  -65.86   88.93
  -2  -4  12   84.12  107.00
   1   4   2  684.80   52.48
   1   4   1 1334.00   65.20
  -1  -4   6   17.42   54.63
  -1  -4   7 1268.00   74.53
  -1  -4   8   69.00   68.36
  -1  -4   9  472.10   80.53
   0   4   3   65.01   48.31
   0   4   2 1125.00   57.00
   0  -4   5  127.20   54.38
   0  -4   6 1211.00   66.75
   0  -4   7   98.54   59.02
  -1   4   4  274.10   51.29
  -1   4   3 1132.00   58.33
   1  -4   4   93.63   52.84
   1  -4   5  817.80   66.03
   1  -4   6   28.96   56.73
  -2   4   6  671.10   70.92
  -2   4   5   41.28   54.27
  -2   4   4  358.90   52.75
   2  -4   3  724.80   58.72
   2  -4   4 1108.00   67.10
   2  -4   5   99.31   57.35
  -3   4   7  373.60   71.22
  -3   4   6  -31.82   57.57
  -3   4   5  497.40   57.70
   3  -4   2    8.32   48.12
   3  -4   3  857.90   62.24
   3  -4   4    2.00   54.68
  -4   4  10  135.40   89.47
  -4   4   9 -121.30   72.05
  -4   4   8  238.70   68.23
  -4   4   7   19.51   63.63
   4  -4   2  943.80   66.14
   4  -4   3   35.14   62.47
   4  -4   4  703.00   64.29
  -5   4  11  201.00   97.87
  -5   4  10   60.62   82.58
  -5   4   9  186.00   84.79
   5  -4   2   34.94   61.72
   5  -4   3 1210.00   73.06
   6  -4   1  101.40   55.57
   6  -4   2 1430.00   74.76
   6  -4   3  147.00   65.65
   7  -4   1  649.60   69.42
   7  -4   2  -69.80   67.09
   7  -4   3  877.70   68.62
   8  -4   1  117.80   69.60
   8  -4   2  600.80   88.02
   8  -4   3   18.48   68.65
   9  -4   1   16.42   74.85
   9  -4   2  -17.59   76.72
   9  -4   3  137.70   80.09
  10  -4   1  164.10   86.04
  10  -4   2  236.20   93.44
  10  -4   3   76.50   83.90
   9   5   1  212.30   93.76
   9   5   0   15.96  110.10
   8   5   2  117.90   87.73
   8   5   1  121.10   92.26
   8   5   0    3.71   74.12
   7   5   2  212.70   81.04
   7   5   1  -11.88   78.93
   7   5   0  277.50   83.41
   6   5   2 -101.90   81.23
   6   5   1  711.50   76.22
   5   5   2  767.70   78.74
   5   5   1  310.90   67.77
   4   5   3  121.20   67.63
   4   5   2  -34.42   64.79
   4   5   1  948.90   75.79
   3   5   3   93.91   71.25
   3   5   2  351.40   70.91
   3   5   1   41.48   90.91
   2   5   4  -73.95   65.37
   2   5   3  306.10   71.04
   2   5   2 -102.80   67.78
   1   5   5   -3.04   65.01
   1   5   4  142.60   60.50
   1   5   3  137.70   62.58
   0   5   6 -103.50   73.64
   0   5   5  622.20   69.81
   0   5   4  252.50   69.56
   0   5   3  703.60   81.60
   0  -5   8  148.20   73.62
   0  -5   9  223.10   82.00
  -1   5   8  178.10   81.58
  -1   5   7  -61.36   80.63
  -1   5   6  568.40   71.77
  -1   5   5  122.30   63.81
  -1   5   4  790.20   77.61
   1  -5   7    5.84   77.30
   1  -5   8  383.30   77.07
   1  -5   9  -25.99   76.12
  -2   5   9  138.10   90.67
  -2   5   8 -162.80   83.11
  -2   5   7  365.10   77.85
  -2   5   6   12.07   69.47
   2  -5   6  133.90   71.64
   2  -5   7  380.70   71.58
   2  -5   8 -112.20   79.34
   2  -5   9  323.30   80.26
  -3   5   9   68.36   90.13
  -3   5   8  115.70   86.31
  -3   5   7   22.86   76.25
   3  -5   5   56.08   72.17
   3  -5   6  322.00   77.18
   3  -5   7    4.26   79.28
   3  -5   8  109.80   81.32
   3  -5   9   37.09   89.19
   4  -5   4  150.90   65.30
   4  -5   5  404.70   73.70
   4  -5   6 -119.90   80.79
   4  -5   7  283.50   81.01
   4  -5   8   44.42   87.52
   5  -5   4  409.30   69.15
   5  -5   5  -69.68   75.37
   5  -5   6  500.60   86.30
   5  -5   7   52.41   83.01
   5  -5   8  146.90   83.27
   6  -5   4   -6.78   80.17
   6  -5   5  433.00   84.16
   6  -5   6  -81.23   75.28
   6  -5   7  270.30   93.64
   7  -5   4  357.20   89.82
   7  -5   5  -76.89   90.81
   8  -5   3  175.80  105.50
   8  -5   4  -38.01  101.40
   4   6   4  264.40   91.44
   4   6   3 -273.70   84.13
   3   6   5  111.40   93.55
   3   6   4   40.67   91.90
   2   6   5  -43.70   83.65
   2   6   4  -83.98   73.25
   1   6   6  249.00   96.17
   1   6   5  108.00   84.80
   0   6   6   55.58   90.59
   0   0   0    0.00    0.00
;
_shelx_hkl_checksum              3164
_olex2_submission_special_instructions 'No special instructions were received'
loop_
_space_group_symop_operation_xyz
'x, y, z'
'-x+1/2, y+1/2, -z+1/2'
'-x, -y, -z'
'x-1/2, -y-1/2, z-1/2'
loop_
_atom_site_label
_atom_site_type_symbol
_atom_site_fract_x
_atom_site_fract_y
_atom_site_fract_z
_atom_site_U_iso_or_equiv
_atom_site_adp_type
_atom_site_occupancy
_atom_site_site_symmetry_order
_atom_site_calc_flag
_atom_site_refinement_flags_posn
_atom_site_refinement_flags_adp
_atom_site_refinement_flags_occupancy
_atom_site_disorder_assembly
_atom_site_disorder_group
C1 C 0.178(3) -0.061(3) 0.438(4) 0.022(5) Uiso 1 1 d . . . . .
H1A H 0.1194 0.0736 0.4751 0.034 Uiso 1 1 calc GR . . . .
H1B H 0.1884 -0.2308 0.4881 0.034 Uiso 1 1 calc GR . . . .
H1C H 0.1414 -0.1140 0.3586 0.034 Uiso 1 1 calc GR . . . .
C2 C 0.311(3) 0.077(3) 0.426(4) 0.027(5) Uiso 1 1 d . . . . .
C3 C 0.390(2) -0.031(4) 0.341(3) 0.022(4) Uiso 1 1 d . . . . .
H3 H 0.3614 -0.1980 0.2996 0.026 Uiso 1 1 calc R . . . .
C4 C 0.509(3) 0.089(3) 0.313(3) 0.020(4) Uiso 1 1 d . . . . .
C5 C 0.588(2) -0.052(3) 0.213(3) 0.014(4) Uiso 1 1 d . . . . .
H5A H 0.6612 0.0730 0.1934 0.021 Uiso 1 1 calc GR . . . .
H5B H 0.5309 -0.0806 0.1408 0.021 Uiso 1 1 calc GR . . . .
H5C H 0.6231 -0.2353 0.2408 0.021 Uiso 1 1 calc GR . . . .
O1 O 0.3395(17) 0.294(2) 0.497(2) 0.020(3) Uiso 1 1 d . . . . .
O2 O 0.5604(18) 0.299(2) 0.363(2) 0.022(3) Uiso 1 1 d . . . . .
Cu1 Cu 0.5000 0.5000 0.5000 0.0175(9) Uiso 1 2 d S T P . .
loop_
_atom_type_symbol
_atom_type_description
_atom_type_scat_dispersion_real
_atom_type_scat_dispersion_imag
_atom_type_scat_source
C C 0.0033 0.0016 'International Tables Vol C Tables 4.2.6.8 and 6.1.1.4'
H H 0.0000 0.0000 'International Tables Vol C Tables 4.2.6.8 and 6.1.1.4'
Cu Cu 0.3201 1.2651 'International Tables Vol C Tables 4.2.6.8 and 6.1.1.4'
O O 0.0106 0.0060 'International Tables Vol C Tables 4.2.6.8 and 6.1.1.4'
loop_
_geom_angle_atom_site_label_1
_geom_angle_atom_site_label_2
_geom_angle_atom_site_label_3
_geom_angle
_geom_angle_site_symmetry_1
_geom_angle_site_symmetry_3
H1A C1 H1B 109.5 . .
H1A C1 H1C 109.5 . .
H1B C1 H1C 109.5 . .
C2 C1 H1A 109.5 . .
C2 C1 H1B 109.5 . .
C2 C1 H1C 109.5 . .
C3 C2 C1 117(3) . .
O1 C2 C1 117(2) . .
O1 C2 C3 126(2) . .
C2 C3 H3 118.1 . .
C2 C3 C4 124(2) . .
C4 C3 H3 118.1 . .
C3 C4 C5 119(2) . .
O2 C4 C3 125(2) . .
O2 C4 C5 115.6(18) . .
C4 C5 H5A 109.5 . .
C4 C5 H5B 109.5 . .
C4 C5 H5C 109.5 . .
H5A C5 H5B 109.5 . .
H5A C5 H5C 109.5 . .
H5B C5 H5C 109.5 . .
C2 O1 Cu1 124.8(13) . .
C4 O2 Cu1 126.9(13) . .
O1 Cu1 O1 180.0 3_666 .
O1 Cu1 O2 87.3(7) 3_666 .
O1 Cu1 O2 92.7(7) 3_666 3_666
O1 Cu1 O2 92.7(7) . .
O1 Cu1 O2 87.3(7) . 3_666
O2 Cu1 O2 180.0(8) 3_666 .
loop_
_geom_bond_atom_site_label_1
_geom_bond_atom_site_label_2
_geom_bond_distance
_geom_bond_site_symmetry_2
C1 H1A 0.9800 .
C1 H1B 0.9800 .
C1 H1C 0.9800 .
C1 C2 1.51(3) .
C2 C3 1.38(3) .
C2 O1 1.32(3) .
C3 H3 0.9500 .
C3 C4 1.39(3) .
C4 C5 1.57(3) .
C4 O2 1.24(3) .
C5 H5A 0.9800 .
C5 H5B 0.9800 .
C5 H5C 0.9800 .
O1 Cu1 1.903(15) .
O2 Cu1 1.931(17) .
Cu1 O1 1.903(15) 3_666
Cu1 O2 1.931(17) 3_666
loop_
_geom_torsion_atom_site_label_1
_geom_torsion_atom_site_label_2
_geom_torsion_atom_site_label_3
_geom_torsion_atom_site_label_4
_geom_torsion
_geom_torsion_site_symmetry_1
_geom_torsion_site_symmetry_2
_geom_torsion_site_symmetry_3
_geom_torsion_site_symmetry_4
C1 C2 C3 C4 174(3) . . . .
C1 C2 O1 Cu1 179(3) . . . .
C2 C3 C4 C5 -179(3) . . . .
C2 C3 C4 O2 3(5) . . . .
C3 C2 O1 Cu1 -2(4) . . . .
C3 C4 O2 Cu1 5(4) . . . .
C5 C4 O2 Cu1 -173(2) . . . .
O1 C2 C3 C4 -5(5) . . . .
