#------------------------------------------------------------------------------
#$Date: 2019-05-24 12:00:03 +0300 (Fri, 24 May 2019) $
#$Revision: 215484 $
#$URL: file:///home/coder/svn-repositories/cod/cif/1/55/11/1551126.cif $
#------------------------------------------------------------------------------
#
# This file is available in the Crystallography Open Database (COD),
# http://www.crystallography.net/
#
# All data on this site have been placed in the public domain by the
# contributors.
#
data_1551126
loop_
_publ_author_name
'Anna Worthy'
'Arnaud Grosjean'
'Michael C. Pfrunder'
'Yanan Xu'
'Cheng Yan'
'Grant Edwards'
'Jack K. Clegg'
'John C. McMurtrie'
_publ_section_title
;
 Atomic resolution of structural changes in elastic crystals of copper(II)
 acetylacetonate
;
_journal_name_full               'Nature Chemistry'
_journal_page_first              65
_journal_page_last               69
_journal_paper_doi               10.1038/nchem.2848
_journal_volume                  10
_journal_year                    2018
_chemical_formula_moiety         'C10 H14 Cu O4'
_chemical_formula_sum            'C10 H14 Cu O4'
_chemical_formula_weight         261.75
_space_group_crystal_system      monoclinic
_space_group_IT_number           14
_space_group_name_Hall           '-P 2yn'
_space_group_name_H-M_alt        'P 1 21/n 1'
_symmetry_space_group_name_Hall  '-P 2yn'
_symmetry_space_group_name_H-M   'P 1 21/n 1'
_atom_sites_solution_hydrogens   geom
_cell_angle_alpha                90
_cell_angle_beta                 92.17(3)
_cell_angle_gamma                90
_cell_formula_units_Z            2
_cell_length_a                   10.292(2)
_cell_length_b                   4.6050(9)
_cell_length_c                   11.360(2)
_cell_measurement_reflns_used    286
_cell_measurement_temperature    100(2)
_cell_measurement_theta_max      29.583
_cell_measurement_theta_min      9.688
_cell_volume                     538.02(18)
_computing_cell_refinement       'XDS (Kabsch, 1993)'
_computing_data_collection       'BluIce (McPhillips, 2002)'
_computing_data_reduction        'XDS (Kabsch, 1993)'
_computing_molecular_graphics    'Olex2 (Dolomanov et al., 2009)'
_computing_publication_material  'Olex2 (Dolomanov et al., 2009)'
_computing_structure_refinement  'ShelXL (Sheldrick, 2015)'
_computing_structure_solution    'Known Structure'
_diffrn_ambient_temperature      100(2)
_diffrn_measured_fraction_theta_full 0.191
_diffrn_measured_fraction_theta_max 0.189
_diffrn_measurement_device_type  'ADSC Quantum 315r'
_diffrn_measurement_method       'Phi Scan'
_diffrn_radiation_monochromator  'Silicon Double Crystal'
_diffrn_radiation_type           Synchrotron
_diffrn_radiation_wavelength     0.7108
_diffrn_reflns_av_unetI/netI     0.0214
_diffrn_reflns_Laue_measured_fraction_full 0.191
_diffrn_reflns_Laue_measured_fraction_max 0.189
_diffrn_reflns_number            286
_diffrn_reflns_point_group_measured_fraction_full 0.191
_diffrn_reflns_point_group_measured_fraction_max 0.189
_diffrn_reflns_theta_full        26.000
_diffrn_reflns_theta_max         29.583
_diffrn_reflns_theta_min         9.688
_diffrn_source                   Synchrotron
_exptl_absorpt_coefficient_mu    2.020
_exptl_absorpt_correction_type   multi-scan
_exptl_absorpt_process_details   'XDS (Kabsch, 1993)'
_exptl_crystal_colour            'dark blue'
_exptl_crystal_colour_lustre     .
_exptl_crystal_colour_modifier   dark
_exptl_crystal_colour_primary    blue
_exptl_crystal_density_diffrn    1.616
_exptl_crystal_description       needle
_exptl_crystal_F_000             270
_exptl_crystal_size_max          1
_exptl_crystal_size_mid          0.05
_exptl_crystal_size_min          0.05
_refine_diff_density_max         0.405
_refine_diff_density_min         -0.431
_refine_diff_density_rms         0.057
_refine_ls_extinction_coef       .
_refine_ls_extinction_method     none
_refine_ls_goodness_of_fit_ref   1.107
_refine_ls_hydrogen_treatment    constr
_refine_ls_matrix_type           full
_refine_ls_number_parameters     32
_refine_ls_number_reflns         286
_refine_ls_number_restraints     0
_refine_ls_restrained_S_all      1.107
_refine_ls_R_factor_all          0.0560
_refine_ls_R_factor_gt           0.0517
_refine_ls_shift/su_max          0.000
_refine_ls_shift/su_mean         0.000
_refine_ls_structure_factor_coef Fsqd
_refine_ls_weighting_details
'w=1/[\s^2^(Fo^2^)+(0.0246P)^2^+2.7934P] where P=(Fo^2^+2Fc^2^)/3'
_refine_ls_weighting_scheme      calc
_refine_ls_wR_factor_gt          0.1095
_refine_ls_wR_factor_ref         0.1129
_reflns_Friedel_coverage         0.000
_reflns_Friedel_fraction_full    .
_reflns_Friedel_fraction_max     .
_reflns_number_gt                260
_reflns_number_total             286
_reflns_threshold_expression     'I > 2\s(I)'
_cod_data_source_file            nchem.2848-s5-k.cif
_cod_data_source_block           k
_cod_depositor_comments
;
The following automatic conversions were performed:

'_exptl_absorpt_correction_type' value 'Multi-Scan' changed to
'multi-scan' according to the built-in table from CIF Core dictionary
named 'cif_core.dic' version 2.4.5 from 2014-11-21.

Automatic conversion script
Id: cif_fix_values 6524 2018-11-02 12:15:13Z antanas 
;
_cod_original_cell_volume        538.02(19)
_cod_database_code               1551126
_shelx_space_group_comment
;
The symmetry employed for this shelxl refinement is uniquely defined
by the following loop, which should always be used as a source of
symmetry information in preference to the above space-group names.
They are only intended as comments.
;
_shelx_estimated_absorpt_t_max   0.906
_shelx_estimated_absorpt_t_min   0.237
_olex2_refinement_description
;
1. Fixed Uiso
 At 1.2 times of:
  All C(H) groups
 At 1.5 times of:
  All C(H,H,H) groups
2.a Aromatic/amide H refined with riding coordinates:
 C3(H3)
2.b Idealised Me refined as rotating group:
 C1(H1A,H1B,H1C), C5(H5A,H5B,H5C)
;
_shelx_res_file
;
TITL 14 in P2(1)/n
CELL 0.71073 10.292 4.605 11.36 90 92.174 90
ZERR 2 0.00206 0.00092 0.00227 0 0.03 0
LATT 1
SYMM 0.5-X,0.5+Y,0.5-Z
SFAC C H Cu O
UNIT 20 28 2 8

L.S. 50
PLAN  25
SIZE 0.05 0.05 1
TEMP -173(2)
LIST 1
MORE -1
BOND $H
CONF
fmap 2
acta 52
REM <olex2.extras>
REM <HklSrc "%.\\k.hkl">
REM </olex2.extras>

WGHT    0.024600    2.793400
FVAR       1.41552
C1    1    0.181195   -0.065411    0.445419    11.00000    0.02201
AFIX 137
H1A   2    0.117738    0.079761    0.469287    11.00000   -1.50000
H1B   2    0.191521   -0.213682    0.506948    11.00000   -1.50000
H1C   2    0.150482   -0.156925    0.371612    11.00000   -1.50000
AFIX   0
C2    1    0.309201    0.079034    0.427728    11.00000    0.01561
C3    1    0.389678   -0.030988    0.339650    11.00000    0.02030
AFIX  43
H3    2    0.359213   -0.193446    0.295062    11.00000   -1.20000
AFIX   0
C4    1    0.510647    0.083904    0.314268    11.00000    0.01597
C5    1    0.585399   -0.055182    0.218082    11.00000    0.02261
AFIX 137
H5A   2    0.654256    0.076779    0.194095    11.00000   -1.50000
H5B   2    0.526408   -0.095902    0.150347    11.00000   -1.50000
H5C   2    0.624263   -0.237095    0.247098    11.00000   -1.50000
AFIX   0
O1    4    0.338729    0.294238    0.494346    11.00000    0.01910
O2    4    0.565703    0.297802    0.367616    11.00000    0.01721
CU1   3    0.500000    0.500000    0.500000    10.50000    0.01585
HKLF 4

REM  14 in P2(1)/n
REM R1 =  0.0517 for     260 Fo > 4sig(Fo)  and  0.0560 for all     286 data
REM     32 parameters refined using      0 restraints

END

WGHT      0.0232      2.8659

REM Highest difference peak  0.405,  deepest hole -0.431,  1-sigma level  0.057
Q1    1   0.5364  0.7020  0.5554  11.00000  0.05    0.40
Q2    1   0.4757  0.5442  0.4651  11.00000  0.05    0.29
Q3    1   0.5000  0.0000  0.5000  10.50000  0.05    0.27
Q4    1   0.4147  0.6333  0.4057  11.00000  0.05    0.22
Q5    1   0.5989  0.4834  0.4550  11.00000  0.05    0.22
Q6    1   0.4229  0.3688  0.3954  11.00000  0.05    0.22
Q7    1   0.5130  0.2137  0.5048  11.00000  0.05    0.21
Q8    1   0.3836 -0.5328  0.3360  11.00000  0.05    0.20
Q9    1   0.5364  0.0704  0.1180  11.00000  0.05    0.20
Q10   1   0.2749  0.0035  0.3480  11.00000  0.05    0.19
Q11   1   0.4807 -0.0215  0.3567  11.00000  0.05    0.19
Q12   1   0.6831 -0.1198  0.2729  11.00000  0.05    0.18
Q13   1   0.5620  0.0299  0.1312  11.00000  0.05    0.18
Q14   1   0.2746 -0.0792  0.4900  11.00000  0.05    0.17
Q15   1   0.1631 -0.5661  0.4938  11.00000  0.05    0.17
Q16   1   0.5523  0.0047  0.1945  11.00000  0.05    0.16
Q17   1   0.4876  0.5360  0.3777  11.00000  0.05    0.16
Q18   1   0.4968  0.5170  0.4038  11.00000  0.05    0.16
Q19   1   0.4607 -0.0363  0.0538  11.00000  0.05    0.16
Q20   1   0.5387  0.3646  0.3399  11.00000  0.05    0.15
Q21   1   0.4382 -0.3462  0.3232  11.00000  0.05    0.15
Q22   1   0.1023 -0.3493  0.3553  11.00000  0.05    0.14
Q23   1   0.5608 -0.2327  0.1608  11.00000  0.05    0.14
Q24   1   0.6738  0.2102  0.2190  11.00000  0.05    0.14
Q25   1   0.4689  0.0158  0.2597  11.00000  0.05    0.14
;
_shelx_res_checksum              29470
_shelx_hkl_file
;
   6  -1 -11  805.00   16.54
   6  -1 -10   56.36    1.78
   5  -1  -7 1001.00   20.30
   4  -1  -5 2043.00   41.17
  -4   1   2 1737.00   34.95
   4   1  -4  337.20    6.85
  -5  -1   2 2799.00   56.30
   5   1  -6 2644.00   53.46
  -6  -1   2  253.80    5.18
   6   1  -8  177.70    3.84
  -7  -1   2 2132.00   43.00
   7   1 -13    5.12    3.42
  -8  -1   2  896.20   18.22
  -9  -1   2 2558.00   51.71
 -10  -1   2   35.41    1.44
 -11  -1   2 1124.00   22.88
 -13  -1   1    5.31    2.40
 -14  -1   1  785.30   16.37
 -12   2   2  172.40    4.17
 -11   2   2   -1.43    1.78
 -10   2   2  568.70   11.66
  -7   2   2   84.91    2.25
   6  -2 -13   45.25    3.94
  -6   2   2 1634.00   32.83
   5  -2 -11  699.40   14.39
   5  -2 -10  151.90    3.70
   5  -2  -9 2461.00   49.56
   5  -2  -8    6.43    1.87
  -5   2   2  338.00    6.89
   4  -2  -7  338.80    6.99
   4  -2  -6 1627.00   32.72
  -4   2   2 7206.00  144.50
   3  -2  -5 1967.00   39.50
  -3   2   1 6171.00  123.70
   2  -2  -4 2711.00   54.37
   2  -2  -3   39.89    1.14
  -2   2   1   86.90    1.94
   1  -2  -3 5186.00  103.90
   2   2  -2 5907.00  118.40
  -3  -2   0  150.30    3.17
   3   2  -3 7950.00  159.30
  -4  -2   1  759.20   15.29
   4   2  -4 2396.00   48.14
   4   2  -5   23.72    1.10
  -5  -2   1 2289.00   45.94
   5   2  -6   25.04    1.24
   5   2  -7  446.50    9.13
  -6  -2   1   10.78    0.94
   6   2  -9    7.38    1.60
   6   2 -10  451.50    9.36
   6   2 -11   30.58    2.84
  -7  -2   1 1503.00   30.22
  -8  -2   1  167.90    3.76
  -9  -2   1 2211.00   44.50
 -10  -2   1  177.00    4.10
 -11  -2   1  644.50   13.23
 -12  -2   1   26.04    2.46
 -13  -2   0   69.08    3.18
 -12   3   1   97.00    3.47
 -11   3   1    3.07    2.42
 -10   3   2    9.99    2.21
 -10   3   1  315.20    6.93
  -9   3   2 1041.00   21.12
  -7   3   2  863.70   17.53
  -7   3   1  270.10    6.18
  -6   3   2    2.37    1.21
  -6   3   1 1520.00   30.60
   5  -3 -13   33.53    5.01
   5  -3 -12  243.60    6.61
  -5   3   1  175.90    3.79
   4  -3 -13  230.60    5.59
   4  -3 -12   64.69    3.04
   4  -3 -11  991.50   20.15
   4  -3 -10  339.70    7.26
   4  -3  -9  949.10   19.25
   4  -3  -8  270.80    6.49
  -4   3   1 3659.00   73.38
   3  -3  -9    0.54    1.72
   3  -3  -8 1345.00   27.19
   3  -3  -7   27.35    1.92
   3  -3  -6 1363.00   27.55
  -3   3   1    9.20    1.01
  -3   3   0 2850.00   57.16
   2  -3  -7  451.60    9.35
   2  -3  -6 1418.00   28.54
   2  -3  -5 2398.00   48.13
  -2   3   0  113.40    2.56
   1  -3  -5  599.50   12.15
   1  -3  -4 2244.00   45.03
  -1   3   0  252.30    5.22
  -1   3  -1  166.90    3.57
   0  -3  -4   91.39    2.21
   0  -3  -3 2030.00   40.73
   0   3  -1  274.70    5.69
   0   3  -2   17.63    1.23
  -1  -3  -3   84.31    2.09
  -1  -3  -2 2726.00   54.66
   1   3  -2 1873.00   37.62
  -2  -3  -2   56.19    1.61
  -2  -3  -1 1962.00   39.40
   2   3  -3 3110.00   62.38
   2   3  -4    5.78    1.14
  -3  -3  -2 2339.00   46.96
  -3  -3  -1   -1.61    1.03
   3   3  -4 2994.00   60.08
   3   3  -5   21.52    1.32
  -4  -3  -1 1677.00   33.69
  -4  -3   0   -0.88    1.08
   4   3  -5 1170.00   23.60
   4   3  -6  158.80    3.75
   4   3  -7 1164.00   23.57
  -5  -3   0 2594.00   52.06
   5   3  -7   24.23    1.76
   5   3  -8 1153.00   23.27
   5   3  -9  122.50    3.17
   5   3 -10  419.50    8.77
  -6  -3  -1  511.20   10.56
   6   3 -10    9.82    2.41
   6   3 -11  190.20    4.59
   6   3 -12    8.66    2.74
  -7  -3   0 1465.00   29.54
  -8  -3   0  163.70    3.94
  -9  -3   0 1004.00   20.35
 -10  -3  -1 1057.00   21.48
 -10  -3   0  368.90    7.84
 -11  -3  -1   16.57    2.40
 -11  -3   0  402.30    8.56
 -12  -3  -1  328.20    7.25
 -12  -3   0   -5.63    2.71
 -11   4   1  439.20    9.87
 -11   4   0   11.39    2.78
 -10   4   1   29.02    2.52
 -10   4   0  214.10    5.11
  -9   4   1  622.60   12.84
  -9   4   0    7.99    2.16
  -8   4   1  168.50    4.14
  -8   4   0  535.70   11.09
  -7   4   1  640.60   13.12
  -7   4   0    7.98    1.94
  -6   4   1   17.33    1.53
  -6   4   0  455.40    9.38
  -5   4   1  519.30   10.76
  -5   4   0  149.70    3.43
  -4   4   0  415.30    8.56
  -4   4  -1  241.50    5.15
   3  -4 -11   73.92    3.02
   3  -4 -10   34.42    2.67
  -3   4   0   85.95    2.31
  -3   4  -1  785.00   15.89
   2  -4 -12  203.10    5.04
   2  -4 -11   27.54    2.54
   2  -4 -10  218.30    5.02
   2  -4  -9   37.06    2.25
   2  -4  -8  850.50   17.32
  -2   4  -1  276.90    5.80
  -2   4  -2 1049.00   21.16
   1  -4 -11  203.70    4.98
   1  -4 -10   31.44    2.21
   1  -4  -9  607.30   12.47
   1  -4  -8   36.94    2.08
   1  -4  -7 1564.00   31.49
   1  -4  -6   93.50    2.56
  -1   4  -1 1653.00   33.22
  -1   4  -2  650.70   13.22
  -1   4  -3 1423.00   28.67
   0  -4  -8 1122.00   22.67
   0  -4  -7    4.12    1.94
   0  -4  -6 1430.00   28.81
   0  -4  -5   69.95    2.32
   0   4  -2 1315.00   26.47
   0   4  -3  126.70    2.98
   0   4  -4  955.20   19.44
  -1  -4  -7 1065.00   21.65
  -1  -4  -6   34.89    2.06
  -1  -4  -5 1063.00   21.46
  -1  -4  -4  113.10    2.92
   1   4  -3  984.10   19.86
   1   4  -4  287.80    6.04
   1   4  -5  602.40   12.30
  -2  -4  -5   38.60    2.00
  -2  -4  -4 1130.00   22.80
  -2  -4  -3  859.70   17.41
   2   4  -4  451.00    9.25
   2   4  -5   77.66    2.23
   2   4  -6  676.60   13.75
  -3  -4  -5  411.00    8.64
  -3  -4  -4    7.14    1.88
  -3  -4  -3 1035.00   20.92
   3   4  -5  376.10    7.84
   3   4  -6    3.77    1.52
   3   4  -7  632.30   12.90
   3   4  -8   37.66    1.97
  -4  -4  -4  852.10   17.29
  -4  -4  -3   -0.34    1.88
  -4  -4  -2 1043.00   21.07
   4   4  -7   43.45    1.91
   4   4  -8  568.50   11.66
   4   4  -9    5.38    2.01
   4   4 -10  170.60    4.16
   4   4 -11   38.36    2.62
  -5  -4  -4   84.98    3.00
  -5  -4  -3 1395.00   28.13
  -5  -4  -2   24.95    1.91
   5   4 -10   89.06    2.99
   5   4 -11  232.10    5.44
  -6  -4  -3   17.41    2.06
  -6  -4  -2 1564.00   31.48
  -7  -4  -3  985.90   19.97
  -7  -4  -2    1.66    1.93
  -7  -4  -1  867.20   17.67
  -8  -4  -3    9.97    2.11
  -8  -4  -1   52.36    2.33
  -9  -4  -3  178.40    4.36
  -9  -4  -2    2.20    2.19
  -9  -4  -1  178.80    4.42
 -10  -4  -3   20.07    2.49
 -10  -4  -2   86.10    3.08
 -10  -4  -1  108.10    4.38
  -8   5  -1   54.16    2.59
  -8   5  -2    3.98    2.26
  -7   5  -1   17.54    2.16
  -7   5  -2  218.60    5.02
  -6   5  -1  920.90   18.68
  -6   5  -2    2.69    2.03
  -6   5  -3  488.30   10.36
  -5   5  -1  126.60    3.26
  -5   5  -2  839.30   17.04
  -5   5  -3    0.87    1.73
  -4   5  -1 1030.00   20.80
  -4   5  -2   21.13    1.80
  -4   5  -3  306.20    6.53
  -3   5  -2  566.70   11.60
  -3   5  -3   -4.16    1.66
  -3   5  -4  131.30    3.25
  -2   5  -2   29.79    1.72
  -2   5  -3  147.40    3.50
  -2   5  -4    1.94    1.70
  -2   5  -5  192.50    4.53
  -1   5  -3   82.83    2.42
  -1   5  -4  155.00    3.66
  -1   5  -5    1.86    1.67
  -1   5  -6  303.40    6.68
   0  -5  -9  372.50    8.08
   0   5  -4   25.78    1.73
   0   5  -5  663.90   13.54
   0   5  -6   20.72    1.93
   0   5  -7  454.20    9.42
  -1  -5  -9    1.33    2.36
  -1  -5  -8  557.00   11.52
  -1  -5  -7    5.03    2.38
   1   5  -5   30.67    1.93
   1   5  -6 1096.00   22.15
   1   5  -7   -1.00    1.97
   1   5  -8  344.30    7.35
   1   5  -9   26.84    2.44
  -2  -5  -9  358.00    7.72
  -2  -5  -8   14.24    2.35
  -2  -5  -7  485.00   10.04
  -2  -5  -6   10.61    2.03
   2   5  -6  147.80    3.62
   2   5  -7  495.20   10.26
   2   5  -8    7.53    2.15
   2   5  -9  118.90    3.40
  -3  -5  -9   -1.17    2.59
  -3  -5  -8  172.10    4.22
  -3  -5  -7    3.63    2.16
  -3  -5  -6  297.80    6.42
  -3  -5  -5  178.70    4.68
   3   5  -8   63.65    2.54
   3   5  -9   -1.05    2.49
  -4  -5  -8   51.51    2.60
  -4  -5  -7  123.90    3.55
  -4  -5  -6   -1.13    2.21
  -4  -5  -5  299.80    6.51
  -5  -5  -7   15.68    2.44
  -5  -5  -6  350.90    7.47
  -5  -5  -5   -1.02    2.17
  -5  -5  -4  488.70   10.24
  -6  -5  -7   76.92    3.67
  -6  -5  -6   22.83    2.53
  -6  -5  -5  542.80   11.26
  -6  -5  -4   35.91    2.43
  -7  -5  -5   -1.89    2.58
  -7  -5  -4  392.60    8.38
  -8  -5  -4    5.70    3.70
  -3   6  -4    9.57    2.37
   0   0   0    0.00    0.00
;
_shelx_hkl_checksum              31178
_olex2_submission_special_instructions 'No special instructions were received'
loop_
_space_group_symop_operation_xyz
'x, y, z'
'-x+1/2, y+1/2, -z+1/2'
'-x, -y, -z'
'x-1/2, -y-1/2, z-1/2'
loop_
_atom_site_label
_atom_site_type_symbol
_atom_site_fract_x
_atom_site_fract_y
_atom_site_fract_z
_atom_site_U_iso_or_equiv
_atom_site_adp_type
_atom_site_occupancy
_atom_site_site_symmetry_order
_atom_site_calc_flag
_atom_site_refinement_flags_posn
_atom_site_refinement_flags_adp
_atom_site_refinement_flags_occupancy
_atom_site_disorder_assembly
_atom_site_disorder_group
C1 C 0.1812(10) -0.0654(13) 0.4454(11) 0.0220(14) Uiso 1 1 d . . . . .
H1A H 0.1177 0.0798 0.4693 0.033 Uiso 1 1 calc GR . . . .
H1B H 0.1915 -0.2137 0.5069 0.033 Uiso 1 1 calc GR . . . .
H1C H 0.1505 -0.1569 0.3716 0.033 Uiso 1 1 calc GR . . . .
C2 C 0.3092(9) 0.0790(12) 0.4277(9) 0.0156(13) Uiso 1 1 d . . . . .
C3 C 0.3897(9) -0.0310(13) 0.3396(10) 0.0203(14) Uiso 1 1 d . . . . .
H3 H 0.3592 -0.1934 0.2951 0.024 Uiso 1 1 calc R . . . .
C4 C 0.5106(9) 0.0839(12) 0.3143(9) 0.0160(13) Uiso 1 1 d . . . . .
C5 C 0.5854(10) -0.0552(14) 0.2181(11) 0.0226(15) Uiso 1 1 d . . . . .
H5A H 0.6543 0.0768 0.1941 0.034 Uiso 1 1 calc GR . . . .
H5B H 0.5264 -0.0959 0.1503 0.034 Uiso 1 1 calc GR . . . .
H5C H 0.6243 -0.2371 0.2471 0.034 Uiso 1 1 calc GR . . . .
O1 O 0.3387(7) 0.2942(9) 0.4943(7) 0.0191(11) Uiso 1 1 d . . . . .
O2 O 0.5657(7) 0.2978(9) 0.3676(7) 0.0172(10) Uiso 1 1 d . . . . .
Cu1 Cu 0.5000 0.5000 0.5000 0.0159(4) Uiso 1 2 d S T P . .
loop_
_atom_type_symbol
_atom_type_description
_atom_type_scat_dispersion_real
_atom_type_scat_dispersion_imag
_atom_type_scat_source
C C 0.0033 0.0016 'International Tables Vol C Tables 4.2.6.8 and 6.1.1.4'
H H 0.0000 0.0000 'International Tables Vol C Tables 4.2.6.8 and 6.1.1.4'
Cu Cu 0.3201 1.2651 'International Tables Vol C Tables 4.2.6.8 and 6.1.1.4'
O O 0.0106 0.0060 'International Tables Vol C Tables 4.2.6.8 and 6.1.1.4'
loop_
_geom_angle_atom_site_label_1
_geom_angle_atom_site_label_2
_geom_angle_atom_site_label_3
_geom_angle
_geom_angle_site_symmetry_1
_geom_angle_site_symmetry_3
H1A C1 H1B 109.5 . .
H1A C1 H1C 109.5 . .
H1B C1 H1C 109.5 . .
C2 C1 H1A 109.5 . .
C2 C1 H1B 109.5 . .
C2 C1 H1C 109.5 . .
C3 C2 C1 118.5(7) . .
O1 C2 C1 117.2(7) . .
O1 C2 C3 124.3(7) . .
C2 C3 H3 117.9 . .
C4 C3 C2 124.2(8) . .
C4 C3 H3 117.9 . .
C3 C4 C5 118.3(7) . .
O2 C4 C3 125.3(7) . .
O2 C4 C5 116.3(7) . .
C4 C5 H5A 109.5 . .
C4 C5 H5B 109.5 . .
C4 C5 H5C 109.5 . .
H5A C5 H5B 109.5 . .
H5A C5 H5C 109.5 . .
H5B C5 H5C 109.5 . .
C2 O1 Cu1 126.3(5) . .
C4 O2 Cu1 125.7(5) . .
O1 Cu1 O1 180.0 3_666 .
O1 Cu1 O2 93.7(3) 3_666 3_666
O1 Cu1 O2 86.3(3) 3_666 .
O1 Cu1 O2 86.3(3) . 3_666
O1 Cu1 O2 93.7(3) . .
O2 Cu1 O2 180.0 . 3_666
loop_
_geom_bond_atom_site_label_1
_geom_bond_atom_site_label_2
_geom_bond_distance
_geom_bond_site_symmetry_2
C1 H1A 0.9800 .
C1 H1B 0.9800 .
C1 H1C 0.9800 .
C1 C2 1.496(12) .
C2 C3 1.417(11) .
C2 O1 1.277(9) .
C3 H3 0.9500 .
C3 C4 1.393(12) .
C4 C5 1.503(12) .
C4 O2 1.278(9) .
C5 H5A 0.9800 .
C5 H5B 0.9800 .
C5 H5C 0.9800 .
O1 Cu1 1.910(6) .
O2 Cu1 1.914(6) .
Cu1 O1 1.910(6) 3_666
Cu1 O2 1.914(6) 3_666
loop_
_geom_torsion_atom_site_label_1
_geom_torsion_atom_site_label_2
_geom_torsion_atom_site_label_3
_geom_torsion_atom_site_label_4
_geom_torsion
_geom_torsion_site_symmetry_1
_geom_torsion_site_symmetry_2
_geom_torsion_site_symmetry_3
_geom_torsion_site_symmetry_4
C1 C2 C3 C4 179.9(10) . . . .
C1 C2 O1 Cu1 174.9(8) . . . .
C2 C3 C4 C5 -179.9(9) . . . .
C2 C3 C4 O2 1.3(16) . . . .
C3 C2 O1 Cu1 -4.7(12) . . . .
C3 C4 O2 Cu1 3.3(12) . . . .
C5 C4 O2 Cu1 -175.5(8) . . . .
O1 C2 C3 C4 -0.5(16) . . . .
