#------------------------------------------------------------------------------
#$Date: 2019-05-24 12:00:34 +0300 (Fri, 24 May 2019) $
#$Revision: 215488 $
#$URL: file:///home/coder/svn-repositories/cod/cif/1/55/11/1551130.cif $
#------------------------------------------------------------------------------
#
# This file is available in the Crystallography Open Database (COD),
# http://www.crystallography.net/
#
# All data on this site have been placed in the public domain by the
# contributors.
#
data_1551130
loop_
_publ_author_name
'Anna Worthy'
'Arnaud Grosjean'
'Michael C. Pfrunder'
'Yanan Xu'
'Cheng Yan'
'Grant Edwards'
'Jack K. Clegg'
'John C. McMurtrie'
_publ_section_title
;
 Atomic resolution of structural changes in elastic crystals of copper(II)
 acetylacetonate
;
_journal_name_full               'Nature Chemistry'
_journal_page_first              65
_journal_page_last               69
_journal_paper_doi               10.1038/nchem.2848
_journal_volume                  10
_journal_year                    2018
_chemical_formula_moiety         'C10 H14 Cu O4'
_chemical_formula_sum            'C10 H14 Cu O4'
_chemical_formula_weight         261.75
_space_group_crystal_system      monoclinic
_space_group_IT_number           14
_space_group_name_Hall           '-P 2yn'
_space_group_name_H-M_alt        'P 1 21/n 1'
_symmetry_space_group_name_Hall  '-P 2yn'
_symmetry_space_group_name_H-M   'P 1 21/n 1'
_atom_sites_solution_hydrogens   geom
_cell_angle_alpha                90
_cell_angle_beta                 91.68(3)
_cell_angle_gamma                90
_cell_formula_units_Z            2
_cell_length_a                   10.321(2)
_cell_length_b                   4.5630(9)
_cell_length_c                   11.444(2)
_cell_measurement_reflns_used    285
_cell_measurement_temperature    100(2)
_cell_measurement_theta_max      29.480
_cell_measurement_theta_min      9.342
_cell_volume                     538.72(18)
_computing_cell_refinement       'XDS (Kabsch, 1993)'
_computing_data_collection       'BluIce (McPhillips, 2002)'
_computing_data_reduction        'XDS (Kabsch, 1993)'
_computing_molecular_graphics    'Olex2 (Dolomanov et al., 2009)'
_computing_publication_material  'Olex2 (Dolomanov et al., 2009)'
_computing_structure_refinement  'ShelXL (Sheldrick, 2015)'
_computing_structure_solution    'Known Structure'
_diffrn_ambient_temperature      100(2)
_diffrn_measured_fraction_theta_full 0.193
_diffrn_measured_fraction_theta_max 0.190
_diffrn_measurement_device_type  'ADSC Quantum 315r'
_diffrn_measurement_method       'Phi Scan'
_diffrn_radiation_monochromator  'Silicon Double Crystal'
_diffrn_radiation_type           Synchrotron
_diffrn_radiation_wavelength     0.7108
_diffrn_reflns_av_unetI/netI     0.0378
_diffrn_reflns_Laue_measured_fraction_full 0.193
_diffrn_reflns_Laue_measured_fraction_max 0.190
_diffrn_reflns_number            285
_diffrn_reflns_point_group_measured_fraction_full 0.193
_diffrn_reflns_point_group_measured_fraction_max 0.190
_diffrn_reflns_theta_full        26.000
_diffrn_reflns_theta_max         29.480
_diffrn_reflns_theta_min         9.342
_diffrn_source                   Synchrotron
_exptl_absorpt_coefficient_mu    2.017
_exptl_absorpt_correction_type   multi-scan
_exptl_absorpt_process_details   'XDS (Kabsch, 1993)'
_exptl_crystal_colour            'dark blue'
_exptl_crystal_colour_lustre     .
_exptl_crystal_colour_modifier   dark
_exptl_crystal_colour_primary    blue
_exptl_crystal_density_diffrn    1.614
_exptl_crystal_description       needle
_exptl_crystal_F_000             270
_exptl_crystal_size_max          1
_exptl_crystal_size_mid          0.05
_exptl_crystal_size_min          0.05
_refine_diff_density_max         0.314
_refine_diff_density_min         -0.374
_refine_diff_density_rms         0.061
_refine_ls_extinction_coef       .
_refine_ls_extinction_method     none
_refine_ls_goodness_of_fit_ref   1.163
_refine_ls_hydrogen_treatment    constr
_refine_ls_matrix_type           full
_refine_ls_number_parameters     32
_refine_ls_number_reflns         285
_refine_ls_number_restraints     0
_refine_ls_restrained_S_all      1.163
_refine_ls_R_factor_all          0.0735
_refine_ls_R_factor_gt           0.0543
_refine_ls_shift/su_max          0.000
_refine_ls_shift/su_mean         0.000
_refine_ls_structure_factor_coef Fsqd
_refine_ls_weighting_details
'w=1/[\s^2^(Fo^2^)+(0.0468P)^2^+2.7404P] where P=(Fo^2^+2Fc^2^)/3'
_refine_ls_weighting_scheme      calc
_refine_ls_wR_factor_gt          0.1261
_refine_ls_wR_factor_ref         0.1376
_reflns_Friedel_coverage         0.000
_reflns_Friedel_fraction_full    .
_reflns_Friedel_fraction_max     .
_reflns_number_gt                221
_reflns_number_total             285
_reflns_threshold_expression     'I > 2\s(I)'
_cod_data_source_file            nchem.2848-s5-o.cif
_cod_data_source_block           o
_cod_depositor_comments
;
The following automatic conversions were performed:

'_exptl_absorpt_correction_type' value 'Multi-Scan' changed to
'multi-scan' according to the built-in table from CIF Core dictionary
named 'cif_core.dic' version 2.4.5 from 2014-11-21.

Automatic conversion script
Id: cif_fix_values 6524 2018-11-02 12:15:13Z antanas 
;
_cod_original_cell_volume        538.72(19)
_cod_database_code               1551130
_shelx_space_group_comment
;
The symmetry employed for this shelxl refinement is uniquely defined
by the following loop, which should always be used as a source of
symmetry information in preference to the above space-group names.
They are only intended as comments.
;
_shelx_estimated_absorpt_t_max   0.906
_shelx_estimated_absorpt_t_min   0.238
_olex2_refinement_description
;
1. Fixed Uiso
 At 1.2 times of:
  All C(H) groups
 At 1.5 times of:
  All C(H,H,H) groups
2.a Aromatic/amide H refined with riding coordinates:
 C3(H3)
2.b Idealised Me refined as rotating group:
 C1(H1a,H1b,H1c), C5(H5a,H5b,H5c)
;
_shelx_res_file
;
TITL 3b in P2(1)/n
CELL 0.71073 10.321 4.563 11.444 90 91.679 90
ZERR 2 0.00206 0.00091 0.00229 0 0.03 0
LATT 1
SYMM 0.5-X,0.5+Y,0.5-Z
SFAC C H Cu O
UNIT 20 28 2 8

L.S. 50
PLAN  25
SIZE 0.05 0.05 1
TEMP -173(2)
LIST 1
MORE -1
BOND $H
CONF
fmap 2
acta 52
REM <olex2.extras>
REM <HklSrc "%.\\o.hkl">
REM </olex2.extras>

WGHT    0.046800    2.740400
FVAR       1.08199
C1    1    0.180778   -0.066526    0.444838    11.00000    0.01881
AFIX 137
H1A   2    0.120169    0.077412    0.475704    11.00000   -1.50000
H1B   2    0.191058   -0.229351    0.500177    11.00000   -1.50000
H1C   2    0.146842   -0.141027    0.369679    11.00000   -1.50000
AFIX   0
C2    1    0.309238    0.075842    0.427998    11.00000    0.01658
C3    1    0.390758   -0.032776    0.341405    11.00000    0.02099
AFIX  43
H3    2    0.361039   -0.198579    0.298159    11.00000   -1.20000
AFIX   0
C4    1    0.510455    0.081034    0.313802    11.00000    0.01357
C5    1    0.586523   -0.057347    0.217922    11.00000    0.02090
AFIX 137
H5A   2    0.657788    0.072817    0.197170    11.00000   -1.50000
H5B   2    0.529443   -0.089285    0.149158    11.00000   -1.50000
H5C   2    0.621822   -0.245591    0.245066    11.00000   -1.50000
AFIX   0
O1    4    0.338793    0.291254    0.492963    11.00000    0.01981
O2    4    0.566249    0.297136    0.368925    11.00000    0.01697
CU1   3    0.500000    0.500000    0.500000    10.50000    0.01630
HKLF 4

REM  3b in P2(1)/n
REM R1 =  0.0543 for     221 Fo > 4sig(Fo)  and  0.0735 for all     285 data
REM     32 parameters refined using      0 restraints

END

WGHT      0.0470      2.7322

REM Highest difference peak  0.314,  deepest hole -0.374,  1-sigma level  0.061
Q1    1   0.5433  0.7153  0.5458  11.00000  0.05    0.31
Q2    1   0.4989  0.5103  0.4189  11.00000  0.05    0.26
Q3    1   0.4192  0.4898  0.5682  11.00000  0.05    0.26
Q4    1   0.3117 -0.3303  0.3758  11.00000  0.05    0.24
Q5    1   0.4116  0.3761  0.3920  11.00000  0.05    0.24
Q6    1   0.3761 -0.5154  0.3313  11.00000  0.05    0.21
Q7    1   0.4156 -0.3712  0.3990  11.00000  0.05    0.21
Q8    1   0.3519 -0.2227  0.4421  11.00000  0.05    0.20
Q9    1   0.2622  0.2555  0.3971  11.00000  0.05    0.20
Q10   1   0.4826 -0.0112  0.2521  11.00000  0.05    0.18
Q11   1   0.5376  0.2383  0.5193  11.00000  0.05    0.18
Q12   1   0.4237  0.1586  0.3838  11.00000  0.05    0.18
Q13   1   0.1463 -0.5461  0.4814  11.00000  0.05    0.18
Q14   1   0.3601  0.2589  0.4375  11.00000  0.05    0.17
Q15   1   0.4587 -0.0158  0.0606  11.00000  0.05    0.17
Q16   1   0.5333 -0.1699  0.3786  11.00000  0.05    0.17
Q17   1   0.3200  0.5979  0.4754  11.00000  0.05    0.17
Q18   1   0.3041  0.3780  0.4560  11.00000  0.05    0.16
Q19   1   0.2693 -0.2863  0.3722  11.00000  0.05    0.16
Q20   1   0.2447 -0.4596  0.5926  11.00000  0.05    0.15
Q21   1   0.3160  0.0982  0.2629  11.00000  0.05    0.15
Q22   1   0.3763 -0.0868  0.2053  11.00000  0.05    0.15
Q23   1   0.1679 -0.1151  0.5445  11.00000  0.05    0.15
Q24   1   0.1612 -0.5318  0.5556  11.00000  0.05    0.15
Q25   1   0.5650 -0.4149  0.3268  11.00000  0.05    0.15
;
_shelx_res_checksum              82053
_shelx_hkl_file
;
  13   1  -2  232.40   10.12
   8   1  -3 2586.00   53.54
  -6  -1  10   37.32    8.11
  -6  -1  11  465.80   13.60
  -6  -1  12    6.54   10.09
  -6  -1  13  355.10   15.71
  -6  -1  14   15.86   17.42
  -5  -1   7  557.80   12.43
   4   1  -2 1075.00   22.00
  -4  -1   5 1122.00   23.10
  -3  -1   4 2804.00   56.96
  -4   1   4  200.80    5.18
  -5   1   6 1553.00   32.04
   5  -1  -2 1837.00   37.41
  -6   1   9  693.80   15.78
   6  -1  -2  153.20    4.73
  10  -1  -2   29.62    6.64
  11  -1  -2  757.90   17.97
  12  -1  -2    6.54    9.45
  14  -1  -1  569.20   19.83
  12   2  -2   77.85   12.45
  11   2  -2    7.76    9.98
  10   2  -2  296.30   13.26
   6   2  -2 1035.00   21.75
   5   2  -2  203.30    6.27
  -5  -2   9 1314.00   28.78
  -5  -2  10   67.90   10.74
  -5  -2  11  478.70   16.28
  -5  -2  12  -23.02   13.99
  -5  -2  13   98.01   15.66
  -5  -2  14   41.16   18.19
   4   2  -2 4146.00   83.73
  -4  -2   6  760.70   17.52
  -4  -2   7  163.90    7.63
  -4  -2   8 1151.00   25.35
   3   2  -1 3989.00   80.64
  -3  -2   5 1102.00   23.10
  -3  -2   6   27.19    5.82
   2   2  -1   57.69    3.95
  -2  -2   3   23.10    5.35
  -2  -2   4 1535.00   31.60
  -1  -2   3 2754.00   55.83
  -1   2   1 1611.00   33.19
  -2   2   2 3269.00   66.26
  -3   2   4  408.80    9.92
  -3   2   3 4447.00   89.86
   3  -2   0   87.10    4.38
  -4   2   5    3.27    4.85
   4  -2  -1  475.30   10.93
  -5   2   7  212.90    8.24
  -5   2   6    7.25    5.71
   5  -2  -1 1365.00   28.32
  -6   2  12  100.30   13.44
  -6   2  11   29.51   11.44
  -6   2  10  257.50   11.48
  -6   2   9    8.89    8.30
   6  -2  -1   10.52    4.91
   7  -2  -1  820.00   18.00
   8  -2  -1   89.77    6.89
   9  -2  -1 1326.00   28.60
  10  -2  -1   85.65    9.18
  11  -2  -1  364.20   13.56
  12  -2  -1  -14.04   12.37
  13  -2  -1   15.86   18.37
  13  -2   0   24.28   13.72
  12   3  -1   52.34   15.43
  11   3  -1   -9.50   12.95
  11   3  -2  155.80   13.95
  10   3  -1  150.10   14.07
  10   3  -2   -0.28   12.17
   9   3  -2  612.10   17.72
   8   3  -2   63.40   10.21
   7   3  -2  470.00   14.23
   6   3  -1  985.50   22.24
   6   3  -2   -7.87    6.95
   5   3  -1   95.78    6.63
   5   3  -2  974.90   22.13
   4   3  -1 2073.00   42.73
  -4  -3   9  513.60   15.25
  -4  -3  10  193.80   12.74
  -4  -3  11  538.70   17.78
  -4  -3  12   68.06   14.86
  -4  -3  13  152.20   17.01
   3   3   0 1591.00   33.11
   3   3  -1    4.97    4.97
  -3  -3   7   17.05   11.09
  -3  -3   8  670.80   18.27
  -3  -3   9   -7.78    9.94
  -3  -3  10  646.20   17.56
   2   3   0   65.93    5.41
  -2  -3   5 1208.00   25.72
  -2  -3   6  797.10   18.69
  -2  -3   7  255.00   10.48
   1   3   1  125.90    6.02
   1   3   0  164.30    6.27
  -1  -3   4 1201.00   25.53
  -1  -3   5  318.90    9.24
   0   3   2    8.47    4.81
   0   3   1  186.40    6.58
   0  -3   3 1228.00   25.95
   0  -3   4   55.44    5.65
  -1   3   3   55.98    5.09
  -1   3   2 1076.00   23.14
   1  -3   2 1603.00   33.26
   1  -3   3   47.90    5.50
  -2   3   4    3.51    5.78
  -2   3   3 1637.00   34.23
   2  -3   1 1137.00   24.15
   2  -3   2   52.93    5.44
  -3   3   5   22.18    6.56
  -3   3   4 1612.00   34.03
   3  -3   1  -11.22    5.38
   3  -3   2 1295.00   27.51
  -4   3   7  707.60   17.78
  -4   3   6   97.37    8.66
  -4   3   5  552.00   16.84
   4  -3   0   -1.05    5.35
   4  -3   1  920.20   20.21
  -5   3  11   -0.96   10.92
  -5   3  10  238.00   12.75
  -5   3   9   56.53    9.71
  -5   3   8  621.20   16.26
   5  -3   0 1403.00   29.83
   5  -3   1  867.60   19.78
  -6   3  12   21.12   14.93
  -6   3  11   84.72   13.11
   6  -3   0  159.00    8.35
   6  -3   1  325.30   10.45
   7  -3   0  808.90   19.21
   8  -3   0   98.12    9.84
   9  -3   0  531.30   15.39
  10  -3   0  208.40   12.41
  10  -3   1  576.70   16.47
  11  -3   0  164.80   12.40
  11  -3   1   16.76   12.33
  12  -3   0    1.67   13.16
  12  -3   1  192.70   15.21
  11   4   0   24.36   15.51
  11   4  -1  198.70   15.55
  10   4   0   74.18   13.74
  10   4  -1    7.99   14.03
   9   4   0   10.97   11.99
   9   4  -1  301.00   14.82
   8   4   0  306.30   12.89
   8   4  -1  105.50   11.67
   7   4   0   14.04   10.00
   7   4  -1  387.90   14.00
   6   4   0  251.30   11.01
   6   4  -1   31.91    9.03
   5   4   0   99.76    8.22
   5   4  -1  329.10   11.66
   4   4   1  141.70    8.26
   4   4   0  260.40    9.72
   3   4   1  456.30   12.57
   3   4   0   44.60    7.27
  -3  -4  11   47.64   15.18
   2   4   2  591.50   14.77
   2   4   1  152.90    7.99
  -2  -4   9   33.24   11.38
  -2  -4  10   85.34   12.45
  -2  -4  11   15.48   13.41
  -2  -4  12  125.10   16.10
   1   4   3  732.00   16.99
   1   4   2  369.20   10.98
   1   4   1 1011.00   22.32
  -1  -4   6   64.50   12.46
  -1  -4   7  858.20   21.03
  -1  -4   8   21.02   10.71
  -1  -4   9  353.00   14.51
  -1  -4  10   32.05   12.11
  -1  -4  11  152.80   13.65
  -1  -4  12   28.02   13.29
   0   4   4  543.80   13.77
   0   4   3   74.04    7.18
   0   4   2  790.90   18.19
   0  -4   5   31.54    7.82
   0  -4   6  744.20   18.12
   0  -4   7   -1.39    8.56
   0  -4   8  636.40   17.33
   0  -4   9   -4.11   10.45
  -1   4   5  350.70   10.95
  -1   4   4  162.10    8.15
  -1   4   3  559.10   14.02
   1  -4   4   71.16    7.94
   1  -4   5  567.90   14.92
   1  -4   6   34.53    8.43
   1  -4   7  543.90   14.67
  -2   4   6  378.60   12.41
  -2   4   5   53.25    7.95
  -2   4   4  288.50    9.95
   2  -4   3  510.10   13.12
   2  -4   4  625.90   15.71
   2  -4   5   18.03    7.90
   2  -4   6  202.00    9.23
  -3   4   9  209.90   11.06
  -3   4   8   10.70    9.57
  -3   4   7  400.90   13.54
  -3   4   6    8.42    8.12
   3  -4   3  589.60   15.22
   3  -4   4   -0.99    8.06
   3  -4   5  223.40    9.40
  -4   4  11   37.40   13.59
  -4   4  10   94.12   12.73
  -4   4   9   15.73   11.33
  -4   4   8  295.30   12.62
  -4   4   7   -2.29   10.07
   4  -4   2  662.10   16.47
   4  -4   3  -11.12    8.27
   4  -4   4  505.90   14.12
  -5   4  11  141.10   14.39
  -5   4  10   77.90   17.01
   5  -4   2   26.61    8.85
   5  -4   3  784.90   19.14
   5  -4   4   67.76    8.75
   6  -4   2  852.70   20.37
   6  -4   3   10.52    9.10
   7  -4   1  502.70   14.63
   7  -4   2   -5.61    9.31
   7  -4   3  598.20   16.35
   8  -4   1   33.71    9.97
   8  -4   2  322.10   14.31
   8  -4   3  -14.88   11.06
   9  -4   1   80.39   11.16
   9  -4   2    8.66   11.75
   9  -4   3   75.98   11.22
  10  -4   2   41.52   12.47
  10  -4   3   20.39   11.51
   8   5   2   15.47   12.62
   8   5   1   40.67   12.41
   7   5   2   98.39   13.33
   7   5   1   51.24   12.70
   6   5   3  329.90   12.21
   6   5   2   -4.81   10.53
   6   5   1  534.10   16.00
   5   5   3   25.70    9.90
   5   5   2  494.20   14.99
   5   5   1   84.71   10.01
   4   5   3  168.40   10.45
   4   5   2   -4.45    9.30
   4   5   1  628.60   16.24
   3   5   4   91.12    9.91
   3   5   3  -10.46    9.16
   3   5   2  350.70   12.08
   2   5   5  134.70    9.79
   2   5   4   -7.91    9.16
   2   5   3   90.05    9.28
   2   5   2   24.74    7.52
   1   5   6  173.80   10.48
   1   5   5   54.17    9.39
   1   5   4  108.40    9.38
   1   5   3   76.89    8.91
   0   5   7  260.80   11.75
   0   5   6    4.35    9.49
   0   5   5  351.20   12.40
   0   5   4   13.17    8.34
  -1   5   9   12.71   12.45
  -1   5   8  205.40   12.41
  -1   5   7    7.55   10.57
  -1   5   6  579.00   16.10
  -1   5   5   25.37    8.96
   1  -5   8  259.20   12.73
   1  -5   9  -13.62   12.11
  -2   5   9   66.20   12.67
  -2   5   8  -16.61   11.56
  -2   5   7  311.20   14.44
   2  -5   7  224.30   11.93
   2  -5   8    4.93   11.02
   2  -5   9  186.10   12.83
  -3   5   9   10.25   13.97
   3  -5   6  160.00   11.27
   3  -5   7    7.85   10.78
   3  -5   8   72.06   11.62
   3  -5   9   -7.40   12.16
   4  -5   5  178.80   10.47
   4  -5   6   -1.31   10.81
   4  -5   7   63.43   11.29
   4  -5   8    9.74   11.64
   5  -5   5  -15.81   10.48
   5  -5   6  218.80   12.39
   5  -5   7   21.05   11.51
   6  -5   4   30.50   10.55
   6  -5   5  355.80   14.03
   6  -5   6   34.61   11.84
   7  -5   4  221.70   13.05
   7  -5   5   -7.79   12.02
   0   0   0    0.00    0.00
;
_shelx_hkl_checksum              14792
_olex2_submission_special_instructions 'No special instructions were received'
loop_
_space_group_symop_operation_xyz
'x, y, z'
'-x+1/2, y+1/2, -z+1/2'
'-x, -y, -z'
'x-1/2, -y-1/2, z-1/2'
loop_
_atom_site_label
_atom_site_type_symbol
_atom_site_fract_x
_atom_site_fract_y
_atom_site_fract_z
_atom_site_U_iso_or_equiv
_atom_site_adp_type
_atom_site_occupancy
_atom_site_site_symmetry_order
_atom_site_calc_flag
_atom_site_refinement_flags_posn
_atom_site_refinement_flags_adp
_atom_site_refinement_flags_occupancy
_atom_site_disorder_assembly
_atom_site_disorder_group
C1 C 0.1808(15) -0.0665(16) 0.4448(15) 0.019(2) Uiso 1 1 d . . . . .
H1A H 0.1202 0.0774 0.4757 0.028 Uiso 1 1 calc GR . . . .
H1B H 0.1911 -0.2294 0.5002 0.028 Uiso 1 1 calc GR . . . .
H1C H 0.1468 -0.1410 0.3697 0.028 Uiso 1 1 calc GR . . . .
C2 C 0.3092(13) 0.0758(16) 0.4280(13) 0.017(2) Uiso 1 1 d . . . . .
C3 C 0.3908(13) -0.0328(17) 0.3414(13) 0.021(2) Uiso 1 1 d . . . . .
H3 H 0.3610 -0.1986 0.2982 0.025 Uiso 1 1 calc R . . . .
C4 C 0.5105(12) 0.0810(15) 0.3138(13) 0.0136(18) Uiso 1 1 d . . . . .
C5 C 0.5865(15) -0.0573(16) 0.2179(16) 0.021(2) Uiso 1 1 d . . . . .
H5A H 0.6578 0.0728 0.1972 0.031 Uiso 1 1 calc GR . . . .
H5B H 0.5294 -0.0893 0.1492 0.031 Uiso 1 1 calc GR . . . .
H5C H 0.6218 -0.2456 0.2451 0.031 Uiso 1 1 calc GR . . . .
O1 O 0.3388(10) 0.2913(13) 0.4930(10) 0.0198(15) Uiso 1 1 d . . . . .
O2 O 0.5662(9) 0.2971(12) 0.3689(10) 0.0170(13) Uiso 1 1 d . . . . .
Cu1 Cu 0.5000 0.5000 0.5000 0.0163(5) Uiso 1 2 d S T P . .
loop_
_atom_type_symbol
_atom_type_description
_atom_type_scat_dispersion_real
_atom_type_scat_dispersion_imag
_atom_type_scat_source
C C 0.0033 0.0016 'International Tables Vol C Tables 4.2.6.8 and 6.1.1.4'
H H 0.0000 0.0000 'International Tables Vol C Tables 4.2.6.8 and 6.1.1.4'
Cu Cu 0.3201 1.2651 'International Tables Vol C Tables 4.2.6.8 and 6.1.1.4'
O O 0.0106 0.0060 'International Tables Vol C Tables 4.2.6.8 and 6.1.1.4'
loop_
_geom_angle_atom_site_label_1
_geom_angle_atom_site_label_2
_geom_angle_atom_site_label_3
_geom_angle
_geom_angle_site_symmetry_1
_geom_angle_site_symmetry_3
H1A C1 H1B 109.5 . .
H1A C1 H1C 109.5 . .
H1B C1 H1C 109.5 . .
C2 C1 H1A 109.5 . .
C2 C1 H1B 109.5 . .
C2 C1 H1C 109.5 . .
C3 C2 C1 119.2(11) . .
O1 C2 C1 117.5(11) . .
O1 C2 C3 123.3(11) . .
C2 C3 H3 117.1 . .
C4 C3 C2 125.7(11) . .
C4 C3 H3 117.1 . .
C3 C4 C5 119.8(10) . .
O2 C4 C3 124.1(10) . .
O2 C4 C5 116.1(10) . .
C4 C5 H5A 109.5 . .
C4 C5 H5B 109.5 . .
C4 C5 H5C 109.5 . .
H5A C5 H5B 109.5 . .
H5A C5 H5C 109.5 . .
H5B C5 H5C 109.5 . .
C2 O1 Cu1 127.2(8) . .
C4 O2 Cu1 126.0(7) . .
O1 Cu1 O1 180.0(3) 3_666 .
O2 Cu1 O1 86.8(4) 3_666 .
O2 Cu1 O1 93.2(4) 3_666 3_666
O2 Cu1 O1 86.8(4) . 3_666
O2 Cu1 O1 93.2(4) . .
O2 Cu1 O2 180.0 . 3_666
loop_
_geom_bond_atom_site_label_1
_geom_bond_atom_site_label_2
_geom_bond_distance
_geom_bond_site_symmetry_2
C1 H1A 0.9800 .
C1 H1B 0.9800 .
C1 H1C 0.9800 .
C1 C2 1.494(16) .
C2 C3 1.409(15) .
C2 O1 1.264(14) .
C3 H3 0.9500 .
C3 C4 1.385(16) .
C4 C5 1.506(16) .
C4 O2 1.296(13) .
C5 H5A 0.9800 .
C5 H5B 0.9800 .
C5 H5C 0.9800 .
O1 Cu1 1.917(9) .
O2 Cu1 1.906(8) .
Cu1 O1 1.917(9) 3_666
Cu1 O2 1.906(8) 3_666
loop_
_geom_torsion_atom_site_label_1
_geom_torsion_atom_site_label_2
_geom_torsion_atom_site_label_3
_geom_torsion_atom_site_label_4
_geom_torsion
_geom_torsion_site_symmetry_1
_geom_torsion_site_symmetry_2
_geom_torsion_site_symmetry_3
_geom_torsion_site_symmetry_4
C1 C2 C3 C4 178.2(15) . . . .
C1 C2 O1 Cu1 175.2(11) . . . .
C2 C3 C4 C5 -179.5(15) . . . .
C2 C3 C4 O2 3(2) . . . .
C3 C2 O1 Cu1 -5.1(18) . . . .
C3 C4 O2 Cu1 1.3(16) . . . .
C5 C4 O2 Cu1 -175.8(11) . . . .
O1 C2 C3 C4 -1(2) . . . .
