#------------------------------------------------------------------------------
#$Date: 2019-05-24 12:01:53 +0300 (Fri, 24 May 2019) $
#$Revision: 215499 $
#$URL: file:///home/coder/svn-repositories/cod/cif/1/55/11/1551141.cif $
#------------------------------------------------------------------------------
#
# This file is available in the Crystallography Open Database (COD),
# http://www.crystallography.net/
#
# All data on this site have been placed in the public domain by the
# contributors.
#
data_1551141
loop_
_publ_author_name
'Anna Worthy'
'Arnaud Grosjean'
'Michael C. Pfrunder'
'Yanan Xu'
'Cheng Yan'
'Grant Edwards'
'Jack K. Clegg'
'John C. McMurtrie'
_publ_section_title
;
 Atomic resolution of structural changes in elastic crystals of copper(II)
 acetylacetonate
;
_journal_name_full               'Nature Chemistry'
_journal_page_first              65
_journal_page_last               69
_journal_paper_doi               10.1038/nchem.2848
_journal_volume                  10
_journal_year                    2018
_chemical_formula_moiety         'C10 H14 Cu O4'
_chemical_formula_sum            'C10 H14 Cu O4'
_chemical_formula_weight         261.75
_space_group_crystal_system      monoclinic
_space_group_IT_number           14
_space_group_name_Hall           '-P 2yn'
_space_group_name_H-M_alt        'P 1 21/n 1'
_symmetry_space_group_name_Hall  '-P 2yn'
_symmetry_space_group_name_H-M   'P 1 21/n 1'
_atom_sites_solution_hydrogens   geom
_cell_angle_alpha                90
_cell_angle_beta                 92.10(3)
_cell_angle_gamma                90
_cell_formula_units_Z            2
_cell_length_a                   10.296(2)
_cell_length_b                   4.5990(9)
_cell_length_c                   11.380(2)
_cell_measurement_reflns_used    322
_cell_measurement_temperature    100(2)
_cell_measurement_theta_max      29.535
_cell_measurement_theta_min      4.855
_cell_volume                     538.50(18)
_computing_cell_refinement       'XDS (Kabsch, 1993)'
_computing_data_collection       'BluIce (McPhillips, 2002)'
_computing_data_reduction        'XDS (Kabsch, 1993)'
_computing_molecular_graphics    'Olex2 (Dolomanov et al., 2009)'
_computing_publication_material  'Olex2 (Dolomanov et al., 2009)'
_computing_structure_refinement  'ShelXL (Sheldrick, 2015)'
_computing_structure_solution    'Known structure'
_diffrn_ambient_temperature      100(2)
_diffrn_measured_fraction_theta_full 0.183
_diffrn_measured_fraction_theta_max 0.183
_diffrn_measurement_device_type  'ADSC Quantum 315r'
_diffrn_measurement_method       'Phi Scan'
_diffrn_radiation_monochromator  'Silicon Double Crystal'
_diffrn_radiation_type           Synchrotron
_diffrn_radiation_wavelength     0.7108
_diffrn_reflns_av_R_equivalents  0.0257
_diffrn_reflns_av_unetI/netI     0.0249
_diffrn_reflns_Laue_measured_fraction_full 0.183
_diffrn_reflns_Laue_measured_fraction_max 0.183
_diffrn_reflns_limit_h_max       9
_diffrn_reflns_limit_h_min       -14
_diffrn_reflns_limit_k_max       5
_diffrn_reflns_limit_k_min       -5
_diffrn_reflns_limit_l_max       12
_diffrn_reflns_limit_l_min       -1
_diffrn_reflns_number            322
_diffrn_reflns_point_group_measured_fraction_full 0.183
_diffrn_reflns_point_group_measured_fraction_max 0.183
_diffrn_reflns_theta_full        26.000
_diffrn_reflns_theta_max         29.535
_diffrn_reflns_theta_min         4.855
_diffrn_source                   Synchrotron
_exptl_absorpt_coefficient_mu    2.018
_exptl_absorpt_correction_type   multi-scan
_exptl_absorpt_process_details   'XDS (Kabsch, 1993)'
_exptl_crystal_colour            'dark blue'
_exptl_crystal_colour_lustre     .
_exptl_crystal_colour_modifier   dark
_exptl_crystal_colour_primary    blue
_exptl_crystal_density_diffrn    1.614
_exptl_crystal_description       needle
_exptl_crystal_F_000             270
_exptl_crystal_size_max          1
_exptl_crystal_size_mid          0.1
_exptl_crystal_size_min          0.1
_refine_diff_density_max         0.351
_refine_diff_density_min         -0.542
_refine_diff_density_rms         0.068
_refine_ls_extinction_coef       .
_refine_ls_extinction_method     none
_refine_ls_goodness_of_fit_ref   1.071
_refine_ls_hydrogen_treatment    constr
_refine_ls_matrix_type           full
_refine_ls_number_parameters     32
_refine_ls_number_reflns         276
_refine_ls_number_restraints     0
_refine_ls_restrained_S_all      1.071
_refine_ls_R_factor_all          0.0630
_refine_ls_R_factor_gt           0.0571
_refine_ls_shift/su_max          0.000
_refine_ls_shift/su_mean         0.000
_refine_ls_structure_factor_coef Fsqd
_refine_ls_weighting_details
'w=1/[\s^2^(Fo^2^)+(0.0860P)^2^+2.5192P] where P=(Fo^2^+2Fc^2^)/3'
_refine_ls_weighting_scheme      calc
_refine_ls_wR_factor_gt          0.1467
_refine_ls_wR_factor_ref         0.1522
_reflns_Friedel_coverage         0.000
_reflns_Friedel_fraction_full    .
_reflns_Friedel_fraction_max     .
_reflns_number_gt                244
_reflns_number_total             276
_reflns_threshold_expression     'I > 2\s(I)'
_cod_data_source_file            nchem.2848-s6-q.cif
_cod_data_source_block           q
_cod_depositor_comments
;
The following automatic conversions were performed:

'_exptl_absorpt_correction_type' value 'Multi-Scan' changed to
'multi-scan' according to the built-in table from CIF Core dictionary
named 'cif_core.dic' version 2.4.5 from 2014-11-21.

Automatic conversion script
Id: cif_fix_values 6524 2018-11-02 12:15:13Z antanas 
;
_cod_original_cell_volume        538.49(19)
_cod_database_code               1551141
_shelx_space_group_comment
;
The symmetry employed for this shelxl refinement is uniquely defined
by the following loop, which should always be used as a source of
symmetry information in preference to the above space-group names.
They are only intended as comments.
;
_shelx_estimated_absorpt_t_max   0.824
_shelx_estimated_absorpt_t_min   0.237
_olex2_refinement_description
;
1. Fixed Uiso
 At 1.2 times of:
  All C(H) groups
 At 1.5 times of:
  All C(H,H,H) groups
2.a Aromatic/amide H refined with riding coordinates:
 C3(H3)
2.b Idealised Me refined as rotating group:
 C1(H1A,H1B,H1C), C5(H5A,H5B,H5C)
;
_shelx_res_file
;
TITL 12b in P2(1)/n
CELL 0.71073 10.296 4.599 11.38 90 92.105 90
ZERR 2 0.00206 0.00092 0.00228 0 0.03 0
LATT 1
SYMM 0.5-X,0.5+Y,0.5-Z
SFAC C H Cu O
UNIT 20 28 2 8

L.S. 50
PLAN  25
SIZE 0.1 0.1 1
TEMP -173(2)
LIST 1
MORE -1
BOND $H
CONF
fmap 2
acta 52
REM <olex2.extras>
REM <HklSrc "%.\\q.hkl">
REM </olex2.extras>

WGHT    0.086000    2.519200
FVAR       1.64187
C1    1    0.181190   -0.063553    0.447657    11.00000    0.01630
AFIX 137
H1A   2    0.118065    0.085091    0.469012    11.00000   -1.50000
H1B   2    0.192186   -0.203873    0.512064    11.00000   -1.50000
H1C   2    0.149671   -0.164472    0.376320    11.00000   -1.50000
AFIX   0
C2    1    0.308908    0.077826    0.425630    11.00000    0.01383
C3    1    0.388122   -0.032065    0.340248    11.00000    0.01820
AFIX  43
H3    2    0.357657   -0.196625    0.296958    11.00000   -1.20000
AFIX   0
C4    1    0.511762    0.083188    0.312536    11.00000    0.01602
C5    1    0.584147   -0.054461    0.215812    11.00000    0.02106
AFIX 137
H5A   2    0.618519    0.097258    0.165082    11.00000   -1.50000
H5B   2    0.525265   -0.180640    0.169341    11.00000   -1.50000
H5C   2    0.656181   -0.170374    0.249509    11.00000   -1.50000
AFIX   0
O1    4    0.338551    0.293219    0.494777    11.00000    0.01464
O2    4    0.566383    0.296433    0.365485    11.00000    0.01637
CU1   3    0.500000    0.500000    0.500000    10.50000    0.01369
HKLF 4

REM  12b in P2(1)/n
REM R1 =  0.0571 for     244 Fo > 4sig(Fo)  and  0.0630 for all     276 data
REM     32 parameters refined using      0 restraints

END

WGHT      0.0857      2.5264

REM Highest difference peak  0.351,  deepest hole -0.542,  1-sigma level  0.068
Q1    1   0.4837  0.5267  0.4564  11.00000  0.05    0.35
Q2    1   0.5552  0.3359  0.4569  11.00000  0.05    0.34
Q3    1   0.5906  0.2854  0.4210  11.00000  0.05    0.33
Q4    1   0.6121  0.2208  0.3729  11.00000  0.05    0.27
Q5    1   0.5996  0.4683  0.2836  11.00000  0.05    0.26
Q6    1   0.6887  0.2535  0.3448  11.00000  0.05    0.24
Q7    1   0.4804  0.5154  0.3744  11.00000  0.05    0.24
Q8    1   0.3906  0.4979  0.5142  11.00000  0.05    0.23
Q9    1   0.4410  0.0259  0.2820  11.00000  0.05    0.22
Q10   1   0.4849  0.2434  0.5115  11.00000  0.05    0.21
Q11   1   0.3637  0.5287  0.5432  11.00000  0.05    0.21
Q12   1   0.5942 -0.1341  0.3316  11.00000  0.05    0.21
Q13   1   0.5802 -0.1583  0.3543  11.00000  0.05    0.20
Q14   1   0.4206  0.3370  0.3373  11.00000  0.05    0.18
Q15   1   0.6476 -0.0097  0.2346  11.00000  0.05    0.17
Q16   1   0.3292  0.3951  0.6054  11.00000  0.05    0.16
Q17   1   0.5315  0.3780  0.3740  11.00000  0.05    0.16
Q18   1   0.4326 -0.2723  0.3534  11.00000  0.05    0.16
Q19   1   0.6641  0.3425  0.3991  11.00000  0.05    0.16
Q20   1   0.4040  0.1920  0.6002  11.00000  0.05    0.16
Q21   1   0.2444  0.3207  0.3797  11.00000  0.05    0.16
Q22   1   0.3259  0.2968  0.3247  11.00000  0.05    0.16
Q23   1   0.7168  0.1844  0.2255  11.00000  0.05    0.16
Q24   1   0.3635  0.0801  0.3430  11.00000  0.05    0.15
Q25   1   0.3804 -0.1312  0.4600  11.00000  0.05    0.15
;
_shelx_res_checksum              14726
_shelx_hkl_file
;
   2   0   1    0.85    0.57
  -4   0  -1   -0.64    0.88
  -6   0  -1    0.46    1.44
   6   0   5   -1.02    2.10
  -7   0  -1 3900.00   78.85
   7   0   6    3.26    3.49
   7   0   7 1021.00   21.78
   8   0   8  413.20   10.65
   8   0   9    1.94    5.80
   8   0  10  609.10   15.64
  -9   0   0    1.24    3.06
   9   0  11   88.21   10.14
 -10   0   0 2451.00   50.10
 -12   0   1    7.74    5.59
 -13   0   2    0.26    8.00
 -14   0   3   11.79    9.04
 -13   1   2  859.80   19.08
 -11   1   1   34.36    3.43
  -9   1   0  296.90    6.69
   8  -1   9  410.70   10.40
   6  -1   5 2740.00   56.95
  -1   1   0  854.70   17.40
   0  -1   0   -1.43    0.94
   1   1   1 2454.00   49.48
  -3  -1  -1  172.10    4.10
  -4  -1  -1 3914.00   78.86
   4   1   3 5943.00  119.50
  -5  -1  -1  887.80   18.39
   5   1   4 3330.00   67.34
  -6  -1  -1  984.10   20.42
   6   1   5 2510.00   51.02
   6   1   6    8.44    3.52
  -7  -1  -1    3.27    2.54
   7   1   6  927.10   20.07
   7   1   7  135.20    6.50
   7   1   8  947.10   21.51
  -8  -1  -1 2108.00   43.03
   8   1   8   87.42    6.87
   8   1   9  403.40   11.31
   8   1  10   -0.42    7.17
   8   1  11  530.20   14.43
   8   1  12   98.52    9.45
  -9  -1   0  292.70    8.22
   9   1  11   35.14    8.41
 -10  -1   0  125.40    5.95
 -11  -1   1   23.51    6.15
 -11  -1   0  631.40   15.16
 -12  -1   1 1062.00   23.66
 -13  -1   2  852.10   20.11
 -13  -1   1    9.32    7.63
 -14  -1   2   31.15    9.85
  -6   2   0 2126.00   43.55
  -5   2   0  697.30   14.46
   4  -2   3   26.52    1.70
  -4   2   0 3667.00   74.08
   3  -2   2  178.50    4.28
  -3   2   0  171.30    4.13
   1  -2   1  793.90   16.51
  -1   2   1 3802.00   76.62
   0   2   1  337.80    7.56
  -1  -2   0   67.29    2.69
   1   2   2  227.90    5.55
  -2  -2   0 4492.00   90.52
   2   2   2  431.90    9.46
   2   2   3  278.40    6.67
  -3  -2   0  201.60    5.09
   3   2   3 4813.00   97.10
   3   2   4  993.20   20.73
  -4  -2   0 3755.00   75.85
  -4  -2  -1  336.70    7.79
   4   2   4 4754.00   95.96
   4   2   5    2.51    2.73
  -5  -2   0  724.50   15.50
  -5  -2  -1 3010.00   61.01
   5   2   5 2388.00   48.76
   5   2   6  233.70    7.07
  -6  -2   0 2333.00   47.58
  -6  -2  -1 1865.00   38.24
   6   2   6 1063.00   22.85
   6   2   7    0.54    5.26
   6   2   8  801.20   17.88
  -7  -2   0   44.02    4.23
  -7  -2  -1 2254.00   46.21
   7   2   8   52.88    6.38
   7   2   9  826.40   18.94
   7   2  10   13.05    6.16
   7   2  11  149.50    8.01
   7   2  12   87.17    9.59
  -8  -2   0 2561.00   52.55
   8   2  10  497.90   13.81
   8   2  11   11.40    8.81
  -9  -2   0  263.40    8.07
 -10  -2   1  220.40    8.22
 -10  -2   0 3501.00   71.75
 -11  -2   1  873.30   20.02
 -12  -2   2  231.90    9.61
 -12  -2   1   42.73    7.39
 -13  -2   3  917.60   21.61
 -13  -2   2   -2.73    8.93
 -12   3   4  361.20   10.49
 -11   3   3   27.98    5.50
  -9   3   2 1432.00   29.80
  -8   3   2   46.36    4.32
   7  -3  10  293.00    9.19
  -7   3   2 1553.00   32.29
   6  -3   7 1154.00   24.33
  -6   3   1 2020.00   41.41
   5  -3   6 1974.00   40.59
  -5   3   1  218.40    6.00
   4  -3   5 2511.00   51.46
   4  -3   4   29.29    3.33
  -4   3   1 4745.00   95.80
  -4   3   2  601.00   13.02
   3  -3   4 1932.00   39.61
   3  -3   3  449.70   10.21
  -3   3   1    8.59    2.73
  -3   3   2 4526.00   91.38
   2  -3   3 3846.00   77.90
   2  -3   2   94.81    3.85
  -2   3   2   38.04    3.27
   1  -3   2 3551.00   71.96
  -1   3   2 2588.00   52.67
   0  -3   2   23.47    2.81
   0  -3   1  449.90   10.37
   0   3   2   25.00    2.83
   0   3   3 3144.00   63.81
  -1  -3   1   27.38    3.35
   1   3   3  130.40    4.86
   1   3   4 3696.00   75.07
  -2  -3   1 3553.00   72.12
  -2  -3   0  188.40    5.60
   2   3   3 3808.00   77.24
   2   3   4  635.80   14.19
   2   3   5 2526.00   51.73
  -3  -3   0 4446.00   90.07
   3   3   4 2007.00   41.37
   3   3   5  897.30   19.47
   3   3   6 4281.00   86.93
  -4  -3   1 4784.00   96.80
  -4  -3   0   -0.89    3.30
   4   3   5 2397.00   49.23
   4   3   6  280.50    8.05
   4   3   7 2988.00   61.07
  -5  -3   1  254.40    7.45
  -5  -3   0 3779.00   76.79
   5   3   6 1930.00   40.01
   5   3   7  645.30   14.83
   5   3   8  372.70   10.26
   5   3   9   61.38    6.00
   5   3  10  202.00    7.91
  -6  -3   1 2127.00   43.86
  -6  -3   0  403.30   10.14
   6   3   8   -6.89    5.61
   6   3   9  146.30    7.29
   6   3  10  345.00   11.19
   6   3  11  325.70   10.34
   6   3  12   45.90    9.83
  -7  -3   1  475.40   11.70
  -7  -3   0 2347.00   48.26
   7   3  10  306.10   10.71
   7   3  11    4.34    7.55
  -8  -3   1 1793.00   37.31
  -8  -3   0  288.90    8.37
  -9  -3   2 1338.00   28.44
  -9  -3   1  120.80    6.51
  -9  -3   0 1546.00   32.48
 -10  -3   2   19.29    6.21
 -10  -3   1  797.60   19.20
 -11  -3   3   11.29    7.38
 -11  -3   2  395.80   11.77
 -11  -3   1   -7.71    7.39
 -12  -3   3  126.80    8.51
 -12  -3   2  151.40    8.97
 -10   4   4  261.50    9.95
 -10   4   5   84.43    9.55
  -9   4   4   13.36    7.73
  -8   4   3  182.70    8.26
  -8   4   4  783.30   18.07
  -7   4   3 1162.00   25.40
  -7   4   4    0.55    5.99
   6  -4  10  397.60   14.76
  -6   4   3  272.90    8.74
  -6   4   4 1731.00   36.33
   5  -4   9  956.50   21.68
   5  -4   8    8.81    8.03
   5  -4   7  813.20   18.55
  -5   4   3 1673.00   35.25
  -5   4   4   32.51    4.90
   4  -4   6  269.50    8.41
  -4   4   3   52.30    5.35
  -4   4   4 1191.00   25.58
   3  -4   6  231.90    7.72
   3  -4   5  573.80   13.72
  -3   4   3 1425.00   30.14
  -3   4   4 2249.00   46.46
   2  -4   5   50.50    5.43
   2  -4   4 1408.00   29.86
  -2   4   3  755.20   16.81
  -2   4   4  645.90   15.05
  -2   4   5  120.00    5.68
   1  -4   4  141.20    6.08
   1  -4   3 1757.00   36.51
  -1   4   3 1265.00   26.74
  -1   4   4  415.00   10.47
  -1   4   5  952.50   20.89
   0  -4   4 1298.00   27.35
   0  -4   3  168.00    6.33
   0  -4   2 1966.00   40.58
   0   4   4 1458.00   30.66
   0   4   5  113.90    5.63
   0   4   6 2116.00   43.86
  -1  -4   3 1381.00   28.95
  -1  -4   2  207.10    6.41
   1   4   4  150.00    6.10
   1   4   5 1403.00   29.76
   1   4   6   65.75    5.69
   1   4   7 1726.00   36.13
  -2  -4   3  812.20   17.89
  -2  -4   2 1793.00   37.19
   2   4   5   61.36    5.20
   2   4   6  550.50   13.25
   2   4   7   21.04    5.92
   2   4   8  724.40   16.77
  -3  -4   3 1511.00   31.63
  -3  -4   2    0.51    4.33
  -3  -4   1 1301.00   27.42
   3   4   6  264.00    7.94
   3   4   7  354.50   10.12
   3   4   8   -5.66    5.75
   3   4   9  743.30   17.14
   3   4  10   85.19    6.48
   3   4  11  466.80   12.07
  -4  -4   2 1687.00   35.11
  -4  -4   1 2490.00   51.07
   4   4   7  122.80    6.43
   4   4   8  918.50   20.54
   4   4   9   12.52    5.57
   4   4  10  651.30   15.38
   4   4  11    3.73    7.94
  -5  -4   2  466.30   11.61
  -5  -4   1  822.10   18.30
   5   4   9  945.10   20.97
   5   4  10  340.60   10.84
  -6  -4   3  276.50    8.25
  -6  -4   2 1259.00   26.91
  -6  -4   1   23.12    5.47
  -7  -4   3 1041.00   22.70
  -7  -4   2  369.90   10.18
  -7  -4   1 1029.00   22.39
  -8  -4   3  216.90    7.80
  -8  -4   2 1006.00   22.04
  -8  -4   1  255.80    8.43
  -9  -4   3  651.20   15.53
  -9  -4   2  407.90   11.44
 -10  -4   4  338.10   10.90
 -10  -4   3  112.00    7.79
 -10  -4   2  690.70   16.69
 -11  -4   2   72.13    8.55
  -7   5   5   19.68    8.47
  -7   5   6  985.10   22.57
  -6   5   5 1393.00   30.16
  -6   5   6   19.84    7.13
  -6   5   7  292.50    9.94
  -5   5   5   29.88    7.32
  -5   5   6  842.60   19.64
  -5   5   7   35.28    6.85
  -5   5   8   96.03    8.80
  -4   5   5  979.30   22.01
  -4   5   6    5.61    6.42
  -4   5   7  406.60   12.06
  -4   5   8    5.50    6.85
   3  -5   9  -10.37    9.82
   3  -5   8  367.00   11.44
   3  -5   7    6.99    7.61
  -3   5   5   42.87    6.14
  -3   5   6  993.80   22.46
  -3   5   7   10.21    6.56
  -3   5   8   93.09    7.21
  -3   5   9   -2.91    7.06
   2  -5   9  609.90   15.49
   2  -5   8   14.46    8.18
   2  -5   7  800.90   18.58
   2  -5   6   26.81    7.00
  -2   5   5 1441.00   30.87
  -2   5   6  211.40    9.07
  -2   5   7  769.70   17.72
  -2   5   8    4.22    6.37
  -2   5   9  223.40    9.39
   1  -5   7   12.52    6.94
   1  -5   6  576.10   14.30
   1  -5   5    1.61    6.31
  -1   5   6 1531.00   32.55
  -1   5   7   -4.32    5.95
  -1   5   8  565.20   13.87
  -1   5   9   44.79    7.29
   0  -5   7  791.50   18.11
   0  -5   6   19.61    6.72
   0  -5   5 1036.00   22.59
   0  -5   4   43.98    5.57
   0   5   6   10.05    5.90
   0   5   7  783.80   17.89
   0   5   8  201.40    8.05
   0   5   9  539.30   14.01
  -1  -5   6 1556.00   33.18
  -1  -5   5   38.44    5.69
  -1  -5   4 1558.00   32.80
   1   5   7   -9.50    5.81
   1   5   8  807.20   18.42
   1   5   9   10.27    7.45
  -2  -5   6  255.40    8.53
  -2  -5   5 1387.00   29.43
  -2  -5   4  221.90    8.01
  -2  -5   3  218.60    7.75
   2   5   8   31.92    7.04
   2   5   9  525.00   13.33
  -3  -5   5   58.68    6.86
  -3  -5   4  432.80   11.42
  -3  -5   3  419.70   11.13
   3   5   9   -4.54    6.41
  -4  -5   5 1029.00   22.88
  -4  -5   4   59.72    6.51
  -4  -5   3   63.05    6.50
  -5  -5   5   50.09    6.96
  -5  -5   4  719.30   17.00
  -5  -5   3    9.54    6.20
  -6  -5   5 1438.00   30.78
  -6  -5   4    1.52    7.13
  -6  -5   3 1200.00   25.94
  -7  -5   5   -4.33    7.03
  -7  -5   4 1738.00   36.67
  -7  -5   3    5.12    6.63
  -8  -5   4   34.98    6.94
  -8  -5   3  568.10   14.56
   0   0   0    0.00    0.00
;
_shelx_hkl_checksum              75888
_olex2_submission_special_instructions 'No special instructions were received'
loop_
_space_group_symop_operation_xyz
'x, y, z'
'-x+1/2, y+1/2, -z+1/2'
'-x, -y, -z'
'x-1/2, -y-1/2, z-1/2'
loop_
_atom_site_label
_atom_site_type_symbol
_atom_site_fract_x
_atom_site_fract_y
_atom_site_fract_z
_atom_site_U_iso_or_equiv
_atom_site_adp_type
_atom_site_occupancy
_atom_site_site_symmetry_order
_atom_site_calc_flag
_atom_site_refinement_flags_posn
_atom_site_refinement_flags_adp
_atom_site_refinement_flags_occupancy
_atom_site_disorder_assembly
_atom_site_disorder_group
C1 C 0.1812(9) -0.0636(15) 0.4477(11) 0.0163(14) Uiso 1 1 d . . . . .
H1A H 0.1181 0.0851 0.4690 0.024 Uiso 1 1 calc GR . . . .
H1B H 0.1922 -0.2039 0.5121 0.024 Uiso 1 1 calc GR . . . .
H1C H 0.1497 -0.1645 0.3763 0.024 Uiso 1 1 calc GR . . . .
C2 C 0.3089(8) 0.0778(15) 0.4256(10) 0.0138(15) Uiso 1 1 d . . . . .
C3 C 0.3881(11) -0.0321(16) 0.3402(12) 0.0182(16) Uiso 1 1 d . . . . .
H3 H 0.3577 -0.1966 0.2970 0.022 Uiso 1 1 calc R . . . .
C4 C 0.5118(9) 0.0832(16) 0.3125(10) 0.0160(15) Uiso 1 1 d . . . . .
C5 C 0.5841(10) -0.0545(17) 0.2158(12) 0.0211(16) Uiso 1 1 d . . . . .
H5A H 0.6185 0.0973 0.1651 0.032 Uiso 1 1 calc GR . . . .
H5B H 0.5253 -0.1806 0.1693 0.032 Uiso 1 1 calc GR . . . .
H5C H 0.6562 -0.1704 0.2495 0.032 Uiso 1 1 calc GR . . . .
O1 O 0.3386(7) 0.2932(10) 0.4948(8) 0.0146(12) Uiso 1 1 d . . . . .
O2 O 0.5664(7) 0.2964(10) 0.3655(8) 0.0164(12) Uiso 1 1 d . . . . .
Cu1 Cu 0.5000 0.5000 0.5000 0.0137(6) Uiso 1 2 d S T P . .
loop_
_atom_type_symbol
_atom_type_description
_atom_type_scat_dispersion_real
_atom_type_scat_dispersion_imag
_atom_type_scat_source
C C 0.0033 0.0016 'International Tables Vol C Tables 4.2.6.8 and 6.1.1.4'
H H 0.0000 0.0000 'International Tables Vol C Tables 4.2.6.8 and 6.1.1.4'
Cu Cu 0.3201 1.2651 'International Tables Vol C Tables 4.2.6.8 and 6.1.1.4'
O O 0.0106 0.0060 'International Tables Vol C Tables 4.2.6.8 and 6.1.1.4'
loop_
_geom_angle_atom_site_label_1
_geom_angle_atom_site_label_2
_geom_angle_atom_site_label_3
_geom_angle
_geom_angle_site_symmetry_1
_geom_angle_site_symmetry_3
H1A C1 H1B 109.5 . .
H1A C1 H1C 109.5 . .
H1B C1 H1C 109.5 . .
C2 C1 H1A 109.5 . .
C2 C1 H1B 109.5 . .
C2 C1 H1C 109.5 . .
C3 C2 C1 120.1(8) . .
O1 C2 C1 114.8(10) . .
O1 C2 C3 125.0(9) . .
C2 C3 H3 117.5 . .
C2 C3 C4 124.9(8) . .
C4 C3 H3 117.5 . .
C3 C4 C5 118.7(8) . .
O2 C4 C3 124.4(11) . .
O2 C4 C5 116.9(10) . .
C4 C5 H5A 109.5 . .
C4 C5 H5B 109.5 . .
C4 C5 H5C 109.5 . .
H5A C5 H5B 109.5 . .
H5A C5 H5C 109.5 . .
H5B C5 H5C 109.5 . .
C2 O1 Cu1 125.7(7) . .
C4 O2 Cu1 125.7(9) . .
O1 Cu1 O1 180.0 . 3_666
O1 Cu1 O2 93.8(3) 3_666 3_666
O1 Cu1 O2 86.2(3) 3_666 .
O1 Cu1 O2 93.8(3) . .
O1 Cu1 O2 86.2(3) . 3_666
O2 Cu1 O2 180.0 3_666 .
loop_
_geom_bond_atom_site_label_1
_geom_bond_atom_site_label_2
_geom_bond_distance
_geom_bond_site_symmetry_2
C1 H1A 0.9800 .
C1 H1B 0.9800 .
C1 H1C 0.9800 .
C1 C2 1.496(14) .
C2 C3 1.387(17) .
C2 O1 1.295(9) .
C3 H3 0.9500 .
C3 C4 1.425(15) .
C4 C5 1.493(17) .
C4 O2 1.271(10) .
C5 H5A 0.9800 .
C5 H5B 0.9800 .
C5 H5C 0.9800 .
O1 Cu1 1.914(7) .
O2 Cu1 1.940(9) .
Cu1 O1 1.914(7) 3_666
Cu1 O2 1.940(9) 3_666
loop_
_geom_torsion_atom_site_label_1
_geom_torsion_atom_site_label_2
_geom_torsion_atom_site_label_3
_geom_torsion_atom_site_label_4
_geom_torsion
_geom_torsion_site_symmetry_1
_geom_torsion_site_symmetry_2
_geom_torsion_site_symmetry_3
_geom_torsion_site_symmetry_4
C1 C2 C3 C4 -179.5(9) . . . .
C1 C2 O1 Cu1 174.3(6) . . . .
C2 C3 C4 C5 -178.3(10) . . . .
C2 C3 C4 O2 2.2(18) . . . .
C3 C2 O1 Cu1 -2.6(14) . . . .
C3 C4 O2 Cu1 3.4(14) . . . .
C5 C4 O2 Cu1 -176.0(6) . . . .
O1 C2 C3 C4 -2.7(19) . . . .
