#------------------------------------------------------------------------------
#$Date: 2019-05-24 12:00:55 +0300 (Fri, 24 May 2019) $
#$Revision: 215491 $
#$URL: file:///home/coder/svn-repositories/cod/cif/1/55/11/1551133.cif $
#------------------------------------------------------------------------------
#
# This file is available in the Crystallography Open Database (COD),
# http://www.crystallography.net/
#
# All data on this site have been placed in the public domain by the
# contributors.
#
data_1551133
loop_
_publ_author_name
'Anna Worthy'
'Arnaud Grosjean'
'Michael C. Pfrunder'
'Yanan Xu'
'Cheng Yan'
'Grant Edwards'
'Jack K. Clegg'
'John C. McMurtrie'
_publ_section_title
;
 Atomic resolution of structural changes in elastic crystals of copper(II)
 acetylacetonate
;
_journal_name_full               'Nature Chemistry'
_journal_page_first              65
_journal_page_last               69
_journal_paper_doi               10.1038/nchem.2848
_journal_volume                  10
_journal_year                    2018
_chemical_formula_moiety         'C10 H14 Cu O4'
_chemical_formula_sum            'C10 H14 Cu O4'
_chemical_formula_weight         261.75
_space_group_crystal_system      monoclinic
_space_group_IT_number           14
_space_group_name_Hall           '-P 2yn'
_space_group_name_H-M_alt        'P 1 21/n 1'
_symmetry_space_group_name_Hall  '-P 2yn'
_symmetry_space_group_name_H-M   'P 1 21/n 1'
_atom_sites_solution_hydrogens   geom
_cell_angle_alpha                90
_cell_angle_beta                 92.63(3)
_cell_angle_gamma                90
_cell_formula_units_Z            2
_cell_length_a                   10.266(2)
_cell_length_b                   4.6590(9)
_cell_length_c                   11.260(2)
_cell_measurement_reflns_used    304
_cell_measurement_temperature    100(2)
_cell_measurement_theta_max      29.491
_cell_measurement_theta_min      4.806
_cell_volume                     537.99(18)
_computing_cell_refinement       'XDS (Kabsch, 1993)'
_computing_data_collection       'BluIce (McPhillips, 2002)'
_computing_data_reduction        'XDS (Kabsch, 1993)'
_computing_molecular_graphics    'Olex2 (Dolomanov et al., 2009)'
_computing_publication_material  'Olex2 (Dolomanov et al., 2009)'
_computing_structure_refinement  'ShelXL (Sheldrick, 2015)'
_computing_structure_solution    'Known structure'
_diffrn_ambient_temperature      100(2)
_diffrn_measured_fraction_theta_full 0.180
_diffrn_measured_fraction_theta_max 0.176
_diffrn_measurement_device_type  'ADSC Quantum 315r'
_diffrn_measurement_method       'Phi Scan'
_diffrn_radiation_monochromator  'Silicon Double Crystal'
_diffrn_radiation_type           Synchrotron
_diffrn_radiation_wavelength     0.7108
_diffrn_reflns_av_R_equivalents  0.0208
_diffrn_reflns_av_unetI/netI     0.0221
_diffrn_reflns_Laue_measured_fraction_full 0.180
_diffrn_reflns_Laue_measured_fraction_max 0.176
_diffrn_reflns_limit_h_max       9
_diffrn_reflns_limit_h_min       -14
_diffrn_reflns_limit_k_max       5
_diffrn_reflns_limit_k_min       -5
_diffrn_reflns_limit_l_max       12
_diffrn_reflns_limit_l_min       -1
_diffrn_reflns_number            304
_diffrn_reflns_point_group_measured_fraction_full 0.180
_diffrn_reflns_point_group_measured_fraction_max 0.176
_diffrn_reflns_theta_full        26.000
_diffrn_reflns_theta_max         29.491
_diffrn_reflns_theta_min         4.806
_diffrn_source                   Synchrotron
_exptl_absorpt_coefficient_mu    2.020
_exptl_absorpt_correction_type   multi-scan
_exptl_absorpt_process_details   'XDS (Kabsch, 1993)'
_exptl_crystal_colour            'dark blue'
_exptl_crystal_colour_lustre     .
_exptl_crystal_colour_modifier   dark
_exptl_crystal_colour_primary    blue
_exptl_crystal_density_diffrn    1.616
_exptl_crystal_description       needle
_exptl_crystal_F_000             270
_exptl_crystal_size_max          1
_exptl_crystal_size_mid          0.1
_exptl_crystal_size_min          0.1
_refine_diff_density_max         0.292
_refine_diff_density_min         -0.316
_refine_diff_density_rms         0.051
_refine_ls_extinction_coef       .
_refine_ls_extinction_method     none
_refine_ls_goodness_of_fit_ref   1.200
_refine_ls_hydrogen_treatment    constr
_refine_ls_matrix_type           full
_refine_ls_number_parameters     32
_refine_ls_number_reflns         264
_refine_ls_number_restraints     0
_refine_ls_restrained_S_all      1.200
_refine_ls_R_factor_all          0.0466
_refine_ls_R_factor_gt           0.0422
_refine_ls_shift/su_max          0.000
_refine_ls_shift/su_mean         0.000
_refine_ls_structure_factor_coef Fsqd
_refine_ls_weighting_details
'w=1/[\s^2^(Fo^2^)+2.4215P] where P=(Fo^2^+2Fc^2^)/3'
_refine_ls_weighting_scheme      calc
_refine_ls_wR_factor_gt          0.0971
_refine_ls_wR_factor_ref         0.0998
_reflns_Friedel_coverage         0.000
_reflns_Friedel_fraction_full    .
_reflns_Friedel_fraction_max     .
_reflns_number_gt                241
_reflns_number_total             264
_reflns_threshold_expression     'I > 2\s(I)'
_cod_data_source_file            nchem.2848-s6-e.cif
_cod_data_source_block           e
_cod_depositor_comments
;
The following automatic conversions were performed:

'_exptl_absorpt_correction_type' value 'Multi-Scan' changed to
'multi-scan' according to the built-in table from CIF Core dictionary
named 'cif_core.dic' version 2.4.5 from 2014-11-21.

Automatic conversion script
Id: cif_fix_values 6524 2018-11-02 12:15:13Z antanas 
;
_cod_original_cell_volume        537.99(19)
_cod_database_code               1551133
_shelx_space_group_comment
;
The symmetry employed for this shelxl refinement is uniquely defined
by the following loop, which should always be used as a source of
symmetry information in preference to the above space-group names.
They are only intended as comments.
;
_shelx_estimated_absorpt_t_max   0.824
_shelx_estimated_absorpt_t_min   0.237
_olex2_refinement_description
;
1. Fixed Uiso
 At 1.2 times of:
  All C(H) groups
 At 1.5 times of:
  All C(H,H,H) groups
2.a Aromatic/amide H refined with riding coordinates:
 C3(H3)
2.b Idealised Me refined as rotating group:
 C1(H1a,H1b,H1c), C5(H5a,H5b,H5c)
;
_shelx_res_file
;
TITL 8 in P2(1)/n
CELL 0.71073 10.266 4.659 11.26 90 92.63 90
ZERR 2 0.00205 0.00093 0.00225 0 0.03 0
LATT 1
SYMM 0.5-X,0.5+Y,0.5-Z
SFAC C H Cu O
UNIT 20 28 2 8

L.S. 50
PLAN  25
SIZE 0.1 0.1 1
TEMP -173(2)
LIST 1
MORE -1
BOND $H
CONF
fmap 2
acta 52
REM <olex2.extras>
REM <HklSrc "%.\\e.hkl">
REM </olex2.extras>

WGHT    0.000000    2.421500
FVAR       0.70537
C1    1    0.181018   -0.061467    0.448341    11.00000    0.01587
AFIX 137
H1A   2    0.121970    0.079620    0.481575    11.00000   -1.50000
H1B   2    0.194560   -0.220643    0.504451    11.00000   -1.50000
H1C   2    0.142656   -0.134846    0.373032    11.00000   -1.50000
AFIX   0
C2    1    0.309700    0.078873    0.426809    11.00000    0.01213
C3    1    0.388944   -0.029637    0.340485    11.00000    0.01664
AFIX  43
H3    2    0.358517   -0.193156    0.297110    11.00000   -1.20000
AFIX   0
C4    1    0.511466    0.084925    0.312309    11.00000    0.01428
C5    1    0.584462   -0.050797    0.215265    11.00000    0.01827
AFIX 137
H5A   2    0.652170    0.081168    0.189979    11.00000   -1.50000
H5B   2    0.524053   -0.093404    0.147645    11.00000   -1.50000
H5C   2    0.625060   -0.229213    0.244495    11.00000   -1.50000
AFIX   0
O1    4    0.337614    0.295499    0.494743    11.00000    0.01445
O2    4    0.565209    0.299667    0.364830    11.00000    0.01495
CU1   3    0.500000    0.500000    0.500000    10.50000    0.01227
HKLF 4

REM  8 in P2(1)/n
REM R1 =  0.0422 for     241 Fo > 4sig(Fo)  and  0.0466 for all     264 data
REM     32 parameters refined using      0 restraints

END

WGHT      0.0000      2.4215

REM Highest difference peak  0.292,  deepest hole -0.316,  1-sigma level  0.051
Q1    1   0.4815  0.5495  0.4677  11.00000  0.05    0.29
Q2    1   0.5345  0.7068  0.5153  11.00000  0.05    0.22
Q3    1   0.5664  0.5817  0.4240  11.00000  0.05    0.18
Q4    1   0.5269  0.3301  0.3439  11.00000  0.05    0.17
Q5    1   0.4620  0.6675  0.5330  11.00000  0.05    0.17
Q6    1   0.4212  0.1721  0.5788  11.00000  0.05    0.17
Q7    1   0.5935  0.2499  0.3974  11.00000  0.05    0.17
Q8    1   0.6489  0.0819  0.4240  11.00000  0.05    0.16
Q9    1   0.3976  0.3750  0.3444  11.00000  0.05    0.16
Q10   1   0.4234 -0.0896  0.4539  11.00000  0.05    0.16
Q11   1   0.5281 -0.1379  0.3859  11.00000  0.05    0.15
Q12   1   0.6416  0.4041  0.4416  11.00000  0.05    0.15
Q13   1   0.3862  0.2553  0.5233  11.00000  0.05    0.15
Q14   1   0.4472  0.0292  0.2884  11.00000  0.05    0.15
Q15   1   0.1004 -0.2432  0.3215  11.00000  0.05    0.15
Q16   1   0.5787 -0.0956  0.3543  11.00000  0.05    0.15
Q17   1   0.6707 -0.1698  0.3716  11.00000  0.05    0.14
Q18   1   0.6196  0.3428  0.2609  11.00000  0.05    0.14
Q19   1   0.7550 -0.1192  0.1345  11.00000  0.05    0.14
Q20   1   0.3115  0.4297  0.3935  11.00000  0.05    0.14
Q21   1   0.2746 -0.0550  0.6183  11.00000  0.05    0.14
Q22   1   0.4570  0.1280  0.2132  11.00000  0.05    0.14
Q23   1   0.5553 -0.2850  0.2133  11.00000  0.05    0.14
Q24   1   0.4618  0.5252  0.3803  11.00000  0.05    0.13
Q25   1   0.5531  0.1199  0.4890  11.00000  0.05    0.13
;
_shelx_res_checksum              36427
_shelx_hkl_file
;
   2   0   1    0.13    0.07
  -4   0  -1    0.18    0.11
  -6   0  -1    0.04    0.18
   6   0   5   -0.03    0.27
  -7   0  -1  695.00   14.02
   7   0   6    0.90    0.46
   7   0   7  180.50    3.75
   8   0   8   95.00    2.13
   8   0   9    0.54    0.80
   8   0  10  120.60    2.72
  -9   0   0   -0.20    0.34
   9   0  11   17.33    1.29
 -10   0   0  451.30    9.16
 -12   0   1   -0.33    0.64
 -13   0   2    0.25    0.86
 -14   0   3    0.27    1.09
 -13   1   2  169.80    3.60
 -11   1   1    6.75    0.43
  -9   1   0   55.30    1.20
   8  -1   9   78.85    1.78
   6  -1   5  513.10   10.64
  -1   1   0  170.20    3.44
   0  -1   0    0.14    0.12
   1   1   1  477.80    9.60
  -3  -1  -1   26.93    0.60
  -4  -1  -1  767.30   15.42
   4   1   3 1238.00   24.85
  -5  -1  -1  152.20    3.11
   5   1   4  682.30   13.73
  -6  -1  -1  191.80    3.90
   6   1   5  528.60   10.66
   6   1   6    0.70    0.43
  -7  -1  -1    1.67    0.31
   7   1   7   25.94    0.90
  -8  -1  -1  356.20    7.21
   8   1   9   78.64    1.88
   8   1  10    2.94    0.91
   8   1  11   97.56    2.32
   8   1  12   17.90    1.23
  -9  -1   0   39.31    1.01
 -10  -1   0   27.75    0.84
 -11  -1   1    5.55    0.67
 -12  -1   1  201.90    4.27
 -13  -1   2  165.70    3.56
 -13  -1   1    3.79    0.79
 -14  -1   2    0.58    1.03
  -6   2   0  464.10    9.47
  -5   2   0  153.10    3.12
   4  -2   3    6.35    0.25
  -4   2   0  745.60   15.02
   3  -2   2   35.27    0.77
  -3   2   0   43.70    0.93
   1  -2   1  158.30    3.23
  -1   2   1  707.30   14.21
   0   2   1   61.73    1.31
  -1  -2   0   13.76    0.41
   1   2   2   45.72    1.00
  -2  -2   0  908.20   18.25
   2   2   2   96.24    2.01
   2   2   3   58.78    1.27
  -3  -2   0   42.01    0.94
   3   2   3 1060.00   21.30
  -4  -2   0  764.20   15.36
  -4  -2  -1   59.29    1.28
   4   2   4 1052.00   21.15
   4   2   5    0.41    0.34
  -5  -2   0  156.80    3.23
  -5  -2  -1  490.50    9.89
   5   2   5  559.50   11.30
   5   2   6   59.47    1.41
  -6  -2   0  454.60    9.18
  -6  -2  -1  321.60    6.53
   6   2   6  228.10    4.72
   6   2   7    0.78    0.59
   6   2   8  155.10    3.30
  -7  -2   0    9.07    0.49
  -7  -2  -1  353.50    7.18
   7   2   7  260.30    5.41
   7   2   8    7.91    0.72
   7   2   9  183.60    3.89
   7   2  10    4.53    0.82
   7   2  11   31.02    1.17
   7   2  12   14.53    1.20
  -8  -2   0  517.30   10.47
   8   2  10  105.90    2.46
   8   2  11   -1.01    1.10
  -9  -2   0   42.65    1.10
 -10  -2   1   42.40    1.17
 -10  -2   0  621.40   12.60
 -11  -2   1  162.90    3.48
 -12  -2   2   53.53    1.44
 -12  -2   1    7.32    0.80
 -13  -2   3  184.30    3.95
 -13  -2   2    0.69    1.01
 -11   3   3    3.25    0.63
  -9   3   2  284.20    5.83
  -8   3   2    6.14    0.49
   7  -3  10   69.35    1.67
   6  -3   7  244.30    5.05
  -6   3   1  461.20    9.35
   5  -3   6  451.20    9.17
  -5   3   1   46.97    1.06
   4  -3   4    6.12    0.40
  -4   3   1 1068.00   21.47
   3  -3   3   91.88    1.95
  -3   3   1    3.36    0.31
  -3   3   2  803.20   16.16
   2  -3   3  876.40   17.64
   2  -3   2   16.53    0.52
  -2   3   2    5.65    0.35
   1  -3   2  760.00   15.30
  -1   3   2  554.90   11.18
   0  -3   2    2.60    0.34
   0  -3   1   72.88    1.58
   0   3   2    3.34    0.35
   0   3   3  548.70   11.07
  -1  -3   1    7.39    0.42
   1   3   3   23.40    0.66
   1   3   4  680.20   13.72
  -2  -3   1  791.60   15.94
  -2  -3   0   33.62    0.85
   2   3   3  919.20   18.49
   2   3   4  129.00    2.72
   2   3   5  485.80    9.83
  -3  -3   1    3.54    0.42
  -3  -3   0  728.60   14.69
   3   3   4  472.20    9.57
   3   3   5  171.20    3.57
   3   3   6  849.90   17.11
  -4  -3   1 1103.00   22.19
  -4  -3   0   -0.32    0.41
   4   3   5  580.30   11.74
   4   3   6   61.59    1.46
   4   3   7  559.40   11.32
  -5  -3   1   48.17    1.16
  -5  -3   0  731.00   14.75
   5   3   6  437.90    8.89
   5   3   7  128.00    2.74
   5   3   8   69.50    1.65
   5   3   9   14.37    0.91
   5   3  10   36.35    1.15
  -6  -3   1  451.80    9.16
  -6  -3   0   69.22    1.57
   6   3   7  250.60    5.22
   6   3   8    0.01    0.71
   6   3   9   29.42    1.05
   6   3  10   76.04    1.84
   6   3  11   69.41    1.76
  -7  -3   1   86.26    1.91
  -7  -3   0  399.20    8.12
   7   3  10   75.36    1.86
   7   3  11    1.63    0.99
  -8  -3   1  334.60    6.82
  -8  -3   0   45.24    1.16
  -9  -3   2  295.20    6.05
  -9  -3   1   23.43    0.82
  -9  -3   0  251.60    5.19
 -10  -3   2    2.93    0.67
 -10  -3   1  117.40    2.60
 -11  -3   3    2.78    0.67
 -11  -3   2   71.03    1.76
 -11  -3   1   -0.31    0.77
 -12  -3   3   24.72    1.09
 -12  -3   2   24.49    1.00
 -10   4   5    9.36    1.17
  -9   4   4    2.33    0.96
  -8   4   3   46.32    1.33
  -8   4   4  148.50    3.20
  -7   4   3  220.60    4.61
  -7   4   4    1.49    0.78
   6  -4  10   71.49    2.04
  -6   4   3   59.03    1.50
  -6   4   4  279.20    5.75
   5  -4   9  244.90    5.09
   5  -4   8    1.69    0.88
   5  -4   7  144.70    3.09
  -5   4   3  340.10    6.97
  -5   4   4    7.64    0.67
   4  -4   7   27.45    0.97
   4  -4   6   60.11    1.47
  -4   4   3   10.74    0.74
  -4   4   4  224.80    4.67
   3  -4   6   55.62    1.37
   3  -4   5  125.30    2.70
  -3   4   3  335.90    6.87
  -3   4   4  399.00    8.12
   2  -4   5    9.90    0.64
  -2   4   3  175.20    3.66
  -2   4   4  118.60    2.55
   1  -4   4   31.01    0.90
   1  -4   3  328.10    6.69
  -1   4   3  312.30    6.39
  -1   4   4   90.46    2.02
  -1   4   5  166.90    3.51
   0  -4   3   36.64    0.98
   0  -4   2  360.80    7.34
   0   4   4  321.80    6.59
   0   4   5   22.09    0.81
   0   4   6  402.50    8.19
  -1  -4   3  291.10    5.95
  -1  -4   2   39.77    1.00
   1   4   4   34.95    1.00
   1   4   5  304.00    6.23
   1   4   6   15.55    0.77
   1   4   7  321.70    6.59
  -2  -4   3  169.70    3.54
  -2  -4   2  384.40    7.81
  -2  -4   1    1.99    0.42
   2   4   5   12.86    0.73
   2   4   6  135.00    2.88
   2   4   7    1.38    0.68
   2   4   8  147.70    3.15
  -3  -4   2    1.61    0.48
  -3  -4   1  248.20    5.10
   3   4   6   60.58    1.44
   3   4   7   74.80    1.75
   3   4   8    0.11    0.70
   3   4   9  146.20    3.12
   3   4  10   22.90    0.97
  -4  -4   2  376.60    7.66
  -4  -4   1  450.20    9.12
   4   4   7   25.19    0.93
   4   4   8  217.30    4.53
   4   4   9    4.22    0.78
   4   4  10  142.30    3.06
   4   4  11    3.27    0.91
  -5  -4   2   82.03    1.85
  -5  -4   1  136.10    2.89
   5   4   9  243.40    5.04
   5   4  10   73.88    1.81
  -6  -4   2  253.30    5.22
  -6  -4   1    4.33    0.60
  -7  -4   3  211.30    4.38
  -7  -4   2   75.25    1.74
  -7  -4   1  175.80    3.68
  -8  -4   3   46.77    1.25
  -8  -4   2  199.20    4.15
  -8  -4   1   44.64    1.21
  -9  -4   3  133.30    2.88
  -9  -4   2   75.04    1.79
  -9  -4   1  167.10    3.53
 -10  -4   4   70.85    1.75
 -10  -4   3   18.77    0.93
 -10  -4   2  123.00    2.71
 -11  -4   2    8.89    1.03
  -7   5   5   -0.47    1.07
  -7   5   6  193.20    4.12
  -6   5   5  308.90    6.37
  -6   5   6    8.39    0.99
  -6   5   7   61.98    1.65
  -5   5   5    7.90    0.94
  -5   5   6  181.60    3.88
  -5   5   7    4.47    0.91
  -4   5   5  227.60    4.74
  -4   5   6    2.46    0.81
  -4   5   7   80.32    1.91
  -4   5   8    1.32    0.76
   3  -5   9   -0.06    0.98
   3  -5   8   81.94    2.03
   3  -5   7    1.79    0.86
  -3   5   5    6.09    0.84
  -3   5   6  229.60    4.81
  -3   5   8   20.97    1.16
   2  -5   8   10.03    0.95
   2  -5   7  171.30    3.63
   2  -5   6    3.06    0.76
  -2   5   5  348.10    7.13
  -2   5   6   47.41    1.34
  -2   5   7  159.00    3.42
  -2   5   8    1.05    0.84
  -2   5   9   42.37    1.30
   1  -5   7    1.44    0.73
   1  -5   6  124.80    2.71
   1  -5   5    2.55    0.67
  -1   5   6  340.40    6.98
  -1   5   7   -0.07    0.76
  -1   5   8  126.10    2.76
  -1   5   9   11.11    0.90
   0  -5   6    4.45    0.70
   0  -5   5  221.40    4.59
   0   5   6    3.87    0.77
   0   5   7  180.10    3.80
   0   5   8   52.49    1.43
   0   5   9  127.90    2.79
  -1  -5   6  389.30    7.96
  -1  -5   5   10.87    0.73
  -1  -5   4  299.10    6.13
   1   5   7    0.23    0.78
   1   5   8  185.30    3.91
   1   5   9   -0.14    0.84
  -2  -5   5  328.40    6.72
  -2  -5   4   36.83    1.06
  -2  -5   3   39.09    1.08
   2   5   8    9.01    0.86
   2   5   9  148.50    3.21
  -3  -5   5    9.09    0.72
  -3  -5   4   87.44    1.97
  -3  -5   3   75.15    1.73
   3   5   9    0.82    0.88
  -4  -5   5  240.40    4.99
  -4  -5   4    9.27    0.75
  -4  -5   3    8.86    0.71
  -5  -5   5    8.20    0.79
  -5  -5   4  158.80    3.38
  -5  -5   3    0.47    0.71
  -5  -5   2   69.30    1.70
  -6  -5   5  307.40    6.32
  -6  -5   4    1.04    0.76
  -6  -5   3  226.50    4.71
  -6  -5   2    2.13    0.72
  -7  -5   5   -0.90    0.80
  -7  -5   4  333.30    6.83
  -7  -5   3    0.18    0.75
  -8  -5   4    6.14    0.86
  -8  -5   3   98.20    2.24
   0   0   0    0.00    0.00
;
_shelx_hkl_checksum              62954
_olex2_submission_special_instructions 'No special instructions were received'
loop_
_space_group_symop_operation_xyz
'x, y, z'
'-x+1/2, y+1/2, -z+1/2'
'-x, -y, -z'
'x-1/2, -y-1/2, z-1/2'
loop_
_atom_site_label
_atom_site_type_symbol
_atom_site_fract_x
_atom_site_fract_y
_atom_site_fract_z
_atom_site_U_iso_or_equiv
_atom_site_adp_type
_atom_site_occupancy
_atom_site_site_symmetry_order
_atom_site_calc_flag
_atom_site_refinement_flags_posn
_atom_site_refinement_flags_adp
_atom_site_refinement_flags_occupancy
_atom_site_disorder_assembly
_atom_site_disorder_group
C1 C 0.1810(8) -0.0615(13) 0.4483(10) 0.0159(14) Uiso 1 1 d . . . . .
H1A H 0.1220 0.0796 0.4816 0.024 Uiso 1 1 calc GR . . . .
H1B H 0.1946 -0.2206 0.5045 0.024 Uiso 1 1 calc GR . . . .
H1C H 0.1427 -0.1348 0.3730 0.024 Uiso 1 1 calc GR . . . .
C2 C 0.3097(7) 0.0789(11) 0.4268(9) 0.0121(13) Uiso 1 1 d . . . . .
C3 C 0.3889(9) -0.0296(13) 0.3405(10) 0.0166(14) Uiso 1 1 d . . . . .
H3 H 0.3585 -0.1932 0.2971 0.020 Uiso 1 1 calc R . . . .
C4 C 0.5115(8) 0.0849(13) 0.3123(10) 0.0143(13) Uiso 1 1 d . . . . .
C5 C 0.5845(8) -0.0508(13) 0.2153(11) 0.0183(14) Uiso 1 1 d . . . . .
H5A H 0.6522 0.0812 0.1900 0.027 Uiso 1 1 calc GR . . . .
H5B H 0.5241 -0.0934 0.1476 0.027 Uiso 1 1 calc GR . . . .
H5C H 0.6251 -0.2292 0.2445 0.027 Uiso 1 1 calc GR . . . .
O1 O 0.3376(6) 0.2955(9) 0.4947(7) 0.0145(10) Uiso 1 1 d . . . . .
O2 O 0.5652(6) 0.2997(9) 0.3648(7) 0.0149(10) Uiso 1 1 d . . . . .
Cu1 Cu 0.5000 0.5000 0.5000 0.0123(4) Uiso 1 2 d S T P . .
loop_
_atom_type_symbol
_atom_type_description
_atom_type_scat_dispersion_real
_atom_type_scat_dispersion_imag
_atom_type_scat_source
C C 0.0033 0.0016 'International Tables Vol C Tables 4.2.6.8 and 6.1.1.4'
H H 0.0000 0.0000 'International Tables Vol C Tables 4.2.6.8 and 6.1.1.4'
Cu Cu 0.3201 1.2651 'International Tables Vol C Tables 4.2.6.8 and 6.1.1.4'
O O 0.0106 0.0060 'International Tables Vol C Tables 4.2.6.8 and 6.1.1.4'
loop_
_geom_angle_atom_site_label_1
_geom_angle_atom_site_label_2
_geom_angle_atom_site_label_3
_geom_angle
_geom_angle_site_symmetry_1
_geom_angle_site_symmetry_3
H1A C1 H1B 109.5 . .
H1A C1 H1C 109.5 . .
H1B C1 H1C 109.5 . .
C2 C1 H1A 109.5 . .
C2 C1 H1B 109.5 . .
C2 C1 H1C 109.5 . .
C3 C2 C1 120.1(7) . .
O1 C2 C1 114.7(9) . .
O1 C2 C3 125.3(8) . .
C2 C3 H3 117.5 . .
C2 C3 C4 125.0(7) . .
C4 C3 H3 117.5 . .
C3 C4 C5 119.0(7) . .
O2 C4 C3 124.2(10) . .
O2 C4 C5 116.8(8) . .
C4 C5 H5A 109.5 . .
C4 C5 H5B 109.5 . .
C4 C5 H5C 109.5 . .
H5A C5 H5B 109.5 . .
H5A C5 H5C 109.5 . .
H5B C5 H5C 109.5 . .
C2 O1 Cu1 125.1(7) . .
C4 O2 Cu1 125.9(7) . .
O1 Cu1 O1 180.0 . 3_666
O1 Cu1 O2 86.1(3) . 3_666
O1 Cu1 O2 93.9(3) . .
O1 Cu1 O2 93.9(3) 3_666 3_666
O1 Cu1 O2 86.1(3) 3_666 .
O2 Cu1 O2 180.0 . 3_666
loop_
_geom_bond_atom_site_label_1
_geom_bond_atom_site_label_2
_geom_bond_distance
_geom_bond_site_symmetry_2
C1 H1A 0.9800 .
C1 H1B 0.9800 .
C1 H1C 0.9800 .
C1 C2 1.504(11) .
C2 C3 1.391(15) .
C2 O1 1.291(8) .
C3 H3 0.9500 .
C3 C4 1.416(12) .
C4 C5 1.494(15) .
C4 O2 1.275(8) .
C5 H5A 0.9800 .
C5 H5B 0.9800 .
C5 H5C 0.9800 .
O1 Cu1 1.919(6) .
O2 Cu1 1.931(7) .
Cu1 O1 1.919(6) 3_666
Cu1 O2 1.931(7) 3_666
loop_
_geom_torsion_atom_site_label_1
_geom_torsion_atom_site_label_2
_geom_torsion_atom_site_label_3
_geom_torsion_atom_site_label_4
_geom_torsion
_geom_torsion_site_symmetry_1
_geom_torsion_site_symmetry_2
_geom_torsion_site_symmetry_3
_geom_torsion_site_symmetry_4
C1 C2 C3 C4 179.8(7) . . . .
C1 C2 O1 Cu1 174.2(5) . . . .
C2 C3 C4 C5 -178.6(9) . . . .
C2 C3 C4 O2 1.4(15) . . . .
C3 C2 O1 Cu1 -4.7(13) . . . .
C3 C4 O2 Cu1 4.6(12) . . . .
C5 C4 O2 Cu1 -175.4(6) . . . .
O1 C2 C3 C4 -1.3(16) . . . .
