#------------------------------------------------------------------------------
#$Date: 2019-05-24 11:59:10 +0300 (Fri, 24 May 2019) $
#$Revision: 215478 $
#$URL: file:///home/coder/svn-repositories/cod/cif/1/55/11/1551120.cif $
#------------------------------------------------------------------------------
#
# This file is available in the Crystallography Open Database (COD),
# http://www.crystallography.net/
#
# All data on this site have been placed in the public domain by the
# contributors.
#
data_1551120
loop_
_publ_author_name
'Anna Worthy'
'Arnaud Grosjean'
'Michael C. Pfrunder'
'Yanan Xu'
'Cheng Yan'
'Grant Edwards'
'Jack K. Clegg'
'John C. McMurtrie'
_publ_section_title
;
 Atomic resolution of structural changes in elastic crystals of copper(II)
 acetylacetonate
;
_journal_name_full               'Nature Chemistry'
_journal_page_first              65
_journal_page_last               69
_journal_paper_doi               10.1038/nchem.2848
_journal_volume                  10
_journal_year                    2018
_chemical_formula_moiety         'C10 H14 Cu O4'
_chemical_formula_sum            'C10 H14 Cu O4'
_chemical_formula_weight         261.75
_space_group_crystal_system      monoclinic
_space_group_IT_number           14
_space_group_name_Hall           '-P 2yn'
_space_group_name_H-M_alt        'P 1 21/n 1'
_symmetry_space_group_name_Hall  '-P 2yn'
_symmetry_space_group_name_H-M   'P 1 21/n 1'
_atom_sites_solution_hydrogens   geom
_cell_angle_alpha                90
_cell_angle_beta                 92.77(3)
_cell_angle_gamma                90
_cell_formula_units_Z            2
_cell_length_a                   10.250(2)
_cell_length_b                   4.6830(9)
_cell_length_c                   11.213(2)
_cell_measurement_reflns_used    285
_cell_measurement_temperature    100(2)
_cell_measurement_theta_max      29.627
_cell_measurement_theta_min      9.669
_cell_volume                     537.60(18)
_computing_cell_refinement       'XDS (Kabsch, 1993)'
_computing_data_collection       'BluIce (McPhillips, 2002)'
_computing_data_reduction        'XDS (Kabsch, 1993)'
_computing_molecular_graphics    'Olex2 (Dolomanov et al., 2009)'
_computing_publication_material  'Olex2 (Dolomanov et al., 2009)'
_computing_structure_refinement  'ShelXL (Sheldrick, 2015)'
_computing_structure_solution    'Known Structure'
_diffrn_ambient_temperature      100(2)
_diffrn_measured_fraction_theta_full 0.184
_diffrn_measured_fraction_theta_max 0.187
_diffrn_measurement_device_type  'ADSC Quantum 315r'
_diffrn_measurement_method       'Phi Scan'
_diffrn_radiation_monochromator  'Silicon Double Crystal'
_diffrn_radiation_type           Synchrotron
_diffrn_radiation_wavelength     0.7108
_diffrn_reflns_av_unetI/netI     0.0229
_diffrn_reflns_Laue_measured_fraction_full 0.184
_diffrn_reflns_Laue_measured_fraction_max 0.187
_diffrn_reflns_number            285
_diffrn_reflns_point_group_measured_fraction_full 0.184
_diffrn_reflns_point_group_measured_fraction_max 0.187
_diffrn_reflns_theta_full        26.000
_diffrn_reflns_theta_max         29.627
_diffrn_reflns_theta_min         9.669
_diffrn_source                   Synchrotron
_exptl_absorpt_coefficient_mu    2.021
_exptl_absorpt_correction_type   multi-scan
_exptl_absorpt_process_details   'XDS (Kabsch, 1993)'
_exptl_crystal_colour            'dark blue'
_exptl_crystal_colour_lustre     .
_exptl_crystal_colour_modifier   dark
_exptl_crystal_colour_primary    blue
_exptl_crystal_density_diffrn    1.617
_exptl_crystal_description       needle
_exptl_crystal_F_000             270
_exptl_crystal_size_max          1
_exptl_crystal_size_mid          0.05
_exptl_crystal_size_min          0.05
_refine_diff_density_max         0.405
_refine_diff_density_min         -0.489
_refine_diff_density_rms         0.064
_refine_ls_extinction_coef       .
_refine_ls_extinction_method     none
_refine_ls_goodness_of_fit_ref   1.098
_refine_ls_hydrogen_treatment    constr
_refine_ls_matrix_type           full
_refine_ls_number_parameters     32
_refine_ls_number_reflns         285
_refine_ls_number_restraints     0
_refine_ls_restrained_S_all      1.098
_refine_ls_R_factor_all          0.0641
_refine_ls_R_factor_gt           0.0563
_refine_ls_shift/su_max          0.000
_refine_ls_shift/su_mean         0.000
_refine_ls_structure_factor_coef Fsqd
_refine_ls_weighting_details
'w=1/[\s^2^(Fo^2^)+(0.0400P)^2^+3.4868P] where P=(Fo^2^+2Fc^2^)/3'
_refine_ls_weighting_scheme      calc
_refine_ls_wR_factor_gt          0.1268
_refine_ls_wR_factor_ref         0.1338
_reflns_Friedel_coverage         0.000
_reflns_Friedel_fraction_full    .
_reflns_Friedel_fraction_max     .
_reflns_number_gt                244
_reflns_number_total             285
_reflns_threshold_expression     'I > 2\s(I)'
_cod_data_source_file            nchem.2848-s5-d.cif
_cod_data_source_block           d
_cod_depositor_comments
;
The following automatic conversions were performed:

'_exptl_absorpt_correction_type' value 'Multi-Scan' changed to
'multi-scan' according to the built-in table from CIF Core dictionary
named 'cif_core.dic' version 2.4.5 from 2014-11-21.

Automatic conversion script
Id: cif_fix_values 6524 2018-11-02 12:15:13Z antanas 
;
_cod_original_cell_volume        537.61(19)
_cod_database_code               1551120
_shelx_space_group_comment
;
The symmetry employed for this shelxl refinement is uniquely defined
by the following loop, which should always be used as a source of
symmetry information in preference to the above space-group names.
They are only intended as comments.
;
_shelx_estimated_absorpt_t_max   0.906
_shelx_estimated_absorpt_t_min   0.237
_olex2_refinement_description
;
1. Fixed Uiso
 At 1.2 times of:
  All C(H) groups
 At 1.5 times of:
  All C(H,H,H) groups
2.a Aromatic/amide H refined with riding coordinates:
 C3(H3)
2.b Idealised Me refined as rotating group:
 C1(H1A,H1B,H1C), C5(H5A,H5B,H5C)
;
_shelx_res_file
;
TITL 7 in P2(1)/n
CELL 0.71073 10.25 4.683 11.213 90 92.766 90
ZERR 2 0.00205 0.00094 0.00224 0 0.03 0
LATT 1
SYMM 0.5-X,0.5+Y,0.5-Z
SFAC C H Cu O
UNIT 20 28 2 8

L.S. 50
PLAN  25
SIZE 0.05 0.05 1
LIST 1
MORE -1
BOND $H
CONF
fmap 2
acta 52
REM <olex2.extras>
REM <HklSrc "%.\\d.hkl">
REM </olex2.extras>

WGHT    0.040000    3.486800
FVAR       0.92182
C1    1    0.182228   -0.062088    0.447019    11.00000    0.02085
AFIX 137
H1A   2    0.126092    0.067202    0.486817    11.00000   -1.50000
H1B   2    0.197322   -0.228829    0.495545    11.00000   -1.50000
H1C   2    0.141505   -0.116888    0.371577    11.00000   -1.50000
AFIX   0
C2    1    0.310295    0.082399    0.426841    11.00000    0.01456
C3    1    0.389916   -0.030069    0.339346    11.00000    0.02115
AFIX  43
H3    2    0.360606   -0.189981    0.296793    11.00000   -1.20000
AFIX   0
C4    1    0.510576    0.086364    0.313289    11.00000    0.01474
C5    1    0.585600   -0.051881    0.216522    11.00000    0.02170
AFIX 137
H5A   2    0.658536    0.066488    0.198499    11.00000   -1.50000
H5B   2    0.529446   -0.074698    0.146145    11.00000   -1.50000
H5C   2    0.616638   -0.235552    0.243241    11.00000   -1.50000
AFIX   0
O1    4    0.338955    0.296209    0.494165    11.00000    0.01826
O2    4    0.565286    0.301231    0.365831    11.00000    0.01799
CU1   3    0.500000    0.500000    0.500000    10.50000    0.01579
HKLF 4

REM  7 in P2(1)/n
REM R1 =  0.0563 for     244 Fo > 4sig(Fo)  and  0.0641 for all     285 data
REM     32 parameters refined using      0 restraints

END

WGHT      0.0400      3.4868

REM Highest difference peak  0.405,  deepest hole -0.489,  1-sigma level  0.064
Q1    1   0.5333  0.6973  0.5546  11.00000  0.05    0.40
Q2    1   0.4744  0.5473  0.4677  11.00000  0.05    0.33
Q3    1   0.5000  0.0000  0.5000  10.50000  0.05    0.30
Q4    1   0.4268  0.5216  0.4600  11.00000  0.05    0.28
Q5    1   0.5855  0.5118  0.4388  11.00000  0.05    0.24
Q6    1   0.4308 -0.3548  0.3954  11.00000  0.05    0.23
Q7    1   0.4938  0.2164  0.5123  11.00000  0.05    0.22
Q8    1   0.5013 -0.0060  0.3631  11.00000  0.05    0.21
Q9    1   0.3043  0.0298  0.3620  11.00000  0.05    0.18
Q10   1   0.4033  0.4154  0.3861  11.00000  0.05    0.18
Q11   1   0.6631  0.5559  0.3623  11.00000  0.05    0.18
Q12   1   0.3785 -0.0104  0.4228  11.00000  0.05    0.18
Q13   1   0.5563 -0.4444  0.3043  11.00000  0.05    0.18
Q14   1   0.4191  0.1748  0.3862  11.00000  0.05    0.17
Q15   1   0.2735 -0.0556  0.4772  11.00000  0.05    0.17
Q16   1   0.5743 -0.2286  0.1626  11.00000  0.05    0.17
Q17   1   0.4407  0.0814  0.3115  11.00000  0.05    0.17
Q18   1   0.6288  0.1165  0.4627  11.00000  0.05    0.17
Q19   1   0.3567 -0.2119  0.4469  11.00000  0.05    0.16
Q20   1   0.1424 -0.5615  0.4829  11.00000  0.05    0.16
Q21   1   0.6009  0.2469  0.3868  11.00000  0.05    0.16
Q22   1   0.3143  0.5857  0.4877  11.00000  0.05    0.16
Q23   1   0.3857 -0.5397  0.3383  11.00000  0.05    0.16
Q24   1   0.5399  0.6307  0.3734  11.00000  0.05    0.16
Q25   1   0.0829  0.1387  0.3378  11.00000  0.05    0.16
;
_shelx_res_checksum              93843
_shelx_hkl_file
;
  14  -1  -1  470.00    9.96
  13  -1  -1    2.47    2.25
  11  -1  -2  557.40   11.42
  10  -1  -2   13.79    1.02
   9  -1  -2 1109.00   22.49
  -7   1  13   -0.23    2.35
   7  -1  -2  965.70   19.53
  -6   1   8   60.76    1.51
   6  -1  -2  100.40    2.11
  -5   1   6 1088.00   22.04
   5  -1  -2 1263.00   25.42
  -4   1   4  141.40    2.92
   4   1  -2  685.20   13.80
  -4  -1   5  863.10   17.42
  -5  -1   7  425.30    8.67
  -6  -1  10   24.39    1.19
  -6  -1  11  324.20    6.96
  13   1  -2  216.80    5.54
  13  -2   0   25.94    2.15
  12  -2  -1    9.61    1.83
  11  -2  -1  270.00    5.76
  10  -2  -1   70.78    2.00
   9  -2  -1  872.50   17.66
   8  -2  -1   73.13    1.94
   7  -2  -1  577.70   11.69
  -6   2  10  145.60    3.32
  -6   2   9    1.67    1.21
  -6   2   8  184.10    4.10
   6  -2  -1    6.10    0.75
  -5   2   7  186.00    3.93
  -5   2   6   15.07    0.91
   5  -2  -1  910.60   18.32
  -4   2   5   12.24    0.83
  -4   2   4 1062.00   21.40
   4  -2  -1  299.10    6.08
  -3   2   3 3544.00   71.06
   3  -2   0   72.50    1.62
  -2   2   2 2575.00   51.63
  -1  -2   3 2235.00   44.84
   2   2  -1   38.13    0.98
  -2  -2   3   17.02    0.66
  -2  -2   4 1158.00   23.26
   3   2  -1 2578.00   51.73
  -3  -2   5  859.50   17.30
   4   2  -2 3056.00   61.30
  -4  -2   6  786.80   15.87
  -4  -2   7  153.50    3.30
   5   2  -2  138.10    2.91
  -5  -2   8    4.96    1.12
  -5  -2   9 1102.00   22.26
  -5  -2  10   54.93    1.94
  -5  -2  11  287.10    6.48
   6   2  -2  644.50   13.01
  -6  -2  12   67.66    2.85
  -6  -2  13   24.22    2.54
  10   2  -2  260.90    5.57
  11   2  -2   -2.38    1.46
  12   2  -2   73.12    2.36
  12  -3   0   -5.15    1.89
  12  -3   1  161.50    3.90
  11  -3   0  194.70    4.42
  11  -3   1   12.34    1.73
  10  -3   0  151.70    3.55
   9  -3   0  438.40    9.03
   8  -3   0   57.19    1.89
   7  -3   0  607.60   12.38
  -6   3  12   -1.22    2.08
  -6   3  11   66.59    2.39
  -6   3  10    3.86    1.66
   6  -3   0  110.20    2.58
  -5   3  10  169.50    4.00
  -5   3   9   49.22    1.79
  -5   3   8  495.20   10.12
  -5   3   7   10.26    1.35
   5  -3   0 1141.00   22.97
   5  -3   1  552.10   11.22
  -4   3   7  474.30    9.78
  -4   3   6   73.41    2.04
  -4   3   5  533.00   10.83
   4  -3   0    0.48    0.79
   4  -3   1  717.60   14.49
  -3   3   5   11.80    0.97
  -3   3   4 1422.00   28.59
   3  -3   1    1.99    0.81
  -2   3   3 1413.00   28.40
   2  -3   1  712.70   14.37
   2  -3   2   19.71    0.89
  -1   3   2  836.20   16.86
   1  -3   2 1222.00   24.56
   1  -3   3   34.10    1.10
   0   3   1  106.50    2.38
   0  -3   3  884.80   17.81
   0  -3   4   38.81    1.16
   1   3   1   60.12    1.46
   1   3   0  105.00    2.32
  -1  -3   4 1013.00   20.38
  -1  -3   5  248.60    5.15
   2   3   0   54.64    1.38
  -2  -3   5 1121.00   22.56
  -2  -3   6  559.10   11.35
   3   3   0 1156.00   23.29
   3   3  -1    3.81    0.79
  -3  -3   6  576.30   11.69
  -3  -3   8  595.60   12.23
  -3  -3   9    0.18    1.57
   4   3  -1 1600.00   32.15
  -4  -3   8  100.60    2.67
  -4  -3   9  435.40    8.97
  -4  -3  10  145.70    3.47
  -4  -3  11  454.60    9.42
  -4  -3  12   22.93    2.21
  -4  -3  13  103.20    3.20
   5   3  -1   77.43    1.86
   5   3  -2  672.30   13.66
  -5  -3  12   92.55    3.03
   6   3  -1  559.20   11.39
   6   3  -2   -0.34    0.95
   7   3  -2  351.70    7.29
   8   3  -2    9.99    1.42
   9   3  -2  459.60    9.49
  10   3  -2    5.65    1.74
  11   3  -1    3.56    1.89
  11   3  -2  118.60    3.51
  12   3  -1   37.08    2.41
  10  -4   1   49.16    2.08
  10  -4   2   43.80    2.07
  10  -4   3   11.43    1.81
   9  -4   1   89.34    2.48
   9  -4   2    0.26    1.66
   9  -4   3   82.79    2.44
   8  -4   1   24.37    1.58
   8  -4   3    4.20    1.51
   7  -4   1  378.70    7.83
   7  -4   2   -1.30    1.36
   7  -4   3  409.90    8.45
   6  -4   1   68.52    1.95
   6  -4   2  668.80   13.59
   6  -4   3    5.88    1.51
  -5   4  11   79.56    2.64
  -5   4  10   31.79    2.04
  -5   4   9  261.90    5.74
   5  -4   2   10.72    1.53
   5  -4   3  563.20   11.51
  -4   4  11    6.49    1.86
  -4   4  10   61.49    2.19
  -4   4   9    3.04    1.54
  -4   4   8  272.00    5.75
  -4   4   7   19.89    1.42
   4  -4   2  436.10    8.97
   4  -4   3    1.49    1.43
   4  -4   4  403.20    8.34
  -3   4   8   13.58    1.47
  -3   4   7  265.30    5.59
  -3   4   6    0.76    1.16
  -3   4   5  167.60    3.64
   3  -4   2    0.73    1.39
   3  -4   3  473.70    9.71
   3  -4   4    1.05    1.45
  -2   4   6  278.80    5.82
  -2   4   5   37.53    1.39
  -2   4   4  193.70    4.12
   2  -4   3  373.60    7.72
   2  -4   4  537.20   10.95
   2  -4   5   12.92    1.38
  -1   4   4  133.00    2.95
  -1   4   3  470.40    9.58
   1  -4   4   49.52    1.68
   1  -4   5  449.80    9.23
   1  -4   6   19.20    1.49
   0   4   3   51.86    1.51
   0   4   2  578.70   11.73
   0  -4   5   33.22    1.53
   0  -4   6  615.00   12.51
   0  -4   7    1.46    1.45
   0  -4   8  454.60    9.56
   1   4   2  298.50    6.18
   1   4   1  687.00   13.90
  -1  -4   6   37.82    1.57
  -1  -4   7  748.10   15.17
  -1  -4   8   12.33    1.47
  -1  -4   9  267.80    5.74
  -1  -4  10   16.14    1.91
   2   4   2  443.00    9.05
   2   4   1  129.10    2.88
  -2  -4   7   47.07    1.92
  -2  -4   8  385.20    8.04
  -2  -4   9   20.73    1.67
  -2  -4  10  106.60    2.84
  -2  -4  11   14.11    1.88
  -2  -4  12   98.29    3.03
   3   4   1  374.90    7.70
   3   4   0   37.48    1.37
  -3  -4  10   18.06    1.82
  -3  -4  11   31.78    2.18
   4   4   1  115.10    2.63
   4   4   0  171.60    3.71
   5   4   0   64.89    1.84
   5   4  -1  220.00    4.68
   6   4   0  179.50    3.94
   6   4  -1    8.65    1.31
   7   4   0    7.09    1.55
   7   4  -1  279.10    5.92
   8   4   0  228.50    4.99
   8   4  -1   73.96    2.30
   9   4   0    3.05    1.67
   9   4  -1  291.40    6.26
  10   4   0   93.76    2.87
  10   4  -1   12.27    2.04
  11   4   0    7.20    2.19
  11   4  -1  170.80    4.22
   8  -5   3   89.54    3.13
   8  -5   4   -1.63    2.47
   7  -5   4  170.20    4.06
   7  -5   5   -1.78    2.03
   6  -5   4   15.29    1.97
   6  -5   5  218.80    4.89
   6  -5   6   12.03    2.01
   6  -5   7   43.61    2.30
   5  -5   4  205.90    4.58
   5  -5   5   -0.93    1.71
   5  -5   6  146.10    3.52
   5  -5   7   10.20    1.91
   5  -5   8   37.63    2.34
   4  -5   4   -0.92    1.91
   4  -5   5  125.10    3.19
   4  -5   6   -1.15    1.71
   4  -5   7   62.90    2.34
   4  -5   8   25.87    2.09
  -3   5   9   -2.41    1.80
  -3   5   8   27.10    1.82
   3  -5   5   73.33    2.15
   3  -5   6  138.80    3.37
   3  -5   7    2.43    1.69
   3  -5   8   78.14    2.48
   3  -5   9    2.41    2.12
  -2   5   9   43.80    2.04
  -2   5   8    1.72    1.64
  -2   5   7  217.50    4.75
  -2   5   6   70.50    2.08
   2  -5   6    0.58    1.61
   2  -5   7  204.30    4.53
   2  -5   8   10.47    1.91
   2  -5   9  157.30    3.79
  -1   5   8  114.70    2.89
  -1   5   7    2.52    1.54
  -1   5   6  464.30    9.51
  -1   5   5   17.84    1.36
   1  -5   7   -0.72    1.65
   1  -5   8  234.30    5.13
   1  -5   9    4.75    1.90
   0   5   6    1.95    1.40
   0   5   5  311.30    6.50
   0   5   4   16.72    1.30
   0  -5   8   63.34    2.26
   0  -5   9  160.10    3.97
   1   5   5   -0.56    1.27
   1   5   4   67.83    1.97
   1   5   3   25.78    1.36
   2   5   4    0.64    1.30
   2   5   3   56.52    1.79
   2   5   2    8.43    1.25
   3   5   3   -1.16    1.28
   3   5   2  239.80    5.09
   4   5   3  122.20    2.90
   4   5   2   12.20    1.35
   4   5   1  445.10    9.13
   5   5   2  347.70    7.23
   5   5   1   59.72    1.89
   6   5   2    2.67    1.55
   6   5   1  395.70    8.18
   7   5   2   74.85    2.42
   7   5   1    5.02    1.70
   7   5   0  165.80    3.98
   8   5   2    5.18    1.86
   8   5   1   19.29    1.89
   8   5   0    1.94    1.71
   9   5   1   -1.92    2.30
   9   5   0   24.67    2.24
   0   6   6  174.20    4.25
   1   6   5  172.40    3.91
   2   6   5    1.47    1.68
   2   6   4  120.20    3.09
   3   6   4    0.81    1.68
   4   6   4   73.38    3.07
   4   6   3    1.31    1.64
   0   0   0    0.00    0.00
;
_shelx_hkl_checksum              99963
_olex2_submission_special_instructions 'No special instructions were received'
loop_
_space_group_symop_operation_xyz
'x, y, z'
'-x+1/2, y+1/2, -z+1/2'
'-x, -y, -z'
'x-1/2, -y-1/2, z-1/2'
loop_
_atom_site_label
_atom_site_type_symbol
_atom_site_fract_x
_atom_site_fract_y
_atom_site_fract_z
_atom_site_U_iso_or_equiv
_atom_site_adp_type
_atom_site_occupancy
_atom_site_site_symmetry_order
_atom_site_calc_flag
_atom_site_refinement_flags_posn
_atom_site_refinement_flags_adp
_atom_site_refinement_flags_occupancy
_atom_site_disorder_assembly
_atom_site_disorder_group
C1 C 0.1822(11) -0.0621(16) 0.4470(12) 0.0209(16) Uiso 1 1 d . . . . .
H1A H 0.1261 0.0672 0.4868 0.031 Uiso 1 1 calc GR . . . .
H1B H 0.1973 -0.2288 0.4955 0.031 Uiso 1 1 calc GR . . . .
H1C H 0.1415 -0.1169 0.3716 0.031 Uiso 1 1 calc GR . . . .
C2 C 0.3103(9) 0.0824(14) 0.4268(10) 0.0146(14) Uiso 1 1 d . . . . .
C3 C 0.3899(12) -0.0301(15) 0.3393(12) 0.0212(16) Uiso 1 1 d . . . . .
H3 H 0.3606 -0.1900 0.2968 0.025 Uiso 1 1 calc R . . . .
C4 C 0.5106(10) 0.0864(14) 0.3133(10) 0.0147(15) Uiso 1 1 d . . . . .
C5 C 0.5856(12) -0.0519(16) 0.2165(12) 0.0217(17) Uiso 1 1 d . . . . .
H5A H 0.6585 0.0665 0.1985 0.033 Uiso 1 1 calc GR . . . .
H5B H 0.5294 -0.0747 0.1461 0.033 Uiso 1 1 calc GR . . . .
H5C H 0.6166 -0.2356 0.2432 0.033 Uiso 1 1 calc GR . . . .
O1 O 0.3390(8) 0.2962(11) 0.4942(8) 0.0183(12) Uiso 1 1 d . . . . .
O2 O 0.5653(8) 0.3012(11) 0.3658(8) 0.0180(12) Uiso 1 1 d . . . . .
Cu1 Cu 0.5000 0.5000 0.5000 0.0158(5) Uiso 1 2 d S T P . .
loop_
_atom_type_symbol
_atom_type_description
_atom_type_scat_dispersion_real
_atom_type_scat_dispersion_imag
_atom_type_scat_source
C C 0.0033 0.0016 'International Tables Vol C Tables 4.2.6.8 and 6.1.1.4'
H H 0.0000 0.0000 'International Tables Vol C Tables 4.2.6.8 and 6.1.1.4'
Cu Cu 0.3201 1.2651 'International Tables Vol C Tables 4.2.6.8 and 6.1.1.4'
O O 0.0106 0.0060 'International Tables Vol C Tables 4.2.6.8 and 6.1.1.4'
loop_
_geom_angle_atom_site_label_1
_geom_angle_atom_site_label_2
_geom_angle_atom_site_label_3
_geom_angle
_geom_angle_site_symmetry_1
_geom_angle_site_symmetry_3
H1A C1 H1B 109.5 . .
H1A C1 H1C 109.5 . .
H1B C1 H1C 109.5 . .
C2 C1 H1A 109.5 . .
C2 C1 H1B 109.5 . .
C2 C1 H1C 109.5 . .
C3 C2 C1 118.4(9) . .
O1 C2 C1 116.1(8) . .
O1 C2 C3 125.4(9) . .
C2 C3 H3 118.4 . .
C4 C3 C2 123.3(9) . .
C4 C3 H3 118.4 . .
C3 C4 C5 118.1(9) . .
O2 C4 C3 125.7(9) . .
O2 C4 C5 116.2(8) . .
C4 C5 H5A 109.5 . .
C4 C5 H5B 109.5 . .
C4 C5 H5C 109.5 . .
H5A C5 H5B 109.5 . .
H5A C5 H5C 109.5 . .
H5B C5 H5C 109.5 . .
C2 O1 Cu1 125.9(6) . .
C4 O2 Cu1 125.5(6) . .
O1 Cu1 O1 180.0 . 3_666
O1 Cu1 O2 86.3(3) . 3_666
O1 Cu1 O2 93.7(3) . .
O1 Cu1 O2 93.7(3) 3_666 3_666
O1 Cu1 O2 86.3(3) 3_666 .
O2 Cu1 O2 180.0 . 3_666
loop_
_geom_bond_atom_site_label_1
_geom_bond_atom_site_label_2
_geom_bond_distance
_geom_bond_site_symmetry_2
C1 H1A 0.9600 .
C1 H1B 0.9600 .
C1 H1C 0.9600 .
C1 C2 1.504(13) .
C2 C3 1.408(13) .
C2 O1 1.280(10) .
C3 H3 0.9300 .
C3 C4 1.395(14) .
C4 C5 1.506(14) .
C4 O2 1.281(10) .
C5 H5A 0.9600 .
C5 H5B 0.9600 .
C5 H5C 0.9600 .
O1 Cu1 1.905(7) .
O2 Cu1 1.917(7) .
Cu1 O1 1.905(7) 3_666
Cu1 O2 1.917(7) 3_666
loop_
_geom_torsion_atom_site_label_1
_geom_torsion_atom_site_label_2
_geom_torsion_atom_site_label_3
_geom_torsion_atom_site_label_4
_geom_torsion
_geom_torsion_site_symmetry_1
_geom_torsion_site_symmetry_2
_geom_torsion_site_symmetry_3
_geom_torsion_site_symmetry_4
C1 C2 C3 C4 -179.9(11) . . . .
C1 C2 O1 Cu1 174.0(8) . . . .
C2 C3 C4 C5 -179.2(11) . . . .
C2 C3 C4 O2 1.7(18) . . . .
C3 C2 O1 Cu1 -4.2(13) . . . .
C3 C4 O2 Cu1 4.3(14) . . . .
C5 C4 O2 Cu1 -174.8(8) . . . .
O1 C2 C3 C4 -1.8(18) . . . .
