#------------------------------------------------------------------------------
#$Date: 2019-06-20 12:55:58 +0300 (Thu, 20 Jun 2019) $
#$Revision: 216208 $
#$URL: file:///home/coder/svn-repositories/cod/cif/1/55/15/1551598.cif $
#------------------------------------------------------------------------------
#
# This file is available in the Crystallography Open Database (COD),
# http://www.crystallography.net/
#
# All data on this site have been placed in the public domain by the
# contributors.
#
data_1551598
loop_
_publ_author_name
'MITSUHASHI, Ryoji'
'UEDA, Takaaki'
'HOSOYA, Satoshi'
'MIKURIYA, Masahiro'
_publ_section_title
;
 Synthesis and Crystal Structure of
 (&lt;i&gt;R&lt;/i&gt;)-2-(4-Methylimidazolin-2-yl)phenol
;
_journal_issue                   0
_journal_name_full               'X-ray Structure Analysis Online'
_journal_page_first              59
_journal_paper_doi               10.2116/xraystruct.32.59
_journal_volume                  32
_journal_year                    2016
_chemical_absolute_configuration syn
_chemical_formula_moiety         'C10 H12 N2 O'
_chemical_formula_sum            'C10 H12 N2 O'
_chemical_formula_weight         176.22
_space_group_crystal_system      monoclinic
_space_group_IT_number           4
_space_group_name_Hall           'P 2yb'
_space_group_name_H-M_alt        'P 1 21 1'
_symmetry_space_group_name_Hall  'P 2yb'
_symmetry_space_group_name_H-M   'P 1 21 1'
_atom_sites_solution_hydrogens   mixed
_audit_creation_method           SHELXL-2014/7
_cell_angle_alpha                90
_cell_angle_beta                 112.462(5)
_cell_angle_gamma                90
_cell_formula_units_Z            2
_cell_length_a                   6.345(2)
_cell_length_b                   9.631(4)
_cell_length_c                   7.805(3)
_cell_measurement_reflns_used    879
_cell_measurement_temperature    90(2)
_cell_measurement_theta_max      27.66
_cell_measurement_theta_min      2.82
_cell_volume                     440.8(3)
_computing_cell_refinement       'Bruker SAINT'
_computing_data_collection       'Bruker APEX'
_computing_data_reduction        'Bruker SAINT'
_computing_molecular_graphics
'Yadokari-XG 2009 (Wakita,Nemoto et al., 2009)'
_computing_publication_material  'SHELXL-2014/7 (Sheldrick, 2014)'
_computing_structure_refinement  'SHELXL-2014/7 (Sheldrick, 2014)'
_computing_structure_solution    'SHELXT 2014/5 (Sheldrick, 2014)'
_diffrn_ambient_temperature      90(2)
_diffrn_measured_fraction_theta_full 0.994
_diffrn_measured_fraction_theta_max 0.992
_diffrn_measurement_device_type  'CCD area detector'
_diffrn_measurement_method       '\f and \w scans'
_diffrn_radiation_type           MoK\a
_diffrn_radiation_wavelength     0.71073
_diffrn_reflns_av_R_equivalents  0.0240
_diffrn_reflns_av_unetI/netI     0.0370
_diffrn_reflns_Laue_measured_fraction_full 0.994
_diffrn_reflns_Laue_measured_fraction_max 0.992
_diffrn_reflns_limit_h_max       8
_diffrn_reflns_limit_h_min       -8
_diffrn_reflns_limit_k_max       12
_diffrn_reflns_limit_k_min       -8
_diffrn_reflns_limit_l_max       10
_diffrn_reflns_limit_l_min       -9
_diffrn_reflns_number            2713
_diffrn_reflns_point_group_measured_fraction_full 0.728
_diffrn_reflns_point_group_measured_fraction_max 0.709
_diffrn_reflns_theta_full        25.242
_diffrn_reflns_theta_max         27.498
_diffrn_reflns_theta_min         2.824
_diffrn_source                   'fine-focus sealed tube'
_exptl_absorpt_coefficient_mu    0.088
_exptl_absorpt_correction_T_max  0.974
_exptl_absorpt_correction_T_min  0.957
_exptl_absorpt_correction_type   multi-scan
_exptl_absorpt_process_details   SADABS
_exptl_crystal_colour            colorless
_exptl_crystal_density_diffrn    1.328
_exptl_crystal_description       platelet
_exptl_crystal_F_000             188
_exptl_crystal_size_max          0.500
_exptl_crystal_size_mid          0.300
_exptl_crystal_size_min          0.300
_refine_diff_density_max         0.252
_refine_diff_density_min         -0.157
_refine_diff_density_rms         0.041
_refine_ls_abs_structure_details
;
 Flack x determined using 295 quotients [(I+)-(I-)]/[(I+)+(I-)]
 (Parsons, Flack and Wagner, Acta Cryst. B69 (2013) 249-259).
;
_refine_ls_abs_structure_Flack   -1.2(10)
_refine_ls_extinction_method     none
_refine_ls_goodness_of_fit_ref   1.020
_refine_ls_hydrogen_treatment    mixed
_refine_ls_matrix_type           full
_refine_ls_number_parameters     127
_refine_ls_number_reflns         1436
_refine_ls_number_restraints     1
_refine_ls_restrained_S_all      1.019
_refine_ls_R_factor_all          0.0438
_refine_ls_R_factor_gt           0.0346
_refine_ls_shift/su_max          0.000
_refine_ls_shift/su_mean         0.000
_refine_ls_structure_factor_coef Fsqd
_refine_ls_weighting_details
'w=1/[\s^2^(Fo^2^)+(0.0439P)^2^+0.0243P] where P=(Fo^2^+2Fc^2^)/3'
_refine_ls_weighting_scheme      calc
_refine_ls_wR_factor_gt          0.0746
_refine_ls_wR_factor_ref         0.0787
_reflns_Friedel_coverage         0.348
_reflns_Friedel_fraction_full    0.425
_reflns_Friedel_fraction_max     0.391
_reflns_number_gt                1266
_reflns_number_total             1436
_reflns_threshold_expression     'I > 2\s(I)'
_cod_data_source_file            32_59_1.txt
_cod_data_source_block           himp1m_0m
_cod_database_code               1551598
_shelx_shelxl_version_number     2014/7
_shelx_space_group_comment
;
The symmetry employed for this shelxl refinement is uniquely defined
by the following loop, which should always be used as a source of
symmetry information in preference to the above space-group names.
They are only intended as comments.
;
_shelx_estimated_absorpt_t_min   0.957
_shelx_estimated_absorpt_t_max   0.974
_shelx_res_file
;

    himp1m_0m.res created by SHELXL-2014/7

TITL himp1m_0m_a.res in P2(1)
REM  Yadorkari-X generated
CELL 0.71073 6.3445 9.6314 7.8054 90.0000 112.4620 90.0000
ZERR 2.0 0.0022 0.0035 0.0028 0.0000 0.0050 0.0000
LATT -1
SYMM -X, 1/2+Y, -Z
REM  SPGR P21 monoclinic
SFAC C H N O
UNIT 20 24 4 2
SIZE 0.30 0.30 0.50
TEMP -183.0
L.S. 10
FMAP 2
PLAN -5
ACTA
CONF
HTAB
LIST 4
BOND $H
MERG 2
OMIT -10.000000 55.000000
EQIV $1 -X, 1/2+Y, -Z
EQIV $2 1+X, +Y, +Z

HTAB C9 O1_$1
HTAB N2 O1
HTAB N1 O1_$2

WGHT    0.043900    0.024300
FVAR       0.36712
O1    4    0.029572    0.475470    0.181995    11.00000    0.01671    0.01787 =
         0.03378    0.00155    0.01187    0.00261
C1    1    0.195623    0.386901    0.236323    11.00000    0.01860    0.01717 =
         0.01665   -0.00148    0.00970    0.00123
C2    1    0.159138    0.244905    0.270217    11.00000    0.01969    0.01954 =
         0.01975   -0.00154    0.01087   -0.00322
AFIX  43
H2    2    0.008372    0.214337    0.247168    11.00000   -1.20000
AFIX   0
C3    1    0.334662    0.151466    0.334891    11.00000    0.03025    0.01380 =
         0.01855   -0.00070    0.01349    0.00012
AFIX  43
H3    2    0.302664    0.058123    0.356090    11.00000   -1.20000
AFIX   0
C4    1    0.560704    0.190377    0.370584    11.00000    0.02259    0.01761 =
         0.01671    0.00179    0.00603    0.00586
AFIX  43
H4    2    0.681904    0.125555    0.419491    11.00000   -1.20000
AFIX   0
C5    1    0.602075    0.324572    0.332970    11.00000    0.01644    0.01936 =
         0.01384   -0.00116    0.00449    0.00118
AFIX  43
H5    2    0.754014    0.351801    0.354494    11.00000   -1.20000
AFIX   0
C6    1    0.426511    0.422458    0.263744    11.00000    0.01722    0.01471 =
         0.01304   -0.00196    0.00590   -0.00043
C7    1    0.475287    0.561636    0.218418    11.00000    0.01687    0.01659 =
         0.01329   -0.00203    0.00634    0.00233
N1    3    0.680114    0.609839    0.236357    11.00000    0.01531    0.01437 =
         0.01991    0.00129    0.00794    0.00204
C8    1    0.653845    0.749100    0.149635    11.00000    0.01897    0.01396 =
         0.01665    0.00194    0.00626    0.00192
AFIX  13
H8    2    0.645784    0.739649    0.019691    11.00000   -1.20000
AFIX   0
C9    1    0.418313    0.792718    0.146330    11.00000    0.02002    0.01546 =
         0.02478    0.00197    0.00893    0.00225
AFIX  23
H9    2    0.432890    0.850775    0.254949    11.00000   -1.20000
H9A   2    0.328735    0.843600    0.031233    11.00000   -1.20000
AFIX   0
N2    3    0.316519    0.657871    0.153675    11.00000    0.01613    0.01519 =
         0.02358    0.00142    0.00868    0.00080
H2N   2    0.183274    0.635264    0.149643    11.00000    0.03051
C10   1    0.844695    0.847842    0.256059    11.00000    0.02064    0.01764 =
         0.02498   -0.00053    0.00782   -0.00205
AFIX 137
H10   2    0.844432    0.863090    0.380113    11.00000   -1.50000
H10A  2    0.821968    0.936604    0.190043    11.00000   -1.50000
H10B  2    0.991225    0.807748    0.266910    11.00000   -1.50000
AFIX   0
H1N   2    0.783798    0.557125    0.233975    11.00000    0.01783

HKLF 4

REM  himp1m_0m_a.res in P2(1)
REM R1 =  0.0346 for    1266 Fo > 4sig(Fo)  and  0.0438 for all    1436 data
REM    127 parameters refined using      1 restraints

END

WGHT      0.0439      0.0243

REM Instructions for potential hydrogen bonds
HTAB C9 O1_$1
HTAB N2 O1
HTAB N1 O1_$2

REM Highest difference peak  0.252,  deepest hole -0.157,  1-sigma level  0.041
Q1    1   0.4511  0.4969  0.2591  11.00000  0.05    0.25
Q2    1   0.6846  0.6763  0.1759  11.00000  0.05    0.23
Q3    1   0.5063  0.3944  0.3546  11.00000  0.05    0.22
Q4    1   0.5392  0.7596  0.1514  11.00000  0.05    0.20
Q5    1   0.5018  0.3635  0.2303  11.00000  0.05    0.19
;
_shelx_res_checksum              77524
_shelx_hkl_file
;
  -1   0   0  195.02    3.14
  -2   0   0    0.02    0.06
   3   0   0   16.46    0.40
  -3   0   0   16.44    0.39
  -4   0   0    8.44    0.30
   4   0   0    8.02    0.35
  -5   0   0    4.22    0.26
   5   0   0    4.67    0.31
   6   0   0   12.28    0.56
  -6   0   0   12.39    0.45
   0   1   0    0.12    0.02
   0   1   0    0.09    0.02
   1  -1   0   72.51    1.18
  -1   1   0   70.45    1.19
   1   1   0   73.52    1.21
  -1   1   0   72.23    1.21
  -2  -1   0   96.98    1.61
   2  -1   0   97.09    1.61
  -2   1   0   96.77    1.64
   2   1   0   97.04    1.63
   3  -1   0   21.37    0.48
  -3  -1   0   21.92    0.46
   3   1   0   22.06    0.48
  -3   1   0   22.20    0.49
  -4  -1   0   11.76    0.33
   4  -1   0   10.66    0.39
   4   1   0   11.39    0.36
  -4   1   0   11.30    0.37
  -5  -1   0   27.69    0.64
   5  -1   0   28.11    0.70
   5   1   0   27.61    0.68
  -5   1   0   27.81    0.67
   5   1   0   28.48    0.72
   6  -1   0    0.55    0.27
   6   1   0    0.48    0.26
  -6   1   0    0.79    0.18
  -7   1   0    8.82    0.49
   7   1   0    8.75    0.52
   0   2   0   86.06    1.38
   0   2   0   83.15    1.41
  -1   2   0  103.74    1.74
   1   2   0  105.68    1.75
  -1   2   0  104.24    1.73
   2  -2   0   38.59    0.69
   2   2   0   38.32    0.73
  -2   2   0   38.25    0.73
  -2   2   0   38.81    0.70
  -3  -2   0   45.34    0.81
   3  -2   0   45.16    0.84
  -3   2   0   44.83    0.88
   3   2   0   45.01    0.88
  -4  -2   0   30.20    0.62
   4  -2   0   30.52    0.66
  -4   2   0   29.80    0.69
   4   2   0   31.07    0.69
   5  -2   0   31.29    0.76
   5   2   0   33.05    0.77
  -5   2   0   34.86    0.77
   6   2   0    7.45    0.43
  -6   2   0    7.28    0.40
  -7   2   0    1.41    0.27
   7   2   0    1.27    0.36
   0   3   0   -0.09    0.05
   0   3   0    0.07    0.08
   1   3   0   16.46    0.39
  -1   3   0   16.12    0.36
  -1   3   0   16.31    0.37
   2  -3   0   36.31    0.68
  -2   3   0   36.21    0.69
   2   3   0   38.15    0.74
  -2   3   0   36.35    0.72
   3  -3   0   19.17    0.45
  -3   3   0   18.92    0.48
   3   3   0   18.85    0.50
  -3   3   0   19.08    0.43
   4  -3   0    5.89    0.33
   4   3   0    5.03    0.33
  -4   3   0    5.18    0.29
   5   3   0    6.66    0.40
  -5   3   0    6.19    0.35
  -6   3   0    2.98    0.28
   6   3   0    3.41    0.34
   7   3   0    0.15    0.35
  -7   3   0    0.30    0.22
   0   4   0   22.27    0.43
   0   4   0   21.91    0.49
   1   4   0   23.40    0.53
  -1   4   0   24.13    0.49
  -1   4   0   23.10    0.51
  -2   4   0   47.72    0.90
   2   4   0   46.73    0.93
  -2   4   0   45.34    0.87
   3  -4   0    9.10    0.33
  -3   4   0    8.80    0.29
   3   4   0    9.63    0.37
  -3   4   0    7.90    0.33
   4   4   0    1.85    0.24
  -4   4   0    1.74    0.21
   5   4   0    2.97    0.30
  -5   4   0    2.38    0.25
  -6   4   0    1.24    0.24
  -7   4   0    0.02    0.25
   7   4   0    0.21    0.35
   0   5   0    0.01    0.07
   0   5   0    0.05    0.11
   1   5   0   15.55    0.44
  -1   5   0   14.87    0.41
  -1   5   0   15.41    0.38
  -2   5   0    8.57    0.31
  -2   5   0    8.77    0.31
   2   5   0    8.65    0.36
  -3   5   0    4.62    0.30
   3   5   0    4.53    0.30
  -3   5   0    4.48    0.24
  -4   5   0   22.51    0.64
   4   5   0   23.37    0.67
   5   5   0    0.14    0.22
  -5   5   0   -0.22    0.15
  -6   5   0    1.90    0.29
   6   5   0    1.60    0.32
   7   5   0    2.53    0.42
  -7   5   0    2.62    0.44
   0   6   0    6.95    0.24
   0   6   0    7.12    0.33
  -1   6   0    2.06    0.17
   1   6   0    2.13    0.22
  -1   6   0    1.94    0.20
  -2   6   0    0.81    0.16
  -2   6   0    0.77    0.16
   2   6   0    0.89    0.20
   3   6   0   43.73    0.99
  -3   6   0   43.68    0.95
  -3   6   0   43.10    0.90
   4   6   0    0.56    0.22
  -4   6   0    0.89    0.20
   5   6   0    0.26    0.25
  -5   6   0    0.06    0.20
  -6   6   0    0.33    0.21
   6   6   0    0.18    0.29
   0   7   0    0.06    0.17
   0   7   0   -0.02    0.10
  -1   7   0   35.03    0.82
   1   7   0   36.14    0.86
  -1   7   0   35.73    0.75
   2   7   0   25.91    0.73
  -2   7   0   24.05    0.66
  -2   7   0   26.65    0.65
  -3   7   0    1.67    0.22
  -3   7   0    1.78    0.24
   3   7   0    2.15    0.29
  -4   7   0    3.87    0.33
   4   7   0    3.51    0.35
  -5   7   0    3.31    0.34
   5   7   0    4.04    0.39
   6   7   0    1.13    0.36
  -6   7   0    1.51    0.29
   0   8   0    0.38    0.21
   1   8   0   29.95    0.79
  -1   8   0   29.06    0.76
  -1   8   0   26.47    0.65
  -2   8   0   20.52    0.63
  -2   8   0   21.66    0.60
   2   8   0   19.86    0.68
  -3   8   0    3.09    0.30
   3   8   0    2.49    0.32
  -4   8   0    1.03    0.26
   4   8   0    0.56    0.28
   5   8   0    1.04    0.33
  -5   8   0    0.88    0.30
   6   8   0   11.90    0.73
   0   9   0   -0.12    0.19
  -1   9   0    9.16    0.39
   1   9   0    8.81    0.50
  -1   9   0    9.07    0.48
  -2   9   0    1.55    0.26
   2   9   0    1.43    0.29
  -2   9   0    1.60    0.23
  -3   9   0    5.98    0.40
   3   9   0    6.01    0.48
   4   9   0    0.71    0.32
  -4   9   0    0.40    0.27
  -5   9   0    1.33    0.34
   5   9   0    0.42    0.35
   0  10   0    5.41    0.41
  -1  10   0    1.71    0.29
   1  10   0    1.31    0.29
  -2  10   0    3.21    0.31
   2  10   0    3.96    0.41
  -2  10   0    3.40    0.35
   3  10   0    0.32    0.30
  -3  10   0    0.55    0.26
   4  10   0    5.77    0.52
  -4  10   0    5.79    0.47
   0  11   0   -0.25    0.23
  -1  11   0    0.19    0.25
   1  11   0    0.04    0.27
   2  11   0    0.63    0.32
  -2  11   0    1.01    0.31
  -3  11   0    4.05    0.42
   3  11   0    4.22    0.50
  -4  11   0    5.07    0.46
   0  12   0    6.07    0.52
   1  12   0    0.88    0.34
  -1  12   0    1.16    0.34
   2  12   0   -0.16    0.36
   7   0  -1    3.30    0.39
   6   0  -1    2.56    0.31
  -6   0   1    2.71    0.23
   5   0  -1    5.76    0.33
  -5   0   1    6.05    0.29
   4   0  -1    1.09    0.12
   4   0  -1    0.94    0.17
  -4   0   1    1.25    0.14
   3   0  -1   29.11    0.60
   3   0  -1   27.70    0.54
  -3   0   1   29.61    0.57
  -2   0   1    1.85    0.11
   2   0  -1    1.80    0.09
   2   0  -1    2.13    0.13
  -1   0   1   29.91    0.52
   1   0  -1   29.61    0.49
   0   0   1   13.34    0.26
  -1   0  -1    3.44    0.15
  -2   0  -1    2.10    0.13
  -3   0  -1    0.91    0.13
  -4   0  -1    3.42    0.22
  -5   0  -1    8.69    0.37
   5   0   1    8.88    0.43
  -6   0  -1    0.40    0.18
   8   1  -1    0.95    0.43
   7  -1  -1    0.96    0.34
  -7   1   1    1.24    0.24
   7   1  -1    0.91    0.33
   6  -1  -1    5.50    0.36
   6   1  -1    5.50    0.38
  -6   1   1    5.19    0.33
  -5  -1   1    8.15    0.30
   5  -1  -1    8.01    0.44
   5   1  -1    8.32    0.43
  -5   1   1    8.16    0.34
   4  -1  -1    3.31    0.23
  -4  -1   1    3.19    0.19
   4   1  -1    2.83    0.18
  -4   1   1    2.96    0.19
   4   1  -1    3.24    0.23
   3  -1  -1   32.89    0.66
  -3  -1   1   33.11    0.62
  -3   1   1   33.53    0.66
   3   1  -1   32.95    0.63
   3   1  -1   33.16    0.67
   2  -1  -1   25.44    0.49
  -2  -1   1   24.08    0.44
   2   1  -1   24.42    0.49
  -2   1   1   23.74    0.48
   2   1  -1   24.20    0.47
   1  -1  -1   31.13    0.57
   1   1  -1   31.97    0.55
  -1   1   1   30.62    0.52
  -1   1   1   31.34    0.56
   1   1  -1   31.16    0.55
   0   1   1  242.05    3.79
   0   1  -1  231.60    3.78
   0   1  -1  230.94    3.79
  -1   1  -1    2.16    0.14
   1   1   1    2.31    0.13
  -1   1  -1    2.17    0.14
  -2  -1  -1   10.06    0.26
  -2   1  -1    9.82    0.28
  -3  -1  -1    8.94    0.28
  -3   1  -1    8.39    0.30
   4  -1   1   12.84    0.41
  -4  -1  -1   12.98    0.39
  -4   1  -1   12.87    0.41
   5  -1   1   10.40    0.46
  -5  -1  -1   10.08    0.39
  -5   1  -1   10.63    0.41
  -6   1  -1    1.96    0.24
   6   1   1    2.16    0.31
  -7   1  -1    0.01    0.24
   8   2  -1   -0.08    0.38
   7   2  -1    1.80    0.36
  -7   2   1    1.50    0.24
   6  -2  -1    0.87    0.28
   6   2  -1    0.80    0.26
  -6   2   1    1.05    0.20
   5  -2  -1   20.41    0.60
  -5   2   1   21.03    0.57
   5   2  -1   21.05    0.56
   5   2  -1   20.59    0.62
  -4  -2   1    4.28    0.19
   4  -2  -1    3.80    0.25
   4   2  -1    4.62    0.26
  -4   2   1    4.36    0.25
   3  -2  -1    8.41    0.30
   3   2  -1    8.54    0.28
  -3   2   1    8.46    0.28
   2  -2  -1    0.00    0.11
   2   2  -1    0.05    0.08
  -2   2   1    0.04    0.05
  -2   2   1    0.11    0.07
  -1   2   1   10.72    0.26
  -1   2   1   10.17    0.23
   1   2  -1   11.31    0.27
   0   2  -1    1.03    0.10
   0   2   1    0.96    0.11
   0   2  -1    1.14    0.08
   0   2   1    0.95    0.09
   1   2   1    5.03    0.20
  -1   2  -1    5.10    0.19
  -1   2  -1    5.38    0.19
   1   2   1    4.91    0.21
   2   2   1   31.98    0.62
  -2   2  -1   31.88    0.65
  -2   2  -1   33.02    0.65
   3  -2   1   21.57    0.47
  -3   2  -1   21.86    0.52
  -4  -2  -1    3.98    0.24
   4  -2   1    4.34    0.24
  -4   2  -1    3.49    0.25
   4   2   1    3.03    0.25
  -5   2  -1    5.55    0.34
   5   2   1    5.26    0.34
   6   2   1    2.60    0.32
  -6   2  -1    1.93    0.25
  -7   2  -1    0.15    0.23
   7   2   1    0.15    0.40
   7   3  -1    0.94    0.35
  -7   3   1    1.15    0.24
   6   3  -1    5.54    0.40
  -6   3   1    5.12    0.35
   5  -3  -1    5.95    0.35
   5   3  -1    5.29    0.35
   5   3  -1    5.45    0.35
  -5   3   1    5.38    0.33
   4  -3  -1    6.76    0.37
   4   3  -1    7.18    0.34
  -4   3   1    6.68    0.31
   3  -3  -1   27.27    0.60
  -3   3   1   27.32    0.60
  -3   3   1   27.64    0.52
   3   3  -1   28.18    0.61
   2  -3  -1   41.82    0.79
  -2   3   1   40.47    0.78
   2   3  -1   42.78    0.80
  -2   3   1   41.08    0.74
  -1   3   1   19.76    0.42
   1   3  -1   20.91    0.45
  -1   3   1   19.79    0.42
   0   3   1   37.60    0.72
   0   3   1   38.20    0.69
   0   3  -1   38.09    0.68
   0   3  -1   37.92    0.73
   1   3   1    4.77    0.22
  -1   3  -1    4.97    0.20
  -1   3  -1    5.03    0.21
   1   3   1    4.98    0.21
  -2   3  -1   72.28    1.32
  -2   3  -1   72.83    1.31
   2   3   1   74.28    1.34
   3  -3   1    5.41    0.25
   3   3   1    5.72    0.31
  -3   3  -1    5.70    0.25
  -3   3  -1    4.33    0.25
   3   3   1    5.74    0.29
   4   3   1    0.42    0.18
  -4   3  -1    0.48    0.15
   4   3   1    0.75    0.22
   5   3   1   15.84    0.57
  -5   3  -1   16.22    0.53
  -6   3  -1    1.97    0.26
  -7   3  -1    1.91    0.33
   7   3   1    2.06    0.41
  -7   4   1    0.12    0.22
   7   4  -1    0.09    0.34
  -6   4   1    4.39    0.34
   6   4  -1    4.84    0.38
   5  -4  -1    4.77    0.42
   5   4  -1    5.69    0.36
  -5   4   1    5.67    0.36
   4  -4  -1    6.05    0.33
  -4   4   1    5.54    0.31
   4   4  -1    5.91    0.35
   3  -4  -1   15.40    0.45
  -3   4   1   15.18    0.44
   3   4  -1   15.99    0.46
  -3   4   1   15.29    0.36
  -2   4   1   36.01    0.72
   2   4  -1   37.93    0.76
  -2   4   1   34.94    0.69
   1   4  -1   88.45    1.55
  -1   4   1   86.55    1.49
  -1   4   1   86.35    1.51
   0   4  -1   11.33    0.27
   0   4   1   11.00    0.27
   0   4  -1   11.27    0.32
   0   4   1   11.11    0.32
  -1   4  -1    9.82    0.31
  -1   4  -1    9.74    0.29
   1   4   1    9.14    0.32
  -2   4  -1    6.93    0.28
  -2   4  -1    7.25    0.28
   2   4   1    6.82    0.30
  -3   4  -1    2.53    0.21
  -3   4  -1    3.31    0.22
   3   4   1    2.90    0.25
  -4   4  -1    3.71    0.27
   4   4   1    4.23    0.32
  -5   4  -1    2.80    0.28
   5   4   1    3.60    0.34
  -6   4  -1    0.80    0.24
   6   4   1    0.85    0.32
   7   4   1    1.10    0.38
   7   5  -1    3.86    0.45
  -7   5   1    4.13    0.41
  -6   5   1    0.14    0.20
   5   5  -1    2.07    0.28
  -5   5   1    2.38    0.26
   4   5  -1   10.92    0.47
  -4   5   1    9.97    0.42
  -3   5   1    9.01    0.36
   3   5  -1    8.53    0.40
  -3   5   1    9.24    0.30
   2   5  -1    0.39    0.16
  -2   5   1    0.29    0.11
  -2   5   1    0.50    0.12
  -1   5   1   37.99    0.75
   1   5  -1   39.68    0.83
  -1   5   1   38.63    0.78
   0   5  -1   42.42    0.86
   0   5  -1   43.31    0.78
   0   5   1   40.99    0.78
   0   5   1   43.57    0.86
   1   5   1   88.69    1.64
  -1   5  -1   90.74    1.58
  -1   5  -1   90.07    1.63
  -2   5  -1    5.22    0.27
  -2   5  -1    4.61    0.27
   2   5   1    5.18    0.32
  -3   5  -1    2.77    0.22
  -3   5  -1    2.47    0.23
   3   5   1    2.42    0.26
  -4   5  -1    7.11    0.39
   4   5   1    7.01    0.45
  -5   5  -1    2.02    0.26
   5   5   1    2.34    0.33
   6   5   1    1.86    0.36
  -6   5  -1    1.51    0.28
  -6   6   1    1.30    0.26
   6   6  -1    1.09    0.32
  -5   6   1    4.88    0.37
   5   6  -1    5.49    0.40
  -4   6   1   60.65    1.26
   4   6  -1   60.51    1.29
   3   6  -1   12.45    0.50
  -3   6   1   12.36    0.44
  -3   6   1   12.81    0.39
  -2   6   1   11.61    0.39
   2   6  -1   12.37    0.46
  -2   6   1   11.46    0.38
  -1   6   1    5.79    0.31
  -1   6   1    5.05    0.24
   1   6  -1    5.75    0.33
   0   6  -1    6.98    0.34
   0   6   1    6.84    0.33
   0   6   1    6.61    0.24
   0   6  -1    7.18    0.24
   1   6   1    4.49    0.29
  -1   6  -1    4.89    0.30
  -1   6  -1    4.25    0.24
  -2   6  -1    8.29    0.35
   2   6   1    8.19    0.41
  -2   6  -1    8.22    0.35
  -3   6  -1   10.94    0.40
  -3   6  -1   10.53    0.43
   3   6   1   10.87    0.50
  -4   6  -1   27.29    0.75
   4   6   1   27.04    0.81
  -5   6  -1   -0.08    0.21
   5   6   1    0.25    0.27
   6   6   1    0.72    0.34
  -6   6  -1    0.44    0.25
  -6   7   1    1.20    0.27
   6   7  -1    0.82    0.32
   5   7  -1    2.21    0.33
  -5   7   1    2.71    0.33
  -4   7   1    1.41    0.24
   4   7  -1    1.40    0.27
   3   7  -1   19.66    0.65
  -3   7   1   19.51    0.58
  -2   7   1    2.26    0.22
   2   7  -1    1.96    0.26
  -2   7   1    2.20    0.23
   1   7  -1    0.22    0.18
  -1   7   1    0.40    0.19
  -1   7   1    0.24    0.12
   0   7   1    1.95    0.16
   0   7  -1    2.04    0.24
   0   7   1    2.07    0.24
   0   7  -1    2.26    0.17
  -1   7  -1   15.37    0.44
   1   7   1   15.40    0.53
  -1   7  -1   15.07    0.52
  -2   7  -1   10.87    0.43
   2   7   1   10.59    0.49
  -2   7  -1   11.75    0.45
  -3   7  -1   41.50    0.95
   3   7   1   42.46    1.03
  -3   7  -1   43.26    0.96
   4   7   1    2.75    0.34
  -4   7  -1    2.53    0.29
   5   7   1    1.68    0.34
  -5   7  -1    1.97    0.32
   6   7   1    0.15    0.35
   6   8  -1    4.02    0.46
  -6   8   1    4.91    0.49
  -5   8   1    3.46    0.38
   5   8  -1    3.20    0.38
   4   8  -1    5.65    0.43
  -4   8   1    5.92    0.41
  -3   8   1    0.37    0.19
   3   8  -1    0.40    0.25
  -2   8   1   24.62    0.65
   2   8  -1   25.01    0.75
  -2   8   1   25.32    0.68
  -1   8   1   12.27    0.42
  -1   8   1   13.67    0.52
   1   8  -1   13.54    0.53
   0   8  -1    1.89    0.26
   0   8   1    2.45    0.28
  -1   8  -1   34.05    0.85
   1   8   1   32.94    0.87
  -1   8  -1   32.70    0.75
   2   8   1   12.65    0.55
  -2   8  -1   13.47    0.48
  -2   8  -1   13.40    0.51
  -3   8  -1    2.27    0.26
   3   8   1    2.23    0.32
  -3   8  -1    2.52    0.28
   4   8   1    1.12    0.31
  -4   8  -1    0.79    0.29
  -5   8  -1    3.22    0.41
   5   8   1    2.87    0.41
   6   9  -1    1.34    0.43
   5   9  -1    0.29    0.32
  -5   9   1    0.32    0.30
  -4   9   1    0.95    0.28
   4   9  -1    0.66    0.29
   3   9  -1    0.37    0.26
  -3   9   1    0.85    0.23
   2   9  -1   13.85    0.61
  -2   9   1   14.83    0.52
  -2   9   1   14.53    0.56
   1   9  -1   17.47    0.62
  -1   9   1   17.19    0.60
  -1   9   1   17.57    0.52
   0   9  -1    0.16    0.20
   0   9   1   -0.17    0.21
   1   9   1    5.93    0.42
  -1   9  -1    5.40    0.40
  -1   9  -1    4.89    0.32
  -2   9  -1    0.57    0.22
  -2   9  -1    1.17    0.22
   2   9   1    0.96    0.27
   3   9   1    0.08    0.27
  -3   9  -1    0.28    0.22
  -4   9  -1    3.03    0.37
   4   9   1    2.39    0.39
   5   9   1    0.32    0.37
   5  10  -1    0.56    0.37
  -4  10   1    4.95    0.44
   4  10  -1    4.92    0.49
   3  10  -1    0.72    0.33
  -3  10   1    0.44    0.26
  -2  10   1    2.16    0.28
   2  10  -1    1.88    0.32
  -2  10   1    2.54    0.32
  -1  10   1    2.37    0.31
   1  10  -1    2.88    0.35
   0  10  -1    1.76    0.30
   0  10   1    1.80    0.31
   1  10   1    4.01    0.40
  -1  10  -1    3.95    0.37
   2  10   1    2.40    0.36
  -2  10  -1    2.54    0.32
  -2  10  -1    2.59    0.31
   3  10   1    1.05    0.35
  -3  10  -1    1.05    0.28
  -4  10  -1    3.57    0.43
   4  10   1    3.13    0.47
  -4  11   1    3.87    0.44
   3  11  -1    0.29    0.33
  -3  11   1    0.55    0.30
   2  11  -1    0.64    0.28
   1  11  -1    0.58    0.28
  -1  11   1    1.37    0.30
   0  11  -1    3.12    0.38
   0  11   1    2.44    0.36
   1  11   1    3.52    0.42
  -1  11  -1    4.89    0.45
   2  11   1    0.88    0.33
  -2  11  -1    0.93    0.29
   3  11   1    0.93    0.39
  -3  11  -1    1.12    0.42
   2  12  -1    0.70    0.34
  -1  12   1    7.09    0.54
   1  12  -1    7.76    0.59
   0  12  -1    0.59    0.34
   0  12   1    0.81    0.33
  -1  12  -1    7.99    0.59
   1  12   1    7.25    0.57
   7   0  -2    1.63    0.34
  -6   0   2   12.36    0.42
   6   0  -2   12.85    0.55
   5   0  -2    6.21    0.35
  -5   0   2    6.54    0.29
   4   0  -2    3.45    0.25
  -4   0   2    3.68    0.20
  -3   0   2   40.88    0.75
   3   0  -2   39.25    0.69
   3   0  -2   41.11    0.79
  -2   0   2    6.27    0.21
   2   0  -2    6.58    0.24
   2   0  -2    6.35    0.16
   1   0  -2   41.77    0.73
  -1   0   2   41.51    0.77
   1   0  -2   42.70    0.76
   0   0   2 1000.00   15.99
   1   0   2    0.93    0.14
  -2   0  -2    2.28    0.16
  -3   0  -2    7.93    0.31
  -4   0  -2    9.50    0.39
  -5   0  -2   18.94    0.58
  -6   0  -2    4.65    0.34
   8   1  -2    2.67    0.46
   7  -1  -2    3.57    0.40
   7   1  -2    3.77    0.41
  -7   1   2    3.80    0.31
   6  -1  -2    8.03    0.51
   6   1  -2    7.60    0.49
  -6   1   2    6.91    0.36
  -5  -1   2   12.52    0.36
   5  -1  -2   12.04    0.49
   5   1  -2   11.11    0.48
  -5   1   2   11.97    0.40
  -4  -1   2   11.46    0.31
   4  -1  -2   11.50    0.41
  -4   1   2   11.27    0.34
   4   1  -2   11.17    0.41
   3  -1  -2   77.03    1.36
  -3  -1   2   77.07    1.30
   3   1  -2   74.17    1.30
   3   1  -2   76.97    1.36
  -3   1   2   75.92    1.34
  -2  -1   2   55.45    0.96
   2  -1  -2   55.21    1.00
  -2   1   2   54.70    0.99
   2   1  -2   54.86    0.98
   2   1  -2   55.48    0.95
   1  -1  -2  534.63    8.59
  -1  -1   2  527.62    8.57
   1   1  -2  547.05    8.56
   1   1  -2  540.85    8.57
  -1   1   2  520.02    8.59
   0  -1   2  424.17    6.92
   0   1  -2  435.43    6.94
   0   1   2  430.26    6.94
   1   1   2   10.80    0.31
  -1   1  -2   10.24    0.29
  -1   1  -2   10.73    0.29
  -2   1  -2   10.49    0.32
   2   1   2   10.44    0.35
  -3   1  -2    5.53    0.28
  -4  -1  -2   24.92    0.63
  -4   1  -2   25.47    0.65
  -5  -1  -2   10.57    0.44
  -5   1  -2   10.70    0.46
  -6   1  -2    2.43    0.28
  -7   1  -2    4.59    0.57
   8   2  -2    0.15    0.41
   7  -2  -2    8.29    0.52
  -7   2   2    8.92    0.45
   7   2  -2    8.57    0.52
   6  -2  -2   17.68    0.66
   6   2  -2   18.09    0.68
  -6   2   2   17.92    0.56
   5  -2  -2   32.34    0.79
   5   2  -2   31.84    0.79
  -5   2   2   31.66    0.74
  -4  -2   2    1.38    0.11
   4  -2  -2    1.70    0.22
   4   2  -2    1.33    0.19
  -4   2   2    1.32    0.16
   4   2  -2    1.30    0.16
   3  -2  -2   53.74    1.01
   3   2  -2   52.57    0.99
   3   2  -2   51.78    0.96
  -3   2   2   53.36    0.99
   2  -2  -2    5.10    0.26
  -2   2   2    5.54    0.21
   2   2  -2    5.40    0.21
   2   2  -2    5.34    0.20
  -1  -2   2    5.57    0.20
   1   2  -2    5.43    0.18
  -1   2   2    5.28    0.24
   1   2  -2    5.20    0.21
   0   2   2    6.22    0.27
   0   2  -2    5.77    0.22
   1   2   2   25.42    0.55
  -1   2  -2   26.00    0.54
  -1   2  -2   26.15    0.55
   2   2   2   36.95    0.75
  -2   2  -2   37.88    0.77
  -2   2  -2   37.62    0.76
   3  -2   2    8.71    0.29
   3   2   2    8.87    0.39
  -3   2  -2    9.20    0.35
   4   2   2   25.32    0.70
  -4   2  -2   26.44    0.67
   5   2   2    9.79    0.50
  -5   2  -2    9.88    0.45
  -6   2  -2    0.22    0.21
  -7   2  -2    0.77    0.33
  -8   3   2    3.01    0.38
  -7   3   2    0.57    0.21
   7   3  -2    1.14    0.34
   6  -3  -2    2.94    0.35
   6   3  -2    3.00    0.33
  -6   3   2    2.99    0.28
   5  -3  -2   31.55    0.80
  -5   3   2   31.52    0.76
   5   3  -2   30.68    0.79
   4  -3  -2    8.20    0.41
   4   3  -2    8.75    0.35
   4   3  -2    7.83    0.37
  -4   3   2    7.85    0.32
   3  -3  -2    6.35    0.33
  -3   3   2    6.44    0.26
   3   3  -2    6.31    0.27
   3   3  -2    6.22    0.28
  -2   3   2    2.76    0.18
   2   3  -2    2.46    0.15
   2   3  -2    2.60    0.17
  -2   3   2    2.38    0.14
  -1  -3   2   26.78    0.50
   1   3  -2   26.04    0.55
  -1   3   2   25.80    0.52
   1   3  -2   26.02    0.49
  -1   3   2   26.00    0.55
   0   3   2   17.38    0.40
   0   3   2   17.01    0.42
   0   3  -2   16.30    0.37
   0   3  -2   16.75    0.41
  -1   3  -2   24.98    0.56
  -1   3  -2   24.60    0.54
   1   3   2   25.10    0.56
   1   3   2   24.38    0.55
  -2   3  -2   68.69    1.28
   2   3   2   68.18    1.25
  -2   3  -2   70.30    1.29
   3   3   2    5.75    0.37
  -3   3  -2    5.99    0.30
   3   3   2    5.46    0.35
   4   3   2    2.53    0.28
  -4   3  -2    2.50    0.25
   4   3   2    2.48    0.30
   5   3   2    2.52    0.31
  -5   3  -2    1.74    0.25
  -6   3  -2    3.96    0.37
   6   3   2    4.33    0.51
  -7   4   2    1.39    0.28
   7   4  -2    1.64    0.38
   6  -4  -2    0.41    0.49
  -6   4   2    1.29    0.22
   6   4  -2    1.16    0.29
   5  -4  -2    2.74    0.32
   5   4  -2    2.60    0.27
   5   4  -2    2.68    0.27
  -5   4   2    2.30    0.24
   4  -4  -2    4.61    0.33
   4   4  -2    4.84    0.30
  -4   4   2    4.27    0.28
  -3   4   2   18.40    0.39
   3   4  -2   18.99    0.51
  -3   4   2   18.71    0.49
  -2   4   2   15.20    0.40
   2   4  -2   15.65    0.43
  -2   4   2   14.85    0.36
   1   4  -2   50.33    0.97
  -1   4   2   49.14    0.93
  -1   4   2   50.45    0.94
   0   4   2   14.46    0.38
   0   4   2   13.85    0.38
   0   4  -2   13.94    0.34
   0   4  -2   14.49    0.40
   1   4   2    2.38    0.19
  -1   4  -2    2.02    0.18
   1   4   2    2.66    0.20
  -1   4  -2    2.88    0.19
   2   4   2   15.34    0.46
  -2   4  -2   15.60    0.44
   2   4   2   14.49    0.48
  -2   4  -2   16.22    0.45
   3   4   2    1.25    0.23
   3   4   2    1.52    0.23
  -3   4  -2    1.33    0.19
  -3   4  -2    1.40    0.20
   4   4   2    3.21    0.31
  -4   4  -2    2.41    0.25
   5   4   2    6.47    0.45
  -5   4  -2    5.36    0.37
  -6   4  -2    1.32    0.29
   6   4   2    1.85    0.37
   7   5  -2    1.49    0.40
  -7   5   2    1.14    0.29
  -6   5   2    1.50    0.25
   6   5  -2    1.50    0.30
   5  -5  -2    1.66    0.32
   5   5  -2    1.90    0.26
  -5   5   2    1.84    0.24
   5   5  -2    1.71    0.27
   4   5  -2   36.63    0.87
  -4   5   2   36.93    0.84
   3   5  -2   23.00    0.62
  -3   5   2   23.02    0.51
  -3   5   2   24.31    0.59
  -2   5   2    1.48    0.15
  -2   5   2    1.41    0.17
   2   5  -2    1.38    0.19
  -1   5   2    3.31    0.21
  -1   5   2    3.38    0.23
   1   5  -2    3.18    0.23
   0   5  -2    8.49    0.27
   0   5  -2    8.66    0.34
   0   5   2    8.04    0.29
   0   5   2    8.34    0.33
   1   5   2    4.58    0.25
  -1   5  -2    4.58    0.27
  -1   5  -2    4.51    0.24
   1   5   2    4.48    0.29
  -2   5  -2    1.27    0.18
   2   5   2    1.54    0.21
   2   5   2    2.09    0.23
  -2   5  -2    1.48    0.18
   3   5   2    4.06    0.32
  -3   5  -2    4.12    0.30
  -3   5  -2    4.08    0.28
  -4   5  -2    6.27    0.40
   4   5   2    5.66    0.40
   5   5   2    0.33    0.29
  -5   5  -2    0.35    0.22
  -6   5  -2    1.18    0.31
   6   5   2    1.31    0.41
   7   6  -2    2.60    0.42
  -7   6   2    2.15    0.36
  -6   6   2    1.99    0.29
   6   6  -2    1.93    0.32
  -5   6   2    1.17    0.24
   5   6  -2    1.11    0.26
  -4   6   2    2.12    0.26
   4   6  -2    1.81    0.27
   3   6  -2   15.48    0.55
  -3   6   2   15.07    0.48
  -2   6   2    6.67    0.32
   2   6  -2    7.89    0.38
  -2   6   2    7.93    0.33
  -1   6   2    3.53    0.22
  -1   6   2    3.55    0.24
   1   6  -2    3.60    0.27
   0   6   2    2.88    0.24
   0   6  -2    2.82    0.19
   0   6  -2    2.76    0.25
   0   6   2    3.02    0.20
  -1   6  -2   28.20    0.69
   1   6   2   27.26    0.60
   1   6   2   26.85    0.70
  -1   6  -2   27.91    0.63
   2   6   2    4.60    0.34
  -2   6  -2    4.64    0.30
  -2   6  -2    4.54    0.31
  -3   6  -2   33.12    0.81
  -3   6  -2   32.40    0.81
   3   6   2   32.57    0.89
  -4   6  -2    0.14    0.20
   4   6   2    0.19    0.27
   5   6   2   -0.05    0.31
  -5   6  -2   -0.06    0.22
   6   6   2   -0.01    0.37
  -6   7   2    5.69    0.44
   6   7  -2    5.29    0.53
   6   7  -2    5.65    0.45
  -5   7   2    3.41    0.34
   5   7  -2    3.24    0.35
   4   7  -2    3.49    0.34
  -4   7   2    3.75    0.33
  -3   7   2    2.92    0.26
   3   7  -2    3.57    0.33
  -2   7   2    8.88    0.39
   2   7  -2    7.88    0.42
  -2   7   2    7.74    0.36
  -1   7   2    0.25    0.14
   1   7  -2    0.23    0.17
  -1   7   2    0.42    0.18
   0   7  -2    9.39    0.44
   0   7  -2    9.00    0.31
   0   7   2    8.92    0.34
   0   7   2    9.53    0.42
  -1   7  -2   40.40    0.94
   1   7   2   40.85    0.95
  -1   7  -2   40.78    0.86
  -2   7  -2   12.98    0.50
  -2   7  -2   13.30    0.47
   2   7   2   12.30    0.54
  -3   7  -2    8.67    0.42
   3   7   2    8.38    0.51
  -3   7  -2    8.49    0.45
  -4   7  -2    0.88    0.25
   4   7   2    1.16    0.31
  -5   7  -2    2.81    0.37
   5   7   2    3.44    0.44
   6   8  -2    2.78    0.41
   6   8  -2    2.90    0.39
  -6   8   2    2.92    0.40
  -5   8   2    0.22    0.25
   5   8  -2    0.25    0.27
   4   8  -2    4.42    0.39
  -4   8   2    3.22    0.33
   3   8  -2    7.08    0.45
  -3   8   2    7.53    0.42
  -2   8   2   35.68    0.82
   2   8  -2   35.73    0.91
  -2   8   2   36.23    0.85
  -1   8   2   27.46    0.74
  -1   8   2   26.25    0.65
   1   8  -2   26.59    0.75
   0   8   2    1.90    0.26
   0   8  -2    1.67    0.25
   1   8   2    4.01    0.35
  -1   8  -2    3.58    0.32
  -1   8  -2    3.84    0.27
  -2   8  -2    0.54    0.21
  -2   8  -2    0.59    0.20
   2   8   2    0.99    0.26
  -3   8  -2    3.11    0.32
   3   8   2    3.35    0.37
  -3   8  -2    3.60    0.31
   4   8   2   -0.41    0.28
  -4   8  -2   -0.16    0.23
   5   8   2   -0.53    0.33
  -5   8  -2   -0.38    0.32
   6   9  -2    4.84    0.50
   5   9  -2    2.33    0.39
  -5   9   2    2.99    0.39
  -4   9   2    2.12    0.31
   4   9  -2    1.89    0.34
   3   9  -2    2.04    0.32
  -3   9   2    1.92    0.28
  -2   9   2   22.47    0.64
  -2   9   2   23.60    0.68
   2   9  -2   21.90    0.74
  -1   9   2    2.35    0.24
  -1   9   2    2.13    0.29
   1   9  -2    2.27    0.31
   0   9  -2    2.48    0.31
   0   9   2    2.51    0.32
  -1   9  -2    7.01    0.46
   1   9   2    7.35    0.47
  -1   9  -2    6.12    0.40
  -2   9  -2    2.94    0.32
   2   9   2    2.71    0.34
  -2   9  -2    2.52    0.29
   3   9   2    2.39    0.36
  -3   9  -2    2.75    0.32
  -3   9  -2    2.33    0.32
   4   9   2    0.87    0.37
  -4   9  -2    0.44    0.30
  -5  10   2    1.90    0.39
   5  10  -2    1.23    0.37
  -4  10   2    6.07    0.46
   4  10  -2    4.04    0.44
  -3  10   2    1.55    0.30
   3  10  -2    0.69    0.30
   2  10  -2    2.07    0.33
  -2  10   2    1.87    0.28
   1  10  -2    2.68    0.34
  -1  10   2    2.58    0.34
   0  10   2    2.02    0.32
   0  10  -2    1.91    0.31
  -1  10  -2    4.27    0.40
   1  10   2    4.71    0.43
   2  10   2    2.69    0.38
  -2  10  -2    2.22    0.32
  -2  10  -2    2.58    0.34
   3  10   2    6.42    0.53
  -3  10  -2    6.81    0.47
  -4  10  -2    2.46    0.46
   4  11  -2    1.39    0.48
  -4  11   2    1.75    0.38
   3  11  -2    1.57    0.38
  -3  11   2    1.52    0.33
   2  11  -2    1.26    0.31
  -1  11   2    0.20    0.26
   1  11  -2    0.04    0.26
   0  11   2    6.52    0.51
   0  11  -2    6.96    0.53
   1  11   2    0.01    0.30
  -1  11  -2    0.42    0.27
   2  11   2    0.06    0.32
  -2  11  -2    0.44    0.30
   2  12  -2    0.27    0.42
  -1  12   2   -0.38    0.29
   1  12  -2   -0.03    0.29
   0  12  -2    3.13    0.44
   0  12   2    3.13    0.46
   1  12   2    0.87    0.38
  -1  12  -2    0.87    0.36
  -2  12  -2    1.29    0.39
   8   0  -3    0.07    0.42
   7   0  -3   -0.31    0.31
  -6   0   3    8.63    0.36
   6   0  -3    8.68    0.53
   5   0  -3    4.07    0.31
  -5   0   3    3.90    0.25
   4   0  -3    7.25    0.37
  -4   0   3    7.12    0.27
   3   0  -3   54.33    1.05
   3   0  -3   56.25    0.94
  -3   0   3   55.12    1.01
  -2   0   3    4.93    0.24
   2   0  -3    5.48    0.24
   2   0  -3    5.17    0.17
   1   0  -3   20.66    0.46
  -1   0   3   19.48    0.48
   1   0  -3   20.06    0.43
   0   0   3   17.21    0.44
   1   0   3    2.30    0.20
   2   0   3    0.15    0.19
   6   0   3    1.75    0.49
   8  -1  -3    2.72    0.48
   8   1  -3    2.34    0.47
   7  -1  -3    4.32    0.43
   7   1  -3    4.04    0.41
  -7   1   3    4.34    0.32
   6  -1  -3    4.18    0.36
   6   1  -3    3.97    0.36
  -6   1   3    3.48    0.27
  -5  -1   3    1.69    0.16
   5  -1  -3    1.76    0.27
  -5   1   3    1.54    0.18
   5   1  -3    1.42    0.25
  -4  -1   3    1.80    0.15
   4  -1  -3    2.01    0.24
  -4   1   3    2.05    0.18
   4   1  -3    1.77    0.14
   4   1  -3    1.64    0.21
   3  -1  -3    4.59    0.30
  -3  -1   3    4.93    0.20
  -3   1   3    4.69    0.23
   3   1  -3    4.86    0.19
   3   1  -3    4.69    0.26
  -2  -1   3    5.48    0.24
   2  -1  -3    5.32    0.27
   2   1  -3    5.66    0.23
   2   1  -3    5.51    0.20
  -2   1   3    5.61    0.26
  -1  -1   3   93.23    1.65
   1   1  -3   96.17    1.63
  -1   1   3   94.63    1.67
   1   1  -3   97.72    1.64
   0  -1   3   68.18    1.24
   0   1   3   69.03    1.26
   0   1  -3   70.19    1.25
   1  -1   3    0.31    0.16
   1   1   3    0.26    0.15
   2   1   3    3.21    0.26
  -3   1  -3    0.20    0.15
   3   1   3    0.69    0.24
   4   1   3    7.64    0.44
  -4   1  -3    8.33    0.40
   5   1   3    4.02    0.42
  -5   1  -3    2.31    0.27
   8  -2  -3    1.27    0.46
   8   2  -3    0.47    0.41
   7  -2  -3    1.24    0.36
  -7   2   3    1.03    0.22
   7   2  -3    0.47    0.33
   6  -2  -3    0.53    0.29
  -6   2   3    0.73    0.17
   6   2  -3    0.34    0.27
   5  -2  -3   13.49    0.55
   5   2  -3   13.34    0.52
  -5   2   3   12.85    0.43
  -4  -2   3    7.09    0.24
   4  -2  -3    7.31    0.40
   4   2  -3    7.51    0.35
  -4   2   3    6.94    0.30
   4   2  -3    7.37    0.29
   3  -2  -3    5.14    0.29
  -3  -2   3    4.98    0.20
   3   2  -3    5.22    0.26
   3   2  -3    5.09    0.22
  -3   2   3    5.26    0.25
   2  -2  -3   10.11    0.38
  -2  -2   3   10.35    0.31
   2   2  -3   10.49    0.30
  -2   2   3   10.59    0.34
   2   2  -3   10.59    0.30
  -1  -2   3   38.90    0.76
   1   2  -3   39.46    0.72
  -1   2   3   39.51    0.80
   1   2  -3   39.41    0.77
   0  -2   3   15.46    0.40
   0   2   3   14.96    0.43
   0   2  -3   14.51    0.39
   1   2   3   15.39    0.44
  -1   2  -3   14.34    0.41
  -2   2  -3   20.43    0.54
   2   2   3   21.08    0.57
  -3   2  -3    3.40    0.27
   3   2   3    3.13    0.30
  -4   2  -3    3.15    0.28
   4   2   3    3.38    0.35
  -5   2  -3    1.14    0.24
  -6   2  -3    0.74    0.29
  -8   3   3    5.27    0.43
   8   3  -3    3.89    0.54
   7  -3  -3   -0.05    0.34
  -7   3   3    0.37    0.20
   7   3  -3    0.17    0.32
   6  -3  -3   13.23    0.63
  -6   3   3   14.20    0.51
   6   3  -3   14.16    0.61
   5  -3  -3   17.87    0.63
   5   3  -3   18.52    0.59
  -5   3   3   17.69    0.53
   4  -3  -3    6.70    0.37
   4   3  -3    7.52    0.37
   4   3  -3    7.30    0.32
  -4   3   3    6.73    0.32
   3  -3  -3   11.52    0.45
  -3   3   3   12.22    0.38
   3   3  -3   12.11    0.37
   3   3  -3   12.53    0.38
  -2  -3   3   10.90    0.31
  -2   3   3   10.47    0.27
  -2   3   3   10.35    0.35
   2   3  -3   11.14    0.34
   2   3  -3   10.53    0.31
  -1  -3   3   44.79    0.84
   1   3  -3   45.11    0.88
  -1   3   3   44.81    0.90
   1   3  -3   45.11    0.81
   0  -3   3   10.95    0.34
   0   3  -3   10.83    0.34
   0   3   3   10.91    0.39
  -1   3  -3    1.28    0.16
   1   3   3    0.46    0.19
  -1   3  -3    0.89    0.14
  -2   3  -3   23.66    0.62
   2   3   3   24.71    0.64
  -2   3  -3   25.74    0.62
  -3   3  -3    1.68    0.21
   3   3   3    1.41    0.28
   4   3   3    2.19    0.35
  -4   3  -3    1.91    0.26
  -5   3  -3   10.20    0.51
   5   3   3    9.07    0.57
  -6   3  -3    2.75    0.38
   6   3   3    2.39    0.43
  -8   4   3    6.08    0.56
   7   4  -3    0.56    0.34
  -7   4   3    1.44    0.28
   6  -4  -3    3.02    0.38
   6   4  -3    2.43    0.32
  -6   4   3    2.53    0.28
   5  -4  -3    1.82    0.33
   5   4  -3    1.44    0.23
  -5   4   3    1.55    0.21
   5   4  -3    1.61    0.25
   4  -4  -3    6.76    0.40
   4   4  -3    7.07    0.35
  -4   4   3    7.19    0.34
   4   4  -3    6.98    0.36
   3   4  -3   36.53    0.76
  -3   4   3   35.76    0.76
  -3   4   3   31.03    0.67
   3   4  -3   35.11    0.73
   2   4  -3   17.19    0.47
  -2   4   3   16.58    0.40
  -2   4   3   16.57    0.46
   2   4  -3   17.12    0.41
  -1  -4   3   63.56    1.14
   1   4  -3   63.06    1.11
  -1   4   3   64.19    1.17
  -1   4   3   63.62    1.20
   1   4  -3   64.25    1.21
   0   4  -3   13.21    0.41
   0   4  -3   12.81    0.36
   0   4   3   13.01    0.43
   0   4   3   12.81    0.39
  -1   4  -3    8.37    0.33
  -1   4  -3    8.74    0.35
   1   4   3    8.57    0.35
   2   4   3    4.60    0.31
   2   4   3    4.87    0.32
  -2   4  -3    4.60    0.30
  -2   4  -3    4.31    0.29
   3   4   3    3.54    0.31
   3   4   3    3.34    0.33
  -3   4  -3    3.73    0.30
  -3   4  -3    3.84    0.30
   4   4   3    5.72    0.41
  -4   4  -3    5.57    0.37
   5   4   3    7.20    0.50
  -5   4  -3    7.69    0.50
   6   4   3    1.14    0.39
  -7   5   3    0.30    0.25
   7   5  -3   -0.16    0.34
   6  -5  -3    7.54    0.51
  -6   5   3    7.18    0.45
   6   5  -3    7.26    0.45
   5  -5  -3    8.84    0.49
   5   5  -3    8.78    0.47
  -5   5   3    8.74    0.42
   5   5  -3    8.57    0.45
  -4   5   3   55.95    1.16
   4   5  -3   56.31    1.17
   4   5  -3   57.87    1.16
   3   5  -3    1.37    0.21
   3   5  -3    1.18    0.18
  -3   5   3    1.18    0.19
  -2   5   3    5.39    0.30
   2   5  -3    5.52    0.32
   2   5  -3    5.55    0.25
  -2   5   3    5.35    0.27
  -1  -5   3    2.27    0.18
  -1   5   3    1.80    0.20
   1   5  -3    1.73    0.14
  -1   5   3    2.05    0.19
   1   5  -3    1.92    0.21
   0   5  -3   21.99    0.60
   0   5   3   24.83    0.60
   0   5  -3   23.69    0.54
   0   5   3   23.66    0.59
  -1   5  -3   11.67    0.42
  -1   5  -3   10.33    0.38
   1   5   3   10.64    0.42
   1   5   3    9.88    0.45
   2   5   3    5.25    0.36
  -2   5  -3    5.81    0.35
   2   5   3    6.53    0.36
  -2   5  -3    6.19    0.36
   3   5   3    1.66    0.26
  -3   5  -3    1.06    0.21
  -3   5  -3    1.39    0.24
   4   5   3    6.69    0.47
  -4   5  -3    6.32    0.42
  -5   5  -3    0.49    0.24
   5   5   3   -0.07    0.31
   6   5   3    0.26    0.38
   7   6  -3    0.12    0.35
  -7   6   3    0.43    0.29
   6   6  -3    0.43    0.28
  -6   6   3    0.35    0.22
  -5   6   3    1.22    0.24
   5   6  -3    1.00    0.26
   5   6  -3    0.96    0.24
   4   6  -3   19.12    0.58
   4   6  -3   19.26    0.61
  -4   6   3   19.52    0.60
   3   6  -3    2.09    0.26
   3   6  -3    2.33    0.22
  -3   6   3    2.52    0.25
   2   6  -3   10.60    0.44
  -2   6   3   10.22    0.37
  -2   6   3    9.98    0.40
   2   6  -3   10.75    0.35
  -1  -6   3    5.05    0.27
   1   6  -3    4.64    0.22
  -1   6   3    4.94    0.31
  -1   6   3    4.83    0.28
   1   6  -3    4.41    0.32
   0   6  -3   11.63    0.45
   0   6  -3   11.35    0.37
   0   6   3   11.97    0.45
   0   6   3   12.03    0.42
   1   6   3   37.25    0.89
   1   6   3   36.46    0.82
  -1   6  -3   37.97    0.89
  -1   6  -3   36.58    0.82
  -2   6  -3    1.05    0.20
   2   6   3    0.70    0.20
  -2   6  -3    1.16    0.21
   3   6   3    0.65    0.23
  -3   6  -3    1.03    0.21
  -3   6  -3    1.57    0.26
  -4   6  -3    0.35    0.23
   4   6   3    0.68    0.29
   5   6   3    2.74    0.45
  -5   6  -3    2.04    0.35
  -6   7   3    1.20    0.28
   6   7  -3    1.35    0.33
   5   7  -3   13.12    0.56
  -5   7   3   13.90    0.60
   5   7  -3   13.96    0.59
   4   7  -3    5.58    0.39
   4   7  -3    5.29    0.34
  -4   7   3    5.78    0.39
   3   7  -3    4.23    0.34
  -3   7   3    4.11    0.31
  -2   7   3    4.32    0.30
  -2   7   3    4.92    0.34
   2   7  -3    4.63    0.34
  -1   7   3    0.93    0.20
  -1   7   3    1.18    0.20
   1   7  -3    1.23    0.23
   0   7  -3   12.43    0.50
   0   7   3   12.94    0.43
   0   7   3   12.67    0.51
   0   7  -3   12.61    0.40
   1   7   3   21.42    0.68
  -1   7  -3   22.76    0.60
  -1   7  -3   22.46    0.68
  -2   7  -3   13.84    0.54
  -2   7  -3   15.29    0.54
   2   7   3   14.65    0.60
  -3   7  -3   27.18    0.79
  -3   7  -3   26.90    0.79
   3   7   3   29.98    0.90
  -4   7  -3    1.89    0.33
   4   7   3    1.75    0.39
   5   7   3    0.46    0.38
  -6   8   3    3.92    0.44
   6   8  -3    3.13    0.39
   5   8  -3    0.33    0.26
  -5   8   3    0.92    0.29
   5   8  -3    0.84    0.25
   4   8  -3    4.38    0.33
  -4   8   3    5.43    0.39
   4   8  -3    4.65    0.38
   3   8  -3    2.03    0.30
  -3   8   3    1.83    0.26
  -2   8   3    7.52    0.41
   2   8  -3    7.88    0.46
  -2   8   3    8.02    0.41
  -1   8   3    0.06    0.17
  -1   8   3   -0.03    0.17
   1   8  -3    0.19    0.20
   0   8   3    2.86    0.30
   0   8  -3    2.13    0.28
  -1   8  -3    9.80    0.50
   1   8   3   10.12    0.51
  -1   8  -3    9.85    0.43
  -2   8  -3    5.86    0.41
  -2   8  -3    5.66    0.39
   2   8   3    5.26    0.43
  -3   8  -3    7.83    0.47
  -3   8  -3    7.03    0.47
   3   8   3    6.23    0.49
  -4   8  -3    0.40    0.30
   4   8   3    0.86    0.38
   6   9  -3   -0.31    0.30
   5   9  -3    2.85    0.38
  -5   9   3    2.96    0.40
   5   9  -3    1.86    0.31
  -4   9   3   -0.15    0.25
   4   9  -3   -0.23    0.25
  -3   9   3    3.26    0.33
   3   9  -3    2.73    0.35
   2   9  -3   25.10    0.77
  -2   9   3   20.06    0.84
  -2   9   3   25.30    0.69
  -1   9   3    7.94    0.47
   1   9  -3    7.70    0.50
  -1   9   3    8.15    0.43
   0   9  -3    2.90    0.33
   0   9   3    2.68    0.33
  -1   9  -3    0.72    0.28
  -1   9  -3    0.66    0.24
   1   9   3    0.74    0.26
  -2   9  -3    0.03    0.22
   2   9   3    0.39    0.28
  -2   9  -3    0.56    0.23
  -3   9  -3    0.42    0.28
   3   9   3    0.27    0.32
  -3   9  -3    0.50    0.26
  -4   9  -3    1.59    0.42
  -5  10   3    2.56    0.42
   5  10  -3    2.45    0.36
   5  10  -3    2.51    0.41
   4  10  -3    2.86    0.40
  -4  10   3    3.50    0.40
   3  10  -3    0.54    0.30
  -3  10   3    0.57    0.28
   2  10  -3    2.91    0.36
  -2  10   3    2.92    0.32
   1  10  -3    0.65    0.27
  -1  10   3    0.28    0.23
   0  10  -3    6.87    0.49
   0  10   3    7.54    0.52
  -1  10  -3    0.84    0.28
   1  10   3    0.87    0.31
  -2  10  -3    1.89    0.32
   2  10   3    1.11    0.33
  -3  10  -3    2.28    0.38
  -4  11   3    0.79    0.36
  -3  11   3    2.48    0.40
   3  11  -3    1.96    0.41
   2  11  -3    0.55    0.30
  -1  11   3    0.44    0.29
   1  11  -3    0.17    0.34
   0  11  -3    2.20    0.38
   0  11   3    1.84    0.36
  -1  11  -3    4.23    0.45
   1  11   3    3.59    0.45
  -2  11  -3    0.91    0.32
  -1  12   3    1.41    0.59
   0  12   3    2.04    0.44
   8   0  -4    3.86    0.53
   7   0  -4    0.03    0.31
   6   0  -4    1.20    0.30
  -6   0   4    1.62    0.19
  -5   0   4   10.95    0.38
   5   0  -4   11.16    0.52
  -4   0   4    4.96    0.26
   4   0  -4    5.62    0.36
   3   0  -4   89.97    1.66
  -3   0   4   92.03    1.64
   3   0  -4   93.31    1.56
   2   0  -4    3.67    0.18
   2   0  -4    3.80    0.24
  -2   0   4    3.76    0.25
  -1   0   4   17.98    0.50
   0   0   4    3.38    0.26
   1   0   4   10.13    0.43
   2   0   4    0.82    0.25
   3   0   4    6.10    0.42
   4   0   4    0.03    0.32
   5   0   4    4.19    0.50
   6   0   4    3.85    0.59
   8  -1  -4    9.00    0.63
   8   1  -4    8.30    0.62
   7  -1  -4    1.10    0.36
  -7   1   4    1.26    0.23
   7   1  -4    0.80    0.33
   6  -1  -4   13.90    0.64
   6   1  -4   13.54    0.60
  -6   1   4   14.46    0.47
  -5  -1   4   -0.12    0.11
   5  -1  -4    0.45    0.25
  -5   1   4    0.19    0.14
   5   1  -4    0.22    0.23
   4  -1  -4    7.14    0.42
  -4  -1   4    7.54    0.29
  -4   1   4    7.02    0.32
   4   1  -4    7.23    0.26
   4   1  -4    6.83    0.37
   3  -1  -4   19.16    0.55
  -3  -1   4   19.94    0.49
  -3   1   4   19.32    0.51
   3   1  -4   19.43    0.51
   3   1  -4   19.79    0.44
  -2  -1   4    6.95    0.32
   2  -1  -4    6.57    0.33
   2   1  -4    6.14    0.24
  -2   1   4    7.01    0.33
   2   1  -4    6.52    0.29
  -1  -1   4  150.96    2.59
   1   1  -4  153.85    2.58
  -1   1   4  148.82    2.61
   0  -1   4   73.83    1.38
   0   1  -4   74.75    1.38
   0   1   4   73.19    1.39
   1  -1   4    2.32    0.25
   1   1   4    2.43    0.27
   2  -1   4    0.51    0.25
   2   1   4    0.70    0.26
   3  -1   4    9.36    0.57
   3   1   4   10.12    0.56
   4  -1   4   35.98    1.00
   4   1   4   34.35    0.98
   5  -1   4    1.59    0.45
   5   1   4    1.92    0.44
   6  -1   4    1.81    0.55
   8  -2  -4    4.75    0.56
   8   2  -4    5.53    0.55
   7  -2  -4    6.56    0.51
  -7   2   4    6.33    0.42
   7   2  -4    6.78    0.49
   6  -2  -4    6.13    0.44
   6   2  -4    6.36    0.42
  -6   2   4    6.53    0.37
   5  -2  -4    5.24    0.38
   5   2  -4    5.54    0.35
  -5   2   4    5.46    0.33
  -4  -2   4    7.57    0.28
   4  -2  -4    7.16    0.39
   4   2  -4    7.65    0.38
  -4   2   4    7.67    0.34
   4   2  -4    7.48    0.30
  -3  -2   4   10.09    0.34
   3  -2  -4    9.71    0.44
   3   2  -4   10.13    0.32
  -3   2   4   10.06    0.37
   3   2  -4    9.72    0.36
  -2  -2   4    0.84    0.16
   2   2  -4    1.10    0.16
  -2   2   4    0.63    0.17
   2   2  -4    0.82    0.13
  -1  -2   4   67.22    1.27
   1   2  -4   68.39    1.22
   1   2  -4   67.57    1.26
  -1   2   4   67.80    1.30
   0  -2   4   35.49    0.78
   0   2  -4   34.93    0.77
   0   2   4   36.06    0.80
   1  -2   4   33.87    0.78
   1   2   4   34.33    0.80
  -1   2  -4   32.96    0.77
   2  -2   4   10.64    0.52
   2   2   4   11.72    0.55
   3   2   4    2.93    0.35
   4   2   4    0.80    0.35
   6   2   4    1.39    0.45
   8  -3  -4    0.65    0.47
   8   3  -4    0.57    0.59
  -8   3   4    0.97    0.29
   7  -3  -4    3.85    0.46
  -7   3   4    3.54    0.33
   7   3  -4    4.23    0.42
   6  -3  -4   16.33    0.70
   6   3  -4   16.23    0.66
  -6   3   4   16.72    0.56
   5  -3  -4   15.37    0.64
  -5   3   4   14.97    0.51
   5   3  -4   15.51    0.57
   4  -3  -4   10.97    0.54
   4   3  -4   11.43    0.45
   4   3  -4   11.40    0.40
  -4   3   4   11.27    0.43
  -3  -3   4    1.97    0.18
   3   3  -4    2.05    0.20
   3   3  -4    2.00    0.19
  -3   3   4    1.56    0.19
  -3   3   4    1.80    0.15
  -2  -3   4    8.44    0.32
   2   3  -4    7.90    0.32
   2   3  -4    8.02    0.30
  -2   3   4    7.95    0.38
  -1  -3   4   27.35    0.63
   1   3  -4   26.72    0.56
   1   3  -4   26.42    0.63
  -1   3   4   26.85    0.67
   0  -3   4    1.61    0.21
   0   3  -4    1.46    0.18
   0   3   4    0.99    0.23
   1  -3   4    1.67    0.24
  -1   3  -4    1.58    0.19
   1   3   4    2.19    0.27
   2   3   4   26.73    0.75
  -3   3  -4    1.93    0.26
   3   3   4    2.13    0.35
   4   3   4    3.64    0.48
  -4   3  -4    3.28    0.34
   5   3   4    5.65    0.50
  -8   4   4    0.33    0.30
   7  -4  -4    0.15    0.40
   7   4  -4    0.06    0.32
  -7   4   4    0.23    0.22
   6  -4  -4   10.61    0.59
  -6   4   4   11.10    0.49
   6   4  -4   10.16    0.58
   5  -4  -4   16.22    0.67
  -5   4   4   16.54    0.55
   5   4  -4   15.93    0.57
  -4   4   4   15.18    0.50
   4   4  -4   15.71    0.50
   4   4  -4   16.20    0.52
  -3   4   4    5.93    0.35
   3   4  -4    6.81    0.33
   3   4  -4    6.48    0.34
  -2  -4   4    4.24    0.25
   2   4  -4    4.30    0.27
   2   4  -4    4.30    0.26
  -2   4   4    4.05    0.29
  -2   4   4    4.76    0.24
  -1  -4   4    4.69    0.31
   1   4  -4    4.45    0.30
   1   4  -4    5.06    0.24
  -1   4   4    4.97    0.32
  -1   4   4    4.99    0.27
   0  -4   4   12.45    0.44
   0   4  -4   11.80    0.42
   0   4   4   12.17    0.49
  -1   4  -4    0.41    0.15
   1   4   4   -0.10    0.24
  -2   4  -4    3.53    0.30
   2   4   4    3.03    0.35
  -2   4  -4    3.58    0.30
  -3   4  -4    2.31    0.28
   3   4   4    2.58    0.37
  -4   4  -4    2.74    0.31
   4   4   4    2.63    0.36
   5   4   4    3.31    0.45
  -5   4  -4    2.89    0.38
   7  -5  -4    1.04    0.59
   7   5  -4    2.46    0.39
  -7   5   4    1.98    0.34
   6  -5  -4    0.26    0.36
   6   5  -4    0.65    0.28
  -6   5   4    0.51    0.22
   5   5  -4    3.06    0.31
  -5   5   4    3.22    0.29
   5   5  -4    3.27    0.30
  -4   5   4   14.48    0.52
   4   5  -4   13.45    0.51
   4   5  -4   13.91    0.50
  -3   5   4   21.73    0.62
   3   5  -4   22.18    0.57
   3   5  -4   22.36    0.63
  -2  -5   4    1.00    0.18
   2   5  -4    0.80    0.15
  -2   5   4    0.81    0.20
   2   5  -4    0.95    0.20
  -2   5   4    1.17    0.17
  -1  -5   4    7.34    0.35
  -1   5   4    7.21    0.41
  -1   5   4    7.57    0.34
   1   5  -4    6.91    0.34
   1   5  -4    6.95    0.37
   0  -5   4    1.26    0.22
   0   5   4    1.25    0.26
   0   5  -4    1.53    0.21
   0   5   4    1.51    0.21
  -1   5  -4   11.26    0.44
   1   5   4   11.44    0.46
   1   5   4   11.11    0.54
  -1   5  -4   10.92    0.45
   2   5   4    3.33    0.31
   2   5   4    4.41    0.38
  -2   5  -4    3.59    0.32
  -2   5  -4    3.64    0.31
  -3   5  -4    7.24    0.44
  -3   5  -4    6.84    0.42
   3   5   4    7.08    0.49
  -4   5  -4    1.98    0.33
   4   5   4    1.77    0.36
   5   5   4    0.72    0.38
   7   6  -4    2.86    0.44
  -7   6   4    3.22    0.41
  -6   6   4    3.43    0.35
   6   6  -4    2.78    0.36
   5   6  -4    5.82    0.38
  -5   6   4    5.80    0.41
   5   6  -4    5.67    0.38
   4   6  -4    0.44    0.20
   4   6  -4    0.36    0.21
  -4   6   4    0.66    0.22
   3   6  -4    3.09    0.29
  -3   6   4    2.69    0.29
   3   6  -4    2.38    0.23
  -2   6   4    0.60    0.20
  -2   6   4    0.41    0.16
   2   6  -4    0.31    0.20
   2   6  -4    0.40    0.14
  -1  -6   4    0.16    0.18
   1   6  -4    0.41    0.19
  -1   6   4    0.01    0.17
  -1   6   4    0.38    0.21
   0   6   4   23.44    0.66
   0   6  -4   24.59    0.70
   0   6   4   24.29    0.67
  -1   6  -4   18.27    0.60
  -1   6  -4   18.67    0.56
   1   6   4   17.77    0.63
   1   6   4   17.30    0.60
  -2   6  -4    1.99    0.27
  -2   6  -4    1.33    0.24
   2   6   4    1.11    0.24
  -3   6  -4    6.69    0.46
   3   6   4    6.36    0.46
  -3   6  -4    7.33    0.45
  -4   6  -4   -0.01    0.28
   4   6   4    0.01    0.31
   6   7  -4    1.86    0.36
  -6   7   4    2.07    0.33
   5   7  -4    2.39    0.32
   5   7  -4    2.26    0.31
  -5   7   4    2.76    0.33
  -4   7   4    0.91    0.26
   4   7  -4    0.93    0.25
   4   7  -4    0.88    0.22
   3   7  -4    6.96    0.36
  -3   7   4    6.84    0.43
   3   7  -4    6.75    0.44
  -2   7   4    5.54    0.36
   2   7  -4    5.76    0.40
  -2   7   4    5.10    0.34
   1   7  -4    2.19    0.27
  -1   7   4    2.51    0.27
  -1   7   4    1.95    0.25
   0   7   4    3.85    0.34
   0   7   4    4.04    0.32
   0   7  -4    4.84    0.37
  -1   7  -4    7.62    0.41
  -1   7  -4    7.90    0.44
   1   7   4    8.16    0.48
  -2   7  -4   10.85    0.53
   2   7   4   11.57    0.56
  -2   7  -4   11.01    0.52
   3   7   4    7.14    0.51
  -3   7  -4    7.51    0.50
  -3   7  -4    6.24    0.45
   4   7   4    0.78    0.41
  -4   7  -4    0.19    0.31
  -6   8   4    0.65    0.32
   6   8  -4    0.79    0.34
   5   8  -4    4.26    0.38
   5   8  -4    4.96    0.42
  -5   8   4    4.82    0.44
   4   8  -4    3.42    0.36
  -4   8   4    3.21    0.34
   4   8  -4    3.55    0.31
   3   8  -4   -0.17    0.22
  -3   8   4    0.15    0.23
  -2   8   4    8.93    0.55
   2   8  -4   10.08    0.53
  -2   8   4   10.27    0.49
  -1   8   4    3.26    0.31
  -1   8   4    4.41    0.32
   1   8  -4    3.71    0.35
   0   8  -4    6.22    0.43
   0   8   4    6.78    0.46
   1   8   4    0.23    0.24
  -1   8  -4    1.00    0.24
  -1   8  -4    0.47    0.21
  -2   8  -4    1.56    0.30
  -2   8  -4    1.72    0.29
   2   8   4    1.22    0.33
   3   8   4    5.65    0.51
  -3   8  -4    6.08    0.47
  -3   8  -4    5.87    0.47
  -5   9   4    5.29    0.48
   5   9  -4    4.24    0.39
   5   9  -4    4.53    0.44
   4   9  -4    3.61    0.39
  -4   9   4    3.85    0.39
   4   9  -4    3.05    0.42
   3   9  -4    6.81    0.49
  -3   9   4    7.84    0.48
   2   9  -4   35.54    0.99
  -2   9   4   34.55    0.89
  -1   9   4    0.17    0.22
   1   9  -4    0.48    0.24
  -1   9   4    0.42    0.25
   0   9  -4    1.33    0.27
   0   9   4    0.43    0.24
  -1   9  -4    2.07    0.33
   1   9   4    1.57    0.32
  -2   9  -4    1.87    0.34
   2   9   4    1.82    0.37
  -2   9  -4    2.00    0.32
  -3   9  -4    2.18    0.37
  -3   9  -4    2.47    0.40
   3   9   4    1.65    0.45
   5  10  -4    0.79    0.35
  -4  10   4   -0.06    0.31
   4  10  -4   -0.15    0.31
  -3  10   4   11.17    0.60
   3  10  -4   10.63    0.64
  -2  10   4    4.91    0.41
   2  10  -4    4.25    0.43
   1  10  -4    1.12    0.29
  -1  10   4    1.27    0.30
   0  10   4    1.65    0.34
   0  10  -4    2.10    0.34
  -1  10  -4    2.22    0.36
   1  10   4    1.79    0.36
   2  10   4    3.37    0.45
  -2  10  -4    4.72    0.46
  -4  11   4    0.26    0.34
  -3  11   4    2.04    0.46
   3  11  -4    1.45    0.39
   2  11  -4    3.07    0.43
  -1  11   4    0.84    0.36
   1  11  -4    0.33    0.27
   0  11  -4    9.57    0.63
   0  11   4    7.98    0.59
   1  11   4    1.19    0.37
  -1  11  -4    1.37    0.36
   8   0  -5    0.47    0.46
   7   0  -5    4.61    0.46
   6   0  -5    4.38    0.39
  -6   0   5    5.56    0.33
   5   0  -5    0.94    0.26
  -5   0   5    1.04    0.18
   4   0  -5   11.22    0.48
  -4   0   5   10.81    0.41
   3   0  -5    9.21    0.44
  -3   0   5    9.66    0.42
   2   0  -5    6.77    0.38
  -2   0   5    5.99    0.38
  -1   0   5    0.02    0.19
   0   0   5    7.11    0.44
   1   0   5    0.69    0.27
   2   0   5    2.14    0.33
   3   0   5    2.63    0.38
   4   0   5   32.96    1.05
   5   0   5    2.73    0.55
   8  -1  -5    3.66    0.52
   8   1  -5    3.23    0.51
   7  -1  -5    3.53    0.44
  -7   1   5    3.54    0.30
   7   1  -5    3.37    0.42
   6  -1  -5    2.40    0.37
  -6   1   5    2.80    0.25
   6   1  -5    3.03    0.36
  -5  -1   5    3.20    0.23
   5  -1  -5    3.41    0.34
  -5   1   5    3.18    0.26
   5   1  -5    3.34    0.32
   4  -1  -5    2.20    0.27
  -4  -1   5    1.77    0.21
  -4   1   5    1.76    0.22
   4   1  -5    2.02    0.26
   3  -1  -5    7.81    0.44
  -3  -1   5    8.02    0.38
  -3   1   5    7.15    0.39
   3   1  -5    7.80    0.39
   3   1  -5    7.43    0.29
  -2  -1   5    2.40    0.26
   2   1  -5    2.76    0.21
   2   1  -5    3.06    0.26
  -2   1   5    2.98    0.27
  -1  -1   5   23.66    0.64
  -1   1   5   20.23    0.64
   1   1  -5   23.85    0.57
   0  -1   5    5.18    0.35
   0   1   5    4.93    0.35
   1  -1   5    4.45    0.36
   1   1   5    5.37    0.40
   2  -1   5    1.12    0.39
   2   1   5    1.60    0.34
   3  -1   5    0.49    0.35
   3   1   5    0.43    0.35
   4  -1   5    0.54    0.40
   4   1   5   -0.15    0.40
   5  -1   5    0.94    0.53
   5   1   5    1.41    0.53
   8  -2  -5    1.08    0.48
   8   2  -5    0.79    0.42
   7  -2  -5    0.87    0.37
   7   2  -5    0.08    0.33
  -7   2   5    0.73    0.21
   6  -2  -5    2.27    0.37
  -6   2   5    1.87    0.23
   6   2  -5    1.41    0.29
   5  -2  -5    3.90    0.39
  -5   2   5    4.23    0.31
   5   2  -5    3.88    0.33
   4  -2  -5    8.83    0.53
  -4  -2   5    8.79    0.36
   4   2  -5    8.61    0.44
  -4   2   5    9.43    0.41
   4   2  -5    9.49    0.35
  -3  -2   5    1.58    0.21
   3   2  -5    1.83    0.22
   3   2  -5    1.83    0.18
  -3   2   5    1.40    0.23
  -2  -2   5   36.90    0.84
  -2   2   5   37.09    0.87
   2   2  -5   37.30    0.80
   2   2  -5   38.27    0.81
  -1  -2   5   69.44    1.36
  -1   2   5   70.06    1.39
   1   2  -5   68.80    1.33
   0  -2   5   12.58    0.50
   0   2  -5   11.41    0.42
   0   2   5   11.84    0.53
   1  -2   5    5.52    0.38
   1   2   5    6.42    0.42
   2  -2   5    5.03    0.40
   2   2   5    5.13    0.42
   3  -2   5    1.51    0.36
   3   2   5    1.74    0.39
   4  -2   5    2.89    0.47
   4   2   5    3.68    0.51
   5  -2   5    1.92    0.54
   8  -3  -5    2.00    0.51
  -8   3   5    2.30    0.36
   7  -3  -5    1.09    0.42
   7   3  -5    0.80    0.32
  -7   3   5    0.30    0.22
   6  -3  -5   14.66    0.72
  -6   3   5   14.48    0.55
   6   3  -5   13.80    0.63
   5  -3  -5   10.32    0.61
   5   3  -5   10.35    0.50
  -5   3   5   10.58    0.46
   4  -3  -5    6.65    0.44
  -4  -3   5    6.89    0.33
  -4   3   5    6.52    0.38
   4   3  -5    6.99    0.34
   4   3  -5    6.65    0.40
  -3  -3   5    2.19    0.22
  -3   3   5    2.14    0.25
   3   3  -5    2.34    0.22
   3   3  -5    2.33    0.23
  -2  -3   5   12.78    0.46
  -2   3   5   12.39    0.51
   2   3  -5   13.18    0.42
   2   3  -5   12.15    0.42
  -1  -3   5    2.80    0.28
  -1   3   5    2.13    0.30
   1   3  -5    2.21    0.22
   0  -3   5    9.19    0.46
   0   3  -5    8.89    0.38
   0   3   5    8.98    0.51
   1  -3   5    1.62    0.29
   1   3   5    2.08    0.33
  -1   3  -5    1.84    0.23
   2  -3   5    3.07    0.35
   2   3   5    2.73    0.38
   3  -3   5    5.06    0.47
   3   3   5    4.36    0.45
   4  -3   5    1.33    0.45
   5   3   5    0.29    0.38
   8  -4  -5    0.07    0.49
   7  -4  -5    5.10    0.55
   7   4  -5    3.77    0.43
  -7   4   5    4.55    0.40
   6  -4  -5    9.64    0.58
  -6   4   5    9.37    0.48
   6   4  -5    9.08    0.56
   5  -4  -5   20.93    0.81
  -5   4   5   21.44    0.65
   5   4  -5   22.80    0.68
   4   4  -5   31.41    0.76
  -4   4   5   30.11    0.78
   4   4  -5   31.57    0.77
  -3  -4   5    5.91    0.35
   3   4  -5    5.66    0.35
   3   4  -5    6.13    0.36
  -3   4   5    6.12    0.38
  -2  -4   5    1.79    0.24
   2   4  -5    1.54    0.20
  -2   4   5    1.31    0.17
  -2   4   5    1.40    0.26
   2   4  -5    1.62    0.22
  -1  -4   5   14.04    0.53
  -1   4   5   16.59    0.61
   1   4  -5   16.12    0.51
   0  -4   5   -0.10    0.22
   0   4   5    0.04    0.26
   0   4  -5    0.12    0.16
   1  -4   5    6.68    0.42
   1   4   5    7.38    0.47
  -1   4  -5    7.09    0.39
   2  -4   5    6.18    0.44
   2   4   5    7.12    0.47
   3  -4   5    3.48    0.42
   3   4   5    2.48    0.42
   4  -4   5    6.81    0.60
   4   4   5    6.03    0.51
   7  -5  -5    1.16    0.48
  -7   5   5    0.73    0.29
   7   5  -5    0.32    0.34
   6   5  -5    3.66    0.37
  -6   5   5    4.22    0.38
  -5   5   5    2.39    0.30
   5   5  -5    1.84    0.28
  -4   5   5   34.41    0.87
   4   5  -5   33.66    0.84
   4   5  -5   34.59    0.82
   3   5  -5    8.90    0.41
   3   5  -5    9.66    0.45
  -3   5   5    9.78    0.48
  -2  -5   5    9.03    0.43
   2   5  -5    8.40    0.43
  -2   5   5    8.97    0.49
   2   5  -5    8.44    0.37
  -2   5   5    8.84    0.37
  -1  -5   5    4.78    0.34
  -1   5   5    4.60    0.30
  -1   5   5    4.59    0.37
   1   5  -5    3.88    0.32
   0  -5   5   18.15    0.62
   0   5   5   18.92    0.68
   0   5   5   20.21    0.61
   0   5  -5   18.71    0.60
   1  -5   5    2.89    0.33
  -1   5  -5    2.22    0.27
   1   5   5    2.45    0.29
   1   5   5    2.84    0.36
   2  -5   5   -0.02    0.29
   2   5   5    0.23    0.34
   2   5   5    0.02    0.21
  -2   5  -5    0.08    0.18
   3   5   5    0.18    0.27
   4   5   5    1.88    0.41
  -7   6   5    4.67    0.47
   7   6  -5    3.85    0.47
  -6   6   5    0.78    0.25
   6   6  -5    0.42    0.30
   5   6  -5    8.25    0.50
  -5   6   5    7.83    0.50
   5   6  -5    8.13    0.50
   4   6  -5   -0.25    0.19
   4   6  -5    0.14    0.21
  -4   6   5   -0.14    0.21
   3   6  -5    1.52    0.21
   3   6  -5    1.26    0.24
  -3   6   5    1.35    0.27
  -2   6   5    2.94    0.32
  -2   6   5    3.16    0.27
   2   6  -5    2.95    0.30
  -1  -6   5    4.94    0.34
  -1   6   5    4.11    0.32
  -1   6   5    5.33    0.39
   1   6  -5    5.33    0.38
   0  -6   5    0.65    0.24
   0   6   5    0.67    0.28
   0   6  -5    0.52    0.19
   0   6   5    0.43    0.21
   1  -6   5   33.96    0.90
  -1   6  -5   33.99    0.91
   1   6   5   33.54    0.90
   1   6   5   32.43    0.91
  -2   6  -5    3.51    0.35
   2   6   5    3.34    0.37
   3   6   5    2.14    0.37
   4   6   5   -0.62    0.56
  -6   7   5    2.34    0.35
   6   7  -5    1.67    0.36
   5   7  -5    8.50    0.52
  -5   7   5    8.51    0.53
   5   7  -5    7.86    0.47
  -4   7   5    1.81    0.31
   4   7  -5    1.45    0.25
   4   7  -5    1.68    0.29
  -3   7   5    1.63    0.30
   3   7  -5    1.80    0.27
   2   7  -5    4.91    0.39
  -2   7   5    4.60    0.38
  -2   7   5    4.54    0.42
   1   7  -5    2.78    0.33
  -1   7   5    2.82    0.32
  -1   7   5    2.65    0.29
   0  -7   5   22.40    0.69
   0   7   5   23.27    0.72
   0   7   5   22.41    0.71
   0   7  -5   22.42    0.73
   1  -7   5    3.23    0.36
  -1   7  -5    3.60    0.35
   1   7   5    4.15    0.38
   2   7   5    1.80    0.34
  -2   7  -5    2.14    0.31
   3   7   5    3.03    0.43
  -3   7  -5    3.40    0.38
   6   8  -5    0.41    0.34
   5   8  -5    1.02    0.29
   5   8  -5    0.83    0.31
  -5   8   5    1.28    0.34
   4   8  -5    2.60    0.35
  -4   8   5    2.71    0.35
   3   8  -5    3.52    0.36
  -3   8   5    3.44    0.36
  -2   8   5    3.82    0.37
   2   8  -5    3.89    0.38
   1   8  -5    1.69    0.31
  -1   8   5    0.57    0.24
  -1   8   5    1.11    0.27
   0   8  -5    1.21    0.27
   0   8   5    0.79    0.26
   1  -8   5    0.80    0.30
  -1   8  -5    0.65    0.24
   1   8   5    0.32    0.29
   2   8   5   11.02    0.69
  -2   8  -5   11.75    0.63
  -3   8  -5    5.68    0.52
   5   9  -5    7.53    0.56
  -5   9   5    9.29    0.60
  -4   9   5    0.54    0.33
   4   9  -5    0.95    0.32
  -3   9   5    2.40    0.36
   3   9  -5    2.01    0.35
  -2   9   5   11.08    0.60
   2   9  -5   10.72    0.60
  -1   9   5   -0.09    0.22
   1   9  -5    0.20    0.25
   0   9   5    4.23    0.41
   0   9  -5    4.04    0.41
  -1   9  -5    0.95    0.30
   1   9   5    0.73    0.33
   2   9   5    0.31    0.35
  -2   9  -5    1.09    0.34
   4  10  -5    1.50    0.37
  -4  10   5    1.41    0.38
  -3  10   5    3.95    0.44
   3  10  -5    3.39    0.43
  -2  10   5    6.00    0.63
   2  10  -5    6.00    0.51
   1  10  -5    0.89    0.28
  -1  10   5    0.33    0.29
   0  10   5    4.31    0.46
   0  10  -5    5.13    0.49
  -1  10  -5    0.29    0.28
   1  10   5   -0.17    0.31
   0  11   5    0.14    0.35
   8   0  -6    0.20    0.53
   7   0  -6   -0.30    0.35
   6   0  -6    1.25    0.32
  -6   0   6    1.47    0.21
   5   0  -6    0.09    0.24
  -5   0   6   -0.01    0.16
   4   0  -6    0.61    0.26
  -4   0   6    0.60    0.22
   3   0  -6   30.74    0.81
  -3   0   6   29.91    0.79
  -2   0   6   10.51    0.52
  -1   0   6    9.83    0.52
   0   0   6    0.88    0.30
   1   0   6    0.23    0.30
   2   0   6   -0.08    0.35
   3   0   6   22.67    0.92
   4   0   6    1.74    0.55
   8  -1  -6    2.70    0.58
   7  -1  -6    3.57    0.46
   7   1  -6    3.03    0.43
  -7   1   6    3.44    0.32
   6  -1  -6    3.44    0.41
  -6   1   6    3.90    0.30
   6   1  -6    3.39    0.38
  -5  -1   6    1.15    0.20
   5  -1  -6    1.16    0.30
   5   1  -6    0.74    0.26
  -5   1   6    0.95    0.21
   4  -1  -6   17.53    0.65
  -4  -1   6   17.56    0.56
   4   1  -6   17.53    0.61
  -4   1   6   17.41    0.59
  -3  -1   6    6.90    0.40
   3   1  -6    6.04    0.31
  -3   1   6    6.14    0.40
   3   1  -6    5.86    0.38
  -2  -1   6    0.52    0.25
  -2   1   6    1.09    0.25
   2   1  -6    0.91    0.17
  -1  -1   6    6.08    0.40
  -1   1   6    6.45    0.43
   0  -1   6    5.41    0.41
   0   1   6    4.26    0.38
   1  -1   6   15.86    0.69
   1   1   6   15.76    0.70
   2  -1   6    0.85    0.35
   2   1   6    0.70    0.37
   3  -1   6    2.22    0.46
   3   1   6    1.39    0.46
   4  -1   6   12.14    0.78
   4   1   6   11.81    0.78
   8  -2  -6    5.11    0.82
   7  -2  -6    4.02    0.50
  -7   2   6    4.88    0.37
   7   2  -6    3.15    0.41
   6  -2  -6    2.20    0.40
   6   2  -6    1.74    0.33
  -6   2   6    1.83    0.25
   5  -2  -6    4.00    0.41
  -5   2   6    4.25    0.32
   5   2  -6    5.01    0.38
  -4  -2   6    3.59    0.29
   4  -2  -6    3.10    0.35
   4   2  -6    3.18    0.39
   4   2  -6    2.94    0.30
  -4   2   6    3.61    0.32
  -3  -2   6    0.16    0.21
  -3   2   6    0.45    0.23
   3   2  -6    0.20    0.14
   3   2  -6    0.37    0.22
  -2  -2   6    5.45    0.39
   2   2  -6    5.63    0.33
  -2   2   6    5.42    0.40
   2   2  -6    5.86    0.34
  -1  -2   6   34.99    0.91
   1   2  -6   36.65    0.85
  -1   2   6   35.67    0.93
   0  -2   6    7.04    0.45
   0   2   6    6.88    0.46
   1  -2   6   12.68    0.61
   1   2   6   13.97    0.67
   2  -2   6    1.15    0.36
   2   2   6    1.30    0.39
   3  -2   6    7.18    0.59
   3   2   6    6.35    0.57
   4  -2   6    3.82    0.58
   4   2   6    4.33    0.62
  -8   3   6    3.23    0.41
   7  -3  -6    0.39    0.44
   7   3  -6    0.71    0.38
  -7   3   6    0.60    0.25
   6  -3  -6    4.34    0.47
   6   3  -6    4.34    0.41
  -6   3   6    4.24    0.35
   5  -3  -6    0.09    0.32
   5   3  -6    0.09    0.23
  -5   3   6    0.08    0.19
  -4  -3   6    6.39    0.37
   4   3  -6    5.74    0.36
  -4   3   6    5.80    0.38
   4   3  -6    5.96    0.37
  -3  -3   6    3.88    0.32
  -3   3   6    3.96    0.35
   3   3  -6    3.96    0.31
   3   3  -6    4.83    0.31
  -2  -3   6   12.85    0.55
   2   3  -6   13.24    0.48
   2   3  -6   12.69    0.47
  -2   3   6   12.21    0.59
  -1  -3   6   32.71    0.87
   1   3  -6   33.25    0.82
  -1   3   6   33.88    0.90
   0  -3   6    5.30    0.41
   0   3  -6    5.34    0.37
   0   3   6    5.90    0.45
   1  -3   6    2.96    0.37
   1   3   6    3.86    0.41
   2  -3   6    1.28    0.34
   2   3   6    1.90    0.41
   3  -3   6    2.77    0.48
   3   3   6    2.19    0.49
   7  -4  -6    2.83    0.53
   7   4  -6    2.31    0.42
  -7   4   6    3.10    0.37
   6  -4  -6   25.56    0.97
  -6   4   6   26.80    0.80
   6   4  -6   26.45    0.85
   5   4  -6   15.81    0.61
  -5   4   6   15.88    0.60
  -4   4   6   14.69    0.58
   4   4  -6   15.56    0.56
   4   4  -6   14.76    0.54
  -3  -4   6   -0.01    0.21
  -3   4   6    0.13    0.24
   3   4  -6   -0.02    0.18
   3   4  -6    0.20    0.19
  -2  -4   6    2.62    0.30
  -2   4   6    1.51    0.30
   2   4  -6    1.88    0.24
  -1  -4   6    1.29    0.29
   1   4  -6    1.05    0.22
  -1   4   6    1.29    0.33
   0  -4   6    5.28    0.40
   0   4   6    5.77    0.45
   0   4  -6    5.10    0.37
   1  -4   6    3.22    0.38
   1   4   6    3.27    0.42
  -1   4  -6    3.73    0.34
   2  -4   6    4.58    0.45
   2   4   6    4.89    0.50
   3  -4   6    2.05    0.43
   3   4   6    1.71    0.55
  -7   5   6    3.56    0.42
   7   5  -6    2.58    0.42
  -6   5   6    4.06    0.41
   6   5  -6    3.04    0.38
  -5   5   6    1.16    0.27
   5   5  -6    1.12    0.26
   4   5  -6    2.16    0.28
   4   5  -6    1.90    0.27
  -4   5   6    2.04    0.30
   3   5  -6    6.12    0.40
   3   5  -6    6.61    0.42
  -3   5   6    7.58    0.47
  -2  -5   6    1.25    0.27
  -2   5   6    2.07    0.32
  -2   5   6    1.13    0.20
   2   5  -6    1.18    0.23
  -1  -5   6    1.87    0.30
   1   5  -6    1.87    0.27
  -1   5   6    1.99    0.34
  -1   5   6    2.01    0.26
   0  -5   6    3.27    0.36
   0   5   6    2.88    0.39
   0   5  -6    3.72    0.35
   1  -5   6    6.48    0.47
  -1   5  -6    5.13    0.41
   1   5   6    6.17    0.49
   2  -5   6    3.28    0.42
   2   5   6    3.63    0.46
   2   5   6    3.64    0.40
   3  -5   6    2.46    0.46
   3   5   6    2.86    0.41
   6   6  -6    1.18    0.34
  -6   6   6    2.32    0.35
   5   6  -6    4.43    0.37
  -5   6   6    5.45    0.44
  -4   6   6    0.62    0.28
   4   6  -6    0.05    0.22
   4   6  -6    0.30    0.21
  -3   6   6    3.25    0.35
   3   6  -6    3.01    0.32
  -2   6   6    3.49    0.37
   2   6  -6    3.73    0.35
  -2   6   6    4.78    0.41
  -1  -6   6    3.42    0.35
   1   6  -6    2.63    0.30
  -1   6   6    3.30    0.31
  -1   6   6    3.72    0.39
   0  -6   6   21.17    0.73
   0   6  -6   20.12    0.71
   0   6   6   20.95    0.77
   0   6   6   21.88    0.70
   1  -6   6    3.42    0.40
  -1   6  -6    3.20    0.35
   1   6   6    3.45    0.36
   1   6   6    3.80    0.43
   2  -6   6    0.64    0.36
  -2   6  -6    0.87    0.28
   2   6   6    0.58    0.30
   3  -6   6    0.52    0.42
   3   6   6    0.69    0.40
   6   7  -6   -0.15    0.32
  -6   7   6    0.10    0.28
  -5   7   6    1.50    0.35
   5   7  -6    1.13    0.30
   5   7  -6    1.98    0.34
  -4   7   6    0.21    0.29
   4   7  -6    0.42    0.25
  -3   7   6    2.34    0.35
   3   7  -6    2.17    0.30
   2   7  -6    3.61    0.37
  -2   7   6    4.24    0.40
  -1   7   6    1.28    0.26
  -1   7   6    1.88    0.34
   1   7  -6    1.91    0.31
   0  -7   6    2.34    0.34
   0   7   6    2.31    0.36
   0   7   6    1.49    0.29
   0   7  -6    2.15    0.31
   1  -7   6    0.84    0.33
  -1   7  -6    0.36    0.26
   1   7   6    0.46    0.29
   2  -7   6    4.78    0.52
   2   7   6    4.95    0.48
  -2   7  -6    4.76    0.47
   6   8  -6    2.61    0.43
  -5   8   6    9.39    0.63
   5   8  -6    9.03    0.61
  -4   8   6    2.73    0.39
   4   8  -6    2.18    0.35
  -3   8   6    3.77    0.42
   3   8  -6    3.47    0.38
  -2   8   6    2.21    0.36
   2   8  -6    2.52    0.36
  -1   8   6    0.98    0.26
  -1   8   6    1.28    0.33
   1   8  -6    1.17    0.29
   0   8  -6    2.36    0.33
   0   8   6    1.93    0.35
   1  -8   6    1.03    0.38
   1   8   6    1.05    0.36
  -1   8  -6    0.68    0.30
   2  -8   6    6.23    0.59
  -2   8  -6    5.49    0.57
   5   9  -6    3.97    0.44
  -4   9   6    1.90    0.40
   4   9  -6    0.92    0.35
  -3   9   6    0.73    0.35
   3   9  -6    0.61    0.31
  -2   9   6    8.59    0.54
   2   9  -6    7.99    0.56
   1   9  -6    0.55    0.30
  -1   9   6    0.41    0.30
   0   9   6    0.23    0.31
   0   9  -6    1.11    0.29
   1   9   6    0.83    0.37
   3  10  -6   15.65    0.89
   2  10  -6    9.91    0.73
   0  10   6    1.89    0.41
   7   0  -7   13.81    0.73
  -6   0   7    1.28    0.23
   6   0  -7    0.35    0.33
  -5   0   7    0.23    0.21
   5   0  -7   -0.42    0.27
   4   0  -7    3.20    0.37
  -4   0   7    3.43    0.33
  -3   0   7    0.09    0.25
  -2   0   7    2.02    0.33
  -1   0   7    1.59    0.33
   0   0   7    0.41    0.30
   1   0   7   -0.23    0.35
   2   0   7    0.90    0.45
   3   0   7    1.47    0.57
   7  -1  -7    0.71    0.44
  -7   1   7    0.72    0.26
   7   1  -7    0.92    0.37
   6  -1  -7   -0.17    0.32
   6   1  -7    0.13    0.29
  -6   1   7    0.43    0.20
   5  -1  -7    4.60    0.43
  -5  -1   7    4.91    0.34
   5   1  -7    4.54    0.40
  -5   1   7    4.62    0.35
  -4  -1   7    4.28    0.35
   4  -1  -7    3.56    0.40
   4   1  -7    3.70    0.37
  -4   1   7    4.04    0.37
  -3  -1   7    0.98    0.28
  -3   1   7    1.12    0.29
   3   1  -7    0.85    0.28
  -2  -1   7    8.24    0.50
  -2   1   7    7.23    0.47
  -1  -1   7    0.55    0.29
  -1   1   7    0.70    0.30
   0  -1   7    0.12    0.30
   0   1   7   -0.22    0.32
   1  -1   7    5.30    0.51
   1   1   7    5.48    0.52
   2  -1   7   -0.09    0.42
   2   1   7   -0.64    0.41
   3  -1   7    4.20    0.63
   3   1   7    3.25    0.61
   7  -2  -7    0.16    0.46
   7   2  -7    0.35    0.37
  -7   2   7    0.32    0.24
   6  -2  -7    0.52    0.37
  -6   2   7    0.73    0.23
   6   2  -7    1.00    0.34
   5  -2  -7    0.25    0.31
  -5   2   7    0.22    0.21
   5   2  -7   -0.10    0.25
  -4  -2   7    2.97    0.30
  -4   2   7    2.72    0.33
   4   2  -7    2.92    0.33
  -3  -2   7    0.54    0.26
  -3   2   7    0.62    0.28
   3   2  -7    0.60    0.25
   3   2  -7    0.77    0.19
  -2  -2   7   29.59    0.88
  -2   2   7   29.14    0.88
   2   2  -7   30.24    0.77
  -1  -2   7   21.82    0.76
  -1   2   7   21.76    0.79
   0  -2   7    7.42    0.50
   0   2   7    6.80    0.53
   1  -2   7    0.91    0.36
   1   2   7    0.31    0.38
   2  -2   7    0.64    0.43
   2   2   7    1.47    0.47
   3  -2   7   -0.28    0.49
   3   2   7   -1.47    0.52
   7  -3  -7    1.46    0.49
   7   3  -7    1.28    0.39
  -7   3   7    2.05    0.34
   6  -3  -7    8.68    0.62
   6   3  -7    7.74    0.51
  -6   3   7    9.13    0.52
  -5   3   7   20.28    0.68
   5   3  -7   19.94    0.70
  -4  -3   7   16.06    0.58
   4   3  -7   17.35    0.61
  -4   3   7   16.68    0.66
   4   3  -7   14.33    0.78
  -3  -3   7    1.22    0.27
   3   3  -7    1.47    0.23
   3   3  -7    1.99    0.29
  -3   3   7    1.64    0.32
  -2  -3   7    1.10    0.30
   2   3  -7    0.96    0.21
  -2   3   7    1.02    0.32
  -1  -3   7   12.67    0.64
  -1   3   7   11.07    0.65
   1   3  -7   11.96    0.52
   0  -3   7    1.58    0.35
   0   3   7    1.71    0.41
   1  -3   7    1.70    0.38
   1   3   7    1.29    0.42
   2  -3   7    0.00    0.36
   2   3   7   -0.02    0.44
   3   3   7    4.62    0.62
  -7   4   7    3.65    0.42
   7   4  -7    2.72    0.44
   6   4  -7   13.00    0.68
  -6   4   7   14.25    0.64
   5   4  -7   12.17    0.59
  -5   4   7   13.37    0.59
   4   4  -7   11.51    0.51
   4   4  -7   11.38    0.53
  -4   4   7   11.73    0.59
  -3  -4   7    1.59    0.30
   3   4  -7    1.50    0.25
  -3   4   7    1.80    0.34
  -2  -4   7    1.44    0.32
   2   4  -7    1.93    0.27
  -2   4   7    2.39    0.39
  -1  -4   7    6.06    0.45
  -1   4   7    5.53    0.49
   1   4  -7    5.17    0.39
   0  -4   7    5.27    0.46
   0   4  -7    5.92    0.43
   0   4   7    6.02    0.50
   1  -4   7    1.34    0.38
   1   4   7    0.91    0.42
   2  -4   7    2.43    0.48
   2   4   7    1.86    0.51
   6   5  -7   -0.24    0.31
  -6   5   7    0.57    0.31
  -5   5   7    5.77    0.45
   5   5  -7    5.52    0.43
   4   5  -7    3.06    0.38
   4   5  -7    2.73    0.31
  -4   5   7    3.18    0.37
   3   5  -7    5.32    0.38
  -3   5   7    4.40    0.44
  -2  -5   7    7.06    0.46
   2   5  -7    6.16    0.43
  -2   5   7    6.37    0.49
  -2   5   7    5.46    0.50
  -1  -5   7    1.77    0.34
   1   5  -7    1.79    0.28
  -1   5   7    1.75    0.39
   0  -5   7   14.77    0.74
   0   5  -7   15.41    0.65
   0   5   7   15.94    0.78
   1  -5   7    9.49    0.61
   1   5   7    9.56    0.62
  -1   5  -7    8.30    0.54
   2  -5   7    1.16    0.44
   2   5   7    1.54    0.52
   2   5   7    1.52    0.35
  -6   6   7   -0.23    0.29
   6   6  -7    0.07    0.32
  -5   6   7    5.15    0.49
   5   6  -7    4.09    0.41
   4   6  -7    5.53    0.41
  -4   6   7    7.23    0.51
   3   6  -7    4.30    0.38
  -3   6   7    5.56    0.47
   2   6  -7    1.02    0.26
  -2   6   7    1.53    0.35
  -1  -6   7    7.09    0.49
   1   6  -7    6.13    0.47
  -1   6   7    5.59    0.40
  -1   6   7    6.35    0.50
   0  -6   7    3.21    0.42
   0   6   7    2.92    0.35
   0   6  -7    3.14    0.37
   0   6   7    3.50    0.46
   1  -6   7    6.00    0.55
   1   6   7    6.06    0.54
  -1   6  -7    5.36    0.47
   1   6   7    4.96    0.45
   2  -6   7    1.39    0.48
   6   7  -7    0.55    0.39
  -5   7   7    1.70    0.40
   4   7  -7    0.92    0.30
  -4   7   7    0.72    0.35
  -3   7   7    2.58    0.40
   3   7  -7    2.33    0.33
   2   7  -7    3.73    0.39
  -2   7   7    5.60    0.48
  -1   7   7    2.02    0.32
  -1   7   7    3.31    0.43
   1   7  -7    3.16    0.38
   0  -7   7    3.48    0.45
   0   7  -7    3.97    0.42
   0   7   7    4.24    0.44
   0   7   7    3.64    0.47
   1  -7   7    1.44    0.47
   1   7   7    1.29    0.37
  -1   7  -7    1.99    0.36
  -4   8   7    1.35    0.42
   4   8  -7    0.64    0.33
  -3   8   7    0.69    0.35
   3   8  -7    0.51    0.30
  -2   8   7    1.13    0.36
   2   8  -7    0.81    0.32
  -1   8   7    2.99    0.43
  -1   8   7    4.13    0.46
   1   8  -7    3.29    0.42
   0   8  -7    3.03    0.41
   0   8   7    3.14    0.42
   1  -8   7    0.71    0.50
   4   9  -7    0.45    0.32
   3   9  -7    0.44    0.33
  -3   9   7    1.01    0.40
   2   9  -7    0.40    0.34
  -2   9   7    1.45    0.40
   0   9   7    2.96    0.50
   7   0  -8   -0.13    0.40
  -6   0   8    0.11    0.22
   6   0  -8   -0.29    0.34
  -5   0   8    1.76    0.29
   5   0  -8    1.46    0.36
  -4   0   8    4.18    0.38
  -3   0   8    1.13    0.32
  -2   0   8    4.13    0.43
  -1   0   8    0.34    0.35
   0   0   8    8.81    0.62
   1   0   8    3.60    0.56
   2   0   8   -0.23    0.53
   7  -1  -8    1.69    0.48
   7   1  -8    0.95    0.43
  -7   1   8    1.70    0.35
   6  -1  -8    0.50    0.37
  -6   1   8    0.16    0.22
   6   1  -8    0.03    0.34
   5  -1  -8    1.69    0.39
  -5  -1   8    1.81    0.29
   5   1  -8    1.87    0.37
  -5   1   8    2.36    0.33
  -4  -1   8    7.55    0.48
  -4   1   8    8.34    0.51
   4   1  -8    7.92    0.51
  -3  -1   8    5.42    0.46
  -3   1   8    5.26    0.47
  -2  -1   8   -0.36    0.29
  -2   1   8    0.16    0.30
  -1  -1   8    0.28    0.33
  -1   1   8   -0.06    0.32
   0  -1   8    5.50    0.51
   0   1   8    5.85    0.55
   1  -1   8    7.39    0.63
   1   1   8    7.97    0.65
   2  -1   8    0.64    0.55
   2   1   8    1.33    0.57
   7   2  -8    1.83    0.43
  -7   2   8    2.46    0.34
   6  -2  -8    0.59    0.38
  -6   2   8    0.32    0.25
   6   2  -8   -0.23    0.33
  -5   2   8    5.62    0.44
   5   2  -8    6.13    0.48
  -4  -2   8    6.72    0.45
   4   2  -8    6.00    0.46
  -4   2   8    5.86    0.47
  -3  -2   8    0.20    0.28
  -3   2   8    0.40    0.31
  -2  -2   8    6.57    0.52
  -2   2   8    5.86    0.50
  -1  -2   8    1.07    0.38
  -1   2   8    1.63    0.41
   0  -2   8    1.87    0.42
   0   2   8    2.58    0.48
   1  -2   8    1.16    0.42
   1   2   8    0.73    0.47
   2   2   8    1.01    0.55
  -7   3   8    3.30    0.41
  -6   3   8    0.68    0.30
   6   3  -8    0.54    0.34
   5   3  -8    6.43    0.49
  -5   3   8    8.16    0.51
  -4  -3   8    4.38    0.46
   4   3  -8    4.54    0.42
  -4   3   8    4.35    0.44
  -3  -3   8    0.81    0.29
  -3   3   8    2.25    0.38
   3   3  -8    1.46    0.27
  -2  -3   8    9.94    0.60
  -2   3   8    9.62    0.62
   2   3  -8    8.65    0.49
  -1  -3   8   16.11    0.77
  -1   3   8   16.43    0.80
   0  -3   8    3.07    0.46
   0   3   8    2.93    0.49
   1  -3   8    2.66    0.51
   1   3   8    2.36    0.55
   2   3   8    0.39    0.54
   6   4  -8    9.20    0.59
  -6   4   8    8.87    0.57
   5   4  -8    2.17    0.36
  -5   4   8    2.83    0.39
  -4   4   8    8.05    0.55
  -3  -4   8    0.78    0.32
   3   4  -8    0.78    0.23
  -3   4   8    0.97    0.36
  -2  -4   8    7.02    0.53
   2   4  -8    7.42    0.49
  -2   4   8    8.38    0.59
  -1  -4   8    4.78    0.49
  -1   4   8    4.59    0.51
   1   4  -8    4.41    0.40
   0  -4   8    1.42    0.43
   0   4   8    1.89    0.46
   1  -4   8    1.40    0.45
   1   4   8    2.12    0.54
   2   4   8    2.39    0.59
   6   5  -8   13.29    0.76
  -6   5   8   12.37    1.06
  -5   5   8    0.72    0.32
  -4   5   8    0.32    0.33
   4   5  -8    0.34    0.25
  -3   5   8    0.99    0.38
   3   5  -8    1.19    0.29
  -2  -5   8    1.13    0.37
  -2   5   8    1.98    0.42
   2   5  -8    1.81    0.31
  -1  -5   8    1.04    0.39
   1   5  -8    1.09    0.30
  -1   5   8    1.27    0.43
   0  -5   8    7.80    0.62
   0   5   8    9.44    0.66
   0   5  -8    7.76    0.56
   1  -5   8    0.35    0.45
   1   5   8    1.54    0.53
  -5   6   8    0.91    0.36
  -4   6   8    2.69    0.45
   4   6  -8    1.71    0.32
  -3   6   8    3.57    0.48
   3   6  -8    3.19    0.37
   2   6  -8    3.26    0.38
  -2   6   8    2.48    0.46
  -1  -6   8    0.14    0.40
  -1   6   8    1.04    0.43
   1   6  -8    0.48    0.29
  -1   6   8    0.98    0.29
   0  -6   8    4.22    0.53
   0   6   8    3.42    0.55
   0   6   8    3.39    0.41
   0   6  -8    3.86    0.44
   1   6   8    3.14    0.54
   4   7  -8    1.35    0.34
  -4   7   8    1.54    0.42
  -3   7   8    2.11    0.44
   3   7  -8    1.61    0.34
  -2   7   8    0.87    0.42
   2   7  -8    0.39    0.31
   1   7  -8    7.02    0.56
  -1   7   8    5.05    0.59
  -1   7   8    7.21    0.59
   0  -7   8    1.47    0.53
   0   7   8    1.99    0.42
   0   7   8    2.36    0.49
   4   8  -8    0.23    0.30
   3   8  -8    0.88    0.32
  -2   8   8    1.16    0.42
  -1   8   8    0.78    0.41
   6   0  -9    0.37    0.39
  -6   0   9    0.15    0.29
  -5   0   9    0.27    0.30
  -4   0   9    1.04    0.33
  -3   0   9   -0.33    0.32
  -2   0   9    0.01    0.34
  -1   0   9    0.78    0.41
   0   0   9   -0.38    0.43
  -6   1   9    0.29    0.30
   6   1  -9    0.52    0.41
  -5  -1   9    1.03    0.31
   5   1  -9    1.37    0.41
  -5   1   9    1.44    0.35
  -4  -1   9    1.57    0.35
  -4   1   9    1.38    0.36
  -3  -1   9    1.23    0.37
  -3   1   9    1.88    0.42
  -2  -1   9    9.17    0.63
  -2   1   9    8.75    0.61
  -1  -1   9    0.11    0.43
  -1   1   9   -0.23    0.36
   0  -1   9    0.90    0.45
   0   1   9   -0.02    0.49
   6   2  -9    2.17    0.47
  -6   2   9    2.34    0.38
   5   2  -9    8.12    0.58
  -5   2   9    7.55    0.56
  -4  -2   9    3.11    0.39
  -4   2   9    2.99    0.45
  -3  -2   9    1.51    0.39
  -3   2   9    1.66    0.41
  -2  -2   9    3.86    0.49
  -2   2   9    4.97    0.54
  -1  -2   9    0.50    0.44
  -1   2   9    1.05    0.46
   0  -2   9    1.59    0.48
   0   2   9    1.96    0.55
   6   3  -9    2.04    0.47
  -6   3   9    2.69    0.47
   5   3  -9   15.93    0.81
  -5   3   9   15.56    0.79
  -4   3   9    4.33    0.49
  -3  -3   9    6.07    0.51
  -3   3   9    6.13    0.55
  -2  -3   9    6.87    0.60
  -2   3   9    8.71    0.65
  -1  -3   9   10.64    0.73
  -1   3   9   11.78    0.77
   0  -3   9    0.56    0.45
   0   3   9    0.44    0.52
   6   4  -9    7.32    0.62
  -5   4   9    2.29    0.42
  -4   4   9    0.45    0.37
  -3  -4   9    1.17    0.64
   3   4  -9    0.63    0.28
  -3   4   9    1.53    0.44
  -2  -4   9    2.88    0.49
  -2   4   9    2.30    0.51
  -1  -4   9    5.20    0.59
  -1   4   9    5.78    0.62
  -4   5   9    0.86    0.43
   3   5  -9    0.19    0.28
  -3   5   9    0.93    0.45
  -2  -5   9    0.94    0.50
  -2   5   9    1.60    0.47
   2   5  -9    1.45    0.35
  -1  -5   9    5.18    0.59
  -1   5   9    3.99    0.60
   3   6  -9    3.72    0.42
   2   6  -9    4.06    0.49
  -1  -6   9    0.42    0.52
  -5   0  10   -0.14    0.37
  -4   0  10    1.41    0.44
  -3   0  10    2.40    0.48
  -2   0  10    2.25    0.56
  -5  -1  10    1.74    0.45
  -4  -1  10    0.35    0.40
  -4   1  10    1.24    0.41
  -3  -1  10    2.06    0.49
  -3   1  10    2.46    0.51
  -2  -1  10   -0.01    0.42
  -4  -2  10    2.71    0.48
  -3  -2  10    0.97    0.45
  -2  -2  10    0.93    0.46
  -3  -3  10    0.38    0.45
  -2  -3  10    3.92    0.68
   0   0   0    0.00    0.00
;
_shelx_hkl_checksum              33919
loop_
_space_group_symop_operation_xyz
'x, y, z'
'-x, y+1/2, -z'
loop_
_atom_site_label
_atom_site_type_symbol
_atom_site_fract_x
_atom_site_fract_y
_atom_site_fract_z
_atom_site_U_iso_or_equiv
_atom_site_adp_type
_atom_site_occupancy
_atom_site_site_symmetry_order
_atom_site_calc_flag
_atom_site_refinement_flags_posn
_atom_site_refinement_flags_adp
O1 O 0.0296(2) 0.47547(15) 0.1820(2) 0.0221(4) Uani 1 1 d . .
C1 C 0.1956(4) 0.3869(2) 0.2363(3) 0.0166(5) Uani 1 1 d . .
C2 C 0.1591(4) 0.2449(2) 0.2702(3) 0.0187(5) Uani 1 1 d . .
H2 H 0.0084 0.2143 0.2472 0.022 Uiso 1 1 calc R U
C3 C 0.3347(4) 0.1515(2) 0.3349(3) 0.0196(5) Uani 1 1 d . .
H3 H 0.3027 0.0581 0.3561 0.024 Uiso 1 1 calc R U
C4 C 0.5607(4) 0.1904(2) 0.3706(3) 0.0194(5) Uani 1 1 d . .
H4 H 0.6819 0.1256 0.4195 0.023 Uiso 1 1 calc R U
C5 C 0.6021(4) 0.3246(2) 0.3330(3) 0.0169(5) Uani 1 1 d . .
H5 H 0.7540 0.3518 0.3545 0.020 Uiso 1 1 calc R U
C6 C 0.4265(4) 0.4225(2) 0.2637(3) 0.0150(4) Uani 1 1 d . .
C7 C 0.4753(3) 0.5616(2) 0.2184(3) 0.0154(5) Uani 1 1 d . .
N1 N 0.6801(3) 0.6098(2) 0.2364(3) 0.0162(4) Uani 1 1 d . .
C8 C 0.6538(3) 0.7491(2) 0.1496(3) 0.0167(5) Uani 1 1 d . .
H8 H 0.6458 0.7396 0.0197 0.020 Uiso 1 1 calc R U
C9 C 0.4183(4) 0.7927(2) 0.1463(3) 0.0200(5) Uani 1 1 d . .
H9 H 0.4329 0.8508 0.2549 0.024 Uiso 1 1 calc R U
H9A H 0.3287 0.8436 0.0312 0.024 Uiso 1 1 calc R U
N2 N 0.3165(3) 0.65787(19) 0.1537(3) 0.0180(4) Uani 1 1 d . .
H2N H 0.183(5) 0.635(3) 0.150(4) 0.031(7) Uiso 1 1 d . .
C10 C 0.8447(4) 0.8478(2) 0.2561(3) 0.0214(5) Uani 1 1 d . .
H10 H 0.8444 0.8631 0.3801 0.032 Uiso 1 1 calc R U
H10A H 0.8220 0.9366 0.1900 0.032 Uiso 1 1 calc R U
H10B H 0.9912 0.8077 0.2669 0.032 Uiso 1 1 calc R U
H1N H 0.784(4) 0.557(3) 0.234(3) 0.018(6) Uiso 1 1 d . .
loop_
_atom_site_aniso_label
_atom_site_aniso_U_11
_atom_site_aniso_U_22
_atom_site_aniso_U_33
_atom_site_aniso_U_23
_atom_site_aniso_U_13
_atom_site_aniso_U_12
O1 0.0167(7) 0.0179(9) 0.0338(9) 0.0016(7) 0.0119(7) 0.0026(7)
C1 0.0186(10) 0.0172(12) 0.0166(11) -0.0015(9) 0.0097(9) 0.0012(9)
C2 0.0197(10) 0.0195(12) 0.0197(11) -0.0015(9) 0.0109(9) -0.0032(10)
C3 0.0302(12) 0.0138(12) 0.0186(12) -0.0007(9) 0.0135(10) 0.0001(10)
C4 0.0226(11) 0.0176(12) 0.0167(12) 0.0018(8) 0.0060(10) 0.0059(9)
C5 0.0164(10) 0.0194(12) 0.0138(11) -0.0012(9) 0.0045(8) 0.0012(9)
C6 0.0172(10) 0.0147(10) 0.0130(10) -0.0020(8) 0.0059(8) -0.0004(8)
C7 0.0169(10) 0.0166(11) 0.0133(11) -0.0020(9) 0.0063(9) 0.0023(9)
N1 0.0153(9) 0.0144(9) 0.0199(9) 0.0013(7) 0.0079(8) 0.0020(8)
C8 0.0190(11) 0.0140(11) 0.0167(11) 0.0019(9) 0.0063(9) 0.0019(9)
C9 0.0200(11) 0.0155(12) 0.0248(12) 0.0020(9) 0.0089(10) 0.0022(9)
N2 0.0161(9) 0.0152(10) 0.0236(11) 0.0014(8) 0.0087(8) 0.0008(8)
C10 0.0206(12) 0.0176(12) 0.0250(12) -0.0005(10) 0.0078(10) -0.0021(10)
loop_
_atom_type_symbol
_atom_type_description
_atom_type_scat_dispersion_real
_atom_type_scat_dispersion_imag
_atom_type_scat_source
C C 0.0033 0.0016 'International Tables Vol C Tables 4.2.6.8 and 6.1.1.4'
H H 0.0000 0.0000 'International Tables Vol C Tables 4.2.6.8 and 6.1.1.4'
N N 0.0061 0.0033 'International Tables Vol C Tables 4.2.6.8 and 6.1.1.4'
O O 0.0106 0.0060 'International Tables Vol C Tables 4.2.6.8 and 6.1.1.4'
loop_
_geom_angle_atom_site_label_1
_geom_angle_atom_site_label_2
_geom_angle_atom_site_label_3
_geom_angle
O1 C1 C2 121.49(19)
O1 C1 C6 123.15(19)
C2 C1 C6 115.35(19)
C3 C2 C1 122.1(2)
C3 C2 H2 119.0
C1 C2 H2 119.0
C2 C3 C4 121.5(2)
C2 C3 H3 119.2
C4 C3 H3 119.2
C5 C4 C3 118.3(2)
C5 C4 H4 120.9
C3 C4 H4 120.9
C4 C5 C6 121.8(2)
C4 C5 H5 119.1
C6 C5 H5 119.1
C5 C6 C1 120.78(19)
C5 C6 C7 120.27(18)
C1 C6 C7 118.95(18)
N2 C7 N1 111.5(2)
N2 C7 C6 122.70(18)
N1 C7 C6 125.8(2)
C7 N1 C8 109.35(18)
C7 N1 H1N 121.9(17)
C8 N1 H1N 119.4(17)
N1 C8 C10 113.01(18)
N1 C8 C9 101.14(16)
C10 C8 C9 113.87(18)
N1 C8 H8 109.5
C10 C8 H8 109.5
C9 C8 H8 109.5
N2 C9 C8 101.37(17)
N2 C9 H9 111.5
C8 C9 H9 111.5
N2 C9 H9A 111.5
C8 C9 H9A 111.5
H9 C9 H9A 109.3
C7 N2 C9 110.81(16)
C7 N2 H2N 115.5(19)
C9 N2 H2N 132(2)
C8 C10 H10 109.5
C8 C10 H10A 109.5
H10 C10 H10A 109.5
C8 C10 H10B 109.5
H10 C10 H10B 109.5
H10A C10 H10B 109.5
loop_
_geom_bond_atom_site_label_1
_geom_bond_atom_site_label_2
_geom_bond_distance
O1 C1 1.295(3)
C1 C2 1.429(3)
C1 C6 1.439(3)
C2 C3 1.369(3)
C2 H2 0.9500
C3 C4 1.403(3)
C3 H3 0.9500
C4 C5 1.373(3)
C4 H4 0.9500
C5 C6 1.401(3)
C5 H5 0.9500
C6 C7 1.450(3)
C7 N2 1.319(3)
C7 N1 1.336(3)
N1 C8 1.483(3)
N1 H1N 0.84(3)
C8 C10 1.514(3)
C8 C9 1.543(3)
C8 H8 1.0000
C9 N2 1.461(3)
C9 H9 0.9900
C9 H9A 0.9900
N2 H2N 0.86(3)
C10 H10 0.9800
C10 H10A 0.9800
C10 H10B 0.9800
loop_
_geom_hbond_atom_site_label_D
_geom_hbond_atom_site_label_H
_geom_hbond_atom_site_label_A
_geom_hbond_distance_DH
_geom_hbond_distance_HA
_geom_hbond_distance_DA
_geom_hbond_angle_DHA
_geom_hbond_site_symmetry_A
N2 H2N O1 0.86(3) 1.89(3) 2.599(2) 139(3) .
N1 H1N O1 0.84(3) 1.92(2) 2.737(2) 164(2) 1_655
loop_
_geom_torsion_atom_site_label_1
_geom_torsion_atom_site_label_2
_geom_torsion_atom_site_label_3
_geom_torsion_atom_site_label_4
_geom_torsion
O1 C1 C2 C3 -177.3(2)
C6 C1 C2 C3 3.7(3)
C1 C2 C3 C4 -0.3(3)
C2 C3 C4 C5 -2.2(3)
C3 C4 C5 C6 1.1(3)
C4 C5 C6 C1 2.5(3)
C4 C5 C6 C7 -177.4(2)
O1 C1 C6 C5 176.3(2)
C2 C1 C6 C5 -4.8(3)
O1 C1 C6 C7 -3.8(3)
C2 C1 C6 C7 175.20(19)
C5 C6 C7 N2 -179.7(2)
C1 C6 C7 N2 0.4(3)
C5 C6 C7 N1 -0.1(3)
C1 C6 C7 N1 179.97(19)
N2 C7 N1 C8 -8.8(2)
C6 C7 N1 C8 171.57(19)
C7 N1 C8 C10 142.43(19)
C7 N1 C8 C9 20.3(2)
N1 C8 C9 N2 -23.0(2)
C10 C8 C9 N2 -144.49(19)
N1 C7 N2 C9 -8.0(2)
C6 C7 N2 C9 171.63(19)
C8 C9 N2 C7 20.1(2)
