#------------------------------------------------------------------------------
#$Date: 2019-05-24 11:59:36 +0300 (Fri, 24 May 2019) $
#$Revision: 215481 $
#$URL: file:///home/coder/svn-repositories/cod/cif/1/55/11/1551123.cif $
#------------------------------------------------------------------------------
#
# This file is available in the Crystallography Open Database (COD),
# http://www.crystallography.net/
#
# All data on this site have been placed in the public domain by the
# contributors.
#
data_1551123
loop_
_publ_author_name
'Anna Worthy'
'Arnaud Grosjean'
'Michael C. Pfrunder'
'Yanan Xu'
'Cheng Yan'
'Grant Edwards'
'Jack K. Clegg'
'John C. McMurtrie'
_publ_section_title
;
 Atomic resolution of structural changes in elastic crystals of copper(II)
 acetylacetonate
;
_journal_name_full               'Nature Chemistry'
_journal_page_first              65
_journal_page_last               69
_journal_paper_doi               10.1038/nchem.2848
_journal_volume                  10
_journal_year                    2018
_chemical_formula_moiety         'C10 H14 Cu O4'
_chemical_formula_sum            'C10 H14 Cu O4'
_chemical_formula_weight         261.75
_space_group_crystal_system      monoclinic
_space_group_IT_number           14
_space_group_name_Hall           '-P 2yn'
_space_group_name_H-M_alt        'P 1 21/n 1'
_symmetry_space_group_name_Hall  '-P 2yn'
_symmetry_space_group_name_H-M   'P 1 21/n 1'
_atom_sites_solution_hydrogens   geom
_cell_angle_alpha                90
_cell_angle_beta                 92.46(3)
_cell_angle_gamma                90
_cell_formula_units_Z            2
_cell_length_a                   10.271(2)
_cell_length_b                   4.6540(9)
_cell_length_c                   11.269(2)
_cell_measurement_reflns_used    281
_cell_measurement_temperature    100(2)
_cell_measurement_theta_max      29.528
_cell_measurement_theta_min      9.676
_cell_volume                     538.18(18)
_computing_cell_refinement       'XDS (Kabsch, 1993)'
_computing_data_collection       'BluIce (McPhillips, 2002)'
_computing_data_reduction        'XDS (Kabsch, 1993)'
_computing_molecular_graphics    'Olex2 (Dolomanov et al., 2009)'
_computing_publication_material  'Olex2 (Dolomanov et al., 2009)'
_computing_structure_refinement  'ShelXL (Sheldrick, 2015)'
_computing_structure_solution    'Known Structure'
_diffrn_ambient_temperature      100(2)
_diffrn_measured_fraction_theta_full 0.185
_diffrn_measured_fraction_theta_max 0.187
_diffrn_measurement_device_type  'ADSC Quantum 315r'
_diffrn_measurement_method       'Phi Scan'
_diffrn_radiation_monochromator  'Silicon Double Crystal'
_diffrn_radiation_type           Synchrotron
_diffrn_radiation_wavelength     0.7108
_diffrn_reflns_av_unetI/netI     0.0212
_diffrn_reflns_Laue_measured_fraction_full 0.185
_diffrn_reflns_Laue_measured_fraction_max 0.187
_diffrn_reflns_number            281
_diffrn_reflns_point_group_measured_fraction_full 0.185
_diffrn_reflns_point_group_measured_fraction_max 0.187
_diffrn_reflns_theta_full        26.000
_diffrn_reflns_theta_max         29.528
_diffrn_reflns_theta_min         9.676
_diffrn_source                   Synchrotron
_exptl_absorpt_coefficient_mu    2.019
_exptl_absorpt_correction_type   multi-scan
_exptl_absorpt_process_details   'XDS (Kabsch, 1993)'
_exptl_crystal_colour            'dark blue'
_exptl_crystal_colour_lustre     .
_exptl_crystal_colour_modifier   dark
_exptl_crystal_colour_primary    blue
_exptl_crystal_density_diffrn    1.615
_exptl_crystal_description       needle
_exptl_crystal_F_000             270
_exptl_crystal_size_max          1
_exptl_crystal_size_mid          0.05
_exptl_crystal_size_min          0.05
_refine_diff_density_max         0.377
_refine_diff_density_min         -0.454
_refine_diff_density_rms         0.059
_refine_ls_extinction_coef       .
_refine_ls_extinction_method     none
_refine_ls_goodness_of_fit_ref   1.126
_refine_ls_hydrogen_treatment    constr
_refine_ls_matrix_type           full
_refine_ls_number_parameters     32
_refine_ls_number_reflns         281
_refine_ls_number_restraints     0
_refine_ls_restrained_S_all      1.126
_refine_ls_R_factor_all          0.0586
_refine_ls_R_factor_gt           0.0526
_refine_ls_shift/su_max          0.000
_refine_ls_shift/su_mean         0.000
_refine_ls_structure_factor_coef Fsqd
_refine_ls_weighting_details
'w=1/[\s^2^(Fo^2^)+(0.0324P)^2^+2.8638P] where P=(Fo^2^+2Fc^2^)/3'
_refine_ls_weighting_scheme      calc
_refine_ls_wR_factor_gt          0.1146
_refine_ls_wR_factor_ref         0.1194
_reflns_Friedel_coverage         0.000
_reflns_Friedel_fraction_full    .
_reflns_Friedel_fraction_max     .
_reflns_number_gt                249
_reflns_number_total             281
_reflns_threshold_expression     'I > 2\s(I)'
_cod_data_source_file            nchem.2848-s5-g.cif
_cod_data_source_block           g
_cod_depositor_comments
;
The following automatic conversions were performed:

'_exptl_absorpt_correction_type' value 'Multi-Scan' changed to
'multi-scan' according to the built-in table from CIF Core dictionary
named 'cif_core.dic' version 2.4.5 from 2014-11-21.

Automatic conversion script
Id: cif_fix_values 6524 2018-11-02 12:15:13Z antanas 
;
_cod_original_cell_volume        538.17(19)
_cod_database_code               1551123
_shelx_space_group_comment
;
The symmetry employed for this shelxl refinement is uniquely defined
by the following loop, which should always be used as a source of
symmetry information in preference to the above space-group names.
They are only intended as comments.
;
_shelx_estimated_absorpt_t_max   0.906
_shelx_estimated_absorpt_t_min   0.237
_olex2_refinement_description
;
1. Fixed Uiso
 At 1.2 times of:
  All C(H) groups
 At 1.5 times of:
  All C(H,H,H) groups
2.a Aromatic/amide H refined with riding coordinates:
 C3(H3)
2.b Idealised Me refined as rotating group:
 C1(H1A,H1B,H1C), C5(H5A,H5B,H5C)
;
_shelx_res_file
;
TITL 10 in P2(1)/n
CELL 0.71073 10.271 4.654 11.269 90 92.465 90
ZERR 2 0.00205 0.00093 0.00225 0 0.03 0
LATT 1
SYMM 0.5-X,0.5+Y,0.5-Z
SFAC C H Cu O
UNIT 20 28 2 8

L.S. 50
PLAN  25
SIZE 0.05 0.05 1
TEMP -173(2)
LIST 1
MORE -1
BOND $H
CONF
fmap 2
acta 52
REM <olex2.extras>
REM <HklSrc "%.\\g.hkl">
REM </olex2.extras>

WGHT    0.032400    2.863800
FVAR       1.53091
C1    1    0.181561   -0.063262    0.446756    11.00000    0.02061
AFIX 137
H1A   2    0.122148    0.073790    0.482270    11.00000   -1.50000
H1B   2    0.195577   -0.227347    0.500293    11.00000   -1.50000
H1C   2    0.143414   -0.130515    0.370530    11.00000   -1.50000
AFIX   0
C2    1    0.309561    0.081200    0.427106    11.00000    0.01434
C3    1    0.390609   -0.030689    0.340506    11.00000    0.01971
AFIX  43
H3    2    0.361563   -0.196160    0.297688    11.00000   -1.20000
AFIX   0
C4    1    0.510756    0.086513    0.313824    11.00000    0.01473
C5    1    0.585444   -0.053454    0.217336    11.00000    0.01997
AFIX 137
H5A   2    0.660482    0.066460    0.199269    11.00000   -1.50000
H5B   2    0.528542   -0.074770    0.145820    11.00000   -1.50000
H5C   2    0.615924   -0.243155    0.244113    11.00000   -1.50000
AFIX   0
O1    4    0.338791    0.295177    0.494243    11.00000    0.01715
O2    4    0.565476    0.299933    0.366304    11.00000    0.01655
CU1   3    0.500000    0.500000    0.500000    10.50000    0.01479
HKLF 4

REM  10 in P2(1)/n
REM R1 =  0.0526 for     249 Fo > 4sig(Fo)  and  0.0586 for all     281 data
REM     32 parameters refined using      0 restraints

END

WGHT      0.0326      2.8598

REM Highest difference peak  0.377,  deepest hole -0.454,  1-sigma level  0.059
Q1    1   0.5386  0.6982  0.5587  11.00000  0.05    0.38
Q2    1   0.4745  0.5577  0.4705  11.00000  0.05    0.35
Q3    1   0.5000  0.0000  0.5000  10.50000  0.05    0.29
Q4    1   0.4368  0.6595  0.4054  11.00000  0.05    0.23
Q5    1   0.5829  0.5072  0.4422  11.00000  0.05    0.22
Q6    1   0.4957  0.2116  0.5182  11.00000  0.05    0.21
Q7    1   0.5274  0.7638  0.4555  11.00000  0.05    0.20
Q8    1   0.3048  0.0351  0.3618  11.00000  0.05    0.18
Q9    1   0.6582 -0.0874  0.2646  11.00000  0.05    0.17
Q10   1   0.5628  0.0096  0.1932  11.00000  0.05    0.17
Q11   1   0.2593  0.0032  0.3463  11.00000  0.05    0.16
Q12   1   0.2567  0.0088  0.4484  11.00000  0.05    0.16
Q13   1   0.3062  0.5687  0.4772  11.00000  0.05    0.16
Q14   1   0.3683 -0.0108  0.4114  11.00000  0.05    0.16
Q15   1   0.0346  0.0313  0.2816  11.00000  0.05    0.16
Q16   1   0.2375 -0.4510  0.5697  11.00000  0.05    0.16
Q17   1   0.5268  0.1025  0.1180  11.00000  0.05    0.16
Q18   1   0.5392  0.3646  0.3395  11.00000  0.05    0.15
Q19   1   0.6356 -0.5322  0.2210  11.00000  0.05    0.15
Q20   1   0.4497  0.7390  0.4992  11.00000  0.05    0.15
Q21   1   0.5878 -0.1367  0.2389  11.00000  0.05    0.15
Q22   1   0.1432 -0.5462  0.4872  11.00000  0.05    0.15
Q23   1   0.4810  0.2794  0.3090  11.00000  0.05    0.15
Q24   1   0.4439  0.0759  0.4446  11.00000  0.05    0.15
Q25   1   0.1886 -0.2809  0.3842  11.00000  0.05    0.15
;
_shelx_res_checksum              36300
_shelx_hkl_file
;
  -6  -1  10   72.37    2.12
  -6  -1  11 1045.00   21.45
  -5  -1   7 1139.00   23.08
   4   1  -2 1958.00   39.41
  -4  -1   5 2458.00   49.54
  -4   1   4  388.70    7.89
  -5   1   6 3127.00   63.22
   5  -1  -2 3352.00   67.44
  -6   1   8  188.60    4.07
   6  -1  -2  295.00    6.02
  -7   1  13    5.30    3.27
   7  -1  -2 2506.00   50.54
   8  -1  -2 1024.00   20.81
   9  -1  -2 3104.00   62.72
  10  -1  -2   41.90    1.70
  11  -1  -2 1597.00   32.47
  13  -1  -1    4.81    2.88
  14  -1  -1 1387.00   28.55
  12   2  -2  188.30    4.64
  11   2  -2   -0.97    2.02
  10   2  -2  691.70   14.16
   6   2  -2 1835.00   36.89
  -6  -2  12  195.90    5.55
  -6  -2  13   66.51    4.02
   5   2  -2  387.70    7.90
  -5  -2   8    9.88    1.83
  -5  -2   9 3053.00   61.43
  -5  -2  10  165.40    4.07
  -5  -2  11  889.80   18.38
   4   2  -2 8700.00  174.40
  -4  -2   6 2086.00   41.92
  -4  -2   7  423.30    8.69
   3   2  -1 7336.00  147.00
  -3  -2   5 2402.00   48.22
   2   2  -1  105.00    2.32
  -2  -2   3   47.15    1.29
  -2  -2   4 3326.00   66.69
  -1  -2   3 6777.00  135.80
  -2   2   2 7190.00  144.10
  -3   2   3 9940.00  199.20
   3  -2   0  200.30    4.17
  -4   2   5   28.12    1.23
  -4   2   4 2797.00   56.17
   4  -2  -1  849.00   17.09
  -5   2   7  521.40   10.64
  -5   2   6   39.05    1.52
   5  -2  -1 2656.00   53.30
  -6   2  10  468.00    9.73
  -6   2   9   10.23    1.82
  -6   2   8  463.60    9.71
   6  -2  -1   13.51    1.06
   7  -2  -1 1712.00   34.43
   8  -2  -1  215.20    4.79
   9  -2  -1 2636.00   53.05
  10  -2  -1  217.40    4.92
  11  -2  -1  811.30   16.59
  12  -2  -1   38.44    2.80
  13  -2   0   83.27    3.67
  12   3  -1   96.96    3.74
  11   3  -1   -0.52    2.66
  11   3  -2  343.40    8.21
  10   3  -1  420.20    9.22
  10   3  -2   11.30    2.49
   9   3  -2 1274.00   25.79
   8   3  -2   26.32    2.15
   7   3  -2 1030.00   20.87
   6   3  -1 1702.00   34.28
   6   3  -2    2.69    1.37
   5   3  -1  205.80    4.41
  -5  -3  12  264.10    6.61
   4   3  -1 4410.00   88.39
  -4  -3   8  291.70    6.56
  -4  -3   9 1185.00   23.98
  -4  -3  10  423.40    8.97
  -4  -3  11 1279.00   25.91
  -4  -3  12   78.25    3.52
  -4  -3  13  299.00    6.95
   3   3   0 3423.00   68.68
   3   3  -1   10.73    1.19
  -3  -3   6 1614.00   32.51
  -3  -3   8 1733.00   34.96
  -3  -3   9    4.91    2.17
   2   3   0  143.30    3.16
  -2  -3   5 3031.00   60.81
  -2  -3   6 1648.00   33.15
  -2  -3   7  607.10   12.67
   1   3   1  179.40    3.82
   1   3   0  301.10    6.21
  -1  -3   4 2800.00   56.16
  -1  -3   5  753.10   15.23
   0   3   1  304.30    6.29
   0  -3   3 2463.00   49.41
   0  -3   4  117.90    2.71
  -1   3   2 2283.00   45.83
   1  -3   2 3324.00   66.64
   1  -3   3   98.94    2.39
  -2   3   4    8.57    1.75
  -2   3   3 3849.00   77.19
   2  -3   1 2131.00   42.78
   2  -3   2   65.12    1.82
  -3   3   5   32.44    1.59
  -3   3   4 3817.00   76.55
   3  -3   1    1.41    1.15
   3  -3   2 2486.00   49.95
  -4   3   7 1400.00   28.31
  -4   3   5 1498.00   30.16
   4  -3   0   -1.45    1.12
   4  -3   1 2071.00   41.57
  -5   3  10  507.80   10.64
  -5   3   9  138.50    3.52
  -5   3   8 1398.00   28.20
  -5   3   7   33.74    1.97
   5  -3   0 3199.00   64.17
   5  -3   1 1538.00   30.99
  -6   3  12    3.70    3.10
  -6   3  11  209.60    5.09
  -6   3  10   11.94    2.39
   6  -3   0  294.10    6.32
   7  -3   0 1787.00   35.98
   8  -3   0  194.50    4.57
   9  -3   0 1254.00   25.36
  10  -3   0  438.80    9.26
  10  -3   1 1399.00   28.47
  11  -3   0  533.40   11.15
  11  -3   1   25.39    2.71
  12  -3   0   -5.63    2.96
  12  -3   1  475.70   10.11
  11   4   0   11.23    3.08
  11   4  -1  458.40   10.04
  10   4   0  247.50    5.84
  10   4  -1   31.40    2.86
   9   4   0    5.14    2.40
   9   4  -1  746.20   15.34
   8   4   0  633.10   13.04
   8   4  -1  197.30    4.75
   7   4   0    7.49    2.27
   7   4  -1  760.70   15.53
   6   4   0  505.90   10.43
   6   4  -1   19.80    1.78
   5   4   0  172.70    3.95
   5   4  -1  603.60   12.37
   4   4   1  313.00    6.56
   4   4   0  470.40    9.67
   3   4   1  997.50   20.15
   3   4   0  103.20    2.63
  -3  -4  10   50.40    2.79
  -3  -4  11   94.04    3.62
   2   4   2 1278.00   25.72
   2   4   1  342.30    7.10
  -2  -4   8 1070.00   21.71
  -2  -4   9   52.43    2.65
  -2  -4  10  312.10    6.87
  -2  -4  11   41.24    2.93
  -2  -4  12  300.30    6.97
   1   4   2  821.40   16.63
   1   4   1 1953.00   39.24
  -1  -4   6  101.30    2.85
  -1  -4   7 2047.00   41.16
  -1  -4   8   40.10    2.34
  -1  -4   9  797.90   16.30
  -1  -4  10   44.87    2.62
   0   4   3  153.70    3.51
   0   4   2 1621.00   32.58
   0  -4   5   91.03    2.75
   0  -4   6 1787.00   35.95
   0  -4   7   -1.92    2.09
   0  -4   8 1417.00   28.64
  -1   4   4  364.20    7.56
  -1   4   3 1270.00   25.57
   1  -4   4  138.80    3.43
   1  -4   5 1328.00   26.77
   1  -4   6   54.09    2.36
  -2   4   6  810.30   16.43
  -2   4   5  100.70    2.65
  -2   4   4  536.20   10.96
   2  -4   3 1058.00   21.39
   2  -4   4 1494.00   30.08
   2  -4   5   40.95    2.17
  -3   4   8   46.61    2.15
  -3   4   7  752.70   15.32
  -3   4   6    3.02    1.66
  -3   4   5  471.10    9.69
   3  -4   3 1281.00   25.85
   3  -4   4    7.45    1.99
  -4   4  11   47.77    2.91
  -4   4  10  183.70    4.55
  -4   4   9    5.59    2.25
  -4   4   8  709.10   14.48
  -4   4   7   59.49    2.30
   4  -4   2 1226.00   24.75
   4  -4   3   -3.10    1.99
   4  -4   4 1107.00   22.39
  -5   4  11  267.30    6.16
  -5   4  10  103.80    3.45
  -5   4   9  701.60   14.57
   5  -4   2   27.25    2.16
   5  -4   3 1716.00   34.55
   6  -4   1  203.40    4.83
   6  -4   2 1914.00   38.50
   6  -4   3   19.14    2.22
   7  -4   1 1075.00   21.77
   7  -4   2   -1.13    2.13
   7  -4   3 1254.00   25.32
   8  -4   1   71.52    2.68
   8  -4   3   15.30    2.32
   9  -4   1  247.20    5.67
   9  -4   2   -0.85    2.46
   9  -4   3  253.70    5.76
  10  -4   1  142.90    4.35
  10  -4   2  114.70    3.66
  10  -4   3   37.45    2.79
   9   5   0   68.92    4.24
   8   5   2    4.39    2.48
   8   5   1   57.44    2.93
   8   5   0    1.70    2.90
   7   5   2  218.40    5.16
   7   5   1   18.00    2.44
   7   5   0  425.70    9.32
   6   5   2    8.17    2.21
   6   5   1 1081.00   21.88
   5   5   3    4.07    2.30
   5   5   2  985.60   19.97
   5   5   1  158.90    3.87
   4   5   3  338.10    7.19
   4   5   2   27.57    2.04
   4   5   1 1178.00   23.78
   3   5   4  140.10    3.79
   3   5   3   -0.57    1.92
   3   5   2  659.40   13.47
   2   5   4    3.10    1.92
   2   5   3  159.90    3.82
   2   5   2   25.89    1.82
   1   5   5   -4.70    1.87
   1   5   4  187.90    4.31
   1   5   3   81.91    2.51
   0   5   6   18.05    2.05
   0   5   5  838.80   17.02
   0   5   4   32.81    1.98
   0  -5   8  197.20    5.29
   0  -5   9  474.70   10.09
  -1   5   8  380.90    8.07
  -1   5   7    1.69    2.25
  -1   5   6 1321.00   26.64
  -1   5   5   45.20    2.18
   1  -5   7   -3.39    2.15
   1  -5   8  700.10   14.35
   1  -5   9   -2.54    2.72
  -2   5   9  136.20    3.88
  -2   5   8   11.29    2.46
  -2   5   7  621.10   12.79
  -2   5   6  177.70    4.17
   2  -5   6    8.59    2.15
   2  -5   7  626.80   12.90
   2  -5   8   20.39    2.59
   2  -5   9  482.00   10.13
  -3   5   9    4.53    2.66
  -3   5   8   76.19    2.87
   3  -5   5  240.30    5.41
   3  -5   6  394.50    8.33
   3  -5   7    2.34    2.32
   3  -5   8  232.00    5.43
   3  -5   9    0.15    2.89
   4  -5   5  368.50    7.86
   4  -5   6    2.77    2.39
   4  -5   7  174.20    4.44
   4  -5   8   69.67    3.05
   5  -5   4  635.70   13.03
   5  -5   5   -0.19    2.54
   5  -5   6  458.80    9.65
   5  -5   7   20.59    2.54
   6  -5   4   47.12    2.77
   6  -5   5  687.20   14.11
   6  -5   6   37.13    2.83
   6  -5   7  143.50    4.44
   7  -5   4  511.80   10.72
   7  -5   5   -2.18    2.79
   8  -5   4  -10.23    3.55
   4   6   3    4.77    2.44
   3   6   4    4.99    2.51
   2   6   5   14.39    2.49
   1   6   5  440.00    9.40
   0   0   0    0.00    0.00
;
_shelx_hkl_checksum              48784
_olex2_submission_special_instructions 'No special instructions were received'
loop_
_space_group_symop_operation_xyz
'x, y, z'
'-x+1/2, y+1/2, -z+1/2'
'-x, -y, -z'
'x-1/2, -y-1/2, z-1/2'
loop_
_atom_site_label
_atom_site_type_symbol
_atom_site_fract_x
_atom_site_fract_y
_atom_site_fract_z
_atom_site_U_iso_or_equiv
_atom_site_adp_type
_atom_site_occupancy
_atom_site_site_symmetry_order
_atom_site_calc_flag
_atom_site_refinement_flags_posn
_atom_site_refinement_flags_adp
_atom_site_refinement_flags_occupancy
_atom_site_disorder_assembly
_atom_site_disorder_group
C1 C 0.1816(9) -0.0633(14) 0.4468(11) 0.0206(15) Uiso 1 1 d . . . . .
H1A H 0.1221 0.0738 0.4823 0.031 Uiso 1 1 calc GR . . . .
H1B H 0.1956 -0.2273 0.5003 0.031 Uiso 1 1 calc GR . . . .
H1C H 0.1434 -0.1305 0.3705 0.031 Uiso 1 1 calc GR . . . .
C2 C 0.3096(8) 0.0812(12) 0.4271(9) 0.0143(13) Uiso 1 1 d . . . . .
C3 C 0.3906(10) -0.0307(13) 0.3405(10) 0.0197(14) Uiso 1 1 d . . . . .
H3 H 0.3616 -0.1962 0.2977 0.024 Uiso 1 1 calc R . . . .
C4 C 0.5108(8) 0.0865(12) 0.3138(9) 0.0147(14) Uiso 1 1 d . . . . .
C5 C 0.5854(10) -0.0535(14) 0.2173(10) 0.0200(14) Uiso 1 1 d . . . . .
H5A H 0.6605 0.0665 0.1993 0.030 Uiso 1 1 calc GR . . . .
H5B H 0.5285 -0.0748 0.1458 0.030 Uiso 1 1 calc GR . . . .
H5C H 0.6159 -0.2432 0.2441 0.030 Uiso 1 1 calc GR . . . .
O1 O 0.3388(7) 0.2952(9) 0.4942(7) 0.0172(11) Uiso 1 1 d . . . . .
O2 O 0.5655(7) 0.2999(9) 0.3663(7) 0.0166(11) Uiso 1 1 d . . . . .
Cu1 Cu 0.5000 0.5000 0.5000 0.0148(5) Uiso 1 2 d S T P . .
loop_
_atom_type_symbol
_atom_type_description
_atom_type_scat_dispersion_real
_atom_type_scat_dispersion_imag
_atom_type_scat_source
C C 0.0033 0.0016 'International Tables Vol C Tables 4.2.6.8 and 6.1.1.4'
H H 0.0000 0.0000 'International Tables Vol C Tables 4.2.6.8 and 6.1.1.4'
Cu Cu 0.3201 1.2651 'International Tables Vol C Tables 4.2.6.8 and 6.1.1.4'
O O 0.0106 0.0060 'International Tables Vol C Tables 4.2.6.8 and 6.1.1.4'
loop_
_geom_angle_atom_site_label_1
_geom_angle_atom_site_label_2
_geom_angle_atom_site_label_3
_geom_angle
_geom_angle_site_symmetry_1
_geom_angle_site_symmetry_3
H1A C1 H1B 109.5 . .
H1A C1 H1C 109.5 . .
H1B C1 H1C 109.5 . .
C2 C1 H1A 109.5 . .
C2 C1 H1B 109.5 . .
C2 C1 H1C 109.5 . .
C3 C2 C1 118.9(7) . .
O1 C2 C1 116.5(7) . .
O1 C2 C3 124.5(7) . .
C2 C3 H3 118.0 . .
C4 C3 C2 124.0(8) . .
C4 C3 H3 118.0 . .
C3 C4 C5 118.0(7) . .
O2 C4 C3 125.6(8) . .
O2 C4 C5 116.4(7) . .
C4 C5 H5A 109.5 . .
C4 C5 H5B 109.5 . .
C4 C5 H5C 109.5 . .
H5A C5 H5B 109.5 . .
H5A C5 H5C 109.5 . .
H5B C5 H5C 109.5 . .
C2 O1 Cu1 126.2(5) . .
C4 O2 Cu1 125.5(5) . .
O1 Cu1 O1 180.0 . 3_666
O1 Cu1 O2 93.7(3) 3_666 3_666
O1 Cu1 O2 86.3(3) 3_666 .
O1 Cu1 O2 93.7(3) . .
O1 Cu1 O2 86.3(3) . 3_666
O2 Cu1 O2 180.0(3) 3_666 .
loop_
_geom_bond_atom_site_label_1
_geom_bond_atom_site_label_2
_geom_bond_distance
_geom_bond_site_symmetry_2
C1 H1A 0.9800 .
C1 H1B 0.9800 .
C1 H1C 0.9800 .
C1 C2 1.501(12) .
C2 C3 1.409(12) .
C2 O1 1.279(9) .
C3 H3 0.9500 .
C3 C4 1.394(12) .
C4 C5 1.506(12) .
C4 O2 1.274(9) .
C5 H5A 0.9800 .
C5 H5B 0.9800 .
C5 H5C 0.9800 .
O1 Cu1 1.909(6) .
O2 Cu1 1.917(6) .
Cu1 O1 1.909(6) 3_666
Cu1 O2 1.917(6) 3_666
loop_
_geom_torsion_atom_site_label_1
_geom_torsion_atom_site_label_2
_geom_torsion_atom_site_label_3
_geom_torsion_atom_site_label_4
_geom_torsion
_geom_torsion_site_symmetry_1
_geom_torsion_site_symmetry_2
_geom_torsion_site_symmetry_3
_geom_torsion_site_symmetry_4
C1 C2 C3 C4 179.4(10) . . . .
C1 C2 O1 Cu1 174.2(8) . . . .
C2 C3 C4 C5 -178.9(9) . . . .
C2 C3 C4 O2 3.0(16) . . . .
C3 C2 O1 Cu1 -3.5(12) . . . .
C3 C4 O2 Cu1 3.3(12) . . . .
C5 C4 O2 Cu1 -174.9(7) . . . .
O1 C2 C3 C4 -2.9(16) . . . .
