#------------------------------------------------------------------------------
#$Date: 2019-05-24 11:59:03 +0300 (Fri, 24 May 2019) $
#$Revision: 215477 $
#$URL: file:///home/coder/svn-repositories/cod/cif/1/55/11/1551119.cif $
#------------------------------------------------------------------------------
#
# This file is available in the Crystallography Open Database (COD),
# http://www.crystallography.net/
#
# All data on this site have been placed in the public domain by the
# contributors.
#
data_1551119
loop_
_publ_author_name
'Anna Worthy'
'Arnaud Grosjean'
'Michael C. Pfrunder'
'Yanan Xu'
'Cheng Yan'
'Grant Edwards'
'Jack K. Clegg'
'John C. McMurtrie'
_publ_section_title
;
 Atomic resolution of structural changes in elastic crystals of copper(II)
 acetylacetonate
;
_journal_name_full               'Nature Chemistry'
_journal_page_first              65
_journal_page_last               69
_journal_paper_doi               10.1038/nchem.2848
_journal_volume                  10
_journal_year                    2018
_chemical_formula_moiety         'C10 H14 Cu O4'
_chemical_formula_sum            'C10 H14 Cu O4'
_chemical_formula_weight         261.75
_space_group_crystal_system      monoclinic
_space_group_IT_number           14
_space_group_name_Hall           '-P 2yn'
_space_group_name_H-M_alt        'P 1 21/n 1'
_symmetry_space_group_name_Hall  '-P 2yn'
_symmetry_space_group_name_H-M   'P 1 21/n 1'
_atom_sites_solution_hydrogens   geom
_cell_angle_alpha                90
_cell_angle_beta                 92.85(3)
_cell_angle_gamma                90
_cell_formula_units_Z            2
_cell_length_a                   10.238(2)
_cell_length_b                   4.6910(9)
_cell_length_c                   11.211(2)
_cell_measurement_reflns_used    287
_cell_measurement_temperature    100(2)
_cell_measurement_theta_max      29.621
_cell_measurement_theta_min      9.670
_cell_volume                     537.76(18)
_computing_cell_refinement       'XDS (Kabsch, 1993)'
_computing_data_collection       'BluIce (McPhillips, 2002)'
_computing_data_reduction        'XDS (Kabsch, 1993)'
_computing_molecular_graphics    'Olex2 (Dolomanov et al., 2009)'
_computing_publication_material  'Olex2 (Dolomanov et al., 2009)'
_computing_structure_refinement  'ShelXL (Sheldrick, 2015)'
_computing_structure_solution    'Known Structure'
_diffrn_ambient_temperature      100(2)
_diffrn_measured_fraction_theta_full 0.187
_diffrn_measured_fraction_theta_max 0.188
_diffrn_measurement_device_type  'ADSC Quantum 315r'
_diffrn_measurement_method       'Phi Scan'
_diffrn_radiation_monochromator  'Silicon Double Crystal'
_diffrn_radiation_type           Synchrotron
_diffrn_radiation_wavelength     0.7108
_diffrn_reflns_av_unetI/netI     0.0256
_diffrn_reflns_Laue_measured_fraction_full 0.187
_diffrn_reflns_Laue_measured_fraction_max 0.188
_diffrn_reflns_number            287
_diffrn_reflns_point_group_measured_fraction_full 0.187
_diffrn_reflns_point_group_measured_fraction_max 0.188
_diffrn_reflns_theta_full        26.000
_diffrn_reflns_theta_max         29.621
_diffrn_reflns_theta_min         9.670
_diffrn_source                   Synchrotron
_exptl_absorpt_coefficient_mu    2.021
_exptl_absorpt_correction_type   multi-scan
_exptl_absorpt_process_details   'XDS (Kabsch, 1993)'
_exptl_crystal_colour            'dark blue'
_exptl_crystal_colour_lustre     .
_exptl_crystal_colour_modifier   dark
_exptl_crystal_colour_primary    blue
_exptl_crystal_density_diffrn    1.617
_exptl_crystal_description       needle
_exptl_crystal_F_000             270
_exptl_crystal_size_max          1
_exptl_crystal_size_mid          0.05
_exptl_crystal_size_min          0.05
_refine_diff_density_max         0.371
_refine_diff_density_min         -0.470
_refine_diff_density_rms         0.072
_refine_ls_extinction_coef       .
_refine_ls_extinction_method     none
_refine_ls_goodness_of_fit_ref   1.115
_refine_ls_hydrogen_treatment    constr
_refine_ls_matrix_type           full
_refine_ls_number_parameters     32
_refine_ls_number_reflns         287
_refine_ls_number_restraints     0
_refine_ls_restrained_S_all      1.115
_refine_ls_R_factor_all          0.0750
_refine_ls_R_factor_gt           0.0619
_refine_ls_shift/su_max          0.000
_refine_ls_shift/su_mean         0.000
_refine_ls_structure_factor_coef Fsqd
_refine_ls_weighting_details
'w=1/[\s^2^(Fo^2^)+(0.0630P)^2^+3.5824P] where P=(Fo^2^+2Fc^2^)/3'
_refine_ls_weighting_scheme      calc
_refine_ls_wR_factor_gt          0.1464
_refine_ls_wR_factor_ref         0.1597
_reflns_Friedel_coverage         0.000
_reflns_Friedel_fraction_full    .
_reflns_Friedel_fraction_max     .
_reflns_number_gt                240
_reflns_number_total             287
_reflns_threshold_expression     'I > 2\s(I)'
_cod_data_source_file            nchem.2848-s5-c.cif
_cod_data_source_block           c
_cod_depositor_comments
;
The following automatic conversions were performed:

'_exptl_absorpt_correction_type' value 'Multi-Scan' changed to
'multi-scan' according to the built-in table from CIF Core dictionary
named 'cif_core.dic' version 2.4.5 from 2014-11-21.

Automatic conversion script
Id: cif_fix_values 6524 2018-11-02 12:15:13Z antanas 
;
_cod_original_cell_volume        537.76(19)
_cod_database_code               1551119
_shelx_space_group_comment
;
The symmetry employed for this shelxl refinement is uniquely defined
by the following loop, which should always be used as a source of
symmetry information in preference to the above space-group names.
They are only intended as comments.
;
_shelx_estimated_absorpt_t_max   0.906
_shelx_estimated_absorpt_t_min   0.237
_olex2_refinement_description
;
1. Fixed Uiso
 At 1.2 times of:
  All C(H) groups
 At 1.5 times of:
  All C(H,H,H) groups
2.a Aromatic/amide H refined with riding coordinates:
 C3(H3)
2.b Idealised Me refined as rotating group:
 C1(H1a,H1b,H1c), C5(H5a,H5b,H5c)
;
_shelx_res_file
;
TITL 6 in P2(1)/n
CELL 0.71073 10.238 4.691 11.211 90 92.854 90
ZERR 2 0.00205 0.00094 0.00224 0 0.03 0
LATT 1
SYMM 0.5-X,0.5+Y,0.5-Z
SFAC C H Cu O
UNIT 20 28 2 8

L.S. 50
PLAN  25
SIZE 0.05 0.05 1
LIST 1
MORE -1
BOND $H
CONF
fmap 2
acta 52
REM <olex2.extras>
REM <HklSrc "%.\\c.hkl">
REM </olex2.extras>

WGHT    0.063000    3.582400
FVAR       0.66763
C1    1    0.182373   -0.062949    0.447824    11.00000    0.02132
AFIX 137
H1A   2    0.128735    0.062871    0.491941    11.00000   -1.50000
H1B   2    0.198245   -0.234937    0.492637    11.00000   -1.50000
H1C   2    0.138366   -0.108291    0.372600    11.00000   -1.50000
AFIX   0
C2    1    0.310742    0.080706    0.426307    11.00000    0.01645
C3    1    0.389259   -0.030058    0.340123    11.00000    0.02160
AFIX  43
H3    2    0.360042   -0.190173    0.297773    11.00000   -1.20000
AFIX   0
C4    1    0.510243    0.087213    0.313760    11.00000    0.01427
C5    1    0.586593   -0.051608    0.217661    11.00000    0.02291
AFIX 137
H5A   2    0.663426    0.059092    0.204536    11.00000   -1.50000
H5B   2    0.533127   -0.061642    0.144967    11.00000   -1.50000
H5C   2    0.611772   -0.240538    0.242377    11.00000   -1.50000
AFIX   0
O1    4    0.339068    0.296163    0.494838    11.00000    0.01949
O2    4    0.565286    0.301477    0.366514    11.00000    0.01720
CU1   3    0.500000    0.500000    0.500000    10.50000    0.01641
HKLF 4

REM  6 in P2(1)/n
REM R1 =  0.0619 for     240 Fo > 4sig(Fo)  and  0.0750 for all     287 data
REM     32 parameters refined using      0 restraints

END

WGHT      0.0630      3.5824

REM Highest difference peak  0.371,  deepest hole -0.470,  1-sigma level  0.072
Q1    1   0.5301  0.7026  0.5520  11.00000  0.05    0.37
Q2    1   0.4170  0.5181  0.4601  11.00000  0.05    0.32
Q3    1   0.4320  0.6437  0.3986  11.00000  0.05    0.29
Q4    1   0.5000  0.0000  0.5000  10.50000  0.05    0.29
Q5    1   0.4989  0.2174  0.5165  11.00000  0.05    0.26
Q6    1   0.5407  0.3679  0.4389  11.00000  0.05    0.26
Q7    1   0.5784  0.6142  0.6040  11.00000  0.05    0.25
Q8    1   0.1846 -0.2941  0.3945  11.00000  0.05    0.24
Q9    1   0.7420 -0.2561  0.2448  11.00000  0.05    0.24
Q10   1   0.4954 -0.0029  0.3644  11.00000  0.05    0.23
Q11   1   0.6435 -0.5049  0.2234  11.00000  0.05    0.22
Q12   1   0.6953  0.2113  0.2265  11.00000  0.05    0.22
Q13   1   0.5201  0.7033  0.4400  11.00000  0.05    0.22
Q14   1   0.5858  0.5068  0.4323  11.00000  0.05    0.21
Q15   1   0.4229 -0.1952  0.2640  11.00000  0.05    0.21
Q16   1   0.3913 -0.5376  0.3377  11.00000  0.05    0.21
Q17   1   0.4915  0.3030  0.3175  11.00000  0.05    0.20
Q18   1   0.7312  0.1866  0.1421  11.00000  0.05    0.20
Q19   1   0.3128  0.4928  0.4065  11.00000  0.05    0.19
Q20   1   0.5638  0.0066  0.1960  11.00000  0.05    0.19
Q21   1   0.3023  0.0284  0.3603  11.00000  0.05    0.19
Q22   1   0.5261  0.0514  0.0397  11.00000  0.05    0.19
Q23   1   0.5209  0.3323  0.3341  11.00000  0.05    0.19
Q24   1   0.5237  0.1119  0.1126  11.00000  0.05    0.19
Q25   1   0.5425  0.6329  0.3544  11.00000  0.05    0.18
;
_shelx_res_checksum              51624
_shelx_hkl_file
;
  -6  -1   9  293.30    6.15
  -6  -1  10   14.05    1.00
  -5  -1   7  200.00    4.13
   4   1  -2  363.20    7.34
  -4  -1   5  423.40    8.57
  -4   1   4   69.77    1.49
  -5   1   6  566.30   11.49
   5  -1  -2  652.10   13.15
  -6   1   8   33.91    1.01
   6  -1  -2   53.90    1.20
  -7   1  13   -1.02    1.79
  -7   1  12  156.80    3.97
   7  -1  -2  434.30    8.82
   8  -1  -2  184.50    3.94
   9  -1  -2  508.70   10.38
  10  -1  -2    8.33    0.82
  11  -1  -2  270.60    5.63
  13  -1  -1    0.88    1.59
  14  -1  -1  225.70    5.18
  12   2  -2   39.30    1.73
  11   2  -2   -2.21    1.23
  10   2  -2  121.80    2.78
   7   2  -2   21.63    1.21
   6   2  -2  335.40    6.82
  -6  -2  12   31.46    2.04
  -6  -2  13   11.44    2.15
   5   2  -2   69.80    1.56
  -5  -2   8    4.27    1.02
  -5  -2   9  567.90   11.56
  -5  -2  10   28.02    1.46
   4   2  -2 1592.00   31.97
  -4  -2   6  399.50    8.10
  -4  -2   7   79.95    1.88
   3   2  -1 1228.00   24.69
  -3  -2   5  428.50    8.67
   2   2  -1   21.02    0.64
  -2  -2   3    8.36    0.49
  -2  -2   4  607.50   12.24
  -1  -2   3 1267.00   25.48
  -2   2   2 1360.00   27.30
  -3   2   3 1863.00   37.40
   3  -2   0   38.68    0.97
  -4   2   5    5.73    0.64
  -4   2   4  498.30   10.08
   4  -2  -1  157.10    3.25
  -5   2   7   94.63    2.14
  -5   2   6    9.49    0.77
   5  -2  -1  479.80    9.69
  -6   2  10   77.57    2.04
  -6   2   9    2.00    1.08
  -6   2   8   79.04    1.97
   6  -2  -1    2.87    0.60
   7  -2  -1  285.10    5.83
   8  -2  -1   35.55    1.22
   9  -2  -1  437.80    8.95
  10  -2  -1   37.28    1.39
  11  -2  -1  140.30    3.21
  12  -2  -1    4.88    1.49
  13  -2   0   13.82    1.80
  12   3  -1   19.23    2.06
  11   3  -1    1.06    1.63
  10   3  -1   66.14    2.52
  10   3  -2    4.87    1.53
   9   3  -2  252.10    5.38
   8   3  -2    4.47    1.19
   7   3  -2  184.10    3.98
   6   3  -1  278.20    5.76
   6   3  -2   -1.05    0.81
   5   3  -1   39.25    1.13
  -5  -3  12   40.63    2.17
   4   3  -1  848.00   17.08
  -4  -3   8   50.96    1.75
  -4  -3   9  221.40    4.76
  -4  -3  10   66.12    2.11
  -4  -3  11  205.30    4.58
  -4  -3  12    9.83    1.91
  -4  -3  13   31.67    2.13
   3   3   0  542.00   11.01
   3   3  -1    2.15    0.66
  -3  -3   6  313.90    6.45
  -3  -3   8  302.90    6.42
  -3  -3   9    1.17    1.48
   2   3   0   31.41    0.96
  -2  -3   5  569.80   11.52
  -2  -3   6  290.70    6.01
   1   3   1   30.31    0.90
   1   3   0   56.76    1.38
  -1  -3   4  524.90   10.62
  -1  -3   5  127.40    2.74
   0   3   1   55.20    1.38
   0  -3   3  456.80    9.26
   0  -3   4   20.41    0.81
  -1   3   2  450.80    9.15
   1  -3   2  617.50   12.46
   1  -3   3   17.82    0.78
  -2   3   3  746.40   15.06
   2  -3   1  386.40    7.85
   2  -3   2    9.32    0.69
  -3   3   5    4.32    0.82
  -3   3   4  768.10   15.50
   3  -3   1    0.40    0.63
  -4   3   7  267.60    5.71
  -4   3   6   39.80    1.44
  -4   3   5  274.80    5.68
   4  -3   0    0.14    0.64
   4  -3   1  371.20    7.56
  -5   3  10   97.43    2.87
  -5   3   9   25.07    1.35
  -5   3   8  265.10    5.56
  -5   3   7    6.58    1.15
   5  -3   0  586.90   11.87
   5  -3   1  274.80    5.67
  -6   3  12    4.32    1.92
  -6   3  11   31.83    1.79
  -6   3  10    2.97    1.45
   6  -3   0   56.46    1.53
   7  -3   0  304.90    6.34
   8  -3   0   29.30    1.42
   9  -3   0  218.70    4.67
  10  -3   0   72.71    2.08
  11  -3   0   97.11    2.56
  11  -3   1    5.46    1.49
  12  -3   0   -3.58    1.59
  12  -3   1   82.84    2.46
  11   4   0    2.31    1.93
  11   4  -1   90.15    2.80
  10   4   0   46.24    2.03
  10   4  -1    4.65    1.78
   9   4   0    1.34    1.48
   9   4  -1  152.20    3.55
   8   4   0  113.90    2.79
   8   4  -1   38.15    1.68
   7   4   0    1.53    1.35
   7   4  -1  151.90    3.44
   6   4   0   90.04    2.22
   6   4  -1    5.99    1.12
   5   4   0   31.85    1.24
   5   4  -1  125.80    2.83
   4   4   1   58.43    1.56
   4   4   0   88.78    2.11
   3   4   1  192.90    4.07
   3   4   0   20.77    1.02
  -3  -4   9  114.00    3.29
  -3  -4  10    8.21    1.64
  -3  -4  11   11.30    1.90
   2   4   2  233.60    4.86
   2   4   1   65.94    1.65
  -2  -4   7   27.05    1.46
  -2  -4   8  198.80    4.36
  -2  -4   9    9.07    1.54
  -2  -4  10   47.63    1.96
  -2  -4  11    4.44    1.79
  -2  -4  12   31.57    2.07
   1   4   2  156.10    3.35
   1   4   1  340.50    6.97
  -1  -4   6   17.83    1.21
  -1  -4   7  390.80    8.05
  -1  -4   8    7.27    1.34
  -1  -4   9  125.80    3.03
  -1  -4  10    3.14    1.69
   0   4   3   25.36    1.01
   0   4   2  304.50    6.25
   0  -4   5   16.81    1.28
   0  -4   6  309.40    6.45
   0  -4   7    0.84    1.26
  -1   4   4   71.94    1.76
  -1   4   3  251.90    5.22
   1  -4   4   23.91    1.29
   1  -4   5  238.90    5.04
   1  -4   6    7.60    1.20
  -2   4   6  154.00    3.36
  -2   4   5   21.93    1.11
  -2   4   4  103.10    2.35
   2  -4   3  196.70    4.21
   2  -4   4  286.20    5.95
   2  -4   5    6.79    1.18
  -3   4   8    9.27    1.30
  -3   4   7  139.80    3.14
  -3   4   6   -0.77    1.07
  -3   4   5   88.05    2.11
   3  -4   2   -0.46    1.12
   3  -4   3  247.40    5.22
   3  -4   4   -0.47    1.25
  -4   4  11    2.55    1.65
  -4   4  10   25.23    1.65
  -4   4   9   -1.79    1.36
  -4   4   8  146.30    3.30
  -4   4   7   12.24    1.22
   4  -4   2  229.00    4.87
   4  -4   3    2.04    1.26
   4  -4   4  204.20    4.42
  -5   4  11   37.89    1.98
  -5   4  10   16.82    1.73
  -5   4   9  130.50    3.12
   5  -4   2    3.61    1.29
   5  -4   3  294.50    6.16
   6  -4   1   37.25    1.36
   6  -4   2  343.00    7.09
   6  -4   3    2.90    1.33
   7  -4   1  190.00    4.10
   7  -4   2    0.38    1.14
   7  -4   3  206.90    4.44
   8  -4   1   13.79    1.31
   8  -4   3    1.27    1.26
   9  -4   1   45.76    1.68
   9  -4   2   -1.42    1.37
   9  -4   3   43.24    1.68
  10  -4   1   25.10    1.57
  10  -4   2   21.99    1.60
  10  -4   3    6.23    1.51
   9   5   1    2.17    1.91
   9   5   0   14.94    1.92
   8   5   2    3.63    1.57
   8   5   1    9.97    1.61
   8   5   0    0.27    1.51
   7   5   2   39.85    1.76
   7   5   1    0.81    1.49
   7   5   0   91.86    2.55
   6   5   2    3.66    1.30
   6   5   1  201.80    4.37
   5   5   3    3.71    1.86
   5   5   2  172.10    3.75
   5   5   1   34.38    1.38
   4   5   3   62.05    1.76
   4   5   2    5.94    1.15
   4   5   1  231.80    4.89
   3   5   3    0.43    1.08
   3   5   2  126.10    2.84
   2   5   4    1.11    1.09
   2   5   3   28.04    1.26
   2   5   2    4.93    1.04
   1   5   5   -1.70    1.06
   1   5   4   32.86    1.31
   1   5   3   15.26    1.08
   0   5   6   -1.14    1.17
   0   5   5  163.50    3.57
   0   5   4   10.30    1.07
   0  -5   8   33.73    1.65
   0  -5   9   78.93    2.43
  -1   5   8   60.58    1.86
  -1   5   7    2.19    1.28
  -1   5   6  243.70    5.13
  -1   5   5   11.78    1.12
   1  -5   7   -2.57    1.47
   1  -5   8  115.50    2.96
   1  -5   9    3.55    1.65
  -2   5   9   16.49    1.65
  -2   5   8   -0.44    1.47
  -2   5   7  117.20    2.84
  -2   5   6   39.20    1.48
   2  -5   6    0.01    1.38
   2  -5   7  101.80    2.59
   2  -5   8    5.28    1.63
   2  -5   9   75.27    2.36
  -3   5   9   -0.79    1.67
  -3   5   8   12.70    1.55
   3  -5   5   35.41    1.65
   3  -5   6   69.64    2.12
   3  -5   7    0.93    1.50
   3  -5   8   39.88    1.81
   3  -5   9    1.72    1.72
   4  -5   4    1.25    1.51
   4  -5   5   64.08    2.08
   4  -5   6    2.36    1.51
   4  -5   7   33.10    1.72
   4  -5   8   13.72    1.71
   5  -5   4  110.50    2.79
   5  -5   5   -2.68    1.50
   5  -5   6   78.71    2.30
   5  -5   7    5.81    1.71
   5  -5   8   20.69    1.82
   6  -5   4    9.00    1.71
   6  -5   5  114.10    2.94
   6  -5   6    8.84    1.75
   6  -5   7   25.43    1.90
   7  -5   4   95.99    2.69
   7  -5   5   -1.74    1.71
   8  -5   3   45.43    2.19
   8  -5   4   -4.73    2.10
   4   6   4   35.89    1.89
   4   6   3    0.57    1.33
   3   6   5    9.41    1.99
   3   6   4    2.13    1.41
   2   6   5    0.19    1.36
   2   6   4   64.83    1.97
   1   6   5   74.05    2.03
   0   6   6   89.09    2.45
   0   0   0    0.00    0.00
;
_shelx_hkl_checksum              48489
_olex2_submission_special_instructions 'No special instructions were received'
loop_
_space_group_symop_operation_xyz
'x, y, z'
'-x+1/2, y+1/2, -z+1/2'
'-x, -y, -z'
'x-1/2, -y-1/2, z-1/2'
loop_
_atom_site_label
_atom_site_type_symbol
_atom_site_fract_x
_atom_site_fract_y
_atom_site_fract_z
_atom_site_U_iso_or_equiv
_atom_site_adp_type
_atom_site_occupancy
_atom_site_site_symmetry_order
_atom_site_calc_flag
_atom_site_refinement_flags_posn
_atom_site_refinement_flags_adp
_atom_site_refinement_flags_occupancy
_atom_site_disorder_assembly
_atom_site_disorder_group
C1 C 0.1824(12) -0.0629(18) 0.4478(13) 0.0213(19) Uiso 1 1 d . . . . .
H1A H 0.1287 0.0629 0.4919 0.032 Uiso 1 1 calc GR . . . .
H1B H 0.1982 -0.2349 0.4926 0.032 Uiso 1 1 calc GR . . . .
H1C H 0.1384 -0.1083 0.3726 0.032 Uiso 1 1 calc GR . . . .
C2 C 0.3107(11) 0.0807(16) 0.4263(12) 0.0164(16) Uiso 1 1 d . . . . .
C3 C 0.3893(14) -0.0301(17) 0.3401(14) 0.0216(19) Uiso 1 1 d . . . . .
H3 H 0.3600 -0.1902 0.2978 0.026 Uiso 1 1 calc R . . . .
C4 C 0.5102(10) 0.0872(15) 0.3138(11) 0.0143(17) Uiso 1 1 d . . . . .
C5 C 0.5866(14) -0.0516(18) 0.2177(14) 0.0229(19) Uiso 1 1 d . . . . .
H5A H 0.6634 0.0591 0.2045 0.034 Uiso 1 1 calc GR . . . .
H5B H 0.5331 -0.0616 0.1450 0.034 Uiso 1 1 calc GR . . . .
H5C H 0.6118 -0.2405 0.2424 0.034 Uiso 1 1 calc GR . . . .
O1 O 0.3391(9) 0.2962(12) 0.4948(9) 0.0195(14) Uiso 1 1 d . . . . .
O2 O 0.5653(9) 0.3015(12) 0.3665(9) 0.0172(14) Uiso 1 1 d . . . . .
Cu1 Cu 0.5000 0.5000 0.5000 0.0164(6) Uiso 1 2 d S T P . .
loop_
_atom_type_symbol
_atom_type_description
_atom_type_scat_dispersion_real
_atom_type_scat_dispersion_imag
_atom_type_scat_source
C C 0.0033 0.0016 'International Tables Vol C Tables 4.2.6.8 and 6.1.1.4'
H H 0.0000 0.0000 'International Tables Vol C Tables 4.2.6.8 and 6.1.1.4'
Cu Cu 0.3201 1.2651 'International Tables Vol C Tables 4.2.6.8 and 6.1.1.4'
O O 0.0106 0.0060 'International Tables Vol C Tables 4.2.6.8 and 6.1.1.4'
loop_
_geom_angle_atom_site_label_1
_geom_angle_atom_site_label_2
_geom_angle_atom_site_label_3
_geom_angle
_geom_angle_site_symmetry_1
_geom_angle_site_symmetry_3
H1A C1 H1B 109.5 . .
H1A C1 H1C 109.5 . .
H1B C1 H1C 109.5 . .
C2 C1 H1A 109.5 . .
C2 C1 H1B 109.5 . .
C2 C1 H1C 109.5 . .
C3 C2 C1 118.9(10) . .
O1 C2 C1 115.2(9) . .
O1 C2 C3 125.8(10) . .
C2 C3 H3 118.4 . .
C2 C3 C4 123.3(10) . .
C4 C3 H3 118.4 . .
C3 C4 C5 118.4(10) . .
O2 C4 C3 125.7(10) . .
O2 C4 C5 115.8(9) . .
C4 C5 H5A 109.5 . .
C4 C5 H5B 109.5 . .
C4 C5 H5C 109.5 . .
H5A C5 H5B 109.5 . .
H5A C5 H5C 109.5 . .
H5B C5 H5C 109.5 . .
C2 O1 Cu1 125.4(6) . .
C4 O2 Cu1 125.5(6) . .
O1 Cu1 O1 180.0 3_666 .
O1 Cu1 O2 93.9(3) . .
O1 Cu1 O2 86.1(3) . 3_666
O1 Cu1 O2 93.9(3) 3_666 3_666
O1 Cu1 O2 86.1(3) 3_666 .
O2 Cu1 O2 180.0 . 3_666
loop_
_geom_bond_atom_site_label_1
_geom_bond_atom_site_label_2
_geom_bond_distance
_geom_bond_site_symmetry_2
C1 H1A 0.9600 .
C1 H1B 0.9600 .
C1 H1C 0.9600 .
C1 C2 1.507(14) .
C2 C3 1.388(15) .
C2 O1 1.294(12) .
C3 H3 0.9300 .
C3 C4 1.400(15) .
C4 C5 1.510(15) .
C4 O2 1.282(11) .
C5 H5A 0.9600 .
C5 H5B 0.9600 .
C5 H5C 0.9600 .
O1 Cu1 1.903(8) .
O2 Cu1 1.911(8) .
Cu1 O1 1.903(8) 3_666
Cu1 O2 1.911(8) 3_666
loop_
_geom_torsion_atom_site_label_1
_geom_torsion_atom_site_label_2
_geom_torsion_atom_site_label_3
_geom_torsion_atom_site_label_4
_geom_torsion
_geom_torsion_site_symmetry_1
_geom_torsion_site_symmetry_2
_geom_torsion_site_symmetry_3
_geom_torsion_site_symmetry_4
C1 C2 C3 C4 -179.8(13) . . . .
C1 C2 O1 Cu1 174.0(9) . . . .
C2 C3 C4 C5 -179.7(12) . . . .
C2 C3 C4 O2 2(2) . . . .
C3 C2 O1 Cu1 -3.8(16) . . . .
C3 C4 O2 Cu1 3.7(15) . . . .
C5 C4 O2 Cu1 -174.5(9) . . . .
O1 C2 C3 C4 -2(2) . . . .
