#------------------------------------------------------------------------------
#$Date: 2019-05-24 12:01:32 +0300 (Fri, 24 May 2019) $
#$Revision: 215496 $
#$URL: file:///home/coder/svn-repositories/cod/cif/1/55/11/1551138.cif $
#------------------------------------------------------------------------------
#
# This file is available in the Crystallography Open Database (COD),
# http://www.crystallography.net/
#
# All data on this site have been placed in the public domain by the
# contributors.
#
data_1551138
loop_
_publ_author_name
'Anna Worthy'
'Arnaud Grosjean'
'Michael C. Pfrunder'
'Yanan Xu'
'Cheng Yan'
'Grant Edwards'
'Jack K. Clegg'
'John C. McMurtrie'
_publ_section_title
;
 Atomic resolution of structural changes in elastic crystals of copper(II)
 acetylacetonate
;
_journal_name_full               'Nature Chemistry'
_journal_page_first              65
_journal_page_last               69
_journal_paper_doi               10.1038/nchem.2848
_journal_volume                  10
_journal_year                    2018
_chemical_formula_moiety         'C10 H14 Cu O4'
_chemical_formula_sum            'C10 H14 Cu O4'
_chemical_formula_weight         261.75
_space_group_crystal_system      monoclinic
_space_group_IT_number           14
_space_group_name_Hall           '-P 2yn'
_space_group_name_H-M_alt        'P 1 21/n 1'
_symmetry_space_group_name_Hall  '-P 2yn'
_symmetry_space_group_name_H-M   'P 1 21/n 1'
_atom_sites_solution_hydrogens   geom
_cell_angle_alpha                90
_cell_angle_beta                 92.26(3)
_cell_angle_gamma                90
_cell_formula_units_Z            2
_cell_length_a                   10.287(2)
_cell_length_b                   4.6150(9)
_cell_length_c                   11.348(2)
_cell_measurement_reflns_used    304
_cell_measurement_temperature    100(2)
_cell_measurement_theta_max      29.450
_cell_measurement_theta_min      4.842
_cell_volume                     538.32(18)
_computing_cell_refinement       'XDS (Kabsch, 1993)'
_computing_data_collection       'BluIce (McPhillips, 2002)'
_computing_data_reduction        'XDS (Kabsch, 1993)'
_computing_molecular_graphics    'Olex2 (Dolomanov et al., 2009)'
_computing_publication_material  'Olex2 (Dolomanov et al., 2009)'
_computing_structure_refinement  'ShelXL (Sheldrick, 2015)'
_computing_structure_solution    'Known structure'
_diffrn_ambient_temperature      100(2)
_diffrn_measured_fraction_theta_full 0.176
_diffrn_measured_fraction_theta_max 0.177
_diffrn_measurement_device_type  'ADSC Quantum 315r'
_diffrn_measurement_method       'Phi Scan'
_diffrn_radiation_monochromator  'Silicon Double Crystal'
_diffrn_radiation_type           Synchrotron
_diffrn_radiation_wavelength     0.7108
_diffrn_reflns_av_R_equivalents  0.0174
_diffrn_reflns_av_unetI/netI     0.0210
_diffrn_reflns_Laue_measured_fraction_full 0.176
_diffrn_reflns_Laue_measured_fraction_max 0.177
_diffrn_reflns_limit_h_max       9
_diffrn_reflns_limit_h_min       -14
_diffrn_reflns_limit_k_max       5
_diffrn_reflns_limit_k_min       -5
_diffrn_reflns_limit_l_max       12
_diffrn_reflns_limit_l_min       -1
_diffrn_reflns_number            304
_diffrn_reflns_point_group_measured_fraction_full 0.176
_diffrn_reflns_point_group_measured_fraction_max 0.177
_diffrn_reflns_theta_full        26.000
_diffrn_reflns_theta_max         29.450
_diffrn_reflns_theta_min         4.842
_diffrn_source                   Synchrotron
_exptl_absorpt_coefficient_mu    2.019
_exptl_absorpt_correction_type   multi-scan
_exptl_absorpt_process_details   'XDS (Kabsch, 1993)'
_exptl_crystal_colour            'dark blue'
_exptl_crystal_colour_lustre     .
_exptl_crystal_colour_modifier   dark
_exptl_crystal_colour_primary    blue
_exptl_crystal_density_diffrn    1.615
_exptl_crystal_description       needle
_exptl_crystal_F_000             270
_exptl_crystal_size_max          1
_exptl_crystal_size_mid          0.1
_exptl_crystal_size_min          0.1
_refine_diff_density_max         0.352
_refine_diff_density_min         -0.313
_refine_diff_density_rms         0.048
_refine_ls_extinction_coef       .
_refine_ls_extinction_method     none
_refine_ls_goodness_of_fit_ref   1.126
_refine_ls_hydrogen_treatment    constr
_refine_ls_matrix_type           full
_refine_ls_number_parameters     32
_refine_ls_number_reflns         265
_refine_ls_number_restraints     0
_refine_ls_restrained_S_all      1.126
_refine_ls_R_factor_all          0.0463
_refine_ls_R_factor_gt           0.0436
_refine_ls_shift/su_max          0.000
_refine_ls_shift/su_mean         0.000
_refine_ls_structure_factor_coef Fsqd
_refine_ls_weighting_details
'w=1/[\s^2^(Fo^2^)+2.2220P] where P=(Fo^2^+2Fc^2^)/3'
_refine_ls_weighting_scheme      calc
_refine_ls_wR_factor_gt          0.0934
_refine_ls_wR_factor_ref         0.0955
_reflns_Friedel_coverage         0.000
_reflns_Friedel_fraction_full    .
_reflns_Friedel_fraction_max     .
_reflns_number_gt                251
_reflns_number_total             265
_reflns_threshold_expression     'I > 2\s(I)'
_cod_data_source_file            nchem.2848-s6-m.cif
_cod_data_source_block           m
_cod_depositor_comments
;
The following automatic conversions were performed:

'_exptl_absorpt_correction_type' value 'Multi-Scan' changed to
'multi-scan' according to the built-in table from CIF Core dictionary
named 'cif_core.dic' version 2.4.5 from 2014-11-21.

Automatic conversion script
Id: cif_fix_values 6524 2018-11-02 12:15:13Z antanas 
;
_cod_original_cell_volume        538.32(19)
_cod_database_code               1551138
_shelx_space_group_comment
;
The symmetry employed for this shelxl refinement is uniquely defined
by the following loop, which should always be used as a source of
symmetry information in preference to the above space-group names.
They are only intended as comments.
;
_shelx_estimated_absorpt_t_max   0.824
_shelx_estimated_absorpt_t_min   0.237
_olex2_refinement_description
;
1. Fixed Uiso
 At 1.2 times of:
  All C(H) groups
 At 1.5 times of:
  All C(H,H,H) groups
2.a Aromatic/amide H refined with riding coordinates:
 C3(H3)
2.b Idealised Me refined as rotating group:
 C1(H1a,H1b,H1c), C5(H5a,H5b,H5c)
;
_shelx_res_file
;
TITL 8b in P2(1)/n
CELL 0.71073 10.287 4.615 11.348 90 92.261 90
ZERR 2 0.00206 0.00092 0.00227 0 0.03 0
LATT 1
SYMM 0.5-X,0.5+Y,0.5-Z
SFAC C H Cu O
UNIT 20 28 2 8

L.S. 50
PLAN  25
SIZE 0.1 0.1 1
TEMP -173(2)
LIST 1
MORE -1
BOND $H
CONF
fmap 2
acta 52
REM <olex2.extras>
REM <HklSrc "%.\\m.hkl">
REM </olex2.extras>

WGHT    0.000000    2.222000
FVAR       1.05243
C1    1    0.181515   -0.062944    0.447627    11.00000    0.01659
AFIX 137
H1A   2    0.118713    0.084292    0.470609    11.00000   -1.50000
H1B   2    0.192620   -0.206598    0.510822    11.00000   -1.50000
H1C   2    0.149416   -0.159082    0.375177    11.00000   -1.50000
AFIX   0
C2    1    0.308864    0.077717    0.426762    11.00000    0.01439
C3    1    0.388156   -0.030996    0.340045    11.00000    0.01721
AFIX  43
H3    2    0.357342   -0.193641    0.295883    11.00000   -1.20000
AFIX   0
C4    1    0.511353    0.083739    0.313100    11.00000    0.01461
C5    1    0.583992   -0.052806    0.215498    11.00000    0.02025
AFIX 137
H5A   2    0.623599    0.098951    0.168316    11.00000   -1.50000
H5B   2    0.523645   -0.166912    0.165209    11.00000   -1.50000
H5C   2    0.652215   -0.179717    0.249166    11.00000   -1.50000
AFIX   0
O1    4    0.337578    0.294343    0.495183    11.00000    0.01556
O2    4    0.566080    0.297586    0.366081    11.00000    0.01639
CU1   3    0.500000    0.500000    0.500000    10.50000    0.01326
HKLF 4

REM  8b in P2(1)/n
REM R1 =  0.0436 for     251 Fo > 4sig(Fo)  and  0.0463 for all     265 data
REM     32 parameters refined using      0 restraints

END

WGHT      0.0000      2.2220

REM Highest difference peak  0.352,  deepest hole -0.313,  1-sigma level  0.048
Q1    1   0.4842  0.5360  0.4638  11.00000  0.05    0.35
Q2    1   0.4396  0.5890  0.4969  11.00000  0.05    0.23
Q3    1   0.5972  0.2845  0.4219  11.00000  0.05    0.22
Q4    1   0.6885  0.2458  0.3457  11.00000  0.05    0.18
Q5    1   0.5384 -0.1371  0.3805  11.00000  0.05    0.17
Q6    1   0.4465  0.0346  0.2893  11.00000  0.05    0.17
Q7    1   0.6036  0.4839  0.4804  11.00000  0.05    0.17
Q8    1   0.6160  0.2191  0.3723  11.00000  0.05    0.17
Q9    1   0.4843  0.2477  0.5189  11.00000  0.05    0.16
Q10   1   0.4541  0.0087  0.3554  11.00000  0.05    0.16
Q11   1   0.4335 -0.0907  0.4409  11.00000  0.05    0.16
Q12   1   0.5242  0.7160  0.5144  11.00000  0.05    0.15
Q13   1   0.3680  0.5243  0.5460  11.00000  0.05    0.15
Q14   1   0.4395  0.1627  0.5735  11.00000  0.05    0.14
Q15   1   0.3255  0.2910  0.3224  11.00000  0.05    0.14
Q16   1   0.5121  0.4083  0.3965  11.00000  0.05    0.14
Q17   1   0.6582 -0.0010  0.2213  11.00000  0.05    0.14
Q18   1   0.3751  0.1116  0.3433  11.00000  0.05    0.14
Q19   1   0.6095  0.4406  0.2864  11.00000  0.05    0.14
Q20   1   0.6497  0.0953  0.4281  11.00000  0.05    0.13
Q21   1   0.5789  0.5401  0.4059  11.00000  0.05    0.13
Q22   1   0.6486 -0.0899  0.3051  11.00000  0.05    0.13
Q23   1   0.4953 -0.2861  0.3174  11.00000  0.05    0.13
Q24   1   0.5933 -0.1227  0.3378  11.00000  0.05    0.13
Q25   1   0.4440 -0.2571  0.3567  11.00000  0.05    0.12
;
_shelx_res_checksum              89856
_shelx_hkl_file
;
   2   0   1    0.51    0.09
  -4   0  -1   -0.18    0.13
  -6   0  -1    0.34    0.21
   6   0   5   -0.02    0.30
  -7   0  -1 1568.00   31.60
   7   0   6    0.81    0.51
   7   0   7  423.30    8.61
   8   0   8  190.60    4.01
   8   0   9   -0.55    0.94
   8   0  10  262.10    5.51
  -9   0   0   -0.44    0.43
   9   0  11   45.35    1.83
 -10   0   0  996.40   20.11
 -12   0   1    0.17    0.75
 -13   0   2    2.13    1.00
 -14   0   3    1.56    1.23
 -14  -1   2    6.79    1.33
 -13  -1   1    4.60    1.00
 -13  -1   2  359.20    7.40
 -12  -1   1  443.30    9.08
 -11  -1   0  264.20    5.50
 -11  -1   1   12.94    0.86
 -10  -1   0   54.71    1.36
  -9  -1   0  110.00    2.38
   8   1  12   33.11    1.54
   8   1  11  215.00    4.64
   8   1  10    5.71    1.08
   8   1   9  183.30    3.92
   8   1   8   41.58    1.29
  -8  -1  -1  835.10   16.81
   7   1   7   58.07    1.50
   7   1   6  395.30    8.07
  -7  -1  -1    2.40    0.38
   6   1   6    3.88    0.54
   6   1   5 1092.00   21.96
  -6  -1  -1  430.80    8.69
   5   1   4 1436.00   28.83
  -5  -1  -1  352.30    7.11
  -3  -1  -1   63.28    1.33
   0  -1   0    0.02    0.16
  -1   1   0  361.60    7.27
   6  -1   5 1148.00   23.76
   8  -1   9  182.80    3.86
  -9   1   0  120.20    2.54
 -11   1   1   15.20    0.57
 -13   1   2  368.50    7.63
 -13  -2   2    1.42    1.17
 -13  -2   3  367.20    7.59
 -12  -2   1   15.11    0.98
 -12  -2   2  103.30    2.37
 -11  -2   1  354.80    7.28
 -10  -2   0 1402.00   28.24
 -10  -2   1   91.03    2.10
  -9  -2   0   99.13    2.19
   8   2  11    2.65    1.20
   8   2  10  221.70    4.69
  -8  -2   0 1164.00   23.43
   7   2  12   34.78    1.44
   7   2  11   61.95    1.74
   7   2  10    8.14    1.10
   7   2   9  387.30    7.92
   7   2   8   18.76    0.96
  -7  -2  -1  863.00   17.38
  -7  -2   0   22.32    0.74
   6   2   8  323.80    6.66
   6   2   7   -0.08    0.70
   6   2   6  430.30    8.74
  -6  -2  -1  704.60   14.19
  -6  -2   0  947.90   19.06
   5   2   6  112.20    2.45
   5   2   5 1168.00   23.48
  -5  -2  -1 1165.00   23.40
  -5  -2   0  308.90    6.27
   4   2   5    0.29    0.42
   4   2   4 2187.00   43.86
  -4  -2  -1  124.90    2.59
  -4  -2   0 1626.00   32.63
   3   2   4  453.80    9.18
   3   2   3 2189.00   43.89
  -3  -2   0   84.47    1.79
   2   2   3  110.30    2.30
   2   2   2  181.30    3.70
   1   2   2   91.83    1.92
  -1  -2   0   27.36    0.67
   0   2   1  138.20    2.84
   1  -2   1  351.00    7.09
  -3   2   0   79.52    1.65
   3  -2   2   74.96    1.57
   4  -2   3   12.44    0.37
  -5   2   0  310.60    6.30
  -6   2   0  974.10   19.85
 -12  -3   2   52.72    1.52
 -12  -3   3   58.40    1.62
 -11  -3   1    1.56    0.89
 -11  -3   2  158.10    3.42
 -11  -3   3    5.88    0.91
 -10  -3   2    5.56    0.79
  -9  -3   0  608.60   12.31
  -9  -3   1   47.59    1.27
  -9  -3   2  590.10   11.95
  -8  -3   0   99.42    2.18
  -8  -3   1  736.60   14.87
   7   3  11    1.58    1.31
   7   3  10  139.20    3.09
  -7  -3   0  885.50   17.84
  -7  -3   1  179.40    3.75
   6   3  11  144.20    3.20
   6   3  10  143.50    3.17
   6   3   9   69.79    1.78
   6   3   8   -0.08    0.85
  -6  -3   0  147.10    3.10
  -6  -3   1  918.40   18.50
   5   3  10   86.18    2.08
   5   3   9   25.81    1.09
   5   3   8  162.70    3.50
   5   3   7  261.00    5.39
   5   3   6  845.70   17.05
  -5  -3   0 1537.00   30.87
  -5  -3   1  102.30    2.23
   4   3   7 1256.00   25.26
   4   3   6  118.30    2.59
   4   3   5 1117.00   22.47
  -4  -3   0    1.31    0.51
  -4  -3   1 2106.00   42.26
   3   3   6 1749.00   35.12
   3   3   5  379.70    7.73
   3   3   4  939.40   18.91
  -3  -3   0 1787.00   35.87
  -3  -3   1    6.80    0.54
   2   3   5 1050.00   21.12
   2   3   4  262.80    5.39
   2   3   3 1835.00   36.83
  -2  -3   0   66.95    1.51
  -2  -3   1 1547.00   31.06
   1   3   4 1481.00   29.75
   1   3   3   50.95    1.20
  -1  -3   1   11.39    0.52
   0   3   3 1222.00   24.54
   0   3   2    8.78    0.46
   0  -3   1  173.20    3.58
   0  -3   2    8.52    0.47
  -1   3   2 1146.00   23.02
   1  -3   2 1596.00   32.06
  -2   3   2   13.38    0.51
   2  -3   2   34.40    0.85
   2  -3   3 1775.00   35.66
  -3   3   2 1822.00   36.56
  -3   3   1    5.62    0.42
   3  -3   3  187.60    3.85
   3  -3   4 1000.00   20.17
  -4   3   2  253.50    5.17
  -4   3   1 2170.00   43.58
   4  -3   4   10.66    0.49
  -5   3   1   95.18    2.02
   5  -3   6  858.10   17.36
  -6   3   1  917.10   18.50
   6  -3   7  503.20   10.32
   7  -3  10  130.30    2.90
  -8   3   2   15.95    0.68
  -9   3   2  624.60   12.70
 -11   3   3    8.13    0.74
 -12   3   4  130.10    2.92
 -11  -4   2   20.68    1.14
 -10  -4   2  268.80    5.57
 -10  -4   3   40.91    1.32
 -10  -4   4  139.70    3.06
  -9  -4   2  170.80    3.63
  -9  -4   3  273.10    5.64
  -8  -4   1   92.95    2.12
  -8  -4   2  411.40    8.38
  -8  -4   3   91.52    2.10
  -7  -4   1  382.10    7.80
  -7  -4   2  156.60    3.33
  -7  -4   3  436.40    8.88
  -6  -4   1    8.60    0.73
  -6  -4   2  532.00   10.79
   5   4  10  153.10    3.34
   5   4   9  452.00    9.19
  -5  -4   1  315.20    6.45
  -5  -4   2  185.70    3.89
   4   4  11    5.60    1.10
   4   4  10  295.80    6.10
   4   4   9   10.40    0.92
   4   4   8  406.40    8.29
   4   4   7   52.16    1.43
  -4  -4   1  970.40   19.54
  -4  -4   2  741.00   14.96
   3   4  11  200.30    4.21
   3   4  10   38.36    1.29
   3   4   9  301.50    6.20
   3   4   8    1.44    0.86
   3   4   7  152.80    3.29
   3   4   6  113.60    2.51
  -3  -4   1  510.50   10.34
  -3  -4   2    3.64    0.59
  -3  -4   3  680.50   13.75
   2   4   8  297.30    6.14
   2   4   7    2.98    0.81
   2   4   6  264.70    5.48
   2   4   5   25.72    0.98
  -2  -4   2  765.50   15.43
  -2  -4   3  336.60    6.87
   1   4   7  694.80   14.06
   1   4   6   26.36    1.00
   1   4   5  631.70   12.78
   1   4   4   67.28    1.64
  -1  -4   2   77.58    1.74
  -1  -4   3  560.00   11.32
   0   4   6  871.30   17.58
   0   4   5   43.98    1.24
   0   4   4  627.40   12.69
   0  -4   2  775.90   15.64
   0  -4   3   75.45    1.72
  -1   4   5  372.90    7.61
  -1   4   4  179.10    3.77
  -1   4   3  562.10   11.38
   1  -4   3  730.70   14.75
   1  -4   4   60.42    1.45
  -2   4   5   49.80    1.28
  -2   4   4  259.90    5.36
  -2   4   3  337.70    6.90
   2  -4   4  695.30   14.07
   2  -4   5   22.84    0.81
  -3   4   4  862.90   17.40
  -3   4   3  649.20   13.13
   3  -4   5  247.20    5.11
   3  -4   6  102.20    2.26
  -4   4   4  491.10    9.99
  -4   4   3   22.62    0.95
   4  -4   6  116.10    2.53
  -5   4   4   15.27    0.83
  -5   4   3  760.90   15.39
   5  -4   7  303.60    6.26
   5  -4   8    1.26    0.99
   5  -4   9  433.30    8.87
  -6   4   4  672.60   13.62
  -6   4   3  117.60    2.61
   6  -4  10  166.20    3.81
  -7   4   4    2.41    0.88
  -7   4   3  506.20   10.31
  -8   4   4  348.00    7.16
  -8   4   3   92.97    2.19
  -9   4   4    6.82    1.10
 -10   4   5   31.26    1.48
  -8  -5   3  208.70    4.40
  -8  -5   4   15.11    1.05
  -7  -5   3   -0.23    0.87
  -7  -5   4  736.70   14.88
  -7  -5   5    2.73    0.97
  -6  -5   3  464.00    9.44
  -6  -5   4    0.89    0.86
  -6  -5   5  645.50   13.06
  -5  -5   3    1.72    0.82
  -5  -5   4  315.60    6.49
  -5  -5   5   19.13    0.98
  -4  -5   3   25.65    0.89
  -4  -5   4   23.62    1.00
  -4  -5   5  460.60    9.37
   3   5   9    1.39    0.89
  -3  -5   3  160.30    3.40
  -3  -5   4  172.80    3.64
  -3  -5   5   18.06    0.92
   2   5   9  272.00    5.64
   2   5   8   14.27    1.08
  -2  -5   3   79.49    1.84
  -2  -5   4   84.70    1.95
  -2  -5   5  621.70   12.58
   1   5   9    1.62    1.06
   1   5   8  354.70    7.27
   1   5   7   -0.02    0.92
  -1  -5   4  598.90   12.13
  -1  -5   5   20.38    0.92
  -1  -5   6  667.70   13.51
   0   5   9  243.90    5.09
   0   5   8   91.81    2.18
   0   5   7  342.20    7.01
   0   5   6    6.04    0.94
   0  -5   4   17.44    0.84
   0  -5   5  425.00    8.65
   0  -5   6    6.77    0.79
  -1   5   9   26.45    1.24
  -1   5   8  251.10    5.22
  -1   5   7    0.18    0.93
  -1   5   6  676.70   13.70
   1  -5   5    4.09    0.73
   1  -5   6  249.90    5.19
   1  -5   7    1.31    0.83
  -2   5   9   90.46    2.20
  -2   5   8    3.06    1.01
  -2   5   7  325.20    6.71
  -2   5   6   94.67    2.23
  -2   5   5  610.00   12.37
   2  -5   6    9.29    0.83
   2  -5   7  350.00    7.18
   2  -5   8   15.85    1.08
  -3   5   8   39.46    1.36
  -3   5   7    2.01    0.99
  -3   5   6  439.80    8.99
  -3   5   5   17.00    1.01
   3  -5   7    4.27    0.95
   3  -5   8  155.30    3.40
   3  -5   9    1.66    1.12
  -4   5   8    0.06    1.13
  -4   5   7  169.90    3.65
  -4   5   6    1.94    0.93
  -4   5   5  454.40    9.25
  -5   5   8   34.76    1.32
  -5   5   7   15.54    1.08
  -5   5   6  396.20    8.10
  -5   5   5   16.41    1.12
  -6   5   7  133.90    2.99
  -6   5   6   12.80    1.16
  -6   5   5  654.10   13.27
  -7   5   6  423.50    8.69
  -7   5   5    4.67    1.22
   0   0   0    0.00    0.00
;
_shelx_hkl_checksum              1256
_olex2_submission_special_instructions 'No special instructions were received'
loop_
_space_group_symop_operation_xyz
'x, y, z'
'-x+1/2, y+1/2, -z+1/2'
'-x, -y, -z'
'x-1/2, -y-1/2, z-1/2'
loop_
_atom_site_label
_atom_site_type_symbol
_atom_site_fract_x
_atom_site_fract_y
_atom_site_fract_z
_atom_site_U_iso_or_equiv
_atom_site_adp_type
_atom_site_occupancy
_atom_site_site_symmetry_order
_atom_site_calc_flag
_atom_site_refinement_flags_posn
_atom_site_refinement_flags_adp
_atom_site_refinement_flags_occupancy
_atom_site_disorder_assembly
_atom_site_disorder_group
C1 C 0.1815(7) -0.0629(11) 0.4476(9) 0.0166(12) Uiso 1 1 d . . . . .
H1A H 0.1187 0.0843 0.4706 0.025 Uiso 1 1 calc GR . . . .
H1B H 0.1926 -0.2066 0.5108 0.025 Uiso 1 1 calc GR . . . .
H1C H 0.1494 -0.1591 0.3752 0.025 Uiso 1 1 calc GR . . . .
C2 C 0.3089(7) 0.0777(11) 0.4268(8) 0.0144(12) Uiso 1 1 d . . . . .
C3 C 0.3882(8) -0.0310(12) 0.3400(9) 0.0172(12) Uiso 1 1 d . . . . .
H3 H 0.3573 -0.1936 0.2959 0.021 Uiso 1 1 calc R . . . .
C4 C 0.5114(7) 0.0837(11) 0.3131(8) 0.0146(12) Uiso 1 1 d . . . . .
C5 C 0.5840(8) -0.0528(12) 0.2155(10) 0.0202(13) Uiso 1 1 d . . . . .
H5A H 0.6236 0.0990 0.1683 0.030 Uiso 1 1 calc GR . . . .
H5B H 0.5236 -0.1669 0.1652 0.030 Uiso 1 1 calc GR . . . .
H5C H 0.6522 -0.1797 0.2492 0.030 Uiso 1 1 calc GR . . . .
O1 O 0.3376(5) 0.2943(8) 0.4952(6) 0.0156(9) Uiso 1 1 d . . . . .
O2 O 0.5661(5) 0.2976(8) 0.3661(6) 0.0164(9) Uiso 1 1 d . . . . .
Cu1 Cu 0.5000 0.5000 0.5000 0.0133(4) Uiso 1 2 d S T P . .
loop_
_atom_type_symbol
_atom_type_description
_atom_type_scat_dispersion_real
_atom_type_scat_dispersion_imag
_atom_type_scat_source
C C 0.0033 0.0016 'International Tables Vol C Tables 4.2.6.8 and 6.1.1.4'
H H 0.0000 0.0000 'International Tables Vol C Tables 4.2.6.8 and 6.1.1.4'
Cu Cu 0.3201 1.2651 'International Tables Vol C Tables 4.2.6.8 and 6.1.1.4'
O O 0.0106 0.0060 'International Tables Vol C Tables 4.2.6.8 and 6.1.1.4'
loop_
_geom_angle_atom_site_label_1
_geom_angle_atom_site_label_2
_geom_angle_atom_site_label_3
_geom_angle
_geom_angle_site_symmetry_1
_geom_angle_site_symmetry_3
H1A C1 H1B 109.5 . .
H1A C1 H1C 109.5 . .
H1B C1 H1C 109.5 . .
C2 C1 H1A 109.5 . .
C2 C1 H1B 109.5 . .
C2 C1 H1C 109.5 . .
C3 C2 C1 119.8(6) . .
O1 C2 C1 115.0(8) . .
O1 C2 C3 125.1(7) . .
C2 C3 H3 117.6 . .
C2 C3 C4 124.7(6) . .
C4 C3 H3 117.6 . .
C3 C4 C5 118.6(6) . .
O2 C4 C3 124.7(9) . .
O2 C4 C5 116.7(7) . .
C4 C5 H5A 109.5 . .
C4 C5 H5B 109.5 . .
C4 C5 H5C 109.5 . .
H5A C5 H5B 109.5 . .
H5A C5 H5C 109.5 . .
H5B C5 H5C 109.5 . .
C2 O1 Cu1 125.2(6) . .
C4 O2 Cu1 125.7(7) . .
O1 Cu1 O1 180.0 . 3_666
O1 Cu1 O2 94.1(2) . .
O1 Cu1 O2 85.9(2) . 3_666
O1 Cu1 O2 85.9(2) 3_666 .
O1 Cu1 O2 94.1(2) 3_666 3_666
O2 Cu1 O2 180.0 3_666 .
loop_
_geom_bond_atom_site_label_1
_geom_bond_atom_site_label_2
_geom_bond_distance
_geom_bond_site_symmetry_2
C1 H1A 0.9800 .
C1 H1B 0.9800 .
C1 H1C 0.9800 .
C1 C2 1.489(11) .
C2 C3 1.396(13) .
C2 O1 1.293(8) .
C3 H3 0.9500 .
C3 C4 1.418(11) .
C4 C5 1.499(14) .
C4 O2 1.275(8) .
C5 H5A 0.9800 .
C5 H5B 0.9800 .
C5 H5C 0.9800 .
O1 Cu1 1.920(5) .
O2 Cu1 1.930(7) .
Cu1 O1 1.921(5) 3_666
Cu1 O2 1.930(7) 3_666
loop_
_geom_torsion_atom_site_label_1
_geom_torsion_atom_site_label_2
_geom_torsion_atom_site_label_3
_geom_torsion_atom_site_label_4
_geom_torsion
_geom_torsion_site_symmetry_1
_geom_torsion_site_symmetry_2
_geom_torsion_site_symmetry_3
_geom_torsion_site_symmetry_4
C1 C2 C3 C4 -179.5(7) . . . .
C1 C2 O1 Cu1 174.4(5) . . . .
C2 C3 C4 C5 -178.7(8) . . . .
C2 C3 C4 O2 1.2(14) . . . .
C3 C2 O1 Cu1 -4.2(11) . . . .
C3 C4 O2 Cu1 3.8(11) . . . .
C5 C4 O2 Cu1 -176.3(5) . . . .
O1 C2 C3 C4 -1.0(15) . . . .
