#------------------------------------------------------------------------------
#$Date: 2019-05-24 12:00:40 +0300 (Fri, 24 May 2019) $
#$Revision: 215489 $
#$URL: file:///home/coder/svn-repositories/cod/cif/1/55/11/1551131.cif $
#------------------------------------------------------------------------------
#
# This file is available in the Crystallography Open Database (COD),
# http://www.crystallography.net/
#
# All data on this site have been placed in the public domain by the
# contributors.
#
data_1551131
loop_
_publ_author_name
'Anna Worthy'
'Arnaud Grosjean'
'Michael C. Pfrunder'
'Yanan Xu'
'Cheng Yan'
'Grant Edwards'
'Jack K. Clegg'
'John C. McMurtrie'
_publ_section_title
;
 Atomic resolution of structural changes in elastic crystals of copper(II)
 acetylacetonate
;
_journal_name_full               'Nature Chemistry'
_journal_page_first              65
_journal_page_last               69
_journal_paper_doi               10.1038/nchem.2848
_journal_volume                  10
_journal_year                    2018
_chemical_formula_moiety         'C10 H14 Cu O4'
_chemical_formula_sum            'C10 H14 Cu O4'
_chemical_formula_weight         261.75
_space_group_crystal_system      monoclinic
_space_group_IT_number           14
_space_group_name_Hall           '-P 2yn'
_space_group_name_H-M_alt        'P 1 21/n 1'
_symmetry_space_group_name_Hall  '-P 2yn'
_symmetry_space_group_name_H-M   'P 1 21/n 1'
_atom_sites_solution_hydrogens   geom
_cell_angle_alpha                90
_cell_angle_beta                 91.63(3)
_cell_angle_gamma                90
_cell_formula_units_Z            2
_cell_length_a                   10.326(2)
_cell_length_b                   4.5580(9)
_cell_length_c                   11.451(2)
_cell_measurement_reflns_used    286
_cell_measurement_temperature    100(2)
_cell_measurement_theta_max      29.491
_cell_measurement_theta_min      9.351
_cell_volume                     538.73(18)
_computing_cell_refinement       'XDS (Kabsch, 1993)'
_computing_data_collection       'BluIce (McPhillips, 2002)'
_computing_data_reduction        'XDS (Kabsch, 1993)'
_computing_molecular_graphics    'Olex2 (Dolomanov et al., 2009)'
_computing_publication_material  'Olex2 (Dolomanov et al., 2009)'
_computing_structure_refinement  'ShelXL (Sheldrick, 2015)'
_computing_structure_solution    'Known Structure'
_diffrn_ambient_temperature      100(2)
_diffrn_measured_fraction_theta_full 0.191
_diffrn_measured_fraction_theta_max 0.190
_diffrn_measurement_device_type  'ADSC Quantum 315r'
_diffrn_measurement_method       'Phi Scan'
_diffrn_radiation_monochromator  'Silicon Double Crystal'
_diffrn_radiation_type           Synchrotron
_diffrn_radiation_wavelength     0.7108
_diffrn_reflns_av_unetI/netI     0.1609
_diffrn_reflns_Laue_measured_fraction_full 0.191
_diffrn_reflns_Laue_measured_fraction_max 0.190
_diffrn_reflns_number            286
_diffrn_reflns_point_group_measured_fraction_full 0.191
_diffrn_reflns_point_group_measured_fraction_max 0.190
_diffrn_reflns_theta_full        26.000
_diffrn_reflns_theta_max         29.491
_diffrn_reflns_theta_min         9.351
_diffrn_source                   Synchrotron
_exptl_absorpt_coefficient_mu    2.017
_exptl_absorpt_correction_type   multi-scan
_exptl_absorpt_process_details   'XDS (Kabsch, 1993)'
_exptl_crystal_colour            'dark blue'
_exptl_crystal_colour_lustre     .
_exptl_crystal_colour_modifier   dark
_exptl_crystal_colour_primary    blue
_exptl_crystal_density_diffrn    1.614
_exptl_crystal_description       needle
_exptl_crystal_F_000             270
_exptl_crystal_size_max          1
_exptl_crystal_size_mid          0.05
_exptl_crystal_size_min          0.05
_refine_diff_density_max         0.280
_refine_diff_density_min         -0.319
_refine_diff_density_rms         0.076
_refine_ls_extinction_coef       .
_refine_ls_extinction_method     none
_refine_ls_goodness_of_fit_ref   1.080
_refine_ls_hydrogen_treatment    constr
_refine_ls_matrix_type           full
_refine_ls_number_parameters     32
_refine_ls_number_reflns         286
_refine_ls_number_restraints     0
_refine_ls_restrained_S_all      1.080
_refine_ls_R_factor_all          0.1779
_refine_ls_R_factor_gt           0.0731
_refine_ls_shift/su_max          0.000
_refine_ls_shift/su_mean         0.000
_refine_ls_structure_factor_coef Fsqd
_refine_ls_weighting_details
'w=1/[\s^2^(Fo^2^)+(0.0683P)^2^+0.4083P] where P=(Fo^2^+2Fc^2^)/3'
_refine_ls_weighting_scheme      calc
_refine_ls_wR_factor_gt          0.1313
_refine_ls_wR_factor_ref         0.1687
_reflns_Friedel_coverage         0.000
_reflns_Friedel_fraction_full    .
_reflns_Friedel_fraction_max     .
_reflns_number_gt                155
_reflns_number_total             286
_reflns_threshold_expression     'I > 2\s(I)'
_cod_data_source_file            nchem.2848-s5-p.cif
_cod_data_source_block           p
_cod_depositor_comments
;
The following automatic conversions were performed:

'_exptl_absorpt_correction_type' value 'Multi-Scan' changed to
'multi-scan' according to the built-in table from CIF Core dictionary
named 'cif_core.dic' version 2.4.5 from 2014-11-21.

Automatic conversion script
Id: cif_fix_values 6524 2018-11-02 12:15:13Z antanas 
;
_cod_original_cell_volume        538.73(19)
_cod_database_code               1551131
_shelx_space_group_comment
;
The symmetry employed for this shelxl refinement is uniquely defined
by the following loop, which should always be used as a source of
symmetry information in preference to the above space-group names.
They are only intended as comments.
;
_shelx_estimated_absorpt_t_max   0.906
_shelx_estimated_absorpt_t_min   0.238
_olex2_refinement_description
;
1. Fixed Uiso
 At 1.2 times of:
  All C(H) groups
 At 1.5 times of:
  All C(H,H,H) groups
2.a Aromatic/amide H refined with riding coordinates:
 C3(H3)
2.b Idealised Me refined as rotating group:
 C1(H1A,H1B,H1C), C5(H5A,H5B,H5C)
;
_shelx_res_file
;
TITL 4b in P2(1)/n
CELL 0.71073 10.326 4.558 11.451 90 91.627 90
ZERR 2 0.0021 0.0009 0.0023 0 0.03 0
LATT 1
SYMM 0.5-X,0.5+Y,0.5-Z
SFAC C H Cu O
UNIT 20 28 2 8

L.S. 50
PLAN  25
SIZE 0.05 0.05 1
TEMP -173(2)
MORE -1
BOND $H
CONF
LIST 1
fmap 2
acta 52.0
MERG 2
REM <olex2.extras>
REM <HklSrc "%.\\p.hkl">
REM </olex2.extras>

WGHT    0.068300    0.408300
FVAR       1.16382
C1    1    0.177129   -0.069767    0.444993    11.00000    0.01614
AFIX 137
H1A   2    0.118717    0.071158    0.480987    11.00000   -1.50000
H1B   2    0.189617   -0.239087    0.496842    11.00000   -1.50000
H1C   2    0.139276   -0.135272    0.369995    11.00000   -1.50000
AFIX   0
C2    1    0.309798    0.078933    0.424650    11.00000    0.02329
C3    1    0.389962   -0.030335    0.338449    11.00000    0.02543
AFIX  43
H3    2    0.360820   -0.197409    0.295630    11.00000   -1.20000
AFIX   0
C4    1    0.504186    0.083171    0.312154    11.00000    0.01407
C5    1    0.583913   -0.057820    0.222104    11.00000    0.03156
AFIX 137
H5A   2    0.663252    0.056348    0.212106    11.00000   -1.50000
H5B   2    0.534538   -0.065404    0.147803    11.00000   -1.50000
H5C   2    0.606599   -0.257510    0.246937    11.00000   -1.50000
AFIX   0
O1    4    0.334964    0.296363    0.489182    11.00000    0.02197
O2    4    0.566206    0.299603    0.367226    11.00000    0.01964
CU1   3    0.500000    0.500000    0.500000    10.50000    0.01802
HKLF 4

REM  4b in P2(1)/n
REM R1 =  0.0731 for     155 Fo > 4sig(Fo)  and  0.1779 for all     286 data
REM     32 parameters refined using      0 restraints

END

WGHT      0.0669      0.7580

REM Highest difference peak  0.280,  deepest hole -0.319,  1-sigma level  0.076
Q1    1   0.4708  0.0002  0.2401  11.00000  0.05    0.28
Q2    1   0.4213  0.0066  0.2255  11.00000  0.05    0.28
Q3    1   0.7633  0.0123  0.1935  11.00000  0.05    0.25
Q4    1   0.3067  0.3792  0.4318  11.00000  0.05    0.25
Q5    1   0.2758  0.2940  0.3388  11.00000  0.05    0.25
Q6    1   0.4136  0.3386  0.4645  11.00000  0.05    0.24
Q7    1   0.1128  0.0006  0.4679  11.00000  0.05    0.24
Q8    1   0.0163 -0.1230  0.4987  11.00000  0.05    0.24
Q9    1   0.4605  0.5549  0.3638  11.00000  0.05    0.23
Q10   1   0.6122 -0.2823  0.2980  11.00000  0.05    0.23
Q11   1   0.0735  0.2218  0.5618  11.00000  0.05    0.23
Q12   1   0.6735 -0.3890  0.3423  11.00000  0.05    0.22
Q13   1   0.5613  0.1374  0.3936  11.00000  0.05    0.22
Q14   1   0.0055 -0.1669  0.3757  11.00000  0.05    0.22
Q15   1   0.4138  0.3593  0.3808  11.00000  0.05    0.22
Q16   1   0.3246  0.4083  0.6298  11.00000  0.05    0.21
Q17   1   0.2063  0.0084  0.4978  11.00000  0.05    0.21
Q18   1   0.6629 -0.4777  0.2800  11.00000  0.05    0.21
Q19   1   0.2384  0.0063  0.3027  11.00000  0.05    0.21
Q20   1   0.6204  0.2959  0.3007  11.00000  0.05    0.21
Q21   1   0.1151 -0.0854  0.2397  11.00000  0.05    0.20
Q22   1   0.0892  0.1227  0.3960  11.00000  0.05    0.20
Q23   1   0.3075 -0.3256  0.3587  11.00000  0.05    0.20
Q24   1   0.7039  0.0052  0.3273  11.00000  0.05    0.20
Q25   1   0.4436 -0.4139  0.2848  11.00000  0.05    0.20
;
_shelx_res_checksum              76871
_shelx_hkl_file
;
  13   0  -2  -76.79   43.42
  13   1  -2  146.60   61.06
   9   1  -3   74.18   31.34
   8   1  -3 2955.00   69.47
  -6  -1  11  524.50   63.21
  -6  -1  12   40.55   70.76
  -6  -1  13  283.70   78.39
  -6  -1  14  -39.15   99.87
  -5  -1   7  582.20   31.59
  -5  -1   8 1139.00   52.50
   4   1  -2 1402.00   35.40
  -4  -1   5 1294.00   34.91
  -3  -1   4 2688.00   59.61
  -4   1   4  250.20   21.05
  -5   1   6 1774.00   47.59
   5  -1  -2 2134.00   50.79
  -6   1   9  876.80   46.47
   6  -1  -2  157.70   22.89
  10  -1  -2   35.35   51.86
  11  -1  -2  872.80   64.79
  12  -1  -2   51.31   66.94
  14  -1  -1  331.50  115.50
  13   2  -2  -10.97  118.80
  12   2  -2  -70.12   91.31
  11   2  -2   51.55   67.42
   6   2  -2 1110.00   40.46
   5   2  -2  242.00   30.70
  -5  -2   9 1431.00   66.37
  -5  -2  10   45.87   62.70
  -5  -2  11  471.30   76.17
  -5  -2  12 -157.30   95.05
  -5  -2  13   11.34   98.15
  -5  -2  14  313.10  116.70
   4   2  -2 4509.00   99.58
  -4  -2   7  180.00   41.63
  -4  -2   8 1255.00   59.14
   3   2  -1 5162.00  114.00
  -3  -2   5 1366.00   45.18
  -3  -2   6   -7.69   30.22
   2   2  -1   45.45   23.08
  -2  -2   4 1736.00   49.05
  -1  -2   3 3304.00   75.94
  -1   2   1 1777.00   49.39
  -2   2   2 3608.00   83.51
  -3   2   4  448.80   30.98
  -3   2   3 5046.00  112.20
   3  -2   0  120.50   28.17
  -4   2   5   35.44   35.10
   4  -2  -1  468.70   31.12
  -5   2   8  -17.96   52.00
  -5   2   7  287.40   48.04
  -5   2   6  -53.41   50.60
   5  -2  -1 1519.00   47.14
  -6   2  13 -142.30  124.40
  -6   2  12   72.06   93.42
  -6   2  11  -14.47   82.07
  -6   2  10  281.50   71.10
  -6   2   9  -15.64   60.08
   6  -2  -1   21.28   35.12
   7  -2  -1  867.50   43.77
   8  -2  -2  270.60   73.09
   8  -2  -1   12.57   47.14
   9  -2  -1 1390.00   66.21
  10  -2  -1   -5.26   70.16
  11  -2  -1  371.40   85.83
  12  -2  -1  100.30   90.65
  13  -2  -1    5.38  109.20
  13  -2   0   52.60  100.40
  12   3  -1   20.93  104.90
  11   3  -1  -89.77   93.35
  11   3  -2  155.00   87.56
  10   3  -2  118.20   82.76
   9   3  -2  581.10   77.54
   8   3  -2   78.92   67.66
   7   3  -2  462.80   69.80
   6   3  -1  979.10   58.15
   6   3  -2  -86.05   50.29
   5   3  -1   38.57   41.70
   5   3  -2  899.20   45.12
   4   3  -1 2343.00   68.86
  -4  -3   9  632.10   64.94
  -4  -3  10  256.80   75.94
  -4  -3  11  473.60   84.77
  -4  -3  12   41.90   93.28
  -4  -3  13   45.21  103.00
   3   3   0 2006.00   61.12
   3   3  -1  -18.15   34.49
  -3  -3   7   43.94   69.86
  -3  -3   8  614.90   73.12
  -3  -3   9   23.59   58.88
  -3  -3  10  717.00   70.47
   2   3   0  103.90   36.43
  -2  -3   5 1316.00   54.73
  -2  -3   6  884.30   54.86
  -2  -3   7  292.10   57.18
   1   3   1   68.81   34.20
   1   3   0  142.60   35.68
  -1  -3   4 1325.00   50.88
  -1  -3   5  325.30   40.88
   0   3   2   -7.64   36.18
   0   3   1  206.80   35.90
   0  -3   3 1387.00   53.10
   0  -3   4   28.63   38.42
  -1   3   3   49.89   35.10
  -1   3   2 1233.00   49.62
   1  -3   2 1742.00   54.49
   1  -3   3   79.74   36.04
  -2   3   4   -2.01   40.73
  -2   3   3 1900.00   63.87
   2  -3   1 1329.00   48.00
   2  -3   2   46.31   37.75
  -3   3   5   59.01   55.11
  -3   3   4 1606.00   61.89
   3  -3   1  -39.36   36.92
   3  -3   2 1447.00   54.90
  -4   3   8  172.80   72.94
  -4   3   7  740.10   70.25
  -4   3   6   89.35   62.90
   4  -3   0  -35.75   35.86
   4  -3   1 1040.00   53.91
  -5   3  12   78.18   87.46
  -5   3  11 -156.60   86.54
  -5   3  10  405.40   81.05
  -5   3   9  174.80   72.83
  -5   3   8  669.30   70.71
   5  -3   0 1514.00   58.44
   5  -3   1  819.60   56.21
  -6   3  12  157.80  109.10
  -6   3  11  -44.99  103.00
   6  -3   0  181.80   58.91
   6  -3   1  417.50   51.92
   7  -3   0  902.10   66.43
   8  -3   0  100.30   71.89
   9  -3   0  616.80   76.34
  10  -3   0  204.90   86.26
  10  -3   1  635.60   85.91
  11  -3   0   96.25   96.45
  11  -3   1   43.85   94.55
  12  -3   0  120.10   99.92
  12  -3   1  171.00  111.90
  11   4   0   55.35   97.86
  11   4  -1  231.00  100.60
  10   4   0   74.38   91.49
  10   4  -1  -89.84  100.20
   9   4   0  193.80   83.38
   9   4  -1  276.60   92.36
   8   4   0  314.50   77.58
   8   4  -1  111.50   76.84
   7   4   0  158.80   70.74
   7   4  -1  415.00   74.05
   6   4   0  143.60   62.27
   6   4  -1   34.82   58.78
   5   4   0  -32.44   50.93
   5   4  -1  388.70   52.76
   4   4   1   33.01   48.46
   4   4   0  323.90   51.09
   3   4   1  505.20   51.90
   3   4   0  -29.12   47.32
  -3  -4  11   94.41  118.40
   2   4   2  650.30   53.18
   2   4   1  186.30   46.96
  -2  -4   9  103.90   72.00
  -2  -4  10  -42.84   80.06
  -2  -4  11  -18.12   93.37
  -2  -4  12  227.60   93.94
   1   4   3  851.40   52.99
   1   4   2  432.60   49.48
   1   4   1  957.60   54.28
  -1  -4   7  927.70   70.01
  -1  -4   8   65.44   68.77
  -1  -4   9  441.30   78.78
  -1  -4  10   90.56   77.39
  -1  -4  11  246.40   84.32
  -1  -4  12   40.26   92.65
   0   4   4  725.90   52.57
   0   4   3   28.42   45.94
   0   4   2  749.10   51.03
   0  -4   5   45.18   57.21
   0  -4   6  902.50   63.93
   0  -4   7   10.00   62.43
   0  -4   8  492.00   69.53
   0  -4   9   91.39   67.74
  -1   4   5  370.20   51.34
  -1   4   4  156.60   47.26
  -1   4   3  514.80   49.21
   1  -4   4  -60.94   50.46
   1  -4   5  599.30   59.16
   1  -4   6   19.31   62.99
   1  -4   7  585.30   62.52
  -2   4   7   66.79   66.01
  -2   4   6  201.60   63.56
  -2   4   5  178.20   58.61
  -2   4   4  315.80   50.05
   2  -4   3  556.10   53.41
   2  -4   4  645.80   60.42
   2  -4   5   39.84   58.96
   2  -4   6  208.20   58.82
  -3   4   9  208.80   67.41
  -3   4   8   25.49   71.10
  -3   4   7  516.70   72.00
  -3   4   6  131.60   55.68
   3  -4   3  745.20   62.86
   3  -4   4   61.76   56.43
   3  -4   5  252.30   55.30
  -4   4  11  144.00   96.27
  -4   4  10   20.26   97.77
  -4   4   9   -0.91   88.65
  -4   4   8  276.50   74.02
   4  -4   2  710.00   58.14
   4  -4   3 -152.00   62.29
   4  -4   4  516.60   58.27
  -5   4  11   28.27  108.50
   5  -4   2    7.66   58.17
   5  -4   3  918.90   72.69
   5  -4   4   82.70   59.56
   6  -4   2 1068.00   75.30
   6  -4   3   11.60   68.66
   7  -4   1  584.70   68.33
   7  -4   2  -24.59   70.13
   7  -4   3  646.70   76.77
   8  -4   1 -130.20   78.01
   8  -4   2  287.60   87.56
   8  -4   3 -119.60   84.94
   9  -4   1   81.40   82.65
   9  -4   2  -32.56   87.65
   9  -4   3   31.10   83.27
  10  -4   1   -6.56  108.80
  10  -4   2   47.53   93.22
  10  -4   3  -23.37   88.22
   8   5   2   -0.10   93.67
   8   5   1   -2.93   90.15
   7   5   2    4.39   86.05
   7   5   1   85.39   81.76
   6   5   3  378.50   63.36
   6   5   2   32.16   70.79
   6   5   1  393.70   73.88
   5   5   3   92.98   68.10
   5   5   2  481.80   68.77
   5   5   1  141.60   64.58
   4   5   3  157.60   64.42
   4   5   2  -76.99   63.39
   4   5   1  683.40   66.24
   3   5   4  -50.24   53.12
   3   5   3  -49.75   62.48
   3   5   2  355.50   61.33
   2   5   5  174.60   65.32
   2   5   4  -48.37   51.56
   2   5   3   74.74   62.31
   2   5   2  -21.78   50.45
   1   5   6  181.10   55.03
   1   5   5  103.50   62.79
   1   5   4   49.70   60.18
   1   5   3  166.80   58.49
   0   5   7  317.10   69.09
   0   5   6  -36.85   65.26
   0   5   5  312.10   63.17
   0   5   4   42.92   59.76
  -1   5   9   11.47   94.49
  -1   5   8  323.90   87.84
  -1   5   7   65.08   68.83
  -1   5   6  715.30   70.02
  -1   5   5  -12.92   61.80
   1  -5   8  220.20   73.58
   1  -5   9  -76.83   86.96
  -2   5   9  120.00   85.36
  -2   5   8 -102.80   79.09
  -2   5   7  259.10   87.98
   2  -5   7  244.50   73.68
   2  -5   8    0.54   82.62
   2  -5   9  269.40   81.17
  -3   5   9   86.60   98.74
   3  -5   6   68.53   72.75
   3  -5   7  -10.71   70.08
   3  -5   8  164.00   77.94
   3  -5   9   76.67   91.65
   4  -5   5  210.30   69.89
   4  -5   6  -21.70   76.45
   4  -5   7   41.79   71.85
   4  -5   8  -29.26   78.00
   5  -5   5  -82.07   79.51
   5  -5   6  293.80   82.99
   5  -5   7    7.38   79.77
   6  -5   4  207.40   80.67
   6  -5   5  514.30   79.63
   6  -5   6   73.98   87.71
   7  -5   4  211.00   89.36
   7  -5   5 -101.20   83.35
   0   0   0    0.00    0.00
;
_shelx_hkl_checksum              49646
_olex2_submission_special_instructions 'No special instructions were received'
loop_
_space_group_symop_operation_xyz
'x, y, z'
'-x+1/2, y+1/2, -z+1/2'
'-x, -y, -z'
'x-1/2, -y-1/2, z-1/2'
loop_
_atom_site_label
_atom_site_type_symbol
_atom_site_fract_x
_atom_site_fract_y
_atom_site_fract_z
_atom_site_U_iso_or_equiv
_atom_site_adp_type
_atom_site_occupancy
_atom_site_site_symmetry_order
_atom_site_calc_flag
_atom_site_refinement_flags_posn
_atom_site_refinement_flags_adp
_atom_site_refinement_flags_occupancy
_atom_site_disorder_assembly
_atom_site_disorder_group
C1 C 0.177(3) -0.070(2) 0.445(3) 0.016(4) Uiso 1 1 d . . . . .
H1A H 0.1187 0.0712 0.4810 0.024 Uiso 1 1 calc GR . . . .
H1B H 0.1896 -0.2391 0.4968 0.024 Uiso 1 1 calc GR . . . .
H1C H 0.1393 -0.1353 0.3700 0.024 Uiso 1 1 calc GR . . . .
C2 C 0.310(3) 0.079(3) 0.425(3) 0.023(4) Uiso 1 1 d . . . . .
C3 C 0.390(2) -0.030(3) 0.338(2) 0.025(4) Uiso 1 1 d . . . . .
H3 H 0.3608 -0.1974 0.2956 0.031 Uiso 1 1 calc R . . . .
C4 C 0.504(2) 0.083(2) 0.312(2) 0.014(3) Uiso 1 1 d . . . . .
C5 C 0.584(3) -0.058(3) 0.222(4) 0.032(5) Uiso 1 1 d . . . . .
H5A H 0.6633 0.0563 0.2121 0.047 Uiso 1 1 calc GR . . . .
H5B H 0.5345 -0.0654 0.1478 0.047 Uiso 1 1 calc GR . . . .
H5C H 0.6066 -0.2575 0.2469 0.047 Uiso 1 1 calc GR . . . .
O1 O 0.3350(15) 0.296(2) 0.4892(18) 0.022(2) Uiso 1 1 d . . . . .
O2 O 0.5662(16) 0.2996(19) 0.3672(18) 0.020(2) Uiso 1 1 d . . . . .
Cu1 Cu 0.5000 0.5000 0.5000 0.0180(9) Uiso 1 2 d S T P . .
loop_
_atom_type_symbol
_atom_type_description
_atom_type_scat_dispersion_real
_atom_type_scat_dispersion_imag
_atom_type_scat_source
C C 0.0033 0.0016 'International Tables Vol C Tables 4.2.6.8 and 6.1.1.4'
H H 0.0000 0.0000 'International Tables Vol C Tables 4.2.6.8 and 6.1.1.4'
Cu Cu 0.3201 1.2651 'International Tables Vol C Tables 4.2.6.8 and 6.1.1.4'
O O 0.0106 0.0060 'International Tables Vol C Tables 4.2.6.8 and 6.1.1.4'
loop_
_geom_angle_atom_site_label_1
_geom_angle_atom_site_label_2
_geom_angle_atom_site_label_3
_geom_angle
_geom_angle_site_symmetry_1
_geom_angle_site_symmetry_3
H1A C1 H1B 109.5 . .
H1A C1 H1C 109.5 . .
H1B C1 H1C 109.5 . .
C2 C1 H1A 109.5 . .
C2 C1 H1B 109.5 . .
C2 C1 H1C 109.5 . .
C3 C2 C1 120(2) . .
O1 C2 C1 115.1(19) . .
O1 C2 C3 125(2) . .
C2 C3 H3 117.7 . .
C4 C3 C2 125(2) . .
C4 C3 H3 117.7 . .
C3 C4 C5 120.1(18) . .
O2 C4 C3 126.9(19) . .
O2 C4 C5 112.5(19) . .
C4 C5 H5A 109.5 . .
C4 C5 H5B 109.5 . .
C4 C5 H5C 109.5 . .
H5A C5 H5B 109.5 . .
H5A C5 H5C 109.5 . .
H5B C5 H5C 109.5 . .
C2 O1 Cu1 125.5(13) . .
C4 O2 Cu1 123.6(12) . .
O1 Cu1 O1 180.0 3_666 .
O2 Cu1 O1 93.1(6) . .
O2 Cu1 O1 86.9(6) . 3_666
O2 Cu1 O1 86.9(6) 3_666 .
O2 Cu1 O1 93.1(6) 3_666 3_666
O2 Cu1 O2 180.0 . 3_666
loop_
_geom_bond_atom_site_label_1
_geom_bond_atom_site_label_2
_geom_bond_distance
_geom_bond_site_symmetry_2
C1 H1A 0.9800 .
C1 H1B 0.9800 .
C1 H1C 0.9800 .
C1 C2 1.55(3) .
C2 C3 1.40(3) .
C2 O1 1.26(3) .
C3 H3 0.9500 .
C3 C4 1.33(3) .
C4 C5 1.48(3) .
C4 O2 1.33(3) .
C5 H5A 0.9800 .
C5 H5B 0.9800 .
C5 H5C 0.9800 .
O1 Cu1 1.941(14) .
O2 Cu1 1.916(14) .
Cu1 O1 1.941(14) 3_666
Cu1 O2 1.916(14) 3_666
loop_
_geom_torsion_atom_site_label_1
_geom_torsion_atom_site_label_2
_geom_torsion_atom_site_label_3
_geom_torsion_atom_site_label_4
_geom_torsion
_geom_torsion_site_symmetry_1
_geom_torsion_site_symmetry_2
_geom_torsion_site_symmetry_3
_geom_torsion_site_symmetry_4
C1 C2 C3 C4 179(3) . . . .
C1 C2 O1 Cu1 172(2) . . . .
C2 C3 C4 C5 178(3) . . . .
C2 C3 C4 O2 6(4) . . . .
C3 C2 O1 Cu1 -9(4) . . . .
C3 C4 O2 Cu1 0(3) . . . .
C5 C4 O2 Cu1 -173(2) . . . .
O1 C2 C3 C4 -1(5) . . . .
