#------------------------------------------------------------------------------
#$Date: 2019-05-24 12:01:09 +0300 (Fri, 24 May 2019) $
#$Revision: 215493 $
#$URL: file:///home/coder/svn-repositories/cod/cif/1/55/11/1551135.cif $
#------------------------------------------------------------------------------
#
# This file is available in the Crystallography Open Database (COD),
# http://www.crystallography.net/
#
# All data on this site have been placed in the public domain by the
# contributors.
#
data_1551135
loop_
_publ_author_name
'Anna Worthy'
'Arnaud Grosjean'
'Michael C. Pfrunder'
'Yanan Xu'
'Cheng Yan'
'Grant Edwards'
'Jack K. Clegg'
'John C. McMurtrie'
_publ_section_title
;
 Atomic resolution of structural changes in elastic crystals of copper(II)
 acetylacetonate
;
_journal_name_full               'Nature Chemistry'
_journal_page_first              65
_journal_page_last               69
_journal_paper_doi               10.1038/nchem.2848
_journal_volume                  10
_journal_year                    2018
_chemical_formula_moiety         'C10 H14 Cu O4'
_chemical_formula_sum            'C10 H14 Cu O4'
_chemical_formula_weight         261.75
_space_group_crystal_system      monoclinic
_space_group_IT_number           14
_space_group_name_Hall           '-P 2yn'
_space_group_name_H-M_alt        'P 1 21/n 1'
_symmetry_space_group_name_Hall  '-P 2yn'
_symmetry_space_group_name_H-M   'P 1 21/n 1'
_atom_sites_solution_hydrogens   geom
_cell_angle_alpha                90
_cell_angle_beta                 92.55(3)
_cell_angle_gamma                90
_cell_formula_units_Z            2
_cell_length_a                   10.270(2)
_cell_length_b                   4.6500(9)
_cell_length_c                   11.282(2)
_cell_measurement_reflns_used    299
_cell_measurement_temperature    100(2)
_cell_measurement_theta_max      29.483
_cell_measurement_theta_min      4.813
_cell_volume                     538.24(18)
_computing_cell_refinement       'XDS (Kabsch, 1993)'
_computing_data_collection       'BluIce (McPhillips, 2002)'
_computing_data_reduction        'XDS (Kabsch, 1993)'
_computing_molecular_graphics    'Olex2 (Dolomanov et al., 2009)'
_computing_publication_material  'Olex2 (Dolomanov et al., 2009)'
_computing_structure_refinement  'ShelXL (Sheldrick, 2015)'
_computing_structure_solution    'Known structure'
_diffrn_ambient_temperature      100(2)
_diffrn_measured_fraction_theta_full 0.175
_diffrn_measured_fraction_theta_max 0.173
_diffrn_measurement_device_type  'ADSC Quantum 315r'
_diffrn_measurement_method       'Phi Scan'
_diffrn_radiation_monochromator  'Silicon Double Crystal'
_diffrn_radiation_type           Synchrotron
_diffrn_radiation_wavelength     0.7108
_diffrn_reflns_av_R_equivalents  0.0182
_diffrn_reflns_av_unetI/netI     0.0213
_diffrn_reflns_Laue_measured_fraction_full 0.175
_diffrn_reflns_Laue_measured_fraction_max 0.173
_diffrn_reflns_limit_h_max       9
_diffrn_reflns_limit_h_min       -14
_diffrn_reflns_limit_k_max       5
_diffrn_reflns_limit_k_min       -5
_diffrn_reflns_limit_l_max       12
_diffrn_reflns_limit_l_min       -1
_diffrn_reflns_number            299
_diffrn_reflns_point_group_measured_fraction_full 0.175
_diffrn_reflns_point_group_measured_fraction_max 0.173
_diffrn_reflns_theta_full        26.000
_diffrn_reflns_theta_max         29.483
_diffrn_reflns_theta_min         4.813
_diffrn_source                   Synchrotron
_exptl_absorpt_coefficient_mu    2.019
_exptl_absorpt_correction_type   multi-scan
_exptl_absorpt_process_details   'XDS (Kabsch, 1993)'
_exptl_crystal_colour            'dark blue'
_exptl_crystal_colour_lustre     .
_exptl_crystal_colour_modifier   dark
_exptl_crystal_colour_primary    blue
_exptl_crystal_density_diffrn    1.615
_exptl_crystal_description       needle
_exptl_crystal_F_000             270
_exptl_crystal_size_max          1
_exptl_crystal_size_mid          0.1
_exptl_crystal_size_min          0.1
_refine_diff_density_max         0.347
_refine_diff_density_min         -0.308
_refine_diff_density_rms         0.052
_refine_ls_extinction_coef       .
_refine_ls_extinction_method     none
_refine_ls_goodness_of_fit_ref   1.196
_refine_ls_hydrogen_treatment    constr
_refine_ls_matrix_type           full
_refine_ls_number_parameters     32
_refine_ls_number_reflns         260
_refine_ls_number_restraints     0
_refine_ls_restrained_S_all      1.196
_refine_ls_R_factor_all          0.0481
_refine_ls_R_factor_gt           0.0448
_refine_ls_shift/su_max          0.000
_refine_ls_shift/su_mean         0.000
_refine_ls_structure_factor_coef Fsqd
_refine_ls_weighting_details
'w=1/[\s^2^(Fo^2^)+2.4666P] where P=(Fo^2^+2Fc^2^)/3'
_refine_ls_weighting_scheme      calc
_refine_ls_wR_factor_gt          0.1001
_refine_ls_wR_factor_ref         0.1026
_reflns_Friedel_coverage         0.000
_reflns_Friedel_fraction_full    .
_reflns_Friedel_fraction_max     .
_reflns_number_gt                242
_reflns_number_total             260
_reflns_threshold_expression     'I > 2\s(I)'
_cod_data_source_file            nchem.2848-s6-g.cif
_cod_data_source_block           g
_cod_depositor_comments
;
The following automatic conversions were performed:

'_exptl_absorpt_correction_type' value 'Multi-Scan' changed to
'multi-scan' according to the built-in table from CIF Core dictionary
named 'cif_core.dic' version 2.4.5 from 2014-11-21.

Automatic conversion script
Id: cif_fix_values 6524 2018-11-02 12:15:13Z antanas 
;
_cod_original_cell_volume        538.24(19)
_cod_database_code               1551135
_shelx_space_group_comment
;
The symmetry employed for this shelxl refinement is uniquely defined
by the following loop, which should always be used as a source of
symmetry information in preference to the above space-group names.
They are only intended as comments.
;
_shelx_estimated_absorpt_t_max   0.824
_shelx_estimated_absorpt_t_min   0.237
_olex2_refinement_description
;
1. Fixed Uiso
 At 1.2 times of:
  All C(H) groups
 At 1.5 times of:
  All C(H,H,H) groups
2.a Aromatic/amide H refined with riding coordinates:
 C3(H3)
2.b Idealised Me refined as rotating group:
 C1(H1a,H1b,H1c), C5(H5a,H5b,H5c)
;
_shelx_res_file
;
TITL 1b in P2(1)/n
CELL 0.71073 10.27 4.65 11.282 90 92.552 90
ZERR 2 0.00205 0.00093 0.00226 0 0.03 0
LATT 1
SYMM 0.5-X,0.5+Y,0.5-Z
SFAC C H Cu O
UNIT 20 28 2 8

L.S. 50
PLAN  25
SIZE 0.1 0.1 1
TEMP -173(2)
LIST 1
MORE -1
BOND $H
CONF
fmap 2
acta 52
REM <olex2.extras>
REM <HklSrc "%.\\g.hkl">
REM </olex2.extras>

WGHT    0.000000    2.466600
FVAR       0.95981
C1    1    0.181490   -0.061758    0.448691    11.00000    0.01658
AFIX 137
H1A   2    0.122235    0.079464    0.481696    11.00000   -1.50000
H1B   2    0.195428   -0.220414    0.505011    11.00000   -1.50000
H1C   2    0.143188   -0.136571    0.373782    11.00000   -1.50000
AFIX   0
C2    1    0.309490    0.079448    0.426626    11.00000    0.01321
C3    1    0.389033   -0.030257    0.339999    11.00000    0.01705
AFIX  43
H3    2    0.358449   -0.193034    0.296147    11.00000   -1.20000
AFIX   0
C4    1    0.511793    0.084018    0.313067    11.00000    0.01434
C5    1    0.584663   -0.050515    0.214046    11.00000    0.02026
AFIX 137
H5A   2    0.641639    0.093516    0.179796    11.00000   -1.50000
H5B   2    0.522279   -0.121272    0.152557    11.00000   -1.50000
H5C   2    0.637429   -0.211221    0.245434    11.00000   -1.50000
AFIX   0
O1    4    0.337663    0.295961    0.494860    11.00000    0.01499
O2    4    0.565395    0.299703    0.365122    11.00000    0.01561
CU1   3    0.500000    0.500000    0.500000    10.50000    0.01303
HKLF 4

REM  1b in P2(1)/n
REM R1 =  0.0448 for     242 Fo > 4sig(Fo)  and  0.0481 for all     260 data
REM     32 parameters refined using      0 restraints

END

WGHT      0.0000      2.4666

REM Highest difference peak  0.347,  deepest hole -0.308,  1-sigma level  0.052
Q1    1   0.4840  0.5436  0.4667  11.00000  0.05    0.35
Q2    1   0.5359  0.7079  0.5170  11.00000  0.05    0.22
Q3    1   0.4186  0.1725  0.5759  11.00000  0.05    0.19
Q4    1   0.5944  0.2423  0.3955  11.00000  0.05    0.19
Q5    1   0.6431  0.4200  0.4414  11.00000  0.05    0.18
Q6    1   0.5658  0.5776  0.4231  11.00000  0.05    0.18
Q7    1   0.4017  0.5190  0.5179  11.00000  0.05    0.17
Q8    1   0.5336 -0.1235  0.3784  11.00000  0.05    0.17
Q9    1   0.4551  0.6660  0.5309  11.00000  0.05    0.17
Q10   1   0.4824  0.2496  0.5174  11.00000  0.05    0.16
Q11   1   0.4795  0.5028  0.3672  11.00000  0.05    0.16
Q12   1   0.3858  0.2540  0.5212  11.00000  0.05    0.16
Q13   1   0.5289  0.3343  0.3462  11.00000  0.05    0.15
Q14   1   0.4958 -0.2846  0.3173  11.00000  0.05    0.15
Q15   1   0.3315  0.1587  0.6148  11.00000  0.05    0.15
Q16   1   0.6211  0.3495  0.2565  11.00000  0.05    0.15
Q17   1   0.2758 -0.2345  0.3800  11.00000  0.05    0.14
Q18   1   0.5505  0.1286  0.4828  11.00000  0.05    0.14
Q19   1   0.1012 -0.2442  0.3197  11.00000  0.05    0.14
Q20   1   0.4248 -0.0914  0.4549  11.00000  0.05    0.14
Q21   1   0.5544 -0.2758  0.2136  11.00000  0.05    0.14
Q22   1   0.6538 -0.0820  0.2986  11.00000  0.05    0.14
Q23   1   0.3275  0.3138  0.3182  11.00000  0.05    0.14
Q24   1   0.5133  0.2215  0.4211  11.00000  0.05    0.14
Q25   1   0.6506  0.1019  0.4155  11.00000  0.05    0.14
;
_shelx_res_checksum              28668
_shelx_hkl_file
;
   2   0   1    0.35    0.08
  -4   0  -1    0.09    0.14
   6   0   5   -0.50    0.32
  -6   0  -1    0.13    0.23
   7   0   7  334.70    6.84
   7   0   6    0.97    0.53
  -7   0  -1 1317.00   26.55
   8   0  10  199.40    4.31
   8   0   9    1.29    1.05
   8   0   8  163.70    3.48
   9   0  11   32.12    1.58
  -9   0   0   -0.52    0.41
 -10   0   0  838.90   16.95
 -12   0   1   -0.37    0.76
 -13   0   2    0.72    1.00
 -14   0   3    0.39    1.30
 -14  -1   2    3.70    1.27
 -13  -1   2  305.80    6.35
 -13  -1   1    7.03    0.97
 -12  -1   1  372.90    7.67
 -11  -1   1   10.75    0.81
 -10  -1   0   49.91    1.29
  -9  -1   0   78.43    1.76
  -8  -1  -1  648.80   13.08
   8   1   9  140.40    3.11
   8   1  10    4.06    1.15
   8   1  11  147.40    3.30
   8   1  12   24.76    1.55
  -7  -1  -1    2.69    0.39
   7   1   7   45.74    1.32
  -6  -1  -1  352.10    7.12
   6   1   5  949.90   19.11
   6   1   6    2.78    0.51
  -5  -1  -1  290.00    5.87
   5   1   4 1256.00   25.23
   4   1   3 2201.00   44.14
  -3  -1  -1   50.80    1.08
   0  -1   0    0.57    0.16
  -1   1   0  359.80    7.24
   6  -1   5  949.30   19.66
   8  -1   9  145.60    3.12
  -9   1   0  101.40    2.15
 -11   1   1   13.14    0.56
 -13   1   2  308.40    6.42
 -13  -2   3  327.90    6.81
 -13  -2   2    1.51    1.23
 -12  -2   2   86.71    2.16
 -12  -2   1   10.84    1.12
 -11  -2   1  288.10    5.96
 -10  -2   1   79.91    1.88
 -10  -2   0 1136.00   22.90
  -9  -2   0   84.79    1.93
  -8  -2   0  957.10   19.27
   8   2  10  176.00    3.83
   8   2  11   -2.31    1.24
  -7  -2   0   17.68    0.66
  -7  -2  -1  665.30   13.43
   7   2   7  491.30   10.03
   7   2   8   15.60    0.98
   7   2   9  315.60    6.51
   7   2  10    5.08    1.06
   7   2  11   45.76    1.55
   7   2  12   23.91    1.44
  -6  -2   0  816.80   16.45
  -6  -2  -1  577.30   11.65
   6   2   6  396.90    8.10
   6   2   7    1.42    0.68
   6   2   8  279.10    5.76
  -5  -2   0  286.50    5.82
  -5  -2  -1  915.40   18.40
   5   2   5 1037.00   20.85
   5   2   6  110.50    2.44
  -4  -2   0 1405.00   28.19
  -4  -2  -1  107.10    2.24
   4   2   4 1915.00   38.42
   4   2   5    0.55    0.41
  -3  -2   0   76.61    1.63
   3   2   3 1864.00   37.40
   2   2   2  172.50    3.53
   2   2   3  103.70    2.17
  -1  -2   0   24.18    0.61
   1   2   2   79.64    1.68
   0   2   1  118.90    2.45
   1  -2   1  286.90    5.81
  -1   2   1 1276.00   25.61
   3  -2   2   64.46    1.36
  -3   2   0   76.09    1.58
   4  -2   3   12.10    0.36
  -4   2   0 1357.00   27.32
  -5   2   0  272.50    5.53
  -6   2   0  856.80   17.46
 -12  -3   3   48.39    1.48
 -12  -3   2   41.43    1.30
 -11  -3   3    6.71    0.92
 -11  -3   2  138.30    3.04
 -11  -3   1    0.45    0.99
 -10  -3   2    6.13    0.86
 -10  -3   1  203.80    4.36
  -9  -3   2  542.70   11.00
  -9  -3   1   38.47    1.10
  -9  -3   0  470.80    9.57
  -8  -3   1  625.70   12.65
  -8  -3   0   82.10    1.88
  -7  -3   1  157.10    3.32
  -7  -3   0  719.10   14.52
   7   3  10  116.70    2.71
   7   3  11    2.22    1.26
  -6  -3   1  789.00   15.91
  -6  -3   0  123.60    2.65
   6   3   8    0.84    0.91
   6   3   9   54.98    1.58
   6   3  10  126.00    2.81
   6   3  11  112.80    2.64
  -5  -3   1   90.47    1.99
  -5  -3   0 1318.00   26.49
   5   3   6  772.70   15.60
   5   3   7  229.00    4.75
   5   3   8  120.70    2.68
   5   3   9   25.16    1.12
   5   3  10   62.68    1.64
  -4  -3   1 1932.00   38.78
  -4  -3   0   -0.16    0.48
   4   3   5 1054.00   21.21
   4   3   6  105.90    2.37
   4   3   7 1020.00   20.53
  -3  -3   1    5.43    0.50
  -3  -3   0 1365.00   27.42
   3   3   4  878.60   17.70
   3   3   5  311.10    6.36
   3   3   6 1565.00   31.43
  -2  -3   1 1406.00   28.24
  -2  -3   0   55.18    1.28
   2   3   3 1614.00   32.40
   2   3   4  245.40    5.05
   2   3   5  917.00   18.46
  -1  -3   1    9.65    0.49
   1   3   3   42.49    1.03
   1   3   4 1243.00   24.99
   0  -3   2    5.09    0.45
   0  -3   1  136.90    2.86
   0   3   2    6.11    0.43
   0   3   3 1001.00   20.11
   1  -3   2 1434.00   28.79
  -1   3   2  985.70   19.81
   2  -3   3 1595.00   32.03
   2  -3   2   26.99    0.73
  -2   3   2   10.21    0.48
   3  -3   3  162.40    3.35
  -3   3   1    6.01    0.45
  -3   3   2 1506.00   30.24
   4  -3   4   10.92    0.51
  -4   3   1 1864.00   37.43
   5  -3   6  786.40   15.93
  -5   3   1   84.92    1.82
   6  -3   7  435.70    8.94
  -6   3   1  832.90   16.81
   7  -3  10  116.70    2.64
  -8   3   2   10.56    0.60
  -9   3   2  522.80   10.64
 -11   3   3    5.93    0.74
 -11  -4   2   17.66    1.21
 -10  -4   4  127.00    2.82
 -10  -4   3   33.26    1.26
 -10  -4   2  211.90    4.46
  -9  -4   3  229.20    4.77
  -9  -4   2  137.20    2.99
  -9  -4   1  328.30    6.75
  -8  -4   3   76.49    1.86
  -8  -4   2  341.50    7.00
  -8  -4   1   77.70    1.83
  -7  -4   3  391.30    7.98
  -7  -4   2  136.70    2.96
  -7  -4   1  308.90    6.33
  -6  -4   2  458.40    9.32
  -6  -4   1    7.36    0.67
  -5  -4   2  146.70    3.12
  -5  -4   1  244.00    5.03
   5   4   9  404.20    8.24
   5   4  10  121.20    2.73
  -4  -4   2  680.00   13.73
  -4  -4   1  799.30   16.11
   4   4   7   44.13    1.29
   4   4   8  364.20    7.46
   4   4   9    8.36    0.94
   4   4  10  249.30    5.18
   4   4  11    4.66    1.07
  -3  -4   2    2.88    0.60
  -3  -4   1  456.80    9.26
   3   4   6  101.40    2.31
   3   4   7  137.10    2.99
   3   4   8    0.48    0.82
   3   4   9  245.60    5.11
   3   4  10   31.46    1.16
   3   4  11  191.70    4.09
  -2  -4   3  317.00    6.48
  -2  -4   2  673.10   13.59
  -2  -4   1    4.08    0.53
   2   4   5   20.17    0.90
   2   4   6  244.90    5.09
   2   4   7    3.64    0.88
   2   4   8  250.20    5.18
  -1  -4   3  520.30   10.53
  -1  -4   2   68.77    1.58
   1   4   4   60.65    1.49
   1   4   5  562.30   11.39
   1   4   6   24.80    0.97
   1   4   7  575.80   11.66
   0  -4   3   61.92    1.46
   0  -4   2  628.20   12.69
   0   4   4  572.60   11.60
   0   4   5   39.33    1.20
   0   4   6  721.20   14.56
   1  -4   4   52.57    1.30
   1  -4   3  584.30   11.81
  -1   4   3  542.40   10.99
  -1   4   4  154.40    3.28
  -1   4   5  297.60    6.11
   2  -4   5   18.12    0.83
  -2   4   3  308.40    6.32
  -2   4   4  216.00    4.48
   3  -4   6   96.75    2.15
   3  -4   5  224.40    4.66
  -3   4   3  600.80   12.17
  -3   4   4  711.20   14.37
   4  -4   7   43.90    1.33
   4  -4   6   98.53    2.23
  -4   4   3   18.16    0.96
  -4   4   4  416.30    8.50
   5  -4   9  412.00    8.44
   5  -4   8    1.72    0.95
   5  -4   7  254.30    5.27
  -5   4   3  630.40   12.78
  -5   4   4   15.18    0.88
   6  -4  10  109.50    2.79
  -6   4   3  101.60    2.30
  -6   4   4  506.60   10.30
  -7   4   3  412.80    8.44
  -7   4   4    2.81    0.93
  -8   4   3   86.19    2.05
  -8   4   4  272.10    5.66
  -9   4   4    5.91    1.15
 -10   4   5   24.59    1.48
  -8  -5   4   11.43    1.10
  -8  -5   3  176.00    3.77
  -7  -5   5    0.12    0.89
  -7  -5   4  608.60   12.33
  -7  -5   3   -0.17    0.82
  -6  -5   5  538.70   10.94
  -6  -5   4    1.12    0.83
  -6  -5   3  398.80    8.14
  -5  -5   5   15.11    1.03
  -5  -5   4  272.60    5.65
  -5  -5   3    1.68    0.76
  -4  -5   5  420.40    8.58
  -4  -5   4   18.07    0.89
  -4  -5   3   18.97    0.87
  -3  -5   5   15.11    0.92
  -3  -5   4  155.40    3.30
  -3  -5   3  131.00    2.82
   3   5   9    0.83    1.03
  -2  -5   5  587.40   11.90
  -2  -5   4   66.42    1.61
  -2  -5   3   70.47    1.70
   2   5   8   14.75    1.02
   2   5   9  248.90    5.23
  -1  -5   6  678.30   13.73
  -1  -5   5   21.55    0.91
  -1  -5   4  528.00   10.70
   1   5   7    1.53    1.04
   1   5   8  329.60    6.80
   1   5   9    1.16    1.00
   0  -5   6    8.04    0.85
   0  -5   5  390.00    7.95
   0   5   6    7.16    0.89
   0   5   7  299.30    6.17
   0   5   8   87.75    2.14
   0   5   9  217.40    4.56
   1  -5   7    0.38    0.90
   1  -5   6  229.10    4.77
   1  -5   5    3.05    0.80
  -1   5   6  622.10   12.61
  -1   5   7   -0.23    0.99
  -1   5   8  216.70    4.55
  -1   5   9   20.54    1.13
   2  -5   8   14.53    1.03
   2  -5   7  314.00    6.47
   2  -5   6    7.76    0.95
  -2   5   5  598.30   12.13
  -2   5   6   85.29    2.05
  -2   5   7  284.50    5.90
  -2   5   8    1.24    1.08
  -2   5   9   69.64    1.83
   3  -5   9    0.59    1.19
   3  -5   8  141.00    3.14
   3  -5   7    2.52    0.95
  -3   5   5   13.62    1.00
  -3   5   6  393.80    8.08
  -3   5   7    3.72    1.19
  -4   5   5  387.10    7.92
  -4   5   6    3.62    1.00
  -4   5   7  138.30    3.04
  -4   5   8    0.90    0.98
  -5   5   5   15.21    1.06
  -5   5   6  327.80    6.77
  -5   5   7    9.24    1.14
  -6   5   5  552.30   11.23
  -6   5   6   15.92    1.26
  -6   5   7  111.20    2.62
  -7   5   5    2.64    1.31
  -7   5   6  345.90    7.16
   0   0   0    0.00    0.00
;
_shelx_hkl_checksum              61794
_olex2_submission_special_instructions 'No special instructions were received'
loop_
_space_group_symop_operation_xyz
'x, y, z'
'-x+1/2, y+1/2, -z+1/2'
'-x, -y, -z'
'x-1/2, -y-1/2, z-1/2'
loop_
_atom_site_label
_atom_site_type_symbol
_atom_site_fract_x
_atom_site_fract_y
_atom_site_fract_z
_atom_site_U_iso_or_equiv
_atom_site_adp_type
_atom_site_occupancy
_atom_site_site_symmetry_order
_atom_site_calc_flag
_atom_site_refinement_flags_posn
_atom_site_refinement_flags_adp
_atom_site_refinement_flags_occupancy
_atom_site_disorder_assembly
_atom_site_disorder_group
C1 C 0.1815(8) -0.0618(13) 0.4487(10) 0.0166(14) Uiso 1 1 d . . . . .
H1A H 0.1222 0.0795 0.4817 0.025 Uiso 1 1 calc GR . . . .
H1B H 0.1954 -0.2204 0.5050 0.025 Uiso 1 1 calc GR . . . .
H1C H 0.1432 -0.1366 0.3738 0.025 Uiso 1 1 calc GR . . . .
C2 C 0.3095(8) 0.0794(12) 0.4266(9) 0.0132(13) Uiso 1 1 d . . . . .
C3 C 0.3890(9) -0.0303(13) 0.3400(10) 0.0171(14) Uiso 1 1 d . . . . .
H3 H 0.3584 -0.1930 0.2961 0.020 Uiso 1 1 calc R . . . .
C4 C 0.5118(8) 0.0840(13) 0.3131(9) 0.0143(13) Uiso 1 1 d . . . . .
C5 C 0.5847(9) -0.0505(14) 0.2140(11) 0.0203(15) Uiso 1 1 d . . . . .
H5A H 0.6416 0.0935 0.1798 0.030 Uiso 1 1 calc GR . . . .
H5B H 0.5223 -0.1213 0.1526 0.030 Uiso 1 1 calc GR . . . .
H5C H 0.6374 -0.2112 0.2454 0.030 Uiso 1 1 calc GR . . . .
O1 O 0.3377(6) 0.2960(9) 0.4949(7) 0.0150(10) Uiso 1 1 d . . . . .
O2 O 0.5654(6) 0.2997(9) 0.3651(7) 0.0156(10) Uiso 1 1 d . . . . .
Cu1 Cu 0.5000 0.5000 0.5000 0.0130(4) Uiso 1 2 d S T P . .
loop_
_atom_type_symbol
_atom_type_description
_atom_type_scat_dispersion_real
_atom_type_scat_dispersion_imag
_atom_type_scat_source
C C 0.0033 0.0016 'International Tables Vol C Tables 4.2.6.8 and 6.1.1.4'
H H 0.0000 0.0000 'International Tables Vol C Tables 4.2.6.8 and 6.1.1.4'
Cu Cu 0.3201 1.2651 'International Tables Vol C Tables 4.2.6.8 and 6.1.1.4'
O O 0.0106 0.0060 'International Tables Vol C Tables 4.2.6.8 and 6.1.1.4'
loop_
_geom_angle_atom_site_label_1
_geom_angle_atom_site_label_2
_geom_angle_atom_site_label_3
_geom_angle
_geom_angle_site_symmetry_1
_geom_angle_site_symmetry_3
H1A C1 H1B 109.5 . .
H1A C1 H1C 109.5 . .
H1B C1 H1C 109.5 . .
C2 C1 H1A 109.5 . .
C2 C1 H1B 109.5 . .
C2 C1 H1C 109.5 . .
C3 C2 C1 120.0(7) . .
O1 C2 C1 114.6(9) . .
O1 C2 C3 125.3(8) . .
C2 C3 H3 117.7 . .
C2 C3 C4 124.6(7) . .
C4 C3 H3 117.7 . .
C3 C4 C5 118.7(7) . .
O2 C4 C3 124.6(10) . .
O2 C4 C5 116.7(8) . .
C4 C5 H5A 109.5 . .
C4 C5 H5B 109.5 . .
C4 C5 H5C 109.5 . .
H5A C5 H5B 109.5 . .
H5A C5 H5C 109.5 . .
H5B C5 H5C 109.5 . .
C2 O1 Cu1 125.1(7) . .
C4 O2 Cu1 125.8(8) . .
O1 Cu1 O1 180.0 3_666 .
O1 Cu1 O2 94.0(3) 3_666 3_666
O1 Cu1 O2 86.0(3) 3_666 .
O1 Cu1 O2 86.0(3) . 3_666
O1 Cu1 O2 94.0(3) . .
O2 Cu1 O2 180.0(3) . 3_666
loop_
_geom_bond_atom_site_label_1
_geom_bond_atom_site_label_2
_geom_bond_distance
_geom_bond_site_symmetry_2
C1 H1A 0.9800 .
C1 H1B 0.9800 .
C1 H1C 0.9800 .
C1 C2 1.500(12) .
C2 C3 1.398(15) .
C2 O1 1.292(8) .
C3 H3 0.9500 .
C3 C4 1.414(13) .
C4 C5 1.508(16) .
C4 O2 1.275(8) .
C5 H5A 0.9800 .
C5 H5B 0.9800 .
C5 H5C 0.9800 .
O1 Cu1 1.917(6) .
O2 Cu1 1.930(8) .
Cu1 O1 1.917(6) 3_666
Cu1 O2 1.930(8) 3_666
loop_
_geom_torsion_atom_site_label_1
_geom_torsion_atom_site_label_2
_geom_torsion_atom_site_label_3
_geom_torsion_atom_site_label_4
_geom_torsion
_geom_torsion_site_symmetry_1
_geom_torsion_site_symmetry_2
_geom_torsion_site_symmetry_3
_geom_torsion_site_symmetry_4
C1 C2 C3 C4 -179.2(7) . . . .
C1 C2 O1 Cu1 173.8(5) . . . .
C2 C3 C4 C5 -177.8(9) . . . .
C2 C3 C4 O2 0.6(16) . . . .
C3 C2 O1 Cu1 -4.4(13) . . . .
C3 C4 O2 Cu1 5.4(12) . . . .
C5 C4 O2 Cu1 -176.2(6) . . . .
O1 C2 C3 C4 -1.1(16) . . . .
