#------------------------------------------------------------------------------
#$Date: 2019-05-24 11:59:28 +0300 (Fri, 24 May 2019) $
#$Revision: 215480 $
#$URL: file:///home/coder/svn-repositories/cod/cif/1/55/11/1551122.cif $
#------------------------------------------------------------------------------
#
# This file is available in the Crystallography Open Database (COD),
# http://www.crystallography.net/
#
# All data on this site have been placed in the public domain by the
# contributors.
#
data_1551122
loop_
_publ_author_name
'Anna Worthy'
'Arnaud Grosjean'
'Michael C. Pfrunder'
'Yanan Xu'
'Cheng Yan'
'Grant Edwards'
'Jack K. Clegg'
'John C. McMurtrie'
_publ_section_title
;
 Atomic resolution of structural changes in elastic crystals of copper(II)
 acetylacetonate
;
_journal_name_full               'Nature Chemistry'
_journal_page_first              65
_journal_page_last               69
_journal_paper_doi               10.1038/nchem.2848
_journal_volume                  10
_journal_year                    2018
_chemical_formula_moiety         'C10 H14 Cu O4'
_chemical_formula_sum            'C10 H14 Cu O4'
_chemical_formula_weight         261.75
_space_group_crystal_system      monoclinic
_space_group_IT_number           14
_space_group_name_Hall           '-P 2yn'
_space_group_name_H-M_alt        'P 1 21/n 1'
_symmetry_space_group_name_Hall  '-P 2yn'
_symmetry_space_group_name_H-M   'P 1 21/n 1'
_atom_sites_solution_hydrogens   geom
_cell_angle_alpha                90
_cell_angle_beta                 92.60(3)
_cell_angle_gamma                90
_cell_formula_units_Z            2
_cell_length_a                   10.264(2)
_cell_length_b                   4.6640(9)
_cell_length_c                   11.249(2)
_cell_measurement_reflns_used    285
_cell_measurement_temperature    100(2)
_cell_measurement_theta_max      29.544
_cell_measurement_theta_min      9.673
_cell_volume                     537.95(18)
_computing_cell_refinement       'XDS (Kabsch, 1993)'
_computing_data_collection       'BluIce (McPhillips, 2002)'
_computing_data_reduction        'XDS (Kabsch, 1993)'
_computing_molecular_graphics    'Olex2 (Dolomanov et al., 2009)'
_computing_publication_material  'Olex2 (Dolomanov et al., 2009)'
_computing_structure_refinement  'ShelXL (Sheldrick, 2015)'
_computing_structure_solution    'Known Structure'
_diffrn_ambient_temperature      100(2)
_diffrn_measured_fraction_theta_full 0.187
_diffrn_measured_fraction_theta_max 0.188
_diffrn_measurement_device_type  'ADSC Quantum 315r'
_diffrn_measurement_method       'Phi Scan'
_diffrn_radiation_monochromator  'Silicon Double Crystal'
_diffrn_radiation_type           Synchrotron
_diffrn_radiation_wavelength     0.7108
_diffrn_reflns_av_unetI/netI     0.0215
_diffrn_reflns_Laue_measured_fraction_full 0.187
_diffrn_reflns_Laue_measured_fraction_max 0.188
_diffrn_reflns_number            285
_diffrn_reflns_point_group_measured_fraction_full 0.187
_diffrn_reflns_point_group_measured_fraction_max 0.188
_diffrn_reflns_theta_full        26.000
_diffrn_reflns_theta_max         29.544
_diffrn_reflns_theta_min         9.673
_diffrn_source                   Synchrotron
_exptl_absorpt_coefficient_mu    2.020
_exptl_absorpt_correction_type   multi-scan
_exptl_absorpt_process_details   'XDS (Kabsch, 1993)'
_exptl_crystal_colour            'dark blue'
_exptl_crystal_colour_lustre     .
_exptl_crystal_colour_modifier   dark
_exptl_crystal_colour_primary    blue
_exptl_crystal_density_diffrn    1.616
_exptl_crystal_description       needle
_exptl_crystal_F_000             270
_exptl_crystal_size_max          1
_exptl_crystal_size_mid          0.05
_exptl_crystal_size_min          0.05
_refine_diff_density_max         0.399
_refine_diff_density_min         -0.471
_refine_diff_density_rms         0.058
_refine_ls_extinction_coef       .
_refine_ls_extinction_method     none
_refine_ls_goodness_of_fit_ref   1.070
_refine_ls_hydrogen_treatment    constr
_refine_ls_matrix_type           full
_refine_ls_number_parameters     32
_refine_ls_number_reflns         285
_refine_ls_number_restraints     0
_refine_ls_restrained_S_all      1.070
_refine_ls_R_factor_all          0.0591
_refine_ls_R_factor_gt           0.0537
_refine_ls_shift/su_max          0.000
_refine_ls_shift/su_mean         0.000
_refine_ls_structure_factor_coef Fsqd
_refine_ls_weighting_details
'w=1/[\s^2^(Fo^2^)+(0.0207P)^2^+3.2662P] where P=(Fo^2^+2Fc^2^)/3'
_refine_ls_weighting_scheme      calc
_refine_ls_wR_factor_gt          0.1101
_refine_ls_wR_factor_ref         0.1137
_reflns_Friedel_coverage         0.000
_reflns_Friedel_fraction_full    .
_reflns_Friedel_fraction_max     .
_reflns_number_gt                257
_reflns_number_total             285
_reflns_threshold_expression     'I > 2\s(I)'
_cod_data_source_file            nchem.2848-s5-f.cif
_cod_data_source_block           f
_cod_depositor_comments
;
The following automatic conversions were performed:

'_exptl_absorpt_correction_type' value 'Multi-Scan' changed to
'multi-scan' according to the built-in table from CIF Core dictionary
named 'cif_core.dic' version 2.4.5 from 2014-11-21.

Automatic conversion script
Id: cif_fix_values 6524 2018-11-02 12:15:13Z antanas 
;
_cod_original_cell_volume        537.95(19)
_cod_database_code               1551122
_shelx_space_group_comment
;
The symmetry employed for this shelxl refinement is uniquely defined
by the following loop, which should always be used as a source of
symmetry information in preference to the above space-group names.
They are only intended as comments.
;
_shelx_estimated_absorpt_t_max   0.906
_shelx_estimated_absorpt_t_min   0.237
_olex2_refinement_description
;
1. Fixed Uiso
 At 1.2 times of:
  All C(H) groups
 At 1.5 times of:
  All C(H,H,H) groups
2.a Aromatic/amide H refined with riding coordinates:
 C3(H3)
2.b Idealised Me refined as rotating group:
 C1(H1a,H1b,H1c), C5(H5a,H5b,H5c)
;
_shelx_res_file
;
TITL 9 in P2(1)/n
CELL 0.71073 10.264 4.664 11.249 90 92.598 90
ZERR 2 0.00205 0.00093 0.00225 0 0.03 0
LATT 1
SYMM 0.5-X,0.5+Y,0.5-Z
SFAC C H Cu O
UNIT 20 28 2 8

L.S. 50
PLAN  25
SIZE 0.05 0.05 1
TEMP -173(2)
LIST 1
MORE -1
BOND $H
CONF
fmap 2
acta 52
OMIT -6 2 8
REM <olex2.extras>
REM <HklSrc "%.\\f.hkl">
REM </olex2.extras>

WGHT    0.020700    3.266200
FVAR       1.35760
C1    1    0.181550   -0.062617    0.446369    11.00000    0.02114
AFIX 137
H1A   2    0.120291    0.077306    0.477095    11.00000   -1.50000
H1B   2    0.194791   -0.218687    0.503985    11.00000   -1.50000
H1C   2    0.145981   -0.140568    0.370777    11.00000   -1.50000
AFIX   0
C2    1    0.309452    0.081369    0.426861    11.00000    0.01431
C3    1    0.389842   -0.029795    0.340332    11.00000    0.01909
AFIX  43
H3    2    0.360359   -0.194372    0.297233    11.00000   -1.20000
AFIX   0
C4    1    0.510837    0.086752    0.313541    11.00000    0.01430
C5    1    0.585439   -0.052510    0.217519    11.00000    0.02212
AFIX 137
H5A   2    0.655996    0.074926    0.194710    11.00000   -1.50000
H5B   2    0.526635   -0.089284    0.148122    11.00000   -1.50000
H5C   2    0.622429   -0.234160    0.246989    11.00000   -1.50000
AFIX   0
O1    4    0.339266    0.295539    0.494634    11.00000    0.01788
O2    4    0.565364    0.300958    0.365939    11.00000    0.01778
CU1   3    0.500000    0.500000    0.500000    10.50000    0.01557
HKLF 4

REM  9 in P2(1)/n
REM R1 =  0.0537 for     257 Fo > 4sig(Fo)  and  0.0591 for all     285 data
REM     32 parameters refined using      0 restraints

END

WGHT      0.0214      3.2562

REM Highest difference peak  0.399,  deepest hole -0.471,  1-sigma level  0.058
Q1    1   0.5374  0.6951  0.5547  11.00000  0.05    0.40
Q2    1   0.4780  0.5500  0.4658  11.00000  0.05    0.39
Q3    1   0.5000  0.0000  0.5000  10.50000  0.05    0.31
Q4    1   0.4628  0.6402  0.5472  11.00000  0.05    0.23
Q5    1   0.4255  0.5273  0.4638  11.00000  0.05    0.23
Q6    1   0.4950  0.2139  0.5142  11.00000  0.05    0.21
Q7    1   0.4393  0.6544  0.4053  11.00000  0.05    0.21
Q8    1   0.5870  0.5225  0.4303  11.00000  0.05    0.19
Q9    1   0.4032  0.4900  0.5411  11.00000  0.05    0.19
Q10   1   0.2774  0.0112  0.3628  11.00000  0.05    0.18
Q11   1   0.2723 -0.0450  0.4811  11.00000  0.05    0.18
Q12   1   0.1900 -0.2848  0.3850  11.00000  0.05    0.17
Q13   1   0.5336  0.7122  0.4390  11.00000  0.05    0.17
Q14   1   0.3857 -0.5427  0.3430  11.00000  0.05    0.17
Q15   1   0.5011 -0.0093  0.3584  11.00000  0.05    0.17
Q16   1   0.4455  0.0763  0.4497  11.00000  0.05    0.16
Q17   1   0.5598  0.0052  0.1971  11.00000  0.05    0.16
Q18   1   0.4390 -0.3242  0.3247  11.00000  0.05    0.16
Q19   1   0.5761 -0.2143  0.1715  11.00000  0.05    0.16
Q20   1   0.4201  0.1601  0.3803  11.00000  0.05    0.15
Q21   1   0.0424  0.0325  0.2744  11.00000  0.05    0.15
Q22   1   0.0802  0.1387  0.3362  11.00000  0.05    0.15
Q23   1   0.5401  0.3657  0.3389  11.00000  0.05    0.15
Q24   1   0.5595 -0.4247  0.3018  11.00000  0.05    0.15
Q25   1   0.6330  0.1138  0.4650  11.00000  0.05    0.15
;
_shelx_res_checksum              7205
_shelx_hkl_file
;
  13   1  -2  526.90   12.53
  -6  -1  10   55.03    1.74
  -6  -1  11  730.40   15.07
  -5  -1   7  947.10   19.21
   4   1  -2 1515.00   30.50
  -4  -1   5 1934.00   38.99
  -4   1   4  304.10    6.19
  -5   1   6 2453.00   49.62
   5  -1  -2 2653.00   53.38
  -6   1   8  132.30    2.92
   6  -1  -2  220.20    4.51
  -7   1  13    3.92    3.04
   7  -1  -2 2227.00   44.92
   9  -1  -2 2530.00   51.15
  10  -1  -2   32.92    1.50
  11  -1  -2 1173.00   23.88
  13  -1  -1   -4.20    2.86
  14  -1  -1  946.00   19.59
  12   2  -2  171.70    4.20
  11   2  -2   -0.64    1.85
  10   2  -2  607.40   12.50
   6   2  -2 1458.00   29.32
  -6  -2  12  163.20    4.76
  -6  -2  13   52.34    3.44
   5   2  -2  302.30    6.18
  -5  -2   8    8.42    1.59
  -5  -2   9 2376.00   47.84
  -5  -2  10  127.30    3.27
  -5  -2  11  617.70   12.90
   4   2  -2 6672.00  133.80
  -4  -2   6 1691.00   34.01
  -4  -2   7  327.80    6.77
   3   2  -1 5997.00  120.20
  -3  -2   5 1863.00   37.42
   2   2  -1   80.90    1.83
  -2  -2   3   36.36    1.04
  -2  -2   4 2528.00   50.71
  -1  -2   3 5066.00  101.50
  -2   2   2 5552.00  111.20
  -3   2   3 7564.00  151.60
   3  -2   0  151.60    3.19
  -4   2   5   24.44    1.11
  -4   2   4 2389.00   48.00
   4  -2  -1  646.00   13.02
  -5   2   7  397.70    8.15
  -5   2   6   28.08    1.21
   5  -2  -1 1975.00   39.65
  -6   2  10  339.80    7.15
  -6   2   9    5.74    1.57
  -6   2   8  403.40    8.49
   6  -2  -1   10.82    0.95
   7  -2  -1 1299.00   26.14
   8  -2  -1  170.80    3.90
   9  -2  -1 2016.00   40.60
  10  -2  -1  165.90    3.88
  11  -2  -1  628.20   12.91
  12  -2  -1   24.84    2.49
  13  -2   0   64.77    3.17
  12   3  -1   86.71    3.48
  11   3  -1    5.59    2.54
  11   3  -2  245.70    6.09
  10   3  -1  322.70    7.43
  10   3  -2   11.54    2.28
   9   3  -2 1004.00   20.38
   8   3  -2   20.50    2.13
   7   3  -2  787.10   15.99
   6   3  -1 1366.00   27.55
   6   3  -2   -0.32    1.24
   5   3  -1  162.80    3.54
   5   3  -2 1412.00   28.49
  -5  -3  12  199.80    5.35
   4   3  -1 3440.00   69.00
  -4  -3   8  230.10    5.31
  -4  -3   9  933.90   18.95
  -4  -3  10  316.80    6.83
  -4  -3  11  970.40   19.73
  -4  -3  12   57.21    3.00
  -4  -3  13  212.70    5.34
   3   3   0 2720.00   54.60
   3   3  -1    9.67    1.01
  -3  -3   6 1279.00   25.78
  -3  -3   8 1319.00   26.69
  -3  -3   9    2.41    1.92
   2   3   0  117.50    2.64
  -2  -3   5 2358.00   47.33
  -2  -3   6 1250.00   25.18
  -2  -3   7  433.80    9.25
   1   3   1  132.20    2.89
   1   3   0  224.20    4.68
  -1  -3   4 2173.00   43.62
  -1  -3   5  566.50   11.50
   0   3   1  227.20    4.75
   0  -3   3 1914.00   38.42
   0  -3   4   86.11    2.09
  -1   3   2 1781.00   35.77
   1  -3   2 2568.00   51.51
   1  -3   3   71.31    1.85
  -2   3   4    8.26    1.52
  -2   3   3 2976.00   59.71
   2  -3   1 1617.00   32.48
   2  -3   2   43.00    1.36
  -3   3   5   22.86    1.33
  -3   3   4 2937.00   58.94
   3  -3   1    1.21    0.95
   3  -3   2 1992.00   40.08
  -4   3   7 1064.00   21.56
  -4   3   6  141.50    3.41
  -4   3   5 1144.00   23.08
   4  -3   0    0.14    1.04
   4  -3   1 1579.00   31.75
  -5   3  10  354.20    7.56
  -5   3   9  102.30    2.85
  -5   3   8 1039.00   21.01
  -5   3   7   24.69    1.76
   5  -3   0 2444.00   49.04
   5  -3   1 1199.00   24.19
  -6   3  12    5.65    2.65
  -6   3  11  138.00    3.71
  -6   3  10    7.86    2.14
   6  -3   0  233.00    5.07
   7  -3   0 1345.00   27.14
   8  -3   0  145.20    3.58
   9  -3   0  963.90   19.54
  10  -3   0  341.70    7.30
  11  -3   0  426.10    8.99
  11  -3   1   18.75    2.43
  12  -3   0   -7.80    2.58
  12  -3   1  364.90    7.90
  11   4   0    8.80    2.92
  11   4  -1  379.70    8.39
  10   4   0  208.70    5.05
  10   4  -1   28.76    2.71
   9   4   0    3.68    2.26
   9   4  -1  614.90   12.69
   8   4   0  504.90   10.46
   8   4  -1  163.00    4.00
   7   4   0    6.02    2.04
   7   4  -1  592.70   12.17
   6   4   0  399.90    8.29
   6   4  -1   14.22    1.68
   5   4   0  136.70    3.26
   5   4  -1  467.20    9.63
   4   4   1  255.80    5.42
   4   4   0  353.80    7.34
   3   4   1  771.30   15.63
   3   4   0   81.26    2.21
  -3  -4  10   40.72    2.43
  -3  -4  11   72.31    3.12
   2   4   2  995.70   20.08
   2   4   1  259.20    5.47
  -2  -4   7  116.30    3.63
  -2  -4   8  826.70   16.83
  -2  -4   9   41.10    2.31
  -2  -4  10  235.00    5.33
  -2  -4  11   28.75    2.55
  -2  -4  12  225.30    5.50
   1   4   2  640.40   13.00
   1   4   1 1495.00   30.06
  -1  -4   6   79.04    2.37
  -1  -4   7 1582.00   31.86
  -1  -4   8   27.13    2.00
  -1  -4   9  589.40   12.14
  -1  -4  10   33.37    2.29
   0   4   3  114.30    2.73
   0   4   2 1243.00   25.04
   0  -4   5   71.62    2.35
   0  -4   6 1372.00   27.66
   0  -4   7    0.29    1.92
   0  -4   8 1096.00   22.22
  -1   4   4  272.50    5.72
  -1   4   3  985.00   19.87
   1  -4   4  112.90    2.92
   1  -4   5 1001.00   20.22
   1  -4   6   39.27    2.07
  -2   4   6  613.70   12.50
  -2   4   5   74.41    2.12
  -2   4   4  403.70    8.31
   2  -4   3  809.10   16.42
   2  -4   4 1139.00   22.99
   2  -4   5   27.72    1.90
  -3   4   8   32.42    1.83
  -3   4   7  561.50   11.49
  -3   4   6    2.97    1.46
  -3   4   5  349.60    7.26
   3  -4   2   -0.27    2.04
   3  -4   3  990.50   20.03
   3  -4   4    4.50    1.73
  -4   4  11   26.42    2.44
  -4   4  10  136.30    3.61
  -4   4   9    7.50    1.92
  -4   4   8  544.40   11.17
  -4   4   7   40.58    1.85
   4  -4   2  949.00   19.21
   4  -4   3   -3.32    1.72
   4  -4   4  854.60   17.34
  -5   4  11  177.10    4.42
  -5   4  10   69.71    2.71
  -5   4   9  560.10   11.73
   5  -4   2   19.75    1.94
   5  -4   3 1272.00   25.66
   6  -4   1  156.40    3.81
   6  -4   2 1453.00   29.28
   6  -4   3   12.74    2.01
   7  -4   1  829.30   16.84
   7  -4   2   -0.02    1.86
   7  -4   3  917.70   18.61
   8  -4   1   57.66    2.29
   8  -4   3    5.66    2.02
   9  -4   1  195.50    4.59
   9  -4   2    3.37    2.21
   9  -4   3  184.80    4.40
  10  -4   1  112.30    3.54
  10  -4   2   89.46    3.03
  10  -4   3   27.03    2.43
   9   5   0   59.70    3.70
   8   5   2    6.19    2.32
   8   5   1   46.64    2.65
   8   5   0    5.09    2.49
   7   5   2  179.90    4.37
   7   5   1   12.93    2.31
   7   5   0  347.80    7.64
   6   5   2    6.67    2.07
   6   5   1  829.50   16.86
   5   5   3    5.08    2.30
   5   5   2  742.00   15.09
   5   5   1  124.20    3.18
   4   5   3  251.90    5.44
   4   5   2   21.49    1.83
   4   5   1  922.20   18.66
   3   5   4   97.40    3.13
   3   5   3    0.49    1.72
   3   5   2  499.20   10.25
   2   5   4    4.22    1.72
   2   5   3  119.40    3.03
   2   5   2   16.99    1.60
   1   5   5   -2.55    1.69
   1   5   4  135.10    3.24
   1   5   3   55.40    2.02
   0   5   6    9.80    1.81
   0   5   5  623.00   12.70
   0   5   4   27.97    1.79
   0  -5   8  162.30    4.42
   0  -5   9  369.60    8.01
  -1   5   8  267.90    5.85
  -1   5   7    2.03    2.05
  -1   5   6  962.50   19.47
  -1   5   5   32.09    1.90
   1  -5   7   -0.41    1.91
   1  -5   8  533.10   11.03
   1  -5   9    2.20    2.54
  -2   5   9   91.15    3.02
  -2   5   8    3.81    2.06
  -2   5   7  442.30    9.23
  -2   5   6  136.90    3.37
   2  -5   6    5.36    1.97
   2  -5   7  469.00    9.78
   2  -5   8   19.73    2.41
   2  -5   9  360.80    7.75
  -3   5   9    2.26    2.35
  -3   5   8   55.93    2.43
   3  -5   5  178.90    4.17
   3  -5   6  306.20    6.63
   3  -5   7    6.65    2.27
   3  -5   8  181.30    4.45
   3  -5   9   -2.13    2.50
   4  -5   5  275.90    6.04
   4  -5   6    4.17    2.26
   4  -5   7  130.80    3.54
   4  -5   8   46.25    2.55
   5  -5   4  473.30    9.82
   5  -5   5   -1.94    2.33
   5  -5   6  330.80    7.13
   5  -5   7   16.92    2.54
   5  -5   8   78.88    3.74
   6  -5   4   28.30    2.32
   6  -5   5  490.20   10.21
   6  -5   6   23.16    2.43
   6  -5   7   98.08    3.53
   7  -5   4  372.10    7.98
   7  -5   5   -3.40    2.59
   8  -5   4   -1.64    3.17
   4   6   3    2.75    2.19
   3   6   4    0.47    2.17
   2   6   5    7.28    2.17
   2   6   4  227.60    5.53
   1   6   5  357.40    7.67
   0   0   0    0.00    0.00
;
_shelx_hkl_checksum              60669
_olex2_submission_special_instructions 'No special instructions were received'
loop_
_space_group_symop_operation_xyz
'x, y, z'
'-x+1/2, y+1/2, -z+1/2'
'-x, -y, -z'
'x-1/2, -y-1/2, z-1/2'
loop_
_atom_site_label
_atom_site_type_symbol
_atom_site_fract_x
_atom_site_fract_y
_atom_site_fract_z
_atom_site_U_iso_or_equiv
_atom_site_adp_type
_atom_site_occupancy
_atom_site_site_symmetry_order
_atom_site_calc_flag
_atom_site_refinement_flags_posn
_atom_site_refinement_flags_adp
_atom_site_refinement_flags_occupancy
_atom_site_disorder_assembly
_atom_site_disorder_group
C1 C 0.1815(10) -0.0626(14) 0.4464(11) 0.0211(14) Uiso 1 1 d . . . . .
H1A H 0.1203 0.0773 0.4771 0.032 Uiso 1 1 calc GR . . . .
H1B H 0.1948 -0.2187 0.5040 0.032 Uiso 1 1 calc GR . . . .
H1C H 0.1460 -0.1406 0.3708 0.032 Uiso 1 1 calc GR . . . .
C2 C 0.3095(8) 0.0814(12) 0.4269(9) 0.0143(13) Uiso 1 1 d . . . . .
C3 C 0.3898(10) -0.0298(13) 0.3403(10) 0.0191(14) Uiso 1 1 d . . . . .
H3 H 0.3604 -0.1944 0.2972 0.023 Uiso 1 1 calc R . . . .
C4 C 0.5108(8) 0.0868(12) 0.3135(9) 0.0143(13) Uiso 1 1 d . . . . .
C5 C 0.5854(10) -0.0525(14) 0.2175(11) 0.0221(15) Uiso 1 1 d . . . . .
H5A H 0.6560 0.0749 0.1947 0.033 Uiso 1 1 calc GR . . . .
H5B H 0.5266 -0.0893 0.1481 0.033 Uiso 1 1 calc GR . . . .
H5C H 0.6224 -0.2342 0.2470 0.033 Uiso 1 1 calc GR . . . .
O1 O 0.3393(7) 0.2955(9) 0.4946(7) 0.0179(11) Uiso 1 1 d . . . . .
O2 O 0.5654(7) 0.3010(9) 0.3659(7) 0.0178(11) Uiso 1 1 d . . . . .
Cu1 Cu 0.5000 0.5000 0.5000 0.0156(4) Uiso 1 2 d S T P . .
loop_
_atom_type_symbol
_atom_type_description
_atom_type_scat_dispersion_real
_atom_type_scat_dispersion_imag
_atom_type_scat_source
C C 0.0033 0.0016 'International Tables Vol C Tables 4.2.6.8 and 6.1.1.4'
H H 0.0000 0.0000 'International Tables Vol C Tables 4.2.6.8 and 6.1.1.4'
Cu Cu 0.3201 1.2651 'International Tables Vol C Tables 4.2.6.8 and 6.1.1.4'
O O 0.0106 0.0060 'International Tables Vol C Tables 4.2.6.8 and 6.1.1.4'
loop_
_geom_angle_atom_site_label_1
_geom_angle_atom_site_label_2
_geom_angle_atom_site_label_3
_geom_angle
_geom_angle_site_symmetry_1
_geom_angle_site_symmetry_3
H1A C1 H1B 109.5 . .
H1A C1 H1C 109.5 . .
H1B C1 H1C 109.5 . .
C2 C1 H1A 109.5 . .
C2 C1 H1B 109.5 . .
C2 C1 H1C 109.5 . .
C3 C2 C1 118.8(7) . .
O1 C2 C1 116.6(7) . .
O1 C2 C3 124.5(7) . .
C2 C3 H3 118.0 . .
C4 C3 C2 124.1(8) . .
C4 C3 H3 118.0 . .
C3 C4 C5 118.3(7) . .
O2 C4 C3 125.4(8) . .
O2 C4 C5 116.4(7) . .
C4 C5 H5A 109.5 . .
C4 C5 H5B 109.5 . .
C4 C5 H5C 109.5 . .
H5A C5 H5B 109.5 . .
H5A C5 H5C 109.5 . .
H5B C5 H5C 109.5 . .
C2 O1 Cu1 126.2(5) . .
C4 O2 Cu1 125.5(5) . .
O1 Cu1 O1 180.0 3_666 .
O1 Cu1 O2 86.2(3) 3_666 .
O1 Cu1 O2 93.8(3) 3_666 3_666
O1 Cu1 O2 93.8(3) . .
O1 Cu1 O2 86.2(3) . 3_666
O2 Cu1 O2 180.0 . 3_666
loop_
_geom_bond_atom_site_label_1
_geom_bond_atom_site_label_2
_geom_bond_distance
_geom_bond_site_symmetry_2
C1 H1A 0.9800 .
C1 H1B 0.9800 .
C1 H1C 0.9800 .
C1 C2 1.500(12) .
C2 C3 1.404(11) .
C2 O1 1.285(9) .
C3 H3 0.9500 .
C3 C4 1.401(12) .
C4 C5 1.500(12) .
C4 O2 1.276(9) .
C5 H5A 0.9800 .
C5 H5B 0.9800 .
C5 H5C 0.9800 .
O1 Cu1 1.904(6) .
O2 Cu1 1.918(6) .
Cu1 O1 1.904(6) 3_666
Cu1 O2 1.918(6) 3_666
loop_
_geom_torsion_atom_site_label_1
_geom_torsion_atom_site_label_2
_geom_torsion_atom_site_label_3
_geom_torsion_atom_site_label_4
_geom_torsion
_geom_torsion_site_symmetry_1
_geom_torsion_site_symmetry_2
_geom_torsion_site_symmetry_3
_geom_torsion_site_symmetry_4
C1 C2 C3 C4 179.6(10) . . . .
C1 C2 O1 Cu1 174.5(8) . . . .
C2 C3 C4 C5 -179.2(9) . . . .
C2 C3 C4 O2 2.3(16) . . . .
C3 C2 O1 Cu1 -3.2(11) . . . .
C3 C4 O2 Cu1 4.0(12) . . . .
C5 C4 O2 Cu1 -174.6(8) . . . .
O1 C2 C3 C4 -2.8(15) . . . .
