#------------------------------------------------------------------------------
#$Date: 2019-05-24 11:59:22 +0300 (Fri, 24 May 2019) $
#$Revision: 215479 $
#$URL: file:///home/coder/svn-repositories/cod/cif/1/55/11/1551121.cif $
#------------------------------------------------------------------------------
#
# This file is available in the Crystallography Open Database (COD),
# http://www.crystallography.net/
#
# All data on this site have been placed in the public domain by the
# contributors.
#
data_1551121
loop_
_publ_author_name
'Anna Worthy'
'Arnaud Grosjean'
'Michael C. Pfrunder'
'Yanan Xu'
'Cheng Yan'
'Grant Edwards'
'Jack K. Clegg'
'John C. McMurtrie'
_publ_section_title
;
 Atomic resolution of structural changes in elastic crystals of copper(II)
 acetylacetonate
;
_journal_name_full               'Nature Chemistry'
_journal_page_first              65
_journal_page_last               69
_journal_paper_doi               10.1038/nchem.2848
_journal_volume                  10
_journal_year                    2018
_chemical_formula_moiety         'C10 H14 Cu O4'
_chemical_formula_sum            'C10 H14 Cu O4'
_chemical_formula_weight         261.75
_space_group_crystal_system      monoclinic
_space_group_IT_number           14
_space_group_name_Hall           '-P 2yn'
_space_group_name_H-M_alt        'P 1 21/n 1'
_symmetry_space_group_name_Hall  '-P 2yn'
_symmetry_space_group_name_H-M   'P 1 21/n 1'
_atom_sites_solution_hydrogens   geom
_cell_angle_alpha                90
_cell_angle_beta                 92.56(3)
_cell_angle_gamma                90
_cell_formula_units_Z            2
_cell_length_a                   10.268(2)
_cell_length_b                   4.6740(9)
_cell_length_c                   11.227(2)
_cell_measurement_reflns_used    284
_cell_measurement_temperature    100(2)
_cell_measurement_theta_max      29.576
_cell_measurement_theta_min      9.670
_cell_volume                     538.28(18)
_computing_cell_refinement       'XDS (Kabsch, 1993)'
_computing_data_collection       'BluIce (McPhillips, 2002)'
_computing_data_reduction        'XDS (Kabsch, 1993)'
_computing_molecular_graphics    'Olex2 (Dolomanov et al., 2009)'
_computing_publication_material  'Olex2 (Dolomanov et al., 2009)'
_computing_structure_refinement  'ShelXL (Sheldrick, 2015)'
_computing_structure_solution    'Known Structure'
_diffrn_ambient_temperature      100(2)
_diffrn_measured_fraction_theta_full 0.186
_diffrn_measured_fraction_theta_max 0.187
_diffrn_measurement_device_type  'ADSC Quantum 315r'
_diffrn_measurement_method       'Phi Scan'
_diffrn_radiation_monochromator  'Silicon Double Crystal'
_diffrn_radiation_type           Synchrotron
_diffrn_radiation_wavelength     0.7108
_diffrn_reflns_av_unetI/netI     0.0220
_diffrn_reflns_Laue_measured_fraction_full 0.186
_diffrn_reflns_Laue_measured_fraction_max 0.187
_diffrn_reflns_number            284
_diffrn_reflns_point_group_measured_fraction_full 0.186
_diffrn_reflns_point_group_measured_fraction_max 0.187
_diffrn_reflns_theta_full        26.000
_diffrn_reflns_theta_max         29.576
_diffrn_reflns_theta_min         9.670
_diffrn_source                   Synchrotron
_exptl_absorpt_coefficient_mu    2.019
_exptl_absorpt_correction_type   multi-scan
_exptl_absorpt_process_details   'XDS (Kabsch, 1993)'
_exptl_crystal_colour            'dark blue'
_exptl_crystal_colour_lustre     .
_exptl_crystal_colour_modifier   dark
_exptl_crystal_colour_primary    blue
_exptl_crystal_density_diffrn    1.615
_exptl_crystal_description       needle
_exptl_crystal_F_000             270
_exptl_crystal_size_max          1
_exptl_crystal_size_mid          0.05
_exptl_crystal_size_min          0.05
_refine_diff_density_max         0.410
_refine_diff_density_min         -0.453
_refine_diff_density_rms         0.065
_refine_ls_extinction_coef       .
_refine_ls_extinction_method     none
_refine_ls_goodness_of_fit_ref   1.108
_refine_ls_hydrogen_treatment    constr
_refine_ls_matrix_type           full
_refine_ls_number_parameters     32
_refine_ls_number_reflns         284
_refine_ls_number_restraints     0
_refine_ls_restrained_S_all      1.108
_refine_ls_R_factor_all          0.0637
_refine_ls_R_factor_gt           0.0578
_refine_ls_shift/su_max          0.000
_refine_ls_shift/su_mean         0.000
_refine_ls_structure_factor_coef Fsqd
_refine_ls_weighting_details
'w=1/[\s^2^(Fo^2^)+(0.0352P)^2^+3.5737P] where P=(Fo^2^+2Fc^2^)/3'
_refine_ls_weighting_scheme      calc
_refine_ls_wR_factor_gt          0.1269
_refine_ls_wR_factor_ref         0.1313
_reflns_Friedel_coverage         0.000
_reflns_Friedel_fraction_full    .
_reflns_Friedel_fraction_max     .
_reflns_number_gt                251
_reflns_number_total             284
_reflns_threshold_expression     'I > 2\s(I)'
_cod_data_source_file            nchem.2848-s5-e.cif
_cod_data_source_block           e
_cod_depositor_comments
;
The following automatic conversions were performed:

'_exptl_absorpt_correction_type' value 'Multi-Scan' changed to
'multi-scan' according to the built-in table from CIF Core dictionary
named 'cif_core.dic' version 2.4.5 from 2014-11-21.

Automatic conversion script
Id: cif_fix_values 6524 2018-11-02 12:15:13Z antanas 
;
_cod_original_cell_volume        538.28(19)
_cod_database_code               1551121
_shelx_space_group_comment
;
The symmetry employed for this shelxl refinement is uniquely defined
by the following loop, which should always be used as a source of
symmetry information in preference to the above space-group names.
They are only intended as comments.
;
_shelx_estimated_absorpt_t_max   0.906
_shelx_estimated_absorpt_t_min   0.237
_olex2_refinement_description
;
1. Fixed Uiso
 At 1.2 times of:
  All C(H) groups
 At 1.5 times of:
  All C(H,H,H) groups
2.a Aromatic/amide H refined with riding coordinates:
 C3(H3)
2.b Idealised Me refined as rotating group:
 C1(H1A,H1B,H1C), C5(H5A,H5B,H5C)
;
_shelx_res_file
;
TITL 8 in P2(1)/n
CELL 0.71073 10.268 4.674 11.227 90 92.558 90
ZERR 2 0.00205 0.00093 0.00225 0 0.03 0
LATT 1
SYMM 0.5-X,0.5+Y,0.5-Z
SFAC C H Cu O
UNIT 20 28 2 8

L.S. 50
PLAN  25
SIZE 0.05 0.05 1
TEMP -173(2)
LIST 1
MORE -1
BOND $H
CONF
fmap 2
acta 52
REM <olex2.extras>
REM <HklSrc "%.\\e.hkl">
REM </olex2.extras>

WGHT    0.035200    3.573700
FVAR       1.17215
C1    1    0.181661   -0.062011    0.446446    11.00000    0.02033
AFIX 137
H1A   2    0.120659    0.076429    0.478470    11.00000   -1.50000
H1B   2    0.195222   -0.219812    0.503125    11.00000   -1.50000
H1C   2    0.145634   -0.137069    0.370413    11.00000   -1.50000
AFIX   0
C2    1    0.309454    0.082551    0.427047    11.00000    0.01380
C3    1    0.389986   -0.029459    0.339577    11.00000    0.01904
AFIX  43
H3    2    0.360232   -0.192523    0.295790    11.00000   -1.20000
AFIX   0
C4    1    0.510791    0.086139    0.313943    11.00000    0.01385
C5    1    0.585365   -0.052206    0.217086    11.00000    0.02046
AFIX 137
H5A   2    0.659015    0.069982    0.197650    11.00000   -1.50000
H5B   2    0.527731   -0.077722    0.145932    11.00000   -1.50000
H5C   2    0.617950   -0.239037    0.244554    11.00000   -1.50000
AFIX   0
O1    4    0.339076    0.296195    0.493972    11.00000    0.01735
O2    4    0.565446    0.300858    0.366187    11.00000    0.01661
CU1   3    0.500000    0.500000    0.500000    10.50000    0.01509
HKLF 4

REM  8 in P2(1)/n
REM R1 =  0.0578 for     251 Fo > 4sig(Fo)  and  0.0637 for all     284 data
REM     32 parameters refined using      0 restraints

END

WGHT      0.0355      3.5631

REM Highest difference peak  0.410,  deepest hole -0.453,  1-sigma level  0.065
Q1    1   0.5365  0.6993  0.5579  11.00000  0.05    0.41
Q2    1   0.4721  0.5563  0.4728  11.00000  0.05    0.37
Q3    1   0.5000  0.0000  0.5000  10.50000  0.05    0.36
Q4    1   0.4186  0.5149  0.4627  11.00000  0.05    0.34
Q5    1   0.5834  0.5059  0.4411  11.00000  0.05    0.26
Q6    1   0.4420  0.6629  0.4087  11.00000  0.05    0.21
Q7    1   0.2759 -0.0454  0.4765  11.00000  0.05    0.20
Q8    1   0.4914  0.2111  0.5153  11.00000  0.05    0.20
Q9    1   0.4225  0.7109  0.4996  11.00000  0.05    0.19
Q10   1   0.5601  0.0063  0.1979  11.00000  0.05    0.19
Q11   1   0.4686  0.2536  0.5419  11.00000  0.05    0.19
Q12   1   0.3025  0.0333  0.3675  11.00000  0.05    0.18
Q13   1   0.1896 -0.2880  0.3795  11.00000  0.05    0.18
Q14   1   0.3789 -0.1019  0.5233  11.00000  0.05    0.18
Q15   1   0.1436  0.4364  0.4799  11.00000  0.05    0.18
Q16   1   0.3638 -0.0152  0.4231  11.00000  0.05    0.18
Q17   1   0.3105  0.5901  0.4878  11.00000  0.05    0.17
Q18   1   0.4099  0.6214  0.4032  11.00000  0.05    0.17
Q19   1   0.5381  0.6348  0.3761  11.00000  0.05    0.17
Q20   1   0.4818  0.2954  0.3138  11.00000  0.05    0.17
Q21   1   0.3833 -0.5552  0.3422  11.00000  0.05    0.17
Q22   1   0.3716  0.2138  0.3450  11.00000  0.05    0.17
Q23   1   0.4479 -0.3016  0.3391  11.00000  0.05    0.17
Q24   1   0.0379  0.0359  0.2795  11.00000  0.05    0.17
Q25   1   0.3352 -0.2368  0.4433  11.00000  0.05    0.16
;
_shelx_res_checksum              40680
_shelx_hkl_file
;
  -6  -1  10   45.18    1.60
  -6  -1  11  600.80   12.46
  -5  -1   7  720.60   14.64
   4   1  -2 1113.00   22.41
  -4  -1   5 1465.00   29.53
  -4   1   4  232.60    4.75
  -5   1   6 1866.00   37.77
   5  -1  -2 2034.00   40.92
  -6   1   8   99.70    2.30
   6  -1  -2  165.40    3.41
  -7   1  13   -1.33    3.30
   7  -1  -2 1529.00   30.87
   9  -1  -2 1772.00   35.85
  10  -1  -2   25.09    1.31
  11  -1  -2  931.10   18.97
  13  -1  -1    0.96    2.58
  14  -1  -1  797.40   16.55
  12   2  -2  100.60    2.94
  11   2  -2   -4.04    1.71
  10   2  -2  429.50    8.94
   6   2  -2 1075.00   21.64
  -6  -2  12  136.90    4.42
  -6  -2  13   52.14    3.61
   5   2  -2  230.80    4.76
  -5  -2   8    8.23    1.47
  -5  -2   9 1834.00   36.97
  -5  -2  10  102.70    2.82
  -5  -2  11  510.70   10.78
   4   2  -2 4984.00   99.93
  -4  -2   6 1277.00   25.69
  -4  -2   7  259.90    5.42
   3   2  -1 4307.00   86.36
  -3  -2   5 1408.00   28.29
   2   2  -1   62.55    1.49
  -2  -2   3   28.77    0.93
  -2  -2   4 1889.00   37.90
  -1  -2   3 3835.00   76.89
  -2   2   2 4178.00   83.74
  -3   2   3 5722.00  114.70
   3  -2   0  120.00    2.57
  -4   2   5   19.16    1.03
  -4   2   4 1780.00   35.79
   4  -2  -1  492.80    9.96
  -5   2   7  308.70    6.39
  -5   2   6   24.27    1.21
   5  -2  -1 1510.00   30.32
  -6   2  11   11.24    3.01
  -6   2  10  284.80    6.08
  -6   2   9    3.40    1.54
  -6   2   8  302.60    6.51
   6  -2  -1   10.35    0.96
   7  -2  -1  956.00   19.27
   8  -2  -1  129.80    3.12
   9  -2  -1 1491.00   30.06
  10  -2  -1  128.30    3.17
  11  -2  -1  482.50   10.01
  12  -2  -1   22.83    2.33
  13  -2   0   48.61    2.94
  12   3  -1   54.74    2.98
  11   3  -1    1.14    2.32
  11   3  -2  180.70    4.80
  10   3  -2    8.93    2.08
   9   3  -2  753.10   15.36
   8   3  -2   16.37    1.75
   7   3  -2  583.40   11.92
   6   3  -1  937.30   18.96
   6   3  -2    0.69    1.12
   5   3  -1  122.70    2.75
   5   3  -2 1101.00   22.25
  -5  -3  12  162.20    4.61
   4   3  -1 2568.00   51.53
  -4  -3   8  179.00    4.28
  -4  -3   9  717.10   14.62
  -4  -3  10  249.60    5.52
  -4  -3  11  777.50   15.88
  -4  -3  12   46.54    2.76
  -4  -3  13  185.80    4.73
   3   3   0 1950.00   39.21
   3   3  -1    6.20    0.95
  -3  -3   6  976.30   19.72
  -3  -3   8 1023.00   20.77
  -3  -3   9   -0.30    1.87
   2   3   0   86.87    2.05
  -2  -3   5 1796.00   36.07
  -2  -3   6  933.30   18.84
   1   3   1   99.85    2.27
   1   3   0  167.80    3.57
  -1  -3   4 1631.00   32.77
  -1  -3   5  430.20    8.78
   0   3   1  175.30    3.74
   0  -3   3 1419.00   28.51
   0  -3   4   68.97    1.77
  -1   3   2 1351.00   27.17
   1  -3   2 1981.00   39.76
   1  -3   3   57.44    1.56
  -2   3   4    6.41    1.55
  -2   3   3 2278.00   45.73
   2  -3   1 1193.00   24.00
   2  -3   2   33.23    1.20
  -3   3   5   18.57    1.28
  -3   3   4 2302.00   46.21
   3  -3   1    1.70    0.98
  -4   3   7  792.30   16.13
  -4   3   6  117.90    2.98
  -4   3   5  881.70   17.82
   4  -3   0   -1.42    0.99
   4  -3   1 1191.00   23.96
  -5   3  10  293.80    6.37
  -5   3   9   84.02    2.56
  -5   3   8  831.80   16.86
  -5   3   7   19.63    1.70
   5  -3   0 1855.00   37.27
   5  -3   1  928.10   18.76
  -6   3  12    2.24    2.63
  -6   3  11  128.30    3.55
  -6   3  10    8.76    2.12
   6  -3   0  182.90    4.08
   7  -3   0 1034.00   20.91
   8  -3   0  110.00    2.95
   9  -3   0  740.10   15.08
  10  -3   0  260.50    5.72
  11  -3   0  335.10    7.21
  11  -3   1   14.81    2.31
  12  -3   0   -5.94    2.35
  12  -3   1  261.20    5.93
  11   4   0    8.53    2.69
  11   4  -1  245.80    5.75
  10   4   0  132.40    3.70
  10   4  -1   20.87    2.47
   9   4   0    5.06    2.07
   9   4  -1  445.40    9.32
   8   4   0  342.50    7.26
   8   4  -1  113.50    3.09
   7   4   0    6.57    1.95
   7   4  -1  441.80    9.19
   6   4   0  287.90    6.09
   6   4  -1   13.88    1.56
   5   4   0  103.90    2.60
   5   4  -1  355.50    7.39
   4   4   1  192.10    4.19
   4   4   0  272.00    5.73
   3   4   1  595.10   12.10
   3   4   0   62.60    1.89
  -3  -4  10   34.71    2.33
  -3  -4  11   59.46    2.86
   2   4   2  740.40   14.99
   2   4   1  200.80    4.31
  -2  -4   7   86.35    2.92
  -2  -4   8  622.30   12.77
  -2  -4   9   31.05    2.11
  -2  -4  10  185.20    4.39
  -2  -4  11   23.06    2.38
  -2  -4  12  173.80    4.48
   1   4   2  488.70    9.98
   1   4   1 1141.00   22.98
  -1  -4   6   57.32    2.00
  -1  -4   7 1201.00   24.23
  -1  -4   8   21.39    1.81
  -1  -4   9  454.00    9.45
  -1  -4  10   26.59    2.19
   0   4   3   86.95    2.25
   0   4   2  934.90   18.85
   0  -4   5   60.38    2.14
   0  -4   6 1043.00   21.07
   0  -4   7    2.56    1.85
   0  -4   8  776.80   15.90
  -1   4   4  225.70    4.81
  -1   4   3  754.70   15.26
   1  -4   4   76.95    2.25
   1  -4   5  774.60   15.72
   1  -4   6   31.98    1.86
  -2   4   6  482.60    9.89
  -2   4   5   61.01    1.96
  -2   4   4  313.80    6.54
   2  -4   3  631.50   12.87
   2  -4   4  879.10   17.79
   2  -4   5   24.00    1.83
  -3   4   8   28.44    1.77
  -3   4   7  446.30    9.21
  -3   4   6    3.53    1.43
  -3   4   5  272.20    5.73
   3  -4   2   -1.12    1.89
   3  -4   3  751.00   15.26
   3  -4   4    5.19    1.75
  -4   4  11   29.07    2.39
  -4   4  10  118.90    3.32
  -4   4   9    3.86    1.89
  -4   4   8  448.20    9.27
  -4   4   7   37.04    1.78
   4  -4   2  710.80   14.46
   4  -4   3   -0.05    1.66
   4  -4   4  678.40   13.84
  -5   4  11  168.60    4.32
  -5   4  10   62.40    2.61
  -5   4   9  483.80   10.22
   5  -4   2   15.34    1.85
   5  -4   3  963.80   19.51
   6  -4   1  124.10    3.14
   6  -4   2 1107.00   22.36
   6  -4   3   10.59    1.92
   7  -4   1  637.10   13.01
   7  -4   2   -0.46    1.75
   7  -4   3  688.80   14.05
   8  -4   1   43.33    2.05
   8  -4   3    3.98    1.93
   9  -4   1  152.30    3.76
   9  -4   2   -3.75    2.10
   9  -4   3  140.90    3.62
  10  -4   1   86.05    3.00
  10  -4   2   64.16    2.71
  10  -4   3   15.04    2.26
   9   5   1   -0.18    2.69
   9   5   0   36.89    2.83
   8   5   2    7.39    2.14
   8   5   1   28.26    2.22
   8   5   0    3.00    2.10
   7   5   2  112.90    3.21
   7   5   1    8.85    2.11
   7   5   0  253.70    5.77
   6   5   2    6.45    1.88
   6   5   1  620.40   12.69
   5   5   3    3.49    2.31
   5   5   2  563.90   11.54
   5   5   1  100.50    2.76
   4   5   3  187.10    4.20
   4   5   2   12.44    1.73
   4   5   1  707.20   14.37
   3   5   4   61.61    2.74
   3   5   3    0.70    1.56
   3   5   2  378.60    7.87
   2   5   4    1.55    1.54
   2   5   3   89.34    2.52
   2   5   2   13.84    1.51
   1   5   5   -3.14    1.63
   1   5   4  104.10    2.67
   1   5   3   39.93    1.72
   0   5   6    7.37    1.65
   0   5   5  492.10   10.10
   0   5   4   25.56    1.70
   0  -5   8  119.90    3.48
   0  -5   9  281.20    6.33
  -1   5   8  217.40    4.90
  -1   5   7    3.43    1.86
  -1   5   6  775.00   15.73
  -1   5   5   27.42    1.79
   1  -5   7   -1.30    1.99
   1  -5   8  413.90    8.71
   1  -5   9    0.23    2.41
  -2   5   9   78.29    2.85
  -2   5   8    3.08    2.13
  -2   5   7  370.20    7.78
  -2   5   6  115.50    2.97
   2  -5   6    5.34    1.95
   2  -5   7  365.90    7.73
   2  -5   8   16.35    2.31
   2  -5   9  279.90    6.21
  -3   5   9   -2.98    2.33
  -3   5   8   47.32    2.31
   3  -5   5  120.10    3.09
   3  -5   6  248.20    5.53
   3  -5   7    3.18    2.16
   3  -5   8  142.70    3.76
   3  -5   9    2.39    2.48
   4  -5   5  217.50    4.94
   4  -5   6    2.32    2.19
   4  -5   7  107.60    3.20
   4  -5   8   38.73    2.57
   5  -5   4  364.40    7.70
   5  -5   5   -2.55    2.19
   5  -5   6  261.60    5.81
   5  -5   7   10.41    2.43
   5  -5   8   51.09    3.07
   6  -5   4   26.94    2.39
   6  -5   5  377.70    7.98
   6  -5   6   20.11    2.44
   6  -5   7   84.56    3.06
   7  -5   4  294.20    6.48
   7  -5   5    0.58    2.37
   8  -5   4   -5.61    2.96
   4   6   3    4.54    2.00
   3   6   4    0.39    2.13
   2   6   5    5.74    2.03
   2   6   4  191.70    4.66
   1   6   5  284.60    6.18
   0   0   0    0.00    0.00
;
_shelx_hkl_checksum              48356
_olex2_submission_special_instructions 'No special instructions were received'
loop_
_space_group_symop_operation_xyz
'x, y, z'
'-x+1/2, y+1/2, -z+1/2'
'-x, -y, -z'
'x-1/2, -y-1/2, z-1/2'
loop_
_atom_site_label
_atom_site_type_symbol
_atom_site_fract_x
_atom_site_fract_y
_atom_site_fract_z
_atom_site_U_iso_or_equiv
_atom_site_adp_type
_atom_site_occupancy
_atom_site_site_symmetry_order
_atom_site_calc_flag
_atom_site_refinement_flags_posn
_atom_site_refinement_flags_adp
_atom_site_refinement_flags_occupancy
_atom_site_disorder_assembly
_atom_site_disorder_group
C1 C 0.1817(10) -0.0620(15) 0.4464(12) 0.0203(16) Uiso 1 1 d . . . . .
H1A H 0.1207 0.0764 0.4785 0.030 Uiso 1 1 calc GR . . . .
H1B H 0.1952 -0.2198 0.5031 0.030 Uiso 1 1 calc GR . . . .
H1C H 0.1456 -0.1371 0.3704 0.030 Uiso 1 1 calc GR . . . .
C2 C 0.3095(9) 0.0826(13) 0.4270(10) 0.0138(14) Uiso 1 1 d . . . . .
C3 C 0.3900(11) -0.0295(14) 0.3396(11) 0.0190(16) Uiso 1 1 d . . . . .
H3 H 0.3602 -0.1925 0.2958 0.023 Uiso 1 1 calc R . . . .
C4 C 0.5108(9) 0.0861(13) 0.3139(10) 0.0138(14) Uiso 1 1 d . . . . .
C5 C 0.5854(11) -0.0522(15) 0.2171(12) 0.0205(16) Uiso 1 1 d . . . . .
H5A H 0.6590 0.0700 0.1977 0.031 Uiso 1 1 calc GR . . . .
H5B H 0.5277 -0.0777 0.1459 0.031 Uiso 1 1 calc GR . . . .
H5C H 0.6180 -0.2390 0.2446 0.031 Uiso 1 1 calc GR . . . .
O1 O 0.3391(7) 0.2962(10) 0.4940(8) 0.0174(12) Uiso 1 1 d . . . . .
O2 O 0.5654(7) 0.3009(10) 0.3662(8) 0.0166(12) Uiso 1 1 d . . . . .
Cu1 Cu 0.5000 0.5000 0.5000 0.0151(5) Uiso 1 2 d S T P . .
loop_
_atom_type_symbol
_atom_type_description
_atom_type_scat_dispersion_real
_atom_type_scat_dispersion_imag
_atom_type_scat_source
C C 0.0033 0.0016 'International Tables Vol C Tables 4.2.6.8 and 6.1.1.4'
H H 0.0000 0.0000 'International Tables Vol C Tables 4.2.6.8 and 6.1.1.4'
Cu Cu 0.3201 1.2651 'International Tables Vol C Tables 4.2.6.8 and 6.1.1.4'
O O 0.0106 0.0060 'International Tables Vol C Tables 4.2.6.8 and 6.1.1.4'
loop_
_geom_angle_atom_site_label_1
_geom_angle_atom_site_label_2
_geom_angle_atom_site_label_3
_geom_angle
_geom_angle_site_symmetry_1
_geom_angle_site_symmetry_3
H1A C1 H1B 109.5 . .
H1A C1 H1C 109.5 . .
H1B C1 H1C 109.5 . .
C2 C1 H1A 109.5 . .
C2 C1 H1B 109.5 . .
C2 C1 H1C 109.5 . .
C3 C2 C1 118.5(8) . .
O1 C2 C1 116.9(8) . .
O1 C2 C3 124.5(8) . .
C2 C3 H3 118.2 . .
C4 C3 C2 123.6(9) . .
C4 C3 H3 118.2 . .
C3 C4 C5 118.0(8) . .
O2 C4 C3 125.8(8) . .
O2 C4 C5 116.2(8) . .
C4 C5 H5A 109.5 . .
C4 C5 H5B 109.5 . .
C4 C5 H5C 109.5 . .
H5A C5 H5B 109.5 . .
H5A C5 H5C 109.5 . .
H5B C5 H5C 109.5 . .
C2 O1 Cu1 126.5(6) . .
C4 O2 Cu1 125.4(6) . .
O1 Cu1 O1 180.0 3_666 .
O1 Cu1 O2 93.6(3) 3_666 3_666
O1 Cu1 O2 86.4(3) 3_666 .
O1 Cu1 O2 86.4(3) . 3_666
O1 Cu1 O2 93.6(3) . .
O2 Cu1 O2 180.0(2) . 3_666
loop_
_geom_bond_atom_site_label_1
_geom_bond_atom_site_label_2
_geom_bond_distance
_geom_bond_site_symmetry_2
C1 H1A 0.9800 .
C1 H1B 0.9800 .
C1 H1C 0.9800 .
C1 C2 1.500(13) .
C2 C3 1.412(12) .
C2 O1 1.278(10) .
C3 H3 0.9500 .
C3 C4 1.395(13) .
C4 C5 1.504(13) .
C4 O2 1.279(10) .
C5 H5A 0.9800 .
C5 H5B 0.9800 .
C5 H5C 0.9800 .
O1 Cu1 1.906(7) .
O2 Cu1 1.914(7) .
Cu1 O1 1.906(7) 3_666
Cu1 O2 1.914(7) 3_666
loop_
_geom_torsion_atom_site_label_1
_geom_torsion_atom_site_label_2
_geom_torsion_atom_site_label_3
_geom_torsion_atom_site_label_4
_geom_torsion
_geom_torsion_site_symmetry_1
_geom_torsion_site_symmetry_2
_geom_torsion_site_symmetry_3
_geom_torsion_site_symmetry_4
C1 C2 C3 C4 -179.8(11) . . . .
C1 C2 O1 Cu1 174.1(8) . . . .
C2 C3 C4 C5 -179.0(10) . . . .
C2 C3 C4 O2 1.4(17) . . . .
C3 C2 O1 Cu1 -4.0(13) . . . .
C3 C4 O2 Cu1 4.6(13) . . . .
C5 C4 O2 Cu1 -175.0(8) . . . .
O1 C2 C3 C4 -1.7(17) . . . .
