#------------------------------------------------------------------------------
#$Date: 2019-05-24 12:01:40 +0300 (Fri, 24 May 2019) $
#$Revision: 215497 $
#$URL: file:///home/coder/svn-repositories/cod/cif/1/55/11/1551139.cif $
#------------------------------------------------------------------------------
#
# This file is available in the Crystallography Open Database (COD),
# http://www.crystallography.net/
#
# All data on this site have been placed in the public domain by the
# contributors.
#
data_1551139
loop_
_publ_author_name
'Anna Worthy'
'Arnaud Grosjean'
'Michael C. Pfrunder'
'Yanan Xu'
'Cheng Yan'
'Grant Edwards'
'Jack K. Clegg'
'John C. McMurtrie'
_publ_section_title
;
 Atomic resolution of structural changes in elastic crystals of copper(II)
 acetylacetonate
;
_journal_name_full               'Nature Chemistry'
_journal_page_first              65
_journal_page_last               69
_journal_paper_doi               10.1038/nchem.2848
_journal_volume                  10
_journal_year                    2018
_chemical_formula_moiety         'C10 H14 Cu O4'
_chemical_formula_sum            'C10 H14 Cu O4'
_chemical_formula_weight         261.75
_space_group_crystal_system      monoclinic
_space_group_IT_number           14
_space_group_name_Hall           '-P 2yn'
_space_group_name_H-M_alt        'P 1 21/n 1'
_symmetry_space_group_name_Hall  '-P 2yn'
_symmetry_space_group_name_H-M   'P 1 21/n 1'
_atom_sites_solution_hydrogens   geom
_cell_angle_alpha                90
_cell_angle_beta                 92.22(3)
_cell_angle_gamma                90
_cell_formula_units_Z            2
_cell_length_a                   10.290(2)
_cell_length_b                   4.6110(9)
_cell_length_c                   11.357(2)
_cell_measurement_reflns_used    310
_cell_measurement_temperature    100(2)
_cell_measurement_theta_max      29.444
_cell_measurement_theta_min      4.845
_cell_volume                     538.45(18)
_computing_cell_refinement       'XDS (Kabsch, 1993)'
_computing_data_collection       'BluIce (McPhillips, 2002)'
_computing_data_reduction        'XDS (Kabsch, 1993)'
_computing_molecular_graphics    'Olex2 (Dolomanov et al., 2009)'
_computing_publication_material  'Olex2 (Dolomanov et al., 2009)'
_computing_structure_refinement  'ShelXL (Sheldrick, 2015)'
_computing_structure_solution    'Known structure'
_diffrn_ambient_temperature      100(2)
_diffrn_measured_fraction_theta_full 0.176
_diffrn_measured_fraction_theta_max 0.178
_diffrn_measurement_device_type  'ADSC Quantum 315r'
_diffrn_measurement_method       'Phi Scan'
_diffrn_radiation_monochromator  'Silicon Double Crystal'
_diffrn_radiation_type           Synchrotron
_diffrn_radiation_wavelength     0.7108
_diffrn_reflns_av_R_equivalents  0.0211
_diffrn_reflns_av_unetI/netI     0.0221
_diffrn_reflns_Laue_measured_fraction_full 0.176
_diffrn_reflns_Laue_measured_fraction_max 0.178
_diffrn_reflns_limit_h_max       9
_diffrn_reflns_limit_h_min       -14
_diffrn_reflns_limit_k_max       5
_diffrn_reflns_limit_k_min       -5
_diffrn_reflns_limit_l_max       12
_diffrn_reflns_limit_l_min       -1
_diffrn_reflns_number            310
_diffrn_reflns_point_group_measured_fraction_full 0.176
_diffrn_reflns_point_group_measured_fraction_max 0.178
_diffrn_reflns_theta_full        26.000
_diffrn_reflns_theta_max         29.444
_diffrn_reflns_theta_min         4.845
_diffrn_source                   Synchrotron
_exptl_absorpt_coefficient_mu    2.018
_exptl_absorpt_correction_type   multi-scan
_exptl_absorpt_process_details   'XDS (Kabsch, 1993)'
_exptl_crystal_colour            'dark blue'
_exptl_crystal_colour_lustre     .
_exptl_crystal_colour_modifier   dark
_exptl_crystal_colour_primary    blue
_exptl_crystal_density_diffrn    1.614
_exptl_crystal_description       needle
_exptl_crystal_F_000             270
_exptl_crystal_size_max          1
_exptl_crystal_size_mid          0.1
_exptl_crystal_size_min          0.1
_refine_diff_density_max         0.367
_refine_diff_density_min         -0.344
_refine_diff_density_rms         0.051
_refine_ls_extinction_coef       .
_refine_ls_extinction_method     none
_refine_ls_goodness_of_fit_ref   1.140
_refine_ls_hydrogen_treatment    constr
_refine_ls_matrix_type           full
_refine_ls_number_parameters     32
_refine_ls_number_reflns         267
_refine_ls_number_restraints     0
_refine_ls_restrained_S_all      1.140
_refine_ls_R_factor_all          0.0490
_refine_ls_R_factor_gt           0.0468
_refine_ls_shift/su_max          0.000
_refine_ls_shift/su_mean         0.000
_refine_ls_structure_factor_coef Fsqd
_refine_ls_weighting_details
'w=1/[\s^2^(Fo^2^)+(0.0182P)^2^+2.3231P] where P=(Fo^2^+2Fc^2^)/3'
_refine_ls_weighting_scheme      calc
_refine_ls_wR_factor_gt          0.1021
_refine_ls_wR_factor_ref         0.1035
_reflns_Friedel_coverage         0.000
_reflns_Friedel_fraction_full    .
_reflns_Friedel_fraction_max     .
_reflns_number_gt                253
_reflns_number_total             267
_reflns_threshold_expression     'I > 2\s(I)'
_cod_data_source_file            nchem.2848-s6-n.cif
_cod_data_source_block           n
_cod_depositor_comments
;
The following automatic conversions were performed:

'_exptl_absorpt_correction_type' value 'Multi-Scan' changed to
'multi-scan' according to the built-in table from CIF Core dictionary
named 'cif_core.dic' version 2.4.5 from 2014-11-21.

Automatic conversion script
Id: cif_fix_values 6524 2018-11-02 12:15:13Z antanas 
;
_cod_original_cell_volume        538.45(19)
_cod_database_code               1551139
_shelx_space_group_comment
;
The symmetry employed for this shelxl refinement is uniquely defined
by the following loop, which should always be used as a source of
symmetry information in preference to the above space-group names.
They are only intended as comments.
;
_shelx_estimated_absorpt_t_max   0.824
_shelx_estimated_absorpt_t_min   0.237
_olex2_refinement_description
;
1. Fixed Uiso
 At 1.2 times of:
  All C(H) groups
 At 1.5 times of:
  All C(H,H,H) groups
2.a Aromatic/amide H refined with riding coordinates:
 C3(H3)
2.b Idealised Me refined as rotating group:
 C1(H1a,H1b,H1c), C5(H5a,H5b,H5c)
;
_shelx_res_file
;
TITL 9b in P2(1)/n
CELL 0.71073 10.29 4.611 11.357 90 92.22 90
ZERR 2 0.00206 0.00092 0.00227 0 0.03 0
LATT 1
SYMM 0.5-X,0.5+Y,0.5-Z
SFAC C H Cu O
UNIT 20 28 2 8

L.S. 50
PLAN  25
SIZE 0.1 0.1 1
TEMP -173(2)
LIST 1
MORE -1
BOND $H
CONF
fmap 2
acta 52
REM <olex2.extras>
REM <HklSrc "%.\\n.hkl">
REM </olex2.extras>

WGHT    0.018200    2.323100
FVAR       0.94768
C1    1    0.181471   -0.063448    0.447685    11.00000    0.01614
AFIX 137
H1A   2    0.119039    0.083454    0.471835    11.00000   -1.50000
H1B   2    0.193052   -0.208938    0.510115    11.00000   -1.50000
H1C   2    0.148642   -0.157641    0.375118    11.00000   -1.50000
AFIX   0
C2    1    0.308749    0.077677    0.426373    11.00000    0.01408
C3    1    0.388160   -0.031109    0.340339    11.00000    0.01719
AFIX  43
H3    2    0.357501   -0.194665    0.296636    11.00000   -1.20000
AFIX   0
C4    1    0.511265    0.083055    0.312795    11.00000    0.01487
C5    1    0.584149   -0.053001    0.215447    11.00000    0.02018
AFIX 137
H5A   2    0.623208    0.099174    0.168050    11.00000   -1.50000
H5B   2    0.524148   -0.168513    0.165429    11.00000   -1.50000
H5C   2    0.652788   -0.178701    0.249156    11.00000   -1.50000
AFIX   0
O1    4    0.337773    0.293850    0.495105    11.00000    0.01525
O2    4    0.566052    0.297714    0.366365    11.00000    0.01618
CU1   3    0.500000    0.500000    0.500000    10.50000    0.01312
HKLF 4

REM  9b in P2(1)/n
REM R1 =  0.0468 for     253 Fo > 4sig(Fo)  and  0.0490 for all     267 data
REM     32 parameters refined using      0 restraints

END

WGHT      0.0182      2.3231

REM Highest difference peak  0.367,  deepest hole -0.344,  1-sigma level  0.051
Q1    1   0.4840  0.5305  0.4614  11.00000  0.05    0.37
Q2    1   0.4408  0.6611  0.5407  11.00000  0.05    0.26
Q3    1   0.5950  0.2831  0.4230  11.00000  0.05    0.25
Q4    1   0.6169  0.2160  0.3754  11.00000  0.05    0.20
Q5    1   0.6862  0.2547  0.3473  11.00000  0.05    0.19
Q6    1   0.6092  0.4918  0.4831  11.00000  0.05    0.18
Q7    1   0.3671  0.5186  0.5392  11.00000  0.05    0.18
Q8    1   0.4862  0.2499  0.5180  11.00000  0.05    0.16
Q9    1   0.6067  0.4472  0.2856  11.00000  0.05    0.16
Q10   1   0.4480  0.0348  0.2874  11.00000  0.05    0.15
Q11   1   0.5967 -0.1262  0.3354  11.00000  0.05    0.15
Q12   1   0.6383  0.1110  0.4406  11.00000  0.05    0.15
Q13   1   0.4280 -0.0969  0.4429  11.00000  0.05    0.15
Q14   1   0.4532  0.0128  0.3599  11.00000  0.05    0.15
Q15   1   0.5146  0.4050  0.3935  11.00000  0.05    0.15
Q16   1   0.5395 -0.1406  0.3799  11.00000  0.05    0.14
Q17   1   0.6770 -0.3214  0.3119  11.00000  0.05    0.14
Q18   1   0.4766  0.5082  0.3752  11.00000  0.05    0.14
Q19   1   0.4131  0.3622  0.4427  11.00000  0.05    0.14
Q20   1   0.3007 -0.0641  0.5990  11.00000  0.05    0.13
Q21   1   0.4032  0.3923  0.3455  11.00000  0.05    0.13
Q22   1   0.3714 -0.1993  0.4939  11.00000  0.05    0.13
Q23   1   0.5038 -0.2909  0.2287  11.00000  0.05    0.13
Q24   1   0.6481 -0.0172  0.2250  11.00000  0.05    0.13
Q25   1   0.3246  0.2860  0.3216  11.00000  0.05    0.13
;
_shelx_res_checksum              73746
_shelx_hkl_file
;
   2   0   1    0.27    0.08
  -4   0  -1   -0.06    0.12
   6   0   5   -0.19    0.29
  -6   0  -1    0.03    0.19
   7   0   7  345.70    7.05
   7   0   6    0.52    0.47
  -7   0  -1 1297.00   26.14
   8   0  10  215.80    4.59
   8   0   9    0.19    0.87
   8   0   8  154.40    3.28
   9   0  11   34.22    1.53
  -9   0   0   -0.03    0.35
 -10   0   0  820.90   16.58
 -12   0   1    0.25    0.72
 -13   0   2    1.61    0.94
 -14   0   3    0.83    1.12
 -14  -1   2    4.87    1.13
 -13  -1   2  291.30    6.05
 -13  -1   1    2.78    0.95
 -12  -1   1  362.30    7.46
 -11  -1   1   10.07    0.81
 -11  -1   0  217.10    4.55
 -10  -1   0   42.96    1.13
  -9  -1   0   89.66    1.97
   9   1  11   14.27    1.26
  -8  -1  -1  696.70   14.04
   8   1   8   33.17    1.12
   8   1   9  151.00    3.28
   8   1  10    3.25    1.00
   8   1  11  179.40    3.89
   8   1  12   26.62    1.40
  -7  -1  -1    1.66    0.32
   7   1   6  324.30    6.64
   7   1   7   47.61    1.29
  -6  -1  -1  343.30    6.94
   6   1   5  884.70   17.79
   6   1   6    3.04    0.50
  -5  -1  -1  288.00    5.82
   5   1   4 1148.00   23.05
  -3  -1  -1   53.11    1.12
   0  -1   0    0.00    0.12
  -1   1   0  287.50    5.79
   6  -1   5  924.60   19.15
   8  -1   9  141.70    3.02
  -9   1   0   96.38    2.05
 -11   1   1   11.97    0.51
 -13   1   2  304.40    6.33
 -13  -2   3  294.90    6.15
 -13  -2   2    0.71    1.11
 -12  -2   2   85.79    2.07
 -12  -2   1   13.27    0.93
 -11  -2   1  288.70    5.97
 -10  -2   1   72.26    1.74
 -10  -2   0 1144.00   23.06
  -9  -2   0   78.23    1.78
  -8  -2   0  924.40   18.62
   8   2  10  180.40    3.87
   8   2  11    1.90    1.10
  -7  -2   0   17.79    0.66
  -7  -2  -1  715.40   14.42
   7   2   8   15.89    0.87
   7   2   9  303.50    6.25
   7   2  10    6.12    1.03
   7   2  11   49.12    1.49
   7   2  12   29.39    1.30
  -6  -2   0  769.40   15.48
  -6  -2  -1  591.40   11.93
   6   2   6  358.40    7.31
   6   2   7    0.26    0.65
   6   2   8  262.70    5.42
  -5  -2   0  246.60    5.02
  -5  -2  -1  970.70   19.50
   5   2   5  924.60   18.60
   5   2   6   85.62    1.93
  -4  -2   0 1297.00   26.04
  -4  -2  -1   99.56    2.09
   4   2   4 1766.00   35.43
   4   2   5   -0.08    0.40
  -3  -2   0   68.95    1.48
   3   2   3 1670.00   33.49
   3   2   4  383.10    7.76
   2   2   2  150.30    3.09
   2   2   3   89.27    1.88
  -1  -2   0   23.33    0.60
   1   2   2   74.76    1.58
   0   2   1  111.80    2.31
   1  -2   1  281.90    5.70
   3  -2   2   64.24    1.35
  -3   2   0   64.66    1.35
   4  -2   3    9.96    0.32
  -4   2   0 1406.00   28.30
  -5   2   0  246.70    5.01
  -6   2   0  761.60   15.53
 -12  -3   3   49.16    1.45
 -12  -3   2   45.03    1.47
 -11  -3   3    5.48    0.87
 -11  -3   2  128.80    2.86
 -11  -3   1    0.64    0.98
 -10  -3   2    5.10    0.74
  -9  -3   2  480.20    9.75
  -9  -3   1   40.03    1.13
  -9  -3   0  520.20   10.54
  -8  -3   1  617.00   12.48
  -8  -3   0   80.61    1.81
  -7  -3   1  147.70    3.13
  -7  -3   0  751.00   15.14
   7   3  10  112.80    2.57
   7   3  11    2.51    1.09
  -6  -3   1  757.70   15.28
  -6  -3   0  129.00    2.75
   6   3   8   -0.33    0.79
   6   3   9   54.55    1.49
   6   3  10  121.70    2.74
   6   3  11  111.20    2.56
  -5  -3   1   81.36    1.80
  -5  -3   0 1264.00   25.41
   5   3   6  650.90   13.17
   5   3   7  206.60    4.31
   5   3   8  136.10    2.92
   5   3   9   20.22    0.96
   5   3  10   67.42    1.65
  -4  -3   1 1716.00   34.46
  -4  -3   0    0.92    0.50
   4   3   5  854.60   17.22
   4   3   6   96.25    2.15
   4   3   7 1004.00   20.22
  -3  -3   1    5.46    0.52
  -3  -3   0 1416.00   28.44
   3   3   4  721.90   14.56
   3   3   5  292.90    5.99
   3   3   6 1450.00   29.14
  -2  -3   1 1280.00   25.71
  -2  -3   0   59.07    1.36
   2   3   3 1408.00   28.29
   2   3   4  212.90    4.39
   2   3   5  876.00   17.65
  -1  -3   1    8.19    0.47
   1   3   3   42.33    1.02
   1   3   4 1258.00   25.29
   0  -3   2    6.40    0.43
   0  -3   1  139.40    2.90
   0   3   2    5.83    0.36
   0   3   3 1003.00   20.17
   1  -3   2 1263.00   25.36
  -1   3   2  921.10   18.52
   2  -3   3 1420.00   28.54
   2  -3   2   29.29    0.75
  -2   3   2   12.12    0.48
   3  -3   4  761.20   15.36
   3  -3   3  148.70    3.07
  -3   3   1    4.47    0.35
  -3   3   2 1500.00   30.12
   4  -3   4    9.11    0.47
  -4   3   1 1702.00   34.19
  -4   3   2  210.50    4.31
   5  -3   6  687.40   13.93
  -5   3   1   79.37    1.71
   6  -3   7  412.20    8.46
  -6   3   1  717.50   14.49
   7  -3  10  106.60    2.42
  -7   3   2  513.70   10.43
  -8   3   2   12.21    0.59
  -9   3   2  500.30   10.19
 -11   3   3    6.88    0.69
 -12   3   4  119.50    2.69
 -11  -4   2   18.04    1.08
 -10  -4   4  114.70    2.54
 -10  -4   3   33.33    1.20
 -10  -4   2  220.00    4.59
  -9  -4   3  222.30    4.63
  -9  -4   2  141.20    3.02
  -8  -4   3   76.80    1.83
  -8  -4   2  329.40    6.74
  -8  -4   1   83.42    1.93
  -7  -4   3  338.50    6.93
  -7  -4   2  121.70    2.65
  -7  -4   1  323.10    6.61
  -6  -4   3   94.45    2.14
  -6  -4   2  431.20    8.78
  -6  -4   1    8.21    0.71
  -5  -4   2  151.30    3.19
  -5  -4   1  261.60    5.37
   5   4   9  365.00    7.46
   5   4  10  129.80    2.87
  -4  -4   2  586.80   11.86
  -4  -4   1  807.60   16.28
   4   4   7   40.09    1.19
   4   4   8  329.40    6.75
   4   4   9    8.49    0.84
   4   4  10  221.60    4.62
   4   4  11    4.19    1.01
  -3  -4   3  553.50   11.19
  -3  -4   2    2.58    0.57
  -3  -4   1  426.30    8.65
   3   4   6   90.64    2.05
   3   4   7  120.40    2.65
   3   4   8    0.76    0.69
   3   4   9  242.80    5.03
   3   4  10   29.48    1.09
   3   4  11  160.10    3.42
  -2  -4   3  259.40    5.33
  -2  -4   2  620.10   12.53
   2   4   5   19.84    0.86
   2   4   6  205.70    4.31
   2   4   7    4.10    0.77
   2   4   8  243.50    5.04
  -1  -4   3  464.30    9.41
  -1  -4   2   65.95    1.52
   1   4   4   54.57    1.39
   1   4   5  505.60   10.26
   1   4   6   22.85    0.92
   1   4   7  563.80   11.42
   0  -4   4  506.50   10.27
   0  -4   3   59.07    1.39
   0  -4   2  649.20   13.10
   0   4   4  508.60   10.32
   0   4   5   35.19    1.06
   0   4   6  725.40   14.65
   1  -4   4   50.59    1.28
   1  -4   3  606.50   12.26
  -1   4   3  462.70    9.39
  -1   4   4  140.20    2.98
  -1   4   5  306.10    6.28
   2  -4   5   17.36    0.73
   2  -4   4  540.00   10.96
  -2   4   3  275.70    5.67
  -2   4   4  212.70    4.42
  -2   4   5   42.17    1.12
   3  -4   6   82.70    1.89
   3  -4   5  199.40    4.17
  -3   4   3  524.00   10.63
  -3   4   4  722.60   14.60
   4  -4   6   96.68    2.17
  -4   4   3   17.91    0.95
  -4   4   4  404.00    8.24
   5  -4   9  347.00    7.15
   5  -4   8    3.69    0.98
   5  -4   7  249.90    5.19
  -5   4   3  622.30   12.62
  -5   4   4   12.16    0.76
   6  -4  10  141.40    3.33
  -6   4   3   98.33    2.23
  -6   4   4  555.70   11.28
  -7   4   3  410.80    8.40
  -7   4   4    1.95    0.84
  -8   4   3   70.12    1.74
  -8   4   4  294.90    6.11
  -9   4   4    4.72    0.97
 -10   4   4   95.63    2.38
 -10   4   5   25.64    1.39
  -8  -5   4   11.47    1.02
  -8  -5   3  177.60    3.76
  -7  -5   5    1.38    0.91
  -7  -5   4  606.60   12.29
  -7  -5   3   -0.38    0.85
  -6  -5   5  513.20   10.43
  -6  -5   4    1.60    0.84
  -6  -5   3  389.00    7.95
  -5  -5   5   15.51    0.83
  -5  -5   4  260.40    5.38
  -5  -5   3    1.68    0.80
  -4  -5   5  375.60    7.68
  -4  -5   4   20.46    0.95
  -4  -5   3   19.88    0.90
  -3  -5   5   15.18    0.88
  -3  -5   4  143.30    3.07
  -3  -5   3  131.10    2.83
   3   5   9    2.02    0.83
  -2  -5   5  511.60   10.38
  -2  -5   4   69.33    1.66
  -2  -5   3   68.19    1.63
   2   5   8    9.80    0.86
   2   5   9  217.20    4.55
  -1  -5   6  523.40   10.63
  -1  -5   5   15.97    0.86
  -1  -5   4  506.90   10.28
   1   5   7   -0.77    0.83
   1   5   8  292.00    6.02
   1   5   9    0.67    0.99
   0  -5   6    5.28    0.88
   0  -5   5  343.30    7.02
   0  -5   4   14.32    0.81
   0   5   6    5.79    0.77
   0   5   7  280.50    5.76
   0   5   8   74.57    1.83
   0   5   9  200.40    4.22
   1  -5   7    1.91    0.80
   1  -5   6  202.60    4.26
   1  -5   5    2.59    0.82
  -1   5   6  546.40   11.10
  -1   5   7   -1.46    0.86
  -1   5   8  209.80    4.39
  -1   5   9   19.87    0.97
   2  -5   8   13.14    1.08
   2  -5   7  285.30    5.90
   2  -5   6    7.09    0.80
  -2   5   5  500.40   10.18
  -2   5   6   77.50    1.90
  -2   5   7  264.20    5.47
  -2   5   8    3.97    0.94
  -2   5   9   73.41    1.87
   3  -5   9    2.03    1.11
   3  -5   8  133.70    2.97
   3  -5   7    4.35    0.97
  -3   5   5   13.70    0.94
  -3   5   6  360.20    7.40
  -3   5   7    2.39    0.95
  -3   5   8   32.97    1.24
  -4   5   5  355.70    7.29
  -4   5   6    2.19    1.02
  -4   5   7  140.60    3.08
  -4   5   8    0.36    0.97
  -5   5   5   13.75    0.97
  -5   5   6  306.80    6.33
  -5   5   7   13.16    1.02
  -5   5   8   33.25    1.30
  -6   5   5  505.50   10.30
  -6   5   6    9.33    1.07
  -6   5   7  116.50    2.64
  -7   5   5    3.39    1.05
  -7   5   6  338.90    7.00
   0   0   0    0.00    0.00
;
_shelx_hkl_checksum              37653
_olex2_submission_special_instructions 'No special instructions were received'
loop_
_space_group_symop_operation_xyz
'x, y, z'
'-x+1/2, y+1/2, -z+1/2'
'-x, -y, -z'
'x-1/2, -y-1/2, z-1/2'
loop_
_atom_site_label
_atom_site_type_symbol
_atom_site_fract_x
_atom_site_fract_y
_atom_site_fract_z
_atom_site_U_iso_or_equiv
_atom_site_adp_type
_atom_site_occupancy
_atom_site_site_symmetry_order
_atom_site_calc_flag
_atom_site_refinement_flags_posn
_atom_site_refinement_flags_adp
_atom_site_refinement_flags_occupancy
_atom_site_disorder_assembly
_atom_site_disorder_group
C1 C 0.1815(8) -0.0634(12) 0.4477(9) 0.0161(12) Uiso 1 1 d . . . . .
H1A H 0.1190 0.0835 0.4718 0.024 Uiso 1 1 calc GR . . . .
H1B H 0.1931 -0.2089 0.5101 0.024 Uiso 1 1 calc GR . . . .
H1C H 0.1486 -0.1576 0.3751 0.024 Uiso 1 1 calc GR . . . .
C2 C 0.3087(7) 0.0777(11) 0.4264(9) 0.0141(12) Uiso 1 1 d . . . . .
C3 C 0.3882(8) -0.0311(12) 0.3403(10) 0.0172(13) Uiso 1 1 d . . . . .
H3 H 0.3575 -0.1947 0.2966 0.021 Uiso 1 1 calc R . . . .
C4 C 0.5113(7) 0.0831(12) 0.3128(9) 0.0149(12) Uiso 1 1 d . . . . .
C5 C 0.5841(8) -0.0530(13) 0.2154(10) 0.0202(14) Uiso 1 1 d . . . . .
H5A H 0.6232 0.0992 0.1681 0.030 Uiso 1 1 calc GR . . . .
H5B H 0.5241 -0.1685 0.1654 0.030 Uiso 1 1 calc GR . . . .
H5C H 0.6528 -0.1787 0.2492 0.030 Uiso 1 1 calc GR . . . .
O1 O 0.3378(6) 0.2938(8) 0.4951(6) 0.0152(10) Uiso 1 1 d . . . . .
O2 O 0.5661(5) 0.2977(8) 0.3664(6) 0.0162(10) Uiso 1 1 d . . . . .
Cu1 Cu 0.5000 0.5000 0.5000 0.0131(4) Uiso 1 2 d S T P . .
loop_
_atom_type_symbol
_atom_type_description
_atom_type_scat_dispersion_real
_atom_type_scat_dispersion_imag
_atom_type_scat_source
C C 0.0033 0.0016 'International Tables Vol C Tables 4.2.6.8 and 6.1.1.4'
H H 0.0000 0.0000 'International Tables Vol C Tables 4.2.6.8 and 6.1.1.4'
Cu Cu 0.3201 1.2651 'International Tables Vol C Tables 4.2.6.8 and 6.1.1.4'
O O 0.0106 0.0060 'International Tables Vol C Tables 4.2.6.8 and 6.1.1.4'
loop_
_geom_angle_atom_site_label_1
_geom_angle_atom_site_label_2
_geom_angle_atom_site_label_3
_geom_angle
_geom_angle_site_symmetry_1
_geom_angle_site_symmetry_3
H1A C1 H1B 109.5 . .
H1A C1 H1C 109.5 . .
H1B C1 H1C 109.5 . .
C2 C1 H1A 109.5 . .
C2 C1 H1B 109.5 . .
C2 C1 H1C 109.5 . .
C3 C2 C1 120.0(7) . .
O1 C2 C1 115.0(8) . .
O1 C2 C3 125.0(7) . .
C2 C3 H3 117.4 . .
C2 C3 C4 125.1(6) . .
C4 C3 H3 117.4 . .
C3 C4 C5 119.0(6) . .
O2 C4 C3 124.2(9) . .
O2 C4 C5 116.8(8) . .
C4 C5 H5A 109.5 . .
C4 C5 H5B 109.5 . .
C4 C5 H5C 109.5 . .
H5A C5 H5B 109.5 . .
H5A C5 H5C 109.5 . .
H5B C5 H5C 109.5 . .
C2 O1 Cu1 125.4(6) . .
C4 O2 Cu1 125.9(7) . .
O1 Cu1 O1 180.0 . 3_666
O1 Cu1 O2 94.0(3) . .
O1 Cu1 O2 86.0(3) . 3_666
O1 Cu1 O2 86.0(3) 3_666 .
O1 Cu1 O2 94.0(3) 3_666 3_666
O2 Cu1 O2 180.0 3_666 .
loop_
_geom_bond_atom_site_label_1
_geom_bond_atom_site_label_2
_geom_bond_distance
_geom_bond_site_symmetry_2
C1 H1A 0.9800 .
C1 H1B 0.9800 .
C1 H1C 0.9800 .
C1 C2 1.491(11) .
C2 C3 1.391(14) .
C2 O1 1.294(8) .
C3 H3 0.9500 .
C3 C4 1.418(12) .
C4 C5 1.498(14) .
C4 O2 1.281(8) .
C5 H5A 0.9800 .
C5 H5B 0.9800 .
C5 H5C 0.9800 .
O1 Cu1 1.920(5) .
O2 Cu1 1.928(7) .
Cu1 O1 1.920(5) 3_666
Cu1 O2 1.927(7) 3_666
loop_
_geom_torsion_atom_site_label_1
_geom_torsion_atom_site_label_2
_geom_torsion_atom_site_label_3
_geom_torsion_atom_site_label_4
_geom_torsion
_geom_torsion_site_symmetry_1
_geom_torsion_site_symmetry_2
_geom_torsion_site_symmetry_3
_geom_torsion_site_symmetry_4
C1 C2 C3 C4 -179.5(7) . . . .
C1 C2 O1 Cu1 174.3(5) . . . .
C2 C3 C4 C5 -178.4(9) . . . .
C2 C3 C4 O2 1.8(14) . . . .
C3 C2 O1 Cu1 -3.5(12) . . . .
C3 C4 O2 Cu1 3.4(11) . . . .
C5 C4 O2 Cu1 -176.3(5) . . . .
O1 C2 C3 C4 -1.8(15) . . . .
