#------------------------------------------------------------------------------
#$Date: 2019-05-24 12:00:18 +0300 (Fri, 24 May 2019) $
#$Revision: 215486 $
#$URL: file:///home/coder/svn-repositories/cod/cif/1/55/11/1551128.cif $
#------------------------------------------------------------------------------
#
# This file is available in the Crystallography Open Database (COD),
# http://www.crystallography.net/
#
# All data on this site have been placed in the public domain by the
# contributors.
#
data_1551128
loop_
_publ_author_name
'Anna Worthy'
'Arnaud Grosjean'
'Michael C. Pfrunder'
'Yanan Xu'
'Cheng Yan'
'Grant Edwards'
'Jack K. Clegg'
'John C. McMurtrie'
_publ_section_title
;
 Atomic resolution of structural changes in elastic crystals of copper(II)
 acetylacetonate
;
_journal_name_full               'Nature Chemistry'
_journal_page_first              65
_journal_page_last               69
_journal_paper_doi               10.1038/nchem.2848
_journal_volume                  10
_journal_year                    2018
_chemical_formula_moiety         'C10 H14 Cu O4'
_chemical_formula_sum            'C10 H14 Cu O4'
_chemical_formula_weight         261.75
_space_group_crystal_system      monoclinic
_space_group_IT_number           14
_space_group_name_Hall           '-P 2yn'
_space_group_name_H-M_alt        'P 1 21/n 1'
_symmetry_space_group_name_Hall  '-P 2yn'
_symmetry_space_group_name_H-M   'P 1 21/n 1'
_atom_sites_solution_hydrogens   geom
_cell_angle_alpha                90
_cell_angle_beta                 91.95(3)
_cell_angle_gamma                90
_cell_formula_units_Z            2
_cell_length_a                   10.301(2)
_cell_length_b                   4.5800(9)
_cell_length_c                   11.413(2)
_cell_measurement_reflns_used    282
_cell_measurement_temperature    100(2)
_cell_measurement_theta_max      29.457
_cell_measurement_theta_min      9.310
_cell_volume                     538.14(18)
_computing_cell_refinement       'XDS (Kabsch, 1993)'
_computing_data_collection       'BluIce (McPhillips, 2002)'
_computing_data_reduction        'XDS (Kabsch, 1993)'
_computing_molecular_graphics    'Olex2 (Dolomanov et al., 2009)'
_computing_publication_material  'Olex2 (Dolomanov et al., 2009)'
_computing_structure_refinement  'ShelXL (Sheldrick, 2015)'
_computing_structure_solution    'Known Structure'
_diffrn_ambient_temperature      100(2)
_diffrn_measured_fraction_theta_full 0.194
_diffrn_measured_fraction_theta_max 0.188
_diffrn_measurement_device_type  'ADSC Quantum 315r'
_diffrn_measurement_method       'Phi Scan'
_diffrn_radiation_monochromator  'Silicon Double Crystal'
_diffrn_radiation_type           Synchrotron
_diffrn_radiation_wavelength     0.7108
_diffrn_reflns_av_unetI/netI     0.0231
_diffrn_reflns_Laue_measured_fraction_full 0.194
_diffrn_reflns_Laue_measured_fraction_max 0.188
_diffrn_reflns_number            282
_diffrn_reflns_point_group_measured_fraction_full 0.194
_diffrn_reflns_point_group_measured_fraction_max 0.188
_diffrn_reflns_theta_full        26.000
_diffrn_reflns_theta_max         29.457
_diffrn_reflns_theta_min         9.310
_diffrn_source                   Synchrotron
_exptl_absorpt_coefficient_mu    2.019
_exptl_absorpt_correction_type   multi-scan
_exptl_absorpt_process_details   'XDS (Kabsch, 1993)'
_exptl_crystal_colour            'dark blue'
_exptl_crystal_colour_lustre     .
_exptl_crystal_colour_modifier   dark
_exptl_crystal_colour_primary    blue
_exptl_crystal_density_diffrn    1.615
_exptl_crystal_description       needle
_exptl_crystal_F_000             270
_exptl_crystal_size_max          1
_exptl_crystal_size_mid          0.05
_exptl_crystal_size_min          0.05
_refine_diff_density_max         0.432
_refine_diff_density_min         -0.459
_refine_diff_density_rms         0.067
_refine_ls_extinction_coef       .
_refine_ls_extinction_method     none
_refine_ls_goodness_of_fit_ref   1.112
_refine_ls_hydrogen_treatment    constr
_refine_ls_matrix_type           full
_refine_ls_number_parameters     32
_refine_ls_number_reflns         282
_refine_ls_number_restraints     0
_refine_ls_restrained_S_all      1.112
_refine_ls_R_factor_all          0.0640
_refine_ls_R_factor_gt           0.0555
_refine_ls_shift/su_max          0.000
_refine_ls_shift/su_mean         0.000
_refine_ls_structure_factor_coef Fsqd
_refine_ls_weighting_details
'w=1/[\s^2^(Fo^2^)+(0.0431P)^2^+3.6027P] where P=(Fo^2^+2Fc^2^)/3'
_refine_ls_weighting_scheme      calc
_refine_ls_wR_factor_gt          0.1286
_refine_ls_wR_factor_ref         0.1364
_reflns_Friedel_coverage         0.000
_reflns_Friedel_fraction_full    .
_reflns_Friedel_fraction_max     .
_reflns_number_gt                247
_reflns_number_total             282
_reflns_threshold_expression     'I > 2\s(I)'
_cod_data_source_file            nchem.2848-s5-m.cif
_cod_data_source_block           m
_cod_depositor_comments
;
The following automatic conversions were performed:

'_exptl_absorpt_correction_type' value 'Multi-Scan' changed to
'multi-scan' according to the built-in table from CIF Core dictionary
named 'cif_core.dic' version 2.4.5 from 2014-11-21.

Automatic conversion script
Id: cif_fix_values 6524 2018-11-02 12:15:13Z antanas 
;
_cod_original_cell_volume        538.14(19)
_cod_database_code               1551128
_shelx_space_group_comment
;
The symmetry employed for this shelxl refinement is uniquely defined
by the following loop, which should always be used as a source of
symmetry information in preference to the above space-group names.
They are only intended as comments.
;
_shelx_estimated_absorpt_t_max   0.906
_shelx_estimated_absorpt_t_min   0.237
_olex2_refinement_description
;
1. Fixed Uiso
 At 1.2 times of:
  All C(H) groups
 At 1.5 times of:
  All C(H,H,H) groups
2.a Aromatic/amide H refined with riding coordinates:
 C3(H3)
2.b Idealised Me refined as rotating group:
 C1(H1a,H1b,H1c), C5(H5a,H5b,H5c)
;
_shelx_res_file
;
TITL 1b in P2(1)/n
CELL 0.71073 10.301 4.58 11.413 90 91.954 90
ZERR 2 0.00206 0.00092 0.00228 0 0.03 0
LATT 1
SYMM 0.5-X,0.5+Y,0.5-Z
SFAC C H Cu O
UNIT 20 28 2 8

L.S. 50
PLAN  25
SIZE 0.05 0.05 1
TEMP -173(2)
LIST 1
MORE -1
BOND $H
CONF
fmap 2
acta 52
REM <olex2.extras>
REM <HklSrc "%.\\m.hkl">
REM </olex2.extras>

WGHT    0.043100    3.602700
FVAR       0.84143
C1    1    0.181582   -0.065762    0.446580    11.00000    0.02206
AFIX 137
H1A   2    0.120125    0.079273    0.474894    11.00000   -1.50000
H1B   2    0.192870   -0.221709    0.504833    11.00000   -1.50000
H1C   2    0.147849   -0.148715    0.372473    11.00000   -1.50000
AFIX   0
C2    1    0.309661    0.077525    0.427559    11.00000    0.01600
C3    1    0.389807   -0.031520    0.340966    11.00000    0.02093
AFIX  43
H3    2    0.359518   -0.194738    0.296536    11.00000   -1.20000
AFIX   0
C4    1    0.511974    0.084273    0.315407    11.00000    0.01430
C5    1    0.585885   -0.055629    0.218546    11.00000    0.02195
AFIX 137
H5A   2    0.653003    0.079096    0.192599    11.00000   -1.50000
H5B   2    0.525946   -0.100903    0.152517    11.00000   -1.50000
H5C   2    0.626786   -0.236083    0.247515    11.00000   -1.50000
AFIX   0
O1    4    0.338840    0.292908    0.494204    11.00000    0.01910
O2    4    0.565448    0.297616    0.367783    11.00000    0.01741
CU1   3    0.500000    0.500000    0.500000    10.50000    0.01586
HKLF 4

REM  1b in P2(1)/n
REM R1 =  0.0555 for     247 Fo > 4sig(Fo)  and  0.0640 for all     282 data
REM     32 parameters refined using      0 restraints

END

WGHT      0.0439      3.4413

REM Highest difference peak  0.432,  deepest hole -0.459,  1-sigma level  0.067
Q1    1   0.5446  0.7003  0.5508  11.00000  0.05    0.43
Q2    1   0.4956  0.5114  0.4206  11.00000  0.05    0.36
Q3    1   0.4869  0.5386  0.4575  11.00000  0.05    0.33
Q4    1   0.5000  0.0000  0.5000  10.50000  0.05    0.29
Q5    1   0.4140  0.5035  0.5622  11.00000  0.05    0.26
Q6    1   0.4584 -0.0138  0.0649  11.00000  0.05    0.25
Q7    1   0.5149  0.2110  0.5055  11.00000  0.05    0.25
Q8    1   0.3862 -0.5302  0.3351  11.00000  0.05    0.25
Q9    1   0.5751  0.0031  0.1595  11.00000  0.05    0.23
Q10   1   0.4218 -0.3828  0.3895  11.00000  0.05    0.23
Q11   1   0.1570 -0.5517  0.4982  11.00000  0.05    0.22
Q12   1   0.4159  0.3843  0.3924  11.00000  0.05    0.21
Q13   1   0.4620 -0.0907  0.4349  11.00000  0.05    0.20
Q14   1   0.4790 -0.0090  0.3558  11.00000  0.05    0.19
Q15   1   0.5128 -0.1696  0.0408  11.00000  0.05    0.18
Q16   1   0.3762 -0.0129  0.4113  11.00000  0.05    0.18
Q17   1   0.4128  0.1898  0.3788  11.00000  0.05    0.17
Q18   1   0.4363 -0.1675  0.3796  11.00000  0.05    0.17
Q19   1   0.4667  0.0089  0.2594  11.00000  0.05    0.17
Q20   1   0.1274 -0.3177  0.5778  11.00000  0.05    0.17
Q21   1   0.2859 -0.3131  0.4000  11.00000  0.05    0.17
Q22   1   0.4492  0.6941  0.4429  11.00000  0.05    0.16
Q23   1   0.3206  0.0803  0.3693  11.00000  0.05    0.16
Q24   1   0.2677 -0.0715  0.4888  11.00000  0.05    0.16
Q25   1   0.5433  0.3292  0.3094  11.00000  0.05    0.16
;
_shelx_res_checksum              10219
_shelx_hkl_file
;
  -6  -1  10   18.28    1.11
  -6  -1  11  274.70    5.79
  -5  -1   7  343.10    7.02
   4   1  -2  598.50   12.06
  -4  -1   5  694.30   14.02
  -4   1   4  126.10    2.61
  -5   1   6  960.20   19.45
   5  -1  -2 1012.00   20.38
  -6   1   9  448.10    9.23
  -6   1   8   57.25    1.49
   6  -1  -2   93.84    1.98
   7  -1  -2  697.50   14.11
   8  -1  -2  284.20    5.91
   9  -1  -2  931.40   18.90
  10  -1  -2   14.16    0.99
  11  -1  -2  472.20    9.70
  13  -1  -1    2.90    1.94
  14  -1  -1  418.70    8.89
  12   2  -2   57.03    2.07
  11   2  -2    0.51    1.41
  10   2  -2  185.10    4.00
   7   2  -2   27.92    1.24
   6   2  -2  593.60   11.98
  -6  -2  13   16.39    3.54
   5   2  -2  125.50    2.65
  -5  -2   9  787.50   15.95
  -5  -2  10   52.13    1.81
  -5  -2  11  262.10    5.60
   4   2  -2 2656.00   53.30
  -4  -2   6  497.00   10.06
  -4  -2   7  109.10    2.43
   3   2  -1 2203.00   44.19
  -3  -2   5  687.00   13.85
   2   2  -1   33.43    0.90
  -2  -2   3   13.05    0.66
  -2  -2   4  989.70   19.90
  -1  -2   3 1777.00   35.63
  -1   2   1 1037.00   20.87
  -2   2   2 2081.00   41.74
  -3   2   3 2856.00   57.29
   3  -2   0   56.35    1.30
  -4   2   5    7.00    0.74
  -4   2   4  845.30   17.09
   4  -2  -1  270.00    5.50
  -5   2   7  149.90    3.24
  -5   2   6    8.24    0.83
   5  -2  -1  834.80   16.80
  -6   2  11    5.94    1.65
  -6   2  10  162.30    3.64
  -6   2   9    2.29    1.24
   6  -2  -1    4.55    0.68
   7  -2  -1  555.50   11.24
   8  -2  -1   65.08    1.72
   9  -2  -1  866.50   17.52
  10  -2  -1   66.92    1.95
  11  -2  -1  247.50    5.30
  12  -2  -1   11.05    1.76
  13  -2   0   23.58    2.10
  12   3  -1   34.04    2.28
  11   3  -1    0.38    1.87
  10   3  -1  106.60    2.82
  10   3  -2    0.74    1.68
   9   3  -2  401.80    8.35
   8   3  -2   12.38    1.66
   7   3  -1   78.87    2.47
   7   3  -2  311.70    6.51
   6   3  -1  532.80   10.83
   6   3  -2   -0.23    0.91
   5   3  -1   64.59    1.61
   4   3  -1 1295.00   26.03
  -4  -3   9  310.10    6.49
  -4  -3  10  116.70    2.90
  -4  -3  11  349.50    7.33
  -4  -3  12   24.99    2.05
  -4  -3  13  101.70    3.06
   3   3   0  986.90   19.87
   3   3  -1    3.21    0.77
  -3  -3   7    8.71    1.37
  -3  -3   8  438.60    9.07
  -3  -3   9    0.41    1.24
   2   3   0   39.36    1.12
  -2  -3   5  786.40   15.87
  -2  -3   6  504.60   10.28
  -2  -3   7  162.70    3.58
   1   3   1   62.91    1.54
   1   3   0   97.38    2.14
  -1  -3   4  752.20   15.17
  -1  -3   5  203.90    4.27
   0   3   2    8.27    0.77
   0   3   1  103.20    2.29
   0  -3   3  698.50   14.10
   0  -3   4   33.93    1.10
  -1   3   3   34.02    1.23
  -1   3   2  655.30   13.24
   1  -3   2  917.30   18.47
   1  -3   3   31.77    1.06
  -2   3   4    1.75    0.78
  -2   3   3 1077.00   21.67
   2  -3   1  716.60   14.47
   2  -3   2   21.55    0.92
  -3   3   5    8.19    1.03
  -3   3   4 1063.00   21.41
   3  -3   1   -1.88    0.75
   3  -3   2  792.90   15.99
  -4   3   7  390.40    8.11
  -4   3   6   61.44    1.79
  -4   3   5  386.20    7.95
   4  -3   0    1.13    0.96
   4  -3   1  597.70   12.09
  -5   3  10  141.40    3.31
  -5   3   9   40.03    1.70
  -5   3   8  406.40    8.36
  -5   3   7    7.80    1.27
   5  -3   0  877.10   17.67
   5  -3   1  484.30    9.93
  -6   3  12    1.27    2.11
  -6   3  11   65.44    2.31
  -6   3  10    5.92    2.08
   6  -3   0   90.99    2.31
   6  -3   1  198.70    4.27
   7  -3   0  517.20   10.57
   8  -3   0   60.46    1.91
   9  -3   0  368.90    7.65
  10  -3   0  137.70    3.26
  10  -3   1  391.80    8.15
  11  -3   0  151.90    3.62
  11  -3   1    4.76    1.70
  12  -3   0   -0.18    1.99
  12  -3   1  138.80    3.50
  11   4   0    6.09    2.20
  11   4  -1  178.30    4.96
  10   4   0   70.38    2.53
  10   4  -1   11.07    1.92
   9   4   0    3.19    1.69
   9   4  -1  227.70    5.02
   8   4   0  179.60    4.09
   8   4  -1   70.19    2.17
   7   4   0    6.57    1.41
   7   4  -1  234.80    5.08
   6   4   0  161.40    3.58
   6   4  -1    6.83    1.17
   5   4   0   52.89    1.63
   5   4  -1  199.90    4.49
   4   4   1   78.85    1.98
   4   4   0  152.00    3.35
   3   4   1  272.70    5.67
   3   4   0   33.63    1.26
  -3  -4  10   13.01    2.58
  -3  -4  11   23.48    1.90
   2   4   2  360.60    7.40
   2   4   1   95.49    2.25
  -2  -4   8  292.70    6.24
  -2  -4   9   13.33    1.49
  -2  -4  10   74.14    2.30
  -2  -4  11    5.95    1.73
  -2  -4  12   79.06    2.62
   1   4   3  449.60    9.16
   1   4   2  227.50    4.77
   1   4   1  594.10   12.04
  -1  -4   6   31.75    1.45
  -1  -4   7  529.90   10.81
  -1  -4   8   13.49    1.40
  -1  -4   9  211.30    4.62
  -1  -4  10   11.52    1.62
  -1  -4  11   72.78    2.25
  -1  -4  12   10.51    2.25
   0   4   4  363.90    7.50
   0   4   3   41.68    1.34
   0   4   2  474.60    9.65
   0  -4   5   22.48    1.35
   0  -4   6  469.70    9.62
   0  -4   7   -0.98    1.35
   0  -4   8  376.60    7.77
  -1   4   5  200.70    4.25
  -1   4   4   93.85    2.21
  -1   4   3  346.40    7.11
   1  -4   4   36.32    1.44
   1  -4   5  349.30    7.21
   1  -4   6   11.86    1.34
   1  -4   7  369.10    7.64
  -2   4   6  229.10    4.85
  -2   4   5   30.01    1.25
  -2   4   4  165.40    3.59
   2  -4   3  309.20    6.39
   2  -4   4  374.80    7.71
   2  -4   5   13.52    1.31
   2  -4   6  152.60    3.52
  -3   4   8   10.95    1.39
  -3   4   7  221.20    4.75
  -3   4   6    3.72    1.18
  -3   4   5  133.00    3.09
   3  -4   3  362.70    7.49
   3  -4   4    0.45    1.25
   3  -4   5  139.40    3.16
  -4   4  11   15.92    1.97
  -4   4  10   52.89    2.09
  -4   4   9    0.87    1.57
  -4   4   8  200.40    4.36
  -4   4   7   16.49    1.29
   4  -4   2  371.00    7.64
   4  -4   3   -0.63    1.29
   4  -4   4  308.10    6.44
  -5   4  11   77.60    2.66
  -5   4  10   31.10    1.90
   5  -4   2    8.29    1.36
   5  -4   3  499.50   10.23
   5  -4   4   32.71    1.56
   6  -4   2  547.80   11.19
   6  -4   3    5.64    1.43
   7  -4   1  294.60    6.30
   7  -4   2    0.21    1.36
   7  -4   3  373.90    7.74
   8  -4   1   17.77    1.59
   8  -4   3    2.69    1.52
   9  -4   1   62.68    2.26
   9  -4   2    0.86    1.57
   9  -4   3   67.10    2.18
  10  -4   2   34.40    1.90
  10  -4   3    8.31    1.76
   8   5   2    3.52    1.79
   8   5   1   22.23    1.86
   7   5   2   70.32    2.25
   7   5   1   11.20    1.61
   6   5   3  178.60    4.04
   6   5   2   -1.35    1.46
   6   5   1  344.60    7.21
   5   5   3    0.06    1.36
   5   5   2  294.90    6.19
   5   5   1   46.34    1.73
   4   5   3  106.20    2.61
   4   5   2    8.31    1.37
   4   5   1  379.60    7.84
   3   5   4   44.69    1.62
   3   5   3   -4.98    1.28
   3   5   2  214.70    4.59
   2   5   5   64.61    1.87
   2   5   4   -2.28    1.27
   2   5   3   54.28    1.75
   2   5   2   11.83    1.18
   1   5   6  104.00    2.56
   1   5   5    3.37    1.26
   1   5   4   54.34    1.73
   1   5   3   35.91    1.45
   0   5   7  141.50    3.25
   0   5   6    2.08    1.33
   0   5   5  225.60    4.81
   0   5   4   12.01    1.31
   0  -5   9  105.90    3.01
  -1   5   9    8.54    1.68
  -1   5   8  111.10    2.86
  -1   5   7    2.21    1.42
  -1   5   6  388.80    8.03
  -1   5   5   10.44    1.32
   1  -5   8  161.30    3.74
   1  -5   9   -0.40    1.81
  -2   5   9   38.05    2.02
  -2   5   8   -0.34    1.69
  -2   5   7  182.40    4.07
  -2   5   6   47.59    1.85
   2  -5   6    4.44    1.71
   2  -5   7  142.80    3.41
   2  -5   8   -0.39    1.68
   2  -5   9  109.70    2.95
  -3   5   9   -3.12    1.84
  -3   5   8   21.03    1.91
   3  -5   6   93.23    2.54
   3  -5   7    4.05    1.60
   3  -5   8   51.57    2.02
   3  -5   9   -4.61    1.93
   4  -5   5   95.12    2.55
   4  -5   6   -0.22    1.62
   4  -5   7   38.64    1.91
   4  -5   8   14.83    1.84
   5  -5   4  123.00    3.54
   5  -5   5    0.53    1.69
   5  -5   6  119.00    3.02
   5  -5   7    2.64    1.80
   6  -5   4   13.44    1.61
   6  -5   5  178.30    4.05
   6  -5   6   12.00    1.82
   7  -5   4  121.20    3.13
   7  -5   5   -0.95    1.86
   0   0   0    0.00    0.00
;
_shelx_hkl_checksum              75749
_olex2_submission_special_instructions 'No special instructions were received'
loop_
_space_group_symop_operation_xyz
'x, y, z'
'-x+1/2, y+1/2, -z+1/2'
'-x, -y, -z'
'x-1/2, -y-1/2, z-1/2'
loop_
_atom_site_label
_atom_site_type_symbol
_atom_site_fract_x
_atom_site_fract_y
_atom_site_fract_z
_atom_site_U_iso_or_equiv
_atom_site_adp_type
_atom_site_occupancy
_atom_site_site_symmetry_order
_atom_site_calc_flag
_atom_site_refinement_flags_posn
_atom_site_refinement_flags_adp
_atom_site_refinement_flags_occupancy
_atom_site_disorder_assembly
_atom_site_disorder_group
C1 C 0.1816(12) -0.0658(17) 0.4466(13) 0.0221(18) Uiso 1 1 d . . . . .
H1A H 0.1201 0.0793 0.4749 0.033 Uiso 1 1 calc GR . . . .
H1B H 0.1929 -0.2217 0.5048 0.033 Uiso 1 1 calc GR . . . .
H1C H 0.1478 -0.1487 0.3725 0.033 Uiso 1 1 calc GR . . . .
C2 C 0.3097(11) 0.0775(15) 0.4276(11) 0.0160(16) Uiso 1 1 d . . . . .
C3 C 0.3898(12) -0.0315(15) 0.3410(12) 0.0209(18) Uiso 1 1 d . . . . .
H3 H 0.3595 -0.1947 0.2965 0.025 Uiso 1 1 calc R . . . .
C4 C 0.5120(10) 0.0843(14) 0.3154(11) 0.0143(15) Uiso 1 1 d . . . . .
C5 C 0.5859(12) -0.0556(16) 0.2185(13) 0.0220(18) Uiso 1 1 d . . . . .
H5A H 0.6530 0.0791 0.1926 0.033 Uiso 1 1 calc GR . . . .
H5B H 0.5259 -0.1009 0.1525 0.033 Uiso 1 1 calc GR . . . .
H5C H 0.6268 -0.2361 0.2475 0.033 Uiso 1 1 calc GR . . . .
O1 O 0.3388(9) 0.2929(11) 0.4942(9) 0.0191(13) Uiso 1 1 d . . . . .
O2 O 0.5654(8) 0.2976(11) 0.3678(9) 0.0174(13) Uiso 1 1 d . . . . .
Cu1 Cu 0.5000 0.5000 0.5000 0.0159(5) Uiso 1 2 d S T P . .
loop_
_atom_type_symbol
_atom_type_description
_atom_type_scat_dispersion_real
_atom_type_scat_dispersion_imag
_atom_type_scat_source
C C 0.0033 0.0016 'International Tables Vol C Tables 4.2.6.8 and 6.1.1.4'
H H 0.0000 0.0000 'International Tables Vol C Tables 4.2.6.8 and 6.1.1.4'
Cu Cu 0.3201 1.2651 'International Tables Vol C Tables 4.2.6.8 and 6.1.1.4'
O O 0.0106 0.0060 'International Tables Vol C Tables 4.2.6.8 and 6.1.1.4'
loop_
_geom_angle_atom_site_label_1
_geom_angle_atom_site_label_2
_geom_angle_atom_site_label_3
_geom_angle
_geom_angle_site_symmetry_1
_geom_angle_site_symmetry_3
H1A C1 H1B 109.5 . .
H1A C1 H1C 109.5 . .
H1B C1 H1C 109.5 . .
C2 C1 H1A 109.5 . .
C2 C1 H1B 109.5 . .
C2 C1 H1C 109.5 . .
C3 C2 C1 119.3(9) . .
O1 C2 C1 116.4(9) . .
O1 C2 C3 124.3(9) . .
C2 C3 H3 117.8 . .
C2 C3 C4 124.4(9) . .
C4 C3 H3 117.8 . .
C3 C4 C5 118.1(9) . .
O2 C4 C3 125.0(9) . .
O2 C4 C5 117.0(9) . .
C4 C5 H5A 109.5 . .
C4 C5 H5B 109.5 . .
C4 C5 H5C 109.5 . .
H5A C5 H5B 109.5 . .
H5A C5 H5C 109.5 . .
H5B C5 H5C 109.5 . .
C2 O1 Cu1 126.3(6) . .
C4 O2 Cu1 126.1(6) . .
O1 Cu1 O1 180.0 . 3_666
O1 Cu1 O2 86.5(3) 3_666 .
O1 Cu1 O2 93.5(3) 3_666 3_666
O1 Cu1 O2 86.5(3) . 3_666
O1 Cu1 O2 93.5(3) . .
O2 Cu1 O2 180.0 . 3_666
loop_
_geom_bond_atom_site_label_1
_geom_bond_atom_site_label_2
_geom_bond_distance
_geom_bond_site_symmetry_2
C1 H1A 0.9800 .
C1 H1B 0.9800 .
C1 H1C 0.9800 .
C1 C2 1.496(14) .
C2 C3 1.401(14) .
C2 O1 1.275(11) .
C3 H3 0.9500 .
C3 C4 1.405(14) .
C4 C5 1.507(15) .
C4 O2 1.262(11) .
C5 H5A 0.9800 .
C5 H5B 0.9800 .
C5 H5C 0.9800 .
O1 Cu1 1.911(8) .
O2 Cu1 1.913(7) .
Cu1 O1 1.911(8) 3_666
Cu1 O2 1.913(7) 3_666
loop_
_geom_torsion_atom_site_label_1
_geom_torsion_atom_site_label_2
_geom_torsion_atom_site_label_3
_geom_torsion_atom_site_label_4
_geom_torsion
_geom_torsion_site_symmetry_1
_geom_torsion_site_symmetry_2
_geom_torsion_site_symmetry_3
_geom_torsion_site_symmetry_4
C1 C2 C3 C4 -179.8(12) . . . .
C1 C2 O1 Cu1 174.7(10) . . . .
C2 C3 C4 C5 -179.3(12) . . . .
C2 C3 C4 O2 0.9(19) . . . .
C3 C2 O1 Cu1 -4.4(14) . . . .
C3 C4 O2 Cu1 4.1(14) . . . .
C5 C4 O2 Cu1 -175.7(9) . . . .
O1 C2 C3 C4 -0.8(19) . . . .
