#------------------------------------------------------------------------------
#$Date: 2019-05-24 10:11:11 +0300 (Fri, 24 May 2019) $
#$Revision: 215473 $
#$URL: file:///home/coder/svn-repositories/cod/cif/1/55/11/1551117.cif $
#------------------------------------------------------------------------------
#
# This file is available in the Crystallography Open Database (COD),
# http://www.crystallography.net/
#
# All data on this site have been placed in the public domain by the
# contributors.
#
data_1551117
loop_
_publ_author_name
'Anna Worthy'
'Arnaud Grosjean'
'Michael C. Pfrunder'
'Yanan Xu'
'Cheng Yan'
'Grant Edwards'
'Jack K. Clegg'
'John C. McMurtrie'
_publ_section_title
;
 Atomic resolution of structural changes in elastic crystals of copper(II)
 acetylacetonate
;
_journal_name_full               'Nature Chemistry'
_journal_page_first              65
_journal_page_last               69
_journal_paper_doi               10.1038/nchem.2848
_journal_volume                  10
_journal_year                    2018
_chemical_formula_moiety         'C10 H14 Cu O4'
_chemical_formula_sum            'C10 H14 Cu O4'
_chemical_formula_weight         261.75
_space_group_crystal_system      monoclinic
_space_group_IT_number           14
_space_group_name_Hall           '-P 2yn'
_space_group_name_H-M_alt        'P 1 21/n 1'
_symmetry_space_group_name_Hall  '-P 2yn'
_symmetry_space_group_name_H-M   'P 1 21/n 1'
_atom_sites_solution_hydrogens   geom
_cell_angle_alpha                90
_cell_angle_beta                 92.81(3)
_cell_angle_gamma                90
_cell_formula_units_Z            2
_cell_length_a                   10.257(2)
_cell_length_b                   4.6780(9)
_cell_length_c                   11.221(2)
_cell_measurement_reflns_used    319
_cell_measurement_temperature    100(2)
_cell_measurement_theta_max      29.512
_cell_measurement_theta_min      4.790
_cell_volume                     537.76(18)
_computing_cell_refinement       'XDS (Kabsch, 1993)'
_computing_data_collection       'BluIce (McPhillips, 2002)'
_computing_data_reduction        'XDS (Kabsch, 1993)'
_computing_molecular_graphics    'Olex2 (Dolomanov et al., 2009)'
_computing_publication_material  'Olex2 (Dolomanov et al., 2009)'
_computing_structure_refinement  'ShelXL (Sheldrick, 2015)'
_computing_structure_solution    'Known structure'
_diffrn_ambient_temperature      100(2)
_diffrn_measured_fraction_theta_full 0.188
_diffrn_measured_fraction_theta_max 0.183
_diffrn_measurement_device_type  'ADSC Quantum 315r'
_diffrn_measurement_method       'Phi Scan'
_diffrn_radiation_monochromator  'Silicon Double Crystal'
_diffrn_radiation_type           Synchrotron
_diffrn_radiation_wavelength     0.7108
_diffrn_reflns_av_R_equivalents  0.0790
_diffrn_reflns_av_unetI/netI     0.0830
_diffrn_reflns_Laue_measured_fraction_full 0.188
_diffrn_reflns_Laue_measured_fraction_max 0.183
_diffrn_reflns_limit_h_max       9
_diffrn_reflns_limit_h_min       -14
_diffrn_reflns_limit_k_max       5
_diffrn_reflns_limit_k_min       -6
_diffrn_reflns_limit_l_max       12
_diffrn_reflns_limit_l_min       -1
_diffrn_reflns_number            319
_diffrn_reflns_point_group_measured_fraction_full 0.188
_diffrn_reflns_point_group_measured_fraction_max 0.183
_diffrn_reflns_theta_full        26.000
_diffrn_reflns_theta_max         29.512
_diffrn_reflns_theta_min         4.790
_diffrn_source                   Synchrotron
_exptl_absorpt_coefficient_mu    2.021
_exptl_absorpt_correction_type   multi-scan
_exptl_absorpt_process_details   'XDS (Kabsch, 1993)'
_exptl_crystal_colour            'dark blue'
_exptl_crystal_colour_lustre     .
_exptl_crystal_colour_modifier   dark
_exptl_crystal_colour_primary    blue
_exptl_crystal_density_diffrn    1.617
_exptl_crystal_description       needle
_exptl_crystal_F_000             270
_exptl_crystal_size_max          1
_exptl_crystal_size_mid          0.1
_exptl_crystal_size_min          0.1
_refine_diff_density_max         0.484
_refine_diff_density_min         -0.492
_refine_diff_density_rms         0.121
_refine_ls_extinction_coef       .
_refine_ls_extinction_method     none
_refine_ls_goodness_of_fit_ref   1.078
_refine_ls_hydrogen_treatment    constr
_refine_ls_matrix_type           full
_refine_ls_number_parameters     32
_refine_ls_number_reflns         276
_refine_ls_number_restraints     0
_refine_ls_restrained_S_all      1.078
_refine_ls_R_factor_all          0.1365
_refine_ls_R_factor_gt           0.0922
_refine_ls_shift/su_max          0.000
_refine_ls_shift/su_mean         0.000
_refine_ls_structure_factor_coef Fsqd
_refine_ls_weighting_details
'w=1/[\s^2^(Fo^2^)+(0.1746P)^2^+1.9440P] where P=(Fo^2^+2Fc^2^)/3'
_refine_ls_weighting_scheme      calc
_refine_ls_wR_factor_gt          0.2280
_refine_ls_wR_factor_ref         0.2617
_reflns_Friedel_coverage         0.000
_reflns_Friedel_fraction_full    .
_reflns_Friedel_fraction_max     .
_reflns_number_gt                188
_reflns_number_total             276
_reflns_threshold_expression     'I > 2\s(I)'
_cod_data_source_file            nchem.2848-s6-a.cif
_cod_data_source_block           a
_cod_depositor_comments
;
The following automatic conversions were performed:

'_exptl_absorpt_correction_type' value 'Multi-Scan' changed to
'multi-scan' according to the built-in table from CIF Core dictionary
named 'cif_core.dic' version 2.4.5 from 2014-11-21.

Automatic conversion script
Id: cif_fix_values 6524 2018-11-02 12:15:13Z antanas 
;
_cod_original_cell_volume        537.76(19)
_cod_database_code               1551117
_shelx_space_group_comment
;
The symmetry employed for this shelxl refinement is uniquely defined
by the following loop, which should always be used as a source of
symmetry information in preference to the above space-group names.
They are only intended as comments.
;
_shelx_estimated_absorpt_t_max   0.823
_shelx_estimated_absorpt_t_min   0.237
_olex2_refinement_description
;
1. Fixed Uiso
 At 1.2 times of:
  All C(H) groups
 At 1.5 times of:
  All C(H,H,H) groups
2.a Aromatic/amide H refined with riding coordinates:
 C3(H3)
2.b Idealised Me refined as rotating group:
 C1(H1a,H1b,H1c), C5(H5a,H5b,H5c)
;
_shelx_res_file
;
TITL 4 in P2(1)/n
CELL 0.71073 10.257 4.678 11.221 90 92.813 90
ZERR 2 0.00205 0.00094 0.00224 0 0.03 0
LATT 1
SYMM 0.5-X,0.5+Y,0.5-Z
SFAC C H Cu O
UNIT 20 28 2 8

L.S. 50
PLAN  25
SIZE 0.1 0.1 1
TEMP -173(2)
LIST 1
MORE -1
BOND $H
CONF
fmap 2
acta 52
REM <olex2.extras>
REM <HklSrc "%.\\a.hkl">
REM </olex2.extras>

WGHT    0.174600    1.944000
FVAR       1.12198
C1    1    0.181670   -0.063596    0.448552    11.00000    0.01117
AFIX 137
H1A   2    0.120890    0.076725    0.479383    11.00000   -1.50000
H1B   2    0.195134   -0.218801    0.506514    11.00000   -1.50000
H1C   2    0.145302   -0.141671    0.372990    11.00000   -1.50000
AFIX   0
C2    1    0.309651    0.078569    0.428318    11.00000    0.01452
C3    1    0.392977   -0.029690    0.338643    11.00000    0.01270
AFIX  43
H3    2    0.363308   -0.191945    0.294202    11.00000   -1.20000
AFIX   0
C4    1    0.512736    0.084412    0.312330    11.00000    0.01167
C5    1    0.584874   -0.050018    0.212519    11.00000    0.01534
AFIX 137
H5A   2    0.664161    0.060121    0.199364    11.00000   -1.50000
H5B   2    0.528680   -0.050534    0.139320    11.00000   -1.50000
H5C   2    0.608614   -0.246913    0.234074    11.00000   -1.50000
AFIX   0
O1    4    0.337135    0.294482    0.493054    11.00000    0.01408
O2    4    0.564529    0.303448    0.363810    11.00000    0.00961
CU1   3    0.500000    0.500000    0.500000    10.50000    0.01001
HKLF 4

REM  4 in P2(1)/n
REM R1 =  0.0922 for     188 Fo > 4sig(Fo)  and  0.1365 for all     276 data
REM     32 parameters refined using      0 restraints

END

WGHT      0.1744      1.9702

REM Highest difference peak  0.484,  deepest hole -0.492,  1-sigma level  0.121
Q1    1   0.6552  0.5088  0.3386  11.00000  0.05    0.48
Q2    1   0.6391  0.0032  0.2514  11.00000  0.05    0.48
Q3    1   0.7587 -0.0064  0.2299  11.00000  0.05    0.46
Q4    1   0.0572  0.0137  0.2844  11.00000  0.05    0.44
Q5    1   0.4560  0.4951  0.2810  11.00000  0.05    0.41
Q6    1   0.0621 -0.3420  0.3544  11.00000  0.05    0.40
Q7    1   0.7038 -0.3416  0.2082  11.00000  0.05    0.40
Q8    1   0.3583  0.1572  0.6169  11.00000  0.05    0.39
Q9    1   0.0922 -0.2491  0.2922  11.00000  0.05    0.39
Q10   1   0.5645  0.5263  0.4176  11.00000  0.05    0.38
Q11   1   0.6249 -0.1287  0.3613  11.00000  0.05    0.38
Q12   1   0.1744 -0.3605  0.5986  11.00000  0.05    0.36
Q13   1   0.7312 -0.3679  0.1764  11.00000  0.05    0.35
Q14   1   0.7061  0.3580  0.2047  11.00000  0.05    0.35
Q15   1   0.2388 -0.0086  0.6147  11.00000  0.05    0.35
Q16   1   0.1919 -0.3271  0.5784  11.00000  0.05    0.35
Q17   1   0.4554  0.1227  0.2189  11.00000  0.05    0.34
Q18   1   0.3969  0.2816  0.5175  11.00000  0.05    0.34
Q19   1   0.4050 -0.2192  0.2227  11.00000  0.05    0.34
Q20   1   0.6645  0.1122  0.1025  11.00000  0.05    0.33
Q21   1   0.0116  0.1305  0.4959  11.00000  0.05    0.33
Q22   1   0.6169  0.3020  0.2767  11.00000  0.05    0.33
Q23   1   0.4867  0.0079  0.0623  11.00000  0.05    0.33
Q24   1   0.5318  0.0012  0.2261  11.00000  0.05    0.31
Q25   1   0.1456  0.3778  0.5153  11.00000  0.05    0.31
;
_shelx_res_checksum              97250
_shelx_hkl_file
;
   2   0   1    4.15    3.56
  -4   0  -1    8.81    5.95
  -5   0  -1 5352.00  110.60
   6   0   5  -11.21   13.50
  -6   0  -1    6.13    9.90
   7   0   7  423.00   30.50
   7   0   6   -6.78   22.61
  -7   0  -1 1503.00   35.85
   8   0  10  260.90   48.34
   8   0   9  -14.80   39.11
   8   0   8  348.10   35.94
   9   0  11    7.71   60.96
  -9   0   0  -37.43   19.08
 -10   0   0 1120.00   36.85
 -12   0   1   19.50   33.90
 -13   0   2   19.25   46.25
 -14   0   2  150.60   61.15
 -14   0   3  -19.37   62.41
 -13   1   2  381.80   38.49
 -11   1   1   -0.85   20.92
  -9   1   0  130.20   12.10
   8  -1   9  213.00   33.89
   8  -1  10   30.00   36.50
   7  -1   7   62.53   20.53
   6  -1   5 1064.00   26.72
   2  -1   1 4819.00   98.91
  -1   1   0  548.50   14.61
   0  -1   0   -1.08    6.83
   1   1   1 1126.00   27.35
   3   1   2 4515.00   95.46
  -3  -1  -1   54.76   10.35
   4   1   3 3621.00   78.58
  -4  -1  -1 2126.00   48.88
   5   1   4 1847.00   45.54
  -5  -1  -1  320.50   17.06
   6   1   6    8.94   21.26
   6   1   5 1641.00   43.58
  -6  -1  -1  563.30   21.77
   7   1   7   23.07   34.50
   7   1   6  701.70   33.88
  -7  -1  -1  -18.18   17.50
   8   1  12   17.09   56.45
   8   1  11  284.10   58.19
   8   1  10   12.38   48.76
   8   1   9  222.90   45.64
   8   1   8   77.95   37.58
  -8  -1  -1  678.70   27.30
  -9  -1   0  123.70   27.89
 -10  -1   0  127.30   31.15
 -11  -1   1  -27.22   38.08
 -12  -1   1  647.30   47.92
 -13  -1   1  -64.48   44.30
 -13  -1   2  431.20   51.75
 -14  -1   2  -51.30   62.34
  -6   2   0 1575.00   35.88
  -5   2   0  485.00   16.30
  -4   2   0 2246.00   49.72
   4  -2   3   29.74   10.25
  -3   2   0  158.40   12.38
   3  -2   2   92.27   11.37
  -1   2   1 1558.00   37.76
   1  -2   1  582.40   19.87
   0   2   1  204.70   14.10
   1   2   2  112.10   16.06
  -1  -2   0   25.03   14.02
   2   2   3  119.40   14.95
   2   2   2  309.50   17.19
  -2  -2   0 2598.00   59.96
   3   2   3 2779.00   64.46
  -3  -2   0  140.60   16.66
   4   2   5  -20.13   20.84
   4   2   4 2778.00   66.32
  -4  -2  -1  134.50   17.04
  -4  -2   0 2489.00   58.80
   5   2   6   80.99   30.19
   5   2   5 1709.00   48.76
  -5  -2  -1 1123.00   34.70
  -5  -2   0  612.00   26.67
   6   2   8  373.20   39.30
   6   2   7   -0.29   33.64
   6   2   6  705.40   37.60
  -6  -2  -1  658.10   28.34
  -6  -2   0 1464.00   41.69
   7   2  12   73.07   56.85
   7   2  11   81.75   49.89
   7   2  10  -22.68   43.25
   7   2   9  597.60   46.51
   7   2   8   48.94   40.31
   7   2   7  952.00   43.12
  -7  -2  -1  733.20   32.66
  -7  -2   0   19.37   21.24
   8   2  11    4.56   54.47
   8   2  10  302.10   51.80
  -8  -2   0 1500.00   50.18
  -9  -2   0   70.99   32.27
 -10  -2   0 1335.00   54.19
 -10  -2   1   20.61   36.84
 -11  -2   1  517.50   47.44
 -12  -2   1   38.27   46.70
 -12  -2   2  255.90   53.72
 -13  -2   2   65.41   54.95
 -13  -2   3  606.70   59.04
 -11   3   3   -1.47   33.30
  -9   3   2  795.00   34.52
  -8   3   2   -8.49   24.37
   7  -3  10  248.80   39.89
  -6   3   1 1445.00   41.17
   6  -3   7  678.20   30.28
  -5   3   1  150.50   18.62
   5  -3   5   25.32   18.93
   5  -3   6 1484.00   43.36
  -4   3   1 3193.00   72.63
   4  -3   4   69.13   21.66
  -3   3   2 1768.00   45.92
  -3   3   1    3.41   18.83
   3  -3   3  208.90   21.00
  -2   3   2   30.97   17.99
   2  -3   2   40.02   17.93
   2  -3   3 3231.00   74.66
  -1   3   2 1466.00   40.45
   1  -3   2 2209.00   55.44
   0   3   3 1377.00   41.08
   0   3   2   25.42   20.53
   0  -3   1  197.20   21.01
   0  -3   2   -1.59   19.25
   1   3   4 1351.00   43.17
   1   3   3   65.29   19.48
  -1  -3   1   37.05   20.21
   2   3   5 1053.00   36.44
   2   3   4  316.40   27.97
   2   3   3 3466.00   80.62
  -2  -3   0   50.04   21.68
  -2  -3   1 2546.00   64.36
   3   3   6 1843.00   54.25
   3   3   5  349.40   30.43
   3   3   4 1485.00   45.85
  -3  -3   0 1693.00   49.74
  -3  -3   1   -7.81   20.50
   4   3   7 1416.00   50.59
   4   3   6  167.60   29.00
   4   3   5 1865.00   54.26
  -4  -3   0    8.91   25.33
  -4  -3   1 3411.00   83.28
   5   3  10   88.85   44.04
   5   3   9  -44.65   40.17
   5   3   8  136.80   36.90
   5   3   7  440.60   33.72
   5   3   6 1593.00   52.31
  -5  -3   0 2009.00   56.16
  -5  -3   1  187.90   27.96
   6   3  11  165.80   51.47
   6   3  10  215.80   47.95
   6   3   9   77.51   42.77
   6   3   8  -30.86   36.94
   6   3   7  914.30   42.57
  -6  -3   0  163.40   31.02
  -6  -3   1 1612.00   51.75
   7   3  11   67.40   56.73
   7   3  10  237.40   49.80
  -7  -3   0 1034.00   43.18
  -7  -3   1  297.30   34.05
  -8  -3   0  107.10   30.97
  -8  -3   1 1017.00   41.52
  -9  -3   0  598.90   42.69
  -9  -3   1    0.04   34.45
  -9  -3   2 1108.00   47.56
 -10  -3   1  173.70   43.15
 -10  -3   2  -14.00   41.55
 -11  -3   1    1.23   48.91
 -11  -3   2  256.00   44.80
 -11  -3   3  -38.22   48.27
 -12  -3   2   69.35   47.76
 -12  -3   3  129.00   52.76
 -10   4   5   46.51   55.34
  -9   4   4   45.78   46.11
  -8   4   4  378.60   47.01
  -8   4   3  123.40   40.41
  -7   4   4  -22.02   41.23
  -7   4   3  535.00   42.70
  -6   4   4  638.70   43.13
  -6   4   3  174.40   38.15
   6  -4  10   69.33   71.70
  -5   4   4  -14.02   34.05
  -5   4   3  779.40   43.70
   5  -4   7  275.90   43.65
   5  -4   8   47.06   46.03
   5  -4   9  933.30   56.56
  -4   4   4  498.20   38.56
  -4   4   3   55.58   36.59
   4  -4   6  151.70   37.31
   4  -4   7  142.10   43.01
  -3   4   4  976.70   43.69
  -3   4   3  950.20   44.47
   3  -4   5  288.30   38.18
   3  -4   6  151.50   36.58
  -2   4   4  283.80   34.52
  -2   4   3  585.50   36.21
   2  -4   5   25.85   31.81
  -1   4   5  403.40   37.11
  -1   4   4  332.90   33.48
  -1   4   3 1124.00   45.01
   1  -4   3  927.30   40.65
   1  -4   4  103.80   31.79
   0   4   6  909.00   44.89
   0   4   5   12.66   26.90
   0   4   4  900.70   42.76
   0  -4   2  797.30   35.76
   0  -4   3   72.17   27.52
   1   4   7  823.90   46.22
   1   4   6   11.70   34.99
   1   4   5 1068.00   42.41
   1   4   4  150.20   31.34
  -1  -4   2  166.10   27.04
  -1  -4   3 1051.00   41.92
   2   4   8  298.30   41.17
   2   4   7    2.22   30.52
   2   4   6  435.20   35.53
   2   4   5   23.19   33.93
  -2  -4   1   11.49   28.49
  -2  -4   2 1059.00   42.67
  -2  -4   3  600.80   37.58
   3   4  10   26.91   42.84
   3   4   9  372.90   40.76
   3   4   8   -8.88   38.78
   3   4   7  245.60   34.42
   3   4   6  300.40   34.88
  -3  -4   1  555.20   32.62
  -3  -4   2   32.51   24.90
   4   4  11   60.50   49.74
   4   4  10  418.10   45.79
   4   4   9   17.13   41.93
   4   4   8  767.80   44.55
   4   4   7  142.60   41.12
  -4  -4   1 1086.00   44.50
  -4  -4   2 1125.00   44.23
   5   4  10  149.10   50.35
   5   4   9  759.90   51.13
   5   4   8  -31.45   29.95
  -5  -4   1  396.80   36.72
  -5  -4   2  181.40   35.16
  -6  -4   1  -44.83   29.98
  -6  -4   2  791.40   40.08
  -7  -4   1  495.70   36.63
  -7  -4   2  193.40   37.90
  -7  -4   3  895.80   43.22
  -8  -4   1   67.56   40.16
  -8  -4   2  542.80   39.72
  -8  -4   3  117.30   42.21
  -9  -4   1  247.80   39.58
  -9  -4   2  328.40   46.34
  -9  -4   3  507.20   46.76
 -10  -4   2  376.70   49.04
 -10  -4   3   41.28   50.63
 -10  -4   4  212.50   52.76
 -11  -4   2  -81.95   54.61
  -8   5   5  473.60   55.86
  -7   5   6  634.40   59.73
  -7   5   5  -38.64   54.88
  -6   5   7  238.30   52.82
  -6   5   6  -33.45   49.84
  -6   5   5 1127.00   58.89
  -5   5   7  -48.86   48.38
  -5   5   6  515.10   52.83
  -5   5   5   24.49   44.83
  -4   5   8   31.84   36.47
  -4   5   7  210.90   48.13
  -4   5   6   19.02   44.17
  -4   5   5  785.20   51.06
   4  -5   8   76.39   49.09
  -3   5   8   23.23   49.43
  -3   5   7  -58.83   43.96
  -3   5   5   29.99   44.96
   3  -5   7   -8.35   51.29
   3  -5   8  284.20   51.75
   3  -5   9   50.91   60.29
  -2   5   9  136.40   49.17
  -2   5   8  -10.81   42.42
  -2   5   7  492.40   42.76
  -2   5   6  144.60   43.45
  -2   5   5 1218.00   57.14
   2  -5   6   36.98   45.84
   2  -5   7  629.40   51.39
   2  -5   8   29.94   47.42
  -1   5   9  -33.94   45.86
  -1   5   8  406.70   46.49
  -1   5   7   -2.34   39.12
  -1   5   6 1255.00   52.52
   1  -5   5   41.65   39.73
   1  -5   6  501.30   45.58
   1  -5   7   52.19   45.41
   0   5   9  343.40   50.55
   0   5   8  173.70   41.92
   0   5   7  598.30   44.26
   0   5   6  -21.63   37.84
   0  -5   4   12.08   39.26
   0  -5   5  717.40   47.06
   0  -5   6  -14.58   41.87
   1   5   9   -3.14   47.23
   1   5   8  584.10   41.88
   1   5   7   17.38   37.98
  -1  -5   3    3.38   27.25
  -1  -5   4  948.80   49.25
  -1  -5   5   73.82   40.91
   2   5   9  497.70   44.70
   2   5   8    2.16   46.28
  -2  -5   3   92.29   35.47
  -2  -5   4  152.90   40.06
  -2  -5   5 1335.00   54.67
   3   5   9   35.54   43.15
  -3  -5   3  213.60   40.21
  -3  -5   4  300.30   42.88
  -3  -5   5   28.72   36.76
  -4  -5   3   -2.17   38.47
  -4  -5   4  -80.14   41.30
  -4  -5   5  871.70   46.77
  -5  -5   2   81.54   36.14
  -5  -5   3  -26.06   42.71
  -5  -5   4  487.00   42.03
  -5  -5   5   69.84   44.04
  -6  -5   2  -35.43   37.21
  -6  -5   3  572.60   43.33
  -6  -5   4  -31.98   46.18
  -6  -5   5 1222.00   59.36
  -7  -5   3   43.73   45.60
  -7  -5   4 1125.00   58.58
  -7  -5   5 -150.50   51.24
  -8  -5   3  264.20   46.30
  -8  -5   4   45.47   43.67
  -8  -5   5  398.10   54.42
  -3  -6   5  210.60   60.33
   0   0   0    0.00    0.00
;
_shelx_hkl_checksum              21080
_olex2_submission_special_instructions 'No special instructions were received'
loop_
_space_group_symop_operation_xyz
'x, y, z'
'-x+1/2, y+1/2, -z+1/2'
'-x, -y, -z'
'x-1/2, -y-1/2, z-1/2'
loop_
_atom_site_label
_atom_site_type_symbol
_atom_site_fract_x
_atom_site_fract_y
_atom_site_fract_z
_atom_site_U_iso_or_equiv
_atom_site_adp_type
_atom_site_occupancy
_atom_site_site_symmetry_order
_atom_site_calc_flag
_atom_site_refinement_flags_posn
_atom_site_refinement_flags_adp
_atom_site_refinement_flags_occupancy
_atom_site_disorder_assembly
_atom_site_disorder_group
C1 C 0.1817(19) -0.064(3) 0.449(2) 0.011(3) Uiso 1 1 d . . . . .
H1A H 0.1209 0.0767 0.4794 0.017 Uiso 1 1 calc GR . . . .
H1B H 0.1951 -0.2188 0.5065 0.017 Uiso 1 1 calc GR . . . .
H1C H 0.1453 -0.1417 0.3730 0.017 Uiso 1 1 calc GR . . . .
C2 C 0.3097(19) 0.079(3) 0.428(3) 0.015(4) Uiso 1 1 d . . . . .
C3 C 0.393(2) -0.030(3) 0.339(2) 0.013(3) Uiso 1 1 d . . . . .
H3 H 0.3633 -0.1919 0.2942 0.015 Uiso 1 1 calc R . . . .
C4 C 0.5127(18) 0.084(3) 0.312(2) 0.012(3) Uiso 1 1 d . . . . .
C5 C 0.5849(19) -0.050(3) 0.213(3) 0.015(4) Uiso 1 1 d . . . . .
H5A H 0.6642 0.0601 0.1994 0.023 Uiso 1 1 calc GR . . . .
H5B H 0.5287 -0.0505 0.1393 0.023 Uiso 1 1 calc GR . . . .
H5C H 0.6086 -0.2469 0.2341 0.023 Uiso 1 1 calc GR . . . .
O1 O 0.3371(14) 0.294(2) 0.4931(17) 0.014(3) Uiso 1 1 d . . . . .
O2 O 0.5645(13) 0.303(2) 0.3638(16) 0.010(2) Uiso 1 1 d . . . . .
Cu1 Cu 0.5000 0.5000 0.5000 0.0100(10) Uiso 1 2 d S T P . .
loop_
_atom_type_symbol
_atom_type_description
_atom_type_scat_dispersion_real
_atom_type_scat_dispersion_imag
_atom_type_scat_source
C C 0.0033 0.0016 'International Tables Vol C Tables 4.2.6.8 and 6.1.1.4'
H H 0.0000 0.0000 'International Tables Vol C Tables 4.2.6.8 and 6.1.1.4'
Cu Cu 0.3201 1.2651 'International Tables Vol C Tables 4.2.6.8 and 6.1.1.4'
O O 0.0106 0.0060 'International Tables Vol C Tables 4.2.6.8 and 6.1.1.4'
loop_
_geom_angle_atom_site_label_1
_geom_angle_atom_site_label_2
_geom_angle_atom_site_label_3
_geom_angle
_geom_angle_site_symmetry_1
_geom_angle_site_symmetry_3
H1A C1 H1B 109.5 . .
H1A C1 H1C 109.5 . .
H1B C1 H1C 109.5 . .
C2 C1 H1A 109.5 . .
C2 C1 H1B 109.5 . .
C2 C1 H1C 109.5 . .
C3 C2 C1 120.2(18) . .
O1 C2 C1 116(2) . .
O1 C2 C3 124(2) . .
C2 C3 H3 117.4 . .
C4 C3 C2 125.1(16) . .
C4 C3 H3 117.4 . .
C3 C4 C5 118.0(16) . .
O2 C4 C3 124(2) . .
O2 C4 C5 117(2) . .
C4 C5 H5A 109.5 . .
C4 C5 H5B 109.5 . .
C4 C5 H5C 109.5 . .
H5A C5 H5B 109.5 . .
H5A C5 H5C 109.5 . .
H5B C5 H5C 109.5 . .
C2 O1 Cu1 126.1(17) . .
C4 O2 Cu1 126.1(18) . .
O1 Cu1 O1 180.0 3_666 .
O1 Cu1 O2 86.5(6) 3_666 .
O1 Cu1 O2 93.5(6) 3_666 3_666
O1 Cu1 O2 93.5(6) . .
O1 Cu1 O2 86.5(6) . 3_666
O2 Cu1 O2 180.0 . 3_666
loop_
_geom_bond_atom_site_label_1
_geom_bond_atom_site_label_2
_geom_bond_distance
_geom_bond_site_symmetry_2
C1 H1A 0.9800 .
C1 H1B 0.9800 .
C1 H1C 0.9800 .
C1 C2 1.50(3) .
C2 C3 1.44(4) .
C2 O1 1.27(2) .
C3 H3 0.9500 .
C3 C4 1.38(3) .
C4 C5 1.51(4) .
C4 O2 1.28(2) .
C5 H5A 0.9800 .
C5 H5B 0.9800 .
C5 H5C 0.9800 .
O1 Cu1 1.926(14) .
O2 Cu1 1.928(17) .
Cu1 O1 1.926(14) 3_666
Cu1 O2 1.928(17) 3_666
loop_
_geom_torsion_atom_site_label_1
_geom_torsion_atom_site_label_2
_geom_torsion_atom_site_label_3
_geom_torsion_atom_site_label_4
_geom_torsion
_geom_torsion_site_symmetry_1
_geom_torsion_site_symmetry_2
_geom_torsion_site_symmetry_3
_geom_torsion_site_symmetry_4
C1 C2 C3 C4 179.9(18) . . . .
C1 C2 O1 Cu1 173.5(14) . . . .
C2 C3 C4 C5 -178(2) . . . .
C2 C3 C4 O2 -1(4) . . . .
C3 C2 O1 Cu1 -7(3) . . . .
C3 C4 O2 Cu1 7(3) . . . .
C5 C4 O2 Cu1 -175.5(13) . . . .
O1 C2 C3 C4 1(4) . . . .
