#------------------------------------------------------------------------------
#$Date: 2019-05-24 11:59:56 +0300 (Fri, 24 May 2019) $
#$Revision: 215483 $
#$URL: file:///home/coder/svn-repositories/cod/cif/1/55/11/1551125.cif $
#------------------------------------------------------------------------------
#
# This file is available in the Crystallography Open Database (COD),
# http://www.crystallography.net/
#
# All data on this site have been placed in the public domain by the
# contributors.
#
data_1551125
loop_
_publ_author_name
'Anna Worthy'
'Arnaud Grosjean'
'Michael C. Pfrunder'
'Yanan Xu'
'Cheng Yan'
'Grant Edwards'
'Jack K. Clegg'
'John C. McMurtrie'
_publ_section_title
;
 Atomic resolution of structural changes in elastic crystals of copper(II)
 acetylacetonate
;
_journal_name_full               'Nature Chemistry'
_journal_page_first              65
_journal_page_last               69
_journal_paper_doi               10.1038/nchem.2848
_journal_volume                  10
_journal_year                    2018
_chemical_formula_moiety         'C10 H14 Cu O4'
_chemical_formula_sum            'C10 H14 Cu O4'
_chemical_formula_weight         261.75
_space_group_crystal_system      monoclinic
_space_group_IT_number           14
_space_group_name_Hall           '-P 2yn'
_space_group_name_H-M_alt        'P 1 21/n 1'
_symmetry_space_group_name_Hall  '-P 2yn'
_symmetry_space_group_name_H-M   'P 1 21/n 1'
_atom_sites_solution_hydrogens   geom
_cell_angle_alpha                90
_cell_angle_beta                 92.26(3)
_cell_angle_gamma                90
_cell_formula_units_Z            2
_cell_length_a                   10.283(2)
_cell_length_b                   4.6180(9)
_cell_length_c                   11.334(2)
_cell_measurement_reflns_used    282
_cell_measurement_temperature    100(2)
_cell_measurement_theta_max      29.564
_cell_measurement_theta_min      9.687
_cell_volume                     537.80(18)
_computing_cell_refinement       'XDS (Kabsch, 1993)'
_computing_data_collection       'BluIce (McPhillips, 2002)'
_computing_data_reduction        'XDS (Kabsch, 1993)'
_computing_molecular_graphics    'Olex2 (Dolomanov et al., 2009)'
_computing_publication_material  'Olex2 (Dolomanov et al., 2009)'
_computing_structure_refinement  'ShelXL (Sheldrick, 2015)'
_computing_structure_solution    'Known Structure'
_diffrn_ambient_temperature      100(2)
_diffrn_measured_fraction_theta_full 0.188
_diffrn_measured_fraction_theta_max 0.187
_diffrn_measurement_device_type  'ADSC Quantum 315r'
_diffrn_measurement_method       'Phi Scan'
_diffrn_radiation_monochromator  'Silicon Double Crystal'
_diffrn_radiation_type           Synchrotron
_diffrn_radiation_wavelength     0.7108
_diffrn_reflns_av_unetI/netI     0.0212
_diffrn_reflns_Laue_measured_fraction_full 0.188
_diffrn_reflns_Laue_measured_fraction_max 0.187
_diffrn_reflns_number            282
_diffrn_reflns_point_group_measured_fraction_full 0.188
_diffrn_reflns_point_group_measured_fraction_max 0.187
_diffrn_reflns_theta_full        26.000
_diffrn_reflns_theta_max         29.564
_diffrn_reflns_theta_min         9.687
_diffrn_source                   Synchrotron
_exptl_absorpt_coefficient_mu    2.021
_exptl_absorpt_correction_type   multi-scan
_exptl_absorpt_process_details   'XDS (Kabsch, 1993)'
_exptl_crystal_colour            'dark blue'
_exptl_crystal_colour_lustre     .
_exptl_crystal_colour_modifier   dark
_exptl_crystal_colour_primary    blue
_exptl_crystal_density_diffrn    1.616
_exptl_crystal_description       needle
_exptl_crystal_F_000             270
_exptl_crystal_size_max          1
_exptl_crystal_size_mid          0.05
_exptl_crystal_size_min          0.05
_refine_diff_density_max         0.381
_refine_diff_density_min         -0.420
_refine_diff_density_rms         0.057
_refine_ls_extinction_coef       .
_refine_ls_extinction_method     none
_refine_ls_goodness_of_fit_ref   1.157
_refine_ls_hydrogen_treatment    constr
_refine_ls_matrix_type           full
_refine_ls_number_parameters     32
_refine_ls_number_reflns         282
_refine_ls_number_restraints     0
_refine_ls_restrained_S_all      1.157
_refine_ls_R_factor_all          0.0564
_refine_ls_R_factor_gt           0.0510
_refine_ls_shift/su_max          0.000
_refine_ls_shift/su_mean         0.000
_refine_ls_structure_factor_coef Fsqd
_refine_ls_weighting_details
'w=1/[\s^2^(Fo^2^)+2.8682P] where P=(Fo^2^+2Fc^2^)/3'
_refine_ls_weighting_scheme      calc
_refine_ls_wR_factor_gt          0.1055
_refine_ls_wR_factor_ref         0.1090
_reflns_Friedel_coverage         0.000
_reflns_Friedel_fraction_full    .
_reflns_Friedel_fraction_max     .
_reflns_number_gt                255
_reflns_number_total             282
_reflns_threshold_expression     'I > 2\s(I)'
_cod_data_source_file            nchem.2848-s5-j.cif
_cod_data_source_block           j
_cod_depositor_comments
;
The following automatic conversions were performed:

'_exptl_absorpt_correction_type' value 'Multi-Scan' changed to
'multi-scan' according to the built-in table from CIF Core dictionary
named 'cif_core.dic' version 2.4.5 from 2014-11-21.

Automatic conversion script
Id: cif_fix_values 6524 2018-11-02 12:15:13Z antanas 
;
_cod_original_cell_volume        537.80(19)
_cod_database_code               1551125
_shelx_space_group_comment
;
The symmetry employed for this shelxl refinement is uniquely defined
by the following loop, which should always be used as a source of
symmetry information in preference to the above space-group names.
They are only intended as comments.
;
_shelx_estimated_absorpt_t_max   0.906
_shelx_estimated_absorpt_t_min   0.237
_olex2_refinement_description
;
1. Fixed Uiso
 At 1.2 times of:
  All C(H) groups
 At 1.5 times of:
  All C(H,H,H) groups
2.a Aromatic/amide H refined with riding coordinates:
 C3(H3)
2.b Idealised Me refined as rotating group:
 C1(H1A,H1B,H1C), C5(H5A,H5B,H5C)
;
_shelx_res_file
;
TITL 13 in P2(1)/n
CELL 0.71073 10.283 4.618 11.334 90 92.258 90
ZERR 2 0.00206 0.00092 0.00227 0 0.03 0
LATT 1
SYMM 0.5-X,0.5+Y,0.5-Z
SFAC C H Cu O
UNIT 20 28 2 8

L.S. 50
PLAN  25
SIZE 0.05 0.05 1
TEMP -173(2)
LIST 1
MORE -1
BOND $H
CONF
fmap 2
acta 52
REM <olex2.extras>
REM <HklSrc "%.\\j.hkl">
REM </olex2.extras>

WGHT    0.000000    2.868200
FVAR       1.55796
C1    1    0.180970   -0.065636    0.445221    11.00000    0.02046
AFIX 137
H1A   2    0.119926    0.074708    0.476859    11.00000   -1.50000
H1B   2    0.193281   -0.226400    0.500988    11.00000   -1.50000
H1C   2    0.145908   -0.139971    0.369479    11.00000   -1.50000
AFIX   0
C2    1    0.309678    0.079905    0.427307    11.00000    0.01502
C3    1    0.389836   -0.031236    0.339482    11.00000    0.02010
AFIX  43
H3    2    0.359670   -0.194475    0.295346    11.00000   -1.20000
AFIX   0
C4    1    0.511041    0.085458    0.313864    11.00000    0.01592
C5    1    0.585349   -0.054947    0.217114    11.00000    0.02122
AFIX 137
H5A   2    0.657428    0.071110    0.195849    11.00000   -1.50000
H5B   2    0.526998   -0.085478    0.147773    11.00000   -1.50000
H5C   2    0.619925   -0.241744    0.244827    11.00000   -1.50000
AFIX   0
O1    4    0.338739    0.294435    0.493903    11.00000    0.01802
O2    4    0.565576    0.298448    0.366639    11.00000    0.01656
CU1   3    0.500000    0.500000    0.500000    10.50000    0.01504
HKLF 4

REM  13 in P2(1)/n
REM R1 =  0.0510 for     255 Fo > 4sig(Fo)  and  0.0564 for all     282 data
REM     32 parameters refined using      0 restraints

END

WGHT      0.0000      2.8682

REM Highest difference peak  0.381,  deepest hole -0.420,  1-sigma level  0.057
Q1    1   0.5358  0.7024  0.5579  11.00000  0.05    0.38
Q2    1   0.4746  0.5481  0.4676  11.00000  0.05    0.32
Q3    1   0.5000  0.0000  0.5000  10.50000  0.05    0.27
Q4    1   0.5851  0.5003  0.4401  11.00000  0.05    0.24
Q5    1   0.5197  0.2107  0.5034  11.00000  0.05    0.21
Q6    1   0.4116  0.6397  0.4069  11.00000  0.05    0.21
Q7    1   0.4179  0.3674  0.3949  11.00000  0.05    0.19
Q8    1   0.1526 -0.5527  0.4985  11.00000  0.05    0.18
Q9    1   0.5258  0.0921  0.1221  11.00000  0.05    0.18
Q10   1   0.2752  0.0115  0.3467  11.00000  0.05    0.17
Q11   1   0.4876 -0.0178  0.3606  11.00000  0.05    0.17
Q12   1   0.3667 -0.0432  0.3997  11.00000  0.05    0.17
Q13   1   0.4402  0.0793  0.3113  11.00000  0.05    0.17
Q14   1   0.6816  0.2073  0.2185  11.00000  0.05    0.16
Q15   1   0.3110  0.5925  0.4862  11.00000  0.05    0.16
Q16   1   0.5169  0.7370  0.4456  11.00000  0.05    0.15
Q17   1   0.5416  0.3646  0.3432  11.00000  0.05    0.15
Q18   1   0.6612 -0.0980  0.2606  11.00000  0.05    0.15
Q19   1   0.5996  0.2323  0.3821  11.00000  0.05    0.15
Q20   1   0.4878  0.5350  0.3768  11.00000  0.05    0.15
Q21   1   0.5600  0.0061  0.1882  11.00000  0.05    0.15
Q22   1   0.5646 -0.2298  0.1568  11.00000  0.05    0.15
Q23   1   0.2445 -0.4437  0.5741  11.00000  0.05    0.15
Q24   1   0.5621  0.6507  0.5040  11.00000  0.05    0.15
Q25   1   0.5429  0.6182  0.3712  11.00000  0.05    0.15
;
_shelx_res_checksum              22640
_shelx_hkl_file
;
  -6  -1  10   73.63    2.12
  -6  -1  11  975.80   20.00
  -5  -1   7 1245.00   25.24
   4   1  -2 2096.00   42.18
  -4  -1   5 2538.00   51.15
  -4   1   4  411.20    8.34
  -5   1   6 3326.00   67.25
   5  -1  -2 3491.00   70.21
  -6   1   8  197.20    4.24
   6  -1  -2  313.20    6.38
  -7   1  13    1.28    3.55
   7  -1  -2 2601.00   52.43
   8  -1  -2 1067.00   21.67
   9  -1  -2 3121.00   63.05
  10  -1  -2   46.77    1.70
  11  -1  -2 1574.00   32.00
  13  -1  -1    5.00    2.66
  14  -1  -1 1338.00   27.55
  12   2  -2  198.90    4.76
  11   2  -2    1.69    1.95
  10   2  -2  720.00   14.72
   7   2  -2  109.30    2.78
   6   2  -2 1987.00   39.93
  -6  -2  13   70.04    4.22
   5   2  -2  415.40    8.45
  -5  -2   8   10.25    1.95
  -5  -2   9 3091.00   62.21
  -5  -2  10  178.70    4.27
  -5  -2  11  891.00   18.27
   4   2  -2 8881.00  178.00
  -4  -2   6 2098.00   42.19
  -4  -2   7  433.10    8.89
   3   2  -1 7798.00  156.20
  -3  -2   5 2445.00   49.08
   2   2  -1  106.80    2.34
  -2  -2   3   47.57    1.31
  -2  -2   4 3354.00   67.25
  -1  -2   3 6563.00  131.50
  -2   2   2 7306.00  146.40
  -3   2   3 9853.00  197.40
   3  -2   0  192.60    4.01
  -4   2   5   27.71    1.25
  -4   2   4 2861.00   57.48
   4  -2  -1  926.80   18.66
  -5   2   7  553.20   11.28
  -5   2   6   34.35    1.45
   5  -2  -1 2761.00   55.40
  -6   2  11   29.86    3.21
  -6   2  10  540.50   11.15
  -6   2   9   10.57    1.85
  -6   2   8  493.80   10.39
   6  -2  -1   13.38    1.09
   7  -2  -1 1812.00   36.42
   8  -2  -1  215.50    4.71
   9  -2  -1 2710.00   54.51
  10  -2  -1  221.50    4.95
  11  -2  -1  834.50   17.03
  12  -2  -1   37.39    2.64
  13  -2   0   85.37    3.48
  12   3  -1  116.20    3.98
  11   3  -1    2.56    2.68
  10   3  -1  414.90    8.93
  10   3  -2   12.58    2.45
   9   3  -2 1303.00   26.38
   7   3  -2 1072.00   21.72
   6   3  -1 1854.00   37.31
   6   3  -2    2.97    1.32
   5   3  -1  220.10    4.68
  -5  -3  12  317.10    7.90
   4   3  -1 4507.00   90.39
  -4  -3   8  325.20    7.42
  -4  -3   9 1210.00   24.47
  -4  -3  10  445.30    9.37
  -4  -3  11 1285.00   26.03
  -4  -3  12   87.92    3.55
  -4  -3  13  305.70    7.08
   3   3   0 3615.00   72.51
   3   3  -1   10.84    1.13
  -3  -3   6 1679.00   33.87
  -3  -3   7   31.86    2.35
  -3  -3   8 1716.00   34.63
  -3  -3   9    1.93    1.95
   2   3   0  140.80    3.10
  -2  -3   5 2990.00   60.00
  -2  -3   6 1736.00   34.94
  -2  -3   7  586.10   12.07
   1   3   1  197.50    4.17
   1   3   0  311.00    6.40
  -1  -3   4 2806.00   56.28
  -1  -3   5  762.30   15.42
   0   3   2   20.86    1.56
   0   3   1  335.60    6.90
   0  -3   3 2517.00   50.50
   0  -3   4  117.70    2.73
  -1   3   2 2310.00   46.36
   1  -3   2 3406.00   68.27
   1  -3   3  105.60    2.50
  -2   3   4    6.89    1.36
  -2   3   3 3873.00   77.66
   2  -3   1 2432.00   48.80
   2  -3   2   68.40    1.85
  -3   3   5   27.33    1.57
  -3   3   4 3731.00   74.84
   3  -3   1   -0.49    1.10
   3  -3   2 2754.00   55.27
  -4   3   7 1493.00   30.18
  -4   3   6  190.60    4.58
  -4   3   5 1512.00   30.45
   4  -3   0    0.03    1.31
   4  -3   1 2093.00   42.03
  -5   3  10  543.30   11.26
  -5   3   9  158.90    3.88
  -5   3   8 1434.00   28.93
  -5   3   7   35.92    1.99
   5  -3   0 3233.00   64.85
  -6   3  12    8.66    3.04
  -6   3  11  232.00    5.44
  -6   3  10   12.43    2.73
   6  -3   1  609.60   12.58
   7  -3   0 1786.00   35.96
   8  -3   0  199.70    4.61
   9  -3   0 1244.00   25.13
  10  -3   0  450.50    9.45
  10  -3   1 1310.00   26.56
  11  -3   0  518.60   10.82
  11  -3   1   23.03    2.54
  12  -3   0   -1.91    2.85
  12  -3   1  452.60    9.63
  11   4   0   14.10    3.03
  11   4  -1  539.80   11.83
  10   4   0  269.30    6.21
  10   4  -1   32.07    2.84
   9   4   0    8.26    2.48
   9   4  -1  776.10   15.91
   8   4   0  670.20   13.77
   8   4  -1  212.20    4.94
   7   4   0   10.10    2.20
   7   4  -1  784.80   16.02
   6   4   0  557.90   11.43
   6   4  -1   18.58    1.74
   5   4   0  186.90    4.17
   5   4  -1  645.70   13.26
   4   4   1  314.00    6.58
   4   4   0  496.40   10.18
   3   4   1  995.80   20.10
   3   4   0  105.10    2.68
  -3  -4  10   47.78    2.92
  -3  -4  11  106.30    3.64
   2   4   2 1310.00   26.39
   2   4   1  343.80    7.15
  -2  -4   8 1047.00   21.24
  -2  -4   9   53.57    2.62
  -2  -4  10  300.40    6.63
  -2  -4  11   39.32    2.88
  -2  -4  12  303.20    6.96
   1   4   3 1743.00   35.12
   1   4   2  808.00   16.36
   1   4   1 2039.00   40.96
  -1  -4   6  111.40    2.99
  -1  -4   7 1966.00   39.55
  -1  -4   8   43.41    2.33
  -1  -4   9  791.40   16.17
  -1  -4  10   43.40    2.50
  -1  -4  11  279.50    6.61
   0   4   3  155.90    3.53
   0   4   2 1648.00   33.14
   0  -4   5   91.46    2.71
   0  -4   6 1793.00   36.08
   0  -4   7   -2.27    2.08
   0  -4   8 1431.00   28.85
  -1   4   5  768.70   15.67
  -1   4   4  357.00    7.43
  -1   4   3 1227.00   24.72
   1  -4   4  137.70    3.39
   1  -4   5 1314.00   26.49
   1  -4   6   45.30    2.27
  -2   4   6  835.80   16.94
  -2   4   5   96.30    2.60
  -2   4   4  552.00   11.28
   2  -4   3 1082.00   21.84
   2  -4   4 1409.00   28.39
   2  -4   5   45.91    2.19
  -3   4   8   50.24    2.18
  -3   4   7  781.40   15.90
  -3   4   6    4.96    1.78
  -3   4   5  459.10    9.49
   3  -4   3 1273.00   25.69
   3  -4   4    4.25    1.91
   3  -4   5  488.80   10.28
  -4   4  11   53.94    2.85
  -4   4  10  212.40    5.06
  -4   4   9    7.43    2.32
  -4   4   8  721.80   14.75
  -4   4   7   57.78    2.29
   4  -4   2 1285.00   25.93
   4  -4   3    0.58    1.96
   4  -4   4 1083.00   21.89
  -5   4  11  290.00    6.60
  -5   4  10  112.40    3.55
   5  -4   2   25.73    2.18
   5  -4   3 1718.00   34.59
   6  -4   2 1866.00   37.54
   6  -4   3   18.90    2.20
   7  -4   1 1090.00   22.10
   7  -4   2    0.86    2.01
   7  -4   3 1209.00   24.42
   8  -4   1   69.31    2.63
   8  -4   3   13.93    2.17
   9  -4   1  238.60    5.52
   9  -4   2    5.24    2.34
   9  -4   3  216.00    5.05
  10  -4   1  150.30    4.83
  10  -4   2  109.80    3.47
  10  -4   3   28.14    2.60
   8   5   2    3.84    2.51
   8   5   1   63.47    2.98
   8   5   0  -10.54    3.75
   7   5   2  264.10    5.99
   7   5   1   23.11    2.37
   6   5   2    2.90    2.19
   6   5   1 1152.00   23.31
   5   5   3    0.80    1.94
   5   5   2 1006.00   20.36
   5   5   1  157.70    3.86
   4   5   3  352.90    7.44
   4   5   2   25.99    2.05
   4   5   1 1234.00   24.91
   3   5   4  170.50    4.04
   3   5   3    0.57    1.90
   3   5   2  661.00   13.48
   2   5   4    4.15    1.93
   2   5   3  171.20    4.03
   2   5   2   28.97    1.82
   1   5   5   -2.68    1.89
   1   5   4  182.90    4.18
   1   5   3   92.84    2.60
   0   5   7  565.90   11.67
   0   5   6   19.69    1.96
   0   5   5  809.70   16.43
   0   5   4   32.66    1.99
   0  -5   9  488.50   10.33
  -1   5   9   34.68    3.19
  -1   5   8  411.30    8.69
  -1   5   7   -2.29    2.14
  -1   5   6 1347.00   27.16
  -1   5   5   39.54    2.13
   1  -5   7    5.04    2.32
   1  -5   8  711.00   14.58
   1  -5   9    4.58    2.65
  -2   5   9  147.10    4.07
  -2   5   8   44.92    2.70
  -2   5   7  601.20   12.38
  -2   5   6  178.10    4.19
   2  -5   6   13.45    2.25
   2  -5   7  626.00   12.87
   2  -5   8   18.85    2.50
   2  -5   9  470.60    9.92
  -3   5   9    4.44    2.58
  -3   5   8   80.96    2.98
   3  -5   5  237.50    5.57
   3  -5   6  382.70    8.08
   3  -5   7    1.97    2.30
   3  -5   8  217.60    5.17
   3  -5   9   -7.02    2.70
   4  -5   5  363.00    7.74
   4  -5   6    3.30    2.34
   4  -5   7  160.50    4.15
   4  -5   8   63.99    2.86
   5  -5   4  618.40   12.75
   5  -5   5   -4.34    2.32
   5  -5   6  445.10    9.39
   5  -5   7   22.13    2.63
   6  -5   4   41.78    2.59
   6  -5   5  674.10   13.86
   6  -5   6   30.01    2.61
   6  -5   7  118.00    4.38
   7  -5   4  488.30   10.26
   7  -5   5   -0.40    2.76
   8  -5   4    6.92    3.73
   4   6   3   -1.40    3.66
   3   6   4    8.46    2.43
   2   6   5   21.73    3.11
   0   0   0    0.00    0.00
;
_shelx_hkl_checksum              84848
_olex2_submission_special_instructions 'No special instructions were received'
loop_
_space_group_symop_operation_xyz
'x, y, z'
'-x+1/2, y+1/2, -z+1/2'
'-x, -y, -z'
'x-1/2, -y-1/2, z-1/2'
loop_
_atom_site_label
_atom_site_type_symbol
_atom_site_fract_x
_atom_site_fract_y
_atom_site_fract_z
_atom_site_U_iso_or_equiv
_atom_site_adp_type
_atom_site_occupancy
_atom_site_site_symmetry_order
_atom_site_calc_flag
_atom_site_refinement_flags_posn
_atom_site_refinement_flags_adp
_atom_site_refinement_flags_occupancy
_atom_site_disorder_assembly
_atom_site_disorder_group
C1 C 0.1810(10) -0.0656(14) 0.4452(11) 0.0205(15) Uiso 1 1 d . . . . .
H1A H 0.1199 0.0747 0.4769 0.031 Uiso 1 1 calc GR . . . .
H1B H 0.1933 -0.2264 0.5010 0.031 Uiso 1 1 calc GR . . . .
H1C H 0.1459 -0.1400 0.3695 0.031 Uiso 1 1 calc GR . . . .
C2 C 0.3097(9) 0.0799(12) 0.4273(9) 0.0150(13) Uiso 1 1 d . . . . .
C3 C 0.3898(10) -0.0312(13) 0.3395(10) 0.0201(14) Uiso 1 1 d . . . . .
H3 H 0.3597 -0.1945 0.2953 0.024 Uiso 1 1 calc R . . . .
C4 C 0.5110(9) 0.0855(12) 0.3139(10) 0.0159(14) Uiso 1 1 d . . . . .
C5 C 0.5853(10) -0.0549(14) 0.2171(11) 0.0212(15) Uiso 1 1 d . . . . .
H5A H 0.6574 0.0711 0.1958 0.032 Uiso 1 1 calc GR . . . .
H5B H 0.5270 -0.0855 0.1478 0.032 Uiso 1 1 calc GR . . . .
H5C H 0.6199 -0.2417 0.2448 0.032 Uiso 1 1 calc GR . . . .
O1 O 0.3387(7) 0.2944(9) 0.4939(7) 0.0180(11) Uiso 1 1 d . . . . .
O2 O 0.5656(7) 0.2984(9) 0.3666(7) 0.0166(11) Uiso 1 1 d . . . . .
Cu1 Cu 0.5000 0.5000 0.5000 0.0150(4) Uiso 1 2 d S T P . .
loop_
_atom_type_symbol
_atom_type_description
_atom_type_scat_dispersion_real
_atom_type_scat_dispersion_imag
_atom_type_scat_source
C C 0.0033 0.0016 'International Tables Vol C Tables 4.2.6.8 and 6.1.1.4'
H H 0.0000 0.0000 'International Tables Vol C Tables 4.2.6.8 and 6.1.1.4'
Cu Cu 0.3201 1.2651 'International Tables Vol C Tables 4.2.6.8 and 6.1.1.4'
O O 0.0106 0.0060 'International Tables Vol C Tables 4.2.6.8 and 6.1.1.4'
loop_
_geom_angle_atom_site_label_1
_geom_angle_atom_site_label_2
_geom_angle_atom_site_label_3
_geom_angle
_geom_angle_site_symmetry_1
_geom_angle_site_symmetry_3
H1A C1 H1B 109.5 . .
H1A C1 H1C 109.5 . .
H1B C1 H1C 109.5 . .
C2 C1 H1A 109.5 . .
C2 C1 H1B 109.5 . .
C2 C1 H1C 109.5 . .
C3 C2 C1 118.2(8) . .
O1 C2 C1 117.0(7) . .
O1 C2 C3 124.7(8) . .
C2 C3 H3 118.1 . .
C4 C3 C2 123.7(8) . .
C4 C3 H3 118.1 . .
C3 C4 C5 117.8(8) . .
O2 C4 C3 125.5(8) . .
O2 C4 C5 116.7(7) . .
C4 C5 H5A 109.5 . .
C4 C5 H5B 109.5 . .
C4 C5 H5C 109.5 . .
H5A C5 H5B 109.5 . .
H5A C5 H5C 109.5 . .
H5B C5 H5C 109.5 . .
C2 O1 Cu1 126.2(5) . .
C4 O2 Cu1 125.7(5) . .
O1 Cu1 O1 180.0 . 3_666
O1 Cu1 O2 86.4(3) . 3_666
O1 Cu1 O2 93.6(3) . .
O1 Cu1 O2 93.6(3) 3_666 3_666
O1 Cu1 O2 86.4(3) 3_666 .
O2 Cu1 O2 180.0(4) . 3_666
loop_
_geom_bond_atom_site_label_1
_geom_bond_atom_site_label_2
_geom_bond_distance
_geom_bond_site_symmetry_2
C1 H1A 0.9800 .
C1 H1B 0.9800 .
C1 H1C 0.9800 .
C1 C2 1.505(12) .
C2 C3 1.414(12) .
C2 O1 1.274(9) .
C3 H3 0.9500 .
C3 C4 1.399(12) .
C4 C5 1.508(12) .
C4 O2 1.270(9) .
C5 H5A 0.9800 .
C5 H5B 0.9800 .
C5 H5C 0.9800 .
O1 Cu1 1.910(7) .
O2 Cu1 1.920(6) .
Cu1 O1 1.910(7) 3_666
Cu1 O2 1.920(6) 3_666
loop_
_geom_torsion_atom_site_label_1
_geom_torsion_atom_site_label_2
_geom_torsion_atom_site_label_3
_geom_torsion_atom_site_label_4
_geom_torsion
_geom_torsion_site_symmetry_1
_geom_torsion_site_symmetry_2
_geom_torsion_site_symmetry_3
_geom_torsion_site_symmetry_4
C1 C2 C3 C4 179.6(10) . . . .
C1 C2 O1 Cu1 174.6(8) . . . .
C2 C3 C4 C5 -179.6(9) . . . .
C2 C3 C4 O2 1.6(17) . . . .
C3 C2 O1 Cu1 -4.7(12) . . . .
C3 C4 O2 Cu1 3.6(12) . . . .
C5 C4 O2 Cu1 -175.2(8) . . . .
O1 C2 C3 C4 -1.0(16) . . . .
