#------------------------------------------------------------------------------
#$Date: 2019-05-24 12:01:24 +0300 (Fri, 24 May 2019) $
#$Revision: 215495 $
#$URL: file:///home/coder/svn-repositories/cod/cif/1/55/11/1551137.cif $
#------------------------------------------------------------------------------
#
# This file is available in the Crystallography Open Database (COD),
# http://www.crystallography.net/
#
# All data on this site have been placed in the public domain by the
# contributors.
#
data_1551137
loop_
_publ_author_name
'Anna Worthy'
'Arnaud Grosjean'
'Michael C. Pfrunder'
'Yanan Xu'
'Cheng Yan'
'Grant Edwards'
'Jack K. Clegg'
'John C. McMurtrie'
_publ_section_title
;
 Atomic resolution of structural changes in elastic crystals of copper(II)
 acetylacetonate
;
_journal_name_full               'Nature Chemistry'
_journal_page_first              65
_journal_page_last               69
_journal_paper_doi               10.1038/nchem.2848
_journal_volume                  10
_journal_year                    2018
_chemical_formula_moiety         'C10 H14 Cu O4'
_chemical_formula_sum            'C10 H14 Cu O4'
_chemical_formula_weight         261.75
_space_group_crystal_system      monoclinic
_space_group_IT_number           14
_space_group_name_Hall           '-P 2yn'
_space_group_name_H-M_alt        'P 1 21/n 1'
_symmetry_space_group_name_Hall  '-P 2yn'
_symmetry_space_group_name_H-M   'P 1 21/n 1'
_atom_sites_solution_hydrogens   geom
_cell_angle_alpha                90
_cell_angle_beta                 92.43(3)
_cell_angle_gamma                90
_cell_formula_units_Z            2
_cell_length_a                   10.279(2)
_cell_length_b                   4.6330(9)
_cell_length_c                   11.311(2)
_cell_measurement_reflns_used    297
_cell_measurement_temperature    100(2)
_cell_measurement_theta_max      29.464
_cell_measurement_theta_min      4.827
_cell_volume                     538.17(18)
_computing_cell_refinement       'XDS (Kabsch, 1993)'
_computing_data_collection       'BluIce (McPhillips, 2002)'
_computing_data_reduction        'XDS (Kabsch, 1993)'
_computing_molecular_graphics    'Olex2 (Dolomanov et al., 2009)'
_computing_publication_material  'Olex2 (Dolomanov et al., 2009)'
_computing_structure_refinement  'ShelXL (Sheldrick, 2015)'
_computing_structure_solution    'Known structure'
_diffrn_ambient_temperature      100(2)
_diffrn_measured_fraction_theta_full 0.173
_diffrn_measured_fraction_theta_max 0.173
_diffrn_measurement_device_type  'ADSC Quantum 315r'
_diffrn_measurement_method       'Phi Scan'
_diffrn_radiation_monochromator  'Silicon Double Crystal'
_diffrn_radiation_type           Synchrotron
_diffrn_radiation_wavelength     0.7108
_diffrn_reflns_av_R_equivalents  0.0149
_diffrn_reflns_av_unetI/netI     0.0209
_diffrn_reflns_Laue_measured_fraction_full 0.173
_diffrn_reflns_Laue_measured_fraction_max 0.173
_diffrn_reflns_limit_h_max       9
_diffrn_reflns_limit_h_min       -14
_diffrn_reflns_limit_k_max       5
_diffrn_reflns_limit_k_min       -5
_diffrn_reflns_limit_l_max       12
_diffrn_reflns_limit_l_min       -1
_diffrn_reflns_number            297
_diffrn_reflns_point_group_measured_fraction_full 0.173
_diffrn_reflns_point_group_measured_fraction_max 0.173
_diffrn_reflns_theta_full        26.000
_diffrn_reflns_theta_max         29.464
_diffrn_reflns_theta_min         4.827
_diffrn_source                   Synchrotron
_exptl_absorpt_coefficient_mu    2.019
_exptl_absorpt_correction_type   multi-scan
_exptl_absorpt_process_details   'XDS (Kabsch, 1993)'
_exptl_crystal_colour            blue
_exptl_crystal_colour_lustre     .
_exptl_crystal_colour_modifier   .
_exptl_crystal_colour_primary    blue
_exptl_crystal_density_diffrn    1.615
_exptl_crystal_description       needle
_exptl_crystal_F_000             270
_exptl_crystal_size_max          1
_exptl_crystal_size_mid          0.1
_exptl_crystal_size_min          0.1
_refine_diff_density_max         0.327
_refine_diff_density_min         -0.275
_refine_diff_density_rms         0.046
_refine_ls_extinction_coef       0.18(6)
_refine_ls_extinction_expression Fc^*^=kFc[1+0.001xFc^2^\l^3^/sin(2\q)]^-1/4^
_refine_ls_extinction_method     SHELXL
_refine_ls_goodness_of_fit_ref   1.075
_refine_ls_hydrogen_treatment    constr
_refine_ls_matrix_type           full
_refine_ls_number_parameters     33
_refine_ls_number_reflns         259
_refine_ls_number_restraints     0
_refine_ls_restrained_S_all      1.075
_refine_ls_R_factor_all          0.0460
_refine_ls_R_factor_gt           0.0434
_refine_ls_shift/su_max          0.000
_refine_ls_shift/su_mean         0.000
_refine_ls_structure_factor_coef Fsqd
_refine_ls_weighting_details
'w=1/[\s^2^(Fo^2^)+(0.0109P)^2^+2.2453P] where P=(Fo^2^+2Fc^2^)/3'
_refine_ls_weighting_scheme      calc
_refine_ls_wR_factor_gt          0.0928
_refine_ls_wR_factor_ref         0.0949
_reflns_Friedel_coverage         0.000
_reflns_Friedel_fraction_full    .
_reflns_Friedel_fraction_max     .
_reflns_number_gt                245
_reflns_number_total             259
_reflns_threshold_expression     'I > 2\s(I)'
_cod_data_source_file            nchem.2848-s6-j.cif
_cod_data_source_block           j
_cod_depositor_comments
;
The following automatic conversions were performed:

'_exptl_absorpt_correction_type' value 'Multi-Scan' changed to
'multi-scan' according to the built-in table from CIF Core dictionary
named 'cif_core.dic' version 2.4.5 from 2014-11-21.

Automatic conversion script
Id: cif_fix_values 6524 2018-11-02 12:15:13Z antanas 
;
_cod_original_cell_volume        538.18(19)
_cod_database_code               1551137
_shelx_space_group_comment
;
The symmetry employed for this shelxl refinement is uniquely defined
by the following loop, which should always be used as a source of
symmetry information in preference to the above space-group names.
They are only intended as comments.
;
_shelx_estimated_absorpt_t_max   0.824
_shelx_estimated_absorpt_t_min   0.237
_olex2_refinement_description
;
1. Fixed Uiso
 At 1.2 times of:
  All C(H) groups
 At 1.5 times of:
  All C(H,H,H) groups
2.a Aromatic/amide H refined with riding coordinates:
 C3(H3)
2.b Idealised Me refined as rotating group:
 C1(H1a,H1b,H1c), C5(H5a,H5b,H5c)
;
_shelx_res_file
;
TITL 4b in P2(1)/n
CELL 0.71073 10.279 4.633 11.311 90 92.428 90
ZERR 2 0.00206 0.00093 0.00226 0 0.03 0
LATT 1
SYMM 0.5-X,0.5+Y,0.5-Z
SFAC C H Cu O
UNIT 20 28 2 8

L.S. 50
PLAN  25
SIZE 0.1 0.1 1
TEMP -173(2)
LIST 1
MORE -1
BOND $H
CONF
fmap 2
acta 52
REM <olex2.extras>
REM <HklSrc "%.\\j.hkl">
REM </olex2.extras>

WGHT    0.010900    2.245300
EXTI    0.183428
FVAR       1.21817
C1    1    0.181390   -0.062054    0.447974    11.00000    0.01836
AFIX 137
H1A   2    0.118980    0.084215    0.472147    11.00000   -1.50000
H1B   2    0.193100   -0.206881    0.510671    11.00000   -1.50000
H1C   2    0.148329   -0.155746    0.375057    11.00000   -1.50000
AFIX   0
C2    1    0.309371    0.078894    0.426653    11.00000    0.01509
C3    1    0.388897   -0.029970    0.339558    11.00000    0.01844
AFIX  43
H3    2    0.358109   -0.192159    0.295251    11.00000   -1.20000
AFIX   0
C4    1    0.511430    0.084115    0.312976    11.00000    0.01649
C5    1    0.584205   -0.050447    0.214259    11.00000    0.02144
AFIX 137
H5A   2    0.651485   -0.180281    0.247622    11.00000   -1.50000
H5B   2    0.625107    0.101499    0.168356    11.00000   -1.50000
H5C   2    0.523403   -0.160167    0.162528    11.00000   -1.50000
AFIX   0
O1    4    0.337486    0.294765    0.495061    11.00000    0.01685
O2    4    0.565871    0.298302    0.365456    11.00000    0.01779
CU1   3    0.500000    0.500000    0.500000    10.50000    0.01502
HKLF 4

REM  4b in P2(1)/n
REM R1 =  0.0434 for     245 Fo > 4sig(Fo)  and  0.0460 for all     259 data
REM     33 parameters refined using      0 restraints

END

WGHT      0.0109      2.2453

REM Highest difference peak  0.327,  deepest hole -0.275,  1-sigma level  0.046
Q1    1   0.4853  0.5426  0.4661  11.00000  0.05    0.33
Q2    1   0.4478  0.6659  0.5369  11.00000  0.05    0.17
Q3    1   0.4815  0.2456  0.5202  11.00000  0.05    0.17
Q4    1   0.6034  0.2780  0.4276  11.00000  0.05    0.17
Q5    1   0.5639  0.5775  0.4233  11.00000  0.05    0.16
Q6    1   0.6924  0.2409  0.3362  11.00000  0.05    0.15
Q7    1   0.5332  0.7076  0.5160  11.00000  0.05    0.15
Q8    1   0.5977  0.4880  0.4790  11.00000  0.05    0.15
Q9    1   0.4381  0.1884  0.5586  11.00000  0.05    0.15
Q10   1   0.4141  0.3698  0.4411  11.00000  0.05    0.15
Q11   1   0.4419  0.0305  0.2862  11.00000  0.05    0.14
Q12   1   0.3882  0.2557  0.5229  11.00000  0.05    0.14
Q13   1   0.3673  0.5303  0.5466  11.00000  0.05    0.13
Q14   1   0.6482  0.0890  0.4248  11.00000  0.05    0.13
Q15   1   0.5294 -0.1428  0.3870  11.00000  0.05    0.13
Q16   1   0.5615 -0.2803  0.2149  11.00000  0.05    0.13
Q17   1   0.5753  0.0112  0.1723  11.00000  0.05    0.12
Q18   1   0.4536 -0.0034  0.3443  11.00000  0.05    0.12
Q19   1   0.3247  0.2896  0.3187  11.00000  0.05    0.12
Q20   1   0.3292  0.0071  0.3719  11.00000  0.05    0.12
Q21   1   0.0000  0.0000  0.5000  10.50000  0.05    0.12
Q22   1   0.4421  0.2948  0.3973  11.00000  0.05    0.12
Q23   1   0.2328 -0.0181  0.4031  11.00000  0.05    0.11
Q24   1   0.0826  0.3219  0.4789  11.00000  0.05    0.11
Q25   1   0.5933 -0.1131  0.3362  11.00000  0.05    0.11
;
_shelx_res_checksum              53085
_shelx_hkl_file
;
   2   0   1    0.49    0.09
  -4   0  -1   -0.14    0.15
   6   0   5   -0.23    0.34
  -6   0  -1   -0.14    0.25
   7   0   7  492.70   10.01
   7   0   6    0.53    0.64
  -7   0  -1 1834.00   36.96
   8   0  10  295.90    6.23
   8   0   9   -0.20    1.12
   8   0   8  232.60    4.88
   9   0  11   47.31    1.99
  -9   0   0    0.14    0.47
 -10   0   0 1214.00   24.50
 -12   0   1    0.26    0.85
 -13   0   2    1.07    1.15
 -14   0   3    1.92    1.41
 -14  -1   2    3.68    1.51
 -13  -1   2  414.90    8.53
 -13  -1   1    6.61    1.08
 -12  -1   1  528.10   10.77
 -11  -1   1   15.59    1.01
 -10  -1   0   71.53    1.71
  -9  -1   0  128.20    2.75
  -8  -1  -1  992.70   19.96
   8   1   8   46.34    1.50
   8   1   9  198.80    4.27
   8   1  10    7.98    1.33
   8   1  11  227.80    4.92
   8   1  12   36.45    1.85
  -7  -1  -1    3.81    0.43
   7   1   7   69.76    1.78
  -6  -1  -1  500.60   10.09
   6   1   5 1318.00   26.49
   6   1   6    3.69    0.60
  -5  -1  -1  413.20    8.34
   5   1   4 1713.00   34.39
  -3  -1  -1   70.70    1.48
   0  -1   0    0.66    0.16
  -1   1   0  468.60    9.42
   6  -1   5 1383.00   28.65
   8  -1   9  216.70    4.56
  -9   1   0  144.30    3.04
 -11   1   1   17.76    0.64
 -13   1   2  439.40    9.09
 -13  -2   3  446.20    9.16
 -13  -2   2    0.48    1.34
 -12  -2   2  121.60    2.82
 -12  -2   1   16.70    1.24
 -11  -2   1  413.00    8.46
 -10  -2   1  107.80    2.46
 -10  -2   0 1653.00   33.25
  -9  -2   0  118.50    2.60
  -8  -2   0 1430.00   28.75
   8   2  10  255.40    5.41
   8   2  11    0.69    1.44
  -7  -2   0   23.94    0.82
  -7  -2  -1 1027.00   20.68
   7   2   8   24.02    1.18
   7   2   9  458.10    9.35
   7   2  10   10.22    1.22
   7   2  11   67.22    2.08
   7   2  12   41.81    1.78
  -6  -2   0 1152.00   23.15
  -6  -2  -1  854.50   17.19
   6   2   6  562.10   11.40
   6   2   7    1.59    0.88
   6   2   8  395.30    8.09
  -5  -2   0  379.60    7.69
  -5  -2  -1 1377.00   27.65
   5   2   5 1447.00   29.08
   5   2   6  143.90    3.11
  -4  -2   0 1926.00   38.63
  -4  -2  -1  152.90    3.15
   4   2   4 2653.00   53.20
   4   2   5   -0.82    0.45
  -3  -2   0  103.00    2.16
   3   2   3 2573.00   51.58
   2   2   2  224.60    4.57
   2   2   3  143.00    2.95
  -1  -2   0   34.29    0.81
   1   2   2  111.70    2.32
   0   2   1  168.00    3.43
   1  -2   1  418.00    8.43
   3  -2   2   91.92    1.91
  -3   2   0  101.40    2.09
   4  -2   3   16.37    0.45
  -5   2   0  380.00    7.70
  -6   2   0 1209.00   24.63
 -12  -3   3   67.16    1.88
 -12  -3   2   61.43    1.77
 -11  -3   3    9.21    0.98
 -11  -3   2  190.10    4.10
 -11  -3   1   -0.07    1.06
 -10  -3   2    8.32    0.94
  -9  -3   2  719.80   14.55
  -9  -3   1   55.75    1.48
  -9  -3   0  717.10   14.49
  -8  -3   1  868.30   17.50
  -8  -3   0  116.60    2.53
  -7  -3   1  222.50    4.62
  -7  -3   0 1055.00   21.24
   7   3  10  171.30    3.78
   7   3  11    5.17    1.42
  -6  -3   1 1129.00   22.71
  -6  -3   0  185.20    3.87
   6   3   8   -0.28    1.05
   6   3   9   77.67    2.04
   6   3  10  179.90    3.90
   6   3  11  165.10    3.68
  -5  -3   1  123.40    2.64
  -5  -3   0 1908.00   38.30
   5   3   6 1098.00   22.10
   5   3   7  322.60    6.64
   5   3   8  178.70    3.83
   5   3   9   32.48    1.32
   5   3  10   95.92    2.30
  -4  -3   1 2597.00   52.08
  -4  -3   0    0.25    0.54
   4   3   5 1403.00   28.21
   4   3   6  154.60    3.34
   4   3   7 1465.00   29.46
  -3  -3   1    8.61    0.62
  -3  -3   0 1982.00   39.77
   3   3   4 1166.00   23.46
   3   3   5  456.80    9.29
   3   3   6 2241.00   44.98
  -2  -3   1 1907.00   38.27
  -2  -3   0   83.17    1.82
   2   3   3 2180.00   43.73
   2   3   4  328.70    6.71
   2   3   5 1319.00   26.51
  -1  -3   1   14.81    0.61
   1   3   3   62.30    1.44
   1   3   4 1844.00   37.01
   0  -3   2    9.04    0.51
   0  -3   1  197.20    4.06
   0   3   2    7.86    0.47
   0   3   3 1429.00   28.71
   1  -3   2 1987.00   39.87
  -1   3   2 1378.00   27.67
   2  -3   3 2183.00   43.84
   2  -3   2   41.60    1.01
  -2   3   2   15.87    0.59
   3  -3   3  230.00    4.70
  -3   3   1    7.11    0.44
  -3   3   2 2196.00   44.06
   4  -3   4   14.32    0.57
  -4   3   1 2623.00   52.66
   5  -3   6 1069.00   21.63
  -5   3   1  120.00    2.51
   6  -3   7  627.10   12.84
  -6   3   1 1139.00   22.96
   7  -3  10  161.80    3.56
  -8   3   2   16.14    0.74
  -9   3   2  760.90   15.45
 -11   3   3    8.09    0.85
 -11  -4   2   24.63    1.37
 -10  -4   4  171.70    3.70
 -10  -4   3   48.32    1.46
 -10  -4   2  306.00    6.31
  -9  -4   3  331.80    6.83
  -9  -4   2  190.20    4.02
  -8  -4   3  107.70    2.43
  -8  -4   2  494.10   10.05
  -8  -4   1  113.50    2.52
  -7  -4   3  523.80   10.63
  -7  -4   2  189.80    3.99
  -7  -4   1  441.90    9.00
  -6  -4   2  651.70   13.18
  -6  -4   1   10.56    0.85
  -5  -4   2  214.10    4.46
  -5  -4   1  364.90    7.45
   5   4   9  568.90   11.53
   5   4  10  185.30    4.00
  -4  -4   2  925.20   18.64
  -4  -4   1 1167.00   23.47
   4   4   7   61.33    1.64
   4   4   8  518.20   10.54
   4   4   9   10.60    1.06
   4   4  10  352.20    7.23
   4   4  11    7.24    1.22
  -3  -4   2    4.46    0.60
  -3  -4   1  661.00   13.34
   3   4   6  139.30    3.04
   3   4   7  188.00    4.01
   3   4   8   -0.67    0.92
   3   4   9  355.40    7.28
   3   4  10   50.61    1.56
   3   4  11  258.40    5.40
  -2  -4   3  425.40    8.65
  -2  -4   2  964.00   19.41
   2   4   5   27.91    1.09
   2   4   6  326.30    6.71
   2   4   7    4.30    0.98
   2   4   8  359.30    7.39
  -1  -4   3  720.30   14.54
  -1  -4   2   99.26    2.17
   1   4   4   79.46    1.89
   1   4   5  793.60   16.02
   1   4   6   34.95    1.25
   1   4   7  850.20   17.16
   0  -4   3   90.87    2.02
   0  -4   2  925.50   18.64
   0   4   4  796.10   16.08
   0   4   5   52.69    1.43
   0   4   6 1087.00   21.90
   1  -4   4   74.80    1.75
   1  -4   3  878.10   17.70
  -1   4   3  706.70   14.28
  -1   4   4  210.40    4.41
  -1   4   5  445.80    9.08
   2  -4   5   27.78    0.93
   2  -4   4  987.60   19.95
  -2   4   3  417.80    8.51
  -2   4   4  317.90    6.52
   3  -4   6  125.80    2.73
   3  -4   5  308.20    6.33
  -3   4   3  809.20   16.33
  -3   4   4 1006.00   20.28
   4  -4   6  135.10    2.92
  -4   4   3   27.07    1.10
  -4   4   4  590.90   11.98
   5  -4   9  552.10   11.25
   5  -4   8    3.21    1.08
   5  -4   7  373.20    7.66
  -5   4   3  922.80   18.64
  -5   4   4   19.61    0.95
   6  -4  10  197.60    4.49
  -6   4   3  142.20    3.11
  -6   4   4  780.40   15.78
  -7   4   3  604.10   12.28
  -7   4   4    2.96    0.97
  -8   4   3  113.70    2.61
  -8   4   4  403.30    8.28
  -9   4   4    6.46    1.19
 -10   4   4  188.50    4.26
 -10   4   5   33.26    1.61
  -8  -5   4   18.87    1.09
  -8  -5   3  240.40    5.02
  -7  -5   5    1.52    1.06
  -7  -5   4  880.00   17.75
  -7  -5   3   -1.03    1.02
  -6  -5   5  766.30   15.50
  -6  -5   4    1.11    0.90
  -6  -5   3  582.10   11.80
  -5  -5   5   21.88    1.06
  -5  -5   4  385.10    7.88
  -5  -5   3    2.45    0.94
  -4  -5   5  551.00   11.19
  -4  -5   4   28.22    1.14
  -4  -5   3   26.06    1.00
  -3  -5   5   21.90    0.99
  -3  -5   4  214.00    4.48
  -3  -5   3  191.60    4.04
   3   5   9    1.30    1.16
  -2  -5   5  789.10   15.92
  -2  -5   4  101.50    2.31
  -2  -5   3   91.22    2.08
   2   5   8   19.17    1.24
   2   5   9  337.20    6.96
  -1  -5   6  846.30   17.08
  -1  -5   5   25.79    1.03
  -1  -5   4  762.20   15.40
   1   5   7    2.09    1.06
   1   5   8  444.00    9.06
   1   5   9    2.06    1.25
   0  -5   6    9.21    0.95
   0  -5   5  552.30   11.20
   0  -5   4   22.96    1.09
   0   5   6    6.90    1.06
   0   5   7  409.10    8.36
   0   5   8  113.70    2.61
   0   5   9  310.40    6.45
   1  -5   7    2.12    0.94
   1  -5   6  303.20    6.25
   1  -5   5    4.52    0.87
  -1   5   6  817.80   16.52
  -1   5   7   -1.21    0.99
  -1   5   8  310.70    6.44
  -1   5   9   30.44    1.36
   2  -5   8   19.08    1.22
   2  -5   7  427.00    8.73
   2  -5   6   12.01    0.93
  -2   5   5  789.00   15.94
  -2   5   6  113.10    2.60
  -2   5   7  375.10    7.69
  -2   5   8    1.74    1.10
  -2   5   9  103.00    2.54
   3  -5   9    3.62    1.24
   3  -5   8  195.80    4.21
   3  -5   7    5.24    1.08
  -3   5   5   18.15    1.13
  -3   5   6  541.60   11.03
  -3   5   7    3.73    1.08
  -3   5   8   48.24    1.67
  -4   5   5  540.50   10.99
  -4   5   6    3.89    1.08
  -4   5   7  189.30    4.04
  -4   5   8   -1.61    1.07
  -5   5   5   21.96    1.21
  -5   5   6  447.70    9.15
  -5   5   7   15.78    1.18
  -5   5   8   38.42    1.40
  -6   5   5  774.60   15.68
  -6   5   6   17.65    1.25
  -6   5   7  140.50    3.16
  -7   5   5    1.97    1.25
  -7   5   6  491.50   10.05
   0   0   0    0.00    0.00
;
_shelx_hkl_checksum              47947
_olex2_submission_special_instructions 'No special instructions were received'
loop_
_space_group_symop_operation_xyz
'x, y, z'
'-x+1/2, y+1/2, -z+1/2'
'-x, -y, -z'
'x-1/2, -y-1/2, z-1/2'
loop_
_atom_site_label
_atom_site_type_symbol
_atom_site_fract_x
_atom_site_fract_y
_atom_site_fract_z
_atom_site_U_iso_or_equiv
_atom_site_adp_type
_atom_site_occupancy
_atom_site_site_symmetry_order
_atom_site_calc_flag
_atom_site_refinement_flags_posn
_atom_site_refinement_flags_adp
_atom_site_refinement_flags_occupancy
_atom_site_disorder_assembly
_atom_site_disorder_group
C1 C 0.1814(7) -0.0621(12) 0.4480(9) 0.0184(13) Uiso 1 1 d . . . . .
H1A H 0.1190 0.0842 0.4721 0.028 Uiso 1 1 calc GR . . . .
H1B H 0.1931 -0.2069 0.5107 0.028 Uiso 1 1 calc GR . . . .
H1C H 0.1483 -0.1557 0.3751 0.028 Uiso 1 1 calc GR . . . .
C2 C 0.3094(7) 0.0789(11) 0.4267(8) 0.0151(13) Uiso 1 1 d . . . . .
C3 C 0.3889(8) -0.0300(12) 0.3396(9) 0.0184(13) Uiso 1 1 d . . . . .
H3 H 0.3581 -0.1922 0.2953 0.022 Uiso 1 1 calc R . . . .
C4 C 0.5114(7) 0.0841(12) 0.3130(8) 0.0165(13) Uiso 1 1 d . . . . .
C5 C 0.5842(8) -0.0504(13) 0.2143(10) 0.0214(14) Uiso 1 1 d . . . . .
H5A H 0.6515 -0.1803 0.2476 0.032 Uiso 1 1 calc GR . . . .
H5B H 0.6251 0.1015 0.1684 0.032 Uiso 1 1 calc GR . . . .
H5C H 0.5234 -0.1602 0.1625 0.032 Uiso 1 1 calc GR . . . .
O1 O 0.3375(5) 0.2948(8) 0.4951(6) 0.0168(10) Uiso 1 1 d . . . . .
O2 O 0.5659(5) 0.2983(8) 0.3655(6) 0.0178(10) Uiso 1 1 d . . . . .
Cu1 Cu 0.5000 0.5000 0.5000 0.0150(6) Uiso 1 2 d S T P . .
loop_
_atom_type_symbol
_atom_type_description
_atom_type_scat_dispersion_real
_atom_type_scat_dispersion_imag
_atom_type_scat_source
C C 0.0033 0.0016 'International Tables Vol C Tables 4.2.6.8 and 6.1.1.4'
H H 0.0000 0.0000 'International Tables Vol C Tables 4.2.6.8 and 6.1.1.4'
Cu Cu 0.3201 1.2651 'International Tables Vol C Tables 4.2.6.8 and 6.1.1.4'
O O 0.0106 0.0060 'International Tables Vol C Tables 4.2.6.8 and 6.1.1.4'
loop_
_geom_angle_atom_site_label_1
_geom_angle_atom_site_label_2
_geom_angle_atom_site_label_3
_geom_angle
_geom_angle_site_symmetry_1
_geom_angle_site_symmetry_3
H1A C1 H1B 109.5 . .
H1A C1 H1C 109.5 . .
H1B C1 H1C 109.5 . .
C2 C1 H1A 109.5 . .
C2 C1 H1B 109.5 . .
C2 C1 H1C 109.5 . .
C3 C2 C1 119.9(6) . .
O1 C2 C1 114.7(8) . .
O1 C2 C3 125.4(7) . .
C2 C3 H3 117.7 . .
C2 C3 C4 124.6(6) . .
C4 C3 H3 117.7 . .
C3 C4 C5 118.6(6) . .
O2 C4 C3 124.9(9) . .
O2 C4 C5 116.5(8) . .
C4 C5 H5A 109.5 . .
C4 C5 H5B 109.5 . .
C4 C5 H5C 109.5 . .
H5A C5 H5B 109.5 . .
H5A C5 H5C 109.5 . .
H5B C5 H5C 109.5 . .
C2 O1 Cu1 125.0(6) . .
C4 O2 Cu1 125.6(7) . .
O1 Cu1 O1 180.0 3_666 .
O1 Cu1 O2 85.9(3) 3_666 .
O1 Cu1 O2 94.1(3) 3_666 3_666
O1 Cu1 O2 94.1(3) . .
O1 Cu1 O2 85.9(3) . 3_666
O2 Cu1 O2 180.0 3_666 .
loop_
_geom_bond_atom_site_label_1
_geom_bond_atom_site_label_2
_geom_bond_distance
_geom_bond_site_symmetry_2
C1 H1A 0.9800 .
C1 H1B 0.9800 .
C1 H1C 0.9800 .
C1 C2 1.497(11) .
C2 C3 1.400(13) .
C2 O1 1.290(8) .
C3 H3 0.9500 .
C3 C4 1.410(11) .
C4 C5 1.505(14) .
C4 O2 1.274(8) .
C5 H5A 0.9800 .
C5 H5B 0.9800 .
C5 H5C 0.9800 .
O1 Cu1 1.921(5) .
O2 Cu1 1.933(7) .
Cu1 O1 1.921(5) 3_666
Cu1 O2 1.933(7) 3_666
loop_
_geom_torsion_atom_site_label_1
_geom_torsion_atom_site_label_2
_geom_torsion_atom_site_label_3
_geom_torsion_atom_site_label_4
_geom_torsion
_geom_torsion_site_symmetry_1
_geom_torsion_site_symmetry_2
_geom_torsion_site_symmetry_3
_geom_torsion_site_symmetry_4
C1 C2 C3 C4 -179.4(7) . . . .
C1 C2 O1 Cu1 174.3(5) . . . .
C2 C3 C4 C5 -178.2(8) . . . .
C2 C3 C4 O2 0.8(14) . . . .
C3 C2 O1 Cu1 -4.3(11) . . . .
C3 C4 O2 Cu1 4.5(11) . . . .
C5 C4 O2 Cu1 -176.6(5) . . . .
O1 C2 C3 C4 -0.8(15) . . . .
