#------------------------------------------------------------------------------
#$Date: 2019-05-24 12:01:46 +0300 (Fri, 24 May 2019) $
#$Revision: 215498 $
#$URL: file:///home/coder/svn-repositories/cod/cif/1/55/11/1551140.cif $
#------------------------------------------------------------------------------
#
# This file is available in the Crystallography Open Database (COD),
# http://www.crystallography.net/
#
# All data on this site have been placed in the public domain by the
# contributors.
#
data_1551140
loop_
_publ_author_name
'Anna Worthy'
'Arnaud Grosjean'
'Michael C. Pfrunder'
'Yanan Xu'
'Cheng Yan'
'Grant Edwards'
'Jack K. Clegg'
'John C. McMurtrie'
_publ_section_title
;
 Atomic resolution of structural changes in elastic crystals of copper(II)
 acetylacetonate
;
_journal_name_full               'Nature Chemistry'
_journal_page_first              65
_journal_page_last               69
_journal_paper_doi               10.1038/nchem.2848
_journal_volume                  10
_journal_year                    2018
_chemical_formula_moiety         'C10 H14 Cu O4'
_chemical_formula_sum            'C10 H14 Cu O4'
_chemical_formula_weight         261.75
_space_group_crystal_system      monoclinic
_space_group_IT_number           14
_space_group_name_Hall           '-P 2yn'
_space_group_name_H-M_alt        'P 1 21/n 1'
_symmetry_space_group_name_Hall  '-P 2yn'
_symmetry_space_group_name_H-M   'P 1 21/n 1'
_atom_sites_solution_hydrogens   geom
_cell_angle_alpha                90
_cell_angle_beta                 92.14(3)
_cell_angle_gamma                90
_cell_formula_units_Z            2
_cell_length_a                   10.293(2)
_cell_length_b                   4.6030(9)
_cell_length_c                   11.372(2)
_cell_measurement_reflns_used    316
_cell_measurement_temperature    100(2)
_cell_measurement_theta_max      29.463
_cell_measurement_theta_min      4.852
_cell_volume                     538.41(18)
_computing_cell_refinement       'XDS (Kabsch, 1993)'
_computing_data_collection       'BluIce (McPhillips, 2002)'
_computing_data_reduction        'XDS (Kabsch, 1993)'
_computing_molecular_graphics    'Olex2 (Dolomanov et al., 2009)'
_computing_publication_material  'Olex2 (Dolomanov et al., 2009)'
_computing_structure_refinement  'ShelXL (Sheldrick, 2015)'
_computing_structure_solution    'Known structure'
_diffrn_ambient_temperature      100(2)
_diffrn_measured_fraction_theta_full 0.180
_diffrn_measured_fraction_theta_max 0.181
_diffrn_measurement_device_type  'ADSC Quantum 315r'
_diffrn_measurement_method       'Phi Scan'
_diffrn_radiation_monochromator  'Silicon Double Crystal'
_diffrn_radiation_type           Synchrotron
_diffrn_radiation_wavelength     0.7108
_diffrn_reflns_av_R_equivalents  0.0228
_diffrn_reflns_av_unetI/netI     0.0230
_diffrn_reflns_Laue_measured_fraction_full 0.180
_diffrn_reflns_Laue_measured_fraction_max 0.181
_diffrn_reflns_limit_h_max       9
_diffrn_reflns_limit_h_min       -14
_diffrn_reflns_limit_k_max       5
_diffrn_reflns_limit_k_min       -5
_diffrn_reflns_limit_l_max       12
_diffrn_reflns_limit_l_min       -1
_diffrn_reflns_number            316
_diffrn_reflns_point_group_measured_fraction_full 0.180
_diffrn_reflns_point_group_measured_fraction_max 0.181
_diffrn_reflns_theta_full        26.000
_diffrn_reflns_theta_max         29.463
_diffrn_reflns_theta_min         4.852
_diffrn_source                   Synchrotron
_exptl_absorpt_coefficient_mu    2.018
_exptl_absorpt_correction_type   multi-scan
_exptl_absorpt_process_details   'XDS (Kabsch, 1993)'
_exptl_crystal_colour            'dark blue'
_exptl_crystal_colour_lustre     .
_exptl_crystal_colour_modifier   dark
_exptl_crystal_colour_primary    blue
_exptl_crystal_density_diffrn    1.615
_exptl_crystal_description       needle
_exptl_crystal_F_000             270
_exptl_crystal_size_max          1
_exptl_crystal_size_mid          0.1
_exptl_crystal_size_min          0.1
_refine_diff_density_max         0.371
_refine_diff_density_min         -0.454
_refine_diff_density_rms         0.058
_refine_ls_extinction_coef       .
_refine_ls_extinction_method     none
_refine_ls_goodness_of_fit_ref   1.126
_refine_ls_hydrogen_treatment    constr
_refine_ls_matrix_type           full
_refine_ls_number_parameters     32
_refine_ls_number_reflns         272
_refine_ls_number_restraints     0
_refine_ls_restrained_S_all      1.126
_refine_ls_R_factor_all          0.0528
_refine_ls_R_factor_gt           0.0493
_refine_ls_shift/su_max          0.000
_refine_ls_shift/su_mean         0.000
_refine_ls_structure_factor_coef Fsqd
_refine_ls_weighting_details
'w=1/[\s^2^(Fo^2^)+(0.0562P)^2^+2.1221P] where P=(Fo^2^+2Fc^2^)/3'
_refine_ls_weighting_scheme      calc
_refine_ls_wR_factor_gt          0.1220
_refine_ls_wR_factor_ref         0.1251
_reflns_Friedel_coverage         0.000
_reflns_Friedel_fraction_full    .
_reflns_Friedel_fraction_max     .
_reflns_number_gt                248
_reflns_number_total             272
_reflns_threshold_expression     'I > 2\s(I)'
_cod_data_source_file            nchem.2848-s6-p.cif
_cod_data_source_block           p
_cod_depositor_comments
;
The following automatic conversions were performed:

'_exptl_absorpt_correction_type' value 'Multi-Scan' changed to
'multi-scan' according to the built-in table from CIF Core dictionary
named 'cif_core.dic' version 2.4.5 from 2014-11-21.

Automatic conversion script
Id: cif_fix_values 6524 2018-11-02 12:15:13Z antanas 
;
_cod_original_cell_volume        538.42(19)
_cod_database_code               1551140
_shelx_space_group_comment
;
The symmetry employed for this shelxl refinement is uniquely defined
by the following loop, which should always be used as a source of
symmetry information in preference to the above space-group names.
They are only intended as comments.
;
_shelx_estimated_absorpt_t_max   0.824
_shelx_estimated_absorpt_t_min   0.237
_olex2_refinement_description
;
1. Fixed Uiso
 At 1.2 times of:
  All C(H) groups
 At 1.5 times of:
  All C(H,H,H) groups
2.a Aromatic/amide H refined with riding coordinates:
 C3(H3)
2.b Idealised Me refined as rotating group:
 C1(H1a,H1b,H1c), C5(H5a,H5b,H5c)
;
_shelx_res_file
;
TITL 11b in P2(1)/n
CELL 0.71073 10.293 4.603 11.372 90 92.136 90
ZERR 2 0.00206 0.00092 0.00227 0 0.03 0
LATT 1
SYMM 0.5-X,0.5+Y,0.5-Z
SFAC C H Cu O
UNIT 20 28 2 8

L.S. 50
PLAN  25
SIZE 0.1 0.1 1
TEMP -173(2)
LIST 1
MORE -1
BOND $H
CONF
fmap 2
acta 52
REM <olex2.extras>
REM <HklSrc "%.\\p.hkl">
REM </olex2.extras>

WGHT    0.056200    2.122100
FVAR       0.67787
C1    1    0.181495   -0.063787    0.447413    11.00000    0.01643
AFIX 137
H1A   2    0.118198    0.084234    0.468921    11.00000   -1.50000
H1B   2    0.192038   -0.205396    0.511409    11.00000   -1.50000
H1C   2    0.150451   -0.163050    0.375488    11.00000   -1.50000
AFIX   0
C2    1    0.308668    0.077124    0.426806    11.00000    0.01353
C3    1    0.387634   -0.031778    0.340811    11.00000    0.01638
AFIX  43
H3    2    0.356883   -0.196154    0.297603    11.00000   -1.20000
AFIX   0
C4    1    0.511465    0.083349    0.311995    11.00000    0.01490
C5    1    0.584306   -0.054124    0.215271    11.00000    0.02015
AFIX 137
H5A   2    0.655241   -0.172987    0.249211    11.00000   -1.50000
H5B   2    0.620269    0.097664    0.165557    11.00000   -1.50000
H5C   2    0.525168   -0.177189    0.167625    11.00000   -1.50000
AFIX   0
O1    4    0.337992    0.293344    0.495464    11.00000    0.01500
O2    4    0.566334    0.296781    0.366574    11.00000    0.01557
CU1   3    0.500000    0.500000    0.500000    10.50000    0.01288
HKLF 4

REM  11b in P2(1)/n
REM R1 =  0.0493 for     248 Fo > 4sig(Fo)  and  0.0528 for all     272 data
REM     32 parameters refined using      0 restraints

END

WGHT      0.0562      2.1233

REM Highest difference peak  0.371,  deepest hole -0.454,  1-sigma level  0.058
Q1    1   0.4833  0.5285  0.4595  11.00000  0.05    0.37
Q2    1   0.4421  0.6627  0.5408  11.00000  0.05    0.30
Q3    1   0.5930  0.2877  0.4218  11.00000  0.05    0.28
Q4    1   0.6088  0.4933  0.4846  11.00000  0.05    0.21
Q5    1   0.3665  0.5285  0.5456  11.00000  0.05    0.21
Q6    1   0.6166  0.2183  0.3732  11.00000  0.05    0.20
Q7    1   0.4879  0.2475  0.5145  11.00000  0.05    0.20
Q8    1   0.6894  0.2569  0.3462  11.00000  0.05    0.19
Q9    1   0.6044  0.4654  0.2834  11.00000  0.05    0.19
Q10   1   0.6183 -0.1108  0.3221  11.00000  0.05    0.19
Q11   1   0.4491 -0.2549  0.3611  11.00000  0.05    0.17
Q12   1   0.4424  0.0297  0.2805  11.00000  0.05    0.17
Q13   1   0.6574 -0.0031  0.2274  11.00000  0.05    0.17
Q14   1   0.5410 -0.1440  0.3821  11.00000  0.05    0.16
Q15   1   0.4814  0.5079  0.3684  11.00000  0.05    0.15
Q16   1   0.3261  0.2878  0.3236  11.00000  0.05    0.15
Q17   1   0.5797 -0.0140  0.1668  11.00000  0.05    0.15
Q18   1   0.5172  0.4084  0.3943  11.00000  0.05    0.15
Q19   1   0.3778  0.1090  0.3427  11.00000  0.05    0.15
Q20   1   0.4257 -0.1010  0.4476  11.00000  0.05    0.14
Q21   1   0.4934 -0.2858  0.3177  11.00000  0.05    0.14
Q22   1   0.4024  0.3865  0.3447  11.00000  0.05    0.14
Q23   1   0.5645 -0.0436  0.1068  11.00000  0.05    0.14
Q24   1   0.7164  0.1441  0.2722  11.00000  0.05    0.14
Q25   1   0.1801 -0.1690  0.2749  11.00000  0.05    0.14
;
_shelx_res_checksum              1304
_shelx_hkl_file
;
   2   0   1    0.23    0.06
  -4   0  -1   -0.18    0.10
   6   0   5   -0.03    0.23
  -6   0  -1   -0.03    0.16
   7   0   7  178.80    3.71
   7   0   6    0.31    0.39
  -7   0  -1  685.80   13.83
   8   0  10  106.40    2.43
   8   0   9   -1.16    0.74
   8   0   8   75.51    1.72
   9   0  11   18.14    1.21
  -9   0   0    0.03    0.32
 -10   0   0  423.50    8.59
 -12   0   1    0.10    0.61
 -13   0   2    1.41    0.78
 -14   0   3    0.93    0.89
 -13   1   2  160.70    3.40
 -11   1   1    6.65    0.39
  -9   1   0   51.91    1.13
   8  -1   9   73.27    1.66
   6  -1   5  481.00    9.97
  -1   1   0  149.10    3.01
   0  -1   0   -0.07    0.10
  -3  -1  -1   29.82    0.66
   4   1   3 1063.00   21.34
   5   1   4  574.80   11.58
  -5  -1  -1  154.00    3.14
   6   1   6    2.21    0.40
   6   1   5  442.60    8.93
  -6  -1  -1  176.90    3.61
   7   1   8  175.80    3.77
   7   1   7   24.96    0.83
   7   1   6  167.70    3.50
  -7  -1  -1    0.52    0.28
   8   1  12   17.09    1.11
   8   1  11   94.54    2.20
   8   1  10    1.93    0.82
   8   1   9   70.17    1.70
   8   1   8   19.35    0.85
  -8  -1  -1  357.70    7.24
   9   1  11    6.54    0.95
  -9  -1   0   48.00    1.16
 -10  -1   0   21.39    0.72
 -11  -1   0  110.10    2.43
 -11  -1   1    4.70    0.70
 -12  -1   1  186.90    3.94
 -13  -1   1    2.05    0.74
 -13  -1   2  146.70    3.17
 -14  -1   2    2.55    1.04
  -6   2   0  381.30    7.79
  -5   2   0  123.20    2.52
  -4   2   0  647.20   13.05
   4  -2   3    5.05    0.22
  -3   2   0   33.23    0.72
   3  -2   2   31.67    0.70
  -1   2   1  640.40   12.87
   1  -2   1  137.40    2.81
   0   2   1   59.79    1.27
   1   2   2   39.40    0.87
  -1  -2   0   12.22    0.36
   2   2   3   47.68    1.05
   2   2   2   73.83    1.55
  -2  -2   0  817.60   16.43
   3   2   4  186.70    3.82
   3   2   3  883.50   17.75
  -3  -2   0   34.36    0.78
   4   2   5    0.25    0.35
   4   2   4  870.70   17.51
  -4  -2  -1   55.22    1.19
  -4  -2   0  641.30   12.90
   5   2   6   44.39    1.10
   5   2   5  461.40    9.33
  -5  -2  -1  481.70    9.72
  -5  -2   0  121.70    2.53
   6   2   8  137.40    2.93
   6   2   7    0.04    0.56
   6   2   6  166.20    3.47
  -6  -2  -1  306.10    6.21
  -6  -2   0  388.30    7.86
   7   2  12   17.37    1.04
   7   2  11   28.13    1.06
   7   2  10    2.13    0.72
   7   2   9  158.20    3.36
   7   2   8    9.27    0.72
  -7  -2  -1  401.00    8.13
  -7  -2   0    9.29    0.50
   8   2  11    0.98    0.95
   8   2  10   89.94    2.11
  -8  -2   0  483.30    9.79
  -9  -2   0   44.80    1.14
 -10  -2   0  632.40   12.81
 -10  -2   1   38.41    1.10
 -11  -2   1  152.60    3.27
 -12  -2   1    7.34    0.80
 -12  -2   2   42.14    1.24
 -13  -2   2    0.17    0.88
 -13  -2   3  153.80    3.35
 -12   3   4   65.38    1.61
 -11   3   3    3.62    0.61
  -9   3   2  256.70    5.27
  -8   3   2    6.85    0.49
  -7   3   2  273.30    5.60
   7  -3  10   51.91    1.33
  -6   3   1  375.70    7.63
   6  -3   7  209.30    4.33
  -5   3   1   38.59    0.91
   5  -3   6  340.40    6.94
  -4   3   2  103.10    2.15
  -4   3   1  879.60   17.70
   4  -3   4    5.11    0.37
  -3   3   2  798.30   16.06
  -3   3   1    2.44    0.30
   3  -3   3   78.58    1.67
   3  -3   4  333.30    6.77
  -2   3   2    5.75    0.36
   2  -3   2   17.26    0.52
   2  -3   3  677.20   13.65
  -1   3   2  459.70    9.28
   1  -3   2  641.00   12.92
   0   3   3  523.70   10.56
   0   3   2    4.22    0.32
   0  -3   1   73.72    1.60
   0  -3   2    3.38    0.36
   1   3   4  632.80   12.77
   1   3   3   21.78    0.64
  -1  -3   1    5.15    0.39
   2   3   5  459.40    9.31
   2   3   4  111.20    2.37
   2   3   3  710.60   14.32
  -2  -3   0   31.02    0.79
  -2  -3   1  635.20   12.81
   3   3   6  730.20   14.73
   3   3   5  158.70    3.31
   3   3   4  360.50    7.33
  -3  -3   0  765.40   15.43
   4   3   7  511.40   10.36
   4   3   6   50.42    1.22
   4   3   5  445.00    9.03
  -4  -3   0    0.83    0.36
  -4  -3   1  867.90   17.48
   5   3  10   38.25    1.13
   5   3   9   10.50    0.72
   5   3   8   74.77    1.72
   5   3   7  113.20    2.44
   5   3   6  328.70    6.71
  -5  -3   0  658.00   13.28
  -5  -3   1   41.98    1.05
   6   3  11   61.23    1.56
   6   3  10   60.57    1.57
   6   3   9   28.33    0.95
   6   3   8   -0.47    0.60
  -6  -3   0   66.42    1.51
  -6  -3   1  369.10    7.51
   7   3  11    1.03    0.87
   7   3  10   56.22    1.50
  -7  -3   0  391.30    7.95
  -7  -3   1   73.78    1.68
  -8  -3   0   49.48    1.21
  -8  -3   1  297.60    6.08
  -9  -3   0  266.30    5.47
  -9  -3   1   19.00    0.71
  -9  -3   2  241.00    4.98
 -10  -3   2    2.72    0.68
 -11  -3   1   -0.04    0.65
 -11  -3   2   72.44    1.74
 -11  -3   3    4.36    0.78
 -12  -3   2   22.34    0.91
 -12  -3   3   23.65    1.03
 -10   4   5   13.31    1.07
 -10   4   4   47.79    1.37
  -9   4   4    1.83    0.87
  -8   4   4  143.90    3.11
  -8   4   3   35.70    1.12
  -7   4   4    0.87    0.77
  -7   4   3  211.80    4.43
  -6   4   4  289.80    5.95
  -6   4   3   51.40    1.35
   6  -4  10   71.35    1.96
  -5   4   4    7.15    0.66
  -5   4   3  305.40    6.28
   5  -4   7  128.60    2.77
   5  -4   8    2.07    0.81
   5  -4   9  174.80    3.72
  -4   4   4  215.00    4.46
  -4   4   3    8.39    0.61
   4  -4   6   49.65    1.30
  -3   4   4  370.50    7.55
  -3   4   3  261.80    5.39
   3  -4   5  102.00    2.23
   3  -4   6   42.49    1.11
  -2   4   5   20.19    0.72
  -2   4   4  114.50    2.48
  -2   4   3  142.00    3.00
   2  -4   4  267.20    5.51
   2  -4   5    7.86    0.62
  -1   4   5  160.40    3.37
  -1   4   4   71.39    1.62
  -1   4   3  228.00    4.70
   1  -4   3  305.90    6.25
   1  -4   4   25.54    0.79
   0   4   6  366.50    7.48
   0   4   5   18.07    0.68
   0   4   4  249.70    5.13
   0  -4   2  347.70    7.08
   0  -4   3   30.30    0.86
   0  -4   4  237.00    4.87
   1   4   7  289.40    5.94
   1   4   6   11.38    0.67
   1   4   5  259.90    5.35
   1   4   4   26.40    0.81
  -1  -4   2   34.24    0.89
  -1  -4   3  233.60    4.80
   2   4   8  130.90    2.81
   2   4   7    1.84    0.66
   2   4   6  108.70    2.36
   2   4   5   11.11    0.61
  -2  -4   2  315.10    6.43
  -2  -4   3  141.10    2.98
   3   4  11   84.54    1.92
   3   4  10   15.87    0.88
   3   4   9  125.50    2.71
   3   4   8   -0.21    0.64
   3   4   7   63.00    1.53
   3   4   6   43.99    1.17
  -3  -4   1  221.20    4.56
  -3  -4   2    0.90    0.42
  -3  -4   3  272.50    5.58
   4   4  11    3.98    0.89
   4   4  10  118.50    2.56
   4   4   9    2.93    0.61
   4   4   8  165.10    3.49
   4   4   7   22.15    0.80
  -4  -4   1  432.50    8.77
  -4  -4   2  302.30    6.17
   5   4  10   67.92    1.69
   5   4   9  178.90    3.75
  -5  -4   1  140.70    2.98
  -5  -4   2   75.19    1.70
  -6  -4   1    3.78    0.57
  -6  -4   2  223.20    4.63
  -6  -4   3   48.15    1.21
  -7  -4   1  171.90    3.60
  -7  -4   2   68.51    1.58
  -7  -4   3  185.20    3.87
  -8  -4   1   43.35    1.13
  -8  -4   2  178.90    3.75
  -8  -4   3   38.87    1.07
  -9  -4   2   72.46    1.72
  -9  -4   3  118.40    2.58
 -10  -4   2  128.20    2.79
 -10  -4   3   17.43    0.84
 -10  -4   4   60.60    1.54
 -11  -4   2   10.21    0.94
  -7   5   6  179.20    3.83
  -7   5   5    2.86    0.93
  -6   5   7   57.10    1.48
  -6   5   6    3.88    0.95
  -6   5   5  259.40    5.39
  -5   5   8   18.52    1.05
  -5   5   7    6.26    0.77
  -5   5   6  163.20    3.49
  -5   5   5    5.87    0.83
  -4   5   8    0.75    0.90
  -4   5   7   76.89    1.86
  -4   5   6    0.69    0.70
  -4   5   5  183.30    3.88
  -3   5   9    0.29    0.80
  -3   5   8   16.81    0.84
  -3   5   7    1.18    0.72
  -3   5   6  186.90    3.96
  -3   5   5    6.44    0.82
   3  -5   7    0.56    0.81
   3  -5   8   63.72    1.62
   3  -5   9    0.77    0.98
  -2   5   9   43.86    1.30
  -2   5   8    1.34    0.69
  -2   5   7  141.70    3.02
  -2   5   6   36.60    1.18
  -2   5   5  257.30    5.33
   2  -5   6    4.58    0.78
   2  -5   7  145.10    3.11
   2  -5   8    4.72    0.88
   2  -5   9  133.90    2.97
  -1   5   9   10.43    0.84
  -1   5   8  105.40    2.36
  -1   5   7    0.26    0.65
  -1   5   6  276.50    5.69
   1  -5   5    1.06    0.62
   1  -5   6  104.30    2.31
   1  -5   7    0.54    0.67
   0   5   9  102.40    2.31
   0   5   8   38.51    1.11
   0   5   7  136.00    2.90
   0   5   6    2.59    0.65
   0  -5   4    7.14    0.65
   0  -5   5  184.10    3.85
   0  -5   6    3.50    0.69
   0  -5   7  151.20    3.24
   1   5   9    0.56    0.82
   1   5   8  143.30    3.05
   1   5   7   -0.22    0.62
  -1  -5   4  259.90    5.35
  -1  -5   5    8.75    0.69
  -1  -5   6  270.60    5.59
   2   5   9   99.55    2.26
   2   5   8    4.70    0.76
  -2  -5   3   33.67    0.97
  -2  -5   4   40.58    1.08
  -2  -5   5  258.40    5.32
   3   5   9   -0.48    0.72
  -3  -5   3   72.82    1.67
  -3  -5   4   74.63    1.70
  -3  -5   5    8.07    0.69
  -4  -5   3   12.00    0.72
  -4  -5   4   11.72    0.79
  -4  -5   5  182.10    3.83
  -5  -5   3    0.99    0.60
  -5  -5   4  130.80    2.83
  -5  -5   5    7.99    0.74
  -6  -5   3  203.00    4.23
  -6  -5   4    0.06    0.76
  -6  -5   5  255.50    5.29
  -7  -5   3    0.23    0.77
  -7  -5   4  304.90    6.26
  -7  -5   5    1.41    0.84
  -8  -5   3   94.59    2.14
  -8  -5   4    5.91    0.75
   0   0   0    0.00    0.00
;
_shelx_hkl_checksum              23378
_olex2_submission_special_instructions 'No special instructions were received'
loop_
_space_group_symop_operation_xyz
'x, y, z'
'-x+1/2, y+1/2, -z+1/2'
'-x, -y, -z'
'x-1/2, -y-1/2, z-1/2'
loop_
_atom_site_label
_atom_site_type_symbol
_atom_site_fract_x
_atom_site_fract_y
_atom_site_fract_z
_atom_site_U_iso_or_equiv
_atom_site_adp_type
_atom_site_occupancy
_atom_site_site_symmetry_order
_atom_site_calc_flag
_atom_site_refinement_flags_posn
_atom_site_refinement_flags_adp
_atom_site_refinement_flags_occupancy
_atom_site_disorder_assembly
_atom_site_disorder_group
C1 C 0.1815(8) -0.0638(13) 0.4474(10) 0.0164(13) Uiso 1 1 d . . . . .
H1A H 0.1182 0.0842 0.4689 0.025 Uiso 1 1 calc GR . . . .
H1B H 0.1920 -0.2054 0.5114 0.025 Uiso 1 1 calc GR . . . .
H1C H 0.1505 -0.1631 0.3755 0.025 Uiso 1 1 calc GR . . . .
C2 C 0.3087(7) 0.0771(13) 0.4268(9) 0.0135(13) Uiso 1 1 d . . . . .
C3 C 0.3876(9) -0.0318(13) 0.3408(10) 0.0164(14) Uiso 1 1 d . . . . .
H3 H 0.3569 -0.1962 0.2976 0.020 Uiso 1 1 calc R . . . .
C4 C 0.5115(8) 0.0833(13) 0.3120(9) 0.0149(13) Uiso 1 1 d . . . . .
C5 C 0.5843(9) -0.0541(15) 0.2153(11) 0.0202(14) Uiso 1 1 d . . . . .
H5A H 0.6552 -0.1730 0.2492 0.030 Uiso 1 1 calc GR . . . .
H5B H 0.6203 0.0977 0.1656 0.030 Uiso 1 1 calc GR . . . .
H5C H 0.5252 -0.1772 0.1676 0.030 Uiso 1 1 calc GR . . . .
O1 O 0.3380(6) 0.2933(9) 0.4955(7) 0.0150(10) Uiso 1 1 d . . . . .
O2 O 0.5663(6) 0.2968(9) 0.3666(7) 0.0156(11) Uiso 1 1 d . . . . .
Cu1 Cu 0.5000 0.5000 0.5000 0.0129(5) Uiso 1 2 d S T P . .
loop_
_atom_type_symbol
_atom_type_description
_atom_type_scat_dispersion_real
_atom_type_scat_dispersion_imag
_atom_type_scat_source
C C 0.0033 0.0016 'International Tables Vol C Tables 4.2.6.8 and 6.1.1.4'
H H 0.0000 0.0000 'International Tables Vol C Tables 4.2.6.8 and 6.1.1.4'
Cu Cu 0.3201 1.2651 'International Tables Vol C Tables 4.2.6.8 and 6.1.1.4'
O O 0.0106 0.0060 'International Tables Vol C Tables 4.2.6.8 and 6.1.1.4'
loop_
_geom_angle_atom_site_label_1
_geom_angle_atom_site_label_2
_geom_angle_atom_site_label_3
_geom_angle
_geom_angle_site_symmetry_1
_geom_angle_site_symmetry_3
H1A C1 H1B 109.5 . .
H1A C1 H1C 109.5 . .
H1B C1 H1C 109.5 . .
C2 C1 H1A 109.5 . .
C2 C1 H1B 109.5 . .
C2 C1 H1C 109.5 . .
C3 C2 C1 119.7(7) . .
O1 C2 C1 115.3(9) . .
O1 C2 C3 125.0(8) . .
C2 C3 H3 117.3 . .
C2 C3 C4 125.3(7) . .
C4 C3 H3 117.3 . .
C3 C4 C5 119.2(7) . .
O2 C4 C3 123.6(9) . .
O2 C4 C5 117.2(8) . .
C4 C5 H5A 109.5 . .
C4 C5 H5B 109.5 . .
C4 C5 H5C 109.5 . .
H5A C5 H5B 109.5 . .
H5A C5 H5C 109.5 . .
H5B C5 H5C 109.5 . .
C2 O1 Cu1 125.5(6) . .
C4 O2 Cu1 126.2(7) . .
O1 Cu1 O1 180.0 3_666 .
O1 Cu1 O2 85.9(3) . 3_666
O1 Cu1 O2 94.1(3) . .
O1 Cu1 O2 85.9(3) 3_666 .
O1 Cu1 O2 94.1(3) 3_666 3_666
O2 Cu1 O2 180.0 3_666 .
loop_
_geom_bond_atom_site_label_1
_geom_bond_atom_site_label_2
_geom_bond_distance
_geom_bond_site_symmetry_2
C1 H1A 0.9800 .
C1 H1B 0.9800 .
C1 H1C 0.9800 .
C1 C2 1.487(12) .
C2 C3 1.388(15) .
C2 O1 1.294(8) .
C3 H3 0.9500 .
C3 C4 1.430(12) .
C4 C5 1.495(15) .
C4 O2 1.282(9) .
C5 H5A 0.9800 .
C5 H5B 0.9800 .
C5 H5C 0.9800 .
O1 Cu1 1.919(6) .
O2 Cu1 1.929(7) .
Cu1 O1 1.919(6) 3_666
Cu1 O2 1.929(7) 3_666
loop_
_geom_torsion_atom_site_label_1
_geom_torsion_atom_site_label_2
_geom_torsion_atom_site_label_3
_geom_torsion_atom_site_label_4
_geom_torsion
_geom_torsion_site_symmetry_1
_geom_torsion_site_symmetry_2
_geom_torsion_site_symmetry_3
_geom_torsion_site_symmetry_4
C1 C2 C3 C4 179.8(7) . . . .
C1 C2 O1 Cu1 174.7(5) . . . .
C2 C3 C4 C5 -178.8(9) . . . .
C2 C3 C4 O2 2.9(15) . . . .
C3 C2 O1 Cu1 -3.4(13) . . . .
C3 C4 O2 Cu1 2.1(12) . . . .
C5 C4 O2 Cu1 -176.2(6) . . . .
O1 C2 C3 C4 -2.2(16) . . . .
