#------------------------------------------------------------------------------
#$Date: 2019-05-24 12:00:48 +0300 (Fri, 24 May 2019) $
#$Revision: 215490 $
#$URL: file:///home/coder/svn-repositories/cod/cif/1/55/11/1551132.cif $
#------------------------------------------------------------------------------
#
# This file is available in the Crystallography Open Database (COD),
# http://www.crystallography.net/
#
# All data on this site have been placed in the public domain by the
# contributors.
#
data_1551132
loop_
_publ_author_name
'Anna Worthy'
'Arnaud Grosjean'
'Michael C. Pfrunder'
'Yanan Xu'
'Cheng Yan'
'Grant Edwards'
'Jack K. Clegg'
'John C. McMurtrie'
_publ_section_title
;
 Atomic resolution of structural changes in elastic crystals of copper(II)
 acetylacetonate
;
_journal_name_full               'Nature Chemistry'
_journal_page_first              65
_journal_page_last               69
_journal_paper_doi               10.1038/nchem.2848
_journal_volume                  10
_journal_year                    2018
_chemical_formula_moiety         'C10 H14 Cu O4'
_chemical_formula_sum            'C10 H14 Cu O4'
_chemical_formula_weight         261.75
_space_group_crystal_system      monoclinic
_space_group_IT_number           14
_space_group_name_Hall           '-P 2yn'
_space_group_name_H-M_alt        'P 1 21/n 1'
_symmetry_space_group_name_Hall  '-P 2yn'
_symmetry_space_group_name_H-M   'P 1 21/n 1'
_atom_sites_solution_hydrogens   geom
_cell_angle_alpha                90
_cell_angle_beta                 92.72(3)
_cell_angle_gamma                90
_cell_formula_units_Z            2
_cell_length_a                   10.261(2)
_cell_length_b                   4.6680(9)
_cell_length_c                   11.242(2)
_cell_measurement_reflns_used    312
_cell_measurement_temperature    100(2)
_cell_measurement_theta_max      29.514
_cell_measurement_theta_min      4.798
_cell_volume                     537.87(18)
_computing_cell_refinement       'XDS (Kabsch, 1993)'
_computing_data_collection       'BluIce (McPhillips, 2002)'
_computing_data_reduction        'XDS (Kabsch, 1993)'
_computing_molecular_graphics    'Olex2 (Dolomanov et al., 2009)'
_computing_publication_material  'Olex2 (Dolomanov et al., 2009)'
_computing_structure_refinement  'ShelXL (Sheldrick, 2015)'
_computing_structure_solution    'Known structure'
_diffrn_ambient_temperature      100(2)
_diffrn_measured_fraction_theta_full 0.185
_diffrn_measured_fraction_theta_max 0.180
_diffrn_measurement_device_type  'ADSC Quantum 315r'
_diffrn_measurement_method       'Phi Scan'
_diffrn_radiation_monochromator  'Silicon Double Crystal'
_diffrn_radiation_type           Synchrotron
_diffrn_radiation_wavelength     0.7108
_diffrn_reflns_av_R_equivalents  0.0167
_diffrn_reflns_av_unetI/netI     0.0252
_diffrn_reflns_Laue_measured_fraction_full 0.185
_diffrn_reflns_Laue_measured_fraction_max 0.180
_diffrn_reflns_limit_h_max       9
_diffrn_reflns_limit_h_min       -14
_diffrn_reflns_limit_k_max       5
_diffrn_reflns_limit_k_min       -5
_diffrn_reflns_limit_l_max       12
_diffrn_reflns_limit_l_min       -1
_diffrn_reflns_number            312
_diffrn_reflns_point_group_measured_fraction_full 0.185
_diffrn_reflns_point_group_measured_fraction_max 0.180
_diffrn_reflns_theta_full        26.000
_diffrn_reflns_theta_max         29.514
_diffrn_reflns_theta_min         4.798
_diffrn_source                   Synchrotron
_exptl_absorpt_coefficient_mu    2.020
_exptl_absorpt_correction_type   multi-scan
_exptl_absorpt_process_details   'XDS (Kabsch, 1993)'
_exptl_crystal_colour            'dark blue'
_exptl_crystal_colour_lustre     .
_exptl_crystal_colour_modifier   dark
_exptl_crystal_colour_primary    blue
_exptl_crystal_density_diffrn    1.616
_exptl_crystal_description       needle
_exptl_crystal_F_000             270
_exptl_crystal_size_max          1
_exptl_crystal_size_mid          0.1
_exptl_crystal_size_min          0.1
_refine_diff_density_max         0.270
_refine_diff_density_min         -0.316
_refine_diff_density_rms         0.059
_refine_ls_extinction_coef       .
_refine_ls_extinction_method     none
_refine_ls_goodness_of_fit_ref   1.125
_refine_ls_hydrogen_treatment    constr
_refine_ls_matrix_type           full
_refine_ls_number_parameters     32
_refine_ls_number_reflns         271
_refine_ls_number_restraints     0
_refine_ls_restrained_S_all      1.125
_refine_ls_R_factor_all          0.0545
_refine_ls_R_factor_gt           0.0472
_refine_ls_shift/su_max          0.000
_refine_ls_shift/su_mean         0.000
_refine_ls_structure_factor_coef Fsqd
_refine_ls_weighting_details
'w=1/[\s^2^(Fo^2^)+(0.0279P)^2^+3.2382P] where P=(Fo^2^+2Fc^2^)/3'
_refine_ls_weighting_scheme      calc
_refine_ls_wR_factor_gt          0.1076
_refine_ls_wR_factor_ref         0.1122
_reflns_Friedel_coverage         0.000
_reflns_Friedel_fraction_full    .
_reflns_Friedel_fraction_max     .
_reflns_number_gt                238
_reflns_number_total             271
_reflns_threshold_expression     'I > 2\s(I)'
_cod_data_source_file            nchem.2848-s6-c.cif
_cod_data_source_block           c
_cod_depositor_comments
;
The following automatic conversions were performed:

'_exptl_absorpt_correction_type' value 'Multi-Scan' changed to
'multi-scan' according to the built-in table from CIF Core dictionary
named 'cif_core.dic' version 2.4.5 from 2014-11-21.

Automatic conversion script
Id: cif_fix_values 6524 2018-11-02 12:15:13Z antanas 
;
_cod_original_cell_volume        537.87(19)
_cod_database_code               1551132
_shelx_space_group_comment
;
The symmetry employed for this shelxl refinement is uniquely defined
by the following loop, which should always be used as a source of
symmetry information in preference to the above space-group names.
They are only intended as comments.
;
_shelx_estimated_absorpt_t_max   0.823
_shelx_estimated_absorpt_t_min   0.237
_olex2_refinement_description
;
1. Fixed Uiso
 At 1.2 times of:
  All C(H) groups
 At 1.5 times of:
  All C(H,H,H) groups
2.a Aromatic/amide H refined with riding coordinates:
 C3(H3)
2.b Idealised Me refined as rotating group:
 C1(H1a,H1b,H1c), C5(H5a,H5b,H5c)
;
_shelx_res_file
;
TITL 6 in P2(1)/n
CELL 0.71073 10.261 4.668 11.242 90 92.718 90
ZERR 2 0.00205 0.00093 0.00225 0 0.03 0
LATT 1
SYMM 0.5-X,0.5+Y,0.5-Z
SFAC C H Cu O
UNIT 20 28 2 8

L.S. 50
PLAN  25
SIZE 0.1 0.1 1
TEMP -173(2)
LIST 1
MORE -1
BOND $H
CONF
fmap 2
acta 52
REM <olex2.extras>
REM <HklSrc "%.\\c.hkl">
REM </olex2.extras>

WGHT    0.027900    3.238200
FVAR       1.22439
C1    1    0.179917   -0.061098    0.448242    11.00000    0.01359
AFIX 137
H1A   2    0.119537    0.082273    0.477639    11.00000   -1.50000
H1B   2    0.192609   -0.213803    0.507484    11.00000   -1.50000
H1C   2    0.143573   -0.142596    0.373485    11.00000   -1.50000
AFIX   0
C2    1    0.308985    0.078410    0.426924    11.00000    0.01190
C3    1    0.389494   -0.027935    0.339664    11.00000    0.01647
AFIX  43
H3    2    0.358805   -0.189422    0.295186    11.00000   -1.20000
AFIX   0
C4    1    0.511390    0.083785    0.312496    11.00000    0.01302
C5    1    0.583128   -0.050429    0.215256    11.00000    0.01583
AFIX 137
H5A   2    0.671526    0.028993    0.215041    11.00000   -1.50000
H5B   2    0.537185   -0.010920    0.138598    11.00000   -1.50000
H5C   2    0.588012   -0.257924    0.227964    11.00000   -1.50000
AFIX   0
O1    4    0.337739    0.295782    0.494918    11.00000    0.01282
O2    4    0.565331    0.300534    0.364116    11.00000    0.01295
CU1   3    0.500000    0.500000    0.500000    10.50000    0.01069
HKLF 4

REM  6 in P2(1)/n
REM R1 =  0.0472 for     238 Fo > 4sig(Fo)  and  0.0545 for all     271 data
REM     32 parameters refined using      0 restraints

END

WGHT      0.0279      3.2370

REM Highest difference peak  0.270,  deepest hole -0.316,  1-sigma level  0.059
Q1    1   0.5329  0.7031  0.5194  11.00000  0.05    0.27
Q2    1   0.4689  0.5570  0.4792  11.00000  0.05    0.23
Q3    1   0.2653 -0.0272  0.5929  11.00000  0.05    0.22
Q4    1   0.3287  0.1689  0.6245  11.00000  0.05    0.21
Q5    1   0.4600  0.6594  0.5223  11.00000  0.05    0.20
Q6    1   0.5678  0.5748  0.4292  11.00000  0.05    0.20
Q7    1   0.4601 -0.0030  0.3642  11.00000  0.05    0.19
Q8    1   0.1000 -0.2465  0.3151  11.00000  0.05    0.19
Q9    1   0.5036 -0.2908  0.3260  11.00000  0.05    0.19
Q10   1   0.7414 -0.0355  0.2406  11.00000  0.05    0.19
Q11   1   0.4191 -0.0849  0.4543  11.00000  0.05    0.18
Q12   1   0.7572 -0.1284  0.1398  11.00000  0.05    0.18
Q13   1   0.5635 -0.1100  0.3620  11.00000  0.05    0.17
Q14   1   0.7521 -0.1004  0.3155  11.00000  0.05    0.17
Q15   1   0.3086 -0.1344  0.5198  11.00000  0.05    0.17
Q16   1   0.1431  0.0391  0.4057  11.00000  0.05    0.17
Q17   1   0.5253  0.3303  0.3485  11.00000  0.05    0.17
Q18   1   0.3209  0.2623  0.5635  11.00000  0.05    0.16
Q19   1   0.4527  0.4925  0.2917  11.00000  0.05    0.16
Q20   1   0.1408  0.0132  0.5649  11.00000  0.05    0.16
Q21   1   0.3200  0.4741  0.3925  11.00000  0.05    0.16
Q22   1   0.3797  0.2682  0.5234  11.00000  0.05    0.15
Q23   1   0.3968 -0.2189  0.2158  11.00000  0.05    0.15
Q24   1   0.6323  0.3907  0.4308  11.00000  0.05    0.15
Q25   1   0.6410 -0.5487  0.2616  11.00000  0.05    0.15
;
_shelx_res_checksum              34934
_shelx_hkl_file
;
   2   0   1   -0.34    0.56
  -4   0  -1    0.90    0.88
  -5   0  -1 9261.00  186.60
   6   0   5    0.33    2.13
  -6   0  -1   -3.00    1.47
   7   0   7  559.80   12.72
   7   0   6    5.01    3.43
  -7   0  -1 2042.00   41.48
   8   0  10  401.70   11.93
   8   0   9    3.73    6.10
   8   0   8  325.90    9.20
   9   0  11   65.89    9.74
  -9   0   0   -5.08    2.68
 -10   0   0 1308.00   27.20
 -12   0   1   -1.38    5.17
 -13   0   2   -0.74    7.23
 -14   0   2   50.23    9.01
 -14   0   3   -5.61    8.62
 -13   1   2  520.70   12.48
 -11   1   1   20.84    3.24
  -9   1   0  168.70    4.17
   8  -1   9  258.70    7.79
   6  -1   5 1550.00   32.33
  -1   1   0  518.10   10.66
   0  -1   0    0.04    0.87
   1   1   1 1450.00   29.39
   3   1   2 4639.00   93.32
  -3  -1  -1   86.78    2.59
   4   1   3 3792.00   76.46
  -4  -1  -1 2305.00   46.63
   5   1   4 2136.00   43.41
  -5  -1  -1  489.70   10.51
   6   1   6   -1.06    3.54
   6   1   5 1582.00   32.50
  -6  -1  -1  566.90   12.09
   7   1   7   73.70    5.42
   7   1   6  631.10   14.65
  -7  -1  -1   10.00    2.38
   8   1  12   51.96    8.78
   8   1  11  326.70   11.02
   8   1  10   11.19    7.36
   8   1   9  249.10    8.66
   8   1   8   57.44    6.16
  -8  -1  -1 1024.00   21.41
  -9  -1   0  118.00    5.18
 -10  -1   0   76.78    4.76
 -11  -1   1   20.36    5.33
 -12  -1   1  640.70   15.61
 -13  -1   1    8.98    6.99
 -13  -1   2  548.00   14.55
 -14  -1   2    6.53    9.81
  -6   2   0 1431.00   29.42
  -5   2   0  519.00   10.88
  -4   2   0 2435.00   49.32
   4  -2   3   14.44    1.62
  -3   2   0  143.60    3.63
   3  -2   2  110.60    3.02
  -1   2   1 1988.00   40.32
   1  -2   1  539.10   11.45
   0   2   1  219.10    5.29
   1   2   2  147.40    4.08
  -1  -2   0   50.95    2.44
   2   2   3  198.80    5.03
   2   2   2  318.90    7.23
  -2  -2   0 2769.00   56.09
   3   2   3 3199.00   64.74
  -3  -2   0  156.00    4.24
   4   2   5   -3.13    2.86
   4   2   4 3359.00   68.07
  -4  -2  -1  176.50    4.74
  -4  -2   0 2510.00   50.94
   5   2   6  189.40    6.70
   5   2   5 1759.00   36.24
  -5  -2  -1 1460.00   30.06
  -5  -2   0  522.80   11.51
   6   2   8  487.70   12.09
   6   2   7    7.96    4.87
   6   2   6  684.90   15.62
  -6  -2  -1  885.70   18.72
  -6  -2   0 1433.00   29.59
   7   2  12   50.70    8.13
   7   2  11   98.00    8.44
   7   2  10    4.03    6.95
   7   2   9  620.60   14.87
   7   2   8   42.58    6.05
   7   2   7  885.40   19.80
  -7  -2  -1 1062.00   22.35
  -7  -2   0   32.48    3.81
   8   2  11  -12.28    8.27
   8   2  10  368.40   11.43
  -8  -2   0 1605.00   33.50
  -9  -2   0  151.20    6.16
 -10  -2   0 1929.00   40.30
 -10  -2   1  137.30    6.75
 -11  -2   1  534.90   13.48
 -12  -2   1   21.18    7.16
 -12  -2   2  169.60    8.31
 -13  -2   2    4.45    8.52
 -13  -2   3  612.20   16.05
 -11   3   3   15.74    4.99
  -9   3   2  906.70   19.36
  -8   3   2   16.83    3.85
   7  -3  10  230.20    8.01
  -6   3   1 1455.00   30.09
   6  -3   7  769.60   16.65
  -5   3   1  152.80    4.64
   5  -3   5   16.71    3.30
   5  -3   6 1410.00   29.28
  -4   3   1 3303.00   66.88
   4  -3   4   20.97    3.20
  -3   3   2 2384.00   48.48
  -3   3   1    9.39    2.58
   3  -3   3  262.20    6.53
  -2   3   2   20.61    2.84
   2  -3   2   43.44    3.14
   2  -3   3 2844.00   57.77
  -1   3   2 1778.00   36.45
   1  -3   2 2531.00   51.53
   0   3   3 1599.00   32.93
   0   3   2   11.13    2.75
   0  -3   1  229.50    6.14
   0  -3   2    9.50    2.86
   1   3   4 2055.00   42.25
   1   3   3   68.27    3.81
  -1  -3   1   23.33    3.16
   2   3   5 1431.00   29.87
   2   3   4  414.90    9.90
   2   3   3 2843.00   57.83
  -2  -3   0   89.54    4.06
  -2  -3   1 2581.00   52.66
   3   3   6 2603.00   53.29
   3   3   5  512.50   12.05
   3   3   4 1595.00   33.16
  -3  -3   0 2085.00   42.82
  -3  -3   1    5.42    3.54
   4   3   7 1730.00   36.08
   4   3   6  193.30    6.57
   4   3   5 1950.00   40.29
  -4  -3   0    2.17    3.47
  -4  -3   1 3391.00   69.07
   5   3  10  137.50    6.98
   5   3   9   40.66    5.60
   5   3   8  237.80    7.72
   5   3   7  438.90   11.11
   5   3   6 1445.00   30.42
  -5  -3   0 2190.00   45.11
  -5  -3   1  172.70    5.78
   6   3  11  268.40    9.76
   6   3  10  244.00    9.30
   6   3   9  104.20    7.47
   6   3   8    6.99    6.22
   6   3   7  881.80   19.67
  -6  -3   0  217.80    6.60
  -6  -3   1 1446.00   30.30
   7   3  11   -4.31    8.18
   7   3  10  240.20    9.62
  -7  -3   0 1268.00   26.86
  -7  -3   1  323.90    8.56
  -8  -3   0  149.00    6.04
  -8  -3   1 1093.00   23.39
  -9  -3   0  816.40   18.14
  -9  -3   1   72.97    5.61
  -9  -3   2  980.30   21.27
 -10  -3   1  344.60   10.44
 -10  -3   2   11.29    5.23
 -11  -3   1   -7.44    6.92
 -11  -3   2  250.20    9.39
 -11  -3   3    7.07    6.01
 -12  -3   2   89.68    7.74
 -12  -3   3   87.19    7.40
 -10   4   5   27.35    8.70
  -9   4   4   10.56    6.58
  -8   4   4  491.40   13.05
  -8   4   3  159.80    7.75
  -7   4   4    1.49    5.85
  -7   4   3  698.50   16.10
  -6   4   4  813.40   18.30
  -6   4   3  184.80    7.28
   6  -4  10  221.50   11.82
  -5   4   4   36.68    5.45
  -5   4   3 1092.00   23.53
   5  -4   7  450.10   11.85
   5  -4   8    7.04    7.38
   5  -4   9  818.90   18.90
  -4   4   4  665.60   15.48
  -4   4   3   34.10    5.56
   4  -4   6  172.30    6.84
   4  -4   7   84.61    6.58
  -3   4   4 1218.00   26.03
  -3   4   3 1115.00   24.03
   3  -4   5  390.60   10.33
   3  -4   6  192.10    7.11
  -2   4   4  368.30    9.77
  -2   4   3  580.80   13.67
   2  -4   5   32.56    4.53
  -1   4   5  488.70   11.92
  -1   4   4  283.60    8.20
  -1   4   3 1012.00   21.81
   1  -4   3 1076.00   22.98
   1  -4   4  101.50    5.25
   0   4   6 1250.00   26.62
   0   4   5   72.75    5.27
   0   4   4 1038.00   22.47
   0  -4   2 1060.00   22.60
   0  -4   3  116.70    4.86
   1   4   7 1016.00   22.11
   1   4   6   40.03    5.22
   1   4   5 1081.00   23.29
   1   4   4  121.40    5.66
  -1  -4   2  121.70    5.21
  -1  -4   3  981.50   21.11
   2   4   8  448.30   11.50
   2   4   7    6.26    5.36
   2   4   6  461.20   11.49
   2   4   5   38.45    4.87
  -2  -4   1    6.24    3.53
  -2  -4   2 1259.00   26.51
  -2  -4   3  563.70   12.98
   3   4  10   74.77    6.62
   3   4   9  470.90   11.96
   3   4   8    1.30    5.51
   3   4   7  261.10    8.29
   3   4   6  194.00    7.08
  -3  -4   1  796.40   17.55
  -3  -4   2   13.61    4.29
   4   4  11   30.81    7.15
   4   4  10  482.50   12.43
   4   4   9   19.41    5.95
   4   4   8  704.20   16.28
   4   4   7   82.75    6.29
  -4  -4   1 1370.00   28.74
  -4  -4   2 1247.00   26.36
   5   4  10  251.90    9.29
   5   4   9  779.20   17.83
   5   4   8   11.77    5.51
  -5  -4   1  471.00   11.48
  -5  -4   2  277.20    8.18
  -6  -4   1   16.39    5.12
  -6  -4   2  807.50   18.12
  -7  -4   1  566.20   13.54
  -7  -4   2  270.80    8.16
  -7  -4   3  717.40   16.29
  -8  -4   1  141.00    6.71
  -8  -4   2  621.90   14.54
  -8  -4   3  154.90    6.66
  -9  -4   1  499.30   12.44
  -9  -4   2  242.00    8.55
  -9  -4   3  429.10   11.66
 -10  -4   2  398.70   11.40
 -10  -4   3   67.71    6.47
 -10  -4   4  231.10    8.99
 -11  -4   2   25.22    7.55
  -7   5   6  645.10   16.32
  -7   5   5    0.31    8.23
  -6   5   7  234.30    9.69
  -6   5   6   25.08    7.82
  -6   5   5 1032.00   22.96
  -5   5   7   16.39    7.46
  -5   5   6  629.80   15.23
  -5   5   5   34.40    7.17
  -4   5   8    9.03    6.51
  -4   5   7  272.30    8.97
  -4   5   6   12.26    6.92
  -4   5   5  775.10   17.62
  -3   5   8   58.54    7.69
  -3   5   6  812.90   18.82
  -3   5   5   26.69    5.88
   3  -5   7    6.35    7.48
   3  -5   8  281.80   10.21
   3  -5   9   -1.03    8.68
  -2   5   9  146.80    7.92
  -2   5   8    4.47    6.72
  -2   5   7  493.50   12.55
  -2   5   6  165.00    7.24
  -2   5   5 1143.00   24.85
   2  -5   6   13.81    6.66
   2  -5   7  626.00   15.39
   2  -5   8   33.50    7.41
  -1   5   9   26.63    6.32
  -1   5   8  412.60   11.43
  -1   5   7    0.11    6.16
  -1   5   6 1213.00   26.28
   1  -5   5    7.20    5.91
   1  -5   6  467.20   12.18
   1  -5   7    3.91    6.11
   0   5   9  464.50   12.28
   0   5   8  183.60    7.95
   0   5   7  594.60   14.39
   0   5   6    8.23    5.97
   0  -5   5  760.20   17.29
   0  -5   6    2.42    6.23
   1   5   9   -6.82    6.56
   1   5   8  648.80   15.51
   1   5   7   14.70    6.06
  -1  -5   4  968.80   21.22
  -1  -5   5   42.79    5.72
  -1  -5   6 1297.00   28.06
   2   5   9  503.80   13.13
   2   5   8   30.64    6.16
  -2  -5   3  128.10    6.43
  -2  -5   4  111.60    6.14
  -2  -5   5 1147.00   24.75
   3   5   9    6.69    7.14
  -3  -5   3  241.70    7.86
  -3  -5   4  329.80    9.40
  -3  -5   5   23.17    6.00
  -4  -5   3   31.41    5.04
  -4  -5   4   28.78    5.26
  -4  -5   5  761.30   17.58
  -5  -5   2  214.80    7.72
  -5  -5   3    6.33    5.75
  -5  -5   4  542.00   13.59
  -5  -5   5   36.25    6.58
  -6  -5   2    9.71    5.56
  -6  -5   3  726.90   16.94
  -6  -5   4   -7.84    5.59
  -6  -5   5 1050.00   22.95
  -7  -5   3    6.71    6.26
  -7  -5   4 1147.00   24.86
  -7  -5   5    7.15    6.79
  -8  -5   3  335.90   10.00
  -8  -5   4   21.11    7.54
  -8  -5   5  466.40   12.63
   0   0   0    0.00    0.00
;
_shelx_hkl_checksum              38147
_olex2_submission_special_instructions 'No special instructions were received'
loop_
_space_group_symop_operation_xyz
'x, y, z'
'-x+1/2, y+1/2, -z+1/2'
'-x, -y, -z'
'x-1/2, -y-1/2, z-1/2'
loop_
_atom_site_label
_atom_site_type_symbol
_atom_site_fract_x
_atom_site_fract_y
_atom_site_fract_z
_atom_site_U_iso_or_equiv
_atom_site_adp_type
_atom_site_occupancy
_atom_site_site_symmetry_order
_atom_site_calc_flag
_atom_site_refinement_flags_posn
_atom_site_refinement_flags_adp
_atom_site_refinement_flags_occupancy
_atom_site_disorder_assembly
_atom_site_disorder_group
C1 C 0.1799(9) -0.0611(13) 0.4482(11) 0.0136(15) Uiso 1 1 d . . . . .
H1A H 0.1195 0.0823 0.4776 0.020 Uiso 1 1 calc GR . . . .
H1B H 0.1926 -0.2138 0.5075 0.020 Uiso 1 1 calc GR . . . .
H1C H 0.1436 -0.1426 0.3735 0.020 Uiso 1 1 calc GR . . . .
C2 C 0.3090(9) 0.0784(13) 0.4269(11) 0.0119(15) Uiso 1 1 d . . . . .
C3 C 0.3895(10) -0.0279(15) 0.3397(12) 0.0165(15) Uiso 1 1 d . . . . .
H3 H 0.3588 -0.1894 0.2952 0.020 Uiso 1 1 calc R . . . .
C4 C 0.5114(9) 0.0838(14) 0.3125(11) 0.0130(15) Uiso 1 1 d . . . . .
C5 C 0.5831(9) -0.0504(14) 0.2153(12) 0.0158(16) Uiso 1 1 d . . . . .
H5A H 0.6715 0.0290 0.2150 0.024 Uiso 1 1 calc GR . . . .
H5B H 0.5372 -0.0109 0.1386 0.024 Uiso 1 1 calc GR . . . .
H5C H 0.5880 -0.2579 0.2280 0.024 Uiso 1 1 calc GR . . . .
O1 O 0.3377(6) 0.2958(10) 0.4949(7) 0.0128(11) Uiso 1 1 d . . . . .
O2 O 0.5653(6) 0.3005(10) 0.3641(8) 0.0130(11) Uiso 1 1 d . . . . .
Cu1 Cu 0.5000 0.5000 0.5000 0.0107(4) Uiso 1 2 d S T P . .
loop_
_atom_type_symbol
_atom_type_description
_atom_type_scat_dispersion_real
_atom_type_scat_dispersion_imag
_atom_type_scat_source
C C 0.0033 0.0016 'International Tables Vol C Tables 4.2.6.8 and 6.1.1.4'
H H 0.0000 0.0000 'International Tables Vol C Tables 4.2.6.8 and 6.1.1.4'
Cu Cu 0.3201 1.2651 'International Tables Vol C Tables 4.2.6.8 and 6.1.1.4'
O O 0.0106 0.0060 'International Tables Vol C Tables 4.2.6.8 and 6.1.1.4'
loop_
_geom_angle_atom_site_label_1
_geom_angle_atom_site_label_2
_geom_angle_atom_site_label_3
_geom_angle
_geom_angle_site_symmetry_1
_geom_angle_site_symmetry_3
H1A C1 H1B 109.5 . .
H1A C1 H1C 109.5 . .
H1B C1 H1C 109.5 . .
C2 C1 H1A 109.5 . .
C2 C1 H1B 109.5 . .
C2 C1 H1C 109.5 . .
C3 C2 C1 120.7(8) . .
O1 C2 C1 115.0(10) . .
O1 C2 C3 124.4(9) . .
C2 C3 H3 117.2 . .
C4 C3 C2 125.6(8) . .
C4 C3 H3 117.2 . .
C3 C4 C5 118.8(7) . .
O2 C4 C3 124.5(11) . .
O2 C4 C5 116.7(9) . .
C4 C5 H5A 109.5 . .
C4 C5 H5B 109.5 . .
C4 C5 H5C 109.5 . .
H5A C5 H5B 109.5 . .
H5A C5 H5C 109.5 . .
H5B C5 H5C 109.5 . .
C2 O1 Cu1 125.5(7) . .
C4 O2 Cu1 125.4(8) . .
O1 Cu1 O1 180.0 . 3_666
O1 Cu1 O2 94.0(3) . .
O1 Cu1 O2 86.0(3) . 3_666
O1 Cu1 O2 86.0(3) 3_666 .
O1 Cu1 O2 94.0(3) 3_666 3_666
O2 Cu1 O2 180.0 3_666 .
loop_
_geom_bond_atom_site_label_1
_geom_bond_atom_site_label_2
_geom_bond_distance
_geom_bond_site_symmetry_2
C1 H1A 0.9800 .
C1 H1B 0.9800 .
C1 H1C 0.9800 .
C1 C2 1.505(13) .
C2 C3 1.403(17) .
C2 O1 1.296(9) .
C3 H3 0.9500 .
C3 C4 1.402(14) .
C4 C5 1.485(17) .
C4 O2 1.279(9) .
C5 H5A 0.9800 .
C5 H5B 0.9800 .
C5 H5C 0.9800 .
O1 Cu1 1.917(6) .
O2 Cu1 1.936(8) .
Cu1 O1 1.917(6) 3_666
Cu1 O2 1.936(8) 3_666
loop_
_geom_torsion_atom_site_label_1
_geom_torsion_atom_site_label_2
_geom_torsion_atom_site_label_3
_geom_torsion_atom_site_label_4
_geom_torsion
_geom_torsion_site_symmetry_1
_geom_torsion_site_symmetry_2
_geom_torsion_site_symmetry_3
_geom_torsion_site_symmetry_4
C1 C2 C3 C4 -179.8(8) . . . .
C1 C2 O1 Cu1 174.5(6) . . . .
C2 C3 C4 C5 -178.6(10) . . . .
C2 C3 C4 O2 -0.3(17) . . . .
C3 C2 O1 Cu1 -5.0(14) . . . .
C3 C4 O2 Cu1 6.1(13) . . . .
C5 C4 O2 Cu1 -175.5(6) . . . .
O1 C2 C3 C4 -0.4(18) . . . .
