#------------------------------------------------------------------------------
#$Date: 2019-05-24 12:01:02 +0300 (Fri, 24 May 2019) $
#$Revision: 215492 $
#$URL: file:///home/coder/svn-repositories/cod/cif/1/55/11/1551134.cif $
#------------------------------------------------------------------------------
#
# This file is available in the Crystallography Open Database (COD),
# http://www.crystallography.net/
#
# All data on this site have been placed in the public domain by the
# contributors.
#
data_1551134
loop_
_publ_author_name
'Anna Worthy'
'Arnaud Grosjean'
'Michael C. Pfrunder'
'Yanan Xu'
'Cheng Yan'
'Grant Edwards'
'Jack K. Clegg'
'John C. McMurtrie'
_publ_section_title
;
 Atomic resolution of structural changes in elastic crystals of copper(II)
 acetylacetonate
;
_journal_name_full               'Nature Chemistry'
_journal_page_first              65
_journal_page_last               69
_journal_paper_doi               10.1038/nchem.2848
_journal_volume                  10
_journal_year                    2018
_chemical_formula_moiety         'C10 H14 Cu O4'
_chemical_formula_sum            'C10 H14 Cu O4'
_chemical_formula_weight         261.75
_space_group_crystal_system      monoclinic
_space_group_IT_number           14
_space_group_name_Hall           '-P 2yn'
_space_group_name_H-M_alt        'P 1 21/n 1'
_symmetry_space_group_name_Hall  '-P 2yn'
_symmetry_space_group_name_H-M   'P 1 21/n 1'
_atom_sites_solution_hydrogens   geom
_cell_angle_alpha                90
_cell_angle_beta                 92.61(3)
_cell_angle_gamma                90
_cell_formula_units_Z            2
_cell_length_a                   10.268(2)
_cell_length_b                   4.6540(9)
_cell_length_c                   11.268(2)
_cell_measurement_reflns_used    297
_cell_measurement_temperature    100(2)
_cell_measurement_theta_max      29.487
_cell_measurement_theta_min      4.810
_cell_volume                     537.91(18)
_computing_cell_refinement       'XDS (Kabsch, 1993)'
_computing_data_collection       'BluIce (McPhillips, 2002)'
_computing_data_reduction        'XDS (Kabsch, 1993)'
_computing_molecular_graphics    'Olex2 (Dolomanov et al., 2009)'
_computing_publication_material  'Olex2 (Dolomanov et al., 2009)'
_computing_structure_refinement  'ShelXL (Sheldrick, 2015)'
_computing_structure_solution    'Known structure'
_diffrn_ambient_temperature      100(2)
_diffrn_measured_fraction_theta_full 0.174
_diffrn_measured_fraction_theta_max 0.172
_diffrn_measurement_device_type  'ADSC Quantum 315r'
_diffrn_measurement_method       'Phi Scan'
_diffrn_radiation_monochromator  'Silicon Double Crystal'
_diffrn_radiation_type           Synchrotron
_diffrn_radiation_wavelength     0.7108
_diffrn_reflns_av_R_equivalents  0.0165
_diffrn_reflns_av_unetI/netI     0.0215
_diffrn_reflns_Laue_measured_fraction_full 0.174
_diffrn_reflns_Laue_measured_fraction_max 0.172
_diffrn_reflns_limit_h_max       9
_diffrn_reflns_limit_h_min       -14
_diffrn_reflns_limit_k_max       5
_diffrn_reflns_limit_k_min       -5
_diffrn_reflns_limit_l_max       12
_diffrn_reflns_limit_l_min       -1
_diffrn_reflns_number            297
_diffrn_reflns_point_group_measured_fraction_full 0.174
_diffrn_reflns_point_group_measured_fraction_max 0.172
_diffrn_reflns_theta_full        26.000
_diffrn_reflns_theta_max         29.487
_diffrn_reflns_theta_min         4.810
_diffrn_source                   Synchrotron
_exptl_absorpt_coefficient_mu    2.020
_exptl_absorpt_correction_type   multi-scan
_exptl_absorpt_process_details   'XDS (Kabsch, 1993)'
_exptl_crystal_colour            'dark blue'
_exptl_crystal_colour_lustre     .
_exptl_crystal_colour_modifier   dark
_exptl_crystal_colour_primary    blue
_exptl_crystal_density_diffrn    1.616
_exptl_crystal_description       needle
_exptl_crystal_F_000             270
_exptl_crystal_size_max          1
_exptl_crystal_size_mid          0.1
_exptl_crystal_size_min          0.1
_refine_diff_density_max         0.303
_refine_diff_density_min         -0.311
_refine_diff_density_rms         0.049
_refine_ls_extinction_coef       .
_refine_ls_extinction_method     none
_refine_ls_goodness_of_fit_ref   1.200
_refine_ls_hydrogen_treatment    constr
_refine_ls_matrix_type           full
_refine_ls_number_parameters     32
_refine_ls_number_reflns         258
_refine_ls_number_restraints     0
_refine_ls_restrained_S_all      1.200
_refine_ls_R_factor_all          0.0469
_refine_ls_R_factor_gt           0.0438
_refine_ls_shift/su_max          0.000
_refine_ls_shift/su_mean         0.000
_refine_ls_structure_factor_coef Fsqd
_refine_ls_weighting_details
'w=1/[\s^2^(Fo^2^)+2.1956P] where P=(Fo^2^+2Fc^2^)/3'
_refine_ls_weighting_scheme      calc
_refine_ls_wR_factor_gt          0.0946
_refine_ls_wR_factor_ref         0.0964
_reflns_Friedel_coverage         0.000
_reflns_Friedel_fraction_full    .
_reflns_Friedel_fraction_max     .
_reflns_number_gt                241
_reflns_number_total             258
_reflns_threshold_expression     'I > 2\s(I)'
_cod_data_source_file            nchem.2848-s6-f.cif
_cod_data_source_block           f
_cod_depositor_comments
;
The following automatic conversions were performed:

'_exptl_absorpt_correction_type' value 'Multi-Scan' changed to
'multi-scan' according to the built-in table from CIF Core dictionary
named 'cif_core.dic' version 2.4.5 from 2014-11-21.

Automatic conversion script
Id: cif_fix_values 6524 2018-11-02 12:15:13Z antanas 
;
_cod_original_cell_volume        537.91(19)
_cod_database_code               1551134
_shelx_space_group_comment
;
The symmetry employed for this shelxl refinement is uniquely defined
by the following loop, which should always be used as a source of
symmetry information in preference to the above space-group names.
They are only intended as comments.
;
_shelx_estimated_absorpt_t_max   0.824
_shelx_estimated_absorpt_t_min   0.237
_olex2_refinement_description
;
1. Fixed Uiso
 At 1.2 times of:
  All C(H) groups
 At 1.5 times of:
  All C(H,H,H) groups
2.a Aromatic/amide H refined with riding coordinates:
 C3(H3)
2.b Idealised Me refined as rotating group:
 C1(H1a,H1b,H1c), C5(H5a,H5b,H5c)
;
_shelx_res_file
;
TITL 9 in P2(1)/n
CELL 0.71073 10.268 4.654 11.268 90 92.611 90
ZERR 2 0.00205 0.00093 0.00225 0 0.03 0
LATT 1
SYMM 0.5-X,0.5+Y,0.5-Z
SFAC C H Cu O
UNIT 20 28 2 8

L.S. 50
PLAN  25
SIZE 0.1 0.1 1
TEMP -173(2)
LIST 1
MORE -1
BOND $H
CONF
fmap 2
acta 52
OMIT 2 3 2
REM <olex2.extras>
REM <HklSrc "%.\\f.hkl">
REM </olex2.extras>

WGHT    0.000000    2.195600
FVAR       0.83616
C1    1    0.181384   -0.062067    0.447428    11.00000    0.01569
AFIX 137
H1A   2    0.122181    0.078361    0.480964    11.00000   -1.50000
H1B   2    0.194411   -0.223003    0.502787    11.00000   -1.50000
H1C   2    0.143520   -0.133329    0.371628    11.00000   -1.50000
AFIX   0
C2    1    0.310126    0.078519    0.427365    11.00000    0.01227
C3    1    0.389221   -0.029655    0.339690    11.00000    0.01653
AFIX  43
H3    2    0.358145   -0.191323    0.295398    11.00000   -1.20000
AFIX   0
C4    1    0.511829    0.084115    0.312326    11.00000    0.01417
C5    1    0.584429   -0.050746    0.215325    11.00000    0.02010
AFIX 137
H5A   2    0.623648   -0.231431    0.243790    11.00000   -1.50000
H5B   2    0.653180    0.080002    0.191143    11.00000   -1.50000
H5C   2    0.524227   -0.089540    0.147221    11.00000   -1.50000
AFIX   0
O1    4    0.337711    0.296238    0.494498    11.00000    0.01457
O2    4    0.565738    0.300176    0.364774    11.00000    0.01426
CU1   3    0.500000    0.500000    0.500000    10.50000    0.01235
HKLF 4

REM  9 in P2(1)/n
REM R1 =  0.0438 for     241 Fo > 4sig(Fo)  and  0.0469 for all     258 data
REM     32 parameters refined using      0 restraints

END

WGHT      0.0000      2.1955

REM Highest difference peak  0.303,  deepest hole -0.311,  1-sigma level  0.049
Q1    1   0.4820  0.5500  0.4676  11.00000  0.05    0.30
Q2    1   0.4159  0.1710  0.5785  11.00000  0.05    0.19
Q3    1   0.4541  0.6727  0.5340  11.00000  0.05    0.18
Q4    1   0.5939  0.2396  0.3971  11.00000  0.05    0.17
Q5    1   0.5370  0.7098  0.5152  11.00000  0.05    0.17
Q6    1   0.4871  0.2455  0.5193  11.00000  0.05    0.17
Q7    1   0.5671  0.5853  0.4231  11.00000  0.05    0.17
Q8    1   0.6713 -0.1678  0.3763  11.00000  0.05    0.17
Q9    1   0.5821  0.4888  0.4929  11.00000  0.05    0.16
Q10   1   0.4803  0.4967  0.3694  11.00000  0.05    0.15
Q11   1   0.6235  0.3869  0.2636  11.00000  0.05    0.15
Q12   1   0.6443  0.4063  0.4410  11.00000  0.05    0.15
Q13   1   0.4425  0.0309  0.2881  11.00000  0.05    0.15
Q14   1   0.5236 -0.1354  0.3896  11.00000  0.05    0.15
Q15   1   0.4190  0.3782  0.4371  11.00000  0.05    0.15
Q16   1   0.3269  0.2949  0.3200  11.00000  0.05    0.14
Q17   1   0.6006 -0.0839  0.3435  11.00000  0.05    0.14
Q18   1   0.5305  0.3367  0.3421  11.00000  0.05    0.14
Q19   1   0.5576  0.4920  0.3200  11.00000  0.05    0.14
Q20   1   0.5638 -0.2795  0.2076  11.00000  0.05    0.14
Q21   1   0.6994  0.2417  0.3232  11.00000  0.05    0.14
Q22   1   0.4979 -0.2796  0.2387  11.00000  0.05    0.13
Q23   1   0.5535  0.1241  0.4805  11.00000  0.05    0.13
Q24   1   0.3882  0.2585  0.5199  11.00000  0.05    0.13
Q25   1   0.4946 -0.2826  0.3172  11.00000  0.05    0.13
;
_shelx_res_checksum              64422
_shelx_hkl_file
;
   2   0   1    0.15    0.08
  -4   0  -1    0.09    0.12
  -6   0  -1   -0.08    0.19
   6   0   5   -0.62    0.29
  -7   0  -1  986.70   19.91
   7   0   6    1.18    0.51
   7   0   7  262.80    5.39
   8   0   8  138.00    2.97
   8   0   9    1.25    0.88
   8   0  10  173.40    3.77
  -9   0   0   -0.68    0.36
   9   0  11   28.87    1.51
 -10   0   0  633.10   12.81
 -12   0   1   -0.24    0.67
 -13   0   2    0.70    0.91
 -14   0   3   -1.15    1.12
 -14  -1   2    2.94    1.19
 -13  -1   1    5.69    0.91
 -13  -1   2  233.40    4.91
 -12  -1   1  282.40    5.86
 -11  -1   1    8.24    0.72
 -10  -1   0   39.10    1.04
  -9  -1   0   59.72    1.39
   8   1  12   22.16    1.36
   8   1  11  136.10    3.07
   8   1  10    5.51    1.12
   8   1   9  112.90    2.55
  -8  -1  -1  493.10    9.96
   7   1   7   37.32    1.16
  -7  -1  -1    2.27    0.33
   6   1   6    1.80    0.48
   6   1   5  748.30   15.06
  -6  -1  -1  277.90    5.63
   5   1   4  937.90   18.86
  -5  -1  -1  227.50    4.61
   4   1   3 1660.00   33.31
  -3  -1  -1   39.15    0.85
   0  -1   0    0.38    0.12
  -1   1   0  237.80    4.79
   6  -1   5  712.40   14.77
   8  -1   9  114.20    2.50
  -9   1   0   77.85    1.66
 -11   1   1    9.54    0.47
 -13   1   2  238.20    4.99
 -13  -2   2    1.13    1.04
 -13  -2   3  258.60    5.41
 -12  -2   1   11.73    0.95
 -12  -2   2   69.20    1.72
 -11  -2   1  214.20    4.49
 -10  -2   0  878.50   17.75
 -10  -2   1   61.30    1.52
  -9  -2   0   63.28    1.49
   8   2  11   -0.29    1.21
   8   2  10  156.50    3.44
  -8  -2   0  742.10   14.98
   7   2  12   20.76    1.34
   7   2  11   42.11    1.38
   7   2  10    7.27    1.03
   7   2   9  247.80    5.16
   7   2   8   14.55    0.92
   7   2   7  400.50    8.21
  -7  -2  -1  522.70   10.57
  -7  -2   0   13.02    0.56
   6   2   8  216.60    4.52
   6   2   7    0.82    0.65
   6   2   6  309.80    6.36
  -6  -2  -1  450.30    9.10
  -6  -2   0  632.70   12.75
   5   2   6   86.04    1.94
   5   2   5  790.20   15.92
  -5  -2  -1  711.30   14.31
  -5  -2   0  222.80    4.55
   4   2   5   -0.45    0.37
   4   2   4 1406.00   28.22
  -4  -2  -1   84.57    1.78
  -4  -2   0 1110.00   22.29
   3   2   3 1394.00   27.96
  -3  -2   0   61.96    1.34
   2   2   3   83.58    1.76
   2   2   2  134.40    2.77
   1   2   2   59.48    1.28
  -1  -2   0   18.87    0.51
   0   2   1   89.69    1.86
  -1   2   1  989.00   19.86
   1  -2   1  220.40    4.47
  -3   2   0   59.47    1.25
   3  -2   2   51.86    1.10
  -4   2   0 1066.00   21.46
   4  -2   3    8.95    0.30
  -5   2   0  215.80    4.39
  -6   2   0  658.10   13.42
 -12  -3   2   34.41    1.16
 -12  -3   3   37.25    1.27
 -11  -3   1    0.73    0.81
 -11  -3   2  103.60    2.37
 -11  -3   3    2.70    0.81
 -10  -3   1  169.70    3.64
 -10  -3   2    3.70    0.70
  -9  -3   0  372.50    7.60
  -9  -3   1   29.27    0.92
  -9  -3   2  416.30    8.46
  -8  -3   0   62.73    1.48
  -8  -3   1  482.70    9.79
   7   3  11    2.66    1.09
   7   3  10   96.28    2.27
  -7  -3   0  552.90   11.19
  -7  -3   1  123.50    2.66
   6   3  11   94.14    2.23
   6   3  10  104.80    2.40
   6   3   9   41.64    1.28
   6   3   8   -0.26    0.78
  -6  -3   0   93.43    2.05
  -6  -3   1  623.00   12.59
   5   3  10   51.78    1.44
   5   3   9   19.51    1.03
   5   3   8   97.12    2.20
   5   3   7  185.00    3.87
   5   3   6  606.50   12.27
  -5  -3   0 1031.00   20.75
  -5  -3   1   69.07    1.57
   4   3   7  791.70   15.97
   4   3   6   83.93    1.90
   4   3   5  811.60   16.36
  -4  -3   0   -0.21    0.45
  -4  -3   1 1506.00   30.26
   3   3   6 1234.00   24.81
   3   3   5  249.20    5.13
   3   3   4  674.90   13.62
  -3  -3   0 1058.00   21.29
  -3  -3   1    5.42    0.46
   2   3   5  719.50   14.51
   2   3   4  189.30    3.92
   2   3   3 1257.00   25.25
  -2  -3   0   45.82    1.09
  -2  -3   1 1105.00   22.21
   1   3   4  994.10   20.00
   1   3   3   30.23    0.79
  -1  -3   1    8.47    0.44
   0   3   3  778.50   15.67
   0   3   2    4.83    0.38
   0  -3   1  102.30    2.16
   0  -3   2    4.39    0.37
  -1   3   2  726.60   14.63
   1  -3   2 1101.00   22.13
  -2   3   2    9.03    0.44
   2  -3   2   22.33    0.63
   2  -3   3 1262.00   25.36
  -3   3   2 1186.00   23.83
  -3   3   1    4.38    0.34
   3  -3   3  123.30    2.57
  -4   3   1 1510.00   30.34
   4  -3   4    8.86    0.44
  -5   3   1   64.99    1.42
   5  -3   6  599.70   12.16
  -6   3   1  632.70   12.79
   6  -3   7  353.00    7.26
   7  -3  10   92.03    2.13
  -8   3   2    8.69    0.55
  -9   3   2  390.10    7.96
 -11   3   3    3.68    0.67
 -11  -4   2   12.58    1.09
 -10  -4   2  164.60    3.53
 -10  -4   3   25.44    1.17
 -10  -4   4  100.10    2.30
  -9  -4   1  250.80    5.21
  -9  -4   2  107.30    2.41
  -9  -4   3  182.20    3.85
  -8  -4   1   66.99    1.62
  -8  -4   2  260.90    5.38
  -8  -4   3   61.68    1.60
  -7  -4   1  239.60    4.95
  -7  -4   2  106.20    2.35
  -7  -4   3  300.30    6.16
  -6  -4   1    4.16    0.65
  -6  -4   2  353.80    7.23
   5   4  10  100.40    2.32
   5   4   9  332.70    6.81
  -5  -4   1  184.30    3.85
  -5  -4   2  117.70    2.54
   4   4  11    4.41    1.00
   4   4  10  195.10    4.10
   4   4   9    4.64    0.86
   4   4   8  299.30    6.15
   4   4   7   35.02    1.12
  -4  -4   1  635.00   12.83
  -4  -4   2  534.10   10.81
   3   4  10   28.08    1.07
   3   4   9  194.10    4.08
   3   4   8    0.28    0.77
   3   4   7  106.70    2.37
   3   4   6   81.39    1.92
  -3  -4   1  355.60    7.24
  -3  -4   2    1.80    0.53
   2   4   8  205.70    4.30
   2   4   7    2.25    0.75
   2   4   6  186.10    3.91
   2   4   5   17.34    0.83
  -2  -4   1    2.66    0.48
  -2  -4   2  543.40   10.99
  -2  -4   3  240.70    4.95
   1   4   7  471.30    9.58
   1   4   6   19.64    0.87
   1   4   5  437.40    8.89
   1   4   4   46.89    1.23
  -1  -4   2   54.24    1.28
  -1  -4   3  410.60    8.34
   0   4   6  586.00   11.86
   0   4   5   29.93    0.97
   0   4   4  450.40    9.16
   0  -4   2  508.80   10.30
   0  -4   3   50.81    1.24
  -1   4   5  240.00    4.97
  -1   4   4  119.20    2.58
  -1   4   3  424.20    8.62
   1  -4   3  447.30    9.07
   1  -4   4   41.39    1.09
  -2   4   4  165.70    3.49
  -2   4   3  246.10    5.08
   2  -4   5   14.23    0.71
  -3   4   4  565.20   11.45
  -3   4   3  473.60    9.62
   3  -4   5  172.10    3.62
   3  -4   6   78.73    1.80
  -4   4   4  328.30    6.74
  -4   4   3   14.47    0.88
   4  -4   6   79.85    1.84
   4  -4   7   38.32    1.23
  -5   4   4   12.08    0.82
  -5   4   3  480.40    9.78
   5  -4   7  207.80    4.34
   5  -4   8    3.42    0.93
   5  -4   9  333.60    6.87
  -6   4   4  402.10    8.21
  -6   4   3   80.28    1.89
   6  -4  10   99.74    2.60
  -7   4   4    1.39    0.82
  -7   4   3  308.50    6.36
  -8   4   4  214.20    4.51
  -8   4   3   66.11    1.68
  -9   4   4    2.84    1.00
 -10   4   5   15.81    1.26
  -8  -5   3  140.50    3.10
  -8  -5   4    9.52    0.96
  -7  -5   3    0.73    0.82
  -7  -5   4  467.90    9.52
  -7  -5   5    0.06    0.86
  -6  -5   3  311.30    6.40
  -6  -5   4    0.95    0.80
  -6  -5   5  429.80    8.76
  -5  -5   3    1.51    0.77
  -5  -5   4  213.80    4.47
  -5  -5   5   12.52    0.89
  -4  -5   3   14.21    0.81
  -4  -5   4   14.42    0.83
  -4  -5   5  326.10    6.71
   3   5   9    1.90    0.95
  -3  -5   3   99.27    2.21
  -3  -5   4  123.20    2.67
  -3  -5   5   11.02    0.80
   2   5   9  199.30    4.22
   2   5   8   11.31    0.94
  -2  -5   3   53.04    1.35
  -2  -5   4   52.99    1.36
  -2  -5   5  472.80    9.60
   1   5   9    0.96    0.93
   1   5   8  262.90    5.45
   1   5   7   -0.16    0.96
  -1  -5   4  412.60    8.40
  -1  -5   5   16.58    0.83
  -1  -5   6  554.40   11.25
   0   5   9  179.60    3.81
   0   5   8   68.60    1.80
   0   5   7  238.00    4.94
   0   5   6    5.36    0.83
   0  -5   5  304.40    6.25
   0  -5   6    6.11    0.81
  -1   5   9   15.93    1.02
  -1   5   8  171.70    3.66
  -1   5   7    0.11    0.82
  -1   5   6  485.90    9.88
   1  -5   5    2.35    0.77
   1  -5   6  178.90    3.78
   1  -5   7    1.35    0.78
  -2   5   9   56.18    1.57
  -2   5   8    0.55    0.90
  -2   5   7  223.20    4.68
  -2   5   6   63.84    1.63
  -2   5   5  463.40    9.43
   2  -5   6    5.34    0.82
   2  -5   7  249.60    5.20
   2  -5   8   13.08    0.99
  -3   5   8   28.12    1.33
  -3   5   6  296.90    6.14
  -3   5   5    9.64    0.90
   3  -5   7    2.96    0.89
   3  -5   8  120.70    2.73
   3  -5   9    1.27    1.15
  -4   5   8    2.15    0.94
  -4   5   7  103.00    2.36
  -4   5   6    2.94    0.96
  -4   5   5  305.30    6.28
  -5   5   7    7.16    0.97
  -5   5   6  250.80    5.24
  -5   5   5    9.98    1.00
  -6   5   7   81.81    2.01
  -6   5   6   10.32    1.04
  -6   5   5  437.30    8.93
  -7   5   6  253.40    5.30
  -7   5   5   -0.60    1.12
   0   0   0    0.00    0.00
;
_shelx_hkl_checksum              17090
_olex2_submission_special_instructions 'No special instructions were received'
loop_
_space_group_symop_operation_xyz
'x, y, z'
'-x+1/2, y+1/2, -z+1/2'
'-x, -y, -z'
'x-1/2, -y-1/2, z-1/2'
loop_
_atom_site_label
_atom_site_type_symbol
_atom_site_fract_x
_atom_site_fract_y
_atom_site_fract_z
_atom_site_U_iso_or_equiv
_atom_site_adp_type
_atom_site_occupancy
_atom_site_site_symmetry_order
_atom_site_calc_flag
_atom_site_refinement_flags_posn
_atom_site_refinement_flags_adp
_atom_site_refinement_flags_occupancy
_atom_site_disorder_assembly
_atom_site_disorder_group
C1 C 0.1814(8) -0.0621(12) 0.4474(10) 0.0157(13) Uiso 1 1 d . . . . .
H1A H 0.1222 0.0784 0.4810 0.024 Uiso 1 1 calc GR . . . .
H1B H 0.1944 -0.2230 0.5028 0.024 Uiso 1 1 calc GR . . . .
H1C H 0.1435 -0.1333 0.3716 0.024 Uiso 1 1 calc GR . . . .
C2 C 0.3101(7) 0.0785(11) 0.4274(9) 0.0123(12) Uiso 1 1 d . . . . .
C3 C 0.3892(9) -0.0297(13) 0.3397(10) 0.0165(13) Uiso 1 1 d . . . . .
H3 H 0.3581 -0.1913 0.2954 0.020 Uiso 1 1 calc R . . . .
C4 C 0.5118(7) 0.0841(12) 0.3123(9) 0.0142(13) Uiso 1 1 d . . . . .
C5 C 0.5844(8) -0.0507(13) 0.2153(11) 0.0201(14) Uiso 1 1 d . . . . .
H5A H 0.6236 -0.2314 0.2438 0.030 Uiso 1 1 calc GR . . . .
H5B H 0.6532 0.0800 0.1911 0.030 Uiso 1 1 calc GR . . . .
H5C H 0.5242 -0.0895 0.1472 0.030 Uiso 1 1 calc GR . . . .
O1 O 0.3377(6) 0.2962(8) 0.4945(7) 0.0146(10) Uiso 1 1 d . . . . .
O2 O 0.5657(5) 0.3002(8) 0.3648(6) 0.0143(10) Uiso 1 1 d . . . . .
Cu1 Cu 0.5000 0.5000 0.5000 0.0124(4) Uiso 1 2 d S T P . .
loop_
_atom_type_symbol
_atom_type_description
_atom_type_scat_dispersion_real
_atom_type_scat_dispersion_imag
_atom_type_scat_source
C C 0.0033 0.0016 'International Tables Vol C Tables 4.2.6.8 and 6.1.1.4'
H H 0.0000 0.0000 'International Tables Vol C Tables 4.2.6.8 and 6.1.1.4'
Cu Cu 0.3201 1.2651 'International Tables Vol C Tables 4.2.6.8 and 6.1.1.4'
O O 0.0106 0.0060 'International Tables Vol C Tables 4.2.6.8 and 6.1.1.4'
loop_
_geom_angle_atom_site_label_1
_geom_angle_atom_site_label_2
_geom_angle_atom_site_label_3
_geom_angle
_geom_angle_site_symmetry_1
_geom_angle_site_symmetry_3
H1A C1 H1B 109.5 . .
H1A C1 H1C 109.5 . .
H1B C1 H1C 109.5 . .
C2 C1 H1A 109.5 . .
C2 C1 H1B 109.5 . .
C2 C1 H1C 109.5 . .
C3 C2 C1 119.5(7) . .
O1 C2 C1 115.2(8) . .
O1 C2 C3 125.3(7) . .
C2 C3 H3 117.6 . .
C2 C3 C4 124.8(7) . .
C4 C3 H3 117.6 . .
C3 C4 C5 118.9(6) . .
O2 C4 C3 124.4(9) . .
O2 C4 C5 116.7(8) . .
C4 C5 H5A 109.5 . .
C4 C5 H5B 109.5 . .
C4 C5 H5C 109.5 . .
H5A C5 H5B 109.5 . .
H5A C5 H5C 109.5 . .
H5B C5 H5C 109.5 . .
C2 O1 Cu1 125.2(6) . .
C4 O2 Cu1 125.7(7) . .
O1 Cu1 O1 180.0 . 3_666
O1 Cu1 O2 85.9(3) . 3_666
O1 Cu1 O2 94.1(3) . .
O1 Cu1 O2 94.1(3) 3_666 3_666
O1 Cu1 O2 85.9(3) 3_666 .
O2 Cu1 O2 180.0 . 3_666
loop_
_geom_bond_atom_site_label_1
_geom_bond_atom_site_label_2
_geom_bond_distance
_geom_bond_site_symmetry_2
C1 H1A 0.9800 .
C1 H1B 0.9800 .
C1 H1C 0.9800 .
C1 C2 1.501(11) .
C2 C3 1.401(14) .
C2 O1 1.288(8) .
C3 H3 0.9500 .
C3 C4 1.413(12) .
C4 C5 1.489(15) .
C4 O2 1.279(8) .
C5 H5A 0.9800 .
C5 H5B 0.9800 .
C5 H5C 0.9800 .
O1 Cu1 1.916(5) .
O2 Cu1 1.933(7) .
Cu1 O1 1.916(5) 3_666
Cu1 O2 1.933(7) 3_666
loop_
_geom_torsion_atom_site_label_1
_geom_torsion_atom_site_label_2
_geom_torsion_atom_site_label_3
_geom_torsion_atom_site_label_4
_geom_torsion
_geom_torsion_site_symmetry_1
_geom_torsion_site_symmetry_2
_geom_torsion_site_symmetry_3
_geom_torsion_site_symmetry_4
C1 C2 C3 C4 179.8(7) . . . .
C1 C2 O1 Cu1 174.4(5) . . . .
C2 C3 C4 C5 -179.1(9) . . . .
C2 C3 C4 O2 0.2(15) . . . .
C3 C2 O1 Cu1 -6.1(12) . . . .
C3 C4 O2 Cu1 5.2(11) . . . .
C5 C4 O2 Cu1 -175.5(6) . . . .
O1 C2 C3 C4 0.3(15) . . . .
