#------------------------------------------------------------------------------
#$Date: 2019-08-08 03:19:09 +0300 (Thu, 08 Aug 2019) $
#$Revision: 217457 $
#$URL: file:///home/coder/svn-repositories/cod/cif/1/55/21/1552166.cif $
#------------------------------------------------------------------------------
#
# This file is available in the Crystallography Open Database (COD),
# http://www.crystallography.net/
#
# All data on this site have been placed in the public domain by the
# contributors.
#
data_1552166
loop_
_publ_author_name
'Correa, Arkaitz'
'San Segundo, Marcos'
_publ_section_title
;
 Pd-Catalyzed Site-Selective C(sp2)--H Radical Acylation of Phenylalanine
 Containing Peptides with Aldehydes
;
_journal_name_full               'Chemical Science'
_journal_paper_doi               10.1039/C9SC03425K
_journal_year                    2019
_chemical_absolute_configuration ad
_chemical_formula_moiety         'C16 H13 Br2 Cl N2 O3'
_chemical_formula_sum            'C16 H13 Br2 Cl N2 O3'
_chemical_formula_weight         476.55
_space_group_IT_number           4
_space_group_name_Hall           'P 2yb'
_space_group_name_H-M_alt        'P 1 21 1'
_symmetry_cell_setting           monoclinic
_symmetry_Int_Tables_number      4
_symmetry_space_group_name_Hall  'P 2yb'
_symmetry_space_group_name_H-M   'P 1 21 1'
_atom_sites_solution_hydrogens   geom
_atom_sites_solution_primary     dual
_audit_creation_date             2019-04-17T11:54:08-00:00
_audit_creation_method           'WinGX routine CIF_UPDATE'
_audit_update_record
;
2019-07-08 deposited with the CCDC.    2019-08-07 downloaded from the CCDC.
;
_cell_angle_alpha                90
_cell_angle_beta                 115.927(2)
_cell_angle_gamma                90
_cell_formula_units_Z            2
_cell_length_a                   8.22428(16)
_cell_length_b                   13.92307(19)
_cell_length_c                   8.40898(16)
_cell_measurement_reflns_used    7774
_cell_measurement_temperature    150.00(10)
_cell_measurement_theta_max      74.097
_cell_measurement_theta_min      5.828
_cell_volume                     865.98(3)
_computing_cell_refinement       'CrysAlisPro 1.171.39.46 (Rigaku OD, 2018)'
_computing_data_collection       'CrysAlisPro 1.171.39.46 (Rigaku OD, 2018)'
_computing_data_reduction        'CrysAlisPro 1.171.39.46 (Rigaku OD, 2018)'
_computing_molecular_graphics    'Olex2 (Dolomanov et al., 2009)'
_computing_publication_material  'Olex2 (Dolomanov et al., 2009)'
_computing_structure_refinement  'ShelXL (Sheldrick, 2015)'
_computing_structure_solution    'ShelXT (Sheldrick, 2015)'
_diffrn_ambient_temperature      150.00(10)
_diffrn_detector                 'CCD plate'
_diffrn_detector_area_resol_mean 5.2012
_diffrn_detector_type            Atlas
_diffrn_measured_fraction_theta_full 1
_diffrn_measured_fraction_theta_max 1
_diffrn_measurement_details
;
List of Runs (angles in degrees, time in seconds):

  # Type    Start    End  Width  t~exp~   \w     \q     \k     \f   Frames
#--------------------------------------------------------------------------
  1  \w    -12.00  83.00   1.00    1.00    --   42.13 -19.00   0.00   95
  2  \w     32.00 102.00   1.00    1.00    --   42.13  38.00   0.00   70
  3  \w     16.00 103.00   1.00    1.00    --   42.13  57.00-150.00   87
  4  \w     18.00  56.00   1.00    1.00    --   42.13  38.00 -30.00   38
  5  \w    -15.00  51.00   1.00    1.00    --   42.13 -77.00-180.00   66
  6  \w     47.00 112.00   1.00    1.00    --  107.93-125.00  60.00   65
  7  \w     52.00  87.00   1.00    1.00    --  107.93 -94.00  90.00   35
  8  \w     79.00 155.00   1.00    1.00    --  107.93  61.00  60.00   76
  9  \w     32.00  64.00   1.00    1.00    --  107.93 -30.00  30.00   32
 10  \w     82.00 155.00   1.00    1.00    --  107.93  45.00   0.00   73
 11  \w     35.00  77.00   1.00    1.00    --  107.93 -45.00  90.00   42
 12  \w     35.00  61.00   1.00    1.00    --  107.93 -45.00-120.00   26
 13  \w     36.00  66.00   1.00    1.00    --  107.93 -30.00 120.00   30
 14  \w     37.00  99.00   1.00    1.00    --  107.93 -94.00 -90.00   62
 15  \w     35.00  67.00   1.00    1.00    --  107.93 -30.00 -60.00   32
 16  \w     40.00  66.00   1.00    1.00    --  107.93 -30.00-120.00   26
 17  \w     32.00  57.00   1.00    1.00    --  107.93 -30.00  60.00   25
 18  \w     34.00  64.00   1.00    1.00    --  107.93 -30.00-180.00   30
 19  \w     38.00  63.00   1.00    1.00    --  107.93 -30.00 150.00   25
 20  \w     70.00 118.00   1.00    1.00    --  107.93-125.00-150.00   48
 21  \w     48.00  91.00   1.00    1.00    --  107.93 -94.00-150.00   43
 22  \w     73.00 154.00   1.00    1.00    --  107.93 125.00-180.00   81
 23  \w     48.00  93.00   1.00    1.00    --   42.13-125.00  60.00   45
 24  \w     12.00  38.00   1.00    1.00    --   42.13-125.00  60.00   26
 25  \w     32.00  57.00   1.00    1.00    --  107.93 -30.00 -30.00   25
 26  \w     34.00  81.00   1.00    1.00    --  107.93 -94.00 -30.00   47
 27  \w    107.00 142.00   1.00    1.00    --  107.93  45.00 -60.00   35
 28  \w     20.00  50.00   1.00    1.00    --  107.93   0.00 -90.00   30
 29  \w    -70.00  31.00   1.00    1.00    --  -42.13  57.00 -30.00  101
 30  \w   -118.00 -10.00   1.00    1.00    --  -42.13 -77.00  90.00  108
 31  \w   -118.00 -10.00   1.00    1.00    --  -42.13 -77.00 -30.00  108
 32  \w   -118.00 -10.00   1.00    1.00    --  -42.13 -77.00-150.00  108
 33  \w     10.00 118.00   1.00    1.00    --   42.13  77.00 120.00  108
 34  \w     14.00 115.00   1.00    1.00    --   42.13  57.00  90.00  101
;
_diffrn_measurement_device       'four-circle\k-geometry diffractometer'
_diffrn_measurement_device_type  'Agilent SuperNova'
_diffrn_measurement_method       '\w scans'
_diffrn_orient_matrix_type
'CrysAlisPro convention (1999,Acta A55,543-557)'
_diffrn_orient_matrix_UB_11      0.0744593
_diffrn_orient_matrix_UB_12      0.1019737
_diffrn_orient_matrix_UB_13      0.0041401
_diffrn_orient_matrix_UB_21      -0.1721142
_diffrn_orient_matrix_UB_22      0.026197
_diffrn_orient_matrix_UB_23      -0.1672409
_diffrn_orient_matrix_UB_31      -0.0906358
_diffrn_orient_matrix_UB_32      0.0340257
_diffrn_orient_matrix_UB_33      0.1162532
_diffrn_radiation_monochromator  'Multilayer optics'
_diffrn_radiation_probe          x-ray
_diffrn_radiation_type           CuK\a
_diffrn_radiation_wavelength     1.54184
_diffrn_reflns_av_R_equivalents  0.0382
_diffrn_reflns_av_unetI/netI     0.0475
_diffrn_reflns_Laue_measured_fraction_full 1
_diffrn_reflns_Laue_measured_fraction_max 1
_diffrn_reflns_limit_h_max       8
_diffrn_reflns_limit_h_min       -9
_diffrn_reflns_limit_k_max       16
_diffrn_reflns_limit_k_min       -16
_diffrn_reflns_limit_l_max       10
_diffrn_reflns_limit_l_min       -9
_diffrn_reflns_number            9363
_diffrn_reflns_point_group_measured_fraction_full 0.999
_diffrn_reflns_point_group_measured_fraction_max 0.999
_diffrn_reflns_theta_full        67.684
_diffrn_reflns_theta_max         68.958
_diffrn_reflns_theta_min         5.851
_diffrn_source                   'micro-focus sealed X-ray tube'
_diffrn_source_current           0.8
_diffrn_source_power             0.04
_diffrn_source_type              'SuperNova (Cu) X-ray Source'
_diffrn_source_voltage           50
_exptl_absorpt_coefficient_mu    7.522
_exptl_absorpt_correction_T_max  0.655
_exptl_absorpt_correction_T_min  0.211
_exptl_absorpt_correction_type   analytical
_exptl_absorpt_process_details
;
        CrysAlisPro 1.171.39.46 (Rigaku Oxford Diffraction, 2018)
Analytical numeric absorption correction using a multifaceted crystal
                        model based on expressions derived by R.C. Clark & J.S.
        (Clark, R. C. & Reid, J. S. (1995). Acta Cryst. A51, 887-897)
        Empirical absorption correction using spherical harmonics,
 implemented in SCALE3 ABSPACK scaling algorithm.
;
_exptl_crystal_colour            colourless
_exptl_crystal_density_diffrn    1.828
_exptl_crystal_description       plate
_exptl_crystal_F_000             468
_exptl_crystal_size_max          0.427
_exptl_crystal_size_mid          0.164
_exptl_crystal_size_min          0.094
_refine_diff_density_max         0.306
_refine_diff_density_min         -0.362
_refine_diff_density_rms         0.069
_refine_ls_abs_structure_details
;
 Flack x determined using 1414 quotients [(I+)-(I-)]/[(I+)+(I-)]
 (Parsons, Flack and Wagner, Acta Cryst. B69 (2013) 249-259).
 The Friedel pair coverage of the experiment is almost complete 
 (100%). Analysis of the absolute structure using likelihood methods
 (Hooft, Straver & Spek, 2008) was performed using PLATON
 (Spek, 2009). The resulting value was y=-0.005(107)
;
_refine_ls_abs_structure_Flack   0.00(2)
_refine_ls_extinction_method     none
_refine_ls_goodness_of_fit_ref   1.047
_refine_ls_hydrogen_treatment    constr
_refine_ls_matrix_type           full
_refine_ls_number_parameters     218
_refine_ls_number_reflns         3199
_refine_ls_number_restraints     1
_refine_ls_restrained_S_all      1.047
_refine_ls_R_factor_all          0.0301
_refine_ls_R_factor_gt           0.0295
_refine_ls_shift/su_max          0.001
_refine_ls_shift/su_mean         0
_refine_ls_structure_factor_coef Fsqd
_refine_ls_weighting_details
'w=1/[\s^2^(Fo^2^)+(0.0441P)^2^] where P=(Fo^2^+2Fc^2^)/3'
_refine_ls_weighting_scheme      calc
_refine_ls_wR_factor_gt          0.072
_refine_ls_wR_factor_ref         0.0727
_reflns_Friedel_coverage         0.913
_reflns_Friedel_fraction_full    0.998
_reflns_Friedel_fraction_max     0.997
_reflns_number_gt                3134
_reflns_number_total             3199
_reflns_threshold_expression     'I > 2\s(I)'
_iucr_refine_instructions_details
;
TITL a20190132_acn1250b_a.res in P2(1)
    a20190132_acn1250b.res
    created by SHELXL-2018/3 at 11:44:27 on 17-Apr-2019
REM Old TITL a20190132_ACN1250B in P21 #4
REM SHELXT solution in P2(1): R1 0.148, Rweak 0.047, Alpha 0.003
REM <I/s> 0.364 for 8 systematic absences, Orientation as input
REM Flack x = 0.162 ( 0.013 ) from 1539 Parsons' quotients
REM Formula found by SHELXT: C16 N2 O4 Br2
CELL 1.54184 8.2243 13.9231 8.409 90 115.927 90
ZERR 2 0.0002 0.0002 0.0002 0 0.002 0
LATT -1
SYMM -X,0.5+Y,-Z
SFAC C H Br Cl N O
UNIT 32 26 4 2 4 6

L.S. 3
PLAN  20
TEMP -123
BOND
bond $H
conf
list 4
fmap 2
acta
OMIT -2 138
REM <olex2.extras>
REM <HklSrc "%.\\a20190132_ACN1250B.hkl">
REM </olex2.extras>

WGHT    0.044100
FVAR       6.93759
BR1   3    0.328602    0.456360    1.024031    11.00000    0.01989    0.03790 =
         0.02448   -0.00128    0.01041   -0.00718
BR2   3    0.841798    0.526579    0.746444    11.00000    0.02140    0.06167 =
         0.02104    0.00306    0.01261    0.00460
CL1   4    0.940867    0.669084    1.390225    11.00000    0.02881    0.03656 =
         0.02944   -0.01333    0.00579   -0.00635
O1    6    0.003803    0.410042    0.539267    11.00000    0.03114    0.03803 =
         0.02766   -0.00917    0.01805   -0.01108
O2    6    0.389440    0.601696    0.388036    11.00000    0.03304    0.03004 =
         0.01894   -0.00056    0.01515   -0.00349
O3    6    0.454140    0.664560    0.654610    11.00000    0.02779    0.02113 =
         0.01972   -0.00607    0.00977   -0.00580
N1    5    0.206558    0.454280    0.438283    11.00000    0.01663    0.02877 =
         0.01614   -0.00820    0.00561   -0.00495
AFIX  43
H1    2    0.238227    0.449720    0.351234    11.00000   -1.20000
AFIX   0
N2    5    0.026020    0.355130    0.137121    11.00000    0.02037    0.02578 =
         0.02162   -0.00495    0.00582    0.00236
C1    1    0.057304    0.408711    0.424561    11.00000    0.01989    0.02017 =
         0.01618   -0.00059    0.00428    0.00153
C2    1   -0.043011    0.353534    0.254726    11.00000    0.02056    0.01730 =
         0.02448   -0.00370    0.00735   -0.00213
C3    1   -0.062928    0.305963   -0.012226    11.00000    0.03229    0.02979 =
         0.02693   -0.00921    0.01070    0.00105
AFIX  43
H3    2   -0.016361    0.306225   -0.097599    11.00000   -1.20000
AFIX   0
C4    1   -0.219872    0.254440   -0.049587    11.00000    0.02711    0.02869 =
         0.02337   -0.00784   -0.00124   -0.00152
AFIX  43
H4    2   -0.279285    0.220670   -0.158095    11.00000   -1.20000
AFIX   0
C5    1   -0.288072    0.253252    0.074441    11.00000    0.02795    0.02914 =
         0.03989   -0.00471    0.00650   -0.00744
AFIX  43
H5    2   -0.395215    0.218676    0.053205    11.00000   -1.20000
AFIX   0
C6    1   -0.196360    0.303645    0.229994    11.00000    0.02059    0.02873 =
         0.02961   -0.00342    0.00882   -0.00315
AFIX  43
H6    2   -0.238734    0.303786    0.318523    11.00000   -1.20000
AFIX   0
C7    1    0.317070    0.510847    0.592757    11.00000    0.01683    0.01891 =
         0.01362   -0.00200    0.00549    0.00036
AFIX  13
H7    2    0.239569    0.534944    0.648513    11.00000   -1.20000
AFIX   0
C8    1    0.470845    0.448250    0.728856    11.00000    0.02140    0.02206 =
         0.01722   -0.00131    0.00691    0.00097
AFIX  23
H8A   2    0.416083    0.392223    0.759611    11.00000   -1.20000
H8B   2    0.545698    0.423553    0.672246    11.00000   -1.20000
AFIX   0
C9    1    0.591802    0.499143    0.896140    11.00000    0.01801    0.01901 =
         0.01493    0.00051    0.00568    0.00199
C10   1    0.546493    0.511350    1.036784    11.00000    0.01422    0.02152 =
         0.02099    0.00158    0.00646   -0.00062
C11   1    0.650085    0.562030    1.189203    11.00000    0.02217    0.02239 =
         0.01659    0.00276    0.00795    0.00516
AFIX  43
H11   2    0.612368    0.569596    1.280339    11.00000   -1.20000
AFIX   0
C12   1    0.809573    0.601054    1.204064    11.00000    0.01958    0.02165 =
         0.02208   -0.00245    0.00537   -0.00015
C13   1    0.867806    0.589569    1.073268    11.00000    0.01514    0.02643 =
         0.02238    0.00163    0.00510   -0.00165
AFIX  43
H13   2    0.980288    0.615053    1.086813    11.00000   -1.20000
AFIX   0
C14   1    0.756631    0.539838    0.922818    11.00000    0.01713    0.02922 =
         0.01871    0.00742    0.01049    0.00698
C15   1    0.388967    0.596161    0.530301    11.00000    0.01646    0.02331 =
         0.01731   -0.00156    0.00407    0.00144
C16   1    0.537585    0.745012    0.610984    11.00000    0.04503    0.02814 =
         0.03991   -0.00230    0.02289   -0.01079
AFIX 137
H16A  2    0.445881    0.780316    0.511283    11.00000   -1.50000
H16B  2    0.631422    0.721645    0.578499    11.00000   -1.50000
H16C  2    0.592146    0.787736    0.713528    11.00000   -1.50000
AFIX   0
HKLF 4




REM  a20190132_acn1250b_a.res in P2(1)
REM wR2 = 0.0727, GooF = S = 1.047, Restrained GooF = 1.047 for all data
REM R1 = 0.0295 for 3134 Fo > 4sig(Fo) and 0.0301 for all 3199 data
REM 218 parameters refined using 1 restraints

END  
     
WGHT      0.0441      0.0000 

REM Highest difference peak  0.306,  deepest hole -0.362,  1-sigma level  0.069
Q1    1   0.8570  0.5929  0.7559  11.00000  0.05    0.31
Q2    1   0.9242  0.4548  0.7771  11.00000  0.05    0.29
Q3    1   0.6372  0.4992  1.1802  11.00000  0.05    0.28
Q4    1   0.7748  0.4585  0.9441  11.00000  0.05    0.27
Q5    1   0.7358  0.4632  0.6662  11.00000  0.05    0.27
Q6    1   0.3312  0.3880  1.0203  11.00000  0.05    0.25
Q7    1   0.9109  0.5091  1.0399  11.00000  0.05    0.25
Q8    1   0.7019  0.5487  0.6110  11.00000  0.05    0.25
Q9    1   0.5111  0.5340  0.5004  11.00000  0.05    0.25
Q10   1   0.5987  0.4497  1.0182  11.00000  0.05    0.24
Q11   1   1.0957  0.5883  0.9295  11.00000  0.05    0.24
Q12   1   0.4024  0.5344  0.3938  11.00000  0.05    0.24
Q13   1   0.5251  0.5734  1.0605  11.00000  0.05    0.23
Q14   1   0.0468  0.4541  0.0267  11.00000  0.05    0.23
Q15   1   0.7350  0.5857  0.6584  11.00000  0.05    0.23
Q16   1   0.1644  0.4713  0.3241  11.00000  0.05    0.23
Q17   1   0.9272  0.5259  1.2905  11.00000  0.05    0.22
Q18   1   0.3161  0.4536  0.7347  11.00000  0.05    0.22
Q19   1   0.9787  0.5532  0.8503  11.00000  0.05    0.22
Q20   1  -0.5649  0.2095  0.0995  11.00000  0.05    0.22

  REM The information below was added by Olex2.
  REM
  REM R1 = 0.0295 for 3134 Fo > 4sig(Fo) and 0.0301 for all 9664 data
  REM n/a parameters refined using n/a restraints
  REM Highest difference peak 0.31, deepest hole -0.36
  REM Mean Shift 0, Max Shift 0.001.

  REM +++ Tabular Listing of Refinement Information +++
  REM R1_all = 0.0301
  REM R1_gt = 0.0295
  REM wR_ref = 0.0727
  REM GOOF = 1.047
  REM Shift_max = 0.001
  REM Shift_mean = 0
  REM Reflections_all = 9664
  REM Reflections_gt = 3134
  REM Parameters = n/a
  REM Hole = -0.36
  REM Peak = 0.31
  REM Flack = 0.00(2)

  
;
_cod_data_source_file            c9sc03425k2.cif
_cod_data_source_block           a20190132_acn1250b
_cod_original_cell_volume        865.97(3)
_cod_database_code               1552166
loop_
_symmetry_equiv_pos_as_xyz
'x, y, z'
'-x, y+1/2, -z'
loop_
_atom_site_label
_atom_site_type_symbol
_atom_site_fract_x
_atom_site_fract_y
_atom_site_fract_z
_atom_site_U_iso_or_equiv
_atom_site_adp_type
_atom_site_occupancy
_atom_site_site_symmetry_order
_atom_site_calc_flag
_atom_site_refinement_flags_posn
Br1 Br 0.32860(7) 0.45636(4) 1.02403(7) 0.02716(15) Uani 1 1 d .
Br2 Br 0.84180(7) 0.52658(5) 0.74644(7) 0.03350(17) Uani 1 1 d .
Cl1 Cl 0.94087(19) 0.66908(10) 1.3902(2) 0.0341(3) Uani 1 1 d .
O1 O 0.0038(6) 0.4100(3) 0.5393(5) 0.0304(9) Uani 1 1 d .
O2 O 0.3894(5) 0.6017(3) 0.3880(5) 0.0260(8) Uani 1 1 d .
O3 O 0.4541(5) 0.6646(3) 0.6546(5) 0.0231(8) Uani 1 1 d .
N1 N 0.2066(5) 0.4543(4) 0.4383(5) 0.0211(8) Uani 1 1 d .
H1 H 0.238227 0.44972 0.351234 0.025 Uiso 1 1 calc R
N2 N 0.0260(6) 0.3551(3) 0.1371(6) 0.0238(10) Uani 1 1 d .
C1 C 0.0573(7) 0.4087(3) 0.4246(7) 0.0200(11) Uani 1 1 d .
C2 C -0.0430(7) 0.3535(3) 0.2547(7) 0.0217(11) Uani 1 1 d .
C3 C -0.0629(8) 0.3060(4) -0.0122(8) 0.0305(13) Uani 1 1 d .
H3 H -0.016361 0.306225 -0.097599 0.037 Uiso 1 1 calc R
C4 C -0.2199(8) 0.2544(4) -0.0496(7) 0.0308(13) Uani 1 1 d .
H4 H -0.279285 0.22067 -0.158095 0.037 Uiso 1 1 calc R
C5 C -0.2881(8) 0.2533(4) 0.0744(8) 0.0353(15) Uani 1 1 d .
H5 H -0.395215 0.218676 0.053205 0.042 Uiso 1 1 calc R
C6 C -0.1964(7) 0.3036(4) 0.2300(7) 0.0271(13) Uani 1 1 d .
H6 H -0.238734 0.303786 0.318523 0.033 Uiso 1 1 calc R
C7 C 0.3171(6) 0.5108(3) 0.5928(6) 0.0169(10) Uani 1 1 d .
H7 H 0.239569 0.534944 0.648513 0.02 Uiso 1 1 calc R
C8 C 0.4708(7) 0.4483(4) 0.7289(6) 0.0208(10) Uani 1 1 d .
H8A H 0.416083 0.392223 0.759611 0.025 Uiso 1 1 calc R
H8B H 0.545698 0.423553 0.672246 0.025 Uiso 1 1 calc R
C9 C 0.5918(7) 0.4991(3) 0.8961(7) 0.0179(9) Uani 1 1 d .
C10 C 0.5465(6) 0.5114(3) 1.0368(6) 0.0194(10) Uani 1 1 d .
C11 C 0.6501(7) 0.5620(4) 1.1892(7) 0.0206(10) Uani 1 1 d .
H11 H 0.612368 0.569596 1.280339 0.025 Uiso 1 1 calc R
C12 C 0.8096(7) 0.6011(4) 1.2041(7) 0.0225(11) Uani 1 1 d .
C13 C 0.8678(7) 0.5896(4) 1.0733(7) 0.0224(11) Uani 1 1 d .
H13 H 0.980288 0.615053 1.086813 0.027 Uiso 1 1 calc R
C14 C 0.7566(7) 0.5398(4) 0.9228(7) 0.0207(10) Uani 1 1 d .
C15 C 0.3890(7) 0.5962(4) 0.5303(7) 0.0202(11) Uani 1 1 d .
C16 C 0.5376(9) 0.7450(4) 0.6110(9) 0.0361(14) Uani 1 1 d .
H16A H 0.445881 0.780316 0.511283 0.054 Uiso 1 1 calc GR
H16B H 0.631422 0.721645 0.578499 0.054 Uiso 1 1 calc GR
H16C H 0.592146 0.787736 0.713528 0.054 Uiso 1 1 calc GR
loop_
_atom_site_aniso_label
_atom_site_aniso_U_11
_atom_site_aniso_U_22
_atom_site_aniso_U_33
_atom_site_aniso_U_23
_atom_site_aniso_U_13
_atom_site_aniso_U_12
Br1 0.0199(3) 0.0379(3) 0.0245(3) -0.0013(2) 0.0104(2) -0.0072(2)
Br2 0.0214(3) 0.0617(4) 0.0210(3) 0.0031(3) 0.0126(2) 0.0046(3)
Cl1 0.0288(7) 0.0366(7) 0.0294(7) -0.0133(6) 0.0058(6) -0.0063(6)
O1 0.031(2) 0.038(2) 0.028(2) -0.0092(17) 0.0180(18) -0.0111(17)
O2 0.033(2) 0.0300(19) 0.0189(19) -0.0006(15) 0.0152(17) -0.0035(17)
O3 0.028(2) 0.0211(16) 0.0197(19) -0.0061(15) 0.0098(16) -0.0058(15)
N1 0.017(2) 0.0288(19) 0.016(2) -0.008(2) 0.0056(16) -0.005(2)
N2 0.020(2) 0.026(2) 0.022(2) -0.0049(18) 0.0058(19) 0.0024(18)
C1 0.020(3) 0.020(2) 0.016(2) -0.0006(19) 0.004(2) 0.002(2)
C2 0.021(3) 0.017(2) 0.024(3) -0.004(2) 0.007(2) -0.002(2)
C3 0.032(3) 0.030(3) 0.027(3) -0.009(2) 0.011(3) 0.001(2)
C4 0.027(3) 0.029(3) 0.023(3) -0.008(2) -0.001(2) -0.002(2)
C5 0.028(3) 0.029(3) 0.040(4) -0.005(3) 0.006(3) -0.007(2)
C6 0.021(3) 0.029(3) 0.030(3) -0.003(2) 0.009(2) -0.003(2)
C7 0.017(2) 0.019(2) 0.014(2) -0.0020(19) 0.0055(19) 0.0004(19)
C8 0.021(2) 0.022(2) 0.017(2) -0.001(2) 0.007(2) 0.001(2)
C9 0.018(2) 0.019(2) 0.015(2) 0.0005(18) 0.0057(19) 0.0020(17)
C10 0.014(2) 0.022(2) 0.021(3) 0.002(2) 0.006(2) -0.001(2)
C11 0.022(3) 0.022(2) 0.017(2) 0.003(2) 0.008(2) 0.005(2)
C12 0.020(3) 0.022(2) 0.022(3) -0.002(2) 0.005(2) 0.000(2)
C13 0.015(2) 0.026(2) 0.022(3) 0.002(2) 0.005(2) -0.002(2)
C14 0.017(2) 0.029(3) 0.019(2) 0.007(2) 0.010(2) 0.007(2)
C15 0.016(2) 0.023(2) 0.017(3) -0.002(2) 0.004(2) 0.001(2)
C16 0.045(4) 0.028(3) 0.040(3) -0.002(3) 0.023(3) -0.011(3)
loop_
_atom_type_symbol
_atom_type_description
_atom_type_scat_dispersion_real
_atom_type_scat_dispersion_imag
_atom_type_scat_source
C C 0.0181 0.0091 'International Tables Vol C Tables 4.2.6.8 and 6.1.1.4'
H H 0 0 'International Tables Vol C Tables 4.2.6.8 and 6.1.1.4'
Br Br -0.6763 1.2805 'International Tables Vol C Tables 4.2.6.8 and 6.1.1.4'
Cl Cl 0.3639 0.7018 'International Tables Vol C Tables 4.2.6.8 and 6.1.1.4'
N N 0.0311 0.018 'International Tables Vol C Tables 4.2.6.8 and 6.1.1.4'
O O 0.0492 0.0322 'International Tables Vol C Tables 4.2.6.8 and 6.1.1.4'
loop_
_exptl_crystal_face_index_h
_exptl_crystal_face_index_k
_exptl_crystal_face_index_l
_exptl_crystal_face_perp_dist
2 0 1 0.1665
5 -3 -4 0.07
-2 -1 -3 0.1874
-5 3 4 0.0453
-1 9 1 0.0096
-1 -9 0 0.0505
loop_
_geom_angle_atom_site_label_1
_geom_angle_atom_site_label_2
_geom_angle_atom_site_label_3
_geom_angle
C15 O3 C16 115.2(4)
C1 N1 H1 119.1
C1 N1 C7 121.7(4)
C7 N1 H1 119.1
C3 N2 C2 116.9(5)
O1 C1 N1 123.8(5)
O1 C1 C2 121.2(5)
N1 C1 C2 115.0(4)
N2 C2 C1 117.2(5)
N2 C2 C6 123.7(5)
C6 C2 C1 119.1(5)
N2 C3 H3 118.3
N2 C3 C4 123.5(6)
C4 C3 H3 118.3
C3 C4 H4 120.7
C5 C4 C3 118.6(5)
C5 C4 H4 120.7
C4 C5 H5 120.8
C6 C5 C4 118.3(6)
C6 C5 H5 120.8
C2 C6 C5 119.0(6)
C2 C6 H6 120.5
C5 C6 H6 120.5
N1 C7 H7 108.9
N1 C7 C8 110.2(4)
N1 C7 C15 107.5(4)
C8 C7 H7 108.9
C15 C7 H7 108.9
C15 C7 C8 112.3(4)
C7 C8 H8A 108.6
C7 C8 H8B 108.6
H8A C8 H8B 107.5
C9 C8 C7 114.8(4)
C9 C8 H8A 108.6
C9 C8 H8B 108.6
C10 C9 C8 122.6(5)
C14 C9 C8 122.9(5)
C14 C9 C10 114.5(4)
C9 C10 Br1 119.7(4)
C11 C10 Br1 116.1(4)
C11 C10 C9 124.2(5)
C10 C11 H11 121.2
C12 C11 C10 117.6(5)
C12 C11 H11 121.2
C11 C12 Cl1 119.3(4)
C11 C12 C13 121.9(5)
C13 C12 Cl1 118.8(4)
C12 C13 H13 121.2
C14 C13 C12 117.7(5)
C14 C13 H13 121.2
C9 C14 Br2 119.9(4)
C13 C14 Br2 116.1(4)
C13 C14 C9 124.0(5)
O2 C15 O3 123.9(5)
O2 C15 C7 124.5(5)
O3 C15 C7 111.7(4)
O3 C16 H16A 109.5
O3 C16 H16B 109.5
O3 C16 H16C 109.5
H16A C16 H16B 109.5
H16A C16 H16C 109.5
H16B C16 H16C 109.5
loop_
_geom_bond_atom_site_label_1
_geom_bond_atom_site_label_2
_geom_bond_distance
Br1 C10 1.908(5)
Br2 C14 1.906(5)
Cl1 C12 1.742(6)
O1 C1 1.223(7)
O2 C15 1.200(6)
O3 C15 1.341(6)
O3 C16 1.442(6)
N1 H1 0.88
N1 C1 1.341(7)
N1 C7 1.450(6)
N2 C2 1.339(7)
N2 C3 1.333(7)
C1 C2 1.510(7)
C2 C6 1.374(7)
C3 H3 0.95
C3 C4 1.387(8)
C4 H4 0.95
C4 C5 1.384(9)
C5 H5 0.95
C5 C6 1.382(8)
C6 H6 0.95
C7 H7 1
C7 C8 1.550(6)
C7 C15 1.519(7)
C8 H8A 0.99
C8 H8B 0.99
C8 C9 1.499(7)
C9 C10 1.397(7)
C9 C14 1.394(7)
C10 C11 1.383(7)
C11 H11 0.95
C11 C12 1.374(7)
C12 C13 1.388(8)
C13 H13 0.95
C13 C14 1.380(8)
C16 H16A 0.98
C16 H16B 0.98
C16 H16C 0.98
loop_
_geom_torsion_atom_site_label_1
_geom_torsion_atom_site_label_2
_geom_torsion_atom_site_label_3
_geom_torsion_atom_site_label_4
_geom_torsion
Br1 C10 C11 C12 178.8(4)
Cl1 C12 C13 C14 -176.5(4)
O1 C1 C2 N2 -179.3(5)
O1 C1 C2 C6 -0.4(8)
N1 C1 C2 N2 0.3(7)
N1 C1 C2 C6 179.2(5)
N1 C7 C8 C9 -178.8(4)
N1 C7 C15 O2 -16.2(7)
N1 C7 C15 O3 164.5(4)
N2 C2 C6 C5 -1.2(8)
N2 C3 C4 C5 -0.3(9)
C1 N1 C7 C8 92.6(6)
C1 N1 C7 C15 -144.7(5)
C1 C2 C6 C5 179.9(5)
C2 N2 C3 C4 -0.1(8)
C3 N2 C2 C1 179.8(4)
C3 N2 C2 C6 0.9(8)
C3 C4 C5 C6 0.0(8)
C4 C5 C6 C2 0.7(8)
C7 N1 C1 O1 -0.8(8)
C7 N1 C1 C2 179.6(4)
C7 C8 C9 C10 82.3(6)
C7 C8 C9 C14 -96.4(6)
C8 C7 C15 O2 105.2(6)
C8 C7 C15 O3 -74.1(5)
C8 C9 C10 Br1 3.2(6)
C8 C9 C10 C11 -176.6(5)
C8 C9 C14 Br2 -3.0(7)
C8 C9 C14 C13 177.9(5)
C9 C10 C11 C12 -1.4(8)
C10 C9 C14 Br2 178.3(4)
C10 C9 C14 C13 -0.8(7)
C10 C11 C12 Cl1 177.8(4)
C10 C11 C12 C13 -0.9(8)
C11 C12 C13 C14 2.1(8)
C12 C13 C14 Br2 179.7(4)
C12 C13 C14 C9 -1.3(8)
C14 C9 C10 Br1 -178.0(4)
C14 C9 C10 C11 2.2(7)
C15 C7 C8 C9 61.3(6)
C16 O3 C15 O2 -3.8(7)
C16 O3 C15 C7 175.5(4)
