#------------------------------------------------------------------------------
#$Date: 2019-11-11 23:11:02 +0200 (Mon, 11 Nov 2019) $
#$Revision: 227417 $
#$URL: file:///home/coder/svn-repositories/cod/cif/1/55/27/1552785.cif $
#------------------------------------------------------------------------------
#
# This file is available in the Crystallography Open Database (COD),
# http://www.crystallography.net/
#
# All data on this site have been placed in the public domain by the
# contributors.
#
data_1552785
loop_
_publ_author_name
'Tidey, Jeremiah P.'
'Zhurov, Vladimir V.'
'Gianopoulos, Christopher G.'
'Hermann, Tobias S.'
'Pinkerton, A. Alan'
_publ_section_title
;
 QTAIM Assessment of the Intra- and Intermolecular Bonding in a
 Bis(nitramido-oxadiazolate) Energetic Ionic Salt at 20 K.
;
_journal_issue                   50
_journal_name_full               'The journal of physical chemistry. A'
_journal_page_first              9676
_journal_page_last               9687
_journal_paper_doi               10.1021/acs.jpca.8b10065
_journal_volume                  122
_journal_year                    2018
_chemical_formula_moiety         'C4 N8 O6, 2(H2 O), 2(H4 N)'
_chemical_formula_sum            'C4 H12 N10 O8'
_chemical_formula_weight         328.24
_chemical_name_systematic
;
bis-ammonium 2,2'-dinitramino-5,5'-bis(1-oxa-3,4-diazolate) dihydrate
;
_space_group_crystal_system      monoclinic
_space_group_IT_number           14
_space_group_name_Hall           '-P 2yn'
_space_group_name_H-M_alt        'P 1 21/n 1'
_atom_sites_solution_hydrogens   difmap
_atom_sites_solution_primary     direct
_atom_sites_solution_secondary   difmap
_cell_angle_alpha                90
_cell_angle_beta                 94.6091(13)
_cell_angle_gamma                90
_cell_formula_units_Z            2
_cell_length_a                   6.7338(1)
_cell_length_b                   6.9787(2)
_cell_length_c                   13.2786(2)
_cell_measurement_reflns_used    75793
_cell_measurement_temperature    20.0(1)
_cell_measurement_theta_max      71.017
_cell_measurement_theta_min      3.078
_cell_volume                     621.99(2)
_computing_cell_refinement       'Otwinowski & Minor (1997)'
_computing_data_collection       'CrystalClear, (2005)'
_computing_data_reduction
;
Zhurova et al.,(1999); Zhurov et al.,(2008); Blessing, (1995; 1997)
;
_computing_molecular_graphics
;
Volkov et al., (2006); Stash & Tsirelson, (2002; 2005)
;
_computing_publication_material  'Volkov et al., (2006)'
_computing_structure_refinement  'Volkov et al., (2006)'
_computing_structure_solution    'Sheldrick (2008)'
_diffrn_ambient_temperature      20.0(1)
_diffrn_measured_fraction_theta_full 0.980
_diffrn_measured_fraction_theta_max 0.793
_diffrn_measurement_device       'Rigaku R-axis Rapid II'
_diffrn_measurement_method       w
_diffrn_radiation_type           'Mo K\a'
_diffrn_radiation_wavelength     0.71073
_diffrn_reflns_av_R_equivalents  0.0137
_diffrn_reflns_av_unetI/netI     0.0092
_diffrn_reflns_limit_h_max       17
_diffrn_reflns_limit_h_min       -17
_diffrn_reflns_limit_k_max       17
_diffrn_reflns_limit_k_min       0
_diffrn_reflns_limit_l_max       35
_diffrn_reflns_limit_l_min       0
_diffrn_reflns_number            75793
_diffrn_reflns_theta_full        25.242
_diffrn_reflns_theta_max         71.017
_diffrn_reflns_theta_min         3.078
_exptl_absorpt_coefficient_mu    0.164
_exptl_absorpt_correction_type   none
_exptl_crystal_colour            colourless
_exptl_crystal_density_diffrn    1.753
_exptl_crystal_description       block
_exptl_crystal_F_000             340
_exptl_crystal_size_max          0.30
_exptl_crystal_size_mid          0.29
_exptl_crystal_size_min          0.21
_refine_diff_density_max         0.147
_refine_diff_density_min         -0.113
_refine_diff_density_rms         0.023
_refine_ls_extinction_coef       0.640(12)
_refine_ls_extinction_expression
;
Becker, P.J. & Coppens, P. (1974) Acta Cryst., A30, 129-153.
;
_refine_ls_extinction_method     'Becker-Coppens type 1 Lorentzian isotropic'
_refine_ls_goodness_of_fit_ref   1.3807
_refine_ls_hydrogen_treatment    mixed
_refine_ls_matrix_type           full
_refine_ls_number_parameters     764
_refine_ls_number_reflns         9736
_refine_ls_number_restraints     0
_refine_ls_R_factor_all          0.0094
_refine_ls_R_factor_gt           0.0094
_refine_ls_R_Fsqd_factor         0.0109
_refine_ls_shift/su_max          0.00000013
_refine_ls_structure_factor_coef F
_refine_ls_weighting_details
;
calc w1 = [Fo*sqrt(w2) + sqrt(Fo^2^w2^2^ + sqrt(w2^2^))]^2^
where
     calc w2 = q/[s^2^(Fo^2^) + (0.00 P)^2^ + 0.00 P + 0.00 + 0.00 sin(th)]
     where P = (0.3333 Fo^2^ + 0.6667 Fc^2^)
           q = 1.0
;
_refine_ls_weighting_scheme      calc
_refine_ls_wR_factor_ref         0.0067
_reflns_number_gt                9736
_reflns_number_total             11081
_reflns_threshold_expression
;
 I>3\s(I), non-overlapped & non-partial reflections
;
_iucr_refine_instructions_details
;

## XD.mas file ##
!!!!!!!!!!!!!!!!!!!!!!!!!!!!!!!!!!!!!!!!!!!!!!!!!!!!!!!!!!!!!!!!!!!!!!!!!!!!!!
! <<< X D MASTER FILE >>> $Revision: 5.02b (Oct 17 2006)$           11-Dec-12!
!!!!!!!!!!!!!!!!!!!!!!!!!!!!!!!!!!!!!!!!!!!!!!!!!!!!!!!!!!!!!!!!!!!!!!!!!!!!!!
TITLE TKOx_He
CELL      6.7338    6.9787   13.2786   90.0000   94.6091   90.0000
WAVE     0.71073
CELLSD    0.0001    0.0002    0.0002     0.000     0.001     0.000
LATT  C P
SYMM 0.5-X,0.5+Y,0.5-Z
BANK VM
SIZE NCST 100
!!!!!!!!!!!!!!!!!!!!!!!!!!!!!!!!!!!!!!!!!!!!!!!!!!!!!!!!!!!!!!!!!!!!!!!!!!!!!!
    MODULE *XDLSM
SELECT  model 4 4 1 1 based_on F test verbose 1
SELECT  cycle 400 dampk 1.0 cmin 0.6 cmax 1. eigcut 1.d-09 convcrit 0.0
SAVE  deriv lsqmat *cormat
SOLVE  *inv diag *cond
!-----------------------------------------------------------------------------
SCAT CORE SPHV DEFV   1S  2S  3S  4S  2P  3P 4P 3D 4D  ELF'   DELF''  NSCTL
O    CHFW CHFW CSZD    2  -2   0   0  -4   0  0  0  0  0.0110  0.0060  0.580
N    CHFW CHFW CSZD    2  -2   0   0  -3   0  0  0  0  0.0060  0.0030  0.936
C    CHFW CHFW CSZD    2  -2   0   0  -2   0  0  0  0  0.0030  0.0020  0.665
H    CHFW CHFW CSZD   -1   0   0   0   0   0  0  0  0  0.0000  0.0000 -0.374
END SCAT
!-----------------------------------------------------------------------------
ATOM     ATOM0    AX1 ATOM1    ATOM2   AX2 R/L TP TBL KAP LMX SITESYM  CHEMCON
O(1)     DUM4      Z  O(1)     C(1)     Y   R   4  1   1   4  NO
O(2)     N(4)      X  O(2)     O(3)     Y   R   4  1   2   4  NO
O(3)     N(4)      X  O(3)     O(2)     Y   L   4  1   3   4  NO
O(4)     DUM1      Z  O(4)     N(5)     Y   R   4  1   4   4  NO
N(1)     N(2)      X  N(1)     C(1)     Y   R   4  2   5   4  NO
N(2)     N(1)      X  N(2)     C(2)     Y   L   4  2   6   4  NO
N(3)     N(4)      X  N(3)     C(2)     Y   R   4  2   7   4  NO
N(4)     N(3)      X  N(4)     O(2)     Y   R   4  2   8   4  NO
N(5)     DUM3      Z  N(5)     O(4)     Y   R   4  2   9   4  NO
C(1)     DUM0      X  C(1)     C(2)     Y   R   4  3  10   4  NO
C(2)     N(3)      X  C(2)     C(1)     Y   L   4  3  11   4  NO
H(4A)    O(4)      Z  H(4A)    DUM1     Y   R   2  4  12   2  NO
H(4B)    O(4)      Z  H(4B)    DUM1     Y   R   2  4  12   2  NO
H(5A)    N(5)      Z  H(5A)    DUM2     Y   R   2  4  12   2  NO
H(5B)    N(5)      Z  H(5B)    DUM2     Y   R   2  4  12   2  NO
H(5C)    N(5)      Z  H(5C)    DUM3     Y   R   2  4  12   2  NO
H(5D)    N(5)      Z  H(5D)    DUM3     Y   R   2  4  12   2  NO
DUM0      0.0000  0.5000  0.0000
DUM1      0.881  -0.466  -0.294
DUM2      0.459  -0.569  -0.229
DUM3      0.550  -0.450  -0.168
DUM4      0.113   0.283  -0.028
END ATOM
!-----------------------------------------------------------------------------
GROUP2   O(4) H(4A) H(4B)
GROUP3   N(5) H(5A) H(5B) H(5C) H(5D)
KEEP    kappa  1  2  3  4  8  10
KEEP    charge group1
KEEP    rigid GROUP2
KEEP    rigid GROUP3
RESET   bond O(4) H(4A) 0.975  O(4) H(4B) 0.977
RESET   bond N(5) H(5A) 1.030  N(5) H(5B) 1.034
RESET   bond N(5) H(5C) 1.026  N(5) H(5D) 1.037
WEIGHT   0.002725 0.002725 .0 .0 .0 0.3333
SKIP   obs 0. 1.d10 *sigobs 3. 1.d06 *sinthl 0. 1.35
PRINT  sinthl .0 2. obs 0. 15. delta 0. 10. *del% 80 100 extcn 80. 100. *abssc
EXTCN  *iso aniso *type_1 type_2 type_3 distr_g *distr_l msc_0  msc_1
!DMSDA    1.1  1.8
FOUR     fmod1 4 4 0 0  fmod2 -1 4 0 0
!CON      num1 par1/iat1 num2 par2/iat2 ... = num0
!-----------------------------------------------------------------------------
KEY     XYZ --U2-- ----U3---- ------U4------- M- -D- --Q-- ---O--- ----H----
O(1)    111 111111 1111111111 111111111111111 10 111 11111 1111111 111111111
O(2)    111 111111 1111111111 111111111111111 10 111 11111 1111111 111111111
O(3)    111 111111 1111111111 111111111111111 10 111 11111 1111111 111111111
O(4)    111 111111 1111111111 111111111111111 10 111 11111 1111111 111111111
N(1)    111 111111 1111111111 111111111111111 10 111 11111 1111111 111111111
N(2)    111 111111 1111111111 111111111111111 10 111 11111 1111111 111111111
N(3)    111 111111 1111111111 111111111111111 10 111 11111 1111111 111111111
N(4)    111 111111 1111111111 111111111111111 10 111 11111 1111111 111111111
N(5)    111 111111 1111111111 111111111111111 10 111 11111 1111111 111111111
C(1)    111 111111 1111111111 111111111111111 10 111 11111 1111111 111111111
C(2)    111 111111 1111111111 111111111111111 10 111 11111 1111111 111111111
H(4A)   000 111111 0000000000 000000000000000 10 111 11111 0000000 000000000
H(4B)   000 111111 0000000000 000000000000000 10 111 11111 0000000 000000000
H(5A)   000 111111 0000000000 000000000000000 10 111 11111 0000000 000000000
H(5B)   000 111111 0000000000 000000000000000 10 111 11111 0000000 000000000
H(5C)   000 111111 0000000000 000000000000000 10 111 11111 0000000 000000000
H(5D)   000 111111 0000000000 000000000000000 10 111 11111 0000000 000000000
KAPPA   110000
KAPPA   110000
KAPPA   110000
KAPPA   110000
KAPPA   101111
KAPPA   101111
KAPPA   101111
KAPPA   110000
KAPPA   101111
KAPPA   110000
KAPPA   101111
KAPPA   000000
EXTCN   1000000
OVTHP   0
SCALE   1
END KEY
!-----------------------------------------------------------------------------
## end xd.mas file ##

## xd.res file ##
!!!!!!!!!!!!!!!!!!!!!!!!!!!!!!!!!!!!!!!!!!!!!!!!!!!!!!!!!!!!!!!!!!!!!!!!!!!!!!
! <<< X D PARAMETER FILE >>> $Revision: 6.03 (Jul 23 2008)$         12-Jul-07!
!!!!!!!!!!!!!!!!!!!!!!!!!!!!!!!!!!!!!!!!!!!!!!!!!!!!!!!!!!!!!!!!!!!!!!!!!!!!!!
XDPARFILE VERSION  2
   TKOX_HE  MODEL   4  4  1  1
LIMITS nat    17 ntx  31 lmx  4 nzz  12 nto  0 nsc  20 ntb   4 nov    778
USAGE     17   4  4  12   0   1  11  14   4   2   778   2 400  5
  0.009375  0.010889  0.009375  0.010889
  0.006681  0.013132  1.169612 0.123E+05
  0.002725  0.002725  0.000000  0.000000  0.000000  0.333300
   0.0000000000   0.5000000000   0.0000000000
   0.8810000000  -0.4660000000  -0.2940000000
   0.4590000000  -0.5690000000  -0.2290000000
   0.5500000000  -0.4500000000  -0.1680000000
   0.1130000000   0.2830000000  -0.0280000000
O(1)      3 2   22   1  10 4  1  1 4  1   0  0.119357  0.274589  0.036693 1.00
  0.007587  0.005243  0.003969  0.001710  0.000533 -0.000157
   0.0000154778  -0.0001299297   0.0000259370   0.0000120620   0.0000312853
   0.0000246409   0.0000021213   0.0000769369  -0.0000018535  -0.0000273457
   0.0002224691   0.0001368761   0.0000020710   0.0000455407   0.0000545654
   0.0000045162   0.0000015286  -0.0000008060   0.0000001047   0.0000837513
   0.0000098090   0.0000069777  -0.0000031286   0.0000025488   0.0000031972
  6.2167  0.0000
 -0.0034  0.0043 -0.0689
  0.0611  0.0018 -0.0063  0.0298  0.0054
 -0.0418 -0.0015 -0.0012 -0.0592  0.0000  0.0042 -0.0040
 -0.0149  0.0001 -0.0042 -0.0136 -0.0008  0.0058 -0.0045  0.0063  0.0067
O(2)      1 2    8   2   3 4  1  2 4  1   0  0.394340 -0.297561 -0.006823 1.00
  0.009177  0.005188  0.007486  0.002393 -0.000085  0.000955
  -0.0000261589  -0.0001696450   0.0000107199  -0.0000436243   0.0000742111
   0.0000062535  -0.0000040857   0.0000051676  -0.0000079491  -0.0000094499
   0.0001495359   0.0000867188   0.0000182008   0.0000671188   0.0000635174
  -0.0000106464  -0.0000030962   0.0000255955   0.0000059559   0.0000560907
   0.0000205795   0.0000151405   0.0000079947  -0.0000028823   0.0000079957
  6.2754  0.0000
 -0.1029 -0.0005  0.0027
 -0.0425  0.0177 -0.0078 -0.1225 -0.0049
  0.0008 -0.0202 -0.0028 -0.0013  0.0018  0.0365  0.0021
  0.0174 -0.0017  0.0026 -0.0217  0.0058  0.0009 -0.0002  0.0273 -0.0011
O(3)      1 2   -8   3   2 4  1  3 4  1   0  0.297301 -0.137885 -0.142836 1.00
  0.012360  0.008437  0.004685  0.002715  0.000265 -0.000390
  -0.0002674313   0.0001051673  -0.0000445950  -0.0000746256  -0.0000854026
   0.0000152470  -0.0000192886  -0.0000433247   0.0000035873   0.0000281829
   0.0002267046   0.0003896345   0.0000054016  -0.0000121078  -0.0000126136
  -0.0000007312  -0.0000012833  -0.0000040482  -0.0000016987   0.0001103664
   0.0000132068   0.0000157234  -0.0000043771   0.0000003095  -0.0000014799
  6.0407  0.0000
 -0.1129  0.0084 -0.0056
 -0.0303 -0.0072 -0.0087 -0.1320 -0.0069
 -0.0059 -0.0275 -0.0034 -0.0003  0.0019  0.0345 -0.0114
  0.0095  0.0005 -0.0011 -0.0126 -0.0035  0.0000  0.0027  0.0048 -0.0016
O(4)      3 2   19   4   9 4  1  4 4  1   0  0.862651 -0.380095 -0.278543 1.00
  0.009604  0.008672  0.007103  0.000912 -0.000018  0.000327
  -0.0001921731   0.0003766600   0.0000237181   0.0001243833  -0.0001237535
   0.0000144498  -0.0000080365   0.0000259128   0.0000434587   0.0000058682
   0.0002220898   0.0002368734   0.0000014191   0.0000556110   0.0000808319
  -0.0000268562  -0.0000065392   0.0000051565  -0.0000002228   0.0000927609
   0.0000089956   0.0000066507   0.0000026360  -0.0000056185   0.0000040560
  6.3872  0.0000
 -0.0021 -0.0023 -0.0254
 -0.0246 -0.0085  0.0074 -0.0174  0.0069
 -0.0695 -0.0191 -0.0193  0.1254  0.0069  0.0150 -0.0451
 -0.0316 -0.0078  0.0101  0.0317  0.0076  0.0059 -0.0289  0.0199  0.0017
N(1)      1 2    6   5  10 4  2  5 4  1   0  0.061470  0.388797 -0.118237 1.00
  0.008061  0.005029  0.004800  0.001932  0.000407 -0.000126
  -0.0001213582  -0.0001248062  -0.0000090722  -0.0000662224  -0.0000314385
   0.0000023430  -0.0000002335  -0.0000162044  -0.0000058911   0.0000040134
   0.0000880355   0.0000326066   0.0000117427   0.0000507981   0.0000400456
   0.0000040503   0.0000026679  -0.0000217382  -0.0000037729   0.0000249866
   0.0000121279   0.0000067311  -0.0000063165   0.0000009832   0.0000036528
  5.1284  0.0000
 -0.0877 -0.0713 -0.0125
 -0.1322 -0.0076 -0.0083 -0.0724  0.0586
 -0.0031 -0.0469 -0.0304 -0.0034  0.0111  0.1137 -0.0446
  0.0197 -0.0009  0.0006 -0.0082  0.0001 -0.0005 -0.0017  0.0304  0.0128
N(2)      1 2   -5   6  11 4  2  6 4  1   0  0.154314  0.211086 -0.124982 1.00
  0.007892  0.005181  0.004685  0.001761  0.000446  0.000018
  -0.0000859692   0.0001019882   0.0000147207  -0.0000144191   0.0000200852
   0.0000399582   0.0000016616   0.0000241392   0.0000013682   0.0000043605
   0.0001080594   0.0001029909   0.0000130178   0.0000522469   0.0000344975
  -0.0000080353  -0.0000003122   0.0000132390   0.0000031949   0.0000333255
   0.0000120834   0.0000065827   0.0000103664  -0.0000012308   0.0000035589
  5.1816  0.0000
 -0.0804 -0.0908  0.0103
 -0.0876  0.0094 -0.0049 -0.1065  0.0717
 -0.0010 -0.0521 -0.0532 -0.0072  0.0061  0.1778 -0.0793
  0.0175  0.0011 -0.0022 -0.0102  0.0121  0.0106 -0.0005  0.0834  0.0451
N(3)      1 2    8   7  11 4  2  7 4  1   0  0.264014 -0.013427  0.012693 1.00
  0.007532  0.004726  0.004834  0.001766  0.000186  0.000073
  -0.0000433692  -0.0001242731   0.0000150817  -0.0000104888  -0.0000140476
   0.0000060030  -0.0000057024   0.0000274126   0.0000054926  -0.0000064911
   0.0001652991   0.0000835849   0.0000087394   0.0000445632   0.0000568626
  -0.0000057094  -0.0000017881   0.0000028632   0.0000010173   0.0000454662
   0.0000104147   0.0000093828   0.0000039984   0.0000001273   0.0000029006
  5.0066  0.0000
 -0.1051 -0.1441  0.0072
 -0.0058  0.0026 -0.0086 -0.0628  0.0358
  0.0024 -0.0152 -0.0262  0.0042  0.0012  0.1176 -0.0045
  0.0218  0.0020  0.0025 -0.0111  0.0068 -0.0006  0.0050  0.0244  0.0190
N(4)      1 2    7   8   2 4  2  8 4  1   0  0.318927 -0.150515 -0.049284 1.00
  0.006216  0.004588  0.004613  0.000919  0.000238  0.000037
  -0.0000373389   0.0000230666   0.0000153978  -0.0000176785  -0.0000015137
   0.0000134360  -0.0000103681   0.0000224317   0.0000047043  -0.0000045906
   0.0002940210   0.0001259708   0.0000010254   0.0000591288   0.0000277896
  -0.0000005776  -0.0000018151   0.0000080821   0.0000020597   0.0000782750
   0.0000101222   0.0000056585   0.0000033010   0.0000008529   0.0000042892
  5.1112  0.0000
 -0.0244 -0.0418  0.0044
 -0.2726 -0.0051  0.0080 -0.0310  0.0537
  0.0099  0.0191  0.0087  0.0004  0.0048  0.4575 -0.0881
  0.0305  0.0031 -0.0001 -0.0007  0.0012 -0.0131 -0.0014 -0.0062  0.0082
N(5)      3 2   21   9   4 4  2  9 4  1   0  0.504253 -0.497318 -0.194509 1.00
  0.008797  0.007343  0.006996  0.001217  0.000518  0.000231
  -0.0001730908   0.0000275708   0.0000014040  -0.0000228093   0.0001055932
   0.0000105771   0.0000155655  -0.0000008761  -0.0000064840   0.0000119515
   0.0000842375   0.0000609287   0.0000040425   0.0000641424   0.0000316893
  -0.0000111817  -0.0000000554  -0.0000021991   0.0000011149   0.0000533179
   0.0000024410   0.0000058439   0.0000009074  -0.0000036350   0.0000001665
  5.3747  0.0000
 -0.0102  0.0388  0.0080
 -0.0114  0.0031 -0.0165 -0.0106  0.0120
  0.0017 -0.0213 -0.0060 -0.3748 -0.0033  0.0077  0.0013
 -0.0915  0.0165  0.0030 -0.0025 -0.0035  0.0128 -0.0126  0.0605 -0.0051
C(1)      1 2   18  10  11 4  3 10 4  1   0  0.044255  0.418657 -0.023185 1.00
  0.006191  0.004284  0.004418  0.001205  0.000475 -0.000146
  -0.0000735120   0.0001028211   0.0000045636   0.0000271769  -0.0000090523
  -0.0000110120  -0.0000013295  -0.0000080850   0.0000026383   0.0000029047
   0.0001284210   0.0000434276   0.0000014133   0.0000428346   0.0000399507
  -0.0000002904   0.0000012019   0.0000224912   0.0000025946   0.0000418935
   0.0000034949   0.0000014243   0.0000059332   0.0000000794   0.0000012837
  4.0119  0.0000
 -0.0530 -0.0812 -0.0041
 -0.1855 -0.0045  0.0143  0.0302  0.0993
  0.0102  0.0095 -0.0434 -0.0019 -0.0162  0.3836 -0.0408
  0.0359  0.0097 -0.0080 -0.0128  0.0303 -0.0073  0.0034 -0.0684  0.0529
C(2)      1 2   -7  11  10 4  3 11 4  1   0  0.184956  0.147145 -0.032229 1.00
  0.005668  0.004219  0.004550  0.000901  0.000477 -0.000220
  -0.0000067968  -0.0000205363  -0.0000019663  -0.0000132826  -0.0000367292
  -0.0000267544  -0.0000026715  -0.0000423184  -0.0000052355   0.0000010379
   0.0001116943   0.0000123815   0.0000060260   0.0000298216   0.0000140094
   0.0000133580   0.0000042057  -0.0000065419  -0.0000032901   0.0000382327
   0.0000079489   0.0000048286  -0.0000037399   0.0000055258   0.0000004785
  4.0001  0.0000
  0.0797 -0.2418  0.0023
 -0.2951  0.0084 -0.0020  0.1264  0.0924
 -0.0083 -0.0175 -0.0223 -0.0023 -0.0196  0.3676 -0.1641
  0.0857  0.0102 -0.0017 -0.0287  0.0546  0.0116 -0.0110  0.0526  0.1124
H(4A)     3 2    4  12  19 2  4 12 2  1   0  0.957012 -0.461017 -0.238537 1.00
  0.026756  0.022783  0.022517 -0.000840 -0.002616  0.003911
  0.7681  0.0000
  0.0076  0.0501  0.2074
  0.0941  0.0426  0.0486 -0.0009 -0.0057
  0.0000  0.0000  0.0000  0.0000  0.0000  0.0000  0.0000
  0.0000  0.0000  0.0000  0.0000  0.0000  0.0000  0.0000  0.0000  0.0000
H(4B)     3 2    4  13  19 2  4 12 2  1   0  0.842204 -0.430794 -0.347176 1.00
  0.023456  0.028292  0.014405 -0.001172 -0.000418 -0.002993
  0.7655  0.0000
  0.0126  0.0292  0.1869
  0.1178  0.0048  0.0353  0.0108 -0.0028
  0.0000  0.0000  0.0000  0.0000  0.0000  0.0000  0.0000
  0.0000  0.0000  0.0000  0.0000  0.0000  0.0000  0.0000  0.0000  0.0000
H(5A)     3 2    9  14  20 2  4 12 2  1   0  0.397942 -0.453099 -0.249724 1.00
  0.017003  0.025865  0.020556  0.008264 -0.001420  0.002339
  0.6799  0.0000
  0.0073 -0.0166  0.1752
  0.0824  0.0096  0.0208  0.0087 -0.0210
  0.0000  0.0000  0.0000  0.0000  0.0000  0.0000  0.0000
  0.0000  0.0000  0.0000  0.0000  0.0000  0.0000  0.0000  0.0000  0.0000
H(5B)     3 2    9  15  20 2  4 12 2  1   0  0.523110 -0.644250 -0.196841 1.00
  0.024553  0.011299  0.026691  0.003092  0.004823 -0.000253
  0.6876  0.0000
 -0.0182  0.0031  0.1838
  0.1098 -0.0201  0.0078  0.0069 -0.0132
  0.0000  0.0000  0.0000  0.0000  0.0000  0.0000  0.0000
  0.0000  0.0000  0.0000  0.0000  0.0000  0.0000  0.0000  0.0000  0.0000
H(5C)     3 2    9  16  21 2  4 12 2  1   0  0.466016 -0.452541 -0.125054 1.00
  0.023783  0.019525  0.009727  0.002531  0.003797 -0.005891
  0.6655  0.0000
  0.0114  0.0467  0.1573
  0.0826 -0.0062  0.0119 -0.0088  0.0144
  0.0000  0.0000  0.0000  0.0000  0.0000  0.0000  0.0000
  0.0000  0.0000  0.0000  0.0000  0.0000  0.0000  0.0000  0.0000  0.0000
H(5D)     3 2    9  17  21 2  4 12 2  1   0  0.637100 -0.438305 -0.214150 1.00
  0.016079  0.024742  0.022863 -0.004684  0.004857  0.001700
  0.6992  0.0000
 -0.0039  0.0079  0.1736
  0.0888 -0.0078  0.0053 -0.0065  0.0043
  0.0000  0.0000  0.0000  0.0000  0.0000  0.0000  0.0000
  0.0000  0.0000  0.0000  0.0000  0.0000  0.0000  0.0000  0.0000  0.0000
  1  0.993922  1.187280  1.187280  1.187280  1.187280  1.187280
  1  0.983800  0.971726  0.971726  0.971726  0.971726  0.971726
  1  0.999016  0.871103  0.871103  0.871103  0.871103  0.871103
  1  0.978817  0.808172  0.808172  0.808172  0.808172  0.808172
  2  0.996040  0.982036  1.212135  0.873593  0.920859  1.233562
  2  0.991546  0.965266  1.317572  0.814150  0.788355  0.826582
  2  1.001734  0.994874  0.996777  1.094933  0.952291  1.006456
  2  0.978490  0.790324  0.790324  0.790324  0.790324  0.790324
  2  0.991958  0.808406  1.030865  0.875883  0.807205  0.925536
  3  1.016284  0.928883  0.928883  0.928883  0.928883  0.928883
  3  0.999125  0.872329  0.580064  0.789394  0.921717  0.712654
  4  1.200000  1.200000  1.200000  1.200000  1.200000  1.200000
 0.6405E+00 0.000E+00 0.000E+00  0.000E+00  0.000E+00  0.000E+00 0.000E+00
 0.0000E+00
 0.165397E+01

;
_cod_data_source_file            jp8b10065_si_001.cif
_cod_data_source_block           TKOx_He
_cod_database_code               1552785
_atom_site_anharm_details
;
The atomic anharmonic pdf is approximated by a Gram-Charlier expansion
about the harmonic pdf, according to the expression :

      P(u) = (1 + Cijk*Hijk/3! + Dijkl*Hijkl/4!)*P(0)

The coefficients Cijk and Dijkl are refined in the least squares procedure.
The reported coefficients Cijk are multiplied by 1000 and Dijkl by 10000.
;
_shelx_res_file
;
TITL shelx in P21/n #14
    shelx.res
    created by SHELXL-2017/1 at 14:23:39 on 04-Apr-2018
REM reset to P21/n #14
CELL 0.71073 6.7338 6.9787 13.2786 90 94.6091 90
ZERR 2 0.0001 0.0002 0.0002 0 0.001 0
LATT 1
SYMM 0.5-X,0.5+Y,0.5-Z
SFAC C H N O
UNIT 8 24 20 16

L.S. 4
PLAN  8
BOND
fmap 2
acta
REM <olex2.extras>
REM <HklSrc "%.\\shelx.hkl">
REM </olex2.extras>

WGHT    0.042100    0.043700
EXTI    0.008150
FVAR       1.64020
O1    4    0.119328    0.274642    0.036614    11.00000    0.00676    0.00427 =
         0.00397   -0.00015    0.00052    0.00147
O2    4    0.394351   -0.297551   -0.006826    11.00000    0.00850    0.00454 =
         0.00673    0.00087    0.00003    0.00196
O3    4    0.297515   -0.137880   -0.142728    11.00000    0.01153    0.00752 =
         0.00411   -0.00027    0.00032    0.00271
O4    4    0.862849   -0.380425   -0.278624    11.00000    0.00885    0.00783 =
         0.00690    0.00025    0.00027    0.00061
N1    3    0.061520    0.389100   -0.118238    11.00000    0.00756    0.00480 =
         0.00426    0.00004    0.00040    0.00156
N2    3    0.154384    0.210860   -0.125166    11.00000    0.00739    0.00470 =
         0.00411   -0.00012    0.00051    0.00147
N3    3    0.264049   -0.013369    0.012689    11.00000    0.00696    0.00421 =
         0.00441   -0.00007    0.00035    0.00150
N4    3    0.319002   -0.150522   -0.049356    11.00000    0.00510    0.00408 =
         0.00460   -0.00010    0.00035    0.00050
N5    3    0.504317   -0.497286   -0.194525    11.00000    0.00843    0.00694 =
         0.00669    0.00021    0.00057    0.00096
C1    1    0.044305    0.418589   -0.023213    11.00000    0.00566    0.00403 =
         0.00442   -0.00028    0.00044    0.00091
C2    1    0.184982    0.147197   -0.032200    11.00000    0.00520    0.00404 =
         0.00427   -0.00018    0.00037    0.00070
H4A   2    0.938447   -0.459837   -0.243955    11.00000    0.03259
H4B   2    0.846376   -0.425006   -0.339199    11.00000    0.02295
H5A   2    0.411056   -0.461953   -0.244684    11.00000    0.02509
H5B   2    0.518299   -0.619897   -0.197133    11.00000    0.02108
H5C   2    0.478205   -0.461650   -0.131574    11.00000    0.02425
H5D   2    0.614198   -0.447451   -0.209419    11.00000    0.01961
HKLF 4




REM  shelx in P21/n #14
REM R1 =  0.0230 for    9736 Fo > 4sig(Fo)  and  0.0230 for all    9736 data
REM    125 parameters refined using      0 restraints

END

WGHT      0.0421      0.0437

REM Highest difference peak  0.767,  deepest hole -0.396,  1-sigma level  0.078
Q1    1   0.1635  0.1953 -0.1554  11.00000  0.05    0.77
Q2    1   0.2681 -0.0184  0.0427  11.00000  0.05    0.75
Q3    1   0.0451  0.4108 -0.1436  11.00000  0.05    0.75
Q4    1   0.0478  0.4048 -0.0610  11.00000  0.05    0.71
Q5    1   0.1257  0.2755  0.0648  11.00000  0.05    0.70
Q6    1   0.1716  0.1677 -0.0692  11.00000  0.05    0.66
Q7    1   0.3855 -0.2881  0.0250  11.00000  0.05    0.60
Q8    1   0.2203  0.0689 -0.0147  11.00000  0.05    0.55
;
_shelx_res_checksum              87967
loop_
_space_group_symop_operation_xyz
'x, y, z'
'-x+1/2, y+1/2, -z+1/2'
'-x, -y, -z'
'x-1/2, -y-1/2, z-1/2'
loop_
_atom_local_axes_atom_label
_atom_local_axes_atom0
_atom_local_axes_ax1
_atom_local_axes_atom1
_atom_local_axes_atom2
_atom_local_axes_ax2
O(1) DUM4 Z O(1) C(1) Y
O(2) N(4) X O(2) O(3) Y
O(3) N(4) -X O(3) O(2) Y
O(4) DUM1 Z O(4) N(5) Y
N(1) N(2) X N(1) C(1) Y
N(2) N(1) -X N(2) C(2) Y
N(3) N(4) X N(3) C(2) Y
N(4) N(3) X N(4) O(2) Y
N(5) DUM3 Z N(5) O(4) Y
C(1) DUM0 X C(1) C(2) Y
C(2) N(3) -X C(2) C(1) Y
H(4A) O(4) Z H(4A) DUM1 Y
H(4B) O(4) Z H(4B) DUM1 Y
H(5A) N(5) Z H(5A) DUM2 Y
H(5B) N(5) Z H(5B) DUM2 Y
H(5C) N(5) Z H(5C) DUM3 Y
H(5D) N(5) Z H(5D) DUM3 Y
loop_
_atom_rho_multipole_atom_label
_atom_rho_multipole_coeff_Pv
_atom_rho_multipole_coeff_P00
_atom_rho_multipole_coeff_P11
_atom_rho_multipole_coeff_P1-1
_atom_rho_multipole_coeff_P10
_atom_rho_multipole_coeff_P20
_atom_rho_multipole_coeff_P21
_atom_rho_multipole_coeff_P2-1
_atom_rho_multipole_coeff_P22
_atom_rho_multipole_coeff_P2-2
_atom_rho_multipole_coeff_P30
_atom_rho_multipole_coeff_P31
_atom_rho_multipole_coeff_P3-1
_atom_rho_multipole_coeff_P32
_atom_rho_multipole_coeff_P3-2
_atom_rho_multipole_coeff_P33
_atom_rho_multipole_coeff_P3-3
_atom_rho_multipole_coeff_P40
_atom_rho_multipole_coeff_P41
_atom_rho_multipole_coeff_P4-1
_atom_rho_multipole_coeff_P42
_atom_rho_multipole_coeff_P4-2
_atom_rho_multipole_coeff_P43
_atom_rho_multipole_coeff_P4-3
_atom_rho_multipole_coeff_P44
_atom_rho_multipole_coeff_P4-4
_atom_rho_multipole_kappa
_atom_rho_multipole_kappa_prime0
_atom_rho_multipole_kappa_prime1
_atom_rho_multipole_kappa_prime2
_atom_rho_multipole_kappa_prime3
_atom_rho_multipole_kappa_prime4
O(1) 6.217(14) 0 -0.003(4) 0.004(5) -0.069(3) 0.061(4) 0.002(3) -0.006(4)
0.030(4) 0.005(4) -0.0418(19) -0.0015(17) -0.0012(19) -0.0592(19) -0.0000(19)
0.004(2) -0.004(2) -0.015(2) 0.000(2) -0.004(2) -0.014(2) -0.001(2) 0.006(2)
-0.005(2) 0.006(2) 0.007(2) 0.9939(11) 1.187(19) 1.187(19) 1.187(19) 1.187(19)
1.187(19)
O(2) 6.275(13) 0 -0.103(5) -0.001(4) 0.003(4) -0.043(4) 0.018(4) -0.008(3)
-0.122(4) -0.005(4) 0.001(2) -0.020(2) -0.003(2) -0.001(2) 0.002(2) 0.036(2)
0.002(2) 0.017(3) -0.002(3) 0.003(2) -0.022(2) 0.006(2) 0.001(2) -0.000(3)
0.027(2) -0.001(2) 0.9838(11) 0.972(18) 0.972(18) 0.972(18) 0.972(18) 0.972(18)
O(3) 6.041(12) 0 -0.113(5) 0.008(4) -0.006(4) -0.030(4) -0.007(3) -0.009(4)
-0.132(4) -0.007(4) -0.006(3) -0.027(3) -0.003(2) -0.000(2) 0.002(2) 0.034(3)
-0.011(2) 0.009(3) 0.001(3) -0.001(3) -0.013(3) -0.004(3) -0.000(3) 0.003(3)
0.005(3) -0.002(3) 0.9990(11) 0.871(17) 0.871(17) 0.871(17) 0.871(17) 0.871(17)
O(4) 6.387(18) 0 -0.002(5) -0.002(5) -0.025(5) -0.025(5) -0.009(4) 0.007(4)
-0.017(4) 0.007(4) -0.070(3) -0.019(3) -0.019(3) 0.125(4) 0.007(3) 0.015(3)
-0.045(3) -0.032(4) -0.008(3) 0.010(3) 0.032(4) 0.008(3) 0.006(3) -0.029(3)
0.020(3) 0.002(3) 0.9788(13) 0.808(13) 0.808(13) 0.808(13) 0.808(13) 0.808(13)
N(1) 5.13(2) 0 -0.088(4) -0.071(4) -0.013(3) -0.132(5) -0.008(4) -0.008(3)
-0.072(5) 0.059(4) -0.003(3) -0.047(3) -0.030(3) -0.003(3) 0.011(3) 0.114(6)
-0.045(4) 0.020(3) -0.001(2) 0.001(2) -0.008(2) 0.000(2) -0.000(2) -0.002(2)
0.030(3) 0.013(3) 0.9960(16) 0.982036 1.21(4) 0.874(18) 0.921(19) 1.23(7)
N(2) 5.18(2) 0 -0.080(4) -0.091(3) 0.010(3) -0.088(5) 0.009(4) -0.005(3)
-0.106(6) 0.072(5) -0.001(3) -0.052(4) -0.053(3) -0.007(4) 0.006(3) 0.178(8)
-0.079(5) 0.017(4) 0.001(4) -0.002(3) -0.010(4) 0.012(4) 0.011(4) -0.001(4)
0.083(7) 0.045(5) 0.9915(17) 0.965266 1.32(4) 0.814(19) 0.788(13) 0.83(2)
N(3) 5.01(3) 0 -0.105(6) -0.144(7) 0.007(4) -0.006(4) 0.003(3) -0.009(3)
-0.063(4) 0.036(4) 0.002(3) -0.015(3) -0.026(3) 0.004(3) 0.001(3) 0.118(7)
-0.004(3) 0.022(3) 0.002(3) 0.003(3) -0.011(3) 0.007(3) -0.001(3) 0.005(3)
0.024(4) 0.019(4) 1.0017(19) 0.994874 1.00(2) 1.09(6) 0.95(2) 1.01(6)
N(4) 5.11(2) 0 -0.024(7) -0.042(7) 0.004(4) -0.273(6) -0.005(4) 0.008(4)
-0.031(5) 0.054(6) 0.010(4) 0.019(4) 0.009(4) 0.000(4) 0.005(4) 0.458(10)
-0.088(5) 0.031(5) 0.003(4) -0.000(4) -0.001(4) 0.001(5) -0.013(5) -0.001(5)
-0.006(7) 0.008(6) 0.9785(18) 0.790(5) 0.790(5) 0.790(5) 0.790(5) 0.790(5)
N(5) 5.37(3) 0 -0.010(5) 0.039(9) 0.008(5) -0.011(6) 0.003(5) -0.016(6)
-0.011(5) 0.012(6) 0.002(4) -0.021(5) -0.006(5) -0.375(7) -0.003(5) 0.008(4)
0.001(4) -0.091(5) 0.017(4) 0.003(4) -0.003(3) -0.003(4) 0.013(4) -0.013(4)
0.060(4) -0.005(4) 0.992(2) 0.808406 1.03(15) 0.88(19) 0.807(7) 0.93(2)
C(1) 4.012(16) 0 -0.053(6) -0.081(6) -0.004(4) -0.185(4) -0.005(4) 0.014(3)
0.030(4) 0.099(6) 0.010(4) 0.010(3) -0.043(3) -0.002(4) -0.016(3) 0.384(8)
-0.041(6) 0.036(4) 0.010(5) -0.008(4) -0.013(3) 0.030(5) -0.007(5) 0.003(4)
-0.068(6) 0.053(7) 1.0163(19) 0.929(7) 0.929(7) 0.929(7) 0.929(7) 0.929(7)
C(2) 4.00(2) 0 0.08(2) -0.242(18) 0.002(6) -0.295(9) 0.008(4) -0.002(4)
0.126(9) 0.092(7) -0.008(4) -0.018(5) -0.022(4) -0.002(4) -0.020(4) 0.368(11)
-0.164(7) 0.086(8) 0.010(6) -0.002(6) -0.029(8) 0.055(8) 0.012(7) -0.011(7)
0.053(12) 0.112(14) 0.999(2) 0.872329 0.580(14) 0.789(11) 0.922(9) 0.71(2)
H(4A) 0.768(10) 0 0.008(5) 0.050(5) 0.207(6) 0.094(7) 0.043(6) 0.049(5)
-0.001(6) -0.006(6) 0 0 0 0 0 0 0 0 0 0 0 0 0 0 0 0 1.2 1.2 1.2 1.2 1.2 1.2
H(4B) 0.765(9) 0 0.013(4) 0.029(4) 0.187(6) 0.118(8) 0.005(5) 0.035(6) 0.011(6)
-0.003(6) 0 0 0 0 0 0 0 0 0 0 0 0 0 0 0 0 1.2 1.2 1.2 1.2 1.2 1.2
H(5A) 0.680(9) 0 0.007(5) -0.017(5) 0.175(5) 0.082(7) 0.010(6) 0.021(6)
0.009(6) -0.021(6) 0 0 0 0 0 0 0 0 0 0 0 0 0 0 0 0 1.2 1.2 1.2 1.2 1.2 1.2
H(5B) 0.688(10) 0 -0.018(6) 0.003(5) 0.184(6) 0.110(7) -0.020(7) 0.008(6)
0.007(6) -0.013(6) 0 0 0 0 0 0 0 0 0 0 0 0 0 0 0 0 1.2 1.2 1.2 1.2 1.2 1.2
H(5C) 0.665(12) 0 0.011(4) 0.047(5) 0.157(6) 0.083(7) -0.006(5) 0.012(5)
-0.009(6) 0.014(6) 0 0 0 0 0 0 0 0 0 0 0 0 0 0 0 0 1.2 1.2 1.2 1.2 1.2 1.2
H(5D) 0.699(13) 0 -0.004(5) 0.008(5) 0.174(7) 0.089(8) -0.008(6) 0.005(6)
-0.006(6) 0.004(6) 0 0 0 0 0 0 0 0 0 0 0 0 0 0 0 0 1.2 1.2 1.2 1.2 1.2 1.2
loop_
_atom_site_label
_atom_site_type_symbol
_atom_site_fract_x
_atom_site_fract_y
_atom_site_fract_z
_atom_site_U_iso_or_equiv
_atom_site_occupancy
_atom_site_symmetry_multiplicity
_atom_site_adp_type
O(1) O 0.11936(5) 0.27459(5) 0.03669(2) 0.006 1 4 Uani
O(2) O 0.39434(4) -0.29756(5) -0.006823(16) 0.007 1 4 Uani
O(3) O 0.29730(3) -0.13789(3) -0.142836(16) 0.009 1 4 Uani
O(4) O 0.86265(3) -0.38009(3) -0.278543(13) 0.008 1 4 Uani
N(1) N 0.06147(4) 0.38880(7) -0.11824(2) 0.006 1 4 Uani
N(2) N 0.15431(4) 0.21109(6) -0.12498(3) 0.006 1 4 Uani
N(3) N 0.26401(3) -0.01343(4) 0.01269(2) 0.006 1 4 Uani
N(4) N 0.31893(2) -0.15052(3) -0.049284(11) 0.005 1 4 Uani
N(5) N 0.50425(5) -0.49732(5) -0.19451(2) 0.008 1 4 Uani
C(1) C 0.04426(2) 0.41866(3) -0.023185(11) 0.005 1 4 Uani
C(2) C 0.184956(17) 0.14714(2) -0.032229(9) 0.005 1 4 Uani
H(4A) H 0.957012 -0.461017 -0.238537 0.024 1 4 Uani
H(4B) H 0.842204 -0.430794 -0.347176 0.022 1 4 Uani
H(5A) H 0.397942 -0.453099 -0.249724 0.021 1 4 Uani
H(5B) H 0.52311 -0.64425 -0.196841 0.021 1 4 Uani
H(5C) H 0.466016 -0.452541 -0.125054 0.018 1 4 Uani
H(5D) H 0.6371 -0.438305 -0.21415 0.021 1 4 Uani
loop_
_atom_site_aniso_label
_atom_site_aniso_U_11
_atom_site_aniso_U_22
_atom_site_aniso_U_33
_atom_site_aniso_U_12
_atom_site_aniso_U_13
_atom_site_aniso_U_23
O(1) 0.00759(9) 0.00524(13) 0.00397(8) 0.00171(8) 0.00053(6) -0.00016(7)
O(2) 0.00918(8) 0.00519(10) 0.00749(8) 0.00239(7) -0.00008(5) 0.00096(7)
O(3) 0.01236(8) 0.00844(11) 0.00469(6) 0.00271(7) 0.00026(5) -0.00039(5)
O(4) 0.00960(7) 0.00867(9) 0.00710(6) 0.00091(6) -0.00002(5) 0.00033(5)
N(1) 0.00806(7) 0.00503(9) 0.00480(6) 0.00193(6) 0.00041(4) -0.00013(5)
N(2) 0.00789(6) 0.00518(8) 0.00469(6) 0.00176(5) 0.00045(4) 0.00002(4)
N(3) 0.00753(7) 0.00473(11) 0.00483(8) 0.00177(6) 0.00019(5) 0.00007(7)
N(4) 0.00622(6) 0.00459(8) 0.00461(5) 0.00092(5) 0.00024(3) 0.00004(4)
N(5) 0.00880(7) 0.00734(10) 0.00700(6) 0.00122(7) 0.00052(5) 0.00023(5)
C(1) 0.00619(6) 0.00428(8) 0.00442(5) 0.00121(5) 0.00048(4) -0.00015(4)
C(2) 0.00567(6) 0.00422(7) 0.00455(5) 0.00090(5) 0.00048(3) -0.00022(4)
H(4A) 0.027(2) 0.023(2) 0.0225(15) -0.0008(12) -0.0026(12) 0.0039(14)
H(4B) 0.0235(18) 0.028(2) 0.0144(10) -0.0012(15) -0.0004(13) -0.0030(11)
H(5A) 0.0170(13) 0.0259(19) 0.0206(12) 0.0083(14) -0.0014(10) 0.0023(14)
H(5B) 0.025(2) 0.0113(3) 0.0267(18) 0.0031(11) 0.0048(14) -0.0003(11)
H(5C) 0.0238(19) 0.0195(18) 0.0097(8) 0.0025(15) 0.0038(10) -0.0059(11)
H(5D) 0.0161(11) 0.0247(18) 0.0229(18) -0.0047(12) 0.0049(10) 0.0017(15)
loop_
_atom_type_symbol
_atom_type_description
_atom_type_scat_dispersion_real
_atom_type_scat_dispersion_imag
_atom_type_scat_source
O O 0.0110 0.0060 'VM databank, XD2006, (Volkov et al., (2006)'
N N 0.0060 0.0030 'VM databank, XD2006, (Volkov et al., (2006)'
C C 0.0030 0.0020 'VM databank, XD2006, (Volkov et al., (2006)'
H H 0.0000 0.0000 'VM databank, XD2006, (Volkov et al., (2006)'
loop_
_geom_angle_atom_site_label_1
_geom_angle_atom_site_label_2
_geom_angle_atom_site_label_3
_geom_angle
_geom_angle_site_symmetry_1
_geom_angle_site_symmetry_2
_geom_angle_site_symmetry_3
_geom_angle_publ_flag
C(1) O(1) C(2) 102.38(2) 1_555 1_555 1_555 yes
N(4) N(3) C(2) 116.06(2) 1_555 1_555 1_555 yes
O(2) N(4) O(3) 121.11(2) 1_555 1_555 1_555 yes
O(2) N(4) N(3) 115.50(2) 1_555 1_555 1_555 yes
O(3) N(4) N(3) 123.38(2) 1_555 1_555 1_555 yes
O(1) C(1) N(1) 113.25(3) 1_555 1_555 1_555 yes
O(1) C(1) C(1) 118.76(2) 1_555 1_555 3_565 yes
N(1) C(1) C(1) 127.99(3) 1_555 1_555 3_565 yes
O(1) C(2) N(2) 111.76(3) 1_555 1_555 1_555 yes
O(1) C(2) N(3) 112.159(19) 1_555 1_555 1_555 yes
N(2) C(2) N(3) 136.08(3) 1_555 1_555 1_555 yes
H(4A) O(4) H(4B) 109.59 1_555 1_555 1_555 yes
H(5A) N(5) H(5B) 110.84 1_555 1_555 1_555 yes
H(5A) N(5) H(5C) 109.78 1_555 1_555 1_555 yes
H(5A) N(5) H(5D) 105.44 1_555 1_555 1_555 yes
H(5B) N(5) H(5C) 111.67 1_555 1_555 1_555 yes
H(5B) N(5) H(5D) 106.01 1_555 1_555 1_555 yes
H(5C) N(5) H(5D) 112.89 1_555 1_555 1_555 yes
loop_
_geom_bond_atom_site_label_1
_geom_bond_atom_site_label_2
_geom_bond_distance
_geom_bond_site_symmetry_1
_geom_bond_site_symmetry_2
_geom_bond_publ_flag
O(1) C(1) 1.3543(4) 1_555 1_555 yes
O(1) C(2) 1.3743(4) 1_555 1_555 yes
O(2) N(4) 1.2581(3) 1_555 1_555 yes
O(3) N(4) 1.2422(3) 1_555 1_555 yes
N(1) C(1) 1.2936(3) 1_555 1_555 yes
N(2) C(2) 1.3106(4) 1_555 1_555 yes
N(3) N(4) 1.3335(3) 1_555 1_555 yes
N(3) C(2) 1.3579(3) 1_555 1_555 yes
C(1) C(1) 1.4430(3) 1_555 3_565 yes
N(5) H(5A) 1.030 1_555 1_555 yes
N(5) H(5B) 1.034 1_555 1_555 yes
N(5) H(5C) 1.026 1_555 1_555 yes
N(5) H(5D) 1.037 1_555 1_555 yes
O(4) H(4A) 0.975 1_555 1_555 yes
O(4) H(4B) 0.977 1_555 1_555 yes
loop_
_atom_dummy_label
_atom_dummy_fract_x
_atom_dummy_fract_y
_atom_dummy_fract_z
DUM0 0 0.5 0
DUM1 0.881 -0.466 -0.294
DUM2 0.459 -0.569 -0.229
DUM3 0.55 -0.45 -0.168
DUM4 0.113 0.283 -0.028
loop_
_atom_site_anharm_gc_c_label
_atom_site_anharm_gc_c_111
_atom_site_anharm_gc_c_222
_atom_site_anharm_gc_c_333
_atom_site_anharm_gc_c_112
_atom_site_anharm_gc_c_122
_atom_site_anharm_gc_c_113
_atom_site_anharm_gc_c_133
_atom_site_anharm_gc_c_223
_atom_site_anharm_gc_c_233
_atom_site_anharm_gc_c_123
O(1) 0.00002(4) -0.00013(5) 0.000026(4) 0.000012(18) 0.000031(19) 0.000025(7)
0.000002(3) 0.000077(8) -0.000002(4) -0.000027(4)
O(2) -0.00003(4) -0.00017(5) 0.000011(4) -0.000044(18) 0.000074(18) 0.000006(7)
-0.000004(3) 0.000005(8) -0.000008(4) -0.000009(4)
O(3) -0.00027(4) 0.00011(5) -0.000045(3) -0.000075(19) -0.00009(2) 0.000015(8)
-0.000019(3) -0.000043(8) 0.000004(3) 0.000028(4)
O(4) -0.00019(3) 0.00038(5) 0.000024(3) 0.000124(17) -0.000124(19) 0.000014(7)
-0.000008(3) 0.000026(8) 0.000043(3) 0.000006(5)
N(1) -0.00012(4) -0.00012(5) -0.000009(4) -0.00007(2) -0.000031(18) 0.000002(8)
-0.000000(3) -0.000016(8) -0.000006(4) 0.000004(4)
N(2) -0.00009(4) 0.00010(5) 0.000015(5) -0.000014(19) 0.000020(18) 0.000040(9)
0.000002(3) 0.000024(9) 0.000001(4) 0.000004(4)
N(3) -0.00004(3) -0.00012(4) 0.000015(4) -0.000010(15) -0.000014(17)
0.000006(7) -0.000006(3) 0.000027(8) 0.000005(3) -0.000006(4)
N(4) -0.00004(2) 0.00002(4) 0.000015(2) -0.000018(13) -0.000002(14) 0.000013(5)
-0.000010(3) 0.000022(6) 0.000005(3) -0.000005(4)
N(5) -0.00017(4) 0.00003(5) 0.000001(4) -0.000023(19) 0.00011(2) 0.000011(8)
0.000016(4) -0.000001(9) -0.000006(4) 0.000012(5)
C(1) -0.00007(3) 0.00010(4) 0.000005(3) 0.000027(15) -0.000009(16) -0.000011(6)
-0.000001(3) -0.000008(7) 0.000003(3) 0.000003(4)
C(2) -0.00001(2) -0.00002(4) -0.000002(2) -0.000013(14) -0.000037(15)
-0.000027(6) -0.000003(3) -0.000042(7) -0.000005(3) 0.000001(4)
loop_
_atom_site_anharm_gc_d_label
_atom_site_anharm_gc_d_1111
_atom_site_anharm_gc_d_2222
_atom_site_anharm_gc_d_3333
_atom_site_anharm_gc_d_1112
_atom_site_anharm_gc_d_1222
_atom_site_anharm_gc_d_1113
_atom_site_anharm_gc_d_1333
_atom_site_anharm_gc_d_2223
_atom_site_anharm_gc_d_2333
_atom_site_anharm_gc_d_1122
_atom_site_anharm_gc_d_1133
_atom_site_anharm_gc_d_2233
_atom_site_anharm_gc_d_1123
_atom_site_anharm_gc_d_1223
_atom_site_anharm_gc_d_1233
O(1) 0.00022(3) 0.00014(4) 0.0000021(14) 0.000046(13) 0.000055(14) 0.000005(5)
0.0000015(11) -0.000001(6) 0.0000001(12) 0.000084(8) 0.0000098(16)
0.0000070(16) -0.000003(2) 0.000003(2) 0.0000032(12)
O(2) 0.00015(3) 0.00009(4) 0.0000182(16) 0.000067(12) 0.000064(14) -0.000011(5)
-0.0000031(12) 0.000026(6) 0.0000060(15) 0.000056(8) 0.0000206(17)
0.0000151(18) 0.000008(3) -0.000003(2) 0.0000080(13)
O(3) 0.00023(3) 0.00039(4) 0.0000054(12) -0.000012(14) -0.000013(16)
-0.000001(5) -0.0000013(10) -0.000004(6) -0.0000017(11) 0.000110(10)
0.0000132(16) 0.0000157(17) -0.000004(3) 0.000000(3) -0.0000015(12)
O(4) 0.00022(3) 0.00024(4) 0.0000014(11) 0.000056(12) 0.000081(14) -0.000027(5)
-0.0000065(10) 0.000005(6) -0.0000002(11) 0.000093(9) 0.0000090(16)
0.0000067(18) 0.000003(2) -0.000006(3) 0.0000041(11)
N(1) 0.00009(2) 0.00003(3) 0.0000117(13) 0.000051(11) 0.000040(13) 0.000004(4)
0.0000027(10) -0.000022(5) -0.0000038(10) 0.000025(8) 0.0000121(15)
0.0000067(17) -0.000006(2) 0.000001(2) 0.0000037(11)
N(2) 0.00011(2) 0.00010(3) 0.0000130(12) 0.000052(10) 0.000034(11) -0.000008(4)
-0.0000003(9) 0.000013(5) 0.0000032(10) 0.000033(8) 0.0000121(14) 0.0000066(15)
0.000010(2) -0.000001(2) 0.0000036(10)
N(3) 0.00017(2) 0.00008(4) 0.0000087(14) 0.000045(12) 0.000057(12) -0.000006(5)
-0.0000018(11) 0.000003(6) 0.0000010(13) 0.000045(8) 0.0000104(16)
0.0000094(17) 0.000004(2) 0.000000(2) 0.0000029(11)
N(4) 0.00029(2) 0.00013(3) 0.0000010(10) 0.000059(9) 0.000028(11) -0.000001(4)
-0.0000018(8) 0.000008(5) 0.0000021(9) 0.000078(7) 0.0000101(13) 0.0000057(15)
0.0000033(19) 0.000001(2) 0.0000043(9)
N(5) 0.00008(3) 0.00006(4) 0.0000040(12) 0.000064(13) 0.000032(15) -0.000011(5)
-0.0000001(12) -0.000002(6) 0.0000011(12) 0.000053(9) 0.0000024(16)
0.0000058(18) 0.000001(3) -0.000004(3) 0.0000002(13)
C(1) 0.00013(2) 0.00004(3) 0.0000014(10) 0.000043(10) 0.000040(11) -0.000000(4)
0.0000012(9) 0.000022(5) 0.0000026(10) 0.000042(7) 0.0000035(14) 0.0000014(16)
0.000006(2) 0.000000(2) 0.0000013(10)
C(2) 0.00011(2) 0.00001(3) 0.0000060(10) 0.000030(9) 0.000014(11) 0.000013(4)
0.0000042(9) -0.000007(5) -0.0000033(10) 0.000038(7) 0.0000079(14)
0.0000048(16) -0.000004(2) 0.000006(2) 0.0000005(10)
