#------------------------------------------------------------------------------
#$Date: 2019-09-07 07:09:17 +0300 (Sat, 07 Sep 2019) $
#$Revision: 218069 $
#$URL: file:///home/coder/svn-repositories/cod/cif/1/55/22/1552298.cif $
#------------------------------------------------------------------------------
#
# This file is available in the Crystallography Open Database (COD),
# http://www.crystallography.net/. The original data for this entry
# were provided by IUCr Journals, http://journals.iucr.org/.
#
# The file may be used within the scientific community so long as
# proper attribution is given to the journal article from which the
# data were obtained.
#
data_1552298
loop_
_publ_author_name
'Falvello, Larry'
'Lotti, Paolo'
'Massera, Chiara'
'Tarantino, Serena C.'
'Zema, Michele'
'Puschmann, Horst'
'Agbahoungbata, Marielle Y.'
'Andreo, Jacopo'
'Sahadevan, Suchithra Ashoka'
'Bismuto, Alessandro'
'Bonfant, Giulia'
'Bonou, Sourou A. S.'
'Carraro, Claudia'
'Zotti, Marta De'
'di Biase, Armando'
'Fantini, Riccardo'
'Ferraboschi, Ilaria'
'Custodio, Jean Marcos Ferreira'
'Frigerio, Matteo'
'Gallo, Gianpiero'
'Gjyli, Silvana'
'Goudjil, Meriem'
'Igoa, Fernando'
'Kahveci, Enver'
'Kalienko, Maksim'
'Lorenzon, Sofia'
'Macera, Ludovico'
'Fajardo, Joaqun Joaqun Manrique'
'Nushi, Enida'
'Ouaatta, Said'
'Parisi, Emmanuele'
'Pasqualetto, Leonardo'
'Pesko, Edyta'
'Pierri, Giovanni'
'Pinalli, Roberta'
'Poppe, Romy'
'Santoro, Antonio'
'Smirnova, Ekaterina'
'Sorbara, Simona'
'Tensi, Leonardo'
'Tusha, Gers'
_publ_section_title
;
 Poly[(\m~4~-phenylphosphonato)zinc(II)]
;
_journal_coeditor_code           HB4317
_journal_issue                   9
_journal_name_full               IUCrData
_journal_page_first              x191222
_journal_paper_doi               10.1107/S2414314619012227
_journal_volume                  4
_journal_year                    2019
_chemical_formula_iupac          '[Zn (C6 H5 O3 P)]'
_chemical_formula_moiety         'C6 H5 O3 P Zn'
_chemical_formula_sum            'C6 H5 O3 P Zn'
_chemical_formula_weight         221.474
_chemical_name_systematic
;
Poly[(\m~4~-phenylphosphonato)zinc(II)]
;
_space_group_crystal_system      monoclinic
_space_group_IT_number           14
_space_group_name_Hall           '-P 2ybc'
_space_group_name_H-M_alt        'P 1 21/c 1'
_symmetry_space_group_name_Hall  '-P 2ybc'
_symmetry_space_group_name_H-M   'P 1 21/c 1'
_atom_sites_solution_primary     iterative
_audit_creation_method
;
Olex2 1.3-alpha
(compiled 2019.08.16 svn.r3652 for OlexSys, GUI svn.r5895)
;
_cell_angle_alpha                90
_cell_angle_beta                 105.816(2)
_cell_angle_gamma                90
_cell_formula_units_Z            4
_cell_length_a                   14.8549(8)
_cell_length_b                   5.1581(3)
_cell_length_c                   10.5471(6)
_cell_measurement_reflns_used    1658
_cell_measurement_temperature    149.98
_cell_measurement_theta_max      74.777
_cell_measurement_theta_min      6.193
_cell_volume                     777.56(8)
_computing_cell_refinement
;
SAINT (Bruker, 2008)
;
_computing_data_collection
;
APEX2 (Bruker, 2008)
;
_computing_data_reduction
;
SAINT (Bruker, 2008)
;
_computing_molecular_graphics
;
Mercury (Macrae et al., 2006)
;
_computing_publication_material
;
<i>OLEX2</i> (Dolomanov <i>et al.</i>,  2009)
;
_computing_structure_refinement
;
<i>olex2.refine</i> (Bourhis <i>et al.</i>,  2015)
;
_computing_structure_solution
;
<i>olex2.solve</i> (Bourhis <i>et al.</i>,  2015)
;
_diffrn_ambient_temperature      149.98
_diffrn_measured_fraction_theta_full 0.9891
_diffrn_measured_fraction_theta_max 0.9891
_diffrn_measurement_device_type  'Bruker D8 Venture PhotonII'
_diffrn_measurement_method       'phi & omega scan'
_diffrn_radiation_type           'Cu K\a'
_diffrn_radiation_wavelength     1.54178
_diffrn_reflns_av_R_equivalents  0
_diffrn_reflns_limit_h_max       17
_diffrn_reflns_limit_h_min       -18
_diffrn_reflns_limit_k_max       6
_diffrn_reflns_limit_k_min       -6
_diffrn_reflns_limit_l_max       12
_diffrn_reflns_limit_l_min       0
_diffrn_reflns_number            1897
_diffrn_reflns_theta_full        72.6793
_diffrn_reflns_theta_max         72.68
_diffrn_reflns_theta_min         6.19
_exptl_absorpt_coefficient_mu    5.982
_exptl_absorpt_correction_T_max  0.7536
_exptl_absorpt_correction_T_min  0.5577
_exptl_absorpt_correction_type   multi-scan
_exptl_absorpt_process_details
;
(SADABS; Bruker, 2008)
;
_exptl_crystal_colour            'light yellow'
_exptl_crystal_density_diffrn    1.892
_exptl_crystal_description       prismatic
_exptl_crystal_F_000             436.050
_exptl_crystal_size_max          0.10
_exptl_crystal_size_mid          0.08
_exptl_crystal_size_min          0.07
_refine_diff_density_max         1.2276
_refine_diff_density_min         -1.0758
_refine_ls_goodness_of_fit_ref   1.0378
_refine_ls_hydrogen_treatment    constr
_refine_ls_matrix_type           full
_refine_ls_number_constraints    21
_refine_ls_number_parameters     138
_refine_ls_number_reflns         1544
_refine_ls_number_restraints     144
_refine_ls_restrained_S_all      0.9884
_refine_ls_R_factor_all          0.0457
_refine_ls_R_factor_gt           0.0449
_refine_ls_shift/su_max          0.0004
_refine_ls_shift/su_mean         0.0000
_refine_ls_structure_factor_coef Fsqd
_refine_ls_weighting_details
'w=1/[\s^2^(Fo^2^)+(0.0246P)^2^+7.9936P] where P=(Fo^2^+2Fc^2^)/3'
_refine_ls_weighting_scheme      calc
_refine_ls_wR_factor_gt          0.1205
_refine_ls_wR_factor_ref         0.1210
_reflns_number_gt                1498
_reflns_number_total             1544
_reflns_threshold_expression     I>2\s(I)
_iucr_refine_instructions_details
;
TITL
CELL 1.54178 14.8549 5.1581 10.5471 90 105.816 90
ZERR 4 0.0008 0.0003 0.0006 0 0.002 0
LATT 1
SYMM -X,0.5+Y,0.5-Z
SFAC C H O P Zn
UNIT 24 20 12 4 4
RIGU 0.01 0.01 C1 Zn1 O1 P1 O3 O2 C2A C6B C6A C2B C3A C5B C5A C3B c4
L.S. 4
PLAN  20
TEMP -123.17
LIST 4
more -3
fmap 2
acta
BASF 0.241876
WGHT 0.024591 7.993553
FVAR 2.508054 0.498124
REM <olex2.extras>
REM <HklSrc "%.\\if02cu_twin01.hkl">
REM </olex2.extras>
Zn1   5     0.49966  0.70559  0.64634  11.00000  0.02223  0.01617  0.01291 =
 0.00042  0.00611 -0.00069
P1    4     0.38324  0.76947  0.35527  11.00000  0.01890  0.02209  0.01227 =
 -0.00027  0.00558 -0.00091
O3    3     0.44284  0.62621  0.27575  11.00000  0.02473  0.02330  0.01641 =
 0.00141  0.00690  0.00128
O2    3     0.40257  1.05759  0.35774  11.00000  0.02377  0.02803  0.02944 =
 -0.00330  0.01144 -0.00107
O1    3     0.40165  0.64345  0.48878  11.00000  0.02267  0.03270  0.01514 =
 0.00247  0.00594 -0.00457
c4    1     0.07218  0.67761  0.14952  11.00000  0.02201  0.05917  0.04828 =
 -0.00551 -0.00021 -0.00193
PART 1
AFIX 43
H2A   2     0.00747  0.65927  0.10620  21.00000 -1.20000
AFIX 0
PART 0
PART 2
AFIX 43
H4    2     0.00744  0.65830  0.10663 -21.00000 -1.20000
AFIX 0
PART 0
C1    1     0.26175  0.72699  0.27150  11.00000  0.01959  0.02843  0.01658 =
 -0.00214  0.00512 -0.00158
PART 1
C2A   1     0.20654  0.94454  0.22472  21.00000  0.03062  0.03953  0.03401 =
 0.00425  0.00169  0.00279
AFIX 43
H8    2     0.23385  1.11241  0.23344  21.00000 -1.20000
AFIX 0
C5A   1     0.12657  0.45903  0.19681  21.00000  0.03088  0.05010  0.07129 =
 -0.00576  0.00398 -0.00759
AFIX 43
H10   2     0.09877  0.29177  0.18748  21.00000 -1.20000
AFIX 0
PART 0
PART 2
C3B   1     0.13303  0.72458  0.07614 -21.00000  0.02970  0.06944  0.02839 =
 -0.00343 -0.00497 -0.00219
AFIX 43
H3B   2     0.10987  0.74336 -0.01667 -21.00000 -1.20000
AFIX 0
C6B   1     0.19896  0.68053  0.34677 -21.00000  0.02672  0.05949  0.02630 =
 0.00094  0.00988 -0.00407
AFIX 43
H6B   2     0.22146  0.66454  0.43980 -21.00000 -1.20000
AFIX 0
PART 0
PART 1
C3A   1     0.11180  0.91368  0.16560  21.00000  0.02886  0.05987  0.05382 =
 -0.00061 -0.00030  0.00265
AFIX 43
H16   2     0.07413  1.06218  0.13587  21.00000 -1.20000
AFIX 0
C6A   1     0.22200  0.48793  0.25783  21.00000  0.02993  0.03208  0.05923 =
 -0.00313  0.00797 -0.00438
AFIX 43
H18   2     0.25927  0.33981  0.28991  21.00000 -1.20000
AFIX 0
PART 0
PART 2
C2B   1     0.22976  0.74562  0.13607 -21.00000  0.03184  0.05510  0.01298 =
 0.00064  0.00264 -0.00261
AFIX 43
H2B   2     0.27222  0.77215  0.08430 -21.00000 -1.20000
AFIX 0
C5B   1     0.10281  0.65754  0.28498 -21.00000  0.02219  0.06937  0.04842 =
 0.00164  0.01038 -0.00438
AFIX 43
H5B   2     0.05965  0.62872  0.33545 -21.00000 -1.20000
AFIX 0
HKLF 5
END
Q1 1 0.3832 0.1973 0.5659 11 0.05 1.27
Q4 1 0.4962 0.8003 0.54 11 0.05 1.13
Q5 1 0.5051 0.301 0.5796 11 0.05 0.92
Q6 1 0.4974 0.6829 0.2639 11 0.05 0.91
Q7 1 0.4996 0.8975 0.6397 11 0.05 0.78
Q8 1 0.3827 0.7735 0.2421 11 0.05 0.68
Q9 1 0.3838 1.2045 0.3365 11 0.05 0.67
Q10 1 0.3854 0.3186 0.4457 11 0.05 0.65
Q11 1 0.6147 0.6964 0.7866 11 0.05 0.58
Q12 1 0.2587 1.2104 0.0294 11 0.05 0.58
Q13 1 0.2649 0.2418 0.2729 11 0.05 0.53
Q14 1 0.3978 0.8303 0.4811 11 0.05 0.48
Q15 1 0.4126 1.1393 0.1666 11 0.05 0.46
Q16 1 0.3802 0.7935 0.6254 11 0.05 0.45
Q17 1 0.2585 0.2674 0.3998 11 0.05 0.45
Q18 1 0.3937 0.4218 0.5561 11 0.05 0.44
Q19 1 0.4969 0.5413 0.7432 11 0.05 0.43
Q20 1 0.3931 0.5404 0.0665 11 0.05 0.42
Q21 1 0.5011 0.5407 0.3379 11 0.05 0.41
Q22 1 0.4251 0.69 0.5692 11 0.05 0.4
Q2 1 0.377778 1.2 0.555556 11 0.05 1.23
Q3 1 0.488889 0.8 0.527778 11 0.05 1.15
  REM The information below was added by Olex2.
  REM
  REM R1 = 0.0449 for 1498 Fo > 4sig(Fo) and 0.0457 for all 1544 data
  REM 138 parameters refined using 144 restraints
  REM Highest difference peak 1.2276, deepest hole -1.0758
  REM Mean Shift 0.0000, Max Shift 0.0004.
  REM +++ Tabular Listing of Refinement Information +++
  REM R1_all = 0.0457
  REM R1_gt = 0.0449
  REM wR_ref = 0.1210
  REM GOOF = 1.0378
  REM Shift_max = 0.0004
  REM Shift_mean = 0.0000
  REM Reflections_all = 1544
  REM Reflections_gt = 1498
  REM Parameters = 138
  REM Hole = -1.0758
  REM Peak = 1.2276
  REM Flack = n/a
;
_cod_data_source_file            hb4317sup1.cif
_cod_data_source_block           global
_cod_database_code               1552298
loop_
_space_group_symop_id
_space_group_symop_operation_xyz
1 x,y,z
2 -x,y+1/2,-z+1/2
3 -x,-y,-z
4 x,-y-1/2,z-1/2
loop_
_atom_site_type_symbol
_atom_site_label
_atom_site_fract_x
_atom_site_fract_y
_atom_site_fract_z
_atom_site_U_iso_or_equiv
_atom_site_adp_type
_atom_site_occupancy
_atom_site_disorder_group
Zn Zn1 0.49966(5) 0.70559(13) 0.64634(6) 0.0168(2) Uani 1.000000 .
P P1 0.38324(9) 0.7695(3) 0.35527(12) 0.0175(3) Uani 1.000000 .
O O3 0.4428(2) 0.6262(7) 0.2757(3) 0.0212(7) Uani 1.000000 .
O O2 0.4026(3) 1.0576(8) 0.3577(4) 0.0263(8) Uani 1.000000 .
O O1 0.4016(2) 0.6435(8) 0.4888(3) 0.0233(8) Uani 1.000000 .
C c4 0.0722(4) 0.6776(16) 0.1495(7) 0.0451(16) Uani 1.000000 .
H H4a 0.0075(4) 0.6593(16) 0.1062(7) 0.054(2) Uiso 0.498(9) 1
H H4b 0.0074(4) 0.6583(16) 0.1066(7) 0.054(2) Uiso 0.502(9) 2
C C1 0.2618(3) 0.7270(11) 0.2715(5) 0.0215(10) Uani 1.000000 .
C C2A 0.2065(8) 0.945(3) 0.2247(12) 0.036(3) Uani 0.498(9) 1
H H2A 0.2339(8) 1.112(3) 0.2334(12) 0.043(3) Uiso 0.498(9) 1
C C5A 0.1266(10) 0.459(3) 0.1968(17) 0.053(4) Uani 0.498(9) 1
H H5A 0.0988(10) 0.292(3) 0.1875(17) 0.063(4) Uiso 0.498(9) 1
C C3B 0.1330(9) 0.725(3) 0.0761(13) 0.045(3) Uani 0.502(9) 2
H H3B 0.1099(9) 0.743(3) -0.0167(13) 0.054(4) Uiso 0.502(9) 2
C C6B 0.1990(8) 0.681(3) 0.3468(12) 0.037(3) Uani 0.502(9) 2
H H6B 0.2215(8) 0.665(3) 0.4398(12) 0.044(4) Uiso 0.502(9) 2
C C3A 0.1118(9) 0.914(3) 0.1656(15) 0.050(4) Uani 0.498(9) 1
H H3A 0.0741(9) 1.062(3) 0.1359(15) 0.060(4) Uiso 0.498(9) 1
C C6A 0.2220(9) 0.488(3) 0.2578(15) 0.041(3) Uani 0.498(9) 1
H H6A 0.2593(9) 0.340(3) 0.2899(15) 0.049(4) Uiso 0.498(9) 1
C C2B 0.2298(8) 0.746(3) 0.1361(11) 0.034(3) Uani 0.502(9) 2
H H2B 0.2722(8) 0.772(3) 0.0843(11) 0.041(3) Uiso 0.502(9) 2
C C5B 0.1028(9) 0.658(3) 0.2850(14) 0.047(3) Uani 0.502(9) 2
H H5B 0.0597(9) 0.629(3) 0.3355(14) 0.056(4) Uiso 0.502(9) 2
loop_
_atom_site_aniso_label
_atom_site_aniso_U_11
_atom_site_aniso_U_22
_atom_site_aniso_U_33
_atom_site_aniso_U_12
_atom_site_aniso_U_13
_atom_site_aniso_U_23
Zn1 0.0222(3) 0.0162(4) 0.0129(3) -0.0007(3) 0.0061(3) 0.0004(2)
P1 0.0189(6) 0.0221(6) 0.0123(5) -0.0009(5) 0.0056(5) -0.0003(5)
O3 0.0247(17) 0.0233(18) 0.0164(16) 0.0013(14) 0.0069(14) 0.0014(14)
O2 0.0238(17) 0.028(2) 0.029(2) -0.0011(15) 0.0114(15) -0.0033(16)
O1 0.0227(17) 0.033(2) 0.0151(16) -0.0046(15) 0.0059(13) 0.0025(15)
c4 0.022(3) 0.059(4) 0.048(4) -0.002(3) 0.000(2) -0.006(3)
C1 0.020(2) 0.028(3) 0.017(2) -0.0016(18) 0.0051(18) -0.0021(19)
C2A 0.031(5) 0.040(6) 0.034(6) 0.003(3) 0.002(4) 0.004(4)
C5A 0.031(6) 0.050(7) 0.071(9) -0.008(4) 0.004(4) -0.006(5)
C3B 0.030(6) 0.069(9) 0.028(6) -0.002(4) -0.005(3) -0.003(4)
C6B 0.027(5) 0.059(8) 0.026(5) -0.004(4) 0.010(3) 0.001(4)
C3A 0.029(6) 0.060(8) 0.054(8) 0.003(4) 0.000(4) -0.001(4)
C6A 0.030(6) 0.032(6) 0.059(8) -0.004(3) 0.008(4) -0.003(4)
C2B 0.032(5) 0.055(7) 0.013(4) -0.003(4) 0.003(3) 0.001(4)
C5B 0.022(5) 0.069(9) 0.048(6) -0.004(4) 0.010(4) 0.002(4)
loop_
_atom_type_symbol
_atom_type_scat_Cromer_Mann_a1
_atom_type_scat_Cromer_Mann_a2
_atom_type_scat_Cromer_Mann_a3
_atom_type_scat_Cromer_Mann_a4
_atom_type_scat_Cromer_Mann_b1
_atom_type_scat_Cromer_Mann_b2
_atom_type_scat_Cromer_Mann_b3
_atom_type_scat_Cromer_Mann_b4
_atom_type_scat_Cromer_Mann_c
_atom_type_scat_dispersion_source
_atom_type_scat_dispersion_real
_atom_type_scat_dispersion_imag
_atom_type_scat_source
H 0.49300 0.32291 0.14019 0.04081 10.51090 26.12570 3.14236 57.79970
0.0030380000826
'Henke, Gullikson and Davis, At. Data and Nucl. Data Tables, 1993, 54, 2'
0.00000 0.00000 'International Tables'
C 2.31000 1.02000 1.58860 0.86500 20.84390 10.20750 0.56870 51.65120
0.215599998832
'Henke, Gullikson and Davis, At. Data and Nucl. Data Tables, 1993, 54, 2'
0.01920 0.00962 'nternational Tables '
Zn 14.07430 7.03180 5.16520 2.41000 3.26550 0.23330 10.31630 58.70970
1.30410003662
'Henke, Gullikson and Davis, At. Data and Nucl. Data Tables, 1993, 54, 2'
-1.55644 0.70457 'International Tables'
O 3.04850 2.28680 1.54630 0.86700 13.27710 5.70110 0.32390 32.90890
0.250800013542
'Henke, Gullikson and Davis, At. Data and Nucl. Data Tables, 1993, 54, 2'
0.05239 0.03376 'International Tables V'
P 6.43450 4.17910 1.78000 1.49080 1.90670 27.15700 0.52600 68.16450
1.11489999294
'Henke, Gullikson and Davis, At. Data and Nucl. Data Tables, 1993, 54, 2'
0.30359 0.43700 'International Tables Vo'
loop_
_geom_angle_atom_site_label_1
_geom_angle_atom_site_label_2
_geom_angle_atom_site_label_3
_geom_angle_site_symmetry_1
_geom_angle_site_symmetry_3
_geom_angle
O2 Zn1 O3 3_676 3_666 108.46(16)
O2 Zn1 O3 3_676 4_576 101.79(16)
O1 Zn1 O3 . 3_666 110.74(16)
O1 Zn1 O3 . 4_576 107.71(15)
O1 Zn1 O2 . 3_676 119.43(16)
O2 P1 O3 . . 110.0(2)
O1 P1 O3 . . 108.2(2)
O1 P1 O2 . . 115.0(2)
C1 P1 O3 . . 108.6(2)
C1 P1 O2 . . 106.8(2)
C1 P1 O1 . . 108.0(2)
P1 O3 Zn1 . 4_575 124.8(2)
P1 O3 Zn1 . 3_666 115.35(19)
P1 O2 Zn1 . 3_676 140.5(2)
P1 O1 Zn1 . . 129.8(2)
C5A c4 H4a . . 120.1(7)
C3B c4 H4b . . 119.4(6)
C3A c4 H4a . . 120.1(7)
C3A c4 C5A . . 119.7(9)
C5B c4 H4b . . 119.4(6)
C5B c4 C3B . . 121.3(8)
C6A C1 C2A . . 119.7(8)
C2B C1 C6B . . 120.3(8)
C3A C2A H2A . . 120.2(9)
C6A C5A H5A . . 120.2(9)
C2B C3B H3B . . 119.6(7)
C5B C6B H6B . . 119.9(8)
H3A C3A C2A . . 119.4(9)
H6A C6A C5A . . 119.9(9)
H2B C2B C3B . . 120.6(7)
H5B C5B C6B . . 120.6(8)
loop_
_geom_bond_atom_site_label_1
_geom_bond_atom_site_label_2
_geom_bond_site_symmetry_2
_geom_bond_distance
_geom_bond_publ_flag
Zn1 O1 . 1.914(4) yes
Zn1 O2 3_676 1.907(4) yes
Zn1 O3 4_576 1.989(4) yes
Zn1 O3 3_666 1.988(4) yes
P1 O1 . 1.507(4) yes
P1 O2 . 1.513(4) yes
P1 O3 . 1.561(4) yes
P1 C1 . 1.793(5) ?
c4 C5A . 1.397(18) ?
c4 C3B . 1.362(16) ?
c4 C3A . 1.343(18) ?
c4 C5B . 1.380(16) ?
C1 C2A . 1.398(14) ?
C1 C6B . 1.401(13) ?
C1 C6A . 1.358(14) ?
C1 C2B . 1.380(12) ?
C2A H2A . 0.9500 ?
C2A C3A . 1.384(18) ?
C5A H5A . 0.9500 ?
C5A C6A . 1.396(18) ?
C3B H3B . 0.9500 ?
C3B C2B . 1.408(16) ?
C6B H6B . 0.9500 ?
C6B C5B . 1.404(17) ?
C3A H3A . 0.9500 ?
C6A H6A . 0.9500 ?
C2B H2B . 0.9500 ?
C5B H5B . 0.9500 ?
loop_
_geom_hbond_atom_site_label_D
_geom_hbond_atom_site_label_H
_geom_hbond_atom_site_label_A
_geom_hbond_site_symmetry_D
_geom_hbond_site_symmetry_H
_geom_hbond_site_symmetry_A
_geom_hbond_distance_DH
_geom_hbond_distance_HA
_geom_hbond_distance_DA
_geom_hbond_angle_DHA
_geom_hbond_publ_flag
C2B H2B O1 1_555 1_555 4_575 0.95 2.45 3.378(13) 170 yes
loop_
_geom_torsion_atom_site_label_1
_geom_torsion_atom_site_label_2
_geom_torsion_atom_site_label_3
_geom_torsion_atom_site_label_4
_geom_torsion_site_symmetry_1
_geom_torsion
Zn1 O3 P1 O2 3_666 138.3(2)
Zn1 O3 P1 O2 4_575 -19.8(3)
Zn1 O3 P1 O1 4_575 -146.2(2)
Zn1 O3 P1 O1 3_666 12.0(3)
Zn1 O3 P1 C1 3_666 -105.1(3)
Zn1 O3 P1 C1 4_575 96.7(3)
Zn1 O2 P1 O3 3_676 -29.8(4)
Zn1 O2 P1 O1 3_676 92.6(4)
Zn1 O2 P1 C1 3_676 -147.5(4)
Zn1 O1 P1 O3 . 85.0(3)
Zn1 O1 P1 O2 . -38.3(4)
Zn1 O1 P1 C1 . -157.5(3)
loop_
_refln_index_h
_refln_index_k
_refln_index_l
_refln_F_squared_meas
_refln_F_squared_sigma
-18 0 2 56.1 14.79
15 0 4 5920.13 179.12
-18 0 4 5920.13 179.12
-18 0 6 1809.04 128.07
-18 1 2 6.76 15.43
-18 1 3 151.67 11.88
15 -1 4 988.22 27.36
-18 1 4 988.22 27.36
-18 1 5 2.71 7.42
-17 0 2 4312.96 179.5
14 0 4 3816.84 94.27
-17 0 4 3816.84 94.27
-17 0 6 1710.26 62.44
-17 0 8 1004.22 53.64
-17 1 1 177.31 15.56
-17 1 2 -1.05 8.53
-17 1 3 240.51 12.87
14 -1 4 1279.52 80.23
-17 1 4 1279.52 80.23
-17 1 5 215.15 10.63
-17 1 6 420.94 14.31
-17 1 7 36.22 6.14
-17 2 1 34.9 9.51
-17 2 2 719.27 22.46
-17 2 3 667.99 27.38
14 -2 4 4600.95 93.72
-17 2 4 4600.95 93.72
-17 2 5 2360.63 50.53
-17 2 6 2213.43 122.41
-16 0 2 5934.84 146.96
13 0 4 2998.93 77.99
-16 0 4 2998.93 77.99
-16 0 6 4434.14 86.43
-16 0 8 45.8 8.28
-16 1 1 39.51 13.57
-16 1 2 2021.14 52.13
-16 1 3 641.87 19.74
13 -1 4 879.38 73.03
-16 1 4 879.38 73.03
-16 1 5 120.44 7.69
-16 1 6 1428.92 24.76
-16 1 7 105.05 6.74
-16 1 8 331.14 12.27
-16 2 1 561.33 21.67
-16 2 2 2432.39 54.37
-16 2 3 247.69 13.79
13 -2 4 2618.24 57.65
-16 2 4 2618.24 57.65
-16 2 5 2511.6 47.99
-16 2 6 3479.92 61.15
-16 2 7 317.49 9.68
-16 3 2 870.43 26.96
-16 3 3 614.56 23.08
13 -3 4 87.55 12.5
-16 3 4 87.55 12.5
-16 3 5 98.75 17.49
-15 0 2 5773.31 131.12
12 0 4 1272.48 34.72
-15 0 4 1272.48 34.72
-15 0 6 2624.88 56.32
-15 0 10 4621.91 110.1
-15 1 1 126.05 12.7
-15 1 2 6896.7 118.82
-15 1 3 1062.57 26.49
12 -1 4 268.51 14.03
-15 1 4 268.51 14.03
-15 1 5 264.59 11.41
-15 1 6 3822.57 56.45
-15 1 7 420.08 11.98
-15 1 8 1447.13 24.81
8 -1 9 84.3 7.33
-15 1 9 84.3 7.33
-15 2 1 1223.03 34.14
-15 2 2 3751.13 72
-15 2 3 983.57 23.21
12 -2 4 1206.75 26.3
-15 2 4 1206.75 26.3
-15 2 5 3554.35 60.71
-15 2 6 5306.51 87.12
-15 2 7 1063.33 20.14
-15 2 8 79.3 8.17
8 -2 9 1641.5 93.61
-15 2 9 1641.5 93.61
-15 3 1 375.4 15.19
-15 3 2 2423.29 54.68
-15 3 3 949.95 25.22
12 -3 4 100.1 9.33
-15 3 4 100.1 9.33
-15 3 5 836.83 21.63
-15 3 6 1887.27 34.63
-15 3 7 717.9 18.02
-14 0 2 2076.64 56.67
11 0 4 2413.88 53.72
-14 0 4 2413.88 53.72
-14 0 6 789.38 22.56
-14 0 10 2147.89 44.18
-14 1 1 8.61 13.3
-14 1 2 17415.76 275.8
-14 1 3 528.88 15.28
11 -1 4 393.14 13.57
-14 1 4 393.14 13.57
-14 1 5 170.02 9.54
-14 1 6 6788.32 93.22
-14 1 7 937.67 18.48
-14 1 8 4396.69 61.77
7 -1 9 184.94 8.44
-14 1 9 184.94 8.44
-14 1 10 2724.87 44.27
-14 2 1 1814.29 43.78
-14 2 2 1015.82 26.83
-14 2 3 10.99 7.61
11 -2 4 2483.66 41.13
-14 2 4 2483.66 41.13
-14 2 5 692.25 17.34
-14 2 6 4554.44 71.08
-14 2 7 1370.9 25.01
-14 2 8 776.15 29.57
7 -2 9 738.8 20.04
-14 2 9 738.8 20.04
-14 3 1 925.81 27.02
-14 3 2 4244.73 72.78
-14 3 3 1338.01 32.52
11 -3 4 363.95 17.36
-14 3 4 363.95 17.36
-14 3 5 843.39 19.68
-14 3 6 5007.5 86.05
-14 3 7 1973.26 34.71
-14 3 8 1486.67 34.81
-14 4 1 539.37 23.93
-14 4 2 94.33 8.59
-14 4 3 36.26 12.52
11 -4 4 21.79 8.77
-14 4 4 21.79 8.77
-13 0 2 60.04 12.54
-13 0 6 462.61 18.4
-13 0 10 481.15 17.37
-13 1 1 0.49 7.99
-13 1 2 16365.26 226.01
-13 1 3 1378.61 25.33
10 -1 4 876.7 20.22
-13 1 4 876.7 20.22
-13 1 5 86.21 8.04
-13 1 6 6786.47 93.92
-13 1 7 1453.85 24.85
-13 1 8 11448.8 147.77
6 -1 9 547.37 14.47
-13 1 9 547.37 14.47
-13 1 10 1108.01 21.34
-13 1 11 123 6.86
-13 2 1 2411.83 52.2
-13 2 2 711.66 19.61
-13 2 3 600.23 16.65
10 -2 4 1489.25 37.71
-13 2 4 1489.25 37.71
-13 2 5 1450.9 27.88
-13 2 6 580.71 15.91
-13 2 7 1421.55 25.27
6 -2 9 847.33 16.92
-13 2 9 847.33 16.92
-13 2 10 334.18 12.15
-13 3 1 2142.61 47.48
-13 3 2 2869.35 53.36
-13 3 3 4763.47 72.36
10 -3 4 1163.19 24.61
-13 3 4 1163.19 24.61
-13 3 5 115.97 9.49
-13 3 6 4209.26 68.03
-13 3 7 4061.91 65.04
-13 3 8 4873.61 87.6
6 -3 9 501.36 17.73
-13 3 9 501.36 17.73
-13 4 1 637.5 21.74
-13 4 2 11.72 8.73
-13 4 3 463.45 17.78
10 -4 4 99.16 8.56
-13 4 4 99.16 8.56
-13 4 5 1155.69 43.01
-13 4 6 19.01 6.2
-12 0 2 427.77 19.45
9 0 4 6565.85 340.43
-12 0 4 6565.85 340.43
-12 0 6 265.6 15.29
-12 0 8 8548.26 164.82
-12 0 10 1797.37 49.71
-12 1 1 24.97 8.11
-12 1 2 31124.7 392.42
-12 1 3 26.93 7.36
9 -1 4 14294.04 180.8
-12 1 4 14294.04 180.8
-12 1 5 69.86 8.53
-12 1 6 3705.02 52.35
-12 1 7 1307.34 23.75
-12 1 8 17309.54 220.75
5 -1 9 573.68 17.05
-12 1 9 573.68 17.05
-12 1 10 86.02 8.32
-12 1 11 -3.41 5.83
-12 2 1 616.67 24.91
-12 2 2 845.65 21.11
-12 2 3 1713.16 30.46
9 -2 4 1507.03 45.71
-12 2 4 1507.03 45.71
-12 2 5 1583.59 36.22
-12 2 6 138.35 9.25
-12 2 7 542.69 15.51
-12 2 8 1334.28 26.69
5 -2 9 403.36 13.61
-12 2 9 403.36 13.61
-12 2 10 625.41 14.83
-12 3 1 835.01 28.14
-12 3 2 2924.2 52.23
-12 3 3 1200.28 26.03
9 -3 4 5331.87 83.26
-12 3 4 5331.87 83.26
-12 3 5 195.34 10.99
-12 3 6 1591.05 31.35
-12 3 7 5118.53 78.28
-12 3 8 7214.65 116.03
5 -3 9 530.79 20.45
-12 3 9 530.79 20.45
-12 4 1 967.62 38.27
-12 4 2 72.74 11.12
-12 4 3 1620.06 35.41
9 -4 4 726.14 20.08
-12 4 4 726.14 20.08
-12 4 5 2087.37 68.37
-12 4 6 112.04 10.26
-12 4 7 32.58 7.46
-11 0 2 6087.69 110.53
8 0 4 24233.52 527.6
-11 0 4 24233.52 527.6
-11 0 6 1085.48 28.36
-11 0 8 16506.12 302.52
-11 0 10 3828.88 73.31
-11 0 12 325.74 23.25
-11 1 1 143.43 9.01
-11 1 2 21630.6 268.05
-11 1 3 116.3 8.57
8 -1 4 15920.26 194.59
-11 1 4 15920.26 194.59
-11 1 5 210.33 10.96
-11 1 6 639.45 17.09
-11 1 7 1394.45 28.14
-11 1 8 10588.47 142.08
4 -1 9 479.71 16.42
-11 1 9 479.71 16.42
-11 1 10 29.03 7.35
-11 1 11 117.16 8.22
-11 2 1 4025.41 66.29
-11 2 2 3313.43 54.76
-11 2 3 28.96 8.32
8 -2 4 11936.23 160.88
-11 2 4 11936.23 160.88
-11 2 5 795.61 19.82
-11 2 6 333.39 13.06
-11 2 7 114.03 9.51
-11 2 8 4182.72 60.36
4 -2 9 403.36 14.48
-11 2 9 403.36 14.48
-11 2 10 1130.3 23.09
-11 2 11 46.76 6.19
-11 3 1 909.23 28.38
-11 3 2 2548.58 52.01
-11 3 3 2366.32 43.13
8 -3 4 4844.77 77.13
-11 3 4 4844.77 77.13
-11 3 5 44.35 9.31
-11 3 6 76.01 9.44
-11 3 7 6935.77 101.24
-11 3 8 4866.27 74.71
4 -3 9 1449.5 29.57
-11 3 9 1449.5 29.57
-11 3 10 557.26 17.64
-11 4 1 2283.34 60.11
-11 4 2 74.84 9.93
-11 4 3 1809.53 41.16
8 -4 4 2743.42 53.38
-11 4 4 2743.42 53.38
-11 4 5 3986.59 81.04
-11 4 6 205.13 13.12
-11 4 7 12.64 8.48
-11 4 8 490.33 17.02
-11 5 1 544.12 27.17
-11 5 2 130.58 15.41
-11 5 3 3524.24 136.35
8 -5 4 550.3 20.84
-11 5 4 550.3 20.84
-10 0 2 2071.28 52.31
7 0 4 41050.55 707.18
-10 0 4 41050.55 707.18
-10 0 6 14632.45 235.28
-10 0 8 12310.82 222.09
-10 0 10 8323.09 159.05
-10 0 12 533.67 20.8
-10 1 1 99.31 8.52
-10 1 2 4334.88 61.34
-10 1 3 208.72 10.05
7 -1 4 15757.88 187.86
-10 1 4 15757.88 187.86
-10 1 5 25.73 8.45
-10 1 6 117.05 8.89
-10 1 7 1038.49 20.74
-10 1 8 6573.55 116.44
3 -1 9 116.14 9.06
-10 1 9 116.14 9.06
-10 1 10 417.17 14.03
-10 1 11 35.78 6.86
-10 1 12 3243.51 63.7
-10 2 1 1726.05 33.35
-10 2 2 1177.26 25.38
-10 2 3 589.36 17.28
7 -2 4 19642.72 293.73
-10 2 4 19642.72 293.73
-10 2 5 2877.65 45.8
-10 2 6 2723.91 42.6
-10 2 7 416.03 14.86
-10 2 8 4197.71 57.53
3 -2 9 892.52 20.44
-10 2 9 892.52 20.44
-10 2 10 2601.85 41.89
-10 2 11 212.28 9.87
-10 3 1 2875.91 53.52
-10 3 2 26.14 8.7
-10 3 3 3310.13 54.81
7 -3 4 1876.69 38.35
-10 3 4 1876.69 38.35
-10 3 5 111.22 11.32
-10 3 6 52.71 9.13
-10 3 7 5884.16 94.7
-10 3 8 3635.37 88.19
3 -3 9 1164.08 26.01
-10 3 9 1164.08 26.01
-10 3 10 785.53 25.63
-10 4 1 3581.3 72.44
-10 4 2 72.92 10.86
-10 4 3 2351.33 46.69
7 -4 4 5005.66 82.79
-10 4 4 5005.66 82.79
-10 4 5 5366.26 94.65
-10 4 6 52.84 10.22
-10 4 7 214.36 12.45
-10 4 8 870.27 21.94
-10 5 1 339.56 29.21
-10 5 2 19.71 8.41
-10 5 3 3154.37 74.84
7 -5 4 221.85 14.78
-10 5 4 221.85 14.78
-10 5 5 123.14 9.3
-9 0 2 12.1 16.8
6 0 4 49682.08 904.35
-9 0 4 49682.08 904.35
-9 0 6 26204.58 412.59
-9 0 8 7414.9 138.5
-9 0 10 15083.71 300.79
-9 0 12 18.11 8.25
-9 1 1 536.39 16.2
-9 1 2 3543.48 63.36
-9 1 3 404.37 14.89
6 -1 4 11827.52 170.65
-9 1 4 11827.52 170.65
-9 1 5 264.15 27.57
-9 1 6 2352.43 35.18
-9 1 7 539.89 14.29
-9 1 8 2637.86 52.53
2 -1 9 179.59 9.81
-9 1 9 179.59 9.81
-9 1 10 201.93 10.33
-9 1 11 76.93 7.25
-9 1 12 1816.67 33.1
-9 2 1 1779.52 31.29
-9 2 2 743.01 17.94
-9 2 3 1.63 7.39
6 -2 4 18503.61 236.5
-9 2 4 18503.61 236.5
-9 2 5 4017.32 70.1
-9 2 6 5388.35 75.04
-9 2 7 594.95 16.41
-9 2 8 5306.15 73.96
2 -2 9 1016.93 21.55
-9 2 9 1016.93 21.55
-9 2 10 6815.3 98.81
-9 2 11 556.75 14.72
-9 3 1 490.47 18.45
-9 3 2 14.11 8.28
-9 3 3 1562.04 32.43
6 -3 4 3560.26 81.87
-9 3 4 3560.26 81.87
-9 3 5 176.3 12.68
-9 3 6 228.25 19.93
-9 3 7 2958.21 50.67
-9 3 8 1416.62 32.51
2 -3 9 987.31 20.95
-9 3 9 987.31 20.95
-9 3 10 421.76 20.61
-9 4 1 6814.89 112.74
-9 4 2 1126.95 29.77
-9 4 3 998.18 28.4
6 -4 4 3899.22 67.61
-9 4 4 3899.22 67.61
-9 4 5 8959.92 139.86
-9 4 6 953.53 21.93
-9 4 7 70.92 10.88
-9 4 8 1070.71 25.13
2 -4 9 4385.62 105.24
-9 4 9 4385.62 105.24
-9 5 1 362.97 17.4
-9 5 2 268.7 15.54
-9 5 3 2703.2 66.47
6 -5 4 141.79 9.99
-9 5 4 141.79 9.99
-9 5 5 270.35 15.58
-9 5 6 196.28 13.94
-8 0 2 13802.45 529.4
5 0 4 24842.48 765.47
-8 0 4 24842.48 765.47
-8 0 6 29309.09 540.04
-8 0 8 733.71 28.01
-8 0 10 22331.9 440.44
-8 0 12 545.67 22.13
-8 1 1 2459.43 63.81
-8 1 2 3034.07 91.29
-8 1 3 80.98 14.12
5 -1 4 9100.56 268.19
-8 1 4 9100.56 268.19
-8 1 5 2085.48 34.31
-8 1 6 3304.11 48.91
-8 1 7 941.16 18.69
-8 1 8 1202.07 23.15
1 -1 9 116.95 8.19
-8 1 9 116.95 8.19
-8 1 10 24.76 6.41
-8 1 11 138.43 8.24
-8 1 12 1931.87 33.42
-8 2 1 4861.71 75.81
-8 2 2 2793.56 47.27
-8 2 3 70.83 8.56
5 -2 4 13235.34 167.02
-8 2 4 13235.34 167.02
-8 2 5 8844.78 112.27
-8 2 6 7705.62 106.62
-8 2 7 447.46 14.9
-8 2 8 3183.1 47.57
1 -2 9 2418.74 38.06
-8 2 9 2418.74 38.06
-8 2 10 11832.92 161.62
-8 2 11 1634.49 29.75
-8 2 12 104.17 10.3
-8 3 1 2074.07 38.07
-8 3 2 2358.15 41.59
-8 3 3 3682.03 59.87
5 -3 4 2271.2 47.98
-8 3 4 2271.2 47.98
-8 3 5 414.97 24.58
-8 3 6 1060.86 23.9
-8 3 7 3118.58 49.24
-8 3 8 350.73 13.52
1 -3 9 546.09 15.06
-8 3 9 546.09 15.06
-8 3 10 74.44 7.41
-8 3 11 693.95 29.65
-8 4 1 7160.08 113.44
-8 4 2 3746.55 65.23
-8 4 3 475.81 18.26
5 -4 4 1172.87 26.87
-8 4 4 1172.87 26.87
-8 4 5 12711.83 180.6
-8 4 6 2184.75 40.99
-8 4 7 722.49 22.43
-8 4 8 1117.55 27.04
1 -4 9 4502.91 108.99
-8 4 9 4502.91 108.99
-8 5 1 1152.22 33.37
-8 5 2 8.05 10.79
-8 5 3 2162.34 42.13
5 -5 4 391.99 16.01
-8 5 4 391.99 16.01
-8 5 5 4.07 8.45
-8 5 6 64.57 9.25
-8 5 7 1045.44 31.28
-7 0 2 20532.89 645.45
4 0 4 33682.24 1260.6
-7 0 4 33682.24 1260.6
-7 0 6 31152.82 611.31
-7 0 10 24320.11 478.37
-7 0 12 1370.26 40.78
-7 1 1 3284.92 86.87
-7 1 2 15752.39 348.87
-7 1 3 1302.06 52.59
4 -1 4 9763.73 280.24
-7 1 4 9763.73 280.24
-7 1 5 4144.8 89.95
-7 1 6 9259.88 126.34
-7 1 7 825.83 17.45
-7 1 8 837.37 18.18
0 -1 9 144.07 8.7
-7 1 9 144.07 8.7
-7 1 10 4271.01 65.61
-7 1 11 778.51 17.25
-7 1 12 4090.35 65.15
-7 2 1 3301.02 94.21
-7 2 2 4936.3 111.48
-7 2 3 286.07 15.33
4 -2 4 17254.01 235.78
-7 2 4 17254.01 235.78
-7 2 5 5311.69 103.47
-7 2 6 15977.13 205.22
-7 2 7 404.96 12.93
-7 2 8 1455.02 25.21
0 -2 9 2117.08 32.06
-7 2 9 2117.08 32.06
-7 2 10 11717.01 155.11
-7 2 11 1077.23 21.11
-7 2 12 645.36 18.73
-7 3 1 1868.6 32.73
-7 3 2 10059.01 138.16
-7 3 3 3490.34 51.51
4 -3 4 461.86 16.32
-7 3 4 461.86 16.32
-7 3 5 2073.85 36.78
-7 3 6 4660.11 66.16
-7 3 7 3061.96 47.77
-7 3 8 409.28 14.39
0 -3 9 816.31 17.71
-7 3 9 816.31 17.71
-7 3 10 1974.74 34.58
-7 3 11 1117.82 35.84
-7 4 1 6504.83 99.76
-7 4 2 3816.86 68.63
-7 4 3 114.32 13.07
4 -4 4 39.18 9.74
-7 4 4 39.18 9.74
-7 4 5 8088.02 122.98
-7 4 6 3003.11 53.28
-7 4 7 1891.03 37.62
-7 4 8 428.5 15.8
0 -4 9 2578.68 79.54
-7 4 9 2578.68 79.54
-7 5 1 1484.34 35.38
-7 5 2 173.17 13.76
-7 5 3 1743.05 37.13
4 -5 4 326.36 16.26
-7 5 4 326.36 16.26
-7 5 5 512.8 17.89
-7 5 6 1.37 9.07
-7 5 7 2278.11 60.03
-6 0 2 10071.44 329.53
3 0 4 23922.75 1289.81
-6 0 4 23922.75 1289.81
-6 0 6 19013.67 408.98
-6 0 8 10648.57 258.35
-6 0 10 3915.13 86.28
-6 0 12 765.9 27.47
-6 1 1 5839.25 158.18
-6 1 2 20329.7 545.5
-6 1 3 12375.16 303.86
-6 1 5 1965.67 75.59
-6 1 6 17782.32 251.65
-6 1 7 2255.01 37.16
-6 1 8 2840.85 54.75
-1 -1 9 852.56 18.83
-6 1 9 852.56 18.83
-6 1 10 7517.51 109.73
-6 1 11 657.52 16.17
-6 1 12 6817.44 105.29
-6 2 1 10632.63 261.68
-6 2 2 3744.59 102.74
-6 2 3 865.21 39.89
3 -2 4 13494.49 228.9
-6 2 4 13494.49 228.9
-6 2 5 3999.79 88.34
-6 2 6 10874.29 142.7
-6 2 7 78.76 7.15
-6 2 8 1084.02 29.86
-1 -2 9 5299.71 68.25
-6 2 9 5299.71 68.25
-6 2 10 4327.7 57.79
-6 2 11 1251.52 23.59
-6 2 12 892.64 23.33
-6 3 1 3546.8 52.79
-6 3 2 18040.49 225.01
-6 3 3 12872.53 166.85
3 -3 4 154.73 14.24
-6 3 4 154.73 14.24
-6 3 5 943.59 21.3
-6 3 6 10697.15 149.49
-6 3 7 4203.66 65.38
-6 3 8 1229.1 24.24
-1 -3 9 1531.83 27.27
-6 3 9 1531.83 27.27
-6 3 10 2898.22 54.51
-6 3 11 1753.17 46.93
-6 4 1 5723.02 85.85
-6 4 2 1684.5 35.55
-6 4 3 186.84 12.56
3 -4 4 285.73 13.91
-6 4 4 285.73 13.91
-6 4 5 6034.03 124.84
-6 4 6 2393.19 46.59
-6 4 7 865.85 22.87
-6 4 8 168.76 19.74
-1 -4 9 3820.17 104.45
-6 4 9 3820.17 104.45
-6 4 10 396.06 38.57
-6 5 1 3634.18 66.52
-6 5 2 983.82 29.28
-6 5 3 3830.97 68.98
3 -5 4 115.57 12.16
-6 5 4 115.57 12.16
-6 5 5 1028.2 26.5
-6 5 6 320.5 14.41
-6 5 7 4933.95 118.35
-6 6 1 2516.27 169.59
-6 6 2 214.69 31.93
-5 0 2 11498.62 366.76
2 0 4 15150.31 836.18
-5 0 4 15150.31 836.18
-5 0 6 12573.88 731.26
-5 0 8 11059.83 372.35
-5 0 10 1352.29 39.88
-5 0 12 55.22 10.31
-5 1 1 5580.66 135.71
-5 1 2 37660.6 880.28
-5 1 3 17935.16 484.8
2 -1 4 4503.21 228.77
-5 1 4 4503.21 228.77
-5 1 5 1014.59 48
-5 1 6 25866.41 450.09
-5 1 7 2157.86 33.68
-5 1 8 27868.71 351.51
-2 -1 9 436.37 13.12
-5 1 9 436.37 13.12
-5 1 10 2096.35 34.75
-5 1 11 1105.57 23.11
-5 1 12 10180.35 161.83
-5 2 1 6661.79 168.41
-5 2 2 10004.45 249.13
-5 2 3 1412.07 52.52
2 -2 4 4224.25 258.19
-5 2 4 4224.25 258.19
-5 2 5 5949.99 148.65
-5 2 6 5155.57 71.68
-5 2 7 -1.69 5.29
-5 2 8 1190.65 37.05
-2 -2 9 6596.17 83.44
-5 2 9 6596.17 83.44
-5 2 10 2204.44 32.57
-5 2 11 1043.23 22.97
-5 2 12 198.28 10.45
-5 3 1 5572.96 83.86
-5 3 2 23443.45 308.67
-5 3 3 14206.1 183.39
2 -3 4 3410.18 51.43
-5 3 4 3410.18 51.43
-5 3 5 826.25 22.62
-5 3 6 10672.21 148.72
-5 3 7 2864.61 48.91
-5 3 8 6923.16 105.8
-2 -3 9 377.15 13.17
-5 3 9 377.15 13.17
-5 3 10 820.96 22.75
-5 3 11 2663.54 67.76
-5 4 1 2152.81 44.92
-5 4 2 138.89 11.43
-5 4 3 53.15 9.22
2 -4 4 1721.73 33.9
-5 4 4 1721.73 33.9
-5 4 5 5545.54 209.15
-5 4 6 655.14 21.18
-5 4 7 58.55 10.48
-5 4 8 395.97 24.17
-2 -4 9 2589.23 90.71
-5 4 9 2589.23 90.71
-5 4 10 71.62 12.03
-5 5 1 4948.55 102.02
-5 5 2 644.38 21.78
-5 5 3 5609 101.13
2 -5 4 183.33 14.45
-5 5 4 183.33 14.45
-5 5 5 552.04 19.22
-5 5 6 1060.3 28.27
-5 5 7 4548.94 130.02
-5 6 1 1039.38 55.15
-5 6 2 1.97 11.17
-5 6 3 138.84 13.88
-4 0 2 9.93 13.87
1 0 4 15535.02 848.52
-4 0 4 15535.02 848.52
-4 0 6 344.59 75.09
-4 0 8 5660.38 198.26
-4 0 10 1142.63 33.43
-4 0 12 576.78 28.35
-4 1 1 1900.15 60.73
-4 1 2 65748.55 1512.77
-4 1 3 22732.65 695.97
1 -1 4 6261.94 186.47
-4 1 4 6261.94 186.47
-4 1 5 1234.17 59.57
-4 1 6 18952.36 509.75
-4 1 7 1313.21 22.13
-4 1 8 33895.58 402.1
-3 -1 9 666.56 15.65
-4 1 9 666.56 15.65
-4 1 10 1638.54 30.56
-4 1 11 927.37 20.76
-4 1 12 8354.15 133.91
-4 2 1 12221.71 387.34
-4 2 2 2600.84 90.24
-4 2 3 317.83 30.44
1 -2 4 8483.41 245.73
-4 2 4 8483.41 245.73
-4 2 5 2302.35 109.11
-4 2 6 2440.24 37.59
-4 2 7 411.42 12
-4 2 8 2535.51 41.89
-3 -2 9 5900.78 86.93
-4 2 9 5900.78 86.93
-4 2 10 1730.03 29.91
-4 2 11 590.02 16.49
-4 2 12 40.53 6.3
-4 3 1 3971.57 73.53
-4 3 2 27779.6 352.34
-4 3 3 14988.31 194.2
1 -3 4 15930.71 224.88
-4 3 4 15930.71 224.88
-4 3 5 444.62 20.85
-4 3 6 8249.05 124.4
-4 3 7 5593.58 84.03
-4 3 8 12209.71 173.41
-3 -3 9 1398.72 25.44
-4 3 9 1398.72 25.44
-4 3 10 2.59 7.31
-4 3 11 2108.43 53.91
-4 4 1 2505.13 52.97
-4 4 2 79.86 9.57
-4 4 3 1205.37 25.29
1 -4 4 2716.29 57.57
-4 4 4 2716.29 57.57
-4 4 5 6638.44 187.24
-4 4 6 262.65 13.83
-4 4 7 395.8 19.32
-4 4 8 858.16 23.52
-3 -4 9 1474.34 61.92
-4 4 9 1474.34 61.92
-4 4 10 100.9 9.69
-4 5 1 3809.38 83.54
-4 5 2 1347.61 28.23
-4 5 3 7624.64 121.59
1 -5 4 1281.69 32.17
-4 5 4 1281.69 32.17
-4 5 5 87.05 10.93
-4 5 6 835.9 26.9
-4 5 7 5930.76 156.87
-4 5 8 332.95 20.16
-4 6 1 1037.85 82.21
-4 6 2 129.66 15.44
-4 6 3 178.62 15.36
1 -6 4 774.13 40.38
-4 6 4 774.13 40.38
-3 0 2 194.57 23.27
0 0 4 28193.65 2797.59
-3 0 4 28193.65 2797.59
-3 0 6 875.24 70.68
-3 0 8 6272.41 131.46
-3 0 10 634.51 23.83
-3 0 12 872.97 29.96
-3 1 1 2185.38 72.61
-3 1 2 60432.74 1417.33
-3 1 3 20011.24 618.18
0 -1 4 9523.5 267.75
-3 1 4 9523.5 267.75
-3 1 5 4452.49 162.65
-3 1 6 5080.54 195.05
-3 1 7 1458.76 25.81
-3 1 8 29279.52 358.23
-4 -1 9 723.11 17.19
-3 1 9 723.11 17.19
-3 1 10 168.75 9.21
-3 1 11 238.73 11.55
-3 1 12 6472.01 100.11
-3 2 1 10910.97 433.63
-3 2 2 254.43 65.32
-3 2 3 3437.39 99
0 -2 4 21963.78 588.18
-3 2 4 21963.78 588.18
-3 2 5 1753.26 109.48
-3 2 6 1172.7 25.76
-3 2 7 96.86 7.47
-3 2 8 4462.18 61.07
-4 -2 9 6664.6 87.55
-3 2 9 6664.6 87.55
-3 2 10 2179.9 39.62
-3 2 11 254.16 11.55
-3 2 12 136.18 8.25
-3 3 1 9192 196.45
-3 3 2 19430.35 297.2
-3 3 3 16565.71 220.01
0 -3 4 21425.63 298.94
-3 3 4 21425.63 298.94
-3 3 5 256.09 13.36
-3 3 6 1130 23.13
-3 3 7 6358.48 92.32
-3 3 8 7462.12 113.34
-4 -3 9 1182.04 29.04
-3 3 9 1182.04 29.04
-3 3 10 254.64 12.31
-3 3 11 1264.73 28.69
-3 4 1 1869.48 66.21
-3 4 2 1541.11 30.75
-3 4 3 6898.97 99
0 -4 4 4004.51 68.48
-3 4 4 4004.51 68.48
-3 4 5 6680.82 152.08
-3 4 6 1281.39 30.11
-3 4 7 423.64 16.5
-3 4 8 2622.52 52.52
-4 -4 9 3147.37 59.83
-3 4 9 3147.37 59.83
-3 4 10 298.4 18.61
-3 5 1 2083.8 38.44
-3 5 2 1732.06 33.01
-3 5 3 5262.1 87.06
0 -5 4 2801.12 50.69
-3 5 4 2801.12 50.69
-3 5 5 205.96 13.98
-3 5 6 105.57 12.02
-3 5 7 6987.86 171.14
-3 5 8 92.97 10.21
-3 6 1 2188.02 119.21
-3 6 2 1090.2 41.17
-3 6 3 280.39 16.88
0 -6 4 185.13 17.32
-3 6 4 185.13 17.32
-2 0 2 53424.74 5398.25
-1 0 4 87649.02 4161.46
-2 0 4 87649.02 4161.46
-2 0 6 8924.58 505.06
-2 0 8 16696.14 310.59
-2 0 10 2780.01 65.29
-2 0 12 2182.71 49.66
-2 1 1 533.72 30.47
-2 1 2 41805.71 963.09
-2 1 3 2751.76 103.53
-1 -1 4 7839.31 257.94
-2 1 4 7839.31 257.94
-2 1 5 6342.06 219.53
-2 1 6 3616.31 117.84
-2 1 7 539.63 14.41
-2 1 8 26321.37 323.05
-5 -1 9 293.96 11.9
-2 1 9 293.96 11.9
-2 1 10 725.71 20.31
-2 1 11 6.75 6.45
-2 1 12 4689.9 81.46
-2 2 1 5400.82 160.61
-2 2 2 411.23 35
-2 2 3 7505.27 217.99
-1 -2 4 23036.75 896.65
-2 2 4 23036.75 896.65
-2 2 5 5071.74 158.79
-2 2 6 2281.12 49.12
-2 2 7 432.9 12.41
-2 2 8 6154.71 83.91
-5 -2 9 5636 86.77
-2 2 9 5636 86.77
-2 2 10 3471.75 56.96
-2 2 11 620.44 16.37
-2 2 12 672.46 17.16
-2 3 1 4255.55 119.91
-2 3 2 3119.61 61.03
-2 3 3 9524.81 126.61
-1 -3 4 20894.28 284.93
-2 3 4 20894.28 284.93
-2 3 5 1839.26 34.04
-2 3 6 710.23 19.31
-2 3 7 3979.06 61.25
-2 3 8 4995.48 85.26
-5 -3 9 367.1 13.85
-2 3 9 367.1 13.85
-2 3 10 705.96 24.3
-2 3 11 352.01 12.81
-2 4 1 9983.89 158.66
-2 4 2 3078.28 49.35
-2 4 3 4246.51 64.18
-1 -4 4 11436.41 170.01
-2 4 4 11436.41 170.01
-2 4 5 5690.52 92.96
-2 4 6 77.79 13.63
-2 4 7 523.71 17
-2 4 8 1108.74 26.12
-5 -4 9 4790.78 87.28
-2 4 9 4790.78 87.28
-2 4 10 667.02 25.14
-2 5 1 407.59 17.51
-2 5 2 5.86 8.74
-2 5 3 4865.57 82.12
-1 -5 4 1998.87 40.98
-2 5 4 1998.87 40.98
-2 5 5 13.19 9.72
-2 5 6 214.64 13.3
-2 5 7 4174.09 151.95
-2 5 8 95.58 9.38
-2 6 1 2607.97 104.55
-2 6 2 949.41 33.75
-2 6 3 603.03 31.19
-1 -6 4 437.7 25.25
-2 6 4 437.7 25.25
-1 0 2 759.3 65.32
-2 0 4 66470.85 2467.45
-1 0 4 66470.85 2467.45
-1 0 6 20235.39 1087.17
-1 0 8 21575.29 377.88
-1 0 10 7911.37 163.63
-1 0 12 1066.04 34.66
-1 1 1 3370.16 98.18
-1 1 2 1342.2 49.69
-1 1 3 759.33 54.62
-2 -1 4 7782.4 314.21
-1 1 4 7782.4 314.21
-1 1 5 6033.8 212.54
-1 1 6 2703.97 108.76
-1 1 7 139.35 8.69
-1 1 8 14722.68 189.71
-6 -1 9 247.1 22.2
-1 1 9 247.1 22.2
-1 1 10 1478.78 27.56
-1 1 11 4.17 6.31
-1 1 12 1143.5 24.29
-1 2 1 5807.3 171.48
-1 2 2 373.43 31.81
-1 2 3 4053.7 129.39
-2 -2 4 31705.69 835.79
-1 2 4 31705.69 835.79
-1 2 5 4910.3 135
-1 2 6 12067.95 167.77
-1 2 7 23.5 6.68
-1 2 8 4959.88 71.65
-6 -2 9 4968.42 75.68
-1 2 9 4968.42 75.68
-1 2 10 5622.62 86.97
-1 2 11 1302.67 25.48
-1 2 12 408.25 12.28
-1 3 1 13603.23 334.11
-1 3 2 36.2 10.31
-1 3 3 7188.53 100.41
-2 -3 4 13273.79 173.22
-1 3 4 13273.79 173.22
-1 3 5 540.46 16.52
-1 3 6 865.64 30.82
-1 3 7 4930.15 76.27
-1 3 8 2503.98 59.82
-6 -3 9 526.16 34
-1 3 9 526.16 34
-1 3 10 653.99 17.23
-1 3 11 563.8 17.37
-1 4 1 12197.6 158.03
-1 4 2 13.75 9.55
-1 4 3 6875.76 97.38
-2 -4 4 15007.46 212.7
-1 4 4 15007.46 212.7
-1 4 5 12723.35 181
-1 4 6 894.17 23.11
-1 4 7 62.49 9.26
-1 4 8 1112.27 26.07
-6 -4 9 6800.48 114.83
-1 4 9 6800.48 114.83
-1 5 1 1819.31 33.48
-1 5 2 44.05 9.42
-1 5 3 5696.24 97.62
-2 -5 4 1109.55 29.43
-1 5 4 1109.55 29.43
-1 5 5 41.46 10.21
-1 5 6 100.91 13.51
-1 5 7 2727.42 105.37
-1 6 1 3754.54 107
-1 6 2 36.47 11.35
-1 6 3 639.86 26.16
-2 -6 4 732.85 28.76
-1 6 4 732.85 28.76
0 0 2 57843.6 1710.41
-3 0 4 44423.41 1632.4
0 0 4 44423.41 1632.4
0 0 6 31409.21 1283.07
0 0 8 18560.73 327.31
0 0 10 21082.49 389.44
0 0 12 -0.17 6.35
0 1 1 1455.56 48.21
0 1 2 18293.38 478.51
0 1 3 47.49 12.38
0 1 5 3645.33 131.15
0 1 6 14275.76 313.02
0 1 7 22.32 6.2
0 1 8 6078.15 83.31
-7 -1 9 445.48 14.03
0 1 9 445.48 14.03
0 1 10 479.68 14.7
0 1 11 128.48 8.47
0 1 12 719.4 17.04
0 -2 0 99999.99 3633.49
0 2 0 99999.99 3633.49
0 2 1 89.18 23.43
0 2 2 1675.22 82.33
0 2 3 2200.49 74.72
-3 -2 4 33183.18 876.94
0 2 4 33183.18 876.94
0 2 5 8859.52 187
0 2 6 12875.5 167.67
0 2 7 114.08 8.7
0 2 8 4996.38 72.34
-7 -2 9 1609.11 30.28
0 2 9 1609.11 30.28
0 2 10 10863.97 160.84
0 2 11 1041.03 22.27
0 3 1 9059.11 231.5
0 3 2 329.99 20.33
0 3 3 5399.82 75.18
-3 -3 4 8323.5 161.77
0 3 4 8323.5 161.77
0 3 5 1093.72 23.96
0 3 6 132.93 21.39
0 3 7 2695.1 47.99
0 3 8 278.31 17.03
-7 -3 9 252.01 15.6
0 3 9 252.01 15.6
0 3 10 6.83 6.57
0 3 11 730.26 22.68
0 -4 0 8960.17 171.38
0 4 0 8960.17 171.38
0 4 1 7916.6 120.3
0 4 2 1183.72 23.75
0 4 3 4274.7 72.64
-3 -4 4 9139.22 132.85
0 4 4 9139.22 132.85
0 4 5 14545.95 216.31
0 4 6 1417.08 28.83
0 4 7 84.47 9.9
0 4 8 785.73 21.99
-7 -4 9 4824.68 87.08
0 4 9 4824.68 87.08
0 5 1 1066.19 29.15
0 5 2 6.2 9.64
0 5 3 2886.77 55.61
-3 -5 4 986.09 27.44
0 5 4 986.09 27.44
0 5 5 99.58 11.31
0 5 6 252.04 19.62
0 5 7 1804.22 51.1
0 -6 0 526.74 51.66
0 6 0 526.74 51.66
0 6 1 5413.84 180.48
0 6 2 179.76 13.21
0 6 3 338.87 18.32
-3 -6 4 413.17 19.45
0 6 4 413.17 19.45
1 0 2 15578.35 582.16
-4 0 4 13674.98 567.76
1 0 4 13674.98 567.76
1 0 6 24753.13 590.45
1 0 8 6630.7 132.99
1 0 10 19431.5 359.98
1 0 12 780.37 28.74
-1 -1 0 77500.8 2293.74
1 1 0 77500.8 2293.74
1 1 1 611.77 36.79
1 1 2 16841.63 667.32
1 1 3 1182.65 61.08
-4 -1 4 3050.25 218.27
1 1 4 3050.25 218.27
1 1 5 39.61 12.91
1 1 6 12201.46 181.56
1 1 7 103.68 8.14
1 1 8 892.56 18.66
-8 -1 9 282.03 11.72
1 1 9 282.03 11.72
1 1 10 730.24 17.82
1 1 11 206.83 9.37
1 1 12 1011.11 26.58
-1 -2 0 49633.62 1487.48
1 2 0 49633.62 1487.48
1 2 1 48.35 18.91
1 2 2 7315.06 302.58
1 2 3 4526.87 140.44
-4 -2 4 8034.21 268.62
1 2 4 8034.21 268.62
1 2 5 19793.03 329.97
1 2 6 9348.41 121.36
1 2 7 260.58 11.53
1 2 8 2035.34 35.38
-8 -2 9 1165.85 28.97
1 2 9 1165.85 28.97
1 2 10 9099.7 135.34
1 2 11 1093.12 25.07
-1 -3 0 7443.87 193.48
1 3 0 7443.87 193.48
1 3 1 5954.34 160.62
1 3 2 3040.54 65.76
1 3 3 5998.4 91.02
-4 -3 4 6682.33 123.8
1 3 4 6682.33 123.8
1 3 5 118.75 10.04
1 3 6 745.75 43.06
1 3 7 4096.2 68.08
1 3 8 89.3 9.73
-8 -3 9 169.65 10.18
1 3 9 169.65 10.18
1 3 10 1530.22 32.99
-1 -4 0 4184.45 60.74
1 4 0 4184.45 60.74
1 4 1 19896.24 252.4
1 4 2 1959.69 32.76
1 4 3 666.47 33.29
-4 -4 4 5784.21 92.56
1 4 4 5784.21 92.56
1 4 5 15568.32 230.77
1 4 6 4411.98 73.79
1 4 7 968.24 24.09
1 4 8 117.26 11.62
-8 -4 9 4043.77 83.78
1 4 9 4043.77 83.78
-1 -5 0 182.51 11.94
1 5 0 182.51 11.94
1 5 1 1351.73 30.04
1 5 2 334.39 15.7
1 5 3 3135.64 58.21
-4 -5 4 612.43 30.78
1 5 4 612.43 30.78
1 5 5 731.65 22.37
1 5 6 98.68 10.77
1 5 7 2995.38 99.21
-1 -6 0 294.93 20.57
1 6 0 294.93 20.57
1 6 1 5350.03 140.29
1 6 2 614.43 22.05
1 6 3 281.2 16.52
-4 -6 4 397.54 29.21
1 6 4 397.54 29.21
-2 0 0 94417.59 3413.12
2 0 0 94417.59 3413.12
2 0 2 64448.29 2348.77
-5 0 4 12681.55 503.89
2 0 4 12681.55 503.89
2 0 6 30840.58 719.8
2 0 8 51.79 9.97
2 0 10 12103.6 228
2 0 12 1836.41 47.6
-2 -1 0 8098.73 256.28
2 1 0 8098.73 256.28
2 1 1 5063.9 169.42
2 1 2 36883.64 1145.14
2 1 3 273.2 41.15
-5 -1 4 10100.15 284.29
2 1 4 10100.15 284.29
2 1 5 2000.16 79.43
2 1 6 18564.16 246.42
2 1 7 441.33 13.56
2 1 8 2511.14 38.29
-9 -1 9 111.79 8.66
2 1 9 111.79 8.66
2 1 10 1170.43 24.12
2 1 11 481.94 12.71
-2 -2 0 26566.09 808.54
2 2 0 26566.09 808.54
2 2 1 781.85 56.05
2 2 2 6662.85 194.78
2 2 3 413.9 28.26
-5 -2 4 9259.88 262.1
2 2 4 9259.88 262.1
2 2 5 10394.1 140.78
2 2 6 11837.71 146.67
2 2 7 31.61 7.25
2 2 8 433.66 45.44
-9 -2 9 496.2 14.46
2 2 9 496.2 14.46
2 2 10 4628.92 78.27
2 2 11 814.04 21
-2 -3 0 5429.15 135.68
2 3 0 5429.15 135.68
2 3 1 5873.87 146.61
2 3 2 11672.13 163.33
2 3 3 3952.18 63.17
-5 -3 4 1742 62.2
2 3 4 1742 62.2
2 3 5 1000.02 23.56
2 3 6 3512.75 56.09
2 3 7 3189.52 56.97
2 3 8 52.53 8.66
-9 -3 9 233.25 16.09
2 3 9 233.25 16.09
2 3 10 3652.22 71.26
-2 -4 0 182.43 9.97
2 4 0 182.43 9.97
2 4 1 10973.99 139.4
2 4 2 1008.11 23.39
2 4 3 73.04 9.57
-5 -4 4 2456.78 45.36
2 4 4 2456.78 45.36
2 4 5 8972.66 141.43
2 4 6 5366.31 91.87
2 4 7 980.61 25.12
2 4 8 611.29 20.27
-9 -4 9 2891.51 60.95
2 4 9 2891.51 60.95
-2 -5 0 123.57 11.62
2 5 0 123.57 11.62
2 5 1 5395.75 88.61
2 5 2 817.82 24.32
2 5 3 3829.29 72.41
-5 -5 4 560.92 21.55
2 5 4 560.92 21.55
2 5 5 1379.67 31.87
2 5 6 49.56 9.5
2 5 7 3382.37 84.08
-2 -6 0 79.42 14.68
2 6 0 79.42 14.68
2 6 1 4715.16 128.48
2 6 2 624.7 23.44
2 6 3 20.35 9.36
-3 0 0 89630.12 3597.31
3 0 0 89630.12 3597.31
3 0 2 38750.48 1434.18
3 0 6 6755.05 143.73
3 0 8 1252.78 88.46
3 0 10 8384.76 151.35
-3 -1 0 26933.47 814.11
3 1 0 26933.47 814.11
3 1 1 2312.45 93.93
3 1 2 42668.77 1288.27
3 1 3 2077.05 99.82
-6 -1 4 4067.39 150.84
3 1 4 4067.39 150.84
3 1 5 3195.15 72.55
3 1 6 26214.72 332.76
3 1 7 848.76 18.84
3 1 8 7216.77 91.32
-10 -1 9 33.58 7.16
3 1 9 33.58 7.16
3 1 10 1731.22 30.07
3 1 11 1473.48 25.9
-3 -2 0 12356.25 393.56
3 2 0 12356.25 393.56
3 2 1 694.36 65.8
3 2 2 775.46 31.78
3 2 3 438.48 32.67
-6 -2 4 10254.17 168.89
3 2 4 10254.17 168.89
3 2 5 11927.26 166.26
3 2 6 5877.07 77.5
3 2 7 333.54 13.76
3 2 8 774.99 32.47
-10 -2 9 340.15 13.79
3 2 9 340.15 13.79
3 2 10 1676.07 33.1
3 2 11 347.45 11.81
-3 -3 0 972.67 31.04
3 3 0 972.67 31.04
3 3 1 2343.15 44.32
3 3 2 15712.6 204.17
3 3 3 11298.8 152.89
-6 -3 4 379.85 23.27
3 3 4 379.85 23.27
3 3 5 1157.98 26.96
3 3 6 8712.92 129.48
3 3 7 4759.27 79.79
3 3 8 2486.28 47.2
-10 -3 9 885.54 21.94
3 3 9 885.54 21.94
3 3 10 2096.32 49.16
-3 -4 0 553.72 16.04
3 4 0 553.72 16.04
3 4 1 5389.15 75.01
3 4 2 587.46 18.31
3 4 3 415.77 16.39
-6 -4 4 181.55 15.01
3 4 4 181.55 15.01
3 4 5 5870.41 100.5
3 4 6 3841.94 76.3
3 4 7 1018.3 27.45
3 4 8 1101.34 29.66
-3 -5 0 577.13 20.72
3 5 0 577.13 20.72
3 5 1 6591.67 111.06
3 5 2 841.07 24.83
3 5 3 7766.11 135.26
-6 -5 4 243.51 14.86
3 5 4 243.51 14.86
3 5 5 277.01 14.7
3 5 6 391.58 15.83
-3 -6 0 462.71 30.46
3 6 0 462.71 30.46
3 6 1 3562.3 148.35
3 6 2 254.46 17.85
3 6 3 12.64 11.84
-4 0 0 2007.71 86.88
4 0 0 2007.71 86.88
4 0 2 37059.52 1382.18
4 0 6 277.71 16.58
4 0 10 3149.33 70.11
-4 -1 0 3988.3 100.53
4 1 0 3988.3 100.53
4 1 1 1648.76 80.89
4 1 2 49647.79 1295.97
4 1 3 5084.33 390.74
-7 -1 4 16560.9 449.12
4 1 4 16560.9 449.12
4 1 5 2465.97 43.04
4 1 6 16738.06 210.28
4 1 7 1026.7 21.16
4 1 8 14243.79 181.37
-11 -1 9 191.08 9.69
4 1 9 191.08 9.69
4 1 10 1038.85 20.3
4 1 11 988.74 19.76
-4 -2 0 15794.35 426.5
4 2 0 15794.35 426.5
4 2 1 133.82 21.67
4 2 2 2868.28 81.71
4 2 3 3238.83 92.95
-7 -2 4 8789.83 200.19
4 2 4 8789.83 200.19
4 2 5 7133.9 100.76
4 2 6 2023.57 32.19
4 2 7 14.48 7.16
4 2 8 505.78 39.5
-11 -2 9 445.43 14.32
4 2 9 445.43 14.32
4 2 10 699.54 18.03
-4 -3 0 8.79 7.01
4 3 0 8.79 7.01
4 3 1 2094.58 37.12
4 3 2 19163 245.31
4 3 3 10451.47 141.5
-7 -3 4 649.92 26.63
4 3 4 649.92 26.63
4 3 5 1374.95 26.77
4 3 6 13312.66 185.53
4 3 7 4016.36 68.97
4 3 8 8135.73 139.47
-11 -3 9 1219.64 26.23
4 3 9 1219.64 26.23
-4 -4 0 860.41 21.08
4 4 0 860.41 21.08
4 4 1 2011.04 36.63
4 4 2 3.09 8.93
4 4 3 254.32 14.97
-7 -4 4 214.7 16.3
4 4 4 214.7 16.3
4 4 5 4822.61 120.54
4 4 6 564.09 20.72
4 4 7 129.88 11.51
4 4 8 125.24 10.51
-4 -5 0 259.98 15.99
4 5 0 259.98 15.99
4 5 1 6566.11 110.66
4 5 2 1113.93 27.22
4 5 3 8321.75 143.88
-7 -5 4 142.98 12.26
4 5 4 142.98 12.26
4 5 5 26.94 8.92
4 5 6 649.32 20.16
-4 -6 0 904.7 51.98
4 6 0 904.7 51.98
4 6 1 1011.03 51.37
4 6 2 41.25 13.51
-5 0 0 1154.5 63.48
5 0 0 1154.5 63.48
5 0 2 1345.36 141.95
-8 0 4 14841.32 679.88
5 0 4 14841.32 679.88
5 0 6 1418.64 34.67
5 0 8 4122.03 176.98
5 0 10 1587.69 36.4
-5 -1 0 2392.99 76.01
5 1 0 2392.99 76.01
5 1 1 226.2 27.01
5 1 2 74226.59 1913.09
5 1 3 4107.09 130.43
-8 -1 4 18167.51 306.02
5 1 4 18167.51 306.02
5 1 5 1490.26 26.73
5 1 6 7673.64 102
5 1 7 2185.21 35.06
5 1 8 15400.16 198.22
-12 -1 9 1015.83 20.05
5 1 9 1015.83 20.05
5 1 10 91.55 6.91
-5 -2 0 17654.67 423.01
5 2 0 17654.67 423.01
5 2 1 4236.42 118.37
5 2 2 26.83 10.66
5 2 3 1969.86 36.03
-8 -2 4 8665.45 128.02
5 2 4 8665.45 128.02
5 2 5 5300.65 75.53
5 2 6 214.54 11.18
5 2 7 936.68 21.83
5 2 8 3380.47 53.07
-12 -2 9 613.35 16.85
5 2 9 613.35 16.85
5 2 10 611.9 15.3
-5 -3 0 1160.33 23.94
5 3 0 1160.33 23.94
5 3 1 203.92 17.42
5 3 2 17377.59 223.78
5 3 3 7686.29 106.9
-8 -3 4 5251.83 82.29
5 3 4 5251.83 82.29
5 3 5 60.53 8.77
5 3 6 4449.55 67.95
5 3 7 2013.34 39.67
5 3 8 5428.1 101.69
-12 -3 9 990.45 21.12
5 3 9 990.45 21.12
-5 -4 0 490.38 17.08
5 4 0 490.38 17.08
5 4 1 1338.53 34.3
5 4 2 1304.59 30.05
5 4 3 708.88 21.76
-8 -4 4 308.5 21.9
5 4 4 308.5 21.9
5 4 5 3179.36 65.97
5 4 6 -1.41 9.73
5 4 7 50.81 9.98
5 4 8 244.6 12.95
-5 -5 0 618.48 23.94
5 5 0 618.48 23.94
5 5 1 2435.09 47.54
5 5 2 236.26 15.08
5 5 3 5303.62 100.87
-8 -5 4 459.65 17.67
5 5 4 459.65 17.67
5 5 5 62.88 9.1
5 5 6 156.17 17.06
-5 -6 0 641.76 34.35
5 6 0 641.76 34.35
5 6 1 867.43 32.31
-6 0 0 1741.67 84.96
6 0 0 1741.67 84.96
6 0 2 9739.43 385.22
-9 0 4 30698.84 1565.61
6 0 4 30698.84 1565.61
6 0 6 173.13 14.62
6 0 8 5549.28 99.43
6 0 10 2724.1 59.41
-6 -1 0 4676.87 147.62
6 1 0 4676.87 147.62
6 1 1 577.49 33.88
6 1 2 27564.42 591.07
6 1 3 2691.24 73.7
-9 -1 4 19486.65 258.34
6 1 4 19486.65 258.34
6 1 5 859.25 20.34
6 1 6 281.5 12.39
6 1 7 2476.89 39.55
6 1 8 9543.81 129.29
-13 -1 9 657.52 15.24
6 1 9 657.52 15.24
6 1 10 20.57 5.16
-6 -2 0 12520.29 308.71
6 2 0 12520.29 308.71
6 2 1 11601.12 291.17
6 2 2 558.04 18.85
6 2 3 2775.39 43.41
-9 -2 4 13629.55 192.46
6 2 4 13629.55 192.46
6 2 5 3639.2 55.42
6 2 6 469.71 15.88
6 2 7 307.96 13.98
6 2 8 2461.24 43.45
-13 -2 9 1634.96 31.22
6 2 9 1634.96 31.22
6 2 10 1136.75 24.46
-6 -3 0 5402.84 77.81
6 3 0 5402.84 77.81
6 3 1 285.57 14.78
6 3 2 5589.28 81.68
6 3 3 5302.1 81.1
-9 -3 4 9740.28 128.4
6 3 4 9740.28 128.4
6 3 5 838 19.91
6 3 6 319.68 14.3
6 3 7 4780 78.87
6 3 8 5517.78 106.11
-13 -3 9 1243.12 28.64
6 3 9 1243.12 28.64
-6 -4 0 2328.12 43.24
6 4 0 2328.12 43.24
6 4 1 2953.28 51.55
6 4 2 2004.35 39.59
6 4 3 1963.91 41.55
-9 -4 4 2120.94 43.73
6 4 4 2120.94 43.73
6 4 5 2920.35 57.5
6 4 6 76.05 11.42
6 4 7 38.55 8.1
-6 -5 0 810.35 28.64
6 5 0 810.35 28.64
6 5 1 1818.78 45.17
6 5 2 75.98 11.4
6 5 3 5588.04 110.65
-9 -5 4 495.35 20.87
6 5 4 495.35 20.87
6 5 5 147.06 26.07
-6 -6 0 173.84 32.92
6 6 0 173.84 32.92
-7 0 0 42041.31 1536.97
7 0 0 42041.31 1536.97
7 0 2 402.43 34.37
-10 0 4 41426.63 813.37
7 0 4 41426.63 813.37
7 0 6 4255.35 86.53
7 0 8 7723.46 133.41
7 0 10 2971.95 68.18
-7 -1 0 13053.84 267.87
7 1 0 13053.84 267.87
7 1 1 59.22 10.17
7 1 2 16080.02 329.84
7 1 3 2831.22 45.33
-10 -1 4 12199.46 160.75
7 1 4 12199.46 160.75
7 1 5 364.61 14.15
7 1 6 79.67 9.07
7 1 7 534.65 16.67
7 1 8 6575.48 94.14
-14 -1 9 416.05 11.8
7 1 9 416.05 11.8
7 1 10 50.54 6.09
-7 -2 0 29516.5 488.85
7 2 0 29516.5 488.85
7 2 1 10282.72 157.65
7 2 2 46.69 8.92
7 2 3 793.58 20.04
-10 -2 4 27134.9 356.65
7 2 4 27134.9 356.65
7 2 5 469.13 17.43
7 2 6 5828.65 84.54
7 2 7 57.81 9.03
7 2 8 3191.58 52.25
-14 -2 9 1471.53 27.39
7 2 9 1471.53 27.39
-7 -3 0 7870.85 109.87
7 3 0 7870.85 109.87
7 3 1 358.57 19.73
7 3 2 237.91 13.13
7 3 3 1933.02 39.06
-10 -3 4 3565.44 57.83
7 3 4 3565.44 57.83
7 3 5 56.97 9.34
7 3 6 821.36 21.85
7 3 7 1992.33 38.57
7 3 8 3396.94 66.85
-7 -4 0 6679.83 102.66
7 4 0 6679.83 102.66
7 4 1 2380.71 54.72
7 4 2 334.2 25.01
7 4 3 3866.07 73.85
-10 -4 4 3827.51 69.24
7 4 4 3827.51 69.24
7 4 5 2671.93 60.32
7 4 6 52.09 9.16
7 4 7 186.37 13.57
-7 -5 0 324.96 18.6
7 5 0 324.96 18.6
7 5 1 1230.29 35.23
7 5 2 463.92 21.91
7 5 3 3502.93 83.42
-10 -5 4 311.7 16.92
7 5 4 311.7 16.92
-8 0 0 76570.15 2268.1
8 0 0 76570.15 2268.1
8 0 2 1339.47 40.05
-11 0 4 31314.16 519.28
8 0 4 31314.16 519.28
8 0 6 4410.75 88.77
8 0 8 7260.81 139.76
-8 -1 0 255.47 17.9
8 1 0 255.47 17.9
8 1 1 240.66 15.6
8 1 2 10144.63 139.93
8 1 3 185.55 10.6
8 1 5 83.5 9.46
8 1 6 520.04 17.23
8 1 7 1250.36 25.04
8 1 8 1726.86 36.14
-15 -1 9 343.02 10.8
8 1 9 343.02 10.8
-8 -2 0 36785.35 522.47
8 2 0 36785.35 522.47
8 2 1 12766.71 184.79
8 2 2 584.93 18.41
8 2 3 979.34 22.97
-11 -2 4 13267.91 182.22
8 2 4 13267.91 182.22
8 2 5 3318.71 54.18
8 2 6 2368.94 40.59
8 2 7 665.6 19.11
8 2 8 2907.1 53.23
-15 -2 9 1593.05 35.43
8 2 9 1593.05 35.43
-8 -3 0 2045.44 38.61
8 3 0 2045.44 38.61
8 3 1 1241.01 28
8 3 2 81.6 11.22
8 3 3 2111.23 41.24
-11 -3 4 1733.18 54.89
8 3 4 1733.18 54.89
8 3 5 95.78 10.66
8 3 6 134.36 12.5
8 3 7 1528.49 44.73
8 3 8 451.36 17.78
-8 -4 0 11675.19 190.53
8 4 0 11675.19 190.53
8 4 1 4474.29 96.54
8 4 2 293.37 24.89
8 4 3 3183.61 66.44
-11 -4 4 3555.58 67.13
8 4 4 3555.58 67.13
8 4 5 4850.97 90.43
8 4 6 191.53 11.88
-8 -5 0 12.02 11.41
8 5 0 12.02 11.41
8 5 1 414.51 21.99
8 5 2 665.57 23.94
8 5 3 1898.53 60.91
-11 -5 4 157.6 20.57
8 5 4 157.6 20.57
-9 0 0 47293.49 862.86
9 0 0 47293.49 862.86
9 0 2 98.11 10.27
-12 0 4 18476.11 330.73
9 0 4 18476.11 330.73
9 0 6 13482.68 253.63
9 0 8 3986.39 85.13
-9 -1 0 140.86 9.28
9 1 0 140.86 9.28
9 1 1 12.13 6.24
9 1 2 5672.63 80.12
9 1 3 297.14 13.4
-12 -1 4 3757.21 226.3
9 1 4 3757.21 226.3
9 1 5 19.98 8.27
9 1 6 191.18 10.96
9 1 7 594.31 15.34
9 1 8 382.69 11.63
-16 -1 9 3.93 6.43
9 1 9 3.93 6.43
-9 -2 0 34365.31 515.84
9 2 0 34365.31 515.84
9 2 1 6520.86 100.15
9 2 2 5014.41 77.33
9 2 3 49.67 9.6
-12 -2 4 3936.93 62.06
9 2 4 3936.93 62.06
9 2 5 1039.37 24.72
9 2 6 5258.03 82.59
9 2 7 22.09 6.98
9 2 8 999.08 21.08
-9 -3 0 1188.11 29.13
9 3 0 1188.11 29.13
9 3 1 3560.09 65.51
9 3 2 150.38 13.95
9 3 3 386.19 18.31
-12 -3 4 1650.24 45.53
9 3 4 1650.24 45.53
9 3 5 399.02 16.23
9 3 6 103.57 13.4
9 3 7 1833.3 41.5
-9 -4 0 6828.53 121.45
9 4 0 6828.53 121.45
9 4 1 6545.47 121.98
9 4 2 1835.46 47.19
9 4 3 1221.43 34.88
-12 -4 4 1595.91 36.3
9 4 4 1595.91 36.3
9 4 5 4377.06 119.41
-9 -5 0 895.04 27.69
9 5 0 895.04 27.69
9 5 1 881.02 30.15
9 5 2 262.04 21.7
9 5 3 1098.38 37.41
-10 0 0 50387.19 783.06
10 0 0 50387.19 783.06
10 0 2 2680.22 59.02
-13 0 4 9552.91 188.1
10 0 4 9552.91 188.1
10 0 6 14638.15 315.99
10 0 8 913.76 28.85
-10 -1 0 3664.02 52.67
10 1 0 3664.02 52.67
10 1 1 1008.2 22.58
10 1 2 9262.49 129.41
10 1 3 73.29 10.6
-13 -1 4 206.8 19.85
10 1 4 206.8 19.85
10 1 5 250.8 11.87
10 1 6 3279.78 54.22
10 1 7 259.49 10.31
10 1 8 2.97 5.8
-10 -2 0 11085.68 168.29
10 2 0 11085.68 168.29
10 2 1 5413.63 85.85
10 2 2 2523.87 48.44
10 2 3 628.57 23.13
-13 -2 4 3942.99 68.15
10 2 4 3942.99 68.15
10 2 5 636.72 19.31
10 2 6 6077.56 92.91
10 2 7 49.83 7.68
-10 -3 0 2778.66 55.29
10 3 0 2778.66 55.29
10 3 1 3006.31 56.42
10 3 2 1001.68 27.31
10 3 3 916.75 27.72
-13 -3 4 627.21 24.45
10 3 4 627.21 24.45
10 3 5 209.75 13.12
10 3 6 709.68 20.34
-10 -4 0 2304.53 47.89
10 4 0 2304.53 47.89
10 4 1 4867.91 114.28
10 4 2 3364.6 71.1
10 4 3 344.19 17.2
-13 -4 4 393.74 20.14
10 4 4 393.74 20.14
10 4 5 3554.39 87.08
-10 -5 0 895.07 31.43
10 5 0 895.07 31.43
10 5 1 1219.22 33.18
-11 0 0 21251.28 374.5
11 0 0 21251.28 374.5
11 0 2 2545.44 67.13
-14 0 4 3908.47 94.87
11 0 4 3908.47 94.87
11 0 6 11781.92 279.69
-11 -1 0 2526.69 40.04
11 1 0 2526.69 40.04
11 1 1 1590.34 32.68
11 1 2 10986.41 151.59
11 1 3 3.42 8.93
-14 -1 4 301.16 13.8
11 1 4 301.16 13.8
11 1 5 124.27 9.19
11 1 6 6183.35 106.47
11 1 7 350.23 12.89
-11 -2 0 3177.23 56.06
11 2 0 3177.23 56.06
11 2 1 1309.14 31.25
11 2 2 1567.22 38.48
11 2 3 34.27 11.61
-14 -2 4 1417.51 36.13
11 2 4 1417.51 36.13
11 2 5 1252.54 37.06
11 2 6 3159.83 60.97
11 2 7 127.99 8.5
-11 -3 0 2029.14 47.15
11 3 0 2029.14 47.15
11 3 1 4819.24 89.24
11 3 2 3737.97 67.64
11 3 3 1836.31 44.99
-14 -3 4 354.91 23.52
11 3 4 354.91 23.52
11 3 5 426.06 17.15
11 3 6 1393.21 42.69
-11 -4 0 1079.99 30.16
11 4 0 1079.99 30.16
11 4 1 3292.22 89.34
11 4 2 1922.73 61.77
11 4 3 0.44 8.91
-14 -4 4 36.79 8.17
11 4 4 36.79 8.17
-12 0 0 4895.73 104.39
12 0 0 4895.73 104.39
12 0 2 412.84 25.06
-15 0 4 1936.8 49.38
12 0 4 1936.8 49.38
12 0 6 3181.33 84.03
-12 -1 0 713.76 19.06
12 1 0 713.76 19.06
12 1 1 915.28 26.15
12 1 2 9181.97 158.57
12 1 3 123.56 13.02
-15 -1 4 697.78 24.24
12 1 4 697.78 24.24
12 1 5 22.3 10.66
12 1 6 9350.26 165.35
-12 -2 0 3043.86 53.64
12 2 0 3043.86 53.64
12 2 1 235.04 19.58
12 2 2 538.5 20.81
12 2 3 307.29 16.25
-15 -2 4 408.93 23.1
12 2 4 408.93 23.1
12 2 5 327.32 27.08
12 2 6 429.71 16.71
-12 -3 0 2390.24 52.71
12 3 0 2390.24 52.71
12 3 1 3237.87 62.47
12 3 2 6188.05 114.86
12 3 3 3327.51 68.86
-15 -3 4 34.99 13.85
12 3 4 34.99 13.85
12 3 5 -1.64 7.52
-12 -4 0 -5.29 9.78
12 4 0 -5.29 9.78
12 4 1 2246.39 56.98
12 4 2 465.39 19.21
12 4 3 67.67 11.4
-13 0 0 2245.3 63.31
13 0 0 2245.3 63.31
13 0 2 1255.41 62.54
-16 0 4 846.86 74.04
13 0 4 846.86 74.04
13 0 6 54.85 12.13
-13 -1 0 60.11 9.59
13 1 0 60.11 9.59
13 1 1 1774.44 41.07
13 1 2 7340.07 154.94
13 1 3 1144.6 31.07
-16 -1 4 2983.82 56.62
13 1 4 2983.82 56.62
13 1 5 114.8 11.85
13 1 6 3245.43 119.68
-13 -2 0 799 28.17
13 2 0 799 28.17
13 2 1 115.55 10.96
13 2 2 -3.52 9.74
13 2 3 39.67 9.62
-16 -2 4 655.36 30.85
13 2 4 655.36 30.85
13 2 5 775.12 25.95
-13 -3 0 112.52 12.37
13 3 0 112.52 12.37
13 3 1 1638.84 37.73
13 3 2 6208.71 139.56
13 3 3 3895.95 98.7
-16 -3 4 664.04 42.61
13 3 4 664.04 42.61
-13 -4 0 -15.94 8.88
13 4 0 -15.94 8.88
13 4 1 327.53 17.92
-14 0 0 2346.75 66.91
14 0 0 2346.75 66.91
14 0 2 25.2 19.72
-17 0 4 3379.89 98.41
14 0 4 3379.89 98.41
-14 -1 0 775.5 24.71
14 1 0 775.5 24.71
14 1 1 463.01 26.95
14 1 2 6623.86 151.37
14 1 3 969.64 31.73
-17 -1 4 4548.85 103.78
14 1 4 4548.85 103.78
14 1 5 3.29 6.44
-14 -2 0 1409.41 37.09
14 2 0 1409.41 37.09
14 2 1 35.21 14.37
14 2 2 564.47 24.2
14 2 3 156.06 15.44
-17 -2 4 2408.37 77.81
14 2 4 2408.37 77.81
-14 -3 0 71.55 9.67
14 3 0 71.55 9.67
14 3 1 74.3 10.59
14 3 2 4951.45 126.07
-15 0 0 1623.33 57.88
15 0 0 1623.33 57.88
15 0 2 324.74 24.13
-18 0 4 4939.58 189.48
15 0 4 4939.58 189.48
-15 -1 0 2531.05 65.52
15 1 0 2531.05 65.52
15 1 1 233.83 19.11
15 1 2 1058.35 31.65
15 1 3 1494.3 38.93
-18 -1 4 1713.18 78.11
15 1 4 1713.18 78.11
-15 -2 0 2804.99 60.16
15 2 0 2804.99 60.16
15 2 1 632.12 23.65
15 2 2 768.92 25.34
15 2 3 426.36 20.41
-15 -3 0 651.67 20.8
15 3 0 651.67 20.8
15 3 1 93.51 12.11
-16 0 0 9038.81 279.81
16 0 0 9038.81 279.81
16 0 2 27.65 17.72
-16 -1 0 2245.05 56.82
16 1 0 2245.05 56.82
16 1 1 37.19 11.32
16 1 2 238.99 12.89
-16 -2 0 7559.94 164.51
16 2 0 7559.94 164.51
16 2 1 361.83 17.28
-17 0 0 10918.37 407.61
17 0 0 10918.37 407.61
-17 -1 0 9.39 9.89
17 1 0 9.39 9.89
17 1 1 -5.34 9.79
loop_
_twin_individual_id
_twin_individual_mass_fraction_refined
_twin_individual_twin_matrix_11
_twin_individual_twin_matrix_12
_twin_individual_twin_matrix_13
_twin_individual_twin_matrix_21
_twin_individual_twin_matrix_22
_twin_individual_twin_matrix_23
_twin_individual_twin_matrix_31
_twin_individual_twin_matrix_32
_twin_individual_twin_matrix_33
1 0.758(6) 1 0 0 0 1 0 0 0 1
2 0.242(6) -1 0 -0.768 0 -1 0 0 0 1
