#------------------------------------------------------------------------------
#$Date: 2019-11-23 14:26:41 +0200 (Sat, 23 Nov 2019) $
#$Revision: 233616 $
#$URL: file:///home/coder/svn-repositories/cod/cif/1/55/31/1553126.cif $
#------------------------------------------------------------------------------
#
# This file is available in the Crystallography Open Database (COD),
# http://www.crystallography.net/
#
# All data on this site have been placed in the public domain by the
# contributors.
#
data_1553126
loop_
_publ_author_name
'Suzuki, Noriyuki'
'Asada, Takumi'
'Kawamura, Akiko'
'Masuyama, Yoshiro'
_publ_section_title
;
 Sulfur-containing stable five-membered &#x201C;cycloallene&#x201D;
 complexes: 1-thia-2-zircona- and 1-thia-2-titanacyclopenta-3,4-dienes
;
_journal_issue                   6
_journal_name_full               'Organic Chemistry Frontiers'
_journal_page_first              681
_journal_paper_doi               10.1039/C5QO00072F
_journal_volume                  2
_journal_year                    2015
_chemical_formula_moiety         'C8 H17 N S Si'
_chemical_formula_sum            'C8 H17 N S Si'
_chemical_formula_weight         187.37
_chemical_name_systematic
(Z)-N,N-diethyl-3-(tert-butylditrimethylsilyl)prop-2-enethioamide
_space_group_crystal_system      triclinic
_space_group_IT_number           2
_space_group_name_Hall           '-P 1'
_space_group_name_H-M_alt        'P -1'
_atom_sites_solution_hydrogens   geom
_atom_sites_solution_primary     direct
_atom_sites_solution_secondary   difmap
_audit_creation_date             2014-12-01
_audit_creation_method           'by CrystalStructure 4.1'
_audit_update_record
;
2015-03-02 deposited with the CCDC.
2015-04-13 downloaded from the CCDC.
;
_cell_angle_alpha                92.0278
_cell_angle_beta                 99.0665
_cell_angle_gamma                112.2068
_cell_formula_units_Z            2
_cell_length_a                   6.2605
_cell_length_b                   6.9304
_cell_length_c                   14.4299
_cell_measurement_reflns_used    1574
_cell_measurement_temperature    93
_cell_measurement_theta_max      27.62
_cell_measurement_theta_min      2.87
_cell_volume                     569.305
_computing_cell_refinement       CrystalClear
_computing_data_collection       'CrystalClear (Rigaku Inc., 2008)'
_computing_data_reduction        CrystalClear
_computing_molecular_graphics    'CrystalStructure 4.1'
_computing_publication_material  'CrystalStructure 4.1 (Rigaku, 2014)'
_computing_structure_refinement  'SHELXL97 (Sheldrick, 2008)'
_computing_structure_solution    'Il Milione (Burla, et al., 2007)'
_diffrn_ambient_temperature      93
_diffrn_detector_area_resol_mean 7.314
_diffrn_measured_fraction_theta_full 0.995
_diffrn_measured_fraction_theta_max 0.995
_diffrn_measurement_device_type  'Rigaku Mercury70'
_diffrn_measurement_method       \w
_diffrn_radiation_type           'Mo K\a'
_diffrn_radiation_wavelength     0.71075
_diffrn_reflns_av_R_equivalents  0.0374
_diffrn_reflns_Laue_measured_fraction_full 0.000
_diffrn_reflns_Laue_measured_fraction_max 0.000
_diffrn_reflns_limit_h_max       7
_diffrn_reflns_limit_h_min       -7
_diffrn_reflns_limit_k_max       8
_diffrn_reflns_limit_k_min       -8
_diffrn_reflns_limit_l_max       17
_diffrn_reflns_limit_l_min       -17
_diffrn_reflns_number            5433
_diffrn_reflns_point_group_measured_fraction_full 0.000
_diffrn_reflns_point_group_measured_fraction_max 0.000
_diffrn_reflns_theta_full        25.000
_diffrn_reflns_theta_max         25.000
_diffrn_reflns_theta_min         3.192
_diffrn_standards_number         0
_exptl_absorpt_coefficient_mu    0.339
_exptl_absorpt_correction_T_max  0.990
_exptl_absorpt_correction_T_min  0.903
_exptl_absorpt_correction_type   multi-scan
_exptl_absorpt_process_details   'REQAB (Rigaku, 1998)'
_exptl_crystal_colour            colorless
_exptl_crystal_density_diffrn    1.093
_exptl_crystal_density_method    'not measured'
_exptl_crystal_description       platelet
_exptl_crystal_F_000             204.00
_exptl_crystal_recrystallization_method
'Re-crystallisation from solvent: hexane'
_exptl_crystal_size_max          0.200
_exptl_crystal_size_mid          0.100
_exptl_crystal_size_min          0.030
_refine_diff_density_max         1.51
_refine_diff_density_min         -0.43
_refine_ls_extinction_method     none
_refine_ls_goodness_of_fit_ref   1.096
_refine_ls_hydrogen_treatment    constr
_refine_ls_number_parameters     105
_refine_ls_number_reflns         1994
_refine_ls_number_restraints     0
_refine_ls_R_factor_all          0.0906
_refine_ls_R_factor_gt           0.0737
_refine_ls_shift/su_max          0.002
_refine_ls_structure_factor_coef Fsqd
_refine_ls_weighting_details
'w = 1/[\s^2^(Fo^2^)+(0.1686P)^2^+0.2089P] where P=(Fo^2^+2Fc^2^)/3'
_refine_ls_weighting_scheme      calc
_refine_ls_wR_factor_gt          0.2217
_refine_ls_wR_factor_ref         0.2447
_reflns_d_resolution_high        0.8410
_reflns_number_gt                1549
_reflns_number_total             1994
_reflns_threshold_expression     F^2^>2.0\s(F^2^)
_cod_data_source_file            c5qo00072f2.cif
_cod_data_source_block           ns299KA
_cod_original_cell_volume        569.3065
_cod_database_code               1553126
_shelx_title                     ' KA141129a'
_shelx_refln_list_code           4
_shelx_f_calc_maximum            88.32
_shelx_f_squared_multiplier      1.000
loop_
_symmetry_equiv_pos_site_id
_space_group_symop_operation_xyz
1 +X,+Y,+Z
2 -X,-Y,-Z
loop_
_symmetry_equiv_pos_as_xyz
'x, y, z'
'-x, -y, -z'
loop_
_atom_site_label
_atom_site_type_symbol
_atom_site_fract_x
_atom_site_fract_y
_atom_site_fract_z
_atom_site_U_iso_or_equiv
_atom_site_adp_type
_atom_site_occupancy
_atom_site_site_symmetry_multiplicity
_atom_site_calc_flag
_atom_site_refinement_flags
S1 S 0.36890(17) 0.70696(15) 0.60277(7) 0.0219(4) Uani 1 2 d .
Si1 Si 0.1540(2) 0.74187(18) 0.84069(8) 0.0248(4) Uani 1 2 d .
N1 N 0.0860(6) 0.3179(5) 0.6199(2) 0.0196(8) Uani 1 2 d .
C1 C 0.1226(7) 0.5208(6) 0.6239(3) 0.0189(9) Uani 1 2 d .
C2 C -0.0687(7) 0.5818(6) 0.6452(3) 0.0198(9) Uani 1 2 d .
C3 C -0.0674(7) 0.6750(6) 0.7279(3) 0.0215(9) Uani 1 2 d .
C4 C 0.2695(8) 0.2459(7) 0.6029(3) 0.0276(10) Uani 1 2 d .
C5 C -0.1344(7) 0.1580(6) 0.6366(3) 0.0270(10) Uani 1 2 d .
C6 C 0.2885(9) 0.5435(8) 0.8568(3) 0.0334(11) Uani 1 2 d .
C7 C 0.3909(9) 1.0080(8) 0.8449(4) 0.0396(13) Uani 1 2 d .
C8 C -0.0135(9) 0.7397(9) 0.9367(3) 0.0398(13) Uani 1 2 d .
H2 H -0.20155 0.55246 0.59667 0.0238 Uiso 1 2 calc R
H3 H -0.19735 0.71308 0.7302 0.0258 Uiso 1 2 calc R
H4A H 0.41293 0.32126 0.64943 0.0331 Uiso 1 2 calc R
H4B H 0.30157 0.27302 0.53928 0.0331 Uiso 1 2 calc R
H4C H 0.21688 0.09521 0.60861 0.0331 Uiso 1 2 calc R
H5A H -0.23368 0.22637 0.65626 0.0324 Uiso 1 2 calc R
H5B H -0.09976 0.07566 0.68629 0.0324 Uiso 1 2 calc R
H5C H -0.21671 0.06526 0.57833 0.0324 Uiso 1 2 calc R
H6A H 0.38562 0.55139 0.8089 0.0400 Uiso 1 2 calc R
H6B H 0.16409 0.40302 0.85017 0.0400 Uiso 1 2 calc R
H6C H 0.38634 0.57204 0.91977 0.0400 Uiso 1 2 calc R
H7A H 0.46844 1.0134 0.79057 0.0475 Uiso 1 2 calc R
H7B H 0.50625 1.0363 0.90334 0.0475 Uiso 1 2 calc R
H7C H 0.32201 1.11378 0.84303 0.0475 Uiso 1 2 calc R
H8A H -0.0957 0.83447 0.92509 0.0477 Uiso 1 2 calc R
H8B H 0.09513 0.78621 0.99738 0.0477 Uiso 1 2 calc R
H8C H -0.1281 0.59723 0.93807 0.0477 Uiso 1 2 calc R
loop_
_atom_site_aniso_label
_atom_site_aniso_U_11
_atom_site_aniso_U_22
_atom_site_aniso_U_33
_atom_site_aniso_U_12
_atom_site_aniso_U_13
_atom_site_aniso_U_23
S1 0.0177(7) 0.0153(6) 0.0296(7) 0.0015(5) 0.0074(4) 0.0047(5)
Si1 0.0263(8) 0.0256(8) 0.0238(7) 0.0113(6) 0.0049(5) 0.0033(5)
N1 0.0149(17) 0.0133(16) 0.0292(19) 0.0024(14) 0.0074(14) 0.0029(14)
C1 0.016(2) 0.016(2) 0.020(2) 0.0021(17) 0.0021(15) 0.0073(16)
C2 0.0152(19) 0.0113(19) 0.029(2) 0.0006(16) 0.0041(16) 0.0073(17)
C3 0.021(2) 0.016(2) 0.029(2) 0.0082(18) 0.0082(17) 0.0080(17)
C4 0.029(2) 0.022(2) 0.037(3) 0.013(2) 0.014(2) 0.0067(19)
C5 0.026(2) 0.011(2) 0.040(3) 0.0010(18) 0.0109(19) 0.0083(18)
C6 0.036(3) 0.041(3) 0.028(2) 0.020(2) 0.005(2) 0.006(2)
C7 0.038(3) 0.034(3) 0.037(3) 0.008(2) -0.005(2) -0.002(2)
C8 0.043(3) 0.053(3) 0.031(3) 0.026(3) 0.011(2) 0.002(2)
loop_
_atom_type_symbol
_atom_type_description
_atom_type_scat_dispersion_real
_atom_type_scat_dispersion_imag
_atom_type_scat_source
C C 0.0033 0.0016
;
International Tables for Crystallography
(Vol. C, Tables 4.2.6.8 and 6.1.1.4)
;
H H 0.0000 0.0000
;
International Tables for Crystallography
(Vol. C, Table 6.1.1.4)
;
N N 0.0061 0.0033
;
International Tables for Crystallography
(Vol. C, Tables 4.2.6.8 and 6.1.1.4)
;
Si Si 0.0817 0.0704
;
International Tables for Crystallography
(Vol. C, Tables 4.2.6.8 and 6.1.1.4)
;
S S 0.1246 0.1234
;
International Tables for Crystallography
(Vol. C, Tables 4.2.6.8 and 6.1.1.4)
;
loop_
_geom_angle_atom_site_label_1
_geom_angle_atom_site_label_2
_geom_angle_atom_site_label_3
_geom_angle
_geom_angle_publ_flag
C3 Si1 C6 111.5(2) yes
C3 Si1 C7 111.4(2) yes
C3 Si1 C8 105.4(2) yes
C6 Si1 C7 109.4(2) yes
C6 Si1 C8 109.5(3) yes
C7 Si1 C8 109.5(2) yes
C1 N1 C4 121.1(3) yes
C1 N1 C5 122.0(4) yes
C4 N1 C5 116.9(3) yes
S1 C1 N1 123.4(4) yes
S1 C1 C2 118.9(3) yes
N1 C1 C2 117.7(3) yes
C1 C2 C3 124.6(4) yes
Si1 C3 C2 129.4(4) yes
C1 C2 H2 117.720 no
C3 C2 H2 117.710 no
Si1 C3 H3 115.273 no
C2 C3 H3 115.285 no
N1 C4 H4A 109.475 no
N1 C4 H4B 109.467 no
N1 C4 H4C 109.475 no
H4A C4 H4B 109.475 no
H4A C4 H4C 109.470 no
H4B C4 H4C 109.465 no
N1 C5 H5A 109.473 no
N1 C5 H5B 109.471 no
N1 C5 H5C 109.469 no
H5A C5 H5B 109.473 no
H5A C5 H5C 109.472 no
H5B C5 H5C 109.469 no
Si1 C6 H6A 109.472 no
Si1 C6 H6B 109.473 no
Si1 C6 H6C 109.473 no
H6A C6 H6B 109.465 no
H6A C6 H6C 109.469 no
H6B C6 H6C 109.475 no
Si1 C7 H7A 109.474 no
Si1 C7 H7B 109.468 no
Si1 C7 H7C 109.470 no
H7A C7 H7B 109.474 no
H7A C7 H7C 109.468 no
H7B C7 H7C 109.473 no
Si1 C8 H8A 109.469 no
Si1 C8 H8B 109.469 no
Si1 C8 H8C 109.472 no
H8A C8 H8B 109.477 no
H8A C8 H8C 109.472 no
H8B C8 H8C 109.468 no
loop_
_geom_bond_atom_site_label_1
_geom_bond_atom_site_label_2
_geom_bond_distance
_geom_bond_publ_flag
S1 C1 1.675(4) yes
Si1 C3 1.880(4) yes
Si1 C6 1.868(6) yes
Si1 C7 1.871(5) yes
Si1 C8 1.861(6) yes
N1 C1 1.334(6) yes
N1 C4 1.464(7) yes
N1 C5 1.468(5) yes
C1 C2 1.483(7) yes
C2 C3 1.334(6) yes
C2 H2 0.950 no
C3 H3 0.950 no
C4 H4A 0.980 no
C4 H4B 0.980 no
C4 H4C 0.980 no
C5 H5A 0.980 no
C5 H5B 0.980 no
C5 H5C 0.980 no
C6 H6A 0.980 no
C6 H6B 0.980 no
C6 H6C 0.980 no
C7 H7A 0.980 no
C7 H7B 0.980 no
C7 H7C 0.980 no
C8 H8A 0.980 no
C8 H8B 0.980 no
C8 H8C 0.980 no
loop_
_geom_contact_atom_site_label_1
_geom_contact_atom_site_label_2
_geom_contact_distance
_geom_contact_publ_flag
_geom_contact_site_symmetry_2
S1 C3 3.450(5) no .
S1 C4 3.016(5) no .
Si1 C1 3.378(4) no .
N1 C3 3.387(6) no .
N1 C6 3.534(6) no .
C1 C6 3.338(6) no .
C2 C5 2.803(6) no .
C2 C6 3.570(6) no .
S1 C5 3.427(4) no 1_665
C5 S1 3.427(4) no 1_445
S1 H2 3.3034 no .
S1 H4A 2.8810 no .
S1 H4B 2.9642 no .
S1 H6A 3.1992 no .
S1 H7A 3.2098 no .
N1 H2 2.8382 no .
N1 H6A 3.0584 no .
N1 H6B 3.2795 no .
C1 H3 3.3140 no .
C1 H4A 2.6605 no .
C1 H4B 2.7262 no .
C1 H4C 3.2264 no .
C1 H5A 2.5127 no .
C1 H5B 3.1006 no .
C1 H5C 3.0424 no .
C1 H6A 2.8630 no .
C1 H6B 3.3883 no .
C2 H5A 2.3056 no .
C2 H5B 3.5158 no .
C2 H5C 3.4018 no .
C2 H6A 3.4761 no .
C2 H6B 3.5594 no .
C3 H5A 2.9676 no .
C3 H6A 3.3174 no .
C3 H6B 3.2028 no .
C3 H7A 3.2433 no .
C3 H7C 3.2729 no .
C3 H8A 3.0708 no .
C3 H8C 3.1546 no .
C4 H5A 3.3142 no .
C4 H5B 2.6645 no .
C4 H5C 2.7761 no .
C4 H6A 3.3995 no .
C5 H2 2.9810 no .
C5 H4A 3.1479 no .
C5 H4B 3.1142 no .
C5 H4C 2.4857 no .
C5 H6B 3.3600 no .
C6 H7A 3.2517 no .
C6 H7B 3.1628 no .
C6 H8B 3.2375 no .
C6 H8C 3.1596 no .
C7 H3 3.5538 no .
C7 H6A 3.1758 no .
C7 H6C 3.2363 no .
C7 H8A 3.2411 no .
C7 H8B 3.1629 no .
C8 H3 2.9925 no .
C8 H6B 3.2296 no .
C8 H6C 3.1696 no .
C8 H7B 3.2484 no .
C8 H7C 3.1600 no .
H2 H3 2.1823 no .
H2 H5A 2.3949 no .
H2 H5C 3.3416 no .
H3 H5A 3.4142 no .
H3 H7C 3.4815 no .
H3 H8A 2.8081 no .
H3 H8C 3.1390 no .
H4A H5B 3.1551 no .
H4A H6A 2.8175 no .
H4B H5B 3.4599 no .
H4B H5C 3.1656 no .
H4C H5A 3.4294 no .
H4C H5B 2.3901 no .
H4C H5C 2.6070 no .
H5A H6B 3.2843 no .
H5B H6B 3.0041 no .
H6A H7A 3.0723 no .
H6A H7B 3.3398 no .
H6B H8B 3.5366 no .
H6B H8C 3.0394 no .
H6C H7A 3.5515 no .
H6C H7B 3.0424 no .
H6C H8B 3.0582 no .
H6C H8C 3.3410 no .
H7B H8A 3.5603 no .
H7B H8B 3.0603 no .
H7C H8A 3.0495 no .
H7C H8B 3.3241 no .
S1 H2 3.2605 no 1_655
S1 H2 3.1420 no 2_566
S1 H3 3.0151 no 1_655
S1 H4B 3.1005 no 2_666
S1 H4C 3.1777 no 1_565
S1 H5A 3.4889 no 1_665
S1 H5B 3.3377 no 1_665
S1 H5C 2.9157 no 1_665
S1 H5C 3.2974 no 2_566
N1 H2 3.3942 no 2_566
C1 H2 3.3467 no 2_566
C2 H4A 3.0715 no 1_455
C2 H4B 3.2097 no 2_566
C2 H4C 3.4291 no 1_565
C2 H5B 3.5353 no 1_565
C3 H4A 3.2389 no 1_455
C3 H4C 3.4667 no 1_565
C3 H5B 2.9357 no 1_565
C3 H6A 3.5969 no 1_455
C4 H2 3.2058 no 1_655
C4 H2 3.2827 no 2_566
C4 H5A 3.1394 no 1_655
C4 H5C 3.2232 no 2_556
C4 H7A 3.4990 no 1_545
C5 H3 3.3214 no 1_545
C5 H4A 3.4527 no 1_455
C5 H4B 3.5668 no 2_556
C5 H7A 3.4842 no 1_445
C6 H7C 3.0654 no 1_545
C6 H8A 3.5617 no 1_655
C6 H8C 3.5278 no 1_655
C6 H8C 3.3350 no 2_567
C7 H4C 3.5568 no 1_565
C7 H6B 3.5316 no 1_565
C7 H8B 3.4001 no 2_677
C8 H6B 3.4282 no 2_567
C8 H6C 3.4522 no 1_455
C8 H6C 3.5265 no 2_567
C8 H7B 3.3961 no 2_677
C8 H8A 3.2840 no 2_577
C8 H8C 3.2960 no 2_567
H2 S1 3.2605 no 1_455
H2 S1 3.1420 no 2_566
H2 N1 3.3942 no 2_566
H2 C1 3.3467 no 2_566
H2 C4 3.2058 no 1_455
H2 C4 3.2827 no 2_566
H2 H4A 2.5912 no 1_455
H2 H4B 2.9383 no 1_455
H2 H4B 2.4610 no 2_566
H2 H5B 3.5900 no 1_565
H3 S1 3.0151 no 1_455
H3 C5 3.3214 no 1_565
H3 H4A 2.9252 no 1_455
H3 H5B 2.4826 no 1_565
H3 H5C 3.3605 no 1_565
H3 H6A 2.8591 no 1_455
H4A C2 3.0715 no 1_655
H4A C3 3.2389 no 1_655
H4A C5 3.4527 no 1_655
H4A H2 2.5912 no 1_655
H4A H3 2.9252 no 1_655
H4A H5A 2.5244 no 1_655
H4A H7A 3.0767 no 1_545
H4A H7C 3.2191 no 1_545
H4B S1 3.1005 no 2_666
H4B C2 3.2097 no 2_566
H4B C5 3.5668 no 2_556
H4B H2 2.9383 no 1_655
H4B H2 2.4610 no 2_566
H4B H4B 3.5479 no 2_666
H4B H4C 3.5738 no 2_556
H4B H5A 3.2590 no 1_655
H4B H5C 2.6742 no 2_556
H4C S1 3.1777 no 1_545
H4C C2 3.4291 no 1_545
H4C C3 3.4667 no 1_545
H4C C7 3.5568 no 1_545
H4C H4B 3.5738 no 2_556
H4C H5A 3.1588 no 1_655
H4C H5C 2.8809 no 2_556
H4C H7A 3.0287 no 1_545
H4C H7C 3.3310 no 1_545
H5A S1 3.4889 no 1_445
H5A C4 3.1394 no 1_455
H5A H4A 2.5244 no 1_455
H5A H4B 3.2590 no 1_455
H5A H4C 3.1588 no 1_455
H5A H7A 2.9451 no 1_445
H5B S1 3.3377 no 1_445
H5B C2 3.5353 no 1_545
H5B C3 2.9357 no 1_545
H5B H2 3.5900 no 1_545
H5B H3 2.4826 no 1_545
H5B H7A 3.1944 no 1_445
H5B H7C 3.1154 no 1_545
H5C S1 2.9157 no 1_445
H5C S1 3.2974 no 2_566
H5C C4 3.2232 no 2_556
H5C H3 3.3605 no 1_545
H5C H4B 2.6742 no 2_556
H5C H4C 2.8809 no 2_556
H6A C3 3.5969 no 1_655
H6A H3 2.8591 no 1_655
H6A H7C 2.9755 no 1_545
H6A H8A 3.2311 no 1_655
H6A H8C 3.2065 no 1_655
H6B C7 3.5316 no 1_545
H6B C8 3.4282 no 2_567
H6B H7C 2.5538 no 1_545
H6B H8B 2.9855 no 2_567
H6B H8C 3.0992 no 2_567
H6C C8 3.4522 no 1_655
H6C C8 3.5265 no 2_567
H6C H6C 2.9297 no 2_667
H6C H7B 3.4532 no 2_677
H6C H7C 3.1810 no 1_545
H6C H8A 3.0467 no 1_655
H6C H8B 3.5168 no 2_567
H6C H8C 2.9468 no 1_655
H6C H8C 2.8249 no 2_567
H7A C4 3.4990 no 1_565
H7A C5 3.4842 no 1_665
H7A H4A 3.0767 no 1_565
H7A H4C 3.0287 no 1_565
H7A H5A 2.9451 no 1_665
H7A H5B 3.1944 no 1_665
H7A H8B 3.5990 no 2_677
H7B C8 3.3961 no 2_677
H7B H6C 3.4532 no 2_677
H7B H7B 2.8600 no 2_677
H7B H8A 3.2687 no 1_655
H7B H8B 2.4943 no 2_677
H7C C6 3.0654 no 1_565
H7C H4A 3.2191 no 1_565
H7C H4C 3.3310 no 1_565
H7C H5B 3.1154 no 1_565
H7C H6A 2.9755 no 1_565
H7C H6B 2.5538 no 1_565
H7C H6C 3.1810 no 1_565
H8A C6 3.5617 no 1_455
H8A C8 3.2840 no 2_577
H8A H6A 3.2311 no 1_455
H8A H6C 3.0467 no 1_455
H8A H7B 3.2687 no 1_455
H8A H8A 2.8510 no 2_577
H8A H8B 2.8189 no 2_577
H8B C7 3.4001 no 2_677
H8B H6B 2.9855 no 2_567
H8B H6C 3.5168 no 2_567
H8B H7A 3.5990 no 2_677
H8B H7B 2.4943 no 2_677
H8B H8A 2.8189 no 2_577
H8B H8B 3.5897 no 2_577
H8B H8C 2.9157 no 2_567
H8C C6 3.5278 no 1_455
H8C C6 3.3350 no 2_567
H8C C8 3.2960 no 2_567
H8C H6A 3.2065 no 1_455
H8C H6B 3.0992 no 2_567
H8C H6C 2.9468 no 1_455
H8C H6C 2.8249 no 2_567
H8C H8B 2.9157 no 2_567
H8C H8C 2.9128 no 2_567
loop_
_geom_torsion_atom_site_label_1
_geom_torsion_atom_site_label_2
_geom_torsion_atom_site_label_3
_geom_torsion_atom_site_label_4
_geom_torsion
_geom_torsion_publ_flag
C6 Si1 C3 C2 -33.5(4) no
C7 Si1 C3 C2 89.1(4) no
C8 Si1 C3 C2 -152.2(3) no
C4 N1 C1 S1 4.3(5) no
C4 N1 C1 C2 -177.6(3) no
C5 N1 C1 S1 -178.5(3) no
C5 N1 C1 C2 -0.4(5) no
S1 C1 C2 C3 -76.4(5) no
N1 C1 C2 C3 105.4(4) no
C1 C2 C3 Si1 -3.9(6) no
loop_
_refln_index_h
_refln_index_k
_refln_index_l
_refln_F_squared_calc
_refln_F_squared_meas
_refln_F_squared_sigma
_refln_observed_status
1 0 0 1342.46 1297.42 12.10 o
2 0 0 10.27 5.02 1.14 o
3 0 0 6.29 7.51 2.10 o
4 0 0 881.24 912.60 15.32 o
5 0 0 1.35 2.48 1.46 o
6 0 0 0.94 2.16 3.60 o
-7 1 0 12.47 10.66 9.02 o
-6 1 0 0.03 -0.20 1.91 o
-5 1 0 1245.71 1333.65 21.13 o
-4 1 0 520.18 495.86 10.55 o
-3 1 0 161.00 131.34 4.98 o
-2 1 0 168.47 160.94 3.18 o
-1 1 0 2052.34 1911.28 21.26 o
0 1 0 1013.21 1746.54 9.93 o
1 1 0 4.53 3.50 1.99 o
2 1 0 119.70 126.51 4.15 o
3 1 0 4.18 0.95 2.25 o
4 1 0 102.38 104.10 5.79 o
5 1 0 382.19 418.64 19.33 o
6 1 0 27.80 29.54 15.14 o
-7 2 0 0.01 0.68 1.64 o
-6 2 0 30.52 20.13 7.00 o
-5 2 0 266.59 271.22 11.87 o
-4 2 0 58.03 41.52 3.56 o
-3 2 0 168.45 180.83 5.22 o
-2 2 0 1046.30 993.12 13.40 o
-1 2 0 356.85 353.60 4.00 o
0 2 0 1821.94 3221.74 18.27 o
1 2 0 175.88 175.86 4.38 o
2 2 0 857.58 799.58 18.67 o
3 2 0 33.40 27.99 5.50 o
4 2 0 286.83 286.69 13.97 o
5 2 0 6.90 6.20 4.20 o
-7 3 0 83.24 86.38 17.11 o
-6 3 0 21.46 12.95 5.55 o
-5 3 0 108.81 94.23 6.52 o
-4 3 0 442.07 433.59 6.91 o
-3 3 0 902.34 978.92 22.32 o
-2 3 0 338.69 395.53 14.24 o
-1 3 0 17.97 17.74 2.13 o
0 3 0 441.55 783.56 8.66 o
1 3 0 427.60 368.96 8.71 o
2 3 0 24.56 26.77 6.23 o
3 3 0 0.06 2.49 3.70 o
4 3 0 10.79 9.73 3.88 o
5 3 0 249.73 295.58 38.92 o
-7 4 0 52.91 71.58 19.99 o
-6 4 0 5.00 4.87 10.66 o
-5 4 0 248.93 262.80 11.34 o
-4 4 0 18.89 18.35 6.12 o
-3 4 0 5.70 2.64 2.87 o
-2 4 0 63.95 77.12 4.09 o
-1 4 0 14.01 9.76 1.99 o
0 4 0 882.93 1502.83 56.79 o
1 4 0 0.58 0.25 0.61 o
2 4 0 451.14 445.46 26.51 o
3 4 0 1.53 3.29 3.62 o
4 4 0 89.11 100.49 13.36 o
-7 5 0 9.80 10.97 8.03 o
-6 5 0 0.06 4.03 2.45 o
-5 5 0 75.28 72.42 8.39 o
-4 5 0 269.04 273.69 35.09 o
-3 5 0 189.17 200.88 10.87 o
-2 5 0 55.32 54.65 3.46 o
-1 5 0 108.20 87.96 5.45 o
0 5 0 348.45 619.25 11.28 o
1 5 0 108.10 82.34 10.10 o
2 5 0 36.37 22.16 7.38 o
3 5 0 0.22 5.62 3.07 o
-6 6 0 22.75 21.98 6.77 o
-5 6 0 244.24 271.51 13.89 o
-4 6 0 32.94 27.19 8.71 o
-3 6 0 89.97 99.31 11.25 o
-2 6 0 15.21 14.18 3.25 o
-1 6 0 107.28 92.26 7.41 o
0 6 0 9.64 13.15 2.52 o
1 6 0 185.62 158.36 24.47 o
2 6 0 157.21 164.00 21.30 o
-5 7 0 4.25 3.80 3.46 o
-4 7 0 245.50 293.81 21.97 o
-3 7 0 119.20 121.80 9.17 o
-2 7 0 111.75 104.69 7.71 o
-1 7 0 14.93 6.85 2.26 o
0 7 0 257.19 362.75 30.33 o
1 7 0 5.31 2.70 4.39 o
-4 8 0 14.68 10.59 3.45 o
-3 8 0 160.73 147.72 16.46 o
-2 8 0 1.56 5.68 4.23 o
2 -8 1 9.45 6.94 2.65 o
3 -8 1 38.03 28.87 6.23 o
4 -8 1 109.06 116.81 22.11 o
-1 -7 1 99.91 65.64 14.89 o
0 -7 1 70.69 84.22 18.39 o
1 -7 1 98.54 80.35 11.18 o
2 -7 1 69.32 60.46 8.03 o
3 -7 1 38.82 34.84 7.10 o
4 -7 1 31.63 24.59 6.81 o
5 -7 1 220.56 250.62 24.82 o
-2 -6 1 2.78 9.01 5.18 o
-1 -6 1 51.50 56.96 8.82 o
0 -6 1 357.28 617.84 12.35 o
1 -6 1 212.30 218.55 13.06 o
2 -6 1 4.98 7.64 2.08 o
3 -6 1 0.04 -0.68 2.66 o
4 -6 1 318.37 367.96 13.70 o
5 -6 1 87.00 82.02 15.06 o
6 -6 1 81.41 119.33 13.98 o
-3 -5 1 10.89 2.78 6.07 o
-2 -5 1 10.08 7.81 4.32 o
-1 -5 1 214.21 196.92 12.86 o
0 -5 1 822.76 1364.24 20.30 o
1 -5 1 295.74 313.68 8.50 o
2 -5 1 92.34 88.48 4.04 o
3 -5 1 16.82 14.77 4.41 o
4 -5 1 516.86 559.10 14.73 o
5 -5 1 137.16 138.87 12.78 o
6 -5 1 106.21 130.31 13.31 o
7 -5 1 0.09 -0.95 4.39 o
-4 -4 1 26.06 16.01 6.01 o
-3 -4 1 155.38 156.66 10.54 o
-2 -4 1 124.90 136.45 15.88 o
-1 -4 1 373.20 310.93 11.66 o
0 -4 1 76.14 146.02 6.73 o
1 -4 1 1279.57 1155.92 14.91 o
2 -4 1 49.13 38.51 3.90 o
3 -4 1 25.27 27.67 5.18 o
4 -4 1 51.39 33.97 6.48 o
5 -4 1 22.40 26.81 6.34 o
6 -4 1 195.27 176.73 14.57 o
7 -4 1 0.00 7.12 3.17 o
-5 -3 1 3.77 6.30 4.00 o
-4 -3 1 406.64 466.26 19.46 o
-3 -3 1 44.54 43.96 7.47 o
-2 -3 1 49.17 60.75 6.86 o
-1 -3 1 16.56 14.05 3.23 o
0 -3 1 417.19 619.25 10.38 o
1 -3 1 354.68 350.54 5.58 o
2 -3 1 160.10 124.70 2.60 o
3 -3 1 0.25 0.80 0.58 o
4 -3 1 33.82 29.71 2.30 o
5 -3 1 375.55 391.57 9.53 o
6 -3 1 202.35 216.63 13.74 o
7 -3 1 10.02 7.16 4.69 o
-5 -2 1 101.10 123.08 13.76 o
-4 -2 1 15.29 21.75 9.53 o
-3 -2 1 220.54 218.00 13.84 o
-2 -2 1 237.93 241.45 9.50 o
-1 -2 1 610.55 609.96 13.93 o
0 -2 1 298.96 510.72 5.15 o
1 -2 1 2308.39 2206.31 14.33 o
2 -2 1 0.81 0.15 0.38 o
3 -2 1 234.28 231.26 5.90 o
4 -2 1 98.37 102.57 8.09 o
5 -2 1 269.20 284.25 10.94 o
6 -2 1 156.51 189.47 20.81 o
7 -2 1 26.04 25.40 8.10 o
-6 -1 1 78.88 87.52 13.31 o
-5 -1 1 61.74 57.17 11.67 o
-4 -1 1 422.34 420.59 13.30 o
-3 -1 1 26.06 8.84 8.37 o
-2 -1 1 1481.69 1588.57 18.21 o
-1 -1 1 505.57 455.29 4.98 o
0 -1 1 2608.85 4493.00 23.61 o
1 -1 1 66.21 62.92 2.12 o
2 -1 1 230.22 209.23 4.17 o
3 -1 1 158.38 145.64 5.91 o
4 -1 1 436.20 396.86 10.77 o
5 -1 1 33.89 32.97 4.23 o
6 -1 1 347.48 367.45 17.79 o
-6 0 1 54.55 49.25 8.40 o
-5 0 1 357.60 363.41 14.24 o
-4 0 1 356.93 361.45 7.07 o
-3 0 1 207.64 176.44 6.80 o
-2 0 1 619.77 609.03 9.28 o
-1 0 1 1754.13 1675.46 10.02 o
1 0 1 2152.09 2142.17 14.10 o
2 0 1 175.10 169.09 3.70 o
3 0 1 15.80 11.80 2.10 o
4 0 1 21.57 23.30 5.30 o
5 0 1 150.31 144.38 13.00 o
6 0 1 26.55 20.80 8.21 o
-7 1 1 40.49 18.14 9.16 o
-6 1 1 24.02 16.10 7.27 o
-5 1 1 395.99 368.91 12.20 o
-4 1 1 43.24 31.45 3.99 o
-3 1 1 37.58 23.86 2.79 o
-2 1 1 194.56 177.38 3.25 o
-1 1 1 0.16 4.31 1.95 o
0 1 1 303.62 517.45 4.76 o
1 1 1 116.88 122.67 2.32 o
2 1 1 642.91 608.97 17.10 o
3 1 1 6.51 4.83 1.56 o
4 1 1 26.09 19.89 3.10 o
5 1 1 35.24 40.02 8.15 o
6 1 1 134.94 144.23 17.25 o
-7 2 1 61.22 57.57 15.91 o
-6 2 1 62.19 50.36 8.52 o
-5 2 1 30.91 29.34 4.69 o
-4 2 1 150.97 125.09 4.28 o
-3 2 1 927.25 952.34 13.68 o
-2 2 1 125.35 83.93 3.90 o
-1 2 1 106.02 103.94 2.58 o
0 2 1 2058.25 3505.06 21.97 o
1 2 1 1466.65 1440.16 12.69 o
2 2 1 515.01 526.90 14.18 o
3 2 1 160.75 155.46 9.52 o
4 2 1 93.67 91.03 11.21 o
5 2 1 23.13 33.35 5.98 o
-7 3 1 169.72 196.06 24.71 o
-6 3 1 2.82 5.54 2.77 o
-5 3 1 216.95 201.82 5.96 o
-4 3 1 152.50 159.50 6.80 o
-3 3 1 1495.09 1406.43 29.13 o
-2 3 1 774.84 682.67 11.75 o
-1 3 1 10.20 3.98 1.46 o
0 3 1 31.56 40.93 4.50 o
1 3 1 136.09 164.38 6.37 o
2 3 1 531.16 497.43 13.98 o
3 3 1 11.77 10.63 4.43 o
4 3 1 14.86 11.33 5.32 o
5 3 1 2.03 3.13 6.11 o
-7 4 1 46.59 38.80 7.09 o
-6 4 1 126.70 149.51 18.37 o
-5 4 1 6.05 6.69 4.32 o
-4 4 1 163.63 154.95 9.94 o
-3 4 1 357.81 329.81 11.84 o
-2 4 1 449.86 438.88 7.86 o
-1 4 1 1.60 -0.54 1.19 o
0 4 1 0.02 0.95 1.43 o
1 4 1 680.62 658.19 11.69 o
2 4 1 609.64 600.33 16.31 o
3 4 1 8.05 2.95 8.40 o
4 4 1 5.96 1.75 3.12 o
-7 5 1 231.69 264.08 35.32 o
-6 5 1 0.71 21.87 7.30 o
-5 5 1 1.81 -0.36 6.27 o
-4 5 1 14.57 13.04 6.93 o
-3 5 1 772.18 803.41 20.49 o
-2 5 1 4.86 1.92 1.41 o
-1 5 1 184.15 177.29 10.90 o
0 5 1 6.21 10.48 2.49 o
1 5 1 269.67 270.94 11.45 o
2 5 1 48.36 52.87 7.63 o
3 5 1 8.35 2.41 3.15 o
-6 6 1 165.30 258.57 21.18 o
-5 6 1 7.49 9.25 5.15 o
-4 6 1 25.97 35.49 7.97 o
-3 6 1 3.59 4.75 2.70 o
-2 6 1 147.57 159.28 8.37 o
-1 6 1 88.80 73.57 8.09 o
0 6 1 27.10 40.99 7.96 o
1 6 1 81.02 73.70 8.87 o
2 6 1 195.84 160.58 49.45 o
-6 7 1 0.12 5.11 3.79 o
-5 7 1 0.61 21.30 6.15 o
-4 7 1 1.03 -1.75 4.09 o
-3 7 1 239.66 228.56 11.97 o
-2 7 1 90.24 65.52 18.03 o
-1 7 1 108.83 99.65 13.17 o
0 7 1 13.35 14.04 5.45 o
1 7 1 29.95 20.78 12.01 o
-4 8 1 0.23 8.77 4.54 o
-3 8 1 0.98 -0.75 3.60 o
2 -8 2 24.07 10.78 4.46 o
3 -8 2 1.59 0.92 1.84 o
4 -8 2 0.17 1.46 1.87 o
-1 -7 2 8.95 3.97 2.50 o
0 -7 2 45.62 57.77 13.90 o
1 -7 2 27.78 17.81 5.71 o
2 -7 2 225.57 225.02 15.26 o
3 -7 2 9.75 11.53 4.19 o
4 -7 2 4.17 2.45 3.56 o
5 -7 2 0.01 2.21 2.94 o
-2 -6 2 90.58 90.54 10.96 o
-1 -6 2 22.04 20.29 8.93 o
0 -6 2 28.12 33.86 6.68 o
1 -6 2 176.90 161.58 18.04 o
2 -6 2 371.94 355.55 15.40 o
3 -6 2 8.38 8.32 4.11 o
4 -6 2 81.12 83.49 8.78 o
5 -6 2 113.68 147.64 21.69 o
6 -6 2 63.53 67.87 11.23 o
-3 -5 2 346.88 356.33 20.32 o
-2 -5 2 8.57 9.46 4.96 o
-1 -5 2 123.99 115.53 5.80 o
0 -5 2 4.30 4.05 1.71 o
1 -5 2 687.24 691.00 30.84 o
2 -5 2 164.15 134.05 4.70 o
3 -5 2 106.20 99.89 5.48 o
4 -5 2 198.37 202.55 14.12 o
5 -5 2 50.64 53.77 8.37 o
6 -5 2 145.62 156.96 16.19 o
-4 -4 2 253.55 272.56 19.89 o
-3 -4 2 2.77 4.04 4.46 o
-2 -4 2 1.96 -0.70 3.67 o
-1 -4 2 540.45 539.49 8.56 o
0 -4 2 49.69 72.60 6.58 o
1 -4 2 250.41 254.00 7.81 o
2 -4 2 531.08 528.64 8.49 o
3 -4 2 91.66 71.84 9.26 o
4 -4 2 9.47 10.09 5.42 o
5 -4 2 134.77 143.43 12.78 o
6 -4 2 154.51 167.21 16.72 o
7 -4 2 23.93 22.58 5.97 o
-5 -3 2 4.17 1.26 3.86 o
-4 -3 2 0.95 -0.62 3.94 o
-3 -3 2 442.97 413.02 13.39 o
-2 -3 2 12.31 6.30 5.02 o
-1 -3 2 210.77 200.71 5.98 o
0 -3 2 394.75 687.13 11.66 o
1 -3 2 2633.23 2662.87 32.74 o
2 -3 2 32.77 39.23 6.75 o
3 -3 2 268.69 237.97 8.37 o
4 -3 2 50.97 51.52 3.09 o
5 -3 2 99.97 104.62 9.56 o
6 -3 2 2.98 4.66 3.23 o
7 -3 2 46.12 37.08 8.49 o
-5 -2 2 24.37 12.33 9.17 o
-4 -2 2 609.63 604.42 15.94 o
-3 -2 2 356.83 348.94 15.27 o
-2 -2 2 977.84 922.99 22.71 o
-1 -2 2 42.87 45.46 4.71 o
0 -2 2 96.24 154.77 3.31 o
1 -2 2 1228.42 1228.29 9.92 o
2 -2 2 2075.23 1889.15 18.44 o
3 -2 2 3.67 2.76 2.19 o
4 -2 2 77.66 62.95 6.90 o
5 -2 2 106.41 92.07 9.73 o
6 -2 2 308.72 326.94 15.49 o
7 -2 2 63.53 79.48 17.10 o
-6 -1 2 33.37 38.96 9.57 o
-5 -1 2 0.03 2.71 4.39 o
-4 -1 2 267.90 259.09 8.41 o
-3 -1 2 875.02 903.19 14.31 o
-2 -1 2 232.93 241.68 12.69 o
-1 -1 2 1198.75 1180.11 8.21 o
0 -1 2 1010.45 1546.83 9.73 o
1 -1 2 3694.45 3524.38 37.22 o
2 -1 2 0.08 -0.67 1.16 o
3 -1 2 314.28 276.87 10.62 o
4 -1 2 2.24 2.09 1.84 o
5 -1 2 408.67 460.77 20.96 o
6 -1 2 10.10 6.36 4.05 o
-6 0 2 97.92 143.78 10.80 o
-5 0 2 13.30 15.53 3.11 o
-4 0 2 236.78 216.18 7.19 o
-3 0 2 305.56 274.79 6.21 o
-2 0 2 755.97 710.36 9.09 o
-1 0 2 283.97 260.95 3.83 o
1 0 2 3.15 3.08 1.68 o
2 0 2 658.70 622.22 8.14 o
3 0 2 22.20 18.17 2.55 o
4 0 2 46.48 39.74 4.27 o
5 0 2 8.01 8.55 6.10 o
6 0 2 54.50 59.57 9.42 o
-7 1 2 56.83 53.97 8.64 o
-6 1 2 97.55 126.48 13.78 o
-5 1 2 139.26 141.93 8.80 o
-4 1 2 27.36 20.56 3.84 o
-3 1 2 18.51 8.85 2.16 o
-2 1 2 364.68 352.45 7.59 o
-1 1 2 1477.57 1356.71 8.49 o
0 1 2 813.63 1285.04 9.10 o
1 1 2 559.33 499.70 4.91 o
2 1 2 4.35 1.91 2.02 o
3 1 2 1367.94 1393.79 26.47 o
4 1 2 2.72 5.35 2.13 o
5 1 2 0.06 3.98 3.16 o
6 1 2 4.06 2.64 2.40 o
-7 2 2 134.81 122.23 14.21 o
-6 2 2 103.32 99.25 8.37 o
-5 2 2 181.23 179.73 9.91 o
-4 2 2 63.75 60.89 4.06 o
-2 2 2 1960.29 1956.41 16.37 o
-1 2 2 58.12 41.64 3.90 o
0 2 2 434.26 679.78 5.78 o
1 2 2 227.82 243.47 5.80 o
2 2 2 1379.71 1363.77 17.01 o
3 2 2 145.02 146.35 9.19 o
4 2 2 223.29 206.60 12.32 o
5 2 2 0.01 5.14 8.04 o
-7 3 2 18.56 11.65 19.15 o
-6 3 2 144.73 158.28 19.86 o
-5 3 2 36.63 25.84 3.19 o
-4 3 2 151.19 131.53 8.74 o
-3 3 2 67.07 63.56 5.87 o
-2 3 2 381.68 347.94 5.14 o
-1 3 2 893.71 912.58 9.76 o
0 3 2 157.93 273.23 5.27 o
1 3 2 113.80 106.82 3.66 o
2 3 2 129.51 130.13 4.77 o
3 3 2 270.75 273.66 13.07 o
4 3 2 21.16 18.71 4.90 o
5 3 2 0.00 1.50 3.54 o
-7 4 2 76.76 79.68 14.79 o
-6 4 2 6.47 10.64 11.09 o
-5 4 2 130.31 132.95 9.94 o
-4 4 2 47.74 49.73 7.23 o
-3 4 2 460.02 423.39 11.08 o
-2 4 2 65.89 81.59 3.24 o
-1 4 2 554.71 520.15 11.96 o
0 4 2 45.94 56.97 3.59 o
1 4 2 171.53 176.35 5.00 o
2 4 2 0.65 -1.44 2.40 o
3 4 2 182.73 193.09 12.32 o
4 4 2 65.10 63.36 11.18 o
-7 5 2 0.70 5.09 7.05 o
-6 5 2 285.38 406.53 29.20 o
-5 5 2 0.42 2.64 5.78 o
-4 5 2 95.90 97.47 8.96 o
-3 5 2 288.43 289.77 7.79 o
-2 5 2 567.74 501.17 11.10 o
-1 5 2 28.78 26.70 3.77 o
0 5 2 38.02 54.89 5.35 o
1 5 2 114.24 109.01 6.29 o
2 5 2 23.73 21.07 6.59 o
3 5 2 126.87 106.38 11.10 o
-6 6 2 14.42 20.91 6.43 o
-5 6 2 148.28 182.20 12.59 o
-4 6 2 19.20 16.01 6.10 o
-3 6 2 17.41 8.36 4.61 o
-2 6 2 38.37 30.01 3.88 o
-1 6 2 219.91 204.70 10.48 o
0 6 2 38.43 57.71 5.99 o
1 6 2 4.94 6.10 4.98 o
2 6 2 49.44 43.81 12.56 o
-6 7 2 170.91 155.76 18.37 o
-5 7 2 15.44 8.82 4.96 o
-4 7 2 11.34 13.40 4.70 o
-3 7 2 3.61 -0.01 2.57 o
-2 7 2 363.40 352.04 18.09 o
-1 7 2 38.09 27.14 6.10 o
0 7 2 55.07 80.04 21.05 o
2 -8 3 74.02 54.63 13.96 o
3 -8 3 22.59 15.85 5.47 o
-1 -7 3 21.01 12.32 5.70 o
0 -7 3 2.32 7.45 3.75 o
1 -7 3 87.88 72.46 15.05 o
2 -7 3 479.60 476.73 19.52 o
3 -7 3 38.20 36.82 8.90 o
4 -7 3 32.05 37.81 15.42 o
5 -7 3 11.50 6.79 7.28 o
-2 -6 3 0.28 -1.49 3.14 o
-1 -6 3 208.24 214.12 23.75 o
0 -6 3 6.15 7.81 2.88 o
1 -6 3 231.93 209.13 9.21 o
2 -6 3 6.75 2.89 2.99 o
3 -6 3 100.07 96.03 10.76 o
4 -6 3 9.15 4.05 2.75 o
5 -6 3 45.80 42.12 7.58 o
6 -6 3 83.82 89.14 12.23 o
-3 -5 3 59.16 70.46 9.91 o
-2 -5 3 96.65 95.23 22.86 o
-1 -5 3 203.19 184.99 7.79 o
0 -5 3 34.31 46.71 6.16 o
1 -5 3 119.15 93.84 9.23 o
2 -5 3 310.43 277.32 8.91 o
3 -5 3 374.27 363.83 7.09 o
4 -5 3 134.08 130.64 11.85 o
5 -5 3 13.67 11.28 4.38 o
6 -5 3 66.32 106.59 17.06 o
-4 -4 3 0.01 7.35 5.79 o
-3 -4 3 127.21 138.66 11.31 o
-2 -4 3 109.19 99.38 12.99 o
-1 -4 3 1097.24 1042.76 16.18 o
0 -4 3 188.88 301.28 10.44 o
1 -4 3 93.21 81.99 7.05 o
2 -4 3 113.29 106.10 5.46 o
3 -4 3 639.97 604.54 8.12 o
4 -4 3 4.13 0.64 1.75 o
5 -4 3 2.79 2.29 6.40 o
6 -4 3 8.86 6.77 6.62 o
-5 -3 3 91.88 91.44 11.84 o
-4 -3 3 4.00 3.65 9.70 o
-3 -3 3 83.40 84.11 9.83 o
-2 -3 3 319.65 302.31 4.56 o
-1 -3 3 0.04 0.74 1.00 o
0 -3 3 41.61 51.80 3.55 o
1 -3 3 107.11 116.88 5.01 o
2 -3 3 800.33 806.35 19.89 o
3 -3 3 312.42 290.91 9.11 o
4 -3 3 808.66 858.10 16.63 o
5 -3 3 27.68 14.81 3.05 o
6 -3 3 31.43 31.49 4.98 o
7 -3 3 42.93 42.16 7.12 o
-6 -2 3 57.64 72.87 11.30 o
-5 -2 3 38.93 37.05 9.19 o
-4 -2 3 111.29 90.76 9.35 o
-3 -2 3 95.26 92.35 7.14 o
-2 -2 3 15.22 28.69 2.65 o
-1 -2 3 3399.10 3304.95 35.15 o
0 -2 3 453.92 800.55 7.26 o
1 -2 3 0.18 -0.02 1.21 o
2 -2 3 1.64 1.99 1.41 o
3 -2 3 1753.77 1718.12 22.98 o
4 -2 3 93.82 99.35 6.52 o
5 -2 3 32.17 22.21 3.70 o
6 -2 3 3.70 4.20 4.90 o
-6 -1 3 200.83 262.37 28.66 o
-5 -1 3 47.89 54.55 9.02 o
-4 -1 3 0.52 1.81 1.94 o
-3 -1 3 194.52 183.37 4.36 o
-2 -1 3 802.91 796.82 10.01 o
-1 -1 3 345.14 332.62 5.94 o
0 -1 3 48.60 60.80 2.53 o
1 -1 3 347.70 311.25 4.38 o
2 -1 3 217.00 172.13 5.53 o
3 -1 3 61.39 46.42 5.62 o
4 -1 3 87.45 80.82 7.68 o
5 -1 3 151.28 159.39 9.04 o
6 -1 3 51.00 45.22 5.63 o
-6 0 3 229.49 268.37 13.69 o
-5 0 3 4.44 5.58 12.81 o
-4 0 3 87.08 82.40 5.47 o
-3 0 3 2.38 3.42 1.66 o
-2 0 3 1158.75 1148.56 11.20 o
-1 0 3 272.41 228.54 4.01 o
0 0 3 151.92 243.53 4.56 o
1 0 3 3469.99 3266.62 23.93 o
2 0 3 6.16 7.09 1.70 o
3 0 3 514.75 481.29 11.76 o
4 0 3 39.73 33.10 4.42 o
5 0 3 127.07 110.83 7.17 o
6 0 3 6.39 9.00 3.96 o
-7 1 3 93.38 89.48 10.65 o
-6 1 3 111.72 126.58 13.79 o
-5 1 3 305.33 283.69 8.25 o
-4 1 3 392.28 431.10 8.94 o
-3 1 3 34.94 26.82 4.45 o
-2 1 3 75.43 71.24 2.63 o
-1 1 3 1950.32 1880.22 11.43 o
0 1 3 560.59 917.78 11.39 o
1 1 3 137.73 147.80 3.49 o
2 1 3 1359.75 1409.27 19.57 o
3 1 3 445.60 456.53 12.60 o
4 1 3 228.09 231.72 8.68 o
5 1 3 50.59 42.09 6.53 o
6 1 3 2.63 7.48 5.73 o
-7 2 3 4.93 2.88 1.52 o
-6 2 3 539.48 588.38 21.84 o
-5 2 3 12.65 8.27 3.01 o
-4 2 3 211.50 213.56 11.18 o
-3 2 3 552.61 571.39 13.52 o
-2 2 3 1522.58 1532.50 13.59 o
-1 2 3 284.90 245.10 3.27 o
0 2 3 16.60 13.59 1.65 o
1 2 3 0.97 0.79 0.66 o
2 2 3 164.05 174.63 5.45 o
3 2 3 215.88 193.10 11.21 o
4 2 3 70.02 67.14 8.06 o
5 2 3 48.41 47.53 8.53 o
-7 3 3 65.87 74.41 9.30 o
-6 3 3 7.51 10.58 3.07 o
-5 3 3 559.19 568.91 10.48 o
-4 3 3 3.53 4.05 3.08 o
-3 3 3 1.09 -0.28 0.80 o
-2 3 3 67.50 36.53 2.24 o
-1 3 3 929.62 871.83 11.45 o
0 3 3 18.36 19.78 1.92 o
1 3 3 106.49 102.37 4.80 o
2 3 3 160.29 154.62 4.38 o
3 3 3 488.49 467.72 17.65 o
4 3 3 58.07 64.25 7.80 o
-7 4 3 0.60 12.67 9.04 o
-6 4 3 229.08 252.07 13.16 o
-5 4 3 24.96 9.87 9.28 o
-4 4 3 186.68 188.70 13.18 o
-3 4 3 35.60 34.70 3.19 o
-2 4 3 658.61 638.47 8.70 o
-1 4 3 29.45 15.97 2.30 o
0 4 3 249.47 357.63 12.59 o
1 4 3 331.12 331.64 7.82 o
2 4 3 68.71 64.38 3.98 o
3 4 3 9.86 8.10 3.55 o
4 4 3 148.94 153.08 15.54 o
-7 5 3 18.10 32.06 12.26 o
-6 5 3 1.09 5.57 5.29 o
-5 5 3 247.54 297.75 12.48 o
-4 5 3 173.03 173.26 9.57 o
-3 5 3 31.82 25.93 2.06 o
-2 5 3 1.30 5.25 5.40 o
-1 5 3 495.07 452.24 15.20 o
0 5 3 251.68 399.84 11.51 o
1 5 3 443.03 426.01 9.48 o
2 5 3 70.24 64.41 7.62 o
3 5 3 148.21 139.52 31.01 o
-6 6 3 68.75 91.87 11.05 o
-5 6 3 7.11 9.03 5.25 o
-4 6 3 509.54 585.94 21.22 o
-3 6 3 120.55 119.13 5.06 o
-2 6 3 195.55 188.82 7.11 o
-1 6 3 0.24 1.81 2.39 o
0 6 3 340.17 516.44 16.36 o
1 6 3 0.20 0.73 4.85 o
2 6 3 2.40 0.61 3.76 o
-5 7 3 182.40 221.97 17.14 o
-4 7 3 27.85 24.84 5.41 o
-3 7 3 17.00 8.86 7.87 o
-2 7 3 157.91 150.91 8.98 o
-1 7 3 16.92 9.41 4.27 o
0 7 3 4.72 2.70 4.37 o
-3 8 3 9.10 6.06 4.94 o
2 -8 4 24.72 10.29 9.86 o
3 -8 4 94.90 90.73 11.93 o
-1 -7 4 62.82 72.95 21.66 o
0 -7 4 145.25 248.09 22.83 o
1 -7 4 8.22 8.31 2.47 o
2 -7 4 5.16 -0.78 7.44 o
3 -7 4 307.86 348.68 25.81 o
4 -7 4 102.55 100.50 17.58 o
5 -7 4 21.32 13.73 6.17 o
-2 -6 4 201.95 221.46 23.49 o
-1 -6 4 26.04 23.56 7.09 o
0 -6 4 133.80 209.31 9.96 o
1 -6 4 63.32 54.13 5.42 o
2 -6 4 63.39 60.51 5.36 o
3 -6 4 34.03 19.23 7.00 o
4 -6 4 41.95 30.91 15.04 o
5 -6 4 49.52 39.55 7.28 o
6 -6 4 3.02 4.16 3.30 o
-3 -5 4 11.81 6.59 4.55 o
-2 -5 4 8.89 6.55 5.86 o
-1 -5 4 288.14 269.45 9.69 o
0 -5 4 28.69 38.61 6.16 o
1 -5 4 21.93 18.37 8.18 o
2 -5 4 0.05 1.89 1.74 o
3 -5 4 252.80 258.45 5.64 o
4 -5 4 31.99 24.05 7.59 o
5 -5 4 112.14 123.91 13.07 o
6 -5 4 0.17 0.14 4.59 o
-4 -4 4 49.46 64.01 14.62 o
-3 -4 4 39.90 43.49 8.94 o
-2 -4 4 261.28 265.44 11.92 o
-1 -4 4 221.98 218.36 8.24 o
0 -4 4 604.24 1000.55 14.18 o
1 -4 4 7.59 4.77 2.16 o
2 -4 4 11.44 13.01 2.01 o
3 -4 4 8.82 6.16 1.63 o
4 -4 4 469.04 462.38 17.23 o
5 -4 4 0.46 0.63 1.17 o
6 -4 4 34.71 28.47 8.13 o
-5 -3 4 187.11 218.04 15.08 o
-4 -3 4 42.31 40.27 9.19 o
-3 -3 4 3.79 18.40 6.24 o
-2 -3 4 111.94 101.78 5.02 o
-1 -3 4 861.72 775.46 12.62 o
0 -3 4 71.21 89.51 5.41 o
1 -3 4 10.37 4.57 2.46 o
2 -3 4 19.19 8.76 1.98 o
3 -3 4 1558.62 1498.76 19.62 o
4 -3 4 10.23 11.94 2.87 o
5 -3 4 66.55 63.45 5.74 o
6 -3 4 69.92 77.11 10.83 o
-5 -2 4 145.00 152.86 12.99 o
-4 -2 4 121.64 129.33 10.49 o
-3 -2 4 8.07 11.31 4.25 o
-2 -2 4 1153.48 1171.12 20.03 o
-1 -2 4 878.55 819.36 11.03 o
0 -2 4 257.48 355.90 5.93 o
1 -2 4 7.74 4.77 1.73 o
2 -2 4 169.34 169.37 8.35 o
3 -2 4 62.28 67.60 5.28 o
4 -2 4 258.21 235.82 14.21 o
5 -2 4 11.39 5.39 2.60 o
6 -2 4 29.89 28.25 4.58 o
-6 -1 4 203.83 212.73 18.32 o
-5 -1 4 65.04 67.25 15.82 o
-4 -1 4 229.81 233.72 6.43 o
-3 -1 4 0.85 0.71 1.80 o
-2 -1 4 114.39 113.53 5.37 o
-1 -1 4 20.42 10.70 1.88 o
0 -1 4 93.79 143.71 3.29 o
1 -1 4 1985.70 1819.55 12.23 o
2 -1 4 68.75 55.94 4.49 o
3 -1 4 439.57 463.18 10.16 o
4 -1 4 100.88 105.15 7.34 o
5 -1 4 558.72 548.86 16.53 o
6 -1 4 7.39 1.68 2.34 o
-6 0 4 2.23 7.42 4.51 o
-5 0 4 52.73 54.40 5.33 o
-4 0 4 716.62 745.72 14.61 o
-3 0 4 259.45 248.13 6.20 o
-2 0 4 387.56 390.20 10.09 o
-1 0 4 1587.38 1471.78 10.14 o
0 0 4 7801.00 12426.20 92.14 o
1 0 4 2022.97 1831.58 14.50 o
2 0 4 26.63 24.13 3.91 o
3 0 4 163.53 139.88 6.69 o
4 0 4 414.04 434.46 22.20 o
5 0 4 71.18 72.34 6.53 o
6 0 4 13.56 14.83 5.36 o
-7 1 4 1.06 7.91 4.54 o
-6 1 4 109.14 118.06 7.06 o
-5 1 4 421.45 440.29 15.85 o
-4 1 4 1254.53 1235.13 18.76 o
-3 1 4 2.90 0.62 2.10 o
-2 1 4 521.00 525.92 6.94 o
-1 1 4 170.98 147.13 5.52 o
0 1 4 651.95 988.11 10.36 o
1 1 4 312.50 294.07 4.83 o
2 1 4 7.31 4.79 2.21 o
3 1 4 191.53 182.93 6.83 o
4 1 4 62.28 59.69 5.46 o
5 1 4 190.23 185.60 14.68 o
-7 2 4 4.15 1.70 2.97 o
-6 2 4 8.20 8.35 3.02 o
-5 2 4 265.41 260.37 8.02 o
-4 2 4 43.67 24.15 5.00 o
-3 2 4 22.96 12.31 2.66 o
-2 2 4 61.49 53.60 3.51 o
-1 2 4 279.84 269.76 6.44 o
0 2 4 203.03 291.22 13.36 o
1 2 4 673.67 593.97 9.14 o
2 2 4 49.67 54.61 5.68 o
3 2 4 0.12 2.72 1.03 o
4 2 4 80.13 65.52 8.20 o
5 2 4 70.57 93.75 37.85 o
-7 3 4 30.67 35.20 9.94 o
-6 3 4 55.18 66.41 5.89 o
-5 3 4 4.92 4.27 2.69 o
-4 3 4 1021.27 1057.80 9.69 o
-3 3 4 5.38 6.55 1.54 o
-2 3 4 33.93 35.39 2.35 o
-1 3 4 108.26 109.97 9.47 o
0 3 4 278.30 410.77 8.86 o
1 3 4 193.36 160.83 4.93 o
2 3 4 28.17 26.18 2.56 o
3 3 4 0.01 1.57 2.55 o
4 3 4 139.93 132.57 13.52 o
-7 4 4 20.98 15.34 13.56 o
-6 4 4 103.90 97.06 13.45 o
-5 4 4 107.66 107.37 9.31 o
-4 4 4 12.62 6.38 1.77 o
-3 4 4 116.95 115.82 5.09 o
-2 4 4 10.28 9.20 2.79 o
-1 4 4 235.25 196.46 5.19 o
0 4 4 172.98 279.91 8.29 o
1 4 4 280.15 272.87 7.75 o
2 4 4 168.84 152.38 9.67 o
3 4 4 13.88 11.53 4.14 o
-7 5 4 0.00 2.49 9.20 o
-6 5 4 1.66 6.06 5.21 o
-5 5 4 6.38 4.38 3.48 o
-4 5 4 644.50 681.60 15.56 o
-3 5 4 37.37 26.46 3.08 o
-2 5 4 2.29 2.30 1.25 o
-1 5 4 5.52 3.72 2.29 o
0 5 4 267.47 427.42 15.66 o
1 5 4 5.45 1.43 1.44 o
2 5 4 62.89 52.72 12.75 o
3 5 4 0.08 2.40 4.15 o
-6 6 4 0.26 0.81 7.05 o
-5 6 4 98.84 125.44 10.54 o
-4 6 4 153.23 178.68 11.87 o
-3 6 4 49.83 43.86 5.49 o
-2 6 4 0.54 5.61 3.47 o
-1 6 4 73.65 52.25 8.65 o
0 6 4 20.85 26.75 11.64 o
1 6 4 339.80 337.69 58.91 o
-5 7 4 12.93 12.79 8.75 o
-4 7 4 375.95 406.24 31.79 o
-3 7 4 48.67 21.81 9.82 o
-2 7 4 45.37 42.10 6.47 o
-1 7 4 59.20 45.92 7.66 o
0 7 4 158.95 177.08 44.66 o
-1 -7 5 18.59 11.88 5.10 o
0 -7 5 315.55 503.26 22.14 o
1 -7 5 8.60 7.65 2.66 o
2 -7 5 71.77 57.08 9.59 o
3 -7 5 0.17 9.88 10.32 o
4 -7 5 212.70 214.78 22.09 o
5 -7 5 27.69 26.27 7.90 o
-2 -6 5 26.75 12.99 4.29 o
-1 -6 5 164.24 161.15 20.84 o
0 -6 5 11.14 14.31 4.02 o
1 -6 5 152.27 145.13 8.79 o
2 -6 5 13.49 7.58 4.01 o
3 -6 5 0.84 2.71 3.36 o
4 -6 5 212.05 213.44 16.15 o
5 -6 5 323.50 371.51 27.46 o
-3 -5 5 0.00 6.87 5.90 o
-2 -5 5 18.53 17.46 5.63 o
-1 -5 5 74.21 60.85 5.35 o
0 -5 5 1096.06 1807.05 18.72 o
1 -5 5 2.54 6.85 2.95 o
2 -5 5 230.51 214.91 11.75 o
3 -5 5 38.83 29.82 4.57 o
4 -5 5 885.18 936.01 43.51 o
5 -5 5 82.45 82.18 15.25 o
6 -5 5 34.41 25.82 14.47 o
-4 -4 5 43.14 41.60 9.50 o
-3 -4 5 249.87 259.10 14.54 o
-2 -4 5 14.09 9.95 2.45 o
-1 -4 5 637.73 613.35 16.20 o
0 -4 5 501.91 905.52 15.05 o
1 -4 5 506.46 449.32 9.51 o
2 -4 5 16.47 13.13 2.84 o
3 -4 5 9.75 7.13 1.74 o
4 -4 5 1.14 0.65 2.13 o
5 -4 5 89.40 102.12 11.73 o
6 -4 5 97.56 93.82 13.05 o
-5 -3 5 209.14 206.60 17.07 o
-4 -3 5 177.09 199.65 12.44 o
-3 -3 5 3.80 8.28 1.93 o
-2 -3 5 14.71 8.27 5.52 o
-1 -3 5 183.51 154.98 6.60 o
0 -3 5 135.84 196.12 6.98 o
1 -3 5 149.11 138.35 6.38 o
2 -3 5 461.27 476.17 12.27 o
3 -3 5 67.64 76.73 5.35 o
4 -3 5 377.17 385.18 11.37 o
5 -3 5 0.12 1.32 2.47 o
6 -3 5 120.46 135.71 14.40 o
-5 -2 5 5.69 18.76 7.64 o
-4 -2 5 77.43 74.91 10.15 o
-3 -2 5 354.16 346.00 6.97 o
-2 -2 5 6.34 6.96 2.18 o
-1 -2 5 1.46 0.64 1.16 o
0 -2 5 174.65 280.42 7.68 o
1 -2 5 540.64 527.62 11.21 o
2 -2 5 163.34 197.39 6.98 o
3 -2 5 4.58 3.95 2.26 o
4 -2 5 18.06 10.53 3.44 o
5 -2 5 139.70 134.40 7.48 o
6 -2 5 29.73 33.89 5.51 o
-6 -1 5 77.29 106.39 20.32 o
-5 -1 5 162.90 165.53 12.21 o
-4 -1 5 100.53 96.47 6.69 o
-3 -1 5 654.27 628.54 17.02 o
-2 -1 5 113.17 122.75 5.60 o
-1 -1 5 84.25 61.02 7.14 o
0 -1 5 57.07 75.71 3.50 o
1 -1 5 1.00 3.96 3.11 o
2 -1 5 856.32 892.64 16.37 o
3 -1 5 18.51 15.00 3.34 o
4 -1 5 274.44 257.27 8.22 o
5 -1 5 80.82 72.22 6.91 o
6 -1 5 327.76 369.47 19.68 o
-6 0 5 2.79 14.49 8.46 o
-5 0 5 30.90 24.14 8.27 o
-4 0 5 575.00 558.42 13.35 o
-3 0 5 142.31 121.48 5.88 o
-2 0 5 0.51 -1.99 1.99 o
-1 0 5 606.61 584.91 11.25 o
0 0 5 2003.08 3177.20 28.18 o
1 0 5 1274.45 1255.87 15.42 o
2 0 5 289.21 284.66 8.04 o
3 0 5 15.26 4.63 2.63 o
4 0 5 179.21 183.02 8.62 o
5 0 5 74.50 77.18 6.52 o
6 0 5 7.84 5.15 2.86 o
-7 1 5 52.85 49.53 10.70 o
-6 1 5 7.72 14.35 7.74 o
-5 1 5 402.99 410.28 16.20 o
-4 1 5 0.00 0.51 2.24 o
-3 1 5 682.35 650.61 13.13 o
-2 1 5 249.74 255.30 11.03 o
-1 1 5 934.45 929.45 9.39 o
0 1 5 75.32 87.91 3.08 o
1 1 5 180.79 166.49 4.23 o
2 1 5 162.67 153.16 6.55 o
3 1 5 0.91 1.23 1.79 o
4 1 5 2.20 4.38 2.63 o
5 1 5 115.54 106.95 12.64 o
-7 2 5 16.10 9.78 3.58 o
-6 2 5 1.54 3.19 2.66 o
-5 2 5 0.49 4.72 4.11 o
-4 2 5 318.16 281.97 14.38 o
-3 2 5 161.15 164.97 6.23 o
-2 2 5 357.45 289.10 5.44 o
-1 2 5 109.39 92.62 4.42 o
0 2 5 744.21 1120.96 23.47 o
1 2 5 85.29 90.24 3.80 o
2 2 5 1016.69 1038.36 16.27 o
3 2 5 8.62 11.26 3.12 o
4 2 5 73.03 60.27 7.37 o
5 2 5 0.19 6.34 3.59 o
-7 3 5 130.66 157.67 12.18 o
-6 3 5 10.99 7.79 5.46 o
-5 3 5 97.22 106.78 8.47 o
-4 3 5 6.32 2.44 1.95 o
-3 3 5 2416.33 2378.19 24.31 o
-2 3 5 49.89 42.45 4.97 o
-1 3 5 38.88 25.60 4.68 o
0 3 5 30.99 64.45 6.42 o
1 3 5 428.10 390.03 8.40 o
2 3 5 75.28 73.03 5.43 o
3 3 5 13.72 8.14 3.97 o
4 3 5 0.78 3.98 3.65 o
-7 4 5 28.03 32.39 7.91 o
-6 4 5 48.74 57.58 12.55 o
-5 4 5 2.74 1.77 1.88 o
-4 4 5 304.28 313.11 6.59 o
-3 4 5 1.01 0.87 0.94 o
-2 4 5 285.17 254.50 7.98 o
-1 4 5 0.50 1.96 3.05 o
0 4 5 40.26 58.86 3.63 o
1 4 5 167.99 164.27 5.85 o
2 4 5 670.92 667.97 24.29 o
3 4 5 16.14 11.29 4.68 o
-7 5 5 74.01 86.06 11.74 o
-6 5 5 0.03 11.61 4.85 o
-5 5 5 13.63 10.84 4.86 o
-4 5 5 0.02 2.34 3.31 o
-3 5 5 833.42 907.08 10.50 o
-2 5 5 218.46 200.84 13.35 o
-1 5 5 60.48 46.48 9.86 o
0 5 5 9.75 3.51 7.43 o
1 5 5 367.43 361.96 15.89 o
2 5 5 36.65 28.97 10.34 o
-6 6 5 91.07 112.55 17.41 o
-5 6 5 5.99 9.91 4.91 o
-4 6 5 74.79 87.33 11.61 o
-3 6 5 166.45 181.61 9.79 o
-2 6 5 53.29 44.10 6.98 o
-1 6 5 40.91 37.21 6.92 o
0 6 5 15.34 18.84 5.64 o
1 6 5 11.11 4.51 4.61 o
-5 7 5 3.27 9.76 8.58 o
-4 7 5 30.96 16.96 8.54 o
-3 7 5 129.23 117.45 17.89 o
-2 7 5 0.12 2.35 2.57 o
-1 7 5 141.53 151.78 16.04 o
0 7 5 1.58 2.41 2.51 o
0 -7 6 2.56 1.58 2.95 o
1 -7 6 49.34 47.18 9.92 o
2 -7 6 171.53 138.91 15.53 o
3 -7 6 75.07 69.83 10.89 o
4 -7 6 42.86 36.92 17.31 o
-2 -6 6 235.05 218.05 21.42 o
-1 -6 6 1.83 -1.25 3.35 o
0 -6 6 131.26 188.93 8.93 o
1 -6 6 1.89 0.46 2.42 o
2 -6 6 290.99 279.33 11.71 o
3 -6 6 52.96 41.79 12.02 o
4 -6 6 212.77 272.66 35.68 o
5 -6 6 3.91 4.92 3.99 o
-3 -5 6 223.37 236.89 19.47 o
-2 -5 6 165.29 157.96 17.31 o
-1 -5 6 338.47 308.30 13.30 o
0 -5 6 384.47 589.86 12.57 o
1 -5 6 278.62 298.40 18.03 o
2 -5 6 22.02 10.83 2.82 o
3 -5 6 7.16 5.84 2.97 o
4 -5 6 145.17 147.51 14.72 o
5 -5 6 109.51 109.55 11.17 o
6 -5 6 9.42 7.86 9.55 o
-4 -4 6 38.84 33.18 8.12 o
-3 -4 6 61.47 58.49 10.58 o
-2 -4 6 39.02 31.85 6.84 o
-1 -4 6 344.02 349.79 18.08 o
0 -4 6 24.95 41.82 5.38 o
1 -4 6 2.79 6.90 2.84 o
2 -4 6 742.64 731.55 16.75 o
3 -4 6 23.01 14.08 4.51 o
4 -4 6 60.18 60.66 5.85 o
5 -4 6 2.95 1.67 1.91 o
6 -4 6 120.30 137.41 15.61 o
-5 -3 6 26.37 15.58 8.79 o
-4 -3 6 19.18 16.30 7.27 o
-3 -3 6 487.56 454.29 9.86 o
-2 -3 6 356.18 354.61 10.73 o
-1 -3 6 57.75 41.77 5.42 o
0 -3 6 72.70 111.09 5.97 o
1 -3 6 902.33 849.39 22.56 o
2 -3 6 375.71 349.80 9.84 o
3 -3 6 83.89 77.84 5.78 o
4 -3 6 17.18 19.49 4.04 o
5 -3 6 22.23 16.38 4.49 o
6 -3 6 13.71 16.69 10.46 o
-5 -2 6 4.02 5.87 5.02 o
-4 -2 6 207.92 209.44 12.85 o
-3 -2 6 982.92 913.07 14.85 o
-2 -2 6 179.54 176.54 6.05 o
-1 -2 6 13.12 6.78 5.04 o
0 -2 6 40.96 80.49 6.71 o
1 -2 6 478.12 443.48 10.86 o
2 -2 6 760.99 684.65 13.12 o
3 -2 6 304.95 305.90 8.49 o
4 -2 6 1.57 4.02 2.69 o
5 -2 6 1.28 2.28 3.91 o
6 -2 6 324.45 360.44 18.06 o
-6 -1 6 42.88 66.10 11.05 o
-5 -1 6 69.34 73.02 9.99 o
-4 -1 6 226.48 237.59 7.62 o
-3 -1 6 499.07 476.01 9.38 o
-2 -1 6 1677.81 1678.90 31.73 o
-1 -1 6 7.36 2.45 1.95 o
0 -1 6 0.16 3.00 2.71 o
1 -1 6 1353.28 1368.11 18.08 o
2 -1 6 660.69 686.75 13.97 o
3 -1 6 82.96 72.15 5.55 o
4 -1 6 4.41 6.45 2.97 o
5 -1 6 245.41 299.72 18.45 o
6 -1 6 125.64 140.90 11.90 o
-6 0 6 3.03 10.12 18.88 o
-5 0 6 6.46 4.92 2.62 o
-4 0 6 113.26 112.66 6.73 o
-3 0 6 1123.60 1103.51 18.10 o
-2 0 6 1.49 3.39 1.51 o
-1 0 6 10.13 2.69 1.74 o
0 0 6 7.39 4.98 1.84 o
1 0 6 282.07 245.37 5.80 o
2 0 6 150.31 146.53 6.26 o
3 0 6 94.07 95.05 5.71 o
4 0 6 0.98 1.30 2.83 o
5 0 6 19.70 13.35 4.01 o
-7 1 6 23.17 19.69 6.82 o
-6 1 6 49.65 66.97 6.84 o
-5 1 6 150.29 150.74 7.23 o
-4 1 6 0.25 1.07 2.19 o
-3 1 6 4.42 2.96 2.07 o
-2 1 6 1065.56 950.49 18.66 o
-1 1 6 7.49 5.88 1.83 o
0 1 6 80.03 128.59 4.78 o
1 1 6 222.36 186.78 4.90 o
2 1 6 477.21 392.47 8.09 o
3 1 6 367.49 400.63 11.60 o
4 1 6 31.14 33.86 6.56 o
5 1 6 1.07 4.83 3.28 o
-7 2 6 105.23 133.87 9.03 o
-6 2 6 0.01 4.71 2.54 o
-5 2 6 188.85 176.97 7.47 o
-4 2 6 40.49 28.19 8.58 o
-3 2 6 751.72 711.90 12.89 o
-2 2 6 55.63 48.66 3.25 o
-1 2 6 95.92 70.29 6.61 o
0 2 6 232.67 412.99 12.44 o
1 2 6 369.39 354.52 6.42 o
2 2 6 134.60 126.91 6.43 o
3 2 6 382.79 418.69 12.85 o
4 2 6 90.46 80.02 9.39 o
-7 3 6 77.20 88.11 9.93 o
-6 3 6 41.70 59.42 6.96 o
-5 3 6 46.92 34.51 5.57 o
-4 3 6 67.05 62.24 5.52 o
-3 3 6 15.00 13.90 5.26 o
-2 3 6 532.98 500.69 8.19 o
-1 3 6 109.59 102.17 6.76 o
0 3 6 123.88 189.66 8.54 o
1 3 6 53.77 46.87 3.34 o
2 3 6 308.17 330.75 12.05 o
3 3 6 44.43 38.54 5.82 o
4 3 6 68.15 47.85 14.02 o
-7 4 6 17.11 20.93 7.51 o
-6 4 6 4.64 14.82 6.41 o
-5 4 6 119.44 108.03 6.04 o
-4 4 6 60.51 50.47 4.61 o
-3 4 6 601.01 634.25 13.09 o
-2 4 6 100.70 98.69 3.65 o
-1 4 6 386.07 355.46 12.28 o
0 4 6 8.09 23.74 5.59 o
1 4 6 181.82 183.29 11.88 o
2 4 6 146.67 121.00 29.16 o
3 4 6 101.24 71.45 21.85 o
-6 5 6 112.32 152.84 23.96 o
-5 5 6 29.04 27.21 7.98 o
-4 5 6 79.85 77.14 7.51 o
-3 5 6 666.53 694.70 18.34 o
-2 5 6 144.74 147.77 13.70 o
-1 5 6 48.71 57.77 6.90 o
0 5 6 27.97 41.64 8.28 o
1 5 6 126.13 122.16 18.35 o
2 5 6 8.04 6.31 5.39 o
-6 6 6 69.68 87.09 9.85 o
-5 6 6 80.66 75.68 9.29 o
-4 6 6 12.78 7.19 3.80 o
-3 6 6 3.91 12.80 4.85 o
-2 6 6 7.59 12.45 4.26 o
-1 6 6 246.08 230.70 12.87 o
0 6 6 2.91 4.10 3.98 o
1 6 6 33.56 11.66 5.90 o
-5 7 6 103.65 140.22 20.45 o
-4 7 6 1.55 6.57 6.24 o
-3 7 6 22.42 13.58 9.18 o
-2 7 6 166.22 193.13 22.57 o
-1 7 6 205.41 169.11 15.68 o
0 -7 7 69.70 83.62 16.84 o
1 -7 7 13.13 11.68 3.67 o
2 -7 7 340.56 330.06 22.84 o
3 -7 7 7.68 8.83 3.60 o
4 -7 7 16.03 6.20 5.48 o
-2 -6 7 138.08 130.63 18.17 o
-1 -6 7 101.17 127.65 23.15 o
0 -6 7 24.25 27.15 5.23 o
1 -6 7 83.62 78.41 6.90 o
2 -6 7 15.77 11.68 4.18 o
3 -6 7 212.23 215.49 16.70 o
4 -6 7 12.93 12.13 16.83 o
5 -6 7 104.09 93.95 14.10 o
-3 -5 7 86.69 82.67 12.72 o
-2 -5 7 190.48 196.12 16.87 o
-1 -5 7 1.05 -0.22 1.87 o
0 -5 7 0.43 7.16 2.71 o
1 -5 7 1.60 30.89 16.77 o
2 -5 7 470.39 443.54 12.71 o
3 -5 7 1.93 9.30 4.38 o
4 -5 7 27.96 25.21 7.87 o
5 -5 7 3.27 -1.33 4.54 o
-4 -4 7 1.25 9.62 5.94 o
-3 -4 7 141.50 158.86 16.47 o
-2 -4 7 123.11 119.12 11.05 o
-1 -4 7 268.46 269.40 8.93 o
0 -4 7 15.33 26.23 5.46 o
1 -4 7 55.08 57.03 5.36 o
2 -4 7 5.70 20.26 9.70 o
3 -4 7 356.79 393.90 9.82 o
4 -4 7 6.20 6.60 3.31 o
5 -4 7 0.43 2.40 2.84 o
6 -4 7 0.01 7.18 8.87 o
-5 -3 7 73.54 67.26 11.59 o
-4 -3 7 8.58 9.24 4.60 o
-3 -3 7 107.99 94.40 6.39 o
-2 -3 7 105.31 98.06 7.91 o
-1 -3 7 116.34 129.69 7.13 o
0 -3 7 36.35 42.99 4.88 o
1 -3 7 79.07 77.95 5.74 o
2 -3 7 420.26 473.91 14.13 o
3 -3 7 86.18 85.38 6.22 o
4 -3 7 477.27 502.37 24.03 o
5 -3 7 0.46 -0.15 2.70 o
6 -3 7 50.75 48.17 8.54 o
-5 -2 7 32.50 49.83 9.62 o
-4 -2 7 30.52 34.21 5.13 o
-3 -2 7 63.85 55.28 5.51 o
-2 -2 7 501.93 429.95 14.89 o
-1 -2 7 686.94 675.82 16.92 o
0 -2 7 0.00 2.97 2.60 o
1 -2 7 0.67 3.95 2.27 o
2 -2 7 494.79 398.41 10.17 o
3 -2 7 460.69 503.04 13.41 o
4 -2 7 169.59 178.49 9.28 o
5 -2 7 22.62 17.38 4.28 o
6 -2 7 36.11 37.89 6.29 o
-6 -1 7 8.04 14.82 14.79 o
-5 -1 7 68.25 70.79 10.16 o
-4 -1 7 2.14 2.87 2.54 o
-3 -1 7 361.41 356.62 9.01 o
-2 -1 7 115.77 110.27 6.62 o
-1 -1 7 704.25 677.86 14.58 o
0 -1 7 32.76 37.48 4.82 o
1 -1 7 354.02 322.21 12.68 o
2 -1 7 25.36 17.03 3.81 o
3 -1 7 185.63 173.57 7.82 o
4 -1 7 25.29 26.32 4.88 o
5 -1 7 8.65 3.38 2.81 o
-6 0 7 142.63 172.35 14.18 o
-5 0 7 6.68 5.94 5.16 o
-4 0 7 45.61 53.96 5.53 o
-3 0 7 23.10 19.17 3.46 o
-2 0 7 1170.38 1183.99 21.85 o
-1 0 7 3.95 5.29 2.88 o
0 0 7 54.31 62.64 3.83 o
1 0 7 346.85 338.97 9.06 o
2 0 7 5.65 2.64 2.51 o
3 0 7 56.53 63.72 5.27 o
4 0 7 138.54 136.55 7.56 o
5 0 7 22.58 27.47 4.92 o
-6 1 7 18.49 20.15 4.74 o
-5 1 7 342.68 340.30 12.66 o
-4 1 7 142.41 149.25 7.05 o
-3 1 7 26.13 24.10 4.36 o
-2 1 7 33.08 16.44 3.58 o
-1 1 7 1202.66 1166.62 16.78 o
0 1 7 2.87 3.41 1.47 o
1 1 7 0.52 2.14 1.42 o
2 1 7 122.47 129.15 6.28 o
3 1 7 547.67 586.66 11.04 o
4 1 7 94.20 98.79 6.49 o
5 1 7 0.85 6.72 7.60 o
-7 2 7 63.62 63.21 7.33 o
-6 2 7 287.54 333.67 16.20 o
-5 2 7 44.31 35.42 6.24 o
-4 2 7 102.26 97.05 5.97 o
-3 2 7 90.83 84.00 5.83 o
-2 2 7 1138.77 1146.87 15.43 o
-1 2 7 3.88 2.56 1.47 o
0 2 7 186.08 341.55 15.28 o
1 2 7 3.10 1.68 1.91 o
2 2 7 334.18 354.60 8.87 o
3 2 7 15.82 11.35 3.47 o
4 2 7 153.66 163.44 19.48 o
-7 3 7 59.10 82.91 12.01 o
-6 3 7 55.64 66.21 6.32 o
-5 3 7 367.78 368.21 12.60 o
-4 3 7 107.68 109.22 6.43 o
-3 3 7 30.87 37.23 5.81 o
-2 3 7 23.08 23.46 5.54 o
-1 3 7 719.70 648.30 13.27 o
0 3 7 152.44 230.24 10.27 o
1 3 7 8.38 6.59 1.82 o
2 3 7 1.15 1.94 4.42 o
3 3 7 261.98 252.55 22.58 o
4 3 7 0.10 7.04 6.55 o
-7 4 7 28.85 35.74 7.60 o
-6 4 7 64.31 49.59 8.81 o
-5 4 7 245.56 235.07 8.17 o
-4 4 7 13.29 6.20 3.56 o
-3 4 7 0.51 3.75 1.17 o
-2 4 7 334.39 322.41 10.93 o
-1 4 7 95.72 89.40 7.25 o
0 4 7 321.77 505.90 13.20 o
1 4 7 50.53 53.51 7.32 o
2 4 7 10.09 6.75 6.42 o
3 4 7 16.55 10.31 7.86 o
-6 5 7 56.45 55.61 8.73 o
-5 5 7 129.96 148.77 10.93 o
-4 5 7 14.58 10.58 2.94 o
-3 5 7 61.48 58.60 4.22 o
-2 5 7 23.13 18.86 4.91 o
-1 5 7 464.74 470.18 16.61 o
0 5 7 40.67 59.71 7.46 o
1 5 7 85.94 64.00 7.95 o
2 5 7 0.15 0.71 5.66 o
-6 6 7 48.45 43.40 8.08 o
-5 6 7 84.16 83.82 19.26 o
-4 6 7 108.62 138.72 17.98 o
-3 6 7 39.63 42.26 7.92 o
-2 6 7 115.84 120.82 12.12 o
-1 6 7 98.74 96.24 8.82 o
0 6 7 97.98 163.87 22.98 o
-4 7 7 29.39 22.57 12.35 o
-3 7 7 52.26 203.74 19.51 o
-2 7 7 37.04 27.19 5.95 o
-1 7 7 8.22 3.82 3.23 o
0 -7 8 47.16 54.42 9.26 o
1 -7 8 1.40 5.89 2.89 o
3 -7 8 387.05 426.66 18.82 o
-2 -6 8 204.41 198.55 38.42 o
-1 -6 8 132.46 121.21 18.65 o
0 -6 8 41.58 77.60 8.20 o
1 -6 8 63.05 64.29 6.66 o
2 -6 8 66.32 73.93 6.54 o
3 -6 8 52.07 46.64 8.96 o
4 -6 8 12.66 26.00 9.15 o
5 -6 8 41.28 40.58 10.67 o
-3 -5 8 3.45 6.66 6.93 o
-2 -5 8 185.87 176.07 28.16 o
-1 -5 8 48.98 56.65 6.52 o
0 -5 8 3.85 3.69 2.15 o
1 -5 8 22.93 20.87 5.10 o
2 -5 8 18.05 18.69 4.95 o
3 -5 8 137.55 130.81 8.16 o
4 -5 8 2.79 17.72 9.10 o
5 -5 8 97.51 112.12 12.30 o
-4 -4 8 66.98 73.61 11.50 o
-3 -4 8 18.35 17.97 6.79 o
-2 -4 8 106.14 96.18 7.83 o
-1 -4 8 609.89 570.25 12.62 o
0 -4 8 195.21 331.20 12.33 o
1 -4 8 128.82 141.11 7.39 o
2 -4 8 111.70 88.99 6.76 o
3 -4 8 122.93 107.68 6.82 o
4 -4 8 172.03 208.93 25.99 o
5 -4 8 22.96 30.08 8.05 o
-5 -3 8 18.79 26.07 8.43 o
-4 -3 8 179.17 201.35 13.45 o
-3 -3 8 0.66 1.51 3.73 o
-2 -3 8 392.22 344.74 9.81 o
-1 -3 8 112.07 108.39 7.53 o
0 -3 8 371.48 546.75 12.79 o
1 -3 8 17.66 12.08 5.17 o
2 -3 8 181.57 202.53 8.44 o
3 -3 8 397.35 394.68 13.16 o
4 -3 8 130.27 127.81 7.74 o
5 -3 8 86.43 78.70 7.23 o
-5 -2 8 211.57 239.09 16.57 o
-4 -2 8 18.56 12.34 4.44 o
-3 -2 8 0.74 1.40 2.17 o
-2 -2 8 257.77 242.74 11.83 o
-1 -2 8 1044.92 981.05 18.78 o
0 -2 8 97.84 143.61 6.93 o
1 -2 8 17.41 17.01 4.25 o
2 -2 8 69.26 58.90 5.74 o
3 -2 8 246.71 240.60 8.63 o
4 -2 8 118.51 140.90 8.11 o
5 -2 8 39.72 44.76 6.12 o
-6 -1 8 201.13 250.75 17.83 o
-5 -1 8 10.79 8.10 3.79 o
-4 -1 8 227.41 229.05 12.60 o
-3 -1 8 17.44 14.76 3.53 o
-2 -1 8 194.10 198.85 8.48 o
-1 -1 8 1.79 1.06 2.26 o
0 -1 8 274.35 388.49 10.19 o
1 -1 8 64.16 70.25 5.35 o
2 -1 8 15.89 9.35 5.42 o
3 -1 8 18.15 14.07 3.98 o
4 -1 8 225.41 248.98 11.65 o
5 -1 8 158.05 156.64 10.02 o
-6 0 8 63.52 71.61 10.79 o
-5 0 8 64.54 67.92 6.03 o
-4 0 8 91.90 85.18 6.38 o
-3 0 8 81.75 71.37 5.60 o
-2 0 8 1.35 1.13 2.85 o
-1 0 8 986.03 781.06 21.38 o
0 0 8 455.88 762.52 19.70 o
1 0 8 1126.89 1128.89 25.95 o
2 0 8 14.11 14.60 4.40 o
3 0 8 106.83 97.33 7.10 o
4 0 8 112.55 127.18 8.08 o
5 0 8 253.37 287.72 22.87 o
-6 1 8 84.97 99.72 8.42 o
-5 1 8 12.82 11.00 3.87 o
-4 1 8 908.69 923.09 36.19 o
-3 1 8 2.18 -0.58 2.14 o
-2 1 8 165.51 151.39 7.51 o
-1 1 8 10.55 5.96 1.66 o
0 1 8 1393.86 2138.56 35.73 o
1 1 8 38.10 23.44 2.46 o
2 1 8 31.67 24.89 4.05 o
3 1 8 9.87 8.50 4.08 o
4 1 8 141.00 162.55 8.23 o
-7 2 8 6.16 7.10 5.42 o
-6 2 8 62.42 64.05 6.74 o
-5 2 8 235.59 247.34 8.93 o
-4 2 8 82.58 90.12 5.72 o
-3 2 8 0.88 1.93 2.21 o
-2 2 8 66.28 70.78 3.48 o
-1 2 8 299.95 273.88 6.62 o
0 2 8 45.40 54.65 6.86 o
1 2 8 174.08 144.83 4.47 o
2 2 8 11.02 11.89 3.15 o
3 2 8 2.89 6.35 6.09 o
4 2 8 28.43 24.72 9.11 o
-7 3 8 41.29 53.23 9.19 o
-6 3 8 17.29 9.82 3.62 o
-5 3 8 265.44 280.31 13.24 o
-4 3 8 245.71 232.95 10.45 o
-3 3 8 1.84 1.80 4.35 o
-2 3 8 83.63 82.98 3.95 o
-1 3 8 24.64 22.43 5.63 o
0 3 8 400.77 653.00 22.28 o
1 3 8 38.25 37.36 3.13 o
2 3 8 4.31 3.41 5.91 o
3 3 8 15.83 21.91 12.10 o
-6 4 8 76.27 69.26 11.57 o
-5 4 8 25.35 12.45 7.06 o
-4 4 8 179.13 179.31 7.43 o
-3 4 8 40.90 34.50 3.85 o
-2 4 8 9.61 8.76 6.91 o
-1 4 8 236.10 238.39 10.39 o
0 4 8 112.37 179.79 10.52 o
1 4 8 69.67 64.28 9.87 o
2 4 8 145.12 171.23 23.05 o
-6 5 8 18.01 20.05 6.14 o
-5 5 8 153.44 180.55 30.01 o
-4 5 8 63.69 59.09 4.90 o
-3 5 8 21.10 13.65 4.79 o
-2 5 8 3.39 9.98 7.46 o
-1 5 8 28.50 10.52 6.41 o
0 5 8 136.52 226.18 11.30 o
1 5 8 17.08 18.36 10.38 o
-5 6 8 5.21 8.67 7.99 o
-4 6 8 143.80 161.44 20.95 o
-3 6 8 17.43 13.06 4.30 o
-2 6 8 20.05 20.03 6.00 o
-1 6 8 109.20 113.06 10.54 o
0 6 8 258.35 435.16 51.37 o
-4 7 8 33.05 27.49 11.57 o
-3 7 8 116.30 128.98 18.62 o
-2 7 8 10.11 12.12 7.92 o
1 -7 9 1.76 0.56 3.51 o
2 -7 9 56.72 47.42 25.16 o
3 -7 9 100.39 98.65 12.40 o
-1 -6 9 27.72 19.56 6.32 o
0 -6 9 9.39 11.72 4.62 o
1 -6 9 151.73 137.23 9.48 o
2 -6 9 0.11 1.43 2.51 o
3 -6 9 20.90 20.91 7.11 o
4 -6 9 13.94 0.30 8.06 o
-3 -5 9 39.82 32.51 8.53 o
-2 -5 9 1.01 0.82 2.54 o
-1 -5 9 0.52 2.26 3.19 o
0 -5 9 676.71 1166.91 30.61 o
1 -5 9 231.87 231.51 10.63 o
2 -5 9 7.46 7.20 4.05 o
3 -5 9 28.82 29.89 5.01 o
4 -5 9 217.40 248.58 17.49 o
5 -5 9 176.13 227.25 16.94 o
-4 -4 9 218.29 206.48 18.38 o
-3 -4 9 56.96 65.92 11.70 o
-2 -4 9 54.48 52.44 6.30 o
-1 -4 9 76.86 75.35 6.85 o
0 -4 9 771.22 1423.77 21.32 o
1 -4 9 67.91 68.06 6.53 o
2 -4 9 0.01 1.58 2.53 o
3 -4 9 1.50 3.21 2.93 o
4 -4 9 22.16 16.32 4.18 o
5 -4 9 132.74 150.58 12.69 o
-4 -3 9 4.06 6.57 5.27 o
-3 -3 9 25.26 20.11 4.89 o
-2 -3 9 43.06 41.06 10.13 o
-1 -3 9 141.60 147.25 8.50 o
0 -3 9 99.96 163.33 8.00 o
1 -3 9 122.91 106.71 11.27 o
2 -3 9 27.64 21.85 5.59 o
3 -3 9 6.99 6.16 6.21 o
4 -3 9 147.61 167.63 9.00 o
5 -3 9 63.64 66.32 7.49 o
-5 -2 9 12.84 -1.14 6.72 o
-4 -2 9 182.21 177.44 10.60 o
-3 -2 9 29.66 27.98 8.43 o
-2 -2 9 0.81 1.00 2.05 o
-1 -2 9 7.46 5.22 2.83 o
0 -2 9 551.82 934.95 13.99 o
1 -2 9 3.13 5.54 3.16 o
2 -2 9 7.48 5.39 3.49 o
3 -2 9 4.45 4.06 3.16 o
4 -2 9 14.75 10.86 4.63 o
5 -2 9 77.84 95.07 8.55 o
-6 -1 9 111.24 136.27 14.53 o
-5 -1 9 129.45 140.24 12.80 o
-4 -1 9 92.84 95.64 6.81 o
-3 -1 9 299.26 288.91 10.61 o
-2 -1 9 70.79 73.04 6.00 o
-1 -1 9 0.06 0.84 2.29 o
0 -1 9 30.10 46.21 5.07 o
1 -1 9 306.27 248.50 7.99 o
2 -1 9 147.85 184.70 16.22 o
3 -1 9 5.31 2.17 2.51 o
4 -1 9 44.76 34.17 9.49 o
5 -1 9 272.50 317.43 13.92 o
-6 0 9 10.04 5.22 5.43 o
-5 0 9 5.30 1.75 3.08 o
-4 0 9 476.33 478.16 10.95 o
-3 0 9 3.28 3.59 2.73 o
-2 0 9 19.92 9.22 3.58 o
-1 0 9 126.98 110.58 7.57 o
1 0 9 16.96 10.01 3.10 o
2 0 9 77.23 83.57 5.80 o
3 0 9 11.10 3.16 2.64 o
4 0 9 130.95 131.56 7.66 o
5 0 9 9.55 7.82 3.73 o
-6 1 9 4.14 6.39 3.48 o
-5 1 9 444.77 480.59 23.31 o
-4 1 9 409.35 420.28 10.33 o
-3 1 9 69.34 57.02 5.43 o
-2 1 9 7.84 9.67 2.89 o
-1 1 9 182.41 196.58 6.24 o
0 1 9 110.23 137.62 5.93 o
1 1 9 197.11 188.26 7.56 o
2 1 9 7.35 6.56 3.83 o
3 1 9 9.02 7.84 3.83 o
4 1 9 0.83 7.36 2.84 o
-6 2 9 0.68 6.75 3.01 o
-5 2 9 55.59 61.80 6.69 o
-4 2 9 79.08 80.19 6.46 o
-3 2 9 0.08 5.36 4.43 o
-2 2 9 337.56 294.65 9.69 o
-1 2 9 3.11 -0.99 0.99 o
0 2 9 705.68 1174.13 16.47 o
1 2 9 359.94 331.32 8.46 o
2 2 9 246.35 249.82 9.32 o
3 2 9 0.21 -0.47 2.35 o
4 2 9 30.42 17.46 8.79 o
-6 3 9 10.48 15.04 4.41 o
-5 3 9 158.30 163.94 8.54 o
-4 3 9 406.40 392.19 11.33 o
-3 3 9 558.95 554.83 10.13 o
-2 3 9 144.47 114.91 7.20 o
-1 3 9 32.86 23.32 5.39 o
0 3 9 280.89 511.88 14.30 o
1 3 9 86.74 81.12 8.74 o
2 3 9 5.06 11.84 5.56 o
3 3 9 39.36 23.02 10.11 o
-5 4 9 136.53 146.19 7.33 o
-4 4 9 5.47 4.00 1.97 o
-3 4 9 21.99 20.00 3.22 o
-2 4 9 249.16 258.63 12.01 o
-1 4 9 29.15 18.72 6.46 o
0 4 9 112.37 191.59 10.67 o
1 4 9 5.73 -0.52 3.59 o
2 4 9 297.43 354.35 35.36 o
-6 5 9 28.97 27.34 12.94 o
-5 5 9 0.52 0.04 2.58 o
-4 5 9 50.82 53.63 6.73 o
-3 5 9 262.42 268.98 13.17 o
-2 5 9 472.06 491.02 19.16 o
-1 5 9 14.28 2.91 5.65 o
0 5 9 32.47 56.69 7.51 o
1 5 9 64.11 81.48 15.91 o
-5 6 9 15.60 50.57 16.65 o
-4 6 9 5.92 6.38 6.36 o
-3 6 9 137.31 152.17 12.13 o
-2 6 9 5.24 4.56 3.57 o
-1 6 9 11.24 -0.16 3.93 o
0 6 9 0.62 98.82 13.67 o
-1 -6 10 0.40 -0.88 2.51 o
0 -6 10 58.65 69.24 8.41 o
1 -6 10 147.75 145.78 11.09 o
2 -6 10 17.88 18.73 7.62 o
3 -6 10 0.58 -0.36 4.23 o
4 -6 10 46.20 45.80 9.50 o
-2 -5 10 57.59 56.33 9.54 o
-1 -5 10 67.82 61.37 6.61 o
0 -5 10 367.58 568.87 15.54 o
1 -5 10 92.55 116.64 10.41 o
2 -5 10 40.03 26.48 5.38 o
3 -5 10 12.08 5.96 3.39 o
4 -5 10 112.26 100.06 12.01 o
-3 -4 10 153.99 153.00 19.38 o
-2 -4 10 16.90 6.10 4.76 o
-1 -4 10 118.06 114.60 8.15 o
0 -4 10 15.26 15.29 4.53 o
1 -4 10 412.13 388.92 12.54 o
2 -4 10 49.37 56.31 6.29 o
3 -4 10 0.11 8.21 7.18 o
4 -4 10 5.24 10.77 10.19 o
5 -4 10 38.81 62.46 10.75 o
-4 -3 10 121.88 143.75 14.53 o
-3 -3 10 8.78 12.67 7.12 o
-2 -3 10 138.03 120.71 8.79 o
-1 -3 10 12.56 7.61 2.78 o
0 -3 10 211.41 316.24 9.84 o
1 -3 10 68.08 70.65 6.95 o
2 -3 10 316.70 318.13 10.27 o
3 -3 10 9.82 12.99 4.89 o
4 -3 10 2.04 1.83 3.21 o
5 -3 10 9.14 7.17 3.16 o
-5 -2 10 19.33 16.69 7.64 o
-4 -2 10 0.04 1.05 4.60 o
-3 -2 10 561.09 579.17 13.79 o
-2 -2 10 31.32 28.93 6.62 o
-1 -2 10 56.34 50.03 6.50 o
0 -2 10 1.15 5.38 2.98 o
1 -2 10 683.32 681.05 31.73 o
2 -2 10 0.21 6.99 3.65 o
3 -2 10 150.68 152.21 8.20 o
4 -2 10 0.01 7.09 3.69 o
5 -2 10 19.23 18.48 4.14 o
-5 -1 10 34.16 35.79 5.65 o
-4 -1 10 255.77 269.32 9.65 o
-3 -1 10 28.32 27.42 4.49 o
-2 -1 10 713.95 691.95 17.90 o
-1 -1 10 13.64 3.82 3.95 o
0 -1 10 101.09 152.97 7.27 o
1 -1 10 34.06 35.43 5.55 o
2 -1 10 432.96 442.71 17.27 o
3 -1 10 15.92 20.29 4.80 o
4 -1 10 0.49 5.20 3.66 o
5 -1 10 84.08 103.36 9.25 o
-6 0 10 28.36 24.86 7.35 o
-5 0 10 12.83 12.18 5.96 o
-4 0 10 48.95 33.45 7.06 o
-3 0 10 340.00 330.78 27.14 o
-2 0 10 7.87 3.32 2.02 o
-1 0 10 82.18 95.17 7.20 o
0 0 10 42.96 64.00 5.65 o
1 0 10 567.81 567.33 14.38 o
2 0 10 18.37 12.94 3.76 o
3 0 10 53.88 55.97 6.27 o
4 0 10 4.09 2.76 3.92 o
-6 1 10 55.63 73.72 8.30 o
-5 1 10 23.57 26.98 5.07 o
-4 1 10 3.45 5.54 4.38 o
-3 1 10 225.86 225.00 14.40 o
-2 1 10 302.98 232.64 10.39 o
-1 1 10 134.42 116.34 12.46 o
0 1 10 67.01 96.61 8.29 o
1 1 10 56.44 48.50 4.72 o
2 1 10 156.73 134.39 7.28 o
3 1 10 35.49 30.48 4.51 o
4 1 10 37.06 26.83 4.54 o
-6 2 10 138.75 134.29 10.41 o
-5 2 10 0.06 4.41 2.99 o
-4 2 10 79.85 91.58 7.10 o
-3 2 10 101.93 78.54 6.61 o
-2 2 10 8.52 10.54 3.20 o
-1 2 10 167.66 146.05 11.59 o
0 2 10 91.44 147.29 19.38 o
1 2 10 124.76 109.96 20.10 o
2 2 10 10.26 7.33 4.80 o
3 2 10 290.39 311.16 29.64 o
-6 3 10 5.09 -3.07 3.31 o
-5 3 10 46.82 37.56 6.17 o
-4 3 10 0.01 -0.28 4.43 o
-3 3 10 90.96 88.98 9.14 o
-2 3 10 331.73 313.49 8.75 o
-1 3 10 45.80 37.55 7.17 o
0 3 10 0.09 2.51 4.56 o
1 3 10 16.34 4.65 6.06 o
2 3 10 174.25 182.11 13.09 o
3 3 10 12.68 14.40 9.97 o
-6 4 10 111.23 137.59 11.19 o
-5 4 10 0.13 2.44 2.44 o
-4 4 10 7.42 11.10 3.41 o
-3 4 10 130.97 139.41 10.28 o
-2 4 10 289.26 303.94 16.93 o
-1 4 10 34.73 28.64 6.59 o
0 4 10 0.03 0.04 5.98 o
1 4 10 27.40 20.70 12.78 o
2 4 10 179.33 196.34 23.29 o
-5 5 10 2.33 -5.53 5.53 o
-4 5 10 0.04 5.22 3.65 o
-3 5 10 443.12 462.53 17.25 o
-2 5 10 0.12 3.37 3.30 o
-1 5 10 134.27 136.06 15.11 o
0 5 10 6.91 8.96 4.77 o
1 5 10 62.16 79.48 16.55 o
-4 6 10 8.41 7.16 6.07 o
-3 6 10 2.21 -0.05 2.91 o
-2 6 10 89.47 72.54 8.45 o
-1 6 10 28.32 31.85 12.49 o
0 -6 11 2.85 1.59 2.06 o
1 -6 11 65.84 58.16 8.22 o
2 -6 11 198.52 206.16 13.22 o
3 -6 11 20.05 18.35 7.56 o
-2 -5 11 9.10 1.16 4.82 o
-1 -5 11 26.67 10.57 7.44 o
0 -5 11 6.61 9.55 4.77 o
1 -5 11 185.24 182.31 15.19 o
2 -5 11 50.71 39.92 6.09 o
3 -5 11 7.05 6.50 4.04 o
4 -5 11 23.07 20.22 7.56 o
-3 -4 11 6.28 11.88 6.27 o
-2 -4 11 78.50 65.00 7.84 o
-1 -4 11 116.20 97.61 8.68 o
0 -4 11 21.73 23.07 6.34 o
1 -4 11 20.38 27.40 5.96 o
2 -4 11 99.30 85.39 7.60 o
3 -4 11 59.69 75.93 7.81 o
4 -4 11 16.83 13.37 5.05 o
-4 -3 11 8.12 17.06 7.36 o
-3 -3 11 78.78 72.32 7.76 o
-2 -3 11 0.33 -0.24 3.01 o
-1 -3 11 177.86 187.58 10.85 o
0 -3 11 8.02 10.49 4.72 o
1 -3 11 230.34 266.30 52.28 o
2 -3 11 5.50 5.42 4.89 o
3 -3 11 156.23 167.90 9.58 o
4 -3 11 134.90 128.92 12.42 o
-5 -2 11 5.59 13.94 7.32 o
-4 -2 11 101.59 102.30 8.37 o
-3 -2 11 105.04 94.56 8.24 o
-2 -2 11 266.72 240.90 11.59 o
-1 -2 11 105.44 112.51 8.66 o
0 -2 11 34.02 58.26 6.51 o
1 -2 11 25.10 17.07 4.58 o
2 -2 11 377.54 360.26 12.57 o
3 -2 11 24.22 30.61 9.64 o
4 -2 11 151.19 169.96 11.03 o
-5 -1 11 45.25 40.02 15.23 o
-4 -1 11 27.09 20.74 4.99 o
-3 -1 11 167.64 161.19 9.79 o
-2 -1 11 6.89 7.39 5.17 o
-1 -1 11 588.38 594.98 16.49 o
0 -1 11 149.18 242.10 8.90 o
1 -1 11 421.02 440.80 23.09 o
2 -1 11 70.60 61.27 5.99 o
3 -1 11 126.70 134.35 7.85 o
4 -1 11 5.40 5.26 3.18 o
-6 0 11 107.91 131.24 14.29 o
-5 0 11 132.33 138.18 12.14 o
-4 0 11 157.31 171.93 8.92 o
-3 0 11 294.70 337.83 18.76 o
-2 0 11 279.77 276.32 10.63 o
-1 0 11 179.88 173.02 9.85 o
0 0 11 3.61 2.01 3.39 o
1 0 11 181.66 160.89 7.58 o
2 0 11 1.47 8.49 6.30 o
3 0 11 9.56 8.46 3.13 o
4 0 11 59.67 43.74 6.73 o
-6 1 11 206.79 222.82 12.25 o
-5 1 11 41.05 40.55 6.13 o
-4 1 11 112.45 114.07 7.41 o
-3 1 11 30.73 16.53 4.04 o
-2 1 11 135.19 129.43 8.13 o
-1 1 11 438.38 449.94 13.10 o
0 1 11 90.75 137.56 9.91 o
1 1 11 6.06 7.32 3.92 o
2 1 11 0.42 7.86 3.63 o
3 1 11 359.71 416.05 17.84 o
-6 2 11 87.83 118.01 16.24 o
-5 2 11 187.03 213.04 9.97 o
-4 2 11 5.46 7.39 4.19 o
-3 2 11 3.43 1.10 2.32 o
-2 2 11 442.64 470.55 14.75 o
-1 2 11 271.28 279.08 11.88 o
0 2 11 12.46 15.38 3.56 o
1 2 11 5.63 0.58 3.49 o
2 2 11 195.96 202.70 12.85 o
3 2 11 54.25 82.42 10.55 o
-6 3 11 270.77 308.05 13.39 o
-5 3 11 9.64 3.59 2.89 o
-4 3 11 29.66 25.73 5.98 o
-3 3 11 13.77 17.29 4.19 o
-2 3 11 137.13 144.99 10.35 o
-1 3 11 90.85 80.95 8.30 o
0 3 11 109.82 170.49 12.35 o
1 3 11 5.32 9.46 11.18 o
2 3 11 13.91 14.56 5.60 o
-6 4 11 0.94 10.30 4.95 o
-5 4 11 181.00 201.31 10.93 o
-4 4 11 3.90 6.66 3.44 o
-3 4 11 7.27 2.80 7.48 o
-2 4 11 84.21 78.24 8.79 o
-1 4 11 271.41 269.18 12.53 o
0 4 11 73.23 121.68 10.47 o
1 4 11 0.04 2.35 3.24 o
-5 5 11 2.88 2.24 5.92 o
-4 5 11 1.39 0.82 4.26 o
-3 5 11 31.90 38.72 7.52 o
-2 5 11 124.94 131.52 12.60 o
-1 5 11 31.77 8.85 15.04 o
0 5 11 71.62 102.98 11.22 o
-3 6 11 3.13 4.25 4.28 o
-2 6 11 6.42 3.50 3.43 o
1 -6 12 75.59 60.80 11.12 o
2 -6 12 0.03 2.98 3.11 o
-1 -5 12 5.04 9.00 2.85 o
0 -5 12 10.49 15.93 5.19 o
1 -5 12 5.81 0.66 3.17 o
2 -5 12 68.70 69.25 8.34 o
3 -5 12 9.80 6.58 3.51 o
-3 -4 12 35.14 25.83 7.90 o
-2 -4 12 6.45 2.62 2.48 o
-1 -4 12 457.04 478.79 18.40 o
0 -4 12 3.63 4.07 2.71 o
1 -4 12 25.09 26.36 8.16 o
2 -4 12 8.56 8.19 4.01 o
3 -4 12 129.49 153.25 10.43 o
4 -4 12 8.97 9.20 6.18 o
-4 -3 12 56.74 55.10 9.83 o
-3 -3 12 19.55 10.65 4.07 o
-2 -3 12 123.16 108.51 8.94 o
-1 -3 12 2.68 2.82 2.78 o
0 -3 12 246.95 396.37 17.19 o
1 -3 12 22.43 14.76 5.21 o
2 -3 12 216.36 222.06 11.39 o
3 -3 12 25.01 11.28 4.19 o
4 -3 12 220.57 237.68 12.84 o
-4 -2 12 6.30 1.41 2.67 o
-3 -2 12 11.53 2.97 3.30 o
-2 -2 12 1.09 5.30 3.43 o
-1 -2 12 767.59 730.92 28.12 o
0 -2 12 58.77 76.96 11.30 o
1 -2 12 1.38 5.04 3.75 o
2 -2 12 1.34 4.78 4.08 o
3 -2 12 277.66 311.32 12.85 o
4 -2 12 3.71 9.24 4.72 o
-5 -1 12 234.65 219.34 11.76 o
-4 -1 12 7.21 10.15 4.28 o
-3 -1 12 1.54 3.64 2.81 o
-2 -1 12 89.00 88.63 9.34 o
-1 -1 12 107.10 78.88 9.75 o
0 -1 12 67.22 108.86 7.37 o
1 -1 12 4.24 10.50 3.81 o
2 -1 12 15.37 14.52 5.14 o
3 -1 12 13.10 21.45 4.85 o
4 -1 12 136.25 145.13 10.73 o
-5 0 12 0.24 3.97 3.26 o
-4 0 12 8.06 3.15 3.06 o
-3 0 12 42.02 42.66 6.66 o
-2 0 12 43.71 46.56 5.60 o
-1 0 12 407.71 356.20 12.16 o
0 0 12 19.94 18.56 6.58 o
1 0 12 467.55 465.54 13.87 o
2 0 12 1.29 5.74 8.13 o
3 0 12 112.14 109.43 8.48 o
-5 1 12 98.18 93.47 8.77 o
-4 1 12 298.39 298.62 11.93 o
-3 1 12 16.25 7.68 3.54 o
-2 1 12 74.19 74.04 7.00 o
-1 1 12 216.78 191.55 14.59 o
0 1 12 272.19 449.11 20.61 o
1 1 12 60.47 53.47 6.70 o
2 1 12 32.23 30.34 5.49 o
3 1 12 31.63 24.87 6.75 o
-6 2 12 152.54 162.64 11.63 o
-5 2 12 8.68 10.88 4.97 o
-4 2 12 106.67 112.54 10.46 o
-3 2 12 3.69 5.91 3.25 o
-2 2 12 130.67 125.33 6.85 o
-1 2 12 21.69 7.39 2.80 o
0 2 12 84.21 135.98 10.07 o
1 2 12 80.39 62.89 9.62 o
2 2 12 11.48 12.73 5.79 o
-5 3 12 223.05 248.78 14.68 o
-4 3 12 17.85 10.01 4.03 o
-3 3 12 56.10 39.69 9.16 o
-2 3 12 14.49 4.52 3.74 o
-1 3 12 97.22 97.30 10.44 o
0 3 12 38.39 70.76 10.07 o
1 3 12 145.03 136.24 12.13 o
2 3 12 14.87 8.54 5.66 o
-5 4 12 17.06 12.89 20.16 o
-4 4 12 191.82 197.08 22.15 o
-3 4 12 14.24 20.59 6.01 o
-2 4 12 91.95 94.92 9.34 o
-1 4 12 0.27 1.38 3.66 o
0 4 12 103.75 189.21 15.74 o
1 4 12 27.69 17.71 5.88 o
-4 5 12 0.30 1.33 3.04 o
-3 5 12 10.05 11.55 5.58 o
-2 5 12 9.22 2.19 4.78 o
-1 5 12 24.24 21.70 6.01 o
-1 -5 13 25.13 15.24 5.31 o
0 -5 13 100.70 139.31 11.69 o
1 -5 13 164.37 159.27 10.70 o
2 -5 13 2.44 4.47 3.91 o
-2 -4 13 7.38 5.43 3.14 o
-1 -4 13 3.83 7.70 3.62 o
0 -4 13 535.44 927.54 43.88 o
1 -4 13 8.08 0.67 3.92 o
2 -4 13 6.26 8.81 3.75 o
3 -4 13 0.22 5.59 3.38 o
-3 -3 13 10.37 16.63 4.77 o
-2 -3 13 38.68 38.61 6.81 o
-1 -3 13 148.12 142.53 11.28 o
0 -3 13 29.09 27.92 5.44 o
1 -3 13 59.33 60.38 7.73 o
2 -3 13 3.00 4.49 3.48 o
3 -3 13 39.45 23.88 6.75 o
-4 -2 13 33.61 30.02 5.82 o
-3 -2 13 0.88 8.07 3.35 o
-2 -2 13 0.60 4.79 2.81 o
-1 -2 13 97.37 93.11 8.58 o
0 -2 13 111.05 202.11 12.65 o
1 -2 13 37.75 19.80 5.50 o
2 -2 13 12.44 16.42 4.80 o
3 -2 13 0.17 2.90 3.13 o
-4 -1 13 201.95 225.64 13.24 o
-3 -1 13 60.49 50.59 6.23 o
-2 -1 13 0.13 4.89 3.32 o
-1 -1 13 7.85 11.07 4.11 o
0 -1 13 46.23 52.19 11.49 o
1 -1 13 132.97 142.42 9.13 o
2 -1 13 0.01 1.89 2.90 o
3 -1 13 29.18 29.46 6.61 o
-5 0 13 61.88 63.16 9.44 o
-4 0 13 106.91 101.23 8.54 o
-3 0 13 89.24 91.83 8.90 o
-2 0 13 5.66 11.55 4.96 o
-1 0 13 89.52 74.65 7.89 o
0 0 13 351.77 570.10 13.75 o
1 0 13 84.02 72.65 7.01 o
2 0 13 47.61 36.67 5.68 o
3 0 13 6.45 2.36 2.53 o
-5 1 13 54.94 63.58 7.64 o
-4 1 13 382.37 389.02 14.49 o
-3 1 13 0.51 7.78 3.73 o
-2 1 13 0.54 5.91 4.01 o
-1 1 13 48.65 37.01 9.04 o
0 1 13 92.07 138.57 14.50 o
1 1 13 140.07 145.75 24.91 o
2 1 13 69.87 102.27 29.07 o
-5 2 13 44.74 40.37 6.19 o
-4 2 13 19.44 16.59 4.80 o
-3 2 13 127.37 110.62 6.85 o
-2 2 13 3.72 3.71 2.51 o
-1 2 13 55.26 60.43 9.92 o
0 2 13 62.64 111.14 22.05 o
1 2 13 395.20 392.79 21.79 o
2 2 13 9.94 17.54 6.35 o
-5 3 13 8.01 12.46 4.30 o
-4 3 13 487.83 514.70 26.75 o
-3 3 13 1.91 2.24 3.55 o
-2 3 13 40.91 39.26 7.51 o
-1 3 13 14.28 9.24 4.81 o
0 3 13 113.12 201.12 15.69 o
1 3 13 17.28 12.33 8.90 o
-5 4 13 36.01 30.88 7.28 o
-4 4 13 4.71 1.79 3.45 o
-3 4 13 79.40 103.98 13.24 o
-2 4 13 24.49 25.51 14.08 o
-1 4 13 1.29 1.87 5.14 o
0 4 13 20.22 21.72 6.07 o
-3 5 13 1.66 1.30 3.78 o
-2 5 13 121.12 132.67 13.65 o
-2 -4 14 1.18 4.01 4.13 o
-1 -4 14 110.35 98.78 9.82 o
0 -4 14 87.03 115.86 19.78 o
1 -4 14 145.38 180.31 16.09 o
2 -4 14 0.17 1.11 3.25 o
-3 -3 14 12.42 15.79 4.62 o
-2 -3 14 38.15 24.34 6.03 o
-1 -3 14 0.20 2.33 3.28 o
0 -3 14 116.58 176.99 10.68 o
1 -3 14 3.15 3.27 3.48 o
2 -3 14 219.25 251.62 16.50 o
3 -3 14 27.77 22.74 5.46 o
-3 -2 14 253.21 295.78 20.17 o
-2 -2 14 60.45 44.54 6.34 o
-1 -2 14 0.02 4.81 3.38 o
0 -2 14 133.35 237.21 10.67 o
1 -2 14 126.83 123.44 8.54 o
2 -2 14 93.58 83.19 8.59 o
3 -2 14 20.59 6.56 3.75 o
-4 -1 14 18.57 13.19 4.72 o
-3 -1 14 219.88 223.93 14.19 o
-2 -1 14 91.52 84.68 8.78 o
-1 -1 14 0.65 3.99 3.38 o
0 -1 14 0.02 7.59 3.37 o
1 -1 14 0.39 0.70 2.91 o
2 -1 14 318.13 329.61 15.61 o
3 -1 14 26.48 23.25 8.33 o
-4 0 14 46.63 51.94 7.35 o
-3 0 14 138.11 127.30 10.30 o
-2 0 14 146.17 127.52 10.06 o
-1 0 14 0.31 4.39 2.34 o
0 0 14 0.89 2.05 4.07 o
1 0 14 236.15 248.84 10.71 o
2 0 14 187.97 194.95 13.09 o
-5 1 14 2.35 5.97 3.80 o
-4 1 14 0.33 4.39 3.00 o
-3 1 14 366.51 367.18 13.12 o
-2 1 14 31.75 29.53 7.26 o
-1 1 14 0.26 1.06 1.58 o
0 1 14 0.01 0.78 5.27 o
1 1 14 50.39 32.41 7.03 o
2 1 14 26.49 7.40 7.53 o
-5 2 14 2.32 13.36 3.96 o
-4 2 14 51.59 35.45 6.68 o
-3 2 14 0.02 3.26 2.53 o
-2 2 14 36.13 34.82 8.22 o
-1 2 14 70.13 52.61 9.81 o
0 2 14 24.08 35.70 11.62 o
1 2 14 26.36 26.25 7.34 o
-4 3 14 0.71 2.15 10.62 o
-3 3 14 240.23 253.84 17.31 o
-2 3 14 0.16 1.25 4.04 o
-1 3 14 6.37 -2.90 3.94 o
0 3 14 4.06 2.60 13.28 o
-4 4 14 34.23 40.77 8.81 o
-3 4 14 0.72 7.32 9.98 o
-2 4 14 103.68 88.79 10.68 o
-1 4 14 2.92 5.72 5.72 o
0 -4 15 0.75 7.67 5.04 o
1 -4 15 0.21 7.69 4.08 o
-2 -3 15 103.73 91.84 10.26 o
-1 -3 15 0.02 11.92 4.31 o
0 -3 15 24.96 8.88 8.45 o
1 -3 15 28.24 28.37 6.74 o
2 -3 15 11.55 10.52 5.37 o
-3 -2 15 145.43 143.25 12.58 o
-2 -2 15 53.38 49.06 11.88 o
-1 -2 15 3.42 3.94 3.84 o
0 -2 15 78.25 106.32 10.77 o
1 -2 15 11.99 8.13 3.76 o
2 -2 15 203.50 224.71 12.45 o
-3 -1 15 100.18 94.53 9.98 o
-2 -1 15 261.98 239.65 15.40 o
-1 -1 15 26.21 16.52 4.83 o
0 -1 15 8.25 15.55 4.52 o
1 -1 15 136.12 136.30 11.21 o
2 -1 15 175.72 168.72 10.60 o
-4 0 15 74.38 67.38 7.59 o
-3 0 15 416.80 431.04 33.45 o
-2 0 15 2.66 3.73 3.77 o
-1 0 15 74.83 78.21 11.58 o
0 0 15 8.14 5.60 3.28 o
1 0 15 39.47 29.79 5.54 o
2 0 15 0.74 2.45 4.28 o
-4 1 15 2.77 14.44 7.01 o
-3 1 15 37.67 25.82 6.21 o
-2 1 15 181.95 174.96 21.59 o
-1 1 15 6.50 7.80 10.38 o
0 1 15 61.92 81.54 10.15 o
1 1 15 6.02 8.22 6.45 o
-4 2 15 8.99 12.09 4.79 o
-3 2 15 82.33 73.24 10.65 o
-2 2 15 4.36 6.98 10.69 o
-1 2 15 123.42 122.44 13.54 o
0 2 15 1.72 9.22 5.80 o
-4 3 15 11.85 7.79 5.15 o
-3 3 15 0.08 2.41 4.19 o
-2 3 15 83.54 97.91 11.72 o
-1 3 15 0.11 4.00 5.90 o
-1 -3 16 84.38 73.50 9.71 o
0 -3 16 49.84 56.10 16.22 o
-2 -2 16 134.22 120.92 13.29 o
-1 -2 16 68.75 51.68 7.33 o
0 -2 16 45.85 45.28 6.62 o
1 -2 16 2.73 3.74 3.41 o
-3 -1 16 7.08 6.83 6.33 o
-2 -1 16 8.48 4.30 2.89 o
-1 -1 16 84.30 74.12 10.74 o
0 -1 16 5.95 9.59 3.79 o
1 -1 16 0.02 3.80 2.90 o
-3 0 16 3.47 3.98 4.24 o
-2 0 16 121.51 116.07 11.10 o
-1 0 16 8.42 5.78 6.55 o
0 0 16 78.18 115.62 13.87 o
1 0 16 77.86 53.29 13.40 o
-3 1 16 3.11 5.05 4.08 o
-2 1 16 1.84 1.99 9.36 o
-1 1 16 155.62 162.67 15.14 o
0 1 16 13.90 8.87 4.48 o
-3 2 16 3.33 11.57 5.17 o
-2 2 16 100.63 97.74 11.71 o
-1 2 16 11.94 12.25 5.08 o
-1 -1 17 2.65 4.04 3.03 o
-2 0 17 0.14 1.97 2.52 o
-1 0 17 81.36 68.37 10.42 o
