#------------------------------------------------------------------------------
#$Date: 2019-11-24 03:54:38 +0200 (Sun, 24 Nov 2019) $
#$Revision: 236589 $
#$URL: file:///home/coder/svn-repositories/cod/cif/1/55/41/1554112.cif $
#------------------------------------------------------------------------------
#
# This file is available in the Crystallography Open Database (COD),
# http://www.crystallography.net/
#
# All data on this site have been placed in the public domain by the
# contributors.
#
data_1554112
loop_
_publ_author_name
'Ding, Sheng'
'Lin, He'
'Yu, Yuming'
'Liu, Lang'
'Deng, Caiming'
'Zhao, Jianzhang'
'Jia, Dianzeng'
_publ_section_title
;
 Molecular Orbital Delocalization/Localization-Induced Crystal-to-Crystal
 Photochromism of Schiff Bases without ortho-Hydroxyl Groups
;
_journal_issue                   43
_journal_name_full               'The Journal of Physical Chemistry C'
_journal_page_first              24933
_journal_paper_doi               10.1021/acs.jpcc.8b07408
_journal_volume                  122
_journal_year                    2018
_chemical_formula_moiety         'C6 H7 N3 O S'
_chemical_formula_sum            'C6 H7 N3 O S'
_chemical_formula_weight         169.21
_chemical_name_common            '2-O form (II)'
_space_group_crystal_system      monoclinic
_space_group_IT_number           14
_space_group_name_Hall           '-P 2ybc'
_space_group_name_H-M_alt        'P 1 21/c 1'
_atom_sites_solution_hydrogens   mixed
_atom_sites_solution_primary     direct
_audit_creation_date             2018-01-17
_audit_creation_method
;
Olex2 1.2
(compiled 2017.01.04 svn.r3372 for OlexSys, GUI svn.r5292)
;
_cell_angle_alpha                90
_cell_angle_beta                 100.72(2)
_cell_angle_gamma                90
_cell_formula_units_Z            4
_cell_length_a                   11.708(3)
_cell_length_b                   5.4645(9)
_cell_length_c                   12.461(3)
_cell_measurement_reflns_used    660
_cell_measurement_temperature    293.15
_cell_measurement_theta_max      23.5630
_cell_measurement_theta_min      4.0690
_cell_volume                     783.3(3)
_computing_molecular_graphics    'Olex2 (Dolomanov et al., 2009)'
_computing_publication_material  'Olex2 (Dolomanov et al., 2009)'
_computing_structure_refinement  'ShelXL (Sheldrick, 2015)'
_computing_structure_solution    'ShelXS (Sheldrick, 2008)'
_diffrn_ambient_temperature      293.15
_diffrn_measured_fraction_theta_full 0.977
_diffrn_measured_fraction_theta_max 0.832
_diffrn_measurement_device_type  'multiwire proportional'
_diffrn_measurement_method       'phi and omega scans'
_diffrn_radiation_monochromator  graphite
_diffrn_radiation_type           MoK\a
_diffrn_radiation_wavelength     0.71073
_diffrn_reflns_av_R_equivalents  0.0906
_diffrn_reflns_av_unetI/netI     0.1607
_diffrn_reflns_Laue_measured_fraction_full 0.977
_diffrn_reflns_Laue_measured_fraction_max 0.832
_diffrn_reflns_limit_h_max       13
_diffrn_reflns_limit_h_min       -15
_diffrn_reflns_limit_k_max       7
_diffrn_reflns_limit_k_min       -6
_diffrn_reflns_limit_l_max       15
_diffrn_reflns_limit_l_min       -16
_diffrn_reflns_number            3667
_diffrn_reflns_point_group_measured_fraction_full 0.977
_diffrn_reflns_point_group_measured_fraction_max 0.832
_diffrn_reflns_theta_full        25.242
_diffrn_reflns_theta_max         29.471
_diffrn_reflns_theta_min         3.467
_exptl_absorpt_coefficient_mu    0.356
_exptl_absorpt_correction_T_max  1.00000
_exptl_absorpt_correction_T_min  0.06524
_exptl_absorpt_correction_type   multi-scan
_exptl_crystal_colour            'clear light colourless'
_exptl_crystal_colour_lustre     clear
_exptl_crystal_colour_modifier   light
_exptl_crystal_colour_primary    colourless
_exptl_crystal_density_diffrn    1.435
_exptl_crystal_description       block
_exptl_crystal_F_000             352
_exptl_crystal_size_max          0.941
_exptl_crystal_size_mid          0.649
_exptl_crystal_size_min          0.101
_refine_diff_density_max         0.647
_refine_diff_density_min         -0.748
_refine_diff_density_rms         0.112
_refine_ls_extinction_method     none
_refine_ls_goodness_of_fit_ref   1.027
_refine_ls_hydrogen_treatment    mixed
_refine_ls_matrix_type           full
_refine_ls_number_parameters     105
_refine_ls_number_reflns         1813
_refine_ls_number_restraints     0
_refine_ls_restrained_S_all      1.027
_refine_ls_R_factor_all          0.2077
_refine_ls_R_factor_gt           0.1109
_refine_ls_shift/su_max          0.000
_refine_ls_shift/su_mean         0.000
_refine_ls_structure_factor_coef Fsqd
_refine_ls_weighting_details
'w=1/[\s^2^(Fo^2^)+(0.1399P)^2^] where P=(Fo^2^+2Fc^2^)/3'
_refine_ls_weighting_scheme      calc
_refine_ls_wR_factor_gt          0.2498
_refine_ls_wR_factor_ref         0.3211
_reflns_Friedel_coverage         0.000
_reflns_number_gt                814
_reflns_number_total             1813
_reflns_threshold_expression     'I > 2\s(I)'
_iucr_refine_instructions_details
;

    2.res created by SHELXL-2014/7

TITL 2 in P21/c #14
REM reset to P21/c #14
CELL 0.71073 11.7081 5.4645 12.4614 90 100.716 90
ZERR 4 0.0031 0.0009 0.0031 0 0.023 0
LATT 1
SYMM -X,0.5+Y,0.5-Z
SFAC C H N O S
UNIT 24 28 12 4 4
EQIV $1 2-X,-0.5+Y,2.5-Z
EQIV $2 2-X,2-Y,2-Z
EQIV $3 +X,1+Y,+Z
EQIV $4 +X,1.5-Y,-0.5+Z
EQIV $5 1-X,-0.5+Y,1.5-Z
 
L.S. 4 0 0
PLAN  20
HTAB N1 O1_$1
HTAB N2 O1_$2
HTAB C2 S1_$3
HTAB C2 N1_$4
HTAB C6 S1_$5
BOND
BOND $H
HTAB
CONF
fmap 2 53
acta
OMIT 1 2 1
OMIT -1 1 1
OMIT 0 3 2
OMIT 0 2 1
OMIT 0 3 8
OMIT -2 0 4
OMIT 2 3 1
OMIT 1 3 0
OMIT 1 1 0
OMIT 0 2 3
OMIT -7 2 2
OMIT 7 1 9
OMIT -10 3 10
OMIT 3 2 1
OMIT 2 2 1
OMIT 0 1 3
OMIT 0 2 2
OMIT 0 1 1
OMIT -1 3 1
OMIT 6 4 5
OMIT -8 3 1
OMIT 1 3 3
OMIT 2 3 2
OMIT 3 1 5
OMIT 0 4 0
OMIT -2 3 1
OMIT 0 4 2
OMIT -2 4 5
OMIT -1 4 2
OMIT -1 2 7
REM <olex2.extras>
REM <HklSrc "%.\\2.hkl">
REM </olex2.extras>
 
WGHT    0.139900
FVAR       0.23960
S1    5    0.666263    0.160238    0.817571    11.00000    0.06649    0.02222 =
         0.06675   -0.00035    0.00905   -0.00414
O1    4    1.002024    0.886443    1.137070    11.00000    0.06404    0.03017 =
         0.03030   -0.00535    0.00580   -0.01021
N1    3    0.906704    0.520396    1.140736    11.00000    0.05138    0.02767 =
         0.03355    0.00219    0.00740   -0.00404
AFIX   7
H1A   2    0.947423    0.514207    1.205746    11.00000   -1.20000
H1B   2    0.834114    0.528945    1.144425    11.00000   -1.20000
AFIX   0
C1    1    0.936923    0.721432    1.089078    11.00000    0.04581    0.01838 =
         0.02586   -0.00842    0.00628    0.00216
N2    3    0.892346    0.749380    0.983434    11.00000    0.05677    0.01857 =
         0.02494   -0.00498    0.00345   -0.00986
AFIX  43
H2    2    0.907325    0.878167    0.948874    11.00000   -1.20000
AFIX   0
C2    1    0.793659    0.587001    0.827248    11.00000    0.04053    0.02529 =
         0.02917    0.00251    0.00578   -0.00710
AFIX  43
H2A   2    0.823379    0.718296    0.793683    11.00000   -1.20000
AFIX   0
N3    3    0.820649    0.565024    0.929784    11.00000    0.05213    0.01362 =
         0.03245    0.00036    0.00783   -0.00520
C3    1    0.718875    0.416446    0.761158    11.00000    0.04573    0.01520 =
         0.04290   -0.00125    0.00852   -0.00405
C4    1    0.676982    0.428744    0.649729    11.00000    0.05308    0.02471 =
         0.03734   -0.00538    0.00316   -0.01341
AFIX  43
H4    2    0.695834    0.551406    0.604304    11.00000   -1.20000
AFIX   0
C5    1    0.601327    0.229174    0.613830    11.00000    0.07231    0.06430 =
         0.04718   -0.02100    0.00082   -0.01168
H5    2    0.561258    0.276717    0.532074    11.00000    0.06742
C6    1    0.587898    0.070809    0.694023    11.00000    0.04990    0.03837 =
         0.09798   -0.02074    0.00829   -0.00198
AFIX  43
H6    2    0.541880   -0.068984    0.683322    11.00000   -1.20000
AFIX   0
HKLF 4
 
REM  2 in P21/c #14
REM R1 =  0.1109 for     814 Fo > 4sig(Fo)  and  0.2077 for all    1813 data
REM    105 parameters refined using      0 restraints
 
END  
     
WGHT      0.1398      0.0000 

REM Instructions for potential hydrogen bonds
HTAB N1 O1_$1
HTAB N2 O1_$2
HTAB C6 S1_$5

REM Highest difference peak  0.647,  deepest hole -0.748,  1-sigma level  0.112
Q1    1   0.7560  0.1575  0.8000  11.00000  0.05    0.65
Q2    1   0.5745  0.1554  0.8319  11.00000  0.05    0.47
Q3    1   0.5767  0.1578  0.5426  11.00000  0.05    0.41
Q4    1   0.5818  0.2420  0.7433  11.00000  0.05    0.40
Q5    1   0.5948  0.2092  0.7607  11.00000  0.05    0.40
Q6    1   0.6739  0.0343  0.7381  11.00000  0.05    0.38
Q7    1   0.5141  0.0705  0.7208  11.00000  0.05    0.32
Q8    1   0.7344  0.3379  0.6864  11.00000  0.05    0.31
Q9    1   0.9777  0.7545  0.9942  11.00000  0.05    0.31
Q10   1   1.0167  0.7191  1.0959  11.00000  0.05    0.31
Q11   1   0.8371  0.4591  1.0744  11.00000  0.05    0.30
Q12   1   0.8285  0.7563  0.9757  11.00000  0.05    0.30
Q13   1   0.8108  0.4183  0.7541  11.00000  0.05    0.29
Q14   1   0.9784  0.5042  1.1257  11.00000  0.05    0.29
Q15   1   0.5728  0.4325  0.6228  11.00000  0.05    0.28
Q16   1   0.6476  0.6558  0.7436  11.00000  0.05    0.28
Q17   1   0.5441  0.2406  0.6590  11.00000  0.05    0.28
Q18   1   0.8830  0.6564  0.9809  11.00000  0.05    0.27
Q19   1   0.8770  0.7916  1.0237  11.00000  0.05    0.27
Q20   1   0.6309  0.4314  0.7344  11.00000  0.05    0.27

  REM The information below was added by Olex2.
  REM
  REM R1 = 0.1109 for 814 Fo > 4sig(Fo) and 0.2077 for all 4021 data
  REM n/a parameters refined using n/a restraints
  REM Highest difference peak 0.65, deepest hole -0.75
  REM Mean Shift 0, Max Shift 0.000.

  REM +++ Tabular Listing of Refinement Information +++
  REM R1_all = 0.2077
  REM R1_gt = 0.1109
  REM wR_ref = 0.3211
  REM GOOF = 1.027
  REM Shift_max = 0.000
  REM Shift_mean = 0
  REM Reflections_all = 4021
  REM Reflections_gt = 814
  REM Parameters = n/a
  REM Hole = -0.75
  REM Peak = 0.65
  REM Flack = n/a

  
;
_cod_data_source_file            jp8b07408_si_003.cif
_cod_data_source_block           2
_cod_original_cell_volume        783.4(3)
_cod_database_code               1554112
_shelx_shelxl_version_number     2014/7
_shelx_space_group_comment
;
The symmetry employed for this shelxl refinement is uniquely defined
by the following loop, which should always be used as a source of
symmetry information in preference to the above space-group names.
They are only intended as comments.
;
_olex2_refinement_description
;
1. Fixed Uiso
 At 1.2 times of:
  All C(H) groups, All N(H) groups, All N(H,H) groups
2.a Rotating group:
 N1(H1a,H1b)
2.b Aromatic/amide H refined with riding coordinates:
 N2(H2), C2(H2a), C4(H4), C6(H6)
;
_olex2_submission_special_instructions 'No special instructions were received'
loop_
_space_group_symop_operation_xyz
'x, y, z'
'-x, y+1/2, -z+1/2'
'-x, -y, -z'
'x, -y-1/2, z-1/2'
loop_
_atom_site_label
_atom_site_type_symbol
_atom_site_fract_x
_atom_site_fract_y
_atom_site_fract_z
_atom_site_U_iso_or_equiv
_atom_site_adp_type
_atom_site_occupancy
_atom_site_site_symmetry_order
_atom_site_calc_flag
_atom_site_refinement_flags_posn
S1 S 0.66626(16) 0.1602(3) 0.81757(16) 0.0522(7) Uani 1 1 d .
O1 O 1.0020(4) 0.8864(7) 1.1371(3) 0.0419(11) Uani 1 1 d .
N1 N 0.9067(5) 0.5204(8) 1.1407(4) 0.0376(13) Uani 1 1 d .
H1A H 0.9474 0.5142 1.2057 0.045 Uiso 1 1 d GR
H1B H 0.8341 0.5289 1.1444 0.045 Uiso 1 1 d GR
C1 C 0.9369(5) 0.7214(9) 1.0891(5) 0.0301(13) Uani 1 1 d .
N2 N 0.8923(4) 0.7494(8) 0.9834(4) 0.0340(13) Uani 1 1 d .
H2 H 0.9073 0.8782 0.9489 0.041 Uiso 1 1 calc R
C2 C 0.7937(5) 0.5870(10) 0.8272(5) 0.0318(14) Uani 1 1 d .
H2A H 0.8234 0.7183 0.7937 0.038 Uiso 1 1 calc R
N3 N 0.8206(4) 0.5650(7) 0.9298(4) 0.0327(12) Uani 1 1 d .
C3 C 0.7189(5) 0.4164(9) 0.7612(5) 0.0346(15) Uani 1 1 d .
C4 C 0.6770(5) 0.4287(10) 0.6497(5) 0.0391(16) Uani 1 1 d .
H4 H 0.6958 0.5514 0.6043 0.047 Uiso 1 1 calc R
C5 C 0.6013(7) 0.2292(16) 0.6138(7) 0.063(2) Uani 1 1 d .
H5 H 0.561(6) 0.277(13) 0.532(6) 0.07(2) Uiso 1 1 d .
C6 C 0.5879(7) 0.0708(13) 0.6940(8) 0.063(2) Uani 1 1 d .
H6 H 0.5419 -0.0690 0.6833 0.075 Uiso 1 1 calc R
loop_
_atom_site_aniso_label
_atom_site_aniso_U_11
_atom_site_aniso_U_22
_atom_site_aniso_U_33
_atom_site_aniso_U_23
_atom_site_aniso_U_13
_atom_site_aniso_U_12
S1 0.0665(14) 0.0222(9) 0.0667(14) -0.0004(8) 0.0091(9) -0.0041(7)
O1 0.064(3) 0.030(2) 0.030(2) -0.005(2) 0.0058(19) -0.0102(19)
N1 0.051(3) 0.028(2) 0.034(3) 0.002(2) 0.007(2) -0.004(2)
C1 0.046(4) 0.018(3) 0.026(3) -0.008(3) 0.006(2) 0.002(2)
N2 0.057(4) 0.019(2) 0.025(3) -0.005(2) 0.003(2) -0.010(2)
C2 0.041(4) 0.025(3) 0.029(3) 0.003(3) 0.006(2) -0.007(2)
N3 0.052(3) 0.014(2) 0.032(3) 0.000(2) 0.008(2) -0.0052(19)
C3 0.046(4) 0.015(3) 0.043(4) -0.001(3) 0.009(3) -0.004(2)
C4 0.053(4) 0.025(3) 0.037(4) -0.005(3) 0.003(3) -0.013(3)
C5 0.072(6) 0.064(5) 0.047(5) -0.021(4) 0.001(4) -0.012(4)
C6 0.050(5) 0.038(4) 0.098(7) -0.021(4) 0.008(4) -0.002(3)
loop_
_atom_type_symbol
_atom_type_description
_atom_type_scat_dispersion_real
_atom_type_scat_dispersion_imag
_atom_type_scat_source
C C 0.0033 0.0016 'International Tables Vol C Tables 4.2.6.8 and 6.1.1.4'
H H 0.0000 0.0000 'International Tables Vol C Tables 4.2.6.8 and 6.1.1.4'
N N 0.0061 0.0033 'International Tables Vol C Tables 4.2.6.8 and 6.1.1.4'
O O 0.0106 0.0060 'International Tables Vol C Tables 4.2.6.8 and 6.1.1.4'
S S 0.1246 0.1234 'International Tables Vol C Tables 4.2.6.8 and 6.1.1.4'
loop_
_geom_angle_atom_site_label_1
_geom_angle_atom_site_label_2
_geom_angle_atom_site_label_3
_geom_angle
C6 S1 C3 92.1(4)
H1A N1 H1B 109.4
C1 N1 H1A 109.4
C1 N1 H1B 109.2
O1 C1 N1 123.0(5)
O1 C1 N2 118.6(5)
N2 C1 N1 118.3(5)
C1 N2 H2 120.7
C1 N2 N3 118.7(5)
N3 N2 H2 120.7
N3 C2 H2A 118.9
N3 C2 C3 122.1(5)
C3 C2 H2A 118.9
C2 N3 N2 115.5(4)
C2 C3 S1 121.3(5)
C4 C3 S1 111.1(4)
C4 C3 C2 127.6(5)
C3 C4 H4 124.4
C3 C4 C5 111.2(6)
C5 C4 H4 124.4
C4 C5 H5 104(4)
C6 C5 C4 114.1(7)
C6 C5 H5 140(4)
S1 C6 H6 124.3
C5 C6 S1 111.4(6)
C5 C6 H6 124.3
loop_
_geom_bond_atom_site_label_1
_geom_bond_atom_site_label_2
_geom_bond_distance
S1 C3 1.731(6)
S1 C6 1.710(9)
O1 C1 1.258(6)
N1 H1A 0.8609
N1 H1B 0.8609
N1 C1 1.353(7)
C1 N2 1.332(7)
N2 H2 0.8600
N2 N3 1.399(6)
C2 H2A 0.9300
C2 N3 1.264(7)
C2 C3 1.430(8)
C3 C4 1.386(8)
C4 H4 0.9300
C4 C5 1.424(9)
C5 H5 1.07(7)
C5 C6 1.353(12)
C6 H6 0.9300
loop_
_geom_hbond_atom_site_label_D
_geom_hbond_atom_site_label_H
_geom_hbond_atom_site_label_A
_geom_hbond_distance_DH
_geom_hbond_distance_HA
_geom_hbond_distance_DA
_geom_hbond_angle_DHA
_geom_hbond_site_symmetry_A
N1 H1A O1 0.86 2.06 2.871(6) 156.8 2_747
N2 H2 O1 0.86 2.09 2.904(6) 158.8 3_777
C2 H2A S1 0.93 3.08 3.462(6) 106.3 1_565
C2 H2A N1 0.93 2.70 3.592(7) 159.8 4_575
C6 H6 S1 0.93 2.85 3.708(8) 154.1 2_646
loop_
_geom_torsion_atom_site_label_1
_geom_torsion_atom_site_label_2
_geom_torsion_atom_site_label_3
_geom_torsion_atom_site_label_4
_geom_torsion
S1 C3 C4 C5 0.9(8)
O1 C1 N2 N3 179.5(5)
N1 C1 N2 N3 -2.8(8)
C1 N2 N3 C2 -171.1(5)
C2 C3 C4 C5 -177.9(6)
N3 C2 C3 S1 -3.1(8)
N3 C2 C3 C4 175.5(6)
C3 S1 C6 C5 0.0(6)
C3 C2 N3 N2 -178.6(5)
C3 C4 C5 C6 -0.9(10)
C4 C5 C6 S1 0.6(9)
C6 S1 C3 C2 178.3(5)
C6 S1 C3 C4 -0.5(5)
loop_
_refln_index_h
_refln_index_k
_refln_index_l
_refln_F_squared_meas
_refln_F_squared_sigma
0 0 3 0.5 0.44
0 0 4 152.64 5.36
0 0 5 0.11 0.39
0 0 6 74.72 5.04
0 0 7 0.39 0.46
0 0 8 0.43 0.83
0 0 9 0.17 0.68
0 0 10 1.69 1.42
0 0 11 -1.02 1.02
0 0 12 4.37 1.94
0 0 13 -0.02 0.55
0 0 14 1.04 1.05
0 0 15 1.03 1.34
0 1 0 0.12 0.15
0 1 -1 27.91 1.89
0 1 -1 30.27 1.22
0 1 -2 14.5 1.24
0 1 2 15.65 1.45
0 -1 3 1.41 0.4
0 1 3 1.85 0.5
0 1 -3 2.11 0.57
0 1 4 59.84 3.71
0 1 -4 64.72 3.79
0 -1 4 58.56 3.38
0 -1 5 0.45 0.56
0 1 5 -0.05 0.4
0 1 -5 0.05 0.42
0 -1 6 2.29 1.06
0 1 -6 1.98 0.91
0 1 6 2.09 1.22
0 -1 7 19.02 2.56
0 1 7 22.78 3.13
0 -1 8 4.12 1.51
0 1 8 3.38 1.67
0 -1 9 1.51 1.26
0 1 9 1.1 1.34
0 1 10 6.26 2.03
0 -1 10 4.85 1.66
0 1 11 2.97 1.96
0 -1 11 3.34 1.72
0 -1 12 1.59 1.25
0 1 12 1.63 1.17
0 1 13 1.94 1.54
0 -1 13 2.2 1.29
0 -1 14 1.95 1.36
0 1 14 1.74 1.2
0 1 15 0.31 0.29
0 -1 15 1.3 1.53
0 2 0 1.5 0.52
0 -2 0 1.9 0.53
0 2 0 1.13 0.33
0 2 -1 317.75 8.32
0 2 1 331.59 6.33
0 2 -1 313.09 7.2
0 2 -2 74.45 4.73
0 2 -2 68.27 3.03
0 -2 -2 88.56 3.11
0 -2 -2 86.3 3.62
0 2 3 13.16 1.87
0 2 -3 13.41 2.3
0 -2 3 12.05 1.43
0 -2 -3 12.64 1.2
0 2 -3 10.05 1.51
0 -2 4 20.2 2.06
0 2 -4 15.94 2.14
0 2 4 13.04 2.01
0 2 -5 51.17 4.36
0 2 5 39.36 3.81
0 2 -6 1.96 1.15
0 2 6 0.66 0.69
0 2 7 41.9 4.6
0 -2 8 0.35 0.73
0 2 8 1.92 1.53
0 -2 9 12.46 2.57
0 2 9 15.73 3.34
0 2 10 20.17 3.95
0 -2 10 16.95 3.07
0 2 11 1.09 1.58
0 -2 11 1.55 1.28
0 -2 12 1.64 0.77
0 2 12 1.57 1.4
0 2 13 1.6 1.34
0 -2 13 0.61 1.01
0 2 14 2.29 1.77
0 3 0 -0.57 0.73
0 3 0 0.64 0.74
0 3 0 0.4 0.47
0 -3 0 0.27 0.1
0 3 -1 43.02 3.35
0 3 1 44.58 2.89
0 3 -1 39.68 4.05
0 -3 -1 47.26 2.86
0 3 -1 49.45 3.87
0 3 -2 5.14 1.3
0 3 -2 5.63 1.22
0 -3 -2 6.84 1.03
0 3 -3 129.81 8.4
0 3 3 127.88 6.76
0 -3 -3 111.53 4.24
0 -3 -3 138.24 6.1
0 3 4 1.16 0.87
0 3 -4 -0.09 0.48
0 -3 -4 0.55 0.35
0 3 -4 0.53 0.45
0 -3 -5 26.8 2.34
0 3 5 27.64 3.65
0 -3 5 30.21 2.92
0 3 -5 32.86 4.19
0 3 -6 5.27 1.88
0 3 6 3.58 1.47
0 -3 -6 5.32 1.23
0 -3 6 3.69 0.87
0 -3 7 0.16 0.23
0 3 7 0.28 0.89
0 -3 8 10.94 2.73
0 3 8 8.59 2.98
0 3 9 11.01 3.22
0 3 10 31.4 5.43
0 3 11 2.04 1.94
0 3 12 -0.14 0.42
0 3 13 0.91 1.55
0 4 0 14.5 2.36
0 4 0 14.79 2.62
0 4 0 10.89 1.82
0 4 -1 19.79 2.81
0 4 -1 24.43 3.17
0 4 -1 18.55 3.16
0 4 1 21.98 2.4
0 4 -2 59.77 6.27
0 4 -2 62.15 5.42
0 -4 -2 70.83 4.09
0 4 3 30.32 4.15
0 4 -3 22.18 4.32
0 -4 -3 19.97 2.14
0 4 -3 18.4 3.18
0 -4 -4 1.74 0.5
0 4 -4 1.59 1
0 -4 -5 8.75 1.47
0 4 5 16.13 3.44
0 -4 -5 8.64 1.38
0 4 -5 18.11 3.67
0 4 -6 13.76 3.5
0 4 6 8.52 2.63
0 -4 -6 8.49 1.94
0 4 7 5.2 2.24
0 4 8 12.04 3.54
0 4 9 7.4 3.03
0 4 10 4.02 2.69
0 4 11 4.89 3.01
0 4 12 3.96 2.97
0 5 0 -0.24 0.54
0 5 0 -1.06 1.07
0 5 -1 0.6 0.2
0 5 1 1.05 0.59
0 5 -2 37.06 4.51
0 5 2 50.99 6.1
0 5 -2 36.04 5.43
0 5 -3 0.19 0.54
0 5 3 1.88 1.56
0 5 4 27.37 5.29
0 5 -4 19.04 4.88
0 5 -5 20.46 5.91
0 5 5 19.89 4.72
0 5 6 11.46 3.76
0 5 7 9.9 3.66
0 5 8 2.68 2.09
0 5 9 4.19 3.03
0 5 10 3.25 3.1
0 5 11 6.53 3.76
0 6 0 4.46 1.58
0 6 1 6.29 1.97
0 6 2 6.19 2.35
0 6 3 1.97 1.98
0 6 -3 2.07 1.61
0 6 4 3.27 2.93
0 6 -4 3.35 1.98
0 6 -5 5.93 2.9
0 6 5 16.73 7.38
0 6 -6 3.97 2.71
0 6 -7 -1.93 2.36
0 6 7 -1.92 2.42
0 6 -8 3.14 2.78
0 6 8 6.96 4.27
0 6 -9 1.12 2.38
0 6 9 4.11 4.32
0 6 10 0.04 1.53
0 7 4 4.02 2.83
0 7 5 1.87 2.58
-1 0 15 0.64 0.82
-1 0 14 9.75 2.96
-1 0 13 1.19 1.48
-1 0 12 4.73 1.98
-1 0 11 -0.06 0.07
-1 0 10 28.97 3.93
-1 0 9 0.1 0.27
-1 0 8 26.17 3.27
-1 0 7 -0.2 0.48
-1 0 6 109.04 5.74
-1 0 5 0.17 0.18
-1 0 4 83.52 4.11
-1 0 3 -0.36 0.4
1 0 -2 261.89 6.07
1 0 2 80.49 2.83
1 0 3 -0.03 0.18
-1 0 -3 -0.18 0.14
1 0 4 -0.23 0.11
-1 0 -4 0.3 0.37
-1 0 -5 -0.01 0.43
1 0 5 0.45 0.48
1 0 6 135.75 6.46
-1 0 -6 127.65 6.04
1 0 7 0.48 0.52
1 0 8 13.83 2.6
1 0 9 1.03 1.06
1 0 10 4.09 1.62
1 0 11 0.33 0.74
1 0 12 2.1 1.48
1 0 13 0.34 0.57
1 0 14 3.95 2.17
1 0 15 -0.63 1.13
-1 1 15 0.41 0.59
-1 -1 15 0.23 0.58
-1 -1 14 0.75 1.15
-1 1 14 0.45 0.8
-1 -1 13 0.95 1.01
-1 1 13 1.21 1.02
-1 -1 12 0.55 0.49
-1 1 12 2.08 1.43
-1 -1 11 1.46 1
-1 1 11 1.03 0.69
-1 1 10 3.6 1.75
-1 -1 10 3.12 1.58
-1 -1 9 0.46 0.38
-1 1 9 0.19 0.48
-1 1 8 0.5 0.32
-1 -1 8 1.02 0.76
-1 -1 7 8.82 1.82
-1 1 7 9.28 2.05
-1 1 6 108.2 6.32
1 1 -6 103.07 6
-1 -1 6 100.34 5.5
-1 1 5 16.8 2.31
1 1 -5 13.79 2.03
-1 -1 5 13.56 1.88
1 -1 -4 23.92 2.03
1 1 -4 27.07 2.55
-1 1 4 30.5 2.79
1 -1 -3 -0.12 0.19
1 1 -3 0.1 0.14
-1 1 3 0.64 0.49
1 1 -3 0.31 0.41
-1 -1 2 482.21 10.55
1 1 -2 483 10.52
1 -1 -2 503.46 6.79
-1 1 2 469.27 7.89
1 1 -1 52.78 3.15
-1 1 1 57.61 2.11
1 -1 -1 58.65 1.9
-1 -1 1 59.01 2.45
-1 -1 1 47.06 2.91
1 1 -1 64.02 2.54
1 1 -1 45.93 2.85
1 1 0 68.55 2.97
-1 -1 0 67.01 3.13
1 1 0 74.72 3.16
-1 -1 -1 4.11 0.71
1 -1 2 23.26 1.38
-1 1 -2 22.62 1.46
1 1 3 13.89 1.65
1 -1 3 13.04 1.29
-1 1 -3 14.52 1.45
1 1 4 0.62 0.52
-1 1 -4 0.41 0.36
1 -1 4 0.08 0.1
-1 1 -5 21.36 2.35
1 1 5 18.49 2.27
1 -1 5 19.98 2.09
1 -1 6 23.9 2.68
-1 1 -6 24.88 2.79
1 1 6 25.71 3.04
1 1 7 3.16 1.06
1 -1 7 3.82 1.09
1 -1 8 9.9 1.99
1 1 8 10.69 2.36
1 1 9 8.66 2.44
1 -1 9 8.74 2.32
1 -1 10 1.32 1.1
1 1 10 1.96 1.29
1 1 11 11.18 2.9
1 -1 11 13.22 2.98
1 1 12 4.34 2.12
1 -1 12 4.65 1.99
1 -1 13 0.12 0.17
1 1 13 0.48 0.8
1 -1 14 3.31 2.07
1 1 14 1.85 1.6
1 -1 15 -1.41 1.32
1 1 15 0.01 0.9
-1 2 14 2.32 1.68
-1 2 13 2.59 1.98
-1 2 12 2.85 1.43
-1 2 11 17.45 3.98
-1 2 10 14.64 3.82
-1 2 9 64.87 6.75
-1 2 8 12.62 2.84
-1 2 7 19.27 3.58
1 2 -6 0.63 0.69
-1 2 6 -0.04 0.54
-1 2 5 24.33 3.2
1 2 -5 24.89 3.79
1 2 -5 21.89 3.04
-1 2 4 -0.3 0.31
-1 -2 4 0.54 0.66
1 2 -4 0.92 0.72
1 2 -4 0.27 0.48
1 -2 -3 186.46 3.93
-1 -2 3 194.64 6.49
-1 2 2 59.06 3.31
1 2 -2 57.38 3.17
1 2 -2 50.97 4.15
-1 -2 2 47.63 3.78
-1 -2 2 51.28 3.58
-1 2 1 119.11 4.01
-1 -2 1 108.36 5.4
1 2 -1 114.69 5.91
-1 2 1 114.6 3.74
1 2 0 4.33 0.93
-1 -2 0 3.28 0.82
-1 -2 0 4.53 1.11
1 2 0 3.12 0.85
-1 2 0 2.64 0.51
1 2 0 4.75 0.95
-1 -2 -1 101.62 4.39
-1 -2 -1 98.38 4.78
1 2 1 107.95 4.2
-1 2 -2 0.82 0.36
-1 2 -2 0.54 0.21
-1 -2 -2 1.2 0.45
-1 -2 -2 0.6 0.47
-1 2 -3 45.35 3
-1 -2 -3 52.24 2.71
1 2 4 133.58 6.49
1 -2 4 130.5 3.45
1 2 5 4.13 1.33
-1 2 -5 6.53 1.51
-1 2 -6 2.01 0.91
1 2 6 1.29 0.8
1 -2 6 1.35 0.65
-1 2 -7 5.94 1.73
1 2 7 2.91 1.23
1 -2 7 3.54 1.09
1 -2 8 8.97 1.99
1 2 8 7.04 1.97
1 2 9 4.2 2.18
1 -2 9 3.94 2.16
1 -2 10 2.2 1.68
1 2 10 3.12 1.69
1 -2 11 3.04 1.44
1 2 11 2.07 1.52
1 2 12 1.34 1.38
1 -2 12 0.56 1.18
1 2 13 2.3 1.64
1 -2 13 3.81 2.02
1 -2 14 -0.45 1.01
1 2 14 2.61 2.04
1 -2 15 2.74 2.02
-1 3 14 3.13 2.39
-1 3 13 4 2.32
-1 3 12 0.5 0.77
-1 3 11 13.02 4.01
-1 3 10 19.78 4.7
-1 3 9 8.21 2.99
-1 -3 8 2.8 1.36
-1 3 8 3.3 1.88
-1 3 7 51.69 6.06
-1 -3 7 43.86 4.05
-1 3 6 3.19 1.34
1 -3 -6 4.32 0.85
-1 -3 6 4.12 1.24
1 3 -6 3.41 1.64
1 3 -5 32.73 4.41
-1 -3 5 36.43 3.9
-1 3 5 28.85 3.92
1 -3 -5 28.73 2.09
-1 -3 4 101.01 7.03
1 3 -4 91.89 7.78
-1 3 4 77.78 5.78
-1 3 3 0.73 0.66
1 -3 -3 0.29 0.2
1 3 -3 0.24 0.18
1 3 -3 -0.5 0.51
1 3 -2 18.42 2.7
1 3 -2 14.85 2.73
-1 3 2 24.3 2.75
1 3 -2 26.89 2.95
-1 3 1 68.04 3.61
-1 -3 1 72.01 4.92
1 3 -1 102.54 5.65
1 3 -1 106.36 5.55
1 3 -1 73.78 5.57
-1 3 0 6.73 0.95
-1 3 0 10.51 1.84
1 3 0 14.73 2.02
-1 -3 0 9.47 1.65
1 3 0 9.61 1.67
1 3 0 15.61 2.14
-1 -3 -1 33.24 2.94
1 3 1 33.41 3.11
1 3 1 32.38 2.64
-1 3 -1 28.41 2.68
-1 -3 -2 3.05 0.75
-1 -3 -2 4.18 1.22
-1 3 -2 3.24 0.98
-1 3 -2 2.84 0.98
-1 -3 -3 1.26 0.69
-1 3 -3 0.42 0.74
-1 3 -3 0.66 0.58
-1 -3 -3 1.21 0.48
-1 -3 -4 -0.45 0.41
-1 3 -4 0.61 1.08
-1 3 -4 -0.33 0.61
1 3 4 1.76 1.11
-1 -3 -4 0.17 0.45
1 3 5 3.53 1.49
-1 -3 -5 4.1 1
-1 3 -5 4.15 1.44
-1 3 -6 1.29 1.28
1 3 6 0.52 0.64
-1 3 -7 0.56 0.9
1 3 7 1.52 1.33
1 -3 7 0.37 0.25
1 3 8 39.85 5.43
1 3 9 7.71 2.46
1 3 10 6.82 2.76
1 3 11 13.21 3.76
1 3 12 3.43 2.04
1 3 13 0.99 1.53
-1 4 13 1.56 1.79
-1 4 12 4.58 3.12
-1 4 11 2.62 2.17
-1 4 10 11.27 4.09
-1 4 9 4.08 2.62
-1 4 8 3.63 2.3
-1 4 7 4.31 1.94
-1 4 6 0.59 0.41
-1 4 5 12.44 3.19
1 -4 -5 7.43 1.14
1 4 -4 40.37 6.06
-1 4 4 41.75 5.09
1 -4 -4 24.32 1.85
-1 4 3 1.35 0.94
1 4 -3 1.27 1.19
1 4 -3 1.24 1.35
1 4 -3 0.25 0.49
1 4 -2 31.19 4.19
1 4 -2 22.67 3.85
1 4 -2 33.44 4.32
-1 4 2 35.22 4.09
-1 4 1 4.56 0.95
1 4 -1 7.67 2.1
1 4 -1 6.16 1.83
1 4 -1 7.88 1.69
1 4 0 19.28 2.81
1 4 0 20.01 2.9
-1 4 0 11.89 2.2
-1 4 0 14.25 2.43
1 4 0 14.42 2.3
-1 -4 0 14.34 2.52
-1 4 -1 28.11 3.93
-1 4 -1 22.7 2.98
-1 -4 -1 33.5 3.58
-1 4 -1 28.98 3.02
1 4 1 38.48 4.05
1 4 1 34.94 3.12
-1 4 -2 30.28 3.48
-1 -4 -2 43.28 3.67
1 4 2 39.29 4.33
-1 4 -2 27.48 3.42
-1 -4 -3 19.41 2.19
-1 4 -3 14.61 2.84
-1 4 -3 18.63 2.83
-1 -4 -4 1.96 0.9
-1 4 -4 4.26 1.78
-1 4 -4 4.21 1.71
-1 -4 -4 2.13 0.74
1 4 4 3.81 1.82
-1 -4 -5 17.54 2.38
-1 -4 -5 19.96 2.74
1 4 5 21.42 4.12
-1 -4 -6 4.06 1.43
1 4 6 4.34 1.93
1 4 7 4.26 2.13
1 4 8 3.71 2.09
1 4 9 5.34 2.69
1 4 10 1.43 1.69
1 4 11 5.36 2.86
1 4 12 3.38 2.49
-1 5 11 3.84 2.98
-1 5 10 2.89 2.89
-1 5 9 2.9 2.83
-1 5 8 23.33 6.13
1 5 -8 38.27 11.17
-1 5 7 3.66 2.75
1 5 -7 -0.19 2.68
-1 5 6 10.08 3.68
1 5 -6 13.05 4.85
1 5 -5 0.57 0.5
-1 5 5 2.03 1.75
-1 5 4 14.16 3.55
1 5 -4 12.85 3.91
1 5 -3 9.17 2.92
-1 5 3 7.38 2.26
1 5 -2 7.09 2.51
1 5 -2 7.59 2.14
-1 5 2 10.28 2.5
-1 5 1 4.09 1.12
1 5 -1 5.51 1.68
-1 5 1 8.24 2.07
1 5 -1 5.4 1.78
-1 5 1 4.73 1.72
-1 5 0 35.34 4.41
1 5 0 40.37 4.47
1 5 0 42.99 4.55
-1 5 0 37.12 4.11
1 5 1 65.45 5.8
1 5 1 59.32 4.73
-1 5 -1 46.67 4.42
-1 -5 -1 44.13 4.02
-1 5 -1 48.62 5.75
-1 5 -2 7.65 1.84
1 5 2 12.86 2.79
-1 -5 -2 10 2.01
-1 5 -2 10.03 2.83
-1 5 -3 7.21 2.81
1 5 3 6.79 2.61
-1 5 -4 5.64 2.58
1 5 4 7.44 2.72
1 5 5 -0.48 1.17
1 5 6 10.1 3.62
1 5 7 -0.1 0.51
1 5 8 5.35 2.98
1 5 9 1.19 1.97
1 5 10 6.08 3.67
1 5 11 2.92 2.45
1 6 -9 3.77 5.55
1 6 -8 0.19 2.17
1 6 -7 5.57 4
1 6 -6 1.12 1.57
1 6 -5 9.62 3.81
1 6 -4 11.08 3.71
1 6 -3 3.8 1.74
-1 6 3 4.94 3.07
-1 6 2 0.97 0.95
1 6 -2 -0.04 1.22
1 6 -1 2.55 1.08
-1 6 1 2.85 1.3
-1 6 0 4.44 1.5
1 6 0 7.23 1.9
1 6 1 0.3 0.6
1 6 2 6.09 2.16
1 6 3 3.6 2.08
1 6 3 0.94 1.14
1 6 4 9.27 3.99
1 6 4 12.88 4.15
-1 6 -4 7.3 3.08
1 6 5 -0.66 0.8
-1 6 -5 -1.38 1.41
1 6 5 1.9 2.17
1 6 6 3.32 3.09
-1 6 -6 2.15 1.82
1 6 6 2.18 3.03
1 6 7 1.8 2.66
1 6 7 4.64 3.93
-1 6 -7 -0.5 2.57
1 6 8 4.15 3.48
-1 6 -8 -0.05 1.19
1 6 9 -0.26 0.86
-1 7 5 22 15.31
1 7 3 2.46 1.57
1 7 4 1.71 1.86
-2 0 15 1.45 1.24
-2 0 14 6.78 2.57
-2 0 13 0.29 0.78
-2 0 12 6.41 2.02
-2 0 11 0.44 0.68
-2 0 10 13.27 3.02
-2 0 9 0.32 0.47
-2 0 8 43.27 4.23
-2 0 7 0.12 0.11
-2 0 6 4.61 1.85
-2 0 5 0.33 0.32
2 0 -5 0.49 0.42
-2 0 4 2.72 0.76
2 0 -4 3.04 0.91
-2 0 3 -0.19 0.29
2 0 -3 -0.06 0.06
-2 0 2 136.57 4.92
2 0 -2 137.92 4.63
2 0 -2 136.75 5.34
2 0 -1 0.48 0.3
2 0 -1 0 0.18
2 0 0 15.48 1.61
-2 0 0 14.27 1.33
2 0 1 -0.16 0.15
-2 0 -1 -0.1 0.12
2 0 2 51.09 2.88
2 0 3 0.21 0.33
2 0 4 156.06 5.63
2 0 5 -0.37 0.04
2 0 6 2.34 0.91
2 0 7 0.29 0.37
2 0 8 15.54 2.75
2 0 9 0.23 0.83
2 0 10 2.08 1.19
2 0 11 0.15 0.61
2 0 12 2.22 1.46
2 0 13 -0.61 0.42
2 0 14 0.32 0.29
2 0 15 0.02 0.53
-2 -1 15 0.43 0.82
-2 1 15 4.72 2.27
-2 -1 14 1.38 1.2
-2 1 14 1.45 1.35
-2 -1 13 0.37 0.71
-2 1 13 -0.23 0.95
-2 1 12 1 1.3
-2 -1 12 1.25 0.85
-2 -1 11 1.25 0.78
-2 1 11 0.55 0.87
-2 1 10 4.86 1.72
-2 -1 10 4.35 1.66
-2 1 9 27.4 3.83
-2 -1 9 22.78 3.17
-2 1 8 2.97 1.14
-2 -1 8 2.26 0.9
-2 1 7 32.37 3.73
-2 -1 7 29.4 3.19
-2 1 6 1.26 1.25
2 1 -6 18.54 2.79
2 1 -5 27.71 2.98
-2 1 5 26.81 2.94
2 1 -5 27.77 3.43
2 1 -4 1.43 0.62
2 -1 -4 2.01 0.71
-2 1 4 1.03 0.55
2 1 -4 1.17 0.72
2 -1 -3 18.25 1.84
2 -1 -3 19.28 1.77
-2 1 3 21.98 2.07
2 -1 -3 19.6 1.42
2 1 -3 21.96 2.65
2 -1 -2 20.03 1.54
-2 1 2 15.12 1.46
2 -1 -2 12.78 1.24
2 1 -2 14.67 2.01
2 1 -2 17.93 2.2
2 1 -1 1.5 0.56
2 1 -1 0.77 0.14
-2 -1 1 0.48 0.13
-2 -1 1 1.05 0.46
-2 1 1 0.54 0.17
2 -1 -1 1.46 0.33
-2 1 1 0.71 0.15
2 -1 -1 1.22 0.37
2 1 0 931.28 12.13
-2 -1 0 963.15 12.72
2 1 0 985.1 14.33
-2 -1 0 956.03 13.72
-2 -1 -1 17.56 1.53
-2 -1 -1 20.94 2.06
2 -1 2 19.8 1.23
2 -1 3 -0.25 0.23
2 -1 3 0.26 0.22
2 -1 4 15.61 1.7
-2 1 -4 16.77 1.86
-2 1 -5 1.11 0.74
2 1 5 0.28 0.58
2 -1 5 0.47 0.52
-2 1 -6 71.92 4.95
2 1 6 62.67 4.65
2 -1 6 67.45 4.59
2 1 7 12.03 2.29
2 -1 7 13.13 2.31
2 -1 8 4.67 1.56
2 1 8 2.94 1.34
2 -1 9 26.32 3.9
2 1 9 23.98 3.81
2 -1 10 5.2 1.96
2 1 10 6.29 2.27
2 1 11 1.09 1.14
2 -1 11 0.7 0.4
2 -1 12 7.04 2.59
2 1 12 5.66 2.25
2 -1 13 5.54 2.48
2 1 13 3.83 1.95
2 1 14 1.99 1.54
2 -1 14 1.92 1.55
2 -1 15 1.45 1.82
-2 2 14 -0.28 0.94
-2 2 13 7.35 2.76
-2 2 12 2.62 1.64
-2 2 11 6.31 2.66
-2 2 10 25.24 4.58
-2 2 9 27.96 5.05
-2 2 8 10.52 2.83
-2 2 7 12.23 2.97
-2 2 6 48.45 5.07
2 -2 -5 9.08 1.51
-2 2 5 12.75 2.5
2 2 -5 14.13 2.51
2 -2 -4 8.69 1.33
-2 2 4 10.11 1.98
-2 -2 4 7.47 1.52
2 2 -4 8.69 2.12
-2 2 3 32.91 3.14
2 -2 -3 33.16 2.3
2 2 -3 27.61 3.37
2 2 -3 31.14 3.67
-2 -2 3 28.6 2.95
-2 -2 3 28.25 3.44
2 -2 -3 23.85 1.85
-2 -2 2 2.41 0.93
2 2 -2 2.11 0.85
2 2 -2 1.96 0.81
2 2 -2 1.82 0.97
-2 -2 2 3.73 1.07
-2 2 2 4.39 1.02
-2 -2 1 0.29 0.09
-2 2 1 0.28 0.3
2 2 -1 0.47 0.44
-2 -2 1 0.24 0.26
2 2 -1 -0.92 0.61
2 2 -1 0.21 0.25
-2 -2 1 0.31 0.5
2 2 0 29.76 2.67
-2 -2 0 23.08 2.31
2 2 0 21.1 2.23
-2 -2 0 27.65 2.92
2 2 0 23.78 2.51
-2 -2 -1 5.06 1.04
-2 -2 -1 4.16 1.01
-2 -2 -2 39.89 2.75
-2 -2 -2 40.07 3.12
-2 -2 -3 6.83 1.21
-2 2 -3 7.09 1
2 -2 4 6.26 1.04
-2 2 -4 7.89 1.34
-2 2 -5 23.11 2.73
2 -2 5 20.2 2.19
2 2 5 20.32 2.83
2 2 6 0.34 0.85
-2 2 -6 0.63 0.82
2 -2 6 0.35 0.67
2 2 7 21.62 3.29
-2 2 -7 31.24 4.01
2 -2 7 24.96 3.12
2 2 8 2.2 1.23
2 -2 8 2.45 1.36
2 2 9 32.23 4.56
2 -2 9 39.51 4.74
2 2 10 14.77 3.3
2 -2 10 20.74 3.76
2 2 11 3.02 1.53
2 -2 11 3.21 1.76
2 2 12 1.84 1.41
2 -2 12 2.33 1.47
2 2 13 1.07 1.44
2 -2 13 1.69 1.96
2 2 14 2 1.69
2 -2 14 3.15 2.3
2 -2 15 1.45 1.77
-2 3 14 0.54 1.2
-2 3 13 4 2.61
-2 3 12 1.33 1.37
-2 3 11 12.82 3.98
-2 3 10 11.35 3.57
-2 3 9 4.75 2.62
-2 3 8 1.97 1.46
-2 -3 8 1.23 0.84
-2 -3 7 18.91 3.13
-2 3 7 7.17 3.25
-2 3 6 2.3 1.56
-2 -3 6 4.13 1.38
-2 3 5 20.18 3.61
-2 -3 5 24.14 3.49
-2 3 4 10.15 2.45
2 3 -4 8.7 2.35
2 -3 -4 5.56 0.92
-2 3 3 4.68 1.56
-2 -3 3 2.56 1.18
2 3 -3 2.06 1.18
2 3 -3 3.09 1.41
-2 -3 3 2.91 1.35
2 3 -2 0.55 0.47
2 3 -2 0.51 0.41
2 3 -2 1 0.76
-2 -3 2 0.96 0.82
-2 3 2 0.31 0.16
-2 3 2 0.34 0.22
-2 3 1 104.54 4.98
2 3 -1 114.15 5.91
2 3 -1 103.97 6.23
2 3 -1 98.16 6.6
-2 3 1 95.31 4.78
-2 3 0 10.12 1.14
2 3 0 17.84 2.71
-2 -3 0 15.36 2.27
2 3 0 15.23 2.13
2 3 0 18.3 2.3
-2 -3 0 13.65 2.74
-2 -3 -1 81.98 4.65
-2 3 -1 79.62 4.64
-2 -3 -1 80.81 6.21
2 3 1 80.09 5.04
2 3 1 68.5 4.37
-2 3 -2 154.16 4.42
2 3 2 177.73 7.99
-2 -3 -2 189.18 6.94
-2 -3 -2 198.81 8.86
-2 3 -2 158.98 6.3
-2 -3 -3 1.16 0.55
-2 3 -3 1.79 0.7
-2 -3 -3 1.22 0.65
-2 -3 -4 2.11 0.72
-2 -3 -4 2.46 1.01
-2 3 -4 2.59 0.81
-2 3 -5 64.16 4.86
-2 -3 -5 51.93 4.03
2 3 5 57.64 5.72
-2 3 -6 15.44 2.55
2 3 6 13.08 2.86
2 3 7 29.14 4.39
-2 3 -7 35.21 4.4
2 3 8 33.74 4.98
2 3 9 0.78 0.79
2 3 10 5.24 2.37
2 3 11 5.29 2.46
2 3 12 2.1 1.8
2 3 13 2.39 2.05
-2 4 13 1.11 1.08
-2 4 12 14.05 5.02
-2 4 11 1.04 1
-2 4 10 6.64 3.69
-2 4 9 9.02 3.64
-2 4 8 4.85 2.61
2 4 -7 1.56 0.93
-2 4 7 5.28 2.48
-2 4 6 11.34 3.3
-2 -4 6 6.89 1.83
2 4 -6 11.47 3.42
2 -4 -5 13.16 1.22
2 -4 -5 12.68 1.05
-2 4 4 0.52 0.9
2 4 -4 0.72 1.15
2 4 -3 3.1 1.53
-2 4 3 5 1.95
2 4 -2 0.86 0.89
-2 4 2 1.06 0.83
-2 -4 2 0.62 0.3
2 4 -2 -0.04 1.01
-2 4 2 1.19 0.43
2 4 -2 1.15 0.83
-2 -4 1 1.07 0.82
2 4 -1 1.41 1.19
-2 4 1 0.49 0.23
2 4 -1 -0.92 1.13
-2 4 1 0.98 0.66
2 4 -1 1.05 0.72
2 4 0 20.71 3.57
-2 -4 0 17.98 2.94
-2 4 0 18.59 3.01
2 4 0 19.63 2.81
-2 4 0 13.81 1.69
2 4 0 22.07 2.94
2 4 1 40.07 3.69
2 4 1 48.65 4.48
-2 4 -1 36.2 2.99
-2 4 -1 25.26 2.06
-2 4 -1 26.78 3.08
-2 -4 -1 51.01 4.62
-2 4 -2 4.08 0.93
-2 4 -2 3.04 1.02
-2 4 -2 3.42 1.18
-2 -4 -2 4.4 1.21
2 4 2 3.93 1.26
-2 -4 -2 3.71 1.37
-2 4 -3 44.99 3.26
-2 -4 -3 46.36 3.83
2 4 3 47.13 5.18
-2 -4 -3 47.06 5.18
-2 4 -3 43.91 5.1
-2 4 -4 7.89 2.83
-2 -4 -4 5 1.61
-2 4 -4 6.26 1.39
-2 -4 -4 5.49 1.32
-2 -4 -5 11.39 2.16
2 4 5 12.26 3.16
-2 -4 -5 10.84 2.23
2 4 6 6.56 2.55
-2 -4 -6 6.1 1.91
2 4 7 6.3 2.23
-2 -4 -7 8 2.59
2 4 8 4.31 2.07
2 4 9 3.95 2.4
2 4 10 0.21 0.34
2 4 11 4.2 2.92
2 4 12 2.38 2.1
-2 5 12 3.39 3.28
-2 5 11 2.44 2.98
2 5 -11 0.56 2.05
-2 5 10 13.51 5.48
2 5 -10 15.38 7.09
-2 5 9 5.45 3.79
2 5 -9 3.38 3.63
-2 5 8 15.14 5.34
2 5 -8 17.05 6.43
-2 5 7 4.12 2.7
2 5 -7 0.6 1.14
-2 5 6 3.97 2.63
2 5 -6 3.78 2.94
-2 5 5 1.47 1.59
2 5 -5 1.09 1.33
-2 5 4 3.06 1.83
2 5 -4 1.6 1.56
2 5 -3 20.04 4.22
-2 5 3 21.92 3.73
-2 5 2 43.47 4.7
2 5 -2 39.92 5.79
2 5 -2 38.39 5.75
2 5 -1 7.87 2.12
2 5 -1 9.73 2.52
-2 5 1 6 1.32
-2 5 1 8.67 1.74
-2 -5 0 5.92 1.96
2 5 0 5.24 1.61
2 5 0 6.17 1.89
-2 5 0 4.59 1.73
-2 5 0 1.59 0.68
-2 -5 -1 10.22 2.63
-2 5 -1 4.49 1.25
2 5 1 11.1 2.35
-2 5 -1 9.09 2.52
2 5 2 0.13 0.31
-2 5 -2 1.18 0.72
-2 -5 -2 1.27 0.75
-2 5 -2 0.11 0.48
-2 -5 -3 0.55 0.49
2 5 3 0 0.82
-2 -5 -4 0.87 0.71
2 5 4 1.49 1.47
2 5 5 0.36 0.32
2 5 5 0.33 0.49
2 5 6 11.77 3.79
2 5 7 -0.03 1.14
2 5 8 9.22 3.96
2 5 9 1.55 1.95
2 5 10 4.45 3.15
2 6 -8 5.76 4.48
2 6 -7 2.79 2.71
2 6 -6 9.57 4.1
2 6 -5 5.28 2.92
2 6 -4 15.1 4.22
2 6 -3 -2.24 1.57
2 6 -2 18.05 4.2
-2 6 2 18.48 4.36
2 6 -2 11.69 3.12
-2 6 1 3.86 1.6
2 6 -1 4.78 1.83
2 6 -1 9.47 2.88
2 6 0 0.32 0.22
2 6 1 1.11 0.66
2 6 2 21.41 3.86
2 6 3 8.67 2.93
2 6 3 14.67 4.11
2 6 4 7.98 3.32
2 6 4 9.96 3.73
2 6 5 2.32 2.35
2 6 5 -0.81 1.48
-2 6 -5 1.31 1.17
-2 6 -6 -0.16 0.52
2 6 6 2.68 2.88
2 6 6 3.04 2.56
2 6 7 3.66 3.83
2 6 7 -1.09 1.46
2 6 8 5.92 4.4
2 7 2 0.41 0.56
2 7 3 0.1 0.65
2 7 4 6.77 3.29
-3 0 15 -0.76 0.99
-3 0 14 3.76 2.1
-3 0 13 0.51 0.6
-3 0 12 2.32 1.6
-3 0 11 0.33 0.46
-3 0 10 1.12 0.82
-3 0 9 -0.13 0.63
-3 0 8 15.46 2.66
-3 0 7 0.18 0.18
-3 0 6 51.51 4.17
3 0 -6 64.65 5.31
-3 0 5 0.01 0.08
3 0 -5 0.29 0.45
-3 0 4 11.95 2.23
3 0 -4 10.13 1.67
3 0 -4 11.53 2.05
-3 0 3 0.13 0.35
3 0 -3 -0.32 0.61
3 0 -3 0.34 0.47
3 0 -2 987.65 13.42
-3 0 2 1000 15.6
3 0 -2 959.29 14.79
-3 0 2 984.71 13.76
3 0 -1 -0.36 0.27
-3 0 1 -0.12 0.28
-3 0 0 223.87 6.42
3 0 0 239.28 7.55
-3 0 -1 0 0.15
3 0 1 0.04 0.18
3 0 2 2.77 0.69
3 0 3 -0.08 0.4
3 0 4 109.29 4.95
3 0 5 0.88 0.67
3 0 6 7.46 1.58
3 0 7 -0.21 0.39
3 0 8 3.25 1.28
3 0 9 -0.36 0.04
3 0 10 1.64 1.24
3 0 11 1.64 1.62
3 0 12 4.36 2.24
3 0 13 0.75 1.21
3 0 14 3.5 2.35
3 0 15 -0.21 0.44
-3 1 15 2.59 1.64
-3 1 14 1.42 1.26
-3 1 13 -0.85 1.18
-3 1 12 6.57 2.36
-3 1 11 0.45 0.8
-3 1 10 3.21 1.8
-3 1 9 8.12 2.35
-3 1 8 6.33 1.97
-3 1 7 5.56 1.78
3 -1 -7 6.85 2.02
-3 1 6 9.36 1.91
3 -1 -6 10.03 2.07
3 -1 -5 4.42 1.31
3 -1 -5 3.94 1.13
-3 1 5 4.31 1.24
3 1 -5 4.09 1.41
3 -1 -5 5.19 1.18
3 -1 -4 0.94 0.55
-3 1 4 1.24 0.59
3 -1 -4 0.94 0.48
3 1 -4 0.27 0.32
3 1 -4 1.42 0.79
3 -1 -4 1.44 0.54
-3 1 3 145.62 5.51
3 1 -3 173.31 8.15
3 -1 -3 144.78 5.72
-3 1 3 197.07 7.32
3 -1 -3 128.52 3.82
3 -1 -3 155.18 5.43
3 1 -3 193.41 8.2
3 -1 -2 288.22 6.27
3 -1 -2 255.43 6.36
3 1 -2 298.9 9.56
-3 1 2 316.16 7.86
-3 -1 2 295.39 8.62
-3 1 2 264.39 5.51
3 1 -2 315.72 9.48
3 -1 -1 664.6 10.42
-3 1 1 671.78 9.88
3 -1 -1 688.76 7.98
3 1 -1 702.8 13.34
-3 -1 1 676.51 12.89
3 1 0 5.26 1.07
-3 1 0 5.82 0.9
-3 -1 0 5.58 1.17
-3 -1 -1 1.33 0.6
-3 -1 -1 1.25 0.52
-3 1 -2 54.77 2.68
3 -1 3 96.51 3.82
3 -1 3 101.53 3.44
3 1 3 101.45 5.24
3 -1 4 96.74 4.45
3 -1 4 72.69 3.86
3 -1 5 4.1 1.07
3 1 5 3.13 0.96
3 1 6 14.47 2.38
3 -1 6 15.55 2.38
3 1 7 2.47 1.1
3 -1 7 3.56 1.35
3 -1 8 0.96 1.07
3 1 8 0.66 0.86
3 -1 9 18.6 3.48
3 1 9 15.94 3.05
3 -1 10 4.02 1.92
3 1 10 5.5 2.14
3 -1 11 4.81 2.41
3 1 11 1.02 0.82
3 1 12 1.18 1.48
3 -1 12 1.44 1.84
3 1 13 0.12 1.06
3 -1 13 1.04 1.25
3 -1 14 -0.16 0.78
3 1 14 2.07 1.89
3 -1 15 0.77 0.79
-3 2 14 0.2 0.51
-3 2 13 4.53 2.43
-3 2 12 -0.71 0.33
-3 2 11 8.54 2.6
-3 2 10 8.47 2.74
-3 2 9 3.32 1.67
-3 2 8 0.25 0.69
3 -2 -7 9.06 2.12
-3 2 7 6.78 2.2
3 -2 -6 4.23 1.33
-3 2 6 3.31 1.27
3 -2 -6 3.42 0.74
-3 2 5 27.62 3.63
3 -2 -5 21.68 1.59
3 2 -5 19.97 3.12
3 -2 -5 23.31 2.74
3 -2 -5 20.91 2.28
3 -2 -4 57.26 3.42
3 2 -4 60.84 5.63
3 -2 -4 58.97 3.73
-3 2 4 71.41 5.35
3 2 -4 55.86 5.12
-3 -2 4 60.85 5.55
-3 -2 4 48.16 4.1
3 2 -3 17.21 2.79
-3 -2 3 15.01 2.71
3 2 -3 16.27 2.75
-3 2 3 20.76 2.46
3 -2 -3 15.77 1.59
-3 -2 3 15.54 2.52
3 -2 -3 12.14 1.26
3 -2 -2 0.79 0.34
-3 2 2 1.61 0.45
3 2 -2 0.91 0.6
3 2 -2 1.6 0.78
-3 -2 2 1.15 0.76
-3 -2 2 0.58 0.24
-3 2 1 31.47 1.6
3 2 -1 43.18 3.84
3 2 -1 52.06 3.65
-3 -2 1 50.62 4.54
3 -2 -1 33.37 1.63
3 2 -1 41.05 3.76
-3 -2 1 47.13 3.99
-3 -2 1 48.62 4.07
-3 -2 0 14.7 2.17
3 2 0 15.2 2.15
-3 -2 0 14.78 2.18
-3 -2 0 12.92 2.23
3 2 0 14.73 2.33
-3 -2 -1 7.14 1.43
-3 -2 -1 7.95 1.42
-3 -2 -2 5.03 1.26
-3 -2 -2 5.79 1.22
3 -2 3 0.53 0.29
-3 -2 -3 1.02 0.63
3 -2 4 0.51 0.28
3 -2 5 50.44 3.59
3 2 6 5.26 1.61
3 -2 6 8.04 1.55
3 -2 7 6.73 1.64
3 2 7 6.98 1.98
3 -2 7 4.46 0.73
3 2 8 39.91 4.85
3 -2 8 52.78 5.33
3 -2 9 0.75 0.92
3 2 9 2.12 1.45
3 -2 10 2.06 1.74
3 2 10 -0.14 0.49
3 2 11 1.06 1.42
3 -2 11 -0.28 0.65
3 -2 12 2.94 1.64
3 2 12 4.47 2.24
3 2 13 1.48 1.49
3 -2 13 1.02 1.5
3 -2 14 -0.05 1.34
-3 3 14 2.48 2.28
-3 3 13 0.69 1.47
-3 3 12 6.15 3.07
-3 3 11 5.84 3.13
-3 3 10 14.67 4.36
-3 3 9 12.17 3.7
3 -3 -8 2.7 1.15
3 -3 -8 1.27 0.35
3 3 -7 0.51 0.59
3 -3 -7 0.24 0.31
-3 3 7 -0.81 0.8
3 -3 -6 4.59 1.22
3 3 -6 2.27 1.11
3 3 -5 40.9 5.2
3 -3 -5 39.7 3.06
-3 -3 5 46.73 5.04
-3 3 4 2.92 1.43
3 -3 -4 1.03 0.32
-3 -3 4 2.79 1.35
-3 -3 4 2.12 1.21
3 3 -4 0.07 0.51
-3 3 3 71.25 6.21
3 3 -3 45 4.97
-3 -3 3 61.17 6.32
-3 -3 3 46.12 5.11
-3 3 2 -0.17 0.1
-3 -3 2 0.42 0.55
3 3 -2 0.09 0.45
-3 -3 2 0.3 0.59
-3 3 2 0.43 0.22
3 3 -2 0.67 0.42
3 3 -2 0.51 0.12
-3 3 1 2.76 0.85
3 3 -1 2.1 1.04
3 3 -1 2.17 0.83
3 3 -1 0.82 0.15
-3 -3 1 0.19 0.63
-3 -3 1 1.61 0.94
-3 3 0 7.69 1.2
3 3 0 9.29 2.06
3 3 0 12.76 2.12
3 3 0 12.84 2.09
-3 -3 0 6.4 1.66
-3 -3 0 11.14 2.45
-3 3 0 6.32 0.85
-3 -3 -1 8.03 1.82
-3 -3 -1 9.35 2.19
3 3 1 10.32 1.87
-3 -3 -2 56.29 4.09
-3 -3 -2 57.08 4.8
-3 3 -2 52.02 3.22
3 3 2 53.97 4.41
-3 -3 -3 48.04 4.03
-3 -3 -3 53.76 4.33
3 3 3 56.32 5.04
-3 -3 -4 1.17 0.86
-3 -3 -4 1.39 0.71
3 3 6 1.58 1.19
3 3 7 0.99 0.94
3 3 8 9.74 2.74
3 3 9 0.03 0.59
3 3 10 1.64 1.35
3 3 11 2.86 1.7
3 3 12 4.83 2.63
-3 4 13 -0.36 0.28
-3 4 12 1.82 2.96
3 4 -12 5.09 3.48
3 4 -11 14.8 5.15
-3 4 11 13.88 4.95
-3 4 10 3.8 3.04
3 4 -10 2.85 2.11
-3 4 9 3.19 2.56
3 4 -9 1.88 1.96
-3 4 8 2.26 1.15
3 4 -8 2.26 2.02
-3 4 7 31.17 6.53
3 4 -7 23.31 4.92
-3 4 6 1.98 1.23
3 4 -6 0.88 1.08
3 4 -5 5.03 2.09
-3 4 5 10.84 3.53
-3 4 4 2.34 1.67
3 4 -4 1.01 0.89
-3 4 3 0.4 0.91
-3 -4 3 0.1 0.85
3 4 -3 0.46 0.56
3 4 -2 1.03 0.9
-3 -4 2 -0.83 0.71
-3 4 2 0.37 1.07
-3 4 2 0.28 0.15
-3 4 1 39.87 4.02
-3 -4 1 29.18 4.27
-3 4 1 35.34 3.45
3 4 -1 31.27 4.2
3 4 -1 29.42 3.76
-3 -4 0 43.26 4.89
3 4 0 46.16 4.62
3 4 0 43.69 4.12
-3 -4 -1 72.34 5.89
-3 4 -1 57.02 3.57
3 4 1 69.6 5.43
-3 -4 -2 18.9 2.64
-3 4 -2 18.95 2.64
3 4 2 19.39 3.12
-3 4 -2 17.32 2.26
-3 -4 -3 -0.02 0.17
3 4 3 1.1 0.81
-3 4 -3 1.67 1.2
-3 4 -4 3.85 2
3 4 4 1.3 0.77
-3 -4 -4 3.11 1.17
3 4 5 -0.22 0.84
-3 -4 -5 0.04 0.23
3 4 6 30.69 5.18
-3 -4 -6 40.12 5.38
-3 -4 -7 7 2.66
3 4 7 2.01 1.84
3 4 8 3.38 2.19
-3 -4 -8 2.96 1.84
3 4 9 3.9 2.45
3 4 10 3.58 2.36
3 4 11 0.29 0.66
-3 5 12 -0.49 1.88
-3 5 11 2.53 2.61
-3 5 10 0.63 2.34
3 5 -10 0.93 2.21
-3 5 9 -0.15 1.39
3 5 -9 0.5 0.54
-3 5 8 1.36 2.13
3 5 -8 -0.54 0.56
-3 5 7 2.88 1.81
3 5 -7 4.19 2.93
-3 5 6 1.52 1.4
3 5 -6 1.51 1.4
3 5 -5 3.5 2.12
-3 5 5 1.36 0.79
3 5 -4 38.11 6.12
-3 5 4 40.68 5.75
3 5 -3 8.37 2.65
-3 -5 2 2.36 1.5
3 5 -2 2.23 1.37
3 5 -2 1.95 1.27
-3 -5 1 6.74 2.25
3 5 -1 6.45 2.06
3 5 -1 6.52 2.03
3 5 0 3.45 1.32
-3 -5 0 3.76 1.92
-3 5 0 1.88 1.05
3 5 0 2.37 1.5
-3 5 0 1.86 1.01
-3 5 -1 0.78 0.71
-3 5 -1 1.35 1.12
3 5 1 2.4 1.03
-3 -5 -1 0.9 0.8
-3 -5 -2 22.51 3.66
3 5 2 24.99 3.71
3 5 3 4.06 1.61
-3 -5 -3 2.03 0.92
3 5 4 30.82 5.15
-3 -5 -4 23.56 3.21
-3 -5 -5 5.64 1.73
3 5 5 9.36 3.31
3 5 5 4.17 1.92
3 5 6 1.31 1.22
3 5 6 3.22 1.97
3 5 7 0.26 0.82
3 5 7 0.45 1.55
3 5 8 7 3.04
3 5 8 6.32 2.96
3 5 9 -0.92 1.88
3 5 9 -0.43 0.38
3 5 10 1.43 1.88
3 6 -8 23.78 7.97
3 6 -7 4.42 3.18
3 6 -6 11.7 4.37
3 6 -5 1.94 1.74
3 6 -4 1.3 1.16
3 6 -3 -0.09 0.89
3 6 -2 1.25 1.34
3 6 -2 0.37 0.48
3 6 -1 4.02 1.83
3 6 -1 8.29 2.82
3 6 0 9.07 2.39
3 6 1 1.06 0.85
3 6 2 3.64 1.67
3 6 3 2.07 1.52
3 6 4 3.64 2.2
3 6 4 2.38 1.66
3 6 5 0.36 0.5
3 6 5 1.97 1.59
3 6 6 3.81 2.77
3 6 6 2.62 2.23
3 6 7 1 1.98
3 6 8 2.86 1.85
3 7 1 2.51 1.34
3 7 2 0.16 0.78
3 7 3 3.08 1.91
-4 0 15 0.6 0.68
-4 0 14 0.53 0.68
-4 0 13 1.24 1.1
-4 0 12 6.64 2.11
-4 0 11 -0.92 0.72
-4 0 10 0.66 0.13
-4 0 9 -0.29 0.11
-4 0 8 3.13 1.04
4 0 -7 -0.92 1.03
4 0 -6 5.34 1.48
-4 0 5 -0.26 0.72
4 0 -5 0.02 0.19
4 0 -5 -0.11 0.57
-4 0 4 85.73 6.52
4 0 -4 79.54 5.57
4 0 -4 86.03 5.28
-4 0 3 0.16 0.4
4 0 -3 -0.1 0.1
-4 0 3 0.08 0.35
4 0 -3 -0.34 0.56
-4 0 2 60.79 4.12
4 0 -2 66.29 3.9
-4 0 2 68.79 4.14
4 0 -2 65.36 4.41
-4 0 1 -0.08 0.4
-4 0 1 -0.11 0.2
4 0 -1 -0.62 0.33
-4 0 0 109.35 6.28
-4 0 0 91.69 4.7
4 0 1 0.11 0.31
-4 0 -1 0.34 0.2
-4 0 -2 0.74 0.57
4 0 2 -0.03 0.24
4 0 3 -0.31 0.45
4 0 4 49.35 4.24
4 0 5 2.37 1.13
4 0 5 0.16 0.82
4 0 6 57.3 4.52
4 0 7 0.44 0.74
4 0 8 2.67 1.27
4 0 9 -0.86 0.57
4 0 10 8.35 2.5
4 0 11 1.15 0.63
4 0 12 6 2.32
4 0 13 0.91 1.38
4 0 14 2.68 1.72
-4 1 15 2.07 1.75
-4 1 14 0.99 1.1
-4 1 13 1.37 1.24
-4 1 12 2.56 1.93
-4 1 11 4.83 1.78
-4 1 10 21.25 3.69
-4 1 9 2.7 1.32
-4 1 8 17.68 3.15
4 -1 -7 45.38 4.37
4 1 -7 42.48 4.68
-4 1 7 35.57 4.11
4 -1 -6 51.6 4.89
4 -1 -6 53.2 4.35
4 1 -6 51.11 5.04
-4 1 6 47.62 4.41
4 -1 -5 27.82 2.91
4 -1 -5 37.58 3.38
4 1 -5 33.6 3.85
4 -1 -5 30.32 3.47
-4 1 5 24.82 2.83
4 1 -4 15.26 2.55
4 -1 -4 12.88 1.64
-4 1 4 17.56 2.74
4 1 -4 15.03 2.63
4 -1 -4 10.89 1.66
4 -1 -4 11.36 1.89
4 -1 -3 5.88 1.1
4 -1 -3 6.34 1.24
-4 1 3 6.29 1.05
-4 1 3 8.33 1.73
4 1 -3 6.64 1.72
4 1 -3 8.49 1.8
4 -1 -2 138.3 4.82
4 -1 -2 124.99 5.33
4 1 -2 157.67 7.53
4 1 -2 151.04 6.95
-4 1 2 142.23 4.84
-4 1 2 120.35 5.04
-4 -1 2 152.54 6.82
4 1 -1 51.26 3.81
-4 -1 1 47.95 3.96
-4 1 1 46.22 3.29
4 1 -1 52.65 4.35
-4 -1 0 15.17 2.15
4 1 0 19.1 2.69
-4 -1 -1 0.29 0.44
-4 1 -1 0.08 0.3
-4 1 -2 23.65 2.17
4 1 3 30.19 3.14
4 -1 4 13.06 1.7
4 1 4 14.29 2.27
4 -1 4 15.14 1.8
4 -1 5 6.46 1.58
4 -1 5 5.18 1.47
4 1 5 1.79 0.58
4 -1 6 4.73 1.41
4 -1 6 4.05 1.26
4 1 6 5.17 1.64
4 -1 7 1.11 0.89
4 1 7 1.23 1.03
4 -1 7 2.74 1.47
4 -1 8 10.21 2.61
4 1 8 9.14 2.36
4 -1 9 16.49 3.44
4 1 9 8.3 2.18
4 -1 10 3.03 1.53
4 1 10 2.71 1.19
4 1 11 2.66 1.58
4 -1 11 0.45 1.02
4 -1 12 1.71 1.66
4 1 12 0.75 1.12
4 -1 13 1.67 1.75
4 1 13 1 1.5
4 -1 14 1.3 1.37
4 1 14 1.18 1.43
4 -1 15 2.69 2.27
-4 2 14 -0.32 0.41
-4 2 13 1.57 1.39
-4 2 12 0.33 0.5
-4 2 11 3.25 2.02
-4 2 10 2.95 1.71
4 -2 -9 11.45 1.9
-4 2 9 16.45 3.72
-4 2 8 10.17 2.97
4 -2 -8 9.21 1.51
4 2 -8 6.75 1.88
4 -2 -7 10.09 2.23
4 -2 -7 11.53 1.61
-4 2 7 14.39 3.22
4 2 -7 11.62 2.56
4 -2 -6 1.86 0.89
-4 2 6 3.08 1.32
4 -2 -6 2.12 0.44
4 2 -6 1.06 0.43
4 -2 -5 46.46 3.71
4 -2 -5 55.03 4.28
-4 -2 5 65.53 6.61
4 2 -5 58.12 5.51
-4 2 5 60.59 5.41
-4 2 4 29.11 3.33
4 -2 -4 27.77 2.53
4 -2 -4 28.71 2.66
4 2 -4 30.07 3.86
-4 -2 4 24.3 3.06
4 -2 -3 98.68 4.11
4 -2 -3 131.36 5.15
4 2 -3 127.9 7.89
-4 -2 3 140.8 8.38
4 2 -3 142.28 8.19
-4 2 3 109.78 3.4
-4 -2 3 114.8 7
-4 2 3 134.4 6.12
4 2 -2 27.74 3.54
4 -2 -2 28.4 2.1
-4 2 2 31.32 2.62
4 2 -2 27.69 3.39
-4 -2 2 28.85 3.57
-4 -2 2 27.46 3.4
4 2 -1 14.71 2.48
-4 2 1 13.76 1.49
-4 -2 1 14.94 2.39
4 -2 -1 15.01 1.26
4 2 -1 15.38 2.35
-4 -2 1 15.58 2.69
-4 -2 0 16.92 2.53
4 2 0 17.66 2.36
-4 -2 0 17.77 2.47
-4 -2 0 17.54 2.6
-4 2 0 20.46 2.43
4 2 0 16.61 2.73
-4 -2 -1 -0.22 0.49
-4 -2 -1 -0.08 0.29
-4 -2 -2 52.83 4.38
-4 -2 -2 45.29 3.4
-4 2 -2 46.88 2.18
-4 -2 -3 5.83 1.33
4 -2 3 6 0.92
-4 -2 -3 5.03 1.55
4 -2 4 1.65 1.04
4 -2 5 3.09 1.23
4 2 5 -0.2 0.29
4 -2 6 0.87 1.08
4 -2 7 -0.01 0.33
4 -2 7 0.31 0.16
4 -2 8 18.72 3.47
4 2 8 15.3 3.28
4 -2 9 2.18 1.25
4 2 9 2.71 1.48
4 -2 10 1.49 1.12
4 2 10 2.48 1.42
4 -2 11 2.67 2.1
4 2 11 1.48 1.53
4 -2 12 2.23 2.07
4 2 12 2.03 1.64
4 2 13 4.51 2.42
4 -2 13 5.06 2.62
-4 3 14 1.27 1.73
4 3 -14 1.53 1.75
-4 3 13 5.98 3.19
4 3 -13 1.13 0.8
-4 3 12 21.02 5.72
4 3 -12 18.11 4.64
-4 3 11 1.6 1.6
4 3 -11 2.3 1.95
-4 3 10 -0.29 0.99
4 3 -10 1.98 1.72
-4 3 9 3.25 2.3
4 3 -9 4.42 2.07
4 -3 -8 0.47 0.52
-4 3 8 0.46 1.38
4 3 -8 0.09 0.6
4 3 -7 13.9 3.16
4 -3 -7 16.27 2.57
4 -3 -6 -0.22 0.41
4 3 -6 -0.3 0.45
4 -3 -5 16.99 1.9
-4 -3 5 20 3.76
4 -3 -5 15.64 2.17
4 3 -5 21.33 3.69
-4 3 4 0.74 0.63
4 -3 -4 0.22 0.16
-4 -3 4 0.23 0.53
4 3 -4 0.35 0.45
-4 3 3 0.6 0.62
-4 -3 3 0.69 0.68
4 3 -3 0.41 0.11
4 3 -2 -0.2 0.34
-4 -3 2 -0.53 1.03
4 3 -1 11.08 2.2
-4 -3 1 8.19 1.78
4 3 -1 12.75 2.3
-4 -3 0 73.5 5.59
4 3 0 88.31 5.88
4 3 0 74.96 5.34
-4 3 0 70.97 3.57
-4 -3 -1 22.76 2.97
4 3 1 25.2 2.97
-4 -3 -2 2.43 0.81
4 3 2 2.39 0.86
4 3 3 8.69 1.87
-4 -3 -3 9.8 2.02
4 3 4 1.29 0.81
-4 -3 -4 5.75 1.78
-4 -3 -5 1.6 1.33
4 3 5 0.83 0.8
4 3 6 2.13 0.97
4 3 7 10.27 3.29
4 -3 8 1.05 0.78
4 3 8 2.07 1.43
4 -3 9 13.16 3
4 3 9 12.09 3.6
4 3 10 1.85 1.8
4 3 11 2.4 1.52
4 3 12 0.19 1
-4 4 13 1.54 2.06
-4 4 12 -1.03 1.01
4 4 -12 0.53 1.64
-4 4 11 11.11 4.89
4 4 -11 4.41 2.59
-4 4 10 6.77 3.62
4 4 -10 3.72 2.34
-4 4 9 5.15 2.77
4 4 -9 1.58 1.07
-4 4 8 6.84 3.55
4 4 -8 7.08 2.68
-4 4 7 0.97 1.83
4 4 -7 1.52 1.62
-4 4 6 2.03 1.31
4 4 -6 1.56 0.98
-4 4 5 10.41 3.35
4 4 -5 6.21 2.29
-4 -4 4 7.26 2.47
4 4 -4 6.63 2.34
-4 4 3 2.24 1.28
-4 -4 3 0.3 0.6
-4 -4 2 21.46 3.92
-4 4 2 14.82 1.43
4 4 -2 17.97 3.25
-4 4 2 26.71 3.33
4 4 -2 17.43 3.42
-4 -4 1 30.04 4.31
4 4 -1 34.05 4.45
4 4 -1 28.62 3.91
-4 -4 0 12.96 2.77
4 4 0 15.22 2.64
-4 4 -1 1.45 0.64
-4 -4 -1 1.87 0.94
4 4 1 1.12 0.46
-4 4 -2 2.37 0.71
4 4 2 2.45 1.09
-4 -4 -2 2.95 1.15
4 4 3 5.65 1.85
-4 -4 -3 5.69 1.44
4 4 4 0.88 0.83
-4 -4 -4 0.9 0.72
4 4 5 11.02 2.7
-4 -4 -5 16.1 3.02
4 4 6 -1.51 1.04
-4 -4 -6 0.17 0.4
4 4 7 12.67 3.66
4 4 7 9.47 2.75
-4 -4 -7 18.65 4.45
4 4 8 7.87 2.73
-4 -4 -8 12.97 4.13
4 4 8 9.38 3.17
4 4 9 1.57 1.61
-4 -4 -9 1.99 1.62
4 4 9 1.61 1.5
4 4 10 0.3 0.95
4 4 11 1.94 1.82
-4 5 12 3.13 2.34
-4 5 11 -0.57 1.08
-4 5 10 2.79 2.21
4 5 -10 2.19 2.26
-4 5 9 0.86 2.03
4 5 -9 -0.43 0.33
-4 5 8 4.82 2.63
4 5 -8 5.07 2.72
-4 5 7 0.26 1.02
4 5 -7 1.6 1.86
4 5 -6 27.23 5.67
4 5 -5 1.71 1.35
4 5 -4 2.29 1.42
-4 -5 3 1.39 1.25
4 5 -3 -1.09 0.61
-4 -5 2 0.33 0.68
4 5 -2 0.6 0.77
4 5 -2 -0.13 0.67
4 5 -1 2.5 1.28
-4 -5 1 3.21 1.7
4 5 -1 4.28 1.74
-4 -5 0 15.49 3.52
4 5 0 12.81 2.78
4 5 0 9.29 2.33
4 5 1 5.45 1.67
-4 -5 -1 6.05 2.13
4 5 2 7.25 1.99
-4 -5 -2 11.47 2.66
4 5 3 0.73 0.37
-4 -5 -3 1.99 1.12
4 5 4 0.71 1.03
-4 -5 -4 0.38 0.58
4 5 5 0.23 0.88
-4 -5 -5 0.41 0.27
4 5 6 0.03 0.13
-4 -5 -6 0.52 0.89
4 5 6 1.44 1.4
4 5 7 0.25 0.11
4 5 7 0.5 1.61
4 5 8 2.45 1.93
4 5 8 2.53 2.11
4 5 9 0.29 0.88
4 6 -8 9.37 4.89
4 6 -7 2.34 2.12
4 6 -6 1.01 0.95
4 6 -5 -1.52 2.05
4 6 -4 0.19 0.39
4 6 -3 -0.7 0.67
4 6 -2 32.17 5.61
4 6 -2 20.01 4.21
4 6 -1 1.01 1.11
4 6 -1 2.25 1.78
4 6 0 2.23 1.23
4 6 1 -0.26 0.4
4 6 2 0.02 0.23
4 6 3 -0.48 0.71
4 6 4 6.82 2.69
4 6 5 2.25 1.87
4 6 5 1.99 1.6
4 6 6 2.35 1.96
4 6 6 1.92 1.42
4 6 7 2.02 1.9
4 7 0 2.73 1.65
4 7 1 2.71 1.6
4 7 2 0.53 0.83
5 0 -16 0.43 0.84
5 0 -15 -0.15 0.43
5 0 -12 13.23 3.44
5 0 -11 -0.7 1.06
5 0 -10 16.87 3.54
5 0 -9 0.08 0.49
5 0 -8 0.95 0.81
5 0 -7 -1.09 0.85
-5 0 6 60.32 6.4
5 0 -6 57.84 5.19
-5 0 5 0.53 0.7
5 0 -5 0.24 0.45
5 0 -5 -0.2 0.42
5 0 -4 9.43 1.98
-5 0 4 12.04 2.43
-5 0 4 9.4 1.87
5 0 -4 9.63 1.72
5 0 -3 -0.08 0.49
5 0 -3 0.04 0.08
-5 0 3 0.38 0.44
5 0 -2 56.18 4.61
-5 0 2 56.47 4.47
-5 0 2 58.06 4.21
5 0 -1 0.01 1
-5 0 1 0.32 1.11
-5 0 1 1.27 0.86
-5 0 0 2.78 0.86
-5 0 -1 -0.08 0.12
-5 0 -2 52.61 4.42
5 0 2 46.17 3.69
5 0 3 -0.62 0.57
5 0 4 40.51 3.92
5 0 5 0.2 0.43
5 0 6 1.09 0.27
5 0 6 1.29 0.7
5 0 7 1.25 0.97
5 0 7 1.24 0.94
5 0 8 5.37 1.51
5 0 8 4.31 1.53
5 0 9 0.58 1.07
5 0 9 0.33 0.24
5 0 10 5.61 1.69
5 0 10 8.51 2.51
5 0 11 -0.09 0.37
5 0 11 1.35 1.42
5 0 12 1.18 1.2
5 0 12 1.47 1.48
5 0 13 1.58 1.37
5 0 14 1.56 1.58
5 1 -16 1.52 1.67
-5 1 15 2.42 1.66
5 1 -15 2.9 1.99
-5 1 14 0.38 0.7
5 -1 -14 -0.07 0.52
5 1 -14 -0.29 0.55
-5 1 13 -0.1 0.69
5 -1 -13 -0.24 0.45
5 1 -13 0.51 0.46
-5 1 12 0.42 0.71
5 -1 -12 -0.69 0.54
5 1 -12 0.37 1.06
-5 1 11 11.72 2.94
5 -1 -11 18.62 3.52
5 1 -11 20.01 4.27
-5 1 10 19.11 3.65
5 -1 -10 30.03 4.11
5 1 -10 27.39 4.64
-5 1 9 9.87 2.33
5 -1 -9 14.02 2.64
5 1 -9 14.82 3.17
-5 1 8 0.15 0.68
5 -1 -8 -0.07 0.63
5 1 -8 -0.28 0.36
5 -1 -7 7.82 1.79
5 1 -7 6.97 1.95
5 -1 -6 0.2 0.53
5 1 -6 0.76 0.89
5 -1 -6 0.6 0.55
5 -1 -5 8.1 1.59
-5 1 5 13.79 2.76
5 -1 -5 9.66 1.64
5 -1 -5 8.95 1.94
5 1 -5 8.9 1.99
5 -1 -4 0.41 0.41
-5 1 4 1.55 0.95
5 -1 -4 0.74 0.78
5 -1 -4 0.68 0.54
5 1 -4 -0.78 1.1
-5 1 4 0.29 0.23
5 -1 -3 27.23 2.62
5 -1 -3 23.14 2.62
5 1 -3 36.22 4.15
-5 1 3 29.15 3.2
5 1 -3 31.27 3.36
-5 1 3 31.28 2.75
5 1 -2 67.66 5.44
-5 1 2 62.38 4.22
5 1 -2 69.49 4.81
-5 1 2 59.34 3.68
-5 -1 2 60.82 4.64
5 -1 -2 66.93 4.63
5 1 -1 7.62 1.91
-5 1 1 7.76 1.7
-5 -1 1 10.09 2.08
-5 -1 0 26.95 3.17
5 1 0 32.46 3.88
-5 1 -1 1.96 1.15
-5 -1 -1 2.13 0.95
-5 1 -1 1.62 0.56
-5 1 -2 0.66 0.45
5 1 2 1.3 0.63
5 1 3 5.2 1.35
5 -1 4 27.5 2.67
5 1 4 31.56 3.57
5 -1 5 9.75 1.82
5 1 5 9.19 2.11
5 -1 5 11.64 1.96
5 1 6 7.88 1.78
5 -1 6 7.49 1.67
5 -1 6 7.75 1.4
5 -1 7 15.3 2.83
5 -1 7 11.55 1.77
5 1 7 13.75 2.89
5 1 7 13.03 2.66
5 -1 8 30.58 4.46
5 1 8 26.8 4.01
5 1 8 18.87 3.38
5 -1 8 16.99 2.18
5 -1 9 3.72 1.55
5 -1 9 2.47 0.79
5 1 9 3.11 1.58
5 1 9 3.04 1.51
5 -1 10 1.44 0.73
5 -1 10 2.97 1.93
5 1 10 1.63 1.31
5 -1 11 7.24 2.91
5 1 11 6.67 2.48
5 1 12 2 1.56
5 -1 12 5.73 2.62
5 -1 13 6.75 3.14
5 1 13 1.98 1.49
5 1 13 2.78 1.8
5 1 14 2.51 1.67
5 -1 14 0.3 1.46
5 2 -15 2.2 1.64
-5 2 14 0.27 0.22
5 2 -14 0.41 0.32
-5 2 13 2.81 2.04
5 2 -13 0.92 1
-5 2 12 5.68 2.77
5 2 -12 6.21 2.49
-5 2 11 1.67 1.27
5 -2 -11 0.23 0.33
5 2 -11 -0.3 0.98
-5 2 10 2.84 1.81
5 -2 -10 1.36 0.7
5 2 -10 0.99 0.63
-5 2 9 0.46 1.05
5 -2 -9 0.26 0.36
5 2 -9 -0.34 0.86
-5 2 8 12.74 3.25
5 -2 -8 11.74 1.68
5 2 -8 11.03 2.79
-5 2 7 9.23 2.47
5 -2 -7 7.01 1.09
5 2 -7 6.8 1.88
5 -2 -7 6.88 1.88
-5 2 6 3.38 1.43
5 -2 -6 5.37 1.07
-5 -2 6 4.89 2.02
5 -2 -6 2.43 0.87
5 2 -6 4.89 1.71
5 2 -5 4.78 1.66
5 -2 -5 5.66 1.45
5 -2 -5 6.5 1.48
5 -2 -4 4.67 1.17
5 -2 -4 3.85 1.03
5 2 -4 3.96 1.02
-5 2 4 6.67 1.73
5 -2 -3 6.55 1.24
-5 2 3 8.1 1.8
5 -2 -3 4.83 1.09
5 2 -3 3.93 1.09
-5 2 3 5.01 0.87
5 -2 -2 36.34 2.61
-5 2 2 30.54 2.34
5 2 -2 39.16 4.04
-5 2 2 33.53 2.93
-5 2 1 89.88 4.77
-5 -2 1 99.75 6.95
5 2 -1 90.38 5.93
5 -2 -1 96.69 3.59
-5 -2 0 9.68 2.32
5 -2 0 2.69 0.47
-5 2 0 7.59 2.03
-5 -2 -1 14.13 2.43
-5 2 -2 0.04 0.03
-5 -2 -2 0.33 0.8
5 -2 2 0.13 0.2
5 -2 3 51.9 3.16
-5 -2 -3 44.95 4.61
5 -2 4 30.8 2.91
5 2 4 21.08 2.89
-5 -2 -4 23.25 3.53
5 -2 5 32.29 3.48
5 2 5 17.15 2.81
5 -2 6 1.28 0.99
5 2 6 0.09 0.43
5 2 7 0.71 0.54
5 -2 7 1.48 1.25
5 2 7 0.1 0.88
5 2 8 5.59 2.11
5 -2 8 14.15 3.46
5 2 8 8.85 2.65
5 2 9 11.39 3.09
5 2 9 13.03 3.09
5 -2 10 8.88 3.32
5 2 10 3.19 1.93
5 -2 11 7.1 3.15
5 2 11 3.16 1.85
5 -2 12 -1.02 1.98
5 2 12 0.7 0.85
5 2 13 1.78 1.57
5 2 14 1.71 1.28
-5 3 14 2.97 2.29
-5 3 13 0.92 2.21
5 3 -13 1.02 1.2
-5 3 12 4.29 2.75
5 3 -12 1.75 1.79
-5 3 11 1.4 1.36
5 3 -11 0.76 0.75
-5 3 10 2.03 1.85
5 3 -10 0.41 0.76
-5 3 9 9.63 3.73
5 3 -9 5.04 1.87
-5 3 8 1.42 1.3
5 3 -8 -0.71 0.35
5 -3 -7 16.5 2.63
5 3 -7 14.55 3.27
-5 3 6 2.47 1.5
-5 -3 6 2.02 1.4
5 -3 -6 2.16 0.83
5 3 -6 1.09 1.05
-5 -3 5 -0.47 0.59
5 -3 -5 0.05 0.38
5 -3 -5 0.61 0.56
-5 3 5 0.73 0.7
5 3 -5 1.71 1.11
-5 -3 4 1.37 0.91
5 -3 -4 0.85 0.58
5 -3 -3 17.94 2.01
-5 -3 3 21.26 3.74
-5 3 3 14.27 1.05
5 3 -3 16.45 3.07
-5 3 2 0.75 0.43
5 3 -2 -0.11 0.52
5 3 -2 0.37 0.56
-5 3 1 31.92 2.6
-5 -3 1 23.88 3.62
5 3 -1 29.81 3.85
5 3 -1 23.31 3.21
-5 3 0 1.59 0.87
-5 -3 0 2.68 1.37
5 3 0 1.24 1.1
-5 -3 -1 11.42 2.23
5 3 1 9.47 1.96
-5 3 -2 0.15 0.21
-5 -3 -2 0.03 0.36
5 3 2 -0.61 0.46
-5 -3 -3 1.9 1.05
5 3 3 1.53 0.84
-5 -3 -4 1.68 1.14
5 3 4 0.47 0.45
-5 -3 -5 12.61 2.96
5 3 5 9.93 2.32
5 -3 6 53.5 3.89
5 3 6 45.97 5.22
-5 -3 -6 50.07 6.12
5 -3 7 4.75 1.49
5 3 7 3.07 1.44
5 3 7 3.87 1.74
5 3 8 1.81 1.16
5 3 8 0.58 1.36
5 3 9 0.37 0.96
5 3 9 2.25 1.99
5 3 10 3.02 1.59
5 3 10 4.27 2.45
5 3 11 0.75 0.97
5 3 11 1.34 1.7
5 3 12 0.72 1.03
-5 4 13 5.63 4.19
-5 4 12 2.22 2.41
5 4 -12 0.04 0.59
-5 4 11 9.28 4.19
5 4 -11 4.4 2.4
-5 4 10 2.69 3.03
5 4 -10 -1.41 1.2
-5 4 9 2.76 2.79
5 4 -9 0.52 0.71
-5 4 8 6.86 3.64
5 4 -8 2.36 1.67
-5 4 7 7 3.27
5 4 -7 2.83 1.51
-5 4 6 2.58 2.16
5 4 -6 0.29 0.68
-5 4 5 28.07 5.13
-5 -4 5 19.56 4.14
5 4 -5 18.24 3.83
-5 4 4 3.66 1.93
-5 -4 4 2.12 1.29
5 4 -4 0.87 0.65
-5 -4 3 4.06 1.89
5 4 -3 0.07 0.95
-5 -4 2 3.36 1.55
5 4 -2 3.94 1.7
5 4 -2 3.83 1.65
5 4 -1 34.14 4.57
-5 -4 1 37.18 4.91
5 4 -1 32.13 4.23
5 4 0 7.38 2.03
-5 -4 0 3.8 1.65
-5 -4 -1 17.34 2.88
5 4 1 16.73 2.63
-5 4 -1 18.28 2.17
-5 -4 -2 5.17 1.67
5 4 2 3.5 1.21
-5 -4 -3 4.46 1.38
5 4 3 1.7 1.03
-5 -4 -4 10.08 2.51
5 4 4 7.26 1.91
-5 -4 -5 2.12 1.12
5 4 5 1.72 1.06
-5 -4 -6 6.63 2.54
5 4 6 2.74 1.4
5 4 7 2.83 1.29
-5 -4 -7 7.75 3.14
5 4 7 6.42 2.68
5 4 8 0.82 0.89
-5 -4 -8 7.24 3.22
5 4 8 5.58 2.83
5 4 9 0.6 1.08
-5 -4 -9 2.07 1.66
5 4 9 3.86 2.32
5 4 10 2.56 1.8
-5 -4 -10 2.35 1.84
5 4 10 1.71 1.5
-5 -4 -11 1.34 1.45
5 5 -10 0.93 1.22
5 5 -9 0.9 1.7
5 5 -8 9.74 3.59
5 5 -7 2.68 1.91
5 5 -6 0.68 1.21
5 5 -5 -0.46 1.63
-5 -5 4 3.25 1.64
5 5 -4 2.68 1.43
-5 -5 3 0.61 0.72
5 5 -3 -2.29 1.39
-5 -5 2 1.54 1.13
5 5 -2 0.21 0.78
5 5 -2 2.26 1.31
-5 -5 1 1.13 1.25
5 5 -1 0.37 0.21
5 5 -1 2.66 1.72
5 5 0 7.14 2.1
-5 -5 0 8.5 2.55
5 5 1 0.98 0.61
-5 -5 -1 1.22 0.66
5 5 2 4.76 1.66
-5 -5 -2 7.1 2.12
-5 -5 -3 1.37 0.97
5 5 3 0.63 0.73
-5 -5 -4 1.59 1.02
5 5 4 -0.29 0.12
-5 -5 -5 -0.21 0.53
5 5 5 1 1.03
5 5 6 4.78 2.15
-5 -5 -6 3.86 1.83
5 5 7 3.29 2.14
5 5 7 1.47 1.42
-5 -5 -7 1.78 1.67
5 5 8 0.91 1.1
5 5 8 1.37 1.25
5 6 -7 -0.35 1.4
5 6 -6 1.98 1.4
5 6 -5 -0.95 1.12
5 6 -4 20.13 4.88
5 6 -3 2.75 1.96
5 6 -2 2.86 1.9
5 6 -1 0.93 0.26
5 6 0 3.34 1.52
5 6 1 1.3 1.02
5 6 2 5.07 1.95
5 6 3 0.15 0.5
5 6 4 1.16 1.06
5 6 5 0.53 0.9
5 6 6 1.51 1.78
5 7 -1 0.99 0.77
5 7 0 2 1.44
6 0 -16 -0.03 0.69
6 0 -15 0.35 0.32
6 0 -14 2.27 1.62
6 0 -13 -0.36 0.95
6 0 -12 2.91 1.66
6 0 -11 -0.65 0.75
6 0 -10 15.96 3.43
6 0 -9 -0.86 0.77
6 0 -8 5.94 1.92
6 0 -7 1.16 1.13
-6 0 6 11.37 2.89
6 0 -6 8.78 1.97
-6 0 5 -0.41 0.87
6 0 -5 -0.16 0.41
-6 0 5 -0.28 0.33
-6 0 4 46.11 4.84
6 0 -4 41.53 4.04
-6 0 4 46.38 4.43
6 0 -3 0.66 0.53
6 0 -3 1.34 1.1
-6 0 3 0.33 0.77
-6 0 3 0.02 0.22
6 0 -2 4.27 1.51
-6 0 2 4.36 1.42
-6 0 2 4.26 1.08
-6 0 1 1.31 0.84
6 0 -1 0.12 0.36
-6 0 1 -0.69 0.83
-6 0 1 0.5 0.55
-6 0 0 16.3 2.08
-6 0 0 19.08 2.53
-6 0 -1 0.18 0.49
-6 0 -2 24.39 3.39
6 0 2 23.45 2.98
6 0 3 -0.04 0.49
6 0 4 -0.02 0.51
6 0 5 0.82 1.14
6 0 6 13.82 2.49
6 0 6 16.33 2.82
6 0 7 1.71 1.06
6 0 7 2.58 1.4
6 0 8 21.04 3.33
6 0 8 22.74 3.27
6 0 9 1.8 1.22
6 0 9 0.42 0.93
6 0 10 0.6 0.67
6 0 10 0.25 0.54
6 0 11 0.34 0.43
6 0 11 1.29 1.02
6 0 12 2.62 1.82
6 0 13 1.18 1.54
6 1 -16 0.39 0.93
6 1 -15 1.37 1.24
6 -1 -14 1.05 0.96
6 1 -14 3.28 1.81
6 -1 -13 -0.13 0.49
6 1 -13 1.51 1.26
6 -1 -12 13.34 2.86
6 1 -12 12.97 3.58
6 -1 -11 -0.01 0.35
6 1 -11 0.52 0.43
6 -1 -10 -0.11 0.52
6 1 -10 0.14 0.8
6 -1 -9 0.11 0.12
6 1 -9 0.86 0.24
6 -1 -8 1.36 0.89
6 1 -8 0.71 0.35
-6 -1 7 3.49 1.47
6 -1 -7 0.79 0.84
6 1 -7 4.8 1.69
-6 -1 6 0.12 0.53
-6 1 6 -0.1 0.81
6 -1 -6 0.38 0.31
6 1 -6 0.41 0.36
6 -1 -5 23.29 3.21
-6 1 5 33.54 4.66
6 -1 -5 32.26 3.58
6 1 -5 23.4 3.45
6 -1 -4 47.44 4.15
6 -1 -4 44.3 4.23
6 1 -4 45.45 4.56
-6 1 4 50.37 4.03
6 -1 -3 180.96 8.01
6 -1 -3 152.87 7.78
-6 1 3 154.67 7.76
6 1 -3 167.85 8.26
-6 1 3 175.49 7.45
-6 1 2 8 2.35
6 -1 -2 5.73 1.92
6 1 -2 6.83 2.01
-6 1 2 9.48 1.95
-6 1 1 21.57 3.02
-6 1 0 2.39 1.42
-6 1 -1 12.93 1.9
6 1 1 11.65 2.1
-6 1 -2 54.37 4.54
6 1 2 42.46 3.98
6 1 3 42.24 4.15
6 1 4 12.44 2.28
6 -1 5 1.43 0.79
6 1 5 1.14 0.63
6 -1 5 0.66 0.58
6 -1 6 6.43 1.49
6 1 6 4.15 1.38
6 -1 6 5.14 1.11
6 -1 7 24.58 3.64
6 1 7 26.55 3.96
6 1 7 20.62 3.38
6 -1 7 18.33 2.1
6 1 8 7.9 2.07
6 1 8 11.24 2.75
6 -1 8 10.93 2.63
6 -1 8 4.82 1.02
6 -1 9 1.17 1.17
6 1 9 -0.4 0.89
6 1 9 0.66 1.02
6 -1 9 0.79 0.4
6 1 10 -0.08 0.73
6 -1 10 2.12 1.63
6 1 10 1.5 1.23
6 1 11 1.39 1.12
6 1 11 0.6 1.1
6 -1 11 0.83 1.17
6 1 12 1.19 1.16
6 1 12 1.98 1.65
6 -1 12 0.9 1.1
6 -1 13 -0.64 0.9
6 1 13 0.43 1.14
6 -1 14 -0.27 0.28
6 2 -15 2.88 2.13
-6 2 14 2.9 2.15
6 2 -14 1.4 1.34
6 2 -13 0.27 0.32
-6 2 13 0.13 0.37
-6 2 12 2.93 1.95
6 2 -12 2.26 1.41
-6 2 11 1.89 1.82
6 2 -11 3.03 1.74
-6 2 10 -0.5 0.88
6 -2 -10 0.33 0.25
6 2 -10 0.46 0.8
-6 2 9 0.17 0.67
6 -2 -9 0.48 0.29
6 2 -9 -0.03 0.25
6 -2 -8 2.93 0.79
6 2 -8 2.99 1.47
6 -2 -7 11.83 1.73
-6 -2 7 12.9 3.4
6 2 -7 11.38 2.81
6 -2 -6 14.67 2.54
-6 -2 6 14.32 3.51
6 2 -6 15.48 3.18
-6 -2 5 5.98 2.34
6 -2 -5 4.36 1.25
6 -2 -5 3.67 1.17
6 2 -5 2.08 0.72
-6 -2 4 3.63 1.74
-6 2 4 1.74 0.96
6 -2 -4 1.02 0.59
6 -2 -4 1.45 0.72
6 2 -4 0.81 0.59
-6 2 4 1.48 0.6
6 -2 -3 4.07 1.18
6 -2 -3 3.98 1.03
6 2 -3 5.46 1.64
-6 2 3 2.19 0.52
-6 2 3 5.51 0.99
6 -2 -2 79 4.02
-6 2 2 80.43 5.18
-6 -2 2 91.88 7.29
-6 2 2 82.93 4.49
6 2 -2 87.88 6.36
6 -2 -1 33.49 2.46
-6 2 1 34.72 3.69
-6 -2 1 36.38 4.47
6 2 -1 32.43 3.85
-6 2 0 1.23 1.3
-6 -2 0 2.97 1.38
-6 -2 -1 45.78 4.69
-6 2 -1 65.21 5.87
6 2 2 2.48 1.1
-6 -2 -2 4.29 1.72
-6 2 -2 2.73 0.84
-6 -2 -3 1.98 1.44
6 -2 3 0.67 0.45
6 2 3 0.36 0.53
-6 -2 -4 3.74 1.51
6 -2 4 5.35 1.28
6 2 4 3.91 1.3
6 -2 5 0.95 0.88
-6 -2 -5 2.07 1.33
6 2 5 1.48 0.79
6 2 6 1.31 0.88
6 -2 6 5.69 2.01
6 -2 7 0.79 1.26
6 2 7 0.16 0.66
6 2 7 0.81 1.39
6 -2 8 0.79 0.77
6 2 8 -0.03 0.39
6 2 8 0.87 1.32
6 -2 9 2.01 1.28
6 2 9 1.79 1.13
6 2 9 3.11 2.1
6 2 10 0.84 0.91
6 -2 10 2.37 2
6 2 10 1.74 1.36
6 2 11 -0.28 0.62
6 2 11 4.17 2.2
6 2 12 -0.71 0.84
6 2 12 0.2 1.09
6 2 13 0.53 0.54
-6 3 14 4.24 2.9
-6 3 13 2.35 2.35
6 3 -13 0.95 1.1
-6 3 12 3.05 2.16
6 3 -12 4.23 2.29
-6 3 11 5.66 2.91
6 3 -11 4.97 2.22
-6 3 10 2.66 2.14
6 3 -10 -0.22 0.78
-6 3 9 4.23 2.74
6 3 -9 2.93 1.5
-6 3 8 0.47 1.05
6 3 -8 -0.19 0.51
-6 3 7 2.72 1.49
-6 -3 7 1.74 1.51
6 3 -7 3.07 1.66
-6 -3 6 0.08 0.58
6 -3 -6 0.72 0.29
6 3 -6 1.06 0.89
6 -3 -5 4.06 1.09
-6 -3 5 3.11 1.6
6 -3 -5 3.34 1.07
6 3 -5 1.65 0.28
-6 -3 4 1.46 1.21
6 -3 -4 1.18 0.72
6 3 -4 -1.41 1.7
-6 -3 3 5.45 1.86
-6 3 3 6.1 1.31
6 -3 -3 6.13 1.23
6 3 -3 5.22 1.81
-6 3 3 4.22 0.73
6 -3 -2 1.12 0.59
6 3 -2 2.2 1.37
-6 -3 2 -0.49 0.76
-6 3 2 0.64 0.68
6 3 -1 13.96 2.75
6 3 -1 9.98 2.11
-6 -3 1 13.79 2.81
-6 3 1 14.28 2.13
-6 3 0 19.55 2.57
-6 -3 0 16.85 2.96
6 3 0 14.8 2.71
-6 3 -1 5.08 1.61
-6 -3 -1 3.58 1.53
6 3 1 2.95 1.27
6 3 2 0.39 0.59
-6 3 -2 0.38 0.34
-6 -3 -2 -0.77 0.92
-6 -3 -3 14.13 2.88
6 3 3 11.22 2.25
-6 -3 -4 11.2 2.66
6 3 4 4.78 1.42
6 -3 5 6.62 1.21
-6 -3 -5 5.75 2.25
6 3 5 2.31 0.91
-6 -3 -6 0.81 1
6 3 6 0.58 0.51
-6 -3 -7 1.06 1.14
6 3 7 0.87 1.12
6 3 8 2.81 1.79
6 3 8 2.9 1.85
6 3 9 1.1 1.22
6 3 9 3.24 2.19
6 3 10 1.35 1.18
6 3 10 0.57 1.5
6 3 11 1.55 1.24
6 3 11 4.75 2.52
-6 4 13 4.3 2.93
-6 4 12 1.79 2.21
-6 4 11 1.76 1.98
6 4 -11 2.89 2.12
-6 4 10 0.63 1.79
6 4 -10 1 1.15
-6 4 9 7.17 3.18
6 4 -9 4.47 2.27
-6 4 8 1.73 1.9
6 4 -8 0.52 0.95
-6 4 7 6.29 2.58
6 4 -7 4.16 2.07
-6 -4 6 7.01 2.87
6 4 -6 3.31 1.45
-6 -4 5 2.85 1.65
6 4 -5 0.36 1.15
-6 -4 4 5.89 2.19
6 4 -4 1.83 1.03
-6 -4 3 3.39 1.72
6 4 -3 3.62 1.61
6 4 -2 2.26 1.41
-6 -4 2 0.68 0.43
6 4 -1 5.83 1.74
6 4 -1 9.37 2.43
-6 -4 1 6.17 1.86
-6 -4 0 31.86 4.39
6 4 0 24.63 3.69
-6 4 -1 4.68 1.31
6 4 1 9.09 2.25
-6 -4 -1 8.26 2.22
6 4 2 2.64 1.11
-6 -4 -2 3.62 1.5
-6 -4 -3 0.15 0.6
6 4 3 2.07 1.07
-6 -4 -4 5.25 1.84
6 4 4 4.75 1.64
-6 -4 -5 3.17 1.63
6 4 5 0.95 0.87
-6 -4 -6 4.4 2.22
6 4 6 0.87 0.68
-6 -4 -7 9 3.29
6 4 7 5.76 2.17
6 4 7 7.42 2.98
-6 -4 -8 2.54 1.85
6 4 8 1.01 1
6 4 8 0.36 1.36
-6 -4 -9 2.33 1.77
6 4 9 -0.52 0.59
6 4 9 2.95 2.15
-6 -4 -10 1.96 1.67
-6 -4 -11 1.66 1.77
6 5 -9 2.92 1.86
6 5 -8 3.36 2.08
6 5 -7 -0.56 1.13
6 5 -6 2.15 1.6
-6 -5 5 0 0.32
6 5 -5 -0.53 1.46
-6 -5 4 1.92 1.34
6 5 -4 1.16 0.96
-6 -5 3 2.47 1.73
6 5 -3 0.67 1.11
-6 -5 2 21.25 4.54
6 5 -2 21.99 4.31
-6 -5 1 2.4 1.71
6 5 -1 3.97 1.95
6 5 -1 4.27 1.93
6 5 0 0.54 0.66
-6 -5 0 0.88 0.86
6 5 1 0.52 0.7
-6 -5 -1 -0.41 0.65
6 5 2 5.92 1.94
-6 -5 -2 10.26 2.56
6 5 3 1.32 0.95
-6 -5 -3 1.24 0.96
-6 -5 -4 5.43 1.8
6 5 4 3.93 1.63
-6 -5 -5 0.26 0.47
6 5 5 1.08 1.04
-6 -5 -6 0.35 0.18
6 5 6 0.69 0.93
-6 -5 -7 1.09 1.69
6 5 7 0.65 1.4
6 5 7 0.78 1.2
6 6 -7 -3.93 2.44
6 6 -6 1.4 0.98
6 6 -5 0.06 0.7
6 6 -4 1.92 1.86
6 6 -3 3.14 2.02
6 6 -2 6.06 2.73
6 6 -1 1.73 1.38
6 6 0 2.56 1.5
6 6 1 1.22 1.12
6 6 2 1.35 1.15
6 6 3 2.33 1.54
7 0 -15 1.52 1.56
7 0 -14 0.98 1.41
7 0 -13 1.05 1.06
7 0 -12 0.86 0.82
7 0 -11 0.8 0.83
7 0 -10 30.43 4.65
7 0 -9 0.7 0.77
7 0 -8 15.4 3.02
-7 0 7 0.19 0.59
7 0 -7 -0.51 1.25
-7 0 6 2 0.62
7 0 -6 -0.35 0.92
-7 0 5 0.2 0.81
7 0 -5 -0.24 0.48
7 0 -4 5.86 1.8
-7 0 4 4.47 1.29
-7 0 3 -0.07 0.39
-7 0 2 44.73 4.83
-7 0 1 5.19 2.39
-7 0 0 1.72 0.7
-7 0 -1 0.28 0.81
-7 0 -2 39.07 4.84
7 0 3 0.33 0.63
-7 0 -3 0.66 1.05
7 0 4 32.03 4.19
7 0 5 -0.66 0.68
7 0 6 8.1 1.99
7 0 6 6.32 1.77
7 0 7 1.84 1.23
7 0 7 1.06 1.17
7 0 8 10.19 2.36
7 0 8 9.83 1.93
7 0 9 3.98 2.11
7 0 9 3.64 1.64
7 0 10 0.5 0.08
7 0 10 1.23 0.8
7 0 11 1.81 1.43
7 0 12 4.46 2.31
7 0 13 0.67 1.21
7 1 -15 1.09 1.25
7 1 -14 -1.14 1.47
7 -1 -13 3.41 1.48
7 1 -13 2.68 1.63
7 -1 -12 4.49 1.56
7 1 -12 8.99 3.08
7 -1 -11 1.31 0.98
7 1 -11 1.19 1.19
7 -1 -10 1.25 0.77
7 1 -10 1.56 1.03
7 -1 -9 1.83 0.44
7 1 -9 2.61 1.37
7 -1 -8 3.49 0.89
7 1 -8 4.95 2.02
-7 -1 7 15.41 3.73
7 -1 -7 12.68 2.39
7 1 -7 14.06 3.01
-7 -1 6 51.17 6.38
-7 1 6 62.93 7.07
7 -1 -6 58.25 5.19
7 1 -6 47.49 5.5
-7 -1 5 3.3 1.83
-7 1 5 2.95 1.43
7 1 -5 1.98 0.67
-7 1 5 2.81 1.01
7 1 -4 2.16 1.13
-7 1 4 4.42 1.35
-7 1 4 2.76 1.18
7 -1 -3 26.42 3.68
-7 1 3 20.32 3.02
7 1 -3 23.83 3.36
-7 1 3 25.73 3.24
7 -1 -2 0.27 0.66
-7 1 2 1.39 0.91
-7 1 2 0.32 0.89
-7 1 1 -0.81 1.2
-7 1 1 0.69 0.74
-7 1 0 5.35 1.24
-7 1 0 13.14 2.9
-7 1 -1 15.1 3.14
7 1 1 10.3 2.09
-7 1 -1 10.21 1.84
-7 1 -2 5.95 2.03
-7 1 -2 6.39 1.82
7 1 2 5.17 1.53
-7 -1 -3 4.39 1.82
7 1 3 3.56 1.21
-7 -1 -4 2.97 1.62
7 1 4 1.39 0.89
7 1 5 5.44 1.71
7 -1 5 4.88 1.31
7 -1 6 7.87 1.89
7 -1 6 5.64 1.22
7 -1 7 2.13 0.76
7 -1 7 3.23 1.38
7 1 7 4.26 1.83
7 1 7 4 1.46
7 -1 8 0.74 0.84
7 1 8 0.53 0.64
7 1 8 0.57 0.85
7 -1 8 0.16 0.22
7 -1 9 3.93 1.92
7 1 9 3.72 2.22
7 1 9 4.77 2.07
7 -1 10 3.26 1.6
7 1 10 2.12 1.69
7 1 10 1.34 1.03
7 -1 11 3.8 2.05
7 1 11 1 0.91
7 1 11 2.5 1.55
7 -1 12 0.52 0.82
7 1 12 0.61 1.24
7 1 12 0.42 0.39
7 -1 13 1.91 1.69
7 2 -14 -0.06 0.35
7 2 -13 2.93 1.75
7 2 -12 -1.22 1.21
7 2 -11 1.09 1.33
7 -2 -10 0.91 0.43
7 2 -10 1.14 1.34
7 -2 -9 7.84 1.43
7 2 -9 12.27 3.01
7 -2 -8 1.53 0.92
-7 -2 8 -0.71 1.25
7 2 -8 0.55 0.99
-7 -2 7 -0.79 1.18
7 2 -7 0.01 0.93
-7 -2 6 0.57 0.26
7 2 -6 -1.15 1.59
-7 -2 5 14.55 3.31
-7 2 5 19.57 3.63
7 -2 -5 12.13 2.44
-7 2 5 13.3 2.16
7 2 -5 10.63 2.38
-7 -2 4 12.87 2.95
7 -2 -4 11.3 1.94
7 -2 -4 11.81 2.32
-7 2 4 11.44 1.81
7 2 -4 8.98 2.12
7 -2 -3 64.82 4.32
-7 -2 3 74.38 7.14
-7 2 3 81.03 6.31
7 2 -3 84.27 6.66
-7 2 3 66.73 4.57
7 -2 -3 59.24 4.81
7 -2 -2 5.5 1.57
-7 2 2 5.91 1.73
7 2 -2 6.53 2.27
-7 2 2 2.02 1.62
-7 -2 2 1.4 1.57
7 -2 -1 33.1 2.89
-7 2 1 31.89 3.79
-7 -2 1 30.07 4.14
-7 2 0 3.7 1.88
-7 -2 0 7.12 2.11
7 2 0 9.04 2.33
-7 2 -1 7.33 2.54
-7 2 -1 3.99 1.06
-7 -2 -1 3.22 1.27
7 2 1 4.24 1.5
-7 2 -2 1.16 1.12
-7 -2 -2 2.31 1.29
-7 2 -2 0.24 0.13
7 2 2 0.62 0.54
-7 -2 -3 3.01 1.53
7 -2 3 2.75 0.78
7 2 4 2.92 1.18
-7 -2 -4 4.01 1.75
7 -2 4 3.21 1.02
-7 -2 -5 2.31 1.47
7 -2 5 1.5 0.73
7 2 5 0.99 0.75
-7 -2 -6 5.13 2.05
7 -2 6 8.63 2.67
7 2 6 4.64 1.84
7 -2 7 10.33 2.9
7 2 7 1.67 1
7 -2 8 3.36 1.98
7 2 8 1.62 1.78
7 2 8 1.53 1.15
7 -2 9 1.55 2.33
7 2 9 0.59 1.27
7 2 9 0.52 0.7
7 2 10 4 2.36
7 2 10 2.24 1.83
7 2 11 3.45 2.06
7 2 11 2.16 1.43
7 2 12 0.31 0.39
7 3 -13 1.29 1.37
7 3 -12 -0.03 0.88
7 3 -11 2.1 1.68
7 3 -10 1.2 1.19
7 3 -9 1.57 1.23
7 3 -8 1.27 0.78
-7 -3 7 7.71 3.01
7 3 -7 5.53 2.03
-7 -3 6 0.44 0.25
7 3 -6 -0.53 1.16
-7 -3 5 20.08 4.39
7 3 -5 13.55 2.97
-7 -3 4 11 3.12
7 -3 -4 6.2 1.41
-7 3 4 7.62 1.3
7 3 -4 9.6 2.56
-7 3 3 2.48 1.25
7 -3 -3 3.28 1
7 3 -3 2.94 1.48
-7 3 3 1.5 0.49
-7 -3 3 0.96 0.25
7 -3 -2 22.7 2.34
-7 3 2 25.05 3.48
-7 -3 2 17.84 3.57
-7 3 2 19.71 2.36
7 3 -2 22.87 3.8
-7 3 1 22.56 3
7 -3 -1 15.06 1.6
-7 -3 1 19.11 3.63
7 3 -1 16.44 3.03
-7 3 0 1.07 0.99
-7 -3 0 2.74 1.49
-7 -3 -1 14.74 2.82
7 3 1 12.67 2.39
-7 3 -1 20.95 3.56
-7 -3 -2 0.63 0.82
7 3 2 0.82 0.75
7 3 3 0.74 0.45
-7 -3 -3 2.08 1.04
7 3 4 5.66 1.68
-7 -3 -4 7.8 2.42
-7 -3 -5 0.24 0.64
7 3 5 -0.09 0.08
-7 -3 -6 0.65 1.12
7 3 6 -0.29 0.29
-7 -3 -7 3.99 2.19
7 3 7 1.13 0.93
-7 -3 -8 1.77 1.63
7 3 8 1.72 2.1
7 3 8 0.81 1.07
-7 -3 -9 1.84 1.21
7 3 9 2.5 2.15
7 3 9 2.52 1.48
7 3 10 0.48 1.81
7 3 10 2.18 1.64
7 3 11 1.49 1.31
7 4 -11 0.74 1.14
7 4 -10 1.24 1.46
7 4 -9 0.38 0.86
7 4 -8 3.06 1.17
-7 -4 7 5.61 2.63
7 4 -7 2.56 1.03
-7 -4 6 1.08 1.53
7 4 -6 -0.38 0.83
-7 -4 5 0.31 1.09
7 4 -5 0.06 0.61
-7 -4 4 5.27 2.18
7 4 -4 5.37 2.22
-7 -4 3 3.01 1.78
7 4 -3 3.64 1.78
7 4 -2 4.51 2
-7 -4 2 0.6 0.51
7 4 -1 0.38 0.71
-7 -4 1 -0.88 0.91
-7 -4 0 1.7 1.23
7 4 0 1.48 1.02
7 4 1 -0.07 0.32
-7 -4 -1 0.62 0.56
-7 4 -2 2.04 1.52
-7 -4 -2 2.49 1.41
7 4 2 0.37 0.5
7 4 3 1.49 0.98
-7 -4 -3 0.15 0.4
7 4 4 0.8 0.72
-7 -4 -4 1.08 0.9
-7 -4 -5 5.96 2.43
7 4 5 3.29 1.52
-7 -4 -6 6.14 2.62
7 4 6 5.44 1.95
-7 -4 -7 2.08 2.02
7 4 7 0.66 0.82
-7 -4 -8 3.07 2.22
7 4 8 1.52 1.65
7 4 8 0.63 0.8
-7 -4 -9 3.13 2.46
-7 -4 -10 2.49 1.93
7 5 -9 -0.54 0.82
7 5 -8 6.8 2.5
7 5 -7 -0.76 1.18
-7 -5 6 2.11 1.79
7 5 -6 -0.44 1.19
-7 -5 5 0.63 1
7 5 -5 0.08 1.04
-7 -5 4 6.54 2.93
7 5 -4 4.37 2.21
-7 -5 3 2.77 1.63
7 5 -3 2.05 1.63
-7 -5 2 2.24 1.69
7 5 -2 6.72 2.61
7 5 -1 2.77 1.69
-7 -5 1 0.31 0.64
7 5 0 4.13 1.73
-7 -5 0 2.99 1.42
7 5 1 1.82 1.13
-7 -5 -1 1.83 1.31
-7 -5 -2 2.94 1.39
7 5 2 1.59 0.97
7 5 3 0.87 0.85
-7 -5 -3 1.43 1.18
7 5 4 -0.3 0.57
-7 -5 -4 0.28 0.72
7 5 5 0.56 0.88
-7 -5 -5 1.41 1.44
-7 -5 -6 0.64 0.81
7 5 6 1.42 1.22
-7 -5 -7 1.87 1.59
7 6 -6 0.14 0.81
7 6 -5 2.43 1.81
-7 -6 4 4.31 2.7
7 6 -4 8.07 3.18
-7 -6 3 -0.5 0.96
7 6 -3 1.61 1.66
7 6 -1 2.03 1.53
7 6 0 3.41 1.79
7 6 1 1.03 1.18
7 6 2 2.29 1.49
8 0 -15 0.08 0.28
8 0 -14 1.67 1.3
8 0 -13 0.11 0.92
8 0 -12 41.5 5.78
8 0 -11 2.87 1.69
8 0 -10 2.76 1.44
8 0 -9 -0.92 0.89
-8 0 8 14.04 3.75
8 0 -8 15.99 3.02
-8 0 7 -1.33 0.93
8 0 -7 0.16 0.41
-8 0 6 7.74 2.42
8 0 -6 8.53 2.27
-8 0 5 0.67 0.62
8 0 -5 1.69 1.59
-8 0 4 29.11 4.28
-8 0 3 0.93 1.46
-8 0 2 0.9 1.07
-8 0 1 -1.12 1.22
-8 0 0 25.62 4.25
-8 0 -1 2.78 2.56
-8 0 -2 19.01 3.62
-8 0 -3 0.18 0.95
-8 0 -4 5.19 1.92
8 0 4 7.11 2.22
8 0 5 0.77 0.83
8 0 6 6.26 1.82
8 0 7 8.75 3.24
8 0 7 14.46 3.65
8 0 8 12.31 2.69
8 0 8 10.16 2.04
8 0 9 0.17 0.37
8 0 9 0.29 0.21
8 0 10 4.71 1.98
8 0 11 0.5 0.86
8 0 12 1.4 1.28
8 1 -15 0.38 1.02
8 1 -14 0.12 0.54
8 1 -13 0.72 0.8
8 -1 -12 1.2 0.75
8 1 -12 5.63 2.45
8 -1 -11 -0.51 0.55
8 1 -11 0.14 0.85
8 -1 -10 0.33 0.32
8 1 -10 1.29 0.94
8 -1 -9 0.17 0.13
8 1 -9 -0.88 1.04
8 -1 -8 4.18 1.41
8 1 -8 2 0.95
-8 -1 7 0.49 0.82
-8 1 7 0.35 1.16
8 -1 -7 1.05 0.97
8 1 -7 -1.4 1.17
-8 -1 6 0.11 0.45
-8 1 6 0.86 0.99
8 1 -6 -0.17 0.52
-8 -1 5 4.05 1.6
-8 1 5 4.33 1.66
8 1 -5 5.46 1.77
-8 -1 4 0.71 0.41
-8 1 4 2.02 0.97
-8 1 3 0.17 0.41
-8 -1 3 0.14 0.32
-8 1 2 6.32 1.94
-8 -1 2 6.68 2.27
-8 1 1 -0.74 1.06
-8 -1 1 4.15 2.02
-8 1 0 0.96 0.64
-8 -1 0 -1.17 1.42
-8 1 -1 13.7 3.3
-8 -1 -1 10.41 2.72
-8 1 -2 2.8 1.89
-8 -1 -2 3.16 1.9
8 1 2 2.18 1.37
-8 1 -3 0.26 0.93
-8 -1 -3 0.29 0.68
8 1 3 -0.19 0.42
8 1 4 -0.08 0.45
-8 -1 -4 0.65 1.09
-8 -1 -5 1.34 1.06
8 1 5 0.57 0.46
8 1 6 4.29 1.63
8 -1 6 3.25 1.21
8 1 7 0.84 0.88
8 -1 7 1.58 0.99
8 1 8 8.01 2.13
8 -1 8 8.27 2.24
8 1 8 8.66 2.81
8 -1 9 0.14 0.88
8 1 9 1.59 1.4
8 1 9 -0.72 0.54
8 1 10 -0.25 0.36
8 1 10 0.48 0.8
8 -1 11 2.83 2
8 1 11 0.89 1
8 1 11 0.58 0.82
8 2 -14 1.29 1.22
8 2 -13 2.44 1.85
8 2 -12 0.39 1.06
8 2 -11 2.59 1.63
8 2 -10 1.51 1.06
8 2 -9 1.79 0.51
-8 -2 8 1.89 1.47
8 2 -8 -0.71 1.47
-8 -2 7 7.58 2.71
8 2 -7 6.64 2.1
-8 -2 6 3.17 1.75
-8 2 6 2.36 1.73
8 2 -6 1.01 0.75
-8 -2 5 11.14 3.17
-8 2 5 16.05 3.92
8 2 -5 9.11 2.44
-8 2 5 7.45 1.69
-8 2 4 2.01 1.29
8 2 -4 4.49 1.89
-8 2 4 2.78 1.04
-8 -2 4 0.46 1.24
8 -2 -3 16.52 2.47
8 2 -3 22.94 3.75
-8 2 3 14.02 2.34
-8 -2 3 17.09 3.67
-8 2 3 16.4 2.96
8 -2 -2 6.33 1.6
-8 2 2 5.2 1.85
-8 -2 2 3.85 1.89
-8 2 1 1.65 0.96
-8 -2 1 2.49 1.21
-8 2 0 1.84 1.46
-8 -2 0 -0.75 1.15
8 2 1 4.87 1.69
-8 2 -1 10.41 2.86
-8 -2 -1 4.8 1.8
-8 2 -1 5.61 1.33
-8 -2 -2 13.94 3.22
-8 2 -2 16.38 2.71
8 2 2 12.21 2.75
-8 -2 -3 35.61 5.01
8 2 3 27.18 3.94
-8 2 -3 38.44 5.46
-8 -2 -4 1.83 1.62
8 -2 4 1.16 0.85
8 2 4 0.06 0.16
8 -2 5 15.86 2.55
8 2 5 13.03 2.7
-8 -2 -5 16.56 3.55
8 2 6 0.43 0.74
-8 -2 -6 1.92 1.44
8 -2 6 0.91 0.92
-8 -2 -7 4.63 2.03
8 -2 7 7.81 2.69
8 2 7 3.48 1.53
8 2 8 2.75 1.87
8 2 8 0.95 0.78
8 2 9 8.93 3.27
8 2 9 5.42 2.06
8 2 10 2.48 1.92
8 2 10 0.09 0.86
8 2 11 2.11 1.58
8 2 12 0.43 0.69
8 3 -12 1.21 1.24
8 3 -11 1.41 1.38
8 3 -10 0.1 0.58
8 3 -9 9 2.84
-8 -3 8 1.2 1.22
8 3 -8 -1.28 1.48
-8 -3 7 1.92 1.58
8 3 -7 0.14 0.89
-8 -3 6 -0.17 0.98
8 3 -6 0.07 0.38
-8 -3 5 0.18 0.3
8 3 -5 1.82 1.42
-8 -3 4 0.49 0.88
-8 3 4 1.14 0.93
8 3 -4 1.53 1.32
8 3 -3 8.76 2.62
-8 -3 3 3.72 1.5
-8 -3 2 42.55 5.82
-8 3 2 41.01 3.89
-8 3 1 9.52 2.41
-8 -3 1 13.53 3.46
8 3 0 1.92 1.27
-8 3 0 0.84 0.81
-8 -3 0 0.64 1.04
-8 3 -1 3.14 1.41
-8 -3 -1 1.94 1.06
8 3 1 2.68 1.27
8 3 2 -0.29 0.24
-8 3 -2 1.9 1.68
-8 -3 -2 1.32 1.08
-8 3 -3 2.91 1.86
-8 -3 -3 0.8 0.79
8 3 3 0.56 0.77
-8 -3 -4 2.57 1.41
8 3 4 1.03 0.91
8 3 5 1.59 1.01
-8 -3 -5 2.14 1.17
8 3 6 0.59 0.55
-8 -3 -6 2.36 1.78
-8 -3 -7 9.21 3.11
8 3 7 2.94 1.49
-8 -3 -8 2.59 1.91
8 3 8 2.84 2.03
8 3 8 0.02 0.28
-8 -3 -9 1.88 1.83
8 3 9 3.02 2.1
8 3 9 0.2 0.44
-8 -3 -10 0.89 0.84
8 3 10 1.6 1.35
8 4 -10 2.15 1.41
8 4 -9 0.95 0.58
8 4 -8 -1 1.13
-8 -4 7 3.29 1.98
8 4 -7 0.81 0.68
-8 -4 6 3.27 2.12
8 4 -6 2.59 1.29
-8 -4 5 2.96 2
8 4 -5 3.41 1.78
-8 -4 4 1.42 1.23
8 4 -4 1.34 1.34
-8 -4 3 2.93 1.62
8 4 -3 4.53 2.16
-8 -4 2 0.86 1.07
-8 -4 1 -0.6 1.11
8 4 0 0.58 0.82
-8 -4 0 0.28 0.47
8 4 1 1.1 0.92
-8 -4 -1 0.34 0.55
8 4 2 1.98 1.21
-8 -4 -2 2.66 1.45
-8 -4 -3 0.05 0.17
8 4 3 0.61 0.65
8 4 4 5.04 1.7
-8 -4 -4 6.09 2.36
8 4 5 1.28 1.08
-8 -4 -5 1.6 1.4
8 4 6 2.32 1.35
-8 -4 -6 3.87 2.28
-8 -4 -7 -0.09 0.76
8 4 7 0.4 0.76
-8 -4 -8 3.9 2.44
-8 -4 -9 2.29 1.84
8 5 -8 -1.58 1.34
8 5 -7 2.1 1.55
-8 -5 6 1.68 1.64
8 5 -6 1.24 0.97
-8 -5 5 2.2 1.66
8 5 -5 3.01 1.74
-8 -5 4 2.54 2.08
8 5 -4 7.31 2.89
-8 -5 3 0.68 0.73
8 5 -3 2.21 1.89
-8 -5 2 6.65 2.63
-8 -5 1 0.19 0.79
8 5 0 5.81 2.04
-8 -5 0 5.12 2.08
-8 -5 -1 1.55 1.28
8 5 1 2.48 1.6
8 5 2 -0.38 0.1
-8 -5 -2 -0.42 0.21
-8 -5 -3 0.98 0.88
8 5 3 1.57 1.1
8 5 4 -0.43 0.55
-8 -5 -4 2.27 1.51
-8 -5 -5 1.43 1.25
-8 -5 -6 1.02 1.46
-8 -5 -7 0.46 0.73
-8 -5 -8 -1.18 0.58
-8 -6 5 1.42 1.4
-8 -6 4 0.72 1.29
8 6 -4 2.25 1.73
-8 -6 3 0.77 1.09
-8 -6 2 0.21 1.05
8 6 0 0.64 0.56
9 0 -14 -0.9 0.88
9 0 -13 0.01 0.49
9 0 -12 0.63 0.75
9 0 -11 -0.82 1.02
9 0 -10 0.7 0.66
9 0 -9 -0.62 0.8
-9 0 8 1.04 1.38
9 0 -8 0.7 0.9
-9 0 7 0.68 0.83
9 0 -7 1.87 1.68
-9 0 6 47.44 6.25
9 0 -6 52.67 5.77
-9 0 5 0.26 1.17
-9 0 4 7.25 2.21
-9 0 3 0.32 0.6
-9 0 2 1.52 1.24
-9 0 1 -0.85 0.91
-9 0 0 21.28 3.95
-9 0 -1 4.92 3.12
-9 0 -2 13.6 3.19
-9 0 -3 1.86 1.68
-9 0 -4 0.35 0.67
-9 0 -5 0.64 1.07
9 0 6 51.11 5.16
9 0 7 2.47 1.5
9 0 7 1.06 0.82
9 0 8 0.55 0.51
9 0 8 2.1 1.08
9 0 9 0.06 0.47
9 0 10 1.73 1.29
9 0 11 1.34 1.14
9 0 12 -0.25 0.49
9 1 -15 0.66 1.34
9 1 -14 3.86 1.99
9 1 -13 3.04 2.05
9 1 -12 -1.18 1.21
9 -1 -11 0.44 0.66
9 1 -11 -0.24 0.63
9 -1 -10 2.38 1.16
9 1 -10 2.5 1.37
-9 -1 9 0.9 0.99
9 -1 -9 1.13 0.85
9 1 -9 -1.22 1.51
-9 -1 8 0.39 0.41
-9 1 8 1.02 1.59
9 -1 -8 2.94 1.39
9 1 -8 0.97 0.52
-9 -1 7 -0.53 0.58
9 1 -7 -0.32 0.31
-9 -1 6 1.29 1.04
-9 1 6 0.54 0.84
9 1 -6 1.1 0.77
-9 -1 5 1.6 0.71
-9 1 5 3.06 1.52
-9 -1 4 9.95 2.81
-9 1 4 8.65 2.37
-9 1 3 5.91 1.92
-9 -1 3 4.8 1.92
-9 1 2 4.79 2.26
-9 -1 2 4.27 2.06
-9 1 1 9.08 2.74
-9 -1 1 9.93 2.91
-9 1 0 2.1 1.91
-9 -1 0 2.77 1.65
-9 1 -1 6.51 2.33
-9 -1 -1 5.41 1.92
-9 1 -2 9.33 2.96
-9 -1 -2 10.29 2.87
9 1 3 9.61 2.93
-9 1 -3 10.25 3.13
-9 -1 -3 8.1 2.47
9 1 4 11.3 3.05
-9 1 -4 8.11 2.63
-9 -1 -4 6.98 2.25
-9 -1 -5 1.46 1.23
9 1 5 1.29 1.45
-9 -1 -6 2.25 1.61
9 -1 6 0.56 0.6
9 1 6 1.22 1.09
-9 -1 -7 1.39 1.2
9 -1 7 0.61 0.67
9 1 7 0.48 0.72
9 -1 8 1.47 1.11
9 1 8 0.2 0.72
9 1 8 0.3 0.49
9 -1 9 0.74 0.9
9 1 9 0.13 0.41
9 1 10 1.71 1.09
9 -1 10 0.46 1
9 1 10 1.87 1.64
9 1 11 0.44 1.06
9 2 -13 3.52 2.08
9 2 -12 0.39 1.03
9 2 -11 -0.14 0.28
9 2 -10 -1.06 1.24
-9 -2 9 1.51 1.44
9 2 -9 0.63 0.73
-9 -2 8 5.52 2.51
9 2 -8 2.62 1.17
-9 -2 7 3.57 1.92
9 2 -7 3.82 1.69
-9 -2 6 1.76 1.33
-9 2 6 1.3 0.82
9 2 -6 2.09 1.28
-9 -2 5 5.73 2.56
-9 2 5 8.42 3.01
9 2 -5 6.65 2.4
-9 2 4 25.66 4.5
9 2 -4 22.98 3.93
-9 -2 4 16.71 3.96
-9 2 3 4.61 1.88
-9 -2 3 5.93 2.21
9 -2 -2 0.2 0.6
-9 2 2 0.72 1.11
-9 -2 2 0.58 1.23
-9 2 1 29.87 4.41
-9 -2 1 25.89 4.29
-9 -2 0 15.85 3.99
-9 2 0 7.22 3.13
-9 2 -1 10.47 2.95
-9 -2 -1 6.45 1.96
-9 2 -2 2.06 1.57
-9 -2 -2 2.29 1.67
9 2 2 0.34 0.48
-9 2 -3 1.77 1.7
-9 -2 -3 0.66 0.76
9 2 3 1.58 1.05
9 2 4 2.52 1.5
-9 2 -4 4.58 2.74
-9 -2 -4 3.38 1.82
9 -2 4 1.84 0.91
-9 -2 -5 2.58 1.68
9 -2 5 0.15 0.58
9 2 5 1.31 1.04
-9 -2 -6 0.56 1.09
9 2 6 1.2 1.09
-9 -2 -7 2.05 1.66
9 2 7 0.71 0.81
-9 -2 -8 0.55 0.93
9 2 8 0.38 0.74
9 2 8 1 1.58
9 2 9 3.36 1.77
-9 -2 -9 0.72 0.97
9 2 9 1.86 1.86
9 2 10 0.58 0.9
9 2 11 0.02 0.51
9 3 -12 1.13 1.17
9 3 -11 -0.06 0.61
9 3 -10 -1.11 1.25
9 3 -9 -2.01 1.78
-9 -3 8 -0.67 1.21
9 3 -8 -0.26 0.65
-9 -3 7 1.04 1.08
9 3 -7 -0.28 0.35
-9 -3 6 0 0.32
9 3 -6 0.78 0.9
-9 3 5 0.69 0.63
9 3 -5 0.45 0.62
-9 -3 4 6.95 2.63
-9 3 4 8.84 2.85
9 3 -4 6.85 2.62
9 3 -3 17.6 3.67
-9 -3 3 14.88 3.8
-9 3 3 19.14 4.06
-9 3 2 1.15 0.91
-9 -3 2 2.93 1.66
-9 3 1 5.66 1.79
-9 -3 1 5.5 2.07
-9 3 0 0.89 0.97
-9 -3 0 2.71 1.5
-9 3 -1 0.38 0.55
9 3 1 1.33 0.91
-9 -3 -1 0.57 0.91
9 3 2 1.71 1
-9 -3 -2 1.28 0.39
9 3 3 6.47 1.99
-9 -3 -3 8.74 2.62
-9 3 -4 3.29 2.41
-9 -3 -4 2.51 1.73
9 3 4 0.32 0.27
-9 -3 -5 4.71 2.04
9 3 5 1.11 0.97
-9 -3 -6 0.04 0.45
9 3 6 1.65 1.19
9 3 7 0.85 0.88
-9 -3 -7 -0.86 0.67
9 3 8 0.53 0.7
9 3 8 0.55 0.9
9 3 9 1.84 1.41
-9 -3 -9 1.96 1.86
9 4 -9 -0.32 0.68
-9 -4 8 4 2.34
9 4 -8 0.9 0.63
-9 -4 7 3.56 1.99
9 4 -7 1.59 1.36
-9 -4 6 2.15 1.49
9 4 -6 3.76 1.9
-9 -4 5 1.17 1.19
9 4 -5 2.24 1.63
-9 -4 4 3.55 1.78
9 4 -4 7.52 2.64
9 4 -3 4.73 2.3
-9 -4 3 3.27 1.9
-9 -4 2 2.42 1.34
-9 -4 1 2.06 1.44
9 4 0 3.1 1.55
-9 -4 0 4.29 1.96
9 4 1 5.32 1.88
-9 -4 -1 5.87 2.16
-9 -4 -2 2.08 1.54
9 4 2 -0.18 0.23
9 4 3 -0.19 0.68
-9 -4 -3 -0.58 0.73
-9 -4 -4 0.93 0.73
9 4 4 3.34 1.51
-9 -4 -5 0.98 1.52
9 4 5 1.45 1.02
-9 -4 -6 -0.23 0.36
9 4 6 0.68 1.04
-9 -4 -7 4.62 2.97
-9 -4 -8 3.7 2.37
-9 -5 7 0.21 1.19
-9 -5 6 1.04 1.2
9 5 -6 1.5 1.44
-9 -5 5 1.05 1.29
9 5 -5 2.34 2.04
-9 -5 4 3.26 1.91
9 5 -4 8.13 2.9
-9 -5 3 1.48 1.43
-9 -5 2 2.83 1.76
-9 -5 1 -0.23 0.72
9 5 0 0.35 0.65
-9 -5 0 -0.34 0.09
9 5 1 1.56 1.26
-9 -5 -1 0.16 0.48
-9 -5 -2 1.06 0.86
9 5 2 0.21 0.74
9 5 3 1.38 1.12
-9 -5 -3 0.83 0.9
-9 -5 -4 3.09 1.85
-9 -5 -5 1.83 1.38
-9 -5 -6 -0.58 0.88
-9 -6 5 0.74 1.02
-9 -6 4 0.1 0.9
-9 -6 3 0.3 0.89
-9 -6 2 0.34 0.77
-9 -6 1 1.61 1.6
10 0 -13 -1.68 1.13
10 0 -12 2.39 1.23
10 0 -11 -1.16 0.9
10 0 -10 5.96 2.03
-10 0 9 1.3 1.43
10 0 -9 1.36 1.19
-10 0 8 11.67 3.7
10 0 -8 12.2 3.1
-10 0 7 1.11 1.12
10 0 -7 3.69 2.06
-10 0 6 1.8 1.44
-10 0 5 -0.57 0.74
-10 0 4 10.74 2.93
-10 0 3 1.28 1.85
-10 0 2 3.82 1.89
-10 0 1 4.3 2.52
-10 0 0 8.66 2.7
-10 0 -1 3.93 2.67
-10 0 -2 2.38 1.65
-10 0 -3 2.08 1.53
-10 0 -4 2.94 1.65
-10 0 -5 0.06 1.17
-10 0 -6 2.85 1.97
-10 0 -7 0.56 1.25
10 0 7 1.37 1.14
10 0 8 1.07 0.91
10 0 9 0.87 0.85
10 0 10 -0.29 0.36
10 0 11 2.01 1.56
10 1 -14 -1.55 1.33
10 1 -13 -1.34 1.21
10 1 -12 2.74 1.73
10 -1 -11 1.23 0.87
10 1 -11 -0.16 0.77
10 -1 -10 0.79 0.76
10 1 -10 -0.96 1.17
-10 -1 9 0.72 1.07
10 -1 -9 1.56 1.14
10 1 -9 0.3 0.68
-10 -1 8 6.98 2.83
-10 1 8 8.35 3.18
10 1 -8 6.29 2.42
-10 -1 7 -0.36 0.74
-10 1 7 0.73 1.16
10 1 -7 2.14 1.49
-10 -1 6 5.78 2.55
-10 1 6 4.64 2.14
10 1 -6 7.53 2.53
-10 1 5 0.57 1.08
-10 -1 5 -0.68 0.9
-10 -1 4 3.27 1.52
-10 1 4 5.16 1.88
-10 1 3 1.97 1.49
-10 -1 3 0.59 1.27
-10 1 2 1.84 1.21
-10 -1 2 2.09 1.89
-10 1 1 2.17 1.34
-10 -1 1 2.59 1.81
-10 1 0 9.33 2.88
-10 -1 0 9.13 2.81
-10 1 -1 11.36 3.65
-10 -1 -1 9.18 2.96
-10 1 -2 10.54 3.36
-10 -1 -2 9.73 2.96
-10 1 -3 7.48 2.76
-10 -1 -3 6.15 2.29
-10 1 -4 3.36 2.11
-10 -1 -4 3.83 1.95
-10 1 -5 7.29 2.79
-10 -1 -5 5.41 2.28
10 1 5 9.22 2.91
10 1 6 1.42 1.25
-10 1 -6 -0.14 0.48
-10 -1 -6 0.14 0.5
10 -1 6 0.6 0.63
-10 -1 -7 0.34 0.83
10 -1 7 0.94 0.85
10 1 7 2.71 1.64
10 1 8 2.39 1.4
-10 -1 -8 3.76 2.3
10 -1 8 1.09 0.8
10 1 8 2.86 1.73
-10 -1 -9 2.86 2.15
10 1 9 3.97 1.92
10 1 9 0.06 0.52
10 1 10 1.53 1.73
10 2 -13 -2.05 1.57
10 2 -12 0.14 0.36
10 2 -11 -1.82 1.35
10 2 -10 -1.22 1.45
-10 -2 9 0.84 1.24
10 2 -9 0.7 0.75
-10 -2 8 1.06 1.55
10 2 -8 0.68 0.73
-10 -2 7 1.92 1.49
-10 2 7 2.02 1.88
10 2 -7 1.26 1.3
-10 -2 6 0.35 1.16
-10 2 6 1.54 1.3
10 2 -6 0.28 0.99
-10 -2 5 12.11 3.75
-10 2 5 9.89 3.34
10 2 -5 9.58 2.8
-10 -2 4 0.15 1.11
-10 2 4 1.81 1.12
-10 2 3 17.38 3.47
-10 -2 3 19.91 4.54
-10 2 2 18.92 3.84
-10 -2 2 14.48 3.94
-10 2 1 4.3 2.33
-10 -2 1 5.08 2.49
-10 2 0 3.39 1.51
-10 -2 0 4.54 1.98
-10 2 -1 1.64 1.58
-10 -2 -1 1.4 1.15
-10 2 -2 1.47 1.5
-10 -2 -2 -1.93 1.19
-10 -2 -3 3.15 1.43
10 2 3 2.72 1.61
-10 2 -4 3.76 2.54
10 2 4 3.89 1.87
-10 -2 -4 1.7 1.48
-10 2 -5 2.56 2.01
-10 -2 -5 0.5 0.8
10 2 5 3.7 1.94
10 2 6 0.08 0.32
-10 -2 -6 2.23 1.72
-10 -2 -7 1.43 1.47
10 2 7 1 1.09
-10 -2 -8 0.78 1.02
10 2 8 1.24 1.41
10 2 8 0.78 0.81
10 2 9 1.1 1.15
10 2 10 0.59 0.87
10 3 -11 -1.27 1.15
10 3 -10 -1.23 1.09
-10 -3 9 2.74 2.09
10 3 -9 0.71 0.84
-10 -3 8 0.38 1.13
10 3 -8 1.22 0.88
-10 -3 7 7.97 3.13
10 3 -7 5.63 2.39
-10 -3 6 6.99 2.97
10 3 -6 7.35 2.73
-10 -3 5 8.14 3.19
10 3 -5 11.79 3.27
-10 3 4 5.59 2.47
10 3 -4 4.09 2.06
-10 -3 4 2.7 1.66
-10 -3 3 -0.19 0.42
-10 3 3 0.72 0.8
-10 3 2 0.08 0.3
-10 -3 2 -0.17 0.65
-10 3 1 5.45 1.89
-10 -3 1 2.48 1.43
-10 3 0 0.37 0.98
-10 -3 0 4.54 2.05
-10 3 -1 3.46 1.67
-10 -3 -1 3.92 2.05
-10 3 -2 5.03 2.53
-10 -3 -2 2.55 1.64
10 3 2 1.35 1.1
10 3 3 0.67 0.74
-10 -3 -3 0.48 0.85
-10 3 -4 1.1 1.97
-10 -3 -4 -0.23 0.32
10 3 4 1.22 1.09
10 3 5 0.92 0.87
-10 3 -5 3.33 3.04
-10 -3 -5 0.55 0.73
-10 -3 -6 0.35 0.84
10 3 6 1.22 1.17
-10 -3 -7 0.43 1.25
10 3 7 0.39 0.38
-10 -4 8 -0.68 0.98
10 4 -8 -0.04 0.74
-10 -4 7 0.27 0.26
10 4 -7 2.63 1.66
-10 -4 6 1.94 1.67
10 4 -6 1.76 1.36
-10 -4 5 0.72 0.73
10 4 -5 2.59 1.91
-10 -4 4 4.97 2.48
10 4 -4 6.66 2.64
-10 -4 3 1.48 1.27
-10 -4 2 0.46 1.06
-10 -4 1 1.72 1.27
-10 -4 0 1.65 1.3
10 4 1 1.09 1.01
-10 -4 -1 0.35 0.79
-10 -4 -2 1.18 1.12
10 4 2 1.05 0.98
10 4 3 1.97 1.3
-10 -4 -3 2.12 1.43
10 4 4 0.85 0.85
-10 -4 -4 0.99 0.92
10 4 5 1.3 1.04
-10 -4 -5 0.39 0.87
-10 -4 -6 1.04 1.44
-10 -5 6 2.03 1.92
-10 -5 5 1.15 1.25
-10 -5 4 0.27 0.77
-10 -5 3 2.51 1.89
-10 -5 2 0.57 0.8
-10 -5 1 -0.64 0.78
-10 -5 0 0.1 0.26
-10 -5 -1 0.79 0.78
-10 -5 -2 2.06 1.42
-10 -5 -3 0.37 0.46
-10 -5 -4 2.24 1.81
11 0 -13 1.89 1.25
11 0 -12 0.2 0.58
11 0 -11 0.5 0.88
11 0 -10 1.9 1.39
-11 0 9 0 0.49
11 0 -9 2.41 1.81
-11 0 8 2.46 1.81
11 0 -8 4.42 1.91
-11 0 7 0.23 0.81
-11 0 6 3.37 1.58
-11 0 5 0.11 0.51
-11 0 4 4.96 2.24
-11 0 3 1.37 1.78
-11 0 2 0.58 0.94
-11 0 1 1.95 1.68
-11 0 0 -0.3 0.79
-11 0 -1 0.03 0.83
-11 0 -2 2.16 1.59
-11 0 -3 0.72 1.54
-11 0 -4 0.08 0.92
-11 0 -5 0.69 1.73
-11 0 -6 4.19 2.63
-11 0 -7 0.6 0.79
11 0 7 1.51 1.28
-11 0 -8 2.97 2.06
11 0 8 1.06 0.93
11 0 9 1.22 1.25
11 0 10 2.24 1.64
11 1 -14 -0.49 1.03
11 1 -13 2.37 1.74
11 1 -12 0.02 1.04
11 1 -11 -0.76 1.05
11 1 -10 0.76 0.84
-11 -1 9 2.78 2.17
11 1 -9 2.37 1.6
-11 -1 8 2.71 1.67
-11 1 8 2.3 1.88
11 1 -8 4.4 2.01
-11 -1 7 1.47 1.44
-11 1 7 1.25 1.74
11 1 -7 3.51 1.96
-11 -1 6 3.94 2.19
-11 1 6 6.21 2.61
-11 1 5 0.29 0.96
-11 -1 5 0.79 1.27
-11 -1 4 -1.04 1.3
-11 1 4 0.18 0.78
-11 1 3 2.77 1.47
-11 -1 3 1.58 1.03
-11 1 2 1.4 1.59
-11 -1 2 3.73 2.49
-11 1 1 14.14 3.71
-11 -1 1 11.85 3.56
-11 1 0 7.95 3.13
-11 -1 0 8.46 3.1
-11 1 -1 2.75 1.66
-11 -1 -1 1.04 1.44
-11 1 -2 2.1 1.42
-11 -1 -2 1.68 1.46
-11 1 -3 1.33 1.52
-11 -1 -3 0.62 1.3
-11 1 -4 3.14 1.97
-11 -1 -4 1.03 1.24
-11 1 -5 0.17 1.53
-11 -1 -5 0.63 1.33
-11 1 -6 15.28 4.64
-11 -1 -6 12.57 3.59
11 -1 6 8.84 2.33
11 1 6 8.98 2.73
-11 1 -7 2.02 2.38
11 1 7 1.86 1.25
-11 -1 -7 1.86 1.61
-11 1 -8 2.15 1.89
11 1 8 0.46 0.87
11 1 8 0.97 0.93
11 1 9 1.45 1.64
11 2 -12 -0.2 0.47
11 2 -11 0.02 0.81
-11 -2 10 0.38 1.11
11 2 -10 2.18 1.61
-11 -2 9 -0.74 0.99
11 2 -9 0.92 1.14
-11 -2 8 0.18 0.81
11 2 -8 2.36 1.7
-11 -2 7 2.7 2.16
-11 2 7 6.07 3.07
11 2 -7 4.57 2.13
-11 -2 6 0.2 0.88
-11 2 6 1.08 1.33
11 2 -6 3.1 1.83
-11 -2 5 1.41 1.74
-11 2 5 1.59 1.54
-11 -2 4 9.63 3.34
-11 2 4 10.26 3.18
-11 2 3 0.98 1.35
-11 -2 3 1.72 1.56
-11 2 2 2.14 1.37
-11 -2 2 0 0.38
-11 2 1 0.11 0.64
-11 -2 1 -0.34 0.59
-11 2 0 1.15 0.59
-11 -2 0 1.65 1.46
-11 2 -1 6.01 2.64
-11 -2 -1 1.95 1.54
-11 2 -2 0.87 1.5
-11 -2 -2 0.26 0.92
-11 2 -3 6.74 2.92
-11 -2 -3 4.82 2.3
11 2 4 2.1 1.67
-11 2 -4 2.84 1.99
-11 -2 -4 2.71 1.76
-11 2 -5 0.85 1.96
-11 -2 -5 0.84 1.2
11 2 5 1.76 1.45
-11 2 -6 2.36 1.95
11 2 6 1.75 1.41
-11 -2 -6 1.13 1.43
-11 2 -7 2.29 2.2
-11 -2 -7 1.75 1.45
11 2 7 0.3 0.61
11 2 8 0.6 0.91
11 3 -10 1.89 1.43
-11 -3 9 3.71 2.32
11 3 -9 1.15 0.96
-11 -3 8 3.14 2.36
11 3 -8 1.76 1.52
-11 -3 7 2.03 1.67
11 3 -7 3.05 1.91
-11 -3 6 0.66 1.26
11 3 -6 5.28 2.42
-11 -3 5 0.19 1.01
-11 -3 4 8.39 3.26
-11 -3 3 0.68 0.88
-11 -3 2 0.63 0.75
-11 3 1 1.85 1.27
-11 -3 1 1.49 1.39
-11 3 0 3.43 1.89
-11 -3 0 2.82 1.87
-11 3 -1 5.51 2.24
-11 -3 -1 3.65 1.86
-11 3 -2 3.66 2.18
-11 -3 -2 3.47 1.87
-11 3 -3 1.16 1.84
-11 -3 -3 1.43 1.37
11 3 3 1.72 1.38
-11 3 -4 0.96 2.15
-11 -3 -4 0.49 0.61
11 3 4 -0.13 0.55
11 3 5 1.64 1.54
-11 -3 -5 2.44 1.85
-11 3 -6 2.14 2.27
-11 -3 -6 1.99 1.77
11 3 6 1.17 0.94
-11 3 -7 4.43 3.58
-11 3 -8 5.53 3.72
-11 -4 7 0.63 1.16
-11 -4 6 2.11 1.89
11 4 -6 3.7 2.26
-11 -4 5 1.3 1.47
11 4 -5 2.67 1.93
-11 -4 4 0.5 1.21
-11 -4 3 5.87 2.61
-11 -4 2 0.13 0.29
-11 -4 1 0.8 1.01
-11 -4 0 0.99 1.17
-11 -4 -1 1.81 1.37
-11 -4 -2 0.78 1.15
-11 -4 -3 2.18 1.66
-11 -4 -4 -1.32 1.2
-11 -5 3 -0.19 0.88
-11 -5 2 2.75 1.88
-11 -5 1 0.06 0.29
-11 -5 0 -0.26 0.5
-11 -5 -1 -0.55 0.75
12 0 -12 1.14 1.01
12 0 -11 2.16 1.44
12 0 -10 1.23 0.95
-12 0 9 0.73 1.22
-12 0 8 6.9 3.04
-12 0 7 0.16 1.41
-12 0 6 5.25 2.63
-12 0 5 -0.7 1.11
-12 0 4 1.02 0.17
-12 0 3 1.37 2.02
-12 0 2 0.49 0.94
-12 0 1 1.84 1.61
-12 0 0 7.95 3
-12 0 -1 0.77 1.86
-12 0 -2 7.31 2.7
-12 0 -3 0.9 1.38
-12 0 -4 7.74 3.01
-12 0 -5 2.76 1.93
-12 0 -6 1.22 1.73
12 0 7 0.86 1.03
12 0 8 -0.16 0.18
12 1 -13 1.62 1.68
12 1 -12 1.66 1.46
12 1 -11 0.77 1.14
-12 -1 10 1.89 1.87
12 1 -10 2.05 1.67
-12 -1 9 0.89 1.46
-12 1 9 0.93 1.32
12 1 -9 3.55 2.21
-12 -1 8 0.46 0.53
-12 1 8 2.68 2.19
12 1 -8 3.35 2.02
-12 -1 7 0.13 1.1
-12 1 7 0.97 1.6
-12 -1 6 1.82 1.92
-12 1 6 1.01 1.31
-12 1 5 0.85 1.11
-12 -1 5 -0.35 0.56
-12 -1 4 0.92 0.23
-12 1 4 1.26 1.19
-12 1 3 3.1 2.04
-12 -1 3 2.67 1.55
-12 1 2 7.71 2.87
-12 -1 2 3.88 2.62
-12 1 1 2.62 2.24
-12 -1 1 4.77 2.58
-12 1 0 0.53 1.23
-12 -1 0 2.44 1.53
-12 1 -1 -0.59 1.12
-12 -1 -1 1.22 0.7
-12 1 -2 1.78 1.77
-12 -1 -2 1.04 1.3
-12 1 -3 4.21 2.2
-12 -1 -3 1.87 1.39
-12 1 -4 2.05 1.49
-12 -1 -4 2.01 1.75
-12 1 -5 5.81 3.03
-12 -1 -5 5.01 2.6
-12 1 -6 0.27 1.39
-12 -1 -6 0.68 1.51
-12 1 -7 4.69 2.91
12 2 -11 0.24 1.06
-12 -2 10 1.92 1.56
12 2 -10 1.47 1.44
-12 -2 9 0.11 0.5
12 2 -9 2.77 2.06
-12 -2 8 0.97 1.7
-12 2 8 1.46 1.96
12 2 -8 1.86 1.59
-12 -2 7 2.5 2.15
-12 2 7 1.98 1.65
12 2 -7 2.9 1.98
-12 -2 6 1.15 1.17
-12 2 6 0.79 2.12
-12 -2 5 -0.26 0.97
-12 2 5 0.62 1.11
-12 -2 4 2.15 1.84
-12 2 4 -0.17 1.2
-12 2 3 0.84 1.16
-12 -2 3 0.04 0.6
-12 2 2 1.5 1.2
-12 -2 2 1.2 1.25
-12 2 1 6.12 2.43
-12 -2 1 3.12 1.91
-12 2 0 1.28 1.56
-12 -2 0 2.04 1.75
-12 2 -1 5.79 2.66
-12 -2 -1 4.81 2.11
-12 2 -2 3.99 2.59
-12 -2 -2 3.04 1.93
-12 2 -3 2.42 2.49
-12 -2 -3 2.03 1.56
-12 2 -4 0.07 0.47
-12 -2 -4 1.56 1.44
-12 2 -5 3.79 3.08
-12 -2 -5 1.52 1.2
12 2 6 1.39 1.57
-12 2 -6 6.17 3.82
-12 2 -7 2.45 2.63
12 2 7 1.17 1.28
-12 -3 8 1.62 1.7
12 3 -8 1.4 1.51
-12 -3 7 0.3 0.83
12 3 -7 3.19 1.92
-12 -3 6 0.82 1.62
-12 -3 5 2.24 2.15
-12 -3 4 2.03 1.57
-12 -3 3 4 2.17
-12 -3 2 -0.12 0.41
-12 -3 1 3.12 1.88
-12 -3 0 2.2 1.74
-12 -3 -1 2.16 1.52
-12 -3 -2 2.97 1.84
-12 -3 -3 1.35 1.11
-12 -3 -4 1.11 1.04
-12 -4 5 1.33 1.57
-12 -4 4 -0.58 0.94
-12 -4 3 -0.45 0.98
-12 -4 2 0.15 0.55
-12 -4 1 0.68 0.93
-12 -4 0 1.64 1.47
-12 -4 -1 1.29 1.45
-13 0 10 3.99 2.58
-13 0 9 1.74 1.65
-13 0 8 0.54 0.54
-13 0 7 1.58 1.3
-13 0 6 0.85 1.89
-13 0 5 -0.96 1.66
-13 0 4 -0.34 0.96
-13 0 3 0.42 1.1
-13 0 2 2.11 1.51
-13 0 1 1.79 1.93
-13 0 0 5.38 2.75
-13 0 -1 0.55 0.83
-13 0 -2 -0.46 1.12
-13 0 -3 2.43 1.5
-13 0 -4 3.55 2.22
-13 0 -5 2.55 1.95
13 1 -11 3.35 2.11
-13 -1 10 0.81 1.38
13 1 -10 3.99 2.02
-13 -1 9 0.69 0.99
-13 1 9 -0.21 1.3
-13 -1 8 1.6 1.81
-13 1 8 1.42 1.58
-13 -1 7 1.45 1.7
-13 1 7 1.17 1.32
-13 -1 6 3.4 2.09
-13 1 6 1.75 1.42
-13 1 5 2.66 1.83
-13 -1 5 -0.21 1.26
-13 -1 4 7.37 3.2
-13 1 4 2.82 1.63
-13 1 3 3.12 2.25
-13 -1 3 1.14 1.61
-13 1 2 5.49 2.95
-13 -1 2 1.77 1.96
-13 1 1 6.39 2.75
-13 -1 1 3.34 2.31
-13 1 0 6.84 3.19
-13 -1 0 7.01 3.05
-13 1 -1 0.79 1.11
-13 -1 -1 2.87 2.06
-13 1 -2 0.45 0.81
-13 -1 -2 1.76 1.36
-13 1 -3 2.68 1.95
-13 -1 -3 1.13 1.67
-13 1 -4 1.31 1.01
-13 -1 -4 1.12 1.43
-13 1 -5 3.02 2.4
13 2 -9 1.23 1.57
-13 -2 8 0.28 0.54
-13 -2 7 1.34 2.06
-13 -2 6 1.31 1.63
-13 2 6 2.21 1.4
-13 -2 5 1.83 2.03
-13 2 5 0.01 1.18
-13 -2 4 1.82 1.6
-13 2 4 1.13 0.85
-13 -2 3 2.26 1.88
-13 2 3 0.87 0.74
-13 2 2 1.04 1.12
-13 -2 2 1.32 1.6
-13 2 1 2.22 1.96
-13 -2 1 2.71 1.78
-13 2 0 1.67 1.6
-13 -2 0 1.24 1.42
-13 2 -1 -0.5 0.93
-13 -2 -1 1.83 1.45
-13 2 -2 1.73 2.01
-13 -2 -2 2.16 1.66
-13 2 -3 1.77 2.15
-13 -2 -3 -0.16 0.31
-13 2 -4 3.14 3.09
-13 2 -5 2.77 2.98
-13 -3 5 2.14 1.84
-13 -3 4 0.06 0.9
-13 -3 3 0.63 1.02
-13 -3 2 0.45 0.75
-13 -3 1 -0.14 0.08
-13 -3 0 2.08 1.69
-14 0 9 1.32 1.73
-14 0 8 1.92 1.61
-14 0 7 -0.01 0.55
-14 0 6 3.69 2.73
-14 0 5 -0.04 0.05
-14 0 4 1.49 1.11
-14 0 3 0.55 1.36
-14 0 2 3.54 2.52
-14 0 1 3.38 2.54
-14 0 0 1.57 1.63
-14 0 -1 0.97 1.18
-14 0 -2 -0.65 0.59
-14 0 -3 0.58 1.38
-14 1 9 1.04 1.96
-14 1 8 1.85 1.66
-14 -1 7 1.23 1.84
-14 1 7 2.09 1.79
-14 -1 6 0.99 1.09
-14 1 6 0.75 1.17
-14 1 5 2.43 1.52
-14 -1 5 1.16 0.45
-14 -1 4 1.41 1.71
-14 1 4 2.07 1.16
-14 1 3 1.17 1.24
-14 -1 3 0.29 0.77
-14 1 2 0 0.95
-14 -1 2 1.13 1.66
-14 1 1 1.68 2.03
-14 -1 1 1.05 1.36
-14 1 0 3.55 2.28
-14 -1 0 2.44 1.83
-14 1 -1 0.88 1.62
-14 -1 -1 2.07 1.84
-14 1 -2 1.58 1.87
-14 1 -3 1.38 1.41
-14 -2 4 0.66 0.89
-14 2 4 0 0.57
-14 -2 3 0.51 1.17
-14 2 3 -0.58 0.96
-14 2 2 0.18 0.4
-14 -2 2 1.72 1.4
-14 2 1 2.07 1.92
-14 -2 1 0.86 1.67
-14 2 0 -0.09 0.19
-14 2 -1 2.45 2
-14 2 -2 1.19 1.1
-14 2 -3 1.87 1.86
-14 2 -4 3.02 3.53
-15 0 6 0.51 0.92
-15 0 5 0 0.9
-15 0 4 3.56 2.54
-15 0 3 0.13 0.76
-15 0 2 1.73 2.08
-15 0 1 0.18 1.02
-15 1 8 -0.74 1.92
-15 1 7 -0.53 0.86
-15 1 6 3.18 2.05
-15 1 5 0.57 1.04
-15 1 4 -3.2 2.16
-15 1 3 0.95 1.44
-15 1 2 1.04 0.76
-15 1 1 0.7 1.09
-15 1 0 2.07 2.05
-15 1 -1 2.28 2.07
