#------------------------------------------------------------------------------
#$Date: 2019-11-24 13:56:51 +0200 (Sun, 24 Nov 2019) $
#$Revision: 238072 $
#$URL: file:///home/coder/svn-repositories/cod/cif/1/55/47/1554710.cif $
#------------------------------------------------------------------------------
#
# This file is available in the Crystallography Open Database (COD),
# http://www.crystallography.net/
#
# All data on this site have been placed in the public domain by the
# contributors.
#
data_1554710
loop_
_publ_author_name
'Bar\/l\'og, Maciej'
'Kulai, Ihor'
'Ji, Xiaozhou'
'Bhuvanesh, Nattamai'
'Dey, Somnath'
'Sliwinski, Eric Pierre'
'Bazzi, Hassan S.'
'Fang, Lei'
'Al-Hashimi, Mohammed'
_publ_section_title
;
 Synthesis, characterization and crystal structures of novel fluorinated
 di(thiazolyl)benzene derivatives
;
_journal_issue                   6
_journal_name_full               'Organic Chemistry Frontiers'
_journal_page_first              780
_journal_paper_doi               10.1039/C9QO00044E
_journal_volume                  6
_journal_year                    2019
_chemical_formula_moiety         'C14 H8 F2 S2'
_chemical_formula_sum            'C14 H8 F2 S2'
_chemical_formula_weight         278.32
_space_group_crystal_system      monoclinic
_space_group_IT_number           14
_space_group_name_Hall           '-P 2ybc'
_space_group_name_H-M_alt        'P 1 21/c 1'
_atom_sites_solution_hydrogens   geom
_atom_sites_solution_primary     direct
_audit_creation_date             2017-05-25
_audit_creation_method
;
Olex2 1.2-beta
(compiled 2017.03.28 svn.r3405 for OlexSys, GUI svn.r5335)
;
_audit_update_record
;
2018-07-19 deposited with the CCDC.
2019-01-30 downloaded from the CCDC.
;
_cell_angle_alpha                90
_cell_angle_beta                 94.273(4)
_cell_angle_gamma                90
_cell_formula_units_Z            2
_cell_length_a                   7.4893(9)
_cell_length_b                   3.8493(4)
_cell_length_c                   19.835(2)
_cell_measurement_reflns_used    5897
_cell_measurement_temperature    110.0
_cell_measurement_theta_max      27.512
_cell_measurement_theta_min      2.728
_cell_volume                     570.23(11)
_computing_cell_refinement       'SAINT v8.37A (Bruker, 2015)'
_computing_data_reduction        'SAINT v8.37A (Bruker, 2015)'
_computing_molecular_graphics    'Olex2 (Dolomanov et al., 2009)'
_computing_publication_material  'Olex2 (Dolomanov et al., 2009)'
_computing_structure_refinement  'XL (Sheldrick, 2008)'
_computing_structure_solution    'ShelXT (Sheldrick, 2015)'
_diffrn_ambient_temperature      110.0
_diffrn_detector                 'Bruker APEX2 area detector'
_diffrn_detector_area_resol_mean 7.9
_diffrn_detector_type            'CCD area detector'
_diffrn_measured_fraction_theta_full 0.974
_diffrn_measured_fraction_theta_max 0.974
_diffrn_measurement_device       'three-circle diffractometer'
_diffrn_measurement_device_type  'Bruker APEX-II CCD'
_diffrn_measurement_method       '\f and \w scans'
_diffrn_radiation_monochromator  'mirror optics'
_diffrn_radiation_probe          x-ray
_diffrn_radiation_type           MoK\a
_diffrn_radiation_wavelength     0.71073
_diffrn_reflns_av_R_equivalents  0.079
_diffrn_reflns_av_unetI/netI     0.0382
_diffrn_reflns_Laue_measured_fraction_full 0.974
_diffrn_reflns_Laue_measured_fraction_max 0.974
_diffrn_reflns_number            976
_diffrn_reflns_point_group_measured_fraction_full 0.974
_diffrn_reflns_point_group_measured_fraction_max 0.974
_diffrn_reflns_theta_full        24.977
_diffrn_reflns_theta_max         24.977
_diffrn_reflns_theta_min         2.727
_diffrn_source                   'microfocus sealed X-ray tube'
_diffrn_source_type              'Incoatec I\ms'
_diffrn_standards_number         0
_exptl_absorpt_coefficient_mu    0.468
_exptl_absorpt_correction_T_max  0.7314
_exptl_absorpt_correction_T_min  0.4838
_exptl_absorpt_correction_type   multi-scan
_exptl_absorpt_process_details
;
 TWINABS-2012/1 (Bruker,2012) was used for absorption correction.
 
For component 1:
 wR2(int) was 0.1756 before and 0.0872 after correction.
 The Ratio of minimum to maximum transmission not present.
 The \l/2 correction factor is Not present
 
For component 2:
 wR2(int) was 0.1821 before and 0.0930 after correction.
 The Ratio of minimum to maximum transmission is 0.54.
 The \l/2 correction factor is Not present

Final HKLF 4 output contains 13183 reflections, Rint = 0.0842
 (10786 with I > 3sig(I), Rint = 0.0823)
;
_exptl_crystal_colour            yellow
_exptl_crystal_colour_primary    yellow
_exptl_crystal_density_diffrn    1.621
_exptl_crystal_description       plate
_exptl_crystal_F_000             284
_exptl_crystal_size_max          0.512
_exptl_crystal_size_mid          0.423
_exptl_crystal_size_min          0.07
_refine_diff_density_max         0.410
_refine_diff_density_min         -0.493
_refine_diff_density_rms         0.116
_refine_ls_extinction_method     none
_refine_ls_goodness_of_fit_ref   1.342
_refine_ls_hydrogen_treatment    constr
_refine_ls_matrix_type           full
_refine_ls_number_parameters     107
_refine_ls_number_reflns         976
_refine_ls_number_restraints     220
_refine_ls_restrained_S_all      1.224
_refine_ls_R_factor_all          0.0902
_refine_ls_R_factor_gt           0.0787
_refine_ls_shift/su_max          0.000
_refine_ls_shift/su_mean         0.000
_refine_ls_structure_factor_coef Fsqd
_refine_ls_weighting_details
'w=1/[\s^2^(Fo^2^)+(0.0347P)^2^+2.8130P] where P=(Fo^2^+2Fc^2^)/3'
_refine_ls_weighting_scheme      calc
_refine_ls_wR_factor_gt          0.1626
_refine_ls_wR_factor_ref         0.1703
_reflns_Friedel_coverage         0.000
_reflns_number_gt                854
_reflns_number_total             976
_reflns_threshold_expression     'I > 2\s(I)'
_cod_data_source_file            c9qo00044e2.cif
_cod_data_source_block           f2p
_cod_database_code               1554710
_shelx_shelxl_version_number     2014/7
_shelx_space_group_comment
;
The symmetry employed for this shelxl refinement is uniquely defined
by the following loop, which should always be used as a source of
symmetry information in preference to the above space-group names.
They are only intended as comments.
;
_olex2_refinement_description
;
1. Fixed Uiso
 At 1.2 times of:
  All C(H) groups
2. Shared sites
{C4, C4A}
3. Uiso/Uaniso restraints and constraints
C4 \\sim C5 \\sim C6 \\sim C7 \\sim S8 \\sim C4A \\sim C5A \\sim C6A \\sim C7A
\\sim S8A: within 2A with sigma of 0.01 and sigma for terminal atoms of 0.02
Uanis(C4) = Uanis(C4A)
Uanis(S8) = Uanis(C5A)
Uanis(C5) = Uanis(S8A)
4. Rigid body (RIGU) restrains
 C4, C5, C6, C7, S8, C4A, C5A, C6A, C7A, S8A
 with sigma for 1-2 distances of 0.01 and sigma for 1-3 distances of 0.01
5. Same fragment restrains
{C4, C5, C6, C7, S8} sigma for 1-2: 0.02, 1-3: 0.04
as
{C4A, C5A, C6A, C7A, S8A}
6. Others
 Sof(C4A)=Sof(C5A)=Sof(H5A)=Sof(C6A)=Sof(H6A)=Sof(C7A)=Sof(H7A)=Sof(S8A)=1-
 FVAR(1)
 Sof(C4)=Sof(C5)=Sof(H5)=Sof(C6)=Sof(H6)=Sof(C7)=Sof(H7)=Sof(S8)=FVAR(1)
7.a Aromatic/amide H refined with riding coordinates:
 C1(H1), C5(H5), C6(H6), C7(H7), C5A(H5A), C6A(H6A), C7A(H7A)
;
_shelx_res_file
;
    f2p.res created by SHELXL-2014/7

TITL f2p_a.res in P2(1)/c
REM Old TITL F2p in P21/c #14
REM SHELXT solution in P2(1)/c
REM R1 0.205, Rweak 0.023, Alpha 0.060, Orientation as input
REM Formula found by SHELXT: C3 F3 S3
CELL 0.71073 7.4893 3.8493 19.8353 90 94.273 90
ZERR 2 0.0009 0.0004 0.0022 0 0.004 0
LATT 1
SYMM -X,0.5+Y,0.5-Z
SFAC C H F S
UNIT 28 16 4 4
SIMU 0.01 0.02 2 C4 C5 C6 C7 S8 C4A C5A C6A C7A S8A
RIGU 0.01 0.01 C4 C5 C6 C7 S8 C4A C5A C6A C7A S8A
EADP C4 C4A
EADP S8 C5A
EADP C5 S8A
EXYZ C4 C4A

L.S. 10 0 0
PLAN  20
TEMP -163.15
BOND $H
MORE -1
CONF
fmap 2 53
acta 52
OMIT -4 50
REM <olex2.extras>
REM <HklSrc "%.\\F2p.hkl">
REM </olex2.extras>

WGHT    0.034700    2.813000
FVAR       0.98235   0.59704
F1    3    0.666739    0.586304    0.624638    11.00000    0.01883    0.05477 =
         0.01390   -0.00913   -0.00445    0.00647
C1    1    0.675595    0.400849    0.513180    11.00000    0.01330    0.02258 =
         0.01598    0.00069    0.00069    0.00435
AFIX  43
H1    2    0.796970    0.336810    0.523727    11.00000   -1.20000
AFIX   0
C2    1    0.579061    0.545662    0.562260    11.00000    0.01795    0.02024 =
         0.00967    0.00152    0.00255   -0.00062
C3    1    0.403126    0.653443    0.552319    11.00000    0.01865    0.00831 =
         0.01628    0.00192    0.00286   -0.00273
PART 1
C4    1    0.299540    0.803783    0.605262    21.00000    0.01532    0.01426 =
         0.01386    0.00161    0.00166   -0.00094
C5    1    0.358209    0.901735    0.669869    21.00000    0.02534    0.01788 =
         0.01593   -0.00438    0.00324   -0.00016
AFIX  43
H5    2    0.477013    0.882808    0.689925    21.00000   -1.20000
AFIX   0
C6    1    0.191004    1.051718    0.704525    21.00000    0.02291    0.01561 =
         0.01575   -0.00410    0.00253   -0.00442
AFIX  43
H6    2    0.192620    1.142988    0.749065    21.00000   -1.20000
AFIX   0
C7    1    0.046498    1.028511    0.660508    21.00000    0.01685    0.01685 =
         0.02403    0.00301    0.00071    0.00116
AFIX  43
H7    2   -0.068197    1.102574    0.672191    21.00000   -1.20000
AFIX   0
S8    4    0.074544    0.876657    0.590233    21.00000    0.01422    0.02192 =
         0.01894   -0.00144    0.00343    0.00228
SAME 0.02 0.04 C4 > S8
PART 0
PART 2
C4A   1    0.299540    0.803783    0.605262   -21.00000    0.01532    0.01426 =
         0.01386    0.00161    0.00166   -0.00094
C5A   1    0.117184    0.873210    0.599170   -21.00000    0.01422    0.02192 =
         0.01894   -0.00144    0.00343    0.00228
AFIX  43
H5A   2    0.036627    0.831487    0.560733   -21.00000   -1.20000
AFIX   0
C6A   1    0.068596    1.040833    0.671182   -21.00000    0.01931    0.01413 =
         0.01636   -0.00015    0.00085    0.00190
AFIX  43
H6A   2   -0.045941    1.114647    0.683087   -21.00000   -1.20000
AFIX   0
C7A   1    0.222027    1.053449    0.710005   -21.00000    0.02113    0.01603 =
         0.01653    0.00072   -0.00292    0.00210
AFIX  43
H7A   2    0.224998    1.149729    0.754174   -21.00000   -1.20000
AFIX   0
S8A   4    0.388276    0.914889    0.683251   -21.00000    0.02534    0.01788 =
         0.01593   -0.00438    0.00324   -0.00016
HKLF 4

REM  f2p_a.res in P2(1)/c
REM R1 =  0.0787 for     854 Fo > 4sig(Fo)  and  0.0902 for all     976 data
REM    107 parameters refined using    220 restraints

END

WGHT      0.0347      2.8130

REM Highest difference peak  0.410,  deepest hole -0.493,  1-sigma level  0.116
Q1    1   0.1793  1.3351  0.6979  11.00000  0.05    0.41
Q2    1   0.3453  0.7136  0.5804  11.00000  0.05    0.40
Q3    1   0.5376  1.0044  0.5284  11.00000  0.05    0.36
Q4    1   0.3533  1.4047  0.7052  11.00000  0.05    0.34
Q5    1   0.2588  0.8839  0.6980  11.00000  0.05    0.34
Q6    1   0.5889  1.0233  0.6014  11.00000  0.05    0.33
Q7    1   0.1796  1.3762  0.7371  11.00000  0.05    0.33
Q8    1   0.0535  0.4368  0.5368  11.00000  0.05    0.33
Q9    1  -0.0965  1.3165  0.6830  11.00000  0.05    0.33
Q10   1   0.3470  1.4055  0.6666  11.00000  0.05    0.32
Q11   1   0.2023  0.9007  0.5808  11.00000  0.05    0.32
Q12   1  -0.1333  1.0826  0.7268  11.00000  0.05    0.31
Q13   1   0.2544  1.3637  0.7849  11.00000  0.05    0.31
Q14   1   0.8474  0.2621  0.5579  11.00000  0.05    0.30
Q15   1   0.6173  0.7230  0.5256  11.00000  0.05    0.29
Q16   1   0.5709  1.1303  0.7465  11.00000  0.05    0.29
Q17   1   0.2408  0.5931  0.6993  11.00000  0.05    0.28
Q18   1   0.1185  0.6178  0.7210  11.00000  0.05    0.28
Q19   1   0.8026  0.7640  0.4728  11.00000  0.05    0.28
Q20   1   0.6769  0.0013  0.5182  11.00000  0.05    0.28
;
_shelx_res_checksum              43681
_shelx_hkl_file
;
   1   0   0  683.93   14.70
   2   0   0   35.00    2.40
   3   0   0 4018.00  107.19
   4   0   0 1987.00   48.60
   5   0   0   23.00    3.20
   6   0   0  117.69    7.50
   7   0   0  367.26   12.60
   8   0   0  441.86   17.70
   9   0   0    7.20    4.30
   0   1   0    0.10    0.30
   1   1   0 1196.68   22.80
   2   1   0   88.89    2.60
   3   1   0  733.43   14.30
   4   1   0  296.87    6.80
   5   1   0   14.20    2.30
   6   1   0   11.50    3.90
   7   1   0   70.29    6.30
   8   1   0    2.50    3.50
   9   1   0   66.69   11.40
   0   2   0 1156.78   30.80
   1   2   0   22.60    2.30
   2   2   0   26.80    2.10
   3   2   0   30.10    2.90
   4   2   0   87.09    3.70
   5   2   0  105.59    6.20
   6   2   0    5.30    9.00
   7   2   0   65.39   13.30
   8   2   0    2.50    4.40
   0   3   0    8.00    5.50
   1   3   0    0.00    4.50
   2   3   0    9.50    5.30
   3   3   0  307.87    9.20
   4   3   0   34.00   10.60
   6   3   0   29.90    9.40
   7   3   0   48.00   19.60
   1   4   0   27.40    9.30
   2   4   0   15.10    5.70
   4   4   0  199.98   14.90
   5   4   0    5.20    8.90
   0   5   0   88.09   20.30
  -9   0   1   15.60    9.50
  -8   0   1   36.50    8.70
  -7   0   1    6.10   14.80
  -6   0   1   13.70    7.00
  -5   0   1    0.00    0.80
  -4   0   1   40.20   10.50
  -3   0   1  340.77   38.80
  -2   0   1    0.10    0.30
  -1   0   1   21.80    1.40
   1   0   1    0.00    0.10
   2   0   1    0.00    6.70
   3   0   1    5.50    2.30
   4   0   1    1.00    1.40
   5   0   1   14.70    3.60
   6   0   1    0.00   12.20
   7   0   1    6.60   12.00
   8   0   1   41.90   10.00
   9   0   1    0.50    2.20
  -9   1   1  192.48   21.50
  -8   1   1    5.10    7.10
  -7   1   1   93.29    6.50
  -6   1   1    0.40    0.30
  -5   1   1   73.89    3.00
  -4   1   1  409.26    9.10
  -3   1   1  100.19    3.50
  -2   1   1   31.80    1.40
  -1   1   1 9999.00  218.48
   0   1   1   22.50    2.00
   1   1   1   73.99    2.00
   2   1   1  817.52   16.30
   3   1   1 1279.57   22.40
   4   1   1   70.69    2.60
   5   1   1   35.80    2.90
   6   1   1  821.02   19.10
   7   1   1  195.78    7.40
   8   1   1   23.30   10.00
  -8   2   1   38.90   22.80
  -7   2   1   17.90    7.80
  -6   2   1   88.99   13.00
  -5   2   1   68.79    6.30
  -4   2   1  677.43   15.90
  -3   2   1  130.39    5.80
  -2   2   1   13.50    1.70
  -1   2   1  150.88    4.60
   0   2   1   54.39    3.60
   1   2   1  227.58    5.60
   2   2   1  235.88    6.90
   3   2   1  455.95    9.40
   4   2   1   50.39    2.80
   5   2   1    0.00    0.30
   6   2   1   73.09    4.30
   7   2   1   76.39   14.70
   8   2   1    0.90    2.90
  -6   3   1  106.29   10.50
  -5   3   1  145.39   17.00
  -4   3   1  183.78   21.10
  -3   3   1    5.00    2.70
  -2   3   1    4.40    4.60
  -1   3   1   64.79    4.20
   0   3   1   25.40    3.40
   1   3   1   25.60    3.50
   2   3   1    9.00    8.40
   3   3   1    3.20    3.00
   4   3   1   75.79    9.70
   5   3   1   40.90   12.00
   6   3   1    0.50    3.50
   7   3   1    0.90    2.40
  -5   4   1   44.40   11.30
  -4   4   1    0.00   16.40
  -2   4   1  134.59    8.20
  -1   4   1  168.88   16.70
   1   4   1   57.29    7.50
   2   4   1    3.40    4.50
   3   4   1  245.68   29.80
   4   4   1  247.38   16.80
   5   4   1    0.00   10.30
   0   5   1   97.19   15.30
  -9   0   2   42.10   11.90
  -8   0   2   58.49   17.20
  -7   0   2   35.10    6.20
  -6   0   2   58.89    5.50
  -5   0   2   46.50    5.10
  -4   0   2   28.30    6.00
  -3   0   2 1988.50   55.09
  -2   0   2 1959.60   44.50
  -1   0   2  469.05   10.50
   1   0   2 3504.65   79.69
   2   0   2  727.73   16.00
   3   0   2  420.86   10.30
   4   0   2  569.34   13.30
   5   0   2 1201.88   29.90
   6   0   2  410.76   13.70
   7   0   2  345.47   11.70
   8   0   2  206.08   12.30
   9   0   2  126.09   16.60
  -9   1   2    5.60   14.40
  -8   1   2   17.30   12.30
  -7   1   2   53.69    6.00
  -6   1   2   45.70    9.20
  -5   1   2  156.98    4.80
  -4   1   2  609.44   13.30
  -3   1   2  630.64   15.30
  -2   1   2   56.99    2.20
  -1   1   2 1540.45   38.20
   0   1   2 4489.15   78.19
   1   1   2   67.79    1.90
   2   1   2   11.00    1.10
   3   1   2  809.02   13.10
   4   1   2   95.99    2.50
   5   1   2   70.79    2.60
   6   1   2   60.79    4.20
   7   1   2    0.20    0.30
   8   1   2   52.49    7.50
   9   1   2   76.59   11.10
  -8   2   2   24.10   24.50
  -7   2   2    7.50    8.30
  -6   2   2  100.49   11.80
  -5   2   2    5.30    5.20
  -4   2   2   11.60    2.30
  -3   2   2   19.50    3.50
  -2   2   2  426.56   10.30
  -1   2   2  143.29    7.20
   0   2   2  175.18    4.70
   1   2   2    7.60    1.70
   2   2   2  201.68    5.70
   3   2   2   19.90    2.20
   4   2   2    6.50    1.70
   5   2   2   94.49    4.50
   6   2   2   96.39    4.70
   7   2   2   71.79   10.30
   8   2   2    2.20    2.20
  -7   3   2  136.59   25.90
  -6   3   2   15.30   17.00
  -4   3   2  439.86   36.30
  -3   3   2  157.28    6.00
  -2   3   2   23.10    5.30
  -1   3   2  170.98    6.80
   0   3   2  548.05   11.10
   1   3   2    7.30    3.60
   2   3   2  368.86    9.20
   3   3   2   10.30    1.70
   4   3   2   83.49    4.70
   5   3   2   16.10    7.70
   6   3   2   51.89    9.70
   7   3   2    2.80    2.50
  -5   4   2   21.50   10.80
  -4   4   2    0.00   16.10
  -3   4   2  373.56   34.40
  -2   4   2   92.59   12.40
  -1   4   2  145.19   12.90
   0   4   2    0.00    2.70
   1   4   2    0.00   23.00
   2   4   2    4.50    6.00
   3   4   2  205.58   19.00
   4   4   2    3.30    2.50
   5   4   2    5.50    2.60
  -9   0   3    1.10   10.00
  -7   0   3    5.70    6.00
  -6   0   3    0.00    6.50
  -4   0   3    0.10    0.70
  -3   0   3  218.98   16.00
  -2   0   3    0.60    0.30
  -1   0   3    0.10    0.20
   0   0   3    1.70    1.10
   1   0   3    7.50    1.60
   2   0   3    0.20    0.30
   3   0   3    0.50    0.50
   4   0   3   17.60    8.00
   5   0   3   29.20    3.30
   6   0   3   24.70    6.50
   7   0   3   27.00   14.20
   8   0   3   40.00   14.40
   9   0   3    0.00    0.10
  -9   1   3    0.00   14.90
  -8   1   3   20.30    8.00
  -7   1   3   54.89    5.70
  -6   1   3    8.60    4.60
  -5   1   3   69.89    3.40
  -4   1   3 1454.25   30.50
  -3   1   3  200.98    5.20
  -2   1   3  138.79    3.80
  -1   1   3  561.64   10.40
   0   1   3 4514.45   87.09
   1   1   3  349.67    5.90
   2   1   3   37.80    1.40
   3   1   3  916.31   14.70
   4   1   3  298.07    5.40
   5   1   3  262.97    5.80
   6   1   3  289.07    7.50
   7   1   3   46.90   19.10
   8   1   3   57.59    8.10
   9   1   3  201.98   11.50
  -8   2   3   32.90   23.40
  -7   2   3  105.29   10.80
  -6   2   3   17.80   11.50
  -5   2   3 1133.49   33.50
  -4   2   3  368.66   11.30
  -3   2   3   25.60    3.10
  -2   2   3 1114.89   22.10
  -1   2   3 4656.83   97.69
   0   2   3   93.59    2.50
   1   2   3   60.49    2.20
   2   2   3 1239.18   21.90
   3   2   3  395.06    7.80
   4   2   3   42.90    2.30
   5   2   3   21.60    3.20
   6   2   3  127.09    6.30
   7   2   3   98.99    7.20
   8   2   3   14.60    3.90
  -7   3   3    8.60   18.90
  -6   3   3   28.20    8.90
  -4   3   3  351.16   20.40
  -3   3   3   51.09    4.50
  -2   3   3  263.87    9.60
  -1   3   3  231.58    8.60
   0   3   3    7.30    3.30
   1   3   3    0.00    0.10
   2   3   3  136.29    4.70
   3   3   3   17.30    3.60
   4   3   3  141.29    5.50
   5   3   3   27.60    9.30
   6   3   3    0.00    0.10
   7   3   3   64.49   26.20
  -5   4   3   24.70   11.90
  -4   4   3   15.90   13.30
  -3   4   3    0.00   14.30
  -2   4   3  170.88   15.00
  -1   4   3   49.90   12.80
   0   4   3    5.90    2.70
   1   4   3   25.40    7.50
   2   4   3  110.69   10.40
   3   4   3   94.49   13.80
   4   4   3    0.00    0.10
   5   4   3  116.29   12.60
  -9   0   4    8.00   10.90
  -7   0   4   78.79    8.00
  -6   0   4  125.19    7.10
  -5   0   4 1095.29   49.30
  -4   0   4 1502.35   36.60
  -3   0   4 1145.39   34.90
  -2   0   4  509.85   12.30
  -1   0   4 1616.34   36.10
   0   0   4 2985.10   78.39
   1   0   4   93.39    2.90
   2   0   4 1619.04   36.40
   3   0   4 1158.28   25.40
   4   0   4   92.69    3.60
   5   0   4  219.78    6.50
   6   0   4  234.58    8.70
   7   0   4  123.99    9.10
   8   0   4  159.08   11.30
   9   0   4   60.89   12.60
  -9   1   4   70.79   19.30
  -8   1   4   59.79   10.40
  -7   1   4   29.90    9.60
  -6   1   4  197.08   14.30
  -5   1   4   21.90    2.20
  -4   1   4   53.39    4.10
  -3   1   4   19.40    1.90
  -2   1   4 1004.20   15.90
  -1   1   4  347.57    5.60
   0   1   4 1040.20   18.70
   1   1   4  168.68    3.00
   2   1   4  139.69    3.00
   3   1   4   32.80    2.00
   4   1   4   30.40    1.90
   5   1   4  301.57    6.00
   6   1   4  111.89    4.90
   7   1   4    4.60    2.10
   8   1   4   99.69    8.10
   9   1   4    1.40    2.50
  -8   2   4   37.20   18.20
  -7   2   4   31.30   12.80
  -6   2   4   54.59   13.10
  -5   2   4   63.99    7.20
  -4   2   4   80.49    5.00
  -3   2   4  281.07    8.00
  -2   2   4   10.60    2.10
  -1   2   4  614.04   11.80
   0   2   4    9.20    1.80
   1   2   4  480.25    8.30
   2   2   4  462.95    8.40
   3   2   4   90.09    2.90
   4   2   4   19.40    2.70
   5   2   4   27.90    3.60
   6   2   4   82.29    4.70
   7   2   4   35.40    8.40
   8   2   4   37.50   21.30
  -7   3   4   78.19   22.00
  -6   3   4   17.30    8.70
  -4   3   4    9.40    6.20
  -3   3   4    9.40    5.70
  -2   3   4  574.94   16.40
  -1   3   4  110.79    4.20
   0   3   4   43.60    3.30
   1   3   4  572.54   10.70
   2   3   4   74.79    3.20
   3   3   4  315.57    8.00
   4   3   4  172.58    7.10
   5   3   4  126.59    6.00
   6   3   4  201.58   10.90
   7   3   4   65.09   25.70
  -5   4   4  212.68   28.40
  -4   4   4   21.10   12.00
  -3   4   4  135.49   20.50
  -2   4   4  101.29   10.60
  -1   4   4    4.80   10.10
   0   4   4    2.40    0.90
   1   4   4   88.59    6.90
   2   4   4  211.98    9.70
   3   4   4   88.99   12.80
   4   4   4   51.89   23.80
   5   4   4   50.49   11.70
  -9   0   5   13.20   16.20
  -7   0   5   37.60    6.50
  -6   0   5   11.00    5.80
  -5   0   5    3.20    7.10
  -4   0   5    1.80    1.60
  -3   0   5    0.50    1.30
  -2   0   5    0.10    0.30
  -1   0   5    0.00    0.10
   0   0   5    6.10    1.70
   1   0   5    0.70    0.80
   2   0   5    0.50    0.40
   3   0   5    0.10    0.10
   4   0   5    0.70    0.50
   5   0   5    1.10    2.20
   6   0   5   17.70    8.70
   7   0   5   43.70   19.20
   8   0   5    3.40    2.10
   9   0   5   58.19   30.20
  -8   1   5   44.80   11.00
  -7   1   5   11.30    5.70
  -6   1   5   11.10    7.60
  -5   1   5 1272.77   22.70
  -4   1   5  378.96    9.00
  -3   1   5   34.50    1.40
  -2   1   5  151.28    3.20
  -1   1   5 1689.83   28.90
   0   1   5  460.45    7.90
   1   1   5  189.78    3.60
   2   1   5  666.33   10.80
   3   1   5  135.59    3.00
   4   1   5   58.09    2.20
   5   1   5  200.98    4.60
   6   1   5  216.58    7.20
   7   1   5    4.80    3.60
   8   1   5   71.39   10.20
   9   1   5   63.59   17.30
  -8   2   5  255.57   21.90
  -6   2   5   41.20   10.90
  -5   2   5  168.08    9.20
  -4   2   5 1232.48   30.10
  -3   2   5  106.49    3.70
  -2   2   5  133.59    3.20
  -1   2   5 2553.04   41.50
   0   2   5   19.20    4.50
   1   2   5   63.89    2.00
   2   2   5  336.27    6.20
   3   2   5   14.80    2.70
   4   2   5  405.16    8.20
   5   2   5  579.64   12.90
   6   2   5  178.18    6.40
   7   2   5  343.97   12.00
   8   2   5    1.80    2.10
  -7   3   5   93.19   24.00
  -6   3   5   40.30   10.80
  -5   3   5  116.99   14.00
  -4   3   5  170.88    9.20
  -3   3   5   21.80    4.90
  -2   3   5  177.58    6.30
  -1   3   5  169.98    4.60
   0   3   5  510.35   10.40
   1   3   5   44.00    3.00
   2   3   5  171.38    4.80
   3   3   5   20.40    4.80
   4   3   5  106.09    4.90
   5   3   5   21.90    5.50
   6   3   5    0.00    0.10
   7   3   5   58.89   16.20
  -5   4   5   23.40   19.00
  -3   4   5   53.99   26.20
  -2   4   5   51.09    8.00
  -1   4   5   37.20    7.80
   1   4   5   41.60    9.80
   2   4   5   41.00    8.10
   3   4   5   86.19   19.50
   4   4   5   58.89   23.80
   5   4   5   70.79   11.40
  -7   0   6   17.60    7.20
  -6   0   6 1374.46   44.20
  -5   0   6   18.90    5.70
  -4   0   6  188.98    5.40
  -3   0   6  430.46   10.10
  -2   0   6 1365.06   36.40
  -1   0   6   38.10    1.70
   0   0   6   22.70    1.40
   1   0   6 1847.92   43.50
   2   0   6  381.36    9.30
   3   0   6  276.37    7.30
   4   0   6   21.60    3.00
   5   0   6  874.71   21.10
   6   0   6   29.70    9.30
   7   0   6   27.80   16.80
   8   0   6  174.08   13.70
   9   0   6    3.50    2.60
  -8   1   6   57.69   16.30
  -7   1   6   19.90    4.80
  -6   1   6  188.48    9.40
  -5   1   6 1122.69   22.00
  -4   1   6   91.59    2.70
  -3   1   6    0.50    0.30
  -2   1   6 2119.89   32.60
  -1   1   6   81.99    1.90
   0   1   6  340.27    7.20
   1   1   6  226.88    4.30
   2   1   6   17.30    1.40
   3   1   6  366.56    6.70
   4   1   6  365.46    6.50
   5   1   6   35.10    2.30
   6   1   6   60.29    3.90
   7   1   6   48.10   12.30
   8   1   6   58.19    9.10
   9   1   6   99.29   23.90
  -8   2   6   26.80   10.90
  -6   2   6   42.50   14.00
  -5   2   6   82.49    6.20
  -4   2   6   33.10    3.20
  -3   2   6   18.90    2.20
  -2   2   6    0.30    0.20
  -1   2   6  289.37    5.40
   0   2   6  372.86    8.20
   1   2   6  126.69    3.20
   2   2   6    0.60    0.40
   3   2   6  493.65    8.60
   4   2   6   55.89    3.00
   5   2   6   17.20    5.70
   6   2   6    4.00    3.00
   7   2   6   58.09    7.20
   8   2   6   38.20   17.50
  -7   3   6   69.59   13.80
  -6   3   6   97.29   19.30
  -5   3   6  424.56   29.50
  -4   3   6   38.50    5.90
  -3   3   6   15.10    4.60
  -2   3   6 1310.77   24.10
  -1   3   6  295.77    6.20
   0   3   6   43.50    3.60
   1   3   6    0.50    0.90
   2   3   6  392.86    9.80
   3   3   6   30.10    3.30
   4   3   6  101.59    4.70
   5   3   6   22.70    6.10
   6   3   6   77.39    9.10
   7   3   6   16.50    6.00
  -4   4   6    2.20   16.50
  -3   4   6  145.19   29.70
  -2   4   6  400.26   21.70
  -1   4   6  167.38   10.50
   0   4   6   52.29   12.60
   1   4   6  331.67   13.80
   2   4   6   64.29   12.10
   3   4   6   23.80   11.90
   4   4   6   56.09   24.50
   5   4   6   70.09   12.40
  -7   0   7    2.50    1.80
  -6   0   7    2.50    1.10
  -5   0   7    0.60    1.60
  -4   0   7    0.30    0.60
  -3   0   7    0.00    0.10
  -2   0   7    0.20    0.60
  -1   0   7    5.90    1.90
   0   0   7    0.10    0.10
   1   0   7    0.10    0.10
   2   0   7    0.40    0.30
   3   0   7    0.90    0.90
   4   0   7    0.10    0.40
   5   0   7   18.80   10.00
   6   0   7   30.30   16.10
   7   0   7   54.69   28.80
   8   0   7    7.90    4.20
   9   0   7    0.00    0.10
  -9   1   7    0.00   17.00
  -8   1   7  135.09   15.10
  -7   1   7  137.89    8.10
  -6   1   7    1.10    2.00
  -5   1   7  133.19    3.80
  -4   1   7  142.69    3.40
  -3   1   7   15.90    2.10
  -2   1   7  112.99    2.50
  -1   1   7  106.79    2.60
   0   1   7  614.44   12.10
   1   1   7   93.29    2.30
   2   1   7 1178.78   19.30
   3   1   7  140.29    3.30
   4   1   7  304.27    5.80
   5   1   7  179.28    4.90
   6   1   7  368.06    9.70
   7   1   7  231.48    8.80
   8   1   7    2.50    1.90
  -8   2   7   44.60   18.40
  -7   2   7   17.70   13.60
  -6   2   7  300.17   14.90
  -5   2   7  379.36   13.00
  -4   2   7   36.50    3.10
  -3   2   7  668.93   12.50
  -2   2   7    4.00    1.10
  -1   2   7  604.64   11.20
   0   2   7   25.80    2.20
   1   2   7  721.63   13.10
   2   2   7  618.34   10.70
   3   2   7   18.20    5.10
   4   2   7  284.57    6.70
   5   2   7    1.80    3.10
   6   2   7  327.07   10.10
   7   2   7    0.60    1.20
   8   2   7   60.09    9.80
  -7   3   7   28.60   12.40
  -6   3   7    0.00   16.80
  -5   3   7    0.00    0.10
  -4   3   7   65.09    5.40
  -3   3   7  221.18    6.50
  -2   3   7  112.39    3.90
  -1   3   7  425.96    9.40
   0   3   7   65.49    3.80
   1   3   7   51.99    3.90
   2   3   7   30.80    4.20
   3   3   7   44.60    3.30
   4   3   7   90.79    4.90
   5   3   7  213.88    8.30
   6   3   7    2.70    2.60
   7   3   7   38.80   20.40
  -5   4   7    0.00    0.10
  -4   4   7   55.19   11.30
  -3   4   7  386.76   24.40
  -2   4   7  133.39    9.60
  -1   4   7  145.99    7.80
   0   4   7  143.99    8.90
   1   4   7  148.39    8.20
   2   4   7   50.29    8.30
   3   4   7   35.60   12.60
   4   4   7   35.80   13.50
   5   4   7   45.60   22.30
  -9   0   8  936.11   65.89
  -8   0   8   25.70   13.40
  -7   0   8   48.60    7.00
  -6   0   8 1487.65   38.40
  -5   0   8 1744.93   42.40
  -4   0   8   26.80    3.00
  -3   0   8  626.34   14.90
  -2   0   8 3940.21   87.59
  -1   0   8  506.65   13.50
   0   0   8  484.15   11.80
   1   0   8 1334.07   31.60
   2   0   8  162.88    4.70
   3   0   8  277.67    7.50
   4   0   8  743.53   18.00
   5   0   8  692.73   17.30
   6   0   8  445.56   17.90
   7   0   8   42.80   20.30
   8   0   8  329.97   18.20
   9   0   8    0.00    0.10
  -9   1   8    9.70   18.10
  -8   1   8  149.39   12.10
  -7   1   8    1.50    1.20
  -6   1   8  223.98    6.30
  -5   1   8  248.58    5.30
  -4   1   8    1.20    0.60
  -3   1   8   55.89    1.90
  -2   1   8  252.27    4.60
  -1   1   8  113.29    2.40
   0   1   8  646.04   11.50
   1   1   8  757.62   12.60
   2   1   8  197.08    3.90
   3   1   8  466.45    8.20
   4   1   8    0.00    0.10
   5   1   8  556.34   11.20
   6   1   8   33.40    4.70
   7   1   8  128.89    8.20
   8   1   8   86.49    8.50
  -8   2   8   35.10   13.60
  -7   2   8    4.90    3.20
  -6   2   8   52.79    7.70
  -5   2   8    3.90    1.30
  -4   2   8  108.69    4.10
  -3   2   8   75.59    2.80
  -2   2   8   28.50    1.80
  -1   2   8   14.40    2.10
   0   2   8  165.68    4.00
   1   2   8    1.50    1.50
   2   2   8    0.70    1.50
   3   2   8    0.70    0.50
   4   2   8   87.09    3.60
   5   2   8   92.79    4.10
   6   2   8   59.39    4.70
   7   2   8    4.80    1.90
   8   2   8    9.60    7.20
  -7   3   8    2.30    4.10
  -6   3   8  135.99   13.30
  -5   3   8   70.49   25.40
  -4   3   8   44.40    4.50
  -3   3   8    3.40    1.10
  -2   3   8  496.85   10.20
  -1   3   8   50.39    3.60
   0   3   8   30.30    3.80
   1   3   8  425.96   10.30
   2   3   8    9.70    3.80
   3   3   8   66.99    3.70
   4   3   8   24.90    5.70
   5   3   8  315.07   10.10
   6   3   8    4.00    3.10
  -5   4   8   71.69   16.40
  -4   4   8   28.30   12.00
  -3   4   8  136.69   10.50
  -2   4   8  262.67   11.40
  -1   4   8   53.49    7.60
   0   4   8   54.99    7.30
   1   4   8   74.79    9.70
   2   4   8  139.99   10.90
   3   4   8   82.79    7.70
   4   4   8  258.47   14.00
  -9   0   9    2.20   20.60
  -8   0   9    2.40    3.20
  -7   0   9   23.60    6.30
  -6   0   9   20.20    5.30
  -5   0   9    0.10    0.10
  -4   0   9   14.40    3.40
  -3   0   9    0.60    0.80
  -2   0   9    0.00    1.00
  -1   0   9    0.40    0.80
   0   0   9    8.60    3.40
   1   0   9    8.00    2.10
   2   0   9   10.50    2.40
   3   0   9    0.00    0.10
   4   0   9    0.00    0.10
   5   0   9   21.30    6.40
   6   0   9    0.00    0.10
   7   0   9   46.30   13.30
   8   0   9   67.59   13.10
  -9   1   9    3.80    4.80
  -8   1   9   32.90   11.10
  -7   1   9  511.95   14.60
  -6   1   9  591.84   12.70
  -5   1   9   42.80    2.70
  -4   1   9  230.88    4.70
  -3   1   9 2225.58   34.60
  -2   1   9  102.29    2.40
  -1   1   9   49.50    1.80
   0   1   9   73.89    2.10
   1   1   9   92.49    2.40
   2   1   9  336.37    5.90
   3   1   9   27.20    1.60
   4   1   9    0.90    0.40
   5   1   9  335.27    7.80
   6   1   9   30.30    6.30
   7   1   9   41.40    9.80
   8   1   9   63.49   18.70
  -8   2   9   30.40   15.30
  -7   2   9  100.09    9.70
  -6   2   9  292.37   11.40
  -4   2   9    3.00    1.20
  -3   2   9  251.37    5.00
  -2   2   9  321.57    6.30
  -1   2   9  102.39    3.10
   0   2   9  716.13   13.00
   1   2   9    0.00    1.10
   2   2   9    2.10    0.60
   3   2   9   26.40    2.80
   4   2   9  642.14   14.40
   5   2   9  117.39    4.80
   6   2   9   39.70    4.60
   7   2   9   95.39    7.80
  -7   3   9   48.40   18.00
  -6   3   9   58.39    9.70
  -5   3   9   93.39    7.90
  -4   3   9  162.08    6.50
  -3   3   9   25.20    6.70
  -2   3   9    2.10    2.20
  -1   3   9   22.70    5.50
   0   3   9  123.89    5.70
   1   3   9   61.09    4.80
   2   3   9   96.49    5.00
   3   3   9  218.88    6.20
   4   3   9   58.79    4.60
   5   3   9    1.20    1.20
   6   3   9   57.59   31.00
  -4   4   9  108.59   22.00
  -3   4   9   55.49   17.70
  -2   4   9  280.67   13.60
  -1   4   9  227.08    9.00
   0   4   9   43.00   13.10
   1   4   9   77.99   10.50
   2   4   9   93.09   16.00
   3   4   9   43.40    7.00
   4   4   9   93.89   11.80
  -9   0  10    6.40    4.60
  -8   0  10    0.10    0.30
  -7   0  10  239.78   11.20
  -6   0  10  151.68    7.80
  -5   0  10  107.09    5.10
  -4   0  10 1169.18   27.20
  -3   0  10  392.46   10.60
  -2   0  10    2.50    0.70
  -1   0  10  360.86    9.20
   0   0  10  876.71   21.10
   1   0  10 3325.17   89.69
   2   0  10 1461.25   36.00
   3   0  10  762.82   18.20
   4   0  10  881.51   21.10
   5   0  10  959.60   27.90
   6   0  10  171.28   12.50
   8   0  10  270.17   17.40
  -9   1  10  110.69   14.80
  -8   1  10   47.10   12.50
  -7   1  10   34.80    9.90
  -6   1  10  200.08    6.10
  -5   1  10  125.29    3.80
  -4   1  10  158.78    3.60
  -3   1  10   22.90    1.50
  -2   1  10  212.28    4.10
  -1   1  10  210.38    4.60
   0   1  10  140.69    3.30
   1   1  10  194.78    4.10
   2   1  10    0.50    0.30
   3   1  10   70.29    2.30
   4   1  10  611.04   11.90
   5   1  10    1.70    2.70
   6   1  10    2.40    1.00
   7   1  10   39.70    6.40
   8   1  10   41.00   10.10
  -8   2  10   61.09   26.10
  -7   2  10  111.29   11.50
  -6   2  10    7.80    2.90
  -5   2  10  133.89    4.80
  -4   2  10  231.78    5.50
  -3   2  10  146.39    4.20
  -2   2  10   10.30    2.90
  -1   2  10   74.49    2.80
   0   2  10    1.30    0.40
   1   2  10   74.29    2.70
   2   2  10  109.19    3.30
   3   2  10    2.40    1.10
   4   2  10  117.19    4.60
   5   2  10   30.50    7.50
   6   2  10    1.80    1.10
   7   2  10    0.80    1.40
  -7   3  10   75.49   18.90
  -6   3  10   35.90   19.10
  -5   3  10   85.29    7.40
  -4   3  10   43.90   23.80
  -3   3  10  308.47    6.80
  -2   3  10   22.50    4.70
  -1   3  10   20.00    5.50
   0   3  10  247.48    7.10
   1   3  10  111.29    5.60
   2   3  10   18.00    7.20
   3   3  10  173.08    6.40
   4   3  10  232.58    7.50
   5   3  10   41.60   20.20
   6   3  10   75.49   19.60
  -4   4  10   48.90   10.70
  -3   4  10   37.20   10.30
  -2   4  10  113.39    9.60
  -1   4  10   40.60    6.70
   0   4  10  116.59    7.40
   1   4  10  380.86   18.00
   2   4  10   72.59   10.90
   3   4  10   99.59   11.50
   4   4  10  103.99   32.20
  -9   0  11   39.60   18.60
  -8   0  11   39.50   11.70
  -7   0  11    6.30    2.80
  -5   0  11    3.60    2.50
  -4   0  11    3.90    2.00
  -3   0  11    0.00    0.10
  -2   0  11    0.00    0.10
  -1   0  11    0.10    0.10
   0   0  11    0.10    0.10
   1   0  11    0.90    1.00
   2   0  11    0.40    0.50
   3   0  11   16.20    4.40
   4   0  11    0.50    0.50
   5   0  11    0.30    0.30
   6   0  11    0.20    0.40
   7   0  11    4.40    4.10
   8   0  11    1.80    3.30
  -8   1  11  107.29   10.20
  -7   1  11   24.00    5.40
  -6   1  11  303.17    7.70
  -5   1  11  158.08    4.10
  -4   1  11  306.87    5.70
  -3   1  11    0.20    0.10
  -2   1  11   29.60    1.40
  -1   1  11  164.28    3.90
   0   1  11 2252.77   38.70
   1   1  11  511.15    9.00
   2   1  11  318.77    5.90
   3   1  11  830.72   14.50
   4   1  11  605.94   11.70
   5   1  11  183.98    5.50
   6   1  11   74.09    7.20
   7   1  11  159.58    8.40
   8   1  11   41.20   19.40
  -8   2  11   72.39   16.10
  -7   2  11  559.14   19.20
  -6   2  11  275.47   11.10
  -5   2  11  103.29    4.60
  -4   2  11   21.60    3.60
  -3   2  11  572.34   12.00
  -2   2  11    0.00    0.10
  -1   2  11  231.68    6.00
   0   2  11   46.00    2.30
   1   2  11   82.39    2.90
   2   2  11   98.99    3.40
   3   2  11  623.34   12.60
   4   2  11    2.70    2.10
   5   2  11   55.29    4.80
   6   2  11    3.10    1.60
  -6   3  11  109.39   11.50
  -4   3  11    0.00    0.10
  -3   3  11   85.49    5.20
  -2   3  11   25.40    3.90
  -1   3  11  130.09    5.10
   0   3  11  207.78    6.30
   1   3  11   33.00    4.60
   2   3  11  120.39    5.90
   3   3  11   49.50    6.50
   4   3  11  108.69    6.50
   5   3  11   29.50   10.10
   6   3  11    2.90    2.70
  -4   4  11    1.70    0.90
  -3   4  11   43.10   24.40
  -2   4  11   64.09    8.90
  -1   4  11   50.89    7.80
   0   4  11   53.89    8.00
   1   4  11   72.19    8.90
   2   4  11   58.29   12.10
   3   4  11   37.90   14.00
  -7   0  12  452.05   18.70
  -6   0  12  225.28    9.40
  -5   0  12   31.70    4.60
  -4   0  12   23.80    3.00
  -3   0  12  482.65   12.80
  -2   0  12  454.05   11.00
  -1   0  12 1993.60   51.79
   0   0  12   43.70    2.10
   1   0  12   88.39    3.50
   2   0  12  691.73   16.50
   3   0  12  235.18    6.80
   4   0  12   24.30    3.80
   5   0  12  270.37   11.20
   6   0  12  213.18   11.40
   7   0  12    4.10    3.90
   8   0  12  124.89   27.20
  -8   1  12  137.39   12.10
  -7   1  12   59.89    5.50
  -6   1  12   37.70    4.00
  -5   1  12   44.00    3.20
  -4   1  12  334.27    7.00
  -3   1  12    0.80    0.50
  -2   1  12   12.80    1.30
  -1   1  12   89.69    2.90
   0   1  12  114.69    3.10
   1   1  12  432.26    8.30
   2   1  12    0.90    0.60
   3   1  12  115.69    3.20
   4   1  12  165.78    4.60
   5   1  12  107.09    4.70
   6   1  12    0.10    1.10
   7   1  12   51.49   18.20
   8   1  12   84.49   10.60
  -8   2  12    0.00    0.10
  -7   2  12   57.29    9.10
  -6   2  12   34.20    9.60
  -5   2  12   20.20    4.90
  -4   2  12  201.28    5.50
  -3   2  12  261.27    7.00
  -2   2  12    1.80    0.50
  -1   2  12   12.10    2.40
   0   2  12    6.80    3.30
   1   2  12   11.00    4.00
   2   2  12  237.18    5.90
   3   2  12   61.09    3.40
   4   2  12   87.59    4.50
   5   2  12    0.50    0.60
   6   2  12   92.29    6.40
   7   2  12   54.99   10.10
  -6   3  12  144.69   15.00
  -5   3  12   37.20   12.60
  -4   3  12  205.78    8.10
  -3   3  12   32.30    6.60
  -2   3  12   85.19    4.70
  -1   3  12  154.28    5.70
   0   3  12   17.00    4.80
   1   3  12  416.16   12.60
   3   3  12    8.00    3.80
   4   3  12   45.90    9.80
   5   3  12   54.69   21.20
  -3   4  12  130.89   24.40
  -2   4  12   78.29   19.70
  -1   4  12   45.70    9.70
   0   4  12   50.49   11.20
   1   4  12   38.60    9.90
   2   4  12   39.70   23.20
   3   4  12   93.89   29.10
  -8   0  13   24.50   13.30
  -7   0  13    0.00    0.10
  -6   0  13   22.90    9.20
  -5   0  13    0.00    0.10
  -4   0  13    0.70    0.50
  -3   0  13    0.10    0.20
  -2   0  13    0.40    1.00
  -1   0  13    1.20    1.00
   0   0  13    0.30    0.30
   1   0  13   14.00    4.40
   2   0  13   10.30    2.60
   3   0  13    0.50    0.60
   4   0  13    0.80    1.50
   5   0  13    0.00    0.10
   6   0  13    0.20    0.50
   7   0  13   49.20   16.50
   8   0  13   67.29   35.40
  -8   1  13   52.39   11.60
  -7   1  13  179.48    9.00
  -6   1  13   30.10    4.50
  -5   1  13   28.30    2.90
  -4   1  13  364.16    7.80
  -3   1  13  667.93   11.40
  -2   1  13   78.99    2.80
  -1   1  13  335.47    7.90
   0   1  13    2.00    0.40
   1   1  13   18.70    2.00
   2   1  13    0.60    0.80
   3   1  13  127.89    3.80
   4   1  13  269.17    6.70
   5   1  13  105.29    5.30
   6   1  13   34.10   11.80
   7   1  13   56.69   16.70
  -7   2  13   78.99   11.20
  -6   2  13  126.19    8.50
  -5   2  13  130.29    5.30
  -4   2  13  155.28    5.20
  -3   2  13   84.49    3.60
  -2   2  13  267.07    6.10
  -1   2  13    0.10    0.20
   0   2  13 2069.09   47.40
   1   2  13  247.58    6.90
   2   2  13  204.18    7.80
   3   2  13  317.37    8.50
   4   2  13  468.05   11.10
   5   2  13   25.20   10.90
   6   2  13   64.59   11.80
   7   2  13   77.79    9.50
  -6   3  13   63.39   20.40
  -5   3  13   72.69   12.20
  -4   3  13   59.09   24.50
  -3   3  13   36.70    5.40
  -2   3  13    0.40    1.50
  -1   3  13  230.48    8.00
   0   3  13    4.50    2.70
   1   3  13  214.18    8.10
   2   3  13   45.30    5.30
   3   3  13  130.29    7.50
   4   3  13   81.69   20.50
   5   3  13    1.20    0.80
  -3   4  13   64.89   17.80
  -2   4  13   60.39   21.60
  -1   4  13   77.99   17.60
   0   4  13   92.69   13.60
   2   4  13    0.50    0.50
  -8   0  14  195.48   12.60
  -7   0  14   32.30    9.40
  -6   0  14   47.10   21.90
  -5   0  14  194.58    8.00
  -4   0  14 1544.95   37.70
  -3   0  14   29.10    3.20
  -2   0  14  129.29    4.20
  -1   0  14  213.48    6.30
   0   0  14  290.47    7.80
   1   0  14   60.69    2.80
   2   0  14  117.79    4.60
   3   0  14  926.81   23.80
   4   0  14  261.97    9.60
   5   0  14    1.10    1.40
   6   0  14    0.60    1.70
   7   0  14   49.30   17.40
  -8   1  14   59.59   13.10
  -7   1  14  129.99    8.10
  -6   1  14   43.90    4.40
  -5   1  14   91.89    3.90
  -4   1  14   17.30    2.60
  -3   1  14   26.10    2.10
  -2   1  14   13.90    5.40
  -1   1  14 1050.49   21.90
   0   1  14   29.90    2.00
   1   1  14   96.69    3.20
   2   1  14  141.19    3.90
   3   1  14  152.88    4.30
   4   1  14    2.50    1.10
   5   1  14   52.89    4.60
   6   1  14    6.20    1.70
   7   1  14   66.49   17.00
  -7   2  14   49.90   11.00
  -6   2  14   38.00   11.30
  -5   2  14   51.19   11.50
  -4   2  14   41.80    3.90
  -3   2  14   62.59    3.20
  -2   2  14  135.69    5.10
  -1   2  14    0.70    0.60
   0   2  14   45.20    3.80
   1   2  14   31.50   18.10
   2   2  14   24.70    7.60
   3   2  14  113.29    5.20
   4   2  14    1.80    1.60
   5   2  14   28.80    7.40
   6   2  14   81.79   25.10
  -5   3  14   43.50   14.20
  -4   3  14   45.00   15.60
  -3   3  14   29.50    8.20
  -2   3  14   46.90    9.50
  -1   3  14  440.36   12.90
   0   3  14   55.39    5.60
   1   3  14   88.49    5.50
   2   3  14  110.79    7.60
   3   3  14  332.07   11.70
   4   3  14  139.39    7.90
   5   3  14    0.60    0.90
  -2   4  14   84.09   14.50
   0   4  14   46.40   10.40
   1   4  14   77.69   12.90
   2   4  14  212.78   16.20
  -7   0  15    0.00    0.10
  -6   0  15    0.60    0.70
  -5   0  15   20.70   10.90
  -3   0  15   20.10    5.90
  -2   0  15    1.20    1.50
  -1   0  15   19.30    9.70
   0   0  15   19.40    4.40
   1   0  15    1.00    1.00
   2   0  15   21.50   10.80
   3   0  15    0.80    1.60
   4   0  15   18.30    7.40
   5   0  15    0.10    0.40
   6   0  15    0.10    0.60
   7   0  15    2.50    2.30
  -8   1  15   46.30   11.90
  -7   1  15   56.89    6.70
  -6   1  15   31.80    5.00
  -5   1  15  338.27    8.70
  -4   1  15  283.97    6.80
  -3   1  15  259.77    5.70
  -2   1  15  134.19    4.10
  -1   1  15   15.30    2.40
   0   1  15  763.32   15.00
   1   1  15   15.70    3.70
   2   1  15  751.12   15.00
   3   1  15  215.48    6.10
   4   1  15   28.90    5.60
   5   1  15   42.70   17.20
   6   1  15    2.20    2.50
   7   1  15    3.30    2.40
  -7   2  15   93.09   14.70
  -5   2  15  113.09    6.40
  -4   2  15   27.00    6.20
  -3   2  15   97.29    3.90
  -2   2  15  143.39    5.50
  -1   2  15  213.68    6.90
   0   2  15  216.98    7.10
   1   2  15   16.60    5.70
   2   2  15   15.80    3.00
   3   2  15    2.60    3.20
   4   2  15   92.29    5.60
   5   2  15  101.39    6.70
   6   2  15   57.69   34.20
  -5   3  15   77.49   14.20
  -4   3  15   55.19   12.50
  -3   3  15  145.59   12.90
  -2   3  15   47.80    8.90
  -1   3  15    2.10    1.40
   0   3  15   43.90    6.60
   1   3  15   33.20    9.60
   2   3  15   55.49    8.50
   3   3  15  116.89    8.60
   4   3  15   42.00   14.70
  -1   4  15  100.19   15.00
   0   4  15   57.39   18.00
   1   4  15  110.99   18.80
  -8   0  16    0.00    0.10
  -7   0  16  107.79   11.30
  -6   0  16  136.19   10.20
  -5   0  16  667.23   21.40
  -4   0  16  465.95   15.40
  -3   0  16   21.90    3.00
  -2   0  16  258.57    8.00
  -1   0  16 2667.43   62.99
   0   0  16   86.49    3.80
   1   0  16  641.14   17.70
   2   0  16  748.73   24.70
   3   0  16  342.37   10.90
   4   0  16    5.60    3.10
   5   0  16   52.19    7.40
   6   0  16   40.80   21.30
   7   0  16   91.49   16.90
  -7   1  16    0.00    0.10
  -6   1  16   83.29    6.40
  -5   1  16   18.70    8.00
  -4   1  16  349.67    8.10
  -3   1  16   23.90    3.90
  -2   1  16  338.47    8.10
  -1   1  16  390.96    8.80
   0   1  16  242.38    6.10
   1   1  16   25.40    3.00
   2   1  16   14.90    3.80
   3   1  16   90.49    5.40
   4   1  16   84.99    4.40
   5   1  16    5.20    2.50
   6   1  16    0.00    0.40
  -6   2  16   49.80   20.40
  -5   2  16   46.50   11.50
  -4   2  16   94.09    5.60
  -3   2  16    0.50    0.70
  -2   2  16   30.60   14.40
  -1   2  16   58.29    5.10
   0   2  16   86.69    8.00
   1   2  16  173.18    8.50
   2   2  16    0.80    0.80
   3   2  16  112.19    7.20
   4   2  16    1.40    1.80
   5   2  16   55.69   14.40
   6   2  16   30.30   12.80
  -4   3  16  209.08   15.60
  -3   3  16   54.89   19.40
  -2   3  16  134.39    9.50
  -1   3  16  103.29    7.50
   0   3  16   22.70   12.80
   1   3  16   54.29   11.20
   2   3  16    1.20    4.00
   3   3  16   24.80   14.90
   4   3  16   30.00    9.60
  -6   0  17    0.00    0.90
  -5   0  17   28.40   11.30
  -4   0  17    2.40    2.10
  -3   0  17   22.80    8.30
  -2   0  17    0.40    1.20
  -1   0  17   13.70    2.50
   0   0  17    2.20    1.60
   1   0  17    0.80    1.70
   2   0  17    1.20    1.60
   3   0  17    2.40    2.70
   5   0  17    0.10    0.50
   6   0  17    0.00    0.70
  -7   1  17    0.00    0.10
  -6   1  17   49.90    5.40
  -5   1  17   30.20    5.30
  -4   1  17   24.60    6.30
  -3   1  17   35.20    5.10
  -2   1  17  374.96   11.10
  -1   1  17   17.70    3.40
   0   1  17  344.87    8.70
   1   1  17  153.58    5.20
   2   1  17  295.27    8.60
   3   1  17    0.00    0.40
   4   1  17    4.90    1.60
   5   1  17   95.49    7.20
   6   1  17    3.20    1.90
  -5   2  17  414.26   15.80
  -4   2  17   55.19    5.20
  -3   2  17  117.79    5.80
  -2   2  17  422.86   17.50
  -1   2  17  122.09    6.40
   0   2  17    2.10    2.30
   1   2  17    0.00    0.10
   2   2  17  203.68    9.70
   3   2  17   72.69    6.40
   4   2  17   95.29    8.00
   5   2  17    2.40    1.70
  -4   3  17   48.40   15.90
  -3   3  17   32.40   21.80
  -2   3  17   53.09    8.10
  -1   3  17   96.99   11.20
   0   3  17   49.99   31.60
   1   3  17   49.70   10.20
   2   3  17   31.70   10.20
   3   3  17   31.60    8.80
  -7   0  18   40.20   20.00
  -6   0  18   60.99    6.90
  -5   0  18    0.90    0.80
  -4   0  18  306.97   12.20
  -3   0  18   16.50    6.20
  -2   0  18   12.30    4.60
  -1   0  18 1432.26   49.20
   0   0  18   51.29    3.70
   1   0  18   81.39    4.00
   2   0  18   25.30    7.20
   3   0  18   79.29    6.60
   4   0  18  192.18   10.10
   5   0  18    9.60    4.30
   6   0  18    5.50    5.00
  -7   1  18   45.10   13.00
  -6   1  18   77.19    9.30
  -5   1  18  307.77   10.60
  -4   1  18    2.50    1.70
  -3   1  18   47.00    5.20
  -2   1  18   51.49    6.80
  -1   1  18  148.79    4.80
   0   1  18   29.90    4.00
   1   1  18   55.09    3.60
   2   1  18  107.79    4.70
   3   1  18    7.50    2.50
   4   1  18   42.90   10.00
   5   1  18   51.69   18.00
   6   1  18    1.20    1.60
  -6   2  18   44.70   14.00
  -4   2  18    0.00    0.10
  -3   2  18   33.10   10.90
  -2   2  18   22.50    5.80
  -1   2  18   36.70   14.70
   1   2  18   24.30    5.00
   2   2  18   43.60    7.50
   3   2  18   24.10    7.10
   4   2  18    0.00    0.10
   5   2  18   44.30   25.40
  -4   3  18   83.89   18.10
  -3   3  18  112.29   17.60
  -2   3  18   53.29   11.00
  -1   3  18   57.49    8.90
   0   3  18   70.69   14.20
   1   3  18  148.39   12.20
   2   3  18   56.59    9.20
   3   3  18   23.50   11.50
  -7   0  19    2.10    4.30
  -6   0  19    3.60    3.30
  -5   0  19    0.50    2.80
  -4   0  19    0.10    0.40
  -3   0  19    0.40    0.40
  -2   0  19   30.90    7.90
   0   0  19   16.20    6.50
   1   0  19    0.90    1.00
   2   0  19   17.80    6.30
   3   0  19    1.10    1.50
   4   0  19    1.90    1.70
   5   0  19    0.10    0.50
   6   0  19    0.50    2.30
  -6   1  19   95.49    8.90
  -5   1  19  230.18   10.50
  -4   1  19   68.29    5.00
  -3   1  19   32.30    8.70
  -2   1  19  945.51   22.50
  -1   1  19  241.68    6.70
   0   1  19   20.80    5.20
   1   1  19    1.20    0.90
   2   1  19  129.39    5.10
   4   1  19   44.50    6.40
   5   1  19    2.40    4.80
  -5   2  19   53.89   13.40
  -3   2  19  102.19    9.60
  -2   2  19  333.37   13.80
   0   2  19  110.29    9.20
   1   2  19  337.07   12.80
   2   2  19    1.10    1.40
   3   2  19   76.69    7.40
   4   2  19   46.80   10.10
  -3   3  19  117.39   18.40
  -2   3  19  103.39   13.00
  -1   3  19   48.40   14.20
   0   3  19   65.39   19.50
   1   3  19   29.60    9.50
   2   3  19    9.90    5.50
  -6   0  20   74.29    9.50
  -5   0  20   33.20   14.70
  -4   0  20    0.00    0.40
  -2   0  20   43.10    6.00
  -1   0  20    0.00    0.30
   0   0  20   23.20   10.30
   1   0  20  266.17   11.10
   2   0  20   33.60   13.70
   3   0  20   25.30    7.10
   4   0  20   66.29    9.30
   5   0  20    0.00    0.60
  -6   1  20   75.19    9.00
  -4   1  20    2.00    3.10
  -3   1  20   31.30    6.50
  -2   1  20    1.30    0.80
  -1   1  20  220.08    6.80
   0   1  20   63.99    4.00
   1   1  20   23.30   14.20
   2   1  20   37.00    5.30
   3   1  20    0.00    0.60
   4   1  20   95.79    7.70
  -4   2  20   41.30   10.60
  -3   2  20  151.98   13.70
  -2   2  20   82.79    7.40
  -1   2  20    0.50    0.30
   0   2  20   67.29   11.10
   1   2  20   54.09   10.80
   2   2  20   55.19    6.60
   3   2  20    0.50    0.70
  -2   3  20   70.79   15.50
  -1   3  20   72.59   43.00
   0   3  20  193.38   14.10
   1   3  20   39.00    9.50
  -6   0  21    2.80    4.10
  -5   0  21    3.70    3.40
  -4   0  21   19.60   10.50
  -3   0  21    0.90    1.00
  -2   0  21    0.20    0.40
  -1   0  21    0.00    0.90
   1   0  21    0.20    0.40
   2   0  21   44.10   15.30
   3   0  21    1.90    1.60
   4   0  21   49.20   22.90
   5   0  21    0.50    0.70
  -5   1  21    0.80    1.20
  -4   1  21  119.69    7.40
  -3   1  21   25.00    7.40
  -2   1  21   30.20    7.40
  -1   1  21   24.80   10.90
   0   1  21   67.19    5.50
   1   1  21    1.70    0.90
   2   1  21    0.20    0.50
   3   1  21  151.88    8.70
   4   1  21    0.00    0.50
  -3   2  21    0.30    0.50
  -2   2  21  520.85   18.30
   0   2  21   43.30   10.50
   2   2  21    0.00    0.10
   3   2  21   75.29    8.00
  -5   0  22    7.00    3.60
  -4   0  22  115.99   11.00
  -3   0  22    0.20    0.40
  -2   0  22   28.20    7.50
  -1   0  22   59.19    9.50
   0   0  22   46.50   12.90
   1   0  22    1.00    1.40
   2   0  22  222.18   13.90
   4   0  22  155.88   18.10
  -5   1  22   36.80   17.30
  -4   1  22    0.10    1.20
  -3   1  22  243.38   10.70
  -2   1  22    0.90    1.00
  -1   1  22   86.39    6.30
   0   1  22    0.20    1.20
   1   1  22   39.60    5.20
   2   1  22   56.59   20.90
   3   1  22   69.29   13.30
   4   1  22    0.60    2.10
  -3   2  22    0.00    0.10
  -2   2  22    0.00    0.40
  -1   2  22   33.60   10.10
   0   2  22   20.30    9.70
   1   2  22   39.30   22.40
  -4   0  23    0.00    1.30
  -3   0  23    0.00    0.50
  -2   0  23    0.80    1.20
  -1   0  23    0.00    0.50
   0   0  23    0.00    1.30
   1   0  23    1.10    1.60
   2   0  23    0.40    1.70
   3   0  23   50.99   19.30
  -4   1  23    0.40    1.10
  -3   1  23   42.50   10.20
  -2   1  23    0.70    1.00
   0   1  23   46.20    9.30
   2   1  23   44.80   22.80
   3   1  23   59.49   13.30
  -2   2  23   40.00   11.70
  -1   2  23    0.50    4.20
   0   2  23  296.27   16.60
   1   2  23   72.59   26.10
  -4   0  24    1.00    1.50
  -3   0  24  254.57   14.00
  -2   0  24   40.00   13.20
  -1   0  24  307.17   16.10
   0   0  24    0.00    1.60
   1   0  24    0.50    0.60
   2   0  24    0.00    4.00
  -3   1  24    1.50    3.40
  -2   1  24    0.00    0.50
  -1   1  24   82.09    8.30
   0   1  24   43.50   10.20
   1   1  24    5.20    1.80
   2   1  24  124.29   13.20
  -3   0  25    0.00    1.60
  -2   0  25    0.40    1.60
  -1   0  25    0.00    1.70
   0   0  25    0.00    1.60
   1   0  25    0.00    0.80
  -2   1  25   99.09   20.30
  -1   1  25   63.29   13.30
   0   1  25    1.30    2.10

_computing_structure_solution     'SHELXT 2014/4 (Sheldrick, 2014)'
;
_shelx_hkl_checksum              7566
_olex2_submission_special_instructions 'No special instructions were received'
loop_
_space_group_symop_operation_xyz
'x, y, z'
'-x, y+1/2, -z+1/2'
'-x, -y, -z'
'x, -y-1/2, z-1/2'
loop_
_atom_site_label
_atom_site_type_symbol
_atom_site_fract_x
_atom_site_fract_y
_atom_site_fract_z
_atom_site_U_iso_or_equiv
_atom_site_adp_type
_atom_site_occupancy
_atom_site_site_symmetry_order
_atom_site_calc_flag
_atom_site_refinement_flags_posn
_atom_site_refinement_flags_adp
_atom_site_refinement_flags_occupancy
_atom_site_disorder_assembly
_atom_site_disorder_group
F1 F 0.6667(4) 0.5863(9) 0.62464(12) 0.0294(8) Uani 1 1 d . . . . .
C1 C 0.6756(6) 0.4008(13) 0.5132(2) 0.0173(10) Uani 1 1 d . . . . .
H1 H 0.7970 0.3368 0.5237 0.021 Uiso 1 1 calc R . . . .
C2 C 0.5791(6) 0.5457(13) 0.5623(2) 0.0159(10) Uani 1 1 d . . . . .
C3 C 0.4031(6) 0.6534(12) 0.5523(2) 0.0143(10) Uani 1 1 d . . . . .
C4 C 0.2995(5) 0.8038(12) 0.6053(2) 0.0145(9) Uani 0.597(6) 1 d D U P A 1
C5 C 0.358(2) 0.902(6) 0.6699(8) 0.0196(11) Uani 0.597(6) 1 d D U P A 1
H5 H 0.4770 0.8828 0.6899 0.024 Uiso 0.597(6) 1 calc R . P A 1
C6 C 0.1910(17) 1.052(7) 0.7045(9) 0.018(2) Uani 0.597(6) 1 d D U P A 1
H6 H 0.1926 1.1430 0.7491 0.022 Uiso 0.597(6) 1 calc R . P A 1
C7 C 0.046(2) 1.029(6) 0.6605(7) 0.019(2) Uani 0.597(6) 1 d D U P A 1
H7 H -0.0682 1.1026 0.6722 0.023 Uiso 0.597(6) 1 calc R . P A 1
S8 S 0.0745(3) 0.8767(11) 0.59023(15) 0.0183(7) Uani 0.597(6) 1 d D U P A 1
C4A C 0.2995(5) 0.8038(12) 0.6053(2) 0.0145(9) Uani 0.403(6) 1 d D U P A 2
C5A C 0.117(2) 0.873(8) 0.5992(11) 0.0183(7) Uani 0.403(6) 1 d D U P A 2
H5A H 0.0366 0.8315 0.5607 0.022 Uiso 0.403(6) 1 calc R . P A 2
C6A C 0.069(3) 1.041(9) 0.6712(10) 0.017(2) Uani 0.403(6) 1 d D U P A 2
H6A H -0.0459 1.1146 0.6831 0.020 Uiso 0.403(6) 1 calc R . P A 2
C7A C 0.222(3) 1.053(10) 0.7100(14) 0.018(2) Uani 0.403(6) 1 d D U P A 2
H7A H 0.2250 1.1497 0.7542 0.022 Uiso 0.403(6) 1 calc R . P A 2
S8A S 0.3883(8) 0.915(2) 0.6833(2) 0.0196(11) Uani 0.403(6) 1 d D U P A 2
loop_
_atom_site_aniso_label
_atom_site_aniso_U_11
_atom_site_aniso_U_22
_atom_site_aniso_U_33
_atom_site_aniso_U_23
_atom_site_aniso_U_13
_atom_site_aniso_U_12
F1 0.0188(15) 0.055(2) 0.0139(13) -0.0091(14) -0.0044(10) 0.0065(14)
C1 0.013(2) 0.023(3) 0.016(2) 0.001(2) 0.0007(17) 0.004(2)
C2 0.018(2) 0.020(3) 0.010(2) 0.0015(19) 0.0025(16) -0.001(2)
C3 0.019(2) 0.008(2) 0.016(2) 0.0019(18) 0.0029(16) -0.003(2)
C4 0.0153(19) 0.014(2) 0.0139(18) 0.0016(16) 0.0017(15) -0.0009(17)
C5 0.025(2) 0.0179(14) 0.016(2) -0.0044(17) 0.0032(14) -0.0002(15)
C6 0.023(4) 0.016(3) 0.016(4) -0.004(3) 0.003(4) -0.004(4)
C7 0.017(4) 0.017(3) 0.024(4) 0.003(4) 0.001(3) 0.001(4)
S8 0.0142(15) 0.0219(11) 0.0189(12) -0.0014(9) 0.0034(10) 0.0023(13)
C4A 0.0153(19) 0.014(2) 0.0139(18) 0.0016(16) 0.0017(15) -0.0009(17)
C5A 0.0142(15) 0.0219(11) 0.0189(12) -0.0014(9) 0.0034(10) 0.0023(13)
C6A 0.019(5) 0.014(4) 0.016(4) 0.000(4) 0.001(4) 0.002(4)
C7A 0.021(5) 0.016(4) 0.017(4) 0.001(4) -0.003(4) 0.002(4)
S8A 0.025(2) 0.0179(14) 0.016(2) -0.0044(17) 0.0032(14) -0.0002(15)
loop_
_atom_type_symbol
_atom_type_description
_atom_type_scat_dispersion_real
_atom_type_scat_dispersion_imag
_atom_type_scat_source
C C 0.0033 0.0016 'International Tables Vol C Tables 4.2.6.8 and 6.1.1.4'
H H 0.0000 0.0000 'International Tables Vol C Tables 4.2.6.8 and 6.1.1.4'
F F 0.0171 0.0103 'International Tables Vol C Tables 4.2.6.8 and 6.1.1.4'
S S 0.1246 0.1234 'International Tables Vol C Tables 4.2.6.8 and 6.1.1.4'
loop_
_geom_angle_atom_site_label_1
_geom_angle_atom_site_label_2
_geom_angle_atom_site_label_3
_geom_angle
_geom_angle_site_symmetry_1
_geom_angle_site_symmetry_3
C2 C1 H1 119.7 . .
C2 C1 C3 120.7(4) . 3_666
C3 C1 H1 119.7 3_666 .
F1 C2 C1 116.5(4) . .
F1 C2 C3 118.9(4) . .
C1 C2 C3 124.6(4) . .
C1 C3 C4 120.9(4) 3_666 .
C1 C3 C4A 120.9(4) 3_666 .
C2 C3 C1 114.7(4) . 3_666
C2 C3 C4 124.4(4) . .
C2 C3 C4A 124.4(4) . .
C3 C4 S8 120.3(3) . .
C5 C4 C3 128.6(9) . .
C5 C4 S8 111.0(8) . .
C4 C5 H5 126.4 . .
C4 C5 C6 107.2(11) . .
C6 C5 H5 126.4 . .
C5 C6 H6 125.7 . .
C7 C6 C5 108.6(15) . .
C7 C6 H6 125.7 . .
C6 C7 H7 121.4 . .
C6 C7 S8 117.2(15) . .
S8 C7 H7 121.4 . .
C7 S8 C4 95.9(6) . .
C3 C4A S8A 124.1(4) . .
C5A C4A C3 125.6(9) . .
C5A C4A S8A 110.3(9) . .
C4A C5A H5A 126.8 . .
C4A C5A C6A 106.4(13) . .
C6A C5A H5A 126.8 . .
C5A C6A H6A 126.9 . .
C7A C6A C5A 106(2) . .
C7A C6A H6A 126.9 . .
C6A C7A H7A 120.4 . .
C6A C7A S8A 119(2) . .
S8A C7A H7A 120.4 . .
C7A S8A C4A 97.7(10) . .
loop_
_geom_bond_atom_site_label_1
_geom_bond_atom_site_label_2
_geom_bond_distance
_geom_bond_site_symmetry_2
F1 C2 1.366(5) .
C1 H1 0.9500 .
C1 C2 1.373(6) .
C1 C3 1.402(6) 3_666
C2 C3 1.381(6) .
C3 C1 1.402(6) 3_666
C3 C4 1.470(6) .
C3 C4A 1.470(6) .
C4 C5 1.376(14) .
C4 S8 1.712(5) .
C5 H5 0.9500 .
C5 C6 1.58(2) .
C6 H6 0.9500 .
C6 C7 1.342(11) .
C7 H7 0.9500 .
C7 S8 1.540(14) .
C4A C5A 1.388(17) .
C4A S8A 1.692(5) .
C5A H5A 0.9500 .
C5A C6A 1.63(2) .
C6A H6A 0.9500 .
C6A C7A 1.336(14) .
C7A H7A 0.9500 .
C7A S8A 1.488(19) .
loop_
_geom_torsion_atom_site_label_1
_geom_torsion_atom_site_label_2
_geom_torsion_atom_site_label_3
_geom_torsion_atom_site_label_4
_geom_torsion
_geom_torsion_site_symmetry_1
_geom_torsion_site_symmetry_4
F1 C2 C3 C1 -179.7(4) . 3_666
F1 C2 C3 C4 -1.6(7) . .
F1 C2 C3 C4A -1.6(7) . .
C1 C2 C3 C1 1.0(8) . 3_666
C1 C2 C3 C4 179.1(5) . .
C1 C2 C3 C4A 179.1(5) . .
C1 C3 C4 C5 -173.9(13) 3_666 .
C1 C3 C4 S8 6.4(7) 3_666 .
C1 C3 C4A C5A 6.6(17) 3_666 .
C1 C3 C4A S8A -173.7(5) 3_666 .
C2 C3 C4 C5 8.2(15) . .
C2 C3 C4 S8 -171.6(4) . .
C2 C3 C4A C5A -171.3(16) . .
C2 C3 C4A S8A 8.3(8) . .
C3 C1 C2 F1 179.6(4) 3_666 .
C3 C1 C2 C3 -1.1(8) 3_666 .
C3 C4 C5 C6 179.2(11) . .
C3 C4 S8 C7 -179.7(10) . .
C3 C4A C5A C6A -179.4(14) . .
C3 C4A S8A C7A 178.6(16) . .
C4 C5 C6 C7 1(2) . .
C5 C4 S8 C7 0.5(13) . .
C5 C6 C7 S8 -1(2) . .
C6 C7 S8 C4 0.3(18) . .
S8 C4 C5 C6 -1.0(17) . .
C4A C5A C6A C7A 0(3) . .
C5A C4A S8A C7A -2(2) . .
C5A C6A C7A S8A -2(4) . .
C6A C7A S8A C4A 2(3) . .
S8A C4A C5A C6A 1(2) . .
