#------------------------------------------------------------------------------
#$Date: 2019-11-24 08:06:47 +0200 (Sun, 24 Nov 2019) $
#$Revision: 237237 $
#$URL: file:///home/coder/svn-repositories/cod/cif/1/55/44/1554438.cif $
#------------------------------------------------------------------------------
#
# This file is available in the Crystallography Open Database (COD),
# http://www.crystallography.net/
#
# All data on this site have been placed in the public domain by the
# contributors.
#
data_1554438
loop_
_publ_author_name
'Kang, On-Yu'
'Park, Seong Jun'
'Ahn, Hyojung'
'Jeong, Kyung Chae'
'Lim, Hwan Jung'
_publ_section_title
;
 Structural assignment of the enol--keto tautomers of one-pot synthesized
 4-hydroxyquinolines/4-quinolones
;
_journal_issue                   2
_journal_name_full               'Organic Chemistry Frontiers'
_journal_page_first              183
_journal_paper_doi               10.1039/C8QO00884A
_journal_volume                  6
_journal_year                    2019
_chemical_formula_sum            'C13 H15 N O5 S'
_chemical_formula_weight         297.32
_chemical_name_systematic
'Methyl 8-methoxy-2-(methylthio)-4-oxo-1,4-dihydroquinoline-3-carboxylate'
_space_group_IT_number           2
_space_group_name_Hall           '-P 1'
_space_group_name_H-M_alt        'P -1'
_symmetry_cell_setting           triclinic
_symmetry_space_group_name_H-M   'P -1'
_atom_sites_solution_hydrogens   geom
_atom_sites_solution_primary     direct
_atom_sites_solution_secondary   difmap
_audit_creation_method           SHELXL-97
_audit_update_record
;
2018-04-18 deposited with the CCDC.
2018-11-28 downloaded from the CCDC.
;
_cell_angle_alpha                80.813(2)
_cell_angle_beta                 84.674(2)
_cell_angle_gamma                88.958(3)
_cell_formula_units_Z            2
_cell_length_a                   7.2268(3)
_cell_length_b                   9.0737(4)
_cell_length_c                   10.4696(4)
_cell_measurement_reflns_used    5192
_cell_measurement_temperature    296(1)
_cell_measurement_theta_max      28.25
_cell_measurement_theta_min      2.27
_cell_volume                     674.80(5)
_computing_cell_refinement       'Bruker SAINT'
_computing_data_collection       'Bruker APEX2'
_computing_data_reduction        'Bruker SAINT'
_computing_molecular_graphics    'Bruker SHELXTL'
_computing_publication_material  'Bruker SHELXTL'
_computing_structure_refinement  'SHELXL-97 (Sheldrick, 2008)'
_computing_structure_solution    'SHELXS-97 (Sheldrick, 2008)'
_diffrn_ambient_temperature      296(1)
_diffrn_measured_fraction_theta_full 0.986
_diffrn_measured_fraction_theta_max 0.986
_diffrn_measurement_device_type  'Bruker APEX-II CCD'
_diffrn_measurement_method       '\f and \w scans'
_diffrn_radiation_monochromator  graphite
_diffrn_radiation_source         'fine-focus sealed tube'
_diffrn_radiation_type           MoK\a
_diffrn_radiation_wavelength     0.71073
_diffrn_reflns_av_R_equivalents  0.0000
_diffrn_reflns_av_sigmaI/netI    0.0196
_diffrn_reflns_limit_h_max       9
_diffrn_reflns_limit_h_min       -9
_diffrn_reflns_limit_k_max       12
_diffrn_reflns_limit_k_min       -11
_diffrn_reflns_limit_l_max       13
_diffrn_reflns_limit_l_min       0
_diffrn_reflns_number            3359
_diffrn_reflns_theta_full        28.48
_diffrn_reflns_theta_max         28.48
_diffrn_reflns_theta_min         1.98
_exptl_absorpt_coefficient_mu    0.259
_exptl_absorpt_correction_T_max  0.9647
_exptl_absorpt_correction_T_min  0.9172
_exptl_absorpt_correction_type   multi-scan
_exptl_absorpt_process_details   'Bruker SADABS'
_exptl_crystal_colour            silver
_exptl_crystal_density_diffrn    1.463
_exptl_crystal_density_meas      ?
_exptl_crystal_density_method    'not measured'
_exptl_crystal_description       block
_exptl_crystal_F_000             312
_exptl_crystal_recrystallization_method
'Re-crystallisation from solvent: Dichloromethane, Methanol'
_exptl_crystal_size_max          0.34
_exptl_crystal_size_mid          0.28
_exptl_crystal_size_min          0.14
_refine_diff_density_max         0.471
_refine_diff_density_min         -0.295
_refine_diff_density_rms         0.066
_refine_ls_extinction_method     none
_refine_ls_goodness_of_fit_ref   1.054
_refine_ls_hydrogen_treatment    refxyz
_refine_ls_matrix_type           full
_refine_ls_number_parameters     191
_refine_ls_number_reflns         3359
_refine_ls_number_restraints     0
_refine_ls_restrained_S_all      1.054
_refine_ls_R_factor_all          0.0589
_refine_ls_R_factor_gt           0.0511
_refine_ls_shift/su_max          0.000
_refine_ls_shift/su_mean         0.000
_refine_ls_structure_factor_coef Fsqd
_refine_ls_weighting_details
'calc w=1/[\s^2^(Fo^2^)+(0.1004P)^2^+0.1146P] where P=(Fo^2^+2Fc^2^)/3'
_refine_ls_weighting_scheme      calc
_refine_ls_wR_factor_gt          0.1476
_refine_ls_wR_factor_ref         0.1552
_reflns_number_gt                2808
_reflns_number_total             3359
_reflns_threshold_expression     >2sigma(I)
_cod_data_source_file            c8qo00884a2.cif
_cod_data_source_block           20161229_0m
_cod_depositor_comments
;
The following automatic conversions were performed:

data item '_symmetry_cell_setting' value 'Triclinic' was changed to
'triclinic' in accordance with the
/home/saulius/struct/COD-crude-data/automatic-downloads/DataCite-retrospective/RSC/depositions/lib/dictionaries/cif_core.dic
dictionary named 'cif_core.dic' version 2.4.2 last updated on
2011-04-26.

data item '_exptl_crystal_density_meas' value 'none' was changed to
'?' -- the value is perceived as not measured.

Automatic conversion script
Id: cif_fix_values 6909 2019-04-08 15:41:33Z antanas 
;
_cod_original_sg_symbol_H-M      P-1
_cod_database_code               1554438
loop_
_symmetry_equiv_pos_as_xyz
'x, y, z'
'-x, -y, -z'
loop_
_atom_site_label
_atom_site_type_symbol
_atom_site_fract_x
_atom_site_fract_y
_atom_site_fract_z
_atom_site_U_iso_or_equiv
_atom_site_adp_type
_atom_site_occupancy
_atom_site_symmetry_multiplicity
_atom_site_calc_flag
_atom_site_refinement_flags
S1 S 0.73572(8) 0.05405(5) 0.39168(4) 0.05486(19) Uani 1 1 d .
O1 O 0.65527(18) 0.32919(13) -0.04966(11) 0.0497(3) Uani 1 1 d .
O2 O 0.85323(19) -0.31092(12) 0.06660(11) 0.0497(3) Uani 1 1 d .
O3 O 0.7375(3) -0.38555(17) 0.34197(16) 0.0895(6) Uani 1 1 d .
O4 O 0.9012(2) -0.22399(15) 0.42116(12) 0.0561(4) Uani 1 1 d .
N1 N 0.73462(18) 0.10966(13) 0.13479(11) 0.0363(3) Uani 1 1 d .
H1A H 0.7197 0.2004 0.1482 0.044 Uiso 1 1 calc R
C1 C 0.7577(2) 0.00191(16) 0.23650(13) 0.0344(3) Uani 1 1 d .
C2 C 0.73421(18) 0.07936(16) 0.00975(13) 0.0320(3) Uani 1 1 d .
C3 C 0.6943(2) 0.19700(17) -0.09024(14) 0.0365(3) Uani 1 1 d .
C4 C 0.6968(2) 0.1678(2) -0.21508(15) 0.0436(4) Uani 1 1 d .
H4A H 0.6717 0.2440 -0.2819 0.052 Uiso 1 1 calc R
C5 C 0.7369(3) 0.0243(2) -0.24209(16) 0.0479(4) Uani 1 1 d .
H5A H 0.7393 0.0063 -0.3272 0.057 Uiso 1 1 calc R
C6 C 0.7729(2) -0.09093(18) -0.14531(15) 0.0420(4) Uani 1 1 d .
H6A H 0.7980 -0.1862 -0.1648 0.050 Uiso 1 1 calc R
C7 C 0.77157(19) -0.06395(16) -0.01673(13) 0.0328(3) Uani 1 1 d .
C8 C 0.8097(2) -0.18408(16) 0.08956(14) 0.0340(3) Uani 1 1 d .
C9 C 0.7918(2) -0.14466(16) 0.21866(14) 0.0339(3) Uani 1 1 d .
C10 C 0.8056(2) -0.26587(17) 0.33093(15) 0.0410(4) Uani 1 1 d .
C11 C 0.9032(4) -0.3213(2) 0.54372(18) 0.0640(5) Uani 1 1 d .
H11A H 0.7953 -0.3840 0.5576 0.096 Uiso 1 1 calc R
H11B H 0.9026 -0.2627 0.6124 0.096 Uiso 1 1 calc R
H11C H 1.0131 -0.3824 0.5430 0.096 Uiso 1 1 calc R
C12 C 0.6038(3) 0.2252(2) 0.3696(2) 0.0585(5) Uani 1 1 d .
H12A H 0.5847 0.2625 0.4507 0.088 Uiso 1 1 calc R
H12B H 0.4857 0.2066 0.3403 0.088 Uiso 1 1 calc R
H12C H 0.6708 0.2978 0.3061 0.088 Uiso 1 1 calc R
C13 C 0.6275(3) 0.4562(2) -0.1459(2) 0.0571(5) Uani 1 1 d .
H13A H 0.7374 0.4730 -0.2053 0.086 Uiso 1 1 calc R
H13B H 0.6025 0.5425 -0.1045 0.086 Uiso 1 1 calc R
H13C H 0.5241 0.4385 -0.1927 0.086 Uiso 1 1 calc R
O5 O 0.0762(2) 0.61491(15) 0.84050(13) 0.0537(3) Uani 1 1 d .
H5B H 0.101(4) 0.519(3) 0.852(3) 0.082(8) Uiso 1 1 d .
H5C H -0.006(4) 0.625(3) 0.908(3) 0.071(7) Uiso 1 1 d .
loop_
_atom_site_aniso_label
_atom_site_aniso_U_11
_atom_site_aniso_U_22
_atom_site_aniso_U_33
_atom_site_aniso_U_23
_atom_site_aniso_U_13
_atom_site_aniso_U_12
S1 0.0944(4) 0.0433(3) 0.0263(2) -0.00580(16) -0.0033(2) 0.0074(2)
O1 0.0729(8) 0.0376(6) 0.0366(6) 0.0011(5) -0.0087(5) 0.0136(5)
O2 0.0770(8) 0.0339(6) 0.0381(6) -0.0070(5) -0.0037(6) 0.0075(5)
O3 0.1628(18) 0.0496(8) 0.0563(9) 0.0139(7) -0.0426(10) -0.0350(10)
O4 0.0788(9) 0.0529(7) 0.0358(6) 0.0059(5) -0.0218(6) -0.0054(6)
N1 0.0502(7) 0.0319(6) 0.0259(6) -0.0026(5) -0.0031(5) 0.0057(5)
C1 0.0419(7) 0.0346(7) 0.0260(6) -0.0027(5) -0.0029(5) 0.0008(5)
C2 0.0333(7) 0.0361(7) 0.0257(6) -0.0017(5) -0.0039(5) 0.0009(5)
C3 0.0376(7) 0.0374(7) 0.0329(7) 0.0000(6) -0.0055(5) 0.0028(6)
C4 0.0511(9) 0.0476(8) 0.0304(7) 0.0036(6) -0.0119(6) 0.0010(7)
C5 0.0639(10) 0.0536(10) 0.0281(7) -0.0077(6) -0.0117(7) -0.0019(8)
C6 0.0552(9) 0.0412(8) 0.0315(8) -0.0086(6) -0.0091(6) -0.0003(7)
C7 0.0341(7) 0.0361(7) 0.0282(7) -0.0038(5) -0.0045(5) -0.0011(5)
C8 0.0380(7) 0.0332(7) 0.0306(7) -0.0036(5) -0.0047(5) 0.0012(5)
C9 0.0389(7) 0.0343(7) 0.0274(7) -0.0009(5) -0.0046(5) 0.0007(5)
C10 0.0568(9) 0.0354(8) 0.0301(7) -0.0014(6) -0.0068(6) 0.0036(6)
C11 0.0966(15) 0.0571(11) 0.0365(9) 0.0035(8) -0.0186(9) 0.0131(10)
C12 0.0779(13) 0.0483(10) 0.0482(10) -0.0146(8) 0.0102(9) 0.0061(9)
C13 0.0795(13) 0.0380(9) 0.0495(10) 0.0083(7) -0.0116(9) 0.0057(8)
O5 0.0767(9) 0.0369(6) 0.0444(7) -0.0008(5) 0.0001(6) 0.0022(6)
loop_
_atom_type_symbol
_atom_type_description
_atom_type_scat_dispersion_real
_atom_type_scat_dispersion_imag
_atom_type_scat_source
C C 0.0033 0.0016 'International Tables Vol C Tables 4.2.6.8 and 6.1.1.4'
H H 0.0000 0.0000 'International Tables Vol C Tables 4.2.6.8 and 6.1.1.4'
N N 0.0061 0.0033 'International Tables Vol C Tables 4.2.6.8 and 6.1.1.4'
O O 0.0106 0.0060 'International Tables Vol C Tables 4.2.6.8 and 6.1.1.4'
S S 0.1246 0.1234 'International Tables Vol C Tables 4.2.6.8 and 6.1.1.4'
loop_
_geom_angle_atom_site_label_1
_geom_angle_atom_site_label_2
_geom_angle_atom_site_label_3
_geom_angle
C1 S1 C12 103.58(8)
C3 O1 C13 117.90(14)
C10 O4 C11 118.28(15)
C1 N1 C2 122.18(12)
C1 N1 H1A 118.9
C2 N1 H1A 118.9
N1 C1 C9 120.90(13)
N1 C1 S1 117.23(11)
C9 C1 S1 121.85(11)
N1 C2 C7 120.38(12)
N1 C2 C3 118.65(13)
C7 C2 C3 120.97(13)
O1 C3 C4 126.73(13)
O1 C3 C2 114.47(13)
C4 C3 C2 118.80(14)
C3 C4 C5 120.27(14)
C3 C4 H4A 119.9
C5 C4 H4A 119.9
C6 C5 C4 121.27(15)
C6 C5 H5A 119.4
C4 C5 H5A 119.4
C5 C6 C7 119.59(15)
C5 C6 H6A 120.2
C7 C6 H6A 120.2
C2 C7 C6 119.09(13)
C2 C7 C8 119.63(13)
C6 C7 C8 121.28(13)
O2 C8 C9 123.53(13)
O2 C8 C7 120.45(13)
C9 C8 C7 116.02(12)
C1 C9 C8 120.56(12)
C1 C9 C10 121.26(13)
C8 C9 C10 118.16(13)
O3 C10 O4 122.87(15)
O3 C10 C9 125.12(15)
O4 C10 C9 111.99(13)
O4 C11 H11A 109.5
O4 C11 H11B 109.5
H11A C11 H11B 109.5
O4 C11 H11C 109.5
H11A C11 H11C 109.5
H11B C11 H11C 109.5
S1 C12 H12A 109.5
S1 C12 H12B 109.5
H12A C12 H12B 109.5
S1 C12 H12C 109.5
H12A C12 H12C 109.5
H12B C12 H12C 109.5
O1 C13 H13A 109.5
O1 C13 H13B 109.5
H13A C13 H13B 109.5
O1 C13 H13C 109.5
H13A C13 H13C 109.5
H13B C13 H13C 109.5
H5B O5 H5C 103(2)
loop_
_geom_bond_atom_site_label_1
_geom_bond_atom_site_label_2
_geom_bond_distance
S1 C1 1.7559(15)
S1 C12 1.802(2)
O1 C3 1.3516(19)
O1 C13 1.4294(19)
O2 C8 1.2421(18)
O3 C10 1.185(2)
O4 C10 1.326(2)
O4 C11 1.438(2)
N1 C1 1.3461(18)
N1 C2 1.3803(18)
N1 H1A 0.8600
C1 C9 1.387(2)
C2 C7 1.389(2)
C2 C3 1.4166(19)
C3 C4 1.373(2)
C4 C5 1.396(2)
C4 H4A 0.9300
C5 C6 1.374(2)
C5 H5A 0.9300
C6 C7 1.405(2)
C6 H6A 0.9300
C7 C8 1.4700(19)
C8 C9 1.446(2)
C9 C10 1.4853(19)
C11 H11A 0.9600
C11 H11B 0.9600
C11 H11C 0.9600
C12 H12A 0.9600
C12 H12B 0.9600
C12 H12C 0.9600
C13 H13A 0.9600
C13 H13B 0.9600
C13 H13C 0.9600
O5 H5B 0.87(3)
O5 H5C 0.89(3)
loop_
_geom_torsion_atom_site_label_1
_geom_torsion_atom_site_label_2
_geom_torsion_atom_site_label_3
_geom_torsion_atom_site_label_4
_geom_torsion
C2 N1 C1 C9 3.4(2)
C2 N1 C1 S1 -174.78(11)
C12 S1 C1 N1 20.78(14)
C12 S1 C1 C9 -157.34(14)
C1 N1 C2 C7 -4.7(2)
C1 N1 C2 C3 175.00(13)
C13 O1 C3 C4 -5.3(2)
C13 O1 C3 C2 175.27(14)
N1 C2 C3 O1 -1.6(2)
C7 C2 C3 O1 178.13(13)
N1 C2 C3 C4 178.93(13)
C7 C2 C3 C4 -1.3(2)
O1 C3 C4 C5 -178.96(16)
C2 C3 C4 C5 0.4(2)
C3 C4 C5 C6 0.6(3)
C4 C5 C6 C7 -0.7(3)
N1 C2 C7 C6 -179.06(13)
C3 C2 C7 C6 1.2(2)
N1 C2 C7 C8 0.7(2)
C3 C2 C7 C8 -179.06(13)
C5 C6 C7 C2 -0.2(2)
C5 C6 C7 C8 -179.91(15)
C2 C7 C8 O2 -176.08(14)
C6 C7 C8 O2 3.7(2)
C2 C7 C8 C9 4.3(2)
C6 C7 C8 C9 -175.95(13)
N1 C1 C9 C8 2.1(2)
S1 C1 C9 C8 -179.85(11)
N1 C1 C9 C10 -176.09(13)
S1 C1 C9 C10 2.0(2)
O2 C8 C9 C1 174.68(14)
C7 C8 C9 C1 -5.7(2)
O2 C8 C9 C10 -7.1(2)
C7 C8 C9 C10 172.52(13)
C11 O4 C10 O3 -7.6(3)
C11 O4 C10 C9 171.02(15)
C1 C9 C10 O3 136.8(2)
C8 C9 C10 O3 -41.5(3)
C1 C9 C10 O4 -41.9(2)
C8 C9 C10 O4 139.91(15)
