#------------------------------------------------------------------------------
#$Date: 2019-11-24 07:43:38 +0200 (Sun, 24 Nov 2019) $
#$Revision: 237161 $
#$URL: file:///home/coder/svn-repositories/cod/cif/1/55/43/1554367.cif $
#------------------------------------------------------------------------------
#
# This file is available in the Crystallography Open Database (COD),
# http://www.crystallography.net/
#
# All data on this site have been placed in the public domain by the
# contributors.
#
data_1554367
loop_
_publ_author_name
'Wu, Qi'
'Li, Yabo'
'Wang, Chenyang'
'Zhang, Jianye'
'Huang, Mengmeng'
'Kim, Jung Keun'
'Wu, Yangjie'
_publ_section_title
;
 1,4-Refunctionalization of \b-diketones to \g-keto nitriles via C--C
 single bond cleavage
;
_journal_issue                   16
_journal_name_full               'Organic Chemistry Frontiers'
_journal_page_first              2496
_journal_paper_doi               10.1039/C8QO00556G
_journal_volume                  5
_journal_year                    2018
_chemical_formula_moiety         'C10 H9 N O'
_chemical_formula_sum            'C10 H9 N O'
_chemical_formula_weight         159.18
_space_group_crystal_system      monoclinic
_space_group_IT_number           4
_space_group_name_Hall           'P 2yb'
_space_group_name_H-M_alt        'P 1 21 1'
_atom_sites_solution_hydrogens   geom
_atom_sites_solution_primary     iterative
_audit_creation_date             2017-11-17
_audit_creation_method
;
Olex2 1.2
(compiled 2017.08.10 svn.r3458 for OlexSys, GUI svn.r5381)
;
_audit_update_record
;
2018-01-22 deposited with the CCDC.
2018-07-12 downloaded from the CCDC.
;
_cell_angle_alpha                90
_cell_angle_beta                 99.850(10)
_cell_angle_gamma                90
_cell_formula_units_Z            2
_cell_length_a                   7.5235(7)
_cell_length_b                   5.5446(8)
_cell_length_c                   10.2976(10)
_cell_measurement_reflns_used    479
_cell_measurement_temperature    293(2)
_cell_measurement_theta_max      65.6740
_cell_measurement_theta_min      5.9500
_cell_volume                     423.23(8)
_computing_cell_refinement
;
CrysAlisPro, Agilent Technologies,
Version 1.171.37.35 (release 13-08-2014 CrysAlis171 .NET)
(compiled Aug 13 2014,18:06:01)
;
_computing_data_collection
;
CrysAlisPro, Agilent Technologies,
Version 1.171.37.35 (release 13-08-2014 CrysAlis171 .NET)
(compiled Aug 13 2014,18:06:01)
;
_computing_data_reduction
;
CrysAlisPro, Agilent Technologies,
Version 1.171.37.35 (release 13-08-2014 CrysAlis171 .NET)
(compiled Aug 13 2014,18:06:01)
;
_computing_molecular_graphics    'Olex2 (Dolomanov et al., 2009)'
_computing_publication_material  'Olex2 (Dolomanov et al., 2009)'
_computing_structure_refinement  'ShelXL (Sheldrick, 2015)'
_computing_structure_solution
;
Superflip (Palatinus & Chapuis, 2007;Palatinus & van der Lee, 2008;
Palatinus et al., 2012)
;
_diffrn_ambient_temperature      293(2)
_diffrn_detector                 'CCD plate'
_diffrn_detector_area_resol_mean 16.2312
_diffrn_detector_type            Eos
_diffrn_measured_fraction_theta_full 0.999
_diffrn_measured_fraction_theta_max 0.999
_diffrn_measurement_details
;
#__ type_ start__ end____ width___ exp.time_
  1 omega  -52.00   35.00   1.0000    1.0000
omega____ theta____ kappa____ phi______ frames
    -      -33.5000   57.0000   90.0000 87

#__ type_ start__ end____ width___ exp.time_
  2 omega -102.00  -15.00   1.0000    1.0000
omega____ theta____ kappa____ phi______ frames
    -      -33.5000  -57.0000  -60.0000 87

#__ type_ start__ end____ width___ exp.time_
  3 omega  -32.00   55.00   1.0000    1.0000
omega____ theta____ kappa____ phi______ frames
    -       36.4734  -57.0000  120.0000 87

#__ type_ start__ end____ width___ exp.time_
  4 omega   18.00  105.00   1.0000    1.0000
omega____ theta____ kappa____ phi______ frames
    -       36.4734   57.0000 -120.0000 87

#__ type_ start__ end____ width___ exp.time_
  5 omega  -33.00   65.00   1.0000    1.0000
omega____ theta____ kappa____ phi______ frames
    -       36.4734  -77.0000  -90.0000 98

#__ type_ start__ end____ width___ exp.time_
  6 omega   37.00   91.00   1.0000    1.0000
omega____ theta____ kappa____ phi______ frames
    -      108.0000  -30.0000  -90.0000 54

#__ type_ start__ end____ width___ exp.time_
  7 omega   88.00  178.00   1.0000    1.0000
omega____ theta____ kappa____ phi______ frames
    -      108.0000   45.0000 -120.0000 90

#__ type_ start__ end____ width___ exp.time_
  8 omega   38.00   99.00   1.0000    1.0000
omega____ theta____ kappa____ phi______ frames
    -      108.0000  -45.0000  -30.0000 61

#__ type_ start__ end____ width___ exp.time_
  9 omega   38.00   99.00   1.0000    1.0000
omega____ theta____ kappa____ phi______ frames
    -      108.0000  -45.0000   60.0000 61

#__ type_ start__ end____ width___ exp.time_
 10 omega   60.00  107.00   1.0000    1.0000
omega____ theta____ kappa____ phi______ frames
    -      108.0000  -94.0000    0.0000 47

#__ type_ start__ end____ width___ exp.time_
 11 omega   38.00  108.00   1.0000    1.0000
omega____ theta____ kappa____ phi______ frames
    -      108.0000 -111.0000  120.0000 70

#__ type_ start__ end____ width___ exp.time_
 12 omega   36.00  133.00   1.0000    1.0000
omega____ theta____ kappa____ phi______ frames
    -      108.0000  -15.0000   60.0000 97
;
_diffrn_measurement_device       'four-circle diffractometer'
_diffrn_measurement_device_type  'Xcalibur, Eos, Gemini'
_diffrn_measurement_method       '\w scans'
_diffrn_orient_matrix_UB_11      0.0813141000
_diffrn_orient_matrix_UB_12      -0.0821849000
_diffrn_orient_matrix_UB_13      0.1404290000
_diffrn_orient_matrix_UB_21      -0.1857092000
_diffrn_orient_matrix_UB_22      0.0284721000
_diffrn_orient_matrix_UB_23      0.0421523000
_diffrn_orient_matrix_UB_31      -0.0453781000
_diffrn_orient_matrix_UB_32      -0.2640190000
_diffrn_orient_matrix_UB_33      -0.0393953000
_diffrn_radiation_monochromator  graphite
_diffrn_radiation_probe          x-ray
_diffrn_radiation_type           CuK\a
_diffrn_radiation_wavelength     1.54184
_diffrn_reflns_av_R_equivalents  0.0187
_diffrn_reflns_av_unetI/netI     0.0445
_diffrn_reflns_Laue_measured_fraction_full 0.999
_diffrn_reflns_Laue_measured_fraction_max 0.999
_diffrn_reflns_limit_h_max       7
_diffrn_reflns_limit_h_min       -8
_diffrn_reflns_limit_k_max       4
_diffrn_reflns_limit_k_min       -6
_diffrn_reflns_limit_l_max       12
_diffrn_reflns_limit_l_min       -12
_diffrn_reflns_number            1646
_diffrn_reflns_point_group_measured_fraction_full 0.750
_diffrn_reflns_point_group_measured_fraction_max 0.750
_diffrn_reflns_theta_full        67.025
_diffrn_reflns_theta_max         67.025
_diffrn_reflns_theta_min         4.358
_diffrn_source                   'Enhance (Cu) X-ray Source'
_exptl_absorpt_coefficient_mu    0.653
_exptl_absorpt_correction_T_max  1.00000
_exptl_absorpt_correction_T_min  0.74072
_exptl_absorpt_correction_type   multi-scan
_exptl_absorpt_process_details
;
CrysAlisPro, Agilent Technologies,
Version 1.171.37.35 (release 13-08-2014 CrysAlis171 .NET)
(compiled Aug 13 2014,18:06:01)
Empirical absorption correction using spherical harmonics,
 implemented in SCALE3 ABSPACK scaling algorithm.
;
_exptl_crystal_colour            colourless
_exptl_crystal_colour_primary    colourless
_exptl_crystal_density_diffrn    1.249
_exptl_crystal_description       prism
_exptl_crystal_F_000             168
_exptl_crystal_size_max          0.21
_exptl_crystal_size_mid          0.15
_exptl_crystal_size_min          0.1
_refine_diff_density_max         0.231
_refine_diff_density_min         -0.244
_refine_diff_density_rms         0.058
_refine_ls_abs_structure_details
;
 Flack x determined using 199 quotients [(I+)-(I-)]/[(I+)+(I-)]
 (Parsons, Flack and Wagner, Acta Cryst. B69 (2013) 249-259).
;
_refine_ls_abs_structure_Flack   0.1(3)
_refine_ls_extinction_coef       0.13(2)
_refine_ls_extinction_expression Fc^*^=kFc[1+0.001xFc^2^\l^3^/sin(2\q)]^-1/4^
_refine_ls_extinction_method     'SHELXL-2014/7 (Sheldrick 2014'
_refine_ls_goodness_of_fit_ref   1.054
_refine_ls_hydrogen_treatment    constr
_refine_ls_matrix_type           full
_refine_ls_number_parameters     110
_refine_ls_number_reflns         1126
_refine_ls_number_restraints     1
_refine_ls_restrained_S_all      1.054
_refine_ls_R_factor_all          0.0863
_refine_ls_R_factor_gt           0.0682
_refine_ls_shift/su_max          0.000
_refine_ls_shift/su_mean         0.000
_refine_ls_structure_factor_coef Fsqd
_refine_ls_weighting_details
'w=1/[\s^2^(Fo^2^)+(0.1321P)^2^] where P=(Fo^2^+2Fc^2^)/3'
_refine_ls_weighting_scheme      calc
_refine_ls_wR_factor_gt          0.1904
_refine_ls_wR_factor_ref         0.2218
_reflns_Friedel_coverage         0.350
_reflns_Friedel_fraction_full    0.438
_reflns_Friedel_fraction_max     0.438
_reflns_number_gt                778
_reflns_number_total             1126
_reflns_threshold_expression     'I > 2\s(I)'
_iucr_refine_instructions_details
;

    201711235a.res created by SHELXL-2014/7

TITL CF solution in P21
CELL 1.54184 7.523477 5.544573 10.297636 90 99.8499 90
ZERR 2 0.000746 0.000843 0.000961 0 0.01 0
LATT -1
SYMM -X,0.5+Y,-Z
SFAC C H N O
UNIT 20 18 2 2
 
L.S. 4 0 0
PLAN  20
SIZE 0.1 0.15 0.21
MPLA C1 C2 C3 C4 C5 C6 C7 C8 C9 C10 N1 O1
BOND $H
CONF
fmap 2
acta
SHEL 999 0.837
REM <olex2.extras>
REM <HklSrc "%.\\201711235a.hkl">
REM </olex2.extras>
 
WGHT    0.132100
EXTI    0.129590
FVAR      20.32019
C1    1    0.722441    0.560750    1.018751    11.00000    0.09539    0.10497 =
         0.06505   -0.01122    0.01072    0.00402
C2    1    0.791793    0.355008    0.952751    11.00000    0.08412    0.10440 =
         0.06762   -0.00845    0.00804    0.00070
AFIX  23
H2A   2    0.738900    0.206891    0.978745    11.00000   -1.20000
H2B   2    0.921578    0.344470    0.979594    11.00000   -1.20000
AFIX   0
C3    1    0.746182    0.383891    0.803062    11.00000    0.07431    0.08393 =
         0.06731   -0.00828    0.01029    0.00588
AFIX  23
H3A   2    0.617165    0.406967    0.777263    11.00000   -1.20000
H3B   2    0.806283    0.526058    0.776784    11.00000   -1.20000
AFIX   0
C4    1    0.804124    0.165329    0.732843    11.00000    0.04697    0.09582 =
         0.07314   -0.01332    0.00990   -0.00192
C5    1    0.768635    0.170261    0.585334    11.00000    0.04723    0.08292 =
         0.06875   -0.00269    0.00961    0.00028
C6    1    0.675765    0.352988    0.513156    11.00000    0.06023    0.09243 =
         0.07085   -0.00326    0.00874   -0.00671
AFIX  43
H6    2    0.631450    0.480665    0.556737    11.00000   -1.20000
AFIX   0
C7    1    0.646918    0.350319    0.376209    11.00000    0.06810    0.09323 =
         0.07335    0.00205    0.01278    0.00941
AFIX  43
H7    2    0.586537    0.476725    0.328230    11.00000   -1.20000
AFIX   0
C8    1    0.710095    0.154715    0.311871    11.00000    0.06273    0.11612 =
         0.06343   -0.00839    0.01085    0.00180
AFIX  43
H8    2    0.689882    0.148487    0.220276    11.00000   -1.20000
AFIX   0
C9    1    0.800803   -0.025904    0.382895    11.00000    0.06683    0.10133 =
         0.07019   -0.01421    0.01349   -0.00037
AFIX  43
H9    2    0.842802   -0.155136    0.339149    11.00000   -1.20000
AFIX   0
C10   1    0.832183   -0.022133    0.518806    11.00000    0.05689    0.09271 =
         0.07452   -0.00152    0.01116    0.00384
AFIX  43
H10   2    0.895448   -0.147313    0.565948    11.00000   -1.20000
AFIX   0
N1    3    0.666854    0.718217    1.070254    11.00000    0.13695    0.14920 =
         0.08391   -0.01973    0.01883    0.01737
O1    4    0.878476   -0.003457    0.793610    11.00000    0.09906    0.10449 =
         0.07421    0.00350   -0.00136    0.02419
HKLF 4
 
REM  CF solution in P21
REM R1 =  0.0682 for     778 Fo > 4sig(Fo)  and  0.0863 for all    1126 data
REM    110 parameters refined using      1 restraints
 
END  
     
WGHT      0.1326      0.0000 

REM Highest difference peak  0.231,  deepest hole -0.244,  1-sigma level  0.058
Q1    1   0.7793  0.1693  0.6421  11.00000  0.05    0.23
Q2    1   0.7447 -0.0070  0.1812  11.00000  0.05    0.19
Q3    1   0.7374  0.3595  0.1376  11.00000  0.05    0.19
Q4    1   0.8216  0.3465  0.5066  11.00000  0.05    0.18
Q5    1   0.8445 -0.0069  0.5945  11.00000  0.05    0.18
Q6    1   0.7290  0.7634  1.1867  11.00000  0.05    0.17
Q7    1   0.6951 -0.2020  0.2712  11.00000  0.05    0.17
Q8    1   0.6385  0.1779  0.5941  11.00000  0.05    0.16
Q9    1   0.7174  0.5165  0.2764  11.00000  0.05    0.16
Q10   1   0.7242  0.3501  0.7238  11.00000  0.05    0.16
Q11   1   0.7557  0.3726  0.8550  11.00000  0.05    0.16
Q12   1   0.7385 -0.0032  0.8010  11.00000  0.05    0.16
Q13   1   0.7867 -0.0328  0.4279  11.00000  0.05    0.15
Q14   1   0.7777 -0.1987  0.6242  11.00000  0.05    0.15
Q15   1   0.7092  0.2022  0.3744  11.00000  0.05    0.15
Q16   1   0.7036  0.1834  0.2726  11.00000  0.05    0.15
Q17   1   0.7660  0.1276  0.5269  11.00000  0.05    0.15
Q18   1   0.6863 -0.0068  0.5239  11.00000  0.05    0.15
Q19   1   0.8205 -0.0178  0.4743  11.00000  0.05    0.15
Q20   1   0.7972  0.1752  1.0970  11.00000  0.05    0.14

  REM The information below was added by Olex2.
  REM
  REM R1 = 0.0682 for 778 Fo > 4sig(Fo) and 0.0863 for all 1720 data
  REM n/a parameters refined using n/a restraints
  REM Highest difference peak 0.23, deepest hole -0.24
  REM Mean Shift 0, Max Shift 0.000.

  REM +++ Tabular Listing of Refinement Information +++
  REM R1_all = 0.0863
  REM R1_gt = 0.0682
  REM wR_ref = 0.2218
  REM GOOF = 1.054
  REM Shift_max = 0.000
  REM Shift_mean = 0
  REM Reflections_all = 1720
  REM Reflections_gt = 778
  REM Parameters = n/a
  REM Hole = -0.24
  REM Peak = 0.23
  REM Flack = 0.1(3)

  
;
_cod_data_source_file            c8qo00556g2.cif
_cod_data_source_block           201711235a
_cod_original_cell_volume        423.23(9)
_cod_database_code               1554367
_shelx_shelxl_version_number     2014/7
_chemical_oxdiff_formula         C30H30N4O4
_shelx_space_group_comment
;
The symmetry employed for this shelxl refinement is uniquely defined
by the following loop, which should always be used as a source of
symmetry information in preference to the above space-group names.
They are only intended as comments.
;
_shelx_estimated_absorpt_t_max   0.938
_shelx_estimated_absorpt_t_min   0.875
_reflns_odcompleteness_completeness 99.88
_reflns_odcompleteness_iscentric 1
_reflns_odcompleteness_theta     66.97
_olex2_refinement_description
;
1. Fixed Uiso
 At 1.2 times of:
  All C(H) groups, All C(H,H) groups
2.a Secondary CH2 refined with riding coordinates:
 C2(H2A,H2B), C3(H3A,H3B)
2.b Aromatic/amide H refined with riding coordinates:
 C6(H6), C7(H7), C8(H8), C9(H9), C10(H10)
;
_olex2_submission_special_instructions 'No special instructions were received'
loop_
_space_group_symop_operation_xyz
'x, y, z'
'-x, y+1/2, -z'
loop_
_atom_site_label
_atom_site_type_symbol
_atom_site_fract_x
_atom_site_fract_y
_atom_site_fract_z
_atom_site_U_iso_or_equiv
_atom_site_adp_type
_atom_site_occupancy
_atom_site_site_symmetry_order
_atom_site_calc_flag
_atom_site_refinement_flags_posn
C1 C 0.7224(9) 0.5607(17) 1.0188(6) 0.089(2) Uani 1 1 d .
C2 C 0.7918(8) 0.3550(17) 0.9528(5) 0.086(2) Uani 1 1 d .
H2A H 0.7389 0.2069 0.9787 0.103 Uiso 1 1 calc R
H2B H 0.9216 0.3445 0.9796 0.103 Uiso 1 1 calc R
C3 C 0.7462(8) 0.3839(14) 0.8031(5) 0.0754(18) Uani 1 1 d .
H3A H 0.6172 0.4070 0.7773 0.090 Uiso 1 1 calc R
H3B H 0.8063 0.5261 0.7768 0.090 Uiso 1 1 calc R
C4 C 0.8041(6) 0.1653(15) 0.7328(6) 0.0720(18) Uani 1 1 d .
C5 C 0.7686(6) 0.1703(14) 0.5853(5) 0.0663(16) Uani 1 1 d .
C6 C 0.6758(7) 0.3530(14) 0.5132(5) 0.0748(19) Uani 1 1 d .
H6 H 0.6314 0.4807 0.5567 0.090 Uiso 1 1 calc R
C7 C 0.6469(7) 0.3503(15) 0.3762(6) 0.0781(19) Uani 1 1 d .
H7 H 0.5865 0.4767 0.3282 0.094 Uiso 1 1 calc R
C8 C 0.7101(7) 0.1547(15) 0.3119(6) 0.081(2) Uani 1 1 d .
H8 H 0.6899 0.1485 0.2203 0.097 Uiso 1 1 calc R
C9 C 0.8008(7) -0.0259(15) 0.3829(5) 0.079(2) Uani 1 1 d .
H9 H 0.8428 -0.1551 0.3391 0.095 Uiso 1 1 calc R
C10 C 0.8322(7) -0.0221(14) 0.5188(6) 0.0747(19) Uani 1 1 d .
H10 H 0.8954 -0.1473 0.5659 0.090 Uiso 1 1 calc R
N1 N 0.6669(10) 0.7182(19) 1.0703(6) 0.123(3) Uani 1 1 d .
O1 O 0.8785(6) -0.0035(9) 0.7936(4) 0.0945(17) Uani 1 1 d .
loop_
_atom_site_aniso_label
_atom_site_aniso_U_11
_atom_site_aniso_U_22
_atom_site_aniso_U_33
_atom_site_aniso_U_23
_atom_site_aniso_U_13
_atom_site_aniso_U_12
C1 0.095(4) 0.105(7) 0.065(3) -0.011(4) 0.011(3) 0.004(5)
C2 0.084(3) 0.104(6) 0.068(3) -0.008(4) 0.008(3) 0.001(4)
C3 0.074(3) 0.084(5) 0.067(3) -0.008(3) 0.010(2) 0.006(4)
C4 0.047(2) 0.096(5) 0.073(3) -0.013(3) 0.010(2) -0.002(4)
C5 0.047(2) 0.083(4) 0.069(3) -0.003(3) 0.010(2) 0.000(3)
C6 0.060(3) 0.092(5) 0.071(3) -0.003(4) 0.009(2) -0.007(4)
C7 0.068(3) 0.093(5) 0.073(3) 0.002(4) 0.013(2) 0.009(4)
C8 0.063(3) 0.116(7) 0.063(3) -0.008(4) 0.011(2) 0.002(4)
C9 0.067(3) 0.101(6) 0.070(3) -0.014(4) 0.013(2) 0.000(4)
C10 0.057(3) 0.093(5) 0.075(3) -0.002(4) 0.011(2) 0.004(4)
N1 0.137(5) 0.149(8) 0.084(4) -0.020(5) 0.019(4) 0.017(6)
O1 0.099(3) 0.104(4) 0.074(2) 0.004(3) -0.001(2) 0.024(3)
loop_
_atom_type_symbol
_atom_type_description
_atom_type_scat_dispersion_real
_atom_type_scat_dispersion_imag
_atom_type_scat_source
C C 0.0181 0.0091 'International Tables Vol C Tables 4.2.6.8 and 6.1.1.4'
H H 0.0000 0.0000 'International Tables Vol C Tables 4.2.6.8 and 6.1.1.4'
N N 0.0311 0.0180 'International Tables Vol C Tables 4.2.6.8 and 6.1.1.4'
O O 0.0492 0.0322 'International Tables Vol C Tables 4.2.6.8 and 6.1.1.4'
loop_
_geom_angle_atom_site_label_1
_geom_angle_atom_site_label_2
_geom_angle_atom_site_label_3
_geom_angle
N1 C1 C2 179.1(8)
C1 C2 H2A 109.6
C1 C2 H2B 109.6
C1 C2 C3 110.4(6)
H2A C2 H2B 108.1
C3 C2 H2A 109.6
C3 C2 H2B 109.6
C2 C3 H3A 109.4
C2 C3 H3B 109.4
H3A C3 H3B 108.0
C4 C3 C2 111.4(6)
C4 C3 H3A 109.4
C4 C3 H3B 109.4
C5 C4 C3 117.0(6)
O1 C4 C3 121.2(5)
O1 C4 C5 121.7(6)
C6 C5 C4 123.2(6)
C6 C5 C10 118.9(5)
C10 C5 C4 117.9(6)
C5 C6 H6 119.4
C5 C6 C7 121.2(7)
C7 C6 H6 119.4
C6 C7 H7 120.6
C6 C7 C8 118.9(7)
C8 C7 H7 120.6
C7 C8 H8 120.0
C9 C8 C7 120.0(5)
C9 C8 H8 120.0
C8 C9 H9 119.3
C8 C9 C10 121.3(7)
C10 C9 H9 119.3
C5 C10 H10 120.1
C9 C10 C5 119.7(6)
C9 C10 H10 120.1
loop_
_geom_bond_atom_site_label_1
_geom_bond_atom_site_label_2
_geom_bond_distance
C1 C2 1.469(11)
C1 N1 1.138(10)
C2 H2A 0.9700
C2 H2B 0.9700
C2 C3 1.529(8)
C3 H3A 0.9700
C3 H3B 0.9700
C3 C4 1.513(9)
C4 C5 1.497(7)
C4 O1 1.209(8)
C5 C6 1.375(9)
C5 C10 1.396(8)
C6 H6 0.9300
C6 C7 1.390(8)
C7 H7 0.9300
C7 C8 1.396(10)
C8 H8 0.9300
C8 C9 1.354(10)
C9 H9 0.9300
C9 C10 1.379(8)
C10 H10 0.9300
loop_
_geom_torsion_atom_site_label_1
_geom_torsion_atom_site_label_2
_geom_torsion_atom_site_label_3
_geom_torsion_atom_site_label_4
_geom_torsion
C1 C2 C3 C4 -175.8(5)
C2 C3 C4 C5 -179.6(5)
C2 C3 C4 O1 -0.8(8)
C3 C4 C5 C6 -4.9(7)
C3 C4 C5 C10 175.7(5)
C4 C5 C6 C7 179.7(5)
C4 C5 C10 C9 179.3(5)
C5 C6 C7 C8 1.6(9)
C6 C5 C10 C9 -0.1(8)
C6 C7 C8 C9 -1.3(9)
C7 C8 C9 C10 0.3(9)
C8 C9 C10 C5 0.4(9)
C10 C5 C6 C7 -0.9(8)
O1 C4 C5 C6 176.3(6)
O1 C4 C5 C10 -3.1(7)
loop_
_refln_index_h
_refln_index_k
_refln_index_l
_refln_F_squared_meas
_refln_F_squared_sigma
_refln_scale_group_code
0 0 1 43314.3 518.136 1
0 0 2 53698.2 805.02 1
0 0 -2 53177.3 1113.49 3
0 0 3 13515.1 665.711 4
0 0 -3 13755.5 697.405 3
0 0 3 13314.1 505.164 1
0 0 4 87342.7 1986 4
0 0 -4 87428.5 2074.6 3
0 0 5 52621.9 1781.35 4
0 0 -5 52125.8 1834.67 3
0 0 6 506.992 220.325 4
0 0 7 38314.1 1908.49 4
0 0 -8 321.584 173.699 12
0 0 -9 4738.28 676.383 12
0 0 -10 5969.9 739.536 12
0 0 -11 331.995 163.861 12
0 0 -12 1263 257.418 12
0 -1 0 57.4923 45.7447 1
0 -1 1 66654.6 1280.85 1
0 1 1 68061.8 925.35 2
0 -1 -1 68958.3 1198.53 5
0 -1 -1 69431.5 1225.66 3
0 1 2 88077.5 722.195 2
0 -1 -2 88440.9 1450.96 5
0 -1 2 89113 1030.98 4
0 -1 2 89380.6 1670.22 1
0 1 -2 88363.1 980.908 3
0 1 -3 46252.8 1052.34 3
0 -1 3 47331.6 1053.12 4
0 -1 -3 48127.6 1490.08 3
0 1 3 45061.1 1365.42 4
0 -1 3 46578.1 1328.94 1
0 -1 4 12941.7 670.13 4
0 1 -4 12551.7 673.278 3
0 1 4 12438.8 827.884 4
0 -1 4 12304.5 763.204 1
0 -1 -4 12441.3 864.753 3
0 -1 -4 12851.6 688.83 5
0 -1 5 103055 2215.52 4
0 -1 -5 102778 2798.27 3
0 1 5 102839 2687.79 4
0 1 6 8249.34 852.201 4
0 1 7 872.128 320.903 4
0 -1 -8 2467.6 457.608 12
0 -1 8 2283.31 481.766 6
0 1 -8 2274.29 459.977 12
0 1 -9 520.25 223.933 12
0 -1 -9 765.644 267.462 12
0 1 -10 418.264 215.704 12
0 -1 -10 395.602 188.865 12
0 1 -11 321.758 163.137 12
0 -1 -11 385.39 163.545 12
0 1 -12 707.432 191.771 12
0 2 0 33216.6 724.47 4
0 -2 0 35505.4 1258.81 5
0 -2 1 22515.9 1017.92 1
0 -2 -1 23348.7 1014.82 5
0 2 1 22353.9 865.017 2
0 2 1 21411.9 787.512 4
0 -2 1 22415.7 1031.33 5
0 2 2 32367.9 1149.81 4
0 -2 -2 32628.5 1198.71 5
0 -2 2 32990.8 1334.14 1
0 -2 -2 33650.7 1264.38 3
0 2 2 35181.3 952.853 2
0 -2 3 78994.8 2210.2 1
0 -2 -3 80491.6 2193.74 3
0 -2 -3 80966.4 1915.92 5
0 2 3 82226.8 2100.17 4
0 2 4 9415.74 805.824 4
0 -2 -4 8913.82 667.222 5
0 2 5 33261.9 1674.55 4
0 2 6 19503.6 1412.09 4
0 2 -6 21298.4 1438.76 2
0 -2 7 27380.9 1675.91 6
0 2 -7 24532.6 1407.17 12
0 2 -8 2118.25 429.861 12
0 -2 8 1684.06 447.699 6
0 -2 9 2495.79 531.13 6
0 2 -9 3589.77 563.585 12
0 2 -10 1032.84 288.813 12
0 2 -11 170.592 108.127 12
0 -3 0 49.4656 82.2484 5
0 3 0 35.2808 65.7755 2
0 -3 1 1720.16 365.916 5
0 -3 -1 1687.26 351.796 5
0 3 -1 1630.11 356.202 2
0 3 1 1879.74 336.131 2
0 -3 -2 46403.5 1781.74 5
0 -3 -3 24435.1 1303.29 5
0 3 -4 2932.26 557.236 2
0 3 4 2924.76 504.418 4
0 3 -5 1381.66 414.948 2
0 3 5 2266.1 490.354 4
0 -3 6 1806.26 439.593 6
0 -3 -6 2489.81 793.959 11
0 -3 7 24424.2 1658.98 6
0 -3 8 3060.5 595.601 6
0 -3 9 118.69 136.864 6
0 -3 10 50.4461 170.587 8
0 4 -1 7144.62 886.652 2
0 -4 -1 6317.87 800.182 5
0 -4 -2 5325.75 722.965 5
0 4 -2 4806.78 734.734 2
0 -4 -3 532.057 259.558 11
0 -4 4 342.206 194.445 6
0 -4 -4 -693.464 434.554 11
0 -4 -5 382.409 440.426 11
0 -4 5 580.055 241.275 6
0 -4 6 2979.85 575.977 6
0 -4 7 443.269 228.038 6
0 -4 8 188.882 135.843 6
0 -4 9 -103.51 159.493 8
0 -4 9 193.055 122.594 6
0 -5 0 -1344.09 986.522 10
0 -5 -1 302.284 1066.64 10
0 -5 -2 12.4594 289.302 11
0 -5 -3 206.315 315.618 11
0 -5 -4 539.66 438.362 11
0 -5 4 876.511 436.886 8
0 -5 5 1179.14 500.11 8
0 -5 6 294.375 285.097 8
0 -5 6 648.54 248.335 6
0 -5 7 149.234 99.0731 6
0 -5 7 135.92 175.925 8
0 -5 8 106.713 156.606 8
0 -6 0 1802.22 1336.08 10
0 -6 1 1459.14 903.501 10
0 -6 2 152.073 732.591 10
0 -6 3 -115.503 553.35 10
0 -6 4 -70.7354 341.288 10
0 -6 5 111.14 386.512 10
-1 0 12 110.034 99.0656 7
1 0 -12 -15.0699 51.6867 12
1 0 -11 -5.0141 50.1978 12
1 0 -10 -16.7443 62.2256 12
1 0 -9 -88.5353 106.582 12
1 0 -8 1488.46 355.626 12
-1 0 7 5007.9 681.408 4
-1 0 6 4274.74 568.094 4
-1 0 5 187453 3343.31 4
-1 0 4 159848 2182.55 1
-1 0 4 159337 2733.38 4
-1 0 3 176701 2084 1
-1 0 3 175117 2482.21 4
-1 0 2 17426 608.06 1
-1 0 1 44236.3 914.075 2
-1 0 0 7780.04 373.884 2
1 0 1 37752.6 463.152 5
-1 0 -1 38298 805.478 2
-1 0 -2 156084 2118.45 3
-1 0 -2 153857 1688.6 2
-1 0 -3 10609.4 496.245 2
-1 0 -3 10268.9 643.582 3
-1 0 -4 309759 4073.28 3
-1 0 -4 304474 2892.85 2
1 0 5 34729.9 1493.26 4
-1 0 -5 34676.7 1566.1 3
-1 0 -6 149.174 130.678 3
1 0 6 198.415 169.897 4
-1 0 -7 4677.5 718.953 3
1 0 7 4468.23 666.471 4
-1 0 -8 389.677 200.253 12
-1 0 -9 668.707 263.551 12
-1 0 -10 273.087 168.43 12
-1 0 -11 38.464 68.0293 12
-1 0 -12 568.088 153.036 12
1 1 -12 288.287 129.607 12
1 -1 -11 1372.15 319.508 12
1 1 -11 1611.77 358.255 12
1 -1 -10 302.544 166.828 12
1 1 -10 330.38 176.422 12
1 1 -9 1923.46 429.375 12
1 -1 -9 2067.34 424.898 12
1 -1 -8 4199.41 580.436 12
-1 -1 8 4037.67 644.759 6
1 1 -8 4287.62 615.443 12
-1 1 7 4840.4 711.863 4
-1 1 6 1129.5 319.016 4
1 -1 -6 986.644 278.257 5
-1 -1 6 892.69 245.306 4
-1 -1 5 22063.1 1114.88 1
-1 -1 5 21770.1 1061.93 4
1 -1 -5 23300.3 1234.83 5
-1 1 5 23220.3 1277.23 4
-1 -1 4 15557.8 791.26 4
-1 1 4 15368.2 931.149 4
-1 -1 4 14938.9 833.253 1
1 -1 -4 15501.2 915.274 5
-1 1 3 14693.6 503.402 1
-1 1 3 14556.6 803.179 4
-1 -1 3 14529 765.972 1
1 -1 -3 14651.5 826.572 5
-1 -1 2 120791 2062.37 1
-1 -1 2 121454 1618.25 4
-1 1 2 121312 1736.31 2
-1 1 2 119298 2026.96 4
1 -1 -2 123682 2130.03 5
-1 1 1 443061 3367.09 2
-1 1 1 445251 3006.49 4
-1 -1 1 441739 3576.27 1
-1 1 0 327167 2997.16 2
-1 -1 0 325501 2731.71 1
-1 1 0 326949 2031.09 4
-1 -1 0 326996 2448.23 3
-1 1 -1 132239 2049.47 2
-1 -1 -1 135791 1535.26 1
1 -1 1 132284 1905.02 5
-1 -1 -1 133832 1411.8 5
-1 1 -2 114926 1624.91 3
1 -1 2 114017 1894.1 5
-1 1 -2 115123 2066.59 2
-1 -1 -2 116108 1163.35 5
-1 -1 -2 114771 2098.84 3
-1 -1 -2 114305 1178.74 1
-1 1 -3 51520.8 1283.89 3
-1 1 -3 53604.1 1545.92 2
-1 -1 -3 52423.7 1618.31 3
-1 1 -4 64686.8 1881.12 2
-1 1 -4 64605.4 1682.94 3
-1 -1 -4 61193.6 2020.58 3
1 -1 4 66375.9 1618.38 4
-1 -1 -5 2408.36 451.092 3
-1 1 -5 2853.57 423.697 2
1 1 6 9333.16 934.998 4
-1 -1 -6 8827.37 962.766 3
-1 -1 -7 2937.27 612.844 3
1 1 7 2525.24 530.297 4
-1 1 -8 1788.09 410.104 12
-1 -1 -8 2226.44 467.34 12
-1 1 -9 1393.36 378.641 12
-1 -1 -9 1284.64 350.583 12
-1 1 -10 986.69 307.589 12
-1 -1 -10 1026.06 289.482 12
-1 1 -11 422.254 162.115 12
-1 -1 -11 449.621 177.786 12
-1 1 -12 -6.22087 39.0792 12
-1 2 12 735.866 212.197 7
1 2 -11 859.852 234.202 12
1 2 -10 200.613 130.626 12
-1 -2 9 1879.89 460.696 6
-1 -2 9 1022.36 435.778 8
1 2 -9 1964.64 413.854 12
-1 -2 8 18019 1413.61 6
1 2 -8 20340.9 1317.62 12
-1 -2 7 32175.2 1812.87 6
-1 2 6 932.006 321.722 4
-1 -2 5 6028.79 704.045 1
1 -2 -5 7136.17 725.584 5
-1 2 5 7066.54 765.146 4
-1 -2 4 8664.58 791.162 1
1 -2 -4 8429.89 749.14 5
-1 2 4 8605.55 768.344 4
-1 2 3 41903.9 1493.6 4
1 -2 -3 41232.4 1559.13 5
-1 -2 3 40681.6 1597 1
-1 2 2 147882 2507.77 4
1 -2 -2 149846 2858.38 5
-1 -2 2 152611 2885.13 1
-1 2 2 150429 2458.06 2
-1 2 1 40677.7 1029.02 4
-1 2 1 42325.5 1345.22 2
-1 -2 1 41200 1379.94 1
1 -2 -1 42539 1475.14 5
-1 -2 0 52647.4 1420.32 1
-1 2 0 53720.9 1585.43 2
1 -2 0 52946 1624.82 5
-1 2 -1 14723.9 881.974 2
-1 -2 -1 15275.8 773.552 5
-1 -2 -1 15419.1 766.722 3
1 -2 1 13849.8 829.789 5
-1 -2 -1 15583.6 694.172 1
-1 2 -2 95678.9 2401.34 2
-1 -2 -2 93312.9 2191.87 3
-1 -2 -2 94963.5 1849.35 5
1 -2 2 91398.7 2246.61 5
-1 -2 -3 5209.47 584.223 3
-1 2 -3 5572.81 619.084 2
-1 2 -4 9250.67 866.051 2
-1 -2 -4 9839.91 896.301 3
-1 2 -5 6485.14 775.132 2
-1 -2 -5 6604.38 822.541 3
1 2 5 6198.45 752.832 4
-1 -2 -6 763.898 315.804 3
1 2 6 650.275 272.3 4
-1 2 -7 35301 1747.4 12
1 -2 7 35037.6 1944.54 6
1 -2 8 7258.07 925.798 6
-1 2 -8 7220.52 810.28 12
-1 2 -9 1549.01 369.503 12
1 -2 9 1536.92 416.437 6
-1 2 -10 1639.63 349.23 12
1 -2 10 837.356 261.421 6
-1 2 -11 1975.55 319.116 12
-1 3 11 32.3308 94.9845 7
-1 -3 10 50.7582 246.399 8
-1 -3 9 602.872 268.925 6
-1 -3 9 324.684 293.647 8
-1 -3 8 4066 676.612 6
-1 -3 7 26552.8 1735.98 6
-1 -3 6 1380.65 372.092 6
-1 3 5 2358.4 481.754 4
1 -3 -4 4254.04 617.394 5
-1 -3 4 4086.91 658.863 1
-1 -3 3 48861.2 2145.99 1
1 -3 -3 45805.9 1962.95 5
1 -3 -2 10293.2 912.737 5
-1 -3 2 9901.19 898.568 1
-1 3 1 2642.26 437.907 2
-1 -3 1 2669.93 432.381 1
1 -3 -1 2613.43 451.396 5
1 -3 0 28232.2 1483.1 5
-1 3 0 27551.1 1435.01 2
-1 -3 0 28833.8 1331.84 1
-1 3 -1 6452.63 722.663 2
-1 -3 -1 6361.82 649.659 5
1 -3 1 6181.56 691.226 5
-1 3 -2 34433.6 1753.26 2
1 -3 2 36199.3 1727.56 5
-1 -3 -3 21609.9 1355.91 3
1 3 3 22050.9 1311.5 4
-1 3 -3 22064.6 1492.14 2
1 3 4 1239.48 349.061 4
-1 3 -4 1317.62 396.175 2
1 -3 5 2199.26 469.642 6
1 3 5 4342.23 707.633 4
1 -3 6 10406 1051.83 6
-1 -3 -6 6190.39 1285.65 11
1 -3 7 16397.9 1361.45 6
1 -3 8 720.192 291.295 6
1 -3 9 719.897 280.082 6
1 -3 10 116.414 137.169 8
1 -3 10 144.748 125.697 6
-1 -4 10 116.452 90.0928 8
-1 -4 9 172.893 187.722 8
-1 -4 8 534.865 331.871 8
-1 -4 8 779.668 287.716 6
-1 -4 7 394.458 232.128 8
-1 -4 7 928.236 311.213 6
-1 -4 6 272.999 174.547 6
-1 -4 5 1928.34 428.199 6
1 -4 -4 1132.71 562.198 11
1 -4 -3 2600.51 792.037 11
1 4 -2 2658.12 536.78 2
1 -4 -2 3051.92 577.619 5
1 4 -1 5274.07 766.104 2
1 -4 -1 5870.31 803.347 5
-1 4 0 6768.69 868.794 2
1 -4 0 7607.46 918.02 5
-1 4 -1 7975.12 975.321 2
1 -4 1 8191.83 957.651 5
-1 -4 -2 428.17 244.186 11
-1 -4 -3 74.3702 199.391 11
1 -4 3 -191.77 149.295 6
1 -4 4 3400.59 589.114 6
-1 -4 -4 1182.25 594.053 11
1 -4 5 2437.95 521.229 6
-1 -4 -5 1501.99 641.006 11
1 -4 6 2254.27 503.109 6
-1 -4 -6 1272.12 678.659 11
1 -4 7 510.731 215.249 6
1 -4 8 856.232 284.754 6
1 -4 9 214.695 127.642 6
1 -4 9 89.9078 183.143 8
-1 -5 8 -410.909 228.686 8
-1 -5 7 334.871 472.215 10
-1 -5 7 -3.03479 168.037 8
-1 -5 6 -46.6515 255.907 8
-1 -5 6 -1163.36 790.135 10
-1 -5 5 566.552 662.972 10
-1 -5 5 157.985 204.378 8
-1 -5 4 381.419 359.389 8
-1 -5 3 982.113 829.152 10
-1 -5 2 477.92 804.565 10
-1 -5 1 3124.07 1593.98 10
-1 -5 0 36361.8 4814.8 10
-1 -5 -1 -358.122 327.071 11
-1 -5 -1 311.089 1059.43 10
-1 -5 -2 736.519 630.934 10
-1 -5 -2 -84.4333 330.59 11
-1 -5 -3 344.416 283.051 11
-1 -5 -4 239.305 395.815 11
1 -5 5 1737.21 411.812 6
-1 -5 -5 482.178 388.83 11
1 -5 6 79.387 75.6526 6
1 -5 7 -51.6202 117.421 8
1 -5 7 -6.84713 79.2104 6
1 -5 8 32.2445 181.906 8
-1 -6 5 471.923 692.815 10
-1 -6 4 548.452 550.198 10
-1 -6 3 -64.9862 597.516 10
-1 -6 2 -552.092 628.509 10
-1 -6 1 -136.978 513.408 10
-1 -6 0 827.183 938.764 10
1 -6 0 262.85 485.749 10
-1 -6 -1 -959.177 730.848 10
1 -6 1 -231.832 469.506 10
1 -6 2 218.06 437.436 10
1 -6 3 295.539 641.586 10
1 -6 4 197.638 591.052 10
1 -6 5 -23.166 486.189 10
-2 0 12 31.2725 81.8772 7
2 0 -11 1223.97 317.947 12
2 0 -10 2807.08 506.005 12
2 0 -9 1997.02 423.817 12
2 0 -8 14.1014 105.584 12
2 0 -7 7491.32 928.984 5
-2 0 7 7831.09 871.497 4
-2 0 6 14476.9 1077.37 4
-2 0 5 5235.64 596.461 4
-2 0 5 4661.59 468.872 1
-2 0 4 4630.31 509.591 4
-2 0 4 4704.95 465.937 1
-2 0 3 17631.9 857.295 1
-2 0 3 17379.3 874.227 4
-2 0 2 5853.58 464.918 1
-2 0 1 312644 3457.82 2
2 0 0 999999 4941.02 5
-2 0 0 994966 6255.67 2
-2 0 -1 160333 2449.9 2
2 0 1 159616 1502.63 5
-2 0 -2 59586.7 1490.68 2
-2 0 -2 59367.3 1622.79 3
-2 0 -3 21832.6 1096.4 3
-2 0 -3 20321 905.762 2
-2 0 -4 32782.2 1514.98 3
-2 0 -5 45757.4 1966.29 3
2 0 6 14497.1 1143.61 4
-2 0 -6 14700.3 1253.61 3
-2 0 -7 294.806 238.786 9
-2 0 -7 277.974 167.591 12
-2 0 -8 547.966 257.056 12
-2 0 -9 4757.19 677.997 12
-2 0 -10 1213.8 321.059 12
-2 0 -11 91.2018 81.0283 12
-2 1 12 418.065 184.823 7
2 1 -11 28.5089 85.3348 12
2 -1 -11 62.5154 79.125 12
2 1 -10 5424.67 705.353 12
2 -1 -10 5950.25 704.35 12
2 1 -9 221.159 158.177 12
2 -1 -9 503.464 211.032 12
2 -1 -8 8463.93 818.052 12
2 1 -8 7398.24 816.684 12
-2 1 7 20788 1499.25 4
2 -1 -7 21946.9 1516.69 5
-2 1 6 3407.79 558.235 4
-2 -1 6 3582.02 516.366 4
-2 -1 6 3776.52 522.743 1
2 -1 -6 3589.04 590.148 5
-2 -1 5 63764.5 2054.86 1
2 -1 -5 64857.8 2299.43 5
-2 -1 5 65261.4 2018.46 4
-2 1 5 63564.9 2204.78 4
-2 -1 4 7696.39 617.832 4
-2 1 4 8234.63 720.746 4
2 -1 -4 8452.69 772.64 5
-2 -1 4 8581.54 709.062 1
2 -1 -3 72416.2 2097.27 5
-2 1 3 75694.1 1840.2 2
-2 1 3 72592.7 1944.39 4
-2 -1 3 75228.2 1982.56 1
-2 -1 3 73254.2 1711.64 4
-2 -1 2 20077.2 872.933 4
-2 1 2 18420.8 854.074 4
-2 1 2 19069.9 931.429 2
-2 -1 2 20291.3 960.845 1
2 -1 -2 18781.7 974.78 5
-2 1 1 417338 3579.37 4
-2 1 1 416825 4316.31 2
2 -1 -1 413629 4118.04 5
-2 -1 1 414284 4116.87 1
-2 -1 0 320067 3422.49 1
-2 -1 0 326191 3243.38 3
2 -1 0 326170 3414.94 5
-2 1 0 320735 3826.63 2
-2 1 -1 40180.1 1375.93 2
-2 -1 -1 39857.2 1160.44 1
-2 -1 -1 39641.4 1271.84 3
2 -1 1 39680.6 1156.55 5
-2 -1 -2 1923.23 247.515 1
-2 -1 -2 2163.56 345.404 3
2 -1 2 2151.35 269.993 5
-2 1 -2 2865.44 390.867 2
-2 1 -2 1984.29 286.254 3
-2 1 -3 42480.7 1426.88 3
-2 -1 -3 41785.8 1658.13 3
-2 1 -3 40811.6 1528.85 2
-2 1 -4 13595.7 906.02 3
-2 1 -4 15674.3 1029.02 2
-2 -1 -4 13742.3 1057.99 3
-2 -1 -5 29986.6 1736.39 3
2 1 6 36265.3 1992.32 4
-2 -1 -6 25314.8 1759.58 3
-2 -1 -7 4156.11 829.275 9
-2 -1 -7 4139.98 626.889 12
-2 1 -7 3924.92 628.589 12
-2 -1 -8 6854.19 820.386 12
-2 1 -8 6355.57 809.616 12
-2 -1 -8 5180.11 940.132 9
-2 1 -9 1613.45 400.005 12
-2 -1 -9 2271.55 450.891 12
-2 1 -10 847.224 266.494 12
-2 -1 -10 543.782 190.711 12
-2 1 -11 509.437 169.049 12
-2 2 12 317.27 139.546 7
2 2 -11 413.051 164.882 12
-2 2 11 167.237 167.369 7
2 2 -10 15.5791 61.114 12
-2 -2 9 1581.82 543.721 8
2 2 -9 3216.97 531.063 12
-2 -2 8 10109.8 1058.47 6
2 2 -8 11877.5 1024.92 12
-2 -2 8 8830.28 1322.5 8
-2 -2 7 20749.3 1458.15 6
2 2 -7 20568.6 1313.89 12
-2 -2 7 20556.1 1982.84 8
-2 2 6 3712.05 615.291 4
2 -2 -6 4307.87 654.064 5
-2 -2 6 4284.39 656.642 1
2 -2 -5 9913.9 942.787 5
-2 2 5 10720.3 965.065 4
-2 -2 5 10237.7 962.716 1
-2 2 4 27310.3 1435.27 4
-2 -2 4 27687.6 1482.82 1
2 -2 -4 27564.7 1502.42 5
-2 2 3 97677 2393.61 4
-2 -2 3 93929 2566.42 1
2 -2 -3 93116.5 2675.03 5
-2 2 3 98000.9 2406.34 2
-2 -2 2 8307.57 720.447 1
-2 2 2 7564.01 587.267 4
-2 2 2 7847.63 681.166 2
2 -2 -2 7769.88 724.53 5
-2 -2 1 12418.8 821.265 1
-2 2 1 11273.6 622.548 4
-2 2 1 12464.2 871.003 2
2 -2 -1 11379.8 838.005 5
-2 2 0 1549.92 323.33 2
-2 -2 0 1539.92 243.777 3
2 -2 0 1377.09 283.771 5
-2 -2 0 1461.22 266.916 1
-2 2 -1 3154.05 478.392 2
-2 -2 -1 3451.74 383.355 1
-2 -2 -1 3154.73 400.255 3
2 -2 1 3165.19 427.977 5
-2 2 -2 26960 1404.75 2
2 -2 2 25411.6 1226.17 5
-2 -2 -2 26646.7 1288.16 3
-2 2 -3 34604 1695.73 2
-2 -2 -3 33544.9 1615.47 3
-2 -2 -4 17996.5 1325.29 3
-2 2 -4 17615.3 1294.37 2
-2 2 -5 5263.89 761.124 2
-2 -2 -5 4900.98 755.254 3
-2 2 -6 12317.7 1031.72 12
2 -2 6 12361.5 1123.72 6
-2 -2 -7 10740.8 1355.32 9
-2 2 -7 12717.8 1089.88 12
2 -2 7 12041.5 1157.43 6
-2 -2 -8 -0.85645 116.138 9
-2 2 -8 1.94194 38.3255 12
2 -2 8 113.949 70.0206 6
-2 2 -9 254.475 171.293 12
2 -2 9 11.9138 65.8338 6
-2 2 -10 667.833 215.538 12
-2 -3 10 60.6335 141.214 8
-2 3 10 220.295 148.897 7
-2 -3 9 382.166 308.874 8
-2 -3 8 1770.97 606.949 8
-2 -3 7 10584.4 1096.23 6
-2 -3 7 7500.56 1268.55 8
-2 -3 6 2345.27 718.263 8
-2 -3 6 3293.54 585.262 6
2 -3 -5 5139.66 760.081 5
-2 -3 4 12551.7 1164.3 1
2 -3 -4 11840.3 1119.63 5
-2 -3 3 9670.29 971.2 1
2 -3 -3 8736.76 932.018 5
2 -3 -2 6782.7 800.261 5
-2 3 2 5871.53 711.233 2
-2 -3 2 6364.35 742.418 1
-2 3 1 9678.31 925.207 2
2 -3 -1 9916.94 944.898 5
-2 -3 1 9736.16 860.908 1
-2 -3 0 13349.2 958.688 1
-2 3 0 11871.6 1043.81 2
2 -3 0 11005 965.973 5
-2 3 -1 7606.94 865.234 2
2 -3 1 6924.76 757.091 5
-2 3 -2 20852.5 1463.49 2
2 -3 2 21606.4 1376.22 5
-2 -3 -3 536.376 257.303 3
-2 3 -3 629.645 288.77 2
-2 -3 -4 970.22 331.59 3
-2 3 -4 828.88 315.748 2
-2 -3 -5 953.948 517.087 11
2 -3 5 514.877 238.559 6
2 -3 6 2268.04 502.375 6
-2 -3 -6 1482.37 546.155 11
2 -3 7 9547.76 1027.32 6
2 -3 8 294.944 171.428 6
2 -3 9 248.081 157.962 6
2 -3 10 131.952 118.278 6
-2 -4 10 -23.3772 101.78 8
-2 -4 9 21.8336 76.5704 8
-2 -4 8 812.746 421.212 8
-2 -4 7 366.101 317.634 8
-2 -4 6 -372.879 295.458 8
-2 -4 6 -3.67505 43.7303 6
-2 -4 5 1065.1 498.309 8
-2 -4 4 1125.42 488.355 8
-2 -4 3 2549.62 704.521 8
-2 -4 3 2151.44 1046.09 10
-2 -4 2 2716.9 1539.74 10
-2 -4 1 1920.19 617.072 11
-2 -4 1 9626.93 2507.66 10
-2 -4 0 2235.37 692.632 11
-2 -4 0 10159.4 2594.56 10
-2 -4 -1 1333.72 1207.22 10
-2 -4 -1 720.42 441.729 11
-2 -4 -2 5146.69 1063.83 11
-2 -4 -2 4539.88 1788.3 10
-2 -4 -3 488.957 402.557 11
-2 -4 -3 3855.97 1440.78 10
2 -4 3 2205.5 476.992 6
-2 -4 -4 1117.77 573.771 11
2 -4 4 3880.2 649.471 6
-2 -4 -5 272.926 184.782 11
2 -4 5 688.555 286.746 6
-2 -4 -6 2678.27 820.851 11
2 -4 6 4400.67 678.005 6
2 -4 7 804.679 273.259 6
2 -4 8 441.25 193.427 6
2 -4 9 184.453 109.972 6
-2 -5 8 -8.30795 124.41 8
-2 -5 7 26.9098 114.009 8
-2 -5 6 335.983 774.363 10
-2 -5 6 77.5969 194.986 8
-2 -5 5 320.004 278.106 8
-2 -5 5 177.732 465.982 10
-2 -5 4 341.641 294.649 8
-2 -5 4 -404.919 572.879 10
-2 -5 3 -721.325 711.318 10
-2 -5 2 -55.3498 445.372 10
-2 -5 1 135.215 445.256 10
-2 -5 0 367.498 301.615 11
-2 -5 0 857.246 671.159 10
-2 -5 -1 123.672 253.253 11
-2 -5 -1 838.388 550.065 10
-2 -5 -2 530.629 599.696 10
-2 -5 -2 388.965 400.189 11
-2 -5 -3 -218.017 265.218 11
-2 -5 -3 587.278 586.455 10
2 -5 4 2118.26 446.484 6
-2 -5 -4 245.796 302.315 11
-2 -5 -5 281.184 305.318 11
2 -5 5 533.478 222.386 6
2 -5 6 116.31 113.098 6
2 -5 7 386.046 269.556 8
2 -5 7 213.904 109.472 6
-2 -6 5 193.716 296.873 10
-2 -6 4 -507.009 554.902 10
-2 -6 3 110.018 551.052 10
-2 -6 2 840.667 846.552 10
-2 -6 1 1258.36 1077.42 10
-2 -6 0 191.195 523.195 10
-2 -6 -1 211.141 346.086 11
-2 -6 -1 -122.197 575.282 10
2 -6 1 416.904 515.379 10
2 -6 2 19.5425 503.656 10
-2 -6 -2 260.475 329.011 11
-2 -6 -2 95.2486 666.821 10
-2 -6 -3 210.615 244.249 11
2 -6 4 234.249 390.429 10
-3 0 12 0.34046 53.3798 7
-3 0 11 285.324 183.502 7
3 0 -10 2186.72 443.181 12
-3 0 10 1242.67 393.058 7
3 0 -9 1010.65 300.966 12
3 0 -8 1792.15 406.387 12
3 0 -7 318.851 226.354 5
-3 0 7 252.959 210.906 4
3 0 -6 5496.52 802.582 5
-3 0 6 5178.93 695.763 4
-3 0 5 26468 1461.01 4
-3 0 5 27674.1 1385.93 1
-3 0 4 -5.9937 79.1096 4
-3 0 4 294.701 147.483 1
-3 0 3 635.31 196.201 1
-3 0 3 1168.62 269.336 4
-3 0 2 23014.6 1134.58 1
-3 0 2 22297.7 1064.42 4
3 0 -1 3152.54 393.565 5
-3 0 1 2792.65 407.579 2
3 0 0 3029.88 344.555 5
-3 0 0 3366.84 471.933 2
-3 0 -1 8806.94 739.443 2
-3 0 -1 7521.1 640.486 3
-3 0 -2 13926.1 930.502 2
-3 0 -2 12813.6 881.889 3
-3 0 -3 24465.3 1276.51 2
-3 0 -3 24283.6 1314.95 3
-3 0 -4 11481.1 989.184 3
-3 0 -5 1006.61 318.868 3
-3 0 -6 3223.61 552.781 12
-3 0 -6 2708.08 638.273 9
-3 0 -7 883.02 381.286 9
-3 0 -7 1298.71 355.339 12
-3 0 -8 646.004 257.681 12
-3 0 -8 96.8539 157.354 9
-3 0 -9 9.02744 66.4652 12
-3 0 -10 -22.0499 57.6349 12
-3 1 12 261.331 143.665 7
-3 1 11 505.408 216.239 7
3 1 -10 245.011 157.672 12
-3 -1 10 84.7688 112.763 7
-3 1 10 127.282 150.168 7
3 -1 -9 312.877 164.107 12
3 1 -9 375.333 199.554 12
-3 -1 9 371.487 209.699 7
3 -1 -8 24219.5 1420.94 12
-3 -1 8 26207.2 1705 7
3 1 -8 23347.1 1489.44 12
3 1 -7 4421.95 619.538 12
3 -1 -7 4788.21 769.332 5
3 -1 -6 7063.8 899.418 5
-3 -1 6 6539.69 751.627 4
-3 1 6 5731.24 769.618 4
-3 -1 6 6405.26 760.49 1
3 -1 -5 38861.6 1976.51 5
-3 -1 5 38463.4 1700.78 4
-3 1 5 37578.1 1834.68 4
-3 -1 5 39410.9 1814.63 1
3 -1 -4 644.878 237.898 5
-3 1 4 717.325 213.896 1
-3 1 4 625.42 225.445 4
-3 -1 4 678.623 222.916 4
3 -1 -3 102382 2802.22 5
-3 -1 3 100544 2424.09 4
-3 1 3 100368 2485.84 4
-3 -1 3 98862.2 2565.54 1
-3 1 3 101089 2567.49 2
-3 1 2 21836.1 1069.67 4
-3 -1 2 21949.4 1166.54 1
-3 1 2 22466.1 1247.78 2
-3 1 1 143938 2698.25 4
-3 -1 1 149600 2985.6 1
3 -1 -1 145169 2816.44 5
-3 -1 1 147155 2700.05 3
-3 1 1 144730 3177.6 2
-3 -1 0 61849.4 1887.41 1
-3 1 0 63747.7 2079.17 2
3 -1 0 61448.3 1717.81 5
-3 -1 0 60223.8 1757.68 3
-3 1 -1 31664.1 1466.82 2
-3 -1 -1 32185.2 1337.52 1
3 -1 1 33079.5 1200.51 5
-3 -1 -1 31173.1 1339.2 3
-3 1 -1 32088.1 1300.34 3
-3 -1 -2 47927.6 1585.61 1
-3 1 -2 48049.2 1843.19 2
-3 -1 -2 47036.7 1764.76 3
-3 1 -2 47777.9 1661.58 3
-3 1 -3 4967.99 622.925 2
-3 -1 -3 4823.83 616.584 3
-3 1 -3 4764.07 563.52 3
-3 1 -4 59015.3 2256.87 2
-3 -1 -4 55009.1 2296.69 3
-3 1 -4 58117.2 2115.86 3
-3 -1 -5 1227.03 377.47 3
-3 1 -6 14669 1188.44 12
-3 -1 -6 18911.5 1682.86 9
-3 -1 -6 17052.6 1250.82 12
-3 1 -7 7722.47 898.895 12
-3 -1 -7 6681.76 1080.12 9
-3 -1 -7 8960.41 932.065 12
-3 -1 -8 577.916 239.677 12
-3 1 -8 578.413 246.433 12
-3 -1 -8 186.172 296.525 9
-3 -1 -9 1161.47 295.807 12
-3 1 -9 1344.5 345.449 12
-3 -1 -10 404.32 140.166 12
-3 1 -10 337.679 155.385 12
-3 2 11 380.548 189.463 7
-3 2 10 288.873 184.871 7
-3 -2 9 605.777 338.378 8
3 2 -9 2200.82 438.599 12
3 2 -8 9664.38 943.332 12
-3 -2 8 5870.02 1092.31 8
3 2 -7 15929.5 1201.45 12
-3 -2 7 16028.1 1805.97 8
-3 2 6 8902.7 1007.86 4
-3 -2 6 9260.15 1025.81 1
3 -2 -6 9165.98 1046.86 5
-3 2 5 4240.37 649.023 4
-3 -2 5 3774.69 624.146 1
3 -2 -5 4108.38 670.735 5
-3 2 4 5910.9 712.085 4
-3 -2 4 5574.07 710.094 1
3 -2 -4 5407.49 727.057 5
-3 -2 3 19393.8 1270.89 1
-3 2 3 18406.3 1122.63 4
-3 2 3 18970 1271.77 2
3 -2 -3 17930.5 1280.45 5
-3 2 2 18467.6 1014.25 4
3 -2 -2 18793.6 1244.75 5
-3 -2 2 17347.6 1156.8 1
-3 2 2 18870.4 1263.38 2
-3 2 1 90055.8 2774.09 2
-3 -2 1 95041.3 2178.32 3
-3 -2 1 93913.8 2570.36 1
3 -2 -1 93418.2 2613.41 5
-3 2 0 53954.9 2160.8 2
-3 -2 0 56255.1 1908.75 1
-3 -2 0 53683.6 1744.03 3
3 -2 0 55403.6 1951.33 5
-3 2 -1 11952.8 1040.45 2
-3 -2 -1 12606.8 867.04 1
-3 -2 -1 12044.9 882.86 3
3 -2 1 11414.2 883.255 5
-3 2 -1 12646.6 849.011 3
-3 2 -2 4317.79 645.154 2
-3 -2 -2 4114.33 567.074 3
3 -2 2 4243.43 520.328 5
-3 2 -3 11609.9 1110.67 2
-3 -2 -3 11768.8 1033.17 3
-3 2 -4 7265.03 931.55 2
-3 -2 -4 6373.69 826.061 3
-3 2 -5 1180.38 316.178 12
-3 -2 -5 1553.96 461.25 9
3 -2 6 5720.7 781.899 6
-3 2 -6 6565.35 785.254 12
-3 -2 -6 8163 1157.64 9
-3 2 -7 12526.9 1105.91 12
3 -2 7 10064.6 1030.45 6
-3 -2 -7 12559 1445.72 9
-3 2 -8 955.248 282.998 12
3 -2 8 987.332 310.316 6
-3 -2 -8 991.348 395.378 9
-3 2 -9 480.746 191.065 12
-3 2 -10 934.287 214.878 12
-3 -3 10 -178.165 152.282 8
-3 3 10 -70.8855 91.6633 7
-3 -3 9 337.121 266.027 8
-3 3 9 163.784 141.389 7
-3 -3 8 1536.04 562.493 8
-3 -3 7 1280.73 585.653 8
-3 -3 6 1368.48 580.409 8
-3 -3 5 574.985 377.883 8
-3 -3 4 3371.18 617.342 1
3 -3 -4 3866.76 685.411 5
-3 -3 3 21259.6 1494.92 1
3 -3 -3 21464.5 1572.94 5
-3 3 2 1747.67 446.555 2
3 -3 -2 1765.44 439.985 5
-3 -3 2 2314.61 475.901 1
-3 -3 1 3207.48 534.352 1
3 -3 -1 2935.43 549.205 5
-3 3 1 2812.36 570.845 2
-3 3 0 9676.35 1047.95 2
3 -3 0 9165.84 932.703 5
-3 3 -1 493.835 248.394 2
3 -3 1 476.472 216.303 5
-3 3 -2 17767 1488.94 2
3 -3 2 19123.3 1360.65 5
-3 -3 -3 222.373 283.963 11
-3 -3 -3 1662.62 1436.4 10
-3 -3 -4 1209.71 523.25 11
-3 -3 -5 550.745 396.54 11
3 -3 5 308.154 188.215 6
-3 -3 -6 4786.23 828.632 9
3 -3 6 4587.87 707.11 6
3 -3 7 1265.72 357.321 6
-3 -3 -7 1027.74 383.601 9
3 -3 8 412.339 205.434 6
3 -3 9 98.0297 43.0955 6
-3 -4 9 22.2331 163.974 8
-3 -4 8 559.553 349.621 8
-3 -4 7 322.563 301.757 8
-3 -4 6 147.136 149.44 8
-3 -4 5 816.541 454.835 8
-3 -4 5 970.256 909.463 10
-3 -4 4 1297.88 516.936 8
-3 -4 4 905.3 837.599 10
-3 -4 3 2789.69 742.726 8
-3 -4 3 1313.36 974.484 10
-3 -4 2 349.164 326.319 11
-3 -4 2 -101.978 330.885 10
-3 -4 1 13118.5 1726.86 11
-3 -4 1 28437.7 4347.23 10
-3 -4 0 5647.87 1155.29 11
-3 -4 0 9991.62 2677.65 10
-3 -4 -1 2208.69 741.059 11
-3 -4 -1 3178.74 1510.97 10
-3 -4 -2 276.266 251.494 11
-3 -4 -2 1621.91 1125.96 10
-3 -4 -3 183.113 317.256 11
-3 -4 -3 1594.84 1350.14 10
3 -4 3 1704.33 443.089 6
-3 -4 -4 1285.94 543.058 11
3 -4 4 1818.79 443.569 6
-3 -4 -5 -53.3484 391.63 11
3 -4 5 133.281 165.719 6
-3 -4 -6 839.021 462.234 11
3 -4 6 5280.49 709.737 6
3 -4 7 473.844 202.774 6
3 -4 8 439.951 176.487 6
-3 -5 8 74.4881 112.111 8
-3 -5 7 -1.83428 123.917 8
-3 -5 6 119.374 169.454 8
-3 -5 5 -30.7154 229.013 8
-3 -5 5 -579.51 595.771 10
-3 -5 4 76.2345 406.296 10
-3 -5 4 39.5261 185.18 8
-3 -5 3 674.969 611.435 10
-3 -5 2 310.933 802.278 10
-3 -5 1 953.616 968.268 10
-3 -5 1 347.804 253.207 11
-3 -5 0 1278.28 641.936 11
-3 -5 0 2935.69 1593.82 10
-3 -5 -1 204.244 229.317 11
-3 -5 -1 844.251 879.757 10
-3 -5 -2 -264.28 248.221 11
-3 -5 -2 188.434 552.372 10
-3 -5 -3 -2.01554 247.442 11
3 -5 3 540.193 239.253 6
-3 -5 -4 62.3472 206.857 11
3 -5 4 1092.74 316.951 6
3 -5 5 1185.05 302.444 6
-3 -5 -5 296.45 341.895 11
3 -5 6 5.97474 88.5037 6
-3 -6 4 -123.357 418.504 10
-3 -6 3 324.93 492.355 10
-3 -6 2 394.264 493.672 10
-3 -6 1 225.053 577.285 10
-3 -6 0 352.713 263.84 11
-3 -6 0 544.629 555.562 10
-3 -6 -1 -31.2251 180.544 11
-3 -6 -1 544.625 554.605 10
-3 -6 -2 378.461 234.564 11
3 -6 2 834.186 535.222 10
-3 -6 -3 186.724 258.605 11
3 -6 3 -95.6909 356.072 10
-4 0 12 59.5582 74.0976 7
-4 0 11 245.238 160.465 7
-4 0 10 -232.728 168.603 7
-4 0 9 -85.7144 117.348 7
-4 0 8 7018.81 936.447 7
-4 0 7 3321.25 627.227 7
4 0 -6 80.0539 183.067 5
-4 0 6 -28.1848 100.007 4
4 0 -5 7421.84 938.798 5
-4 0 5 8571.47 921.203 4
-4 0 5 7965.38 865.252 1
4 0 -4 20335.6 1451.79 5
-4 0 4 22575.9 1387.23 4
-4 0 4 20997.2 1340.34 1
4 0 -3 12626.2 1070.17 5
-4 0 3 12385.9 972.846 4
-4 0 3 12485.3 993.438 1
4 0 -2 321.412 166.555 5
-4 0 2 138.171 122.116 1
4 0 -1 9742.53 800.327 5
-4 0 1 9390.4 879.153 2
-4 0 0 271.157 164.135 3
-4 0 0 379.594 165.045 2
-4 0 -1 52139.6 2086.81 2
-4 0 -1 50446.7 1997.03 3
-4 0 -2 1488.18 351.989 3
-4 0 -2 1628.83 383.697 2
-4 0 -3 11337.9 1013.95 3
-4 0 -4 9473.32 985.507 3
-4 0 -5 14731.4 1154.02 12
-4 0 -5 16360.6 1546.88 9
-4 0 -6 638.102 262.134 12
-4 0 -6 470.737 289.551 9
-4 0 -7 7753.11 1128.49 9
-4 0 -7 8982.51 940.836 12
-4 0 -8 185.216 143.835 12
-4 0 -8 -246.491 219.594 9
-4 0 -9 75.615 82.328 12
-4 0 -10 135.473 85.3982 12
-4 1 12 302.162 133.616 7
-4 -1 11 405.738 185.777 7
-4 1 11 377.276 195.54 7
-4 1 10 3017.94 571.634 7
-4 -1 10 2599 504.444 7
-4 -1 9 524.084 250.877 7
-4 1 9 529.029 268.631 7
-4 -1 8 19832.8 1504.15 7
-4 1 8 20702.6 1618.05 7
-4 -1 7 2297.14 506.932 7
-4 1 7 2533.32 563.514 7
-4 -1 6 6498.02 831.731 4
-4 -1 6 6329.65 835.904 1
-4 1 6 5611.66 802.73 4
4 -1 -6 5744.78 850.045 5
-4 -1 5 4292.23 652.822 4
-4 1 5 3893.02 641.772 4
-4 -1 5 3592.06 612.163 1
4 -1 -5 3857.39 665.593 5
-4 1 4 14469.9 1147.91 4
-4 1 4 14011.2 1094.05 1
-4 -1 4 13718.1 1127.09 1
4 -1 -4 14074.5 1187.33 5
-4 1 3 14639.1 1118.05 1
-4 1 3 15139.3 1101.47 4
-4 -1 3 15367.3 1161.01 1
-4 1 3 15389.4 1179.12 2
4 -1 -3 15564.8 1189.17 5
-4 -1 2 9461.94 904.886 1
-4 1 2 9362.9 940.216 2
4 -1 -2 9149.25 857.71 5
-4 -1 1 162944 3687.37 1
-4 1 1 157689 3944.96 2
4 -1 -1 162759 3415.89 5
-4 -1 1 159058 3398.56 3
-4 -1 0 40190 1818.55 1
-4 1 0 42617.7 2040.72 2
4 -1 0 42027.4 1642.22 5
-4 -1 0 42521.1 1813.83 3
-4 -1 -1 4008.04 561.692 1
-4 1 -1 4591 672.498 2
-4 -1 -1 4042.52 579.04 3
-4 1 -1 4666.18 596.13 3
-4 1 -2 24268.4 1556.55 2
-4 -1 -2 22979.8 1436.18 3
-4 1 -2 22170.9 1344.24 3
-4 1 -3 6525.01 839.348 2
-4 -1 -3 5935.59 780.517 3
-4 1 -3 6004.72 729.706 3
-4 -1 -4 8044.27 958.982 3
-4 1 -4 8585.4 920.367 3
-4 1 -5 51.0271 78.2377 12
-4 -1 -5 -116.683 124.575 12
-4 1 -6 18249.1 1376.18 12
-4 -1 -6 15609.9 1600.73 9
-4 -1 -6 19435.5 1351.52 12
-4 -1 -7 1663.82 394.025 12
-4 1 -7 1856.91 436.983 12
-4 -1 -7 1309.38 461.776 9
-4 1 -8 1910.02 425.319 12
-4 -1 -8 1733.97 370.893 12
-4 -1 -8 1700.13 528.878 9
-4 -1 -9 2480.02 381.802 12
-4 1 -9 2158.07 395.169 12
-4 1 -10 677.431 174.344 12
-4 2 11 -3.32256 44.6854 7
-4 2 10 580.324 239.539 7
-4 2 9 1114.2 358.327 7
-4 -2 9 598.698 382.151 8
-4 -2 8 1728.37 586.001 8
-4 2 8 4101.55 697.673 7
-4 -2 7 3253.23 819.633 8
-4 2 7 5461.11 816.547 7
-4 -2 6 5205.75 1027.85 8
-4 2 6 7636.4 936.731 7
-4 2 5 1136.27 357.71 4
4 -2 -4 1023.75 346.819 5
-4 -2 4 1081.1 348.038 1
-4 2 4 1054.75 334.393 4
-4 2 3 27503.6 1554.67 4
-4 2 3 27988.7 1740.4 2
4 -2 -3 27520 1700.67 5
-4 -2 3 30020 1758.55 1
-4 2 2 13563.3 1260.91 2
-4 -2 2 14137.4 1182.18 1
4 -2 -2 13220.9 1133.85 5
-4 2 1 67327.2 2795.67 2
-4 -2 1 67983.4 2524.56 1
-4 -2 1 65266.6 2211.64 3
4 -2 -1 67349.2 2468 5
-4 2 0 14070.3 1287.45 2
-4 -2 0 15472 1109.7 3
4 -2 0 15182.2 1144.75 5
-4 -2 0 15725.6 1165.9 1
-4 2 -1 3685.91 669.738 2
-4 -2 -1 3197.77 532.751 3
-4 2 -1 3015.33 493.803 3
-4 2 -2 9758.27 1102.49 2
-4 -2 -2 9671.32 974.903 3
-4 2 -3 4838.92 815.351 2
-4 -2 -3 3818.3 654.564 3
-4 2 -4 3860.95 589.451 12
-4 -2 -4 5263.82 871.456 9
-4 2 -5 363.524 189.987 12
-4 -2 -5 353.827 247.1 9
-4 2 -6 2128.2 457.783 12
4 -2 6 2509.03 496.654 6
-4 -2 -6 2676.51 689.889 9
-4 2 -7 2003.95 438.26 12
4 -2 7 1421.26 354.077 6
-4 -2 -7 2370.08 601.859 9
-4 2 -8 1865.6 379.398 12
-4 -2 -8 1099.75 371.789 9
-4 2 -9 93.88 77.3543 12
-4 -3 10 139.36 202.248 8
-4 -3 9 105.732 132.842 8
-4 -3 8 114.761 157.977 8
-4 -3 7 891.242 471.387 8
-4 -3 6 2531.57 784.051 8
-4 -3 5 609.83 361.33 8
-4 -3 4 3563.52 861.875 8
-4 -3 3 4254.32 924.336 8
-4 -3 3 4808.98 1802.16 10
-4 -3 2 3056.1 759.736 8
-4 -3 1 9094 987.909 1
-4 -3 1 9078.62 1372.44 11
4 -3 -1 8683.14 1002.58 5
-4 -3 0 3981.06 921.867 11
-4 -3 0 3124.31 1503.05 10
4 -3 0 4041.01 676.322 5
-4 -3 -1 2090.65 702.806 11
-4 -3 -1 575.494 454.376 10
-4 -3 -2 454.403 378.14 11
-4 -3 -2 707.834 879.449 10
-4 -3 -2 1138.11 450.444 9
-4 -3 -3 426.906 321.429 11
-4 -3 -3 599.705 303.02 9
-4 -3 -4 4045.71 932.638 11
-4 -3 -4 6998.93 1007.18 9
4 -3 5 357.992 197.737 6
-4 -3 -5 753.887 314.177 9
4 -3 6 883.277 297.668 6
-4 -3 -6 1075.65 413.55 9
4 -3 7 297.218 155.066 6
-4 -3 -7 400.366 240.141 9
4 -3 8 368.793 154.157 6
-4 -4 9 14.6541 92.6383 8
-4 -4 8 567.371 279.266 8
-4 -4 7 -557.649 330.634 8
-4 -4 6 117.233 200.024 8
-4 -4 5 551.23 372.835 8
-4 -4 4 641.7 1106.38 10
-4 -4 4 426.505 328.863 8
-4 -4 3 1106.02 514.545 11
-4 -4 3 2591.94 1421.8 10
-4 -4 3 1644.4 586.622 8
-4 -4 2 88.4656 242.62 11
-4 -4 2 176.613 473.592 10
-4 -4 1 7125.84 1298.94 11
-4 -4 1 3544.13 1919.32 10
-4 -4 0 4152.91 986.521 11
-4 -4 0 3700.15 1800.35 10
-4 -4 -1 2047.4 775.84 11
-4 -4 -1 2852.29 1487.34 10
-4 -4 -2 2188.27 726.438 11
-4 -4 -2 2867.06 1503.35 10
-4 -4 -3 668.72 408.041 11
4 -4 3 1268.87 369.367 6
-4 -4 -4 327.959 322.207 11
4 -4 4 2466.4 488.763 6
-4 -4 -5 279.258 345.069 11
4 -4 5 732.003 268.327 6
4 -4 6 1790.89 392.643 6
4 -4 7 520.533 202.198 6
-4 -5 7 93.9436 123.656 8
-4 -5 6 173.552 166.274 8
-4 -5 5 430.089 516.966 10
-4 -5 5 114.045 148.146 8
-4 -5 4 -1120.87 788.953 10
-4 -5 4 -49.6848 193.569 8
-4 -5 3 -452.755 654.583 10
-4 -5 2 2.91555 250.419 11
-4 -5 2 107.437 475.196 10
-4 -5 1 -217.051 243.531 11
-4 -5 1 342.321 589.714 10
-4 -5 0 347.074 245.149 11
-4 -5 0 218.854 716.609 10
-4 -5 -1 74.2592 170.756 11
-4 -5 -1 183.586 713.123 10
-4 -5 -2 -72.1549 257.697 11
4 -5 2 190.353 164.242 6
-4 -5 -3 -83.8888 228.102 11
4 -5 3 319.391 171.793 6
-4 -5 -4 136.402 183.801 11
4 -5 4 205.251 166.674 6
-4 -5 -5 63.1073 198.534 11
4 -5 5 208.518 134.056 6
-4 -6 2 151.188 514.276 10
-4 -6 1 136.725 659.699 10
-5 0 11 -40.3199 81.3948 7
-5 0 10 1016.9 314.429 7
-5 0 9 9843.92 1084.64 7
-5 0 8 6201.91 887.768 7
-5 0 7 1510.97 450.72 7
-5 0 6 849.038 329.601 7
-5 0 5 -250.655 194.945 7
5 0 -4 3677.91 678.991 5
-5 0 4 3522.34 616.44 1
5 0 -3 18327.9 1426.89 5
-5 0 3 16991.6 1344.65 1
-5 0 2 197.151 170.818 1
-5 0 1 628.9 260.279 3
-5 0 1 443.902 247.742 1
-5 0 0 737.225 273.322 3
-5 0 0 1191.43 394.662 1
-5 0 -1 12405.5 1151.87 3
-5 0 -2 1663.8 433.444 3
-5 0 -3 1551.53 426.822 7
-5 0 -3 1446.18 447.169 9
-5 0 -4 795.55 286.223 12
-5 0 -4 1048.29 386.95 9
-5 0 -5 1534.61 381.532 12
-5 0 -5 1358.38 447.29 9
-5 0 -6 12698.8 1106.33 12
-5 0 -6 10433.4 1284.92 9
-5 0 -7 3064.01 527.781 12
-5 0 -7 1603.08 485.808 9
-5 0 -8 88.7861 100.795 12
-5 0 -9 79.2672 69.0093 12
-5 -1 11 74.8662 93.5164 7
-5 1 11 225.039 135.666 7
-5 -1 10 52.548 97.4421 7
-5 1 10 59.104 93.8307 7
-5 -1 9 552.434 249.012 7
-5 1 9 377.057 212.051 7
-5 -1 8 13526.6 1273.52 7
-5 1 8 12202 1230.97 7
-5 -1 7 563.196 266.203 7
-5 1 7 561.277 273.64 7
-5 -1 6 5378.7 831.551 7
-5 1 6 4723.51 769.82 7
-5 -1 6 6134.61 1061.6 8
-5 -1 5 1051.93 356.708 7
-5 1 5 1643.54 424.751 7
-5 -1 5 1024.46 426.258 8
5 1 -4 12228.2 1264.34 5
-5 1 4 11916 1151.61 1
-5 -1 4 12172.9 1190.37 1
5 -1 -4 13701.3 1291.52 5
5 1 -3 11250.8 1161.73 5
-5 1 3 10023.2 1071.31 1
-5 -1 3 10462.5 1096.08 1
5 -1 -3 11082.6 1111.47 5
-5 -1 3 10440.3 978.048 3
-5 -1 2 6574.78 861.219 1
-5 1 2 5571.05 820.68 2
5 -1 -2 5972.13 775.926 5
-5 -1 2 6038.91 749.62 3
-5 -1 1 4499.32 715.442 1
-5 1 1 4417.72 735.216 2
-5 -1 1 3871.2 618.098 3
-5 -1 0 7608.41 912.35 1
-5 1 0 6567.17 903.085 2
-5 -1 0 5565.37 766.606 3
-5 1 0 5165.4 722.926 3
-5 -1 -1 21378.5 1500.67 1
-5 1 -1 22753.8 1684.27 2
-5 -1 -1 21885.8 1567.37 3
-5 1 -1 20315.6 1446.33 3
-5 -1 -2 4063.76 704.407 7
-5 1 -2 4654.19 782.44 2
-5 1 -2 4186.11 675.622 3
-5 -1 -3 1117.37 373.865 7
-5 -1 -3 1065.49 380.225 9
-5 1 -4 2632.57 527.292 12
-5 -1 -4 3932.51 597.068 12
-5 -1 -4 3053.66 705.43 9
-5 -1 -5 1710.29 406.141 12
-5 1 -5 1581.84 407.863 12
-5 -1 -5 1358.03 502.749 9
-5 -1 -6 11342.1 1020.15 12
-5 1 -6 10976.6 1057.7 12
-5 -1 -6 10924.5 1278.87 9
-5 -1 -7 349.583 175.76 12
-5 1 -7 361.543 183.983 12
-5 -1 -7 440.049 295.333 9
-5 -1 -8 -68.5045 80.5229 12
-5 1 -8 -63.5358 86.3493 12
-5 -1 -8 91.0698 140.194 9
-5 1 -9 124.505 82.3724 12
-5 2 10 267.578 158.566 7
-5 2 9 721.8 270.197 7
-5 2 8 727.751 299.269 7
-5 -2 8 426.481 291.869 8
-5 2 7 2277.5 525.606 7
-5 -2 7 1113.87 437.989 8
-5 2 6 6829.46 927.968 7
-5 -2 6 4100.23 922.802 8
-5 2 5 8253.1 1012 7
-5 -2 5 4981.69 1014.89 8
-5 -2 4 439.635 239.632 7
-5 -2 4 421.774 307.596 8
-5 -2 3 4085.97 680.4 7
-5 -2 3 2972.47 770.662 8
5 -2 -2 3643.57 649.98 5
-5 -2 2 4301.84 862.379 8
-5 -2 1 27145 1787.47 1
-5 -2 0 529.175 237.909 3
-5 2 0 -231.246 173.405 3
-5 -2 0 398.479 236.361 7
-5 -2 0 398.233 343.711 8
-5 -2 -1 682.884 299.284 7
-5 -2 -1 698.918 440.704 11
-5 -2 -2 1581.39 458.547 7
-5 -2 -2 2041.64 767.838 11
-5 -2 -2 604.011 373.001 9
-5 2 -3 5927.34 771.181 12
-5 -2 -3 8642.78 1191.2 9
-5 2 -4 3397.62 593.305 12
-5 -2 -4 3563.78 777.622 9
-5 2 -5 1031.03 320 12
5 -2 5 1053.59 311.449 6
-5 -2 -5 1493.44 497.837 9
-5 2 -6 1338.99 359.98 12
5 -2 6 450.807 201.287 6
-5 -2 -6 1116.75 405.917 9
-5 2 -7 233.109 145.876 12
-5 -2 -7 258.177 204.061 9
-5 2 -8 692.421 199.272 12
-5 -3 9 197.813 146.963 8
-5 -3 8 312.602 252.766 8
-5 -3 7 20.9839 161.429 8
-5 -3 6 -56.8455 140.42 8
-5 -3 5 59.4022 147.552 8
-5 -3 4 260.097 355.227 8
-5 -3 3 2339.2 775.112 8
-5 -3 2 10815.8 2987.69 10
-5 -3 2 16024.2 1758.13 8
-5 -3 1 38481.7 2993.72 11
-5 -3 1 40433.2 2694.74 8
-5 -3 0 11098.7 1630.17 11
-5 -3 0 11412.1 2950.63 10
-5 -3 -1 424.874 353.829 11
-5 -3 -1 460.689 383.269 9
-5 -3 -2 681.467 492.589 11
-5 -3 -2 1856.05 580.413 9
-5 -3 -3 538.042 433.301 11
-5 -3 -3 1961.52 538.78 9
-5 -3 -4 327.298 237.262 9
5 -3 5 29.4708 106.896 6
-5 -3 -5 -169.7 177.83 9
5 -3 6 57.7098 82.5555 6
-5 -3 -6 254.449 192.267 9
5 -3 7 753.099 213.555 6
-5 -3 -7 1170.6 326.318 9
-5 -4 8 224.391 160.778 8
-5 -4 7 59.4603 146.748 8
-5 -4 6 -59.0981 139.609 8
-5 -4 5 345.305 316.857 8
-5 -4 4 214.907 264.532 11
-5 -4 4 493.599 356.959 8
-5 -4 3 71.3702 216.113 11
-5 -4 3 189.347 148.524 8
-5 -4 2 470.196 299.461 11
-5 -4 2 1433.97 1120.03 10
-5 -4 2 613.412 394.722 8
-5 -4 1 7154.31 1289.85 11
-5 -4 1 4652.55 1924.31 10
-5 -4 0 1970.49 726.01 11
-5 -4 0 512.374 929.895 10
-5 -4 -1 321.995 327.109 11
-5 -4 -2 29.2191 163.367 11
-5 -4 -3 207.974 302.095 11
5 -4 3 548.762 239.292 6
-5 -4 -4 96.2504 205.253 11
5 -4 4 1208.57 321.589 6
5 -4 5 225.971 139.272 6
5 -4 6 1673.01 311.351 6
-5 -5 5 -3.90154 113.109 8
-5 -5 4 708.737 742.53 10
-5 -5 3 174.53 144.298 11
-5 -5 3 109.606 352.989 10
-5 -5 2 2.426 174.871 11
-5 -5 2 707.536 780.48 10
-5 -5 1 28.6199 123.816 11
-5 -5 1 194.711 740.581 10
-5 -5 0 184.338 230.107 11
-5 -5 -1 419.705 328.459 11
5 -5 1 2058.49 372.168 6
-5 -5 -2 73.5516 131.056 11
5 -5 2 72.5476 109.174 6
-5 -5 -3 71.5107 124.365 11
5 -5 3 134.201 112.272 6
-6 0 10 481.045 201.696 7
-6 0 9 3566.09 619.964 7
-6 0 8 12053.3 1221.09 7
-6 0 7 384.279 258.292 7
-6 0 6 1456.26 463.114 7
-6 0 5 745.84 328.668 7
-6 0 4 14765 1426.52 7
-6 0 3 1306.11 417.968 7
-6 0 2 3171.91 627.955 7
-6 0 1 3228.1 645.458 7
-6 0 0 3855.61 704.739 7
-6 0 -1 7701.99 1022.86 7
-6 0 -1 10429.4 1262.77 9
-6 0 -2 1116.77 484.493 7
-6 0 -2 2110.84 561.562 9
-6 0 -3 197.172 147.94 12
-6 0 -3 225.286 199.345 9
-6 0 -4 1141.03 344.682 12
-6 0 -4 1469.73 477.218 9
-6 0 -5 13035.7 1102.73 12
-6 0 -5 11807.8 1284.47 9
-6 0 -6 1638.98 465.556 9
-6 0 -6 2741.67 477.965 12
-6 0 -7 2830.24 431.565 12
-6 0 -7 553.355 284.487 9
-6 -1 10 258.868 151.924 7
-6 1 10 682.338 236.883 7
-6 -1 9 1793.01 415.477 7
-6 1 9 1690.04 415.042 7
-6 -1 8 5466.22 790.724 7
-6 1 8 5435.36 816.233 7
-6 -1 7 262.754 198.072 7
-6 1 7 581.565 281.639 7
-6 -1 7 101.637 137.664 8
-6 -1 6 316.859 218.762 7
-6 1 6 304.649 204.053 7
-6 -1 6 520.657 306.194 8
-6 -1 5 702.359 325.207 7
-6 1 5 624.089 298.598 7
-6 -1 5 650.841 379.903 8
-6 -1 4 2343.68 563.878 7
-6 1 4 2833.57 619.941 7
-6 -1 4 2644.12 721.567 8
-6 -1 3 3653.76 699.233 7
-6 1 3 3184.47 639.162 7
-6 -1 3 3612.46 893.348 8
-6 -1 2 666.651 335.081 7
-6 1 2 591.037 275.615 7
-6 -1 1 3685.15 711.499 7
-6 1 1 4028.41 708.838 7
-6 -1 0 2862.11 666.053 7
-6 1 0 3277.27 633.077 7
-6 -1 -1 -13.3165 102.211 7
-6 1 -1 56.6806 88.6692 7
-6 -1 -2 2194.65 622.05 7
-6 -1 -2 3430.73 791.541 9
-6 1 -3 103.561 118.502 12
-6 -1 -3 133.626 95.8426 12
-6 -1 -3 0.78115 160.306 9
-6 -1 -4 1636.26 398.904 12
-6 1 -4 1323.41 367.645 12
-6 -1 -4 1539.64 517.23 9
-6 -1 -5 2206.69 440.705 12
-6 1 -5 1531.04 388.974 12
-6 -1 -5 1905.93 534.321 9
-6 -1 -6 4021.98 546.205 12
-6 1 -6 3642.84 554.68 12
-6 -1 -6 2817.74 632.366 9
-6 -1 -7 1128.41 245.881 12
-6 1 -7 1011.9 254.851 12
-6 -1 -7 621.558 259.47 9
-6 2 9 125.191 106.423 7
-6 2 8 -100.113 102.615 7
-6 -2 8 316.18 240.078 8
-6 2 7 493.341 247.537 7
-6 -2 7 407.916 300.595 8
-6 -2 6 1192.17 384.571 7
-6 2 6 1029.97 383.505 7
-6 -2 6 507.6 346.295 8
-6 -2 5 188.725 179.103 7
-6 2 5 13.4184 62.1051 7
-6 -2 5 323.633 266.574 8
-6 -2 4 193.098 178.412 7
-6 -2 4 165.037 317.773 8
-6 -2 3 258.565 201.96 7
-6 -2 3 1676.75 579.474 8
-6 -2 2 24563.8 1765.19 7
-6 -2 2 26761.7 2362.38 8
-6 -2 1 35234 2137.86 7
-6 -2 0 1869.66 578.953 7
-6 -2 0 2273.81 703.513 11
-6 -2 -1 154.102 166.915 7
-6 -2 -1 -285.204 257.856 11
-6 -2 -1 -15.0667 168.017 9
-6 2 -2 126.665 122.411 12
-6 -2 -2 87.3574 94.4389 9
-6 2 -3 1131.51 340.829 12
-6 -2 -3 798.577 385.11 9
-6 2 -4 304.031 180.521 12
-6 -2 -4 647.869 310.999 9
-6 2 -5 -154.883 128.042 12
6 -2 5 -131.569 95.4206 6
-6 -2 -5 -28.8596 119.966 9
-6 2 -6 174.548 125.543 12
-6 -2 -6 127.64 149.172 9
-6 2 -7 478.551 152.151 12
-6 -2 -7 434.265 202.042 9
-6 -3 8 104.343 142.29 8
-6 -3 7 309.539 256.543 8
-6 -3 6 4326.54 924.049 11
-6 -3 6 1438.17 516.256 8
-6 -3 5 1205.91 493.564 11
-6 -3 5 470.742 322.42 8
-6 -3 4 64.9365 218.371 11
-6 -3 4 81.1088 148.76 8
-6 -3 3 1149.76 517.85 11
-6 -3 3 981.222 494.729 8
-6 -3 2 3380.49 885.846 11
-6 -3 2 1892.75 639.536 8
-6 -3 1 3143.56 883.405 11
-6 -3 0 130.537 191.034 11
-6 -3 0 128.624 160.092 9
-6 -3 -1 158.64 291.468 11
-6 -3 -1 489.734 285.992 9
-6 -3 -2 152.802 216.484 11
-6 -3 -2 342.661 230.786 9
-6 -3 -3 8005.77 1005.97 9
6 -3 4 1737.3 395.03 6
-6 -3 -4 3624.05 653.981 9
6 -3 5 30.9366 70.6867 6
-6 -3 -5 16.9821 93.9082 9
-6 -3 -6 -59.7713 109.14 9
-6 -4 7 10.8537 97.3003 8
-6 -4 6 115.339 113.125 8
-6 -4 5 244.063 336.001 11
-6 -4 5 -224.173 201.869 8
-6 -4 4 297.066 268.83 11
-6 -4 4 -242.194 226.752 8
-6 -4 3 182.844 192.714 11
-6 -4 3 254.125 255.552 8
-6 -4 2 728.044 418.591 11
-6 -4 1 1370.77 567.111 11
-6 -4 0 160.323 207.979 11
-6 -4 -1 927.951 436.794 11
-6 -4 -2 -330.965 243.337 11
-6 -4 -3 -63.0129 140.572 11
6 -4 3 134.956 91.2173 6
6 -4 4 161.994 92.4735 6
-6 -5 2 21.9668 132.074 11
-6 -5 1 27.9305 103.075 11
-6 -5 0 147.828 130.659 11
-7 0 9 8740.25 838.497 7
-7 0 8 1404.64 372.445 7
-7 0 7 755.697 327.886 7
-7 0 6 37.075 102.517 7
-7 0 5 -91.8287 125.795 7
-7 0 4 7067.03 990.091 7
-7 0 3 2362.24 600.611 7
-7 0 2 67.8961 119.341 7
-7 0 1 -79.3333 110.093 7
-7 0 0 1758.34 475.508 7
-7 0 0 2141.75 567.556 9
-7 0 -1 2858.01 704.577 7
-7 0 -1 3885.02 753.85 9
-7 0 -2 146.183 151.201 7
-7 0 -2 363.47 225.791 9
-7 0 -3 -179.837 145.211 12
-7 0 -3 -234.682 197.38 9
-7 0 -4 -73.398 103.334 12
-7 0 -4 266.741 198.426 9
-7 0 -5 2361.63 406.427 12
-7 0 -5 2062.5 464.211 9
-7 0 -6 6125.46 559.309 12
-7 -1 9 1335.04 309.337 7
-7 1 9 1235.3 314.904 7
-7 -1 8 2615.33 487.54 7
-7 1 8 2613.87 505.053 7
-7 -1 7 438.051 232.029 7
-7 1 7 349.36 212.641 7
-7 -1 6 61.1448 116.581 7
-7 1 6 336.473 181.518 7
-7 -1 5 478.718 260.548 7
-7 1 5 216.044 186.443 7
-7 -1 4 3132.9 672.228 7
-7 1 4 4371.78 762.667 7
-7 -1 3 142.5 144.302 7
-7 1 3 296.712 202.41 7
-7 -1 2 984.333 355.265 7
-7 1 2 904.808 340.658 7
-7 -1 1 491.71 333.652 7
-7 1 1 663.268 287.85 7
-7 -1 0 781.493 319.763 7
-7 1 0 405.731 227.851 7
-7 -1 0 345.54 274.211 9
-7 1 -1 1934.81 460.386 7
-7 -1 -1 950.525 466.809 7
-7 -1 -1 2151.99 606.509 9
-7 1 -2 405.836 184.046 12
-7 -1 -2 414.264 196.57 12
-7 -1 -2 339.245 227.422 9
-7 -1 -3 328.504 167.397 12
-7 1 -3 236.735 139.719 12
-7 -1 -3 167.692 214.483 9
-7 -1 -4 205.108 129.361 12
-7 1 -4 177.013 133.841 12
-7 -1 -4 -8.4833 131.412 9
-7 -1 -5 3063.42 416.733 12
-7 1 -5 3183.25 459.577 12
-7 -1 -5 3569 597.074 9
-7 1 -6 785.554 191.339 12
-7 -1 -6 589.906 249.731 9
-7 2 8 132.101 98.8415 7
-7 -2 7 993.089 276.183 7
-7 2 7 1080.22 309.791 7
-7 -2 6 3743.48 612.519 7
-7 2 6 3499.99 594.554 7
-7 -2 5 254.644 179.346 7
-7 -2 4 1114.61 409.075 7
-7 -2 3 176.067 153.152 7
-7 -2 2 1225.21 442.518 7
-7 -2 1 997.825 352.908 7
-7 -2 1 800.774 417.72 11
-7 -2 0 1620.3 439.462 7
-7 -2 0 1534.36 532.451 11
-7 -2 0 1300.47 454.641 9
-7 2 -1 598.21 250.835 12
-7 -2 -1 288.308 219.582 9
-7 2 -2 271.246 168.748 12
-7 -2 -2 182.411 173.267 9
-7 2 -3 4801.64 627.341 12
-7 -2 -3 5460.15 800.232 9
-7 2 -4 588.304 206.067 12
7 -2 4 153.27 119.36 6
-7 -2 -4 417.726 278.396 9
-7 2 -5 27.382 52.9715 12
-7 -2 -5 34.3988 98.23 9
-7 -3 6 181.469 226.735 11
-7 -3 5 171.158 199.235 11
-7 -3 4 -128.103 243.244 11
-7 -3 3 723.791 377.836 11
-7 -3 2 17409.6 1861.3 11
-7 -3 2 16731.4 1431.14 9
-7 -3 1 13339 1592.09 11
-7 -3 1 14192.2 1322.5 9
-7 -3 0 330.939 300.963 11
-7 -3 0 569.497 289.158 9
-7 -3 -1 8.97517 120.608 11
-7 -3 -1 122.289 134.21 9
-7 -3 -2 714.646 271.45 9
7 -3 3 57.4152 103.993 6
-7 -3 -3 299.924 175.636 9
7 -3 4 75.053 54.8541 6
-7 -3 -4 211.197 143.665 9
-7 -4 4 127.711 142.179 11
-7 -4 3 760.357 344.494 11
-7 -4 2 220.235 244.628 11
-7 -4 1 13.7715 111.571 11
-7 -4 0 241.917 183.137 11
-7 -4 -1 131.062 135.107 11
7 -4 1 38.8015 101.464 6
-8 0 8 2571.59 398.556 7
-8 0 7 57.7535 93.486 7
-8 0 6 18.148 74.635 7
-8 0 5 1189.55 358.151 7
-8 0 4 2077.54 510.039 7
-8 0 3 145.04 148.411 7
-8 0 2 26.5904 85.873 7
-8 0 2 30.3528 95.6826 9
-8 0 1 -82.3222 107.109 7
-8 0 1 -151.854 149.672 9
-8 0 0 614.298 260.671 7
-8 0 0 808.327 297.026 9
-8 0 -1 1334.43 328.649 12
-8 0 -1 1327.15 397.109 9
-8 0 -2 210.849 138.037 12
-8 0 -3 118.235 111.326 12
-8 0 -4 240.511 107.874 12
-8 -1 7 224.901 133.629 7
-8 1 7 161.482 117.261 7
-8 -1 6 15.1172 69.5844 7
-8 1 6 -42.5608 78.1765 7
-8 -1 5 917.605 310.237 7
-8 1 5 1143.09 336.272 7
-8 -1 4 391.825 212.93 7
-8 1 4 302.155 188.899 7
-8 -1 3 1805.35 468.754 7
-8 1 3 977.271 352.435 7
-8 -1 2 2137.81 515.249 7
-8 1 2 1714.59 450.97 7
-8 -1 2 2441.84 565.125 9
-8 -1 1 1183.26 361.226 7
-8 1 1 994.081 373.99 7
-8 -1 1 1982.88 489.532 9
-8 1 0 925.499 296.895 7
-8 -1 0 846.775 298.49 7
-8 -1 0 1620.84 443.368 9
-8 1 -1 17.7207 61.9067 12
-8 -1 -1 213.318 130.139 12
-8 -1 -1 276.437 192.266 9
-8 -1 -2 268.184 118.829 12
-8 1 -2 170.065 121.983 12
-8 -1 -2 210.96 195.94 9
-8 -1 -3 248.568 124.52 12
-8 1 -3 154.723 98.3152 12
-8 -1 -3 216.452 174.402 9
-8 1 -4 174.425 101.265 12
-8 -2 6 206.624 182.732 11
-8 -2 5 -93.5667 101.963 7
-8 -2 5 119.216 147.396 11
-8 -2 4 300.109 171.058 7
-8 -2 4 108.924 219.592 11
-8 -2 3 416.796 230.691 7
-8 -2 3 84.8381 212.959 11
-8 -2 2 10360.1 1014.66 7
-8 -2 2 11591.6 1405.47 11
-8 -2 2 11067.3 1133.52 9
-8 -2 1 3428.98 594.511 7
-8 -2 1 3408.6 707.942 11
-8 -2 1 3243.04 618.318 9
-8 2 0 -8.32206 35.5354 12
-8 -2 0 -156.032 147.52 9
-8 2 -1 269.552 132.282 12
-8 -2 -1 318.231 191.627 9
-8 2 -2 147.8 94.1344 12
-8 -2 -2 300.348 169.545 9
-8 -2 -3 140.704 116.45 9
-8 -3 4 223.54 208.446 11
-8 -3 4 11.5989 74.9266 9
-8 -3 3 23.7435 159.418 11
-8 -3 3 178.066 135.061 9
-8 -3 2 395.32 253.335 11
-8 -3 2 936.142 299.291 9
-8 -3 1 142.285 119.878 11
-8 -3 1 1185.91 284.627 9
-8 -3 0 662.887 217.739 9
-9 0 4 1008.15 257.413 7
-9 0 3 79.9259 85.2581 7
-9 0 2 -9.70872 60.4452 7
-9 0 1 11.3656 49.9994 12
-9 0 0 240.758 102.853 12
-9 -1 4 575.779 212.143 7
-9 -1 3 547.254 219.166 7
-9 -1 2 976.967 277.865 7
-9 1 1 159.354 87.6282 12
