#------------------------------------------------------------------------------
#$Date: 2019-11-24 07:01:33 +0200 (Sun, 24 Nov 2019) $
#$Revision: 237044 $
#$URL: file:///home/coder/svn-repositories/cod/cif/1/55/42/1554234.cif $
#------------------------------------------------------------------------------
#
# This file is available in the Crystallography Open Database (COD),
# http://www.crystallography.net/
#
# All data on this site have been placed in the public domain by the
# contributors.
#
data_1554234
loop_
_publ_author_name
'Fang, Manman'
'Yang, Jie'
'Xiang, Xueqin'
'Xie, Yujun'
'Dong, Yongqiang'
'Peng, Qian'
'Li, Qianqian'
'Li, Zhen'
_publ_section_title
;
 Unexpected room-temperature phosphorescence from a non-aromatic, low
 molecular weight, pure organic molecule through the intermolecular
 hydrogen bond
;
_journal_issue                   11
_journal_name_full               'Materials Chemistry Frontiers'
_journal_page_first              2124
_journal_paper_doi               10.1039/C8QM00396C
_journal_volume                  2
_journal_year                    2018
_chemical_formula_moiety         'C3 H2 N2'
_chemical_formula_sum            'C3 H2 N2 O0'
_chemical_formula_weight         66.07
_space_group_crystal_system      monoclinic
_space_group_IT_number           14
_space_group_name_Hall           '-P 2ybc'
_space_group_name_H-M_alt        'P 1 21/c 1'
_atom_sites_solution_hydrogens   geom
_atom_sites_solution_primary     direct
_audit_creation_date             2018-03-13
_audit_creation_method
;
Olex2 1.2
(compiled 2017.08.10 svn.r3458 for OlexSys, GUI svn.r5381)
;
_audit_update_record
;
2018-03-26 deposited with the CCDC.
2018-09-18 downloaded from the CCDC.
;
_cell_angle_alpha                90
_cell_angle_beta                 124.18(4)
_cell_angle_gamma                90
_cell_formula_units_Z            4
_cell_length_a                   6.094(5)
_cell_length_b                   7.560(6)
_cell_length_c                   9.327(6)
_cell_measurement_reflns_used    862
_cell_measurement_temperature    297(2)
_cell_measurement_theta_max      22.88
_cell_measurement_theta_min      3.36
_cell_volume                     355.5(5)
_computing_cell_refinement       'Bruker SAINT'
_computing_data_collection       'Bruker APEX2'
_computing_data_reduction        'Bruker SAINT'
_computing_molecular_graphics    'Olex2 (Dolomanov et al., 2009)'
_computing_publication_material  'Olex2 (Dolomanov et al., 2009)'
_computing_structure_refinement  'ShelXL (Sheldrick, 2015)'
_computing_structure_solution    'ShelXS (Sheldrick, 2008)'
_diffrn_ambient_temperature      297(2)
_diffrn_measured_fraction_theta_full 0.987
_diffrn_measured_fraction_theta_max 0.987
_diffrn_measurement_device_type  'Bruker APEX-II CCD'
_diffrn_measurement_method       '\f and \w scans'
_diffrn_radiation_type           MoK\a
_diffrn_radiation_wavelength     0.71073
_diffrn_reflns_av_R_equivalents  0.0379
_diffrn_reflns_av_unetI/netI     0.0346
_diffrn_reflns_Laue_measured_fraction_full 0.987
_diffrn_reflns_Laue_measured_fraction_max 0.987
_diffrn_reflns_limit_h_max       7
_diffrn_reflns_limit_h_min       -6
_diffrn_reflns_limit_k_max       8
_diffrn_reflns_limit_k_min       -9
_diffrn_reflns_limit_l_max       11
_diffrn_reflns_limit_l_min       -11
_diffrn_reflns_number            2251
_diffrn_reflns_point_group_measured_fraction_full 0.987
_diffrn_reflns_point_group_measured_fraction_max 0.987
_diffrn_reflns_theta_full        25.010
_diffrn_reflns_theta_max         25.010
_diffrn_reflns_theta_min         3.773
_exptl_absorpt_coefficient_mu    0.084
_exptl_absorpt_correction_type   none
_exptl_crystal_colour            colorless
_exptl_crystal_density_diffrn    1.234
_exptl_crystal_description       block
_exptl_crystal_F_000             136
_exptl_crystal_size_max          0.2
_exptl_crystal_size_mid          0.2
_exptl_crystal_size_min          0.15
_refine_diff_density_max         0.143
_refine_diff_density_min         -0.177
_refine_diff_density_rms         0.046
_refine_ls_extinction_method     none
_refine_ls_goodness_of_fit_ref   1.214
_refine_ls_hydrogen_treatment    constr
_refine_ls_matrix_type           full
_refine_ls_number_parameters     46
_refine_ls_number_reflns         619
_refine_ls_number_restraints     0
_refine_ls_restrained_S_all      1.214
_refine_ls_R_factor_all          0.0756
_refine_ls_R_factor_gt           0.0655
_refine_ls_shift/su_max          0.000
_refine_ls_shift/su_mean         0.000
_refine_ls_structure_factor_coef Fsqd
_refine_ls_weighting_details
'w=1/[\s^2^(Fo^2^)+(0.0780P)^2^+0.1470P] where P=(Fo^2^+2Fc^2^)/3'
_refine_ls_weighting_scheme      calc
_refine_ls_wR_factor_gt          0.1843
_refine_ls_wR_factor_ref         0.1913
_reflns_Friedel_coverage         0.000
_reflns_number_gt                512
_reflns_number_total             619
_reflns_threshold_expression     'I > 2\s(I)'
_cod_data_source_file            c8qm00396c3.cif
_cod_data_source_block           MNN
_cod_database_code               1554234
_shelx_shelxl_version_number     2014/7
_shelx_space_group_comment
;
The symmetry employed for this shelxl refinement is uniquely defined
by the following loop, which should always be used as a source of
symmetry information in preference to the above space-group names.
They are only intended as comments.
;
_olex2_refinement_description
;
1. Fixed Uiso
 At 1.2 times of:
  All C(H,H) groups
2.a Secondary CH2 refined with riding coordinates:
 C2(H2A,H2B)
;
_shelx_res_file
;
    mo_180306e_0m.res created by SHELXL-2014/7

TITL mo_180306E_0m in P-1 #2 New: P21/c
CELL 0.71073 6.094 7.56 9.327 90 124.18 90
ZERR 4 0.005 0.006 0.006 0 0.04 0
LATT 1
SYMM -X,0.5+Y,0.5-Z
SFAC C H N O
UNIT 12 8 8 0

L.S. 5
PLAN  -1
BOND $H
CONF
fmap 2
acta
REM <olex2.extras>
REM <HklSrc "%.\\mo_180306E_0m.hkl">
REM </olex2.extras>

WGHT    0.078000    0.147000
FVAR       0.48707
N1    3    0.438658    0.014303    0.687137    11.00000    0.12718    0.08371 =
         0.07300    0.03169    0.05911    0.03657
N2    3   -0.077184    0.171293    0.156972    11.00000    0.07091    0.07339 =
         0.06464   -0.00025    0.01130   -0.00896
C1    1    0.364895    0.122888    0.589688    11.00000    0.08030    0.06028 =
         0.04873    0.00464    0.03695    0.01321
C2    1    0.274298    0.265397    0.466905    11.00000    0.07992    0.04555 =
         0.04600    0.00202    0.02611    0.00225
AFIX  23
H2A   2    0.423846    0.312917    0.468901    11.00000   -1.20000
H2B   2    0.204571    0.359098    0.501536    11.00000   -1.20000
AFIX   0
C3    1    0.072530    0.211295    0.293089    11.00000    0.05030    0.04491 =
         0.05127    0.00330    0.02305    0.00041
HKLF 4 1 1 0 0 0 -1 0 -1 0 -1

REM  mo_180306E_0m in P-1 #2 New: P21/c
REM R1 =  0.0655 for     512 Fo > 4sig(Fo)  and  0.0756 for all     619 data
REM     46 parameters refined using      0 restraints

END

WGHT      0.0782      0.1465

REM Highest difference peak  0.143,  deepest hole -0.177,  1-sigma level  0.046
Q1    1   0.5000  0.0000  0.5000  10.50000  0.05    0.14
;
_shelx_res_checksum              54245
_shelx_hkl_file
;
   1   0   0   -0.13    0.09
   1   0   0    0.38    0.08
  -1   0   0    0.07    0.10
  -2   0   0  973.04   47.12
   2   0   0 1000.00   42.90
   2   0   0  950.82   42.82
   3   0   0    0.06    0.04
   3   0   0    0.27    0.07
  -3   0   0    0.08    0.05
   4   0   0   63.25    2.84
   4   0   0   63.88    2.85
  -4   0   0   63.40    3.13
  -5   0   0    0.00    0.07
   5   0   0   -0.05    0.07
   5   0   0   -0.05    0.07
   6   0   0    0.93    0.16
   6   0   0    0.83    0.15
   7   0   0   -0.10    0.11
   0  -1   0    0.13    0.04
   0  -1   0    0.16    0.04
   0  -1   0    0.23    0.05
   1  -1   0    2.06    0.12
  -1  -1   0    1.99    0.12
   1  -1   0    2.18    0.12
   1   1   0    2.07    0.11
  -1   1   0    2.34    0.15
   2  -1   0   74.53    3.33
   2  -1   0   75.22    3.32
  -2  -1   0   73.86    3.64
   2   1   0   73.04    3.31
  -2   1   0   78.52    3.68
   3  -1   0    5.83    0.31
   3  -1   0    6.05    0.30
   3   1   0    5.25    0.32
  -3   1   0    5.43    0.36
   3   1   0    5.76    0.28
   4  -1   0   26.56    1.21
   4  -1   0   24.19    1.19
   4   1   0   26.38    1.18
   4   1   0   26.54    1.22
  -4   1   0   26.30    1.35
   5  -1   0    1.44    0.17
  -5  -1   0    1.44    0.16
   5  -1   0    1.39    0.16
   5   1   0    1.39    0.18
   5   1   0    1.43    0.14
  -5   1   0    1.45    0.21
   6  -1   0    3.34    0.25
   6  -1   0    3.34    0.27
   6   1   0    3.66    0.25
  -6   1   0    3.01    0.29
   6   1   0    4.26    0.31
   7  -1   0    0.10    0.12
   7   1   0    0.22    0.13
   0  -2   0  154.31    7.08
   0  -2   0  155.99    7.09
   0  -2   0  171.61    7.79
   1  -2   0  279.84   12.57
  -1  -2   0  298.08   13.81
   1   2   0  279.50   12.60
   2  -2   0   27.47    1.24
   2  -2   0   26.78    1.22
  -2  -2   0   27.82    1.32
  -2   2   0   25.40    1.39
   2   2   0   26.90    1.22
   3  -2   0   59.88    2.54
   3  -2   0   52.11    2.51
  -3  -2   0   54.90    2.74
  -3   2   0   59.05    2.83
   3   2   0   54.79    2.54
   3   2   0   56.72    2.50
   4  -2   0    1.05    0.15
  -4  -2   0    0.64    0.09
   4  -2   0    0.82    0.13
   4   2   0    0.87    0.15
  -4   2   0    0.74    0.16
   4   2   0    0.81    0.09
   5  -2   0    3.54    0.27
   5  -2   0    3.66    0.25
  -5   2   0    3.83    0.33
   5   2   0    4.02    0.31
   5   2   0    3.42    0.22
   6  -2   0    0.07    0.11
   6  -2   0    0.13    0.10
   6   2   0    0.03    0.10
  -6   2   0    0.28    0.14
   0  -3   0    0.01    0.04
   0  -3   0    0.06    0.06
   0  -3   0    0.00    0.04
  -1  -3   0    1.20    0.13
   1  -3   0    1.43    0.14
  -1   3   0    1.23    0.18
   2  -3   0    5.67    0.32
   2  -3   0    5.88    0.34
  -2  -3   0    5.89    0.33
   2   3   0    5.65    0.31
  -2   3   0    5.93    0.40
   3  -3   0    5.87    0.37
   3  -3   0    6.10    0.36
  -3  -3   0    6.77    0.36
   3   3   0    6.74    0.34
  -3   3   0    7.08    0.46
   4  -3   0    1.97    0.20
   4  -3   0    2.42    0.22
   4   3   0    2.45    0.26
   4   3   0    2.38    0.17
  -4   3   0    2.41    0.26
   5  -3   0    1.86    0.23
   5  -3   0    2.46    0.23
  -5   3   0    2.76    0.29
   5   3   0    1.80    0.24
   5   3   0    2.05    0.16
   6  -3   0    0.26    0.13
   6   3   0    0.17    0.12
  -6   3   0    0.18    0.14
   0  -4   0   19.71    0.94
   1  -4   0   13.95    0.74
  -1   4   0   15.92    0.86
  -2  -4   0    6.30    0.37
   2  -4   0    6.14    0.37
   2  -4   0    6.34    0.37
  -2   4   0    4.71    0.42
   2   4   0    7.51    0.37
   3  -4   0    6.34    0.38
  -3  -4   0    5.87    0.35
   3  -4   0    6.08    0.36
  -3   4   0    5.89    0.45
   3   4   0    5.89    0.33
   4  -4   0    0.83    0.15
   4  -4   0    0.82    0.16
   4   4   0    0.77    0.17
   4   4   0    0.91    0.11
  -4   4   0    0.48    0.17
   5  -4   0    0.40    0.14
   5   4   0    0.77    0.18
  -5   4   0    0.38    0.16
   6  -4   0   -0.01    0.12
   6   4   0    0.12    0.13
  -6   4   0    0.32    0.15
   0  -5   0    0.04    0.09
   0   5   0   -0.02    0.08
  -1  -5   0    0.22    0.09
   1  -5   0    0.26    0.11
   1  -5   0    0.17    0.10
  -1   5   0    0.07    0.09
   2  -5   0    0.82    0.14
  -2  -5   0    0.69    0.13
   2   5   0    0.82    0.14
  -2   5   0    0.97    0.20
   3  -5   0    0.11    0.10
   3  -5   0   -0.03    0.09
  -3   5   0    0.01    0.10
   3   5   0   -0.05    0.07
   4  -5   0    0.38    0.14
   4   5   0    0.47    0.10
   4   5   0    0.35    0.14
  -4   5   0    0.21    0.15
   5  -5   0   -0.04    0.11
  -5   5   0   -0.01    0.14
   5   5   0   -0.10    0.11
   0   6   0    1.99    0.28
   1  -6   0    0.22    0.11
   1  -6   0    0.24    0.13
   1   6   0    0.27    0.13
  -1   6   0    0.13    0.13
   2  -6   0    1.06    0.18
   2  -6   0    0.86    0.18
  -2  -6   0    0.89    0.16
   2   6   0    1.09    0.18
  -2   6   0    1.08    0.24
   3  -6   0    0.29    0.14
  -3   6   0    0.30    0.17
   3   6   0    0.21    0.11
   4  -6   0    0.49    0.17
  -4   6   0    0.48    0.20
   4   6   0    0.43    0.11
   4   6   0    0.48    0.18
   5  -6   0    0.09    0.14
  -5   6   0   -0.07    0.14
   5   6   0    0.07    0.14
   0   7   0    0.08    0.13
   1  -7   0    0.11    0.14
  -1   7   0    0.09    0.14
   1   7   0    0.12    0.14
   2  -7   0    0.14    0.13
  -2   7   0    0.26    0.17
   2   7   0   -0.03    0.11
   3  -7   0    0.27    0.15
   3   7   0    0.32    0.13
  -3   7   0    0.14    0.17
   4  -7   0    0.02    0.14
   4   7   0    0.18    0.16
  -4   7   0   -0.01    0.15
   0   8   0    1.93    0.31
   1   8   0    0.49    0.19
  -1   8   0    0.40    0.20
   2   8   0    0.77    0.20
  -2   8   0    0.77    0.24
   3  -8   0    0.26    0.17
   3   8   0    0.16    0.14
  -3   8   0    0.02    0.17
   0   9   0    0.06    0.17
   7   0  -1    0.42    0.14
   7   0  -1    0.18    0.12
   6   0  -1    0.90    0.15
   6   0  -1    0.87    0.15
  -5   0   1    1.75    0.17
   5   0  -1    1.99    0.17
   5   0  -1    1.59    0.17
   4   0  -1    9.53    0.50
  -3   0   1    4.55    0.27
   3   0  -1    4.18    0.23
  -2   0   1    6.72    0.38
   2   0  -1    6.85    0.33
   1   0  -1    0.34    0.04
   0   0  -1    0.02    0.01
   0   0  -1    0.04    0.01
   0   0   1    0.05    0.02
  -1   0  -1   77.20    3.77
   1   0   1   78.13    3.43
   2   0   1    4.19    0.21
  -2   0  -1    3.61    0.25
  -3   0  -1   21.92    1.13
   3   0   1   21.97    1.02
   3   0   1   22.35    1.01
   4   0   1    1.30    0.14
   4   0   1    1.08    0.14
  -5   0  -1    3.42    0.26
   5   0   1    3.12    0.23
   5   0   1    2.98    0.23
   6   0   1    0.02    0.10
  -6   0  -1   -0.05    0.09
   7   0   1    0.11    0.12
   7  -1  -1    0.14    0.12
   7   1  -1    0.19    0.12
   6  -1  -1    0.35    0.13
   6  -1  -1    0.22    0.10
   6   1  -1    0.36    0.12
   6   1  -1    0.32    0.10
   5  -1  -1    2.33    0.19
   5  -1  -1    2.27    0.20
   5   1  -1    1.97    0.22
   5   1  -1    2.26    0.18
  -5   1   1    2.44    0.24
   4  -1  -1    4.27    0.26
   4  -1  -1    4.32    0.27
   4   1  -1    4.00    0.29
   4   1  -1    4.77    0.24
  -4   1   1    3.24    0.30
   3  -1  -1   23.29    1.11
   3  -1  -1   26.49    1.13
  -3  -1   1   23.99    1.21
   3   1  -1   24.35    1.15
   3   1  -1   25.34    1.12
   2  -1  -1   18.59    0.85
   2  -1  -1   19.48    0.87
  -2   1   1   18.62    0.99
   2   1  -1   18.94    0.86
  -1  -1   1  182.00    8.01
   1  -1  -1  178.41    8.03
   1  -1  -1  189.80    8.81
   1   1  -1  177.36    8.02
   0  -1  -1   33.93    1.46
   0  -1  -1   31.15    1.61
   0   1  -1   33.86    1.61
   0   1   1   32.26    1.45
  -1  -1  -1   77.82    3.90
   1  -1   1   83.59    3.56
   1  -1   1   78.94    3.56
   1   1   1   81.36    3.55
   2  -1   1    7.72    0.38
   3  -1   1    1.71    0.15
   3   1   1    1.07    0.13
  -3   1  -1    0.92    0.14
   4  -1   1    2.64    0.22
   4  -1   1    2.79    0.22
  -4  -1  -1    3.66    0.23
   4   1   1    2.80    0.18
   4   1   1    3.23    0.25
  -4   1  -1    2.76    0.24
   5  -1   1    1.42    0.17
  -5  -1  -1    1.79    0.18
   5  -1   1    1.57    0.18
   5   1   1    1.30    0.18
  -5   1  -1    1.27    0.19
   5   1   1    1.18    0.14
   6  -1   1    0.28    0.12
   6   1   1    0.32    0.13
  -6   1  -1    0.20    0.13
   7  -2  -1    0.18    0.13
   7   2  -1    0.09    0.12
   6  -2  -1    0.04    0.11
   6   2  -1    0.13    0.08
   6   2  -1   -0.10    0.09
  -6   2   1   -0.08    0.10
   5  -2  -1    1.22    0.14
   5  -2  -1    1.09    0.17
   5   2  -1    0.98    0.12
   5   2  -1    1.19    0.18
  -5   2   1    0.75    0.17
   4  -2  -1    0.12    0.08
   4  -2  -1    0.07    0.06
   4   2  -1    0.06    0.09
  -4   2   1    0.07    0.09
   4   2  -1    0.12    0.06
   3  -2  -1   29.30    1.38
   3  -2  -1   30.46    1.35
  -3   2   1   28.38    1.57
   3   2  -1   31.78    1.37
   2  -2  -1    5.85    0.29
   2   2  -1    6.31    0.31
  -2   2   1    5.61    0.39
   1  -2  -1  246.98   11.22
   1  -2  -1  254.37   11.17
   1   2  -1  264.56   12.29
   1   2  -1  251.06   11.22
   0  -2  -1   18.06    0.93
   0  -2  -1   17.75    0.84
   0  -2   1   17.91    0.86
   0   2  -1   19.54    0.93
  -1  -2  -1  411.99   19.76
   1  -2   1  426.37   17.99
   1  -2   1  393.88   17.94
  -1   2  -1  422.79   19.76
   1   2   1  385.85   17.94
  -2  -2  -1    7.49    0.40
   2  -2   1    7.68    0.40
   2   2   1    7.26    0.35
   2   2   1    7.43    0.40
  -2   2  -1    7.78    0.45
   3  -2   1   88.82    3.91
   3  -2   1   88.95    3.89
  -3   2  -1   85.16    4.32
   3   2   1   86.29    3.86
   4  -2   1    1.73    0.18
  -4  -2  -1    1.47    0.14
   4  -2   1    1.53    0.18
   4   2   1    1.43    0.11
  -4   2  -1    1.75    0.20
   4   2   1    1.74    0.19
   5  -2   1    7.14    0.42
   5  -2   1    6.71    0.42
   5   2   1    7.64    0.44
  -5   2  -1    7.08    0.49
   6  -2   1    0.18    0.13
   6  -2   1    0.10    0.12
   6   2   1    0.11    0.10
  -6   2  -1    0.18    0.13
   6  -3  -1    0.24    0.12
   6   3  -1    0.30    0.13
  -6   3   1    0.25    0.14
   6   3  -1    0.31    0.09
   5  -3  -1    0.49    0.13
   5   3  -1    0.43    0.09
   5   3  -1    0.46    0.14
  -5   3   1    0.53    0.17
   4  -3  -1    0.52    0.12
   4  -3  -1    0.55    0.10
   4   3  -1    0.16    0.11
  -4   3   1    0.22    0.12
   4   3  -1    0.50    0.09
   3  -3  -1    3.58    0.23
   3  -3  -1    3.67    0.26
  -3   3   1    3.67    0.33
   3   3  -1    4.00    0.23
   2  -3  -1    1.10    0.14
   2  -3  -1    1.52    0.13
   2   3  -1    1.37    0.13
  -2   3   1    1.79    0.23
   1  -3  -1   10.26    0.50
   1  -3  -1    9.16    0.57
  -1  -3   1    9.94    0.53
   1  -3  -1   10.66    0.52
   1   3  -1   10.50    0.53
   1   3  -1   11.29    0.56
   0  -3  -1   23.87    1.24
   0   3  -1   30.75    1.39
   1  -3   1    0.01    0.05
  -1  -3  -1    0.01    0.04
   1  -3   1    0.07    0.06
  -1   3  -1    0.03    0.06
   2  -3   1    6.97    0.39
   2  -3   1    6.95    0.40
   2   3   1    7.30    0.40
   2   3   1    7.04    0.36
  -3  -3  -1    5.51    0.33
   3  -3   1    5.52    0.34
   3  -3   1    5.41    0.35
   3   3   1    6.08    0.37
  -3   3  -1    5.53    0.41
   3   3   1    6.04    0.29
  -4  -3  -1    1.19    0.14
   4  -3   1    1.47    0.19
   4  -3   1    1.34    0.17
   4   3   1    1.29    0.11
   4   3   1    0.68    0.14
  -4   3  -1    1.15    0.21
   5  -3   1    3.28    0.28
   5  -3   1    3.52    0.28
  -5   3  -1    3.54    0.34
   5   3   1    3.90    0.31
   6  -3   1    0.04    0.12
   6  -3   1    0.15    0.12
   6   3   1    0.14    0.12
  -6   3  -1    0.06    0.12
   6  -4  -1    0.39    0.15
  -6   4   1    0.36    0.19
   6   4  -1    0.41    0.16
   5  -4  -1    0.04    0.10
   5   4  -1    0.14    0.12
  -5   4   1   -0.04    0.11
   5   4  -1    0.17    0.08
   4  -4  -1    5.98    0.38
  -4   4   1    6.20    0.48
   4   4  -1    5.38    0.32
   3  -4  -1    0.56    0.09
  -3   4   1    1.18    0.23
   2  -4  -1   40.55    1.91
   2  -4  -1   41.24    1.87
   2   4  -1   40.40    1.90
   2   4  -1   42.89    2.06
   1  -4  -1    1.22    0.18
  -1  -4   1    1.22    0.17
   1  -4  -1    1.52    0.17
   1  -4  -1    1.22    0.13
   1   4  -1    1.22    0.16
   1   4  -1    1.27    0.16
   0  -4  -1   67.78    3.11
   0  -4  -1   69.21    3.43
   0  -4   1   66.76    3.12
   0   4  -1   72.53    3.44
  -1  -4  -1    1.66    0.19
   1  -4   1    1.47    0.18
  -1   4  -1    1.31    0.20
   2  -4   1   22.13    1.05
   2  -4   1   22.25    1.06
  -2  -4  -1   21.63    1.12
   2   4   1   20.59    1.02
  -2   4  -1   22.35    1.19
  -3  -4  -1    1.97    0.18
   3  -4   1    1.78    0.21
   3  -4   1    2.14    0.24
   3   4   1    2.23    0.23
   3   4   1    1.92    0.16
   4  -4   1    2.77    0.25
   4  -4   1    2.60    0.25
   4   4   1    2.79    0.26
  -4   4  -1    2.55    0.34
   5  -4   1    0.14    0.12
   5  -4   1    0.21    0.13
  -5   4  -1    0.12    0.13
   5   4   1    0.12    0.12
   6  -4   1    0.12    0.13
   6   4   1   -0.02    0.12
  -6   4  -1    0.34    0.16
   5  -5  -1   -0.01    0.11
   5   5  -1    0.07    0.08
  -5   5   1   -0.02    0.12
   5   5  -1    0.07    0.14
   4  -5  -1    0.48    0.14
   4   5  -1    0.40    0.11
  -4   5   1    0.34    0.16
   3  -5  -1    1.25    0.20
   3   5  -1    1.92    0.18
  -3   5   1    1.41    0.27
   2  -5  -1    0.09    0.09
   2  -5  -1   -0.02    0.07
   2   5  -1    0.03    0.08
  -2   5   1    0.00    0.06
   2   5  -1    0.10    0.08
   1  -5  -1    5.49    0.34
   1  -5  -1    6.47    0.38
   1   5  -1    5.90    0.39
   0  -5  -1    5.47    0.39
   0  -5  -1    5.72    0.35
   0  -5   1    5.67    0.38
   0   5  -1    5.81    0.40
  -1  -5  -1    3.75    0.30
   1  -5   1    4.04    0.30
  -1   5  -1    3.99    0.33
  -2  -5  -1    4.15    0.30
   2  -5   1    4.20    0.32
   2  -5   1    4.11    0.30
   2   5   1    3.95    0.27
  -2   5  -1    3.42    0.33
   3  -5   1    0.43    0.13
   3  -5   1    0.04    0.10
  -3  -5  -1    0.15    0.09
  -3   5  -1    0.03    0.11
   3   5   1    0.13    0.08
   3   5   1   -0.04    0.10
   4  -5   1    1.97    0.26
   4  -5   1    2.04    0.25
   4   5   1    2.25    0.27
  -4   5  -1    2.10    0.33
   5  -5   1    0.16    0.14
  -5   5  -1    0.16    0.15
   5   5   1    0.16    0.13
   5  -6  -1    0.26    0.16
  -5   6   1   -0.07    0.14
   5   6  -1    0.51    0.19
   4  -6  -1    2.34    0.30
   4   6  -1    2.30    0.22
  -4   6   1    3.20    0.44
   3  -6  -1    0.85    0.18
  -3   6   1    0.88    0.23
   3   6  -1    0.97    0.17
   2  -6  -1    5.58    0.40
  -2   6   1    5.82    0.49
   2   6  -1    6.18    0.39
   1  -6  -1    0.36    0.13
  -1   6   1    0.15    0.13
   1   6  -1    0.17    0.10
   0  -6  -1    4.34    0.35
   0  -6   1    4.21    0.34
   0   6  -1    4.26    0.35
  -1  -6  -1    0.99    0.18
   1  -6   1    0.78    0.18
  -1   6  -1    0.71    0.19
  -2  -6  -1    1.50    0.22
   2  -6   1    1.22    0.21
   2  -6   1    1.28    0.21
   2   6   1    1.50    0.20
  -2   6  -1    0.82    0.21
   3  -6   1    2.06    0.26
   3  -6   1    1.22    0.21
   3   6   1    1.59    0.25
  -3   6  -1    1.16    0.26
   3   6   1    1.60    0.19
   4  -6   1    0.20    0.14
  -4   6  -1    0.20    0.17
   4   6   1    0.26    0.15
   5  -6   1    0.38    0.18
   5   6   1    0.30    0.16
  -5   6  -1    0.23    0.17
   4  -7  -1    0.11    0.14
  -4   7   1    0.09    0.16
   4   7  -1    0.06    0.11
   3  -7  -1    0.74    0.20
  -3   7   1    1.72    0.33
   3   7  -1    1.67    0.23
   2  -7  -1    0.19    0.14
   2   7  -1    0.19    0.13
  -2   7   1    0.05    0.14
   1  -7  -1    4.51    0.36
   1   7  -1    4.48    0.37
  -1   7   1    4.51    0.43
   0  -7   1    2.58    0.31
   0   7  -1    2.12    0.29
   0   7   1    1.72    0.29
   1  -7   1    4.82    0.37
  -1  -7  -1    4.50    0.37
  -1   7  -1    3.95    0.38
   2  -7   1    1.41    0.24
  -2  -7  -1    1.45    0.24
   2   7   1    1.41    0.21
  -2   7  -1    1.31    0.27
   3  -7   1    1.29    0.24
   3   7   1    1.22    0.24
  -3   7  -1    1.26    0.29
   4  -7   1    0.36    0.17
  -4   7  -1    0.60    0.23
   4   7   1    0.43    0.18
   3  -8  -1    2.20    0.34
   3   8  -1    3.07    0.33
  -3   8   1    1.99    0.39
   2  -8  -1    0.87    0.22
   2   8  -1    1.20    0.24
  -2   8   1    1.08    0.29
   1   8  -1    2.92    0.35
  -1   8   1    2.10    0.35
   0   8  -1    0.61    0.21
   0   8   1    0.50    0.21
   1  -8   1    0.87    0.21
   1   8   1    0.83    0.23
  -1   8  -1    0.59    0.20
  -2   8  -1   -0.08    0.14
   2   8   1    0.08    0.13
  -3   8  -1    0.02    0.17
   7   0  -2    0.03    0.10
   6   0  -2    0.88    0.14
   6   0  -2    1.05    0.15
   5   0  -2    0.06    0.07
   5   0  -2    0.03    0.08
   4   0  -2    7.77    0.41
   4   0  -2    8.22    0.43
  -3   0   2    0.00    0.06
   3   0  -2    0.05    0.04
   1   0  -2    0.02    0.02
  -1   0   2    0.00    0.03
   1   0  -2    0.04    0.03
   0   0  -2   21.08    1.08
   0   0   2   21.70    0.98
   0   0  -2   22.56    0.97
   1   0   2    1.21    0.11
  -1   0  -2    1.05    0.08
   2   0   2   19.02    0.87
  -2   0  -2   19.45    0.98
   3   0   2    0.55    0.08
   3   0   2    0.62    0.10
   4   0   2    2.66    0.20
  -4   0  -2    2.66    0.23
   4   0   2    2.40    0.18
  -5   0  -2    0.21    0.10
   5   0   2    0.16    0.10
  -6   0  -2    0.21    0.11
   6   0   2    0.23    0.12
   7  -1  -2    0.01    0.11
   7   1  -2    0.09    0.11
   7   1  -2   -0.03    0.10
   6  -1  -2    0.05    0.09
   6   1  -2    0.12    0.09
   6   1  -2    0.19    0.11
   5  -1  -2    0.93    0.12
   5  -1  -2    1.12    0.15
  -5   1   2    1.02    0.18
   5   1  -2    1.06    0.16
   5   1  -2    1.19    0.14
   4  -1  -2    3.08    0.21
   4  -1  -2    3.22    0.20
   4   1  -2    2.88    0.26
   4   1  -2    3.29    0.21
  -4   1   2    3.47    0.29
  -3  -1   2   25.54    1.27
   3  -1  -2   26.07    1.18
   3  -1  -2   26.10    1.16
   3   1  -2   25.51    1.18
   2  -1  -2   38.90    1.80
   2  -1  -2   34.72    1.59
   2   1  -2   34.30    1.61
   1  -1  -2  176.28    8.14
  -1  -1   2  170.92    7.41
   1  -1  -2  163.04    7.42
   1   1  -2  179.85    8.11
   1   1  -2  149.25    7.41
   0  -1   2   31.66    1.46
   0  -1  -2   32.48    1.43
   0   1  -2   31.13    1.45
   0   1   2   32.62    1.43
   0   1  -2   32.69    1.58
  -1  -1  -2  165.19    7.96
  -1   1  -2  148.80    7.96
   1   1   2  178.74    7.24
   2  -1   2    4.93    0.27
   2  -1   2    4.31    0.25
  -2  -1  -2    4.71    0.28
   2   1   2    4.93    0.26
  -2   1  -2    4.40    0.29
  -3  -1  -2   26.25    1.37
   3  -1   2   27.53    1.25
   3  -1   2   27.47    1.26
   3   1   2   26.10    1.22
  -3   1  -2   29.10    1.40
   4  -1   2    0.78    0.12
  -4  -1  -2    0.91    0.13
   4  -1   2    0.88    0.14
  -4   1  -2    1.16    0.17
   4   1   2    0.75    0.13
  -5  -1  -2    1.83    0.21
   5  -1   2    1.75    0.20
   5  -1   2    2.25    0.21
   5   1   2    1.83    0.22
  -5   1  -2    1.95    0.25
   6  -1   2    0.42    0.13
   6   1   2    0.15    0.12
  -6   1  -2    0.23    0.12
   6  -2  -2    0.11    0.11
  -6   2   2    0.00    0.11
   6   2  -2    0.15    0.11
   6   2  -2    0.04    0.08
   5  -2  -2    1.82    0.21
  -5   2   2    1.64    0.26
   5   2  -2    1.67    0.16
   5   2  -2    1.78    0.22
   4  -2  -2    0.03    0.04
   4  -2  -2    0.07    0.07
  -4   2   2    0.12    0.11
   4   2  -2    0.19    0.07
   3  -2  -2   17.92    0.84
   3  -2  -2   20.15    0.89
  -3   2   2   17.65    1.03
   2  -2  -2    8.00    0.49
   2  -2  -2    7.78    0.42
   2   2  -2    9.38    0.43
   1  -2  -2   54.81    2.61
  -1  -2   2   52.67    2.38
   1   2  -2   50.83    2.57
   0   2  -2   15.92    0.76
  -1  -2  -2   12.69    0.56
   1  -2   2    9.92    0.59
  -1   2  -2   12.71    0.66
   1   2   2   13.09    0.58
   2  -2   2    0.42    0.09
  -2  -2  -2    0.29    0.07
   2  -2   2    0.32    0.09
  -2   2  -2    0.17    0.07
   3  -2   2    1.07    0.14
   3  -2   2    1.02    0.14
  -3  -2  -2    1.56    0.14
   3   2   2    1.02    0.14
  -3   2  -2    0.70    0.15
  -4  -2  -2    1.33    0.14
   4  -2   2    1.52    0.18
   4  -2   2    0.97    0.16
  -4   2  -2    1.15    0.19
   5  -2   2    0.71    0.15
   5  -2   2    0.77    0.16
  -5  -2  -2    0.80    0.14
  -5   2  -2    0.42    0.15
   5   2   2    0.45    0.13
   6  -2   2    0.67    0.16
  -6   2  -2    0.46    0.16
   6   2   2    0.69    0.17
   6  -3  -2    0.15    0.12
   6   3  -2    0.28    0.10
   6   3  -2    0.36    0.14
  -6   3   2    0.01    0.14
   5  -3  -2    0.19    0.11
  -5   3   2    0.15    0.13
   5   3  -2    0.09    0.12
   5   3  -2    0.25    0.09
   4  -3  -2    1.64    0.19
  -4   3   2    1.43    0.24
   4   3  -2    1.43    0.15
   3  -3  -2    0.08    0.04
   3  -3  -2    0.23    0.07
   3   3  -2    0.20    0.07
  -3   3   2    0.07    0.11
   2  -3  -2   12.80    0.73
   2  -3  -2   12.11    0.63
   2   3  -2   13.35    0.64
   1  -3  -2    4.76    0.26
   1   3  -2    4.21    0.27
   1   3  -2    3.87    0.25
   0  -3  -2   63.87    3.03
   0  -3   2   60.61    2.77
   0  -3  -2   57.49    2.73
   0   3   2   58.27    2.72
   0   3  -2   65.58    3.02
  -1  -3  -2   12.38    0.66
   1  -3   2   11.93    0.62
   1   3   2   11.98    0.59
  -1   3  -2   11.85    0.67
  -2  -3  -2   30.63    1.57
   2  -3   2   32.31    1.47
   2  -3   2   32.44    1.46
   2   3   2   32.85    1.45
   2   3   2   28.35    1.40
  -2   3  -2   31.31    1.62
   3  -3   2    2.11    0.20
  -3  -3  -2    2.03    0.18
   3  -3   2    2.54    0.24
   3   3   2    2.27    0.21
   3   3   2    2.13    0.13
  -3   3  -2    1.67    0.24
   4  -3   2    3.12    0.26
  -4  -3  -2    3.36    0.24
   4  -3   2    3.19    0.26
  -4   3  -2    3.11    0.30
   4   3   2    3.35    0.27
   5  -3   2    0.20    0.13
   5  -3   2    0.40    0.14
  -5   3  -2    0.29    0.15
   5   3   2    0.35    0.13
   6  -3   2    0.18    0.14
  -6   3  -2    0.00    0.13
   6   3   2    0.02    0.12
   6  -4  -2   -0.07    0.11
  -6   4   2    0.00    0.15
   6   4  -2   -0.11    0.12
   6   4  -2    0.01    0.09
   5  -4  -2    0.25    0.12
  -5   4   2    0.24    0.15
   5   4  -2    0.09    0.13
   5   4  -2    0.22    0.10
   4  -4  -2    0.28    0.11
   4   4  -2    0.43    0.10
  -4   4   2    0.12    0.13
   3   4  -2    4.32    0.27
  -3   4   2    3.70    0.37
   2  -4  -2    0.01    0.07
   2  -4  -2    0.01    0.08
   2   4  -2   -0.03    0.04
   2   4  -2    0.11    0.08
   1  -4  -2   18.95    1.02
  -1  -4   2   19.11    0.94
   1  -4  -2   18.27    0.90
   1   4  -2   19.05    0.92
   1   4  -2   18.08    0.97
   0  -4  -2    4.42    0.27
   0  -4   2    4.03    0.32
   0  -4  -2    4.55    0.32
   0   4  -2    4.50    0.30
   1  -4   2   12.21    0.64
  -1  -4  -2   11.75    0.67
   1   4   2   11.66    0.60
  -1   4  -2   12.03    0.69
  -2  -4  -2   15.70    0.82
   2  -4   2   14.66    0.77
   2  -4   2   15.90    0.78
   2   4   2   14.62    0.72
  -2   4  -2   14.76    0.86
   2   4   2   15.34    0.76
  -3  -4  -2    2.01    0.20
   3  -4   2    2.00    0.24
   3  -4   2    1.79    0.22
   3   4   2    1.82    0.21
  -4  -4  -2    8.44    0.48
   4  -4   2    7.03    0.47
   4  -4   2    7.97    0.49
   4   4   2    7.99    0.47
  -4   4  -2    7.99    0.56
   5  -4   2    0.13    0.14
   5  -4   2    0.02    0.12
   5   4   2    0.09    0.12
  -5   4  -2    0.14    0.14
   6  -4   2    1.76    0.25
   6  -4   2    1.42    0.24
   6   4   2    1.39    0.23
  -6   4  -2    1.42    0.29
   5  -5  -2    1.32    0.22
  -5   5   2    0.93    0.26
   5   5  -2    1.36    0.17
   4  -5  -2    0.47    0.14
   4   5  -2    0.77    0.14
  -4   5   2    1.13    0.25
   3  -5  -2    2.26    0.25
  -3   5   2    2.33    0.35
   3   5  -2    1.65    0.21
   2  -5  -2    6.65    0.40
   2   5  -2    6.40    0.40
   2   5  -2    6.00    0.37
  -1  -5   2    0.09    0.11
   1  -5  -2    0.08    0.10
   1  -5  -2    0.06    0.09
   1   5  -2    0.13    0.10
   1   5  -2    0.10    0.08
   0  -5  -2   20.84    1.01
   0  -5   2   20.00    1.04
   0  -5  -2   20.54    1.13
   0   5  -2   21.40    1.12
   1  -5   2    2.26    0.26
  -1  -5  -2    1.83    0.21
   1   5   2    2.27    0.22
  -1   5  -2    1.84    0.21
   2  -5   2   10.03    0.60
  -2  -5  -2   10.97    0.62
  -2   5  -2   10.19    0.66
   2   5   2   10.30    0.54
   2   5   2   10.50    0.57
   3  -5   2    1.74    0.23
   3  -5   2    1.53    0.23
  -3  -5  -2    1.44    0.21
   3   5   2    1.23    0.19
  -3   5  -2    1.29    0.24
   4  -5   2    1.24    0.22
   4  -5   2    1.51    0.24
  -4   5  -2    1.43    0.27
   4   5   2    1.39    0.22
   5  -5   2    0.20    0.15
   5  -5   2    0.50    0.18
  -5   5  -2    0.41    0.18
   5   5   2    0.10    0.13
   5  -6  -2    0.01    0.12
   5   6  -2   -0.02    0.10
  -5   6   2    0.15    0.19
   4  -6  -2    1.67    0.25
  -4   6   2    1.13    0.28
   4   6  -2    1.33    0.20
   3  -6  -2    2.12    0.28
  -3   6   2    2.24    0.37
   3   6  -2    2.22    0.26
   2  -6  -2    6.27    0.44
  -2   6   2    7.28    0.56
   2   6  -2    7.31    0.45
   1  -6  -2   11.89    0.65
  -1  -6   2   12.67    0.70
   1  -6  -2   11.92    0.74
   1   6  -2   12.18    0.67
   1   6  -2   11.09    0.68
   0  -6  -2    7.74    0.46
   0  -6  -2    7.21    0.51
   0  -6   2    7.76    0.50
   0   6  -2    7.27    0.49
   1  -6   2   13.99    0.77
  -1  -6  -2   14.08    0.81
  -1   6  -2   13.35    0.83
  -2  -6  -2    1.41    0.22
   2  -6   2    1.26    0.23
   2   6   2    1.52    0.22
  -2   6  -2    1.27    0.25
   2   6   2    1.42    0.19
  -3  -6  -2    5.25    0.39
   3  -6   2    5.63    0.40
   3  -6   2    5.30    0.40
   3   6   2    5.22    0.38
  -3   6  -2    5.16    0.45
   4  -6   2   -0.28    0.13
   4  -6   2    0.21    0.15
  -4   6  -2    0.08    0.14
   4   6   2    0.15    0.14
   4  -7  -2    0.63    0.20
   4   7  -2    0.53    0.16
  -4   7   2    0.38    0.21
   3  -7  -2    5.55    0.42
   3   7  -2    4.95    0.37
  -3   7   2    5.56    0.52
   2  -7  -2   -0.12    0.10
  -2   7   2    0.11    0.16
   2   7  -2   -0.04    0.11
   1  -7  -2    6.57    0.43
   1   7  -2    6.78    0.45
   1   7  -2    5.16    0.41
   0  -7  -2    0.73    0.19
   0  -7   2    0.89    0.21
   0   7  -2    0.67    0.17
   1  -7   2    1.80    0.28
  -1  -7  -2    1.79    0.28
  -1   7  -2    1.49    0.27
   2  -7   2    1.56    0.26
  -2  -7  -2    1.35    0.24
  -2   7  -2    1.19    0.26
   2   7   2    1.59    0.24
   3  -7   2    0.11    0.16
  -3   7  -2    0.10    0.15
   3   7   2   -0.05    0.13
  -4   7  -2    0.17    0.17
  -3   8   2   -0.07    0.18
   2  -8  -2    1.31    0.26
   2   8  -2    1.10    0.24
  -2   8   2    0.88    0.28
   1  -8  -2    0.34    0.16
  -1   8   2    0.68    0.24
   1   8  -2    0.16    0.14
   0  -8   2    2.47    0.34
   0   8  -2    2.25    0.32
  -1  -8  -2    0.76    0.21
   1  -8   2    1.03    0.25
  -1   8  -2    0.80    0.24
   2  -8   2    1.13    0.25
  -2   8  -2    0.94    0.24
   2   8   2    0.85    0.21
   7   0  -3   -0.07    0.10
   6   0  -3   -0.14    0.08
   5   0  -3    1.53    0.17
   5   0  -3    1.16    0.15
   4   0  -3    0.14    0.06
  -4   0   3   -0.06    0.05
   4   0  -3    0.11    0.07
   3   0  -3   10.54    0.52
   3   0  -3   11.07    0.59
   2   0  -3    0.00    0.04
   2   0  -3    0.07    0.04
   1   0  -3   16.14    0.82
  -1   0   3   15.85    0.75
   0   0   3    0.06    0.05
   0   0  -3    0.09    0.03
  -1   0  -3    0.82    0.07
   1   0   3    0.83    0.10
   2   0   3    0.21    0.07
  -2   0  -3    0.10    0.05
   4   0   3    0.00    0.08
  -4   0  -3    0.38    0.10
   5   0   3    0.62    0.15
  -5   0  -3    0.92    0.17
   6   0   3    0.02    0.12
  -6   0  -3   -0.11    0.09
   6  -1  -3    0.22    0.11
   6   1  -3    0.29    0.12
   6   1  -3    0.21    0.10
   5  -1  -3    0.93    0.14
   5   1  -3    0.95    0.13
  -5   1   3    0.99    0.18
   5   1  -3    0.89    0.15
   4  -1  -3    2.66    0.19
  -4   1   3    2.78    0.27
   4   1  -3    2.64    0.19
   3  -1  -3    2.35    0.25
   3  -1  -3    3.69    0.19
  -2  -1   3   15.54    0.75
   2  -1  -3   15.55    0.82
   2  -1  -3   15.33    0.72
   2   1  -3   16.15    0.78
   2   1  -3   14.51    0.72
  -1  -1   3   46.84    2.00
   1  -1  -3   43.89    2.18
   1   1  -3   37.85    1.97
   1   1  -3   45.43    2.15
  -1   1   3   45.78    1.96
   0  -1  -3   35.26    1.59
   0  -1  -3   37.31    1.78
   0  -1   3   35.10    1.64
   0   1   3   34.82    1.61
   0   1  -3   37.98    1.77
   0   1  -3   34.68    1.62
  -1  -1  -3   23.26    1.12
   1  -1   3   22.37    1.03
  -1   1  -3   20.28    1.01
   1   1   3   22.14    1.01
  -1   1  -3   22.52    1.12
  -2  -1  -3    7.17    0.39
  -2   1  -3    5.90    0.39
   2   1   3    6.71    0.35
  -3  -1  -3    1.94    0.17
   3  -1   3    1.21    0.13
   3  -1   3    1.37    0.16
   3   1   3    1.24    0.15
  -3   1  -3    1.23    0.17
   4  -1   3    0.32    0.11
   4  -1   3    0.37    0.09
  -4  -1  -3    0.58    0.12
   4   1   3    0.34    0.10
  -4   1  -3    0.32    0.10
  -5  -1  -3   -0.02    0.08
   5  -1   3    0.03    0.11
   5   1   3    0.08    0.10
  -5   1  -3    0.01    0.09
   6  -1   3    0.04    0.12
  -6  -1  -3    0.03    0.09
  -6   1  -3   -0.10    0.09
   6   1   3   -0.04    0.11
   6  -2  -3   -0.01    0.09
   6   2  -3    0.05    0.11
   6   2  -3   -0.08    0.07
   5  -2  -3    0.26    0.11
   5   2  -3    0.61    0.11
   5   2  -3    0.32    0.13
  -5   2   3    0.31    0.15
   4  -2  -3    0.54    0.10
  -4   2   3    0.89    0.19
   3  -2  -3    4.27    0.26
   3  -2  -3    4.69    0.33
   3   2  -3    4.21    0.26
   2  -2  -3    8.93    0.54
  -2  -2   3    9.21    0.50
   2  -2  -3    9.34    0.45
   2   2  -3    9.06    0.46
  -1  -2   3    5.46    0.33
   1  -2  -3    5.54    0.34
   1   2  -3    5.15    0.30
   1   2  -3    5.09    0.29
   0  -2   3   33.27    1.60
   0  -2  -3   35.74    1.56
   0   2   3   33.67    1.55
   0   2  -3   34.53    1.59
   0   2  -3   35.95    1.72
  -1  -2  -3    0.14    0.06
   1  -2   3    0.01    0.04
  -1  -2  -3    0.08    0.03
  -1   2  -3    0.00    0.04
   1   2   3    0.02    0.05
  -2  -2  -3   14.05    0.76
   2  -2   3   14.32    0.72
  -2   2  -3   13.49    0.77
   2   2   3   15.12    0.69
   3  -2   3    0.19    0.10
   3  -2   3    0.17    0.08
   3   2   3    0.21    0.08
  -3   2  -3    0.14    0.08
   4  -2   3    2.45    0.22
  -4  -2  -3    2.54    0.22
   4  -2   3    2.78    0.24
   4   2   3    2.92    0.24
  -4   2  -3    2.94    0.28
  -5  -2  -3    0.26    0.11
   5  -2   3    0.34    0.13
  -5   2  -3    0.06    0.11
   5   2   3    0.24    0.11
   6  -2   3    0.39    0.15
   6   2   3    0.15    0.13
  -6   2  -3    0.18    0.14
   6  -3  -3    0.23    0.13
   6   3  -3    0.20    0.14
   6   3  -3    0.13    0.10
  -6   3   3    0.05    0.14
   5  -3  -3    0.32    0.12
   5   3  -3    0.22    0.09
  -5   3   3    0.11    0.14
   4  -3  -3    0.59    0.13
  -4   3   3    0.19    0.14
   4   3  -3    0.66    0.11
   3  -3  -3    0.55    0.15
   3  -3  -3    0.73    0.13
   3   3  -3    0.63    0.11
   2  -3  -3    5.12    0.38
  -2  -3   3    5.03    0.36
   2  -3  -3    5.33    0.31
   2   3  -3    5.57    0.32
   1  -3  -3    6.73    0.44
   1  -3  -3    6.96    0.37
  -1  -3   3    7.36    0.43
   1   3  -3    6.73    0.38
   1   3  -3    6.97    0.39
   0  -3  -3   19.25    1.03
   0   3  -3   18.55    0.94
   0   3   3   19.10    0.89
   0   3  -3   21.02    1.01
  -1  -3  -3    1.75    0.18
   1  -3   3    1.74    0.20
  -1  -3  -3    1.86    0.13
   1   3   3    1.49    0.14
  -1   3  -3    1.44    0.18
   2  -3   3   19.14    0.93
  -2  -3  -3   18.42    0.98
   2   3   3   18.51    0.88
  -2   3  -3   17.88    1.00
   3  -3   3    0.32    0.12
   3  -3   3    0.34    0.11
  -3  -3  -3    0.46    0.11
   3   3   3    0.46    0.11
   4  -3   3    3.94    0.31
   4  -3   3    4.11    0.31
  -4  -3  -3    4.63    0.31
   4   3   3    4.32    0.30
  -4   3  -3    4.00    0.35
   5  -3   3    0.29    0.13
   5  -3   3    0.62    0.16
  -5  -3  -3    0.51    0.14
   5   3   3    0.30    0.13
  -5   3  -3    0.26    0.14
   6  -3   3    0.66    0.18
  -6   3  -3    0.54    0.19
   6   3   3    0.44    0.15
   6  -4  -3    0.07    0.12
  -6   4   3   -0.20    0.14
   6   4  -3    0.14    0.10
   6   4  -3    0.17    0.15
   5  -4  -3   -0.02    0.10
  -5   4   3   -0.03    0.13
   5   4  -3   -0.03    0.08
   4  -4  -3    0.37    0.12
  -4   4   3    0.39    0.17
   4   4  -3    0.69    0.12
   3  -4  -3    1.41    0.19
   3   4  -3    1.18    0.16
  -2  -4   3    1.77    0.23
   2  -4  -3    1.98    0.20
   2  -4  -3    1.65    0.23
   2   4  -3    1.36    0.13
   2   4  -3    1.83    0.20
   1  -4  -3    6.88    0.45
   0  -4   3    8.57    0.53
   0  -4  -3    9.51    0.48
   0  -4  -3    9.54    0.56
   0   4  -3    8.84    0.52
   0   4  -3    9.03    0.53
   0   4   3    9.33    0.45
  -1  -4  -3   17.05    0.94
   1  -4   3   17.75    0.89
   1   4   3   18.04    0.83
  -1   4  -3   16.01    0.94
   2  -4   3    4.71    0.35
  -2  -4  -3    4.49    0.33
   2   4   3    4.67    0.30
  -2   4  -3    4.49    0.36
   3  -4   3    4.75    0.36
  -3  -4  -3    4.86    0.33
   3   4   3    4.58    0.31
  -3   4  -3    4.04    0.37
   4  -4   3    1.38    0.22
  -4  -4  -3    1.46    0.21
   4  -4   3    1.18    0.22
   4   4   3    1.16    0.19
  -4   4  -3    1.38    0.24
   5  -4   3    0.08    0.14
   5  -4   3    0.21    0.14
   5   4   3    0.15    0.13
  -5   4  -3    0.22    0.14
   5  -5  -3    0.10    0.12
   5   5  -3    0.26    0.11
  -5   5   3    0.02    0.15
   4  -5  -3    1.58    0.23
  -4   5   3    1.26    0.28
   4   5  -3    1.38    0.19
   3  -5  -3    0.07    0.10
  -3   5   3    0.03    0.13
   3   5  -3   -0.05    0.08
  -2  -5   3    4.56    0.38
   2  -5  -3    5.20    0.35
   2  -5  -3    5.04    0.41
   2   5  -3    5.63    0.36
  -1  -5   3    0.74    0.18
   1  -5  -3    0.52    0.16
   1  -5  -3    0.56    0.13
   1   5  -3    0.55    0.12
   0  -5   3    8.99    0.55
   0  -5  -3    9.10    0.49
   0  -5  -3    8.68    0.56
   0   5  -3    9.19    0.53
   0   5  -3    8.48    0.53
   0   5   3    8.50    0.45
   1  -5   3    2.92    0.30
  -1  -5  -3    2.63    0.26
   1   5   3    3.24    0.23
  -1   5  -3    2.52    0.24
   2  -5   3    2.70    0.31
  -2  -5  -3    2.03    0.24
   2   5   3    2.66    0.23
  -2   5  -3    2.56    0.32
   3  -5   3    2.74    0.29
  -3  -5  -3    2.72    0.26
  -3   5  -3    3.26    0.38
   3   5   3    2.72    0.25
  -4  -5  -3    0.17    0.12
   4  -5   3    0.12    0.15
   4  -5   3    0.08    0.13
  -4   5  -3    0.50    0.17
   4   5   3    0.29    0.13
   5  -5   3    0.50    0.17
   5  -5   3    0.94    0.23
  -5   5  -3    0.78    0.22
   5   5   3    0.72    0.18
  -5   6   3    0.27    0.19
   4  -6  -3    1.05    0.21
   4   6  -3    1.01    0.18
  -4   6   3    1.19    0.29
   3  -6  -3    0.52    0.15
  -3   6   3    0.62    0.22
   3   6  -3    0.45    0.14
   2  -6  -3    2.03    0.27
   2  -6  -3    1.63    0.28
   2   6  -3    2.20    0.27
   1  -6  -3    0.03    0.11
  -1  -6   3   -0.08    0.11
   1  -6  -3    0.01    0.11
   1   6  -3    0.03    0.10
   1   6  -3   -0.05    0.08
   0  -6  -3   -0.01    0.10
   0  -6  -3    0.04    0.11
   0  -6   3    0.29    0.16
   0   6  -3    0.18    0.12
   0   6  -3    0.17    0.11
  -1  -6  -3    0.13    0.11
   1  -6   3    0.24    0.15
  -1   6  -3    0.36    0.15
   1   6   3    0.22    0.11
   2  -6   3    0.18    0.16
  -2  -6  -3    0.02    0.11
   2   6   3    0.16    0.11
  -2   6  -3    0.25    0.13
   3  -6   3    0.21    0.16
  -3  -6  -3    0.09    0.12
   3   6   3    0.15    0.12
  -3   6  -3    0.08    0.14
   4  -6   3    0.29    0.17
   4   6   3    0.22    0.14
  -4   6  -3    0.37    0.18
   4  -7  -3    0.08    0.14
   4   7  -3    0.14    0.13
  -4   7   3    0.42    0.22
   3  -7  -3    0.17    0.14
  -3   7   3    0.16    0.18
   3   7  -3    0.23    0.14
   2  -7  -3    0.75    0.18
   2   7  -3    1.33    0.23
   1  -7  -3    0.18    0.15
   1  -7  -3    0.24    0.14
  -1  -7   3    0.11    0.17
   1   7  -3    0.34    0.16
   0  -7   3    1.14    0.25
   0  -7  -3    1.09    0.22
   0  -7  -3    1.27    0.21
   0   7  -3    1.23    0.25
   0   7  -3    0.97    0.19
  -1  -7  -3    0.11    0.13
   1  -7   3    0.16    0.16
   1   7   3    0.14    0.11
  -1   7  -3    0.20    0.14
  -2  -7  -3    0.04    0.12
   2  -7   3    0.20    0.17
   2   7   3    0.04    0.11
  -2   7  -3    0.12    0.14
   3  -7   3   -0.06    0.16
  -3   7  -3    0.11    0.14
   3   7   3    0.11    0.13
   2  -8  -3    0.11    0.15
  -2   8   3    0.38    0.23
   2   8  -3    0.25    0.16
   1  -8  -3    0.16    0.14
   1   8  -3    0.20    0.16
   0  -8   3    2.29    0.34
   0  -8  -3    2.07    0.34
   0   8  -3    2.25    0.34
   0   8  -3    2.22    0.30
   1  -8   3   -0.07    0.16
  -1  -8  -3   -0.09    0.12
  -1   8  -3   -0.01    0.13
  -2  -8  -3    2.16    0.33
  -2   8  -3    2.07    0.33
   6   0  -4    1.30    0.18
   5   0  -4   -0.05    0.07
   4   0  -4    1.92    0.16
   3   0  -4    0.04    0.05
   3   0  -4   -0.02    0.06
   2   0  -4    1.17    0.13
   2   0  -4    1.17    0.11
  -2   0   4    1.32    0.14
   1   0  -4   -0.07    0.04
   1   0  -4    0.00    0.03
  -1   0   4    0.05    0.06
   0   0  -4    0.21    0.06
   0   0  -4    0.05    0.03
   0   0   4    0.13    0.07
   1   0   4    0.25    0.08
  -1   0  -4    0.09    0.06
  -1   0  -4    0.07    0.03
  -2   0  -4    1.13    0.15
   2   0   4    1.39    0.16
  -2   0  -4    1.31    0.09
   3   0   4    0.03    0.07
   4   0   4    0.00    0.09
  -4   0  -4    0.04    0.08
  -5   0  -4   -0.05    0.08
   5   0   4   -0.02    0.10
  -6   0  -4    0.04    0.11
   6   0   4   -0.01    0.12
   6  -1  -4    0.36    0.13
   6   1  -4    0.24    0.10
   5  -1  -4    0.39    0.11
   5   1  -4    0.46    0.13
   5   1  -4    0.13    0.09
   4  -1  -4    1.33    0.14
  -4   1   4    1.32    0.21
   4   1  -4    1.68    0.16
   3  -1  -4    2.93    0.25
   3  -1  -4    3.27    0.20
   3   1  -4    3.09    0.22
  -2  -1   4    1.35    0.16
   2  -1  -4    1.06    0.10
   2  -1  -4    1.15    0.15
  -2   1   4    1.17    0.11
   2   1  -4    1.07    0.12
   2   1  -4    1.24    0.12
   1  -1  -4    8.58    0.41
  -1  -1   4    9.31    0.47
   1  -1  -4    8.72    0.49
  -1   1   4    8.22    0.43
   1   1  -4    8.37    0.46
   1   1  -4    8.52    0.43
   0  -1  -4    2.97    0.21
   0  -1   4    2.76    0.22
   0  -1  -4    2.69    0.15
   0   1  -4    2.36    0.17
   0   1   4    2.64    0.19
   0   1  -4    2.73    0.20
  -1  -1  -4    4.03    0.19
   1  -1   4    3.79    0.26
  -1   1  -4    3.70    0.26
   1   1   4    3.94    0.25
   2  -1   4    0.08    0.08
  -2  -1  -4    0.08    0.06
  -2   1  -4    0.09    0.05
  -2   1  -4    0.02    0.04
   2   1   4    0.12    0.07
  -3  -1  -4    0.33    0.10
   3   1   4    0.37    0.11
  -3   1  -4    0.26    0.09
   4  -1   4    0.35    0.12
  -4  -1  -4    0.24    0.10
  -4   1  -4    0.26    0.11
   4   1   4    0.21    0.11
  -5  -1  -4    0.03    0.09
   5  -1   4    0.03    0.11
  -5   1  -4   -0.01    0.09
   5   1   4    0.04    0.11
  -6  -1  -4    0.03    0.11
   6  -1   4    0.17    0.14
   6   1   4    0.01    0.13
  -6   1  -4    0.25    0.14
   6  -2  -4    0.27    0.12
   6   2  -4    0.33    0.15
   6   2  -4    0.36    0.12
   5  -2  -4    1.13    0.17
  -5   2   4    1.10    0.23
   5   2  -4    1.27    0.16
   4  -2  -4    0.28    0.09
   4   2  -4    0.27    0.09
   3  -2  -4    7.17    0.47
   3  -2  -4    7.34    0.39
  -2  -2   4    3.73    0.29
   2  -2  -4    3.65    0.29
   2  -2  -4    3.68    0.22
   2   2  -4    3.68    0.24
   2   2  -4    3.52    0.22
   1  -2  -4   21.52    0.98
   1  -2  -4   21.89    1.13
  -1  -2   4   21.37    1.05
  -1   2   4   20.85    0.98
   1   2  -4   21.20    1.01
   1   2  -4   21.83    1.08
   0  -2  -4    8.75    0.42
   0  -2   4    8.50    0.49
   0  -2  -4    8.79    0.51
   0   2  -4    9.12    0.47
   0   2  -4    9.26    0.49
   0   2   4    8.70    0.44
  -1  -2  -4    7.79    0.38
   1  -2   4    9.06    0.48
  -1  -2  -4    8.08    0.47
   1   2   4    8.05    0.42
  -1   2  -4    7.93    0.47
  -1   2  -4    7.31    0.43
  -2  -2  -4    0.68    0.13
  -2   2  -4    1.07    0.16
   2   2   4    0.76    0.12
   3  -2   4    0.30    0.12
  -3  -2  -4    0.38    0.10
  -3   2  -4    0.10    0.08
   3   2   4    0.09    0.08
  -4  -2  -4    0.23    0.10
   4  -2   4    0.14    0.11
  -4   2  -4    0.16    0.11
   4   2   4   -0.01    0.09
  -5  -2  -4    0.35    0.13
   5  -2   4    0.26    0.13
   5   2   4    0.14    0.12
  -5   2  -4    0.14    0.11
   6  -3  -4    0.58    0.16
   6   3  -4    0.43    0.13
   6   3  -4    0.76    0.19
   5  -3  -4   -0.06    0.09
   5   3  -4   -0.07    0.08
  -5   3   4   -0.03    0.13
   4  -3  -4    2.89    0.25
  -4   3   4    3.98    0.38
   4   3  -4    3.20    0.25
   3  -3  -4    0.84    0.14
   3  -3  -4    0.95    0.19
   3   3  -4    0.89    0.13
  -2  -3   4    2.05    0.24
   2  -3  -4    1.97    0.18
   2  -3  -4    2.11    0.23
   2   3  -4    1.72    0.14
   1  -3  -4   12.16    0.59
   1  -3  -4   11.74    0.69
  -1  -3   4   11.87    0.65
   1   3  -4   12.25    0.63
   1   3  -4   11.68    0.62
   0  -3   4    2.40    0.25
   0  -3  -4    1.81    0.19
   0   3   4    2.45    0.17
   0   3  -4    2.50    0.22
  -1  -3  -4   22.47    1.05
  -1  -3  -4   23.26    1.21
   1   3   4   23.38    1.07
  -1   3  -4   23.94    1.20
  -1   3  -4   21.66    1.11
   2  -3   4    3.41    0.31
  -2  -3  -4    3.52    0.28
   2   3   4    3.46    0.25
  -2   3  -4    3.52    0.29
  -3  -3  -4    9.55    0.56
   3  -3   4    9.16    0.54
  -3   3  -4    9.04    0.59
   3   3   4    9.45    0.51
  -4  -3  -4    1.43    0.21
   4  -3   4    1.36    0.22
  -4   3  -4    0.98    0.20
   4   3   4    1.03    0.18
  -5  -3  -4    1.04    0.19
   5  -3   4    1.52    0.24
   5   3   4    1.21    0.21
  -5   3  -4    1.51    0.25
   5  -4  -4    0.90    0.18
   5   4  -4    1.01    0.17
  -5   4   4    1.08    0.28
   4  -4  -4    1.91    0.24
   4   4  -4    1.61    0.19
  -4   4   4    1.30    0.28
   3  -4  -4    3.77    0.36
   3  -4  -4    4.24    0.30
   3   4  -4    3.91    0.29
   2  -4  -4   10.46    0.55
  -2  -4   4   10.16    0.61
   2  -4  -4   10.04    0.65
   1  -4  -4    6.84    0.38
  -1  -4   4    5.35    0.43
   1   4  -4    6.29    0.40
   1   4  -4    6.42    0.38
   0  -4  -4   13.58    0.78
   0  -4  -4   13.04    0.67
   0   4   4   12.91    0.64
   0   4  -4   14.30    0.74
   0   4  -4   13.44    0.72
  -1  -4  -4    0.93    0.18
   1  -4   4    0.84    0.18
  -1   4  -4    0.62    0.14
  -1   4  -4    0.78    0.17
   1   4   4    0.92    0.12
   2  -4   4    2.12    0.28
  -2  -4  -4    2.05    0.22
  -2   4  -4    2.09    0.24
   2   4   4    2.00    0.19
   3  -4   4    0.13    0.15
  -3  -4  -4    0.21    0.13
  -3   4  -4    0.19    0.12
   3   4   4    0.25    0.11
   4  -4   4    0.16    0.15
  -4  -4  -4    0.01    0.10
   4   4   4    0.16    0.12
  -4   4  -4    0.05    0.12
  -5  -4  -4    0.24    0.14
   5  -4   4    0.48    0.19
  -5   4  -4    0.22    0.16
   5   4   4    0.27    0.14
   5  -5  -4   -0.02    0.12
   5   5  -4    0.00    0.10
  -5   5   4    0.03    0.17
   4  -5  -4    1.87    0.26
  -4   5   4    1.51    0.32
   4   5  -4    1.88    0.22
   3  -5  -4    0.30    0.12
   3  -5  -4    0.40    0.16
   3   5  -4    0.49    0.14
   2  -5  -4    0.26    0.15
   2  -5  -4    0.33    0.13
  -2  -5   4    0.54    0.18
   2   5  -4    0.53    0.14
  -1  -5   4    0.71    0.18
   1  -5  -4    0.64    0.17
   1  -5  -4    0.79    0.15
   1   5  -4    0.86    0.17
   1   5  -4    0.86    0.13
   0  -5   4    1.64    0.26
   0  -5  -4    1.97    0.21
   0  -5  -4    1.97    0.27
   0   5  -4    1.99    0.21
   0   5  -4    1.44    0.23
  -1  -5  -4    0.71    0.18
   1  -5   4    0.44    0.17
  -1   5  -4    0.73    0.16
   1   5   4    0.60    0.12
   2  -5   4    3.72    0.34
  -2  -5  -4    3.83    0.32
   2   5   4    3.70    0.27
  -2   5  -4    3.65    0.34
   3  -5   4    0.67    0.19
  -3  -5  -4    1.05    0.19
   3   5   4    0.74    0.16
  -3   5  -4    0.75    0.19
   4  -5   4    1.63    0.28
  -4  -5  -4    1.06    0.22
   4   5   4    1.02    0.18
  -4   5  -4    1.13    0.24
   4  -6  -4    0.39    0.15
  -4   6   4    0.73    0.25
   4   6  -4    0.37    0.14
   3  -6  -4    0.18    0.13
   3   6  -4    0.31    0.14
   2  -6  -4    2.92    0.28
  -2  -6   4    3.70    0.40
   2  -6  -4    3.17    0.33
   2   6  -4    2.94    0.28
  -1  -6   4    1.02    0.23
   1  -6  -4    0.53    0.15
   1  -6  -4    0.75    0.21
   1   6  -4    1.02    0.20
   0  -6  -4    3.03    0.31
   0  -6  -4    3.11    0.28
   0  -6   4    3.33    0.38
   0   6  -4    3.19    0.35
   0   6  -4    3.43    0.29
   1  -6   4    1.72    0.29
  -1  -6  -4    1.94    0.29
  -1   6  -4    1.96    0.27
   1   6   4    2.10    0.21
   2  -6   4    0.12    0.16
  -2  -6  -4    0.59    0.17
  -2   6  -4    0.44    0.16
   2   6   4    0.40    0.13
   3  -6   4    1.44    0.27
  -3  -6  -4    1.51    0.25
   3   6   4    1.24    0.20
  -3   6  -4    1.34    0.27
  -4   6  -4   -0.02    0.13
   3  -7  -4    1.09    0.23
   3   7  -4    1.73    0.26
  -3   7   4    2.20    0.41
   2  -7  -4    0.79    0.22
   2  -7  -4    1.19    0.23
   2   7  -4    1.00    0.22
   1  -7  -4    3.73    0.33
  -1  -7   4    3.54    0.41
   1  -7  -4    3.02    0.33
   1   7  -4    2.98    0.32
   0  -7   4    0.20    0.17
   0  -7  -4    0.61    0.19
   0   7  -4    0.26    0.15
   0   7  -4    0.43    0.16
  -1  -7  -4    2.77    0.37
   1  -7   4    3.18    0.39
  -1   7  -4    3.09    0.38
  -1   7  -4    2.69    0.35
   2  -7   4    0.04    0.16
  -2  -7  -4    0.10    0.14
  -2   7  -4    0.01    0.13
   1  -8  -4    0.14    0.16
   1   8  -4   -0.05    0.14
   0  -8  -4    0.14    0.15
   0  -8   4    0.09    0.18
   0   8  -4   -0.02    0.14
   6   0  -5    0.02    0.10
   5   0  -5    2.74    0.22
   4   0  -5    0.12    0.08
   3   0  -5    5.81    0.38
   3   0  -5    6.02    0.33
   2   0  -5    0.14    0.08
   2   0  -5    0.00    0.04
  -2   0   5    0.02    0.08
   1   0  -5    0.58    0.11
  -1   0   5    0.68    0.12
   1   0  -5    0.76    0.09
   0   0  -5    0.02    0.05
   0   0   5    0.09    0.08
   0   0  -5    0.11    0.04
  -1   0  -5    1.12    0.09
   1   0   5    1.53    0.18
  -1   0  -5    1.39    0.16
   2   0   5    0.18    0.09
  -3   0  -5    0.44    0.12
   3   0   5    0.24    0.11
   4   0   5    0.21    0.12
  -4   0  -5    0.82    0.16
   5   0   5   -0.03    0.11
  -5   0  -5    0.13    0.11
   6  -1  -5    0.09    0.10
   6   1  -5   -0.07    0.09
   5  -1  -5    0.21    0.10
   5   1  -5    0.03    0.09
   4  -1  -5    0.05    0.07
   4  -1  -5    0.11    0.10
   4   1  -5    0.09    0.07
   3  -1  -5    2.61    0.19
   3  -1  -5    2.67    0.25
   3   1  -5    2.77    0.20
   3   1  -5    2.58    0.21
   2  -1  -5    0.08    0.05
  -2  -1   5    0.20    0.10
   2  -1  -5    0.08    0.08
   2   1  -5    0.13    0.07
  -2   1   5    0.12    0.07
   2   1  -5   -0.03    0.05
   1  -1  -5    8.33    0.41
   1  -1  -5    8.13    0.49
  -1  -1   5    8.24    0.48
  -1   1   5    8.47    0.44
   1   1  -5    8.39    0.47
   1   1  -5    8.21    0.42
   0  -1  -5    0.26    0.09
   0  -1  -5    0.33    0.05
   0  -1   5    0.71    0.14
   0   1  -5    0.57    0.09
   0   1   5    0.44    0.10
   0   1  -5    0.31    0.09
   1  -1   5    1.44    0.19
  -1  -1  -5    1.55    0.10
  -1   1  -5    1.18    0.16
   1   1   5    1.40    0.16
  -1   1  -5    1.32    0.13
   2  -1   5    1.10    0.17
  -2  -1  -5    1.06    0.16
   2   1   5    1.37    0.17
  -2   1  -5    0.87    0.14
  -3  -1  -5   -0.06    0.07
   3  -1   5   -0.02    0.09
  -3   1  -5   -0.07    0.07
   3   1   5    0.04    0.10
  -4  -1  -5    0.57    0.14
   4  -1   5    0.40    0.14
   4   1   5    0.39    0.14
  -4   1  -5    0.59    0.14
   5  -1   5    0.05    0.13
  -5  -1  -5    0.24    0.12
   5   1   5    0.02    0.12
  -5   1  -5    0.01    0.11
   6  -2  -5    0.12    0.11
   6   2  -5    0.02    0.10
   5  -2  -5    3.07    0.24
   5   2  -5    2.50    0.22
   4  -2  -5    1.64    0.19
   4  -2  -5    1.38    0.23
   4   2  -5    1.42    0.18
   3  -2  -5    4.29    0.28
   3  -2  -5    4.50    0.35
   3   2  -5    4.61    0.29
   2  -2  -5    6.60    0.43
   2  -2  -5    6.32    0.35
  -2  -2   5    6.39    0.43
   2   2  -5    6.30    0.37
   2   2  -5    6.67    0.37
   1  -2  -5    0.74    0.14
   1  -2  -5    0.93    0.10
  -1  -2   5    0.73    0.16
   1   2  -5    0.53    0.10
  -1   2   5    0.57    0.10
   1   2  -5    0.49    0.10
   0  -2  -5   13.52    0.78
   0  -2   5   13.95    0.74
   0   2  -5   15.06    0.75
   0   2  -5   14.19    0.70
   0   2   5   13.10    0.68
   1  -2   5    1.55    0.21
   1   2   5    1.02    0.14
  -1   2  -5    1.18    0.16
  -1   2  -5    1.39    0.16
  -2  -2  -5    5.19    0.36
   2  -2   5    5.52    0.38
   2   2   5    5.41    0.34
  -2   2  -5    4.55    0.34
  -2   2  -5    4.57    0.31
   3  -2   5    0.78    0.17
  -3  -2  -5    0.92    0.17
  -3   2  -5    0.46    0.13
   3   2   5    0.38    0.13
   4  -2   5    0.99    0.20
  -4  -2  -5    1.13    0.19
  -4   2  -5    1.32    0.21
   4   2   5    1.26    0.20
   5  -2   5    0.14    0.14
  -5  -2  -5    0.09    0.12
   5   2   5   -0.06    0.12
  -5   2  -5   -0.05    0.11
   5  -3  -5    1.79    0.24
   5   3  -5    1.57    0.20
   4  -3  -5    1.35    0.24
   4  -3  -5    1.46    0.19
   4   3  -5    1.04    0.16
   3  -3  -5    9.13    0.65
   3  -3  -5   10.92    0.55
   3   3  -5   10.74    0.55
   2  -3  -5    6.42    0.47
  -2  -3   5    6.27    0.46
   2  -3  -5    7.10    0.38
   2   3  -5    6.83    0.41
   1  -3  -5   17.48    0.82
   1  -3  -5   15.84    0.95
  -1  -3   5   17.23    0.90
   1   3  -5   16.81    0.85
   1   3  -5   17.58    0.89
   0  -3   5    9.42    0.59
   0  -3  -5    9.95    0.49
   0   3  -5    9.46    0.54
   0   3   5    9.61    0.50
   0   3  -5    9.82    0.55
  -1  -3  -5    4.90    0.37
   1  -3   5    5.43    0.39
   1   3   5    4.82    0.32
  -1   3  -5    4.95    0.35
  -1   3  -5    5.39    0.35
   2  -3   5    2.10    0.27
  -2  -3  -5    2.14    0.26
  -2   3  -5    1.76    0.22
   2   3   5    1.94    0.21
  -2   3  -5    1.54    0.21
  -3  -3  -5    0.50    0.14
   3  -3   5    0.40    0.15
  -3   3  -5    0.33    0.13
   3   3   5    0.21    0.12
  -4  -3  -5    0.07    0.11
   4  -3   5    0.27    0.15
   4   3   5    0.08    0.12
  -4   3  -5    0.19    0.13
   5  -3   5    0.14    0.15
  -5  -3  -5    0.12    0.13
   5   3   5   -0.06    0.12
  -5   3  -5    0.10    0.13
   5  -4  -5    0.64    0.17
   5   4  -5    0.44    0.13
  -5   4   5    0.32    0.19
   4  -4  -5    0.51    0.14
   4  -4  -5    0.41    0.18
   4   4  -5    0.29    0.11
   3  -4  -5    0.05    0.10
   3  -4  -5    0.06    0.12
   3   4  -5    0.21    0.10
  -2  -4   5    1.67    0.25
   2  -4  -5    2.08    0.22
   2  -4  -5    1.39    0.25
   2   4  -5    1.39    0.20
   1  -4  -5    7.53    0.53
  -1  -4   5    7.93    0.53
   1  -4  -5    7.77    0.44
   1   4  -5    7.75    0.47
   1   4  -5    7.54    0.45
   0  -4   5    2.39    0.30
   0  -4  -5    2.84    0.23
   0  -4  -5    2.73    0.28
   0   4  -5    2.77    0.29
   0   4  -5    2.87    0.24
   1  -4   5   15.63    0.84
  -1  -4  -5   14.31    0.87
  -1   4  -5   14.81    0.84
   1   4   5   15.91    0.75
  -1   4  -5   15.12    0.81
   2  -4   5    0.51    0.18
  -2  -4  -5    0.29    0.14
  -2   4  -5    0.26    0.12
   2   4   5    0.36    0.11
  -2   4  -5    0.15    0.13
   3  -4   5    6.45    0.47
  -3  -4  -5    6.61    0.48
   3   4   5    6.83    0.41
  -3   4  -5    6.41    0.47
   4  -4   5   -0.11    0.15
  -4  -4  -5    0.27    0.14
  -4   4  -5    0.19    0.13
   4   4   5    0.16    0.13
   4  -5  -5    1.45    0.23
   4   5  -5    1.44    0.21
   3  -5  -5    5.97    0.49
   3  -5  -5    6.22    0.41
   3   5  -5    5.86    0.40
  -2  -5   5    4.95    0.43
   2  -5  -5    4.15    0.41
   2  -5  -5    4.32    0.34
   2   5  -5    5.85    0.38
   1  -5  -5   11.13    0.58
   1  -5  -5    9.85    0.67
  -1  -5   5   10.17    0.65
   1   5  -5    9.70    0.60
   0  -5   5    7.68    0.56
   0  -5  -5    7.05    0.55
   0   5  -5    9.49    0.52
   0   5  -5    8.58    0.53
  -1  -5  -5    3.80    0.35
   1  -5   5    4.19    0.39
   1   5   5    4.01    0.28
  -1   5  -5    4.51    0.38
  -1   5  -5    3.77    0.32
  -2  -5  -5    5.29    0.43
   2  -5   5    5.55    0.45
   2   5   5    6.33    0.37
  -2   5  -5    5.57    0.44
  -2   5  -5    5.70    0.44
  -3  -5  -5    0.27    0.15
   3  -5   5    0.24    0.16
   3   5   5    0.25    0.13
  -3   5  -5    0.19    0.14
  -4  -5  -5    1.84    0.28
   4  -5   5    1.18    0.26
  -4   5  -5    1.57    0.28
   4   5   5    1.49    0.23
  -4   6   5    0.64    0.25
   3  -6  -5    0.30    0.18
   3  -6  -5    0.03    0.13
   3   6  -5    0.00    0.12
   2  -6  -5    0.46    0.19
  -2  -6   5    0.87    0.22
   2  -6  -5    0.57    0.16
   2   6  -5    0.42    0.15
  -1  -6   5    0.96    0.23
   1  -6  -5    0.49    0.19
   1  -6  -5    0.47    0.14
   1   6  -5    0.63    0.17
   0  -6  -5    0.27    0.15
   0  -6   5    0.32    0.18
   0   6  -5    0.38    0.13
   0   6  -5    0.21    0.15
  -1  -6  -5    1.04    0.23
   1  -6   5    1.04    0.24
  -1   6  -5    0.74    0.18
  -1   6  -5    1.19    0.24
   2  -6   5   -0.01    0.16
  -2  -6  -5    0.12    0.14
  -2   6  -5    0.11    0.13
  -2   6  -5    0.16    0.13
   3  -6   5    0.28    0.20
  -3  -6  -5    0.42    0.18
   3   6   5    0.18    0.14
  -3   6  -5    0.17    0.15
   2  -7  -5    0.38    0.20
  -2  -7   5    0.33    0.21
   2  -7  -5    0.39    0.16
   2   7  -5    0.11    0.13
   1  -7  -5    0.12    0.16
  -1  -7   5    0.17    0.18
   1   7  -5    0.37    0.17
   0  -7   5    0.59    0.23
   0  -7  -5    0.76    0.22
   0   7  -5    0.53    0.20
   1  -7   5    0.80    0.24
  -1  -7  -5    1.19    0.26
  -1   7  -5    0.57    0.18
  -1   7  -5    0.72    0.22
   5   0  -6    0.02    0.09
   4   0  -6    8.46    0.47
   3   0  -6   -0.03    0.09
   3   0  -6    0.03    0.07
   2   0  -6   17.38    0.93
   2   0  -6   17.54    0.82
  -2   0   6   16.43    0.86
  -1   0   6    0.64    0.14
   1   0  -6    0.38    0.12
   1   0  -6    0.36    0.08
   0   0  -6    6.66    0.42
   0   0   6    6.31    0.42
   0   0  -6    6.52    0.34
  -1   0  -6    0.46    0.12
   1   0   6    0.74    0.15
  -2   0  -6    0.53    0.14
   2   0   6    0.49    0.15
   3   0   6    0.26    0.13
  -3   0  -6    0.84    0.16
   4   0   6    2.00    0.27
  -4   0  -6    1.79    0.25
   5  -1  -6   -0.02    0.09
   5   1  -6    0.05    0.09
   4  -1  -6    1.23    0.22
   4  -1  -6    1.45    0.18
   4   1  -6    1.11    0.17
   3  -1  -6    0.31    0.09
   3  -1  -6    0.44    0.14
  -3  -1   6    0.38    0.14
   3   1  -6    0.36    0.10
   2  -1  -6   10.20    0.50
  -2  -1   6    9.36    0.57
   2  -1  -6   10.13    0.60
   2   1  -6    9.82    0.51
   2   1  -6    9.88    0.57
  -1  -1   6    1.07    0.18
   1  -1  -6    0.85    0.16
   1  -1  -6    0.74    0.10
  -1   1   6    1.15    0.15
   1   1  -6    0.83    0.14
   1   1  -6    0.56    0.10
   0  -1   6   23.36    1.20
   0  -1  -6   24.52    1.30
   0  -1  -6   24.55    1.12
   0   1  -6   25.68    1.14
   0   1   6   22.91    1.17
   0   1  -6   25.88    1.28
  -1  -1  -6    1.09    0.18
   1  -1   6    1.10    0.19
  -1   1  -6    0.73    0.14
  -1   1  -6    0.75    0.11
   1   1   6    1.15    0.17
  -2  -1  -6    8.03    0.51
   2  -1   6    8.16    0.51
   2   1   6    8.02    0.47
  -2   1  -6    7.50    0.50
  -3  -1  -6    0.54    0.15
   3  -1   6    0.25    0.13
   3   1   6    0.80    0.17
  -3   1  -6    0.28    0.11
  -4  -1  -6    0.67    0.17
   4  -1   6    0.45    0.16
   4   1   6    0.56    0.17
  -4   1  -6    0.51    0.15
   5  -2  -6    0.36    0.12
   5   2  -6    0.30    0.11
   4  -2  -6    4.05    0.37
   4  -2  -6    4.33    0.30
   4   2  -6    4.68    0.30
   3  -2  -6    0.34    0.14
  -3  -2   6    0.35    0.16
   3  -2  -6    0.36    0.10
   3   2  -6    0.24    0.10
   2  -2  -6    5.66    0.33
   2  -2  -6    5.30    0.41
  -2  -2   6    6.20    0.43
   2   2  -6    5.93    0.34
   2   2  -6    5.97    0.37
   1  -2  -6    0.19    0.07
  -1  -2   6    0.25    0.14
   1  -2  -6    0.21    0.12
   1   2  -6    0.16    0.08
   1   2  -6    0.16    0.08
   0  -2  -6    0.42    0.08
   0  -2  -6    0.33    0.12
   0  -2   6    0.35    0.14
   0   2  -6    0.38    0.11
   0   2  -6    0.62    0.12
   0   2   6    0.47    0.12
   1  -2   6    1.31    0.22
  -1  -2  -6    0.89    0.17
   1   2   6    1.04    0.16
  -1   2  -6    1.14    0.15
  -1   2  -6    1.03    0.16
   2  -2   6    2.43    0.30
  -2  -2  -6    2.05    0.26
   2   2   6    2.31    0.25
  -2   2  -6    2.05    0.22
   3  -2   6    1.39    0.24
  -3  -2  -6    1.49    0.22
  -3   2  -6    1.05    0.19
   3   2   6    1.50    0.22
   4  -2   6    2.29    0.30
  -4  -2  -6    2.10    0.28
  -4   2  -6    1.67    0.26
   4   2   6    2.11    0.27
   5  -3  -6    0.47    0.15
   5   3  -6    0.55    0.14
   4  -3  -6    0.21    0.14
   4  -3  -6    0.17    0.11
   4   3  -6    0.17    0.11
  -3  -3   6    3.67    0.36
   3  -3  -6    3.28    0.33
   3  -3  -6    3.03    0.25
   3   3  -6    3.19    0.25
   2  -3  -6    4.18    0.27
  -2  -3   6    3.50    0.36
   2  -3  -6    4.03    0.36
   2   3  -6    3.63    0.28
  -1  -3   6    6.01    0.46
   1  -3  -6    5.80    0.45
   1  -3  -6    6.32    0.36
   1   3  -6    6.43    0.40
   1   3  -6    6.62    0.40
   0  -3   6   11.99    0.72
   0  -3  -6   12.85    0.75
   0   3  -6   12.20    0.69
   0   3  -6   12.02    0.65
   1  -3   6    4.46    0.39
  -1  -3  -6    3.97    0.34
  -1   3  -6    4.02    0.31
   1   3   6    3.93    0.31
  -1   3  -6    3.76    0.30
   2  -3   6    6.75    0.48
  -2  -3  -6    6.09    0.46
   2   3   6    6.70    0.40
  -2   3  -6    5.37    0.42
  -2   3  -6    6.70    0.42
   3  -3   6    1.10    0.24
  -3  -3  -6    1.24    0.22
   3   3   6    1.38    0.21
  -3   3  -6    0.94    0.19
  -4  -3  -6    1.20    0.23
   4  -3   6    1.27    0.27
  -4   3  -6    0.71    0.18
   4   3   6    1.11    0.22
   4  -4  -6    2.11    0.26
   4  -4  -6    1.48    0.29
   4   4  -6    1.77    0.22
  -3  -4   6    3.43    0.39
   3  -4  -6    3.03    0.27
   3  -4  -6    2.83    0.39
   3   4  -6    3.22    0.27
   2  -4  -6    5.39    0.43
   2  -4  -6    5.09    0.34
  -2  -4   6    5.39    0.44
   2   4  -6    5.02    0.36
   1  -4  -6    1.80    0.21
   1  -4  -6    1.72    0.28
  -1  -4   6    2.35    0.31
   1   4  -6    1.94    0.24
   1   4  -6    1.90    0.21
   0  -4  -6    4.85    0.41
   0  -4   6    5.04    0.44
   0   4  -6    5.19    0.38
   0   4  -6    5.27    0.36
   1  -4   6    0.56    0.20
  -1  -4  -6    0.76    0.19
  -1   4  -6    0.48    0.15
  -1   4  -6    0.57    0.14
   1   4   6    0.46    0.12
   2  -4   6    1.38    0.26
  -2  -4  -6    1.57    0.26
   2   4   6    1.18    0.19
  -2   4  -6    1.11    0.20
  -2   4  -6    1.35    0.22
  -3  -4  -6    0.03    0.12
   3  -4   6   -0.02    0.15
   3   4   6    0.02    0.12
  -3   4  -6    0.02    0.11
   4  -5  -6    0.30    0.14
   4  -5  -6    0.20    0.16
   4   5  -6    0.34    0.14
   3  -5  -6    0.30    0.13
  -3  -5   6    0.59    0.22
   3  -5  -6    0.19    0.16
   3   5  -6    0.29    0.14
  -2  -5   6   -0.04    0.14
   2  -5  -6    0.04    0.13
   2  -5  -6   -0.09    0.10
   2   5  -6    0.25    0.13
  -1  -5   6    0.08    0.15
   1  -5  -6    0.19    0.14
   1   5  -6    0.02    0.11
   0  -5  -6    0.13    0.13
   0  -5   6    0.13    0.17
   0   5  -6    0.11    0.12
   0   5  -6    0.07    0.09
  -1  -5  -6    0.04    0.12
   1  -5   6   -0.02    0.15
  -1   5  -6    0.05    0.12
  -1   5  -6    0.11    0.11
  -2  -5  -6    0.31    0.17
   2  -5   6    0.18    0.17
  -2   5  -6    0.26    0.14
  -2   5  -6    0.07    0.13
   3  -5   6   -0.05    0.16
  -3  -5  -6    0.00    0.12
   3   5   6    0.08    0.13
  -3   5  -6    0.16    0.14
   3  -6  -6    0.22    0.18
   2  -6  -6    0.14    0.16
  -2  -6   6    0.62    0.22
   2  -6  -6    0.32    0.14
   2   6  -6    0.50    0.17
   1  -6  -6    0.30    0.17
  -1  -6   6    0.04    0.18
   1   6  -6    0.27    0.15
   0  -6   6    1.05    0.26
   0  -6  -6    1.25    0.27
   0   6  -6    1.46    0.25
  -1  -6  -6    0.89    0.23
   1  -6   6    0.63    0.23
  -1   6  -6    0.77    0.21
  -1   6  -6    0.72    0.17
  -2  -6  -6    0.79    0.23
  -2   6  -6    0.83    0.21
  -2   6  -6    1.30    0.26
   5   0  -7    2.09    0.22
   4   0  -7    0.17    0.10
   3   0  -7    7.52    0.50
   3   0  -7    7.55    0.42
   2   0  -7    0.53    0.15
   2   0  -7    0.18    0.09
   1   0  -7   12.20    0.71
   1   0  -7   12.28    0.60
  -1   0   7   11.66    0.68
   0   0   7    0.23    0.15
   0   0  -7    0.36    0.09
   0   0  -7    0.24    0.12
   1   0   7    3.53    0.37
  -1   0  -7    3.83    0.32
  -2   0  -7   -0.04    0.10
   2   0   7    0.02    0.14
   3   0   7   -0.07    0.14
  -3   0  -7   -0.03    0.11
  -4   0  -7    0.11    0.13
   4   0   7   -0.09    0.15
   5  -1  -7   -0.01    0.10
   5   1  -7    0.16    0.11
   4  -1  -7    0.51    0.12
   4   1  -7    0.43    0.12
   3  -1  -7    0.76    0.19
   3  -1  -7    1.00    0.15
   3   1  -7    0.96    0.15
   2  -1  -7    2.78    0.29
   2  -1  -7    2.75    0.21
  -2  -1   7    2.93    0.32
   2   1  -7    2.95    0.22
   2   1  -7    2.75    0.27
   1  -1  -7    4.87    0.38
  -1  -1   7    4.71    0.40
   1  -1  -7    5.10    0.29
   1   1  -7    4.98    0.30
   1   1  -7    4.83    0.36
   0  -1   7    5.66    0.43
   0  -1  -7    5.19    0.41
   0   1  -7    6.14    0.32
   0   1  -7    5.52    0.39
   0   1   7    5.24    0.41
  -1  -1  -7   10.27    0.66
   1  -1   7   11.91    0.67
   1   1   7   11.68    0.63
  -1   1  -7    9.68    0.63
   2  -1   7    3.84    0.39
  -2  -1  -7    2.96    0.31
   2   1   7    3.35    0.33
  -2   1  -7    3.21    0.30
  -3  -1  -7    6.36    0.46
   3  -1   7    6.24    0.47
  -3   1  -7    5.85    0.45
   3   1   7    6.09    0.44
  -4  -1  -7    0.64    0.19
  -4   1  -7    0.98    0.21
   4  -2  -7    3.18    0.39
   4  -2  -7    2.58    0.24
   4   2  -7    3.05    0.24
  -3  -2   7    4.84    0.40
   3  -2  -7    4.89    0.31
   3  -2  -7    4.11    0.38
   3   2  -7    4.34    0.30
  -2  -2   7    5.23    0.43
   2  -2  -7    4.45    0.39
   2  -2  -7    4.71    0.30
   2   2  -7    4.99    0.31
  -1  -2   7   10.31    0.66
   1  -2  -7   11.54    0.56
   1  -2  -7   11.44    0.70
   1   2  -7   10.84    0.64
   1   2  -7   10.66    0.57
   0  -2  -7    2.72    0.33
   0  -2   7    2.82    0.34
   0   2  -7    2.69    0.23
   0   2  -7    2.76    0.26
  -1  -2  -7    8.14    0.54
   1  -2   7    8.27    0.56
  -1   2  -7    7.28    0.50
   1   2   7    7.92    0.49
  -2  -2  -7    0.11    0.13
   2  -2   7    0.13    0.17
   2   2   7    0.14    0.13
  -2   2  -7    0.13    0.12
  -3  -2  -7    0.83    0.20
   3  -2   7    0.64    0.21
   3   2   7    0.98    0.21
  -3   2  -7    0.85    0.18
   4  -3  -7    0.59    0.15
   4  -3  -7    0.95    0.24
   4   3  -7    0.69    0.15
  -3  -3   7    0.42    0.18
   3  -3  -7    0.18    0.15
   3  -3  -7    0.61    0.14
   3   3  -7    0.40    0.12
   2  -3  -7    3.15    0.33
  -2  -3   7    3.82    0.37
   2  -3  -7    3.61    0.27
   2   3  -7    3.27    0.28
  -1  -3   7    0.61    0.20
   1  -3  -7    0.36    0.16
   1   3  -7    0.71    0.15
   1   3  -7    0.37    0.11
   0  -3   7    4.02    0.41
   0  -3  -7    4.20    0.38
   0   3  -7    4.28    0.33
   0   3  -7    4.80    0.33
   1  -3   7    0.05    0.15
  -1  -3  -7    0.27    0.15
  -1   3  -7    0.26    0.11
  -1   3  -7    0.20    0.12
   2  -3   7    1.71    0.29
  -2  -3  -7    1.87    0.28
   2   3   7    1.75    0.23
  -2   3  -7    1.45    0.22
   3  -3   7    0.26    0.18
  -3  -3  -7    0.18    0.16
  -3   3  -7    0.13    0.12
   3   3   7    0.02    0.14
   4  -4  -7    1.34    0.28
  -3  -4   7    0.30    0.17
   3  -4  -7    0.43    0.14
   3  -4  -7    0.40    0.19
   3   4  -7    0.18    0.12
   2  -4  -7    0.98    0.18
  -2  -4   7    1.18    0.26
   2  -4  -7    1.14    0.26
   2   4  -7    1.03    0.18
  -1  -4   7    0.07    0.16
   1  -4  -7    0.16    0.14
   1   4  -7    0.21    0.11
   0  -4   7    0.32    0.18
   0  -4  -7    0.12    0.14
   0   4  -7    0.20    0.13
   0   4  -7    0.09    0.10
   1  -4   7    0.12    0.17
  -1  -4  -7    0.15    0.14
  -1   4  -7    0.27    0.14
  -1   4  -7    0.02    0.10
  -2  -4  -7    0.10    0.14
   2  -4   7    0.08    0.17
  -2   4  -7    0.04    0.11
   3  -5  -7   -0.08    0.15
   2  -5  -7    1.20    0.27
  -2  -5   7    0.87    0.24
   2   5  -7    1.40    0.23
  -1  -5   7   -0.02    0.17
   1  -5  -7    0.17    0.16
   1   5  -7    0.07    0.13
   0  -5  -7    1.06    0.24
   0  -5   7    0.76    0.24
   0   5  -7    0.70    0.16
   0   5  -7    0.87    0.20
  -1  -5  -7    0.15    0.16
   1  -5   7    0.20    0.18
  -1   5  -7   -0.04    0.12
  -1   5  -7    0.14    0.12
   4   0  -8    0.37    0.12
   3   0  -8    0.01    0.09
   2   0  -8    0.76    0.13
   2   0  -8    0.85    0.19
   1   0  -8    0.28    0.13
   1   0  -8    0.26    0.09
   0   0   8    3.54    0.36
   0   0  -8    2.90    0.29
  -1   0  -8    0.29    0.14
   1   0   8    0.04    0.16
  -2   0  -8    2.64    0.29
   2   0   8    3.97    0.41
   4  -1  -8    0.34    0.12
   4   1  -8    0.20    0.11
   3  -1  -8    0.09    0.13
   3  -1  -8    0.37    0.11
   3   1  -8    0.50    0.12
   2  -1  -8    0.02    0.07
   2  -1  -8    0.06    0.11
   2   1  -8    0.02    0.11
   2   1  -8    0.02    0.08
   1  -1  -8    0.00    0.12
  -1  -1   8    0.09    0.15
   1   1  -8    0.00    0.10
   1   1  -8   -0.02    0.07
   0  -1   8    0.24    0.17
   0  -1  -8    0.18    0.14
   0   1  -8    0.25    0.14
  -1  -1  -8    0.32    0.15
   1  -1   8    0.04    0.18
  -1   1  -8   -0.03    0.11
   1   1   8    0.20    0.16
  -2  -1  -8    0.08    0.14
   2  -1   8   -0.19    0.16
  -2   1  -8   -0.04    0.11
   2   1   8    0.13    0.16
   3  -2  -8    0.64    0.20
   3  -2  -8    0.49    0.13
   3   2  -8    0.44    0.13
   2  -2  -8    0.02    0.08
  -2  -2   8    0.00    0.14
   2  -2  -8    0.08    0.13
   2   2  -8    0.22    0.11
   1  -2  -8    0.70    0.20
  -1  -2   8    0.41    0.19
   1   2  -8    0.57    0.13
   1   2  -8    0.39    0.14
   0  -2   8    0.07    0.17
   0  -2  -8    0.06    0.12
   0   2  -8    0.19    0.12
   1  -2   8   -0.01    0.16
  -1  -2  -8    0.21    0.15
  -1   2  -8    0.25    0.13
   2  -2   8    0.00    0.17
  -2  -2  -8   -0.03    0.12
  -2   2  -8    0.09    0.13
   2   2   8    0.03    0.15
  -3  -3   8    0.61    0.20
   3  -3  -8    0.42    0.13
   3  -3  -8    0.51    0.20
   3   3  -8    0.44    0.14
   2  -3  -8    0.41    0.18
  -2  -3   8    0.00    0.16
   2   3  -8    0.16    0.11
   1  -3  -8    1.12    0.24
  -1  -3   8    1.21    0.28
   1   3  -8    1.09    0.18
   0  -3   8    0.21    0.18
   0  -3  -8    0.42    0.17
   0   3  -8    0.42    0.15
   0   3  -8    0.18    0.11
  -1  -3  -8    0.20    0.16
   1  -3   8    0.71    0.23
  -1   3  -8    0.41    0.15
  -2  -4   8    0.06    0.18
   2  -4  -8    0.19    0.16
   2   4  -8    0.10    0.11
   1  -4  -8    0.11    0.15
  -1  -4   8   -0.05    0.17
   1   4  -8    0.05    0.11
   0  -4   8    0.46    0.22
   0  -4  -8    0.61    0.20
   0   4  -8    0.45    0.15
   0   4  -8    0.68    0.16
   2   0  -9    0.08    0.10
   2   0  -9    0.11    0.15
   1   0  -9    2.36    0.32
   0   0  -9    0.06    0.13
   2  -1  -9    0.29    0.17
   1  -1  -9    2.20    0.32
   1   1  -9    1.55    0.25
   0  -1   9    0.53    0.22
   0  -1  -9    0.15    0.16
   0   1  -9    0.23    0.15
   1  -2  -9   -0.13    0.13
   0   0   0    0.00    0.00
;
_shelx_hkl_checksum              29727
_olex2_submission_special_instructions 'No special instructions were received'
loop_
_space_group_symop_operation_xyz
'x, y, z'
'-x, y+1/2, -z+1/2'
'-x, -y, -z'
'x, -y-1/2, z-1/2'
loop_
_atom_site_label
_atom_site_type_symbol
_atom_site_fract_x
_atom_site_fract_y
_atom_site_fract_z
_atom_site_U_iso_or_equiv
_atom_site_adp_type
_atom_site_occupancy
_atom_site_site_symmetry_order
_atom_site_calc_flag
_atom_site_refinement_flags_posn
N1 N 0.4387(7) 0.0143(5) 0.6871(3) 0.0931(12) Uani 1 1 d .
N2 N -0.0772(6) 0.1713(4) 0.1570(3) 0.0843(11) Uani 1 1 d .
C1 C 0.3649(6) 0.1229(4) 0.5897(4) 0.0627(9) Uani 1 1 d .
C2 C 0.2743(6) 0.2654(4) 0.4669(3) 0.0622(9) Uani 1 1 d .
H2A H 0.4238 0.3129 0.4689 0.075 Uiso 1 1 calc R
H2B H 0.2046 0.3591 0.5015 0.075 Uiso 1 1 calc R
C3 C 0.0725(5) 0.2113(3) 0.2931(3) 0.0518(8) Uani 1 1 d .
loop_
_atom_site_aniso_label
_atom_site_aniso_U_11
_atom_site_aniso_U_22
_atom_site_aniso_U_33
_atom_site_aniso_U_23
_atom_site_aniso_U_13
_atom_site_aniso_U_12
N1 0.127(3) 0.084(2) 0.0730(19) 0.0317(17) 0.059(2) 0.0366(19)
N2 0.0709(18) 0.0734(19) 0.0646(18) -0.0002(14) 0.0113(14) -0.0090(14)
C1 0.080(2) 0.0603(18) 0.0487(16) 0.0046(14) 0.0369(15) 0.0132(15)
C2 0.080(2) 0.0456(15) 0.0460(15) 0.0020(11) 0.0261(14) 0.0022(13)
C3 0.0503(15) 0.0449(14) 0.0513(16) 0.0033(11) 0.0230(13) 0.0004(11)
loop_
_atom_type_symbol
_atom_type_description
_atom_type_scat_dispersion_real
_atom_type_scat_dispersion_imag
_atom_type_scat_source
C C 0.0033 0.0016 'International Tables Vol C Tables 4.2.6.8 and 6.1.1.4'
H H 0.0000 0.0000 'International Tables Vol C Tables 4.2.6.8 and 6.1.1.4'
N N 0.0061 0.0033 'International Tables Vol C Tables 4.2.6.8 and 6.1.1.4'
O O 0.0106 0.0060 'International Tables Vol C Tables 4.2.6.8 and 6.1.1.4'
loop_
_geom_angle_atom_site_label_1
_geom_angle_atom_site_label_2
_geom_angle_atom_site_label_3
_geom_angle
N1 C1 C2 178.7(4)
C1 C2 H2A 109.0
C1 C2 H2B 109.0
C1 C2 C3 112.8(3)
H2A C2 H2B 107.8
C3 C2 H2A 109.0
C3 C2 H2B 109.0
N2 C3 C2 177.4(3)
loop_
_geom_bond_atom_site_label_1
_geom_bond_atom_site_label_2
_geom_bond_distance
N1 C1 1.115(4)
N2 C3 1.111(3)
C1 C2 1.438(4)
C2 H2A 0.9700
C2 H2B 0.9700
C2 C3 1.438(4)
