#------------------------------------------------------------------------------
#$Date: 2019-11-24 07:01:33 +0200 (Sun, 24 Nov 2019) $
#$Revision: 237044 $
#$URL: file:///home/coder/svn-repositories/cod/cif/1/55/42/1554235.cif $
#------------------------------------------------------------------------------
#
# This file is available in the Crystallography Open Database (COD),
# http://www.crystallography.net/
#
# All data on this site have been placed in the public domain by the
# contributors.
#
data_1554235
loop_
_publ_author_name
'Fang, Manman'
'Yang, Jie'
'Xiang, Xueqin'
'Xie, Yujun'
'Dong, Yongqiang'
'Peng, Qian'
'Li, Qianqian'
'Li, Zhen'
_publ_section_title
;
 Unexpected room-temperature phosphorescence from a non-aromatic, low
 molecular weight, pure organic molecule through the intermolecular
 hydrogen bond
;
_journal_issue                   11
_journal_name_full               'Materials Chemistry Frontiers'
_journal_page_first              2124
_journal_paper_doi               10.1039/C8QM00396C
_journal_volume                  2
_journal_year                    2018
_chemical_formula_moiety         'C2.98 H4 O4'
_chemical_formula_sum            'C3 H4 O4'
_chemical_formula_weight         104.06
_space_group_crystal_system      triclinic
_space_group_IT_number           2
_space_group_name_Hall           '-P 1'
_space_group_name_H-M_alt        'P -1'
_atom_sites_solution_hydrogens   mixed
_audit_creation_date             2018-03-24
_audit_creation_method
;
Olex2 1.2
(compiled 2017.08.10 svn.r3458 for OlexSys, GUI svn.r5381)
;
_audit_update_record
;
2018-03-26 deposited with the CCDC.
2018-09-18 downloaded from the CCDC.
;
_cell_angle_alpha                108.358(10)
_cell_angle_beta                 100.693(13)
_cell_angle_gamma                95.006(10)
_cell_formula_units_Z            2
_cell_length_a                   5.146(3)
_cell_length_b                   5.331(3)
_cell_length_c                   8.386(6)
_cell_measurement_reflns_used    52
_cell_measurement_temperature    296(2)
_cell_measurement_theta_max      20
_cell_measurement_theta_min      7.5
_cell_volume                     211.9(2)
_computing_cell_refinement       'Bruker SMART'
_computing_data_collection       'Bruker SMART'
_computing_data_reduction        'Bruker SMART'
_computing_molecular_graphics    'Olex2 (Dolomanov et al., 2009)'
_computing_publication_material  'Olex2 (Dolomanov et al., 2009)'
_computing_structure_refinement  'ShelXL (Sheldrick, 2015)'
_diffrn_ambient_temperature      296(2)
_diffrn_measured_fraction_theta_full 0.990
_diffrn_measured_fraction_theta_max 0.987
_diffrn_measurement_device_type  bruker
_diffrn_radiation_type           MoK\a
_diffrn_radiation_wavelength     0.71073
_diffrn_reflns_av_R_equivalents  0.0119
_diffrn_reflns_av_unetI/netI     0.0178
_diffrn_reflns_Laue_measured_fraction_full 0.990
_diffrn_reflns_Laue_measured_fraction_max 0.987
_diffrn_reflns_limit_h_max       6
_diffrn_reflns_limit_h_min       -6
_diffrn_reflns_limit_k_max       5
_diffrn_reflns_limit_k_min       -7
_diffrn_reflns_limit_l_max       11
_diffrn_reflns_limit_l_min       -9
_diffrn_reflns_number            1561
_diffrn_reflns_point_group_measured_fraction_full 0.990
_diffrn_reflns_point_group_measured_fraction_max 0.987
_diffrn_reflns_theta_full        25.242
_diffrn_reflns_theta_max         28.319
_diffrn_reflns_theta_min         2.627
_exptl_absorpt_coefficient_mu    0.158
_exptl_absorpt_correction_T_max  0.9587
_exptl_absorpt_correction_T_min  0.9542
_exptl_absorpt_correction_type   multi-scan
_exptl_absorpt_process_details   SADABS
_exptl_crystal_colour            colorless
_exptl_crystal_density_diffrn    1.631
_exptl_crystal_description       block
_exptl_crystal_F_000             108
_exptl_crystal_size_max          0.30
_exptl_crystal_size_mid          0.28
_exptl_crystal_size_min          0.27
_refine_diff_density_max         0.325
_refine_diff_density_min         -0.227
_refine_diff_density_rms         0.069
_refine_ls_extinction_method     none
_refine_ls_goodness_of_fit_ref   1.096
_refine_ls_hydrogen_treatment    mixed
_refine_ls_matrix_type           full
_refine_ls_number_parameters     73
_refine_ls_number_reflns         1035
_refine_ls_number_restraints     2
_refine_ls_restrained_S_all      1.131
_refine_ls_R_factor_all          0.0467
_refine_ls_R_factor_gt           0.0433
_refine_ls_shift/su_max          0.000
_refine_ls_shift/su_mean         0.000
_refine_ls_structure_factor_coef Fsqd
_refine_ls_weighting_details
'w=1/[\s^2^(Fo^2^)+(0.0603P)^2^+0.0584P] where P=(Fo^2^+2Fc^2^)/3'
_refine_ls_weighting_scheme      calc
_refine_ls_wR_factor_gt          0.1131
_refine_ls_wR_factor_ref         0.1166
_reflns_Friedel_coverage         0.000
_reflns_number_gt                918
_reflns_number_total             1035
_reflns_threshold_expression     'I > 2\s(I)'
_cod_data_source_file            c8qm00396c3.cif
_cod_data_source_block           MNA
_cod_database_code               1554235
_shelx_shelxl_version_number     2014/7
_shelx_space_group_comment
;
The symmetry employed for this shelxl refinement is uniquely defined
by the following loop, which should always be used as a source of
symmetry information in preference to the above space-group names.
They are only intended as comments.
;
_olex2_refinement_description
;
1. Fixed Uiso
 At 1.2 times of:
  All C(H,H) groups
2. Restrained distances
 C3-O1
 1.3 with sigma of 0.01
 H2-O2
 0.929 with sigma of 0.01
3.a Secondary CH2 refined with riding coordinates:
 C2(H2A,H2B)
;
_shelx_res_file
;
    mna.res created by SHELXL-2014/7

TITL 1
REM DAMP 3000
CELL 0.71073 5.146 5.331 8.386 108.358 100.693 95.006
ZERR 2 0.003 0.003 0.006 0.01 0.013 0.01
LATT 1
SFAC C H O
UNIT 6 8 8
DFIX 1.3 0.01 C3 O1
DFIX 0.929 0.01 H2 O2

L.S. 20
PLAN  2
TEMP -100
GRID
fmap
acta
MERG 2
REM <olex2.extras>
REM <HklSrc "%.\\MNA.hkl">
REM </olex2.extras>

WGHT    0.060300    0.058400
FVAR       0.90771
C1    1    0.802211    0.652897    0.862569     0.98457    0.03014    0.02616 =
         0.03260    0.00707    0.01310    0.00820
C2    1    0.629140    0.393809    0.746530    11.00000    0.03109    0.03095 =
         0.04270    0.00130    0.01397    0.00527
AFIX  23
H2A   2    0.558365    0.299120    0.817560    11.00000   -1.20000
H2B   2    0.475118    0.431971    0.672501    11.00000   -1.20000
AFIX   0
C3    1    0.785548    0.217612    0.634905    11.00000    0.03330    0.02577 =
         0.03531    0.00270    0.01062    0.00434
O1    3    0.914252    0.064780    0.684354    11.00000    0.08600    0.05639 =
         0.05755    0.02777    0.03956    0.04346
O2    3    0.773250    0.244866    0.486982    11.00000    0.06934    0.06847 =
         0.04295    0.02076    0.02459    0.03872
O3    3    1.043923    0.691653    0.872627    11.00000    0.03019    0.03129 =
         0.05093    0.00488    0.01461    0.00674
O4    3    0.670756    0.822205    0.947603    11.00000    0.03639    0.03284 =
         0.05992   -0.00475    0.02196    0.00810
H4    2    0.780970    0.975706    1.021562    11.00000    0.10301
H2    2    0.885731    0.144119    0.429379    11.00000    0.09640
HKLF 4

REM  1
REM R1 =  0.0433 for     918 Fo > 4sig(Fo)  and  0.0467 for all    1035 data
REM     73 parameters refined using      2 restraints

END

WGHT      0.0603      0.0584

REM Highest difference peak  0.325,  deepest hole -0.227,  1-sigma level  0.069
Q1    1   0.7761 -0.0180  0.6036  11.00000  0.05    0.33
Q2    1   0.7135  0.5222  0.7967  11.00000  0.05    0.30
;
_shelx_res_checksum              20561
_shelx_hkl_file
;
  -1   0   0  251.18    3.69
   1   0   0  259.70    4.11
   1   0   0  255.78    3.57
  -2   0   0  112.81    1.61
   2   0   0  111.39    1.79
   2   0   0  115.52    1.56
  -3   0   0   21.09    0.37
   3   0   0   21.67    0.45
   3   0   0   21.57    0.39
  -4   0   0    2.08    0.09
   4   0   0    2.03    0.12
   4   0   0    2.11    0.11
   5   0   0    9.81    0.28
   5   0   0    9.91    0.33
   6   0   0    0.55    0.09
   6   0   0    0.52    0.10
   6   1  -1    0.02    0.05
   5   1  -1    3.12    0.18
   5   1  -1    3.23    0.16
  -5  -1   1    3.18    0.15
   4   1  -1   35.10    0.62
   4   1  -1   35.82    0.72
  -4  -1   1   35.89    0.63
   3   1  -1  260.43    3.50
   3   1  -1  259.11    4.06
  -3  -1   1  257.79    3.69
   2   1  -1  104.37    1.44
   2   1  -1  102.05    1.66
  -2  -1   1  104.65    1.53
   1   1  -1  664.61   10.01
   1   1  -1  616.56    8.63
  -1  -1   1  620.55    9.19
   0  -1   1   33.88    0.52
   1  -1   1  532.02    8.35
   2  -1   1  127.36    2.01
  -3   1  -1   61.74    0.89
   3  -1   1   63.92    1.08
   3  -1   1   63.75    0.96
   4  -1   1   24.27    0.53
   4  -1   1   24.32    0.48
   5  -1   1   20.55    0.52
   5  -1   1   20.97    0.47
   6  -1   1    6.22    0.28
   6  -1   1    6.29    0.25
   5   2  -2    0.26    0.06
   5   2  -2    0.29    0.07
  -5  -2   2    0.25    0.07
   4   2  -2    6.85    0.22
   4   2  -2    6.80    0.25
  -4  -2   2    6.66    0.23
   3   2  -2    1.04    0.08
   3   2  -2    0.99    0.09
  -3  -2   2    1.04    0.10
  -2  -2   2    2.61    0.12
  -1  -2   2  104.68    1.56
   0  -2   2  309.37    4.50
   1  -2   2    1.64    0.08
   1  -2   2    1.73    0.06
   2  -2   2   22.46    0.44
   3  -2   2    0.37    0.05
   4  -2   2    0.41    0.07
   5  -2   2   10.14    0.33
   5  -2   2    9.74    0.31
   6  -2   2    3.70    0.20
   6  -2   2    4.05    0.23
  -5  -3   3    0.05    0.07
  -4  -3   3   17.02    0.43
  -3  -3   3    1.53    0.13
  -2  -3   3   33.68    0.64
  -1  -3   3    5.10    0.18
   0  -3   3   29.86    0.53
   1  -3   3   28.44    0.47
   1  -3   3   28.22    0.56
   2  -3   3   36.39    0.70
   2  -3   3   36.33    0.54
   3  -3   3    0.04    0.04
   4  -3   3    1.17    0.11
   5  -3   3    2.82    0.17
   5  -3   3    2.78    0.18
   6  -3   3    0.29    0.08
  -5  -4   4   -0.02    0.07
  -4  -4   4    2.80    0.19
  -3  -4   4   54.84    1.01
  -2  -4   4    0.16    0.07
  -1  -4   4    5.32    0.21
   0  -4   4   21.57    0.44
   0  -4   4   20.78    0.49
   1  -4   4    8.40    0.22
   1  -4   4    8.62    0.28
   2  -4   4   13.02    0.36
   3  -4   4    0.34    0.07
   4  -4   4   34.80    0.76
   5  -4   4    2.23    0.17
  -4  -5   5    3.53    0.23
  -3  -5   5    0.51    0.10
  -2  -5   5   17.35    0.46
  -1  -5   5    4.86    0.21
   0  -5   5   28.24    0.65
   0  -5   5   27.77    0.57
   1  -5   5   32.22    0.59
   1  -5   5   31.96    0.73
   2  -5   5   11.11    0.36
   3  -5   5    6.10    0.27
   4  -5   5    0.11    0.07
  -2  -6   6    3.43    0.22
  -1  -6   6    0.14    0.07
  -1  -6   6    0.24    0.08
   0  -6   6    0.34    0.08
   0  -6   6    0.27    0.09
   1  -6   6    0.09    0.07
   2  -6   6    2.33    0.19
   3  -6   6   -0.01    0.06
   2  -6   7    0.18    0.09
   1  -6   7    0.72    0.13
   0  -6   7    4.65    0.26
  -1  -6   7    0.13    0.07
  -1  -6   7    0.11    0.07
  -2  -6   7    6.50    0.28
  -2  -6   7    6.79    0.31
   4  -5   6    3.15    0.22
   3  -5   6    0.01    0.06
   2  -5   6    1.13    0.13
   1  -5   6    5.23    0.25
   0  -5   6    0.35    0.08
   0  -5   6    0.49    0.08
  -1  -5   6   31.13    0.71
  -1  -5   6   30.45    0.62
  -2  -5   6    1.45    0.14
  -3  -5   6   13.32    0.40
  -4  -5   6    0.12    0.08
   5  -4   5    0.05    0.06
   4  -4   5    0.07    0.06
   3  -4   5    3.39    0.19
   2  -4   5    9.14    0.30
   1  -4   5    5.04    0.21
   1  -4   5    5.26    0.16
   0  -4   5   25.98    0.57
   0  -4   5   25.71    0.49
  -1  -4   5   24.56    0.51
  -2  -4   5    3.58    0.18
  -3  -4   5    6.88    0.27
  -4  -4   5   10.75    0.35
  -5  -4   5    0.20    0.08
   5  -3   4    0.01    0.05
   4  -3   4    0.08    0.05
   3  -3   4   20.11    0.47
   2  -3   4   20.63    0.46
   2  -3   4   21.04    0.34
   1  -3   4   19.77    0.44
   1  -3   4   19.74    0.35
   0  -3   4   94.27    1.58
   0  -3   4   94.60    1.41
  -1  -3   4   80.79    1.26
  -2  -3   4    4.06    0.17
  -3  -3   4    2.85    0.16
  -4  -3   4    0.14    0.07
  -5  -3   4    1.35    0.14
   6  -2   3    0.21    0.08
   5  -2   3   22.06    0.50
   5  -2   3   21.97    0.56
   4  -2   3    2.32    0.14
   3  -2   3   30.88    0.62
   2  -2   3   36.86    0.53
   2  -2   3   35.73    0.67
   1  -2   3  178.93    2.49
   1  -2   3  175.61    2.78
   0  -2   3   79.40    1.15
   0  -2   3   77.16    1.28
  -1  -2   3    0.16    0.04
  -2  -2   3   91.82    1.40
  -3  -2   3   38.43    0.68
   3   2  -3   37.68    0.67
  -4  -2   3   12.05    0.32
   4   2  -3   11.73    0.32
   4   2  -3   11.56    0.33
  -5  -2   3    1.17    0.12
   5   2  -3    0.89    0.11
   5   2  -3    0.91    0.11
   6   2  -3    0.24    0.08
   6  -1   2    2.99    0.21
   5  -1   2    0.48    0.07
   5  -1   2    0.63    0.11
   4  -1   2    3.56    0.17
   4  -1   2    4.35    0.16
   3  -1   2   83.58    1.41
  -3   1  -2   84.11    1.19
   2  -1   2   50.06    0.86
   1  -1   2   43.07    0.72
   1  -1   2   43.15    0.62
  -1  -1   2   24.80    0.41
   1   1  -2   24.93    0.40
  -2  -1   2   12.23    0.25
   2   1  -2   11.71    0.25
   2   1  -2   11.34    0.25
  -3  -1   2    2.85    0.12
   3   1  -2    3.67    0.13
  -5  -1   2   27.02    0.51
   5   1  -2   26.97    0.61
   5   1  -2   26.36    0.55
   6   1  -2    0.65    0.10
   6   0   1    0.02    0.06
   5   0   1    2.03    0.12
   5   0   1    1.81    0.15
   4   0   1    0.37    0.05
   4   0   1    0.49    0.08
  -4   0  -1    0.45    0.06
   3   0   1   91.58    1.54
   3   0   1   90.75    1.30
  -3   0  -1   91.71    1.35
   2   0   1   69.01    1.13
   2   0   1   65.75    0.95
  -2   0  -1   68.10    1.00
   1   0   1  507.55    7.30
   1   0   1  518.67    8.11
   0   0   1    9.29    0.16
   0   0   1    9.13    0.15
   1   0  -1  414.31    6.34
   1   0  -1  405.60    5.66
  -2   0   1   31.32    0.47
   2   0  -1   30.64    0.53
   2   0  -1   30.50    0.49
  -3   0   1  105.42    1.55
   3   0  -1  109.44    1.54
   3   0  -1  107.61    1.73
  -4   0   1   22.32    0.39
   4   0  -1   22.52    0.48
   4   0  -1   22.41    0.45
   5   0  -1   17.22    0.41
   5   0  -1   17.25    0.44
   6   0  -1   15.27    0.41
   6   1   0    5.41    0.28
   5   1   0    2.52    0.13
   5   1   0    2.67    0.18
   4   1   0    0.04    0.03
   4   1   0    0.06    0.04
  -4  -1   0    0.05    0.05
   3   1   0    7.61    0.18
  -3  -1   0    7.25    0.21
   2   1   0   75.59    1.05
   2   1   0   74.61    1.26
  -2  -1   0   74.36    1.15
   1   1   0  299.88    4.08
   1   1   0  294.42    4.90
  -1  -1   0  301.60    4.32
   0   1   0    8.33    0.17
  -1   1   0   30.60    0.46
   1  -1   0   30.28    0.50
  -2   1   0  207.12    2.93
   2  -1   0  206.08    3.18
  -3   1   0    8.54    0.16
   3  -1   0    8.81    0.22
   3  -1   0    8.83    0.22
   4  -1   0    0.48    0.07
   4  -1   0    0.13    0.04
   5  -1   0   61.24    1.03
   5  -1   0   62.26    1.15
   6  -1   0   10.67    0.34
   6  -1   0   11.23    0.37
   6   2  -1    0.17    0.08
   5   2  -1    0.68    0.11
  -5  -2   1    0.62    0.10
   4   2  -1    4.91    0.18
   4   2  -1    5.12    0.22
  -4  -2   1    4.98    0.21
   3   2  -1    1.64    0.11
   3   2  -1    1.57    0.09
  -3  -2   1    1.57    0.12
   2   2  -1   16.27    0.38
  -2  -2   1   16.74    0.37
  -1  -2   1  496.68    6.95
   0  -2   1   79.20    1.19
   1  -2   1  110.42    1.58
   1  -2   1  110.23    1.76
   2  -2   1  340.11    4.79
   2  -2   1  338.73    5.25
   3  -2   1   38.64    0.70
   4  -2   1    0.63    0.08
   4  -2   1    0.62    0.08
   5  -2   1    0.73    0.10
   5  -2   1    0.68    0.09
   6  -2   1    0.36    0.08
   6  -2   1    0.30    0.08
   5   3  -2    0.30    0.09
  -5  -3   2    0.24    0.08
  -4  -3   2   26.49    0.59
  -3  -3   2   73.13    1.24
  -2  -3   2   14.41    0.37
  -1  -3   2   20.87    0.44
   0  -3   2   74.97    1.17
   1  -3   2  100.73    1.66
   1  -3   2   99.91    1.49
   2  -3   2   11.84    0.22
   2  -3   2   11.81    0.30
   3  -3   2    3.07    0.14
   4  -3   2   31.33    0.65
   5  -3   2    0.23    0.07
   5  -3   2    0.13    0.06
   6  -3   2   -0.06    0.04
   6  -3   2    0.00    0.05
  -5  -4   3    0.09    0.09
  -4  -4   3    4.29    0.23
  -3  -4   3    9.01    0.32
  -2  -4   3    1.57    0.14
  -1  -4   3   59.78    1.03
   0  -4   3    1.77    0.12
   1  -4   3    8.53    0.23
   1  -4   3    8.34    0.27
   2  -4   3    7.24    0.19
   2  -4   3    7.38    0.25
   3  -4   3   23.33    0.53
   4  -4   3    0.52    0.09
   5  -4   3    8.22    0.31
  -4  -5   4    1.38    0.17
  -3  -5   4    4.79    0.25
  -2  -5   4    0.04    0.06
  -1  -5   4   -0.01    0.05
   0  -5   4    0.02    0.05
   1  -5   4    0.39    0.08
   1  -5   4    0.38    0.07
   2  -5   4   15.82    0.45
   3  -5   4    6.40    0.27
   4  -5   4    1.60    0.15
  -3  -6   5   -0.09    0.08
  -2  -6   5    0.16    0.08
  -1  -6   5    2.68    0.18
   0  -6   5    2.02    0.15
   0  -6   5    2.09    0.17
   1  -6   5    0.86    0.13
   2  -6   5    0.03    0.07
   3  -6   5    0.01    0.07
   1  -6   8    0.93    0.15
   0  -6   8    0.93    0.14
  -1  -6   8    4.17    0.21
  -1  -6   8    4.07    0.25
   3  -5   7    0.05    0.06
   2  -5   7    0.50    0.10
   1  -5   7    0.04    0.05
   0  -5   7    7.57    0.30
   0  -5   7    7.59    0.25
  -1  -5   7    6.72    0.28
  -1  -5   7    6.79    0.24
  -2  -5   7    0.00    0.06
  -2  -5   7    0.12    0.06
  -3  -5   7    2.81    0.19
  -4  -5   7    0.73    0.12
   4  -4   6    0.14    0.07
   3  -4   6    2.08    0.16
   2  -4   6   14.78    0.41
   1  -4   6   12.26    0.27
   1  -4   6   12.52    0.36
   0  -4   6    1.25    0.11
   0  -4   6    1.25    0.09
  -1  -4   6    3.79    0.17
  -1  -4   6    3.73    0.18
  -2  -4   6   -0.01    0.05
  -3  -4   6    0.44    0.09
  -4  -4   6    1.98    0.16
  -5  -4   6    0.48    0.10
   5  -3   5   10.19    0.37
   4  -3   5    0.11    0.06
   3  -3   5    1.68    0.13
   2  -3   5   10.45    0.30
   1  -3   5    0.71    0.06
   1  -3   5    0.67    0.08
   0  -3   5   60.90    1.07
   0  -3   5   59.81    0.94
  -1  -3   5    2.97    0.13
  -1  -3   5    3.04    0.14
  -2  -3   5   21.94    0.46
  -3  -3   5    0.18    0.06
  -4  -3   5    0.09    0.06
  -5  -3   5    0.04    0.06
   5  -2   4    0.38    0.09
   5  -2   4    0.35    0.07
   4  -2   4    5.84    0.24
   3  -2   4    3.91    0.17
   2  -2   4   22.06    0.37
   2  -2   4   21.95    0.46
   1  -2   4   54.25    0.94
   1  -2   4   55.69    0.82
   0  -2   4   11.81    0.27
   0  -2   4   11.93    0.24
  -1  -2   4  142.45    2.26
  -1  -2   4  144.11    2.07
  -2  -2   4   43.74    0.73
  -3  -2   4   80.01    1.26
   3   2  -4   79.83    1.24
  -4  -2   4   11.92    0.31
   4   2  -4   11.99    0.34
  -5  -2   4   22.16    0.48
   5   2  -4   22.14    0.53
  -6  -2   4    0.11    0.06
   6   2  -4    0.23    0.08
   6  -1   3    0.12    0.08
   5  -1   3    3.66    0.22
   4  -1   3    0.80    0.07
   4  -1   3    0.92    0.11
   3  -1   3   20.23    0.46
   2  -1   3   10.75    0.27
   2  -1   3   10.87    0.21
   1  -1   3  103.60    1.64
   1  -1   3  102.20    1.48
  -1  -1   3  117.77    1.72
  -1  -1   3  122.64    1.86
  -2  -1   3    6.51    0.16
   2   1  -3    6.48    0.18
  -3  -1   3   52.83    0.84
   3   1  -3   53.36    0.90
   3   1  -3   53.27    0.85
  -4  -1   3   19.51    0.39
   4   1  -3   19.34    0.42
   4   1  -3   19.29    0.42
  -5  -1   3    3.94    0.16
   5   1  -3    4.09    0.19
   6   1  -3    7.72    0.29
   6   0   2    2.63    0.21
   5   0   2    4.02    0.22
   4   0   2   23.67    0.57
   4   0   2   24.62    0.45
   3   0   2   24.44    0.42
   3   0   2   23.69    0.52
  -3   0  -2   23.72    0.44
   2   0   2    0.15    0.04
   2   0   2    0.25    0.04
   1   0   2    6.44    0.17
   1   0   2    6.45    0.15
   0   0   2    6.44    0.13
   0   0   2    6.29    0.14
  -1   0   2    4.42    0.10
   1   0  -2    4.36    0.11
  -2   0   2  680.30    9.42
   2   0  -2  636.06   10.18
  -3   0   2   56.89    0.86
   3   0  -2   56.68    0.88
   3   0  -2   56.44    0.94
  -4   0   2    0.05    0.03
   4   0  -2    0.06    0.03
   4   0  -2    0.08    0.03
   5   0  -2   33.94    0.66
   5   0  -2   34.66    0.70
   6   0  -2    0.93    0.12
   6   1   1    0.03    0.06
   5   1   1    0.69    0.12
   4   1   1    4.99    0.23
   4   1   1    4.87    0.16
  -4  -1  -1    5.12    0.20
   3   1   1   29.70    0.48
   3   1   1   30.89    0.64
  -3  -1  -1   30.22    0.56
   2   1   1   71.08    0.96
   2   1   1   69.39    1.19
  -2  -1  -1   68.11    1.09
   1   1   1  978.52   15.59
   1   1   1 1000.00   14.35
   0   1   1   46.48    0.77
  -1   1   1   97.21    1.41
   1  -1  -1   98.51    1.35
  -2   1   1    7.15    0.15
   2  -1  -1    7.41    0.16
  -3   1   1   40.09    0.61
   3  -1  -1   38.90    0.66
   3  -1  -1   39.90    0.68
  -4   1   1    6.60    0.15
   4  -1  -1    6.54    0.21
   4  -1  -1    6.17    0.20
   5  -1  -1    0.09    0.05
   5  -1  -1    0.12    0.05
   6  -1  -1    0.13    0.06
   6   2   0    0.41    0.10
   5   2   0    0.18    0.07
  -5  -2   0    0.03    0.07
   4   2   0   60.16    1.18
  -4  -2   0   62.02    1.07
   3   2   0   24.61    0.57
   3   2   0   26.54    0.44
   2   2   0  282.61    4.46
  -2  -2   0  285.76    4.08
   1   2   0   18.64    0.40
  -1  -2   0   19.45    0.39
   0   2   0  384.09    5.66
   0  -2   0  391.27    5.64
  -1   2   0    2.64    0.09
  -2   2   0   17.98    0.32
   2  -2   0   17.91    0.35
  -3   2   0    8.29    0.17
   3  -2   0    8.12    0.21
   4  -2   0    0.52    0.08
   4  -2   0    0.46    0.06
   5  -2   0   21.86    0.51
   5  -2   0   21.58    0.50
   6  -2   0   -0.01    0.05
   5   3  -1    0.82    0.14
   4   3  -1    0.63    0.11
  -4  -3   1    0.49    0.10
   3   3  -1   93.06    1.66
  -3  -3   1   92.89    1.54
  -1  -3   1   87.55    1.39
   0  -3   1   31.15    0.58
   1  -3   1    9.25    0.23
   2  -3   1    7.64    0.22
   2  -3   1    7.37    0.18
   3  -3   1    1.42    0.09
   4  -3   1  119.68    1.98
   5  -3   1   23.58    0.54
   5  -3   1   22.84    0.54
   6  -3   1    0.95    0.13
   6  -3   1    0.79    0.12
  -5  -4   2   -0.06    0.08
  -4  -4   2    3.11    0.21
  -3  -4   2    2.86    0.19
  -2  -4   2    3.49    0.20
  -1  -4   2   14.98    0.39
   1  -4   2   78.29    1.24
   2  -4   2   69.76    1.24
   2  -4   2   69.29    1.08
   3  -4   2    0.39    0.07
   4  -4   2    1.09    0.11
   5  -4   2   10.09    0.33
   5  -4   2    9.95    0.35
  -4  -5   3    6.78    0.33
  -3  -5   3    0.84    0.14
  -2  -5   3    3.55    0.22
  -1  -5   3    3.08    0.19
   0  -5   3    0.56    0.09
   1  -5   3    0.36    0.07
   1  -5   3    0.20    0.06
   2  -5   3    1.12    0.12
   3  -5   3    6.56    0.27
   4  -5   3    8.65    0.32
   5  -5   3    0.75    0.12
  -3  -6   4    3.24    0.24
  -2  -6   4    1.41    0.18
  -1  -6   4    1.67    0.16
   0  -6   4   11.52    0.37
   1  -6   4    2.32    0.18
   2  -6   4    6.52    0.30
   3  -6   4   -0.07    0.05
   0  -7   5    0.17    0.08
   1  -7   5    7.82    0.36
   2  -5   8   -0.01    0.05
   1  -5   8    2.21    0.17
   0  -5   8    0.38    0.09
   0  -5   8    0.03    0.05
  -1  -5   8    0.09    0.06
  -1  -5   8    0.06    0.06
  -2  -5   8    0.08    0.06
  -2  -5   8    0.06    0.06
  -3  -5   8    2.87    0.20
   4  -4   7    1.89    0.17
   3  -4   7    0.48    0.10
   2  -4   7    3.47    0.19
   1  -4   7    4.13    0.20
   0  -4   7   64.21    1.04
   0  -4   7   63.97    1.18
  -1  -4   7    7.55    0.27
  -1  -4   7    7.40    0.24
  -2  -4   7    6.83    0.25
  -2  -4   7    6.63    0.24
  -3  -4   7    6.05    0.24
  -4  -4   7    0.14    0.07
   4  -3   6    2.75    0.18
   3  -3   6   16.60    0.44
   2  -3   6    4.02    0.19
   1  -3   6  117.95    1.95
   1  -3   6  116.78    1.73
   0  -3   6   44.24    0.83
   0  -3   6   44.41    0.74
  -1  -3   6   17.53    0.37
  -1  -3   6   16.76    0.39
  -2  -3   6    7.34    0.23
  -2  -3   6    7.55    0.23
  -3  -3   6   15.73    0.38
  -4  -3   6   15.25    0.40
  -5  -3   6    5.92    0.25
   5  -2   5    1.96    0.18
   4  -2   5    7.50    0.29
   3  -2   5   19.87    0.49
   2  -2   5    9.40    0.27
   2  -2   5    9.41    0.21
   1  -2   5    1.61    0.08
   1  -2   5    1.80    0.10
   0  -2   5  280.01    4.00
   0  -2   5  288.20    4.40
  -1  -2   5    9.99    0.23
  -1  -2   5   10.37    0.24
  -2  -2   5   36.02    0.63
  -3  -2   5    1.18    0.10
  -4  -2   5   11.45    0.30
   4   2  -5   11.06    0.34
  -5  -2   5    7.88    0.26
   5   2  -5    7.48    0.29
  -6  -2   5    5.33    0.23
   6   2  -5    5.62    0.28
   5  -1   4    0.14    0.07
   4  -1   4    3.38    0.19
   3  -1   4    9.73    0.30
   2  -1   4   -0.01    0.02
   2  -1   4    0.01    0.02
   1  -1   4  117.84    1.72
   1  -1   4  118.22    1.89
   0  -1   4    2.35    0.09
   0  -1   4    2.03    0.08
  -1  -1   4   83.01    1.23
  -1  -1   4   82.86    1.30
  -2  -1   4    0.17    0.04
   2   1  -4    0.34    0.05
  -3  -1   4    4.63    0.15
  -4  -1   4    2.40    0.12
   4   1  -4    2.27    0.14
  -5  -1   4   19.41    0.42
   5   1  -4   19.51    0.48
   6   1  -4    1.40    0.14
   5   0   3    0.22    0.08
   4   0   3    0.02    0.04
   3   0   3   42.53    0.84
   3   0   3   42.33    0.66
  -3   0  -3   42.96    0.73
   2   0   3    5.36    0.19
   2   0   3    5.60    0.16
   1   0   3   34.58    0.58
   1   0   3   34.84    0.63
   0   0   3    3.13    0.09
   0   0   3    3.06    0.10
  -1   0   3    1.76    0.07
  -1   0   3    1.73    0.05
   1   0  -3    1.78    0.07
  -2   0   3    1.18    0.06
   2   0  -3    1.35    0.07
  -3   0   3   36.03    0.59
   3   0  -3   37.19    0.62
   3   0  -3   35.67    0.60
  -4   0   3   50.50    0.80
   4   0  -3   48.74    0.84
   4   0  -3   49.67    0.85
  -5   0   3   26.83    0.49
   5   0  -3   26.71    0.57
   6   0  -3    1.19    0.13
   5   1   2    0.05    0.06
   4   1   2   52.11    1.05
   3   1   2    9.68    0.31
   3   1   2    9.79    0.20
  -3  -1  -2    9.83    0.27
   2   1   2   71.62    0.98
   2   1   2   71.96    1.14
   2   1   2   73.36    1.26
   1   1   2  216.41    3.38
   1   1   2  215.18    3.10
   0   1   2  386.73    6.30
   0   1   2  390.14    5.49
   0  -1  -2  397.53    5.28
  -1   1   2  583.72    8.44
   1  -1  -2  563.97    7.89
  -2   1   2  361.87    5.36
   2  -1  -2  396.29    5.86
   2  -1  -2  374.58    5.02
  -3   1   2   60.99    0.91
   3  -1  -2   57.71    0.93
   3  -1  -2   59.54    0.96
  -4   1   2   21.19    0.39
   4  -1  -2   21.07    0.45
   4  -1  -2   21.66    0.43
   5  -1  -2   17.75    0.44
   6  -1  -2   -0.02    0.04
   5   2   1    0.40    0.10
   4   2   1    2.04    0.16
  -4  -2  -1    1.85    0.15
  -3  -2  -1  142.26    2.18
   2   2   1   21.63    0.49
  -2  -2  -1   22.06    0.47
   1   2   1   43.58    0.80
   1   2   1   43.53    0.76
   0   2   1   11.65    0.28
  -1   2   1  387.85    5.65
  -2   2   1   29.79    0.52
   2  -2  -1   30.27    0.53
  -3   2   1    2.86    0.10
   3  -2  -1    2.93    0.11
   3  -2  -1    3.05    0.14
   4  -2  -1  270.62    3.77
   4  -2  -1  271.96    4.21
   5  -2  -1   21.46    0.48
   5  -2  -1   21.92    0.51
   6  -2  -1    3.95    0.22
   5   3   0    0.13    0.07
  -5  -3   0   -0.04    0.08
  -4  -3   0    4.35    0.23
   3   3   0    6.62    0.28
   2   3   0    0.86    0.10
  -2  -3   0    0.82    0.10
  -1  -3   0   17.67    0.42
   0  -3   0   17.29    0.39
  -1   3   0  158.10    2.33
  -2   3   0  105.63    1.59
   2  -3   0  107.36    1.74
   3  -3   0  114.13    1.86
   4  -3   0   14.50    0.35
   4  -3   0   14.55    0.38
   5  -3   0   30.61    0.64
   5  -3   0   30.71    0.66
   6  -3   0    0.22    0.08
  -5  -4   1    3.50    0.25
  -4  -4   1    4.37    0.26
  -3  -4   1    0.03    0.07
  -1  -4   1    4.51    0.20
   0  -4   1    9.04    0.28
   1  -4   1    1.47    0.11
   2  -4   1   32.28    0.59
   2  -4   1   32.15    0.66
   3  -4   1   11.40    0.32
   4  -4   1    4.50    0.19
   5  -4   1    0.03    0.05
   5  -4   1    0.05    0.05
  -4  -5   2   11.60    0.44
  -3  -5   2    2.99    0.22
  -2  -5   2    1.44    0.17
  -1  -5   2    3.70    0.21
   0  -5   2    0.98    0.12
   1  -5   2   -0.02    0.04
   2  -5   2    8.16    0.29
   3  -5   2    0.63    0.10
   4  -5   2    5.57    0.24
   5  -5   2    7.41    0.30
  -3  -6   3    0.92    0.16
  -2  -6   3    0.07    0.09
  -1  -6   3    0.14    0.08
   0  -6   3    1.59    0.16
   1  -6   3   46.57    1.00
   1  -6   3   48.25    0.91
   2  -6   3    7.14    0.31
   3  -6   3    0.37    0.09
   4  -6   3    0.53    0.11
   0  -7   4    2.83    0.22
   0  -7   4    2.52    0.20
   1  -7   4    0.30    0.10
   1  -5   9    0.63    0.11
   0  -5   9    1.54    0.15
  -1  -5   9    0.31    0.08
  -1  -5   9    0.13    0.07
  -2  -5   9    1.44    0.15
   3  -4   8    0.75    0.12
   2  -4   8    0.01    0.05
   1  -4   8   12.77    0.39
   0  -4   8    0.59    0.09
   0  -4   8    0.71    0.09
  -1  -4   8    3.18    0.17
  -1  -4   8    3.73    0.18
  -2  -4   8    0.45    0.09
  -3  -4   8   -0.01    0.06
  -4  -4   8    5.46    0.25
   4  -3   7    0.11    0.07
   3  -3   7    2.22    0.16
   2  -3   7    6.45    0.25
   1  -3   7    5.64    0.22
   1  -3   7    6.08    0.19
   0  -3   7    7.85    0.23
   0  -3   7    7.73    0.24
  -1  -3   7    1.65    0.11
  -1  -3   7    1.74    0.11
  -2  -3   7    6.66    0.22
  -2  -3   7    6.50    0.21
  -3  -3   7    1.06    0.11
  -4  -3   7    0.81    0.12
  -5  -3   7   13.72    0.40
   5  -2   6    0.41    0.11
   4  -2   6    0.15    0.07
   3  -2   6    0.88    0.11
   2  -2   6   24.98    0.56
   2  -2   6   25.11    0.48
   1  -2   6   14.28    0.31
   1  -2   6   14.39    0.35
   0  -2   6   12.21    0.28
   0  -2   6   12.44    0.30
  -1  -2   6    8.90    0.23
  -1  -2   6    9.45    0.24
  -2  -2   6    4.68    0.17
  -2  -2   6    4.52    0.14
  -3  -2   6   12.26    0.31
  -4  -2   6   10.14    0.29
   4   2  -6   10.06    0.33
  -5  -2   6   17.12    0.42
   5   2  -6   17.25    0.49
  -6  -2   6    1.24    0.13
   6   2  -6    1.37    0.17
   5  -1   5    0.82    0.14
   4  -1   5    8.71    0.33
   3  -1   5    4.60    0.21
   2  -1   5   10.08    0.29
   2  -1   5    9.78    0.25
   1  -1   5    0.10    0.04
   1  -1   5    0.16    0.04
   0  -1   5    1.14    0.07
   0  -1   5    1.24    0.07
  -1  -1   5  109.24    1.60
  -1  -1   5  106.74    1.69
  -2  -1   5  141.00    2.19
  -2  -1   5  140.75    2.09
   2   1  -5  145.42    2.04
  -3  -1   5   29.41    0.54
   3   1  -5   30.19    0.58
  -4  -1   5    3.37    0.15
   4   1  -5    3.28    0.17
  -5  -1   5    7.38    0.24
   5   1  -5    6.97    0.27
   6   1  -5    0.33    0.09
   5   0   4    1.35    0.16
   4   0   4   19.81    0.54
   3   0   4    2.26    0.15
   3   0   4    2.35    0.12
   2   0   4    6.54    0.20
   2   0   4    6.35    0.22
   1   0   4  297.82    4.22
   1   0   4  296.29    4.67
   0   0   4   10.53    0.25
   0   0   4   10.29    0.23
  -1   0   4    0.48    0.05
  -1   0   4    0.38    0.03
   1   0  -4    0.39    0.04
  -2   0   4   26.84    0.48
   2   0  -4   26.52    0.47
  -3   0   4   28.28    0.51
   3   0  -4   29.18    0.53
  -4   0   4    1.75    0.10
   4   0  -4    1.81    0.12
  -5   0   4    7.01    0.21
   5   0  -4    7.08    0.26
   6   0  -4    0.01    0.05
   5   1   3    0.32    0.09
   4   1   3    8.75    0.34
   3   1   3   39.13    0.82
  -3  -1  -3   38.69    0.73
   2   1   3   30.66    0.64
   2   1   3   31.25    0.59
   1   1   3    0.08    0.03
   1   1   3    0.04    0.03
   0   1   3   12.72    0.28
   0   1   3   12.39    0.29
   0  -1  -3   12.57    0.20
  -1   1   3  224.34    3.22
   1  -1  -3  224.92    3.00
  -2   1   3  129.97    1.91
   2  -1  -3  129.75    1.82
  -3   1   3   29.50    0.53
   3  -1  -3   29.80    0.49
   3  -1  -3   29.46    0.54
  -4   1   3   59.19    0.95
   4  -1  -3   59.38    0.99
   5  -1  -3   -0.02    0.04
   6  -1  -3    0.33    0.08
   5   2   2    0.18    0.08
   4   2   2    0.15    0.07
  -4  -2  -2    0.24    0.08
   3   2   2    2.02    0.15
  -3  -2  -2    2.03    0.14
   2   2   2    0.14    0.05
  -2  -2  -2    0.02    0.04
   1   2   2    6.20    0.21
   1   2   2    6.20    0.21
   0   2   2  114.25    1.86
   0   2   2  113.75    1.75
   0  -2  -2  116.40    1.55
  -1   2   2   21.78    0.44
   1  -2  -2   22.08    0.38
  -2   2   2  171.72    2.51
   2  -2  -2  174.44    2.38
   2  -2  -2  169.84    2.67
  -3   2   2   18.11    0.36
   3  -2  -2   16.61    0.33
   3  -2  -2   15.92    0.37
  -4   2   2   21.84    0.44
   4  -2  -2   22.13    0.43
   5  -2  -2   40.00    0.78
   6  -2  -2    0.61    0.11
   5   3   1    5.49    0.31
  -5  -3  -1    5.50    0.29
   4   3   1    1.35    0.15
  -4  -3  -1    0.77    0.11
   3   3   1    2.16    0.16
  -3  -3  -1    2.18    0.16
   2   3   1   14.61    0.42
  -2  -3  -1   13.95    0.39
  -1  -3  -1   84.83    1.40
   0   3   1   65.52    1.10
  -1   3   1   14.90    0.35
  -2   3   1   81.76    1.28
   2  -3  -1   79.89    1.34
  -3   3   1   33.85    0.60
   3  -3  -1   33.22    0.62
   3  -3  -1   32.90    0.63
   4  -3  -1    0.02    0.03
   4  -3  -1   -0.02    0.03
   5  -3  -1    0.00    0.05
   6  -3  -1    4.93    0.25
  -4  -4   0   30.88    0.75
  -2  -4   0    1.37    0.14
  -1  -4   0    5.34    0.24
   0  -4   0    0.37    0.07
   1  -4   0    0.73    0.09
   2  -4   0    8.69    0.26
   2  -4   0    8.24    0.25
   3  -4   0   72.91    1.28
   4  -4   0   14.33    0.40
   4  -4   0   14.14    0.36
   5  -4   0    0.62    0.10
  -4  -5   1    0.88    0.16
  -3  -5   1    4.29    0.27
  -1  -5   1    0.97    0.13
   0  -5   1   27.48    0.63
   1  -5   1   51.32    0.95
   2  -5   1   10.84    0.34
   2  -5   1   10.79    0.31
   3  -5   1    2.47    0.16
   4  -5   1    5.08    0.23
   5  -5   1    0.03    0.06
  -2  -6   2    1.91    0.22
  -1  -6   2    0.16    0.09
   0  -6   2    8.67    0.34
   1  -6   2    3.37    0.21
   2  -6   2    7.76    0.31
   3  -6   2    2.70    0.19
   4  -6   2    0.19    0.08
   0  -7   3   -0.12    0.07
   1  -7   3    0.48    0.11
  -1  -5  10    1.55    0.15
   2  -4   9    0.03    0.06
   1  -4   9    3.93    0.21
   0  -4   9    4.15    0.21
   0  -4   9    4.30    0.20
  -1  -4   9    0.07    0.06
  -2  -4   9    3.86    0.20
  -3  -4   9    0.53    0.10
  -4  -4   9    0.04    0.07
   3  -3   8    0.01    0.05
   2  -3   8    2.07    0.15
   1  -3   8    7.01    0.26
   1  -3   8    7.66    0.24
   0  -3   8    8.44    0.26
   0  -3   8    8.39    0.27
  -1  -3   8    2.45    0.13
  -1  -3   8    2.76    0.15
  -2  -3   8    8.59    0.28
  -3  -3   8    0.80    0.11
  -4  -3   8    1.77    0.16
  -5  -3   8    0.55    0.11
   4  -2   7    6.83    0.31
   3  -2   7    0.13    0.06
   2  -2   7   25.94    0.59
   1  -2   7    8.58    0.25
   1  -2   7    8.76    0.27
   0  -2   7    6.95    0.22
   0  -2   7    7.14    0.22
  -1  -2   7    4.77    0.16
  -1  -2   7    4.74    0.18
  -2  -2   7    5.77    0.20
  -3  -2   7    9.50    0.28
  -4  -2   7    0.05    0.06
  -5  -2   7    0.26    0.08
   5   2  -7    0.19    0.08
   4  -1   6    2.61    0.20
   3  -1   6   30.19    0.69
   2  -1   6    3.27    0.15
   2  -1   6    3.03    0.16
   1  -1   6   61.73    1.02
   1  -1   6   61.90    1.09
   0  -1   6    7.91    0.22
   0  -1   6    6.98    0.20
  -1  -1   6    4.25    0.16
  -1  -1   6    4.29    0.13
  -2  -1   6    5.23    0.18
  -3  -1   6    0.24    0.05
   3   1  -6    0.29    0.06
  -4  -1   6   53.81    0.92
   4   1  -6   51.60    0.95
  -5  -1   6   14.11    0.37
   5   1  -6   14.31    0.42
  -6  -1   6    0.34    0.08
   6   1  -6    0.32    0.09
   5   0   5    0.56    0.13
   4   0   5   17.04    0.51
   3   0   5   20.02    0.44
   3   0   5   20.46    0.53
   2   0   5   26.81    0.59
   2   0   5   26.69    0.54
   1   0   5    9.10    0.26
   1   0   5    9.26    0.26
   0   0   5  124.97    1.90
   0   0   5  127.09    2.01
  -1   0   5   82.28    1.32
  -1   0   5   84.65    1.30
   1   0  -5   82.84    1.21
  -2   0   5  124.22    1.86
   2   0  -5  123.51    1.77
  -3   0   5   30.70    0.57
   3   0  -5   30.10    0.57
  -4   0   5   48.74    0.84
   4   0  -5   48.87    0.86
  -5   0   5    5.74    0.21
   5   0  -5    5.73    0.24
   6   0  -5    0.16    0.07
   5   1   4    0.26    0.10
   4   1   4   -0.08    0.05
   3   1   4   21.99    0.57
  -3  -1  -4   22.27    0.51
   2   1   4    4.03    0.17
   2   1   4    4.11    0.19
   1   1   4   27.02    0.56
   1   1   4   26.92    0.54
   0   1   4    4.70    0.16
   0   1   4    4.54    0.17
  -1   1   4  122.17    1.92
  -1   1   4  121.87    1.84
   1  -1  -4  121.81    1.68
  -2   1   4   30.92    0.58
   2  -1  -4   30.79    0.53
  -3   1   4    0.91    0.08
   3  -1  -4    1.21    0.09
  -4   1   4  131.44    1.99
   4  -1  -4  132.49    1.95
  -5   1   4   15.52    0.39
   5  -1  -4   15.13    0.41
   6  -1  -4    2.24    0.17
   5   2   3    3.70    0.26
   4   2   3    0.42    0.10
  -4  -2  -3    0.43    0.09
   3   2   3    0.28    0.08
  -3  -2  -3    0.24    0.07
   2   2   3    9.87    0.30
   2   2   3   10.04    0.32
   1   2   3   49.80    0.89
   1   2   3   48.87    0.93
   0   2   3  109.41    1.70
   0   2   3  109.15    1.79
   0  -2  -3  107.58    1.46
  -1   2   3   29.88    0.59
   1  -2  -3   31.25    0.49
  -2   2   3    2.24    0.12
  -3   2   3   45.40    0.81
   3  -2  -3   47.91    0.77
  -4   2   3    0.17    0.05
   4  -2  -3    0.18    0.05
   5  -2  -3   13.26    0.39
   6  -2  -3    4.66    0.24
   4   3   2   24.38    0.68
  -4  -3  -2   24.34    0.62
   3   3   2    0.17    0.07
  -3  -3  -2    0.12    0.07
   2   3   2    0.29    0.07
  -2  -3  -2    0.17    0.07
   1   3   2    2.94    0.16
   1   3   2    2.90    0.16
   0   3   2   24.71    0.54
  -1   3   2   55.07    0.96
  -2   3   2   14.84    0.36
   2  -3  -2   13.84    0.32
  -3   3   2   39.70    0.73
   3  -3  -2   39.39    0.72
   3  -3  -2   40.59    0.72
   4  -3  -2   11.35    0.34
   5  -3  -2    4.16    0.22
   6  -3  -2    2.86    0.20
   4   4   1    0.50    0.12
  -4  -4  -1    0.48    0.13
  -3  -4  -1    6.37    0.30
  -2  -4  -1   -0.02    0.05
  -1  -4  -1    8.17    0.31
   0  -4  -1   50.56    0.96
  -1   4   1   40.53    0.78
  -2   4   1   91.00    1.47
   3  -4  -1    1.26    0.10
   4  -4  -1   44.52    0.85
   4  -4  -1   44.66    0.84
   5  -4  -1   18.18    0.50
  -2  -5   0    5.98    0.30
  -1  -5   0    0.10    0.07
   0  -5   0    3.84    0.21
   1  -5   0  104.60    1.73
   2  -5   0   49.81    0.92
   2  -5   0   49.55    0.97
   3  -5   0    5.07    0.22
   4  -5   0    0.04    0.05
   5  -5   0    0.40    0.09
  -2  -6   1    2.29    0.23
   0  -6   1    1.53    0.18
   1  -6   1    4.34    0.24
   2  -6   1    1.34    0.14
   3  -6   1    2.15    0.17
   4  -6   1    7.86    0.32
   1  -7   2    2.77    0.21
   1  -4  10    0.43    0.10
  -1  -4  10    0.06    0.06
  -2  -4  10   -0.06    0.05
  -3  -4  10    0.38    0.10
   2  -3   9    0.09    0.06
   1  -3   9    0.02    0.05
   0  -3   9    2.49    0.15
   0  -3   9    2.47    0.15
  -1  -3   9   10.71    0.33
  -2  -3   9    0.26    0.08
  -3  -3   9    3.47    0.20
  -4  -3   9    1.87    0.17
   3  -2   8    8.28    0.34
   2  -2   8    0.50    0.10
   1  -2   8    6.65    0.24
   1  -2   8    6.72    0.25
   0  -2   8   18.99    0.44
   0  -2   8   19.22    0.45
  -1  -2   8   20.53    0.47
  -2  -2   8    0.55    0.09
  -3  -2   8    0.21    0.07
  -4  -2   8   21.66    0.52
  -5  -2   8    4.65    0.23
   4  -1   7    8.39    0.36
   3  -1   7    8.97    0.34
   2  -1   7    0.38    0.08
   2  -1   7    0.32    0.07
   1  -1   7    1.44    0.11
   1  -1   7    1.13    0.10
   0  -1   7    0.64    0.08
   0  -1   7    0.59    0.06
  -1  -1   7   24.55    0.51
  -1  -1   7   23.81    0.46
  -2  -1   7   31.43    0.62
  -3  -1   7   66.44    1.13
   3   1  -7   67.22    1.13
  -4  -1   7   28.67    0.60
   4   1  -7   28.87    0.64
  -5  -1   7    5.83    0.24
   5   1  -7    5.74    0.27
  -6  -1   7    0.32    0.09
   6   1  -7    0.42    0.12
   4   0   6    0.25    0.09
   3   0   6    2.86    0.19
   2   0   6    0.85    0.11
   2   0   6    0.64    0.09
   1   0   6    0.44    0.07
   1   0   6    0.60    0.08
   0   0   6   21.86    0.48
   0   0   6   21.99    0.46
  -1   0   6   91.01    1.44
  -1   0   6   89.06    1.45
  -2   0   6   20.29    0.45
   2   0  -6   21.36    0.43
  -3   0   6   41.35    0.77
   3   0  -6   43.29    0.76
  -4   0   6   40.16    0.75
   4   0  -6   40.03    0.77
  -5   0   6    4.17    0.19
   5   0  -6    3.94    0.21
   6   0  -6    0.09    0.07
   4   1   5    1.26    0.17
   3   1   5    0.18    0.07
   3   1   5    0.28    0.07
   2   1   5    2.94    0.16
   2   1   5    2.70    0.16
   1   1   5    0.02    0.03
   1   1   5    0.05    0.04
   0   1   5    5.77    0.21
   0   1   5    4.99    0.18
  -1   1   5   13.38    0.34
  -1   1   5   13.46    0.29
   1  -1  -5   13.72    0.27
  -2   1   5   39.31    0.72
   2  -1  -5   38.14    0.65
  -3   1   5    8.63    0.27
   3  -1  -5    8.68    0.25
  -4   1   5    4.18    0.18
   4  -1  -5    4.15    0.19
  -5   1   5   26.30    0.57
   5  -1  -5   26.93    0.60
   6  -1  -5   -0.01    0.05
   4   2   4    8.21    0.37
   3   2   4    0.86    0.13
  -3  -2  -4    0.81    0.12
   2   2   4    5.84    0.25
   2   2   4    5.72    0.24
   1   2   4    7.31    0.26
   1   2   4    7.43    0.26
   0   2   4    2.11    0.14
   0   2   4    2.11    0.12
   0  -2  -4    2.06    0.06
  -1   2   4   94.99    1.53
   1  -2  -4   95.15    1.34
  -2   2   4   64.92    1.11
   2  -2  -4   65.86    1.00
  -3   2   4    0.02    0.03
   3  -2  -4    0.03    0.03
  -4   2   4   10.20    0.30
   4  -2  -4   10.12    0.31
   5  -2  -4    0.58    0.09
   6  -2  -4    0.33    0.09
   4   3   3    7.46    0.36
  -4  -3  -3    7.89    0.34
   3   3   3    4.04    0.24
  -3  -3  -3    4.05    0.24
   2   3   3    0.38    0.08
  -2  -3  -3    0.25    0.08
   1   3   3   21.35    0.52
   1   3   3   19.72    0.52
   0   3   3   73.61    1.27
  -1   3   3   61.79    1.10
   1  -3  -3   64.32    0.94
  -2   3   3    5.01    0.21
   2  -3  -3    5.07    0.17
  -3   3   3   22.17    0.50
   3  -3  -3   22.35    0.48
   4  -3  -3   30.43    0.63
   5  -3  -3   17.98    0.48
   6  -3  -3    8.35    0.34
   3   4   2    0.55    0.13
  -3  -4  -2    0.52    0.12
  -2  -4  -2   16.10    0.49
  -1  -4  -2   -0.01    0.05
   0   4   2    1.05    0.12
  -1   4   2  127.61    2.03
  -2   4   2   11.54    0.34
   2  -4  -2   11.50    0.30
  -3   4   2    7.20    0.26
   3  -4  -2    7.33    0.23
   3  -4  -2    7.06    0.25
   4  -4  -2    1.38    0.13
   5  -4  -2   14.11    0.43
  -3  -5  -1    0.87    0.17
  -2  -5  -1    1.48    0.18
  -1  -5  -1    5.66    0.28
   0  -5  -1    5.66    0.27
   1  -5  -1    5.92    0.27
   2  -5  -1    1.18    0.12
   3  -5  -1    0.08    0.05
   4  -5  -1    3.15    0.19
   5  -5  -1    0.20    0.08
  -2  -6   0    0.15    0.10
  -1  -6   0    1.28    0.17
   0  -6   0    1.26    0.16
   1  -6   0    0.27    0.09
   2  -6   0    0.05    0.05
   3  -6   0    1.18    0.14
   1  -3  10    1.32    0.14
   0  -3  10    0.35    0.09
  -1  -3  10    0.28    0.08
  -2  -3  10    1.13    0.14
  -3  -3  10    0.14    0.08
   2  -2   9    0.43    0.10
   1  -2   9    1.22    0.12
   1  -2   9    1.01    0.11
   0  -2   9    1.44    0.13
  -1  -2   9    0.76    0.11
  -2  -2   9    3.64    0.20
  -3  -2   9    3.79    0.21
  -4  -2   9    0.50    0.10
   3  -1   8    0.77    0.13
   2  -1   8    0.06    0.05
   1  -1   8    6.80    0.25
   1  -1   8    6.62    0.25
   0  -1   8    7.20    0.26
   0  -1   8    7.19    0.24
  -1  -1   8    2.98    0.17
  -2  -1   8    8.60    0.29
  -3  -1   8    3.44    0.19
  -4  -1   8   11.25    0.36
   4   1  -8   11.44    0.38
  -5  -1   8    0.85    0.12
   5   1  -8    0.60    0.11
   3   0   7    0.93    0.14
   2   0   7    2.11    0.15
   2   0   7    2.21    0.16
   1   0   7    8.36    0.29
   1   0   7    8.44    0.28
   0   0   7    0.48    0.08
   0   0   7    0.48    0.07
  -1   0   7    3.26    0.17
  -2   0   7   46.86    0.87
   2   0  -7   46.31    0.80
  -3   0   7   15.81    0.42
   3   0  -7   15.84    0.40
  -4   0   7   14.43    0.40
   4   0  -7   14.48    0.41
  -5   0   7    1.50    0.14
   5   0  -7    1.50    0.15
  -6   0   7    1.96    0.17
   6   0  -7    1.73    0.18
   4   1   6    3.34    0.25
   3   1   6    0.53    0.10
   3   1   6    0.64    0.11
   2   1   6    0.99    0.13
   2   1   6    1.06    0.11
   1   1   6   12.60    0.36
   1   1   6   12.68    0.37
   0   1   6   40.02    0.77
   0   1   6   39.79    0.78
  -1   1   6   14.74    0.34
  -1   1   6   14.21    0.38
   1  -1  -6   14.42    0.30
  -2   1   6   14.81    0.39
   2  -1  -6   14.61    0.33
  -3   1   6   13.13    0.37
   3  -1  -6   13.48    0.34
  -4   1   6    0.14    0.06
   4  -1  -6    0.14    0.05
  -5   1   6    0.59    0.10
   5  -1  -6    0.43    0.09
   6  -1  -6    2.27    0.18
   4   2   5    8.13    0.38
   3   2   5    1.72    0.16
  -3  -2  -5    1.65    0.16
   2   2   5    0.01    0.04
   2   2   5   -0.04    0.04
   1   2   5    1.55    0.13
   1   2   5    1.75    0.13
   0   2   5   53.72    1.00
   0   2   5   53.88    1.00
  -1   2   5    3.98    0.19
   1  -2  -5    3.93    0.12
  -2   2   5    8.56    0.29
   2  -2  -5    8.31    0.22
  -3   2   5   32.36    0.68
   3  -2  -5   33.26    0.62
  -4   2   5    2.62    0.16
   4  -2  -5    2.60    0.15
   5  -2  -5   -0.04    0.04
   6  -2  -5    0.41    0.10
   3   3   4    0.17    0.08
  -3  -3  -4    0.08    0.08
   2   3   4    2.87    0.19
   2   3   4    2.73    0.19
  -2  -3  -4    2.57    0.19
   1   3   4    5.93    0.26
   1   3   4    5.36    0.25
   0   3   4    2.21    0.16
  -1   3   4   52.77    0.99
  -2   3   4   20.81    0.51
   2  -3  -4   21.19    0.42
  -3   3   4    0.81    0.11
   3  -3  -4    0.64    0.08
  -4   3   4   21.08    0.52
   4  -3  -4   21.30    0.50
   5  -3  -4    0.13    0.07
   6  -3  -4   11.99    0.42
   3   4   3    0.82    0.15
  -3  -4  -3    0.74    0.14
  -2  -4  -3    2.65    0.21
  -1  -4  -3    5.74    0.28
   0   4   3    0.01    0.05
  -1   4   3   23.04    0.57
  -2   4   3   12.00    0.37
   2  -4  -3   12.27    0.31
  -3   4   3    2.88    0.17
   3  -4  -3    3.04    0.16
   4  -4  -3   11.97    0.37
   5  -4  -3    0.38    0.09
  -2  -5  -2    1.96    0.20
  -1  -5  -2    3.69    0.24
   0  -5  -2    2.57    0.20
   1  -5  -2    0.66    0.11
  -2   5   2    0.08    0.06
   2  -5  -2    0.05    0.04
   3  -5  -2   25.03    0.56
   4  -5  -2   23.96    0.59
  -1  -6  -1    1.03    0.17
   0  -6  -1   29.92    0.76
   1  -6  -1   11.41    0.42
   2  -6  -1    0.06    0.07
   3  -6  -1    0.78    0.11
  -1  -3  11    3.53    0.22
  -2  -3  11    0.07    0.07
   0  -2  10    1.05    0.14
  -1  -2  10    0.29    0.08
  -2  -2  10    0.59    0.11
  -3  -2  10    7.27    0.31
  -4  -2  10    7.00    0.32
   2  -1   9    0.17    0.07
   1  -1   9    7.97    0.30
   1  -1   9    8.15    0.30
   0  -1   9    2.32    0.17
  -1  -1   9    0.28    0.08
  -2  -1   9    0.12    0.07
  -3  -1   9    0.07    0.06
  -4  -1   9    7.58    0.31
  -5  -1   9    0.17    0.08
   5   1  -9    0.02    0.07
   3   0   8    0.13    0.07
   2   0   8    1.32    0.14
   2   0   8    1.38    0.14
   1   0   8    0.35    0.08
   1   0   8    0.33    0.09
   0   0   8   15.92    0.44
  -1   0   8    7.63    0.29
  -2   0   8   11.86    0.37
  -3   0   8    8.95    0.32
   3   0  -8    8.65    0.29
  -4   0   8    4.02    0.22
   4   0  -8    4.00    0.21
  -5   0   8   17.31    0.50
   5   0  -8   17.20    0.51
   3   1   7    1.74    0.18
   2   1   7    4.07    0.23
   2   1   7    4.03    0.22
   1   1   7    3.24    0.20
   1   1   7    3.70    0.19
   0   1   7   12.81    0.39
   0   1   7   12.53    0.34
  -1   1   7   63.89    1.16
  -2   1   7   47.82    0.93
   2  -1  -7   48.10    0.81
  -3   1   7   11.76    0.37
   3  -1  -7   12.07    0.33
  -4   1   7   14.64    0.43
   4  -1  -7   14.53    0.40
  -5   1   7    3.96    0.22
   5  -1  -7    4.37    0.23
   3   2   6   -0.02    0.05
  -3  -2  -6    0.09    0.07
   2   2   6    0.18    0.07
   2   2   6    0.18    0.07
   1   2   6   14.41    0.44
   1   2   6   14.67    0.42
   0   2   6   30.77    0.70
   0   2   6   30.53    0.66
  -1   2   6   83.82    1.45
  -2   2   6    5.30    0.24
   2  -2  -6    5.40    0.18
  -3   2   6    3.84    0.20
   3  -2  -6    3.43    0.16
  -4   2   6   17.14    0.47
   4  -2  -6   16.50    0.43
  -5   2   6    5.70    0.26
   5  -2  -6    6.05    0.27
   3   3   5    0.94    0.15
  -3  -3  -5    1.04    0.16
   2   3   5    7.17    0.31
   2   3   5    7.00    0.32
   1   3   5    3.11    0.20
   1   3   5    2.99    0.20
   0   3   5    0.46    0.09
  -1   3   5   40.53    0.85
  -2   3   5    6.48    0.28
   2  -3  -5    5.99    0.19
  -3   3   5   15.42    0.45
   3  -3  -5   14.90    0.37
  -4   3   5    0.15    0.07
   4  -3  -5    0.17    0.06
   5  -3  -5   12.09    0.39
  -2  -4  -4    0.53    0.13
   1   4   4    3.38    0.22
   0   4   4    3.63    0.22
  -1   4   4    0.34    0.09
  -2   4   4    1.20    0.15
  -3   4   4    4.61    0.24
   3  -4  -4    4.67    0.20
   4  -4  -4    3.44    0.19
   5  -4  -4    0.01    0.05
  -2  -5  -3    6.71    0.35
  -1  -5  -3    0.16    0.08
   0  -5  -3   24.32    0.66
  -1   5   3    2.75    0.20
  -2   5   3    0.07    0.07
  -3   5   3    2.06    0.17
   3  -5  -3    2.06    0.15
   4  -5  -3    0.63    0.11
   0  -6  -2    0.11    0.09
   1  -6  -2    8.35    0.37
   2  -6  -2    3.69    0.24
  -1  -2  11    0.02    0.06
  -2  -2  11    0.63    0.13
   1  -1  10    0.06    0.06
   0  -1  10    3.99    0.23
  -1  -1  10    2.96    0.20
  -2  -1  10    1.01    0.14
  -3  -1  10    0.17    0.09
  -4  -1  10    1.75    0.20
   2   0   9    2.60    0.20
   1   0   9    0.33    0.09
   0   0   9    0.84    0.13
  -1   0   9    9.93    0.36
  -2   0   9    1.45    0.17
  -3   0   9    4.68    0.25
  -4   0   9    9.24    0.36
   4   0  -9    8.95    0.34
   2   1   8   -0.01    0.05
   2   1   8    0.06    0.06
   1   1   8    3.55    0.20
   1   1   8    3.29    0.22
   0   1   8   14.07    0.44
  -1   1   8   19.93    0.54
  -2   1   8    0.33    0.09
  -3   1   8    0.39    0.10
   3  -1  -8    0.35    0.07
  -4   1   8    2.11    0.18
   4  -1  -8    2.11    0.16
  -5   1   8    0.79    0.13
   5  -1  -8    0.59    0.11
   2   2   7    3.08    0.21
   2   2   7    2.87    0.21
   1   2   7    0.71    0.11
   1   2   7    0.40    0.10
   0   2   7    2.56    0.19
  -1   2   7    3.02    0.20
  -2   2   7    0.02    0.05
  -3   2   7    1.11    0.14
   3  -2  -7    1.18    0.10
  -4   2   7    4.15    0.23
   4  -2  -7    4.29    0.21
  -5   2   7    7.88    0.33
   5  -2  -7    7.93    0.32
   2   3   6    0.05    0.07
   2   3   6    0.15    0.07
   1   3   6    0.00    0.06
   1   3   6    0.03    0.05
   0   3   6    3.51    0.22
  -1   3   6    4.12    0.24
  -2   3   6    0.95    0.13
  -3   3   6    1.05    0.15
   3  -3  -6    0.87    0.11
  -4   3   6    2.21    0.18
   4  -3  -6    2.43    0.16
   5  -3  -6    0.16    0.07
   1   4   5    2.66    0.21
   0   4   5   16.31    0.52
  -1   4   5    0.04    0.06
  -2   4   5    2.90    0.20
  -3   4   5    6.20    0.29
   4  -4  -5    5.35    0.24
  -1  -5  -4    5.63    0.33
   0   5   4    9.45    0.40
   0  -5  -4    9.74    0.40
  -1   5   4    6.50    0.32
  -2   5   4    0.73    0.13
  -3   5   4    6.69    0.32
   0   0  10    2.16    0.19
  -1   0  10    2.08    0.19
  -2   0  10    3.10    0.23
  -3   0  10    1.46    0.18
   1   1   9    0.21    0.09
   0   1   9    1.49    0.18
  -1   1   9    4.36    0.26
  -2   1   9    0.37    0.10
  -3   1   9    7.32    0.33
  -4   1   9   11.58    0.43
   4  -1  -9   11.89    0.39
   1   2   8   -0.01    0.06
   0   2   8    5.34    0.29
  -1   2   8   10.47    0.40
  -2   2   8    0.25    0.09
  -3   2   8   18.51    0.56
  -4   2   8    0.28    0.10
   4  -2  -8    0.28    0.08
   1   3   7    8.19    0.37
   0   3   7   13.92    0.48
  -1   3   7    0.90    0.15
  -2   3   7    0.87    0.15
  -3   3   7    0.46    0.11
  -4   3   7    8.20    0.36
   0   4   6    9.86    0.41
  -1   4   6    3.22    0.23
  -2   4   6    0.44    0.11
  -3   4   6    0.00    0.06
  -1   5   5    2.03    0.20
  -2   5   5    0.66    0.14
  -2   1  10    0.04    0.07
  -1   2   9    0.33    0.10
  -2   2   9    4.81    0.29
  -1   3   8    2.85    0.23
  -2   3   8   11.49    0.46
   0   0   0    0.00    0.00
;
_shelx_hkl_checksum              97123
_olex2_submission_special_instructions 'No special instructions were received'
loop_
_space_group_symop_operation_xyz
'x, y, z'
'-x, -y, -z'
loop_
_atom_site_label
_atom_site_type_symbol
_atom_site_fract_x
_atom_site_fract_y
_atom_site_fract_z
_atom_site_U_iso_or_equiv
_atom_site_adp_type
_atom_site_occupancy
_atom_site_site_symmetry_order
_atom_site_calc_flag
_atom_site_refinement_flags_posn
C1 C 0.8022(3) 0.6529(2) 0.86257(16) 0.0293(4) Uani 0.985(7) 1 d .
C2 C 0.6291(3) 0.3938(3) 0.74653(19) 0.0368(3) Uani 1 1 d .
H2A H 0.5584 0.2991 0.8176 0.044 Uiso 1 1 calc R
H2B H 0.4751 0.4320 0.6725 0.044 Uiso 1 1 calc R
C3 C 0.7855(3) 0.2176(3) 0.63491(17) 0.0329(3) Uani 1 1 d D
O1 O 0.9143(3) 0.0648(3) 0.68435(17) 0.0593(4) Uani 1 1 d D
O2 O 0.7733(3) 0.2449(3) 0.48698(15) 0.0564(4) Uani 1 1 d D
O3 O 1.04392(19) 0.69165(19) 0.87263(14) 0.0388(3) Uani 1 1 d .
O4 O 0.6708(2) 0.8222(2) 0.94760(16) 0.0463(3) Uani 1 1 d .
H4 H 0.781(7) 0.976(7) 1.022(4) 0.103(10) Uiso 1 1 d .
H2 H 0.886(5) 0.144(5) 0.429(3) 0.096(9) Uiso 1 1 d D
loop_
_atom_site_aniso_label
_atom_site_aniso_U_11
_atom_site_aniso_U_22
_atom_site_aniso_U_33
_atom_site_aniso_U_23
_atom_site_aniso_U_13
_atom_site_aniso_U_12
C1 0.0301(7) 0.0262(7) 0.0326(7) 0.0071(5) 0.0131(5) 0.0082(5)
C2 0.0311(7) 0.0310(7) 0.0427(7) 0.0013(5) 0.0140(5) 0.0053(5)
C3 0.0333(6) 0.0258(6) 0.0353(6) 0.0027(5) 0.0106(5) 0.0043(5)
O1 0.0860(10) 0.0564(8) 0.0575(7) 0.0278(6) 0.0396(7) 0.0435(7)
O2 0.0693(8) 0.0685(9) 0.0429(6) 0.0208(6) 0.0246(6) 0.0387(7)
O3 0.0302(5) 0.0313(5) 0.0509(6) 0.0049(4) 0.0146(4) 0.0067(4)
O4 0.0364(6) 0.0328(6) 0.0599(7) -0.0048(5) 0.0220(5) 0.0081(4)
loop_
_atom_type_symbol
_atom_type_description
_atom_type_scat_dispersion_real
_atom_type_scat_dispersion_imag
_atom_type_scat_source
C C 0.0033 0.0016 'International Tables Vol C Tables 4.2.6.8 and 6.1.1.4'
H H 0.0000 0.0000 'International Tables Vol C Tables 4.2.6.8 and 6.1.1.4'
O O 0.0106 0.0060 'International Tables Vol C Tables 4.2.6.8 and 6.1.1.4'
loop_
_geom_angle_atom_site_label_1
_geom_angle_atom_site_label_2
_geom_angle_atom_site_label_3
_geom_angle
O3 C1 C2 121.75(12)
O3 C1 O4 124.95(13)
O4 C1 C2 113.29(12)
C3 C2 C1 110.99(12)
O1 C3 C2 121.54(14)
O1 C3 O2 123.73(13)
O2 C3 C2 114.73(13)
loop_
_geom_bond_atom_site_label_1
_geom_bond_atom_site_label_2
_geom_bond_distance
C1 C2 1.505(2)
C1 O3 1.2256(18)
C1 O4 1.2888(16)
C2 C3 1.5047(19)
C3 O1 1.2163(18)
C3 O2 1.284(2)
