#------------------------------------------------------------------------------
#$Date: 2019-11-24 03:54:38 +0200 (Sun, 24 Nov 2019) $
#$Revision: 236589 $
#$URL: file:///home/coder/svn-repositories/cod/cif/1/55/41/1554111.cif $
#------------------------------------------------------------------------------
#
# This file is available in the Crystallography Open Database (COD),
# http://www.crystallography.net/
#
# All data on this site have been placed in the public domain by the
# contributors.
#
data_1554111
loop_
_publ_author_name
'Ding, Sheng'
'Lin, He'
'Yu, Yuming'
'Liu, Lang'
'Deng, Caiming'
'Zhao, Jianzhang'
'Jia, Dianzeng'
_publ_section_title
;
 Molecular Orbital Delocalization/Localization-Induced Crystal-to-Crystal
 Photochromism of Schiff Bases without ortho-Hydroxyl Groups
;
_journal_issue                   43
_journal_name_full               'The Journal of Physical Chemistry C'
_journal_page_first              24933
_journal_paper_doi               10.1021/acs.jpcc.8b07408
_journal_volume                  122
_journal_year                    2018
_chemical_formula_moiety         'C6 H7 N3 O S'
_chemical_formula_sum            'C6 H7 N3 O S'
_chemical_formula_weight         169.21
_chemical_name_common            '2-O form (I)'
_space_group_crystal_system      monoclinic
_space_group_IT_number           14
_space_group_name_Hall           '-P 2ybc'
_space_group_name_H-M_alt        'P 1 21/c 1'
_atom_sites_solution_hydrogens   mixed
_atom_sites_solution_primary     direct
_audit_creation_date             2018-01-17
_audit_creation_method
;
Olex2 1.2
(compiled 2017.01.04 svn.r3372 for OlexSys, GUI svn.r5292)
;
_cell_angle_alpha                90
_cell_angle_beta                 100.697(12)
_cell_angle_gamma                90
_cell_formula_units_Z            4
_cell_length_a                   11.7088(13)
_cell_length_b                   5.4866(6)
_cell_length_c                   12.4940(15)
_cell_measurement_reflns_used    1356
_cell_measurement_temperature    293.15
_cell_measurement_theta_max      28.3790
_cell_measurement_theta_min      4.3000
_cell_volume                     788.69(16)
_computing_molecular_graphics    'Olex2 (Dolomanov et al., 2009)'
_computing_publication_material  'Olex2 (Dolomanov et al., 2009)'
_computing_structure_refinement  'ShelXL (Sheldrick, 2015)'
_computing_structure_solution    'ShelXS (Sheldrick, 2008)'
_diffrn_ambient_temperature      293.15
_diffrn_measured_fraction_theta_full 0.997
_diffrn_measured_fraction_theta_max 0.832
_diffrn_measurement_device_type  'multiwire proportional'
_diffrn_measurement_method       'phi and omega scans'
_diffrn_radiation_monochromator  graphite
_diffrn_radiation_type           MoK\a
_diffrn_radiation_wavelength     0.71073
_diffrn_reflns_av_R_equivalents  0.0222
_diffrn_reflns_av_unetI/netI     0.0475
_diffrn_reflns_Laue_measured_fraction_full 0.997
_diffrn_reflns_Laue_measured_fraction_max 0.832
_diffrn_reflns_limit_h_max       15
_diffrn_reflns_limit_h_min       -9
_diffrn_reflns_limit_k_max       7
_diffrn_reflns_limit_k_min       -6
_diffrn_reflns_limit_l_max       14
_diffrn_reflns_limit_l_min       -16
_diffrn_reflns_number            3314
_diffrn_reflns_point_group_measured_fraction_full 0.997
_diffrn_reflns_point_group_measured_fraction_max 0.832
_diffrn_reflns_theta_full        25.242
_diffrn_reflns_theta_max         29.274
_diffrn_reflns_theta_min         3.460
_exptl_absorpt_coefficient_mu    0.353
_exptl_absorpt_correction_T_max  1.00000
_exptl_absorpt_correction_T_min  0.78277
_exptl_absorpt_correction_type   multi-scan
_exptl_crystal_colour            'clear light'
_exptl_crystal_colour_lustre     clear
_exptl_crystal_colour_modifier   light
_exptl_crystal_density_diffrn    1.425
_exptl_crystal_description       block
_exptl_crystal_F_000             352
_exptl_crystal_size_max          0.908
_exptl_crystal_size_mid          0.78
_exptl_crystal_size_min          0.0326
_refine_diff_density_max         0.421
_refine_diff_density_min         -0.297
_refine_diff_density_rms         0.056
_refine_ls_extinction_method     none
_refine_ls_goodness_of_fit_ref   1.047
_refine_ls_hydrogen_treatment    mixed
_refine_ls_matrix_type           full
_refine_ls_number_parameters     124
_refine_ls_number_reflns         1791
_refine_ls_number_restraints     1
_refine_ls_restrained_S_all      1.046
_refine_ls_R_factor_all          0.0741
_refine_ls_R_factor_gt           0.0484
_refine_ls_shift/su_max          0.000
_refine_ls_shift/su_mean         0.000
_refine_ls_structure_factor_coef Fsqd
_refine_ls_weighting_details
'w=1/[\s^2^(Fo^2^)+(0.0784P)^2^+0.0433P] where P=(Fo^2^+2Fc^2^)/3'
_refine_ls_weighting_scheme      calc
_refine_ls_wR_factor_gt          0.1311
_refine_ls_wR_factor_ref         0.1466
_reflns_Friedel_coverage         0.000
_reflns_number_gt                1281
_reflns_number_total             1791
_reflns_threshold_expression     'I > 2\s(I)'
_iucr_refine_instructions_details
;

    1.res created by SHELXL-2014/7

TITL 1 in P21/c #14
REM reset to P21/c #14
CELL 0.71073 11.7088 5.4866 12.494 90 100.697 90
ZERR 4 0.0013 0.0006 0.0015 0 0.012 0
LATT 1
SYMM -X,0.5+Y,0.5-Z
SFAC C H N O S
UNIT 24 28 12 4 4
EQIV $1 1-X,-0.5+Y,2.5-Z
EQIV $2 1-X,2-Y,2-Z
EQIV $3 +X,1.5-Y,-0.5+Z
EQIV $4 -X,-0.5+Y,1.5-Z
DELU 0.0002 0.0001 C4 C5
 
L.S. 4 0 0
PLAN  20
TEMP 20
HTAB N1 O1_$1
HTAB N2 O1_$2
HTAB C2 N1_$3
HTAB C6 S1_$4
BOND
BOND $H
HTAB
CONF
fmap 2 53
acta
REM <olex2.extras>
REM <HklSrc "%.\\1.hkl">
REM </olex2.extras>
 
WGHT    0.078400    0.043300
FVAR       0.28076
S1    5    0.166668    0.160485    0.817760    11.00000    0.05173    0.03964 =
         0.06210   -0.00046    0.00846   -0.00509
O1    4    0.501587    0.884802    1.136574    11.00000    0.05320    0.03973 =
         0.02640   -0.00523   -0.00112   -0.00977
N1    3    0.406553    0.523830    1.140735    11.00000    0.05191    0.04064 =
         0.02577    0.00244    0.00189   -0.00657
H1    2    0.444035    0.481073    1.205058    11.00000    0.03233
H2    2    0.363715    0.419675    1.101247    11.00000    0.04041
N2    3    0.390251    0.748502    0.982795    11.00000    0.05030    0.03344 =
         0.02385   -0.00043    0.00083   -0.01020
H3    2    0.416469    0.878641    0.945134    11.00000    0.04326
N3    3    0.320698    0.565904    0.929750    11.00000    0.03568    0.03179 =
         0.03200   -0.00271    0.00269   -0.00264
C1    1    0.437008    0.723403    1.091104    11.00000    0.03518    0.03514 =
         0.02335   -0.00135    0.00610    0.00476
C2    1    0.293300    0.588730    0.826598    11.00000    0.03455    0.03381 =
         0.02954    0.00002    0.00295    0.00052
H4    2    0.320762    0.736396    0.787378    11.00000    0.05392
C3    1    0.218256    0.414110    0.761563    11.00000    0.03645    0.03296 =
         0.03373   -0.00408    0.00476   -0.00060
C4    1    0.175550    0.428585    0.647988    11.00000    0.04813    0.04983 =
         0.03638   -0.00917    0.00340   -0.00853
AFIX  43
H5    2    0.193080    0.551824    0.602548    11.00000   -1.20000
AFIX   0
C5    1    0.101782    0.226116    0.613911    11.00000    0.06044    0.07485 =
         0.05387   -0.02678   -0.00215   -0.02354
H6    2    0.059797    0.175477    0.543309    11.00000    0.08801
C6    1    0.089341    0.073765    0.694003    11.00000    0.05116    0.04914 =
         0.08451   -0.02275    0.00965   -0.01614
H7    2    0.046602   -0.049360    0.689987    11.00000    0.08018
HKLF 4
 
REM  1 in P21/c #14
REM R1 =  0.0484 for    1281 Fo > 4sig(Fo)  and  0.0741 for all    1791 data
REM    124 parameters refined using      1 restraints
 
END  
     
WGHT      0.0784      0.0433 

REM Instructions for potential hydrogen bonds
HTAB N1 O1_$1
HTAB N2 O1_$2
HTAB C2 N1_$3
HTAB C6 S1_$4

REM Highest difference peak  0.421,  deepest hole -0.297,  1-sigma level  0.056
Q1    1   0.1930  0.4411  0.6231  11.00000  0.05    0.42
Q2    1   0.2075  0.3484  0.6585  11.00000  0.05    0.39
Q3    1   0.1925  0.4340  0.6958  11.00000  0.05    0.33
Q4    1   0.1377  0.3148  0.6254  11.00000  0.05    0.32
Q5    1   0.2005  0.3307  0.7807  11.00000  0.05    0.25
Q6    1   0.3063  0.6447  0.8010  11.00000  0.05    0.23
Q7    1   0.4042  0.7428  1.0351  11.00000  0.05    0.22
Q8    1   0.2462  0.5002  0.7981  11.00000  0.05    0.21
Q9    1   0.3619  0.6632  0.9565  11.00000  0.05    0.20
Q10   1   0.4278  0.7966  0.9592  11.00000  0.05    0.19
Q11   1   0.2451  0.1075  0.7917  11.00000  0.05    0.17
Q12   1   0.3376  0.5623  0.8424  11.00000  0.05    0.17
Q13   1   0.4518  0.6116  1.1153  11.00000  0.05    0.17
Q14   1   0.3350  0.5454  0.9095  11.00000  0.05    0.16
Q15   1   0.0533  0.1820  0.6393  11.00000  0.05    0.16
Q16   1   0.1051  0.1994  0.5224  11.00000  0.05    0.16
Q17   1   0.2819  0.6193  0.8941  11.00000  0.05    0.15
Q18   1   0.0674  0.2875  0.5220  11.00000  0.05    0.15
Q19   1   0.0789  0.1500  0.7697  11.00000  0.05    0.15
Q20   1   0.4582  1.0347  1.1213  11.00000  0.05    0.14

  REM The information below was added by Olex2.
  REM
  REM R1 = 0.0484 for 1281 Fo > 4sig(Fo) and 0.0741 for all 3563 data
  REM n/a parameters refined using n/a restraints
  REM Highest difference peak 0.42, deepest hole -0.30
  REM Mean Shift 0, Max Shift 0.000.

  REM +++ Tabular Listing of Refinement Information +++
  REM R1_all = 0.0741
  REM R1_gt = 0.0484
  REM wR_ref = 0.1466
  REM GOOF = 1.047
  REM Shift_max = 0.000
  REM Shift_mean = 0
  REM Reflections_all = 3563
  REM Reflections_gt = 1281
  REM Parameters = n/a
  REM Hole = -0.30
  REM Peak = 0.42
  REM Flack = n/a

  
;
_cod_data_source_file            jp8b07408_si_003.cif
_cod_data_source_block           1
_cod_database_code               1554111
_shelx_shelxl_version_number     2014/7
_shelx_space_group_comment
;
The symmetry employed for this shelxl refinement is uniquely defined
by the following loop, which should always be used as a source of
symmetry information in preference to the above space-group names.
They are only intended as comments.
;
_olex2_refinement_description
;
1. Fixed Uiso
 At 1.2 times of:
  All C(H) groups
2. Rigid bond restraints
 C4, C5
 with sigma for 1-2 distances of 0.0002 and sigma for 1-3 distances of 0.0001
3.a Aromatic/amide H refined with riding coordinates:
 C4(H5)
;
_olex2_submission_special_instructions 'No special instructions were received'
loop_
_space_group_symop_operation_xyz
'x, y, z'
'-x, y+1/2, -z+1/2'
'-x, -y, -z'
'x, -y-1/2, z-1/2'
loop_
_atom_site_label
_atom_site_type_symbol
_atom_site_fract_x
_atom_site_fract_y
_atom_site_fract_z
_atom_site_U_iso_or_equiv
_atom_site_adp_type
_atom_site_occupancy
_atom_site_site_symmetry_order
_atom_site_calc_flag
_atom_site_refinement_flags_posn
_atom_site_refinement_flags_adp
S1 S 0.16667(6) 0.16048(12) 0.81776(6) 0.0514(3) Uani 1 1 d . .
O1 O 0.50159(15) 0.8848(3) 1.13657(12) 0.0409(5) Uani 1 1 d . .
N1 N 0.4066(2) 0.5238(4) 1.14074(18) 0.0401(5) Uani 1 1 d . .
H1 H 0.444(2) 0.481(4) 1.205(2) 0.032(6) Uiso 1 1 d . .
H2 H 0.364(2) 0.420(5) 1.101(2) 0.040(7) Uiso 1 1 d . .
N2 N 0.39025(18) 0.7485(4) 0.98279(15) 0.0366(5) Uani 1 1 d . .
H3 H 0.416(2) 0.879(5) 0.945(2) 0.043(7) Uiso 1 1 d . .
N3 N 0.32070(16) 0.5659(4) 0.92975(15) 0.0336(5) Uani 1 1 d . .
C1 C 0.43701(19) 0.7234(4) 1.09110(17) 0.0311(5) Uani 1 1 d . .
C2 C 0.2933(2) 0.5887(4) 0.82660(18) 0.0330(5) Uani 1 1 d . .
H4 H 0.321(2) 0.736(5) 0.787(2) 0.054(7) Uiso 1 1 d . .
C3 C 0.2183(2) 0.4141(4) 0.76156(18) 0.0346(6) Uani 1 1 d . .
C4 C 0.1756(2) 0.4286(5) 0.64799(19) 0.0453(6) Uani 1 1 d . U
H5 H 0.1931 0.5518 0.6025 0.054 Uiso 1 1 calc R .
C5 C 0.1018(3) 0.2261(7) 0.6139(3) 0.0647(9) Uani 1 1 d . U
H6 H 0.060(3) 0.175(6) 0.543(3) 0.088(11) Uiso 1 1 d . .
C6 C 0.0893(3) 0.0738(6) 0.6940(3) 0.0620(9) Uani 1 1 d . .
H7 H 0.047(3) -0.049(7) 0.690(3) 0.080(11) Uiso 1 1 d . .
loop_
_atom_site_aniso_label
_atom_site_aniso_U_11
_atom_site_aniso_U_22
_atom_site_aniso_U_33
_atom_site_aniso_U_23
_atom_site_aniso_U_13
_atom_site_aniso_U_12
S1 0.0517(5) 0.0396(4) 0.0621(5) -0.0005(3) 0.0085(3) -0.0051(3)
O1 0.0532(11) 0.0397(10) 0.0264(8) -0.0052(7) -0.0011(7) -0.0098(8)
N1 0.0519(13) 0.0406(13) 0.0258(11) 0.0024(10) 0.0019(9) -0.0066(11)
N2 0.0503(12) 0.0334(10) 0.0239(10) -0.0004(10) 0.0008(8) -0.0102(10)
N3 0.0357(10) 0.0318(10) 0.0320(10) -0.0027(9) 0.0027(8) -0.0026(8)
C1 0.0352(11) 0.0351(12) 0.0234(11) -0.0013(10) 0.0061(9) 0.0048(10)
C2 0.0346(12) 0.0338(12) 0.0295(12) 0.0000(11) 0.0030(9) 0.0005(10)
C3 0.0365(12) 0.0330(12) 0.0337(12) -0.0041(11) 0.0048(10) -0.0006(10)
C4 0.0481(15) 0.0498(14) 0.0364(14) -0.0092(12) 0.0034(11) -0.0085(11)
C5 0.0604(19) 0.075(2) 0.0539(18) -0.0268(19) -0.0021(15) -0.0235(15)
C6 0.0512(18) 0.0491(17) 0.085(2) -0.0228(19) 0.0097(16) -0.0161(15)
loop_
_atom_type_symbol
_atom_type_description
_atom_type_scat_dispersion_real
_atom_type_scat_dispersion_imag
_atom_type_scat_source
C C 0.0033 0.0016 'International Tables Vol C Tables 4.2.6.8 and 6.1.1.4'
H H 0.0000 0.0000 'International Tables Vol C Tables 4.2.6.8 and 6.1.1.4'
N N 0.0061 0.0033 'International Tables Vol C Tables 4.2.6.8 and 6.1.1.4'
O O 0.0106 0.0060 'International Tables Vol C Tables 4.2.6.8 and 6.1.1.4'
S S 0.1246 0.1234 'International Tables Vol C Tables 4.2.6.8 and 6.1.1.4'
loop_
_geom_angle_atom_site_label_1
_geom_angle_atom_site_label_2
_geom_angle_atom_site_label_3
_geom_angle
C6 S1 C3 91.33(16)
H1 N1 H2 120(2)
C1 N1 H1 121.0(17)
C1 N1 H2 117.3(16)
N3 N2 H3 122.0(16)
C1 N2 H3 117.7(16)
C1 N2 N3 119.6(2)
C2 N3 N2 115.4(2)
O1 C1 N1 124.6(2)
O1 C1 N2 118.8(2)
N1 C1 N2 116.6(2)
N3 C2 H4 121.1(16)
N3 C2 C3 121.1(2)
C3 C2 H4 117.8(15)
C2 C3 S1 122.06(17)
C4 C3 S1 111.67(19)
C4 C3 C2 126.2(2)
C3 C4 H5 125.1
C3 C4 C5 109.7(3)
C5 C4 H5 125.1
C4 C5 H6 132(2)
C6 C5 C4 114.2(3)
C6 C5 H6 113(2)
S1 C6 H7 119(2)
C5 C6 S1 113.1(3)
C5 C6 H7 128(2)
loop_
_geom_bond_atom_site_label_1
_geom_bond_atom_site_label_2
_geom_bond_distance
S1 C3 1.718(2)
S1 C6 1.708(3)
O1 C1 1.233(3)
N1 H1 0.87(2)
N1 H2 0.85(3)
N1 C1 1.339(3)
N2 H3 0.94(3)
N2 N3 1.380(3)
N2 C1 1.369(3)
N3 C2 1.275(3)
C2 H4 1.03(3)
C2 C3 1.444(3)
C3 C4 1.417(3)
C4 H5 0.9300
C4 C5 1.423(4)
C5 H6 0.97(4)
C5 C6 1.332(5)
C6 H7 0.84(4)
loop_
_geom_hbond_atom_site_label_D
_geom_hbond_atom_site_label_H
_geom_hbond_atom_site_label_A
_geom_hbond_distance_DH
_geom_hbond_distance_HA
_geom_hbond_distance_DA
_geom_hbond_angle_DHA
_geom_hbond_site_symmetry_A
N1 H1 O1 0.87(2) 2.03(3) 2.893(3) 168(2) 2_647
N2 H3 O1 0.94(3) 2.00(3) 2.929(3) 169(2) 3_677
C2 H4 N1 1.03(3) 2.60(3) 3.579(3) 158(2) 4_575
C6 H7 S1 0.84(4) 2.95(4) 3.740(3) 159(3) 2_546
loop_
_geom_torsion_atom_site_label_1
_geom_torsion_atom_site_label_2
_geom_torsion_atom_site_label_3
_geom_torsion_atom_site_label_4
_geom_torsion
S1 C3 C4 C5 0.0(3)
N2 N3 C2 C3 -178.2(2)
N3 N2 C1 O1 177.96(19)
N3 N2 C1 N1 -3.3(3)
N3 C2 C3 S1 -2.8(3)
N3 C2 C3 C4 175.5(2)
C1 N2 N3 C2 -171.2(2)
C2 C3 C4 C5 -178.4(3)
C3 S1 C6 C5 0.4(3)
C3 C4 C5 C6 0.3(4)
C4 C5 C6 S1 -0.5(4)
C6 S1 C3 C2 178.3(2)
C6 S1 C3 C4 -0.2(2)
loop_
_refln_index_h
_refln_index_k
_refln_index_l
_refln_F_squared_meas
_refln_F_squared_sigma
0 0 -3 0.02 0.07
0 0 3 0.03 0.07
0 0 -4 273.52 2.35
0 0 4 283.54 2.59
0 0 5 0.08 0.11
0 0 -5 0 0.09
0 0 6 109.58 2
0 0 -6 108.65 1.81
0 0 -7 0.03 0.11
0 0 -7 0.05 0.17
0 0 7 0.22 0.18
0 0 -8 0.86 0.26
0 0 -8 1.21 0.25
0 0 8 1.11 0.28
0 0 -9 -0.05 0.22
0 0 -9 -0.03 0.13
0 0 9 0.1 0.18
0 0 -10 0 0.29
0 0 10 0.26 0.23
0 0 -11 0.14 0.25
0 0 -12 4.97 0.73
0 0 -13 0.11 0.25
0 0 -14 0.09 0.27
0 0 -15 0.32 0.38
0 1 0 -0.03 0.06
0 -1 -1 28.99 0.6
0 -1 1 28.18 0.79
0 1 1 28.99 0.57
0 -1 2 20.72 0.77
0 -1 3 2.81 0.33
0 1 -4 96.73 1.89
0 1 4 93.42 0.95
0 -1 4 95.65 1.95
0 -1 -5 0.2 0.06
0 1 -5 0.03 0.11
0 -1 5 0.05 0.14
0 1 5 0.08 0.07
0 1 -6 1.94 0.31
0 -1 -6 1.71 0.25
0 -1 -6 1.99 0.15
0 -1 6 1.6 0.32
0 1 6 2.08 0.22
0 -1 -7 33.33 1.2
0 1 -7 33.23 1.52
0 1 7 35.18 0.98
0 1 -7 34.76 1.36
0 -1 -7 35.05 0.69
0 -1 7 32.29 1.42
0 -1 8 4.24 0.59
0 1 8 4.63 0.41
0 -1 -8 4.27 0.48
0 1 -8 4.29 0.59
0 -1 -8 4 0.27
0 1 9 0.36 0.17
0 -1 -9 0.07 0.09
0 -1 9 0.1 0.27
0 1 -9 -0.14 0.36
0 -1 -9 0.21 0.22
0 1 -10 8.46 0.92
0 -1 10 9.35 0.91
0 -1 -10 8.31 0.43
0 1 10 9.46 0.68
0 -1 -10 7.92 0.75
0 1 -11 0.05 0.29
0 -1 -11 0.21 0.26
0 -1 -12 0.04 0.18
0 1 -12 0.24 0.28
0 1 -13 2.69 0.64
0 -1 -13 2.59 0.56
0 1 -14 0.33 0.35
0 1 -15 0.56 0.42
0 1 -16 0.63 0.45
0 2 0 1.28 0.23
0 2 0 1.38 0.21
0 2 -1 215.22 2.68
0 2 1 214.24 1.89
0 2 1 211.99 2.42
0 2 -1 214.12 2.83
0 2 2 59.89 0.63
0 2 2 61.18 1.16
0 2 -2 61.89 1.61
0 2 2 61.01 1.17
0 -2 -3 11.98 0.58
0 2 -3 10.84 0.73
0 -2 3 11.14 0.77
0 -2 4 18.69 1.06
0 2 -4 19.57 1.07
0 -2 -4 20.08 0.77
0 2 -5 58.49 1.96
0 2 5 58 0.63
0 -2 5 57.57 1.92
0 2 6 0.77 0.09
0 -2 -6 0.84 0.13
0 2 -6 0.56 0.24
0 -2 6 0.74 0.3
0 -2 7 62.88 2.22
0 2 -7 60.79 2.26
0 2 7 58.1 0.78
0 -2 -7 60.45 1.2
0 2 -8 0.25 0.31
0 -2 8 0.5 0.34
0 2 8 0.28 0.07
0 -2 -8 0.14 0.12
0 2 -9 20.4 1.46
0 -2 -9 20.48 0.91
0 2 -10 25.62 1.72
0 -2 -10 27.21 1.13
0 2 -11 -0.04 0.3
0 -2 -11 0.42 0.24
0 2 -12 0.93 0.45
0 2 -13 0.1 0.33
0 2 -14 5.03 0.92
0 2 -15 2.04 0.67
0 3 0 -0.04 0.13
0 3 0 -0.09 0.13
0 3 1 28.5 1.04
0 3 1 29.55 1.14
0 3 -1 30.04 1.29
0 3 1 30.21 0.92
0 3 -1 28.58 1.15
0 3 2 4.1 0.27
0 3 2 3.95 0.41
0 3 2 4.26 0.41
0 3 -2 4.12 0.49
0 3 -3 94.51 2.44
0 3 3 94.47 1.81
0 -3 -4 0.41 0.18
0 3 4 0.32 0.13
0 3 -4 0.42 0.26
0 3 5 29.62 0.83
0 -3 -5 28.59 1.15
0 3 -5 28.76 1.52
0 3 6 4.78 0.28
0 3 -6 4.57 0.66
0 3 6 4.5 0.19
0 3 -7 0.45 0.31
0 3 -8 2.76 0.6
0 3 -9 11.24 1.16
0 3 -10 35.7 2.15
0 3 -11 0.18 0.32
0 3 -12 -0.08 0.32
0 3 -13 0.27 0.4
0 4 0 10.18 0.73
0 4 1 13.69 0.73
0 4 1 13.52 0.84
0 4 -1 13.57 0.9
0 4 2 45.6 1.08
0 4 2 43.7 1.59
0 4 -2 44.15 1.74
0 4 2 43.35 1.44
0 4 -3 15.49 1.11
0 4 3 14.26 0.44
0 4 3 14.79 0.89
0 4 4 2.24 0.33
0 4 -4 2.12 0.49
0 4 5 11.77 0.68
0 4 -5 11.58 1.07
0 4 -6 8.76 0.97
0 4 -7 2.01 0.53
0 4 -8 9.32 1.07
0 4 -9 5.37 0.89
0 4 -10 1.6 0.58
0 4 -11 0.15 0.4
0 4 -12 -0.18 0.33
0 5 0 -0.26 0.26
0 5 0 -0.18 0.27
0 5 1 0.99 0.3
0 5 -1 0.52 0.24
0 5 1 0.74 0.22
0 5 2 26.36 0.91
0 5 2 26.86 1.28
0 5 -2 27.28 1.48
0 5 -3 0.26 0.35
0 5 -4 10.99 1.07
0 5 -5 10.99 1.13
0 5 -6 6.57 0.93
0 5 -7 6.7 0.99
0 5 -8 1.85 0.64
0 5 -9 1.57 0.55
0 5 -10 1.2 0.52
0 6 0 2.54 0.52
0 6 1 2.91 0.52
0 6 -1 2.77 0.5
0 6 -2 2.79 0.53
0 6 2 3.29 0.55
0 6 -3 0.52 0.28
0 6 -4 0.41 0.29
0 6 -5 4.98 0.83
0 6 -6 3.91 0.77
0 6 -7 0.46 0.4
0 6 -8 1.76 0.63
1 0 -15 0.33 0.34
1 0 -14 13.1 1.23
1 0 -13 0.27 0.29
1 0 -12 5.65 0.8
1 0 -11 -0.08 0.21
1 0 -10 53.9 2.05
1 0 -10 54.88 1.63
1 0 -9 0.02 0.13
1 0 -9 -0.06 0.22
1 0 -8 47.64 1.71
1 0 -8 46.41 1.36
1 0 -7 -0.03 0.17
1 0 -7 0.03 0.13
1 0 -6 179.09 2.35
1 0 -6 180.72 2.84
1 0 -5 0.13 0.14
1 0 -5 -0.02 0.09
1 0 -4 144.84 2.08
1 0 -4 147.73 1.77
-1 0 3 0.01 0.1
1 0 -3 0.06 0.11
1 0 -3 0.01 0.08
-1 0 2 375.9 2.43
-1 0 -2 149.83 1.32
1 0 2 150.54 1.43
-1 0 -3 0.03 0.07
1 0 3 -0.05 0.1
1 0 4 0.12 0.1
-1 0 -4 0.27 0.1
-1 0 -5 0.07 0.1
1 0 5 -0.02 0.11
1 0 6 241.69 3.1
-1 0 -6 241.59 2.7
-1 0 -7 0 0.11
1 0 7 0.08 0.14
1 0 8 23.33 1.15
-1 0 -8 23.67 0.95
1 0 9 -0.01 0.19
1 0 10 6.48 0.7
-1 0 -10 5.1 0.68
1 0 11 0.01 0.19
-1 0 -11 -0.06 0.25
-1 0 -12 4.84 0.74
1 0 12 4.87 0.69
-1 0 -13 -0.14 0.27
1 0 13 0.17 0.22
-1 0 -14 4.66 0.8
-1 0 -15 0.02 0.3
1 1 -16 0.67 0.41
1 1 -15 0.35 0.34
1 1 -14 0.83 0.44
1 1 -13 1.35 0.48
1 -1 -13 0.91 0.34
1 -1 -12 2.36 0.48
1 1 -12 1.71 0.52
1 -1 -11 3.19 0.5
1 1 -11 2.91 0.59
1 1 -10 1.9 0.5
1 -1 -10 1.82 0.4
1 -1 -10 1.57 0.2
1 -1 -9 0.8 0.31
1 1 -9 0.43 0.31
1 -1 -9 0.65 0.14
1 -1 -8 0.36 0.2
1 -1 -8 0.51 0.11
1 1 -8 0.46 0.28
1 1 -7 6.96 0.63
1 1 -7 7.41 0.72
1 -1 -7 7.81 0.33
1 -1 -7 7.32 0.54
1 -1 -6 163.06 2.22
1 1 -6 162.33 3.08
1 -1 -6 162.1 1.22
1 1 -6 164.59 2.84
1 1 -5 23.88 1.02
1 1 -5 23.56 1.1
1 -1 -5 22.09 0.34
1 -1 -5 22.77 0.72
1 1 -4 43.81 1.3
1 -1 -4 43.99 0.8
1 1 -4 42.69 1.35
-1 1 3 0.15 0.06
1 -1 -3 0.25 0.07
1 1 -2 524.01 3.76
-1 1 1 47.94 0.71
-1 1 1 46.64 0.54
-1 -1 1 48.13 1.03
1 1 -1 48.51 0.98
1 -1 -1 47.3 0.75
-1 1 0 61.43 0.99
1 -1 0 60.73 1.03
1 1 0 60.77 0.87
-1 -1 0 61.05 0.95
-1 -1 -1 3.83 0.19
1 -1 1 3.94 0.31
1 1 1 3.95 0.27
1 1 1 3.94 0.2
1 -1 2 32.22 0.97
1 -1 3 21.96 0.89
1 1 3 23.75 0.46
1 1 4 0.1 0.08
-1 1 -4 -0.01 0.1
1 -1 4 -0.05 0.13
-1 -1 -5 33.47 0.66
1 -1 5 33.51 1.29
-1 1 -5 34.05 1.21
1 1 5 33.91 0.83
1 1 6 41.17 1.04
-1 -1 -6 41.55 0.78
1 -1 6 39.63 1.51
-1 1 -6 40.92 1.41
1 1 7 6.04 0.45
-1 -1 -7 5.81 0.33
1 -1 7 5.99 0.64
1 -1 8 16.95 1.12
1 1 8 17.77 0.86
-1 -1 -8 16.67 0.59
-1 -1 -9 11.84 0.52
1 -1 9 12.22 1
1 1 9 12.2 0.78
-1 1 -10 2.28 0.53
-1 -1 -10 2.37 0.27
1 1 10 2.37 0.38
1 -1 10 2.54 0.52
-1 -1 -10 2.59 0.46
-1 1 -11 18.09 1.42
1 1 11 17.4 1.06
-1 -1 -11 18.03 1.2
1 -1 11 18.26 1.36
-1 1 -12 4.38 0.77
1 -1 12 4.81 0.74
-1 -1 -12 4.23 0.65
-1 1 -13 -0.21 0.29
-1 -1 -13 0.11 0.25
-1 1 -14 2.41 0.62
-1 1 -15 0.12 0.33
-1 1 -16 0.85 0.46
1 2 -15 0.35 0.44
1 2 -14 0.93 0.49
1 2 -13 1.94 0.62
1 2 -12 4.59 0.83
1 -2 -11 21.02 1.01
1 2 -11 21.12 1.59
1 -2 -10 10.96 0.67
1 2 -10 11.45 1.14
1 -2 -9 86.45 1.67
1 2 -9 87.44 2.93
1 2 -8 15.93 1.22
1 -2 -8 16.46 0.65
1 2 -7 13.53 1.07
1 -2 -7 12.36 0.47
1 -2 -6 0.06 0.06
1 2 -6 0 0.22
1 2 -5 26.37 1.3
1 -2 -4 0.38 0.15
1 2 -4 0.35 0.21
1 -2 -3 205.97 2.11
1 2 -3 208.34 3.17
-1 2 3 208.76 1.73
1 2 -2 46.93 1.37
-1 2 2 46.12 0.88
-1 2 2 45.54 0.98
1 -2 -1 94.36 1.65
-1 2 1 95.12 1.37
-1 -2 1 94.55 1.85
-1 2 1 94.85 1.59
1 2 -1 94.47 1.74
-1 -2 0 2.54 0.28
1 -2 0 2.73 0.32
1 2 0 2.35 0.24
-1 2 0 2.64 0.3
-1 -2 -1 65.16 1.17
1 -2 1 64.54 1.61
-1 2 -1 66.03 1.57
1 2 1 65.32 1
1 2 1 65.13 1.39
-1 -2 -2 0.89 0.12
-1 -2 -2 0.75 0.16
1 2 2 1.08 0.13
1 -2 2 0.74 0.24
1 2 2 0.95 0.2
-1 -2 -3 48.12 0.71
-1 -2 -3 47.25 1.27
1 -2 3 48.06 1.6
-1 -2 -4 179.37 2.55
-1 -2 -4 182.27 1.37
1 -2 4 178.21 3.25
1 2 5 7.85 0.3
1 -2 5 7.26 0.71
1 2 6 2.98 0.23
1 -2 6 2.8 0.48
1 -2 7 5.88 0.72
1 2 7 6.47 0.38
1 2 8 12.36 0.58
1 -2 8 11.96 1.05
-1 2 -9 1.4 0.44
-1 -2 -9 2.3 0.36
1 2 9 2.3 0.29
1 -2 9 2.68 0.58
1 -2 10 0.07 0.26
1 2 10 0.36 0.17
-1 -2 -10 0.19 0.17
-1 2 -10 -0.42 0.46
-1 -2 -11 4.46 0.53
-1 2 -11 3.93 0.77
1 -2 11 4.19 0.76
-1 2 -12 -0.14 0.29
-1 2 -13 3.46 0.78
-1 2 -14 0.04 0.28
-1 2 -15 1.21 0.58
1 3 -14 0.34 0.4
1 3 -13 4.5 0.87
1 3 -12 0.99 0.5
1 3 -11 12.92 1.34
1 3 -10 7.08 0.97
1 3 -9 4.67 0.78
1 3 -8 1.49 0.47
1 3 -7 52.72 2.25
1 -3 -6 3.58 0.41
1 3 -6 3.69 0.6
1 -3 -5 29.78 1.09
1 3 -5 30.42 1.54
-1 3 5 28.54 0.64
1 3 -4 74.55 2.27
-1 3 4 76.72 1.35
1 3 -3 0.18 0.19
-1 3 3 0.13 0.13
1 3 -2 16.5 0.94
-1 3 2 16.72 0.61
-1 3 2 16.09 0.69
-1 3 2 15.82 0.78
1 3 -1 55.87 1.76
1 3 -1 56.93 1.58
-1 3 1 56.46 1.36
-1 3 1 56.35 1.36
-1 3 1 57.11 1.56
-1 3 0 7.31 0.56
1 3 0 7.09 0.51
-1 3 0 7.8 0.62
1 3 0 7.43 0.61
1 3 1 19.49 0.71
-1 3 -1 20.61 1.05
1 3 1 18.93 0.92
1 -3 1 19.25 1.07
1 3 1 19.7 0.92
1 -3 2 2.51 0.43
1 3 2 1.98 0.2
1 3 2 2.3 0.34
1 -3 3 0.15 0.21
1 -3 4 0.02 0.2
1 -3 5 3.67 0.6
-1 3 -6 -0.09 0.33
1 -3 6 0.08 0.26
1 3 6 0.08 0.09
-1 3 -7 -0.11 0.33
1 3 7 0.16 0.08
1 -3 7 0.14 0.3
-1 3 -8 46.83 2.3
1 3 8 46.37 0.9
1 -3 8 44.95 2.26
1 -3 9 11.95 1.25
-1 3 -9 11.18 1.2
-1 3 -10 7.52 1.04
-1 3 -11 10.04 1.22
-1 3 -12 0.82 0.45
-1 3 -13 -0.03 0.35
1 4 -12 1.78 0.69
1 4 -11 0.85 0.49
1 4 -10 7.39 1.04
1 4 -9 0.44 0.39
1 4 -8 0.38 0.36
1 4 -7 1.8 0.51
1 4 -6 0.93 0.37
-1 4 5 10.29 0.57
1 4 -5 10.37 0.99
1 4 -4 29.17 1.57
-1 4 4 31.34 1.14
1 4 -3 0.2 0.25
-1 4 3 -0.03 0.14
-1 4 3 0.12 0.09
-1 4 2 18.69 0.89
1 4 -2 19.79 1.14
-1 4 2 19.44 1.03
-1 4 2 19.68 0.78
1 4 -1 3.96 0.5
-1 4 1 4.66 0.47
-1 4 1 4.09 0.44
1 4 0 9.97 0.69
-1 4 0 10.49 0.77
1 4 0 10.66 0.79
1 4 1 21.56 1.11
1 4 1 21.23 0.87
-1 4 -1 20.64 1.15
-1 4 -2 22.66 1.28
1 4 2 23.15 0.76
1 4 2 23.75 1.12
1 4 3 12.8 0.84
-1 4 -3 12.74 1.02
1 4 3 12.93 0.48
1 4 4 2.17 0.35
-1 4 -4 1.93 0.47
1 4 5 17.64 0.88
-1 4 -5 18.17 1.34
-1 4 -6 2.95 0.59
-1 4 -7 3.14 0.66
-1 4 -8 3.09 0.67
-1 4 -9 3.16 0.7
-1 4 -10 0.2 0.38
-1 4 -11 2.38 0.68
-1 4 -12 1.84 0.61
1 5 -10 0.34 0.4
1 5 -9 0.25 0.35
1 5 -8 13.17 1.36
1 5 -7 0.15 0.36
1 5 -6 6.7 0.91
1 5 -5 0.52 0.37
1 5 -4 7.82 0.9
1 5 -3 4.59 0.64
-1 5 2 4.69 0.53
1 5 -2 3.83 0.56
-1 5 2 4.28 0.41
-1 5 1 4.08 0.51
1 5 -1 4.78 0.57
1 5 -1 5.2 0.65
-1 5 1 4.45 0.49
-1 5 0 25.44 1.28
1 5 0 25.52 1.19
1 5 0 25.55 1.4
-1 5 0 24.82 1.27
1 5 1 35.09 1.23
1 5 1 36.27 1.6
-1 5 -1 34.93 1.62
1 5 2 6.02 0.44
1 5 2 5.72 0.64
-1 5 -2 5.62 0.72
-1 5 -3 4.16 0.66
-1 5 -4 3.28 0.64
-1 5 -5 0.89 0.4
-1 5 -6 4.88 0.82
-1 5 -7 1.03 0.41
-1 5 -8 3.18 0.72
-1 5 -9 0.51 0.37
-1 5 -10 3.7 0.83
1 6 -8 -0.03 0.46
1 6 -7 0.39 0.37
1 6 -6 -0.03 0.36
1 6 -5 3.86 0.7
1 6 -4 5.73 0.8
1 6 -3 2.49 0.51
1 6 -2 0.18 0.25
1 6 -2 0.2 0.28
-1 6 1 3.13 0.51
1 6 -1 2.74 0.55
-1 6 0 4.5 0.62
1 6 0 3.84 0.61
1 6 1 0.49 0.29
-1 6 -1 0.06 0.22
-1 6 -2 3.39 0.62
1 6 2 2.66 0.5
-1 6 -3 0.32 0.28
-1 6 -4 4.69 0.78
-1 6 -5 0.22 0.34
-1 6 -6 0.69 0.39
-1 6 -7 0.66 0.47
-1 6 -8 0.59 0.4
1 7 -3 0.52 0.29
1 7 -2 0.3 0.31
2 0 -15 -0.05 0.25
2 0 -14 6.99 0.91
2 0 -13 -1.12 0.42
2 0 -12 11.88 1.06
2 0 -11 0.22 0.31
2 0 -10 11.16 0.76
2 0 -10 10.54 0.91
2 0 -9 0.07 0.24
2 0 -9 0.11 0.16
2 0 -8 70.72 1.73
2 0 -8 71.19 2.05
2 0 -7 0.15 0.22
2 0 -7 0.02 0.11
2 0 -6 1.39 0.23
2 0 -6 1.2 0.23
2 0 -5 0.07 0.1
-2 0 5 0.03 0.13
2 0 -5 -0.18 0.21
2 0 -4 4.05 0.36
-2 0 4 4.22 0.38
2 0 -3 0.12 0.13
-2 0 3 -0.24 0.16
-2 0 2 163.48 1.72
2 0 -2 165.56 1.62
2 0 -1 0.06 0.09
-2 0 0 22.06 0.5
2 0 1 -0.07 0.09
-2 0 -2 60.15 0.92
2 0 2 60.39 1
2 0 3 0.58 0.19
-2 0 -3 0.43 0.11
2 0 4 289.9 2.94
-2 0 -4 291.29 2.5
2 0 5 0.07 0.13
-2 0 -5 0.2 0.13
2 0 6 4.5 0.46
-2 0 -6 4.84 0.4
-2 0 -7 0.17 0.14
2 0 7 0.09 0.16
2 0 8 24.38 1.21
2 0 9 0.06 0.19
2 0 10 4.31 0.59
2 0 11 0.1 0.21
2 0 12 6.71 0.82
-2 0 -12 5.93 0.85
-2 0 -13 -0.26 0.37
2 0 13 0.03 0.27
-2 0 -14 1.57 0.47
-2 0 -15 -0.12 0.26
2 1 -16 0.51 0.37
2 1 -15 1.64 0.49
2 1 -14 1.02 0.43
2 1 -13 0.38 0.37
2 -1 -13 -0.16 0.27
2 -1 -12 -0.22 0.32
2 1 -12 0.52 0.38
2 1 -11 2.83 0.59
2 -1 -11 2.16 0.39
2 -1 -10 7.33 0.66
2 1 -10 8.2 0.9
2 -1 -10 7.85 0.44
2 -1 -9 46.19 1.53
2 -1 -9 44.85 0.98
2 1 -9 44.45 1.93
2 1 -8 5.47 0.65
2 -1 -8 5.08 0.31
2 -1 -8 5.11 0.47
2 -1 -7 51.19 1.35
2 -1 -7 50.69 0.88
2 1 -7 51.11 1.72
2 1 -7 50.83 1.82
2 -1 -6 -0.09 0.12
2 1 -6 -0.06 0.14
2 1 -6 -0.02 0.19
2 -1 -6 0.02 0.05
2 1 -5 43.78 1.4
2 -1 -5 42.25 0.65
2 -1 -5 44.11 0.96
-2 1 5 43.56 1.11
2 1 -5 44.72 1.47
2 -1 -4 2.4 0.2
-2 1 4 2.58 0.25
2 1 -4 2.36 0.33
2 1 -3 27.17 0.98
-2 1 3 27.18 0.62
2 -1 -3 29.36 0.61
2 -1 -3 28.07 0.4
-2 1 2 19.97 0.5
-2 1 2 20.2 0.38
2 1 -2 19.98 0.74
2 -1 -2 20.6 0.46
2 -1 -1 1.42 0.16
2 1 -1 2 0.24
-2 -1 1 1.4 0.21
-2 1 1 1.56 0.15
-2 -1 -1 32.59 0.77
2 -1 1 32.88 0.92
2 1 1 33.36 0.84
2 -1 2 35.7 1.06
2 1 3 0.64 0.14
2 -1 3 0.31 0.16
2 1 4 26.86 0.69
2 -1 4 25.28 1.07
-2 1 -5 0.29 0.16
2 1 5 0.41 0.15
2 -1 5 0.2 0.18
2 1 6 106.81 1.84
2 -1 6 104.78 2.48
-2 -1 -6 105.16 1.46
2 -1 7 21.14 1.2
-2 -1 -7 22.15 0.71
2 1 7 21.96 0.93
2 -1 8 6.23 0.71
2 1 8 5.63 0.52
-2 -1 -8 6.81 0.43
-2 -1 -9 35.88 1
2 -1 9 35.28 1.74
2 1 9 36.63 1.41
2 1 10 7.02 0.68
2 -1 10 6.6 0.82
2 1 11 1.37 0.36
2 -1 11 0.95 0.4
-2 -1 -12 10.33 1.01
-2 1 -12 9.37 1.11
2 -1 12 10.72 1.14
2 -1 13 6.16 0.89
-2 -1 -13 6.1 0.83
-2 1 -13 4.63 0.83
2 -1 14 2.39 0.62
-2 1 -14 2.48 0.66
-2 1 -15 2.16 0.65
2 2 -15 -0.13 0.37
2 2 -14 0.31 0.4
2 2 -13 11.6 1.27
2 2 -12 2.22 0.62
2 -2 -11 3.24 0.39
2 2 -11 2.92 0.65
2 2 -10 29.49 1.76
2 -2 -10 28.71 1
2 2 -9 18.4 1.35
2 -2 -9 17.16 0.7
2 2 -8 10.14 0.97
2 -2 -8 8.91 0.45
2 2 -7 14.44 1.09
2 -2 -7 14.2 0.5
2 -2 -6 54.34 0.83
2 2 -6 53.18 1.93
2 2 -5 14.56 0.96
2 2 -4 9.28 0.73
-2 2 4 9.02 0.2
2 -2 -4 9.32 0.42
-2 2 4 9.24 0.31
2 2 -3 30.12 1.19
-2 2 3 30.39 0.57
2 -2 -3 30.58 0.68
-2 2 3 30.66 0.61
2 -2 -3 30.19 0.74
2 2 -2 2.63 0.34
2 -2 -2 2.75 0.27
-2 -2 2 2.66 0.36
-2 2 2 2.59 0.23
2 -2 -1 0.05 0.1
-2 2 1 0.16 0.11
2 2 -1 0.14 0.15
-2 -2 1 0.13 0.12
2 2 0 24.69 0.94
-2 -2 0 23.83 0.86
-2 2 0 24.43 0.89
2 2 0 25.34 0.78
2 -2 0 23.79 0.94
2 -2 1 5.05 0.47
-2 -2 -1 4.86 0.35
-2 2 -1 4.82 0.43
2 2 1 5.16 0.34
2 2 1 5.06 0.43
-2 -2 -2 37.63 1.2
-2 -2 -2 39.33 0.86
2 -2 2 39.34 1.39
2 -2 3 7.44 0.65
-2 -2 -3 8.52 0.6
-2 -2 -3 8.41 0.39
2 -2 4 9.02 0.77
-2 -2 -4 9.26 0.43
-2 -2 -4 10.07 0.66
2 2 5 29.57 0.72
2 -2 5 28.65 1.42
2 2 6 0.33 0.12
2 -2 6 0.22 0.24
2 2 7 35.7 1.03
2 -2 7 33.8 1.7
2 2 8 3.07 0.34
2 -2 8 3.51 0.62
2 2 9 55.14 1.51
2 -2 9 52.94 2.34
2 -2 10 24.2 1.68
2 2 10 25.21 1.1
-2 -2 -11 1.62 0.36
-2 2 -11 0.82 0.4
2 -2 11 1.72 0.52
2 -2 12 1.51 0.5
-2 2 -12 1.74 0.55
2 -2 13 1.21 0.51
-2 2 -13 0.8 0.42
-2 2 -14 0.25 0.3
2 3 -14 0.24 0.33
2 3 -13 0.44 0.45
2 3 -12 0.73 0.47
2 3 -11 9.41 1.15
2 3 -10 9.07 1.08
2 3 -9 1.48 0.45
2 3 -8 0.42 0.33
2 3 -7 2.07 0.52
2 -3 -7 2.13 0.33
2 -3 -6 2.39 0.31
2 3 -6 2.46 0.51
-2 3 5 14.38 0.34
2 3 -5 14.36 1.06
2 -3 -5 15.78 0.71
2 3 -4 7.93 0.76
-2 3 4 8.67 0.42
-2 3 3 2.48 0.27
2 3 -3 1.79 0.35
-2 3 2 0.75 0.19
-2 3 2 0.66 0.16
2 3 -2 0.29 0.18
-2 -3 2 0.67 0.26
2 3 -1 75.88 1.78
2 -3 -1 77 1.93
-2 -3 1 75.37 2.01
-2 3 1 75.79 1.78
2 3 0 11.12 0.74
2 3 0 12.67 0.66
-2 -3 0 12.06 0.74
2 -3 0 12.26 0.82
-2 3 0 11.69 0.75
2 3 1 52.31 1.58
2 -3 1 53.39 1.81
-2 -3 -1 53.75 1.44
2 3 1 53.83 1.22
2 -3 2 141.7 3.07
-2 -3 -2 138.4 2.11
2 3 2 143.26 1.79
2 3 2 143.55 2.52
2 -3 3 1.73 0.41
-2 -3 -3 1.66 0.22
-2 -3 -4 2.48 0.23
2 -3 4 2.53 0.5
-2 -3 -5 60.77 1.02
2 -3 5 61.06 2.33
2 3 6 14.24 0.53
-2 -3 -6 13.83 0.47
2 -3 6 14.57 1.19
2 -3 7 35.42 1.93
-2 -3 -7 34.4 0.76
2 3 7 35.06 0.88
2 3 8 40.35 1.05
2 -3 8 39.43 2.16
2 -3 9 1.86 0.55
-2 3 -10 6.93 1.02
2 -3 10 7.06 1.04
-2 3 -11 5.15 0.91
2 -3 11 6.24 0.96
2 -3 12 2 0.58
-2 3 -12 1.73 0.57
-2 3 -13 0.87 0.51
2 4 -12 11.79 1.4
2 4 -11 1.41 0.55
2 4 -10 2.78 0.71
2 4 -9 5.97 0.92
2 4 -8 2.56 0.63
2 4 -7 2.11 0.56
2 4 -6 7.73 0.89
2 4 -5 19.43 1.34
-2 4 5 21.31 0.74
-2 4 4 0.06 0.12
2 4 -4 -0.38 0.37
-2 4 3 3.9 0.32
2 4 -3 3.62 0.55
-2 4 3 4.63 0.47
-2 4 2 1.35 0.29
-2 4 2 1.18 0.25
-2 4 2 1.15 0.24
2 4 -2 0.95 0.29
2 4 -1 0.56 0.28
-2 4 1 0.47 0.19
-2 4 1 0.21 0.16
-2 4 0 12.44 0.87
2 4 0 13.22 0.93
2 4 0 13.44 0.78
2 4 1 29.63 1.35
2 4 1 29.99 1.02
2 -4 2 2.81 0.54
2 4 2 2.94 0.33
2 4 2 3.2 0.47
2 -4 3 36.66 1.84
2 -4 4 5.07 0.75
2 -4 5 11.14 1.12
-2 4 -6 5.76 0.85
2 -4 6 5.57 0.84
-2 4 -7 6.05 0.9
2 -4 7 5.9 0.88
-2 4 -8 3.25 0.7
2 -4 8 3.29 0.72
-2 4 -9 3.51 0.76
-2 4 -10 -0.11 0.4
-2 4 -11 3.02 0.75
2 5 -10 5.78 0.98
2 5 -9 -0.07 0.37
2 5 -8 5.21 0.86
2 5 -7 -0.39 0.47
2 5 -6 0.56 0.31
2 5 -5 -0.4 0.46
2 5 -4 0.47 0.33
2 5 -3 13.5 1.08
2 5 -2 33.06 1.57
-2 5 2 32.61 1.21
-2 5 2 31.92 1.24
2 5 -1 6.75 0.77
-2 5 1 6.03 0.58
-2 5 1 6.48 0.65
2 5 -1 6.37 0.67
2 5 0 3.84 0.58
-2 5 0 3.5 0.47
-2 5 0 3.8 0.53
2 5 0 3.98 0.5
-2 5 -1 6 0.71
2 5 1 6.14 0.53
2 5 1 6 0.7
2 5 2 0.61 0.3
2 5 2 0.61 0.22
-2 5 -2 0.34 0.2
-2 5 -3 0.4 0.27
-2 5 -4 0.55 0.34
-2 5 -5 0.16 0.27
-2 5 -6 6.52 0.94
-2 5 -7 -0.06 0.36
-2 5 -8 4.33 0.84
-2 5 -9 0.49 0.4
-2 5 -10 1.59 0.61
2 6 -8 0.11 0.35
2 6 -7 2.25 0.61
2 6 -6 5.78 0.88
2 6 -5 0.24 0.29
2 6 -4 8.5 0.97
2 6 -3 -0.11 0.22
2 6 -2 13.66 1.18
2 6 -2 14.78 1.12
2 6 -1 3.65 0.64
2 6 0 -0.15 0.25
2 6 1 1.01 0.37
-2 6 -1 0.77 0.26
-2 6 -2 10.9 1.06
2 6 2 12.16 1.03
-2 6 -3 4.21 0.73
-2 6 -4 3.78 0.72
-2 6 -5 -0.05 0.25
-2 6 -6 0.23 0.34
-2 6 -7 0.14 0.29
-2 6 -8 3.38 0.79
2 7 -4 -0.52 0.43
2 7 -3 0.76 0.37
2 7 -2 4.78 0.81
2 7 -1 0.92 0.4
2 7 0 0.58 0.39
3 0 -15 -0.07 0.29
3 0 -14 0.98 0.4
3 0 -13 -0.23 0.36
3 0 -12 -0.25 0.4
3 0 -11 -0.22 0.34
3 0 -10 1.14 0.33
3 0 -10 1.54 0.31
3 0 -9 -0.43 0.31
3 0 -9 0 0.14
3 0 -8 29.63 1.18
3 0 -8 29.61 1.3
3 0 -7 -0.01 0.11
3 0 -7 -0.04 0.21
-3 0 7 0.06 0.19
3 0 -6 102.5 2.07
-3 0 6 101.16 2.32
-3 0 5 0.22 0.17
3 0 -5 0.05 0.15
3 0 -4 14.77 0.66
-3 0 4 13.32 0.69
-3 0 3 0.08 0.16
3 0 -3 -0.26 0.18
3 0 -1 0.02 0.09
3 0 -1 -0.31 0.16
3 0 0 318.51 2.16
-3 0 0 316.07 2.31
3 0 1 0.12 0.11
-3 0 -2 5.25 0.31
3 0 2 4.72 0.31
3 0 3 0.18 0.12
-3 0 -3 0.11 0.1
-3 0 -4 215.33 2.23
3 0 4 212.42 2.69
-3 0 -5 -0.16 0.12
3 0 5 -0.07 0.15
-3 0 -6 12.9 0.63
3 0 6 12.49 0.79
3 0 7 0.14 0.19
3 0 8 4.57 0.56
3 0 9 0.02 0.21
3 0 10 1.99 0.45
3 0 11 -0.01 0.21
3 0 12 2.97 0.59
3 0 13 0.36 0.33
-3 0 -14 0.62 0.38
-3 0 -15 0.33 0.37
3 1 -16 0.37 0.31
3 1 -15 2.06 0.57
3 1 -14 0 0.34
3 -1 -13 0.12 0.26
3 1 -13 -0.4 0.47
3 1 -12 10.18 1.04
3 -1 -12 10.97 0.88
3 -1 -11 0.06 0.19
3 1 -11 -0.51 0.52
3 -1 -10 5.09 0.56
3 -1 -10 4.62 0.35
3 1 -10 4.12 0.6
3 -1 -9 10.11 0.71
3 -1 -9 10.52 0.51
3 1 -9 10.21 0.92
3 1 -8 10.39 0.88
3 -1 -8 10.87 0.67
3 -1 -8 10.63 0.5
3 1 -7 8.37 0.73
-3 1 7 8.36 0.64
3 1 -7 9.06 0.73
3 -1 -7 8.92 0.56
3 -1 -7 8.88 0.44
3 1 -6 14.12 0.87
3 1 -6 13.98 0.9
-3 1 6 15.2 0.78
3 -1 -6 14.46 0.64
3 1 -5 6.72 0.58
-3 1 5 7.07 0.48
3 -1 -5 6.76 0.41
3 -1 -4 1.68 0.14
3 1 -4 1.59 0.29
-3 1 4 1.62 0.22
3 -1 -4 1.59 0.21
3 1 -3 213.36 2.69
-3 1 3 219.21 2.1
3 -1 -3 217.83 1.5
-3 1 2 360.79 2.71
3 -1 -2 367.19 2.23
3 1 -1 1000 4.92
-3 -1 1 943.94 5
3 1 0 11.07 0.56
3 1 0 10.26 0.53
-3 -1 0 11.47 0.54
3 -1 0 11.21 0.52
-3 1 0 10.35 0.44
3 -1 1 1.92 0.26
-3 -1 -1 1.95 0.23
3 -1 2 68.38 1.56
-3 -1 -2 67.56 1.28
3 -1 3 177 2.72
3 1 3 165.11 1.76
3 1 4 119.79 1.64
3 -1 4 115.74 2.35
3 -1 5 6.53 0.62
3 1 5 6.52 0.45
3 -1 6 21.21 1.16
3 1 6 21.09 0.88
3 1 7 4.05 0.44
3 -1 7 4.16 0.57
-3 -1 -7 5.04 0.41
3 -1 8 -0.03 0.22
-3 -1 -8 0.75 0.23
3 1 8 0.32 0.24
3 1 9 25.32 1.23
3 -1 9 23.69 1.48
3 -1 10 5.16 0.74
3 1 10 5.69 0.65
3 -1 11 2.19 0.57
3 1 11 2.12 0.44
3 -1 12 0.22 0.29
3 -1 13 0.51 0.34
-3 -1 -13 0.38 0.3
3 -1 14 0.15 0.32
-3 1 -14 0.17 0.33
-3 1 -15 1.23 0.54
3 2 -15 0.13 0.34
3 2 -14 -0.23 0.39
3 2 -13 1.11 0.42
3 2 -12 -0.34 0.45
3 2 -11 12.45 1.2
3 -2 -11 11.23 0.68
3 2 -10 8 0.95
3 -2 -10 7.6 0.54
3 -2 -9 6.72 0.46
3 2 -9 5.96 0.77
3 -2 -8 0.44 0.16
3 2 -8 -0.51 0.44
3 2 -7 11.08 0.94
3 -2 -7 13.09 0.53
3 -2 -6 6.26 0.34
-3 2 6 5.77 0.4
-3 2 5 30.6 0.81
3 2 -5 28.2 1.32
3 -2 -4 68.84 0.9
3 -2 -4 69.66 1.09
-3 2 4 71.65 1.1
3 2 -4 70.57 1.94
3 2 -3 18.19 0.91
3 -2 -3 18.15 0.65
-3 2 3 18.81 0.49
-3 2 3 18.38 0.6
3 2 -2 1.4 0.28
3 -2 -2 1.22 0.21
-3 2 2 1.31 0.17
-3 -2 2 1.2 0.28
3 -2 -1 53.61 1.34
-3 -2 1 56.78 1.53
3 2 -1 55 1.32
-3 2 1 55.6 1.2
3 2 0 18.02 0.86
3 -2 0 16.77 0.83
3 2 0 17.31 0.71
-3 -2 0 18.56 0.81
-3 2 0 17.79 0.76
3 2 1 12.92 0.71
-3 -2 -1 12.33 0.61
-3 2 -1 12.93 0.7
3 2 1 12.74 0.6
3 -2 1 12.37 0.76
-3 -2 -2 8.3 0.47
3 -2 2 8.51 0.67
-3 -2 -3 0.98 0.2
3 -2 3 0.99 0.3
3 2 4 1.92 0.26
-3 -2 -4 1.35 0.23
3 -2 4 1.23 0.34
3 -2 5 64.82 2.18
-3 -2 -5 67.77 1.4
3 2 5 64.54 1.21
3 -2 6 12.05 1
3 2 6 11.06 0.54
3 -2 7 9.85 0.95
3 2 7 9.72 0.58
3 -2 8 64.88 2.55
3 2 8 62.5 1.64
3 2 9 1.85 0.33
3 -2 9 1.91 0.5
3 2 10 0.26 0.22
3 -2 10 0.11 0.25
3 -2 11 0.77 0.43
3 -2 12 4.11 0.77
3 -2 13 0.28 0.38
-3 2 -13 0.44 0.4
3 -2 14 0.56 0.44
-3 2 -14 0.63 0.47
3 3 -14 0 0.36
3 3 -13 -0.31 0.44
3 3 -12 3.18 0.72
3 3 -11 4.55 0.8
3 3 -10 13.16 1.27
3 3 -9 10.42 1.09
3 3 -8 2.57 0.52
3 -3 -8 3.66 0.4
3 -3 -7 0.31 0.18
3 3 -7 -0.47 0.46
3 -3 -6 4.71 0.37
3 3 -6 4.44 0.63
-3 3 5 47.7 0.66
-3 3 5 45.66 0.71
-3 3 4 1.49 0.17
3 3 -4 1.19 0.34
-3 3 4 1.48 0.18
3 3 -3 49.27 1.68
-3 3 3 50.43 1.16
3 -3 -3 51.46 1.4
-3 3 2 0.87 0.15
3 3 -2 0.89 0.27
3 -3 -2 0.61 0.2
-3 3 2 0.61 0.17
3 3 -1 2.28 0.35
-3 3 1 2.17 0.32
3 -3 -1 1.99 0.35
-3 -3 1 1.78 0.36
3 3 0 9.23 0.72
3 -3 0 10.19 0.78
3 3 0 9.65 0.6
-3 3 0 10.01 0.69
-3 -3 0 10.44 0.73
3 3 1 9.01 0.71
-3 -3 -1 9.82 0.66
3 -3 1 9.32 0.79
3 3 1 9.44 0.57
3 3 2 51.05 1.21
-3 -3 -2 51.54 1.38
3 -3 2 51.92 1.93
3 3 2 50.06 1.6
3 -3 3 64.43 2.23
-3 -3 -3 63.95 1.42
-3 -3 -4 1.73 0.25
3 -3 4 1.45 0.42
-3 -3 -5 18.05 0.69
3 -3 5 17.87 1.3
3 3 6 3.83 0.33
3 -3 6 3.59 0.62
-3 -3 -6 3.78 0.32
3 -3 7 0.42 0.36
3 3 7 0.61 0.16
-3 -3 -7 0.81 0.2
3 -3 8 10.95 1.15
3 3 8 10.65 0.62
3 -3 9 1.07 0.43
3 -3 10 0.98 0.44
3 -3 11 3.12 0.75
3 -3 12 -0.11 0.3
-3 3 -12 0.06 0.35
3 -3 13 4.07 0.86
3 4 -12 0.78 0.41
3 4 -11 11.53 1.3
3 4 -10 -0.53 0.47
3 4 -9 0.71 0.39
3 4 -8 0.57 0.31
3 4 -7 21.56 1.5
3 4 -6 0.6 0.31
3 4 -5 3.64 0.62
-3 4 4 0.15 0.09
3 4 -4 -0.03 0.3
-3 4 4 0.36 0.15
-3 4 4 0.14 0.09
3 4 -3 0.1 0.23
-3 4 3 0.26 0.15
-3 4 2 0 0.11
3 4 -2 0.24 0.26
-3 4 1 25.37 0.96
3 4 -1 23.97 1.33
3 4 -1 25.72 1.16
3 -4 -1 25.24 1.34
3 4 0 35.4 1.57
3 -4 0 34.34 1.65
3 4 0 35.08 1.25
3 4 1 55.37 1.9
3 4 1 54.61 1.48
-3 -4 -1 54.62 1.78
3 -4 1 56.99 2.2
3 4 2 16.57 0.78
-3 -4 -2 15.98 0.9
3 -4 2 17.59 1.27
3 4 2 15.34 1.01
3 -4 3 0.34 0.28
-3 -4 -3 0.62 0.2
3 -4 4 2.24 0.55
-3 -4 -4 1.92 0.27
3 -4 5 0.56 0.35
3 -4 6 34.55 2.07
3 -4 7 3.03 0.69
3 -4 8 2.62 0.67
3 -4 9 3.71 0.77
-3 4 -9 4.32 0.84
3 -4 10 0.13 0.34
-3 4 -10 0.33 0.33
3 -4 11 0.42 0.47
-3 4 -11 0.13 0.33
3 5 -10 -0.36 0.48
3 5 -9 -0.14 0.39
3 5 -8 -0.1 0.39
3 5 -7 3.44 0.66
3 5 -6 0.09 0.32
3 5 -5 1.26 0.45
3 5 -4 30.32 1.67
3 5 -3 7.33 0.81
3 5 -2 3.13 0.52
-3 5 2 2.42 0.38
3 5 -2 1.85 0.45
-3 5 2 3.4 0.39
-3 5 1 5.37 0.52
3 5 -1 5.25 0.7
-3 5 1 5.31 0.61
3 5 -1 5.84 0.62
3 5 0 2.14 0.47
3 5 0 1.73 0.34
-3 5 0 2.04 0.41
3 5 1 1.24 0.44
3 5 1 1.28 0.32
-3 5 -1 1.26 0.37
3 5 2 14.65 0.81
-3 5 -2 15.03 1.21
3 5 2 14.94 1.12
-3 5 -3 1.33 0.43
-3 5 -4 19.76 1.54
-3 5 -5 4.57 0.78
-3 5 -6 0.21 0.35
-3 5 -7 0.12 0.3
-3 5 -8 6.44 1.02
-3 5 -9 -0.06 0.35
3 6 -8 14.76 1.48
3 6 -7 -0.18 0.34
3 6 -6 6.68 0.93
3 6 -5 0.87 0.44
3 6 -4 0.51 0.32
3 6 -3 0.59 0.35
3 6 -3 0.12 0.27
3 6 -2 -0.19 0.34
3 6 -2 0.5 0.35
3 6 -1 4.6 0.75
3 6 0 8.69 0.96
3 6 1 0.29 0.31
-3 6 -2 2.3 0.52
3 6 2 2.86 0.56
-3 6 -3 1.88 0.53
-3 6 -4 0.15 0.28
-3 6 -5 0.45 0.36
-3 6 -6 2.18 0.65
-3 6 -7 0.66 0.45
3 7 -3 0.88 0.44
3 7 -2 0.19 0.29
3 7 -1 0.97 0.46
3 7 0 0.04 0.27
3 7 1 1.56 0.48
4 0 -15 -0.01 0.26
4 0 -14 0.53 0.36
4 0 -13 0.17 0.27
4 0 -12 14.63 1.16
4 0 -11 0 0.26
4 0 -10 4.06 0.51
4 0 -10 4.27 0.59
4 0 -9 0.03 0.21
4 0 -9 0.09 0.19
4 0 -8 8.03 0.64
4 0 -8 8.1 0.69
4 0 -7 0.3 0.24
4 0 -6 7.78 0.59
-4 0 6 6.95 0.65
4 0 -5 -0.37 0.27
-4 0 5 -0.04 0.18
4 0 -4 105.35 1.89
-4 0 4 106.65 2.04
4 0 -3 -0.08 0.16
-4 0 3 0.13 0.17
4 0 -2 97.82 1.46
4 0 -2 103.07 1.72
-4 0 2 100.2 1.71
4 0 -1 0.03 0.1
-4 0 0 136.46 1.78
4 0 0 129.25 1.67
4 0 1 0.13 0.11
4 0 2 0.6 0.13
4 0 3 0.18 0.14
-4 0 -4 68.6 1.36
4 0 4 66.84 1.61
4 0 5 -0.08 0.16
4 0 6 102.9 2.37
4 0 7 0.17 0.2
4 0 8 4.32 0.57
4 0 9 0.1 0.19
4 0 10 13.88 1.13
4 0 11 0.17 0.28
4 0 12 11.33 1.13
4 0 13 0.04 0.25
-4 0 -15 0.06 0.32
4 1 -16 -0.06 0.32
4 1 -15 1.61 0.54
4 1 -14 1.87 0.53
4 1 -13 0.16 0.3
4 -1 -13 0.62 0.3
4 -1 -12 2.44 0.46
4 1 -12 1.31 0.44
4 -1 -11 14.76 0.94
4 1 -11 13.45 1.15
4 -1 -10 36.26 1.09
4 -1 -10 37.75 1.4
4 1 -10 35.71 1.78
4 -1 -9 6.76 0.59
4 1 -9 4.92 0.65
4 -1 -9 6.03 0.44
-4 1 8 30.63 1.36
4 -1 -8 31.19 0.97
4 1 -8 30.49 1.47
4 -1 -8 29.71 1.1
-4 1 7 60.26 1.76
4 1 -7 60.41 1.94
4 -1 -7 59.1 1.47
-4 1 6 71.19 1.76
4 1 -6 71.18 1.96
4 -1 -6 72.47 1.52
4 -1 -5 46.41 1.18
4 1 -5 45.64 1.48
-4 1 5 45.21 1.27
4 -1 -4 19.65 0.53
-4 1 4 19.79 0.76
4 1 -4 20.52 0.93
4 -1 -4 20.56 0.79
4 -1 -3 10.18 0.4
4 1 -3 9.53 0.61
-4 1 3 10.39 0.55
-4 1 2 214.17 2.47
4 1 -2 218.34 2.68
4 -1 -2 215.22 1.99
-4 1 1 71.82 0.92
4 1 -1 72.74 1.58
-4 1 1 71.71 1.17
-4 -1 1 73.76 1.57
4 1 -1 75.95 1.56
4 -1 -1 74.11 1.28
4 1 0 30.35 0.97
-4 1 0 30.47 0.8
-4 -1 0 30.97 0.99
4 1 0 30.67 0.94
4 -1 0 30.85 0.93
-4 -1 -1 0.14 0.14
4 -1 1 0.17 0.12
-4 -1 -2 32.64 1.01
4 -1 2 33.01 1.15
4 1 2 31.03 0.9
4 -1 3 51.62 1.57
4 1 3 51.19 1.1
4 -1 4 23.38 1.13
4 1 4 22.67 0.8
4 -1 5 6.78 0.67
4 1 5 7.27 0.5
4 -1 6 5.51 0.64
4 1 6 5.58 0.5
4 1 7 0.42 0.19
4 -1 7 0.67 0.31
4 1 8 13.01 0.88
4 -1 8 12.53 1.06
4 1 9 14.44 1
4 -1 9 14.1 1.17
4 -1 10 6.82 0.87
4 1 10 6.46 0.72
4 -1 11 1.32 0.46
4 1 11 1.15 0.37
4 -1 12 0.29 0.31
4 -1 13 0.21 0.39
4 -1 14 0.56 0.39
4 2 -15 0.54 0.41
4 2 -14 0.07 0.31
4 2 -13 0.11 0.31
4 2 -12 1.1 0.43
4 -2 -11 4.34 0.46
4 2 -11 4.27 0.7
4 -2 -10 4.94 0.46
4 2 -10 4.08 0.68
4 -2 -9 18.38 0.81
4 2 -9 18.69 1.33
4 -2 -8 12.65 0.63
4 2 -8 11.18 1
-4 2 8 12.68 0.76
4 -2 -7 14.94 0.66
4 2 -7 14.31 1.06
-4 2 7 14.93 0.77
4 -2 -6 2.93 0.2
-4 2 6 2.9 0.32
4 2 -6 3.22 0.5
4 -2 -5 70.75 1.14
-4 2 5 71.06 1.38
4 2 -5 69.56 2.05
-4 2 4 35.98 0.95
4 -2 -4 36.02 0.92
4 2 -4 36.55 1.4
-4 2 3 163 1.63
4 -2 -3 162.2 2.15
-4 2 3 157.68 2.11
4 2 -3 163.92 2.7
4 2 -2 34.85 1.18
-4 -2 2 34.82 1.36
4 -2 -2 35.33 1.09
-4 2 2 34.84 0.84
4 2 -1 21.07 1
-4 -2 1 22.05 1
4 -2 -1 21.49 0.91
4 2 -1 20.78 0.87
-4 2 1 21.47 0.74
4 2 0 23.29 1.03
-4 -2 0 24.16 0.98
4 -2 0 24.02 1.04
-4 2 0 23.27 0.86
4 2 0 21.87 0.91
-4 2 -1 0.55 0.19
4 -2 1 0.51 0.22
4 2 1 0.51 0.21
4 2 1 0.34 0.15
-4 -2 -1 0.34 0.16
4 -2 2 83.48 2.14
-4 -2 -2 84.2 1.7
-4 -2 -3 8.9 0.58
4 -2 3 9.17 0.77
-4 -2 -4 0.26 0.2
4 -2 4 0.32 0.25
4 2 5 0.08 0.13
-4 -2 -5 0.03 0.16
4 -2 5 0.2 0.25
4 2 6 0.21 0.14
4 -2 6 0.58 0.32
4 2 7 1.07 0.25
4 -2 7 1.32 0.43
4 -2 8 17.67 1.36
4 2 8 19.05 0.97
4 2 9 3.63 0.48
4 -2 9 4.4 0.75
4 -2 10 1.88 0.56
4 2 10 1.99 0.41
4 -2 11 0.64 0.41
4 -2 12 -0.04 0.28
4 -2 13 6.7 1.07
4 -2 14 4.69 0.93
4 3 -14 0.25 0.37
4 3 -13 4.42 0.81
4 3 -12 23.05 1.79
4 3 -11 0.25 0.37
4 3 -10 -0.19 0.36
4 3 -9 3.81 0.67
4 3 -8 -0.27 0.39
4 -3 -7 18.65 0.69
4 3 -7 18.51 1.31
-4 3 7 17.99 0.61
4 3 -6 0.22 0.27
-4 3 6 0.05 0.1
-4 3 5 24.23 0.71
4 -3 -5 23.79 0.82
4 3 -5 23.24 1.32
-4 3 4 0.06 0.07
4 -3 -4 0.16 0.13
-4 3 4 0.1 0.13
4 3 -4 0.26 0.27
4 -3 -3 0.51 0.19
-4 3 3 0.14 0.12
-4 3 2 0.27 0.14
-4 3 2 0.38 0.08
4 3 -2 0.24 0.21
4 -3 -2 0.05 0.13
4 3 -1 14.1 0.94
4 3 -1 14.22 0.81
4 -3 -1 15 0.92
-4 3 1 14.58 0.77
4 3 0 95.08 2.37
-4 -3 0 90.71 2.26
4 -3 0 91.65 2.38
4 3 0 90.65 1.94
4 3 1 30.78 1.31
4 3 1 31.11 1.08
-4 -3 -1 30.74 1.23
4 -3 1 32.2 1.5
-4 -3 -2 4.65 0.46
4 -3 2 4.36 0.6
4 3 2 4.22 0.54
-4 -3 -3 15.71 0.79
4 -3 3 15.53 1.13
4 -3 4 7.14 0.83
-4 -3 -4 7.2 0.53
-4 -3 -5 0.85 0.2
4 -3 5 0.87 0.39
4 3 6 3.66 0.36
-4 -3 -6 4.08 0.41
4 -3 6 4.15 0.7
4 -3 7 2.57 0.62
4 3 7 1.62 0.23
4 -3 8 2.12 0.57
4 3 8 2.52 0.35
4 -3 9 15.28 1.44
4 -3 10 -0.06 0.34
4 -3 11 3.55 0.77
4 -3 12 0.03 0.3
4 4 -12 -0.33 0.44
4 4 -11 6.34 0.99
4 4 -10 2.63 0.65
4 4 -9 1.59 0.5
4 4 -8 6.56 0.9
4 4 -7 0.08 0.29
4 4 -6 1.66 0.48
4 4 -5 6.34 0.78
4 4 -4 10.29 0.91
-4 4 4 9.88 0.56
4 4 -3 1.34 0.39
4 -4 -3 0.77 0.25
-4 4 3 1.01 0.24
4 -4 -2 21.04 1.2
4 4 -2 20.79 1.13
-4 4 2 20.8 0.68
4 4 -1 30.48 1.55
4 -4 -1 30.74 1.53
4 4 -1 31.2 1.3
4 4 0 17.79 1.16
4 -4 0 16.16 1.16
4 4 0 17.7 0.96
4 4 1 1.58 0.32
4 4 1 1.86 0.42
4 -4 1 1.59 0.38
-4 -4 -2 2.96 0.43
4 -4 2 3.04 0.57
4 4 2 3 0.37
4 4 2 3.03 0.49
4 -4 3 7.9 0.93
-4 -4 -3 7.59 0.64
4 -4 4 1.8 0.51
4 -4 5 16.59 1.41
4 4 6 0.4 0.23
4 -4 6 0.21 0.35
4 -4 7 13.93 1.38
4 -4 8 14.49 1.47
4 -4 9 2.53 0.71
4 -4 10 0.06 0.36
4 -4 11 4.29 0.94
4 5 -10 2.17 0.62
4 5 -9 0.47 0.35
4 5 -8 1.59 0.47
4 5 -7 0.59 0.42
4 5 -6 20.25 1.5
4 5 -5 0.44 0.36
4 5 -4 1.77 0.48
4 5 -3 0.18 0.26
4 5 -2 -0.06 0.29
4 5 -2 -0.16 0.29
4 5 -1 2.6 0.52
4 5 -1 2.55 0.44
4 5 0 10.61 0.99
4 -5 0 10.34 1.05
4 5 0 10.11 0.8
4 5 1 5.13 0.71
4 -5 1 6.1 0.84
4 5 1 5.63 0.58
4 -5 2 9.17 1.05
4 5 2 8.82 0.89
4 -5 3 1.29 0.5
4 -5 4 0.23 0.38
4 -5 5 0 0.29
4 -5 6 -0.08 0.33
4 -5 7 0.11 0.29
-4 5 -7 0.05 0.29
4 -5 8 1.01 0.46
-4 5 -8 0.19 0.28
-4 5 -9 0.4 0.41
4 6 -8 0.85 0.45
4 6 -7 0.09 0.33
4 6 -6 -0.02 0.29
4 6 -5 0.8 0.41
4 6 -4 1.31 0.46
4 6 -3 -0.07 0.35
4 6 -3 -0.05 0.25
4 6 -2 24.32 1.68
4 6 -2 23.59 1.4
4 6 -1 0.58 0.37
4 6 0 1.85 0.48
4 6 1 -0.12 0.25
-4 6 -2 0.23 0.24
-4 6 -3 0.42 0.38
-4 6 -4 4.25 0.79
-4 6 -5 0.27 0.26
-4 6 -6 1.15 0.5
-4 6 -7 0.21 0.32
4 7 -1 1.03 0.45
4 7 0 0.92 0.43
4 7 1 2.29 0.61
5 0 -15 0.15 0.32
5 0 -14 0.56 0.34
5 0 -13 0.49 0.37
5 0 -12 20.56 1.31
5 0 -11 0.36 0.3
5 0 -10 20.67 1.19
5 0 -9 0.13 0.16
5 0 -9 0.1 0.27
5 0 -8 2.1 0.42
5 0 -7 -0.32 0.32
5 0 -6 71.35 1.79
5 0 -5 -0.08 0.21
-5 0 5 0.01 0.16
5 0 -4 15.19 0.78
-5 0 4 15.44 0.83
5 0 -3 0.07 0.18
5 0 -2 82.58 1.46
5 0 -2 86.41 1.72
5 0 -1 0.01 0.1
5 0 -1 0.49 0.21
-5 0 0 4.97 0.41
5 0 0 5.91 0.4
-5 0 -1 0.17 0.16
5 0 1 0.06 0.11
5 0 2 73.11 1.5
5 0 3 0.21 0.16
5 0 4 52 1.51
5 0 5 0.09 0.17
5 0 6 2.43 0.41
5 0 7 -0.21 0.24
5 0 8 7.62 0.8
5 0 9 0.25 0.28
5 0 10 8.99 0.96
5 0 11 0.02 0.21
5 0 12 2.25 0.58
5 0 13 0.16 0.31
5 1 -16 2.16 0.66
5 1 -15 3.62 0.73
5 1 -14 1.39 0.51
5 1 -13 0.75 0.41
5 -1 -13 0.01 0.3
5 -1 -12 -0.55 0.3
5 1 -12 0.2 0.32
5 -1 -11 23.46 1.18
5 1 -11 23.44 1.49
5 -1 -10 34.76 1.4
5 1 -10 35.19 1.71
5 -1 -9 21.09 1.05
5 -1 -9 21.13 0.92
5 1 -9 22.42 1.31
5 1 -8 0.02 0.27
5 -1 -8 0.01 0.19
5 -1 -7 10.14 0.67
-5 1 7 10.4 0.77
5 1 -7 9.95 0.82
5 -1 -6 0.8 0.24
5 1 -6 0.9 0.34
-5 1 6 0.63 0.21
5 -1 -5 15.89 0.78
5 1 -5 14.56 0.86
-5 1 5 15.08 0.8
5 -1 -5 15.16 0.55
5 -1 -4 0.92 0.18
5 -1 -4 0.9 0.22
-5 1 4 0.72 0.18
5 1 -4 0.44 0.22
5 -1 -3 44.96 0.74
5 -1 -3 43.36 0.95
-5 1 3 45.7 1.27
5 1 -3 44.19 1.36
5 1 -2 92.6 1.93
5 1 -2 89.11 1.9
-5 1 2 86.38 1.86
5 -1 -2 90.85 1.44
5 1 -1 12.59 0.7
-5 1 1 12.8 0.48
-5 1 1 12.79 0.57
5 1 -1 11.79 0.7
5 -1 -1 12.54 0.58
-5 1 0 48.48 1.1
5 -1 0 49.75 1.26
5 1 0 49.24 1.33
-5 -1 -1 2.21 0.34
5 -1 1 2.39 0.32
-5 -1 -2 1.98 0.31
5 -1 2 2.25 0.35
5 1 3 9.61 0.54
5 -1 3 9.42 0.71
5 -1 4 51.32 1.75
5 1 4 48.89 1.27
5 -1 5 15.17 1.02
5 1 5 14.08 0.74
5 -1 6 13.82 1.04
5 1 6 13.8 0.83
5 -1 7 22.82 1.37
5 1 7 23.44 1.18
5 -1 8 37.11 1.84
5 1 8 36.42 1.55
5 -1 9 4.23 0.69
5 1 9 5.06 0.63
5 1 10 2.54 0.51
5 -1 10 2.14 0.53
5 -1 11 7.42 0.97
5 1 11 7.7 0.87
5 -1 12 3.51 0.73
5 -1 13 5.01 0.86
5 -1 14 1.51 0.59
5 2 -15 1.04 0.52
5 2 -14 0.34 0.39
5 2 -13 1.59 0.51
5 2 -12 9.39 1.07
5 -2 -11 0.8 0.28
5 2 -11 0.56 0.38
5 -2 -10 2.5 0.37
5 2 -10 2.39 0.55
5 -2 -9 0.21 0.18
5 2 -9 0.12 0.27
-5 2 9 0.18 0.18
5 -2 -8 16.76 0.79
5 2 -8 15.76 1.15
-5 2 8 15.9 0.92
5 -2 -8 14.13 0.41
5 2 -7 11.35 0.95
-5 2 7 11.03 0.72
5 -2 -7 10.19 0.41
5 2 -6 5.52 0.66
-5 2 6 5.59 0.48
5 -2 -6 5.06 0.33
5 2 -5 8.47 0.75
5 -2 -5 8 0.45
-5 2 5 8.19 0.54
-5 2 4 6.89 0.49
5 2 -4 6.77 0.64
5 -2 -4 6.6 0.45
5 2 -3 6.72 0.6
5 -2 -3 7.52 0.51
-5 2 3 8.17 0.45
-5 2 3 7.41 0.55
-5 2 2 49.83 1.08
5 2 -2 48.45 1.63
5 2 -2 48.89 1.49
5 -2 -2 48.59 1.37
-5 2 1 134.37 1.92
5 2 -1 134.26 2.63
-5 -2 1 135.3 2.61
5 2 -1 136.09 2.42
5 -2 -1 132.98 2.41
5 2 0 6.17 0.56
5 -2 0 6.27 0.57
5 2 0 5.84 0.54
-5 -2 0 6.77 0.58
-5 2 0 6.3 0.46
-5 -2 -1 21.86 0.98
5 -2 1 21.9 1.12
5 2 1 23.19 1.05
5 -2 2 0.32 0.22
-5 -2 -2 0.13 0.22
5 -2 3 70.17 2.18
-5 -2 -3 64.09 1.71
5 2 4 36.75 1.08
5 -2 4 36.95 1.66
-5 -2 -4 36.33 1.28
5 2 5 32.28 1.05
5 -2 5 31.94 1.64
5 2 6 0.25 0.13
5 -2 6 1.41 0.41
5 2 7 0.26 0.2
5 -2 7 0.27 0.31
5 -2 8 10.91 1.12
5 2 8 11.08 0.8
5 -2 9 21.36 1.62
5 2 9 21.37 1.18
5 -2 10 5.17 0.86
5 2 10 5.39 0.65
5 -2 11 5.72 0.95
5 -2 12 0.17 0.35
5 -2 13 1.3 0.51
5 3 -13 0.07 0.37
5 3 -12 2.11 0.61
5 3 -11 0.4 0.35
5 3 -10 0.74 0.38
5 3 -9 8.02 0.95
5 3 -8 0.2 0.28
5 3 -7 23.94 1.46
-5 3 6 1.52 0.25
5 -3 -6 1.43 0.21
5 3 -6 1.44 0.44
-5 3 5 0.2 0.15
5 3 -5 0.28 0.3
5 -3 -5 0.19 0.13
-5 3 4 1.24 0.19
5 3 -4 1.7 0.44
-5 3 4 1.15 0.24
5 -3 -4 1.08 0.25
-5 3 3 24.03 0.82
5 3 -3 22.4 1.15
5 -3 -3 25 1.11
-5 3 3 25.23 0.97
5 3 -2 0.85 0.23
5 3 -2 0.94 0.3
-5 3 2 1.07 0.19
5 -3 -2 1.16 0.31
5 3 -1 35.9 1.55
5 3 -1 36.39 1.35
5 -3 -1 37.63 1.5
5 3 0 0.96 0.31
5 3 0 0.95 0.33
5 -3 0 1.06 0.33
5 -3 1 18.38 1.16
5 3 1 17.2 0.89
5 3 1 19.06 1.09
-5 -3 -2 0.11 0.18
5 -3 2 0.1 0.24
-5 -3 -3 3.36 0.42
5 -3 3 2.63 0.51
-5 -3 -4 2.03 0.31
5 -3 4 2.48 0.51
-5 -3 -5 17.09 0.89
5 3 5 18.42 0.84
5 -3 5 17.56 1.36
5 3 6 69.92 1.59
-5 -3 -6 66.47 1.76
5 -3 6 72.41 2.85
5 -3 7 5.48 0.86
5 3 7 4.12 0.42
5 3 8 1.51 0.3
5 -3 8 1.81 0.52
5 -3 9 -0.19 0.3
5 -3 10 3.18 0.73
5 -3 11 0.74 0.43
5 -3 12 0.15 0.32
5 4 -12 1.06 0.49
5 4 -11 6.38 0.97
5 4 -10 -0.01 0.34
5 4 -9 1.09 0.46
5 4 -8 1.49 0.48
5 4 -7 3.27 0.64
5 4 -6 0.65 0.37
5 -4 -5 21.46 1.03
5 4 -5 20.3 1.31
5 -4 -4 1.98 0.36
5 4 -4 2.44 0.48
5 -4 -3 3.83 0.51
5 4 -3 2.56 0.42
5 4 -2 3.2 0.54
5 -4 -2 4.07 0.56
5 4 -2 3.37 0.49
5 4 -1 40.61 1.84
5 4 -1 40.33 1.56
5 -4 -1 43.24 1.87
5 4 0 6.25 0.62
5 4 0 6.5 0.76
5 -4 0 5.54 0.75
5 -4 1 24.55 1.52
5 4 1 22.21 1.32
5 4 1 22.35 1.1
5 -4 2 7.39 0.88
5 4 2 6.18 0.7
5 -4 3 8.28 1
5 -4 4 14.99 1.34
5 -4 5 2.98 0.66
5 4 6 8.83 0.62
5 -4 6 8.67 1.1
5 -4 7 5.36 0.97
5 -4 8 4.73 0.87
5 -4 9 1.81 0.6
5 -4 10 3.33 0.81
5 5 -10 -0.06 0.29
5 5 -9 1.32 0.5
5 5 -8 9.47 1.12
5 5 -7 3.26 0.69
5 5 -6 0.44 0.39
5 5 -5 1.47 0.52
5 5 -4 4.1 0.65
5 5 -3 -0.32 0.34
5 5 -3 -0.29 0.41
5 5 -2 -0.13 0.38
5 -5 -2 0.49 0.35
5 5 -2 0.26 0.25
5 5 -1 0.37 0.29
5 -5 -1 0.33 0.27
5 5 -1 0.42 0.3
5 5 0 7.84 0.89
5 5 0 8.21 0.76
5 -5 0 8.88 1.01
5 5 1 1.49 0.47
5 -5 1 1.67 0.5
5 5 1 1.3 0.36
5 -5 2 5.46 0.86
5 -5 3 0.65 0.42
5 -5 4 -0.32 0.38
5 -5 5 0.2 0.37
5 -5 6 6.08 1.01
5 -5 7 1.5 0.56
5 -5 8 0.59 0.42
5 6 -7 0.18 0.38
5 6 -6 3.85 0.76
5 6 -5 0.51 0.35
5 6 -4 23.44 1.75
5 6 -4 21.29 1.49
5 6 -3 0.52 0.33
5 6 -3 0.42 0.31
5 6 -2 0.1 0.28
5 6 -2 0.08 0.22
5 6 -1 0.12 0.28
5 6 0 4.01 0.7
5 6 1 1.36 0.48
-5 6 -2 4.99 0.81
-5 6 -3 0.1 0.25
-5 6 -4 0.28 0.28
-5 6 -5 0 0.27
-5 6 -6 0.05 0.33
6 0 -15 0.28 0.3
6 0 -14 2.6 0.58
6 0 -13 0.55 0.34
6 0 -12 1.42 0.46
6 0 -11 -0.03 0.32
6 0 -10 18.66 1.15
6 0 -9 -0.36 0.35
6 0 -8 6.63 0.66
6 0 -7 -0.07 0.26
6 0 -6 15.61 0.92
6 0 -5 0.13 0.24
6 0 -4 58.14 1.7
6 0 -3 -0.09 0.23
6 0 -3 -0.06 0.14
6 0 -2 6.74 0.45
6 0 -1 0.61 0.23
-6 0 0 34.1 1.14
6 0 0 35.2 1.02
6 0 1 0.34 0.16
-6 0 -1 1.06 0.24
6 0 2 33.07 1.09
6 0 3 0.18 0.16
6 0 4 1.7 0.33
6 0 5 0.14 0.22
6 0 6 26.8 1.34
6 0 7 0.14 0.2
6 0 8 40.65 1.86
6 0 9 0.12 0.27
6 0 10 1.04 0.37
6 0 11 -0.18 0.29
6 0 12 2.7 0.64
6 0 13 0.05 0.28
6 1 -16 0.65 0.41
6 1 -15 0.34 0.34
6 1 -14 2.99 0.63
6 -1 -13 0.02 0.24
6 1 -13 0.29 0.37
6 1 -12 15.3 1.26
6 -1 -12 16.19 1.07
6 -1 -11 0.26 0.26
6 1 -11 0.56 0.36
6 -1 -10 0.45 0.24
6 1 -10 0.45 0.34
6 1 -9 1.32 0.4
6 -1 -9 1.37 0.35
6 -1 -8 1.05 0.32
6 1 -8 2.05 0.49
6 1 -7 4.62 0.54
6 -1 -7 5.03 0.55
6 -1 -6 0.52 0.27
6 1 -6 0.22 0.3
6 -1 -5 40.1 0.97
6 1 -5 38.2 1.44
-6 1 5 38.64 1.34
6 -1 -5 39.58 1.33
6 -1 -4 73.58 1.17
6 -1 -4 74.25 1.33
6 1 -4 75.22 1.96
-6 1 4 74.89 1.81
6 -1 -3 232.25 2.5
-6 1 3 236.16 3.17
6 1 -3 225.88 3.33
6 1 -2 6.47 0.62
6 1 -2 7.69 0.59
-6 1 2 7.82 0.63
6 -1 -2 6.67 0.45
6 1 -1 29.91 1.13
-6 1 1 30.39 0.88
6 1 -1 28.88 1.16
6 -1 -1 29.16 0.97
6 1 0 0.89 0.24
6 -1 0 1 0.24
-6 1 0 1.35 0.22
6 -1 1 23.55 1.03
6 1 2 72.39 1.58
6 -1 2 73.45 1.95
6 1 3 70.94 1.62
6 -1 3 68.72 2.03
6 -1 4 24.81 1.29
6 1 4 21.65 0.94
6 -1 5 1.34 0.34
6 1 5 1.03 0.24
6 -1 6 11.23 0.98
6 1 6 11.24 0.79
6 -1 7 37.62 1.87
6 1 7 37.82 1.54
6 -1 8 16.53 1.28
6 1 8 16.07 1.11
6 1 9 1.34 0.37
6 -1 9 1.26 0.43
6 1 10 0.78 0.36
6 -1 10 0.46 0.34
6 1 11 2.5 0.52
6 -1 11 2.04 0.55
6 -1 12 0.82 0.42
6 -1 13 0.41 0.44
6 -1 14 0.43 0.33
6 2 -15 0.13 0.36
6 2 -14 2.77 0.69
6 2 -13 0.98 0.49
6 2 -12 4.1 0.75
6 -2 -11 2.2 0.38
6 2 -11 2.71 0.62
6 -2 -10 0.06 0.17
6 2 -10 0.38 0.33
6 -2 -9 1.62 0.31
6 2 -9 1.94 0.5
6 -2 -9 1.73 0.17
6 2 -8 5.16 0.72
-6 2 8 5.27 0.58
6 -2 -8 4.79 0.31
6 2 -7 14.4 1.07
-6 2 7 13.87 0.86
6 -2 -7 14.16 0.57
6 2 -6 19.6 1.17
-6 2 6 20.85 0.97
6 -2 -6 21.75 0.76
-6 2 5 6.34 0.53
6 2 -5 5.03 0.56
6 -2 -5 6.18 0.44
-6 2 4 2.04 0.33
6 2 -4 1.98 0.38
6 -2 -4 1.98 0.29
6 2 -3 5.51 0.61
-6 2 3 5.93 0.56
6 -2 -3 5.71 0.49
6 2 -2 123.91 2.67
-6 2 2 122.21 1.87
6 -2 -2 121.55 2.34
6 2 -1 38.17 1.46
6 2 -1 38.06 1.39
6 -2 -1 37.97 1.37
-6 2 1 36.27 0.76
6 2 0 0.68 0.26
6 2 0 0.46 0.21
6 -2 0 0.57 0.25
6 -2 1 78.97 2.19
6 -2 2 4.27 0.57
6 2 3 1.65 0.35
6 -2 3 1.31 0.41
6 2 4 8.58 0.58
6 -2 4 8.24 0.85
6 -2 5 1.41 0.45
6 2 5 1.39 0.27
6 -2 6 4.78 0.72
6 2 6 4.24 0.45
6 2 7 0.09 0.18
6 -2 7 -0.07 0.24
6 -2 8 0.6 0.39
6 2 8 0.82 0.26
6 2 9 2.19 0.44
6 -2 9 2.13 0.6
6 2 10 0.17 0.2
6 -2 10 0.64 0.43
6 -2 11 -0.02 0.27
6 -2 12 0.49 0.43
6 3 -13 1.24 0.52
6 3 -12 4.36 0.8
6 3 -11 6.2 0.91
6 3 -10 1.73 0.56
6 3 -9 2.62 0.62
6 3 -8 0.59 0.38
6 3 -7 4.36 0.67
6 -3 -7 3.38 0.32
-6 3 6 1.56 0.3
6 3 -6 2.06 0.5
6 -3 -6 1.01 0.21
-6 3 5 5.87 0.5
6 3 -5 5.11 0.63
6 -3 -5 5.95 0.51
6 -3 -4 0.66 0.24
-6 3 4 0.94 0.22
-6 3 4 0.35 0.21
6 -3 -3 8.21 0.68
6 3 -3 7.27 0.72
-6 3 3 7.72 0.62
6 -3 -2 0.92 0.31
6 3 -2 1.21 0.39
6 3 -2 0.25 0.27
6 3 -1 17.12 1.13
6 -3 -1 17.42 1.07
6 3 -1 15.51 1
6 3 0 23.26 1.28
6 3 0 23.88 1.16
6 -3 0 23.44 1.3
6 -3 1 5.58 0.69
6 3 1 4.67 0.62
6 -3 2 0.04 0.23
6 -3 3 25.33 1.55
6 -3 4 12.42 1.15
6 3 5 8.19 0.62
6 -3 5 8.36 0.98
6 -3 6 1.44 0.48
6 3 6 1.33 0.29
6 -3 7 0.22 0.37
6 3 7 -0.08 0.21
6 3 8 1.17 0.3
6 -3 8 1.21 0.48
6 -3 9 3.73 0.79
6 -3 10 0.02 0.34
6 -3 11 4.59 0.9
6 4 -11 1.15 0.51
6 4 -10 0.11 0.28
6 4 -9 6.1 0.89
6 4 -8 0.36 0.39
6 4 -7 4.66 0.74
6 4 -6 8.67 0.92
6 -4 -5 4.23 0.5
6 4 -5 3.8 0.6
6 -4 -4 4.73 0.56
6 4 -4 3.52 0.58
6 4 -3 3.75 0.57
6 4 -3 4.02 0.62
6 -4 -3 5.28 0.62
6 4 -2 0.17 0.32
6 4 -2 0.89 0.33
6 -4 -2 0.7 0.29
6 4 -1 10.21 0.87
6 4 -1 10.73 0.99
6 -4 -1 10.58 0.97
6 4 0 41.78 1.88
6 -4 0 42.13 1.98
6 4 0 42.19 1.63
6 4 1 6.51 0.63
6 -4 1 7.37 0.88
6 4 1 7.77 0.84
6 -4 2 5.69 0.8
6 -4 3 3.71 0.7
6 -4 4 10.28 1.14
6 4 5 6.2 0.58
6 -4 5 5.97 0.93
6 4 6 4.12 0.46
6 -4 6 3.79 0.79
6 -4 7 7.5 1.1
6 -4 8 0.24 0.38
6 -4 9 2.28 0.67
6 5 -9 3.38 0.7
6 5 -8 1.83 0.58
6 5 -7 0.39 0.38
6 5 -6 2.4 0.58
6 5 -5 0.07 0.32
6 5 -4 1.89 0.48
6 5 -4 2.26 0.53
6 5 -3 0.92 0.36
6 -5 -3 1.82 0.45
6 5 -3 1.26 0.43
6 5 -2 22.75 1.58
6 5 -2 21.74 1.34
6 -5 -2 22.62 1.5
6 5 -1 2.68 0.54
6 5 -1 2.05 0.52
6 -5 -1 2.63 0.59
6 5 0 0.41 0.34
6 -5 0 0.25 0.3
6 5 0 0.28 0.31
6 5 1 0.55 0.37
6 -5 1 0.66 0.43
6 5 1 0.31 0.25
6 -5 2 11.87 1.28
6 -5 3 1.46 0.55
6 -5 4 8.16 1.12
6 -5 5 0.15 0.28
6 -5 6 1.38 0.55
6 -5 7 2.44 0.7
6 6 -7 0.95 0.49
6 6 -6 1.86 0.53
6 6 -5 0.89 0.4
6 6 -5 1.15 0.44
6 6 -4 1.65 0.52
6 6 -4 1.98 0.54
6 6 -3 0.29 0.29
6 6 -3 0.04 0.27
6 6 -2 3.55 0.72
6 6 -1 0.67 0.39
6 6 0 5.16 0.84
6 6 1 0.22 0.3
6 -6 1 0.58 0.37
6 -6 2 1.67 0.65
6 -6 3 1.6 0.58
6 -6 4 0.09 0.32
7 0 -15 -0.47 0.41
7 0 -14 0.29 0.29
7 0 -13 -0.16 0.36
7 0 -12 2.67 0.56
7 0 -11 0.12 0.27
7 0 -10 38.2 1.69
7 0 -9 0.05 0.28
7 0 -8 19.42 1.14
7 0 -7 0.05 0.26
7 0 -6 1.33 0.39
7 0 -5 -0.07 0.25
7 0 -4 6.87 0.53
7 0 -4 7.38 0.68
7 0 -3 0.11 0.16
7 0 -3 -0.14 0.22
7 0 -2 67.69 1.56
7 0 -2 67.58 1.51
7 0 -1 0.84 0.29
7 0 0 3.65 0.39
-7 0 0 2.59 0.36
7 0 1 -0.04 0.13
7 0 2 57.46 1.59
7 0 3 -0.09 0.22
7 0 4 43.6 1.57
7 0 5 0.06 0.19
7 0 6 11.59 0.95
7 0 7 -0.02 0.21
7 0 8 19.96 1.39
7 0 9 0.22 0.33
7 0 10 1.97 0.51
7 0 11 0.27 0.27
7 0 12 2.28 0.59
7 1 -16 -0.2 0.31
7 1 -15 0.78 0.39
7 1 -14 0.33 0.33
7 -1 -13 4.17 0.62
7 1 -13 4.46 0.73
7 1 -12 6.56 0.85
7 -1 -12 6.73 0.75
7 -1 -11 0.64 0.32
7 1 -11 0.22 0.34
7 -1 -10 3.6 0.53
7 1 -10 3.53 0.57
7 -1 -9 4.7 0.59
7 1 -9 3.78 0.59
7 -1 -8 7.53 0.72
7 1 -8 6.28 0.72
7 -1 -7 20.74 1.08
7 -1 -7 21.69 0.8
7 1 -7 20.37 1.21
7 -1 -6 71.04 1.42
7 1 -6 68.85 2.09
7 -1 -6 68.85 1.87
7 -1 -5 3.7 0.31
7 -1 -5 4.57 0.4
7 1 -5 3.85 0.56
7 -1 -4 5.7 0.43
7 1 -4 5.5 0.62
7 -1 -4 5.33 0.35
7 -1 -3 35.04 1.09
7 1 -3 38.6 1.39
7 1 -3 35.91 1.42
7 -1 -2 0.21 0.14
7 1 -2 0.32 0.18
7 1 -2 -0.03 0.3
7 1 -1 0.3 0.2
-7 1 1 0.18 0.11
7 -1 -1 -0.08 0.17
-7 1 0 15.39 0.74
7 -1 0 15.43 0.82
7 1 1 19.38 0.89
7 -1 1 17.74 0.96
7 1 2 9.23 0.63
7 -1 2 8.71 0.72
7 1 3 5.92 0.51
7 -1 3 5.39 0.61
7 -1 4 3.08 0.5
7 1 4 2.88 0.37
7 -1 5 8.1 0.83
7 1 5 7.29 0.65
7 -1 6 17.86 1.27
7 1 6 17.3 1.02
7 -1 7 3.71 0.67
7 1 7 3.56 0.54
7 -1 8 0.18 0.27
7 1 8 0.22 0.26
7 -1 9 0.5 0.33
7 1 9 0.36 0.28
7 1 10 1.75 0.46
7 -1 10 2.11 0.56
7 1 11 2.72 0.56
7 -1 11 2.43 0.62
7 -1 12 2.09 0.62
7 -1 13 1.03 0.47
7 2 -14 0.45 0.4
7 2 -13 3.64 0.73
7 2 -12 0.67 0.45
7 -2 -11 1.12 0.29
7 2 -11 1.54 0.54
7 -2 -10 4.05 0.5
7 2 -10 3.49 0.68
7 2 -9 16.21 1.23
7 -2 -9 15.05 0.59
7 -2 -8 0.24 0.13
7 2 -8 -0.22 0.38
7 -2 -7 0.86 0.19
7 2 -7 0.08 0.36
7 -2 -6 1.05 0.21
7 2 -6 0.57 0.29
7 2 -5 16.92 1.11
7 -2 -5 18.69 0.82
7 2 -4 16.06 1.07
7 -2 -4 16.51 0.81
7 2 -3 104 2.63
7 2 -3 107.85 2.58
7 -2 -3 103.57 2.13
7 2 -2 0.29 0.23
7 2 -2 1.16 0.41
7 -2 -2 1.11 0.3
7 2 -1 50.75 1.73
-7 2 1 48.06 1.02
7 2 -1 48.31 1.65
7 -2 -1 47.02 1.66
7 -2 0 4.21 0.53
7 2 0 4.06 0.52
7 -2 1 7.64 0.74
7 -2 2 0.52 0.26
7 2 3 4.82 0.53
7 -2 3 4.14 0.61
7 2 4 5.74 0.52
7 -2 4 5.75 0.76
7 -2 5 2.24 0.49
7 2 5 1.66 0.31
7 -2 6 8.48 0.97
7 2 6 7.52 0.63
7 -2 7 6.64 0.9
7 2 7 6.35 0.64
7 -2 8 1.76 0.55
7 2 8 1.33 0.36
7 2 9 0.49 0.26
7 -2 9 0.58 0.4
7 2 10 0.52 0.27
7 -2 10 0.73 0.43
7 -2 11 4.61 0.89
7 -2 12 0.45 0.42
7 3 -13 1.16 0.54
7 3 -12 0.98 0.46
7 3 -11 1.17 0.49
7 3 -10 0.73 0.44
7 3 -9 0.79 0.48
7 3 -8 2.61 0.52
7 3 -7 9.55 0.95
7 -3 -7 9.83 0.62
7 -3 -6 1.9 0.33
7 3 -6 1.15 0.4
7 3 -5 23.78 1.38
7 -3 -5 24.56 1.11
7 3 -4 10.73 0.93
7 -3 -4 11.39 0.81
7 3 -3 2.78 0.5
7 3 -3 2.97 0.53
7 -3 -3 3.25 0.47
7 3 -2 28.91 1.52
7 -3 -2 28.64 1.4
7 3 -2 27.55 1.36
7 3 -1 26.34 1.41
7 3 -1 25.63 1.34
7 -3 -1 26.76 1.4
-7 3 1 23.83 0.58
7 -3 0 1.17 0.38
7 3 0 1.53 0.41
7 3 0 0.7 0.29
7 -3 1 24.18 1.45
7 3 1 25.23 1.35
7 -3 2 1.84 0.47
7 -3 3 3.66 0.64
7 3 4 10.64 0.74
7 -3 4 10.21 1.09
7 3 5 0.7 0.26
7 -3 5 0.22 0.3
7 3 6 0.18 0.15
7 -3 6 0.28 0.3
7 -3 7 4.15 0.81
7 3 7 3.19 0.43
7 3 8 0.93 0.29
7 -3 8 1.03 0.5
7 -3 9 3.4 0.77
7 -3 10 0.16 0.35
7 4 -11 2.85 0.69
7 4 -10 4.46 0.81
7 4 -9 0.77 0.48
7 4 -8 6.69 0.9
7 4 -7 5.6 0.76
7 4 -6 0.33 0.3
7 -4 -5 0.27 0.2
7 4 -5 0.08 0.31
7 4 -4 5.2 0.75
7 -4 -4 5.34 0.63
7 4 -4 5.67 0.72
7 4 -3 3.78 0.6
7 4 -3 2.92 0.59
7 -4 -3 3.92 0.58
7 4 -2 1.85 0.47
7 4 -2 2.12 0.51
7 -4 -2 2.12 0.45
7 4 -1 0.38 0.29
7 4 -1 0.71 0.34
7 -4 -1 0.2 0.24
7 4 0 2.51 0.55
7 4 0 1.89 0.43
7 -4 0 2 0.48
7 4 1 0.8 0.34
7 -4 1 0.38 0.32
7 -4 2 2.15 0.56
7 -4 3 3.21 0.69
7 -4 4 -0.23 0.37
7 4 5 6.7 0.63
7 -4 5 5.37 0.9
7 4 6 8.5 0.66
7 -4 6 7.94 1.13
7 -4 7 0.77 0.5
7 -4 8 1.48 0.59
7 5 -9 0.75 0.49
7 5 -8 5 0.85
7 5 -7 0.2 0.33
7 5 -6 0.4 0.3
7 5 -5 0.13 0.32
7 5 -5 0.33 0.32
7 5 -4 5.23 0.83
7 5 -4 4.84 0.73
7 5 -3 2.14 0.52
7 -5 -3 2.24 0.49
7 5 -3 2.65 0.56
7 5 -2 4.04 0.72
7 -5 -2 4.17 0.71
7 5 -2 4.95 0.72
7 5 -1 1.07 0.47
7 -5 -1 0.82 0.43
7 5 -1 0.06 0.24
7 -5 0 6.84 0.95
7 5 0 7.14 0.78
7 5 0 6.94 0.87
7 5 1 1.64 0.5
7 -5 1 0.89 0.45
7 -5 2 3.57 0.75
7 -5 3 0.82 0.44
7 -5 4 0.38 0.38
7 -5 5 0.38 0.37
7 -5 6 1.39 0.58
7 6 -6 0.01 0.37
7 6 -5 0.9 0.43
7 6 -4 4.61 0.76
7 6 -3 0.36 0.42
7 6 -3 0.48 0.38
7 6 -2 6.25 0.95
7 6 -1 0.1 0.35
7 6 0 2.69 0.63
7 -6 0 2.59 0.64
7 -6 1 0.81 0.46
7 -6 2 0.15 0.4
7 -6 3 0.23 0.33
8 0 -15 0.13 0.32
8 0 -14 0.92 0.43
8 0 -13 0.02 0.29
8 0 -12 54.89 2.26
8 0 -11 0.13 0.31
8 0 -10 3.56 0.61
8 0 -9 0.06 0.28
8 0 -8 22.42 1.31
8 0 -7 -0.01 0.27
8 0 -6 12.49 0.93
8 0 -5 -0.13 0.2
8 0 -5 -0.26 0.29
8 0 -4 46.22 1.41
8 0 -4 45.44 1.7
8 0 -3 1.59 0.37
8 0 -3 0.01 0.17
8 0 -2 2.32 0.4
8 0 -1 0.39 0.24
8 0 0 35.48 1.23
8 0 1 -0.23 0.21
8 0 2 28.77 1.2
8 0 3 0.05 0.19
8 0 4 7.69 0.73
8 0 5 -0.06 0.2
8 0 6 14.55 1.11
8 0 7 0.02 0.26
8 0 8 23.41 1.56
8 0 9 0.01 0.24
8 0 10 7.11 0.95
8 0 11 -0.02 0.24
8 0 12 3.45 0.75
8 1 -15 0.27 0.37
8 1 -14 1.34 0.47
8 -1 -13 1.28 0.44
8 1 -13 0.96 0.42
8 -1 -12 6.64 0.77
8 1 -12 5.6 0.8
8 -1 -11 0.44 0.34
8 1 -11 0.01 0.31
8 -1 -10 0.69 0.32
8 1 -10 0.87 0.38
8 -1 -9 0.89 0.36
8 1 -9 0.33 0.33
8 -1 -8 5.43 0.66
8 -1 -8 6.87 0.5
8 1 -8 6.05 0.75
8 -1 -7 0.72 0.26
8 -1 -7 -0.14 0.27
8 1 -7 0.2 0.35
8 -1 -6 0.02 0.12
8 1 -6 0.12 0.31
8 -1 -5 6.28 0.42
8 -1 -5 6.99 0.51
8 1 -5 5.98 0.69
8 -1 -4 2.76 0.35
8 1 -4 2.18 0.38
8 1 -4 2.49 0.51
8 1 -3 0.44 0.24
8 -1 -3 0.48 0.18
8 1 -3 0.51 0.31
8 1 -2 8.99 0.71
8 -1 -2 9.2 0.62
-8 1 1 0.29 0.14
8 -1 -1 0.2 0.17
-8 1 0 0.54 0.22
8 -1 0 0.94 0.27
8 1 1 18.74 0.93
8 -1 1 16.43 0.99
8 1 2 2.41 0.38
8 -1 2 1.98 0.42
8 1 3 0 0.18
8 -1 3 0.3 0.28
8 -1 4 0.2 0.25
8 1 4 0.06 0.18
8 1 5 0.52 0.22
8 -1 5 0.63 0.33
8 -1 6 6.62 0.84
8 1 6 6.48 0.68
8 -1 7 1.67 0.45
8 1 7 1.57 0.4
8 -1 8 15.12 1.35
8 1 8 13.86 1.14
8 -1 9 0.18 0.3
8 1 9 0.08 0.22
8 1 10 0.06 0.24
8 -1 10 -0.01 0.23
8 1 11 1.05 0.46
8 -1 11 1.53 0.56
8 -1 12 5.7 0.98
8 2 -14 -1.25 0.51
8 2 -13 1.88 0.55
8 2 -12 -0.4 0.44
8 2 -11 3.43 0.65
8 2 -10 1.88 0.49
8 2 -9 1.94 0.51
8 -2 -8 0.71 0.18
8 2 -8 -0.04 0.34
8 2 -7 8.35 0.88
8 -2 -7 9.07 0.57
8 2 -6 2.49 0.54
8 -2 -6 2.7 0.34
8 2 -5 12.24 0.98
8 -2 -5 12.21 0.73
8 2 -4 1.91 0.42
8 2 -4 2.45 0.53
8 -2 -4 2.4 0.37
8 2 -3 24.23 1.33
8 2 -3 23.42 1.31
8 -2 -3 24.44 1.14
8 2 -2 6.73 0.7
8 2 -2 6.41 0.69
8 -2 -2 6.68 0.63
-8 2 1 3.58 0.33
8 -2 -1 3.46 0.5
8 2 -1 3.55 0.53
8 -2 0 1.15 0.35
-8 2 0 1.43 0.27
8 -2 1 13.57 1.03
8 2 2 26.22 1.15
8 -2 2 24.26 1.47
8 2 3 53.95 1.61
8 -2 3 51.98 2.18
8 -2 4 0.28 0.29
8 2 4 0.7 0.27
8 -2 5 23.8 1.62
8 2 5 24.36 1.16
8 -2 6 0.28 0.29
8 2 6 -0.23 0.3
8 -2 7 7.1 0.95
8 2 7 6.54 0.68
8 2 8 2.1 0.45
8 -2 8 2.61 0.67
8 -2 9 12.47 1.37
8 2 9 10.02 0.99
8 2 10 -0.03 0.19
8 -2 10 0.34 0.31
8 3 -12 -0.07 0.33
8 3 -11 0.73 0.41
8 3 -10 -0.36 0.47
8 3 -9 11.75 1.14
8 3 -8 0.13 0.39
8 3 -7 3.07 0.63
8 -3 -7 3.65 0.44
8 -3 -6 0.85 0.25
8 3 -6 0.28 0.29
8 -3 -5 1.55 0.33
8 3 -5 1.2 0.42
8 -3 -4 0.21 0.2
8 3 -4 0.51 0.38
8 3 -3 9.55 0.94
8 3 -3 8.79 0.9
8 -3 -3 9.57 0.84
8 3 -2 64.78 2.33
8 3 -2 60.07 2.14
8 -3 -2 66.04 2.25
8 3 -1 7.32 0.8
8 3 -1 5.74 0.71
8 -3 -1 6.72 0.78
8 3 0 0.55 0.34
8 -3 0 0.79 0.33
8 -3 1 5.18 0.73
8 -3 2 1.2 0.41
8 -3 3 1.18 0.43
8 -3 4 2.75 0.6
8 3 4 3.85 0.51
8 3 5 3.19 0.44
8 -3 5 2.94 0.68
8 3 6 0.2 0.18
8 -3 6 0.18 0.37
8 -3 7 6.87 1.02
8 3 7 5.81 0.61
8 3 8 0.43 0.24
8 -3 8 0.16 0.33
8 -3 9 1.15 0.52
8 4 -10 1.52 0.48
8 4 -9 2.03 0.55
8 4 -8 -0.26 0.43
8 4 -7 2.25 0.55
8 4 -6 4.12 0.7
8 4 -5 4.46 0.71
8 4 -5 3.99 0.69
8 -4 -5 4.51 0.59
8 4 -4 0.84 0.29
8 4 -4 1.24 0.49
8 -4 -4 1.27 0.36
8 4 -3 3.55 0.65
8 4 -3 3.05 0.61
8 -4 -3 2.94 0.54
8 4 -2 1.65 0.48
8 4 -2 1.34 0.47
8 -4 -2 2.43 0.52
8 4 -1 0.19 0.28
8 4 -1 0.14 0.27
8 -4 -1 0.23 0.28
8 4 0 1.7 0.5
8 4 0 0.78 0.33
8 -4 0 0.94 0.4
8 -4 1 0.34 0.24
8 -4 2 4.69 0.81
8 -4 3 2.02 0.61
8 4 4 13.19 0.91
8 -4 4 13.83 1.4
8 4 5 1.89 0.42
8 -4 5 1.91 0.61
8 4 6 2.12 0.39
8 -4 6 2.69 0.74
8 -4 7 0.22 0.34
8 5 -8 0.75 0.4
8 5 -7 3.58 0.74
8 5 -6 1.35 0.46
8 5 -6 1.64 0.5
8 5 -5 1.92 0.52
8 5 -5 2.46 0.6
8 5 -4 2.99 0.68
8 5 -4 3.36 0.65
8 5 -3 0.17 0.29
8 -5 -3 0.6 0.33
8 5 -3 0.46 0.44
8 5 -2 7.87 1.01
8 5 -2 7.6 0.9
8 -5 -2 8.09 0.99
8 5 -1 2.57 0.63
8 5 -1 2.27 0.53
8 -5 -1 2.63 0.61
8 5 0 9.56 0.93
8 -5 0 9.73 1.18
8 5 0 10.32 1.11
8 -5 1 0.1 0.3
8 -5 2 0.27 0.33
8 -5 3 1.2 0.5
8 -5 4 0.78 0.46
8 -5 5 4.68 0.99
8 6 -5 0.1 0.36
8 6 -4 0.43 0.39
8 6 -3 0.44 0.4
8 -6 0 -0.12 0.27
8 -6 1 0.02 0.3
8 -6 2 0.2 0.3
9 0 -15 -0.11 0.32
9 0 -14 0.36 0.36
9 0 -13 0.42 0.38
9 0 -12 0.99 0.46
9 0 -11 -0.16 0.34
9 0 -10 0.96 0.4
9 0 -9 0.19 0.28
9 0 -8 1.97 0.5
9 0 -7 0.04 0.31
9 0 -6 65.16 1.82
9 0 -6 66.68 2.21
9 0 -5 -0.06 0.2
9 0 -5 0.15 0.26
9 0 -4 13.69 0.78
9 0 -4 15.22 0.86
9 0 -3 0.16 0.17
9 0 -3 1.37 0.37
9 0 -2 1.29 0.35
9 0 -1 0.46 0.27
9 0 0 29.48 1.23
9 0 1 -0.12 0.26
9 0 2 15.89 0.96
9 0 3 0.4 0.29
9 0 4 0.69 0.29
9 0 5 0.09 0.22
9 0 6 91.64 2.91
9 0 7 0.21 0.34
9 0 8 0.25 0.26
9 0 9 -0.07 0.25
9 0 10 4.02 0.76
9 0 11 -0.07 0.3
9 1 -14 5.05 0.83
9 -1 -13 1.24 0.48
9 1 -13 1.17 0.45
9 -1 -12 0.72 0.39
9 1 -12 0.16 0.33
9 -1 -11 0.97 0.39
9 1 -11 0.89 0.45
9 -1 -10 3.75 0.41
9 -1 -10 2.73 0.52
9 1 -10 2.76 0.62
9 -1 -9 0.98 0.26
9 -1 -9 0.39 0.29
9 1 -9 1.05 0.41
9 -1 -8 2.76 0.36
9 -1 -8 2.21 0.46
9 1 -8 1.86 0.53
9 -1 -7 1.24 0.29
9 -1 -7 0.72 0.18
9 1 -7 1.1 0.47
9 -1 -6 0.23 0.15
9 1 -6 0.35 0.35
9 -1 -6 0.41 0.22
9 -1 -5 3.04 0.38
9 1 -5 3.19 0.49
9 1 -5 2.97 0.56
9 -1 -4 14.85 0.83
9 1 -4 15.07 0.98
9 1 -4 14.56 1.04
9 1 -3 6.98 0.66
9 1 -3 5.87 0.68
9 -1 -3 6.34 0.54
9 -1 -2 5.36 0.51
9 1 -2 6.69 0.64
9 -1 -1 10.97 0.76
9 1 0 1.27 0.38
9 -1 0 0.57 0.26
9 1 1 9.38 0.73
9 -1 1 8.33 0.78
9 1 2 13.21 0.85
9 -1 2 11.54 0.93
9 -1 3 11.69 0.98
9 1 3 12.23 0.83
9 -1 4 11.4 1.04
9 1 4 10.62 0.84
9 1 5 -0.15 0.19
9 -1 5 -0.12 0.29
9 1 6 0.27 0.25
9 -1 6 0.29 0.3
9 -1 7 0.47 0.29
9 1 7 0.87 0.35
9 -1 8 0.06 0.29
9 1 8 0.24 0.26
9 -1 9 0.11 0.29
9 1 9 0.04 0.23
9 -1 10 0.97 0.47
9 1 10 0.67 0.34
9 1 11 0.55 0.38
9 2 -13 3.97 0.78
9 2 -12 0.59 0.38
9 2 -11 0.11 0.33
9 2 -10 0.13 0.31
9 2 -9 2.74 0.6
9 2 -8 6.08 0.83
9 -2 -8 5.76 0.48
9 2 -7 5.32 0.78
9 -2 -7 5.37 0.49
9 2 -6 2.64 0.6
9 -2 -6 3.06 0.39
9 2 -5 6.58 0.76
9 2 -5 6.35 0.78
9 -2 -5 6.95 0.59
9 2 -4 27.69 1.47
9 2 -4 28.01 1.52
9 -2 -4 25.17 1.19
9 2 -3 7.33 0.77
9 2 -3 7.46 0.81
9 -2 -3 7.55 0.69
9 2 -2 0.11 0.24
9 2 -2 0.04 0.27
9 -2 -2 0.04 0.19
-9 2 1 41.58 1.23
9 -2 -1 38.24 1.69
9 2 -1 39.47 1.69
-9 2 0 1.81 0.31
9 -2 0 1.89 0.44
9 -2 1 11.57 1.01
9 2 2 1.36 0.37
9 -2 2 0.55 0.31
9 2 3 2.13 0.41
9 -2 3 1.65 0.47
9 2 4 4.92 0.56
9 -2 4 4.79 0.77
9 2 5 0.97 0.29
9 -2 5 2.2 0.58
9 -2 6 1.43 0.52
9 2 6 0.32 0.23
9 -2 7 1.05 0.49
9 2 7 1.34 0.37
9 -2 8 0.04 0.32
9 2 8 0.24 0.28
9 2 9 0.29 0.26
9 -2 9 0.59 0.4
9 3 -11 1.55 0.52
9 3 -10 -0.2 0.42
9 3 -9 -0.01 0.34
9 3 -8 0.26 0.41
9 3 -7 0.55 0.4
9 -3 -6 -0.02 0.16
9 3 -6 0 0.32
9 3 -5 -0.12 0.37
9 -3 -5 0.55 0.22
9 3 -5 1 0.45
9 3 -4 6.77 0.83
9 3 -4 7.53 0.9
9 -3 -4 7.13 0.73
9 3 -3 18.52 1.32
9 3 -3 17.06 1.28
9 -3 -3 18.64 1.22
9 3 -2 0.69 0.37
9 -3 -2 0.24 0.27
9 3 -2 0.47 0.36
9 -3 -1 7.96 0.88
9 3 -1 9.27 0.91
9 -3 0 0.02 0.22
9 -3 1 1.76 0.49
9 -3 2 5.82 0.81
9 3 3 11.73 0.89
9 -3 3 11.57 1.19
9 -3 4 0.69 0.38
9 3 4 1.08 0.32
9 3 5 4.72 0.56
9 -3 5 3.88 0.76
9 3 6 0.13 0.19
9 -3 6 0.13 0.28
9 3 7 -0.34 0.34
9 -3 7 0.19 0.36
9 3 8 0.24 0.24
9 -3 8 0.14 0.36
9 4 -9 0.55 0.37
9 4 -8 2.92 0.66
9 4 -7 2.25 0.6
9 4 -6 1.01 0.39
9 4 -6 1.54 0.55
9 4 -5 0.41 0.31
9 4 -5 1.18 0.49
9 4 -4 5.16 0.8
9 4 -4 4.22 0.76
9 -4 -4 5.05 0.69
9 4 -3 3.92 0.71
9 4 -3 3.81 0.67
9 -4 -3 3.8 0.64
9 4 -2 7.91 0.95
9 -4 -2 8.25 0.94
9 4 -2 7.15 0.86
9 4 -1 2.16 0.55
9 4 -1 1.14 0.4
9 -4 -1 1.96 0.51
9 -4 0 6.04 0.86
9 4 0 6.35 0.87
9 -4 1 7.51 1.03
9 -4 2 0.35 0.36
9 -4 3 0.34 0.37
9 4 4 6.52 0.68
9 -4 4 4.78 0.86
9 4 5 2.86 0.46
9 -4 5 1.41 0.54
9 -4 6 0.57 0.46
9 4 6 0.26 0.22
9 5 -7 0.24 0.35
9 5 -6 0.08 0.41
9 5 -6 0.25 0.37
9 5 -5 0.12 0.35
9 5 -5 0.52 0.39
9 5 -4 4.19 0.82
9 5 -4 4.33 0.79
9 5 -3 1.61 0.55
9 5 -3 1.36 0.5
9 5 -2 5.19 0.85
9 5 -2 4.86 0.73
9 -5 -2 5.26 0.84
9 5 -1 0.76 0.46
9 5 -1 0.43 0.35
9 -5 -1 0.65 0.36
9 5 0 0.81 0.42
9 -5 0 0.09 0.26
9 -5 1 1.43 0.54
9 -5 2 1.1 0.52
9 -5 3 0.51 0.44
9 5 4 3.2 0.56
9 -5 4 2.23 0.69
9 6 -4 0.13 0.35
9 -6 1 3.51 0.82
10 0 -15 0.29 0.38
10 0 -14 1.47 0.55
10 0 -13 0.63 0.45
10 0 -12 5.01 0.78
10 0 -11 0.18 0.32
10 0 -10 9.06 0.97
10 0 -9 0.65 0.41
10 0 -8 15.18 1.18
10 0 -7 -0.08 0.2
10 0 -7 0.36 0.33
10 0 -6 2.93 0.43
10 0 -6 3.23 0.55
10 0 -5 0.06 0.18
10 0 -5 0.94 0.38
10 0 -4 18.1 0.97
10 0 -4 16.81 0.91
10 0 -3 0.97 0.31
10 0 -2 5.46 0.56
10 0 -1 0.13 0.21
10 0 0 16.83 1.02
10 0 1 -0.56 0.31
10 0 2 1.75 0.34
10 0 3 0.29 0.26
10 0 4 1.99 0.46
10 0 5 0.28 0.3
10 0 6 0.92 0.41
10 0 7 0.14 0.24
10 0 8 1.42 0.43
10 0 9 -0.26 0.36
10 0 10 0.43 0.39
10 1 -14 0.35 0.44
10 -1 -13 0.19 0.32
10 1 -13 0.84 0.48
10 -1 -12 7.54 0.88
10 1 -12 7.21 0.98
10 -1 -11 0.87 0.39
10 1 -11 1.51 0.54
10 -1 -10 -0.02 0.29
10 1 -10 0.28 0.38
10 -1 -10 0.59 0.23
10 -1 -9 0.69 0.26
10 1 -9 0.37 0.41
10 -1 -8 10.12 0.67
10 1 -8 8.97 0.96
10 -1 -7 1.3 0.25
10 1 -7 0.66 0.3
10 1 -7 1.55 0.52
10 -1 -7 1.29 0.29
10 -1 -6 7.05 0.58
10 1 -6 5.88 0.67
10 1 -6 6.68 0.84
10 -1 -6 7.03 0.5
10 1 -5 0.02 0.22
10 1 -5 0.03 0.28
10 -1 -5 0.07 0.18
10 -1 -4 9.82 0.72
10 1 -4 10.71 0.84
10 1 -4 8.99 0.87
10 -1 -3 0.76 0.22
10 1 -3 1.52 0.38
10 -1 -2 1.48 0.31
10 1 -1 1.27 0.39
10 -1 -1 0.41 0.19
10 1 0 13.55 0.91
10 -1 0 13.61 0.97
10 1 1 10.33 0.79
10 -1 1 9.83 0.87
10 1 2 15.01 0.96
10 -1 2 14.59 1.1
10 -1 3 8.6 0.89
10 1 3 8.34 0.75
10 1 4 1.49 0.33
10 -1 4 2.12 0.52
10 -1 5 10.67 1.1
10 1 5 12.53 1
10 1 6 0.31 0.29
10 -1 6 0.1 0.3
10 -1 7 0.18 0.27
10 1 7 0.24 0.28
10 -1 8 3.16 0.7
10 1 8 2.55 0.56
10 -1 9 3.89 0.8
10 1 9 3.36 0.68
10 1 10 1.2 0.47
10 2 -12 0.39 0.4
10 2 -11 0.21 0.37
10 2 -10 0.26 0.37
10 2 -9 1.95 0.58
10 -2 -8 0.69 0.22
10 2 -8 1.18 0.52
10 2 -7 1.34 0.42
10 2 -7 2.54 0.62
10 -2 -7 1.88 0.34
10 -2 -6 0.62 0.23
10 2 -6 0.19 0.29
10 2 -6 0.51 0.37
10 2 -5 10.57 0.97
10 2 -5 11.9 1.1
10 -2 -5 10.81 0.8
10 2 -4 2.44 0.5
10 2 -4 2.65 0.58
10 -2 -4 2.75 0.47
10 2 -3 27.63 1.46
10 2 -3 25.45 1.46
10 -2 -3 24.43 1.3
10 -2 -2 21.42 1.26
10 2 -2 23.17 1.32
10 -2 -1 0.22 0.23
10 -2 0 4.87 0.67
10 2 1 1.79 0.44
10 -2 1 0.83 0.35
10 2 2 0.61 0.29
10 -2 2 0.06 0.24
10 2 3 4.08 0.53
10 -2 3 3.81 0.69
10 -2 4 0.87 0.41
10 2 4 0.92 0.31
10 -2 5 2.38 0.62
10 2 5 1.49 0.35
10 -2 6 0.94 0.44
10 2 6 0.48 0.26
10 -2 7 0.71 0.42
10 2 7 0.62 0.32
10 -2 8 1.91 0.62
10 2 8 1.49 0.42
10 2 9 0 0.27
10 3 -10 2.92 0.7
10 3 -9 0.22 0.4
10 3 -8 0.88 0.44
10 3 -7 8.39 1
10 3 -7 8.01 1.03
10 3 -6 6.05 0.83
10 3 -6 6.85 0.92
10 -3 -6 6.44 0.69
10 3 -5 13.4 1.22
10 3 -5 13.4 1.19
10 -3 -5 12.52 0.99
10 3 -4 3.34 0.64
10 3 -4 3.33 0.68
10 -3 -4 3.48 0.58
10 3 -3 0.77 0.35
10 -3 -3 0.99 0.34
10 3 -3 1.18 0.47
10 3 -2 0.51 0.37
10 -3 -2 -0.12 0.27
10 3 -2 0.22 0.32
10 -3 -1 7.66 0.9
10 3 -1 7.46 0.85
10 -3 0 1.54 0.48
10 -3 1 4.88 0.79
10 3 2 4.42 0.62
10 -3 2 4.53 0.79
10 -3 3 1.52 0.48
10 3 3 2.17 0.46
10 -3 4 0.78 0.44
10 3 4 0.79 0.29
10 -3 5 0.23 0.36
10 3 5 0.25 0.19
10 3 6 -0.26 0.29
10 -3 6 0.22 0.34
10 3 7 0.82 0.31
10 3 8 1.15 0.38
10 4 -8 0.59 0.44
10 4 -7 0.38 0.31
10 4 -7 1.2 0.5
10 4 -6 -0.12 0.38
10 4 -6 -0.13 0.32
10 4 -5 -0.29 0.37
10 4 -5 0.08 0.35
10 4 -4 5.39 0.83
10 4 -4 6.03 0.88
10 -4 -4 5.9 0.79
10 4 -3 3.08 0.67
10 4 -3 2.3 0.62
10 -4 -3 3.03 0.6
10 4 -2 0.17 0.35
10 4 -2 -0.17 0.29
10 -4 -2 0.14 0.25
10 -4 -1 4.46 0.76
10 4 -1 4.83 0.77
10 -4 0 -0.09 0.25
10 -4 1 0.44 0.35
10 -4 2 0.36 0.34
10 4 3 0.91 0.41
10 -4 3 0.02 0.26
10 -4 4 0.76 0.42
10 4 4 1.04 0.35
10 4 5 1.88 0.42
10 -4 5 2.49 0.7
10 4 6 0.29 0.22
10 5 -6 2.93 0.71
10 5 -5 1.21 0.52
10 5 -4 0.48 0.43
10 5 -3 0.1 0.35
10 5 -2 1.74 0.52
10 -5 -2 2.17 0.59
10 -5 -1 0.92 0.42
10 -5 0 0.58 0.37
10 -5 1 -0.32 0.34
10 -5 2 0.78 0.45
10 5 4 2.98 0.56
11 0 -14 8.75 1.08
11 0 -13 0.61 0.45
11 0 -12 0.56 0.43
11 0 -11 -0.16 0.32
11 0 -10 0.87 0.46
11 0 -9 -0.26 0.28
11 0 -9 -0.12 0.33
11 0 -8 3.4 0.5
11 0 -8 3 0.63
11 0 -7 -0.05 0.18
11 0 -6 6.55 0.63
11 0 -6 7.42 0.72
11 0 -5 0.13 0.2
11 0 -5 0.8 0.33
11 0 -4 8.28 0.7
11 0 -3 0.19 0.23
11 0 -2 1.02 0.32
11 0 -1 -0.17 0.21
11 0 0 -0.29 0.28
11 0 1 -0.12 0.26
11 0 2 2.58 0.5
11 0 3 0.44 0.31
11 0 4 1.11 0.4
11 0 5 0.19 0.31
11 0 6 1.88 0.5
11 0 7 -0.16 0.29
11 0 8 1.53 0.5
11 1 -13 5.41 0.9
11 -1 -12 0.43 0.32
11 1 -12 0.77 0.47
11 1 -11 0.75 0.44
11 1 -10 2.56 0.63
11 -1 -9 3.13 0.43
11 1 -9 2.91 0.67
11 -1 -8 2.37 0.4
11 1 -8 2.09 0.45
11 1 -8 2.47 0.63
11 -1 -7 1.69 0.34
11 1 -7 1.02 0.34
11 1 -7 1.29 0.49
11 -1 -6 6.08 0.59
11 1 -6 5.98 0.71
11 1 -6 5.98 0.82
11 1 -5 0.55 0.31
11 -1 -5 0.33 0.19
11 -1 -4 -0.03 0.24
11 1 -4 0.56 0.27
11 1 -3 5.72 0.67
11 -1 -3 4.33 0.52
11 1 -2 2.36 0.49
11 -1 -2 0.95 0.28
11 1 -1 16.18 1.03
11 -1 -1 13.92 1.01
11 1 0 5.37 0.61
11 -1 0 5.37 0.67
11 -1 1 0.54 0.29
11 1 1 0.41 0.27
11 1 2 1.29 0.34
11 -1 2 1.43 0.44
11 -1 3 0.47 0.29
11 1 3 0.02 0.24
11 1 4 0.69 0.26
11 -1 4 1.69 0.5
11 1 5 0.8 0.36
11 -1 5 -0.14 0.28
11 -1 6 17.66 1.52
11 1 6 20.89 1.43
11 -1 7 1.53 0.5
11 1 7 0.95 0.39
11 1 8 1.69 0.5
11 1 9 -0.12 0.25
11 2 -11 0.54 0.44
11 2 -10 1.46 0.55
11 2 -9 0.99 0.5
11 2 -8 0.12 0.29
11 -2 -8 0.54 0.22
11 2 -8 0.52 0.45
11 2 -7 3.12 0.59
11 2 -7 3.23 0.73
11 -2 -7 3.53 0.48
11 -2 -6 0.47 0.27
11 2 -6 0.31 0.28
11 2 -6 0.54 0.33
11 -2 -5 0.79 0.33
11 2 -5 0.73 0.33
11 2 -5 0.68 0.42
11 2 -4 14.78 1.13
11 2 -4 11.91 1.13
11 -2 -4 14.19 1.02
11 2 -3 1.34 0.44
11 -2 -3 1.44 0.42
11 -2 -2 0.31 0.24
11 -2 -1 0.07 0.24
11 2 0 4.08 0.59
11 -2 0 3.08 0.59
11 2 1 6.21 0.7
11 -2 1 4.55 0.72
11 -2 2 0.19 0.32
11 2 2 0.58 0.32
11 2 3 10.59 0.89
11 -2 3 11.45 1.18
11 2 4 0.83 0.3
11 -2 4 0.98 0.4
11 -2 5 1.04 0.43
11 2 5 -0.06 0.24
11 -2 6 1.08 0.49
11 2 6 1.47 0.41
11 2 7 0.14 0.26
11 2 8 0 0.25
11 3 -9 2.59 0.65
11 3 -8 -0.42 0.48
11 3 -8 0.77 0.47
11 3 -7 0.5 0.32
11 3 -7 0.83 0.47
11 3 -6 -0.49 0.42
11 -3 -6 -0.12 0.18
11 3 -6 0.48 0.45
11 3 -5 0.41 0.33
11 -3 -5 0.58 0.27
11 3 -5 0.59 0.43
11 3 -4 11.92 1.14
11 3 -4 10.86 1.15
11 -3 -4 11.71 1.06
11 3 -3 0.72 0.4
11 -3 -3 0.16 0.24
11 3 -3 0.55 0.39
11 3 -2 0.23 0.32
11 -3 -2 0.18 0.26
11 -3 -1 3.85 0.67
11 -3 0 0.53 0.35
11 3 1 7.2 0.8
11 -3 1 7.44 0.99
11 3 2 3.19 0.54
11 -3 2 2.6 0.65
11 -3 3 0.13 0.28
11 3 3 0.87 0.33
11 -3 4 0.48 0.4
11 3 4 0.56 0.31
11 -3 5 5.67 0.98
11 3 5 4.21 0.59
11 3 6 -0.07 0.31
11 3 7 4.02 0.64
11 4 -7 0.26 0.33
11 4 -7 0.51 0.45
11 4 -6 3.69 0.76
11 4 -6 3.92 0.78
11 4 -5 2.47 0.65
11 4 -5 1.86 0.6
11 -4 -4 0 0.23
11 4 -4 0.16 0.34
11 4 -4 0.25 0.37
11 4 -3 9.44 1.07
11 4 -3 6.81 0.93
11 -4 -3 8.44 0.99
11 -4 -2 0.33 0.32
11 4 -2 0.64 0.43
11 -4 -1 1.02 0.44
11 -4 0 0.32 0.31
11 -4 1 1.64 0.53
11 4 2 2.2 0.56
11 -4 2 1.03 0.48
11 4 3 1.25 0.42
11 -4 3 0.01 0.26
11 4 4 0.62 0.34
11 4 5 0.26 0.23
11 4 6 0.14 0.22
11 5 -4 2.59 0.64
11 5 -3 0.26 0.38
11 -5 -1 -0.01 0.29
11 -5 0 0.93 0.46
11 -5 1 0.43 0.41
12 0 -13 0.05 0.34
12 0 -12 0.09 0.34
12 0 -11 -0.06 0.31
12 0 -10 0.05 0.3
12 0 -9 -0.02 0.3
12 0 -9 1 0.41
12 0 -8 8.47 0.77
12 0 -7 0.15 0.2
12 0 -7 1.19 0.38
12 0 -6 7.74 0.73
12 0 -6 7.83 0.7
12 0 -5 0.43 0.28
12 0 -4 2.28 0.43
12 0 -3 0.07 0.21
12 0 -2 1.05 0.3
12 0 -1 -0.26 0.24
12 0 0 14.94 1.07
12 0 1 -0.34 0.39
12 0 2 11.75 1.03
12 0 3 0.62 0.36
12 0 4 10.89 1.1
12 0 5 0.14 0.29
12 0 6 1.18 0.45
12 1 -11 0.7 0.47
12 1 -10 1.15 0.36
12 1 -10 1.7 0.58
12 1 -9 -0.02 0.25
12 1 -9 0.33 0.39
12 -1 -9 0.13 0.16
12 1 -8 1.87 0.45
12 1 -8 1.64 0.53
12 -1 -8 1.61 0.33
12 1 -7 0.76 0.31
12 1 -7 0.69 0.42
12 -1 -7 0.67 0.26
12 -1 -6 3.06 0.46
12 1 -6 3.48 0.56
12 -1 -5 -0.21 0.27
12 1 -5 0.25 0.24
12 1 -4 5.37 0.71
12 -1 -4 4.18 0.55
12 1 -3 6.4 0.71
12 -1 -3 3.81 0.55
12 1 -2 9.14 0.82
12 -1 -2 6.88 0.74
12 -1 -1 0.46 0.31
12 1 -1 0.23 0.31
12 1 0 0.21 0.26
12 -1 0 0.4 0.34
12 -1 1 1.55 0.45
12 1 1 1.49 0.39
12 1 2 0.98 0.34
12 -1 2 1.07 0.39
12 1 3 3.8 0.58
12 -1 3 4.92 0.77
12 -1 4 4.27 0.76
12 1 4 4.72 0.69
12 -1 5 5.22 0.87
12 1 5 6.42 0.83
12 -1 6 0.55 0.31
12 1 6 0.71 0.37
12 2 -10 0.66 0.34
12 2 -10 0.9 0.5
12 2 -9 -0.04 0.31
12 2 -9 0.73 0.48
12 2 -8 0.38 0.29
12 2 -8 0.62 0.45
12 -2 -7 1.15 0.34
12 2 -7 0.82 0.36
12 2 -7 0.62 0.45
12 -2 -6 0.49 0.28
12 2 -6 0.22 0.3
12 2 -6 0.37 0.41
12 -2 -5 0.23 0.25
12 2 -5 0.1 0.28
12 2 -5 0.4 0.35
12 2 -4 1.2 0.41
12 -2 -4 1.07 0.35
12 -2 -3 1.06 0.37
12 -2 -2 0.09 0.21
12 2 -1 6.11 0.72
12 -2 -1 4.49 0.71
12 -2 0 0.11 0.28
12 2 0 0.79 0.38
12 2 1 8.02 0.8
12 -2 1 7.99 0.98
12 2 2 3.77 0.56
12 -2 2 3.15 0.65
12 2 3 0.17 0.25
12 -2 3 -0.03 0.31
12 -2 4 -0.04 0.32
12 -2 5 0.1 0.33
12 2 5 -1.24 0.4
12 2 6 1.07 0.4
12 3 -10 -0.24 0.42
12 3 -9 0.74 0.31
12 3 -8 -0.12 0.33
12 3 -7 0.07 0.32
12 3 -7 0.47 0.39
12 3 -6 1.18 0.44
12 3 -6 1.7 0.59
12 3 -5 2.5 0.58
12 -3 -5 2.03 0.48
12 3 -5 2.34 0.62
12 -3 -4 5.32 0.76
12 3 -4 6.01 0.84
12 -3 -3 8.65 0.99
12 3 -3 9.53 1.01
12 -3 -2 0.22 0.31
12 -3 -1 0.98 0.41
12 3 0 2.19 0.53
12 -3 0 0.11 0.25
12 3 1 3.35 0.57
12 -3 1 2.26 0.63
12 -3 2 0.22 0.31
12 3 2 1.28 0.39
12 -3 3 3.58 0.79
12 3 3 2.89 0.52
12 3 4 0 0.23
12 3 5 0.15 0.29
12 4 -4 0.7 0.46
12 4 -4 0.13 0.36
12 -4 -3 0.06 0.33
12 4 -3 0.44 0.37
12 -4 -2 0.51 0.38
12 -4 -1 2.25 0.59
12 -4 0 0.68 0.4
12 -4 1 0.18 0.32
12 -5 -1 0.37 0.38
13 0 -10 4.75 0.62
13 0 -9 0.65 0.31
13 0 -8 1 0.35
13 0 -7 0.46 0.31
13 0 -6 0.44 0.27
13 0 -5 0.12 0.2
13 0 -4 0.27 0.23
13 0 -3 0.14 0.21
13 0 -2 1.76 0.4
13 0 -1 -0.49 0.36
13 0 0 1.5 0.38
13 0 1 -0.19 0.26
13 0 2 0.5 0.33
13 0 3 0.19 0.32
13 0 4 6.39 0.9
13 1 -9 0.11 0.33
13 1 -8 1.99 0.46
13 -1 -8 2.01 0.38
13 1 -7 0.88 0.36
13 -1 -7 0.69 0.27
13 -1 -6 1.91 0.4
13 1 -6 2.41 0.5
13 1 -5 3.28 0.58
13 -1 -5 1.44 0.35
13 1 -4 9.76 0.86
13 -1 -4 6.78 0.74
13 1 -3 4.67 0.62
13 -1 -3 2.66 0.49
13 -1 -2 2.34 0.49
13 1 -2 2.01 0.46
13 1 -1 6.46 0.73
13 -1 -1 6.73 0.81
13 1 0 5.04 0.65
13 -1 0 6.38 0.85
13 1 1 2.32 0.47
13 -1 1 2.49 0.59
13 -1 2 1.23 0.43
13 1 2 0.39 0.25
13 1 3 0.72 0.29
13 -1 3 1.14 0.46
13 1 4 1.01 0.41
13 -1 4 0.02 0.28
13 2 -10 -0.35 0.32
13 2 -9 3.07 0.65
13 2 -8 -0.1 0.27
13 -2 -7 1.37 0.37
13 2 -7 1.28 0.45
13 2 -7 1.15 0.51
13 -2 -6 1.43 0.41
13 2 -6 2.47 0.55
13 -2 -5 0.33 0.28
13 2 -5 0.23 0.36
13 -2 -4 2.92 0.54
13 2 -3 2.6 0.55
13 -2 -3 1.4 0.42
13 2 -2 2.64 0.58
13 -2 -2 2.46 0.54
13 2 -1 3.15 0.58
13 -2 -1 2.39 0.58
13 2 0 0.52 0.31
13 -2 0 -0.11 0.23
13 2 1 0.38 0.29
13 -2 1 -0.1 0.26
13 -2 2 2.35 0.61
13 2 2 2.14 0.47
13 2 3 0.28 0.25
13 -2 3 0.32 0.27
13 3 -8 0.54 0.39
13 3 -7 3.11 0.7
13 3 -6 6.01 0.93
13 3 -5 1.75 0.55
13 -3 -5 0.89 0.36
13 3 -4 1.19 0.46
13 -3 -4 0.35 0.29
13 -3 -3 -0.36 0.33
13 -3 -2 0.97 0.43
13 -3 -1 0.44 0.32
13 3 -1 1.77 0.51
13 -3 0 0.15 0.28
13 -3 1 1.73 0.56
13 -4 -2 1.53 0.52
13 -4 -1 -0.07 0.34
14 0 -9 0.56 0.31
14 0 -8 0.53 0.3
14 0 -7 0.44 0.3
14 0 -6 2.58 0.48
14 0 -5 0.21 0.24
14 0 -4 4.18 0.62
14 0 -3 -0.23 0.26
14 0 -2 3.22 0.55
14 0 -1 -0.4 0.36
14 0 0 -0.42 0.4
14 0 1 0.49 0.34
14 1 -8 3.22 0.63
14 -1 -8 1.09 0.32
14 1 -7 1.98 0.5
14 -1 -7 -0.2 0.27
14 -1 -6 -0.22 0.3
14 1 -6 1.06 0.42
14 1 -5 2.9 0.53
14 -1 -5 0.99 0.3
14 1 -4 3.31 0.56
14 -1 -4 1.45 0.41
14 1 -3 2.24 0.49
14 -1 -3 2.68 0.53
14 1 -2 0.62 0.33
14 -1 -2 0.79 0.37
14 -1 -1 0.41 0.33
14 1 -1 -0.02 0.26
14 -1 0 1.3 0.45
14 1 0 0.62 0.26
14 -1 1 0.47 0.35
14 2 -8 0.79 0.42
14 2 -7 0.48 0.34
14 2 -6 2.73 0.61
14 -2 -6 2.96 0.55
14 -2 -5 0.36 0.3
14 -2 -4 0.07 0.24
14 -2 -3 1.23 0.44
14 -2 -2 0.3 0.28
14 -2 -1 -0.05 0.25
14 -2 0 0.09 0.24
14 -3 -4 0.23 0.32
14 -3 -3 0.15 0.27
14 -3 -2 0.19 0.27
15 0 -9 0.15 0.26
15 0 -8 1.47 0.43
15 0 -7 0.25 0.27
15 0 -6 0.45 0.28
15 0 -5 0.09 0.23
15 0 -4 2.39 0.49
15 -1 -7 0.02 0.31
15 -1 -6 0.27 0.28
15 -1 -5 -0.4 0.29
15 -1 -4 1.47 0.44
15 -1 -3 0.62 0.37
15 -2 -5 1.85 0.51
15 -2 -4 0.59 0.37
