#------------------------------------------------------------------------------
#$Date: 2019-11-24 13:56:51 +0200 (Sun, 24 Nov 2019) $
#$Revision: 238072 $
#$URL: file:///home/coder/svn-repositories/cod/cif/1/55/47/1554713.cif $
#------------------------------------------------------------------------------
#
# This file is available in the Crystallography Open Database (COD),
# http://www.crystallography.net/
#
# All data on this site have been placed in the public domain by the
# contributors.
#
data_1554713
loop_
_publ_author_name
'Bar\/l\'og, Maciej'
'Kulai, Ihor'
'Ji, Xiaozhou'
'Bhuvanesh, Nattamai'
'Dey, Somnath'
'Sliwinski, Eric Pierre'
'Bazzi, Hassan S.'
'Fang, Lei'
'Al-Hashimi, Mohammed'
_publ_section_title
;
 Synthesis, characterization and crystal structures of novel fluorinated
 di(thiazolyl)benzene derivatives
;
_journal_issue                   6
_journal_name_full               'Organic Chemistry Frontiers'
_journal_page_first              780
_journal_paper_doi               10.1039/C9QO00044E
_journal_volume                  6
_journal_year                    2019
_chemical_formula_moiety         'C14 H6 F4 S2'
_chemical_formula_sum            'C14 H6 F4 S2'
_chemical_formula_weight         314.31
_space_group_crystal_system      monoclinic
_space_group_IT_number           14
_space_group_name_Hall           '-P 2yn'
_space_group_name_H-M_alt        'P 1 21/n 1'
_atom_sites_solution_hydrogens   geom
_audit_creation_date             2017-06-14
_audit_creation_method
;
Olex2 1.2-beta
(compiled 2017.03.28 svn.r3405 for OlexSys, GUI svn.r5335)
;
_audit_update_record
;
2018-07-19 deposited with the CCDC.
2019-01-30 downloaded from the CCDC.
;
_cell_angle_alpha                90
_cell_angle_beta                 90.341(2)
_cell_angle_gamma                90
_cell_formula_units_Z            2
_cell_length_a                   6.2999(3)
_cell_length_b                   5.0655(3)
_cell_length_c                   18.6515(11)
_cell_measurement_reflns_used    4287
_cell_measurement_temperature    100.0
_cell_measurement_theta_max      70.096
_cell_measurement_theta_min      4.742
_cell_volume                     595.20(6)
_computing_cell_refinement       'SAINT v8.37A (Bruker, 2015)'
_computing_data_reduction        'SAINT v8.37A (Bruker, 2015)'
_computing_molecular_graphics    'Olex2 (Dolomanov et al., 2009)'
_computing_publication_material  'Olex2 (Dolomanov et al., 2009)'
_computing_structure_refinement  'ShelXL (Sheldrick, 2015)'
_diffrn_ambient_temperature      100.0
_diffrn_measured_fraction_theta_full 0.989
_diffrn_measured_fraction_theta_max 0.983
_diffrn_measurement_device_type  'Bruker APEX-II CCD'
_diffrn_measurement_method       '\f and \w scans'
_diffrn_radiation_type           CuK\a
_diffrn_radiation_wavelength     1.54178
_diffrn_reflns_av_R_equivalents  0.0724
_diffrn_reflns_av_unetI/netI     0.0306
_diffrn_reflns_Laue_measured_fraction_full 0.989
_diffrn_reflns_Laue_measured_fraction_max 0.983
_diffrn_reflns_limit_h_max       7
_diffrn_reflns_limit_h_min       -7
_diffrn_reflns_limit_k_max       6
_diffrn_reflns_limit_k_min       0
_diffrn_reflns_limit_l_max       22
_diffrn_reflns_limit_l_min       0
_diffrn_reflns_number            1110
_diffrn_reflns_point_group_measured_fraction_full 0.989
_diffrn_reflns_point_group_measured_fraction_max 0.983
_diffrn_reflns_theta_full        67.679
_diffrn_reflns_theta_max         70.090
_diffrn_reflns_theta_min         4.742
_diffrn_standards_number         0
_exptl_absorpt_coefficient_mu    4.434
_exptl_absorpt_correction_T_max  0.753
_exptl_absorpt_correction_T_min  0.389
_exptl_absorpt_correction_type   multi-scan
_exptl_absorpt_process_details
;
 TWINABS-2012/1 (Bruker,2012) was used for absorption correction.
 
For component 1:
 wR2(int) was 0.1131 before and 0.0572 after correction.
 The Ratio of minimum to maximum transmission is 0.52.
 The \l/2 correction factor is Not present
 
For component 2:
 wR2(int) was 0.1755 before and 0.1014 after correction.
 The Ratio of minimum to maximum transmission not present.
 The \l/2 correction factor is Not present

Final HKLF 4 output contains 11761 reflections, Rint = 0.0724
 (9057 with I > 3sig(I), Rint = 0.0710)
;
_exptl_crystal_colour            colourless
_exptl_crystal_colour_primary    colourless
_exptl_crystal_density_diffrn    1.754
_exptl_crystal_description       needle
_exptl_crystal_F_000             316
_exptl_crystal_size_max          0.244
_exptl_crystal_size_mid          0.053
_exptl_crystal_size_min          0.021
_refine_diff_density_max         0.325
_refine_diff_density_min         -0.332
_refine_diff_density_rms         0.082
_refine_ls_extinction_method     none
_refine_ls_goodness_of_fit_ref   1.147
_refine_ls_hydrogen_treatment    constr
_refine_ls_matrix_type           full
_refine_ls_number_parameters     91
_refine_ls_number_reflns         1110
_refine_ls_number_restraints     0
_refine_ls_restrained_S_all      1.147
_refine_ls_R_factor_all          0.0472
_refine_ls_R_factor_gt           0.0429
_refine_ls_shift/su_max          0.000
_refine_ls_shift/su_mean         0.000
_refine_ls_structure_factor_coef Fsqd
_refine_ls_weighting_details
'w=1/[\s^2^(Fo^2^)+(0.0347P)^2^+1.3912P] where P=(Fo^2^+2Fc^2^)/3'
_refine_ls_weighting_scheme      calc
_refine_ls_wR_factor_gt          0.1048
_refine_ls_wR_factor_ref         0.1070
_reflns_Friedel_coverage         0.000
_reflns_number_gt                1019
_reflns_number_total             1110
_reflns_threshold_expression     'I > 2\s(I)'
_cod_data_source_file            c9qo00044e2.cif
_cod_data_source_block           f4p
_cod_database_code               1554713
_shelx_shelxl_version_number     2014/7
_shelx_space_group_comment
;
The symmetry employed for this shelxl refinement is uniquely defined
by the following loop, which should always be used as a source of
symmetry information in preference to the above space-group names.
They are only intended as comments.
;
_shelx_estimated_absorpt_t_max   0.913
_shelx_estimated_absorpt_t_min   0.411
_olex2_refinement_description
;
1. Fixed Uiso
 At 1.2 times of:
  All C(H) groups
2.a Aromatic/amide H refined with riding coordinates:
 C1(H1), C2(H2), C3(H3)
;
_shelx_res_file
;
    f4p.res created by SHELXL-2014/7

TITL twin4_a.res in P2(1)/n
REM Old TITL twin4 in P2(1)/n
REM SHELXT solution in P2(1)/n
REM R1 0.083, Rweak 0.004, Alpha 0.024, Orientation as input
REM Formula found by SHELXT: C7 F2 S
CELL 1.54178 6.2999 5.0655 18.6515 90 90.341 90
ZERR 2 0.0003 0.0003 0.0011 0 0.002 0
LATT 1
SYMM 0.5-X,0.5+Y,0.5-Z
SFAC C H F S
UNIT 28 12 8 4

L.S. 10
PLAN  20
SIZE 0.021 0.053 0.244
TEMP -173.15
BOND $H
more -1
wpdb -1
htab
conf
fmap 2
acta
MERG 0
OMIT -4 1 4
OMIT 0 1 5
REM <olex2.extras>
REM <HklSrc "%.\\twin4.hkl">
REM </olex2.extras>

WGHT    0.034700    1.391200
FVAR       1.04724
S1    4    0.384995    1.007128    0.330961    11.00000    0.02027    0.02386 =
         0.01889    0.00337   -0.00291   -0.00038
F1    3    0.197594    0.592812    0.399758    11.00000    0.01553    0.02621 =
         0.01859    0.00471   -0.00681   -0.00249
F2    3    0.130536    0.231601    0.494833    11.00000    0.01529    0.02924 =
         0.02347    0.00524   -0.00464   -0.00874
C1    1    0.547906    1.238548    0.294323    11.00000    0.03108    0.02240 =
         0.01539    0.00294    0.00246    0.00492
AFIX  43
H1    2    0.507447    1.352926    0.256260    11.00000   -1.20000
AFIX   0
C2    1    0.741487    1.239955    0.325868    11.00000    0.02699    0.01768 =
         0.02062    0.00061    0.00490   -0.00222
AFIX  43
H2    2    0.852395    1.355886    0.311962    11.00000   -1.20000
AFIX   0
C3    1    0.763168    1.052837    0.381424    11.00000    0.01757    0.01492 =
         0.01142    0.00041   -0.00043   -0.00064
AFIX  43
H3    2    0.889582    1.028799    0.408670    11.00000   -1.20000
AFIX   0
C4    1    0.577990    0.906978    0.391859    11.00000    0.01765    0.01713 =
         0.01317   -0.00177   -0.00116    0.00243
C5    1    0.538029    0.702781    0.445878    11.00000    0.01570    0.01770 =
         0.01263   -0.00326    0.00274    0.00092
C6    1    0.352842    0.553379    0.448993    11.00000    0.01392    0.01956 =
         0.01341   -0.00348   -0.00442    0.00234
C7    1    0.316496    0.361843    0.500146    11.00000    0.01267    0.01731 =
         0.01721   -0.00322    0.00043   -0.00349
HKLF 4

REM  twin4_a.res in P2(1)/n
REM R1 =  0.0429 for    1019 Fo > 4sig(Fo)  and  0.0472 for all    1110 data
REM     91 parameters refined using      0 restraints

END

WGHT      0.0347      1.3912

REM Instructions for potential hydrogen bonds
EQIV $1 x+1, y+1, z
HTAB C3 F2_$1
EQIV $2 -x+1, -y+1, -z+1
HTAB C3 F2_$2

REM Highest difference peak  0.325,  deepest hole -0.332,  1-sigma level  0.082
Q1    1   0.5569  0.8052  0.4191  11.00000  0.05    0.32
Q2    1   0.8581  1.5081  0.3879  11.00000  0.05    0.32
Q3    1   0.8182  1.0770  0.3957  11.00000  0.05    0.31
Q4    1   0.7479  1.1328  0.3610  11.00000  0.05    0.31
Q5    1   0.5811  0.7012  0.4799  11.00000  0.05    0.30
Q6    1   0.6754  1.0099  0.3940  11.00000  0.05    0.29
Q7    1   0.4631  1.1723  0.3131  11.00000  0.05    0.28
Q8    1   0.4707  0.6178  0.4396  11.00000  0.05    0.27
Q9    1   0.8335  0.9857  0.4444  11.00000  0.05    0.25
Q10   1   0.6176  1.1314  0.2388  11.00000  0.05    0.22
Q11   1   0.6436  1.2245  0.3136  11.00000  0.05    0.21
Q12   1   0.2580 -0.0287  0.5021  11.00000  0.05    0.20
Q13   1   0.0511  0.4011  0.3779  11.00000  0.05    0.20
Q14   1   0.4038  1.3326  0.2626  11.00000  0.05    0.20
Q15   1   0.3859  0.5043  0.3861  11.00000  0.05    0.19
Q16   1   0.1287  0.5884  0.5461  11.00000  0.05    0.19
Q17   1   0.5279  0.9110  0.3686  11.00000  0.05    0.18
Q18   1   0.2935  1.5218  0.2602  11.00000  0.05    0.18
Q19   1   0.3905  0.7201  0.5151  11.00000  0.05    0.18
Q20   1   0.3215  0.9203  0.2845  11.00000  0.05    0.17
;
_shelx_res_checksum              56815
_shelx_hkl_file
;
   1   0   0 0.11791 0.51357
   2   0   0 890.687 25.1382
   3   0   0 0.00000 1.64750
   4   0   0 1044.04 43.6253
   5   0   0 1.97108 2.80304
   6   0   0 67.9787 7.04175
   7   0   0 1.87217 2.20770
   0   1   0 0.56316 0.71055
   1   1   0 1410.34 22.7352
   2   1   0 25.7869 1.62574
   3   1   0 213.898 4.77413
   4   1   0 46.5588 4.00536
   5   1   0 511.643 8.93417
   6   1   0 329.392 8.04642
   7   1   0 16.2987 3.44127
   0   2   0 263.643 11.5101
   1   2   0 301.505 5.92200
   2   2   0 283.570 5.51651
   3   2   0 131.450 3.48863
   4   2   0 553.866 18.6208
   5   2   0 96.9407 2.76479
   6   2   0 31.5031 2.64342
   7   2   0 3.41634 1.64018
   0   3   0 1.17750 4.86247
   1   3   0 867.211 18.2171
   2   3   0 1298.08 26.9230
   3   3   0 187.144 4.61550
   4   3   0 74.8687 7.58425
   5   3   0 253.247 4.85808
   6   3   0 36.3003 2.23981
   0   4   0 1103.25 48.1849
   1   4   0 156.538 3.78204
   2   4   0 62.5994 3.03572
   3   4   0 125.175 3.95631
   4   4   0 348.013 9.04065
   5   4   0 1.24696 0.91378
   0   5   0 0.00000 7.95387
   1   5   0 5.52708 1.56505
   2   5   0 101.280 3.50082
   3   5   0 37.2639 2.87577
   4   5   0 11.1200 4.05903
  -7   0   1 73.6729 5.43607
  -6   0   1 0.00000 4.37846
  -5   0   1 1798.48 41.8641
  -4   0   1 15.6354 3.89242
  -3   0   1 1368.82 35.3230
  -2   0   1 1.12905 1.59592
  -1   0   1 3289.27 120.961
   0   0   1 0.00000 0.14471
   1   0   1 1938.91 62.1014
   2   0   1 1.56860 2.44576
   3   0   1 34.2482 3.56847
   4   0   1 0.69171 2.43743
   5   0   1 401.885 17.0669
   6   0   1 4.84403 4.33243
   7   0   1 117.346 7.01201
  -7   1   1 23.3397 2.98260
  -6   1   1 891.207 28.7865
  -5   1   1 196.477 4.45716
  -4   1   1 204.308 5.13949
  -3   1   1 1226.71 23.1583
  -2   1   1 3136.45 50.8271
  -1   1   1 1.80606 0.55388
   0   1   1 11.3392 0.62711
   1   1   1 555.910 16.7852
   2   1   1 401.807 7.79474
   3   1   1 1078.91 23.5592
   4   1   1 21.3720 2.38626
   5   1   1 0.00000 4.94977
   6   1   1 81.4458 3.68914
   7   1   1 0.97121 1.70060
  -7   2   1 24.6262 2.94075
  -6   2   1 160.523 6.88840
  -5   2   1 805.510 12.8549
  -4   2   1 173.141 4.95140
  -3   2   1 38.5278 6.00219
  -2   2   1 44.0469 1.77732
  -1   2   1 3635.32 61.6587
   0   2   1 459.423 8.83591
   1   2   1 330.174 10.7842
   2   2   1 819.789 15.9491
   3   2   1 2634.83 49.4493
   4   2   1 540.251 14.1034
   5   2   1 517.096 18.5818
   6   2   1 70.0123 3.28386
   7   2   1 545.805 13.1673
  -6   3   1 262.402 7.19055
  -5   3   1 29.8416 2.02233
  -4   3   1 23.3323 2.44061
  -3   3   1 125.699 9.42424
  -2   3   1 635.987 13.8365
  -1   3   1 271.320 6.82189
   0   3   1 646.893 12.7495
   1   3   1 1137.31 49.5734
   2   3   1 664.124 13.1600
   3   3   1 33.0900 2.12657
   4   3   1 61.3563 3.27084
   5   3   1 193.996 15.7141
   6   3   1 116.520 3.43490
  -5   4   1 210.902 4.75415
  -4   4   1 37.6658 2.18956
  -3   4   1 522.224 13.4294
  -2   4   1 745.385 17.8272
  -1   4   1 34.8592 2.18185
   0   4   1 58.5829 2.87420
   1   4   1 0.93901 2.29593
   2   4   1 32.9540 2.50214
   3   4   1 394.627 8.31989
   4   4   1 5.04722 1.23262
   5   4   1 118.447 5.74433
  -4   5   1 2.28213 1.36457
  -3   5   1 117.402 8.40331
  -2   5   1 14.3693 2.31863
  -1   5   1 204.196 5.21432
   0   5   1 174.239 6.11181
   1   5   1 28.1188 3.65173
   2   5   1 741.820 16.0454
   3   5   1 137.429 4.28480
   4   5   1 337.983 9.01928
  -1   6   1 299.465 21.4566
  -7   0   2 2.17072 2.73470
  -6   0   2 260.868 19.5673
  -5   0   2 1.56453 2.66845
  -4   0   2 96.8009 5.07363
  -3   0   2 0.03504 1.71355
  -2   0   2 34.6018 2.11398
  -1   0   2 0.11436 0.41489
   0   0   2 1775.80 41.4822
   1   0   2 1.15695 0.49376
   2   0   2 1158.42 33.4405
   3   0   2 1.27758 1.10379
   4   0   2 225.101 8.99871
   5   0   2 2.55423 3.57347
   6   0   2 2570.40 99.5760
  -7   1   2 451.456 11.3093
  -6   1   2 861.466 28.7347
  -5   1   2 13.3309 2.01074
  -4   1   2 0.42325 0.88910
  -3   1   2 3567.35 59.8591
  -2   1   2 33.9186 1.65721
  -1   1   2 4304.67 72.7343
   0   1   2 16.6014 0.76732
   1   1   2 59.0751 2.01490
   2   1   2 358.048 7.50390
   3   1   2 156.444 3.88709
   4   1   2 104.552 3.38620
   5   1   2 573.562 17.7371
   6   1   2 302.485 14.1902
   7   1   2 25.9536 3.48521
  -7   2   2 205.633 6.40161
  -6   2   2 160.825 10.2602
  -5   2   2 23.4926 2.16581
  -4   2   2 1323.82 27.4394
  -3   2   2 112.570 3.67217
  -2   2   2 861.759 16.4899
  -1   2   2 101.730 3.05945
   0   2   2 542.268 9.28779
   1   2   2 25.9172 1.49692
   2   2   2 2608.73 64.2186
   3   2   2 168.777 4.64221
   4   2   2 307.210 7.10430
   5   2   2 128.858 4.84986
   6   2   2 217.838 8.76112
   7   2   2 54.2188 3.07311
  -6   3   2 25.8078 4.09134
  -5   3   2 26.4529 1.95532
  -4   3   2 129.789 3.79354
  -3   3   2 557.336 11.9410
  -2   3   2 1.44461 1.01676
  -1   3   2 106.923 4.23757
   0   3   2 711.901 14.9600
   1   3   2 206.463 5.48029
   2   3   2 256.480 8.08821
   3   3   2 179.760 4.19466
   4   3   2 93.7094 3.30650
   5   3   2 521.274 15.0080
   6   3   2 30.6438 3.79838
  -5   4   2 73.9694 2.76590
  -4   4   2 1.07068 0.88297
  -3   4   2 9.77366 1.70524
  -2   4   2 847.336 23.9584
  -1   4   2 97.3659 4.20023
   0   4   2 295.005 6.89092
   1   4   2 14.0773 2.05843
   2   4   2 453.570 21.1244
   3   4   2 1.55525 1.03410
   4   4   2 2.01303 0.98930
   5   4   2 45.6848 3.36961
  -4   5   2 1.15490 1.82252
  -3   5   2 362.682 8.46658
  -2   5   2 38.6550 13.3610
  -1   5   2 13.2601 2.29963
   0   5   2 87.3905 3.95257
   1   5   2 1238.80 39.9130
   3   5   2 119.755 3.95087
   4   5   2 168.495 6.15241
  -7   0   3 14.2529 3.76964
  -6   0   3 2.51473 4.03430
  -5   0   3 712.963 20.3561
  -4   0   3 1.01473 1.36341
  -3   0   3 3.64873 1.25661
  -2   0   3 0.83417 0.71790
  -1   0   3 1390.26 34.0359
   0   0   3 0.18535 0.33325
   1   0   3 5796.80 153.624
   2   0   3 9.02740 7.17973
   3   0   3 706.906 17.7544
   4   0   3 1.60298 2.02526
   5   0   3 3515.44 100.954
   6   0   3 20.5244 12.2343
   7   0   3 352.941 22.1884
  -7   1   3 10.3801 3.55236
  -6   1   3 470.585 10.0643
  -5   1   3 36.2779 7.59173
  -4   1   3 156.766 4.60796
  -3   1   3 356.295 6.64012
  -2   1   3 5.23916 0.76394
  -1   1   3 9880.12 248.825
   0   1   3 7127.18 134.263
   1   1   3 662.291 13.3175
   2   1   3 11.5711 1.36282
   3   1   3 265.806 5.96484
   4   1   3 1880.97 38.4252
   5   1   3 52.7729 3.34700
   6   1   3 8.55626 9.78300
   7   1   3 17.6199 7.87119
  -7   2   3 25.8896 2.12499
  -6   2   3 77.3418 3.11906
  -5   2   3 132.226 6.35477
  -4   2   3 40.3747 2.24295
  -3   2   3 6.31597 1.22522
  -2   2   3 73.0780 2.51322
  -1   2   3 193.889 9.95951
   0   2   3 1162.58 22.7755
   1   2   3 45.1288 2.26567
   2   2   3 1308.08 25.0977
   3   2   3 2.22294 0.77686
   4   2   3 42.1117 2.32308
   5   2   3 611.758 14.5478
   6   2   3 20.6613 5.75199
   7   2   3 70.9852 4.00235
  -6   3   3 26.9025 2.00369
  -5   3   3 163.447 10.0285
  -4   3   3 727.223 11.6812
  -3   3   3 413.547 8.49212
  -2   3   3 58.2305 3.08339
  -1   3   3 405.524 11.2682
   0   3   3 849.657 17.7559
   1   3   3 125.789 3.89848
   2   3   3 54.5241 2.41698
   3   3   3 520.416 10.5727
   4   3   3 815.179 14.3291
   5   3   3 135.558 3.17864
   6   3   3 72.2819 6.26057
  -5   4   3 189.484 5.11377
  -4   4   3 56.9281 2.28444
  -3   4   3 937.353 17.2929
  -2   4   3 487.545 11.6113
  -1   4   3 1050.99 24.7803
   0   4   3 88.3371 3.75166
   1   4   3 594.169 12.4059
   2   4   3 170.475 6.84350
   3   4   3 229.216 10.0973
   4   4   3 17.9217 1.90120
   5   4   3 96.5469 2.94962
  -4   5   3 340.713 11.2642
  -3   5   3 42.8537 2.81074
  -2   5   3 36.8854 12.7461
  -1   5   3 101.373 6.98727
   0   5   3 324.692 8.87144
   1   5   3 4.64694 1.37481
   2   5   3 30.1387 3.90421
   3   5   3 42.3735 13.2244
   4   5   3 10.4722 1.76518
   0   6   3 80.6081 10.2929
   1   6   3 1.04676 2.92839
  -7   0   4 22.9129 11.2202
  -6   0   4 816.788 25.1235
  -5   0   4 1.08601 2.60385
  -4   0   4 479.062 28.2435
  -3   0   4 0.08099 0.82403
  -2   0   4 313.643 8.67207
  -1   0   4 0.42957 0.54823
   0   0   4 713.259 22.7131
   1   0   4 0.04221 0.87942
   2   0   4 4669.43 124.048
   3   0   4 2.34521 1.80458
   4   0   4 76.9557 7.55210
   5   0   4 0.52626 3.05218
   6   0   4 92.6574 6.32965
   7   0   4 0.82610 9.36677
  -7   1   4 185.397 5.24743
  -6   1   4 15.9870 3.21215
  -5   1   4 401.174 9.05880
  -4   1   4 528.382 26.2493
  -3   1   4 6.55137 1.14875
  -2   1   4 936.257 16.5092
  -1   1   4 9999.99 184.957
   0   1   4 5120.91 131.040
   1   1   4 299.472 6.25103
   2   1   4 1579.12 26.3409
   3   1   4 3021.02 73.4849
   4   1   4 187.409 6.71864
   5   1   4 169.289 5.67043
   6   1   4 83.7099 3.88761
   7   1   4 143.184 15.1572
  -7   2   4 183.847 4.93294
  -6   2   4 245.686 5.73173
  -5   2   4 3.73630 1.03679
  -4   2   4 293.952 15.9593
  -3   2   4 161.154 4.28683
  -2   2   4 583.416 11.4075
  -1   2   4 301.792 7.01160
   0   2   4 4761.44 91.5428
   1   2   4 523.753 11.9659
   2   2   4 793.186 14.4236
   3   2   4 26.0306 2.68924
   4   2   4 671.771 13.1421
   5   2   4 1.89109 1.11563
   6   2   4 33.0637 2.78143
   7   2   4 10.5140 3.35105
  -6   3   4 5.81839 1.19691
  -5   3   4 352.948 6.65541
  -4   3   4 166.086 8.28055
  -3   3   4 673.158 13.0326
  -2   3   4 68.1649 2.60308
  -1   3   4 579.346 15.5032
   0   3   4 54.2481 9.19718
   1   3   4 588.506 14.0368
   2   3   4 54.3659 3.27834
   3   3   4 417.099 9.43735
   4   3   4 433.032 13.1292
   5   3   4 49.2770 2.24061
   6   3   4 249.043 5.82944
  -5   4   4 32.1391 2.02778
  -4   4   4 51.9103 3.09259
  -3   4   4 12.7273 1.67836
  -2   4   4 56.7510 2.93277
  -1   4   4 10.8096 3.33570
   0   4   4 81.4105 12.8486
   1   4   4 85.9861 3.56416
   2   4   4 330.586 8.01814
   3   4   4 114.207 6.09541
   4   4   4 36.8746 4.23133
   5   4   4 14.2426 1.84851
  -4   5   4 8.88313 3.05734
  -3   5   4 57.5298 2.83552
  -2   5   4 280.771 8.44058
  -1   5   4 40.8930 5.94125
   0   5   4 258.207 8.00286
   1   5   4 1.52518 1.24471
   2   5   4 191.822 5.96411
   3   5   4 133.729 12.8474
   4   5   4 39.5242 2.58480
  -1   6   4 62.7538 8.47031
   0   6   4 6.59531 5.36779
   1   6   4 147.228 7.28418
  -7   0   5 23.5633 3.63297
  -6   0   5 1.09615 2.28543
  -5   0   5 452.443 13.6780
  -4   0   5 0.82346 1.34479
  -3   0   5 3431.90 104.207
  -2   0   5 0.34254 0.85459
  -1   0   5 849.452 20.6741
   0   0   5 0.49243 0.68369
   1   0   5 95.5952 4.09923
   2   0   5 0.19260 2.17814
   3   0   5 228.256 6.97350
   4   0   5 0.00000 10.2271
   5   0   5 337.340 13.0443
   6   0   5 0.21498 2.59108
   7   0   5 216.516 10.6673
  -7   1   5 9.27765 1.96789
  -6   1   5 503.476 11.1540
  -5   1   5 462.666 10.0576
  -4   1   5 156.047 5.03707
  -3   1   5 50.8988 2.74322
  -2   1   5 2022.22 32.8228
  -1   1   5 2044.91 34.6806
   0   1   5 558.525 12.0181
   1   1   5 199.968 4.37540
   2   1   5 1542.09 25.9414
   3   1   5 11.2775 1.23348
   4   1   5 346.522 11.0725
   5   1   5 550.650 20.2147
   6   1   5 250.784 6.77256
   7   1   5 7.73972 3.22943
  -7   2   5 653.221 15.8627
  -6   2   5 3.06226 1.15897
  -5   2   5 3.78175 1.06910
  -4   2   5 5.31675 1.48699
  -3   2   5 1690.71 53.7176
  -2   2   5 365.258 8.07094
  -1   2   5 14.0754 1.65027
   0   2   5 117.683 3.46232
   1   2   5 1255.40 24.7116
   2   2   5 4.05603 0.74736
   3   2   5 367.864 7.55536
   4   2   5 143.284 4.68341
   5   2   5 471.294 10.1851
   6   2   5 45.4929 3.07440
   7   2   5 109.255 4.00301
  -6   3   5 69.0891 2.52923
  -5   3   5 57.7149 2.46918
  -4   3   5 392.532 8.91871
  -3   3   5 870.376 21.7852
  -2   3   5 607.767 12.8948
  -1   3   5 327.255 8.12058
   0   3   5 128.415 6.51160
   1   3   5 443.936 11.8871
   2   3   5 1084.87 24.9422
   3   3   5 274.218 5.60653
   4   3   5 81.5656 4.46562
   5   3   5 210.370 4.99622
   6   3   5 125.580 3.54084
  -5   4   5 72.1526 2.44368
  -4   4   5 14.6998 2.56792
  -3   4   5 105.377 16.9767
  -2   4   5 121.598 3.48488
  -1   4   5 3.78003 2.81004
   0   4   5 47.4914 4.64680
   1   4   5 255.948 16.9215
   2   4   5 20.2574 2.40352
   3   4   5 916.154 17.6457
   4   4   5 195.551 8.36488
   5   4   5 347.460 9.64802
  -4   5   5 122.407 4.75295
  -3   5   5 32.0282 7.29011
  -2   5   5 41.8041 3.13516
  -1   5   5 56.3108 3.22740
   0   5   5 281.688 9.43945
   1   5   5 78.8170 12.5159
   2   5   5 436.951 11.4970
   3   5   5 53.2089 2.83976
   0   6   5 1.38022 4.71782
  -7   0   6 43.1532 3.98447
  -6   0   6 237.218 9.65902
  -5   0   6 4.42323 4.01780
  -4   0   6 2743.48 81.0632
  -3   0   6 0.49727 0.94863
  -2   0   6 23.2309 2.33486
  -1   0   6 0.60474 0.92287
   0   0   6 3165.63 84.9054
   1   0   6 0.54827 0.85189
   2   0   6 562.799 17.5434
   3   0   6 0.18092 1.36501
   4   0   6 652.205 21.4735
   6   0   6 7.46312 2.64310
   7   0   6 1.56973 2.89949
  -7   1   6 61.4623 3.03315
  -6   1   6 41.8615 6.25564
  -5   1   6 231.726 5.34549
  -4   1   6 0.64246 0.97245
  -3   1   6 101.476 4.86536
  -2   1   6 601.662 9.77793
  -1   1   6 2334.21 41.6862
   0   1   6 335.708 5.68037
   1   1   6 9.28072 1.25041
   2   1   6 745.212 13.6427
   3   1   6 12.5563 1.54869
   4   1   6 26.6414 4.32335
   5   1   6 1639.01 89.6000
   6   1   6 2.14945 2.60789
   7   1   6 234.803 8.53839
  -6   2   6 1.13391 1.63865
  -5   2   6 13.3709 1.53749
  -4   2   6 77.5389 2.72829
  -3   2   6 241.702 9.43772
  -2   2   6 2376.92 47.0867
  -1   2   6 1840.10 37.0528
   0   2   6 82.3209 2.85767
   1   2   6 1.35618 0.70100
   2   2   6 4.34850 0.80378
   3   2   6 0.95567 0.85988
   4   2   6 519.318 9.48014
   5   2   6 26.6403 5.45706
   6   2   6 54.9666 4.17664
  -6   3   6 91.3566 3.30109
  -5   3   6 121.091 3.19629
  -4   3   6 1.40658 0.94709
  -3   3   6 1113.54 24.2331
  -2   3   6 58.6291 2.66679
  -1   3   6 645.558 14.8936
   0   3   6 30.4635 2.69800
   1   3   6 752.771 17.0523
   2   3   6 316.006 8.93038
   3   3   6 476.302 9.71529
   4   3   6 3.32167 1.05490
   5   3   6 320.710 11.9605
   6   3   6 115.364 5.94971
  -5   4   6 0.62598 1.01043
  -4   4   6 516.545 11.6370
  -3   4   6 97.9858 6.68563
  -2   4   6 88.8870 3.68939
  -1   4   6 46.6513 4.17798
   0   4   6 1564.21 33.9955
   1   4   6 46.7316 14.4240
   2   4   6 45.7115 3.53211
   3   4   6 247.704 5.26847
   4   4   6 230.722 5.93558
   5   4   6 14.4445 3.88625
  -4   5   6 13.6570 2.51982
  -3   5   6 42.6017 4.97778
  -1   5   6 216.476 5.81752
   0   5   6 2.54591 1.28605
   1   5   6 462.321 33.7709
   2   5   6 2.38932 1.42632
   3   5   6 147.889 4.49704
   4   5   6 28.3656 4.51460
  -7   0   7 732.323 30.4284
  -6   0   7 18.7118 7.77992
  -5   0   7 230.749 17.1591
  -4   0   7 0.00000 1.29423
  -3   0   7 864.263 26.0784
  -2   0   7 4.21924 3.80394
  -1   0   7 32.2406 1.90134
   0   0   7 0.30231 0.77062
   1   0   7 1649.17 45.3679
   2   0   7 0.00000 20.0052
   3   0   7 3222.61 103.464
   4   0   7 5.76796 3.61593
   5   0   7 472.849 18.2971
   6   0   7 4.47419 5.45038
   7   0   7 358.385 16.5827
  -7   1   7 25.2756 2.71618
  -6   1   7 539.108 20.1640
  -5   1   7 61.2793 12.3197
  -4   1   7 355.395 8.06442
  -3   1   7 38.2098 2.55431
  -2   1   7 300.738 8.06152
  -1   1   7 1481.87 30.1728
   0   1   7 1164.32 19.4631
   1   1   7 546.042 9.99213
   2   1   7 598.417 17.8917
   3   1   7 492.842 11.6984
   4   1   7 1660.71 35.2093
   5   1   7 461.348 16.5022
   6   1   7 309.663 15.7040
   7   1   7 2.82940 2.00322
  -6   2   7 37.7949 2.87708
  -5   2   7 90.2038 4.02669
  -4   2   7 303.005 5.83536
  -3   2   7 242.110 6.15241
  -2   2   7 897.255 26.0396
  -1   2   7 5663.39 168.083
   0   2   7 1.95447 0.84769
   1   2   7 13.9520 1.69693
   2   2   7 371.075 15.1615
   3   2   7 691.550 16.6414
   4   2   7 7.08777 1.42755
   5   2   7 204.421 5.66681
   6   2   7 8.42487 5.77836
  -6   3   7 252.788 7.18715
  -5   3   7 96.2657 5.25406
  -4   3   7 40.5436 2.23235
  -3   3   7 272.262 6.24403
  -2   3   7 282.303 11.5701
  -1   3   7 9.25242 2.90066
   0   3   7 183.763 5.98644
   1   3   7 20.1858 2.97552
   2   3   7 695.097 25.2708
   3   3   7 16.4792 3.37586
   4   3   7 95.5137 3.15727
   5   3   7 187.784 5.50621
   6   3   7 212.490 11.2894
  -5   4   7 484.784 13.7845
  -4   4   7 56.3927 2.73736
  -3   4   7 222.397 4.74973
  -2   4   7 30.6117 3.89772
  -1   4   7 48.0545 10.8995
   0   4   7 78.5291 4.39342
   1   4   7 548.720 11.1972
   2   4   7 201.310 11.7871
   3   4   7 45.1424 2.48721
   4   4   7 388.918 9.60444
   5   4   7 51.9243 2.73870
  -3   5   7 103.067 3.49849
  -2   5   7 300.407 8.77314
   0   5   7 116.534 4.16709
   1   5   7 19.4779 4.13580
   2   5   7 253.279 12.3326
   3   5   7 195.211 6.26029
  -7   0   8 1.73951 1.95843
  -6   0   8 6.71616 2.50859
  -4   0   8 29.9781 6.29972
  -3   0   8 0.33039 0.99456
  -2   0   8 496.566 12.2014
  -1   0   8 2.66144 2.39129
   0   0   8 2.61096 0.94367
   1   0   8 0.68238 0.99521
   2   0   8 5855.68 180.197
   4   0   8 44.3168 4.76660
   5   0   8 5.05531 3.92264
   6   0   8 104.292 5.67857
   7   0   8 8.21420 6.56979
  -7   1   8 118.781 3.80100
  -6   1   8 150.864 4.71970
  -5   1   8 23.1281 2.48909
  -4   1   8 6.84105 16.4527
  -3   1   8 777.950 17.5132
  -2   1   8 237.934 4.85400
  -1   1   8 1313.76 41.1686
   0   1   8 181.618 4.44071
   1   1   8 2372.78 43.1520
   2   1   8 740.965 12.8572
   3   1   8 41.4163 4.16779
   4   1   8 112.449 3.79273
   5   1   8 102.626 4.33803
   6   1   8 68.6410 4.00487
   7   1   8 62.0022 7.62753
  -6   2   8 432.678 8.93001
  -5   2   8 7.04282 2.00499
  -4   2   8 1449.05 62.0421
  -3   2   8 424.987 9.63703
  -2   2   8 952.017 21.3258
  -1   2   8 611.729 18.2871
   0   2   8 129.352 3.79712
   1   2   8 83.1188 3.26696
   2   2   8 1432.71 33.8741
   3   2   8 84.9598 10.9720
   4   2   8 1896.60 48.5679
   5   2   8 101.399 3.76812
   6   2   8 75.1353 3.70521
  -6   3   8 0.57417 1.00846
  -5   3   8 30.9668 5.97507
  -4   3   8 37.5901 6.07673
  -3   3   8 35.9563 3.34634
  -2   3   8 239.793 5.50596
  -1   3   8 5.43540 5.32564
   0   3   8 259.338 9.17620
   1   3   8 357.442 9.52455
   2   3   8 773.706 14.1937
   3   3   8 232.287 8.76756
   4   3   8 43.0636 2.55075
   5   3   8 268.910 6.75707
   6   3   8 0.00000 1.85620
  -5   4   8 0.68770 1.20911
  -4   4   8 92.0255 4.87388
  -3   4   8 96.4411 2.95694
  -2   4   8 122.670 4.18801
  -1   4   8 387.380 20.4751
   0   4   8 585.384 22.6604
   1   4   8 0.68444 1.23217
   2   4   8 117.548 4.20958
   3   4   8 179.465 7.70866
   4   4   8 33.8705 2.54397
   5   4   8 2.60421 1.78505
  -3   5   8 509.567 17.0231
  -2   5   8 0.73894 1.39813
  -1   5   8 40.8242 4.33951
   0   5   8 3.08806 1.86550
   1   5   8 158.391 5.65151
   2   5   8 28.4645 2.51986
   3   5   8 12.2056 3.01540
  -7   0   9 134.931 5.56938
  -6   0   9 1.03722 2.59521
  -5   0   9 221.417 8.02562
  -4   0   9 1.20918 1.37162
  -3   0   9 2543.15 92.0903
  -2   0   9 0.31854 1.43142
  -1   0   9 2345.48 61.0437
   0   0   9 3.47033 3.60298
   1   0   9 1856.87 45.0045
   2   0   9 0.20740 1.19339
   3   0   9 787.654 27.0842
   5   0   9 201.284 7.30388
   6   0   9 0.89419 2.86069
   7   0   9 202.000 17.1459
  -6   1   9 4.97242 2.16700
  -5   1   9 95.0413 3.37211
  -4   1   9 647.709 12.5507
  -3   1   9 12.7940 2.52804
  -2   1   9 21.9240 1.92251
  -1   1   9 1080.67 19.1198
   0   1   9 488.815 12.9668
   1   1   9 35.2359 1.91244
   2   1   9 353.005 7.56126
   3   1   9 78.6430 4.36428
   4   1   9 218.577 8.55532
   5   1   9 312.561 8.27719
   6   1   9 2.34900 2.37646
  -6   2   9 9.74940 1.83967
  -5   2   9 27.1472 2.16201
  -4   2   9 576.988 10.6148
  -3   2   9 265.356 5.81671
  -2   2   9 292.486 7.33438
  -1   2   9 851.942 21.5931
   0   2   9 68.9056 20.2661
   1   2   9 1.29752 0.82877
   2   2   9 124.020 5.55086
   3   2   9 401.437 9.39206
   4   2   9 481.200 37.8752
   5   2   9 185.871 5.66614
   6   2   9 2.12487 1.48397
  -6   3   9 80.2895 3.53886
  -5   3   9 59.4273 2.50187
  -4   3   9 256.006 5.18150
  -3   3   9 123.667 4.71402
  -2   3   9 429.299 8.62602
  -1   3   9 551.845 11.9185
   0   3   9 476.644 19.1128
   1   3   9 148.403 4.68722
   2   3   9 212.210 4.64922
   3   3   9 508.396 12.8813
   4   3   9 565.104 28.8188
   5   3   9 9.68333 2.13027
  -5   4   9 297.674 7.73805
  -4   4   9 0.68241 0.97493
  -3   4   9 237.014 5.10814
  -2   4   9 22.3536 2.56210
  -1   4   9 359.813 8.24545
   0   4   9 6.80966 4.14071
   1   4   9 943.939 18.9675
   2   4   9 17.9999 2.77125
   3   4   9 353.930 7.34216
   4   4   9 27.3310 9.29598
  -3   5   9 6.07628 1.48309
  -2   5   9 18.2582 2.45410
  -1   5   9 5.97566 1.46891
   0   5   9 110.577 7.75966
   1   5   9 28.0201 3.45975
   2   5   9 9.89128 2.29780
   3   5   9 19.3560 2.60022
  -6   0  10 374.386 14.5711
  -5   0  10 18.5042 6.91889
  -4   0  10 83.5816 4.12759
  -3   0  10 0.00000 1.24275
  -2   0  10 3442.09 101.298
  -1   0  10 0.40887 0.73607
   0   0  10 1779.84 43.3068
   1   0  10 0.36567 1.03796
   2   0  10 300.522 9.41382
   3   0  10 0.82700 3.55023
   4   0  10 214.327 7.26537
   5   0  10 217.726 16.5396
   6   0  10 449.707 16.0779
  -6   1  10 2.50750 1.50077
  -5   1  10 82.9118 3.28255
  -4   1  10 198.653 6.84039
  -3   1  10 318.780 13.9665
  -2   1  10 229.505 5.84832
  -1   1  10 523.073 11.8500
   0   1  10 0.98647 0.69031
   1   1  10 1538.07 34.6187
   2   1  10 1.03442 0.78074
   3   1  10 287.579 9.17110
   4   1  10 459.357 12.9588
   5   1  10 91.0125 8.00185
   6   1  10 105.459 4.60605
  -6   2  10 98.7548 3.56636
  -5   2  10 36.0750 2.29692
  -4   2  10 294.241 7.25338
  -3   2  10 2.64538 2.19141
  -2   2  10 671.655 15.3859
  -1   2  10 165.797 5.52742
   0   2  10 454.772 10.6890
   1   2  10 13.6305 4.50735
   2   2  10 366.997 9.75280
   3   2  10 29.2226 3.64533
   4   2  10 1002.03 18.3286
   5   2  10 121.556 8.04713
   6   2  10 276.660 8.45947
  -5   3  10 141.199 3.66218
  -4   3  10 204.693 4.66300
  -3   3  10 374.675 11.7323
  -2   3  10 2022.84 43.4724
  -1   3  10 879.876 16.8374
   0   3  10 0.96760 1.14933
   1   3  10 203.609 19.4200
   2   3  10 260.267 5.85841
   3   3  10 21.4805 2.15747
   4   3  10 54.5924 3.13155
   5   3  10 10.1088 11.1153
  -4   4  10 3.19074 0.91821
  -3   4  10 56.4377 6.78459
  -2   4  10 125.720 4.71349
  -1   4  10 2.66119 2.64770
   0   4  10 150.312 5.11976
   1   4  10 49.9392 6.70625
   2   4  10 630.574 13.9212
   3   4  10 23.6884 3.32060
   4   4  10 38.8574 3.11113
  -2   5  10 45.6289 4.20543
  -1   5  10 147.781 4.53106
   0   5  10 2.24855 1.64632
   1   5  10 13.9540 4.33107
   2   5  10 30.5356 2.64644
  -5   0  11 109.338 6.68271
  -4   0  11 0.53601 1.55858
  -3   0  11 570.494 14.9189
  -2   0  11 0.35971 3.17813
  -1   0  11 616.347 17.2314
   0   0  11 0.25467 0.83498
   1   0  11 58.0150 3.17507
   3   0  11 932.670 25.1347
   4   0  11 2.88447 2.15405
   5   0  11 154.230 7.63977
   6   0  11 28.0692 10.1419
  -6   1  11 91.8688 4.54431
  -5   1  11 458.389 10.9617
  -4   1  11 1510.92 25.9368
  -3   1  11 23.8414 2.78022
  -2   1  11 23.6459 3.40057
  -1   1  11 0.68199 1.00787
   0   1  11 277.415 6.94907
   1   1  11 107.293 3.99214
   2   1  11 1422.03 39.3262
   3   1  11 411.843 9.23475
   4   1  11 47.6228 3.02310
   5   1  11 51.0644 3.46353
   6   1  11 457.190 31.3671
  -6   2  11 0.00000 9.36403
  -5   2  11 129.351 6.77193
  -4   2  11 133.188 4.17588
  -3   2  11 284.167 9.58578
  -2   2  11 26.0934 3.83058
  -1   2  11 7.90572 1.84242
   0   2  11 3.18896 1.14466
   1   2  11 2260.16 48.7470
   2   2  11 663.662 20.4205
   3   2  11 78.7429 6.96575
   4   2  11 792.954 14.1764
   5   2  11 547.505 13.9777
   6   2  11 0.64995 3.59021
  -5   3  11 0.00000 4.21228
  -4   3  11 285.735 6.53530
  -3   3  11 56.2945 3.62002
  -2   3  11 331.934 22.7093
  -1   3  11 116.637 6.20999
   0   3  11 273.122 6.66516
   1   3  11 94.3151 4.64140
   2   3  11 103.808 7.37158
   3   3  11 138.341 3.96386
   4   3  11 182.542 5.16451
   5   3  11 160.326 4.73940
  -4   4  11 109.867 3.52817
  -3   4  11 140.509 4.32486
  -2   4  11 26.4466 4.17727
  -1   4  11 70.2038 3.60525
   0   4  11 1.31568 1.34607
   1   4  11 139.336 4.17635
   2   4  11 111.415 5.24837
   3   4  11 35.1005 2.90119
   4   4  11 188.916 6.30529
  -2   5  11 347.300 20.8626
  -1   5  11 1.65632 1.81464
   0   5  11 431.353 10.8768
   1   5  11 4.59863 2.23048
   2   5  11 105.221 5.07446
  -6   0  12 13.1431 3.14605
  -4   0  12 377.781 15.3806
  -3   0  12 0.99218 1.19936
  -2   0  12 987.269 32.1146
  -1   0  12 2.97011 3.09150
   0   0  12 1389.17 37.4100
   1   0  12 0.02516 1.17107
   2   0  12 42.6142 4.76618
   4   0  12 1975.08 53.4950
   5   0  12 0.88905 2.38084
   6   0  12 1.28681 3.42869
  -6   1  12 30.5381 2.16116
  -5   1  12 661.261 23.2688
  -4   1  12 24.8203 3.13005
  -3   1  12 85.6223 3.43034
  -2   1  12 77.2064 3.80506
  -1   1  12 128.972 5.13308
   0   1  12 78.1361 3.32166
   1   1  12 1175.74 24.1125
   2   1  12 19.5817 7.96989
   3   1  12 693.276 19.7379
   4   1  12 5.43181 1.83641
   5   1  12 37.9054 3.30176
   6   1  12 56.3145 3.47328
  -6   2  12 90.7885 3.69649
  -5   2  12 66.9461 6.48501
  -4   2  12 205.902 6.50420
  -3   2  12 79.1938 3.38109
  -2   2  12 544.708 12.4351
  -1   2  12 249.759 7.88363
   0   2  12 76.4373 4.02265
   1   2  12 176.151 5.02433
   2   2  12 424.321 10.6964
   3   2  12 97.5406 12.1159
   4   2  12 199.040 5.07842
   5   2  12 1.81122 1.48174
   6   2  12 3.33966 3.29651
  -5   3  12 88.9415 5.34428
  -4   3  12 54.0497 3.15838
  -3   3  12 192.223 4.87551
  -2   3  12 197.800 5.06796
  -1   3  12 576.532 28.6415
   0   3  12 390.510 9.02854
   1   3  12 291.674 6.21485
   2   3  12 226.387 5.49507
   3   3  12 707.906 23.6052
   4   3  12 113.520 3.53568
   5   3  12 157.475 5.95004
  -4   4  12 228.486 6.48703
  -3   4  12 267.812 7.45220
  -2   4  12 44.3807 3.68965
  -1   4  12 48.9547 3.90562
   0   4  12 231.758 5.90691
   1   4  12 1.44363 1.44179
   2   4  12 31.2012 2.95529
   3   4  12 0.00000 8.17593
   4   4  12 386.108 15.8544
  -2   5  12 14.9134 4.51160
  -1   5  12 471.157 24.5235
   0   5  12 42.1496 2.85413
   1   5  12 12.8169 2.31395
  -6   0  13 0.76940 1.69913
  -5   0  13 48.8333 4.28670
  -4   0  13 4.96996 4.20037
  -3   0  13 219.681 7.06675
  -2   0  13 0.31096 1.08855
  -1   0  13 300.552 10.7546
   0   0  13 7.89310 7.73696
   1   0  13 1447.81 44.5624
   2   0  13 0.34172 1.50696
   3   0  13 858.643 30.0049
   5   0  13 228.919 9.40791
   6   0  13 2.96429 3.01694
  -6   1  13 75.9995 2.94379
  -5   1  13 228.622 6.33848
  -4   1  13 336.567 7.34013
  -3   1  13 7.44612 1.47838
  -2   1  13 1268.70 22.2097
  -1   1  13 393.959 11.1163
   0   1  13 12.1378 3.63183
   1   1  13 438.925 11.0879
   2   1  13 868.491 15.6767
   3   1  13 10.4978 2.64863
   4   1  13 53.2096 6.02595
   5   1  13 1.44985 2.17964
   6   1  13 332.626 9.97191
  -5   2  13 78.7514 3.05549
  -4   2  13 6.47961 1.90799
  -3   2  13 103.047 3.66562
  -2   2  13 12.6264 2.81123
  -1   2  13 1021.61 24.6184
   0   2  13 2.63585 1.95960
   1   2  13 10.9399 2.18577
   2   2  13 448.937 14.3974
   3   2  13 39.4578 4.62191
   4   2  13 11.2199 13.6867
   5   2  13 1.50424 1.46799
  -5   3  13 8.74484 1.77674
  -4   3  13 1.11624 1.04225
  -3   3  13 1.42347 1.08593
  -2   3  13 567.081 11.6114
  -1   3  13 20.8550 3.11111
   0   3  13 85.6029 6.06417
   1   3  13 151.730 4.23918
   2   3  13 614.548 13.6194
   3   3  13 664.011 14.6615
   4   3  13 221.122 8.55315
   5   3  13 9.52679 2.77744
  -3   4  13 784.688 20.3309
  -2   4  13 15.1948 2.87178
  -1   4  13 25.7199 3.73002
   0   4  13 45.8857 10.5509
   1   4  13 71.0153 3.40491
   2   4  13 22.9757 2.50685
   3   4  13 372.449 10.2279
  -1   5  13 44.4812 2.53272
   1   5  13 67.2074 4.58181
  -6   0  14 92.1424 4.95866
  -5   0  14 3.43328 2.71382
  -4   0  14 521.107 18.4543
  -3   0  14 1.86960 7.53320
  -2   0  14 356.586 11.0524
  -1   0  14 0.54340 1.16644
   0   0  14 868.739 36.3912
   2   0  14 8.71682 2.68457
   3   0  14 4.03570 3.51661
   4   0  14 414.999 13.1049
   6   0  14 352.449 21.4632
  -5   1  14 2.99278 1.45625
  -4   1  14 12.6805 2.42901
  -3   1  14 903.159 35.8021
  -2   1  14 332.330 7.41026
  -1   1  14 14.7638 1.94394
   0   1  14 52.5704 2.74370
   1   1  14 1666.42 34.3513
   2   1  14 116.385 4.09674
   3   1  14 11.1236 2.00902
   4   1  14 99.5575 3.69367
   5   1  14 274.844 10.4256
  -5   2  14 23.6868 2.24323
  -4   2  14 409.002 10.3137
  -3   2  14 20.9026 5.11440
  -2   2  14 30.4345 3.46176
  -1   2  14 23.4720 2.53470
   0   2  14 1402.81 39.6506
   1   2  14 618.162 62.4594
   2   2  14 263.560 9.31559
   3   2  14 3.08625 2.09753
   4   2  14 380.553 10.1181
   5   2  14 21.2160 2.98820
  -4   3  14 106.262 3.39365
  -3   3  14 70.5141 14.0961
  -2   3  14 59.1293 3.23222
  -1   3  14 81.5987 3.34408
   0   3  14 33.1998 3.09299
   1   3  14 547.321 15.4991
   2   3  14 72.0444 3.21740
   3   3  14 136.582 5.51582
   4   3  14 60.2188 2.94748
  -3   4  14 79.6029 4.11100
  -2   4  14 437.469 12.4165
  -1   4  14 122.010 4.24972
   0   4  14 39.5545 3.96836
   1   4  14 21.3084 6.85889
   2   4  14 37.7006 2.59633
   3   4  14 2.65802 1.96881
  -5   0  15 1934.78 53.5909
  -4   0  15 1.03828 2.19890
  -3   0  15 3.70674 2.55024
  -2   0  15 11.9372 10.4166
  -1   0  15 48.5133 4.43645
   0   0  15 0.54850 1.20049
   1   0  15 585.068 14.4403
   3   0  15 302.996 10.7309
   4   0  15 2.21857 2.08515
   5   0  15 464.475 28.6277
  -5   1  15 47.0432 2.73447
  -4   1  15 427.805 8.72076
  -3   1  15 223.522 6.10766
  -2   1  15 81.1938 6.06395
  -1   1  15 75.0124 3.09314
   0   1  15 498.410 9.52254
   1   1  15 736.845 14.2210
   2   1  15 134.912 11.7166
   3   1  15 5.72438 2.29612
   4   1  15 562.232 12.7278
   5   1  15 22.2918 3.07172
  -5   2  15 337.437 9.73916
  -4   2  15 16.8526 5.66379
  -3   2  15 57.6540 3.63687
  -2   2  15 102.479 5.94238
  -1   2  15 688.539 16.9704
   0   2  15 21.3423 3.35559
   1   2  15 91.5743 4.29455
   2   2  15 0.00000 4.79472
   3   2  15 49.3885 3.71466
   4   2  15 116.176 4.24425
   5   2  15 38.8625 4.10358
  -4   3  15 307.315 9.44765
  -3   3  15 5.76467 1.94785
  -2   3  15 10.3451 4.13262
  -1   3  15 34.5953 2.67051
   0   3  15 288.275 7.11117
   1   3  15 15.4733 3.89975
   2   3  15 9.37992 7.32253
   3   3  15 372.936 11.5110
   4   3  15 276.474 9.16458
  -2   4  15 61.3319 4.39524
  -1   4  15 137.989 4.28787
   0   4  15 18.9799 2.42677
   1   4  15 159.073 5.29864
   2   4  15 151.574 12.6289
  -4   0  16 4.37000 2.75479
  -3   0  16 0.32509 1.51033
  -2   0  16 850.714 26.4566
  -1   0  16 2.40216 11.6635
   0   0  16 128.748 5.47982
   1   0  16 1.58947 2.14719
   2   0  16 532.937 17.6915
   3   0  16 4.66145 3.31825
   4   0  16 13.0638 3.12927
   5   0  16 3.33094 3.14572
  -5   1  16 1.58143 3.21429
  -4   1  16 76.2719 3.86684
  -3   1  16 21.1844 2.28577
  -2   1  16 413.525 10.1151
  -1   1  16 153.777 19.0243
   0   1  16 244.757 5.88982
   1   1  16 183.848 5.27761
   2   1  16 22.9387 3.05737
   3   1  16 1054.48 23.4486
   4   1  16 3.27836 2.26006
   5   1  16 110.755 5.07250
  -4   2  16 72.3505 2.91798
  -3   2  16 28.6483 2.72497
  -2   2  16 380.698 10.3049
  -1   2  16 197.122 7.69083
   0   2  16 237.739 6.59367
   1   2  16 164.875 6.34269
   2   2  16 221.276 6.95378
   3   2  16 42.2526 4.93348
   4   2  16 113.956 4.05820
  -4   3  16 0.75385 1.25974
  -3   3  16 129.932 3.95517
  -2   3  16 66.3034 4.59040
  -1   3  16 84.8903 34.2087
   0   3  16 10.9450 2.15591
   1   3  16 146.053 5.49024
   2   3  16 113.381 7.17725
   3   3  16 177.064 8.41853
  -1   4  16 73.1773 6.77861
   0   4  16 7.22474 1.98827
   1   4  16 6.00773 1.63347
   2   4  16 401.955 16.6104
  -5   0  17 52.3452 3.57430
  -4   0  17 2.31761 2.13558
  -3   0  17 153.580 5.35123
  -2   0  17 0.43386 1.38725
  -1   0  17 5.27992 3.20826
   0   0  17 1.09553 1.42337
   1   0  17 992.529 22.7008
   2   0  17 0.00154 1.55531
   3   0  17 110.008 6.28980
   4   0  17 2.75742 2.15976
   5   0  17 259.754 12.3114
  -4   1  17 14.4757 2.23036
  -3   1  17 57.1353 2.76991
  -2   1  17 250.147 6.00069
  -1   1  17 38.8552 3.74228
   0   1  17 310.421 7.53820
   1   1  17 56.0949 3.14252
   2   1  17 145.198 4.22268
   3   1  17 638.128 17.2566
   4   1  17 135.132 5.10505
  -4   2  17 7.60623 1.74488
  -3   2  17 418.298 10.2801
  -2   2  17 21.7015 2.75457
  -1   2  17 0.70780 2.27684
   0   2  17 67.1982 3.44982
   1   2  17 1428.93 30.6012
   2   2  17 58.5806 3.38458
   3   2  17 4.52377 1.95396
   4   2  17 1.23867 1.82487
  -3   3  17 57.6365 5.16190
  -2   3  17 35.5829 2.62676
  -1   3  17 19.9595 4.22815
   0   3  17 339.686 14.0342
   1   3  17 1.38512 1.49152
   2   3  17 94.7287 5.56054
   3   3  17 36.5427 3.96463
   0   4  17 46.5558 5.58983
   1   4  17 13.2154 2.68416
  -4   0  18 196.631 6.80282
  -2   0  18 8.40339 2.07402
  -1   0  18 1.55444 2.37479
   0   0  18 3339.09 88.0263
   1   0  18 0.00000 5.49962
   2   0  18 217.618 7.07372
   3   0  18 0.00000 1.85934
   4   0  18 483.255 17.3764
  -4   1  18 13.7270 2.11421
  -3   1  18 0.00000 12.0307
  -2   1  18 169.511 4.87828
  -1   1  18 505.135 10.0277
   0   1  18 135.272 3.99150
   1   1  18 27.9173 4.64229
   2   1  18 80.0593 3.20979
   3   1  18 149.766 4.46121
   4   1  18 13.4539 3.43823
  -4   2  18 373.969 17.5749
  -3   2  18 90.9876 4.44524
  -2   2  18 35.3453 2.74819
  -1   2  18 2.31825 1.99509
   0   2  18 274.733 7.62714
   1   2  18 16.7344 5.71932
   2   2  18 62.0390 3.50802
   3   2  18 25.4110 2.37721
  -2   3  18 68.9755 3.81523
  -1   3  18 258.329 7.45939
   0   3  18 81.7530 3.70772
   1   3  18 281.128 12.0809
   2   3  18 58.8645 3.42651
  -4   0  19 2.47698 2.41607
  -3   0  19 894.256 25.6898
  -2   0  19 1.66256 9.66042
  -1   0  19 306.244 8.71712
   0   0  19 1.73183 1.50180
   1   0  19 204.567 9.90277
   2   0  19 4.63128 8.16399
   3   0  19 527.896 18.1144
   4   0  19 2.39111 2.93560
  -4   1  19 1.20247 1.47729
  -3   1  19 12.7943 3.94855
  -2   1  19 590.507 23.2134
  -1   1  19 176.619 4.61431
   0   1  19 33.6795 2.36694
   1   1  19 0.00000 8.45551
   2   1  19 56.9803 3.36601
   3   1  19 54.5230 3.06371
   4   1  19 75.3234 6.18883
  -3   2  19 5.38722 2.30430
  -2   2  19 0.00000 3.54340
  -1   2  19 75.5627 3.24128
   0   2  19 0.50057 1.19280
   1   2  19 20.9235 5.10116
   2   2  19 1.41934 6.31544
   3   2  19 476.064 14.6425
  -2   3  19 271.469 9.14680
  -1   3  19 83.5493 3.64137
   0   3  19 47.1663 3.36697
   1   3  19 7.56743 5.91785
  -3   0  20 1.62893 1.89782
  -2   0  20 0.00000 13.8852
  -1   0  20 1.24554 1.98296
   0   0  20 134.824 5.53124
   1   0  20 1.09715 2.64365
   2   0  20 6.59528 4.45379
   3   0  20 0.19745 1.79667
  -3   1  20 287.551 8.43385
  -2   1  20 11.7513 3.55192
  -1   1  20 75.5736 3.04744
   0   1  20 22.0345 2.71031
   1   1  20 225.285 5.70321
   2   1  20 15.0898 5.98451
   3   1  20 3.57056 1.45811
  -2   2  20 27.2844 4.78100
  -1   2  20 46.5539 2.81772
   0   2  20 266.949 7.21722
   1   2  20 33.5099 2.74913
   2   2  20 683.930 27.6096
  -2   0  21 1.30625 1.80236
  -1   0  21 78.9981 4.66380
   1   0  21 267.484 12.1080
   2   0  21 2.32429 1.88084
  -2   1  21 6.91442 1.83129
  -1   1  21 118.377 4.66111
   0   1  21 1140.53 28.0518
   1   1  21 8.02615 2.57875
   2   1  21 240.962 7.96970
  -1   2  21 184.291 7.13479
   0   2  21 16.8591 4.23614
  -1   0  22 0.93746 1.64060
   0   0  22 5.51047 5.65669
   1   0  22 3.92512 4.74116
  -1   1  22 478.424 12.5791
   0   1  22 163.597 9.20299
   1   1  22 55.8027 3.23196
   0   0   0    0.00    0.00   0
;
_shelx_hkl_checksum              36489
_olex2_submission_special_instructions 'No special instructions were received'
loop_
_space_group_symop_operation_xyz
'x, y, z'
'-x+1/2, y+1/2, -z+1/2'
'-x, -y, -z'
'x-1/2, -y-1/2, z-1/2'
loop_
_atom_site_label
_atom_site_type_symbol
_atom_site_fract_x
_atom_site_fract_y
_atom_site_fract_z
_atom_site_U_iso_or_equiv
_atom_site_adp_type
_atom_site_occupancy
_atom_site_site_symmetry_order
_atom_site_calc_flag
_atom_site_refinement_flags_posn
S1 S 0.38499(11) 1.00713(15) 0.33096(4) 0.0210(2) Uani 1 1 d .
F1 F 0.1976(2) 0.5928(3) 0.39976(8) 0.0201(4) Uani 1 1 d .
F2 F 0.1305(2) 0.2316(4) 0.49483(9) 0.0227(4) Uani 1 1 d .
C1 C 0.5479(5) 1.2385(6) 0.29432(15) 0.0229(7) Uani 1 1 d .
H1 H 0.5074 1.3529 0.2563 0.028 Uiso 1 1 calc R
C2 C 0.7415(5) 1.2400(6) 0.32587(15) 0.0217(6) Uani 1 1 d .
H2 H 0.8524 1.3559 0.3120 0.026 Uiso 1 1 calc R
C3 C 0.7632(4) 1.0528(5) 0.38142(14) 0.0146(5) Uani 1 1 d .
H3 H 0.8896 1.0288 0.4087 0.018 Uiso 1 1 calc R
C4 C 0.5780(4) 0.9070(6) 0.39186(14) 0.0160(6) Uani 1 1 d .
C5 C 0.5380(4) 0.7028(6) 0.44588(14) 0.0153(6) Uani 1 1 d .
C6 C 0.3528(4) 0.5534(6) 0.44899(14) 0.0157(6) Uani 1 1 d .
C7 C 0.3165(4) 0.3618(6) 0.50015(14) 0.0157(6) Uani 1 1 d .
loop_
_atom_site_aniso_label
_atom_site_aniso_U_11
_atom_site_aniso_U_22
_atom_site_aniso_U_33
_atom_site_aniso_U_23
_atom_site_aniso_U_13
_atom_site_aniso_U_12
S1 0.0203(4) 0.0239(4) 0.0189(4) 0.0034(3) -0.0029(3) -0.0004(3)
F1 0.0155(8) 0.0262(10) 0.0186(8) 0.0047(7) -0.0068(6) -0.0025(7)
F2 0.0153(8) 0.0292(10) 0.0235(9) 0.0052(8) -0.0046(6) -0.0087(7)
C1 0.0311(16) 0.0224(16) 0.0154(14) 0.0029(12) 0.0025(11) 0.0049(12)
C2 0.0270(15) 0.0177(15) 0.0206(14) 0.0006(12) 0.0049(11) -0.0022(12)
C3 0.0176(13) 0.0149(13) 0.0114(12) 0.0004(10) -0.0004(10) -0.0006(10)
C4 0.0176(13) 0.0171(15) 0.0132(13) -0.0018(11) -0.0012(10) 0.0024(11)
C5 0.0157(13) 0.0177(14) 0.0126(12) -0.0033(10) 0.0027(10) 0.0009(10)
C6 0.0139(12) 0.0196(14) 0.0134(12) -0.0035(11) -0.0044(10) 0.0023(11)
C7 0.0127(12) 0.0173(14) 0.0172(14) -0.0032(11) 0.0004(10) -0.0035(10)
loop_
_atom_type_symbol
_atom_type_description
_atom_type_scat_dispersion_real
_atom_type_scat_dispersion_imag
_atom_type_scat_source
C C 0.0181 0.0091 'International Tables Vol C Tables 4.2.6.8 and 6.1.1.4'
H H 0.0000 0.0000 'International Tables Vol C Tables 4.2.6.8 and 6.1.1.4'
F F 0.0727 0.0534 'International Tables Vol C Tables 4.2.6.8 and 6.1.1.4'
S S 0.3331 0.5567 'International Tables Vol C Tables 4.2.6.8 and 6.1.1.4'
loop_
_geom_angle_atom_site_label_1
_geom_angle_atom_site_label_2
_geom_angle_atom_site_label_3
_geom_angle
_geom_angle_site_symmetry_1
_geom_angle_site_symmetry_3
C1 S1 C4 92.42(14) . .
S1 C1 H1 124.0 . .
C2 C1 S1 111.9(2) . .
C2 C1 H1 124.0 . .
C1 C2 H2 123.2 . .
C1 C2 C3 113.6(3) . .
C3 C2 H2 123.2 . .
C2 C3 H3 123.8 . .
C4 C3 C2 112.4(2) . .
C4 C3 H3 123.8 . .
C3 C4 S1 109.7(2) . .
C3 C4 C5 128.0(2) . .
C5 C4 S1 122.2(2) . .
C6 C5 C4 124.0(3) . .
C6 C5 C7 112.9(3) . 3_666
C7 C5 C4 123.1(2) 3_666 .
F1 C6 C5 119.6(3) . .
F1 C6 C7 116.8(2) . .
C7 C6 C5 123.6(3) . .
F2 C7 C5 120.3(3) . 3_666
F2 C7 C6 116.2(2) . .
C6 C7 C5 123.5(2) . 3_666
loop_
_geom_bond_atom_site_label_1
_geom_bond_atom_site_label_2
_geom_bond_distance
_geom_bond_site_symmetry_2
S1 C1 1.704(3) .
S1 C4 1.735(3) .
F1 C6 1.352(3) .
F2 C7 1.348(3) .
C1 H1 0.9500 .
C1 C2 1.351(4) .
C2 H2 0.9500 .
C2 C3 1.410(4) .
C3 H3 0.9500 .
C3 C4 1.396(4) .
C4 C5 1.467(4) .
C5 C6 1.392(4) .
C5 C7 1.396(4) 3_666
C6 C7 1.381(4) .
C7 C5 1.396(4) 3_666
loop_
_geom_torsion_atom_site_label_1
_geom_torsion_atom_site_label_2
_geom_torsion_atom_site_label_3
_geom_torsion_atom_site_label_4
_geom_torsion
_geom_torsion_site_symmetry_1
_geom_torsion_site_symmetry_4
S1 C1 C2 C3 -0.3(3) . .
S1 C4 C5 C6 6.7(4) . .
S1 C4 C5 C7 -173.3(2) . 3_666
F1 C6 C7 F2 0.9(4) . .
F1 C6 C7 C5 179.6(2) . 3_666
C1 S1 C4 C3 -0.8(2) . .
C1 S1 C4 C5 177.8(2) . .
C1 C2 C3 C4 -0.3(4) . .
C2 C3 C4 S1 0.7(3) . .
C2 C3 C4 C5 -177.7(3) . .
C3 C4 C5 C6 -175.1(3) . .
C3 C4 C5 C7 4.9(4) . 3_666
C4 S1 C1 C2 0.6(2) . .
C4 C5 C6 F1 0.4(4) . .
C4 C5 C6 C7 -179.9(3) . .
C5 C6 C7 F2 -178.8(2) . .
C5 C6 C7 C5 -0.2(5) . 3_666
C7 C5 C6 F1 -179.6(2) 3_666 .
C7 C5 C6 C7 0.1(4) 3_666 .
