#------------------------------------------------------------------------------
#$Date: 2019-11-26 14:51:18 +0200 (Tue, 26 Nov 2019) $
#$Revision: 243582 $
#$URL: file:///home/coder/svn-repositories/cod/cif/1/55/62/1556230.cif $
#------------------------------------------------------------------------------
#
# This file is available in the Crystallography Open Database (COD),
# http://www.crystallography.net/
#
# All data on this site have been placed in the public domain by the
# contributors.
#
data_1556230
loop_
_publ_author_name
'Klopfleisch, Maurice'
'Seidel, Raphael A.'
'G\"orls, Helmar'
'Richter, Hannes'
'Beckert, Rainer'
'Imhof, Wolfgang'
'Reiher, Markus'
'Pohnert, Georg'
'Westerhausen, Matthias'
_publ_section_title
;
 Total synthesis and detection of the bilirubin oxidation product
 (Z)-2-(3-ethenyl-4-methyl-5-oxo-1,5-dihydro-2H-pyrrol-2-ylidene)ethanamide
 (Z-BOX A).
;
_journal_issue                   17
_journal_name_full               'Organic letters'
_journal_page_first              4608
_journal_page_last               4611
_journal_paper_doi               10.1021/ol402221b
_journal_volume                  15
_journal_year                    2013
_chemical_formula_moiety         'C8 H7 Br O4'
_chemical_formula_sum            'C8 H7 Br O4'
_chemical_formula_weight         247.05
_space_group_IT_number           14
_space_group_name_Hall           '-P 2ybc'
_space_group_name_H-M_alt        'P 1 21/c 1'
_symmetry_cell_setting           monoclinic
_symmetry_space_group_name_Hall  '-P 2ybc'
_symmetry_space_group_name_H-M   'P 1 21/c 1'
_atom_sites_solution_hydrogens   geom
_atom_sites_solution_primary     direct
_atom_sites_solution_secondary   difmap
_audit_creation_method           SHELXL-97
_cell_angle_alpha                90.00
_cell_angle_beta                 100.989(2)
_cell_angle_gamma                90.00
_cell_formula_units_Z            4
_cell_length_a                   3.9163(2)
_cell_length_b                   22.1922(9)
_cell_length_c                   10.2727(7)
_cell_measurement_reflns_used    6025
_cell_measurement_temperature    133(2)
_cell_measurement_theta_max      27.49
_cell_measurement_theta_min      2.22
_cell_volume                     876.44(8)
_computing_cell_refinement       DENZO
_computing_data_collection       COLLECT
_computing_data_reduction        DENZO
_computing_molecular_graphics    SHELXTL/PC
_computing_publication_material  SHELXL-97
_computing_structure_refinement  'SHELXL-97 (Sheldrick, 1997)'
_computing_structure_solution    'SHELXS-97 (Sheldrick, 1990)'
_diffrn_ambient_temperature      133(2)
_diffrn_measured_fraction_theta_full 0.995
_diffrn_measured_fraction_theta_max 0.995
_diffrn_measurement_device_type  KappaCCD
_diffrn_measurement_method       'phi- + omega-scan'
_diffrn_radiation_monochromator  graphite
_diffrn_radiation_source         'fine-focus sealed tube'
_diffrn_radiation_type           MoK\a
_diffrn_radiation_wavelength     0.71073
_diffrn_reflns_av_R_equivalents  0.0801
_diffrn_reflns_av_sigmaI/netI    0.0857
_diffrn_reflns_limit_h_max       4
_diffrn_reflns_limit_h_min       -5
_diffrn_reflns_limit_k_max       28
_diffrn_reflns_limit_k_min       -28
_diffrn_reflns_limit_l_max       12
_diffrn_reflns_limit_l_min       -13
_diffrn_reflns_number            6025
_diffrn_reflns_theta_full        27.49
_diffrn_reflns_theta_max         27.49
_diffrn_reflns_theta_min         2.22
_exptl_absorpt_coefficient_mu    4.667
_exptl_absorpt_correction_type   none
_exptl_crystal_colour            colourless
_exptl_crystal_density_diffrn    1.872
_exptl_crystal_density_method    'not measured'
_exptl_crystal_description       prism
_exptl_crystal_F_000             488
_exptl_crystal_size_max          0.04
_exptl_crystal_size_mid          0.04
_exptl_crystal_size_min          0.04
_refine_diff_density_max         0.655
_refine_diff_density_min         -0.669
_refine_diff_density_rms         0.122
_refine_ls_extinction_method     none
_refine_ls_goodness_of_fit_ref   0.984
_refine_ls_hydrogen_treatment    constr
_refine_ls_matrix_type           full
_refine_ls_number_parameters     120
_refine_ls_number_reflns         1990
_refine_ls_number_restraints     0
_refine_ls_restrained_S_all      0.984
_refine_ls_R_factor_all          0.0878
_refine_ls_R_factor_gt           0.0418
_refine_ls_shift/su_max          0.002
_refine_ls_shift/su_mean         0.000
_refine_ls_structure_factor_coef Fsqd
_refine_ls_weighting_details
'calc w=1/[\s^2^(Fo^2^)+(0.0440P)^2^+0.0000P] where P=(Fo^2^+2Fc^2^)/3'
_refine_ls_weighting_scheme      calc
_refine_ls_wR_factor_gt          0.0831
_refine_ls_wR_factor_ref         0.0966
_reflns_number_gt                1332
_reflns_number_total             1990
_reflns_threshold_expression     >2sigma(I)
_cod_data_source_file            ol402221b_si_001.cif
_cod_data_source_block           FO4025
_cod_original_sg_symbol_H-M      'P 21/c'
_cod_database_code               1556230
loop_
_symmetry_equiv_pos_as_xyz
'x, y, z'
'-x, y+1/2, -z+1/2'
'-x, -y, -z'
'x, -y-1/2, z-1/2'
loop_
_atom_site_label
_atom_site_type_symbol
_atom_site_fract_x
_atom_site_fract_y
_atom_site_fract_z
_atom_site_U_iso_or_equiv
_atom_site_adp_type
_atom_site_occupancy
_atom_site_symmetry_multiplicity
_atom_site_calc_flag
_atom_site_refinement_flags
Br1 Br 1.36216(10) 0.22778(2) 1.16059(4) 0.02718(17) Uani 1 1 d .
O1 O 1.2803(6) 0.39757(13) 1.3011(2) 0.0199(6) Uani 1 1 d .
O2 O 1.6361(7) 0.32438(14) 1.4038(3) 0.0251(7) Uani 1 1 d .
O3 O 0.7030(7) 0.55331(14) 1.1633(3) 0.0298(7) Uani 1 1 d .
O4 O 1.0891(7) 0.51108(13) 1.3287(3) 0.0253(7) Uani 1 1 d .
C1 C 1.4181(10) 0.33966(19) 1.3103(4) 0.0197(9) Uani 1 1 d .
C2 C 1.2590(9) 0.30792(19) 1.1889(4) 0.0205(9) Uani 1 1 d .
C3 C 1.0498(9) 0.34510(19) 1.1071(4) 0.0191(9) Uani 1 1 d .
C4 C 1.0561(9) 0.40269(19) 1.1787(4) 0.0184(9) Uani 1 1 d .
C5 C 0.8456(9) 0.33322(18) 0.9668(3) 0.0158(8) Uani 1 1 d .
H5A H 0.8107 0.2898 0.9536 0.024 Uiso 1 1 calc R
H5B H 0.9764 0.3489 0.9017 0.024 Uiso 1 1 calc R
H5C H 0.6192 0.3534 0.9552 0.024 Uiso 1 1 calc R
C6 C 0.8824(9) 0.45303(19) 1.1384(4) 0.0223(9) Uani 1 1 d .
H6A H 0.7420 0.4517 1.0521 0.027 Uiso 1 1 calc R
C7 C 0.8793(10) 0.5103(2) 1.2096(4) 0.0213(9) Uani 1 1 d .
C8 C 1.1060(11) 0.5671(2) 1.4017(4) 0.0307(10) Uani 1 1 d .
H8A H 1.2660 0.5626 1.4869 0.046 Uiso 1 1 calc R
H8B H 0.8738 0.5775 1.4172 0.046 Uiso 1 1 calc R
H8C H 1.1896 0.5993 1.3503 0.046 Uiso 1 1 calc R
loop_
_atom_site_aniso_label
_atom_site_aniso_U_11
_atom_site_aniso_U_22
_atom_site_aniso_U_33
_atom_site_aniso_U_23
_atom_site_aniso_U_13
_atom_site_aniso_U_12
Br1 0.0290(2) 0.0227(3) 0.0283(2) -0.0028(2) 0.00172(17) 0.0037(2)
O1 0.0244(14) 0.0192(16) 0.0140(13) 0.0006(12) -0.0017(11) 0.0026(12)
O2 0.0301(15) 0.0268(18) 0.0162(14) 0.0020(13) -0.0010(13) 0.0030(13)
O3 0.0341(16) 0.0229(18) 0.0297(16) 0.0001(14) -0.0007(13) 0.0033(15)
O4 0.0310(16) 0.0197(17) 0.0226(15) -0.0041(13) -0.0015(13) -0.0011(13)
C1 0.021(2) 0.019(2) 0.019(2) 0.0040(17) 0.0057(18) 0.0003(17)
C2 0.0203(18) 0.019(2) 0.022(2) -0.0035(18) 0.0045(17) -0.0018(18)
C3 0.0166(18) 0.023(2) 0.019(2) 0.0014(18) 0.0062(16) -0.0022(17)
C4 0.0155(19) 0.024(3) 0.0153(19) 0.0005(17) 0.0029(16) -0.0012(17)
C5 0.0191(19) 0.011(2) 0.0178(19) 0.0025(16) 0.0055(16) -0.0010(16)
C6 0.0176(19) 0.027(3) 0.021(2) -0.0002(18) 0.0022(17) -0.0015(18)
C7 0.0183(19) 0.021(2) 0.025(2) -0.0004(19) 0.0044(17) -0.0029(18)
C8 0.036(2) 0.024(3) 0.031(2) -0.008(2) 0.003(2) -0.003(2)
loop_
_atom_type_symbol
_atom_type_description
_atom_type_scat_dispersion_real
_atom_type_scat_dispersion_imag
_atom_type_scat_source
C C 0.0033 0.0016 'International Tables Vol C Tables 4.2.6.8 and 6.1.1.4'
H H 0.0000 0.0000 'International Tables Vol C Tables 4.2.6.8 and 6.1.1.4'
O O 0.0106 0.0060 'International Tables Vol C Tables 4.2.6.8 and 6.1.1.4'
Br Br -0.2901 2.4595 'International Tables Vol C Tables 4.2.6.8 and 6.1.1.4'
loop_
_geom_angle_atom_site_label_1
_geom_angle_atom_site_label_2
_geom_angle_atom_site_label_3
_geom_angle
C1 O1 C4 107.8(3)
C7 O4 C8 116.3(3)
O2 C1 O1 121.4(4)
O2 C1 C2 131.7(4)
O1 C1 C2 106.9(3)
C3 C2 C1 110.4(4)
C3 C2 Br1 128.0(3)
C1 C2 Br1 121.6(3)
C2 C3 C4 105.8(3)
C2 C3 C5 129.1(4)
C4 C3 C5 125.1(4)
C6 C4 O1 123.0(4)
C6 C4 C3 127.9(4)
O1 C4 C3 109.1(3)
C3 C5 H5A 109.5
C3 C5 H5B 109.5
H5A C5 H5B 109.5
C3 C5 H5C 109.5
H5A C5 H5C 109.5
H5B C5 H5C 109.5
C4 C6 C7 128.6(4)
C4 C6 H6A 115.7
C7 C6 H6A 115.7
O3 C7 O4 123.4(4)
O3 C7 C6 122.7(4)
O4 C7 C6 113.9(4)
O4 C8 H8A 109.5
O4 C8 H8B 109.5
H8A C8 H8B 109.5
O4 C8 H8C 109.5
H8A C8 H8C 109.5
H8B C8 H8C 109.5
loop_
_geom_bond_atom_site_label_1
_geom_bond_atom_site_label_2
_geom_bond_distance
Br1 C2 1.859(4)
O1 C1 1.390(5)
O1 C4 1.394(4)
O2 C1 1.206(4)
O3 C7 1.220(5)
O4 C7 1.337(5)
O4 C8 1.447(5)
C1 C2 1.464(5)
C2 C3 1.340(5)
C3 C4 1.472(6)
C3 C5 1.532(5)
C4 C6 1.332(6)
C5 H5A 0.9800
C5 H5B 0.9800
C5 H5C 0.9800
C6 C7 1.469(6)
C6 H6A 0.9500
C8 H8A 0.9800
C8 H8B 0.9800
C8 H8C 0.9800
