#------------------------------------------------------------------------------
#$Date: 2019-12-26 20:30:35 +0200 (Thu, 26 Dec 2019) $
#$Revision: 246060 $
#$URL: file:///home/coder/svn-repositories/cod/cif/1/55/68/1556809.cif $
#------------------------------------------------------------------------------
#
# This file is available in the Crystallography Open Database (COD),
# http://www.crystallography.net/. The original data for this entry
# were provided by IUCr Journals, http://journals.iucr.org/.
#
# The file may be used within the scientific community so long as
# proper attribution is given to the journal article from which the
# data were obtained.
#
data_1556809
loop_
_publ_author_name
'Sanjuan-Szklarz, W Fabiola'
'Hoser, Anna A.'
'Gutmann, Matthias'
'Madsen, Anders \/Ostergaard'
'Wo\'zniak, Krzysztof'
_publ_section_title
;
 Yes, one can obtain better quality structures from routine X-ray data
 collection.
;
_journal_issue                   'Pt 1'
_journal_name_full               IUCrJ
_journal_page_first              61
_journal_page_last               70
_journal_paper_doi               10.1107/S2052252515020941
_journal_volume                  3
_journal_year                    2016
_chemical_formula_moiety         '2(Cl), C12 H14 N2'
_chemical_formula_sum            'C12 H14 Cl2 N2'
_chemical_formula_weight         257.15
_space_group_crystal_system      triclinic
_space_group_IT_number           2
_space_group_name_Hall           '-P 1'
_space_group_name_H-M_alt        'P -1'
_atom_sites_solution_hydrogens   geom
_atom_sites_solution_primary     direct
_atom_sites_solution_secondary   difmap
_audit_creation_date             2015-09-24
_audit_creation_method
;
Olex2 1.2
(compiled 2015.01.26 svn.r3150 for OlexSys, GUI svn.r4998)
;
_audit_update_record
' 2008-07-30T15:42  Initial CIF as created by GSAS2CIF'
_cell_angle_alpha                85.165(13)
_cell_angle_beta                 76.785(13)
_cell_angle_gamma                73.868(16)
_cell_formula_units_Z            2
_cell_length_a                   6.5705(11)
_cell_length_b                   7.6756(14)
_cell_length_c                   12.6098(18)
_cell_measurement_temperature    373(2)
_cell_volume                     594.58(18)
_computing_molecular_graphics    'Olex2 (Dolomanov et al., 2009)'
_computing_publication_material  'Olex2 (Dolomanov et al., 2009)'
_computing_structure_refinement  'XL (Sheldrick, 2008)'
_computing_structure_solution    'SHELXS-97 (Sheldrick, 2008)'
_diffrn_ambient_temperature      373.15
_diffrn_measured_fraction_theta_full 0.999
_diffrn_measured_fraction_theta_max 0.999
_diffrn_radiation_monochromator  graphite
_diffrn_radiation_type           MoK\a
_diffrn_radiation_wavelength     0.71073
_diffrn_reflns_av_R_equivalents  0.0000
_diffrn_reflns_av_unetI/netI     0.0211
_diffrn_reflns_limit_h_max       11
_diffrn_reflns_limit_h_min       -11
_diffrn_reflns_limit_k_max       13
_diffrn_reflns_limit_k_min       -13
_diffrn_reflns_limit_l_max       22
_diffrn_reflns_limit_l_min       0
_diffrn_reflns_number            7364
_diffrn_reflns_theta_full        40.00
_diffrn_reflns_theta_max         40.00
_diffrn_reflns_theta_min         1.66
_diffrn_source                   'fine-focus sealed tube'
_exptl_absorpt_coefficient_mu    0.519
_exptl_absorpt_correction_T_max  0.4235
_exptl_absorpt_correction_T_min  0.1813
_exptl_crystal_density_diffrn    1.436
_exptl_crystal_density_method    'not measured'
_exptl_crystal_F_000             268
_exptl_crystal_size_max          5
_exptl_crystal_size_mid          2
_exptl_crystal_size_min          2
_refine_diff_density_max         0.636
_refine_diff_density_min         -0.292
_refine_diff_density_rms         0.099
_refine_ls_extinction_method     none
_refine_ls_goodness_of_fit_all   2.62
_refine_ls_goodness_of_fit_ref   1.089
_refine_ls_hydrogen_treatment    refall
_refine_ls_matrix_type           full
_refine_ls_number_parameters     202
_refine_ls_number_reflns         7364
_refine_ls_number_restraints     0
_refine_ls_restrained_S_all      1.089
_refine_ls_R_factor_all          0.0194
_refine_ls_R_factor_gt           0.0179
_refine_ls_shift/su_max          0.004
_refine_ls_shift/su_mean         0.000
_refine_ls_structure_factor_coef Fsqd
_refine_ls_weighting_details
'calc w=1/[\s^2^(Fo^2^)+(0.0404P)^2^+0.0244P] where P=(Fo^2^+2Fc^2^)/3'
_refine_ls_weighting_scheme      calc
_refine_ls_wR_factor_gt          0.0638
_refine_ls_wR_factor_ref         0.0654
_reflns_number_gt                6831
_reflns_number_total             7364
_reflns_threshold_expression     >2sigma(I)
_cod_data_source_file            fc5011.cif
_cod_data_source_block           BENZ_IAM_80
_cod_original_cell_volume        594.58(17)
_cod_database_code               1556809
_olex2_refinement_description
;
1. Twinned data refinement
 Scales: 0(4) 1(4)
;
_olex2_submission_special_instructions 'No special instructions were received'
loop_
_space_group_symop_id
_space_group_symop_operation_xyz
1 'x, y, z'
2 '-x, -y, -z'
loop_
_atom_site_label
_atom_site_type_symbol
_atom_site_fract_x
_atom_site_fract_y
_atom_site_fract_z
_atom_site_U_iso_or_equiv
_atom_site_adp_type
_atom_site_occupancy
_atom_site_calc_flag
Cl1 Cl 0.040122(12) 0.176093(10) 0.080872(6) 0.01129(2) Uani 1 d
Cl2 Cl 0.460286(13) 0.324905(10) 0.911389(6) 0.01194(2) Uani 1 d
N1 N 1.10310(5) 0.56615(4) 0.11555(2) 0.01122(4) Uani 1 d
N2 N 0.41171(5) 0.92349(4) 0.88630(2) 0.01151(5) Uani 1 d
C1 C 0.99390(5) 0.61917(4) 0.22703(2) 0.00955(5) Uani 1 d
C2 C 0.93455(5) 0.49037(4) 0.30269(3) 0.01101(5) Uani 1 d
C3 C 0.83684(5) 0.54270(4) 0.40953(3) 0.01098(5) Uani 1 d
C4 C 0.79469(5) 0.72249(4) 0.44159(3) 0.00961(5) Uani 1 d
C5 C 0.85544(6) 0.84902(4) 0.36244(3) 0.01134(5) Uani 1 d
C6 C 0.95685(6) 0.79800(4) 0.25585(3) 0.01127(5) Uani 1 d
C7 C 0.51285(5) 0.87098(4) 0.77362(3) 0.01003(5) Uani 1 d
C8 C 0.63266(6) 0.97710(4) 0.70679(3) 0.01198(5) Uani 1 d
C9 C 0.72238(6) 0.92858(5) 0.59878(3) 0.01188(5) Uani 1 d
C10 C 0.69380(5) 0.77563(4) 0.55619(3) 0.00981(5) Uani 1 d
C11 C 0.57200(5) 0.67197(4) 0.62641(3) 0.01154(5) Uani 1 d
C12 C 0.48182(5) 0.71807(4) 0.73482(3) 0.01148(5) Uani 1 d
H1A H 1.1015(17) 0.4600(14) 0.1025(8) 0.027(2) Uiso 1 d
H1B H 1.2411(16) 0.5710(13) 0.1010(8) 0.024(2) Uiso 1 d
H1C H 1.0415(16) 0.6380(14) 0.0659(8) 0.024(2) Uiso 1 d
H2 H 0.9685(14) 0.3660(11) 0.2824(7) 0.0245(19) Uiso 1 d
H2A H 0.4145(17) 1.0312(14) 0.8973(8) 0.024(2) Uiso 1 d
H2B H 0.4777(16) 0.8522(13) 0.9355(8) 0.022(2) Uiso 1 d
H2C H 0.2747(16) 0.9197(13) 0.9036(8) 0.023(2) Uiso 1 d
H3 H 0.8062(14) 0.4478(11) 0.4630(7) 0.0254(19) Uiso 1 d
H5 H 0.8190(13) 0.9777(10) 0.3789(6) 0.0221(18) Uiso 1 d
H6 H 0.9965(14) 0.8876(11) 0.2020(7) 0.0256(19) Uiso 1 d
H8 H 0.6557(13) 1.0789(10) 0.7351(6) 0.0219(18) Uiso 1 d
H9 H 0.8095(14) 1.0013(11) 0.5542(7) 0.0236(18) Uiso 1 d
H11 H 0.5412(13) 0.5674(11) 0.6007(6) 0.0230(18) Uiso 1 d
H12 H 0.3946(14) 0.6469(11) 0.7802(7) 0.0255(19) Uiso 1 d
loop_
_atom_site_aniso_label
_atom_site_aniso_U_11
_atom_site_aniso_U_22
_atom_site_aniso_U_33
_atom_site_aniso_U_23
_atom_site_aniso_U_13
_atom_site_aniso_U_12
Cl1 0.01284(4) 0.01032(4) 0.01064(4) -0.00021(2) -0.00053(2) -0.00456(3)
Cl2 0.01322(4) 0.01133(4) 0.01126(4) -0.00009(2) -0.00073(3) -0.00484(3)
N1 0.01356(10) 0.01195(10) 0.00791(9) -0.00100(7) -0.00036(8) -0.00435(8)
N2 0.01335(10) 0.01280(10) 0.00793(9) -0.00116(7) -0.00056(8) -0.00385(8)
C1 0.01059(10) 0.01032(10) 0.00762(10) -0.00038(8) -0.00105(8) -0.00328(8)
C2 0.01397(11) 0.00991(10) 0.00890(10) -0.00059(8) -0.00067(8) -0.00411(8)
C3 0.01394(11) 0.01029(10) 0.00857(10) -0.00022(8) -0.00054(8) -0.00450(8)
C4 0.01040(10) 0.01024(11) 0.00811(10) -0.00054(8) -0.00109(8) -0.00324(8)
C5 0.01462(11) 0.00969(10) 0.00914(10) -0.00041(8) -0.00094(8) -0.00356(9)
C6 0.01469(12) 0.00998(10) 0.00895(10) 0.00014(8) -0.00103(8) -0.00431(9)
C7 0.01078(11) 0.01119(11) 0.00784(10) -0.00087(8) -0.00081(8) -0.00328(8)
C8 0.01405(11) 0.01295(11) 0.00966(10) -0.00196(8) -0.00005(9) -0.00631(9)
C9 0.01395(12) 0.01275(11) 0.00948(10) -0.00159(8) 0.00044(9) -0.00644(9)
C10 0.01041(10) 0.01078(11) 0.00822(10) -0.00082(8) -0.00090(8) -0.00353(8)
C11 0.01337(11) 0.01186(11) 0.00970(10) -0.00153(8) 0.00013(8) -0.00561(9)
C12 0.01334(11) 0.01160(11) 0.00942(10) -0.00080(8) 0.00016(8) -0.00513(9)
loop_
_atom_type_symbol
_atom_type_description
_atom_type_scat_dispersion_real
_atom_type_scat_dispersion_imag
_atom_type_scat_source
C C 0.0033 0.0016 'International Tables Vol C Tables 4.2.6.8 and 6.1.1.4'
H H 0.0000 0.0000 'International Tables Vol C Tables 4.2.6.8 and 6.1.1.4'
Cl Cl 0.1484 0.1585 'International Tables Vol C Tables 4.2.6.8 and 6.1.1.4'
N N 0.0061 0.0033 'International Tables Vol C Tables 4.2.6.8 and 6.1.1.4'
loop_
_geom_angle_atom_site_label_1
_geom_angle_atom_site_label_2
_geom_angle_atom_site_label_3
_geom_angle
C1 N1 H1A 112.5(7)
C1 N1 H1B 111.5(6)
C1 N1 H1C 112.8(7)
H1A N1 H1B 108.2(9)
H1A N1 H1C 105.4(10)
H1B N1 H1C 106.1(9)
C7 N2 H2A 111.4(7)
C7 N2 H2B 113.5(6)
C7 N2 H2C 111.7(6)
H2A N2 H2B 105.7(9)
H2A N2 H2C 107.7(9)
H2B N2 H2C 106.4(9)
C2 C1 N1 119.78(3)
C2 C1 C6 121.31(3)
C6 C1 N1 118.89(3)
C1 C2 C3 118.81(3)
C1 C2 H2 120.2(5)
C3 C2 H2 120.9(5)
C2 C3 C4 121.58(3)
C2 C3 H3 117.5(5)
C4 C3 H3 120.8(5)
C3 C4 C10 120.98(3)
C5 C4 C3 117.86(3)
C5 C4 C10 121.14(3)
C4 C5 H5 121.1(5)
C6 C5 C4 121.20(3)
C6 C5 H5 117.6(5)
C1 C6 C5 119.22(3)
C1 C6 H6 120.7(5)
C5 C6 H6 120.1(5)
C8 C7 N2 119.54(3)
C8 C7 C12 121.38(3)
C12 C7 N2 119.06(3)
C7 C8 C9 118.90(3)
C7 C8 H8 120.3(5)
C9 C8 H8 120.8(5)
C8 C9 C10 121.51(3)
C8 C9 H9 117.8(5)
C10 C9 H9 120.6(5)
C9 C10 C4 121.08(3)
C11 C10 C4 121.10(3)
C11 C10 C9 117.80(3)
C10 C11 H11 121.5(5)
C12 C11 C10 121.47(3)
C12 C11 H11 116.9(5)
C7 C12 C11 118.94(3)
C7 C12 H12 121.5(5)
C11 C12 H12 119.5(5)
loop_
_geom_bond_atom_site_label_1
_geom_bond_atom_site_label_2
_geom_bond_distance
N1 C1 1.4592(5)
N1 H1A 0.848(10)
N1 H1B 0.894(10)
N1 H1C 0.891(10)
N2 C7 1.4624(5)
N2 H2A 0.855(10)
N2 H2B 0.898(10)
N2 H2C 0.884(10)
C1 C2 1.3874(5)
C1 C6 1.3905(5)
C2 C3 1.3932(5)
C2 H2 0.961(8)
C3 C4 1.4054(5)
C3 H3 0.981(8)
C4 C5 1.4030(5)
C4 C10 1.4849(6)
C5 C6 1.3921(5)
C5 H5 0.978(8)
C6 H6 0.971(8)
C7 C8 1.3894(5)
C7 C12 1.3907(5)
C8 C9 1.3920(5)
C8 H8 0.948(8)
C9 C10 1.4060(5)
C9 H9 0.966(8)
C10 C11 1.4031(5)
C11 C12 1.3928(5)
C11 H11 0.977(8)
C12 H12 0.962(8)
loop_
_geom_torsion_atom_site_label_1
_geom_torsion_atom_site_label_2
_geom_torsion_atom_site_label_3
_geom_torsion_atom_site_label_4
_geom_torsion
N1 C1 C2 C3 177.93(3)
N1 C1 C6 C5 -179.13(3)
N2 C7 C8 C9 -178.04(3)
N2 C7 C12 C11 177.78(3)
C1 C2 C3 C4 0.92(5)
C2 C1 C6 C5 -0.91(5)
C2 C3 C4 C5 -0.37(5)
C2 C3 C4 C10 -178.96(3)
C3 C4 C5 C6 -0.84(5)
C3 C4 C10 C9 156.21(3)
C3 C4 C10 C11 -21.95(5)
C4 C5 C6 C1 1.47(5)
C4 C10 C11 C12 178.22(3)
C5 C4 C10 C9 -22.33(5)
C5 C4 C10 C11 159.50(3)
C6 C1 C2 C3 -0.27(5)
C7 C8 C9 C10 0.19(5)
C8 C7 C12 C11 -0.45(5)
C8 C9 C10 C4 -178.49(3)
C8 C9 C10 C11 -0.27(5)
C9 C10 C11 C12 -0.01(5)
C10 C4 C5 C6 177.75(3)
C10 C11 C12 C7 0.36(5)
C12 C7 C8 C9 0.18(5)
loop_
_twin_individual_id
_twin_individual_mass_fraction_refined
1 0(4)
2 1(4)
