#------------------------------------------------------------------------------
#$Date: 2020-01-01 10:14:18 +0200 (Wed, 01 Jan 2020) $
#$Revision: 246422 $
#$URL: file:///home/coder/svn-repositories/cod/cif/1/55/68/1556893.cif $
#------------------------------------------------------------------------------
#
# This file is available in the Crystallography Open Database (COD),
# http://www.crystallography.net/. The original data for this entry
# were provided by IUCr Journals, http://journals.iucr.org/.
#
# The file may be used within the scientific community so long as
# proper attribution is given to the journal article from which the
# data were obtained.
#
data_1556893
loop_
_publ_author_name
'Giordano, Nico'
'Beavers, Christine M.'
'Campbell, Branton J.'
'Eigner, V\'aclav'
'Gregoryanz, Eugene'
'Marshall, Willliam G.'
'Pe\~na-\'Alvarez, Miriam'
'Teat, Simon J.'
'Vennari, Cara E.'
'Parsons, Simon'
_publ_section_title
;
 High-pressure polymorphism in pyridine
;
_journal_coeditor_code           LQ5025SUP1
_journal_issue                   1
_journal_name_full               IUCrJ
_journal_page_first              58
_journal_page_last               70
_journal_paper_doi               10.1107/S2052252519015616
_journal_volume                  7
_journal_year                    2020
_chemical_formula_moiety         'C5 H5 N'
_chemical_formula_sum            'C5 H5 N'
_chemical_formula_weight         79.10
_chemical_name_systematic        'Pyridine II'
_space_group_crystal_system      orthorhombic
_space_group_IT_number           19
_space_group_name_Hall           'P 2ac 2ab'
_space_group_name_H-M_alt        'P 21 21 21'
_atom_sites_solution_hydrogens   geom
_audit_creation_date             2017-11-13
_audit_creation_method
;
Olex2 1.2
(compiled 2017.08.10 svn.r3458 for OlexSys, GUI svn.r5381)
;
_cell_angle_alpha                90
_cell_angle_beta                 90
_cell_angle_gamma                90
_cell_formula_units_Z            4
_cell_length_a                   5.392(3)
_cell_length_b                   6.806(3)
_cell_length_c                   11.261(5)
_cell_measurement_reflns_used    925
_cell_measurement_temperature    293
_cell_measurement_theta_max      17.84
_cell_measurement_theta_min      2.44
_cell_volume                     413.3(3)
_computing_cell_refinement       'SAINT v8.34A (Bruker, 2013)'
_computing_data_collection       'SAINT V8.38A Bruker-AXS, Madison WI'
_computing_data_reduction        'SAINT v8.34A (Bruker, 2013)'
_computing_molecular_graphics    'Olex2 (Dolomanov et al., 2009)'
_computing_publication_material  'Olex2 (Dolomanov et al., 2009)'
_computing_structure_refinement  'XL (Sheldrick, 2008)'
_computing_structure_solution    'XT (Sheldrick, 2015)'
_diffrn_ambient_temperature      293.0
_diffrn_detector_area_resol_mean 10.42
_diffrn_measured_fraction_theta_full 0.517
_diffrn_measured_fraction_theta_max 0.508
_diffrn_measurement_device_type  'Perkin-Elmer a-Si Detector'
_diffrn_measurement_method       '\f shuterless scans'
_diffrn_radiation_monochromator  'silicon 111'
_diffrn_radiation_type           synchrotron
_diffrn_radiation_wavelength     0.49594
_diffrn_reflns_av_R_equivalents  0.0330
_diffrn_reflns_av_unetI/netI     0.0431
_diffrn_reflns_Laue_measured_fraction_full 0.517
_diffrn_reflns_Laue_measured_fraction_max 0.508
_diffrn_reflns_limit_h_max       3
_diffrn_reflns_limit_h_min       -3
_diffrn_reflns_limit_k_max       8
_diffrn_reflns_limit_k_min       -8
_diffrn_reflns_limit_l_max       14
_diffrn_reflns_limit_l_min       -14
_diffrn_reflns_number            1324
_diffrn_reflns_point_group_measured_fraction_full 0.495
_diffrn_reflns_point_group_measured_fraction_max 0.484
_diffrn_reflns_theta_full        17.311
_diffrn_reflns_theta_max         18.069
_diffrn_reflns_theta_min         2.524
_diffrn_source
;
Advanced Light Source, station 12.2.2
;
_diffrn_standards_number         0
_exptl_absorpt_coefficient_mu    0.042
_exptl_absorpt_correction_T_max  0.7442
_exptl_absorpt_correction_T_min  0.4840
_exptl_absorpt_correction_type   multi-scan
_exptl_absorpt_process_details
;
SADABS-2014/4 (Bruker,2014/4) was used for absorption correction.
wR2(int) was 0.1139 before and 0.0421 after correction.
The Ratio of minimum to maximum transmission is 0.6504.
The \l/2 correction factor is Not present.
;
_exptl_crystal_colour            colourless
_exptl_crystal_colour_primary    colourless
_exptl_crystal_density_diffrn    1.271
_exptl_crystal_description       irregular
_exptl_crystal_F_000             168
_exptl_crystal_recrystallization_method
;
Crystallized in-situ from pyridine (H5) directly. No hydrostatic medium. 
Pressure was cycled until 1.1 GPa was reached. The pressure dropped 
slightly at the end of data collection. Sample was not heat treated.
;
_exptl_crystal_size_max          0.26
_exptl_crystal_size_mid          0.26
_exptl_crystal_size_min          0.1
_refine_diff_density_max         0.043
_refine_diff_density_min         -0.048
_refine_diff_density_rms         0.013
_refine_ls_abs_structure_details
;
 Flack x determined using 85 quotients [(I+)-(I-)]/[(I+)+(I-)]
 (Parsons, Flack and Wagner, Acta Cryst. B69 (2013) 249-259).
;
_refine_ls_abs_structure_Flack   10.0(10)
_refine_ls_extinction_coef       1.8(4)
_refine_ls_extinction_expression Fc^*^=kFc[1+0.001xFc^2^\l^3^/sin(2\q)]^-1/4^
_refine_ls_extinction_method     'SHELXL-2014/7 (Sheldrick 2014'
_refine_ls_goodness_of_fit_ref   0.882
_refine_ls_hydrogen_treatment    constr
_refine_ls_matrix_type           full
_refine_ls_number_parameters     56
_refine_ls_number_reflns         411
_refine_ls_number_restraints     0
_refine_ls_restrained_S_all      0.882
_refine_ls_R_factor_all          0.0400
_refine_ls_R_factor_gt           0.0290
_refine_ls_shift/su_max          0.000
_refine_ls_shift/su_mean         0.000
_refine_ls_structure_factor_coef Fsqd
_refine_ls_weighting_details
'w=1/[\s^2^(Fo^2^)+(0.0349P)^2^] where P=(Fo^2^+2Fc^2^)/3'
_refine_ls_weighting_scheme      calc
_refine_ls_wR_factor_gt          0.0583
_refine_ls_wR_factor_ref         0.0602
_reflns_Friedel_coverage         0.545
_reflns_Friedel_fraction_full    0.457
_reflns_Friedel_fraction_max     0.445
_reflns_number_gt                291
_reflns_number_total             411
_reflns_threshold_expression     'I > 2\s(I)'
_cod_data_source_file            lq5025.cif
_cod_data_source_block           pyridine2_final
_cod_original_cell_volume        413.2(3)
_cod_database_code               1556893
_shelx_shelxl_version_number     2014/7
_shelx_space_group_comment
;
The symmetry employed for this shelxl refinement is uniquely defined
by the following loop, which should always be used as a source of
symmetry information in preference to the above space-group names.
They are only intended as comments.
;
_shelx_estimated_absorpt_t_max   0.996
_shelx_estimated_absorpt_t_min   0.989
_olex2_refinement_description
;
1. Fixed Uiso
 At 1.2 times of:
  All C(H) groups
2.a Aromatic/amide H refined with riding coordinates:
 C2(H2), C3(H3), C4(H4), C5(H5), C6(H6)
;
_shelx_res_file
;
    pyridine_a.res created by SHELXL-2014/7

TITL pyridine_a.res in P2(1)2(1)2(1)
REM Old TITL pyridine in P2(1)2(1)2(1)
REM SHELXT solution in P2(1)2(1)2(1)
REM R1 0.138, Rweak 0.011, Alpha 0.020, Orientation as input
REM Flack x = -0.115 ( 3.664 ) from Parsons' quotients
REM Formula found by SHELXT: C5 N
CELL 0.49594 5.3919 6.806 11.2607 90 90 90
ZERR 4 0.0032 0.0027 0.0045 0 0 0
LATT -1
SYMM 0.5-X,-Y,0.5+Z
SYMM -X,0.5+Y,0.5-Z
SYMM 0.5+X,0.5-Y,-Z
SFAC C H N
DISP C 0.001 0.001 6.243
DISP H -0 0 0.608
DISP N 0.002 0.001 9.325
UNIT 20 20 4

L.S. 10
PLAN  2
SIZE 0.26 0.26 0.1
TEMP 19.85
BOND $H
LIST 6
fmap 2
acta
OMIT 0 1 3
OMIT 0 2 2
OMIT 1 2 1
OMIT 0 2 3
OMIT 0 1 1
REM <olex2.extras>
REM <HklSrc "%.\\pyridine_a.hkl">
REM </olex2.extras>

WGHT    0.034900
EXTI    1.750525
FVAR       4.52483
N1    3    0.366008    0.574684    0.120046    11.00000    0.05048    0.05542 =
         0.05042    0.00533    0.00359   -0.00760
C2    1    0.183900    0.580411    0.042358    11.00000    0.06293    0.05350 =
         0.04212    0.00372    0.00298   -0.00204
AFIX  43
H2    2    0.188502    0.677636   -0.015632    11.00000   -1.20000
AFIX   0
C3    1   -0.012649    0.451925    0.041427    11.00000    0.07530    0.06333 =
         0.04986   -0.01218   -0.00932    0.00162
AFIX  43
H3    2   -0.136898    0.463269   -0.015445    11.00000   -1.20000
AFIX   0
C4    1   -0.022766    0.305193    0.126576    11.00000    0.07170    0.04953 =
         0.06918   -0.01307    0.01158   -0.01232
AFIX  43
H4    2   -0.153546    0.216187    0.128915    11.00000   -1.20000
AFIX   0
C5    1    0.167133    0.296194    0.207171    11.00000    0.08875    0.04517 =
         0.05272    0.00648    0.00741   -0.00415
AFIX  43
H5    2    0.167906    0.199534    0.265546    11.00000   -1.20000
AFIX   0
C6    1    0.355335    0.430107    0.201240    11.00000    0.05808    0.06144 =
         0.04399    0.00242   -0.00206    0.00352
AFIX  43
H6    2    0.483159    0.420781    0.256404    11.00000   -1.20000
AFIX   0
HKLF 4

REM  pyridine_a.res in P2(1)2(1)2(1)
REM R1 =  0.0290 for     291 Fo > 4sig(Fo)  and  0.0400 for all     411 data
REM     56 parameters refined using      0 restraints

END

WGHT      0.0347      0.0000

REM Highest difference peak  0.043,  deepest hole -0.048,  1-sigma level  0.013
Q1    1   0.5599  0.7178  0.1226  11.00000  0.05    0.04
Q2    1  -0.3671  0.3858  0.1178  11.00000  0.05    0.04
;
_shelx_res_checksum              81337
_shelx_hkl_file
;
   0   1   0    0.10    1.90
   0  -1   0   -0.40    1.90
   0  -1   0    0.00    1.70
   0   1   0   -0.30    1.50
   0   2   0 3614.94   36.70
   0   2   0 3570.34   22.50
   0  -2   0 3548.45   38.60
  -1  -2   0 4616.04   28.80
   0  -3   0    0.20    6.00
   0   3   0   -0.60    5.90
   0   3   0   -0.50    6.20
   0  -3   0   -1.60    6.10
  -1  -3   0  270.07   18.80
   1   3   0  258.47   10.20
   1   3   0  260.27   16.90
  -1  -3   0  257.67   10.00
   0  -4   0    6.80    9.40
   0   4   0    8.50    9.20
   0   4   0    9.20    8.40
   0  -4   0   15.70   10.50
  -1  -4   0  371.56   23.90
   1   4   0  363.76   22.60
  -1  -4   0  362.26   14.00
   1   4   0  314.77   14.80
  -2  -4   0  263.37   16.20
   2   4   0  271.27   27.70
   0   5   0   -5.40   14.00
   0   5   0    1.10   11.30
   0  -5   0   -1.50   11.10
   0  -5   0   -1.50   11.80
   1   5   0  437.76   30.60
  -1  -5   0  393.76   30.40
   2   5   0   16.60   17.20
  -2  -5   0   16.40   11.40
   0  -6   0 1081.59   44.40
   0  -6   0 1152.08   26.80
   0   6   0 1109.49   29.30
   0   6   0 1118.49   42.20
  -1  -6   0  910.31   46.20
   1  -6   0  859.91   42.30
  -1   6   0  968.50   29.40
   1   6   0  980.40   43.10
  -2  -6   0  184.88   26.60
   2   6   0  188.38   33.00
   3   6   0   67.79   26.90
  -3  -6   0   54.09   22.50
   0   7   0   -0.30   18.00
   0  -7   0   -0.50   21.00
  -1   7   0  982.00   40.70
  -1  -7   0  932.21   31.80
   1   7   0  911.91   46.30
   1  -7   0  897.31   52.89
  -1  -7   0  928.81   55.39
   2   7   0   -1.30   25.90
  -2  -7   0   -9.30   20.10
   3   7   0    8.40   25.50
  -3  -7   0   10.50   19.40
   0  -8   0  915.41   57.39
   0   8   0  942.71   36.70
  -1  -8   0    0.40   29.00
  -1   8   0   60.89   32.20
   1   8   0   -7.00   23.50
   1  -8   0    9.50   23.70
   1   8   0    0.20   24.80
   2   8   0    7.80   29.00
   0   0  -1   -0.10    0.90
   0   0  -1    0.00    1.20
   0   0   1    0.10    1.20
   0   0   1    0.00    0.90
   0   1  -1 1286.67   10.70
   0  -1   1 1240.68   11.00
   0   1  -1 1330.17   19.70
   0  -1   1 1299.07   20.20
   0  -2   1 3383.36   42.20
   0   2  -1 3449.16   40.10
   0  -2  -1 3231.88   32.30
  -1  -2   1 9999.00   93.89
   0   3  -1 3586.04   28.80
   0  -3  -1 3494.55   42.90
   0   3  -1 3826.32   50.49
   0  -3   1 3989.10   29.60
   0  -3   1 3708.83   51.59
   1   3  -1 1008.70   15.90
  -1  -3  -1 1051.39   31.20
   1   3  -1 1057.99   30.10
  -1  -3   1 1034.90   16.20
  -1  -3   1 1021.70   31.80
   1   3   1 1012.70   24.80
   0  -4  -1 1655.83   36.30
   0  -4   1 1688.03   23.00
   0   4  -1 1486.65   24.00
   0   4  -1 1648.14   37.80
   0  -4   1 1664.23   40.80
   0   4   1 1592.74   32.60
  -1  -4  -1 2017.40   44.30
   1   4  -1 2086.29   45.90
   1   4  -1 1991.00   25.00
   1   4   1 1986.70   39.60
  -1  -4   1 2104.49   26.80
  -1  -4   1 2041.10   48.00
   2   4  -1    5.30   15.30
  -2  -4   1    3.00    9.80
   2   4   1    4.40   14.00
   0  -5   1    6.10   16.10
   0   5  -1    6.40   12.80
   0   5  -1    7.00   14.90
   0  -5   1    5.20   13.50
   0  -5  -1    7.40   12.10
   1  -5   1  472.45   32.60
  -1  -5  -1  468.95   31.20
   1   5  -1  478.85   31.50
   1   5  -1  482.05   21.40
  -1   5  -1  495.05   21.40
  -1  -5   1  475.05   33.90
  -1  -5   1  490.05   23.20
   1   5   1  484.85   28.20
   2   5  -1  897.71   41.80
   2   5   1  870.71   38.00
  -2  -5   1  864.71   23.40
   0  -6   1  844.42   27.00
   0  -6  -1  807.42   39.50
   0  -6   1  786.62   40.50
   0   6  -1  805.32   38.20
   0   6  -1  824.22   27.90
   1   6  -1  288.17   32.80
  -1   6   1  296.47   23.10
  -1  -6  -1  291.77   34.40
   1   6  -1  293.57   24.40
   1  -6   1  288.37   32.30
  -1  -6   1  276.57   26.90
   1   6   1  298.97   30.10
  -1  -6   1  295.67   37.00
   2   6  -1    7.80   20.50
   2   6   1   10.10   18.00
  -2  -6   1    6.00   16.40
   3   6  -1  116.19   38.30
  -3  -6   1   82.69   23.70
   3   6   1  115.09   36.00
   0  -7  -1  338.17   37.60
   0  -7   1  321.17   39.60
   0   7  -1  335.27   38.40
   0   7  -1  346.27   29.60
   0  -7   1  367.66   30.70
  -1  -7  -1   60.59   27.90
   1  -7   1   62.29   24.70
   1   7  -1   67.79   20.30
   1   7  -1   61.39   25.70
  -1  -7   1   77.99   21.20
   1  -7  -1   70.49   25.70
   1   7   1   59.19   22.90
  -1  -7   1   53.59   27.70
   2   7  -1   65.99   29.10
  -2  -7   1  103.09   24.50
   2   7   1   70.69   25.80
   3   7  -1   17.20   26.80
   3   7   1   18.10   25.90
  -3  -7   1   17.00   20.30
   0  -8  -1   19.70   25.90
   0   8  -1   28.40   23.00
   0  -8   1   20.40   27.80
   1   8  -1   15.80   29.50
  -1  -8  -1   21.90   32.20
   1   8  -1   16.00   21.50
   1  -8   1   21.40   25.70
  -1  -8   1   26.10   31.60
  -1   8  -1   87.69   33.30
   1  -8  -1   23.10   23.70
  -1  -8   1   26.10   27.80
   1   8   1   20.30   22.90
   2   8  -1   12.80   28.90
   2   8   1   18.20   27.20
  -2  -8   1    5.10   22.60
   0   0   2   88.39    3.60
   0   0   2   89.69    5.50
   0   0  -2   93.79    5.40
   0   0  -2   81.89    3.30
   0  -2   2 6161.48   64.39
   1   2  -2 3312.97   26.70
   1   2  -2 3279.57   50.69
  -1  -2   2 3133.79   52.19
  -1  -2   2 3361.06   27.10
   0  -3   2  622.64   16.20
   0  -3  -2  591.54   17.40
   0   3  -2  619.04   23.60
   0   3  -2  600.94   15.00
   0  -3   2  623.34   24.10
   1   3  -2   50.89   10.00
   1   3  -2   52.19   15.00
  -1  -3   2   53.19   15.60
  -1  -3   2   51.39    9.10
   1   3   2   47.70   10.70
  -1   3  -2   52.89   10.30
   0   4  -2   60.19   18.30
   0  -4  -2   53.69   14.20
   0  -4   2   57.49   17.30
  -1  -4  -2 1886.41   42.30
   1  -4   2 1846.12   49.00
   1   4  -2 1894.91   46.90
   1   4  -2 1871.31   27.10
  -1  -4   2 1950.10   27.90
  -1   4  -2 1966.10   31.30
  -1  -4   2 1863.71   49.30
   1   4   2 1849.81   34.20
   2   4  -2  223.98   28.10
   2   4   2  210.88   24.00
  -2  -4   2  220.08   16.80
   0  -5  -2    5.70   11.20
   0   5  -2    7.00   14.00
   0   5  -2    2.00   15.30
   0  -5   2    7.20   16.90
   0  -5   2    4.10   14.00
   1   5  -2  471.25   22.60
   1   5  -2  496.35   35.20
   1  -5   2  487.65   32.90
  -1  -5  -2  489.05   31.40
  -1  -5   2  476.45   25.50
   1   5   2  505.95   26.70
  -1   5  -2  517.45   22.00
  -1  -5   2  482.55   35.50
   2   5  -2  382.26   35.20
   2   5   2  381.16   28.00
  -2  -5   2  386.16   20.70
   0   6  -2   36.80   17.60
   0  -6   2   30.30   18.20
   0  -6   2   66.09   22.40
   0  -6  -2   35.00   16.70
   0   6  -2   52.59   17.90
   1  -6   2  562.84   40.90
   1   6  -2  563.74   27.60
   1   6  -2  572.24   40.60
  -1  -6  -2  584.54   38.90
  -1   6  -2  601.74   32.60
   1   6   2  601.74   31.80
  -1  -6   2  565.14   28.70
  -1  -6   2  575.54   45.20
   2   6  -2   40.90   17.40
   2   6  -2   51.29   24.80
  -2  -6   2   46.80   19.00
   2   6   2   55.99   21.00
  -2  -6   2   49.50   30.90
   3   6  -2  170.18   41.90
   3   6   2  202.48   37.40
  -3  -6   2  113.29   29.40
   0  -7   2 1110.79   34.70
   0  -7  -2 1050.69   48.00
   0   7  -2 1062.09   51.09
   0  -7   2 1112.99   56.39
   0   7  -2 1094.29   35.80
   1   7  -2  171.18   40.30
   1   7  -2  173.58   31.20
  -1  -7  -2  196.08   43.00
   1  -7   2  184.68   40.50
  -1  -7   2  182.98   32.90
   1  -7  -2  153.48   34.80
   1   7   2  187.38   29.30
  -1  -7   2  174.08   46.10
   2   7  -2    1.70   29.80
   2   7  -2    2.60   20.00
  -2  -7   2  -13.40   23.30
   2   7   2    6.20   23.10
  -2  -7   2   -1.90   36.50
   3   7  -2   18.00   28.00
   3   7   2   21.70   24.50
  -3  -7   2   27.00   21.20
   0   8  -2   -2.50   23.20
   0   8  -2    4.90   26.00
   0  -8   2   14.10   26.20
   0  -8   2    3.50   29.40
   0  -8  -2    3.70   22.70
   1   8  -2  101.19   24.00
   1  -8   2  108.79   45.20
  -1  -8  -2   96.79   33.50
   1   8  -2  116.49   47.50
   1  -8  -2   98.79   37.50
  -1  -8   2  158.08   30.00
  -1  -8   2   95.99   35.20
  -1   8  -2  157.08   37.50
   2   8  -2   16.80   26.30
   2   8  -2   13.30   31.30
  -2  -8   2   17.10   42.80
  -2  -8   2    7.60   24.40
   2   8   2   16.60   24.50
   0   0   3    0.80    2.70
   0   0  -3    0.20    3.40
   0   0   3    0.40    3.30
   0   0  -3    0.80    2.90
   0   1  -3 7991.50   44.50
   0   2  -3 4534.55   57.79
   0  -2   3 4529.95   60.69
   0  -2   3 4785.22   33.80
   1   2  -3 2702.13   48.10
   1   2  -3 2600.54   24.70
   1  -2   3 2431.36   44.00
  -1  -2   3 2579.34   25.70
  -1  -2   3 2529.85   49.20
  -1   2  -3 2534.35   24.80
   0  -3   3 1317.57   21.70
   0  -3   3 1298.77   37.10
   0   3  -3 1332.97   35.60
   0   3  -3 1292.57   22.60
   1   3  -3 5196.88   39.90
   1  -3   3 5023.10   71.89
   1   3  -3 5173.88   72.19
  -1  -3   3 5486.85   41.70
  -1   3  -3 4923.71   39.20
  -1  -3   3 4784.52   72.59
   2   3  -3 1325.57   48.50
  -2  -3   3 1194.08   30.50
   0  -4   3 2380.86   30.90
   0   4  -3 2383.76   52.39
   0  -4   3 2289.17   53.39
   0   4  -3 2220.68   32.70
   0  -4  -3 2248.28   35.50
   1   4  -3    4.10   11.00
   1   4  -3    3.50   13.40
   1  -4   3    4.30   12.10
  -1  -4   3    1.00   10.80
  -1   4  -3   10.00   11.10
  -1  -4   3    3.60   14.80
   2   4  -3  419.76   35.20
  -2  -4   3  410.46   19.60
   2   4   3  383.46   25.60
   0  -5  -3    7.50   11.30
   0   5  -3    9.70   15.10
   0  -5   3    7.60   13.00
   0  -5   3   18.70   15.00
   0   5  -3   15.00   14.60
   1   5  -3 1576.64   31.40
   1   5  -3 1640.44   53.79
   1  -5   3 1539.65   51.79
  -1  -5   3 1596.84   56.69
   1   5   3 1564.74   31.80
  -1  -5   3 1588.34   33.40
  -1   5  -3 1518.85   31.10
   2   5  -3  438.26   23.00
   2   5  -3  436.46   37.60
  -2  -5   3  439.06   47.30
   2   5   3  439.36   27.30
  -2  -5   3  440.76   22.30
   0   6  -3   18.20   19.70
   0  -6  -3   14.30   14.40
   0  -6   3   11.90   17.10
   0   6  -3   19.30   16.70
   0  -6   3   22.30   23.50
   1   6  -3  158.38   25.50
   1   6  -3  145.59   34.30
  -1  -6  -3  142.79   33.50
   1  -6   3  158.28   34.10
  -1  -6   3  135.39   27.90
  -1  -6   3  140.49   36.30
   1   6   3  143.49   20.10
   2   6  -3  541.45   46.30
   2   6  -3  550.44   29.30
  -2  -6   3  560.34   60.29
   2   6   3  590.54   34.30
  -2  -6   3  590.04   35.70
   3   6  -3   32.60   25.40
   3   6   3   31.90   22.30
  -3  -6   3   22.90   24.00
   0   7  -3    0.20   22.30
   0   7  -3    4.00   20.70
   0  -7   3    1.30   23.10
   0  -7  -3    0.40   17.50
   0  -7   3    4.90   20.50
   1   7  -3   18.20   20.50
   1   7  -3   12.70   24.60
   1  -7   3   23.40   26.60
  -1  -7  -3   17.30   26.00
   1  -7  -3   14.30   20.90
  -1  -7   3   15.40   25.40
  -1  -7   3   16.80   28.80
  -1   7  -3   73.29   26.40
   2   7  -3   14.40   22.40
   2   7  -3   13.10   31.00
  -2  -7   3   14.50   23.10
   2   7   3   13.10   19.00
  -2  -7   3   10.00   39.10
   3   7   3   91.69   34.70
  -3  -7   3   67.79   23.70
   0  -8  -3  120.29   38.40
   0  -8   3  138.29   50.69
   0   8  -3  147.09   42.10
   0   8  -3  162.38   25.50
   0  -8   3  162.58   28.20
   1  -8   3   47.40   31.30
   1   8  -3   47.20   31.20
   1   8  -3   54.89   25.50
  -1  -8  -3   46.30   31.80
  -1  -8   3   48.10   26.70
  -1  -8   3   52.19   35.30
  -1   8  -3  107.39   30.20
   1  -8  -3   41.40   25.40
   0   0   4    2.90    5.20
   0   0  -4    2.00    4.40
   0   0   4    0.70    3.90
   0   0  -4    1.30    4.80
   1   0   4 1039.50   22.40
  -1   0  -4 1024.20   13.40
   0   1  -4 1004.00   14.50
   0   1  -4 1059.49   25.90
   0  -1   4 1038.10   26.20
   0  -1  -4 1012.40   17.80
   0  -1   4 1045.40   14.50
   0   1   4 1006.00   21.50
   1  -1   4   55.09   10.50
   1   1  -4   53.79    9.10
   1   1  -4   61.79   13.70
  -1   1  -4   48.50    7.50
  -1  -1   4   60.29   17.10
  -1  -1   4   57.09    7.80
   0   2  -4  866.71   16.80
   0  -2   4  888.11   17.10
   0   2  -4  837.82   28.30
   0  -2   4  923.71   28.80
   1   2  -4 3568.24   31.20
   1   2  -4 3397.86   57.09
   1  -2   4 3465.25   55.69
   1  -2   4 3498.25   31.90
  -1  -2   4 3474.55   31.60
  -1   2  -4 3321.07   29.90
  -1  -2   4 3553.84   61.29
  -1   2  -4 3521.65   53.09
   0  -3   4 1407.56   39.70
   0   3  -4 1367.16   24.60
   0   3  -4 1448.85   40.00
   0  -3   4 1434.86   24.20
   1   3  -4 1945.31   47.90
   1   3  -4 1873.91   26.00
   1  -3   4 1895.01   47.80
   1  -3   4 1741.63   27.10
  -1  -3   4 1927.91   25.40
  -1   3  -4 1911.51   26.70
  -1   3  -4 1800.32   44.60
  -1  -3   4 1929.11   49.30
   2   3  -4 3863.21   78.99
  -2  -3   4 3703.93   40.60
   0  -4   4   77.29   20.00
   0   4  -4   79.79   21.20
   1   4  -4  134.89   25.00
   1   4  -4  136.79   18.80
   1  -4   4  133.09   21.30
   1  -4   4  135.69   24.60
  -1   4  -4  147.49   17.30
  -1   4  -4  134.09   23.10
  -1  -4   4  118.19   18.60
  -1  -4   4  131.09   25.60
   2   4  -4  383.96   35.80
  -2  -4   4  373.76   41.60
  -2  -4   4  390.16   20.40
   0  -5   4  541.05   35.60
   0   5  -4  538.15   36.40
   0  -5   4  549.45   26.70
   0   5  -4  547.85   27.40
   1  -5   4  339.17   27.60
   1   5  -4  336.87   26.50
   1  -5   4  336.67   33.70
   1   5  -4  339.17   35.40
  -1  -5   4  321.67   25.50
  -1  -5   4  338.37   38.20
  -1   5  -4  347.77   25.50
  -1   5  -4  333.27   32.30
   2   5  -4  571.34   42.20
   2   5  -4  576.84   24.90
  -2  -5   4  568.44   23.50
  -2  -5   4  579.64   54.99
   0  -6   4  -12.90   25.00
   0  -6  -4   -1.70   13.30
   0  -6   4    1.80   19.40
   0   6  -4    1.60   17.00
   0   6  -4   -1.80   20.60
   1   6  -4   79.79   27.00
   1  -6   4   78.99   33.10
   1   6  -4   85.99   20.00
  -1  -6   4   65.29   20.50
  -1   6  -4  130.89   25.40
  -1  -6   4   75.79   27.60
   2   6  -4   22.00   19.90
   2   6  -4   26.30   26.50
  -2  -6   4   32.60   20.90
  -2  -6   4   44.30   34.40
   3   6  -4   33.40   28.40
  -3  -6   4   18.80   28.80
   3   6   4   28.80   20.90
   0  -7   4   29.40   30.40
   0   7  -4   31.20   25.30
   0   7  -4   35.50   23.30
   0  -7  -4   24.10   18.00
   0  -7   4   27.00   24.90
   1  -7   4   35.40   21.70
   1   7  -4   56.09   32.10
   1   7  -4   53.19   23.50
  -1   7  -4  102.89   29.50
  -1  -7   4   38.60   27.00
  -1  -7   4   43.70   33.00
   2   7  -4   23.20   23.70
   2   7  -4   18.20   32.70
  -2  -7   4   15.90   24.10
  -2  -7   4   28.00   38.10
   2   7   4   19.40   16.70
   3   7  -4   12.60   37.10
  -3  -7   4    3.90   24.80
   3   7   4   13.30   21.60
   0   8  -4   -1.20   28.80
   0  -8   4    5.80   31.90
   0  -8   4   18.00   25.40
   0   8  -4   10.80   25.50
   0  -8  -4    6.60   23.00
   1   8  -4   46.00   34.80
   1   8  -4   55.29   27.20
   1  -8   4   49.70   38.50
  -1  -8   4   34.80   30.10
  -1  -8   4   45.90   40.90
  -1   8  -4  100.29   36.40
   0   0  -5   -1.40    6.40
   0   0   5   -2.20    5.00
   0   0   5   -0.10    6.80
   0   0  -5    0.60    5.60
  -1   0  -5 1867.01   20.00
  -1   0   5 2118.59   21.90
   1   0   5 2083.89   36.40
   1   0  -5 2137.89   43.70
   0  -1   5 1734.13   37.50
   0   1  -5 1698.33   20.80
   0  -1  -5 1728.03   28.20
   0   1  -5 1809.72   37.50
   0  -1   5 1704.63   21.00
   0   1   5 1688.13   30.90
   1  -1   5  505.15   23.30
   1   1  -5  501.65   25.70
   1   1  -5  516.45   15.40
   1  -1   5  493.65   16.60
  -1  -1   5  503.45   28.70
  -1   1  -5  537.85   22.90
  -1  -1   5  503.75   13.40
   1   1   5  472.35   16.70
  -1   1  -5  455.75   14.50
   0  -2   5   55.89   14.60
   0  -2   5   79.69   10.80
   0   2  -5   59.39   12.20
   0   2  -5   58.19   15.70
   1  -2   5 5610.44   41.40
   1  -2   5 5418.36   76.89
   1   2  -5 5606.64   43.30
   1   2  -5 5528.95   78.89
  -1  -2   5 5759.72   44.80
  -1  -2   5 5281.77   81.19
  -1   2  -5 5307.77   70.09
  -1   2  -5 5397.66   42.30
   0  -3   5 2372.36   53.09
   0   3  -5 2280.37   30.60
   0   3  -5 2235.98   52.39
   0  -3   5 2224.68   31.20
   1  -3   5  364.86   25.60
   1  -3   5  338.97   18.80
   1   3  -5  353.26   27.00
   1   3  -5  377.66   18.80
  -1   3  -5  352.66   17.90
  -1  -3   5  338.87   18.70
  -1  -3   5  375.06   28.80
  -1   3  -5  326.67   23.60
   2   3  -5  104.09   28.00
  -2  -3   5   93.59   16.10
   0  -4   5  607.84   34.00
   0  -4   5  645.64   26.90
   0   4  -5  632.34   35.30
   0   4  -5  602.14   24.40
   1   4  -5   65.09   24.60
   1   4  -5  105.09   15.40
   1  -4   5  106.69   15.90
   1  -4   5   74.99   24.10
  -1  -4   5  107.39   16.60
  -1  -4   5   70.99   24.90
  -1   4  -5  104.19   16.00
  -1   4  -5   67.39   21.00
   2   4  -5 1411.26   29.20
   2   4  -5 1393.06   53.89
  -2  -4   5 1367.76   63.19
  -2  -4   5 1380.16   29.80
   0  -5   5  917.01   32.70
   0  -5   5  905.61   45.00
   0   5  -5  906.01   44.80
   0   5  -5  891.51   30.10
   1   5  -5   24.50   16.20
   1  -5   5   20.50   17.40
   1  -5   5   21.70   15.30
   1   5  -5   30.20   22.20
  -1   5  -5   53.69   19.30
  -1   5  -5   24.80   19.60
  -1  -5   5   24.90   21.10
  -1  -5   5   30.00   19.60
   2   5  -5  122.89   34.10
   2   5  -5  135.69   25.30
  -2  -5   5  116.29   47.20
  -2  -5   5  127.89   28.30
   0   6  -5   38.40   24.60
   0  -6   5   24.80   20.30
   0   6  -5   33.10   19.90
   0  -6   5   23.90   24.50
   1   6  -5  353.66   40.20
   1  -6   5  383.56   41.30
   1  -6   5  387.26   32.50
   1   6  -5  404.56   31.60
  -1  -6   5  358.66   30.60
  -1   6  -5  406.36   32.90
  -1  -6   5  412.16   46.00
  -1   6  -5  377.46   41.70
   2   6  -5    1.00   25.90
   2   6  -5    1.90   19.50
  -2  -6   5  -11.60   22.90
  -2  -6   5   -3.50   29.50
   3   6  -5   69.49   34.40
  -3  -6   5   65.39   25.10
   3   6   5   88.79   27.50
   0  -7   5    1.70   22.10
   0   7  -5    3.10   21.60
   0   7  -5    1.30   23.90
   0  -7   5    2.00   29.70
   1   7  -5   19.40   23.20
   1   7  -5   31.50   22.10
   1  -7   5   21.80   28.10
  -1  -7   5   23.00   29.10
  -1   7  -5   34.40   27.40
  -1  -7   5   18.20   27.90
   2   7  -5   68.89   39.20
   2   7  -5   62.59   25.20
  -2  -7   5   93.89   30.90
  -2  -7   5   72.29   39.80
  -3  -7   5   38.30   27.20
   0   0   6   16.70    7.80
   0   0  -6   21.00   10.10
   0   0  -6   17.10    7.30
   0   0   6   17.50   10.70
   1   0  -6 3400.26   58.39
  -1   0  -6 3406.96   48.00
  -1   0  -6 3223.48   29.50
  -1   0   6 3349.76   30.70
   1   0   6 3265.87   50.79
   0  -1  -6 2871.51   40.30
   0   1  -6 2973.70   52.29
   0   1   6 2900.61   45.60
   0  -1   6 2763.92   28.80
   0   1  -6 2773.82   28.50
   0  -1   6 2681.73   49.70
   1  -1   6 1194.68   36.80
   1  -1   6 1096.19   20.30
   1   1  -6 1122.59   21.70
   1   1  -6 1079.19   36.20
   1   1   6 1038.60   25.20
  -1  -1   6 1037.10   40.40
  -1  -1   6 1081.99   20.60
  -1   1  -6 1178.78   33.20
  -1   1  -6 1032.70   21.30
   0  -2   6   15.90   11.60
   0   2  -6   12.50   10.50
   0  -2   6    5.90   10.30
   0   2  -6   15.70   10.50
   1  -2   6  127.79   20.60
   1   2  -6  126.09   20.60
   1  -2   6  116.59   16.90
   1   2  -6  126.29   16.60
  -1   2  -6  120.59   18.10
  -1  -2   6  129.09   13.80
  -1   2  -6  128.79   17.90
  -1  -2   6  130.29   23.70
   0   3  -6  251.47   26.10
   0  -3   6  243.98   23.40
   0  -3   6  239.28   23.90
   0   3  -6  232.58   19.40
   1  -3   6  367.66   21.70
   1   3  -6  371.96   32.50
   1   3  -6  373.46   20.20
   1  -3   6  386.36   29.10
  -1   3  -6  380.06   21.70
  -1  -3   6  359.26   23.00
  -1   3  -6  352.36   25.40
  -1  -3   6  389.76   31.60
   2   3  -6  903.91   47.20
  -2  -3   6  855.01   26.10
   0  -4   6   81.49   20.20
   0  -4   6   74.59   22.40
   0   4  -6   97.19   16.50
   0   4  -6   70.99   23.50
   1   4  -6   45.40   22.40
   1  -4   6   39.60   15.40
   1  -4   6   31.50   13.60
   1   4  -6   56.19   15.60
  -1  -4   6   57.29   16.70
  -1   4  -6   31.20   15.60
  -1  -4   6   39.60   19.40
  -1   4  -6   66.69   17.00
   2   4  -6 3320.77   41.80
   2   4  -6 3243.58   82.39
  -2  -4   6 3345.27   44.50
  -2  -4   6 3246.98   94.19
   0   5  -6   36.40   20.60
   0   5  -6   36.00   17.60
   0  -5   6   27.90   19.90
   0  -5   6   14.80   22.10
   1  -5   6   11.60   20.50
   1  -5   6    5.60   17.00
   1   5  -6    6.80   17.10
   1   5  -6    5.50   21.20
  -1   5  -6    7.00   16.80
  -1  -5   6    1.10   19.90
  -1   5  -6   17.20   18.70
  -1  -5   6   11.00   22.50
   2   5  -6   88.29   18.90
   2   5  -6   94.29   29.20
  -2  -5   6  111.19   22.10
  -2  -5   6  114.29   34.90
   0   6  -6   -1.60   20.80
   0  -6   6    0.40   22.10
   0   6  -6   -2.20   20.40
   0  -6   6    1.50   22.70
   1  -6   6   18.40   17.50
   1  -6   6   17.60   17.20
   1   6  -6   39.00   20.50
   1   6  -6   23.60   20.90
  -1   6  -6   25.60   22.40
  -1  -6   6   25.40   25.80
  -1   6  -6   52.79   25.10
  -1  -6   6   20.70   23.70
   2   6  -6    5.60   20.30
   2   6  -6    0.90   26.60
  -2  -6   6    0.80   32.90
  -2  -6   6   -3.90   25.00
   3   6  -6   42.20   33.00
  -3  -6   6   40.50   25.60
   0  -7   6  132.99   43.50
   0   7  -6  165.28   25.90
   0   7  -6  138.49   43.40
   0  -7   6  138.59   35.80
   1   7  -6   12.40   23.40
   1   7  -6    5.00   25.40
   1  -7   6   13.20   31.60
  -1   7  -6   41.80   33.10
  -1  -7   6   11.20   30.00
  -1  -7   6   11.50   30.20
   2   7  -6   74.79   27.00
   2   7  -6   70.79   39.70
  -2  -7   6   88.59   33.30
  -2  -7   6   77.49   43.70
   0   0  -7    0.40    9.20
   0   0   7    0.60   11.30
   0   0   7   -8.80    9.90
   0   0  -7   -0.20   10.80
  -1   0   7 1338.27   23.40
   1   0  -7 1370.76   41.30
   1   0   7 1415.26   37.50
  -1   0  -7 1333.87   22.50
   1   0   7 1378.06   23.60
  -1   0  -7 1418.16   34.90
   0  -1   7  561.44   29.40
   0   1   7  598.24   28.80
   0   1  -7  622.04   29.90
   0  -1   7  587.94   23.60
   0   1  -7  579.54   19.80
   0  -1  -7  589.64   23.90
   1   1  -7  173.58   18.00
   1  -1   7  175.98   21.50
   1  -1   7  171.68   17.60
   1   1  -7  185.58   23.00
   1   1   7  165.18   17.20
   1  -1  -7  177.28   21.40
  -1   1  -7  188.68   20.00
  -1  -1   7  186.68   16.50
  -1  -1   7  176.28   29.30
  -1   1  -7  170.78   17.80
   0   2  -7  285.37   24.60
   0  -2   7  269.87   22.10
   0   2  -7  283.87   19.60
   0  -2  -7  281.47   16.50
   0  -2   7  285.57   25.40
   1  -2   7 2001.50   30.00
   1   2  -7 2034.40   30.00
   1  -2   7 2061.29   53.09
   1   2  -7 2100.69   54.99
  -1  -2   7 2080.79   32.50
  -1   2  -7 2029.00   31.70
  -1   2  -7 2041.70   48.00
  -1  -2   7 2046.80   57.99
   2   2  -7  287.27   34.30
  -2  -2   7  294.27   26.70
   0  -3   7  648.14   29.30
   0   3  -7  641.84   36.80
   0  -3   7  636.24   35.20
   0   3  -7  612.84   24.70
   1  -3   7    4.60   12.60
   1   3  -7    3.40   17.20
   1  -3   7    1.60   14.20
   1   3  -7    3.00   13.10
  -1   3  -7    2.50   13.80
  -1  -3   7    6.10   17.20
  -1   3  -7    7.40   16.10
  -1  -3   7   -9.70   18.70
   2   3  -7  209.98   33.20
  -2  -3   7  205.98   21.40
   0  -4   7  575.74   33.10
   0  -4   7  597.84   38.30
   0   4  -7  615.74   29.90
   0   4  -7  522.65   37.20
   1   4  -7   12.50   23.20
   1  -4   7   16.70   17.20
   1   4  -7   18.20   17.30
   1  -4   7   15.40   16.50
  -1   4  -7   18.70   17.30
  -1   4  -7   12.20   15.70
  -1  -4   7    9.00   19.30
  -1  -4   7   13.10   18.50
   2   4  -7  549.35   27.20
   2   4  -7  524.55   43.40
  -2  -4   7  461.55   26.40
  -2  -4   7  534.75   54.39
   0   5  -7  204.48   28.80
   0  -5   7  201.48   34.20
   0  -5   7  172.88   32.20
   0   5  -7  184.48   34.10
   1  -5   7   48.50   21.80
   1  -5   7   39.90   19.20
   1   5  -7   62.89   19.40
  -1   5  -7   52.79   20.40
  -1   5  -7   75.79   22.00
  -1  -5   7   39.50   22.30
   2   5  -7   13.80   18.60
   2   5  -7   17.40   28.00
  -2  -5   7   10.00   24.50
  -2  -5   7   13.30   28.10
   0   6  -7  137.69   23.30
   0  -6   7   89.59   25.20
   0  -6   7  106.09   34.40
   0   6  -7  102.09   36.40
   1   6  -7  271.67   34.80
   1  -6   7  242.68   41.00
   1  -6   7  242.98   31.90
   1   6  -7  242.68   43.00
  -1   6  -7  194.08   38.40
  -1  -6   7  189.48   32.90
  -1  -6   7  266.37   47.30
   2   6  -7    9.30   34.30
   2   6  -7    9.60   23.10
  -2  -6   7   12.10   25.10
  -2  -6   7   16.40   35.40
   0   7  -7    0.10   27.40
   0  -7   7    0.60   23.70
   0   7  -7    1.60   25.60
   0  -7   7   11.40   29.20
   1   7  -7    2.80   24.70
   1  -7   7    3.00   17.30
   1   7  -7    2.10   24.30
  -1   7  -7   28.80   33.40
  -1  -7   7   -1.30   32.20
  -1  -7   7    7.00   31.30
  -1   7  -7    5.60   24.20
   0   0  -8   -2.00   11.20
   0   0   8   -2.20   15.70
   0   0   8   -2.40   12.10
   0   0  -8   -4.60   13.10
  -1   0  -8  195.18   19.30
   1   0   8  182.08   21.80
  -1   0  -8  193.38   21.30
   1   0  -8  181.48   23.70
  -1   0   8  174.98   18.30
   1   0   8  168.68   19.10
   2   0   8  321.57   37.30
   0   1  -8   73.69   22.60
   0  -1   8   75.59   15.70
   0  -1  -8   71.19   19.00
   0  -1   8   70.29   21.90
   0   1  -8   87.19   13.70
   0   1   8   78.49   24.30
   1  -1   8   61.79   22.50
   1  -1   8   81.09   15.10
   1   1  -8   55.59   23.20
   1   1  -8   54.89   16.00
   1   1   8   58.89   18.10
   1  -1  -8   64.59   22.40
  -1   1  -8   58.49   20.20
  -1  -1   8   74.29   22.50
  -1  -1   8   81.19   14.80
  -1   1  -8   71.59   14.20
   2   1   8  216.58   22.00
   0  -2   8  161.38   25.00
   0   2  -8  174.08   26.90
   0   2  -8  171.68   21.70
   0  -2  -8  167.68   19.70
   0  -2   8  170.98   28.60
   1  -2   8  564.84   24.00
   1   2  -8  560.84   23.50
   1  -2   8  562.84   34.30
   1   2  -8  557.54   35.80
   1  -2  -8  574.14   29.80
  -1   2  -8  572.74   31.70
  -1  -2   8  575.54   40.20
  -1  -2   8  592.84   28.30
   1   2   8  555.94   24.10
  -1   2  -8  572.94   25.00
   2   2  -8  240.98   35.00
  -2  -2   8  283.17   24.00
   2   2   8  264.57   23.20
   0   3  -8  367.46   25.40
   0  -3   8  362.36   32.90
   0  -3   8  351.36   32.90
   0   3  -8  339.97   32.80
   1   3  -8  109.59   18.20
   1  -3   8  110.09   18.10
   1   3  -8   76.49   29.10
   1  -3   8   86.99   26.70
  -1   3  -8  101.19   19.30
  -1   3  -8   78.09   23.10
  -1  -3   8   72.69   30.40
  -1  -3   8  132.69   21.50
  -2  -3   8 1503.65   34.80
   0  -4   8    0.60   15.40
   0  -4   8   -0.30   25.50
   0   4  -8    1.50   19.20
   0   4  -8    2.40   17.70
   1  -4   8   78.69   19.10
   1   4  -8   85.29   20.10
   1   4  -8   62.19   25.00
   1  -4   8   67.69   28.00
  -1  -4   8   92.89   24.70
  -1   4  -8   69.69   21.50
  -1  -4   8   60.29   22.80
  -1   4  -8   86.39   21.00
   2   4  -8    5.90   17.30
   2   4  -8    7.10   24.60
  -2  -4   8    7.40   20.20
  -2  -4   8    4.50   28.50
   0  -5   8   66.99   26.40
   0   5  -8  118.99   22.30
   0  -5   8   85.49   31.10
   0   5  -8   85.99   26.70
   1   5  -8   78.69   33.50
   1  -5   8   83.59   33.70
   1   5  -8  109.09   23.90
   1  -5   8   74.29   19.60
  -1   5  -8   82.49   25.60
  -1  -5   8   72.39   26.30
  -1   5  -8  113.99   25.00
  -1  -5   8   35.90   25.80
   2   5  -8  275.77   33.80
   2   5  -8  274.57   47.60
  -2  -5   8  197.18   32.30
  -2  -5   8  264.97   55.19
   0   6  -8   74.89   24.50
   0  -6   8   68.49   29.00
   0  -6   8   44.40   24.40
   0   6  -8   75.99   29.40
   1  -6   8   27.40   25.20
   1   6  -8   24.20   25.30
   1   6  -8   32.30   24.30
   1  -6   8   29.30   18.50
  -1   6  -8   31.50   27.80
  -1  -6   8    5.60   25.40
  -1  -6   8   22.30   28.10
  -1   6  -8   18.50   21.40
   2   6  -8   25.50   35.00
   2   6  -8   22.20   23.20
  -2  -6   8   25.00   38.40
  -2  -6   8   10.90   29.00
   0   0   9   -3.20   15.20
   0   0  -9  -17.20   16.00
   0   0  -9   -2.50   15.40
   1   0  -9  621.44   36.40
  -1   0   9  613.24   26.00
  -1   0  -9  593.24   23.50
  -1   0  -9  638.64   31.50
   1   0   9  588.84   32.30
   2   0   9  531.75   32.80
   0  -1   9  237.48   30.00
   0  -1  -9  246.58   26.70
   0  -1   9  238.28   29.80
   0   1   9  245.98   32.30
   0   1  -9  234.68   28.30
   0   1  -9  231.58   22.10
   1  -1   9 1165.98   29.30
   1   1  -9 1143.99   30.90
   1  -1   9 1217.48   43.70
   1   1  -9 1155.18   47.90
  -1   1  -9 1244.58   42.10
  -1  -1   9 1196.58   56.49
   1  -1  -9 1242.58   42.90
  -1   1  -9 1233.88   30.80
   1   1   9 1177.88   37.30
  -1  -1   9 1244.48   34.00
   2  -1   9  144.79   28.10
   2   1   9  132.69   26.30
   0   2  -9  653.53   42.70
   0  -2   9  634.64   36.00
   0   2  -9  633.04   29.00
   0  -2   9  609.14   39.10
   0  -2  -9  676.43   29.80
   1  -2   9  188.58   31.40
   1   2  -9  190.78   32.10
   1  -2   9  187.58   24.30
   1   2  -9  170.28   25.40
  -1  -2   9  188.18   38.20
  -1   2  -9  175.78   26.60
  -1  -2   9  171.48   26.50
   1   2   9  173.58   22.30
  -1   2  -9  201.38   26.70
   1  -2  -9  185.88   26.30
   2   2  -9  605.34   48.40
   2  -2   9  660.03   42.30
   2   2   9  580.84   27.60
  -2   2  -9  717.93   38.60
  -2  -2   9  599.64   30.00
   0  -3   9  185.58   30.70
   0  -3   9  173.58   33.00
   0   3  -9  171.48   29.00
   0   3  -9  163.48   31.40
   1  -3   9  629.44   44.90
   1   3  -9  593.04   44.70
  -1  -3   9  574.24   33.90
   1  -3  -9  579.04   32.30
  -1   3  -9  635.04   39.40
  -1  -3   9  593.04   47.60
   2   3  -9  188.08   36.40
  -2  -3   9  201.58   26.00
   0   4  -9  270.27   31.00
   0  -4   9  270.07   36.90
   0   4  -9  254.87   37.50
   1  -4   9   24.00   22.60
   1   4  -9   17.40   24.30
   1  -4   9   27.30   20.60
   1   4  -9   20.10   19.30
  -1   4  -9   35.90   26.30
  -1  -4   9   23.50   24.20
  -1  -4   9   32.80   25.90
  -1   4  -9   16.50   17.60
   2   4  -9   64.69   27.80
   2   4  -9   53.59   20.20
  -2  -4   9   67.49   26.00
  -2  -4   9   92.39   39.80
   0   5  -9   50.99   25.10
   0  -5   9   33.00   25.50
   0  -5   9   73.99   29.90
   0   5  -9   74.99   23.60
   1  -5   9  319.67   41.00
   1  -5   9  315.47   34.00
   1   5  -9  274.17   38.20
   1   5  -9  287.37   40.70
  -1  -5   9  351.36   48.50
  -1   5  -9  392.06   44.20
  -1   5  -9  310.57   39.40
   2   5  -9  188.88   33.70
   2   5  -9  144.49   47.30
  -2  -5   9  150.08   30.20
  -2  -5   9  165.18   59.19
   0  -6   9    2.70   25.40
   0   6  -9    1.80   25.30
   0  -6   9   -0.20   25.90
   0   6  -9   -0.60   24.10
   1   6  -9   15.00   22.20
   1  -6   9    9.50   20.30
  -1  -6   9    1.00   30.30
  -1   6  -9   19.20   44.60
  -1  -6   9   17.60   32.40
  -1   6  -9   11.30   22.30
   0   0 -10   25.20   18.40
   0   0  10   36.70   20.50
   0   0 -10   39.70   20.20
  -1   0  10  540.55   32.60
  -1   0 -10  531.25   32.90
  -1   0 -10  517.55   26.90
   1   0  10  522.15   35.90
   1   0 -10  534.65   38.40
   2   0  10  161.48   27.00
   0  -1  10 1361.26   42.20
   0   1 -10 1305.87   33.90
   0  -1  10 1245.68   52.79
   0   1 -10 1328.57   53.49
   0  -1 -10 1341.07   46.20
   0   1  10 1287.27   53.79
   1  -1  10  308.67   28.80
   1  -1  10  337.57   33.00
   1   1 -10  315.87   37.40
   1   1 -10  310.67   29.10
  -1   1 -10  324.37   31.60
  -1   1 -10  327.57   27.80
  -1  -1  10  321.57   34.90
  -1  -1  10  323.77   46.50
   1   1  10  335.47   31.40
   1  -1 -10  338.27   33.20
   2  -1  10   73.99   27.50
   2   1  10   72.19   26.10
   0  -2  10  116.89   34.40
   0   2 -10  126.89   20.10
   0   2 -10  120.09   34.40
   0  -2 -10  117.39   24.70
   0  -2  10  103.29   29.80
   1   2 -10   88.69   22.40
   1   2 -10   96.19   28.00
   1  -2  10   77.29   30.40
   1  -2  10   87.79   20.00
   1   2  10   67.29   25.00
  -1   2 -10   77.89   21.20
  -1   2 -10   67.19   25.80
  -1  -2  10   71.19   29.70
  -1  -2  10   93.09   26.30
   1  -2 -10   75.89   25.60
   2  -2  10   58.89   22.80
   2   2 -10   58.69   28.70
   2   2  10   52.69   17.20
  -2   2 -10   81.19   22.00
  -2  -2  10   59.29   19.90
   0   3 -10   11.90   21.80
   0  -3  10   -2.60   32.50
   0  -3  10   13.40   20.40
   0   3 -10   10.10   19.40
   1  -3  10   20.60   21.10
   1  -3  10   13.00   18.00
   1   3 -10   13.10   23.10
   1   3 -10   14.90   20.60
  -1   3 -10   19.40   24.30
  -1  -3  10   18.20   27.10
  -1  -3  10    8.40   29.50
  -1   3 -10   15.50   16.40
   1  -3 -10   16.60   16.30
   2   3 -10    3.30   24.20
   2  -3  10    9.90   23.20
  -2  -3  10    0.10   24.40
  -2   3 -10   32.60   23.40
   0   4 -10   11.50   23.10
   0  -4  10    4.00   30.30
   0  -4  10   12.40   22.70
   0   4 -10   15.10   22.20
   1  -4  10  107.19   25.30
   1   4 -10  116.19   22.10
   1   4 -10  105.29   39.50
   1  -4  10  107.39   34.80
  -1  -4  10  109.19   27.90
  -1   4 -10  120.39   27.10
  -1  -4  10   99.49   40.70
  -1   4 -10   96.89   29.70
   2   4 -10   41.70   28.10
   2   4 -10   42.00   24.20
  -2  -4  10   48.90   30.70
  -2  -4  10   59.49   41.00
   0   5 -10   21.50   24.60
   0   5 -10    5.80   23.70
   0  -5  10   13.70   26.30
   0  -5  10    8.90   25.00
   1  -5  10   59.19   27.90
   1   5 -10   39.00   23.00
   1  -5  10   56.79   23.80
   1   5 -10   58.79   24.50
  -1   5 -10   54.89   27.60
  -1   5 -10   43.80   25.60
  -1  -5  10   -3.70   28.40
  -1  -5  10   52.29   31.30
   2   5 -10   33.40   34.30
  -2  -5  10   26.50   30.70
   0   0 -11   -3.00   20.20
   0   0  11    0.20   21.20
   0   0  11  -14.80   29.50
   0   0 -11   -1.40   21.20
  -1   0 -11    1.30   16.20
   1   0  11   -0.30   21.80
   1   0  11    0.30   17.10
   1   0 -11   -2.30   20.70
  -1   0  11   -3.30   27.80
   2   0  11   16.70   18.00
   0  -1 -11   -0.90   18.00
   0  -1  11    3.20   21.70
   0  -1  11   -4.70   34.40
   0   1 -11    4.70   20.50
   0   1 -11   -0.30   23.20
   0   1  11    6.10   27.20
   1   1 -11  263.77   39.50
   1   1 -11  256.87   31.60
   1  -1  11  283.17   36.10
   1  -1  11  270.67   32.90
   1  -1 -11  266.67   33.00
  -1  -1  11  252.47   40.80
  -1   1 -11  282.07   33.00
   1   1  11  281.97   35.10
  -1   1 -11  273.07   31.50
  -1  -1  11  265.17   53.29
   2  -1  11  294.27   35.90
   2   1 -11  272.77   42.60
  -2  -1  11  275.87   36.60
   2   1  11  282.87   32.10
  -2   1 -11  319.77   29.30
   0  -2  11   54.29   28.00
   0  -2 -11   58.29   20.10
   0   2 -11   46.90   25.40
   0  -2  11   47.20   35.20
   0   2 -11   47.00   23.10
   1   2 -11  272.97   42.10
   1  -2  11  273.47   37.10
   1  -2  11  277.27   35.80
  -1   2 -11  267.17   33.60
   1  -2 -11  273.37   32.50
  -1  -2  11  270.87   52.19
   1   2  11  266.77   34.80
  -1   2 -11  259.77   34.40
  -1  -2  11  267.07   43.20
   2  -2  11    9.10   23.00
   2   2 -11    1.60   23.80
  -2   2 -11   43.60   21.10
   2   2  11    3.20   18.40
  -2  -2  11    5.00   21.90
   0   3 -11  202.08   34.00
   0   3 -11  212.18   41.40
   0  -3  11  211.08   43.20
   1   3 -11   36.40   27.20
   1   3 -11   38.70   25.20
   1  -3  11   38.90   24.70
   1  -3  11   40.10   24.90
  -1  -3  11   28.90   32.60
  -1  -3  11   30.40   33.00
  -1   3 -11   30.40   22.20
  -1   3 -11   39.10   23.60
   1  -3 -11   36.30   18.50
   2   3 -11  121.99   42.00
   2  -3  11  128.89   38.60
  -2   3 -11  180.28   33.30
  -2  -3  11  118.79   32.20
   0   4 -11  109.39   37.20
   0  -4  11   45.00   33.00
   0   4 -11  128.59   25.70
   0  -4  11  126.19   42.70
   1   4 -11  141.89   40.20
   1  -4  11  194.18   30.20
   1  -4  11  148.29   40.40
   1   4 -11  187.88   40.90
  -1  -4  11  164.58   50.29
  -1   4 -11  192.78   40.80
  -1   4 -11  162.38   34.80
   2  -4  11   13.70   27.20
   2   4 -11    2.40   27.60
   2   4 -11    9.00   29.20
  -2  -4  11   11.00   40.80
  -2  -4  11   -3.10   32.60
   0   5 -11   -1.20   24.10
   0  -5  11    2.70   28.50
   1  -5  11    2.30   27.90
   1   5 -11   -2.50   36.40
  -1   5 -11    6.70   24.70
  -1  -5  11   -3.70   35.80
   0   0 -12 3364.56   80.79
   0   0  12 3207.18   88.59
  -1   0 -12   36.00   21.00
  -1   0 -12   35.90   22.40
   1   0  12   54.69   25.70
   1   0  12   49.70   25.10
   1   0 -12   42.90   26.30
  -1   0  12   22.80   29.60
   2   0  12   -1.70   18.80
   0  -1  12   80.29   29.00
   0   1 -12   78.69   27.90
   0  -1  12   83.69   40.30
   0   1 -12   42.00   26.60
   0  -1 -12   79.09   32.80
   1   1 -12  447.66   38.90
   1  -1  12  482.15   42.90
   1   1 -12  441.36   47.70
   1  -1  12  454.35   36.90
  -1   1 -12  454.95   36.60
  -1  -1  12  479.55   47.90
   1   1  12  435.56   39.80
  -1  -1  12  456.25   68.69
  -1   1 -12  469.55   41.50
   1  -1 -12  440.26   40.80
   2   1 -12    0.90   25.20
   2  -1  12    0.30   21.70
  -2  -1  12    3.80   27.50
  -2   1 -12   16.30   23.60
   2   1  12    1.80   20.40
   0   2 -12  112.19   30.20
   0   2 -12  122.89   40.60
   0  -2  12   75.89   39.30
   0  -2  12  127.59   41.80
   0  -2 -12  120.19   30.50
   1   2 -12   58.69   32.10
   1  -2  12   80.79   27.70
   1   2 -12   79.09   30.10
   1  -2  12  126.39   31.20
  -1  -2  12   88.79   38.10
  -1   2 -12   67.39   25.80
   1   2  12  104.29   29.50
  -1  -2  12   87.59   35.40
   1  -2 -12   75.29   25.50
  -1   2 -12   80.09   26.00
   2  -2  12    6.10   22.10
   2   2 -12    0.40   26.90
  -2   2 -12   30.90   27.10
  -2  -2  12   -3.60   33.20
   2   2  12    3.70   19.60
   0   3 -12   20.40   27.30
   0   3 -12   24.80   24.80
   0  -3  12   22.10   26.80
   0  -3  12   -3.90   37.30
   1   3 -12    4.10   29.40
   1  -3  12    3.10   29.10
   1  -3  12    3.00   25.40
   1   3 -12    1.50   22.80
  -1   3 -12    0.80   20.30
  -1   3 -12    8.40   26.50
  -1  -3  12   -7.60   35.70
  -1  -3  12    3.10   36.80
   1  -3 -12   -0.90   16.90
   2  -3  12   73.09   29.60
   2   3 -12   58.19   35.20
  -2  -3  12    8.50   43.30
  -2   3 -12   69.49   29.90
   0   4 -12   -4.10   24.10
   0   4 -12    5.80   25.60
   0  -4  12   -0.80   26.20
   0  -4  12   -3.30   32.90
   1   4 -12    9.50   21.80
   1  -4  12   16.30   29.80
   1  -4  12   13.80   28.00
   1   4 -12   12.70   30.20
  -1  -4  12   13.90   40.70
  -1  -4  12  -11.80   37.00
  -1   4 -12   12.50   23.70
  -1   4 -12   26.80   30.20
   0   0 -13   -1.70   22.60
   0   0 -13    3.10   25.40
   0   0  13    0.80   32.10
   1   0 -13   13.90   24.90
   1   0  13   14.40   29.30
  -1   0  13   -9.80   34.30
  -1   0 -13   12.30   22.30
  -1   0 -13   11.90   23.50
   2   0  13   41.20   25.10
  -2   0 -13   26.70   23.70
   0  -1  13    6.70   28.00
   0   1 -13    0.90   29.70
   0  -1  13   -8.90   38.30
   0   1 -13    2.20   23.90
   0  -1 -13    4.40   22.30
   1  -1  13   22.80   26.80
   1   1 -13   23.80   27.30
   1  -1  13   28.40   31.00
  -1   1 -13   28.50   22.70
   1  -1 -13   21.50   25.90
  -1  -1  13    5.40   37.90
  -1   1 -13   28.50   27.20
   1   1  13   21.40   26.10
   2   1 -13   41.50   30.80
   2  -1  13   51.69   27.50
  -2  -1  13   40.20   35.80
   2   1  13   43.40   23.50
  -2   1 -13   36.00   23.90
   0   2 -13   31.90   25.90
   0   2 -13   17.80   31.70
   0  -2 -13   31.70   21.40
   0  -2  13   32.50   31.00
   0  -2  13   21.40   41.60
   1  -2  13  132.09   33.70
   1   2 -13   86.59   32.30
   1   2 -13   68.09   34.40
   1  -2  13  108.59   41.60
  -1   2 -13   99.09   31.30
   1   2  13  114.59   37.50
   1  -2 -13   87.89   36.50
  -1   2 -13  101.99   31.80
  -1  -2  13  111.49   44.00
  -1  -2  13  107.99   43.70
   2  -2  13   25.10   28.40
   2   2 -13   19.80   29.40
  -2   2 -13   56.99   29.30
   2   2  13   20.50   27.30
  -2  -2  13   23.60   45.10
   1  -3  13   14.40   31.50
   1  -3  13   10.80   33.80
  -1  -3  13   10.50   40.40
  -1   3 -13   14.60   29.60
   0   0 -14   22.80   28.50
   0   0 -14   29.20   24.80
   0   0  14   46.50   41.30

_computing_structure_solution     'SHELXT 2014/4 (Sheldrick, 2014)'
;
_shelx_hkl_checksum              3274
_olex2_submission_special_instructions 'No special instructions were received'
loop_
_space_group_symop_operation_xyz
'x, y, z'
'-x+1/2, -y, z+1/2'
'-x, y+1/2, -z+1/2'
'x+1/2, -y+1/2, -z'
loop_
_atom_site_label
_atom_site_type_symbol
_atom_site_fract_x
_atom_site_fract_y
_atom_site_fract_z
_atom_site_U_iso_or_equiv
_atom_site_adp_type
_atom_site_occupancy
_atom_site_site_symmetry_order
_atom_site_calc_flag
_atom_site_refinement_flags_posn
N1 N 0.3660(9) 0.5747(3) 0.12005(13) 0.052(2) Uani 1 1 d .
C2 C 0.1839(12) 0.5804(4) 0.04236(17) 0.053(2) Uani 1 1 d .
H2 H 0.1885 0.6776 -0.0156 0.063 Uiso 1 1 calc R
C3 C -0.0126(12) 0.4519(4) 0.04143(18) 0.063(3) Uani 1 1 d .
H3 H -0.1369 0.4633 -0.0154 0.075 Uiso 1 1 calc R
C4 C -0.0228(12) 0.3052(4) 0.12658(16) 0.063(3) Uani 1 1 d .
H4 H -0.1535 0.2162 0.1289 0.076 Uiso 1 1 calc R
C5 C 0.1671(12) 0.2962(4) 0.20717(17) 0.062(3) Uani 1 1 d .
H5 H 0.1679 0.1995 0.2655 0.075 Uiso 1 1 calc R
C6 C 0.3553(10) 0.4301(3) 0.20124(16) 0.055(3) Uani 1 1 d .
H6 H 0.4832 0.4208 0.2564 0.065 Uiso 1 1 calc R
loop_
_atom_site_aniso_label
_atom_site_aniso_U_11
_atom_site_aniso_U_22
_atom_site_aniso_U_33
_atom_site_aniso_U_23
_atom_site_aniso_U_13
_atom_site_aniso_U_12
N1 0.050(7) 0.0554(12) 0.0504(11) 0.0053(9) 0.0036(15) -0.0076(15)
C2 0.063(8) 0.0535(14) 0.0421(11) 0.0037(11) 0.003(2) -0.002(2)
C3 0.075(9) 0.0633(17) 0.0499(13) -0.0122(13) -0.009(2) 0.002(2)
C4 0.072(9) 0.0495(15) 0.0692(14) -0.0131(12) 0.012(3) -0.012(2)
C5 0.089(8) 0.0452(13) 0.0527(12) 0.0065(11) 0.007(2) -0.004(2)
C6 0.058(8) 0.0614(15) 0.0440(11) 0.0024(12) -0.002(2) 0.004(2)
loop_
_atom_type_symbol
_atom_type_description
_atom_type_scat_dispersion_real
_atom_type_scat_dispersion_imag
_atom_type_scat_source
C C 0.0010 0.0010 'International Tables Vol C Tables 4.2.6.8 and 6.1.1.4'
H H 0.0000 0.0000 'International Tables Vol C Tables 4.2.6.8 and 6.1.1.4'
N N 0.0020 0.0010 'International Tables Vol C Tables 4.2.6.8 and 6.1.1.4'
loop_
_geom_angle_atom_site_label_1
_geom_angle_atom_site_label_2
_geom_angle_atom_site_label_3
_geom_angle
C2 N1 C6 116.2(3)
N1 C2 H2 117.9
N1 C2 C3 124.2(2)
C3 C2 H2 117.9
C2 C3 H3 120.5
C2 C3 C4 118.9(4)
C4 C3 H3 120.5
C3 C4 H4 121.3
C5 C4 C3 117.5(4)
C5 C4 H4 121.3
C4 C5 H5 120.2
C6 C5 C4 119.6(3)
C6 C5 H5 120.2
N1 C6 C5 123.6(4)
N1 C6 H6 118.2
C5 C6 H6 118.2
loop_
_geom_bond_atom_site_label_1
_geom_bond_atom_site_label_2
_geom_bond_distance
N1 C2 1.316(7)
N1 C6 1.344(3)
C2 H2 0.9300
C2 C3 1.374(8)
C3 H3 0.9300
C3 C4 1.386(3)
C4 H4 0.9300
C4 C5 1.370(7)
C5 H5 0.9300
C5 C6 1.366(7)
C6 H6 0.9300
