#------------------------------------------------------------------------------
#$Date: 2020-04-22 23:50:26 +0300 (Wed, 22 Apr 2020) $
#$Revision: 251055 $
#$URL: file:///home/coder/svn-repositories/cod/cif/1/55/78/1557860.cif $
#------------------------------------------------------------------------------
#
# This file is available in the Crystallography Open Database (COD),
# http://www.crystallography.net/
#
# All data on this site have been placed in the public domain by the
# contributors.
#
data_1557860
loop_
_publ_author_name
'Yuan, Jie'
'Wang, Yongrong'
'Li, Ling'
'Wang, Shuang'
'Tang, Xingxing'
'Wang, Honglei'
'Li, Mingguang'
'Zheng, Chao'
'Chen, Runfeng'
_publ_section_title
;
 Activating Intersystem Crossing and Aggregation Coupling by
 CN-Substitution for Efficient Organic Ultralong Room Temperature
 Phosphorescence
;
_journal_name_full               'The Journal of Physical Chemistry C'
_journal_paper_doi               10.1021/acs.jpcc.0c01762
_journal_year                    2020
_chemical_formula_moiety         'C8 H4 N2'
_chemical_formula_sum            'C8 H4 N2'
_chemical_formula_weight         128.13
_space_group_crystal_system      triclinic
_space_group_IT_number           2
_space_group_name_Hall           '-P 1'
_space_group_name_H-M_alt        'P -1'
_atom_sites_solution_hydrogens   geom
_atom_sites_solution_primary     dual
_audit_creation_date             2018-01-20
_audit_creation_method
;
Olex2 1.2
(compiled 2017.03.02 svn.r3394 for OlexSys, GUI svn.r5324)
;
_cell_angle_alpha                114.297(13)
_cell_angle_beta                 92.785(15)
_cell_angle_gamma                97.812(16)
_cell_formula_units_Z            1
_cell_length_a                   3.781(3)
_cell_length_b                   6.450(5)
_cell_length_c                   7.270(5)
_cell_measurement_reflns_used    150
_cell_measurement_temperature    100(2)
_cell_measurement_theta_max      0.959
_cell_measurement_theta_min      0.904
_cell_volume                     159.0(2)
_computing_molecular_graphics    'Olex2 (Dolomanov et al., 2009)'
_computing_publication_material  'Olex2 (Dolomanov et al., 2009)'
_computing_structure_refinement  'ShelXL (Sheldrick, 2015)'
_computing_structure_solution    'ShelXT (Sheldrick, 2015)'
_diffrn_ambient_temperature      100.01
_diffrn_detector                 'Bruker APEX2 area detector'
_diffrn_detector_area_resol_mean 7.9
_diffrn_detector_type            'CCD area detector'
_diffrn_measured_fraction_theta_full 0.957
_diffrn_measured_fraction_theta_max 0.822
_diffrn_measurement_device       'three-circle diffractometer'
_diffrn_measurement_device_type  'Bruker SMART APEX-II CCD'
_diffrn_measurement_method       '\w and \f scans'
_diffrn_radiation_monochromator  'mirror optics'
_diffrn_radiation_probe          x-ray
_diffrn_radiation_type           MoK\a
_diffrn_radiation_wavelength     0.71073
_diffrn_reflns_av_R_equivalents  0.0238
_diffrn_reflns_av_unetI/netI     0.0412
_diffrn_reflns_Laue_measured_fraction_full 0.957
_diffrn_reflns_Laue_measured_fraction_max 0.822
_diffrn_reflns_limit_h_max       6
_diffrn_reflns_limit_h_min       -5
_diffrn_reflns_limit_k_max       10
_diffrn_reflns_limit_k_min       -10
_diffrn_reflns_limit_l_max       8
_diffrn_reflns_limit_l_min       -12
_diffrn_reflns_number            2056
_diffrn_reflns_point_group_measured_fraction_full 0.957
_diffrn_reflns_point_group_measured_fraction_max 0.822
_diffrn_reflns_theta_full        25.242
_diffrn_reflns_theta_max         37.902
_diffrn_reflns_theta_min         3.095
_diffrn_source                   'microfocus sealed X-ray tube'
_diffrn_source_type              'Incoatec I\ms'
_exptl_absorpt_coefficient_mu    0.084
_exptl_crystal_density_diffrn    1.338
_exptl_crystal_description       block
_exptl_crystal_F_000             66
_exptl_crystal_size_max          2
_exptl_crystal_size_mid          1
_exptl_crystal_size_min          0.5
_refine_diff_density_max         0.468
_refine_diff_density_min         -0.302
_refine_diff_density_rms         0.066
_refine_ls_extinction_method     none
_refine_ls_goodness_of_fit_ref   1.077
_refine_ls_hydrogen_treatment    constr
_refine_ls_matrix_type           full
_refine_ls_number_parameters     46
_refine_ls_number_reflns         1414
_refine_ls_number_restraints     0
_refine_ls_restrained_S_all      1.077
_refine_ls_R_factor_all          0.0550
_refine_ls_R_factor_gt           0.0503
_refine_ls_shift/su_max          0.000
_refine_ls_shift/su_mean         0.000
_refine_ls_structure_factor_coef Fsqd
_refine_ls_weighting_details
'w=1/[\s^2^(Fo^2^)+(0.0748P)^2^+0.0317P] where P=(Fo^2^+2Fc^2^)/3'
_refine_ls_weighting_scheme      calc
_refine_ls_wR_factor_gt          0.1362
_refine_ls_wR_factor_ref         0.1415
_reflns_Friedel_coverage         0.000
_reflns_number_gt                1282
_reflns_number_total             1414
_reflns_threshold_expression     'I > 2\s(I)'
_cod_data_source_file            jp0c01762_si_004.cif
_cod_data_source_block           1
_cod_original_cell_volume        159.02(19)
_cod_database_code               1557860
_shelx_shelxl_version_number     2014/7
_shelx_space_group_comment
;
The symmetry employed for this shelxl refinement is uniquely defined
by the following loop, which should always be used as a source of
symmetry information in preference to the above space-group names.
They are only intended as comments.
;
_shelx_estimated_absorpt_t_max   0.959
_shelx_estimated_absorpt_t_min   0.850
_olex2_refinement_description
;
1. Fixed Uiso
 At 1.2 times of:
  All C(H) groups
2.a Aromatic/amide H refined with riding coordinates:
 C004(H004), C005(H005)
;
_shelx_res_file
;
    1.res created by SHELXL-2014/7

TITL 1_a.res in P-1
REM Old TITL 1 in P-1
REM SHELXT solution in P-1
REM R1 0.100, Rweak 0.004, Alpha 0.043, Orientation as input
REM Formula found by SHELXT: C4 N
CELL 0.71073 3.7812 6.4496 7.27 114.297 92.785 97.812
ZERR 1 0.0026 0.0045 0.0049 0.013 0.015 0.016
LATT 1
SFAC C H N
UNIT 8 4 2

L.S. 10
PLAN  20
SIZE 0.5 1 2
TEMP -173.14
BOND $H
list 4
fmap 2
ACTA
REM <olex2.extras>
REM <HklSrc "%.\\1.hkl">
REM </olex2.extras>

WGHT    0.074800    0.031700
FVAR       7.56633
C002  1    0.376026    0.404635    0.296747    11.00000    0.01570    0.01751 =
         0.01236    0.00600   -0.00014    0.00242
C003  1    0.243236    0.303793    0.084999    11.00000    0.02105    0.01920 =
         0.01495    0.00682   -0.00038    0.00358
C004  1    0.363295    0.636194    0.414618    11.00000    0.01929    0.01765 =
         0.01476    0.00754   -0.00028    0.00432
AFIX  43
H004  2    0.270132    0.727099    0.355380    11.00000   -1.20000
AFIX   0
C005  1    0.488093    0.732003    0.619042    11.00000    0.02003    0.01627 =
         0.01468    0.00552    0.00007    0.00417
AFIX  43
H005  2    0.481523    0.889776    0.701778    11.00000   -1.20000
AFIX   0
N001  3    0.135067    0.221309   -0.084797    11.00000    0.03270    0.02398 =
         0.01594    0.00653   -0.00331    0.00569
HKLF 4

REM  1_a.res in P-1
REM R1 =  0.0503 for    1282 Fo > 4sig(Fo)  and  0.0550 for all    1414 data
REM     46 parameters refined using      0 restraints

END

WGHT      0.0748      0.0318

REM Highest difference peak  0.468,  deepest hole -0.302,  1-sigma level  0.066
Q1    1   0.4137  0.3437  0.3527  11.00000  0.05    0.47
Q2    1   0.3324  0.5078  0.3556  11.00000  0.05    0.40
Q3    1   0.4158  0.6831  0.5217  11.00000  0.05    0.33
Q4    1   0.2191  0.2873 -0.0016  11.00000  0.05    0.32
Q5    1   0.3585  0.3485  0.1948  11.00000  0.05    0.21
Q6    1   0.8779  0.9689  0.6644  11.00000  0.05    0.17
Q7    1   0.3393  0.8191  0.6682  11.00000  0.05    0.17
Q8    1   0.7441  0.9644  0.9143  11.00000  0.05    0.16
Q9    1  -0.0386  0.2199 -0.1863  11.00000  0.05    0.16
Q10   1  -0.0521  0.1051 -0.1673  11.00000  0.05    0.15
Q11   1   0.1793  0.2457 -0.2005  11.00000  0.05    0.15
Q12   1  -0.0911  0.7119  0.2779  11.00000  0.05    0.15
Q13   1   0.1872  0.3971 -0.0757  11.00000  0.05    0.15
Q14   1   0.7335  0.7604  0.5444  11.00000  0.05    0.14
Q15   1   0.0774  0.4354  0.2015  11.00000  0.05    0.14
Q16   1   0.6558  0.8676  0.6829  11.00000  0.05    0.13
Q17   1   0.5734  0.4049  0.1779  11.00000  0.05    0.13
Q18   1   0.3743  0.1011  0.0534  11.00000  0.05    0.13
Q19   1   0.2326  0.5782  0.0961  11.00000  0.05    0.13
Q20   1   0.4273  0.4251  0.1825  11.00000  0.05    0.13
;
_shelx_res_checksum              66723
_shelx_hkl_file
;
  -2   0   0  140.69    6.60
   4   0   0  204.98   10.00
   5   0   0    2.00    3.20
   5   0   0    3.70    2.20
   5   0   0    3.40    3.60
   6   0   0   16.30    5.10
   5  -1   0   82.09    6.60
   5  -1   0   87.69    5.70
   5  -1   0   81.39    5.90
   4  -1   0  112.59    6.00
   4  -1   0  104.09    6.00
  -3   1   0 1777.02   73.89
  -2   1   0 5952.80  244.68
   1   1   0  269.87   17.70
   1   1   0  316.87   12.60
   2   1   0 2001.30   82.99
   3   1   0  259.47   12.00
   4   1   0  376.96   17.20
   5   1   0  125.59    7.80
   6   1   0   -7.40    5.20
   5  -2   0   10.90    2.40
   5  -2   0   15.40    2.90
   5  -2   0   16.80    3.50
   4  -2   0  219.28   10.20
   4  -2   0  201.38   10.30
  -4   2   0  200.28    9.90
   3  -2   0 3635.04  154.68
   3  -2   0 3841.42  154.78
  -3   2   0 3761.52  154.58
   2  -2   0  222.58   10.20
  -2   2   0  230.68   10.10
   1  -2   0   93.99    4.10
   1  -2   0   81.99    4.00
   1  -2   0   85.79    4.20
  -1   2   0   95.19    4.20
   1   2   0   68.29    3.50
   2   2   0   51.39    3.30
   3   2   0  672.43   29.00
   4   2   0  420.96   19.20
   5   2   0  391.76   18.60
   6  -3   0    2.50    3.60
   5  -3   0   60.99    5.30
   4  -3   0   29.20    3.20
   4  -3   0   24.30    3.90
  -4   3   0   21.90    3.10
   3  -3   0 1053.69   44.20
   3  -3   0 1072.19   44.50
  -3   3   0 1032.50   44.20
   2  -3   0 4198.28  172.28
   2  -3   0 4064.79  172.68
  -2   3   0 4309.47  172.58
   0  -3   0 4352.66  178.98
   1   3   0  277.97   12.30
   2   3   0  531.35   23.00
   3   3   0    8.20    1.80
   4   3   0   63.59    5.20
   5   3   0   19.00    3.70
   6  -4   0   -0.20    3.60
   5  -4   0    3.50    2.70
   4  -4   0 1066.49   45.90
  -4   4   0 1076.69   45.40
   3  -4   0 8375.86  338.17
   3  -4   0 8177.78  338.87
  -3   4   0 8135.89  338.37
   2  -4   0  481.65   20.80
   2  -4   0  484.25   20.20
  -2   4   0  471.65   20.50
   1  -4   0  304.67   13.20
   1  -4   0  314.27   13.00
  -1   4   0  292.57   13.20
   0  -4   0   82.89    4.10
   0  -4   0   82.39    4.30
   0   4   0   82.49    4.10
   1   4   0  952.00   40.00
   2   4   0    7.50    1.40
   3   4   0  122.99    7.00
   4   4   0  662.43   29.50
   6  -5   0  135.29   11.00
   5  -5   0   40.20    5.80
   4  -5   0 1753.12   73.99
   3  -5   0 1125.39   47.50
  -3   5   0 1112.49   47.10
   2  -5   0   -0.90    1.00
   2  -5   0    0.70    1.10
  -2   5   0    0.50    1.20
   1  -5   0  864.71   35.90
   1  -5   0  813.62   36.00
  -1   5   0  891.21   36.20
   0  -5   0  124.19    5.80
   0  -5   0  113.39    6.10
   0   5   0  118.69    5.90
   1   5   0  286.67   12.90
   2   5   0   95.29    5.50
   3   5   0   23.80    3.90
   4   5   0 1246.58   53.69
   5  -6   0   -3.10    3.10
   4  -6   0    1.10    2.50
   3  -6   0  862.41   37.10
   2  -6   0    6.20    1.50
   1  -6   0   41.80    3.10
   1  -6   0   40.30    3.10
  -1   6   0   33.30    3.70
   0  -6   0  520.85   22.90
   0   6   0  545.65   23.10
   1   6   0  485.05   21.20
   2   6   0  942.61   40.40
   3   6   0   32.70    4.80
   5  -7   0   65.89    8.10
   4  -7   0  544.45   24.90
   3  -7   0  470.55   21.40
   2  -7   0   69.39    4.90
   1  -7   0  172.28    8.30
  -1   7   0  158.28    8.90
   0   7   0   -1.90    1.80
   1   7   0  191.38    9.70
   2   7   0    2.40    2.20
   3   7   0    8.60    4.60
   4  -8   0   26.80    4.40
   3  -8   0    7.80    3.00
   2  -8   0  108.99    7.10
   1  -8   0   28.80    4.30
  -1   8   0   38.70    7.10
   0   8   0   94.59    7.30
   1   8   0  448.56   20.80
   2   8   0  809.92   35.70
   3  -9   0   27.30    4.50
   2  -9   0   56.19    6.30
   1  -9   0    7.90    3.70
   1   9   0  924.21   42.50
   2 -10   1   41.50    7.70
   1   9  -1   25.20    4.30
   0   9  -1    1.80    3.70
   1  -9   1   98.59    7.40
   2  -9   1    0.80    2.90
   3  -9   1    3.20    3.30
   2   8  -1   -0.60    2.60
   1   8  -1   16.40    3.10
   0   8  -1   32.30    5.20
  -1   8  -1   92.39    6.70
   1  -8   1   85.79    5.80
   2  -8   1  194.38   10.10
   3  -8   1  378.66   17.80
   4  -8   1  302.37   15.50
   3   7  -1  304.67   15.20
   2   7  -1  251.27   12.40
   1   7  -1  172.98    9.00
   0   7  -1  130.99    7.30
  -1   7  -1   67.99    5.30
   1  -7   1   65.99    4.40
  -2   7  -1 1661.43   69.29
   2  -7   1 1636.44   69.09
   3  -7   1  173.38    9.30
   4  -7   1   35.50    5.10
   5  -7   1  158.58   10.20
   3   6  -1  295.07   14.40
   2   6  -1  294.97   13.80
   1   6  -1  182.48    8.80
   0   6  -1  345.17   15.00
   0  -6   1  321.67   14.80
  -1   6  -1   55.59    4.20
   1  -6   1   53.49    3.50
  -2   6  -1   34.50    3.70
   2  -6   1   50.79    3.40
  -3   6  -1  953.30   40.90
   3  -6   1  964.10   41.00
   4  -6   1  281.87   13.90
   5  -6   1  458.05   21.40
   4   5  -1   12.70    2.90
   3   5  -1    0.50    1.70
   2   5  -1  298.07   13.60
   1   5  -1   95.99    5.00
   0   5  -1   79.99    4.60
   0  -5   1   87.89    4.40
  -1   5  -1  299.07   15.30
   1  -5   1  367.06   15.20
   1  -5   1  372.76   14.90
  -2   5  -1 8187.08  354.16
   2  -5   1 9042.09  354.26
  -3   5  -1 1554.84   67.49
   3  -5   1 1668.13   67.59
  -4   5  -1  108.79    6.80
   4  -5   1  101.89    6.50
   5  -5   1    6.20    2.80
   6  -5   1   23.90    4.50
   4   4  -1   19.60    3.80
   3   4  -1  133.19    7.20
   2   4  -1  242.48   11.20
   1   4  -1  599.34   25.50
   0   4  -1 3056.79  128.59
   0  -4   1 3183.08  128.49
  -1   4  -1 6445.95  256.17
   1  -4   1 6010.90  255.97
  -2   4  -1 5405.86  219.58
   2  -4   1 5255.87  219.48
  -4   4  -1  193.08    9.80
   4  -4   1  185.08    9.60
   5  -4   1   -0.10    2.50
   5   3  -1  126.19    8.00
   4   3  -1  122.19    7.20
   3   3  -1  174.78    8.70
   2   3  -1  200.88    9.30
   0   3  -1  317.17   13.20
   0  -3   1  297.97   13.10
  -1   3  -1 3708.23  152.78
   1  -3   1 3712.23  152.68
  -2   3  -1 3320.37  135.79
   2  -3   1 3242.68  135.59
   2  -3   1 3301.57  135.19
  -3   3  -1   97.69    5.60
   3  -3   1   92.29    5.30
   3  -3   1   91.79    4.90
  -4   3  -1    9.30    2.10
   4  -3   1   10.40    2.00
  -5   3  -1  182.08    9.90
   5  -3   1  169.68    9.40
   6   2  -1  140.99   13.60
   5   2  -1  202.58   10.80
   4   2  -1  139.99    7.50
   3   2  -1  235.98   11.00
   2   2  -1  667.53   28.30
   1   2  -1  230.08   10.20
   2  -2   1 3481.95  143.39
  -3   2  -1  122.89    6.60
   3  -2   1  126.39    6.30
  -4   2  -1  274.07   13.00
   4  -2   1  264.47   12.60
   4  -2   1  284.07   13.30
   5  -2   1   23.50    3.80
   5  -2   1   26.90    4.90
   6   1  -1   23.80    5.30
   5   1  -1   96.09    8.30
   5   1  -1   99.29    6.40
   4   1  -1   33.40    3.00
   3   1  -1  122.69    6.20
   2   1  -1 2274.37   93.99
   1  -1   1 6331.47  260.07
  -2   1  -1   34.60    2.60
   2  -1   1   32.60    2.10
  -3   1  -1  504.25   21.40
   3  -1   1  474.45   21.00
  -4   1  -1    3.80    1.60
   4  -1   1    3.80    1.50
   5  -1   1   62.29    5.70
   6   0  -1   20.90    4.80
   5   0  -1   54.29    4.50
   5   0  -1   49.80    5.80
   4   0  -1  210.58   10.30
   4   0  -1  230.88   11.50
   3   0  -1  662.23   28.20
   0   0  -1  103.29    4.40
   0   0  -1  105.49    4.40
   0   0   1   89.39    4.40
  -1   0  -1 4886.61  200.98
  -2   0  -1  238.18   10.80
  -3   0  -1  603.94   26.20
   4   0   1    7.30   20.70
   4   0   1    8.60    1.80
   4   0   1    7.20    1.80
   5   0   1   14.80   27.80
   5   0   1   37.70    5.00
   6   0   1  836.42   42.30
   5  -1  -1  161.98    9.40
   5  -1  -1  162.48    8.90
   4  -1  -1 1973.50   80.89
   4  -1  -1 1875.01   79.99
   3  -1  -1   17.50    2.70
   2  -1  -1 2089.29   85.99
  -2   1   1 2060.79   85.49
   0  -1  -1   97.59    4.20
   0  -1  -1  103.69    4.30
   0   1   1   85.49    4.20
   0   1   1   98.19    4.30
  -1  -1  -1  157.18    6.80
  -1  -1  -1  140.89    6.80
  -2  -1  -1 3302.47  136.49
   4   1   1  824.32   35.80
   5   1   1   31.20    5.00
   6  -2  -1    0.60    3.50
   5  -2  -1  105.99    6.90
   5  -2  -1  107.59    7.20
   4  -2  -1    2.10    1.30
   4  -2  -1    2.80    1.80
   4  -2  -1    0.80    1.50
   3  -2  -1 1261.77   49.10
   3  -2  -1 1093.89   48.90
  -3   2   1 1130.59   48.30
   2  -2  -1 5424.36  216.88
   2  -2  -1 4907.51  216.88
   2  -2  -1 5396.56  216.38
  -2   2   1 5347.56  216.48
   0  -2  -1   21.90    1.20
   0  -2  -1   17.00    1.40
  -1  -2  -1 1635.24   69.69
   1   2   1 1707.73   69.69
   2   2   1   58.49    3.60
   2   2   1   50.19   14.50
   3   2   1  920.11   54.59
   3   2   1  749.13   35.70
   4   2   1  143.29    8.30
   5   2   1   40.20    5.50
   6  -3  -1   10.30    3.90
   5  -3  -1  323.07   15.80
   4  -3  -1 3822.62  156.18
   4  -3  -1 3716.33  156.38
   3  -3  -1  279.87   13.40
   3  -3  -1  295.87   13.20
  -3   3   1  290.67   12.60
   2  -3  -1 2166.38   86.99
   2  -3  -1 2120.59   87.49
   2  -3  -1 2074.19   87.69
  -2   3   1 2093.19   87.19
   1  -3  -1   31.90    2.20
   1  -3  -1   34.90    2.20
  -1   3   1   34.40    2.10
   0  -3  -1 2302.57   94.29
   0  -3  -1 2175.18   93.99
   0   3   1 2367.36   94.09
  -1  -3  -1   -1.20    1.00
   1   3   1   -1.50    0.90
   2   3   1  288.77   13.20
   3   3   1  241.88   11.80
   4   3   1 1182.28   50.79
   5   3   1   -4.10    5.00
   6  -4  -1   -0.50    3.90
   5  -4  -1 1412.96   60.39
   4  -4  -1 1995.80   83.89
   3  -4  -1    7.20    1.70
  -3   4   1    6.40    1.30
   2  -4  -1  530.55   22.60
   2  -4  -1  528.45   22.20
  -2   4   1  504.25   22.00
   1  -4  -1   49.30    3.10
   1  -4  -1   50.19    3.10
  -1   4   1   57.69    3.20
   0  -4  -1  455.25   19.40
   0  -4  -1  448.36   19.10
   0   4   1  444.86   19.10
  -1  -4  -1   42.90    3.50
   1   4   1   43.30    2.90
   2   4   1  211.18   10.30
   3   4   1 3274.87  136.39
   4   4   1 1193.78   51.59
   5  -5  -1  148.99    9.60
   4  -5  -1  110.29    7.40
   3  -5  -1   13.80    2.90
   3  -5  -1   14.80    2.80
   2  -5  -1   18.30    2.00
   2  -5  -1   14.10    2.30
  -2   5   1   17.70    2.30
   1  -5  -1  662.43   28.30
   1  -5  -1  657.43   28.30
  -1   5   1  677.03   28.20
   0  -5  -1  282.47   13.60
   0  -5  -1  305.57   13.20
   0   5   1  311.87   13.30
   1   5   1  935.31   39.50
   2   5   1  240.18   11.60
   3   5   1 1090.99   47.00
   4   5   1    2.30    3.50
   5  -6  -1  317.17   16.40
   4  -6  -1  491.25   22.70
   3  -6  -1   28.70    3.90
   2  -6  -1  291.17   13.00
   2  -6  -1  284.67   13.30
   1  -6  -1  105.09    6.00
   1  -6  -1  113.19    5.80
  -1   6   1  102.99    6.00
   0  -6  -1  808.32   33.50
   0  -6  -1  781.72   34.00
   0   6   1  783.12   33.60
   1   6   1  257.17   12.00
   2   6   1   72.79    5.40
   3   6   1  331.47   16.20
   4  -7  -1   39.50    6.10
   3  -7  -1   96.49    6.90
   2  -7  -1    8.80    2.20
   1  -7  -1   58.69    4.80
   1  -7  -1   63.89    4.70
  -1   7   1   71.99    6.30
   0  -7  -1   85.99    5.50
   0   7   1   78.19    5.70
   1   7   1  838.02   36.00
   2   7   1   32.50    4.90
   4  -8  -1   14.20    4.50
   3  -8  -1   33.50    6.00
   2  -8  -1   23.20    5.10
   1  -8  -1  190.78   10.30
   1   8   1  659.23   29.40
   3  -9  -1   87.09    9.00
   2  -9  -1  103.89    8.00
   1  -9  -1  197.78   11.60
   0  10  -2   27.40    6.90
   2 -10   2   45.30    6.90
   1   9  -2    2.30    3.40
   0   9  -2   42.20    6.80
  -1   9  -2   35.80    6.20
   2  -9   2   90.19    6.70
   3  -9   2  570.34   25.90
   4  -9   2 1064.19   46.90
   2   8  -2   19.10    3.50
   1   8  -2  104.79    7.10
   0   8  -2   70.59    6.10
  -1   8  -2 1186.48   53.99
   1  -8   2 1345.87   53.69
  -2   8  -2  235.08   12.20
   2  -8   2  224.28   11.30
   3  -8   2  336.47   16.00
   4  -8   2    4.10    3.00
   3   7  -2  166.78    9.60
   2   7  -2  158.38    8.70
   1   7  -2   15.60    3.20
   0   7  -2  185.98    9.60
  -1   7  -2  470.35   20.80
   1  -7   2  453.05   20.30
  -2   7  -2  257.97   12.50
   2  -7   2  250.87   12.00
  -3   7  -2  376.46   17.50
   3  -7   2  360.36   16.90
   4  -7   2  827.22   36.10
   5  -7   2   26.50    5.80
   4   6  -2   40.40    5.70
   3   6  -2  146.69    8.20
   2   6  -2   22.40    2.90
   1   6  -2  215.38   10.20
   0   6  -2   84.99    5.20
  -1   6  -2 5227.48  218.38
   1  -6   2 5357.76  217.98
  -2   6  -2 1141.09   49.20
   2  -6   2 1183.98   48.90
  -3   6  -2  775.82   33.20
   3  -6   2  749.62   32.80
  -4   6  -2  119.99    8.10
   4  -6   2  125.59    7.30
   5  -6   2   58.89    6.00
   4   5  -2   37.50    4.70
   3   5  -2   94.09    5.90
   2   5  -2    9.00    2.00
   1   5  -2  294.57   13.10
   0   5  -2 5255.07  215.08
   0  -5   2 5186.58  214.88
  -1   5  -2 8880.71  365.26
   2  -5   2   69.89    4.10
  -3   5  -2   89.69    5.80
   3  -5   2   92.69    5.20
  -4   5  -2   -0.10    2.50
   4  -5   2    1.40    1.70
   5  -5   2  110.69    7.40
   5   4  -2   12.50    3.20
   4   4  -2  102.79    6.30
   3   4  -2  210.18   10.10
   2   4  -2 3494.45  144.39
   1   4  -2  242.88   10.80
   0   4  -2 6731.33  276.77
  -1   4  -2  395.86   17.20
   1  -4   2  391.36   16.80
  -2   4  -2    4.00    1.70
   2  -4   2    5.90    1.10
  -3   4  -2  273.97   13.00
   3  -4   2  279.67   12.50
  -4   4  -2  311.47   15.00
   4  -4   2  311.87   14.30
  -5   4  -2  223.38   12.60
   5  -4   2  243.08   11.80
   5   3  -2   48.30    8.20
   5   3  -2   57.49    5.10
   4   3  -2    0.70    1.50
   3   3  -2  596.54   25.80
   2   3  -2 1823.32   75.69
   1   3  -2 1978.50   81.99
   0   3  -2 4886.91  200.98
  -2   3  -2    2.10    1.30
   2  -3   2    3.40    0.80
  -3   3  -2  405.56   18.40
   3  -3   2  409.76   17.70
   3  -3   2  412.16   17.80
  -4   3  -2  187.38    9.80
   4  -3   2  183.58    9.00
  -5   3  -2  343.07   17.10
   5  -3   2  360.36   16.30
   6   2  -2   48.70    9.70
   5   2  -2    2.70    2.10
   5   2  -2    2.70    3.50
   4   2  -2   66.69    4.30
   3   2  -2  144.89    7.10
   1   2  -2 1841.82   76.09
  -1   2  -2  486.95   21.00
   1  -2   2  498.55   20.60
  -2   2  -2 1147.29   47.80
   2  -2   2 1130.59   47.20
  -3   2  -2  124.69    6.80
   3  -2   2  127.49    6.20
  -4   2  -2   53.29    4.50
   4  -2   2   50.69    3.70
  -5   2  -2    7.50    3.20
   6   1  -2   20.20    5.00
   5   1  -2    4.90    2.10
   5   1  -2    5.30    3.30
   4   1  -2   -0.70    1.20
   4   1  -2   -0.10    2.10
   3   1  -2 6651.23  286.27
   3   1  -2 7229.48  285.47
   1   1  -2   11.60    1.40
   1   1  -2   10.10    0.80
  -1  -1   2    8.70    0.90
   0   1  -2 1575.14   64.89
   1  -1   2    8.90    0.80
  -2   1  -2  983.70   41.30
   2  -1   2  972.40   40.60
  -3   1  -2  206.08   10.20
   3  -1   2  218.18    9.50
  -4   1  -2  201.18    9.90
   4  -1   2  174.68    8.80
   5  -1   2 1632.74   69.49
   6   0  -2   79.69   10.80
   6   0  -2   78.99    8.30
   5   0  -2  594.54   27.30
   4   0  -2   -0.70    1.10
   4   0  -2    1.90    1.80
   3   0  -2 3510.75  147.09
   3   0  -2 3581.94  146.09
   2   0  -2  146.49    6.50
   1   0  -2  302.77   13.80
   1   0  -2  329.87   13.30
  -1   0   2  319.97   13.30
   0   0  -2 1625.54   68.09
   0   0  -2 1657.53   67.99
  -1   0  -2 8068.79  331.57
  -2   0  -2 1096.09   45.50
   2   0   2 1064.29   44.60
  -3   0  -2  721.23   31.80
   3   0   2  756.12   30.90
   6  -1  -2  144.29    9.40
   6  -1  -2  125.89   10.10
   5  -1  -2  162.98    9.10
   5  -1  -2  163.28    9.50
   4  -1  -2  182.98    8.50
   4  -1  -2  180.38    9.50
   3  -1  -2 1286.37   53.89
   3  -1  -2 1267.57   52.89
   2  -1  -2 5197.18  214.08
   1  -1  -2  375.36   16.10
   0  -1  -2 3022.20  123.99
   0  -1  -2 2953.00  123.79
   0  -1  -2 2921.31  123.89
   0   1   2 3100.09  123.99
  -1  -1  -2 1692.73   71.69
  -1  -1  -2 1770.72   71.89
  -2  -1  -2 2712.93  112.49
   3   1   2 1047.20   44.70
   4   1   2  205.08   10.90
   5   1   2   51.79    6.10
   6  -2  -2   48.90    7.00
   5  -2  -2  895.91   38.90
   5  -2  -2  880.51   38.80
   4  -2  -2   58.89    4.60
   4  -2  -2   52.69    4.50
   3  -2  -2 2742.23  113.89
   2  -2  -2  376.56   16.60
   1  -2  -2 1600.84   63.59
   1  -2  -2 1462.55   63.49
   0  -2  -2  123.99    5.70
   0  -2  -2  136.89    6.10
   0   2   2  123.79    5.80
  -1  -2  -2  360.56   16.60
   1   2   2  401.56   16.60
   2   2   2  135.79    7.00
   3   2   2  766.22   53.49
   3   2   2  709.73   32.10
   4   2   2    9.00    2.60
   5   2   2  535.75   25.20
   6  -3  -2  727.13   33.00
   5  -3  -2 1490.15   63.49
   4  -3  -2   -1.10    1.90
   4  -3  -2   -0.10    2.10
   3  -3  -2    9.40    2.30
   3  -3  -2    8.70    1.70
   2  -3  -2   60.49    4.00
   2  -3  -2   57.49    4.00
   1  -3  -2  907.81   37.30
   1  -3  -2  880.91   37.20
  -1   3   2  914.31   36.90
  -1   3   2  849.52   36.80
   0  -3  -2  499.15   22.00
   0  -3  -2  494.45   21.60
   0   3   2  551.04   21.80
  -1  -3  -2  390.96   17.30
   1   3   2  390.16   17.10
   2   3   2 4554.04  188.18
   3   3   2 2649.93  110.69
   4   3   2   96.49    7.20
   5  -4  -2   61.99    6.60
   4  -4  -2   23.40    4.10
   4  -4  -2   19.80    3.20
   3  -4  -2   80.89    5.50
   3  -4  -2   83.99    5.30
   2  -4  -2  527.85   21.90
   2  -4  -2  489.75   22.20
   1  -4  -2   88.99    4.90
   1  -4  -2   90.99    4.80
  -1   4   2   96.29    4.60
   0  -4  -2  344.37   14.80
   0  -4  -2  344.97   15.40
   0   4   2  346.27   14.90
  -1  -4  -2  942.91   41.40
   1   4   2  998.80   41.00
   2   4   2 5281.17  218.18
   3   4   2  144.59    8.50
   4   4   2    8.80    3.30
   5  -5  -2  217.58   12.50
   4  -5  -2   -0.30    2.70
   3  -5  -2  219.68   10.60
   3  -5  -2  229.98   11.40
   2  -5  -2  317.47   14.50
   2  -5  -2  333.27   14.80
   1  -5  -2 1053.49   45.20
   1  -5  -2 1097.49   45.40
  -1   5   2 1078.99   45.00
   0  -5  -2  826.32   34.40
   0  -5  -2  813.82   35.10
   0   5   2  815.82   34.50
  -1  -5  -2  429.96   20.00
   1   5   2  447.86   19.30
   2   5   2   88.19    6.00
   3   5   2  161.18    9.50
   5  -6  -2   77.89    8.80
   4  -6  -2   65.09    6.60
   3  -6  -2    9.40    2.60
   2  -6  -2    1.50    1.80
   2  -6  -2    2.10    1.80
   1  -6  -2  118.69    6.50
   1  -6  -2  114.69    6.30
   0  -6  -2  331.67   14.00
   0  -6  -2  309.37   14.70
   0   6   2  296.67   14.10
   1   6   2   94.19    5.80
   2   6   2 1215.48   51.79
   3   6   2   18.00    3.80
   4  -7  -2   19.20    4.00
   3  -7  -2   84.09    7.00
   2  -7  -2  199.38   10.50
   1  -7  -2 1839.52   77.09
   1  -7  -2 1830.12   76.59
   0  -7  -2 1074.39   46.30
   0   7   2 1062.89   46.80
   1   7   2  255.37   12.50
   2   7   2   37.00    5.30
   3  -8  -2   -0.50    3.50
   2  -8  -2  503.75   23.00
   1  -8  -2 1658.93   69.69
   2  -9  -2   81.59    7.70
   0  10  -3    4.50    4.20
  -1  10  -3   47.40    7.30
   2 -10   3  561.74   25.90
   3 -10   3 1285.37   56.29
   1   9  -3   39.90    6.00
   0   9  -3  444.66   21.20
  -1   9  -3   86.29    7.90
  -2   9  -3  904.81   39.70
   2  -9   3  888.71   38.90
   3  -9   3  157.78    9.60
   4  -9   3    2.50    3.90
   2   8  -3    7.30    2.80
   1   8  -3  228.98   11.90
   0   8  -3  965.70   41.90
   1  -8   3   52.99    4.60
  -2   8  -3   86.59    6.90
   2  -8   3   81.99    5.70
  -3   8  -3  678.03   31.70
   3  -8   3  733.63   31.00
   4  -8   3    1.10    3.00
   2   7  -3   67.49    5.20
   1   7  -3    9.20    2.20
   0   7  -3 1036.40   44.30
  -1   7  -3  424.06   19.70
   1  -7   3  436.46   19.10
  -2   7  -3 1525.15   65.39
   2  -7   3 1568.84   64.79
  -3   7  -3  375.86   18.10
   3  -7   3  377.76   17.20
  -4   7  -3   52.89    6.90
   4  -7   3   53.29    5.10
   5  -7   3   28.40    5.70
   4   6  -3   23.50    5.10
   3   6  -3   17.60    3.50
   2   6  -3    4.00    1.50
   1   6  -3 2383.76   99.09
   0   6  -3 6096.99  251.37
  -1   6  -3   29.90    3.70
   1  -6   3   40.40    3.00
  -2   6  -3   41.00    3.70
   2  -6   3   38.60    3.10
  -3   6  -3    3.20    2.40
   3  -6   3    1.40    1.40
  -4   6  -3  126.19    8.80
   4  -6   3  130.69    7.30
   5  -6   3    9.90    3.10
   5   5  -3   32.90    6.90
   4   5  -3   72.39    5.50
   3   5  -3  612.54   26.70
   2   5  -3    6.60    1.40
   1   5  -3 5815.62  239.48
   0   5  -3  498.05   21.70
  -1   5  -3   -1.90    1.50
   1  -5   3    1.50    1.10
  -2   5  -3  595.64   26.30
   2  -5   3  611.04   25.70
  -3   5  -3  325.87   15.40
   3  -5   3  324.27   14.50
  -4   5  -3  195.68   11.00
   4  -5   3  211.48   10.00
  -5   5  -3   44.40    7.20
   5  -5   3   41.70    5.20
   5   4  -3   15.90    2.90
   5   4  -3   10.10    4.70
   4   4  -3  400.46   18.20
   3   4  -3 1262.37   53.09
   2   4  -3  386.86   16.90
   1   4  -3  106.59    5.40
   0   4  -3 5504.75  226.58
  -1   4  -3  185.88    9.00
   1  -4   3  185.68    8.30
  -2   4  -3  144.79    7.40
   2  -4   3  138.39    6.70
  -3   4  -3  467.85   21.00
   3  -4   3  467.05   20.20
  -4   4  -3  613.54   27.80
   4  -4   3  626.94   26.70
  -5   4  -3  401.36   19.70
   5   3  -3    4.50    2.30
   5   3  -3    3.40    3.80
   4   3  -3   20.00    2.80
   4   3  -3   13.20    3.30
   3   3  -3  964.90   40.70
   2   3  -3  270.37   11.90
   0   3  -3 1803.02   73.89
   0   3  -3 1771.32   74.09
  -1   3  -3 1023.20   43.30
   1  -3   3 1040.20   42.80
  -2   3  -3  826.12   34.40
   2  -3   3  784.42   33.60
  -3   3  -3    0.80    1.60
   3  -3   3    0.10    0.90
  -4   3  -3  274.57   13.40
   4  -3   3  260.47   12.10
  -5   3  -3   26.10    6.00
   6   2  -3   -1.50    5.30
   5   2  -3   30.40    3.90
   5   2  -3   25.50    4.50
   4   2  -3 2099.49   88.79
   4   2  -3 2174.68   90.49
   3   2  -3 5879.61  253.57
   3   2  -3 6393.66  252.47
   2   2  -3   58.49    4.20
   2   2  -3   60.09    3.20
   1   2  -3  394.86   17.70
   1   2  -3  422.56   17.30
   0   2  -3   28.40    1.80
  -1   2  -3 1967.20   75.49
  -1   2  -3 1665.53   74.79
  -2   2  -3  559.24   24.20
   2  -2   3  556.04   23.30
  -3   2  -3  281.37   13.60
   3  -2   3  294.97   12.50
  -4   2  -3 1646.04   69.69
  -5   2  -3 1297.47   55.99
   6   1  -3   82.69    9.10
   5   1  -3   61.09    6.40
   4   1  -3 3070.09  126.39
   4   1  -3 2971.90  124.89
   3   1  -3  868.01   35.50
   3   1  -3  827.62   36.70
   2   1  -3   53.39    3.90
   2   1  -3   66.79    3.10
   1   1  -3 1740.43   69.39
   1   1  -3 1598.54   68.89
   0   1  -3 4614.14  189.98
  -1   1  -3  420.16   17.10
  -1   1  -3  389.96   17.60
  -2   1  -3   12.40    2.00
  -2   1  -3    9.90    1.60
   2  -1   3   10.30    0.90
  -3   1  -3  819.32   35.80
   3  -1   3  838.22   34.50
  -4   1  -3 4677.53  193.98
   5  -1   3  329.87   16.70
   6   0  -3  106.19    9.10
   6   0  -3  129.19    9.90
   5   0  -3   75.39    6.80
   4   0  -3   22.30    3.40
   4   0  -3   18.80    2.30
   3   0  -3 1200.08   48.80
   3   0  -3 1154.38   49.99
   2   0  -3  357.66   16.50
   2   0  -3  381.36   15.50
   1   0  -3 1815.92   73.49
  -1   0   3 1719.43   72.69
   0   0  -3 6251.17  256.97
  -1   0  -3 3991.90  164.58
  -2   0  -3 2666.63  110.59
  -2   0  -3 2676.23  110.89
  -3   0  -3  982.20   42.10
  -4   0  -3  142.59    8.70
   5   0   3  105.69   41.50
   5   0   3   69.59    7.10
   6  -1  -3   91.39    9.00
   6  -1  -3   87.99    8.50
   5  -1  -3    0.20    2.90
   4  -1  -3 1635.44   69.29
   3  -1  -3  504.55   22.50
   2  -1  -3  267.67   12.30
   1  -1  -3  667.33   28.30
   0  -1  -3   -0.20    0.80
   0  -1  -3   -1.20    0.70
  -1  -1  -3 2750.52  114.49
  -1  -1  -3 2786.52  114.39
  -2  -1  -3   67.39    4.30
  -2  -1  -3   63.09    4.30
  -3  -1  -3   -0.50    1.80
   4   1   3 1588.14   70.69
   4   1   3 1743.13  103.89
   5   1   3   57.59    7.40
   6  -2  -3  552.94   26.10
   5  -2  -3    6.30    2.90
   5  -2  -3    4.60    3.20
   4  -2  -3  140.49    8.10
   3  -2  -3   62.69    4.80
   2  -2  -3  678.83   29.20
   1  -2  -3  631.34   26.40
   1  -2  -3  606.74   26.20
   0  -2  -3  358.26   15.30
   0  -2  -3  335.27   14.90
   0   2   3  360.96   15.10
  -1  -2  -3 2855.91  116.79
   1   2   3 2787.22  116.79
  -2  -2  -3 3045.80  123.29
   2   2   3 2664.33  123.09
   2   2   3 3186.98  139.39
   3   2   3  594.24   26.60
   4   2   3  307.07   15.50
   6  -3  -3  111.69   10.50
   5  -3  -3   11.00    3.20
   5  -3  -3    1.90    3.60
   4  -3  -3   35.10    4.40
   4  -3  -3   40.50    4.50
   3  -3  -3  312.57   14.40
   3  -3  -3  302.57   14.50
   2  -3  -3   37.40    3.80
   2  -3  -3   36.10    3.20
   1  -3  -3    5.10    1.50
   1  -3  -3    8.20    1.70
   0  -3  -3 1733.33   71.69
   0  -3  -3 1691.93   71.09
   0   3   3 1737.33   71.29
  -1  -3  -3 9630.74  382.76
   1   3   3 8972.50  382.46
  -2  -3  -3  540.95   26.20
   2   3   3  642.24   26.10
   3   3   3   23.50    4.00
   4   3   3   51.19    6.00
   5  -4  -3    1.90    3.20
   4  -4  -3   78.59    6.40
   4  -4  -3   75.89    6.20
   3  -4  -3  407.66   18.30
   3  -4  -3  388.36   17.90
   2  -4  -3  675.23   30.40
   2  -4  -3  748.13   30.70
   1  -4  -3  641.34   27.70
   1  -4  -3  629.04   27.50
  -1   4   3  665.33   27.00
   0  -4  -3 1717.43   72.59
   0  -4  -3 1724.53   73.29
   0   4   3 1822.62   72.79
  -1  -4  -3  349.27   15.60
   1   4   3  319.77   15.10
   2   4   3  119.59    7.00
   3   4   3  186.98   10.50
   5  -5  -3   23.90    4.60
   4  -5  -3   82.49    7.00
   3  -5  -3  105.09    6.10
   3  -5  -3  100.49    6.80
   2  -5  -3  641.84   28.40
   2  -5  -3  677.43   28.70
   1  -5  -3   11.40    2.50
   1  -5  -3   12.20    2.50
   0  -5  -3   28.00    3.00
   0  -5  -3   34.50    3.50
   0   5   3   33.00    2.80
  -1  -5  -3 1907.81   76.69
   1   5   3 1717.53   75.69
   2   5   3   27.30    4.40
   3   5   3    0.60    3.00
   4  -6  -3   43.90    6.80
   3  -6  -3   58.89    6.00
   2  -6  -3  667.43   28.80
   2  -6  -3  650.33   28.70
   1  -6  -3  758.42   32.60
   1  -6  -3  744.43   32.10
   0  -6  -3  812.32   35.50
  -1  -6  -3  305.87   15.70
   1   6   3  307.47   14.50
   2   6   3    0.20    2.60
   4  -7  -3   12.20    4.60
   3  -7  -3  605.44   27.60
   2  -7  -3 2234.78   93.49
   1  -7  -3  126.09    8.40
   1  -7  -3  133.79    7.50
   0  -7  -3   15.80    3.80
   3  -8  -3  396.66   19.70
   2  -8  -3  120.59    8.70
   0  10  -4    8.80    4.40
  -1  10  -4 1001.20   44.60
  -2  10  -4  545.25   26.30
   3 -10   4   10.80    4.60
   1   9  -4  557.84   25.80
   0   9  -4   10.60    3.50
  -1   9  -4   69.49    7.30
  -2   9  -4  204.88   12.40
   2  -9   4  184.08   10.60
   4  -9   4    0.50    3.90
   2   8  -4   98.39    7.50
   1   8  -4   14.40    3.10
   0   8  -4   73.29    6.40
  -1   8  -4 1216.18   52.39
  -2   8  -4  504.05   23.50
   2  -8   4  505.25   22.50
  -3   8  -4   24.90    5.40
   3  -8   4   21.50    4.10
   4  -8   4   76.09    6.50
   4   7  -4    4.10    4.90
   3   7  -4   19.30    3.40
   2   7  -4  800.62   34.90
   1   7  -4 3806.82  157.88
   0   7  -4   -1.20    1.90
  -1   7  -4  545.45   24.60
  -2   7  -4   22.20    3.80
   2  -7   4   19.80    2.90
  -3   7  -4  150.78    9.80
   3  -7   4  136.49    7.60
  -4   7  -4   23.00    4.60
   4  -7   4   17.20    3.00
   5  -7   4   46.30    6.40
   4   6  -4   43.70    5.50
   4   6  -4   41.30    7.60
   3   6  -4   48.00    4.60
   2   6  -4 4265.27  176.48
   1   6  -4 1609.34   67.49
   0   6  -4   -2.30    1.60
   0   6  -4   -0.90    1.40
  -1   6  -4  282.07   14.20
   1  -6   4  322.37   13.70
  -2   6  -4  218.58   10.90
   2  -6   4  215.08   10.10
  -3   6  -4  113.69    7.80
   3  -6   4  112.69    6.10
   4  -6   4    5.90    2.10
  -5   6  -4  242.78   14.10
   5   5  -4  142.19   12.30
   4   5  -4  457.15   20.20
   4   5  -4  427.56   22.00
   3   5  -4  179.68    9.10
   2   5  -4  371.06   16.60
   1   5  -4  725.63   31.00
   0   5  -4  290.37   12.90
   0   5  -4  296.47   13.60
   1  -5   4   -0.70    1.00
  -2   5  -4  660.33   30.40
   2  -5   4  735.53   29.60
  -3   5  -4  470.75   21.60
   3  -5   4  472.25   20.40
  -4   5  -4  393.06   19.20
   4  -5   4  397.86   17.60
  -5   5  -4  295.07   16.20
   5   4  -4   73.69    6.00
   5   4  -4   87.69    9.20
   4   4  -4   10.90    3.70
   4   4  -4   14.40    3.20
   3   4  -4   60.19    5.30
   3   4  -4   55.49    3.80
   2   4  -4 3032.80  125.39
   1   4  -4 1148.49   49.90
   1   4  -4 1223.58   49.70
   0   4  -4   84.89    5.00
   0   4  -4   82.79    4.30
  -1   4  -4 1038.10   44.60
   1  -4   4 1065.79   44.00
  -2   4  -4   54.39    4.20
   2  -4   4   56.29    3.20
  -3   4  -4 1133.89   48.70
   3  -4   4 1141.09   47.50
  -4   4  -4   64.99    6.20
   4  -4   4   70.09    4.30
  -5   4  -4   14.50    4.50
   5   3  -4  400.56   20.60
   4   3  -4 1640.14   69.59
   4   3  -4 1694.53   71.49
   3   3  -4   99.29    5.30
   3   3  -4  104.49    6.60
   2   3  -4 1504.35   63.49
   2   3  -4 1507.95   62.59
   1   3  -4   29.80    2.50
   1   3  -4   31.00    2.70
   0   3  -4 1789.12   74.89
   0   3  -4 1813.52   74.59
  -1   3  -4  137.49    7.20
  -1   3  -4  142.99    6.20
  -2   3  -4   97.09    5.80
   2  -3   4  100.79    4.80
  -3   3  -4  409.56   19.00
   3  -3   4  416.56   17.70
  -4   3  -4 1109.29   48.10
  -5   3  -4  230.78   13.30
   5   2  -4 1428.76   61.99
   4   2  -4  939.31   39.30
   4   2  -4  924.61   41.00
   3   2  -4    0.50    0.90
   3   2  -4   -2.00    1.50
   2   2  -4  332.67   14.00
   2   2  -4  310.37   14.80
   1   2  -4 1026.00   42.20
   1   2  -4  984.90   42.50
   0   2  -4   38.20    3.10
   0   2  -4   54.39    2.90
  -1   2  -4  750.52   32.30
  -1   2  -4  761.42   31.50
  -2   2  -4 1310.27   57.09
  -2   2  -4 1400.86   56.39
  -3   2  -4 7985.70  331.27
   3  -2   4 8076.69  329.67
  -4   2  -4  849.61   37.50
  -5   2  -4   75.79    7.70
   6   1  -4   78.79    9.70
   5   1  -4  152.88    9.80
   4   1  -4   56.59    5.20
   3   1  -4  151.98    6.70
   3   1  -4  140.79    8.00
   2   1  -4  230.08   10.10
   2   1  -4  233.78   11.10
   1   1  -4 3929.71  162.28
   0   1  -4 1429.76   64.29
   0   1  -4 1667.23   64.29
  -1   1  -4 1863.71   78.29
  -1   1  -4 1900.01   77.79
  -2   1  -4 3157.68  129.49
  -2   1  -4 3079.49  128.79
  -3   1  -4 2090.89   87.79
  -4   1  -4   19.30    4.30
   6   0  -4   -1.40    4.60
   5   0  -4  497.15   23.60
   4   0  -4  272.97   13.80
   3   0  -4   15.40    1.70
   3   0  -4   19.80    2.90
   2   0  -4  954.00   40.70
   1   0  -4  700.13   28.30
   1   0  -4  665.93   28.90
  -1   0   4  667.63   28.10
   0   0  -4 5808.52  248.98
   0   0  -4 6300.97  248.98
  -1   0  -4  200.28    8.90
  -1   0  -4  187.08    9.40
  -2   0  -4  335.07   15.70
  -2   0  -4  347.87   15.30
  -3   0  -4 1495.95   63.39
  -4   0  -4   75.19    6.50
   5   0   4    7.50   35.50
   5   0   4   14.70    4.40
   6  -1  -4   15.10    5.00
   6  -1  -4   13.90    5.00
   5  -1  -4  294.47   15.50
   4  -1  -4   62.59    5.40
   3  -1  -4  270.07   13.10
   2  -1  -4  167.98    8.70
   1  -1  -4   43.20    3.60
   0  -1  -4  215.58    9.60
   0  -1  -4  207.38    9.60
  -1  -1  -4 2303.27   95.89
  -1  -1  -4 2320.17   95.99
  -2  -1  -4 1547.95   65.19
  -2  -1  -4 1548.74   64.99
  -3  -1  -4 1280.57   54.79
   4   1   4    2.30    2.80
   4   1   4   -8.20   18.60
   5  -2  -4   -4.30    3.50
   5  -2  -4   -0.80    3.00
   4  -2  -4  101.89    7.10
   3  -2  -4   11.60    2.40
   2  -2  -4  310.37   14.40
   1  -2  -4 1568.14   63.49
   1  -2  -4 1482.05   63.69
   0  -2  -4 9672.23  404.26
   0   2   4 9999.00  403.96
  -1  -2  -4  826.42   35.10
   1   2   4  818.32   35.10
  -2  -2  -4  563.44   24.40
   2   2   4  502.25   45.70
   2   2   4  576.34   24.50
   3   2   4   35.30    4.50
   3   2   4   16.20   24.30
   5  -3  -4    9.40    4.10
   4  -3  -4  261.67   13.50
   4  -3  -4  262.27   13.50
   3  -3  -4  202.78   10.60
   3  -3  -4  209.98   10.70
   2  -3  -4  110.19    6.20
   2  -3  -4  100.19    6.00
   1  -3  -4 3385.76  139.99
   1  -3  -4 3394.46  140.19
   0  -3  -4 2809.22  117.19
   0  -3  -4 2709.13  116.39
   0   3   4 2957.00  116.69
  -1  -3  -4   42.10    3.50
   1   3   4   41.70    3.40
  -2  -3  -4  311.77   14.90
   2   3   4  300.97   14.60
   3   3   4    4.50    2.50
   4   3   4  248.08   14.00
   5  -4  -4   78.79    8.20
   4  -4  -4  204.38   11.50
   4  -4  -4  219.38   11.80
   3  -4  -4  780.82   34.50
   3  -4  -4  814.42   34.90
   2  -4  -4    7.70    2.00
   1  -4  -4  110.39    5.90
   1  -4  -4  105.09    6.00
   0  -4  -4 1280.97   52.29
   0  -4  -4 1327.57   53.39
   0   4   4 1171.08   52.49
  -1  -4  -4   13.90    3.20
   1   4   4    9.60    2.10
  -2  -4  -4   41.50    5.20
   2   4   4   34.30    4.90
   3   4   4  497.95   23.30
   5  -5  -4    0.50    4.50
   4  -5  -4    2.90    3.30
   3  -5  -4   42.80    5.70
   3  -5  -4   49.90    4.60
   2  -5  -4  271.57   12.90
   2  -5  -4  272.47   13.10
   1  -5  -4 1201.68   49.90
   1  -5  -4 1147.79   49.30
   0  -5  -4  970.20   41.90
  -1  -5  -4    8.90    2.70
   1   5   4    3.40    2.20
   2   5   4  166.88    9.90
   4  -6  -4  389.56   19.50
   3  -6  -4 1792.12   75.79
   2  -6  -4   91.59    6.90
   2  -6  -4  101.49    6.80
   1  -6  -4  265.17   12.80
   1  -6  -4  280.07   13.60
   0  -6  -4   16.20    3.40
  -1  -6  -4   75.39    7.10
   2   6   4   15.90    3.40
   3  -7  -4  499.05   23.50
   2  -7  -4   -4.00    3.20
   1  -7  -4  105.99    8.20
   0  -7  -4   11.80    4.10
   0  10  -5  335.67   19.70
  -2  10  -5   44.30    9.80
   3   9  -5   79.89   15.90
   1   9  -5   10.10    3.60
   0   9  -5  394.86   19.40
  -1   9  -5  345.67   17.80
  -2   9  -5   10.40    5.00
  -3   9  -5  107.09   10.80
   3  -9   5  101.59    7.60
   4  -9   5   80.09    7.90
   3   8  -5  125.99   10.50
   2   8  -5  784.82   35.30
   2   8  -5  784.02   34.90
   1   8  -5   17.50    3.30
   0   8  -5  948.61   41.40
  -1   8  -5   62.89    6.10
  -2   8  -5  108.79    7.90
  -3   8  -5    6.10    5.00
   3  -8   5    1.80    2.30
  -4   8  -5    6.30    5.80
   4  -8   5    1.90    3.20
   4   7  -5   70.79    8.90
   3   7  -5 2376.26   90.09
   3   7  -5 1835.72   88.39
   2   7  -5 1156.28   53.49
   2   7  -5 1326.47   53.19
   1   7  -5   17.00    3.10
   1   7  -5   17.90    3.80
   0   7  -5    5.20    2.30
  -1   7  -5  102.89    6.90
  -2   7  -5   68.09    5.80
   2  -7   5   52.99    4.40
  -3   7  -5  152.38    9.80
   3  -7   5  140.19    7.70
  -4   7  -5  285.17   16.80
   4  -7   5  305.37   14.30
   4   6  -5  171.68   10.10
   4   6  -5  168.98   11.70
   3   6  -5  886.21   37.20
   3   6  -5  822.72   38.10
   2   6  -5    0.60    2.10
   2   6  -5   -2.40    1.80
   1   6  -5  110.79    7.00
   1   6  -5  124.79    7.00
   0   6  -5   18.80    2.50
   0   6  -5   20.30    3.30
  -1   6  -5  701.03   30.80
  -2   6  -5  163.88    9.20
   2  -6   5  160.78    8.00
  -3   6  -5   93.79    7.40
   3  -6   5   89.49    5.20
  -4   6  -5  860.31   39.30
   4  -6   5  886.01   37.40
  -5   6  -5 1007.20   45.60
   5   5  -5    5.50    5.30
   4   5  -5   32.50    6.10
   4   5  -5   34.00    4.70
   3   5  -5  601.24   26.60
   3   5  -5  614.64   27.80
   2   5  -5  468.05   21.40
   2   5  -5  469.15   20.80
   1   5  -5   16.00    2.80
   1   5  -5   15.20    2.60
   0   5  -5  552.64   24.80
   0   5  -5  576.84   24.10
  -1   5  -5  280.47   13.30
  -2   5  -5 1517.25   63.69
   2  -5   5 1486.25   62.59
  -3   5  -5  239.68   12.50
   3  -5   5  232.68   10.80
  -4   5  -5  259.87   14.00
   4  -5   5  240.28   12.00
  -5   5  -5   76.49    9.60
   5   4  -5  261.87   15.50
   4   4  -5   77.59    7.20
   4   4  -5   80.09    5.60
   3   4  -5 1255.37   53.09
   3   4  -5 1202.18   51.69
   2   4  -5   95.19    6.00
   2   4  -5   95.59    5.40
   1   4  -5  631.84   26.90
   1   4  -5  615.34   26.90
   0   4  -5   12.60    2.80
   0   4  -5   15.80    2.10
  -1   4  -5    3.80    0.80
  -1   4  -5    6.80    1.80
  -2   4  -5  120.79    7.10
  -3   4  -5  462.55   21.20
   3  -4   5  445.26   19.50
  -4   4  -5  462.65   22.20
  -5   4  -5  735.53   33.90
   5   3  -5  412.46   20.90
   4   3  -5   42.40    5.40
   4   3  -5   42.90    3.80
   3   3  -5    5.40    1.90
   2   3  -5  180.88    8.70
   2   3  -5  186.48    9.40
   1   3  -5   53.89    3.70
   1   3  -5   57.19    4.10
   0   3  -5 1009.30   43.40
   0   3  -5 1044.30   43.00
  -1   3  -5  864.61   35.10
  -1   3  -5  820.72   36.10
  -2   3  -5 7215.38  294.47
  -2   3  -5 7053.09  293.17
  -3   3  -5 1034.60   44.80
  -4   3  -5  648.54   29.60
  -5   3  -5   11.50    4.40
   5   2  -5    9.00    3.60
   4   2  -5   31.90    4.70
   3   2  -5    3.20    1.70
   3   2  -5    2.40    1.40
   2   2  -5 1055.19   45.40
   2   2  -5 1074.69   44.50
   1   2  -5   75.69    4.50
   1   2  -5   67.99    4.40
   0   2  -5   95.99    5.10
   0   2  -5   90.79    5.30
  -1   2  -5 5540.25  228.58
  -2   2  -5 6577.04  275.57
  -2   2  -5 6825.22  276.67
  -3   2  -5   -1.10    2.20
  -4   2  -5   63.89    6.40
  -5   2  -5    8.10    4.60
   5   1  -5   73.39    7.50
   4   1  -5   -0.90    2.20
   3   1  -5  540.25   23.90
   3   1  -5  517.75   22.40
   2   1  -5  970.30   43.10
   2   1  -5 1048.90   42.10
   1   1  -5 3765.52  159.38
   1   1  -5 3944.81  158.78
   0   1  -5  410.26   17.80
   0   1  -5  405.46   17.80
  -1   1  -5 2205.38   91.49
  -1   1  -5 2188.98   90.89
  -2   1  -5  522.95   22.50
  -2   1  -5  513.75   23.10
  -3   1  -5   42.20    4.60
  -4   1  -5  141.59    9.10
   6   0  -5  105.39   16.10
   5   0  -5   49.70    6.40
   4   0  -5   88.89    6.70
   3   0  -5    8.10    2.10
   2   0  -5  138.39    7.60
   1   0  -5  529.05   23.40
   1   0  -5  536.75   22.50
   0   0  -5 1067.89   44.90
  -1   0  -5 1300.17   56.69
  -1   0  -5 1395.76   56.39
  -2   0  -5 2332.67   97.59
  -2   0  -5 2358.56   97.99
  -3   0  -5   39.70    4.70
  -4   0  -5  115.09    8.60
   6  -1  -5   -5.70    7.80
   5  -1  -5   27.60    6.40
   4  -1  -5    0.00    2.60
   3  -1  -5  261.97   13.10
   2  -1  -5  682.73   29.80
   1  -1  -5 5793.32  238.88
   0  -1  -5  611.84   25.60
   0  -1  -5  578.84   25.30
  -1  -1  -5 2250.87   91.59
  -1  -1  -5 2148.49   91.49
  -2  -1  -5    4.30    1.50
  -2  -1  -5    1.60    1.90
   4   1   5   89.89    7.80
   4   1   5  112.79   57.89
   5  -2  -5   82.09    8.10
   5  -2  -5   86.79    8.30
   4  -2  -5   12.20    3.40
   3  -2  -5   31.80    4.40
   2  -2  -5 3786.52  156.98
   1  -2  -5 5163.88  223.78
   1  -2  -5 5687.63  223.58
   0  -2  -5   24.90    2.60
   0  -2  -5   26.00    2.30
   0   2   5   20.40    2.50
  -1  -2  -5  139.99    7.80
   1   2   5  165.38    8.10
  -2  -2  -5   19.10    3.20
   2   2   5   16.70    2.80
   2   2   5    5.80   21.30
   4   2   5   -2.90    3.80
   5  -3  -5  161.18   10.80
   5  -3  -5  145.79   11.20
   4  -3  -5  411.66   20.30
   4  -3  -5  431.16   20.20
   3  -3  -5    1.00    2.20
   3  -3  -5    1.90    2.40
   2  -3  -5  949.31   41.20
   2  -3  -5  978.50   41.30
   1  -3  -5  163.38    8.20
   1  -3  -5  165.68    8.40
   0  -3  -5    1.50    1.20
   0  -3  -5   -0.60    1.40
   0   3   5   -0.60    1.50
  -1  -3  -5  246.78   12.50
   1   3   5  266.07   12.30
  -2  -3  -5  751.02   34.80
   2   3   5  823.22   34.60
   3   3   5  358.06   17.70
   5  -4  -5   45.80    8.40
   4  -4  -5   41.40    6.30
   4  -4  -5   49.20    6.40
   3  -4  -5   62.89    5.90
   3  -4  -5   67.79    5.50
   2  -4  -5  721.53   31.60
   2  -4  -5  733.13   31.60
   1  -4  -5 1227.28   51.19
   1  -4  -5 1210.48   51.79
   0  -4  -5   45.30    4.20
  -1  -4  -5  258.67   12.80
   1   4   5  232.78   12.00
  -2  -4  -5  393.86   20.10
   2   4   5  426.66   19.50
   3   4   5  107.19    9.20
   4  -5  -5  669.13   30.80
   2  -5  -5  789.42   33.20
   2  -5  -5  734.03   33.20
   1  -5  -5    3.20    2.30
   0  -5  -5   38.50    5.00
  -1  -5  -5  101.89    7.80
   2   5   5   72.89    6.90
   3  -6  -5    2.30    3.90
   2  -6  -5   22.10    5.30
   2  -6  -5   20.70    3.60
   1  -6  -5    2.30    3.10
   0  -6  -5  200.48   11.70
  -1  -6  -5   46.10    7.40
   3  -7  -5    0.60    5.20
   1  -7  -5  224.08   13.30
   0  -7  -5  129.19   10.80
  -1  10  -6   39.10    8.90
   1   9  -6  703.23   32.10
   0   9  -6   63.19    7.20
  -1   9  -6   83.19    7.90
  -2   9  -6   54.29    7.90
  -3   9  -6   47.60   10.70
   2   8  -6   65.49    7.00
   2   8  -6   70.59    7.00
   1   8  -6   63.19    6.50
   0   8  -6   41.50    5.60
  -1   8  -6   53.99    6.20
  -2   8  -6  162.18   10.50
  -3   8  -6  162.98   11.70
  -4   8  -6  818.82   41.00
   4  -8   6  705.33   33.30
   4   7  -6  552.54   27.30
   3   7  -6   68.49    7.10
   3   7  -6   73.49    7.80
   2   7  -6   10.10    3.20
   2   7  -6   10.50    3.00
   1   7  -6    5.20    2.70
   0   7  -6  318.27   15.70
  -1   7  -6   11.50    3.10
  -2   7  -6   28.50    5.60
  -3   7  -6 1300.07   55.29
   3  -7   6 1230.48   53.49
  -4   7  -6 2032.50   87.39
   4  -7   6 2047.50   85.69
   4   6  -6   12.00    4.30
   3   6  -6   68.09    6.30
   3   6  -6   73.39    7.10
   2   6  -6   34.70    4.50
   2   6  -6   34.90    4.50
   1   6  -6  253.37   12.60
   1   6  -6  278.37   13.10
   0   6  -6  457.35   20.80
   0   6  -6  450.85   19.70
  -1   6  -6  820.82   36.00
  -2   6  -6  139.59    8.80
  -3   6  -6 1111.59   48.70
   3  -6   6 1109.39   46.90
  -4   6  -6   36.20    6.20
   4   5  -6  504.15   21.80
   4   5  -6  437.86   22.80
   3   5  -6   82.79    6.30
   3   5  -6   68.39    5.70
   2   5  -6  106.99    7.00
   2   5  -6  143.69    7.50
   1   5  -6  168.48    8.80
   1   5  -6  166.08    8.70
   0   5  -6  174.38    9.40
   0   5  -6  191.58    8.80
  -1   5  -6  998.20   42.90
  -2   5  -6   86.99    6.70
  -3   5  -6  225.78   12.80
  -4   5  -6 1071.69   47.50
   5   4  -6   68.09    8.60
   4   4  -6   61.79    7.70
   4   4  -6   80.49    6.90
   3   4  -6   50.59    4.30
   3   4  -6   51.69    4.90
   2   4  -6   61.39    4.70
   2   4  -6   63.59    4.50
   1   4  -6  338.97   16.20
   1   4  -6  372.46   16.20
   0   4  -6  146.69    7.30
   0   4  -6  151.28    8.00
  -1   4  -6 2467.15  108.29
  -1   4  -6 2791.62  109.79
  -2   4  -6  611.44   27.40
  -2   4  -6  609.24   26.10
  -3   4  -6 1855.21   78.89
  -4   4  -6  157.98   10.50
   5   3  -6   -0.10    3.90
   4   3  -6    0.30    2.80
   3   3  -6  245.38   11.30
   3   3  -6  236.78   12.40
   2   3  -6    6.00    1.80
   2   3  -6    5.40    1.70
   1   3  -6  203.98   10.00
   1   3  -6  197.68    9.80
   0   3  -6 4983.60  202.78
   0   3  -6 4838.92  202.38
  -1   3  -6 9722.33  400.36
  -2   3  -6    9.40    2.00
  -2   3  -6    6.10    2.60
  -3   3  -6   10.80    3.30
  -4   3  -6   30.30    6.40
   5   2  -6    2.00    3.90
   4   2  -6  160.68   10.10
   3   2  -6  508.05   23.30
   2   2  -6 1016.60   44.50
   2   2  -6 1058.79   43.60
   1   2  -6   28.00    3.30
   1   2  -6   35.60    3.70
   0   2  -6 4617.04  187.88
   0   2  -6 4495.75  188.18
  -1   2  -6   71.69    3.90
  -1   2  -6   62.19    4.90
  -2   2  -6   28.90    2.90
  -2   2  -6   26.30    3.60
  -3   2  -6  370.56   18.10
  -4   2  -6  288.17   15.40
   5   1  -6   24.80    4.80
   4   1  -6  108.59    8.00
   3   1  -6  397.26   18.80
   2   1  -6 1163.38   50.59
   2   1  -6 1206.18   49.30
   1   1  -6  319.77   14.00
   1   1  -6  312.07   14.70
   0   1  -6  320.87   14.30
   0   1  -6  299.97   14.00
  -1   1  -6 2675.13  110.49
  -1   1  -6 2633.84  109.89
  -2   1  -6  127.79    7.70
  -2   1  -6  134.59    6.90
  -3   1  -6   87.39    7.20
  -4   1  -6  591.54   27.60
   5   0  -6    5.70    4.10
   4   0  -6   44.90    6.00
   3   0  -6   63.49    5.50
   2   0  -6 1473.65   62.39
   1   0  -6  248.68   12.00
   0   0  -6 3740.03  147.89
   0   0  -6 3411.36  147.79
  -1   0  -6   73.49    4.80
  -1   0  -6   63.19    4.20
  -2   0  -6    2.00    1.50
  -2   0  -6    0.70    2.10
  -3   0  -6  305.87   15.40
   5  -1  -6   -1.80    4.00
   4  -1  -6  122.39    8.80
   3  -1  -6 2418.06  101.59
   2  -1  -6 4553.74  188.78
   1  -1  -6   63.69    4.60
   0  -1  -6   24.60    3.30
   0  -1  -6   28.30    2.40
   0  -1  -6   24.70    2.60
  -1  -1  -6   87.89    5.60
  -1  -1  -6   88.29    5.20
  -2  -1  -6  469.65   21.10
  -2  -1  -6  458.75   21.30
   4   1   6  209.28   16.70
   5  -2  -6   71.29    8.70
   5  -2  -6   68.49    9.00
   4  -2  -6   67.09    6.60
   4  -2  -6   53.29    7.00
   3  -2  -6 1830.52   77.59
   2  -2  -6  101.79    6.70
   1  -2  -6   -0.70    1.80
   1  -2  -6    4.50    1.80
   0  -2  -6  443.06   19.60
   0   2   6  429.66   19.10
  -1  -2  -6  643.84   28.20
   1   2   6  634.44   28.10
  -2  -2  -6  412.16   19.10
   2   2   6  393.76   19.20
   3   2   6  -10.30   28.40
   3   2   6    6.10    3.50
   5  -3  -6   74.09   10.00
   5  -3  -6   52.29    8.70
   4  -3  -6   30.00    6.30
   4  -3  -6   29.30    6.50
   3  -3  -6  126.29    8.30
   3  -3  -6  125.99    8.30
   2  -3  -6  820.52   35.40
   2  -3  -6  807.52   35.20
   1  -3  -6  109.69    6.00
   1  -3  -6   98.79    6.30
   0  -3  -6  159.18    8.70
  -1  -3  -6 1013.70   44.50
   1   3   6 1040.60   43.90
  -2  -3  -6  286.97   15.40
   2   3   6  312.47   15.30
   3   3   6  133.79   10.10
   4  -4  -6    3.10    3.70
   4  -4  -6   -1.20    4.00
   3  -4  -6  940.61   41.20
   3  -4  -6  951.00   41.40
   2  -4  -6   76.59    6.00
   2  -4  -6   67.49    5.80
   1  -4  -6    8.90    2.60
   0  -4  -6  284.37   14.30
  -1  -4  -6    0.20    2.80
  -2  -4  -6   19.90    4.40
   2   4   6   17.20    4.20
   4  -5  -6    6.70    5.20
   3  -5  -6    8.00    4.30
   3  -5  -6   27.60    5.70
   2  -5  -6    5.30    4.20
   2  -5  -6    4.70    2.90
   1  -5  -6  154.88    9.30
   0  -5  -6   64.39    6.50
  -1  -5  -6  320.17   17.00
   3  -6  -6   34.10    6.00
   2  -6  -6  142.89    9.70
   1  -6  -6   91.89    8.20
   0  -6  -6   32.70    7.60
   1   9  -7   38.40    7.60
   0   9  -7   46.60    7.20
  -1   9  -7   57.79    7.60
  -2   9  -7   19.00    6.10
   3   8  -7    3.50    4.40
   2   8  -7   -1.10    3.40
   1   8  -7   92.59    7.70
   0   8  -7    4.10    3.30
  -1   8  -7  179.78   11.10
  -2   8  -7 1015.10   45.30
  -3   8  -7 2145.39   91.89
   4   7  -7   -0.90    4.90
   3   7  -7    7.50    3.60
   2   7  -7   72.49    6.70
   2   7  -7   72.89    6.50
   1   7  -7  284.17   14.50
   0   7  -7  183.78   10.60
  -1   7  -7    1.80    3.00
  -2   7  -7 2239.68   94.99
  -3   7  -7  552.44   26.80
   4   6  -7   19.20    4.80
   3   6  -7   19.40    4.00
   3   6  -7   14.40    3.60
   2   6  -7  221.08   11.50
   2   6  -7  211.48   11.50
   1   6  -7  337.27   16.20
   1   6  -7  362.86   16.80
   0   6  -7  985.10   45.50
   0   6  -7 1120.89   44.50
  -1   6  -7   24.00    4.50
  -2   6  -7    9.40    3.90
  -3   6  -7  681.13   31.70
  -4   6  -7    0.80    5.80
   4   5  -7   32.60    6.50
   3   5  -7   44.70    5.50
   3   5  -7   37.00    5.20
   2   5  -7   20.90    3.70
   2   5  -7   16.40    3.70
   1   5  -7   14.40    3.30
   1   5  -7   15.40    3.40
   0   5  -7  232.78   11.80
   0   5  -7  228.38   10.80
  -1   5  -7  173.78    9.80
  -2   5  -7 2625.44  110.49
  -3   5  -7  429.96   21.30
  -4   5  -7    3.90    4.30
   5   4  -7    3.30    5.50
   4   4  -7   61.79    7.00
   3   4  -7    5.90    2.60
   3   4  -7    8.60    2.50
   2   4  -7  279.27   13.30
   2   4  -7  282.27   13.90
   1   4  -7 2400.16  102.99
   1   4  -7 2539.65  102.99
   0   4  -7 6418.76  265.97
   0   4  -7 6468.75  265.37
  -2   4  -7  534.75   24.80
  -3   4  -7   27.30    5.70
  -4   4  -7  148.09   11.00
   5   3  -7   42.90    8.40
   4   3  -7  168.28   10.70
   3   3  -7  104.79    7.30
   2   3  -7  118.79    7.40
   2   3  -7  127.09    6.90
   1   3  -7 5395.76  229.48
   1   3  -7 5720.13  229.38
   0   3  -7 1354.76   57.59
   0   3  -7 1392.66   58.09
  -1   3  -7   43.20    3.10
  -1   3  -7   42.10    4.60
  -2   3  -7  483.95   22.20
  -2   3  -7  466.25   20.70
  -3   3  -7  185.58   11.00
  -4   3  -7  315.37   17.40
   5   2  -7   87.59    9.20
   4   2  -7  309.67   16.30
   3   2  -7  609.34   27.80
   2   2  -7  208.08    9.50
   2   2  -7  164.58    9.90
   1   2  -7   71.29    5.20
   1   2  -7   75.49    5.30
   0   2  -7 1448.46   60.29
   0   2  -7 1409.36   59.99
  -1   2  -7  197.68    9.40
  -1   2  -7  200.78   10.20
  -3   2  -7 1192.68   51.89
  -4   2  -7  272.07   15.70
   5   1  -7    1.00    4.50
   4   1  -7   16.60    4.00
   3   1  -7   91.59    7.10
   2   1  -7   60.59    5.10
   1   1  -7 3098.19  129.19
   1   1  -7 3112.09  128.39
   0   1  -7  339.07   15.40
   0   1  -7  330.47   15.20
  -1   1  -7   37.10    3.10
  -1   1  -7   34.70    4.00
  -2   1  -7  680.83   30.40
  -2   1  -7  679.83   29.60
  -3   1  -7   94.19    6.70
  -3   1  -7   94.49    7.80
  -4   1  -7   74.69    9.10
   5   0  -7   67.49    8.80
   4   0  -7  814.92   36.80
   3   0  -7 2107.19   89.09
   2   0  -7  138.89    8.50
   1   0  -7  526.15   23.50
   0   0  -7   92.29    6.00
   0   0  -7   97.59    5.60
  -1   0  -7  399.46   18.20
  -1   0  -7  387.86   17.80
  -2   0  -7    5.70    2.00
  -2   0  -7    3.10    2.90
  -3   0  -7  312.37   16.40
  -3   0  -7  336.97   16.90
   5  -1  -7  106.09   10.40
   4  -1  -7 1645.54   70.79
   3  -1  -7  521.35   24.50
   2  -1  -7   21.10    4.30
   1  -1  -7  318.37   15.00
   0  -1  -7  275.97   13.10
  -1  -1  -7  331.47   15.50
  -1  -1  -7  331.47   15.60
  -2  -1  -7  208.68   11.50
  -2  -1  -7  196.78   10.80
   3   1   7  576.84   27.00
   5  -2  -7   32.60    7.00
   4  -2  -7   19.70    4.60
   4  -2  -7   17.50    4.60
   3  -2  -7  218.78   11.90
   3  -2  -7  202.48   12.00
   2  -2  -7  108.59    7.10
   2  -2  -7   98.89    7.00
   1  -2  -7   31.90    3.90
   1  -2  -7   31.60    3.60
   0  -2  -7 1263.47   53.89
  -1  -2  -7  257.07   12.80
   1   2   7  241.78   12.50
  -2  -2  -7   71.39    6.50
   2   2   7   75.09    7.40
   4  -3  -7  513.25   24.50
   4  -3  -7  507.75   24.50
   3  -3  -7  138.09    8.90
   3  -3  -7  129.29    9.50
   2  -3  -7    0.40    2.70
   2  -3  -7    4.10    2.60
   1  -3  -7  452.65   21.00
   0  -3  -7  157.08    9.20
  -1  -3  -7  232.08   12.60
  -2  -3  -7   18.30    4.30
   2   3   7   16.60    4.20
   4  -4  -7   93.89   10.80
   4  -4  -7  129.49    9.50
   3  -4  -7    4.40    3.30
   3  -4  -7    0.70    4.10
   2  -4  -7  105.49    7.50
   1  -4  -7    5.10    2.90
   0  -4  -7  187.78   11.00
  -1  -4  -7  183.28   11.80
  -2  -4  -7  216.18   14.30
   3  -5  -7   63.69    7.80
   2  -5  -7   52.29    6.90
   1  -5  -7  154.28   10.20
   0  -5  -7  470.75   23.30
   0   9  -8  139.19   10.70
  -1   9  -8  365.06   19.50
   3   8  -8   13.60    4.60
   2   8  -8   85.39    8.90
   1   8  -8    9.60    4.10
   0   8  -8  119.69    9.10
  -1   8  -8 2144.99   91.29
  -2   8  -8 1010.10   45.60
   3   7  -8  119.99    9.70
   3   7  -8  122.79   10.10
   2   7  -8  261.47   13.80
   2   7  -8  250.77   13.90
   1   7  -8  499.85   23.50
   0   7  -8   91.19    7.40
  -1   7  -8  504.65   24.00
  -2   7  -8  133.89   10.70
  -3   7  -8   19.20    6.30
   4   6  -8   11.10    5.10
   3   6  -8   16.50    3.90
   3   6  -8   18.00    4.40
   2   6  -8  162.98    9.90
   2   6  -8  166.88   10.10
   1   6  -8   32.20    4.50
   0   6  -8   58.49    5.80
  -1   6  -8 1493.65   64.19
  -2   6  -8  579.24   27.30
  -3   6  -8   32.90    6.20
   4   5  -8    2.10    4.00
   3   5  -8   97.69    8.00
   2   5  -8  560.64   24.50
   2   5  -8  518.15   24.60
   1   5  -8 2195.68   94.09
   1   5  -8 2303.67   94.39
   0   5  -8   82.39    6.10
   0   5  -8   77.89    5.40
  -1   5  -8 1458.15   62.59
  -2   5  -8    0.50    3.80
  -3   5  -8   98.29    9.60
   4   4  -8   -0.20    3.70
   3   4  -8  250.17   13.80
   2   4  -8 3708.33  151.68
   2   4  -8 3604.84  152.38
   1   4  -8 1873.51   78.89
   1   4  -8 1884.41   78.89
   0   4  -8  133.89    7.20
   0   4  -8  125.79    7.90
  -1   4  -8  170.38   10.20
  -1   4  -8  173.48    8.40
  -2   4  -8   37.90    6.50
  -3   4  -8  274.37   15.70
   4   3  -8  139.09   10.30
   3   3  -8  247.48   13.60
   2   3  -8  795.02   35.20
   1   3  -8  219.28   10.70
   1   3  -8  205.88   11.00
   0   3  -8  125.69    7.90
   0   3  -8  130.49    7.10
  -1   3  -8   37.80    3.20
  -1   3  -8   35.70    5.00
  -2   3  -8 1324.07   57.29
  -3   3  -8  235.68   13.70
   4   2  -8    0.30    3.90
   3   2  -8   18.20    4.00
   2   2  -8 1238.98   53.29
   1   2  -8  482.65   21.40
   1   2  -8  478.45   21.90
   0   2  -8  134.59    7.70
   0   2  -8  131.09    7.10
  -1   2  -8  887.11   37.10
  -1   2  -8  848.92   37.90
  -2   2  -8  519.75   22.60
  -2   2  -8  492.25   23.80
  -3   2  -8  294.27   14.50
  -3   2  -8  285.67   16.00
   4   1  -8  474.75   23.40
   3   1  -8  152.68   10.00
   2   1  -8 1097.39   47.70
   1   1  -8   23.10    3.80
   0   1  -8  213.58   10.50
  -1   1  -8   50.19    5.60
  -1   1  -8   60.49    4.40
  -2   1  -8  112.29    7.10
  -2   1  -8  117.89    8.60
  -3   1  -8   32.90    7.30
  -3   1  -8   29.20    5.90
   4   0  -8  387.06   20.00
   3   0  -8   75.89    7.60
   2   0  -8   55.89    5.70
   1   0  -8   52.99    4.70
   0   0  -8  250.77   12.20
  -1   0  -8  452.15   20.90
  -1   0  -8  452.15   20.60
  -2   0  -8  741.13   33.90
  -2   0  -8  796.12   34.40
  -3   0  -8 1620.84   70.29
  -3   0  -8 1651.23   70.49
   4  -1  -8   -0.90    4.60
   3  -1  -8   49.60    6.60
   2  -1  -8   -0.40    2.80
   1  -1  -8  931.01   40.40
   0  -1  -8   93.49    6.30
  -1  -1  -8   18.90    4.10
  -2  -1  -8  894.61   37.80
   2   1   8  801.12   37.60
   4  -2  -8   63.59    9.00
   4  -2  -8   60.89    8.40
   3  -2  -8   14.00    4.20
   3  -2  -8    7.70    3.70
   2  -2  -8  434.46   20.90
   2  -2  -8  469.75   21.30
   1  -2  -8  440.66   20.60
   0  -2  -8  299.87   15.00
  -1  -2  -8   59.59    6.10
  -2  -2  -8  123.39    9.30
   3  -3  -8   68.89    7.00
   3  -3  -8   54.19    8.10
   2  -3  -8   42.90    5.90
   1  -3  -8   13.90    3.30
   0  -3  -8    0.30    3.00
  -1  -3  -8   87.89    8.10
  -2  -3  -8  243.88   18.30
   2  -4  -8  177.88   11.30
   1  -4  -8  435.76   21.40
   0  -4  -8  984.40   43.90
   1   8  -9  207.08   13.10
   0   8  -9 1035.60   46.00
  -1   8  -9   12.60    5.40
  -2   8  -9   20.00    8.10
   3   7  -9  148.39   11.40
   2   7  -9   83.19    8.00
   1   7  -9   97.99    8.30
   0   7  -9  311.77   16.20
  -1   7  -9  338.87   18.20
  -2   7  -9   82.99    9.90
   3   6  -9   31.10    7.50
   2   6  -9  385.76   18.40
   2   6  -9  353.06   18.30
   1   6  -9   86.59    6.50
   0   6  -9 1613.94   69.09
  -1   6  -9    6.80    4.50
  -2   6  -9   31.30    6.10
  -3   6  -9  120.79   12.60
   4   5  -9  142.99   11.90
   3   5  -9 1398.26   60.79
   2   5  -9 1022.20   44.90
   2   5  -9 1027.50   44.70
   1   5  -9  264.77   13.60
   1   5  -9  281.27   14.20
   0   5  -9    6.00    2.10
   0   5  -9    5.40    3.80
  -1   5  -9    3.10    4.30
  -2   5  -9  208.78   13.30
  -3   5  -9  162.38   13.40
   4   4  -9  259.67   15.50
   3   4  -9 1075.79   47.60
   2   4  -9    3.10    3.00
   1   4  -9   22.00    4.50
   1   4  -9   27.30    5.30
   0   4  -9  106.99    6.40
   0   4  -9  103.89    8.10
  -1   4  -9  911.41   38.40
  -1   4  -9  892.51   40.20
  -2   4  -9   97.69    9.00
  -3   4  -9   86.29    9.90
   4   3  -9   41.50    8.00
   3   3  -9  145.79   10.00
   2   3  -9  226.78   12.40
   1   3  -9  150.58    8.90
   0   3  -9  580.84   25.60
   0   3  -9  584.54   26.50
  -1   3  -9  950.90   43.20
  -1   3  -9 1013.00   41.90
  -2   3  -9  278.97   15.40
  -2   3  -9  276.27   13.60
  -3   3  -9   37.10    6.30
   4   2  -9   71.59    8.80
   3   2  -9  818.82   37.00
   1   2  -9   71.59    5.80
   0   2  -9  347.67   16.20
   0   2  -9  349.67   16.80
  -1   2  -9    4.50    2.20
  -2   2  -9  120.29    9.60
  -2   2  -9  111.89    7.50
  -3   2  -9   13.30    5.90
   4   1  -9  104.09   10.20
   3   1  -9    5.90    4.00
   2   1  -9    0.10    3.00
   1   1  -9  183.58   10.10
   0   1  -9  327.87   15.50
  -1   1  -9  533.95   25.20
  -1   1  -9  550.24   24.40
  -2   1  -9 1010.40   44.30
  -2   1  -9 1024.90   45.00
  -3   1  -9  192.48   12.20
   4   0  -9   -6.70    5.00
   3   0  -9   12.60    4.30
   2   0  -9  406.86   19.80
   1   0  -9   10.50    2.80
   0   0  -9  287.37   14.30
  -1   0  -9 1419.46   60.59
  -2   0  -9 1877.31   80.99
  -2   0  -9 1932.81   81.09
  -3   0  -9    8.10    4.60
   3  -1  -9  216.18   13.00
   2  -1  -9  503.65   23.70
   1  -1  -9  157.08    9.40
   0  -1  -9    4.10    2.70
  -1  -1  -9  619.24   28.40
  -2  -1  -9   -2.90    3.60
   3  -2  -9  137.59   10.20
   3  -2  -9  124.99   10.50
   2  -2  -9   41.20    6.30
   1  -2  -9  111.29    8.40
   0  -2  -9   15.20    3.70
  -1  -2  -9  161.98   11.00
   2  -3  -9  165.48   11.40
   1  -3  -9  357.76   18.60
   0  -3  -9   44.10    7.90
   0   8 -10  147.69   17.00
   3   7 -10   13.10    5.80
   1   7 -10  799.22   36.20
   0   7 -10   16.80    5.40
  -1   7 -10    4.30    6.10
   3   6 -10  252.47   15.10
   2   6 -10  240.28   13.50
   1   6 -10  177.48   11.60
   0   6 -10    8.20    5.20
  -1   6 -10  162.78   12.10
  -2   6 -10   72.99   11.00
   3   5 -10   33.30    7.90
   2   5 -10    1.90    3.70
   1   5 -10   50.29    6.00
   0   5 -10  332.17   17.70
  -1   5 -10   18.10    5.90
  -2   5 -10  357.66   19.90
   3   4 -10   27.90    5.40
   2   4 -10   86.39    8.00
   1   4 -10  199.98   11.20
   0   4 -10  874.51   37.80
   0   4 -10  881.51   39.30
  -1   4 -10   96.99    9.90
  -2   4 -10    2.20    5.40
   3   3 -10   -5.70    3.90
   2   3 -10    6.20    3.70
   1   3 -10  511.15   23.70
   0   3 -10  179.98    9.70
  -1   3 -10  316.17   17.40
  -1   3 -10  329.47   15.50
  -2   3 -10    9.50    5.10
   2   2 -10  110.09    8.60
   1   2 -10   54.59    5.60
   0   2 -10  136.39    8.40
  -1   2 -10  236.88   17.00
  -1   2 -10  213.98   11.80
  -2   2 -10   59.69    9.40
  -2   2 -10   79.79    7.10
   3   1 -10   97.89    9.30
   2   1 -10    0.10    3.20
   1   1 -10  493.15   22.90
   0   1 -10 1243.98   53.39
  -1   1 -10 2006.30   84.79
  -2   1 -10    5.80    4.10
   3   0 -10  242.58   14.60
   2   0 -10   25.60    5.80
   1   0 -10   89.99    7.30
   0   0 -10 1262.17   54.59
  -1   0 -10  213.38   12.30
  -2   0 -10   35.70    7.40
   2  -1 -10  142.79   10.20
   1  -1 -10   13.50    3.90
   0  -1 -10    8.90    3.60
  -1  -1 -10  443.96   22.20
   2   6 -11   -2.20    4.60
   0   6 -11   13.70    6.40
  -1   6 -11  395.86   22.50
   3   5 -11    9.00    6.90
   2   5 -11   30.90    5.60
   1   5 -11  399.86   19.20
  -1   5 -11  157.98   13.00
   3   4 -11   -5.80    5.20
   2   4 -11  356.96   18.50
   1   4 -11  261.47   13.90
   0   4 -11  213.78   11.30
  -1   4 -11   -2.90    6.10
   3   3 -11   47.60    9.20
   2   3 -11   14.70    4.30
   1   3 -11    2.40    3.30
   0   3 -11    6.70    3.10
  -1   3 -11   24.80    5.30
   2   2 -11  255.47   14.30
   1   2 -11  536.25   24.90
   0   2 -11 1045.60   45.50
  -1   2 -11   29.50    6.20
   2   1 -11  222.68   13.30
   1   1 -11 1369.86   59.09
   0   1 -11  538.95   25.30
  -1   1 -11   84.19    7.90
   1   0 -11  130.19   10.00
   0   0 -11  141.09   10.70
   2   5 -12  129.39   11.90
   2   4 -12   31.20    7.90
   1   4 -12   56.89    6.40
   1   3 -12  245.78   13.70
   0   3 -12   71.79    7.00
   0   2 -12  113.39    9.80
   0   0   0    0.00    0.00

_computing_structure_solution     'SHELXT 2014/5 (Sheldrick, 2014)'
;
_shelx_hkl_checksum              64308
_olex2_submission_special_instructions 'No special instructions were received'
loop_
_space_group_symop_operation_xyz
'x, y, z'
'-x, -y, -z'
loop_
_atom_site_label
_atom_site_type_symbol
_atom_site_fract_x
_atom_site_fract_y
_atom_site_fract_z
_atom_site_U_iso_or_equiv
_atom_site_adp_type
_atom_site_occupancy
_atom_site_site_symmetry_order
_atom_site_calc_flag
_atom_site_refinement_flags_posn
_atom_site_refinement_flags_adp
_atom_site_refinement_flags_occupancy
_atom_site_disorder_assembly
_atom_site_disorder_group
C002 C 0.37603(18) 0.40464(12) 0.29675(10) 0.01540(16) Uani 1 1 d . . . . .
C003 C 0.2432(2) 0.30379(12) 0.08500(11) 0.01861(17) Uani 1 1 d . . . . .
C004 C 0.36330(19) 0.63619(12) 0.41462(10) 0.01696(17) Uani 1 1 d . . . . .
H004 H 0.2701 0.7271 0.3554 0.020 Uiso 1 1 calc R . . . .
C005 C 0.48809(19) 0.73200(12) 0.61904(10) 0.01730(17) Uani 1 1 d . . . . .
H005 H 0.4815 0.8898 0.7018 0.021 Uiso 1 1 calc R . . . .
N001 N 0.1351(2) 0.22131(13) -0.08480(10) 0.02499(19) Uani 1 1 d . . . . .
loop_
_atom_site_aniso_label
_atom_site_aniso_U_11
_atom_site_aniso_U_22
_atom_site_aniso_U_33
_atom_site_aniso_U_23
_atom_site_aniso_U_13
_atom_site_aniso_U_12
C002 0.0157(3) 0.0175(3) 0.0124(3) 0.0060(2) -0.0001(2) 0.0024(2)
C003 0.0210(3) 0.0192(3) 0.0149(3) 0.0068(2) -0.0004(2) 0.0036(2)
C004 0.0193(3) 0.0177(3) 0.0148(3) 0.0075(2) -0.0003(2) 0.0043(2)
C005 0.0200(3) 0.0163(3) 0.0147(3) 0.0055(2) 0.0001(2) 0.0042(2)
N001 0.0327(4) 0.0240(3) 0.0159(3) 0.0065(2) -0.0033(2) 0.0057(3)
loop_
_atom_type_symbol
_atom_type_description
_atom_type_scat_dispersion_real
_atom_type_scat_dispersion_imag
_atom_type_scat_source
C C 0.0033 0.0016 'International Tables Vol C Tables 4.2.6.8 and 6.1.1.4'
H H 0.0000 0.0000 'International Tables Vol C Tables 4.2.6.8 and 6.1.1.4'
N N 0.0061 0.0033 'International Tables Vol C Tables 4.2.6.8 and 6.1.1.4'
loop_
_geom_angle_atom_site_label_1
_geom_angle_atom_site_label_2
_geom_angle_atom_site_label_3
_geom_angle
_geom_angle_site_symmetry_1
_geom_angle_site_symmetry_3
_geom_angle_publ_flag
C004 C002 C003 119.27(6) . . ?
C004 C002 C005 121.35(8) . 2_666 ?
C005 C002 C003 119.38(7) 2_666 . ?
N001 C003 C002 179.43(8) . . ?
C002 C004 H004 120.5 . . ?
C005 C004 C002 119.07(7) . . ?
C005 C004 H004 120.5 . . ?
C002 C005 H005 120.2 2_666 . ?
C004 C005 C002 119.58(7) . 2_666 ?
C004 C005 H005 120.2 . . ?
loop_
_geom_bond_atom_site_label_1
_geom_bond_atom_site_label_2
_geom_bond_distance
_geom_bond_site_symmetry_2
_geom_bond_publ_flag
C002 C003 1.4343(13) . ?
C002 C004 1.3919(13) . ?
C002 C005 1.3971(12) 2_666 ?
C003 N001 1.1513(12) . ?
C004 H004 0.9500 . ?
C004 C005 1.3820(13) . ?
C005 C002 1.3971(12) 2_666 ?
C005 H005 0.9500 . ?
