#------------------------------------------------------------------------------
#$Date: 2020-06-06 04:11:42 +0300 (Sat, 06 Jun 2020) $
#$Revision: 252959 $
#$URL: file:///home/coder/svn-repositories/cod/cif/1/55/82/1558224.cif $
#------------------------------------------------------------------------------
#
# This file is available in the Crystallography Open Database (COD),
# http://www.crystallography.net/
#
# All data on this site have been placed in the public domain by the
# contributors.
#
data_1558224
loop_
_publ_author_name
'Ding, Xiaodan'
'Unruh, Daniel K.'
'Groeneman , Ryan'
'Hutchins, Kristin M.'
_publ_section_title
;
 Controlling thermal expansion within mixed cocrystals by tuning molecular
 motion capability
;
_journal_name_full               'Chemical Science'
_journal_paper_doi               10.1039/D0SC02795B
_journal_year                    2020
_chemical_formula_sum            'C16.94 H14 N3.06 O2'
_chemical_formula_weight         292.33
_space_group_IT_number           2
_space_group_name_Hall           '-P 1'
_space_group_name_H-M_alt        'P -1'
_symmetry_cell_setting           triclinic
_symmetry_Int_Tables_number      2
_symmetry_space_group_name_Hall  '-P 1'
_symmetry_space_group_name_H-M   'P -1'
_atom_sites_solution_hydrogens   geom
_atom_sites_solution_primary     dual
_atom_sites_solution_secondary   difmap
_audit_creation_date             2019-11-11T13:39:43-00:00
_audit_creation_method           'WinGX routine CIF_UPDATE'
_audit_update_record
;
2020-04-08 deposited with the CCDC.	2020-06-05 downloaded from the CCDC.
;
_cell_angle_alpha                93.0131(15)
_cell_angle_beta                 107.2723(16)
_cell_angle_gamma                114.0439(19)
_cell_formula_units_Z            2
_cell_length_a                   8.08726(15)
_cell_length_b                   9.7628(2)
_cell_length_c                   10.91257(18)
_cell_measurement_reflns_used    7339
_cell_measurement_temperature    230(2)
_cell_measurement_theta_max      76.217
_cell_measurement_theta_min      4.282
_cell_volume                     736.33(3)
_computing_cell_refinement       'CrysAlisPro 1.171.40.63a (Rigaku OD, 2019)'
_computing_data_collection       'CrysAlisPro 1.171.40.63a (Rigaku OD, 2019)'
_computing_data_reduction        'CrysAlisPro 1.171.40.63a (Rigaku OD, 2019)'
_computing_structure_refinement  'SHELXL-2018/3 (Sheldrick, 2018)'
_computing_structure_solution    'SHELXT 2014/5 (Sheldrick, 2014)'
_diffrn_ambient_environment      N~2~
_diffrn_ambient_temperature      230(2)
_diffrn_detector                 'Hybrid Pixel Array Detector'
_diffrn_detector_area_resol_mean 10
_diffrn_detector_type            HyPix
_diffrn_measured_fraction_theta_full 0.998
_diffrn_measured_fraction_theta_max 0.962
_diffrn_measurement_device       'four-circle diffractometer'
_diffrn_measurement_device_type  'XtaLAB Synergy, Dualflex, HyPix'
_diffrn_measurement_method       '\w scans'
_diffrn_orient_matrix_type
'CrysAlisPro convention (1999,Acta A55,543-557)'
_diffrn_orient_matrix_UB_11      0.0433832
_diffrn_orient_matrix_UB_12      -0.0528815
_diffrn_orient_matrix_UB_13      0.1314308
_diffrn_orient_matrix_UB_21      -0.1207368
_diffrn_orient_matrix_UB_22      -0.1681683
_diffrn_orient_matrix_UB_23      -0.0725101
_diffrn_orient_matrix_UB_31      0.1819003
_diffrn_orient_matrix_UB_32      -0.0032909
_diffrn_orient_matrix_UB_33      -0.0150376
_diffrn_radiation_monochromator  mirror
_diffrn_radiation_probe          x-ray
_diffrn_radiation_type           CuK\a
_diffrn_radiation_wavelength     1.54178
_diffrn_reflns_av_R_equivalents  0.0402
_diffrn_reflns_av_unetI/netI     0.0529
_diffrn_reflns_Laue_measured_fraction_full 0.998
_diffrn_reflns_Laue_measured_fraction_max 0.962
_diffrn_reflns_limit_h_max       9
_diffrn_reflns_limit_h_min       -8
_diffrn_reflns_limit_k_max       12
_diffrn_reflns_limit_k_min       -12
_diffrn_reflns_limit_l_max       13
_diffrn_reflns_limit_l_min       -13
_diffrn_reflns_number            15670
_diffrn_reflns_point_group_measured_fraction_full 0.998
_diffrn_reflns_point_group_measured_fraction_max 0.962
_diffrn_reflns_theta_full        67.679
_diffrn_reflns_theta_max         77.358
_diffrn_reflns_theta_min         4.329
_diffrn_source                   'micro-focus sealed X-ray tube'
_diffrn_source_type              'PhotonJet (Cu) X-ray Source'
_exptl_absorpt_coefficient_mu    0.725
_exptl_absorpt_correction_T_max  1
_exptl_absorpt_correction_T_min  0.458
_exptl_absorpt_correction_type   gaussian
_exptl_absorpt_process_details
;
        CrysAlisPro 1.171.40.63a (Rigaku Oxford Diffraction, 2019)
Numerical absorption correction based on gaussian integration over
                        a multifaceted crystal model
        Empirical absorption correction using spherical harmonics,
 implemented in SCALE3 ABSPACK scaling algorithm.
;
_exptl_crystal_colour            'clear light yellow'
_exptl_crystal_density_diffrn    1.318
_exptl_crystal_description       plate
_exptl_crystal_F_000             306
_exptl_crystal_size_max          0.236
_exptl_crystal_size_mid          0.208
_exptl_crystal_size_min          0.052
_refine_diff_density_max         0.172
_refine_diff_density_min         -0.144
_refine_diff_density_rms         0.032
_refine_ls_extinction_coef       0.0031(8)
_refine_ls_extinction_expression Fc^*^=kFc[1+0.001xFc^2^\l^3^/sin(2\q)]^-1/4^
_refine_ls_extinction_method     'SHELXL-2018/3 (Sheldrick 2018)'
_refine_ls_goodness_of_fit_ref   1.099
_refine_ls_hydrogen_treatment    constr
_refine_ls_matrix_type           full
_refine_ls_number_parameters     284
_refine_ls_number_reflns         3013
_refine_ls_number_restraints     513
_refine_ls_restrained_S_all      1.023
_refine_ls_R_factor_all          0.0503
_refine_ls_R_factor_gt           0.0433
_refine_ls_shift/su_max          0
_refine_ls_shift/su_mean         0
_refine_ls_structure_factor_coef Fsqd
_refine_ls_weighting_details
'w=1/[\s^2^(Fo^2^)+(0.0547P)^2^+0.1269P] where P=(Fo^2^+2Fc^2^)/3'
_refine_ls_weighting_scheme      calc
_refine_ls_wR_factor_gt          0.1199
_refine_ls_wR_factor_ref         0.124
_reflns_Friedel_coverage         0
_reflns_number_gt                2579
_reflns_number_total             3013
_reflns_threshold_expression     'I > 2\s(I)'
_cod_data_source_file            d0sc02795b3.cif
_cod_data_source_block           A50_BA50_230
_cod_database_code               1558224
_shelx_estimated_absorpt_t_min   0.848
_shelx_estimated_absorpt_t_max   0.963
_shelx_shelxl_version_number     2018/3
_shelx_res_file
;
TITL 230_a.res in P-1
    230_a.res
    created by SHELXL-2018/3 at 12:56:46 on 11-Nov-2019
REM Old TITL 230 in P-1

REM SHELXT solution in P-1
REM R1 0.172,  Rweak 0.025,  Alpha 0.044,  Orientation as input
REM Formula found by SHELXT:  C17 N3 O2

CELL  1.54178   8.087257   9.762837  10.912572  93.0131 107.2723 114.0439
ZERR    2.000   0.000152   0.000201   0.000179   0.0015   0.0016   0.0019
LATT  1
SFAC C H N O
UNIT 33.873 28 6.11124 4
TEMP -43.2
SIZE 0.236 0.208 0.052
L.S. 10
BOND $H
ACTA
LIST 4
FMAP 2
PLAN 20
CONF

RIGU
SIMU 0.02 C12A C12B C13A C13B C14A C14B C15A C15B C16A C16B N4A N4B
SIMU 0.02 N2A N3A N2B N3B C17 C18

EQIV $2 x, y, z+1
EQIV $3 -x+1, -y+1, -z+1

HTAB O1 N1_$2
HTAB O2 N4A_$3
HTAB O2 N4B_$3

DFIX 1.20 0.02 C17 C18
DFIX 1.25 0.02 N2A N3A
DFIX 1.25 0.02 N2B N3B
DFIX 51 C12B C17 C18 C9

OMIT    -9   4   5
OMIT    -9   1   3
OMIT    -9   0   5
OMIT    -9   1   5
OMIT    -9   0   4
OMIT    -9   0   6

SUMP 1.0 0.01 1.0 2 1.0 3 1.0 4

WGHT    0.054700    0.126900
EXTI    0.003089
FVAR       0.85091   0.47838   0.46825   0.04944   1.35220
O1    4    0.166786    0.151847    0.309582    11.00000    0.04762    0.06198 =
         0.05076    0.01124    0.01430    0.02198
AFIX 147
H1    2    0.199166    0.176381    0.390145    11.00000   -1.50000
AFIX   0
O2    4    0.818843    0.214609    0.434421    11.00000    0.05325    0.08175 =
         0.05899    0.00620    0.01678    0.03403
AFIX 147
H2A   2    0.823298    0.250256    0.506719    11.00000   -1.50000
AFIX   0
N1    3    0.261691    0.245800   -0.425420    11.00000    0.04738    0.06683 =
         0.05347    0.01326    0.01671    0.02679
C1    1    0.317766    0.150222    0.279773    11.00000    0.04846    0.03548 =
         0.04620    0.00954    0.01496    0.01499
C2    1    0.492409    0.181734    0.376670    11.00000    0.05000    0.04135 =
         0.04115    0.00712    0.01523    0.01842
AFIX  43
H2    2    0.507704    0.204161    0.465315    11.00000   -1.20000
AFIX   0
C3    1    0.644145    0.180196    0.343004    11.00000    0.05188    0.04411 =
         0.05033    0.00732    0.01645    0.02178
C4    1    0.619909    0.143092    0.211989    11.00000    0.06592    0.05300 =
         0.05578    0.00609    0.02864    0.02600
AFIX  43
H4    2    0.720905    0.139325    0.188353    11.00000   -1.20000
AFIX   0
C5    1    0.445424    0.111909    0.117270    11.00000    0.07719    0.05416 =
         0.04396    0.00476    0.02194    0.02622
AFIX  43
H5    2    0.429163    0.087452    0.028678    11.00000   -1.20000
AFIX   0
C6    1    0.293847    0.115611    0.148961    11.00000    0.06019    0.04997 =
         0.04299    0.00654    0.01075    0.02055
AFIX  43
H6    2    0.176499    0.095003    0.082912    11.00000   -1.20000
AFIX   0
C7    1    0.327999    0.395109   -0.379507    11.00000    0.05180    0.06116 =
         0.07138    0.02497    0.02093    0.02202
AFIX  43
H7    2    0.376965    0.464630   -0.430817    11.00000   -1.20000
AFIX   0
C8    1    0.328601    0.452507   -0.261864    11.00000    0.05274    0.04426 =
         0.07132    0.00935    0.00955    0.01929
AFIX  43
H8    2    0.378939    0.558519   -0.232599    11.00000   -1.20000
AFIX   0
C9    1    0.252888    0.349847   -0.187206    11.00000    0.04125    0.05291 =
         0.04652    0.00232    0.00413    0.02395
C10   1    0.186743    0.195126   -0.232507    11.00000    0.04964    0.04928 =
         0.04931    0.00945    0.01400    0.02062
AFIX  43
H10   2    0.137266    0.123052   -0.183158    11.00000   -1.20000
AFIX   0
C11   1    0.194697    0.148915   -0.350627    11.00000    0.05141    0.05023 =
         0.05226    0.00639    0.01417    0.02210
AFIX  43
H11   2    0.150799    0.043833   -0.380357    11.00000   -1.20000
AFIX   0
PART  1
N2A   3    0.214251    0.379032   -0.059609    21.00000    0.04536    0.03952 =
         0.04269   -0.00075    0.00879    0.01894
N3A   3    0.265233    0.513131   -0.016526    21.00000    0.04987    0.04398 =
         0.04724   -0.00190    0.01400    0.02164
C12A  1    0.231416    0.553201    0.100183    21.00000    0.03805    0.03988 =
         0.04182    0.01105    0.00929    0.01831
C13A  1    0.281590    0.705016    0.147098    21.00000    0.05377    0.03681 =
         0.05103    0.00007    0.00864    0.01935
AFIX  43
H13A  2    0.335790    0.782698    0.103567    21.00000   -1.20000
AFIX   0
C14A  1    0.249007    0.737845    0.260072    21.00000    0.04917    0.03917 =
         0.05563   -0.00182    0.01169    0.01489
AFIX  43
H14A  2    0.286118    0.841291    0.291609    21.00000   -1.20000
AFIX   0
N4A   3    0.173665    0.641955    0.325871    21.00000    0.04554    0.05241 =
         0.04234    0.00350    0.00723    0.02062
C15A  1    0.125339    0.500574    0.278422    21.00000    0.04452    0.05728 =
         0.04363    0.01801    0.01898    0.02015
AFIX  43
H15A  2    0.069165    0.426842    0.324432    21.00000   -1.20000
AFIX   0
C16A  1    0.147536    0.447830    0.168820    21.00000    0.04824    0.04218 =
         0.04846    0.01039    0.01589    0.01979
AFIX  43
H16A  2    0.106785    0.342835    0.141150    21.00000   -1.20000
AFIX  66
PART  2
C12B  1    0.212031    0.525447    0.125001   -21.00000    0.04045    0.04460 =
         0.04129    0.01405    0.01301    0.02013
C13B  1    0.281769    0.683608    0.150984   -21.00000    0.04882    0.04941 =
         0.05980    0.01669    0.01865    0.02297
AFIX  43
H13B  2    0.342030    0.742448    0.097535   -21.00000   -1.20000
AFIX  65
C14B  1    0.262398    0.754761    0.256004   -21.00000    0.05293    0.04109 =
         0.05386    0.01141    0.01372    0.01564
AFIX  43
H14B  2    0.309559    0.861719    0.273575   -21.00000   -1.20000
AFIX  65
N4B   3    0.173289    0.667754    0.335042   -21.00000    0.04526    0.04888 =
         0.05538    0.00782    0.00764    0.02146
C15B  1    0.103550    0.509593    0.309060   -21.00000    0.04401    0.06023 =
         0.04409    0.01867    0.02018    0.02479
AFIX  43
H15B  2    0.043289    0.450754    0.362510   -21.00000   -1.20000
AFIX  65
C16B  1    0.122920    0.438438    0.204041   -21.00000    0.04818    0.04556 =
         0.04986    0.01847    0.01872    0.02023
AFIX  43
H16B  2    0.075759    0.331480    0.186470   -21.00000   -1.20000
AFIX   0
C17   1    0.232538    0.460853    0.017836    31.00000    0.04316    0.04988 =
         0.04147    0.01055    0.01293    0.01969
C18   1    0.254281    0.415321   -0.077673    31.00000    0.04000    0.05300 =
         0.04901    0.00848    0.01271    0.01882
PART  3
N2B   3    0.283797    0.473346   -0.067341    41.00000    0.05078    0.04480 =
         0.05224    0.00459    0.00931    0.02078
N3B   3    0.180603    0.395343   -0.008067    41.00000    0.05817    0.05026 =
         0.04842   -0.00307    0.01148    0.01495
HKLF 4




REM  230_a.res in P-1
REM wR2 = 0.124010, GooF = S = 1.09918, Restrained GooF = 1.02323 for all data
REM R1 = 0.043287 for 2593 Fo > 4sig(Fo) and 0.050337 for all 3013 data
REM 284 parameters refined using 513 restraints

END

WGHT      0.0548      0.1266

REM Highest difference peak  0.172,  deepest hole -0.144,  1-sigma level  0.032
Q1    1   0.1015  0.0706 -0.1591  11.00000  0.05    0.17
Q2    1   0.2684  0.2422 -0.5003  11.00000  0.05    0.13
Q3    1   0.8011  0.2837  0.5421  11.00000  0.05    0.13
Q4    1   0.2602  0.3925 -0.2257  11.00000  0.05    0.13
Q5    1   0.2920  0.1876 -0.4981  11.00000  0.05    0.11
Q6    1   0.2014  0.3456 -0.1586  11.00000  0.05    0.10
Q7    1   0.1336  0.0058  0.0562  11.00000  0.05    0.10
Q8    1   0.9092  0.1757  0.2780  11.00000  0.05    0.10
Q9    1   0.2131  0.6843  0.4131  11.00000  0.05    0.10
Q10   1   0.6486  0.1770  0.2707  11.00000  0.05    0.10
Q11   1   0.1976  0.2835 -0.2230  11.00000  0.05    0.10
Q12   1   0.3219  0.1391  0.2211  11.00000  0.05    0.10
Q13   1   0.3711  0.1248  0.3185  11.00000  0.05    0.10
Q14   1   0.8087  0.1333  0.1983  11.00000  0.05    0.10
Q15   1   0.2863  0.6935  0.2150  11.00000  0.05    0.10
Q16   1   0.4111  0.1946  0.3213  11.00000  0.05    0.10
Q17   1   0.2931  0.3983 -0.3188  11.00000  0.05    0.10
Q18   1   0.8759  0.1425  0.3598  11.00000  0.05    0.10
Q19   1   0.3772  0.4095 -0.4789  11.00000  0.05    0.09
Q20   1   0.3664  0.3003 -0.4211  11.00000  0.05    0.09
;
_shelx_res_checksum              97443
loop_
_symmetry_equiv_pos_as_xyz
'x, y, z'
'-x, -y, -z'
loop_
_atom_site_label
_atom_site_type_symbol
_atom_site_fract_x
_atom_site_fract_y
_atom_site_fract_z
_atom_site_U_iso_or_equiv
_atom_site_adp_type
_atom_site_occupancy
_atom_site_site_symmetry_order
_atom_site_calc_flag
_atom_site_refinement_flags_posn
_atom_site_refinement_flags_adp
_atom_site_refinement_flags_occupancy
_atom_site_disorder_assembly
_atom_site_disorder_group
O1 O 0.16679(14) 0.15185(12) 0.30958(10) 0.0550(3) Uani 1 1 d . . . . .
H1 H 0.199166 0.176381 0.390145 0.082 Uiso 1 1 calc R U . . .
O2 O 0.81884(16) 0.21461(15) 0.43442(11) 0.0642(3) Uani 1 1 d . . . . .
H2A H 0.823298 0.250256 0.506719 0.096 Uiso 1 1 calc R U . . .
N1 N 0.26169(18) 0.24580(15) -0.42542(12) 0.0555(3) Uani 1 1 d . . . . .
C1 C 0.3178(2) 0.15022(14) 0.27977(13) 0.0450(3) Uani 1 1 d . . . . .
C2 C 0.4924(2) 0.18173(15) 0.37667(13) 0.0450(3) Uani 1 1 d . . . . .
H2 H 0.507704 0.204161 0.465315 0.054 Uiso 1 1 calc R U . . .
C3 C 0.6441(2) 0.18020(16) 0.34300(14) 0.0490(3) Uani 1 1 d . . . . .
C4 C 0.6199(2) 0.14309(17) 0.21199(16) 0.0567(4) Uani 1 1 d . . . . .
H4 H 0.720905 0.139325 0.188353 0.068 Uiso 1 1 calc R U . . .
C5 C 0.4454(3) 0.11191(18) 0.11727(15) 0.0595(4) Uani 1 1 d . . . . .
H5 H 0.429163 0.087452 0.028678 0.071 Uiso 1 1 calc R U . . .
C6 C 0.2938(2) 0.11561(17) 0.14896(14) 0.0543(4) Uani 1 1 d . . . . .
H6 H 0.176499 0.095003 0.082912 0.065 Uiso 1 1 calc R U . . .
C7 C 0.3280(2) 0.39511(19) -0.37951(18) 0.0622(4) Uani 1 1 d . . . . .
H7 H 0.376965 0.46463 -0.430817 0.075 Uiso 1 1 calc R U . . .
C8 C 0.3286(2) 0.45251(18) -0.26186(17) 0.0600(4) Uani 1 1 d . . . . .
H8 H 0.378939 0.558519 -0.232599 0.072 Uiso 1 1 calc R U . . .
C9 C 0.2529(2) 0.34985(17) -0.18721(14) 0.0489(3) Uani 1 1 d D . . . .
C10 C 0.1867(2) 0.19513(16) -0.23251(14) 0.0507(3) Uani 1 1 d . . . . .
H10 H 0.137266 0.123052 -0.183158 0.061 Uiso 1 1 calc R U . . .
C11 C 0.1947(2) 0.14892(17) -0.35063(15) 0.0526(4) Uani 1 1 d . . . . .
H11 H 0.150799 0.043833 -0.380357 0.063 Uiso 1 1 calc R U . . .
N2A N 0.2143(12) 0.3790(8) -0.0596(7) 0.0445(14) Uani 0.478(13) 1 d D U P A 1
N3A N 0.2652(7) 0.5131(7) -0.0165(7) 0.0479(13) Uani 0.478(13) 1 d D U P A 1
C12A C 0.2314(14) 0.5532(9) 0.1002(8) 0.0406(12) Uani 0.478(13) 1 d . U P A 1
C13A C 0.2816(17) 0.7050(10) 0.1471(9) 0.0502(16) Uani 0.478(13) 1 d . U P A 1
H13A H 0.33579 0.782698 0.103567 0.06 Uiso 0.478(13) 1 calc R U P A 1
C14A C 0.249(2) 0.7378(10) 0.2601(12) 0.052(2) Uani 0.478(13) 1 d . U P A 1
H14A H 0.286118 0.841291 0.291609 0.062 Uiso 0.478(13) 1 calc R U P A 1
N4A N 0.1737(19) 0.6420(11) 0.3259(9) 0.0494(14) Uani 0.478(13) 1 d . U P A 1
C15A C 0.1253(14) 0.5006(10) 0.2784(9) 0.0481(15) Uani 0.478(13) 1 d . U P A 1
H15A H 0.069165 0.426842 0.324432 0.058 Uiso 0.478(13) 1 calc R U P A 1
C16A C 0.1475(12) 0.4478(8) 0.1688(8) 0.0466(14) Uani 0.478(13) 1 d . U P A 1
H16A H 0.106785 0.342835 0.14115 0.056 Uiso 0.478(13) 1 calc R U P A 1
C12B C 0.2120(12) 0.5254(9) 0.1250(7) 0.0417(14) Uani 0.522(13) 1 d DG U P A 2
C13B C 0.2818(15) 0.6836(8) 0.1510(9) 0.0521(18) Uani 0.522(13) 1 d G U P A 2
H13B H 0.34203 0.742448 0.097535 0.063 Uiso 0.522(13) 1 calc R U P A 2
C14B C 0.2624(19) 0.7548(7) 0.2560(10) 0.052(2) Uani 0.522(13) 1 d G U P A 2
H14B H 0.309559 0.861719 0.273575 0.063 Uiso 0.522(13) 1 calc R U P A 2
N4B N 0.1733(18) 0.6678(9) 0.3350(9) 0.0522(15) Uani 0.522(13) 1 d G U P A 2
C15B C 0.1036(12) 0.5096(9) 0.3091(7) 0.0473(13) Uani 0.522(13) 1 d G U P A 2
H15B H 0.043289 0.450754 0.36251 0.057 Uiso 0.522(13) 1 calc R U P A 2
C16B C 0.1229(11) 0.4384(6) 0.2040(7) 0.0473(14) Uani 0.522(13) 1 d G U P A 2
H16B H 0.075759 0.33148 0.18647 0.057 Uiso 0.522(13) 1 calc R U P A 2
C17 C 0.2325(10) 0.4609(12) 0.0178(6) 0.0456(17) Uani 0.468(19) 1 d D U P A 2
C18 C 0.2543(14) 0.4153(13) -0.0777(9) 0.0487(19) Uani 0.468(19) 1 d D U P A 2
N2B N 0.284(7) 0.473(6) -0.067(5) 0.052(5) Uani 0.049(8) 1 d D U P A 3
N3B N 0.181(7) 0.395(7) -0.008(5) 0.058(8) Uani 0.049(8) 1 d D U P A 3
loop_
_atom_site_aniso_label
_atom_site_aniso_U_11
_atom_site_aniso_U_22
_atom_site_aniso_U_33
_atom_site_aniso_U_23
_atom_site_aniso_U_13
_atom_site_aniso_U_12
O1 0.0476(6) 0.0620(6) 0.0508(6) 0.0112(5) 0.0143(4) 0.0220(5)
O2 0.0533(6) 0.0818(8) 0.0590(7) 0.0062(6) 0.0168(5) 0.0340(6)
N1 0.0474(7) 0.0668(8) 0.0535(7) 0.0133(6) 0.0167(5) 0.0268(6)
C1 0.0485(7) 0.0355(6) 0.0462(7) 0.0095(5) 0.0150(6) 0.0150(5)
C2 0.0500(7) 0.0414(7) 0.0412(7) 0.0071(5) 0.0152(6) 0.0184(6)
C3 0.0519(8) 0.0441(7) 0.0503(8) 0.0073(6) 0.0165(6) 0.0218(6)
C4 0.0659(10) 0.0530(8) 0.0558(9) 0.0061(7) 0.0286(7) 0.0260(7)
C5 0.0772(11) 0.0542(9) 0.0440(8) 0.0048(6) 0.0219(7) 0.0262(8)
C6 0.0602(9) 0.0500(8) 0.0430(7) 0.0065(6) 0.0107(6) 0.0205(7)
C7 0.0518(9) 0.0612(9) 0.0714(11) 0.0250(8) 0.0209(8) 0.0220(7)
C8 0.0527(8) 0.0443(8) 0.0713(10) 0.0093(7) 0.0095(7) 0.0193(7)
C9 0.0412(7) 0.0529(8) 0.0465(7) 0.0023(6) 0.0041(6) 0.0240(6)
C10 0.0496(8) 0.0493(8) 0.0493(8) 0.0094(6) 0.0140(6) 0.0206(6)
C11 0.0514(8) 0.0502(8) 0.0523(8) 0.0064(6) 0.0142(6) 0.0221(6)
N2A 0.045(3) 0.040(3) 0.043(3) -0.0008(19) 0.0088(18) 0.019(2)
N3A 0.0499(18) 0.044(2) 0.047(2) -0.0019(18) 0.0140(15) 0.0216(16)
C12A 0.038(2) 0.040(3) 0.042(3) 0.011(2) 0.0093(18) 0.0183(19)
C13A 0.054(3) 0.037(2) 0.051(3) 0.0001(19) 0.009(2) 0.019(2)
C14A 0.049(3) 0.039(3) 0.056(4) -0.002(2) 0.012(3) 0.015(2)
N4A 0.046(2) 0.052(3) 0.042(2) 0.0035(19) 0.0072(17) 0.021(2)
C15A 0.045(2) 0.057(2) 0.044(4) 0.018(2) 0.019(2) 0.0202(19)
C16A 0.048(3) 0.042(2) 0.048(3) 0.0104(19) 0.016(2) 0.020(2)
C12B 0.040(2) 0.045(3) 0.041(3) 0.0140(19) 0.0130(17) 0.020(2)
C13B 0.049(3) 0.049(3) 0.060(3) 0.017(2) 0.019(2) 0.023(2)
C14B 0.053(4) 0.041(3) 0.054(3) 0.011(2) 0.014(3) 0.016(2)
N4B 0.045(2) 0.049(3) 0.055(3) 0.008(2) 0.008(2) 0.021(2)
C15B 0.044(2) 0.060(2) 0.044(3) 0.019(2) 0.0202(18) 0.0248(17)
C16B 0.048(2) 0.0456(18) 0.050(4) 0.0185(19) 0.019(2) 0.0202(15)
C17 0.043(3) 0.050(4) 0.041(2) 0.011(2) 0.0129(17) 0.020(3)
C18 0.040(4) 0.053(5) 0.049(3) 0.008(3) 0.013(2) 0.019(4)
N2B 0.051(9) 0.045(9) 0.052(7) 0.005(7) 0.009(7) 0.021(8)
N3B 0.058(13) 0.050(15) 0.048(12) -0.003(11) 0.011(10) 0.015(11)
loop_
_atom_type_symbol
_atom_type_description
_atom_type_scat_dispersion_real
_atom_type_scat_dispersion_imag
_atom_type_scat_source
C C 0.0181 0.0091 'International Tables Vol C Tables 4.2.6.8 and 6.1.1.4'
H H 0 0 'International Tables Vol C Tables 4.2.6.8 and 6.1.1.4'
N N 0.0311 0.018 'International Tables Vol C Tables 4.2.6.8 and 6.1.1.4'
O O 0.0492 0.0322 'International Tables Vol C Tables 4.2.6.8 and 6.1.1.4'
loop_
_exptl_crystal_face_index_h
_exptl_crystal_face_index_k
_exptl_crystal_face_index_l
_exptl_crystal_face_perp_dist
2 1 -7 0.0847
2 -1 5 0.0871
-2 -1 7 0.1232
1 -3 6 0.0981
0 -5 -1 0.0393
5 -3 -3 0.116
0 5 1 0.0131
-5 2 2 0.1027
-3 2 7 0.1163
5 -2 0 0.1098
0 -5 4 0.0805
4 2 -1 0.0622
5 -5 0 0.1116
-5 2 3 0.1092
-5 3 -2 0.1167
loop_
_geom_angle_atom_site_label_1
_geom_angle_atom_site_label_2
_geom_angle_atom_site_label_3
_geom_angle
_geom_angle_site_symmetry_1
_geom_angle_site_symmetry_3
_geom_angle_publ_flag
C1 O1 H1 109.5 . . ?
C3 O2 H2A 109.5 . . ?
C11 N1 C7 117.30(14) . . ?
O1 C1 C6 118.26(13) . . ?
O1 C1 C2 121.63(12) . . ?
C6 C1 C2 120.11(13) . . ?
C3 C2 C1 120.23(13) . . ?
C3 C2 H2 119.9 . . ?
C1 C2 H2 119.9 . . ?
O2 C3 C2 122.09(13) . . ?
O2 C3 C4 118.01(13) . . ?
C2 C3 C4 119.90(14) . . ?
C5 C4 C3 119.00(14) . . ?
C5 C4 H4 120.5 . . ?
C3 C4 H4 120.5 . . ?
C4 C5 C6 121.86(14) . . ?
C4 C5 H5 119.1 . . ?
C6 C5 H5 119.1 . . ?
C5 C6 C1 118.89(14) . . ?
C5 C6 H6 120.6 . . ?
C1 C6 H6 120.6 . . ?
N1 C7 C8 123.74(15) . . ?
N1 C7 H7 118.1 . . ?
C8 C7 H7 118.1 . . ?
C7 C8 C9 118.19(14) . . ?
C7 C8 H8 120.9 . . ?
C9 C8 H8 120.9 . . ?
C18 C9 C10 127.5(5) . . ?
C18 C9 C8 113.8(5) . . ?
C10 C9 C8 118.66(14) . . ?
C10 C9 N2A 111.5(3) . . ?
C8 C9 N2A 129.6(3) . . ?
C10 C9 N2B 143.6(13) . . ?
C8 C9 N2B 97.7(13) . . ?
C11 C10 C9 118.84(14) . . ?
C11 C10 H10 120.6 . . ?
C9 C10 H10 120.6 . . ?
N1 C11 C10 123.22(14) . . ?
N1 C11 H11 118.4 . . ?
C10 C11 H11 118.4 . . ?
N3A N2A C9 114.6(10) . . ?
N2A N3A C12A 119.3(10) . . ?
C16A C12A C13A 116.6(4) . . ?
C16A C12A N3A 123.6(5) . . ?
C13A C12A N3A 119.8(6) . . ?
C14A C13A C12A 117.7(5) . . ?
C14A C13A H13A 121.2 . . ?
C12A C13A H13A 121.2 . . ?
N4A C14A C13A 126.6(5) . . ?
N4A C14A H14A 116.7 . . ?
C13A C14A H14A 116.7 . . ?
C14A N4A C15A 114.3(5) . . ?
N4A C15A C16A 126.9(5) . . ?
N4A C15A H15A 116.5 . . ?
C16A C15A H15A 116.5 . . ?
C15A C16A C12A 117.9(4) . . ?
C15A C16A H16A 121 . . ?
C12A C16A H16A 121 . . ?
C17 C12B C13B 117.4(5) . . ?
C17 C12B C16B 122.6(5) . . ?
C13B C12B C16B 120 . . ?
C14B C13B C12B 120 . . ?
C14B C13B H13B 120 . . ?
C12B C13B H13B 120 . . ?
N4B C14B C13B 120 . . ?
N4B C14B H14B 120 . . ?
C13B C14B H14B 120 . . ?
C14B N4B C15B 120 . . ?
C16B C15B N4B 120 . . ?
C16B C15B H15B 120 . . ?
N4B C15B H15B 120 . . ?
C15B C16B C12B 120 . . ?
C15B C16B H16B 120 . . ?
C12B C16B H16B 120 . . ?
C18 C17 C12B 175.1(13) . . ?
C17 C18 C9 171.9(13) . . ?
N3B N2B C9 104(6) . . ?
loop_
_geom_bond_atom_site_label_1
_geom_bond_atom_site_label_2
_geom_bond_distance
_geom_bond_site_symmetry_2
_geom_bond_publ_flag
O1 C1 1.3594(17) . ?
O1 H1 0.83 . ?
O2 C3 1.3584(18) . ?
O2 H2A 0.83 . ?
N1 C11 1.334(2) . ?
N1 C7 1.338(2) . ?
C1 C6 1.386(2) . ?
C1 C2 1.3901(19) . ?
C2 C3 1.387(2) . ?
C2 H2 0.94 . ?
C3 C4 1.391(2) . ?
C4 C5 1.379(2) . ?
C4 H4 0.94 . ?
C5 C6 1.382(2) . ?
C5 H5 0.94 . ?
C6 H6 0.94 . ?
C7 C8 1.371(2) . ?
C7 H7 0.94 . ?
C8 C9 1.388(2) . ?
C8 H8 0.94 . ?
C9 C18 1.320(9) . ?
C9 C10 1.385(2) . ?
C9 N2A 1.551(8) . ?
C9 N2B 1.62(7) . ?
C10 C11 1.371(2) . ?
C10 H10 0.94 . ?
C11 H11 0.94 . ?
N2A N3A 1.219(9) . ?
N3A C12A 1.446(8) . ?
C12A C16A 1.376(6) . ?
C12A C13A 1.389(6) . ?
C13A C14A 1.383(6) . ?
C13A H13A 0.94 . ?
C14A N4A 1.276(7) . ?
C14A H14A 0.94 . ?
N4A C15A 1.300(7) . ?
C15A C16A 1.366(6) . ?
C15A H15A 0.94 . ?
C16A H16A 0.94 . ?
C12B C17 1.384(7) . ?
C12B C13B 1.39 . ?
C12B C16B 1.39 . ?
C13B C14B 1.39 . ?
C13B H13B 0.94 . ?
C14B N4B 1.39 . ?
C14B H14B 0.94 . ?
N4B C15B 1.39 . ?
C15B C16B 1.39 . ?
C15B H15B 0.94 . ?
C16B H16B 0.94 . ?
C17 C18 1.199(11) . ?
N2B N3B 1.24(2) . ?
loop_
_geom_hbond_atom_site_label_D
_geom_hbond_atom_site_label_H
_geom_hbond_atom_site_label_A
_geom_hbond_distance_DH
_geom_hbond_distance_HA
_geom_hbond_distance_DA
_geom_hbond_angle_DHA
_geom_hbond_site_symmetry_A
_geom_hbond_publ_flag
O1 H1 N1 0.83 1.93 2.7609(16) 174.5 1_556 yes
O2 H2A N4A^a 0.83 2.05 2.874(8) 172.9 2_666 yes
O2 H2A N4B^b 0.83 1.85 2.68(4) 177.9 2_666 yes
loop_
_geom_torsion_atom_site_label_1
_geom_torsion_atom_site_label_2
_geom_torsion_atom_site_label_3
_geom_torsion_atom_site_label_4
_geom_torsion
_geom_torsion_site_symmetry_1
_geom_torsion_site_symmetry_2
_geom_torsion_site_symmetry_3
_geom_torsion_site_symmetry_4
_geom_torsion_publ_flag
O1 C1 C2 C3 -179.55(12) . . . . ?
C6 C1 C2 C3 0.6(2) . . . . ?
C1 C2 C3 O2 178.08(13) . . . . ?
C1 C2 C3 C4 -1.7(2) . . . . ?
O2 C3 C4 C5 -178.21(14) . . . . ?
C2 C3 C4 C5 1.6(2) . . . . ?
C3 C4 C5 C6 -0.4(2) . . . . ?
C4 C5 C6 C1 -0.6(2) . . . . ?
O1 C1 C6 C5 -179.30(13) . . . . ?
C2 C1 C6 C5 0.5(2) . . . . ?
C11 N1 C7 C8 -0.7(2) . . . . ?
N1 C7 C8 C9 -1.2(2) . . . . ?
C7 C8 C9 C18 -178.0(5) . . . . ?
C7 C8 C9 C10 2.3(2) . . . . ?
C7 C8 C9 N2A -172.7(4) . . . . ?
C7 C8 C9 N2B -178.6(18) . . . . ?
C18 C9 C10 C11 179.0(6) . . . . ?
C8 C9 C10 C11 -1.4(2) . . . . ?
N2A C9 C10 C11 174.4(3) . . . . ?
N2B C9 C10 C11 -180(3) . . . . ?
C7 N1 C11 C10 1.7(2) . . . . ?
C9 C10 C11 N1 -0.6(2) . . . . ?
C10 C9 N2A N3A -178.3(5) . . . . ?
C8 C9 N2A N3A -3.1(8) . . . . ?
C9 N2A N3A C12A 178.3(6) . . . . ?
N2A N3A C12A C16A 1.5(10) . . . . ?
N2A N3A C12A C13A -177.3(7) . . . . ?
C16A C12A C13A C14A 2.0(6) . . . . ?
N3A C12A C13A C14A -179.1(8) . . . . ?
C12A C13A C14A N4A -1.3(6) . . . . ?
C13A C14A N4A C15A 0.2(6) . . . . ?
C14A N4A C15A C16A 0.1(6) . . . . ?
N4A C15A C16A C12A 0.7(7) . . . . ?
C13A C12A C16A C15A -1.8(6) . . . . ?
N3A C12A C16A C15A 179.3(8) . . . . ?
C17 C12B C13B C14B 178.9(8) . . . . ?
C16B C12B C13B C14B 0 . . . . ?
C12B C13B C14B N4B 0 . . . . ?
C13B C14B N4B C15B 0 . . . . ?
C14B N4B C15B C16B 0 . . . . ?
N4B C15B C16B C12B 0 . . . . ?
C17 C12B C16B C15B -178.9(8) . . . . ?
C13B C12B C16B C15B 0 . . . . ?
C10 C9 N2B N3B -17(6) . . . . ?
C8 C9 N2B N3B 165(4) . . . . ?
