#------------------------------------------------------------------------------
#$Date: 2020-06-06 04:11:42 +0300 (Sat, 06 Jun 2020) $
#$Revision: 252959 $
#$URL: file:///home/coder/svn-repositories/cod/cif/1/55/82/1558204.cif $
#------------------------------------------------------------------------------
#
# This file is available in the Crystallography Open Database (COD),
# http://www.crystallography.net/
#
# All data on this site have been placed in the public domain by the
# contributors.
#
data_1558204
loop_
_publ_author_name
'Ding, Xiaodan'
'Unruh, Daniel K.'
'Groeneman , Ryan'
'Hutchins, Kristin M.'
_publ_section_title
;
 Controlling thermal expansion within mixed cocrystals by tuning molecular
 motion capability
;
_journal_name_full               'Chemical Science'
_journal_paper_doi               10.1039/D0SC02795B
_journal_year                    2020
_chemical_formula_sum            'C18 H15.03 N2 O2'
_chemical_formula_weight         291.34
_space_group_IT_number           2
_space_group_name_Hall           '-P 1'
_space_group_name_H-M_alt        'P -1'
_symmetry_cell_setting           triclinic
_symmetry_Int_Tables_number      2
_symmetry_space_group_name_Hall  '-P 1'
_symmetry_space_group_name_H-M   'P -1'
_atom_sites_solution_hydrogens   geom
_atom_sites_solution_primary     dual
_atom_sites_solution_secondary   difmap
_audit_creation_date             2020-04-01T17:45:00-00:00
_audit_creation_method           'WinGX routine CIF_UPDATE'
_audit_update_record
;
2020-04-08 deposited with the CCDC.	2020-06-05 downloaded from the CCDC.
;
_cell_angle_alpha                92.3839(18)
_cell_angle_beta                 107.8562(13)
_cell_angle_gamma                114.4977(15)
_cell_formula_units_Z            2
_cell_length_a                   8.12328(14)
_cell_length_b                   9.8351(2)
_cell_length_c                   10.91847(14)
_cell_measurement_reflns_used    18862
_cell_measurement_temperature    190(2)
_cell_measurement_theta_max      76.705
_cell_measurement_theta_min      4.315
_cell_volume                     741.07(3)
_computing_cell_refinement       'CrysAlisPro 1.171.40.65a (Rigaku OD, 2019)'
_computing_data_collection       'CrysAlisPro 1.171.40.65a (Rigaku OD, 2019)'
_computing_data_reduction        'CrysAlisPro 1.171.40.65a (Rigaku OD, 2019)'
_computing_structure_refinement  'SHELXL-2018/3 (Sheldrick, 2018)'
_computing_structure_solution    'SHELXT 2014/5 (Sheldrick, 2014)'
_diffrn_ambient_environment      N~2~
_diffrn_ambient_temperature      190(2)
_diffrn_detector                 'Hybrid Pixel Array Detector'
_diffrn_detector_area_resol_mean 10
_diffrn_detector_type            HyPix
_diffrn_measured_fraction_theta_full 0.999
_diffrn_measured_fraction_theta_max 0.975
_diffrn_measurement_device       'four-circle diffractometer'
_diffrn_measurement_device_type  'XtaLAB Synergy, Dualflex, HyPix'
_diffrn_measurement_method       '\w scans'
_diffrn_orient_matrix_type
'CrysAlisPro convention (1999,Acta A55,543-557)'
_diffrn_orient_matrix_UB_11      -0.0033213
_diffrn_orient_matrix_UB_12      -0.0566512
_diffrn_orient_matrix_UB_13      0.1479079
_diffrn_orient_matrix_UB_21      -0.1506942
_diffrn_orient_matrix_UB_22      0.1531359
_diffrn_orient_matrix_UB_23      0.0272409
_diffrn_orient_matrix_UB_31      -0.1504746
_diffrn_orient_matrix_UB_32      -0.0643381
_diffrn_orient_matrix_UB_33      0.0149157
_diffrn_radiation_monochromator  mirror
_diffrn_radiation_probe          x-ray
_diffrn_radiation_type           CuK\a
_diffrn_radiation_wavelength     1.54178
_diffrn_reflns_av_R_equivalents  0.0311
_diffrn_reflns_av_unetI/netI     0.0415
_diffrn_reflns_Laue_measured_fraction_full 0.999
_diffrn_reflns_Laue_measured_fraction_max 0.975
_diffrn_reflns_limit_h_max       10
_diffrn_reflns_limit_h_min       -9
_diffrn_reflns_limit_k_max       12
_diffrn_reflns_limit_k_min       -12
_diffrn_reflns_limit_l_max       13
_diffrn_reflns_limit_l_min       -13
_diffrn_reflns_number            28099
_diffrn_reflns_point_group_measured_fraction_full 0.999
_diffrn_reflns_point_group_measured_fraction_max 0.975
_diffrn_reflns_theta_full        67.679
_diffrn_reflns_theta_max         77.324
_diffrn_reflns_theta_min         4.337
_diffrn_source                   'micro-focus sealed X-ray tube'
_diffrn_source_type              'PhotonJet (Cu) X-ray Source'
_exptl_absorpt_coefficient_mu    0.697
_exptl_absorpt_correction_T_max  1
_exptl_absorpt_correction_T_min  0.81639
_exptl_absorpt_correction_type   multi-scan
_exptl_absorpt_process_details
;
        CrysAlisPro 1.171.40.65a (Rigaku Oxford Diffraction, 2019)
        Empirical absorption correction using spherical harmonics,
 implemented in SCALE3 ABSPACK scaling algorithm.
;
_exptl_crystal_colour            'clear colourless'
_exptl_crystal_density_diffrn    1.306
_exptl_crystal_description       irregular
_exptl_crystal_F_000             306
_exptl_crystal_size_max          0.234
_exptl_crystal_size_mid          0.094
_exptl_crystal_size_min          0.088
_refine_diff_density_max         0.174
_refine_diff_density_min         -0.155
_refine_diff_density_rms         0.029
_refine_ls_extinction_coef       0.0047(7)
_refine_ls_extinction_expression Fc^*^=kFc[1+0.001xFc^2^\l^3^/sin(2\q)]^-1/4^
_refine_ls_extinction_method     'SHELXL-2018/3 (Sheldrick 2018)'
_refine_ls_goodness_of_fit_ref   1.066
_refine_ls_hydrogen_treatment    mixed
_refine_ls_matrix_type           full
_refine_ls_number_parameters     267
_refine_ls_number_reflns         3073
_refine_ls_number_restraints     460
_refine_ls_restrained_S_all      1
_refine_ls_R_factor_all          0.034
_refine_ls_R_factor_gt           0.032
_refine_ls_shift/su_max          0
_refine_ls_shift/su_mean         0
_refine_ls_structure_factor_coef Fsqd
_refine_ls_weighting_details
'w=1/[\s^2^(Fo^2^)+(0.0444P)^2^+0.0938P] where P=(Fo^2^+2Fc^2^)/3'
_refine_ls_weighting_scheme      calc
_refine_ls_wR_factor_gt          0.086
_refine_ls_wR_factor_ref         0.0876
_reflns_Friedel_coverage         0
_reflns_number_gt                2863
_reflns_number_total             3073
_reflns_threshold_expression     'I > 2\s(I)'
_cod_data_source_file            d0sc02795b3.cif
_cod_data_source_block           BE50_BA50_190
_cod_original_cell_volume        741.07(2)
_cod_database_code               1558204
_shelx_estimated_absorpt_t_min   0.887
_shelx_estimated_absorpt_t_max   0.955
_shelx_shelxl_version_number     2018/3
_shelx_res_file
;
TITL 190_a.res in P-1
    190_a.res
    created by SHELXL-2018/3 at 17:22:15 on 01-Apr-2020
REM Old TITL 190 in P-1

REM SHELXT solution in P-1
REM R1 0.139,  Rweak 0.005,  Alpha 0.034,  Orientation as input
REM Formula found by SHELXT:  C18 N2 O2

CELL  1.54178   8.12328   9.83512  10.91847  92.3839 107.8562 114.4977
ZERR    2.000   0.00014   0.00020   0.00014   0.0018   0.0013   0.0015
LATT  1
SFAC C H N O
UNIT 36 30.0503 4 4
TEMP -83.2
SIZE 0.176 0.106 0.066
L.S. 10
BOND $H
ACTA
LIST 4
FMAP 2
PLAN 20

EQIV $1 x, y, z+1
EQIV $2 -x+1, -y+1, -z+1

HTAB O1 N1_$1
HTAB O2 N2A_$2
HTAB O2 N2B_$2

RIGU
SIMU 0.02 C9 C14A C12 C13 C19 C20
SIMU 0.02 C14A C15A C16A C17A C18A N2A C14B C15B C16B C17B C18B N2B

DFIX 31 C12 C9 C13 C14B
DFIX 41 C19 C9 C20 C14A

DFIX 1.32 0.02 C12 C13
DFIX 1.20 0.02 C19 C20

WGHT    0.044400    0.093800
EXTI    0.004658
FVAR       0.87652   0.51258   1.53171   1.37364
O1    4    0.166578    0.150974    0.304860    11.00000    0.03522    0.04563 =
         0.03465    0.00533    0.01088    0.01596
AFIX 148
H1    2    0.205732    0.181660    0.398918    11.00000   -1.50000
AFIX   0
O2    4    0.821574    0.220843    0.433094    11.00000    0.03959    0.06140 =
         0.03715    0.00070    0.01265    0.02484
AFIX 148
H2A   2    0.827067    0.263611    0.518413    11.00000   -1.50000
AFIX   0
N1    3    0.262728    0.244295   -0.432028    11.00000    0.03697    0.05405 =
         0.03386    0.00391    0.01215    0.02252
C1    1    0.317252    0.149562    0.276047    11.00000    0.03693    0.02669 =
         0.03270    0.00633    0.01272    0.01170
C2    1    0.493775    0.184786    0.373613    11.00000    0.03861    0.03138 =
         0.02757    0.00342    0.01218    0.01366
AFIX  43
H2    2    0.510650    0.209702    0.463047    11.00000   -1.20000
AFIX   0
C3    1    0.645855    0.183719    0.340895    11.00000    0.03885    0.03285 =
         0.03404    0.00437    0.01300    0.01538
C4    1    0.620203    0.144054    0.209780    11.00000    0.04904    0.04120 =
         0.03716    0.00331    0.02089    0.01956
AFIX  43
H4    2    0.722582    0.141423    0.186624    11.00000   -1.20000
AFIX   0
C5    1    0.443183    0.108644    0.114145    11.00000    0.05715    0.04446 =
         0.02915    0.00258    0.01704    0.01986
AFIX  43
H5    2    0.425367    0.081942    0.024781    11.00000   -1.20000
AFIX   0
C6    1    0.291137    0.111038    0.145068    11.00000    0.04389    0.03887 =
         0.02932    0.00392    0.00728    0.01472
AFIX  43
H6    2    0.170847    0.086740    0.077853    11.00000   -1.20000
AFIX   0
C7    1    0.197204    0.146677   -0.357032    11.00000    0.03962    0.03981 =
         0.03756    0.00023    0.01041    0.01844
AFIX  43
H7    2    0.154484    0.041401   -0.386674    11.00000   -1.20000
AFIX   0
C8    1    0.188566    0.191317   -0.238663    11.00000    0.03769    0.03900 =
         0.03571    0.00667    0.01300    0.01654
AFIX  43
H8    2    0.139630    0.117626   -0.189051    11.00000   -1.20000
AFIX   0
C9    1    0.251925    0.344830   -0.192417    11.00000    0.03048    0.04170 =
         0.03248    0.00199    0.00661    0.01917
C10   1    0.325903    0.447477   -0.268214    11.00000    0.03905    0.03634 =
         0.04327    0.00464    0.01068    0.01689
AFIX  43
H10   2    0.375131    0.553846   -0.239197    11.00000   -1.20000
AFIX   0
C11   1    0.326565    0.392330   -0.385929    11.00000    0.03906    0.04828 =
         0.04174    0.01330    0.01619    0.01838
AFIX  43
H11   2    0.375157    0.463439   -0.437526    11.00000   -1.20000
AFIX   0
PART  1
C12   1    0.218912    0.379366   -0.066313    21.00000    0.03116    0.02919 =
         0.02784    0.00519    0.01283    0.01327
AFIX  43
H12   2    0.162026    0.297113   -0.026265    21.00000   -1.20000
AFIX   0
C13   1    0.266357    0.519049   -0.010850    21.00000    0.02928    0.03019 =
         0.02715    0.00676    0.01188    0.01223
AFIX  43
H13   2    0.327583    0.599737   -0.050843    21.00000   -1.20000
AFIX  66
C14A  1    0.231908    0.561946    0.110596    21.00000    0.02557    0.02580 =
         0.03095    0.00387    0.00620    0.01270
C15A  1    0.147607    0.453274    0.178537    21.00000    0.03708    0.03182 =
         0.03161    0.00332    0.01147    0.01708
AFIX  43
H15A  2    0.110972    0.349016    0.149508    21.00000   -1.20000
AFIX  65
C16A  1    0.116908    0.497147    0.288952    21.00000    0.03517    0.03032 =
         0.03307    0.00525    0.00875    0.01304
AFIX  43
H16A  2    0.059292    0.422874    0.335387    21.00000   -1.20000
AFIX  65
N2A   3    0.170510    0.649692    0.331426    21.00000    0.03038    0.04192 =
         0.02050   -0.00144    0.00881    0.01408
C17A  1    0.254811    0.758366    0.263486    21.00000    0.03828    0.02555 =
         0.03097    0.00134    0.01406    0.01317
AFIX  43
H17A  2    0.291445    0.862624    0.292516    21.00000   -1.20000
AFIX  65
C18A  1    0.285511    0.714495    0.153071    21.00000    0.03679    0.02080 =
         0.03157    0.00390    0.01244    0.01059
AFIX  43
H18A  2    0.343127    0.788769    0.106636    21.00000   -1.20000
AFIX   0
PART  2
C14B  1    0.216193    0.528048    0.121395   -21.00000    0.03293    0.03401 =
         0.03691   -0.00142    0.00411    0.01842
C15B  1    0.128368    0.443645    0.202291   -21.00000    0.04047    0.03865 =
         0.04039    0.00890    0.01064    0.01861
AFIX  43
H15B  2    0.079037    0.335956    0.187025   -21.00000   -1.20000
AFIX   0
C16B  1    0.114179    0.518546    0.304519   -21.00000    0.03882    0.04348 =
         0.03461    0.00496    0.00849    0.02055
AFIX  43
H16B  2    0.052157    0.456757    0.356934   -21.00000   -1.20000
AFIX   0
N2B   3    0.175306    0.662959    0.337502   -21.00000    0.03561    0.04699 =
         0.04224    0.00325    0.00629    0.01839
C17B  1    0.255739    0.737993    0.261118   -21.00000    0.04228    0.02773 =
         0.04748   -0.00298    0.00639    0.01544
AFIX  43
H17B  2    0.304059    0.845412    0.281329   -21.00000   -1.20000
AFIX   0
C18B  1    0.280728    0.683153    0.154529   -21.00000    0.03653    0.03324 =
         0.04070    0.01267    0.01611    0.01524
AFIX  43
H18B  2    0.341143    0.750262    0.104381   -21.00000   -1.20000
AFIX   0
C19   1    0.250732    0.410507   -0.079375   -21.00000    0.03176    0.05034 =
         0.03910    0.00899    0.01363    0.01741
C20   1    0.236141    0.464350    0.014511   -21.00000    0.03741    0.05226 =
         0.03765    0.00787    0.01183    0.02212
HKLF  4




REM  190_a.res in P-1
REM wR2 = 0.087638, GooF = S = 1.06567, Restrained GooF = 0.99977 for all data
REM R1 = 0.032033 for 2863 Fo > 4sig(Fo) and 0.033980 for all 3073 data
REM 267 parameters refined using 460 restraints

END

WGHT      0.0444      0.0939

REM Highest difference peak  0.174,  deepest hole -0.155,  1-sigma level  0.029
Q1    1   0.2491  0.3893 -0.2406  11.00000  0.05    0.17
Q2    1   0.1778  0.4423 -0.0618  11.00000  0.05    0.15
Q3    1   0.3762  0.4176 -0.3026  11.00000  0.05    0.15
Q4    1   0.3232  0.1584  0.2073  11.00000  0.05    0.14
Q5    1   0.2084  0.2758 -0.2275  11.00000  0.05    0.14
Q6    1   0.3013  0.0985  0.2143  11.00000  0.05    0.14
Q7    1   0.6228  0.1448  0.2733  11.00000  0.05    0.14
Q8    1   0.2401  0.2177 -0.5008  11.00000  0.05    0.13
Q9    1   0.4243  0.2053  0.3181  11.00000  0.05    0.13
Q10   1   0.3288  0.2189 -0.4975  11.00000  0.05    0.11
Q11   1   0.2503  0.5830 -0.0533  11.00000  0.05    0.11
Q12   1   0.8007  0.1586  0.2023  11.00000  0.05    0.11
Q13   1   0.3699  0.1208  0.3244  11.00000  0.05    0.11
Q14   1   0.2853  0.4049 -0.3379  11.00000  0.05    0.11
Q15   1   0.2341  0.3567 -0.1486  11.00000  0.05    0.10
Q16   1   0.2295  0.1791 -0.2811  11.00000  0.05    0.10
Q17   1   0.7464  0.1444  0.4595  11.00000  0.05    0.10
Q18   1   0.3439  0.0692  0.1396  11.00000  0.05    0.10
Q19   1   0.2681  0.5422  0.0808  11.00000  0.05    0.09
Q20   1   0.1271  0.1200  0.0862  11.00000  0.05    0.09
;
_shelx_res_checksum              48964
loop_
_symmetry_equiv_pos_as_xyz
'x, y, z'
'-x, -y, -z'
loop_
_atom_site_label
_atom_site_type_symbol
_atom_site_fract_x
_atom_site_fract_y
_atom_site_fract_z
_atom_site_U_iso_or_equiv
_atom_site_adp_type
_atom_site_occupancy
_atom_site_site_symmetry_order
_atom_site_calc_flag
_atom_site_refinement_flags_posn
_atom_site_refinement_flags_adp
_atom_site_refinement_flags_occupancy
_atom_site_disorder_assembly
_atom_site_disorder_group
O1 O 0.16658(9) 0.15097(8) 0.30486(7) 0.03979(18) Uani 1 1 d . . . . .
H1 H 0.2057(8) 0.1817(15) 0.3989(14) 0.06 Uiso 1 1 calc R U . . .
O2 O 0.82157(10) 0.22084(9) 0.43309(7) 0.04583(19) Uani 1 1 d . . . . .
H2A H 0.8271(7) 0.2636(16) 0.5184(14) 0.069 Uiso 1 1 calc R U . . .
N1 N 0.26273(12) 0.24430(10) -0.43203(8) 0.0412(2) Uani 1 1 d . . . . .
C1 C 0.31725(13) 0.14956(9) 0.27605(8) 0.0330(2) Uani 1 1 d . . . . .
C2 C 0.49378(13) 0.18479(9) 0.37361(8) 0.0332(2) Uani 1 1 d . . . . .
H2 H 0.51065 0.209702 0.463047 0.04 Uiso 1 1 calc R U . . .
C3 C 0.64585(14) 0.18372(10) 0.34089(9) 0.0356(2) Uani 1 1 d . . . . .
C4 C 0.62020(15) 0.14405(11) 0.20978(9) 0.0414(2) Uani 1 1 d . . . . .
H4 H 0.722582 0.141423 0.186624 0.05 Uiso 1 1 calc R U . . .
C5 C 0.44318(16) 0.10864(11) 0.11414(9) 0.0444(2) Uani 1 1 d . . . . .
H5 H 0.425367 0.081942 0.024781 0.053 Uiso 1 1 calc R U . . .
C6 C 0.29114(15) 0.11104(11) 0.14507(9) 0.0403(2) Uani 1 1 d . . . . .
H6 H 0.170847 0.08674 0.077853 0.048 Uiso 1 1 calc R U . . .
C7 C 0.19720(14) 0.14668(11) -0.35703(9) 0.0399(2) Uani 1 1 d . . . . .
H7 H 0.154484 0.041401 -0.386674 0.048 Uiso 1 1 calc R U . . .
C8 C 0.18857(14) 0.19132(11) -0.23866(9) 0.0378(2) Uani 1 1 d . . . . .
H8 H 0.13963 0.117626 -0.189051 0.045 Uiso 1 1 calc R U . . .
C9 C 0.25193(13) 0.34483(11) -0.19242(9) 0.0352(2) Uani 1 1 d D U . . .
C10 C 0.32590(14) 0.44748(11) -0.26821(10) 0.0407(2) Uani 1 1 d . . . . .
H10 H 0.375131 0.553846 -0.239197 0.049 Uiso 1 1 calc R U . . .
C11 C 0.32657(15) 0.39233(12) -0.38593(10) 0.0429(2) Uani 1 1 d . . . . .
H11 H 0.375157 0.463439 -0.437526 0.051 Uiso 1 1 calc R U . . .
C12 C 0.2189(10) 0.3794(6) -0.0663(6) 0.0289(8) Uani 0.513(10) 1 d D U P A 1
H12 H 0.162026 0.297113 -0.026265 0.035 Uiso 0.513(10) 1 calc R U P A 1
C13 C 0.2664(4) 0.5190(5) -0.0108(3) 0.0288(6) Uani 0.513(10) 1 d D U P A 1
H13 H 0.327583 0.599737 -0.050843 0.035 Uiso 0.513(10) 1 calc R U P A 1
C14A C 0.2319(11) 0.5619(7) 0.1106(6) 0.0281(10) Uani 0.513(10) 1 d G U P A 1
C15A C 0.1476(12) 0.4533(6) 0.1785(7) 0.0332(11) Uani 0.513(10) 1 d G U P A 1
H15A H 0.110972 0.349016 0.149508 0.04 Uiso 0.513(10) 1 calc R U P A 1
C16A C 0.1169(12) 0.4971(7) 0.2890(7) 0.0344(12) Uani 0.513(10) 1 d G U P A 1
H16A H 0.059292 0.422874 0.335387 0.041 Uiso 0.513(10) 1 calc R U P A 1
N2A N 0.1705(12) 0.6497(8) 0.3314(6) 0.0320(13) Uani 0.513(10) 1 d G U P A 1
C17A C 0.2548(11) 0.7584(6) 0.2635(6) 0.0317(10) Uani 0.513(10) 1 d G U P A 1
H17A H 0.291445 0.862624 0.292516 0.038 Uiso 0.513(10) 1 calc R U P A 1
C18A C 0.2855(11) 0.7145(6) 0.1531(6) 0.0305(10) Uani 0.513(10) 1 d G U P A 1
H18A H 0.343127 0.788769 0.106636 0.037 Uiso 0.513(10) 1 calc R U P A 1
C14B C 0.2162(13) 0.5280(9) 0.1214(7) 0.0358(13) Uani 0.487(10) 1 d . U P A 2
C15B C 0.1284(14) 0.4436(8) 0.2023(8) 0.0405(12) Uani 0.487(10) 1 d . U P A 2
H15B H 0.079037 0.335956 0.187025 0.049 Uiso 0.487(10) 1 calc R U P A 2
C16B C 0.1142(14) 0.5185(9) 0.3045(8) 0.0395(12) Uani 0.487(10) 1 d . U P A 2
H16B H 0.052157 0.456757 0.356934 0.047 Uiso 0.487(10) 1 calc R U P A 2
N2B N 0.1753(14) 0.6630(10) 0.3375(8) 0.0438(16) Uani 0.487(10) 1 d . U P A 2
C17B C 0.2557(14) 0.7380(9) 0.2611(9) 0.0421(13) Uani 0.487(10) 1 d . U P A 2
H17B H 0.304059 0.845412 0.281329 0.051 Uiso 0.487(10) 1 calc R U P A 2
C18B C 0.2807(12) 0.6832(8) 0.1545(7) 0.0362(11) Uani 0.487(10) 1 d . U P A 2
H18B H 0.341143 0.750262 0.104381 0.043 Uiso 0.487(10) 1 calc R U P A 2
C19 C 0.2507(12) 0.4105(9) -0.0794(8) 0.0405(12) Uani 0.487(10) 1 d D U P A 2
C20 C 0.2361(6) 0.4643(7) 0.0145(4) 0.0421(9) Uani 0.487(10) 1 d D U P A 2
loop_
_atom_site_aniso_label
_atom_site_aniso_U_11
_atom_site_aniso_U_22
_atom_site_aniso_U_33
_atom_site_aniso_U_23
_atom_site_aniso_U_13
_atom_site_aniso_U_12
O1 0.0352(4) 0.0456(4) 0.0346(3) 0.0053(3) 0.0109(3) 0.0160(3)
O2 0.0396(4) 0.0614(4) 0.0371(4) 0.0007(3) 0.0126(3) 0.0248(3)
N1 0.0370(4) 0.0540(5) 0.0339(4) 0.0039(3) 0.0122(3) 0.0225(4)
C1 0.0369(5) 0.0267(4) 0.0327(4) 0.0063(3) 0.0127(4) 0.0117(3)
C2 0.0386(5) 0.0314(4) 0.0276(4) 0.0034(3) 0.0122(4) 0.0137(4)
C3 0.0388(5) 0.0329(4) 0.0340(5) 0.0044(3) 0.0130(4) 0.0154(4)
C4 0.0490(6) 0.0412(5) 0.0372(5) 0.0033(4) 0.0209(4) 0.0196(4)
C5 0.0572(6) 0.0445(5) 0.0291(4) 0.0026(4) 0.0170(4) 0.0199(5)
C6 0.0439(5) 0.0389(5) 0.0293(4) 0.0039(4) 0.0073(4) 0.0147(4)
C7 0.0396(5) 0.0398(5) 0.0376(5) 0.0002(4) 0.0104(4) 0.0184(4)
C8 0.0377(5) 0.0390(5) 0.0357(5) 0.0067(4) 0.0130(4) 0.0165(4)
C9 0.0305(4) 0.0417(5) 0.0325(4) 0.0020(4) 0.0066(3) 0.0192(4)
C10 0.0390(5) 0.0363(5) 0.0433(5) 0.0046(4) 0.0107(4) 0.0169(4)
C11 0.0391(5) 0.0483(5) 0.0417(5) 0.0133(4) 0.0162(4) 0.0184(4)
C12 0.031(2) 0.0292(17) 0.0278(14) 0.0052(12) 0.0128(11) 0.0133(15)
C13 0.0293(10) 0.0302(13) 0.0272(11) 0.0068(9) 0.0119(7) 0.0122(10)
C14A 0.0256(14) 0.026(2) 0.0309(13) 0.0039(13) 0.0062(9) 0.0127(16)
C15A 0.0371(19) 0.0318(17) 0.032(2) 0.0033(12) 0.0115(13) 0.0171(14)
C16A 0.0352(16) 0.0303(18) 0.033(2) 0.0052(14) 0.0087(13) 0.0130(14)
N2A 0.030(2) 0.042(2) 0.0205(17) -0.0014(13) 0.0088(14) 0.0141(16)
C17A 0.0383(18) 0.0255(18) 0.0310(17) 0.0013(12) 0.0141(13) 0.0132(14)
C18A 0.0368(14) 0.0208(17) 0.0316(14) 0.0039(12) 0.0124(10) 0.0106(13)
C14B 0.033(2) 0.034(3) 0.0369(19) -0.0014(16) 0.0041(13) 0.018(2)
C15B 0.040(2) 0.0386(16) 0.040(3) 0.0089(15) 0.0106(17) 0.0186(13)
C16B 0.0388(18) 0.043(3) 0.0346(19) 0.0050(18) 0.0085(15) 0.0206(18)
N2B 0.036(3) 0.047(3) 0.042(3) 0.0033(18) 0.006(2) 0.0184(19)
C17B 0.042(2) 0.0277(17) 0.047(2) -0.0030(14) 0.0064(16) 0.0154(16)
C18B 0.0365(17) 0.033(3) 0.0407(16) 0.0127(17) 0.0161(12) 0.0152(19)
C19 0.032(2) 0.050(3) 0.0391(19) 0.0090(18) 0.0136(13) 0.017(2)
C20 0.0374(14) 0.052(2) 0.0376(14) 0.0079(14) 0.0118(10) 0.0221(15)
loop_
_atom_type_symbol
_atom_type_description
_atom_type_scat_dispersion_real
_atom_type_scat_dispersion_imag
_atom_type_scat_source
C C 0.0181 0.0091 'International Tables Vol C Tables 4.2.6.8 and 6.1.1.4'
H H 0 0 'International Tables Vol C Tables 4.2.6.8 and 6.1.1.4'
N N 0.0311 0.018 'International Tables Vol C Tables 4.2.6.8 and 6.1.1.4'
O O 0.0492 0.0322 'International Tables Vol C Tables 4.2.6.8 and 6.1.1.4'
loop_
_exptl_crystal_face_index_h
_exptl_crystal_face_index_k
_exptl_crystal_face_index_l
_exptl_crystal_face_perp_dist
1 0 2 0.1024
2 0 -6 0.081
4 5 0 0.0438
-5 -4 -3 0.0658
-1 4 4 0.0337
-4 -5 0 0.0468
2 6 4 0.0464
5 5 4 0.0804
5 4 -1 0.0444
3 2 -4 0.0582
1 6 -1 0.0561
-1 -6 1 0.0835
-5 -2 0 0.0435
2 -4 2 0.0954
-3 2 1 0.0427
0 6 2 0.0367
2 6 3 0.0426
-2 -6 -3 0.0582
1 2 7 0.0957
4 6 1 0.0435
1 -5 0 0.0733
2 -2 -5 0.054
-4 -6 -4 0.0654
1 -5 -4 0.0508
loop_
_geom_angle_atom_site_label_1
_geom_angle_atom_site_label_2
_geom_angle_atom_site_label_3
_geom_angle
_geom_angle_site_symmetry_1
_geom_angle_site_symmetry_3
_geom_angle_publ_flag
C1 O1 H1 109.5 . . ?
C3 O2 H2A 109.5 . . ?
C7 N1 C11 116.96(8) . . ?
O1 C1 C2 121.65(8) . . ?
O1 C1 C6 118.32(8) . . ?
C2 C1 C6 120.03(9) . . ?
C1 C2 C3 120.29(8) . . ?
C1 C2 H2 119.9 . . ?
C3 C2 H2 119.9 . . ?
O2 C3 C2 122.00(8) . . ?
O2 C3 C4 118.02(8) . . ?
C2 C3 C4 119.97(9) . . ?
C5 C4 C3 118.87(9) . . ?
C5 C4 H4 120.6 . . ?
C3 C4 H4 120.6 . . ?
C4 C5 C6 121.82(9) . . ?
C4 C5 H5 119.1 . . ?
C6 C5 H5 119.1 . . ?
C5 C6 C1 119.01(9) . . ?
C5 C6 H6 120.5 . . ?
C1 C6 H6 120.5 . . ?
N1 C7 C8 123.18(9) . . ?
N1 C7 H7 118.4 . . ?
C8 C7 H7 118.4 . . ?
C7 C8 C9 119.57(9) . . ?
C7 C8 H8 120.2 . . ?
C9 C8 H8 120.2 . . ?
C19 C9 C8 128.1(3) . . ?
C19 C9 C10 114.5(3) . . ?
C8 C9 C10 117.47(9) . . ?
C8 C9 C12 114.9(2) . . ?
C10 C9 C12 127.5(2) . . ?
C11 C10 C9 118.90(9) . . ?
C11 C10 H10 120.6 . . ?
C9 C10 H10 120.6 . . ?
N1 C11 C10 123.87(9) . . ?
N1 C11 H11 118.1 . . ?
C10 C11 H11 118.1 . . ?
C13 C12 C9 122.7(5) . . ?
C13 C12 H12 118.6 . . ?
C9 C12 H12 118.6 . . ?
C12 C13 C14A 125.9(5) . . ?
C12 C13 H13 117 . . ?
C14A C13 H13 117 . . ?
C15A C14A C18A 120 . . ?
C15A C14A C13 121.8(3) . . ?
C18A C14A C13 118.2(3) . . ?
C14A C15A C16A 120 . . ?
C14A C15A H15A 120 . . ?
C16A C15A H15A 120 . . ?
N2A C16A C15A 120 . . ?
N2A C16A H16A 120 . . ?
C15A C16A H16A 120 . . ?
C16A N2A C17A 120 . . ?
C18A C17A N2A 120 . . ?
C18A C17A H17A 120 . . ?
N2A C17A H17A 120 . . ?
C17A C18A C14A 120 . . ?
C17A C18A H18A 120 . . ?
C14A C18A H18A 120 . . ?
C18B C14B C20 121.7(5) . . ?
C18B C14B C15B 114.5(3) . . ?
C20 C14B C15B 123.8(4) . . ?
C16B C15B C14B 118.9(3) . . ?
C16B C15B H15B 120.6 . . ?
C14B C15B H15B 120.6 . . ?
N2B C16B C15B 127.4(4) . . ?
N2B C16B H16B 116.3 . . ?
C15B C16B H16B 116.3 . . ?
C17B N2B C16B 112.3(4) . . ?
N2B C17B C18B 128.4(4) . . ?
N2B C17B H17B 115.8 . . ?
C18B C17B H17B 115.8 . . ?
C17B C18B C14B 118.5(3) . . ?
C17B C18B H18B 120.7 . . ?
C14B C18B H18B 120.7 . . ?
C20 C19 C9 175.4(8) . . ?
C19 C20 C14B 178.6(7) . . ?
loop_
_geom_bond_atom_site_label_1
_geom_bond_atom_site_label_2
_geom_bond_distance
_geom_bond_site_symmetry_2
_geom_bond_publ_flag
O1 C1 1.3591(11) . ?
O1 H1 0.970(14) . ?
O2 C3 1.3565(12) . ?
O2 H2A 0.986(15) . ?
N1 C7 1.3358(13) . ?
N1 C11 1.3397(13) . ?
C1 C2 1.3898(13) . ?
C1 C6 1.3914(12) . ?
C2 C3 1.3910(13) . ?
C2 H2 0.95 . ?
C3 C4 1.3958(13) . ?
C4 C5 1.3831(15) . ?
C4 H4 0.95 . ?
C5 C6 1.3854(15) . ?
C5 H5 0.95 . ?
C6 H6 0.95 . ?
C7 C8 1.3791(13) . ?
C7 H7 0.95 . ?
C8 C9 1.3900(13) . ?
C8 H8 0.95 . ?
C9 C19 1.374(8) . ?
C9 C10 1.3916(14) . ?
C9 C12 1.532(6) . ?
C10 C11 1.3765(14) . ?
C10 H10 0.95 . ?
C11 H11 0.95 . ?
C12 C13 1.323(7) . ?
C12 H12 0.95 . ?
C13 C14A 1.514(5) . ?
C13 H13 0.95 . ?
C14A C15A 1.39 . ?
C14A C18A 1.39 . ?
C15A C16A 1.39 . ?
C15A H15A 0.95 . ?
C16A N2A 1.39 . ?
C16A H16A 0.95 . ?
N2A C17A 1.39 . ?
C17A C18A 1.39 . ?
C17A H17A 0.95 . ?
C18A H18A 0.95 . ?
C14B C18B 1.381(5) . ?
C14B C20 1.386(6) . ?
C14B C15B 1.391(6) . ?
C15B C16B 1.372(5) . ?
C15B H15B 0.95 . ?
C16B N2B 1.287(5) . ?
C16B H16B 0.95 . ?
N2B C17B 1.286(5) . ?
C17B C18B 1.367(4) . ?
C17B H17B 0.95 . ?
C18B H18B 0.95 . ?
C19 C20 1.194(8) . ?
loop_
_geom_hbond_atom_site_label_D
_geom_hbond_atom_site_label_H
_geom_hbond_atom_site_label_A
_geom_hbond_distance_DH
_geom_hbond_distance_HA
_geom_hbond_distance_DA
_geom_hbond_angle_DHA
_geom_hbond_site_symmetry_A
_geom_hbond_publ_flag
O1 H1 N1 0.97 1.77 2.7414(10) 175.1 1_556 yes
O2 H2A N2A^a 0.99 1.81 2.79(3) 175.8 2_666 yes
O2 H2A N2B^b 0.99 1.71 2.698(6) 177 2_666 yes
