#------------------------------------------------------------------------------
#$Date: 2020-06-06 04:19:29 +0300 (Sat, 06 Jun 2020) $
#$Revision: 252960 $
#$URL: file:///home/coder/svn-repositories/cod/cif/1/55/82/1558248.cif $
#------------------------------------------------------------------------------
#
# This file is available in the Crystallography Open Database (COD),
# http://www.crystallography.net/
#
# All data on this site have been placed in the public domain by the
# contributors.
#
data_1558248
loop_
_publ_author_name
'Ding, Xiaodan'
'Unruh, Daniel K.'
'Groeneman , Ryan'
'Hutchins, Kristin M.'
_publ_section_title
;
 Controlling thermal expansion within mixed cocrystals by tuning molecular
 motion capability
;
_journal_name_full               'Chemical Science'
_journal_paper_doi               10.1039/D0SC02795B
_journal_year                    2020
_chemical_formula_sum            'C17.35 H14 N2.65 O2'
_chemical_formula_weight         291.6
_space_group_IT_number           2
_space_group_name_Hall           '-P 1'
_space_group_name_H-M_alt        'P -1'
_symmetry_cell_setting           triclinic
_symmetry_Int_Tables_number      2
_symmetry_space_group_name_Hall  '-P 1'
_symmetry_space_group_name_H-M   'P -1'
_atom_sites_solution_hydrogens   geom
_atom_sites_solution_primary     dual
_atom_sites_solution_secondary   difmap
_audit_creation_date             2020-02-26T14:11:53-00:00
_audit_creation_method           'WinGX routine CIF_UPDATE'
_audit_update_record
;
2020-04-07 deposited with the CCDC.	2020-06-05 downloaded from the CCDC.
;
_cell_angle_alpha                92.167(2)
_cell_angle_beta                 107.990(2)
_cell_angle_gamma                114.537(2)
_cell_formula_units_Z            2
_cell_length_a                   8.13293(19)
_cell_length_b                   9.7619(2)
_cell_length_c                   10.9275(3)
_cell_measurement_reflns_used    15946
_cell_measurement_temperature    190(2)
_cell_measurement_theta_max      75.822
_cell_measurement_theta_min      4.323
_cell_volume                     736.68(4)
_computing_cell_refinement       'CrysAlisPro 1.171.40.70a (Rigaku OD, 2020)'
_computing_data_collection       'CrysAlisPro 1.171.40.70a (Rigaku OD, 2020)'
_computing_data_reduction        'CrysAlisPro 1.171.40.70a (Rigaku OD, 2020)'
_computing_structure_refinement  'SHELXL-2018/3 (Sheldrick, 2018)'
_computing_structure_solution    'SHELXT 2014/5 (Sheldrick, 2014)'
_diffrn_ambient_environment      N~2~
_diffrn_ambient_temperature      190(2)
_diffrn_detector                 'Hybrid Pixel Array Detector'
_diffrn_detector_area_resol_mean 10
_diffrn_detector_type            HyPix
_diffrn_measured_fraction_theta_full 0.994
_diffrn_measured_fraction_theta_max 0.949
_diffrn_measurement_device       'four-circle diffractometer'
_diffrn_measurement_device_type  'XtaLAB Synergy, Dualflex, HyPix'
_diffrn_measurement_method       '\w scans'
_diffrn_orient_matrix_type
'CrysAlisPro convention (1999,Acta A55,543-557)'
_diffrn_orient_matrix_UB_11      -0.1817484
_diffrn_orient_matrix_UB_12      -0.1496038
_diffrn_orient_matrix_UB_13      -0.0772361
_diffrn_orient_matrix_UB_21      -0.1290572
_diffrn_orient_matrix_UB_22      0.0725782
_diffrn_orient_matrix_UB_23      0.0176603
_diffrn_orient_matrix_UB_31      -0.0020375
_diffrn_orient_matrix_UB_32      0.0599772
_diffrn_orient_matrix_UB_33      -0.1285853
_diffrn_radiation_monochromator  mirror
_diffrn_radiation_probe          x-ray
_diffrn_radiation_type           CuK\a
_diffrn_radiation_wavelength     1.54178
_diffrn_reflns_av_R_equivalents  0.0478
_diffrn_reflns_av_unetI/netI     0.0627
_diffrn_reflns_Laue_measured_fraction_full 0.994
_diffrn_reflns_Laue_measured_fraction_max 0.949
_diffrn_reflns_limit_h_max       10
_diffrn_reflns_limit_h_min       -10
_diffrn_reflns_limit_k_max       12
_diffrn_reflns_limit_k_min       -11
_diffrn_reflns_limit_l_max       12
_diffrn_reflns_limit_l_min       -13
_diffrn_reflns_number            23395
_diffrn_reflns_point_group_measured_fraction_full 0.994
_diffrn_reflns_point_group_measured_fraction_max 0.949
_diffrn_reflns_theta_full        67.679
_diffrn_reflns_theta_max         77.324
_diffrn_reflns_theta_min         4.334
_diffrn_source                   'micro-focus sealed X-ray tube'
_diffrn_source_type              'PhotonJet (Cu) X-ray Source'
_exptl_absorpt_coefficient_mu    0.715
_exptl_absorpt_correction_T_max  1
_exptl_absorpt_correction_T_min  0.483
_exptl_absorpt_correction_type   gaussian
_exptl_absorpt_process_details
;
        CrysAlisPro 1.171.40.70a (Rigaku Oxford Diffraction, 2020)
Numerical absorption correction based on gaussian integration over
                        a multifaceted crystal model
        Empirical absorption correction using spherical harmonics,
 implemented in SCALE3 ABSPACK scaling algorithm.
;
_exptl_crystal_colour            'clear yellow'
_exptl_crystal_density_diffrn    1.315
_exptl_crystal_description       irregular
_exptl_crystal_F_000             305
_exptl_crystal_size_max          0.2
_exptl_crystal_size_mid          0.109
_exptl_crystal_size_min          0.103
_refine_diff_density_max         0.147
_refine_diff_density_min         -0.151
_refine_diff_density_rms         0.034
_refine_ls_extinction_coef       0.0046(9)
_refine_ls_extinction_expression Fc^*^=kFc[1+0.001xFc^2^\l^3^/sin(2\q)]^-1/4^
_refine_ls_extinction_method     'SHELXL-2018/3 (Sheldrick 2018)'
_refine_ls_goodness_of_fit_ref   1.066
_refine_ls_hydrogen_treatment    constr
_refine_ls_matrix_type           full
_refine_ls_number_parameters     284
_refine_ls_number_reflns         2980
_refine_ls_number_restraints     507
_refine_ls_restrained_S_all      1.009
_refine_ls_R_factor_all          0.0426
_refine_ls_R_factor_gt           0.0382
_refine_ls_shift/su_max          0.001
_refine_ls_shift/su_mean         0
_refine_ls_structure_factor_coef Fsqd
_refine_ls_weighting_details
'w=1/[\s^2^(Fo^2^)+(0.0577P)^2^+0.0874P] where P=(Fo^2^+2Fc^2^)/3'
_refine_ls_weighting_scheme      calc
_refine_ls_wR_factor_gt          0.1056
_refine_ls_wR_factor_ref         0.1091
_reflns_Friedel_coverage         0
_reflns_number_gt                2626
_reflns_number_total             2980
_reflns_threshold_expression     'I > 2\s(I)'
_cod_data_source_file            d0sc02795b2.cif
_cod_data_source_block           A25_BA75_190
_cod_original_cell_volume        736.68(3)
_cod_database_code               1558248
_shelx_estimated_absorpt_t_min   0.87
_shelx_estimated_absorpt_t_max   0.93
_shelx_shelxl_version_number     2018/3
_shelx_res_file
;
TITL 190_a.res in P-1
    190_a.res
    created by SHELXL-2018/3 at 14:09:05 on 26-Feb-2020
REM Old TITL 190 in P-1

REM SHELXT solution in P-1
REM R1 0.138,  Rweak 0.005,  Alpha 0.031,  Orientation as input
REM Formula found by SHELXT:  C17 N3 O2

CELL  1.54178   8.132928   9.761940  10.927526  92.1671 107.9897 114.5368
ZERR    2.000   0.000190   0.000228   0.000293   0.0020   0.0023   0.0023
LATT  1
SFAC C H N O
UNIT 34.7075 28 5.29248 4
TEMP -83.2
SIZE 0.200 0.109 0.103
L.S. 10
BOND $H
ACTA
LIST 4
FMAP 2
PLAN 20
CONF

RIGU
SIMU 0.01 C12A C12B C13A C13B C14A C14B C15A C15B C16A C16B N4A N4B
SIMU 0.01 N2A N3A N2B N3B C17 C18

EQIV $2 x, y, z+1
EQIV $3 -x+1, -y+1, -z+1

HTAB O1 N1_$2
HTAB O2 N4A_$3
HTAB O2 N4B_$3

DFIX 1.20 0.02 C17 C18
DFIX 1.25 0.02 N2A N3A
DFIX 1.25 0.02 N2B N3B
DFIX 51 C12B C17 C18 C9

SUMP 1.0 0.0 1.0 2 1.0 3 1.0 4

WGHT    0.057700    0.087400
EXTI    0.004617
FVAR       0.86161   0.31060   0.67687   0.01253   1.40092
O1    4    0.166498    0.148426    0.306950    11.00000    0.04334    0.05328 =
         0.04130    0.00716    0.01334    0.01902
AFIX 147
H1    2    0.200006    0.174040    0.388393    11.00000   -1.50000
AFIX   0
O2    4    0.818069    0.211111    0.434958    11.00000    0.04846    0.06748 =
         0.04672    0.00271    0.01544    0.02836
AFIX 147
H2A   2    0.826473    0.252912    0.506716    11.00000   -1.50000
AFIX   0
N1    3    0.262680    0.243787   -0.429750    11.00000    0.04366    0.06040 =
         0.04522    0.00849    0.01499    0.02460
C1    1    0.317276    0.147965    0.278275    11.00000    0.04322    0.03194 =
         0.03980    0.00678    0.01472    0.01299
C2    1    0.491618    0.178475    0.375798    11.00000    0.04674    0.03647 =
         0.03403    0.00409    0.01394    0.01629
AFIX  43
H2    2    0.507284    0.199814    0.465336    11.00000   -1.20000
AFIX   0
C3    1    0.643790    0.177908    0.342787    11.00000    0.04589    0.03784 =
         0.04229    0.00440    0.01472    0.01757
C4    1    0.619112    0.142583    0.211691    11.00000    0.05912    0.04658 =
         0.04605    0.00382    0.02505    0.02235
AFIX  43
H4    2    0.720851    0.139284    0.188361    11.00000   -1.20000
AFIX   0
C5    1    0.444599    0.112428    0.116130    11.00000    0.06677    0.04892 =
         0.03680    0.00286    0.02016    0.02214
AFIX  43
H5    2    0.427966    0.089104    0.026630    11.00000   -1.20000
AFIX   0
C6    1    0.293289    0.115220    0.147040    11.00000    0.05338    0.04447 =
         0.03546    0.00481    0.01003    0.01724
AFIX  43
H6    2    0.174785    0.095095    0.079721    11.00000   -1.20000
AFIX   0
C7    1    0.329998    0.393672   -0.386375    11.00000    0.04630    0.05529 =
         0.05338    0.01702    0.01835    0.02045
AFIX  43
H7    2    0.379064    0.463254   -0.439316    11.00000   -1.20000
AFIX   0
C8    1    0.332085    0.452610   -0.269280    11.00000    0.04501    0.04026 =
         0.05735    0.00868    0.01185    0.01626
AFIX  43
H8    2    0.383195    0.560183   -0.241701    11.00000   -1.20000
AFIX   0
C9    1    0.257920    0.351590   -0.192207    11.00000    0.03629    0.04553 =
         0.03965    0.00120    0.00600    0.01918
C10   1    0.189812    0.195225   -0.235178    11.00000    0.04466    0.04250 =
         0.04082    0.00629    0.01329    0.01767
AFIX  43
H10   2    0.139956    0.122923   -0.184327    11.00000   -1.20000
AFIX   0
C11   1    0.196487    0.147882   -0.353305    11.00000    0.04599    0.04492 =
         0.04432    0.00275    0.01281    0.01987
AFIX  43
H11   2    0.151574    0.041303   -0.381814    11.00000   -1.20000
AFIX   0
PART  1
N2A   3    0.219893    0.381936   -0.061209    21.00000    0.04611    0.04046 =
         0.04320   -0.00800    0.00500    0.02217
N3A   3    0.261571    0.506912   -0.014636    21.00000    0.04846    0.04804 =
         0.04686   -0.00918    0.00900    0.02137
C12A  1    0.227474    0.551432    0.101492    21.00000    0.03709    0.03935 =
         0.03625    0.01173    0.00636    0.01763
C13A  1    0.280100    0.704277    0.152483    21.00000    0.04742    0.03135 =
         0.04761   -0.00121    0.00656    0.01686
AFIX  43
H13A  2    0.337778    0.786381    0.111879    21.00000   -1.20000
AFIX   0
C14A  1    0.243349    0.729055    0.265442    21.00000    0.04387    0.02549 =
         0.04142    0.00511    0.00955    0.01191
AFIX  43
H14A  2    0.280806    0.833237    0.298087    21.00000   -1.20000
AFIX   0
N4A   3    0.171180    0.638771    0.328639    21.00000    0.03961    0.04071 =
         0.04410    0.00744    0.00600    0.01740
C15A  1    0.121113    0.502574    0.278982    21.00000    0.03726    0.05269 =
         0.03311    0.02092    0.01678    0.01317
AFIX  43
H15A  2    0.059452    0.426607    0.323179    21.00000   -1.20000
AFIX   0
C16A  1    0.142882    0.447614    0.169492    21.00000    0.04739    0.03769 =
         0.03967    0.01035    0.01145    0.01820
AFIX  43
H16A  2    0.100209    0.341049    0.142758    21.00000   -1.20000
AFIX  66
PART  2
C12B  1    0.212662    0.527446    0.125922   -21.00000    0.03620    0.03910 =
         0.03166    0.00738    0.01075    0.01818
C13B  1    0.280902    0.685724    0.150816   -21.00000    0.04355    0.04086 =
         0.04219    0.00480    0.01583    0.01727
AFIX  43
H13B  2    0.341543    0.746141    0.096892   -21.00000   -1.20000
AFIX  65
C14B  1    0.260415    0.755603    0.254607   -21.00000    0.04455    0.03062 =
         0.04406    0.00690    0.01618    0.01034
AFIX  43
H14B  2    0.307054    0.863779    0.271620   -21.00000   -1.20000
AFIX  65
N4B   3    0.171688    0.667205    0.333506   -21.00000    0.04315    0.04226 =
         0.03812    0.00370    0.00927    0.01995
C15B  1    0.103447    0.508927    0.308613   -21.00000    0.04331    0.05308 =
         0.03269    0.01191    0.01766    0.02126
AFIX  43
H15B  2    0.042806    0.448512    0.362537   -21.00000   -1.20000
AFIX  65
C16B  1    0.123933    0.439046    0.204823   -21.00000    0.04338    0.04071 =
         0.03439    0.01193    0.01698    0.01804
AFIX  43
H16B  2    0.077293    0.330870    0.187810   -21.00000   -1.20000
AFIX   0
C17   1    0.232665    0.460711    0.016937    31.00000    0.04041    0.04434 =
         0.03249    0.01120    0.01540    0.01936
C18   1    0.252621    0.413714   -0.078635    31.00000    0.03815    0.04490 =
         0.03794    0.00914    0.01431    0.01647
PART  3
N2B   3    0.276593    0.455489   -0.102851    41.00000    0.04276    0.04442 =
         0.04296    0.00127    0.00790    0.02073
N3B   3    0.144715    0.406006   -0.056891    41.00000    0.04279    0.04460 =
         0.04230   -0.00158    0.00839    0.02109
HKLF 4




REM  190_a.res in P-1
REM wR2 = 0.109125, GooF = S = 1.06599, Restrained GooF = 1.00917 for all data
REM R1 = 0.038181 for 2626 Fo > 4sig(Fo) and 0.042619 for all 2980 data
REM 284 parameters refined using 507 restraints

END

WGHT      0.0577      0.0874

REM Highest difference peak  0.147,  deepest hole -0.151,  1-sigma level  0.034
Q1    1   0.7976  0.1423  0.2236  11.00000  0.05    0.15
Q2    1   0.2449  0.4054 -0.2335  11.00000  0.05    0.14
Q3    1   0.1920  0.2827 -0.2199  11.00000  0.05    0.13
Q4    1   0.3964  0.1395  0.3224  11.00000  0.05    0.13
Q5    1   0.3123  0.3120 -0.4009  11.00000  0.05    0.12
Q6    1   0.8234  0.2842  0.5778  11.00000  0.05    0.12
Q7    1   0.0207  0.1347  0.2607  11.00000  0.05    0.12
Q8    1   0.3063  0.4000 -0.3218  11.00000  0.05    0.12
Q9    1   0.0049  0.0799  0.2217  11.00000  0.05    0.12
Q10   1   0.3324  0.0392  0.1367  11.00000  0.05    0.11
Q11   1   0.1430  0.0078  0.0387  11.00000  0.05    0.11
Q12   1   0.1091  0.0534  0.0923  11.00000  0.05    0.11
Q13   1   0.9746  0.2608  0.4645  11.00000  0.05    0.11
Q14   1   0.3032  0.1776  0.4942  11.00000  0.05    0.11
Q15   1   0.4445  0.2164  0.3327  11.00000  0.05    0.11
Q16   1   0.3399  0.6197  0.1605  11.00000  0.05    0.10
Q17   1   0.3781  0.5205 -0.0223  11.00000  0.05    0.10
Q18   1   0.8497  0.0997  0.1575  11.00000  0.05    0.10
Q19   1   0.7597  0.0129  0.1972  11.00000  0.05    0.10
Q20   1   0.5274  0.1036  0.3676  11.00000  0.05    0.10
;
_shelx_res_checksum              89101
loop_
_symmetry_equiv_pos_as_xyz
'x, y, z'
'-x, -y, -z'
loop_
_atom_site_label
_atom_site_type_symbol
_atom_site_fract_x
_atom_site_fract_y
_atom_site_fract_z
_atom_site_U_iso_or_equiv
_atom_site_adp_type
_atom_site_occupancy
_atom_site_site_symmetry_order
_atom_site_calc_flag
_atom_site_refinement_flags_posn
_atom_site_refinement_flags_adp
_atom_site_refinement_flags_occupancy
_atom_site_disorder_assembly
_atom_site_disorder_group
O1 O 0.16650(11) 0.14843(10) 0.30695(8) 0.0475(2) Uani 1 1 d . . . . .
H1 H 0.200006 0.17404 0.388393 0.071 Uiso 1 1 calc R U . . .
O2 O 0.81807(12) 0.21111(11) 0.43496(9) 0.0540(3) Uani 1 1 d . . . . .
H2A H 0.826473 0.252912 0.506716 0.081 Uiso 1 1 calc R U . . .
N1 N 0.26268(14) 0.24379(12) -0.42975(10) 0.0496(3) Uani 1 1 d . . . . .
C1 C 0.31728(16) 0.14796(12) 0.27828(11) 0.0398(3) Uani 1 1 d . . . . .
C2 C 0.49162(16) 0.17847(12) 0.37580(11) 0.0402(3) Uani 1 1 d . . . . .
H2 H 0.507284 0.199814 0.465336 0.048 Uiso 1 1 calc R U . . .
C3 C 0.64379(17) 0.17791(12) 0.34279(11) 0.0428(3) Uani 1 1 d . . . . .
C4 C 0.61911(19) 0.14258(14) 0.21169(12) 0.0496(3) Uani 1 1 d . . . . .
H4 H 0.720851 0.139284 0.188361 0.06 Uiso 1 1 calc R U . . .
C5 C 0.4446(2) 0.11243(14) 0.11613(12) 0.0520(3) Uani 1 1 d . . . . .
H5 H 0.427966 0.089104 0.02663 0.062 Uiso 1 1 calc R U . . .
C6 C 0.29329(18) 0.11522(13) 0.14704(12) 0.0478(3) Uani 1 1 d . . . . .
H6 H 0.174785 0.095095 0.079721 0.057 Uiso 1 1 calc R U . . .
C7 C 0.33000(18) 0.39367(15) -0.38638(13) 0.0522(3) Uani 1 1 d . . . . .
H7 H 0.379064 0.463254 -0.439316 0.063 Uiso 1 1 calc R U . . .
C8 C 0.33208(18) 0.45261(14) -0.26928(13) 0.0503(3) Uani 1 1 d . . . . .
H8 H 0.383195 0.560183 -0.241701 0.06 Uiso 1 1 calc R U . . .
C9 C 0.25792(16) 0.35159(13) -0.19221(11) 0.0424(3) Uani 1 1 d D . . . .
C10 C 0.18981(17) 0.19523(13) -0.23518(12) 0.0439(3) Uani 1 1 d . . . . .
H10 H 0.139956 0.122923 -0.184327 0.053 Uiso 1 1 calc R U . . .
C11 C 0.19649(17) 0.14788(14) -0.35330(12) 0.0463(3) Uani 1 1 d . . . . .
H11 H 0.151574 0.041303 -0.381814 0.056 Uiso 1 1 calc R U . . .
N2A N 0.2199(15) 0.3819(9) -0.0612(10) 0.0456(17) Uani 0.311(3) 1 d D U P A 1
N3A N 0.2616(8) 0.5069(6) -0.0146(6) 0.0505(12) Uani 0.311(3) 1 d D U P A 1
C12A C 0.2275(17) 0.5514(12) 0.1015(9) 0.0390(14) Uani 0.311(3) 1 d . U P A 1
C13A C 0.2801(19) 0.7043(12) 0.1525(11) 0.0454(18) Uani 0.311(3) 1 d . U P A 1
H13A H 0.337778 0.786381 0.111879 0.054 Uiso 0.311(3) 1 calc R U P A 1
C14A C 0.243(2) 0.7291(10) 0.2654(12) 0.0398(15) Uani 0.311(3) 1 d . U P A 1
H14A H 0.280806 0.833237 0.298087 0.048 Uiso 0.311(3) 1 calc R U P A 1
N4A N 0.1712(18) 0.6388(11) 0.3286(10) 0.0441(15) Uani 0.311(3) 1 d . U P A 1
C15A C 0.1211(13) 0.5026(10) 0.2790(9) 0.0421(15) Uani 0.311(3) 1 d . U P A 1
H15A H 0.059452 0.426607 0.323179 0.051 Uiso 0.311(3) 1 calc R U P A 1
C16A C 0.1429(14) 0.4476(9) 0.1695(8) 0.0429(16) Uani 0.311(3) 1 d . U P A 1
H16A H 0.100209 0.341049 0.142758 0.051 Uiso 0.311(3) 1 calc R U P A 1
C12B C 0.2127(7) 0.5274(4) 0.1259(3) 0.0355(9) Uani 0.689(3) 1 d DG U P A 2
C13B C 0.2809(8) 0.6857(4) 0.1508(4) 0.0428(9) Uani 0.689(3) 1 d G U P A 2
H13B H 0.341543 0.746141 0.096892 0.051 Uiso 0.689(3) 1 calc R U P A 2
C14B C 0.2604(9) 0.7556(3) 0.2546(5) 0.0420(9) Uani 0.689(3) 1 d G U P A 2
H14B H 0.307054 0.863779 0.27162 0.05 Uiso 0.689(3) 1 calc R U P A 2
N4B N 0.1717(8) 0.6672(4) 0.3335(4) 0.0424(8) Uani 0.689(3) 1 d G U P A 2
C15B C 0.1034(6) 0.5089(4) 0.3086(3) 0.0420(8) Uani 0.689(3) 1 d G U P A 2
H15B H 0.042806 0.448512 0.362537 0.05 Uiso 0.689(3) 1 calc R U P A 2
C16B C 0.1239(5) 0.4390(3) 0.2048(3) 0.0389(7) Uani 0.689(3) 1 d G U P A 2
H16B H 0.077293 0.33087 0.18781 0.047 Uiso 0.689(3) 1 calc R U P A 2
C17 C 0.2327(4) 0.4607(3) 0.0169(3) 0.0382(6) Uani 0.677(3) 1 d D U P A 2
C18 C 0.2526(7) 0.4137(6) -0.0786(5) 0.0409(9) Uani 0.677(3) 1 d D U P A 2
N2B N 0.277(15) 0.455(13) -0.103(12) 0.045(3) Uani 0.013(2) 1 d D U P A 3
N3B N 0.145(13) 0.406(10) -0.057(10) 0.045(6) Uani 0.013(2) 1 d D U P A 3
loop_
_atom_site_aniso_label
_atom_site_aniso_U_11
_atom_site_aniso_U_22
_atom_site_aniso_U_33
_atom_site_aniso_U_23
_atom_site_aniso_U_13
_atom_site_aniso_U_12
O1 0.0433(4) 0.0533(5) 0.0413(4) 0.0072(4) 0.0133(3) 0.0190(4)
O2 0.0485(5) 0.0675(6) 0.0467(5) 0.0027(4) 0.0154(4) 0.0284(4)
N1 0.0437(5) 0.0604(6) 0.0452(6) 0.0085(5) 0.0150(4) 0.0246(5)
C1 0.0432(6) 0.0319(5) 0.0398(6) 0.0068(4) 0.0147(5) 0.0130(4)
C2 0.0467(6) 0.0365(5) 0.0340(6) 0.0041(4) 0.0139(5) 0.0163(5)
C3 0.0459(6) 0.0378(5) 0.0423(6) 0.0044(5) 0.0147(5) 0.0176(5)
C4 0.0591(7) 0.0466(6) 0.0460(7) 0.0038(5) 0.0250(6) 0.0224(6)
C5 0.0668(8) 0.0489(7) 0.0368(6) 0.0029(5) 0.0202(6) 0.0221(6)
C6 0.0534(7) 0.0445(6) 0.0355(6) 0.0048(5) 0.0100(5) 0.0172(5)
C7 0.0463(7) 0.0553(7) 0.0534(7) 0.0170(6) 0.0183(6) 0.0204(6)
C8 0.0450(6) 0.0403(6) 0.0574(8) 0.0087(5) 0.0119(6) 0.0163(5)
C9 0.0363(5) 0.0455(6) 0.0396(6) 0.0012(5) 0.0060(5) 0.0192(5)
C10 0.0447(6) 0.0425(6) 0.0408(6) 0.0063(5) 0.0133(5) 0.0177(5)
C11 0.0460(6) 0.0449(6) 0.0443(6) 0.0027(5) 0.0128(5) 0.0199(5)
N2A 0.046(4) 0.040(3) 0.043(3) -0.008(3) 0.005(2) 0.022(3)
N3A 0.048(2) 0.048(3) 0.047(3) -0.009(2) 0.0090(19) 0.021(2)
C12A 0.037(2) 0.039(3) 0.036(3) 0.012(2) 0.006(2) 0.0176(19)
C13A 0.047(3) 0.031(2) 0.048(3) -0.001(2) 0.007(2) 0.017(2)
C14A 0.044(3) 0.025(2) 0.041(3) 0.005(2) 0.010(2) 0.012(2)
N4A 0.040(2) 0.041(3) 0.044(3) 0.007(2) 0.0060(19) 0.017(2)
C15A 0.037(2) 0.053(2) 0.033(3) 0.021(2) 0.017(2) 0.013(2)
C16A 0.047(3) 0.038(2) 0.040(4) 0.010(2) 0.011(2) 0.0182(19)
C12B 0.0362(12) 0.0391(16) 0.0317(15) 0.0074(12) 0.0107(10) 0.0182(12)
C13B 0.0435(14) 0.0409(19) 0.0422(14) 0.0048(12) 0.0158(11) 0.0173(12)
C14B 0.0446(14) 0.0306(14) 0.0441(15) 0.0069(11) 0.0162(10) 0.0103(12)
N4B 0.0431(11) 0.0423(16) 0.0381(11) 0.0037(11) 0.0093(9) 0.0199(12)
C15B 0.0433(12) 0.0531(13) 0.0327(16) 0.0119(11) 0.0177(10) 0.0213(9)
C16B 0.0434(11) 0.0407(10) 0.0344(17) 0.0119(10) 0.0170(11) 0.0180(8)
C17 0.0404(11) 0.0443(13) 0.0325(12) 0.0112(10) 0.0154(8) 0.0194(10)
C18 0.0381(17) 0.045(2) 0.0379(15) 0.0091(13) 0.0143(10) 0.0165(15)
N2B 0.043(5) 0.044(5) 0.043(5) 0.001(4) 0.008(4) 0.021(5)
N3B 0.043(8) 0.045(9) 0.042(8) -0.002(8) 0.008(6) 0.021(8)
loop_
_atom_type_symbol
_atom_type_description
_atom_type_scat_dispersion_real
_atom_type_scat_dispersion_imag
_atom_type_scat_source
C C 0.0181 0.0091 'International Tables Vol C Tables 4.2.6.8 and 6.1.1.4'
H H 0 0 'International Tables Vol C Tables 4.2.6.8 and 6.1.1.4'
N N 0.0311 0.018 'International Tables Vol C Tables 4.2.6.8 and 6.1.1.4'
O O 0.0492 0.0322 'International Tables Vol C Tables 4.2.6.8 and 6.1.1.4'
loop_
_exptl_crystal_face_index_h
_exptl_crystal_face_index_k
_exptl_crystal_face_index_l
_exptl_crystal_face_perp_dist
-4 -1 0 0.0411
4 1 0 0.0599
1 3 -7 0.0786
-1 -3 7 0.0767
-2 6 -2 0.0453
1 -5 5 0.0477
2 -1 -7 0.0773
2 -6 2 0.0625
-3 5 4 0.0981
4 -1 -6 0.0847
3 -4 4 0.0491
-5 2 4 0.0882
0 6 -2 0.0472
1 -6 -1 0.0572
0 -5 -2 0.0599
loop_
_geom_angle_atom_site_label_1
_geom_angle_atom_site_label_2
_geom_angle_atom_site_label_3
_geom_angle
_geom_angle_site_symmetry_1
_geom_angle_site_symmetry_3
_geom_angle_publ_flag
C1 O1 H1 109.5 . . ?
C3 O2 H2A 109.5 . . ?
C11 N1 C7 117.37(11) . . ?
O1 C1 C2 121.75(10) . . ?
O1 C1 C6 118.24(10) . . ?
C2 C1 C6 120.01(11) . . ?
C1 C2 C3 120.22(10) . . ?
C1 C2 H2 119.9 . . ?
C3 C2 H2 119.9 . . ?
O2 C3 C4 118.07(11) . . ?
O2 C3 C2 122.04(10) . . ?
C4 C3 C2 119.89(11) . . ?
C5 C4 C3 119.01(11) . . ?
C5 C4 H4 120.5 . . ?
C3 C4 H4 120.5 . . ?
C4 C5 C6 121.85(11) . . ?
C4 C5 H5 119.1 . . ?
C6 C5 H5 119.1 . . ?
C5 C6 C1 119.00(11) . . ?
C5 C6 H6 120.5 . . ?
C1 C6 H6 120.5 . . ?
N1 C7 C8 123.57(12) . . ?
N1 C7 H7 118.2 . . ?
C8 C7 H7 118.2 . . ?
C7 C8 C9 118.61(11) . . ?
C7 C8 H8 120.7 . . ?
C9 C8 H8 120.7 . . ?
N2B C9 C8 96(4) . . ?
C18 C9 C8 117.2(2) . . ?
N2B C9 C10 145(4) . . ?
C18 C9 C10 124.3(2) . . ?
C8 C9 C10 118.48(11) . . ?
C8 C9 N2A 130.5(3) . . ?
C10 C9 N2A 110.9(3) . . ?
C11 C10 C9 118.41(11) . . ?
C11 C10 H10 120.8 . . ?
C9 C10 H10 120.8 . . ?
N1 C11 C10 123.52(11) . . ?
N1 C11 H11 118.2 . . ?
C10 C11 H11 118.2 . . ?
N3A N2A C9 119.8(7) . . ?
N2A N3A C12A 125.9(8) . . ?
C16A C12A C13A 114.3(6) . . ?
C16A C12A N3A 122.5(7) . . ?
C13A C12A N3A 123.2(8) . . ?
C14A C13A C12A 116.6(6) . . ?
C14A C13A H13A 121.7 . . ?
C12A C13A H13A 121.7 . . ?
N4A C14A C13A 130.2(6) . . ?
N4A C14A H14A 114.9 . . ?
C13A C14A H14A 114.9 . . ?
C14A N4A C15A 111.9(6) . . ?
N4A C15A C16A 129.4(6) . . ?
N4A C15A H15A 115.3 . . ?
C16A C15A H15A 115.3 . . ?
C12A C16A C15A 117.6(5) . . ?
C12A C16A H16A 121.2 . . ?
C15A C16A H16A 121.2 . . ?
C13B C12B C16B 120 . . ?
C13B C12B C17 118.0(2) . . ?
C16B C12B C17 122.0(2) . . ?
C14B C13B C12B 120 . . ?
C14B C13B H13B 120 . . ?
C12B C13B H13B 120 . . ?
C13B C14B N4B 120 . . ?
C13B C14B H14B 120 . . ?
N4B C14B H14B 120 . . ?
C14B N4B C15B 120 . . ?
C16B C15B N4B 120 . . ?
C16B C15B H15B 120 . . ?
N4B C15B H15B 120 . . ?
C15B C16B C12B 120 . . ?
C15B C16B H16B 120 . . ?
C12B C16B H16B 120 . . ?
C18 C17 C12B 175.4(4) . . ?
C17 C18 C9 174.9(5) . . ?
N3B N2B C9 112(9) . . ?
loop_
_geom_bond_atom_site_label_1
_geom_bond_atom_site_label_2
_geom_bond_distance
_geom_bond_site_symmetry_2
_geom_bond_publ_flag
O1 C1 1.3579(14) . ?
O1 H1 0.84 . ?
O2 C3 1.3566(14) . ?
O2 H2A 0.84 . ?
N1 C11 1.3351(17) . ?
N1 C7 1.3369(16) . ?
C1 C2 1.3881(16) . ?
C1 C6 1.3920(16) . ?
C2 C3 1.3940(16) . ?
C2 H2 0.95 . ?
C3 C4 1.3925(17) . ?
C4 C5 1.3805(19) . ?
C4 H4 0.95 . ?
C5 C6 1.3832(18) . ?
C5 H5 0.95 . ?
C6 H6 0.95 . ?
C7 C8 1.3753(19) . ?
C7 H7 0.95 . ?
C8 C9 1.3886(18) . ?
C8 H8 0.95 . ?
C9 N2B 1.31(11) . ?
C9 C18 1.381(5) . ?
C9 C10 1.3929(16) . ?
C9 N2A 1.597(9) . ?
C10 C11 1.3790(16) . ?
C10 H10 0.95 . ?
C11 H11 0.95 . ?
N2A N3A 1.168(11) . ?
N3A C12A 1.467(10) . ?
C12A C16A 1.359(8) . ?
C12A C13A 1.407(8) . ?
C13A C14A 1.392(8) . ?
C13A H13A 0.95 . ?
C14A N4A 1.210(9) . ?
C14A H14A 0.95 . ?
N4A C15A 1.260(9) . ?
C15A C16A 1.383(8) . ?
C15A H15A 0.95 . ?
C16A H16A 0.95 . ?
C12B C13B 1.39 . ?
C12B C16B 1.39 . ?
C12B C17 1.421(4) . ?
C13B C14B 1.39 . ?
C13B H13B 0.95 . ?
C14B N4B 1.39 . ?
C14B H14B 0.95 . ?
N4B C15B 1.39 . ?
C15B C16B 1.39 . ?
C15B H15B 0.95 . ?
C16B H16B 0.95 . ?
C17 C18 1.207(6) . ?
N2B N3B 1.25(2) . ?
loop_
_geom_hbond_atom_site_label_D
_geom_hbond_atom_site_label_H
_geom_hbond_atom_site_label_A
_geom_hbond_distance_DH
_geom_hbond_distance_HA
_geom_hbond_distance_DA
_geom_hbond_angle_DHA
_geom_hbond_site_symmetry_A
_geom_hbond_publ_flag
O1 H1 N1 0.84 1.91 2.7494(13) 174.5 1_556 yes
O2 H2A N4A 0.84 2.04 2.880(8) 174.7 2_666 yes
O2 H2A N4B 0.84 1.88 2.72(2) 175.6 2_666 yes
loop_
_geom_torsion_atom_site_label_1
_geom_torsion_atom_site_label_2
_geom_torsion_atom_site_label_3
_geom_torsion_atom_site_label_4
_geom_torsion
_geom_torsion_site_symmetry_1
_geom_torsion_site_symmetry_2
_geom_torsion_site_symmetry_3
_geom_torsion_site_symmetry_4
_geom_torsion_publ_flag
O1 C1 C2 C3 -179.63(9) . . . . ?
C6 C1 C2 C3 0.61(16) . . . . ?
C1 C2 C3 O2 178.22(10) . . . . ?
C1 C2 C3 C4 -1.72(17) . . . . ?
O2 C3 C4 C5 -178.30(11) . . . . ?
C2 C3 C4 C5 1.65(17) . . . . ?
C3 C4 C5 C6 -0.49(19) . . . . ?
C4 C5 C6 C1 -0.61(18) . . . . ?
O1 C1 C6 C5 -179.22(10) . . . . ?
C2 C1 C6 C5 0.55(17) . . . . ?
C11 N1 C7 C8 -0.79(18) . . . . ?
N1 C7 C8 C9 -0.98(19) . . . . ?
C7 C8 C9 N2B -175(5) . . . . ?
C7 C8 C9 C18 -176.6(3) . . . . ?
C7 C8 C9 C10 1.84(17) . . . . ?
C7 C8 C9 N2A -172.8(5) . . . . ?
N2B C9 C10 C11 174(9) . . . . ?
C18 C9 C10 C11 177.4(3) . . . . ?
C8 C9 C10 C11 -0.99(17) . . . . ?
N2A C9 C10 C11 174.7(4) . . . . ?
C7 N1 C11 C10 1.73(17) . . . . ?
C9 C10 C11 N1 -0.84(18) . . . . ?
C8 C9 N2A N3A -2.1(13) . . . . ?
C10 C9 N2A N3A -177.1(8) . . . . ?
C9 N2A N3A C12A 177.1(8) . . . . ?
N2A N3A C12A C16A 0.8(15) . . . . ?
N2A N3A C12A C13A -179.6(10) . . . . ?
C16A C12A C13A C14A 1.4(7) . . . . ?
N3A C12A C13A C14A -178.2(10) . . . . ?
C12A C13A C14A N4A -0.3(8) . . . . ?
C13A C14A N4A C15A -1.4(8) . . . . ?
C14A N4A C15A C16A 2.1(8) . . . . ?
C13A C12A C16A C15A -0.8(7) . . . . ?
N3A C12A C16A C15A 178.8(10) . . . . ?
N4A C15A C16A C12A -1.0(8) . . . . ?
C16B C12B C13B C14B 0 . . . . ?
C17 C12B C13B C14B 178.5(4) . . . . ?
C12B C13B C14B N4B 0 . . . . ?
C13B C14B N4B C15B 0 . . . . ?
C14B N4B C15B C16B 0 . . . . ?
N4B C15B C16B C12B 0 . . . . ?
C13B C12B C16B C15B 0 . . . . ?
C17 C12B C16B C15B -178.5(4) . . . . ?
C8 C9 N2B N3B 146(9) . . . . ?
C10 C9 N2B N3B -30(17) . . . . ?
