#------------------------------------------------------------------------------
#$Date: 2020-06-06 04:19:29 +0300 (Sat, 06 Jun 2020) $
#$Revision: 252960 $
#$URL: file:///home/coder/svn-repositories/cod/cif/1/55/82/1558236.cif $
#------------------------------------------------------------------------------
#
# This file is available in the Crystallography Open Database (COD),
# http://www.crystallography.net/
#
# All data on this site have been placed in the public domain by the
# contributors.
#
data_1558236
loop_
_publ_author_name
'Ding, Xiaodan'
'Unruh, Daniel K.'
'Groeneman , Ryan'
'Hutchins, Kristin M.'
_publ_section_title
;
 Controlling thermal expansion within mixed cocrystals by tuning molecular
 motion capability
;
_journal_name_full               'Chemical Science'
_journal_paper_doi               10.1039/D0SC02795B
_journal_year                    2020
_chemical_formula_sum            'C17.08 H15.08 N2.92 O2'
_chemical_formula_weight         293.24
_space_group_IT_number           2
_space_group_name_Hall           '-P 1'
_space_group_name_H-M_alt        'P -1'
_symmetry_cell_setting           triclinic
_symmetry_Int_Tables_number      2
_symmetry_space_group_name_Hall  '-P 1'
_symmetry_space_group_name_H-M   'P -1'
_atom_sites_solution_hydrogens   geom
_atom_sites_solution_primary     dual
_atom_sites_solution_secondary   difmap
_audit_creation_date             2020-03-05T13:00:23-00:00
_audit_creation_method           'WinGX routine CIF_UPDATE'
_audit_update_record
;
2020-04-07 deposited with the CCDC.	2020-06-05 downloaded from the CCDC.
;
_cell_angle_alpha                93.323(3)
_cell_angle_beta                 106.8183(17)
_cell_angle_gamma                114.090(2)
_cell_formula_units_Z            2
_cell_length_a                   7.99695(15)
_cell_length_b                   9.8077(3)
_cell_length_c                   10.8728(2)
_cell_measurement_reflns_used    13578
_cell_measurement_temperature    190(2)
_cell_measurement_theta_max      76.991
_cell_measurement_theta_min      4.317
_cell_volume                     729.92(3)
_computing_cell_refinement       'CrysAlisPro 1.171.40.70a (Rigaku OD, 2020)'
_computing_data_collection       'CrysAlisPro 1.171.40.70a (Rigaku OD, 2020)'
_computing_data_reduction        'CrysAlisPro 1.171.40.70a (Rigaku OD, 2020)'
_computing_structure_refinement  'SHELXL-2018/3 (Sheldrick, 2018)'
_computing_structure_solution    'SHELXT 2014/5 (Sheldrick, 2014)'
_diffrn_ambient_environment      N~2~
_diffrn_ambient_temperature      190(2)
_diffrn_detector                 'Hybrid Pixel Array Detector'
_diffrn_detector_area_resol_mean 10
_diffrn_detector_type            HyPix
_diffrn_measured_fraction_theta_full 0.997
_diffrn_measured_fraction_theta_max 0.961
_diffrn_measurement_device       'four-circle diffractometer'
_diffrn_measurement_device_type  'XtaLAB Synergy, Dualflex, HyPix'
_diffrn_measurement_method       '\w scans'
_diffrn_orient_matrix_type
'CrysAlisPro convention (1999,Acta A55,543-557)'
_diffrn_orient_matrix_UB_11      -0.2095436
_diffrn_orient_matrix_UB_12      0.0769724
_diffrn_orient_matrix_UB_13      0.0525786
_diffrn_orient_matrix_UB_21      0.0348092
_diffrn_orient_matrix_UB_22      -0.0595411
_diffrn_orient_matrix_UB_23      0.1415234
_diffrn_orient_matrix_UB_31      0.0334703
_diffrn_orient_matrix_UB_32      0.1462475
_diffrn_orient_matrix_UB_33      -0.0066256
_diffrn_radiation_monochromator  mirror
_diffrn_radiation_probe          x-ray
_diffrn_radiation_type           CuK\a
_diffrn_radiation_wavelength     1.54178
_diffrn_reflns_av_R_equivalents  0.0465
_diffrn_reflns_av_unetI/netI     0.0589
_diffrn_reflns_Laue_measured_fraction_full 0.997
_diffrn_reflns_Laue_measured_fraction_max 0.961
_diffrn_reflns_limit_h_max       10
_diffrn_reflns_limit_h_min       -10
_diffrn_reflns_limit_k_max       12
_diffrn_reflns_limit_k_min       -12
_diffrn_reflns_limit_l_max       13
_diffrn_reflns_limit_l_min       -13
_diffrn_reflns_number            23005
_diffrn_reflns_point_group_measured_fraction_full 0.997
_diffrn_reflns_point_group_measured_fraction_max 0.961
_diffrn_reflns_theta_full        67.679
_diffrn_reflns_theta_max         77.34
_diffrn_reflns_theta_min         4.337
_diffrn_source                   'micro-focus sealed X-ray tube'
_diffrn_source_type              'PhotonJet (Cu) X-ray Source'
_exptl_absorpt_coefficient_mu    0.728
_exptl_absorpt_correction_T_max  1
_exptl_absorpt_correction_T_min  0.362
_exptl_absorpt_correction_type   gaussian
_exptl_absorpt_process_details
;
        CrysAlisPro 1.171.40.70a (Rigaku Oxford Diffraction, 2020)
Numerical absorption correction based on gaussian integration over
                        a multifaceted crystal model
        Empirical absorption correction using spherical harmonics,
 implemented in SCALE3 ABSPACK scaling algorithm.
;
_exptl_crystal_colour            'clear light yellow'
_exptl_crystal_density_diffrn    1.334
_exptl_crystal_description       irregular
_exptl_crystal_F_000             308
_exptl_crystal_size_max          0.269
_exptl_crystal_size_mid          0.156
_exptl_crystal_size_min          0.102
_refine_diff_density_max         0.22
_refine_diff_density_min         -0.153
_refine_diff_density_rms         0.035
_refine_ls_extinction_coef       0.0045(9)
_refine_ls_extinction_expression Fc^*^=kFc[1+0.001xFc^2^\l^3^/sin(2\q)]^-1/4^
_refine_ls_extinction_method     'SHELXL-2018/3 (Sheldrick 2018)'
_refine_ls_goodness_of_fit_ref   1.052
_refine_ls_hydrogen_treatment    constr
_refine_ls_matrix_type           full
_refine_ls_number_parameters     242
_refine_ls_number_reflns         2976
_refine_ls_number_restraints     306
_refine_ls_restrained_S_all      1.007
_refine_ls_R_factor_all          0.0423
_refine_ls_R_factor_gt           0.037
_refine_ls_shift/su_max          0.001
_refine_ls_shift/su_mean         0
_refine_ls_structure_factor_coef Fsqd
_refine_ls_weighting_details
'w=1/[\s^2^(Fo^2^)+(0.0588P)^2^+0.1041P] where P=(Fo^2^+2Fc^2^)/3'
_refine_ls_weighting_scheme      calc
_refine_ls_wR_factor_gt          0.1024
_refine_ls_wR_factor_ref         0.109
_reflns_Friedel_coverage         0
_reflns_number_gt                2596
_reflns_number_total             2976
_reflns_threshold_expression     'I > 2\s(I)'
_cod_data_source_file            d0sc02795b2.cif
_cod_data_source_block           A50_BE50_190
_cod_original_cell_volume        729.91(3)
_cod_database_code               1558236
_shelx_estimated_absorpt_t_min   0.868
_shelx_estimated_absorpt_t_max   0.929
_shelx_shelxl_version_number     2018/3
_shelx_res_file
;
TITL 190_2_a.res in P-1
    190_2_a.res
    created by SHELXL-2018/3 at 12:50:16 on 05-Mar-2020
REM Old TITL 190_2 in P-1
REM SHELXT solution in P-1
REM R1 0.114,  Rweak 0.004,  Alpha 0.027,  Orientation as input
REM Formula found by SHELXT:  C18 N2 O2
CELL  1.54178   7.99695   9.80768  10.87276  93.3225 106.8183 114.0902
ZERR    2.000   0.00015   0.00030   0.00021   0.0026   0.0017   0.0022
LATT  1
SFAC C H N O
UNIT 34.1685 30.1685 5.83144 4
TEMP -83.2
SIZE 0.200 0.109 0.103
L.S. 100
BOND $H
ACTA
LIST 4
FMAP 2
PLAN 20

EQIV $1 -x+1, -y+1, -z+2

HTAB O1 N1
HTAB O2 N4_$1

RIGU
SIMU 0.01 N2A N3A N2B N3B C17 C18

DFIX 1.24 0.01 N2A N3A
DFIX 1.24 0.01 N2B N3B
DFIX 1.32 0.01 C17 C18
DFIX 2.2 0.05 H17 H16
DFIX 51 C9 N2A C9 C17 C12 N3A C12 C18

SUMP 1.0 0.0 1.0 2 1.0 3 1.0 4

WGHT    0.058800    0.104100
EXTI    0.004489
FVAR       0.92097   0.44108   0.54214   0.01678   1.45649
O1    4    0.164554    0.159953    0.309142    11.00000    0.03843    0.04939 =
         0.03503    0.00677    0.01223    0.01846
AFIX 147
H1    2    0.196636    0.184451    0.390837    11.00000   -1.50000
AFIX   0
O2    4    0.824746    0.226562    0.433425    11.00000    0.04150    0.06259 =
         0.03871    0.00045    0.01331    0.02502
AFIX 147
H2A   2    0.829753    0.266094    0.505843    11.00000   -1.50000
AFIX   0
N1    3    0.260756    0.248506    0.575146    11.00000    0.03818    0.05158 =
         0.03863    0.00572    0.01353    0.02120
PART  1
N2A   3    0.218986    0.378506    0.943763    21.00000    0.04109    0.04183 =
         0.02728    0.00263    0.01398    0.01908
N3A   3    0.267501    0.514516    0.983692    21.00000    0.03749    0.03945 =
         0.03073    0.00617    0.01876    0.01350
PART  2
C17   1    0.213672    0.377309    0.935015    31.00000    0.03768    0.03203 =
         0.03375    0.00912    0.00935    0.01674
AFIX  43
H17   2    0.154463    0.297118    0.976179    31.00000   -1.20000
AFIX   0
C18   1    0.265706    0.519123    0.989292    31.00000    0.03492    0.03214 =
         0.03782    0.00710    0.01156    0.01608
AFIX  43
H18   2    0.327470    0.599406    0.949079    31.00000   -1.20000
AFIX   0
PART  3
N2B   3    0.273894    0.465302    0.920598    41.00000    0.03787    0.03706 =
         0.03551    0.00551    0.01217    0.01611
N3B   3    0.183220    0.406719    0.993859    41.00000    0.03754    0.03807 =
         0.03491    0.00630    0.01230    0.01621
PART  0
N4    3    0.175141    0.650708    1.330444    11.00000    0.03483    0.04704 =
         0.03395    0.00401    0.00728    0.01695
C1    1    0.316355    0.155676    0.279581    11.00000    0.03996    0.02878 =
         0.03328    0.00719    0.01371    0.01310
C2    1    0.494142    0.191989    0.376113    11.00000    0.04073    0.03287 =
         0.02817    0.00381    0.01291    0.01433
AFIX  43
H2    2    0.511165    0.219525    0.465674    11.00000   -1.20000
AFIX   0
C3    1    0.647649    0.188209    0.342178    11.00000    0.04016    0.03291 =
         0.03532    0.00477    0.01346    0.01506
C4    1    0.621852    0.144741    0.211002    11.00000    0.05090    0.03855 =
         0.03885    0.00447    0.02232    0.01969
AFIX  43
H4    2    0.724838    0.139891    0.187098    11.00000   -1.20000
AFIX   0
C5    1    0.443850    0.108863    0.116452    11.00000    0.05965    0.03812 =
         0.03019    0.00363    0.01795    0.01969
AFIX  43
H5    2    0.426269    0.080275    0.026945    11.00000   -1.20000
AFIX   0
C6    1    0.290269    0.113350    0.148326    11.00000    0.04686    0.03712 =
         0.03074    0.00497    0.00882    0.01571
AFIX  43
H6    2    0.169015    0.087953    0.081699    11.00000   -1.20000
AFIX   0
C7    1    0.323060    0.395908    0.625114    11.00000    0.04192    0.04754 =
         0.04219    0.01298    0.01847    0.01906
AFIX  43
H7    2    0.373062    0.469156    0.575481    11.00000   -1.20000
AFIX   0
C8    1    0.318752    0.447342    0.744415    11.00000    0.03975    0.03861 =
         0.04183    0.00747    0.01359    0.01652
AFIX  43
H8    2    0.366204    0.553192    0.776303    11.00000   -1.20000
AFIX   0
C9    1    0.243330    0.340710    0.817063    11.00000    0.03110    0.04000 =
         0.03260    0.00591    0.00892    0.01715
C10   1    0.182075    0.188082    0.767416    11.00000    0.03946    0.03983 =
         0.03988    0.00905    0.01303    0.01701
AFIX  43
H10   2    0.132452    0.112371    0.815216    11.00000   -1.20000
AFIX   0
C11   1    0.194221    0.147724    0.647583    11.00000    0.03986    0.04023 =
         0.04247    0.00302    0.01117    0.01753
AFIX  43
H11   2    0.153192    0.043042    0.615075    11.00000   -1.20000
AFIX   0
C12   1    0.232685    0.555748    1.105324    11.00000    0.02944    0.04203 =
         0.03257    0.00780    0.00914    0.01624
C13   1    0.287282    0.707975    1.149726    11.00000    0.03915    0.03888 =
         0.04092    0.00972    0.01298    0.01271
AFIX  43
H13   2    0.345256    0.782757    1.103701    11.00000   -1.20000
AFIX   0
C14   1    0.256629    0.750132    1.261696    11.00000    0.04206    0.03798 =
         0.04211    0.00328    0.00983    0.01397
AFIX  43
H14   2    0.295496    0.855117    1.291208    11.00000   -1.20000
AFIX   0
C15   1    0.121398    0.503293    1.287017    11.00000    0.03702    0.04586 =
         0.03571    0.01201    0.01160    0.01769
AFIX  43
H15   2    0.062469    0.431015    1.334558    11.00000   -1.20000
AFIX   0
C16   1    0.147493    0.450998    1.176191    11.00000    0.03898    0.03871 =
         0.03911    0.00945    0.01244    0.01827
AFIX  43
H16   2    0.107904    0.345419    1.149029    11.00000   -1.20000
AFIX   0
HKLF 4




REM  190_2_a.res in P-1
REM wR2 = 0.109038, GooF = S = 1.05231, Restrained GooF = 1.00735 for all data
REM R1 = 0.036970 for 2596 Fo > 4sig(Fo) and 0.042339 for all 2976 data
REM 242 parameters refined using 306 restraints

END

WGHT      0.0588      0.1041

REM Highest difference peak  0.220,  deepest hole -0.153,  1-sigma level  0.035
Q1    1   0.3420  0.4166  0.7000  11.00000  0.05    0.18
Q2    1   0.1775  0.6777  1.4060  11.00000  0.05    0.17
Q3    1   0.1773  0.4959  1.1213  11.00000  0.05    0.17
Q4    1   0.1263  0.4886  1.2155  11.00000  0.05    0.17
Q5    1   0.2426  0.2226  0.5031  11.00000  0.05    0.16
Q6    1   0.2526  0.5422  1.0596  11.00000  0.05    0.15
Q7    1   0.7947  0.1580  0.4973  11.00000  0.05    0.15
Q8    1  -0.0175  0.2402  1.0919  11.00000  0.05    0.15
Q9    1   0.3058  0.4017  0.7979  11.00000  0.05    0.14
Q10   1   0.1779  0.2593  0.7783  11.00000  0.05    0.13
Q11   1   0.3070  0.1211  0.2174  11.00000  0.05    0.13
Q12   1   0.2974  0.7209  1.2180  11.00000  0.05    0.13
Q13   1   0.7828  0.1132  0.2353  11.00000  0.05    0.13
Q14   1   0.6215  0.1852  0.2649  11.00000  0.05    0.13
Q15   1   0.7382  0.2254  0.5606  11.00000  0.05    0.12
Q16   1   0.4254  0.2238  0.3191  11.00000  0.05    0.12
Q17   1   0.2259  0.3565  0.8594  11.00000  0.05    0.12
Q18   1   0.2794  0.6138  1.1403  11.00000  0.05    0.11
Q19   1   0.3695  0.1230  0.3283  11.00000  0.05    0.11
Q20   1   0.1661  0.1841  0.7062  11.00000  0.05    0.10
;
_shelx_res_checksum              85599
loop_
_symmetry_equiv_pos_as_xyz
'x, y, z'
'-x, -y, -z'
loop_
_atom_site_label
_atom_site_type_symbol
_atom_site_fract_x
_atom_site_fract_y
_atom_site_fract_z
_atom_site_U_iso_or_equiv
_atom_site_adp_type
_atom_site_occupancy
_atom_site_site_symmetry_order
_atom_site_calc_flag
_atom_site_refinement_flags_posn
_atom_site_refinement_flags_adp
_atom_site_refinement_flags_occupancy
_atom_site_disorder_assembly
_atom_site_disorder_group
O1 O 0.16455(12) 0.15995(10) 0.30914(8) 0.0415(2) Uani 1 1 d . . . . .
H1 H 0.196636 0.184451 0.390837 0.062 Uiso 1 1 calc R U . . .
O2 O 0.82475(13) 0.22656(11) 0.43342(8) 0.0475(3) Uani 1 1 d . . . . .
H2A H 0.829753 0.266094 0.505843 0.071 Uiso 1 1 calc R U . . .
N1 N 0.26076(15) 0.24851(13) 0.57515(10) 0.0424(3) Uani 1 1 d . . . . .
N2A N 0.219(2) 0.3785(12) 0.9438(11) 0.0362(18) Uani 0.441(3) 1 d D U P A 1
N3A N 0.268(2) 0.5145(12) 0.9837(11) 0.0355(16) Uani 0.441(3) 1 d D U P A 1
C17 C 0.214(2) 0.3773(11) 0.9350(11) 0.0346(15) Uani 0.542(3) 1 d D U P A 2
H17 H 0.154463 0.297118 0.976179 0.042 Uiso 0.542(3) 1 calc DR U P A 2
C18 C 0.2657(18) 0.5191(11) 0.9893(10) 0.0348(15) Uani 0.542(3) 1 d D U P A 2
H18 H 0.32747 0.599406 0.949079 0.042 Uiso 0.542(3) 1 calc R U P A 2
N2B N 0.274(9) 0.465(8) 0.921(6) 0.037(3) Uani 0.0168(18) 1 d D U P A 3
N3B N 0.183(8) 0.407(7) 0.994(6) 0.037(3) Uani 0.0168(18) 1 d D U P A 3
N4 N 0.17514(14) 0.65071(12) 1.33044(9) 0.0403(2) Uani 1 1 d . . . . .
C1 C 0.31635(17) 0.15568(12) 0.27958(11) 0.0345(3) Uani 1 1 d . . . . .
C2 C 0.49414(17) 0.19199(12) 0.37611(10) 0.0345(3) Uani 1 1 d . . . . .
H2 H 0.511165 0.219525 0.465674 0.041 Uiso 1 1 calc R U . . .
C3 C 0.64765(17) 0.18821(13) 0.34218(11) 0.0365(3) Uani 1 1 d . . . . .
C4 C 0.62185(19) 0.14474(14) 0.21100(12) 0.0413(3) Uani 1 1 d . . . . .
H4 H 0.724838 0.139891 0.187098 0.05 Uiso 1 1 calc R U . . .
C5 C 0.4439(2) 0.10886(14) 0.11645(11) 0.0429(3) Uani 1 1 d . . . . .
H5 H 0.426269 0.080275 0.026945 0.052 Uiso 1 1 calc R U . . .
C6 C 0.29027(19) 0.11335(14) 0.14833(11) 0.0405(3) Uani 1 1 d . . . . .
H6 H 0.169015 0.087953 0.081699 0.049 Uiso 1 1 calc R U . . .
C7 C 0.32306(18) 0.39591(15) 0.62511(12) 0.0430(3) Uani 1 1 d . . . . .
H7 H 0.373062 0.469156 0.575481 0.052 Uiso 1 1 calc R U . . .
C8 C 0.31875(18) 0.44734(14) 0.74441(12) 0.0405(3) Uani 1 1 d . . . . .
H8 H 0.366204 0.553192 0.776303 0.049 Uiso 1 1 calc R U . . .
C9 C 0.24333(16) 0.34071(13) 0.81706(11) 0.0346(3) Uani 1 1 d D . . . .
C10 C 0.18208(18) 0.18808(14) 0.76742(12) 0.0400(3) Uani 1 1 d . . . . .
H10 H 0.132452 0.112371 0.815216 0.048 Uiso 1 1 calc R U . . .
C11 C 0.19422(18) 0.14772(15) 0.64758(12) 0.0419(3) Uani 1 1 d . . . . .
H11 H 0.153192 0.043042 0.615075 0.05 Uiso 1 1 calc R U . . .
C12 C 0.23269(16) 0.55575(14) 1.10532(11) 0.0349(3) Uani 1 1 d D . . . .
C13 C 0.28728(18) 0.70797(14) 1.14973(12) 0.0414(3) Uani 1 1 d . . . . .
H13 H 0.345256 0.782757 1.103701 0.05 Uiso 1 1 calc R U . . .
C14 C 0.25663(19) 0.75013(14) 1.26170(12) 0.0434(3) Uani 1 1 d . . . . .
H14 H 0.295496 0.855117 1.291208 0.052 Uiso 1 1 calc R U . . .
C15 C 0.12140(18) 0.50329(14) 1.28702(11) 0.0398(3) Uani 1 1 d . . . . .
H15 H 0.062469 0.431015 1.334558 0.048 Uiso 1 1 calc R U . . .
C16 C 0.14749(17) 0.45100(14) 1.17619(12) 0.0387(3) Uani 1 1 d . . . . .
H16 H 0.107904 0.345419 1.149029 0.046 Uiso 1 1 calc DR U . . .
loop_
_atom_site_aniso_label
_atom_site_aniso_U_11
_atom_site_aniso_U_22
_atom_site_aniso_U_33
_atom_site_aniso_U_23
_atom_site_aniso_U_13
_atom_site_aniso_U_12
O1 0.0384(5) 0.0494(5) 0.0350(4) 0.0068(4) 0.0122(3) 0.0185(4)
O2 0.0415(5) 0.0626(6) 0.0387(5) 0.0004(4) 0.0133(4) 0.0250(4)
N1 0.0382(5) 0.0516(6) 0.0386(5) 0.0057(4) 0.0135(4) 0.0212(5)
N2A 0.041(3) 0.042(3) 0.027(2) 0.0026(19) 0.014(2) 0.019(2)
N3A 0.037(3) 0.039(3) 0.031(2) 0.006(2) 0.019(2) 0.013(2)
C17 0.038(2) 0.032(2) 0.034(2) 0.0091(18) 0.0093(19) 0.017(2)
C18 0.035(2) 0.032(2) 0.038(3) 0.007(2) 0.012(2) 0.0161(19)
N2B 0.038(5) 0.037(4) 0.036(4) 0.006(4) 0.012(4) 0.016(4)
N3B 0.038(5) 0.038(4) 0.035(4) 0.006(4) 0.012(4) 0.016(4)
N4 0.0348(5) 0.0470(6) 0.0340(5) 0.0040(4) 0.0073(4) 0.0170(5)
C1 0.0400(6) 0.0288(5) 0.0333(6) 0.0072(4) 0.0137(5) 0.0131(5)
C2 0.0407(6) 0.0329(6) 0.0282(5) 0.0038(4) 0.0129(5) 0.0143(5)
C3 0.0402(6) 0.0329(6) 0.0353(6) 0.0048(4) 0.0135(5) 0.0151(5)
C4 0.0509(7) 0.0386(6) 0.0388(6) 0.0045(5) 0.0223(5) 0.0197(6)
C5 0.0597(8) 0.0381(6) 0.0302(6) 0.0036(5) 0.0180(5) 0.0197(6)
C6 0.0469(7) 0.0371(6) 0.0307(6) 0.0050(4) 0.0088(5) 0.0157(5)
C7 0.0419(7) 0.0475(7) 0.0422(6) 0.0130(5) 0.0185(5) 0.0191(6)
C8 0.0397(6) 0.0386(6) 0.0418(6) 0.0075(5) 0.0136(5) 0.0165(5)
C9 0.0311(5) 0.0400(6) 0.0326(6) 0.0059(5) 0.0089(4) 0.0171(5)
C10 0.0395(6) 0.0398(6) 0.0399(6) 0.0091(5) 0.0130(5) 0.0170(5)
C11 0.0399(6) 0.0402(6) 0.0425(6) 0.0030(5) 0.0112(5) 0.0175(5)
C12 0.0294(5) 0.0420(6) 0.0326(6) 0.0078(5) 0.0091(4) 0.0162(5)
C13 0.0391(6) 0.0389(6) 0.0409(6) 0.0097(5) 0.0130(5) 0.0127(5)
C14 0.0421(7) 0.0380(6) 0.0421(6) 0.0033(5) 0.0098(5) 0.0140(5)
C15 0.0370(6) 0.0459(7) 0.0357(6) 0.0120(5) 0.0116(5) 0.0177(5)
C16 0.0390(6) 0.0387(6) 0.0391(6) 0.0094(5) 0.0124(5) 0.0183(5)
loop_
_atom_type_symbol
_atom_type_description
_atom_type_scat_dispersion_real
_atom_type_scat_dispersion_imag
_atom_type_scat_source
C C 0.0181 0.0091 'International Tables Vol C Tables 4.2.6.8 and 6.1.1.4'
H H 0 0 'International Tables Vol C Tables 4.2.6.8 and 6.1.1.4'
N N 0.0311 0.018 'International Tables Vol C Tables 4.2.6.8 and 6.1.1.4'
O O 0.0492 0.0322 'International Tables Vol C Tables 4.2.6.8 and 6.1.1.4'
loop_
_exptl_crystal_face_index_h
_exptl_crystal_face_index_k
_exptl_crystal_face_index_l
_exptl_crystal_face_perp_dist
4 6 1 0.0681
0 6 2 0.0494
-4 -5 -1 0.0905
0 -6 -2 0.0863
3 -3 -2 0.1171
1 1 7 0.036
1 3 -4 0.0457
-2 -4 -7 0.0731
-3 -6 -3 0.0873
2 1 -5 0.0681
0 -3 -6 0.0553
-3 -2 4 0.092
3 -3 2 0.1189
-4 1 -3 0.1384
-1 3 -5 0.0535
0 0 -7 0.0505
loop_
_geom_angle_atom_site_label_1
_geom_angle_atom_site_label_2
_geom_angle_atom_site_label_3
_geom_angle
_geom_angle_site_symmetry_1
_geom_angle_site_symmetry_3
_geom_angle_publ_flag
C1 O1 H1 109.5 . . ?
C3 O2 H2A 109.5 . . ?
C11 N1 C7 117.11(10) . . ?
N3A N2A C9 116.3(9) . . ?
N2A N3A C12 118.0(10) . . ?
C18 C17 C9 122.2(9) . . ?
C18 C17 H17 118.9 . . ?
C9 C17 H17 118.9 . . ?
C17 C18 C12 122.4(9) . . ?
C17 C18 H18 118.8 . . ?
C12 C18 H18 118.8 . . ?
N3B N2B C9 109(6) . . ?
N2B N3B C12 104(6) . . ?
C14 N4 C15 117.34(10) . . ?
O1 C1 C2 121.80(10) . . ?
O1 C1 C6 118.25(10) . . ?
C2 C1 C6 119.94(11) . . ?
C1 C2 C3 120.30(10) . . ?
C1 C2 H2 119.8 . . ?
C3 C2 H2 119.8 . . ?
O2 C3 C2 121.95(10) . . ?
O2 C3 C4 118.06(11) . . ?
C2 C3 C4 119.99(11) . . ?
C5 C4 C3 118.82(11) . . ?
C5 C4 H4 120.6 . . ?
C3 C4 H4 120.6 . . ?
C4 C5 C6 121.95(10) . . ?
C4 C5 H5 119 . . ?
C6 C5 H5 119 . . ?
C5 C6 C1 118.99(11) . . ?
C5 C6 H6 120.5 . . ?
C1 C6 H6 120.5 . . ?
N1 C7 C8 123.79(12) . . ?
N1 C7 H7 118.1 . . ?
C8 C7 H7 118.1 . . ?
C7 C8 C9 118.53(12) . . ?
C7 C8 H8 120.7 . . ?
C9 C8 H8 120.7 . . ?
C10 C9 C8 118.11(11) . . ?
C10 C9 C17 117.8(4) . . ?
C8 C9 C17 124.0(4) . . ?
C10 C9 N2A 117.4(4) . . ?
C8 C9 N2A 124.5(4) . . ?
C10 C9 N2B 151(2) . . ?
C8 C9 N2B 91(2) . . ?
C11 C10 C9 119.13(11) . . ?
C11 C10 H10 120.4 . . ?
C9 C10 H10 120.4 . . ?
N1 C11 C10 123.29(11) . . ?
N1 C11 H11 118.4 . . ?
C10 C11 H11 118.4 . . ?
C13 C12 C16 117.89(11) . . ?
C13 C12 C18 116.8(4) . . ?
C16 C12 C18 125.3(4) . . ?
C13 C12 N3A 117.8(4) . . ?
C16 C12 N3A 124.3(4) . . ?
C13 C12 N3B 154.0(18) . . ?
C16 C12 N3B 87.4(18) . . ?
C14 C13 C12 119.34(12) . . ?
C14 C13 H13 120.3 . . ?
C12 C13 H13 120.3 . . ?
N4 C14 C13 123.28(12) . . ?
N4 C14 H14 118.4 . . ?
C13 C14 H14 118.4 . . ?
N4 C15 C16 123.25(11) . . ?
N4 C15 H15 118.4 . . ?
C16 C15 H15 118.4 . . ?
C15 C16 C12 118.89(11) . . ?
C15 C16 H16 120.6 . . ?
C12 C16 H16 120.6 . . ?
loop_
_geom_bond_atom_site_label_1
_geom_bond_atom_site_label_2
_geom_bond_distance
_geom_bond_site_symmetry_2
_geom_bond_publ_flag
O1 C1 1.3581(14) . ?
O1 H1 0.84 . ?
O2 C3 1.3566(14) . ?
O2 H2A 0.84 . ?
N1 C11 1.3356(17) . ?
N1 C7 1.3408(16) . ?
N2A N3A 1.237(7) . ?
N2A C9 1.493(10) . ?
N3A C12 1.494(10) . ?
C17 C18 1.321(7) . ?
C17 C9 1.422(10) . ?
C17 H17 0.95 . ?
C18 C12 1.417(10) . ?
C18 H18 0.95 . ?
N2B N3B 1.240(10) . ?
N2B C9 1.50(7) . ?
N3B C12 1.68(7) . ?
N4 C14 1.3349(17) . ?
N4 C15 1.3395(16) . ?
C1 C2 1.3891(16) . ?
C1 C6 1.3931(16) . ?
C2 C3 1.3936(16) . ?
C2 H2 0.95 . ?
C3 C4 1.3950(16) . ?
C4 C5 1.3818(18) . ?
C4 H4 0.95 . ?
C5 C6 1.3853(18) . ?
C5 H5 0.95 . ?
C6 H6 0.95 . ?
C7 C8 1.3793(17) . ?
C7 H7 0.95 . ?
C8 C9 1.3921(18) . ?
C8 H8 0.95 . ?
C9 C10 1.3881(16) . ?
C10 C11 1.3815(17) . ?
C10 H10 0.95 . ?
C11 H11 0.95 . ?
C12 C13 1.3839(17) . ?
C12 C16 1.3919(17) . ?
C13 C14 1.3821(18) . ?
C13 H13 0.95 . ?
C14 H14 0.95 . ?
C15 C16 1.3856(17) . ?
C15 H15 0.95 . ?
C16 H16 0.95 . ?
loop_
_geom_hbond_atom_site_label_D
_geom_hbond_atom_site_label_H
_geom_hbond_atom_site_label_A
_geom_hbond_distance_DH
_geom_hbond_distance_HA
_geom_hbond_distance_DA
_geom_hbond_angle_DHA
_geom_hbond_site_symmetry_A
_geom_hbond_publ_flag
O1 H1 N1 0.84 1.92 2.7544(13) 176.2 . yes
O2 H2A N4 0.84 1.93 2.7713(13) 176.6 2_667 yes
