#------------------------------------------------------------------------------
#$Date: 2020-06-06 04:19:29 +0300 (Sat, 06 Jun 2020) $
#$Revision: 252960 $
#$URL: file:///home/coder/svn-repositories/cod/cif/1/55/82/1558249.cif $
#------------------------------------------------------------------------------
#
# This file is available in the Crystallography Open Database (COD),
# http://www.crystallography.net/
#
# All data on this site have been placed in the public domain by the
# contributors.
#
data_1558249
loop_
_publ_author_name
'Ding, Xiaodan'
'Unruh, Daniel K.'
'Groeneman , Ryan'
'Hutchins, Kristin M.'
_publ_section_title
;
 Controlling thermal expansion within mixed cocrystals by tuning molecular
 motion capability
;
_journal_name_full               'Chemical Science'
_journal_paper_doi               10.1039/D0SC02795B
_journal_year                    2020
_chemical_formula_sum            'C16.46 H14.46 N3.54 O2'
_chemical_formula_weight         293.85
_space_group_IT_number           2
_space_group_name_Hall           '-P 1'
_space_group_name_H-M_alt        'P -1'
_symmetry_cell_setting           triclinic
_symmetry_Int_Tables_number      2
_symmetry_space_group_name_Hall  '-P 1'
_symmetry_space_group_name_H-M   'P -1'
_atom_sites_solution_hydrogens   geom
_atom_sites_solution_primary     dual
_atom_sites_solution_secondary   difmap
_audit_creation_date             2020-03-12T16:25:59-00:00
_audit_creation_method           'WinGX routine CIF_UPDATE'
_audit_update_record
;
2020-04-07 deposited with the CCDC.	2020-06-05 downloaded from the CCDC.
;
_cell_angle_alpha                93.9195(13)
_cell_angle_beta                 106.4603(14)
_cell_angle_gamma                113.7186(15)
_cell_formula_units_Z            2
_cell_length_a                   8.02672(12)
_cell_length_b                   9.79494(16)
_cell_length_c                   10.86753(18)
_cell_measurement_reflns_used    12760
_cell_measurement_temperature    270(2)
_cell_measurement_theta_max      75.488
_cell_measurement_theta_min      4.302
_cell_volume                     733.83(2)
_computing_cell_refinement       'CrysAlisPro 1.171.40.70a (Rigaku OD, 2020)'
_computing_data_collection       'CrysAlisPro 1.171.40.70a (Rigaku OD, 2020)'
_computing_data_reduction        'CrysAlisPro 1.171.40.70a (Rigaku OD, 2020)'
_computing_structure_refinement  'SHELXL-2018/3 (Sheldrick, 2018)'
_computing_structure_solution    'SHELXT 2014/5 (Sheldrick, 2014)'
_diffrn_ambient_environment      N~2~
_diffrn_ambient_temperature      270(2)
_diffrn_detector                 'Hybrid Pixel Array Detector'
_diffrn_detector_area_resol_mean 10
_diffrn_detector_type            HyPix
_diffrn_measured_fraction_theta_full 0.998
_diffrn_measured_fraction_theta_max 0.968
_diffrn_measurement_device       'four-circle diffractometer'
_diffrn_measurement_device_type  'XtaLAB Synergy, Dualflex, HyPix'
_diffrn_measurement_method       '\w scans'
_diffrn_orient_matrix_type
'CrysAlisPro convention (1999,Acta A55,543-557)'
_diffrn_orient_matrix_UB_11      -0.0287982
_diffrn_orient_matrix_UB_12      -0.1656182
_diffrn_orient_matrix_UB_13      -0.0028696
_diffrn_orient_matrix_UB_21      -0.0997322
_diffrn_orient_matrix_UB_22      -0.0388472
_diffrn_orient_matrix_UB_23      -0.1499918
_diffrn_orient_matrix_UB_31      0.1973026
_diffrn_orient_matrix_UB_32      0.0436369
_diffrn_orient_matrix_UB_33      -0.018127
_diffrn_radiation_monochromator  mirror
_diffrn_radiation_probe          x-ray
_diffrn_radiation_type           CuK\a
_diffrn_radiation_wavelength     1.54178
_diffrn_reflns_av_R_equivalents  0.0369
_diffrn_reflns_av_unetI/netI     0.0499
_diffrn_reflns_Laue_measured_fraction_full 0.998
_diffrn_reflns_Laue_measured_fraction_max 0.968
_diffrn_reflns_limit_h_max       10
_diffrn_reflns_limit_h_min       -9
_diffrn_reflns_limit_k_max       12
_diffrn_reflns_limit_k_min       -12
_diffrn_reflns_limit_l_max       13
_diffrn_reflns_limit_l_min       -13
_diffrn_reflns_number            27725
_diffrn_reflns_point_group_measured_fraction_full 0.998
_diffrn_reflns_point_group_measured_fraction_max 0.968
_diffrn_reflns_theta_full        67.679
_diffrn_reflns_theta_max         77.344
_diffrn_reflns_theta_min         4.337
_diffrn_source                   'micro-focus sealed X-ray tube'
_diffrn_source_type              'PhotonJet (Cu) X-ray Source'
_exptl_absorpt_coefficient_mu    0.738
_exptl_absorpt_correction_T_max  1
_exptl_absorpt_correction_T_min  0.659
_exptl_absorpt_correction_type   gaussian
_exptl_absorpt_process_details
;
        CrysAlisPro 1.171.40.70a (Rigaku Oxford Diffraction, 2020)
Numerical absorption correction based on gaussian integration over
                        a multifaceted crystal model
        Empirical absorption correction using spherical harmonics,
 implemented in SCALE3 ABSPACK scaling algorithm.
;
_exptl_crystal_colour            'clear yellow'
_exptl_crystal_density_diffrn    1.33
_exptl_crystal_description       plate
_exptl_crystal_F_000             308
_exptl_crystal_size_max          0.219
_exptl_crystal_size_mid          0.132
_exptl_crystal_size_min          0.056
_refine_diff_density_max         0.247
_refine_diff_density_min         -0.178
_refine_diff_density_rms         0.034
_refine_ls_extinction_coef       0.0047(10)
_refine_ls_extinction_expression Fc^*^=kFc[1+0.001xFc^2^\l^3^/sin(2\q)]^-1/4^
_refine_ls_extinction_method     'SHELXL-2018/3 (Sheldrick 2018)'
_refine_ls_goodness_of_fit_ref   1.063
_refine_ls_hydrogen_treatment    constr
_refine_ls_matrix_type           full
_refine_ls_number_parameters     242
_refine_ls_number_reflns         3022
_refine_ls_number_restraints     306
_refine_ls_restrained_S_all      1.027
_refine_ls_R_factor_all          0.0472
_refine_ls_R_factor_gt           0.0422
_refine_ls_shift/su_max          0.001
_refine_ls_shift/su_mean         0
_refine_ls_structure_factor_coef Fsqd
_refine_ls_weighting_details
'w=1/[\s^2^(Fo^2^)+(0.0667P)^2^+0.0966P] where P=(Fo^2^+2Fc^2^)/3'
_refine_ls_weighting_scheme      calc
_refine_ls_wR_factor_gt          0.1206
_refine_ls_wR_factor_ref         0.1254
_reflns_Friedel_coverage         0
_reflns_number_gt                2606
_reflns_number_total             3022
_reflns_threshold_expression     'I > 2\s(I)'
_cod_data_source_file            d0sc02795b2.cif
_cod_data_source_block           A75_BE25_270
_cod_database_code               1558249
_shelx_estimated_absorpt_t_min   0.855
_shelx_estimated_absorpt_t_max   0.96
_shelx_shelxl_version_number     2018/3
_shelx_res_file
;
TITL 270_a.res in P-1
    270_a.res
    created by SHELXL-2018/3 at 15:21:13 on 12-Mar-2020
REM Old TITL 270 in P-1

REM SHELXT solution in P-1
REM R1 0.131,  Rweak 0.005,  Alpha 0.033,  Orientation as input
REM Formula found by SHELXT:  C18 N2 O2

CELL  1.54178   8.026725   9.794936  10.867533  93.9195 106.4603 113.7186
ZERR    2.000   0.000121   0.000156   0.000178   0.0013   0.0014   0.0015
LATT  1
SFAC C H N O
UNIT 32.9191 28.9191 7.08084 4
TEMP -3.2
SIZE 0.219 0.132 0.056
L.S. 100
BOND $H
ACTA
LIST 4
FMAP 2
PLAN 20

EQIV $1 -x+1, -y+1, -z+2

HTAB O1 N1
HTAB O2 N4_$1

RIGU
SIMU 0.01 N2A N3A N2B N3B C17 C18

DFIX 1.24 0.01 N2A N3A
DFIX 1.24 0.01 N2B N3B
DFIX 1.32 0.01 C17 C18
DFIX 2.2 0.01 H8 H18
DFIX 51 C9 N2A C9 C17 C12 N3A C12 C18

SUMP 1.0 0.0 1.0 2 1.0 3 1.0 4

WGHT    0.066700    0.096600
EXTI    0.004702
FVAR       0.88144   0.67679   0.22978   0.09342   1.41668
O1    4    0.165919    0.158536    0.311736    11.00000    0.05517    0.07007 =
         0.04767    0.00702    0.01817    0.02522
AFIX 147
H1    2    0.197343    0.184141    0.391441    11.00000   -1.50000
AFIX   0
O2    4    0.821043    0.223017    0.433789    11.00000    0.06021    0.09124 =
         0.05402   -0.00188    0.01909    0.03674
AFIX 147
H2A   2    0.825295    0.260296    0.505162    11.00000   -1.50000
AFIX   0
N1    3    0.260195    0.248810    0.579190    11.00000    0.05448    0.06831 =
         0.04939    0.00580    0.02014    0.02781
PART  1
N2A   3    0.213437    0.377764    0.942688    21.00000    0.05791    0.04989 =
         0.04346    0.00723    0.01939    0.02462
N3A   3    0.263426    0.514813    0.980300    21.00000    0.05375    0.04943 =
         0.03918    0.00681    0.02056    0.02130
PART  2
C17   1    0.215468    0.376224    0.939622    31.00000    0.05556    0.05114 =
         0.04610    0.00802    0.01694    0.02279
AFIX  43
H17   2    0.151413    0.295151    0.974750    31.00000   -1.20000
AFIX   0
C18   1    0.276445    0.516304    1.003146    31.00000    0.05658    0.04961 =
         0.04073    0.00858    0.01374    0.01696
AFIX  43
H18   2    0.357397    0.595897    0.974693    31.00000   -1.20000
AFIX   0
PART  3
N2B   3    0.279817    0.471978    0.928875    41.00000    0.05537    0.05493 =
         0.04870    0.00559    0.02134    0.02246
N3B   3    0.188420    0.401963    0.997585    41.00000    0.05389    0.05560 =
         0.04856    0.00689    0.01896    0.02136
PART  0
N4    3    0.176731    0.649931    1.328070    11.00000    0.05084    0.06370 =
         0.04489    0.00307    0.01300    0.02429
C1    1    0.317396    0.154358    0.281723    11.00000    0.05573    0.04191 =
         0.04415    0.00832    0.02027    0.01873
C2    1    0.492724    0.188920    0.377445    11.00000    0.05721    0.04773 =
         0.03839    0.00438    0.01919    0.02047
AFIX  43
H2    2    0.508427    0.214411    0.465361    11.00000   -1.20000
AFIX   0
C3    1    0.645478    0.185785    0.343057    11.00000    0.05742    0.04889 =
         0.04660    0.00487    0.02004    0.02257
C4    1    0.620546    0.143892    0.211737    11.00000    0.07119    0.05582 =
         0.05232    0.00485    0.03218    0.02745
AFIX  43
H4    2    0.720775    0.139098    0.187756    11.00000   -1.20000
AFIX   0
C5    1    0.444885    0.109634    0.117829    11.00000    0.07974    0.05668 =
         0.04137    0.00481    0.02587    0.02741
AFIX  43
H5    2    0.428382    0.082487    0.029985    11.00000   -1.20000
AFIX   0
C6    1    0.292479    0.114399    0.150250    11.00000    0.06534    0.05471 =
         0.04085    0.00612    0.01443    0.02294
AFIX  43
H6    2    0.175320    0.091280    0.085258    11.00000   -1.20000
AFIX   0
C7    1    0.323249    0.396342    0.628681    11.00000    0.06182    0.06269 =
         0.05789    0.01633    0.02701    0.02537
AFIX  43
H7    2    0.372437    0.467005    0.579901    11.00000   -1.20000
AFIX   0
C8    1    0.319387    0.449583    0.748156    11.00000    0.06143    0.05320 =
         0.05695    0.00622    0.01936    0.02529
AFIX  43
H8    2    0.366412    0.553449    0.779654    11.00000   -1.20000
AFIX   0
C9    1    0.243583    0.344205    0.819997    11.00000    0.04802    0.06310 =
         0.04242    0.00636    0.01328    0.02868
C10   1    0.181670    0.191958    0.770931    11.00000    0.05876    0.05913 =
         0.05161    0.01188    0.02080    0.02445
AFIX  43
H10   2    0.132995    0.118851    0.817971    11.00000   -1.20000
AFIX   0
C11   1    0.192971    0.149923    0.651579    11.00000    0.05918    0.05480 =
         0.05543    0.00360    0.01863    0.02343
AFIX  43
H11   2    0.151498    0.046973    0.619601    11.00000   -1.20000
AFIX   0
C12   1    0.231010    0.551208    1.103484    11.00000    0.04806    0.06880 =
         0.04189    0.00945    0.01538    0.02903
C13   1    0.286127    0.702327    1.146914    11.00000    0.05985    0.06094 =
         0.05501    0.01314    0.02215    0.02079
AFIX  43
H13   2    0.342344    0.774285    1.101292    11.00000   -1.20000
AFIX   0
C14   1    0.257540    0.746251    1.258213    11.00000    0.06097    0.05340 =
         0.05824    0.00429    0.01640    0.02027
AFIX  43
H14   2    0.296865    0.849565    1.286869    11.00000   -1.20000
AFIX   0
C15   1    0.121348    0.502025    1.285544    11.00000    0.05451    0.06176 =
         0.04931    0.01488    0.01876    0.02456
AFIX  43
H15   2    0.063900    0.432813    1.332708    11.00000   -1.20000
AFIX   0
C16   1    0.145769    0.447101    1.174072    11.00000    0.06137    0.05565 =
         0.05432    0.00660    0.01582    0.02923
AFIX  43
H16   2    0.106224    0.343426    1.147192    11.00000   -1.20000
AFIX   0
HKLF 4




REM  270_a.res in P-1
REM wR2 = 0.125402, GooF = S = 1.06312, Restrained GooF = 1.02679 for all data
REM R1 = 0.042212 for 2606 Fo > 4sig(Fo) and 0.047226 for all 3022 data
REM 242 parameters refined using 306 restraints

END

WGHT      0.0667      0.0966

REM Highest difference peak  0.247,  deepest hole -0.178,  1-sigma level  0.034
Q1    1   0.1775  0.4777  1.1159  11.00000  0.05    0.25
Q2    1   0.2856  0.4000  0.7981  11.00000  0.05    0.17
Q3    1   0.1790  0.6719  1.4035  11.00000  0.05    0.16
Q4    1   0.2987  0.5816  0.9146  11.00000  0.05    0.16
Q5    1   0.2643  0.2287  0.5149  11.00000  0.05    0.15
Q6    1   0.1894  0.2816  0.7843  11.00000  0.05    0.15
Q7    1   0.7756  0.1558  0.4818  11.00000  0.05    0.13
Q8    1   0.8040  0.1389  0.2190  11.00000  0.05    0.12
Q9    1   0.3218  0.1377  0.2195  11.00000  0.05    0.11
Q10   1   0.3687  0.4235  0.7217  11.00000  0.05    0.10
Q11   1   0.2492  0.1878  0.4435  11.00000  0.05    0.10
Q12   1   0.9420  0.1832  0.2466  11.00000  0.05    0.09
Q13   1   0.3447  0.0819  0.1460  11.00000  0.05    0.09
Q14   1   0.6262  0.1582  0.2800  11.00000  0.05    0.09
Q15   1   0.8617  0.1142  0.3770  11.00000  0.05    0.09
Q16   1   0.9014  0.1368  0.2935  11.00000  0.05    0.08
Q17   1   0.2028  0.0713  0.3307  11.00000  0.05    0.08
Q18   1   0.2482 -0.0228 -0.0736  11.00000  0.05    0.08
Q19   1   0.3422  0.1136  0.3027  11.00000  0.05    0.08
Q20   1   0.2059  0.0117 -0.0722  11.00000  0.05    0.08
;
_shelx_res_checksum              52533
loop_
_symmetry_equiv_pos_as_xyz
'x, y, z'
'-x, -y, -z'
loop_
_atom_site_label
_atom_site_type_symbol
_atom_site_fract_x
_atom_site_fract_y
_atom_site_fract_z
_atom_site_U_iso_or_equiv
_atom_site_adp_type
_atom_site_occupancy
_atom_site_site_symmetry_order
_atom_site_calc_flag
_atom_site_refinement_flags_posn
_atom_site_refinement_flags_adp
_atom_site_refinement_flags_occupancy
_atom_site_disorder_assembly
_atom_site_disorder_group
O1 O 0.16592(14) 0.15854(12) 0.31174(9) 0.0586(3) Uani 1 1 d . . . . .
H1 H 0.197343 0.184141 0.391441 0.088 Uiso 1 1 calc R U . . .
O2 O 0.82104(15) 0.22302(14) 0.43379(10) 0.0683(3) Uani 1 1 d . . . . .
H2A H 0.825295 0.260296 0.505162 0.102 Uiso 1 1 calc R U . . .
N1 N 0.26020(17) 0.24881(14) 0.57919(11) 0.0569(3) Uani 1 1 d . . . . .
N2A N 0.2134(19) 0.3778(8) 0.9427(9) 0.0497(9) Uani 0.677(3) 1 d D U P A 1
N3A N 0.2634(10) 0.5148(7) 0.9803(4) 0.0470(8) Uani 0.677(3) 1 d D U P A 1
C17 C 0.215(7) 0.376(3) 0.940(3) 0.051(3) Uani 0.230(3) 1 d D U P A 2
H17 H 0.151413 0.295151 0.97475 0.062 Uiso 0.230(3) 1 calc R U P A 2
C18 C 0.276(4) 0.516(3) 1.0031(14) 0.052(2) Uani 0.230(3) 1 d D U P A 2
H18 H 0.357397 0.595897 0.974693 0.062 Uiso 0.230(3) 1 calc DR U P A 2
N2B N 0.2798(19) 0.4720(18) 0.9289(13) 0.053(2) Uani 0.093(2) 1 d D U P A 3
N3B N 0.1884(18) 0.4020(16) 0.9976(14) 0.053(2) Uani 0.093(2) 1 d D U P A 3
N4 N 0.17673(16) 0.64993(13) 1.32807(10) 0.0547(3) Uani 1 1 d . . . . .
C1 C 0.31740(19) 0.15436(13) 0.28172(12) 0.0475(3) Uani 1 1 d . . . . .
C2 C 0.49272(19) 0.18892(14) 0.37744(12) 0.0483(3) Uani 1 1 d . . . . .
H2 H 0.508427 0.214411 0.465361 0.058 Uiso 1 1 calc R U . . .
C3 C 0.6455(2) 0.18578(14) 0.34306(12) 0.0510(3) Uani 1 1 d . . . . .
C4 C 0.6205(2) 0.14389(16) 0.21174(14) 0.0577(3) Uani 1 1 d . . . . .
H4 H 0.720775 0.139098 0.187756 0.069 Uiso 1 1 calc R U . . .
C5 C 0.4449(2) 0.10963(16) 0.11783(13) 0.0593(4) Uani 1 1 d . . . . .
H5 H 0.428382 0.082487 0.029985 0.071 Uiso 1 1 calc R U . . .
C6 C 0.2925(2) 0.11440(15) 0.15025(13) 0.0559(3) Uani 1 1 d . . . . .
H6 H 0.17532 0.09128 0.085258 0.067 Uiso 1 1 calc R U . . .
C7 C 0.3232(2) 0.39634(17) 0.62868(14) 0.0598(4) Uani 1 1 d . . . . .
H7 H 0.372437 0.467005 0.579901 0.072 Uiso 1 1 calc R U . . .
C8 C 0.3194(2) 0.44958(16) 0.74816(14) 0.0576(3) Uani 1 1 d . . . . .
H8 H 0.366412 0.553449 0.779654 0.069 Uiso 1 1 calc DR U . . .
C9 C 0.24358(19) 0.34421(16) 0.82000(12) 0.0505(3) Uani 1 1 d D . . . .
C10 C 0.1817(2) 0.19196(16) 0.77093(13) 0.0565(3) Uani 1 1 d . . . . .
H10 H 0.132995 0.118851 0.817971 0.068 Uiso 1 1 calc R U . . .
C11 C 0.1930(2) 0.14992(16) 0.65158(14) 0.0577(3) Uani 1 1 d . . . . .
H11 H 0.151498 0.046973 0.619601 0.069 Uiso 1 1 calc R U . . .
C12 C 0.23101(19) 0.55121(16) 1.10348(12) 0.0519(3) Uani 1 1 d D . . . .
C13 C 0.2861(2) 0.70233(17) 1.14691(14) 0.0600(4) Uani 1 1 d . . . . .
H13 H 0.342344 0.774285 1.101292 0.072 Uiso 1 1 calc R U . . .
C14 C 0.2575(2) 0.74625(16) 1.25821(14) 0.0606(4) Uani 1 1 d . . . . .
H14 H 0.296865 0.849565 1.286869 0.073 Uiso 1 1 calc R U . . .
C15 C 0.1213(2) 0.50203(16) 1.28554(13) 0.0551(3) Uani 1 1 d . . . . .
H15 H 0.0639 0.432813 1.332708 0.066 Uiso 1 1 calc R U . . .
C16 C 0.1458(2) 0.44710(16) 1.17407(14) 0.0571(3) Uani 1 1 d . . . . .
H16 H 0.106224 0.343426 1.147192 0.068 Uiso 1 1 calc R U . . .
loop_
_atom_site_aniso_label
_atom_site_aniso_U_11
_atom_site_aniso_U_22
_atom_site_aniso_U_33
_atom_site_aniso_U_23
_atom_site_aniso_U_13
_atom_site_aniso_U_12
O1 0.0552(6) 0.0701(6) 0.0477(5) 0.0070(4) 0.0182(4) 0.0252(5)
O2 0.0602(6) 0.0912(8) 0.0540(6) -0.0019(5) 0.0191(5) 0.0367(6)
N1 0.0545(6) 0.0683(7) 0.0494(6) 0.0058(5) 0.0201(5) 0.0278(5)
N2A 0.0579(15) 0.0499(14) 0.0435(14) 0.0072(12) 0.0194(13) 0.0246(13)
N3A 0.0538(16) 0.0494(12) 0.0392(16) 0.0068(14) 0.0206(17) 0.0213(11)
C17 0.056(4) 0.051(4) 0.046(4) 0.008(4) 0.017(4) 0.023(4)
C18 0.057(4) 0.050(3) 0.041(4) 0.009(3) 0.014(3) 0.017(3)
N2B 0.055(4) 0.055(4) 0.049(4) 0.006(3) 0.021(3) 0.022(3)
N3B 0.054(4) 0.056(4) 0.049(4) 0.007(3) 0.019(3) 0.021(3)
N4 0.0508(6) 0.0637(7) 0.0449(6) 0.0031(5) 0.0130(5) 0.0243(5)
C1 0.0557(7) 0.0419(6) 0.0442(6) 0.0083(5) 0.0203(5) 0.0187(5)
C2 0.0572(7) 0.0477(6) 0.0384(6) 0.0044(5) 0.0192(5) 0.0205(5)
C3 0.0574(7) 0.0489(6) 0.0466(7) 0.0049(5) 0.0200(6) 0.0226(6)
C4 0.0712(9) 0.0558(7) 0.0523(7) 0.0048(6) 0.0322(7) 0.0274(7)
C5 0.0797(10) 0.0567(7) 0.0414(7) 0.0048(5) 0.0259(7) 0.0274(7)
C6 0.0653(8) 0.0547(7) 0.0408(6) 0.0061(5) 0.0144(6) 0.0229(6)
C7 0.0618(8) 0.0627(8) 0.0579(8) 0.0163(6) 0.0270(7) 0.0254(7)
C8 0.0614(8) 0.0532(7) 0.0569(8) 0.0062(6) 0.0194(6) 0.0253(6)
C9 0.0480(7) 0.0631(8) 0.0424(6) 0.0064(5) 0.0133(5) 0.0287(6)
C10 0.0588(8) 0.0591(8) 0.0516(7) 0.0119(6) 0.0208(6) 0.0245(6)
C11 0.0592(8) 0.0548(7) 0.0554(8) 0.0036(6) 0.0186(6) 0.0234(6)
C12 0.0481(7) 0.0688(8) 0.0419(6) 0.0094(6) 0.0154(5) 0.0290(6)
C13 0.0598(8) 0.0609(8) 0.0550(8) 0.0131(6) 0.0222(6) 0.0208(6)
C14 0.0610(8) 0.0534(7) 0.0582(8) 0.0043(6) 0.0164(7) 0.0203(6)
C15 0.0545(7) 0.0618(8) 0.0493(7) 0.0149(6) 0.0188(6) 0.0246(6)
C16 0.0614(8) 0.0557(7) 0.0543(7) 0.0066(6) 0.0158(6) 0.0292(6)
loop_
_atom_type_symbol
_atom_type_description
_atom_type_scat_dispersion_real
_atom_type_scat_dispersion_imag
_atom_type_scat_source
C C 0.0181 0.0091 'International Tables Vol C Tables 4.2.6.8 and 6.1.1.4'
H H 0 0 'International Tables Vol C Tables 4.2.6.8 and 6.1.1.4'
N N 0.0311 0.018 'International Tables Vol C Tables 4.2.6.8 and 6.1.1.4'
O O 0.0492 0.0322 'International Tables Vol C Tables 4.2.6.8 and 6.1.1.4'
loop_
_exptl_crystal_face_index_h
_exptl_crystal_face_index_k
_exptl_crystal_face_index_l
_exptl_crystal_face_perp_dist
-1 6 -1 0.055
0 4 4 0.0525
0 -6 2 0.0757
3 -6 0 0.0674
5 -1 0 0.0887
5 0 -3 0.0947
0 0 7 0.026
0 0 -7 0.0283
-2 -3 -2 0.0761
-5 0 3 0.0919
loop_
_geom_angle_atom_site_label_1
_geom_angle_atom_site_label_2
_geom_angle_atom_site_label_3
_geom_angle
_geom_angle_site_symmetry_1
_geom_angle_site_symmetry_3
_geom_angle_publ_flag
C1 O1 H1 109.5 . . ?
C3 O2 H2A 109.5 . . ?
C11 N1 C7 117.15(12) . . ?
N3A N2A C9 113.2(6) . . ?
N2A N3A C12 114.2(5) . . ?
C18 C17 C9 122.6(19) . . ?
C18 C17 H17 118.7 . . ?
C9 C17 H17 118.7 . . ?
C12 C18 C17 124.6(19) . . ?
C12 C18 H18 117.7 . . ?
C17 C18 H18 117.7 . . ?
N3B N2B C9 103.3(14) . . ?
N2B N3B C12 97.8(13) . . ?
C14 N4 C15 117.24(12) . . ?
O1 C1 C2 122.00(11) . . ?
O1 C1 C6 118.01(12) . . ?
C2 C1 C6 119.98(12) . . ?
C1 C2 C3 120.45(11) . . ?
C1 C2 H2 119.8 . . ?
C3 C2 H2 119.8 . . ?
O2 C3 C2 122.15(11) . . ?
O2 C3 C4 118.04(12) . . ?
C2 C3 C4 119.80(13) . . ?
C5 C4 C3 118.91(13) . . ?
C5 C4 H4 120.5 . . ?
C3 C4 H4 120.5 . . ?
C4 C5 C6 121.99(12) . . ?
C4 C5 H5 119 . . ?
C6 C5 H5 119 . . ?
C5 C6 C1 118.84(13) . . ?
C5 C6 H6 120.6 . . ?
C1 C6 H6 120.6 . . ?
N1 C7 C8 123.59(13) . . ?
N1 C7 H7 118.2 . . ?
C8 C7 H7 118.2 . . ?
C7 C8 C9 118.22(13) . . ?
C7 C8 H8 120.9 . . ?
C9 C8 H8 120.9 . . ?
C10 C9 C8 118.59(12) . . ?
C10 C9 C17 115.1(12) . . ?
C8 C9 C17 126.3(12) . . ?
C10 C9 N2A 115.3(3) . . ?
C8 C9 N2A 126.0(3) . . ?
C10 C9 N2B 150.3(5) . . ?
C8 C9 N2B 91.0(5) . . ?
C11 C10 C9 118.97(13) . . ?
C11 C10 H10 120.5 . . ?
C9 C10 H10 120.5 . . ?
N1 C11 C10 123.43(13) . . ?
N1 C11 H11 118.3 . . ?
C10 C11 H11 118.3 . . ?
C18 C12 C13 116.8(12) . . ?
C18 C12 C16 124.4(12) . . ?
C13 C12 C16 118.57(12) . . ?
C13 C12 N3A 115.0(3) . . ?
C16 C12 N3A 126.4(3) . . ?
C13 C12 N3B 154.8(4) . . ?
C16 C12 N3B 86.3(4) . . ?
C14 C13 C12 119.13(13) . . ?
C14 C13 H13 120.4 . . ?
C12 C13 H13 120.4 . . ?
N4 C14 C13 123.88(13) . . ?
N4 C14 H14 118.1 . . ?
C13 C14 H14 118.1 . . ?
N4 C15 C16 122.88(13) . . ?
N4 C15 H15 118.6 . . ?
C16 C15 H15 118.6 . . ?
C15 C16 C12 118.30(13) . . ?
C15 C16 H16 120.9 . . ?
C12 C16 H16 120.9 . . ?
loop_
_geom_bond_atom_site_label_1
_geom_bond_atom_site_label_2
_geom_bond_distance
_geom_bond_site_symmetry_2
_geom_bond_publ_flag
O1 C1 1.3599(16) . ?
O1 H1 0.82 . ?
O2 C3 1.3569(17) . ?
O2 H2A 0.82 . ?
N1 C11 1.3313(19) . ?
N1 C7 1.3359(18) . ?
N2A N3A 1.236(4) . ?
N2A C9 1.460(6) . ?
N3A C12 1.481(3) . ?
C17 C18 1.318(10) . ?
C17 C9 1.42(2) . ?
C17 H17 0.93 . ?
C18 C12 1.309(12) . ?
C18 H18 0.93 . ?
N2B N3B 1.242(10) . ?
N2B C9 1.536(16) . ?
N3B C12 1.650(16) . ?
N4 C14 1.3311(19) . ?
N4 C15 1.3356(18) . ?
C1 C2 1.3843(18) . ?
C1 C6 1.3904(17) . ?
C2 C3 1.3901(18) . ?
C2 H2 0.93 . ?
C3 C4 1.3918(18) . ?
C4 C5 1.378(2) . ?
C4 H4 0.93 . ?
C5 C6 1.382(2) . ?
C5 H5 0.93 . ?
C6 H6 0.93 . ?
C7 C8 1.379(2) . ?
C7 H7 0.93 . ?
C8 C9 1.385(2) . ?
C8 H8 0.93 . ?
C9 C10 1.3784(19) . ?
C10 C11 1.3725(19) . ?
C10 H10 0.93 . ?
C11 H11 0.93 . ?
C12 C13 1.367(2) . ?
C12 C16 1.393(2) . ?
C13 C14 1.366(2) . ?
C13 H13 0.93 . ?
C14 H14 0.93 . ?
C15 C16 1.3877(19) . ?
C15 H15 0.93 . ?
C16 H16 0.93 . ?
loop_
_geom_hbond_atom_site_label_D
_geom_hbond_atom_site_label_H
_geom_hbond_atom_site_label_A
_geom_hbond_distance_DH
_geom_hbond_distance_HA
_geom_hbond_distance_DA
_geom_hbond_angle_DHA
_geom_hbond_site_symmetry_A
_geom_hbond_publ_flag
O1 H1 N1 0.82 1.95 2.7688(14) 176.7 . yes
O2 H2A N4 0.82 1.97 2.7861(14) 177.1 2_667 yes
