#------------------------------------------------------------------------------
#$Date: 2020-06-06 04:11:42 +0300 (Sat, 06 Jun 2020) $
#$Revision: 252959 $
#$URL: file:///home/coder/svn-repositories/cod/cif/1/55/82/1558202.cif $
#------------------------------------------------------------------------------
#
# This file is available in the Crystallography Open Database (COD),
# http://www.crystallography.net/
#
# All data on this site have been placed in the public domain by the
# contributors.
#
data_1558202
loop_
_publ_author_name
'Ding, Xiaodan'
'Unruh, Daniel K.'
'Groeneman , Ryan'
'Hutchins, Kristin M.'
_publ_section_title
;
 Controlling thermal expansion within mixed cocrystals by tuning molecular
 motion capability
;
_journal_name_full               'Chemical Science'
_journal_paper_doi               10.1039/D0SC02795B
_journal_year                    2020
_chemical_formula_sum            'C18 H14.6 N2 O2'
_chemical_formula_weight         290.92
_space_group_IT_number           2
_space_group_name_Hall           '-P 1'
_space_group_name_H-M_alt        'P -1'
_symmetry_cell_setting           triclinic
_symmetry_Int_Tables_number      2
_symmetry_space_group_name_Hall  '-P 1'
_symmetry_space_group_name_H-M   'P -1'
_atom_sites_solution_hydrogens   geom
_atom_sites_solution_primary     dual
_atom_sites_solution_secondary   difmap
_audit_creation_date             2020-04-02T10:39:35-00:00
_audit_creation_method           'WinGX routine CIF_UPDATE'
_audit_update_record
;
2020-04-08 deposited with the CCDC.	2020-06-05 downloaded from the CCDC.
;
_cell_angle_alpha                92.5489(11)
_cell_angle_beta                 107.9571(13)
_cell_angle_gamma                114.4335(14)
_cell_formula_units_Z            2
_cell_length_a                   8.23553(13)
_cell_length_b                   9.85058(13)
_cell_length_c                   10.96006(14)
_cell_measurement_reflns_used    9266
_cell_measurement_temperature    290(2)
_cell_measurement_theta_max      77.052
_cell_measurement_theta_min      4.309
_cell_volume                     754.73(2)
_computing_cell_refinement       'CrysAlisPro 1.171.40.65a (Rigaku OD, 2019)'
_computing_data_collection       'CrysAlisPro 1.171.40.65a (Rigaku OD, 2019)'
_computing_data_reduction        'CrysAlisPro 1.171.40.65a (Rigaku OD, 2019)'
_computing_structure_refinement  'SHELXL-2018/3 (Sheldrick, 2018)'
_computing_structure_solution    'SHELXT 2014/5 (Sheldrick, 2014)'
_diffrn_ambient_environment      air
_diffrn_ambient_temperature      290(2)
_diffrn_detector                 'Hybrid Pixel Array Detector'
_diffrn_detector_area_resol_mean 10
_diffrn_detector_type            HyPix
_diffrn_measured_fraction_theta_full 1
_diffrn_measured_fraction_theta_max 0.969
_diffrn_measurement_device       'four-circle diffractometer'
_diffrn_measurement_device_type  'XtaLAB Synergy, Dualflex, HyPix'
_diffrn_measurement_method       '\w scans'
_diffrn_orient_matrix_type
'CrysAlisPro convention (1999,Acta A55,543-557)'
_diffrn_orient_matrix_UB_11      -0.1801461
_diffrn_orient_matrix_UB_12      -0.0484094
_diffrn_orient_matrix_UB_13      0.0358314
_diffrn_orient_matrix_UB_21      0.1263725
_diffrn_orient_matrix_UB_22      0.0763639
_diffrn_orient_matrix_UB_23      0.1439825
_diffrn_orient_matrix_UB_31      -0.0067914
_diffrn_orient_matrix_UB_32      0.1501464
_diffrn_orient_matrix_UB_33      -0.0267269
_diffrn_radiation_monochromator  mirror
_diffrn_radiation_probe          x-ray
_diffrn_radiation_type           CuK\a
_diffrn_radiation_wavelength     1.54178
_diffrn_reflns_av_R_equivalents  0.0293
_diffrn_reflns_av_unetI/netI     0.0439
_diffrn_reflns_Laue_measured_fraction_full 1
_diffrn_reflns_Laue_measured_fraction_max 0.969
_diffrn_reflns_limit_h_max       10
_diffrn_reflns_limit_h_min       -10
_diffrn_reflns_limit_k_max       12
_diffrn_reflns_limit_k_min       -9
_diffrn_reflns_limit_l_max       13
_diffrn_reflns_limit_l_min       -13
_diffrn_reflns_number            14795
_diffrn_reflns_point_group_measured_fraction_full 1
_diffrn_reflns_point_group_measured_fraction_max 0.969
_diffrn_reflns_theta_full        67.679
_diffrn_reflns_theta_max         77.252
_diffrn_reflns_theta_min         4.327
_diffrn_source                   'micro-focus sealed X-ray tube'
_diffrn_source_type              'PhotonJet (Cu) X-ray Source'
_exptl_absorpt_coefficient_mu    0.684
_exptl_absorpt_correction_T_max  1
_exptl_absorpt_correction_T_min  0.8615
_exptl_absorpt_correction_type   multi-scan
_exptl_absorpt_process_details
;
        CrysAlisPro 1.171.40.65a (Rigaku Oxford Diffraction, 2019)
        Empirical absorption correction using spherical harmonics,
 implemented in SCALE3 ABSPACK scaling algorithm.
;
_exptl_crystal_colour            'clear colourless'
_exptl_crystal_density_diffrn    1.28
_exptl_crystal_description       irregular
_exptl_crystal_F_000             305
_exptl_crystal_size_max          0.209
_exptl_crystal_size_mid          0.094
_exptl_crystal_size_min          0.082
_refine_diff_density_max         0.141
_refine_diff_density_min         -0.139
_refine_diff_density_rms         0.028
_refine_ls_extinction_coef       0.0042(8)
_refine_ls_extinction_expression Fc^*^=kFc[1+0.001xFc^2^\l^3^/sin(2\q)]^-1/4^
_refine_ls_extinction_method     'SHELXL-2018/3 (Sheldrick 2018)'
_refine_ls_goodness_of_fit_ref   1.055
_refine_ls_hydrogen_treatment    constr
_refine_ls_matrix_type           full
_refine_ls_number_parameters     265
_refine_ls_number_reflns         3117
_refine_ls_number_restraints     438
_refine_ls_restrained_S_all      0.997
_refine_ls_R_factor_all          0.0401
_refine_ls_R_factor_gt           0.0356
_refine_ls_shift/su_max          0
_refine_ls_shift/su_mean         0
_refine_ls_structure_factor_coef Fsqd
_refine_ls_weighting_details
'w=1/[\s^2^(Fo^2^)+(0.0530P)^2^+0.0536P] where P=(Fo^2^+2Fc^2^)/3'
_refine_ls_weighting_scheme      calc
_refine_ls_wR_factor_gt          0.0992
_refine_ls_wR_factor_ref         0.1034
_reflns_Friedel_coverage         0
_reflns_number_gt                2722
_reflns_number_total             3117
_reflns_threshold_expression     'I > 2\s(I)'
_cod_data_source_file            d0sc02795b3.cif
_cod_data_source_block           BE25_BA75_290
_cod_original_formula_sum        'C18 H14.60 N2 O2'
_cod_database_code               1558202
_shelx_estimated_absorpt_t_min   0.87
_shelx_estimated_absorpt_t_max   0.946
_shelx_shelxl_version_number     2018/3
_shelx_res_file
;
TITL 290_a.res in P-1
    290_a.res
    created by SHELXL-2018/3 at 10:16:34 on 02-Apr-2020
REM Old TITL 290 in P-1
REM SHELXT solution in P-1
REM R1 0.149,  Rweak 0.006,  Alpha 0.024,  Orientation as input
REM Formula found by SHELXT:  C17 N3 O2
CELL  1.54178   8.235536   9.850581  10.960063  92.5489 107.9571 114.4335
ZERR    2.000   0.000135   0.000134   0.000144   0.0011   0.0013   0.0014
LATT  1
SFAC C H N O
UNIT 36 29.2039 4 4
TEMP 17.2
SIZE 0.209 0.094 0.082
L.S. 10
BOND $H
ACTA
LIST 4
FMAP 2
PLAN 20
CONF

EQIV $1 x, y, z+1
EQIV $2 -x+1, -y+1, -z+1

HTAB O1 N1_$1
HTAB O2 N2A_$2
HTAB O2 N2B_$2

RIGU
SIMU 0.02 C12 C13 C19 C20
SIMU 0.02 C14A C15A C16A C17A C18A N2A C14B C15B C16B C17B C18B N2B

DFIX 31 C12 C9 C13 C14A
DFIX 41 C19 C9 C20 C14B

DFIX 1.20 0.02 C19 C20
DFIX 1.32 0.02 C12 C13

WGHT    0.053000    0.053600
EXTI    0.004237
FVAR       0.86554   0.30098   1.53178   1.40767
O1    4    0.169280    0.145468    0.304551    11.00000    0.05970    0.07219 =
         0.05405    0.00797    0.01875    0.02657
AFIX 147
H1    2    0.200471    0.168266    0.384046    11.00000   -1.50000
AFIX   0
O2    4    0.815764    0.215623    0.432133    11.00000    0.06696    0.09503 =
         0.06015   -0.00257    0.02142    0.04099
AFIX 147
H2A   2    0.819923    0.249110    0.503465    11.00000   -1.50000
AFIX   0
N1    3    0.262372    0.241294   -0.432276    11.00000    0.06155    0.08078 =
         0.05207    0.00508    0.02098    0.03554
C1    1    0.319110    0.145802    0.276181    11.00000    0.06116    0.04139 =
         0.04809    0.00831    0.02040    0.01932
C2    1    0.492127    0.179239    0.373019    11.00000    0.06284    0.04738 =
         0.04310    0.00462    0.02081    0.02249
AFIX  43
H2    2    0.507828    0.201411    0.460481    11.00000   -1.20000
AFIX   0
C3    1    0.642656    0.179894    0.340369    11.00000    0.06432    0.05020 =
         0.05256    0.00357    0.02185    0.02540
C4    1    0.618052    0.143602    0.209893    11.00000    0.07959    0.06595 =
         0.05792    0.00416    0.03431    0.03218
AFIX  43
H4    2    0.717084    0.141818    0.187108    11.00000   -1.20000
AFIX   0
C5    1    0.445148    0.110395    0.115065    11.00000    0.09324    0.07086 =
         0.04559    0.00455    0.02853    0.03437
AFIX  43
H5    2    0.428668    0.086607    0.027643    11.00000   -1.20000
AFIX   0
C6    1    0.294957    0.111323    0.145853    11.00000    0.07383    0.06212 =
         0.04472    0.00613    0.01479    0.02621
AFIX  43
H6    2    0.179334    0.089127    0.080055    11.00000   -1.20000
AFIX   0
C7    1    0.197361    0.147639   -0.356109    11.00000    0.06717    0.06011 =
         0.05746    0.00124    0.01854    0.02894
AFIX  43
H7    2    0.153818    0.044012   -0.383699    11.00000   -1.20000
AFIX   0
C8    1    0.191195    0.195931   -0.238990    11.00000    0.06356    0.05838 =
         0.05448    0.01078    0.02238    0.02584
AFIX  43
H8    2    0.143605    0.126096   -0.189327    11.00000   -1.20000
AFIX   0
C9    1    0.256761    0.350115   -0.195517    11.00000    0.04932    0.06223 =
         0.04893    0.00446    0.01419    0.02871
C10   1    0.329591    0.448888   -0.272552    11.00000    0.06431    0.05407 =
         0.06455    0.00814    0.02153    0.02557
AFIX  43
H10   2    0.378761    0.553408   -0.245844    11.00000   -1.20000
AFIX   0
C11   1    0.327814    0.389750   -0.388693    11.00000    0.06622    0.07424 =
         0.06198    0.01936    0.02871    0.03008
AFIX  43
H11   2    0.374977    0.456948   -0.440292    11.00000   -1.20000
AFIX   0
PART  1
C12   1    0.223209    0.383296   -0.068365    21.00000    0.05722    0.03948 =
         0.04782    0.00536    0.02077    0.02262
AFIX  43
H12   2    0.170336    0.300273   -0.031506    21.00000   -1.20000
AFIX   0
C13   1    0.260445    0.511820   -0.009667    21.00000    0.05474    0.05338 =
         0.04246    0.00512    0.01576    0.02711
AFIX  43
H13   2    0.319297    0.592465   -0.046909    21.00000   -1.20000
AFIX  66
C14A  1    0.226764    0.558642    0.110336    21.00000    0.04947    0.04598 =
         0.04653    0.00696    0.01235    0.02670
C15A  1    0.148040    0.449572    0.178750    21.00000    0.07061    0.05277 =
         0.04962    0.00188    0.02147    0.03453
AFIX  43
H15A  2    0.116116    0.348272    0.150776    21.00000   -1.20000
AFIX  65
C16A  1    0.117031    0.491905    0.288975    21.00000    0.06157    0.04477 =
         0.05219    0.00577    0.01727    0.02331
AFIX  43
H16A  2    0.064359    0.418929    0.334749    21.00000   -1.20000
AFIX  65
N2A   3    0.164745    0.643309    0.330787    21.00000    0.05763    0.05647 =
         0.03634   -0.00352    0.01791    0.01987
C17A  1    0.243469    0.752381    0.262373    21.00000    0.06897    0.04940 =
         0.05459    0.00179    0.02365    0.03253
AFIX  43
H17A  2    0.275392    0.853681    0.290348    21.00000   -1.20000
AFIX  65
C18A  1    0.274479    0.710050    0.152148    21.00000    0.06658    0.04112 =
         0.05390    0.00463    0.01993    0.02584
AFIX  43
H18A  2    0.327151    0.783027    0.106375    21.00000   -1.20000
AFIX   0
PART  2
C14B  1    0.214523    0.525716    0.122640   -21.00000    0.05171    0.05917 =
         0.04586    0.00706    0.01301    0.03085
C15B  1    0.127047    0.441645    0.202084   -21.00000    0.06160    0.05626 =
         0.05688    0.01074    0.02265    0.02885
AFIX  43
H15B  2    0.078653    0.336305    0.186284   -21.00000   -1.20000
AFIX   0
C16B  1    0.112674    0.515905    0.304592   -21.00000    0.06309    0.06595 =
         0.05050    0.01152    0.02178    0.03390
AFIX  43
H16B  2    0.052215    0.456909    0.355943   -21.00000   -1.20000
AFIX   0
N2B   3    0.177916    0.663775    0.335305   -21.00000    0.05562    0.06586 =
         0.05308    0.00057    0.01095    0.02885
C17B  1    0.260967    0.741570    0.259266   -21.00000    0.06388    0.05196 =
         0.06520    0.00109    0.01885    0.02369
AFIX  43
H17B  2    0.310016    0.846830    0.279150   -21.00000   -1.20000
AFIX   0
C18B  1    0.281644    0.681646    0.153722   -21.00000    0.06039    0.05619 =
         0.05819    0.01598    0.02532    0.02729
AFIX  43
H18B  2    0.339893    0.744518    0.103445   -21.00000   -1.20000
AFIX   0
C19   1    0.252471    0.415631   -0.080660   -21.00000    0.05334    0.07725 =
         0.05245    0.00759    0.01839    0.03046
C20   1    0.232328    0.458504    0.014335   -21.00000    0.06059    0.07456 =
         0.05227    0.01421    0.02135    0.03574
HKLF 4




REM  290_a.res in P-1
REM wR2 = 0.103374, GooF = S = 1.05479, Restrained GooF = 0.99686 for all data
REM R1 = 0.035645 for 2722 Fo > 4sig(Fo) and 0.040105 for all 3117 data
REM 265 parameters refined using 438 restraints

END

WGHT      0.0530      0.0536

REM Highest difference peak  0.141,  deepest hole -0.139,  1-sigma level  0.028
Q1    1   0.2551  0.3964 -0.2359  11.00000  0.05    0.14
Q2    1   0.2623  0.5028 -0.0745  11.00000  0.05    0.12
Q3    1   0.2029  0.2871 -0.2186  11.00000  0.05    0.11
Q4    1   0.2333  0.3605 -0.1547  11.00000  0.05    0.11
Q5    1   0.7566  0.1469  0.4742  11.00000  0.05    0.11
Q6    1   0.1967  0.4503 -0.0601  11.00000  0.05    0.11
Q7    1   0.2832  0.2000 -0.5010  11.00000  0.05    0.10
Q8    1   0.1813  0.6811  0.4252  11.00000  0.05    0.10
Q9    1   0.2835  0.5989  0.1555  11.00000  0.05    0.10
Q10   1   0.1805  0.0671  0.3280  11.00000  0.05    0.09
Q11   1   0.7928  0.1338  0.2170  11.00000  0.05    0.09
Q12   1   0.2893  0.0621  0.2013  11.00000  0.05    0.09
Q13   1   0.3926 -0.0098  0.0210  11.00000  0.05    0.09
Q14   1   0.1694  0.3630 -0.0040  11.00000  0.05    0.09
Q15   1   0.3328  0.1544  0.2149  11.00000  0.05    0.09
Q16   1   0.3204  0.4537 -0.0023  11.00000  0.05    0.09
Q17   1   0.2438  0.5157  0.0761  11.00000  0.05    0.09
Q18   1   0.3389  0.0993  0.2987  11.00000  0.05    0.08
Q19   1   0.6225  0.1657  0.2664  11.00000  0.05    0.08
Q20   1   0.9274  0.1693  0.2633  11.00000  0.05    0.08
;
_shelx_res_checksum              82705
loop_
_symmetry_equiv_pos_as_xyz
'x, y, z'
'-x, -y, -z'
loop_
_atom_site_label
_atom_site_type_symbol
_atom_site_fract_x
_atom_site_fract_y
_atom_site_fract_z
_atom_site_U_iso_or_equiv
_atom_site_adp_type
_atom_site_occupancy
_atom_site_site_symmetry_order
_atom_site_calc_flag
_atom_site_refinement_flags_posn
_atom_site_refinement_flags_adp
_atom_site_refinement_flags_occupancy
_atom_site_disorder_assembly
_atom_site_disorder_group
O1 O 0.16928(11) 0.14547(9) 0.30455(8) 0.0637(2) Uani 1 1 d . . . . .
H1 H 0.200471 0.168266 0.384046 0.096 Uiso 1 1 calc R U . . .
O2 O 0.81576(12) 0.21562(11) 0.43213(8) 0.0734(3) Uani 1 1 d . . . . .
H2A H 0.819923 0.24911 0.503465 0.11 Uiso 1 1 calc R U . . .
N1 N 0.26237(14) 0.24129(12) -0.43228(9) 0.0637(3) Uani 1 1 d . . . . .
C1 C 0.31911(15) 0.14580(11) 0.27618(10) 0.0514(2) Uani 1 1 d . . . . .
C2 C 0.49213(15) 0.17924(11) 0.37302(10) 0.0516(2) Uani 1 1 d . . . . .
H2 H 0.507828 0.201411 0.460481 0.062 Uiso 1 1 calc R U . . .
C3 C 0.64266(16) 0.17989(12) 0.34037(10) 0.0558(3) Uani 1 1 d . . . . .
C4 C 0.61805(19) 0.14360(13) 0.20989(12) 0.0658(3) Uani 1 1 d . . . . .
H4 H 0.717084 0.141818 0.187108 0.079 Uiso 1 1 calc R U . . .
C5 C 0.4451(2) 0.11039(14) 0.11506(11) 0.0701(3) Uani 1 1 d . . . . .
H5 H 0.428668 0.086607 0.027643 0.084 Uiso 1 1 calc R U . . .
C6 C 0.29496(18) 0.11132(13) 0.14585(11) 0.0637(3) Uani 1 1 d . . . . .
H6 H 0.179334 0.089127 0.080055 0.076 Uiso 1 1 calc R U . . .
C7 C 0.19736(17) 0.14764(13) -0.35611(11) 0.0628(3) Uani 1 1 d . . . . .
H7 H 0.153818 0.044012 -0.383699 0.075 Uiso 1 1 calc R U . . .
C8 C 0.19119(16) 0.19593(13) -0.23899(11) 0.0591(3) Uani 1 1 d . . . . .
H8 H 0.143605 0.126096 -0.189327 0.071 Uiso 1 1 calc R U . . .
C9 C 0.25676(14) 0.35011(12) -0.19552(10) 0.0533(2) Uani 1 1 d D . . . .
C10 C 0.32959(17) 0.44889(13) -0.27255(12) 0.0619(3) Uani 1 1 d . . . . .
H10 H 0.378761 0.553408 -0.245844 0.074 Uiso 1 1 calc R U . . .
C11 C 0.32781(17) 0.38975(14) -0.38869(12) 0.0663(3) Uani 1 1 d . . . . .
H11 H 0.374977 0.456948 -0.440292 0.08 Uiso 1 1 calc R U . . .
C12 C 0.223(2) 0.3833(11) -0.0684(13) 0.0475(17) Uani 0.301(12) 1 d D U P A 1
H12 H 0.170336 0.300273 -0.031506 0.057 Uiso 0.301(12) 1 calc R U P A 1
C13 C 0.2604(10) 0.5118(10) -0.0097(8) 0.0498(13) Uani 0.301(12) 1 d D U P A 1
H13 H 0.319297 0.592465 -0.046909 0.06 Uiso 0.301(12) 1 calc R U P A 1
C14A C 0.227(2) 0.5586(14) 0.1103(11) 0.047(2) Uani 0.301(12) 1 d DG U P A 1
C15A C 0.148(2) 0.4496(11) 0.1788(12) 0.056(2) Uani 0.301(12) 1 d G U P A 1
H15A H 0.116116 0.348272 0.150776 0.067 Uiso 0.301(12) 1 calc R U P A 1
C16A C 0.117(2) 0.4919(14) 0.2890(12) 0.054(2) Uani 0.301(12) 1 d G U P A 1
H16A H 0.064359 0.418929 0.334749 0.065 Uiso 0.301(12) 1 calc R U P A 1
N2A N 0.165(2) 0.6433(15) 0.3308(11) 0.052(2) Uani 0.301(12) 1 d G U P A 1
C17A C 0.243(2) 0.7524(12) 0.2624(13) 0.055(2) Uani 0.301(12) 1 d G U P A 1
H17A H 0.275392 0.853681 0.290348 0.067 Uiso 0.301(12) 1 calc R U P A 1
C18A C 0.274(2) 0.7101(12) 0.1521(12) 0.054(2) Uani 0.301(12) 1 d G U P A 1
H18A H 0.327151 0.783027 0.106375 0.065 Uiso 0.301(12) 1 calc R U P A 1
C14B C 0.2145(9) 0.5257(7) 0.1226(5) 0.0514(10) Uani 0.699(12) 1 d D U P A 2
C15B C 0.1270(10) 0.4416(6) 0.2021(6) 0.0571(9) Uani 0.699(12) 1 d . U P A 2
H15B H 0.078653 0.336305 0.186284 0.068 Uiso 0.699(12) 1 calc R U P A 2
C16B C 0.1127(10) 0.5159(7) 0.3046(5) 0.0577(10) Uani 0.699(12) 1 d . U P A 2
H16B H 0.052215 0.456909 0.355943 0.069 Uiso 0.699(12) 1 calc R U P A 2
N2B N 0.1779(10) 0.6638(7) 0.3353(5) 0.0603(11) Uani 0.699(12) 1 d . U P A 2
C17B C 0.2610(10) 0.7416(6) 0.2593(6) 0.0627(11) Uani 0.699(12) 1 d . U P A 2
H17B H 0.310016 0.84683 0.27915 0.075 Uiso 0.699(12) 1 calc R U P A 2
C18B C 0.2816(9) 0.6816(7) 0.1537(6) 0.0567(9) Uani 0.699(12) 1 d . U P A 2
H18B H 0.339893 0.744518 0.103445 0.068 Uiso 0.699(12) 1 calc R U P A 2
C19 C 0.2525(10) 0.4156(8) -0.0807(6) 0.0610(12) Uani 0.699(12) 1 d D U P A 2
C20 C 0.2323(5) 0.4585(6) 0.0143(3) 0.0602(7) Uani 0.699(12) 1 d D U P A 2
loop_
_atom_site_aniso_label
_atom_site_aniso_U_11
_atom_site_aniso_U_22
_atom_site_aniso_U_33
_atom_site_aniso_U_23
_atom_site_aniso_U_13
_atom_site_aniso_U_12
O1 0.0597(4) 0.0722(5) 0.0541(4) 0.0080(4) 0.0187(4) 0.0266(4)
O2 0.0670(5) 0.0950(6) 0.0602(5) -0.0026(4) 0.0214(4) 0.0410(5)
N1 0.0615(5) 0.0808(7) 0.0521(5) 0.0051(4) 0.0210(4) 0.0355(5)
C1 0.0612(6) 0.0414(5) 0.0481(5) 0.0083(4) 0.0204(4) 0.0193(4)
C2 0.0628(6) 0.0474(5) 0.0431(5) 0.0046(4) 0.0208(4) 0.0225(4)
C3 0.0643(6) 0.0502(5) 0.0526(6) 0.0036(4) 0.0219(5) 0.0254(5)
C4 0.0796(8) 0.0660(7) 0.0579(6) 0.0042(5) 0.0343(6) 0.0322(6)
C5 0.0932(9) 0.0709(7) 0.0456(6) 0.0046(5) 0.0285(6) 0.0344(6)
C6 0.0738(7) 0.0621(6) 0.0447(5) 0.0061(5) 0.0148(5) 0.0262(5)
C7 0.0672(7) 0.0601(6) 0.0575(6) 0.0012(5) 0.0185(5) 0.0289(5)
C8 0.0636(6) 0.0584(6) 0.0545(6) 0.0108(5) 0.0224(5) 0.0258(5)
C9 0.0493(5) 0.0622(6) 0.0489(5) 0.0045(4) 0.0142(4) 0.0287(5)
C10 0.0643(6) 0.0541(6) 0.0645(7) 0.0081(5) 0.0215(5) 0.0256(5)
C11 0.0662(7) 0.0742(7) 0.0620(7) 0.0194(6) 0.0287(6) 0.0301(6)
C12 0.057(4) 0.039(3) 0.048(3) 0.005(2) 0.021(2) 0.023(3)
C13 0.055(2) 0.053(3) 0.042(2) 0.005(2) 0.0158(17) 0.027(2)
C14A 0.049(3) 0.046(4) 0.047(3) 0.007(3) 0.012(2) 0.027(3)
C15A 0.071(5) 0.053(4) 0.050(4) 0.002(3) 0.021(3) 0.035(3)
C16A 0.062(3) 0.045(3) 0.052(4) 0.006(2) 0.017(3) 0.023(2)
N2A 0.058(4) 0.056(4) 0.036(3) -0.004(2) 0.018(2) 0.020(3)
C17A 0.069(4) 0.049(3) 0.055(4) 0.002(2) 0.024(3) 0.033(3)
C18A 0.067(3) 0.041(3) 0.054(3) 0.005(2) 0.020(2) 0.026(2)
C14B 0.0517(14) 0.059(2) 0.0459(13) 0.0071(13) 0.0130(10) 0.0309(17)
C15B 0.0616(14) 0.0563(13) 0.057(2) 0.0107(12) 0.0227(14) 0.0289(10)
C16B 0.0631(14) 0.066(2) 0.0505(14) 0.0115(16) 0.0218(12) 0.0339(17)
N2B 0.0556(17) 0.0659(19) 0.0531(18) 0.0006(12) 0.0110(13) 0.0288(16)
C17B 0.0639(18) 0.0520(16) 0.065(2) 0.0011(13) 0.0189(13) 0.0237(13)
C18B 0.0604(13) 0.056(2) 0.0582(14) 0.0160(14) 0.0253(10) 0.0273(16)
C19 0.0533(19) 0.077(3) 0.0525(15) 0.0076(17) 0.0184(11) 0.030(2)
C20 0.0606(12) 0.075(2) 0.0523(12) 0.0142(12) 0.0214(9) 0.0357(14)
loop_
_atom_type_symbol
_atom_type_description
_atom_type_scat_dispersion_real
_atom_type_scat_dispersion_imag
_atom_type_scat_source
C C 0.0181 0.0091 'International Tables Vol C Tables 4.2.6.8 and 6.1.1.4'
H H 0 0 'International Tables Vol C Tables 4.2.6.8 and 6.1.1.4'
N N 0.0311 0.018 'International Tables Vol C Tables 4.2.6.8 and 6.1.1.4'
O O 0.0492 0.0322 'International Tables Vol C Tables 4.2.6.8 and 6.1.1.4'
loop_
_exptl_crystal_face_index_h
_exptl_crystal_face_index_k
_exptl_crystal_face_index_l
_exptl_crystal_face_perp_dist
5 0 0 0.0393
-5 0 0 0.0431
3 -4 -5 0.0856
2 -6 2 0.0449
1 -5 5 0.0478
-1 -2 7 0.0812
-2 6 -1 0.0431
0 3 -6 0.0824
0 5 -4 0.0552
5 -4 -4 0.0754
-3 -3 5 0.0681
2 4 -1 0.0344
5 -4 1 0.0424
3 0 4 0.0674
3 -4 4 0.0384
-3 -1 -4 0.0729
-1 1 7 0.0918
0 -3 -5 0.0753
loop_
_geom_angle_atom_site_label_1
_geom_angle_atom_site_label_2
_geom_angle_atom_site_label_3
_geom_angle
_geom_angle_site_symmetry_1
_geom_angle_site_symmetry_3
_geom_angle_publ_flag
C1 O1 H1 109.5 . . ?
C3 O2 H2A 109.5 . . ?
C7 N1 C11 116.90(10) . . ?
O1 C1 C2 121.95(9) . . ?
O1 C1 C6 118.19(10) . . ?
C2 C1 C6 119.86(10) . . ?
C1 C2 C3 120.39(9) . . ?
C1 C2 H2 119.8 . . ?
C3 C2 H2 119.8 . . ?
O2 C3 C4 117.96(10) . . ?
O2 C3 C2 122.19(9) . . ?
C4 C3 C2 119.85(11) . . ?
C5 C4 C3 118.95(11) . . ?
C5 C4 H4 120.5 . . ?
C3 C4 H4 120.5 . . ?
C4 C5 C6 121.88(10) . . ?
C4 C5 H5 119.1 . . ?
C6 C5 H5 119.1 . . ?
C5 C6 C1 119.06(11) . . ?
C5 C6 H6 120.5 . . ?
C1 C6 H6 120.5 . . ?
N1 C7 C8 123.44(11) . . ?
N1 C7 H7 118.3 . . ?
C8 C7 H7 118.3 . . ?
C7 C8 C9 119.23(10) . . ?
C7 C8 H8 120.4 . . ?
C9 C8 H8 120.4 . . ?
C10 C9 C8 117.71(10) . . ?
C10 C9 C19 116.7(3) . . ?
C8 C9 C19 125.6(3) . . ?
C10 C9 C12 129.7(4) . . ?
C8 C9 C12 112.4(4) . . ?
C11 C10 C9 118.79(10) . . ?
C11 C10 H10 120.6 . . ?
C9 C10 H10 120.6 . . ?
N1 C11 C10 123.90(11) . . ?
N1 C11 H11 118 . . ?
C10 C11 H11 118 . . ?
C13 C12 C9 126.5(11) . . ?
C13 C12 H12 116.7 . . ?
C9 C12 H12 116.7 . . ?
C12 C13 C14A 131.8(11) . . ?
C12 C13 H13 114.1 . . ?
C14A C13 H13 114.1 . . ?
C15A C14A C18A 120 . . ?
C15A C14A C13 119.8(7) . . ?
C18A C14A C13 120.2(7) . . ?
C16A C15A C14A 120 . . ?
C16A C15A H15A 120 . . ?
C14A C15A H15A 120 . . ?
C15A C16A N2A 120 . . ?
C15A C16A H16A 120 . . ?
N2A C16A H16A 120 . . ?
C16A N2A C17A 120 . . ?
C18A C17A N2A 120 . . ?
C18A C17A H17A 120 . . ?
N2A C17A H17A 120 . . ?
C17A C18A C14A 120 . . ?
C17A C18A H18A 120 . . ?
C14A C18A H18A 120 . . ?
C18B C14B C15B 116.2(2) . . ?
C18B C14B C20 121.0(4) . . ?
C15B C14B C20 122.8(3) . . ?
C16B C15B C14B 119.2(2) . . ?
C16B C15B H15B 120.4 . . ?
C14B C15B H15B 120.4 . . ?
N2B C16B C15B 124.9(2) . . ?
N2B C16B H16B 117.6 . . ?
C15B C16B H16B 117.6 . . ?
C16B N2B C17B 115.1(2) . . ?
N2B C17B C18B 125.8(3) . . ?
N2B C17B H17B 117.1 . . ?
C18B C17B H17B 117.1 . . ?
C17B C18B C14B 118.9(2) . . ?
C17B C18B H18B 120.5 . . ?
C14B C18B H18B 120.5 . . ?
C20 C19 C9 173.5(8) . . ?
C19 C20 C14B 173.4(7) . . ?
loop_
_geom_bond_atom_site_label_1
_geom_bond_atom_site_label_2
_geom_bond_distance
_geom_bond_site_symmetry_2
_geom_bond_publ_flag
O1 C1 1.3611(13) . ?
O1 H1 0.82 . ?
O2 C3 1.3554(14) . ?
O2 H2A 0.82 . ?
N1 C7 1.3305(16) . ?
N1 C11 1.3358(16) . ?
C1 C2 1.3833(15) . ?
C1 C6 1.3860(14) . ?
C2 C3 1.3900(15) . ?
C2 H2 0.93 . ?
C3 C4 1.3892(15) . ?
C4 C5 1.3736(19) . ?
C4 H4 0.93 . ?
C5 C6 1.3821(18) . ?
C5 H5 0.93 . ?
C6 H6 0.93 . ?
C7 C8 1.3720(15) . ?
C7 H7 0.93 . ?
C8 C9 1.3870(15) . ?
C8 H8 0.93 . ?
C9 C10 1.3863(16) . ?
C9 C19 1.406(6) . ?
C9 C12 1.548(11) . ?
C10 C11 1.3694(17) . ?
C10 H10 0.93 . ?
C11 H11 0.93 . ?
C12 C13 1.263(12) . ?
C12 H12 0.93 . ?
C13 C14A 1.515(10) . ?
C13 H13 0.93 . ?
C14A C15A 1.39 . ?
C14A C18A 1.39 . ?
C15A C16A 1.39 . ?
C15A H15A 0.93 . ?
C16A N2A 1.39 . ?
C16A H16A 0.93 . ?
N2A C17A 1.39 . ?
C17A C18A 1.39 . ?
C17A H17A 0.93 . ?
C18A H18A 0.93 . ?
C14B C18B 1.384(4) . ?
C14B C15B 1.386(4) . ?
C14B C20 1.409(5) . ?
C15B C16B 1.375(4) . ?
C15B H15B 0.93 . ?
C16B N2B 1.312(4) . ?
C16B H16B 0.93 . ?
N2B C17B 1.313(3) . ?
C17B C18B 1.364(3) . ?
C17B H17B 0.93 . ?
C18B H18B 0.93 . ?
C19 C20 1.190(7) . ?
loop_
_geom_hbond_atom_site_label_D
_geom_hbond_atom_site_label_H
_geom_hbond_atom_site_label_A
_geom_hbond_distance_DH
_geom_hbond_distance_HA
_geom_hbond_distance_DA
_geom_hbond_angle_DHA
_geom_hbond_site_symmetry_A
_geom_hbond_publ_flag
O1 H1 N1 0.82 1.94 2.7557(12) 172.7 1_556 yes
O2 H2A N2A^a 0.82 2 2.82(6) 172.4 2_666 yes
O2 H2A N2B^b 0.82 1.92 2.740(5) 176 2_666 yes
loop_
_geom_torsion_atom_site_label_1
_geom_torsion_atom_site_label_2
_geom_torsion_atom_site_label_3
_geom_torsion_atom_site_label_4
_geom_torsion
_geom_torsion_site_symmetry_1
_geom_torsion_site_symmetry_2
_geom_torsion_site_symmetry_3
_geom_torsion_site_symmetry_4
_geom_torsion_publ_flag
O1 C1 C2 C3 -179.40(9) . . . . ?
C6 C1 C2 C3 0.61(15) . . . . ?
C1 C2 C3 O2 178.38(9) . . . . ?
C1 C2 C3 C4 -1.38(16) . . . . ?
O2 C3 C4 C5 -178.54(11) . . . . ?
C2 C3 C4 C5 1.23(17) . . . . ?
C3 C4 C5 C6 -0.34(19) . . . . ?
C4 C5 C6 C1 -0.42(18) . . . . ?
O1 C1 C6 C5 -179.71(10) . . . . ?
C2 C1 C6 C5 0.28(16) . . . . ?
C11 N1 C7 C8 1.43(17) . . . . ?
N1 C7 C8 C9 -0.48(18) . . . . ?
C7 C8 C9 C10 -1.28(16) . . . . ?
C7 C8 C9 C19 177.4(4) . . . . ?
C7 C8 C9 C12 175.0(7) . . . . ?
C8 C9 C10 C11 2.01(16) . . . . ?
C19 C9 C10 C11 -176.7(3) . . . . ?
C12 C9 C10 C11 -173.5(8) . . . . ?
C7 N1 C11 C10 -0.62(18) . . . . ?
C9 C10 C11 N1 -1.10(18) . . . . ?
C10 C9 C12 C13 -1.1(19) . . . . ?
C8 C9 C12 C13 -176.8(12) . . . . ?
C9 C12 C13 C14A 176.8(11) . . . . ?
C12 C13 C14A C15A 3.0(17) . . . . ?
C12 C13 C14A C18A -177.0(13) . . . . ?
C18A C14A C15A C16A 0 . . . . ?
C13 C14A C15A C16A 179.9(12) . . . . ?
C14A C15A C16A N2A 0 . . . . ?
C15A C16A N2A C17A 0 . . . . ?
C16A N2A C17A C18A 0 . . . . ?
N2A C17A C18A C14A 0 . . . . ?
C15A C14A C18A C17A 0 . . . . ?
C13 C14A C18A C17A -179.9(12) . . . . ?
C18B C14B C15B C16B -0.1(3) . . . . ?
C20 C14B C15B C16B -178.9(6) . . . . ?
C14B C15B C16B N2B -0.6(3) . . . . ?
C15B C16B N2B C17B 0.4(3) . . . . ?
C16B N2B C17B C18B 0.7(4) . . . . ?
N2B C17B C18B C14B -1.5(4) . . . . ?
C15B C14B C18B C17B 1.1(3) . . . . ?
C20 C14B C18B C17B 179.9(6) . . . . ?
