#------------------------------------------------------------------------------
#$Date: 2020-08-06 21:14:13 +0300 (Thu, 06 Aug 2020) $
#$Revision: 255114 $
#$URL: file:///home/coder/svn-repositories/cod/cif/1/55/87/1558796.cif $
#------------------------------------------------------------------------------
#
# This file is available in the Crystallography Open Database (COD),
# http://www.crystallography.net/
#
# All data on this site have been placed in the public domain by the
# contributors.
#
data_1558796
loop_
_publ_author_name
'Badr, Ahmed M. A.'
'Barakat, Assem'
'Albering, J\"org H.'
'Sharaf, Mona M.'
'Ul-Haq, Zaheer'
'Soliman, Saied M.'
_publ_section_title
;
 Structure, Antimicrobial Activity, Hirshfeld Analysis, and Docking
 Studies of Three Silver(I) Complexes-Based Pyridine Ligands
;
_journal_issue                   14
_journal_name_full               'Applied Sciences'
_journal_page_first              4853
_journal_paper_doi               10.3390/app10144853
_journal_volume                  10
_journal_year                    2020
_chemical_formula_moiety         'C10 H10 Ag N3 O5'
_chemical_formula_sum            'C10 H10 Ag N3 O5'
_chemical_formula_weight         360.08
_space_group_IT_number           2
_space_group_name_Hall           '-P 1'
_space_group_name_H-M_alt        'P -1'
_symmetry_cell_setting           triclinic
_symmetry_space_group_name_Hall  '-P 1'
_symmetry_space_group_name_H-M   'P -1'
_atom_sites_solution_hydrogens   geom
_atom_sites_solution_primary     direct
_atom_sites_solution_secondary   difmap
_audit_creation_method           SHELXL-97
_audit_update_record
;
2012-06-16 # Formatted by publCIF
;
_cell_angle_alpha                70.3640(10)
_cell_angle_beta                 76.3080(10)
_cell_angle_gamma                61.1280(10)
_cell_formula_units_Z            2
_cell_length_a                   8.1664(4)
_cell_length_b                   8.4103(4)
_cell_length_c                   10.4848(5)
_cell_measurement_reflns_used    9934
_cell_measurement_temperature    100(2)
_cell_measurement_theta_max      36.7425
_cell_measurement_theta_min      2.86
_cell_volume                     591.51(5)
_computing_cell_refinement       'Bruker APEX2'
_computing_data_collection       'Bruker APEX2'
_computing_data_reduction        'Bruker SAINT'
_computing_molecular_graphics    'DIAMOND 3.0'
_computing_publication_material  'Bruker SHELXTL'
_computing_structure_refinement  'SHELXL (Sheldrick, 2014)'
_computing_structure_solution    'SHELXS (Sheldrick, 2014)'
_diffrn_ambient_temperature      100(2)
_diffrn_measured_fraction_theta_full 0.999
_diffrn_measured_fraction_theta_max 0.999
_diffrn_measurement_device_type  'CCD area detector'
_diffrn_measurement_method       'phi and omega scans'
_diffrn_radiation_monochromator  graphite
_diffrn_radiation_source         'fine-focus sealed tube'
_diffrn_radiation_type           MoK\a
_diffrn_radiation_wavelength     0.71073
_diffrn_reflns_av_R_equivalents  0.0338
_diffrn_reflns_av_sigmaI/netI    0.0258
_diffrn_reflns_limit_h_max       10
_diffrn_reflns_limit_h_min       -11
_diffrn_reflns_limit_k_max       11
_diffrn_reflns_limit_k_min       -11
_diffrn_reflns_limit_l_max       14
_diffrn_reflns_limit_l_min       -14
_diffrn_reflns_number            13193
_diffrn_reflns_theta_full        30.00
_diffrn_reflns_theta_max         30.00
_diffrn_reflns_theta_min         2.07
_exptl_absorpt_coefficient_mu    1.725
_exptl_absorpt_correction_T_max  0.7856
_exptl_absorpt_correction_T_min  0.4412
_exptl_absorpt_correction_type   multi-scan
_exptl_absorpt_process_details   'SADABS (Sheldrick, 2008)'
_exptl_crystal_colour            colourless
_exptl_crystal_density_diffrn    2.022
_exptl_crystal_density_method    'not measured'
_exptl_crystal_description       plate
_exptl_crystal_F_000             356
_exptl_crystal_size_max          0.57
_exptl_crystal_size_mid          0.33
_exptl_crystal_size_min          0.15
_refine_diff_density_max         1.497
_refine_diff_density_min         -1.529
_refine_diff_density_rms         0.135
_refine_ls_extinction_coef       0.005(2)
_refine_ls_extinction_expression Fc^*^=kFc[1+0.001xFc^2^\l^3^/sin(2\q)]^-1/4^
_refine_ls_extinction_method     SHELXL
_refine_ls_goodness_of_fit_ref   1.094
_refine_ls_hydrogen_treatment    mixed
_refine_ls_matrix_type           full
_refine_ls_number_parameters     181
_refine_ls_number_reflns         3458
_refine_ls_number_restraints     2
_refine_ls_restrained_S_all      3.986
_refine_ls_R_factor_all          0.0251
_refine_ls_R_factor_gt           0.0246
_refine_ls_shift/su_max          0.000
_refine_ls_shift/su_mean         0.000
_refine_ls_structure_factor_coef Fsqd
_refine_ls_weighting_details
'calc w=1/[\s^2^(Fo^2^)+(0.0422P)^2^+0.3008P] where P=(Fo^2^+2Fc^2^)/3'
_refine_ls_weighting_scheme      calc
_refine_ls_wR_factor_gt          0.0663
_refine_ls_wR_factor_ref         0.0668
_reflns_number_gt                3386
_reflns_number_total             3458
_reflns_threshold_expression     >2sigma(I)
_iucr_refine_instructions_details
;
TITL P-1 in P-1
CELL 0.71073   8.1664   8.4103  10.4848  70.364  76.308  61.128
ZERR    2.00   0.0004   0.0004   0.0005   0.001   0.001   0.001
LATT 1
SFAC C  H  N  O  Ag 
UNIT 20  20  6  10  2  
OMIT -3 60
L.S. 20
EXTI 0.005371
ACTA 
BOND 0.5 $H
FMAP 2
PLAN 5
SIZE 0.147 0.331 0.567
CONF
DFIX 0.84 0.04 H4 O4
DFIX 0.84 0.04 H5 O5
WGHT   0.042200   0.000000 
FVAR 0.203430 
TEMP -173.150
MOLE 1
Ag1    5   0.880832   0.080232   0.200498  11.000000   0.019820 = 
           0.012590   0.015400  -0.000850  -0.004340  -0.008810
N3     3   1.037888  -0.117117   0.372392  11.000000   0.018300 = 
           0.010930   0.014970  -0.003580  -0.001700  -0.007390
N2     3   0.785279   0.314989   0.025271  11.000000   0.015900 = 
           0.012460   0.015640  -0.002640  -0.002000  -0.008230
N1     3   0.658681   0.860299   0.194804  11.000000   0.018210 = 
           0.011130   0.017240  -0.003440  -0.003210  -0.007820
O3     4   0.570134   0.776371   0.193056  11.000000   0.023470 = 
           0.016910   0.024850  -0.005630  -0.002160  -0.014480
O1     4   0.786287   0.872011   0.101446  11.000000   0.026610 = 
           0.027500   0.021880  -0.010760   0.004930  -0.019850
O5     4   1.458696  -0.227615   0.511765  11.000000   0.022130 = 
           0.025220   0.017120  -0.002480  -0.005030  -0.013870
O4     4   0.752219   0.787707  -0.116235  11.000000   0.038800 = 
           0.016350   0.016340  -0.000830  -0.004830  -0.018840
O2     4   0.625684   0.935248   0.290477  11.000000   0.022350 = 
           0.020660   0.019490  -0.009080  -0.000890  -0.012500
C7     1   1.303273  -0.234359   0.496094  11.000000   0.018110 = 
           0.015070   0.015180  -0.005720  -0.000810  -0.007970
C2     1   0.742132   0.626931  -0.101812  11.000000   0.018730 = 
           0.013010   0.014490  -0.003500  -0.000830  -0.009120
C6     1   1.194821  -0.113221   0.386791  11.000000   0.018310 = 
           0.011340   0.014060  -0.003440  -0.001600  -0.006970
AFIX 43
H6     2   1.233530  -0.025476   0.320712  11.000000  -1.200000
AFIX 0
C10    1   0.982846  -0.242628   0.466021  11.000000   0.019500 = 
           0.014050   0.020220  -0.003210  -0.000790  -0.009590
AFIX 43
H10    2   0.871744  -0.245463   0.456002  11.000000  -1.200000
AFIX 0
C3     1   0.679220   0.611736  -0.208200  11.000000   0.019300 = 
           0.014260   0.014740  -0.003110  -0.003240  -0.007500
AFIX 43
H3     2   0.642541   0.712660  -0.287728  11.000000  -1.200000
AFIX 0
C1     1   0.795329   0.474658   0.012240  11.000000   0.018070 = 
           0.014290   0.013760  -0.003670  -0.001580  -0.009830
AFIX 43
H1     2   0.840541   0.483979   0.083715  11.000000  -1.200000
AFIX 0
C8     1   1.246512  -0.363289   0.592140  11.000000   0.021300 = 
           0.015210   0.015320  -0.001340  -0.002540  -0.006930
AFIX 43
H8     2   1.317141  -0.447380   0.667436  11.000000  -1.200000
AFIX 0
C4     1   0.671816   0.446468  -0.194662  11.000000   0.018730 = 
           0.016040   0.017970  -0.005680  -0.004440  -0.008010
AFIX 43
H4     2   0.631022   0.432022  -0.265956  11.000000  -1.200000
AFIX 0
C5     1   0.723888   0.300836  -0.076950  11.000000   0.018320 = 
           0.015020   0.018510  -0.005180  -0.003390  -0.009220
AFIX 43
H5     2   0.715943   0.188641  -0.068470  11.000000  -1.200000
AFIX 0
C9     1   1.084112  -0.366490   0.575602  11.000000   0.022600 = 
           0.015170   0.019800  -0.000890  -0.000040  -0.010390
AFIX 43
H9     2   1.043060  -0.453813   0.639659  11.000000  -1.200000
AFIX 0
H4B    2   0.753049   0.791586  -0.048846  11.000000   0.035060
H5B    2   1.496705  -0.169202   0.432424  11.000000   0.049160
HKLF 4
END 
Q1     1   0.777000   0.120900   0.211100  11.000000   0.050000 1.500000
Q2     1   0.990400   0.032700   0.188900  11.000000   0.050000 1.340000
Q3     1   0.869800   0.064700   0.278900  11.000000   0.050000 1.330000
Q4     1   0.896800   0.098300   0.125400  11.000000   0.050000 1.300000
Q5     1   0.997600  -0.021900   0.306000  11.000000   0.050000 0.630000
HKLF 4
REM  P-1 in P-1
REM R1=  0.0246 for   3386 Fo > 4sig(Fo)  and  0.0251 for all   3458 data
REM    181 parameters refined using      2 restraints
;
_cod_data_source_file            CCDC-1062880.cif
_cod_data_source_block           p-1
_cod_database_code               1558796
loop_
_symmetry_equiv_pos_as_xyz
'x, y, z'
'-x, -y, -z'
loop_
_atom_site_label
_atom_site_type_symbol
_atom_site_fract_x
_atom_site_fract_y
_atom_site_fract_z
_atom_site_U_iso_or_equiv
_atom_site_adp_type
_atom_site_occupancy
_atom_site_symmetry_multiplicity
_atom_site_calc_flag
_atom_site_refinement_flags
_atom_site_disorder_assembly
_atom_site_disorder_group
Ag1 Ag 0.88083(6) 0.08023(5) 0.20050(4) 0.0155(2) Uani 1 1 d . . .
N3 N 1.0379(7) -0.1171(7) 0.3724(5) 0.0142(9) Uani 1 1 d . . .
N2 N 0.7853(7) 0.3150(7) 0.0253(5) 0.0140(9) Uani 1 1 d . . .
N1 N 0.6587(7) 0.8603(7) 0.1948(5) 0.0147(9) Uani 1 1 d . . .
O3 O 0.5701(7) 0.7764(7) 0.1931(5) 0.0193(9) Uani 1 1 d . . .
O1 O 0.7863(7) 0.8720(7) 0.1014(5) 0.0220(9) Uani 1 1 d . . .
O5 O 1.4587(7) -0.2276(7) 0.5118(5) 0.0202(9) Uani 1 1 d D . .
O4 O 0.7522(8) 0.7877(7) -0.1162(5) 0.0214(10) Uani 1 1 d D . .
O2 O 0.6257(6) 0.9352(7) 0.2905(5) 0.0186(9) Uani 1 1 d . . .
C7 C 1.3033(9) -0.2344(8) 0.4961(6) 0.0155(10) Uani 1 1 d . . .
C2 C 0.7421(8) 0.6269(8) -0.1018(6) 0.0146(10) Uani 1 1 d . . .
C6 C 1.1948(8) -0.1132(8) 0.3868(6) 0.0143(10) Uani 1 1 d . . .
H6 H 1.2335 -0.0255 0.3207 0.017 Uiso 1 1 calc R . .
C10 C 0.9828(9) -0.2426(9) 0.4660(7) 0.0175(11) Uani 1 1 d . . .
H10 H 0.8717 -0.2455 0.4560 0.021 Uiso 1 1 calc R . .
C3 C 0.6792(9) 0.6117(9) -0.2082(6) 0.0159(11) Uani 1 1 d . . .
H3 H 0.6425 0.7127 -0.2877 0.019 Uiso 1 1 calc R . .
C1 C 0.7953(8) 0.4747(8) 0.0122(6) 0.0142(10) Uani 1 1 d . . .
H1 H 0.8405 0.4840 0.0837 0.017 Uiso 1 1 calc R . .
C8 C 1.2465(9) -0.3633(9) 0.5921(6) 0.0183(11) Uani 1 1 d . . .
H8 H 1.3171 -0.4474 0.6674 0.022 Uiso 1 1 calc R . .
C4 C 0.6718(9) 0.4465(9) -0.1947(6) 0.0165(11) Uani 1 1 d . . .
H4 H 0.6310 0.4320 -0.2660 0.020 Uiso 1 1 calc RD . .
C5 C 0.7239(9) 0.3008(8) -0.0769(6) 0.0159(10) Uani 1 1 d . . .
H5 H 0.7159 0.1886 -0.0685 0.019 Uiso 1 1 calc RD . .
C9 C 1.0841(9) -0.3665(9) 0.5756(7) 0.0197(12) Uani 1 1 d . . .
H9 H 1.0431 -0.4538 0.6397 0.024 Uiso 1 1 calc R . .
H4B H 0.753(16) 0.792(17) -0.049(13) 0.04(3) Uiso 1 1 d . . .
H5B H 1.497(19) -0.169(19) 0.432(14) 0.05(3) Uiso 1 1 d . . .
loop_
_atom_site_aniso_label
_atom_site_aniso_U_11
_atom_site_aniso_U_22
_atom_site_aniso_U_33
_atom_site_aniso_U_23
_atom_site_aniso_U_13
_atom_site_aniso_U_12
Ag1 0.0198(3) 0.0126(3) 0.0154(3) -0.00085(19) -0.00434(18) -0.0088(2)
N3 0.018(2) 0.011(2) 0.015(2) -0.0036(17) -0.0017(17) -0.0074(18)
N2 0.016(2) 0.012(2) 0.016(2) -0.0026(17) -0.0020(17) -0.0082(18)
N1 0.018(2) 0.011(2) 0.017(2) -0.0034(17) -0.0032(18) -0.0078(18)
O3 0.023(2) 0.017(2) 0.025(2) -0.0056(17) -0.0022(18) -0.0145(18)
O1 0.027(2) 0.028(2) 0.022(2) -0.0108(19) 0.0049(18) -0.020(2)
O5 0.022(2) 0.025(2) 0.017(2) -0.0025(18) -0.0050(17) -0.0139(19)
O4 0.039(3) 0.016(2) 0.016(2) -0.0008(17) -0.0048(19) -0.019(2)
O2 0.022(2) 0.021(2) 0.019(2) -0.0091(18) -0.0009(18) -0.013(2)
C7 0.018(3) 0.015(2) 0.015(2) -0.006(2) -0.001(2) -0.008(2)
C2 0.019(3) 0.013(2) 0.014(2) -0.0035(19) -0.001(2) -0.009(2)
C6 0.018(2) 0.011(2) 0.014(2) -0.0034(19) -0.0016(19) -0.007(2)
C10 0.020(3) 0.014(2) 0.020(3) -0.003(2) -0.001(2) -0.010(2)
C3 0.019(3) 0.014(2) 0.015(2) -0.003(2) -0.003(2) -0.008(2)
C1 0.018(2) 0.014(2) 0.014(2) -0.0037(19) -0.0016(19) -0.010(2)
C8 0.021(3) 0.015(3) 0.015(3) -0.001(2) -0.003(2) -0.007(2)
C4 0.019(3) 0.016(3) 0.018(3) -0.006(2) -0.004(2) -0.008(2)
C5 0.018(3) 0.015(2) 0.019(3) -0.005(2) -0.003(2) -0.009(2)
C9 0.023(3) 0.015(3) 0.020(3) -0.001(2) 0.000(2) -0.010(2)
loop_
_atom_type_symbol
_atom_type_description
_atom_type_scat_dispersion_real
_atom_type_scat_dispersion_imag
_atom_type_scat_source
C C 0.0033 0.0016 'International Tables Vol C Tables 4.2.6.8 and 6.1.1.4'
H H 0.0000 0.0000 'International Tables Vol C Tables 4.2.6.8 and 6.1.1.4'
N N 0.0061 0.0033 'International Tables Vol C Tables 4.2.6.8 and 6.1.1.4'
O O 0.0106 0.0060 'International Tables Vol C Tables 4.2.6.8 and 6.1.1.4'
Ag Ag -0.8971 1.1015 'International Tables Vol C Tables 4.2.6.8 and 6.1.1.4'
loop_
_geom_angle_atom_site_label_1
_geom_angle_atom_site_label_2
_geom_angle_atom_site_label_3
_geom_angle
_geom_angle_site_symmetry_1
_geom_angle_site_symmetry_3
_geom_angle_publ_flag
N2 Ag1 N3 161.3(2) . . ?
C6 N3 C10 119.1(5) . . ?
C6 N3 Ag1 118.5(4) . . ?
C10 N3 Ag1 122.4(4) . . ?
C1 N2 C5 118.6(5) . . ?
C1 N2 Ag1 120.8(4) . . ?
C5 N2 Ag1 120.5(4) . . ?
O3 N1 O1 120.7(5) . . ?
O3 N1 O2 121.0(5) . . ?
O1 N1 O2 118.2(5) . . ?
C7 O5 H5B 108(9) . . ?
C2 O4 H4B 107(10) . . ?
O5 C7 C8 119.3(6) . . ?
O5 C7 C6 122.0(6) . . ?
C8 C7 C6 118.7(6) . . ?
O4 C2 C1 123.2(5) . . ?
O4 C2 C3 118.2(5) . . ?
C1 C2 C3 118.7(5) . . ?
N3 C6 C7 122.1(5) . . ?
N3 C6 H6 119.0 . . ?
C7 C6 H6 119.0 . . ?
N3 C10 C9 121.6(6) . . ?
N3 C10 H10 119.2 . . ?
C9 C10 H10 119.2 . . ?
C4 C3 C2 118.3(6) . . ?
C4 C3 H3 120.9 . . ?
C2 C3 H3 120.9 . . ?
N2 C1 C2 122.6(5) . . ?
N2 C1 H1 118.7 . . ?
C2 C1 H1 118.7 . . ?
C9 C8 C7 118.6(6) . . ?
C9 C8 H8 120.7 . . ?
C7 C8 H8 120.7 . . ?
C3 C4 C5 120.2(6) . . ?
C3 C4 H4 119.9 . . ?
C5 C4 H4 119.9 . . ?
N2 C5 C4 121.6(6) . . ?
N2 C5 H5 119.2 . . ?
C4 C5 H5 119.2 . . ?
C10 C9 C8 119.9(6) . . ?
C10 C9 H9 120.1 . . ?
C8 C9 H9 120.1 . . ?
loop_
_geom_bond_atom_site_label_1
_geom_bond_atom_site_label_2
_geom_bond_distance
_geom_bond_site_symmetry_2
_geom_bond_publ_flag
Ag1 N2 2.153(5) . ?
Ag1 N3 2.162(5) . ?
N3 C6 1.342(8) . ?
N3 C10 1.354(8) . ?
N2 C1 1.344(7) . ?
N2 C5 1.346(8) . ?
N1 O3 1.237(7) . ?
N1 O1 1.267(7) . ?
N1 O2 1.269(6) . ?
O5 C7 1.347(8) . ?
O5 H5B 0.88(14) . ?
O4 C2 1.350(7) . ?
O4 H4B 0.72(12) . ?
C7 C8 1.391(9) . ?
C7 C6 1.400(8) . ?
C2 C1 1.392(8) . ?
C2 C3 1.398(8) . ?
C6 H6 0.9500 . ?
C10 C9 1.379(9) . ?
C10 H10 0.9500 . ?
C3 C4 1.379(9) . ?
C3 H3 0.9500 . ?
C1 H1 0.9500 . ?
C8 C9 1.391(9) . ?
C8 H8 0.9500 . ?
C4 C5 1.391(9) . ?
C4 H4 0.9500 . ?
C5 H5 0.9500 . ?
C9 H9 0.9500 . ?
loop_
_geom_torsion_atom_site_label_1
_geom_torsion_atom_site_label_2
_geom_torsion_atom_site_label_3
_geom_torsion_atom_site_label_4
_geom_torsion
_geom_torsion_site_symmetry_1
_geom_torsion_site_symmetry_2
_geom_torsion_site_symmetry_3
_geom_torsion_site_symmetry_4
_geom_torsion_publ_flag
N2 Ag1 N3 C6 -11.7(9) . . . . ?
N2 Ag1 N3 C10 167.7(5) . . . . ?
N3 Ag1 N2 C1 -30.6(9) . . . . ?
N3 Ag1 N2 C5 145.7(6) . . . . ?
C10 N3 C6 C7 -0.3(9) . . . . ?
Ag1 N3 C6 C7 179.1(4) . . . . ?
O5 C7 C6 N3 -178.7(5) . . . . ?
C8 C7 C6 N3 0.4(9) . . . . ?
C6 N3 C10 C9 -0.1(9) . . . . ?
Ag1 N3 C10 C9 -179.5(5) . . . . ?
O4 C2 C3 C4 178.9(6) . . . . ?
C1 C2 C3 C4 0.4(9) . . . . ?
C5 N2 C1 C2 1.0(9) . . . . ?
Ag1 N2 C1 C2 177.4(4) . . . . ?
O4 C2 C1 N2 -179.8(6) . . . . ?
C3 C2 C1 N2 -1.3(9) . . . . ?
O5 C7 C8 C9 179.0(6) . . . . ?
C6 C7 C8 C9 0.0(9) . . . . ?
C2 C3 C4 C5 0.8(9) . . . . ?
C1 N2 C5 C4 0.2(9) . . . . ?
Ag1 N2 C5 C4 -176.2(5) . . . . ?
C3 C4 C5 N2 -1.1(10) . . . . ?
N3 C10 C9 C8 0.4(10) . . . . ?
C7 C8 C9 C10 -0.3(10) . . . . ?
