#------------------------------------------------------------------------------
#$Date: 2020-10-06 12:58:01 +0300 (Tue, 06 Oct 2020) $
#$Revision: 257716 $
#$URL: file:///home/coder/svn-repositories/cod/cif/1/55/81/1558147.cif $
#------------------------------------------------------------------------------
#
# This file is available in the Crystallography Open Database (COD),
# http://www.crystallography.net/
#
# All data on this site have been placed in the public domain by the
# contributors.
#
data_1558147
loop_
_publ_author_name
'Manna, Amit Kumar'
'Chowdhury, Shubhamoy'
'Patra, Goutam K.'
_publ_section_title
;
 Combined experimental and theoretical studies on a phenyl
 thiadiazole-based novel turn-on fluorescent colorimetric Schiff base
 chemosensor for the selective and sensitive detection of Al3+
;
_journal_issue                   26
_journal_name_full               'New Journal of Chemistry'
_journal_page_first              10819
_journal_page_last               10832
_journal_paper_doi               10.1039/D0NJ01954B
_journal_volume                  44
_journal_year                    2020
_chemical_formula_moiety         'C8 H7 N3 S'
_chemical_formula_sum            'C8 H7 N3 S'
_chemical_formula_weight         177.23
_space_group_crystal_system      monoclinic
_space_group_IT_number           14
_space_group_name_Hall           '-P 2ybc'
_space_group_name_H-M_alt        'P 1 21/c 1'
_symmetry_Int_Tables_number      14
_atom_sites_solution_primary     iterative
_audit_creation_date             2020-03-18
_audit_creation_method
;
Olex2 1.2
(compiled 2018.05.29 svn.r3508 for OlexSys, GUI svn.r5506)
;
_audit_update_record
;
2020-03-30 deposited with the CCDC.	2020-05-28 downloaded from the CCDC.
;
_cell_angle_alpha                90
_cell_angle_beta                 115.098(15)
_cell_angle_gamma                90
_cell_formula_units_Z            4
_cell_length_a                   11.1251(14)
_cell_length_b                   7.5242(7)
_cell_length_c                   11.1940(12)
_cell_volume                     848.55(19)
_computing_molecular_graphics    'Olex2 (Dolomanov et al., 2009)'
_computing_publication_material  'Olex2 (Dolomanov et al., 2009)'
_computing_structure_refinement  'olex2.refine (Bourhis et al., 2015)'
_computing_structure_solution    'olex2.solve (Bourhis et al., 2015)'
_diffrn_measured_fraction_theta_full 1.0000
_diffrn_measured_fraction_theta_max 1.0000
_diffrn_radiation_type           'Mo K\a'
_diffrn_radiation_wavelength     0.71073
_diffrn_reflns_av_R_equivalents  0.0188
_diffrn_reflns_av_unetI/netI     0.0304
_diffrn_reflns_limit_h_max       14
_diffrn_reflns_limit_h_min       -14
_diffrn_reflns_limit_k_max       10
_diffrn_reflns_limit_k_min       -8
_diffrn_reflns_limit_l_max       13
_diffrn_reflns_limit_l_min       -15
_diffrn_reflns_number            4133
_diffrn_reflns_theta_full        26.0000
_diffrn_reflns_theta_max         26.36
_diffrn_reflns_theta_min         2.02
_exptl_absorpt_coefficient_mu    0.324
_exptl_crystal_density_diffrn    1.3872
_exptl_crystal_F_000             368.5942
_refine_diff_density_max         0.3180
_refine_diff_density_min         -0.2835
_refine_diff_density_rms         0.0548
_refine_ls_d_res_high            0.8003
_refine_ls_d_res_low             10.0747
_refine_ls_goodness_of_fit_ref   1.0017
_refine_ls_hydrogen_treatment    constr
_refine_ls_matrix_type           full
_refine_ls_number_constraints    13
_refine_ls_number_parameters     110
_refine_ls_number_reflns         1730
_refine_ls_number_restraints     0
_refine_ls_restrained_S_all      1.0017
_refine_ls_R_factor_all          0.0548
_refine_ls_R_factor_gt           0.0385
_refine_ls_shift/su_max          0.9598
_refine_ls_shift/su_mean         0.0351
_refine_ls_structure_factor_coef Fsqd
_refine_ls_weighting_details
'w=1/[\s^2^(Fo^2^)+(0.0538P)^2^+0.2220P] where P=(Fo^2^+2Fc^2^)/3'
_refine_ls_weighting_scheme      calc
_refine_ls_wR_factor_gt          0.0982
_refine_ls_wR_factor_ref         0.1084
_reflns_Friedel_coverage         0.0
_reflns_limit_h_max              12
_reflns_limit_h_min              -13
_reflns_limit_k_max              9
_reflns_limit_k_min              0
_reflns_limit_l_max              13
_reflns_limit_l_min              0
_reflns_number_gt                1346
_reflns_number_total             1730
_reflns_threshold_expression     I>=2u(I)
_iucr_refine_instructions_details
;
TITL am_20_1_a.res in P2(1)/c
REM Old TITL am_20_1_a.res in P2(1)/c
REM SHELXT solution in P2(1)/c
REM R1 0.202, Rweak 0.498, Alpha 0.033, Orientation as input
REM Formula found by SHELXT: C9 N2 S
CELL 0.71073 11.1251 7.5242 11.194 90 115.098 90
ZERR 4 0.0014 0.0007 0.0012 0 0.015 0
LATT 1
SYMM -X,0.5+Y,0.5-Z
SFAC C H N S
UNIT 32 28 12 4

L.S. 10
PLAN  20
BOND $H
FMAP 2
list 4
MORE -1
ACTA 52
CONF 
SHEL 50 0.8
WGHT 0.053788 0.221978
FVAR 0.781489
REM <olex2.extras>
REM <HklSrc "%.\\AM_20_1.hkl">
REM </olex2.extras>

S001  4     0.31810  0.40250  0.55316  11.00000  0.06486  0.06561  0.03978 =
 0.00105  0.03209  0.01175 
N002  3     0.36216  0.35160  0.35016  11.00000  0.06702  0.06171  0.04096 =
 0.00777  0.03332  0.00962 
N003  3     0.42337  0.21130  0.43323  11.00000  0.07741  0.06369  0.04469 =
 0.00926  0.04090  0.01785 
C00A  1     0.07978  0.90718  0.19044  11.00000  0.08170  0.09157  0.10727 =
 0.04896  0.05529  0.03172 
AFIX 43
H00A  2     0.02838  1.00349  0.14486  11.00000 -1.20000 
AFIX 0
C00B  1     0.08366  0.75656  0.12336  11.00000  0.08919  0.10784  0.06607 =
 0.03335  0.03748  0.02466 
AFIX 43
H00B  2     0.03601  0.75168  0.03220  11.00000 -1.20000 
AFIX 0
C00C  1     0.15178  0.91630  0.32515  11.00000  0.08452  0.06650  0.11326 =
 0.00827  0.05090  0.01907 
AFIX 43
H00C  2     0.15066  1.01948  0.37041  11.00000 -1.20000 
AFIX 0
N004  3     0.46093  0.10165  0.64167  11.00000  0.10675  0.08180  0.05179 =
 0.01979  0.05405  0.03397 
AFIX 7
H00d  2     0.41367  0.09718  0.68565  11.00000 -1.20000 
H00e  2     0.46039 -0.00060  0.60710  11.00000 -1.20000 
AFIX 0
C005  1     0.30393  0.46209  0.39722  11.00000  0.04997  0.05588  0.03923 =
 0.00108  0.02647  0.00063 
C006  1     0.22932  0.61879  0.32625  11.00000  0.05061  0.06041  0.05119 =
 0.00785  0.03100  0.00242 
C007  1     0.40863  0.21977  0.54305  11.00000  0.06030  0.06232  0.04195 =
 0.00427  0.03176  0.00923 
C008  1     0.22552  0.77186  0.39261  11.00000  0.06703  0.06923  0.06992 =
 -0.00099  0.03031  0.00909 
AFIX 43
H008  2     0.27321  0.77752  0.48374  11.00000 -1.20000 
AFIX 0
C009  1     0.15743  0.61321  0.19008  11.00000  0.07717  0.07965  0.05108 =
 0.01195  0.02998  0.01142 
AFIX 43
H009  2     0.15944  0.51134  0.14391  11.00000 -1.20000 
AFIX 0
HKLF 4

END
Q1 1 0.472222 0.125 0.722222 11 0.05 0.32
Q2 1 0.527778 0 0.638889 11 0.05 0.29
Q3 1 0.333333 0.458333 0.472222 11 0.05 0.2
Q4 1 0.416667 0.083333 0.611111 11 0.05 0.2
Q5 1 0.555556 0.291667 0.527778 11 0.05 0.19
Q6 1 0.388889 0.583333 0.5 11 0.05 0.17
Q7 1 0.444444 0.125 0.388889 11 0.05 0.17
Q8 1 0.388889 0.333333 0.583333 11 0.05 0.16
Q9 1 0.222222 0.625 0.361111 11 0.05 0.15
Q10 1 -0.138889 0.875 0.055556 11 0.05 0.15
Q11 1 0.166667 0.291667 0.527778 11 0.05 0.15
Q12 1 0.25 0.333333 0.5 11 0.05 0.15
Q13 1 0.305556 0.333333 0.277778 11 0.05 0.15
Q14 1 0.361111 0.416667 0.388889 11 0.05 0.14
Q15 1 0.222222 0.666667 0.25 11 0.05 0.14
Q16 1 0.444444 -0.208333 0.555556 11 0.05 0.14
Q17 1 -0.027778 0.666667 0.055556 11 0.05 0.13
Q18 1 0.138889 0.416667 0.138889 11 0.05 0.13
Q19 1 0.138889 1.083333 0.055556 11 0.05 0.13
Q20 1 0.333333 0.791667 0.527778 11 0.05 0.13

  REM The information below was added by Olex2.
  REM
  REM R1 = 0.0385 for 1346 Fo > 4sig(Fo) and 0.0548 for all 1730 data
  REM 110 parameters refined using 0 restraints
  REM Highest difference peak 0.3180, deepest hole -0.2835
  REM Mean Shift 0.0351, Max Shift 0.9598.

  REM +++ Tabular Listing of Refinement Information +++
  REM R1_all = 0.0548
  REM R1_gt = 0.0385
  REM wR_ref = 0.1084
  REM GOOF = 1.0017
  REM Shift_max = 0.9598
  REM Shift_mean = 0.0351
  REM Reflections_all = 1730
  REM Reflections_gt = 1346
  REM Parameters = 110
  REM Hole = -0.2835
  REM Peak = 0.3180
  REM Flack = n/a

  
;
_cod_data_source_file            d0nj01954b2.cif
_cod_data_source_block           AM_20_1
_cod_depositor_comments
;Adding full bibliography for 1558147.cif.

 Adding full bibliography for 1558147.cif.
;
_cod_database_code               1558147
_olex2_refinement_description
;
1. Fixed Uiso
 At 1.2 times of:
  All C(H) groups, All N(H,H) groups
2.a Rotating group:
 N004(H00d,H00e)
2.b Aromatic/amide H refined with riding coordinates:
 C009(H009), C00B(H00B), C00A(H00A), C00C(H00C), C008(H008)
;
_iucr_refine_fcf_details
;
data_AM_20_1_CCDC1
_computing_structure_refinement   'olex2.refine (Bourhis et al., 2015)'
_shelx_refln_list_code            4
loop_
  _space_group_symop_id
  _space_group_symop_operation_xyz
  1  x,y,z
  2  -x,y+1/2,-z+1/2
  3  -x,-y,-z
  4  x,-y-1/2,z-1/2

_space_group_crystal_system       monoclinic
_space_group_IT_number            14
_space_group_name_H-M_alt         'P 1 21/c 1'
_space_group_name_Hall            '-P 2ybc'
_symmetry_space_group_name_H-M    'P 1 21/c 1'
_symmetry_space_group_name_Hall   '-P 2ybc'
_symmetry_Int_Tables_number       14
_cell_length_a                    11.1251(14)
_cell_length_b                    7.5242(7)
_cell_length_c                    11.1940(12)
_cell_angle_alpha                 90
_cell_angle_beta                  115.098(15)
_cell_angle_gamma                 90
_cell_volume                      848.55(19)
loop_
  _refln_index_h
  _refln_index_k
  _refln_index_l
  _refln_F_squared_calc
  _refln_F_squared_meas
  _refln_F_squared_sigma
  _refln_F_squared_weight
  _refln_observed_status
-13 0 2 19.962 13.623 4.274 23.768 o
-13 0 4 0.602 4.061 2.554 79.459 o
-13 0 6 32.209 31.225 4.650 17.388 o
-13 0 8 0.907 1.948 3.308 49.016 o
-13 0 10 0.011 5.289 4.257 29.693 o
-13 1 2 0.010 -1.766 2.223 111.241 o
-13 1 3 12.744 12.682 1.860 81.475 o
-13 1 4 0.056 -0.567 1.387 284.759 o
-13 1 5 1.301 -2.391 2.898 64.009 o
-13 1 6 12.600 11.052 3.275 39.783 o
-13 1 7 1.782 1.670 2.964 59.927 o
-13 1 8 33.946 38.773 5.829 12.084 o
-13 1 9 3.575 1.331 2.376 87.392 o
-13 2 2 0.417 1.296 3.136 55.058 o
-13 2 3 1.421 -1.867 2.030 126.890 o
-13 2 4 0.205 -2.243 2.260 107.102 o
-13 2 5 6.112 7.778 2.800 58.227 o
-13 2 6 0.188 0.720 2.538 84.334 o
-13 2 7 80.934 84.768 7.499 5.851 o
-13 2 8 16.410 14.164 3.962 27.664 o
-13 2 9 11.785 12.362 4.798 21.085 o
-13 3 4 0.075 1.212 2.309 101.278 o
-13 3 5 0.464 2.734 2.554 80.897 o
-13 3 6 18.343 18.928 3.979 26.273 o
-13 3 7 4.269 4.061 3.127 51.108 o
-12 0 2 1.161 -0.065 3.062 57.608 o
-12 0 4 17.306 20.182 2.579 47.147 o
-12 0 6 119.647 121.478 7.712 4.298 o
-12 0 8 287.894 295.534 13.459 1.124 o
-12 0 10 12.380 8.891 4.093 28.053 o
-12 1 1 0.320 -0.891 1.284 324.379 o
-12 1 2 14.988 14.487 1.859 74.563 o
-12 1 3 1.089 2.038 1.451 227.083 o
-12 1 4 33.494 30.081 2.570 32.724 o
-12 1 5 16.921 15.769 1.840 70.113 o
-12 1 6 4.619 3.576 3.512 41.249 o
-12 1 7 38.234 39.475 3.577 21.416 o
-12 1 8 0.894 0.454 2.222 107.744 o
-12 1 9 39.344 35.873 3.910 19.662 o
-12 1 10 10.897 15.101 3.090 43.260 o
-12 1 11 0.130 -1.733 2.677 76.551 o
-12 2 1 21.065 26.166 2.553 42.103 o
-12 2 2 0.001 0.437 1.210 367.684 o
-12 2 3 53.265 54.673 4.814 12.662 o
-12 2 4 0.480 3.930 2.341 94.004 o
-12 2 5 2.640 1.588 2.096 111.905 o
-12 2 6 0.911 1.195 2.505 84.601 o
-12 2 7 41.181 41.115 5.502 12.418 o
-12 2 8 2.456 2.673 1.950 125.520 o
-12 2 9 2.716 4.986 2.947 57.953 o
-12 2 10 0.390 5.091 2.574 77.824 o
-12 3 1 3.100 2.702 1.768 144.345 o
-12 3 2 47.233 48.221 4.601 14.377 o
-12 3 3 8.753 5.469 2.227 80.571 o
-12 3 4 14.451 17.618 3.422 34.713 o
-12 3 5 2.644 1.441 2.571 77.253 o
-12 3 6 60.528 55.966 5.829 9.627 o
-12 3 7 7.829 4.241 3.258 45.031 o
-12 3 8 9.469 14.311 4.093 28.108 o
-12 3 9 5.994 12.543 4.601 23.734 o
-12 3 10 29.613 24.987 5.534 14.056 o
-12 4 2 8.586 9.972 2.587 61.552 o
-12 4 3 7.349 7.286 2.407 72.624 o
-12 4 4 11.903 9.038 2.767 52.728 o
-12 4 5 4.954 1.834 2.374 83.990 o
-12 4 6 3.491 7.155 3.013 54.001 o
-12 4 7 0.388 4.241 3.553 42.302 o
-12 4 8 3.390 2.767 3.242 48.914 o
-11 0 2 103.232 112.309 4.604 7.105 o
-11 0 4 3.002 2.887 1.553 177.812 o
-11 0 6 94.326 89.926 6.631 6.145 o
-11 0 8 431.247 431.405 15.981 0.619 o
-11 0 10 26.209 28.589 5.387 14.820 o
-11 0 12 1.487 -0.180 3.815 37.224 o
-11 1 1 47.783 50.265 3.208 19.709 o
-11 1 2 39.686 37.995 2.862 25.829 o
-11 1 3 34.413 31.591 1.899 38.546 o
-11 1 4 4.159 5.659 1.472 168.597 o
-11 1 5 7.402 5.259 1.386 155.693 o
-11 1 6 75.843 72.140 3.029 13.152 o
-11 1 7 43.449 54.695 4.021 16.630 o
-11 1 8 59.672 60.492 4.352 12.903 o
-11 1 9 64.610 59.142 4.532 11.992 o
-11 1 10 1.772 -0.365 2.607 77.870 o
-11 1 11 21.121 21.424 3.610 28.890 o
-11 1 12 13.450 16.660 3.571 33.176 o
-11 2 1 30.695 27.438 2.428 36.676 o
-11 2 2 6.112 7.057 1.512 143.524 o
-11 2 3 52.676 50.989 4.290 14.546 o
-11 2 4 6.448 8.040 2.538 67.659 o
-11 2 5 1.929 2.108 1.579 186.758 o
-11 2 6 1.827 1.437 1.600 186.844 o
-11 2 7 76.909 70.179 4.353 10.653 o
-11 2 8 3.423 3.884 2.156 100.409 o
-11 2 9 8.544 8.145 2.317 73.938 o
-11 2 10 5.593 5.600 4.536 25.114 o
-11 2 11 70.636 83.966 8.940 4.873 o
-11 3 1 5.768 4.847 1.736 127.628 o
-11 3 2 3.036 -0.262 1.425 220.909 o
-11 3 3 0.019 -1.572 1.605 213.401 o
-11 3 4 0.063 2.358 2.325 98.376 o
-11 3 5 5.336 6.484 2.620 66.866 o
-11 3 6 124.727 116.632 7.958 4.122 o
-11 3 7 2.227 3.275 2.620 73.795 o
-11 3 8 2.842 -1.261 2.996 58.463 o
-11 3 9 0.618 -1.457 3.127 55.719 o
-11 3 10 30.446 28.327 5.829 12.753 o
-11 3 11 1.652 2.194 3.848 36.137 o
-11 4 1 1.301 0.246 1.392 255.835 o
-11 4 2 0.002 -0.508 1.474 253.266 o
-11 4 3 1.988 1.752 1.768 154.463 o
-11 4 4 0.324 1.343 1.834 156.649 o
-11 4 5 10.645 13.197 3.242 40.919 o
-11 4 6 3.575 2.309 2.636 71.647 o
-11 4 7 47.412 45.651 5.829 10.848 o
-11 4 8 60.048 57.243 6.713 8.056 o
-11 4 9 30.309 29.408 5.616 13.481 o
-11 4 10 25.931 30.357 6.173 11.866 o
-11 5 1 29.383 34.222 4.208 20.104 o
-11 5 2 3.278 1.425 1.572 178.520 o
-11 5 3 1.480 1.981 1.850 144.884 o
-11 5 4 1.505 -0.295 1.850 150.753 o
-11 5 5 11.042 12.952 3.242 40.759 o
-11 5 6 5.394 5.862 2.865 57.716 o
-11 5 7 12.527 16.210 4.159 26.326 o
-11 5 8 2.522 0.311 3.111 54.552 o
-10 0 2 45.977 51.914 2.987 20.985 o
-10 0 4 276.886 270.561 13.828 1.169 o
-10 0 6 1.382 1.588 2.554 80.275 o
-10 0 8 34.733 30.194 4.847 16.155 o
-10 0 10 2.003 2.882 3.684 39.021 o
-10 0 12 239.191 256.302 14.213 1.280 o
-10 1 1 39.123 36.890 1.923 33.395 o
-10 1 2 26.287 27.156 1.709 50.663 o
-10 1 3 38.852 40.817 2.153 30.712 o
-10 1 4 0.858 -0.096 0.934 549.572 o
-10 1 5 64.885 68.852 2.902 15.372 o
-10 1 6 227.102 216.741 4.831 2.528 o
-10 1 7 0.895 0.686 1.894 145.879 o
-10 1 8 267.173 281.085 8.758 1.569 o
-10 1 9 21.572 19.523 3.171 34.489 o
-10 1 10 35.041 35.577 5.624 12.783 o
-10 1 11 44.234 48.209 4.662 14.536 o
-10 1 12 7.729 6.211 2.781 57.966 o
-10 2 1 13.779 12.079 1.739 85.168 o
-10 2 2 18.745 25.012 2.180 51.755 o
-10 2 3 7.145 5.571 1.313 165.701 o
-10 2 4 20.032 19.270 2.038 56.881 o
-10 2 5 19.051 19.029 2.245 53.325 o
-10 2 6 3.239 1.849 1.260 247.258 o
-10 2 7 115.110 116.635 5.224 6.005 o
-10 2 8 0.357 1.158 2.186 111.855 o
-10 2 9 93.405 100.381 5.487 7.067 o
-10 2 10 3.233 0.604 2.295 94.777 o
-10 2 11 6.738 7.434 4.159 28.977 o
-10 2 12 3.487 0.557 4.224 29.862 o
-10 3 1 0.241 1.081 1.179 365.205 o
-10 3 2 38.129 43.555 3.848 19.453 o
-10 3 3 46.870 47.337 4.175 16.056 o
-10 3 4 0.169 -1.343 1.703 188.073 o
-10 3 5 8.552 7.139 2.718 58.711 o
-10 3 6 72.925 72.815 6.009 8.132 o
-10 3 7 12.894 14.622 3.766 31.086 o
-10 3 8 50.526 48.450 6.124 9.869 o
-10 3 9 0.894 -0.753 3.520 43.914 o
-10 3 10 1.814 7.696 4.372 27.516 o
-10 3 11 11.867 12.412 4.929 20.088 o
-10 3 12 7.003 12.100 5.420 17.450 o
-10 4 1 36.955 37.676 3.815 20.520 o
-10 4 2 37.435 42.081 4.061 18.626 o
-10 4 3 11.178 16.980 2.980 44.770 o
-10 4 4 185.816 190.315 9.104 2.435 o
-10 4 5 5.068 2.063 2.079 104.300 o
-10 4 6 10.059 8.957 3.144 44.704 o
-10 4 7 98.199 103.582 7.925 4.829 o
-10 4 8 19.216 21.990 4.814 19.090 o
-10 4 9 112.613 125.097 9.890 3.372 o
-10 4 10 3.364 -0.999 4.028 32.867 o
-10 4 11 19.928 25.118 5.862 13.575 o
-10 5 1 9.132 9.873 2.309 71.763 o
-10 5 2 19.329 14.229 2.734 44.771 o
-10 5 3 20.874 22.236 3.471 30.398 o
-10 5 4 3.835 2.260 2.079 108.068 o
-10 5 5 64.007 66.806 5.927 8.910 o
-10 5 6 0.010 3.111 2.505 84.488 o
-10 5 7 1.242 9.873 3.537 40.833 o
-10 5 8 4.856 4.077 3.586 39.463 o
-10 5 9 1.931 -1.981 3.832 36.744 o
-10 6 1 0.044 0.518 1.129 416.760 o
-10 6 2 1.731 2.505 1.457 213.510 o
-10 6 3 1.223 0.770 1.588 199.036 o
-10 6 4 33.702 43.145 4.978 14.916 o
-10 6 5 12.144 11.036 3.209 41.321 o
-10 6 6 19.961 20.467 4.143 24.128 o
-10 6 7 13.960 18.699 4.355 23.797 o
-9 0 2 6.476 8.871 1.546 132.305 o
-9 0 4 28.538 27.958 3.066 30.536 o
-9 0 6 453.932 436.382 13.869 0.631 o
-9 0 8 522.001 513.913 17.029 0.464 o
-9 0 10 112.182 95.149 8.089 4.514 o
-9 0 12 18.942 20.271 5.371 16.070 o
-9 1 1 6.940 6.855 1.011 204.245 o
-9 1 2 321.826 337.576 5.499 1.335 o
-9 1 3 13.247 9.623 0.897 141.259 o
-9 1 4 46.297 45.350 1.507 29.598 o
-9 1 5 0.098 0.333 1.266 335.061 o
-9 1 6 78.680 76.967 2.580 13.215 o
-9 1 7 475.421 447.432 10.535 0.653 o
-9 1 8 239.668 255.907 8.175 1.865 o
-9 1 9 248.775 240.773 8.411 1.831 o
-9 1 10 51.656 54.681 5.813 10.284 o
-9 1 11 41.642 39.990 5.976 11.065 o
-9 1 12 14.531 15.741 3.238 38.085 o
-9 1 13 35.783 32.404 6.222 11.029 o
-9 2 1 69.995 71.328 4.295 11.361 o
-9 2 2 45.069 36.741 1.817 30.804 o
-9 2 3 228.512 213.922 6.009 2.388 o
-9 2 4 19.727 18.930 2.115 55.637 o
-9 2 5 2.796 5.247 0.925 324.619 o
-9 2 6 60.639 53.980 2.380 19.305 o
-9 2 7 32.207 26.707 2.874 31.137 o
-9 2 8 11.816 12.586 2.564 56.865 o
-9 2 9 24.586 30.332 3.434 27.920 o
-9 2 10 0.097 5.158 3.717 38.684 o
-9 2 11 164.716 163.723 11.347 2.260 o
-9 2 12 1.823 5.698 4.748 23.643 o
-9 2 13 38.966 44.177 7.237 8.310 o
-9 3 1 17.831 19.993 2.538 47.618 o
-9 3 2 109.863 122.936 6.075 5.503 o
-9 3 3 63.060 64.497 4.568 11.794 o
-9 3 4 20.896 16.636 2.784 41.782 o
-9 3 5 15.393 16.849 3.029 40.967 o
-9 3 6 58.096 48.385 4.929 12.180 o
-9 3 7 6.590 7.434 2.996 51.703 o
-9 3 8 8.153 12.788 4.110 28.481 o
-9 3 9 9.672 14.606 4.536 23.456 o
-9 3 10 22.610 17.782 4.486 21.107 o
-9 3 11 31.746 32.797 5.878 12.319 o
-9 3 12 72.803 72.455 8.613 5.210 o
-9 4 1 95.310 93.261 4.095 8.642 o
-9 4 2 14.916 16.325 2.587 50.978 o
-9 4 3 51.079 58.635 4.617 13.249 o
-9 4 4 5.203 7.401 2.260 84.311 o
-9 4 5 7.329 8.776 2.603 63.320 o
-9 4 6 25.339 29.309 4.274 20.968 o
-9 4 7 0.041 -0.377 2.227 110.794 o
-9 4 8 36.966 28.196 4.912 15.702 o
-9 4 9 39.575 48.532 6.582 9.483 o
-9 4 10 0.276 0.901 3.570 42.810 o
-9 4 11 41.591 40.345 6.844 9.035 o
-9 5 1 0.263 -0.227 1.948 143.416 o
-9 5 2 0.952 0.115 1.277 308.746 o
-9 5 3 25.143 26.919 3.537 27.323 o
-9 5 4 1.476 -1.064 1.948 136.916 o
-9 5 5 14.374 17.455 3.389 35.283 o
-9 5 6 1.440 -2.358 2.538 82.635 o
-9 5 7 126.125 127.717 8.809 3.617 o
-9 5 8 0.043 -2.734 3.144 55.622 o
-9 5 9 67.173 68.689 7.417 6.606 o
-9 5 10 0.277 -1.294 3.799 38.012 o
-9 6 1 24.841 26.937 2.570 38.852 o
-9 6 2 0.972 3.657 1.361 241.646 o
-9 6 3 17.602 21.270 3.340 33.627 o
-9 6 4 15.018 15.653 3.160 39.191 o
-9 6 5 2.949 4.454 2.260 93.146 o
-9 6 6 65.939 65.741 6.517 7.900 o
-9 6 7 13.944 17.717 4.044 26.968 o
-9 6 8 10.932 9.481 3.602 35.240 o
-9 6 9 38.881 29.489 5.485 13.187 o
-9 7 2 22.430 25.773 3.864 25.282 o
-9 7 3 4.364 6.877 2.440 76.567 o
-9 7 4 7.031 3.373 1.719 126.669 o
-9 7 5 1.800 5.911 2.636 71.608 o
-8 0 2 440.929 424.970 5.883 0.809 o
-8 0 4 100.781 102.331 2.729 9.231 o
-8 0 6 460.126 428.932 13.296 0.639 o
-8 0 8 450.567 473.027 15.965 0.571 o
-8 0 10 109.289 114.012 8.596 4.104 o
-8 0 12 314.188 316.820 15.130 0.939 o
-8 1 1 124.532 130.848 2.999 6.591 o
-8 1 2 34.788 38.303 2.529 30.371 o
-8 1 3 136.649 143.004 2.619 5.894 o
-8 1 4 25.665 26.885 1.980 47.145 o
-8 1 5 69.078 63.661 2.032 17.116 o
-8 1 6 2.202 3.483 5.092 20.731 o
-8 1 7 229.914 239.455 9.325 1.860 o
-8 1 8 59.481 58.510 4.214 13.415 o
-8 1 9 145.238 151.734 14.515 1.796 o
-8 1 10 21.268 23.459 3.394 30.906 o
-8 1 11 0.944 1.606 2.636 76.276 o
-8 1 12 78.586 81.166 8.138 5.388 o
-8 1 13 57.319 63.678 7.859 6.458 o
-8 2 1 6.153 5.033 0.896 252.053 o
-8 2 2 88.219 79.049 2.423 12.027 o
-8 2 3 1.275 2.122 1.140 332.938 o
-8 2 4 0.126 -0.185 0.327 4386.090 o
-8 2 5 708.811 691.702 7.400 0.335 o
-8 2 6 6.897 9.173 0.845 213.067 o
-8 2 7 275.331 272.883 9.108 1.521 o
-8 2 8 15.616 14.586 2.502 53.299 o
-8 2 9 43.830 45.918 6.345 9.846 o
-8 2 10 4.850 6.844 3.815 34.670 o
-8 2 11 4.156 8.383 4.486 25.642 o
-8 2 12 2.340 7.303 4.454 26.488 o
-8 2 13 144.043 133.530 11.052 2.614 o
-8 3 1 13.933 17.969 1.790 75.695 o
-8 3 2 6.074 10.889 1.932 98.104 o
-8 3 3 7.446 10.283 2.129 83.394 o
-8 3 4 478.071 462.799 8.641 0.666 o
-8 3 5 36.470 39.045 1.920 34.384 o
-8 3 6 155.896 153.225 3.761 4.661 o
-8 3 7 12.656 10.790 3.406 37.452 o
-8 3 8 114.009 106.136 7.925 4.458 o
-8 3 9 8.274 12.051 4.290 26.470 o
-8 3 10 58.037 54.722 7.074 7.636 o
-8 3 11 3.172 0.426 4.028 32.861 o
-8 3 12 43.802 41.295 6.943 8.722 o
-8 4 1 1.374 1.487 1.042 391.613 o
-8 4 2 27.101 25.304 2.029 45.738 o
-8 4 3 44.515 40.869 3.717 19.072 o
-8 4 4 155.457 135.777 4.339 4.743 o
-8 4 5 99.563 110.884 6.730 5.551 o
-8 4 6 11.291 8.138 2.620 58.282 o
-8 4 7 60.865 50.776 5.371 10.752 o
-8 4 8 34.143 37.038 5.420 13.507 o
-8 4 9 4.506 -3.455 3.815 36.077 o
-8 4 10 8.000 2.947 3.537 39.222 o
-8 4 11 0.147 6.926 4.437 27.177 o
-8 4 12 54.992 72.831 8.842 5.370 o
-8 5 1 32.949 33.332 2.511 32.728 o
-8 5 2 12.855 12.089 1.631 92.987 o
-8 5 3 33.234 34.533 3.602 23.188 o
-8 5 4 39.273 32.551 3.750 20.963 o
-8 5 5 39.359 41.164 4.454 16.510 o
-8 5 6 3.767 0.851 2.456 82.411 o
-8 5 7 77.222 73.470 6.648 7.076 o
-8 5 8 36.921 34.074 5.305 13.798 o
-8 5 9 220.986 235.146 13.066 1.494 o
-8 5 10 1.427 7.385 3.586 40.301 o
-8 5 11 59.045 53.477 7.450 7.084 o
-8 6 1 27.419 33.122 2.702 33.767 o
-8 6 2 53.480 56.336 3.273 17.543 o
-8 6 3 8.293 8.154 2.292 75.551 o
-8 6 4 1.052 1.130 1.899 142.878 o
-8 6 5 15.037 18.011 3.602 31.843 o
-8 6 6 0.356 -2.800 2.620 79.535 o
-8 6 7 1.143 2.456 2.325 95.435 o
-8 6 8 2.725 6.681 3.340 45.455 o
-8 6 9 6.113 14.196 4.585 23.713 o
-8 7 1 8.864 10.365 2.571 61.535 o
-8 7 2 3.568 1.310 1.572 176.406 o
-8 7 3 4.434 3.897 1.932 116.312 o
-8 7 4 47.179 48.500 5.125 12.679 o
-8 7 5 4.373 1.490 2.161 100.711 o
-8 7 6 17.402 18.765 3.995 26.389 o
-8 7 7 6.086 6.107 3.455 41.066 o
-7 0 2 1046.260 1045.000 11.446 0.156 o
-7 0 4 580.356 540.368 11.684 0.461 o
-7 0 6 2.226 7.892 3.177 49.772 o
-7 0 8 2.459 -2.178 3.537 42.708 o
-7 0 10 70.800 73.503 7.041 6.847 o
-7 0 12 340.212 340.627 15.604 0.841 o
-7 1 1 20.555 17.703 0.966 86.042 o
-7 1 2 10.495 7.641 0.597 200.978 o
-7 1 3 795.186 830.883 6.157 0.262 o
-7 1 4 3.363 3.151 0.708 435.791 o
-7 1 5 32.083 23.196 1.244 52.584 o
-7 1 6 5.687 5.976 2.101 94.952 o
-7 1 7 248.008 251.994 7.514 1.887 o
-7 1 8 197.485 187.368 5.044 3.100 o
-7 1 9 113.916 113.377 3.766 7.161 o
-7 1 10 200.529 200.748 7.821 2.477 o
-7 1 11 101.416 106.550 6.068 6.082 o
-7 1 12 0.013 7.417 4.421 27.350 o
-7 1 13 90.287 94.990 4.981 7.905 o
-7 2 1 218.199 227.274 6.944 2.303 o
-7 2 2 17.504 22.948 1.364 76.138 o
-7 2 3 20.041 24.139 0.791 82.105 o
-7 2 4 73.206 72.545 1.847 15.714 o
-7 2 5 7.904 7.658 0.946 195.971 o
-7 2 6 149.173 148.968 2.137 5.396 o
-7 2 7 616.031 570.471 10.875 0.425 o
-7 2 8 524.099 524.256 18.333 0.441 o
-7 2 9 372.629 388.489 15.539 0.745 o
-7 2 10 55.502 62.516 7.024 7.656 o
-7 2 11 2.746 1.408 3.782 37.088 o
-7 2 12 25.884 23.562 5.354 15.254 o
-7 2 13 4.543 9.153 4.175 29.122 o
-7 3 1 17.631 23.935 1.855 61.498 o
-7 3 2 109.436 99.915 3.513 8.023 o
-7 3 3 181.804 171.364 2.936 3.925 o
-7 3 4 4.156 5.520 0.989 266.831 o
-7 3 5 17.092 23.603 1.685 67.213 o
-7 3 6 65.336 61.664 2.323 17.461 o
-7 3 7 2.211 2.166 0.912 412.654 o
-7 3 8 212.153 204.642 10.659 1.915 o
-7 3 9 28.511 21.777 4.699 18.394 o
-7 3 10 196.350 192.672 11.822 1.877 o
-7 3 11 4.131 3.373 4.126 30.680 o
-7 3 12 4.503 1.375 4.044 32.058 o
-7 3 13 5.895 8.678 4.879 21.608 o
-7 4 1 171.362 194.813 5.400 3.401 o
-7 4 2 242.471 251.287 8.834 1.794 o
-7 4 3 67.604 64.823 3.222 14.464 o
-7 4 4 87.664 73.819 2.229 12.693 o
-7 4 5 20.809 26.841 1.462 63.194 o
-7 4 6 25.725 24.723 3.512 27.737 o
-7 4 7 93.493 87.552 6.910 5.962 o
-7 4 8 112.286 112.882 8.367 4.182 o
-7 4 9 24.039 20.991 4.798 18.549 o
-7 4 10 4.568 6.320 4.044 31.297 o
-7 4 11 19.540 21.319 5.420 15.711 o
-7 4 12 82.413 74.813 8.826 4.823 o
-7 5 1 17.596 19.261 1.998 61.325 o
-7 5 2 20.808 19.884 1.895 58.807 o
-7 5 3 448.608 476.283 8.564 0.704 o
-7 5 4 5.870 8.596 2.276 80.697 o
-7 5 5 34.620 41.524 4.372 17.605 o
-7 5 6 38.418 35.162 2.325 31.047 o
-7 5 7 3.385 -0.671 2.849 63.723 o
-7 5 8 0.617 1.359 2.636 77.006 o
-7 5 9 23.309 29.473 5.453 14.780 o
-7 5 10 2.029 4.355 3.619 40.037 o
-7 5 11 95.908 105.268 10.021 3.649 o
-7 6 1 2.155 2.266 1.186 288.608 o
-7 6 2 13.365 18.399 1.916 71.787 o
-7 6 3 0.037 0.139 0.939 612.877 o
-7 6 4 44.468 45.421 4.519 15.213 o
-7 6 5 2.221 -1.146 2.276 99.746 o
-7 6 6 66.769 72.406 6.320 7.995 o
-7 6 7 20.827 21.745 4.093 24.194 o
-7 6 8 3.490 4.355 3.308 46.542 o
-7 6 9 33.031 43.997 6.288 10.668 o
-7 6 10 21.882 25.412 5.665 14.196 o
-7 7 1 5.225 7.247 1.629 135.366 o
-7 7 2 4.526 6.484 2.112 96.711 o
-7 7 3 0.466 0.213 1.359 284.726 o
-7 7 4 5.992 5.207 2.243 85.976 o
-7 7 5 15.948 12.723 3.127 40.094 o
-7 7 6 1.945 -1.375 2.816 66.887 o
-7 7 7 52.883 53.739 6.140 9.538 o
-7 7 8 18.605 17.782 4.716 20.168 o
-7 8 2 12.688 15.375 2.996 43.917 o
-7 8 3 2.008 4.781 2.309 91.596 o
-7 8 4 1.002 -2.260 2.194 110.827 o
-6 0 2 388.056 377.920 6.076 1.000 o
-6 0 4 57.475 73.633 1.969 18.806 o
-6 0 6 1.731 1.932 2.784 67.442 o
-6 0 8 770.734 731.834 19.616 0.249 o
-6 0 10 92.471 101.879 8.007 4.922 o
-6 0 12 50.841 49.474 3.394 18.312 o
-6 1 1 189.207 168.675 3.677 3.664 o
-6 1 2 259.388 228.381 3.560 2.224 o
-6 1 3 711.532 692.900 5.957 0.337 o
-6 1 4 132.543 133.236 2.620 6.301 o
-6 1 5 999.574 979.571 8.125 0.175 o
-6 1 6 7.438 7.962 1.075 182.647 o
-6 1 7 901.140 895.586 10.830 0.207 o
-6 1 8 44.761 43.971 3.838 18.138 o
-6 1 9 123.613 120.009 5.889 5.231 o
-6 1 10 48.350 44.539 5.133 12.732 o
-6 1 11 28.718 24.416 2.208 42.052 o
-6 1 12 128.877 121.683 3.916 6.136 o
-6 1 13 9.531 8.268 1.937 91.462 o
-6 2 1 199.333 199.432 4.178 3.114 o
-6 2 2 545.875 606.715 5.788 0.507 o
-6 2 3 374.349 398.608 4.030 1.050 o
-6 2 4 112.947 108.291 2.501 8.229 o
-6 2 5 976.987 1001.310 8.827 0.177 o
-6 2 6 564.169 592.989 8.612 0.477 o
-6 2 7 37.111 32.993 4.699 16.320 o
-6 2 8 238.044 243.153 11.757 1.538 o
-6 2 9 89.364 98.964 8.056 4.991 o
-6 2 10 40.793 38.112 2.268 29.576 o
-6 2 11 6.661 4.667 3.913 32.844 o
-6 2 12 0.008 -1.785 4.093 32.826 o
-6 2 13 247.542 250.993 8.415 1.805 o
-6 3 1 0.676 -0.849 0.791 757.896 o
-6 3 2 206.059 194.201 3.749 3.108 o
-6 3 3 1.776 3.090 0.665 580.239 o
-6 3 4 253.146 247.218 3.700 2.184 o
-6 3 5 28.788 30.399 1.534 48.483 o
-6 3 6 352.691 355.985 8.499 1.073 o
-6 3 7 91.350 95.011 2.857 10.286 o
-6 3 8 19.043 19.349 0.651 95.984 o
-6 3 9 49.073 58.750 6.550 8.814 o
-6 3 10 59.273 72.029 7.696 6.473 o
-6 3 11 9.108 6.992 3.946 31.184 o
-6 3 12 113.132 138.655 10.659 2.999 o
-6 3 13 2.627 3.966 1.828 135.760 o
-6 4 1 138.793 152.071 4.489 4.945 o
-6 4 2 5.359 9.108 0.994 213.096 o
-6 4 3 17.430 16.230 0.909 101.067 o
-6 4 4 23.689 17.601 1.134 73.859 o
-6 4 5 61.349 55.224 3.205 16.373 o
-6 4 6 141.067 136.199 7.614 3.790 o
-6 4 7 12.503 12.636 1.415 104.952 o
-6 4 8 307.959 327.234 13.902 1.002 o
-6 4 9 20.378 15.457 4.110 24.933 o
-6 4 10 64.745 73.093 7.827 6.151 o
-6 4 11 30.807 35.302 6.337 10.928 o
-6 4 12 1.302 2.915 4.470 26.966 o
-6 5 1 10.741 8.727 2.612 58.848 o
-6 5 2 24.781 27.166 2.056 46.647 o
-6 5 3 32.248 27.607 1.481 46.899 o
-6 5 4 126.742 114.678 4.234 6.202 o
-6 5 5 111.762 122.376 2.826 7.639 o
-6 5 6 0.019 -0.737 2.391 96.207 o
-6 5 7 33.636 40.378 5.109 14.559 o
-6 5 8 34.833 31.422 4.978 15.480 o
-6 5 9 1.520 -0.720 2.931 62.382 o
-6 5 10 0.000 4.732 3.848 36.278 o
-6 5 11 45.461 49.351 7.352 7.776 o
-6 6 1 9.175 10.050 1.548 115.705 o
-6 6 2 5.220 5.218 1.760 126.893 o
-6 6 3 17.471 19.320 3.267 35.196 o
-6 6 4 0.235 3.586 2.014 126.125 o
-6 6 5 68.648 64.825 5.436 9.546 o
-6 6 6 19.681 19.338 3.553 30.438 o
-6 6 7 17.666 17.405 2.554 48.603 o
-6 6 8 40.790 45.880 5.911 11.094 o
-6 6 9 80.565 74.305 7.679 5.840 o
-6 6 10 29.307 39.461 6.468 10.543 o
-6 7 1 52.795 58.632 3.398 17.002 o
-6 7 2 38.530 44.930 4.372 16.712 o
-6 7 3 19.065 20.500 3.046 37.382 o
-6 7 4 27.253 30.914 3.962 22.579 o
-6 7 5 35.498 34.762 4.601 16.882 o
-6 7 6 5.324 4.274 2.325 83.587 o
-6 7 7 28.209 31.536 4.929 16.529 o
-6 7 8 3.223 7.958 3.570 39.651 o
-6 7 9 7.996 2.161 3.373 42.891 o
-6 8 1 12.413 17.618 3.177 39.838 o
-6 8 2 6.266 3.979 1.801 120.833 o
-6 8 3 24.120 31.422 4.126 22.043 o
-6 8 4 0.013 2.636 2.079 121.610 o
-6 8 5 38.793 42.605 5.207 13.535 o
-6 8 6 2.178 3.226 2.391 87.398 o
-5 0 2 24.442 24.571 1.141 64.974 o
-5 0 4 923.806 982.732 16.325 0.180 o
-5 0 6 443.821 476.235 9.210 0.702 o
-5 0 8 134.503 113.488 7.434 4.214 o
-5 0 10 303.280 322.958 7.473 1.368 o
-5 0 12 53.625 56.228 4.355 13.875 o
-5 1 1 1271.080 1236.520 15.224 0.108 o
-5 1 2 43.574 46.948 2.391 25.694 o
-5 1 3 689.494 666.999 4.935 0.362 o
-5 1 4 644.503 625.946 7.059 0.402 o
-5 1 5 0.036 1.000 0.593 1276.700 o
-5 1 6 145.678 148.833 4.228 4.882 o
-5 1 7 175.069 178.157 6.148 3.303 o
-5 1 8 2.812 2.681 2.463 82.055 o
-5 1 9 11.344 11.969 2.716 53.272 o
-5 1 10 14.487 10.793 1.589 92.081 o
-5 1 11 130.408 127.852 3.841 5.977 o
-5 1 12 111.447 103.888 3.725 7.603 o
-5 1 13 111.964 124.917 7.270 4.672 o
-5 2 1 1549.810 1661.580 10.779 0.071 o
-5 2 2 142.099 160.689 1.977 5.479 o
-5 2 3 2476.050 2497.090 13.453 0.030 o
-5 2 4 2.030 1.344 0.460 886.837 o
-5 2 5 185.989 175.598 4.407 3.521 o
-5 2 6 79.415 92.370 6.591 6.685 o
-5 2 7 115.948 122.919 7.581 4.430 o
-5 2 8 19.527 14.462 1.234 85.953 o
-5 2 9 833.779 775.177 44.472 0.135 o
-5 2 10 11.302 11.541 2.955 47.281 o
-5 2 11 2.654 8.040 4.290 28.285 o
-5 2 12 18.259 25.792 5.010 17.768 o
-5 2 13 89.501 99.611 8.776 4.488 o
-5 3 1 0.261 1.650 0.656 927.887 o
-5 3 2 10.646 12.614 0.668 165.528 o
-5 3 3 110.764 115.994 2.245 8.259 o
-5 3 4 138.802 136.054 2.751 5.906 o
-5 3 5 21.345 21.410 1.943 55.922 o
-5 3 6 406.075 388.002 12.362 0.781 o
-5 3 7 89.773 85.963 6.517 6.490 o
-5 3 8 806.813 775.962 21.286 0.223 o
-5 3 9 62.093 64.902 1.981 18.713 o
-5 3 10 217.049 223.193 12.330 1.621 o
-5 3 11 17.802 18.617 4.912 18.914 o
-5 3 12 44.054 43.959 3.635 19.246 o
-5 3 13 0.313 0.762 1.533 224.195 o
-5 4 1 121.203 117.726 2.863 7.191 o
-5 4 2 162.708 150.798 3.915 4.458 o
-5 4 3 94.415 101.074 2.478 10.078 o
-5 4 4 167.614 168.700 4.897 3.851 o
-5 4 5 64.955 63.456 3.402 14.520 o
-5 4 6 22.422 20.255 3.570 29.079 o
-5 4 7 102.085 90.064 7.966 4.867 o
-5 4 8 190.688 199.353 10.758 2.060 o
-5 4 9 7.987 4.978 3.308 43.554 o
-5 4 10 191.433 193.900 11.937 1.884 o
-5 4 11 27.702 24.954 5.764 13.340 o
-5 4 12 6.950 8.265 2.024 93.318 o
-5 5 1 98.372 104.312 2.748 9.333 o
-5 5 2 203.211 192.581 3.683 3.177 o
-5 5 3 352.986 331.887 5.128 1.225 o
-5 5 4 26.024 22.604 1.172 63.338 o
-5 5 5 49.769 42.621 2.100 25.686 o
-5 5 6 105.347 99.930 6.746 5.530 o
-5 5 7 4.468 1.719 2.472 79.293 o
-5 5 8 2.877 -0.278 2.734 69.514 o
-5 5 9 15.207 16.685 4.192 25.273 o
-5 5 10 53.540 61.288 7.123 7.609 o
-5 5 11 87.145 84.932 8.940 4.558 o
-5 6 1 9.059 8.628 0.768 196.599 o
-5 6 2 45.630 45.709 1.639 29.193 o
-5 6 3 230.250 237.859 6.918 2.147 o
-5 6 4 67.921 70.326 5.174 9.880 o
-5 6 5 15.185 16.311 1.398 90.064 o
-5 6 6 10.831 10.162 1.296 126.223 o
-5 6 7 27.019 19.674 1.912 50.681 o
-5 6 8 6.505 11.986 3.832 32.881 o
-5 6 9 0.912 2.620 3.062 56.650 o
-5 6 10 50.273 58.782 7.385 7.387 o
-5 7 1 87.792 92.339 3.982 9.365 o
-5 7 2 0.871 1.139 1.793 160.355 o
-5 7 3 0.589 1.113 1.588 204.215 o
-5 7 4 30.663 32.486 3.962 21.601 o
-5 7 5 1.175 -0.933 2.079 122.247 o
-5 7 6 34.010 43.096 5.141 14.244 o
-5 7 7 1.280 5.731 3.242 49.353 o
-5 7 8 11.856 9.775 3.782 32.088 o
-5 7 9 1.199 -0.213 3.111 55.803 o
-5 8 1 6.477 6.910 2.079 92.922 o
-5 8 2 5.718 7.859 2.276 81.777 o
-5 8 3 21.080 24.757 3.602 28.408 o
-5 8 4 2.416 0.901 1.834 144.854 o
-5 8 5 14.517 11.429 3.177 40.422 o
-5 8 6 0.011 1.113 2.341 98.815 o
-4 0 2 1143.720 1166.790 18.367 0.124 o
-4 0 4 994.028 937.442 16.325 0.170 o
-4 0 6 929.333 953.532 22.449 0.169 o
-4 0 8 308.680 352.106 12.804 1.023 o
-4 0 10 8.243 12.615 1.796 97.383 o
-4 0 12 62.856 66.560 4.961 10.848 o
-4 1 1 507.070 467.025 3.102 0.668 o
-4 1 2 1668.720 1718.440 10.852 0.063 o
-4 1 3 15.654 8.288 0.603 144.930 o
-4 1 4 452.984 487.493 6.243 0.718 o
-4 1 5 720.038 719.506 7.659 0.320 o
-4 1 6 289.832 319.485 6.195 1.509 o
-4 1 7 496.216 504.481 10.348 0.587 o
-4 1 8 117.369 107.030 2.168 8.149 o
-4 1 9 30.695 25.054 1.374 51.497 o
-4 1 10 0.244 -0.338 0.648 1207.770 o
-4 1 11 0.387 1.494 2.089 121.376 o
-4 1 12 0.009 1.347 1.196 358.915 o
-4 1 13 180.366 180.605 9.022 2.552 o
-4 2 1 859.899 853.334 6.378 0.233 o
-4 2 2 164.722 144.019 2.198 4.917 o
-4 2 3 721.240 677.127 5.918 0.336 o
-4 2 4 63.378 86.117 1.783 16.429 o
-4 2 5 12.492 10.919 0.712 153.851 o
-4 2 6 574.062 589.792 11.010 0.451 o
-4 2 7 345.073 334.162 11.355 1.015 o
-4 2 8 185.742 176.979 4.896 3.413 o
-4 2 9 542.259 526.177 9.415 0.528 o
-4 2 10 23.900 24.222 2.148 47.394 o
-4 2 11 164.148 174.684 4.571 3.947 o
-4 2 12 21.183 24.609 2.898 37.191 o
-4 2 13 9.080 8.596 2.734 56.794 o
-4 3 1 36.238 44.834 1.240 37.587 o
-4 3 2 878.836 887.038 13.100 0.210 o
-4 3 3 237.090 253.428 3.529 2.327 o
-4 3 4 427.225 476.031 8.255 0.748 o
-4 3 5 81.684 97.797 3.977 9.643 o
-4 3 6 304.151 298.609 5.713 1.511 o
-4 3 7 25.744 22.956 4.274 21.531 o
-4 3 8 994.830 1022.750 24.823 0.147 o
-4 3 9 1.216 0.706 0.707 748.862 o
-4 3 10 166.989 179.835 11.134 2.229 o
-4 3 11 15.833 17.065 2.669 47.876 o
-4 3 12 45.554 43.049 3.692 18.751 o
-4 3 13 7.850 7.008 2.147 85.230 o
-4 4 1 70.068 67.605 2.898 14.619 o
-4 4 2 45.668 39.473 1.922 29.160 o
-4 4 3 87.510 80.610 2.354 12.106 o
-4 4 4 308.262 323.772 6.900 1.371 o
-4 4 5 87.012 91.336 4.143 9.259 o
-4 4 6 350.093 351.047 6.927 1.144 o
-4 4 7 6.436 2.845 1.646 139.284 o
-4 4 8 29.205 30.783 5.092 15.680 o
-4 4 9 19.968 24.643 4.945 17.996 o
-4 4 10 33.527 36.891 5.927 11.883 o
-4 4 11 43.721 45.054 3.689 18.938 o
-4 4 12 2.985 7.347 3.136 50.588 o
-4 5 1 153.540 167.502 2.933 4.740 o
-4 5 2 68.932 71.426 2.738 14.848 o
-4 5 3 88.300 85.863 2.717 11.244 o
-4 5 4 42.303 43.546 1.923 29.812 o
-4 5 5 267.322 270.836 5.691 1.831 o
-4 5 6 1.218 2.462 1.858 143.862 o
-4 5 7 125.877 114.255 4.603 6.025 o
-4 5 8 79.697 78.251 7.139 6.346 o
-4 5 9 1.234 -1.801 3.586 42.175 o
-4 5 10 1.116 -2.423 4.093 32.505 o
-4 5 11 0.231 -0.875 1.623 206.110 o
-4 6 1 9.559 9.852 0.897 171.044 o
-4 6 2 95.667 100.900 8.506 4.531 o
-4 6 3 6.719 7.600 1.112 187.422 o
-4 6 4 18.415 23.060 1.090 81.268 o
-4 6 5 24.242 21.672 1.660 57.758 o
-4 6 6 80.574 89.541 3.573 10.682 o
-4 6 7 10.536 8.051 1.484 118.821 o
-4 6 8 29.273 28.294 4.912 16.683 o
-4 6 9 6.740 9.824 4.208 28.057 o
-4 6 10 3.691 0.622 3.619 40.132 o
-4 7 1 0.010 1.200 0.891 622.362 o
-4 7 2 3.919 4.086 0.664 401.894 o
-4 7 3 0.188 0.262 1.441 259.051 o
-4 7 4 51.873 40.084 4.175 15.845 o
-4 7 5 11.645 8.678 2.734 54.093 o
-4 7 6 0.281 -0.588 0.782 842.336 o
-4 7 7 17.904 18.415 3.872 27.573 o
-4 7 8 50.735 50.902 3.313 18.520 o
-4 7 9 1.789 3.951 2.153 105.560 o
-4 8 1 34.904 33.223 3.766 21.818 o
-4 8 2 3.137 7.090 2.227 91.611 o
-4 8 3 57.091 63.564 5.322 10.658 o
-4 8 4 1.870 3.619 1.998 120.844 o
-4 8 5 0.923 -2.996 2.423 91.526 o
-4 8 6 0.188 2.260 2.505 84.978 o
-4 8 7 22.803 14.147 4.798 19.246 o
-4 9 2 11.186 14.016 2.915 47.377 o
-3 0 2 13805.300 13133.700 83.365 0.001 o
-3 0 4 245.697 249.163 5.401 2.115 o
-3 0 6 1801.340 1850.180 30.619 0.050 o
-3 0 8 172.579 166.425 7.884 2.988 o
-3 0 10 93.428 87.879 5.125 7.766 o
-3 0 12 8.164 7.221 2.227 79.974 o
-3 1 1 6352.370 6482.220 24.197 0.005 o
-3 1 2 1205.870 1248.120 8.945 0.118 o
-3 1 3 1566.710 1548.660 11.105 0.073 o
-3 1 4 1437.300 1533.880 11.911 0.082 o
-3 1 5 115.861 124.324 2.949 7.261 o
-3 1 6 1108.850 1231.680 10.240 0.132 o
-3 1 7 64.296 49.685 1.751 20.790 o
-3 1 8 26.299 25.323 2.302 42.277 o
-3 1 9 664.215 612.925 9.316 0.382 o
-3 1 10 11.015 7.321 1.107 149.817 o
-3 1 11 55.972 68.355 2.742 17.576 o
-3 1 12 20.855 19.303 2.191 52.342 o
-3 1 13 4.632 7.581 2.784 60.549 o
-3 2 1 622.927 628.417 5.640 0.423 o
-3 2 2 254.991 257.675 3.813 2.110 o
-3 2 3 1643.720 1648.150 11.162 0.066 o
-3 2 4 71.785 78.458 2.357 14.547 o
-3 2 5 429.808 386.434 4.140 0.905 o
-3 2 6 207.935 206.609 3.931 2.958 o
-3 2 7 2.651 2.571 1.408 212.805 o
-3 2 8 88.618 88.722 3.332 10.283 o
-3 2 9 12.910 13.723 2.477 57.515 o
-3 2 10 47.474 38.666 2.195 26.921 o
-3 2 11 173.102 172.699 4.797 3.719 o
-3 2 12 16.395 13.083 2.882 44.458 o
-3 2 13 118.110 113.537 7.958 4.281 o
-3 3 1 22.695 16.503 0.904 83.045 o
-3 3 2 429.485 422.996 12.040 0.716 o
-3 3 3 175.820 203.787 4.245 3.477 o
-3 3 4 1816.970 1888.960 23.407 0.051 o
-3 3 5 31.433 34.375 1.716 41.756 o
-3 3 6 130.490 129.256 7.401 4.150 o
-3 3 7 9.425 5.191 3.308 42.632 o
-3 3 8 145.065 148.445 3.488 5.170 o
-3 3 9 177.154 170.568 6.533 3.236 o
-3 3 10 26.459 33.325 3.001 30.945 o
-3 3 11 60.599 66.889 4.364 12.411 o
-3 3 12 52.759 43.992 3.734 17.093 o
-3 4 1 18.464 19.394 1.336 78.922 o
-3 4 2 130.897 148.271 3.455 5.713 o
-3 4 3 2.591 1.716 0.418 786.109 o
-3 4 4 179.658 196.913 7.516 2.792 o
-3 4 5 100.003 84.981 5.551 7.054 o
-3 4 6 49.725 43.063 2.702 22.578 o
-3 4 7 285.441 283.531 11.642 1.270 o
-3 4 8 31.247 35.613 5.207 14.685 o
-3 4 9 70.047 81.100 7.548 6.177 o
-3 4 10 310.353 317.733 14.687 0.968 o
-3 4 11 39.792 41.610 3.733 19.917 o
-3 4 12 11.289 11.511 2.467 61.245 o
-3 5 1 385.637 385.626 9.145 0.918 o
-3 5 2 47.904 53.121 4.159 15.523 o
-3 5 3 33.378 33.653 1.244 45.041 o
-3 5 4 48.858 52.203 2.265 23.469 o
-3 5 5 1.980 1.261 0.853 490.084 o
-3 5 6 28.033 25.740 3.930 23.267 o
-3 5 7 20.457 13.771 3.668 29.804 o
-3 5 8 107.623 101.044 7.778 4.741 o
-3 5 9 179.332 171.583 10.872 2.220 o
-3 5 10 0.147 0.279 2.587 81.671 o
-3 5 11 14.603 16.139 2.703 48.591 o
-3 6 1 77.907 76.161 2.213 13.982 o
-3 6 2 328.068 328.891 6.844 1.275 o
-3 6 3 148.176 143.204 3.674 5.090 o
-3 6 4 9.692 7.497 0.603 212.962 o
-3 6 5 100.827 101.682 3.628 8.443 o
-3 6 6 119.037 126.168 4.424 6.171 o
-3 6 7 1.462 0.531 1.089 380.614 o
-3 6 8 41.890 40.116 5.551 12.250 o
-3 6 9 1.800 5.976 3.701 38.117 o
-3 6 10 9.242 7.611 2.612 61.332 o
-3 7 1 13.575 14.055 1.134 112.756 o
-3 7 2 41.637 45.857 2.451 26.303 o
-3 7 3 1.603 -1.359 1.605 195.399 o
-3 7 4 113.765 112.162 6.713 5.128 o
-3 7 5 0.639 1.502 0.833 609.477 o
-3 7 6 32.042 29.857 4.511 18.256 o
-3 7 7 11.447 8.884 3.586 35.414 o
-3 7 8 2.539 2.956 1.256 250.971 o
-3 7 9 10.268 7.809 1.430 125.041 o
-3 8 1 97.555 105.743 6.419 5.945 o
-3 8 2 4.691 3.359 1.026 268.761 o
-3 8 3 58.566 59.306 5.010 11.424 o
-3 8 4 0.559 -4.290 2.210 110.698 o
-3 8 5 2.914 8.252 2.980 55.087 o
-3 8 6 0.949 0.302 0.787 702.614 o
-3 8 7 0.714 1.247 2.333 97.460 o
-3 9 1 5.376 2.358 1.621 150.615 o
-3 9 2 2.524 2.178 2.112 109.739 o
-3 9 3 0.459 0.508 1.932 143.286 o
-2 0 2 17.460 39.220 5.862 13.220 o
-2 0 4 1569.210 1630.580 26.509 0.066 o
-2 0 6 445.289 494.423 7.957 0.703 o
-2 0 8 0.007 0.213 1.375 288.223 o
-2 0 10 0.488 -1.867 1.818 162.950 o
-2 0 12 51.311 55.164 4.978 12.377 o
-2 1 1 427.885 432.131 3.231 0.861 o
-2 1 2 407.471 420.238 5.021 0.907 o
-2 1 3 148.887 156.290 2.507 5.184 o
-2 1 4 2112.950 2192.080 14.780 0.039 o
-2 1 5 616.676 574.264 11.069 0.421 o
-2 1 6 72.781 70.997 1.826 15.984 o
-2 1 7 97.242 114.453 2.946 8.845 o
-2 1 8 207.201 224.606 4.608 2.755 o
-2 1 9 222.546 201.138 4.696 2.696 o
-2 1 10 68.901 64.601 2.882 15.098 o
-2 1 11 114.518 125.975 4.015 6.638 o
-2 1 12 9.880 6.516 1.696 109.122 o
-2 1 13 34.643 37.169 4.732 16.224 o
-2 2 1 143.980 149.264 3.070 5.331 o
-2 2 2 1487.240 1462.080 10.809 0.081 o
-2 2 3 1.780 1.226 0.622 734.984 o
-2 2 4 74.577 73.345 1.793 15.463 o
-2 2 5 103.537 90.657 1.935 10.142 o
-2 2 6 65.064 68.905 2.980 15.143 o
-2 2 7 639.587 579.620 6.960 0.424 o
-2 2 8 20.807 25.613 1.666 59.794 o
-2 2 9 228.624 247.124 8.506 1.938 o
-2 2 10 49.766 48.405 2.103 24.563 o
-2 2 11 9.851 9.653 1.349 128.865 o
-2 2 12 58.050 49.957 5.191 11.441 o
-2 2 13 26.860 28.229 4.421 19.814 o
-2 3 1 82.874 82.703 1.759 13.319 o
-2 3 2 18.470 18.719 0.731 97.435 o
-2 3 3 32.689 37.006 1.741 39.378 o
-2 3 4 37.078 30.192 2.039 35.789 o
-2 3 5 487.026 517.341 6.793 0.631 o
-2 3 6 341.902 357.247 11.855 0.972 o
-2 3 7 15.499 16.096 3.750 30.134 o
-2 3 8 526.035 514.372 8.012 0.568 o
-2 3 9 371.881 358.377 6.156 1.079 o
-2 3 10 0.045 0.104 0.927 629.848 o
-2 3 11 4.488 6.498 3.930 33.011 o
-2 3 12 1.538 -0.622 1.932 138.788 o
-2 4 1 90.834 86.819 2.027 11.673 o
-2 4 2 314.999 294.492 4.039 1.531 o
-2 4 3 118.840 116.342 1.967 7.823 o
-2 4 4 795.761 796.708 16.308 0.242 o
-2 4 5 184.046 166.878 4.819 3.555 o
-2 4 6 16.184 19.081 2.327 54.620 o
-2 4 7 512.066 515.534 16.210 0.483 o
-2 4 8 198.875 208.248 6.585 2.668 o
-2 4 9 22.106 20.388 2.461 45.177 o
-2 4 10 65.977 68.818 4.385 11.697 o
-2 4 11 0.001 -4.713 2.019 134.886 o
-2 4 12 31.796 31.942 3.548 24.353 o
-2 5 1 154.695 147.451 3.741 4.790 o
-2 5 2 26.938 33.711 1.613 47.652 o
-2 5 3 104.848 102.590 2.364 9.166 o
-2 5 4 0.308 0.319 0.248 4199.680 o
-2 5 5 141.590 135.759 4.200 5.238 o
-2 5 6 66.544 62.958 5.453 9.723 o
-2 5 7 77.219 61.452 5.911 8.350 o
-2 5 8 0.173 1.034 1.393 269.262 o
-2 5 9 14.056 13.926 2.233 63.492 o
-2 5 10 1.267 1.015 1.981 131.228 o
-2 5 11 29.376 32.223 3.549 25.028 o
-2 6 1 3.692 3.515 1.195 242.021 o
-2 6 2 246.321 250.318 5.024 2.136 o
-2 6 3 20.446 18.438 2.309 50.707 o
-2 6 4 87.698 88.308 2.017 11.981 o
-2 6 5 3.043 4.785 1.834 130.820 o
-2 6 6 3.316 3.383 1.850 131.092 o
-2 6 7 24.493 19.453 2.143 49.297 o
-2 6 8 0.105 -0.491 0.873 707.896 o
-2 6 9 21.954 23.795 2.991 35.655 o
-2 6 10 7.830 8.027 2.284 76.969 o
-2 7 1 2.660 2.291 0.631 561.510 o
-2 7 2 26.414 26.032 3.029 32.347 o
-2 7 3 81.715 80.626 2.901 12.062 o
-2 7 4 16.918 17.373 2.996 40.424 o
-2 7 5 0.833 -0.292 1.195 354.241 o
-2 7 6 5.878 4.820 1.261 189.343 o
-2 7 7 5.774 4.476 1.637 139.314 o
-2 7 8 28.014 29.225 2.246 40.204 o
-2 7 9 1.662 2.225 1.206 293.503 o
-2 8 1 14.202 14.251 1.246 103.943 o
-2 8 2 0.073 -0.688 1.408 275.918 o
-2 8 3 1.125 -0.262 1.506 225.705 o
-2 8 4 7.527 7.876 2.538 66.229 o
-2 8 5 1.209 -0.835 2.079 122.108 o
-2 8 6 0.932 0.258 2.505 85.491 o
-2 8 7 26.112 26.269 2.134 44.578 o
-2 9 1 15.452 9.579 2.882 46.520 o
-2 9 2 0.022 0.262 1.441 262.090 o
-2 9 3 6.884 6.042 2.685 62.496 o
-2 9 4 0.005 3.340 2.734 71.176 o
-1 0 2 7365.150 7336.150 58.840 0.003 o
-1 0 4 1520.740 1549.800 13.844 0.075 o
-1 0 6 2965.300 3225.030 31.207 0.019 o
-1 0 8 353.302 350.566 10.086 1.021 o
-1 0 10 357.775 330.361 11.052 0.998 o
-1 0 12 18.194 11.904 2.931 42.607 o
-1 1 1 483.810 474.452 4.920 0.688 o
-1 1 2 4853.430 4664.330 45.458 0.008 o
-1 1 3 23.398 23.769 0.867 72.664 o
-1 1 4 152.292 159.549 5.099 4.247 o
-1 1 5 1487.020 1499.370 11.942 0.080 o
-1 1 6 45.712 50.799 1.763 27.332 o
-1 1 7 407.153 410.204 6.211 0.900 o
-1 1 8 14.404 18.960 1.864 71.076 o
-1 1 9 52.232 51.599 3.002 19.382 o
-1 1 10 99.748 92.674 4.740 7.693 o
-1 1 11 22.328 26.310 2.251 46.101 o
-1 1 12 10.452 13.363 2.163 72.485 o
-1 2 1 1236.300 1164.600 29.612 0.102 o
-1 2 2 125.870 125.802 3.414 6.443 o
-1 2 3 109.249 131.759 1.723 8.055 o
-1 2 4 533.703 547.630 4.650 0.562 o
-1 2 5 473.242 478.408 6.782 0.684 o
-1 2 6 87.863 70.640 1.764 13.473 o
-1 2 7 32.751 26.997 1.482 46.678 o
-1 2 8 58.907 74.695 5.426 9.897 o
-1 2 9 266.643 269.281 4.867 1.897 o
-1 2 10 36.058 36.422 2.247 32.626 o
-1 2 11 96.246 104.569 3.818 8.477 o
-1 2 12 9.621 5.567 2.882 53.215 o
-1 3 1 4.512 4.846 0.518 405.835 o
-1 3 2 2828.460 2830.180 37.054 0.022 o
-1 3 3 545.351 586.813 5.610 0.519 o
-1 3 4 38.617 40.953 1.144 37.843 o
-1 3 5 132.290 118.819 2.205 6.838 o
-1 3 6 74.151 82.284 6.288 7.467 o
-1 3 7 87.712 92.131 3.994 9.365 o
-1 3 8 11.212 6.712 1.137 147.904 o
-1 3 9 16.105 17.319 1.573 79.438 o
-1 3 10 151.181 146.536 4.339 4.711 o
-1 3 11 2.263 3.226 2.391 87.213 o
-1 3 12 89.798 99.668 7.892 5.094 o
-1 4 1 546.596 532.934 25.150 0.343 o
-1 4 2 75.913 73.897 2.220 14.479 o
-1 4 3 48.480 47.004 2.718 22.277 o
-1 4 4 1126.940 1155.670 9.988 0.135 o
-1 4 5 5.044 5.071 0.660 337.494 o
-1 4 6 103.592 110.514 2.743 8.670 o
-1 4 7 1.946 3.314 1.613 174.584 o
-1 4 8 101.311 98.337 4.603 7.583 o
-1 4 9 40.198 42.679 3.453 21.248 o
-1 4 10 16.448 11.684 2.238 61.505 o
-1 4 11 11.157 16.596 2.865 47.526 o
-1 5 1 150.229 157.567 5.354 4.233 o
-1 5 2 55.588 58.671 2.162 20.756 o
-1 5 3 1.099 0.411 0.625 938.869 o
-1 5 4 12.533 11.045 0.875 142.726 o
-1 5 5 309.980 298.287 4.274 1.540 o
-1 5 6 16.733 18.743 1.695 72.298 o
-1 5 7 254.405 255.535 7.351 1.844 o
-1 5 8 2.225 2.781 1.544 187.392 o
-1 5 9 79.072 84.949 4.850 9.094 o
-1 5 10 12.360 11.518 3.226 40.728 o
-1 5 11 0.947 -1.673 1.840 156.001 o
-1 6 1 1.281 1.130 1.015 420.583 o
-1 6 2 0.025 -1.179 1.244 354.388 o
-1 6 3 69.235 66.985 3.864 12.591 o
-1 6 4 33.884 29.650 2.033 38.243 o
-1 6 5 62.470 56.884 4.241 13.081 o
-1 6 6 104.873 102.012 4.190 7.657 o
-1 6 7 11.577 11.365 1.458 108.712 o
-1 6 8 36.285 37.905 2.500 29.994 o
-1 6 9 26.151 27.849 2.332 40.956 o
-1 6 10 9.767 10.961 2.451 64.269 o
-1 7 1 107.648 112.243 5.551 6.146 o
-1 7 2 241.868 235.900 8.351 1.901 o
-1 7 3 11.455 9.824 2.227 71.221 o
-1 7 4 61.348 60.987 3.001 16.454 o
-1 7 5 0.489 1.043 2.145 115.766 o
-1 7 6 5.403 4.775 1.186 208.584 o
-1 7 7 4.053 6.568 1.332 187.852 o
-1 7 8 1.906 1.366 1.172 311.498 o
-1 8 1 29.920 33.681 1.785 42.600 o
-1 8 2 0.828 2.309 1.588 195.004 o
-1 8 3 34.607 34.615 3.799 21.511 o
-1 8 4 1.488 6.550 2.407 84.277 o
-1 8 5 2.656 1.424 1.325 242.426 o
-1 8 6 0.159 0.198 1.139 412.044 o
-1 8 7 2.007 4.921 1.350 219.214 o
-1 9 1 4.614 2.879 0.958 295.709 o
-1 9 2 14.579 14.155 1.840 76.484 o
-1 9 3 8.691 6.484 2.849 54.654 o
0 0 2 715.904 641.953 5.504 0.351 o
0 0 4 3182.480 3198.920 23.281 0.018 o
0 0 6 17.395 22.722 2.033 58.225 o
0 0 8 535.901 484.374 12.804 0.520 o
0 0 10 261.046 274.051 10.610 1.466 o
0 0 12 43.087 43.375 5.109 13.394 o
0 1 1 1450.090 1459.770 12.428 0.084 o
0 1 2 26.057 19.785 0.603 74.930 o
0 1 3 351.174 351.200 2.974 1.241 o
0 1 4 507.836 497.773 4.459 0.634 o
0 1 5 39.354 36.131 1.145 39.177 o
0 1 6 254.230 247.500 3.793 2.166 o
0 1 7 156.122 156.389 4.624 4.345 o
0 1 8 87.088 84.975 3.641 10.187 o
0 1 9 115.745 117.471 4.667 6.344 o
0 1 10 1.396 0.934 1.899 141.497 o
0 1 11 26.142 29.280 2.489 38.300 o
0 1 12 2.762 1.522 1.495 198.496 o
0 2 0 96.341 103.516 2.603 9.673 o
0 2 1 389.590 425.407 4.833 0.951 o
0 2 2 617.642 669.147 6.129 0.409 o
0 2 3 215.508 209.728 2.767 2.942 o
0 2 4 0.732 0.481 0.386 1870.670 o
0 2 5 2149.510 2083.740 16.465 0.040 o
0 2 6 10.150 11.519 0.867 160.420 o
0 2 7 298.890 305.560 4.096 1.591 o
0 2 8 7.412 4.149 1.538 141.667 o
0 2 9 75.859 75.101 3.112 12.796 o
0 2 10 3.688 4.376 1.331 204.772 o
0 2 11 17.410 20.278 2.049 59.483 o
0 2 12 0.027 1.064 2.129 119.218 o
0 3 1 36.029 41.098 1.366 38.339 o
0 3 2 700.366 692.826 8.067 0.338 o
0 3 3 112.174 130.193 3.157 7.184 o
0 3 4 423.966 383.703 4.468 0.919 o
0 3 5 48.677 52.355 1.669 26.123 o
0 3 6 155.838 146.579 3.399 4.872 o
0 3 7 83.241 91.278 2.463 11.836 o
0 3 8 129.718 118.058 2.559 6.855 o
0 3 9 51.781 52.522 2.237 22.570 o
0 3 10 13.428 9.644 1.586 97.483 o
0 3 11 10.688 11.943 2.702 54.359 o
0 3 12 74.065 85.685 7.499 6.039 o
0 4 0 730.864 733.193 11.986 0.297 o
0 4 1 10.356 12.043 0.867 156.300 o
0 4 2 205.566 256.993 4.492 2.582 o
0 4 3 70.722 59.358 1.606 18.105 o
0 4 4 2.064 3.606 0.563 605.913 o
0 4 5 94.383 89.508 2.195 10.941 o
0 4 6 243.896 228.294 7.570 2.000 o
0 4 7 139.174 146.411 3.646 5.358 o
0 4 8 168.229 173.967 6.260 3.424 o
0 4 9 27.026 23.803 2.792 35.489 o
0 4 10 74.914 85.308 6.812 6.745 o
0 4 11 9.230 11.560 3.488 37.490 o
0 5 1 680.381 684.106 14.941 0.320 o
0 5 2 7.140 9.038 1.017 187.520 o
0 5 3 325.749 313.097 6.484 1.334 o
0 5 4 3.823 4.794 1.385 190.518 o
0 5 5 10.111 7.892 0.888 176.248 o
0 5 6 1.967 0.264 0.855 525.216 o
0 5 7 186.072 174.502 6.245 3.136 o
0 5 8 17.452 21.530 3.864 27.328 o
0 5 9 109.329 116.645 5.679 5.904 o
0 5 10 0.006 0.325 3.905 36.011 o
0 6 0 598.005 622.456 12.559 0.406 o
0 6 1 37.126 36.498 2.784 27.672 o
0 6 2 53.153 60.387 3.701 15.740 o
0 6 3 32.092 35.996 2.726 30.450 o
0 6 4 0.270 -0.143 0.761 888.224 o
0 6 5 39.996 39.868 2.115 30.644 o
0 6 6 6.851 8.628 1.297 157.413 o
0 6 7 9.075 7.700 1.299 144.273 o
0 6 8 46.522 49.374 2.867 21.772 o
0 6 9 0.599 1.864 1.049 413.552 o
0 7 1 29.033 30.341 2.849 32.045 o
0 7 2 129.882 122.232 5.846 5.033 o
0 7 3 16.297 13.312 2.407 55.760 o
0 7 4 64.621 65.594 2.667 16.315 o
0 7 5 3.548 5.189 1.076 260.096 o
0 7 6 11.161 14.152 1.487 103.109 o
0 7 7 8.506 9.405 1.445 128.941 o
0 7 8 4.294 5.625 1.469 168.007 o
0 8 0 19.012 16.652 2.292 53.623 o
0 8 1 3.765 5.229 1.037 265.565 o
0 8 2 0.390 0.458 1.375 277.286 o
0 8 3 33.761 36.399 3.103 26.469 o
0 8 4 2.146 3.062 2.677 71.179 o
0 8 5 24.125 27.656 3.750 25.557 o
0 8 6 5.362 2.840 1.100 242.039 o
0 9 1 0.357 -0.057 0.710 988.337 o
0 9 2 13.140 9.349 3.504 35.905 o
0 9 3 1.612 0.688 1.441 232.064 o
1 0 0 1892.410 1897.020 21.990 0.049 o
1 0 2 1561.280 1407.030 30.488 0.070 o
1 0 4 569.435 562.859 6.705 0.500 o
1 0 6 483.630 462.843 11.593 0.613 o
1 0 8 4.279 8.040 2.538 70.913 o
1 0 10 130.304 131.041 7.794 3.958 o
1 0 12 53.848 59.634 6.189 9.218 o
1 1 0 9.981 10.498 0.347 205.952 o
1 1 1 23.096 19.189 0.473 85.523 o
1 1 2 511.280 566.785 5.137 0.576 o
1 1 3 516.479 535.358 4.150 0.596 o
1 1 4 108.691 123.037 2.119 8.223 o
1 1 5 887.454 903.652 8.345 0.214 o
1 1 6 217.306 242.259 4.079 2.572 o
1 1 7 25.722 32.800 5.813 13.005 o
1 1 8 163.078 157.606 5.308 3.954 o
1 1 9 2.777 6.755 1.773 134.116 o
1 1 10 227.372 200.997 6.789 2.364 o
1 1 11 22.707 20.152 2.264 48.445 o
1 1 12 9.636 9.239 2.237 74.585 o
1 2 0 109.232 122.591 1.645 8.424 o
1 2 1 2647.030 2619.120 14.006 0.026 o
1 2 2 42.532 35.906 1.125 36.889 o
1 2 3 2.200 0.199 0.468 972.145 o
1 2 4 18.242 29.616 1.026 74.895 o
1 2 5 684.163 653.861 5.600 0.368 o
1 2 6 19.169 21.154 1.215 78.433 o
1 2 7 178.386 196.262 5.292 3.290 o
1 2 8 93.637 101.350 3.608 8.999 o
1 2 9 14.352 18.627 1.968 67.972 o
1 2 10 0.015 0.934 1.419 263.772 o
1 2 11 16.942 14.102 1.945 68.168 o
1 3 0 513.649 522.241 5.996 0.597 o
1 3 1 217.747 259.043 4.446 2.433 o
1 3 2 454.487 516.833 5.904 0.693 o
1 3 3 153.799 161.822 2.363 4.951 o
1 3 4 147.749 164.883 2.918 4.971 o
1 3 5 220.222 219.647 3.295 2.755 o
1 3 6 628.612 605.654 6.277 0.426 o
1 3 7 21.711 16.269 1.328 75.117 o
1 3 8 0.044 -1.386 1.504 242.509 o
1 3 9 0.528 -0.277 2.309 101.705 o
1 3 10 8.059 8.823 2.063 87.326 o
1 3 11 0.484 -4.693 2.415 93.159 o
1 4 0 45.335 40.965 1.562 31.009 o
1 4 1 302.707 313.817 9.702 1.269 o
1 4 2 144.850 143.029 2.539 5.578 o
1 4 3 151.599 167.073 2.422 4.925 o
1 4 4 109.974 115.168 2.179 8.384 o
1 4 5 76.133 71.907 2.099 14.816 o
1 4 6 113.086 97.704 3.081 8.192 o
1 4 7 212.719 215.757 6.634 2.461 o
1 4 8 5.184 7.076 1.921 108.326 o
1 4 9 45.226 49.973 5.240 12.453 o
1 4 10 19.648 19.256 3.586 30.076 o
1 4 11 4.324 4.339 3.062 52.944 o
1 5 0 0.204 0.034 0.393 2937.300 o
1 5 1 158.785 145.003 7.990 3.298 o
1 5 2 0.416 1.493 0.635 954.453 o
1 5 3 428.493 408.884 7.744 0.823 o
1 5 4 6.276 7.352 0.880 231.702 o
1 5 5 212.445 205.098 3.271 2.977 o
1 5 6 2.833 -1.243 1.228 283.944 o
1 5 7 0.316 0.579 1.047 463.723 o
1 5 8 20.699 21.340 2.588 43.656 o
1 5 9 10.034 11.420 2.168 74.865 o
1 5 10 0.276 7.172 3.226 50.030 o
1 6 0 0.242 1.167 1.171 368.279 o
1 6 1 73.113 71.017 6.484 7.508 o
1 6 2 252.635 259.256 5.705 1.987 o
1 6 3 28.933 23.299 1.486 53.265 o
1 6 4 103.964 102.392 3.207 8.572 o
1 6 5 2.091 2.221 1.198 286.302 o
1 6 6 5.007 7.435 1.245 187.168 o
1 6 7 17.289 15.109 1.646 76.634 o
1 6 8 3.132 2.943 1.364 214.197 o
1 6 9 17.847 16.725 2.394 52.432 o
1 7 0 1.929 1.312 0.752 575.662 o
1 7 1 17.123 15.153 1.409 85.655 o
1 7 2 1.198 0.443 0.780 670.225 o
1 7 3 15.666 19.241 3.455 33.343 o
1 7 4 12.666 8.216 1.115 134.622 o
1 7 5 0.311 0.855 1.203 353.103 o
1 7 6 15.129 14.753 1.848 74.377 o
1 7 7 3.764 2.745 1.826 133.299 o
1 8 0 0.193 0.105 0.584 1456.720 o
1 8 1 0.007 -0.839 0.626 1399.380 o
1 8 2 0.035 0.710 0.924 603.202 o
1 8 3 0.602 0.491 1.752 172.128 o
1 8 4 4.914 4.519 1.899 116.184 o
1 8 5 1.075 2.865 1.752 159.517 o
1 8 6 2.471 3.172 1.253 251.159 o
1 9 0 1.740 1.359 1.490 212.751 o
1 9 1 0.338 0.033 1.081 450.716 o
1 9 2 1.215 1.791 1.057 383.271 o
1 9 3 17.549 15.097 2.996 40.748 o
2 0 0 1632.600 1589.430 11.360 0.068 o
2 0 2 457.409 572.128 7.642 0.626 o
2 0 4 826.337 895.574 11.537 0.228 o
2 0 6 537.924 536.034 13.689 0.482 o
2 0 8 297.684 286.479 10.856 1.271 o
2 0 10 1.275 -4.224 2.816 67.727 o
2 1 0 17550.000 15976.000 131.222 0.001 o
2 1 1 4221.200 4120.770 19.819 0.011 o
2 1 2 1853.640 1799.120 10.964 0.054 o
2 1 3 37.346 49.933 1.365 34.229 o
2 1 4 0.456 -0.192 0.561 1438.480 o
2 1 5 1182.450 1163.670 14.796 0.123 o
2 1 6 47.601 39.594 2.654 24.075 o
2 1 7 171.073 169.103 5.960 3.497 o
2 1 8 86.016 77.931 4.023 10.048 o
2 1 9 12.146 8.299 1.980 82.464 o
2 1 10 84.805 84.721 4.751 8.849 o
2 1 11 0.389 3.136 1.742 165.274 o
2 2 0 461.991 444.997 4.047 0.764 o
2 2 1 2431.580 2526.470 14.332 0.030 o
2 2 2 2.780 0.922 0.327 917.208 o
2 2 3 217.608 188.514 2.448 3.106 o
2 2 4 4.902 2.013 0.754 370.029 o
2 2 5 0.226 0.763 0.770 804.962 o
2 2 6 18.024 18.631 1.573 73.552 o
2 2 7 167.928 157.284 4.427 4.099 o
2 2 8 62.004 60.767 2.998 16.362 o
2 2 9 25.629 27.041 2.287 42.353 o
2 2 10 0.226 0.907 1.419 260.123 o
2 2 11 58.167 63.718 3.667 14.796 o
2 3 0 1639.190 1653.490 22.022 0.063 o
2 3 1 86.272 103.455 1.872 11.368 o
2 3 2 252.917 295.430 4.292 1.937 o
2 3 3 19.787 19.016 0.813 90.237 o
2 3 4 9.130 7.743 0.789 199.161 o
2 3 5 47.726 41.764 1.563 29.513 o
2 3 6 525.089 500.086 8.859 0.570 o
2 3 7 1.689 2.913 1.640 173.600 o
2 3 8 4.085 5.648 1.886 118.521 o
2 3 9 0.547 -0.617 1.530 227.000 o
2 3 10 35.477 40.299 5.281 13.722 o
2 3 11 8.666 8.714 2.270 75.380 o
2 4 0 240.614 249.311 3.748 2.296 o
2 4 1 639.583 637.266 9.523 0.389 o
2 4 2 2.930 2.018 0.614 561.227 o
2 4 3 594.688 606.293 5.335 0.459 o
2 4 4 47.453 51.318 1.510 27.556 o
2 4 5 0.302 0.596 0.640 1103.940 o
2 4 6 13.517 9.743 1.256 116.227 o
2 4 7 57.799 56.146 5.158 11.277 o
2 4 8 69.961 62.941 5.731 9.008 o
2 4 9 7.643 6.893 2.947 52.466 o
2 4 10 16.448 13.508 3.471 34.013 o
2 5 0 66.763 62.540 2.032 17.757 o
2 5 1 90.674 94.221 2.165 11.121 o
2 5 2 62.407 68.681 2.172 17.713 o
2 5 3 68.689 64.053 2.524 16.038 o
2 5 4 0.264 0.568 0.751 852.987 o
2 5 5 123.408 121.629 2.516 7.126 o
2 5 6 30.224 28.394 1.975 42.293 o
2 5 7 31.753 38.789 2.358 33.365 o
2 5 8 0.156 1.101 1.302 305.669 o
2 5 9 24.124 21.813 3.185 32.549 o
2 6 0 23.383 25.664 1.235 64.211 o
2 6 1 405.036 381.347 8.549 0.891 o
2 6 2 26.477 21.542 1.317 60.937 o
2 6 3 154.850 142.448 3.638 4.896 o
2 6 4 17.394 17.206 1.508 78.730 o
2 6 5 0.996 1.791 0.951 462.527 o
2 6 6 26.017 28.604 3.033 31.885 o
2 6 7 0.108 0.547 1.076 452.914 o
2 6 8 42.937 46.319 3.415 20.332 o
2 7 0 100.621 103.975 2.903 9.028 o
2 7 1 6.158 7.330 1.261 173.726 o
2 7 2 74.713 80.076 3.449 12.014 o
2 7 3 0.017 0.382 2.243 108.650 o
2 7 4 22.808 23.411 2.099 49.823 o
2 7 5 5.692 7.789 1.469 148.935 o
2 7 6 11.360 11.065 1.787 90.780 o
2 7 7 5.186 4.409 1.283 195.867 o
2 8 0 2.909 3.600 0.813 396.920 o
2 8 1 3.338 2.487 1.768 143.565 o
2 8 2 0.379 2.243 1.556 208.017 o
2 8 3 36.358 35.089 4.012 19.788 o
2 8 4 1.014 2.047 1.834 149.898 o
2 8 5 4.463 1.932 1.768 138.632 o
2 9 0 5.567 2.407 1.572 155.785 o
2 9 1 0.654 1.965 1.457 232.185 o
2 9 2 6.773 6.699 1.502 141.601 o
3 0 0 309.766 274.470 3.872 1.628 o
3 0 2 95.433 118.210 3.427 8.425 o
3 0 4 432.572 457.169 8.195 0.757 o
3 0 6 22.843 27.623 3.701 26.394 o
3 0 8 26.660 29.358 4.012 22.541 o
3 0 10 117.771 101.993 7.647 4.583 o
3 1 0 1177.510 1210.590 6.117 0.125 o
3 1 1 2489.930 2330.370 13.891 0.031 o
3 1 2 10.154 5.950 1.019 171.862 o
3 1 3 17.543 32.308 1.238 68.958 o
3 1 4 212.486 215.818 4.644 2.738 o
3 1 5 0.193 0.725 1.350 288.842 o
3 1 6 253.092 249.018 17.676 0.997 o
3 1 7 16.562 19.883 2.775 43.918 o
3 1 8 4.014 4.724 1.771 133.138 o
3 1 9 8.098 12.726 2.317 70.751 o
3 1 10 10.559 17.547 2.394 60.641 o
3 1 11 16.989 14.407 2.388 54.820 o
3 2 0 59.695 60.829 1.296 21.621 o
3 2 1 468.692 481.607 4.886 0.709 o
3 2 2 255.996 290.938 3.852 1.955 o
3 2 3 123.842 99.512 2.163 7.963 o
3 2 4 11.501 10.836 1.170 129.792 o
3 2 5 586.255 580.757 11.446 0.441 o
3 2 6 103.010 106.161 4.325 7.525 o
3 2 7 116.868 121.124 4.818 6.118 o
3 2 8 0.249 1.046 1.405 263.331 o
3 2 9 12.573 10.280 1.829 86.371 o
3 2 10 7.070 4.046 2.199 87.477 o
3 3 0 430.303 425.922 4.688 0.848 o
3 3 1 75.799 61.570 1.290 17.176 o
3 3 2 159.786 184.864 2.209 4.438 o
3 3 3 0.146 -0.075 0.450 2456.480 o
3 3 4 112.499 100.953 2.277 8.673 o
3 3 5 37.979 37.965 2.180 31.715 o
3 3 6 497.544 490.493 14.420 0.536 o
3 3 7 0.434 3.508 1.989 128.295 o
3 3 8 73.964 87.532 5.051 9.056 o
3 3 9 3.279 3.208 1.916 124.329 o
3 3 10 0.479 1.597 2.210 108.343 o
3 4 0 67.731 56.091 1.483 19.538 o
3 4 1 138.683 136.284 3.542 5.607 o
3 4 2 476.134 466.334 5.985 0.699 o
3 4 3 148.052 138.228 2.197 5.639 o
3 4 4 179.943 171.554 2.986 3.959 o
3 4 5 31.216 35.741 1.792 40.545 o
3 4 6 46.192 43.447 2.906 22.527 o
3 4 7 32.420 23.791 3.815 23.276 o
3 4 8 12.606 19.534 3.701 31.173 o
3 4 9 0.589 -1.474 2.276 104.429 o
3 5 0 4.957 3.850 0.509 411.306 o
3 5 1 239.793 234.276 3.460 2.407 o
3 5 2 50.455 47.587 1.933 25.230 o
3 5 3 75.155 81.723 2.677 13.216 o
3 5 4 5.431 2.822 0.863 302.744 o
3 5 5 26.913 29.172 2.268 40.766 o
3 5 6 1.992 0.262 1.001 415.962 o
3 5 7 29.211 28.710 2.660 34.476 o
3 5 8 4.165 5.698 1.436 173.933 o
3 5 9 21.064 19.229 2.589 44.192 o
3 6 0 0.598 0.158 0.598 1199.940 o
3 6 1 48.553 43.072 1.602 28.584 o
3 6 2 13.130 13.628 2.006 73.502 o
3 6 3 13.861 15.328 1.319 99.669 o
3 6 4 67.887 63.175 2.608 16.069 o
3 6 5 14.496 14.566 1.900 73.932 o
3 6 6 6.173 6.101 1.482 149.931 o
3 6 7 0.132 -0.155 1.135 420.674 o
3 6 8 8.534 5.703 1.535 130.744 o
3 7 0 0.150 0.513 0.614 1257.030 o
3 7 1 6.853 8.344 1.302 158.031 o
3 7 2 9.405 8.383 2.129 81.142 o
3 7 3 9.773 7.139 2.292 73.770 o
3 7 4 22.295 24.831 2.254 46.765 o
3 7 5 0.778 0.414 0.914 560.185 o
3 7 6 16.556 20.777 2.407 51.343 o
3 8 0 0.833 -0.038 0.921 566.169 o
3 8 1 0.240 0.292 0.934 591.278 o
3 8 2 0.401 0.000 1.490 241.306 o
3 8 3 23.125 23.497 3.570 28.265 o
3 8 4 2.064 2.112 2.030 119.678 o
3 9 0 0.060 -0.458 1.359 296.408 o
3 9 1 3.743 2.964 1.506 178.768 o
4 0 0 753.819 690.956 8.015 0.309 o
4 0 2 367.153 401.879 7.292 0.997 o
4 0 4 472.674 497.097 13.214 0.579 o
4 0 6 274.030 253.633 10.299 1.479 o
4 0 8 0.103 0.458 2.374 96.741 o
4 0 10 32.874 36.858 5.223 14.380 o
4 1 0 1.954 2.072 0.592 684.062 o
4 1 1 311.565 314.215 5.745 1.430 o
4 1 2 474.749 482.894 6.554 0.681 o
4 1 3 133.563 105.539 5.085 5.611 o
4 1 4 55.117 62.306 2.525 19.167 o
4 1 5 38.178 36.392 2.212 31.769 o
4 1 6 45.598 41.398 3.044 22.254 o
4 1 7 192.765 195.435 6.663 2.809 o
4 1 8 12.143 10.455 2.155 72.356 o
4 1 9 1.699 -0.515 1.759 164.179 o
4 1 10 2.535 1.800 3.357 46.637 o
4 2 0 0.093 0.409 0.393 2769.340 o
4 2 1 2038.860 2098.470 13.410 0.043 o
4 2 2 238.811 233.047 2.915 2.463 o
4 2 3 71.830 68.002 2.283 15.601 o
4 2 4 0.935 -0.659 1.780 166.267 o
4 2 5 228.517 228.614 5.447 2.377 o
4 2 6 111.647 121.683 4.193 6.763 o
4 2 7 4.104 2.534 1.790 136.338 o
4 2 8 24.022 22.490 2.327 44.984 o
4 2 9 26.910 26.067 2.590 37.514 o
4 2 10 0.261 0.239 1.722 182.029 o
4 3 0 1697.070 1717.230 13.178 0.061 o
4 3 1 78.288 86.458 2.652 12.506 o
4 3 2 501.124 481.458 7.592 0.629 o
4 3 3 10.236 10.675 0.976 154.193 o
4 3 4 28.436 28.096 2.118 42.033 o
4 3 5 4.673 4.487 1.007 262.225 o
4 3 6 13.933 13.868 2.344 60.200 o
4 3 7 56.178 55.936 4.025 14.573 o
4 3 8 38.603 44.811 3.948 18.714 o
4 3 9 1.048 -0.003 1.997 132.732 o
4 4 0 18.322 18.666 2.276 53.651 o
4 4 1 62.971 73.678 2.893 15.308 o
4 4 2 4.837 4.444 1.098 237.674 o
4 4 3 0.106 -1.519 1.036 504.760 o
4 4 4 60.469 53.323 2.595 18.725 o
4 4 5 30.219 33.160 2.564 33.721 o
4 4 6 70.810 65.570 3.681 12.894 o
4 4 7 7.484 11.235 1.653 112.507 o
4 4 8 8.051 7.905 1.501 130.549 o
4 4 9 5.349 7.204 1.603 137.698 o
4 5 0 6.227 5.221 0.796 269.494 o
4 5 1 240.693 236.242 3.131 2.409 o
4 5 2 29.684 32.386 1.395 48.095 o
4 5 3 338.080 331.399 13.500 0.944 o
4 5 4 0.260 0.848 1.097 421.431 o
4 5 5 16.749 18.577 2.023 62.403 o
4 5 6 7.471 7.277 1.670 119.817 o
4 5 7 11.681 13.644 2.116 71.853 o
4 5 8 3.873 4.847 1.680 144.639 o
4 6 0 3.629 3.874 1.392 196.451 o
4 6 1 6.060 4.948 0.987 236.024 o
4 6 2 70.821 67.510 4.978 10.131 o
4 6 3 8.039 5.537 1.344 154.695 o
4 6 4 42.773 46.968 3.114 21.883 o
4 6 5 0.079 -0.431 1.088 459.929 o
4 6 6 13.874 14.360 1.953 73.375 o
4 6 7 0.185 0.794 1.285 316.393 o
4 7 0 13.767 12.918 1.597 90.666 o
4 7 1 0.247 -0.835 1.588 214.939 o
4 7 2 34.107 34.778 4.012 20.285 o
4 7 3 1.827 4.667 2.112 107.879 o
4 7 4 2.467 3.235 1.211 262.975 o
4 7 5 1.691 4.383 4.208 30.057 o
4 8 0 7.885 12.050 2.096 82.119 o
4 8 1 17.088 19.928 2.669 45.594 o
4 8 2 0.921 1.294 1.818 155.466 o
4 8 3 9.614 11.478 2.980 48.025 o
5 0 0 207.842 221.345 4.106 2.830 o
5 0 2 91.685 78.922 2.787 11.165 o
5 0 4 176.962 186.696 8.121 2.753 o
5 0 6 265.973 276.769 11.200 1.391 o
5 0 8 0.121 0.246 2.440 91.860 o
5 1 0 160.065 149.097 1.710 5.076 o
5 1 1 378.707 379.104 3.797 1.071 o
5 1 2 0.724 -0.200 0.722 873.685 o
5 1 3 1.081 -0.128 0.831 645.460 o
5 1 4 3.738 0.601 1.244 254.054 o
5 1 5 74.901 76.386 5.387 8.846 o
5 1 6 40.492 33.573 2.927 25.882 o
5 1 7 94.417 100.654 5.037 7.463 o
5 1 8 5.094 8.074 4.315 27.405 o
5 1 9 9.166 13.004 2.326 68.398 o
5 2 0 643.933 676.927 5.934 0.387 o
5 2 1 521.139 475.727 9.638 0.582 o
5 2 2 206.646 200.503 6.215 2.683 o
5 2 3 10.191 11.388 1.153 137.381 o
5 2 4 0.338 -0.327 0.903 635.504 o
5 2 5 290.169 279.292 9.258 1.422 o
5 2 6 60.484 65.613 5.297 10.371 o
5 2 7 12.787 13.488 3.414 36.590 o
5 2 8 27.281 25.156 3.317 29.044 o
5 2 9 8.604 11.107 2.992 48.655 o
5 3 0 19.502 16.837 1.636 70.456 o
5 3 1 117.778 107.312 3.568 7.252 o
5 3 2 400.812 411.455 6.451 0.911 o
5 3 3 81.004 76.857 2.037 13.702 o
5 3 4 325.844 316.869 5.036 1.381 o
5 3 5 1.612 3.360 1.258 264.001 o
5 3 6 3.485 4.098 1.381 199.039 o
5 3 7 9.545 8.566 1.802 99.345 o
5 3 8 0.809 1.208 2.874 64.951 o
5 4 0 139.919 137.247 6.206 4.392 o
5 4 1 44.277 44.867 2.537 24.980 o
5 4 2 153.489 158.110 4.783 4.339 o
5 4 3 4.434 6.436 1.777 126.074 o
5 4 4 3.510 2.159 0.946 343.819 o
5 4 5 17.413 17.284 2.080 60.762 o
5 4 6 58.731 55.987 2.974 17.556 o
5 4 7 0.794 -0.780 1.279 313.714 o
5 4 8 16.878 18.480 2.990 40.218 o
5 5 0 10.321 10.201 2.210 73.614 o
5 5 1 15.443 10.217 2.309 61.722 o
5 5 2 39.528 31.586 2.309 31.533 o
5 5 3 8.062 9.303 1.540 123.385 o
5 5 4 0.159 -0.792 0.897 664.193 o
5 5 5 0.534 1.259 1.678 183.945 o
5 5 6 1.458 1.484 1.213 305.196 o
5 5 7 17.865 17.011 2.309 54.340 o
5 6 0 45.718 38.757 3.766 18.802 o
5 6 1 18.445 13.885 2.554 49.524 o
5 6 2 0.029 0.884 1.637 199.963 o
5 6 3 0.205 0.347 1.326 303.038 o
5 6 4 8.145 7.726 1.593 122.306 o
5 6 5 22.079 22.900 2.408 45.086 o
5 6 6 8.335 14.906 7.859 8.538 o
5 7 0 1.680 4.294 1.340 230.963 o
5 7 1 14.773 14.769 2.980 43.014 o
5 7 2 20.457 22.776 3.488 30.263 o
5 7 3 2.772 4.732 2.292 90.942 o
5 7 4 18.655 19.550 3.766 28.317 o
5 8 0 0.355 1.736 1.474 233.637 o
5 8 1 16.557 17.819 3.136 38.116 o
5 8 2 1.859 2.734 2.145 108.042 o
6 0 0 20.010 19.632 1.523 69.867 o
6 0 2 307.317 311.009 12.493 1.101 o
6 0 4 3.301 1.277 2.391 87.075 o
6 0 6 1.598 0.213 2.227 105.490 o
6 0 8 0.586 -0.033 2.423 92.302 o
6 1 0 171.608 183.411 3.618 3.897 o
6 1 1 232.180 232.923 4.157 2.444 o
6 1 2 3.679 3.669 0.701 408.770 o
6 1 3 200.451 210.954 5.491 2.811 o
6 1 4 84.175 78.254 5.823 7.674 o
6 1 5 8.663 10.519 2.202 76.845 o
6 1 6 24.183 18.134 2.547 42.889 o
6 1 7 3.498 -0.586 2.464 83.276 o
6 1 8 1.324 -1.860 2.063 123.560 o
6 2 0 690.464 690.115 22.430 0.270 o
6 2 1 26.943 25.257 0.691 65.935 o
6 2 2 68.608 62.785 4.087 12.406 o
6 2 3 1.110 0.135 0.839 625.546 o
6 2 4 3.909 3.926 0.984 292.519 o
6 2 5 53.931 54.478 3.932 15.308 o
6 2 6 0.147 -0.621 1.084 459.977 o
6 2 7 78.474 81.520 5.745 7.982 o
6 2 8 0.010 -2.741 2.480 89.404 o
6 3 0 90.467 105.317 5.633 6.944 o
6 3 1 158.760 143.462 2.450 5.076 o
6 3 2 0.976 0.189 1.029 451.633 o
6 3 3 114.569 102.793 3.349 7.730 o
6 3 4 67.992 71.866 3.113 14.127 o
6 3 5 2.504 2.799 1.830 139.461 o
6 3 6 59.148 59.267 3.231 16.322 o
6 3 7 0.050 1.185 1.916 146.080 o
6 3 8 15.799 19.234 2.448 51.981 o
6 4 0 282.714 269.024 9.399 1.472 o
6 4 1 8.323 8.220 2.423 69.544 o
6 4 2 300.048 304.824 7.050 1.449 o
6 4 3 35.923 32.218 2.461 31.928 o
6 4 4 8.752 7.572 1.492 128.464 o
6 4 5 32.778 32.656 2.323 34.908 o
6 4 6 0.016 -0.653 1.169 401.824 o
6 4 7 10.217 13.968 1.895 84.449 o
6 5 0 22.486 21.761 3.029 35.395 o
6 5 1 5.882 5.551 2.096 95.347 o
6 5 2 2.718 4.012 2.112 106.014 o
6 5 3 102.752 100.422 4.650 7.402 o
6 5 4 1.677 2.137 1.112 333.107 o
6 5 5 0.458 0.042 2.734 72.876 o
6 5 6 4.713 6.905 1.767 124.544 o
6 6 0 5.204 5.935 1.331 179.402 o
6 6 1 2.595 4.503 2.309 90.518 o
6 6 2 33.768 29.113 3.979 21.174 o
6 6 3 0.949 -2.079 2.391 93.929 o
6 6 4 13.795 18.430 2.253 60.054 o
6 6 5 0.492 1.154 1.259 315.372 o
6 7 0 23.484 29.328 3.889 24.302 o
6 7 1 15.588 14.180 2.996 42.336 o
6 7 2 0.695 -0.377 1.916 145.776 o
6 7 3 3.963 -0.344 2.243 97.563 o
6 8 0 0.194 1.113 1.621 200.805 o
6 8 1 2.158 2.442 2.210 101.857 o
7 0 0 9.004 7.827 1.163 158.238 o
7 0 2 11.070 10.348 1.474 111.960 o
7 0 4 0.453 -1.108 0.967 549.217 o
7 0 6 81.351 78.824 6.697 6.753 o
7 1 0 139.811 147.813 8.146 3.511 o
7 1 1 18.055 18.056 1.236 84.944 o
7 1 2 20.146 21.232 1.259 74.828 o
7 1 3 4.806 2.509 0.730 372.578 o
7 1 4 10.325 13.241 1.702 95.288 o
7 1 5 128.094 134.206 5.428 5.127 o
7 1 6 1.732 2.575 1.139 313.327 o
7 1 7 31.513 33.824 2.728 31.222 o
7 2 0 29.888 28.534 2.633 34.443 o
7 2 1 371.741 342.565 7.859 1.056 o
7 2 2 20.512 16.833 0.968 87.448 o
7 2 3 30.359 30.633 1.567 46.260 o
7 2 4 91.593 89.119 3.581 9.687 o
7 2 5 2.392 5.967 1.507 177.190 o
7 2 6 7.784 8.104 1.587 123.653 o
7 2 7 11.429 9.671 1.764 93.911 o
7 3 0 315.181 333.226 10.807 1.131 o
7 3 1 35.554 35.819 2.085 34.532 o
7 3 2 125.327 125.801 2.683 6.827 o
7 3 3 2.792 1.014 1.509 197.985 o
7 3 4 8.192 8.527 1.383 139.105 o
7 3 5 6.775 5.285 1.286 174.111 o
7 3 6 4.136 2.999 2.064 107.128 o
7 3 7 2.258 0.411 1.571 193.634 o
7 4 0 8.676 7.516 2.260 77.007 o
7 4 1 2.729 6.828 2.423 80.545 o
7 4 2 81.189 80.428 3.744 10.803 o
7 4 3 10.256 10.212 1.666 102.821 o
7 4 4 7.246 5.726 1.287 167.541 o
7 4 5 0.388 0.540 0.940 560.365 o
7 4 6 20.735 28.021 3.548 28.534 o
7 5 0 12.789 11.357 1.664 92.614 o
7 5 1 10.044 9.071 2.571 60.865 o
7 5 2 4.030 3.013 2.472 78.909 o
7 5 3 0.030 0.410 1.179 386.090 o
7 5 4 11.023 8.647 1.801 94.575 o
7 5 5 24.349 26.357 2.640 38.391 o
7 6 0 2.707 4.956 1.360 207.487 o
7 6 1 1.942 0.884 1.818 150.165 o
7 6 2 6.717 13.214 3.193 44.385 o
7 6 3 5.847 2.522 2.440 77.825 o
7 6 4 9.644 13.708 2.134 74.922 o
7 7 0 24.481 26.977 2.589 38.824 o
7 7 1 1.860 5.345 1.518 183.277 o
7 7 2 12.913 15.637 3.537 34.109 o
8 0 0 322.170 331.049 7.729 1.257 o
8 0 2 112.267 105.923 4.519 6.881 o
8 0 4 5.041 4.585 1.441 170.310 o
8 0 6 16.294 14.984 1.985 67.202 o
8 1 0 36.670 37.837 1.566 37.557 o
8 1 1 98.121 100.321 2.555 9.699 o
8 1 2 8.530 9.090 0.934 181.803 o
8 1 3 8.060 6.564 1.439 140.532 o
8 1 4 18.773 21.140 1.533 70.556 o
8 1 5 25.260 24.963 2.446 41.064 o
8 1 6 12.220 12.427 1.361 109.670 o
8 2 0 29.651 29.778 1.254 51.359 o
8 2 1 12.965 12.897 0.775 139.045 o
8 2 2 9.159 7.670 1.435 131.009 o
8 2 3 185.550 197.779 6.135 2.995 o
8 2 4 12.383 12.153 1.219 118.202 o
8 2 5 5.640 6.913 1.011 222.437 o
8 2 6 3.210 1.971 1.160 276.482 o
8 3 0 125.879 128.791 3.742 6.204 o
8 3 1 3.988 3.379 1.656 151.876 o
8 3 2 82.170 93.722 3.467 10.478 o
8 3 3 15.132 15.804 1.797 75.187 o
8 3 4 27.084 30.438 2.351 39.065 o
8 3 5 0.006 -0.138 1.395 282.388 o
8 3 6 3.360 3.128 1.667 155.417 o
8 4 0 1.905 4.656 1.232 253.911 o
8 4 1 31.557 24.921 3.717 24.111 o
8 4 2 17.748 12.444 2.931 42.729 o
8 4 3 11.266 13.132 3.463 36.578 o
8 4 4 0.000 -0.163 0.947 613.691 o
8 4 5 6.259 6.508 1.358 163.369 o
8 5 0 8.911 6.494 1.443 135.139 o
8 5 1 46.758 44.357 4.847 13.824 o
8 5 2 1.784 -0.147 2.145 112.980 o
8 5 3 10.702 9.955 3.111 44.674 o
8 5 4 0.044 -0.453 1.047 499.003 o
8 6 0 41.816 55.291 3.519 19.061 o
8 6 1 3.947 5.275 1.408 182.551 o
8 6 2 0.861 4.028 2.669 72.771 o
8 6 3 5.857 7.090 2.996 52.476 o
8 7 0 0.240 0.465 1.145 398.363 o
9 0 0 79.839 76.925 3.651 11.269 o
9 0 2 97.634 107.282 4.748 7.400 o
9 0 4 0.300 0.213 0.933 590.606 o
9 1 0 53.304 50.881 2.075 22.998 o
9 1 1 92.476 91.590 3.317 9.819 o
9 1 2 1.403 0.563 0.414 1295.970 o
9 1 3 2.526 2.957 0.970 353.909 o
9 1 4 6.030 5.108 1.212 194.193 o
9 1 5 7.894 5.385 1.388 151.267 o
9 2 0 0.541 0.835 0.907 569.643 o
9 2 1 0.812 0.875 1.662 186.450 o
9 2 2 0.906 -0.940 2.039 128.205 o
9 2 3 0.728 -0.866 1.081 430.640 o
9 2 4 2.171 4.532 1.154 273.250 o
9 2 5 11.137 10.655 1.636 100.753 o
9 3 0 28.266 30.039 2.068 42.032 o
9 3 1 34.251 31.694 2.963 28.331 o
9 3 2 5.177 4.408 1.880 117.142 o
9 3 3 7.204 8.395 1.419 142.271 o
9 3 4 5.544 5.752 1.345 174.937 o
9 4 0 1.852 1.626 1.062 359.454 o
9 4 1 14.604 11.642 2.882 46.376 o
9 4 2 28.362 25.380 4.126 21.775 o
9 4 3 0.711 2.309 1.425 238.172 o
9 4 4 4.314 2.978 1.325 207.107 o
9 5 0 7.083 8.662 1.785 109.125 o
9 5 1 37.367 38.517 3.017 25.473 o
9 5 2 0.369 1.375 2.325 98.870 o
9 5 3 6.691 11.806 3.422 39.926 o
9 6 0 16.564 18.731 2.432 51.839 o
9 6 1 1.849 1.207 1.111 342.902 o
10 0 0 9.097 6.346 1.351 143.457 o
10 0 2 41.717 37.234 2.816 25.546 o
10 0 4 13.197 12.543 2.030 73.456 o
10 1 0 17.052 17.613 1.349 84.567 o
10 1 1 11.047 11.780 1.740 93.238 o
10 1 2 24.489 26.739 5.731 13.655 o
10 1 3 18.151 20.030 2.204 54.786 o
10 1 4 8.908 6.588 1.655 116.178 o
10 2 0 0.000 0.222 2.563 83.563 o
10 2 1 17.490 18.374 2.042 60.912 o
10 2 2 8.918 11.413 4.290 26.394 o
10 2 3 22.201 24.714 2.501 42.648 o
10 2 4 6.823 9.159 1.581 126.378 o
10 3 0 14.322 15.599 1.872 74.269 o
10 3 1 6.669 6.034 1.238 178.247 o
10 3 2 3.145 3.559 1.760 142.624 o
10 3 3 0.283 1.539 1.651 190.852 o
10 4 0 4.956 2.979 1.212 222.284 o
10 4 1 9.812 15.804 2.040 76.557 o
10 4 2 0.129 4.274 2.767 68.769 o
10 5 0 13.469 20.087 4.405 23.320 o
10 5 1 7.280 6.029 2.677 62.328 o
11 0 0 92.784 99.960 7.008 5.705 o
11 0 2 11.959 12.919 5.420 16.908 o
11 1 0 2.946 4.181 1.304 221.979 o
11 1 1 8.363 9.769 3.692 34.776 o
11 1 2 28.035 27.493 2.648 35.645 o
11 2 0 0.229 1.315 1.186 357.613 o
11 2 1 11.616 10.153 1.809 90.191 o
11 2 2 1.894 0.222 3.922 35.082 o
11 3 0 12.421 11.328 4.339 25.092 o
11 3 1 0.014 0.352 1.038 497.120 o
11 4 0 3.574 2.440 1.556 174.184 o
12 0 0 9.981 11.642 4.601 23.086 o
12 1 0 0.175 -7.548 4.339 29.177 o
12 1 1 0.005 -4.454 4.437 27.937 o
12 2 0 0.735 -0.257 1.174 369.823 o
;
_olex2_submission_special_instructions 'No special instructions were received'
loop_
_space_group_symop_id
_space_group_symop_operation_xyz
1 x,y,z
2 -x,y+1/2,-z+1/2
3 -x,-y,-z
4 x,-y-1/2,z-1/2
loop_
_atom_site_label
_atom_site_type_symbol
_atom_site_fract_x
_atom_site_fract_y
_atom_site_fract_z
_atom_site_U_iso_or_equiv
_atom_site_adp_type
_atom_site_occupancy
_atom_site_refinement_flags_posn
S001 S 0.31810(5) 0.40250(7) 0.55316(5) 0.0533(2) Uani 1.000000 .
N002 N 0.36216(17) 0.3516(2) 0.35016(16) 0.0530(5) Uani 1.000000 .
N003 N 0.42337(18) 0.2113(2) 0.43323(17) 0.0568(5) Uani 1.000000 .
C00A C 0.0798(3) 0.9072(4) 0.1904(3) 0.0883(9) Uani 1.000000 .
C00B C 0.0837(3) 0.7566(4) 0.1234(3) 0.0861(9) Uani 1.000000 .
C00C C 0.1518(3) 0.9163(3) 0.3251(3) 0.0850(9) Uani 1.000000 .
N004 N 0.4609(2) 0.1016(3) 0.64167(18) 0.0731(6) Uani 1.000000 .
C005 C 0.30393(19) 0.4621(3) 0.39722(18) 0.0458(5) Uani 1.000000 .
C006 C 0.2293(2) 0.6188(3) 0.3262(2) 0.0508(5) Uani 1.000000 .
C007 C 0.4086(2) 0.2198(3) 0.54305(19) 0.0514(5) Uani 1.000000 .
C008 C 0.2255(2) 0.7719(3) 0.3926(3) 0.0683(6) Uani 1.000000 .
C009 C 0.1574(3) 0.6132(3) 0.1901(2) 0.0683(7) Uani 1.000000 .
H009 H 0.1594(3) 0.5113(3) 0.1439(2) 0.0820(8) Uiso 1.000000 R
H00B H 0.0360(3) 0.7517(4) 0.0322(3) 0.1034(10) Uiso 1.000000 R
H00A H 0.0284(3) 1.0035(4) 0.1449(3) 0.1059(11) Uiso 1.000000 R
H00C H 0.1507(3) 1.0195(3) 0.3704(3) 0.1020(10) Uiso 1.000000 R
H008 H 0.2732(2) 0.7775(3) 0.4837(3) 0.0819(8) Uiso 1.000000 R
H00d H 0.4137(11) 0.0972(19) 0.6856(12) 0.0877(7) Uiso 1.000000 GR
H00e H 0.4604(18) -0.0006(6) 0.6071(2) 0.0877(7) Uiso 1.000000 GR
loop_
_atom_site_aniso_label
_atom_site_aniso_U_11
_atom_site_aniso_U_22
_atom_site_aniso_U_33
_atom_site_aniso_U_12
_atom_site_aniso_U_13
_atom_site_aniso_U_23
S001 0.0649(4) 0.0656(4) 0.0398(3) 0.0118(3) 0.0321(3) 0.0011(2)
N002 0.0670(11) 0.0617(10) 0.0410(9) 0.0096(9) 0.0333(9) 0.0078(8)
N003 0.0774(11) 0.0637(11) 0.0447(9) 0.0179(9) 0.0409(9) 0.0093(8)
C00A 0.0817(18) 0.092(2) 0.107(2) 0.0317(15) 0.0553(19) 0.0490(18)
C00B 0.0892(18) 0.108(2) 0.0661(16) 0.0247(17) 0.0375(15) 0.0334(16)
C00C 0.0845(18) 0.0665(17) 0.113(3) 0.0191(13) 0.0509(19) 0.0083(15)
N004 0.1068(16) 0.0818(14) 0.0518(11) 0.0340(12) 0.0541(12) 0.0198(10)
C005 0.0500(10) 0.0559(11) 0.0392(10) 0.0006(9) 0.0265(9) 0.0011(9)
C006 0.0506(11) 0.0604(12) 0.0512(11) 0.0024(9) 0.0310(10) 0.0078(10)
C007 0.0603(11) 0.0623(12) 0.0419(10) 0.0092(10) 0.0318(9) 0.0043(9)
C008 0.0670(14) 0.0692(15) 0.0699(15) 0.0091(12) 0.0303(12) -0.0010(12)
C009 0.0772(15) 0.0797(16) 0.0511(13) 0.0114(13) 0.0300(12) 0.0119(11)
loop_
_atom_type_symbol
_atom_type_scat_dispersion_real
_atom_type_scat_dispersion_imag
_atom_type_scat_Cromer_Mann_a1
_atom_type_scat_Cromer_Mann_a2
_atom_type_scat_Cromer_Mann_a3
_atom_type_scat_Cromer_Mann_a4
_atom_type_scat_Cromer_Mann_b1
_atom_type_scat_Cromer_Mann_b2
_atom_type_scat_Cromer_Mann_b3
_atom_type_scat_Cromer_Mann_b4
_atom_type_scat_Cromer_Mann_c
_atom_type_scat_source
_atom_type_scat_dispersion_source
H 0.00000 0.00000 0.49300 0.32291 0.14019 0.04081 10.51090 26.12570 3.14236
57.79970 0.0030380000826
'International Tables Volume C Table 6.1.1.4 (pp. 500-502)'
'Henke, Gullikson and Davis, At. Data and Nucl. Data Tables, 1993, 54, 2'
C 0.00347 0.00161 2.31000 1.02000 1.58860 0.86500 20.84390 10.20750 0.56870
51.65120 0.215599998832
'International Tables Volume C Table 6.1.1.4 (pp. 500-502)'
'Henke, Gullikson and Davis, At. Data and Nucl. Data Tables, 1993, 54, 2'
S 0.12424 0.12443 6.90530 5.20340 1.43790 1.58630 1.46790 22.21510 0.25360
56.17200 0.866900026798
'International Tables Volume C Table 6.1.1.4 (pp. 500-502)'
'Henke, Gullikson and Davis, At. Data and Nucl. Data Tables, 1993, 54, 2'
N 0.00653 0.00323 12.21260 3.13220 2.01250 1.16630 0.00570 9.89330 28.99750
0.58260 -11.5290002823
'International Tables Volume C Table 6.1.1.4 (pp. 500-502)'
'Henke, Gullikson and Davis, At. Data and Nucl. Data Tables, 1993, 54, 2'
loop_
_geom_angle_atom_site_label_1
_geom_angle_atom_site_label_2
_geom_angle_atom_site_label_3
_geom_angle
_geom_angle_site_symmetry_1
_geom_angle_site_symmetry_3
_geom_angle_publ_flag
C007 S001 C005 86.96(9) . . ?
C005 N002 N003 113.93(16) . . ?
C007 N003 N002 111.90(16) . . ?
C00C C00A C00B 120.2(2) . . ?
H00A C00A C00B 119.92(17) . . ?
H00A C00A C00C 119.92(17) . . ?
C009 C00B C00A 120.2(3) . . ?
H00B C00B C00A 119.88(17) . . ?
H00B C00B C009 119.88(17) . . ?
C008 C00C C00A 119.7(3) . . ?
H00C C00C C00A 120.15(17) . . ?
H00C C00C C008 120.15(18) . . ?
H00d N004 C007 109.9 . . ?
H00e N004 C007 107.7 . . ?
H00e N004 H00d 109.5 . . ?
N002 C005 S001 113.19(15) . . ?
C006 C005 S001 122.63(15) . . ?
C006 C005 N002 124.15(18) . . ?
C008 C006 C005 121.2(2) . . ?
C009 C006 C005 120.0(2) . . ?
C009 C006 C008 118.7(2) . . ?
N003 C007 S001 114.02(15) . . ?
N004 C007 S001 122.13(15) . . ?
N004 C007 N003 123.83(19) . . ?
C006 C008 C00C 120.7(3) . . ?
H008 C008 C00C 119.67(18) . . ?
H008 C008 C006 119.67(14) . . ?
C006 C009 C00B 120.5(3) . . ?
H009 C009 C00B 119.75(17) . . ?
H009 C009 C006 119.75(14) . . ?
loop_
_geom_bond_atom_site_label_1
_geom_bond_atom_site_label_2
_geom_bond_distance
_geom_bond_site_symmetry_2
_geom_bond_publ_flag
S001 C005 1.7433(19) . ?
S001 C007 1.736(2) . ?
N002 N003 1.380(2) . ?
N002 C005 1.295(3) . ?
N003 C007 1.309(2) . ?
C00A C00B 1.370(4) . ?
C00A C00C 1.377(4) . ?
C00A H00A 0.9300 . ?
C00B C009 1.369(3) . ?
C00B H00B 0.9300 . ?
C00C C008 1.378(3) . ?
C00C H00C 0.9300 . ?
N004 C007 1.343(3) . ?
N004 H00d 0.8600 . ?
N004 H00e 0.8600 . ?
C005 C006 1.467(3) . ?
C006 C008 1.381(3) . ?
C006 C009 1.389(3) . ?
C008 H008 0.9300 . ?
C009 H009 0.9300 . ?
