#------------------------------------------------------------------------------
#$Date: 2020-06-06 04:19:29 +0300 (Sat, 06 Jun 2020) $
#$Revision: 252960 $
#$URL: file:///home/coder/svn-repositories/cod/cif/1/55/82/1558230.cif $
#------------------------------------------------------------------------------
#
# This file is available in the Crystallography Open Database (COD),
# http://www.crystallography.net/
#
# All data on this site have been placed in the public domain by the
# contributors.
#
data_1558230
loop_
_publ_author_name
'Ding, Xiaodan'
'Unruh, Daniel K.'
'Groeneman , Ryan'
'Hutchins, Kristin M.'
_publ_section_title
;
 Controlling thermal expansion within mixed cocrystals by tuning molecular
 motion capability
;
_journal_name_full               'Chemical Science'
_journal_paper_doi               10.1039/D0SC02795B
_journal_year                    2020
_chemical_formula_sum            'C17.57 H15.57 N2.43 O2'
_chemical_formula_weight         292.75
_space_group_IT_number           2
_space_group_name_Hall           '-P 1'
_space_group_name_H-M_alt        'P -1'
_symmetry_cell_setting           triclinic
_symmetry_Int_Tables_number      2
_symmetry_space_group_name_Hall  '-P 1'
_symmetry_space_group_name_H-M   'P -1'
_atom_sites_solution_hydrogens   geom
_atom_sites_solution_primary     dual
_atom_sites_solution_secondary   difmap
_audit_creation_date             2020-03-10T15:55:32-00:00
_audit_creation_method           'WinGX routine CIF_UPDATE'
_audit_update_record
;
2020-04-07 deposited with the CCDC.	2020-06-05 downloaded from the CCDC.
;
_cell_angle_alpha                92.9895(18)
_cell_angle_beta                 107.0934(13)
_cell_angle_gamma                114.3019(13)
_cell_formula_units_Z            2
_cell_length_a                   8.05644(11)
_cell_length_b                   9.86768(17)
_cell_length_c                   10.88249(16)
_cell_measurement_reflns_used    16051
_cell_measurement_temperature    210(2)
_cell_measurement_theta_max      76.965
_cell_measurement_theta_min      4.306
_cell_volume                     738.62(2)
_computing_cell_refinement       'CrysAlisPro 1.171.40.70a (Rigaku OD, 2020)'
_computing_data_collection       'CrysAlisPro 1.171.40.70a (Rigaku OD, 2020)'
_computing_data_reduction        'CrysAlisPro 1.171.40.70a (Rigaku OD, 2020)'
_computing_structure_refinement  'SHELXL-2018/3 (Sheldrick, 2018)'
_computing_structure_solution    'SHELXT 2014/5 (Sheldrick, 2014)'
_diffrn_ambient_environment      N~2~
_diffrn_ambient_temperature      210(2)
_diffrn_detector                 'Hybrid Pixel Array Detector'
_diffrn_detector_area_resol_mean 10
_diffrn_detector_type            HyPix
_diffrn_measured_fraction_theta_full 0.998
_diffrn_measured_fraction_theta_max 0.968
_diffrn_measurement_device       'four-circle diffractometer'
_diffrn_measurement_device_type  'XtaLAB Synergy, Dualflex, HyPix'
_diffrn_measurement_method       '\w scans'
_diffrn_orient_matrix_type
'CrysAlisPro convention (1999,Acta A55,543-557)'
_diffrn_orient_matrix_UB_11      0.0007709
_diffrn_orient_matrix_UB_12      0.0471249
_diffrn_orient_matrix_UB_13      -0.148165
_diffrn_orient_matrix_UB_21      -0.073349
_diffrn_orient_matrix_UB_22      0.168272
_diffrn_orient_matrix_UB_23      0.0096655
_diffrn_orient_matrix_UB_31      0.200578
_diffrn_orient_matrix_UB_32      -0.0037922
_diffrn_orient_matrix_UB_33      -0.0281225
_diffrn_radiation_monochromator  mirror
_diffrn_radiation_probe          x-ray
_diffrn_radiation_type           CuK\a
_diffrn_radiation_wavelength     1.54178
_diffrn_reflns_av_R_equivalents  0.0352
_diffrn_reflns_av_unetI/netI     0.0477
_diffrn_reflns_Laue_measured_fraction_full 0.998
_diffrn_reflns_Laue_measured_fraction_max 0.968
_diffrn_reflns_limit_h_max       8
_diffrn_reflns_limit_h_min       -10
_diffrn_reflns_limit_k_max       12
_diffrn_reflns_limit_k_min       -12
_diffrn_reflns_limit_l_max       13
_diffrn_reflns_limit_l_min       -13
_diffrn_reflns_number            27429
_diffrn_reflns_point_group_measured_fraction_full 0.998
_diffrn_reflns_point_group_measured_fraction_max 0.968
_diffrn_reflns_theta_full        67.679
_diffrn_reflns_theta_max         77.205
_diffrn_reflns_theta_min         4.337
_diffrn_source                   'micro-focus sealed X-ray tube'
_diffrn_source_type              'PhotonJet (Cu) X-ray Source'
_exptl_absorpt_coefficient_mu    0.709
_exptl_absorpt_correction_T_max  1
_exptl_absorpt_correction_T_min  0.522
_exptl_absorpt_correction_type   gaussian
_exptl_absorpt_process_details
;
        CrysAlisPro 1.171.40.70a (Rigaku Oxford Diffraction, 2020)
Numerical absorption correction based on gaussian integration over
                        a multifaceted crystal model
        Empirical absorption correction using spherical harmonics,
 implemented in SCALE3 ABSPACK scaling algorithm.
;
_exptl_crystal_colour            'clear light yellow'
_exptl_crystal_density_diffrn    1.316
_exptl_crystal_description       irregular
_exptl_crystal_F_000             308
_exptl_crystal_size_max          0.224
_exptl_crystal_size_mid          0.11
_exptl_crystal_size_min          0.085
_refine_diff_density_max         0.178
_refine_diff_density_min         -0.162
_refine_diff_density_rms         0.034
_refine_ls_extinction_coef       0.0041(9)
_refine_ls_extinction_expression Fc^*^=kFc[1+0.001xFc^2^\l^3^/sin(2\q)]^-1/4^
_refine_ls_extinction_method     'SHELXL-2018/3 (Sheldrick 2018)'
_refine_ls_goodness_of_fit_ref   1.088
_refine_ls_hydrogen_treatment    constr
_refine_ls_matrix_type           full
_refine_ls_number_parameters     242
_refine_ls_number_reflns         3036
_refine_ls_number_restraints     306
_refine_ls_restrained_S_all      1.037
_refine_ls_R_factor_all          0.0393
_refine_ls_R_factor_gt           0.0364
_refine_ls_shift/su_max          0
_refine_ls_shift/su_mean         0
_refine_ls_structure_factor_coef Fsqd
_refine_ls_weighting_details
'w=1/[\s^2^(Fo^2^)+(0.0616P)^2^+0.0829P] where P=(Fo^2^+2Fc^2^)/3'
_refine_ls_weighting_scheme      calc
_refine_ls_wR_factor_gt          0.1055
_refine_ls_wR_factor_ref         0.1084
_reflns_Friedel_coverage         0
_reflns_number_gt                2761
_reflns_number_total             3036
_reflns_threshold_expression     'I > 2\s(I)'
_cod_data_source_file            d0sc02795b2.cif
_cod_data_source_block           A25_BE75_210
_cod_database_code               1558230
_shelx_estimated_absorpt_t_min   0.857
_shelx_estimated_absorpt_t_max   0.942
_shelx_shelxl_version_number     2018/3
_shelx_res_file
;
TITL 210_a.res in P-1
    210_a.res
    created by SHELXL-2018/3 at 15:28:45 on 10-Mar-2020
REM Old TITL 210 in P-1

REM SHELXT solution in P-1
REM R1 0.110,  Rweak 0.003,  Alpha 0.031,  Orientation as input
REM Formula found by SHELXT:  C18 N2 O2

CELL  1.54178   8.05644   9.86768  10.88249  92.9895 107.0934 114.3019
ZERR    2.000   0.00011   0.00017   0.00016   0.0018   0.0013   0.0013
LATT  1
SFAC C H N O
UNIT 35.1437 31.1437 4.85628 4
TEMP -63.2
SIZE 0.224 0.110 0.085
L.S. 100
BOND $H
ACTA
LIST 4
FMAP 2
PLAN 20

EQIV $1 -x+1, -y+1, -z+2

HTAB O1 N1
HTAB O2 N4_$1

RIGU
SIMU 0.01 N2A N3A N2B N3B C17 C18

DFIX 1.24 0.01 N2A N3A
DFIX 1.24 0.01 N2B N3B
DFIX 1.32 0.01 C17 C18
DFIX 2.2 0.05 H17 H16
DFIX 51 C9 N2A C9 C17 C12 N3A C12 C18

SUMP 1.0 0.0 1.0 2 1.0 3 1.0 4

WGHT    0.061600    0.082900
EXTI    0.004075
FVAR       0.87346   0.19621   0.78593   0.01786   1.46722
O1    4    0.165718    0.157720    0.306561    11.00000    0.04184    0.05031 =
         0.03591    0.00635    0.01150    0.01941
AFIX 147
H1    2    0.198664    0.185478    0.386917    11.00000   -1.50000
AFIX   0
O2    4    0.823858    0.228577    0.432240    11.00000    0.04520    0.06544 =
         0.03922    0.00048    0.01371    0.02689
AFIX 147
H2A   2    0.828147    0.265696    0.503989    11.00000   -1.50000
AFIX   0
N1    3    0.261088    0.247198    0.571316    11.00000    0.04217    0.05536 =
         0.03817    0.00432    0.01301    0.02384
PART  1
N2A   3    0.233287    0.378822    0.942072    21.00000    0.04067    0.03937 =
         0.03724    0.00641    0.01495    0.02265
N3A   3    0.269211    0.507067    0.993061    21.00000    0.04070    0.03830 =
         0.03525    0.01048    0.01227    0.01396
PART  2
C17   1    0.213937    0.378605    0.933996    31.00000    0.03815    0.03954 =
         0.03246    0.00978    0.01127    0.01880
AFIX  43
H17   2    0.155999    0.300224    0.975521    31.00000   -1.20000
AFIX   0
C18   1    0.265568    0.519877    0.987078    31.00000    0.03781    0.03599 =
         0.03397    0.00895    0.01476    0.01776
AFIX  43
H18   2    0.324663    0.598658    0.946290    31.00000   -1.20000
AFIX   0
PART  3
N2B   3    0.250893    0.457158    0.918839    41.00000    0.04048    0.03810 =
         0.03592    0.00710    0.01056    0.01855
N3B   3    0.185195    0.408048    1.005791    41.00000    0.04092    0.03910 =
         0.03626    0.00691    0.01235    0.01708
PART  0
N4    3    0.175133    0.651152    1.332538    11.00000    0.03831    0.04992 =
         0.03227    0.00278    0.00747    0.01937
C1    1    0.316807    0.154173    0.277915    11.00000    0.04325    0.02990 =
         0.03404    0.00718    0.01369    0.01476
C2    1    0.494478    0.192038    0.374316    11.00000    0.04378    0.03439 =
         0.02869    0.00402    0.01285    0.01559
AFIX  43
H2    2    0.511742    0.219819    0.462776    11.00000   -1.20000
AFIX   0
C3    1    0.647304    0.189217    0.341098    11.00000    0.04418    0.03638 =
         0.03466    0.00454    0.01374    0.01773
C4    1    0.620861    0.145259    0.209829    11.00000    0.05619    0.04078 =
         0.03901    0.00465    0.02283    0.02170
AFIX  43
H4    2    0.722508    0.141575    0.186365    11.00000   -1.20000
AFIX   0
C5    1    0.442814    0.107342    0.115225    11.00000    0.06440    0.03936 =
         0.03053    0.00391    0.01839    0.02051
AFIX  43
H5    2    0.424917    0.078395    0.026833    11.00000   -1.20000
AFIX   0
C6    1    0.289911    0.110706    0.146723    11.00000    0.05061    0.03815 =
         0.03039    0.00467    0.00780    0.01677
AFIX  43
H6    2    0.169813    0.084114    0.080739    11.00000   -1.20000
AFIX   0
C7    1    0.322408    0.393576    0.620461    11.00000    0.04551    0.05136 =
         0.04170    0.01284    0.01889    0.02163
AFIX  43
H7    2    0.371057    0.465612    0.570975    11.00000   -1.20000
AFIX   0
C8    1    0.318412    0.444788    0.739155    11.00000    0.04425    0.04035 =
         0.04145    0.00745    0.01534    0.01876
AFIX  43
H8    2    0.365423    0.549085    0.769973    11.00000   -1.20000
AFIX   0
C9    1    0.243426    0.339368    0.813054    11.00000    0.03380    0.04276 =
         0.03360    0.00656    0.00964    0.01944
C10   1    0.183454    0.187561    0.763431    11.00000    0.04360    0.04197 =
         0.04066    0.00845    0.01376    0.01917
AFIX  43
H10   2    0.135128    0.112900    0.810938    11.00000   -1.20000
AFIX   0
C11   1    0.195277    0.147186    0.644174    11.00000    0.04486    0.04389 =
         0.04303    0.00153    0.01163    0.02009
AFIX  43
H11   2    0.154996    0.044138    0.612637    11.00000   -1.20000
AFIX   0
C12   1    0.233598    0.557641    1.107592    11.00000    0.03228    0.04237 =
         0.03237    0.00745    0.00887    0.01782
C13   1    0.287111    0.708794    1.152590    11.00000    0.04234    0.03984 =
         0.04076    0.00912    0.01419    0.01463
AFIX  43
H13   2    0.344215    0.783016    1.107368    11.00000   -1.20000
AFIX   0
C14   1    0.256373    0.750000    1.263842    11.00000    0.04597    0.03936 =
         0.04224    0.00213    0.01124    0.01634
AFIX  43
H14   2    0.294737    0.853289    1.292800    11.00000   -1.20000
AFIX   0
C15   1    0.122014    0.504689    1.289212    11.00000    0.03948    0.04784 =
         0.03435    0.01152    0.01174    0.01914
AFIX  43
H15   2    0.063717    0.433129    1.336001    11.00000   -1.20000
AFIX   0
C16   1    0.148568    0.453492    1.179260    11.00000    0.04241    0.03956 =
         0.03905    0.00882    0.01268    0.01973
AFIX  43
H16   2    0.109806    0.349614    1.152936    11.00000   -1.20000
AFIX   0
HKLF 4




REM  210_a.res in P-1
REM wR2 = 0.108441, GooF = S = 1.08786, Restrained GooF = 1.03675 for all data
REM R1 = 0.036388 for 2761 Fo > 4sig(Fo) and 0.039266 for all 3036 data
REM 242 parameters refined using 306 restraints

END

WGHT      0.0616      0.0829

REM Highest difference peak  0.178,  deepest hole -0.162,  1-sigma level  0.034
Q1    1   0.2490  0.5389  1.0574  11.00000  0.05    0.18
Q2    1   0.2150  0.3565  0.8637  11.00000  0.05    0.17
Q3    1   0.1884  0.6766  1.4094  11.00000  0.05    0.16
Q4    1   0.2438  0.5207  1.1596  11.00000  0.05    0.16
Q5    1   0.2486  0.2224  0.4977  11.00000  0.05    0.16
Q6    1   0.3041  0.1119  0.2142  11.00000  0.05    0.15
Q7    1   0.6304  0.1584  0.2676  11.00000  0.05    0.15
Q8    1   0.1246  0.4855  1.2229  11.00000  0.05    0.14
Q9    1   0.2473  0.3972  0.7665  11.00000  0.05    0.14
Q10   1   0.3608  0.4149  0.6974  11.00000  0.05    0.14
Q11   1   0.1935  0.2706  0.7823  11.00000  0.05    0.13
Q12   1   0.4210  0.2060  0.3191  11.00000  0.05    0.12
Q13   1   0.1721  0.1787  0.7009  11.00000  0.05    0.11
Q14   1   0.2599  0.3952  0.6632  11.00000  0.05    0.10
Q15   1   0.3493  0.0794  0.1430  11.00000  0.05    0.10
Q16   1   0.1812  0.4453  0.9363  11.00000  0.05    0.10
Q17   1   0.7430  0.1368  0.4572  11.00000  0.05    0.10
Q18   1   0.2655  0.2796  0.8191  11.00000  0.05    0.10
Q19   1   0.1005  0.0863  0.0798  11.00000  0.05    0.10
Q20   1   0.7838  0.1156  0.2185  11.00000  0.05    0.10
;
_shelx_res_checksum              57604
loop_
_symmetry_equiv_pos_as_xyz
'x, y, z'
'-x, -y, -z'
loop_
_atom_site_label
_atom_site_type_symbol
_atom_site_fract_x
_atom_site_fract_y
_atom_site_fract_z
_atom_site_U_iso_or_equiv
_atom_site_adp_type
_atom_site_occupancy
_atom_site_site_symmetry_order
_atom_site_calc_flag
_atom_site_refinement_flags_posn
_atom_site_refinement_flags_adp
_atom_site_refinement_flags_occupancy
_atom_site_disorder_assembly
_atom_site_disorder_group
O1 O 0.16572(11) 0.15772(9) 0.30656(7) 0.0437(2) Uani 1 1 d . . . . .
H1 H 0.198664 0.185478 0.386917 0.066 Uiso 1 1 calc R U . . .
O2 O 0.82386(12) 0.22858(10) 0.43224(8) 0.0498(2) Uani 1 1 d . . . . .
H2A H 0.828147 0.265696 0.503989 0.075 Uiso 1 1 calc R U . . .
N1 N 0.26109(14) 0.24720(11) 0.57132(9) 0.0449(2) Uani 1 1 d . . . . .
N2A N 0.233(4) 0.379(2) 0.9421(19) 0.037(2) Uani 0.196(3) 1 d D U P A 1
N3A N 0.269(4) 0.507(2) 0.993(2) 0.040(3) Uani 0.196(3) 1 d D U P A 1
C17 C 0.2139(11) 0.3786(7) 0.9340(5) 0.0363(8) Uani 0.786(3) 1 d D U P A 2
H17 H 0.155999 0.300224 0.975521 0.044 Uiso 0.786(3) 1 calc DR U P A 2
C18 C 0.2656(12) 0.5199(7) 0.9871(6) 0.0348(6) Uani 0.786(3) 1 d D U P A 2
H18 H 0.324663 0.598658 0.94629 0.042 Uiso 0.786(3) 1 calc R U P A 2
N2B N 0.251(8) 0.457(7) 0.919(5) 0.038(3) Uani 0.0179(16) 1 d D U P A 3
N3B N 0.185(7) 0.408(6) 1.006(4) 0.039(3) Uani 0.0179(16) 1 d D U P A 3
N4 N 0.17513(13) 0.65115(11) 1.33254(8) 0.0417(2) Uani 1 1 d . . . . .
C1 C 0.31681(16) 0.15417(10) 0.27792(10) 0.0362(2) Uani 1 1 d . . . . .
C2 C 0.49448(15) 0.19204(11) 0.37432(9) 0.0363(2) Uani 1 1 d . . . . .
H2 H 0.511742 0.219819 0.462776 0.044 Uiso 1 1 calc R U . . .
C3 C 0.64730(16) 0.18922(11) 0.34110(10) 0.0386(2) Uani 1 1 d . . . . .
C4 C 0.62086(18) 0.14526(12) 0.20983(11) 0.0439(3) Uani 1 1 d . . . . .
H4 H 0.722508 0.141575 0.186365 0.053 Uiso 1 1 calc R U . . .
C5 C 0.44281(19) 0.10734(12) 0.11523(10) 0.0454(3) Uani 1 1 d . . . . .
H5 H 0.424917 0.078395 0.026833 0.054 Uiso 1 1 calc R U . . .
C6 C 0.28991(17) 0.11071(12) 0.14672(10) 0.0424(3) Uani 1 1 d . . . . .
H6 H 0.169813 0.084114 0.080739 0.051 Uiso 1 1 calc R U . . .
C7 C 0.32241(17) 0.39358(13) 0.62046(11) 0.0451(3) Uani 1 1 d . . . . .
H7 H 0.371057 0.465612 0.570975 0.054 Uiso 1 1 calc R U . . .
C8 C 0.31841(17) 0.44479(12) 0.73915(11) 0.0420(3) Uani 1 1 d . . . . .
H8 H 0.365423 0.549085 0.769973 0.05 Uiso 1 1 calc R U . . .
C9 C 0.24343(15) 0.33937(12) 0.81305(10) 0.0364(2) Uani 1 1 d D . . . .
C10 C 0.18345(16) 0.18756(12) 0.76343(11) 0.0423(3) Uani 1 1 d . . . . .
H10 H 0.135128 0.1129 0.810938 0.051 Uiso 1 1 calc R U . . .
C11 C 0.19528(17) 0.14719(13) 0.64417(11) 0.0450(3) Uani 1 1 d . . . . .
H11 H 0.154996 0.044138 0.612637 0.054 Uiso 1 1 calc R U . . .
C12 C 0.23360(14) 0.55764(12) 1.10759(10) 0.0358(2) Uani 1 1 d D . . . .
C13 C 0.28711(16) 0.70879(12) 1.15259(11) 0.0423(3) Uani 1 1 d . . . . .
H13 H 0.344215 0.783016 1.107368 0.051 Uiso 1 1 calc R U . . .
C14 C 0.25637(17) 0.75000(12) 1.26384(11) 0.0447(3) Uani 1 1 d . . . . .
H14 H 0.294737 0.853289 1.2928 0.054 Uiso 1 1 calc R U . . .
C15 C 0.12201(16) 0.50469(13) 1.28921(10) 0.0408(2) Uani 1 1 d . . . . .
H15 H 0.063717 0.433129 1.336001 0.049 Uiso 1 1 calc R U . . .
C16 C 0.14857(16) 0.45349(12) 1.17926(10) 0.0401(2) Uani 1 1 d . . . . .
H16 H 0.109806 0.349614 1.152936 0.048 Uiso 1 1 calc DR U . . .
loop_
_atom_site_aniso_label
_atom_site_aniso_U_11
_atom_site_aniso_U_22
_atom_site_aniso_U_33
_atom_site_aniso_U_23
_atom_site_aniso_U_13
_atom_site_aniso_U_12
O1 0.0418(4) 0.0503(4) 0.0359(4) 0.0064(3) 0.0115(3) 0.0194(3)
O2 0.0452(5) 0.0654(5) 0.0392(4) 0.0005(4) 0.0137(3) 0.0269(4)
N1 0.0422(5) 0.0554(6) 0.0382(5) 0.0043(4) 0.0130(4) 0.0238(4)
N2A 0.041(4) 0.039(3) 0.037(3) 0.006(3) 0.015(3) 0.023(3)
N3A 0.041(4) 0.038(4) 0.035(3) 0.010(3) 0.012(3) 0.014(3)
C17 0.0381(16) 0.0395(11) 0.0325(11) 0.0098(9) 0.0113(10) 0.0188(9)
C18 0.0378(11) 0.0360(12) 0.0340(12) 0.0090(9) 0.0148(9) 0.0178(9)
N2B 0.040(5) 0.038(4) 0.036(4) 0.007(4) 0.011(4) 0.019(4)
N3B 0.041(5) 0.039(4) 0.036(4) 0.007(4) 0.012(4) 0.017(4)
N4 0.0383(5) 0.0499(5) 0.0323(4) 0.0028(4) 0.0075(4) 0.0194(4)
C1 0.0433(6) 0.0299(5) 0.0340(5) 0.0072(4) 0.0137(4) 0.0148(4)
C2 0.0438(6) 0.0344(5) 0.0287(5) 0.0040(4) 0.0129(4) 0.0156(4)
C3 0.0442(6) 0.0364(5) 0.0347(5) 0.0045(4) 0.0137(4) 0.0177(4)
C4 0.0562(7) 0.0408(5) 0.0390(6) 0.0047(4) 0.0228(5) 0.0217(5)
C5 0.0644(7) 0.0394(5) 0.0305(5) 0.0039(4) 0.0184(5) 0.0205(5)
C6 0.0506(6) 0.0381(5) 0.0304(5) 0.0047(4) 0.0078(4) 0.0168(5)
C7 0.0455(6) 0.0514(6) 0.0417(6) 0.0128(5) 0.0189(5) 0.0216(5)
C8 0.0443(6) 0.0404(5) 0.0415(6) 0.0074(4) 0.0153(5) 0.0188(5)
C9 0.0338(5) 0.0428(5) 0.0336(5) 0.0066(4) 0.0096(4) 0.0194(4)
C10 0.0436(6) 0.0420(6) 0.0407(6) 0.0085(4) 0.0138(5) 0.0192(5)
C11 0.0449(6) 0.0439(6) 0.0430(6) 0.0015(5) 0.0116(5) 0.0201(5)
C12 0.0323(5) 0.0424(5) 0.0324(5) 0.0074(4) 0.0089(4) 0.0178(4)
C13 0.0423(6) 0.0398(5) 0.0408(6) 0.0091(4) 0.0142(5) 0.0146(4)
C14 0.0460(6) 0.0394(5) 0.0422(6) 0.0021(4) 0.0112(5) 0.0163(5)
C15 0.0395(6) 0.0478(6) 0.0343(5) 0.0115(4) 0.0117(4) 0.0191(5)
C16 0.0424(6) 0.0396(5) 0.0390(5) 0.0088(4) 0.0127(4) 0.0197(4)
loop_
_atom_type_symbol
_atom_type_description
_atom_type_scat_dispersion_real
_atom_type_scat_dispersion_imag
_atom_type_scat_source
C C 0.0181 0.0091 'International Tables Vol C Tables 4.2.6.8 and 6.1.1.4'
H H 0 0 'International Tables Vol C Tables 4.2.6.8 and 6.1.1.4'
N N 0.0311 0.018 'International Tables Vol C Tables 4.2.6.8 and 6.1.1.4'
O O 0.0492 0.0322 'International Tables Vol C Tables 4.2.6.8 and 6.1.1.4'
loop_
_exptl_crystal_face_index_h
_exptl_crystal_face_index_k
_exptl_crystal_face_index_l
_exptl_crystal_face_perp_dist
1 0 -6 0.0337
3 6 0 0.0565
-2 0 6 0.0536
1 6 1 0.0529
0 -6 -1 0.0564
5 2 3 0.1012
-5 -5 -1 0.093
0 6 4 0.0506
0 0 7 0.0473
-4 2 0 0.1051
1 -4 3 0.0582
-3 -4 3 0.0674
-1 -1 -7 0.0394
0 -3 5 0.0488
0 3 6 0.0455
-1 -4 -6 0.0412
-4 -4 -5 0.0836
-1 -6 -4 0.0452
3 6 4 0.0661
-3 3 -3 0.0956
-5 -2 -3 0.1148
4 5 1 0.0716
loop_
_geom_angle_atom_site_label_1
_geom_angle_atom_site_label_2
_geom_angle_atom_site_label_3
_geom_angle
_geom_angle_site_symmetry_1
_geom_angle_site_symmetry_3
_geom_angle_publ_flag
C1 O1 H1 109.5 . . ?
C3 O2 H2A 109.5 . . ?
C11 N1 C7 117.00(9) . . ?
N3A N2A C9 124.7(18) . . ?
N2A N3A C12 130.5(19) . . ?
C18 C17 C9 122.6(5) . . ?
C18 C17 H17 118.7 . . ?
C9 C17 H17 118.7 . . ?
C17 C18 C12 122.1(5) . . ?
C17 C18 H18 118.9 . . ?
C12 C18 H18 118.9 . . ?
N3B N2B C9 117(5) . . ?
N2B N3B C12 106(5) . . ?
C14 N4 C15 117.04(9) . . ?
O1 C1 C2 122.10(9) . . ?
O1 C1 C6 118.05(10) . . ?
C2 C1 C6 119.84(10) . . ?
C1 C2 C3 120.53(9) . . ?
C1 C2 H2 119.7 . . ?
C3 C2 H2 119.7 . . ?
O2 C3 C2 122.14(9) . . ?
O2 C3 C4 118.03(10) . . ?
C2 C3 C4 119.83(10) . . ?
C5 C4 C3 118.85(11) . . ?
C5 C4 H4 120.6 . . ?
C3 C4 H4 120.6 . . ?
C4 C5 C6 121.95(10) . . ?
C4 C5 H5 119 . . ?
C6 C5 H5 119 . . ?
C5 C6 C1 118.99(10) . . ?
C5 C6 H6 120.5 . . ?
C1 C6 H6 120.5 . . ?
N1 C7 C8 123.87(10) . . ?
N1 C7 H7 118.1 . . ?
C8 C7 H7 118.1 . . ?
C7 C8 C9 118.95(10) . . ?
C7 C8 H8 120.5 . . ?
C9 C8 H8 120.5 . . ?
C10 C9 C8 117.22(10) . . ?
C10 C9 C17 118.8(3) . . ?
C8 C9 C17 123.8(3) . . ?
C10 C9 N2A 118.2(8) . . ?
C8 C9 N2A 124.5(8) . . ?
C10 C9 N2B 147.2(18) . . ?
C8 C9 N2B 95.2(18) . . ?
C11 C10 C9 119.65(10) . . ?
C11 C10 H10 120.2 . . ?
C9 C10 H10 120.2 . . ?
N1 C11 C10 123.25(10) . . ?
N1 C11 H11 118.4 . . ?
C10 C11 H11 118.4 . . ?
C13 C12 C16 116.97(10) . . ?
C13 C12 N3A 122.5(9) . . ?
C16 C12 N3A 120.5(9) . . ?
C13 C12 C18 117.5(3) . . ?
C16 C12 C18 125.5(3) . . ?
C13 C12 N3B 157.7(15) . . ?
C16 C12 N3B 84.8(15) . . ?
C14 C13 C12 119.82(10) . . ?
C14 C13 H13 120.1 . . ?
C12 C13 H13 120.1 . . ?
N4 C14 C13 123.48(10) . . ?
N4 C14 H14 118.3 . . ?
C13 C14 H14 118.3 . . ?
N4 C15 C16 123.34(10) . . ?
N4 C15 H15 118.3 . . ?
C16 C15 H15 118.3 . . ?
C15 C16 C12 119.35(10) . . ?
C15 C16 H16 120.3 . . ?
C12 C16 H16 120.3 . . ?
loop_
_geom_bond_atom_site_label_1
_geom_bond_atom_site_label_2
_geom_bond_distance
_geom_bond_site_symmetry_2
_geom_bond_publ_flag
O1 C1 1.3554(13) . ?
O1 H1 0.83 . ?
O2 C3 1.3541(13) . ?
O2 H2A 0.83 . ?
N1 C11 1.3348(15) . ?
N1 C7 1.3391(15) . ?
N2A N3A 1.234(10) . ?
N2A C9 1.472(16) . ?
N3A C12 1.466(17) . ?
C17 C18 1.322(4) . ?
C17 C9 1.465(5) . ?
C17 H17 0.94 . ?
C18 C12 1.467(5) . ?
C18 H18 0.94 . ?
N2B N3B 1.242(10) . ?
N2B C9 1.56(6) . ?
N3B C12 1.63(5) . ?
N4 C14 1.3330(15) . ?
N4 C15 1.3399(14) . ?
C1 C2 1.3875(15) . ?
C1 C6 1.3953(14) . ?
C2 C3 1.3915(15) . ?
C2 H2 0.94 . ?
C3 C4 1.3981(14) . ?
C4 C5 1.3811(17) . ?
C4 H4 0.94 . ?
C5 C6 1.3845(17) . ?
C5 H5 0.94 . ?
C6 H6 0.94 . ?
C7 C8 1.3765(15) . ?
C7 H7 0.94 . ?
C8 C9 1.3962(15) . ?
C8 H8 0.94 . ?
C9 C10 1.3912(15) . ?
C10 C11 1.3792(15) . ?
C10 H10 0.94 . ?
C11 H11 0.94 . ?
C12 C13 1.3859(15) . ?
C12 C16 1.3971(15) . ?
C13 C14 1.3785(16) . ?
C13 H13 0.94 . ?
C14 H14 0.94 . ?
C15 C16 1.3817(15) . ?
C15 H15 0.94 . ?
C16 H16 0.94 . ?
loop_
_geom_hbond_atom_site_label_D
_geom_hbond_atom_site_label_H
_geom_hbond_atom_site_label_A
_geom_hbond_distance_DH
_geom_hbond_distance_HA
_geom_hbond_distance_DA
_geom_hbond_angle_DHA
_geom_hbond_site_symmetry_A
_geom_hbond_publ_flag
O1 H1 N1 0.83 1.92 2.7470(12) 177 . yes
O2 H2A N4 0.83 1.93 2.7612(12) 177.3 2_667 yes
