#------------------------------------------------------------------------------
#$Date: 2020-06-06 04:11:42 +0300 (Sat, 06 Jun 2020) $
#$Revision: 252959 $
#$URL: file:///home/coder/svn-repositories/cod/cif/1/55/82/1558203.cif $
#------------------------------------------------------------------------------
#
# This file is available in the Crystallography Open Database (COD),
# http://www.crystallography.net/
#
# All data on this site have been placed in the public domain by the
# contributors.
#
data_1558203
loop_
_publ_author_name
'Ding, Xiaodan'
'Unruh, Daniel K.'
'Groeneman , Ryan'
'Hutchins, Kristin M.'
_publ_section_title
;
 Controlling thermal expansion within mixed cocrystals by tuning molecular
 motion capability
;
_journal_name_full               'Chemical Science'
_journal_paper_doi               10.1039/D0SC02795B
_journal_year                    2020
_chemical_formula_sum            'C18 H14.59 N2 O2'
_chemical_formula_weight         290.9
_space_group_IT_number           2
_space_group_name_Hall           '-P 1'
_space_group_name_H-M_alt        'P -1'
_symmetry_cell_setting           triclinic
_symmetry_Int_Tables_number      2
_symmetry_space_group_name_Hall  '-P 1'
_symmetry_space_group_name_H-M   'P -1'
_atom_sites_solution_hydrogens   geom
_atom_sites_solution_primary     dual
_atom_sites_solution_secondary   difmap
_audit_creation_date             2020-04-02T10:32:50-00:00
_audit_creation_method           'WinGX routine CIF_UPDATE'
_audit_update_record
;
2020-04-08 deposited with the CCDC.	2020-06-05 downloaded from the CCDC.
;
_cell_angle_alpha                92.2144(13)
_cell_angle_beta                 108.1472(16)
_cell_angle_gamma                114.5712(17)
_cell_formula_units_Z            2
_cell_length_a                   8.17391(17)
_cell_length_b                   9.81420(15)
_cell_length_c                   10.94231(17)
_cell_measurement_reflns_used    10658
_cell_measurement_temperature    210(2)
_cell_measurement_theta_max      77.224
_cell_measurement_theta_min      4.311
_cell_volume                     744.10(3)
_computing_cell_refinement       'CrysAlisPro 1.171.40.65a (Rigaku OD, 2019)'
_computing_data_collection       'CrysAlisPro 1.171.40.65a (Rigaku OD, 2019)'
_computing_data_reduction        'CrysAlisPro 1.171.40.65a (Rigaku OD, 2019)'
_computing_structure_refinement  'SHELXL-2018/3 (Sheldrick, 2018)'
_computing_structure_solution    'SHELXT 2014/5 (Sheldrick, 2014)'
_diffrn_ambient_environment      N~2~
_diffrn_ambient_temperature      210(2)
_diffrn_detector                 'Hybrid Pixel Array Detector'
_diffrn_detector_area_resol_mean 10
_diffrn_detector_type            HyPix
_diffrn_measured_fraction_theta_full 1
_diffrn_measured_fraction_theta_max 0.972
_diffrn_measurement_device       'four-circle diffractometer'
_diffrn_measurement_device_type  'XtaLAB Synergy, Dualflex, HyPix'
_diffrn_measurement_method       '\w scans'
_diffrn_orient_matrix_type
'CrysAlisPro convention (1999,Acta A55,543-557)'
_diffrn_orient_matrix_UB_11      -0.182013
_diffrn_orient_matrix_UB_12      -0.0495251
_diffrn_orient_matrix_UB_13      0.0354902
_diffrn_orient_matrix_UB_21      0.1272205
_diffrn_orient_matrix_UB_22      0.075972
_diffrn_orient_matrix_UB_23      0.1443638
_diffrn_orient_matrix_UB_31      -0.0070495
_diffrn_orient_matrix_UB_32      0.1507691
_diffrn_orient_matrix_UB_33      -0.0267924
_diffrn_radiation_monochromator  mirror
_diffrn_radiation_probe          x-ray
_diffrn_radiation_type           CuK\a
_diffrn_radiation_wavelength     1.54178
_diffrn_reflns_av_R_equivalents  0.0262
_diffrn_reflns_av_unetI/netI     0.038
_diffrn_reflns_Laue_measured_fraction_full 1
_diffrn_reflns_Laue_measured_fraction_max 0.972
_diffrn_reflns_limit_h_max       10
_diffrn_reflns_limit_h_min       -10
_diffrn_reflns_limit_k_max       12
_diffrn_reflns_limit_k_min       -9
_diffrn_reflns_limit_l_max       13
_diffrn_reflns_limit_l_min       -13
_diffrn_reflns_number            14719
_diffrn_reflns_point_group_measured_fraction_full 1
_diffrn_reflns_point_group_measured_fraction_max 0.972
_diffrn_reflns_theta_full        67.679
_diffrn_reflns_theta_max         77.387
_diffrn_reflns_theta_min         4.335
_diffrn_source                   'micro-focus sealed X-ray tube'
_diffrn_source_type              'PhotonJet (Cu) X-ray Source'
_exptl_absorpt_coefficient_mu    0.694
_exptl_absorpt_correction_T_max  1
_exptl_absorpt_correction_T_min  0.9176
_exptl_absorpt_correction_type   multi-scan
_exptl_absorpt_process_details
;
        CrysAlisPro 1.171.40.65a (Rigaku Oxford Diffraction, 2019)
        Empirical absorption correction using spherical harmonics,
 implemented in SCALE3 ABSPACK scaling algorithm.
;
_exptl_crystal_colour            'clear colourless'
_exptl_crystal_density_diffrn    1.298
_exptl_crystal_description       irregular
_exptl_crystal_F_000             305
_exptl_crystal_size_max          0.209
_exptl_crystal_size_mid          0.094
_exptl_crystal_size_min          0.082
_refine_diff_density_max         0.162
_refine_diff_density_min         -0.129
_refine_diff_density_rms         0.029
_refine_ls_extinction_coef       0.0035(7)
_refine_ls_extinction_expression Fc^*^=kFc[1+0.001xFc^2^\l^3^/sin(2\q)]^-1/4^
_refine_ls_extinction_method     'SHELXL-2018/3 (Sheldrick 2018)'
_refine_ls_goodness_of_fit_ref   1.109
_refine_ls_hydrogen_treatment    constr
_refine_ls_matrix_type           full
_refine_ls_number_parameters     265
_refine_ls_number_reflns         3080
_refine_ls_number_restraints     438
_refine_ls_restrained_S_all      1.043
_refine_ls_R_factor_all          0.0359
_refine_ls_R_factor_gt           0.0335
_refine_ls_shift/su_max          0
_refine_ls_shift/su_mean         0
_refine_ls_structure_factor_coef Fsqd
_refine_ls_weighting_details
'w=1/[\s^2^(Fo^2^)+(0.0466P)^2^+0.0735P] where P=(Fo^2^+2Fc^2^)/3'
_refine_ls_weighting_scheme      calc
_refine_ls_wR_factor_gt          0.0922
_refine_ls_wR_factor_ref         0.0941
_reflns_Friedel_coverage         0
_reflns_number_gt                2809
_reflns_number_total             3080
_reflns_threshold_expression     'I > 2\s(I)'
_cod_data_source_file            d0sc02795b3.cif
_cod_data_source_block           BE25_BA75_210
_cod_original_cell_volume        744.10(2)
_cod_database_code               1558203
_shelx_estimated_absorpt_t_min   0.869
_shelx_estimated_absorpt_t_max   0.945
_shelx_shelxl_version_number     2018/3
_shelx_res_file
;
TITL 210_a.res in P-1
    210_a.res
    created by SHELXL-2018/3 at 10:13:17 on 02-Apr-2020
REM Old TITL 210 in P-1

REM SHELXT solution in P-1
REM R1 0.137,  Rweak 0.005,  Alpha 0.033,  Orientation as input
REM Formula found by SHELXT:  C17 N3 O2

CELL  1.54178   8.173905   9.814196  10.942311  92.2144 108.1472 114.5712
ZERR    2.000   0.000168   0.000154   0.000166   0.0013   0.0016   0.0017
LATT  1
SFAC C H N O
UNIT 36 29.1776 4 4
TEMP -63.2
SIZE 0.209 0.094 0.082
L.S. 10
BOND $H
ACTA
LIST 4
FMAP 2
PLAN 20
CONF

EQIV $1 x, y, z+1
EQIV $2 -x+1, -y+1, -z+1

HTAB O1 N1_$1
HTAB O2 N2A_$2
HTAB O2 N2B_$2

RIGU
SIMU 0.02 C12 C13 C19 C20
SIMU 0.02 C14A C15A C16A C17A C18A N2A C14B C15B C16B C17B C18B N2B

DFIX 31 C12 C9 C13 C14A
DFIX 41 C19 C9 C20 C14B

DFIX 1.20 0.02 C19 C20
DFIX 1.32 0.02 C12 C13

WGHT    0.046600    0.073500
EXTI    0.003473
FVAR       0.87473   0.29439   1.54500   1.40395
O1    4    0.167157    0.147393    0.304436    11.00000    0.04195    0.05064 =
         0.03836    0.00626    0.01297    0.01897
AFIX 147
H1    2    0.200279    0.172954    0.384871    11.00000   -1.50000
AFIX   0
O2    4    0.818834    0.215663    0.433447    11.00000    0.04687    0.06706 =
         0.04207   -0.00073    0.01477    0.02864
AFIX 147
H2A   2    0.824479    0.252357    0.505132    11.00000   -1.50000
AFIX   0
N1    3    0.262772    0.242588   -0.432546    11.00000    0.04316    0.05953 =
         0.03822    0.00473    0.01455    0.02623
C1    1    0.317602    0.147151    0.276145    11.00000    0.04350    0.02946 =
         0.03677    0.00714    0.01506    0.01416
C2    1    0.492599    0.180401    0.373811    11.00000    0.04488    0.03415 =
         0.03156    0.00389    0.01430    0.01645
AFIX  43
H2    2    0.508822    0.203133    0.462298    11.00000   -1.20000
AFIX   0
C3    1    0.644386    0.180224    0.341227    11.00000    0.04581    0.03580 =
         0.03853    0.00412    0.01535    0.01842
C4    1    0.619209    0.143245    0.210276    11.00000    0.05654    0.04683 =
         0.04229    0.00379    0.02453    0.02271
AFIX  43
H4    2    0.719859    0.140810    0.187458    11.00000   -1.20000
AFIX   0
C5    1    0.444049    0.110246    0.114602    11.00000    0.06544    0.05157 =
         0.03302    0.00347    0.02010    0.02359
AFIX  43
H5    2    0.426949    0.085786    0.026161    11.00000   -1.20000
AFIX   0
C6    1    0.292630    0.112153    0.145239    11.00000    0.05170    0.04458 =
         0.03328    0.00501    0.00989    0.01849
AFIX  43
H6    2    0.174842    0.090116    0.078508    11.00000   -1.20000
AFIX   0
C7    1    0.197624    0.146918   -0.356388    11.00000    0.04621    0.04376 =
         0.04184    0.00083    0.01264    0.02106
AFIX  43
H7    2    0.154212    0.042053   -0.384517    11.00000   -1.20000
AFIX   0
C8    1    0.190756    0.194093   -0.238499    11.00000    0.04360    0.04239 =
         0.04057    0.00776    0.01519    0.01854
AFIX  43
H8    2    0.142243    0.122472   -0.188507    11.00000   -1.20000
AFIX   0
C9    1    0.256503    0.348938   -0.194552    11.00000    0.03517    0.04495 =
         0.03588    0.00245    0.00856    0.02104
C10   1    0.329779    0.449655   -0.271456    11.00000    0.04529    0.03927 =
         0.04814    0.00655    0.01406    0.01885
AFIX  43
H10   2    0.379378    0.555523   -0.244084    11.00000   -1.20000
AFIX   0
C11   1    0.328400    0.391543   -0.388461    11.00000    0.04625    0.05385 =
         0.04610    0.01532    0.01954    0.02195
AFIX  43
H11   2    0.376370    0.460538   -0.440438    11.00000   -1.20000
AFIX   0
PART  1
C12   1    0.219389    0.381139   -0.067201    21.00000    0.03424    0.03065 =
         0.03222    0.00382    0.01411    0.01298
AFIX  43
H12   2    0.161531    0.298085   -0.029622    21.00000   -1.20000
AFIX   0
C13   1    0.264796    0.517254   -0.011012    21.00000    0.03662    0.03609 =
         0.03009    0.00733    0.01399    0.01654
AFIX  43
H13   2    0.326732    0.597669   -0.049564    21.00000   -1.20000
AFIX  66
C14A  1    0.230014    0.562938    0.110066    21.00000    0.03292    0.03018 =
         0.03508    0.00566    0.00800    0.01637
C15A  1    0.149042    0.451227    0.176770    21.00000    0.04622    0.03812 =
         0.03449    0.00200    0.01475    0.02295
AFIX  43
H15A  2    0.116806    0.348882    0.147442    21.00000   -1.20000
AFIX  65
C16A  1    0.115738    0.490853    0.286841    21.00000    0.04332    0.02598 =
         0.03843    0.00261    0.01047    0.01565
AFIX  43
H16A  2    0.060980    0.415307    0.331949    21.00000   -1.20000
AFIX  65
N2A   3    0.163406    0.642191    0.330209    21.00000    0.03819    0.03835 =
         0.02307   -0.00282    0.01272    0.01340
C17A  1    0.244379    0.753904    0.263507    21.00000    0.04558    0.03660 =
         0.03656   -0.00066    0.01627    0.02315
AFIX  43
H17A  2    0.276614    0.856248    0.292836    21.00000   -1.20000
AFIX  65
C18A  1    0.277683    0.714280    0.153436    21.00000    0.04696    0.02548 =
         0.03936    0.00220    0.01255    0.01955
AFIX  43
H18A  2    0.332441    0.789827    0.108328    21.00000   -1.20000
AFIX   0
PART  2
C14B  1    0.214890    0.528230    0.122385   -21.00000    0.03637    0.03886 =
         0.03505    0.00383    0.00841    0.02080
C15B  1    0.126249    0.441809    0.201842   -21.00000    0.04350    0.03902 =
         0.04184    0.00794    0.01609    0.02038
AFIX  43
H15B  2    0.077775    0.335005    0.185756   -21.00000   -1.20000
AFIX   0
C16B  1    0.110655    0.515424    0.304629   -21.00000    0.04479    0.04512 =
         0.03624    0.00662    0.01377    0.02375
AFIX  43
H16B  2    0.049191    0.454868    0.356527   -21.00000   -1.20000
AFIX   0
N2B   3    0.175870    0.664935    0.335433   -21.00000    0.03915    0.04553 =
         0.03914    0.00104    0.00676    0.01936
C17B  1    0.260007    0.744561    0.258988   -21.00000    0.04400    0.03691 =
         0.04722    0.00050    0.01280    0.01656
AFIX  43
H17B  2    0.308835    0.851246    0.278815   -21.00000   -1.20000
AFIX   0
C18B  1    0.282298    0.685134    0.153260   -21.00000    0.04307    0.03789 =
         0.04164    0.01047    0.01815    0.01979
AFIX  43
H18B  2    0.342113    0.749431    0.102613   -21.00000   -1.20000
AFIX   0
C19   1    0.251593    0.411732   -0.079326   -21.00000    0.03746    0.05018 =
         0.04093    0.00678    0.01497    0.02023
C20   1    0.234713    0.462696    0.014563   -21.00000    0.04148    0.05110 =
         0.03887    0.00888    0.01453    0.02328
HKLF 4




REM  210_a.res in P-1
REM wR2 = 0.094068, GooF = S = 1.10945, Restrained GooF = 1.04309 for all data
REM R1 = 0.033474 for 2823 Fo > 4sig(Fo) and 0.035929 for all 3080 data
REM 265 parameters refined using 438 restraints

END

WGHT      0.0490      0.0767

REM Highest difference peak  0.162,  deepest hole -0.129,  1-sigma level  0.029
Q1    1   0.2615  0.3977 -0.2383  11.00000  0.05    0.16
Q2    1   0.2066  0.2811 -0.2203  11.00000  0.05    0.15
Q3    1   0.1954  0.4542 -0.0619  11.00000  0.05    0.14
Q4    1   0.2430  0.2203 -0.5131  11.00000  0.05    0.14
Q5    1   0.6225  0.1632  0.2663  11.00000  0.05    0.13
Q6    1   0.3125  0.1339  0.2058  11.00000  0.05    0.13
Q7    1   0.3377  0.4083 -0.3201  11.00000  0.05    0.13
Q8    1   0.2415  0.3653 -0.1476  11.00000  0.05    0.12
Q9    1   0.3791  0.1248  0.3208  11.00000  0.05    0.12
Q10   1   0.3531  0.0753  0.1410  11.00000  0.05    0.12
Q11   1   0.1913  0.6936  0.4241  11.00000  0.05    0.11
Q12   1   0.4256  0.1983  0.3189  11.00000  0.05    0.11
Q13   1   0.7904  0.1428  0.2229  11.00000  0.05    0.10
Q14   1   0.3283  0.4613  0.0022  11.00000  0.05    0.10
Q15   1   0.5750  0.1982  0.3494  11.00000  0.05    0.09
Q16   1   0.0738  0.6767  0.3620  11.00000  0.05    0.09
Q17   1   0.3156  0.3026 -0.4074  11.00000  0.05    0.09
Q18   1   0.2381  0.1841 -0.2773  11.00000  0.05    0.09
Q19   1   0.3878  0.0017  0.0227  11.00000  0.05    0.08
Q20   1   0.2706  0.5320  0.0741  11.00000  0.05    0.08
;
_shelx_res_checksum              16982
loop_
_symmetry_equiv_pos_as_xyz
'x, y, z'
'-x, -y, -z'
loop_
_atom_site_label
_atom_site_type_symbol
_atom_site_fract_x
_atom_site_fract_y
_atom_site_fract_z
_atom_site_U_iso_or_equiv
_atom_site_adp_type
_atom_site_occupancy
_atom_site_site_symmetry_order
_atom_site_calc_flag
_atom_site_refinement_flags_posn
_atom_site_refinement_flags_adp
_atom_site_refinement_flags_occupancy
_atom_site_disorder_assembly
_atom_site_disorder_group
O1 O 0.16716(10) 0.14739(8) 0.30444(7) 0.04481(19) Uani 1 1 d . . . . .
H1 H 0.200279 0.172954 0.384871 0.067 Uiso 1 1 calc R U . . .
O2 O 0.81883(11) 0.21566(10) 0.43345(7) 0.0516(2) Uani 1 1 d . . . . .
H2A H 0.824479 0.252357 0.505132 0.077 Uiso 1 1 calc R U . . .
N1 N 0.26277(12) 0.24259(11) -0.43255(8) 0.0460(2) Uani 1 1 d . . . . .
C1 C 0.31760(14) 0.14715(10) 0.27614(9) 0.0372(2) Uani 1 1 d . . . . .
C2 C 0.49260(14) 0.18040(10) 0.37381(9) 0.0373(2) Uani 1 1 d . . . . .
H2 H 0.508822 0.203133 0.462298 0.045 Uiso 1 1 calc R U . . .
C3 C 0.64439(15) 0.18022(11) 0.34123(9) 0.0401(2) Uani 1 1 d . . . . .
C4 C 0.61921(17) 0.14325(12) 0.21028(10) 0.0472(2) Uani 1 1 d . . . . .
H4 H 0.719859 0.14081 0.187458 0.057 Uiso 1 1 calc R U . . .
C5 C 0.44405(18) 0.11025(13) 0.11460(10) 0.0506(3) Uani 1 1 d . . . . .
H5 H 0.426949 0.085786 0.026161 0.061 Uiso 1 1 calc R U . . .
C6 C 0.29263(16) 0.11215(11) 0.14524(10) 0.0459(2) Uani 1 1 d . . . . .
H6 H 0.174842 0.090116 0.078508 0.055 Uiso 1 1 calc R U . . .
C7 C 0.19762(15) 0.14692(12) -0.35639(10) 0.0447(2) Uani 1 1 d . . . . .
H7 H 0.154212 0.042053 -0.384517 0.054 Uiso 1 1 calc R U . . .
C8 C 0.19076(15) 0.19409(11) -0.23850(10) 0.0425(2) Uani 1 1 d . . . . .
H8 H 0.142243 0.122472 -0.188507 0.051 Uiso 1 1 calc R U . . .
C9 C 0.25650(13) 0.34894(11) -0.19455(9) 0.0389(2) Uani 1 1 d D . . . .
C10 C 0.32978(15) 0.44966(12) -0.27146(10) 0.0451(2) Uani 1 1 d . . . . .
H10 H 0.379378 0.555523 -0.244084 0.054 Uiso 1 1 calc R U . . .
C11 C 0.32840(15) 0.39154(13) -0.38846(11) 0.0480(3) Uani 1 1 d . . . . .
H11 H 0.37637 0.460538 -0.440438 0.058 Uiso 1 1 calc R U . . .
C12 C 0.2194(19) 0.3811(11) -0.0672(12) 0.0325(14) Uani 0.294(10) 1 d D U P A 1
H12 H 0.161531 0.298085 -0.029622 0.039 Uiso 0.294(10) 1 calc R U P A 1
C13 C 0.2648(8) 0.5173(9) -0.0110(6) 0.0337(11) Uani 0.294(10) 1 d D U P A 1
H13 H 0.326732 0.597669 -0.049564 0.04 Uiso 0.294(10) 1 calc R U P A 1
C14A C 0.2300(19) 0.5629(12) 0.1101(10) 0.0331(17) Uani 0.294(10) 1 d DG U P A
1
C15A C 0.1490(19) 0.4512(10) 0.1768(11) 0.0383(18) Uani 0.294(10) 1 d G U P A 1
H15A H 0.116806 0.348882 0.147442 0.046 Uiso 0.294(10) 1 calc R U P A 1
C16A C 0.1157(18) 0.4909(12) 0.2868(10) 0.0371(19) Uani 0.294(10) 1 d G U P A 1
H16A H 0.06098 0.415307 0.331949 0.045 Uiso 0.294(10) 1 calc R U P A 1
N2A N 0.163(2) 0.6422(13) 0.3302(10) 0.0344(18) Uani 0.294(10) 1 d G U P A 1
C17A C 0.244(2) 0.7539(11) 0.2635(12) 0.0377(19) Uani 0.294(10) 1 d G U P A 1
H17A H 0.276614 0.856248 0.292836 0.045 Uiso 0.294(10) 1 calc R U P A 1
C18A C 0.278(2) 0.7143(11) 0.1534(11) 0.0370(18) Uani 0.294(10) 1 d G U P A 1
H18A H 0.332441 0.789827 0.108328 0.044 Uiso 0.294(10) 1 calc R U P A 1
C14B C 0.2149(8) 0.5282(6) 0.1224(4) 0.0366(8) Uani 0.706(10) 1 d D U P A 2
C15B C 0.1262(8) 0.4418(5) 0.2018(5) 0.0406(7) Uani 0.706(10) 1 d . U P A 2
H15B H 0.077775 0.335005 0.185756 0.049 Uiso 0.706(10) 1 calc R U P A 2
C16B C 0.1107(8) 0.5154(6) 0.3046(5) 0.0410(9) Uani 0.706(10) 1 d . U P A 2
H16B H 0.049191 0.454868 0.356527 0.049 Uiso 0.706(10) 1 calc R U P A 2
N2B N 0.1759(9) 0.6649(6) 0.3354(5) 0.0433(9) Uani 0.706(10) 1 d . U P A 2
C17B C 0.2600(9) 0.7446(5) 0.2590(6) 0.0445(9) Uani 0.706(10) 1 d . U P A 2
H17B H 0.308835 0.851246 0.278815 0.053 Uiso 0.706(10) 1 calc R U P A 2
C18B C 0.2823(8) 0.6851(6) 0.1533(5) 0.0395(8) Uani 0.706(10) 1 d . U P A 2
H18B H 0.342113 0.749431 0.102613 0.047 Uiso 0.706(10) 1 calc R U P A 2
C19 C 0.2516(9) 0.4117(6) -0.0793(6) 0.0425(9) Uani 0.706(10) 1 d D U P A 2
C20 C 0.2347(4) 0.4627(5) 0.0146(3) 0.0429(6) Uani 0.706(10) 1 d D U P A 2
loop_
_atom_site_aniso_label
_atom_site_aniso_U_11
_atom_site_aniso_U_22
_atom_site_aniso_U_33
_atom_site_aniso_U_23
_atom_site_aniso_U_13
_atom_site_aniso_U_12
O1 0.0419(4) 0.0506(4) 0.0384(4) 0.0063(3) 0.0130(3) 0.0190(3)
O2 0.0469(4) 0.0671(5) 0.0421(4) -0.0007(3) 0.0148(3) 0.0286(4)
N1 0.0432(5) 0.0595(5) 0.0382(4) 0.0047(4) 0.0145(4) 0.0262(4)
C1 0.0435(5) 0.0295(4) 0.0368(5) 0.0071(3) 0.0151(4) 0.0142(4)
C2 0.0449(5) 0.0342(4) 0.0316(4) 0.0039(3) 0.0143(4) 0.0165(4)
C3 0.0458(5) 0.0358(5) 0.0385(5) 0.0041(4) 0.0153(4) 0.0184(4)
C4 0.0565(6) 0.0468(5) 0.0423(5) 0.0038(4) 0.0245(5) 0.0227(5)
C5 0.0654(7) 0.0516(6) 0.0330(5) 0.0035(4) 0.0201(5) 0.0236(5)
C6 0.0517(6) 0.0446(5) 0.0333(5) 0.0050(4) 0.0099(4) 0.0185(4)
C7 0.0462(5) 0.0438(5) 0.0418(5) 0.0008(4) 0.0126(4) 0.0211(4)
C8 0.0436(5) 0.0424(5) 0.0406(5) 0.0078(4) 0.0152(4) 0.0185(4)
C9 0.0352(5) 0.0450(5) 0.0359(5) 0.0024(4) 0.0086(4) 0.0210(4)
C10 0.0453(5) 0.0393(5) 0.0481(6) 0.0065(4) 0.0141(4) 0.0188(4)
C11 0.0463(6) 0.0538(6) 0.0461(6) 0.0153(5) 0.0195(5) 0.0219(5)
C12 0.034(4) 0.031(3) 0.032(3) 0.004(2) 0.0141(19) 0.013(3)
C13 0.0366(19) 0.036(3) 0.030(2) 0.0073(17) 0.0140(14) 0.0165(18)
C14A 0.033(2) 0.030(4) 0.035(2) 0.006(2) 0.0080(17) 0.016(3)
C15A 0.046(4) 0.038(3) 0.034(4) 0.002(2) 0.015(2) 0.023(3)
C16A 0.043(3) 0.026(3) 0.038(4) 0.003(2) 0.010(2) 0.016(2)
N2A 0.038(3) 0.038(3) 0.023(2) -0.003(2) 0.013(2) 0.013(2)
C17A 0.046(3) 0.037(3) 0.037(3) -0.001(2) 0.016(3) 0.023(2)
C18A 0.047(3) 0.025(3) 0.039(3) 0.002(2) 0.0126(19) 0.020(2)
C14B 0.0364(13) 0.0389(19) 0.0351(12) 0.0038(11) 0.0084(8) 0.0208(15)
C15B 0.0435(12) 0.0390(10) 0.0418(18) 0.0079(10) 0.0161(11) 0.0204(8)
C16B 0.0448(11) 0.045(2) 0.0362(12) 0.0066(13) 0.0138(10) 0.0238(14)
N2B 0.0391(14) 0.0455(16) 0.0391(15) 0.0010(10) 0.0068(10) 0.0194(13)
C17B 0.0440(15) 0.0369(14) 0.0472(18) 0.0005(11) 0.0128(11) 0.0166(11)
C18B 0.0431(10) 0.0379(18) 0.0416(12) 0.0105(12) 0.0182(8) 0.0198(13)
C19 0.0375(19) 0.050(2) 0.0409(13) 0.0068(13) 0.0150(10) 0.0202(16)
C20 0.0415(9) 0.0511(15) 0.0389(10) 0.0089(10) 0.0145(7) 0.0233(10)
loop_
_atom_type_symbol
_atom_type_description
_atom_type_scat_dispersion_real
_atom_type_scat_dispersion_imag
_atom_type_scat_source
C C 0.0181 0.0091 'International Tables Vol C Tables 4.2.6.8 and 6.1.1.4'
H H 0 0 'International Tables Vol C Tables 4.2.6.8 and 6.1.1.4'
N N 0.0311 0.018 'International Tables Vol C Tables 4.2.6.8 and 6.1.1.4'
O O 0.0492 0.0322 'International Tables Vol C Tables 4.2.6.8 and 6.1.1.4'
loop_
_exptl_crystal_face_index_h
_exptl_crystal_face_index_k
_exptl_crystal_face_index_l
_exptl_crystal_face_perp_dist
-2 6 -1 0.0431
5 -4 -4 0.0754
5 0 0 0.0393
1 -5 5 0.0478
0 -3 -5 0.0753
0 3 -6 0.0824
-5 0 0 0.0431
2 -6 2 0.0449
2 4 -1 0.0344
-3 -3 5 0.0681
5 -4 1 0.0424
3 -4 4 0.0384
3 0 4 0.0674
-3 -1 -4 0.0729
-1 1 7 0.0918
-1 -2 7 0.0812
3 -4 -5 0.0856
0 5 -4 0.0552
loop_
_geom_angle_atom_site_label_1
_geom_angle_atom_site_label_2
_geom_angle_atom_site_label_3
_geom_angle
_geom_angle_site_symmetry_1
_geom_angle_site_symmetry_3
_geom_angle_publ_flag
C1 O1 H1 109.5 . . ?
C3 O2 H2A 109.5 . . ?
C7 N1 C11 117.05(9) . . ?
O1 C1 C2 121.81(8) . . ?
O1 C1 C6 118.21(9) . . ?
C2 C1 C6 119.98(9) . . ?
C1 C2 C3 120.29(9) . . ?
C1 C2 H2 119.9 . . ?
C3 C2 H2 119.9 . . ?
O2 C3 C4 117.99(9) . . ?
O2 C3 C2 122.08(9) . . ?
C4 C3 C2 119.92(9) . . ?
C5 C4 C3 118.91(10) . . ?
C5 C4 H4 120.5 . . ?
C3 C4 H4 120.5 . . ?
C4 C5 C6 121.87(9) . . ?
C4 C5 H5 119.1 . . ?
C6 C5 H5 119.1 . . ?
C5 C6 C1 119.00(10) . . ?
C5 C6 H6 120.5 . . ?
C1 C6 H6 120.5 . . ?
N1 C7 C8 123.33(9) . . ?
N1 C7 H7 118.3 . . ?
C8 C7 H7 118.3 . . ?
C7 C8 C9 119.15(9) . . ?
C7 C8 H8 120.4 . . ?
C9 C8 H8 120.4 . . ?
C10 C9 C8 117.85(9) . . ?
C10 C9 C19 117.1(2) . . ?
C8 C9 C19 125.0(2) . . ?
C10 C9 C12 129.4(4) . . ?
C8 C9 C12 112.5(4) . . ?
C11 C10 C9 118.76(9) . . ?
C11 C10 H10 120.6 . . ?
C9 C10 H10 120.6 . . ?
N1 C11 C10 123.82(10) . . ?
N1 C11 H11 118.1 . . ?
C10 C11 H11 118.1 . . ?
C13 C12 C9 123.0(9) . . ?
C13 C12 H12 118.5 . . ?
C9 C12 H12 118.5 . . ?
C12 C13 C14A 128.0(9) . . ?
C12 C13 H13 116 . . ?
C14A C13 H13 116 . . ?
C15A C14A C18A 120 . . ?
C15A C14A C13 119.3(5) . . ?
C18A C14A C13 120.7(5) . . ?
C14A C15A C16A 120 . . ?
C14A C15A H15A 120 . . ?
C16A C15A H15A 120 . . ?
N2A C16A C15A 120 . . ?
N2A C16A H16A 120 . . ?
C15A C16A H16A 120 . . ?
C16A N2A C17A 120 . . ?
C18A C17A N2A 120 . . ?
C18A C17A H17A 120 . . ?
N2A C17A H17A 120 . . ?
C17A C18A C14A 120 . . ?
C17A C18A H18A 120 . . ?
C14A C18A H18A 120 . . ?
C18B C14B C15B 116.65(19) . . ?
C18B C14B C20 120.5(3) . . ?
C15B C14B C20 122.8(3) . . ?
C16B C15B C14B 119.0(2) . . ?
C16B C15B H15B 120.5 . . ?
C14B C15B H15B 120.5 . . ?
N2B C16B C15B 124.8(2) . . ?
N2B C16B H16B 117.6 . . ?
C15B C16B H16B 117.6 . . ?
C17B N2B C16B 115.1(2) . . ?
N2B C17B C18B 125.7(2) . . ?
N2B C17B H17B 117.2 . . ?
C18B C17B H17B 117.2 . . ?
C17B C18B C14B 118.8(2) . . ?
C17B C18B H18B 120.6 . . ?
C14B C18B H18B 120.6 . . ?
C20 C19 C9 175.6(6) . . ?
C19 C20 C14B 177.4(6) . . ?
loop_
_geom_bond_atom_site_label_1
_geom_bond_atom_site_label_2
_geom_bond_distance
_geom_bond_site_symmetry_2
_geom_bond_publ_flag
O1 C1 1.3593(12) . ?
O1 H1 0.83 . ?
O2 C3 1.3552(12) . ?
O2 H2A 0.83 . ?
N1 C7 1.3344(14) . ?
N1 C11 1.3378(14) . ?
C1 C2 1.3883(14) . ?
C1 C6 1.3903(13) . ?
C2 C3 1.3942(14) . ?
C2 H2 0.94 . ?
C3 C4 1.3933(14) . ?
C4 C5 1.3803(16) . ?
C4 H4 0.94 . ?
C5 C6 1.3863(16) . ?
C5 H5 0.94 . ?
C6 H6 0.94 . ?
C7 C8 1.3792(14) . ?
C7 H7 0.94 . ?
C8 C9 1.3903(14) . ?
C8 H8 0.94 . ?
C9 C10 1.3892(15) . ?
C9 C19 1.401(5) . ?
C9 C12 1.563(11) . ?
C10 C11 1.3762(15) . ?
C10 H10 0.94 . ?
C11 H11 0.94 . ?
C12 C13 1.297(12) . ?
C12 H12 0.94 . ?
C13 C14A 1.527(9) . ?
C13 H13 0.94 . ?
C14A C15A 1.39 . ?
C14A C18A 1.39 . ?
C15A C16A 1.39 . ?
C15A H15A 0.94 . ?
C16A N2A 1.39 . ?
C16A H16A 0.94 . ?
N2A C17A 1.39 . ?
C17A C18A 1.39 . ?
C17A H17A 0.94 . ?
C18A H18A 0.94 . ?
C14B C18B 1.388(3) . ?
C14B C15B 1.392(3) . ?
C14B C20 1.407(4) . ?
C15B C16B 1.381(4) . ?
C15B H15B 0.94 . ?
C16B N2B 1.323(3) . ?
C16B H16B 0.94 . ?
N2B C17B 1.321(3) . ?
C17B C18B 1.371(3) . ?
C17B H17B 0.94 . ?
C18B H18B 0.94 . ?
C19 C20 1.196(6) . ?
loop_
_geom_hbond_atom_site_label_D
_geom_hbond_atom_site_label_H
_geom_hbond_atom_site_label_A
_geom_hbond_distance_DH
_geom_hbond_distance_HA
_geom_hbond_distance_DA
_geom_hbond_angle_DHA
_geom_hbond_site_symmetry_A
_geom_hbond_publ_flag
O1 H1 N1 0.83 1.92 2.7478(11) 174.6 1_556 yes
O2 H2A N2A^a 0.83 2 2.82(5) 174.4 2_666 yes
O2 H2A N2B^b 0.83 1.9 2.726(4) 177 2_666 yes
loop_
_geom_torsion_atom_site_label_1
_geom_torsion_atom_site_label_2
_geom_torsion_atom_site_label_3
_geom_torsion_atom_site_label_4
_geom_torsion
_geom_torsion_site_symmetry_1
_geom_torsion_site_symmetry_2
_geom_torsion_site_symmetry_3
_geom_torsion_site_symmetry_4
_geom_torsion_publ_flag
O1 C1 C2 C3 -179.52(8) . . . . ?
C6 C1 C2 C3 0.57(14) . . . . ?
C1 C2 C3 O2 178.37(8) . . . . ?
C1 C2 C3 C4 -1.42(14) . . . . ?
O2 C3 C4 C5 -178.52(9) . . . . ?
C2 C3 C4 C5 1.29(15) . . . . ?
C3 C4 C5 C6 -0.33(16) . . . . ?
C4 C5 C6 C1 -0.51(16) . . . . ?
O1 C1 C6 C5 -179.52(9) . . . . ?
C2 C1 C6 C5 0.39(14) . . . . ?
C11 N1 C7 C8 1.73(15) . . . . ?
N1 C7 C8 C9 -0.76(16) . . . . ?
C7 C8 C9 C10 -1.13(14) . . . . ?
C7 C8 C9 C19 177.7(3) . . . . ?
C7 C8 C9 C12 174.2(6) . . . . ?
C8 C9 C10 C11 1.95(14) . . . . ?
C19 C9 C10 C11 -176.9(3) . . . . ?
C12 C9 C10 C11 -172.4(7) . . . . ?
C7 N1 C11 C10 -0.82(16) . . . . ?
C9 C10 C11 N1 -1.02(16) . . . . ?
C10 C9 C12 C13 -3.6(16) . . . . ?
C8 C9 C12 C13 -178.3(9) . . . . ?
C9 C12 C13 C14A 177.7(9) . . . . ?
C12 C13 C14A C15A 3.6(14) . . . . ?
C12 C13 C14A C18A -176.1(10) . . . . ?
C18A C14A C15A C16A 0 . . . . ?
C13 C14A C15A C16A -179.7(10) . . . . ?
C14A C15A C16A N2A 0 . . . . ?
C15A C16A N2A C17A 0 . . . . ?
C16A N2A C17A C18A 0 . . . . ?
N2A C17A C18A C14A 0 . . . . ?
C15A C14A C18A C17A 0 . . . . ?
C13 C14A C18A C17A 179.7(10) . . . . ?
C18B C14B C15B C16B 0.0(3) . . . . ?
C20 C14B C15B C16B -179.1(5) . . . . ?
C14B C15B C16B N2B -0.6(3) . . . . ?
C15B C16B N2B C17B 0.4(3) . . . . ?
C16B N2B C17B C18B 0.5(3) . . . . ?
N2B C17B C18B C14B -1.1(3) . . . . ?
C15B C14B C18B C17B 0.7(3) . . . . ?
C20 C14B C18B C17B 179.9(5) . . . . ?
