#------------------------------------------------------------------------------
#$Date: 2020-06-06 04:11:42 +0300 (Sat, 06 Jun 2020) $
#$Revision: 252959 $
#$URL: file:///home/coder/svn-repositories/cod/cif/1/55/82/1558214.cif $
#------------------------------------------------------------------------------
#
# This file is available in the Crystallography Open Database (COD),
# http://www.crystallography.net/
#
# All data on this site have been placed in the public domain by the
# contributors.
#
data_1558214
loop_
_publ_author_name
'Ding, Xiaodan'
'Unruh, Daniel K.'
'Groeneman , Ryan'
'Hutchins, Kristin M.'
_publ_section_title
;
 Controlling thermal expansion within mixed cocrystals by tuning molecular
 motion capability
;
_journal_name_full               'Chemical Science'
_journal_paper_doi               10.1039/D0SC02795B
_journal_year                    2020
_chemical_formula_sum            'C18.01 H15.51 N2 O2'
_chemical_formula_weight         291.96
_space_group_IT_number           2
_space_group_name_Hall           '-P 1'
_space_group_name_H-M_alt        'P -1'
_symmetry_cell_setting           triclinic
_symmetry_Int_Tables_number      2
_symmetry_space_group_name_Hall  '-P 1'
_symmetry_space_group_name_H-M   'P -1'
_atom_sites_solution_hydrogens   geom
_atom_sites_solution_primary     dual
_atom_sites_solution_secondary   difmap
_audit_creation_date             2020-04-01T11:37:03-00:00
_audit_creation_method           'WinGX routine CIF_UPDATE'
_audit_update_record
;
2020-04-08 deposited with the CCDC.	2020-06-05 downloaded from the CCDC.
;
_cell_angle_alpha                92.7008(14)
_cell_angle_beta                 107.5192(10)
_cell_angle_gamma                114.4022(12)
_cell_formula_units_Z            2
_cell_length_a                   8.13025(10)
_cell_length_b                   9.88487(15)
_cell_length_c                   10.90533(11)
_cell_measurement_reflns_used    18371
_cell_measurement_temperature    230(2)
_cell_measurement_theta_max      77.138
_cell_measurement_theta_min      4.324
_cell_volume                     746.12(2)
_computing_cell_refinement       'CrysAlisPro 1.171.40.65a (Rigaku OD, 2019)'
_computing_data_collection       'CrysAlisPro 1.171.40.65a (Rigaku OD, 2019)'
_computing_data_reduction        'CrysAlisPro 1.171.40.65a (Rigaku OD, 2019)'
_computing_structure_refinement  'SHELXL-2018/3 (Sheldrick, 2018)'
_computing_structure_solution    'SHELXT 2014/5 (Sheldrick, 2014)'
_diffrn_ambient_environment      N~2~
_diffrn_ambient_temperature      230(2)
_diffrn_detector                 'Hybrid Pixel Array Detector'
_diffrn_detector_area_resol_mean 10
_diffrn_detector_type            HyPix
_diffrn_measured_fraction_theta_full 1
_diffrn_measured_fraction_theta_max 0.97
_diffrn_measurement_device       'four-circle diffractometer'
_diffrn_measurement_device_type  'XtaLAB Synergy, Dualflex, HyPix'
_diffrn_measurement_method       '\w scans'
_diffrn_orient_matrix_type
'CrysAlisPro convention (1999,Acta A55,543-557)'
_diffrn_orient_matrix_UB_11      -0.0955542
_diffrn_orient_matrix_UB_12      0.1048056
_diffrn_orient_matrix_UB_13      -0.1136552
_diffrn_orient_matrix_UB_21      0.1433627
_diffrn_orient_matrix_UB_22      0.0786195
_diffrn_orient_matrix_UB_23      -0.0451013
_diffrn_orient_matrix_UB_31      0.1241247
_diffrn_orient_matrix_UB_32      -0.1153859
_diffrn_orient_matrix_UB_33      -0.0887973
_diffrn_radiation_monochromator  mirror
_diffrn_radiation_probe          x-ray
_diffrn_radiation_type           CuK\a
_diffrn_radiation_wavelength     1.54178
_diffrn_reflns_av_R_equivalents  0.0284
_diffrn_reflns_av_unetI/netI     0.0391
_diffrn_reflns_Laue_measured_fraction_full 1
_diffrn_reflns_Laue_measured_fraction_max 0.97
_diffrn_reflns_limit_h_max       10
_diffrn_reflns_limit_h_min       -10
_diffrn_reflns_limit_k_max       12
_diffrn_reflns_limit_k_min       -11
_diffrn_reflns_limit_l_max       13
_diffrn_reflns_limit_l_min       -13
_diffrn_reflns_number            28182
_diffrn_reflns_point_group_measured_fraction_full 1
_diffrn_reflns_point_group_measured_fraction_max 0.97
_diffrn_reflns_theta_full        67.679
_diffrn_reflns_theta_max         77.318
_diffrn_reflns_theta_min         4.337
_diffrn_source                   'micro-focus sealed X-ray tube'
_diffrn_source_type              'PhotonJet (Cu) X-ray Source'
_exptl_absorpt_coefficient_mu    0.692
_exptl_absorpt_correction_T_max  1
_exptl_absorpt_correction_T_min  0.92044
_exptl_absorpt_correction_type   multi-scan
_exptl_absorpt_process_details
;
        CrysAlisPro 1.171.40.65a (Rigaku Oxford Diffraction, 2019)
        Empirical absorption correction using spherical harmonics,
 implemented in SCALE3 ABSPACK scaling algorithm.
;
_exptl_crystal_colour            'clear colourless'
_exptl_crystal_density_diffrn    1.3
_exptl_crystal_description       block
_exptl_crystal_F_000             307
_exptl_crystal_size_max          0.176
_exptl_crystal_size_mid          0.106
_exptl_crystal_size_min          0.066
_refine_diff_density_max         0.173
_refine_diff_density_min         -0.152
_refine_diff_density_rms         0.031
_refine_ls_extinction_coef       0.0048(8)
_refine_ls_extinction_expression Fc^*^=kFc[1+0.001xFc^2^\l^3^/sin(2\q)]^-1/4^
_refine_ls_extinction_method     'SHELXL-2018/3 (Sheldrick 2018)'
_refine_ls_goodness_of_fit_ref   1.057
_refine_ls_hydrogen_treatment    constr
_refine_ls_matrix_type           full
_refine_ls_number_parameters     284
_refine_ls_number_reflns         3084
_refine_ls_number_restraints     579
_refine_ls_restrained_S_all      0.991
_refine_ls_R_factor_all          0.0362
_refine_ls_R_factor_gt           0.0335
_refine_ls_shift/su_max          0
_refine_ls_shift/su_mean         0
_refine_ls_structure_factor_coef Fsqd
_refine_ls_weighting_details
'w=1/[\s^2^(Fo^2^)+(0.0527P)^2^+0.0785P] where P=(Fo^2^+2Fc^2^)/3'
_refine_ls_weighting_scheme      calc
_refine_ls_wR_factor_gt          0.0937
_refine_ls_wR_factor_ref         0.0961
_reflns_Friedel_coverage         0
_reflns_number_gt                2814
_reflns_number_total             3084
_reflns_threshold_expression     'I > 2\s(I)'
_cod_data_source_file            d0sc02795b3.cif
_cod_data_source_block           BE75_BA25_230
_cod_original_cell_volume        746.122(18)
_cod_database_code               1558214
_shelx_estimated_absorpt_t_min   0.888
_shelx_estimated_absorpt_t_max   0.956
_shelx_shelxl_version_number     2018/3
_shelx_res_file
;
TITL 230_2_a.res in P-1
    230_2_a.res
    created by SHELXL-2018/3 at 11:29:50 on 01-Apr-2020
REM Old TITL 230_2 in P-1

REM SHELXT solution in P-1
REM R1 0.128,  Rweak 0.004,  Alpha 0.032,  Orientation as input
REM Formula found by SHELXT:  C18 N2 O2

CELL  1.54178   8.13025   9.88487  10.90533  92.7008 107.5192 114.4022
ZERR    2.000   0.00010   0.00015   0.00011   0.0014   0.0010   0.0012
LATT  1
SFAC C H N O
UNIT 36.0208 31.0208 4 4
TEMP -43.2
SIZE 0.176 0.106 0.066
L.S. 10
BOND $H
ACTA
LIST 4
FMAP 2
PLAN 20

EQIV $1 x, y, z+1
EQIV $2 -x+1, -y+1, -z+1

HTAB O1 N1_$1
HTAB O2 N2A_$2
HTAB O2 N2B_$2

RIGU
SIMU 0.02 C9 C14A C12A C13A C19 C20 C12B C13B
SIMU 0.02 C14A C15A C16A C17A C18A N2A C14B C15B C16B C17B C18B N2B

DFIX 31 C12A C9 C13A C14A C12B C9 C13B C14B
DFIX 41 C19 C9 C20 C14B

DFIX 1.32 0.02 C12A C13A C12B C13B
DFIX 1.20 0.02 C19 C20
DFIX 0.4 0.01 C19 C12B
DFIX 0.4 0.01 C20 C13B

SUMP 0.75 0.01 1.0 2 1.0 5

FREE C12B C19
FREE C12B C20
FREE C13B C19
FREE C13B C20
FREE C19 H13B
FREE C20 H12B

WGHT    0.052700    0.078500
EXTI    0.004763
FVAR       0.88703   0.69482   1.46671   1.36483   0.06038
O1    4    0.167163    0.153169    0.304823    11.00000    0.04448    0.05421 =
         0.03864    0.00567    0.01286    0.01966
AFIX 147
H1    2    0.199514    0.178602    0.385340    11.00000   -1.50000
AFIX   0
O2    4    0.821618    0.225796    0.431682    11.00000    0.04957    0.07296 =
         0.04158   -0.00038    0.01563    0.02980
AFIX 147
H2A   2    0.826075    0.262101    0.503483    11.00000   -1.50000
AFIX   0
N1    3    0.261952    0.245166   -0.431438    11.00000    0.04649    0.06193 =
         0.03799    0.00347    0.01494    0.02680
C1    1    0.317538    0.151000    0.276310    11.00000    0.04671    0.03073 =
         0.03581    0.00711    0.01505    0.01478
C2    1    0.494018    0.188457    0.373012    11.00000    0.04773    0.03665 =
         0.03019    0.00351    0.01441    0.01662
AFIX  43
H2    2    0.511157    0.215155    0.461433    11.00000   -1.20000
AFIX   0
C3    1    0.646032    0.186864    0.340273    11.00000    0.04829    0.03806 =
         0.03715    0.00441    0.01571    0.01880
C4    1    0.619878    0.144843    0.209073    11.00000    0.06049    0.04587 =
         0.04108    0.00438    0.02509    0.02357
AFIX  43
H4    2    0.721083    0.142290    0.185871    11.00000   -1.20000
AFIX   0
C5    1    0.443156    0.107210    0.114281    11.00000    0.07072    0.04600 =
         0.03224    0.00377    0.02082    0.02366
AFIX  43
H5    2    0.425277    0.079146    0.025929    11.00000   -1.20000
AFIX   0
C6    1    0.291023    0.109525    0.145390    11.00000    0.05486    0.04149 =
         0.03200    0.00467    0.00905    0.01789
AFIX  43
H6    2    0.171722    0.083488    0.079110    11.00000   -1.20000
AFIX   0
C7    1    0.196673    0.147096   -0.357440    11.00000    0.05041    0.04633 =
         0.04343    0.00035    0.01332    0.02255
AFIX  43
H7    2    0.155697    0.043776   -0.387637    11.00000   -1.20000
AFIX   0
C8    1    0.186320    0.189785   -0.238806    11.00000    0.04746    0.04607 =
         0.04112    0.00818    0.01624    0.02030
AFIX  43
H8    2    0.138156    0.116278   -0.190525    11.00000   -1.20000
AFIX   0
C9    1    0.247185    0.341490   -0.190964    11.00000    0.03783    0.04818 =
         0.03582    0.00455    0.01005    0.02285
C10   1    0.320989    0.444670   -0.265744    11.00000    0.04954    0.04325 =
         0.04601    0.00537    0.01507    0.02145
AFIX  43
H10   2    0.368222    0.549089   -0.236117    11.00000   -1.20000
AFIX   0
C11   1    0.323989    0.391836   -0.383892    11.00000    0.04956    0.05574 =
         0.04446    0.01410    0.02026    0.02312
AFIX  43
H11   2    0.372383    0.462874   -0.433986    11.00000   -1.20000
AFIX   0
PART  1
C12A  1    0.217280    0.377416   -0.066349    21.00000    0.04045    0.03730 =
         0.03341    0.00956    0.01657    0.01811
AFIX  43
H12A  2    0.161871    0.297574   -0.025563    21.00000   -1.20000
AFIX   0
C13A  1    0.266782    0.519304   -0.011168    21.00000    0.03794    0.03415 =
         0.03203    0.01073    0.01662    0.01535
AFIX  43
H13A  2    0.326277    0.598002   -0.051617    21.00000   -1.20000
AFIX   0
PART  2
C12B  1    0.267945    0.445447   -0.084466    51.00000    0.03254    0.04950 =
         0.03912    0.00913    0.01524    0.01828
AFIX  43
H12B  2    0.343501    0.547130   -0.085648    51.00000   -1.20000
AFIX   0

C13B  1    0.207527    0.431140    0.010636    51.00000    0.03083    0.05544 =
         0.04458    0.00449    0.01561    0.02884
AFIX  43
H13B  2    0.137440    0.328371    0.011701    51.00000   -1.20000
AFIX  66
PART  1
C14A  1    0.234275    0.561700    0.110217    21.00000    0.03162    0.03084 =
         0.03365    0.00508    0.00911    0.01344
C15A  1    0.149228    0.453831    0.177901    21.00000    0.04635    0.04061 =
         0.03220    0.00662    0.01565    0.02180
AFIX  43
H15A  2    0.112322    0.351053    0.148725    21.00000   -1.20000
AFIX  65
C16A  1    0.118754    0.497942    0.288726    21.00000    0.04385    0.03573 =
         0.03439    0.00470    0.01188    0.01708
AFIX  43
H16A  2    0.061240    0.424994    0.334498    21.00000   -1.20000
AFIX  65
N2A   3    0.173326    0.649922    0.331869    21.00000    0.04054    0.05225 =
         0.02714   -0.00141    0.01181    0.01954
C17A  1    0.258373    0.757793    0.264187    21.00000    0.04916    0.02494 =
         0.04171    0.00113    0.01547    0.01325
AFIX  43
H17A  2    0.295278    0.860571    0.293363    21.00000   -1.20000
AFIX  65
C18A  1    0.288848    0.713683    0.153361    21.00000    0.04627    0.02637 =
         0.03813    0.00648    0.01694    0.01182
AFIX  43
H18A  2    0.346362    0.786632    0.107590    21.00000   -1.20000
AFIX   0
PART 2
C14B  1    0.215536    0.526878    0.117007   -21.00000    0.04225    0.04396 =
         0.04398   -0.00457    0.00483    0.02446
C15B  1    0.133245    0.448302    0.202690   -21.00000    0.05032    0.04375 =
         0.04311    0.00801    0.01137    0.02292
AFIX  43
H15B  2    0.084985    0.342424    0.191054   -21.00000   -1.20000
AFIX   0
C16B  1    0.124127    0.527894    0.303565   -21.00000    0.04699    0.03932 =
         0.03347    0.00144    0.00805    0.02143
AFIX  43
H16B  2    0.063991    0.466319    0.355500   -21.00000   -1.20000
AFIX   0
N2B   3    0.176964    0.660660    0.340202   -21.00000    0.04545    0.04949 =
         0.04515    0.00627    0.00379    0.02152
C17B  1    0.249119    0.725952    0.263717   -21.00000    0.05065    0.01926 =
         0.05151   -0.00268    0.00667    0.01405
AFIX  43
H17B  2    0.296197    0.831646    0.283834   -21.00000   -1.20000
AFIX   0
C18B  1    0.276046    0.677705    0.154591   -21.00000    0.04173    0.03586 =
         0.04896    0.02263    0.01936    0.01077
AFIX  43
H18B  2    0.334932    0.747270    0.106936   -21.00000   -1.20000
AFIX   0
C19   1    0.244979    0.402671   -0.076667    10.25000    0.04397    0.05068 =
         0.04755    0.01287    0.01911    0.01832
C20   1    0.246333    0.476017    0.011798    10.25000    0.04971    0.06107 =
         0.04845    0.00707    0.01239    0.02049
HKLF  4




REM  230_2_a.res in P-1
REM wR2 = 0.096125, GooF = S = 1.05727, Restrained GooF = 0.99072 for all data
REM R1 = 0.033525 for 2814 Fo > 4sig(Fo) and 0.036154 for all 3084 data
REM 284 parameters refined using 579 restraints

END

WGHT      0.0527      0.0785

REM Highest difference peak  0.173,  deepest hole -0.152,  1-sigma level  0.031
Q1    1   0.2407  0.2253 -0.5029  11.00000  0.05    0.17
Q2    1   0.3068  0.1141  0.2113  11.00000  0.05    0.15
Q3    1   0.3643  0.4168 -0.2980  11.00000  0.05    0.15
Q4    1   0.6286  0.1404  0.2744  11.00000  0.05    0.14
Q5    1   0.3303  0.3946 -0.2069  11.00000  0.05    0.14
Q6    1   0.2365  0.3800 -0.2437  11.00000  0.05    0.14
Q7    1   0.7757  0.1222  0.2242  11.00000  0.05    0.14
Q8    1   0.3760  0.1176  0.3233  11.00000  0.05    0.13
Q9    1   0.2235  0.3581 -0.1452  11.00000  0.05    0.13
Q10   1   0.3494  0.0705  0.1422  11.00000  0.05    0.12
Q11   1   0.1935  0.2765 -0.2214  11.00000  0.05    0.12
Q12   1   0.1991  0.6824  0.4215  11.00000  0.05    0.12
Q13   1   0.4256  0.2129  0.3181  11.00000  0.05    0.11
Q14   1   0.1764  0.4490 -0.0681  11.00000  0.05    0.11
Q15   1   0.0972  0.0646  0.0971  11.00000  0.05    0.11
Q16   1   0.2272  0.1815 -0.2830  11.00000  0.05    0.10
Q17   1   0.3734  0.0008  0.0207  11.00000  0.05    0.09
Q18   1   0.7568  0.0581  0.1658  11.00000  0.05    0.09
Q19   1   0.7868  0.1541  0.4770  11.00000  0.05    0.09
Q20   1   0.5737  0.2174  0.3462  11.00000  0.05    0.09
;
_shelx_res_checksum              95259
loop_
_symmetry_equiv_pos_as_xyz
'x, y, z'
'-x, -y, -z'
loop_
_atom_site_label
_atom_site_type_symbol
_atom_site_fract_x
_atom_site_fract_y
_atom_site_fract_z
_atom_site_U_iso_or_equiv
_atom_site_adp_type
_atom_site_occupancy
_atom_site_site_symmetry_order
_atom_site_calc_flag
_atom_site_refinement_flags_posn
_atom_site_refinement_flags_adp
_atom_site_refinement_flags_occupancy
_atom_site_disorder_assembly
_atom_site_disorder_group
O1 O 0.16716(10) 0.15317(8) 0.30482(7) 0.0473(2) Uani 1 1 d . . . . .
H1 H 0.199514 0.178602 0.38534 0.071 Uiso 1 1 calc R U . . .
O2 O 0.82162(11) 0.22580(10) 0.43168(7) 0.0544(2) Uani 1 1 d . . . . .
H2A H 0.826075 0.262101 0.503483 0.082 Uiso 1 1 calc R U . . .
N1 N 0.26195(13) 0.24517(11) -0.43144(8) 0.0481(2) Uani 1 1 d . . . . .
C1 C 0.31754(14) 0.15100(10) 0.27631(9) 0.0385(2) Uani 1 1 d . . . . .
C2 C 0.49402(14) 0.18846(10) 0.37301(9) 0.0390(2) Uani 1 1 d . . . . .
H2 H 0.511157 0.215155 0.461433 0.047 Uiso 1 1 calc R U . . .
C3 C 0.64603(14) 0.18686(11) 0.34027(9) 0.0413(2) Uani 1 1 d . . . . .
C4 C 0.61988(16) 0.14484(12) 0.20907(10) 0.0476(3) Uani 1 1 d . . . . .
H4 H 0.721083 0.14229 0.185871 0.057 Uiso 1 1 calc R U . . .
C5 C 0.44316(17) 0.10721(12) 0.11428(10) 0.0500(3) Uani 1 1 d . . . . .
H5 H 0.425277 0.079146 0.025929 0.06 Uiso 1 1 calc R U . . .
C6 C 0.29102(16) 0.10952(11) 0.14539(9) 0.0458(2) Uani 1 1 d . . . . .
H6 H 0.171722 0.083488 0.07911 0.055 Uiso 1 1 calc R U . . .
C7 C 0.19667(15) 0.14710(12) -0.35744(10) 0.0475(2) Uani 1 1 d . . . . .
H7 H 0.155697 0.043776 -0.387637 0.057 Uiso 1 1 calc R U . . .
C8 C 0.18632(15) 0.18979(12) -0.23881(10) 0.0450(2) Uani 1 1 d . . . . .
H8 H 0.138156 0.116278 -0.190525 0.054 Uiso 1 1 calc R U . . .
C9 C 0.24718(13) 0.34149(11) -0.19096(9) 0.0402(2) Uani 1 1 d D U . . .
C10 C 0.32099(15) 0.44467(12) -0.26574(10) 0.0466(2) Uani 1 1 d . . . . .
H10 H 0.368222 0.549089 -0.236117 0.056 Uiso 1 1 calc R U . . .
C11 C 0.32399(15) 0.39184(13) -0.38389(10) 0.0490(3) Uani 1 1 d . . . . .
H11 H 0.372383 0.462874 -0.433986 0.059 Uiso 1 1 calc R U . . .
C12A C 0.2173(8) 0.3774(4) -0.0663(4) 0.0358(6) Uani 0.695(7) 1 d D U P A 1
H12A H 0.161871 0.297574 -0.025563 0.043 Uiso 0.695(7) 1 calc R U P A 1
C13A C 0.2668(4) 0.5193(3) -0.0112(2) 0.0338(5) Uani 0.695(7) 1 d D U P A 1
H13A H 0.326277 0.598002 -0.051617 0.041 Uiso 0.695(7) 1 calc R U P A 1
C12B C 0.268(5) 0.445(2) -0.084(2) 0.040(3) Uani 0.060(7) 1 d D U P A 2
H12B H 0.343501 0.54713 -0.085648 0.048 Uiso 0.060(7) 1 calc R U P A 2
C13B C 0.208(4) 0.431(2) 0.011(2) 0.040(3) Uani 0.060(7) 1 d D U P A 2
H13B H 0.13744 0.328371 0.011701 0.048 Uiso 0.060(7) 1 calc R U P A 2
C14A C 0.2343(8) 0.5617(4) 0.1102(4) 0.0329(7) Uani 0.695(7) 1 d DG U P A 1
C15A C 0.1492(8) 0.4538(3) 0.1779(4) 0.0384(8) Uani 0.695(7) 1 d G U P A 1
H15A H 0.112322 0.351053 0.148725 0.046 Uiso 0.695(7) 1 calc R U P A 1
C16A C 0.1188(8) 0.4979(4) 0.2887(4) 0.0388(8) Uani 0.695(7) 1 d G U P A 1
H16A H 0.06124 0.424994 0.334498 0.047 Uiso 0.695(7) 1 calc R U P A 1
N2A N 0.1733(8) 0.6499(4) 0.3319(4) 0.0408(10) Uani 0.695(7) 1 d G U P A 1
C17A C 0.2584(8) 0.7578(3) 0.2642(4) 0.0402(7) Uani 0.695(7) 1 d G U P A 1
H17A H 0.295278 0.860571 0.293363 0.048 Uiso 0.695(7) 1 calc R U P A 1
C18A C 0.2888(7) 0.7137(4) 0.1534(4) 0.0380(7) Uani 0.695(7) 1 d G U P A 1
H18A H 0.346362 0.786632 0.10759 0.046 Uiso 0.695(7) 1 calc R U P A 1
C14B C 0.216(2) 0.5269(13) 0.1170(10) 0.0447(19) Uani 0.305(7) 1 d D U P A 2
C15B C 0.133(2) 0.4483(9) 0.2027(11) 0.0464(17) Uani 0.305(7) 1 d . U P A 2
H15B H 0.084985 0.342424 0.191054 0.056 Uiso 0.305(7) 1 calc R U P A 2
C16B C 0.124(2) 0.5279(12) 0.3036(10) 0.0409(16) Uani 0.305(7) 1 d . U P A 2
H16B H 0.063991 0.466319 0.3555 0.049 Uiso 0.305(7) 1 calc R U P A 2
N2B N 0.177(2) 0.6607(11) 0.3402(10) 0.050(2) Uani 0.305(7) 1 d . U P A 2
C17B C 0.2491(19) 0.7260(12) 0.2637(12) 0.0443(16) Uani 0.305(7) 1 d . U P A 2
H17B H 0.296197 0.831646 0.283834 0.053 Uiso 0.305(7) 1 calc R U P A 2
C18B C 0.2760(18) 0.6777(12) 0.1546(11) 0.0432(17) Uani 0.305(7) 1 d . U P A 2
H18B H 0.334932 0.74727 0.106936 0.052 Uiso 0.305(7) 1 calc R U P A 2
C19 C 0.245(3) 0.4027(18) -0.0767(15) 0.048(3) Uani 0.25 1 d D U P A 2
C20 C 0.2463(17) 0.4760(19) 0.0118(10) 0.0560(19) Uani 0.25 1 d D U P A 2
loop_
_atom_site_aniso_label
_atom_site_aniso_U_11
_atom_site_aniso_U_22
_atom_site_aniso_U_33
_atom_site_aniso_U_23
_atom_site_aniso_U_13
_atom_site_aniso_U_12
O1 0.0445(4) 0.0542(4) 0.0386(4) 0.0057(3) 0.0129(3) 0.0197(3)
O2 0.0496(4) 0.0730(5) 0.0416(4) -0.0004(4) 0.0156(3) 0.0298(4)
N1 0.0465(5) 0.0619(5) 0.0380(4) 0.0035(4) 0.0149(4) 0.0268(4)
C1 0.0467(5) 0.0307(4) 0.0358(5) 0.0071(3) 0.0151(4) 0.0148(4)
C2 0.0477(5) 0.0366(5) 0.0302(4) 0.0035(3) 0.0144(4) 0.0166(4)
C3 0.0483(5) 0.0381(5) 0.0372(5) 0.0044(4) 0.0157(4) 0.0188(4)
C4 0.0605(6) 0.0459(5) 0.0411(5) 0.0044(4) 0.0251(5) 0.0236(5)
C5 0.0707(7) 0.0460(5) 0.0322(5) 0.0038(4) 0.0208(5) 0.0237(5)
C6 0.0549(6) 0.0415(5) 0.0320(5) 0.0047(4) 0.0090(4) 0.0179(4)
C7 0.0504(5) 0.0463(5) 0.0434(5) 0.0004(4) 0.0133(4) 0.0226(5)
C8 0.0475(5) 0.0461(5) 0.0411(5) 0.0082(4) 0.0162(4) 0.0203(4)
C9 0.0378(5) 0.0482(5) 0.0358(5) 0.0046(4) 0.0101(4) 0.0229(4)
C10 0.0495(5) 0.0433(5) 0.0460(5) 0.0054(4) 0.0151(4) 0.0215(4)
C11 0.0496(6) 0.0557(6) 0.0445(5) 0.0141(5) 0.0203(4) 0.0231(5)
C12A 0.0404(17) 0.0373(12) 0.0334(10) 0.0096(9) 0.0166(8) 0.0181(12)
C13A 0.0379(9) 0.0342(10) 0.0320(9) 0.0107(7) 0.0166(6) 0.0153(8)
C12B 0.033(6) 0.049(5) 0.039(5) 0.009(4) 0.015(4) 0.018(5)
C13B 0.031(6) 0.055(5) 0.045(5) 0.004(3) 0.016(4) 0.029(4)
C14A 0.0316(10) 0.0308(16) 0.0336(10) 0.0051(9) 0.0091(7) 0.0134(12)
C15A 0.0463(12) 0.0406(12) 0.0322(15) 0.0066(9) 0.0157(10) 0.0218(9)
C16A 0.0439(11) 0.0357(15) 0.0344(15) 0.0047(11) 0.0119(10) 0.0171(12)
N2A 0.0405(17) 0.0522(19) 0.0271(12) -0.0014(11) 0.0118(11) 0.0195(14)
C17A 0.0492(12) 0.0249(15) 0.0417(11) 0.0011(10) 0.0155(9) 0.0132(12)
C18A 0.0463(12) 0.0264(14) 0.0381(10) 0.0065(10) 0.0169(8) 0.0118(11)
C14B 0.042(4) 0.044(4) 0.044(3) -0.005(3) 0.005(2) 0.024(3)
C15B 0.050(3) 0.044(3) 0.043(4) 0.008(2) 0.011(3) 0.023(2)
C16B 0.047(3) 0.039(3) 0.033(3) 0.001(2) 0.008(2) 0.021(3)
N2B 0.045(4) 0.049(4) 0.045(4) 0.006(3) 0.004(3) 0.022(3)
C17B 0.051(3) 0.019(3) 0.052(3) -0.003(2) 0.007(2) 0.014(2)
C18B 0.042(2) 0.036(4) 0.049(3) 0.023(3) 0.019(2) 0.011(3)
C19 0.044(5) 0.051(5) 0.048(4) 0.013(3) 0.019(3) 0.018(4)
C20 0.050(4) 0.061(5) 0.048(3) 0.007(3) 0.012(3) 0.020(4)
loop_
_atom_type_symbol
_atom_type_description
_atom_type_scat_dispersion_real
_atom_type_scat_dispersion_imag
_atom_type_scat_source
C C 0.0181 0.0091 'International Tables Vol C Tables 4.2.6.8 and 6.1.1.4'
H H 0 0 'International Tables Vol C Tables 4.2.6.8 and 6.1.1.4'
N N 0.0311 0.018 'International Tables Vol C Tables 4.2.6.8 and 6.1.1.4'
O O 0.0492 0.0322 'International Tables Vol C Tables 4.2.6.8 and 6.1.1.4'
loop_
_exptl_crystal_face_index_h
_exptl_crystal_face_index_k
_exptl_crystal_face_index_l
_exptl_crystal_face_perp_dist
-2 4 0 0.0556
-2 -6 -1 0.0374
0 3 6 0.0788
2 -4 0 0.0503
-5 0 0 0.0498
-1 -2 -7 0.0688
-5 -4 -1 0.0318
3 3 -4 0.0609
-2 -5 2 0.0477
1 -4 3 0.0598
2 5 -2 0.0622
-2 -4 3 0.0581
4 0 -2 0.0542
-2 0 5 0.0662
-1 4 4 0.0717
5 4 1 0.0337
-5 -3 -4 0.0659
1 -4 -5 0.0636
loop_
_geom_angle_atom_site_label_1
_geom_angle_atom_site_label_2
_geom_angle_atom_site_label_3
_geom_angle
_geom_angle_site_symmetry_1
_geom_angle_site_symmetry_3
_geom_angle_publ_flag
C1 O1 H1 109.5 . . ?
C3 O2 H2A 109.5 . . ?
C7 N1 C11 116.83(9) . . ?
O1 C1 C2 122.00(8) . . ?
O1 C1 C6 118.17(9) . . ?
C2 C1 C6 119.84(9) . . ?
C1 C2 C3 120.54(8) . . ?
C1 C2 H2 119.7 . . ?
C3 C2 H2 119.7 . . ?
O2 C3 C2 122.24(8) . . ?
O2 C3 C4 117.95(9) . . ?
C2 C3 C4 119.81(9) . . ?
C5 C4 C3 118.86(10) . . ?
C5 C4 H4 120.6 . . ?
C3 C4 H4 120.6 . . ?
C4 C5 C6 121.94(9) . . ?
C4 C5 H5 119 . . ?
C6 C5 H5 119 . . ?
C5 C6 C1 119.01(9) . . ?
C5 C6 H6 120.5 . . ?
C1 C6 H6 120.5 . . ?
N1 C7 C8 123.25(10) . . ?
N1 C7 H7 118.4 . . ?
C8 C7 H7 118.4 . . ?
C7 C8 C9 119.80(10) . . ?
C7 C8 H8 120.1 . . ?
C9 C8 H8 120.1 . . ?
C19 C9 C8 127.3(7) . . ?
C19 C9 C10 115.5(7) . . ?
C8 C9 C10 117.17(9) . . ?
C19 C9 C12B 16.6(4) . . ?
C8 C9 C12B 143.9(7) . . ?
C10 C9 C12B 98.9(7) . . ?
C8 C9 C12A 116.52(17) . . ?
C10 C9 C12A 126.23(18) . . ?
C11 C10 C9 119.12(10) . . ?
C11 C10 H10 120.4 . . ?
C9 C10 H10 120.4 . . ?
N1 C11 C10 123.78(10) . . ?
N1 C11 H11 118.1 . . ?
C10 C11 H11 118.1 . . ?
C13A C12A C9 122.4(3) . . ?
C13A C12A H12A 118.8 . . ?
C9 C12A H12A 118.8 . . ?
C12A C13A C14A 124.9(3) . . ?
C12A C13A H13A 117.6 . . ?
C14A C13A H13A 117.6 . . ?
C13B C12B C9 134(2) . . ?
C13B C12B H12B 112.8 . . ?
C9 C12B H12B 112.8 . . ?
C12B C13B C14B 138(2) . . ?
C12B C13B H13B 111 . . ?
C14B C13B H13B 111 . . ?
C15A C14A C18A 120 . . ?
C15A C14A C13A 121.9(2) . . ?
C18A C14A C13A 118.1(2) . . ?
C14A C15A C16A 120 . . ?
C14A C15A H15A 120 . . ?
C16A C15A H15A 120 . . ?
N2A C16A C15A 120 . . ?
N2A C16A H16A 120 . . ?
C15A C16A H16A 120 . . ?
C17A N2A C16A 120 . . ?
N2A C17A C18A 120 . . ?
N2A C17A H17A 120 . . ?
C18A C17A H17A 120 . . ?
C17A C18A C14A 120 . . ?
C17A C18A H18A 120 . . ?
C14A C18A H18A 120 . . ?
C18B C14B C20 119.8(10) . . ?
C18B C14B C15B 109.8(5) . . ?
C20 C14B C15B 130.4(9) . . ?
C18B C14B C13B 136.3(10) . . ?
C20 C14B C13B 17.2(4) . . ?
C15B C14B C13B 113.8(9) . . ?
C16B C15B C14B 118.6(5) . . ?
C16B C15B H15B 120.7 . . ?
C14B C15B H15B 120.7 . . ?
N2B C16B C15B 133.4(6) . . ?
N2B C16B C17B 37.2(4) . . ?
C15B C16B C17B 96.2(4) . . ?
N2B C16B H16B 113.3 . . ?
C15B C16B H16B 113.3 . . ?
C17B C16B H16B 150.5 . . ?
C16B N2B C17B 106.2(7) . . ?
N2B C17B C18B 133.5(7) . . ?
N2B C17B C16B 36.6(4) . . ?
C18B C17B C16B 97.0(5) . . ?
N2B C17B H17B 113.2 . . ?
C18B C17B H17B 113.2 . . ?
C16B C17B H17B 149.8 . . ?
C14B C18B C17B 118.4(6) . . ?
C14B C18B H18B 120.8 . . ?
C17B C18B H18B 120.8 . . ?
C20 C19 C9 169(2) . . ?
C19 C20 C14B 166(2) . . ?
loop_
_geom_bond_atom_site_label_1
_geom_bond_atom_site_label_2
_geom_bond_distance
_geom_bond_site_symmetry_2
_geom_bond_publ_flag
O1 C1 1.3571(12) . ?
O1 H1 0.83 . ?
O2 C3 1.3538(12) . ?
O2 H2A 0.83 . ?
N1 C7 1.3338(14) . ?
N1 C11 1.3389(14) . ?
C1 C2 1.3861(13) . ?
C1 C6 1.3927(13) . ?
C2 C3 1.3915(13) . ?
C2 H2 0.94 . ?
C3 C4 1.3974(13) . ?
C4 C5 1.3781(16) . ?
C4 H4 0.94 . ?
C5 C6 1.3859(16) . ?
C5 H5 0.94 . ?
C6 H6 0.94 . ?
C7 C8 1.3793(14) . ?
C7 H7 0.94 . ?
C8 C9 1.3869(14) . ?
C8 H8 0.94 . ?
C9 C19 1.368(13) . ?
C9 C10 1.3902(15) . ?
C9 C12B 1.435(18) . ?
C9 C12A 1.502(4) . ?
C10 C11 1.3782(15) . ?
C10 H10 0.94 . ?
C11 H11 0.94 . ?
C12A C13A 1.341(5) . ?
C12A H12A 0.94 . ?
C13A C14A 1.499(3) . ?
C13A H13A 0.94 . ?
C12B C13B 1.265(18) . ?
C12B H12B 0.94 . ?
C13B C14B 1.430(17) . ?
C13B H13B 0.94 . ?
C14A C15A 1.39 . ?
C14A C18A 1.39 . ?
C15A C16A 1.39 . ?
C15A H15A 0.94 . ?
C16A N2A 1.39 . ?
C16A H16A 0.94 . ?
N2A C17A 1.39 . ?
C17A C18A 1.39 . ?
C17A H17A 0.94 . ?
C18A H18A 0.94 . ?
C14B C18B 1.359(8) . ?
C14B C20 1.362(12) . ?
C14B C15B 1.393(9) . ?
C15B C16B 1.360(8) . ?
C15B H15B 0.94 . ?
C16B N2B 1.203(9) . ?
C16B C17B 1.938(14) . ?
C16B H16B 0.94 . ?
N2B C17B 1.220(8) . ?
C17B C18B 1.372(7) . ?
C17B H17B 0.94 . ?
C18B H18B 0.94 . ?
C19 C20 1.174(14) . ?
loop_
_geom_hbond_atom_site_label_D
_geom_hbond_atom_site_label_H
_geom_hbond_atom_site_label_A
_geom_hbond_distance_DH
_geom_hbond_distance_HA
_geom_hbond_distance_DA
_geom_hbond_angle_DHA
_geom_hbond_site_symmetry_A
_geom_hbond_publ_flag
O1 H1 N1 0.83 1.92 2.7447(11) 175.6 1_556 yes
O2 H2A N2A^a 0.83 1.96 2.78(2) 177.2 2_666 yes
O2 H2A N2B^b 0.83 1.85 2.675(8) 177.2 2_666 yes
