#------------------------------------------------------------------------------
#$Date: 2020-06-06 04:11:42 +0300 (Sat, 06 Jun 2020) $
#$Revision: 252959 $
#$URL: file:///home/coder/svn-repositories/cod/cif/1/55/82/1558217.cif $
#------------------------------------------------------------------------------
#
# This file is available in the Crystallography Open Database (COD),
# http://www.crystallography.net/
#
# All data on this site have been placed in the public domain by the
# contributors.
#
data_1558217
loop_
_publ_author_name
'Ding, Xiaodan'
'Unruh, Daniel K.'
'Groeneman , Ryan'
'Hutchins, Kristin M.'
_publ_section_title
;
 Controlling thermal expansion within mixed cocrystals by tuning molecular
 motion capability
;
_journal_name_full               'Chemical Science'
_journal_paper_doi               10.1039/D0SC02795B
_journal_year                    2020
_chemical_formula_sum            'C16.92 H14 N3.07 O2'
_chemical_formula_weight         292.33
_space_group_IT_number           2
_space_group_name_Hall           '-P 1'
_space_group_name_H-M_alt        'P -1'
_symmetry_cell_setting           triclinic
_symmetry_Int_Tables_number      2
_symmetry_space_group_name_Hall  '-P 1'
_symmetry_space_group_name_H-M   'P -1'
_atom_sites_solution_hydrogens   geom
_atom_sites_solution_primary     dual
_atom_sites_solution_secondary   difmap
_audit_creation_date             2019-11-11T13:45:01-00:00
_audit_creation_method           'WinGX routine CIF_UPDATE'
_audit_update_record
;
2020-04-08 deposited with the CCDC.	2020-06-05 downloaded from the CCDC.
;
_cell_angle_alpha                93.2084(19)
_cell_angle_beta                 107.177(2)
_cell_angle_gamma                113.972(3)
_cell_formula_units_Z            2
_cell_length_a                   8.1172(2)
_cell_length_b                   9.7795(3)
_cell_length_c                   10.9256(2)
_cell_measurement_reflns_used    6624
_cell_measurement_temperature    270(2)
_cell_measurement_theta_max      75.236
_cell_measurement_theta_min      4.272
_cell_volume                     741.60(4)
_computing_cell_refinement       'CrysAlisPro 1.171.40.63a (Rigaku OD, 2019)'
_computing_data_collection       'CrysAlisPro 1.171.40.63a (Rigaku OD, 2019)'
_computing_data_reduction        'CrysAlisPro 1.171.40.63a (Rigaku OD, 2019)'
_computing_structure_refinement  'SHELXL-2018/3 (Sheldrick, 2018)'
_computing_structure_solution    'SHELXT 2014/5 (Sheldrick, 2014)'
_diffrn_ambient_environment      N~2~
_diffrn_ambient_temperature      270(2)
_diffrn_detector                 'Hybrid Pixel Array Detector'
_diffrn_detector_area_resol_mean 10
_diffrn_detector_type            HyPix
_diffrn_measured_fraction_theta_full 0.998
_diffrn_measured_fraction_theta_max 0.961
_diffrn_measurement_device       'four-circle diffractometer'
_diffrn_measurement_device_type  'XtaLAB Synergy, Dualflex, HyPix'
_diffrn_measurement_method       '\w scans'
_diffrn_orient_matrix_type
'CrysAlisPro convention (1999,Acta A55,543-557)'
_diffrn_orient_matrix_UB_11      0.032297
_diffrn_orient_matrix_UB_12      -0.0671574
_diffrn_orient_matrix_UB_13      0.1242833
_diffrn_orient_matrix_UB_21      -0.1250316
_diffrn_orient_matrix_UB_22      -0.1626247
_diffrn_orient_matrix_UB_23      -0.0837231
_diffrn_orient_matrix_UB_31      0.1800978
_diffrn_orient_matrix_UB_32      -0.0048575
_diffrn_orient_matrix_UB_33      -0.0157707
_diffrn_radiation_monochromator  mirror
_diffrn_radiation_probe          x-ray
_diffrn_radiation_type           CuK\a
_diffrn_radiation_wavelength     1.54178
_diffrn_reflns_av_R_equivalents  0.0383
_diffrn_reflns_av_unetI/netI     0.0523
_diffrn_reflns_Laue_measured_fraction_full 0.998
_diffrn_reflns_Laue_measured_fraction_max 0.961
_diffrn_reflns_limit_h_max       10
_diffrn_reflns_limit_h_min       -8
_diffrn_reflns_limit_k_max       12
_diffrn_reflns_limit_k_min       -12
_diffrn_reflns_limit_l_max       13
_diffrn_reflns_limit_l_min       -13
_diffrn_reflns_number            15831
_diffrn_reflns_point_group_measured_fraction_full 0.998
_diffrn_reflns_point_group_measured_fraction_max 0.961
_diffrn_reflns_theta_full        67.679
_diffrn_reflns_theta_max         77.279
_diffrn_reflns_theta_min         4.324
_diffrn_source                   'micro-focus sealed X-ray tube'
_diffrn_source_type              'PhotonJet (Cu) X-ray Source'
_exptl_absorpt_coefficient_mu    0.72
_exptl_absorpt_correction_T_max  1
_exptl_absorpt_correction_T_min  0.464
_exptl_absorpt_correction_type   gaussian
_exptl_absorpt_process_details
;
        CrysAlisPro 1.171.40.63a (Rigaku Oxford Diffraction, 2019)
Numerical absorption correction based on gaussian integration over
                        a multifaceted crystal model
        Empirical absorption correction using spherical harmonics,
 implemented in SCALE3 ABSPACK scaling algorithm.
;
_exptl_crystal_colour            'clear light yellow'
_exptl_crystal_density_diffrn    1.309
_exptl_crystal_description       plate
_exptl_crystal_F_000             306
_exptl_crystal_size_max          0.236
_exptl_crystal_size_mid          0.208
_exptl_crystal_size_min          0.052
_refine_diff_density_max         0.17
_refine_diff_density_min         -0.132
_refine_diff_density_rms         0.032
_refine_ls_extinction_coef       0.0034(9)
_refine_ls_extinction_expression Fc^*^=kFc[1+0.001xFc^2^\l^3^/sin(2\q)]^-1/4^
_refine_ls_extinction_method     'SHELXL-2018/3 (Sheldrick 2018)'
_refine_ls_goodness_of_fit_ref   1.072
_refine_ls_hydrogen_treatment    constr
_refine_ls_matrix_type           full
_refine_ls_number_parameters     284
_refine_ls_number_reflns         3029
_refine_ls_number_restraints     507
_refine_ls_restrained_S_all      1.002
_refine_ls_R_factor_all          0.0557
_refine_ls_R_factor_gt           0.0455
_refine_ls_shift/su_max          0
_refine_ls_shift/su_mean         0
_refine_ls_structure_factor_coef Fsqd
_refine_ls_weighting_details
'w=1/[\s^2^(Fo^2^)+(0.0626P)^2^+0.1053P] where P=(Fo^2^+2Fc^2^)/3'
_refine_ls_weighting_scheme      calc
_refine_ls_wR_factor_gt          0.1264
_refine_ls_wR_factor_ref         0.1336
_reflns_Friedel_coverage         0
_reflns_number_gt                2488
_reflns_number_total             3029
_reflns_threshold_expression     'I > 2\s(I)'
_cod_data_source_file            d0sc02795b3.cif
_cod_data_source_block           A50_BA50_270
_cod_original_cell_volume        741.59(3)
_cod_database_code               1558217
_shelx_estimated_absorpt_t_min   0.848
_shelx_estimated_absorpt_t_max   0.964
_shelx_shelxl_version_number     2018/3
_shelx_res_file
;
TITL 270_a.res in P-1
    270_a.res
    created by SHELXL-2018/3 at 12:57:19 on 11-Nov-2019
REM Old TITL 270 in P-1

REM SHELXT solution in P-1
REM R1 0.170,  Rweak 0.029,  Alpha 0.041,  Orientation as input
REM Formula found by SHELXT:  C18 N2 O2

CELL  1.54178   8.117150   9.779453  10.925568  93.2084 107.1771 113.9716
ZERR    2.000   0.000202   0.000250   0.000225   0.0019   0.0021   0.0025
LATT  1
SFAC C H N O
UNIT 33.8424 28 6.13788 4
TEMP -3.2
SIZE 0.236 0.208 0.052
L.S. 10
BOND $H
ACTA
LIST 4
FMAP 2
PLAN 20
CONF

RIGU
SIMU 0.02 C12A C12B C13A C13B C14A C14B C15A C15B C16A C16B N4A N4B
SIMU 0.02 N2A N3A N2B N3B C17 C18

EQIV $2 x, y, z+1
EQIV $3 -x+1, -y+1, -z+1

HTAB O1 N1_$2
HTAB O2 N4A_$3
HTAB O2 N4B_$3

DFIX 1.20 0.02 C17 C18
DFIX 1.25 0.02 N2A N3A
DFIX 1.25 0.02 N2B N3B
DFIX 51 C12B C17 C18 C9

OMIT    -9   1   3
OMIT    -9   4   5
OMIT    -9   0   5

SUMP 1.0 0.01 1.0 2 1.0 3 1.0 4

WGHT    0.062600    0.105300
EXTI    0.003430
FVAR       0.87001   0.45295   0.46061   0.08152   1.33929
O1    4    0.167866    0.150699    0.309706    11.00000    0.05721    0.07325 =
         0.05756    0.01284    0.01732    0.02599
AFIX 147
H1    2    0.199419    0.174855    0.389212    11.00000   -1.50000
AFIX   0
O2    4    0.816948    0.214345    0.433834    11.00000    0.06351    0.09591 =
         0.06873    0.00422    0.01999    0.04058
AFIX 147
H2A   2    0.822755    0.252712    0.504599    11.00000   -1.50000
AFIX   0
N1    3    0.261505    0.245314   -0.425310    11.00000    0.05691    0.07766 =
         0.06045    0.01342    0.02047    0.03190
C1    1    0.318430    0.149223    0.280084    11.00000    0.05806    0.04271 =
         0.05145    0.01056    0.01839    0.01923
C2    1    0.491958    0.181052    0.376286    11.00000    0.05923    0.04910 =
         0.04725    0.00762    0.01912    0.02239
AFIX  43
H2    2    0.507030    0.203341    0.463916    11.00000   -1.20000
AFIX   0
C3    1    0.643337    0.179866    0.342659    11.00000    0.06158    0.05180 =
         0.05757    0.00711    0.01979    0.02600
C4    1    0.619433    0.143113    0.212091    11.00000    0.07957    0.06293 =
         0.06344    0.00681    0.03499    0.03213
AFIX  43
H4    2    0.719115    0.139716    0.188629    11.00000   -1.20000
AFIX   0
C5    1    0.446155    0.111774    0.117846    11.00000    0.09138    0.06437 =
         0.05018    0.00553    0.02733    0.03182
AFIX  43
H5    2    0.430337    0.087847    0.030260    11.00000   -1.20000
AFIX   0
C6    1    0.295135    0.114830    0.149575    11.00000    0.07149    0.05879 =
         0.04912    0.00741    0.01268    0.02483
AFIX  43
H6    2    0.179460    0.094110    0.084310    11.00000   -1.20000
AFIX   0
C7    1    0.327772    0.394462   -0.379849    11.00000    0.06255    0.07019 =
         0.07775    0.02594    0.02540    0.02626
AFIX  43
H7    2    0.376017    0.462617   -0.430749    11.00000   -1.20000
AFIX   0
C8    1    0.328609    0.452387   -0.262856    11.00000    0.06319    0.05294 =
         0.07869    0.01117    0.01362    0.02370
AFIX  43
H8    2    0.378233    0.557199   -0.234234    11.00000   -1.20000
AFIX   0
C9    1    0.253522    0.350824   -0.187839    11.00000    0.04915    0.06345 =
         0.05359    0.00329    0.00804    0.02912
C10   1    0.186976    0.196345   -0.232836    11.00000    0.06047    0.05837 =
         0.05693    0.01121    0.01733    0.02431
AFIX  43
H10   2    0.137838    0.125563   -0.184048    11.00000   -1.20000
AFIX   0
C11   1    0.194828    0.149703   -0.350431    11.00000    0.06219    0.05898 =
         0.06093    0.00730    0.01776    0.02654
AFIX  43
H11   2    0.151329    0.045782   -0.379634    11.00000   -1.20000
AFIX   0
PART  1
N2A   3    0.214070    0.378981   -0.059826    21.00000    0.05480    0.04636 =
         0.04855   -0.00004    0.01118    0.02179
N3A   3    0.264895    0.512285   -0.015909    21.00000    0.05783    0.04942 =
         0.05263   -0.00254    0.01576    0.02267
C12A  1    0.232012    0.555234    0.102324    21.00000    0.04446    0.04016 =
         0.05115    0.01196    0.01085    0.01968
C13A  1    0.280417    0.705645    0.149754    21.00000    0.06175    0.03972 =
         0.06060   -0.00257    0.00992    0.02212
AFIX  43
H13A  2    0.334133    0.783160    0.107678    21.00000   -1.20000
AFIX   0
C14A  1    0.245624    0.736218    0.262590    21.00000    0.06109    0.04889 =
         0.06212   -0.00259    0.01433    0.02187
AFIX  43
H14A  2    0.280794    0.838024    0.294327    21.00000   -1.20000
AFIX   0
N4A   3    0.171455    0.640971    0.326884    21.00000    0.05637    0.06255 =
         0.04930    0.00242    0.00733    0.02285
C15A  1    0.125335    0.502050    0.278396    21.00000    0.05734    0.06561 =
         0.05072    0.02193    0.02188    0.02370
AFIX  43
H15A  2    0.069234    0.428588    0.322964    21.00000   -1.20000
AFIX   0
C16A  1    0.148761    0.449663    0.169737    21.00000    0.05755    0.04326 =
         0.05879    0.01408    0.01754    0.02210
AFIX  43
H16A  2    0.109736    0.346119    0.142286    21.00000   -1.20000
AFIX  66
PART  2
C12B  1    0.210348    0.521555    0.122748   -21.00000    0.04838    0.05072 =
         0.05293    0.01811    0.01604    0.02438
C13B  1    0.280915    0.679568    0.148536   -21.00000    0.06054    0.05873 =
         0.06635    0.01845    0.02521    0.02797
AFIX  43
H13B  2    0.339450    0.736914    0.095111   -21.00000   -1.20000
AFIX  65
C14B  1    0.263996    0.751871    0.254174   -21.00000    0.06134    0.05131 =
         0.06231    0.01587    0.01950    0.01653
AFIX  43
H14B  2    0.311211    0.857593    0.271427   -21.00000   -1.20000
AFIX  65
N4B   3    0.176509    0.666162    0.334024   -21.00000    0.05407    0.05938 =
         0.06090    0.01136    0.01075    0.02367
C15B  1    0.105941    0.508148    0.308237   -21.00000    0.05291    0.07405 =
         0.05235    0.02205    0.02290    0.02805
AFIX  43
H15B  2    0.047407    0.450804    0.361663   -21.00000   -1.20000
AFIX  65
C16B  1    0.122859    0.435843    0.202600   -21.00000    0.05787    0.05813 =
         0.06108    0.02489    0.02464    0.02484
AFIX  43
H16B  2    0.075644    0.330122    0.185347   -21.00000   -1.20000
AFIX   0
C17   1    0.231671    0.460762    0.017159    31.00000    0.05188    0.05775 =
         0.05185    0.01539    0.02018    0.02488
C18   1    0.254938    0.415022   -0.077494    31.00000    0.04847    0.05938 =
         0.05807    0.01229    0.01927    0.02494
PART  3
N2B   3    0.271420    0.471788   -0.073675    41.00000    0.06253    0.04764 =
         0.05576    0.01151    0.01601    0.02286
N3B   3    0.191412    0.399588   -0.001306    41.00000    0.06731    0.05191 =
         0.05704    0.01280    0.01929    0.02524
HKLF 4




REM  270_a.res in P-1
REM wR2 = 0.133603, GooF = S = 1.07151, Restrained GooF = 1.00237 for all data
REM R1 = 0.045500 for 2488 Fo > 4sig(Fo) and 0.055683 for all 3029 data
REM 284 parameters refined using 507 restraints

END

WGHT      0.0626      0.1053

REM Highest difference peak  0.170,  deepest hole -0.132,  1-sigma level  0.032
Q1    1   0.1102  0.0754 -0.1600  11.00000  0.05    0.17
Q2    1   0.8140  0.2852  0.5680  11.00000  0.05    0.14
Q3    1   0.2425  0.4026 -0.2302  11.00000  0.05    0.12
Q4    1   0.3024  0.1832 -0.4984  11.00000  0.05    0.12
Q5    1   0.3673  0.1220  0.3222  11.00000  0.05    0.12
Q6    1   0.0989  0.0607  0.0595  11.00000  0.05    0.11
Q7    1   0.8639  0.1424  0.2468  11.00000  0.05    0.10
Q8    1   0.0024  0.1025  0.1979  11.00000  0.05    0.10
Q9    1   0.9832  0.2125  0.3963  11.00000  0.05    0.10
Q10   1   0.7960  0.1446  0.2042  11.00000  0.05    0.10
Q11   1   0.2013  0.3414 -0.1587  11.00000  0.05    0.10
Q12   1   0.1982  0.0400 -0.1201  11.00000  0.05    0.09
Q13   1   0.2362  0.8701  0.2755  11.00000  0.05    0.09
Q14   1  -0.0529  0.1565  0.3230  11.00000  0.05    0.09
Q15   1   0.3291  0.1360  0.2197  11.00000  0.05    0.09
Q16   1   0.0223  0.6688  0.3611  11.00000  0.05    0.09
Q17   1   0.1904  0.2848 -0.2209  11.00000  0.05    0.09
Q18   1   0.2606  0.6809  0.2105  11.00000  0.05    0.09
Q19   1   0.3745  0.8732  0.3399  11.00000  0.05    0.09
Q20   1   0.4245  0.2242  0.4789  11.00000  0.05    0.09
;
_shelx_res_checksum              18839
loop_
_symmetry_equiv_pos_as_xyz
'x, y, z'
'-x, -y, -z'
loop_
_atom_site_label
_atom_site_type_symbol
_atom_site_fract_x
_atom_site_fract_y
_atom_site_fract_z
_atom_site_U_iso_or_equiv
_atom_site_adp_type
_atom_site_occupancy
_atom_site_site_symmetry_order
_atom_site_calc_flag
_atom_site_refinement_flags_posn
_atom_site_refinement_flags_adp
_atom_site_refinement_flags_occupancy
_atom_site_disorder_assembly
_atom_site_disorder_group
O1 O 0.16787(15) 0.15070(13) 0.30971(11) 0.0644(3) Uani 1 1 d . . . . .
H1 H 0.199419 0.174855 0.389212 0.097 Uiso 1 1 calc R U . . .
O2 O 0.81695(17) 0.21434(16) 0.43383(12) 0.0755(4) Uani 1 1 d . . . . .
H2A H 0.822755 0.252712 0.504599 0.113 Uiso 1 1 calc R U . . .
N1 N 0.26151(19) 0.24531(17) -0.42531(13) 0.0643(4) Uani 1 1 d . . . . .
C1 C 0.3184(2) 0.14922(15) 0.28008(14) 0.0520(3) Uani 1 1 d . . . . .
C2 C 0.4920(2) 0.18105(15) 0.37629(14) 0.0524(3) Uani 1 1 d . . . . .
H2 H 0.50703 0.203341 0.463916 0.063 Uiso 1 1 calc R U . . .
C3 C 0.6433(2) 0.17987(17) 0.34266(15) 0.0571(4) Uani 1 1 d . . . . .
C4 C 0.6194(3) 0.14311(19) 0.21209(17) 0.0662(4) Uani 1 1 d . . . . .
H4 H 0.719115 0.139716 0.188629 0.079 Uiso 1 1 calc R U . . .
C5 C 0.4462(3) 0.11177(19) 0.11785(16) 0.0692(4) Uani 1 1 d . . . . .
H5 H 0.430337 0.087847 0.03026 0.083 Uiso 1 1 calc R U . . .
C6 C 0.2951(3) 0.11483(18) 0.14957(15) 0.0634(4) Uani 1 1 d . . . . .
H6 H 0.17946 0.09411 0.08431 0.076 Uiso 1 1 calc R U . . .
C7 C 0.3278(2) 0.3945(2) -0.37985(19) 0.0706(5) Uani 1 1 d . . . . .
H7 H 0.376017 0.462617 -0.430749 0.085 Uiso 1 1 calc R U . . .
C8 C 0.3286(2) 0.45239(19) -0.26286(18) 0.0685(4) Uani 1 1 d . . . . .
H8 H 0.378233 0.557199 -0.234234 0.082 Uiso 1 1 calc R U . . .
C9 C 0.2535(2) 0.35082(18) -0.18784(15) 0.0567(4) Uani 1 1 d D . . . .
C10 C 0.1870(2) 0.19634(18) -0.23284(15) 0.0601(4) Uani 1 1 d . . . . .
H10 H 0.137838 0.125563 -0.184048 0.072 Uiso 1 1 calc R U . . .
C11 C 0.1948(2) 0.14970(19) -0.35043(16) 0.0619(4) Uani 1 1 d . . . . .
H11 H 0.151329 0.045782 -0.379634 0.074 Uiso 1 1 calc R U . . .
N2A N 0.2141(14) 0.3790(9) -0.0598(8) 0.0522(16) Uani 0.453(14) 1 d D U P A 1
N3A N 0.2649(8) 0.5123(8) -0.0159(8) 0.0551(15) Uani 0.453(14) 1 d D U P A 1
C12A C 0.2320(16) 0.5552(10) 0.1023(9) 0.0462(13) Uani 0.453(14) 1 d . U P A 1
C13A C 0.2804(18) 0.7056(10) 0.1498(10) 0.0575(17) Uani 0.453(14) 1 d . U P A 1
H13A H 0.334133 0.78316 0.107678 0.069 Uiso 0.453(14) 1 calc R U P A 1
C14A C 0.246(2) 0.7362(10) 0.2626(12) 0.061(2) Uani 0.453(14) 1 d . U P A 1
H14A H 0.280794 0.838024 0.294327 0.073 Uiso 0.453(14) 1 calc R U P A 1
N4A N 0.171(2) 0.6410(13) 0.3269(11) 0.0604(18) Uani 0.453(14) 1 d . U P A 1
C15A C 0.1253(17) 0.5021(11) 0.2784(10) 0.0579(17) Uani 0.453(14) 1 d . U P A 1
H15A H 0.069234 0.428588 0.322964 0.07 Uiso 0.453(14) 1 calc R U P A 1
C16A C 0.1488(14) 0.4497(8) 0.1697(9) 0.0538(16) Uani 0.453(14) 1 d . U P A 1
H16A H 0.109736 0.346119 0.142286 0.065 Uiso 0.453(14) 1 calc R U P A 1
C12B C 0.2103(13) 0.5216(8) 0.1227(7) 0.0499(15) Uani 0.547(14) 1 d DG U P A 2
C13B C 0.2809(14) 0.6796(8) 0.1485(8) 0.0603(18) Uani 0.547(14) 1 d G U P A 2
H13B H 0.33945 0.736914 0.095111 0.072 Uiso 0.547(14) 1 calc R U P A 2
C14B C 0.2640(18) 0.7519(7) 0.2542(10) 0.062(2) Uani 0.547(14) 1 d G U P A 2
H14B H 0.311211 0.857593 0.271427 0.074 Uiso 0.547(14) 1 calc R U P A 2
N4B N 0.1765(18) 0.6662(9) 0.3340(9) 0.0610(16) Uani 0.547(14) 1 d G U P A 2
C15B C 0.1059(13) 0.5081(9) 0.3082(8) 0.0583(15) Uani 0.547(14) 1 d G U P A 2
H15B H 0.047407 0.450804 0.361663 0.07 Uiso 0.547(14) 1 calc R U P A 2
C16B C 0.1229(12) 0.4358(7) 0.2026(8) 0.0578(15) Uani 0.547(14) 1 d G U P A 2
H16B H 0.075644 0.330122 0.185347 0.069 Uiso 0.547(14) 1 calc R U P A 2
C17 C 0.2317(12) 0.4608(15) 0.0172(7) 0.0529(19) Uani 0.46(2) 1 d D U P A 2
C18 C 0.2549(16) 0.4150(16) -0.0775(9) 0.055(2) Uani 0.46(2) 1 d D U P A 2
N2B N 0.271(5) 0.472(5) -0.074(3) 0.057(5) Uani 0.082(11) 1 d D U P A 3
N3B N 0.191(5) 0.400(5) -0.001(4) 0.060(6) Uani 0.082(11) 1 d D U P A 3
loop_
_atom_site_aniso_label
_atom_site_aniso_U_11
_atom_site_aniso_U_22
_atom_site_aniso_U_33
_atom_site_aniso_U_23
_atom_site_aniso_U_13
_atom_site_aniso_U_12
O1 0.0572(6) 0.0732(7) 0.0576(6) 0.0128(5) 0.0173(5) 0.0260(5)
O2 0.0635(7) 0.0959(9) 0.0687(7) 0.0042(6) 0.0200(6) 0.0406(6)
N1 0.0569(7) 0.0777(9) 0.0605(8) 0.0134(6) 0.0205(6) 0.0319(7)
C1 0.0581(8) 0.0427(7) 0.0515(8) 0.0106(6) 0.0184(6) 0.0192(6)
C2 0.0592(8) 0.0491(7) 0.0472(7) 0.0076(6) 0.0191(6) 0.0224(6)
C3 0.0616(9) 0.0518(8) 0.0576(8) 0.0071(6) 0.0198(7) 0.0260(7)
C4 0.0796(11) 0.0629(9) 0.0634(9) 0.0068(7) 0.0350(8) 0.0321(8)
C5 0.0914(12) 0.0644(10) 0.0502(9) 0.0055(7) 0.0273(8) 0.0318(9)
C6 0.0715(10) 0.0588(9) 0.0491(8) 0.0074(6) 0.0127(7) 0.0248(7)
C7 0.0626(10) 0.0702(10) 0.0777(11) 0.0259(9) 0.0254(8) 0.0263(8)
C8 0.0632(9) 0.0529(8) 0.0787(11) 0.0112(8) 0.0136(8) 0.0237(7)
C9 0.0491(8) 0.0634(9) 0.0536(8) 0.0033(7) 0.0080(6) 0.0291(7)
C10 0.0605(9) 0.0584(8) 0.0569(8) 0.0112(7) 0.0173(7) 0.0243(7)
C11 0.0622(9) 0.0590(9) 0.0609(9) 0.0073(7) 0.0178(7) 0.0265(7)
N2A 0.055(4) 0.046(3) 0.049(3) 0.000(2) 0.011(2) 0.022(2)
N3A 0.058(2) 0.049(3) 0.053(3) -0.003(2) 0.0158(18) 0.0227(19)
C12A 0.044(3) 0.040(3) 0.051(3) 0.012(2) 0.0109(19) 0.020(2)
C13A 0.062(3) 0.040(2) 0.061(3) -0.003(2) 0.010(2) 0.022(2)
C14A 0.061(4) 0.049(3) 0.062(4) -0.003(3) 0.014(3) 0.022(3)
N4A 0.056(3) 0.063(4) 0.049(3) 0.002(2) 0.007(2) 0.023(3)
C15A 0.057(3) 0.066(3) 0.051(4) 0.022(2) 0.022(3) 0.024(2)
C16A 0.058(3) 0.043(2) 0.059(4) 0.014(2) 0.018(2) 0.022(2)
C12B 0.048(3) 0.051(3) 0.053(3) 0.018(2) 0.0160(17) 0.024(3)
C13B 0.061(3) 0.059(4) 0.066(3) 0.018(2) 0.025(2) 0.028(3)
C14B 0.061(3) 0.051(3) 0.062(3) 0.016(2) 0.019(2) 0.017(2)
N4B 0.054(3) 0.059(3) 0.061(3) 0.011(2) 0.011(2) 0.024(2)
C15B 0.053(2) 0.074(3) 0.052(3) 0.022(2) 0.023(2) 0.0280(18)
C16B 0.058(2) 0.058(2) 0.061(4) 0.0249(19) 0.025(2) 0.0248(17)
C17 0.052(3) 0.058(5) 0.052(3) 0.015(3) 0.020(2) 0.025(3)
C18 0.048(4) 0.059(6) 0.058(3) 0.012(3) 0.019(2) 0.025(4)
N2B 0.063(8) 0.048(8) 0.056(7) 0.012(6) 0.016(6) 0.023(8)
N3B 0.067(12) 0.052(13) 0.057(11) 0.013(9) 0.019(9) 0.025(10)
loop_
_atom_type_symbol
_atom_type_description
_atom_type_scat_dispersion_real
_atom_type_scat_dispersion_imag
_atom_type_scat_source
C C 0.0181 0.0091 'International Tables Vol C Tables 4.2.6.8 and 6.1.1.4'
H H 0 0 'International Tables Vol C Tables 4.2.6.8 and 6.1.1.4'
N N 0.0311 0.018 'International Tables Vol C Tables 4.2.6.8 and 6.1.1.4'
O O 0.0492 0.0322 'International Tables Vol C Tables 4.2.6.8 and 6.1.1.4'
loop_
_exptl_crystal_face_index_h
_exptl_crystal_face_index_k
_exptl_crystal_face_index_l
_exptl_crystal_face_perp_dist
2 1 -7 0.0847
2 -1 6 0.0871
-2 -1 7 0.1232
1 -3 6 0.0981
0 -5 -2 0.0393
5 -3 -3 0.116
0 5 2 0.0131
-5 2 2 0.1027
-3 1 7 0.1163
5 -3 0 0.1098
0 -5 4 0.0805
4 2 -1 0.0622
5 -5 -1 0.1116
-5 2 3 0.1092
-5 4 -1 0.1167
loop_
_geom_angle_atom_site_label_1
_geom_angle_atom_site_label_2
_geom_angle_atom_site_label_3
_geom_angle
_geom_angle_site_symmetry_1
_geom_angle_site_symmetry_3
_geom_angle_publ_flag
C1 O1 H1 109.5 . . ?
C3 O2 H2A 109.5 . . ?
C11 N1 C7 117.25(14) . . ?
O1 C1 C6 118.25(14) . . ?
O1 C1 C2 121.82(13) . . ?
C6 C1 C2 119.93(14) . . ?
C1 C2 C3 120.36(13) . . ?
C1 C2 H2 119.8 . . ?
C3 C2 H2 119.8 . . ?
O2 C3 C2 122.09(14) . . ?
O2 C3 C4 118.08(14) . . ?
C2 C3 C4 119.83(15) . . ?
C5 C4 C3 119.02(16) . . ?
C5 C4 H4 120.5 . . ?
C3 C4 H4 120.5 . . ?
C4 C5 C6 121.86(15) . . ?
C4 C5 H5 119.1 . . ?
C6 C5 H5 119.1 . . ?
C5 C6 C1 118.98(15) . . ?
C5 C6 H6 120.5 . . ?
C1 C6 H6 120.5 . . ?
N1 C7 C8 123.69(16) . . ?
N1 C7 H7 118.2 . . ?
C8 C7 H7 118.2 . . ?
C7 C8 C9 118.27(15) . . ?
C7 C8 H8 120.9 . . ?
C9 C8 H8 120.9 . . ?
C18 C9 C10 126.6(6) . . ?
C18 C9 C8 114.8(6) . . ?
C10 C9 C8 118.62(15) . . ?
C10 C9 N2A 110.8(3) . . ?
C8 C9 N2A 130.4(3) . . ?
C10 C9 N2B 143.1(9) . . ?
C8 C9 N2B 98.1(9) . . ?
C11 C10 C9 118.71(15) . . ?
C11 C10 H10 120.6 . . ?
C9 C10 H10 120.6 . . ?
N1 C11 C10 123.41(15) . . ?
N1 C11 H11 118.3 . . ?
C10 C11 H11 118.3 . . ?
N3A N2A C9 114.6(11) . . ?
N2A N3A C12A 120.5(11) . . ?
C16A C12A C13A 116.5(5) . . ?
C16A C12A N3A 122.3(6) . . ?
C13A C12A N3A 121.1(6) . . ?
C12A C13A C14A 117.3(6) . . ?
C12A C13A H13A 121.4 . . ?
C14A C13A H13A 121.4 . . ?
N4A C14A C13A 127.1(5) . . ?
N4A C14A H14A 116.5 . . ?
C13A C14A H14A 116.5 . . ?
C14A N4A C15A 113.8(5) . . ?
N4A C15A C16A 127.8(6) . . ?
N4A C15A H15A 116.1 . . ?
C16A C15A H15A 116.1 . . ?
C15A C16A C12A 117.5(5) . . ?
C15A C16A H16A 121.3 . . ?
C12A C16A H16A 121.3 . . ?
C17 C12B C13B 116.0(6) . . ?
C17 C12B C16B 124.0(6) . . ?
C13B C12B C16B 120 . . ?
C12B C13B C14B 120 . . ?
C12B C13B H13B 120 . . ?
C14B C13B H13B 120 . . ?
C13B C14B N4B 120 . . ?
C13B C14B H14B 120 . . ?
N4B C14B H14B 120 . . ?
C15B N4B C14B 120 . . ?
C16B C15B N4B 120 . . ?
C16B C15B H15B 120 . . ?
N4B C15B H15B 120 . . ?
C15B C16B C12B 120 . . ?
C15B C16B H16B 120 . . ?
C12B C16B H16B 120 . . ?
C18 C17 C12B 176.4(18) . . ?
C17 C18 C9 171.6(14) . . ?
N3B N2B C9 108(5) . . ?
loop_
_geom_bond_atom_site_label_1
_geom_bond_atom_site_label_2
_geom_bond_distance
_geom_bond_site_symmetry_2
_geom_bond_publ_flag
O1 C1 1.3587(18) . ?
O1 H1 0.82 . ?
O2 C3 1.3561(19) . ?
O2 H2A 0.82 . ?
N1 C11 1.331(2) . ?
N1 C7 1.337(2) . ?
C1 C6 1.385(2) . ?
C1 C2 1.385(2) . ?
C2 C3 1.387(2) . ?
C2 H2 0.93 . ?
C3 C4 1.387(2) . ?
C4 C5 1.375(3) . ?
C4 H4 0.93 . ?
C5 C6 1.380(2) . ?
C5 H5 0.93 . ?
C6 H6 0.93 . ?
C7 C8 1.366(3) . ?
C7 H7 0.93 . ?
C8 C9 1.387(2) . ?
C8 H8 0.93 . ?
C9 C18 1.322(9) . ?
C9 C10 1.383(2) . ?
C9 N2A 1.558(9) . ?
C9 N2B 1.60(5) . ?
C10 C11 1.367(2) . ?
C10 H10 0.93 . ?
C11 H11 0.93 . ?
N2A N3A 1.215(10) . ?
N3A C12A 1.466(10) . ?
C12A C16A 1.370(7) . ?
C12A C13A 1.383(7) . ?
C13A C14A 1.386(7) . ?
C13A H13A 0.93 . ?
C14A N4A 1.261(9) . ?
C14A H14A 0.93 . ?
N4A C15A 1.287(8) . ?
C15A C16A 1.361(8) . ?
C15A H15A 0.93 . ?
C16A H16A 0.93 . ?
C12B C17 1.356(8) . ?
C12B C13B 1.39 . ?
C12B C16B 1.39 . ?
C13B C14B 1.39 . ?
C13B H13B 0.93 . ?
C14B N4B 1.39 . ?
C14B H14B 0.93 . ?
N4B C15B 1.39 . ?
C15B C16B 1.39 . ?
C15B H15B 0.93 . ?
C16B H16B 0.93 . ?
C17 C18 1.199(12) . ?
N2B N3B 1.24(2) . ?
loop_
_geom_hbond_atom_site_label_D
_geom_hbond_atom_site_label_H
_geom_hbond_atom_site_label_A
_geom_hbond_distance_DH
_geom_hbond_distance_HA
_geom_hbond_distance_DA
_geom_hbond_angle_DHA
_geom_hbond_site_symmetry_A
_geom_hbond_publ_flag
O1 H1 N1 0.82 1.95 2.7649(17) 174.3 1_556 yes
O2 H2A N4A^a 0.82 2.04 2.860(8) 175.4 2_666 yes
O2 H2A N4B^b 0.82 1.89 2.71(4) 177.2 2_666 yes
loop_
_geom_torsion_atom_site_label_1
_geom_torsion_atom_site_label_2
_geom_torsion_atom_site_label_3
_geom_torsion_atom_site_label_4
_geom_torsion
_geom_torsion_site_symmetry_1
_geom_torsion_site_symmetry_2
_geom_torsion_site_symmetry_3
_geom_torsion_site_symmetry_4
_geom_torsion_publ_flag
O1 C1 C2 C3 -179.44(12) . . . . ?
C6 C1 C2 C3 0.5(2) . . . . ?
C1 C2 C3 O2 178.23(13) . . . . ?
C1 C2 C3 C4 -1.5(2) . . . . ?
O2 C3 C4 C5 -178.28(15) . . . . ?
C2 C3 C4 C5 1.5(2) . . . . ?
C3 C4 C5 C6 -0.5(3) . . . . ?
C4 C5 C6 C1 -0.5(2) . . . . ?
O1 C1 C6 C5 -179.54(14) . . . . ?
C2 C1 C6 C5 0.5(2) . . . . ?
C11 N1 C7 C8 -0.7(2) . . . . ?
N1 C7 C8 C9 -1.2(3) . . . . ?
C7 C8 C9 C18 -178.4(5) . . . . ?
C7 C8 C9 C10 2.0(2) . . . . ?
C7 C8 C9 N2A -172.6(5) . . . . ?
C7 C8 C9 N2B -175.3(13) . . . . ?
C18 C9 C10 C11 179.4(6) . . . . ?
C8 C9 C10 C11 -1.1(2) . . . . ?
N2A C9 C10 C11 174.5(4) . . . . ?
N2B C9 C10 C11 174(2) . . . . ?
C7 N1 C11 C10 1.7(2) . . . . ?
C9 C10 C11 N1 -0.8(2) . . . . ?
C10 C9 N2A N3A -178.4(6) . . . . ?
C8 C9 N2A N3A -3.5(10) . . . . ?
C9 N2A N3A C12A 178.4(7) . . . . ?
N2A N3A C12A C16A 1.8(12) . . . . ?
N2A N3A C12A C13A -176.8(8) . . . . ?
C16A C12A C13A C14A 1.8(6) . . . . ?
N3A C12A C13A C14A -179.6(10) . . . . ?
C12A C13A C14A N4A -1.0(7) . . . . ?
C13A C14A N4A C15A -0.1(7) . . . . ?
C14A N4A C15A C16A 0.5(7) . . . . ?
N4A C15A C16A C12A 0.4(8) . . . . ?
C13A C12A C16A C15A -1.5(7) . . . . ?
N3A C12A C16A C15A 179.9(10) . . . . ?
C17 C12B C13B C14B 179.5(8) . . . . ?
C16B C12B C13B C14B 0 . . . . ?
C12B C13B C14B N4B 0 . . . . ?
C13B C14B N4B C15B 0 . . . . ?
C14B N4B C15B C16B 0 . . . . ?
N4B C15B C16B C12B 0 . . . . ?
C17 C12B C16B C15B -179.4(9) . . . . ?
C13B C12B C16B C15B 0 . . . . ?
C10 C9 N2B N3B -3(5) . . . . ?
C8 C9 N2B N3B 173(3) . . . . ?
