#------------------------------------------------------------------------------
#$Date: 2020-06-06 04:19:29 +0300 (Sat, 06 Jun 2020) $
#$Revision: 252960 $
#$URL: file:///home/coder/svn-repositories/cod/cif/1/55/82/1558251.cif $
#------------------------------------------------------------------------------
#
# This file is available in the Crystallography Open Database (COD),
# http://www.crystallography.net/
#
# All data on this site have been placed in the public domain by the
# contributors.
#
data_1558251
loop_
_publ_author_name
'Ding, Xiaodan'
'Unruh, Daniel K.'
'Groeneman , Ryan'
'Hutchins, Kristin M.'
_publ_section_title
;
 Controlling thermal expansion within mixed cocrystals by tuning molecular
 motion capability
;
_journal_name_full               'Chemical Science'
_journal_paper_doi               10.1039/D0SC02795B
_journal_year                    2020
_chemical_formula_sum            'C16.46 H14.46 N3.54 O2'
_chemical_formula_weight         293.86
_space_group_IT_number           2
_space_group_name_Hall           '-P 1'
_space_group_name_H-M_alt        'P -1'
_symmetry_cell_setting           triclinic
_symmetry_Int_Tables_number      2
_symmetry_space_group_name_Hall  '-P 1'
_symmetry_space_group_name_H-M   'P -1'
_atom_sites_solution_hydrogens   geom
_atom_sites_solution_primary     dual
_atom_sites_solution_secondary   difmap
_audit_creation_date             2020-03-12T16:26:45-00:00
_audit_creation_method           'WinGX routine CIF_UPDATE'
_audit_update_record
;
2020-04-07 deposited with the CCDC.	2020-06-05 downloaded from the CCDC.
;
_cell_angle_alpha                94.0306(12)
_cell_angle_beta                 106.4496(13)
_cell_angle_gamma                113.6558(14)
_cell_formula_units_Z            2
_cell_length_a                   8.04776(11)
_cell_length_b                   9.80445(15)
_cell_length_c                   10.87711(16)
_cell_measurement_reflns_used    11987
_cell_measurement_temperature    290(2)
_cell_measurement_theta_max      75.381
_cell_measurement_theta_min      4.305
_cell_volume                     737.25(2)
_computing_cell_refinement       'CrysAlisPro 1.171.40.70a (Rigaku OD, 2020)'
_computing_data_collection       'CrysAlisPro 1.171.40.70a (Rigaku OD, 2020)'
_computing_data_reduction        'CrysAlisPro 1.171.40.70a (Rigaku OD, 2020)'
_computing_structure_refinement  'SHELXL-2018/3 (Sheldrick, 2018)'
_computing_structure_solution    'SHELXT 2014/5 (Sheldrick, 2014)'
_diffrn_ambient_environment      air
_diffrn_ambient_temperature      290(2)
_diffrn_detector                 'Hybrid Pixel Array Detector'
_diffrn_detector_area_resol_mean 10
_diffrn_detector_type            HyPix
_diffrn_measured_fraction_theta_full 0.997
_diffrn_measured_fraction_theta_max 0.969
_diffrn_measurement_device       'four-circle diffractometer'
_diffrn_measurement_device_type  'XtaLAB Synergy, Dualflex, HyPix'
_diffrn_measurement_method       '\w scans'
_diffrn_orient_matrix_type
'CrysAlisPro convention (1999,Acta A55,543-557)'
_diffrn_orient_matrix_UB_11      -0.0289254
_diffrn_orient_matrix_UB_12      -0.1655213
_diffrn_orient_matrix_UB_13      -0.0032032
_diffrn_orient_matrix_UB_21      -0.0990228
_diffrn_orient_matrix_UB_22      -0.0386061
_diffrn_orient_matrix_UB_23      -0.1499409
_diffrn_orient_matrix_UB_31      0.1969073
_diffrn_orient_matrix_UB_32      0.0434529
_diffrn_orient_matrix_UB_33      -0.0177724
_diffrn_radiation_monochromator  mirror
_diffrn_radiation_probe          x-ray
_diffrn_radiation_type           CuK\a
_diffrn_radiation_wavelength     1.54178
_diffrn_reflns_av_R_equivalents  0.038
_diffrn_reflns_av_unetI/netI     0.0531
_diffrn_reflns_Laue_measured_fraction_full 0.997
_diffrn_reflns_Laue_measured_fraction_max 0.969
_diffrn_reflns_limit_h_max       10
_diffrn_reflns_limit_h_min       -9
_diffrn_reflns_limit_k_max       12
_diffrn_reflns_limit_k_min       -12
_diffrn_reflns_limit_l_max       13
_diffrn_reflns_limit_l_min       -13
_diffrn_reflns_number            27841
_diffrn_reflns_point_group_measured_fraction_full 0.997
_diffrn_reflns_point_group_measured_fraction_max 0.969
_diffrn_reflns_theta_full        67.679
_diffrn_reflns_theta_max         77.209
_diffrn_reflns_theta_min         4.334
_diffrn_source                   'micro-focus sealed X-ray tube'
_diffrn_source_type              'PhotonJet (Cu) X-ray Source'
_exptl_absorpt_coefficient_mu    0.735
_exptl_absorpt_correction_T_max  1
_exptl_absorpt_correction_T_min  0.659
_exptl_absorpt_correction_type   gaussian
_exptl_absorpt_process_details
;
        CrysAlisPro 1.171.40.70a (Rigaku Oxford Diffraction, 2020)
Numerical absorption correction based on gaussian integration over
                        a multifaceted crystal model
        Empirical absorption correction using spherical harmonics,
 implemented in SCALE3 ABSPACK scaling algorithm.
;
_exptl_crystal_colour            'clear yellow'
_exptl_crystal_density_diffrn    1.324
_exptl_crystal_description       plate
_exptl_crystal_F_000             308
_exptl_crystal_size_max          0.219
_exptl_crystal_size_mid          0.132
_exptl_crystal_size_min          0.056
_refine_diff_density_max         0.233
_refine_diff_density_min         -0.184
_refine_diff_density_rms         0.035
_refine_ls_extinction_coef       0.0051(11)
_refine_ls_extinction_expression Fc^*^=kFc[1+0.001xFc^2^\l^3^/sin(2\q)]^-1/4^
_refine_ls_extinction_method     'SHELXL-2018/3 (Sheldrick 2018)'
_refine_ls_goodness_of_fit_ref   1.079
_refine_ls_hydrogen_treatment    constr
_refine_ls_matrix_type           full
_refine_ls_number_parameters     242
_refine_ls_number_reflns         3036
_refine_ls_number_restraints     306
_refine_ls_restrained_S_all      1.047
_refine_ls_R_factor_all          0.0494
_refine_ls_R_factor_gt           0.0433
_refine_ls_shift/su_max          0
_refine_ls_shift/su_mean         0
_refine_ls_structure_factor_coef Fsqd
_refine_ls_weighting_details
'w=1/[\s^2^(Fo^2^)+(0.0693P)^2^+0.0779P] where P=(Fo^2^+2Fc^2^)/3'
_refine_ls_weighting_scheme      calc
_refine_ls_wR_factor_gt          0.1247
_refine_ls_wR_factor_ref         0.1308
_reflns_Friedel_coverage         0
_reflns_number_gt                2556
_reflns_number_total             3036
_reflns_threshold_expression     'I > 2\s(I)'
_cod_data_source_file            d0sc02795b2.cif
_cod_data_source_block           A75_BE25_290
_cod_database_code               1558251
_shelx_estimated_absorpt_t_min   0.856
_shelx_estimated_absorpt_t_max   0.96
_shelx_shelxl_version_number     2018/3
_shelx_res_file
;
TITL 290_a.res in P-1
    290_a.res
    created by SHELXL-2018/3 at 15:23:49 on 12-Mar-2020
REM Old TITL 290 in P-1

REM SHELXT solution in P-1
REM R1 0.140,  Rweak 0.005,  Alpha 0.030,  Orientation as input
REM Formula found by SHELXT:  C18 N2 O2

CELL  1.54178   8.047763   9.804454  10.877115  94.0306 106.4496 113.6558
ZERR    2.000   0.000114   0.000148   0.000162   0.0012   0.0013   0.0014
LATT  1
SFAC C H N O
UNIT 32.9151 28.9151 7.08492 4
TEMP 17.2
SIZE 0.219 0.132 0.056
L.S. 100
BOND $H
ACTA
LIST 4
FMAP 2
PLAN 20

EQIV $1 -x+1, -y+1, -z+2

HTAB O1 N1
HTAB O2 N4_$1

RIGU
SIMU 0.01 N2A N3A N2B N3B C17 C18

DFIX 1.24 0.01 N2A N3A
DFIX 1.24 0.01 N2B N3B
DFIX 1.32 0.01 C17 C18
DFIX 2.2 0.01 H8 H18
DFIX 51 C9 N2A C9 C17 C12 N3A C12 C18

SUMP 1.0 0.0 1.0 2 1.0 3 1.0 4

WGHT    0.069300    0.077900
EXTI    0.005104
FVAR       0.88761   0.64524   0.22880   0.12596   1.41784
O1    4    0.166211    0.157271    0.311778    11.00000    0.06010    0.07749 =
         0.05156    0.00764    0.02004    0.02723
AFIX 147
H1    2    0.197149    0.182119    0.391486    11.00000   -1.50000
AFIX   0
O2    4    0.819711    0.222524    0.433485    11.00000    0.06601    0.09977 =
         0.06014   -0.00251    0.02112    0.04038
AFIX 147
H2A   2    0.823381    0.258646    0.505071    11.00000   -1.50000
AFIX   0
N1    3    0.259797    0.248452    0.579132    11.00000    0.05971    0.07395 =
         0.05286    0.00635    0.02188    0.02994
PART  1
N2A   3    0.212578    0.376541    0.942488    21.00000    0.06290    0.05397 =
         0.04691    0.00813    0.01977    0.02615
N3A   3    0.268687    0.513576    0.982297    21.00000    0.06110    0.05320 =
         0.04813    0.00689    0.02777    0.02313
PART  2
C17   1    0.218508    0.381274    0.939843    31.00000    0.06045    0.05388 =
         0.05159    0.01067    0.02196    0.02568
AFIX  43
H17   2    0.173160    0.302620    0.982603    31.00000   -1.20000
AFIX   0
C18   1    0.254863    0.519133    0.994343    31.00000    0.05654    0.05342 =
         0.05512    0.00983    0.02174    0.02673
AFIX  43
H18   2    0.300343    0.598283    0.952089    31.00000   -1.20000
AFIX   0
PART  3
N2B   3    0.279096    0.471379    0.927822    41.00000    0.06127    0.05907 =
         0.05523    0.00612    0.02650    0.02471
N3B   3    0.190552    0.402858    0.997698    41.00000    0.05953    0.06080 =
         0.05549    0.00998    0.02325    0.02632
PART  0
N4    3    0.177414    0.649783    1.328061    11.00000    0.05553    0.06949 =
         0.04824    0.00290    0.01416    0.02664
C1    1    0.317367    0.153288    0.281859    11.00000    0.06121    0.04551 =
         0.04721    0.00866    0.02135    0.02037
C2    1    0.492402    0.188064    0.377422    11.00000    0.06259    0.05230 =
         0.04243    0.00511    0.02148    0.02267
AFIX  43
H2    2    0.508174    0.213520    0.465325    11.00000   -1.20000
AFIX   0
C3    1    0.644670    0.185189    0.342886    11.00000    0.06267    0.05410 =
         0.05104    0.00521    0.02179    0.02518
C4    1    0.619957    0.143501    0.211877    11.00000    0.07830    0.06149 =
         0.05645    0.00529    0.03471    0.03070
AFIX  43
H4    2    0.719912    0.138682    0.187901    11.00000   -1.20000
AFIX   0
C5    1    0.445001    0.109435    0.118122    11.00000    0.08958    0.06245 =
         0.04447    0.00557    0.02888    0.03159
AFIX  43
H5    2    0.428782    0.082880    0.030278    11.00000   -1.20000
AFIX   0
C6    1    0.293026    0.113499    0.150536    11.00000    0.07279    0.05975 =
         0.04463    0.00685    0.01666    0.02527
AFIX  43
H6    2    0.176080    0.089981    0.085535    11.00000   -1.20000
AFIX   0
C7    1    0.323366    0.396132    0.628382    11.00000    0.06875    0.06846 =
         0.06240    0.01793    0.02909    0.02771
AFIX  43
H7    2    0.372706    0.466369    0.579587    11.00000   -1.20000
AFIX   0
C8    1    0.319669    0.449807    0.747594    11.00000    0.06788    0.05842 =
         0.06225    0.00539    0.01979    0.02838
AFIX  43
H8    2    0.366596    0.553646    0.778884    11.00000   -1.20000
AFIX   0
C9    1    0.244288    0.345179    0.819627    11.00000    0.05300    0.07135 =
         0.04553    0.00673    0.01466    0.03240
C10   1    0.182342    0.193344    0.771062    11.00000    0.06507    0.06642 =
         0.05551    0.01365    0.02308    0.02749
AFIX  43
H10   2    0.134056    0.120734    0.818339    11.00000   -1.20000
AFIX   0
C11   1    0.192855    0.150629    0.651856    11.00000    0.06548    0.05967 =
         0.05929    0.00385    0.01991    0.02522
AFIX  43
H11   2    0.150887    0.047605    0.620067    11.00000   -1.20000
AFIX   0
C12   1    0.230455    0.549937    1.103745    11.00000    0.05406    0.08098 =
         0.04452    0.01029    0.01663    0.03478
C13   1    0.285416    0.700479    1.146785    11.00000    0.06666    0.06881 =
         0.05950    0.01516    0.02421    0.02383
AFIX  43
H13   2    0.341213    0.771941    1.100924    11.00000   -1.20000
AFIX   0
C14   1    0.257690    0.745223    1.257904    11.00000    0.06629    0.05869 =
         0.06304    0.00562    0.01797    0.02191
AFIX  43
H14   2    0.297240    0.848566    1.286315    11.00000   -1.20000
AFIX   0
C15   1    0.121656    0.502103    1.285854    11.00000    0.06103    0.06775 =
         0.05310    0.01586    0.02031    0.02724
AFIX  43
H15   2    0.064322    0.433350    1.333108    11.00000   -1.20000
AFIX   0
C16   1    0.145541    0.446590    1.174367    11.00000    0.06766    0.06084 =
         0.05973    0.00516    0.01566    0.03256
AFIX  43
H16   2    0.105777    0.342925    1.147570    11.00000   -1.20000
AFIX   0
HKLF 4




REM  290_a.res in P-1
REM wR2 = 0.130780, GooF = S = 1.07941, Restrained GooF = 1.04694 for all data
REM R1 = 0.043263 for 2556 Fo > 4sig(Fo) and 0.049411 for all 3036 data
REM 242 parameters refined using 306 restraints

END

WGHT      0.0692      0.0778

REM Highest difference peak  0.233,  deepest hole -0.184,  1-sigma level  0.035
Q1    1   0.1759  0.4762  1.1141  11.00000  0.05    0.23
Q2    1   0.2865  0.3993  0.8004  11.00000  0.05    0.16
Q3    1   0.1850  0.6701  1.4037  11.00000  0.05    0.16
Q4    1   0.1030  0.0714  0.8409  11.00000  0.05    0.16
Q5    1   0.7727  0.1574  0.4837  11.00000  0.05    0.15
Q6    1   0.2501  0.5998  1.1413  11.00000  0.05    0.15
Q7    1   0.2513  0.2251  0.5132  11.00000  0.05    0.14
Q8    1   0.1954  0.2866  0.7821  11.00000  0.05    0.14
Q9    1   0.7790  0.1115  0.2230  11.00000  0.05    0.13
Q10   1   0.3539  0.5741  0.9409  11.00000  0.05    0.11
Q11   1   0.7924  0.1988  0.2027  11.00000  0.05    0.11
Q12   1   0.1996  0.0756  0.3343  11.00000  0.05    0.10
Q13   1   0.3502  0.1056  0.3124  11.00000  0.05    0.10
Q14   1   0.9187  0.1827  0.2476  11.00000  0.05    0.10
Q15   1   0.2528 -0.0257 -0.0667  11.00000  0.05    0.10
Q16   1   0.8838  0.1374  0.1701  11.00000  0.05    0.09
Q17   1   0.3557  0.3348  0.5378  11.00000  0.05    0.09
Q18   1   0.3495  0.0405 -0.0004  11.00000  0.05    0.09
Q19   1   0.3685  0.4182  0.7194  11.00000  0.05    0.09
Q20   1   0.3209  0.1399  0.2185  11.00000  0.05    0.09
;
_shelx_res_checksum              22199
loop_
_symmetry_equiv_pos_as_xyz
'x, y, z'
'-x, -y, -z'
loop_
_atom_site_label
_atom_site_type_symbol
_atom_site_fract_x
_atom_site_fract_y
_atom_site_fract_z
_atom_site_U_iso_or_equiv
_atom_site_adp_type
_atom_site_occupancy
_atom_site_site_symmetry_order
_atom_site_calc_flag
_atom_site_refinement_flags_posn
_atom_site_refinement_flags_adp
_atom_site_refinement_flags_occupancy
_atom_site_disorder_assembly
_atom_site_disorder_group
O1 O 0.16621(14) 0.15727(12) 0.31178(9) 0.0642(3) Uani 1 1 d . . . . .
H1 H 0.197149 0.182119 0.391486 0.096 Uiso 1 1 calc R U . . .
O2 O 0.81971(15) 0.22252(14) 0.43349(10) 0.0751(3) Uani 1 1 d . . . . .
H2A H 0.823381 0.258646 0.505071 0.113 Uiso 1 1 calc R U . . .
N1 N 0.25980(17) 0.24845(14) 0.57913(11) 0.0617(3) Uani 1 1 d . . . . .
N2A N 0.213(2) 0.3765(9) 0.9425(9) 0.0543(10) Uani 0.645(3) 1 d D U P A 1
N3A N 0.2687(13) 0.5136(8) 0.9823(6) 0.0529(8) Uani 0.645(3) 1 d D U P A 1
C17 C 0.219(7) 0.381(3) 0.940(3) 0.054(3) Uani 0.229(3) 1 d D U P A 2
H17 H 0.17316 0.30262 0.982603 0.065 Uiso 0.229(3) 1 calc R U P A 2
C18 C 0.255(4) 0.519(3) 0.9943(19) 0.054(2) Uani 0.229(3) 1 d D U P A 2
H18 H 0.300343 0.598283 0.952089 0.064 Uiso 0.229(3) 1 calc DR U P A 2
N2B N 0.2791(15) 0.4714(15) 0.9278(11) 0.058(2) Uani 0.126(2) 1 d D U P A 3
N3B N 0.1906(15) 0.4029(13) 0.9977(11) 0.0579(19) Uani 0.126(2) 1 d D U P A 3
N4 N 0.17741(17) 0.64978(14) 1.32806(11) 0.0594(3) Uani 1 1 d . . . . .
C1 C 0.3174(2) 0.15329(13) 0.28186(12) 0.0518(3) Uani 1 1 d . . . . .
C2 C 0.49240(19) 0.18806(14) 0.37742(12) 0.0528(3) Uani 1 1 d . . . . .
H2 H 0.508174 0.21352 0.465325 0.063 Uiso 1 1 calc R U . . .
C3 C 0.6447(2) 0.18519(15) 0.34289(13) 0.0559(3) Uani 1 1 d . . . . .
C4 C 0.6200(2) 0.14350(16) 0.21188(14) 0.0631(4) Uani 1 1 d . . . . .
H4 H 0.719912 0.138682 0.187901 0.076 Uiso 1 1 calc R U . . .
C5 C 0.4450(2) 0.10943(16) 0.11812(13) 0.0651(4) Uani 1 1 d . . . . .
H5 H 0.428782 0.08288 0.030278 0.078 Uiso 1 1 calc R U . . .
C6 C 0.2930(2) 0.11350(16) 0.15054(13) 0.0614(4) Uani 1 1 d . . . . .
H6 H 0.17608 0.089981 0.085535 0.074 Uiso 1 1 calc R U . . .
C7 C 0.3234(2) 0.39613(17) 0.62838(15) 0.0656(4) Uani 1 1 d . . . . .
H7 H 0.372706 0.466369 0.579587 0.079 Uiso 1 1 calc R U . . .
C8 C 0.3197(2) 0.44981(17) 0.74759(15) 0.0636(4) Uani 1 1 d . . . . .
H8 H 0.366596 0.553646 0.778884 0.076 Uiso 1 1 calc DR U . . .
C9 C 0.2443(2) 0.34518(16) 0.81963(13) 0.0557(3) Uani 1 1 d D . . . .
C10 C 0.1823(2) 0.19334(17) 0.77106(14) 0.0622(4) Uani 1 1 d . . . . .
H10 H 0.134056 0.120734 0.818339 0.075 Uiso 1 1 calc R U . . .
C11 C 0.1929(2) 0.15063(17) 0.65186(14) 0.0631(4) Uani 1 1 d . . . . .
H11 H 0.150887 0.047605 0.620067 0.076 Uiso 1 1 calc R U . . .
C12 C 0.2305(2) 0.54994(18) 1.10374(13) 0.0583(3) Uani 1 1 d D . . . .
C13 C 0.2854(2) 0.70048(18) 1.14679(15) 0.0663(4) Uani 1 1 d . . . . .
H13 H 0.341213 0.771941 1.100924 0.08 Uiso 1 1 calc R U . . .
C14 C 0.2577(2) 0.74522(17) 1.25790(15) 0.0660(4) Uani 1 1 d . . . . .
H14 H 0.29724 0.848566 1.286315 0.079 Uiso 1 1 calc R U . . .
C15 C 0.1217(2) 0.50210(17) 1.28585(14) 0.0606(3) Uani 1 1 d . . . . .
H15 H 0.064322 0.43335 1.333108 0.073 Uiso 1 1 calc R U . . .
C16 C 0.1455(2) 0.44659(17) 1.17437(14) 0.0631(4) Uani 1 1 d . . . . .
H16 H 0.105777 0.342925 1.14757 0.076 Uiso 1 1 calc R U . . .
loop_
_atom_site_aniso_label
_atom_site_aniso_U_11
_atom_site_aniso_U_22
_atom_site_aniso_U_33
_atom_site_aniso_U_23
_atom_site_aniso_U_13
_atom_site_aniso_U_12
O1 0.0601(6) 0.0775(7) 0.0516(5) 0.0076(5) 0.0200(4) 0.0272(5)
O2 0.0660(6) 0.0998(8) 0.0601(6) -0.0025(6) 0.0211(5) 0.0404(6)
N1 0.0597(7) 0.0739(8) 0.0529(6) 0.0064(5) 0.0219(5) 0.0299(6)
N2A 0.0629(18) 0.0540(15) 0.0469(14) 0.0081(13) 0.0198(13) 0.0262(14)
N3A 0.0611(18) 0.0532(14) 0.0481(15) 0.0069(12) 0.0278(11) 0.0231(12)
C17 0.060(4) 0.054(4) 0.052(4) 0.011(4) 0.022(4) 0.026(4)
C18 0.057(4) 0.053(3) 0.055(4) 0.010(3) 0.022(3) 0.027(3)
N2B 0.061(4) 0.059(4) 0.055(4) 0.006(3) 0.026(3) 0.025(3)
N3B 0.060(4) 0.061(4) 0.055(4) 0.010(3) 0.023(3) 0.026(3)
N4 0.0555(6) 0.0695(7) 0.0482(6) 0.0029(5) 0.0142(5) 0.0266(5)
C1 0.0612(7) 0.0455(6) 0.0472(6) 0.0087(5) 0.0214(6) 0.0204(5)
C2 0.0626(8) 0.0523(7) 0.0424(6) 0.0051(5) 0.0215(6) 0.0227(6)
C3 0.0627(8) 0.0541(7) 0.0510(7) 0.0052(5) 0.0218(6) 0.0252(6)
C4 0.0783(9) 0.0615(8) 0.0565(8) 0.0053(6) 0.0347(7) 0.0307(7)
C5 0.0896(10) 0.0625(8) 0.0445(7) 0.0056(6) 0.0289(7) 0.0316(7)
C6 0.0728(9) 0.0598(8) 0.0446(7) 0.0068(6) 0.0167(6) 0.0253(7)
C7 0.0688(9) 0.0685(9) 0.0624(8) 0.0179(7) 0.0291(7) 0.0277(7)
C8 0.0679(9) 0.0584(8) 0.0623(8) 0.0054(6) 0.0198(7) 0.0284(7)
C9 0.0530(7) 0.0714(8) 0.0455(6) 0.0067(6) 0.0147(5) 0.0324(6)
C10 0.0651(8) 0.0664(8) 0.0555(8) 0.0137(6) 0.0231(6) 0.0275(7)
C11 0.0655(8) 0.0597(8) 0.0593(8) 0.0039(6) 0.0199(7) 0.0252(7)
C12 0.0541(7) 0.0810(9) 0.0445(7) 0.0103(6) 0.0166(6) 0.0348(7)
C13 0.0667(9) 0.0688(9) 0.0595(8) 0.0152(7) 0.0242(7) 0.0238(7)
C14 0.0663(9) 0.0587(8) 0.0630(8) 0.0056(6) 0.0180(7) 0.0219(7)
C15 0.0610(8) 0.0677(8) 0.0531(7) 0.0159(6) 0.0203(6) 0.0272(7)
C16 0.0677(9) 0.0608(8) 0.0597(8) 0.0052(6) 0.0157(7) 0.0326(7)
loop_
_atom_type_symbol
_atom_type_description
_atom_type_scat_dispersion_real
_atom_type_scat_dispersion_imag
_atom_type_scat_source
C C 0.0181 0.0091 'International Tables Vol C Tables 4.2.6.8 and 6.1.1.4'
H H 0 0 'International Tables Vol C Tables 4.2.6.8 and 6.1.1.4'
N N 0.0311 0.018 'International Tables Vol C Tables 4.2.6.8 and 6.1.1.4'
O O 0.0492 0.0322 'International Tables Vol C Tables 4.2.6.8 and 6.1.1.4'
loop_
_exptl_crystal_face_index_h
_exptl_crystal_face_index_k
_exptl_crystal_face_index_l
_exptl_crystal_face_perp_dist
-1 6 -1 0.055
0 4 4 0.0525
0 -6 2 0.0757
3 -6 0 0.0674
5 -1 0 0.0887
5 0 -3 0.0947
0 0 7 0.026
0 0 -7 0.0283
-2 -3 -2 0.0761
-5 0 3 0.0919
loop_
_geom_angle_atom_site_label_1
_geom_angle_atom_site_label_2
_geom_angle_atom_site_label_3
_geom_angle
_geom_angle_site_symmetry_1
_geom_angle_site_symmetry_3
_geom_angle_publ_flag
C1 O1 H1 109.5 . . ?
C3 O2 H2A 109.5 . . ?
C11 N1 C7 117.03(12) . . ?
N3A N2A C9 112.3(6) . . ?
N2A N3A C12 114.0(5) . . ?
C18 C17 C9 124.1(19) . . ?
C18 C17 H17 117.9 . . ?
C9 C17 H17 117.9 . . ?
C12 C18 C17 123.3(18) . . ?
C12 C18 H18 118.4 . . ?
C17 C18 H18 118.4 . . ?
N3B N2B C9 104.1(12) . . ?
N2B N3B C12 99.0(10) . . ?
C14 N4 C15 117.22(12) . . ?
O1 C1 C2 122.10(11) . . ?
O1 C1 C6 118.11(12) . . ?
C2 C1 C6 119.79(13) . . ?
C1 C2 C3 120.44(11) . . ?
C1 C2 H2 119.8 . . ?
C3 C2 H2 119.8 . . ?
O2 C3 C4 118.02(13) . . ?
O2 C3 C2 122.10(11) . . ?
C4 C3 C2 119.88(13) . . ?
C5 C4 C3 118.88(13) . . ?
C5 C4 H4 120.6 . . ?
C3 C4 H4 120.6 . . ?
C4 C5 C6 121.99(12) . . ?
C4 C5 H5 119 . . ?
C6 C5 H5 119 . . ?
C5 C6 C1 118.98(14) . . ?
C5 C6 H6 120.5 . . ?
C1 C6 H6 120.5 . . ?
N1 C7 C8 123.47(14) . . ?
N1 C7 H7 118.3 . . ?
C8 C7 H7 118.3 . . ?
C7 C8 C9 118.29(14) . . ?
C7 C8 H8 120.9 . . ?
C9 C8 H8 120.9 . . ?
C10 C9 C8 118.64(13) . . ?
C10 C9 C17 116.2(12) . . ?
C8 C9 C17 125.1(12) . . ?
C10 C9 N2A 114.2(4) . . ?
C8 C9 N2A 127.1(3) . . ?
C10 C9 N2B 149.8(4) . . ?
C8 C9 N2B 91.5(4) . . ?
C11 C10 C9 118.94(14) . . ?
C11 C10 H10 120.5 . . ?
C9 C10 H10 120.5 . . ?
N1 C11 C10 123.59(13) . . ?
N1 C11 H11 118.2 . . ?
C10 C11 H11 118.2 . . ?
C18 C12 C13 114.2(12) . . ?
C18 C12 C16 127.1(12) . . ?
C13 C12 C16 118.56(13) . . ?
C13 C12 N3A 114.9(3) . . ?
C16 C12 N3A 126.5(3) . . ?
C13 C12 N3B 154.0(3) . . ?
C16 C12 N3B 87.2(3) . . ?
C12 C13 C14 119.24(14) . . ?
C12 C13 H13 120.4 . . ?
C14 C13 H13 120.4 . . ?
N4 C14 C13 123.88(14) . . ?
N4 C14 H14 118.1 . . ?
C13 C14 H14 118.1 . . ?
N4 C15 C16 122.79(14) . . ?
N4 C15 H15 118.6 . . ?
C16 C15 H15 118.6 . . ?
C15 C16 C12 118.32(14) . . ?
C15 C16 H16 120.8 . . ?
C12 C16 H16 120.8 . . ?
loop_
_geom_bond_atom_site_label_1
_geom_bond_atom_site_label_2
_geom_bond_distance
_geom_bond_site_symmetry_2
_geom_bond_publ_flag
O1 C1 1.3593(16) . ?
O1 H1 0.82 . ?
O2 C3 1.3560(17) . ?
O2 H2A 0.82 . ?
N1 C11 1.3301(19) . ?
N1 C7 1.3366(19) . ?
N2A N3A 1.232(4) . ?
N2A C9 1.464(6) . ?
N3A C12 1.490(4) . ?
C17 C18 1.317(10) . ?
C17 C9 1.42(2) . ?
C17 H17 0.93 . ?
C18 C12 1.294(9) . ?
C18 H18 0.93 . ?
N2B N3B 1.237(9) . ?
N2B C9 1.525(13) . ?
N3B C12 1.643(13) . ?
N4 C14 1.330(2) . ?
N4 C15 1.3331(18) . ?
C1 C2 1.3844(19) . ?
C1 C6 1.3902(18) . ?
C2 C3 1.3894(19) . ?
C2 H2 0.93 . ?
C3 C4 1.3891(18) . ?
C4 C5 1.377(2) . ?
C4 H4 0.93 . ?
C5 C6 1.380(2) . ?
C5 H5 0.93 . ?
C6 H6 0.93 . ?
C7 C8 1.378(2) . ?
C7 H7 0.93 . ?
C8 C9 1.385(2) . ?
C8 H8 0.93 . ?
C9 C10 1.374(2) . ?
C10 C11 1.3704(19) . ?
C10 H10 0.93 . ?
C11 H11 0.93 . ?
C12 C13 1.362(2) . ?
C12 C16 1.391(2) . ?
C13 C14 1.364(2) . ?
C13 H13 0.93 . ?
C14 H14 0.93 . ?
C15 C16 1.388(2) . ?
C15 H15 0.93 . ?
C16 H16 0.93 . ?
loop_
_geom_hbond_atom_site_label_D
_geom_hbond_atom_site_label_H
_geom_hbond_atom_site_label_A
_geom_hbond_distance_DH
_geom_hbond_distance_HA
_geom_hbond_distance_DA
_geom_hbond_angle_DHA
_geom_hbond_site_symmetry_A
_geom_hbond_publ_flag
O1 H1 N1 0.82 1.95 2.7707(15) 176.1 . yes
O2 H2A N4 0.82 1.97 2.7895(15) 176.8 2_667 yes
