#------------------------------------------------------------------------------
#$Date: 2020-06-06 04:19:29 +0300 (Sat, 06 Jun 2020) $
#$Revision: 252960 $
#$URL: file:///home/coder/svn-repositories/cod/cif/1/55/82/1558243.cif $
#------------------------------------------------------------------------------
#
# This file is available in the Crystallography Open Database (COD),
# http://www.crystallography.net/
#
# All data on this site have been placed in the public domain by the
# contributors.
#
data_1558243
loop_
_publ_author_name
'Ding, Xiaodan'
'Unruh, Daniel K.'
'Groeneman , Ryan'
'Hutchins, Kristin M.'
_publ_section_title
;
 Controlling thermal expansion within mixed cocrystals by tuning molecular
 motion capability
;
_journal_name_full               'Chemical Science'
_journal_paper_doi               10.1039/D0SC02795B
_journal_year                    2020
_chemical_formula_sum            'C17.31 H14 N2.69 O2'
_chemical_formula_weight         291.69
_space_group_IT_number           2
_space_group_name_Hall           '-P 1'
_space_group_name_H-M_alt        'P -1'
_symmetry_cell_setting           triclinic
_symmetry_Int_Tables_number      2
_symmetry_space_group_name_Hall  '-P 1'
_symmetry_space_group_name_H-M   'P -1'
_atom_sites_solution_hydrogens   geom
_atom_sites_solution_primary     dual
_atom_sites_solution_secondary   difmap
_audit_creation_date             2020-02-26T14:20:21-00:00
_audit_creation_method           'WinGX routine CIF_UPDATE'
_audit_update_record
;
2020-04-07 deposited with the CCDC.	2020-06-05 downloaded from the CCDC.
;
_cell_angle_alpha                92.5603(14)
_cell_angle_beta                 107.7674(16)
_cell_angle_gamma                114.3678(17)
_cell_formula_units_Z            2
_cell_length_a                   8.18740(15)
_cell_length_b                   9.79793(17)
_cell_length_c                   10.95147(18)
_cell_measurement_reflns_used    12877
_cell_measurement_temperature    270(2)
_cell_measurement_theta_max      75.254
_cell_measurement_theta_min      4.311
_cell_volume                     747.21(3)
_computing_cell_refinement       'CrysAlisPro 1.171.40.70a (Rigaku OD, 2020)'
_computing_data_collection       'CrysAlisPro 1.171.40.70a (Rigaku OD, 2020)'
_computing_data_reduction        'CrysAlisPro 1.171.40.70a (Rigaku OD, 2020)'
_computing_structure_refinement  'SHELXL-2018/3 (Sheldrick, 2018)'
_computing_structure_solution    'SHELXT 2014/5 (Sheldrick, 2014)'
_diffrn_ambient_environment      N~2~
_diffrn_ambient_temperature      270(2)
_diffrn_detector                 'Hybrid Pixel Array Detector'
_diffrn_detector_area_resol_mean 10
_diffrn_detector_type            HyPix
_diffrn_measured_fraction_theta_full 0.994
_diffrn_measured_fraction_theta_max 0.946
_diffrn_measurement_device       'four-circle diffractometer'
_diffrn_measurement_device_type  'XtaLAB Synergy, Dualflex, HyPix'
_diffrn_measurement_method       '\w scans'
_diffrn_orient_matrix_type
'CrysAlisPro convention (1999,Acta A55,543-557)'
_diffrn_orient_matrix_UB_11      -0.1809055
_diffrn_orient_matrix_UB_12      -0.1485695
_diffrn_orient_matrix_UB_13      -0.0770776
_diffrn_orient_matrix_UB_21      -0.1269377
_diffrn_orient_matrix_UB_22      0.0733903
_diffrn_orient_matrix_UB_23      0.0187727
_diffrn_orient_matrix_UB_31      -0.0021791
_diffrn_orient_matrix_UB_32      0.0594445
_diffrn_orient_matrix_UB_33      -0.1280808
_diffrn_radiation_monochromator  mirror
_diffrn_radiation_probe          x-ray
_diffrn_radiation_type           CuK\a
_diffrn_radiation_wavelength     1.54178
_diffrn_reflns_av_R_equivalents  0.0568
_diffrn_reflns_av_unetI/netI     0.0788
_diffrn_reflns_Laue_measured_fraction_full 0.994
_diffrn_reflns_Laue_measured_fraction_max 0.946
_diffrn_reflns_limit_h_max       10
_diffrn_reflns_limit_h_min       -10
_diffrn_reflns_limit_k_max       12
_diffrn_reflns_limit_k_min       -12
_diffrn_reflns_limit_l_max       12
_diffrn_reflns_limit_l_min       -13
_diffrn_reflns_number            23782
_diffrn_reflns_point_group_measured_fraction_full 0.994
_diffrn_reflns_point_group_measured_fraction_max 0.946
_diffrn_reflns_theta_full        67.679
_diffrn_reflns_theta_max         77.316
_diffrn_reflns_theta_min         4.324
_diffrn_source                   'micro-focus sealed X-ray tube'
_diffrn_source_type              'PhotonJet (Cu) X-ray Source'
_exptl_absorpt_coefficient_mu    0.706
_exptl_absorpt_correction_T_max  1
_exptl_absorpt_correction_T_min  0.484
_exptl_absorpt_correction_type   gaussian
_exptl_absorpt_process_details
;
        CrysAlisPro 1.171.40.70a (Rigaku Oxford Diffraction, 2020)
Numerical absorption correction based on gaussian integration over
                        a multifaceted crystal model
        Empirical absorption correction using spherical harmonics,
 implemented in SCALE3 ABSPACK scaling algorithm.
;
_exptl_crystal_colour            'clear yellow'
_exptl_crystal_density_diffrn    1.296
_exptl_crystal_description       irregular
_exptl_crystal_F_000             305
_exptl_crystal_size_max          0.2
_exptl_crystal_size_mid          0.109
_exptl_crystal_size_min          0.103
_refine_diff_density_max         0.145
_refine_diff_density_min         -0.149
_refine_diff_density_rms         0.034
_refine_ls_extinction_coef       0.0054(10)
_refine_ls_extinction_expression Fc^*^=kFc[1+0.001xFc^2^\l^3^/sin(2\q)]^-1/4^
_refine_ls_extinction_method     'SHELXL-2018/3 (Sheldrick 2018)'
_refine_ls_goodness_of_fit_ref   1.047
_refine_ls_hydrogen_treatment    constr
_refine_ls_matrix_type           full
_refine_ls_number_parameters     284
_refine_ls_number_reflns         3010
_refine_ls_number_restraints     519
_refine_ls_restrained_S_all      0.993
_refine_ls_R_factor_all          0.0494
_refine_ls_R_factor_gt           0.0413
_refine_ls_shift/su_max          0
_refine_ls_shift/su_mean         0
_refine_ls_structure_factor_coef Fsqd
_refine_ls_weighting_details
'w=1/[\s^2^(Fo^2^)+(0.0630P)^2^+0.0669P] where P=(Fo^2^+2Fc^2^)/3'
_refine_ls_weighting_scheme      calc
_refine_ls_wR_factor_gt          0.1148
_refine_ls_wR_factor_ref         0.1225
_reflns_Friedel_coverage         0
_reflns_number_gt                2464
_reflns_number_total             3010
_reflns_threshold_expression     'I > 2\s(I)'
_cod_data_source_file            d0sc02795b2.cif
_cod_data_source_block           A25_BA75_270
_cod_database_code               1558243
_shelx_estimated_absorpt_t_min   0.872
_shelx_estimated_absorpt_t_max   0.931
_shelx_shelxl_version_number     2018/3
_shelx_res_file
;
TITL 270_a.res in P-1
    270_a.res
    created by SHELXL-2018/3 at 14:06:12 on 26-Feb-2020
REM Old TITL 270 in P-1

REM SHELXT solution in P-1
REM R1 0.146,  Rweak 0.007,  Alpha 0.029,  Orientation as input
REM Formula found by SHELXT:  C17 N3 O2

CELL  1.54178   8.187399   9.797926  10.951471  92.5603 107.7674 114.3678
ZERR    2.000   0.000153   0.000170   0.000183   0.0014   0.0016   0.0017
LATT  1
SFAC C H N O
UNIT 34.625 28 5.37492 4
TEMP -3.2
SIZE 0.200 0.109 0.103
L.S. 10
BOND $H
ACTA
LIST 4
FMAP 2
PLAN 20
CONF

RIGU
SIMU 0.01 C12A C12B C13A C13B C14A C14B C15A C15B C16A C16B N4A N4B
SIMU 0.01 N2A N3A N2B N3B C17 C18

EQIV $2 x, y, z+1
EQIV $3 -x+1, -y+1, -z+1

HTAB O1 N1_$2
HTAB O2 N4A_$3
HTAB O2 N4B_$3

DFIX 1.20 0.02 C17 C18
DFIX 1.25 0.02 N2A N3A
DFIX 1.25 0.02 N2B N3B
DFIX 51 C12B C17 C18 C9

SUMP 1.0 0.0 1.0 2 1.0 3 1.0 4

WGHT    0.063000    0.066900
EXTI    0.005399
FVAR       0.84670   0.30061   0.65626   0.04312   1.39809
O1    4    0.168971    0.146993    0.307153    11.00000    0.06051    0.07469 =
         0.05639    0.01010    0.01942    0.02699
AFIX 147
H1    2    0.200864    0.171314    0.386539    11.00000   -1.50000
AFIX   0
O2    4    0.815432    0.211715    0.433527    11.00000    0.06757    0.09524 =
         0.06559    0.00129    0.02233    0.04052
AFIX 147
H2A   2    0.822367    0.250651    0.503933    11.00000   -1.50000
AFIX   0
N1    3    0.262302    0.242855   -0.429400    11.00000    0.06048    0.08152 =
         0.05844    0.01052    0.02137    0.03373
C1    1    0.319036    0.146973    0.278398    11.00000    0.06161    0.04467 =
         0.05199    0.00924    0.02074    0.01961
C2    1    0.491527    0.177939    0.374831    11.00000    0.06345    0.04999 =
         0.04639    0.00602    0.02014    0.02266
AFIX  43
H2    2    0.506589    0.198837    0.462331    11.00000   -1.20000
AFIX   0
C3    1    0.642648    0.178065    0.341952    11.00000    0.06492    0.05381 =
         0.05573    0.00555    0.02223    0.02639
C4    1    0.618447    0.143052    0.211536    11.00000    0.08285    0.06630 =
         0.06155    0.00539    0.03629    0.03238
AFIX  43
H4    2    0.717508    0.140231    0.188507    11.00000   -1.20000
AFIX   0
C5    1    0.445964    0.112583    0.116813    11.00000    0.09297    0.07016 =
         0.04997    0.00428    0.02964    0.03262
AFIX  43
H5    2    0.430190    0.090032    0.029356    11.00000   -1.20000
AFIX   0
C6    1    0.295688    0.114483    0.147691    11.00000    0.07513    0.06336 =
         0.04663    0.00638    0.01508    0.02574
AFIX  43
H6    2    0.180521    0.094330    0.082044    11.00000   -1.20000
AFIX   0
C7    1    0.329221    0.391781   -0.386075    11.00000    0.06731    0.07436 =
         0.06754    0.02138    0.02813    0.02874
AFIX  43
H7    2    0.377107    0.459033   -0.437825    11.00000   -1.20000
AFIX   0
C8    1    0.331607    0.451578   -0.269846    11.00000    0.06378    0.05638 =
         0.07129    0.01264    0.02038    0.02430
AFIX  43
H8    2    0.381771    0.556623   -0.242993    11.00000   -1.20000
AFIX   0
C9    1    0.257655    0.352202   -0.193058    11.00000    0.04926    0.06315 =
         0.05173    0.00437    0.01212    0.02709
C10   1    0.190157    0.196909   -0.235954    11.00000    0.06348    0.05836 =
         0.05642    0.01070    0.02051    0.02452
AFIX  43
H10   2    0.141623    0.126959   -0.186226    11.00000   -1.20000
AFIX   0
C11   1    0.196484    0.148598   -0.353368    11.00000    0.06632    0.06163 =
         0.05986    0.00424    0.01927    0.02790
AFIX  43
H11   2    0.152418    0.044486   -0.381158    11.00000   -1.20000
AFIX   0
PART  1
N2A   3    0.223180    0.383220   -0.065549    21.00000    0.06049    0.05490 =
         0.05651   -0.00283    0.01113    0.02827
N3A   3    0.258609    0.504012   -0.010989    21.00000    0.06344    0.06212 =
         0.06397   -0.00977    0.01512    0.02949
C12A  1    0.229086    0.553482    0.105533    21.00000    0.04910    0.05450 =
         0.05225    0.01421    0.01442    0.02477
C13A  1    0.279036    0.702607    0.157152    21.00000    0.06653    0.04493 =
         0.06013    0.00251    0.01486    0.02223
AFIX  43
H13A  2    0.334326    0.783445    0.118315    21.00000   -1.20000
AFIX   0
C14A  1    0.242310    0.724947    0.269587    21.00000    0.06335    0.04320 =
         0.05402    0.00874    0.01648    0.01898
AFIX  43
H14A  2    0.278049    0.826234    0.302590    21.00000   -1.20000
AFIX   0
N4A   3    0.172847    0.636463    0.330906    21.00000    0.05833    0.06246 =
         0.05647    0.01253    0.01197    0.02397
C15A  1    0.124665    0.505289    0.280981    21.00000    0.05483    0.06649 =
         0.05030    0.02564    0.02470    0.01977
AFIX  43
H15A  2    0.063514    0.430890    0.323119    21.00000   -1.20000
AFIX   0
C16A  1    0.146619    0.450322    0.172274    21.00000    0.06403    0.05179 =
         0.06138    0.01631    0.01903    0.02675
AFIX  43
H16A  2    0.106312    0.346526    0.146007    21.00000   -1.20000
AFIX  66
PART  2
C12B  1    0.211313    0.525118    0.124302   -21.00000    0.04981    0.05430 =
         0.04688    0.01153    0.01592    0.02479
C13B  1    0.279159    0.682818    0.149295   -21.00000    0.06205    0.05602 =
         0.05914    0.00672    0.02326    0.02333
AFIX  43
H13B  2    0.337319    0.741189    0.096261   -21.00000   -1.20000
AFIX  65
C14B  1    0.260078    0.753277    0.253553   -21.00000    0.06569    0.04508 =
         0.05773    0.01069    0.02271    0.01767
AFIX  43
H14B  2    0.305471    0.858789    0.270274   -21.00000   -1.20000
AFIX  65
N4B   3    0.173151    0.666037    0.332819   -21.00000    0.05920    0.06079 =
         0.05205    0.00557    0.01448    0.02905
C15B  1    0.105304    0.508336    0.307828   -21.00000    0.06055    0.07183 =
         0.05040    0.01755    0.02637    0.02926
AFIX  43
H15B  2    0.047144    0.449967    0.360863   -21.00000   -1.20000
AFIX  65
C16B  1    0.124384    0.437876    0.203571   -21.00000    0.06044    0.05433 =
         0.05448    0.01765    0.02598    0.02506
AFIX  43
H16B  2    0.078990    0.332364    0.186850   -21.00000   -1.20000
AFIX   0
C17   1    0.231580    0.458562    0.016434    31.00000    0.05463    0.06026 =
         0.04707    0.01204    0.01894    0.02520
C18   1    0.252850    0.415826   -0.079366    31.00000    0.05389    0.05903 =
         0.05341    0.00582    0.01860    0.02244
PART  3
N2B   3    0.286004    0.481135   -0.066705    41.00000    0.05849    0.06116 =
         0.05723    0.00158    0.01825    0.02346
N3B   3    0.174049    0.386490   -0.021167    41.00000    0.05717    0.06191 =
         0.06086   -0.00229    0.02019    0.02125
HKLF 4




REM  270_a.res in P-1
REM wR2 = 0.122456, GooF = S = 1.04669, Restrained GooF = 0.99274 for all data
REM R1 = 0.041328 for 2464 Fo > 4sig(Fo) and 0.049379 for all 3010 data
REM 284 parameters refined using 519 restraints

END

WGHT      0.0630      0.0669

REM Highest difference peak  0.145,  deepest hole -0.149,  1-sigma level  0.034
Q1    1   0.7928  0.1406  0.2216  11.00000  0.05    0.15
Q2    1   0.3247  0.3028 -0.4021  11.00000  0.05    0.12
Q3    1   0.1457  0.0023  0.0469  11.00000  0.05    0.11
Q4    1   0.9765  0.2527  0.4584  11.00000  0.05    0.11
Q5    1   0.0187  0.1391  0.2632  11.00000  0.05    0.11
Q6    1   0.4188  0.2036  0.3215  11.00000  0.05    0.11
Q7    1   0.2838  0.5386 -0.0590  11.00000  0.05    0.10
Q8    1   0.8249  0.0775  0.1843  11.00000  0.05    0.10
Q9    1   0.7286  0.1243  0.4686  11.00000  0.05    0.09
Q10   1   0.0069  0.0564  0.2251  11.00000  0.05    0.09
Q11   1   0.3416  0.0468  0.1319  11.00000  0.05    0.09
Q12   1   0.3871  0.4861  0.0048  11.00000  0.05    0.09
Q13   1   0.9491  0.1793  0.4034  11.00000  0.05    0.09
Q14   1   0.1803  0.0694  0.3165  11.00000  0.05    0.09
Q15   1   0.3339 -0.0361  0.0171  11.00000  0.05    0.09
Q16   1   0.3146  0.6553  0.3517  11.00000  0.05    0.09
Q17   1   0.3090  0.1726 -0.5018  11.00000  0.05    0.09
Q18   1   0.2852  0.2557  0.3434  11.00000  0.05    0.08
Q19   1   0.3841  0.8590  0.3111  11.00000  0.05    0.08
Q20   1   0.0960  0.2162 -0.5085  11.00000  0.05    0.08
;
_shelx_res_checksum              65315
loop_
_symmetry_equiv_pos_as_xyz
'x, y, z'
'-x, -y, -z'
loop_
_atom_site_label
_atom_site_type_symbol
_atom_site_fract_x
_atom_site_fract_y
_atom_site_fract_z
_atom_site_U_iso_or_equiv
_atom_site_adp_type
_atom_site_occupancy
_atom_site_site_symmetry_order
_atom_site_calc_flag
_atom_site_refinement_flags_posn
_atom_site_refinement_flags_adp
_atom_site_refinement_flags_occupancy
_atom_site_disorder_assembly
_atom_site_disorder_group
O1 O 0.16897(13) 0.14699(11) 0.30715(9) 0.0655(3) Uani 1 1 d . . . . .
H1 H 0.200864 0.171314 0.386539 0.098 Uiso 1 1 calc R U . . .
O2 O 0.81543(14) 0.21171(13) 0.43353(10) 0.0755(3) Uani 1 1 d . . . . .
H2A H 0.822367 0.250651 0.503933 0.113 Uiso 1 1 calc R U . . .
N1 N 0.26230(16) 0.24285(14) -0.42940(12) 0.0662(3) Uani 1 1 d . . . . .
C1 C 0.31904(18) 0.14697(13) 0.27840(12) 0.0541(3) Uani 1 1 d . . . . .
C2 C 0.49153(18) 0.17794(13) 0.37483(12) 0.0542(3) Uani 1 1 d . . . . .
H2 H 0.506589 0.198837 0.462331 0.065 Uiso 1 1 calc R U . . .
C3 C 0.64265(19) 0.17806(14) 0.34195(13) 0.0582(3) Uani 1 1 d . . . . .
C4 C 0.6184(2) 0.14305(16) 0.21154(14) 0.0681(4) Uani 1 1 d . . . . .
H4 H 0.717508 0.140231 0.188507 0.082 Uiso 1 1 calc R U . . .
C5 C 0.4460(2) 0.11258(17) 0.11681(14) 0.0716(4) Uani 1 1 d . . . . .
H5 H 0.43019 0.090032 0.029356 0.086 Uiso 1 1 calc R U . . .
C6 C 0.2957(2) 0.11448(15) 0.14769(13) 0.0655(4) Uani 1 1 d . . . . .
H6 H 0.180521 0.09433 0.082044 0.079 Uiso 1 1 calc R U . . .
C7 C 0.3292(2) 0.39178(17) -0.38607(15) 0.0695(4) Uani 1 1 d . . . . .
H7 H 0.377107 0.459033 -0.437825 0.083 Uiso 1 1 calc R U . . .
C8 C 0.3316(2) 0.45158(16) -0.26985(15) 0.0657(4) Uani 1 1 d . . . . .
H8 H 0.381771 0.556623 -0.242993 0.079 Uiso 1 1 calc R U . . .
C9 C 0.25765(17) 0.35220(15) -0.19306(13) 0.0558(3) Uani 1 1 d D . . . .
C10 C 0.19016(19) 0.19691(15) -0.23595(14) 0.0607(3) Uani 1 1 d . . . . .
H10 H 0.141623 0.126959 -0.186226 0.073 Uiso 1 1 calc R U . . .
C11 C 0.1965(2) 0.14860(16) -0.35337(14) 0.0640(4) Uani 1 1 d . . . . .
H11 H 0.152418 0.044486 -0.381158 0.077 Uiso 1 1 calc R U . . .
N2A N 0.223(2) 0.3832(13) -0.0655(13) 0.059(2) Uani 0.301(3) 1 d D U P A 1
N3A N 0.2586(12) 0.5040(9) -0.0110(9) 0.0654(16) Uani 0.301(3) 1 d D U P A 1
C12A C 0.229(2) 0.5535(13) 0.1055(11) 0.0522(16) Uani 0.301(3) 1 d . U P A 1
C13A C 0.279(2) 0.7026(13) 0.1572(12) 0.0604(19) Uani 0.301(3) 1 d . U P A 1
H13A H 0.334326 0.783445 0.118315 0.073 Uiso 0.301(3) 1 calc R U P A 1
C14A C 0.242(2) 0.7249(10) 0.2696(12) 0.0564(16) Uani 0.301(3) 1 d . U P A 1
H14A H 0.278049 0.826234 0.30259 0.068 Uiso 0.301(3) 1 calc R U P A 1
N4A N 0.173(2) 0.6365(12) 0.3309(11) 0.0623(19) Uani 0.301(3) 1 d . U P A 1
C15A C 0.1247(17) 0.5053(11) 0.2810(11) 0.0578(18) Uani 0.301(3) 1 d . U P A 1
H15A H 0.063514 0.43089 0.323119 0.069 Uiso 0.301(3) 1 calc R U P A 1
C16A C 0.1466(17) 0.4503(10) 0.1723(10) 0.0594(19) Uani 0.301(3) 1 d . U P A 1
H16A H 0.106312 0.346526 0.146007 0.071 Uiso 0.301(3) 1 calc R U P A 1
C12B C 0.2113(7) 0.5251(4) 0.1243(4) 0.0501(10) Uani 0.699(3) 1 d DG U P A 2
C13B C 0.2792(8) 0.6828(4) 0.1493(4) 0.0599(10) Uani 0.699(3) 1 d G U P A 2
H13B H 0.337319 0.741189 0.096261 0.072 Uiso 0.699(3) 1 calc R U P A 2
C14B C 0.2601(8) 0.7533(3) 0.2536(5) 0.0585(10) Uani 0.699(3) 1 d G U P A 2
H14B H 0.305471 0.858789 0.270274 0.07 Uiso 0.699(3) 1 calc R U P A 2
N4B N 0.1732(8) 0.6660(4) 0.3328(4) 0.0581(9) Uani 0.699(3) 1 d G U P A 2
C15B C 0.1053(7) 0.5083(4) 0.3078(4) 0.0592(9) Uani 0.699(3) 1 d G U P A 2
H15B H 0.047144 0.449967 0.360863 0.071 Uiso 0.699(3) 1 calc R U P A 2
C16B C 0.1244(6) 0.4379(3) 0.2036(4) 0.0550(9) Uani 0.699(3) 1 d G U P A 2
H16B H 0.07899 0.332364 0.18685 0.066 Uiso 0.699(3) 1 calc R U P A 2
C17 C 0.2316(7) 0.4586(6) 0.0164(4) 0.0539(8) Uani 0.656(3) 1 d D U P A 2
C18 C 0.2529(11) 0.4158(7) -0.0794(7) 0.0568(12) Uani 0.656(3) 1 d D U P A 2
N2B N 0.286(5) 0.481(5) -0.067(5) 0.061(4) Uani 0.043(3) 1 d D U P A 3
N3B N 0.174(5) 0.386(5) -0.021(5) 0.063(5) Uani 0.043(3) 1 d D U P A 3
loop_
_atom_site_aniso_label
_atom_site_aniso_U_11
_atom_site_aniso_U_22
_atom_site_aniso_U_33
_atom_site_aniso_U_23
_atom_site_aniso_U_13
_atom_site_aniso_U_12
O1 0.0605(5) 0.0747(6) 0.0564(6) 0.0101(5) 0.0194(4) 0.0270(5)
O2 0.0676(6) 0.0952(8) 0.0656(6) 0.0013(5) 0.0223(5) 0.0405(5)
N1 0.0605(7) 0.0815(8) 0.0584(7) 0.0105(6) 0.0214(5) 0.0337(6)
C1 0.0616(7) 0.0447(6) 0.0520(7) 0.0092(5) 0.0207(6) 0.0196(5)
C2 0.0635(7) 0.0500(6) 0.0464(7) 0.0060(5) 0.0201(6) 0.0227(5)
C3 0.0649(8) 0.0538(7) 0.0557(8) 0.0056(6) 0.0222(6) 0.0264(6)
C4 0.0829(9) 0.0663(8) 0.0616(8) 0.0054(6) 0.0363(8) 0.0324(7)
C5 0.0930(10) 0.0702(9) 0.0500(8) 0.0043(6) 0.0296(7) 0.0326(8)
C6 0.0751(9) 0.0634(8) 0.0466(7) 0.0064(6) 0.0151(6) 0.0257(7)
C7 0.0673(8) 0.0744(9) 0.0675(9) 0.0214(7) 0.0281(7) 0.0287(7)
C8 0.0638(8) 0.0564(7) 0.0713(9) 0.0126(6) 0.0204(7) 0.0243(6)
C9 0.0493(6) 0.0632(7) 0.0517(7) 0.0044(6) 0.0121(5) 0.0271(6)
C10 0.0635(7) 0.0584(7) 0.0564(8) 0.0107(6) 0.0205(6) 0.0245(6)
C11 0.0663(8) 0.0616(8) 0.0599(8) 0.0042(6) 0.0193(7) 0.0279(6)
N2A 0.060(4) 0.055(4) 0.057(3) -0.003(3) 0.011(3) 0.028(3)
N3A 0.063(3) 0.062(3) 0.064(4) -0.010(3) 0.015(2) 0.029(3)
C12A 0.049(3) 0.055(3) 0.052(3) 0.014(2) 0.014(2) 0.025(2)
C13A 0.067(3) 0.045(3) 0.060(3) 0.003(2) 0.015(3) 0.022(2)
C14A 0.063(3) 0.043(2) 0.054(3) 0.009(2) 0.016(2) 0.019(2)
N4A 0.058(3) 0.062(3) 0.056(3) 0.013(2) 0.012(2) 0.024(3)
C15A 0.055(3) 0.066(3) 0.050(3) 0.026(2) 0.025(2) 0.020(2)
C16A 0.064(3) 0.052(3) 0.061(4) 0.016(2) 0.019(3) 0.027(2)
C12B 0.0498(16) 0.0543(19) 0.0469(16) 0.0115(14) 0.0159(11) 0.0248(15)
C13B 0.0620(15) 0.056(2) 0.0591(16) 0.0067(14) 0.0233(13) 0.0233(14)
C14B 0.0657(16) 0.0451(15) 0.0577(18) 0.0107(12) 0.0227(11) 0.0177(14)
N4B 0.0592(13) 0.0608(17) 0.0521(13) 0.0056(12) 0.0145(11) 0.0290(13)
C15B 0.0605(15) 0.0718(15) 0.0504(18) 0.0175(12) 0.0264(12) 0.0293(11)
C16B 0.0604(14) 0.0543(12) 0.0545(19) 0.0176(11) 0.0260(12) 0.0251(10)
C17 0.0546(16) 0.060(2) 0.0471(15) 0.0120(13) 0.0189(11) 0.0252(16)
C18 0.054(2) 0.059(3) 0.0534(17) 0.0058(18) 0.0186(13) 0.022(2)
N2B 0.058(5) 0.061(5) 0.057(5) 0.002(4) 0.018(4) 0.023(5)
N3B 0.057(8) 0.062(8) 0.061(8) -0.002(7) 0.020(6) 0.021(7)
loop_
_atom_type_symbol
_atom_type_description
_atom_type_scat_dispersion_real
_atom_type_scat_dispersion_imag
_atom_type_scat_source
C C 0.0181 0.0091 'International Tables Vol C Tables 4.2.6.8 and 6.1.1.4'
H H 0 0 'International Tables Vol C Tables 4.2.6.8 and 6.1.1.4'
N N 0.0311 0.018 'International Tables Vol C Tables 4.2.6.8 and 6.1.1.4'
O O 0.0492 0.0322 'International Tables Vol C Tables 4.2.6.8 and 6.1.1.4'
loop_
_exptl_crystal_face_index_h
_exptl_crystal_face_index_k
_exptl_crystal_face_index_l
_exptl_crystal_face_perp_dist
-4 -1 0 0.0411
-3 5 4 0.0981
-1 -3 7 0.0767
1 3 -7 0.0786
2 -1 -7 0.0773
4 1 0 0.0599
2 -6 2 0.0625
0 -5 -2 0.0599
4 -1 -6 0.0847
3 -4 4 0.0491
-5 2 4 0.0882
1 -6 -1 0.0572
0 6 -2 0.0472
-2 6 -2 0.0453
1 -5 5 0.0477
loop_
_geom_angle_atom_site_label_1
_geom_angle_atom_site_label_2
_geom_angle_atom_site_label_3
_geom_angle
_geom_angle_site_symmetry_1
_geom_angle_site_symmetry_3
_geom_angle_publ_flag
C1 O1 H1 109.5 . . ?
C3 O2 H2A 109.5 . . ?
C11 N1 C7 117.23(12) . . ?
O1 C1 C2 121.94(11) . . ?
O1 C1 C6 118.19(12) . . ?
C2 C1 C6 119.87(13) . . ?
C1 C2 C3 120.45(12) . . ?
C1 C2 H2 119.8 . . ?
C3 C2 H2 119.8 . . ?
O2 C3 C4 118.09(12) . . ?
O2 C3 C2 122.18(12) . . ?
C4 C3 C2 119.73(13) . . ?
C5 C4 C3 119.06(13) . . ?
C5 C4 H4 120.5 . . ?
C3 C4 H4 120.5 . . ?
C4 C5 C6 121.92(13) . . ?
C4 C5 H5 119 . . ?
C6 C5 H5 119 . . ?
C5 C6 C1 118.94(14) . . ?
C5 C6 H6 120.5 . . ?
C1 C6 H6 120.5 . . ?
N1 C7 C8 123.81(14) . . ?
N1 C7 H7 118.1 . . ?
C8 C7 H7 118.1 . . ?
C7 C8 C9 118.54(13) . . ?
C7 C8 H8 120.7 . . ?
C9 C8 H8 120.7 . . ?
C8 C9 C18 117.1(3) . . ?
C8 C9 C10 118.28(12) . . ?
C18 C9 C10 124.6(3) . . ?
C8 C9 N2A 130.5(5) . . ?
C10 C9 N2A 111.1(5) . . ?
C8 C9 N2B 99.9(11) . . ?
C10 C9 N2B 141.8(11) . . ?
C11 C10 C9 118.64(13) . . ?
C11 C10 H10 120.7 . . ?
C9 C10 H10 120.7 . . ?
N1 C11 C10 123.46(13) . . ?
N1 C11 H11 118.3 . . ?
C10 C11 H11 118.3 . . ?
N3A N2A C9 125.5(14) . . ?
N2A N3A C12A 132.9(14) . . ?
C16A C12A C13A 114.0(6) . . ?
C16A C12A N3A 120.4(9) . . ?
C13A C12A N3A 125.6(9) . . ?
C14A C13A C12A 116.4(7) . . ?
C14A C13A H13A 121.8 . . ?
C12A C13A H13A 121.8 . . ?
N4A C14A C13A 130.7(7) . . ?
N4A C14A C15A 34.8(4) . . ?
C13A C14A C15A 95.9(5) . . ?
N4A C14A H14A 114.6 . . ?
C13A C14A H14A 114.6 . . ?
C15A C14A H14A 149.4 . . ?
C14A N4A C15A 111.6(7) . . ?
N4A C15A C16A 130.2(7) . . ?
N4A C15A C14A 33.6(3) . . ?
C16A C15A C14A 96.6(5) . . ?
N4A C15A H15A 114.9 . . ?
C16A C15A H15A 114.9 . . ?
C14A C15A H15A 148.5 . . ?
C12A C16A C15A 117.1(6) . . ?
C12A C16A H16A 121.5 . . ?
C15A C16A H16A 121.5 . . ?
C13B C12B C16B 120 . . ?
C13B C12B C17 118.0(3) . . ?
C16B C12B C17 122.0(3) . . ?
C14B C13B C12B 120 . . ?
C14B C13B H13B 120 . . ?
C12B C13B H13B 120 . . ?
C13B C14B N4B 120 . . ?
C13B C14B H14B 120 . . ?
N4B C14B H14B 120 . . ?
C15B N4B C14B 120 . . ?
C16B C15B N4B 120 . . ?
C16B C15B H15B 120 . . ?
N4B C15B H15B 120 . . ?
C15B C16B C12B 120 . . ?
C15B C16B H16B 120 . . ?
C12B C16B H16B 120 . . ?
C18 C17 C12B 173.4(6) . . ?
C17 C18 C9 173.5(7) . . ?
N3B N2B C9 97(5) . . ?
loop_
_geom_bond_atom_site_label_1
_geom_bond_atom_site_label_2
_geom_bond_distance
_geom_bond_site_symmetry_2
_geom_bond_publ_flag
O1 C1 1.3583(15) . ?
O1 H1 0.82 . ?
O2 C3 1.3548(17) . ?
O2 H2A 0.82 . ?
N1 C11 1.3299(19) . ?
N1 C7 1.3320(19) . ?
C1 C2 1.3818(18) . ?
C1 C6 1.3889(18) . ?
C2 C3 1.3897(18) . ?
C2 H2 0.93 . ?
C3 C4 1.3872(19) . ?
C4 C5 1.375(2) . ?
C4 H4 0.93 . ?
C5 C6 1.379(2) . ?
C5 H5 0.93 . ?
C6 H6 0.93 . ?
C7 C8 1.368(2) . ?
C7 H7 0.93 . ?
C8 C9 1.385(2) . ?
C8 H8 0.93 . ?
C9 C18 1.386(7) . ?
C9 C10 1.3875(18) . ?
C9 N2A 1.548(14) . ?
C9 N2B 1.72(6) . ?
C10 C11 1.3736(19) . ?
C10 H10 0.93 . ?
C11 H11 0.93 . ?
N2A N3A 1.179(14) . ?
N3A C12A 1.467(14) . ?
C12A C16A 1.348(10) . ?
C12A C13A 1.383(9) . ?
C13A C14A 1.382(10) . ?
C13A H13A 0.93 . ?
C14A N4A 1.185(10) . ?
C14A C15A 1.990(11) . ?
C14A H14A 0.93 . ?
N4A C15A 1.222(10) . ?
C15A C16A 1.376(10) . ?
C15A H15A 0.93 . ?
C16A H16A 0.93 . ?
C12B C13B 1.39 . ?
C12B C16B 1.39 . ?
C12B C17 1.410(5) . ?
C13B C14B 1.39 . ?
C13B H13B 0.93 . ?
C14B N4B 1.39 . ?
C14B H14B 0.93 . ?
N4B C15B 1.39 . ?
C15B C16B 1.39 . ?
C15B H15B 0.93 . ?
C16B H16B 0.93 . ?
C17 C18 1.200(8) . ?
N2B N3B 1.25(2) . ?
loop_
_geom_hbond_atom_site_label_D
_geom_hbond_atom_site_label_H
_geom_hbond_atom_site_label_A
_geom_hbond_distance_DH
_geom_hbond_distance_HA
_geom_hbond_distance_DA
_geom_hbond_angle_DHA
_geom_hbond_site_symmetry_A
_geom_hbond_publ_flag
O1 H1 N1 0.82 1.94 2.7587(15) 173.8 1_556 yes
O2 H2A N4A 0.82 2.06 2.875(9) 173.5 2_666 yes
O2 H2A N4B 0.82 1.92 2.73(2) 177.3 2_666 yes
loop_
_geom_torsion_atom_site_label_1
_geom_torsion_atom_site_label_2
_geom_torsion_atom_site_label_3
_geom_torsion_atom_site_label_4
_geom_torsion
_geom_torsion_site_symmetry_1
_geom_torsion_site_symmetry_2
_geom_torsion_site_symmetry_3
_geom_torsion_site_symmetry_4
_geom_torsion_publ_flag
O1 C1 C2 C3 -179.53(11) . . . . ?
C6 C1 C2 C3 0.53(19) . . . . ?
C1 C2 C3 O2 178.27(11) . . . . ?
C1 C2 C3 C4 -1.64(19) . . . . ?
O2 C3 C4 C5 -178.26(13) . . . . ?
C2 C3 C4 C5 1.7(2) . . . . ?
C3 C4 C5 C6 -0.6(2) . . . . ?
C4 C5 C6 C1 -0.5(2) . . . . ?
O1 C1 C6 C5 -179.40(12) . . . . ?
C2 C1 C6 C5 0.5(2) . . . . ?
C11 N1 C7 C8 -0.8(2) . . . . ?
N1 C7 C8 C9 -1.1(2) . . . . ?
C7 C8 C9 C18 -176.7(4) . . . . ?
C7 C8 C9 C10 2.0(2) . . . . ?
C7 C8 C9 N2A -173.5(8) . . . . ?
C7 C8 C9 N2B -177.8(15) . . . . ?
C8 C9 C10 C11 -1.15(19) . . . . ?
C18 C9 C10 C11 177.4(4) . . . . ?
N2A C9 C10 C11 175.2(6) . . . . ?
N2B C9 C10 C11 178(2) . . . . ?
C7 N1 C11 C10 1.7(2) . . . . ?
C9 C10 C11 N1 -0.7(2) . . . . ?
C8 C9 N2A N3A -1(2) . . . . ?
C10 C9 N2A N3A -176.5(13) . . . . ?
C9 N2A N3A C12A 177.1(11) . . . . ?
N2A N3A C12A C16A 0(2) . . . . ?
N2A N3A C12A C13A -179.6(14) . . . . ?
C16A C12A C13A C14A 1.5(8) . . . . ?
N3A C12A C13A C14A -178.7(13) . . . . ?
C12A C13A C14A N4A -0.4(10) . . . . ?
C12A C13A C14A C15A -1.4(6) . . . . ?
C13A C14A N4A C15A -1.7(10) . . . . ?
C14A N4A C15A C16A 3.0(10) . . . . ?
C13A C12A C16A C15A -0.5(8) . . . . ?
N3A C12A C16A C15A 179.6(12) . . . . ?
N4A C15A C16A C12A -2.0(10) . . . . ?
C14A C15A C16A C12A -0.3(6) . . . . ?
C16B C12B C13B C14B 0 . . . . ?
C17 C12B C13B C14B 179.2(5) . . . . ?
C12B C13B C14B N4B 0 . . . . ?
C13B C14B N4B C15B 0 . . . . ?
C14B N4B C15B C16B 0 . . . . ?
N4B C15B C16B C12B 0 . . . . ?
C13B C12B C16B C15B 0 . . . . ?
C17 C12B C16B C15B -179.1(5) . . . . ?
C8 C9 N2B N3B 163(3) . . . . ?
C10 C9 N2B N3B -16(5) . . . . ?
