#------------------------------------------------------------------------------
#$Date: 2020-06-06 04:11:42 +0300 (Sat, 06 Jun 2020) $
#$Revision: 252959 $
#$URL: file:///home/coder/svn-repositories/cod/cif/1/55/82/1558218.cif $
#------------------------------------------------------------------------------
#
# This file is available in the Crystallography Open Database (COD),
# http://www.crystallography.net/
#
# All data on this site have been placed in the public domain by the
# contributors.
#
data_1558218
loop_
_publ_author_name
'Ding, Xiaodan'
'Unruh, Daniel K.'
'Groeneman , Ryan'
'Hutchins, Kristin M.'
_publ_section_title
;
 Controlling thermal expansion within mixed cocrystals by tuning molecular
 motion capability
;
_journal_name_full               'Chemical Science'
_journal_paper_doi               10.1039/D0SC02795B
_journal_year                    2020
_chemical_formula_sum            'C16.9 H14 N3.08 O2'
_chemical_formula_weight         292.27
_space_group_IT_number           2
_space_group_name_Hall           '-P 1'
_space_group_name_H-M_alt        'P -1'
_symmetry_cell_setting           triclinic
_symmetry_Int_Tables_number      2
_symmetry_space_group_name_Hall  '-P 1'
_symmetry_space_group_name_H-M   'P -1'
_atom_sites_solution_hydrogens   geom
_atom_sites_solution_primary     dual
_atom_sites_solution_secondary   difmap
_audit_creation_date             2019-11-11T13:46:02-00:00
_audit_creation_method           'WinGX routine CIF_UPDATE'
_audit_update_record
;
2020-04-08 deposited with the CCDC.	2020-06-05 downloaded from the CCDC.
;
_cell_angle_alpha                93.322(2)
_cell_angle_beta                 107.125(2)
_cell_angle_gamma                113.929(3)
_cell_formula_units_Z            2
_cell_length_a                   8.1338(2)
_cell_length_b                   9.7910(3)
_cell_length_c                   10.9340(3)
_cell_measurement_reflns_used    6276
_cell_measurement_temperature    290(2)
_cell_measurement_theta_max      76.275
_cell_measurement_theta_min      4.291
_cell_volume                     744.78(4)
_computing_cell_refinement       'CrysAlisPro 1.171.40.63a (Rigaku OD, 2019)'
_computing_data_collection       'CrysAlisPro 1.171.40.63a (Rigaku OD, 2019)'
_computing_data_reduction        'CrysAlisPro 1.171.40.63a (Rigaku OD, 2019)'
_computing_structure_refinement  'SHELXL-2018/3 (Sheldrick, 2018)'
_computing_structure_solution    'SHELXT 2014/5 (Sheldrick, 2014)'
_diffrn_ambient_environment      air
_diffrn_ambient_temperature      290(2)
_diffrn_detector                 'Hybrid Pixel Array Detector'
_diffrn_detector_area_resol_mean 10
_diffrn_detector_type            HyPix
_diffrn_measured_fraction_theta_full 0.997
_diffrn_measured_fraction_theta_max 0.955
_diffrn_measurement_device       'four-circle diffractometer'
_diffrn_measurement_device_type  'XtaLAB Synergy, Dualflex, HyPix'
_diffrn_measurement_method       '\w scans'
_diffrn_orient_matrix_type
'CrysAlisPro convention (1999,Acta A55,543-557)'
_diffrn_orient_matrix_UB_11      0.0309784
_diffrn_orient_matrix_UB_12      -0.0681944
_diffrn_orient_matrix_UB_13      0.1234994
_diffrn_orient_matrix_UB_21      -0.1269589
_diffrn_orient_matrix_UB_22      -0.1618938
_diffrn_orient_matrix_UB_23      -0.0845225
_diffrn_orient_matrix_UB_31      0.178305
_diffrn_orient_matrix_UB_32      -0.0068611
_diffrn_orient_matrix_UB_33      -0.0165897
_diffrn_radiation_monochromator  mirror
_diffrn_radiation_probe          x-ray
_diffrn_radiation_type           CuK\a
_diffrn_radiation_wavelength     1.54178
_diffrn_reflns_av_R_equivalents  0.0386
_diffrn_reflns_av_unetI/netI     0.0519
_diffrn_reflns_Laue_measured_fraction_full 0.997
_diffrn_reflns_Laue_measured_fraction_max 0.955
_diffrn_reflns_limit_h_max       10
_diffrn_reflns_limit_h_min       -8
_diffrn_reflns_limit_k_max       12
_diffrn_reflns_limit_k_min       -12
_diffrn_reflns_limit_l_max       13
_diffrn_reflns_limit_l_min       -13
_diffrn_reflns_number            15615
_diffrn_reflns_point_group_measured_fraction_full 0.997
_diffrn_reflns_point_group_measured_fraction_max 0.955
_diffrn_reflns_theta_full        67.679
_diffrn_reflns_theta_max         77.947
_diffrn_reflns_theta_min         4.321
_diffrn_source                   'micro-focus sealed X-ray tube'
_diffrn_source_type              'PhotonJet (Cu) X-ray Source'
_exptl_absorpt_coefficient_mu    0.717
_exptl_absorpt_correction_T_max  1
_exptl_absorpt_correction_T_min  0.462
_exptl_absorpt_correction_type   gaussian
_exptl_absorpt_process_details
;
        CrysAlisPro 1.171.40.63a (Rigaku Oxford Diffraction, 2019)
Numerical absorption correction based on gaussian integration over
                        a multifaceted crystal model
        Empirical absorption correction using spherical harmonics,
 implemented in SCALE3 ABSPACK scaling algorithm.
;
_exptl_crystal_colour            'clear light yellow'
_exptl_crystal_density_diffrn    1.303
_exptl_crystal_description       plate
_exptl_crystal_F_000             306
_exptl_crystal_size_max          0.236
_exptl_crystal_size_mid          0.208
_exptl_crystal_size_min          0.052
_refine_diff_density_max         0.144
_refine_diff_density_min         -0.133
_refine_diff_density_rms         0.03
_refine_ls_extinction_coef       0.0035(7)
_refine_ls_extinction_expression Fc^*^=kFc[1+0.001xFc^2^\l^3^/sin(2\q)]^-1/4^
_refine_ls_extinction_method     'SHELXL-2018/3 (Sheldrick 2018)'
_refine_ls_goodness_of_fit_ref   1.052
_refine_ls_hydrogen_treatment    constr
_refine_ls_matrix_type           full
_refine_ls_number_parameters     284
_refine_ls_number_reflns         3043
_refine_ls_number_restraints     507
_refine_ls_restrained_S_all      0.986
_refine_ls_R_factor_all          0.0565
_refine_ls_R_factor_gt           0.0448
_refine_ls_shift/su_max          0
_refine_ls_shift/su_mean         0
_refine_ls_structure_factor_coef Fsqd
_refine_ls_weighting_details
'w=1/[\s^2^(Fo^2^)+(0.0522P)^2^+0.1133P] where P=(Fo^2^+2Fc^2^)/3'
_refine_ls_weighting_scheme      calc
_refine_ls_wR_factor_gt          0.1175
_refine_ls_wR_factor_ref         0.1251
_reflns_Friedel_coverage         0
_reflns_number_gt                2418
_reflns_number_total             3043
_reflns_threshold_expression     'I > 2\s(I)'
_cod_data_source_file            d0sc02795b3.cif
_cod_data_source_block           A50_BA50_290
_cod_original_formula_sum        'C16.90 H14 N3.08 O2'
_cod_database_code               1558218
_shelx_estimated_absorpt_t_min   0.849
_shelx_estimated_absorpt_t_max   0.964
_shelx_shelxl_version_number     2018/3
_shelx_res_file
;
TITL 290_a.res in P-1
    290_a.res
    created by SHELXL-2018/3 at 12:57:47 on 11-Nov-2019
REM Old TITL 290 in P-1

REM SHELXT solution in P-1
REM R1 0.170,  Rweak 0.018,  Alpha 0.062,  Orientation as input
REM Formula found by SHELXT:  C18 N2 O2

CELL  1.54178   8.133805   9.790955  10.934022  93.3224 107.1252 113.9290
ZERR    2.000   0.000222   0.000302   0.000253   0.0022   0.0023   0.0028
LATT  1
SFAC C H N O
UNIT 33.7941 28 6.16992 4
TEMP 17.2
SIZE 0.236 0.208 0.052
L.S. 10
BOND $H
ACTA
LIST 4
FMAP 2
PLAN 20
CONF

RIGU
SIMU 0.02 C12A C12B C13A C13B C14A C14B C15A C15B C16A C16B N4A N4B
SIMU 0.02 N2A N3A N2B N3B C17 C18

EQIV $2 x, y, z+1
EQIV $3 -x+1, -y+1, -z+1

HTAB O1 N1_$2
HTAB O2 N4A_$3
HTAB O2 N4B_$3

DFIX 1.20 0.02 C17 C18
DFIX 1.25 0.02 N2A N3A
DFIX 1.25 0.02 N2B N3B
DFIX 51 C12B C17 C18 C9

OMIT   -9   1   5
OMIT   -9   2   8

SUMP 1.0 0.01 1.0 2 1.0 3 1.0 4

WGHT    0.052200    0.113300
EXTI    0.003462
FVAR       0.86872   0.44582   0.44851   0.09666   1.33730
O1    4    0.168361    0.149840    0.309832    11.00000    0.06130    0.07927 =
         0.06221    0.01294    0.01890    0.02786
AFIX 147
H1    2    0.199393    0.173041    0.389337    11.00000   -1.50000
AFIX   0
O2    4    0.816235    0.214301    0.433595    11.00000    0.06904    0.10314 =
         0.07396    0.00330    0.02188    0.04337
AFIX 147
H2A   2    0.821198    0.250985    0.504695    11.00000   -1.50000
AFIX   0
N1    3    0.261455    0.245076   -0.425280    11.00000    0.06140    0.08240 =
         0.06461    0.01324    0.02191    0.03438
C1    1    0.318645    0.148745    0.280207    11.00000    0.06240    0.04595 =
         0.05460    0.01076    0.01967    0.02042
C2    1    0.491875    0.180671    0.376235    11.00000    0.06381    0.05265 =
         0.04984    0.00790    0.02095    0.02405
AFIX  43
H2    2    0.506972    0.202957    0.463836    11.00000   -1.20000
AFIX   0
C3    1    0.642683    0.179580    0.342501    11.00000    0.06637    0.05588 =
         0.06134    0.00732    0.02165    0.02820
C4    1    0.618974    0.143112    0.212180    11.00000    0.08470    0.06885 =
         0.06768    0.00635    0.03711    0.03444
AFIX  43
H4    2    0.718589    0.140060    0.188669    11.00000   -1.20000
AFIX   0
C5    1    0.446261    0.111526    0.118188    11.00000    0.09928    0.07009 =
         0.05310    0.00488    0.02947    0.03510
AFIX  43
H5    2    0.430553    0.087486    0.030671    11.00000   -1.20000
AFIX   0
C6    1    0.295589    0.114411    0.149745    11.00000    0.07742    0.06330 =
         0.05194    0.00698    0.01410    0.02653
AFIX  43
H6    2    0.180230    0.093637    0.084496    11.00000   -1.20000
AFIX   0
C7    1    0.327380    0.393892   -0.379937    11.00000    0.06858    0.07443 =
         0.08166    0.02613    0.02748    0.02796
AFIX  43
H7    2    0.375188    0.461689   -0.430995    11.00000   -1.20000
AFIX   0
C8    1    0.328752    0.452391   -0.263091    11.00000    0.06885    0.05787 =
         0.08219    0.01113    0.01538    0.02604
AFIX  43
H8    2    0.378715    0.557163   -0.234544    11.00000   -1.20000
AFIX   0
C9    1    0.253809    0.351632   -0.188226    11.00000    0.05286    0.06867 =
         0.05649    0.00429    0.00938    0.03145
C10   1    0.187402    0.197176   -0.232978    11.00000    0.06569    0.06382 =
         0.06102    0.01257    0.02012    0.02656
AFIX  43
H10   2    0.138762    0.126813   -0.183964    11.00000   -1.20000
AFIX   0
C11   1    0.194607    0.150002   -0.350391    11.00000    0.06714    0.06355 =
         0.06631    0.00774    0.01982    0.02835
AFIX  43
H11   2    0.150547    0.046077   -0.379601    11.00000   -1.20000
AFIX   0
PART  1
N2A   3    0.215550    0.378844   -0.059680    21.00000    0.06224    0.05042 =
         0.04969   -0.00120    0.01054    0.02498
N3A   3    0.264349    0.511945   -0.015355    21.00000    0.06247    0.05317 =
         0.05926   -0.00440    0.01684    0.02609
C12A  1    0.233753    0.555639    0.103533    21.00000    0.04808    0.04194 =
         0.05657    0.01104    0.01385    0.02008
C13A  1    0.281628    0.705645    0.151282    21.00000    0.07024    0.04087 =
         0.06745   -0.00516    0.01234    0.02351
AFIX  43
H13A  2    0.335808    0.783411    0.109823    21.00000   -1.20000
AFIX   0
C14A  1    0.245315    0.735308    0.263964    21.00000    0.06641    0.05325 =
         0.06683   -0.00262    0.01739    0.02393
AFIX  43
H14A  2    0.279502    0.836814    0.295797    21.00000   -1.20000
AFIX   0
N4A   3    0.171451    0.640281    0.327619    21.00000    0.05982    0.06811 =
         0.05565    0.00368    0.00760    0.02365
C15A  1    0.125398    0.502162    0.278328    21.00000    0.06128    0.07095 =
         0.05695    0.02393    0.02483    0.02496
AFIX  43
H15A  2    0.068056    0.428363    0.321964    21.00000   -1.20000
AFIX   0
C16A  1    0.149955    0.450428    0.170502    21.00000    0.06058    0.04814 =
         0.06768    0.01612    0.02172    0.02369
AFIX  43
H16A  2    0.111202    0.347021    0.142983    21.00000   -1.20000
AFIX  66
PART  2
C12B  1    0.208607    0.519961    0.121373   -21.00000    0.04985    0.05343 =
         0.05902    0.01793    0.01699    0.02340
C13B  1    0.279430    0.677833    0.147113   -21.00000    0.06403    0.06313 =
         0.06832    0.01857    0.02658    0.02787
AFIX  43
H13B  2    0.337335    0.734774    0.093431   -21.00000   -1.20000
AFIX  65
C14B  1    0.263707    0.750601    0.253087   -21.00000    0.06647    0.05551 =
         0.06784    0.01643    0.02121    0.01813
AFIX  43
H14B  2    0.311092    0.856228    0.270308   -21.00000   -1.20000
AFIX  65
N4B   3    0.177161    0.665496    0.333321   -21.00000    0.05820    0.06512 =
         0.06408    0.01257    0.01279    0.02660
C15B  1    0.106337    0.507624    0.307583   -21.00000    0.05958    0.07730 =
         0.05550    0.02251    0.02424    0.02998
AFIX  43
H15B  2    0.048432    0.450684    0.361266   -21.00000   -1.20000
AFIX  65
C16B  1    0.122059    0.434854    0.201610   -21.00000    0.06159    0.06223 =
         0.06670    0.02684    0.02687    0.02701
AFIX  43
H16B  2    0.074673    0.329227    0.184389   -21.00000   -1.20000
AFIX   0
C17   1    0.230608    0.459631    0.016922    31.00000    0.05622    0.06168 =
         0.05794    0.01768    0.02119    0.02692
C18   1    0.254089    0.416106   -0.077856    31.00000    0.05305    0.06288 =
         0.06109    0.01602    0.01992    0.02882
PART  3
N2B   3    0.271938    0.472240   -0.073794    41.00000    0.07420    0.05153 =
         0.05748    0.01330    0.01669    0.02835
N3B   3    0.193248    0.401353   -0.000738    41.00000    0.08202    0.05570 =
         0.05689    0.01228    0.02260    0.03219
HKLF 4




REM  290_a.res in P-1
REM wR2 = 0.125148, GooF = S = 1.05223, Restrained GooF = 0.98589 for all data
REM R1 = 0.044798 for 2433 Fo > 4sig(Fo) and 0.056453 for all 3043 data
REM 284 parameters refined using 507 restraints

END

WGHT      0.0522      0.1133

REM Highest difference peak  0.144,  deepest hole -0.133,  1-sigma level  0.030
Q1    1   0.1056  0.0758 -0.1567  11.00000  0.05    0.14
Q2    1   0.8357  0.2795  0.5700  11.00000  0.05    0.14
Q3    1   0.3702  0.1153  0.3238  11.00000  0.05    0.12
Q4    1  -0.0058  0.6647  0.3457  11.00000  0.05    0.11
Q5    1   0.8056  0.1564  0.1969  11.00000  0.05    0.11
Q6    1   0.2858  0.2379 -0.5053  11.00000  0.05    0.11
Q7    1   0.3016  0.1669 -0.4885  11.00000  0.05    0.10
Q8    1   0.3615  0.2156 -0.4491  11.00000  0.05    0.10
Q9    1   0.1012  0.0725  0.0811  11.00000  0.05    0.10
Q10   1   0.2529  0.3966 -0.2234  11.00000  0.05    0.10
Q11   1   0.9123  0.1433  0.2621  11.00000  0.05    0.10
Q12   1   0.9443  0.2019  0.3727  11.00000  0.05    0.09
Q13   1   0.9028  0.2215  0.3970  11.00000  0.05    0.09
Q14   1   0.5990  0.2198  0.3441  11.00000  0.05    0.09
Q15   1   0.3142  0.1175  0.2269  11.00000  0.05    0.09
Q16   1   0.4007  0.2182  0.4820  11.00000  0.05    0.09
Q17   1   0.0008  0.1208  0.2137  11.00000  0.05    0.09
Q18   1   0.1836  0.2770 -0.2246  11.00000  0.05    0.09
Q19   1   0.0729  0.3711 -0.1707  11.00000  0.05    0.09
Q20   1   0.1745  0.4627 -0.0745  11.00000  0.05    0.08
;
_shelx_res_checksum              97110
loop_
_symmetry_equiv_pos_as_xyz
'x, y, z'
'-x, -y, -z'
loop_
_atom_site_label
_atom_site_type_symbol
_atom_site_fract_x
_atom_site_fract_y
_atom_site_fract_z
_atom_site_U_iso_or_equiv
_atom_site_adp_type
_atom_site_occupancy
_atom_site_site_symmetry_order
_atom_site_calc_flag
_atom_site_refinement_flags_posn
_atom_site_refinement_flags_adp
_atom_site_refinement_flags_occupancy
_atom_site_disorder_assembly
_atom_site_disorder_group
O1 O 0.16836(15) 0.14984(13) 0.30983(11) 0.0695(3) Uani 1 1 d . . . . .
H1 H 0.199393 0.173041 0.389337 0.104 Uiso 1 1 calc R U . . .
O2 O 0.81624(17) 0.21430(16) 0.43359(12) 0.0816(4) Uani 1 1 d . . . . .
H2A H 0.821198 0.250985 0.504695 0.122 Uiso 1 1 calc R U . . .
N1 N 0.26145(19) 0.24508(17) -0.42528(13) 0.0687(4) Uani 1 1 d . . . . .
C1 C 0.3186(2) 0.14874(15) 0.28021(14) 0.0557(3) Uani 1 1 d . . . . .
C2 C 0.4919(2) 0.18067(15) 0.37623(14) 0.0559(3) Uani 1 1 d . . . . .
H2 H 0.506972 0.202957 0.463836 0.067 Uiso 1 1 calc R U . . .
C3 C 0.6427(2) 0.17958(17) 0.34250(15) 0.0612(4) Uani 1 1 d . . . . .
C4 C 0.6190(3) 0.14311(19) 0.21218(17) 0.0713(4) Uani 1 1 d . . . . .
H4 H 0.718589 0.14006 0.188669 0.086 Uiso 1 1 calc R U . . .
C5 C 0.4463(3) 0.11153(19) 0.11819(16) 0.0746(5) Uani 1 1 d . . . . .
H5 H 0.430553 0.087486 0.030671 0.09 Uiso 1 1 calc R U . . .
C6 C 0.2956(3) 0.11441(18) 0.14974(15) 0.0681(4) Uani 1 1 d . . . . .
H6 H 0.18023 0.093637 0.084496 0.082 Uiso 1 1 calc R U . . .
C7 C 0.3274(2) 0.3939(2) -0.37994(19) 0.0754(5) Uani 1 1 d . . . . .
H7 H 0.375188 0.461689 -0.430995 0.09 Uiso 1 1 calc R U . . .
C8 C 0.3288(2) 0.45239(19) -0.26309(18) 0.0732(5) Uani 1 1 d . . . . .
H8 H 0.378715 0.557163 -0.234544 0.088 Uiso 1 1 calc R U . . .
C9 C 0.2538(2) 0.35163(18) -0.18823(15) 0.0605(4) Uani 1 1 d D . . . .
C10 C 0.1874(2) 0.19718(18) -0.23298(16) 0.0647(4) Uani 1 1 d . . . . .
H10 H 0.138762 0.126813 -0.183964 0.078 Uiso 1 1 calc R U . . .
C11 C 0.1946(2) 0.15000(19) -0.35039(16) 0.0670(4) Uani 1 1 d . . . . .
H11 H 0.150547 0.046077 -0.379601 0.08 Uiso 1 1 calc R U . . .
N2A N 0.2155(14) 0.3788(9) -0.0597(9) 0.0568(17) Uani 0.446(14) 1 d D U P A 1
N3A N 0.2643(8) 0.5119(9) -0.0154(8) 0.0599(16) Uani 0.446(14) 1 d D U P A 1
C12A C 0.2338(18) 0.5556(11) 0.1035(9) 0.0498(14) Uani 0.446(14) 1 d . U P A 1
C13A C 0.282(2) 0.7056(11) 0.1513(11) 0.0635(18) Uani 0.446(14) 1 d . U P A 1
H13A H 0.335808 0.783411 0.109823 0.076 Uiso 0.446(14) 1 calc R U P A 1
C14A C 0.245(2) 0.7353(11) 0.2640(13) 0.065(2) Uani 0.446(14) 1 d . U P A 1
H14A H 0.279502 0.836814 0.295797 0.078 Uiso 0.446(14) 1 calc R U P A 1
N4A N 0.171(2) 0.6403(13) 0.3276(11) 0.066(2) Uani 0.446(14) 1 d . U P A 1
C15A C 0.1254(19) 0.5022(12) 0.2783(11) 0.0630(18) Uani 0.446(14) 1 d . U P A 1
H15A H 0.068056 0.428363 0.321964 0.076 Uiso 0.446(14) 1 calc R U P A 1
C16A C 0.1500(15) 0.4504(8) 0.1705(10) 0.0589(18) Uani 0.446(14) 1 d . U P A 1
H16A H 0.111202 0.347021 0.142983 0.071 Uiso 0.446(14) 1 calc R U P A 1
C12B C 0.2086(13) 0.5200(8) 0.1214(7) 0.0541(15) Uani 0.554(14) 1 d DG U P A 2
C13B C 0.2794(14) 0.6778(8) 0.1471(8) 0.0642(18) Uani 0.554(14) 1 d G U P A 2
H13B H 0.337335 0.734774 0.093431 0.077 Uiso 0.554(14) 1 calc R U P A 2
C14B C 0.2637(18) 0.7506(7) 0.2531(10) 0.067(2) Uani 0.554(14) 1 d G U P A 2
H14B H 0.311092 0.856228 0.270308 0.08 Uiso 0.554(14) 1 calc R U P A 2
N4B N 0.1772(18) 0.6655(9) 0.3333(9) 0.0648(17) Uani 0.554(14) 1 d G U P A 2
C15B C 0.1063(14) 0.5076(9) 0.3076(8) 0.0628(15) Uani 0.554(14) 1 d G U P A 2
H15B H 0.048432 0.450684 0.361266 0.075 Uiso 0.554(14) 1 calc R U P A 2
C16B C 0.1221(12) 0.4349(7) 0.2016(8) 0.0619(15) Uani 0.554(14) 1 d G U P A 2
H16B H 0.074673 0.329227 0.184389 0.074 Uiso 0.554(14) 1 calc R U P A 2
C17 C 0.2306(13) 0.4596(17) 0.0169(8) 0.058(2) Uani 0.45(2) 1 d D U P A 2
C18 C 0.2541(16) 0.4161(17) -0.0779(10) 0.058(2) Uani 0.45(2) 1 d D U P A 2
N2B N 0.272(4) 0.472(4) -0.074(3) 0.062(5) Uani 0.097(12) 1 d D U P A 3
N3B N 0.193(5) 0.401(4) -0.001(3) 0.065(6) Uani 0.097(12) 1 d D U P A 3
loop_
_atom_site_aniso_label
_atom_site_aniso_U_11
_atom_site_aniso_U_22
_atom_site_aniso_U_33
_atom_site_aniso_U_23
_atom_site_aniso_U_13
_atom_site_aniso_U_12
O1 0.0613(6) 0.0793(7) 0.0622(6) 0.0129(6) 0.0189(5) 0.0279(5)
O2 0.0690(7) 0.1031(9) 0.0740(8) 0.0033(7) 0.0219(6) 0.0434(7)
N1 0.0614(8) 0.0824(9) 0.0646(8) 0.0132(7) 0.0219(6) 0.0344(7)
C1 0.0624(8) 0.0459(7) 0.0546(8) 0.0108(6) 0.0197(7) 0.0204(6)
C2 0.0638(8) 0.0527(7) 0.0498(8) 0.0079(6) 0.0210(6) 0.0241(6)
C3 0.0664(9) 0.0559(8) 0.0613(9) 0.0073(6) 0.0216(7) 0.0282(7)
C4 0.0847(11) 0.0688(10) 0.0677(10) 0.0063(8) 0.0371(9) 0.0344(9)
C5 0.0993(13) 0.0701(10) 0.0531(9) 0.0049(7) 0.0295(9) 0.0351(9)
C6 0.0774(10) 0.0633(9) 0.0519(8) 0.0070(7) 0.0141(7) 0.0265(8)
C7 0.0686(10) 0.0744(11) 0.0817(12) 0.0261(9) 0.0275(9) 0.0280(8)
C8 0.0688(10) 0.0579(9) 0.0822(12) 0.0111(8) 0.0154(8) 0.0260(8)
C9 0.0529(8) 0.0687(9) 0.0565(8) 0.0043(7) 0.0094(6) 0.0315(7)
C10 0.0657(9) 0.0638(9) 0.0610(9) 0.0126(7) 0.0201(7) 0.0266(7)
C11 0.0671(10) 0.0636(9) 0.0663(9) 0.0077(7) 0.0198(8) 0.0283(8)
N2A 0.062(4) 0.050(3) 0.050(3) -0.001(2) 0.011(2) 0.025(3)
N3A 0.062(2) 0.053(3) 0.059(3) -0.004(2) 0.0168(19) 0.026(2)
C12A 0.048(3) 0.042(3) 0.057(3) 0.011(2) 0.0139(19) 0.020(3)
C13A 0.070(3) 0.041(2) 0.067(3) -0.005(2) 0.012(3) 0.024(2)
C14A 0.066(4) 0.053(3) 0.067(4) -0.003(3) 0.017(3) 0.024(3)
N4A 0.060(3) 0.068(4) 0.056(3) 0.004(2) 0.008(2) 0.024(3)
C15A 0.061(3) 0.071(3) 0.057(4) 0.024(3) 0.025(3) 0.025(2)
C16A 0.061(4) 0.048(3) 0.068(4) 0.016(2) 0.022(3) 0.024(2)
C12B 0.050(3) 0.053(3) 0.059(3) 0.018(2) 0.0170(17) 0.023(3)
C13B 0.064(3) 0.063(4) 0.068(3) 0.019(3) 0.027(2) 0.028(3)
C14B 0.066(3) 0.056(3) 0.068(3) 0.016(2) 0.021(2) 0.018(2)
N4B 0.058(3) 0.065(3) 0.064(3) 0.013(2) 0.013(2) 0.027(2)
C15B 0.060(3) 0.077(3) 0.056(3) 0.023(2) 0.024(2) 0.0300(19)
C16B 0.062(3) 0.062(2) 0.067(4) 0.0268(19) 0.027(2) 0.0270(18)
C17 0.056(3) 0.062(5) 0.058(3) 0.018(3) 0.021(2) 0.027(4)
C18 0.053(4) 0.063(6) 0.061(3) 0.016(3) 0.020(2) 0.029(4)
N2B 0.074(8) 0.052(8) 0.057(6) 0.013(6) 0.017(6) 0.028(7)
N3B 0.082(12) 0.056(12) 0.057(10) 0.012(9) 0.023(8) 0.032(9)
loop_
_atom_type_symbol
_atom_type_description
_atom_type_scat_dispersion_real
_atom_type_scat_dispersion_imag
_atom_type_scat_source
C C 0.0181 0.0091 'International Tables Vol C Tables 4.2.6.8 and 6.1.1.4'
H H 0 0 'International Tables Vol C Tables 4.2.6.8 and 6.1.1.4'
N N 0.0311 0.018 'International Tables Vol C Tables 4.2.6.8 and 6.1.1.4'
O O 0.0492 0.0322 'International Tables Vol C Tables 4.2.6.8 and 6.1.1.4'
loop_
_exptl_crystal_face_index_h
_exptl_crystal_face_index_k
_exptl_crystal_face_index_l
_exptl_crystal_face_perp_dist
2 1 -7 0.0847
2 -1 6 0.0871
-2 -1 7 0.1232
1 -3 6 0.0981
0 -5 -2 0.0393
5 -3 -3 0.116
0 5 2 0.0131
-5 2 2 0.1027
-3 1 7 0.1163
5 -3 0 0.1098
0 -5 4 0.0805
4 1 -1 0.0622
5 -5 -1 0.1116
-5 2 3 0.1092
-5 4 -1 0.1167
loop_
_geom_angle_atom_site_label_1
_geom_angle_atom_site_label_2
_geom_angle_atom_site_label_3
_geom_angle
_geom_angle_site_symmetry_1
_geom_angle_site_symmetry_3
_geom_angle_publ_flag
C1 O1 H1 109.5 . . ?
C3 O2 H2A 109.5 . . ?
C11 N1 C7 117.13(15) . . ?
O1 C1 C6 118.27(14) . . ?
O1 C1 C2 121.88(13) . . ?
C6 C1 C2 119.85(14) . . ?
C3 C2 C1 120.36(14) . . ?
C3 C2 H2 119.8 . . ?
C1 C2 H2 119.8 . . ?
O2 C3 C2 122.09(14) . . ?
O2 C3 C4 118.05(15) . . ?
C2 C3 C4 119.86(15) . . ?
C5 C4 C3 119.05(16) . . ?
C5 C4 H4 120.5 . . ?
C3 C4 H4 120.5 . . ?
C4 C5 C6 121.93(15) . . ?
C4 C5 H5 119 . . ?
C6 C5 H5 119 . . ?
C5 C6 C1 118.94(16) . . ?
C5 C6 H6 120.5 . . ?
C1 C6 H6 120.5 . . ?
N1 C7 C8 123.86(16) . . ?
N1 C7 H7 118.1 . . ?
C8 C7 H7 118.1 . . ?
C7 C8 C9 118.21(16) . . ?
C7 C8 H8 120.9 . . ?
C9 C8 H8 120.9 . . ?
C18 C9 C10 126.4(7) . . ?
C18 C9 C8 115.0(7) . . ?
C10 C9 C8 118.61(15) . . ?
C10 C9 N2A 110.2(3) . . ?
C8 C9 N2A 131.0(3) . . ?
C10 C9 N2B 142.9(8) . . ?
C8 C9 N2B 98.4(9) . . ?
C11 C10 C9 118.76(15) . . ?
C11 C10 H10 120.6 . . ?
C9 C10 H10 120.6 . . ?
N1 C11 C10 123.39(15) . . ?
N1 C11 H11 118.3 . . ?
C10 C11 H11 118.3 . . ?
N3A N2A C9 114.7(12) . . ?
N2A N3A C12A 121.2(12) . . ?
C16A C12A C13A 116.3(5) . . ?
C16A C12A N3A 122.2(6) . . ?
C13A C12A N3A 121.5(6) . . ?
C12A C13A C14A 117.1(6) . . ?
C12A C13A H13A 121.4 . . ?
C14A C13A H13A 121.4 . . ?
N4A C14A C13A 127.3(5) . . ?
N4A C14A H14A 116.4 . . ?
C13A C14A H14A 116.4 . . ?
C14A N4A C15A 113.6(6) . . ?
N4A C15A C16A 128.0(6) . . ?
N4A C15A H15A 116 . . ?
C16A C15A H15A 116 . . ?
C15A C16A C12A 117.7(5) . . ?
C15A C16A H16A 121.1 . . ?
C12A C16A H16A 121.1 . . ?
C17 C12B C13B 115.8(6) . . ?
C17 C12B C16B 124.2(6) . . ?
C13B C12B C16B 120 . . ?
C14B C13B C12B 120 . . ?
C14B C13B H13B 120 . . ?
C12B C13B H13B 120 . . ?
N4B C14B C13B 120 . . ?
N4B C14B H14B 120 . . ?
C13B C14B H14B 120 . . ?
C14B N4B C15B 120 . . ?
N4B C15B C16B 120 . . ?
N4B C15B H15B 120 . . ?
C16B C15B H15B 120 . . ?
C15B C16B C12B 120 . . ?
C15B C16B H16B 120 . . ?
C12B C16B H16B 120 . . ?
C18 C17 C12B 175.4(19) . . ?
C17 C18 C9 171.5(16) . . ?
N3B N2B C9 109(4) . . ?
loop_
_geom_bond_atom_site_label_1
_geom_bond_atom_site_label_2
_geom_bond_distance
_geom_bond_site_symmetry_2
_geom_bond_publ_flag
O1 C1 1.3574(18) . ?
O1 H1 0.82 . ?
O2 C3 1.3579(19) . ?
O2 H2A 0.82 . ?
N1 C11 1.331(2) . ?
N1 C7 1.335(2) . ?
C1 C6 1.385(2) . ?
C1 C2 1.385(2) . ?
C2 C3 1.385(2) . ?
C2 H2 0.93 . ?
C3 C4 1.385(2) . ?
C4 C5 1.373(3) . ?
C4 H4 0.93 . ?
C5 C6 1.378(2) . ?
C5 H5 0.93 . ?
C6 H6 0.93 . ?
C7 C8 1.365(3) . ?
C7 H7 0.93 . ?
C8 C9 1.384(2) . ?
C8 H8 0.93 . ?
C9 C18 1.328(10) . ?
C9 C10 1.384(2) . ?
C9 N2A 1.557(10) . ?
C9 N2B 1.60(4) . ?
C10 C11 1.365(2) . ?
C10 H10 0.93 . ?
C11 H11 0.93 . ?
N2A N3A 1.218(11) . ?
N3A C12A 1.465(11) . ?
C12A C16A 1.369(7) . ?
C12A C13A 1.382(7) . ?
C13A C14A 1.390(8) . ?
C13A H13A 0.93 . ?
C14A N4A 1.257(9) . ?
C14A H14A 0.93 . ?
N4A C15A 1.283(8) . ?
C15A C16A 1.356(8) . ?
C15A H15A 0.93 . ?
C16A H16A 0.93 . ?
C12B C17 1.347(9) . ?
C12B C13B 1.39 . ?
C12B C16B 1.39 . ?
C13B C14B 1.39 . ?
C13B H13B 0.93 . ?
C14B N4B 1.39 . ?
C14B H14B 0.93 . ?
N4B C15B 1.39 . ?
C15B C16B 1.39 . ?
C15B H15B 0.93 . ?
C16B H16B 0.93 . ?
C17 C18 1.193(12) . ?
N2B N3B 1.24(2) . ?
loop_
_geom_hbond_atom_site_label_D
_geom_hbond_atom_site_label_H
_geom_hbond_atom_site_label_A
_geom_hbond_distance_DH
_geom_hbond_distance_HA
_geom_hbond_distance_DA
_geom_hbond_angle_DHA
_geom_hbond_site_symmetry_A
_geom_hbond_publ_flag
O1 H1 N1 0.82 1.95 2.7666(17) 173.5 1_556 yes
O2 H2A N4A^a 0.82 2.04 2.855(8) 174 2_666 yes
O2 H2A N4B^b 0.82 1.9 2.72(4) 177.8 2_666 yes
loop_
_geom_torsion_atom_site_label_1
_geom_torsion_atom_site_label_2
_geom_torsion_atom_site_label_3
_geom_torsion_atom_site_label_4
_geom_torsion
_geom_torsion_site_symmetry_1
_geom_torsion_site_symmetry_2
_geom_torsion_site_symmetry_3
_geom_torsion_site_symmetry_4
_geom_torsion_publ_flag
O1 C1 C2 C3 -179.55(13) . . . . ?
C6 C1 C2 C3 0.5(2) . . . . ?
C1 C2 C3 O2 178.18(14) . . . . ?
C1 C2 C3 C4 -1.4(2) . . . . ?
O2 C3 C4 C5 -178.31(15) . . . . ?
C2 C3 C4 C5 1.3(2) . . . . ?
C3 C4 C5 C6 -0.3(3) . . . . ?
C4 C5 C6 C1 -0.6(3) . . . . ?
O1 C1 C6 C5 -179.43(14) . . . . ?
C2 C1 C6 C5 0.5(2) . . . . ?
C11 N1 C7 C8 -0.4(3) . . . . ?
N1 C7 C8 C9 -1.4(3) . . . . ?
C7 C8 C9 C18 -177.9(6) . . . . ?
C7 C8 C9 C10 2.2(2) . . . . ?
C7 C8 C9 N2A -173.1(5) . . . . ?
C7 C8 C9 N2B -175.3(12) . . . . ?
C18 C9 C10 C11 178.8(6) . . . . ?
C8 C9 C10 C11 -1.4(2) . . . . ?
N2A C9 C10 C11 174.9(4) . . . . ?
N2B C9 C10 C11 175(2) . . . . ?
C7 N1 C11 C10 1.3(2) . . . . ?
C9 C10 C11 N1 -0.4(2) . . . . ?
C10 C9 N2A N3A -177.9(6) . . . . ?
C8 C9 N2A N3A -2.2(10) . . . . ?
C9 N2A N3A C12A 178.6(7) . . . . ?
N2A N3A C12A C16A 0.1(13) . . . . ?
N2A N3A C12A C13A -177.3(9) . . . . ?
C16A C12A C13A C14A 1.8(7) . . . . ?
N3A C12A C13A C14A 179.4(11) . . . . ?
C12A C13A C14A N4A -0.7(8) . . . . ?
C13A C14A N4A C15A -0.7(7) . . . . ?
C14A N4A C15A C16A 1.2(8) . . . . ?
N4A C15A C16A C12A -0.1(8) . . . . ?
C13A C12A C16A C15A -1.5(7) . . . . ?
N3A C12A C16A C15A -179.0(10) . . . . ?
C17 C12B C13B C14B -179.9(9) . . . . ?
C16B C12B C13B C14B 0 . . . . ?
C12B C13B C14B N4B 0 . . . . ?
C13B C14B N4B C15B 0 . . . . ?
C14B N4B C15B C16B 0 . . . . ?
N4B C15B C16B C12B 0 . . . . ?
C17 C12B C16B C15B 179.9(9) . . . . ?
C13B C12B C16B C15B 0 . . . . ?
C10 C9 N2B N3B -3(4) . . . . ?
C8 C9 N2B N3B 174(3) . . . . ?
