#------------------------------------------------------------------------------
#$Date: 2020-06-06 04:11:42 +0300 (Sat, 06 Jun 2020) $
#$Revision: 252959 $
#$URL: file:///home/coder/svn-repositories/cod/cif/1/55/82/1558227.cif $
#------------------------------------------------------------------------------
#
# This file is available in the Crystallography Open Database (COD),
# http://www.crystallography.net/
#
# All data on this site have been placed in the public domain by the
# contributors.
#
data_1558227
loop_
_publ_author_name
'Ding, Xiaodan'
'Unruh, Daniel K.'
'Groeneman , Ryan'
'Hutchins, Kristin M.'
_publ_section_title
;
 Controlling thermal expansion within mixed cocrystals by tuning molecular
 motion capability
;
_journal_name_full               'Chemical Science'
_journal_paper_doi               10.1039/D0SC02795B
_journal_year                    2020
_chemical_formula_sum            'C16.47 H14 N3.52 O2'
_chemical_formula_weight         293.21
_space_group_IT_number           2
_space_group_name_Hall           '-P 1'
_space_group_name_H-M_alt        'P -1'
_symmetry_cell_setting           triclinic
_symmetry_Int_Tables_number      2
_symmetry_space_group_name_Hall  '-P 1'
_symmetry_space_group_name_H-M   'P -1'
_atom_sites_solution_hydrogens   geom
_atom_sites_solution_primary     dual
_atom_sites_solution_secondary   difmap
_audit_creation_date             2019-11-07T15:25:03-00:00
_audit_creation_method           'WinGX routine CIF_UPDATE'
_audit_update_record
;
2020-04-08 deposited with the CCDC.	2020-06-05 downloaded from the CCDC.
;
_cell_angle_alpha                93.754(3)
_cell_angle_beta                 106.789(3)
_cell_angle_gamma                113.675(4)
_cell_formula_units_Z            2
_cell_length_a                   8.0903(3)
_cell_length_b                   9.7624(3)
_cell_length_c                   10.8911(3)
_cell_measurement_reflns_used    5180
_cell_measurement_temperature    290(2)
_cell_measurement_theta_max      73.76
_cell_measurement_theta_min      4.341
_cell_volume                     737.88(5)
_computing_cell_refinement       'CrysAlisPro 1.171.40.63a (Rigaku OD, 2019)'
_computing_data_collection       'CrysAlisPro 1.171.40.63a (Rigaku OD, 2019)'
_computing_data_reduction        'CrysAlisPro 1.171.40.63a (Rigaku OD, 2019)'
_computing_structure_refinement  'SHELXL-2018/3 (Sheldrick, 2018)'
_computing_structure_solution    'SHELXT 2014/5 (Sheldrick, 2014)'
_diffrn_ambient_environment      air
_diffrn_ambient_temperature      290(2)
_diffrn_detector                 'Hybrid Pixel Array Detector'
_diffrn_detector_area_resol_mean 10
_diffrn_detector_type            HyPix
_diffrn_measured_fraction_theta_full 0.993
_diffrn_measured_fraction_theta_max 0.953
_diffrn_measurement_device       'four-circle diffractometer'
_diffrn_measurement_device_type  'XtaLAB Synergy, Dualflex, HyPix'
_diffrn_measurement_method       '\w scans'
_diffrn_orient_matrix_type
'CrysAlisPro convention (1999,Acta A55,543-557)'
_diffrn_orient_matrix_UB_11      -0.0450258
_diffrn_orient_matrix_UB_12      -0.1162217
_diffrn_orient_matrix_UB_13      0.0889076
_diffrn_orient_matrix_UB_21      -0.1889378
_diffrn_orient_matrix_UB_22      -0.1070355
_diffrn_orient_matrix_UB_23      -0.1109451
_diffrn_orient_matrix_UB_31      0.1064899
_diffrn_orient_matrix_UB_32      -0.0778108
_diffrn_orient_matrix_UB_33      -0.0509262
_diffrn_radiation_monochromator  mirror
_diffrn_radiation_probe          x-ray
_diffrn_radiation_type           CuK\a
_diffrn_radiation_wavelength     1.54178
_diffrn_reflns_av_R_equivalents  0.0425
_diffrn_reflns_av_unetI/netI     0.0583
_diffrn_reflns_Laue_measured_fraction_full 0.993
_diffrn_reflns_Laue_measured_fraction_max 0.953
_diffrn_reflns_limit_h_max       10
_diffrn_reflns_limit_h_min       -8
_diffrn_reflns_limit_k_max       11
_diffrn_reflns_limit_k_min       -12
_diffrn_reflns_limit_l_max       11
_diffrn_reflns_limit_l_min       -13
_diffrn_reflns_number            12567
_diffrn_reflns_point_group_measured_fraction_full 0.993
_diffrn_reflns_point_group_measured_fraction_max 0.953
_diffrn_reflns_theta_full        67.679
_diffrn_reflns_theta_max         77.337
_diffrn_reflns_theta_min         4.334
_diffrn_source                   'micro-focus sealed X-ray tube'
_diffrn_source_type              'PhotonJet (Cu) X-ray Source'
_exptl_absorpt_coefficient_mu    0.734
_exptl_absorpt_correction_T_max  1
_exptl_absorpt_correction_T_min  0.648
_exptl_absorpt_correction_type   gaussian
_exptl_absorpt_process_details
;
        CrysAlisPro 1.171.40.63a (Rigaku Oxford Diffraction, 2019)
Numerical absorption correction based on gaussian integration over
                        a multifaceted crystal model
        Empirical absorption correction using spherical harmonics,
 implemented in SCALE3 ABSPACK scaling algorithm.
;
_exptl_crystal_colour            'clear pale yellow'
_exptl_crystal_density_diffrn    1.32
_exptl_crystal_description       plate
_exptl_crystal_F_000             307
_exptl_crystal_size_max          0.206
_exptl_crystal_size_mid          0.157
_exptl_crystal_size_min          0.026
_refine_diff_density_max         0.209
_refine_diff_density_min         -0.253
_refine_diff_density_rms         0.056
_refine_ls_extinction_coef       0.010(2)
_refine_ls_extinction_expression Fc^*^=kFc[1+0.001xFc^2^\l^3^/sin(2\q)]^-1/4^
_refine_ls_extinction_method     'SHELXL-2018/3 (Sheldrick 2018)'
_refine_ls_goodness_of_fit_ref   1.081
_refine_ls_hydrogen_treatment    constr
_refine_ls_matrix_type           full
_refine_ls_number_parameters     284
_refine_ls_number_reflns         2993
_refine_ls_number_restraints     507
_refine_ls_restrained_S_all      1.011
_refine_ls_R_factor_all          0.0676
_refine_ls_R_factor_gt           0.0542
_refine_ls_shift/su_max          0
_refine_ls_shift/su_mean         0
_refine_ls_structure_factor_coef Fsqd
_refine_ls_weighting_details
'w=1/[\s^2^(Fo^2^)+(0.0999P)^2^+0.0683P] where P=(Fo^2^+2Fc^2^)/3'
_refine_ls_weighting_scheme      calc
_refine_ls_wR_factor_gt          0.151
_refine_ls_wR_factor_ref         0.179
_reflns_Friedel_coverage         0
_reflns_number_gt                2273
_reflns_number_total             2993
_reflns_threshold_expression     'I > 2\s(I)'
_cod_data_source_file            d0sc02795b3.cif
_cod_data_source_block           A75_BA25_290
_cod_database_code               1558227
_shelx_estimated_absorpt_t_min   0.864
_shelx_estimated_absorpt_t_max   0.981
_shelx_shelxl_version_number     2018/3
_shelx_res_file
;
TITL 290_a.res in P-1
    290_a.res
    created by SHELXL-2018/3 at 16:51:48 on 05-Nov-2019
REM Old TITL 290 in P-1

REM SHELXT solution in P-1
REM R1 0.172,  Rweak 0.007,  Alpha 0.032,  Orientation as input
REM Formula found by SHELXT:  C18 N2 O2

CELL  1.54178   8.090308   9.762357  10.891065  93.7543 106.7889 113.6747
ZERR    2.000   0.000323   0.000340   0.000338   0.0027   0.0032   0.0037
LATT  1
SFAC C H N O
UNIT 32.9374 28 7.03924 4
TEMP 17.2
SIZE 0.206 0.157 0.026
L.S. 10
BOND $H
ACTA
LIST 4
FMAP 2
PLAN 20

RIGU
SIMU 0.02 C12A C12B C13A C13B C14A C14B C15A C15B C16A C16B N4A N4B
SIMU 0.02 N2A N3A N2B N3B C17 C18

EQIV $2 x, y, z+1
EQIV $3 -x+1, -y+1, -z+1

HTAB O1 N1_$2
HTAB O2 N4A_$3
HTAB O2 N4B_$3

DFIX 1.20 0.02 C17 C18
DFIX 1.25 0.02 N2A N3A
DFIX 1.25 0.02 N2B N3B
DFIX 51 C12B C17 C18 C9

SUMP 1.0 0.01 1.0 2 1.0 3 1.0 4

OMIT    -5  -3   9

WGHT    0.099900    0.068300
EXTI    0.009616
FVAR       0.92940   0.60764   0.23435   0.15217   1.25846
O1    4    0.167316    0.153262    0.312120    11.00000    0.06742    0.07955 =
         0.05969    0.00617    0.01702    0.02854
AFIX 147
H1    2    0.197958    0.176011    0.391933    11.00000   -1.50000
AFIX   0
O2    4    0.817553    0.217135    0.434559    11.00000    0.07596    0.10548 =
         0.07099   -0.00274    0.01965    0.04544
AFIX 147
H2A   2    0.822719    0.255613    0.505617    11.00000   -1.50000
AFIX   0
N1    3    0.261077    0.247420   -0.421104    11.00000    0.06820    0.07887 =
         0.06198    0.00661    0.02021    0.03323
C1    1    0.318313    0.150686    0.281860    11.00000    0.06901    0.04609 =
         0.05350    0.00509    0.01777    0.02155
C2    1    0.491845    0.183039    0.378038    11.00000    0.07172    0.05330 =
         0.04924    0.00267    0.01910    0.02504
AFIX  43
H2    2    0.506788    0.206031    0.465949    11.00000   -1.20000
AFIX   0
C3    1    0.643774    0.181272    0.343653    11.00000    0.07125    0.05626 =
         0.05862    0.00220    0.01953    0.02825
C4    1    0.619592    0.142390    0.212970    11.00000    0.08767    0.06419 =
         0.06594    0.00115    0.03282    0.03435
AFIX  43
H4    2    0.718918    0.137624    0.189073    11.00000   -1.20000
AFIX   0
C5    1    0.445266    0.110755    0.118561    11.00000    0.10344    0.06703 =
         0.05259    0.00150    0.02819    0.03620
AFIX  43
H5    2    0.429496    0.086538    0.030626    11.00000   -1.20000
AFIX   0
C6    1    0.294218    0.114091    0.151060    11.00000    0.08141    0.06153 =
         0.05182    0.00305    0.01458    0.02690
AFIX  43
H6    2    0.177977    0.092083    0.086064    11.00000   -1.20000
AFIX   0
C7    1    0.326842    0.396319   -0.373767    11.00000    0.07630    0.07045 =
         0.07810    0.01992    0.02705    0.02801
AFIX  43
H7    2    0.376306    0.465469   -0.423468    11.00000   -1.20000
AFIX   0
C8    1    0.325112    0.452565   -0.255214    11.00000    0.07841    0.05891 =
         0.07780    0.00323    0.01521    0.02988
AFIX  43
H8    2    0.373674    0.557170   -0.224899    11.00000   -1.20000
AFIX   0
C9    1    0.249637    0.349913   -0.182792    11.00000    0.06323    0.07385 =
         0.05569    0.00101    0.01013    0.03637
C10   1    0.184420    0.196304   -0.229565    11.00000    0.07396    0.06667 =
         0.05980    0.00885    0.01914    0.02978
AFIX  43
H10   2    0.135209    0.124877   -0.181441    11.00000   -1.20000
AFIX   0
C11   1    0.193154    0.150719   -0.347359    11.00000    0.07490    0.06181 =
         0.06514    0.00392    0.01898    0.02847
AFIX  43
H11   2    0.149504    0.046805   -0.377951    11.00000   -1.20000
AFIX   0
PART  1
N2A   3    0.212705    0.378358   -0.057641    21.00000    0.06582    0.05500 =
         0.04813    0.00430    0.01813    0.02496
N3A   3    0.265492    0.513568   -0.016106    21.00000    0.07218    0.05500 =
         0.05346    0.00096    0.02284    0.02737
C12A  1    0.233093    0.553389    0.101769    21.00000    0.05402    0.04508 =
         0.05376    0.00715    0.01520    0.02026
C13A  1    0.284110    0.705526    0.148438    21.00000    0.07479    0.04690 =
         0.06383   -0.00050    0.01683    0.02624
AFIX  43
H13A  2    0.340707    0.781332    0.106069    21.00000   -1.20000
AFIX   0
C14A  1    0.248097    0.740821    0.259982    21.00000    0.06922    0.05689 =
         0.06657   -0.00166    0.01689    0.02680
AFIX  43
H14A  2    0.282835    0.843107    0.290779    21.00000   -1.20000
AFIX   0
N4A   3    0.169945    0.643107    0.325101    21.00000    0.06051    0.06986 =
         0.05132   -0.00249    0.01363    0.02283
C15A  1    0.121702    0.500058    0.278131    21.00000    0.06996    0.06654 =
         0.05200    0.01248    0.01943    0.02713
AFIX  43
H15A  2    0.064095    0.427351    0.322570    21.00000   -1.20000
AFIX   0
C16A  1    0.149232    0.448604    0.168572    21.00000    0.06822    0.05322 =
         0.05676    0.01152    0.02349    0.02579
AFIX  43
H16A  2    0.111685    0.345125    0.140746    21.00000   -1.20000
AFIX  66
PART  2
C12B  1    0.204834    0.512723    0.116074   -21.00000    0.05799    0.06740 =
         0.05799    0.02200    0.02450    0.02845
C13B  1    0.280359    0.671258    0.142360   -21.00000    0.06824    0.06814 =
         0.06690    0.01830    0.02490    0.02762
AFIX  43
H13B  2    0.337488    0.726677    0.087467   -21.00000   -1.20000
AFIX  65
C14B  1    0.270499    0.746964    0.250688   -21.00000    0.06879    0.06650 =
         0.06587    0.01120    0.02093    0.01532
AFIX  43
H14B  2    0.321031    0.853035    0.268275   -21.00000   -1.20000
AFIX  65
N4B   3    0.185113    0.664135    0.332733   -21.00000    0.06683    0.06449 =
         0.06412    0.01035    0.00473    0.02515
C15B  1    0.109587    0.505600    0.306448   -21.00000    0.06668    0.07654 =
         0.05367    0.01779    0.01895    0.02837
AFIX  43
H15B  2    0.052458    0.450183    0.361341   -21.00000   -1.20000
AFIX  65
C16B  1    0.119446    0.429892    0.198120   -21.00000    0.06601    0.06117 =
         0.06579    0.02341    0.02972    0.02716
AFIX  43
H16B  2    0.068914    0.323821    0.180534   -21.00000   -1.20000
AFIX   0
C17   1    0.234218    0.461445    0.018521    31.00000    0.06385    0.06661 =
         0.06231    0.01010    0.02225    0.02996
C18   1    0.255261    0.413815   -0.077491    31.00000    0.05874    0.06327 =
         0.06796    0.00367    0.02286    0.02751
PART  3
N2B   3    0.280342    0.476808   -0.069498    41.00000    0.06331    0.05988 =
         0.05825    0.01372    0.02973    0.02052
N3B   3    0.188639    0.394806   -0.005417    41.00000    0.06560    0.07070 =
         0.05649    0.01855    0.02367    0.02492
HKLF 4




REM  290_a.res in P-1
REM wR2 = 0.179041, GooF = S = 1.08144, Restrained GooF = 1.01104 for all data
REM R1 = 0.054224 for 2290 Fo > 4sig(Fo) and 0.067609 for all 2993 data
REM 284 parameters refined using 507 restraints

END

WGHT      0.0982      0.0696

REM Highest difference peak  0.209,  deepest hole -0.253,  1-sigma level  0.056
Q1    1   0.2517  0.2270 -0.4822  11.00000  0.05    0.20
Q2    1   0.1953  0.6757  0.4015  11.00000  0.05    0.20
Q3    1   0.8475  0.1301  0.2665  11.00000  0.05    0.19
Q4    1   0.3529  0.3944 -0.2821  11.00000  0.05    0.19
Q5    1   0.3465  0.2714 -0.5002  11.00000  0.05    0.19
Q6    1   0.7804  0.1079  0.2009  11.00000  0.05    0.18
Q7    1   0.2459  0.2874 -0.1975  11.00000  0.05    0.17
Q8    1   0.9015  0.2058  0.3380  11.00000  0.05    0.16
Q9    1   0.3300  0.0995  0.2555  11.00000  0.05    0.16
Q10   1   0.2707  0.5594 -0.0970  11.00000  0.05    0.15
Q11   1   0.2314  0.0085  0.2138  11.00000  0.05    0.15
Q12   1   0.1797  0.0525  0.3230  11.00000  0.05    0.15
Q13   1   0.8002  0.1831  0.5136  11.00000  0.05    0.14
Q14   1   0.2805  0.6769  0.2419  11.00000  0.05    0.14
Q15   1   0.2602 -0.0190 -0.0482  11.00000  0.05    0.14
Q16   1   0.3181  0.5360 -0.1381  11.00000  0.05    0.14
Q17   1   0.2040  0.4604 -0.0592  11.00000  0.05    0.13
Q18   1   0.3288  0.0443  0.1789  11.00000  0.05    0.13
Q19   1   0.8358  0.1059  0.1379  11.00000  0.05    0.13
Q20   1   0.3156  0.1176  0.4015  11.00000  0.05    0.13
;
_shelx_res_checksum              45373
loop_
_symmetry_equiv_pos_as_xyz
'x, y, z'
'-x, -y, -z'
loop_
_atom_site_label
_atom_site_type_symbol
_atom_site_fract_x
_atom_site_fract_y
_atom_site_fract_z
_atom_site_U_iso_or_equiv
_atom_site_adp_type
_atom_site_occupancy
_atom_site_site_symmetry_order
_atom_site_calc_flag
_atom_site_refinement_flags_posn
_atom_site_refinement_flags_adp
_atom_site_refinement_flags_occupancy
_atom_site_disorder_assembly
_atom_site_disorder_group
O1 O 0.16732(19) 0.15326(16) 0.31212(12) 0.0718(4) Uani 1 1 d . . . . .
H1 H 0.197958 0.176011 0.391933 0.108 Uiso 1 1 calc R U . . .
O2 O 0.8176(2) 0.21713(19) 0.43456(14) 0.0847(5) Uani 1 1 d . . . . .
H2A H 0.822719 0.255613 0.505617 0.127 Uiso 1 1 calc R U . . .
N1 N 0.2611(2) 0.24742(19) -0.42110(16) 0.0703(4) Uani 1 1 d . . . . .
C1 C 0.3183(3) 0.15069(18) 0.28186(16) 0.0586(4) Uani 1 1 d . . . . .
C2 C 0.4918(3) 0.18304(19) 0.37804(16) 0.0598(4) Uani 1 1 d . . . . .
H2 H 0.506788 0.206031 0.465949 0.072 Uiso 1 1 calc R U . . .
C3 C 0.6438(3) 0.1813(2) 0.34365(17) 0.0632(5) Uani 1 1 d . . . . .
C4 C 0.6196(3) 0.1424(2) 0.21297(19) 0.0714(5) Uani 1 1 d . . . . .
H4 H 0.718918 0.137624 0.189073 0.086 Uiso 1 1 calc R U . . .
C5 C 0.4453(3) 0.1108(2) 0.11856(18) 0.0751(6) Uani 1 1 d . . . . .
H5 H 0.429496 0.086538 0.030626 0.09 Uiso 1 1 calc R U . . .
C6 C 0.2942(3) 0.1141(2) 0.15106(18) 0.0690(5) Uani 1 1 d . . . . .
H6 H 0.177977 0.092083 0.086064 0.083 Uiso 1 1 calc R U . . .
C7 C 0.3268(3) 0.3963(2) -0.3738(2) 0.0761(5) Uani 1 1 d . . . . .
H7 H 0.376306 0.465469 -0.423468 0.091 Uiso 1 1 calc R U . . .
C8 C 0.3251(3) 0.4526(2) -0.2552(2) 0.0752(5) Uani 1 1 d . . . . .
H8 H 0.373674 0.55717 -0.224899 0.09 Uiso 1 1 calc R U . . .
C9 C 0.2496(3) 0.3499(2) -0.18279(18) 0.0652(5) Uani 1 1 d D . . . .
C10 C 0.1844(3) 0.1963(2) -0.22957(18) 0.0684(5) Uani 1 1 d . . . . .
H10 H 0.135209 0.124877 -0.181441 0.082 Uiso 1 1 calc R U . . .
C11 C 0.1932(3) 0.1507(2) -0.34736(19) 0.0696(5) Uani 1 1 d . . . . .
H11 H 0.149504 0.046805 -0.377951 0.083 Uiso 1 1 calc R U . . .
N2A N 0.2127(10) 0.3784(6) -0.0576(6) 0.0576(14) Uani 0.608(14) 1 d D U P A 1
N3A N 0.2655(7) 0.5136(6) -0.0161(6) 0.0607(12) Uani 0.608(14) 1 d D U P A 1
C12A C 0.2331(12) 0.5534(8) 0.1018(7) 0.0525(11) Uani 0.608(14) 1 d . U P A 1
C13A C 0.2841(15) 0.7055(8) 0.1484(8) 0.0643(13) Uani 0.608(14) 1 d . U P A 1
H13A H 0.340707 0.781332 0.106069 0.077 Uiso 0.608(14) 1 calc R U P A 1
C14A C 0.2481(16) 0.7408(7) 0.2600(9) 0.0669(17) Uani 0.608(14) 1 d . U P A 1
H14A H 0.282835 0.843107 0.290779 0.08 Uiso 0.608(14) 1 calc R U P A 1
N4A N 0.1699(15) 0.6431(10) 0.3251(8) 0.0647(16) Uani 0.608(14) 1 d . U P A 1
C15A C 0.1217(14) 0.5001(10) 0.2781(8) 0.0642(13) Uani 0.608(14) 1 d . U P A 1
H15A H 0.064095 0.427351 0.32257 0.077 Uiso 0.608(14) 1 calc R U P A 1
C16A C 0.1492(11) 0.4486(7) 0.1686(7) 0.0593(14) Uani 0.608(14) 1 d . U P A 1
H16A H 0.111685 0.345125 0.140746 0.071 Uiso 0.608(14) 1 calc R U P A 1
C12B C 0.2048(19) 0.5127(13) 0.1161(10) 0.059(2) Uani 0.392(14) 1 d DG U P A 2
C13B C 0.280(2) 0.6713(13) 0.1424(12) 0.068(3) Uani 0.392(14) 1 d G U P A 2
H13B H 0.337488 0.726677 0.087467 0.082 Uiso 0.392(14) 1 calc R U P A 2
C14B C 0.270(2) 0.7470(11) 0.2507(14) 0.073(3) Uani 0.392(14) 1 d G U P A 2
H14B H 0.321031 0.853035 0.268275 0.087 Uiso 0.392(14) 1 calc R U P A 2
N4B N 0.185(2) 0.6641(16) 0.3327(12) 0.071(3) Uani 0.392(14) 1 d G U P A 2
C15B C 0.110(2) 0.5056(15) 0.3064(12) 0.067(2) Uani 0.392(14) 1 d G U P A 2
H15B H 0.052458 0.450183 0.361341 0.08 Uiso 0.392(14) 1 calc R U P A 2
C16B C 0.1194(18) 0.4299(11) 0.1981(12) 0.062(2) Uani 0.392(14) 1 d G U P A 2
H16B H 0.068914 0.323821 0.180534 0.075 Uiso 0.392(14) 1 calc R U P A 2
C17 C 0.234(3) 0.461(4) 0.0185(15) 0.064(3) Uani 0.234(17) 1 d D U P A 2
C18 C 0.255(4) 0.414(4) -0.0775(18) 0.063(4) Uani 0.234(17) 1 d D U P A 2
N2B N 0.280(3) 0.477(3) -0.069(2) 0.061(3) Uani 0.152(10) 1 d D U P A 3
N3B N 0.189(3) 0.395(4) -0.005(3) 0.065(4) Uani 0.152(10) 1 d D U P A 3
loop_
_atom_site_aniso_label
_atom_site_aniso_U_11
_atom_site_aniso_U_22
_atom_site_aniso_U_33
_atom_site_aniso_U_23
_atom_site_aniso_U_13
_atom_site_aniso_U_12
O1 0.0674(8) 0.0796(9) 0.0597(7) 0.0062(6) 0.0170(6) 0.0285(7)
O2 0.0760(9) 0.1055(11) 0.0710(9) -0.0027(8) 0.0197(7) 0.0454(8)
N1 0.0682(9) 0.0789(10) 0.0620(9) 0.0066(7) 0.0202(7) 0.0332(8)
C1 0.0690(10) 0.0461(8) 0.0535(9) 0.0051(6) 0.0178(8) 0.0215(7)
C2 0.0717(10) 0.0533(9) 0.0492(9) 0.0027(7) 0.0191(8) 0.0250(8)
C3 0.0713(11) 0.0563(9) 0.0586(10) 0.0022(7) 0.0195(8) 0.0282(8)
C4 0.0877(13) 0.0642(11) 0.0659(11) 0.0012(8) 0.0328(10) 0.0344(10)
C5 0.1034(15) 0.0670(11) 0.0526(10) 0.0015(8) 0.0282(10) 0.0362(11)
C6 0.0814(12) 0.0615(10) 0.0518(9) 0.0031(7) 0.0146(9) 0.0269(9)
C7 0.0763(12) 0.0705(12) 0.0781(13) 0.0199(10) 0.0271(10) 0.0280(10)
C8 0.0784(12) 0.0589(10) 0.0778(12) 0.0032(9) 0.0152(10) 0.0299(9)
C9 0.0632(10) 0.0739(11) 0.0557(10) 0.0010(8) 0.0101(8) 0.0364(9)
C10 0.0740(11) 0.0667(11) 0.0598(10) 0.0089(8) 0.0191(9) 0.0298(9)
C11 0.0749(12) 0.0618(10) 0.0651(11) 0.0039(8) 0.0190(9) 0.0285(9)
N2A 0.066(3) 0.055(2) 0.048(2) 0.0043(17) 0.0181(17) 0.0250(19)
N3A 0.0722(19) 0.055(2) 0.053(2) 0.0010(16) 0.0228(15) 0.0274(16)
C12A 0.054(2) 0.045(3) 0.054(2) 0.0071(19) 0.0152(15) 0.020(2)
C13A 0.075(2) 0.047(2) 0.064(2) -0.0005(17) 0.0168(19) 0.0262(19)
C14A 0.069(3) 0.057(3) 0.067(3) -0.002(2) 0.017(2) 0.027(2)
N4A 0.061(3) 0.070(3) 0.051(2) -0.0025(19) 0.0136(19) 0.023(2)
C15A 0.070(2) 0.067(2) 0.052(3) 0.012(2) 0.019(2) 0.0271(19)
C16A 0.068(3) 0.053(2) 0.057(3) 0.0115(19) 0.023(2) 0.026(2)
C12B 0.058(4) 0.067(5) 0.058(3) 0.022(3) 0.025(3) 0.028(4)
C13B 0.068(4) 0.068(5) 0.067(4) 0.018(4) 0.025(3) 0.028(4)
C14B 0.069(5) 0.067(5) 0.066(5) 0.011(4) 0.021(4) 0.015(3)
N4B 0.067(4) 0.064(4) 0.064(5) 0.010(3) 0.005(3) 0.025(3)
C15B 0.067(4) 0.077(4) 0.054(5) 0.018(3) 0.019(3) 0.028(3)
C16B 0.066(4) 0.061(3) 0.066(5) 0.023(3) 0.030(3) 0.027(3)
C17 0.064(6) 0.067(8) 0.062(5) 0.010(5) 0.022(4) 0.030(6)
C18 0.059(7) 0.063(8) 0.068(5) 0.004(5) 0.023(4) 0.028(7)
N2B 0.063(6) 0.060(7) 0.058(6) 0.014(5) 0.030(5) 0.021(6)
N3B 0.066(8) 0.071(11) 0.056(8) 0.019(8) 0.024(7) 0.025(7)
loop_
_atom_type_symbol
_atom_type_description
_atom_type_scat_dispersion_real
_atom_type_scat_dispersion_imag
_atom_type_scat_source
C C 0.0181 0.0091 'International Tables Vol C Tables 4.2.6.8 and 6.1.1.4'
H H 0 0 'International Tables Vol C Tables 4.2.6.8 and 6.1.1.4'
N N 0.0311 0.018 'International Tables Vol C Tables 4.2.6.8 and 6.1.1.4'
O O 0.0492 0.0322 'International Tables Vol C Tables 4.2.6.8 and 6.1.1.4'
loop_
_exptl_crystal_face_index_h
_exptl_crystal_face_index_k
_exptl_crystal_face_index_l
_exptl_crystal_face_perp_dist
-5 4 3 0.1092
5 -4 -4 0.116
-2 4 5 0.0741
0 5 -5 0.001
3 3 -3 0.045
4 -1 1 0.0687
0 -5 5 0.0227
-4 1 -1 0.0879
0 -4 -4 0.1248
3 -5 -4 0.107
loop_
_geom_angle_atom_site_label_1
_geom_angle_atom_site_label_2
_geom_angle_atom_site_label_3
_geom_angle
_geom_angle_site_symmetry_1
_geom_angle_site_symmetry_3
_geom_angle_publ_flag
C1 O1 H1 109.5 . . ?
C3 O2 H2A 109.5 . . ?
C11 N1 C7 117.22(17) . . ?
O1 C1 C6 118.10(16) . . ?
O1 C1 C2 121.76(15) . . ?
C6 C1 C2 120.15(17) . . ?
C1 C2 C3 120.26(16) . . ?
C1 C2 H2 119.9 . . ?
C3 C2 H2 119.9 . . ?
O2 C3 C4 118.13(17) . . ?
O2 C3 C2 122.02(16) . . ?
C4 C3 C2 119.85(18) . . ?
C5 C4 C3 118.89(18) . . ?
C5 C4 H4 120.6 . . ?
C3 C4 H4 120.6 . . ?
C6 C5 C4 121.89(17) . . ?
C6 C5 H5 119.1 . . ?
C4 C5 H5 119.1 . . ?
C5 C6 C1 118.93(18) . . ?
C5 C6 H6 120.5 . . ?
C1 C6 H6 120.5 . . ?
N1 C7 C8 123.3(2) . . ?
N1 C7 H7 118.3 . . ?
C8 C7 H7 118.3 . . ?
C9 C8 C7 118.18(18) . . ?
C9 C8 H8 120.9 . . ?
C7 C8 H8 120.9 . . ?
C18 C9 C8 112.5(16) . . ?
C18 C9 C10 128.4(16) . . ?
C8 C9 C10 119.00(18) . . ?
C8 C9 N2A 129.2(3) . . ?
C10 C9 N2A 111.7(3) . . ?
C8 C9 N2B 94.3(6) . . ?
C10 C9 N2B 146.7(6) . . ?
C11 C10 C9 118.91(19) . . ?
C11 C10 H10 120.5 . . ?
C9 C10 H10 120.5 . . ?
N1 C11 C10 123.33(18) . . ?
N1 C11 H11 118.3 . . ?
C10 C11 H11 118.3 . . ?
N3A N2A C9 112.7(8) . . ?
N2A N3A C12A 117.3(8) . . ?
C16A C12A C13A 117.7(4) . . ?
C16A C12A N3A 123.5(5) . . ?
C13A C12A N3A 118.7(5) . . ?
C14A C13A C12A 117.8(4) . . ?
C14A C13A H13A 121.1 . . ?
C12A C13A H13A 121.1 . . ?
N4A C14A C13A 125.3(4) . . ?
N4A C14A H14A 117.3 . . ?
C13A C14A H14A 117.3 . . ?
C14A N4A C15A 115.5(4) . . ?
N4A C15A C16A 125.4(5) . . ?
N4A C15A H15A 117.3 . . ?
C16A C15A H15A 117.3 . . ?
C12A C16A C15A 118.2(4) . . ?
C12A C16A H16A 120.9 . . ?
C15A C16A H16A 120.9 . . ?
C17 C12B C13B 112.5(14) . . ?
C17 C12B C16B 127.4(14) . . ?
C13B C12B C16B 120 . . ?
C12B C13B C14B 120 . . ?
C12B C13B H13B 120 . . ?
C14B C13B H13B 120 . . ?
N4B C14B C13B 120 . . ?
N4B C14B H14B 120 . . ?
C13B C14B H14B 120 . . ?
C14B N4B C15B 120 . . ?
C16B C15B N4B 120 . . ?
C16B C15B H15B 120 . . ?
N4B C15B H15B 120 . . ?
C15B C16B C12B 120 . . ?
C15B C16B H16B 120 . . ?
C12B C16B H16B 120 . . ?
C18 C17 C12B 177(2) . . ?
C17 C18 C9 171(4) . . ?
N3B N2B C9 100(3) . . ?
loop_
_geom_bond_atom_site_label_1
_geom_bond_atom_site_label_2
_geom_bond_distance
_geom_bond_site_symmetry_2
_geom_bond_publ_flag
O1 C1 1.363(2) . ?
O1 H1 0.82 . ?
O2 C3 1.354(2) . ?
O2 H2A 0.82 . ?
N1 C11 1.333(3) . ?
N1 C7 1.336(3) . ?
C1 C6 1.383(2) . ?
C1 C2 1.385(2) . ?
C2 C3 1.390(3) . ?
C2 H2 0.93 . ?
C3 C4 1.384(3) . ?
C4 C5 1.383(3) . ?
C4 H4 0.93 . ?
C5 C6 1.378(3) . ?
C5 H5 0.93 . ?
C6 H6 0.93 . ?
C7 C8 1.376(3) . ?
C7 H7 0.93 . ?
C8 C9 1.375(3) . ?
C8 H8 0.93 . ?
C9 C18 1.249(14) . ?
C9 C10 1.377(3) . ?
C9 N2A 1.509(7) . ?
C9 N2B 1.58(3) . ?
C10 C11 1.361(3) . ?
C10 H10 0.93 . ?
C11 H11 0.93 . ?
N2A N3A 1.219(7) . ?
N3A C12A 1.442(9) . ?
C12A C16A 1.364(6) . ?
C12A C13A 1.386(6) . ?
C13A C14A 1.382(7) . ?
C13A H13A 0.93 . ?
C14A N4A 1.295(6) . ?
C14A H14A 0.93 . ?
N4A C15A 1.311(6) . ?
C15A C16A 1.375(7) . ?
C15A H15A 0.93 . ?
C16A H16A 0.93 . ?
C12B C17 1.268(13) . ?
C12B C13B 1.39 . ?
C12B C16B 1.39 . ?
C13B C14B 1.39 . ?
C13B H13B 0.93 . ?
C14B N4B 1.39 . ?
C14B H14B 0.93 . ?
N4B C15B 1.39 . ?
C15B C16B 1.39 . ?
C15B H15B 0.93 . ?
C16B H16B 0.93 . ?
C17 C18 1.201(18) . ?
N2B N3B 1.254(18) . ?
loop_
_geom_hbond_atom_site_label_D
_geom_hbond_atom_site_label_H
_geom_hbond_atom_site_label_A
_geom_hbond_distance_DH
_geom_hbond_distance_HA
_geom_hbond_distance_DA
_geom_hbond_angle_DHA
_geom_hbond_site_symmetry_A
_geom_hbond_publ_flag
O1 H1 N1 0.82 1.95 2.771(2) 173.7 1_556 yes
O2 H2A N4A 0.82 2.01 2.827(6) 177 2_666 yes
O2 H2A N4B 0.82 1.91 2.73(6) 175.8 2_666 yes
