#------------------------------------------------------------------------------
#$Date: 2020-06-06 04:19:29 +0300 (Sat, 06 Jun 2020) $
#$Revision: 252960 $
#$URL: file:///home/coder/svn-repositories/cod/cif/1/55/82/1558235.cif $
#------------------------------------------------------------------------------
#
# This file is available in the Crystallography Open Database (COD),
# http://www.crystallography.net/
#
# All data on this site have been placed in the public domain by the
# contributors.
#
data_1558235
loop_
_publ_author_name
'Ding, Xiaodan'
'Unruh, Daniel K.'
'Groeneman , Ryan'
'Hutchins, Kristin M.'
_publ_section_title
;
 Controlling thermal expansion within mixed cocrystals by tuning molecular
 motion capability
;
_journal_name_full               'Chemical Science'
_journal_paper_doi               10.1039/D0SC02795B
_journal_year                    2020
_chemical_formula_sum            'C17.55 H15.55 N2.45 O2'
_chemical_formula_weight         292.77
_space_group_IT_number           2
_space_group_name_Hall           '-P 1'
_space_group_name_H-M_alt        'P -1'
_symmetry_cell_setting           triclinic
_symmetry_Int_Tables_number      2
_symmetry_space_group_name_Hall  '-P 1'
_symmetry_space_group_name_H-M   'P -1'
_atom_sites_solution_hydrogens   geom
_atom_sites_solution_primary     dual
_atom_sites_solution_secondary   difmap
_audit_creation_date             2020-03-10T15:57:04-00:00
_audit_creation_method           'WinGX routine CIF_UPDATE'
_audit_update_record
;
2020-04-07 deposited with the CCDC.	2020-06-05 downloaded from the CCDC.
;
_cell_angle_alpha                93.0700(16)
_cell_angle_beta                 107.0652(11)
_cell_angle_gamma                114.2729(11)
_cell_formula_units_Z            2
_cell_length_a                   8.07233(10)
_cell_length_b                   9.87774(15)
_cell_length_c                   10.88779(14)
_cell_measurement_reflns_used    15546
_cell_measurement_temperature    230(2)
_cell_measurement_theta_max      77.192
_cell_measurement_theta_min      4.307
_cell_volume                     741.29(2)
_computing_cell_refinement       'CrysAlisPro 1.171.40.70a (Rigaku OD, 2020)'
_computing_data_collection       'CrysAlisPro 1.171.40.70a (Rigaku OD, 2020)'
_computing_data_reduction        'CrysAlisPro 1.171.40.70a (Rigaku OD, 2020)'
_computing_structure_refinement  'SHELXL-2018/3 (Sheldrick, 2018)'
_computing_structure_solution    'SHELXT 2014/5 (Sheldrick, 2014)'
_diffrn_ambient_environment      N~2~
_diffrn_ambient_temperature      230(2)
_diffrn_detector                 'Hybrid Pixel Array Detector'
_diffrn_detector_area_resol_mean 10
_diffrn_detector_type            HyPix
_diffrn_measured_fraction_theta_full 0.997
_diffrn_measured_fraction_theta_max 0.964
_diffrn_measurement_device       'four-circle diffractometer'
_diffrn_measurement_device_type  'XtaLAB Synergy, Dualflex, HyPix'
_diffrn_measurement_method       '\w scans'
_diffrn_orient_matrix_type
'CrysAlisPro convention (1999,Acta A55,543-557)'
_diffrn_orient_matrix_UB_11      0.0004882
_diffrn_orient_matrix_UB_12      0.0477696
_diffrn_orient_matrix_UB_13      -0.148104
_diffrn_orient_matrix_UB_21      -0.0733325
_diffrn_orient_matrix_UB_22      0.1679051
_diffrn_orient_matrix_UB_23      0.0100898
_diffrn_orient_matrix_UB_31      0.2001872
_diffrn_orient_matrix_UB_32      -0.003876
_diffrn_orient_matrix_UB_33      -0.0279718
_diffrn_radiation_monochromator  mirror
_diffrn_radiation_probe          x-ray
_diffrn_radiation_type           CuK\a
_diffrn_radiation_wavelength     1.54178
_diffrn_reflns_av_R_equivalents  0.0359
_diffrn_reflns_av_unetI/netI     0.0476
_diffrn_reflns_Laue_measured_fraction_full 0.997
_diffrn_reflns_Laue_measured_fraction_max 0.964
_diffrn_reflns_limit_h_max       8
_diffrn_reflns_limit_h_min       -10
_diffrn_reflns_limit_k_max       12
_diffrn_reflns_limit_k_min       -12
_diffrn_reflns_limit_l_max       13
_diffrn_reflns_limit_l_min       -13
_diffrn_reflns_number            27752
_diffrn_reflns_point_group_measured_fraction_full 0.997
_diffrn_reflns_point_group_measured_fraction_max 0.964
_diffrn_reflns_theta_full        67.679
_diffrn_reflns_theta_max         77.335
_diffrn_reflns_theta_min         4.335
_diffrn_source                   'micro-focus sealed X-ray tube'
_diffrn_source_type              'PhotonJet (Cu) X-ray Source'
_exptl_absorpt_coefficient_mu    0.707
_exptl_absorpt_correction_T_max  1
_exptl_absorpt_correction_T_min  0.52
_exptl_absorpt_correction_type   gaussian
_exptl_absorpt_process_details
;
        CrysAlisPro 1.171.40.70a (Rigaku Oxford Diffraction, 2020)
Numerical absorption correction based on gaussian integration over
                        a multifaceted crystal model
        Empirical absorption correction using spherical harmonics,
 implemented in SCALE3 ABSPACK scaling algorithm.
;
_exptl_crystal_colour            'clear light yellow'
_exptl_crystal_density_diffrn    1.312
_exptl_crystal_description       irregular
_exptl_crystal_F_000             308
_exptl_crystal_size_max          0.224
_exptl_crystal_size_mid          0.11
_exptl_crystal_size_min          0.085
_refine_diff_density_max         0.161
_refine_diff_density_min         -0.162
_refine_diff_density_rms         0.032
_refine_ls_extinction_coef       0.0041(9)
_refine_ls_extinction_expression Fc^*^=kFc[1+0.001xFc^2^\l^3^/sin(2\q)]^-1/4^
_refine_ls_extinction_method     'SHELXL-2018/3 (Sheldrick 2018)'
_refine_ls_goodness_of_fit_ref   1.071
_refine_ls_hydrogen_treatment    constr
_refine_ls_matrix_type           full
_refine_ls_number_parameters     242
_refine_ls_number_reflns         3038
_refine_ls_number_restraints     306
_refine_ls_restrained_S_all      1.022
_refine_ls_R_factor_all          0.0397
_refine_ls_R_factor_gt           0.0364
_refine_ls_shift/su_max          0
_refine_ls_shift/su_mean         0
_refine_ls_structure_factor_coef Fsqd
_refine_ls_weighting_details
'w=1/[\s^2^(Fo^2^)+(0.0605P)^2^+0.0803P] where P=(Fo^2^+2Fc^2^)/3'
_refine_ls_weighting_scheme      calc
_refine_ls_wR_factor_gt          0.1047
_refine_ls_wR_factor_ref         0.108
_reflns_Friedel_coverage         0
_reflns_number_gt                2721
_reflns_number_total             3038
_reflns_threshold_expression     'I > 2\s(I)'
_cod_data_source_file            d0sc02795b2.cif
_cod_data_source_block           A25_BE75_230
_cod_original_cell_volume        741.293(19)
_cod_database_code               1558235
_shelx_estimated_absorpt_t_min   0.858
_shelx_estimated_absorpt_t_max   0.942
_shelx_shelxl_version_number     2018/3
_shelx_res_file
;
TITL 230_a.res in P-1
    230_a.res
    created by SHELXL-2018/3 at 15:29:01 on 10-Mar-2020
REM Old TITL 230 in P-1

REM SHELXT solution in P-1
REM R1 0.115,  Rweak 0.003,  Alpha 0.030,  Orientation as input
REM Formula found by SHELXT:  C18 N2 O2

CELL  1.54178   8.07233   9.87774  10.88779  93.0700 107.0652 114.2729
ZERR    2.000   0.00010   0.00015   0.00014   0.0016   0.0011   0.0011
LATT  1
SFAC C H N O
UNIT 35.1022 31.1022 4.8978 4
TEMP -43.2
SIZE 0.224 0.110 0.085
L.S. 100
BOND $H
ACTA
LIST 4
FMAP 2
PLAN 20

EQIV $1 -x+1, -y+1, -z+2

HTAB O1 N1
HTAB O2 N4_$1

RIGU
SIMU 0.01 N2A N3A N2B N3B C17 C18

DFIX 1.24 0.01 N2A N3A
DFIX 1.24 0.01 N2B N3B
DFIX 1.32 0.01 C17 C18
DFIX 2.2 0.05 H17 H16
DFIX 51 C9 N2A C9 C17 C12 N3A C12 C18

SUMP 1.0 0.0 1.0 2 1.0 3 1.0 4

WGHT    0.060500    0.080300
EXTI    0.004137
FVAR       0.88000   0.19661   0.77554   0.02784   1.46594
O1    4    0.166086    0.157168    0.306534    11.00000    0.04584    0.05586 =
         0.03953    0.00666    0.01274    0.02131
AFIX 147
H1    2    0.198771    0.184278    0.386937    11.00000   -1.50000
AFIX   0
O2    4    0.822823    0.228296    0.431876    11.00000    0.04969    0.07329 =
         0.04319    0.00013    0.01543    0.03000
AFIX 147
H2A   2    0.827394    0.266018    0.503493    11.00000   -1.50000
AFIX   0
N1    3    0.260843    0.247081    0.571256    11.00000    0.04600    0.06093 =
         0.04143    0.00445    0.01423    0.02601
PART  1
N2A   3    0.233511    0.379153    0.941095    21.00000    0.04007    0.04300 =
         0.04266    0.00837    0.01548    0.02655
N3A   3    0.272027    0.507170    0.994685    21.00000    0.04547    0.04123 =
         0.03914    0.01062    0.01255    0.01648
PART  2
C17   1    0.213674    0.378788    0.934008    31.00000    0.04380    0.04330 =
         0.03589    0.00970    0.01372    0.02015
AFIX  43
H17   2    0.156133    0.300524    0.975558    31.00000   -1.20000
AFIX   0
C18   1    0.264505    0.519633    0.986699    31.00000    0.04060    0.03977 =
         0.03753    0.01029    0.01635    0.01971
AFIX  43
H18   2    0.322327    0.598214    0.945520    31.00000   -1.20000
AFIX   0
PART  3
N2B   3    0.263840    0.464457    0.919642    41.00000    0.04381    0.04154 =
         0.04027    0.00670    0.01093    0.02184
N3B   3    0.192935    0.411549    1.003546    41.00000    0.04494    0.04348 =
         0.04188    0.00549    0.01318    0.01969
PART  0
N4    3    0.175546    0.651179    1.332667    11.00000    0.04207    0.05498 =
         0.03545    0.00299    0.00858    0.02131
C1    1    0.316844    0.153624    0.277740    11.00000    0.04668    0.03275 =
         0.03710    0.00757    0.01463    0.01565
C2    1    0.494233    0.191611    0.374140    11.00000    0.04810    0.03816 =
         0.03119    0.00444    0.01446    0.01750
AFIX  43
H2    2    0.511407    0.219330    0.462580    11.00000   -1.20000
AFIX   0
C3    1    0.646820    0.188979    0.340890    11.00000    0.04838    0.03996 =
         0.03804    0.00480    0.01573    0.01949
C4    1    0.620312    0.145182    0.209655    11.00000    0.06175    0.04485 =
         0.04276    0.00502    0.02517    0.02414
AFIX  43
H4    2    0.721795    0.141636    0.186140    11.00000   -1.20000
AFIX   0
C5    1    0.442874    0.107231    0.115156    11.00000    0.07080    0.04377 =
         0.03360    0.00445    0.02063    0.02323
AFIX  43
H5    2    0.425042    0.078404    0.026766    11.00000   -1.20000
AFIX   0
C6    1    0.290489    0.110412    0.146829    11.00000    0.05597    0.04181 =
         0.03298    0.00493    0.00877    0.01835
AFIX  43
H6    2    0.170642    0.083756    0.080865    11.00000   -1.20000
AFIX   0
C7    1    0.322149    0.393354    0.620402    11.00000    0.04966    0.05639 =
         0.04567    0.01420    0.02071    0.02373
AFIX  43
H7    2    0.370728    0.465213    0.570944    11.00000   -1.20000
AFIX   0
C8    1    0.318247    0.444638    0.738885    11.00000    0.04875    0.04464 =
         0.04587    0.00830    0.01712    0.02113
AFIX  43
H8    2    0.365162    0.548869    0.769628    11.00000   -1.20000
AFIX   0
C9    1    0.243605    0.339687    0.812895    11.00000    0.03755    0.04764 =
         0.03698    0.00733    0.01118    0.02209
C10   1    0.183908    0.188281    0.763478    11.00000    0.04798    0.04669 =
         0.04477    0.00929    0.01542    0.02080
AFIX  43
H10   2    0.135931    0.113898    0.811116    11.00000   -1.20000
AFIX   0
C11   1    0.195290    0.147504    0.644279    11.00000    0.05046    0.04806 =
         0.04744    0.00246    0.01398    0.02233
AFIX  43
H11   2    0.154896    0.044472    0.612835    11.00000   -1.20000
AFIX   0
C12   1    0.233495    0.557364    1.107722    11.00000    0.03578    0.04751 =
         0.03569    0.00766    0.01002    0.02011
C13   1    0.286810    0.707990    1.152612    11.00000    0.04712    0.04436 =
         0.04477    0.01010    0.01591    0.01608
AFIX  43
H13   2    0.343675    0.782004    1.107342    11.00000   -1.20000
AFIX   0
C14   1    0.256492    0.749393    1.263681    11.00000    0.05139    0.04359 =
         0.04641    0.00305    0.01310    0.01814
AFIX  43
H14   2    0.294988    0.852665    1.292531    11.00000   -1.20000
AFIX   0
C15   1    0.122650    0.504970    1.289450    11.00000    0.04306    0.05278 =
         0.03834    0.01256    0.01292    0.02081
AFIX  43
H15   2    0.064762    0.433616    1.336344    11.00000   -1.20000
AFIX   0
C16   1    0.148849    0.453565    1.179297    11.00000    0.04772    0.04373 =
         0.04210    0.00915    0.01394    0.02245
AFIX  43
H16   2    0.110031    0.349757    1.152909    11.00000   -1.20000
AFIX   0
HKLF 4




REM  230_a.res in P-1
REM wR2 = 0.107999, GooF = S = 1.07146, Restrained GooF = 1.02211 for all data
REM R1 = 0.036387 for 2721 Fo > 4sig(Fo) and 0.039672 for all 3038 data
REM 242 parameters refined using 306 restraints

END

WGHT      0.0605      0.0803

REM Highest difference peak  0.161,  deepest hole -0.162,  1-sigma level  0.032
Q1    1   0.2473  0.5401  1.0605  11.00000  0.05    0.16
Q2    1   0.1794  0.6821  1.4171  11.00000  0.05    0.16
Q3    1   0.1768  0.4857  1.1190  11.00000  0.05    0.16
Q4    1   0.3066  0.1125  0.2127  11.00000  0.05    0.15
Q5    1   0.2148  0.3553  0.8622  11.00000  0.05    0.15
Q6    1   0.2341  0.2206  0.4922  11.00000  0.05    0.14
Q7    1   0.2595  0.3956  0.7727  11.00000  0.05    0.14
Q8    1   0.6275  0.1592  0.2647  11.00000  0.05    0.13
Q9    1   0.3133  0.2211  0.5010  11.00000  0.05    0.13
Q10   1   0.1111  0.4815  1.2152  11.00000  0.05    0.12
Q11   1   0.4194  0.2086  0.3184  11.00000  0.05    0.12
Q12   1   0.1805  0.2656  0.7742  11.00000  0.05    0.12
Q13   1   0.2829  0.6189  1.1392  11.00000  0.05    0.12
Q14   1   0.3459  0.4160  0.6976  11.00000  0.05    0.11
Q15   1   0.0989  0.0805  0.0767  11.00000  0.05    0.10
Q16   1   0.1776  0.4429  0.9399  11.00000  0.05    0.10
Q17   1   0.7511  0.1378  0.4523  11.00000  0.05    0.10
Q18   1   0.3934  0.6125  0.9884  11.00000  0.05    0.10
Q19   1   0.2038  0.6040  1.3368  11.00000  0.05    0.10
Q20   1   0.0520  0.0831  0.7991  11.00000  0.05    0.09
;
_shelx_res_checksum              14738
loop_
_symmetry_equiv_pos_as_xyz
'x, y, z'
'-x, -y, -z'
loop_
_atom_site_label
_atom_site_type_symbol
_atom_site_fract_x
_atom_site_fract_y
_atom_site_fract_z
_atom_site_U_iso_or_equiv
_atom_site_adp_type
_atom_site_occupancy
_atom_site_site_symmetry_order
_atom_site_calc_flag
_atom_site_refinement_flags_posn
_atom_site_refinement_flags_adp
_atom_site_refinement_flags_occupancy
_atom_site_disorder_assembly
_atom_site_disorder_group
O1 O 0.16609(11) 0.15717(9) 0.30653(7) 0.0482(2) Uani 1 1 d . . . . .
H1 H 0.198771 0.184278 0.386937 0.072 Uiso 1 1 calc R U . . .
O2 O 0.82282(12) 0.22830(10) 0.43188(8) 0.0551(2) Uani 1 1 d . . . . .
H2A H 0.827394 0.266018 0.503493 0.083 Uiso 1 1 calc R U . . .
N1 N 0.26084(14) 0.24708(12) 0.57126(9) 0.0492(2) Uani 1 1 d . . . . .
N2A N 0.234(4) 0.379(2) 0.941(2) 0.039(2) Uani 0.197(3) 1 d D U P A 1
N3A N 0.272(4) 0.507(2) 0.995(2) 0.043(3) Uani 0.197(3) 1 d D U P A 1
C17 C 0.2137(12) 0.3788(7) 0.9340(6) 0.0407(10) Uani 0.776(3) 1 d D U P A 2
H17 H 0.156133 0.300524 0.975558 0.049 Uiso 0.776(3) 1 calc DR U P A 2
C18 C 0.2645(11) 0.5196(7) 0.9867(6) 0.0379(7) Uani 0.776(3) 1 d D U P A 2
H18 H 0.322327 0.598214 0.94552 0.045 Uiso 0.776(3) 1 calc R U P A 2
N2B N 0.264(5) 0.464(4) 0.920(3) 0.042(3) Uani 0.0278(16) 1 d D U P A 3
N3B N 0.193(5) 0.412(4) 1.004(3) 0.044(3) Uani 0.0278(16) 1 d D U P A 3
N4 N 0.17555(13) 0.65118(11) 1.33267(9) 0.0458(2) Uani 1 1 d . . . . .
C1 C 0.31684(16) 0.15362(11) 0.27774(10) 0.0395(2) Uani 1 1 d . . . . .
C2 C 0.49423(16) 0.19161(11) 0.37414(9) 0.0397(2) Uani 1 1 d . . . . .
H2 H 0.511407 0.21933 0.46258 0.048 Uiso 1 1 calc R U . . .
C3 C 0.64682(16) 0.18898(12) 0.34089(10) 0.0422(3) Uani 1 1 d . . . . .
C4 C 0.62031(19) 0.14518(12) 0.20966(11) 0.0481(3) Uani 1 1 d . . . . .
H4 H 0.721795 0.141636 0.18614 0.058 Uiso 1 1 calc R U . . .
C5 C 0.44287(19) 0.10723(12) 0.11516(10) 0.0498(3) Uani 1 1 d . . . . .
H5 H 0.425042 0.078404 0.026766 0.06 Uiso 1 1 calc R U . . .
C6 C 0.29049(18) 0.11041(12) 0.14683(10) 0.0466(3) Uani 1 1 d . . . . .
H6 H 0.170642 0.083756 0.080865 0.056 Uiso 1 1 calc R U . . .
C7 C 0.32215(17) 0.39335(14) 0.62040(11) 0.0494(3) Uani 1 1 d . . . . .
H7 H 0.370728 0.465213 0.570944 0.059 Uiso 1 1 calc R U . . .
C8 C 0.31825(17) 0.44464(13) 0.73888(11) 0.0462(3) Uani 1 1 d . . . . .
H8 H 0.365162 0.548869 0.769628 0.055 Uiso 1 1 calc R U . . .
C9 C 0.24360(15) 0.33969(12) 0.81289(10) 0.0401(2) Uani 1 1 d D . . . .
C10 C 0.18391(17) 0.18828(13) 0.76348(11) 0.0468(3) Uani 1 1 d . . . . .
H10 H 0.135931 0.113898 0.811116 0.056 Uiso 1 1 calc R U . . .
C11 C 0.19529(17) 0.14750(13) 0.64428(11) 0.0496(3) Uani 1 1 d . . . . .
H11 H 0.154896 0.044472 0.612835 0.059 Uiso 1 1 calc R U . . .
C12 C 0.23350(15) 0.55736(12) 1.10772(10) 0.0397(2) Uani 1 1 d D . . . .
C13 C 0.28681(17) 0.70799(13) 1.15261(11) 0.0469(3) Uani 1 1 d . . . . .
H13 H 0.343675 0.782004 1.107342 0.056 Uiso 1 1 calc R U . . .
C14 C 0.25649(18) 0.74939(13) 1.26368(11) 0.0494(3) Uani 1 1 d . . . . .
H14 H 0.294988 0.852665 1.292531 0.059 Uiso 1 1 calc R U . . .
C15 C 0.12265(16) 0.50497(13) 1.28945(10) 0.0451(3) Uani 1 1 d . . . . .
H15 H 0.064762 0.433616 1.336344 0.054 Uiso 1 1 calc R U . . .
C16 C 0.14885(17) 0.45357(12) 1.17930(11) 0.0442(3) Uani 1 1 d . . . . .
H16 H 0.110031 0.349757 1.152909 0.053 Uiso 1 1 calc DR U . . .
loop_
_atom_site_aniso_label
_atom_site_aniso_U_11
_atom_site_aniso_U_22
_atom_site_aniso_U_33
_atom_site_aniso_U_23
_atom_site_aniso_U_13
_atom_site_aniso_U_12
O1 0.0458(4) 0.0559(5) 0.0395(4) 0.0067(3) 0.0127(3) 0.0213(4)
O2 0.0497(5) 0.0733(6) 0.0432(4) 0.0001(4) 0.0154(4) 0.0300(4)
N1 0.0460(5) 0.0609(6) 0.0414(5) 0.0044(4) 0.0142(4) 0.0260(4)
N2A 0.040(4) 0.043(3) 0.043(3) 0.008(3) 0.015(3) 0.027(3)
N3A 0.045(4) 0.041(3) 0.039(3) 0.011(3) 0.013(3) 0.016(3)
C17 0.044(2) 0.0433(12) 0.0359(11) 0.0097(9) 0.0137(11) 0.0201(10)
C18 0.0406(11) 0.0398(12) 0.0375(12) 0.0103(8) 0.0164(10) 0.0197(9)
N2B 0.044(5) 0.042(4) 0.040(4) 0.007(4) 0.011(4) 0.022(4)
N3B 0.045(5) 0.043(4) 0.042(4) 0.005(4) 0.013(4) 0.020(4)
N4 0.0421(5) 0.0550(5) 0.0354(4) 0.0030(4) 0.0086(4) 0.0213(4)
C1 0.0467(6) 0.0327(5) 0.0371(5) 0.0076(4) 0.0146(4) 0.0157(4)
C2 0.0481(6) 0.0382(5) 0.0312(5) 0.0044(4) 0.0145(4) 0.0175(4)
C3 0.0484(6) 0.0400(5) 0.0380(5) 0.0048(4) 0.0157(4) 0.0195(4)
C4 0.0618(7) 0.0448(6) 0.0428(6) 0.0050(4) 0.0252(5) 0.0241(5)
C5 0.0708(8) 0.0438(6) 0.0336(5) 0.0044(4) 0.0206(5) 0.0232(5)
C6 0.0560(7) 0.0418(5) 0.0330(5) 0.0049(4) 0.0088(5) 0.0184(5)
C7 0.0497(6) 0.0564(7) 0.0457(6) 0.0142(5) 0.0207(5) 0.0237(5)
C8 0.0487(6) 0.0446(6) 0.0459(6) 0.0083(4) 0.0171(5) 0.0211(5)
C9 0.0376(5) 0.0476(6) 0.0370(5) 0.0073(4) 0.0112(4) 0.0221(4)
C10 0.0480(6) 0.0467(6) 0.0448(6) 0.0093(5) 0.0154(5) 0.0208(5)
C11 0.0505(7) 0.0481(6) 0.0474(6) 0.0025(5) 0.0140(5) 0.0223(5)
C12 0.0358(5) 0.0475(6) 0.0357(5) 0.0077(4) 0.0100(4) 0.0201(4)
C13 0.0471(6) 0.0444(6) 0.0448(6) 0.0101(5) 0.0159(5) 0.0161(5)
C14 0.0514(7) 0.0436(6) 0.0464(6) 0.0030(5) 0.0131(5) 0.0181(5)
C15 0.0431(6) 0.0528(6) 0.0383(5) 0.0126(4) 0.0129(4) 0.0208(5)
C16 0.0477(6) 0.0437(5) 0.0421(5) 0.0091(4) 0.0139(5) 0.0225(5)
loop_
_atom_type_symbol
_atom_type_description
_atom_type_scat_dispersion_real
_atom_type_scat_dispersion_imag
_atom_type_scat_source
C C 0.0181 0.0091 'International Tables Vol C Tables 4.2.6.8 and 6.1.1.4'
H H 0 0 'International Tables Vol C Tables 4.2.6.8 and 6.1.1.4'
N N 0.0311 0.018 'International Tables Vol C Tables 4.2.6.8 and 6.1.1.4'
O O 0.0492 0.0322 'International Tables Vol C Tables 4.2.6.8 and 6.1.1.4'
loop_
_exptl_crystal_face_index_h
_exptl_crystal_face_index_k
_exptl_crystal_face_index_l
_exptl_crystal_face_perp_dist
1 0 -6 0.0337
3 6 0 0.0565
-2 0 6 0.0536
1 6 1 0.0529
0 -6 -1 0.0564
5 2 3 0.1012
-5 -5 -1 0.093
0 6 4 0.0506
0 0 7 0.0473
-4 2 0 0.1051
1 -4 3 0.0582
-3 -4 3 0.0674
-1 -1 -7 0.0394
0 -3 5 0.0488
0 3 6 0.0455
-1 -4 -6 0.0412
-4 -4 -5 0.0836
-1 -6 -4 0.0452
3 6 4 0.0661
-3 3 -3 0.0956
-5 -2 -3 0.1148
4 5 1 0.0716
loop_
_geom_angle_atom_site_label_1
_geom_angle_atom_site_label_2
_geom_angle_atom_site_label_3
_geom_angle
_geom_angle_site_symmetry_1
_geom_angle_site_symmetry_3
_geom_angle_publ_flag
C1 O1 H1 109.5 . . ?
C3 O2 H2A 109.5 . . ?
C11 N1 C7 116.91(10) . . ?
N3A N2A C9 125.7(19) . . ?
N2A N3A C12 131.1(19) . . ?
C18 C17 C9 122.5(5) . . ?
C18 C17 H17 118.8 . . ?
C9 C17 H17 118.8 . . ?
C17 C18 C12 122.0(5) . . ?
C17 C18 H18 119 . . ?
C12 C18 H18 119 . . ?
N3B N2B C9 113(3) . . ?
N2B N3B C12 106(3) . . ?
C14 N4 C15 116.85(10) . . ?
O1 C1 C2 122.04(9) . . ?
O1 C1 C6 118.21(10) . . ?
C2 C1 C6 119.75(10) . . ?
C1 C2 C3 120.52(9) . . ?
C1 C2 H2 119.7 . . ?
C3 C2 H2 119.7 . . ?
O2 C3 C2 122.15(9) . . ?
O2 C3 C4 118.09(10) . . ?
C2 C3 C4 119.76(10) . . ?
C5 C4 C3 118.96(11) . . ?
C5 C4 H4 120.5 . . ?
C3 C4 H4 120.5 . . ?
C4 C5 C6 121.84(10) . . ?
C4 C5 H5 119.1 . . ?
C6 C5 H5 119.1 . . ?
C5 C6 C1 119.17(11) . . ?
C5 C6 H6 120.4 . . ?
C1 C6 H6 120.4 . . ?
N1 C7 C8 123.87(11) . . ?
N1 C7 H7 118.1 . . ?
C8 C7 H7 118.1 . . ?
C7 C8 C9 119.03(11) . . ?
C7 C8 H8 120.5 . . ?
C9 C8 H8 120.5 . . ?
C10 C9 C8 117.17(10) . . ?
C10 C9 N2A 118.2(8) . . ?
C8 C9 N2A 124.5(8) . . ?
C10 C9 C17 118.7(3) . . ?
C8 C9 C17 124.0(3) . . ?
C10 C9 N2B 149.8(11) . . ?
C8 C9 N2B 93.0(11) . . ?
C11 C10 C9 119.72(11) . . ?
C11 C10 H10 120.1 . . ?
C9 C10 H10 120.1 . . ?
N1 C11 C10 123.25(11) . . ?
N1 C11 H11 118.4 . . ?
C10 C11 H11 118.4 . . ?
C13 C12 C16 116.98(10) . . ?
C13 C12 N3A 122.5(8) . . ?
C16 C12 N3A 120.5(8) . . ?
C13 C12 C18 117.4(3) . . ?
C16 C12 C18 125.6(3) . . ?
C13 C12 N3B 155.7(10) . . ?
C16 C12 N3B 87.0(10) . . ?
C14 C13 C12 119.87(10) . . ?
C14 C13 H13 120.1 . . ?
C12 C13 H13 120.1 . . ?
N4 C14 C13 123.64(11) . . ?
N4 C14 H14 118.2 . . ?
C13 C14 H14 118.2 . . ?
N4 C15 C16 123.33(10) . . ?
N4 C15 H15 118.3 . . ?
C16 C15 H15 118.3 . . ?
C15 C16 C12 119.33(10) . . ?
C15 C16 H16 120.3 . . ?
C12 C16 H16 120.3 . . ?
loop_
_geom_bond_atom_site_label_1
_geom_bond_atom_site_label_2
_geom_bond_distance
_geom_bond_site_symmetry_2
_geom_bond_publ_flag
O1 C1 1.3558(13) . ?
O1 H1 0.83 . ?
O2 C3 1.3527(14) . ?
O2 H2A 0.83 . ?
N1 C11 1.3351(16) . ?
N1 C7 1.3389(15) . ?
N2A N3A 1.236(10) . ?
N2A C9 1.463(17) . ?
N3A C12 1.464(16) . ?
C17 C18 1.319(4) . ?
C17 C9 1.468(5) . ?
C17 H17 0.94 . ?
C18 C12 1.468(5) . ?
C18 H18 0.94 . ?
N2B N3B 1.244(10) . ?
N2B C9 1.57(4) . ?
N3B C12 1.64(4) . ?
N4 C14 1.3331(15) . ?
N4 C15 1.3386(15) . ?
C1 C2 1.3881(15) . ?
C1 C6 1.3933(14) . ?
C2 C3 1.3914(15) . ?
C2 H2 0.94 . ?
C3 C4 1.3974(15) . ?
C4 C5 1.3795(18) . ?
C4 H4 0.94 . ?
C5 C6 1.3830(18) . ?
C5 H5 0.94 . ?
C6 H6 0.94 . ?
C7 C8 1.3743(16) . ?
C7 H7 0.94 . ?
C8 C9 1.3957(16) . ?
C8 H8 0.94 . ?
C9 C10 1.3883(15) . ?
C10 C11 1.3782(16) . ?
C10 H10 0.94 . ?
C11 H11 0.94 . ?
C12 C13 1.3820(16) . ?
C12 C16 1.3955(15) . ?
C13 C14 1.3757(16) . ?
C13 H13 0.94 . ?
C14 H14 0.94 . ?
C15 C16 1.3831(15) . ?
C15 H15 0.94 . ?
C16 H16 0.94 . ?
loop_
_geom_hbond_atom_site_label_D
_geom_hbond_atom_site_label_H
_geom_hbond_atom_site_label_A
_geom_hbond_distance_DH
_geom_hbond_distance_HA
_geom_hbond_distance_DA
_geom_hbond_angle_DHA
_geom_hbond_site_symmetry_A
_geom_hbond_publ_flag
O1 H1 N1 0.83 1.92 2.7485(12) 176.8 . yes
O2 H2A N4 0.83 1.93 2.7622(12) 177.2 2_667 yes
