#------------------------------------------------------------------------------
#$Date: 2020-06-06 04:19:29 +0300 (Sat, 06 Jun 2020) $
#$Revision: 252960 $
#$URL: file:///home/coder/svn-repositories/cod/cif/1/55/82/1558233.cif $
#------------------------------------------------------------------------------
#
# This file is available in the Crystallography Open Database (COD),
# http://www.crystallography.net/
#
# All data on this site have been placed in the public domain by the
# contributors.
#
data_1558233
loop_
_publ_author_name
'Ding, Xiaodan'
'Unruh, Daniel K.'
'Groeneman , Ryan'
'Hutchins, Kristin M.'
_publ_section_title
;
 Controlling thermal expansion within mixed cocrystals by tuning molecular
 motion capability
;
_journal_name_full               'Chemical Science'
_journal_paper_doi               10.1039/D0SC02795B
_journal_year                    2020
_chemical_formula_sum            'C17.54 H15.54 N2.46 O2'
_chemical_formula_weight         292.78
_space_group_IT_number           2
_space_group_name_Hall           '-P 1'
_space_group_name_H-M_alt        'P -1'
_symmetry_cell_setting           triclinic
_symmetry_Int_Tables_number      2
_symmetry_space_group_name_Hall  '-P 1'
_symmetry_space_group_name_H-M   'P -1'
_atom_sites_solution_hydrogens   geom
_atom_sites_solution_primary     dual
_atom_sites_solution_secondary   difmap
_audit_creation_date             2020-03-10T15:58:33-00:00
_audit_creation_method           'WinGX routine CIF_UPDATE'
_audit_update_record
;
2020-04-07 deposited with the CCDC.	2020-06-05 downloaded from the CCDC.
;
_cell_angle_alpha                93.2450(18)
_cell_angle_beta                 107.0364(13)
_cell_angle_gamma                114.2057(13)
_cell_formula_units_Z            2
_cell_length_a                   8.10962(13)
_cell_length_b                   9.89822(18)
_cell_length_c                   10.89834(15)
_cell_measurement_reflns_used    14206
_cell_measurement_temperature    270(2)
_cell_measurement_theta_max      75.685
_cell_measurement_theta_min      4.308
_cell_volume                     747.06(2)
_computing_cell_refinement       'CrysAlisPro 1.171.40.70a (Rigaku OD, 2020)'
_computing_data_collection       'CrysAlisPro 1.171.40.70a (Rigaku OD, 2020)'
_computing_data_reduction        'CrysAlisPro 1.171.40.70a (Rigaku OD, 2020)'
_computing_structure_refinement  'SHELXL-2018/3 (Sheldrick, 2018)'
_computing_structure_solution    'SHELXT 2014/5 (Sheldrick, 2014)'
_diffrn_ambient_environment      N~2~
_diffrn_ambient_temperature      270(2)
_diffrn_detector                 'Hybrid Pixel Array Detector'
_diffrn_detector_area_resol_mean 10
_diffrn_detector_type            HyPix
_diffrn_measured_fraction_theta_full 0.998
_diffrn_measured_fraction_theta_max 0.959
_diffrn_measurement_device       'four-circle diffractometer'
_diffrn_measurement_device_type  'XtaLAB Synergy, Dualflex, HyPix'
_diffrn_measurement_method       '\w scans'
_diffrn_orient_matrix_type
'CrysAlisPro convention (1999,Acta A55,543-557)'
_diffrn_orient_matrix_UB_11      0.0006697
_diffrn_orient_matrix_UB_12      0.0482059
_diffrn_orient_matrix_UB_13      -0.1481174
_diffrn_orient_matrix_UB_21      -0.0735467
_diffrn_orient_matrix_UB_22      0.167412
_diffrn_orient_matrix_UB_23      0.0101517
_diffrn_orient_matrix_UB_31      0.1992293
_diffrn_orient_matrix_UB_32      -0.0039657
_diffrn_orient_matrix_UB_33      -0.0274327
_diffrn_radiation_monochromator  mirror
_diffrn_radiation_probe          x-ray
_diffrn_radiation_type           CuK\a
_diffrn_radiation_wavelength     1.54178
_diffrn_reflns_av_R_equivalents  0.0345
_diffrn_reflns_av_unetI/netI     0.0482
_diffrn_reflns_Laue_measured_fraction_full 0.998
_diffrn_reflns_Laue_measured_fraction_max 0.959
_diffrn_reflns_limit_h_max       8
_diffrn_reflns_limit_h_min       -10
_diffrn_reflns_limit_k_max       12
_diffrn_reflns_limit_k_min       -11
_diffrn_reflns_limit_l_max       13
_diffrn_reflns_limit_l_min       -13
_diffrn_reflns_number            27405
_diffrn_reflns_point_group_measured_fraction_full 0.998
_diffrn_reflns_point_group_measured_fraction_max 0.959
_diffrn_reflns_theta_full        67.679
_diffrn_reflns_theta_max         77.418
_diffrn_reflns_theta_min         4.333
_diffrn_source                   'micro-focus sealed X-ray tube'
_diffrn_source_type              'PhotonJet (Cu) X-ray Source'
_exptl_absorpt_coefficient_mu    0.702
_exptl_absorpt_correction_T_max  1
_exptl_absorpt_correction_T_min  0.521
_exptl_absorpt_correction_type   gaussian
_exptl_absorpt_process_details
;
        CrysAlisPro 1.171.40.70a (Rigaku Oxford Diffraction, 2020)
Numerical absorption correction based on gaussian integration over
                        a multifaceted crystal model
        Empirical absorption correction using spherical harmonics,
 implemented in SCALE3 ABSPACK scaling algorithm.
;
_exptl_crystal_colour            'clear light yellow'
_exptl_crystal_density_diffrn    1.302
_exptl_crystal_description       irregular
_exptl_crystal_F_000             308
_exptl_crystal_size_max          0.224
_exptl_crystal_size_mid          0.11
_exptl_crystal_size_min          0.085
_refine_diff_density_max         0.18
_refine_diff_density_min         -0.178
_refine_diff_density_rms         0.031
_refine_ls_extinction_coef       0.0042(9)
_refine_ls_extinction_expression Fc^*^=kFc[1+0.001xFc^2^\l^3^/sin(2\q)]^-1/4^
_refine_ls_extinction_method     'SHELXL-2018/3 (Sheldrick 2018)'
_refine_ls_goodness_of_fit_ref   1.069
_refine_ls_hydrogen_treatment    constr
_refine_ls_matrix_type           full
_refine_ls_number_parameters     242
_refine_ls_number_reflns         3053
_refine_ls_number_restraints     306
_refine_ls_restrained_S_all      1.022
_refine_ls_R_factor_all          0.0432
_refine_ls_R_factor_gt           0.0381
_refine_ls_shift/su_max          0
_refine_ls_shift/su_mean         0
_refine_ls_structure_factor_coef Fsqd
_refine_ls_weighting_details
'w=1/[\s^2^(Fo^2^)+(0.0623P)^2^+0.0687P] where P=(Fo^2^+2Fc^2^)/3'
_refine_ls_weighting_scheme      calc
_refine_ls_wR_factor_gt          0.1089
_refine_ls_wR_factor_ref         0.1141
_reflns_Friedel_coverage         0
_reflns_number_gt                2643
_reflns_number_total             3053
_reflns_threshold_expression     'I > 2\s(I)'
_cod_data_source_file            d0sc02795b2.cif
_cod_data_source_block           A25_BE75_270
_cod_database_code               1558233
_shelx_estimated_absorpt_t_min   0.859
_shelx_estimated_absorpt_t_max   0.943
_shelx_shelxl_version_number     2018/3
_shelx_res_file
;
TITL 270_a.res in P-1
    270_a.res
    created by SHELXL-2018/3 at 14:54:17 on 10-Mar-2020
REM Old TITL 270 in P-1

REM SHELXT solution in P-1
REM R1 0.126,  Rweak 0.004,  Alpha 0.032,  Orientation as input
REM Formula found by SHELXT:  C18 N2 O2

CELL  1.54178   8.10962   9.89822  10.89834  93.2450 107.0364 114.2057
ZERR    2.000   0.00013   0.00018   0.00015   0.0018   0.0013   0.0013
LATT  1
SFAC C H N O
UNIT 35.0852 31.0852 4.91476 4
TEMP -3.2
SIZE 0.224 0.110 0.085
L.S. 100
BOND $H
ACTA
LIST 4
FMAP 2
PLAN 20

EQIV $1 -x+1, -y+1, -z+2

HTAB O1 N1
HTAB O2 N4_$1

RIGU
SIMU 0.01 N2A N3A N2B N3B C17 C18

DFIX 1.24 0.01 N2A N3A
DFIX 1.24 0.01 N2B N3B
DFIX 1.32 0.01 C17 C18
DFIX 2.2 0.05 H17 H16
DFIX 51 C9 N2A C9 C17 C12 N3A C12 C18

SUMP 1.0 0.0 1.0 2 1.0 3 1.0 4

WGHT    0.062300    0.068700
EXTI    0.004165
FVAR       0.88456   0.16687   0.77131   0.06182   1.46118
O1    4    0.166900    0.155419    0.306608    11.00000    0.05499    0.06825 =
         0.04710    0.00772    0.01574    0.02496
AFIX 147
H1    2    0.198638    0.181299    0.386091    11.00000   -1.50000
AFIX   0
O2    4    0.820750    0.227789    0.431304    11.00000    0.06011    0.08936 =
         0.05199   -0.00058    0.01871    0.03660
AFIX 147
H2A   2    0.824716    0.263777    0.502361    11.00000   -1.50000
AFIX   0
N1    3    0.260507    0.246515    0.571212    11.00000    0.05554    0.07280 =
         0.04835    0.00530    0.01758    0.03128
PART  1
N2A   3    0.240932    0.385345    0.940550    21.00000    0.04796    0.05006 =
         0.04867    0.01120    0.01807    0.02695
N3A   3    0.273645    0.510052    0.996952    21.00000    0.05375    0.04871 =
         0.04438    0.00991    0.01257    0.01801
PART  2
C17   1    0.213219    0.377436    0.934022    31.00000    0.05055    0.04931 =
         0.04273    0.00997    0.01704    0.02248
AFIX  43
H17   2    0.156953    0.299836    0.974737    31.00000   -1.20000
AFIX   0
C18   1    0.263714    0.517960    0.986296    31.00000    0.04934    0.04852 =
         0.04294    0.01136    0.01942    0.02274
AFIX  43
H18   2    0.320333    0.595263    0.945435    31.00000   -1.20000
AFIX   0
PART  3
N2B   3    0.268580    0.465611    0.920005    41.00000    0.05174    0.04779 =
         0.04735    0.00405    0.01323    0.02338
N3B   3    0.197320    0.410461    1.002892    41.00000    0.05219    0.05169 =
         0.04947    0.00612    0.01580    0.02280
PART  0
N4    3    0.176654    0.651115    1.332605    11.00000    0.05114    0.06514 =
         0.04185    0.00321    0.01148    0.02550
C1    1    0.317335    0.152459    0.277750    11.00000    0.05622    0.03944 =
         0.04260    0.00844    0.01740    0.01858
C2    1    0.493629    0.190338    0.373815    11.00000    0.05691    0.04590 =
         0.03656    0.00433    0.01712    0.02051
AFIX  43
H2    2    0.510476    0.217329    0.461346    11.00000   -1.20000
AFIX   0
C3    1    0.645411    0.188326    0.340446    11.00000    0.05850    0.04774 =
         0.04507    0.00506    0.01902    0.02310
C4    1    0.619242    0.144875    0.209426    11.00000    0.07395    0.05433 =
         0.04993    0.00520    0.03033    0.02881
AFIX  43
H4    2    0.719184    0.141537    0.186049    11.00000   -1.20000
AFIX   0
C5    1    0.442849    0.107035    0.115383    11.00000    0.08486    0.05354 =
         0.03961    0.00520    0.02450    0.02846
AFIX  43
H5    2    0.425351    0.078758    0.027927    11.00000   -1.20000
AFIX   0
C6    1    0.291160    0.109757    0.146848    11.00000    0.06749    0.05024 =
         0.03950    0.00635    0.01159    0.02275
AFIX  43
H6    2    0.173194    0.083461    0.081594    11.00000   -1.20000
AFIX   0
C7    1    0.321736    0.392597    0.619946    11.00000    0.06124    0.06688 =
         0.05413    0.01675    0.02545    0.02805
AFIX  43
H7    2    0.369506    0.463088    0.570875    11.00000   -1.20000
AFIX   0
C8    1    0.318162    0.444581    0.738318    11.00000    0.05993    0.05344 =
         0.05548    0.00858    0.01950    0.02583
AFIX  43
H8    2    0.364517    0.547607    0.768565    11.00000   -1.20000
AFIX   0
C9    1    0.244147    0.340764    0.812251    11.00000    0.04602    0.05935 =
         0.04342    0.00787    0.01353    0.02743
C10   1    0.184801    0.190079    0.763329    11.00000    0.05914    0.05689 =
         0.05235    0.01183    0.01947    0.02507
AFIX  43
H10   2    0.137957    0.117147    0.810747    11.00000   -1.20000
AFIX   0
C11   1    0.195210    0.148389    0.644522    11.00000    0.06068    0.05665 =
         0.05534    0.00319    0.01696    0.02580
AFIX  43
H11   2    0.154588    0.046396    0.613624    11.00000   -1.20000
AFIX   0
C12   1    0.232907    0.556179    1.108021    11.00000    0.04398    0.06246 =
         0.04192    0.00949    0.01281    0.02662
C13   1    0.286207    0.706017    1.152713    11.00000    0.05709    0.05546 =
         0.05331    0.01259    0.01984    0.02006
AFIX  43
H13   2    0.342276    0.778773    1.107928    11.00000   -1.20000
AFIX   0
C14   1    0.256547    0.747874    1.263312    11.00000    0.06093    0.05254 =
         0.05461    0.00342    0.01493    0.02123
AFIX  43
H14   2    0.294540    0.849975    1.291560    11.00000   -1.20000
AFIX   0
C15   1    0.123420    0.505199    1.289797    11.00000    0.05354    0.06289 =
         0.04548    0.01503    0.01614    0.02543
AFIX  43
H15   2    0.066499    0.435213    1.336331    11.00000   -1.20000
AFIX   0
C16   1    0.148934    0.453176    1.179470    11.00000    0.05803    0.05227 =
         0.05156    0.00840    0.01508    0.02720
AFIX  43
H16   2    0.110433    0.350587    1.153340    11.00000   -1.20000
AFIX   0
HKLF 4




REM  270_a.res in P-1
REM wR2 = 0.114063, GooF = S = 1.06866, Restrained GooF = 1.02166 for all data
REM R1 = 0.038143 for 2643 Fo > 4sig(Fo) and 0.043178 for all 3053 data
REM 242 parameters refined using 306 restraints

END

WGHT      0.0623      0.0687

REM Highest difference peak  0.180,  deepest hole -0.178,  1-sigma level  0.031
Q1    1   0.1770  0.4794  1.1172  11.00000  0.05    0.18
Q2    1   0.2457  0.5444  1.0592  11.00000  0.05    0.16
Q3    1   0.1879  0.6792  1.4090  11.00000  0.05    0.15
Q4    1   0.2222  0.3552  0.8607  11.00000  0.05    0.14
Q5    1   0.2411  0.2246  0.4987  11.00000  0.05    0.14
Q6    1   0.3075  0.1158  0.2131  11.00000  0.05    0.13
Q7    1   0.2977  0.4020  0.7949  11.00000  0.05    0.13
Q8    1   0.8017  0.1693  0.2068  11.00000  0.05    0.13
Q9    1   0.6251  0.1447  0.2747  11.00000  0.05    0.12
Q10   1   0.1878  0.2845  0.7810  11.00000  0.05    0.11
Q11   1   0.7501  0.1443  0.4597  11.00000  0.05    0.11
Q12   1   0.3485 -0.0213  0.0238  11.00000  0.05    0.10
Q13   1   0.4044  0.6020  0.9767  11.00000  0.05    0.09
Q14   1   0.4199  0.2024  0.3192  11.00000  0.05    0.09
Q15   1   0.9252  0.1799  0.2390  11.00000  0.05    0.09
Q16   1   0.3611  0.4101  0.7043  11.00000  0.05    0.09
Q17   1   0.1064  0.4813  1.2044  11.00000  0.05    0.09
Q18   1   0.3415  0.0823  0.1461  11.00000  0.05    0.09
Q19   1   0.2657 -0.0358 -0.0804  11.00000  0.05    0.09
Q20   1   0.9669  0.2237  0.4064  11.00000  0.05    0.09
;
_shelx_res_checksum              35466
loop_
_symmetry_equiv_pos_as_xyz
'x, y, z'
'-x, -y, -z'
loop_
_atom_site_label
_atom_site_type_symbol
_atom_site_fract_x
_atom_site_fract_y
_atom_site_fract_z
_atom_site_U_iso_or_equiv
_atom_site_adp_type
_atom_site_occupancy
_atom_site_site_symmetry_order
_atom_site_calc_flag
_atom_site_refinement_flags_posn
_atom_site_refinement_flags_adp
_atom_site_refinement_flags_occupancy
_atom_site_disorder_assembly
_atom_site_disorder_group
O1 O 0.16690(12) 0.15542(10) 0.30661(8) 0.0584(2) Uani 1 1 d . . . . .
H1 H 0.198638 0.181299 0.386091 0.088 Uiso 1 1 calc R U . . .
O2 O 0.82075(13) 0.22779(12) 0.43130(8) 0.0669(3) Uani 1 1 d . . . . .
H2A H 0.824716 0.263777 0.502361 0.1 Uiso 1 1 calc R U . . .
N1 N 0.26051(15) 0.24652(13) 0.57121(10) 0.0584(3) Uani 1 1 d . . . . .
N2A N 0.241(4) 0.385(3) 0.941(2) 0.047(2) Uani 0.167(3) 1 d D U P A 1
N3A N 0.274(5) 0.510(3) 0.997(2) 0.052(3) Uani 0.167(3) 1 d D U P A 1
C17 C 0.2132(9) 0.3774(7) 0.9340(5) 0.0472(9) Uani 0.771(3) 1 d D U P A 2
H17 H 0.156953 0.299836 0.974737 0.057 Uiso 0.771(3) 1 calc DR U P A 2
C18 C 0.2637(11) 0.5180(7) 0.9863(6) 0.0457(7) Uani 0.771(3) 1 d D U P A 2
H18 H 0.320333 0.595263 0.945435 0.055 Uiso 0.771(3) 1 calc R U P A 2
N2B N 0.269(2) 0.466(2) 0.9200(15) 0.050(3) Uani 0.0618(18) 1 d D U P A 3
N3B N 0.197(2) 0.410(2) 1.0029(16) 0.052(3) Uani 0.0618(18) 1 d D U P A 3
N4 N 0.17665(14) 0.65111(12) 1.33260(9) 0.0544(3) Uani 1 1 d . . . . .
C1 C 0.31733(17) 0.15246(11) 0.27775(10) 0.0470(3) Uani 1 1 d . . . . .
C2 C 0.49363(16) 0.19034(12) 0.37381(10) 0.0473(3) Uani 1 1 d . . . . .
H2 H 0.510476 0.217329 0.461346 0.057 Uiso 1 1 calc R U . . .
C3 C 0.64541(18) 0.18833(13) 0.34045(11) 0.0506(3) Uani 1 1 d . . . . .
C4 C 0.6192(2) 0.14487(14) 0.20943(12) 0.0574(3) Uani 1 1 d . . . . .
H4 H 0.719184 0.141537 0.186049 0.069 Uiso 1 1 calc R U . . .
C5 C 0.4428(2) 0.10703(14) 0.11538(11) 0.0597(3) Uani 1 1 d . . . . .
H5 H 0.425351 0.078758 0.027927 0.072 Uiso 1 1 calc R U . . .
C6 C 0.29116(19) 0.10976(13) 0.14685(11) 0.0555(3) Uani 1 1 d . . . . .
H6 H 0.173194 0.083461 0.081594 0.067 Uiso 1 1 calc R U . . .
C7 C 0.32174(19) 0.39260(15) 0.61995(12) 0.0594(3) Uani 1 1 d . . . . .
H7 H 0.369506 0.463088 0.570875 0.071 Uiso 1 1 calc R U . . .
C8 C 0.31816(19) 0.44458(14) 0.73832(12) 0.0563(3) Uani 1 1 d . . . . .
H8 H 0.364517 0.547607 0.768565 0.068 Uiso 1 1 calc R U . . .
C9 C 0.24415(16) 0.34076(13) 0.81225(11) 0.0488(3) Uani 1 1 d D . . . .
C10 C 0.18480(19) 0.19008(14) 0.76333(12) 0.0564(3) Uani 1 1 d . . . . .
H10 H 0.137957 0.117147 0.810747 0.068 Uiso 1 1 calc R U . . .
C11 C 0.19521(19) 0.14839(15) 0.64452(12) 0.0588(3) Uani 1 1 d . . . . .
H11 H 0.154588 0.046396 0.613624 0.071 Uiso 1 1 calc R U . . .
C12 C 0.23291(16) 0.55618(14) 1.10802(11) 0.0490(3) Uani 1 1 d D . . . .
C13 C 0.28621(18) 0.70602(14) 1.15271(12) 0.0569(3) Uani 1 1 d . . . . .
H13 H 0.342276 0.778773 1.107928 0.068 Uiso 1 1 calc R U . . .
C14 C 0.25655(19) 0.74787(14) 1.26331(12) 0.0591(3) Uani 1 1 d . . . . .
H14 H 0.29454 0.849975 1.29156 0.071 Uiso 1 1 calc R U . . .
C15 C 0.12342(18) 0.50520(14) 1.28980(11) 0.0543(3) Uani 1 1 d . . . . .
H15 H 0.066499 0.435213 1.336331 0.065 Uiso 1 1 calc R U . . .
C16 C 0.14893(18) 0.45318(14) 1.17947(12) 0.0541(3) Uani 1 1 d . . . . .
H16 H 0.110433 0.350587 1.15334 0.065 Uiso 1 1 calc DR U . . .
loop_
_atom_site_aniso_label
_atom_site_aniso_U_11
_atom_site_aniso_U_22
_atom_site_aniso_U_33
_atom_site_aniso_U_23
_atom_site_aniso_U_13
_atom_site_aniso_U_12
O1 0.0550(5) 0.0682(5) 0.0471(4) 0.0077(4) 0.0157(4) 0.0250(4)
O2 0.0601(5) 0.0894(7) 0.0520(5) -0.0006(4) 0.0187(4) 0.0366(5)
N1 0.0555(6) 0.0728(7) 0.0483(5) 0.0053(5) 0.0176(4) 0.0313(5)
N2A 0.048(4) 0.050(4) 0.049(3) 0.011(3) 0.018(3) 0.027(3)
N3A 0.054(4) 0.049(4) 0.044(4) 0.010(3) 0.013(3) 0.018(3)
C17 0.051(2) 0.0493(12) 0.0427(11) 0.0100(9) 0.0170(12) 0.0225(12)
C18 0.0493(13) 0.0485(11) 0.0429(14) 0.0114(9) 0.0194(12) 0.0227(9)
N2B 0.052(4) 0.048(4) 0.047(4) 0.004(4) 0.013(4) 0.023(4)
N3B 0.052(4) 0.052(4) 0.049(4) 0.006(4) 0.016(4) 0.023(4)
N4 0.0511(6) 0.0651(6) 0.0418(5) 0.0032(4) 0.0115(4) 0.0255(5)
C1 0.0562(6) 0.0394(5) 0.0426(5) 0.0084(4) 0.0174(5) 0.0186(5)
C2 0.0569(6) 0.0459(6) 0.0366(5) 0.0043(4) 0.0171(5) 0.0205(5)
C3 0.0585(7) 0.0477(6) 0.0451(6) 0.0051(4) 0.0190(5) 0.0231(5)
C4 0.0739(8) 0.0543(6) 0.0499(6) 0.0052(5) 0.0303(6) 0.0288(6)
C5 0.0849(9) 0.0535(6) 0.0396(6) 0.0052(5) 0.0245(6) 0.0285(6)
C6 0.0675(7) 0.0502(6) 0.0395(6) 0.0064(4) 0.0116(5) 0.0228(5)
C7 0.0612(7) 0.0669(8) 0.0541(7) 0.0168(6) 0.0254(6) 0.0280(6)
C8 0.0599(7) 0.0534(6) 0.0555(7) 0.0086(5) 0.0195(6) 0.0258(6)
C9 0.0460(6) 0.0594(7) 0.0434(6) 0.0079(5) 0.0135(5) 0.0274(5)
C10 0.0591(7) 0.0569(7) 0.0524(6) 0.0118(5) 0.0195(5) 0.0251(6)
C11 0.0607(7) 0.0566(7) 0.0553(7) 0.0032(5) 0.0170(6) 0.0258(6)
C12 0.0440(6) 0.0625(7) 0.0419(5) 0.0095(5) 0.0128(4) 0.0266(5)
C13 0.0571(7) 0.0555(7) 0.0533(6) 0.0126(5) 0.0198(5) 0.0201(5)
C14 0.0609(7) 0.0525(6) 0.0546(7) 0.0034(5) 0.0149(6) 0.0212(6)
C15 0.0535(7) 0.0629(7) 0.0455(6) 0.0150(5) 0.0161(5) 0.0254(5)
C16 0.0580(7) 0.0523(6) 0.0516(6) 0.0084(5) 0.0151(5) 0.0272(5)
loop_
_atom_type_symbol
_atom_type_description
_atom_type_scat_dispersion_real
_atom_type_scat_dispersion_imag
_atom_type_scat_source
C C 0.0181 0.0091 'International Tables Vol C Tables 4.2.6.8 and 6.1.1.4'
H H 0 0 'International Tables Vol C Tables 4.2.6.8 and 6.1.1.4'
N N 0.0311 0.018 'International Tables Vol C Tables 4.2.6.8 and 6.1.1.4'
O O 0.0492 0.0322 'International Tables Vol C Tables 4.2.6.8 and 6.1.1.4'
loop_
_exptl_crystal_face_index_h
_exptl_crystal_face_index_k
_exptl_crystal_face_index_l
_exptl_crystal_face_perp_dist
1 0 -6 0.0337
3 6 0 0.0565
-2 0 6 0.0536
1 6 1 0.0529
0 -6 -1 0.0564
5 2 3 0.1012
-5 -5 -1 0.093
0 6 4 0.0506
0 0 7 0.0473
-4 2 0 0.1051
1 -4 3 0.0582
-3 -4 3 0.0674
-1 -1 -7 0.0394
0 -3 5 0.0488
0 3 6 0.0455
-1 -4 -7 0.0412
-4 -4 -6 0.0836
-1 -6 -4 0.0452
3 6 4 0.0661
-3 3 -3 0.0956
-5 -2 -3 0.1148
4 5 1 0.0716
loop_
_geom_angle_atom_site_label_1
_geom_angle_atom_site_label_2
_geom_angle_atom_site_label_3
_geom_angle
_geom_angle_site_symmetry_1
_geom_angle_site_symmetry_3
_geom_angle_publ_flag
C1 O1 H1 109.5 . . ?
C3 O2 H2A 109.5 . . ?
C11 N1 C7 116.71(10) . . ?
N3A N2A C9 130(2) . . ?
N2A N3A C12 133(2) . . ?
C18 C17 C9 121.3(5) . . ?
C18 C17 H17 119.4 . . ?
C9 C17 H17 119.4 . . ?
C17 C18 C12 121.8(5) . . ?
C17 C18 H18 119.1 . . ?
C12 C18 H18 119.1 . . ?
N3B N2B C9 112.0(17) . . ?
N2B N3B C12 105.9(15) . . ?
C14 N4 C15 116.81(10) . . ?
O1 C1 C2 122.12(9) . . ?
O1 C1 C6 118.15(11) . . ?
C2 C1 C6 119.74(11) . . ?
C1 C2 C3 120.53(10) . . ?
C1 C2 H2 119.7 . . ?
C3 C2 H2 119.7 . . ?
O2 C3 C2 122.16(10) . . ?
O2 C3 C4 118.02(11) . . ?
C2 C3 C4 119.82(11) . . ?
C5 C4 C3 118.82(12) . . ?
C5 C4 H4 120.6 . . ?
C3 C4 H4 120.6 . . ?
C4 C5 C6 122.05(10) . . ?
C4 C5 H5 119 . . ?
C6 C5 H5 119 . . ?
C5 C6 C1 119.03(12) . . ?
C5 C6 H6 120.5 . . ?
C1 C6 H6 120.5 . . ?
N1 C7 C8 123.81(12) . . ?
N1 C7 H7 118.1 . . ?
C8 C7 H7 118.1 . . ?
C7 C8 C9 119.02(12) . . ?
C7 C8 H8 120.5 . . ?
C9 C8 H8 120.5 . . ?
C10 C9 C8 117.18(11) . . ?
C10 C9 N2A 119.7(10) . . ?
C8 C9 N2A 122.9(10) . . ?
C10 C9 C17 117.4(3) . . ?
C8 C9 C17 125.3(3) . . ?
C10 C9 N2B 149.7(6) . . ?
C8 C9 N2B 93.1(6) . . ?
C11 C10 C9 119.82(11) . . ?
C11 C10 H10 120.1 . . ?
C9 C10 H10 120.1 . . ?
N1 C11 C10 123.40(12) . . ?
N1 C11 H11 118.3 . . ?
C10 C11 H11 118.3 . . ?
C13 C12 C16 117.03(11) . . ?
C13 C12 N3A 121.1(10) . . ?
C16 C12 N3A 121.8(10) . . ?
C13 C12 C18 117.2(3) . . ?
C16 C12 C18 125.7(3) . . ?
C13 C12 N3B 155.0(5) . . ?
C16 C12 N3B 87.9(5) . . ?
C14 C13 C12 119.89(11) . . ?
C14 C13 H13 120.1 . . ?
C12 C13 H13 120.1 . . ?
N4 C14 C13 123.85(12) . . ?
N4 C14 H14 118.1 . . ?
C13 C14 H14 118.1 . . ?
N4 C15 C16 123.14(11) . . ?
N4 C15 H15 118.4 . . ?
C16 C15 H15 118.4 . . ?
C15 C16 C12 119.28(11) . . ?
C15 C16 H16 120.4 . . ?
C12 C16 H16 120.4 . . ?
loop_
_geom_bond_atom_site_label_1
_geom_bond_atom_site_label_2
_geom_bond_distance
_geom_bond_site_symmetry_2
_geom_bond_publ_flag
O1 C1 1.3569(14) . ?
O1 H1 0.82 . ?
O2 C3 1.3530(15) . ?
O2 H2A 0.82 . ?
N1 C11 1.3327(17) . ?
N1 C7 1.3376(16) . ?
N2A N3A 1.234(10) . ?
N2A C9 1.453(18) . ?
N3A C12 1.442(18) . ?
C17 C18 1.317(4) . ?
C17 C9 1.473(5) . ?
C17 H17 0.93 . ?
C18 C12 1.477(4) . ?
C18 H18 0.93 . ?
N2B N3B 1.245(10) . ?
N2B C9 1.563(18) . ?
N3B C12 1.660(18) . ?
N4 C14 1.3293(17) . ?
N4 C15 1.3358(16) . ?
C1 C2 1.3855(16) . ?
C1 C6 1.3927(15) . ?
C2 C3 1.3890(17) . ?
C2 H2 0.93 . ?
C3 C4 1.3953(15) . ?
C4 C5 1.3766(19) . ?
C4 H4 0.93 . ?
C5 C6 1.3802(19) . ?
C5 H5 0.93 . ?
C6 H6 0.93 . ?
C7 C8 1.3744(17) . ?
C7 H7 0.93 . ?
C8 C9 1.3917(17) . ?
C8 H8 0.93 . ?
C9 C10 1.3826(17) . ?
C10 C11 1.3733(17) . ?
C10 H10 0.93 . ?
C11 H11 0.93 . ?
C12 C13 1.3758(17) . ?
C12 C16 1.3931(17) . ?
C13 C14 1.3702(18) . ?
C13 H13 0.93 . ?
C14 H14 0.93 . ?
C15 C16 1.3845(17) . ?
C15 H15 0.93 . ?
C16 H16 0.93 . ?
loop_
_geom_hbond_atom_site_label_D
_geom_hbond_atom_site_label_H
_geom_hbond_atom_site_label_A
_geom_hbond_distance_DH
_geom_hbond_distance_HA
_geom_hbond_distance_DA
_geom_hbond_angle_DHA
_geom_hbond_site_symmetry_A
_geom_hbond_publ_flag
O1 H1 N1 0.82 1.93 2.7508(13) 176.3 . yes
O2 H2A N4 0.82 1.95 2.7669(13) 177.5 2_667 yes
