#------------------------------------------------------------------------------
#$Date: 2020-06-06 04:19:29 +0300 (Sat, 06 Jun 2020) $
#$Revision: 252960 $
#$URL: file:///home/coder/svn-repositories/cod/cif/1/55/82/1558229.cif $
#------------------------------------------------------------------------------
#
# This file is available in the Crystallography Open Database (COD),
# http://www.crystallography.net/
#
# All data on this site have been placed in the public domain by the
# contributors.
#
data_1558229
loop_
_publ_author_name
'Ding, Xiaodan'
'Unruh, Daniel K.'
'Groeneman , Ryan'
'Hutchins, Kristin M.'
_publ_section_title
;
 Controlling thermal expansion within mixed cocrystals by tuning molecular
 motion capability
;
_journal_name_full               'Chemical Science'
_journal_paper_doi               10.1039/D0SC02795B
_journal_year                    2020
_chemical_formula_sum            'C17.6 H15.6 N2.4 O2'
_chemical_formula_weight         292.72
_space_group_IT_number           2
_space_group_name_Hall           '-P 1'
_space_group_name_H-M_alt        'P -1'
_symmetry_cell_setting           triclinic
_symmetry_Int_Tables_number      2
_symmetry_space_group_name_Hall  '-P 1'
_symmetry_space_group_name_H-M   'P -1'
_atom_sites_solution_hydrogens   geom
_atom_sites_solution_primary     dual
_atom_sites_solution_secondary   difmap
_audit_creation_date             2020-03-10T15:53:38-00:00
_audit_creation_method           'WinGX routine CIF_UPDATE'
_audit_update_record
;
2020-04-07 deposited with the CCDC.	2020-06-05 downloaded from the CCDC.
;
_cell_angle_alpha                92.913(4)
_cell_angle_beta                 107.077(3)
_cell_angle_gamma                114.297(3)
_cell_formula_units_Z            2
_cell_length_a                   8.0377(3)
_cell_length_b                   9.8551(4)
_cell_length_c                   10.8773(3)
_cell_measurement_reflns_used    16621
_cell_measurement_temperature    190(2)
_cell_measurement_theta_max      76.606
_cell_measurement_theta_min      4.303
_cell_volume                     735.96(5)
_computing_cell_refinement       'CrysAlisPro 1.171.40.70a (Rigaku OD, 2020)'
_computing_data_collection       'CrysAlisPro 1.171.40.70a (Rigaku OD, 2020)'
_computing_data_reduction        'CrysAlisPro 1.171.40.70a (Rigaku OD, 2020)'
_computing_structure_refinement  'SHELXL-2018/3 (Sheldrick, 2018)'
_computing_structure_solution    'SHELXT 2014/5 (Sheldrick, 2014)'
_diffrn_ambient_environment      N~2~
_diffrn_ambient_temperature      190(2)
_diffrn_detector                 'Hybrid Pixel Array Detector'
_diffrn_detector_area_resol_mean 10
_diffrn_detector_type            HyPix
_diffrn_measured_fraction_theta_full 0.997
_diffrn_measured_fraction_theta_max 0.965
_diffrn_measurement_device       'four-circle diffractometer'
_diffrn_measurement_device_type  'XtaLAB Synergy, Dualflex, HyPix'
_diffrn_measurement_method       '\w scans'
_diffrn_orient_matrix_type
'CrysAlisPro convention (1999,Acta A55,543-557)'
_diffrn_orient_matrix_UB_11      0.0024766
_diffrn_orient_matrix_UB_12      0.0471022
_diffrn_orient_matrix_UB_13      -0.1483886
_diffrn_orient_matrix_UB_21      -0.0734663
_diffrn_orient_matrix_UB_22      0.1684309
_diffrn_orient_matrix_UB_23      0.0099062
_diffrn_orient_matrix_UB_31      0.2010026
_diffrn_orient_matrix_UB_32      -0.004164
_diffrn_orient_matrix_UB_33      -0.0268651
_diffrn_radiation_monochromator  mirror
_diffrn_radiation_probe          x-ray
_diffrn_radiation_type           CuK\a
_diffrn_radiation_wavelength     1.54178
_diffrn_reflns_av_R_equivalents  0.0361
_diffrn_reflns_av_unetI/netI     0.0494
_diffrn_reflns_Laue_measured_fraction_full 0.997
_diffrn_reflns_Laue_measured_fraction_max 0.965
_diffrn_reflns_limit_h_max       8
_diffrn_reflns_limit_h_min       -10
_diffrn_reflns_limit_k_max       12
_diffrn_reflns_limit_k_min       -12
_diffrn_reflns_limit_l_max       13
_diffrn_reflns_limit_l_min       -13
_diffrn_reflns_number            27457
_diffrn_reflns_point_group_measured_fraction_full 0.997
_diffrn_reflns_point_group_measured_fraction_max 0.965
_diffrn_reflns_theta_full        67.679
_diffrn_reflns_theta_max         77.461
_diffrn_reflns_theta_min         4.337
_diffrn_source                   'micro-focus sealed X-ray tube'
_diffrn_source_type              'PhotonJet (Cu) X-ray Source'
_exptl_absorpt_coefficient_mu    0.711
_exptl_absorpt_correction_T_max  1
_exptl_absorpt_correction_T_min  0.522
_exptl_absorpt_correction_type   gaussian
_exptl_absorpt_process_details
;
        CrysAlisPro 1.171.40.70a (Rigaku Oxford Diffraction, 2020)
Numerical absorption correction based on gaussian integration over
                        a multifaceted crystal model
        Empirical absorption correction using spherical harmonics,
 implemented in SCALE3 ABSPACK scaling algorithm.
;
_exptl_crystal_colour            'clear light yellow'
_exptl_crystal_density_diffrn    1.321
_exptl_crystal_description       irregular
_exptl_crystal_F_000             308
_exptl_crystal_size_max          0.224
_exptl_crystal_size_mid          0.11
_exptl_crystal_size_min          0.085
_refine_diff_density_max         0.172
_refine_diff_density_min         -0.151
_refine_diff_density_rms         0.035
_refine_ls_extinction_coef       0.0038(8)
_refine_ls_extinction_expression Fc^*^=kFc[1+0.001xFc^2^\l^3^/sin(2\q)]^-1/4^
_refine_ls_extinction_method     'SHELXL-2018/3 (Sheldrick 2018)'
_refine_ls_goodness_of_fit_ref   1.085
_refine_ls_hydrogen_treatment    constr
_refine_ls_matrix_type           full
_refine_ls_number_parameters     223
_refine_ls_number_reflns         3022
_refine_ls_number_restraints     224
_refine_ls_restrained_S_all      1.049
_refine_ls_R_factor_all          0.0378
_refine_ls_R_factor_gt           0.0357
_refine_ls_shift/su_max          0.001
_refine_ls_shift/su_mean         0
_refine_ls_structure_factor_coef Fsqd
_refine_ls_weighting_details
'w=1/[\s^2^(Fo^2^)+(0.0585P)^2^+0.0912P] where P=(Fo^2^+2Fc^2^)/3'
_refine_ls_weighting_scheme      calc
_refine_ls_wR_factor_gt          0.1023
_refine_ls_wR_factor_ref         0.1042
_reflns_Friedel_coverage         0
_reflns_number_gt                2782
_reflns_number_total             3022
_reflns_threshold_expression     'I > 2\s(I)'
_cod_data_source_file            d0sc02795b2.cif
_cod_data_source_block           A25_BE75_190
_cod_original_formula_sum        'C17.60 H15.60 N2.40 O2'
_cod_database_code               1558229
_shelx_estimated_absorpt_t_min   0.857
_shelx_estimated_absorpt_t_max   0.942
_shelx_shelxl_version_number     2018/3
_shelx_res_file
;
TITL 190_a.res in P-1
    190_a.res
    created by SHELXL-2018/3 at 15:34:45 on 10-Mar-2020
REM Old TITL 190 in P-1

REM SHELXT solution in P-1
REM R1 0.105,  Rweak 0.003,  Alpha 0.032,  Orientation as input
REM Formula found by SHELXT:  C18 N2 O2

CELL  1.54178   8.0377   9.8551  10.8773   92.913  107.077  114.297
ZERR    2.000   0.0003   0.0004   0.0003    0.004    0.003    0.003
LATT  1
SFAC C H N O
UNIT 35.2067 31.2067 4.79328 4
TEMP -83.2
SIZE 0.224 0.110 0.085
L.S. 100
BOND $H
ACTA
LIST 4
FMAP 2
PLAN 20

EQIV $1 -x+1, -y+1, -z+2

HTAB O1 N1
HTAB O2 N4_$1

RIGU
SIMU 0.01 N2A N3A C17 C18

DFIX 1.24 0.01 N2A N3A
DFIX 1.32 0.01 C17 C18
DFIX 2.2 0.05 H17 H16
DFIX 41 C9 N2A C9 C17 C12 N3A C12 C18

SUMP 1.0 0.0 1.0 2 1.0 3

WGHT    0.058500    0.091200
EXTI    0.003827
FVAR       0.87300   0.19832   0.80167   1.46113
O1    4    0.165301    0.158159    0.306644    11.00000    0.03756    0.04529 =
         0.03286    0.00572    0.01039    0.01746
AFIX 147
H1    2    0.198583    0.185663    0.388031    11.00000   -1.50000
AFIX   0
O2    4    0.824714    0.228531    0.432582    11.00000    0.04095    0.05882 =
         0.03547    0.00038    0.01240    0.02406
AFIX 147
H2A   2    0.829114    0.266529    0.505052    11.00000   -1.50000
AFIX   0
N1    3    0.261169    0.247360    0.571163    11.00000    0.03782    0.05006 =
         0.03551    0.00438    0.01190    0.02130
PART  1
N2A   3    0.232656    0.378812    0.939337    21.00000    0.03730    0.03625 =
         0.03927    0.00753    0.01364    0.02127
N3A   3    0.259757    0.503973    0.989696    21.00000    0.04000    0.03482 =
         0.03776    0.01390    0.01475    0.01203
PART  2
C17   1    0.214066    0.378509    0.934844    31.00000    0.03498    0.03642 =
         0.02993    0.00771    0.01098    0.01700
AFIX  43
H17   2    0.154412    0.299399    0.976760    31.00000   -1.20000
AFIX   0
C18   1    0.268306    0.520981    0.988038    31.00000    0.03273    0.03153 =
         0.03205    0.00664    0.01329    0.01367
AFIX  43
H18   2    0.330993    0.600767    0.947776    31.00000   -1.20000
AFIX   0
PART  0
N4    3    0.174588    0.651104    1.332579    11.00000    0.03480    0.04526 =
         0.03005    0.00289    0.00674    0.01741
C1    1    0.316555    0.154407    0.277789    11.00000    0.03927    0.02665 =
         0.03206    0.00696    0.01280    0.01319
C2    1    0.494768    0.192285    0.374513    11.00000    0.04001    0.03133 =
         0.02610    0.00374    0.01142    0.01455
AFIX  43
H2    2    0.512146    0.220417    0.463890    11.00000   -1.20000
AFIX   0
C3    1    0.647768    0.189254    0.341259    11.00000    0.03969    0.03201 =
         0.03264    0.00444    0.01251    0.01543
C4    1    0.621271    0.145186    0.209988    11.00000    0.05092    0.03672 =
         0.03629    0.00479    0.02105    0.01986
AFIX  43
H4    2    0.724212    0.141294    0.186326    11.00000   -1.20000
AFIX   0
C5    1    0.442604    0.107314    0.115043    11.00000    0.05759    0.03530 =
         0.02843    0.00374    0.01672    0.01837
AFIX  43
H5    2    0.424534    0.078072    0.025713    11.00000   -1.20000
AFIX   0
C6    1    0.289662    0.110890    0.146705    11.00000    0.04591    0.03459 =
         0.02826    0.00438    0.00694    0.01546
AFIX  43
H6    2    0.168043    0.084077    0.080079    11.00000   -1.20000
AFIX   0
C7    1    0.322816    0.393921    0.620654    11.00000    0.04047    0.04657 =
         0.03817    0.01155    0.01670    0.01949
AFIX  43
H7    2    0.372435    0.467016    0.570790    11.00000   -1.20000
AFIX   0
C8    1    0.318576    0.444915    0.739342    11.00000    0.04036    0.03674 =
         0.03809    0.00735    0.01412    0.01710
AFIX  43
H8    2    0.366109    0.550377    0.770518    11.00000   -1.20000
AFIX   0
C9    1    0.243237    0.339070    0.813223    11.00000    0.03004    0.03824 =
         0.03146    0.00638    0.00891    0.01700
C10   1    0.183358    0.187080    0.763576    11.00000    0.03902    0.03763 =
         0.03772    0.00757    0.01250    0.01718
AFIX  43
H10   2    0.134660    0.111466    0.811703    11.00000   -1.20000
AFIX   0
C11   1    0.195074    0.146765    0.644111    11.00000    0.04034    0.03980 =
         0.03963    0.00170    0.01056    0.01824
AFIX  43
H11   2    0.154223    0.042553    0.612173    11.00000   -1.20000
AFIX   0
C12   1    0.233609    0.557874    1.107490    11.00000    0.02906    0.03787 =
         0.02979    0.00689    0.00822    0.01561
C13   1    0.287415    0.709427    1.152617    11.00000    0.03800    0.03528 =
         0.03746    0.00839    0.01242    0.01297
AFIX  43
H13   2    0.345426    0.784629    1.106949    11.00000   -1.20000
AFIX   0
C14   1    0.256398    0.750486    1.263950    11.00000    0.04195    0.03609 =
         0.03839    0.00243    0.01060    0.01472
AFIX  43
H14   2    0.295293    0.854941    1.293305    11.00000   -1.20000
AFIX   0
C15   1    0.121493    0.504409    1.289160    11.00000    0.03557    0.04332 =
         0.03199    0.01070    0.01103    0.01757
AFIX  43
H15   2    0.062437    0.431855    1.336440    11.00000   -1.20000
AFIX   0
C16   1    0.148318    0.453463    1.179183    11.00000    0.03831    0.03570 =
         0.03538    0.00838    0.01171    0.01771
AFIX  43
H16   2    0.109129    0.348411    1.152563    11.00000   -1.20000
AFIX   0
HKLF 4




REM  190_a.res in P-1
REM wR2 = 0.104249, GooF = S = 1.08489, Restrained GooF = 1.04907 for all data
REM R1 = 0.035695 for 2782 Fo > 4sig(Fo) and 0.037844 for all 3022 data
REM 223 parameters refined using 224 restraints

END

WGHT      0.0585      0.0912

REM Highest difference peak  0.172,  deepest hole -0.151,  1-sigma level  0.035
Q1    1   0.2146  0.3575  0.8597  11.00000  0.05    0.17
Q2    1   0.2474  0.5414  1.0543  11.00000  0.05    0.17
Q3    1   0.2409  0.5224  1.1588  11.00000  0.05    0.17
Q4    1   0.6235  0.1427  0.2744  11.00000  0.05    0.16
Q5    1   0.2722  0.3975  0.7793  11.00000  0.05    0.16
Q6    1   0.2361  0.2148  0.4915  11.00000  0.05    0.16
Q7    1   0.1735  0.6670  1.4020  11.00000  0.05    0.16
Q8    1   0.2939  0.1077  0.2181  11.00000  0.05    0.15
Q9    1   0.1530  0.5000  1.1230  11.00000  0.05    0.15
Q10   1   0.3435  0.4167  0.7002  11.00000  0.05    0.15
Q11   1   0.1806  0.2647  0.7772  11.00000  0.05    0.15
Q12   1   0.1210  0.4885  1.2206  11.00000  0.05    0.14
Q13   1   0.4214  0.2097  0.3207  11.00000  0.05    0.13
Q14   1   0.2894  0.6226  1.1447  11.00000  0.05    0.12
Q15   1   0.0493  0.0771  0.7888  11.00000  0.05    0.11
Q16   1   0.1954  0.4615  0.9369  11.00000  0.05    0.11
Q17   1   0.2030  0.6006  1.3385  11.00000  0.05    0.11
Q18   1   0.9667  0.2219  0.4024  11.00000  0.05    0.10
Q19   1   0.0865  0.0587  0.0937  11.00000  0.05    0.10
Q20   1   0.2800  0.7212  1.2179  11.00000  0.05    0.10
;
_shelx_res_checksum              60041
loop_
_symmetry_equiv_pos_as_xyz
'x, y, z'
'-x, -y, -z'
loop_
_atom_site_label
_atom_site_type_symbol
_atom_site_fract_x
_atom_site_fract_y
_atom_site_fract_z
_atom_site_U_iso_or_equiv
_atom_site_adp_type
_atom_site_occupancy
_atom_site_site_symmetry_order
_atom_site_calc_flag
_atom_site_refinement_flags_posn
_atom_site_refinement_flags_adp
_atom_site_refinement_flags_occupancy
_atom_site_disorder_assembly
_atom_site_disorder_group
O1 O 0.16530(11) 0.15816(8) 0.30664(7) 0.0395(2) Uani 1 1 d . . . . .
H1 H 0.198583 0.185663 0.388031 0.059 Uiso 1 1 calc R U . . .
O2 O 0.82471(11) 0.22853(9) 0.43258(7) 0.0450(2) Uani 1 1 d . . . . .
H2A H 0.829114 0.266529 0.505052 0.068 Uiso 1 1 calc R U . . .
N1 N 0.26117(14) 0.24736(11) 0.57116(9) 0.0409(2) Uani 1 1 d . . . . .
N2A N 0.233(4) 0.379(2) 0.939(2) 0.036(3) Uani 0.198(3) 1 d D U P A 1
N3A N 0.260(4) 0.504(2) 0.990(2) 0.039(3) Uani 0.198(3) 1 d D U P A 1
C17 C 0.2141(11) 0.3785(6) 0.9348(5) 0.0334(8) Uani 0.802(3) 1 d D U P A 2
H17 H 0.154412 0.299399 0.97676 0.04 Uiso 0.802(3) 1 calc DR U P A 2
C18 C 0.2683(10) 0.5210(6) 0.9880(6) 0.0318(6) Uani 0.802(3) 1 d D U P A 2
H18 H 0.330993 0.600767 0.947776 0.038 Uiso 0.802(3) 1 calc R U P A 2
N4 N 0.17459(13) 0.65110(10) 1.33258(8) 0.0381(2) Uani 1 1 d . . . . .
C1 C 0.31655(15) 0.15441(10) 0.27779(9) 0.0330(2) Uani 1 1 d . . . . .
C2 C 0.49477(15) 0.19228(10) 0.37451(9) 0.0330(2) Uani 1 1 d . . . . .
H2 H 0.512146 0.220417 0.46389 0.04 Uiso 1 1 calc R U . . .
C3 C 0.64777(15) 0.18925(11) 0.34126(10) 0.0351(2) Uani 1 1 d . . . . .
C4 C 0.62127(17) 0.14519(12) 0.20999(10) 0.0398(3) Uani 1 1 d . . . . .
H4 H 0.724212 0.141294 0.186326 0.048 Uiso 1 1 calc R U . . .
C5 C 0.44260(18) 0.10731(12) 0.11504(10) 0.0409(3) Uani 1 1 d . . . . .
H5 H 0.424534 0.078072 0.025713 0.049 Uiso 1 1 calc R U . . .
C6 C 0.28966(17) 0.11089(11) 0.14670(10) 0.0387(2) Uani 1 1 d . . . . .
H6 H 0.168043 0.084077 0.080079 0.046 Uiso 1 1 calc R U . . .
C7 C 0.32282(16) 0.39392(13) 0.62065(11) 0.0408(3) Uani 1 1 d . . . . .
H7 H 0.372435 0.467016 0.57079 0.049 Uiso 1 1 calc R U . . .
C8 C 0.31858(16) 0.44491(12) 0.73934(10) 0.0383(2) Uani 1 1 d . . . . .
H8 H 0.366109 0.550377 0.770518 0.046 Uiso 1 1 calc R U . . .
C9 C 0.24324(14) 0.33907(11) 0.81322(9) 0.0331(2) Uani 1 1 d D . . . .
C10 C 0.18336(16) 0.18708(12) 0.76358(10) 0.0383(2) Uani 1 1 d . . . . .
H10 H 0.13466 0.111466 0.811703 0.046 Uiso 1 1 calc R U . . .
C11 C 0.19507(16) 0.14676(12) 0.64411(11) 0.0408(3) Uani 1 1 d . . . . .
H11 H 0.154223 0.042553 0.612173 0.049 Uiso 1 1 calc R U . . .
C12 C 0.23361(14) 0.55787(11) 1.10749(9) 0.0325(2) Uani 1 1 d D . . . .
C13 C 0.28742(16) 0.70943(12) 1.15262(10) 0.0382(2) Uani 1 1 d . . . . .
H13 H 0.345426 0.784629 1.106949 0.046 Uiso 1 1 calc R U . . .
C14 C 0.25640(16) 0.75049(12) 1.26395(11) 0.0408(3) Uani 1 1 d . . . . .
H14 H 0.295293 0.854941 1.293305 0.049 Uiso 1 1 calc R U . . .
C15 C 0.12149(15) 0.50441(12) 1.28916(10) 0.0370(2) Uani 1 1 d . . . . .
H15 H 0.062437 0.431855 1.33644 0.044 Uiso 1 1 calc R U . . .
C16 C 0.14832(15) 0.45346(12) 1.17918(10) 0.0362(2) Uani 1 1 d . . . . .
H16 H 0.109129 0.348411 1.152563 0.043 Uiso 1 1 calc DR U . . .
loop_
_atom_site_aniso_label
_atom_site_aniso_U_11
_atom_site_aniso_U_22
_atom_site_aniso_U_33
_atom_site_aniso_U_23
_atom_site_aniso_U_13
_atom_site_aniso_U_12
O1 0.0376(4) 0.0453(4) 0.0329(4) 0.0057(3) 0.0104(3) 0.0175(3)
O2 0.0410(4) 0.0588(5) 0.0355(4) 0.0004(3) 0.0124(3) 0.0241(4)
N1 0.0378(5) 0.0501(5) 0.0355(5) 0.0044(4) 0.0119(4) 0.0213(4)
N2A 0.037(5) 0.036(4) 0.039(4) 0.008(3) 0.014(3) 0.021(3)
N3A 0.040(4) 0.035(4) 0.038(4) 0.014(3) 0.015(3) 0.012(3)
C17 0.0350(16) 0.0364(12) 0.0299(10) 0.0077(9) 0.0110(10) 0.0170(9)
C18 0.0327(13) 0.0315(13) 0.0321(10) 0.0066(9) 0.0133(8) 0.0137(11)
N4 0.0348(5) 0.0453(5) 0.0300(4) 0.0029(3) 0.0067(3) 0.0174(4)
C1 0.0393(5) 0.0266(4) 0.0321(5) 0.0070(4) 0.0128(4) 0.0132(4)
C2 0.0400(5) 0.0313(5) 0.0261(5) 0.0037(4) 0.0114(4) 0.0146(4)
C3 0.0397(5) 0.0320(5) 0.0326(5) 0.0044(4) 0.0125(4) 0.0154(4)
C4 0.0509(6) 0.0367(5) 0.0363(5) 0.0048(4) 0.0210(5) 0.0199(5)
C5 0.0576(7) 0.0353(5) 0.0284(5) 0.0037(4) 0.0167(5) 0.0184(5)
C6 0.0459(6) 0.0346(5) 0.0283(5) 0.0044(4) 0.0069(4) 0.0155(4)
C7 0.0405(6) 0.0466(6) 0.0382(5) 0.0116(4) 0.0167(5) 0.0195(5)
C8 0.0404(6) 0.0367(5) 0.0381(5) 0.0073(4) 0.0141(4) 0.0171(4)
C9 0.0300(5) 0.0382(5) 0.0315(5) 0.0064(4) 0.0089(4) 0.0170(4)
C10 0.0390(6) 0.0376(5) 0.0377(5) 0.0076(4) 0.0125(4) 0.0172(4)
C11 0.0403(6) 0.0398(5) 0.0396(6) 0.0017(4) 0.0106(4) 0.0182(5)
C12 0.0291(5) 0.0379(5) 0.0298(5) 0.0069(4) 0.0082(4) 0.0156(4)
C13 0.0380(5) 0.0353(5) 0.0375(5) 0.0084(4) 0.0124(4) 0.0130(4)
C14 0.0420(6) 0.0361(5) 0.0384(5) 0.0024(4) 0.0106(5) 0.0147(4)
C15 0.0356(5) 0.0433(5) 0.0320(5) 0.0107(4) 0.0110(4) 0.0176(4)
C16 0.0383(5) 0.0357(5) 0.0354(5) 0.0084(4) 0.0117(4) 0.0177(4)
loop_
_atom_type_symbol
_atom_type_description
_atom_type_scat_dispersion_real
_atom_type_scat_dispersion_imag
_atom_type_scat_source
C C 0.0181 0.0091 'International Tables Vol C Tables 4.2.6.8 and 6.1.1.4'
H H 0 0 'International Tables Vol C Tables 4.2.6.8 and 6.1.1.4'
N N 0.0311 0.018 'International Tables Vol C Tables 4.2.6.8 and 6.1.1.4'
O O 0.0492 0.0322 'International Tables Vol C Tables 4.2.6.8 and 6.1.1.4'
loop_
_exptl_crystal_face_index_h
_exptl_crystal_face_index_k
_exptl_crystal_face_index_l
_exptl_crystal_face_perp_dist
1 0 -6 0.0337
5 2 3 0.1012
0 0 7 0.0473
-2 0 6 0.0536
-5 -2 -3 0.1148
0 -1 -7 0.0394
0 -6 -1 0.0564
-5 -5 -1 0.093
1 6 1 0.0529
4 5 1 0.0716
-4 2 0 0.1051
1 -4 3 0.0582
-3 3 -3 0.0956
0 -3 5 0.0488
-3 -4 3 0.0674
0 3 6 0.0455
-1 -4 -6 0.0412
-4 -4 -6 0.0836
-1 -6 -4 0.0452
3 6 4 0.0661
3 6 0 0.0565
0 6 4 0.0506
loop_
_geom_angle_atom_site_label_1
_geom_angle_atom_site_label_2
_geom_angle_atom_site_label_3
_geom_angle
_geom_angle_site_symmetry_1
_geom_angle_site_symmetry_3
_geom_angle_publ_flag
C1 O1 H1 109.5 . . ?
C3 O2 H2A 109.5 . . ?
C11 N1 C7 116.96(9) . . ?
N3A N2A C9 126.4(19) . . ?
N2A N3A C12 133.0(19) . . ?
C18 C17 C9 122.2(5) . . ?
C18 C17 H17 118.9 . . ?
C9 C17 H17 118.9 . . ?
C17 C18 C12 121.4(5) . . ?
C17 C18 H18 119.3 . . ?
C12 C18 H18 119.3 . . ?
C14 N4 C15 117.06(9) . . ?
O1 C1 C2 121.93(9) . . ?
O1 C1 C6 118.14(9) . . ?
C2 C1 C6 119.93(10) . . ?
C1 C2 C3 120.42(9) . . ?
C1 C2 H2 119.8 . . ?
C3 C2 H2 119.8 . . ?
O2 C3 C2 122.06(9) . . ?
O2 C3 C4 118.10(9) . . ?
C2 C3 C4 119.84(10) . . ?
C5 C4 C3 118.94(10) . . ?
C5 C4 H4 120.5 . . ?
C3 C4 H4 120.5 . . ?
C6 C5 C4 121.80(9) . . ?
C6 C5 H5 119.1 . . ?
C4 C5 H5 119.1 . . ?
C5 C6 C1 119.06(10) . . ?
C5 C6 H6 120.5 . . ?
C1 C6 H6 120.5 . . ?
N1 C7 C8 123.97(10) . . ?
N1 C7 H7 118 . . ?
C8 C7 H7 118 . . ?
C7 C8 C9 118.92(10) . . ?
C7 C8 H8 120.5 . . ?
C9 C8 H8 120.5 . . ?
C10 C9 C8 117.23(9) . . ?
C10 C9 N2A 118.7(8) . . ?
C8 C9 N2A 124.0(8) . . ?
C10 C9 C17 118.9(2) . . ?
C8 C9 C17 123.7(2) . . ?
C11 C10 C9 119.70(10) . . ?
C11 C10 H10 120.1 . . ?
C9 C10 H10 120.1 . . ?
N1 C11 C10 123.16(10) . . ?
N1 C11 H11 118.4 . . ?
C10 C11 H11 118.4 . . ?
C13 C12 C16 116.97(9) . . ?
C13 C12 C18 117.3(2) . . ?
C16 C12 C18 125.7(2) . . ?
C13 C12 N3A 123.5(8) . . ?
C16 C12 N3A 119.5(8) . . ?
C14 C13 C12 119.81(10) . . ?
C14 C13 H13 120.1 . . ?
C12 C13 H13 120.1 . . ?
N4 C14 C13 123.42(10) . . ?
N4 C14 H14 118.3 . . ?
C13 C14 H14 118.3 . . ?
N4 C15 C16 123.35(10) . . ?
N4 C15 H15 118.3 . . ?
C16 C15 H15 118.3 . . ?
C15 C16 C12 119.39(10) . . ?
C15 C16 H16 120.3 . . ?
C12 C16 H16 120.3 . . ?
loop_
_geom_bond_atom_site_label_1
_geom_bond_atom_site_label_2
_geom_bond_distance
_geom_bond_site_symmetry_2
_geom_bond_publ_flag
O1 C1 1.3557(13) . ?
O1 H1 0.84 . ?
O2 C3 1.3555(13) . ?
O2 H2A 0.84 . ?
N1 C11 1.3374(15) . ?
N1 C7 1.3405(14) . ?
N2A N3A 1.228(10) . ?
N2A C9 1.444(16) . ?
N3A C12 1.466(16) . ?
C17 C18 1.327(4) . ?
C17 C9 1.470(5) . ?
C17 H17 0.95 . ?
C18 C12 1.465(4) . ?
C18 H18 0.95 . ?
N4 C14 1.3347(15) . ?
N4 C15 1.3415(14) . ?
C1 C2 1.3903(14) . ?
C1 C6 1.3944(14) . ?
C2 C3 1.3908(15) . ?
C2 H2 0.95 . ?
C3 C4 1.3982(14) . ?
C4 C5 1.3845(17) . ?
C4 H4 0.95 . ?
C5 C6 1.3835(17) . ?
C5 H5 0.95 . ?
C6 H6 0.95 . ?
C7 C8 1.3764(15) . ?
C7 H7 0.95 . ?
C8 C9 1.3971(15) . ?
C8 H8 0.95 . ?
C9 C10 1.3924(14) . ?
C10 C11 1.3804(15) . ?
C10 H10 0.95 . ?
C11 H11 0.95 . ?
C12 C13 1.3885(15) . ?
C12 C16 1.3971(14) . ?
C13 C14 1.3795(15) . ?
C13 H13 0.95 . ?
C14 H14 0.95 . ?
C15 C16 1.3817(14) . ?
C15 H15 0.95 . ?
C16 H16 0.95 . ?
loop_
_geom_hbond_atom_site_label_D
_geom_hbond_atom_site_label_H
_geom_hbond_atom_site_label_A
_geom_hbond_distance_DH
_geom_hbond_distance_HA
_geom_hbond_distance_DA
_geom_hbond_angle_DHA
_geom_hbond_site_symmetry_A
_geom_hbond_publ_flag
O1 H1 N1 0.84 1.9 2.7438(11) 177.1 . yes
O2 H2A N4 0.84 1.92 2.7587(11) 177.2 2_667 yes
