#------------------------------------------------------------------------------
#$Date: 2020-06-06 04:19:29 +0300 (Sat, 06 Jun 2020) $
#$Revision: 252960 $
#$URL: file:///home/coder/svn-repositories/cod/cif/1/55/82/1558252.cif $
#------------------------------------------------------------------------------
#
# This file is available in the Crystallography Open Database (COD),
# http://www.crystallography.net/
#
# All data on this site have been placed in the public domain by the
# contributors.
#
data_1558252
loop_
_publ_author_name
'Ding, Xiaodan'
'Unruh, Daniel K.'
'Groeneman , Ryan'
'Hutchins, Kristin M.'
_publ_section_title
;
 Controlling thermal expansion within mixed cocrystals by tuning molecular
 motion capability
;
_journal_name_full               'Chemical Science'
_journal_paper_doi               10.1039/D0SC02795B
_journal_year                    2020
_chemical_formula_sum            'C16.5 H14.5 N3.5 O2'
_chemical_formula_weight         293.82
_space_group_IT_number           2
_space_group_name_Hall           '-P 1'
_space_group_name_H-M_alt        'P -1'
_symmetry_cell_setting           triclinic
_symmetry_Int_Tables_number      2
_symmetry_space_group_name_Hall  '-P 1'
_symmetry_space_group_name_H-M   'P -1'
_atom_sites_solution_hydrogens   geom
_atom_sites_solution_primary     dual
_atom_sites_solution_secondary   difmap
_audit_creation_date             2020-04-02T13:30:34-00:00
_audit_creation_method           'WinGX routine CIF_UPDATE'
_audit_update_record
;
2020-04-07 deposited with the CCDC.	2020-06-05 downloaded from the CCDC.
;
_cell_angle_alpha                93.5338(16)
_cell_angle_beta                 106.566(2)
_cell_angle_gamma                113.8855(19)
_cell_formula_units_Z            2
_cell_length_a                   7.9561(2)
_cell_length_b                   9.75452(15)
_cell_length_c                   10.8395(2)
_cell_measurement_reflns_used    15572
_cell_measurement_temperature    190(2)
_cell_measurement_theta_max      76.874
_cell_measurement_theta_min      4.321
_cell_volume                     722.05(3)
_computing_cell_refinement       'CrysAlisPro 1.171.40.70a (Rigaku OD, 2020)'
_computing_data_collection       'CrysAlisPro 1.171.40.70a (Rigaku OD, 2020)'
_computing_data_reduction        'CrysAlisPro 1.171.40.70a (Rigaku OD, 2020)'
_computing_structure_refinement  'SHELXL-2018/3 (Sheldrick, 2018)'
_computing_structure_solution    'SHELXT 2014/5 (Sheldrick, 2014)'
_diffrn_ambient_environment      N~2~
_diffrn_ambient_temperature      190(2)
_diffrn_detector                 'Hybrid Pixel Array Detector'
_diffrn_detector_area_resol_mean 10
_diffrn_detector_type            HyPix
_diffrn_measured_fraction_theta_full 0.998
_diffrn_measured_fraction_theta_max 0.974
_diffrn_measurement_device       'four-circle diffractometer'
_diffrn_measurement_device_type  'XtaLAB Synergy, Dualflex, HyPix'
_diffrn_measurement_method       '\w scans'
_diffrn_orient_matrix_type
'CrysAlisPro convention (1999,Acta A55,543-557)'
_diffrn_orient_matrix_UB_11      -0.0288333
_diffrn_orient_matrix_UB_12      -0.1662221
_diffrn_orient_matrix_UB_13      -0.0021205
_diffrn_orient_matrix_UB_21      -0.1070004
_diffrn_orient_matrix_UB_22      -0.0402865
_diffrn_orient_matrix_UB_23      -0.1496447
_diffrn_orient_matrix_UB_31      0.1960084
_diffrn_orient_matrix_UB_32      0.0430281
_diffrn_orient_matrix_UB_33      -0.0229078
_diffrn_radiation_monochromator  mirror
_diffrn_radiation_probe          x-ray
_diffrn_radiation_type           CuK\a
_diffrn_radiation_wavelength     1.54178
_diffrn_reflns_av_R_equivalents  0.0347
_diffrn_reflns_av_unetI/netI     0.0479
_diffrn_reflns_Laue_measured_fraction_full 0.998
_diffrn_reflns_Laue_measured_fraction_max 0.974
_diffrn_reflns_limit_h_max       10
_diffrn_reflns_limit_h_min       -9
_diffrn_reflns_limit_k_max       12
_diffrn_reflns_limit_k_min       -12
_diffrn_reflns_limit_l_max       13
_diffrn_reflns_limit_l_min       -13
_diffrn_reflns_number            27314
_diffrn_reflns_point_group_measured_fraction_full 0.998
_diffrn_reflns_point_group_measured_fraction_max 0.974
_diffrn_reflns_theta_full        67.679
_diffrn_reflns_theta_max         77.258
_diffrn_reflns_theta_min         4.345
_diffrn_source                   'micro-focus sealed X-ray tube'
_diffrn_source_type              'PhotonJet (Cu) X-ray Source'
_exptl_absorpt_coefficient_mu    0.75
_exptl_absorpt_correction_T_max  1
_exptl_absorpt_correction_T_min  0.656
_exptl_absorpt_correction_type   gaussian
_exptl_absorpt_process_details
;
        CrysAlisPro 1.171.40.70a (Rigaku Oxford Diffraction, 2020)
Numerical absorption correction based on gaussian integration over
                        a multifaceted crystal model
        Empirical absorption correction using spherical harmonics,
 implemented in SCALE3 ABSPACK scaling algorithm.
;
_exptl_crystal_colour            'clear yellow'
_exptl_crystal_density_diffrn    1.351
_exptl_crystal_description       plate
_exptl_crystal_F_000             308
_exptl_crystal_size_max          0.219
_exptl_crystal_size_mid          0.132
_exptl_crystal_size_min          0.056
_refine_diff_density_max         0.273
_refine_diff_density_min         -0.158
_refine_diff_density_rms         0.036
_refine_ls_extinction_coef       0.0047(9)
_refine_ls_extinction_expression Fc^*^=kFc[1+0.001xFc^2^\l^3^/sin(2\q)]^-1/4^
_refine_ls_extinction_method     'SHELXL-2018/3 (Sheldrick 2018)'
_refine_ls_goodness_of_fit_ref   1.058
_refine_ls_hydrogen_treatment    constr
_refine_ls_matrix_type           full
_refine_ls_number_parameters     242
_refine_ls_number_reflns         2987
_refine_ls_number_restraints     306
_refine_ls_restrained_S_all      1.027
_refine_ls_R_factor_all          0.0398
_refine_ls_R_factor_gt           0.0372
_refine_ls_shift/su_max          0
_refine_ls_shift/su_mean         0
_refine_ls_structure_factor_coef Fsqd
_refine_ls_weighting_details
'w=1/[\s^2^(Fo^2^)+(0.0612P)^2^+0.1131P] where P=(Fo^2^+2Fc^2^)/3'
_refine_ls_weighting_scheme      calc
_refine_ls_wR_factor_gt          0.1058
_refine_ls_wR_factor_ref         0.1083
_reflns_Friedel_coverage         0
_reflns_number_gt                2731
_reflns_number_total             2987
_reflns_threshold_expression     'I > 2\s(I)'
_cod_data_source_file            d0sc02795b2.cif
_cod_data_source_block           A75_BE25_190
_cod_original_formula_sum        'C16.50 H14.50 N3.50 O2'
_cod_database_code               1558252
_shelx_estimated_absorpt_t_min   0.853
_shelx_estimated_absorpt_t_max   0.959
_shelx_shelxl_version_number     2018/3
_shelx_res_file
;
TITL 190_a.res in P-1
    190_a.res
    created by SHELXL-2018/3 at 13:13:26 on 02-Apr-2020
REM Old TITL 190 in P-1

REM SHELXT solution in P-1
REM R1 0.105,  Rweak 0.004,  Alpha 0.034,  Orientation as input
REM Formula found by SHELXT:  C16 N4 O2

CELL  1.54178   7.956065   9.754524  10.839503  93.5338 106.5662 113.8855
ZERR    2.000   0.000203   0.000149   0.000245   0.0016   0.0021   0.0019
LATT  1
SFAC C H N O
UNIT 32.9906 28.9906 7.00936 4
TEMP -83.2
SIZE 0.219 0.132 0.056
L.S. 100
BOND $H
ACTA
LIST 4
FMAP 2
PLAN 20

EQIV $1 -x+1, -y+1, -z+2

HTAB O1 N1
HTAB O2 N4_$1

RIGU
SIMU 0.01 N2A N3A N2B N3B C17 C18

DFIX 1.24 0.01 N2A N3A
DFIX 1.24 0.01 N2B N3B
DFIX 1.32 0.01 C17 C18
DFIX 2.2 0.01 H8 H18
DFIX 51 C9 N2A C9 C17 C12 N3A C12 C18

SUMP 1.0 0.0 1.0 2 1.0 3 1.0 4

WGHT    0.061200    0.113100
EXTI    0.004656
FVAR       0.87989   0.73202   0.24765   0.02032   1.39993
O1    4    0.164342    0.161923    0.311492    11.00000    0.03803    0.04711 =
         0.03421    0.00593    0.01322    0.01793
AFIX 147
H1    2    0.197071    0.188106    0.393281    11.00000   -1.50000
AFIX   0
O2    4    0.825074    0.224151    0.434700    11.00000    0.04137    0.06006 =
         0.03799    0.00027    0.01358    0.02447
AFIX 147
H2A   2    0.829878    0.263654    0.507474    11.00000   -1.50000
AFIX   0
N1    3    0.261058    0.249419    0.579175    11.00000    0.03769    0.04821 =
         0.03732    0.00544    0.01456    0.02005
PART  1
N2A   3    0.213699    0.375454    0.944041    21.00000    0.03981    0.03712 =
         0.03069    0.00548    0.01339    0.01914
N3A   3    0.268739    0.514806    0.981284    21.00000    0.03820    0.03520 =
         0.02855    0.00378    0.01818    0.01483
PART  2
C17   1    0.210821    0.381783    0.936096    31.00000    0.03956    0.03338 =
         0.03120    0.00952    0.01065    0.01487
AFIX  43
H17   2    0.144827    0.299039    0.972920    31.00000   -1.20000
AFIX   0
C18   1    0.261647    0.520344    0.999759    31.00000    0.03760    0.03395 =
         0.02976    0.00632    0.01386    0.01712
AFIX  43
H18   2    0.327476    0.603750    0.963494    31.00000   -1.20000
AFIX   0
PART  3
N2B   3    0.283523    0.478368    0.926708    41.00000    0.03956    0.03707 =
         0.03292    0.00561    0.01362    0.01513
N3B   3    0.181388    0.400002    0.987377    41.00000    0.03937    0.03743 =
         0.03367    0.00632    0.01274    0.01499
PART  0
N4    3    0.175065    0.650362    1.328097    11.00000    0.03383    0.04518 =
         0.03373    0.00341    0.00873    0.01686
C1    1    0.316647    0.156858    0.281383    11.00000    0.03893    0.02846 =
         0.03321    0.00661    0.01466    0.01305
C2    1    0.493972    0.191339    0.377805    11.00000    0.04045    0.03316 =
         0.02892    0.00445    0.01418    0.01489
AFIX  43
H2    2    0.510438    0.217976    0.467696    11.00000   -1.20000
AFIX   0
C3    1    0.647968    0.187056    0.343330    11.00000    0.03986    0.03294 =
         0.03495    0.00470    0.01432    0.01536
C4    1    0.622612    0.144554    0.211683    11.00000    0.04907    0.03775 =
         0.03897    0.00501    0.02307    0.01926
AFIX  43
H4    2    0.725726    0.139078    0.187358    11.00000   -1.20000
AFIX   0
C5    1    0.444798    0.110497    0.117096    11.00000    0.05602    0.03763 =
         0.03094    0.00364    0.01880    0.01846
AFIX  43
H5    2    0.427617    0.082440    0.027274    11.00000   -1.20000
AFIX   0
C6    1    0.290975    0.116084    0.149454    11.00000    0.04491    0.03773 =
         0.03106    0.00509    0.01044    0.01597
AFIX  43
H6    2    0.170165    0.092540    0.082894    11.00000   -1.20000
AFIX   0
C7    1    0.324019    0.397561    0.629552    11.00000    0.04206    0.04384 =
         0.04129    0.01122    0.01896    0.01813
AFIX  43
H7    2    0.374717    0.470987    0.579914    11.00000   -1.20000
AFIX   0
C8    1    0.319463    0.449558    0.749262    11.00000    0.03979    0.03712 =
         0.04020    0.00650    0.01444    0.01641
AFIX  43
H8    2    0.367653    0.555858    0.781819    11.00000   -1.20000
AFIX   0
C9    1    0.242216    0.341763    0.820962    11.00000    0.03080    0.03982 =
         0.03107    0.00493    0.00913    0.01718
C10   1    0.179789    0.188118    0.771192    11.00000    0.03879    0.03819 =
         0.03838    0.00796    0.01323    0.01638
AFIX  43
H10   2    0.129065    0.112161    0.818841    11.00000   -1.20000
AFIX   0
C11   1    0.192881    0.147894    0.651084    11.00000    0.03972    0.03918 =
         0.03978    0.00260    0.01211    0.01728
AFIX  43
H11   2    0.151313    0.042746    0.617954    11.00000   -1.20000
AFIX   0
C12   1    0.232267    0.553464    1.102888    11.00000    0.03122    0.04119 =
         0.03141    0.00712    0.01043    0.01689
C13   1    0.288100    0.706600    1.146743    11.00000    0.03957    0.03838 =
         0.03956    0.00881    0.01403    0.01344
AFIX  43
H13   2    0.346752    0.781089    1.100376    11.00000   -1.20000
AFIX   0
C14   1    0.257383    0.749704    1.258902    11.00000    0.04085    0.03658 =
         0.04107    0.00279    0.01084    0.01379
AFIX  43
H14   2    0.296726    0.855301    1.288418    11.00000   -1.20000
AFIX   0
C15   1    0.120050    0.501625    1.284584    11.00000    0.03623    0.04322 =
         0.03577    0.01080    0.01295    0.01688
AFIX  43
H15   2    0.060448    0.429598    1.332409    11.00000   -1.20000
AFIX   0
C16   1    0.145849    0.448081    1.173593    11.00000    0.03909    0.03756 =
         0.03824    0.00803    0.01312    0.01787
AFIX  43
H16   2    0.105593    0.341916    1.146183    11.00000   -1.20000
AFIX   0
HKLF 4




REM  190_a.res in P-1
REM wR2 = 0.108301, GooF = S = 1.05752, Restrained GooF = 1.02724 for all data
REM R1 = 0.037238 for 2743 Fo > 4sig(Fo) and 0.039770 for all 2987 data
REM 242 parameters refined using 306 restraints

END

WGHT      0.0612      0.1131

REM Highest difference peak  0.273,  deepest hole -0.158,  1-sigma level  0.036
Q1    1   0.1793  0.4970  1.1236  11.00000  0.05    0.21
Q2    1   0.2712  0.3996  0.7886  11.00000  0.05    0.20
Q3    1   0.1806  0.2660  0.7777  11.00000  0.05    0.19
Q4    1   0.2771  0.2271  0.5148  11.00000  0.05    0.18
Q5    1   0.1748  0.6740  1.4069  11.00000  0.05    0.17
Q6    1   0.2290  0.6130  1.1173  11.00000  0.05    0.15
Q7    1   0.3043  0.1227  0.2162  11.00000  0.05    0.14
Q8    1   0.3651  0.4220  0.7193  11.00000  0.05    0.13
Q9    1   0.7792  0.1161  0.2263  11.00000  0.05    0.12
Q10   1   0.4182  0.2232  0.3277  11.00000  0.05    0.12
Q11   1   0.7749  0.1456  0.4819  11.00000  0.05    0.11
Q12   1   0.3546  0.0820  0.1414  11.00000  0.05    0.11
Q13   1   0.1050  0.4803  1.1999  11.00000  0.05    0.11
Q14   1   0.6304  0.1531  0.2707  11.00000  0.05    0.11
Q15   1   0.2434 -0.0194 -0.0794  11.00000  0.05    0.10
Q16   1   0.1992  0.2612  0.9832  11.00000  0.05    0.10
Q17   1   0.2302  0.7127  1.1764  11.00000  0.05    0.10
Q18   1   0.0752  0.0476  0.0882  11.00000  0.05    0.09
Q19   1   0.4992  0.0618  0.1644  11.00000  0.05    0.09
Q20   1   0.2984  0.3127  0.5003  11.00000  0.05    0.09
;
_shelx_res_checksum              98457
loop_
_symmetry_equiv_pos_as_xyz
'x, y, z'
'-x, -y, -z'
loop_
_atom_site_label
_atom_site_type_symbol
_atom_site_fract_x
_atom_site_fract_y
_atom_site_fract_z
_atom_site_U_iso_or_equiv
_atom_site_adp_type
_atom_site_occupancy
_atom_site_site_symmetry_order
_atom_site_calc_flag
_atom_site_refinement_flags_posn
_atom_site_refinement_flags_adp
_atom_site_refinement_flags_occupancy
_atom_site_disorder_assembly
_atom_site_disorder_group
O1 O 0.16434(11) 0.16192(9) 0.31149(7) 0.0400(2) Uani 1 1 d . . . . .
H1 H 0.197071 0.188106 0.393281 0.06 Uiso 1 1 calc R U . . .
O2 O 0.82507(12) 0.22415(10) 0.43470(8) 0.0462(2) Uani 1 1 d . . . . .
H2A H 0.829878 0.263654 0.507474 0.069 Uiso 1 1 calc R U . . .
N1 N 0.26106(14) 0.24942(11) 0.57918(9) 0.0404(2) Uani 1 1 d . . . . .
N2A N 0.2137(15) 0.3755(6) 0.9440(7) 0.0349(9) Uani 0.732(3) 1 d D U P A 1
N3A N 0.2687(10) 0.5148(6) 0.9813(4) 0.0330(6) Uani 0.732(3) 1 d D U P A 1
C17 C 0.211(5) 0.382(2) 0.936(3) 0.035(2) Uani 0.248(3) 1 d D U P A 2
H17 H 0.144827 0.299039 0.97292 0.042 Uiso 0.248(3) 1 calc R U P A 2
C18 C 0.262(4) 0.520(2) 0.9998(14) 0.0327(18) Uani 0.248(3) 1 d D U P A 2
H18 H 0.327476 0.60375 0.963494 0.039 Uiso 0.248(3) 1 calc DR U P A 2
N2B N 0.284(7) 0.478(6) 0.927(5) 0.037(3) Uani 0.020(2) 1 d D U P A 3
N3B N 0.181(7) 0.400(6) 0.987(5) 0.037(3) Uani 0.020(2) 1 d D U P A 3
N4 N 0.17507(14) 0.65036(11) 1.32810(9) 0.0387(2) Uani 1 1 d . . . . .
C1 C 0.31665(16) 0.15686(11) 0.28138(10) 0.0336(2) Uani 1 1 d . . . . .
C2 C 0.49397(16) 0.19134(11) 0.37781(10) 0.0342(2) Uani 1 1 d . . . . .
H2 H 0.510438 0.217976 0.467696 0.041 Uiso 1 1 calc R U . . .
C3 C 0.64797(16) 0.18706(12) 0.34333(11) 0.0359(2) Uani 1 1 d . . . . .
C4 C 0.62261(18) 0.14455(13) 0.21168(11) 0.0401(3) Uani 1 1 d . . . . .
H4 H 0.725726 0.139078 0.187358 0.048 Uiso 1 1 calc R U . . .
C5 C 0.44480(19) 0.11050(13) 0.11710(11) 0.0415(3) Uani 1 1 d . . . . .
H5 H 0.427617 0.08244 0.027274 0.05 Uiso 1 1 calc R U . . .
C6 C 0.29098(18) 0.11608(12) 0.14945(11) 0.0394(3) Uani 1 1 d . . . . .
H6 H 0.170165 0.09254 0.082894 0.047 Uiso 1 1 calc R U . . .
C7 C 0.32402(17) 0.39756(13) 0.62955(12) 0.0414(3) Uani 1 1 d . . . . .
H7 H 0.374717 0.470987 0.579914 0.05 Uiso 1 1 calc R U . . .
C8 C 0.31946(17) 0.44956(13) 0.74926(11) 0.0391(3) Uani 1 1 d . . . . .
H8 H 0.367653 0.555858 0.781819 0.047 Uiso 1 1 calc DR U . . .
C9 C 0.24222(15) 0.34176(12) 0.82096(10) 0.0338(2) Uani 1 1 d D . . . .
C10 C 0.17979(17) 0.18812(13) 0.77119(11) 0.0386(3) Uani 1 1 d . . . . .
H10 H 0.129065 0.112161 0.818841 0.046 Uiso 1 1 calc R U . . .
C11 C 0.19288(17) 0.14789(13) 0.65108(11) 0.0402(3) Uani 1 1 d . . . . .
H11 H 0.151313 0.042746 0.617954 0.048 Uiso 1 1 calc R U . . .
C12 C 0.23227(15) 0.55346(13) 1.10289(10) 0.0344(2) Uani 1 1 d D . . . .
C13 C 0.28810(17) 0.70660(13) 1.14674(11) 0.0403(3) Uani 1 1 d . . . . .
H13 H 0.346752 0.781089 1.100376 0.048 Uiso 1 1 calc R U . . .
C14 C 0.25738(17) 0.74970(13) 1.25890(12) 0.0416(3) Uani 1 1 d . . . . .
H14 H 0.296726 0.855301 1.288418 0.05 Uiso 1 1 calc R U . . .
C15 C 0.12005(17) 0.50162(13) 1.28458(11) 0.0383(3) Uani 1 1 d . . . . .
H15 H 0.060448 0.429598 1.332409 0.046 Uiso 1 1 calc R U . . .
C16 C 0.14585(17) 0.44808(13) 1.17359(11) 0.0379(3) Uani 1 1 d . . . . .
H16 H 0.105593 0.341916 1.146183 0.046 Uiso 1 1 calc R U . . .
loop_
_atom_site_aniso_label
_atom_site_aniso_U_11
_atom_site_aniso_U_22
_atom_site_aniso_U_33
_atom_site_aniso_U_23
_atom_site_aniso_U_13
_atom_site_aniso_U_12
O1 0.0380(4) 0.0471(5) 0.0342(4) 0.0059(3) 0.0132(3) 0.0179(3)
O2 0.0414(5) 0.0601(5) 0.0380(4) 0.0003(4) 0.0136(4) 0.0245(4)
N1 0.0377(5) 0.0482(5) 0.0373(5) 0.0054(4) 0.0146(4) 0.0201(4)
N2A 0.0398(13) 0.0371(13) 0.0307(14) 0.0055(11) 0.0134(13) 0.0191(10)
N3A 0.0382(10) 0.0352(10) 0.0286(13) 0.0038(9) 0.0182(10) 0.0148(8)
C17 0.040(4) 0.033(3) 0.031(3) 0.010(3) 0.011(3) 0.015(3)
C18 0.038(3) 0.034(3) 0.030(3) 0.006(2) 0.014(3) 0.017(2)
N2B 0.040(5) 0.037(4) 0.033(4) 0.006(4) 0.014(4) 0.015(4)
N3B 0.039(5) 0.037(4) 0.034(4) 0.006(4) 0.013(4) 0.015(4)
N4 0.0338(5) 0.0452(5) 0.0337(5) 0.0034(4) 0.0087(4) 0.0169(4)
C1 0.0389(6) 0.0285(5) 0.0332(5) 0.0066(4) 0.0147(4) 0.0131(4)
C2 0.0404(6) 0.0332(5) 0.0289(5) 0.0045(4) 0.0142(4) 0.0149(4)
C3 0.0399(6) 0.0329(5) 0.0349(5) 0.0047(4) 0.0143(4) 0.0154(4)
C4 0.0491(7) 0.0377(5) 0.0390(6) 0.0050(4) 0.0231(5) 0.0193(5)
C5 0.0560(7) 0.0376(6) 0.0309(5) 0.0036(4) 0.0188(5) 0.0185(5)
C6 0.0449(6) 0.0377(6) 0.0311(5) 0.0051(4) 0.0104(5) 0.0160(5)
C7 0.0421(6) 0.0438(6) 0.0413(6) 0.0112(5) 0.0190(5) 0.0181(5)
C8 0.0398(6) 0.0371(5) 0.0402(6) 0.0065(4) 0.0144(5) 0.0164(5)
C9 0.0308(5) 0.0398(6) 0.0311(5) 0.0049(4) 0.0091(4) 0.0172(4)
C10 0.0388(6) 0.0382(6) 0.0384(6) 0.0080(4) 0.0132(5) 0.0164(5)
C11 0.0397(6) 0.0392(6) 0.0398(6) 0.0026(5) 0.0121(5) 0.0173(5)
C12 0.0312(5) 0.0412(6) 0.0314(5) 0.0071(4) 0.0104(4) 0.0169(4)
C13 0.0396(6) 0.0384(6) 0.0396(6) 0.0088(5) 0.0140(5) 0.0134(5)
C14 0.0409(6) 0.0366(6) 0.0411(6) 0.0028(5) 0.0108(5) 0.0138(5)
C15 0.0362(6) 0.0432(6) 0.0358(5) 0.0108(4) 0.0130(4) 0.0169(5)
C16 0.0391(6) 0.0376(5) 0.0382(6) 0.0080(4) 0.0131(5) 0.0179(5)
loop_
_atom_type_symbol
_atom_type_description
_atom_type_scat_dispersion_real
_atom_type_scat_dispersion_imag
_atom_type_scat_source
C C 0.0181 0.0091 'International Tables Vol C Tables 4.2.6.8 and 6.1.1.4'
H H 0 0 'International Tables Vol C Tables 4.2.6.8 and 6.1.1.4'
N N 0.0311 0.018 'International Tables Vol C Tables 4.2.6.8 and 6.1.1.4'
O O 0.0492 0.0322 'International Tables Vol C Tables 4.2.6.8 and 6.1.1.4'
loop_
_exptl_crystal_face_index_h
_exptl_crystal_face_index_k
_exptl_crystal_face_index_l
_exptl_crystal_face_perp_dist
-1 6 -1 0.055
5 0 -3 0.0947
3 -6 0 0.0674
0 -6 2 0.0757
-5 0 3 0.0919
0 0 -7 0.0283
5 -1 0 0.0887
0 0 7 0.026
0 4 4 0.0525
-2 -3 -2 0.0761
loop_
_geom_angle_atom_site_label_1
_geom_angle_atom_site_label_2
_geom_angle_atom_site_label_3
_geom_angle
_geom_angle_site_symmetry_1
_geom_angle_site_symmetry_3
_geom_angle_publ_flag
C1 O1 H1 109.5 . . ?
C3 O2 H2A 109.5 . . ?
C11 N1 C7 117.32(10) . . ?
N3A N2A C9 112.4(5) . . ?
N2A N3A C12 114.2(4) . . ?
C18 C17 C9 128.1(17) . . ?
C18 C17 H17 116 . . ?
C9 C17 H17 116 . . ?
C12 C18 C17 127.0(16) . . ?
C12 C18 H18 116.5 . . ?
C17 C18 H18 116.5 . . ?
N3B N2B C9 96(5) . . ?
N2B N3B C12 95(5) . . ?
C14 N4 C15 117.43(10) . . ?
O1 C1 C2 121.81(9) . . ?
O1 C1 C6 118.10(10) . . ?
C2 C1 C6 120.09(10) . . ?
C1 C2 C3 120.30(9) . . ?
C1 C2 H2 119.8 . . ?
C3 C2 H2 119.8 . . ?
O2 C3 C2 121.90(9) . . ?
O2 C3 C4 118.17(10) . . ?
C2 C3 C4 119.92(10) . . ?
C5 C4 C3 118.88(11) . . ?
C5 C4 H4 120.6 . . ?
C3 C4 H4 120.6 . . ?
C4 C5 C6 121.96(10) . . ?
C4 C5 H5 119 . . ?
C6 C5 H5 119 . . ?
C5 C6 C1 118.82(11) . . ?
C5 C6 H6 120.6 . . ?
C1 C6 H6 120.6 . . ?
N1 C7 C8 123.82(11) . . ?
N1 C7 H7 118.1 . . ?
C8 C7 H7 118.1 . . ?
C7 C8 C9 118.07(10) . . ?
C7 C8 H8 121 . . ?
C9 C8 H8 121 . . ?
C10 C9 C8 118.75(10) . . ?
C10 C9 C17 118.9(9) . . ?
C8 C9 C17 122.2(9) . . ?
C10 C9 N2A 115.9(3) . . ?
C8 C9 N2A 125.3(3) . . ?
C10 C9 N2B 153.9(15) . . ?
C8 C9 N2B 87.3(15) . . ?
C11 C10 C9 118.71(10) . . ?
C11 C10 H10 120.6 . . ?
C9 C10 H10 120.6 . . ?
N1 C11 C10 123.28(10) . . ?
N1 C11 H11 118.4 . . ?
C10 C11 H11 118.4 . . ?
C18 C12 C13 116.4(9) . . ?
C18 C12 C16 125.0(9) . . ?
C13 C12 C16 118.55(10) . . ?
C13 C12 N3A 116.3(2) . . ?
C16 C12 N3A 125.2(2) . . ?
C13 C12 N3B 153.3(14) . . ?
C16 C12 N3B 87.5(14) . . ?
C14 C13 C12 119.00(10) . . ?
C14 C13 H13 120.5 . . ?
C12 C13 H13 120.5 . . ?
N4 C14 C13 123.30(11) . . ?
N4 C14 H14 118.4 . . ?
C13 C14 H14 118.4 . . ?
N4 C15 C16 123.25(10) . . ?
N4 C15 H15 118.4 . . ?
C16 C15 H15 118.4 . . ?
C15 C16 C12 118.46(10) . . ?
C15 C16 H16 120.8 . . ?
C12 C16 H16 120.8 . . ?
loop_
_geom_bond_atom_site_label_1
_geom_bond_atom_site_label_2
_geom_bond_distance
_geom_bond_site_symmetry_2
_geom_bond_publ_flag
O1 C1 1.3599(13) . ?
O1 H1 0.84 . ?
O2 C3 1.3581(14) . ?
O2 H2A 0.84 . ?
N1 C11 1.3356(15) . ?
N1 C7 1.3408(15) . ?
N2A N3A 1.246(4) . ?
N2A C9 1.455(5) . ?
N3A C12 1.486(3) . ?
C17 C18 1.323(10) . ?
C17 C9 1.403(18) . ?
C17 H17 0.95 . ?
C18 C12 1.255(9) . ?
C18 H18 0.95 . ?
N2B N3B 1.241(10) . ?
N2B C9 1.56(6) . ?
N3B C12 1.72(6) . ?
N4 C14 1.3365(15) . ?
N4 C15 1.3426(15) . ?
C1 C2 1.3883(15) . ?
C1 C6 1.3937(15) . ?
C2 C3 1.3940(16) . ?
C2 H2 0.95 . ?
C3 C4 1.3943(15) . ?
C4 C5 1.3832(17) . ?
C4 H4 0.95 . ?
C5 C6 1.3857(17) . ?
C5 H5 0.95 . ?
C6 H6 0.95 . ?
C7 C8 1.3795(16) . ?
C7 H7 0.95 . ?
C8 C9 1.3918(16) . ?
C8 H8 0.95 . ?
C9 C10 1.3888(15) . ?
C10 C11 1.3810(16) . ?
C10 H10 0.95 . ?
C11 H11 0.95 . ?
C12 C13 1.3818(16) . ?
C12 C16 1.3936(16) . ?
C13 C14 1.3799(17) . ?
C13 H13 0.95 . ?
C14 H14 0.95 . ?
C15 C16 1.3829(16) . ?
C15 H15 0.95 . ?
C16 H16 0.95 . ?
loop_
_geom_hbond_atom_site_label_D
_geom_hbond_atom_site_label_H
_geom_hbond_atom_site_label_A
_geom_hbond_distance_DH
_geom_hbond_distance_HA
_geom_hbond_distance_DA
_geom_hbond_angle_DHA
_geom_hbond_site_symmetry_A
_geom_hbond_publ_flag
O1 H1 N1 0.84 1.92 2.7621(12) 177.3 . yes
O2 H2A N4 0.84 1.94 2.7792(12) 176.8 2_667 yes
