#------------------------------------------------------------------------------
#$Date: 2020-06-06 04:19:29 +0300 (Sat, 06 Jun 2020) $
#$Revision: 252960 $
#$URL: file:///home/coder/svn-repositories/cod/cif/1/55/82/1558244.cif $
#------------------------------------------------------------------------------
#
# This file is available in the Crystallography Open Database (COD),
# http://www.crystallography.net/
#
# All data on this site have been placed in the public domain by the
# contributors.
#
data_1558244
loop_
_publ_author_name
'Ding, Xiaodan'
'Unruh, Daniel K.'
'Groeneman , Ryan'
'Hutchins, Kristin M.'
_publ_section_title
;
 Controlling thermal expansion within mixed cocrystals by tuning molecular
 motion capability
;
_journal_name_full               'Chemical Science'
_journal_paper_doi               10.1039/D0SC02795B
_journal_year                    2020
_chemical_formula_sum            'C17.35 H14 N2.65 O2'
_chemical_formula_weight         291.62
_space_group_IT_number           2
_space_group_name_Hall           '-P 1'
_space_group_name_H-M_alt        'P -1'
_symmetry_cell_setting           triclinic
_symmetry_Int_Tables_number      2
_symmetry_space_group_name_Hall  '-P 1'
_symmetry_space_group_name_H-M   'P -1'
_atom_sites_solution_hydrogens   geom
_atom_sites_solution_primary     dual
_atom_sites_solution_secondary   difmap
_audit_creation_date             2020-02-26T14:18:12-00:00
_audit_creation_method           'WinGX routine CIF_UPDATE'
_audit_update_record
;
2020-04-07 deposited with the CCDC.	2020-06-05 downloaded from the CCDC.
;
_cell_angle_alpha                92.3422(18)
_cell_angle_beta                 107.888(2)
_cell_angle_gamma                114.448(2)
_cell_formula_units_Z            2
_cell_length_a                   8.15991(18)
_cell_length_b                   9.7782(2)
_cell_length_c                   10.9363(3)
_cell_measurement_reflns_used    14716
_cell_measurement_temperature    230(2)
_cell_measurement_theta_max      76.322
_cell_measurement_theta_min      4.319
_cell_volume                     741.61(4)
_computing_cell_refinement       'CrysAlisPro 1.171.40.70a (Rigaku OD, 2020)'
_computing_data_collection       'CrysAlisPro 1.171.40.70a (Rigaku OD, 2020)'
_computing_data_reduction        'CrysAlisPro 1.171.40.70a (Rigaku OD, 2020)'
_computing_structure_refinement  'SHELXL-2018/3 (Sheldrick, 2018)'
_computing_structure_solution    'SHELXT 2014/5 (Sheldrick, 2014)'
_diffrn_ambient_environment      N~2~
_diffrn_ambient_temperature      230(2)
_diffrn_detector                 'Hybrid Pixel Array Detector'
_diffrn_detector_area_resol_mean 10
_diffrn_detector_type            HyPix
_diffrn_measured_fraction_theta_full 0.995
_diffrn_measured_fraction_theta_max 0.954
_diffrn_measurement_device       'four-circle diffractometer'
_diffrn_measurement_device_type  'XtaLAB Synergy, Dualflex, HyPix'
_diffrn_measurement_method       '\w scans'
_diffrn_orient_matrix_type
'CrysAlisPro convention (1999,Acta A55,543-557)'
_diffrn_orient_matrix_UB_11      -0.1811818
_diffrn_orient_matrix_UB_12      -0.1494171
_diffrn_orient_matrix_UB_13      -0.0766025
_diffrn_orient_matrix_UB_21      -0.128172
_diffrn_orient_matrix_UB_22      0.0727099
_diffrn_orient_matrix_UB_23      0.018439
_diffrn_orient_matrix_UB_31      -0.0032382
_diffrn_orient_matrix_UB_32      0.0592531
_diffrn_orient_matrix_UB_33      -0.1286802
_diffrn_radiation_monochromator  mirror
_diffrn_radiation_probe          x-ray
_diffrn_radiation_type           CuK\a
_diffrn_radiation_wavelength     1.54178
_diffrn_reflns_av_R_equivalents  0.0549
_diffrn_reflns_av_unetI/netI     0.0731
_diffrn_reflns_Laue_measured_fraction_full 0.995
_diffrn_reflns_Laue_measured_fraction_max 0.954
_diffrn_reflns_limit_h_max       10
_diffrn_reflns_limit_h_min       -10
_diffrn_reflns_limit_k_max       12
_diffrn_reflns_limit_k_min       -12
_diffrn_reflns_limit_l_max       12
_diffrn_reflns_limit_l_min       -13
_diffrn_reflns_number            24585
_diffrn_reflns_point_group_measured_fraction_full 0.995
_diffrn_reflns_point_group_measured_fraction_max 0.954
_diffrn_reflns_theta_full        67.679
_diffrn_reflns_theta_max         77.422
_diffrn_reflns_theta_min         4.33
_diffrn_source                   'micro-focus sealed X-ray tube'
_diffrn_source_type              'PhotonJet (Cu) X-ray Source'
_exptl_absorpt_coefficient_mu    0.711
_exptl_absorpt_correction_T_max  1
_exptl_absorpt_correction_T_min  0.575
_exptl_absorpt_correction_type   gaussian
_exptl_absorpt_process_details
;
        CrysAlisPro 1.171.40.70a (Rigaku Oxford Diffraction, 2020)
Numerical absorption correction based on gaussian integration over
                        a multifaceted crystal model
        Empirical absorption correction using spherical harmonics,
 implemented in SCALE3 ABSPACK scaling algorithm.
;
_exptl_crystal_colour            'clear yellow'
_exptl_crystal_density_diffrn    1.306
_exptl_crystal_description       irregular
_exptl_crystal_F_000             305
_exptl_crystal_size_max          0.2
_exptl_crystal_size_mid          0.109
_exptl_crystal_size_min          0.103
_refine_diff_density_max         0.145
_refine_diff_density_min         -0.136
_refine_diff_density_rms         0.034
_refine_ls_extinction_coef       0.0048(10)
_refine_ls_extinction_expression Fc^*^=kFc[1+0.001xFc^2^\l^3^/sin(2\q)]^-1/4^
_refine_ls_extinction_method     'SHELXL-2018/3 (Sheldrick 2018)'
_refine_ls_goodness_of_fit_ref   1.061
_refine_ls_hydrogen_treatment    constr
_refine_ls_matrix_type           full
_refine_ls_number_parameters     284
_refine_ls_number_reflns         3016
_refine_ls_number_restraints     513
_refine_ls_restrained_S_all      1.006
_refine_ls_R_factor_all          0.0457
_refine_ls_R_factor_gt           0.0402
_refine_ls_shift/su_max          0
_refine_ls_shift/su_mean         0
_refine_ls_structure_factor_coef Fsqd
_refine_ls_weighting_details
'w=1/[\s^2^(Fo^2^)+(0.0614P)^2^+0.0746P] where P=(Fo^2^+2Fc^2^)/3'
_refine_ls_weighting_scheme      calc
_refine_ls_wR_factor_gt          0.1123
_refine_ls_wR_factor_ref         0.1172
_reflns_Friedel_coverage         0
_reflns_number_gt                2570
_reflns_number_total             3016
_reflns_threshold_expression     'I > 2\s(I)'
_cod_data_source_file            d0sc02795b2.cif
_cod_data_source_block           A25_BA75_230
_cod_original_cell_volume        741.61(3)
_cod_database_code               1558244
_shelx_estimated_absorpt_t_min   0.871
_shelx_estimated_absorpt_t_max   0.93
_shelx_shelxl_version_number     2018/3
_shelx_res_file
;
TITL 230_a.res in P-1
    230_a.res
    created by SHELXL-2018/3 at 14:08:25 on 26-Feb-2020
REM Old TITL 230 in P-1

REM SHELXT solution in P-1
REM R1 0.143,  Rweak 0.005,  Alpha 0.036,  Orientation as input
REM Formula found by SHELXT:  C17 N3 O2

CELL  1.54178   8.159906   9.778190  10.936351  92.3422 107.8882 114.4482
ZERR    2.000   0.000178   0.000202   0.000250   0.0018   0.0020   0.0020
LATT  1
SFAC C H N O
UNIT 34.6936 28 5.3064 4
TEMP -43.2
SIZE 0.200 0.109 0.103
L.S. 10
BOND $H
ACTA
LIST 4
FMAP 2
PLAN 20
CONF

RIGU
SIMU 0.01 C12A C12B C13A C13B C14A C14B C15A C15B C16A C16B N4A N4B
SIMU 0.01 N2A N3A N2B N3B C17 C18

EQIV $2 x, y, z+1
EQIV $3 -x+1, -y+1, -z+1

HTAB O1 N1_$2
HTAB O2 N4A_$3
HTAB O2 N4B_$3

DFIX 1.20 0.02 C17 C18
DFIX 1.25 0.02 N2A N3A
DFIX 1.25 0.02 N2B N3B
DFIX 51 C12B C17 C18 C9

SUMP 1.0 0.0 1.0 2 1.0 3 1.0 4

WGHT    0.061400    0.074600
EXTI    0.004797
FVAR       0.86456   0.29707   0.67342   0.02951   1.39836
O1    4    0.167717    0.147721    0.307038    11.00000    0.05165    0.06395 =
         0.04787    0.00826    0.01560    0.02301
AFIX 147
H1    2    0.200916    0.173795    0.387392    11.00000   -1.50000
AFIX   0
O2    4    0.816825    0.211447    0.434210    11.00000    0.05808    0.08205 =
         0.05524    0.00155    0.01835    0.03485
AFIX 147
H2A   2    0.824731    0.252195    0.505234    11.00000   -1.50000
AFIX   0
N1    3    0.262421    0.243118   -0.429603    11.00000    0.05222    0.07183 =
         0.05073    0.00924    0.01790    0.02953
C1    1    0.318082    0.147441    0.278250    11.00000    0.05243    0.03865 =
         0.04436    0.00745    0.01709    0.01639
C2    1    0.491753    0.178286    0.375328    11.00000    0.05460    0.04361 =
         0.03991    0.00437    0.01684    0.01945
AFIX  43
H2    2    0.507228    0.199492    0.463880    11.00000   -1.20000
AFIX   0
C3    1    0.643160    0.177995    0.342304    11.00000    0.05506    0.04600 =
         0.04817    0.00370    0.01788    0.02143
C4    1    0.618993    0.142825    0.211622    11.00000    0.06962    0.05599 =
         0.05396    0.00372    0.03014    0.02667
AFIX  43
H4    2    0.719436    0.139782    0.188489    11.00000   -1.20000
AFIX   0
C5    1    0.445191    0.112440    0.116364    11.00000    0.07981    0.05871 =
         0.04256    0.00338    0.02434    0.02680
AFIX  43
H5    2    0.428920    0.089495    0.027853    11.00000   -1.20000
AFIX   0
C6    1    0.294454    0.114771    0.147327    11.00000    0.06378    0.05354 =
         0.04128    0.00517    0.01256    0.02149
AFIX  43
H6    2    0.177579    0.094559    0.080833    11.00000   -1.20000
AFIX   0
C7    1    0.329541    0.392813   -0.386404    11.00000    0.05665    0.06546 =
         0.06054    0.01901    0.02335    0.02549
AFIX  43
H7    2    0.377804    0.461219   -0.438852    11.00000   -1.20000
AFIX   0
C8    1    0.331794    0.452007   -0.269641    11.00000    0.05500    0.04870 =
         0.06351    0.01035    0.01585    0.02070
AFIX  43
H8    2    0.382476    0.558323   -0.242410    11.00000   -1.20000
AFIX   0
C9    1    0.257887    0.351993   -0.192630    11.00000    0.04289    0.05488 =
         0.04517    0.00241    0.00869    0.02334
C10   1    0.189872    0.195927   -0.235643    11.00000    0.05411    0.05102 =
         0.04770    0.00803    0.01660    0.02139
AFIX  43
H10   2    0.140520    0.124767   -0.185393    11.00000   -1.20000
AFIX   0
C11   1    0.196505    0.148267   -0.353168    11.00000    0.05632    0.05389 =
         0.05122    0.00304    0.01563    0.02444
AFIX  43
H11   2    0.152081    0.042907   -0.381214    11.00000   -1.20000
AFIX   0
PART  1
N2A   3    0.220909    0.381783   -0.062657    21.00000    0.05098    0.04542 =
         0.04943   -0.00591    0.00898    0.02438
N3A   3    0.260306    0.506428   -0.013675    21.00000    0.05475    0.05245 =
         0.05666   -0.00968    0.01238    0.02506
C12A  1    0.228136    0.551270    0.102935    21.00000    0.04169    0.04763 =
         0.04567    0.01152    0.00914    0.02047
C13A  1    0.280691    0.703186    0.155174    21.00000    0.05713    0.03858 =
         0.05285    0.00169    0.01097    0.01931
AFIX  43
H13A  2    0.338157    0.784888    0.115952    21.00000   -1.20000
AFIX   0
C14A  1    0.243470    0.726377    0.267448    21.00000    0.05442    0.03397 =
         0.04741    0.00671    0.01151    0.01642
AFIX  43
H14A  2    0.280727    0.829226    0.300385    21.00000   -1.20000
AFIX   0
N4A   3    0.172158    0.637927    0.329372    21.00000    0.04855    0.05190 =
         0.05010    0.01006    0.00856    0.02061
C15A  1    0.122714    0.504338    0.279004    21.00000    0.04537    0.05907 =
         0.04166    0.02452    0.01969    0.01795
AFIX  43
H15A  2    0.060834    0.429017    0.321913    21.00000   -1.20000
AFIX   0
C16A  1    0.144420    0.449223    0.169927    21.00000    0.05545    0.04488 =
         0.05078    0.01149    0.01445    0.02109
AFIX  43
H16A  2    0.102088    0.343903    0.143408    21.00000   -1.20000
AFIX  66
PART  2
C12B  1    0.212125    0.526853    0.124853   -21.00000    0.04314    0.04803 =
         0.03793    0.00754    0.01264    0.02130
C13B  1    0.279687    0.684792    0.150064   -21.00000    0.05336    0.04914 =
         0.05021    0.00566    0.01908    0.02005
AFIX  43
H13B  2    0.338893    0.744506    0.096633   -21.00000   -1.20000
AFIX  65
C14B  1    0.259699    0.754433    0.254283   -21.00000    0.05608    0.03749 =
         0.05009    0.00825    0.01894    0.01478
AFIX  43
H14B  2    0.305389    0.861241    0.271332   -21.00000   -1.20000
AFIX  65
N4B   3    0.172150    0.666134    0.333293   -21.00000    0.05078    0.05214 =
         0.04365    0.00399    0.01114    0.02415
C15B  1    0.104587    0.508194    0.308083   -21.00000    0.05201    0.06366 =
         0.04073    0.01434    0.02194    0.02497
AFIX  43
H15B  2    0.045380    0.448481    0.361515   -21.00000   -1.20000
AFIX  65
C16B  1    0.124573    0.438552    0.203865   -21.00000    0.05264    0.04814 =
         0.04431    0.01457    0.02101    0.02259
AFIX  43
H16B  2    0.078883    0.331743    0.186816   -21.00000   -1.20000
AFIX   0
C17   1    0.232531    0.460282    0.016474    31.00000    0.04675    0.05177 =
         0.03926    0.01019    0.01606    0.02095
C18   1    0.252257    0.414346   -0.079270    31.00000    0.04509    0.05256 =
         0.04401    0.00755    0.01580    0.01832
PART  3
N2B   3    0.293678    0.469738   -0.066635    41.00000    0.04750    0.05169 =
         0.05002    0.00101    0.01426    0.02281
N3B   3    0.167001    0.394018   -0.022347    41.00000    0.04607    0.05120 =
         0.05447   -0.00493    0.01676    0.02269
HKLF 4




REM  230_a.res in P-1
REM wR2 = 0.117180, GooF = S = 1.06130, Restrained GooF = 1.00552 for all data
REM R1 = 0.040221 for 2583 Fo > 4sig(Fo) and 0.045652 for all 3016 data
REM 284 parameters refined using 513 restraints

END

WGHT      0.0616      0.0745

REM Highest difference peak  0.145,  deepest hole -0.136,  1-sigma level  0.034
Q1    1   0.7922  0.1422  0.2279  11.00000  0.05    0.14
Q2    1   0.4168  0.2080  0.3224  11.00000  0.05    0.12
Q3    1   0.1944  0.2888 -0.2189  11.00000  0.05    0.12
Q4    1   0.3450  0.3202 -0.3802  11.00000  0.05    0.12
Q5    1   0.0303  0.1308  0.2580  11.00000  0.05    0.12
Q6    1   1.0083  0.2717  0.4802  11.00000  0.05    0.11
Q7    1   0.3196  0.1823 -0.4972  11.00000  0.05    0.11
Q8    1   0.1247  0.0038  0.0234  11.00000  0.05    0.11
Q9    1   0.3428  0.0424  0.1461  11.00000  0.05    0.11
Q10   1   0.3796  0.8578  0.3153  11.00000  0.05    0.11
Q11   1   0.8466  0.0844  0.1992  11.00000  0.05    0.10
Q12   1   0.0174  0.0478  0.2475  11.00000  0.05    0.10
Q13   1   0.7280  0.1236  0.4549  11.00000  0.05    0.10
Q14   1   0.7660  0.0261  0.2176  11.00000  0.05    0.09
Q15   1   0.8129  0.2871  0.5645  11.00000  0.05    0.09
Q16   1   0.8459  0.3448  0.4423  11.00000  0.05    0.09
Q17   1   0.3133  0.4037 -0.3165  11.00000  0.05    0.09
Q18   1   0.2943  0.7184  0.4338  11.00000  0.05    0.09
Q19   1   0.9583  0.2012  0.3988  11.00000  0.05    0.09
Q20   1   0.3460 -0.0154  0.0329  11.00000  0.05    0.08
;
_shelx_res_checksum              4127
loop_
_symmetry_equiv_pos_as_xyz
'x, y, z'
'-x, -y, -z'
loop_
_atom_site_label
_atom_site_type_symbol
_atom_site_fract_x
_atom_site_fract_y
_atom_site_fract_z
_atom_site_U_iso_or_equiv
_atom_site_adp_type
_atom_site_occupancy
_atom_site_site_symmetry_order
_atom_site_calc_flag
_atom_site_refinement_flags_posn
_atom_site_refinement_flags_adp
_atom_site_refinement_flags_occupancy
_atom_site_disorder_assembly
_atom_site_disorder_group
O1 O 0.16772(12) 0.14772(10) 0.30704(9) 0.0562(3) Uani 1 1 d . . . . .
H1 H 0.200916 0.173795 0.387392 0.084 Uiso 1 1 calc R U . . .
O2 O 0.81683(13) 0.21145(12) 0.43421(9) 0.0647(3) Uani 1 1 d . . . . .
H2A H 0.824731 0.252195 0.505234 0.097 Uiso 1 1 calc R U . . .
N1 N 0.26242(15) 0.24312(13) -0.42960(11) 0.0578(3) Uani 1 1 d . . . . .
C1 C 0.31808(17) 0.14744(12) 0.27825(11) 0.0467(3) Uani 1 1 d . . . . .
C2 C 0.49175(17) 0.17829(12) 0.37533(11) 0.0471(3) Uani 1 1 d . . . . .
H2 H 0.507228 0.199492 0.46388 0.057 Uiso 1 1 calc R U . . .
C3 C 0.64316(18) 0.17800(13) 0.34230(12) 0.0505(3) Uani 1 1 d . . . . .
C4 C 0.6190(2) 0.14282(15) 0.21162(13) 0.0585(3) Uani 1 1 d . . . . .
H4 H 0.719436 0.139782 0.188489 0.07 Uiso 1 1 calc R U . . .
C5 C 0.4452(2) 0.11244(15) 0.11636(13) 0.0615(4) Uani 1 1 d . . . . .
H5 H 0.42892 0.089495 0.027853 0.074 Uiso 1 1 calc R U . . .
C6 C 0.2945(2) 0.11477(14) 0.14733(12) 0.0563(3) Uani 1 1 d . . . . .
H6 H 0.177579 0.094559 0.080833 0.068 Uiso 1 1 calc R U . . .
C7 C 0.32954(19) 0.39281(16) -0.38640(14) 0.0607(3) Uani 1 1 d . . . . .
H7 H 0.377804 0.461219 -0.438852 0.073 Uiso 1 1 calc R U . . .
C8 C 0.33179(19) 0.45201(15) -0.26964(14) 0.0580(3) Uani 1 1 d . . . . .
H8 H 0.382476 0.558323 -0.24241 0.07 Uiso 1 1 calc R U . . .
C9 C 0.25789(16) 0.35199(14) -0.19263(12) 0.0492(3) Uani 1 1 d D . . . .
C10 C 0.18987(18) 0.19593(14) -0.23564(12) 0.0522(3) Uani 1 1 d . . . . .
H10 H 0.14052 0.124767 -0.185393 0.063 Uiso 1 1 calc R U . . .
C11 C 0.19650(18) 0.14827(15) -0.35317(13) 0.0551(3) Uani 1 1 d . . . . .
H11 H 0.152081 0.042907 -0.381214 0.066 Uiso 1 1 calc R U . . .
N2A N 0.2209(16) 0.3818(10) -0.0627(11) 0.0504(18) Uani 0.297(3) 1 d D U P A 1
N3A N 0.2603(10) 0.5064(7) -0.0137(7) 0.0568(14) Uani 0.297(3) 1 d D U P A 1
C12A C 0.2281(19) 0.5513(13) 0.1029(11) 0.0464(15) Uani 0.297(3) 1 d . U P A 1
C13A C 0.281(2) 0.7032(13) 0.1552(12) 0.0528(19) Uani 0.297(3) 1 d . U P A 1
H13A H 0.338157 0.784888 0.115952 0.063 Uiso 0.297(3) 1 calc R U P A 1
C14A C 0.243(2) 0.7264(10) 0.2674(12) 0.0483(16) Uani 0.297(3) 1 d . U P A 1
H14A H 0.280727 0.829226 0.300385 0.058 Uiso 0.297(3) 1 calc R U P A 1
N4A N 0.172(2) 0.6379(11) 0.3294(11) 0.0532(17) Uani 0.297(3) 1 d . U P A 1
C15A C 0.1227(15) 0.5043(10) 0.2790(10) 0.0491(17) Uani 0.297(3) 1 d . U P A 1
H15A H 0.060834 0.429017 0.321913 0.059 Uiso 0.297(3) 1 calc R U P A 1
C16A C 0.1444(16) 0.4492(10) 0.1699(9) 0.0520(18) Uani 0.297(3) 1 d . U P A 1
H16A H 0.102088 0.343903 0.143408 0.062 Uiso 0.297(3) 1 calc R U P A 1
C12B C 0.2121(7) 0.5269(4) 0.1249(3) 0.0432(9) Uani 0.703(3) 1 d DG U P A 2
C13B C 0.2797(8) 0.6848(4) 0.1501(4) 0.0519(10) Uani 0.703(3) 1 d G U P A 2
H13B H 0.338893 0.744506 0.096633 0.062 Uiso 0.703(3) 1 calc R U P A 2
C14B C 0.2597(9) 0.7544(3) 0.2543(5) 0.0501(9) Uani 0.703(3) 1 d G U P A 2
H14B H 0.305389 0.861241 0.271332 0.06 Uiso 0.703(3) 1 calc R U P A 2
N4B N 0.1721(8) 0.6661(4) 0.3333(4) 0.0501(8) Uani 0.703(3) 1 d G U P A 2
C15B C 0.1046(6) 0.5082(4) 0.3081(3) 0.0510(8) Uani 0.703(3) 1 d G U P A 2
H15B H 0.04538 0.448481 0.361515 0.061 Uiso 0.703(3) 1 calc R U P A 2
C16B C 0.1246(6) 0.4386(3) 0.2039(3) 0.0472(8) Uani 0.703(3) 1 d G U P A 2
H16B H 0.078883 0.331743 0.186816 0.057 Uiso 0.703(3) 1 calc R U P A 2
C17 C 0.2325(5) 0.4603(5) 0.0165(3) 0.0461(7) Uani 0.673(3) 1 d D U P A 2
C18 C 0.2523(8) 0.4143(6) -0.0793(5) 0.0486(10) Uani 0.673(3) 1 d D U P A 2
N2B N 0.294(7) 0.470(6) -0.067(6) 0.051(4) Uani 0.030(3) 1 d D U P A 3
N3B N 0.167(6) 0.394(6) -0.022(6) 0.051(5) Uani 0.030(3) 1 d D U P A 3
loop_
_atom_site_aniso_label
_atom_site_aniso_U_11
_atom_site_aniso_U_22
_atom_site_aniso_U_33
_atom_site_aniso_U_23
_atom_site_aniso_U_13
_atom_site_aniso_U_12
O1 0.0516(5) 0.0639(5) 0.0479(5) 0.0083(4) 0.0156(4) 0.0230(4)
O2 0.0581(5) 0.0820(7) 0.0552(6) 0.0016(5) 0.0183(4) 0.0349(5)
N1 0.0522(6) 0.0718(7) 0.0507(6) 0.0092(5) 0.0179(5) 0.0295(5)
C1 0.0524(6) 0.0386(5) 0.0444(6) 0.0075(5) 0.0171(5) 0.0164(5)
C2 0.0546(6) 0.0436(6) 0.0399(6) 0.0044(5) 0.0168(5) 0.0195(5)
C3 0.0551(7) 0.0460(6) 0.0482(7) 0.0037(5) 0.0179(5) 0.0214(5)
C4 0.0696(8) 0.0560(7) 0.0540(7) 0.0037(6) 0.0301(6) 0.0267(6)
C5 0.0798(9) 0.0587(7) 0.0426(7) 0.0034(6) 0.0243(6) 0.0268(7)
C6 0.0638(8) 0.0535(7) 0.0413(6) 0.0052(5) 0.0126(6) 0.0215(6)
C7 0.0566(7) 0.0655(8) 0.0605(8) 0.0190(6) 0.0234(6) 0.0255(6)
C8 0.0550(7) 0.0487(7) 0.0635(8) 0.0103(6) 0.0158(6) 0.0207(6)
C9 0.0429(6) 0.0549(7) 0.0452(6) 0.0024(5) 0.0087(5) 0.0233(5)
C10 0.0541(7) 0.0510(6) 0.0477(7) 0.0080(5) 0.0166(5) 0.0214(5)
C11 0.0563(7) 0.0539(7) 0.0512(7) 0.0030(5) 0.0156(6) 0.0244(6)
N2A 0.051(4) 0.045(3) 0.049(3) -0.006(3) 0.009(2) 0.024(3)
N3A 0.055(3) 0.052(3) 0.057(3) -0.010(2) 0.012(2) 0.025(2)
C12A 0.042(3) 0.048(3) 0.046(3) 0.012(2) 0.009(2) 0.020(2)
C13A 0.057(3) 0.039(2) 0.053(3) 0.002(2) 0.011(3) 0.019(2)
C14A 0.054(3) 0.034(2) 0.047(3) 0.007(2) 0.012(2) 0.016(2)
N4A 0.049(3) 0.052(3) 0.050(3) 0.010(2) 0.009(2) 0.021(2)
C15A 0.045(2) 0.059(3) 0.042(3) 0.025(2) 0.020(2) 0.018(2)
C16A 0.055(3) 0.045(3) 0.051(4) 0.011(2) 0.014(3) 0.021(2)
C12B 0.0431(14) 0.0480(17) 0.0379(15) 0.0075(12) 0.0126(10) 0.0213(13)
C13B 0.0534(14) 0.0491(19) 0.0502(15) 0.0057(13) 0.0191(12) 0.0200(13)
C14B 0.0561(15) 0.0375(14) 0.0501(16) 0.0082(11) 0.0189(10) 0.0148(13)
N4B 0.0508(12) 0.0521(16) 0.0437(12) 0.0040(11) 0.0111(10) 0.0242(12)
C15B 0.0520(13) 0.0637(14) 0.0407(16) 0.0143(11) 0.0219(11) 0.0250(10)
C16B 0.0526(12) 0.0481(11) 0.0443(18) 0.0146(10) 0.0210(12) 0.0226(9)
C17 0.0467(13) 0.0518(18) 0.0393(13) 0.0102(11) 0.0161(9) 0.0209(13)
C18 0.0451(19) 0.053(2) 0.0440(14) 0.0076(15) 0.0158(12) 0.0183(17)
N2B 0.048(5) 0.052(5) 0.050(5) 0.001(4) 0.014(4) 0.023(5)
N3B 0.046(8) 0.051(9) 0.054(8) -0.005(7) 0.017(6) 0.023(7)
loop_
_atom_type_symbol
_atom_type_description
_atom_type_scat_dispersion_real
_atom_type_scat_dispersion_imag
_atom_type_scat_source
C C 0.0181 0.0091 'International Tables Vol C Tables 4.2.6.8 and 6.1.1.4'
H H 0 0 'International Tables Vol C Tables 4.2.6.8 and 6.1.1.4'
N N 0.0311 0.018 'International Tables Vol C Tables 4.2.6.8 and 6.1.1.4'
O O 0.0492 0.0322 'International Tables Vol C Tables 4.2.6.8 and 6.1.1.4'
loop_
_exptl_crystal_face_index_h
_exptl_crystal_face_index_k
_exptl_crystal_face_index_l
_exptl_crystal_face_perp_dist
-4 -1 0 0.0411
-3 5 4 0.0981
-1 -3 7 0.0767
1 3 -7 0.0786
2 -1 -7 0.0773
4 1 0 0.0599
2 -6 2 0.0625
0 -5 -2 0.0599
4 -1 -6 0.0847
3 -4 4 0.0491
-5 2 4 0.0882
1 -6 -1 0.0572
0 6 -2 0.0472
-2 6 -2 0.0453
1 -5 5 0.0477
loop_
_geom_angle_atom_site_label_1
_geom_angle_atom_site_label_2
_geom_angle_atom_site_label_3
_geom_angle
_geom_angle_site_symmetry_1
_geom_angle_site_symmetry_3
_geom_angle_publ_flag
C1 O1 H1 109.5 . . ?
C3 O2 H2A 109.5 . . ?
C11 N1 C7 117.27(11) . . ?
O1 C1 C2 121.83(11) . . ?
O1 C1 C6 118.26(11) . . ?
C2 C1 C6 119.91(12) . . ?
C1 C2 C3 120.31(11) . . ?
C1 C2 H2 119.8 . . ?
C3 C2 H2 119.8 . . ?
O2 C3 C4 117.97(11) . . ?
O2 C3 C2 122.09(11) . . ?
C4 C3 C2 119.94(12) . . ?
C5 C4 C3 118.92(12) . . ?
C5 C4 H4 120.5 . . ?
C3 C4 H4 120.5 . . ?
C4 C5 C6 121.88(12) . . ?
C4 C5 H5 119.1 . . ?
C6 C5 H5 119.1 . . ?
C5 C6 C1 119.02(12) . . ?
C5 C6 H6 120.5 . . ?
C1 C6 H6 120.5 . . ?
N1 C7 C8 123.54(13) . . ?
N1 C7 H7 118.2 . . ?
C8 C7 H7 118.2 . . ?
C7 C8 C9 118.70(12) . . ?
C7 C8 H8 120.6 . . ?
C9 C8 H8 120.6 . . ?
C18 C9 C8 117.3(2) . . ?
C18 C9 C10 124.3(2) . . ?
C8 C9 C10 118.33(12) . . ?
C8 C9 N2A 130.9(4) . . ?
C10 C9 N2A 110.7(3) . . ?
C8 C9 N2B 101.7(16) . . ?
C10 C9 N2B 139.8(17) . . ?
C11 C10 C9 118.50(12) . . ?
C11 C10 H10 120.7 . . ?
C9 C10 H10 120.7 . . ?
N1 C11 C10 123.62(12) . . ?
N1 C11 H11 118.2 . . ?
C10 C11 H11 118.2 . . ?
N3A N2A C9 121.2(10) . . ?
N2A N3A C12A 127.5(11) . . ?
C16A C12A C13A 113.7(6) . . ?
C16A C12A N3A 122.5(8) . . ?
C13A C12A N3A 123.7(9) . . ?
C14A C13A C12A 116.5(7) . . ?
C14A C13A H13A 121.8 . . ?
C12A C13A H13A 121.8 . . ?
N4A C14A C13A 130.8(7) . . ?
N4A C14A C15A 35.2(4) . . ?
C13A C14A C15A 95.6(5) . . ?
N4A C14A H14A 114.6 . . ?
C13A C14A H14A 114.6 . . ?
C15A C14A H14A 149.8 . . ?
C14A N4A C15A 111.2(6) . . ?
N4A C15A C16A 130.1(7) . . ?
N4A C15A C14A 33.6(3) . . ?
C16A C15A C14A 96.5(5) . . ?
N4A C15A H15A 115 . . ?
C16A C15A H15A 115 . . ?
C14A C15A H15A 148.5 . . ?
C12A C16A C15A 117.7(5) . . ?
C12A C16A H16A 121.2 . . ?
C15A C16A H16A 121.2 . . ?
C13B C12B C16B 120 . . ?
C13B C12B C17 118.2(3) . . ?
C16B C12B C17 121.8(3) . . ?
C14B C13B C12B 120 . . ?
C14B C13B H13B 120 . . ?
C12B C13B H13B 120 . . ?
N4B C14B C13B 120 . . ?
N4B C14B H14B 120 . . ?
C13B C14B H14B 120 . . ?
C14B N4B C15B 120 . . ?
C16B C15B N4B 120 . . ?
C16B C15B H15B 120 . . ?
N4B C15B H15B 120 . . ?
C15B C16B C12B 120 . . ?
C15B C16B H16B 120 . . ?
C12B C16B H16B 120 . . ?
C18 C17 C12B 174.8(5) . . ?
C17 C18 C9 174.9(6) . . ?
N3B N2B C9 104(6) . . ?
loop_
_geom_bond_atom_site_label_1
_geom_bond_atom_site_label_2
_geom_bond_distance
_geom_bond_site_symmetry_2
_geom_bond_publ_flag
O1 C1 1.3582(15) . ?
O1 H1 0.83 . ?
O2 C3 1.3564(15) . ?
O2 H2A 0.83 . ?
N1 C11 1.3323(18) . ?
N1 C7 1.3367(17) . ?
C1 C2 1.3864(17) . ?
C1 C6 1.3897(17) . ?
C2 C3 1.3906(17) . ?
C2 H2 0.94 . ?
C3 C4 1.3893(18) . ?
C4 C5 1.380(2) . ?
C4 H4 0.94 . ?
C5 C6 1.381(2) . ?
C5 H5 0.94 . ?
C6 H6 0.94 . ?
C7 C8 1.372(2) . ?
C7 H7 0.94 . ?
C8 C9 1.3859(19) . ?
C8 H8 0.94 . ?
C9 C18 1.381(6) . ?
C9 C10 1.3921(17) . ?
C9 N2A 1.581(11) . ?
C9 N2B 1.63(7) . ?
C10 C11 1.3736(17) . ?
C10 H10 0.94 . ?
C11 H11 0.94 . ?
N2A N3A 1.180(12) . ?
N3A C12A 1.464(12) . ?
C12A C16A 1.342(9) . ?
C12A C13A 1.403(9) . ?
C13A C14A 1.384(9) . ?
C13A H13A 0.94 . ?
C14A N4A 1.191(10) . ?
C14A C15A 2.007(11) . ?
C14A H14A 0.94 . ?
N4A C15A 1.241(9) . ?
C15A C16A 1.379(9) . ?
C15A H15A 0.94 . ?
C16A H16A 0.94 . ?
C12B C13B 1.39 . ?
C12B C16B 1.39 . ?
C12B C17 1.416(4) . ?
C13B C14B 1.39 . ?
C13B H13B 0.94 . ?
C14B N4B 1.39 . ?
C14B H14B 0.94 . ?
N4B C15B 1.39 . ?
C15B C16B 1.39 . ?
C15B H15B 0.94 . ?
C16B H16B 0.94 . ?
C17 C18 1.204(7) . ?
N2B N3B 1.25(2) . ?
loop_
_geom_hbond_atom_site_label_D
_geom_hbond_atom_site_label_H
_geom_hbond_atom_site_label_A
_geom_hbond_distance_DH
_geom_hbond_distance_HA
_geom_hbond_distance_DA
_geom_hbond_angle_DHA
_geom_hbond_site_symmetry_A
_geom_hbond_publ_flag
O1 H1 N1 0.83 1.93 2.7530(14) 174.7 1_556 yes
O2 H2A N4A 0.83 2.05 2.881(9) 174.4 2_666 yes
O2 H2A N4B 0.83 1.9 2.73(2) 176.2 2_666 yes
loop_
_geom_torsion_atom_site_label_1
_geom_torsion_atom_site_label_2
_geom_torsion_atom_site_label_3
_geom_torsion_atom_site_label_4
_geom_torsion
_geom_torsion_site_symmetry_1
_geom_torsion_site_symmetry_2
_geom_torsion_site_symmetry_3
_geom_torsion_site_symmetry_4
_geom_torsion_publ_flag
O1 C1 C2 C3 -179.59(10) . . . . ?
C6 C1 C2 C3 0.55(17) . . . . ?
C1 C2 C3 O2 178.27(11) . . . . ?
C1 C2 C3 C4 -1.65(18) . . . . ?
O2 C3 C4 C5 -178.29(12) . . . . ?
C2 C3 C4 C5 1.63(19) . . . . ?
C3 C4 C5 C6 -0.5(2) . . . . ?
C4 C5 C6 C1 -0.5(2) . . . . ?
O1 C1 C6 C5 -179.33(11) . . . . ?
C2 C1 C6 C5 0.53(18) . . . . ?
C11 N1 C7 C8 -0.67(19) . . . . ?
N1 C7 C8 C9 -1.1(2) . . . . ?
C7 C8 C9 C18 -176.5(3) . . . . ?
C7 C8 C9 C10 1.89(18) . . . . ?
C7 C8 C9 N2A -173.1(6) . . . . ?
C7 C8 C9 N2B 179(2) . . . . ?
C18 C9 C10 C11 177.3(3) . . . . ?
C8 C9 C10 C11 -0.97(18) . . . . ?
N2A C9 C10 C11 175.0(5) . . . . ?
N2B C9 C10 C11 -176(3) . . . . ?
C7 N1 C11 C10 1.69(19) . . . . ?
C9 C10 C11 N1 -0.87(19) . . . . ?
C8 C9 N2A N3A -1.2(14) . . . . ?
C10 C9 N2A N3A -176.5(9) . . . . ?
C9 N2A N3A C12A 177.5(9) . . . . ?
N2A N3A C12A C16A -0.4(17) . . . . ?
N2A N3A C12A C13A 179.7(11) . . . . ?
C16A C12A C13A C14A 1.3(7) . . . . ?
N3A C12A C13A C14A -178.8(12) . . . . ?
C12A C13A C14A N4A -0.3(9) . . . . ?
C12A C13A C14A C15A -1.1(5) . . . . ?
C13A C14A N4A C15A -1.5(9) . . . . ?
C14A N4A C15A C16A 2.4(9) . . . . ?
C13A C12A C16A C15A -0.6(8) . . . . ?
N3A C12A C16A C15A 179.5(11) . . . . ?
N4A C15A C16A C12A -1.4(10) . . . . ?
C14A C15A C16A C12A -0.1(6) . . . . ?
C16B C12B C13B C14B 0 . . . . ?
C17 C12B C13B C14B 179.0(4) . . . . ?
C12B C13B C14B N4B 0 . . . . ?
C13B C14B N4B C15B 0 . . . . ?
C14B N4B C15B C16B 0 . . . . ?
N4B C15B C16B C12B 0 . . . . ?
C13B C12B C16B C15B 0 . . . . ?
C17 C12B C16B C15B -179.0(5) . . . . ?
C8 C9 N2B N3B 154(4) . . . . ?
C10 C9 N2B N3B -31(6) . . . . ?
