#------------------------------------------------------------------------------
#$Date: 2020-06-06 04:19:29 +0300 (Sat, 06 Jun 2020) $
#$Revision: 252960 $
#$URL: file:///home/coder/svn-repositories/cod/cif/1/55/82/1558238.cif $
#------------------------------------------------------------------------------
#
# This file is available in the Crystallography Open Database (COD),
# http://www.crystallography.net/
#
# All data on this site have been placed in the public domain by the
# contributors.
#
data_1558238
loop_
_publ_author_name
'Ding, Xiaodan'
'Unruh, Daniel K.'
'Groeneman , Ryan'
'Hutchins, Kristin M.'
_publ_section_title
;
 Controlling thermal expansion within mixed cocrystals by tuning molecular
 motion capability
;
_journal_name_full               'Chemical Science'
_journal_paper_doi               10.1039/D0SC02795B
_journal_year                    2020
_chemical_formula_sum            'C17.09 H15.09 N2.91 O2'
_chemical_formula_weight         293.23
_space_group_IT_number           2
_space_group_name_Hall           '-P 1'
_space_group_name_H-M_alt        'P -1'
_symmetry_cell_setting           triclinic
_symmetry_Int_Tables_number      2
_symmetry_space_group_name_Hall  '-P 1'
_symmetry_space_group_name_H-M   'P -1'
_atom_sites_solution_hydrogens   geom
_atom_sites_solution_primary     dual
_atom_sites_solution_secondary   difmap
_audit_creation_date             2020-03-05T13:01:46-00:00
_audit_creation_method           'WinGX routine CIF_UPDATE'
_audit_update_record
;
2020-04-07 deposited with the CCDC.	2020-06-05 downloaded from the CCDC.
;
_cell_angle_alpha                93.5015(14)
_cell_angle_beta                 106.7347(15)
_cell_angle_gamma                114.0289(17)
_cell_formula_units_Z            2
_cell_length_a                   8.03047(14)
_cell_length_b                   9.82913(17)
_cell_length_c                   10.88163(17)
_cell_measurement_reflns_used    12143
_cell_measurement_temperature    230(2)
_cell_measurement_theta_max      77.245
_cell_measurement_theta_min      4.296
_cell_volume                     735.48(3)
_computing_cell_refinement       'CrysAlisPro 1.171.40.70a (Rigaku OD, 2020)'
_computing_data_collection       'CrysAlisPro 1.171.40.70a (Rigaku OD, 2020)'
_computing_data_reduction        'CrysAlisPro 1.171.40.70a (Rigaku OD, 2020)'
_computing_structure_refinement  'SHELXL-2018/3 (Sheldrick, 2018)'
_computing_structure_solution    'SHELXT 2014/5 (Sheldrick, 2014)'
_diffrn_ambient_environment      N~2~
_diffrn_ambient_temperature      230(2)
_diffrn_detector                 'Hybrid Pixel Array Detector'
_diffrn_detector_area_resol_mean 10
_diffrn_detector_type            HyPix
_diffrn_measured_fraction_theta_full 0.994
_diffrn_measured_fraction_theta_max 0.954
_diffrn_measurement_device       'four-circle diffractometer'
_diffrn_measurement_device_type  'XtaLAB Synergy, Dualflex, HyPix'
_diffrn_measurement_method       '\w scans'
_diffrn_orient_matrix_type
'CrysAlisPro convention (1999,Acta A55,543-557)'
_diffrn_orient_matrix_UB_11      0.1318913
_diffrn_orient_matrix_UB_12      -0.0769762
_diffrn_orient_matrix_UB_13      0.0518666
_diffrn_orient_matrix_UB_21      0.0247897
_diffrn_orient_matrix_UB_22      0.0591716
_diffrn_orient_matrix_UB_23      0.1416526
_diffrn_orient_matrix_UB_31      -0.1788721
_diffrn_orient_matrix_UB_32      -0.1459417
_diffrn_orient_matrix_UB_33      -0.0069018
_diffrn_radiation_monochromator  mirror
_diffrn_radiation_probe          x-ray
_diffrn_radiation_type           CuK\a
_diffrn_radiation_wavelength     1.54178
_diffrn_reflns_av_R_equivalents  0.048
_diffrn_reflns_av_unetI/netI     0.0607
_diffrn_reflns_Laue_measured_fraction_full 0.994
_diffrn_reflns_Laue_measured_fraction_max 0.954
_diffrn_reflns_limit_h_max       10
_diffrn_reflns_limit_h_min       -10
_diffrn_reflns_limit_k_max       12
_diffrn_reflns_limit_k_min       -12
_diffrn_reflns_limit_l_max       13
_diffrn_reflns_limit_l_min       -13
_diffrn_reflns_number            22021
_diffrn_reflns_point_group_measured_fraction_full 0.994
_diffrn_reflns_point_group_measured_fraction_max 0.954
_diffrn_reflns_theta_full        67.679
_diffrn_reflns_theta_max         77.346
_diffrn_reflns_theta_min         4.334
_diffrn_source                   'micro-focus sealed X-ray tube'
_diffrn_source_type              'PhotonJet (Cu) X-ray Source'
_exptl_absorpt_coefficient_mu    0.723
_exptl_absorpt_correction_T_max  1
_exptl_absorpt_correction_T_min  0.501
_exptl_absorpt_correction_type   gaussian
_exptl_absorpt_process_details
;
        CrysAlisPro 1.171.40.70a (Rigaku Oxford Diffraction, 2020)
Numerical absorption correction based on gaussian integration over
                        a multifaceted crystal model
        Empirical absorption correction using spherical harmonics,
 implemented in SCALE3 ABSPACK scaling algorithm.
;
_exptl_crystal_colour            'clear light yellow'
_exptl_crystal_density_diffrn    1.324
_exptl_crystal_description       irregular
_exptl_crystal_F_000             308
_exptl_crystal_size_max          0.269
_exptl_crystal_size_mid          0.156
_exptl_crystal_size_min          0.102
_refine_diff_density_max         0.21
_refine_diff_density_min         -0.151
_refine_diff_density_rms         0.033
_refine_ls_extinction_coef       0.0047(8)
_refine_ls_extinction_expression Fc^*^=kFc[1+0.001xFc^2^\l^3^/sin(2\q)]^-1/4^
_refine_ls_extinction_method     'SHELXL-2018/3 (Sheldrick 2018)'
_refine_ls_goodness_of_fit_ref   1.043
_refine_ls_hydrogen_treatment    constr
_refine_ls_matrix_type           full
_refine_ls_number_parameters     242
_refine_ls_number_reflns         2979
_refine_ls_number_restraints     306
_refine_ls_restrained_S_all      0.997
_refine_ls_R_factor_all          0.0465
_refine_ls_R_factor_gt           0.039
_refine_ls_shift/su_max          0.003
_refine_ls_shift/su_mean         0
_refine_ls_structure_factor_coef Fsqd
_refine_ls_weighting_details
'w=1/[\s^2^(Fo^2^)+(0.0548P)^2^+0.1088P] where P=(Fo^2^+2Fc^2^)/3'
_refine_ls_weighting_scheme      calc
_refine_ls_wR_factor_gt          0.1026
_refine_ls_wR_factor_ref         0.1114
_reflns_Friedel_coverage         0
_reflns_number_gt                2505
_reflns_number_total             2979
_reflns_threshold_expression     'I > 2\s(I)'
_cod_data_source_file            d0sc02795b2.cif
_cod_data_source_block           A50_BE50_230
_cod_original_cell_volume        735.48(2)
_cod_database_code               1558238
_shelx_estimated_absorpt_t_min   0.869
_shelx_estimated_absorpt_t_max   0.929
_shelx_shelxl_version_number     2018/3
_shelx_res_file
;
TITL 230_a.res in P-1
    230_a.res
    created by SHELXL-2018/3 at 12:04:07 on 05-Mar-2020
REM Old TITL 230 in P-1

REM SHELXT solution in P-1
REM R1 0.376,  Rweak 0.002,  Alpha 0.032,  Orientation as input
REM Formula found by SHELXT:  C18 N O3

CELL  1.54178   8.03047   9.82913  10.88163  93.5015 106.7347 114.0289
ZERR    2.000   0.00014   0.00017   0.00017   0.0014   0.0015   0.0017
LATT  1
SFAC C H N O
UNIT 34.1777 30.1777 5.82232 4
TEMP -43.2
SIZE 0.200 0.109 0.103
L.S. 10
BOND $H
ACTA
LIST 4
FMAP 2
PLAN 20

EQIV $1 -x+1, -y+1, -z+2

HTAB O1 N1
HTAB O2 N4_$1

RIGU
SIMU 0.01 N2A N3A N2B N3B C17 C18

DFIX 1.24 0.01 N2A N3A
DFIX 1.24 0.01 N2B N3B
DFIX 1.32 0.01 C17 C18
DFIX 2.2 0.05 H17 H16
DFIX 51 C9 N2A C9 C17 C12 N3A C12 C18

SUMP 1.0 0.0 1.0 2 1.0 3 1.0 4

WGHT    0.054800    0.108800
EXTI    0.004710
FVAR       0.92967   0.41609   0.54410   0.03981   1.46218
O1    4    0.165370    0.158670    0.309134    11.00000    0.04726    0.05998 =
         0.04183    0.00776    0.01471    0.02246
AFIX 147
H1    2    0.196728    0.182987    0.389789    11.00000   -1.50000
AFIX   0
O2    4    0.822836    0.226121    0.432862    11.00000    0.05079    0.07693 =
         0.04677   -0.00029    0.01615    0.03119
AFIX 147
H2A   2    0.828478    0.266325    0.504224    11.00000   -1.50000
AFIX   0
N1    3    0.260474    0.248186    0.575167    11.00000    0.04632    0.06165 =
         0.04443    0.00593    0.01585    0.02569
PART  1
N2A   3    0.219889    0.376142    0.943139    21.00000    0.04711    0.04531 =
         0.03756    0.00616    0.01765    0.02359
N3A   3    0.267606    0.510565    0.985449    21.00000    0.04730    0.04316 =
         0.03715    0.01016    0.01813    0.01741
PART  2
C17   1    0.213530    0.379782    0.935748    31.00000    0.04708    0.04038 =
         0.03663    0.01070    0.01064    0.01938
AFIX  43
H17   2    0.155841    0.301901    0.977623    31.00000   -1.20000
AFIX   0
C18   1    0.265087    0.521402    0.986829    31.00000    0.04280    0.03888 =
         0.04271    0.00620    0.01616    0.02022
AFIX  43
H18   2    0.322957    0.600334    0.945930    31.00000   -1.20000
AFIX   0
PART  3
N2B   3    0.272065    0.464900    0.920036    41.00000    0.04607    0.04244 =
         0.04235    0.00732    0.01432    0.02194
N3B   3    0.197029    0.411743    1.001919    41.00000    0.04608    0.04495 =
         0.04215    0.00706    0.01525    0.01944
PART  0
N4    3    0.176041    0.650575    1.330580    11.00000    0.04227    0.05624 =
         0.03915    0.00429    0.00933    0.02052
C1    1    0.316872    0.154699    0.279706    11.00000    0.04744    0.03457 =
         0.03892    0.00811    0.01590    0.01597
C2    1    0.493591    0.191032    0.375673    11.00000    0.04867    0.04078 =
         0.03309    0.00401    0.01546    0.01785
AFIX  43
H2    2    0.510178    0.217985    0.464276    11.00000   -1.20000
AFIX   0
C3    1    0.646631    0.187938    0.341946    11.00000    0.04869    0.04105 =
         0.04109    0.00512    0.01666    0.01933
C4    1    0.621018    0.144790    0.210932    11.00000    0.06147    0.04822 =
         0.04516    0.00512    0.02600    0.02468
AFIX  43
H4    2    0.722594    0.140358    0.187129    11.00000   -1.20000
AFIX   0
C5    1    0.444088    0.108703    0.116795    11.00000    0.07242    0.04717 =
         0.03622    0.00456    0.02232    0.02465
AFIX  43
H5    2    0.426817    0.080426    0.028259    11.00000   -1.20000
AFIX   0
C6    1    0.291252    0.112846    0.148682    11.00000    0.05689    0.04560 =
         0.03550    0.00574    0.01054    0.01971
AFIX  43
H6    2    0.171885    0.087764    0.082821    11.00000   -1.20000
AFIX   0
C7    1    0.322404    0.395101    0.624836    11.00000    0.05113    0.05643 =
         0.05026    0.01583    0.02179    0.02286
AFIX  43
H7    2    0.371445    0.467019    0.575553    11.00000   -1.20000
AFIX   0
C8    1    0.318560    0.447217    0.743901    11.00000    0.04939    0.04693 =
         0.04966    0.00826    0.01585    0.02147
AFIX  43
H8    2    0.365432    0.551841    0.775267    11.00000   -1.20000
AFIX   0
C9    1    0.243721    0.341455    0.816646    11.00000    0.03809    0.05041 =
         0.03723    0.00717    0.01050    0.02210
C10   1    0.182760    0.189461    0.767236    11.00000    0.04881    0.04852 =
         0.04669    0.01078    0.01570    0.02074
AFIX  43
H10   2    0.133984    0.115041    0.814634    11.00000   -1.20000
AFIX   0
C11   1    0.194415    0.148550    0.647794    11.00000    0.04892    0.04880 =
         0.04936    0.00309    0.01314    0.02092
AFIX  43
H11   2    0.153695    0.045030    0.615813    11.00000   -1.20000
AFIX   0
C12   1    0.232505    0.554969    1.105608    11.00000    0.03688    0.05282 =
         0.03724    0.00884    0.01091    0.02126
C13   1    0.286507    0.706470    1.149845    11.00000    0.04871    0.04851 =
         0.04803    0.01205    0.01643    0.01648
AFIX  43
H13   2    0.343056    0.780085    1.104137    11.00000   -1.20000
AFIX   0
C14   1    0.256803    0.748649    1.261360    11.00000    0.05173    0.04664 =
         0.04925    0.00394    0.01214    0.01796
AFIX  43
H14   2    0.295581    0.852464    1.290504    11.00000   -1.20000
AFIX   0
C15   1    0.122256    0.503678    1.287312    11.00000    0.04408    0.05365 =
         0.04270    0.01419    0.01418    0.02062
AFIX  43
H15   2    0.064228    0.432609    1.334387    11.00000   -1.20000
AFIX   0
C16   1    0.147856    0.451025    1.176446    11.00000    0.04773    0.04673 =
         0.04731    0.00955    0.01381    0.02312
AFIX  43
H16   2    0.108625    0.346698    1.149548    11.00000   -1.20000
AFIX   0
HKLF 4




REM  230_a.res in P-1
REM wR2 = 0.111372, GooF = S = 1.04264, Restrained GooF = 0.99716 for all data
REM R1 = 0.039003 for 2505 Fo > 4sig(Fo) and 0.046459 for all 2979 data
REM 242 parameters refined using 306 restraints

END

WGHT      0.0548      0.1087

REM Highest difference peak  0.210,  deepest hole -0.151,  1-sigma level  0.033
Q1    1   0.1700  0.4831  1.1195  11.00000  0.05    0.17
Q2    1   0.2622  0.2221  0.4992  11.00000  0.05    0.17
Q3    1   0.1741  0.6786  1.4023  11.00000  0.05    0.16
Q4    1   0.2451  0.5421  1.0571  11.00000  0.05    0.15
Q5    1   0.7965  0.1629  0.4974  11.00000  0.05    0.15
Q6    1   0.3483  0.4145  0.7012  11.00000  0.05    0.15
Q7    1   0.3048  0.4017  0.7976  11.00000  0.05    0.14
Q8    1   0.2169  0.6158  1.1256  11.00000  0.05    0.13
Q9    1   0.1712  0.2630  0.7764  11.00000  0.05    0.13
Q10   1   0.2258  0.3546  0.8621  11.00000  0.05    0.13
Q11   1   0.0947  0.0521  0.0865  11.00000  0.05    0.11
Q12   1   0.7701  0.1051  0.2392  11.00000  0.05    0.11
Q13   1   0.7957  0.1924  0.2076  11.00000  0.05    0.11
Q14   1   0.1294  0.4853  1.2144  11.00000  0.05    0.10
Q15   1   0.4306  0.2200  0.3196  11.00000  0.05    0.10
Q16   1   0.3165  0.1433  0.2177  11.00000  0.05    0.10
Q17   1   0.2075  0.2711  0.9801  11.00000  0.05    0.09
Q18   1   0.2930  0.7147  1.2211  11.00000  0.05    0.09
Q19   1   0.4012  0.1709  0.1392  11.00000  0.05    0.09
Q20   1   0.3733  0.1038  0.3353  11.00000  0.05    0.09
;
_shelx_res_checksum              80588
loop_
_symmetry_equiv_pos_as_xyz
'x, y, z'
'-x, -y, -z'
loop_
_atom_site_label
_atom_site_type_symbol
_atom_site_fract_x
_atom_site_fract_y
_atom_site_fract_z
_atom_site_U_iso_or_equiv
_atom_site_adp_type
_atom_site_occupancy
_atom_site_site_symmetry_order
_atom_site_calc_flag
_atom_site_refinement_flags_posn
_atom_site_refinement_flags_adp
_atom_site_refinement_flags_occupancy
_atom_site_disorder_assembly
_atom_site_disorder_group
O1 O 0.16537(13) 0.15867(11) 0.30913(9) 0.0504(3) Uani 1 1 d . . . . .
H1 H 0.196728 0.182987 0.389789 0.076 Uiso 1 1 calc R U . . .
O2 O 0.82284(14) 0.22612(13) 0.43286(9) 0.0579(3) Uani 1 1 d . . . . .
H2A H 0.828478 0.266325 0.504224 0.087 Uiso 1 1 calc R U . . .
N1 N 0.26047(17) 0.24819(14) 0.57517(11) 0.0504(3) Uani 1 1 d . . . . .
N2A N 0.220(3) 0.3761(15) 0.9431(13) 0.0416(17) Uani 0.416(3) 1 d D U P A 1
N3A N 0.268(2) 0.5106(15) 0.9854(14) 0.0425(18) Uani 0.416(3) 1 d D U P A 1
C17 C 0.214(2) 0.3798(14) 0.9357(12) 0.0421(15) Uani 0.544(3) 1 d D U P A 2
H17 H 0.155841 0.301901 0.977623 0.051 Uiso 0.544(3) 1 calc DR U P A 2
C18 C 0.265(2) 0.5214(14) 0.9868(13) 0.0405(13) Uani 0.544(3) 1 d D U P A 2
H18 H 0.322957 0.600334 0.94593 0.049 Uiso 0.544(3) 1 calc R U P A 2
N2B N 0.272(4) 0.465(4) 0.920(3) 0.043(3) Uani 0.0398(19) 1 d D U P A 3
N3B N 0.197(4) 0.412(4) 1.002(3) 0.045(3) Uani 0.0398(19) 1 d D U P A 3
N4 N 0.17604(16) 0.65058(13) 1.33058(10) 0.0477(3) Uani 1 1 d . . . . .
C1 C 0.31687(19) 0.15470(13) 0.27971(12) 0.0408(3) Uani 1 1 d . . . . .
C2 C 0.49359(18) 0.19103(14) 0.37567(11) 0.0414(3) Uani 1 1 d . . . . .
H2 H 0.510178 0.217985 0.464276 0.05 Uiso 1 1 calc R U . . .
C3 C 0.64663(19) 0.18794(14) 0.34195(12) 0.0437(3) Uani 1 1 d . . . . .
C4 C 0.6210(2) 0.14479(15) 0.21093(13) 0.0499(3) Uani 1 1 d . . . . .
H4 H 0.722594 0.140358 0.187129 0.06 Uiso 1 1 calc R U . . .
C5 C 0.4441(2) 0.10870(16) 0.11679(13) 0.0519(3) Uani 1 1 d . . . . .
H5 H 0.426817 0.080426 0.028259 0.062 Uiso 1 1 calc R U . . .
C6 C 0.2913(2) 0.11285(15) 0.14868(12) 0.0485(3) Uani 1 1 d . . . . .
H6 H 0.171885 0.087764 0.082821 0.058 Uiso 1 1 calc R U . . .
C7 C 0.3224(2) 0.39510(17) 0.62484(14) 0.0517(3) Uani 1 1 d . . . . .
H7 H 0.371445 0.467019 0.575553 0.062 Uiso 1 1 calc R U . . .
C8 C 0.3186(2) 0.44722(16) 0.74390(13) 0.0490(3) Uani 1 1 d . . . . .
H8 H 0.365432 0.551841 0.775267 0.059 Uiso 1 1 calc R U . . .
C9 C 0.24372(18) 0.34146(15) 0.81665(12) 0.0417(3) Uani 1 1 d D . . . .
C10 C 0.1828(2) 0.18946(16) 0.76724(13) 0.0484(3) Uani 1 1 d . . . . .
H10 H 0.133984 0.115041 0.814634 0.058 Uiso 1 1 calc R U . . .
C11 C 0.1944(2) 0.14855(16) 0.64779(13) 0.0505(3) Uani 1 1 d . . . . .
H11 H 0.153695 0.04503 0.615813 0.061 Uiso 1 1 calc R U . . .
C12 C 0.23250(18) 0.55497(15) 1.10561(12) 0.0423(3) Uani 1 1 d D . . . .
C13 C 0.2865(2) 0.70647(16) 1.14985(13) 0.0502(3) Uani 1 1 d . . . . .
H13 H 0.343056 0.780085 1.104137 0.06 Uiso 1 1 calc R U . . .
C14 C 0.2568(2) 0.74865(16) 1.26136(14) 0.0521(3) Uani 1 1 d . . . . .
H14 H 0.295581 0.852464 1.290504 0.063 Uiso 1 1 calc R U . . .
C15 C 0.12226(19) 0.50368(16) 1.28731(13) 0.0472(3) Uani 1 1 d . . . . .
H15 H 0.064228 0.432609 1.334387 0.057 Uiso 1 1 calc R U . . .
C16 C 0.1479(2) 0.45103(16) 1.17645(13) 0.0471(3) Uani 1 1 d . . . . .
H16 H 0.108625 0.346698 1.149548 0.057 Uiso 1 1 calc DR U . . .
loop_
_atom_site_aniso_label
_atom_site_aniso_U_11
_atom_site_aniso_U_22
_atom_site_aniso_U_33
_atom_site_aniso_U_23
_atom_site_aniso_U_13
_atom_site_aniso_U_12
O1 0.0473(5) 0.0600(6) 0.0418(5) 0.0078(4) 0.0147(4) 0.0225(5)
O2 0.0508(6) 0.0769(7) 0.0468(5) -0.0003(5) 0.0161(4) 0.0312(5)
N1 0.0463(6) 0.0616(7) 0.0444(6) 0.0059(5) 0.0159(5) 0.0257(6)
N2A 0.047(3) 0.045(3) 0.038(3) 0.006(2) 0.018(3) 0.024(2)
N3A 0.047(3) 0.043(3) 0.037(3) 0.010(2) 0.018(2) 0.017(2)
C17 0.047(3) 0.040(2) 0.037(2) 0.0107(18) 0.0106(19) 0.019(2)
C18 0.043(2) 0.039(2) 0.043(2) 0.0062(19) 0.0162(19) 0.0202(18)
N2B 0.046(4) 0.042(4) 0.042(4) 0.007(4) 0.014(4) 0.022(4)
N3B 0.046(4) 0.045(4) 0.042(4) 0.007(4) 0.015(4) 0.019(4)
N4 0.0423(6) 0.0562(7) 0.0392(5) 0.0043(5) 0.0093(5) 0.0205(5)
C1 0.0474(7) 0.0346(6) 0.0389(6) 0.0081(5) 0.0159(5) 0.0160(5)
C2 0.0487(7) 0.0408(6) 0.0331(6) 0.0040(5) 0.0155(5) 0.0178(6)
C3 0.0487(7) 0.0411(7) 0.0411(6) 0.0051(5) 0.0167(5) 0.0193(6)
C4 0.0615(8) 0.0482(7) 0.0452(7) 0.0051(6) 0.0260(6) 0.0247(7)
C5 0.0724(9) 0.0472(7) 0.0362(6) 0.0046(5) 0.0223(6) 0.0247(7)
C6 0.0569(8) 0.0456(7) 0.0355(6) 0.0057(5) 0.0105(6) 0.0197(6)
C7 0.0511(8) 0.0564(8) 0.0503(7) 0.0158(6) 0.0218(6) 0.0229(7)
C8 0.0494(7) 0.0469(7) 0.0497(7) 0.0083(6) 0.0158(6) 0.0215(6)
C9 0.0381(6) 0.0504(7) 0.0372(6) 0.0072(5) 0.0105(5) 0.0221(6)
C10 0.0488(7) 0.0485(7) 0.0467(7) 0.0108(6) 0.0157(6) 0.0207(6)
C11 0.0489(7) 0.0488(7) 0.0494(7) 0.0031(6) 0.0131(6) 0.0209(6)
C12 0.0369(6) 0.0528(7) 0.0372(6) 0.0088(5) 0.0109(5) 0.0213(6)
C13 0.0487(7) 0.0485(7) 0.0480(7) 0.0120(6) 0.0164(6) 0.0165(6)
C14 0.0517(8) 0.0466(7) 0.0493(7) 0.0039(6) 0.0121(6) 0.0180(6)
C15 0.0441(7) 0.0536(8) 0.0427(7) 0.0142(6) 0.0142(5) 0.0206(6)
C16 0.0477(7) 0.0467(7) 0.0473(7) 0.0096(6) 0.0138(6) 0.0231(6)
loop_
_atom_type_symbol
_atom_type_description
_atom_type_scat_dispersion_real
_atom_type_scat_dispersion_imag
_atom_type_scat_source
C C 0.0181 0.0091 'International Tables Vol C Tables 4.2.6.8 and 6.1.1.4'
H H 0 0 'International Tables Vol C Tables 4.2.6.8 and 6.1.1.4'
N N 0.0311 0.018 'International Tables Vol C Tables 4.2.6.8 and 6.1.1.4'
O O 0.0492 0.0322 'International Tables Vol C Tables 4.2.6.8 and 6.1.1.4'
loop_
_exptl_crystal_face_index_h
_exptl_crystal_face_index_k
_exptl_crystal_face_index_l
_exptl_crystal_face_perp_dist
-4 -1 1 0.0681
3 3 -3 0.0873
0 6 -2 0.0863
4 1 -1 0.0905
-1 -2 -4 0.0457
0 -6 2 0.0494
2 2 -7 0.0731
-1 0 7 0.036
-2 1 -5 0.0681
0 4 -6 0.0553
3 0 4 0.092
4 -5 -3 0.1384
-3 6 2 0.1189
1 -3 -5 0.0535
0 0 -7 0.0505
-3 6 -2 0.1171
loop_
_geom_angle_atom_site_label_1
_geom_angle_atom_site_label_2
_geom_angle_atom_site_label_3
_geom_angle
_geom_angle_site_symmetry_1
_geom_angle_site_symmetry_3
_geom_angle_publ_flag
C1 O1 H1 109.5 . . ?
C3 O2 H2A 109.5 . . ?
C11 N1 C7 116.96(11) . . ?
N3A N2A C9 116.5(11) . . ?
N2A N3A C12 120.4(12) . . ?
C18 C17 C9 121.2(10) . . ?
C18 C17 H17 119.4 . . ?
C9 C17 H17 119.4 . . ?
C17 C18 C12 119.5(11) . . ?
C17 C18 H18 120.2 . . ?
C12 C18 H18 120.2 . . ?
N3B N2B C9 112(3) . . ?
N2B N3B C12 107(3) . . ?
C14 N4 C15 117.08(12) . . ?
O1 C1 C2 122.03(10) . . ?
O1 C1 C6 118.16(12) . . ?
C2 C1 C6 119.81(12) . . ?
C1 C2 C3 120.53(11) . . ?
C1 C2 H2 119.7 . . ?
C3 C2 H2 119.7 . . ?
O2 C3 C2 122.17(11) . . ?
O2 C3 C4 118.01(12) . . ?
C2 C3 C4 119.82(12) . . ?
C5 C4 C3 118.84(12) . . ?
C5 C4 H4 120.6 . . ?
C3 C4 H4 120.6 . . ?
C4 C5 C6 121.99(12) . . ?
C4 C5 H5 119 . . ?
C6 C5 H5 119 . . ?
C5 C6 C1 118.98(13) . . ?
C5 C6 H6 120.5 . . ?
C1 C6 H6 120.5 . . ?
N1 C7 C8 123.88(13) . . ?
N1 C7 H7 118.1 . . ?
C8 C7 H7 118.1 . . ?
C7 C8 C9 118.46(13) . . ?
C7 C8 H8 120.8 . . ?
C9 C8 H8 120.8 . . ?
C10 C9 C8 118.06(12) . . ?
C10 C9 C17 118.0(5) . . ?
C8 C9 C17 123.7(5) . . ?
C10 C9 N2A 116.1(5) . . ?
C8 C9 N2A 125.8(5) . . ?
C10 C9 N2B 150.8(11) . . ?
C8 C9 N2B 91.1(11) . . ?
C11 C10 C9 119.21(13) . . ?
C11 C10 H10 120.4 . . ?
C9 C10 H10 120.4 . . ?
N1 C11 C10 123.39(13) . . ?
N1 C11 H11 118.3 . . ?
C10 C11 H11 118.3 . . ?
C13 C12 C16 117.80(12) . . ?
C13 C12 C18 115.4(6) . . ?
C16 C12 C18 126.8(6) . . ?
C13 C12 N3A 118.9(6) . . ?
C16 C12 N3A 123.3(6) . . ?
C13 C12 N3B 154.4(9) . . ?
C16 C12 N3B 87.7(9) . . ?
C14 C13 C12 119.33(13) . . ?
C14 C13 H13 120.3 . . ?
C12 C13 H13 120.3 . . ?
N4 C14 C13 123.67(13) . . ?
N4 C14 H14 118.2 . . ?
C13 C14 H14 118.2 . . ?
N4 C15 C16 123.18(13) . . ?
N4 C15 H15 118.4 . . ?
C16 C15 H15 118.4 . . ?
C15 C16 C12 118.93(13) . . ?
C15 C16 H16 120.5 . . ?
C12 C16 H16 120.5 . . ?
loop_
_geom_bond_atom_site_label_1
_geom_bond_atom_site_label_2
_geom_bond_distance
_geom_bond_site_symmetry_2
_geom_bond_publ_flag
O1 C1 1.3586(15) . ?
O1 H1 0.83 . ?
O2 C3 1.3557(16) . ?
O2 H2A 0.83 . ?
N1 C11 1.3334(19) . ?
N1 C7 1.3378(18) . ?
N2A N3A 1.231(8) . ?
N2A C9 1.482(11) . ?
N3A C12 1.491(12) . ?
C17 C18 1.312(7) . ?
C17 C9 1.441(11) . ?
C17 H17 0.94 . ?
C18 C12 1.436(11) . ?
C18 H18 0.94 . ?
N2B N3B 1.241(10) . ?
N2B C9 1.50(3) . ?
N3B C12 1.62(3) . ?
N4 C14 1.3335(19) . ?
N4 C15 1.3360(17) . ?
C1 C2 1.3857(17) . ?
C1 C6 1.3910(17) . ?
C2 C3 1.3910(18) . ?
C2 H2 0.94 . ?
C3 C4 1.3932(17) . ?
C4 C5 1.379(2) . ?
C4 H4 0.94 . ?
C5 C6 1.383(2) . ?
C5 H5 0.94 . ?
C6 H6 0.94 . ?
C7 C8 1.3772(19) . ?
C7 H7 0.94 . ?
C8 C9 1.391(2) . ?
C8 H8 0.94 . ?
C9 C10 1.3840(18) . ?
C10 C11 1.3772(18) . ?
C10 H10 0.94 . ?
C11 H11 0.94 . ?
C12 C13 1.3797(19) . ?
C12 C16 1.3901(19) . ?
C13 C14 1.3737(19) . ?
C13 H13 0.94 . ?
C14 H14 0.94 . ?
C15 C16 1.3852(18) . ?
C15 H15 0.94 . ?
C16 H16 0.94 . ?
loop_
_geom_hbond_atom_site_label_D
_geom_hbond_atom_site_label_H
_geom_hbond_atom_site_label_A
_geom_hbond_distance_DH
_geom_hbond_distance_HA
_geom_hbond_distance_DA
_geom_hbond_angle_DHA
_geom_hbond_site_symmetry_A
_geom_hbond_publ_flag
O1 H1 N1 0.83 1.93 2.7579(14) 176.1 . yes
O2 H2A N4 0.83 1.94 2.7734(14) 176.1 2_667 yes
