#------------------------------------------------------------------------------
#$Date: 2020-10-06 10:03:09 +0300 (Tue, 06 Oct 2020) $
#$Revision: 257298 $
#$URL: file:///home/coder/svn-repositories/cod/cif/1/55/83/1558392.cif $
#------------------------------------------------------------------------------
#
# This file is available in the Crystallography Open Database (COD),
# http://www.crystallography.net/
#
# All data on this site have been placed in the public domain by the
# contributors.
#
data_1558392
loop_
_publ_author_name
'Cui, Jin'
'Kumagai, Naoya'
'Watanabe, Takumi'
'Shibasaki, Masakatsu'
_publ_section_title
;
 Direct catalytic asymmetric and anti-selective vinylogous addition of
 butenolides to chromones
;
_journal_issue                   27
_journal_name_full               'Chemical Science'
_journal_page_first              7170
_journal_page_last               7176
_journal_paper_doi               10.1039/D0SC01914C
_journal_volume                  11
_journal_year                    2020
_chemical_absolute_configuration ad
_chemical_formula_moiety         'C14 H12 O4'
_chemical_formula_sum            'C14 H12 O4'
_chemical_formula_weight         244.24
_space_group_crystal_system      monoclinic
_space_group_IT_number           4
_space_group_name_Hall           'P 2yb'
_space_group_name_H-M_alt        'P 1 21 1'
_atom_sites_solution_hydrogens   geom
_atom_sites_solution_primary     dual
_audit_creation_date             2020-01-28
_audit_creation_method
;
Olex2 1.2
(compiled 2018.05.29 svn.r3508 for OlexSys, GUI svn.r5506)
;
_audit_update_record
;
2020-03-06 deposited with the CCDC.	2020-06-22 downloaded from the CCDC.
;
_cell_angle_alpha                90
_cell_angle_beta                 102.4050(10)
_cell_angle_gamma                90
_cell_formula_units_Z            2
_cell_length_a                   8.10250(10)
_cell_length_b                   6.64010(10)
_cell_length_c                   11.71340(10)
_cell_measurement_reflns_used    10797
_cell_measurement_temperature    93.15
_cell_measurement_theta_max      76.0520
_cell_measurement_theta_min      5.5790
_cell_volume                     615.485(13)
_computing_cell_refinement       'CrysAlisPro 1.171.40.14a (Rigaku OD, 2018)'
_computing_data_collection       'CrysAlisPro 1.171.40.14a (Rigaku OD, 2018)'
_computing_data_reduction        'CrysAlisPro 1.171.40.14a (Rigaku OD, 2018)'
_computing_molecular_graphics    'Olex2 (Dolomanov et al., 2009)'
_computing_publication_material  'Olex2 (Dolomanov et al., 2009)'
_computing_structure_refinement  'ShelXL (Sheldrick, 2015)'
_computing_structure_solution    'ShelXT (Sheldrick, 2015)'
_diffrn_ambient_temperature      93.15
_diffrn_detector                 'Rigaku HyPix-6000 area detector'
_diffrn_detector_area_resol_mean 10.0
_diffrn_detector_type            'HPC area detector'
_diffrn_measured_fraction_theta_full 0.995
_diffrn_measured_fraction_theta_max 0.948
_diffrn_measurement_details
;
List of Runs (angles in degrees, time in seconds):

  # Type    Start    End  Width  t~exp~   \w     \q     \k     \f   Frames
#--------------------------------------------------------------------------
  1  \w     36.00 122.00   0.50    0.05    --   47.70  24.00 -25.00  172
  2  \w     93.00 174.00   0.50    0.05    --  106.49  24.00 -25.00  162
  3  \w     96.00 132.00   0.50    0.05    --  106.49  45.00  30.00   72
  4  \w     90.00 116.00   0.50    0.05    --  106.49  61.00  30.00   52
  5  \w     86.00 112.00   0.50    0.05    --  106.49  77.00  30.00   52
  6  \w     93.00 119.00   0.50    0.05    --  106.49  61.00  60.00   52
  7  \w     85.00 111.00   0.50    0.05    --  106.49  77.00   0.00   52
  8  \w     36.00 121.00   0.50    0.05    --   47.70  38.00  30.00  170
  9  \w     32.00  60.00   0.50    0.05    --  106.49 -24.00 169.00   56
 10  \w     36.00 121.00   0.50    0.05    --   47.70  38.00  90.00  170
 11  \w     67.00  94.00   0.50    0.05    --  106.49 -94.00   0.00   54
 12  \w     72.00 106.00   0.50    0.05    --  106.49-125.00  60.00   68
 13  \w     34.00  60.00   0.50    0.05    --  106.49-125.00  60.00   52
 14  \w     33.00  59.00   0.50    0.05    --  106.49 -30.00   0.00   52
 15  \w     33.00  60.00   0.50    0.05    --  106.49 -30.00  30.00   54
 16  \w     25.00 120.00   0.50    0.05    --   47.70  77.00  90.00  190
 17  \w    -26.00  61.00   0.50    0.05    --   47.70 -24.00 169.00  174
 18  \w    -60.00  27.00   0.50    0.05    --  -47.70  24.00 -25.00  174
 19  \w    -66.00 -26.00   0.50    0.05    -- -100.00  24.00 -25.00   80
 20  \w    -95.00 -20.00   0.50    0.05    --  -47.70 125.00  30.00  150
 21  \w    -76.00 -38.00   0.50    0.05    -- -100.00  45.00 120.00   76
 22  \w    -81.00 -28.00   0.50    0.05    -- -100.00  45.00 150.00  106
 23  \w   -105.00 -80.00   0.50    0.05    -- -100.00 -69.00 126.63   50
 24  \w   -106.00 -81.00   0.50    0.05    -- -100.00 -67.00  87.94   50
 25  \w   -104.00 -78.00   0.50    0.05    -- -100.00 -77.00  90.00   52
 26  \w   -113.00 -85.00   0.50    0.05    -- -100.00 -61.00  60.00   56
 27  \w   -117.00 -77.00   0.50    0.05    -- -100.00 -77.00 120.00   80
 28  \w   -122.00 -34.00   0.50    0.05    --  -47.70 -24.00 169.00  176
 29  \w   -119.00 -25.00   0.50    0.05    --  -47.70 -77.00   0.00  188
 30  \w   -119.00 -25.00   0.50    0.05    --  -47.70 -77.00  60.00  188
 31  \w    -81.00 -28.00   0.50    0.05    -- -100.00  45.00-180.00  106
 32  \w   -141.00 -79.00   0.50    0.05    -- -100.00 -77.00  30.00  124
 33  \w   -173.00 -87.00   0.50    0.05    -- -100.00 -24.00 169.00  172
 34  \w   -168.00-128.00   0.50    0.05    -- -100.00 -77.00 120.00   80
 35  \w   -172.00 -86.00   0.50    0.05    -- -100.00 -43.00 120.32  172
 36  \w   -167.00-141.00   0.50    0.05    -- -100.00 -67.00  87.94   52
 37  \w   -173.00 -82.00   0.50    0.05    -- -100.00 -66.00  24.18  182
 38  \w   -173.00 -77.00   0.50    0.05    -- -100.00 -77.00 150.00  192
 39  \w   -173.00 -75.00   0.50    0.05    -- -100.00 -82.00  89.27  196
 40  \w   -173.00 -78.00   0.50    0.05    -- -100.00 -75.00 126.42  190
 41  \w   -173.00 -83.00   0.50    0.05    -- -100.00 -61.00  87.27  180
 42  \w   -173.00 -83.00   0.50    0.05    -- -100.00 -61.00 150.00  180
 43  \w   -173.00 -75.00   0.50    0.05    -- -100.00 -82.00  59.43  196
;
_diffrn_measurement_device       'four-circle diffractometer'
_diffrn_measurement_device_type  'Rigaku XtaLAB Synergy-Custom'
_diffrn_measurement_method       '\w scans'
_diffrn_orient_matrix_type
'CrysAlisPro convention (1999,Acta A55,543-557)'
_diffrn_orient_matrix_UB_11      -0.1043344000
_diffrn_orient_matrix_UB_12      0.0227317000
_diffrn_orient_matrix_UB_13      -0.1257238000
_diffrn_orient_matrix_UB_21      -0.1533631000
_diffrn_orient_matrix_UB_22      0.0691246000
_diffrn_orient_matrix_UB_23      0.0480432000
_diffrn_orient_matrix_UB_31      0.0590046000
_diffrn_orient_matrix_UB_32      0.2204489000
_diffrn_orient_matrix_UB_33      -0.0020475000
_diffrn_radiation_monochromator  'multi-layer mirror optics'
_diffrn_radiation_probe          x-ray
_diffrn_radiation_type           CuK\a
_diffrn_radiation_wavelength     1.54184
_diffrn_reflns_av_R_equivalents  0.0222
_diffrn_reflns_av_unetI/netI     0.0152
_diffrn_reflns_Laue_measured_fraction_full 0.995
_diffrn_reflns_Laue_measured_fraction_max 0.948
_diffrn_reflns_limit_h_max       10
_diffrn_reflns_limit_h_min       -9
_diffrn_reflns_limit_k_max       7
_diffrn_reflns_limit_k_min       -7
_diffrn_reflns_limit_l_max       14
_diffrn_reflns_limit_l_min       -14
_diffrn_reflns_number            11517
_diffrn_reflns_point_group_measured_fraction_full 0.972
_diffrn_reflns_point_group_measured_fraction_max 0.911
_diffrn_reflns_theta_full        67.684
_diffrn_reflns_theta_max         76.780
_diffrn_reflns_theta_min         5.591
_diffrn_source                   'rotating anode X-ray generator'
_diffrn_source_type              micromax007
_exptl_absorpt_coefficient_mu    0.807
_exptl_absorpt_correction_T_max  1.00000
_exptl_absorpt_correction_T_min  0.65021
_exptl_absorpt_correction_type   multi-scan
_exptl_absorpt_process_details
;
CrysAlisPro 1.171.40.14a (Rigaku Oxford Diffraction, 2018)
Empirical absorption correction using spherical harmonics,
 implemented in SCALE3 ABSPACK scaling algorithm.
;
_exptl_crystal_colour            'dull light colourless'
_exptl_crystal_colour_lustre     dull
_exptl_crystal_colour_modifier   light
_exptl_crystal_colour_primary    colourless
_exptl_crystal_density_diffrn    1.318
_exptl_crystal_description       plate
_exptl_crystal_F_000             256
_exptl_crystal_size_max          0.2
_exptl_crystal_size_mid          0.2
_exptl_crystal_size_min          0.05
_refine_diff_density_max         0.178
_refine_diff_density_min         -0.172
_refine_diff_density_rms         0.037
_refine_ls_abs_structure_details
;
 Flack x determined using 1000 quotients [(I+)-(I-)]/[(I+)+(I-)]
 (Parsons, Flack and Wagner, Acta Cryst. B69 (2013) 249-259).
;
_refine_ls_abs_structure_Flack   0.11(7)
_refine_ls_extinction_method     none
_refine_ls_goodness_of_fit_ref   1.070
_refine_ls_hydrogen_treatment    constr
_refine_ls_matrix_type           full
_refine_ls_number_parameters     164
_refine_ls_number_reflns         2365
_refine_ls_number_restraints     1
_refine_ls_restrained_S_all      1.069
_refine_ls_R_factor_all          0.0273
_refine_ls_R_factor_gt           0.0271
_refine_ls_shift/su_max          0.000
_refine_ls_shift/su_mean         0.000
_refine_ls_structure_factor_coef Fsqd
_refine_ls_weighting_details
'w=1/[\s^2^(Fo^2^)+(0.0381P)^2^+0.1025P] where P=(Fo^2^+2Fc^2^)/3'
_refine_ls_weighting_scheme      calc
_refine_ls_wR_factor_gt          0.0706
_refine_ls_wR_factor_ref         0.0709
_reflns_Friedel_coverage         0.762
_reflns_Friedel_fraction_full    0.945
_reflns_Friedel_fraction_max     0.865
_reflns_number_gt                2336
_reflns_number_total             2365
_reflns_threshold_expression     'I > 2\s(I)'
_cod_data_source_file            d0sc01914c2.cif
_cod_data_source_block           exp_327
_cod_depositor_comments
;Adding full bibliography for 1558392--1558393.cif.

 Adding full bibliography for 1558392--1558393.cif.
;
_cod_original_cell_volume        615.484(13)
_cod_database_code               1558392
_shelx_shelxl_version_number     2018/3
_chemical_oxdiff_formula         'C H O'
_chemical_oxdiff_usercomment     CJ-20200128
_shelx_space_group_comment
;
The symmetry employed for this shelxl refinement is uniquely defined
by the following loop, which should always be used as a source of
symmetry information in preference to the above space-group names.
They are only intended as comments.
;
_shelx_estimated_absorpt_t_max   0.961
_shelx_estimated_absorpt_t_min   0.855
_reflns_odcompleteness_completeness 99.50
_reflns_odcompleteness_iscentric 1
_reflns_odcompleteness_theta     66.97
_olex2_refinement_description
;
1. Fixed Uiso
 At 1.2 times of:
  All C(H) groups, All C(H,H) groups
 At 1.5 times of:
  All C(H,H,H) groups
2.a Ternary CH refined with riding coordinates:
 C00D(H00E)
2.b Secondary CH2 refined with riding coordinates:
 C008(H00A,H00B)
2.c Aromatic/amide H refined with riding coordinates:
 C006(H006), C00B(H00C), C00C(H00D), C00F(H00F), C00G(H00G), C00I(H00K)
2.d Idealised Me refined as rotating group:
 C00H(H00H,H00I,H00J)
;
_shelx_res_file
;
TITL exp_327_a.res in P2(1)
    exp_327.res
    created by SHELXL-2018/3 at 20:16:17 on 28-Jan-2020
REM Old TITL exp_327_a.res in P2(1)
REM SHELXT solution in P2(1): R1 0.082, Rweak 0.023, Alpha 0.002
REM <I/s> 0.886 for 4 systematic absences, Orientation as input
REM Flack x = 0.117 ( 0.064 ) from 1000 Parsons' quotients
REM Formula found by SHELXT: C14 O4
CELL 1.54184 8.1025 6.6401 11.7134 90 102.405 90
ZERR 2 0.0001 0.0001 0.0001 0 0.001 0
LATT -1
SYMM -X,0.5+Y,-Z
SFAC C H O
UNIT 28 24 8

L.S. 20
PLAN  30
SIZE 0.05 0.2 0.2
TEMP -180
BOND
list 4
fmap 2
acta
REM <olex2.extras>
REM <HklSrc "%.\\exp_327.hkl">
REM </olex2.extras>

WGHT    0.038100    0.102500
FVAR       1.83075
O001  3    0.191240    0.461990    0.164603    11.00000    0.02388    0.02162 =
         0.02290   -0.00241    0.00558    0.00131
O002  3    0.100994    0.657028    0.362552    11.00000    0.01900    0.03032 =
         0.02216   -0.00376    0.00268    0.00122
O003  3    0.341863    0.242719    0.083770    11.00000    0.03691    0.02933 =
         0.03083   -0.00808    0.00283    0.00975
O004  3    0.582504    0.642201    0.560978    11.00000    0.02073    0.03000 =
         0.03226   -0.00207   -0.00064    0.00161
C005  1    0.311718    0.415211    0.104217    11.00000    0.02343    0.02978 =
         0.02028   -0.00305    0.00238    0.00383
C006  1   -0.015440    0.677607    0.529458    11.00000    0.02297    0.01911 =
         0.03385   -0.00237    0.00775   -0.00013
AFIX  43
H006  2   -0.125076    0.671163    0.480326    11.00000   -1.20000
AFIX   0
C007  1    0.127631    0.670323    0.481615    11.00000    0.02428    0.01692 =
         0.02344   -0.00193    0.00485    0.00075
C008  1    0.403549    0.627364    0.371150    11.00000    0.02050    0.02565 =
         0.02596   -0.00070    0.00634    0.00329
AFIX  23
H00A  2    0.399556    0.482372    0.351053    11.00000   -1.20000
H00B  2    0.496975    0.689211    0.341097    11.00000   -1.20000
AFIX   0
C009  1    0.438784    0.650091    0.502339    11.00000    0.02107    0.01664 =
         0.02796    0.00015    0.00205    0.00052
C00A  1    0.289238    0.672617    0.553458    11.00000    0.02361    0.01810 =
         0.02347   -0.00034    0.00397   -0.00130
C00B  1    0.003815    0.694296    0.649088    11.00000    0.03348    0.02092 =
         0.03598   -0.00223    0.01767   -0.00305
AFIX  43
H00C  2   -0.093415    0.701737    0.682024    11.00000   -1.20000
AFIX   0
C00C  1    0.305712    0.687380    0.675168    11.00000    0.02994    0.02560 =
         0.02389    0.00031    0.00296   -0.00477
AFIX  43
H00D  2    0.414904    0.688387    0.725094    11.00000   -1.20000
AFIX   0
C00D  1    0.237699    0.725653    0.312086    11.00000    0.02256    0.02196 =
         0.02362   -0.00033    0.00546    0.00170
AFIX  13
H00E  2    0.248908    0.874853    0.322559    11.00000   -1.20000
AFIX   0
C00E  1    0.186196    0.678712    0.180558    11.00000    0.03179    0.02035 =
         0.02314   -0.00065    0.00429    0.00678
C00F  1    0.164406    0.700378    0.722304    11.00000    0.04172    0.02881 =
         0.02481   -0.00124    0.01222   -0.00663
AFIX  43
H00F  2    0.176082    0.713450    0.804418    11.00000   -1.20000
AFIX   0
C00G  1    0.386975    0.603120    0.073219    11.00000    0.03884    0.03925 =
         0.02789   -0.00102    0.01488   -0.00662
AFIX  43
H00G  2    0.471754    0.613660    0.028705    11.00000   -1.20000
AFIX   0
C00H  1    0.009382    0.751761    0.126190    11.00000    0.04658    0.05063 =
         0.02713   -0.00619   -0.00511    0.02549
AFIX 137
H00H  2   -0.018172    0.716289    0.043045    11.00000   -1.50000
H00I  2    0.004041    0.898310    0.134629    11.00000   -1.50000
H00J  2   -0.071945    0.687876    0.165772    11.00000   -1.50000
AFIX   0
C00I  1    0.316493    0.755071    0.117893    11.00000    0.05310    0.02555 =
         0.02500    0.00196    0.01079   -0.00646
AFIX  43
H00K  2    0.344443    0.892893    0.111222    11.00000   -1.20000
AFIX   0
HKLF 4




REM  exp_327_a.res in P2(1)
REM wR2 = 0.0709, GooF = S = 1.070, Restrained GooF = 1.069 for all data
REM R1 = 0.0271 for 2336 Fo > 4sig(Fo) and 0.0273 for all 2365 data
REM 164 parameters refined using 1 restraints

END

WGHT      0.0381      0.1025

REM Highest difference peak  0.178,  deepest hole -0.172,  1-sigma level  0.037
Q1    1   0.2071  0.7036  0.2418  11.00000  0.05    0.18
Q2    1   0.2649  0.7072  0.1580  11.00000  0.05    0.15
Q3    1   0.2112  0.6685  0.5205  11.00000  0.05    0.14
Q4    1   0.2938  0.6750  0.6131  11.00000  0.05    0.13
Q5    1   0.3218  0.6861  0.3403  11.00000  0.05    0.13
Q6    1   0.2996  0.6741  0.0629  11.00000  0.05    0.11
Q7    1   0.1065  0.7240  0.1593  11.00000  0.05    0.11
Q8    1   0.2279  0.6738 -0.0262  11.00000  0.05    0.11
Q9    1   0.3599  0.6320 -0.0261  11.00000  0.05    0.10
Q10   1   0.1339  0.6602  0.8937  11.00000  0.05    0.10
Q11   1   0.0652  1.1391  0.1203  11.00000  0.05    0.10
Q12   1   0.3556  0.6573  0.5329  11.00000  0.05    0.10
Q13   1   0.2995  0.4610  0.3267  11.00000  0.05    0.10
Q14   1  -0.2649  0.8920  0.5314  11.00000  0.05    0.10
Q15   1   0.5643  0.9262  0.3418  11.00000  0.05    0.10
Q16   1   0.3543  0.4005  0.4967  11.00000  0.05    0.10
Q17   1  -0.1003  0.8950  0.3895  11.00000  0.05    0.10
Q18   1  -0.2186  0.9070  0.4594  11.00000  0.05    0.10
Q19   1   0.1419  0.1886  0.1600  11.00000  0.05    0.10
Q20   1   0.3050  0.4739  0.6103  11.00000  0.05    0.10
Q21   1   0.1047  0.6894  0.9238  11.00000  0.05    0.09
Q22   1   0.1374  0.4235  0.4818  11.00000  0.05    0.09
Q23   1   0.4149  0.6492  0.4332  11.00000  0.05    0.09
Q24   1   0.3877  0.3698  0.3993  11.00000  0.05    0.09
Q25   1  -0.2165  0.4655  0.4685  11.00000  0.05    0.09
Q26   1   0.4957  0.9150  0.3639  11.00000  0.05    0.09
Q27   1   0.1055  0.6316 -0.0096  11.00000  0.05    0.09
Q28   1   0.4098  0.5989  0.8554  11.00000  0.05    0.09
Q29   1   0.2347  0.6678  0.6967  11.00000  0.05    0.09
Q30   1   0.0913  0.7029  0.6804  11.00000  0.05    0.09
;
_shelx_res_checksum              76357
_olex2_submission_special_instructions 'No special instructions were received'
_oxdiff_exptl_absorpt_empirical_details
;
Empirical correction (ABSPACK) includes:
- Absorption correction using spherical harmonics
- Frame scaling
;
_oxdiff_exptl_absorpt_empirical_full_max 1.347
_oxdiff_exptl_absorpt_empirical_full_min 0.678
loop_
_space_group_symop_operation_xyz
'x, y, z'
'-x, y+1/2, -z'
loop_
_atom_site_label
_atom_site_type_symbol
_atom_site_fract_x
_atom_site_fract_y
_atom_site_fract_z
_atom_site_U_iso_or_equiv
_atom_site_adp_type
_atom_site_occupancy
_atom_site_site_symmetry_order
_atom_site_calc_flag
_atom_site_refinement_flags_posn
_atom_site_refinement_flags_adp
_atom_site_refinement_flags_occupancy
_atom_site_disorder_assembly
_atom_site_disorder_group
O001 O 0.19124(14) 0.46199(19) 0.16460(9) 0.0227(3) Uani 1 1 d . . . . .
O002 O 0.10099(13) 0.6570(2) 0.36255(9) 0.0241(3) Uani 1 1 d . . . . .
O003 O 0.34186(16) 0.2427(2) 0.08377(11) 0.0330(3) Uani 1 1 d . . . . .
O004 O 0.58250(14) 0.6422(2) 0.56098(10) 0.0286(3) Uani 1 1 d . . . . .
C005 C 0.3117(2) 0.4152(3) 0.10422(14) 0.0248(4) Uani 1 1 d . . . . .
C006 C -0.0154(2) 0.6776(3) 0.52946(14) 0.0251(4) Uani 1 1 d . . . . .
H006 H -0.125076 0.671163 0.480326 0.030 Uiso 1 1 calc R . . . .
C007 C 0.12763(19) 0.6703(3) 0.48161(13) 0.0216(3) Uani 1 1 d . . . . .
C008 C 0.40355(19) 0.6274(3) 0.37115(14) 0.0238(4) Uani 1 1 d . . . . .
H00A H 0.399556 0.482372 0.351053 0.029 Uiso 1 1 calc R . . . .
H00B H 0.496975 0.689211 0.341097 0.029 Uiso 1 1 calc R . . . .
C009 C 0.43878(19) 0.6501(3) 0.50234(14) 0.0224(3) Uani 1 1 d . . . . .
C00A C 0.2892(2) 0.6726(3) 0.55346(14) 0.0219(3) Uani 1 1 d . . . . .
C00B C 0.0038(2) 0.6943(3) 0.64909(16) 0.0286(4) Uani 1 1 d . . . . .
H00C H -0.093415 0.701737 0.682024 0.034 Uiso 1 1 calc R . . . .
C00C C 0.3057(2) 0.6874(3) 0.67517(14) 0.0269(4) Uani 1 1 d . . . . .
H00D H 0.414904 0.688387 0.725094 0.032 Uiso 1 1 calc R . . . .
C00D C 0.2377(2) 0.7257(3) 0.31209(14) 0.0226(4) Uani 1 1 d . . . . .
H00E H 0.248908 0.874853 0.322559 0.027 Uiso 1 1 calc R . . . .
C00E C 0.1862(2) 0.6787(3) 0.18056(14) 0.0253(4) Uani 1 1 d . . . . .
C00F C 0.1644(2) 0.7004(3) 0.72230(15) 0.0310(4) Uani 1 1 d . . . . .
H00F H 0.176082 0.713450 0.804418 0.037 Uiso 1 1 calc R . . . .
C00G C 0.3870(2) 0.6031(3) 0.07322(16) 0.0342(4) Uani 1 1 d . . . . .
H00G H 0.471754 0.613660 0.028705 0.041 Uiso 1 1 calc R . . . .
C00H C 0.0094(3) 0.7518(4) 0.12619(17) 0.0434(6) Uani 1 1 d . . . . .
H00H H -0.018172 0.716289 0.043045 0.065 Uiso 1 1 calc GR . . . .
H00I H 0.004041 0.898310 0.134629 0.065 Uiso 1 1 calc GR . . . .
H00J H -0.071945 0.687876 0.165772 0.065 Uiso 1 1 calc GR . . . .
C00I C 0.3165(3) 0.7551(3) 0.11789(16) 0.0342(4) Uani 1 1 d . . . . .
H00K H 0.344443 0.892893 0.111222 0.041 Uiso 1 1 calc R . . . .
loop_
_atom_site_aniso_label
_atom_site_aniso_U_11
_atom_site_aniso_U_22
_atom_site_aniso_U_33
_atom_site_aniso_U_23
_atom_site_aniso_U_13
_atom_site_aniso_U_12
O001 0.0239(6) 0.0216(7) 0.0229(5) -0.0024(5) 0.0056(4) 0.0013(5)
O002 0.0190(5) 0.0303(7) 0.0222(5) -0.0038(5) 0.0027(4) 0.0012(5)
O003 0.0369(7) 0.0293(8) 0.0308(6) -0.0081(6) 0.0028(5) 0.0097(6)
O004 0.0207(5) 0.0300(8) 0.0323(6) -0.0021(5) -0.0006(4) 0.0016(5)
C005 0.0234(8) 0.0298(11) 0.0203(7) -0.0031(7) 0.0024(6) 0.0038(7)
C006 0.0230(8) 0.0191(9) 0.0339(9) -0.0024(7) 0.0077(6) -0.0001(7)
C007 0.0243(7) 0.0169(9) 0.0234(7) -0.0019(7) 0.0048(6) 0.0007(7)
C008 0.0205(7) 0.0257(10) 0.0260(8) -0.0007(7) 0.0063(6) 0.0033(7)
C009 0.0211(7) 0.0166(9) 0.0280(8) 0.0002(7) 0.0020(6) 0.0005(6)
C00A 0.0236(8) 0.0181(8) 0.0235(7) -0.0003(7) 0.0040(6) -0.0013(7)
C00B 0.0335(9) 0.0209(10) 0.0360(9) -0.0022(7) 0.0177(7) -0.0031(7)
C00C 0.0299(8) 0.0256(10) 0.0239(8) 0.0003(7) 0.0030(6) -0.0048(7)
C00D 0.0226(7) 0.0220(9) 0.0236(7) -0.0003(7) 0.0055(6) 0.0017(6)
C00E 0.0318(8) 0.0203(9) 0.0231(7) -0.0007(7) 0.0043(6) 0.0068(7)
C00F 0.0417(10) 0.0288(12) 0.0248(8) -0.0012(8) 0.0122(7) -0.0066(8)
C00G 0.0388(10) 0.0392(12) 0.0279(8) -0.0010(8) 0.0149(7) -0.0066(9)
C00H 0.0466(11) 0.0506(14) 0.0271(9) -0.0062(9) -0.0051(8) 0.0255(11)
C00I 0.0531(11) 0.0255(10) 0.0250(8) 0.0020(7) 0.0108(8) -0.0065(9)
loop_
_atom_type_symbol
_atom_type_description
_atom_type_scat_dispersion_real
_atom_type_scat_dispersion_imag
_atom_type_scat_source
C C 0.0181 0.0091 'International Tables Vol C Tables 4.2.6.8 and 6.1.1.4'
H H 0.0000 0.0000 'International Tables Vol C Tables 4.2.6.8 and 6.1.1.4'
O O 0.0492 0.0322 'International Tables Vol C Tables 4.2.6.8 and 6.1.1.4'
loop_
_geom_angle_atom_site_label_1
_geom_angle_atom_site_label_2
_geom_angle_atom_site_label_3
_geom_angle
_geom_angle_site_symmetry_1
_geom_angle_site_symmetry_3
_geom_angle_publ_flag
C005 O001 C00E 109.67(14) . . ?
C007 O002 C00D 115.61(12) . . ?
O001 C005 C00G 108.51(15) . . ?
O003 C005 O001 121.29(17) . . ?
O003 C005 C00G 130.20(17) . . ?
C00B C006 C007 119.27(15) . . ?
O002 C007 C006 116.74(14) . . ?
O002 C007 C00A 122.51(14) . . ?
C006 C007 C00A 120.73(14) . . ?
C009 C008 C00D 112.08(13) . . ?
O004 C009 C008 121.21(14) . . ?
O004 C009 C00A 123.09(15) . . ?
C00A C009 C008 115.64(13) . . ?
C007 C00A C009 120.12(14) . . ?
C007 C00A C00C 118.96(15) . . ?
C00C C00A C009 120.86(14) . . ?
C006 C00B C00F 120.85(15) . . ?
C00F C00C C00A 120.33(16) . . ?
O002 C00D C008 111.15(14) . . ?
O002 C00D C00E 106.28(13) . . ?
C008 C00D C00E 113.06(14) . . ?
O001 C00E C00D 108.68(14) . . ?
O001 C00E C00H 108.23(16) . . ?
O001 C00E C00I 103.30(14) . . ?
C00H C00E C00D 112.58(14) . . ?
C00I C00E C00D 110.73(15) . . ?
C00I C00E C00H 112.80(17) . . ?
C00C C00F C00B 119.82(15) . . ?
C00I C00G C005 108.25(16) . . ?
C00G C00I C00E 110.22(18) . . ?
loop_
_geom_bond_atom_site_label_1
_geom_bond_atom_site_label_2
_geom_bond_distance
_geom_bond_site_symmetry_2
_geom_bond_publ_flag
O001 C005 1.359(2) . ?
O001 C00E 1.453(2) . ?
O002 C007 1.3675(19) . ?
O002 C00D 1.4371(19) . ?
O003 C005 1.206(2) . ?
O004 C009 1.219(2) . ?
C005 C00G 1.468(3) . ?
C006 C007 1.393(2) . ?
C006 C00B 1.381(2) . ?
C007 C00A 1.396(2) . ?
C008 C009 1.509(2) . ?
C008 C00D 1.520(2) . ?
C009 C00A 1.470(2) . ?
C00A C00C 1.406(2) . ?
C00B C00F 1.397(3) . ?
C00C C00F 1.376(2) . ?
C00D C00E 1.539(2) . ?
C00E C00H 1.517(2) . ?
C00E C00I 1.498(3) . ?
C00G C00I 1.322(3) . ?
