#------------------------------------------------------------------------------
#$Date: 2020-06-06 04:11:42 +0300 (Sat, 06 Jun 2020) $
#$Revision: 252959 $
#$URL: file:///home/coder/svn-repositories/cod/cif/1/55/82/1558222.cif $
#------------------------------------------------------------------------------
#
# This file is available in the Crystallography Open Database (COD),
# http://www.crystallography.net/
#
# All data on this site have been placed in the public domain by the
# contributors.
#
data_1558222
loop_
_publ_author_name
'Ding, Xiaodan'
'Unruh, Daniel K.'
'Groeneman , Ryan'
'Hutchins, Kristin M.'
_publ_section_title
;
 Controlling thermal expansion within mixed cocrystals by tuning molecular
 motion capability
;
_journal_name_full               'Chemical Science'
_journal_paper_doi               10.1039/D0SC02795B
_journal_year                    2020
_chemical_formula_sum            'C16.53 H14 N3.47 O2'
_chemical_formula_weight         293.15
_space_group_IT_number           2
_space_group_name_Hall           '-P 1'
_space_group_name_H-M_alt        'P -1'
_symmetry_cell_setting           triclinic
_symmetry_Int_Tables_number      2
_symmetry_space_group_name_Hall  '-P 1'
_symmetry_space_group_name_H-M   'P -1'
_atom_sites_solution_hydrogens   geom
_atom_sites_solution_primary     dual
_atom_sites_solution_secondary   difmap
_audit_creation_date             2019-11-07T15:14:14-00:00
_audit_creation_method           'WinGX routine CIF_UPDATE'
_audit_update_record
;
2020-04-08 deposited with the CCDC.	2020-06-05 downloaded from the CCDC.
;
_cell_angle_alpha                93.160(2)
_cell_angle_beta                 106.919(3)
_cell_angle_gamma                113.993(3)
_cell_formula_units_Z            2
_cell_length_a                   7.9981(2)
_cell_length_b                   9.7278(3)
_cell_length_c                   10.8484(3)
_cell_measurement_reflns_used    6964
_cell_measurement_temperature    190(2)
_cell_measurement_theta_max      75.615
_cell_measurement_theta_min      4.325
_cell_volume                     723.07(4)
_computing_cell_refinement       'CrysAlisPro 1.171.40.63a (Rigaku OD, 2019)'
_computing_data_collection       'CrysAlisPro 1.171.40.63a (Rigaku OD, 2019)'
_computing_data_reduction        'CrysAlisPro 1.171.40.63a (Rigaku OD, 2019)'
_computing_structure_refinement  'SHELXL-2018/3 (Sheldrick, 2018)'
_computing_structure_solution    'SHELXT 2014/5 (Sheldrick, 2014)'
_diffrn_ambient_environment      N~2~
_diffrn_ambient_temperature      190(2)
_diffrn_detector                 'Hybrid Pixel Array Detector'
_diffrn_detector_area_resol_mean 10
_diffrn_detector_type            HyPix
_diffrn_measured_fraction_theta_full 0.996
_diffrn_measured_fraction_theta_max 0.957
_diffrn_measurement_device       'four-circle diffractometer'
_diffrn_measurement_device_type  'XtaLAB Synergy, Dualflex, HyPix'
_diffrn_measurement_method       '\w scans'
_diffrn_orient_matrix_type
'CrysAlisPro convention (1999,Acta A55,543-557)'
_diffrn_orient_matrix_UB_11      -0.0086956
_diffrn_orient_matrix_UB_12      -0.0975026
_diffrn_orient_matrix_UB_13      0.1072505
_diffrn_orient_matrix_UB_21      -0.1966394
_diffrn_orient_matrix_UB_22      -0.1266289
_diffrn_orient_matrix_UB_23      -0.0930622
_diffrn_orient_matrix_UB_31      0.1079728
_diffrn_orient_matrix_UB_32      -0.0757554
_diffrn_orient_matrix_UB_33      -0.0526518
_diffrn_radiation_monochromator  mirror
_diffrn_radiation_probe          x-ray
_diffrn_radiation_type           CuK\a
_diffrn_radiation_wavelength     1.54178
_diffrn_reflns_av_R_equivalents  0.035
_diffrn_reflns_av_unetI/netI     0.0509
_diffrn_reflns_Laue_measured_fraction_full 0.996
_diffrn_reflns_Laue_measured_fraction_max 0.957
_diffrn_reflns_limit_h_max       10
_diffrn_reflns_limit_h_min       -8
_diffrn_reflns_limit_k_max       11
_diffrn_reflns_limit_k_min       -12
_diffrn_reflns_limit_l_max       12
_diffrn_reflns_limit_l_min       -13
_diffrn_reflns_number            12658
_diffrn_reflns_point_group_measured_fraction_full 0.996
_diffrn_reflns_point_group_measured_fraction_max 0.957
_diffrn_reflns_theta_full        67.679
_diffrn_reflns_theta_max         77.277
_diffrn_reflns_theta_min         4.346
_diffrn_source                   'micro-focus sealed X-ray tube'
_diffrn_source_type              'PhotonJet (Cu) X-ray Source'
_exptl_absorpt_coefficient_mu    0.748
_exptl_absorpt_correction_T_max  1
_exptl_absorpt_correction_T_min  0.731
_exptl_absorpt_correction_type   gaussian
_exptl_absorpt_process_details
;
        CrysAlisPro 1.171.40.63a (Rigaku Oxford Diffraction, 2019)
Numerical absorption correction based on gaussian integration over
                        a multifaceted crystal model
        Empirical absorption correction using spherical harmonics,
 implemented in SCALE3 ABSPACK scaling algorithm.
;
_exptl_crystal_colour            'clear light yellow'
_exptl_crystal_density_diffrn    1.346
_exptl_crystal_description       plate
_exptl_crystal_F_000             307
_exptl_crystal_size_max          0.206
_exptl_crystal_size_mid          0.157
_exptl_crystal_size_min          0.026
_refine_diff_density_max         0.206
_refine_diff_density_min         -0.169
_refine_diff_density_rms         0.041
_refine_ls_extinction_coef       0.0048(10)
_refine_ls_extinction_expression Fc^*^=kFc[1+0.001xFc^2^\l^3^/sin(2\q)]^-1/4^
_refine_ls_extinction_method     'SHELXL-2018/3 (Sheldrick 2018)'
_refine_ls_goodness_of_fit_ref   1.071
_refine_ls_hydrogen_treatment    constr
_refine_ls_matrix_type           full
_refine_ls_number_parameters     284
_refine_ls_number_reflns         2940
_refine_ls_number_restraints     507
_refine_ls_restrained_S_all      0.995
_refine_ls_R_factor_all          0.0468
_refine_ls_R_factor_gt           0.0419
_refine_ls_shift/su_max          0
_refine_ls_shift/su_mean         0
_refine_ls_structure_factor_coef Fsqd
_refine_ls_weighting_details
'w=1/[\s^2^(Fo^2^)+(0.0644P)^2^+0.1093P] where P=(Fo^2^+2Fc^2^)/3'
_refine_ls_weighting_scheme      calc
_refine_ls_wR_factor_gt          0.1159
_refine_ls_wR_factor_ref         0.1204
_reflns_Friedel_coverage         0
_reflns_number_gt                2582
_reflns_number_total             2940
_reflns_threshold_expression     'I > 2\s(I)'
_cod_data_source_file            d0sc02795b3.cif
_cod_data_source_block           A75_BA25_190
_cod_database_code               1558222
_shelx_estimated_absorpt_t_min   0.861
_shelx_estimated_absorpt_t_max   0.981
_shelx_shelxl_version_number     2018/3
_shelx_res_file
;
TITL 190_a.res in P-1
    190_a.res
    created by SHELXL-2018/3 at 17:02:21 on 05-Nov-2019
REM Old TITL 190 in P-1
REM SHELXT solution in P-1
REM R1 0.142,  Rweak 0.005,  Alpha 0.026,  Orientation as input
REM Formula found by SHELXT:  C18 N4
CELL  1.54178   7.998115   9.727808  10.848432  93.1605 106.9186 113.9932
ZERR    2.000   0.000244   0.000262   0.000266   0.0021   0.0026   0.0029
LATT  1
SFAC C H N O
UNIT 33.0514 28 6.93272 4
TEMP -83.2
SIZE 0.206 0.157 0.026
L.S. 10
BOND $H
ACTA
LIST 4
FMAP 2
PLAN 20

RIGU
SIMU 0.02 C12A C12B C13A C13B C14A C14B C15A C15B C16A C16B N4A N4B
SIMU 0.02 N2A N3A N2B N3B C17 C18

EQIV $2 x, y, z+1
EQIV $3 -x+1, -y+1, -z+1

HTAB O1 N1_$2
HTAB O2 N4A_$3
HTAB O2 N4B_$3

DFIX 1.20 0.02 C17 C18
DFIX 1.25 0.02 N2A N3A
DFIX 1.25 0.02 N2B N3B
DFIX 51 C12B C17 C18 C9

OMIT     1   0  12
OMIT     2   1  11

SUMP 1.0 0.01 1.0 2 1.0 3 1.0 4

WGHT    0.064400    0.109300
EXTI    0.004835
FVAR       0.89415   0.69647   0.26283   0.03671   1.30502
O1    4    0.165165    0.158000    0.311623    11.00000    0.04049    0.04847 =
         0.03917    0.00549    0.01232    0.01796
AFIX 147
H1    2    0.198076    0.183652    0.393443    11.00000   -1.50000
AFIX   0
O2    4    0.822729    0.218549    0.435603    11.00000    0.04591    0.06389 =
         0.04521    0.00197    0.01362    0.02780
AFIX 147
H2A   2    0.826203    0.254066    0.509147    11.00000   -1.50000
AFIX   0
N1    3    0.261823    0.248844   -0.421112    11.00000    0.04087    0.05214 =
         0.04338    0.00820    0.01473    0.02250
C1    1    0.317009    0.154301    0.281570    11.00000    0.04241    0.02754 =
         0.03641    0.00533    0.01366    0.01331
C2    1    0.493010    0.186144    0.378267    11.00000    0.04428    0.03184 =
         0.03314    0.00344    0.01324    0.01541
AFIX  43
H2    2    0.508931    0.210141    0.468276    11.00000   -1.20000
AFIX   0
C3    1    0.646219    0.183031    0.343794    11.00000    0.04423    0.03299 =
         0.03896    0.00433    0.01344    0.01753
C4    1    0.621904    0.143519    0.212299    11.00000    0.05529    0.03956 =
         0.04371    0.00387    0.02301    0.02185
AFIX  43
H4    2    0.724576    0.138365    0.188172    11.00000   -1.20000
AFIX   0
C5    1    0.445214    0.111878    0.117354    11.00000    0.06353    0.03897 =
         0.03588    0.00205    0.01954    0.02070
AFIX  43
H5    2    0.428427    0.085894    0.027433    11.00000   -1.20000
AFIX   0
C6    1    0.292031    0.116978    0.149574    11.00000    0.04973    0.03624 =
         0.03473    0.00334    0.00928    0.01574
AFIX  43
H6    2    0.172220    0.095406    0.082823    11.00000   -1.20000
AFIX   0
C7    1    0.326692    0.398237   -0.371793    11.00000    0.04381    0.04458 =
         0.05709    0.01594    0.01697    0.01701
AFIX  43
H7    2    0.377712    0.471004   -0.422086    11.00000   -1.20000
AFIX   0
C8    1    0.323682    0.452237   -0.252743    11.00000    0.04549    0.03544 =
         0.05304    0.00309    0.00835    0.01705
AFIX  43
H8    2    0.372931    0.559094   -0.221096    11.00000   -1.20000
AFIX   0
C9    1    0.246625    0.345751   -0.180921    11.00000    0.03706    0.04072 =
         0.03808    0.00014    0.00381    0.02034
C10   1    0.182035    0.191043   -0.228687    11.00000    0.04221    0.03853 =
         0.03942    0.00476    0.01110    0.01782
AFIX  43
H10   2    0.131148    0.116086   -0.180003    11.00000   -1.20000
AFIX   0
C11   1    0.193231    0.148372   -0.348217    11.00000    0.04327    0.03768 =
         0.04195    0.00239    0.01204    0.01768
AFIX  43
H11   2    0.150115    0.042489   -0.380246    11.00000   -1.20000
AFIX   0
PART  1
N2A   3    0.211272    0.376742   -0.056644    21.00000    0.03940    0.03248 =
         0.03310    0.00254    0.01222    0.01624
N3A   3    0.266933    0.515184   -0.017020    21.00000    0.04219    0.03314 =
         0.03338    0.00131    0.01514    0.01613
C12A  1    0.231854    0.553857    0.099539    21.00000    0.03425    0.02942 =
         0.03180    0.00876    0.00951    0.01453
C13A  1    0.286619    0.707285    0.145153    21.00000    0.04379    0.02802 =
         0.03847    0.00102    0.01198    0.01486
AFIX  43
H13A  2    0.344817    0.784098    0.100185    21.00000   -1.20000
AFIX   0
C14A  1    0.254076    0.745448    0.258198    21.00000    0.04384    0.03354 =
         0.04268   -0.00302    0.01093    0.01567
AFIX  43
H14A  2    0.292681    0.850776    0.289189    21.00000   -1.20000
AFIX   0
N4A   3    0.173438    0.645867    0.325481    21.00000    0.03727    0.04217 =
         0.03342   -0.00028    0.00801    0.01644
C15A  1    0.120136    0.499809    0.279685    21.00000    0.04133    0.04303 =
         0.03199    0.00974    0.01436    0.01807
AFIX  43
H15A  2    0.060144    0.426045    0.326328    21.00000   -1.20000
AFIX   0
C16A  1    0.145607    0.447078    0.168817    21.00000    0.04300    0.03083 =
         0.03349    0.00786    0.01262    0.01734
AFIX  43
H16A  2    0.105213    0.340768    0.140864    21.00000   -1.20000
AFIX  66
PART  2
C12B  1    0.213606    0.524713    0.124318   -21.00000    0.03874    0.03308 =
         0.03349    0.01485    0.01114    0.01955
C13B  1    0.282903    0.683317    0.149253   -21.00000    0.04247    0.04200 =
         0.05252    0.01565    0.01420    0.01949
AFIX  43
H13B  2    0.343548    0.742374    0.094160   -21.00000   -1.20000
AFIX  65
C14B  1    0.263469    0.755512    0.254797   -21.00000    0.04513    0.03490 =
         0.04345    0.01159    0.01130    0.00932
AFIX  43
H14B  2    0.310831    0.863911    0.271839   -21.00000   -1.20000
AFIX  65
N4B   3    0.174736    0.669104    0.335408   -21.00000    0.04119    0.04173 =
         0.04917    0.01107    0.00428    0.01781
C15B  1    0.105438    0.510500    0.310474   -21.00000    0.03859    0.05381 =
         0.03703    0.01583    0.01221    0.01824
AFIX  43
H15B  2    0.044793    0.451444    0.365568   -21.00000   -1.20000
AFIX  65
C16B  1    0.124871    0.438303    0.204930   -21.00000    0.04395    0.04303 =
         0.04120    0.02061    0.01730    0.01459
AFIX  43
H16B  2    0.077508    0.329904    0.187889   -21.00000   -1.20000
AFIX   0
C17   1    0.233881    0.463174    0.018354    31.00000    0.04458    0.05052 =
         0.03705    0.00551    0.01337    0.02606
C18   1    0.252708    0.412045   -0.075280    31.00000    0.03577    0.04461 =
         0.03926   -0.00293    0.00719    0.01815
PART  3
N2B   3    0.291924    0.485317   -0.054565    41.00000    0.04495    0.04101 =
         0.04183    0.00241    0.01000    0.01992
N3B   3    0.176631    0.377904   -0.019489    41.00000    0.04971    0.05035 =
         0.03933   -0.00289    0.01018    0.01183
HKLF 4




REM  190_a.res in P-1
REM wR2 = 0.120434, GooF = S = 1.07102, Restrained GooF = 0.99515 for all data
REM R1 = 0.041899 for 2582 Fo > 4sig(Fo) and 0.046763 for all 2940 data
REM 284 parameters refined using 507 restraints

END

WGHT      0.0645      0.1090

REM Highest difference peak  0.206,  deepest hole -0.169,  1-sigma level  0.041
Q1    1   0.2706  0.2204 -0.4810  11.00000  0.05    0.21
Q2    1   0.3709  0.4231 -0.2849  11.00000  0.05    0.16
Q3    1   0.1710  0.6611  0.4013  11.00000  0.05    0.16
Q4    1   0.2904  0.3836 -0.2168  11.00000  0.05    0.15
Q5    1   0.2090  0.2757 -0.2093  11.00000  0.05    0.15
Q6    1   0.1057  0.0642 -0.1560  11.00000  0.05    0.15
Q7    1   0.3255  0.1502  0.2189  11.00000  0.05    0.13
Q8    1  -0.0582  0.2226  0.0888  11.00000  0.05    0.13
Q9    1   0.8003  0.1917  0.2022  11.00000  0.05    0.12
Q10   1   0.3102  0.0317  0.1428  11.00000  0.05    0.12
Q11   1   0.7857  0.1122  0.2373  11.00000  0.05    0.12
Q12   1   0.2903  0.6292  0.1451  11.00000  0.05    0.12
Q13   1   0.3029  0.7014  0.2261  11.00000  0.05    0.12
Q14   1   0.3238  0.5789 -0.0265  11.00000  0.05    0.12
Q15   1   0.0970  0.2215  0.2225  11.00000  0.05    0.11
Q16   1   0.3013  0.1577  0.4847  11.00000  0.05    0.11
Q17   1   0.2737  0.5664 -0.0975  11.00000  0.05    0.11
Q18   1   0.8450  0.1182  0.1604  11.00000  0.05    0.10
Q19   1   0.2175  0.7803  0.3651  11.00000  0.05    0.10
Q20   1   0.8594  0.1854  0.3198  11.00000  0.05    0.10
;
_shelx_res_checksum              27460
loop_
_symmetry_equiv_pos_as_xyz
'x, y, z'
'-x, -y, -z'
loop_
_atom_site_label
_atom_site_type_symbol
_atom_site_fract_x
_atom_site_fract_y
_atom_site_fract_z
_atom_site_U_iso_or_equiv
_atom_site_adp_type
_atom_site_occupancy
_atom_site_site_symmetry_order
_atom_site_calc_flag
_atom_site_refinement_flags_posn
_atom_site_refinement_flags_adp
_atom_site_refinement_flags_occupancy
_atom_site_disorder_assembly
_atom_site_disorder_group
O1 O 0.16517(13) 0.15800(11) 0.31162(9) 0.0438(3) Uani 1 1 d . . . . .
H1 H 0.198076 0.183652 0.393443 0.066 Uiso 1 1 calc R U . . .
O2 O 0.82273(14) 0.21855(13) 0.43560(10) 0.0513(3) Uani 1 1 d . . . . .
H2A H 0.826203 0.254066 0.509147 0.077 Uiso 1 1 calc R U . . .
N1 N 0.26182(16) 0.24884(14) -0.42111(11) 0.0448(3) Uani 1 1 d . . . . .
C1 C 0.31701(18) 0.15430(13) 0.28157(12) 0.0362(3) Uani 1 1 d . . . . .
C2 C 0.49301(18) 0.18614(13) 0.37827(12) 0.0371(3) Uani 1 1 d . . . . .
H2 H 0.508931 0.210141 0.468276 0.044 Uiso 1 1 calc R U . . .
C3 C 0.64622(19) 0.18303(14) 0.34379(12) 0.0389(3) Uani 1 1 d . . . . .
C4 C 0.6219(2) 0.14352(15) 0.21230(14) 0.0446(3) Uani 1 1 d . . . . .
H4 H 0.724576 0.138365 0.188172 0.054 Uiso 1 1 calc R U . . .
C5 C 0.4452(2) 0.11188(16) 0.11735(13) 0.0465(3) Uani 1 1 d . . . . .
H5 H 0.428427 0.085894 0.027433 0.056 Uiso 1 1 calc R U . . .
C6 C 0.2920(2) 0.11698(15) 0.14957(13) 0.0428(3) Uani 1 1 d . . . . .
H6 H 0.17222 0.095406 0.082823 0.051 Uiso 1 1 calc R U . . .
C7 C 0.3267(2) 0.39824(16) -0.37179(15) 0.0492(3) Uani 1 1 d . . . . .
H7 H 0.377712 0.471004 -0.422086 0.059 Uiso 1 1 calc R U . . .
C8 C 0.3237(2) 0.45224(16) -0.25274(15) 0.0473(3) Uani 1 1 d . . . . .
H8 H 0.372931 0.559094 -0.221096 0.057 Uiso 1 1 calc R U . . .
C9 C 0.24662(19) 0.34575(15) -0.18092(13) 0.0400(3) Uani 1 1 d D . . . .
C10 C 0.18204(19) 0.19104(15) -0.22869(13) 0.0409(3) Uani 1 1 d . . . . .
H10 H 0.131148 0.116086 -0.180003 0.049 Uiso 1 1 calc R U . . .
C11 C 0.19323(19) 0.14837(15) -0.34822(13) 0.0419(3) Uani 1 1 d . . . . .
H11 H 0.150115 0.042489 -0.380246 0.05 Uiso 1 1 calc R U . . .
N2A N 0.2113(7) 0.3767(4) -0.0566(4) 0.0351(9) Uani 0.696(13) 1 d D U P A 1
N3A N 0.2669(4) 0.5152(4) -0.0170(4) 0.0361(8) Uani 0.696(13) 1 d D U P A 1
C12A C 0.2319(8) 0.5539(6) 0.0995(5) 0.0320(8) Uani 0.696(13) 1 d . U P A 1
C13A C 0.2866(10) 0.7073(5) 0.1452(5) 0.0379(9) Uani 0.696(13) 1 d . U P A 1
H13A H 0.344817 0.784098 0.100185 0.045 Uiso 0.696(13) 1 calc R U P A 1
C14A C 0.2541(12) 0.7454(5) 0.2582(7) 0.0419(14) Uani 0.696(13) 1 d . U P A 1
H14A H 0.292681 0.850776 0.289189 0.05 Uiso 0.696(13) 1 calc R U P A 1
N4A N 0.1734(11) 0.6459(7) 0.3255(6) 0.0394(9) Uani 0.696(13) 1 d . U P A 1
C15A C 0.1201(9) 0.4998(6) 0.2797(5) 0.0385(8) Uani 0.696(13) 1 d . U P A 1
H15A H 0.060144 0.426045 0.326328 0.046 Uiso 0.696(13) 1 calc R U P A 1
C16A C 0.1456(7) 0.4471(4) 0.1688(5) 0.0355(8) Uani 0.696(13) 1 d . U P A 1
H16A H 0.105213 0.340768 0.140864 0.043 Uiso 0.696(13) 1 calc R U P A 1
C12B C 0.2136(18) 0.5247(12) 0.1243(10) 0.034(2) Uani 0.304(13) 1 d DG U P A 2
C13B C 0.283(2) 0.6833(12) 0.1493(13) 0.046(3) Uani 0.304(13) 1 d G U P A 2
H13B H 0.343548 0.742374 0.09416 0.055 Uiso 0.304(13) 1 calc R U P A 2
C14B C 0.263(3) 0.7555(11) 0.2548(16) 0.045(3) Uani 0.304(13) 1 d G U P A 2
H14B H 0.310831 0.863911 0.271839 0.054 Uiso 0.304(13) 1 calc R U P A 2
N4B N 0.175(3) 0.6691(16) 0.3354(13) 0.047(2) Uani 0.304(13) 1 d G U P A 2
C15B C 0.1054(19) 0.5105(15) 0.3105(12) 0.044(2) Uani 0.304(13) 1 d G U P A 2
H15B H 0.044793 0.451444 0.365568 0.053 Uiso 0.304(13) 1 calc R U P A 2
C16B C 0.1249(16) 0.4383(10) 0.2049(12) 0.043(2) Uani 0.304(13) 1 d G U P A 2
H16B H 0.077508 0.329904 0.187889 0.052 Uiso 0.304(13) 1 calc R U P A 2
C17 C 0.2339(15) 0.4632(18) 0.0184(9) 0.043(2) Uani 0.263(14) 1 d D U P A 2
C18 C 0.253(2) 0.412(2) -0.0753(12) 0.042(2) Uani 0.263(14) 1 d D U P A 2
N2B N 0.292(7) 0.485(8) -0.055(6) 0.044(6) Uani 0.037(6) 1 d D U P A 3
N3B N 0.177(8) 0.378(7) -0.019(6) 0.052(8) Uani 0.037(6) 1 d D U P A 3
loop_
_atom_site_aniso_label
_atom_site_aniso_U_11
_atom_site_aniso_U_22
_atom_site_aniso_U_33
_atom_site_aniso_U_23
_atom_site_aniso_U_13
_atom_site_aniso_U_12
O1 0.0405(5) 0.0485(5) 0.0392(5) 0.0055(4) 0.0123(4) 0.0180(4)
O2 0.0459(5) 0.0639(7) 0.0452(6) 0.0020(5) 0.0136(4) 0.0278(5)
N1 0.0409(6) 0.0521(7) 0.0434(6) 0.0082(5) 0.0147(5) 0.0225(5)
C1 0.0424(6) 0.0275(6) 0.0364(6) 0.0053(5) 0.0137(5) 0.0133(5)
C2 0.0443(7) 0.0318(6) 0.0331(6) 0.0034(5) 0.0132(5) 0.0154(5)
C3 0.0442(7) 0.0330(6) 0.0390(7) 0.0043(5) 0.0134(5) 0.0175(5)
C4 0.0553(8) 0.0396(7) 0.0437(7) 0.0039(5) 0.0230(6) 0.0219(6)
C5 0.0635(9) 0.0390(7) 0.0359(7) 0.0021(5) 0.0195(6) 0.0207(6)
C6 0.0497(7) 0.0362(6) 0.0347(6) 0.0033(5) 0.0093(6) 0.0157(6)
C7 0.0438(7) 0.0446(8) 0.0571(9) 0.0159(6) 0.0170(7) 0.0170(6)
C8 0.0455(7) 0.0354(7) 0.0530(8) 0.0031(6) 0.0084(6) 0.0170(6)
C9 0.0371(6) 0.0407(7) 0.0381(7) 0.0001(5) 0.0038(5) 0.0203(5)
C10 0.0422(7) 0.0385(7) 0.0394(7) 0.0048(5) 0.0111(6) 0.0178(5)
C11 0.0433(7) 0.0377(7) 0.0419(7) 0.0024(5) 0.0120(6) 0.0177(5)
N2A 0.0394(19) 0.0325(14) 0.0331(15) 0.0025(11) 0.0122(11) 0.0162(12)
N3A 0.0422(10) 0.0331(13) 0.0334(14) 0.0013(10) 0.0151(9) 0.0161(9)
C12A 0.0342(12) 0.0294(17) 0.0318(16) 0.0088(12) 0.0095(11) 0.0145(12)
C13A 0.0438(17) 0.0280(13) 0.0385(15) 0.0010(11) 0.0120(13) 0.0149(12)
C14A 0.044(2) 0.0335(19) 0.043(2) -0.0030(18) 0.0109(19) 0.0157(18)
N4A 0.0373(15) 0.042(2) 0.0334(13) -0.0003(11) 0.0080(11) 0.0164(14)
C15A 0.0413(14) 0.0430(13) 0.032(2) 0.0097(13) 0.0144(14) 0.0181(11)
C16A 0.0430(15) 0.0308(13) 0.0335(19) 0.0079(11) 0.0126(12) 0.0173(12)
C12B 0.039(4) 0.033(4) 0.033(4) 0.015(3) 0.011(3) 0.020(3)
C13B 0.042(4) 0.042(4) 0.053(4) 0.016(3) 0.014(3) 0.019(3)
C14B 0.045(5) 0.035(4) 0.043(5) 0.012(4) 0.011(4) 0.009(4)
N4B 0.041(4) 0.042(4) 0.049(5) 0.011(3) 0.004(3) 0.018(3)
C15B 0.039(3) 0.054(4) 0.037(5) 0.016(3) 0.012(3) 0.018(3)
C16B 0.044(3) 0.043(3) 0.041(5) 0.021(3) 0.017(3) 0.015(2)
C17 0.045(4) 0.051(5) 0.037(3) 0.006(4) 0.013(3) 0.026(4)
C18 0.036(5) 0.045(6) 0.039(4) -0.003(4) 0.007(3) 0.018(4)
N2B 0.045(9) 0.041(8) 0.042(7) 0.002(7) 0.010(7) 0.020(8)
N3B 0.050(14) 0.050(14) 0.039(13) -0.003(11) 0.010(10) 0.012(11)
loop_
_atom_type_symbol
_atom_type_description
_atom_type_scat_dispersion_real
_atom_type_scat_dispersion_imag
_atom_type_scat_source
C C 0.0181 0.0091 'International Tables Vol C Tables 4.2.6.8 and 6.1.1.4'
H H 0 0 'International Tables Vol C Tables 4.2.6.8 and 6.1.1.4'
N N 0.0311 0.018 'International Tables Vol C Tables 4.2.6.8 and 6.1.1.4'
O O 0.0492 0.0322 'International Tables Vol C Tables 4.2.6.8 and 6.1.1.4'
loop_
_exptl_crystal_face_index_h
_exptl_crystal_face_index_k
_exptl_crystal_face_index_l
_exptl_crystal_face_perp_dist
-5 4 3 0.1092
4 -4 -4 0.116
3 3 -4 0.045
3 -5 -4 0.107
1 -5 5 0.0227
-1 5 -5 0.001
-2 5 4 0.0741
-4 0 0 0.0879
4 0 0 0.0687
0 -4 -4 0.1248
loop_
_geom_angle_atom_site_label_1
_geom_angle_atom_site_label_2
_geom_angle_atom_site_label_3
_geom_angle
_geom_angle_site_symmetry_1
_geom_angle_site_symmetry_3
_geom_angle_publ_flag
C1 O1 H1 109.5 . . ?
C3 O2 H2A 109.5 . . ?
C11 N1 C7 117.18(12) . . ?
O1 C1 C2 121.80(11) . . ?
O1 C1 C6 118.10(12) . . ?
C2 C1 C6 120.10(12) . . ?
C1 C2 C3 120.24(11) . . ?
C1 C2 H2 119.9 . . ?
C3 C2 H2 119.9 . . ?
O2 C3 C4 118.01(12) . . ?
O2 C3 C2 121.85(11) . . ?
C4 C3 C2 120.14(12) . . ?
C5 C4 C3 118.72(13) . . ?
C5 C4 H4 120.6 . . ?
C3 C4 H4 120.6 . . ?
C4 C5 C6 121.97(12) . . ?
C4 C5 H5 119 . . ?
C6 C5 H5 119 . . ?
C5 C6 C1 118.79(13) . . ?
C5 C6 H6 120.6 . . ?
C1 C6 H6 120.6 . . ?
N1 C7 C8 123.98(13) . . ?
N1 C7 H7 118 . . ?
C8 C7 H7 118 . . ?
C7 C8 C9 117.76(13) . . ?
C7 C8 H8 121.1 . . ?
C9 C8 H8 121.1 . . ?
C18 C9 C8 110.5(9) . . ?
C18 C9 C10 130.2(9) . . ?
C8 C9 C10 119.29(13) . . ?
C8 C9 N2A 126.85(18) . . ?
C10 C9 N2A 113.74(18) . . ?
C8 C9 N2B 92.8(14) . . ?
C10 C9 N2B 147.8(14) . . ?
C11 C10 C9 118.64(13) . . ?
C11 C10 H10 120.7 . . ?
C9 C10 H10 120.7 . . ?
N1 C11 C10 123.10(12) . . ?
N1 C11 H11 118.5 . . ?
C10 C11 H11 118.5 . . ?
N3A N2A C9 112.7(5) . . ?
N2A N3A C12A 116.0(5) . . ?
C16A C12A C13A 118.1(3) . . ?
C16A C12A N3A 124.0(3) . . ?
C13A C12A N3A 117.9(4) . . ?
C14A C13A C12A 118.2(3) . . ?
C14A C13A H13A 120.9 . . ?
C12A C13A H13A 120.9 . . ?
N4A C14A C13A 124.5(3) . . ?
N4A C14A H14A 117.7 . . ?
C13A C14A H14A 117.7 . . ?
C14A N4A C15A 116.5(3) . . ?
N4A C15A C16A 124.6(3) . . ?
N4A C15A H15A 117.7 . . ?
C16A C15A H15A 117.7 . . ?
C15A C16A C12A 118.1(2) . . ?
C15A C16A H16A 121 . . ?
C12A C16A H16A 121 . . ?
C17 C12B C13B 116.4(8) . . ?
C17 C12B C16B 123.6(8) . . ?
C13B C12B C16B 120 . . ?
C14B C13B C12B 120 . . ?
C14B C13B H13B 120 . . ?
C12B C13B H13B 120 . . ?
N4B C14B C13B 120 . . ?
N4B C14B H14B 120 . . ?
C13B C14B H14B 120 . . ?
C14B N4B C15B 120 . . ?
N4B C15B C16B 120 . . ?
N4B C15B H15B 120 . . ?
C16B C15B H15B 120 . . ?
C15B C16B C12B 120 . . ?
C15B C16B H16B 120 . . ?
C12B C16B H16B 120 . . ?
C18 C17 C12B 179(2) . . ?
C17 C18 C9 171.8(18) . . ?
N3B N2B C9 85(7) . . ?
loop_
_geom_bond_atom_site_label_1
_geom_bond_atom_site_label_2
_geom_bond_distance
_geom_bond_site_symmetry_2
_geom_bond_publ_flag
O1 C1 1.3591(16) . ?
O1 H1 0.84 . ?
O2 C3 1.3607(16) . ?
O2 H2A 0.84 . ?
N1 C11 1.3354(18) . ?
N1 C7 1.3442(18) . ?
C1 C2 1.3885(18) . ?
C1 C6 1.3926(18) . ?
C2 C3 1.3921(18) . ?
C2 H2 0.95 . ?
C3 C4 1.3920(18) . ?
C4 C5 1.385(2) . ?
C4 H4 0.95 . ?
C5 C6 1.387(2) . ?
C5 H5 0.95 . ?
C6 H6 0.95 . ?
C7 C8 1.378(2) . ?
C7 H7 0.95 . ?
C8 C9 1.382(2) . ?
C8 H8 0.95 . ?
C9 C18 1.262(11) . ?
C9 C10 1.3879(18) . ?
C9 N2A 1.495(5) . ?
C9 N2B 1.72(8) . ?
C10 C11 1.3785(18) . ?
C10 H10 0.95 . ?
C11 H11 0.95 . ?
N2A N3A 1.238(5) . ?
N3A C12A 1.435(6) . ?
C12A C16A 1.387(4) . ?
C12A C13A 1.387(4) . ?
C13A C14A 1.387(4) . ?
C13A H13A 0.95 . ?
C14A N4A 1.316(4) . ?
C14A H14A 0.95 . ?
N4A C15A 1.324(4) . ?
C15A C16A 1.382(4) . ?
C15A H15A 0.95 . ?
C16A H16A 0.95 . ?
C12B C17 1.348(10) . ?
C12B C13B 1.39 . ?
C12B C16B 1.39 . ?
C13B C14B 1.39 . ?
C13B H13B 0.95 . ?
C14B N4B 1.39 . ?
C14B H14B 0.95 . ?
N4B C15B 1.39 . ?
C15B C16B 1.39 . ?
C15B H15B 0.95 . ?
C16B H16B 0.95 . ?
C17 C18 1.182(15) . ?
N2B N3B 1.25(2) . ?
loop_
_geom_hbond_atom_site_label_D
_geom_hbond_atom_site_label_H
_geom_hbond_atom_site_label_A
_geom_hbond_distance_DH
_geom_hbond_distance_HA
_geom_hbond_distance_DA
_geom_hbond_angle_DHA
_geom_hbond_site_symmetry_A
_geom_hbond_publ_flag
O1 H1 N1 0.84 1.93 2.7645(15) 176.1 1_556 yes
O2 H2A N4A 0.84 1.99 2.829(4) 174 2_666 yes
O2 H2A N4B 0.84 1.81 2.65(6) 177.9 2_666 yes
