#------------------------------------------------------------------------------
#$Date: 2020-06-06 04:11:42 +0300 (Sat, 06 Jun 2020) $
#$Revision: 252959 $
#$URL: file:///home/coder/svn-repositories/cod/cif/1/55/82/1558207.cif $
#------------------------------------------------------------------------------
#
# This file is available in the Crystallography Open Database (COD),
# http://www.crystallography.net/
#
# All data on this site have been placed in the public domain by the
# contributors.
#
data_1558207
loop_
_publ_author_name
'Ding, Xiaodan'
'Unruh, Daniel K.'
'Groeneman , Ryan'
'Hutchins, Kristin M.'
_publ_section_title
;
 Controlling thermal expansion within mixed cocrystals by tuning molecular
 motion capability
;
_journal_name_full               'Chemical Science'
_journal_paper_doi               10.1039/D0SC02795B
_journal_year                    2020
_chemical_formula_sum            'C18 H15.02 N2 O2'
_chemical_formula_weight         291.34
_space_group_IT_number           2
_space_group_name_Hall           '-P 1'
_space_group_name_H-M_alt        'P -1'
_symmetry_cell_setting           triclinic
_symmetry_Int_Tables_number      2
_symmetry_space_group_name_Hall  '-P 1'
_symmetry_space_group_name_H-M   'P -1'
_atom_sites_solution_hydrogens   geom
_atom_sites_solution_primary     dual
_atom_sites_solution_secondary   difmap
_audit_creation_date             2020-04-01T17:47:01-00:00
_audit_creation_method           'WinGX routine CIF_UPDATE'
_audit_update_record
;
2020-04-08 deposited with the CCDC.	2020-06-05 downloaded from the CCDC.
;
_cell_angle_alpha                92.5643(9)
_cell_angle_beta                 107.7884(11)
_cell_angle_gamma                114.4264(12)
_cell_formula_units_Z            2
_cell_length_a                   8.15433(11)
_cell_length_b                   9.85391(12)
_cell_length_c                   10.92795(12)
_cell_measurement_reflns_used    17826
_cell_measurement_temperature    230(2)
_cell_measurement_theta_max      77.168
_cell_measurement_theta_min      4.317
_cell_volume                     746.298(19)
_computing_cell_refinement       'CrysAlisPro 1.171.40.65a (Rigaku OD, 2019)'
_computing_data_collection       'CrysAlisPro 1.171.40.65a (Rigaku OD, 2019)'
_computing_data_reduction        'CrysAlisPro 1.171.40.65a (Rigaku OD, 2019)'
_computing_structure_refinement  'SHELXL-2018/3 (Sheldrick, 2018)'
_computing_structure_solution    'SHELXT 2014/5 (Sheldrick, 2014)'
_diffrn_ambient_environment      N~2~
_diffrn_ambient_temperature      230(2)
_diffrn_detector                 'Hybrid Pixel Array Detector'
_diffrn_detector_area_resol_mean 10
_diffrn_detector_type            HyPix
_diffrn_measured_fraction_theta_full 0.998
_diffrn_measured_fraction_theta_max 0.974
_diffrn_measurement_device       'four-circle diffractometer'
_diffrn_measurement_device_type  'XtaLAB Synergy, Dualflex, HyPix'
_diffrn_measurement_method       '\w scans'
_diffrn_orient_matrix_type
'CrysAlisPro convention (1999,Acta A55,543-557)'
_diffrn_orient_matrix_UB_11      0.0601106
_diffrn_orient_matrix_UB_12      0.0567015
_diffrn_orient_matrix_UB_13      0.1479002
_diffrn_orient_matrix_UB_21      -0.0022293
_diffrn_orient_matrix_UB_22      -0.1527905
_diffrn_orient_matrix_UB_23      0.0268467
_diffrn_orient_matrix_UB_31      0.2137622
_diffrn_orient_matrix_UB_32      0.0641765
_diffrn_orient_matrix_UB_33      0.0145752
_diffrn_radiation_monochromator  mirror
_diffrn_radiation_probe          x-ray
_diffrn_radiation_type           CuK\a
_diffrn_radiation_wavelength     1.54178
_diffrn_reflns_av_R_equivalents  0.0314
_diffrn_reflns_av_unetI/netI     0.0447
_diffrn_reflns_Laue_measured_fraction_full 0.998
_diffrn_reflns_Laue_measured_fraction_max 0.974
_diffrn_reflns_limit_h_max       10
_diffrn_reflns_limit_h_min       -9
_diffrn_reflns_limit_k_max       12
_diffrn_reflns_limit_k_min       -12
_diffrn_reflns_limit_l_max       13
_diffrn_reflns_limit_l_min       -13
_diffrn_reflns_number            28336
_diffrn_reflns_point_group_measured_fraction_full 0.998
_diffrn_reflns_point_group_measured_fraction_max 0.974
_diffrn_reflns_theta_full        67.679
_diffrn_reflns_theta_max         77.38
_diffrn_reflns_theta_min         4.334
_diffrn_source                   'micro-focus sealed X-ray tube'
_diffrn_source_type              'PhotonJet (Cu) X-ray Source'
_exptl_absorpt_coefficient_mu    0.692
_exptl_absorpt_correction_T_max  1
_exptl_absorpt_correction_T_min  0.83593
_exptl_absorpt_correction_type   multi-scan
_exptl_absorpt_process_details
;
        CrysAlisPro 1.171.40.65a (Rigaku Oxford Diffraction, 2019)
        Empirical absorption correction using spherical harmonics,
 implemented in SCALE3 ABSPACK scaling algorithm.
;
_exptl_crystal_colour            'clear colourless'
_exptl_crystal_density_diffrn    1.298
_exptl_crystal_description       irregular
_exptl_crystal_F_000             307
_exptl_crystal_size_max          0.234
_exptl_crystal_size_mid          0.094
_exptl_crystal_size_min          0.088
_refine_diff_density_max         0.153
_refine_diff_density_min         -0.128
_refine_diff_density_rms         0.028
_refine_ls_extinction_coef       0.0043(7)
_refine_ls_extinction_expression Fc^*^=kFc[1+0.001xFc^2^\l^3^/sin(2\q)]^-1/4^
_refine_ls_extinction_method     'SHELXL-2018/3 (Sheldrick 2018)'
_refine_ls_goodness_of_fit_ref   1.061
_refine_ls_hydrogen_treatment    constr
_refine_ls_matrix_type           full
_refine_ls_number_parameters     284
_refine_ls_number_reflns         3095
_refine_ls_number_restraints     567
_refine_ls_restrained_S_all      0.984
_refine_ls_R_factor_all          0.036
_refine_ls_R_factor_gt           0.0336
_refine_ls_shift/su_max          0
_refine_ls_shift/su_mean         0
_refine_ls_structure_factor_coef Fsqd
_refine_ls_weighting_details
'w=1/[\s^2^(Fo^2^)+(0.0481P)^2^+0.0823P] where P=(Fo^2^+2Fc^2^)/3'
_refine_ls_weighting_scheme      calc
_refine_ls_wR_factor_gt          0.0919
_refine_ls_wR_factor_ref         0.0939
_reflns_Friedel_coverage         0
_reflns_number_gt                2836
_reflns_number_total             3095
_reflns_threshold_expression     'I > 2\s(I)'
_cod_data_source_file            d0sc02795b3.cif
_cod_data_source_block           BE50_BA50_230
_cod_original_cell_volume        746.298(17)
_cod_database_code               1558207
_shelx_estimated_absorpt_t_min   0.888
_shelx_estimated_absorpt_t_max   0.956
_shelx_shelxl_version_number     2018/3
_shelx_res_file
;
TITL 230_a.res in P-1
    230_a.res
    created by SHELXL-2018/3 at 17:25:10 on 01-Apr-2020
REM Old TITL 230 in P-1

REM SHELXT solution in P-1
REM R1 0.145,  Rweak 0.006,  Alpha 0.035,  Orientation as input
REM Formula found by SHELXT:  C18 N2 O2

CELL  1.54178   8.154334   9.853906  10.927952  92.5643 107.7884 114.4264
ZERR    2.000   0.000107   0.000116   0.000118   0.0009   0.0011   0.0012
LATT  1
SFAC C H N O
UNIT 36 30.04 4 4
TEMP -43.2
SIZE 0.176 0.106 0.066
L.S. 10
BOND $H
ACTA
LIST 4
FMAP 2
PLAN 20

EQIV $1 x, y, z+1
EQIV $2 -x+1, -y+1, -z+1

HTAB O1 N1_$1
HTAB O2 N2A_$2
HTAB O2 N2B_$2

RIGU
SIMU 0.02 C9 C14A C12A C13A C19 C20 C12B C13B
SIMU 0.02 C14A C15A C16A C17A C18A N2A C14B C15B C16B C17B C18B N2B

DFIX 31 C12A C9 C13A C14A C12B C9 C13B C14B
DFIX 41 C19 C9 C20 C14B

DFIX 1.32 0.02 C12A C13A C12B C13B
DFIX 1.20 0.02 C19 C20
DFIX 0.4 0.01 C19 C12B
DFIX 0.4 0.01 C20 C13B

SUMP 0.51 0.0 1.0 2 1.0 5

FREE C12B C19
FREE C12B C20
FREE C13B C19
FREE C13B C20
FREE C19 H13B
FREE C20 H12B

WGHT    0.048100    0.082300
EXTI    0.004288
FVAR       0.89157   0.47690   1.51104   1.38539   0.03311
O1    4    0.167443    0.149676    0.304593    11.00000    0.04348    0.05631 =
         0.04116    0.00625    0.01339    0.01947
AFIX 147
H1    2    0.200304    0.175392    0.385044    11.00000   -1.50000
AFIX   0
O2    4    0.819931    0.220547    0.432295    11.00000    0.04889    0.07475 =
         0.04471   -0.00057    0.01571    0.03038
AFIX 147
H2A   2    0.825027    0.257282    0.503991    11.00000   -1.50000
AFIX   0
N1    3    0.262407    0.243568   -0.432083    11.00000    0.04522    0.06441 =
         0.04067    0.00427    0.01512    0.02725
C1    1    0.317760    0.148649    0.276018    11.00000    0.04500    0.03211 =
         0.03834    0.00702    0.01508    0.01394
C2    1    0.493255    0.183962    0.373117    11.00000    0.04663    0.03755 =
         0.03274    0.00355    0.01496    0.01641
AFIX  43
H2    2    0.509783    0.208476    0.461578    11.00000   -1.20000
AFIX   0
C3    1    0.644960    0.183345    0.340472    11.00000    0.04713    0.04020 =
         0.03993    0.00398    0.01561    0.01868
C4    1    0.619405    0.144042    0.209422    11.00000    0.05967    0.04979 =
         0.04419    0.00346    0.02532    0.02369
AFIX  43
H4    2    0.720336    0.141691    0.186342    11.00000   -1.20000
AFIX   0
C5    1    0.443623    0.108703    0.114317    11.00000    0.06981    0.05282 =
         0.03504    0.00322    0.02078    0.02480
AFIX  43
H5    2    0.426273    0.082640    0.025908    11.00000   -1.20000
AFIX   0
C6    1    0.292101    0.110459    0.145115    11.00000    0.05402    0.04632 =
         0.03475    0.00464    0.00978    0.01805
AFIX  43
H6    2    0.173568    0.086223    0.078632    11.00000   -1.20000
AFIX   0
C7    1    0.197190    0.147134   -0.356875    11.00000    0.04921    0.04745 =
         0.04529    0.00051    0.01332    0.02210
AFIX  43
H7    2    0.154713    0.043003   -0.385992    11.00000   -1.20000
AFIX   0
C8    1    0.188982    0.192394   -0.238920    11.00000    0.04617    0.04694 =
         0.04350    0.00841    0.01656    0.01963
AFIX  43
H8    2    0.140844    0.120046   -0.189693    11.00000   -1.20000
AFIX   0
C9    1    0.252320    0.345805   -0.192936    11.00000    0.03707    0.05031 =
         0.03848    0.00275    0.00904    0.02298
C10   1    0.325856    0.447257   -0.268837    11.00000    0.04847    0.04398 =
         0.05137    0.00553    0.01406    0.02071
AFIX  43
H10   2    0.374576    0.552418   -0.240362    11.00000   -1.20000
AFIX   0
C11   1    0.326267    0.391450   -0.386269    11.00000    0.04805    0.05786 =
         0.04976    0.01632    0.02057    0.02226
AFIX  43
H11   2    0.374209    0.461226   -0.437419    11.00000   -1.20000
AFIX   0
PART  1
C12A  1    0.219928    0.378623   -0.066132    21.00000    0.04218    0.03493 =
         0.03472    0.00811    0.01642    0.01802
AFIX  43
H12A  2    0.165795    0.297394   -0.026132    21.00000   -1.20000
AFIX   0
C13A  1    0.266349    0.519011   -0.011077    21.00000    0.03485    0.03531 =
         0.03365    0.00908    0.01542    0.01433
AFIX  43
H13A  2    0.325045    0.598314   -0.051351    21.00000   -1.20000
AFIX   0
PART  2
C12B  1    0.264083    0.453149   -0.085665    51.00000    0.03750    0.05551 =
         0.03754    0.00637    0.01079    0.02176
AFIX  43
H12B  2    0.328439    0.557075   -0.086519    51.00000   -1.20000
AFIX   0

C13B  1    0.197000    0.421473    0.008436    51.00000    0.03003    0.05735 =
         0.04108    0.00751    0.01208    0.02823
AFIX  43
H13B  2    0.126959    0.317293    0.005877    51.00000   -1.20000
AFIX  66
PART  1
C14A  1    0.233035    0.562122    0.110388    21.00000    0.02976    0.02983 =
         0.03603    0.00506    0.00775    0.01350
C15A  1    0.149919    0.453649    0.178314    21.00000    0.04629    0.03918 =
         0.03809    0.00410    0.01594    0.02126
AFIX  43
H15A  2    0.114724    0.350805    0.149655    21.00000   -1.20000
AFIX  65
C16A  1    0.118848    0.497253    0.288618    21.00000    0.04327    0.03793 =
         0.03764    0.00635    0.01207    0.01702
AFIX  43
H16A  2    0.062641    0.423897    0.334553    21.00000   -1.20000
AFIX  65
N2A   3    0.170892    0.649331    0.330997    21.00000    0.03913    0.04952 =
         0.02613   -0.00203    0.01176    0.01746
C17A  1    0.254008    0.757805    0.263073    21.00000    0.04652    0.03065 =
         0.03920    0.00085    0.01671    0.01614
AFIX  43
H17A  2    0.289203    0.860649    0.291733    21.00000   -1.20000
AFIX  65
C18A  1    0.285080    0.714203    0.152768    21.00000    0.04788    0.02662 =
         0.03889    0.00473    0.01643    0.01456
AFIX  43
H18A  2    0.341287    0.787560    0.106834    21.00000   -1.20000
AFIX   0
PART 2
C14B  1    0.214754    0.526830    0.121014   -21.00000    0.04023    0.04440 =
         0.04142    0.00221    0.00896    0.02306
C15B  1    0.128050    0.443228    0.201397   -21.00000    0.04576    0.04608 =
         0.04857    0.01001    0.01442    0.02171
AFIX  43
H15B  2    0.079343    0.336869    0.185808   -21.00000   -1.20000
AFIX   0
C16B  1    0.113934    0.517404    0.304261   -21.00000    0.04551    0.05329 =
         0.04199    0.00794    0.01308    0.02446
AFIX  43
H16B  2    0.052587    0.456373    0.355851   -21.00000   -1.20000
AFIX   0
N2B   3    0.175952    0.661863    0.337472   -21.00000    0.04205    0.05728 =
         0.04584    0.00327    0.00736    0.02277
C17B  1    0.256718    0.737125    0.261266   -21.00000    0.05189    0.03642 =
         0.05515   -0.00103    0.00940    0.01945
AFIX  43
H17B  2    0.305444    0.843294    0.281919   -21.00000   -1.20000
AFIX   0
C18B  1    0.280344    0.681962    0.154351   -21.00000    0.04286    0.04226 =
         0.04778    0.01626    0.01933    0.01725
AFIX  43
H18B  2    0.339753    0.747874    0.104652   -21.00000   -1.20000
AFIX   0
C19   1    0.248659    0.410183   -0.079316    10.49000    0.04243    0.05704 =
         0.04406    0.00890    0.01510    0.02368
C20   1    0.236967    0.465280    0.013973    10.49000    0.04354    0.06092 =
         0.04456    0.00721    0.01453    0.02318
HKLF  4




REM  230_a.res in P-1
REM wR2 = 0.093915, GooF = S = 1.06121, Restrained GooF = 0.98437 for all data
REM R1 = 0.033562 for 2847 Fo > 4sig(Fo) and 0.036002 for all 3095 data
REM 284 parameters refined using 567 restraints

END

WGHT      0.0481      0.0823

REM Highest difference peak  0.153,  deepest hole -0.128,  1-sigma level  0.028
Q1    1   0.2595  0.3903 -0.2421  11.00000  0.05    0.15
Q2    1   0.2486  0.1997 -0.4988  11.00000  0.05    0.14
Q3    1   0.2505  0.2802 -0.2043  11.00000  0.05    0.13
Q4    1   0.1789  0.4425 -0.0620  11.00000  0.05    0.13
Q5    1   0.3015  0.1017  0.2141  11.00000  0.05    0.13
Q6    1   0.6243  0.1637  0.2670  11.00000  0.05    0.12
Q7    1   0.1752  0.6749  0.4251  11.00000  0.05    0.12
Q8    1   0.3763  0.4175 -0.3021  11.00000  0.05    0.11
Q9    1   0.7719  0.1559  0.4824  11.00000  0.05    0.11
Q10   1   0.2306  0.3522 -0.1510  11.00000  0.05    0.11
Q11   1   0.8003  0.1593  0.2051  11.00000  0.05    0.10
Q12   1   0.4216  0.2058  0.3186  11.00000  0.05    0.10
Q13   1   0.2699  0.5430  0.0825  11.00000  0.05    0.09
Q14   1   0.0998  0.0758  0.0769  11.00000  0.05    0.09
Q15   1   0.2810  0.4036 -0.3368  11.00000  0.05    0.09
Q16   1   0.3734  0.1180  0.3213  11.00000  0.05    0.09
Q17   1   0.3499  0.0719  0.1386  11.00000  0.05    0.09
Q18   1   0.0159  0.0857  0.2492  11.00000  0.05    0.08
Q19   1   0.2743  0.2068 -0.3843  11.00000  0.05    0.08
Q20   1   0.1473  0.1798 -0.3152  11.00000  0.05    0.08
;
_shelx_res_checksum              70560
loop_
_symmetry_equiv_pos_as_xyz
'x, y, z'
'-x, -y, -z'
loop_
_atom_site_label
_atom_site_type_symbol
_atom_site_fract_x
_atom_site_fract_y
_atom_site_fract_z
_atom_site_U_iso_or_equiv
_atom_site_adp_type
_atom_site_occupancy
_atom_site_site_symmetry_order
_atom_site_calc_flag
_atom_site_refinement_flags_posn
_atom_site_refinement_flags_adp
_atom_site_refinement_flags_occupancy
_atom_site_disorder_assembly
_atom_site_disorder_group
O1 O 0.16744(10) 0.14968(8) 0.30459(7) 0.04860(19) Uani 1 1 d . . . . .
H1 H 0.200304 0.175392 0.385044 0.073 Uiso 1 1 calc R U . . .
O2 O 0.81993(11) 0.22055(10) 0.43230(7) 0.0559(2) Uani 1 1 d . . . . .
H2A H 0.825027 0.257282 0.503991 0.084 Uiso 1 1 calc R U . . .
N1 N 0.26241(13) 0.24357(11) -0.43208(8) 0.0494(2) Uani 1 1 d . . . . .
C1 C 0.31776(14) 0.14865(10) 0.27602(9) 0.0396(2) Uani 1 1 d . . . . .
C2 C 0.49325(14) 0.18396(10) 0.37312(9) 0.0398(2) Uani 1 1 d . . . . .
H2 H 0.509783 0.208476 0.461578 0.048 Uiso 1 1 calc R U . . .
C3 C 0.64496(15) 0.18334(11) 0.34047(9) 0.0429(2) Uani 1 1 d . . . . .
C4 C 0.61940(17) 0.14404(12) 0.20942(10) 0.0500(3) Uani 1 1 d . . . . .
H4 H 0.720336 0.141691 0.186342 0.06 Uiso 1 1 calc R U . . .
C5 C 0.44362(18) 0.10870(12) 0.11432(10) 0.0532(3) Uani 1 1 d . . . . .
H5 H 0.426273 0.08264 0.025908 0.064 Uiso 1 1 calc R U . . .
C6 C 0.29210(16) 0.11046(11) 0.14511(10) 0.0483(2) Uani 1 1 d . . . . .
H6 H 0.173568 0.086223 0.078632 0.058 Uiso 1 1 calc R U . . .
C7 C 0.19719(15) 0.14713(12) -0.35687(10) 0.0484(2) Uani 1 1 d . . . . .
H7 H 0.154713 0.043003 -0.385992 0.058 Uiso 1 1 calc R U . . .
C8 C 0.18898(15) 0.19239(11) -0.23892(10) 0.0459(2) Uani 1 1 d . . . . .
H8 H 0.140844 0.120046 -0.189693 0.055 Uiso 1 1 calc R U . . .
C9 C 0.25232(14) 0.34580(11) -0.19294(9) 0.0421(2) Uani 1 1 d D U . . .
C10 C 0.32586(15) 0.44726(12) -0.26884(11) 0.0491(2) Uani 1 1 d . . . . .
H10 H 0.374576 0.552418 -0.240362 0.059 Uiso 1 1 calc R U . . .
C11 C 0.32627(16) 0.39145(13) -0.38627(11) 0.0514(3) Uani 1 1 d . . . . .
H11 H 0.374209 0.461226 -0.437419 0.062 Uiso 1 1 calc R U . . .
C12A C 0.2199(13) 0.3786(7) -0.0661(7) 0.0363(10) Uani 0.477(3) 1 d D U P A 1
H12A H 0.165795 0.297394 -0.026132 0.044 Uiso 0.477(3) 1 calc R U P A 1
C13A C 0.2663(4) 0.5190(3) -0.0111(3) 0.0342(6) Uani 0.477(3) 1 d D U P A 1
H13A H 0.325045 0.598314 -0.051351 0.041 Uiso 0.477(3) 1 calc R U P A 1
C12B C 0.264(10) 0.453(2) -0.086(4) 0.044(3) Uani 0.033(3) 1 d D U P A 2
H12B H 0.328439 0.557075 -0.086519 0.053 Uiso 0.033(3) 1 calc R U P A 2
C13B C 0.197(6) 0.4215(19) 0.008(4) 0.040(4) Uani 0.033(3) 1 d D U P A 2
H13B H 0.126959 0.317293 0.005877 0.048 Uiso 0.033(3) 1 calc R U P A 2
C14A C 0.2330(12) 0.5621(7) 0.1104(6) 0.0329(10) Uani 0.477(3) 1 d DG U P A 1
C15A C 0.1499(13) 0.4536(6) 0.1783(7) 0.0403(12) Uani 0.477(3) 1 d G U P A 1
H15A H 0.114724 0.350805 0.149655 0.048 Uiso 0.477(3) 1 calc R U P A 1
C16A C 0.1188(14) 0.4973(8) 0.2886(7) 0.0407(13) Uani 0.477(3) 1 d G U P A 1
H16A H 0.062641 0.423897 0.334553 0.049 Uiso 0.477(3) 1 calc R U P A 1
N2A N 0.1709(14) 0.6493(9) 0.3310(7) 0.0395(15) Uani 0.477(3) 1 d G U P A 1
C17A C 0.2540(13) 0.7578(7) 0.2631(7) 0.0391(11) Uani 0.477(3) 1 d G U P A 1
H17A H 0.289203 0.860649 0.291733 0.047 Uiso 0.477(3) 1 calc R U P A 1
C18A C 0.2851(12) 0.7142(6) 0.1528(7) 0.0384(11) Uani 0.477(3) 1 d G U P A 1
H18A H 0.341287 0.78756 0.106834 0.046 Uiso 0.477(3) 1 calc R U P A 1
C14B C 0.2148(12) 0.5268(7) 0.1210(6) 0.0422(12) Uani 0.523(3) 1 d D U P A 2
C15B C 0.1280(13) 0.4432(7) 0.2014(7) 0.0470(11) Uani 0.523(3) 1 d . U P A 2
H15B H 0.079343 0.336869 0.185808 0.056 Uiso 0.523(3) 1 calc R U P A 2
C16B C 0.1139(14) 0.5174(9) 0.3043(8) 0.0468(12) Uani 0.523(3) 1 d . U P A 2
H16B H 0.052587 0.456373 0.355851 0.056 Uiso 0.523(3) 1 calc R U P A 2
N2B N 0.1760(14) 0.6619(9) 0.3375(7) 0.0506(16) Uani 0.523(3) 1 d . U P A 2
C17B C 0.2567(14) 0.7371(8) 0.2613(8) 0.0508(13) Uani 0.523(3) 1 d . U P A 2
H17B H 0.305444 0.843294 0.281919 0.061 Uiso 0.523(3) 1 calc R U P A 2
C18B C 0.2803(11) 0.6820(7) 0.1544(7) 0.0439(11) Uani 0.523(3) 1 d . U P A 2
H18B H 0.339753 0.747874 0.104652 0.053 Uiso 0.523(3) 1 calc R U P A 2
C19 C 0.2487(12) 0.4102(7) -0.0793(7) 0.0475(13) Uani 0.49 1 d D U P A 2
C20 C 0.2370(6) 0.4653(5) 0.0140(4) 0.0502(7) Uani 0.49 1 d D U P A 2
loop_
_atom_site_aniso_label
_atom_site_aniso_U_11
_atom_site_aniso_U_22
_atom_site_aniso_U_33
_atom_site_aniso_U_23
_atom_site_aniso_U_13
_atom_site_aniso_U_12
O1 0.0435(4) 0.0563(4) 0.0412(4) 0.0062(3) 0.0134(3) 0.0195(3)
O2 0.0489(4) 0.0747(5) 0.0447(4) -0.0006(4) 0.0157(3) 0.0304(4)
N1 0.0452(5) 0.0644(5) 0.0407(4) 0.0043(4) 0.0151(4) 0.0273(4)
C1 0.0450(5) 0.0321(4) 0.0383(5) 0.0070(3) 0.0151(4) 0.0139(4)
C2 0.0466(5) 0.0376(4) 0.0327(4) 0.0036(3) 0.0150(4) 0.0164(4)
C3 0.0471(5) 0.0402(5) 0.0399(5) 0.0040(4) 0.0156(4) 0.0187(4)
C4 0.0597(6) 0.0498(5) 0.0442(5) 0.0035(4) 0.0253(5) 0.0237(5)
C5 0.0698(7) 0.0528(6) 0.0350(5) 0.0032(4) 0.0208(5) 0.0248(5)
C6 0.0540(6) 0.0463(5) 0.0347(5) 0.0046(4) 0.0098(4) 0.0180(5)
C7 0.0492(6) 0.0475(5) 0.0453(5) 0.0005(4) 0.0133(4) 0.0221(5)
C8 0.0462(5) 0.0469(5) 0.0435(5) 0.0084(4) 0.0166(4) 0.0196(4)
C9 0.0371(5) 0.0503(5) 0.0385(5) 0.0027(4) 0.0090(4) 0.0230(4)
C10 0.0485(6) 0.0440(5) 0.0514(6) 0.0055(4) 0.0141(5) 0.0207(4)
C11 0.0480(6) 0.0579(6) 0.0498(6) 0.0163(5) 0.0206(5) 0.0223(5)
C12A 0.042(3) 0.0349(18) 0.0347(16) 0.0081(13) 0.0164(12) 0.0180(17)
C13A 0.0349(12) 0.0353(14) 0.0337(12) 0.0091(9) 0.0154(9) 0.0143(11)
C12B 0.037(7) 0.056(4) 0.038(6) 0.006(3) 0.011(5) 0.022(4)
C13B 0.030(6) 0.057(3) 0.041(6) 0.008(2) 0.012(5) 0.028(3)
C14A 0.0298(15) 0.030(2) 0.0360(14) 0.0051(14) 0.0078(10) 0.0135(17)
C15A 0.046(2) 0.0392(19) 0.038(2) 0.0041(14) 0.0159(14) 0.0213(17)
C16A 0.043(2) 0.0379(19) 0.038(2) 0.0064(15) 0.0121(15) 0.0170(15)
N2A 0.039(3) 0.050(3) 0.0261(19) -0.0020(16) 0.0118(17) 0.0175(19)
C17A 0.047(2) 0.0307(19) 0.0392(19) 0.0009(13) 0.0167(15) 0.0161(16)
C18A 0.0479(17) 0.0266(18) 0.0389(16) 0.0047(13) 0.0164(12) 0.0146(15)
C14B 0.040(2) 0.044(3) 0.0414(18) 0.0022(16) 0.0090(12) 0.023(2)
C15B 0.046(2) 0.0461(16) 0.049(3) 0.0100(15) 0.0144(17) 0.0217(12)
C16B 0.0455(18) 0.053(3) 0.0420(19) 0.0079(18) 0.0131(15) 0.0245(18)
N2B 0.042(3) 0.057(3) 0.046(3) 0.0033(18) 0.007(2) 0.023(2)
C17B 0.052(2) 0.0364(18) 0.055(2) -0.0010(15) 0.0094(17) 0.0195(16)
C18B 0.0429(16) 0.042(3) 0.0478(16) 0.0163(17) 0.0193(13) 0.0172(19)
C19 0.042(3) 0.057(3) 0.044(2) 0.009(2) 0.0151(15) 0.024(3)
C20 0.044(2) 0.061(2) 0.0446(16) 0.0072(16) 0.0145(13) 0.0232(17)
loop_
_atom_type_symbol
_atom_type_description
_atom_type_scat_dispersion_real
_atom_type_scat_dispersion_imag
_atom_type_scat_source
C C 0.0181 0.0091 'International Tables Vol C Tables 4.2.6.8 and 6.1.1.4'
H H 0 0 'International Tables Vol C Tables 4.2.6.8 and 6.1.1.4'
N N 0.0311 0.018 'International Tables Vol C Tables 4.2.6.8 and 6.1.1.4'
O O 0.0492 0.0322 'International Tables Vol C Tables 4.2.6.8 and 6.1.1.4'
loop_
_exptl_crystal_face_index_h
_exptl_crystal_face_index_k
_exptl_crystal_face_index_l
_exptl_crystal_face_perp_dist
-1 1 2 0.1024
-2 2 -6 0.081
-4 -1 0 0.0438
5 -1 -3 0.0658
1 -6 4 0.0337
4 1 0 0.0468
-2 -4 4 0.0464
-5 0 4 0.0804
-5 1 -1 0.0444
-3 2 -4 0.0582
-1 -5 -1 0.0561
1 5 1 0.0835
5 -3 0 0.0435
-2 6 2 0.0954
4 -6 1 0.0427
0 -6 2 0.0367
-2 -5 3 0.0426
2 4 -3 0.0582
-1 -1 7 0.0957
-4 -2 1 0.0435
-1 6 0 0.0733
-2 4 -5 0.054
4 2 -4 0.0654
-1 5 -4 0.0508
loop_
_geom_angle_atom_site_label_1
_geom_angle_atom_site_label_2
_geom_angle_atom_site_label_3
_geom_angle
_geom_angle_site_symmetry_1
_geom_angle_site_symmetry_3
_geom_angle_publ_flag
C1 O1 H1 109.5 . . ?
C3 O2 H2A 109.5 . . ?
C7 N1 C11 116.84(9) . . ?
O1 C1 C2 121.85(8) . . ?
O1 C1 C6 118.23(9) . . ?
C2 C1 C6 119.92(9) . . ?
C1 C2 C3 120.42(8) . . ?
C1 C2 H2 119.8 . . ?
C3 C2 H2 119.8 . . ?
O2 C3 C2 122.17(8) . . ?
O2 C3 C4 117.99(9) . . ?
C2 C3 C4 119.84(9) . . ?
C5 C4 C3 118.88(10) . . ?
C5 C4 H4 120.6 . . ?
C3 C4 H4 120.6 . . ?
C4 C5 C6 121.95(9) . . ?
C4 C5 H5 119 . . ?
C6 C5 H5 119 . . ?
C5 C6 C1 118.98(10) . . ?
C5 C6 H6 120.5 . . ?
C1 C6 H6 120.5 . . ?
N1 C7 C8 123.31(9) . . ?
N1 C7 H7 118.3 . . ?
C8 C7 H7 118.3 . . ?
C7 C8 C9 119.58(9) . . ?
C7 C8 H8 120.2 . . ?
C9 C8 H8 120.2 . . ?
C19 C9 C10 115.5(3) . . ?
C19 C9 C8 127.2(3) . . ?
C10 C9 C8 117.39(9) . . ?
C19 C9 C12B 15.5(5) . . ?
C10 C9 C12B 100.1(6) . . ?
C8 C9 C12B 142.5(7) . . ?
C10 C9 C12A 128.5(2) . . ?
C8 C9 C12A 114.0(2) . . ?
C11 C10 C9 118.96(10) . . ?
C11 C10 H10 120.5 . . ?
C9 C10 H10 120.5 . . ?
N1 C11 C10 123.87(10) . . ?
N1 C11 H11 118.1 . . ?
C10 C11 H11 118.1 . . ?
C13A C12A C9 121.8(4) . . ?
C13A C12A H12A 119.1 . . ?
C9 C12A H12A 119.1 . . ?
C12A C13A C14A 125.8(4) . . ?
C12A C13A H13A 117.1 . . ?
C14A C13A H13A 117.1 . . ?
C13B C12B C9 128.5(17) . . ?
C13B C12B H12B 115.8 . . ?
C9 C12B H12B 115.8 . . ?
C12B C13B C14B 129.6(15) . . ?
C12B C13B H13B 115.2 . . ?
C14B C13B H13B 115.2 . . ?
C15A C14A C18A 120 . . ?
C15A C14A C13A 121.6(3) . . ?
C18A C14A C13A 118.4(3) . . ?
C14A C15A C16A 120 . . ?
C14A C15A H15A 120 . . ?
C16A C15A H15A 120 . . ?
N2A C16A C15A 120 . . ?
N2A C16A H16A 120 . . ?
C15A C16A H16A 120 . . ?
C16A N2A C17A 120 . . ?
N2A C17A C18A 120 . . ?
N2A C17A H17A 120 . . ?
C18A C17A H17A 120 . . ?
C17A C18A C14A 120 . . ?
C17A C18A H18A 120 . . ?
C14A C18A H18A 120 . . ?
C18B C14B C15B 114.7(3) . . ?
C18B C14B C20 120.6(5) . . ?
C15B C14B C20 124.7(4) . . ?
C18B C14B C13B 135.1(10) . . ?
C15B C14B C13B 109.9(8) . . ?
C20 C14B C13B 15.5(5) . . ?
C16B C15B C14B 119.2(3) . . ?
C16B C15B H15B 120.4 . . ?
C14B C15B H15B 120.4 . . ?
N2B C16B C15B 126.8(3) . . ?
N2B C16B H16B 116.6 . . ?
C15B C16B H16B 116.6 . . ?
C16B N2B C17B 112.7(3) . . ?
N2B C17B C18B 128.2(4) . . ?
N2B C17B H17B 115.9 . . ?
C18B C17B H17B 115.9 . . ?
C17B C18B C14B 118.4(3) . . ?
C17B C18B H18B 120.8 . . ?
C14B C18B H18B 120.8 . . ?
C20 C19 C9 176.6(9) . . ?
C19 C20 C14B 177.6(7) . . ?
loop_
_geom_bond_atom_site_label_1
_geom_bond_atom_site_label_2
_geom_bond_distance
_geom_bond_site_symmetry_2
_geom_bond_publ_flag
O1 C1 1.3579(12) . ?
O1 H1 0.83 . ?
O2 C3 1.3552(12) . ?
O2 H2A 0.83 . ?
N1 C7 1.3343(14) . ?
N1 C11 1.3391(14) . ?
C1 C2 1.3864(14) . ?
C1 C6 1.3913(13) . ?
C2 C3 1.3904(14) . ?
C2 H2 0.94 . ?
C3 C4 1.3949(13) . ?
C4 C5 1.3786(16) . ?
C4 H4 0.94 . ?
C5 C6 1.3825(16) . ?
C5 H5 0.94 . ?
C6 H6 0.94 . ?
C7 C8 1.3751(14) . ?
C7 H7 0.94 . ?
C8 C9 1.3900(14) . ?
C8 H8 0.94 . ?
C9 C19 1.383(7) . ?
C9 C10 1.3890(15) . ?
C9 C12B 1.496(19) . ?
C9 C12A 1.533(6) . ?
C10 C11 1.3749(15) . ?
C10 H10 0.94 . ?
C11 H11 0.94 . ?
C12A C13A 1.331(7) . ?
C12A H12A 0.94 . ?
C13A C14A 1.510(5) . ?
C13A H13A 0.94 . ?
C12B C13B 1.298(19) . ?
C12B H12B 0.94 . ?
C13B C14B 1.505(19) . ?
C13B H13B 0.94 . ?
C14A C15A 1.39 . ?
C14A C18A 1.39 . ?
C15A C16A 1.39 . ?
C15A H15A 0.94 . ?
C16A N2A 1.39 . ?
C16A H16A 0.94 . ?
N2A C17A 1.39 . ?
C17A C18A 1.39 . ?
C17A H17A 0.94 . ?
C18A H18A 0.94 . ?
C14B C18B 1.382(5) . ?
C14B C15B 1.383(5) . ?
C14B C20 1.388(6) . ?
C15B C16B 1.373(5) . ?
C15B H15B 0.94 . ?
C16B N2B 1.288(4) . ?
C16B H16B 0.94 . ?
N2B C17B 1.290(4) . ?
C17B C18B 1.366(4) . ?
C17B H17B 0.94 . ?
C18B H18B 0.94 . ?
C19 C20 1.181(8) . ?
loop_
_geom_hbond_atom_site_label_D
_geom_hbond_atom_site_label_H
_geom_hbond_atom_site_label_A
_geom_hbond_distance_DH
_geom_hbond_distance_HA
_geom_hbond_distance_DA
_geom_hbond_angle_DHA
_geom_hbond_site_symmetry_A
_geom_hbond_publ_flag
O1 H1 N1 0.83 1.92 2.7466(11) 175.1 1_556 yes
O2 H2A N2A^a 0.83 1.97 2.80(3) 176.7 2_666 yes
O2 H2A N2B^b 0.83 1.88 2.707(6) 177.3 2_666 yes
