#------------------------------------------------------------------------------
#$Date: 2021-02-27 13:00:47 +0200 (Sat, 27 Feb 2021) $
#$Revision: 262310 $
#$URL: file:///home/coder/svn-repositories/cod/cif/1/56/07/1560715.cif $
#------------------------------------------------------------------------------
#
# This file is available in the Crystallography Open Database (COD),
# http://www.crystallography.net/
#
# All data on this site have been placed in the public domain by the
# contributors.
#
data_1560715
loop_
_publ_author_name
'Guo, Zhaoqi'
'Liu, Xuemin'
'Chen, Xiang'
'Zhang, Cong'
'Yang, Guoping'
'Zhang, Yazhou'
'Ma, Haixia'
_publ_section_title
;
 Design and synthesis of two energetic coordination polymers based on
 copper ion and 1H,1&#x2032;H-[5,5&#x2032;-bitetrazole]-1,1&#x2032;-diol:
 A comparative study of the structure-property relationships
;
_journal_name_full               'Journal of Solid State Chemistry'
_journal_page_first              55
_journal_page_last               61
_journal_paper_doi               10.1016/j.jssc.2018.08.030
_journal_volume                  268
_journal_year                    2018
_chemical_formula_moiety         'C2 H4 Cu N8 O4'
_chemical_formula_sum            'C2 H4 Cu N8 O4'
_chemical_formula_weight         267.67
_space_group_crystal_system      monoclinic
_space_group_IT_number           14
_space_group_name_Hall           '-P 2ybc'
_space_group_name_H-M_alt        'P 1 21/c 1'
_atom_sites_solution_hydrogens   difmap
_atom_sites_solution_primary     direct
_cell_angle_alpha                90
_cell_angle_beta                 91.592(10)
_cell_angle_gamma                90
_cell_formula_units_Z            2
_cell_length_a                   6.255(4)
_cell_length_b                   10.925(6)
_cell_length_c                   5.352(3)
_cell_measurement_reflns_used    423
_cell_measurement_temperature    296
_cell_measurement_theta_max      22.19
_cell_measurement_theta_min      3.26
_cell_volume                     365.6(4)
_computing_cell_refinement       'SAINT v7.68A (Bruker, 2009)'
_computing_data_reduction        'SAINT v7.68A (Bruker, 2009)'
_computing_molecular_graphics    'Olex2 (Dolomanov et al., 2009)'
_computing_publication_material  'Olex2 (Dolomanov et al., 2009)'
_computing_structure_refinement  'ShelXL (Sheldrick, 2015)'
_computing_structure_solution    'ShelXS (Sheldrick, 2008)'
_diffrn_ambient_temperature      296.15
_diffrn_measured_fraction_theta_full 0.997
_diffrn_measured_fraction_theta_max 0.992
_diffrn_measurement_device_type  'Bruker APEX-II CCD'
_diffrn_measurement_method       '\f and \w scans'
_diffrn_radiation_monochromator  graphite
_diffrn_radiation_type           MoK\a
_diffrn_radiation_wavelength     0.71073
_diffrn_reflns_av_R_equivalents  0.0500
_diffrn_reflns_av_unetI/netI     0.0693
_diffrn_reflns_Laue_measured_fraction_full 0.997
_diffrn_reflns_Laue_measured_fraction_max 0.992
_diffrn_reflns_limit_h_max       8
_diffrn_reflns_limit_h_min       -7
_diffrn_reflns_limit_k_max       14
_diffrn_reflns_limit_k_min       -11
_diffrn_reflns_limit_l_max       6
_diffrn_reflns_limit_l_min       -6
_diffrn_reflns_number            2117
_diffrn_reflns_point_group_measured_fraction_full 0.997
_diffrn_reflns_point_group_measured_fraction_max 0.992
_diffrn_reflns_theta_full        26.000
_diffrn_reflns_theta_max         27.411
_diffrn_reflns_theta_min         3.258
_diffrn_standards_number         0
_exptl_absorpt_coefficient_mu    3.005
_exptl_absorpt_correction_T_max  0.7456
_exptl_absorpt_correction_T_min  0.5750
_exptl_absorpt_correction_type   multi-scan
_exptl_absorpt_process_details
'SADABS-2008/1 (Bruker,2008) was used for absorption correction. wR2(int) was 0.0744 before and 0.0479 after correction. The Ratio of minimum to maximum transmission is 0.7712. The \l/2 correction factor is Not present.'
_exptl_crystal_colour            green
_exptl_crystal_colour_primary    green
_exptl_crystal_density_diffrn    2.432
_exptl_crystal_density_meas      .
_exptl_crystal_description       block
_exptl_crystal_F_000             266
_exptl_crystal_preparation       none
_exptl_crystal_recrystallization_method none
_exptl_crystal_size_max          0.3
_exptl_crystal_size_mid          0.12
_exptl_crystal_size_min          0.1
_refine_diff_density_max         0.934
_refine_diff_density_min         -0.516
_refine_diff_density_rms         0.141
_refine_ls_extinction_coef       .
_refine_ls_extinction_method     none
_refine_ls_goodness_of_fit_ref   1.017
_refine_ls_hydrogen_treatment    constr
_refine_ls_matrix_type           full
_refine_ls_number_parameters     71
_refine_ls_number_reflns         827
_refine_ls_number_restraints     0
_refine_ls_restrained_S_all      1.017
_refine_ls_R_factor_all          0.0728
_refine_ls_R_factor_gt           0.0458
_refine_ls_shift/su_max          0.000
_refine_ls_shift/su_mean         0.000
_refine_ls_structure_factor_coef Fsqd
_refine_ls_weighting_details
'w=1/[\s^2^(Fo^2^)+(0.0646P)^2^] where P=(Fo^2^+2Fc^2^)/3'
_refine_ls_weighting_scheme      calc
_refine_ls_wR_factor_gt          0.1075
_refine_ls_wR_factor_ref         0.1203
_reflns_Friedel_coverage         0.000
_reflns_Friedel_fraction_full    .
_reflns_Friedel_fraction_max     .
_reflns_number_gt                589
_reflns_number_total             827
_reflns_threshold_expression     'I > 2\s(I)'
_cod_data_source_file            JSSC-2018-268-55.cif
_cod_data_source_block           1
_cod_original_cell_volume        365.5(4)
_cod_database_code               1560715
_shelx_space_group_comment
;
The symmetry employed for this shelxl refinement is uniquely defined
by the following loop, which should always be used as a source of
symmetry information in preference to the above space-group names.
They are only intended as comments.
;
_olex2_refinement_description
;
1. Fixed Uiso
 At 1.5 times of:
  All O(H,H) groups
2.a Rotating group:
 O2(H2A,H2B)
;
_shelx_res_file
;
    1.res created by SHELXL-2014/7

TITL 1 in P21/c #14
REM reset to P21/c #14
CELL 0.71073 6.2546 10.9254 5.3515 90 91.592 90
ZERR 2 0.0037 0.0061 0.0031 0 0.01 0
LATT 1
SYMM -X,0.5+Y,0.5-Z
SFAC C H Cu N O
UNIT 4 8 2 16 8

L.S. 4
PLAN  20
TEMP 23
BOND
MORE -1
BOND $H
CONF
fmap 2
acta 52
REM <olex2.extras>
REM <HklSrc "%.\\1.hkl">
REM </olex2.extras>

WGHT    0.064600
FVAR       0.37789
CU1   3    0.500000    0.000000    0.000000    10.50000    0.01603    0.01659 =
         0.02468   -0.00175   -0.00268   -0.00167
O1    5    0.298353    0.087865    0.304736    11.00000    0.01560    0.03587 =
         0.03250   -0.00498   -0.00432    0.00267
N1    4    0.091672    0.098620    0.265558    11.00000    0.01894    0.01876 =
         0.02661   -0.00078   -0.00307   -0.00195
C1    1   -0.033476    0.042727    0.090900    11.00000    0.01875    0.01909 =
         0.01838    0.00330   -0.00513    0.00011
N2    4   -0.029230    0.170078    0.408955    11.00000    0.02149    0.02564 =
         0.02665   -0.01148    0.00266   -0.00391
N3    4   -0.226836    0.157589    0.323734    11.00000    0.02385    0.02449 =
         0.03081   -0.00964    0.00204   -0.00087
N4    4   -0.234323    0.079281    0.130464    11.00000    0.01623    0.02071 =
         0.02585   -0.00503    0.00157   -0.00302
O2    5    0.576140   -0.142624    0.220235    11.00000    0.03884    0.01789 =
         0.03117    0.00177   -0.00393   -0.00154
AFIX   7
H2A   2    0.476801   -0.198134    0.211864    11.00000   -1.50000
H2B   2    0.590839   -0.119124    0.374725    11.00000   -1.50000
AFIX   0
HKLF 4

REM  1 in P21/c #14
REM R1 =  0.0458 for     589 Fo > 4sig(Fo)  and  0.0728 for all     827 data
REM     71 parameters refined using      0 restraints

END

WGHT      0.0646      0.0000

REM Highest difference peak  0.934,  deepest hole -0.516,  1-sigma level  0.141
Q1    1   0.4860  0.0001  0.1989  11.00000  0.05    0.93
Q2    1  -0.2931  0.0806 -0.0012  11.00000  0.05    0.50
Q3    1  -0.1808  0.1563  0.5459  11.00000  0.05    0.46
Q4    1   0.0306  0.0566  0.1731  11.00000  0.05    0.40
Q5    1  -0.1387  0.0830  0.0475  11.00000  0.05    0.38
Q6    1   0.6222 -0.1602  0.3647  11.00000  0.05    0.38
Q7    1   0.5430 -0.1803  0.1933  11.00000  0.05    0.38
Q8    1   0.3212  0.1164  0.1756  11.00000  0.05    0.36
Q9    1   0.0062  0.0959  0.5148  11.00000  0.05    0.36
Q10   1   0.0442  0.0556  0.2787  11.00000  0.05    0.35
Q11   1   0.1654  0.0988 -0.0376  11.00000  0.05    0.34
Q12   1   0.6122 -0.1614  0.0347  11.00000  0.05    0.34
Q13   1   0.1872  0.1797  0.0341  11.00000  0.05    0.34
Q14   1  -0.2355  0.1340  0.1656  11.00000  0.05    0.32
Q15   1  -0.1731  0.0516  0.5564  11.00000  0.05    0.32
Q16   1   0.2578  0.0806  0.0177  11.00000  0.05    0.32
Q17   1   0.3829  0.1571  0.1546  11.00000  0.05    0.32
Q18   1   0.6164  0.0118  0.3241  11.00000  0.05    0.31
Q19   1   0.0885  0.0959  0.6686  11.00000  0.05    0.31
Q20   1   0.4467  0.1425  0.3756  11.00000  0.05    0.31
;
_shelx_res_checksum              33172
_shelx_hkl_file
;
   0   0   1   -0.01    0.22
   0   0   2    7.28    1.02
   0   0   3    0.03    0.68
   0   0  -5   -0.17    2.37
   0   0  -5    0.40    2.17
   0   0  -6   13.27    4.21
   0   1   0    0.54    0.24
   0   1   1  497.32   18.31
   0   1  -1  499.80   19.28
   0   1  -1  487.17   18.04
   0   1  -2  111.45    5.76
   0   1   2  114.05    5.35
   0   1  -2  112.62    5.15
   0   1   3  235.88    9.90
   0   1  -3  242.98    9.88
   0   1  -3  213.62   10.65
   0   1  -4   28.20    3.98
   0   1  -4   32.50    3.43
   0   1   4   31.97    3.58
   0   1   5   15.35    2.92
   0   1  -5   18.30    3.85
   0  -1  -5   13.15    3.32
   0   1  -6    9.42    3.95
   0   2   0 1000.00   36.15
   0   2  -1  512.88   21.12
   0   2  -1  561.95   19.64
   0   2   1  535.75   20.08
   0   2  -2  220.53    8.84
   0   2  -2  222.81   10.06
   0   2   2  231.31    9.38
   0  -2  -2  224.18    8.26
   0   2   3   21.26    2.48
   0   2  -3   24.99    3.13
   0   2  -3   18.96    2.05
   0  -2  -3   16.86    2.04
   0   2  -4   69.50    4.95
   0   2  -4   70.00    5.70
   0   2   4   75.79    5.09
   0  -2  -4   78.94    4.55
   0   2   5    2.91    2.22
   0   2  -5    0.92    2.70
   0   2  -6   20.40    5.05
   0  -2  -6   25.66    4.29
   0   3   0    0.35    0.64
   0   3   0    0.09    1.09
   0   3  -1  855.26   32.28
   0   3  -1  914.14   34.68
   0   3   1  903.44   32.87
   0   3   2    3.89    1.69
   0   3  -2    6.92    1.19
   0   3  -2    7.63    1.87
   0  -3  -2    5.99    1.17
   0   3  -3   78.57    4.55
   0   3  -3   79.53    5.56
   0   3   3   82.78    4.86
   0  -3  -3   78.87    4.12
   0   3  -4   32.27    4.47
   0   3   4   29.54    3.58
   0  -3  -4   33.65    3.26
   0   3  -5   15.07    4.26
   0   3   5   15.77    3.31
   0   3  -6   22.68    5.08
   0   3   6   16.35    3.78
   0   4   0  106.49    5.51
   0   4   0  103.81    4.83
   0   4   1  169.70    7.79
   0   4  -1  167.09    8.08
   0   4   1  165.13    7.36
   0   4  -1  170.65    6.86
   0   4  -2  692.84   27.94
   0   4  -2  680.52   25.44
   0   4   2  705.00   26.45
   0  -4  -2  690.82   23.47
   0   4   3   10.39    2.11
   0   4  -3    9.82    2.66
   0  -4  -3   13.51    1.89
   0   4   4   34.50    3.99
   0   4  -4   47.10    5.15
   0   4  -5    1.07    3.15
   0   4   5    0.56    2.20
   0   4  -6   23.65    5.39
   0   4   6   24.13    4.07
   0   5   0   -0.11    1.45
   0   5   0   -0.28    0.77
   0   5  -1  171.19    8.09
   0   5  -1  153.82    6.61
   0   5   1  150.26    7.63
   0   5   1  150.32    7.12
   0   5   2  144.62    6.99
   0   5  -2  140.90    7.85
   0   5  -2  138.32    6.00
   0  -5  -2  140.97    5.51
   0   5   3  103.58    6.17
   0   5  -3  108.06    6.95
   0   5  -4   -0.58    2.51
   0   5   4    2.10    2.14
   0   5  -5   84.13    8.10
   0   5   5   87.47    6.26
   0   5  -6   -5.51    3.21
   0   5   6   -0.06    2.21
   0   6   0  210.63   10.35
   0   6   0  217.77    9.17
   0   6   1   10.64    2.40
   0   6  -1    9.58    1.49
   0   6  -1   11.83    2.71
   0   6   1   10.46    1.90
   0   6  -2  226.07   11.15
   0   6   2  214.32   10.06
   0   6  -3    2.23    2.79
   0   6   3    5.75    2.05
   0   6   4   45.10    4.85
   0   6  -4   55.55    6.13
   0   6  -5    4.02    3.65
   0   6   5   -0.55    2.29
   0   6  -6   13.49    4.92
   0   6   6   15.10    3.61
   0   7   0    0.53    4.09
   0   7   0   -0.71    1.10
   0   7   1   80.99    5.78
   0   7   1   72.29    4.81
   0   7  -1   73.55    4.28
   0   7  -1   91.49    6.26
   0   7   2    3.28    1.77
   0   7  -2   -0.29    2.39
   0   7   2    0.11    1.40
   0   7  -3   75.45    7.05
   0   7   3   74.05    5.63
   0   7   3   81.41    5.62
   0   7   4    5.55    3.01
   0   7  -4    0.06    3.29
   0   7   5   87.04    6.89
   0   7  -5   88.81    9.06
   0   7  -6   -3.94    3.64
   0   8   0   75.97    6.85
   0   8   0   83.82    5.05
   0   8   1   25.69    3.38
   0   8  -1   40.52    4.94
   0   8  -1   31.85    2.98
   0   8   1   27.08    4.81
   0   8   2   56.17    5.02
   0   8  -2   54.41    6.06
   0   8   2   54.69    5.21
   0   8  -3   34.14    5.38
   0   8   3   50.30    4.84
   0   8   3   35.33    4.34
   0   8   4   90.79    6.82
   0   8  -4   98.90    8.96
   0   8  -5    0.75    3.61
   0   8   5    1.76    2.70
   0   9   0    1.58    3.11
   0   9   0    0.97    1.54
   0   9  -1  127.56    8.34
   0   9   1  107.13    6.61
   0   9   1  107.83    7.99
   0   9   2    1.95    2.58
   0   9  -2    2.41    3.18
   0   9   2    2.03    2.06
   0   9   3   55.35    5.62
   0   9  -3   54.11    6.90
   0   9   4   -0.90    2.62
   0   9  -4   -1.57    3.34
   0   9   5   18.34    4.11
   0   9  -5   22.54    5.42
   0  10   0   45.43    4.32
   0  10   0   43.06    5.75
   0  10   1   38.50    4.25
   0  10  -1   41.48    5.90
   0  10   1   44.40    5.75
   0  10   2   39.84    4.71
   0  10   2   42.69    5.15
   0  10  -2   43.40    6.04
   0  10  -3    2.69    3.75
   0  10   3    1.21    2.59
   0  10  -4   40.80    6.60
   0  10   4   38.91    5.28
   0  11   0   -1.42    3.41
   0  11   1   33.59    5.38
   0  11  -1   35.94    5.81
   0  11   1   31.08    4.19
   0  11   2   -0.45    2.36
   0  11  -2   -0.89    3.08
   0  11   3   57.42    6.30
   0  11  -3   60.11    7.34
   0  11   4    5.52    3.16
   0  11  -4   -2.70    3.42
   0  12   0  124.23    9.51
   0  12   1    9.55    3.82
   0  12  -1    5.11    3.92
   0  12   2   11.85    3.55
   0  12  -2   19.22    4.46
   0  12  -3   11.89    3.97
   0  12   3   11.59    3.73
   0  13   0   -1.37    3.21
   0  13  -1   30.27    5.67
   0  13  -2    3.13    3.47
   0  13   2    0.77    2.89
   0  14   0   20.90    5.15
   1   0  -6   86.32    8.26
   1   0  -5   -2.12    2.05
   1   0  -4  129.97    7.33
   1   0  -3    2.18    1.36
   1   0  -2  260.53   10.76
   1   0  -1    1.82    0.92
   1   0   0   74.46    3.41
  -1   0  -1    0.08    0.85
   1   0   1    0.37    0.64
  -1   0  -2    1.80    1.09
  -1   0  -2    2.55    1.22
   1   0   2    3.28    0.88
   1   0   3    0.23    0.90
  -1   0  -3    0.91    1.37
  -1   0  -4  268.09   11.47
  -1   0  -4  275.57   12.71
   1   0   4  274.23   11.60
  -1   0  -5    1.50    2.37
  -1   0  -5   -2.46    2.22
  -1   0  -6   69.10    6.57
   1   1  -6    0.55    3.58
   1  -1  -6    7.26    3.30
   1  -1  -6   11.26    3.94
   1   1  -5   56.83    5.28
   1   1  -5   64.93    6.36
   1  -1  -5   47.98    5.30
   1   1  -4   43.14    4.88
   1   1  -4   49.13    4.39
   1  -1  -4   49.09    4.57
  -1   1   3  309.45   12.76
   1   1  -3  299.97   12.67
   1  -1  -3  306.64   12.95
   1   1  -2    3.64    1.26
  -1   1   2    8.22    1.36
   1   1  -1  387.11   14.75
   1  -1  -1  380.02   14.74
   1   1   0    0.21    0.83
  -1  -1   0    2.12    0.88
   1  -1   0   -0.15    0.19
   1   1   1  215.78    8.77
  -1   1  -1  227.09    9.19
  -1  -1  -1  223.49    8.16
   1  -1   1  216.34    8.23
   1   1   2   43.72    2.76
  -1   1  -2   44.22    3.11
  -1  -1  -2   42.32    2.79
   1  -1   2   37.91    2.25
  -1   1  -3   39.03    3.71
   1   1   3   40.27    3.02
  -1  -1  -3   37.99    3.14
   1  -1   3   38.75    2.70
  -1  -1  -3   40.28    3.36
  -1   1  -4    5.84    2.39
   1   1   4    1.46    1.40
  -1  -1  -4    2.85    2.21
  -1  -1  -4    3.43    2.17
   1  -1   4    5.07    1.64
  -1   1  -5  148.93    8.97
  -1  -1  -5  143.34    7.88
  -1   1  -6    3.61    3.56
  -1  -1  -6    0.65    3.11
   1   2  -6   39.35    6.04
   1  -2  -6   36.77    5.28
   1   2  -5    5.75    3.17
   1  -2  -5    9.04    2.98
   1   2  -4   45.44    5.04
  -1   2   4   32.04    4.11
   1   2  -4   51.32    4.30
  -1   2   3   11.48    2.03
   1   2  -3   11.61    2.07
   1   2  -3    8.42    2.32
   1   2  -2  668.77   24.98
   1   2  -2  665.12   26.48
  -1   2   2  650.12   25.28
  -1   2   1  491.23   19.72
   1   2  -1  502.40   18.86
  -1   2   1  512.07   18.80
   1   2  -1  488.14   19.75
  -1   2   0  224.25    8.54
   1   2   0  214.98    9.03
  -1   2   0  233.56    9.51
   1  -2   0  224.39    8.66
   1   2   1  243.67   10.04
  -1   2  -1  249.92   10.59
  -1  -2  -1  252.21    9.12
   1   2   2   84.71    4.57
  -1   2  -2   92.31    5.02
   1  -2   2   86.91    3.63
  -1  -2  -2   89.26    4.26
  -1   2  -3   -2.02    1.44
   1   2   3    1.75    1.24
  -1  -2  -3    1.94    1.48
   1  -2   3    2.29    0.87
   1   2   4  118.53    6.67
  -1   2  -4  125.64    7.40
  -1  -2  -4  119.89    6.39
  -1   2  -5   15.48    3.66
   1   2   5   14.62    3.10
  -1  -2  -5   17.32    3.48
  -1   2  -6   34.00    5.35
   1   3  -6   -4.06    3.21
   1  -3  -6    3.99    3.22
   1   3  -5   75.25    7.42
  -1   3   5   80.80    6.79
   1   3  -4   26.15    4.08
  -1   3   4   24.34    3.46
   1   3  -4   25.02    3.48
   1   3  -3  291.42   11.94
  -1   3   3  271.81   12.11
   1   3  -3  274.16   13.03
   1   3  -2  147.01    7.12
   1   3  -2  156.93    7.79
  -1   3   2  164.66    7.21
  -1   3   2  153.31    7.51
  -1   3   1    4.19    1.33
   1   3  -1    3.17    1.31
  -1   3   1    2.26    0.98
  -1   3   0   30.78    2.69
   1   3   0   26.41    2.31
   1   3   0   26.92    2.31
  -1   3   0   29.93    1.89
   1   3   1  207.05    8.82
  -1   3  -1  204.78    9.46
  -1  -3  -1  213.34    7.97
   1   3   2   10.51    1.75
  -1   3  -2   17.45    2.61
  -1  -3  -2   15.17    1.93
  -1   3  -3  206.49   10.24
   1   3   3  208.29    9.58
  -1  -3  -3  213.29    8.68
  -1   3  -4   33.62    4.27
   1   3   4   37.07    3.89
  -1  -3  -4   35.92    3.76
   1   3   5   47.68    4.80
  -1   3  -5   50.05    5.62
  -1   3  -6    0.79    3.54
   1   4  -6   13.35    4.73
   1  -4  -6   17.47    4.23
   1   4  -5    4.52    3.55
  -1   4   5   -1.06    2.40
   1   4  -4   86.34    7.00
  -1   4   4  102.05    6.31
   1   4  -3   72.34    5.47
   1   4  -3   63.75    4.61
  -1   4   3   61.76    4.49
   1   4  -2  189.69    8.52
  -1   4   2  187.76    9.17
  -1   4   2  203.00    8.86
   1   4  -2  205.51    9.66
  -1   4   1   55.77    4.14
   1   4  -1   65.66    3.96
  -1   4   1   41.60    3.34
   1   4  -1   74.68    3.77
   1   4   0  221.17    9.94
  -1   4   0  249.69    9.51
  -1   4   0  249.51   10.86
   1   4   1  143.48    6.35
   1   4   1  143.01    6.58
  -1   4  -1  128.66    7.06
  -1   4  -1  134.31    5.35
  -1  -4  -1  139.20    5.71
  -1   4  -2  286.02   13.13
   1   4   2  291.50   12.23
  -1  -4  -2  292.99   10.93
   1   4   3   79.42    5.09
  -1   4  -3   75.55    5.67
  -1  -4  -3   79.21    4.46
   1   4   4   54.22    4.92
  -1   4  -4   58.31    5.80
  -1  -4  -4   51.49    4.52
  -1   4  -5    1.60    3.06
   1   4   5    2.78    2.19
   1   4   6   30.01    4.44
  -1   4  -6   37.18    5.93
  -1   5   6    5.68    2.99
   1   5  -6   10.37    4.34
  -1   5   5   36.00    4.73
   1   5  -5   48.58    6.28
  -1   5   4   13.94    2.92
   1   5  -4   11.16    3.64
   1   5  -3   30.99    3.19
  -1   5   3   25.52    3.31
   1   5  -3   33.67    4.35
   1   5  -2   50.85    4.52
  -1   5   2   49.19    4.35
  -1   5   2   41.03    3.71
   1   5  -2   44.76    3.64
   1   5  -1  510.71   19.30
  -1   5   1  478.68   20.76
   1   5  -1  501.80   20.74
  -1   5   1  503.93   19.39
  -1   5   0    2.70    0.90
  -1   5   0    0.58    1.56
   1   5   0   -0.39    0.80
   1   5   0    0.75    1.07
  -1   5  -1  141.92    7.38
  -1   5  -1  116.45    5.20
   1   5   1  137.94    6.43
   1   5   1  123.27    6.42
   1   5   2   21.01    2.23
   1   5   2   19.95    2.69
  -1   5  -2   18.79    3.17
  -1  -5  -2   17.07    2.28
   1   5   3  215.54   10.27
  -1   5  -3  218.33   11.24
  -1  -5  -3  210.94    8.89
  -1   5  -4   13.89    3.90
   1   5   4   16.02    2.98
  -1   5  -5   15.09    4.31
   1   5   5    9.00    2.97
  -1   5  -6   -6.34    3.56
   1   5   6   -2.89    2.07
   1   6  -6   16.44    4.94
  -1   6   6   20.70    4.14
  -1   6   5   -1.50    2.32
   1   6  -5   -3.02    3.40
   1   6  -4  200.11   11.26
  -1   6   4  185.37    9.96
  -1   6   3   13.37    3.14
   1   6  -3   13.52    3.37
  -1   6   3   18.60    3.05
  -1   6   2    5.31    2.31
  -1   6   2    6.91    1.85
   1   6  -2    4.60    1.65
   1   6  -2    4.80    2.42
  -1   6   1    2.04    1.93
  -1   6   1    3.43    1.34
   1   6  -1    4.96    1.39
   1   6  -1    3.72    2.04
  -1   6   0  249.27   12.02
  -1   6   0  258.96   10.33
   1   6   0  261.23   10.96
   1   6   0  238.70   11.50
  -1   6  -1   24.29    1.84
   1   6   1   22.26    2.76
  -1   6  -1   21.05    3.35
   1   6   1   20.65    2.84
   1   6   2  228.29   10.29
   1   6   2  233.16   10.67
  -1   6  -2  233.52   11.88
  -1  -6  -2  230.54    9.17
  -1   6  -3   50.11    5.56
   1   6   3   48.32    4.64
  -1   6  -4   58.57    6.39
   1   6   4   48.05    5.08
  -1   6  -5   -2.86    3.33
   1   6   5   -0.19    2.27
   1   6   6   20.33    4.10
  -1   6  -6   19.85    5.36
   1   7  -5   40.29    6.18
  -1   7   5   28.49    4.60
  -1   7   4    0.93    2.36
   1   7  -4    1.93    3.17
  -1   7   3   13.39    3.30
  -1   7   3    6.01    2.38
   1   7  -3   12.84    3.63
  -1   7   2   17.36    2.83
   1   7  -2   16.18    3.65
   1   7  -2   21.03    2.60
  -1   7   2   24.40    3.83
  -1   7   1  397.25   16.11
   1   7  -1  397.03   15.90
  -1   7   1  377.42   17.63
   1   7  -1  402.38   17.57
   1   7   0   46.27    4.66
  -1   7   0   56.83    3.56
   1   7   0   47.19    4.14
  -1   7   0   58.52    5.61
  -1   7  -1  117.17    7.21
   1   7   1   89.72    6.17
   1   7   1   96.68    5.93
  -1   7  -2   19.99    4.01
   1   7   2   11.22    2.64
   1   7   2   17.51    2.65
  -1   7  -3   96.76    7.65
   1   7   3  122.87    7.18
   1   7   4    3.34    2.92
  -1   7  -4    2.66    3.42
   1   7   5   23.56    4.17
  -1   7  -5   36.35    6.07
  -1   8   5    5.34    2.99
   1   8  -5    6.99    4.23
   1   8  -4   26.49    5.48
  -1   8   4   30.31    4.31
  -1   8   3   73.53    5.62
   1   8  -3   71.67    7.27
  -1   8   3   70.51    6.44
   1   8  -2   50.15    5.65
  -1   8   2   49.90    5.51
  -1   8   2   55.92    4.87
  -1   8   1    0.04    1.38
  -1   8   1    5.50    3.08
   1   8  -1    3.74    2.89
   1   8   0  307.14   14.51
  -1   8   0  301.62   12.52
  -1   8   0  277.05   14.78
   1   8   0  314.00   13.19
   1   8   1   70.66    5.90
  -1   8  -1   56.70    6.26
   1   8   1   58.34    4.72
   1   8   2  121.77    7.20
  -1   8  -2  113.83    8.45
   1   8   3    4.40    2.46
  -1   8  -3    1.57    3.27
  -1   8  -4   28.95    5.31
   1   8   4   23.21    4.13
  -1   8  -5   15.20    4.71
   1   8   5    7.37    3.26
  -1   9   5   22.92    4.46
   1   9  -5   21.97    5.44
   1   9  -4    1.57    3.60
  -1   9   4    1.18    2.63
   1   9  -3   65.61    7.42
  -1   9   3   63.73    6.02
  -1   9   3   65.32    6.46
   1   9  -2   -2.14    2.73
  -1   9   2    0.48    1.90
  -1   9   2    2.43    2.87
  -1   9   1   16.22    4.13
  -1   9   1   16.00    2.76
  -1   9   0    3.98    3.31
   1   9   0    1.71    1.77
   1   9   0    2.49    3.42
  -1   9   0   -0.47    1.35
   1   9   1  187.74   10.42
  -1   9  -1  189.00   11.41
   1   9   1  182.80    9.49
   1   9   2   14.02    3.14
  -1   9  -2   11.99    4.14
  -1   9  -3   33.53    5.72
   1   9   3   39.45    4.95
  -1   9  -4   -2.73    3.82
   1   9   4    4.47    3.05
  -1   9  -5   18.79    5.21
  -1  10   4   -0.75    2.60
   1  10  -4    4.57    3.55
  -1  10   3    1.56    2.58
  -1  10   3    1.32    2.63
   1  10  -3    2.17    3.27
   1  10  -2  154.18   10.23
  -1  10   2  147.42    9.62
  -1  10   2  159.54    8.88
   1  10  -1    0.25    2.97
  -1  10   1    4.94    3.52
  -1  10   1   -3.07    1.53
  -1  10   0   71.56    7.64
   1  10   0   73.14    7.21
   1  10   0   69.24    5.32
  -1  10  -1    5.27    3.86
   1  10   1    2.13    2.16
   1  10   1    4.33    2.78
   1  10   2   91.26    6.73
  -1  10  -2   84.93    8.58
   1  10   3    6.04    3.23
  -1  10  -3   13.32    4.56
  -1  10  -4   16.76    4.88
   1  10   4   17.02    4.09
  -1  11   4    5.95    3.19
   1  11  -4    1.76    3.64
  -1  11   3   61.88    6.61
  -1  11   3   55.29    6.09
   1  11  -3   43.92    6.56
  -1  11   2    1.27    2.49
  -1  11   2    2.98    2.92
   1  11  -2    1.44    3.06
  -1  11   1   44.76    6.40
   1  11  -1   70.75    6.90
  -1  11   0    5.11    3.95
   1  11   0    9.15    2.75
   1  11   0   13.22    4.09
   1  11   1  138.75    8.37
  -1  11  -1  140.14   10.22
   1  11   2    0.92    2.52
  -1  11  -2   -3.25    3.25
  -1  11  -3    8.47    4.21
   1  11   3    8.69    3.50
  -1  11  -4    2.90    3.76
  -1  12   3    1.79    3.13
   1  12  -3    7.40    3.74
   1  12  -2   48.62    6.38
  -1  12   2   55.00    6.46
  -1  12   2   50.07    5.81
   1  12  -1   -1.30    3.03
  -1  12   1    3.24    3.26
  -1  12   0   34.38    6.10
   1  12   0   43.60    6.19
   1  12   1   -1.43    2.42
  -1  12  -1   -1.41    3.04
  -1  12  -2   29.30    5.70
   1  12   2   30.53    4.99
   1  12   3    3.80    2.87
  -1  12  -3    1.45    3.26
   1  13  -2    0.22    2.97
  -1  13   2    2.09    3.01
   1  13  -1   83.27    8.83
  -1  13   0    0.71    3.35
  -1  13  -2    1.33    3.32
   1  13   2    4.56    3.19
  -1  14   0   66.69    8.29
   2   0  -6    5.54    3.59
   2   0  -6   -0.66    3.23
   2   0  -5   -1.62    2.51
   2   0  -4   69.98    5.81
   2   0  -3   -0.57    1.97
   2   0  -2  510.11   20.01
   2   0  -1   -1.35    1.11
  -2   0   0  341.81   12.28
   2   0   0  308.81   13.29
  -2   0   0  355.59   13.35
  -2   0  -1    1.26    1.13
   2   0   1    0.25    0.44
   2   0   2  262.91   10.68
  -2   0  -2  265.75   10.49
  -2   0  -2  269.24   10.99
  -2   0  -3    2.78    1.86
  -2   0  -3    2.08    1.57
   2   0   3   -0.31    1.06
  -2   0  -4  194.22    9.29
  -2   0  -5   -0.19    2.88
  -2   0  -6   -2.10    3.70
   2   1  -6   -0.09    3.38
   2  -1  -6    1.47    3.41
   2   1  -5  130.73    8.21
   2  -1  -5  115.08    7.93
   2   1  -4   18.84    3.30
   2  -1  -4   19.41    3.42
   2   1  -3   14.87    2.69
   2  -1  -3   16.96    2.75
   2   1  -2   19.09    2.52
   2  -1  -2   22.91    2.55
   2   1  -1  395.10   15.54
   2  -1  -1  380.91   15.31
   2   1   0  105.05    5.72
  -2   1   0  119.51    5.45
  -2   1   0  124.38    5.08
   2  -1   0  113.85    5.66
  -2  -1   0  113.45    5.19
  -2   1  -1  267.57   10.28
  -2   1  -1  271.38   11.24
   2   1   1  274.86   11.10
   2  -1   1  268.17   10.66
  -2  -1  -1  274.90   10.37
  -2   1  -2    0.97    1.30
  -2   1  -2    3.42    1.55
   2   1   2   -0.31    0.91
   2  -1   2   -0.38    0.71
  -2  -1  -2    1.36    1.36
  -2   1  -3  217.71    9.34
  -2   1  -3  202.24    9.77
  -2  -1  -3  214.18    9.34
   2  -1   3  208.66    8.74
  -2  -1  -3  212.02    9.28
  -2   1  -4    0.59    2.43
   2   1   4    4.59    1.77
  -2   1  -4    5.91    2.51
  -2  -1  -4    4.59    2.28
  -2   1  -5   44.07    5.32
  -2  -1  -5   48.31    5.34
  -2   1  -6    6.52    3.72
  -2  -1  -6    0.00    3.54
   2   2  -6   21.03    4.89
   2  -2  -6   17.76    4.40
   2   2  -5   12.56    3.85
   2   2  -5    8.48    3.32
   2  -2  -5   17.21    3.66
   2   2  -4   84.81    6.48
   2   2  -4   83.92    6.44
   2  -2  -4   78.14    6.17
   2   2  -3   30.35    3.52
   2  -2  -3   30.34    3.67
   2   2  -2  146.03    7.63
   2  -2  -2  159.86    7.58
  -2   2   1  163.23    7.89
   2   2  -1  173.61    8.03
   2  -2  -1  179.18    7.73
  -2   2   0  193.62    8.52
   2   2   0  169.56    8.28
  -2  -2   0  200.74    7.72
   2   2   1  145.02    6.87
  -2   2  -1  142.57    6.13
  -2   2  -1  139.93    6.95
   2  -2   1  145.81    6.11
  -2  -2  -1  145.04    6.37
  -2   2  -2  335.35   14.30
   2   2   2  339.74   13.69
  -2   2  -2  330.73   12.85
  -2  -2  -2  329.74   12.84
   2  -2   2  337.84   12.59
  -2   2  -3   28.59    3.41
  -2   2  -3   30.74    3.49
   2   2   3   28.83    3.00
  -2  -2  -3   28.10    3.27
   2   2   4  109.04    6.35
  -2   2  -4  107.54    7.00
  -2   2  -4  107.26    6.62
  -2  -2  -4  113.59    6.57
  -2   2  -5   10.43    3.72
  -2  -2  -5    4.42    3.32
  -2   2  -6   23.07    4.72
  -2  -2  -6   23.27    4.89
   2   3  -6    2.68    3.75
   2  -3  -6    1.05    3.23
   2   3  -5   -1.82    2.96
   2  -3  -5    0.23    2.71
   2   3  -4    7.40    2.87
   2   3  -4    5.70    3.01
   2  -3  -4    5.20    2.70
   2   3  -3  328.59   14.68
   2   3  -3  317.44   13.71
   2  -3  -3  293.58   13.79
   2   3  -2   -0.48    1.45
  -2   3   2    2.67    1.55
   2   3  -2    0.91    1.54
   2  -3  -2    2.59    1.60
   2   3  -1  250.40   10.23
   2   3  -1  241.71   10.23
  -2   3   1  213.01   10.52
   2  -3  -1  216.44    9.85
  -2   3   0   21.80    2.60
  -2   3   0   27.05    2.06
   2   3   0   26.97    2.18
   2   3   0   17.86    2.32
   2  -3   0   24.27    2.10
  -2   3  -1  544.57   19.32
  -2   3  -1  539.85   22.22
   2   3   1  555.92   21.37
  -2  -3  -1  544.07   19.58
   2  -3   1  548.75   20.24
   2   3   2    0.69    1.21
  -2   3  -2    2.60    1.81
  -2   3  -2    1.14    1.61
  -2  -3  -2    3.11    1.58
  -2   3  -3  127.44    7.58
   2   3   3  140.09    7.21
  -2  -3  -3  150.63    7.06
   2   3   4   -0.19    1.86
  -2   3  -4    1.44    2.49
  -2   3  -4   -0.43    2.57
  -2  -3  -4    1.96    2.33
  -2   3  -5   17.91    4.05
   2   3   5   12.83    3.00
  -2   3  -5   20.73    4.19
  -2  -3  -5    8.39    3.54
  -2   3  -6    2.77    3.51
   2   4  -6   18.88    5.05
   2  -4  -6   32.85    5.34
   2   4  -5    2.23    3.41
   2  -4  -5   -1.44    2.68
   2   4  -4   41.07    4.66
   2   4  -4   56.25    6.03
   2  -4  -4   45.02    5.00
   2   4  -3    7.37    2.78
   2   4  -3   16.88    2.92
  -2   4   3    4.60    2.04
  -2   4   2   93.61    5.94
   2   4  -2   89.32    5.79
   2   4  -2   99.27    5.84
  -2   4   2  104.27    5.57
  -2   4   1    1.40    1.05
   2   4  -1    0.94    1.48
  -2   4   1    2.60    1.60
   2   4  -1    0.82    1.42
   2  -4  -1    1.55    1.27
  -2   4   0  421.59   14.07
   2   4   0  396.85   16.15
   2   4   0  394.07   16.16
  -2   4   0  372.76   16.90
   2  -4   0  405.12   15.51
  -2   4  -1   17.33    2.84
   2   4   1   19.25    2.51
  -2   4  -1   18.62    2.27
  -2  -4  -1   21.22    2.44
   2  -4   1   20.95    1.72
  -2   4  -2  263.28   12.07
   2   4   2  257.70   11.37
  -2  -4  -2  246.24   10.37
  -2   4  -3   10.36    3.24
   2   4   3    9.19    2.38
  -2  -4  -3    9.83    2.49
   2   4   4   16.42    3.16
  -2   4  -4   11.90    3.41
  -2  -4  -4   14.87    3.30
  -2   4  -5   14.40    4.09
   2   4   5   12.90    3.14
  -2   4  -5    9.72    3.81
  -2   4  -6   49.05    6.44
   2   5  -6   -1.01    3.32
   2  -5  -6    2.02    3.45
   2   5  -5    6.12    3.98
   2  -5  -5   17.65    4.31
  -2   5   4    1.56    2.16
   2   5  -4    4.50    3.24
   2   5  -3  140.02    8.50
   2   5  -3  133.11    7.45
  -2   5   3  122.82    7.33
  -2   5   2   25.68    3.52
  -2   5   2   22.75    2.88
   2   5  -2   26.46    3.67
   2   5  -2   23.79    3.08
  -2   5   1  120.69    7.43
  -2   5   1  116.80    6.41
   2   5  -1  154.99    6.93
   2   5  -1  142.71    7.04
   2   5   0   19.90    2.69
  -2   5   0   16.57    2.83
   2   5   0   19.72    2.58
  -2   5   0   20.68    1.90
   2  -5   0   18.89    2.10
   2   5   1  271.21   12.09
   2   5   1  274.36   11.44
  -2   5  -1  267.39   12.89
   2  -5   1  283.32   10.64
   2   5   2    2.32    1.73
  -2   5  -2    5.96    2.56
  -2  -5  -2    3.39    1.99
   2   5   3   70.00    5.38
  -2   5  -3   70.73    5.97
  -2  -5  -3   72.60    4.90
  -2   5  -4   17.75    3.93
   2   5   4   11.65    3.12
   2   5   5   52.09    5.53
  -2   5  -5   52.15    6.50
  -2   5  -6    1.50    3.51
   2   5   6   -1.83    2.43
   2   6  -6   12.99    4.78
   2   6  -5   -0.31    3.39
  -2   6   5   -1.80    2.43
   2  -6  -5    1.16    3.01
  -2   6   4   18.38    3.96
   2   6  -4   21.29    4.64
   2   6  -3    4.60    2.83
  -2   6   3    0.20    1.82
   2   6  -3    5.68    2.41
  -2   6   3    5.57    2.79
  -2   6   2  168.05    8.24
  -2   6   2  164.96    9.16
   2   6  -2  158.79    8.01
   2   6  -2  149.03    8.64
  -2   6   1   24.37    3.62
   2   6  -1   26.15    3.13
   2   6  -1   25.89    3.44
  -2   6   1   25.63    2.77
  -2   6   0  500.02   16.96
   2   6   0  476.07   19.61
   2   6   0  474.23   20.11
  -2   6   0  501.17   18.71
  -2   6   0  453.86   20.77
   2   6   1   12.54    2.46
   2   6   1    8.46    2.02
  -2   6  -1    8.97    2.93
   2   6   2   69.00    5.47
  -2   6  -2   70.01    6.41
  -2  -6  -2   74.37    4.65
   2   6   3   -0.51    1.93
  -2   6  -3    1.09    3.05
  -2  -6  -3   -0.59    2.27
  -2   6  -4   23.31    4.64
   2   6   4   31.26    4.57
   2   6   5    4.38    2.60
  -2   6  -5    0.80    3.50
  -2   7   5   29.60    4.79
   2   7  -5   33.92    5.76
   2   7  -4    0.69    3.30
  -2   7   4    0.23    2.43
  -2   7   3   23.74    3.52
  -2   7   3   21.04    4.04
   2   7  -3   20.31    4.13
  -2   7   2   -0.17    1.56
  -2   7   2   -2.30    2.38
   2   7  -2    0.14    2.48
   2   7  -2    1.02    1.94
   2   7  -1  239.21   11.78
   2   7  -1  238.04   10.91
  -2   7   1  240.15   12.51
  -2   7   1  242.07   10.71
   2   7   0   17.12    3.25
  -2   7   0   15.13    2.14
  -2   7   0   19.89    3.65
   2   7   0   17.31    2.76
   2   7   1   87.20    6.00
  -2   7  -1   93.15    7.39
   2   7   2    0.16    1.98
  -2   7  -2    1.73    2.94
  -2   7  -3   59.22    6.62
   2   7   3   62.81    5.85
   2   7   4    4.79    2.82
  -2   7  -4   -0.11    3.30
   2   7   5   33.45    4.75
  -2   7  -5   32.33    5.96
   2   8  -5   -2.60    3.38
  -2   8   5    1.94    2.67
   2   8  -4   40.02    6.08
  -2   8   4   52.07    5.90
  -2   8   3   16.68    3.26
   2   8  -3   18.70    4.31
  -2   8   3   18.97    4.09
   2   8  -2   43.81    4.12
  -2   8   2   39.19    4.22
  -2   8   2   49.77    5.83
   2   8  -2   41.26    5.25
   2   8  -1   -1.91    1.72
  -2   8   1   -1.54    1.38
  -2   8   1    1.91    2.95
   2   8  -1    1.81    2.66
   2   8   0  163.11    8.53
   2   8   0  154.71    9.12
  -2   8   0  163.46    9.88
  -2   8  -1   -0.73    2.82
   2   8   1   -1.18    1.75
   2   8   2   42.31    4.81
  -2   8  -2   44.88    5.79
   2   8   3   29.59    4.64
  -2   8  -3   28.30    5.36
   2   8   4   57.72    6.20
  -2   8  -4   65.69    7.77
  -2   8  -5   -2.06    4.14
   2   8   5    2.13    2.73
   2   9  -5   15.26    5.00
   2   9  -4    9.55    4.33
  -2   9   4   10.54    3.58
  -2   9   3   55.65    5.69
  -2   9   3   62.50    6.63
   2   9  -3   59.09    6.69
  -2   9   2   -0.21    1.84
  -2   9   2    0.90    2.75
   2   9  -2    4.15    3.05
  -2   9   1  123.74    8.72
  -2   9   1  118.37    6.73
   2   9  -1  113.91    6.82
   2   9  -1  106.83    7.82
   2   9   0   12.83    2.85
   2   9   0   14.42    3.65
  -2   9   0    3.58    3.41
   2   9   1   48.49    5.14
  -2   9  -1   62.10    6.98
  -2   9  -2   18.06    4.78
   2   9   2   17.17    3.55
   2   9   3   59.79    6.30
  -2   9  -3   63.67    7.39
  -2   9  -4   -8.12    3.44
   2   9   4   -2.44    2.69
  -2   9  -5    3.58    4.26
  -2  10   4   45.21    5.68
   2  10  -4   41.63    6.52
  -2  10   3    6.59    2.88
   2  10  -3    6.28    3.45
  -2  10   3    3.91    3.04
  -2  10   2   34.01    5.16
  -2  10   2   35.36    4.33
   2  10  -2   31.71    5.07
   2  10  -1    3.50    2.36
   2  10  -1   11.80    3.76
  -2  10   1   16.62    4.74
  -2  10   0   41.89    6.11
   2  10   0   35.17    4.30
   2  10   1    3.72    2.51
  -2  10  -1    3.72    4.11
  -2  10  -2   41.70    6.73
   2  10   2   53.10    5.84
   2  10   3   -2.06    2.74
  -2  10  -3    0.41    3.79
  -2  10  -4   21.04    5.41
   2  10   4   15.59    3.96
   2  11  -4   -0.17    3.73
   2  11  -3   35.21    5.75
  -2  11   3   46.81    5.99
  -2  11   3   41.75    5.46
   2  11  -2    2.45    3.26
  -2  11   2    7.49    2.86
  -2  11   2    3.24    2.98
   2  11  -1   11.85    3.90
  -2  11   1    9.34    3.99
   2  11   0    6.80    2.78
  -2  11   0   10.11    4.31
   2  11   1   21.77    3.94
  -2  11  -1   19.23    5.13
  -2  11  -2    2.65    3.90
   2  11   2    1.62    2.80
   2  11   3   36.46    5.49
  -2  11  -3   34.61    6.46
   2  12  -3    0.86    3.49
  -2  12   3    3.16    3.02
  -2  12   3   -1.60    2.70
   2  12  -2   31.99    5.44
  -2  12   2   63.14    6.98
  -2  12   1    0.59    3.20
  -2  12   0    0.93    3.40
   2  12   0   14.01    3.45
   2  12   1    3.81    3.03
  -2  12  -1    4.98    3.82
   2  12   2   29.45    5.02
  -2  12  -2   34.26    6.19
  -2  12  -3   -0.33    3.79
   2  13  -2    1.93    3.31
  -2  13   2    3.14    3.14
  -2  13   1   15.48    4.46
  -2  13   0    1.20    3.24
  -2  13  -1    8.84    4.20
   2  13   1   16.42    4.01
   2  13   2    7.83    3.40
  -2  13  -2    1.25    3.52
   3   0  -6   67.19    7.55
   3   0  -5    1.43    3.04
   3   0  -4   63.66    5.98
   3   0  -3   -0.51    2.10
   3   0  -2   96.51    6.14
   3   0  -1    0.95    1.69
  -3   0   0   57.04    3.37
  -3   0   0   53.01    3.91
   3   0   0   52.77    4.31
  -3   0  -1    0.54    0.91
  -3   0  -1    3.10    1.72
   3   0   1   -0.50    1.22
   3   0   2  153.22    7.19
  -3   0  -2  151.26    7.24
  -3   0  -2  148.11    6.79
  -3   0  -3   -1.64    2.31
   3   0   3   -1.18    1.53
  -3   0  -4  157.00    8.70
  -3   0  -5    1.25    3.58
  -3   0  -6   13.38    4.76
   3   1  -6   -1.90    3.86
   3   1  -6    3.23    3.46
   3  -1  -6    1.85    3.73
   3   1  -5   85.99    7.79
   3  -1  -5   84.77    7.66
   3   1  -4    7.66    3.15
   3  -1  -4    5.95    2.98
   3   1  -3   77.96    6.31
   3  -1  -3   80.86    6.00
   3   1  -2   29.01    3.51
   3  -1  -2   24.83    3.29
   3   1  -1  219.93   10.22
   3  -1  -1  217.57   10.05
   3   1   0   95.17    5.89
  -3   1   0   95.18    5.01
  -3   1   0   99.32    5.12
  -3  -1   0  100.61    5.25
   3  -1   0   96.93    5.81
  -3   1  -1  259.19   11.20
  -3   1  -1  248.26   10.45
   3   1   1  262.55   11.49
   3  -1   1  273.12   11.20
  -3  -1  -1  264.32   10.71
  -3   1  -2   92.98    5.31
  -3   1  -2   92.16    5.19
   3   1   2   97.92    5.39
  -3  -1  -2   92.00    5.39
   3  -1   2   88.14    4.94
   3   1   3   62.78    4.76
  -3   1  -3   64.14    5.54
  -3  -1  -3   67.17    5.50
  -3   1  -4    3.17    2.86
  -3  -1  -4    1.79    2.82
  -3   1  -5   41.85    5.47
  -3  -1  -5   40.24    5.45
  -3   1  -6    3.50    4.05
  -3  -1  -6    1.75    3.89
   3   2  -6   11.49    4.42
   3  -2  -6   12.79    4.52
   3   2  -5    4.21    3.44
   3   2  -5    7.22    3.67
   3  -2  -5    0.31    2.97
   3   2  -4   99.36    7.72
   3  -2  -4  134.49    8.03
   3   2  -3   10.15    3.15
   3  -2  -3   13.56    3.02
   3   2  -2  142.58    7.99
   3  -2  -2  147.59    7.79
   3   2  -1    3.75    1.97
  -3   2   1    1.39    1.30
   3  -2  -1    2.25    1.66
  -3   2   0  149.32    6.56
   3   2   0  143.06    7.78
  -3   2   0  142.24    7.25
  -3  -2   0  152.43    6.94
   3  -2   0  158.85    7.45
  -3   2  -1   67.72    4.22
  -3   2  -1   65.45    4.38
   3   2   1   60.26    4.70
   3  -2   1   67.33    4.38
  -3  -2  -1   66.13    4.37
   3   2   2  255.00   10.93
  -3   2  -2  223.67   10.19
  -3   2  -2  240.66   11.04
   3  -2   2  241.83    9.89
  -3  -2  -2  247.41   10.35
  -3   2  -3    1.28    2.17
   3   2   3   -0.73    1.63
  -3   2  -3    1.19    2.39
  -3  -2  -3   -1.55    2.24
  -3   2  -4   25.26    4.31
   3   2   4   26.22    3.40
  -3  -2  -4   29.73    4.28
  -3   2  -5   -3.16    3.38
  -3  -2  -5   -0.70    3.48
  -3   2  -6   15.00    4.67
  -3  -2  -6   26.51    5.28
   3   3  -6    0.74    3.27
   3  -3  -6   -1.29    3.43
   3   3  -5   40.93    6.10
   3   3  -5   56.02    6.41
   3  -3  -5   51.45    6.25
   3   3  -4    3.64    2.98
   3   3  -4    3.01    2.90
   3  -3  -4    4.09    2.71
   3   3  -3  101.88    7.18
   3  -3  -3  100.84    6.73
   3   3  -2    7.65    2.54
   3  -3  -2   10.82    2.40
   3   3  -1   74.56    5.32
  -3   3   1   77.32    5.02
  -3   3   1   69.24    3.82
   3  -3  -1   67.82    4.87
   3   3   0   56.13    4.58
   3   3   0   59.56    3.53
  -3   3   0   60.68    3.55
  -3   3   0   59.28    4.40
   3  -3   0   53.44    4.05
   3   3   1  112.67    6.23
  -3   3  -1   97.36    5.20
  -3   3  -1   96.72    5.96
   3  -3   1  105.69    5.46
  -3  -3  -1   99.95    5.66
  -3   3  -2   21.30    3.18
   3   3   2   20.99    3.02
  -3   3  -2   18.89    2.98
  -3  -3  -2   23.39    3.24
   3   3   3   86.81    5.84
  -3   3  -3   82.37    5.99
  -3   3  -3   90.24    5.89
  -3  -3  -3   82.84    5.53
  -3   3  -4    9.21    3.40
   3   3   4   16.56    3.19
  -3  -3  -4    8.51    3.34
  -3   3  -5  102.41    8.45
  -3  -3  -5   85.64    7.61
  -3   3  -6    0.93    3.62
   3   4  -6   13.20    4.58
   3  -4  -6    2.99    3.74
   3   4  -5    4.72    3.85
   3  -4  -5    3.34    3.33
   3   4  -4   96.11    7.68
   3   4  -4  107.01    7.56
   3  -4  -4   92.66    7.17
   3   4  -3    1.30    2.54
   3   4  -3    6.40    2.86
   3  -4  -3    3.69    2.53
  -3   4   2  131.07    7.82
   3   4  -2  137.32    7.93
   3   4  -2  139.66    7.83
   3  -4  -2  141.51    7.62
  -3   4   1   -0.65    1.64
   3   4  -1    1.71    2.03
   3   4  -1   -0.61    1.10
  -3   4   1    0.31    1.47
   3  -4  -1    3.30    1.66
   3   4   0  177.80    8.05
  -3   4   0  169.67    9.15
   3   4   0  185.26    9.03
  -3   4   0  187.93    7.51
   3  -4   0  171.69    8.31
  -3   4  -1    5.81    2.08
   3   4   1    7.48    2.34
  -3   4  -1    7.44    2.38
  -3  -4  -1   11.47    2.58
   3  -4   1    7.58    1.75
  -3   4  -2  113.84    6.24
   3   4   2  120.62    7.15
  -3   4  -2  124.67    7.42
  -3  -4  -2  109.14    6.44
   3   4   3   16.08    3.17
  -3   4  -3   15.22    3.37
  -3   4  -3   17.96    3.44
  -3  -4  -3   17.39    3.48
   3   4   4   29.12    3.98
  -3   4  -4   30.67    4.89
  -3   4  -4   26.22    4.69
  -3  -4  -4   26.17    4.28
  -3   4  -5    5.59    3.83
   3   4   5    4.44    2.54
  -3  -4  -5   -0.01    3.55
  -3   4  -6   41.21    6.12
   3   5  -6   -0.99    3.34
   3   5  -5   15.64    4.67
   3  -5  -5   17.96    4.40
   3   5  -4   23.02    4.16
   3   5  -4   25.83    4.98
   3  -5  -4   31.78    4.90
   3   5  -3  139.45    8.41
   3   5  -3  146.47    9.01
   3  -5  -3  140.73    8.47
   3   5  -2   17.56    3.44
   3   5  -2   12.20    3.37
  -3   5   2   16.32    3.44
   3  -5  -2   17.74    3.31
  -3   5   1  188.13    9.50
   3   5  -1  143.49    8.28
   3   5  -1  191.87    9.02
   3  -5  -1  180.20    8.60
  -3   5   0   45.34    3.20
   3   5   0   44.68    3.61
  -3   5   0   43.84    4.63
   3   5   0   45.40    4.55
   3  -5   0   47.47    3.73
  -3   5  -1   63.57    4.03
   3   5   1   83.03    5.85
  -3   5  -1   72.81    5.84
  -3   5  -2   39.43    4.11
  -3   5  -2   38.41    4.81
   3   5   2   37.51    4.39
  -3  -5  -2   38.88    4.19
  -3   5  -3   92.75    7.13
   3   5   3   97.25    6.55
  -3   5  -3   81.91    6.00
  -3  -5  -3   97.13    6.12
   3   5   4    2.92    3.17
  -3   5  -4    1.34    3.25
  -3   5  -4   12.26    5.23
  -3  -5  -4    8.93    3.50
   3   5   5   15.51    3.50
  -3   5  -5   10.41    4.24
   3   6  -5   -4.20    2.90
   3  -6  -5    3.25    3.33
   3   6  -4   15.69    4.36
   3  -6  -4   27.58    4.89
   3   6  -3    8.36    2.92
   3   6  -3   10.34    3.57
   3  -6  -3    7.52    2.97
   3   6  -2  123.31    7.44
   3   6  -2  117.21    7.59
  -3   6   2  120.86    7.92
   3  -6  -2  121.46    7.55
   3   6  -1   -0.65    2.24
   3   6  -1   -0.41    2.04
  -3   6   1    4.79    2.75
   3  -6  -1    3.34    2.17
  -3   6   0  155.14    9.07
   3   6   0  145.26    8.11
   3  -6   0  145.71    7.39
  -3   6  -1   -0.76    1.80
  -3   6  -1    1.16    2.50
   3   6   1   -2.82    1.91
  -3   6  -2    1.91    2.42
  -3   6  -2    8.28    3.43
   3   6   2    4.40    2.49
  -3  -6  -2    5.60    2.67
  -3   6  -3    6.96    3.08
   3   6   3    1.75    2.46
  -3   6  -3    9.43    3.63
  -3  -6  -3    9.25    3.04
  -3   6  -4  143.66    9.84
   3   6   4  137.59    8.67
  -3   6  -4  126.05    8.22
   3   6   5    0.91    2.55
  -3   6  -5   -0.51    3.05
   3   7  -5   18.13    4.90
   3  -7  -5   20.15    4.51
   3   7  -4    6.29    3.70
   3  -7  -4    1.78    3.17
   3   7  -3   69.98    6.12
   3   7  -3   64.85    6.71
  -3   7   3   70.60    7.09
   3  -7  -3   73.45    6.57
   3   7  -2    2.75    2.14
  -3   7   2    0.51    2.70
   3   7  -2   -0.34    2.54
   3  -7  -2    0.95    2.38
   3   7  -1  149.92    8.27
  -3   7   1  155.72    9.23
   3  -7  -1  135.71    7.89
  -3   7   0   18.63    3.84
   3   7   0   13.03    2.97
  -3   7  -1   45.04    5.48
   3   7   1   46.35    4.93
  -3   7  -1   46.95    3.99
   3   7   2    1.57    2.32
  -3   7  -2    3.30    3.19
  -3   7  -2    2.66    2.42
  -3   7  -3  120.25    7.28
  -3   7  -3  103.51    8.75
   3   7   3  111.20    8.10
  -3  -7  -3  111.59    6.80
  -3   7  -4    1.42    3.03
  -3   7  -4    2.78    3.78
   3   7   4    1.79    2.75
  -3   7  -5    7.22    4.63
  -3   7  -5   11.25    3.99
   3   7   5    1.17    2.80
   3   8  -5   -0.06    3.35
   3   8  -4   13.24    4.31
   3  -8  -4   15.09    3.87
   3   8  -3   -3.46    2.59
  -3   8   3    0.73    2.68
   3  -8  -3    2.09    2.80
   3   8  -2   98.57    6.77
  -3   8   2   96.40    7.86
   3   8  -2  103.05    7.25
   3  -8  -2  103.47    6.87
  -3   8   1    4.07    3.06
   3   8  -1    1.41    2.49
   3   8  -1    7.31    2.57
   3  -8  -1    4.25    1.20
   3   8   0  134.47    7.94
  -3   8   0  136.38    9.17
  -3   8  -1   -0.68    2.88
   3   8   1    6.96    2.78
   3   8   2   36.19    4.87
  -3   8  -2   39.46    4.21
  -3   8  -2   36.72    5.81
  -3   8  -3   29.16    5.52
   3   8   3   26.76    4.65
  -3   8  -3   26.86    4.03
   3   8   4   53.53    6.12
  -3   8  -4   40.13    6.66
  -3   8  -4   33.81    4.98
  -3   8  -5    8.43    4.81
  -3   8  -5    2.91    3.48
   3   9  -4   -2.40    3.07
   3  -9  -4    3.39    2.89
  -3   9   3   23.62    4.66
   3   9  -3   28.68    5.10
   3  -9  -3   33.17    4.58
  -3   9   2   18.52    3.44
  -3   9   2   32.86    5.34
   3   9  -2   14.19    3.80
   3   9  -2   26.10    3.89
   3  -9  -2   22.51    3.58
   3   9  -1   51.68    5.21
  -3   9   1   41.25    5.92
   3   9   0   -1.04    2.13
  -3   9   0    3.52    3.45
   3   9   1   85.30    6.75
  -3   9  -1   87.12    8.48
  -3   9  -2    0.15    3.70
   3   9   2    6.98    3.08
  -3   9  -3   47.77    7.23
  -3   9  -3   37.10    4.66
   3   9   3   35.51    5.13
   3   9   4   -0.64    2.85
  -3   9  -4    4.13    2.98
  -3   9  -4   -0.33    4.01
   3  10  -4   24.01    5.43
   3 -10  -4   31.15    5.00
   3  10  -3    1.87    3.15
  -3  10   3    4.35    2.97
  -3  10   3    4.91    2.99
   3 -10  -3    8.10    2.83
  -3  10   2   24.54    4.08
  -3  10   2   26.93    4.94
   3  10  -2   26.15    4.66
   3 -10  -2   28.63    4.18
  -3  10   1    4.83    3.72
   3  10  -1    8.19    2.92
  -3  10   0   64.58    7.73
   3  10   0   70.63    6.49
  -3  10  -1    9.10    4.38
   3  10   1    3.99    2.71
   3  10   2  102.44    7.92
  -3  10  -2  123.64   11.02
   3  10   3    3.03    2.99
  -3  10  -3   -1.97    4.11
  -3  10  -4   15.78    5.34
  -3  10  -4    8.81    3.39
   3  11  -3   14.98    4.45
  -3  11   3   14.26    3.85
  -3  11   3   13.95    3.87
   3 -11  -3   30.01    4.59
  -3  11   2    0.74    2.86
   3  11  -2    0.59    2.99
  -3  11   1   37.90    5.94
  -3  11   0    4.77    4.11
   3  11   0    3.58    2.78
  -3  11  -1  121.64   10.22
   3  11   1  123.18    8.45
  -3  11  -2    7.31    4.42
   3  11   2    3.06    3.11
  -3  11  -3    9.36    4.82
  -3  12   2    6.82    3.61
  -3  12   1    1.35    3.11
   3  12   0   29.93    4.73
  -3  12   0   32.88    6.04
  -3  12  -1    1.21    3.54
   3  12   1    3.12    3.00
  -3  12  -2   52.71    7.81
   3  12   2   57.48    6.69
  -3  13   0    1.17    3.45
   4   0  -6   11.98    4.90
   4   0  -5   -1.25    3.55
   4   0  -4   13.42    4.05
   4   0  -3   -0.01    2.81
   4   0  -2  127.35    8.16
   4   0  -1   -0.33    2.19
  -4   0   0  552.61   20.71
   4   0   0  551.64   22.85
  -4   0  -1   -0.69    1.09
   4   0   1   -0.57    1.68
  -4   0  -1   -3.43    2.06
   4   0   2  198.57    9.90
  -4   0  -2  200.43    9.56
  -4   0  -3   -4.53    2.58
  -4   0  -4   -2.58    3.40
  -4   0  -5   -2.09    3.78
   4   1  -6    2.42    4.34
   4  -1  -6   -6.57    3.80
   4   1  -5    3.89    3.87
   4  -1  -5   16.21    4.73
   4   1  -4   -2.66    2.96
   4  -1  -4    0.60    3.24
   4   1  -3    8.58    3.38
   4  -1  -3    9.36    3.37
   4   1  -2    1.74    2.63
   4  -1  -2    3.07    2.61
   4   1  -1  492.46   20.26
   4  -1  -1  468.41   19.98
  -4   1   0    1.29    2.43
  -4   1   0   -0.18    1.25
   4   1   0   -0.95    2.30
  -4  -1   0    2.92    2.41
   4  -1   0    0.11    2.18
   4   1   1   22.30    3.46
  -4   1  -1   32.43    3.11
  -4   1  -1   38.60    3.91
  -4  -1  -1   36.28    4.05
   4   1   2   19.20    3.17
  -4   1  -2   17.72    3.63
  -4  -1  -2   14.72    3.42
   4  -1   2   18.38    2.70
  -4   1  -3  232.63   11.22
   4   1   3  240.69   11.07
  -4  -1  -3  231.54   11.23
  -4   1  -4   -1.14    3.60
  -4  -1  -4    2.16    3.56
  -4   1  -5   17.79    4.88
  -4  -1  -5   13.67    4.63
   4   2  -6   10.10    4.71
   4   2  -6    9.06    4.09
   4   2  -5    3.18    4.00
   4  -2  -5    4.48    3.74
   4   2  -4   25.42    4.70
   4  -2  -4   32.78    4.95
   4   2  -3    4.56    3.18
   4  -2  -3    6.95    2.96
   4   2  -2   79.71    6.63
   4  -2  -2   66.13    5.98
   4   2  -1   63.40    5.74
  -4   2   1   64.12    4.90
   4  -2  -1   68.80    5.56
  -4   2   0  198.90    8.92
   4   2   0  182.01   10.16
  -4   2   0  190.65    9.49
   4  -2   0  208.33    9.96
  -4  -2   0  205.16    9.44
  -4   2  -1   21.09    3.20
   4   2   1   15.32    3.20
   4  -2   1   23.00    3.10
  -4  -2  -1   28.11    3.81
  -4   2  -2  200.63    9.54
   4   2   2  195.29   10.28
  -4   2  -2  207.12    9.89
  -4  -2  -2  200.42    9.79
   4   2   3   52.38    4.88
  -4   2  -3   56.32    5.52
  -4  -2  -3   51.10    5.33
  -4   2  -4   40.14    5.42
  -4  -2  -4   43.37    5.52
  -4   2  -5   36.09    6.08
  -4  -2  -5   31.48    5.85
   4   3  -5   23.11    5.51
   4   3  -5    7.40    3.85
   4  -3  -5   19.15    4.78
   4   3  -4    3.40    3.28
   4   3  -4    2.75    3.39
   4  -3  -4   -3.83    3.06
   4   3  -3   94.86    7.28
   4  -3  -3   83.89    7.09
   4   3  -2   51.82    5.42
   4  -3  -2   55.13    5.44
  -4   3   1  117.17    6.35
  -4   3   1  138.91    7.67
   4   3  -1  137.51    8.26
   4  -3  -1  127.16    7.80
  -4   3   0   34.63    3.74
   4   3   0   25.74    3.95
  -4   3  -1  447.18   17.43
  -4   3  -1  472.87   19.61
   4   3   1  444.27   19.35
  -4  -3  -1  447.91   17.93
   4  -3   1  461.26   18.41
  -4   3  -2    5.17    2.47
   4   3   2   -1.09    2.16
  -4   3  -2    0.51    2.62
  -4  -3  -2    0.15    2.86
  -4   3  -3   13.13    3.75
   4   3   3   15.27    3.05
  -4  -3  -3   11.64    3.63
   4   3   4    0.97    2.07
  -4   3  -4   -0.02    3.57
  -4  -3  -4    4.78    3.73
  -4   3  -5   34.73    5.80
  -4  -3  -5   26.05    5.53
   4   4  -5    1.57    3.20
   4   4  -5   10.00    4.39
   4  -4  -5    4.62    3.66
   4   4  -4   41.62    5.77
   4   4  -4   30.87    5.22
   4  -4  -4   37.89    5.17
   4   4  -3   -2.78    2.49
   4   4  -3    0.14    2.70
   4  -4  -3   -1.05    2.61
  -4   4   2   68.76    6.42
   4   4  -2   68.42    6.25
   4   4  -2   66.18    5.61
   4  -4  -2   71.44    5.98
   4   4  -1   -0.60    2.77
  -4   4   1    4.37    2.40
   4   4  -1    0.83    2.20
   4  -4  -1   -0.14    2.35
   4   4   0  112.69    7.19
  -4   4   0  109.26    6.97
  -4   4   0   98.22    5.96
   4  -4   0   96.92    6.97
  -4   4  -1   10.40    2.95
  -4   4  -1   13.18    3.02
   4   4   1    8.15    2.87
  -4  -4  -1    7.94    2.91
   4   4   2   88.43    6.38
  -4   4  -2   90.83    5.86
  -4   4  -2   90.61    6.58
  -4  -4  -2   83.19    6.14
   4   4   3    6.38    2.86
  -4   4  -3    7.60    3.52
  -4  -4  -3   -0.18    3.12
  -4   4  -4  103.01    8.39
   4   4   4  117.19    7.34
  -4  -4  -4   93.26    7.96
  -4   4  -5   -3.40    3.16
  -4  -4  -5    1.80    3.92
   4   5  -5   25.32    5.03
   4  -5  -5   19.28    4.59
   4   5  -4    0.09    2.95
   4   5  -4    2.10    3.31
   4  -5  -4    3.60    3.34
   4   5  -3  101.33    7.48
   4   5  -3   88.46    7.26
   4  -5  -3  101.54    7.16
   4   5  -2   55.89    5.77
  -4   5   2   47.93    5.51
   4   5  -2   55.57    5.48
   4  -5  -2   54.30    5.30
   4   5  -1    4.86    2.42
  -4   5   1    4.66    2.44
   4   5  -1    4.11    2.71
   4  -5  -1    3.15    2.39
  -4   5   0   13.83    3.21
  -4   5   0   12.40    2.74
   4   5   0    7.26    3.05
   4  -5   0    8.46    2.59
  -4   5  -1  211.61    9.71
  -4   5  -1  236.44   11.72
   4   5   1  219.91   11.45
   4   5   2    4.14    2.72
  -4   5  -2    1.76    2.68
  -4   5  -2    6.34    2.98
  -4  -5  -2    1.40    2.93
  -4   5  -3   64.93    6.88
   4   5   3   65.50    6.51
  -4   5  -3   68.22    6.26
  -4  -5  -3   68.95    6.35
   4   5   4    3.82    2.63
  -4   5  -4   -0.55    3.16
  -4  -5  -4   -4.33    3.40
   4   5   5   40.27    5.30
  -4   5  -5   38.32    5.78
  -4  -5  -5   42.21    6.24
   4   6  -5    0.81    3.51
   4  -6  -5    2.96    3.53
   4   6  -4   32.85    5.36
   4   6  -4   38.93    5.37
   4  -6  -4   36.56    5.43
   4   6  -3   10.40    3.66
   4   6  -3    3.30    3.24
   4  -6  -3    5.80    3.32
   4   6  -2   84.30    6.45
   4   6  -2   90.18    6.89
  -4   6   2   84.23    7.16
   4  -6  -2   87.43    6.48
  -4   6   1   -3.33    2.20
   4   6  -1    2.86    2.68
   4  -6  -1    4.63    2.36
  -4   6   0  117.28    8.05
   4   6   0  122.16    8.00
  -4   6  -1    3.66    2.82
   4   6   1    0.34    2.51
  -4   6  -1    0.79    1.94
   4   6   2   38.24    5.15
  -4   6  -2   39.51    4.56
  -4   6  -2   48.44    5.78
  -4  -6  -2   36.48    4.70
   4   6   3    3.67    3.03
  -4   6  -3    4.17    3.04
  -4   6  -3    2.42    3.46
  -4  -6  -3    0.26    3.08
  -4   6  -4   78.92    7.33
   4   6   4   74.77    7.07
  -4  -6  -4   56.72    6.78
  -4   6  -5    4.57    3.85
   4   6   5    1.37    2.78
   4   7  -5   20.51    5.21
   4   7  -4   -1.99    2.90
   4  -7  -4   -1.12    2.70
   4   7  -3   63.01    6.40
   4   7  -3   64.89    6.78
  -4   7   3   59.48    6.96
   4  -7  -3   67.34    6.37
   4   7  -2    8.84    3.26
   4   7  -2    7.86    3.05
  -4   7   2    8.84    3.92
   4  -7  -2    5.31    2.86
  -4   7   1   27.09    4.73
   4   7  -1   30.38    4.38
   4  -7  -1   28.99    3.62
   4   7   0   38.52    4.91
  -4   7   0   32.68    5.06
   4   7   1   32.34    4.70
  -4   7  -1   34.64    5.27
   4   7   2    4.92    3.56
  -4   7  -2    0.04    3.25
  -4   7  -2   -0.49    2.13
  -4   7  -3   93.80    6.88
  -4   7  -3  106.05    9.36
   4   7   3  114.38    8.08
  -4  -7  -3   97.75    7.02
  -4   7  -4   -0.62    2.81
   4   7   4    3.80    2.92
  -4   7  -4    0.96    4.31
   4   8  -4   16.67    4.62
   4  -8  -4   27.42    4.72
   4   8  -3   -0.99    2.64
  -4   8   3    3.15    3.10
   4   8  -3   -2.93    2.54
   4  -8  -3    3.08    2.85
   4   8  -2   54.32    5.86
  -4   8   2   63.36    6.98
   4   8  -2   71.19    6.52
   4  -8  -2   51.52    5.52
   4   8  -1    7.14    3.19
  -4   8   1   11.33    4.10
  -4   8   0   18.24    4.74
   4   8   0   14.10    3.84
  -4   8  -1    2.09    3.39
   4   8   1    3.28    3.08
   4   8   2   77.31    7.49
  -4   8  -2   72.26    8.01
  -4   8  -3   -1.56    2.70
  -4   8  -3   -0.77    3.87
   4   8   3    0.75    3.02
  -4   8  -4   50.30    7.58
   4   8   4   51.38    6.33
  -4   8  -4   43.28    5.64
   4   9  -4    1.21    3.39
   4  -9  -4    3.10    3.07
   4   9  -3   22.47    4.56
  -4   9   3   25.68    5.03
   4  -9  -3   37.18    5.00
  -4   9   2   13.73    4.22
   4   9  -2   11.41    3.50
   4  -9  -2   13.55    3.38
   4   9  -1   78.13    6.84
  -4   9   1   68.50    7.74
   4   9   0   30.40    4.63
  -4   9   0   20.94    5.18
   4   9   1   37.86    5.37
  -4   9  -1   41.03    6.40
   4   9   2    2.30    3.14
  -4   9  -2    3.00    4.09
  -4   9  -3   14.31    5.29
   4   9   3   11.92    3.83
  -4   9  -3   12.08    3.57
  -4   9  -4    2.15    3.22
   4  10  -3    0.08    3.32
  -4  10   3    1.02    2.90
   4 -10  -3    5.07    3.07
  -4  10   2   37.17    5.74
   4  10  -2   36.09    5.03
  -4  10   1    3.72    3.61
   4  10  -1   -2.28    2.62
   4  10   0   21.55    4.23
  -4  10   0   22.07    5.47
  -4  10  -1    4.15    4.28
   4  10   1   10.37    3.66
   4  10   2   37.36    5.53
  -4  10  -2   42.48    7.11
  -4  10  -3    2.79    4.45
  -4  11   2   -0.99    2.74
   4  11  -1   33.19    4.89
  -4  11   1   30.63    5.57
   4  11   0   -0.23    2.55
  -4  11   0    0.26    3.46
   4  11   1   15.26    3.97
  -4  11  -1   21.82    5.44
  -4  11  -2    7.66    4.88
   4  11   2   -2.07    2.84
  -4  12   1    9.41    3.77
  -4  12   0   37.27    6.25
   4  12   0   43.49    5.63
  -4  12  -1    6.90    4.05
   5   0  -5   -2.33    3.78
   5   0  -4   73.08    7.61
   5   0  -3   -1.10    3.26
   5   0  -2   49.96    5.79
   5   0  -1    1.44    3.01
  -5   0   0   86.49    6.10
   5   0   0   72.78    6.72
  -5   0  -1    2.41    3.09
   5   0   1    1.17    2.61
  -5   0  -2   17.26    3.95
   5   0   2    6.67    2.62
  -5   0  -3   -0.03    3.56
  -5   0  -4  110.16    9.21
  -5   0  -5   -1.14    4.03
   5   1  -5    0.98    4.02
   5  -1  -5    8.56    4.58
   5   1  -4    8.96    4.25
   5  -1  -4    9.34    4.26
   5   1  -3  175.86   10.84
   5  -1  -3  161.90   10.40
   5   1  -2    3.51    3.11
   5  -1  -2   -4.53    2.91
   5   1  -1  144.59    9.31
   5  -1  -1  151.77    9.12
  -5   1   0    9.96    3.46
   5   1   0    7.97    3.60
  -5  -1   0   11.63    3.72
   5  -1   0    9.45    3.38
  -5   1  -1   18.14    3.84
   5   1   1   14.00    3.71
  -5  -1  -1   15.02    3.82
   5  -1   1   12.13    3.08
  -5   1  -2   -1.06    3.04
   5   1   2    2.37    2.40
  -5  -1  -2   -4.25    2.92
  -5   1  -3   66.95    6.75
  -5  -1  -3   57.66    6.39
  -5   1  -4    6.25    4.22
  -5  -1  -4    4.95    4.36
  -5   1  -5   17.42    5.12
  -5  -1  -5   19.76    5.38
   5   2  -5   12.51    4.90
   5  -2  -5   12.76    4.81
   5   2  -4   61.16    7.34
   5  -2  -4   52.89    6.75
   5   2  -3   27.42    4.98
   5  -2  -3   27.08    4.89
   5   2  -2   99.01    7.61
   5  -2  -2   96.48    7.63
   5   2  -1   10.40    3.76
   5  -2  -1   23.08    4.19
  -5   2   0  165.93    8.65
  -5   2   0  162.33    8.81
   5   2   0  176.90   10.13
   5  -2   0  163.09    9.60
  -5   2  -1   13.00    3.44
   5   2   1   14.76    3.78
  -5  -2  -1   22.17    4.24
   5  -2   1   11.04    3.19
   5   2   2   13.87    3.40
  -5   2  -2    7.22    3.44
  -5  -2  -2   11.78    3.89
   5   2   3   27.39    3.99
  -5   2  -3   19.66    6.00
  -5  -2  -3   24.78    5.02
  -5   2  -4   47.72    6.39
  -5  -2  -4   47.96    6.36
  -5   2  -5    0.91    3.84
  -5  -2  -5   -4.94    3.80
   5   3  -5   21.78    5.48
   5   3  -5   33.35    5.56
   5  -3  -5   29.87    5.87
   5   3  -4   13.14    4.57
   5  -3  -4   12.61    4.50
   5   3  -3   72.28    7.17
   5  -3  -3   76.88    7.94
   5   3  -2   21.81    4.43
   5  -3  -2   21.49    4.30
  -5   3   1   16.06    3.34
   5   3  -1   23.79    4.50
   5  -3  -1   16.00    3.81
  -5   3   0    4.94    2.25
  -5   3   0    0.82    2.94
   5   3   0    8.28    3.43
   5  -3   0    3.31    2.93
   5   3   1  118.70    8.03
  -5   3  -1  108.93    6.99
  -5   3  -1  105.01    6.68
  -5  -3  -1  109.18    7.36
   5   3   2    4.74    2.95
  -5   3  -2    7.35    3.37
  -5  -3  -2    2.31    3.39
   5   3   3   49.54    5.50
  -5   3  -3   57.74    6.30
  -5  -3  -3   55.80    6.52
  -5   3  -4   -0.23    3.55
  -5  -3  -4    5.08    4.42
  -5   3  -5   46.36    6.42
  -5  -3  -5   26.67    5.82
   5   4  -5   -1.87    3.76
   5   4  -5    3.51    3.61
   5   4  -4   23.68    5.06
   5   4  -4   17.77    4.19
   5  -4  -4   25.97    5.13
   5   4  -3    4.38    2.96
   5   4  -3    2.32    3.49
   5  -4  -3    3.12    3.30
   5   4  -2   94.47    8.09
   5   4  -2  104.15    6.99
   5  -4  -2   99.62    7.63
  -5   4   1    3.82    2.63
   5   4  -1    0.90    3.19
   5  -4  -1   -0.18    2.85
   5   4   0   76.25    7.04
  -5   4   0   85.20    6.35
  -5   4   0   80.65    5.55
   5  -4   0   79.40    6.44
  -5   4  -1   70.94    6.14
   5   4   1   56.81    5.93
  -5   4  -1   51.24    5.09
  -5  -4  -1   61.01    6.17
   5   4   2   81.46    7.23
  -5   4  -2   72.79    6.53
  -5  -4  -2   87.17    7.43
  -5   4  -3   20.51    4.63
   5   4   3   26.80    4.41
  -5  -4  -3   34.58    5.42
   5   4   4   10.68    3.45
  -5   4  -4    5.38    3.62
  -5  -4  -4   17.13    5.11
   5   5  -4    7.08    4.15
   5   5  -4    3.47    3.20
   5  -5  -4   -0.27    3.19
   5   5  -3   10.50    4.00
   5   5  -3    6.21    3.38
   5  -5  -3    6.84    3.60
  -5   5   2   16.50    4.23
   5   5  -2    9.46    3.09
   5   5  -2    4.83    3.86
   5  -5  -2   13.59    3.80
   5   5  -1  108.06    8.04
  -5   5   1  108.72    8.09
   5  -5  -1  127.59    7.99
   5   5   0    6.01    3.32
  -5   5   0    3.79    2.67
  -5   5  -1  100.58    7.46
  -5   5  -1   99.46    6.24
   5   5   1   91.85    7.96
  -5   5  -2   26.63    4.64
  -5   5  -2   22.64    4.44
   5   5   2   26.07    4.62
  -5  -5  -2   18.87    4.42
  -5   5  -3   10.59    3.66
   5   5   3   13.34    3.59
  -5  -5  -3    7.74    4.22
   5   5   4    2.97    2.86
  -5   5  -4   -1.11    3.13
  -5  -5  -4    0.79    4.45
   5   6  -4   10.74    3.96
   5   6  -4   15.15    4.60
   5  -6  -4    9.69    3.90
   5   6  -3   -0.63    3.53
   5   6  -3    3.38    3.17
   5  -6  -3    1.71    3.14
   5   6  -2   46.45    5.92
  -5   6   2   38.70    5.68
   5  -6  -2   43.94    5.30
   5   6  -1   15.13    3.89
  -5   6   1   16.42    3.97
   5  -6  -1   14.82    3.54
  -5   6   0    4.84    3.12
   5   6   0   -1.91    3.27
   5   6   1    5.70    3.48
  -5   6  -1    1.37    2.97
  -5   6  -2  217.82   12.41
   5   6   2  219.22   12.04
  -5   6  -2  220.82   10.64
  -5  -6  -2  195.23   11.06
  -5   6  -3    0.86    2.85
   5   6   3    0.71    2.72
  -5  -6  -3    5.32    4.16
  -5   6  -4   11.68    4.16
   5   6   4   16.09    3.93
  -5  -6  -4   14.78    5.03
   5   7  -4    3.09    3.56
   5   7  -4    0.15    3.63
   5  -7  -4    0.80    3.24
   5   7  -3    9.78    4.22
   5   7  -3   -0.04    3.15
   5  -7  -3    8.17    3.43
   5   7  -2    1.10    3.16
  -5   7   2    0.33    3.26
   5  -7  -2    0.01    2.71
  -5   7   1  108.44    8.48
   5   7  -1  101.81    7.97
   5   7   0    6.04    3.45
  -5   7   0   10.71    3.76
  -5   7  -1   76.47    8.05
   5   7   1   77.43    7.65
  -5   7  -2    0.43    3.63
   5   7   2    8.60    3.64
  -5   7  -2    4.92    2.99
  -5   7  -3   32.65    4.92
   5   7   3   40.98    5.80
  -5  -7  -3   27.50    5.28
   5   7   4    2.89    3.19
  -5   7  -4   11.71    4.26
  -5  -7  -4    4.30    4.73
   5   8  -3    5.17    3.39
   5  -8  -3    0.07    2.99
   5   8  -2   41.42    5.70
  -5   8   2   27.51    5.38
   5  -8  -2   33.90    4.81
  -5   8   1    3.61    3.78
   5   8  -1    7.67    3.69
   5   8   0   58.13    6.56
  -5   8   0   55.22    6.78
   5   8   1   33.47    5.40
  -5   8  -1   22.65    5.45
  -5   8  -2   50.43    7.20
   5   8   2   60.34    7.01
  -5   8  -3    1.97    4.29
   5   8   3    6.79    3.53
  -5   8  -3    4.55    3.32
   5   9  -3   17.73    4.52
  -5   9   3   10.08    3.88
   5  -9  -3    7.55    3.89
  -5   9   2    4.89    3.55
   5   9  -2    4.56    3.42
   5   9  -1    6.53    3.52
  -5   9   1   10.94    4.44
   5   9   0    2.01    3.18
  -5   9   0    2.52    3.74
  -5   9  -1   72.30    8.59
   5   9   1   65.39    7.23
   5   9   2    5.07    3.52
  -5   9  -2    5.76    4.42
  -5   9  -3   48.79    7.58
   5  10  -2    4.93    3.34
  -5  10   2    0.41    3.01
  -5  10   1    2.76    3.45
   5  10  -1    3.25    3.01
  -5  10   0  113.16    9.25
   5  10   0  102.79    8.28
   5  10   1   -1.99    2.91
  -5  10  -1    4.93    4.41
  -5  10  -2    5.23    4.64
  -5  11   0    1.66    3.58
   6   0  -4    2.20    3.85
   6   0  -3    1.34    3.96
   6   0  -2  161.62   10.80
   6   0  -1    0.21    3.65
  -6   0   0    2.69    3.77
   6   0   0   15.66    4.13
  -6   0  -1    3.18    3.86
   6   0   1   -1.94    2.29
  -6   0  -2  108.04    8.84
  -6   0  -3   -0.88    4.00
  -6   0  -4   60.36    7.28
   6   1  -4    0.08    4.15
   6  -1  -4   11.86    4.48
   6   1  -3   31.00    5.64
   6  -1  -3   31.33    5.66
   6   1  -2    1.69    3.68
   6  -1  -2   10.39    3.89
   6   1  -1    6.76    3.97
   6  -1  -1   -3.67    3.87
  -6   1   0   36.11    5.07
   6   1   0   34.93    5.59
   6  -1   0   30.76    4.87
  -6   1  -1  150.51    9.32
   6   1   1  140.60    9.13
  -6  -1  -1  147.01    9.32
   6  -1   1  134.74    8.63
   6   1   2    4.05    2.63
  -6   1  -2    5.63    3.83
  -6  -1  -2   -0.38    4.02
  -6   1  -3   74.96    7.69
  -6  -1  -3   84.51    8.37
  -6   1  -4   -1.77    4.08
  -6  -1  -4   -0.14    4.36
   6   2  -4   17.34    5.35
   6  -2  -4   21.69    5.30
   6   2  -3    0.38    3.61
   6  -2  -3   -1.27    3.49
   6   2  -2   18.16    4.89
   6  -2  -2   17.33    4.54
   6   2  -1    4.22    4.32
   6  -2  -1    5.28    3.75
   6   2   0   64.92    7.11
  -6   2   0   63.72    6.08
   6  -2   0   66.77    6.51
  -6   2  -1    3.78    3.77
   6   2   1   -5.09    2.99
  -6  -2  -1    5.82    4.22
   6   2   2  106.34    7.47
  -6   2  -2   93.60    8.01
  -6  -2  -2   90.39    8.45
  -6   2  -3   -3.31    3.22
  -6  -2  -3   -0.06    4.32
  -6   2  -4   59.32    7.07
  -6  -2  -4   43.27    6.99
   6   3  -4    1.39    3.81
   6  -3  -4   -0.50    3.61
   6   3  -3   49.85    6.84
   6  -3  -3   51.10    6.43
   6   3  -2   15.17    4.46
   6  -3  -2    7.72    3.77
   6   3  -1   94.92    8.67
   6  -3  -1   81.59    7.44
   6   3   0   30.09    5.25
  -6   3   0   37.96    4.89
  -6   3   0   46.71    5.30
   6  -3   0   25.25    4.54
   6   3   1   53.60    6.31
  -6   3  -1   51.77    5.64
  -6  -3  -1   49.73    6.49
   6   3   2    1.95    2.90
  -6   3  -2    5.08    3.31
  -6  -3  -2    7.79    4.39
   6   3   3   31.33    4.87
  -6   3  -3   34.32    5.38
  -6  -3  -3   45.75    6.63
  -6   3  -4   -1.72    3.51
  -6  -3  -4   -4.99    4.16
   6   4  -4   42.11    6.42
   6   4  -4   30.00    5.32
   6  -4  -4   38.13    6.28
   6   4  -3   -0.02    3.69
   6   4  -3    4.09    2.97
   6  -4  -3   -0.66    3.10
   6   4  -2    6.54    4.24
   6  -4  -2    2.88    3.46
  -6   4   1    3.50    3.14
   6   4  -1    0.98    3.75
   6  -4  -1    5.90    3.22
  -6   4   0  133.20    8.94
   6   4   0  128.95    9.57
   6   4   1   28.17    4.93
  -6   4  -1   20.64    4.06
  -6   4  -2   36.65    5.17
   6   4   2   47.11    5.77
  -6  -4  -2   26.85    5.55
   6   4   3    0.82    2.77
  -6   4  -3   -6.75    2.90
  -6  -4  -3    0.82    4.15
  -6   4  -4   24.52    5.44
  -6  -4  -4   22.98    5.52
   6   5  -4   -2.68    3.08
   6   5  -4   -2.17    3.55
   6   5  -3    9.68    4.45
   6  -5  -3    0.31    3.56
   6   5  -2    7.23    4.36
   6  -5  -2    3.72    3.46
  -6   5   1   85.18    7.96
   6   5  -1   82.04    7.90
   6  -5  -1   77.72    7.17
  -6   5   0   -2.67    2.77
   6   5   0    0.35    3.75
   6   5   1   38.08    5.70
   6   5   2    5.78    3.27
  -6   5  -2    1.90    3.18
  -6  -5  -2    0.47    3.96
   6   5   3   49.75    6.25
  -6   5  -3   48.93    6.13
  -6  -5  -3   45.74    6.55
   6   6  -3    0.25    3.62
   6  -6  -3   -1.14    3.44
   6   6  -2   72.17    7.81
   6  -6  -2   73.76    7.32
  -6   6   1   -0.09    3.24
   6   6  -1   10.35    4.20
   6   6   0   60.03    7.18
  -6   6   0   77.86    7.64
  -6   6  -1    1.72    3.38
   6   6   1    1.36    3.36
  -6   6  -2   17.63    4.03
   6   6   2   23.11    4.48
  -6   6  -3    0.58    3.26
   6   6   3    4.53    3.44
  -6  -6  -3   -2.07    4.21
   6   7  -3   10.76    4.19
   6  -7  -3   12.98    4.47
   6   7  -2    9.89    3.85
  -6   7   2    8.45    4.09
   6   7  -1   58.71    7.11
  -6   7   1   62.75    7.44
   6   7   0    7.24    3.80
  -6   7   0    1.69    3.84
  -6   7  -1   32.36    5.61
   6   7   1   29.05    5.51
   6   7   2    4.61    3.37
  -6   7  -3   18.45    4.52
  -6  -7  -3   25.00    5.85
  -6   8   2   26.34    5.36
   6   8  -2   25.74    5.12
   6   8  -1    4.36    3.76
  -6   8   1    6.91    3.79
  -6   8   0   22.88    5.24
   6   8   0   23.67    5.09
  -6   8  -1    6.16    4.03
   6   8   1    2.07    3.43
  -6   9   1   43.11    6.72
  -6   9   0    2.57    3.78
  -6   9  -1   23.37    5.39
   7   0  -3   -0.86    3.81
   7   0  -2   21.83    5.13
   7   0  -1   -1.43    3.41
   7   0   0   43.60    6.08
  -7   0  -1    2.24    3.68
   7   0   1    0.79    2.80
  -7   0  -2   25.96    5.48
  -7   0  -3   -0.97    3.89
   7   1  -3   14.27    5.10
   7  -1  -3   29.54    5.62
   7   1  -2   -1.99    3.61
   7  -1  -2    4.43    3.72
   7   1  -1   41.42    6.28
   7  -1  -1   35.46    5.76
   7   1   0    4.08    3.69
  -7   1   0    0.20    3.71
   7  -1   0   -2.01    3.26
   7   1   1   50.16    6.41
  -7   1  -1   50.72    6.32
  -7  -1  -1   54.24    6.62
  -7   1  -2   -0.53    3.54
  -7  -1  -2   -1.12    3.72
  -7   1  -3   21.50    5.34
  -7  -1  -3    9.33    4.69
   7   2  -3   -1.94    3.90
   7  -2  -3   -1.58    3.85
   7   2  -2   47.08    6.63
   7  -2  -2   41.12    6.10
   7   2  -1    9.84    4.47
   7  -2  -1    8.69    4.22
  -7   2   0   39.62    5.48
   7   2   0   39.80    5.82
   7  -2   0   39.74    5.64
   7   2   1    6.03    3.71
  -7   2  -1    1.83    3.63
  -7  -2  -1    5.18    4.33
  -7   2  -2   25.26    5.38
  -7  -2  -2   25.56    5.54
  -7   2  -3    5.71    4.33
  -7  -2  -3    4.88    4.62
   7  -3  -3    7.19    4.49
   7   3  -2    2.04    4.04
   7  -3  -2   -1.07    3.26
   7   3  -1   46.93    6.75
   7  -3  -1   46.53    6.26
   7   3   0    1.30    3.27
  -7   3  -1   35.02    5.36
   7   3   1   29.17    5.30
  -7   3  -2    3.47    3.80
   7   3   2    5.83    3.40
  -7  -3  -2    5.85    4.44
  -7   3  -3   13.06    4.81
  -7  -3  -3   19.90    5.66
   7   4  -2   47.77    6.82
   7  -4  -2   35.02    5.92
   7   4  -1    5.94    3.95
   7   4   0   41.05    6.35
   7   4   1    0.31    3.12
   7   4   2   17.58    4.44
  -7   4  -2   15.11    4.71
  -7  -4  -2   20.99    5.19
   7  -5  -2    1.93    3.70
   7   5  -1   29.59    5.56
   7   5   0    5.62    3.95
   7   5   1   19.26    5.07
  -7   5  -2    1.10    3.54
   7   5   2    7.71    3.70
  -7   6   1    2.89    3.77
   7   6   0   29.88    5.62
   7   6   1   -1.03    3.15
  -7   7   0    5.68    4.15
   8   0  -1    0.94    3.96
   8   0   0   21.48    4.85
   8  -1  -1   19.58    5.11
   8   1   0   -2.35    3.33
   8   2   0   23.37    5.20
   0   0   0    0.00    0.00
;
_shelx_hkl_checksum              6955
loop_
_space_group_symop_operation_xyz
'x, y, z'
'-x, y+1/2, -z+1/2'
'-x, -y, -z'
'x, -y-1/2, z-1/2'
loop_
_atom_site_label
_atom_site_type_symbol
_atom_site_fract_x
_atom_site_fract_y
_atom_site_fract_z
_atom_site_U_iso_or_equiv
_atom_site_adp_type
_atom_site_occupancy
_atom_site_site_symmetry_order
_atom_site_calc_flag
_atom_site_refinement_flags_posn
_atom_site_refinement_flags_adp
_atom_site_refinement_flags_occupancy
_atom_site_disorder_assembly
_atom_site_disorder_group
Cu1 Cu 0.5000 0.0000 0.0000 0.0192(3) Uani 1 2 d S T P . .
O1 O 0.2984(5) 0.0879(3) 0.3047(6) 0.0281(9) Uani 1 1 d . . . . .
N1 N 0.0917(6) 0.0986(4) 0.2656(8) 0.0215(9) Uani 1 1 d . . . . .
C1 C -0.0335(8) 0.0427(5) 0.0909(9) 0.0188(10) Uani 1 1 d . . . . .
N2 N -0.0292(7) 0.1701(4) 0.4090(8) 0.0246(10) Uani 1 1 d . . . . .
N3 N -0.2268(7) 0.1576(4) 0.3237(8) 0.0264(10) Uani 1 1 d . . . . .
N4 N -0.2343(6) 0.0793(4) 0.1305(7) 0.0209(9) Uani 1 1 d . . . . .
O2 O 0.5761(6) -0.1426(3) 0.2202(7) 0.0294(9) Uani 1 1 d . . . . .
H2A H 0.4768 -0.1981 0.2119 0.044 Uiso 1 1 d GR . . . .
H2B H 0.5908 -0.1191 0.3747 0.044 Uiso 1 1 d GR . . . .
loop_
_atom_site_aniso_label
_atom_site_aniso_U_11
_atom_site_aniso_U_22
_atom_site_aniso_U_33
_atom_site_aniso_U_23
_atom_site_aniso_U_13
_atom_site_aniso_U_12
Cu1 0.0160(4) 0.0166(4) 0.0247(5) -0.0018(4) -0.0027(3) -0.0017(4)
O1 0.0156(18) 0.036(2) 0.033(2) -0.0050(16) -0.0043(15) 0.0027(15)
N1 0.019(2) 0.019(2) 0.027(2) -0.0008(17) -0.0031(17) -0.0020(16)
C1 0.019(2) 0.019(2) 0.018(2) 0.0033(19) -0.0051(19) 0.0001(19)
N2 0.021(2) 0.026(2) 0.027(2) -0.0115(19) 0.0027(17) -0.0039(18)
N3 0.024(2) 0.024(2) 0.031(3) -0.0096(19) 0.0020(19) -0.0009(18)
N4 0.016(2) 0.021(2) 0.026(2) -0.0050(17) 0.0016(17) -0.0030(16)
O2 0.039(2) 0.0179(18) 0.031(2) 0.0018(16) -0.0039(17) -0.0015(16)
loop_
_atom_type_symbol
_atom_type_description
_atom_type_scat_dispersion_real
_atom_type_scat_dispersion_imag
_atom_type_scat_source
C C 0.0033 0.0016 'International Tables Vol C Tables 4.2.6.8 and 6.1.1.4'
H H 0.0000 0.0000 'International Tables Vol C Tables 4.2.6.8 and 6.1.1.4'
Cu Cu 0.3201 1.2651 'International Tables Vol C Tables 4.2.6.8 and 6.1.1.4'
N N 0.0061 0.0033 'International Tables Vol C Tables 4.2.6.8 and 6.1.1.4'
O O 0.0106 0.0060 'International Tables Vol C Tables 4.2.6.8 and 6.1.1.4'
loop_
_geom_angle_atom_site_label_1
_geom_angle_atom_site_label_2
_geom_angle_atom_site_label_3
_geom_angle
_geom_angle_site_symmetry_1
_geom_angle_site_symmetry_3
O1 Cu1 O1 180.0 . 3_655
N4 Cu1 O1 87.78(15) 1_655 3_655
N4 Cu1 O1 87.78(15) 3 .
N4 Cu1 O1 92.22(15) 3 3_655
N4 Cu1 O1 92.22(15) 1_655 .
N4 Cu1 N4 180.0(2) 3 1_655
N4 Cu1 O2 92.90(15) 1_655 3_655
N4 Cu1 O2 87.10(15) 3 3_655
N4 Cu1 O2 92.90(15) 3 .
N4 Cu1 O2 87.10(15) 1_655 .
O2 Cu1 O1 88.07(14) . 3_655
O2 Cu1 O1 91.93(14) . .
O2 Cu1 O1 91.93(14) 3_655 3_655
O2 Cu1 O1 88.07(14) 3_655 .
O2 Cu1 O2 180.0 . 3_655
N1 O1 Cu1 118.9(3) . .
O1 N1 C1 128.5(4) . .
O1 N1 N2 122.0(4) . .
N2 N1 C1 109.5(4) . .
N1 C1 C1 126.6(6) . 3
N4 C1 N1 106.5(4) . .
N4 C1 C1 126.8(5) . 3
N3 N2 N1 106.3(4) . .
N2 N3 N4 110.3(4) . .
C1 N4 Cu1 126.4(3) . 1_455
C1 N4 N3 107.4(4) . .
N3 N4 Cu1 124.1(3) . 1_455
Cu1 O2 H2A 110.8 . .
Cu1 O2 H2B 110.3 . .
H2A O2 H2B 108.2 . .
loop_
_geom_bond_atom_site_label_1
_geom_bond_atom_site_label_2
_geom_bond_distance
_geom_bond_site_symmetry_2
Cu1 O1 2.299(4) 3_655
Cu1 O1 2.299(4) .
Cu1 N4 1.984(4) 3
Cu1 N4 1.984(4) 1_655
Cu1 O2 2.003(4) .
Cu1 O2 2.003(4) 3_655
O1 N1 1.309(5) .
N1 C1 1.349(6) .
N1 N2 1.343(6) .
C1 C1 1.420(11) 3
C1 N4 1.341(6) .
N2 N3 1.313(6) .
N3 N4 1.342(5) .
N4 Cu1 1.984(4) 1_455
O2 H2A 0.8685 .
O2 H2B 0.8681 .
loop_
_geom_torsion_atom_site_label_1
_geom_torsion_atom_site_label_2
_geom_torsion_atom_site_label_3
_geom_torsion_atom_site_label_4
_geom_torsion
_geom_torsion_site_symmetry_1
_geom_torsion_site_symmetry_2
_geom_torsion_site_symmetry_3
_geom_torsion_site_symmetry_4
Cu1 O1 N1 C1 15.3(6) . . . .
Cu1 O1 N1 N2 -166.2(3) . . . .
O1 N1 C1 C1 0.6(10) . . . 3
O1 N1 C1 N4 177.8(4) . . . .
O1 N1 N2 N3 -178.4(4) . . . .
N1 C1 N4 Cu1 -162.9(3) . . . 1_455
N1 C1 N4 N3 1.1(5) . . . .
N1 N2 N3 N4 0.4(5) . . . .
C1 N1 N2 N3 0.3(5) . . . .
C1 C1 N4 Cu1 14.2(9) 3 . . 1_455
C1 C1 N4 N3 178.2(6) 3 . . .
N2 N1 C1 C1 -178.0(6) . . . 3
N2 N1 C1 N4 -0.9(5) . . . .
N2 N3 N4 Cu1 163.6(3) . . . 1_455
N2 N3 N4 C1 -0.9(5) . . . .
