#------------------------------------------------------------------------------
#$Date: 2021-04-08 12:43:29 +0300 (Thu, 08 Apr 2021) $
#$Revision: 263984 $
#$URL: file:///home/coder/svn-repositories/cod/cif/1/56/15/1561578.cif $
#------------------------------------------------------------------------------
#
# This file is available in the Crystallography Open Database (COD),
# http://www.crystallography.net/
#
# All data on this site have been placed in the public domain by the
# contributors.
#
data_1561578
loop_
_publ_author_name
'Greenfield, Joshua T.'
'Ovidiu Garlea, V.'
'Kamali, Saeed'
'Chen, Michael'
'Kovnir, Kirill'
_publ_section_title
;
 Synthesis, crystal growth, structural and magnetic characterization of
 NH4MCl2(HCOO), M=(Fe, Co, Ni)
;
_journal_name_full               'Journal of Solid State Chemistry'
_journal_page_first              222
_journal_page_last               229
_journal_paper_doi               10.1016/j.jssc.2015.09.016
_journal_volume                  236
_journal_year                    2016
_chemical_formula_sum            'C H5 Cl2 Co N O2'
_chemical_formula_weight         192.89
_chemical_name_common            NH4CoCl2(HCOO)
_chemical_name_systematic        NH4CoCl2(HCOO)
_space_group_crystal_system      monoclinic
_space_group_IT_number           15
_space_group_name_Hall           '-C 2yc'
_space_group_name_H-M_alt        'C 1 2/c 1'
_atom_sites_solution_hydrogens   difmap
_atom_sites_solution_primary     direct
_atom_sites_solution_secondary   difmap
_audit_creation_method           manual
_cell_angle_alpha                90
_cell_angle_beta                 107.90(3)
_cell_angle_gamma                90
_cell_formula_units_Z            4
_cell_length_a                   7.7302(15)
_cell_length_b                   11.269(2)
_cell_length_c                   6.8439(14)
_cell_measurement_temperature    90(2)
_cell_measurement_theta_max      30.525
_cell_measurement_theta_min      3.307
_cell_volume                     567.3(2)
_computing_cell_refinement       'APEX2 V2014.11-0 (Bruker, 2014)'
_computing_data_collection       'APEX2 V2014.11-0 (Bruker, 2014)'
_computing_data_reduction        'SAINT V8.30A (Bruker, 2012)'
_computing_publication_material  'SHELXL-2014/7 (Sheldrick, 2014)'
_computing_structure_refinement  'SHELXL-2014/7 (Sheldrick, 2014)'
_computing_structure_solution    'SHELXTL-2013/1 (Bruker, 2013)'
_diffrn_ambient_temperature      90(2)
_diffrn_measured_fraction_theta_full 1.000
_diffrn_measured_fraction_theta_max 1.000
_diffrn_measurement_device_type  'Bruker APEX II CCD area-detector'
_diffrn_measurement_method       'profile data from \w scans'
_diffrn_radiation_type           MoK\a
_diffrn_radiation_wavelength     0.71073
_diffrn_reflns_av_unetI/netI     0.0107
_diffrn_reflns_Laue_measured_fraction_full 1.000
_diffrn_reflns_Laue_measured_fraction_max 1.000
_diffrn_reflns_limit_h_max       11
_diffrn_reflns_limit_h_min       -11
_diffrn_reflns_limit_k_max       16
_diffrn_reflns_limit_k_min       -16
_diffrn_reflns_limit_l_max       9
_diffrn_reflns_limit_l_min       -9
_diffrn_reflns_number            875
_diffrn_reflns_point_group_measured_fraction_full 1.000
_diffrn_reflns_point_group_measured_fraction_max 1.000
_diffrn_reflns_theta_full        25.242
_diffrn_reflns_theta_max         30.525
_diffrn_reflns_theta_min         3.307
_diffrn_source                   'fine-focus sealed tube'
_exptl_absorpt_coefficient_mu    3.853
_exptl_absorpt_correction_T_max  0.746
_exptl_absorpt_correction_T_min  0.570
_exptl_absorpt_correction_type   multi-scan
_exptl_absorpt_process_details   'TWINABS 2008/1 (Bruker, 2008)'
_exptl_crystal_colour            purple
_exptl_crystal_density_diffrn    2.258
_exptl_crystal_density_method    'not measured'
_exptl_crystal_description       needle
_exptl_crystal_F_000             380
_exptl_crystal_size_max          0.300
_exptl_crystal_size_mid          0.074
_exptl_crystal_size_min          0.065
_refine_diff_density_max         0.308
_refine_diff_density_min         -0.327
_refine_diff_density_rms         0.064
_refine_ls_extinction_coef       .
_refine_ls_extinction_method     none
_refine_ls_goodness_of_fit_ref   1.104
_refine_ls_hydrogen_treatment    refall
_refine_ls_matrix_type           full
_refine_ls_number_parameters     45
_refine_ls_number_reflns         875
_refine_ls_number_restraints     0
_refine_ls_restrained_S_all      1.104
_refine_ls_R_factor_all          0.0159
_refine_ls_R_factor_gt           0.0139
_refine_ls_shift/su_max          0.000
_refine_ls_shift/su_mean         0.000
_refine_ls_structure_factor_coef Fsqd
_refine_ls_weighting_details
'w=1/[\s^2^(Fo^2^)+(0.0150P)^2^+0.5797P] where P=(Fo^2^+2Fc^2^)/3'
_refine_ls_weighting_scheme      calc
_refine_ls_wR_factor_gt          0.0326
_refine_ls_wR_factor_ref         0.0335
_reflns_Friedel_coverage         0.000
_reflns_Friedel_fraction_full    .
_reflns_Friedel_fraction_max     .
_reflns_number_gt                805
_reflns_number_total             875
_reflns_threshold_expression     'I > 2\s(I)'
_cod_data_source_file            JSSC-2016-236-222.cif
_cod_data_source_block           JG260_twin4
_cod_original_sg_symbol_H-M      'C 2/c'
_cod_database_code               1561578
_shelx_shelxl_version_number     2014/7
_shelx_space_group_comment
;
The symmetry employed for this shelxl refinement is uniquely defined
by the following loop, which should always be used as a source of
symmetry information in preference to the above space-group names.
They are only intended as comments.
;
_shelxl_version_number           2013-4
_shelx_res_file
;

TITL twin4 in C2/c
CELL 0.71073 7.7302 11.2690 6.8439 90.000 107.896 90.000
ZERR 4.0000 0.0015 0.0023 0.0014 0.000 0.030 0.000
LATT 7
SYMM -X, Y, 0.5-Z
SFAC C H N O CL CO
UNIT 4 20 4 8 8 4
MERG 2
FMAP 2
GRID
PLAN
TEMP -183
HTAB N1 O1
L.S. 20
ACTA
WGHT    0.013300    0.602700
FVAR       0.51346
CO1   6    0.000000    0.000000    0.000000    10.50000    0.01036    0.00799 =
         0.00595   -0.00006    0.00312   -0.00003
CL1   5   -0.230145   -0.044763    0.170160    11.00000    0.01023    0.01277 =
         0.00757   -0.00109    0.00323   -0.00171
O1    4    0.008580    0.175685    0.088129    11.00000    0.01807    0.00920 =
         0.00908   -0.00005    0.00638   -0.00018
N1    3    0.000000    0.325402   -0.250000    10.50000    0.01617    0.01082 =
         0.00936    0.00000    0.00392    0.00000
C1    1    0.000000    0.225673    0.250000    10.50000    0.01390    0.00895 =
         0.01124    0.00000    0.00558    0.00000
H1    2    0.000000    0.311478    0.250000    10.50000    0.01907
H3    2    0.094062    0.370179   -0.229482    11.00000    0.03129
H2    2    0.014645    0.279049   -0.136629    11.00000    0.02643
HKLF 4

REM  twin4 in C2/c
REM R1 =  0.0139 for     805 Fo > 4sig(Fo)  and  0.0159 for all     875 data
REM     45 parameters refined using      0 restraints

END

WGHT      0.0133      0.6026

REM Highest difference peak  0.308,  deepest hole -0.327,  1-sigma level  0.064
Q1    1   0.0124  0.1983  0.1685  11.00000  0.05    0.31
Q2    1  -0.0141  0.2085  0.0153  11.00000  0.05    0.26
Q3    1  -0.0070  0.1239  0.0563  11.00000  0.05    0.25
Q4    1  -0.1417 -0.0344  0.3498  11.00000  0.05    0.24
Q5    1   0.0589  0.2243  0.1159  11.00000  0.05    0.24
Q6    1   0.0000  0.2764  0.2500  10.50000  0.05    0.22
Q7    1  -0.2194  0.0444  0.3442  11.00000  0.05    0.20
Q8    1  -0.2243  0.0447  0.1671  11.00000  0.05    0.20
Q9    1  -0.3169 -0.0010  0.1196  11.00000  0.05    0.19
Q10   1   0.0867  0.1737  0.0580  11.00000  0.05    0.19
Q11   1  -0.3201  0.0862  0.0849  11.00000  0.05    0.18
Q12   1  -0.1062  0.0875  0.0012  11.00000  0.05    0.18
Q13   1  -0.1691  0.0472  0.0865  11.00000  0.05    0.18
Q14   1  -0.1099 -0.0490  0.1441  11.00000  0.05    0.17
Q15   1   0.2408  0.2406 -0.0319  11.00000  0.05    0.17
Q16   1  -0.2018 -0.1084  0.2492  11.00000  0.05    0.17
Q17   1   0.0000  0.3564  0.2500  10.50000  0.05    0.16
Q18   1  -0.2982 -0.0565  0.2779  11.00000  0.05    0.16
Q19   1  -0.0377  0.0879  0.1362  11.00000  0.05    0.16
Q20   1  -0.3134 -0.1168  0.1608  11.00000  0.05    0.16
;
_shelx_res_checksum              4958
_shelx_hkl_file
;
   2   0   0 1921.08   13.07
   4   0   0 9999.99   62.21
   6   0   0  466.78    6.42
   8   0   0 1752.50   19.70
  10   0   0  211.87   11.53
   1   1   0 4434.15   21.04
   3   1   0  967.90    5.68
   5   1   0 2898.77   15.02
   7   1   0   32.81    1.50
   9   1   0 1216.49   14.07
   0   2   0 4417.44   29.51
   2   2   0  963.66    5.72
   4   2   0 1915.56   10.32
   6   2   0   12.08    0.92
   8   2   0  486.95    7.90
  10   2   0   16.13    3.40
   1   3   0 1289.56    6.57
   3   3   0  262.26    2.45
   5   3   0 1144.25    7.48
   7   3   0   20.99    1.54
   9   3   0  605.25    9.64
   0   4   0 3914.02   25.23
   2   4   0  361.04    2.86
   4   4   0 2042.91   11.79
   6   4   0  231.70    3.77
   8   4   0  534.75    7.62
  10   4   0  106.71    5.37
   1   5   0 2823.94   13.67
   3   5   0 1676.35    9.26
   5   5   0 1203.86    9.46
   7   5   0  458.88    6.71
   9   5   0  383.29    9.53
   0   6   0 2866.76   20.09
   2   6   0 3194.77   15.71
   4   6   0 1470.70    9.73
   6   6   0  996.40   10.14
   8   6   0  437.81    8.31
   1   7   0  841.17    5.81
   3   7   0 1062.89    7.03
   5   7   0  240.91    4.37
   7   7   0  550.38    9.20
   9   7   0   36.93    3.28
   0   8   0    6.62    0.93
   2   8   0 1229.09    7.93
   4   8   0    3.85    0.90
   6   8   0  524.62    8.73
   8   8   0   29.70    2.88
   1   9   0  494.03    4.58
   3   9   0  993.77    7.98
   5   9   0   71.07    3.17
   7   9   0  829.62   12.27
   0  10   0    2.06    0.92
   2  10   0 2273.93   14.38
   4  10   0    5.62    1.38
   6  10   0  931.54   12.94
   8  10   0   25.65    3.06
   1  11   0  476.35    5.39
   3  11   0  900.77   11.53
   5  11   0   39.90    2.71
   7  11   0  739.12   12.19
   0  12   0   34.60    2.50
   2  12   0 2106.36   17.74
   4  12   0   42.46    2.80
   6  12   0  920.98   13.57
   1  13   0  295.19    6.30
   3  13   0  549.16    9.42
   5  13   0   57.14    3.41
   0  14   0   13.05    4.38
   2  14   0  484.27   10.13
   4  14   0    0.68    1.29
   1  15   0  121.78    6.69
   3  15   0  190.41    6.84
   0  16   0  126.77   10.48
 -10   0   1    1.03    1.76
  -8   0   1    0.38    0.86
  -6   0   1    0.54    0.60
  -4   0   1    1.53    0.52
  -2   0   1    0.32    0.35
   0   0   1    0.14    0.24
   2   0   1    0.32    0.38
   4   0   1    0.78    0.51
   6   0   1    1.47    0.95
   8   0   1    0.29    1.16
  10   0   1    0.00    2.88
  -9   1   1   23.54    2.06
  -7   1   1   73.86    1.67
  -5   1   1   30.57    0.91
  -3   1   1  277.95    2.04
  -1   1   1    3.52    0.33
   1   1   1  314.10    1.84
   3   1   1   83.93    1.13
   5   1   1   37.32    1.07
   7   1   1   55.23    1.87
   9   1   1    0.22    1.33
 -10   2   1    0.47    1.82
  -8   2   1    7.29    1.07
  -6   2   1  109.99    1.93
  -4   2   1    0.33    0.30
  -2   2   1 1776.63    7.37
   0   2   1    2.43    0.27
   2   2   1 2164.30    7.77
   4   2   1   37.44    0.91
   6   2   1  512.72    4.40
   8   2   1   16.75    1.71
  10   2   1   94.13    4.38
  -9   3   1  291.30    5.49
  -7   3   1  301.11    3.49
  -5   3   1  608.44    3.81
  -3   3   1  417.49    2.74
  -1   3   1 1050.80    4.34
   1   3   1   36.79    0.78
   3   3   1   69.65    1.27
   5   3   1   40.63    1.23
   7   3   1   17.69    1.39
   9   3   1   94.66    3.66
 -10   4   1   30.63    3.14
  -8   4   1   31.20    2.17
  -6   4   1    0.77    0.51
  -4   4   1  883.69    4.72
  -2   4   1   84.32    1.05
   0   4   1 4121.58   12.99
   2   4   1  230.25    2.05
   4   4   1 1985.61    8.68
   6   4   1  158.87    2.72
   8   4   1  560.85    7.56
  -9   5   1  259.66    5.44
  -7   5   1  696.40    7.43
  -5   5   1  577.02    4.38
  -3   5   1  965.00    4.83
  -1   5   1  469.53    2.80
   1   5   1  281.34    2.30
   3   5   1   17.52    0.81
   5   5   1   11.07    1.02
   7   5   1   66.60    2.43
   9   5   1   95.57    4.37
 -10   6   1    0.68    1.43
  -8   6   1    1.65    1.17
  -6   6   1  157.64    3.42
  -4   6   1  103.49    1.65
  -2   6   1 1193.66    5.40
   0   6   1  637.98    3.60
   2   6   1 1741.62    7.68
   4   6   1  497.45    4.40
   6   6   1  785.46    7.59
   8   6   1  188.00    4.25
  -9   7   1  345.61    6.61
  -7   7   1  299.64    5.31
  -5   7   1  616.09    6.59
  -3   7   1  435.29    3.24
  -1   7   1  329.61    2.64
   1   7   1  171.94    1.88
   3   7   1    5.45    0.71
   5   7   1    1.54    0.86
   7   7   1   50.62    2.37
   9   7   1   58.77    3.87
  -8   8   1    2.28    1.28
  -6   8   1   33.34    2.09
  -4   8   1  135.30    2.73
  -2   8   1  357.82    3.03
   0   8   1  358.08    2.96
   2   8   1  611.53    4.43
   4   8   1  319.94    3.97
   6   8   1  327.52    5.04
   8   8   1  113.57    4.10
  -9   9   1   62.83    3.48
  -7   9   1  138.23    4.16
  -5   9   1  119.75    3.35
  -3   9   1  142.86    2.75
  -1   9   1  111.26    1.77
   1   9   1   25.28    1.11
   3   9   1   10.10    1.09
   5   9   1    1.23    0.88
   7   9   1    4.33    1.45
  -8  10   1    1.68    1.37
  -6  10   1    1.58    1.08
  -4  10   1   47.05    1.96
  -2  10   1    6.71    0.90
   0  10   1  146.20    2.30
   2  10   1    4.90    0.80
   4  10   1  147.96    3.37
   6  10   1    5.18    1.43
  -7  11   1    4.23    1.42
  -5  11   1    0.47    0.99
  -3  11   1    1.62    0.84
  -1  11   1    0.61    0.68
   1  11   1    0.91    0.63
   3  11   1    1.25    0.85
   5  11   1    1.28    1.07
   7  11   1    0.97    1.40
  -6  12   1    0.11    0.96
  -4  12   1    5.07    1.39
  -2  12   1    6.33    1.16
   0  12   1   35.14    1.73
   2  12   1    8.77    1.15
   4  12   1   33.24    2.54
   6  12   1    2.54    1.35
  -5  13   1   31.41    2.71
  -3  13   1   65.76    2.62
  -1  13   1   32.10    2.26
   1  13   1    8.92    1.35
   3  13   1    1.95    1.18
   5  13   1    2.34    1.25
  -4  14   1   81.42    3.42
  -2  14   1   31.01    2.72
   0  14   1  228.35    4.91
   2  14   1   69.80    3.70
   4  14   1  215.85    5.40
  -3  15   1   83.94    4.19
  -1  15   1   90.17    3.76
   1  15   1    8.97    3.11
   3  15   1    5.01    1.88
   0  16   1   46.74    6.96
 -10   0   2    7.66    3.21
  -8   0   2  930.11   10.36
  -6   0   2  495.39    5.40
  -4   0   2 1054.45    6.83
  -2   0   2 3026.85   13.29
   0   0   2   37.24    1.23
   2   0   2 4076.82   17.95
   4   0   2   16.83    1.09
   6   0   2 1811.77   14.94
   8   0   2   63.56    4.20
  -9   1   2    6.55    1.27
  -7   1   2 2730.44   13.58
  -5   1   2   23.79    0.82
  -3   1   2 8813.57   26.21
  -1   1   2  108.83    1.03
   1   1   2 8124.76   24.34
   3   1   2  322.51    2.72
   5   1   2 1471.59    7.73
   7   1   2  306.26    4.57
   9   1   2  156.29    4.62
 -10   2   2   28.40    2.75
  -8   2   2  895.78    7.44
  -6   2   2  632.43    4.65
  -4   2   2 1379.90    6.57
  -2   2   2 3977.21   13.75
   0   2   2  834.34    3.81
   2   2   2 5054.83   17.37
   4   2   2  128.09    1.88
   6   2   2 2258.33   12.86
   8   2   2    3.16    1.20
  -9   3   2    2.64    1.15
  -7   3   2 1046.25    7.56
  -5   3   2    8.14    0.73
  -3   3   2 2415.15   10.46
  -1   3   2   46.78    0.86
   1   3   2 2302.41    9.73
   3   3   2  130.47    1.71
   5   3   2  818.78    6.19
   7   3   2  207.94    3.97
   9   3   2  127.99    4.92
 -10   4   2   60.66    3.49
  -8   4   2  408.17    5.47
  -6   4   2  392.18    4.21
  -4   4   2  702.50    5.06
  -2   4   2 1609.55    7.46
   0   4   2  714.61    3.61
   2   4   2 1906.13    9.22
   4   4   2  203.72    2.78
   6   4   2  859.99    6.97
   8   4   2   38.02    2.66
  -9   5   2  253.30    5.37
  -7   5   2  872.02    7.04
  -5   5   2  852.57    6.27
  -3   5   2 2331.78   10.58
  -1   5   2 1596.57    6.40
   1   5   2 2219.41    9.43
   3   5   2  911.59    6.25
   5   5   2  753.08    6.27
   7   5   2  272.17    4.72
   9   5   2  171.43    5.01
 -10   6   2  300.55    6.33
  -8   6   2  351.93    5.74
  -6   6   2  802.02    6.54
  -4   6   2 1135.90    7.41
  -2   6   2 1370.66    6.80
   0   6   2 1590.77    6.91
   2   6   2  870.70    5.37
   4   6   2  831.21    6.46
   6   6   2  265.87    4.11
   8   6   2  248.97    5.57
  -9   7   2  503.55    8.14
  -7   7   2  191.94    4.21
  -5   7   2 1443.90    9.83
  -3   7   2  490.81    4.33
  -1   7   2 2415.26    9.42
   1   7   2  690.57    4.67
   3   7   2 1281.81    8.18
   5   7   2  442.50    5.07
   7   7   2  333.47    5.50
  -8   8   2   69.89    3.10
  -6   8   2  455.42    5.57
  -4   8   2  540.53    5.05
  -2   8   2  402.29    3.62
   0   8   2 1396.35    7.18
   2   8   2  162.66    2.66
   4   8   2 1327.14    9.26
   6   8   2   27.36    2.12
   8   8   2  586.43   10.78
  -9   9   2  303.30    6.50
  -7   9   2   39.70    2.60
  -5   9   2  968.45    8.95
  -3   9   2   55.68    1.71
  -1   9   2 1324.02    6.98
   1   9   2    2.97    0.65
   3   9   2  681.84    6.20
   5   9   2   42.04    2.42
   7   9   2  132.14    4.37
  -8  10   2   51.00    2.97
  -6  10   2  451.77    6.82
  -4  10   2  498.09    5.79
  -2  10   2  277.52    3.63
   0  10   2 1392.14    8.39
   2  10   2   31.64    1.57
   4  10   2 1359.15    9.92
   6  10   2    2.52    1.32
  -7  11   2   21.16    2.33
  -5  11   2 2105.40   14.46
  -3  11   2   55.84    2.13
  -1  11   2 2722.30   15.36
   1  11   2  131.93    2.72
   3  11   2 1464.93   10.38
   5  11   2  187.92    4.96
  -6  12   2  368.81    6.80
  -4  12   2  426.36    5.80
  -2  12   2  198.89    4.32
   0  12   2 1021.80    8.94
   2  12   2   15.24    1.46
   4  12   2 1013.18   10.18
  -5  13   2  747.54    9.65
  -3  13   2    5.13    1.41
  -1  13   2  914.03    9.61
   1  13   2    2.46    1.08
   3  13   2  500.21    6.93
   5  13   2   29.84    2.94
  -4  14   2  177.79    5.67
  -2  14   2  101.67    3.64
   0  14   2  440.55    7.77
   2  14   2   39.42    2.82
   4  14   2  484.05    9.49
  -3  15   2   22.40    2.64
  -1  15   2  407.64    7.97
   1  15   2   41.84    5.14
 -10   0   3    0.00    3.25
  -8   0   3    1.08    2.36
  -6   0   3    1.54    1.23
  -4   0   3    0.53    0.60
  -2   0   3    0.45    0.50
   0   0   3    0.96    0.53
   2   0   3    0.45    0.83
   4   0   3    0.79    1.38
   6   0   3    0.82    2.43
   8   0   3    0.26    3.49
 -11   1   3    2.84    2.33
  -9   1   3   43.71    3.08
  -7   1   3    2.42    1.17
  -5   1   3  356.10    3.46
  -3   1   3   31.31    0.89
  -1   1   3 1089.58    5.33
   1   1   3   27.29    0.82
   3   1   3  345.26    3.79
   5   1   3    0.50    1.22
   7   1   3   46.22    3.12
 -10   2   3  111.48    5.37
  -8   2   3   73.13    2.85
  -6   2   3  211.80    3.55
  -4   2   3    1.86    0.65
  -2   2   3  146.14    1.78
   0   2   3   86.80    1.42
   2   2   3    0.53    0.71
   4   2   3  157.09    3.21
   6   2   3   49.44    2.67
   8   2   3   89.48    4.40
  -9   3   3   66.70    3.17
  -7   3   3  171.52    3.69
  -5   3   3  441.62    5.29
  -3   3   3  670.50    5.61
  -1   3   3 1137.04    6.57
   1   3   3  673.19    5.02
   3   3   3  523.22    6.07
   5   3   3  188.92    4.21
   7   3   3   97.15    3.60
 -10   4   3  200.84    7.01
  -8   4   3  376.52    5.69
  -6   4   3  164.39    3.29
  -4   4   3  355.35    4.23
  -2   4   3    4.56    0.80
   0   4   3   32.36    0.93
   2   4   3  231.69    3.70
   4   4   3  107.58    2.94
   6   4   3  260.11    5.66
   8   4   3  203.86    5.60
  -9   5   3    9.81    2.51
  -7   5   3  657.31    7.78
  -5   5   3  160.37    3.66
  -3   5   3 2376.51   15.30
  -1   5   3  264.57    2.70
   1   5   3 2451.88   13.94
   3   5   3  209.71    3.63
   5   5   3  738.20    8.03
   7   5   3   31.72    2.51
 -10   6   3  207.70    7.50
  -8   6   3  336.03    6.19
  -6   6   3  229.05    4.12
  -4   6   3  166.11    3.06
  -2   6   3   45.21    1.31
   0   6   3   10.59    0.92
   2   6   3   86.46    2.58
   4   6   3  170.37    4.21
   6   6   3  263.68    5.82
   8   6   3  181.15    6.30
  -9   7   3  240.79    6.77
  -7   7   3   18.58    2.12
  -5   7   3 1168.71   10.48
  -3   7   3  100.58    2.61
  -1   7   3 2130.61   13.05
   1   7   3  113.72    2.62
   3   7   3 1278.60   10.82
   5   7   3   46.82    2.57
   7   7   3  275.64    7.02
  -8   8   3   75.01    3.76
  -6   8   3  242.34    4.96
  -4   8   3    8.12    1.24
  -2   8   3  107.09    2.50
   0   8   3   49.32    1.87
   2   8   3    0.95    1.22
   4   8   3  186.18    4.26
   6   8   3   55.52    3.18
  -9   9   3    2.95    2.53
  -7   9   3  154.08    5.23
  -5   9   3   40.87    2.18
  -3   9   3  406.91    5.60
  -1   9   3   83.70    2.81
   1   9   3  420.86    5.57
   3   9   3   52.12    2.34
   5   9   3  182.73    4.90
   7   9   3   10.50    2.86
  -8  10   3   63.52    3.87
  -6  10   3    2.89    1.81
  -4  10   3   98.28    2.90
  -2  10   3   43.21    2.41
   0  10   3   54.13    2.50
   2  10   3   62.34    2.63
   4  10   3    4.65    1.66
   6  10   3   46.48    3.28
  -7  11   3   18.44    2.85
  -5  11   3    3.16    1.76
  -3  11   3   27.16    2.19
  -1  11   3   11.26    1.80
   1  11   3   30.46    2.30
   3  11   3    9.75    1.67
   5  11   3   17.78    2.89
  -6  12   3    1.39    2.11
  -4  12   3   51.89    3.26
  -2  12   3   18.24    2.09
   0  12   3   17.30    2.27
   2  12   3   47.74    2.93
   4  12   3    2.75    1.94
  -5  13   3    1.21    2.12
  -3  13   3  329.94    7.50
  -1  13   3    0.48    2.00
   1  13   3  333.47    7.46
   3  13   3    2.13    2.27
  -4  14   3   14.41    2.78
  -2  14   3    5.18    2.74
   0  14   3    7.34    2.46
   2  14   3   10.85    3.02
  -3  15   3   34.36    3.47
  -1  15   3  440.32   10.53
   1  15   3   39.08    4.03
 -10   0   4 1396.33   19.37
  -8   0   4    0.46    1.29
  -6   0   4 3189.25   21.77
  -4   0   4   66.99    1.68
  -2   0   4 4051.74   20.69
   0   0   4  442.43    4.24
   2   0   4 1318.66    8.83
   4   0   4  621.54    8.28
   6   0   4  123.56    5.27
   8   0   4  524.84   11.59
  -9   1   4  262.32    5.42
  -7   1   4  211.33    3.67
  -5   1   4 1680.16    8.11
  -3   1   4   21.46    0.72
  -1   1   4 3538.01   11.99
   1   1   4   31.74    0.97
   3   1   4 2598.66   12.63
   5   1   4   33.31    1.84
   7   1   4  901.51   10.34
 -10   2   4  792.74   10.04
  -8   2   4   13.61    1.53
  -6   2   4 1980.07   10.88
  -4   2   4   30.04    1.11
  -2   2   4 2690.50    9.77
   0   2   4  359.40    2.74
   2   2   4 1117.05    6.48
   4   2   4  541.49    5.72
   6   2   4  121.99    3.37
   8   2   4  378.70    7.19
  -9   3   4  352.45    5.62
  -7   3   4  428.47    4.88
  -5   3   4 1931.00   10.43
  -3   3   4  722.12    4.86
  -1   3   4 4463.34   15.07
   1   3   4  488.31    3.83
   3   3   4 2810.16   13.77
   5   3   4  113.48    3.02
   7   3   4  993.29   10.98
 -10   4   4  512.00    9.24
  -8   4   4  113.72    2.88
  -6   4   4 1373.23    9.18
  -4   4   4  457.51    4.32
  -2   4   4 1957.21    8.53
   0   4   4  790.20    4.63
   2   4   4 1118.56    7.41
   4   4   4  606.62    5.77
   6   4   4  262.56    4.78
  -9   5   4  239.38    4.71
  -7   5   4  299.25    4.21
  -5   5   4  613.98    5.49
  -3   5   4  462.46    4.13
  -1   5   4  868.96    4.84
   1   5   4  340.62    3.71
   3   5   4  551.76    5.35
   5   5   4  124.19    3.22
   7   5   4  200.72    4.70
 -10   6   4  120.88    4.79
  -8   6   4  390.51    5.33
  -6   6   4  308.83    4.17
  -4   6   4  711.48    5.90
  -2   6   4  545.28    4.63
   0   6   4  637.42    4.69
   2   6   4  433.77    4.60
   4   6   4  247.99    4.18
   6   6   4  208.20    4.45
  -9   7   4  153.26    4.51
  -7   7   4  297.45    4.53
  -5   7   4  210.34    3.40
  -3   7   4  813.40    6.32
  -1   7   4  150.89    2.51
   1   7   4  928.62    6.92
   3   7   4   67.52    2.14
   5   7   4  475.45    5.77
   7   7   4   24.18    2.43
  -8   8   4  754.09    8.49
  -6   8   4   38.26    1.79
  -4   8   4 1350.71    9.17
  -2   8   4  264.27    3.89
   0   8   4 1124.95    8.60
   2   8   4  487.02    5.23
   4   8   4  338.06    4.78
   6   8   4  413.29    7.19
  -7   9   4  663.08    7.77
  -5   9   4  330.56    4.55
  -3   9   4 1966.52   12.04
  -1   9   4  238.00    3.96
   1   9   4 2484.17   14.88
   3   9   4   95.25    2.68
   5   9   4 1422.03   11.88
  -8  10   4  868.83   11.56
  -6  10   4    2.19    1.10
  -4  10   4 1256.16    9.56
  -2  10   4   47.33    2.11
   0  10   4  830.71    9.06
   2  10   4  225.22    4.27
   4  10   4  194.44    4.01
  -7  11   4  178.96    4.85
  -5  11   4    2.66    1.16
  -3  11   4  628.77    7.38
  -1  11   4   51.78    2.55
   1  11   4  851.86    9.47
   3  11   4  104.17    3.39
  -6  12   4    1.30    1.16
  -4  12   4  921.43   10.60
  -2  12   4   17.77    2.07
   0  12   4  576.31    7.84
   2  12   4  111.14    3.57
   4  12   4  129.95    4.03
  -5  13   4   93.99    3.80
  -3  13   4  835.80    9.51
  -1  13   4   33.48    2.66
   1  13   4 1079.36   11.82
   3  13   4    4.64    1.46
  -4  14   4  557.04    8.68
  -2  14   4   73.61    3.88
   0  14   4  473.87    8.21
 -10   0   5    1.49    1.79
  -8   0   5    0.37    1.48
  -6   0   5    0.63    1.14
  -4   0   5    0.69    0.52
  -2   0   5    0.27    0.50
   0   0   5    0.59    0.57
   2   0   5    0.14    0.66
   4   0   5    0.46    1.06
   6   0   5    2.18    1.82
  -9   1   5   44.49    2.80
  -7   1   5   10.50    1.53
  -5   1   5   35.78    1.35
  -3   1   5   69.43    1.31
  -1   1   5    0.26    0.36
   1   1   5   81.11    1.69
   3   1   5   22.19    1.67
   5   1   5   33.00    2.37
   7   1   5   17.13    2.21
 -10   2   5    8.81    1.74
  -8   2   5  312.01    5.66
  -6   2   5   47.83    1.68
  -4   2   5  614.55    4.98
  -2   2   5   41.36    1.17
   0   2   5  454.42    3.50
   2   2   5   16.91    1.24
   4   2   5   70.20    2.47
   6   2   5    0.85    1.14
  -9   3   5   24.35    2.42
  -7   3   5   55.83    2.19
  -5   3   5   16.75    1.27
  -3   3   5    3.01    0.64
  -1   3   5  258.65    2.54
   1   3   5  130.67    2.37
   3   3   5  354.66    4.73
   5   3   5  180.96    4.08
   7   3   5  176.77    5.06
 -10   4   5  363.49    6.95
  -8   4   5  111.43    3.22
  -6   4   5 1046.61    7.90
  -4   4   5  249.00    3.32
  -2   4   5 1263.20    7.00
   0   4   5  162.11    2.54
   2   4   5  472.48    4.88
   4   4   5   11.17    1.49
   6   4   5   35.01    2.57
  -9   5   5   86.23    3.15
  -7   5   5   20.50    1.62
  -5   5   5    0.55    0.65
  -3   5   5   88.02    2.09
  -1   5   5  120.27    2.25
   1   5   5  466.49    4.74
   3   5   5  296.43    4.16
   5   5   5  452.25    6.38
  -8   6   5  505.13    6.23
  -6   6   5  371.21    4.74
  -4   6   5  935.96    7.18
  -2   6   5  466.59    4.71
   0   6   5  628.34    6.13
   2   6   5  152.28    2.95
   4   6   5  128.43    3.42
   6   6   5    2.14    1.32
  -9   7   5   54.57    3.04
  -7   7   5   15.36    1.54
  -5   7   5    0.78    0.71
  -3   7   5   29.40    1.52
  -1   7   5  156.18    3.53
   1   7   5  178.95    3.51
   3   7   5  379.53    5.05
   5   7   5  168.40    4.13
  -8   8   5  221.48    4.39
  -6   8   5  223.79    3.91
  -4   8   5  397.44    4.97
  -2   8   5  257.00    4.22
   0   8   5  274.46    4.36
   2   8   5  119.14    3.23
   4   8   5   41.51    2.21
  -7   9   5    3.25    1.08
  -5   9   5    0.75    0.80
  -3   9   5    9.00    1.36
  -1   9   5   32.33    2.12
   1   9   5   76.98    2.68
   3   9   5   60.95    2.66
   5   9   5   91.91    3.43
  -6  10   5   88.37    2.87
  -4  10   5   10.85    1.62
  -2  10   5   90.35    3.26
   0  10   5    8.25    1.56
   2  10   5   34.25    2.43
   4  10   5    3.01    1.42
  -7  11   5    0.94    1.16
  -5  11   5    0.77    0.98
  -3  11   5    0.75    1.05
  -1  11   5    1.41    1.15
   1  11   5    0.67    1.19
   3  11   5    1.82    1.30
  -6  12   5   18.85    2.35
  -4  12   5    9.06    1.65
  -2  12   5   19.57    2.26
   0  12   5    6.28    1.58
   2  12   5    2.21    1.40
  -3  13   5    5.19    1.65
  -1  13   5    7.80    1.68
   1  13   5   51.82    3.11
 -10   0   6    4.13    2.86
  -8   0   6  494.52   11.32
  -6   0   6  167.12    5.66
  -4   0   6 1227.37   11.13
  -2   0   6  394.38    4.97
   0   0   6 1367.02   10.51
   2   0   6  217.87    5.05
   4   0   6  635.25   12.13
   6   0   6   18.22    3.67
  -9   1   6  933.84   11.84
  -7   1   6    6.39    1.59
  -5   1   6 1096.21    9.95
  -3   1   6  270.98    3.15
  -1   1   6  545.43    4.27
   1   1   6  756.49    6.85
   3   1   6   41.79    2.43
   5   1   6  723.43    9.99
 -10   2   6  153.42    5.33
  -8   2   6 1305.46   12.85
  -6   2   6  159.90    3.94
  -4   2   6 3287.11   16.51
  -2   2   6  160.32    2.52
   0   2   6 3387.82   16.00
   2   2   6   97.29    2.81
   4   2   6 1413.66   12.93
   6   2   6   75.42    3.81
  -9   3   6  862.86   11.63
  -7   3   6  185.29    4.83
  -5   3   6 1374.53    9.52
  -3   3   6  730.72    6.55
  -1   3   6  973.80    6.90
   1   3   6 1015.15    7.96
   3   3   6  250.30    4.66
   5   3   6  680.82    9.86
  -8   4   6  568.20    8.93
  -6   4   6  152.62    3.36
  -4   4   6 1255.08    9.42
  -2   4   6  214.12    3.49
   0   4   6 1282.45   11.04
   2   4   6  122.05    3.17
   4   4   6  588.34    8.01
  -9   5   6  190.74    5.72
  -7   5   6  136.40    3.42
  -5   5   6  333.32    4.83
  -3   5   6  268.36    4.15
  -1   5   6  314.40    5.22
   1   5   6  281.94    4.78
   3   5   6  172.24    3.95
   5   5   6  177.28    5.05
  -8   6   6   74.18    3.31
  -6   6   6  195.63    4.08
  -4   6   6  107.26    2.76
  -2   6   6  270.65    5.10
   0   6   6  110.79    3.02
   2   6   6  195.44    4.90
   4   6   6   79.56    3.20
  -9   7   6   80.50    3.34
  -7   7   6  573.65    7.48
  -5   7   6  288.97    4.78
  -3   7   6  623.93    7.27
  -1   7   6  544.38    8.12
   1   7   6  327.42    5.47
   3   7   6  496.34    9.21
  -8   8   6  148.54    4.19
  -6   8   6 1131.50   11.52
  -4   8   6  163.19    4.02
  -2   8   6 1669.08   14.70
   0   8   6  136.16    4.31
   2   8   6 1148.56   11.40
   4   8   6  100.56    4.30
  -7   9   6  651.81    9.96
  -5   9   6   94.08    3.70
  -3   9   6  547.65    8.73
  -1   9   6  382.77    7.84
   1   9   6  154.68    4.82
   3   9   6  512.52    8.21
  -6  10   6  852.79   10.43
  -4  10   6    2.51    1.30
  -2  10   6 1311.51   14.25
   0  10   6    4.97    1.99
   2  10   6  953.86   12.27
  -5  11   6   43.22    3.07
  -3  11   6  391.90    8.33
  -1  11   6  259.78    7.46
   1  11   6   99.42    4.37
  -4  12   6   30.73    3.59
  -2  12   6  712.13   10.75
   0  12   6   49.05    3.85
  -8   0   7    0.79    1.67
  -6   0   7    0.11    1.30
  -4   0   7    0.19    1.05
  -2   0   7    0.37    0.74
   0   0   7    1.80    1.10
   2   0   7    0.94    1.60
   4   0   7    0.12    1.49
  -9   1   7   28.95    2.72
  -7   1   7   12.41    1.83
  -5   1   7   77.63    2.91
  -3   1   7    0.58    0.64
  -1   1   7   54.16    1.68
   1   1   7    3.34    1.05
   3   1   7   10.26    1.67
  -8   2   7   31.19    2.77
  -6   2   7    1.69    1.05
  -4   2   7  223.81    3.48
  -2   2   7   18.49    1.29
   0   2   7  373.15    5.06
   2   2   7   28.91    2.16
   4   2   7  228.00    5.36
  -9   3   7  130.66    4.54
  -7   3   7  295.97    5.74
  -5   3   7  156.62    3.47
  -3   3   7  233.75    3.59
  -1   3   7   33.22    1.73
   1   3   7   38.91    2.01
   3   3   7    3.02    1.12
  -8   4   7    0.75    1.05
  -6   4   7  204.91    4.80
  -4   4   7   41.91    1.79
  -2   4   7  681.99    7.42
   0   4   7  135.10    3.18
   2   4   7  696.72    7.90
   4   4   7   89.04    3.63
  -9   5   7  354.94    7.29
  -7   5   7  283.26    6.15
  -5   5   7  413.80    5.27
  -3   5   7  208.69    3.96
  -1   5   7  144.71    3.68
   1   5   7   20.05    2.14
   3   5   7    1.65    1.16
  -8   6   7   36.70    3.08
  -6   6   7   29.68    2.09
  -4   6   7  323.37    5.13
  -2   6   7  204.69    4.64
   0   6   7  586.17    7.50
   2   6   7  250.80    5.32
  -7   7   7  301.66    5.16
  -5   7   7  216.74    4.49
  -3   7   7  193.84    4.60
  -1   7   7   92.91    3.39
   1   7   7   11.99    1.80
   3   7   7    0.56    1.51
  -6   8   7   30.53    2.46
  -4   8   7  124.30    3.97
  -2   8   7  118.92    3.87
   0   8   7  231.56    5.26
   2   8   7  141.90    5.10
  -5   9   7   81.71    3.14
  -3   9   7   54.09    2.87
  -1   9   7   28.52    2.60
   1   9   7   10.39    1.89
  -4  10   7    2.49    1.37
  -2  10   7   55.75    3.06
   0  10   7    2.38    1.49
  -3  11   7    1.61    1.26
  -1  11   7    2.29    1.64
  -8   0   8  460.24   11.20
  -6   0   8  313.40    8.54
  -4   0   8  268.16    7.30
  -2   0   8 1027.80   14.44
   0   0   8   57.28    3.65
   2   0   8 1238.04   17.48
  -7   1   8 1102.62   12.01
  -5   1   8   29.66    2.53
  -3   1   8 1469.33   11.19
  -1   1   8    1.40    1.31
   1   1   8  831.61    9.50
   3   1   8   26.71    2.71
  -8   2   8  331.99    6.79
  -6   2   8  209.87    5.03
  -4   2   8  168.85    4.23
  -2   2   8  615.68    7.42
   0   2   8   13.70    1.88
   2   2   8  674.92    8.98
  -7   3   8 1108.11   12.23
  -5   3   8   68.88    3.04
  -3   3   8 1430.94   11.35
  -1   3   8   94.49    3.32
   1   3   8  832.59    9.93
  -8   4   8  334.65    7.18
  -6   4   8  350.93    6.51
  -4   4   8  350.42    4.99
  -2   4   8  581.83    7.77
   0   4   8  170.77    5.12
   2   4   8  495.73    7.95
  -7   5   8  248.48    5.89
  -5   5   8  122.79    3.56
  -3   5   8  370.88    6.31
  -1   5   8  163.26    4.29
   1   5   8  284.74    6.00
  -6   6   8  194.61    5.21
  -4   6   8  256.58    5.41
  -2   6   8  200.05    4.87
   0   6   8  306.08    6.66
  -5   7   8  416.83    7.15
  -3   7   8   47.13    3.06
  -1   7   8  372.95    6.93
   1   7   8   61.54    3.98
  -4   8   8  360.77    6.94
  -2   8   8  119.60    4.20
   0   8   8  497.99    8.33
  -3   9   8   49.92    3.16
  -6   0   9    0.93    2.25
  -4   0   9    0.70    1.48
  -2   0   9    0.84    2.23
   0   0   9    0.25    2.38
  -7   1   9   60.55    3.42
  -5   1   9    0.94    1.31
  -3   1   9  105.98    5.09
  -1   1   9    4.37    4.24
  -6   2   9    8.10    1.79
  -4   2   9   25.14    2.93
  -2   2   9    1.01    1.62
   0   2   9    3.51    1.87
  -5   3   9  148.53    4.58
  -3   3   9  233.38    6.10
  -1   3   9  181.34    5.39
  -6   4   9  104.30    4.22
  -4   4   9    8.46    2.48
  -2   4   9    7.16    1.71
   0   4   9   23.61    3.16
  -5   5   9  519.29   11.21
  -3   5   9  124.75    4.22
  -1   5   9  591.83   10.39
  -4   6   9   19.53    2.66
  -2   6   9    2.96    1.61
   0   0   0    0.00    0.00   0
;
_shelx_hkl_checksum              3517
loop_
_space_group_symop_operation_xyz
'x, y, z'
'-x, y, -z+1/2'
'x+1/2, y+1/2, z'
'-x+1/2, y+1/2, -z+1/2'
'-x, -y, -z'
'x, -y, z-1/2'
'-x+1/2, -y+1/2, -z'
'x+1/2, -y+1/2, z-1/2'
loop_
_atom_site_label
_atom_site_type_symbol
_atom_site_fract_x
_atom_site_fract_y
_atom_site_fract_z
_atom_site_U_iso_or_equiv
_atom_site_adp_type
_atom_site_occupancy
_atom_site_site_symmetry_order
_atom_site_calc_flag
_atom_site_refinement_flags_posn
_atom_site_refinement_flags_adp
_atom_site_refinement_flags_occupancy
_atom_site_disorder_assembly
_atom_site_disorder_group
Co1 Co 0.0000 0.0000 0.0000 0.00796(6) Uani 1 2 d S . P . .
Cl1 Cl -0.23014(3) -0.04476(2) 0.17016(4) 0.01008(6) Uani 1 1 d . . . . .
O1 O 0.00858(11) 0.17569(7) 0.08813(12) 0.01162(16) Uani 1 1 d . . . . .
N1 N 0.0000 0.32540(13) -0.2500 0.0121(3) Uani 1 2 d S T P . .
C1 C 0.0000 0.22567(15) 0.2500 0.0110(3) Uani 1 2 d S T P . .
H1 H 0.0000 0.311(2) 0.2500 0.019(6) Uiso 1 2 d S . P . .
H3 H 0.094(2) 0.3702(18) -0.229(3) 0.031(5) Uiso 1 1 d . . . . .
H2 H 0.015(2) 0.2790(17) -0.137(3) 0.026(5) Uiso 1 1 d . . . . .
loop_
_atom_site_aniso_label
_atom_site_aniso_U_11
_atom_site_aniso_U_22
_atom_site_aniso_U_33
_atom_site_aniso_U_23
_atom_site_aniso_U_13
_atom_site_aniso_U_12
Co1 0.01036(10) 0.00799(10) 0.00595(10) -0.00006(7) 0.00312(7) -0.00003(7)
Cl1 0.01023(11) 0.01277(13) 0.00757(11) -0.00109(9) 0.00323(8) -0.00171(9)
O1 0.0181(4) 0.0092(4) 0.0091(3) 0.0000(3) 0.0064(3) -0.0002(3)
N1 0.0162(7) 0.0108(6) 0.0094(6) 0.000 0.0039(5) 0.000
C1 0.0139(7) 0.0089(7) 0.0112(6) 0.000 0.0056(5) 0.000
loop_
_atom_type_symbol
_atom_type_description
_atom_type_scat_dispersion_real
_atom_type_scat_dispersion_imag
_atom_type_scat_source
C C 0.0033 0.0016 'International Tables Vol C Tables 4.2.6.8 and 6.1.1.4'
H H 0.0000 0.0000 'International Tables Vol C Tables 4.2.6.8 and 6.1.1.4'
N N 0.0061 0.0033 'International Tables Vol C Tables 4.2.6.8 and 6.1.1.4'
O O 0.0106 0.0060 'International Tables Vol C Tables 4.2.6.8 and 6.1.1.4'
Cl Cl 0.1484 0.1585 'International Tables Vol C Tables 4.2.6.8 and 6.1.1.4'
Co Co 0.3494 0.9721 'International Tables Vol C Tables 4.2.6.8 and 6.1.1.4'
loop_
_geom_angle_atom_site_label_1
_geom_angle_atom_site_label_2
_geom_angle_atom_site_label_3
_geom_angle
_geom_angle_site_symmetry_1
_geom_angle_site_symmetry_3
O1 Co1 O1 180.0 5 .
O1 Co1 Cl1 88.81(2) 5 6
O1 Co1 Cl1 91.19(3) . 6
O1 Co1 Cl1 91.19(2) 5 2
O1 Co1 Cl1 88.81(3) . 2
Cl1 Co1 Cl1 180.000(12) 6 2
O1 Co1 Cl1 91.22(2) 5 5
O1 Co1 Cl1 88.78(2) . 5
Cl1 Co1 Cl1 87.01(2) 6 5
Cl1 Co1 Cl1 92.99(2) 2 5
O1 Co1 Cl1 88.78(2) 5 .
O1 Co1 Cl1 91.22(2) . .
Cl1 Co1 Cl1 92.99(2) 6 .
Cl1 Co1 Cl1 87.01(2) 2 .
Cl1 Co1 Cl1 180.0 5 .
Co1 Cl1 Co1 88.169(19) 2 .
C1 O1 Co1 132.72(9) . .
O1 C1 O1 127.01(16) . 2
loop_
_geom_bond_atom_site_label_1
_geom_bond_atom_site_label_2
_geom_bond_distance
_geom_bond_site_symmetry_2
Co1 O1 2.0647(9) 5
Co1 O1 2.0648(9) .
Co1 Cl1 2.4591(9) 6
Co1 Cl1 2.4591(9) 2
Co1 Cl1 2.4595(6) 5
Co1 Cl1 2.4595(6) .
Cl1 Co1 2.4591(9) 2
O1 C1 1.2626(11) .
C1 O1 1.2626(11) 2
loop_
_geom_hbond_atom_site_label_D
_geom_hbond_atom_site_label_H
_geom_hbond_atom_site_label_A
_geom_hbond_distance_DH
_geom_hbond_distance_HA
_geom_hbond_distance_DA
_geom_hbond_angle_DHA
_geom_hbond_site_symmetry_A
N1 H2 O1 0.913(18) 1.942(19) 2.8481(13) 171.7(16) .
