#------------------------------------------------------------------------------
#$Date: 2021-03-17 12:26:09 +0200 (Wed, 17 Mar 2021) $
#$Revision: 263085 $
#$URL: file:///home/coder/svn-repositories/cod/cif/1/56/10/1561079.cif $
#------------------------------------------------------------------------------
#
# This file is available in the Crystallography Open Database (COD),
# http://www.crystallography.net/
#
# All data on this site have been placed in the public domain by the
# contributors.
#
data_1561079
loop_
_publ_author_name
'Alexander, Dinu'
'Joy, Monu'
'Thomas, Kukku'
'Sisira, S.'
'Biju, P.R.'
'Unnikrishnan, N.V.'
'Sudarsanakumar, C.'
'Ittyachen, M.A.'
'Joseph, Cyriac'
_publ_section_title
;
 Efficient green luminescence of terbium oxalate crystals: A case study
 with Judd-Ofelt theory and single crystal structure analysis and the
 effect of dehydration on luminescence
;
_journal_name_full               'Journal of Solid State Chemistry'
_journal_page_first              68
_journal_page_last               78
_journal_paper_doi               10.1016/j.jssc.2018.02.017
_journal_volume                  262
_journal_year                    2018
_chemical_formula_sum            'C3 H6 O9.65 Tb'
_chemical_formula_weight         355.48
_space_group_crystal_system      monoclinic
_space_group_IT_number           14
_space_group_name_Hall           '-P 2ybc'
_space_group_name_H-M_alt        'P 1 21/c 1'
_atom_sites_solution_hydrogens   difmap
_cell_angle_alpha                90
_cell_angle_beta                 114.196(4)
_cell_angle_gamma                90
_cell_formula_units_Z            4
_cell_length_a                   10.9608(14)
_cell_length_b                   9.5774(13)
_cell_length_c                   9.9838(13)
_cell_measurement_reflns_used    9156
_cell_measurement_temperature    273(2)
_cell_measurement_theta_max      25.15
_cell_measurement_theta_min      3.09
_cell_volume                     956.0(2)
_computing_cell_refinement       'Bruker SAINT'
_computing_data_collection       'Bruker APEX3'
_computing_data_reduction        'Bruker SAINT'
_computing_molecular_graphics    'Bruker SHELXTL'
_computing_publication_material  ORTEP
_computing_structure_refinement  'SHELXL-2014 (Sheldrick 2014)'
_computing_structure_solution    'SHELXT-2014 (Sheldrick 2015)'
_diffrn_ambient_temperature      273(2)
_diffrn_measured_fraction_theta_full 0.999
_diffrn_measured_fraction_theta_max 0.999
_diffrn_measurement_device_type  'Bruker AXS Kappa Apex2 CMOS diffractometer'
_diffrn_measurement_method       '\w and \f scan'
_diffrn_radiation_type           MoK\a
_diffrn_radiation_wavelength     0.71073
_diffrn_reflns_av_R_equivalents  0.0341
_diffrn_reflns_av_unetI/netI     0.0141
_diffrn_reflns_Laue_measured_fraction_full 0.999
_diffrn_reflns_Laue_measured_fraction_max 0.999
_diffrn_reflns_limit_h_max       13
_diffrn_reflns_limit_h_min       -13
_diffrn_reflns_limit_k_max       11
_diffrn_reflns_limit_k_min       -11
_diffrn_reflns_limit_l_max       11
_diffrn_reflns_limit_l_min       -11
_diffrn_reflns_number            1686
_diffrn_reflns_point_group_measured_fraction_full 0.999
_diffrn_reflns_point_group_measured_fraction_max 0.999
_diffrn_reflns_theta_full        24.994
_diffrn_reflns_theta_max         24.994
_diffrn_reflns_theta_min         2.945
_diffrn_source                   'Sealed tube'
_exptl_absorpt_coefficient_mu    7.428
_exptl_absorpt_correction_T_max  0.311
_exptl_absorpt_correction_T_min  0.198
_exptl_absorpt_correction_type   multi-scan
_exptl_absorpt_process_details   'SADABS (Bruer, 1999)'
_exptl_crystal_colour            colourless
_exptl_crystal_density_diffrn    2.470
_exptl_crystal_description       block
_exptl_crystal_F_000             665
_exptl_crystal_size_max          0.300
_exptl_crystal_size_mid          0.200
_exptl_crystal_size_min          0.200
_refine_diff_density_max         4.924
_refine_diff_density_min         -0.851
_refine_diff_density_rms         0.237
_refine_ls_extinction_coef       0.0187(10)
_refine_ls_extinction_expression Fc^*^=kFc[1+0.001xFc^2^\l^3^/sin(2\q)]^-1/4^
_refine_ls_extinction_method     'SHELXL-2016/6 (Sheldrick 2016)'
_refine_ls_goodness_of_fit_ref   1.118
_refine_ls_hydrogen_treatment    constr
_refine_ls_matrix_type           full
_refine_ls_number_parameters     130
_refine_ls_number_reflns         1686
_refine_ls_number_restraints     0
_refine_ls_restrained_S_all      1.118
_refine_ls_R_factor_all          0.0344
_refine_ls_R_factor_gt           0.0339
_refine_ls_shift/su_max          0.001
_refine_ls_shift/su_mean         0.000
_refine_ls_structure_factor_coef Fsqd
_refine_ls_weighting_details
'w=1/[\s^2^(Fo^2^)+(0.0446P)^2^+17.5380P] where P=(Fo^2^+2Fc^2^)/3'
_refine_ls_weighting_scheme      calc
_refine_ls_wR_factor_gt          0.0927
_refine_ls_wR_factor_ref         0.0932
_reflns_Friedel_coverage         0.000
_reflns_Friedel_fraction_full    .
_reflns_Friedel_fraction_max     .
_reflns_number_gt                1651
_reflns_number_total             1686
_reflns_threshold_expression     'I > 2\s(I)'
_cod_data_source_file            JSSC-2018-262-68.cif
_cod_data_source_block           1
_cod_original_sg_symbol_H-M      'P 21/c'
_cod_database_code               1561079
_shelx_space_group_comment
;
The symmetry employed for this shelxl refinement is uniquely defined
by the following loop, which should always be used as a source of
symmetry information in preference to the above space-group names.
They are only intended as comments.
;
_shelx_estimated_absorpt_t_min   0.214
_shelx_estimated_absorpt_t_max   0.318
_shelx_res_file
;

TITL TerbiumOxalates_0ma_a.res in P2(1)/c
    shelx.res
    created by SHELXL-2016/6 at 10:36:07 on 25-Sep-2017
CELL 0.71073 10.9608 9.5774 9.9838 90 114.196 90
ZERR 4 0.0014 0.0013 0.0013 0 0.004 0
LATT 1
SYMM -X,0.5+Y,0.5-Z
SFAC C H O Tb
UNIT 12 24 38.62 4

L.S. 10
PLAN  1
SIZE 0.2 0.2 0.3
TEMP 0
BOND $H
CONF
HTAB
EQIV $4 -x+1, y+1/2, -z+3/2
HTAB O2 O9_$4
EQIV $5 x, -y+3/2, z-1/2
HTAB O2 O1_$5
HTAB O2 O6_$4
EQIV $2 -x+1, -y+1, -z+1
HTAB O3 O11_$2
EQIV $6 x, -y+1/2, z-1/2
HTAB O3 O9_$6
HTAB O3 O5_$6
EQIV $7 x-1, -y+3/2, z+1/2
HTAB O1 O10_$7
HTAB O1 O7_$4
fmap 2
acta
MORE -1
MERG 2
OMIT -3 50
REM <olex2.extras>
REM <HklSrc "%.\\TerbiumOxalates_0ma_a.hkl">
REM </olex2.extras>

WGHT    0.044600   17.538000
EXTI    0.018680
FVAR       0.49863
TB1   4    0.309433    0.543072    0.668764    11.00000    0.00837    0.01343 =
         0.00884    0.00004    0.00377    0.00014
O9    3    0.511605    0.356958    1.112320    11.00000    0.01870    0.01843 =
         0.01330    0.00263    0.00708   -0.00103
O7    3    0.661215    0.436949    0.568051    11.00000    0.01503    0.03795 =
         0.02006    0.01066    0.00969    0.00970
O2    3    0.332824    0.781988    0.617386    11.00000    0.04792    0.02721 =
         0.01619    0.00005    0.00600   -0.01460
AFIX   7
H2A   2    0.352174    0.791338    0.539196    11.00000   -1.50000
H2B   2    0.398353    0.823289    0.692845    11.00000   -1.50000
AFIX   0
O6    3    0.527148    0.473437    0.681374    11.00000    0.01123    0.02909 =
         0.01234    0.00353    0.00664    0.00628
O4    3    0.109353    0.607428    0.463618    11.00000    0.01239    0.02644 =
         0.01882    0.00434    0.00607   -0.00435
O5    3    0.372871    0.396760    0.879157    11.00000    0.02127    0.02118 =
         0.01379    0.00179    0.00034   -0.00790
O8    3   -0.108728    0.572330    0.336956    11.00000    0.01443    0.02309 =
         0.01415    0.00710    0.00490    0.00098
O3    3    0.290108    0.310916    0.571359    11.00000    0.02727    0.02156 =
         0.04277   -0.01456    0.01650    0.00105
AFIX   7
H3A   2    0.239878    0.248435    0.603840    11.00000   -1.50000
H3B   2    0.373588    0.264735    0.596139    11.00000   -1.50000
AFIX   0
O1    3    0.204599    0.682153    0.798234    11.00000    0.02445    0.03036 =
         0.03830   -0.01602    0.01426   -0.00021
AFIX   7
H1A   2    0.121319    0.663912    0.764105    11.00000   -1.50000
H1B   2    0.215498    0.768493    0.786073    11.00000   -1.50000
AFIX   0
C2    1    0.555139    0.473363    0.572242    11.00000    0.01393    0.01522 =
         0.01869    0.00418    0.01216    0.00420
C3    1    0.466950    0.429360    0.997684    11.00000    0.01164    0.01600 =
         0.01040    0.00019    0.00505   -0.00067
C1    1    0.000282    0.552434    0.441788    11.00000    0.00984    0.01512 =
         0.01363   -0.00475    0.00588    0.00010

AFIX   6
O10   3    0.940769    0.710810    0.124360     0.37310   10.05000
O11   3    0.839366    0.907924    0.335706     0.28146   10.05000
AFIX   0
HKLF 4




REM  TerbiumOxalates_0ma_a.res in P2(1)/c
REM R1 =  0.0339 for    1651 Fo > 4sig(Fo)  and  0.0344 for all    1686 data
REM    130 parameters refined using      0 restraints

END

WGHT      0.0446     17.5434

REM Instructions for potential hydrogen bonds
HTAB O2 O9_$4
HTAB O2 O1_$5
HTAB O2 O6_$4
HTAB O3 O11_$2
HTAB O3 O9_$6
HTAB O3 O5_$6
HTAB O1 O10_$7
HTAB O1 O7_$4

REM Highest difference peak  4.924,  deepest hole -0.851,  1-sigma level  0.237
Q1    1   0.9199  0.8139  0.2075  11.00000  0.05    4.92
;
_shelx_res_checksum              57034
_shelx_hkl_file
;
  -2   0   0 2648.37   40.28
  -3   0   0 5433.52   82.22
  -4   0   0   12.08    1.64
  -5   0   0 9999.00  139.39
  -6   0   0 4205.31   56.39
  -7   0   0  679.50   11.14
  -8   0   0 4064.47   56.27
  -9   0   0  785.10   12.13
 -10   0   0 3240.01   37.74
 -11   0   0 1373.44   19.41
  -1   1   0 1062.24   23.39
  -2   1   0  787.14    9.42
  -3   1   0  535.85    6.46
  -4   1   0  174.83    3.00
  -5   1   0  286.94    4.45
  -6   1   0  237.55    3.96
  -7   1   0  686.73    8.00
  -8   1   0   90.30    2.36
  -9   1   0  261.18    3.94
 -10   1   0  258.84    4.21
 -11   1   0   63.55    2.45
   0   2   0 6048.62  157.10
  -1   2   0 1797.52   34.03
  -2   2   0  746.16    9.96
  -3   2   0 3402.40   44.92
  -4   2   0    8.82    0.94
  -5   2   0 5358.85   60.26
  -6   2   0 2328.88   26.37
  -7   2   0 1574.70   17.76
  -8   2   0 2576.85   25.73
  -9   2   0  546.32    6.75
 -10   2   0 1566.64   15.03
 -11   2   0  994.22   10.92
   0   3   0    3.11    1.29
  -1   3   0 3442.02   57.66
  -2   3   0 2190.40   31.65
  -3   3   0 1064.93   13.37
  -4   3   0 5003.71   58.92
  -5   3   0   70.14    2.07
  -6   3   0 2769.92   32.40
  -7   3   0 2536.80   31.70
  -8   3   0   54.69    2.11
  -9   3   0 2118.64   24.27
 -10   3   0  652.76    8.33
 -11   3   0  334.67    5.48
   0   4   0 1325.41   37.74
  -1   4   0  551.06   12.36
  -2   4   0 1186.50   21.19
  -3   4   0 2266.66   35.62
  -4   4   0  248.94    4.25
  -5   4   0 1037.05   14.76
  -6   4   0  625.42    8.74
  -7   4   0  514.52    7.01
  -8   4   0 1721.11   18.95
  -9   4   0   95.38    2.95
 -10   4   0  210.66    4.24
 -11   4   0  344.44    6.68
   0   5   0   29.89    5.38
  -1   5   0 6249.49  116.54
  -2   5   0 5234.84   88.34
  -3   5   0 1324.88   20.30
  -4   5   0 6719.72   88.27
  -5   5   0  621.69    9.91
  -6   5   0 2797.93   35.16
  -7   5   0 3811.86   41.52
  -8   5   0  103.86    3.18
  -9   5   0 3014.66   31.91
 -10   5   0  927.05   12.26
   0   6   0  136.55    7.61
  -1   6   0   26.89    3.10
  -2   6   0    4.54    1.90
  -3   6   0  198.36    6.12
  -4   6   0  387.51    7.52
  -5   6   0   17.99    1.60
  -6   6   0   11.72    1.79
  -7   6   0    2.82    1.61
  -8   6   0   27.38    2.18
  -9   6   0   51.99    3.09
 -10   6   0    0.92    2.05
   0   7   0   20.53    5.76
  -1   7   0 4658.60  102.74
  -2   7   0 3070.14   60.28
  -3   7   0  698.54   13.42
  -4   7   0 2533.48   33.03
  -5   7   0  273.83    5.36
  -6   7   0 1585.97   19.96
  -7   7   0 2909.60   31.44
  -8   7   0    9.43    1.92
  -9   7   0 1801.80   21.67
   0   8   0 2598.52  104.43
  -1   8   0   53.04    6.61
  -2   8   0 1097.11   21.31
  -3   8   0 1419.25   20.33
  -4   8   0   32.45    2.18
  -5   8   0 1049.83   16.66
  -6   8   0  499.29    8.22
  -7   8   0  274.00    6.02
  -8   8   0  946.24   12.64
   0   9   0    0.53    4.69
  -1   9   0 1634.63   25.10
  -2   9   0  838.14   14.38
  -3   9   0   60.30    4.02
  -4   9   0 1104.52   16.97
  -5   9   0    2.39    2.03
  -6   9   0 1279.04   17.55
  -7   9   0  848.71   11.99
   0  10   0 2203.11  154.83
  -1  10   0  343.45   10.64
  -2  10   0  759.30   14.64
  -3  10   0 1587.78   23.65
  -4  10   0  114.44    3.93
  -5  10   0 1652.72   21.65
   0  11   0    0.00    5.29
  -1  11   0   59.87    5.15
  -2  11   0   -3.60    3.08
  -3  11   0   11.85    5.63
  12   0  -1   -0.18    2.02
  11   0  -1    2.50    1.92
  10   0  -1    0.91    1.90
   9   0  -1    5.06    1.67
   8   0  -1    2.27    1.66
   7   0  -1    3.62    1.46
   6   0  -1   10.65    1.85
   5   0  -1    4.33    1.07
   4   0  -1    0.52    0.99
   3   0  -1   11.26    2.60
   2   0  -1   14.85    1.67
  -1   0  -1    6.94    1.59
  -2   0  -1   11.34    1.72
  -3   0  -1    1.36    1.12
  -4   0  -1    5.25    0.96
  -5   0  -1    5.01    1.35
  -6   0  -1    2.47    1.37
  -7   0  -1    2.09    1.35
  -8   0  -1    0.46    1.39
  -9   0  -1    5.76    1.66
 -10   0  -1    0.10    1.88
 -11   0  -1    3.16    2.04
  12   1  -1 1840.76   18.04
  11   1  -1  166.90    3.43
  10   1  -1 3286.54   30.59
   9   1  -1 1382.94   14.33
   8   1  -1  505.81    6.92
   7   1  -1 5474.44   53.21
   6   1  -1  655.16    7.97
   5   1  -1 5650.60   60.77
   4   1  -1 6188.40   66.21
   3   1  -1  247.77    3.50
   2   1  -1 5827.02   71.41
   1   1  -1 4885.31   89.64
   0   1  -1 3626.32   54.64
  -1   1  -1 5748.07   80.06
  -2   1  -1  379.80    5.82
  -3   1  -1 6233.37   81.56
  -4   1  -1 5343.25   66.58
  -5   1  -1  402.67    5.48
  -6   1  -1 4560.14   47.89
  -7   1  -1  307.85    5.18
  -8   1  -1 1887.32   19.63
  -9   1  -1 5121.30   45.38
 -10   1  -1    8.05    1.33
 -11   1  -1 2146.20   20.74
  12   2  -1   35.07    2.12
  11   2  -1 1003.54   10.87
  10   2  -1  216.51    3.77
   9   2  -1  122.65    2.83
   8   2  -1 1178.90   12.12
   7   2  -1    8.64    0.98
   6   2  -1 1672.12   21.27
   5   2  -1  326.70    5.13
   4   2  -1    3.00    0.73
   3   2  -1   40.72    1.39
   2   2  -1  206.06    3.44
   1   2  -1 1910.15   32.09
   0   2  -1 1374.48   23.40
  -1   2  -1  431.46    6.27
  -2   2  -1 3008.39   40.46
  -3   2  -1  778.44   11.03
  -4   2  -1 1506.15   18.90
  -5   2  -1 1918.85   25.56
  -6   2  -1  126.05    2.92
  -7   2  -1  757.82    9.39
  -8   2  -1 1475.61   15.54
  -9   2  -1   68.61    2.60
 -10   2  -1  890.45   10.07
 -11   2  -1  237.81    4.47
  11   3  -1    7.47    1.46
  10   3  -1 1487.33   15.66
   9   3  -1 1071.32   11.15
   8   3  -1  122.39    2.72
   7   3  -1 1311.73   15.74
   6   3  -1   58.81    1.92
   5   3  -1 2153.97   26.47
   4   3  -1 5940.49   66.33
   3   3  -1   33.13    1.33
   2   3  -1 1708.45   26.58
   1   3  -1  179.30    5.76
   0   3  -1 2828.84   61.30
  -1   3  -1 4964.33   69.82
  -2   3  -1  655.94    9.63
  -3   3  -1 2199.49   34.84
  -4   3  -1 3170.31   42.79
  -5   3  -1   10.02    0.93
  -6   3  -1 3617.86   44.04
  -7   3  -1  536.65    7.18
  -8   3  -1  958.66   10.90
  -9   3  -1 2056.94   20.06
 -10   3  -1   65.87    2.77
 -11   3  -1  688.83   15.37
  11   4  -1 2609.08   26.02
  10   4  -1  440.69    6.79
   9   4  -1  663.25    9.40
   8   4  -1 2719.88   29.11
   7   4  -1    4.90    1.20
   6   4  -1 5010.77   62.90
   5   4  -1 2369.40   32.37
   4   4  -1 1103.35   14.13
   3   4  -1 7422.91  111.87
   2   4  -1  176.61    4.79
   1   4  -1 7040.03  150.60
   0   4  -1 1998.73   44.97
  -1   4  -1 1370.51   27.43
  -2   4  -1 9047.58  136.41
  -3   4  -1 3276.92   44.14
  -4   4  -1 1999.07   32.60
  -5   4  -1 4419.75   59.27
  -6   4  -1   15.28    1.63
  -7   4  -1 4708.10   46.99
  -8   4  -1 2861.86   29.93
  -9   4  -1  273.07    4.67
 -10   4  -1 1636.00   20.56
  11   5  -1   13.15    1.95
  10   5  -1  102.95    3.50
   9   5  -1  534.59    7.70
   8   5  -1    3.27    1.16
   7   5  -1  395.22    6.72
   6   5  -1    2.88    1.09
   5   5  -1   58.70    2.80
   4   5  -1  666.96   10.38
   3   5  -1  241.00    6.32
   2   5  -1   14.78    2.71
   1   5  -1   69.68    5.94
   0   5  -1  116.93    5.36
  -1   5  -1 1408.27   25.89
  -2   5  -1    6.77    1.20
  -3   5  -1  769.29   14.24
  -4   5  -1    4.18    1.48
  -5   5  -1    4.93    1.46
  -6   5  -1  138.71    4.17
  -7   5  -1   17.81    1.83
  -8   5  -1  199.83    4.88
  -9   5  -1   53.52    2.74
 -10   5  -1   20.17    2.35
  10   6  -1  599.59    9.57
   9   6  -1  941.56   12.87
   8   6  -1 2879.02   33.20
   7   6  -1  110.41    3.22
   6   6  -1 3215.81   38.08
   5   6  -1 2109.06   28.68
   4   6  -1  752.84   12.36
   3   6  -1 5407.50   90.95
   2   6  -1  755.24   17.24
   1   6  -1 1859.66   43.23
   0   6  -1 3010.41   67.22
  -1   6  -1   95.37    5.09
  -2   6  -1 6776.00  113.97
  -3   6  -1 1917.89   31.46
  -4   6  -1  587.41   13.27
  -5   6  -1 2370.52   34.26
  -6   6  -1    8.52    2.01
  -7   6  -1 3477.77   38.06
  -8   6  -1 2209.33   26.28
  -9   6  -1  162.37    4.92
   9   7  -1  167.24    4.58
   8   7  -1   -1.21    1.67
   7   7  -1  183.72    3.99
   6   7  -1   53.41    3.18
   5   7  -1  196.75    4.89
   4   7  -1  370.33    7.53
   3   7  -1   56.53    3.76
   2   7  -1  207.73    7.67
   1   7  -1  444.80   13.90
   0   7  -1  262.27    9.69
  -1   7  -1  388.44   11.08
  -2   7  -1    2.19    2.35
  -3   7  -1  230.71    5.79
  -4   7  -1  213.41    4.43
  -5   7  -1   79.27    3.70
  -6   7  -1  562.16    8.89
  -7   7  -1   21.99    1.94
  -8   7  -1   21.32    2.20
   8   8  -1 1372.94   19.18
   7   8  -1   46.93    2.59
   6   8  -1 2121.74   26.60
   5   8  -1 1468.67   20.49
   4   8  -1  752.44   11.93
   3   8  -1 3335.51   49.29
   2   8  -1  287.77    7.96
   1   8  -1 1605.44   30.65
   0   8  -1 2885.08   52.00
  -1   8  -1   50.64    4.48
  -2   8  -1 3402.29   56.11
  -3   8  -1  930.01   18.18
  -4   8  -1  441.72    7.73
  -5   8  -1 2060.14   27.12
  -6   8  -1   21.14    1.98
  -7   8  -1 1305.81   18.28
  -8   8  -1  802.77   45.89
   7   9  -1 1465.20   18.56
   6   9  -1  130.34    4.10
   5   9  -1  656.01    9.87
   4   9  -1 1341.10   18.13
   3   9  -1  169.89    5.66
   2   9  -1 1726.82   25.33
   1   9  -1  914.76   17.37
   0   9  -1  697.60   13.36
  -1   9  -1 2320.61   33.63
  -2   9  -1   14.65    3.37
  -3   9  -1 2146.63   33.52
  -4   9  -1 1120.97   16.08
  -5   9  -1   28.42    2.68
  -6   9  -1 1950.86   29.61
   6  10  -1  375.50    8.89
   5  10  -1  382.86    8.19
   4  10  -1   81.57    3.89
   3  10  -1  469.29    8.95
   2  10  -1  114.22    6.04
   1  10  -1  215.28    7.13
   0  10  -1  242.67    8.65
  -1  10  -1   48.21    4.41
  -2  10  -1  302.80    8.13
  -3  10  -1  206.45    6.24
  -4  10  -1   60.27    3.32
  -5  10  -1  349.64    9.66
   3  11  -1   21.47    2.95
   2  11  -1 1692.25   24.99
   1  11  -1  741.04   14.72
   0  11  -1  468.50   11.72
  -1  11  -1 1620.41   26.02
  -2  11  -1  114.21    4.51
  12   0  -2 1140.91   16.51
  11   0  -2 3116.66   38.52
  10   0  -2   50.87    2.89
   9   0  -2 4521.00   55.61
   8   0  -2 4511.71   65.72
   7   0  -2 1768.32   29.19
   6   0  -2 6977.42   98.51
   5   0  -2   18.10    2.28
   4   0  -2 7781.70  143.76
   3   0  -2 5902.88  154.50
   2   0  -2   22.62    2.16
   1   0  -2 6027.31  110.74
   0   0  -2 1328.08   20.70
  -1   0  -2 4802.03  126.07
  -2   0  -2 6124.47  161.00
  -3   0  -2  733.34   18.51
  -4   0  -2 7223.30  119.97
  -5   0  -2 3650.76   62.48
  -6   0  -2 1669.99   27.83
  -7   0  -2 3079.88   43.12
  -8   0  -2  362.81    6.88
  -9   0  -2 3120.80   40.11
 -10   0  -2 3126.78   38.36
  12   1  -2  124.60    3.19
  11   1  -2    9.19    1.37
  10   1  -2   28.04    1.51
   9   1  -2   73.55    2.34
   8   1  -2  254.03    4.50
   7   1  -2  503.73    6.97
   6   1  -2   12.42    1.18
   5   1  -2   43.76    2.03
   4   1  -2  388.14    7.07
   3   1  -2  460.37    7.24
   2   1  -2 1735.05   29.78
   1   1  -2  116.34    2.15
   0   1  -2   71.09    1.71
  -1   1  -2  737.99   11.48
  -2   1  -2   13.60    1.62
  -3   1  -2 3950.78   52.71
  -4   1  -2  206.96    4.19
  -5   1  -2  120.34    2.89
  -6   1  -2  198.74    3.94
  -7   1  -2   97.89    2.57
  -8   1  -2  471.43    5.89
  -9   1  -2   89.71    2.76
 -10   1  -2    7.38    1.35
  12   2  -2  951.69   10.23
  11   2  -2 2416.32   21.45
  10   2  -2    3.73    1.34
   9   2  -2 2755.46   26.10
   8   2  -2 1877.91   20.39
   7   2  -2  328.82    5.09
   6   2  -2 3887.70   44.61
   5   2  -2 1314.91   16.76
   4   2  -2 3561.45   40.45
   3   2  -2 4452.81   55.11
   2   2  -2 1175.46   16.32
   1   2  -2 5647.61   73.37
   0   2  -2  902.55   12.60
  -1   2  -2  903.58   13.47
  -2   2  -2 2311.42   36.23
  -3   2  -2   83.23    2.77
  -4   2  -2 3826.97   45.69
  -5   2  -2 2986.93   36.33
  -6   2  -2  304.93    5.49
  -7   2  -2 2652.24   26.80
  -8   2  -2  237.32    4.06
  -9   2  -2 2131.10   20.13
 -10   2  -2 1861.22   18.23
  12   3  -2 1426.41   15.91
  11   3  -2  260.09    4.72
  10   3  -2 1258.22   13.17
   9   3  -2  528.27    6.86
   8   3  -2 1464.25   15.49
   7   3  -2 3527.44   39.16
   6   3  -2    3.78    1.05
   5   3  -2 1058.77   13.16
   4   3  -2 1207.61   15.12
   3   3  -2 1699.94   24.68
   2   3  -2 7827.53  117.64
   1   3  -2  249.16    5.50
   0   3  -2  812.06   13.52
  -1   3  -2 2107.76   27.01
  -2   3  -2  432.39    7.73
  -3   3  -2 4787.95   63.71
  -4   3  -2  338.42    7.30
  -5   3  -2  984.48   14.06
  -6   3  -2 1703.27   20.52
  -7   3  -2   52.22    2.01
  -8   3  -2 1952.44   19.74
  -9   3  -2  248.54    4.61
 -10   3  -2  390.03    6.71
  11   4  -2  656.20    8.55
  10   4  -2    6.03    1.30
   9   4  -2  711.36    9.10
   8   4  -2  206.09    3.72
   7   4  -2  223.80    4.36
   6   4  -2  903.39   12.29
   5   4  -2   50.37    1.89
   4   4  -2 1759.70   22.79
   3   4  -2  816.71   15.26
   2   4  -2  592.91   15.89
   1   4  -2 3221.93   54.47
   0   4  -2  806.61   14.18
  -1   4  -2 1102.44   18.20
  -2   4  -2 1971.80   35.59
  -3   4  -2    4.82    0.96
  -4   4  -2 1576.59   26.46
  -5   4  -2 1775.35   29.86
  -6   4  -2   25.60    2.06
  -7   4  -2  600.34    9.38
  -8   4  -2   82.74    3.52
  -9   4  -2  270.14    5.13
 -10   4  -2  454.86    9.73
  11   5  -2  477.28    7.11
  10   5  -2 2558.34   25.57
   9   5  -2  527.35    7.04
   8   5  -2 2599.61   24.48
   7   5  -2 3036.93   32.98
   6   5  -2   52.12    2.18
   5   5  -2 4698.58   62.46
   4   5  -2 2342.35   29.96
   3   5  -2 1966.56   28.96
   2   5  -2 6387.05  106.51
   1   5  -2    6.74    2.38
   0   5  -2 4109.41   77.44
  -1   5  -2 3933.41   66.95
  -2   5  -2  757.17   12.19
  -3   5  -2 4484.82   64.27
  -4   5  -2  607.10   12.07
  -5   5  -2 2752.04   35.24
  -6   5  -2 4084.03   43.54
  -7   5  -2   62.41    3.51
  -8   5  -2 2564.47   28.94
  -9   5  -2  655.54    9.64
  10   6  -2    1.02    1.50
   9   6  -2    4.12    1.35
   8   6  -2    8.18    1.30
   7   6  -2    3.82    1.58
   6   6  -2   19.68    1.85
   5   6  -2   81.77    2.68
   4   6  -2   25.44    1.89
   3   6  -2    7.60    1.80
   2   6  -2  166.04    6.35
   1   6  -2   17.01    2.30
   0   6  -2   69.04    3.96
  -1   6  -2   12.33    1.88
  -2   6  -2    5.21    1.25
  -3   6  -2   55.26    3.40
  -4   6  -2    8.86    2.36
  -5   6  -2    1.47    1.66
  -6   6  -2   70.74    3.44
  -7   6  -2   81.10    3.81
  -8   6  -2   25.51    2.16
  -9   6  -2   21.08    2.69
  10   7  -2 2044.93   23.06
   9   7  -2  280.70    5.48
   8   7  -2 1767.17   20.02
   7   7  -2 2400.22   25.97
   6   7  -2    8.54    1.91
   5   7  -2 4035.66   44.36
   4   7  -2 1046.72   14.33
   3   7  -2  877.80   15.42
   2   7  -2 3545.18   61.38
   1   7  -2  904.04   20.49
   0   7  -2 1836.68   34.18
  -1   7  -2 2262.92   40.62
  -2   7  -2  487.87    9.74
  -3   7  -2 3485.46   47.44
  -4   7  -2  879.44   14.72
  -5   7  -2 1657.59   23.59
  -6   7  -2 2312.00   28.52
  -7   7  -2    1.72    1.79
  -8   7  -2 1783.81   21.45
   9   8  -2  662.79   10.15
   8   8  -2  382.01    6.32
   7   8  -2  212.42    4.43
   6   8  -2 1091.04   15.80
   5   8  -2   87.77    3.17
   4   8  -2 1192.79   15.74
   3   8  -2  374.24    7.79
   2   8  -2   19.42    2.58
   1   8  -2 1025.10   18.21
   0   8  -2  265.75    7.65
  -1   8  -2  927.53   16.66
  -2   8  -2 1204.30   16.59
  -3   8  -2    3.47    1.44
  -4   8  -2  560.39   10.19
  -5   8  -2  427.12    7.82
  -6   8  -2  442.30    7.57
  -7   8  -2  411.11    8.24
   8   9  -2  416.42   33.98
   7   9  -2  798.45   11.36
   6   9  -2    3.99    1.78
   5   9  -2 1319.33   17.99
   4   9  -2  345.61    6.70
   3   9  -2  649.69   11.22
   2   9  -2 1991.78   28.55
   1   9  -2  177.06    6.32
   0   9  -2  810.97   14.08
  -1   9  -2  325.39    7.26
  -2   9  -2  398.00    7.75
  -3   9  -2 1278.27   19.17
  -4   9  -2  512.68   10.18
  -5   9  -2  272.51    6.61
  -6   9  -2  564.88   11.19
   6  10  -2 1114.63   17.57
   5  10  -2  179.20    5.76
   4  10  -2 1516.52   20.00
   3  10  -2 1187.63   19.01
   2  10  -2   17.31    3.45
   1  10  -2 2086.61   33.35
   0  10  -2  573.28   11.46
  -1  10  -2  809.61   13.39
  -2  10  -2 2015.60   26.34
  -3  10  -2   44.42    3.26
  -4  10  -2 1065.02   16.94
   3  11  -2   26.20    3.08
   2  11  -2   60.37    4.57
   1  11  -2    1.61    2.92
   0  11  -2   84.22    5.89
  -1  11  -2   19.52    2.56
  12   0  -3    8.52    2.24
  11   0  -3    3.07    1.81
  10   0  -3    5.97    1.70
   9   0  -3    2.18    1.62
   8   0  -3    2.09    1.54
   7   0  -3    2.79    1.45
   6   0  -3    1.04    1.36
   5   0  -3    0.56    1.43
   4   0  -3   -0.08    1.62
   3   0  -3   -0.29    1.43
   1   0  -3    3.13    0.99
   0   0  -3    4.65    1.69
  -1   0  -3   11.83    2.14
  -2   0  -3   -1.33    1.62
  -3   0  -3   -0.79    1.43
  -4   0  -3    3.55    1.40
  -5   0  -3    3.19    1.74
  -6   0  -3    1.94    2.05
  -7   0  -3    2.28    1.57
  -8   0  -3    1.10    1.68
  -9   0  -3    2.96    1.75
 -10   0  -3    1.10    2.24
  12   1  -3  122.75    3.19
  11   1  -3 2530.05   24.65
  10   1  -3 3668.68   33.35
   9   1  -3   94.28    2.66
   8   1  -3 6005.51   62.81
   7   1  -3 2247.03   27.03
   6   1  -3 1794.05   23.92
   5   1  -3 9145.57  112.99
   4   1  -3  478.54   10.06
   3   1  -3 4439.28   82.99
   2   1  -3 3097.82   47.42
   1   1  -3 1051.31   13.19
   0   1  -3 6965.27   85.60
  -1   1  -3 2620.95   40.58
  -2   1  -3 2744.17   39.60
  -3   1  -3 3669.07   49.50
  -4   1  -3   64.40    2.50
  -5   1  -3 5428.81   64.84
  -6   1  -3 1934.58   22.90
  -7   1  -3  798.27    9.40
  -8   1  -3 3037.54   26.83
  -9   1  -3  286.06    4.48
 -10   1  -3 1003.81   11.02
  12   2  -3  747.73    8.90
  11   2  -3   34.14    1.82
  10   2  -3  116.83    2.91
   9   2  -3 1707.00   17.50
   8   2  -3  614.51    9.01
   7   2  -3 1439.08   18.86
   6   2  -3  552.21    8.93
   5   2  -3  219.05    4.02
   4   2  -3 4187.87   55.59
   3   2  -3 3715.31   62.50
   2   2  -3 1518.70   20.70
   1   2  -3  631.70    9.35
   0   2  -3 1787.35   24.34
  -1   2  -3 1985.41   28.82
  -2   2  -3 3563.16   51.35
  -3   2  -3   64.66    2.23
  -4   2  -3  791.47   12.56
  -5   2  -3  192.39    3.94
  -6   2  -3  468.60    6.29
  -7   2  -3  991.69   10.41
  -8   2  -3  128.01    3.20
  -9   2  -3  407.55    6.04
 -10   2  -3  159.24    7.08
  12   3  -3  216.09    4.33
  11   3  -3 1079.12   11.97
  10   3  -3 1301.85   14.74
   9   3  -3   73.55    2.73
   8   3  -3 1867.33   20.65
   7   3  -3  595.07    9.44
   6   3  -3 1023.83   13.04
   5   3  -3 3347.30   40.20
   4   3  -3  442.09    6.82
   3   3  -3 2709.10   39.19
   2   3  -3 3169.50   53.25
   1   3  -3  754.81   10.26
   0   3  -3 7381.00   86.21
  -1   3  -3 1897.10   23.41
  -2   3  -3 1168.00   17.05
  -3   3  -3 1203.53   19.52
  -4   3  -3    3.23    0.91
  -5   3  -3 3358.71   46.25
  -6   3  -3 1536.46   17.50
  -7   3  -3  173.02    3.54
  -8   3  -3 1587.94   16.24
  -9   3  -3   77.36    3.07
  12   4  -3 2625.45   31.27
  11   4  -3  604.61    7.91
  10   4  -3  757.01    9.57
   9   4  -3 4219.36   41.83
   8   4  -3    9.28    1.46
   7   4  -3 3863.39   46.85
   6   4  -3 2636.82   30.88
   5   4  -3  656.50    9.88
   4   4  -3 5310.78   70.28
   3   4  -3 2322.03   31.83
   2   4  -3 5358.60   99.49
   1   4  -3 6237.19  103.25
   0   4  -3   18.51    1.41
  -1   4  -3 4204.81   52.83
  -2   4  -3 1924.10   27.34
  -3   4  -3 1067.14   16.16
  -4   4  -3 3322.36   49.16
  -5   4  -3  308.50    5.91
  -6   4  -3  919.25   12.53
  -7   4  -3 2668.36   31.01
  -8   4  -3  166.83    4.34
  -9   4  -3 1569.38   18.40
  11   5  -3   77.90    2.86
  10   5  -3   98.69    3.16
   9   5  -3    3.45    1.41
   8   5  -3  124.89    3.21
   7   5  -3   77.06    2.66
   6   5  -3  336.92    6.04
   5   5  -3  505.03    8.00
   4   5  -3  201.88    4.43
   3   5  -3  298.96    5.54
   2   5  -3  208.39    5.72
   1   5  -3   46.45    2.59
   0   5  -3  426.19    8.61
  -1   5  -3  123.08    3.03
  -2   5  -3    5.57    1.82
  -3   5  -3  152.57    4.22
  -4   5  -3   14.86    1.82
  -5   5  -3  128.90    3.78
  -6   5  -3    4.13    1.75
  -7   5  -3    3.51    1.73
  -8   5  -3   23.92    2.09
  11   6  -3 1016.45   14.44
  10   6  -3  626.33    8.20
   9   6  -3 3342.87   34.04
   8   6  -3  273.76    4.80
   7   6  -3 2754.93   28.29
   6   6  -3 4745.37   55.56
   5   6  -3   90.62    2.70
   4   6  -3 3669.23   49.78
   3   6  -3 1797.59   25.18
   2   6  -3 2089.41   31.32
   1   6  -3 5022.71   71.43
   0   6  -3  419.18    8.82
  -1   6  -3 3117.49   49.64
  -2   6  -3 2143.83   39.02
  -3   6  -3  450.40    7.86
  -4   6  -3 5031.80   60.27
  -5   6  -3  348.46    6.29
  -6   6  -3 1698.82   20.67
  -7   6  -3 2354.32   27.50
  -8   6  -3    8.45    1.93
  10   7  -3  277.65    5.19
   9   7  -3   21.38    1.59
   8   7  -3  429.33    5.92
   7   7  -3  203.82    3.97
   6   7  -3   63.50    2.61
   5   7  -3 1026.22   13.79
   4   7  -3   20.85    1.80
   3   7  -3  104.20    2.52
   2   7  -3  195.85    6.25
   1   7  -3    3.43    1.37
   0   7  -3  651.65   10.81
  -1   7  -3  135.70    3.81
  -2   7  -3   26.45    2.13
  -3   7  -3   82.54    3.38
  -4   7  -3   -2.17    2.39
  -5   7  -3  345.60    6.73
  -6   7  -3   40.80    2.68
  -7   7  -3    8.39    2.00
   9   8  -3 1647.28   18.43
   8   8  -3   78.88    3.09
   7   8  -3 1023.43   12.40
   6   8  -3 1717.68   19.58
   5   8  -3  258.89    5.69
   4   8  -3 2290.47   27.69
   3   8  -3  368.36    6.18
   2   8  -3 1045.43   17.50
   1   8  -3 2093.93   28.93
   0   8  -3   20.20    2.40
  -1   8  -3 2775.10   35.44
  -2   8  -3  982.57   12.80
  -3   8  -3  243.11    6.71
  -4   8  -3 2568.88   33.46
  -5   8  -3   74.75    3.66
  -6   8  -3 1622.25   20.05
   8   9  -3  969.50   15.77
   7   9  -3  336.21    6.03
   6   9  -3  625.22    9.69
   5   9  -3 2079.94   28.23
   4   9  -3   18.97    1.64
   3   9  -3 1258.83   19.73
   2   9  -3 1117.53   18.04
   1   9  -3  216.83    6.93
   0   9  -3 2290.37   29.32
  -1   9  -3  293.00    6.29
  -2   9  -3  580.00    9.68
  -3   9  -3 1238.60   18.70
  -4   9  -3    8.84    2.03
  -5   9  -3 1325.50   19.72
   6  10  -3  219.53    6.08
   5  10  -3   11.66    2.08
   4  10  -3  374.27    7.77
   3  10  -3   42.91    2.52
   2  10  -3  158.06    5.80
   1  10  -3  533.59    9.63
   0  10  -3   -1.55    2.02
  -1  10  -3  393.61    8.25
  -2  10  -3  116.59    4.77
  -3  10  -3   14.92    2.26
   2  11  -3 1867.11   34.55
   1  11  -3  131.65    6.26
   0  11  -3 1759.65   74.22
  13   0  -4  929.26   16.30
  12   0  -4 1827.48   26.45
  11   0  -4    4.08    2.20
  10   0  -4 4234.93   55.68
   9   0  -4 3158.25   47.51
   8   0  -4  687.66   13.51
   7   0  -4 3771.95   59.11
   6   0  -4 1054.87   20.19
   5   0  -4 6810.51  113.45
   4   0  -4 6622.31  142.26
   3   0  -4 2215.32   60.66
   2   0  -4 6361.50  136.24
   1   0  -4 1921.02   37.05
   0   0  -4 4452.83   96.26
  -1   0  -4 9121.81  194.70
  -2   0  -4  479.87   11.52
  -3   0  -4 3360.71   64.54
  -4   0  -4 5260.52   89.00
  -5   0  -4   40.99    3.39
  -6   0  -4 5507.27   74.76
  -7   0  -4 1102.91   15.42
  -8   0  -4  670.02   10.60
  -9   0  -4 2046.47   26.99
  12   1  -4   92.24    3.34
  11   1  -4  110.74    3.26
  10   1  -4   93.97    2.73
   9   1  -4   41.34    1.96
   8   1  -4  152.31    3.64
   7   1  -4   11.94    1.18
   6   1  -4  771.16   11.67
   5   1  -4 1341.21   19.43
   4   1  -4  101.05    2.88
   3   1  -4 2036.07   27.98
   2   1  -4   84.09    2.56
   1   1  -4  361.35    5.26
   0   1  -4  980.61   13.35
  -1   1  -4    8.66    1.18
  -2   1  -4  790.89   12.13
  -3   1  -4  441.80    8.49
  -4   1  -4  147.53    3.61
  -5   1  -4  656.78    9.26
  -6   1  -4    1.80    1.21
  -7   1  -4  608.49    7.83
  -8   1  -4  202.38    3.61
  -9   1  -4    6.09    1.45
  12   2  -4 1500.82   16.45
  11   2  -4   33.18    1.90
  10   2  -4 3083.53   30.12
   9   2  -4 2697.84   28.12
   8   2  -4  481.02    7.98
   7   2  -4 4261.39   54.36
   6   2  -4 1462.94   18.99
   5   2  -4 2725.56   33.26
   4   2  -4 5515.42   73.10
   3   2  -4   38.74    1.51
   2   2  -4 5525.41   68.32
   1   2  -4 6200.98   69.29
   0   2  -4  952.93   12.97
  -1   2  -4 7095.20   93.11
  -2   2  -4  341.91    6.83
  -3   2  -4 2398.51   33.38
  -4   2  -4 4051.36   51.74
  -5   2  -4    9.65    1.26
  -6   2  -4 2633.20   25.24
  -7   2  -4  736.49    7.93
  -8   2  -4  679.72    7.98
  -9   2  -4 2223.39   22.12
  12   3  -4  344.39    5.86
  11   3  -4 1584.89   17.68
  10   3  -4  624.51    8.38
   9   3  -4 1604.88   18.40
   8   3  -4 2511.21   27.34
   7   3  -4  110.98    3.37
   6   3  -4 4318.82   51.90
   5   3  -4 3000.14   40.85
   4   3  -4  226.63    4.43
   3   3  -4 6459.65   80.04
   2   3  -4  655.79    9.27
   1   3  -4 1492.00   17.06
   0   3  -4 3713.01   44.41
  -1   3  -4   38.15    1.90
  -2   3  -4 3185.00   46.71
  -3   3  -4 1283.57   19.09
  -4   3  -4  425.57    9.04
  -5   3  -4 1029.50   11.66
  -6   3  -4  117.70    2.56
  -7   3  -4 2034.59   21.85
  -8   3  -4  978.98   12.36
  -9   3  -4   14.18    8.44
  12   4  -4  467.21    7.81
  11   4  -4    2.17    1.51
  10   4  -4  617.67    7.92
   9   4  -4  439.50    6.81
   8   4  -4  115.90    3.33
   7   4  -4 1658.18   22.66
   6   4  -4  222.59    5.45
   5   4  -4  952.76   13.81
   4   4  -4  877.37   12.67
   3   4  -4   10.76    1.33
   2   4  -4 2351.97   34.33
   1   4  -4  894.22   12.58
   0   4  -4  338.73    5.48
  -1   4  -4  605.21    8.83
  -2   4  -4  114.38    3.44
  -3   4  -4 1484.49   21.94
  -4   4  -4  791.46   10.37
  -5   4  -4   92.53    3.29
  -6   4  -4  502.24    8.97
  -7   4  -4  161.73    4.36
  -8   4  -4  530.86    8.41
  11   5  -4 2301.41   23.66
  10   5  -4  493.33    6.95
   9   5  -4 1891.79   24.09
   8   5  -4 3885.85   39.81
   7   5  -4    8.25    1.27
   6   5  -4 4779.99   60.93
   5   5  -4 1415.65   22.19
   4   5  -4  766.33   13.27
   3   5  -4 7408.79   97.56
   2   5  -4  560.37    9.84
   1   5  -4 3054.45   41.49
   0   5  -4 4517.83   64.91
  -1   5  -4  161.03    3.73
  -2   5  -4 5822.01   83.47
  -3   5  -4 2459.48   29.44
  -4   5  -4 1145.11   13.32
  -5   5  -4 2492.37   27.33
  -6   5  -4  226.26    5.10
  -7   5  -4 2432.02   27.80
  -8   5  -4 1928.92   27.66
  11   6  -4   44.64    2.86
  10   6  -4    8.22    1.56
   9   6  -4    7.57    1.52
   8   6  -4   36.91    1.98
   7   6  -4    9.04    1.54
   6   6  -4   53.17    2.82
   5   6  -4    2.18    1.29
   4   6  -4   11.97    1.48
   3   6  -4  121.65    4.81
   2   6  -4   33.43    2.43
   1   6  -4  487.13    9.08
   0   6  -4   13.90    1.82
  -1   6  -4  125.11    3.52
  -2   6  -4   96.24    3.71
  -3   6  -4   57.27    2.74
  -4   6  -4  204.21    4.89
  -5   6  -4   23.19    1.93
  -6   6  -4   16.17    2.00
  -7   6  -4    8.44    1.88
  10   7  -4  466.13    7.92
   9   7  -4  878.62   11.79
   8   7  -4 2579.57   27.62
   7   7  -4  238.38    4.57
   6   7  -4 2941.29   34.30
   5   7  -4 1733.87   22.19
   4   7  -4  561.49    8.93
   3   7  -4 4321.75   52.03
   2   7  -4  422.98    7.35
   1   7  -4 2627.91   34.75
   0   7  -4 3107.02   44.21
  -1   7  -4   64.04    3.05
  -2   7  -4 3415.20   52.10
  -3   7  -4 2367.92   29.37
  -4   7  -4  933.51   13.33
  -5   7  -4 2602.66   31.30
  -6   7  -4   96.86    3.97
   9   8  -4  166.35    4.92
   8   8  -4  166.98    4.53
   7   8  -4 1148.68   13.40
   6   8  -4  231.95    4.95
   5   8  -4  896.74   14.81
   4   8  -4  740.87   12.07
   3   8  -4   64.91    3.75
   2   8  -4 1489.68   20.59
   1   8  -4  723.75   13.02
   0   8  -4  126.27    4.09
  -1   8  -4  486.94    8.52
  -2   8  -4   30.53    2.80
  -3   8  -4  541.82    8.52
  -4   8  -4  908.12   13.03
  -5   8  -4   18.97    2.08
   8   9  -4  740.70   43.98
   7   9  -4    9.27    1.79
   6   9  -4  791.31   10.99
   5   9  -4  370.47    7.60
   4   9  -4  177.33    5.32
   3   9  -4  894.13   13.39
   2   9  -4  136.05    4.15
   1   9  -4  773.26   12.42
   0   9  -4  987.55   17.01
  -1   9  -4   52.99    3.14
  -2   9  -4  845.57   13.22
  -3   9  -4  306.47    6.93
  -4   9  -4  194.62    5.60
   6  10  -4  293.27   23.94
   5  10  -4  942.89   14.57
   4  10  -4 2027.63   25.39
   3  10  -4   43.00    2.84
   2  10  -4 1762.32   22.00
   1  10  -4 1034.68   14.31
   0  10  -4  346.89    7.17
  -1  10  -4 2007.74   27.30
  -2  10  -4  239.26    7.83
  13   0  -5    2.79    2.24
  12   0  -5    0.49    2.14
  11   0  -5   -0.63    1.86
  10   0  -5    0.67    1.74
   9   0  -5    1.82    2.06
   8   0  -5    2.46    1.69
   7   0  -5    6.65    2.06
   6   0  -5   -1.09    1.55
   5   0  -5    0.55    1.61
   4   0  -5    2.24    1.33
   3   0  -5   -0.27    1.28
   2   0  -5   -1.34    1.17
   1   0  -5   -0.24    0.98
   0   0  -5    4.87    1.17
  -1   0  -5    4.10    1.54
  -2   0  -5    0.16    1.73
  -3   0  -5   10.60    2.28
  -4   0  -5   -0.05    1.79
  -5   0  -5    7.28    1.85
  -6   0  -5    1.05    1.88
  -7   0  -5    0.42    2.13
  -8   0  -5   -0.99    2.00
  13   1  -5  339.93    6.36
  12   1  -5  804.76    9.15
  11   1  -5 2952.42   28.62
  10   1  -5    2.28    1.36
   9   1  -5 3142.47   30.78
   8   1  -5  802.24   11.36
   7   1  -5 1132.51   14.80
   6   1  -5 6139.34   77.19
   5   1  -5  763.36   12.17
   4   1  -5 5883.79   77.83
   3   1  -5 2676.04   34.41
   2   1  -5  510.17    7.18
   1   1  -5 8297.74  102.52
   0   1  -5 2975.42   36.11
  -1   1  -5 3112.24   42.37
  -2   1  -5 4014.78   54.29
  -3   1  -5  377.58    7.30
  -4   1  -5 3656.76   41.47
  -5   1  -5 3444.16   32.32
  -6   1  -5  402.50    6.01
  -7   1  -5 2019.15   20.18
  -8   1  -5  403.79    5.61
  12   2  -5  477.77    6.85
  11   2  -5   34.68    1.84
  10   2  -5  926.59   11.58
   9   2  -5    9.40    1.54
   8   2  -5  811.44   10.15
   7   2  -5 2413.09   32.13
   6   2  -5   90.97    2.83
   5   2  -5 1598.01   22.23
   4   2  -5 1267.48   17.38
   3   2  -5  638.23   10.07
   2   2  -5 2173.93   24.45
   1   2  -5   18.21    1.28
   0   2  -5 1978.84   27.68
  -1   2  -5  919.68   14.09
  -2   2  -5   78.55    3.09
  -3   2  -5 1594.75   23.53
  -4   2  -5  127.70    3.42
  -5   2  -5  812.76    9.99
  -6   2  -5 1930.41   18.43
  -7   2  -5    7.88    1.41
  -8   2  -5  548.23    7.93
  12   3  -5  261.82    5.14
  11   3  -5 1003.36   11.43
  10   3  -5    3.15    1.44
   9   3  -5 2092.83   22.82
   8   3  -5 1549.50   18.10
   7   3  -5  528.75    8.49
   6   3  -5 3076.77   37.82
   5   3  -5   53.62    2.15
   4   3  -5 2087.63   27.49
   3   3  -5 2540.24   31.15
   2   3  -5   14.84    1.23
   1   3  -5 3127.14   48.95
   0   3  -5  705.75    9.97
  -1   3  -5 1687.34   22.69
  -2   3  -5 4081.82   59.18
  -3   3  -5    7.76    1.33
  -4   3  -5 2128.25   24.93
  -5   3  -5  945.68   10.59
  -6   3  -5  227.88    3.93
  -7   3  -5 1758.65   19.69
  -8   3  -5  204.05    5.66
  12   4  -5  928.70   13.12
  11   4  -5  173.75    4.04
  10   4  -5 1905.73   20.67
   9   4  -5  144.10    3.62
   8   4  -5 2510.07   26.52
   7   4  -5 3477.58   37.02
   6   4  -5  319.37    6.27
   5   4  -5 2064.62   27.62
   4   4  -5  935.90   14.49
   3   4  -5 2106.75   29.44
   2   4  -5 2941.52   33.97
   1   4  -5  180.54    3.91
   0   4  -5 3574.94   41.31
  -1   4  -5 2264.72   31.65
  -2   4  -5  545.80    8.66
  -3   4  -5 4293.97   51.51
  -4   4  -5  385.43    6.26
  -5   4  -5 1316.95   15.00
  -6   4  -5 2599.14   28.27
  -7   4  -5   16.62    1.89
  11   5  -5   20.24    1.73
  10   5  -5   31.56    1.96
   9   5  -5  168.08    4.13
   8   5  -5  337.19    5.54
   7   5  -5  168.37    3.86
   6   5  -5  209.17    4.51
   5   5  -5  307.45    6.47
   4   5  -5    2.86    1.39
   3   5  -5  457.91    8.17
   2   5  -5   84.14    3.53
   1   5  -5   16.26    1.58
   0   5  -5   24.88    1.66
  -1   5  -5   18.82    1.79
  -2   5  -5   58.91    2.96
  -3   5  -5    4.96    1.22
  -4   5  -5   73.40    2.83
  -5   5  -5   59.14    2.92
  -6   5  -5    6.80    1.72
  -7   5  -5  165.47    5.15
  11   6  -5  138.89    4.19
  10   6  -5 2122.01   23.48
   9   6  -5  267.38    5.18
   8   6  -5 1867.10   19.62
   7   6  -5 4022.89   40.47
   6   6  -5   21.75    1.94
   5   6  -5 3366.15   38.01
   4   6  -5 2263.91   27.87
   3   6  -5 1835.76   25.03
   2   6  -5 5912.52   63.49
   1   6  -5  183.91    4.56
   0   6  -5 3031.79   34.59
  -1   6  -5 3045.34   33.45
  -2   6  -5   46.30    2.56
  -3   6  -5 4806.83   53.12
  -4   6  -5  759.85   11.05
  -5   6  -5  718.78   10.76
  -6   6  -5 2507.80   28.46
  10   7  -5   13.60    1.84
   9   7  -5  235.34    4.87
   8   7  -5  123.85    3.62
   7   7  -5    9.46    1.63
   6   7  -5  218.43    4.50
   5   7  -5    4.02    1.89
   4   7  -5  825.18   11.78
   3   7  -5  448.64    8.10
   2   7  -5   24.45    1.71
   1   7  -5  148.22    4.22
   0   7  -5   32.77    2.01
  -1   7  -5  317.46    6.43
  -2   7  -5  474.41    8.16
  -3   7  -5  116.61    3.70
  -4   7  -5   81.80    3.81
  -5   7  -5  125.52    4.38
   9   8  -5   61.75    3.23
   8   8  -5 1012.67   11.90
   7   8  -5 1541.92   17.28
   6   8  -5   44.01    2.43
   5   8  -5 1622.89   22.82
   4   8  -5  790.06   12.42
   3   8  -5  907.97   13.56
   2   8  -5 2359.51   26.65
   1   8  -5   25.93    1.90
   0   8  -5 1845.92   24.34
  -1   8  -5 1337.20   17.76
  -2   8  -5   87.80    3.72
  -3   8  -5 1922.30   22.14
  -4   8  -5  307.51    6.99
   7   9  -5  264.93    5.78
   6   9  -5 1092.11   12.95
   5   9  -5  136.48    4.28
   4   9  -5  919.24   13.97
   3   9  -5 1024.18   14.11
   2   9  -5   60.05    3.26
   1   9  -5 1309.41   17.04
   0   9  -5  182.10    4.82
  -1   9  -5  609.65   10.67
  -2   9  -5 1190.17   18.43
  -3   9  -5   -1.83    2.62
   5  10  -5  535.83   12.22
   4  10  -5  136.98    4.75
   3  10  -5   17.17    2.19
   2  10  -5  180.99    4.93
   1  10  -5  104.43    4.15
   0  10  -5  219.79    6.16
  13   0  -6 2275.50   48.19
  12   0  -6  746.38   12.38
  11   0  -6 2029.62   27.02
  10   0  -6 2337.60   29.73
   9   0  -6  236.73    5.98
   8   0  -6 2471.61   40.94
   7   0  -6 1322.43   25.36
   6   0  -6 1950.67   35.88
   5   0  -6 6337.96  106.33
   4   0  -6  100.23    4.18
   3   0  -6 2010.12   32.50
   2   0  -6 4362.45   67.33
   1   0  -6 1001.48   16.03
   0   0  -6 5684.17   87.23
  -1   0  -6  338.94    8.29
  -2   0  -6 1410.74   29.97
  -3   0  -6 2643.39   43.25
  -4   0  -6   -0.04    1.66
  -5   0  -6 3742.33   47.40
  -6   0  -6  949.26   14.67
  -7   0  -6  533.64   10.12
  12   1  -6  299.51    5.10
  11   1  -6  209.85    4.05
  10   1  -6   52.08    2.20
   9   1  -6  208.18    4.23
   8   1  -6   79.27    2.79
   7   1  -6  150.80    3.90
   6   1  -6  192.88    4.22
   5   1  -6   13.26    1.28
   4   1  -6  203.13    4.22
   3   1  -6   58.60    2.13
   2   1  -6  737.19    9.20
   1   1  -6  627.71    8.34
   0   1  -6  263.46    4.62
  -1   1  -6  313.65    5.90
  -2   1  -6   43.58    2.65
  -3   1  -6  365.18    6.04
  -4   1  -6  631.91    7.99
  -5   1  -6   45.71    2.11
  -6   1  -6  126.20    3.32
  -7   1  -6  136.12    3.59
  12   2  -6  319.49    5.29
  11   2  -6 1493.26   16.04
  10   2  -6 2696.45   27.56
   9   2  -6    3.84    1.41
   8   2  -6 2968.17   28.99
   7   2  -6 1178.34   15.57
   6   2  -6 2363.98   31.57
   5   2  -6 7109.86   88.76
   4   2  -6  277.65    5.07
   3   2  -6 2124.87   25.36
   2   2  -6 2818.16   34.55
   1   2  -6  435.08    6.68
   0   2  -6 5283.52   62.99
  -1   2  -6 1246.66   18.76
  -2   2  -6 1476.37   18.12
  -3   2  -6 2620.96   31.43
  -4   2  -6    4.20    1.50
  -5   2  -6 2602.10   26.10
  -6   2  -6  755.64    8.94
  -7   2  -6  346.41    5.78
  12   3  -6 1537.90   16.90
  11   3  -6  898.88   10.95
  10   3  -6  416.49    6.70
   9   3  -6 1785.54   20.22
   8   3  -6  592.53    8.32
   7   3  -6 1882.97   19.85
   6   3  -6 1490.04   18.66
   5   3  -6   89.56    2.45
   4   3  -6 2145.89   26.80
   3   3  -6  871.05   12.14
   2   3  -6  943.25   13.02
   1   3  -6 2415.74   28.76
   0   3  -6   11.43    1.47
  -1   3  -6 1452.21   21.65
  -2   3  -6 1664.85   21.25
  -3   3  -6  613.64    8.73
  -4   3  -6 2435.02   31.39
  -5   3  -6  309.81    4.92
  -6   3  -6  490.72    7.41
  -7   3  -6  939.04   14.35
  12   4  -6    7.29    1.85
  11   4  -6  474.90    7.27
  10   4  -6  861.50   10.79
   9   4  -6   45.84    2.62
   8   4  -6  644.74    8.16
   7   4  -6   27.28    1.70
   6   4  -6  399.79    6.86
   5   4  -6 1365.16   19.42
   4   4  -6  218.69    5.25
   3   4  -6  726.89   10.01
   2   4  -6   65.18    2.34
   1   4  -6  327.75    5.64
   0   4  -6 1070.30   15.65
  -1   4  -6  187.93    4.04
  -2   4  -6  869.69   11.42
  -3   4  -6  729.59   11.19
  -4   4  -6    4.00    1.63
  -5   4  -6  707.02    9.00
  -6   4  -6  395.80    6.72
  11   5  -6 1087.37   12.95
  10   5  -6  449.21    6.86
   9   5  -6 2582.08   26.08
   8   5  -6  511.75    7.83
   7   5  -6 2394.88   24.73
   6   5  -6 1847.51   19.20
   5   5  -6  276.11    5.76
   4   5  -6 4558.51   58.54
   3   5  -6 1454.12   19.64
   2   5  -6 1126.06   14.09
   1   5  -6 2482.72   26.53
   0   5  -6   11.16    1.48
  -1   5  -6 2965.72   31.54
  -2   5  -6 2899.27   29.97
  -3   5  -6  776.03   10.92
  -4   5  -6 2432.65   26.13
  -5   5  -6  259.39    5.45
  -6   5  -6 1548.77   20.64
  10   6  -6    3.52    1.64
   9   6  -6    0.08    1.60
   8   6  -6   10.43    1.72
   7   6  -6   28.79    1.95
   6   6  -6   10.90    1.52
   5   6  -6   84.15    3.11
   4   6  -6   17.71    1.72
   3   6  -6   11.50    1.81
   2   6  -6    4.47    1.46
   1   6  -6    2.96    1.34
   0   6  -6   76.03    2.75
  -1   6  -6    2.57    1.40
  -2   6  -6    4.20    1.55
  -3   6  -6    1.09    1.59
  -4   6  -6   10.33    1.51
  -5   6  -6   75.33    3.57
  10   7  -6  371.57   29.04
   9   7  -6 2066.60   22.59
   8   7  -6   59.86    2.76
   7   7  -6 2347.18   24.68
   6   7  -6 1775.92   19.23
   5   7  -6   53.56    2.59
   4   7  -6 4651.27   46.54
   3   7  -6 1187.49   14.40
   2   7  -6 1145.37   12.50
   1   7  -6 2825.98   30.77
   0   7  -6   12.57    1.60
  -1   7  -6 2471.08   26.75
  -2   7  -6 1346.00   15.57
  -3   7  -6  318.75    6.12
  -4   7  -6 1542.93   20.43
   8   8  -6  523.08    7.94
   7   8  -6  111.39    3.68
   6   8  -6   61.75    2.77
   5   8  -6  845.45   10.42
   4   8  -6   25.00    1.92
   3   8  -6  324.61    5.56
   2   8  -6  328.47    5.83
   1   8  -6  161.78    4.24
   0   8  -6  819.17   10.51
  -1   8  -6  115.17    4.34
  -2   8  -6  254.84    5.92
  -3   8  -6  312.90    6.66
   7   9  -6  899.15   61.23
   6   9  -6  907.37   12.88
   5   9  -6   36.84    2.02
   4   9  -6  898.79   12.07
   3   9  -6  171.08    4.33
   2   9  -6  181.94    4.39
   1   9  -6 1034.51   13.85
   0   9  -6   22.30    2.30
  -1   9  -6  644.28   10.43
  12   0  -7   -1.49    2.26
  11   0  -7   -1.12    2.00
  10   0  -7   -0.56    1.90
   9   0  -7    4.20    1.91
   8   0  -7    2.57    1.85
   7   0  -7   -0.01    1.83
   6   0  -7    0.90    1.82
   5   0  -7    1.70    1.81
   4   0  -7   -1.56    1.69
   3   0  -7   11.24    2.71
   2   0  -7    1.80    1.48
   1   0  -7    3.98    1.62
   0   0  -7    5.70    1.91
  -1   0  -7    1.56    1.91
  -2   0  -7    4.05    1.80
  -3   0  -7    1.43    1.84
  -4   0  -7    1.15    1.90
  -5   0  -7    2.08    2.09
  -6   0  -7   -1.23    2.07
  12   1  -7 2268.84   22.07
  11   1  -7    7.07    1.54
  10   1  -7 3759.24   33.99
   9   1  -7 3830.09   36.34
   8   1  -7  139.98    3.82
   7   1  -7 3957.94   40.43
   6   1  -7 1599.87   20.16
   5   1  -7 2642.58   30.23
   4   1  -7 4668.38   51.35
   3   1  -7  260.73    4.27
   2   1  -7 4645.69   48.98
   1   1  -7 3585.17   38.26
   0   1  -7  218.96    4.50
  -1   1  -7 3019.20   29.84
  -2   1  -7   94.97    3.28
  -3   1  -7 2153.33   21.23
  -4   1  -7 3018.89   30.65
  -5   1  -7   42.08    2.19
  -6   1  -7 1853.42   19.95
  12   2  -7   23.80    1.78
  11   2  -7 1155.02   12.62
  10   2  -7  246.72    4.97
   9   2  -7  264.48    4.64
   8   2  -7 2039.67   22.44
   7   2  -7    3.74    1.27
   6   2  -7  921.77   10.88
   5   2  -7  330.49    5.68
   4   2  -7  182.69    3.73
   3   2  -7 2973.03   33.50
   2   2  -7  711.84    9.58
   1   2  -7 1039.97   13.65
   0   2  -7  646.14    8.24
  -1   2  -7    5.90    1.37
  -2   2  -7 1773.97   20.14
  -3   2  -7  714.53   10.13
  -4   2  -7   78.48    2.83
  -5   2  -7  253.98    4.80
  -6   2  -7   42.96    2.34
  12   3  -7 1062.35   12.94
  11   3  -7   19.03    1.80
  10   3  -7 1331.18   14.87
   9   3  -7 1827.12   20.31
   8   3  -7   59.81    2.71
   7   3  -7 1609.55   17.24
   6   3  -7  640.83    8.36
   5   3  -7 1866.50   19.49
   4   3  -7 2370.57   28.61
   3   3  -7  107.98    3.87
   2   3  -7 2036.25   24.95
   1   3  -7 1175.83   12.82
   0   3  -7  285.42    5.35
  -1   3  -7 2025.45   22.16
  -2   3  -7   65.50    2.87
  -3   3  -7 1035.60   13.26
  -4   3  -7 1448.32   16.53
  -5   3  -7   60.65    2.84
  -6   3  -7  927.28   51.06
  11   4  -7 2220.43   23.25
  10   4  -7  682.86    9.20
   9   4  -7  305.21    5.38
   8   4  -7 3033.95   30.57
   7   4  -7   20.46    1.62
   6   4  -7 2586.85   26.87
   5   4  -7 1719.03   20.66
   4   4  -7  227.43    4.00
   3   4  -7 3607.21   35.45
   2   4  -7  500.68    6.69
   1   4  -7 1515.30   16.32
   0   4  -7 1805.69   17.83
  -1   4  -7   89.82    3.14
  -2   4  -7 2926.15   34.78
  -3   4  -7 1110.80   13.70
  -4   4  -7  437.75    7.27
  -5   4  -7 1747.68   19.10
  11   5  -7    5.16    1.80
  10   5  -7  139.14    3.75
   9   5  -7   91.08    3.30
   8   5  -7   -0.08    1.58
   7   5  -7    4.72    1.46
   6   5  -7    6.06    1.49
   5   5  -7   93.10    3.18
   4   5  -7  236.09    4.58
   3   5  -7    3.76    1.44
   2   5  -7  269.91    4.23
   1   5  -7  183.43    3.56
   0   5  -7   20.79    1.40
  -1   5  -7  428.85    7.15
  -2   5  -7   39.48    2.09
  -3   5  -7   39.07    2.27
  -4   5  -7  130.82    3.87
  10   6  -7  938.93   11.73
   9   6  -7 1196.47   14.12
   8   6  -7 3526.23   35.79
   7   6  -7    6.68    1.71
   6   6  -7 2789.98   28.66
   5   6  -7 3127.51   32.33
   4   6  -7  464.88    6.71
   3   6  -7 4253.92   41.24
   2   6  -7  933.79   10.52
   1   6  -7 1657.33   17.49
   0   6  -7 2967.79   30.47
  -1   6  -7    7.11    1.63
  -2   6  -7 2418.63   25.42
  -3   6  -7  878.83   11.40
  -4   6  -7  470.10    7.85
   9   7  -7  112.00    3.85
   8   7  -7   75.51    3.20
   7   7  -7  322.62    5.68
   6   7  -7  348.14    6.03
   5   7  -7  125.67    3.87
   4   7  -7  203.23    4.15
   3   7  -7    9.77    1.72
   2   7  -7  278.96    5.03
   1   7  -7  229.39    5.14
   0   7  -7    5.26    1.69
  -1   7  -7  261.76    5.11
  -2   7  -7   23.64    1.90
  -3   7  -7   12.86    2.73
   7   8  -7  100.94    3.74
   6   8  -7  912.15   11.09
   5   8  -7  643.48    9.47
   4   8  -7  496.67    7.71
   3   8  -7 1817.51   19.03
   2   8  -7  557.14    7.99
   1   8  -7  485.40    8.06
   0   8  -7  929.73   12.10
  -1   8  -7   68.51    3.31
   5   9  -7  495.80    8.14
   4   9  -7  899.37   11.60
   3   9  -7   -2.30    2.00
   2   9  -7  950.61   12.81
   1   9  -7  669.07   15.19
  12   0  -8 1105.07   16.88
  11   0  -8 2164.92   28.55
  10   0  -8   22.22    2.51
   9   0  -8 4765.13   59.61
   8   0  -8 2288.28   30.61
   7   0  -8  408.07    8.61
   6   0  -8 4268.50   59.25
   5   0  -8  560.55   10.53
   4   0  -8 2143.34   30.99
   3   0  -8 3641.18   53.46
   2   0  -8   28.20    1.96
   1   0  -8 3682.92   45.85
   0   0  -8 2110.00   28.06
  -1   0  -8 1934.09   27.09
  -2   0  -8 3571.48   46.07
  -3   0  -8  128.15    4.51
  -4   0  -8 2244.03   34.22
  -5   0  -8 1561.15   25.46
  12   1  -8   94.61    3.42
  11   1  -8   27.21    1.71
  10   1  -8  246.93    4.50
   9   1  -8   78.05    2.81
   8   1  -8  378.11    6.25
   7   1  -8  212.02    4.08
   6   1  -8  148.30    3.61
   5   1  -8  170.58    3.48
   4   1  -8  196.59    3.48
   3   1  -8   92.17    2.37
   2   1  -8  374.92    5.09
   1   1  -8    4.75    1.16
   0   1  -8  164.31    3.49
  -1   1  -8  367.21    5.20
  -2   1  -8   14.63    1.59
  -3   1  -8  116.98    3.37
  -4   1  -8    2.49    1.57
  -5   1  -8   31.80    2.08
  12   2  -8  892.58   12.25
  11   2  -8 1623.25   15.94
  10   2  -8    8.30    1.50
   9   2  -8 3225.82   30.77
   8   2  -8 1525.54   14.78
   7   2  -8  492.35    6.79
   6   2  -8 4590.02   43.56
   5   2  -8  385.60    5.82
   4   2  -8 2481.27   22.62
   3   2  -8 2995.78   26.73
   2   2  -8  308.19    4.59
   1   2  -8 3797.82   33.74
   0   2  -8 1867.27   18.61
  -1   2  -8  785.98   10.37
  -2   2  -8 2226.84   22.60
  -3   2  -8  140.50    3.90
  -4   2  -8 1731.25   19.50
  -5   2  -8 1382.43   65.79
  11   3  -8  234.02    5.11
  10   3  -8  978.86   11.96
   9   3  -8  220.77    4.45
   8   3  -8 2056.46   21.22
   7   3  -8 2277.30   22.00
   6   3  -8   23.40    1.69
   5   3  -8 2065.16   21.21
   4   3  -8 1639.38   17.21
   3   3  -8 1045.69   12.00
   2   3  -8 3635.43   34.20
   1   3  -8  171.81    3.67
   0   3  -8  939.44   10.32
  -1   3  -8 2712.78   27.92
  -2   3  -8    2.69    1.68
  -3   3  -8 1385.26   16.42
  -4   3  -8  272.62    5.71
  11   4  -8  360.49    6.62
  10   4  -8    3.73    1.67
   9   4  -8  590.55    8.30
   8   4  -8  246.55    5.26
   7   4  -8   95.31    3.65
   6   4  -8 1083.74   13.15
   5   4  -8  110.93    3.08
   4   4  -8  279.55    4.41
   3   4  -8  405.78    5.86
   2   4  -8  100.33    2.85
   1   4  -8 1346.35   14.32
   0   4  -8  553.74    7.72
  -1   4  -8   37.29    2.35
  -2   4  -8  234.16    5.01
  -3   4  -8    1.16    1.81
  -4   4  -8  502.66    9.74
  10   5  -8 1828.72   19.33
   9   5  -8  208.07    4.68
   8   5  -8 2429.50   25.10
   7   5  -8 3858.12   37.46
   6   5  -8   73.97    3.36
   5   5  -8 2295.36   24.23
   4   5  -8 1167.42   13.86
   3   5  -8 1260.44   13.89
   2   5  -8 4228.68   41.30
   1   5  -8  259.25    4.58
   0   5  -8 1728.01   18.97
  -1   5  -8 2128.77   22.21
  -2   5  -8   48.95    2.87
  -3   5  -8 2343.51   24.40
   9   6  -8   13.16    1.84
   8   6  -8    2.71    1.72
   7   6  -8    4.70    1.66
   6   6  -8   19.20    1.73
   5   6  -8    1.34    1.62
   4   6  -8   29.60    2.18
   3   6  -8   27.44    2.13
   2   6  -8    5.30    1.50
   1   6  -8   15.52    1.50
   0   6  -8    6.95    1.63
  -1   6  -8   33.32    2.53
  -2   6  -8    3.91    1.82
   8   7  -8 1437.00   16.20
   7   7  -8 2650.33   27.50
   6   7  -8   -2.29    1.68
   5   7  -8 1905.61   19.48
   4   7  -8  527.21    7.56
   3   7  -8  514.07    7.65
   2   7  -8 2603.80   29.00
   1   7  -8  122.50    3.98
   0   7  -8 1797.91   21.21
  -1   7  -8 1490.38   18.29
   6   8  -8  816.67   10.94
   5   8  -8   29.16    2.01
   4   8  -8  512.82    7.94
   3   8  -8  658.16    8.81
   2   8  -8    8.88    1.88
   1   8  -8  649.06    9.84
  11   0  -9    1.12    2.37
  10   0  -9    3.86    2.24
   9   0  -9    0.86    2.16
   8   0  -9    0.78    2.03
   7   0  -9    0.61    1.81
   6   0  -9    4.86    1.81
   5   0  -9    0.86    1.66
   4   0  -9    3.47    1.82
   3   0  -9    2.75    1.57
   2   0  -9   -2.18    1.63
   1   0  -9    4.86    2.12
   0   0  -9    6.01    2.13
  -1   0  -9    0.05    1.88
  -2   0  -9    1.72    2.36
  -3   0  -9    0.01    2.38
  11   1  -9  893.43   11.51
  10   1  -9 2816.04   26.02
   9   1  -9   66.85    3.09
   8   1  -9 2159.84   20.40
   7   1  -9  815.60    9.02
   6   1  -9 1804.22   17.15
   5   1  -9 4848.91   40.62
   4   1  -9  256.20    4.05
   3   1  -9 2080.51   18.46
   2   1  -9 1094.75   10.89
   1   1  -9  495.50    6.51
   0   1  -9 5945.06   49.60
  -1   1  -9  921.77   10.00
  -2   1  -9 1062.62   12.84
  -3   1  -9 2479.60   24.19
  11   2  -9  177.56    4.10
  10   2  -9  133.92    3.56
   9   2  -9 1027.55   10.79
   8   2  -9    2.03    1.40
   7   2  -9 1170.28   12.19
   6   2  -9  626.57    7.80
   5   2  -9   45.61    2.11
   4   2  -9 1409.52   13.62
   3   2  -9  268.36    4.32
   2   2  -9  329.85    4.93
   1   2  -9  676.86    8.26
   0   2  -9   39.96    2.00
  -1   2  -9  818.20    9.74
  -2   2  -9  484.53    7.43
  -3   2  -9  130.50    3.78
  11   3  -9  627.22    9.61
  10   3  -9  844.09    9.96
   9   3  -9  111.57    3.21
   8   3  -9 1202.51   12.37
   7   3  -9  583.51    7.31
   6   3  -9  649.77    7.97
   5   3  -9 1797.52   21.56
   4   3  -9  104.25    3.21
   3   3  -9 1208.28   13.61
   2   3  -9  823.46    9.72
   1   3  -9  175.69    3.72
   0   3  -9 1453.02   14.78
  -1   3  -9  118.51    3.84
  -2   3  -9  454.18    7.36
  -3   3  -9 1078.94   15.78
  10   4  -9  383.46    6.56
   9   4  -9 1961.99   19.90
   8   4  -9  183.61    4.21
   7   4  -9 1439.21   15.37
   6   4  -9 1595.11   16.78
   5   4  -9   21.65    1.64
   4   4  -9 3029.84   27.55
   3   4  -9 1043.86   11.32
   2   4  -9  975.43   11.16
   1   4  -9 1976.25   20.64
   0   4  -9    4.20    1.64
  -1   4  -9 1696.91   19.88
  -2   4  -9 1315.53   16.00
   9   5  -9    0.54    1.69
   8   5  -9  237.08    4.80
   7   5  -9   96.03    3.32
   6   5  -9  134.81    3.73
   5   5  -9  201.05    4.46
   4   5  -9   86.21    2.91
   3   5  -9   26.07    1.85
   2   5  -9  241.19    4.27
   1   5  -9   -0.26    1.60
   0   5  -9   58.87    3.09
  -1   5  -9   53.45    3.11
   8   6  -9  161.71    4.48
   7   6  -9 2185.09   23.35
   6   6  -9 1681.47   18.09
   5   6  -9  220.13    4.67
   4   6  -9 2525.39   26.73
   3   6  -9  851.93   10.92
   2   6  -9 1178.61   12.41
   1   6  -9 2400.33   23.02
   0   6  -9    4.07    1.88
   7   7  -9   73.19   14.05
   6   7  -9   37.57    2.41
   5   7  -9  176.52    4.62
   4   7  -9    9.41    1.95
   3   7  -9  274.93    5.44
   2   7  -9  215.16    5.10
   1   7  -9    1.79    5.38
  10   0 -10 1894.86   27.26
   9   0 -10 1729.19   21.88
   8   0 -10   19.28    2.32
   7   0 -10 3005.88   37.90
   6   0 -10 1081.28   15.19
   5   0 -10 1559.48   21.95
   4   0 -10 2840.02   35.10
   3   0 -10   29.14    2.28
   2   0 -10 2165.29   28.35
   1   0 -10 2824.39   37.51
   0   0 -10  299.57    8.13
  -1   0 -10 2038.85   26.95
  10   1 -10   97.61    3.67
   9   1 -10   22.71    1.77
   8   1 -10  191.63    3.96
   7   1 -10    9.84    1.45
   6   1 -10  169.00    3.51
   5   1 -10  135.45    3.17
   4   1 -10    9.97    1.38
   3   1 -10   20.83    1.59
   2   1 -10    8.81    1.41
   1   1 -10   38.39    2.04
   0   1 -10   42.94    2.14
  -1   1 -10    0.09    1.59
  10   2 -10 1915.70   18.61
   9   2 -10 1246.91   12.99
   8   2 -10   58.56    2.30
   7   2 -10 1807.70   17.68
   6   2 -10  361.32    5.23
   5   2 -10 1339.61   12.68
   4   2 -10 2519.96   21.96
   3   2 -10   -1.60    1.46
   2   2 -10 1802.27   17.25
   1   2 -10 1480.94   14.69
   0   2 -10  460.56    6.58
  -1   2 -10 1600.99   16.60
  10   3 -10  479.40    8.13
   9   3 -10  239.82    5.07
   8   3 -10 1365.21   15.07
   7   3 -10   13.66    1.68
   6   3 -10 1183.89   12.34
   5   3 -10 1186.90   12.31
   4   3 -10   96.60    3.09
   3   3 -10 1509.73   16.05
   2   3 -10  248.63    4.66
   1   3 -10  759.08    9.62
   0   3 -10  904.63   12.26
  -1   3 -10   18.92    2.65
   9   4 -10  684.66   10.82
   8   4 -10    4.93    1.81
   7   4 -10  488.99    6.80
   6   4 -10   27.14    1.77
   5   4 -10  194.78    4.17
   4   4 -10  870.47    9.70
   3   4 -10   84.15    3.18
   2   4 -10  255.32    4.89
   1   4 -10   97.00    3.61
   0   4 -10   48.40    3.05
   8   5 -10 2206.04   25.87
   7   5 -10   12.33    1.83
   6   5 -10 1599.26   16.93
   5   5 -10 1304.64   14.37
   4   5 -10  175.81    4.15
   3   5 -10 2719.74   24.10
   2   5 -10  546.03    7.49
   1   5 -10  887.66   12.26
   6   6 -10    6.79    2.40
   5   6 -10    5.45    2.30
   4   6 -10    5.10    2.01
   3   6 -10    5.78    2.36
   9   0 -11    2.88    2.23
   8   0 -11   -0.70    2.01
   7   0 -11   -0.55    2.40
   6   0 -11    1.88    2.19
   5   0 -11   -2.34    2.01
   4   0 -11   -1.43    2.06
   3   0 -11   -0.34    2.30
   2   0 -11   -1.20    2.11
   1   0 -11    0.94    2.34
   9   1 -11 2098.81   20.13
   8   1 -11 1752.26   16.24
   7   1 -11  202.59    4.15
   6   1 -11 3164.88   26.56
   5   1 -11  374.07    5.44
   4   1 -11 1812.08   16.93
   3   1 -11 2171.87   19.23
   2   1 -11   13.52    1.64
   1   1 -11 2441.50   23.05
   9   2 -11  134.68    9.12
   8   2 -11  345.99    5.65
   7   2 -11  994.79   10.45
   6   2 -11   24.87    1.83
   5   2 -11  354.80    5.40
   4   2 -11  104.48    3.21
   3   2 -11  176.91    3.99
   2   2 -11  930.18   10.38
   1   2 -11   22.50    2.65
   8   3 -11  615.53    9.29
   7   3 -11  185.31    4.27
   6   3 -11  969.81   11.01
   5   3 -11  256.03    4.84
   4   3 -11  472.25    6.93
   3   3 -11  791.73    9.90
   2   3 -11    5.98    2.11
   7   4 -11 1460.31   74.31
   6   4 -11   14.49    2.15
   5   4 -11 1265.96   15.38
   4   4 -11  830.49   11.23
   3   4 -11  197.70   11.57

_computing_structure_solution     'SHELXT 2014/4 (Sheldrick, 2014)'
;
_shelx_hkl_checksum              55501
loop_
_space_group_symop_operation_xyz
'x, y, z'
'-x, y+1/2, -z+1/2'
'-x, -y, -z'
'x, -y-1/2, z-1/2'
loop_
_atom_site_label
_atom_site_type_symbol
_atom_site_fract_x
_atom_site_fract_y
_atom_site_fract_z
_atom_site_U_iso_or_equiv
_atom_site_adp_type
_atom_site_occupancy
_atom_site_site_symmetry_order
_atom_site_calc_flag
_atom_site_refinement_flags_posn
_atom_site_refinement_flags_adp
_atom_site_refinement_flags_occupancy
_atom_site_disorder_assembly
_atom_site_disorder_group
Tb1 Tb 0.30943(3) 0.54307(3) 0.66876(3) 0.0101(2) Uani 1 1 d . . . . .
O9 O 0.5116(5) 0.3570(6) 1.1123(6) 0.0166(11) Uani 1 1 d . . . . .
O7 O 0.6612(6) 0.4369(7) 0.5681(6) 0.0235(13) Uani 1 1 d . . . . .
O2 O 0.3328(7) 0.7820(7) 0.6174(7) 0.0328(16) Uani 1 1 d . . . . .
H2A H 0.352174 0.791338 0.539196 0.049 Uiso 1 1 d R U . . .
H2B H 0.398353 0.823289 0.692845 0.049 Uiso 1 1 d R U . . .
O6 O 0.5271(5) 0.4734(6) 0.6814(6) 0.0170(12) Uani 1 1 d . . . . .
O4 O 0.1094(5) 0.6074(6) 0.4636(6) 0.0193(12) Uani 1 1 d . . . . .
O5 O 0.3729(6) 0.3968(6) 0.8792(6) 0.0210(12) Uani 1 1 d . . . . .
O8 O -0.1087(5) 0.5723(6) 0.3370(6) 0.0175(12) Uani 1 1 d . . . . .
O3 O 0.2901(6) 0.3109(7) 0.5714(7) 0.0298(14) Uani 1 1 d . . . . .
H3A H 0.239878 0.248435 0.603840 0.045 Uiso 1 1 d R U . . .
H3B H 0.373588 0.264735 0.596139 0.045 Uiso 1 1 d R U . . .
O1 O 0.2046(6) 0.6822(7) 0.7982(7) 0.0306(15) Uani 1 1 d . . . . .
H1A H 0.121319 0.663912 0.764105 0.046 Uiso 1 1 d R U . . .
H1B H 0.215498 0.768493 0.786073 0.046 Uiso 1 1 d R U . . .
C2 C 0.5551(8) 0.4734(8) 0.5722(9) 0.0141(16) Uani 1 1 d . . . . .
C3 C 0.4670(7) 0.4294(8) 0.9977(8) 0.0125(15) Uani 1 1 d . . . . .
C1 C 0.0003(8) 0.5524(7) 0.4418(8) 0.0125(15) Uani 1 1 d . . . . .
O10 O 0.941(2) 0.711(2) 0.124(2) 0.050 Uiso 0.373(19) 1 d G U . . .
O11 O 0.839(3) 0.908(3) 0.336(3) 0.050 Uiso 0.281(19) 1 d G U . . .
loop_
_atom_site_aniso_label
_atom_site_aniso_U_11
_atom_site_aniso_U_22
_atom_site_aniso_U_33
_atom_site_aniso_U_23
_atom_site_aniso_U_13
_atom_site_aniso_U_12
Tb1 0.0084(3) 0.0134(3) 0.0088(3) 0.00004(12) 0.00377(17) 0.00014(12)
O9 0.019(3) 0.018(3) 0.013(3) 0.003(2) 0.007(2) -0.001(2)
O7 0.015(3) 0.038(4) 0.020(3) 0.011(3) 0.010(2) 0.010(2)
O2 0.048(4) 0.027(3) 0.016(3) 0.000(3) 0.006(3) -0.015(3)
O6 0.011(3) 0.029(3) 0.012(3) 0.004(2) 0.007(2) 0.006(2)
O4 0.012(3) 0.026(3) 0.019(3) 0.004(2) 0.006(2) -0.004(2)
O5 0.021(3) 0.021(3) 0.014(3) 0.002(2) 0.000(2) -0.008(2)
O8 0.014(3) 0.023(3) 0.014(3) 0.007(2) 0.005(2) 0.001(2)
O3 0.027(3) 0.022(3) 0.043(4) -0.015(3) 0.016(3) 0.001(3)
O1 0.024(3) 0.030(4) 0.038(4) -0.016(3) 0.014(3) 0.000(3)
C2 0.014(4) 0.015(4) 0.019(4) 0.004(3) 0.012(3) 0.004(3)
C3 0.012(4) 0.016(4) 0.010(4) 0.000(3) 0.005(3) -0.001(3)
C1 0.010(4) 0.015(4) 0.014(4) -0.005(3) 0.006(3) 0.000(3)
loop_
_atom_type_symbol
_atom_type_description
_atom_type_scat_dispersion_real
_atom_type_scat_dispersion_imag
_atom_type_scat_source
C C 0.0033 0.0016 'International Tables Vol C Tables 4.2.6.8 and 6.1.1.4'
H H 0.0000 0.0000 'International Tables Vol C Tables 4.2.6.8 and 6.1.1.4'
O O 0.0106 0.0060 'International Tables Vol C Tables 4.2.6.8 and 6.1.1.4'
Tb Tb -0.1723 4.1537 'International Tables Vol C Tables 4.2.6.8 and 6.1.1.4'
loop_
_geom_angle_atom_site_label_1
_geom_angle_atom_site_label_2
_geom_angle_atom_site_label_3
_geom_angle
_geom_angle_site_symmetry_1
_geom_angle_site_symmetry_3
O5 Tb1 O2 137.5(2) . .
O5 Tb1 O4 137.95(19) . .
O2 Tb1 O4 73.1(2) . .
O5 Tb1 O3 76.0(2) . .
O2 Tb1 O3 143.3(2) . .
O4 Tb1 O3 89.7(2) . .
O5 Tb1 O6 82.4(2) . .
O2 Tb1 O6 94.9(2) . .
O4 Tb1 O6 130.71(19) . .
O3 Tb1 O6 71.9(2) . .
O5 Tb1 O8 71.86(19) . 3_566
O2 Tb1 O8 127.3(2) . 3_566
O4 Tb1 O8 66.10(18) . 3_566
O3 Tb1 O8 69.0(2) . 3_566
O6 Tb1 O8 137.14(19) . 3_566
O5 Tb1 O1 83.4(2) . .
O2 Tb1 O1 72.9(2) . .
O4 Tb1 O1 81.2(2) . .
O3 Tb1 O1 137.4(2) . .
O6 Tb1 O1 141.8(2) . .
O8 Tb1 O1 69.2(2) 3_566 .
O5 Tb1 O9 66.80(18) . 3_667
O2 Tb1 O9 72.5(2) . 3_667
O4 Tb1 O9 141.3(2) . 3_667
O3 Tb1 O9 128.9(2) . 3_667
O6 Tb1 O9 69.62(19) . 3_667
O8 Tb1 O9 125.51(18) 3_566 3_667
O1 Tb1 O9 72.2(2) . 3_667
O5 Tb1 O7 140.3(2) . 3_666
O2 Tb1 O7 70.0(2) . 3_666
O4 Tb1 O7 66.50(18) . 3_666
O3 Tb1 O7 73.4(2) . 3_666
O6 Tb1 O7 64.50(18) . 3_666
O8 Tb1 O7 118.20(19) 3_566 3_666
O1 Tb1 O7 136.3(2) . 3_666
O9 Tb1 O7 116.29(19) 3_667 3_666
C3 O9 Tb1 117.9(5) . 3_667
C2 O7 Tb1 119.7(5) . 3_666
Tb1 O2 H2A 111.7 . .
Tb1 O2 H2B 111.4 . .
H2A O2 H2B 107.2 . .
C2 O6 Tb1 122.9(5) . .
C1 O4 Tb1 121.4(5) . .
C3 O5 Tb1 121.2(5) . .
C1 O8 Tb1 119.9(5) . 3_566
Tb1 O3 H3A 114.2 . .
Tb1 O3 H3B 114.1 . .
H3A O3 H3B 104.3 . .
Tb1 O1 H1A 109.6 . .
Tb1 O1 H1B 109.3 . .
H1A O1 H1B 109.4 . .
O7 C2 O6 127.1(7) . .
O7 C2 C2 116.8(8) . 3_666
O6 C2 C2 116.0(8) . 3_666
O5 C3 O9 126.0(7) . .
O5 C3 C3 116.6(8) . 3_667
O9 C3 C3 117.4(8) . 3_667
O8 C1 O4 127.5(7) . .
O8 C1 C1 116.0(8) . 3_566
O4 C1 C1 116.5(8) . 3_566
loop_
_geom_bond_atom_site_label_1
_geom_bond_atom_site_label_2
_geom_bond_distance
_geom_bond_site_symmetry_2
Tb1 O5 2.380(5) .
Tb1 O2 2.382(6) .
Tb1 O4 2.388(5) .
Tb1 O3 2.401(6) .
Tb1 O6 2.431(5) .
Tb1 O8 2.442(6) 3_566
Tb1 O1 2.446(6) .
Tb1 O9 2.455(5) 3_667
Tb1 O7 2.521(6) 3_666
O9 C3 1.253(9) .
O7 C2 1.231(10) .
O2 H2A 0.8934 .
O2 H2B 0.8924 .
O6 C2 1.247(10) .
O4 C1 1.241(10) .
O5 C3 1.249(9) .
O8 C1 1.239(10) .
O3 H3A 0.9554 .
O3 H3B 0.9532 .
O1 H1A 0.8514 .
O1 H1B 0.8513 .
C2 C2 1.540(15) 3_666
C3 C3 1.527(15) 3_667
C1 C1 1.538(15) 3_566
loop_
_geom_hbond_atom_site_label_D
_geom_hbond_atom_site_label_H
_geom_hbond_atom_site_label_A
_geom_hbond_distance_DH
_geom_hbond_distance_HA
_geom_hbond_distance_DA
_geom_hbond_angle_DHA
_geom_hbond_site_symmetry_A
O2 H2A O9 0.89 2.60 3.448(9) 158.6 2_656
O2 H2A O1 0.89 2.30 2.928(9) 127.5 4_575
O2 H2B O6 0.89 1.86 2.688(8) 152.9 2_656
O3 H3A O11 0.96 1.95 2.9(6) 168.3 3_666
O3 H3B O9 0.95 1.86 2.799(8) 166.3 4_565
O3 H3B O5 0.95 2.66 3.145(8) 112.1 4_565
O1 H1A O10 0.85 2.24 2.88(2) 131.8 4_476
O1 H1B O7 0.85 2.22 2.879(9) 134.0 2_656
loop_
_geom_torsion_atom_site_label_1
_geom_torsion_atom_site_label_2
_geom_torsion_atom_site_label_3
_geom_torsion_atom_site_label_4
_geom_torsion
_geom_torsion_site_symmetry_1
_geom_torsion_site_symmetry_2
_geom_torsion_site_symmetry_3
_geom_torsion_site_symmetry_4
Tb1 O7 C2 O6 -177.8(6) 3_666 . . .
Tb1 O7 C2 C2 1.3(12) 3_666 . . 3_666
Tb1 O6 C2 O7 -178.2(6) . . . .
Tb1 O6 C2 C2 2.6(11) . . . 3_666
Tb1 O5 C3 O9 -176.7(6) . . . .
Tb1 O5 C3 C3 3.3(11) . . . 3_667
Tb1 O9 C3 O5 -176.9(6) 3_667 . . .
Tb1 O9 C3 C3 3.1(11) 3_667 . . 3_667
Tb1 O8 C1 O4 -176.8(6) 3_566 . . .
Tb1 O8 C1 C1 3.1(10) 3_566 . . 3_566
Tb1 O4 C1 O8 -176.7(6) . . . .
Tb1 O4 C1 C1 3.4(11) . . . 3_566
