#------------------------------------------------------------------------------
#$Date: 2021-03-18 12:50:12 +0200 (Thu, 18 Mar 2021) $
#$Revision: 263121 $
#$URL: file:///home/coder/svn-repositories/cod/cif/1/56/11/1561123.cif $
#------------------------------------------------------------------------------
#
# This file is available in the Crystallography Open Database (COD),
# http://www.crystallography.net/
#
# All data on this site have been placed in the public domain by the
# contributors.
#
data_1561123
loop_
_publ_author_name
'Yan, Juan-zhi'
'Lu, Li-ping'
'Zhu, Miao-li'
'Feng, Si-si'
_publ_section_title
;
 Self-assembly of novel manganese (II) compounds based on
 bifunctional-group ligands: Synthesis, structures, and magnetic
 properties
;
_journal_name_full               'Journal of Solid State Chemistry'
_journal_page_first              351
_journal_page_last               359
_journal_paper_doi               10.1016/j.jssc.2018.03.035
_journal_volume                  262
_journal_year                    2018
_chemical_formula_sum            'C6 H8 Mn N6 O6'
_chemical_formula_weight         315.12
_space_group_crystal_system      monoclinic
_space_group_IT_number           14
_space_group_name_Hall           '-P 2ybc'
_space_group_name_H-M_alt        'P 1 21/c 1'
_atom_sites_solution_hydrogens   geom
_atom_sites_solution_primary     direct
_atom_sites_solution_secondary   difmap
_cell_angle_alpha                90
_cell_angle_beta                 93.13(3)
_cell_angle_gamma                90
_cell_formula_units_Z            2
_cell_length_a                   9.1770(18)
_cell_length_b                   8.7750(18)
_cell_length_c                   6.8550(14)
_cell_measurement_reflns_used    903
_cell_measurement_temperature    100(2)
_cell_measurement_theta_max      25.0
_cell_measurement_theta_min      2.2
_cell_volume                     551.20(19)
_computing_cell_refinement       'HKL 2000'
_computing_data_collection       mar555
_computing_data_reduction        'HKL 2000'
_computing_molecular_graphics    'Bruker SHELXTL'
_computing_publication_material  'Bruker SHELXTL'
_computing_structure_refinement  'SHELXL-2014/7 (Sheldrick, 2014)'
_computing_structure_solution    'SHELXS-97 (Sheldrick, 2008)'
_diffrn_ambient_temperature      100(2)
_diffrn_measured_fraction_theta_full 0.986
_diffrn_measured_fraction_theta_max 0.986
_diffrn_measurement_device_type  mar555
_diffrn_measurement_method       'oscillation mode'
_diffrn_radiation_monochromator  'double crystal monochromator'
_diffrn_radiation_source         'synchrotron, 1W2B at BSRF'
_diffrn_radiation_type           synchrotron
_diffrn_radiation_wavelength     0.72000
_diffrn_reflns_av_R_equivalents  0.0315
_diffrn_reflns_av_unetI/netI     0.0311
_diffrn_reflns_Laue_measured_fraction_full 0.986
_diffrn_reflns_Laue_measured_fraction_max 0.986
_diffrn_reflns_limit_h_max       10
_diffrn_reflns_limit_h_min       -10
_diffrn_reflns_limit_k_max       10
_diffrn_reflns_limit_k_min       -10
_diffrn_reflns_limit_l_max       8
_diffrn_reflns_limit_l_min       0
_diffrn_reflns_number            1735
_diffrn_reflns_point_group_measured_fraction_full 0.986
_diffrn_reflns_point_group_measured_fraction_max 0.986
_diffrn_reflns_theta_full        25.035
_diffrn_reflns_theta_max         25.035
_diffrn_reflns_theta_min         2.223
_exptl_absorpt_coefficient_mu    1.236
_exptl_absorpt_correction_T_max  0.8363
_exptl_absorpt_correction_T_min  0.7901
_exptl_crystal_colour            colorless
_exptl_crystal_density_diffrn    1.899
_exptl_crystal_description       block
_exptl_crystal_F_000             318
_exptl_crystal_size_max          0.200
_exptl_crystal_size_mid          0.180
_exptl_crystal_size_min          0.150
_refine_diff_density_max         0.569
_refine_diff_density_min         -0.655
_refine_diff_density_rms         0.118
_refine_ls_extinction_coef       .
_refine_ls_extinction_method     none
_refine_ls_goodness_of_fit_ref   1.041
_refine_ls_hydrogen_treatment    mixed
_refine_ls_matrix_type           full
_refine_ls_number_parameters     101
_refine_ls_number_reflns         959
_refine_ls_number_restraints     0
_refine_ls_restrained_S_all      1.041
_refine_ls_R_factor_all          0.0427
_refine_ls_R_factor_gt           0.0372
_refine_ls_shift/su_max          0.000
_refine_ls_shift/su_mean         0.000
_refine_ls_structure_factor_coef Fsqd
_refine_ls_weighting_details
'w=1/[\s^2^(Fo^2^)+(0.1220P)^2^+0.2380P] where P=(Fo^2^+2Fc^2^)/3'
_refine_ls_weighting_scheme      calc
_refine_ls_wR_factor_gt          0.1308
_refine_ls_wR_factor_ref         0.1466
_reflns_Friedel_coverage         0.000
_reflns_Friedel_fraction_full    .
_reflns_Friedel_fraction_max     .
_reflns_number_gt                886
_reflns_number_total             959
_reflns_threshold_expression     'I > 2\s(I)'
_cod_data_source_file            Complex1.cif
_cod_data_source_block           Complex1
_cod_original_sg_symbol_H-M      'P 21/c'
_cod_database_code               1561123
_shelx_space_group_comment
;
The symmetry employed for this shelxl refinement is uniquely defined
by the following loop, which should always be used as a source of
symmetry information in preference to the above space-group names.
They are only intended as comments.
;
_shelx_estimated_absorpt_t_min   0.790
_shelx_estimated_absorpt_t_max   0.836
_shelx_res_file
;

    13926zj25b.res created by SHELXL-2014/7

TITL 13926zj25b in P2(1)/c
CELL 0.71073   9.1770   8.7750   6.8550  90.000  93.128  90.000
ZERR    2.00   0.0018   0.0018   0.0014   0.000   0.030   0.000
LATT 1
SYMM -X, 0.5+Y, 0.5-Z
SFAC C  H  N  O  Mn
UNIT 12  16  12  12  2
OMIT -3 50.1
L.S. 20
ACTA
BOND $H
FMAP 2
PLAN 20
HTAB C3 N2_$1
HTAB O3 O1_$3
EQIV $3 x, -y+5/2, z+1/2
HTAB O3 O2_$2
EQIV $2 -x+1, y-1/2, -z+1/2
HTAB N3 O2_$1
EQIV $1 -x+2, y-1/2, -z+1/2
size 0.20 0.18 0.15
TEMP -79
WGHT    0.122000    0.238000
FVAR       0.52883
MOLE 1
MN1   5    0.500000    1.000000    0.000000    10.50000    0.01117    0.00613 =
         0.01754    0.00101   -0.00910   -0.00354
N1    3    0.725261    0.970239    0.132087    11.00000    0.02065    0.01191 =
         0.02489    0.00022   -0.00564    0.00450
N2    3    0.934945    1.097442    0.202436    11.00000    0.01861    0.01624 =
         0.01600    0.00098   -0.00178    0.00105
N3    3    0.949089    0.947048    0.249043    11.00000    0.02410    0.01340 =
         0.02058    0.00129   -0.00458    0.00502
H1    2    1.049987    0.912401    0.317293    11.00000   -1.20000
C1    1    0.721352    1.248472    0.065095    11.00000    0.01326    0.01165 =
         0.00995   -0.00143   -0.00116    0.00045
C2    1    0.797981    1.106034    0.132265    11.00000    0.01746    0.01537 =
         0.01311   -0.00210   -0.00296    0.00017
C3    1    0.825040    0.873243    0.206726    11.00000    0.03080    0.01416 =
         0.02369    0.00011   -0.00902    0.00176
O1    4    0.594509    1.227444   -0.014886    11.00000    0.01364    0.00882 =
         0.01857    0.00129   -0.00691   -0.00132
O2    4    0.781516    1.374465    0.094121    11.00000    0.01288    0.01288 =
         0.02170   -0.00024   -0.00137   -0.00179
O3    4    0.416048    1.075718    0.276847    11.00000    0.02753    0.02051 =
         0.02091   -0.00216   -0.00186   -0.01355
H3B   2    0.362689    1.011560    0.343844    11.00000   -1.20000
H3A   2    0.486459    1.123926    0.357981    11.00000   -1.50000
H3    2    0.818623    0.754595    0.218782    11.00000    0.04529
HKLF 4

REM  13926zj25b in P2(1)/c
REM R1 =  0.0372 for     886 Fo > 4sig(Fo)  and  0.0427 for all     959 data
REM    101 parameters refined using      0 restraints

END

WGHT      0.0782      0.6615

REM Highest difference peak  0.569,  deepest hole -0.655,  1-sigma level  0.118
Q1    1   0.4748  0.9982  0.2979  11.00000  0.05    0.57
Q2    1   1.0652  1.1263  0.1792  11.00000  0.05    0.50
Q3    1   0.7338  0.6488  0.1242  11.00000  0.05    0.42
Q4    1   0.6608  0.9317  0.2444  11.00000  0.05    0.41
Q5    1   0.8114  1.5237  0.1031  11.00000  0.05    0.41
Q6    1   0.5343  1.0065  0.2489  11.00000  0.05    0.38
Q7    1   1.1426  0.9130  0.3247  11.00000  0.05    0.35
Q8    1   0.8743  0.6819  0.2129  11.00000  0.05    0.32
Q9    1   0.7974  0.6691  0.0668  11.00000  0.05    0.31
Q10   1   0.8201  0.7951  0.3401  11.00000  0.05    0.31
Q11   1   0.9442  0.8592  0.1352  11.00000  0.05    0.31
Q12   1   0.8618  1.3263  0.1746  11.00000  0.05    0.31
Q13   1   0.7940  0.7870  0.3007  11.00000  0.05    0.31
Q14   1   0.7760  0.7685  0.2556  11.00000  0.05    0.30
Q15   1   0.9360  0.6581  0.1009  11.00000  0.05    0.30
Q16   1   0.9363  0.8348  0.3713  11.00000  0.05    0.30
Q17   1   0.9399  1.1481  0.3683  11.00000  0.05    0.28
Q18   1   0.5397  1.3041 -0.0440  11.00000  0.05    0.27
Q19   1   1.0455  1.0942  0.3407  11.00000  0.05    0.27
Q20   1   0.6613  0.9985 -0.0282  11.00000  0.05    0.27
;
_shelx_res_checksum              9446
_shelx_hkl_file
;
   1   0   0  249.00    5.80
   2   0   0   64.90    1.00
   3   0   0  535.20    6.60
   4   0   0  787.40    8.40
   5   0   0    9.10    0.50
   6   0   0   41.30    1.80
   7   0   0  221.20    7.20
   8   0   0    0.20    0.70
   9   0   0  434.10    7.90
  10   0   0  146.80    5.30
 -11  -1   0    8.00    3.30
 -10  -1   0    0.90    1.30
  -9  -1   0   12.70    1.00
  -8  -1   0    0.70    0.70
  -7  -1   0   49.30    1.50
  -6  -1   0   43.50    0.90
  -5  -1   0   98.90    2.30
  -4  -1   0    6.30    0.40
  -3  -1   0   19.10    0.60
  -2  -1   0   45.80    1.20
  -1  -1   0  488.20    7.30
   0  -1   0    0.50    0.30
   1  -1   0  430.90    5.10
   2  -1   0   42.30    1.00
   3  -1   0   18.00    1.20
   4  -1   0    6.10    0.30
   5  -1   0   96.80    1.70
   6  -1   0   40.40    0.90
   7  -1   0   50.40    1.60
   9  -1   0   19.00    1.30
 -10  -2   0    6.70    3.90
  -9  -2   0   72.70    2.10
  -8  -2   0   42.40    1.30
  -7  -2   0  311.40    4.80
  -6  -2   0  181.60    3.30
  -5  -2   0  452.20    7.30
  -4  -2   0  672.40    7.90
  -3  -2   0  273.00    4.60
  -2  -2   0  761.90   11.40
  -1  -2   0   67.90    2.20
   0  -2   0 1147.80   15.60
   1  -2   0   66.50    1.70
   2  -2   0  698.20    8.20
   3  -2   0  269.80    3.70
   4  -2   0  644.80    7.20
   5  -2   0  432.10    5.50
   6  -2   0  195.30    3.60
   7  -2   0  295.00    5.90
   8  -2   0   43.10    3.50
 -11  -3   0    2.80    3.00
 -10  -3   0    8.30    2.30
  -9  -3   0    0.30    0.60
  -8  -3   0  326.80    6.60
  -7  -3   0   28.90    1.30
  -6  -3   0   87.00    2.30
  -5  -3   0   16.90    0.90
  -4  -3   0    6.60    0.60
  -3  -3   0  289.70    7.00
  -2  -3   0  855.80   12.50
  -1  -3   0  159.10    3.50
   0  -3   0    2.90    0.50
   1  -3   0  162.40    3.20
   2  -3   0  820.40   12.30
   3  -3   0  290.70    4.70
   4  -3   0    6.80    0.50
   5  -3   0   17.70    0.80
   6  -3   0   86.40    1.40
   7  -3   0   29.10    1.10
   8  -3   0  302.40    7.20
 -11  -4   0   24.80    6.80
 -10  -4   0   55.00    4.10
  -9  -4   0    0.20    0.60
  -8  -4   0  279.70    5.50
  -7  -4   0   12.70    1.00
  -6  -4   0   60.00    1.90
  -5  -4   0  650.20    8.40
  -4  -4   0  203.10    4.30
  -3  -4   0    0.90    0.50
  -2  -4   0  480.90    8.00
  -1  -4   0 1312.60   19.80
   0  -4   0  108.20    2.50
   1  -4   0 1262.70   16.40
   2  -4   0  476.80    6.80
   3  -4   0    1.70    0.70
   4  -4   0  214.00    4.90
   5  -4   0  669.30   10.30
   6  -4   0   62.00    1.90
   7  -4   0   13.50    0.80
   8  -4   0  287.90    5.60
   9  -4   0  219.20    8.10
 -12  -5   0    3.60    4.80
 -10  -5   0   11.10    4.80
  -9  -5   0    3.40    2.20
  -8  -5   0   22.40    2.50
  -7  -5   0    6.40    1.00
  -6  -5   0   21.10    1.10
  -5  -5   0   85.20    2.30
  -4  -5   0    1.30    0.70
  -3  -5   0    2.10    0.60
  -2  -5   0   19.60    1.10
  -1  -5   0   28.20    1.30
   0  -5   0    0.10    0.70
   1  -5   0   25.90    1.30
   2  -5   0   18.40    1.20
   3  -5   0    1.30    0.70
   4  -5   0    1.10    0.60
   5  -5   0   89.40    2.00
   6  -5   0   18.80    1.20
   7  -5   0    7.00    0.80
   8  -5   0   22.60    1.40
   9  -5   0    2.30    0.80
 -10  -6   0   20.40    6.80
  -9  -6   0    9.90    5.20
  -8  -6   0  214.30    4.90
  -7  -6   0  111.80    4.10
  -6  -6   0  406.60    6.20
  -5  -6   0  305.60    5.70
  -4  -6   0  299.30    4.80
  -3  -6   0  268.40    4.50
  -2  -6   0   84.90    2.70
  -1  -6   0  177.40    3.40
   0  -6   0   34.90    2.00
   1  -6   0  166.20    3.30
   2  -6   0   81.90    2.60
   3  -6   0  252.90    4.80
   4  -6   0  287.10    5.70
   5  -6   0  307.80    5.80
   6  -6   0  409.10    8.40
   7  -6   0  121.90    2.50
   9  -6   0    9.80    0.90
 -10  -7   0    9.10    3.30
  -9  -7   0    3.20    2.60
  -8  -7   0    3.10    3.00
  -7  -7   0    1.10    0.90
  -6  -7   0    7.50    1.10
  -5  -7   0  172.10    3.70
  -4  -7   0   23.60    1.60
  -3  -7   0    6.00    0.80
  -2  -7   0    1.20    0.70
  -1  -7   0  251.70    4.90
   0  -7   0   -1.00    1.80
   1  -7   0  259.30    4.20
   2  -7   0    1.10    0.90
   3  -7   0    5.70    1.00
   4  -7   0   23.80    1.30
   5  -7   0  179.40    7.00
   6  -7   0    7.00    1.60
   8  -7   0    2.40    1.20
 -10  -8   0   74.70    7.00
  -8  -8   0   51.90    3.60
  -7  -8   0  103.10    3.60
  -6  -8   0  114.70    3.30
  -5  -8   0   37.90    1.80
  -4  -8   0  216.50    4.00
  -3  -8   0  264.90    4.40
  -2  -8   0    2.90    0.80
  -1  -8   0  118.70    3.40
   0  -8   0  445.90    8.00
   1  -8   0  123.70    3.80
   2  -8   0    2.20    1.00
   3  -8   0  278.10    7.30
   4  -8   0  205.80    5.10
   5  -8   0   38.60    2.40
   6  -8   0  121.50    2.80
   7  -8   0  100.00    3.20
   8  -8   0   52.40    2.90
   9  -8   0   40.30    3.00
  -9  -9   0    0.10    8.50
  -8  -9   0   -2.60    3.00
  -7  -9   0   28.20    3.40
  -6  -9   0    1.10    1.50
  -5  -9   0    0.70    0.90
  -4  -9   0   14.30    1.40
  -3  -9   0    0.50    1.00
  -2  -9   0   35.40    1.90
  -1  -9   0    0.90    1.10
   0  -9   0    0.50    0.80
   1  -9   0   -1.20    1.90
   2  -9   0   31.40    1.90
   3  -9   0   -0.30    2.60
   4  -9   0    6.90    1.50
   5  -9   0    0.30    1.10
   6  -9   0   -0.80    2.20
   7  -9   0   29.60    2.60
   8  -9   0    1.50    1.80
  -7 -10   0  118.10    7.80
  -6 -10   0   66.80    4.90
  -5 -10   0   15.50    2.30
  -4 -10   0   25.30    2.10
  -3 -10   0  155.00    3.10
  -2 -10   0   98.10    3.30
  -1 -10   0   50.20    2.10
   0 -10   0   48.50    2.00
   1 -10   0   55.30    3.10
   2 -10   0  100.10    4.90
   3 -10   0  155.50    4.60
   4 -10   0   24.80    1.80
   5 -10   0   21.20    2.10
   6 -10   0   57.60    2.90
   7 -10   0  113.70    5.30
  -6 -11   0   55.90    7.20
  -5 -11   0    7.50    4.60
  -4 -11   0    7.20    2.00
   2 -11   0    7.70    1.60
   3 -11   0   15.90    1.70
   4 -11   0   10.60    1.70
   5 -11   0    3.50    2.50
   6 -11   0   52.00    5.20
  -3 -12   0    4.60    1.80
  -2 -12   0   90.80    6.00
  -1 -12   0   88.70    2.80
   0 -12   0   13.50    2.00
   1 -12   0   98.60    4.50
   2 -12   0   91.20    3.90
   3 -12   0    6.30    1.90
  -3  12   1    5.00    2.20
  -2  12   1   33.70    3.40
  -1  12   1    7.20    1.80
   0  12   1    6.90    2.00
   1  12   1   28.20    3.30
  -6  11   1   30.10    2.90
  -5  11   1   48.00    2.90
  -4  11   1   99.20    6.00
  -3  11   1   81.60    9.50
  -2  11   1   22.80    1.80
  -1  11   1    7.60    1.80
   0  11   1   41.80    5.80
   1  11   1   21.70    1.80
   2  11   1   48.20    2.90
   3  11   1  108.20    3.60
   4  11   1   83.00    3.50
   5  11   1   42.90    4.50
   6  11   1   70.40    6.80
  -7  10   1   14.30    3.10
  -6  10   1    8.40    3.10
  -5  10   1   33.50    3.40
  -4  10   1   -2.40    5.30
  -3  10   1   50.90    2.90
  -2  10   1   -0.30    4.40
  -1  10   1    1.50    1.00
   0  10   1   62.00    3.00
   1  10   1   17.50    1.60
   2  10   1   40.10    2.10
   3  10   1   13.10    2.60
   4  10   1    0.40    1.10
  -9   9   1   16.20    3.00
  -8   9   1   18.70    4.30
  -7   9   1   42.00    3.30
  -6   9   1   41.00    3.00
  -5   9   1   12.80    3.00
  -4   9   1   79.40    4.10
  -3   9   1   84.80    3.10
  -2   9   1  113.10    3.10
  -1   9   1  192.40    4.90
   0   9   1  223.70    4.40
   1   9   1  109.00    2.60
   2   9   1  169.00    3.30
   3   9   1   84.90    2.40
   4   9   1    2.10    1.10
   5   9   1   40.80    2.80
   6   9   1   34.00    3.10
   7   9   1   22.90    3.70
   8   9   1   21.90    4.40
  -9   8   1   36.40    1.60
  -8   8   1    1.60    1.30
  -6   8   1   12.30    2.00
  -5   8   1   15.70    2.00
  -4   8   1   -0.40    3.90
  -3   8   1   16.10    2.30
  -2   8   1   11.90    1.30
  -1   8   1  105.60    2.60
   0   8   1  114.30    3.10
   1   8   1   16.30    1.40
   2   8   1   12.20    1.10
   3   8   1   -0.80    1.90
   4   8   1   15.30    1.50
   5   8   1    4.30    1.00
   6   8   1   26.50    2.80
   7   8   1    1.80    1.90
   8   8   1   47.30    4.00
   9   8   1    4.30    3.10
 -10   7   1    9.60    1.80
  -9   7   1   26.30    4.20
  -7   7   1   28.30    2.30
  -6   7   1  289.20    6.90
  -5   7   1  132.10    3.90
  -4   7   1  344.10    6.20
  -3   7   1  184.20    4.40
  -2   7   1  355.80    7.30
  -1   7   1  136.40    3.70
   0   7   1   39.00    1.90
   1   7   1   88.40    2.80
   2   7   1   54.40    2.20
   3   7   1  100.90    3.00
   4   7   1   29.90    1.30
   5   7   1  355.50    4.90
   6   7   1   90.30    2.90
   7   7   1   81.40    5.50
   8   7   1  164.50    4.40
   9   7   1  110.00    6.00
  10   7   1   24.30    7.70
  -9   6   1    4.40    1.30
  -8   6   1    3.80    1.10
  -7   6   1    3.20    3.40
  -6   6   1   76.70    2.50
  -5   6   1   23.20    1.40
  -4   6   1   76.20    2.70
  -3   6   1   30.80    1.50
  -2   6   1   47.30    2.10
  -1   6   1    2.10    0.90
   0   6   1   16.80    1.20
   1   6   1   84.60    2.20
   2   6   1    8.20    1.00
   3   6   1  114.80    3.20
   4   6   1   15.80    1.20
   5   6   1   33.20    1.50
   6   6   1    3.20    0.80
   7   6   1   24.80    2.20
   8   6   1    1.80    1.90
   9   6   1   54.80    3.50
  10   6   1    3.90    5.10
 -11   5   1   50.30    5.90
 -10   5   1   17.50    1.60
  -9   5   1  100.90    3.40
  -8   5   1   96.60    3.30
  -7   5   1    2.70    0.60
  -6   5   1  103.30    2.80
  -5   5   1  133.10    3.60
  -4   5   1  310.50    5.60
  -3   5   1   79.40    2.70
  -2   5   1  609.00    9.40
  -1   5   1  543.70    7.20
   0   5   1  555.00    8.60
   1   5   1  584.50    9.20
   2   5   1    5.60    1.10
   3   5   1  240.90    4.20
   4   5   1  138.40    4.10
   5   5   1   60.10    2.10
   6   5   1    5.60    0.90
   7   5   1  168.60    3.50
   8   5   1  245.90    4.90
   9   5   1   55.10    3.90
  10   5   1  185.90    5.10
  -9   4   1    4.20    2.40
  -8   4   1   30.90    1.40
  -7   4   1   10.10    0.90
  -6   4   1    1.90    0.50
  -5   4   1   31.10    1.40
  -4   4   1   44.70    1.60
  -3   4   1   42.00    2.00
  -2   4   1   91.40    2.90
  -1   4   1  175.30    4.00
   0   4   1   16.40    1.10
   1   4   1   33.10    1.50
   2   4   1   17.00    1.10
   3   4   1   34.50    1.50
   4   4   1   50.10    1.90
   5   4   1   71.90    2.20
   6   4   1   36.30    1.60
   7   4   1    5.70    1.00
   8   4   1    2.20    1.80
   9   4   1    2.80    0.80
  10   4   1    6.20    2.50
  11   4   1   -1.60    5.30
 -11   3   1   34.30    5.00
 -10   3   1   28.40    2.70
  -9   3   1   87.40    2.70
  -8   3   1  123.60    2.50
  -7   3   1   93.90    2.30
  -6   3   1  141.70    4.00
  -5   3   1  611.80    9.40
  -4   3   1  300.10    5.00
  -3   3   1  185.90    3.70
  -2   3   1  123.90    3.20
  -1   3   1  390.80    7.60
   0   3   1  495.90    9.00
   1   3   1  181.90    4.60
   2   3   1   46.90    1.80
   3   3   1  519.50    7.40
   4   3   1 1087.80   17.60
   5   3   1  132.00    3.00
   6   3   1  150.80    3.40
   7   3   1  266.80    4.40
   8   3   1  181.50    3.50
   9   3   1   24.50    1.90
  10   3   1   66.70    4.70
  11   3   1   21.60    6.80
  -9   2   1    6.20    0.90
  -8   2   1    0.50    0.40
  -7   2   1    0.30    0.40
  -6   2   1   50.60    1.50
  -5   2   1    1.90    0.40
  -4   2   1   26.30    1.20
  -3   2   1  261.00    6.10
  -2   2   1   85.00    1.60
  -1   2   1  247.50    3.30
   0   2   1    2.00    0.50
   1   2   1   22.20    1.10
   2   2   1  357.40    4.80
   3   2   1   72.30    2.00
   4   2   1   57.40    1.70
   5   2   1    3.60    0.60
   6   2   1   56.50    1.90
   7   2   1    1.30    0.40
   8   2   1   30.20    1.10
   9   2   1    8.00    0.70
  10   2   1   11.10    4.10
 -10   1   1  244.40    8.00
  -9   1   1  176.70    5.00
  -8   1   1   50.60    1.90
  -7   1   1  295.60    4.30
  -6   1   1   88.60    1.90
  -5   1   1  650.10    7.80
  -4   1   1    1.10    0.30
  -3   1   1  194.60    2.40
  -2   1   1   44.60    0.80
  -1   1   1 1133.70   13.60
   0   1   1  903.00   11.60
   1   1   1   46.10    1.30
   2   1   1 1789.50   21.30
   3   1   1  358.50    4.40
   4   1   1 1450.20   18.10
   5   1   1  223.80    3.30
   6   1   1  346.10    6.50
   7   1   1    7.00    0.50
   8   1   1  155.80    2.80
   9   1   1  226.50    5.20
 -12   0   1   -0.10    5.50
 -10   0   1    0.80    0.70
  -8   0   1    0.30    0.50
  -7   0   1    0.20    0.40
  -6   0   1    0.20    0.40
  -5   0   1    1.10    0.90
  -4   0   1    0.60    0.20
  -3   0   1   -0.20    0.80
  -2   0   1    5.70    0.50
  -1   0   1    1.40    0.30
   0   0   1    0.90    0.20
   1   0   1    0.90    0.20
   2   0   1    0.70    0.40
   3   0   1    2.90    0.20
   4   0   1    1.50    0.50
   5   0   1    2.30    0.30
   7   0   1   -0.60    1.10
   8   0   1    5.10    0.60
 -12  -1   1   27.70    8.10
 -10  -1   1  276.90    8.20
  -9  -1   1  175.20    3.60
  -8  -1   1   46.90    1.60
  -7  -1   1  313.20    5.30
  -6  -1   1   81.60    1.80
  -5  -1   1  654.70    9.50
  -4  -1   1    1.40    0.30
  -3  -1   1  199.90    3.60
  -2  -1   1   48.00    1.30
  -1  -1   1 1241.90   16.40
   0  -1   1 1037.60   11.70
   1  -1   1   53.40    0.80
   2  -1   1 1883.20   29.70
 -12  -2   1    3.20    3.50
 -11  -2   1    3.30    3.70
 -10  -2   1   -1.70    1.40
  -9  -2   1    3.90    0.90
  -8  -2   1    0.80    0.60
  -7  -2   1    0.00    0.80
  -6  -2   1   54.40    1.20
  -5  -2   1    2.20    0.50
  -4  -2   1   27.50    1.00
  -3  -2   1  285.80    4.50
  -2  -2   1   94.20    1.80
  -1  -2   1  277.80    4.00
   0  -2   1    2.40    0.40
   1  -2   1   23.10    0.90
   2  -2   1  375.10    4.20
   3  -2   1   77.10    1.50
 -12  -3   1   22.50    6.60
 -11  -3   1   48.50    4.70
 -10  -3   1   26.20    3.20
  -9  -3   1   92.60    2.80
  -8  -3   1   94.50    2.20
  -7  -3   1  102.80    2.40
  -6  -3   1  143.70    2.70
  -5  -3   1  641.00    9.20
  -4  -3   1  333.70    5.60
  -3  -3   1  189.80    3.70
  -2  -3   1  141.90    2.60
  -1  -3   1  418.50    5.70
   0  -3   1  544.90    7.90
   1  -3   1  195.40    2.60
   2  -3   1   51.50    1.60
   3  -3   1  549.00    7.70
   4  -3   1 1101.80   14.60
   5  -3   1  132.00    2.60
 -11  -4   1    2.20    4.10
 -10  -4   1   17.50    2.30
  -9  -4   1    0.60    0.70
  -8  -4   1   24.20    1.30
  -7  -4   1   11.50    1.10
  -6  -4   1    1.80    0.50
  -5  -4   1   30.60    1.40
  -4  -4   1   49.00    1.50
  -3  -4   1   49.00    1.60
  -2  -4   1   91.20    2.40
  -1  -4   1  189.50    4.10
   0  -4   1   18.70    1.00
   1  -4   1   36.60    1.30
   2  -4   1   17.60    0.80
   3  -4   1   33.00    1.90
   4  -4   1   53.40    1.50
   5  -4   1   71.60    1.90
   6  -4   1   34.00    1.50
 -11  -5   1   78.30    6.90
 -10  -5   1   14.80    4.10
  -9  -5   1   95.20    4.70
  -8  -5   1   85.50    3.80
  -7  -5   1    1.00    1.30
  -6  -5   1  102.00    2.10
  -5  -5   1  137.80    3.20
  -4  -5   1  302.90    5.20
  -3  -5   1   81.80    2.30
  -2  -5   1  637.80    8.60
  -1  -5   1  561.40    8.20
   0  -5   1  587.10    9.70
   1  -5   1  618.50   10.90
   2  -5   1    5.40    0.60
   3  -5   1  246.90    5.80
   4  -5   1  150.80    3.70
   5  -5   1   64.10    2.00
   6  -5   1    4.90    0.50
   7  -5   1  187.30    3.80
 -10  -6   1   32.40    5.40
  -8  -6   1    1.70    0.30
  -7  -6   1    2.50    1.20
  -6  -6   1   83.10    2.30
  -5  -6   1   22.90    1.30
  -4  -6   1   79.40    2.30
  -3  -6   1   30.30    1.30
  -2  -6   1   46.10    1.60
  -1  -6   1    3.20    0.70
   0  -6   1   18.70    1.20
   1  -6   1   90.30    2.50
   2  -6   1    6.10    0.90
   3  -6   1  115.90    2.80
   4  -6   1   14.60    1.00
   5  -6   1   35.20    1.60
   6  -6   1    3.00    0.70
   7  -6   1   24.20    1.10
 -10  -7   1   11.30    4.00
  -9  -7   1   27.70    2.80
  -8  -7   1    8.60    3.00
  -7  -7   1   25.10    2.20
  -6  -7   1  251.50    4.40
  -5  -7   1  134.30    2.80
  -4  -7   1  357.90    5.40
  -3  -7   1  176.50    3.00
  -2  -7   1  369.70    5.90
  -1  -7   1  139.50    3.60
   0  -7   1   38.70    1.60
   1  -7   1   92.90    3.00
   2  -7   1   59.10    2.40
   3  -7   1  104.80    2.90
   4  -7   1   29.50    1.40
   5  -7   1  355.10    6.00
   6  -7   1  107.90    2.80
   7  -7   1   77.90    2.10
   8  -7   1  127.00    4.20
 -10  -8   1    2.90    4.50
  -9  -8   1   40.70    5.10
  -8  -8   1    3.00    4.20
  -7  -8   1    0.30    0.70
  -6  -8   1    8.60    1.70
  -5  -8   1   15.30    1.40
  -4  -8   1    1.10    0.80
  -3  -8   1   15.60    1.20
  -2  -8   1   13.90    1.50
  -1  -8   1  104.40    2.80
   0  -8   1  121.00    3.30
   1  -8   1   17.50    1.30
   2  -8   1   11.50    1.30
   3  -8   1   -0.10    2.00
   4  -8   1   15.90    1.50
   5  -8   1    5.50    1.00
   6  -8   1   27.60    1.70
   7  -8   1   -1.10    1.00
   8  -8   1   -1.40    3.70
  -9  -9   1   33.50    8.50
  -8  -9   1   20.60    6.00
  -7  -9   1   47.20    5.70
  -6  -9   1   40.70    3.10
  -5  -9   1    8.70    1.40
  -4  -9   1   83.50    2.90
  -3  -9   1   87.70    2.40
  -2  -9   1  108.70    2.40
  -1  -9   1  207.20    4.10
   0  -9   1  212.30    4.00
   1  -9   1  104.60    3.00
   2  -9   1  183.60    4.70
   3  -9   1   86.30    3.40
   4  -9   1    3.70    1.20
   5  -9   1   57.30    2.60
   6  -9   1   31.80    3.70
   7  -9   1   18.70    2.80
   8  -9   1   16.40    3.20
  -7 -10   1   20.60    7.60
  -6 -10   1   14.80    6.70
  -5 -10   1   22.50    2.00
  -4 -10   1    2.60    0.60
  -3 -10   1   41.10    2.10
  -2 -10   1   -0.60    2.50
  -1 -10   1    0.90    1.00
   0 -10   1   61.50    2.90
   1 -10   1   13.20    1.30
   2 -10   1   41.20    2.00
   3 -10   1   14.60    1.60
   4 -10   1    1.10    1.20
   5 -10   1    1.60    3.50
  -6 -11   1   38.90    4.00
  -5 -11   1   41.10    2.60
  -4 -11   1   87.50    2.40
  -3 -11   1   71.20    3.00
  -2 -11   1   21.80    3.00
  -1 -11   1   10.50    2.20
   0 -11   1   40.60    2.40
   1 -11   1   23.40    2.20
   2 -11   1   52.60    3.10
   3 -11   1  113.00    4.30
   4 -11   1   97.50    4.90
   6 -11   1   75.20    4.80
  -3 -12   1    5.40    1.80
  -2 -12   1   35.70    7.20
  -1 -12   1    2.40    1.50
   0 -12   1    8.50    1.90
   1 -12   1   37.70    7.50
  -2  12   2   29.40    5.00
  -1  12   2    1.60    2.30
   0  12   2   43.30    4.10
   1  12   2   36.50    3.80
   2  12   2    4.50    1.90
  -3  11   2   46.20    4.60
  -2  11   2   11.90    2.20
  -1  11   2    2.00    2.30
   0  11   2    0.80    1.40
   4  11   2    1.70    3.00
   5  11   2   84.20    5.90
  -7  10   2   69.00    5.70
  -6  10   2   16.20    3.80
  -5  10   2   30.50    2.70
  -4  10   2   92.10    5.20
  -3  10   2  122.60    3.50
  -2  10   2   56.30    4.00
  -1  10   2   38.10    2.50
   0  10   2   34.30    2.50
   1  10   2   51.00    2.10
   2  10   2  193.30    5.10
   3  10   2   35.50    2.70
   4  10   2   42.90    2.80
   5  10   2   51.20    3.30
   6  10   2  209.30    5.20
   7  10   2   33.80    3.90
  -6   9   2    4.20    3.50
  -5   9   2    8.40    2.90
  -4   9   2   10.80    2.90
  -3   9   2   14.50    2.00
  -2   9   2   15.50    3.10
  -1   9   2    7.40    1.60
   0   9   2    1.60    1.20
   1   9   2   37.00    1.90
   2   9   2   13.60    1.50
   3   9   2    8.10    1.20
   4   9   2    5.90    1.20
   5   9   2   -1.10    5.60
   6   9   2    8.20    5.20
   7   9   2    1.40    2.60
   8   9   2   -3.10    6.00
  -9   8   2   24.30    1.90
  -8   8   2   50.10    4.10
  -7   8   2   54.30    4.00
  -6   8   2    2.10    3.10
  -5   8   2   -1.70    4.20
  -4   8   2  163.60    4.90
  -3   8   2    0.70    1.00
  -2   8   2   73.40    2.90
  -1   8   2  470.40    6.80
   0   8   2  342.40    5.70
   1   8   2   23.30    1.70
   2   8   2  272.60    4.40
   3   8   2  164.70    4.00
   4   8   2   71.70    3.10
   5   8   2   39.90    2.20
   6   8   2   25.50    2.80
   7   8   2   31.30    3.80
   8   8   2   31.90    4.80
   9   8   2   89.60    8.40
  -9   7   2    4.70    1.30
  -8   7   2    0.30    0.90
  -7   7   2   27.70    2.90
  -6   7   2   49.00    3.50
  -5   7   2   12.90    1.70
  -4   7   2    1.50    1.30
  -3   7   2    9.40    1.10
  -2   7   2  230.30    5.20
  -1   7   2   56.40    2.60
   0   7   2  151.20    3.70
   1   7   2    5.20    1.40
   2   7   2   12.70    1.30
   3   7   2   14.90    1.40
   4   7   2  257.90    6.00
   5   7   2    2.80    0.80
   6   7   2    0.60    2.00
   7   7   2    7.30    2.60
   8   7   2   12.00    4.00
   9   7   2   -1.10    5.00
  10   7   2    4.20    4.00
 -11   6   2   39.60    2.80
 -10   6   2   10.10    2.30
  -8   6   2   13.20    2.40
  -7   6   2  137.80    3.90
  -6   6   2   77.30    2.80
  -5   6   2   52.10    1.90
  -4   6   2  104.30    2.60
  -3   6   2  129.30    4.00
  -2   6   2  430.90    7.60
  -1   6   2   21.70    1.50
   0   6   2  306.80    6.00
   1   6   2  153.30    4.60
   2   6   2  300.20    6.00
   3   6   2  224.60    5.50
   4   6   2  114.50    3.40
   5   6   2  163.60    4.20
   6   6   2   42.60    2.30
   7   6   2  227.50    5.50
   8   6   2   28.40    4.00
   9   6   2   32.00    3.50
  10   6   2   26.90    4.00
  11   6   2   75.50    8.80
  -9   5   2   24.90    2.30
  -8   5   2   60.10    2.00
  -7   5   2    2.40    0.90
  -6   5   2   19.10    1.50
  -5   5   2    8.10    0.90
  -4   5   2    1.50    0.80
  -3   5   2  125.40    3.40
  -2   5   2   21.80    1.40
  -1   5   2   60.60    2.10
   0   5   2   53.50    1.90
   1   5   2   15.70    1.10
   2   5   2  176.00    4.10
   3   5   2   94.80    2.90
   4   5   2   34.50    1.60
   5   5   2  137.80    3.50
   6   5   2    6.40    0.90
   7   5   2   34.60    2.50
   8   5   2   81.30    3.90
   9   5   2   -1.90    5.80
  10   5   2    6.40    3.40
  11   5   2    6.00    6.50
 -10   4   2  183.50    3.90
  -9   4   2  353.00    7.80
  -8   4   2    1.60    2.40
  -7   4   2    6.10    1.40
  -6   4   2  385.80    5.10
  -5   4   2   77.30    1.80
  -4   4   2   29.90    1.30
  -3   4   2  114.10    2.60
  -2   4   2  802.40   11.30
  -1   4   2  161.60    3.80
   0   4   2 1077.40   15.50
   1   4   2  757.20   11.20
   2   4   2   86.60    2.50
   3   4   2  258.70    5.10
   4   4   2  419.70    7.50
   5   4   2  108.20    3.00
   6   4   2   29.00    1.40
   7   4   2   96.00    2.80
   8   4   2  229.20    6.20
   9   4   2  143.60    5.50
  10   4   2   49.90    6.50
  11   4   2   50.40    5.40
 -10   3   2   29.20    4.80
  -9   3   2   32.80    1.70
  -8   3   2   13.80    1.00
  -7   3   2   64.40    1.90
  -6   3   2    7.50    1.10
  -5   3   2   64.00    2.40
  -4   3   2   23.90    1.10
  -3   3   2   46.40    1.50
  -2   3   2   20.20    1.20
  -1   3   2   76.70    2.30
   0   3   2   15.80    1.00
   1   3   2   88.50    2.60
   2   3   2   10.60    1.10
   3   3   2   47.80    1.70
   4   3   2   29.80    1.60
   5   3   2   79.10    2.40
   6   3   2   10.80    0.80
   7   3   2  263.60    3.80
   8   3   2    3.20    0.70
   9   3   2   25.90    2.30
  11   3   2    6.50    5.10
 -10   2   2   31.20    2.70
  -9   2   2    1.00    0.70
  -8   2   2  136.60    2.50
  -7   2   2  184.90    4.40
  -6   2   2  488.00    6.30
  -5   2   2  508.70    7.20
  -4   2   2  408.70    6.80
  -3   2   2  807.60   12.10
  -2   2   2  137.40    2.80
  -1   2   2  386.50    6.20
   0   2   2  155.80    2.40
   1   2   2   22.00    1.50
   2   2   2   33.90    1.20
   3   2   2  624.30    7.50
   4   2   2  376.50    6.00
   5   2   2  328.60    5.30
   6   2   2  756.00    9.50
   7   2   2  318.50    5.00
   8   2   2  259.70    4.70
   9   2   2   13.50    1.20
  10   2   2   53.10    2.60
 -10   1   2   -0.30    2.80
  -9   1   2    4.80    0.90
  -8   1   2   41.50    1.40
  -7   1   2   93.30    2.00
  -6   1   2    0.70    0.50
  -5   1   2   16.30    0.70
  -4   1   2    9.50    0.60
  -3   1   2   17.00    0.80
  -2   1   2  641.50    8.80
  -1   1   2  974.80   12.10
   0   1   2  164.30    2.90
   1   1   2  180.50    3.70
   2   1   2    5.20    1.40
   3   1   2   61.70    2.10
   4   1   2  459.90    6.20
   5   1   2    4.80    0.50
   6   1   2   27.50    0.90
   7   1   2    3.00    0.40
   8   1   2   97.90    2.10
 -11   0   2   59.40    3.50
 -10   0   2  242.00    6.60
  -9   0   2    0.60    0.80
  -8   0   2  376.00    5.60
  -7   0   2   47.20    1.40
  -6   0   2   50.10    1.30
  -5   0   2  728.10    8.20
  -4   0   2  553.20    7.60
  -3   0   2    0.80    0.30
  -2   0   2   77.60    1.80
  -1   0   2 7623.10   97.10
   0   0   2    1.00    0.30
   1   0   2    2.00    0.40
   2   0   2  141.30    3.10
   3   0   2 1213.70   16.60
   4   0   2  232.10    3.90
   5   0   2    5.10    0.30
   6   0   2  311.20    9.50
 -11  -1   2    0.70    3.70
 -10  -1   2    2.70    5.20
  -9  -1   2    2.80    0.60
  -8  -1   2   40.00    1.70
  -7  -1   2   90.10    2.10
  -6  -1   2    0.40    0.40
  -5  -1   2   17.90    0.90
  -4  -1   2   10.40    0.80
  -3  -1   2   17.90    0.70
  -2  -1   2  692.40    9.10
  -1  -1   2 1086.60   12.80
   0  -1   2  179.80    3.20
   1  -1   2  203.50    3.40
   2  -1   2    3.80    0.30
   3  -1   2   68.30    1.40
 -12  -2   2   26.40    6.40
 -11  -2   2    4.90    1.60
 -10  -2   2   33.10    2.10
  -8  -2   2  132.80    3.00
  -7  -2   2  178.10    3.10
  -6  -2   2  502.80    7.60
  -5  -2   2  513.10    7.70
  -4  -2   2  406.80    6.20
  -3  -2   2  828.40   10.90
  -2  -2   2  160.30    2.70
  -1  -2   2  438.90    5.90
   0  -2   2  176.70    2.80
   1  -2   2   22.20    0.80
   2  -2   2   38.10    1.20
   3  -2   2  666.60    9.20
 -11  -3   2   22.30    2.40
 -10  -3   2   26.40    2.50
  -9  -3   2   36.20    2.30
  -8  -3   2   12.60    1.30
  -7  -3   2   57.20    1.30
  -6  -3   2    7.20    0.70
  -5  -3   2   65.40    1.50
  -4  -3   2   27.00    1.00
  -3  -3   2   44.70    1.30
  -2  -3   2   23.90    0.90
  -1  -3   2   88.50    1.70
   0  -3   2   15.70    0.70
   1  -3   2   98.80    2.00
   2  -3   2   11.10    0.60
   3  -3   2   50.40    1.40
   4  -3   2   28.60    0.80
 -10  -4   2  189.60    5.10
  -9  -4   2  335.90    5.90
  -8  -4   2    2.30    0.80
  -7  -4   2    7.10    0.80
  -6  -4   2  392.30    6.10
  -5  -4   2   75.00    1.80
  -4  -4   2   30.10    1.30
  -3  -4   2  122.70    3.00
  -2  -4   2  865.80   10.40
  -1  -4   2  186.00    3.80
   0  -4   2 1197.30   14.80
   1  -4   2  858.10   10.10
   2  -4   2   83.40    2.20
   3  -4   2  258.80    4.40
   4  -4   2  406.70    5.80
   5  -4   2  106.90    1.80
 -10  -5   2    0.00    3.20
  -9  -5   2   22.70    3.30
  -8  -5   2   63.40    3.30
  -7  -5   2    2.40    0.60
  -6  -5   2   18.30    1.00
  -5  -5   2    5.40    0.80
  -4  -5   2    0.80    0.50
  -3  -5   2  131.60    2.80
  -2  -5   2   22.30    1.10
  -1  -5   2   59.90    1.80
   0  -5   2   53.70    1.80
   1  -5   2   18.80    0.90
   2  -5   2  182.80    3.50
   3  -5   2   91.60    2.20
   4  -5   2   32.20    1.10
   5  -5   2  137.10    2.60
   6  -5   2    6.30    0.80
 -11  -6   2   39.90    6.70
  -9  -6   2   80.30    4.00
  -8  -6   2   19.40    2.90
  -7  -6   2   99.90    2.60
  -6  -6   2   78.00    2.00
  -5  -6   2   51.60    1.90
  -4  -6   2   94.00    2.30
  -3  -6   2  131.20    3.40
  -2  -6   2  440.90    6.10
  -1  -6   2   22.90    1.20
   0  -6   2  315.70    5.80
   1  -6   2  166.70    3.90
   2  -6   2  312.40    5.60
   3  -6   2  221.40    5.20
   4  -6   2  111.60    2.60
   5  -6   2  172.10    4.10
   6  -6   2   46.70    3.40
 -10  -7   2   -1.00    4.90
  -9  -7   2    5.70    2.90
  -8  -7   2   -1.20    1.50
  -7  -7   2   15.30    1.50
  -6  -7   2   44.10    1.90
  -5  -7   2   12.00    1.10
  -4  -7   2    1.50    0.90
  -3  -7   2    7.00    1.00
  -2  -7   2  230.30    4.90
  -1  -7   2   58.30    1.80
   0  -7   2  160.00    3.60
   1  -7   2    5.80    0.80
   2  -7   2   14.00    1.00
   3  -7   2   16.80    1.20
   4  -7   2  253.10    5.80
   5  -7   2    3.20    0.70
   7  -7   2    3.10    2.80
  -9  -8   2   24.80    3.10
  -8  -8   2   54.70    4.40
  -7  -8   2    0.00    0.70
  -6  -8   2    1.60    0.80
  -5  -8   2   90.40    2.10
  -4  -8   2  172.60    3.50
  -3  -8   2    1.10    0.70
  -2  -8   2   69.20    2.30
  -1  -8   2  471.10    6.80
   0  -8   2  355.30    6.30
   1  -8   2   24.60    1.60
   2  -8   2  259.30    5.60
   3  -8   2  170.00    3.50
   4  -8   2   81.90    3.00
   5  -8   2   39.60    2.90
   6  -8   2   21.30    3.10
  -5  -9   2    6.90    1.10
  -4  -9   2   11.90    1.40
  -3  -9   2    9.90    1.20
  -2  -9   2   12.00    1.60
  -1  -9   2    8.90    1.30
   0  -9   2    0.60    0.90
   1  -9   2   36.00    2.00
   2  -9   2   16.90    1.60
   3  -9   2    6.80    1.20
   4  -9   2    6.10    1.10
   5  -9   2    1.10    1.20
   6  -9   2    4.60    2.00
  -7 -10   2   65.50    6.60
  -6 -10   2   17.10    3.30
  -5 -10   2   21.50    1.20
  -4 -10   2   92.00    2.60
  -3 -10   2  100.60    2.50
  -2 -10   2   42.20    2.00
  -1 -10   2   50.30    2.00
   0 -10   2   38.90    2.10
   1 -10   2   54.10    2.30
   2 -10   2  185.40    4.20
   3 -10   2   40.50    2.10
   4 -10   2   41.70    2.90
   5 -10   2   42.30    3.30
   6 -10   2  187.50    8.00
  -4 -11   2    5.80    1.30
  -3 -11   2   38.10    1.80
  -2 -11   2   11.30    2.80
  -1 -11   2   -0.20    1.20
   5 -11   2   80.60    4.50
  -2 -12   2   36.60    2.70
  -1 -12   2    3.10    1.80
   0 -12   2   42.30    2.50
   1 -12   2   35.50    2.50
   2 -12   2    5.00    2.00
  -5  11   3   55.20    5.70
  -4  11   3  111.80    6.70
  -3  11   3   57.70    4.10
  -2  11   3   14.90    5.60
  -1  11   3  105.70    6.00
   0  11   3   11.90    3.50
   1  11   3    9.10    3.10
   2  11   3   30.20    5.00
   3  11   3   21.30    2.80
   4  11   3   10.60    3.40
  -4  10   3   21.20    2.90
  -3  10   3    1.30    2.30
  -2  10   3    0.40    1.90
  -1  10   3   15.00    2.50
   0  10   3    1.20    1.60
   1  10   3   41.90    2.40
   2  10   3   29.20    2.40
   3  10   3    5.70    2.30
   5  10   3    0.70    3.20
  -8   9   3   53.90    4.40
  -7   9   3   28.80    3.70
  -6   9   3   15.10    3.20
  -5   9   3   45.30    2.60
  -4   9   3    3.40    3.60
  -3   9   3   16.30    2.60
  -2   9   3   65.50    3.30
  -1   9   3  121.10    3.30
   0   9   3   63.80    3.00
   1   9   3  243.20    5.20
   2   9   3  138.20    3.00
   3   9   3   29.20    2.00
   4   9   3  115.40    4.50
   5   9   3   56.00    3.30
   6   9   3   33.60    2.60
   7   9   3    4.10    3.40
  -9   8   3    7.20    1.50
  -7   8   3    1.10    1.90
  -6   8   3    2.30    1.90
  -5   8   3   18.90    2.50
  -4   8   3    0.60    1.40
  -3   8   3    3.00    1.10
  -2   8   3  129.10    3.50
  -1   8   3   11.10    1.70
   0   8   3    6.80    1.30
   1   8   3    8.60    1.60
   2   8   3    2.50    1.20
   3   8   3   32.30    1.90
   4   8   3   40.60    2.20
   5   8   3   -0.60    2.40
   6   8   3   20.00    2.50
   7   8   3    7.70    2.20
   8   8   3    1.10    2.10
 -10   7   3   25.20    3.60
  -9   7   3   28.80    3.00
  -7   7   3  154.40    5.00
  -6   7   3  118.30    3.90
  -5   7   3  200.60    3.70
  -4   7   3   21.80    1.60
  -3   7   3  162.60    3.70
  -2   7   3   76.90    2.70
  -1   7   3    6.40    1.20
   0   7   3   30.10    1.80
   1   7   3  105.00    3.80
   2   7   3  136.70    3.40
   3   7   3   65.70    2.90
   4   7   3  467.00    7.00
   5   7   3  186.20    7.00
   6   7   3  119.40    8.70
   7   7   3  161.10    4.90
   8   7   3   99.80    3.30
 -10   6   3    8.30    2.50
  -9   6   3    4.00    4.40
  -8   6   3    6.40    1.70
  -7   6   3  100.30    3.60
  -6   6   3    2.00    0.90
  -5   6   3    7.80    1.10
  -4   6   3   34.00    1.60
  -3   6   3   11.40    1.40
  -2   6   3    2.70    0.90
  -1   6   3  100.60    3.00
   0   6   3    5.00    1.00
   1   6   3    6.50    1.00
   2   6   3   36.30    1.90
   3   6   3    1.00    1.10
   4   6   3    0.50    1.10
   5   6   3    9.10    1.30
   6   6   3    1.90    1.00
   7   6   3    9.60    2.00
   8   6   3   18.70    2.30
   9   6   3   18.00    3.10
 -10   5   3   84.50    4.90
  -9   5   3  111.00    2.70
  -8   5   3    3.30    3.60
  -7   5   3  198.40    4.50
  -6   5   3   70.10    2.20
  -5   5   3   85.30    2.00
  -4   5   3    8.80    1.10
  -3   5   3   88.70    2.60
  -2   5   3   57.90    1.90
  -1   5   3  193.40    4.90
   0   5   3  444.10    7.70
   1   5   3   40.30    2.00
   2   5   3  495.50    7.50
   3   5   3  428.70    5.60
   4   5   3  193.80    4.40
   5   5   3   19.60    1.60
   6   5   3  123.20    3.40
   7   5   3  168.90    4.70
   8   5   3    5.60    2.10
   9   5   3   77.90    4.00
 -10   4   3    2.90    3.90
  -9   4   3   10.70    1.70
  -8   4   3   -1.80    3.20
  -7   4   3   15.60    1.30
  -6   4   3    1.60    0.80
  -5   4   3    3.90    0.70
  -4   4   3   40.00    1.70
  -3   4   3   74.30    2.10
  -2   4   3   18.90    1.20
  -1   4   3   14.70    1.40
   0   4   3    6.20    0.90
   1   4   3  125.30    3.30
   2   4   3    2.40    1.50
   3   4   3   96.90    3.00
   4   4   3   15.50    1.20
   5   4   3    4.10    0.90
   6   4   3   59.70    2.00
   7   4   3   20.00    1.30
   8   4   3    2.80    2.30
   9   4   3   15.20    6.10
 -12   3   3   18.60    3.00
 -11   3   3   21.30    2.70
 -10   3   3   37.00    5.20
  -9   3   3   24.00    2.00
  -8   3   3   36.20    2.10
  -7   3   3  102.80    3.10
  -6   3   3  219.30    5.00
  -5   3   3  140.70    2.70
  -4   3   3  302.40    6.50
  -3   3   3  146.60    3.90
  -2   3   3  315.60    4.70
  -1   3   3  409.30    5.20
   0   3   3  190.50    3.30
   1   3   3    2.90    0.80
   2   3   3  304.40    5.60
   3   3   3  670.60   10.70
   4   3   3   53.00    2.10
   5   3   3  115.40    3.20
   6   3   3  297.80    5.50
   7   3   3  306.10    5.40
   8   3   3   46.40    2.30
   9   3   3   90.80    6.80
  10   3   3   51.20    3.40
  11   3   3   34.60    6.90
 -10   2   3    1.80    2.60
  -9   2   3   -0.10    1.70
  -8   2   3    2.30    0.60
  -7   2   3    0.00    1.60
  -6   2   3   49.00    1.80
  -5   2   3   49.20    1.60
  -4   2   3    9.50    0.80
  -3   2   3   46.50    1.50
  -2   2   3    1.20    0.50
  -1   2   3   58.20    2.10
   0   2   3   85.10    2.40
   1   2   3   34.40    1.40
   2   2   3    8.40    1.00
   3   2   3   16.00    1.10
   4   2   3    1.10    0.60
   5   2   3    2.30    0.90
   6   2   3  142.20    4.20
   7   2   3    1.30    0.50
   8   2   3   21.70    1.30
   9   2   3   22.40    2.60
 -11   1   3   98.30    4.80
 -10   1   3   39.30    2.20
  -9   1   3    4.50    0.90
  -8   1   3   58.00    1.80
  -7   1   3    6.40    0.70
  -6   1   3  393.90    6.20
  -5   1   3   33.20    1.30
  -4   1   3  272.90    4.70
  -3   1   3  175.30    3.30
  -2   1   3 1757.70   19.80
  -1   1   3  687.20    8.90
   0   1   3   81.40    2.00
   1   1   3 1014.20   16.80
   2   1   3   96.40    2.40
   3   1   3  330.60    5.60
   4   1   3   19.70    1.00
   5   1   3  197.00    3.60
   6   1   3   12.00    0.70
   7   1   3  237.70    5.00
   8   1   3  317.30    5.00
 -11   0   3    2.10    4.40
 -10   0   3    2.10    3.90
  -9   0   3    0.60    1.10
  -8   0   3    0.80    0.80
  -7   0   3   -0.20    1.30
  -6   0   3    1.00    0.40
  -5   0   3    2.80    0.70
  -4   0   3    1.20    0.50
  -3   0   3    0.70    0.40
  -2   0   3    3.40    0.40
  -1   0   3    3.90    0.40
   0   0   3    0.30    0.40
   1   0   3    0.00    0.30
   2   0   3    0.40    0.50
   3   0   3    1.00    0.50
   4   0   3    0.30    0.60
   6   0   3    0.10    0.70
 -11  -1   3   97.20    4.50
 -10  -1   3   40.00    2.80
  -9  -1   3    1.30    0.60
  -8  -1   3   57.90    1.90
  -7  -1   3    6.80    0.90
  -6  -1   3  406.20    5.40
  -5  -1   3   35.20    1.20
  -4  -1   3  268.70    3.80
  -3  -1   3  185.00    3.70
  -2  -1   3 1807.30   20.70
  -1  -1   3  735.30   10.10
   0  -1   3   88.90    2.00
   1  -1   3 1028.30   13.10
   2  -1   3  103.80    1.80
   3  -1   3  327.90    5.40
   4  -1   3   20.40    0.70
   5  -1   3  214.30    4.80
 -11  -2   3   12.00    2.70
 -10  -2   3    2.60    1.20
  -9  -2   3    0.20    1.30
  -8  -2   3    1.40    0.60
  -7  -2   3    0.90    0.50
  -6  -2   3   46.90    1.50
  -5  -2   3   53.90    1.50
  -4  -2   3    9.00    0.60
  -3  -2   3   47.30    1.50
  -2  -2   3    1.10    0.40
  -1  -2   3   65.10    1.50
   0  -2   3   89.10    2.40
   1  -2   3   38.90    1.20
   2  -2   3    8.90    0.50
   3  -2   3   16.30    0.70
   4  -2   3    0.60    0.30
 -11  -3   3   19.80    3.00
 -10  -3   3   28.20    2.20
  -8  -3   3   34.10    1.50
  -7  -3   3  109.70    2.30
  -6  -3   3  224.50    5.00
  -5  -3   3  141.40    3.30
  -4  -3   3  313.10    5.10
  -3  -3   3  153.40    2.80
  -2  -3   3  330.60    5.70
  -1  -3   3  459.10    6.70
   0  -3   3  208.90    3.30
   1  -3   3    3.30    0.40
   2  -3   3  308.90    4.00
   3  -3   3  696.30    9.30
   4  -3   3   43.50    1.50
   5  -3   3  106.40    2.70
 -10  -4   3    4.70    1.50
  -9  -4   3   10.30    1.50
  -8  -4   3   -1.40    0.60
  -7  -4   3   13.70    1.20
  -6  -4   3    1.10    0.60
  -5  -4   3    3.10    0.60
  -4  -4   3   41.50    1.10
  -3  -4   3   78.80    1.50
  -2  -4   3   20.60    0.90
  -1  -4   3   15.20    0.80
   0  -4   3    6.30    0.70
   1  -4   3  131.40    3.60
   2  -4   3    0.10    0.70
   3  -4   3   95.40    2.30
   4  -4   3   16.20    0.80
   5  -4   3    3.70    0.40
 -11  -5   3   16.60    5.60
 -10  -5   3   80.20    5.20
  -9  -5   3  101.40    5.30
  -8  -5   3   32.00    2.30
  -7  -5   3  188.50    3.80
  -6  -5   3   75.20    2.00
  -5  -5   3   79.20    2.30
  -4  -5   3   10.00    0.80
  -3  -5   3  101.50    2.00
  -2  -5   3   59.10    1.80
  -1  -5   3  205.50    4.00
   0  -5   3  483.60    7.50
   1  -5   3   41.30    1.40
   2  -5   3  487.60    6.70
   3  -5   3  452.00    6.00
   4  -5   3  191.70    3.40
   5  -5   3   20.60    1.00
   6  -5   3  119.20    4.10
 -10  -6   3    5.10    3.20
  -9  -6   3    0.40    2.70
  -7  -6   3   96.00    3.60
  -6  -6   3    1.80    0.70
  -5  -6   3    8.60    0.90
  -4  -6   3   36.40    1.20
  -3  -6   3   11.50    0.80
  -2  -6   3    3.40    0.60
  -1  -6   3  104.00    2.00
   0  -6   3    5.00    0.70
   1  -6   3    5.60    0.70
   2  -6   3   36.70    1.20
   3  -6   3    1.60    0.60
   4  -6   3    1.40    1.10
   5  -6   3    9.80    0.80
   6  -6   3    9.00    0.80
 -10  -7   3   25.00    8.30
  -9  -7   3   30.70    5.60
  -8  -7   3   25.30    2.70
  -7  -7   3  139.80    3.80
  -6  -7   3   99.60    2.70
  -5  -7   3  178.80    3.50
  -4  -7   3   22.40    1.10
  -3  -7   3  159.70    3.30
  -2  -7   3   71.90    2.20
  -1  -7   3    4.90    0.80
   0  -7   3   30.30    1.40
   1  -7   3  112.40    2.70
   2  -7   3  133.90    2.90
   3  -7   3   58.10    1.70
   4  -7   3  490.10    8.30
   5  -7   3  224.90    9.30
   6  -7   3  118.90    2.90
  -9  -8   3    5.00    2.90
  -8  -8   3    3.70    3.60
  -7  -8   3    0.30    2.40
  -6  -8   3    2.00    0.80
  -5  -8   3   15.30    1.10
  -4  -8   3    0.50    1.00
  -3  -8   3    3.50    0.90
  -2  -8   3  121.90    3.00
  -1  -8   3   12.50    1.10
   0  -8   3    7.90    1.10
   1  -8   3    8.90    1.00
   2  -8   3    3.00    0.80
   3  -8   3   33.00    1.90
   4  -8   3   42.70    2.10
   6  -8   3   14.90    1.50
   7  -8   3    5.80    0.90
  -8  -9   3   56.60    3.50
  -7  -9   3   30.60    3.50
  -6  -9   3    9.60    1.60
  -5  -9   3   41.20    1.60
  -4  -9   3    5.80    0.90
  -3  -9   3   28.20    1.20
  -2  -9   3   66.20    1.90
  -1  -9   3  112.60    3.60
   0  -9   3   62.20    2.70
   1  -9   3  258.90    5.90
   2  -9   3  137.20    3.30
   3  -9   3   34.70    2.10
   4  -9   3  110.70    3.60
   5  -9   3   68.60    5.60
   6  -9   3   26.10    2.20
  -5 -10   3    3.20    3.50
  -4 -10   3   24.30    1.20
  -3 -10   3    0.60    1.20
  -2 -10   3   -0.50    2.00
  -1 -10   3   15.70    1.60
   0 -10   3    0.40    0.90
   1 -10   3   40.90    2.20
   2 -10   3   30.50    1.90
   3 -10   3    6.50    1.90
   4 -10   3    2.10    1.30
  -5 -11   3   27.40    2.60
  -4 -11   3   95.50    3.00
  -3 -11   3   49.80    2.40
  -2 -11   3   14.90    1.70
  -1 -11   3   86.90    2.80
   0 -11   3   12.10    1.70
   1 -11   3   10.30    1.70
   2 -11   3   30.90    2.20
   3 -11   3   37.70    1.80
   2  11   4    0.70    1.70
  -6  10   4   16.20    5.00
  -4  10   4   72.50    5.40
  -3  10   4   25.40    3.60
  -2  10   4   46.70    3.10
  -1  10   4   32.10    3.10
   0  10   4   16.60    2.30
   1  10   4  158.80    3.90
   2  10   4   36.60    2.40
   3  10   4   28.70    3.40
   4  10   4    9.70    2.40
   5  10   4  127.30    6.80
  -7   9   4   20.40    3.50
  -5   9   4   -0.50    3.70
  -4   9   4    7.90    2.00
  -3   9   4    2.10    2.30
  -2   9   4   71.10    3.10
  -1   9   4   20.80    1.70
   0   9   4   42.70    2.40
   1   9   4    0.40    1.10
   2   9   4    0.50    1.30
   3   9   4    1.00    1.30
   4   9   4   13.50    2.40
   5   9   4   15.00    6.00
   6   9   4    8.90   11.60
  -7   8   4    0.70    6.60
  -6   8   4  110.30    5.10
  -5   8   4  171.60    5.30
  -4   8   4    8.10    1.30
  -3   8   4   16.50    2.30
  -2   8   4  146.30    3.50
  -1   8   4  186.80    3.80
   0   8   4   12.00    1.60
   1   8   4   66.80    2.10
   2   8   4   52.60    3.40
   3   8   4  128.20    3.80
   4   8   4   44.40    2.60
   5   8   4   32.20    8.40
   6   8   4   75.30    5.70
   7   8   4   52.00    3.30
   8   8   4   71.30    5.10
  -7   7   4   12.40    6.50
  -6   7   4    3.20    1.90
  -5   7   4    5.00    1.30
  -4   7   4   35.40    1.80
  -3   7   4   70.50    2.00
  -2   7   4   70.30    2.80
  -1   7   4   60.90    2.20
   0   7   4    2.70    1.20
   1   7   4   24.30    1.60
   2   7   4   27.80    1.60
   3   7   4  124.10    3.10
   4   7   4    3.30    1.10
   5   7   4    0.20    4.30
   6   7   4    0.80    1.50
   7   7   4    4.90    1.70
   8   7   4   -0.40   10.30
 -10   6   4    8.90    2.50
  -9   6   4   -2.40    7.50
  -8   6   4   67.00    3.40
  -7   6   4   95.30    2.90
  -6   6   4   74.40    2.90
  -5   6   4  121.80    3.50
  -4   6   4  189.00    4.90
  -3   6   4  450.30    6.60
  -2   6   4   23.90    1.70
  -1   6   4   52.10    2.00
   0   6   4    7.90    1.10
   1   6   4   57.80    2.10
   2   6   4   65.80    2.50
   3   6   4   43.80    2.10
   4   6   4  117.60    3.60
   5   6   4  106.90    4.80
   6   6   4  492.80    9.80
   7   6   4  165.90    5.90
   8   6   4   66.60    4.30
   9   6   4   29.20    9.10
 -11   5   4   10.90    2.10
 -10   5   4   -5.50    4.90
  -9   5   4   18.10    1.70
  -8   5   4    3.40    3.00
  -7   5   4    3.10    1.00
  -6   5   4    4.40    1.00
  -5   5   4   51.60    2.20
  -4   5   4    5.70    1.00
  -3   5   4    5.40    1.00
  -2   5   4    4.10    1.00
  -1   5   4    7.30    1.10
   0   5   4   -2.10    1.30
   1   5   4   83.50    2.70
   2   5   4    6.60    1.20
   3   5   4  131.90    3.70
   4   5   4   43.80    2.10
   5   5   4   11.90    1.70
   6   5   4    6.30    1.40
   7   5   4   92.90    4.40
   8   5   4   -1.80    4.50
   9   5   4    0.70    3.40
 -11   4   4   37.00    2.80
 -10   4   4  183.30    5.80
  -7   4   4  243.60    5.50
  -6   4   4   89.70    2.40
  -5   4   4    3.50    0.70
  -4   4   4   42.10    1.80
  -3   4   4  275.00    4.00
  -2   4   4   62.40    1.90
  -1   4   4  297.00    5.40
   0   4   4  335.20    4.90
   1   4   4  125.60    2.70
   2   4   4  232.30    5.10
   3   4   4  214.40    5.40
   4   4   4  287.10    5.10
   5   4   4    5.70    1.10
   6   4   4   45.80    2.30
   7   4   4  150.70    3.60
   8   4   4  177.00    6.50
   9   4   4   28.90    5.10
  -9   3   4   74.10    2.30
  -8   3   4    0.40    0.60
  -7   3   4    1.80    1.00
  -6   3   4   63.80    1.90
  -5   3   4   41.60    1.70
  -4   3   4   56.90    2.00
  -3   3   4  193.40    3.70
  -2   3   4    8.10    0.80
  -1   3   4  339.20    5.40
   0   3   4    4.00    0.80
   1   3   4    8.00    0.80
   2   3   4   11.00    1.00
   3   3   4    7.40    1.00
   4   3   4  229.20    5.00
   5   3   4  184.20    4.00
   6   3   4   98.00    2.80
   7   3   4    1.60    0.90
   8   3   4    3.80    1.80
  10   3   4   51.40    7.70
 -11   2   4   39.90    3.30
  -9   2   4   31.70    1.30
  -8   2   4   46.80    1.90
  -7   2   4  144.90    3.10
  -6   2   4   59.70    1.60
  -5   2   4   67.70    2.00
  -4   2   4  280.10    4.90
  -3   2   4  226.40    4.20
  -2   2   4  436.10    7.20
  -1   2   4    1.20    0.60
   0   2   4  106.80    2.60
   1   2   4  169.60    4.20
   2   2   4  541.20    7.60
   3   2   4  140.50    3.40
   4   2   4   95.40    2.70
   5   2   4  397.10    7.60
   6   2   4  319.50    5.20
   7   2   4  228.30    5.50
   8   2   4   17.60    1.30
   9   2   4   47.50    2.40
 -11   1   4   -0.80    4.90
 -10   1   4    0.00    2.50
  -9   1   4   -1.30    1.60
  -8   1   4   20.70    1.00
  -7   1   4    1.30    0.80
  -6   1   4    7.00    0.70
  -5   1   4    0.70    0.60
  -4   1   4   65.10    2.00
  -3   1   4   20.60    1.10
  -2   1   4  411.60    7.00
  -1   1   4   45.80    1.60
   0   1   4   52.00    1.60
   1   1   4    9.60    0.80
   2   1   4    6.70    0.70
   3   1   4  121.40    2.40
   4   1   4    3.60    0.70
   5   1   4    1.30    0.60
   6   1   4   23.90    1.50
   7   1   4   64.70    3.60
   8   1   4   16.30    1.50
 -12   0   4   39.60    7.60
 -11   0   4  158.80    7.00
  -9   0   4    0.50    1.10
  -8   0   4   39.40    2.40
  -7   0   4    5.70    0.70
  -6   0   4   74.80    2.20
  -5   0   4   54.70    1.60
  -4   0   4   14.10    0.60
  -3   0   4  124.40    2.60
  -2   0   4 1500.70   18.30
  -1   0   4  289.20    4.70
   0   0   4  484.90    6.80
   1   0   4  429.20    6.50
   2   0   4 1482.80   17.30
   3   0   4  623.10    9.70
   4   0   4   11.50    0.80
   5   0   4   54.50    1.30
   6   0   4   10.90    1.60
 -11  -1   4    2.10    4.10
 -10  -1   4    0.30    3.30
  -9  -1   4    3.90    4.30
  -8  -1   4   23.50    1.30
  -7  -1   4    1.20    0.60
  -6  -1   4    6.40    0.80
  -5  -1   4    0.50    0.50
  -4  -1   4   77.70    1.60
  -3  -1   4   20.20    0.90
  -2  -1   4  424.00    5.50
  -1  -1   4   47.60    1.70
   0  -1   4   51.30    1.60
   1  -1   4    9.80    0.90
   2  -1   4    5.50    0.60
   3  -1   4  119.10    2.70
   4  -1   4    3.80    0.50
   5  -1   4    2.50    0.60
 -12  -2   4   20.70    3.30
 -11  -2   4   39.40    4.50
  -9  -2   4   31.90    2.50
  -8  -2   4   43.70    2.00
  -7  -2   4  133.80    2.90
  -6  -2   4   68.00    1.90
  -5  -2   4   68.60    1.60
  -4  -2   4  270.60    3.80
  -3  -2   4  240.40    4.00
  -2  -2   4  488.80    7.80
  -1  -2   4    0.80    0.40
   0  -2   4  116.20    3.00
   1  -2   4  188.80    3.10
   2  -2   4  551.50    7.30
   3  -2   4  132.20    2.20
   4  -2   4   88.30    2.10
   5  -2   4  356.90    5.20
 -11  -3   4   18.50    3.30
  -9  -3   4   68.60    3.00
  -8  -3   4   -1.60    2.40
  -7  -3   4    2.90    0.60
  -6  -3   4   68.20    1.70
  -5  -3   4   32.40    1.20
  -4  -3   4   60.90    1.90
  -3  -3   4  191.00    3.10
  -2  -3   4    7.90    0.60
  -1  -3   4  345.90    5.30
   0  -3   4    3.00    0.50
   1  -3   4    9.80    0.60
   2  -3   4   13.10    0.70
   3  -3   4    7.70    0.50
   4  -3   4  233.50    3.50
   5  -3   4  174.10    2.80
 -11  -4   4   40.40    4.30
  -8  -4   4    5.70    1.90
  -7  -4   4  222.90    3.20
  -6  -4   4   95.60    2.10
  -5  -4   4    4.00    0.70
  -4  -4   4   40.00    1.60
  -3  -4   4  295.60    5.50
  -2  -4   4   66.10    1.90
  -1  -4   4  304.00    4.60
   0  -4   4  348.60    5.00
   1  -4   4  126.60    2.80
   2  -4   4  259.60    4.30
   3  -4   4  218.80    4.10
   4  -4   4  262.70    4.50
   5  -4   4    4.00    0.80
 -11  -5   4   12.30    3.50
 -10  -5   4    4.50    1.40
  -9  -5   4   15.30    1.90
  -6  -5   4    3.40    1.10
  -5  -5   4   49.50    1.50
  -4  -5   4    5.10    0.80
  -3  -5   4    5.30    0.70
  -2  -5   4    4.20    0.70
  -1  -5   4    9.30    0.80
   0  -5   4    0.50    0.40
   1  -5   4   84.90    2.20
   2  -5   4    6.70    0.80
   3  -5   4  128.00    3.00
   4  -5   4   44.20    1.90
   5  -5   4    7.00    0.90
  -8  -6   4   62.10    2.90
  -7  -6   4   61.30    2.00
  -6  -6   4   71.00    2.30
  -5  -6   4  122.70    2.40
  -4  -6   4  190.10    4.20
  -3  -6   4  451.50    6.60
  -2  -6   4   28.30    1.30
  -1  -6   4   58.50    1.80
   0  -6   4    9.40    0.90
   1  -6   4   58.30    1.30
   2  -6   4   55.60    2.00
   3  -6   4   40.90    1.60
   4  -6   4   95.10    3.30
   5  -6   4  105.90    4.80
   6  -6   4  431.30    9.60
  -8  -7   4    3.10    6.60
  -7  -7   4   16.10    3.00
  -6  -7   4    1.30    0.80
  -5  -7   4    5.10    0.80
  -4  -7   4   38.10    1.60
  -3  -7   4   63.10    1.80
  -2  -7   4   68.80    1.70
  -1  -7   4   62.70    2.60
   0  -7   4    3.10    0.70
   1  -7   4   23.40    1.30
   2  -7   4   22.90    1.30
   3  -7   4  122.90    3.80
   4  -7   4    2.60    0.70
   5  -7   4    0.70    0.60
   6  -7   4   -1.70    1.90
  -8  -8   4   32.90    9.50
  -7  -8   4   -2.00    3.80
  -6  -8   4   81.40    2.40
  -5  -8   4  160.40    3.80
  -4  -8   4    9.80    0.90
  -3  -8   4   22.30    1.70
  -2  -8   4  133.00    2.90
  -1  -8   4  176.90    4.00
   0  -8   4   10.40    1.10
   1  -8   4   61.60    2.10
   2  -8   4   47.20    2.00
   3  -8   4  123.60    4.10
   4  -8   4   40.00    2.30
   5  -8   4   35.60    2.80
   6  -8   4   70.10    3.50
  -6  -9   4    2.50    1.10
  -5  -9   4    2.70    1.00
  -4  -9   4   11.60    1.30
  -3  -9   4    0.70    1.00
  -2  -9   4   72.60    2.10
  -1  -9   4   23.30    1.50
   0  -9   4   37.70    1.80
   1  -9   4    1.10    0.80
   2  -9   4   -2.50    0.70
   3  -9   4    2.90    1.10
   4  -9   4   11.40    1.80
  -6 -10   4   11.90    3.60
  -5 -10   4   20.00    1.40
  -4 -10   4   57.10    1.90
  -3 -10   4   25.80    1.30
  -2 -10   4   43.90    2.00
  -1 -10   4   23.90    1.40
   0 -10   4   17.90    1.60
   1 -10   4  144.10    3.50
   2 -10   4   33.50    2.00
   3 -10   4   29.50    2.40
   4 -10   4    7.60    2.30
   5 -10   4  147.50   17.80
   3 -11   4   20.50    2.70
  -6   9   5   25.30    3.70
  -4   9   5   21.10    4.70
  -3   9   5   24.10    2.40
  -2   9   5   64.00    4.20
  -1   9   5   22.50    2.70
   0   9   5  172.60    5.60
   1   9   5   94.50    3.60
   2   9   5   38.50    2.40
   3   9   5   74.80    4.30
   4   9   5   29.70    2.20
   5   9   5   28.80    2.50
  -5   8   5    3.10    1.50
  -4   8   5    1.80    1.70
  -3   8   5   64.10    2.90
  -2   8   5    4.50    1.40
  -1   8   5    3.60    1.50
   0   8   5    6.00    1.60
   1   8   5   -3.20    3.80
   2   8   5   36.40    2.70
   3   8   5   41.90    3.20
   4   8   5    0.30    2.00
   5   8   5    4.30    2.20
  -7   7   5   15.40    2.50
  -6   7   5   58.90    2.50
  -5   7   5    3.00   12.30
  -4   7   5  179.00    5.70
  -3   7   5  168.10    3.20
  -2   7   5   65.50    2.40
  -1   7   5   62.90    3.10
   0   7   5  114.40    3.00
   1   7   5   54.50    2.40
   2   7   5    1.40    1.40
   3   7   5  104.90    3.00
   4   7   5   29.10    2.00
   5   7   5   43.00    2.90
   6   7   5   99.30    4.10
   7   7   5   89.40    4.40
   8   7   5   39.50    8.90
  -8   6   5   21.00    3.80
  -6   6   5    1.30    1.00
  -5   6   5    4.70    1.40
  -4   6   5   -0.30    1.80
  -3   6   5    3.50    1.10
  -2   6   5   82.90    3.20
  -1   6   5    0.50    1.30
   0   6   5    2.00    1.30
   1   6   5   15.10    1.70
   2   6   5   13.10    1.40
   3   6   5   30.60    2.10
   4   6   5   44.60    2.60
   5   6   5    8.90    1.80
   6   6   5    8.80    2.20
   7   6   5    0.00    4.00
   8   6   5   32.00    3.60
 -10   5   5   21.80    2.80
  -7   5   5    9.70    1.40
  -6   5   5   15.80    1.70
  -5   5   5   12.90    1.50
  -4   5   5   67.10    2.80
  -3   5   5   53.70    2.10
  -2   5   5  124.90    3.50
  -1   5   5  316.60    5.10
   0   5   5   45.60    2.30
   1   5   5  255.50    5.90
   2   5   5  187.30    4.40
   3   5   5   83.70    3.00
   4   5   5    4.30    1.10
   5   5   5   32.50    2.50
   6   5   5  145.40   10.90
   7   5   5    7.90    2.40
   8   5   5   52.30    5.60
   9   5   5   61.80    6.70
  -8   4   5    7.10    1.20
  -7   4   5   22.60    1.50
  -6   4   5   10.30    1.60
  -5   4   5   11.60    1.10
  -4   4   5    0.40    1.70
  -3   4   5    3.30    0.80
  -2   4   5    1.40    0.80
  -1   4   5   27.20    1.40
   0   4   5    1.50    0.80
   1   4   5   78.60    2.70
   2   4   5    3.30    1.30
   3   4   5    3.10    0.90
   4   4   5   15.90    2.10
   5   4   5    3.10    1.40
   6   4   5    4.30    1.30
   7   4   5   35.10    4.50
   9   4   5   -0.10    4.80
  10   4   5   12.60    4.10
 -11   3   5   11.90    2.50
  -9   3   5   15.60    1.30
  -8   3   5   73.60    3.90
  -7   3   5   55.80    3.00
  -6   3   5   27.50    1.30
  -5   3   5  142.00    3.00
  -4   3   5   75.70    2.70
  -3   3   5  130.70    2.70
  -2   3   5  151.40    3.40
  -1   3   5  117.40    2.70
   0   3   5    3.20    0.90
   1   3   5  134.30    3.40
   2   3   5  295.60    5.30
   3   3   5   35.90    1.90
   4   3   5   71.00    2.40
   5   3   5  170.80    4.80
   6   3   5  305.60    7.50
   7   3   5   63.80    2.80
   8   3   5   76.50    3.60
  10   3   5   79.50    3.30
  -9   2   5    3.20    0.80
  -8   2   5    3.20    0.90
  -7   2   5   -0.10    2.40
  -6   2   5    1.10    0.80
  -5   2   5   19.70    1.40
  -4   2   5   -0.10    1.30
  -3   2   5   41.10    1.90
  -2   2   5    1.70    0.60
  -1   2   5   -0.20    1.20
   0   2   5   14.40    0.90
   1   2   5   93.80    2.00
   2   2   5   22.10    1.30
   3   2   5    2.70    0.70
   4   2   5   16.00    1.20
   5   2   5  119.60    2.40
   6   2   5   26.40    1.40
   7   2   5  106.80    3.40
   8   2   5   10.30    3.90
 -11   1   5   13.40    3.10
 -10   1   5   14.30    2.60
  -9   1   5   75.20    4.20
  -8   1   5   23.30    1.20
  -7   1   5  263.20    4.70
  -6   1   5   40.10    1.10
  -5   1   5   63.40    1.60
  -4   1   5   20.30    1.20
  -3   1   5  334.80    6.30
  -2   1   5   36.60    1.40
  -1   1   5    2.00    0.70
   0   1   5  250.80    4.90
   1   1   5  126.30    2.60
   2   1   5  285.50    5.40
   3   1   5   90.80    2.70
   4   1   5  344.90    5.80
   5   1   5  126.60    2.70
   6   1   5  202.90    4.40
   7   1   5  157.30    5.50
 -10   0   5    0.70    0.90
  -9   0   5    1.10    1.00
  -8   0   5    0.30    1.70
  -7   0   5    0.20    0.70
  -6   0   5    1.00    0.60
  -5   0   5    0.50    0.60
  -4   0   5   -0.30    1.90
  -3   0   5    1.10    0.50
  -2   0   5    0.90    0.60
  -1   0   5    0.30    0.50
   0   0   5    0.50    0.50
   1   0   5    0.20    0.50
   2   0   5    1.70    0.80
   3   0   5    0.40    0.40
   4   0   5    0.30    0.60
   5   0   5   -0.30    0.90
   6   0   5    1.50    1.00
 -11  -1   5   12.50    3.00
  -9  -1   5   74.70    2.80
  -8  -1   5   24.50    2.00
  -7  -1   5  236.80    3.60
  -6  -1   5   39.20    1.50
  -5  -1   5   63.40    1.90
  -4  -1   5   20.60    1.00
  -3  -1   5  333.30    5.30
  -2  -1   5   36.80    1.20
  -1  -1   5    2.40    0.70
   0  -1   5  258.50    4.30
   1  -1   5  120.40    2.40
   2  -1   5  286.10    5.10
   3  -1   5   89.00    2.40
   4  -1   5  340.90    5.30
   5  -1   5  127.50    2.80
   6  -1   5  192.90    3.20
  -8  -2   5    3.50    6.10
  -7  -2   5    2.10    0.80
  -6  -2   5    1.10    0.70
  -5  -2   5   19.90    1.00
  -4  -2   5    1.80    0.50
  -3  -2   5   45.20    1.40
  -2  -2   5    1.20    0.50
  -1  -2   5   -0.20    1.20
   0  -2   5   14.70    1.00
   1  -2   5   91.80    2.30
   2  -2   5   23.70    1.20
   3  -2   5    2.70    0.40
   4  -2   5   13.70    0.80
   5  -2   5  114.10    2.30
   6  -2   5   24.60    2.00
 -11  -3   5   13.30    3.40
  -9  -3   5   15.50    3.10
  -8  -3   5   69.80    3.50
  -7  -3   5   46.40    1.60
  -6  -3   5   28.20    1.30
  -5  -3   5  141.10    2.80
  -4  -3   5   77.00    2.10
  -3  -3   5  129.00    2.70
  -2  -3   5  147.00    3.00
  -1  -3   5  114.40    2.80
   0  -3   5    1.90    0.50
   1  -3   5  141.20    2.90
   2  -3   5  278.50    4.20
   3  -3   5   37.10    1.60
   4  -3   5   74.50    1.70
   5  -3   5  170.70    3.10
  -9  -4   5   -0.90    6.80
  -8  -4   5    0.40    0.70
  -7  -4   5   18.50    1.80
  -6  -4   5   11.00    1.00
  -5  -4   5   14.40    1.20
  -4  -4   5    0.90    0.60
  -3  -4   5    3.30    0.60
  -2  -4   5    0.90    0.60
  -1  -4   5   29.80    1.70
   0  -4   5    1.20    0.50
   1  -4   5   74.00    2.00
   2  -4   5    2.80    0.50
   3  -4   5    1.20    0.50
   4  -4   5   16.20    1.00
   5  -4   5    5.80    1.00
 -10  -5   5   18.30    3.00
  -8  -5   5   69.30    2.70
  -7  -5   5    6.80    1.40
  -6  -5   5   15.10    1.40
  -5  -5   5   14.30    1.10
  -4  -5   5   65.60    1.80
  -3  -5   5   49.80    1.70
  -2  -5   5  127.40    2.70
  -1  -5   5  319.00    4.30
   0  -5   5   45.60    1.80
   1  -5   5  213.00    4.30
   2  -5   5  195.40    4.40
   3  -5   5   87.70    1.90
   4  -5   5    3.50    0.70
   5  -5   5   33.20    1.90
   6  -5   5  102.10    3.40
  -8  -6   5   27.50    3.30
  -7  -6   5    0.00    1.20
  -6  -6   5    1.20    0.80
  -5  -6   5    9.30    1.70
  -4  -6   5    0.00    1.60
  -3  -6   5    2.60    1.00
  -2  -6   5   80.80    2.80
  -1  -6   5    0.70    0.70
   0  -6   5    3.60    0.70
   1  -6   5   15.20    1.60
   2  -6   5   10.50    1.00
   3  -6   5   31.30    1.70
   4  -6   5   36.50    1.60
   5  -6   5    6.70    1.10
   6  -6   5    2.30    2.00
  -8  -7   5    0.40    1.80
  -7  -7   5   13.50    1.60
  -6  -7   5   52.10    2.00
  -5  -7   5    7.30    1.20
  -4  -7   5  172.60    3.70
  -3  -7   5  168.10    3.60
  -2  -7   5   63.40    1.90
  -1  -7   5   60.10    2.00
   0  -7   5  116.40    2.60
   1  -7   5   50.20    2.10
   2  -7   5    2.50    0.80
   3  -7   5  109.10    4.10
   4  -7   5   29.90    1.80
   6  -7   5   69.50    3.30
  -5  -8   5    2.30    1.10
  -4  -8   5    2.00    0.90
  -3  -8   5   56.30    2.40
  -2  -8   5    2.90    1.10
  -1  -8   5    4.20    1.20
   0  -8   5    7.60    1.30
   1  -8   5   -0.90    4.50
   2  -8   5   31.20    1.70
   3  -8   5   35.20    2.00
   4  -8   5    1.30    3.70
  -6  -9   5   21.00    2.40
  -5  -9   5    0.50    1.30
  -4  -9   5   15.00    1.30
  -3  -9   5   26.20    1.50
  -2  -9   5   74.50    3.80
  -1  -9   5   25.00    3.10
   0  -9   5  172.10    4.20
   1  -9   5   90.20    3.00
   2  -9   5   38.30    1.90
   3  -9   5   70.40    2.90
   4  -9   5   32.20    3.10
   5  -9   5   26.50    2.70
  -3   9   6   21.00    5.10
  -2   9   6    2.20    1.60
  -1   9   6   49.90    3.10
   1   9   6    0.90    1.80
  -6   8   6   32.70    3.50
  -3   8   6   12.70    4.00
  -2   8   6   93.70    4.30
  -1   8   6   39.10    2.90
   0   8   6   44.90    2.60
   1   8   6   41.50    2.90
   2   8   6  192.30    5.90
   3   8   6   46.10    3.00
   4   8   6   32.30    3.00
   5   8   6   41.60    3.40
  -5   7   6   44.20    3.60
  -3   7   6   42.00    2.00
  -2   7   6    6.70    1.40
  -1   7   6   -0.50    3.20
   0   7   6   15.10    2.10
   1   7   6   10.30    2.50
   2   7   6   47.10    2.70
   3   7   6   -0.70    3.40
   4   7   6    3.50    1.90
   5   7   6    5.30    2.60
  -8   6   6   44.70    3.50
  -7   6   6   13.70    2.40
  -5   6   6    9.90    1.70
  -4   6   6  141.70    3.20
  -3   6   6    8.40    1.60
  -2   6   6   27.00    2.10
  -1   6   6   23.00    1.70
   0   6   6   87.50    3.70
   1   6   6  109.70    3.00
   2   6   6   63.00    2.70
   3   6   6   69.60    2.70
   4   6   6   28.90    2.30
   5   6   6  213.90    5.00
   6   6   6   79.40    6.80
   7   6   6    9.20    4.50
  -9   5   6   12.20    3.20
  -6   5   6   51.60    3.70
  -5   5   6    0.70    1.10
  -4   5   6    3.70    1.00
  -3   5   6   19.90    1.50
  -2   5   6   35.30    1.70
  -1   5   6   24.70    1.70
   0   5   6   13.80    1.30
   1   5   6    2.10    1.10
   2   5   6   54.50    2.60
   3   5   6   41.50    2.00
   4   5   6   55.10    2.20
   5   5   6   24.30    2.70
   6   5   6   24.00    3.40
   7   5   6    0.50    1.80
  -9   4   6  -12.80    9.50
  -8   4   6   88.00    4.90
  -7   4   6   35.80    2.60
  -6   4   6   16.10    2.00
  -5   4   6    1.50    0.90
  -4   4   6   49.40    2.00
  -3   4   6   10.50    1.20
  -2   4   6   47.10    1.90
  -1   4   6  126.50    2.90
   0   4   6  137.00    3.10
   1   4   6  181.10    4.00
   2   4   6   80.20    2.40
   3   4   6  287.70    4.90
   4   4   6   31.70    2.30
   5   4   6    9.00    1.40
   6   4   6   36.20    1.90
   7   4   6   69.50    3.80
   8   4   6   14.50    4.80
 -10   3   6   15.60    2.20
  -8   3   6   14.70    2.10
  -7   3   6   -1.90    3.10
  -6   3   6    6.50    1.10
  -5   3   6    5.40    1.00
  -4   3   6   18.10    1.30
  -3   3   6   37.70    1.50
  -2   3   6   62.90    2.30
  -1   3   6    7.50    0.90
   0   3   6    8.70    1.00
   1   3   6    3.10    0.90
   2   3   6   12.60    1.10
   3   3   6   13.90    1.30
   4   3   6   49.50    2.10
   5   3   6   65.40    2.40
   6   3   6    1.90    1.20
   7   3   6   17.10    2.10
   9   3   6    6.80    1.90
  -9   2   6    7.50    1.70
  -8   2   6   54.10    7.30
  -7   2   6   19.40    2.10
  -6   2   6   25.50    1.30
  -5   2   6  139.00    3.40
  -4   2   6  230.80    5.10
  -3   2   6  326.40    4.50
  -2   2   6   14.40    1.20
  -1   2   6   32.80    1.70
   0   2   6   47.10    1.90
   1   2   6  146.20    3.30
   2   2   6    2.90    0.80
   3   2   6    1.80    0.70
   4   2   6  111.60    3.20
   5   2   6  248.90    4.80
   6   2   6  243.80    5.20
   7   2   6   61.90    3.00
   8   2   6   92.90    3.70
  -9   1   6   15.90    4.60
  -8   1   6    7.40    1.20
  -7   1   6    0.70    0.70
  -6   1   6    2.80    0.80
  -5   1   6   89.90    2.70
  -4   1   6    2.60    0.70
  -3   1   6  199.80    4.80
  -2   1   6    2.20    0.80
  -1   1   6    2.20    1.40
   0   1   6   16.90    1.00
   1   1   6   21.10    1.30
   2   1   6   18.80    1.30
   4   1   6   29.10    1.40
   5   1   6   69.40    2.20
   6   1   6   18.80    1.90
 -10   0   6   59.60    6.90
  -9   0   6   19.10    2.60
  -8   0   6   14.60    1.90
  -7   0   6   35.30    1.80
  -6   0   6   82.10    2.20
  -5   0   6   64.20    2.10
  -4   0   6    1.20    0.80
  -3   0   6  264.80    4.80
  -2   0   6  108.40    2.90
  -1   0   6  150.10    3.10
   0   0   6   22.30    1.20
   1   0   6  227.80    4.00
   2   0   6  221.90    4.40
   3   0   6    9.20    0.80
   4   0   6   49.50    1.90
   5   0   6   69.90    4.40
   6   0   6   88.20    3.00
  -9  -1   6   16.00    2.10
  -8  -1   6    9.70    1.70
  -7  -1   6    0.90    1.00
  -6  -1   6    3.10    0.80
  -5  -1   6   87.50    2.20
  -4  -1   6    2.40    0.70
  -3  -1   6  210.30    3.80
  -2  -1   6    3.40    0.90
  -1  -1   6    0.80    0.60
   0  -1   6   16.00    1.10
   1  -1   6   21.20    1.40
   2  -1   6   16.10    1.00
   3  -1   6   14.90    0.90
   4  -1   6   26.90    1.40
   5  -1   6   71.70    1.70
   6  -1   6   15.90    1.60
  -8  -2   6   50.30    2.30
  -7  -2   6   19.00    2.10
  -6  -2   6   25.70    1.40
  -5  -2   6  134.70    2.40
  -4  -2   6  221.20    3.40
  -3  -2   6  317.50    4.60
  -2  -2   6   16.20    1.00
  -1  -2   6   33.40    1.30
   0  -2   6   48.00    1.80
   1  -2   6  141.40    2.80
   2  -2   6    2.80    0.70
   3  -2   6    1.40    0.50
   4  -2   6  100.60    2.50
   5  -2   6  224.80    4.40
   6  -2   6  213.60    5.60
 -10  -3   6   17.90    3.30
  -8  -3   6   15.10    2.60
  -6  -3   6   10.00    1.70
  -5  -3   6    6.10    0.80
  -4  -3   6   16.00    1.00
  -3  -3   6   33.10    1.30
  -2  -3   6   64.00    3.50
  -1  -3   6    7.60    1.00
   0  -3   6   11.80    1.10
   1  -3   6    3.10    0.60
   2  -3   6   13.40    1.00
   3  -3   6   12.70    1.10
   4  -3   6   44.30    2.20
   5  -3   6   57.90    2.60
  -8  -4   6    0.50    1.00
  -7  -4   6   35.20    1.80
  -6  -4   6   14.10    1.00
  -5  -4   6    1.50    0.70
  -4  -4   6   47.90    4.00
  -3  -4   6   11.80    1.00
  -2  -4   6   48.90    1.60
  -1  -4   6  113.00    2.20
   0  -4   6  124.30    2.70
   1  -4   6  171.40    3.20
   2  -4   6   76.60    2.40
   3  -4   6  265.90    3.80
   4  -4   6   31.30    1.80
   5  -4   6    7.90    1.10
   6  -4   6   26.60    2.50
  -9  -5   6    9.30    2.90
  -7  -5   6    0.50    1.00
  -6  -5   6   48.70    1.80
  -5  -5   6    0.30    0.80
  -4  -5   6    3.40    0.90
  -3  -5   6   23.00    1.20
  -2  -5   6   35.50    1.30
  -1  -5   6   23.30    1.20
   0  -5   6   13.90    1.10
   1  -5   6    1.60    0.80
   2  -5   6   57.30    1.80
   3  -5   6   38.60    1.60
   4  -5   6   46.60    1.60
   5  -5   6   29.50    4.80
   6  -5   6   15.70    2.90
  -8  -6   6   35.90    2.20
  -7  -6   6   13.60    1.90
  -6  -6   6    5.70    0.90
  -5  -6   6   20.30    1.50
  -4  -6   6  132.30    3.50
  -3  -6   6    8.70    1.60
  -2  -6   6   22.30    1.30
  -1  -6   6   27.40    1.40
   0  -6   6   91.10    2.40
   1  -6   6  100.90    2.40
   2  -6   6   56.00    3.00
   3  -6   6   60.90    1.80
   4  -6   6   27.90    2.50
   5  -6   6  201.90    7.50
   6  -6   6   60.00    6.30
  -6  -7   6    2.40    0.90
  -5  -7   6   40.80    1.90
  -4  -7   6    9.50    1.90
  -3  -7   6   42.30    1.70
  -2  -7   6    6.80    1.00
  -1  -7   6   -0.50    1.30
   0  -7   6    9.80    1.10
   1  -7   6   10.90    1.60
   2  -7   6   49.20    2.60
   3  -7   6    1.30    2.30
  -6  -8   6   34.70    2.10
  -5  -8   6    4.20    1.70
  -4  -8   6    0.20    1.70
  -3  -8   6    9.10    1.50
  -2  -8   6   98.80    3.40
  -1  -8   6   37.30    1.70
   0  -8   6   41.90    1.80
   1  -8   6   41.90    3.20
   2  -8   6  186.10    5.70
   3  -8   6   40.40    3.00
   4  -8   6   33.60    5.50
   5  -8   6   31.70    3.10
  -4  -9   6    2.80    2.50
  -3  -9   6   11.90    3.20
  -2  -9   6    2.20    1.10
  -1  -9   6   48.30    3.10
   0  -9   6    2.90    2.00
  -1   8   7   14.40    3.60
   0   8   7    6.40    2.10
   2   8   7    2.10    2.70
  -5   7   7   62.90    2.20
  -4   7   7   60.70    2.50
  -3   7   7   14.80    2.40
  -2   7   7   10.70    2.50
  -1   7   7   22.60    2.80
   0   7   7   17.80    3.60
   1   7   7    2.00    1.80
   2   7   7   30.70    2.90
   3   7   7   25.70    2.40
   4   7   7   62.80    3.20
  -5   6   7    6.30    1.80
  -4   6   7   16.20    2.30
  -3   6   7   29.60    2.10
  -2   6   7    1.80    1.60
  -1   6   7    5.30    1.20
   0   6   7   -0.20    2.00
   1   6   7   54.70    2.70
   2   6   7    8.80    1.70
   3   6   7   22.10    2.90
   4   6   7    5.90    1.80
  -8   5   7   15.50    2.90
  -7   5   7   19.40    2.90
  -6   5   7   -0.50    2.40
  -5   5   7   17.00    3.00
  -4   5   7   15.70    1.90
  -3   5   7    4.50    1.40
  -2   5   7   60.00    2.60
  -1   5   7    5.60    1.40
   0   5   7   66.00    2.10
   1   5   7   73.30    2.50
   2   5   7  110.20    3.10
   3   5   7   43.40    2.30
   4   5   7   43.80    2.60
   5   5   7  154.70    4.30
   7   5   7   16.40    5.00
  -8   4   7   12.30    3.10
  -6   4   7    0.30    0.90
  -4   4   7    1.50    1.70
  -3   4   7    3.80    1.00
  -2   4   7   21.70    1.70
  -1   4   7    0.20    0.90
   0   4   7   12.90    1.40
   1   4   7   24.00    1.50
   2   4   7    0.60    1.40
   3   4   7   42.00    4.40
   4   4   7    0.10    2.40
   5   4   7    5.20    3.00
   7   4   7    3.90    3.60
  -9   3   7   19.70    2.60
  -7   3   7    0.50    1.30
  -6   3   7   49.80    1.90
  -5   3   7   29.70    1.80
  -4   3   7   77.10    1.90
  -3   3   7   57.70    1.70
  -2   3   7   81.80    2.00
  -1   3   7   17.40    1.60
   0   3   7   78.50    2.60
   1   3   7   94.20    3.50
   2   3   7   27.80    1.70
   3   3   7   36.20    2.10
   4   3   7   47.20    2.40
   5   3   7  192.40    4.70
   6   3   7   41.20    2.70
   7   3   7   29.30    3.00
   8   3   7   30.60    4.20
  -8   2   7    6.20    2.00
  -7   2   7    1.20    1.00
  -6   2   7    2.10    1.10
  -5   2   7   17.30    1.80
  -4   2   7    7.70    1.30
  -3   2   7   19.90    1.40
  -2   2   7   12.60    1.40
  -1   2   7   42.50    1.60
   0   2   7    6.80    1.00
   1   2   7    0.40    1.10
   2   2   7   10.00    1.10
   3   2   7   52.30    2.20
   4   2   7   80.30    4.10
   5   2   7    3.50    2.40
   6   2   7   23.90    6.10
   7   2   7   26.30    2.60
  -8   1   7   42.60    2.70
  -7   1   7    2.10    4.40
  -6   1   7    7.30    2.10
  -5   1   7    5.40    2.00
  -4   1   7  130.20    3.20
  -3   1   7   52.70    1.70
  -2   1   7   15.30    1.10
  -1   1   7  153.80    3.40
   0   1   7  146.60    2.90
   1   1   7  154.30    4.40
   2   1   7   18.80    2.10
   3   1   7   84.60    3.10
   4   1   7   54.60    2.00
   5   1   7   39.40    2.20
   6   1   7   21.60    2.30
   7   1   7   36.00    7.10
  -5   0   7   -0.70    2.60
  -4   0   7    0.20    2.20
  -2   0   7    0.30    0.60
  -1   0   7    1.80    1.50
   0   0   7   -0.80    2.30
   1   0   7   -1.10    1.50
   2   0   7   -1.30    2.20
   3   0   7    0.70    1.40
   4   0   7   -1.10    1.80
   5   0   7   -0.70    1.80
  -8  -1   7   43.50    3.90
  -7  -1   7    1.50    1.00
  -6  -1   7    5.20    1.40
  -5  -1   7    4.90    0.80
  -4  -1   7  129.20    2.70
  -3  -1   7   47.00    1.90
  -2  -1   7   16.10    1.00
  -1  -1   7  147.90    3.80
   0  -1   7  148.00    3.30
   1  -1   7  157.00    3.70
   2  -1   7   17.20    1.40
   3  -1   7   91.40    2.10
   4  -1   7   54.70    1.90
   5  -1   7    0.20    4.60
   6  -1   7   26.50    4.50
  -8  -2   7    7.20    2.20
  -7  -2   7    1.20    1.30
  -6  -2   7    1.80    0.90
  -5  -2   7   17.10    1.20
  -4  -2   7    8.30    0.80
  -3  -2   7   18.40    1.20
  -2  -2   7    9.30    0.90
  -1  -2   7   44.40    1.60
   0  -2   7    6.60    0.80
   1  -2   7    0.80    0.50
   2  -2   7   10.60    1.30
   3  -2   7   51.40    2.10
   4  -2   7   85.20    2.60
   6  -2   7   26.70    2.20
  -9  -3   7   22.40    1.80
  -8  -3   7    9.60    2.50
  -6  -3   7   40.20    1.40
  -5  -3   7   34.10    1.40
  -4  -3   7   64.50    1.70
  -3  -3   7   52.80    1.70
  -2  -3   7   76.30    2.40
  -1  -3   7   16.40    1.40
   0  -3   7   78.80    2.80
   1  -3   7   92.20    2.70
   2  -3   7   28.50    1.60
   3  -3   7   30.30    1.80
   4  -3   7   45.80    1.80
   5  -3   7  171.70    4.20
   6  -3   7   42.30    6.00
  -8  -4   7   10.30    2.40
  -7  -4   7    0.60    1.40
  -6  -4   7    0.30    0.80
  -5  -4   7   15.70    2.40
  -4  -4   7    1.00    0.80
  -3  -4   7    3.10    0.80
  -2  -4   7   23.10    1.50
  -1  -4   7    0.20    0.70
   0  -4   7   11.00    1.00
   1  -4   7   22.10    1.50
   2  -4   7    1.00    0.90
   3  -4   7   39.50    3.70
   4  -4   7    1.30    4.40
   5  -4   7    4.00    2.90
  -8  -5   7   14.50    3.60
  -7  -5   7    9.00    1.40
  -6  -5   7   20.70    1.30
  -5  -5   7   40.10    1.80
  -4  -5   7   16.40    1.60
  -3  -5   7    4.60    1.00
  -2  -5   7   60.00    1.90
  -1  -5   7    4.30    0.90
   0  -5   7   60.10    2.70
   1  -5   7   61.30    1.60
   2  -5   7  106.90    2.60
   3  -5   7   40.70    2.80
   4  -5   7   37.10    2.90
   5  -5   7  136.90    8.60
  -5  -6   7    3.50    1.30
  -4  -6   7   14.80    1.40
  -3  -6   7   32.20    1.70
  -2  -6   7   -0.10    2.30
  -1  -6   7    7.50    1.50
   0  -6   7    1.00    1.00
   1  -6   7   50.40    2.90
   2  -6   7    8.60    2.70
   3  -6   7   17.90    1.80
   4  -6   7    5.90    2.20
  -6  -7   7    2.20    1.50
  -5  -7   7   52.90    1.80
  -4  -7   7   55.40    1.80
  -3  -7   7   17.50    1.20
  -2  -7   7    8.60    1.00
  -1  -7   7   20.70    1.20
   0  -7   7   14.90    1.30
   1  -7   7    2.10    2.20
   2  -7   7   24.30    3.50
   3  -7   7   19.10    3.10
   4  -7   7   53.60    3.80
   5  -7   7   72.50    9.80
  -2  -8   7    0.20    1.30
  -1  -8   7   13.50    2.40
   0  -8   7    8.00    1.80
   2  -8   7    0.60    2.50
  -4   6   8   27.90    2.80
  -3   6   8   27.60    2.40
  -2   6   8   20.70    2.00
  -1   6   8   29.60    1.90
   0   6   8   25.30    2.70
   1   6   8    5.20    1.60
  -3   5   8    1.50    1.10
  -2   5   8   -0.10    2.30
  -1   5   8   20.60    1.80
   0   5   8   -0.20    1.10
   1   5   8   12.80    1.90
  -5   4   8   20.60    2.60
  -4   4   8    9.50    1.40
  -3   4   8    5.40    1.20
  -2   4   8   35.10    2.30
  -1   4   8   58.00    2.20
   0   4   8   47.40    2.20
   1   4   8    6.60    1.30
   2   4   8  145.40    2.90
   3   4   8   42.10    2.20
   4   4   8   10.80    1.40
   5   4   8   17.80    1.40
  -7   3   8   11.60    2.80
  -4   3   8   25.40    1.80
  -3   3   8   59.80    2.50
  -2   3   8    2.80    1.10
  -1   3   8    8.20    1.20
   0   3   8    5.70    1.20
   1   3   8   29.50    2.20
   2   3   8    0.70    0.90
   3   3   8   38.00    2.90
   4   3   8   -1.00    5.00
   5   3   8   43.90    3.10
  -6   2   8    8.90    1.60
  -5   2   8   44.80    2.20
  -4   2   8   80.60    2.60
  -2   2   8   11.80    2.10
  -1   2   8   27.50    1.60
   0   2   8  129.60    3.20
   1   2   8   13.90    1.50
   2   2   8    2.80    1.10
   3   2   8   37.70    2.30
   4   2   8  125.70    3.80
   5   2   8   69.10    4.20
   6   2   8   29.60    3.40
  -7   1   8    1.30    0.90
  -6   1   8   20.40    2.00
  -5   1   8   10.00    1.50
  -4   1   8   37.20    1.90
  -3   1   8   -0.10    2.80
   1   1   8    2.20    1.60
   2   1   8   -0.30    1.60
   3   1   8   12.80    3.80
   4   1   8   33.90    3.10
   5   1   8    7.70    2.40
  -8   0   8   12.00    2.40
  -7   0   8   24.40    2.30
  -6   0   8   36.10    2.50
  -5   0   8    3.00    0.90
  -3   0   8    4.70    0.90
  -2   0   8   29.50    2.30
  -1   0   8    5.20    1.40
   0   0   8   97.50    3.40
   1   0   8  169.10    4.40
   2   0   8   63.40    2.80
   3   0   8  112.40    3.00
   4   0   8  110.30    3.50
   5   0   8   21.30    8.30
  -7  -1   8    2.60    2.20
  -6  -1   8   20.40    2.00
  -5  -1   8    8.50    1.10
  -4  -1   8   35.30    1.60
  -3  -1   8    0.00    3.30
  -1  -1   8   -2.30    6.80
   0  -1   8    2.10    2.00
   2  -1   8    0.40    0.80
   3  -1   8    9.70    1.50
   4  -1   8   25.70    1.90
  -6  -2   8   10.00    1.60
  -5  -2   8   42.90    1.70
  -4  -2   8   67.30    3.20
  -3  -2   8    5.60    1.10
  -2  -2   8    9.20    1.00
  -1  -2   8   30.20    1.90
   0  -2   8  103.10    2.60
   1  -2   8   11.10    1.40
   2  -2   8    1.60    0.70
   3  -2   8   31.70    2.20
   4  -2   8  112.30    5.50
   5  -2   8   99.50    4.80
   6  -2   8   27.80    3.90
  -7  -3   8    9.70    2.80
  -5  -3   8    1.10    1.50
  -4  -3   8   23.70    2.00
  -3  -3   8   51.70    1.40
  -2  -3   8    2.70    1.00
  -1  -3   8    7.20    1.40
   0  -3   8    4.40    1.10
   1  -3   8   28.80    2.50
   3  -3   8   34.00    3.00
   5  -3   8   37.80    3.20
  -6  -4   8    2.20    1.10
  -5  -4   8   21.50    2.10
  -4  -4   8    7.50    1.50
  -3  -4   8    5.70    1.10
  -2  -4   8   32.00    1.50
  -1  -4   8   58.20    2.10
   0  -4   8   45.40    2.20
   1  -4   8    4.40    1.40
   2  -4   8  140.70    3.60
   3  -4   8   36.00    2.90
   4  -4   8   12.80    2.50
   5  -4   8   14.50    3.30
  -2  -5   8    0.50    1.10
  -1  -5   8   18.10    1.90
   0  -5   8    0.50    1.20
   1  -5   8   14.60    2.10
   4  -5   8   20.20    3.30
  -4  -6   8   22.70    1.40
  -3  -6   8   23.60    1.40
  -2  -6   8   19.00    1.40
  -1  -6   8   30.70    1.80
   0  -6   8   27.90    2.40
   0   4   9    2.70    1.30
   1   4   9    8.20    2.50
   2   4   9    1.90    1.30
  -4   3   9    7.00    3.20
  -3   3   9   25.00    3.00
  -2   3   9   10.30    1.80
  -1   3   9   18.90    1.70
   0   3   9   18.50    2.40
   1   3   9   21.00    3.10
   2   3   9    8.20    9.60
  -3   2   9    1.80    1.10
  -2   2   9   32.80    2.50
   0   2   9   -0.20    2.80
   1   2   9   -1.20    1.80
   2   2   9   10.90    1.70
   3   2   9   61.80    2.60
  -5   1   9   32.00    2.40
  -4   1   9   17.70    2.50
  -3   1   9    3.40    1.30
  -2   1   9   11.50    1.40
  -1   1   9   33.50    1.70
   0   1   9   26.20    1.60
   1   1   9   -0.30    2.40
   2   1   9   20.90    1.80
   3   1   9   70.90    2.40
   4   1   9   23.40    3.10
   1   0   9    0.00    2.70
  -5  -1   9   32.50    2.20
  -4  -1   9   18.00    2.40
  -3  -1   9    0.70    1.00
  -2  -1   9    9.90    1.20
  -1  -1   9   27.50    1.80
   0  -1   9   24.80    2.20
   1  -1   9    0.60    1.30
   2  -1   9   21.30    1.50
   3  -1   9   62.20    2.80
   4  -1   9   27.70    5.60
  -3  -2   9    2.20    1.10
  -2  -2   9    7.90    2.80
   0  -2   9    0.50    3.40
   1  -2   9    0.60    1.10
   2  -2   9    9.40    2.50
   3  -2   9   49.00    3.90
   4  -2   9   42.70    9.50
  -4  -3   9    6.90    1.40
  -3  -3   9   24.50    2.00
  -2  -3   9   11.90    1.70
  -1  -3   9   30.80    2.20
   0  -3   9   13.90    1.70
   1  -3   9   11.50    1.50
   2  -3   9    9.40    3.30
   0  -4   9    1.70    1.50
   1  -4   9    9.50    2.60
   0   0   0    0.00    0.00
;
_shelx_hkl_checksum              4561
loop_
_space_group_symop_operation_xyz
'x, y, z'
'-x, y+1/2, -z+1/2'
'-x, -y, -z'
'x, -y-1/2, z-1/2'
loop_
_atom_site_label
_atom_site_type_symbol
_atom_site_fract_x
_atom_site_fract_y
_atom_site_fract_z
_atom_site_U_iso_or_equiv
_atom_site_adp_type
_atom_site_occupancy
_atom_site_site_symmetry_order
_atom_site_calc_flag
_atom_site_refinement_flags_posn
_atom_site_refinement_flags_adp
_atom_site_refinement_flags_occupancy
_atom_site_disorder_assembly
_atom_site_disorder_group
Mn1 Mn 0.5000 1.0000 0.0000 0.0120(4) Uani 1 2 d S . P . .
N1 N 0.7253(3) 0.9702(3) 0.1321(4) 0.0194(7) Uani 1 1 d . . . . .
N2 N 0.9349(3) 1.0974(3) 0.2024(4) 0.0170(6) Uani 1 1 d . . . . .
N3 N 0.9491(3) 0.9470(3) 0.2490(4) 0.0196(7) Uani 1 1 d . . . . .
H1 H 1.050(4) 0.912(4) 0.317(5) 0.023 Uiso 1 1 d . U . . .
C1 C 0.7214(3) 1.2485(3) 0.0651(4) 0.0117(7) Uani 1 1 d . . . . .
C2 C 0.7980(3) 1.1060(4) 0.1323(4) 0.0155(7) Uani 1 1 d . . . . .
C3 C 0.8250(4) 0.8732(4) 0.2067(5) 0.0233(8) Uani 1 1 d . . . . .
O1 O 0.5945(2) 1.2274(2) -0.0149(3) 0.0140(6) Uani 1 1 d . . . . .
O2 O 0.7815(2) 1.3745(2) 0.0941(3) 0.0159(6) Uani 1 1 d . . . . .
O3 O 0.4160(3) 1.0757(3) 0.2768(3) 0.0231(6) Uani 1 1 d . . . . .
H3B H 0.363(6) 1.012(4) 0.344(8) 0.028 Uiso 1 1 d . U . . .
H3A H 0.486(5) 1.124(5) 0.358(6) 0.035 Uiso 1 1 d . U . . .
H3 H 0.819(5) 0.755(5) 0.219(6) 0.045(13) Uiso 1 1 d . . . . .
loop_
_atom_site_aniso_label
_atom_site_aniso_U_11
_atom_site_aniso_U_22
_atom_site_aniso_U_33
_atom_site_aniso_U_23
_atom_site_aniso_U_13
_atom_site_aniso_U_12
Mn1 0.0112(5) 0.0061(5) 0.0175(5) 0.0010(2) -0.0091(3) -0.0035(2)
N1 0.0206(18) 0.0119(13) 0.0249(16) 0.0002(11) -0.0056(13) 0.0045(13)
N2 0.0186(16) 0.0162(14) 0.0160(13) 0.0010(10) -0.0018(10) 0.0011(12)
N3 0.0241(17) 0.0134(14) 0.0206(14) 0.0013(11) -0.0046(12) 0.0050(13)
C1 0.0133(17) 0.0116(15) 0.0099(14) -0.0014(10) -0.0012(12) 0.0005(12)
C2 0.0175(18) 0.0154(16) 0.0131(15) -0.0021(12) -0.0030(12) 0.0002(13)
C3 0.031(2) 0.0142(18) 0.0237(17) 0.0001(12) -0.0090(14) 0.0018(15)
O1 0.0136(12) 0.0088(11) 0.0186(11) 0.0013(7) -0.0069(9) -0.0013(8)
O2 0.0129(12) 0.0129(11) 0.0217(11) -0.0002(8) -0.0014(8) -0.0018(9)
O3 0.0275(14) 0.0205(13) 0.0209(12) -0.0022(10) -0.0019(10) -0.0135(10)
loop_
_atom_type_symbol
_atom_type_description
_atom_type_scat_dispersion_real
_atom_type_scat_dispersion_imag
_atom_type_scat_source
C C 0.0033 0.0016 'International Tables Vol C Tables 4.2.6.8 and 6.1.1.4'
H H 0.0000 0.0000 'International Tables Vol C Tables 4.2.6.8 and 6.1.1.4'
N N 0.0061 0.0033 'International Tables Vol C Tables 4.2.6.8 and 6.1.1.4'
O O 0.0106 0.0060 'International Tables Vol C Tables 4.2.6.8 and 6.1.1.4'
Mn Mn 0.3368 0.7283 'International Tables Vol C Tables 4.2.6.8 and 6.1.1.4'
loop_
_geom_angle_atom_site_label_1
_geom_angle_atom_site_label_2
_geom_angle_atom_site_label_3
_geom_angle
_geom_angle_site_symmetry_1
_geom_angle_site_symmetry_3
O1 Mn1 O1 180.0 . 3_675
O1 Mn1 O3 85.56(8) . .
O1 Mn1 O3 94.44(8) 3_675 .
O1 Mn1 O3 94.44(8) . 3_675
O1 Mn1 O3 85.56(8) 3_675 3_675
O3 Mn1 O3 180.0 . 3_675
O1 Mn1 N1 103.68(9) . 3_675
O1 Mn1 N1 76.32(9) 3_675 3_675
O3 Mn1 N1 87.37(10) . 3_675
O3 Mn1 N1 92.63(10) 3_675 3_675
O1 Mn1 N1 76.32(9) . .
O1 Mn1 N1 103.68(9) 3_675 .
O3 Mn1 N1 92.63(10) . .
O3 Mn1 N1 87.37(10) 3_675 .
N1 Mn1 N1 180.0 3_675 .
C3 N1 C2 103.4(3) . .
C3 N1 Mn1 146.6(2) . .
C2 N1 Mn1 109.9(2) . .
C2 N2 N3 102.5(3) . .
C3 N3 N2 110.6(3) . .
C3 N3 H1 132(2) . .
N2 N3 H1 117(2) . .
O2 C1 O1 125.7(3) . .
O2 C1 C2 119.7(3) . .
O1 C1 C2 114.5(3) . .
N2 C2 N1 113.9(3) . .
N2 C2 C1 125.5(3) . .
N1 C2 C1 120.5(3) . .
N3 C3 N1 109.6(3) . .
N3 C3 H3 121(3) . .
N1 C3 H3 129(3) . .
C1 O1 Mn1 117.99(18) . .
Mn1 O3 H3B 119(3) . .
Mn1 O3 H3A 113(2) . .
H3B O3 H3A 111(4) . .
loop_
_geom_bond_atom_site_label_1
_geom_bond_atom_site_label_2
_geom_bond_distance
_geom_bond_site_symmetry_2
Mn1 O1 2.181(2) .
Mn1 O1 2.181(2) 3_675
Mn1 O3 2.190(2) .
Mn1 O3 2.190(2) 3_675
Mn1 N1 2.226(3) 3_675
Mn1 N1 2.226(3) .
N1 C3 1.332(4) .
N1 C2 1.366(4) .
N2 C2 1.323(4) .
N2 N3 1.362(4) .
N3 C3 1.328(5) .
N3 H1 1.06(4) .
C1 O2 1.247(4) .
C1 O1 1.273(4) .
C1 C2 1.494(4) .
C3 H3 1.05(5) .
O3 H3B 0.89(5) .
O3 H3A 0.93(5) .
loop_
_geom_hbond_atom_site_label_D
_geom_hbond_atom_site_label_H
_geom_hbond_atom_site_label_A
_geom_hbond_distance_DH
_geom_hbond_distance_HA
_geom_hbond_distance_DA
_geom_hbond_angle_DHA
_geom_hbond_site_symmetry_A
C3 H3 N2 1.05(5) 2.68(5) 3.309(5) 119(3) 2_745
O3 H3A O1 0.93(5) 1.83(5) 2.729(3) 162(4) 4_586
O3 H3B O2 0.89(5) 1.85(5) 2.714(3) 161(5) 2_645
N3 H1 O2 1.06(4) 1.66(4) 2.717(4) 173(3) 2_745
