#------------------------------------------------------------------------------
#$Date: 2021-05-06 03:55:18 +0300 (Thu, 06 May 2021) $
#$Revision: 264977 $
#$URL: file:///home/coder/svn-repositories/cod/cif/1/56/23/1562369.cif $
#------------------------------------------------------------------------------
#
# This file is available in the Crystallography Open Database (COD),
# http://www.crystallography.net/
#
# All data on this site have been placed in the public domain by the
# contributors.
#
data_1562369
loop_
_publ_author_name
'Hu, Yajing'
'Yao, Yang-Rong'
'Liu, Xuechen'
'Yu, Ao'
'Xie, Xiao-Ming'
'Abella, Laura'
'Rodriguez-Fortea, Antonio'
'Poblet, Josep M.'
'Akasaka, Takeshi'
'Peng, Ping'
'Zhang, Qianyan'
'Xie, Su-Yuan'
'Li, Fang-Fang'
'Lu, Xing'
_publ_section_title
;
 Unexpected Formation of 1,2- and 1,4-Bismethoxyl Sc3N@Ih-C80 Derivatives
 via Regioselective Anion Addition: Unambiguous Structural Identification
 and Mechanism Study
;
_journal_name_full               'Chemical Science'
_journal_paper_doi               10.1039/D1SC01178B
_journal_year                    2021
_chemical_formula_moiety         'C14 H8 O2'
_chemical_formula_sum            'C14 H8 O2'
_chemical_formula_weight         208.20
_chemical_name_common            Anthraquinone
_chemical_name_systematic        9,10-Anthracenedione
_space_group_crystal_system      monoclinic
_space_group_IT_number           14
_space_group_name_Hall           '-P 2ybc'
_space_group_name_H-M_alt        'P 1 21/c 1'
_atom_sites_solution_hydrogens   geom
_audit_creation_date             2021-03-31
_audit_creation_method
;
Olex2 1.3-alpha
(compiled 2019.09.11 svn.r3662 for OlexSys, GUI svn.r5938)
;
_audit_update_record
;
2021-04-06 deposited with the CCDC.	2021-05-03 downloaded from the CCDC.
;
_cell_angle_alpha                90
_cell_angle_beta                 102.594(12)
_cell_angle_gamma                90
_cell_formula_units_Z            2
_cell_length_a                   7.8846(8)
_cell_length_b                   3.9372(5)
_cell_length_c                   15.754(2)
_cell_measurement_reflns_used    425
_cell_measurement_temperature    208
_cell_measurement_theta_max      29.2453
_cell_measurement_theta_min      3.3058
_cell_volume                     477.29(10)
_computing_cell_refinement
;
CrysAlisPro, Agilent Technologies,
Version 1.171.36.21 (release 14-08-2012 CrysAlis171 .NET)
(compiled Sep 14 2012,17:21:16)
;
_computing_data_collection
;
CrysAlisPro, Agilent Technologies,
Version 1.171.36.21 (release 14-08-2012 CrysAlis171 .NET)
(compiled Sep 14 2012,17:21:16)
;
_computing_data_reduction
;
CrysAlisPro, Agilent Technologies,
Version 1.171.36.21 (release 14-08-2012 CrysAlis171 .NET)
(compiled Sep 14 2012,17:21:16)
;
_computing_molecular_graphics    'Olex2 1.3-alpha (Dolomanov et al., 2009)'
_computing_publication_material  'Olex2 1.3-alpha (Dolomanov et al., 2009)'
_computing_structure_refinement  'ShelXL 2018/3 (Sheldrick, 2015)'
_computing_structure_solution
;
Superflip n/a (Palatinus & Chapuis, 2007;Palatinus & van der Lee, 2008;
Palatinus et al., 2012)
;
_diffrn_ambient_temperature      208
_diffrn_detector_area_resol_mean 15.9821
_diffrn_measured_fraction_theta_full 0.955
_diffrn_measured_fraction_theta_max 0.797
_diffrn_measurement_details
;
#__ type_ start__ end____ width___ exp.time_
  1 omega   -2.00   82.00   1.0000    3.0000
omega____ theta____ kappa____ phi______ frames
    -       19.6835   57.0000   60.0000 84

#__ type_ start__ end____ width___ exp.time_
  2 omega   35.00   96.00   1.0000    3.0000
omega____ theta____ kappa____ phi______ frames
    -       19.6835  178.0000  -60.0000 61

#__ type_ start__ end____ width___ exp.time_
  3 omega   -8.00   79.00   1.0000    3.0000
omega____ theta____ kappa____ phi______ frames
    -       19.6835   19.0000    0.0000 87
;
_diffrn_measurement_device_type  'Xcalibur, Eos'
_diffrn_measurement_method       '\w scans'
_diffrn_radiation_type           MoK\a
_diffrn_radiation_wavelength     0.71073
_diffrn_reflns_av_R_equivalents  0.0496
_diffrn_reflns_av_unetI/netI     0.0937
_diffrn_reflns_Laue_measured_fraction_full 0.955
_diffrn_reflns_Laue_measured_fraction_max 0.797
_diffrn_reflns_limit_h_max       5
_diffrn_reflns_limit_h_min       -10
_diffrn_reflns_limit_k_max       5
_diffrn_reflns_limit_k_min       -4
_diffrn_reflns_limit_l_max       20
_diffrn_reflns_limit_l_min       -20
_diffrn_reflns_number            2138
_diffrn_reflns_point_group_measured_fraction_full 0.955
_diffrn_reflns_point_group_measured_fraction_max 0.797
_diffrn_reflns_theta_full        25.242
_diffrn_reflns_theta_max         29.310
_diffrn_reflns_theta_min         3.312
_exptl_absorpt_coefficient_mu    0.097
_exptl_absorpt_correction_T_max  1.00000
_exptl_absorpt_correction_T_min  0.61223
_exptl_absorpt_correction_type   multi-scan
_exptl_absorpt_process_details
;
CrysAlisPro, Agilent Technologies,
Version 1.171.36.21 (release 14-08-2012 CrysAlis171 .NET)
(compiled Sep 14 2012,17:21:16)
Empirical absorption correction using spherical harmonics,
 implemented in SCALE3 ABSPACK scaling algorithm.
;
_exptl_crystal_colour            yellow
_exptl_crystal_colour_primary    yellow
_exptl_crystal_density_diffrn    1.449
_exptl_crystal_description       block
_exptl_crystal_F_000             216
_exptl_crystal_size_max          0.62
_exptl_crystal_size_mid          0.26
_exptl_crystal_size_min          0.16
_refine_diff_density_max         0.181
_refine_diff_density_min         -0.154
_refine_diff_density_rms         0.044
_refine_ls_extinction_method     none
_refine_ls_goodness_of_fit_ref   0.890
_refine_ls_hydrogen_treatment    constr
_refine_ls_matrix_type           full
_refine_ls_number_parameters     73
_refine_ls_number_reflns         1046
_refine_ls_number_restraints     0
_refine_ls_restrained_S_all      0.890
_refine_ls_R_factor_all          0.1259
_refine_ls_R_factor_gt           0.0554
_refine_ls_shift/su_max          0.000
_refine_ls_shift/su_mean         0.000
_refine_ls_structure_factor_coef Fsqd
_refine_ls_weighting_details
'w=1/[\s^2^(Fo^2^)+(0.0391P)^2^] where P=(Fo^2^+2Fc^2^)/3'
_refine_ls_weighting_scheme      calc
_refine_ls_wR_factor_gt          0.0911
_refine_ls_wR_factor_ref         0.1103
_reflns_Friedel_coverage         0.000
_reflns_number_gt                532
_reflns_number_total             1046
_reflns_threshold_expression     'I > 2\s(I)'
_cod_data_source_file            d1sc01178b2.cif
_cod_data_source_block           anthraquinone-208k
_cod_original_cell_volume        477.29(11)
_cod_database_code               1562369
_shelx_shelxl_version_number     2018/3
_shelx_space_group_comment
;
The symmetry employed for this shelxl refinement is uniquely defined
by the following loop, which should always be used as a source of
symmetry information in preference to the above space-group names.
They are only intended as comments.
;
_shelx_estimated_absorpt_t_max   0.985
_shelx_estimated_absorpt_t_min   0.942
_olex2_refinement_description
;
1. Fixed Uiso
 At 1.2 times of:
  All C(H) groups
2.a Aromatic/amide H refined with riding coordinates:
 C5(H5), C3(H3), C6(H6), C4(H4)
;
_shelx_res_file
;
TITL CF solution in P21/c
    anthraquinone-208k.res
    created by SHELXL-2018/3 at 17:35:23 on 31-Mar-2021
CELL 0.71073 7.8846 3.93723 15.75405 90 102.5945 90
ZERR 2 0.00078 0.00051 0.00229 0 0.0122 0
LATT 1
SYMM -X,0.5+Y,0.5-Z
SFAC C H O
UNIT 28 16 4

L.S. 4
PLAN  5
SIZE 0.62 0.26 0.16
CONF
BOND
MORE -1
BOND $H
fmap 2
acta
REM <olex2.extras>
REM <HklSrc "%.\\Anthraquinone-208K.hkl">
REM </olex2.extras>

WGHT    0.039100
FVAR      13.13464
C2    1    0.435252    0.654460    0.415032    11.00000    0.02772    0.02592 =
         0.02842   -0.00308    0.00483   -0.00340
C7    1    0.325796    0.639662    0.474030    11.00000    0.02666    0.02674 =
         0.03075   -0.00346    0.00572   -0.00238
C1    1    0.615108    0.513694    0.438290    11.00000    0.03049    0.03657 =
         0.03123   -0.00317    0.00968   -0.00306
C5    1    0.100234    0.915483    0.369088    11.00000    0.03263    0.03762 =
         0.04699   -0.00388    0.00155    0.00311
AFIX  43
H5    2   -0.011451    1.005054    0.354099    11.00000   -1.20000
AFIX   0
O1    3    0.710393    0.522743    0.386416    11.00000    0.03921    0.08307 =
         0.04182    0.01079    0.02192    0.00997
C3    1    0.374956    0.799108    0.333516    11.00000    0.03911    0.03873 =
         0.02920   -0.00206    0.00688   -0.00135
AFIX  43
H3    2    0.447519    0.809604    0.294299    11.00000   -1.20000
AFIX   0
C6    1    0.158081    0.771031    0.449894    11.00000    0.02924    0.03760 =
         0.04420   -0.00178    0.01067    0.00010
AFIX  43
H6    2    0.084548    0.761137    0.488653    11.00000   -1.20000
AFIX   0
C4    1    0.206721    0.928475    0.310089    11.00000    0.04721    0.03616 =
         0.03385    0.00103   -0.00132    0.00291
AFIX  43
H4    2    0.166425    1.022705    0.255265    11.00000   -1.20000
AFIX   0
HKLF 4




REM  CF solution in P21/c
REM wR2 = 0.1103, GooF = S = 0.890, Restrained GooF = 0.890 for all data
REM R1 = 0.0554 for 532 Fo > 4sig(Fo) and 0.1259 for all 1046 data
REM 73 parameters refined using 0 restraints

END

WGHT      0.0391      0.0000

REM Highest difference peak  0.181,  deepest hole -0.154,  1-sigma level  0.044
Q1    1   0.7350  0.8594  0.3595  11.00000  0.05    0.18
Q2    1   0.1919  1.1363  0.2164  11.00000  0.05    0.16
Q3    1   0.3320  0.4603  0.2609  11.00000  0.05    0.16
Q4    1   0.3990  0.6611  0.4550  11.00000  0.05    0.16
Q5    1   0.3620  1.0549  0.5177  11.00000  0.05    0.15
;
_shelx_res_checksum              62679
_shelx_hkl_file
;
   0   0   3-341.240 431.896   1
   0   0  -3-150.260 494.310   1
   0   0  -4 198241. 3331.65   1
   0   0   4 195664. 3200.26   1
   0   0  -5 297.866 800.713   1
   0   0   5 831.516 584.109   1
   0   0  -6 381.975 867.562   1
   0   0   6 831.507 562.822   1
   0   0  -7 795.417 968.650   1
   0   0  -8 15738.0 1786.28   1
   0   0  -9 29.1585 1100.20   1
   0   0 -10 1247.03 1346.85   1
   0   0 -11 1193.34 1493.33   1
   0   0 -12 3028.99 1742.63   1
   0   0 -13 179.232 1693.50   1
   0   0 -14 6508.36 2034.52   1
   0   0 -15 892.332 1784.91   1
   0   0 -16 3675.17 2054.79   1
   0   0 -17-48.9688 1754.05   1
   0   0 -18 740.502 2009.93   1
   0   1   0 68.8455 480.721   2
   0   1   1 163039. 2711.32   2
   0   1  -1 164638. 2640.12   1
   0  -1  -1 155603. 2796.77   2
   0   1   2 572577. 5396.89   2
   0  -1   2 577327. 5293.90   1
   0  -1  -2 567218. 5485.57   2
   0   1  -2 571852. 5298.00   1
   0   1   3 184719. 3465.21   2
   0   1  -3 173482. 3289.22   1
   0  -1  -3 177397. 3248.62   2
   0  -1   3 177661. 3172.57   1
   0   1   4 28187.7 1555.84   2
   0   1  -4 26388.5 1554.25   1
   0  -1   4 26940.3 1362.48   1
   0  -1  -4 23728.1 1567.97   2
   0   1   5 151501. 3374.91   1
   0  -1  -5 151802. 3613.69   2
   0   1  -5 145518. 3654.14   1
   0  -1   5 148200. 3329.14   1
   0   1   6 45863.6 2081.90   1
   0   1  -6 41583.5 2251.47   1
   0  -1  -6 46001.6 2344.28   2
   0   1  -7 23607.5 1943.58   1
   0  -1  -7 26430.9 1992.27   2
   0  -1  -8 20069.6 1855.53   2
   0   1  -8 15439.7 1776.64   1
   0  -1  -9 9595.13 1583.30   2
   0   1  -9 7029.58 1490.22   1
   0  -1 -10 6906.55 1627.48   2
   0   1 -10 637.112 1414.94   1
   0   1 -11-306.603 1458.94   1
   0  -1 -11 6889.53 1712.59   2
   0  -1 -12 10013.4 1875.45   2
   0   1 -12 2886.54 1738.78   1
   0  -1 -13 8991.94 1850.07   2
   0   1 -13 693.394 1652.99   1
   0  -1 -14 8103.26 1894.81   2
   0   1 -14 1195.58 1743.76   1
   0   1 -15 2748.53 1867.36   1
   0  -1 -15 7352.52 2015.27   2
   0   1 -16 858.486 1778.18   1
   0  -1 -16 5078.77 1903.69   2
   0  -1 -17 4867.45 1993.32   2
   0   1 -17 610.601 1788.73   1
   0  -1 -18 5512.01 2125.21   2
   0   1 -18 1521.30 1920.99   1
   0  -1 -19 4161.19 2176.76   2
   0   1 -19 1346.54 2193.17   1
   0  -1 -20 4513.18 2346.05   2
   0   2  -1 18633.0 1285.96   1
   0   2   1 15774.3 695.808   3
   0   2   2 4818.10 513.332   3
   0   2  -2 5553.69 825.124   1
   0  -2  -2 4068.80 839.228   2
   0   2  -3 34198.0 1844.52   1
   0  -2  -3 32030.4 1972.58   2
   0  -2  -4 28346.3 1897.38   2
   0   2  -4 27937.9 1862.25   1
   0  -2   4 26849.2 928.288   3
   0  -2  -5 66446.9 2826.92   2
   0   2  -5 63634.5 2849.23   1
   0   2  -6 8425.01 1353.62   1
   0  -2  -6 9518.68 1273.11   2
   0   2  -7 7151.19 1404.27   1
   0  -2  -7 8368.21 1296.55   2
   0  -2  -8 10930.5 1499.46   2
   0   2  -8 8362.30 1658.71   1
   0  -2  -9 4472.73 1254.13   2
   0   2  -9 1181.19 1273.10   1
   0  -2 -10 4329.89 1465.85   2
   0   2 -10 8186.37 1875.55   1
   0   2 -11-14.7365 1495.82   1
   0  -2 -11-1751.92 1663.99   2
   0  -2 -12 2550.99 1612.01   2
   0   2 -12 3688.56 1752.56   1
   0  -2 -13 4533.27 1849.14   2
   0   2 -13 6721.07 2021.22   1
   0   2 -14 839.645 1717.80   1
   0  -2 -14-1722.63 1871.18   2
   0   2 -15 8086.66 2330.11   1
   0  -2 -15 6471.72 2091.31   2
   0   2 -16 8917.59 2538.27   1
   0  -2 -16 9525.04 2323.11   2
   0  -2 -17-2706.52 2148.07   2
   0   2 -17 1200.94 1872.04   1
   0  -2 -18-2029.12 2213.78   2
   0  -2 -19-4061.67 2343.69   2
   0   3   0-137.541 505.025   1
   0   3   1 143.475 90.1177   3
   0   3  -1 679.553 570.754   1
   0   3   1 38.7783 475.988   1
   0   3   2 9284.70 652.420   3
   0   3  -2 12627.8 1419.03   1
   0   3   3 6964.57 685.315   3
   0   3  -3 8938.48 1276.06   1
   0   3   4 823.384 376.703   3
   0  -3  -4 579.811 801.406   2
   0   3  -4 4.63798 1031.08   1
   0   3  -5 809.794 959.575   1
   0   3   5 841.114 406.095   3
   0  -3  -5 343.725 791.590   2
   0  -3  -6 984.006 908.105   2
   0   3  -6 2213.15 1139.98   1
   0   3   6 1953.78 538.310   3
   0  -3  -7-1147.56 1078.14   2
   0   3  -7 51.4192 1037.11   1
   0  -3  -8 1162.08 1006.51   2
   0   3  -8 2779.56 1353.23   1
   0  -3  -9 3503.90 1239.11   2
   0   3  -9 5082.65 1571.88   1
   0  -3 -10 719.898 995.687   2
   0   3 -10 2831.77 1514.74   1
   0  -3 -11 2910.63 1275.35   2
   0   3 -11 3831.57 1659.53   1
   0   3 -12 2917.60 1811.94   1
   0  -3 -12 2784.16 1256.58   2
   0  -3 -13 211.771 1007.30   2
   0   3 -13 351.262 1613.21   1
   0   3 -14 137.814 1758.56   1
   0  -3 -14 1755.54 1255.97   2
   0   3 -15-163.316 1769.34   1
   0  -3 -15 1410.96 1278.15   2
   0  -3 -16 5350.17 1765.17   2
   0   4   0-35.9142 513.334   1
   0   4   1 1073.86 723.155   1
   0   4  -1 675.183 679.445   1
   0   4  -2-158.839 816.641   1
   0   4  -3-269.164 989.263   1
   0   4  -4-194.951 982.051   1
   0   4  -5 32.7893 976.786   1
   0   4  -6 473.228 1061.14   1
   0  -4  -7-283.805 952.728   2
   0   4  -7 659.127 1123.58   1
   0  -4  -8 990.712 993.427   2
   0   4  -8 3798.55 1570.63   1
   0   4  -9 426.207 1357.55   1
   0  -4  -9-15.8604 943.517   2
   0  -4 -10 1852.60 1155.13   2
   0   4 -10 6138.50 2016.34   1
   0   4 -11 3461.81 1855.32   1
   0  -4 -11 2468.34 1275.01   2
   0  -4 -12-542.906 1162.24   2
   0   4 -12-977.175 1866.20   1
   1   0 -15 838.861 1723.43   1
   1   0 -14 3885.88 1943.52   1
   1   0 -13 584.977 1765.09   1
   1   0 -12 43742.1 3299.36   1
   1   0 -11 245.053 1489.91   1
   1   0 -10-40.8366 1273.94   1
   1   0  -9 328.518 1237.37   1
   1   0  -8 17399.4 1900.26   1
   1   0  -7 690.639 1141.66   1
  -1   0   6 89892.7 2779.93   1
   1   0  -6 90330.5 2996.32   1
   1   0  -5-136.427 859.759   1
  -1   0   5 462.791 661.798   1
   1   0  -4 80969.1 2494.20   1
  -1   0   4 85148.7 2331.34   1
  -1   0   3-1.02564 230.912   3
  -1   0   3 52.2322 577.596   1
   1   0  -2 276240. 2941.14   3
  -1   0  -2 12044.3 661.449   1
   1   0   2 11575.9 633.713   1
   1   0   3 806.025 383.214   1
  -1   0  -3-350.668 610.752   1
   1   0   4 30257.9 1285.10   1
  -1   0  -4 32749.8 1487.71   1
   1   0   5-260.208 477.316   1
  -1   0  -5 782.678 745.249   1
   1   0   6 316765. 4868.47   1
  -1   0  -6 317643. 5346.20   1
  -1   0  -7-368.057 971.048   1
  -1   0  -8 195542. 4913.90   1
  -1   0  -9 65.2882 1126.26   1
  -1   0 -10 10745.2 1807.48   1
  -1   0 -11 257.420 1439.17   1
  -1   0 -12 7509.00 1978.25   1
  -1   0 -13 889.898 1701.13   1
  -1   0 -14 3490.27 1790.10   1
  -1   0 -15 926.146 1726.44   1
  -1   0 -16 9094.75 2373.95   1
  -1   0 -17-19.1489 1840.93   1
  -1   0 -18 1090.21 2031.50   1
  -1   0 -19-479.271 1920.98   1
   1  -1 -20 4662.27 2272.34   2
   1  -1 -19 8030.67 2288.39   2
   1   1 -19 5142.82 2523.39   1
   1  -1 -18 3109.88 1896.35   2
   1   1 -18 643.377 1902.59   1
   1  -1 -17 4736.04 1945.61   2
   1   1 -17 1872.52 2028.95   1
   1   1 -16 1368.00 1796.18   1
   1  -1 -16 6359.54 1958.08   2
   1  -1 -15 43220.7 3188.41   2
   1   1 -15 40237.8 3753.76   1
   1   1 -14 29638.3 3142.45   1
   1  -1 -14 35798.4 2771.01   2
   1   1 -13 4225.06 1961.78   1
   1  -1 -13 8640.60 1812.46   2
   1   1 -12 3723.68 1830.09   1
   1  -1 -12 7896.87 1804.44   2
   1  -1 -11 9585.07 1717.58   2
   1   1 -11 5852.45 1767.18   1
   1   1 -10 699.346 1452.72   1
   1  -1 -10 3080.06 1326.94   2
   1  -1  -9 6891.76 1354.42   2
   1   1  -9 4393.06 1398.01   1
   1  -1  -8 8567.10 1328.66   2
   1   1  -8 6532.51 1430.32   1
   1  -1  -7 2143.05 986.195   2
   1   1  -7 2252.72 1110.35   1
   1   1  -6 15707.5 1501.77   1
   1  -1  -6 15903.0 1386.00   2
   1   1  -5-36.1105 802.233   1
   1  -1  -5-371.706 645.608   2
  -1  -1   5 43.5497 446.080   1
  -1  -1   4 5459.49 719.904   1
   1  -1  -4 5936.99 713.861   2
  -1   1   4 4824.53 830.456   2
   1   1  -4 4692.91 872.883   1
  -1   1   3 75835.6 1899.47   2
  -1  -1   3 76764.7 1965.93   1
  -1   1   3 76366.3 1982.73   3
   1  -1  -3 76676.6 1927.21   2
  -1  -1   3 77202.1 1478.51   3
   1   1  -3 74607.3 2080.16   1
  -1  -1   2 947.659 215.963   3
  -1   1   2 468.630 316.961   3
   1  -1  -2 9.14083 368.932   2
   1   1  -2 595.678 589.465   2
  -1  -1   2-81.9499 369.876   1
  -1   1   2 729.684 421.433   2
   1  -1  -1 1527.78 361.671   3
  -1   1   1 2194.81 558.954   2
   1   1  -1 930.876 409.845   1
  -1   1   1 1640.02 365.862   3
  -1  -1   1 1250.66 332.445   1
   1   1  -1 450.006 514.541   2
   1   1  -1 1508.12 226.340   3
  -1  -1   1 999.523 465.121   2
   1   1   0 427944. 2596.18   1
   1   1   0 426390. 4569.88   2
   1  -1   0 430210. 3672.59   3
  -1  -1   0 439073. 4746.63   2
  -1   1   0 431000. 3736.38   3
   1   1   1 998852. 7611.78   2
   1  -1   1 987918. 5752.40   3
  -1  -1  -1 996909. 7522.66   2
  -1   1  -1 999999. 5933.10   3
   1  -1   2 103829. 2113.86   3
  -1   1  -2 95320.2 2550.11   1
  -1  -1  -2 99214.1 2606.42   2
   1   1   2 96478.9 2666.47   2
   1   1   2 95416.2 1410.81   1
   1   1   3 29485.7 1633.63   2
  -1   1  -3 24616.2 1477.80   1
  -1  -1  -3 27595.0 1687.64   2
   1  -1   3 27090.7 1448.05   1
   1   1   3 27710.8 965.946   1
   1   1   4 957.162 444.227   1
  -1  -1  -4 365.761 926.818   2
  -1   1  -4 1624.59 651.615   1
   1   1   5 118933. 2544.77   1
  -1   1  -5 115179. 3435.78   1
  -1  -1  -6 27465.7 2028.34   2
   1   1   6 27493.3 1439.62   1
  -1   1  -6 25244.2 1883.87   1
   1   1   7 19355.8 1340.07   1
  -1  -1  -7 19003.8 1867.66   2
  -1   1  -7 16533.2 1716.93   1
  -1  -1  -7 16821.2 1548.19   1
  -1   1  -8 24775.3 2118.86   1
  -1  -1  -8 22751.7 2043.95   2
  -1  -1  -8 22740.1 1861.52   1
  -1   1  -9 7094.84 1556.46   1
  -1  -1  -9 9220.04 1747.90   2
  -1  -1  -9 3855.24 1315.02   1
  -1   1 -10 26264.4 2514.02   1
  -1  -1 -10 22446.8 2219.84   1
  -1  -1 -10 25342.6 2392.08   2
  -1   1 -11-533.310 1593.27   1
  -1  -1 -11 104.917 1382.97   1
  -1  -1 -12 7521.73 1886.61   2
  -1   1 -12-322.171 1685.52   1
  -1   1 -13 4239.07 1824.60   1
  -1  -1 -13 11692.1 2039.62   2
  -1  -1 -14 11068.4 2143.98   2
  -1   1 -14 4235.05 1929.49   1
  -1  -1 -15 8816.44 2083.30   2
  -1   1 -15 3838.02 1986.91   1
  -1   1 -16 587.373 1782.25   1
  -1  -1 -16 4786.41 2007.23   2
  -1   1 -17 546.946 1879.09   1
  -1  -1 -17 4888.18 2043.03   2
  -1  -1 -18 6590.48 2249.86   2
  -1   1 -18 1466.83 2089.18   1
  -1  -1 -19 3680.80 2205.36   2
   1  -2 -18-2521.88 2064.38   2
   1   2 -17 16846.4 3048.81   1
   1  -2 -17 10954.2 2336.34   2
   1  -2 -16 12898.7 2328.75   2
   1   2 -16 17694.1 2948.30   1
   1  -2 -15 2210.06 1606.65   2
   1   2 -15 4282.07 2028.38   1
   1   2 -14 1435.52 1770.82   1
   1  -2 -14-2681.60 1710.01   2
   1   2 -13 1256.42 1664.35   1
   1  -2 -13 657.228 1223.27   2
   1  -2 -12 3218.68 1166.82   2
   1   2 -12 1142.47 1560.98   1
   1   2 -11 1259.63 1598.75   1
   1  -2 -11 5456.34 1264.47   2
   1   2 -10 1063.88 1460.39   1
   1  -2 -10 5364.04 1197.30   2
   1   2  -9 48.8010 1363.26   1
   1  -2  -9 4603.84 1123.73   2
   1   2  -8 5294.93 1463.60   1
   1  -2  -8 8982.40 1248.95   2
   1  -2  -7 2632.71 871.011   2
   1   2  -7 3468.79 1176.49   1
  -1   2   6 15653.5 1240.78   3
   1  -2  -6 15363.8 1439.77   2
   1   2  -6 18353.3 1681.43   1
  -1  -2   5 4563.60 422.111   3
  -1   2   5 4808.98 697.183   3
   1   2  -5 5226.36 1034.49   1
  -1   2   4 20972.3 1243.25   3
   1  -2  -4 22096.3 1595.17   2
   1   2  -4 22307.8 1575.88   1
   1   2  -3 2166.51 700.724   1
  -1  -2   3 1500.16 454.177   1
   1  -2  -3 1680.75 623.059   2
  -1   2   3 2345.82 465.139   3
   1   2  -2 5497.73 788.960   1
  -1   2   2 6381.52 645.724   3
   1   2  -1 19021.3 1117.27   1
  -1   2   1 17657.7 887.790   3
  -1   2   0 395.385 278.523   3
   1  -2   0 535.644 267.460   3
   1   2   0 346.752 348.790   1
   1   2   0 43.1258 102.960   3
  -1  -2  -1 7088.33 1058.03   2
  -1   2  -1 9182.58 648.720   3
  -1   2  -1 6453.03 964.263   1
   1  -2   1 8309.29 587.627   3
   1   2   1 7463.21 710.344   1
  -1   2  -2 181553. 4430.16   1
  -1  -2  -2 171239. 4394.66   2
   1  -2   2 178801. 2538.74   3
  -1  -2  -3 206441. 4919.82   2
  -1   2  -3 210332. 4915.13   1
   1  -2   3 211295. 2994.59   3
  -1  -2  -4 89202.9 3413.98   2
   1  -2   4 93074.2 2215.99   3
  -1   2  -4 88959.1 3354.61   1
   1  -2   5 5368.67 655.954   3
  -1   2  -5 4736.34 1051.25   1
   1   2   5 3034.90 659.901   1
  -1  -2  -5 5307.47 1175.14   2
  -1  -2  -6 9406.36 1392.89   2
   1   2   6 8589.62 1044.53   1
   1  -2   6 8784.15 932.521   3
  -1   2  -6 6240.57 1266.54   1
  -1   2  -7 469.906 1034.22   1
   1   2   7 987.467 731.799   1
  -1   2  -8 500.410 1072.31   1
  -1  -2  -8 1048.83 1251.16   2
  -1   2  -9 1187.43 1306.79   1
  -1  -2  -9-2899.03 1849.33   2
  -1  -2 -10-1956.63 1881.13   2
  -1   2 -10 1394.57 1369.17   1
  -1  -2 -11-4004.73 1824.38   2
  -1   2 -11 1878.50 1417.00   1
  -1  -2 -12 3842.87 1819.17   2
  -1   2 -12 7812.22 1980.60   1
  -1   2 -13-704.107 1800.10   1
  -1  -2 -13-1336.50 1860.59   2
  -1   2 -14-1332.94 1804.59   1
  -1  -2 -14-1086.68 1849.88   2
  -1  -2 -15-1999.56 2121.71   2
  -1   2 -15-2482.52 1907.74   1
  -1  -2 -16-68.1324 1885.28   2
  -1   2 -16 778.004 1844.96   1
  -1  -2 -17-2218.44 2228.25   2
  -1   2 -17 507.836 1987.79   1
  -1  -2 -18-5351.46 2366.65   2
   1  -3 -17 1057.72 1278.78   2
   1  -3 -16 1082.79 1238.79   2
   1   3 -16 2427.57 2073.43   1
  -1   3  16 797.110 866.668   3
   1   3 -15 527.734 1789.19   1
  -1   3  15 728.788 833.794   3
   1  -3 -15 1012.51 1093.72   2
   1  -3 -14 191.225 990.999   2
   1   3 -14-434.582 1655.77   1
  -1   3  14 37.9015 626.930   3
   1   3 -13-121.818 1572.86   1
  -1   3  13 234.996 560.586   3
   1  -3 -13-582.489 1011.31   2
   1   3 -12-494.583 1568.04   1
   1  -3 -12-669.202 1048.40   2
  -1   3  12 313.160 651.722   3
  -1   3  11 7537.58 1263.87   3
   1  -3 -11 7302.55 1491.33   2
   1   3 -11 8071.44 1983.13   1
   1   3 -10 4880.08 1700.80   1
   1  -3 -10 3473.08 1190.82   2
  -1   3  10 4590.09 972.870   3
   1  -3  -9 1740.85 1006.08   2
   1   3  -9 3854.55 1579.21   1
  -1   3   9 3553.40 818.720   3
  -1   3   8 1500.91 585.869   3
   1  -3  -8 73.0201 806.690   2
   1   3  -8 2446.94 1334.94   1
  -1   3   7 2317.40 644.631   3
   1   3  -7 4754.76 1415.26   1
   1  -3  -7 2208.62 963.796   2
  -1   3   6 196.513 371.001   3
   1   3  -6 881.109 1052.33   1
   1  -3  -6-648.673 794.024   2
  -1   3   5 1160.99 459.420   3
   1   3  -5 1438.94 986.995   1
   1   3  -4 13285.1 1563.81   1
  -1   3   4 13749.7 1132.23   3
   1   3  -3 36593.3 2257.16   1
  -1   3   3 34976.7 1588.18   3
  -1   3   2 434.549 306.150   3
   1   3  -2-333.523 789.570   1
   1   3  -1 5458.02 900.806   1
  -1   3   1 4218.49 478.237   3
   1   3   0 478.502 511.100   1
  -1   3   0-216.233 632.581   1
   1   3   1 1255.82 551.138   1
  -1   3  -1 955.403 645.956   1
   1   3   2 9258.47 1047.84   1
  -1  -3  -2 7550.78 1363.37   2
  -1   3  -2 8764.59 1334.12   1
   1   3   2 7363.80 563.873   3
  -1   3  -3 2786.19 950.061   1
   1  -3   3 1516.87 233.311   3
  -1  -3  -3 1538.10 937.399   2
  -1  -3  -4 15036.6 1838.66   2
  -1   3  -4 15220.5 1796.51   1
  -1  -3  -5 9116.08 1665.80   2
  -1   3  -5 11055.1 1690.67   1
  -1   3  -6 18310.1 2137.17   1
  -1  -3  -6 18207.3 2095.51   2
  -1  -3  -7-464.629 1009.77   2
  -1   3  -7-900.441 1185.66   1
  -1  -3  -8-435.004 1027.70   2
  -1   3  -8-220.266 1119.16   1
  -1   3  -9 1740.06 1279.27   1
  -1  -3  -9 1860.65 1167.97   2
  -1  -3 -10 2810.74 1298.13   2
  -1   3 -10 2370.18 1487.09   1
  -1  -3 -11 2126.37 1212.08   2
  -1   3 -11 2377.08 1580.31   1
  -1   3 -12 2351.17 1603.42   1
  -1  -3 -12 1372.36 1197.17   2
  -1  -3 -13 2328.89 1333.33   2
  -1   3 -13 977.084 1648.45   1
  -1  -3 -14 1831.04 1326.52   2
  -1   3 -14-1250.11 1978.67   1
  -1  -3 -15 1154.98 1374.23   2
   1  -4 -14-276.468 1077.11   2
   1   4 -13 1916.63 1946.48   1
   1  -4 -13 1723.74 1216.82   2
   1   4 -12 675.534 1727.98   1
   1  -4 -12 1625.40 1110.18   2
   1  -4 -11-646.896 1074.62   2
   1   4 -11-1246.44 1752.77   1
   1   4 -10 688.012 1515.73   1
   1  -4 -10 528.865 883.179   2
   1   4  -9 1363.00 1470.95   1
   1   4  -8 1263.91 1245.12   1
   1   4  -7 1678.86 1250.75   1
   1   4  -6 803.927 1001.89   1
   1   4  -5 6994.28 1517.99   1
   1   4  -4 6202.46 1389.53   1
  -1   4   2 8919.10 1417.25   1
  -1   4   1 7576.15 1358.03   1
  -1   4   0 181.892 622.978   1
  -1   4  -1-59.3698 640.016   1
  -1   4  -2 264.101 723.460   1
  -1   4  -3 571.313 810.058   1
  -1   4  -4-406.671 989.540   1
  -1   4  -5 3085.16 1359.08   1
  -1  -4  -5 3220.39 1256.16   2
  -1  -4  -6 142.044 957.412   2
  -1   4  -6-278.747 1222.45   1
  -1   4  -7 1234.05 1311.53   1
  -1  -4  -7-262.370 1024.92   2
  -1  -4  -8-473.423 1055.59   2
  -1   4  -8 84.8504 1187.69   1
  -1  -4  -9-257.346 1010.62   2
  -1   4  -9-255.178 1238.76   1
  -1  -4 -10-2443.60 1373.32   2
  -1   4 -10 259.993 1476.53   1
  -1   4 -11 1373.32 1638.03   1
  -1  -4 -11-1803.45 1512.62   2
  -2   0   7-67.4990 415.198   3
  -2   0   6 3592.08 662.736   3
  -2   0   5 111.620 394.309   3
  -2   0   5 141.645 752.586   1
   2   0  -4 73722.3 2229.09   3
  -2   0   4 78545.7 2280.69   3
  -2   0   3 986.215 473.488   3
   2   0  -3 368.121 381.353   3
  -2   0   2 108822. 2372.75   3
   2   0  -2 113642. 2424.45   3
  -2   0   1 323.213 379.730   3
   2   0  -1 515.785 436.672   3
  -2   0   0 161176. 2942.58   3
   2   0   0 166791. 2902.90   3
  -2   0  -1 485.483 583.191   3
   2   0   1 1600.95 504.711   3
   2   0   2 83897.4 2335.94   3
  -2   0  -2 79833.1 1972.41   1
  -2   0  -3 278.273 412.530   1
  -2   0  -4 29884.0 1489.39   1
   2   0   4 31640.0 1441.69   1
  -2   0  -5 130.247 622.653   1
   2   0   5-2.46465 333.414   1
  -2   0  -6 17659.2 1487.65   1
  -2   0  -7 445.077 850.600   1
  -2   0  -8 5634.34 1177.60   1
  -2   0  -9-635.645 1319.06   1
  -2   0 -10-136.638 1261.83   1
  -2   0 -11-340.899 1459.19   1
  -2   0 -12 751.745 1474.72   1
  -2   0 -13-190.899 1449.00   1
  -2   0 -14 14653.0 2377.72   1
  -2   0 -15 1184.40 1660.32   1
  -2   0 -16 3240.35 1897.09   1
  -2   0 -17 2133.59 1834.26   1
  -2   0 -18 338.838 1862.38   1
  -2   0 -19 730.440 2069.53   1
   2   1 -18 1710.57 2027.46   1
   2   1 -17 844.620 1942.20   1
   2  -1 -17 3343.68 1821.77   2
   2  -1 -16 21411.5 2563.30   2
   2   1 -16 16516.3 2808.54   1
   2   1 -15 11056.4 2437.56   1
   2  -1 -15 14194.2 2099.65   2
   2  -1 -14 6435.34 1680.75   2
   2   1 -14 5205.39 1983.35   1
   2   1 -13 11759.7 2352.68   1
   2  -1 -13 13662.8 1957.86   2
   2   1 -12 39318.1 3291.25   1
   2  -1 -12 38318.7 2569.38   2
   2   1 -11 30641.8 2776.22   1
   2  -1 -11 25805.8 2059.40   2
   2  -1 -10 9339.00 1397.26   2
   2   1 -10 11326.2 1925.58   1
   2   1  -9 10497.6 1723.79   1
   2  -1  -9 8763.07 1268.76   2
  -2   1   8 9723.45 1136.93   3
   2   1  -8 8548.87 1543.43   1
   2  -1  -8 8280.42 1104.75   2
  -2  -1   8 9141.63 978.026   3
  -2   1   7 29708.8 1795.83   3
   2  -1  -7 28682.8 1475.88   2
   2   1  -7 29177.2 2107.13   1
  -2  -1   7 30716.1 1577.09   3
  -2   1   6 46764.9 2119.84   3
   2   1  -6 48027.2 2392.98   1
   2  -1  -6 52190.1 1697.39   2
  -2  -1   6 49405.0 1865.71   3
  -2   1   5 27398.8 1555.45   3
   2  -1  -5 25236.4 1165.95   2
  -2   1   5 26494.5 1261.83   2
  -2  -1   5 29370.0 1622.96   1
  -2  -1   5 26508.0 1305.39   3
  -2   1   4-497.852 555.715   2
   2   1  -4 832.491 721.069   1
  -2   1   4 397.206 377.597   3
  -2  -1   4 523.639 313.779   3
   2   1  -4 325.472 511.541   2
  -2  -1   4 440.594 501.028   1
   2  -1  -4 341.453 301.899   2
   2   1  -3 5271.57 544.688   3
  -2  -1   3 5145.04 672.769   1
  -2  -1   3 5206.04 546.034   3
   2   1  -3 4809.57 687.310   2
  -2   1   3 4674.68 487.317   2
   2   1  -3 5127.57 815.698   1
  -2   1   3 5464.61 702.525   3
   2  -1  -3 4908.77 671.987   3
  -2  -1   2 3054.59 502.422   1
  -2  -1   2 3595.04 470.018   3
   2   1  -2 3658.99 470.216   3
  -2   1   2 4667.75 568.682   2
   2   1  -2 3421.06 578.137   2
  -2  -1   2 2807.85 495.751   2
  -2   1   2 3645.67 587.683   3
   2  -1  -2 4106.94 582.402   3
  -2  -1   1 8638.43 682.877   3
  -2  -1   1 7879.28 500.511   1
  -2  -1   1 6492.89 741.806   2
   2   1  -1 8880.18 835.504   2
  -2   1   1 7264.08 717.492   3
   2  -1  -1 8483.11 753.791   3
   2   1  -1 7572.78 595.473   3
   2   1   0 5995.21 589.350   3
  -2   1   0 5635.89 674.700   3
   2   1   0 4834.60 837.607   2
  -2  -1   0 6632.91 810.017   2
   2  -1   0 4928.36 574.290   3
   2  -1   1 45789.4 1663.77   3
   2   1   1 46942.0 1651.78   3
  -2  -1  -1 44060.7 1887.74   2
   2   1   1 42559.6 1937.84   2
  -2   1  -1 43818.1 1731.01   3
  -2  -1  -2 4297.17 1031.12   2
   2  -1   2 6634.35 721.183   3
  -2   1  -2 5642.00 836.561   1
   2  -1   3 8504.09 875.790   3
  -2  -1  -3 7893.10 583.843   1
   2   1   3 7768.02 467.714   1
  -2   1  -3 7121.14 967.842   1
   2  -1   4 812.872 558.611   3
  -2  -1  -4 287.338 525.217   1
   2   1   4 244.937 253.807   1
  -2  -1  -4 1121.00 1253.51   2
  -2   1  -4 68.9293 595.188   1
  -2  -1  -5 43428.5 1711.83   1
   2   1   5 42812.4 1441.93   1
  -2   1  -5 42551.5 2279.03   1
  -2  -1  -5 45002.5 2608.94   2
  -2  -1  -6 953.565 772.600   1
   2   1   6 497.357 300.754   1
  -2   1  -6 197.749 883.998   1
  -2  -1  -7 31765.0 1930.85   1
  -2  -1  -7 31647.6 2408.09   2
   2   1   7 31661.1 1549.52   1
  -2   1  -7 34606.6 2360.62   1
  -2   1  -8 11850.8 1674.28   1
  -2  -1  -8 12841.7 1520.72   1
  -2  -1  -8 12167.0 1988.40   2
  -2   1  -9 33747.1 2640.73   1
  -2  -1  -9 31389.9 2291.25   1
  -2  -1  -9 32935.0 2653.80   2
  -2  -1 -10-36.1348 1291.34   1
  -2   1 -10 1286.63 1356.22   1
  -2  -1 -11 335.638 1352.33   1
  -2   1 -11 2079.21 1463.32   1
  -2   1 -12 5678.38 1821.03   1
  -2  -1 -12 9849.92 2058.03   2
  -2  -1 -12 8120.30 1856.20   1
  -2   1 -13-651.324 1595.27   1
  -2  -1 -13-107.629 1363.85   1
  -2   1 -14-249.764 1621.71   1
  -2  -1 -14 757.956 1480.70   1
  -2   1 -15-1194.10 1783.58   1
  -2  -1 -15-118.822 1562.51   1
  -2   1 -16 3794.25 1972.83   1
  -2  -1 -16 8298.83 2231.07   2
  -2   1 -17 3258.25 2000.64   1
  -2  -1 -17 7960.15 2378.96   2
  -2  -1 -18 5127.48 2309.42   2
  -2   1 -18 1366.64 2045.86   1
  -2  -2  19 1763.73 902.356   3
   2   2 -18 1359.91 2247.77   1
  -2  -2  18 1589.84 849.643   3
  -2   2  18 3577.46 1381.97   3
   2   2 -17 7777.56 2499.53   1
  -2  -2  17 5915.36 1218.88   3
  -2   2  17 7536.66 1717.36   3
  -2  -2  16 543.612 612.445   3
  -2   2  16 680.113 871.628   3
   2   2 -16 1729.24 1922.43   1
   2  -2 -16 3364.69 1277.47   2
  -2  -2  15 274.227 549.410   3
  -2   2  15 533.521 788.576   3
   2   2 -15 1805.02 1805.51   1
   2  -2 -15 3182.30 1203.39   2
  -2  -2  14 1192.33 656.761   3
  -2   2  14 1016.31 813.397   3
   2  -2 -14 2662.18 1098.18   2
   2   2 -14 691.595 1617.67   1
   2  -2 -13 2880.24 1052.60   2
   2   2 -13 857.360 1539.15   1
  -2  -2  13 522.078 517.700   3
  -2   2  13 1092.90 779.101   3
   2   2 -12 380.752 1544.01   1
  -2  -2  12-115.510 463.757   3
  -2   2  12-214.998 621.741   3
   2  -2 -12 987.275 843.037   2
   2  -2 -11 2259.22 946.763   2
  -2   2  11 1483.85 749.739   3
  -2  -2  11 1188.55 541.783   3
   2   2 -11 1234.06 1566.15   1
   2  -2 -10 5289.86 1081.99   2
   2   2 -10 5854.90 1768.30   1
  -2   2  10 4184.10 951.078   3
  -2  -2  10 4352.04 741.543   3
   2   2  -9 37036.0 2762.98   1
  -2  -2   9 36805.0 1825.25   3
   2  -2  -9 36770.2 2183.75   2
  -2   2   9 36976.9 2309.05   3
  -2  -2   8 1270.27 428.141   3
   2  -2  -8 337.924 719.482   2
  -2   2   8 1610.32 614.153   3
   2   2  -8 1573.09 1245.00   1
  -2   2   7 194.507 436.471   3
  -2  -2   7 310.020 277.659   3
   2   2  -7 331.572 1007.19   1
   2  -2  -7-799.774 807.066   2
  -2  -2   6 9095.58 744.444   3
   2  -2  -6 7297.97 1013.06   2
  -2   2   6 8331.75 998.810   3
   2   2  -6 7610.21 1317.76   1
   2  -2  -5 636.674 516.917   2
   2   2  -5 494.781 773.335   1
  -2   2   5 756.516 413.331   3
  -2  -2   5 915.880 283.584   3
   2   2  -4 24176.2 1571.88   1
  -2  -2   4 24028.2 1386.04   1
  -2  -2   4 21609.8 859.173   3
  -2   2   4 24943.6 1511.91   3
   2   2  -3 4765.28 807.581   1
  -2  -2   3 4676.64 399.850   3
  -2  -2   3 4472.92 603.463   1
  -2   2   3 5192.92 730.705   3
   2   2  -2 39016.5 1075.74   3
   2   2  -2 37585.9 1486.76   1
  -2   2   2 38991.5 1669.21   3
   2  -2  -2 37724.8 1677.64   3
  -2  -2   1 23609.5 1666.04   2
   2   2  -1 25445.5 1069.98   1
  -2   2   1 26196.0 1354.90   3
   2   2  -1 24596.0 920.546   3
   2  -2  -1 26980.7 1381.09   3
   2   2   0 15557.1 698.523   1
  -2  -2   0 16285.1 1463.34   2
   2  -2   0 17190.7 1090.34   3
   2   2   0 16618.9 861.456   3
  -2   2   0 15998.6 1073.66   3
   2  -2   1 61973.2 1971.66   3
  -2  -2  -1 59179.8 2725.60   2
  -2   2  -1 64413.8 2101.09   3
   2   2   1 61153.1 1874.37   3
  -2  -2  -2 100202. 3586.18   2
  -2   2  -2 100627. 3586.41   1
   2  -2   2 98527.3 2432.33   3
   2  -2   3 967.774 380.033   3
  -2  -2  -3 1208.07 845.666   2
  -2   2  -3 556.027 618.911   1
   2  -2   4 1638.23 479.417   3
   2   2   4 1666.48 276.322   1
  -2   2  -4 1239.09 767.607   1
  -2  -2  -4 2661.85 984.638   2
   2   2   5 350.806 265.230   1
  -2   2  -5 722.103 746.318   1
  -2   2  -6 2345.39 965.096   1
   2   2   6 1185.85 425.074   1
  -2   2  -7-487.557 1237.02   1
   2   2   7 512.612 437.321   1
  -2  -2  -7-1375.14 1580.43   2
  -2   2  -8 137.318 1248.59   1
  -2  -2  -8-1703.50 1849.45   2
  -2  -2  -9 3002.33 1722.52   2
  -2   2  -9 6339.67 1595.81   1
  -2   2 -10 21019.3 2544.00   1
  -2  -2 -10 19038.6 2661.58   2
  -2   2 -11 6540.04 1809.51   1
  -2  -2 -11 1956.47 1778.66   2
  -2  -2 -12-1818.92 1825.18   2
  -2   2 -12 1863.95 1539.65   1
  -2  -2 -13 57.2808 1785.71   2
  -2   2 -13 2517.69 1644.18   1
  -2  -2 -14 60.8488 1834.69   2
  -2   2 -14 268.086 1711.03   1
  -2  -2 -15-1639.73 2097.38   2
  -2   2 -15-1674.68 2016.62   1
  -2  -2 -16-1833.03 2173.98   2
  -2   2 -16-1159.59 1903.03   1
  -2   3  16 771.707 834.707   3
   2   3 -16 1387.02 1864.73   1
   2   3 -15 2257.96 1921.62   1
  -2   3  15 88.9984 620.099   3
  -2   3  14-61.1680 619.519   3
   2   3 -14 738.562 1671.98   1
   2  -3 -14-493.276 983.320   2
   2   3 -13 774.731 1635.33   1
   2  -3 -13-622.620 975.617   2
  -2   3  13-0.43130 520.444   3
  -2   3  12 2889.87 909.548   3
   2   3 -12 2022.91 1612.58   1
   2  -3 -12 1329.44 942.753   2
   2   3 -11 2375.46 1525.57   1
  -2   3  11 1382.91 691.962   3
   2  -3 -11 962.110 832.435   2
   2   3 -10 584.496 1301.02   1
   2  -3 -10 173.920 741.797   2
  -2   3  10-82.3320 532.839   3
   2   3  -9 350.711 1231.66   1
  -2   3   9 309.501 499.798   3
   2  -3  -9 213.504 720.884   2
   2   3  -8 165.824 1180.03   1
  -2   3   8 788.818 510.870   3
   2  -3  -8 259.913 716.753   2
  -2   3   7 1162.41 562.250   3
   2   3  -7 445.113 1056.35   1
  -2   3   6 568.099 435.314   3
   2   3  -6-173.502 1074.61   1
  -2   3   5 1740.91 586.233   3
   2   3  -5 1108.95 951.139   1
  -2   3   4 3144.73 643.377   3
   2   3  -4 4272.43 1005.13   1
  -2   3   3 17131.2 1246.84   3
   2   3  -3 20399.6 1545.60   1
  -2   3   2 19342.2 1279.81   3
   2   3  -2 21323.5 1447.48   1
   2   3  -1 5721.30 812.767   1
  -2   3   1 3864.31 632.736   3
   2   3   0 3590.33 630.311   1
  -2   3   0 3420.90 566.078   3
   2  -3   1-147.386 314.330   3
  -2   3  -1-491.707 796.565   1
   2   3   1 187.414 343.565   1
  -2  -3  -1-1339.34 923.423   2
  -2   3  -2 8059.15 1394.36   1
  -2  -3  -2 7530.69 1480.44   2
  -2  -3  -3 44795.7 3023.95   2
  -2   3  -3 45778.3 2953.78   1
  -2  -3  -4 27840.8 2529.54   2
  -2   3  -4 32950.8 2592.80   1
  -2  -3  -5 61309.1 3636.77   2
  -2   3  -5 67789.3 3724.21   1
  -2   3  -6 6388.36 1503.20   1
  -2  -3  -6 6602.96 1580.91   2
  -2  -3  -7-53.5635 991.822   2
  -2   3  -7-739.979 1290.38   1
  -2  -3  -8 385.628 1043.98   2
  -2   3  -8 66.6684 1171.73   1
  -2   3  -9 854.228 1253.10   1
  -2  -3  -9 1079.42 1212.79   2
  -2   3 -10 217.621 1224.37   1
  -2  -3 -10 1421.46 1221.38   2
  -2   3 -11 352.686 1324.61   1
  -2  -3 -11 969.283 1250.64   2
  -2   3 -12 5841.15 1966.35   1
  -2  -3 -12 6661.40 1794.14   2
  -2  -3 -13 3587.65 1593.87   2
  -2   3 -13 3591.06 1845.99   1
  -2  -3 -14 2054.28 1597.35   2
   2   4 -14-542.552 1815.91   1
   2   4 -13-166.076 1691.00   1
   2   4 -12 615.396 1531.35   1
   2   4 -11 20.4670 1428.34   1
   2   4 -10 252.299 1359.27   1
   2   4  -9-46.1095 1244.67   1
  -2   4   1 67.9057 620.670   1
  -2   4   0 164.622 738.267   1
  -2   4  -1-685.918 811.667   1
  -2   4  -2 1984.73 974.318   1
  -2   4  -3 24308.0 2550.59   1
  -2   4  -4 31945.0 2933.10   1
  -2  -4  -4 30226.4 2955.25   2
  -2   4  -5 798.077 1001.27   1
  -2  -4  -5-14.9362 1087.08   2
  -2   4  -6 14539.4 2271.85   1
  -2  -4  -6 16787.3 2386.44   2
  -2  -4  -7 14354.3 2265.54   2
  -2   4  -7 12821.1 2273.97   1
  -2   4  -8-207.272 1262.66   1
  -2  -4  -8-209.016 1107.74   2
  -2  -4  -9-1154.44 1383.41   2
  -2   4  -9 588.153 1254.88   1
  -2   4 -10 220.583 1294.74   1
  -2  -4 -10-1597.82 1587.09   2
  -2   5  -3 969.078 1176.82   1
  -2   5  -4-2550.14 1477.26   1
  -2   5  -5-567.399 1263.10   1
  -3   0  19-181.286 728.050   3
  -3   0  18 4873.97 1406.11   3
  -3   0  17 188.684 770.298   3
  -3   0  16 467.478 739.575   3
  -3   0  15-154.867 615.279   3
  -3   0  14 19909.7 2124.99   3
  -3   0  13 241.683 621.216   3
  -3   0  12 1576.26 777.144   3
  -3   0  11 7.41492 505.636   3
  -3   0  10 7918.80 1138.04   3
  -3   0   9-87.3127 448.567   3
  -3   0   8 70277.2 2912.36   3
  -3   0   7-49.8733 446.479   3
  -3   0   6 283690. 5313.78   3
  -3   0   5 723.953 649.446   3
  -3   0   4 27940.2 1588.95   3
   3   0  -3-146.611 338.666   3
  -3   0   3 23.9355 385.721   3
  -3   0   2 87045.3 2564.31   3
  -3   0   2 90046.6 1588.25   2
   3   0  -2 89938.2 2589.57   3
  -3   0   1 89.6116 430.125   3
   3   0  -1 213.658 414.689   3
   3   0   0 24448.8 1402.85   3
  -3   0   0 23995.6 1459.76   3
  -3   0  -1 74.0432 433.963   3
  -3   0  -2 308243. 4622.38   1
  -3   0  -3-170.090 481.891   1
  -3   0  -4 3096.29 691.565   1
  -3   0  -5-367.666 683.721   1
  -3   0  -6 42462.2 2209.02   1
  -3   0  -7 318.959 797.042   1
  -3   0  -8 5314.41 1240.17   1
  -3   0  -9 1175.16 1116.84   1
  -3   0 -10 1852.37 1417.74   1
  -3   0 -11-723.549 1436.56   1
  -3   0 -12 1715.05 1370.34   1
  -3   0 -13 171.973 1442.36   1
  -3   0 -14 24.6684 1482.04   1
  -3   0 -15 708.080 1621.67   1
  -3   0 -16 3672.33 1934.43   1
  -3   0 -17 211.560 1698.62   1
  -3   0 -18 1378.78 1904.53   1
  -3  -1  20 307.703 663.660   3
  -3  -1  19 491.533 782.489   3
  -3   1  19 54.3690 846.663   3
  -3  -1  18 628.455 750.049   3
  -3   1  18 1110.37 999.681   3
  -3  -1  17 2727.30 971.730   3
  -3   1  17 3200.68 1198.83   3
  -3  -1  16 1117.82 786.059   3
  -3   1  16 538.680 797.543   3
   3  -1 -15 642.157 1219.63   2
  -3  -1  15 1140.56 739.965   3
  -3   1  15 1535.33 959.211   3
   3  -1 -14 11340.7 1673.18   2
  -3  -1  14 12059.3 1604.27   3
  -3   1  14 12357.4 1794.60   3
   3  -1 -13 44544.1 2528.54   2
  -3  -1  13 46111.0 2850.02   3
  -3   1  13 47751.3 3200.05   3
   3  -1 -12 15143.1 1606.56   2
  -3  -1  12 16764.8 1672.90   3
  -3   1  12 18166.8 1942.99   3
   3   1 -11 23487.4 2647.90   1
   3  -1 -11 24210.6 1735.49   2
  -3  -1  11 24577.3 1880.12   3
  -3   1  11 26674.9 2195.81   3
   3   1 -10 2073.26 1494.41   1
  -3  -1  10 1872.25 638.142   3
  -3   1  10 1695.55 732.546   3
   3  -1 -10-216.345 855.646   2
   3  -1  -9 35789.7 1544.45   2
  -3  -1   9 31089.3 1895.67   3
  -3   1   9 30234.9 2122.80   3
   3  -1  -8 14140.0 935.989   2
  -3  -1   8 12418.3 1192.55   3
  -3   1   8 12172.0 1315.00   3
   3  -1  -7 13022.7 829.660   2
  -3   1   7 11957.8 1254.90   3
  -3  -1   7 12877.2 1144.63   3
   3   1  -6 8101.07 935.446   2
  -3   1   6 7363.25 988.149   3
  -3  -1   6 8457.88 919.134   3
  -3   1   5 995.016 565.744   2
  -3  -1   5 2181.00 744.622   1
   3   1  -5 2078.70 612.020   3
  -3   1   5 2207.50 625.571   3
   3   1  -5 1106.90 563.313   2
  -3  -1   5 3327.09 649.350   3
  -3   1   4 79967.2 2801.51   3
  -3  -1   4 79483.5 2429.25   1
   3   1  -4 81805.0 2267.53   2
  -3   1   4 80785.7 1614.31   2
  -3  -1   4 81061.0 2432.98   3
   3   1  -4 81749.4 2459.48   3
  -3  -1   3 308.234 357.505   3
  -3   1   3 152.947 445.043   3
   3   1  -3 170.944 343.254   3
  -3  -1   3 167.163 373.732   2
  -3   1   3 119.713 297.104   2
   3   1  -3 985.524 571.446   2
  -3  -1   3 202.344 570.741   1
   3   1  -2-605.147 815.582   2
  -3  -1   2-187.677 374.260   3
   3   1  -2 50.9372 288.092   3
  -3  -1   2 322.302 508.402   1
  -3  -1   2-298.985 531.781   2
  -3   1   2 49.8164 424.437   3
  -3  -1   1 65381.6 1631.18   1
  -3  -1   1 60861.0 2106.82   2
   3   1  -1 62296.2 2309.05   2
  -3  -1   1 67634.7 2277.36   3
   3   1  -1 62544.4 2037.36   3
  -3   1   1 62121.8 2341.91   3
  -3  -1   0 98452.7 2818.13   3
  -3  -1   0 98315.6 2805.19   2
   3   1   0 90468.7 2805.42   2
   3   1   0 102393. 2740.89   3
  -3   1   0 96282.9 2953.54   3
  -3  -1  -1 125168. 3430.79   2
  -3  -1  -1 119982. 1705.47   1
  -3   1  -1 129450. 3585.30   3
  -3   1  -2 6200.36 954.014   3
  -3  -1  -2 5094.62 1197.34   2
  -3  -1  -2 5485.79 434.001   1
  -3  -1  -3 1286.36 1193.79   2
  -3   1  -3 937.877 605.868   1
  -3  -1  -3 981.176 405.283   1
  -3  -1  -4 3414.33 632.930   1
  -3  -1  -4 5204.87 1433.97   2
  -3   1  -4 3697.88 864.009   1
  -3   1  -5 1984.33 787.867   1
  -3  -1  -5 3392.16 1346.61   2
  -3  -1  -5 934.847 618.979   1
  -3  -1  -6-37.1120 737.846   1
   3   1   6-152.799 348.623   1
  -3   1  -6 686.929 766.948   1
  -3  -1  -7 7627.19 1232.93   1
  -3  -1  -7 9520.46 1859.49   2
  -3   1  -7 4963.96 1244.75   1
  -3   1  -8 3267.95 1225.87   1
  -3  -1  -8 3245.10 1136.35   1
  -3  -1  -9 5014.11 1351.34   1
  -3   1  -9 4588.91 1391.40   1
  -3   1 -10 1601.24 1341.04   1
  -3  -1 -10 1534.59 1282.40   1
  -3  -1 -11 6365.99 1957.28   2
  -3   1 -11 5056.86 1629.71   1
  -3  -1 -11 3263.94 1385.16   1
  -3  -1 -12 417.177 1223.06   1
  -3  -1 -12 3518.66 1842.89   2
  -3   1 -12 1459.99 1449.80   1
  -3   1 -13-1042.58 1576.98   1
  -3  -1 -13 488.232 1320.55   1
  -3   1 -14 3522.52 1787.31   1
  -3  -1 -14 6649.16 1867.33   1
  -3   1 -15-390.300 1693.82   1
  -3  -1 -15 1225.02 1634.60   1
  -3   1 -16-149.395 1726.98   1
  -3  -1 -16 1287.20 1608.74   1
  -3   1 -17 1123.09 1908.60   1
  -3  -2  19 49.9111 678.048   3
   3   2 -18 2278.41 2172.59   1
  -3  -2  18 2008.41 891.314   3
  -3   2  18 2888.26 1256.70   3
  -3  -2  17 3.41686 562.840   3
  -3   2  17-74.6207 808.227   3
   3   2 -17 1123.60 2021.09   1
  -3  -2  16 1447.97 793.011   3
  -3   2  16 2630.82 1143.05   3
   3   2 -16 2444.61 1977.54   1
  -3  -2  15 200.562 541.089   3
  -3   2  15 271.702 703.739   3
   3   2 -15 1893.36 1856.06   1
  -3  -2  14 1018.58 603.080   3
  -3   2  14 799.229 762.682   3
   3   2 -14 923.451 1692.09   1
   3   2 -13 980.023 1593.60   1
  -3   2  13-266.854 710.925   3
  -3  -2  13 28.4188 429.968   3
   3  -2 -13 731.413 765.207   2
   3  -2 -12 14522.2 1490.59   2
   3   2 -12 16605.6 2440.02   1
  -3  -2  12 16162.9 1525.84   3
  -3   2  12 15370.7 1808.91   3
   3   2 -11 40116.8 3252.63   1
   3  -2 -11 43321.9 2374.40   2
  -3  -2  11 44389.3 2347.72   3
  -3   2  11 41511.3 2760.53   3
   3   2 -10 37443.7 2945.69   1
   3  -2 -10 34758.8 2100.55   2
  -3  -2  10 37024.4 2043.66   3
  -3   2  10 34655.4 2419.50   3
  -3  -2   9 8739.08 993.869   3
   3  -2  -9 9647.76 1178.69   2
   3   2  -9 9548.39 1759.05   1
  -3   2   9 8997.63 1265.13   3
  -3  -2   8 766.430 472.605   3
  -3   2   8 564.449 564.195   3
   3  -2  -8 468.076 543.050   2
   3   2  -8 1926.83 1298.39   1
   3   2  -7 2106.63 1179.69   1
  -3  -2   7 1157.71 437.610   3
  -3   2   7 1163.22 587.025   3
  -3  -2   6 1071.79 378.261   3
  -3   2   6 756.405 513.130   3
   3   2  -6 2203.70 1078.55   1
   3   2  -5 1269.59 968.484   1
  -3   2   5 605.854 476.869   3
  -3  -2   5 573.532 317.791   3
  -3  -2   4 624.187 311.429   3
  -3   2   4 702.414 451.626   3
   3   2  -4 763.829 348.360   3
  -3  -2   4 258.789 406.503   1
   3   2  -4 839.231 804.493   1
   3   2  -3 4463.64 853.862   1
  -3  -2   3 5145.50 599.213   1
  -3  -2   3 5007.55 596.114   3
  -3   2   3 5072.83 784.984   3
   3   2  -3 3341.84 488.474   3
  -3   2   2 49539.0 2194.50   3
  -3  -2   2 45983.4 2355.62   2
  -3  -2   2 42163.6 1302.30   1
   3   2  -1 4358.23 553.438   3
  -3   2   1 4523.68 758.704   3
  -3  -2   1 4141.94 912.267   2
   3   2   0 12918.8 962.351   3
  -3  -2   0 12021.2 1379.82   2
  -3   2   0 12232.7 1183.07   3
  -3   2  -1 1612.26 567.760   3
  -3  -2  -1 1081.56 770.124   2
   3   2   1 1782.62 517.507   3
  -3  -2  -2 11310.3 1490.96   2
  -3   2  -2 10620.7 1436.35   1
  -3   2  -3 85.1164 668.328   1
  -3  -2  -3 1532.39 1039.80   2
  -3   2  -4 1031.80 747.672   1
  -3  -2  -4 3785.96 1204.37   2
  -3  -2  -5 11764.8 1722.82   2
  -3   2  -5 7813.22 1388.18   1
  -3  -2  -6 76964.3 3876.29   2
  -3   2  -6 79104.7 3827.73   1
  -3   2  -7 35369.2 2773.13   1
  -3  -2  -7 33416.5 2943.90   2
  -3  -2  -8-1298.25 1923.90   2
  -3   2  -8-855.934 1303.82   1
  -3  -2  -9-1139.30 1879.93   2
  -3   2  -9 32.1364 1189.05   1
  -3   2 -10 7353.43 1804.91   1
  -3  -2 -10 6393.39 2067.71   2
  -3  -2 -11-692.476 1789.17   2
  -3   2 -11 549.124 1291.69   1
  -3  -2 -12-759.044 1865.97   2
  -3   2 -12 1663.69 1396.59   1
  -3  -2 -13-1492.59 2006.62   2
  -3   2 -13 1964.75 1604.59   1
  -3  -2 -14-967.569 1928.33   2
  -3   2 -14 1752.03 1675.21   1
  -3  -2 -15-592.727 2063.64   2
  -3   2 -15-391.146 1837.38   1
   3   3 -16 911.786 1986.26   1
  -3   3  16 811.424 877.109   3
  -3   3  15 3691.68 1180.75   3
   3   3 -15 3767.14 2071.46   1
  -3   3  14 465.527 625.508   3
   3   3 -14 1248.30 1647.58   1
  -3   3  13-273.566 654.940   3
   3   3 -13 1131.33 1576.41   1
  -3   3  12 1621.23 788.478   3
   3  -3 -12 1135.99 832.941   2
   3   3 -12 2212.44 1508.34   1
   3   3 -11 998.894 1348.34   1
  -3   3  11 208.052 618.565   3
   3  -3 -11-258.877 750.407   2
  -3   3  10 1803.92 753.626   3
   3   3 -10 4169.67 1489.73   1
  -3   3   9 4968.90 1020.31   3
   3   3  -9 7176.24 1576.65   1
   3   3  -8 14913.1 1860.36   1
  -3   3   8 17180.6 1709.94   3
   3   3  -7 3420.09 1176.86   1
  -3   3   7 2795.93 775.689   3
   3   3  -6 939.261 934.830   1
  -3   3   6-116.434 440.157   3
   3   3  -5 1163.55 890.193   1
  -3   3   5 918.420 522.898   3
  -3   3   4 3069.09 708.219   3
   3   3  -4 2895.03 899.412   1
  -3   3   3 1455.35 560.491   3
   3   3  -3 1636.44 766.249   1
  -3   3   2 177.029 368.330   3
  -3   3   1 242.390 398.888   3
  -3   3   0 161.291 424.504   3
  -3  -3   0-490.145 925.276   2
  -3  -3  -1 208.512 873.843   2
  -3   3  -1-149.068 912.553   1
  -3   3  -2 695.871 774.644   1
  -3  -3  -2 1079.48 932.826   2
  -3  -3  -3 27068.4 2511.39   2
  -3   3  -3 26000.1 2463.38   1
  -3  -3  -4 39439.2 3019.05   2
  -3   3  -4 37763.6 2975.56   1
  -3  -3  -5 25572.5 2561.94   2
  -3   3  -5 23509.3 2391.35   1
  -3  -3  -6 9400.25 1739.41   2
  -3   3  -6 8644.08 1625.61   1
  -3  -3  -7-20.3033 1056.22   2
  -3   3  -7-482.813 1069.28   1
  -3  -3  -8 3555.25 1419.24   2
  -3   3  -8 2949.04 1353.90   1
  -3   3  -9 72.1840 1258.69   1
  -3  -3  -9 2241.18 1391.05   2
  -3  -3 -10 4135.93 1551.36   2
  -3   3 -10 1043.99 1351.74   1
  -3   3 -11 6382.90 1920.06   1
  -3  -3 -11 8356.59 1935.76   2
  -3  -3 -12 1764.57 1419.43   2
  -3   3 -12 915.413 1491.27   1
  -3  -3 -13 5849.59 1880.36   2
  -3   4   1 210.014 737.517   1
  -3   4   0-197.950 950.378   1
  -3   4  -1 3719.99 1235.26   1
  -3   4  -2 8023.83 1637.94   1
  -3   4  -3 266.280 791.640   1
  -3  -4  -3 680.536 1128.31   2
  -3  -4  -4 12142.9 2075.00   2
  -3   4  -4 11081.8 1896.09   1
  -3  -4  -5 14961.2 2291.55   2
  -3   4  -5 16263.3 2277.87   1
  -3   4  -6 644.952 1039.70   1
  -3  -4  -6 988.915 1106.87   2
  -3   4  -7 49.6065 1141.22   1
  -3  -4  -7-774.303 1262.45   2
  -3   4  -8-750.458 1335.72   1
  -3  -4  -8-1345.14 1530.55   2
  -3   4  -9-130.465 1355.93   1
  -3   5   1-112.505 751.557   1
  -3   5   0 1010.45 885.708   1
  -3   5  -1 711.121 867.967   1
  -3   5  -2 655.702 932.680   1
  -4   0  19 251.975 768.948   3
  -4   0  18 3918.05 1257.78   3
  -4   0  17 145.723 703.460   3
  -4   0  16 4423.76 1217.00   3
  -4   0  15-42.6962 676.835   3
  -4   0  14 11569.1 1694.55   3
  -4   0  13-58.5400 586.962   3
  -4   0  12 561.480 656.399   3
  -4   0  11 69.0872 610.068   3
  -4   0  10 16411.8 1666.90   3
  -4   0   9 23.4433 525.351   3
   4   0  -8 7869.96 380.593   2
  -4   0   8 9456.79 1206.97   3
  -4   0   7 116.010 417.287   3
  -4   0   6 11412.9 1240.66   3
  -4   0   5-89.3582 366.478   3
  -4   0   4-77.5042 385.992   3
  -4   0   3 67.0090 441.405   3
  -4   0   3 1302.46 398.002   2
  -4   0   2 20433.0 1111.02   2
  -4   0   2 12842.1 1249.53   3
  -4   0   1 75.5493 483.868   3
  -4   0   0 113322. 3704.31   3
  -4   0  -1 382.755 725.869   3
  -4   0  -3-113.419 490.011   1
  -4   0  -4 845.854 525.426   1
  -4   0  -5 695.119 602.114   1
  -4   0  -6-327.211 865.576   1
  -4   0  -7-323.134 891.026   1
  -4   0  -8 55175.7 3018.18   1
  -4   0  -9 739.554 1086.64   1
  -4   0 -10 69432.7 3703.66   1
  -4   0 -11-365.283 1219.28   1
  -4   0 -12 1043.45 1331.51   1
  -4   0 -13-63.5845 1338.76   1
  -4   0 -14 530.702 1394.84   1
  -4   0 -15 112.633 1492.39   1
  -4   0 -16 1165.30 1709.91   1
  -4   0 -17 273.379 1673.71   1
  -4  -1  20 3622.78 1197.85   3
  -4  -1  19 217.976 696.004   3
  -4  -1  18 253.071 653.558   3
  -4   1  18 79.7658 731.901   3
  -4  -1  17 653.851 712.068   3
  -4   1  17 770.607 842.985   3
  -4  -1  16 862.484 729.209   3
  -4   1  16 963.083 929.072   3
  -4  -1  15 3439.16 1007.56   3
  -4   1  15 3769.27 1174.69   3
  -4  -1  14 247.243 582.968   3
  -4   1  14 196.446 695.475   3
  -4  -1  13 1897.55 831.637   3
  -4   1  13 1987.54 882.471   3
  -4  -1  12 25.2821 559.559   3
  -4   1  12-939.284 743.888   3
  -4  -1  11 254.038 513.931   3
  -4   1  11 228.521 554.389   3
   4  -1 -11 815.431 501.490   2
  -4  -1  10-166.316 551.823   3
   4  -1 -10-615.799 445.666   2
  -4   1  10-95.4168 630.348   3
  -4  -1   9 19621.9 1659.53   3
   4  -1  -9 18718.9 870.567   2
   4   1  -9 18225.4 1331.26   2
  -4   1   9 16441.8 1695.04   3
  -4  -1   8-127.691 472.307   3
  -4   1   8 155.272 492.281   3
   4   1  -8 35.8598 491.874   2
   4   1  -7 13037.1 1014.51   2
  -4  -1   7 14024.5 1326.87   3
  -4   1   7 15752.4 1573.80   3
   4   1  -6 10460.2 924.506   2
  -4  -1   6 9869.16 1083.09   3
  -4   1   6 9502.70 1214.40   3
  -4   1   5 61634.9 2803.15   3
   4   1  -5 55090.8 1964.76   2
  -4   1   5 51484.8 1349.20   2
  -4  -1   5 59535.7 2449.17   3
   4   1  -4 2516.86 746.556   2
  -4   1   4 3148.67 385.121   2
  -4  -1   4 3340.01 664.596   3
  -4   1   4 3481.31 749.391   3
  -4  -1   4 4303.12 899.172   1
  -4  -1   3 2441.34 609.229   3
   4   1  -3 3296.97 904.552   2
  -4   1   3 1815.42 584.976   3
  -4  -1   3 3087.89 775.038   1
  -4  -1   3 2570.24 545.783   2
  -4  -1   2 24447.8 1433.97   2
   4   1  -2 23968.8 1618.68   2
  -4  -1   2 22922.0 1548.45   3
  -4   1   2 22076.2 1648.32   3
  -4  -1   1 1163.65 545.066   3
  -4   1   1 949.697 551.631   3
  -4  -1   1 1892.08 696.729   2
  -4  -1   0 11440.7 1192.26   3
  -4  -1   0 13204.5 1275.89   2
  -4   1   0 11601.4 1268.27   3
  -4  -1  -1 1673.27 969.907   2
  -4   1  -1 1903.47 672.438   3
  -4  -1  -2 25144.6 1987.79   2
  -4  -1  -2 27703.3 1103.43   1
  -4   1  -2 28590.0 2077.72   3
  -4  -1  -3 78672.1 1987.64   1
  -4  -1  -3 71976.9 3216.59   2
  -4   1  -3 79487.4 3332.99   1
  -4  -1  -4 7696.61 811.888   1
  -4  -1  -4 7550.28 1672.97   2
  -4   1  -4 6372.99 1119.71   1
  -4  -1  -5 2052.53 1605.12   2
  -4   1  -5 124.166 731.489   1
  -4  -1  -5 793.351 674.117   1
  -4  -1  -6 17357.4 1433.80   1
  -4   1  -6 18596.1 1861.81   1
  -4  -1  -6 18384.6 2266.53   2
  -4  -1  -7 92491.9 3120.21   1
  -4   1  -7 93649.3 4157.48   1
  -4  -1  -7 88390.2 4196.89   2
  -4  -1  -8 38431.5 2350.01   1
  -4   1  -8 47214.1 3158.83   1
  -4  -1  -8 43927.2 3292.23   2
  -4   1  -9 5088.14 1415.15   1
  -4  -1  -9 4507.73 1225.08   1
  -4  -1 -10 1612.91 1133.43   1
  -4   1 -10 359.843 1132.22   1
  -4   1 -11 1776.92 1383.08   1
  -4  -1 -11 494.567 1148.74   1
  -4   1 -12 3396.66 1602.29   1
  -4  -1 -12 3441.55 1385.27   1
  -4  -1 -13 614.131 1206.20   1
  -4   1 -13 756.059 1360.46   1
  -4  -1 -14 4448.29 2182.85   2
  -4   1 -14-1573.19 1840.64   1
  -4  -1 -15 6539.07 2404.25   2
  -4   1 -15 576.407 1690.64   1
  -4   1 -16 201.882 1756.55   1
  -4  -2  18 1317.63 814.016   3
  -4  -2  17 480.164 706.750   3
  -4   2  17 461.270 768.281   3
  -4  -2  16 1834.43 802.785   3
  -4   2  16 2763.59 1139.82   3
  -4  -2  15 671.820 648.123   3
  -4   2  15 916.240 844.870   3
  -4  -2  14 8612.67 1342.20   3
  -4   2  14 9012.08 1632.85   3
  -4   2  13 5368.62 1252.56   3
  -4  -2  13 5369.19 1038.20   3
  -4  -2  12 10844.0 1303.27   3
  -4   2  12 10253.4 1567.46   3
  -4  -2  11 2823.89 737.802   3
  -4   2  11 2514.00 879.989   3
  -4  -2  10 7206.74 1044.41   3
  -4   2  10 6907.42 1224.00   3
  -4  -2   9 174.961 378.519   3
  -4   2   9-196.198 657.569   3
  -4  -2   8 513.915 452.377   3
  -4   2   8 483.760 593.241   3
  -4   2   7 588.418 957.163   2
  -4  -2   7 897.251 432.731   3
  -4   2   7 437.959 552.766   3
  -4  -2   6-82.5232 374.947   3
  -4   2   6 199.582 466.261   3
  -4   2   6-565.254 875.568   2
  -4   2   5 11459.2 1307.95   3
  -4  -2   5 10536.5 1021.94   3
  -4  -2   4 18049.1 1284.74   3
  -4  -2   4 17326.1 1193.20   1
  -4   2   4 16619.1 1516.80   3
  -4  -2   3 14645.8 946.465   1
  -4  -2   3 14922.7 1209.88   3
  -4   2   3 15617.7 1464.93   3
  -4   2   2 216.175 476.025   3
  -4  -2   2 693.240 239.820   1
  -4  -2   2 399.373 599.512   2
  -4   2   1 3928.13 812.678   3
  -4  -2   1 2512.61 882.605   2
  -4  -2   0 6937.91 1244.34   2
  -4   2   0 9066.33 1200.54   3
  -4   2  -1 2230.14 734.500   3
  -4  -2  -1 2400.13 976.736   2
  -4  -2  -2 3369.56 1131.60   2
  -4  -2  -3 1954.60 1108.00   2
  -4   2  -3-15.4090 801.979   1
  -4   2  -4 2103.27 946.230   1
  -4  -2  -4 6647.28 1525.36   2
  -4  -2  -5 65638.0 3546.81   2
  -4   2  -5 63539.1 3627.43   1
  -4   2  -6 12990.0 1803.74   1
  -4  -2  -6 7933.00 1881.91   2
  -4  -2  -7 175.851 1729.29   2
  -4   2  -7 3352.14 1192.13   1
  -4  -2  -8-1578.62 1823.97   2
  -4   2  -8-1094.67 1296.93   1
  -4  -2  -9 2427.42 1861.42   2
  -4   2  -9 3519.05 1465.42   1
  -4  -2 -10-2396.22 2021.12   2
  -4   2 -10-22.6561 1175.71   1
  -4  -2 -11-2073.53 2084.55   2
  -4   2 -11 724.967 1278.81   1
  -4   2 -12 2980.74 1650.34   1
  -4  -2 -12 1303.33 1877.69   2
  -4  -2 -13 2001.13 1945.71   2
  -4   2 -13 2832.59 1813.16   1
  -4  -2 -14 1238.76 2005.29   2
  -4   2 -14 5935.87 2187.24   1
   4   3 -16 3256.53 1999.18   1
  -4   3  16 1879.06 1069.65   3
   4   3 -15 1350.68 1721.07   1
  -4   3  15 1938.01 1009.76   3
  -4   3  14 244.586 699.984   3
   4   3 -14 555.154 1523.67   1
  -4   3  13 631.121 674.346   3
   4   3 -13 1265.84 1519.72   1
  -4   3  12 318.755 680.509   3
   4   3 -12 1688.45 1489.71   1
   4   3 -11 5983.85 1662.87   1
  -4   3  11 6401.09 1257.91   3
   4   3 -10 13440.3 2007.55   1
  -4   3  10 14135.0 1815.27   3
   4   3  -9 37557.4 2805.09   1
  -4   3   9 41440.1 2838.53   3
  -4   3   8 1542.63 732.245   3
   4   3  -8 1548.70 1088.11   1
   4   3  -7 5692.63 1237.05   1
  -4   3   7 6762.46 1151.92   3
  -4   3   6 3194.85 849.236   3
  -4   3   5 681.464 579.620   3
  -4   3   4-218.256 481.713   3
  -4   3   3 380.372 513.960   3
  -4   3   2 9340.53 1226.30   3
  -4   3   1 3253.34 863.423   3
  -4  -3   1 1962.13 968.693   2
  -4   3   0 593.997 566.192   3
  -4  -3   0 568.900 830.532   2
  -4  -3  -1 557.410 797.422   2
  -4   3  -1 287.275 870.171   1
  -4   3  -2 640.835 820.673   1
  -4  -3  -2 1026.28 999.458   2
  -4   3  -3 228.722 763.020   1
  -4  -3  -3-258.857 1095.29   2
  -4   3  -4 930.138 855.493   1
  -4  -3  -4 306.800 973.742   2
  -4   3  -5 493.227 907.917   1
  -4  -3  -5 771.066 1089.93   2
  -4  -3  -6 2378.79 1340.97   2
  -4   3  -6 3103.31 1213.00   1
  -4  -3  -7-33.2539 1090.91   2
  -4   3  -7 396.892 991.598   1
  -4   3  -8 84.8576 1220.74   1
  -4  -3  -8 2641.08 1373.17   2
  -4   3  -9-1124.64 1419.37   1
  -4  -3  -9 1628.63 1403.73   2
  -4   3 -10 144.485 1317.25   1
  -4  -3 -10 1056.55 1345.92   2
  -4   3 -11 3444.90 1738.52   1
  -4  -3 -11 5776.06 1848.03   2
  -4   4   1 121.049 782.473   1
  -4   4   0 485.963 771.460   1
  -4   4  -1-1267.53 937.949   1
  -4   4  -2 915.162 864.831   1
  -4  -4  -2-469.769 1098.98   2
  -4   4  -3 1317.19 993.678   1
  -4  -4  -3 1053.43 1044.54   2
  -4   4  -4 321.441 916.579   1
  -4  -4  -4 704.144 997.724   2
  -4  -4  -5-635.000 1081.07   2
  -4   4  -5 257.317 826.071   1
  -4   4  -6 843.431 1017.38   1
  -4  -4  -6-659.629 1121.26   2
  -5   0  19 500.912 824.881   3
  -5   0  18 61.4188 714.721   3
  -5   0  17-331.929 805.722   3
  -5   0  16 5538.93 1358.77   3
  -5   0  15 95.7479 640.492   3
  -5   0  14 3203.56 1074.90   3
  -5   0  13 168.903 621.570   3
  -5   0  12 34281.8 2673.48   3
  -5   0  11 118.859 555.630   3
  -5   0  10 435.962 647.212   3
  -5   0   9 377.367 620.170   3
  -5   0   8 30389.8 2238.91   3
  -5   0   7 388.228 585.636   3
  -5   0   6 1239.24 628.729   3
  -5   0   5 173.159 481.800   3
  -5   0   4 14571.6 1480.67   3
  -5   0   4 15027.2 696.848   2
  -5   0   3-32.1808 487.753   3
  -5   0   3-807.750 641.974   2
  -5   0   2 519.426 518.226   3
  -5   0   2 1010.37 700.369   2
  -5   0   1-235.541 567.666   3
  -5   0   1 1537.78 887.165   2
  -5   0   0 93.8892 630.267   3
  -5   0  -1 124.542 570.532   3
  -5   0  -3-134.985 534.004   1
  -5   0  -4 7729.38 1080.11   1
  -5   0  -5 930.779 722.541   1
  -5   0  -6 1607.14 878.062   1
  -5   0  -7-638.221 1036.92   1
  -5   0  -8 146995. 5004.86   1
  -5   0  -9 35.1056 1025.50   1
  -5   0 -10 8074.59 1637.14   1
  -5   0 -11 1291.10 1151.35   1
  -5   0 -12 4515.62 1588.75   1
  -5   0 -13-498.915 1305.21   1
  -5   0 -14-738.739 1424.23   1
  -5   0 -15-235.160 1413.01   1
  -5  -1  19 96.9060 695.815   3
  -5  -1  18 3572.08 1173.23   3
  -5   1  18 3753.40 1386.86   3
  -5  -1  17-24.9158 661.658   3
  -5   1  17-273.619 864.166   3
  -5  -1  16-20.3117 626.603   3
  -5   1  16 541.761 825.534   3
  -5  -1  15 4418.15 1143.05   3
  -5   1  15 4112.54 1265.10   3
  -5  -1  14 5211.70 1166.66   3
  -5   1  14 6118.90 1374.03   3
  -5  -1  13 19253.4 1995.59   3
  -5   1  13 20909.5 2319.89   3
  -5  -1  12 865.864 695.221   3
  -5   1  12 1078.18 732.854   3
  -5  -1  11 1546.79 720.532   3
  -5   1  11 1765.81 791.559   3
  -5  -1  10 929.771 624.283   3
  -5   1  10 746.494 682.868   3
  -5  -1   9 2161.14 717.286   3
  -5   1   9 1912.40 809.481   3
  -5  -1   8 290.232 504.525   3
  -5   1   8 202.877 577.881   3
  -5   1   7 3840.28 929.091   3
  -5  -1   7 4145.32 868.998   3
   5   1  -7 1531.44 826.014   2
   5   1  -6 2285.15 903.732   2
  -5  -1   6 2084.87 677.484   3
  -5   1   6 2100.76 758.319   3
  -5   1   5 7476.39 436.316   2
   5   1  -5 11239.6 1248.85   2
  -5  -1   5 10597.8 1243.50   3
  -5   1   5 11106.5 1353.81   3
  -5  -1   4 10404.4 985.351   2
  -5  -1   4 11992.2 1325.60   3
   5   1  -4 13534.6 1321.82   2
  -5   1   4 9366.24 1272.15   3
  -5  -1   3 2006.33 718.118   3
  -5   1   3 2479.53 798.511   3
  -5  -1   3 1360.29 573.154   2
  -5  -1   2 968.287 605.105   3
  -5   1   2 1413.47 692.537   3
  -5  -1   2 937.727 637.689   2
  -5  -1   1 2585.85 822.762   3
  -5   1   1 2052.45 728.808   3
  -5  -1   1 3264.91 826.512   2
  -5   1   0 13173.8 1549.67   3
  -5  -1   0 12332.5 1404.07   2
  -5  -1   0 13236.7 1492.91   3
  -5   1  -1 665.861 736.128   3
  -5  -1  -1-1196.08 1286.54   2
  -5  -1  -2 8611.53 1552.28   2
  -5  -1  -2 9517.55 829.425   1
  -5   1  -2 11443.4 1550.95   3
  -5  -1  -3 11976.2 940.192   1
  -5  -1  -3 10960.2 1814.24   2
  -5   1  -3 11700.1 1464.15   1
  -5   1  -4-292.097 738.899   1
  -5  -1  -4-380.039 605.267   1
  -5  -1  -4 729.873 1555.07   2
  -5  -1  -5 4359.00 1837.50   2
  -5   1  -5 2276.48 939.407   1
  -5  -1  -5 2419.23 743.703   1
  -5  -1  -6 14405.8 1340.26   1
  -5   1  -6 13379.2 1703.21   1
  -5  -1  -6 17574.7 2457.90   2
  -5  -1  -7 1102.04 816.156   1
  -5   1  -7 1482.02 923.169   1
  -5  -1  -8 1229.39 867.609   1
  -5   1  -8 933.340 1026.93   1
  -5   1  -9 5693.86 1515.76   1
  -5  -1  -9 7241.50 1359.53   1
  -5  -1 -10 24637.1 2201.75   1
  -5   1 -10 30072.3 2940.49   1
  -5  -1 -10 32318.0 3361.68   2
  -5   1 -11 18011.4 2478.22   1
  -5  -1 -11 21394.3 2994.76   2
  -5  -1 -12 8378.76 2450.52   2
  -5   1 -12 3378.92 1568.40   1
  -5  -1 -13 6834.87 2461.20   2
  -5   1 -13 3865.77 1668.21   1
  -5  -1 -14 7679.35 2668.08   2
  -5   1 -14 1876.72 1650.02   1
  -5   1 -15 3661.22 1932.05   1
  -5  -2  17 136.789 617.102   3
  -5   2  17 477.132 878.042   3
  -5  -2  16 3925.38 1086.14   3
  -5   2  16 4439.08 1340.06   3
  -5  -2  15 105.921 531.085   3
  -5   2  15 91.2620 754.706   3
  -5  -2  14 7331.78 1309.41   3
  -5   2  14 7282.86 1523.77   3
  -5  -2  13-70.4355 510.163   3
  -5   2  13 125.227 623.081   3
  -5  -2  12 3846.92 897.179   3
  -5   2  12 3962.18 1101.04   3
  -5  -2  11 117.516 429.584   3
  -5   2  11-296.253 764.962   3
  -5  -2  10 326.166 478.905   3
  -5   2  10 97.9328 620.094   3
  -5  -2   9 2204.77 686.141   3
  -5   2   9 1873.41 771.373   3
  -5  -2   8 46762.3 2446.71   3
  -5   2   8 45806.3 2933.62   3
  -5  -2   7 30729.8 2014.78   3
  -5   2   7 28148.2 2272.40   3
  -5  -2   6 13175.6 1355.41   3
  -5   2   6 11971.0 1500.73   3
  -5  -2   5 6895.41 1008.02   3
  -5   2   5 8183.19 1243.09   3
  -5   2   4 9366.40 1317.86   3
  -5  -2   4 9871.81 1004.79   1
  -5  -2   4 9452.35 1161.55   3
  -5  -2   3-87.6181 483.258   3
  -5   2   3-187.571 501.147   3
  -5  -2   3-339.897 703.109   2
  -5  -2   3 601.830 481.998   1
  -5   2   2 936.391 625.570   3
  -5  -2   2 1548.97 798.408   2
  -5  -2   2 608.954 315.618   1
  -5   2   1 329.174 560.522   3
  -5  -2   1-893.325 981.034   2
  -5   2   0 2725.35 898.503   3
  -5  -2   0 1737.76 913.231   2
  -5   2  -1 1512.20 786.888   3
  -5  -2  -1 1107.52 954.445   2
  -5  -2  -2 5407.23 1311.66   2
  -5   2  -3 6260.89 1315.99   1
  -5  -2  -3 9550.07 1579.62   2
  -5  -2  -4 20672.0 2125.16   2
  -5   2  -4 19224.4 2138.44   1
  -5   2  -5 1727.58 952.245   1
  -5  -2  -5 5155.51 1476.06   2
  -5  -2  -6 2133.50 1570.29   2
  -5   2  -6 6302.36 1414.88   1
  -5  -2  -7-406.044 1831.64   2
  -5   2  -7 2784.92 1149.56   1
  -5  -2  -8-1709.63 2008.18   2
  -5   2  -8-795.788 1197.13   1
  -5  -2  -9-423.952 1946.35   2
  -5   2  -9 1606.20 1280.05   1
  -5  -2 -10-718.646 1977.23   2
  -5   2 -10 595.766 1232.91   1
  -5   2 -11 4999.76 1730.83   1
  -5  -2 -11 1536.95 2000.75   2
  -5  -2 -12-218.279 2054.92   2
  -5   2 -12 1528.80 1561.08   1
  -5   2 -13 11874.3 2639.04   1
  -5   3  15 45.1902 714.987   3
  -5   3  14-242.549 751.616   3
  -5   3  13 2183.93 981.620   3
  -5   3  12-199.655 736.903   3
  -5   3  11 4430.26 1127.55   3
  -5   3  10 10097.9 1578.69   3
  -5   3   9 21407.6 2165.33   3
  -5   3   8 10288.8 1535.76   3
  -5   3   7 674.780 644.808   3
  -5   3   6 2436.77 816.982   3
  -5   3   5 815.682 670.705   3
  -5   3   4 925.306 693.035   3
  -5   3   3 7067.23 1267.10   3
  -5   3   2 1722.73 801.807   3
  -5   3   1 4969.38 1136.92   3
  -5  -3   1 6393.02 1360.39   2
  -5   3   0 1828.05 813.934   3
  -5  -3   0 3021.85 1126.60   2
  -5  -3  -1-265.830 990.793   2
  -5   3  -1-1589.19 1003.56   1
  -5   3  -2 1964.46 982.588   1
  -5  -3  -2 1023.77 987.238   2
  -5  -3  -3-545.850 1097.52   2
  -5   3  -3-72.0955 822.773   1
  -5  -3  -4-156.973 1028.70   2
  -5   3  -4 18.3700 810.447   1
  -5   3  -5 5018.03 1447.18   1
  -5  -3  -5 5424.16 1542.52   2
  -5   3  -6 5412.10 1468.25   1
  -5  -3  -6 4807.89 1536.75   2
  -5   3  -7 1273.62 1075.06   1
  -5  -3  -7 1272.48 1291.49   2
  -5   3  -8-1762.79 1288.94   1
  -5  -3  -8 1310.93 1314.61   2
  -5   3  -9-2391.86 1472.18   1
  -5  -3  -9 1128.11 1343.69   2
  -5   4   1 335.393 859.616   1
  -5   4   0 1093.01 977.102   1
  -5   4  -1 952.107 970.822   1
  -5  -4  -2 170.770 928.968   2
  -5   4  -2 25.1422 783.063   1
  -5   4  -3 159.621 762.825   1
  -5  -4  -3-685.286 1163.08   2
  -5   4  -4 614.926 922.078   1
  -5  -4  -4-19.6092 1013.01   2
  -6   0  18 60.1005 712.816   3
  -6   0  17 232.614 696.558   3
  -6   0  16 3035.29 1143.06   3
  -6   0  15 291.084 673.456   3
  -6   0  14 4561.63 1235.60   3
  -6   0  13 94.7617 636.310   3
  -6   0  12 39865.8 3072.85   3
  -6   0  11 36.2749 599.760   3
  -6   0  10 8424.48 1402.81   3
  -6   0   9-129.079 569.356   3
  -6   0   8 705.485 634.272   3
  -6   0   7 487.443 596.629   3
  -6   0   6 32973.1 2434.30   3
  -6   0   5 38.4915 609.370   3
  -6   0   4 160358. 2651.53   2
  -6   0   4 151549. 5127.16   3
  -6   0   3-124.837 645.378   3
  -6   0   3-743.438 735.490   2
  -6   0   2 280.160 608.554   3
  -6   0   2 870.733 849.656   2
  -6   0   1-203.035 666.067   3
  -6   0   1 1268.83 1023.76   2
  -6   0   0 533.489 746.656   3
  -6   0   0 2319.65 1231.88   2
  -6   0  -1 256.350 751.069   3
  -6   0  -2 8858.36 1185.24   1
  -6   0  -3-426.698 649.896   1
  -6   0  -4 2324.25 773.565   1
  -6   0  -5 638.348 664.899   1
  -6   0  -6-1310.95 887.218   1
  -6   0  -7-727.290 994.746   1
  -6   0  -8 430.710 876.717   1
  -6   0  -9-277.625 872.883   1
  -6   0 -10 2437.87 1238.56   1
  -6   0 -11 1596.50 1187.24   1
  -6   0 -12 446.581 1336.42   1
  -6  -1  18 1018.03 773.470   3
  -6  -1  17-5.45558 714.927   3
  -6   1  17 57.9940 772.922   3
  -6  -1  16 740.678 784.030   3
  -6   1  16 821.310 933.528   3
  -6  -1  15 608.545 740.761   3
  -6   1  15 977.427 855.849   3
  -6  -1  14 3855.45 1068.05   3
  -6   1  14 2457.77 1053.07   3
  -6  -1  13 1376.38 793.619   3
  -6   1  13 888.682 840.912   3
  -6  -1  12 1352.53 759.714   3
  -6   1  12 2173.12 986.111   3
  -6  -1  11 22826.4 2133.65   3
  -6   1  11 22689.0 2329.40   3
  -6  -1  10 1655.96 754.735   3
  -6   1  10 2087.19 919.847   3
  -6  -1   9 3152.62 891.144   3
  -6   1   9 3628.88 1007.06   3
  -6  -1   8 8521.84 1289.72   3
  -6   1   8 8455.18 1393.67   3
  -6  -1   7 69885.8 3435.07   3
  -6   1   7 70364.9 3615.28   3
  -6  -1   6 50557.7 2948.12   3
  -6   1   6 49578.9 3076.61   3
  -6  -1   5 25844.0 2132.67   3
  -6   1   5 25594.1 2236.23   3
  -6  -1   4 624.109 616.932   3
  -6   1   4 413.168 601.475   3
  -6  -1   4 516.268 510.890   2
  -6  -1   3 687.257 668.016   3
  -6   1   3 1124.96 748.313   3
  -6  -1   3 628.190 634.972   2
  -6  -1   2 13765.9 1342.13   2
  -6  -1   2 14415.9 1653.15   3
  -6   1   2 12745.6 1635.81   3
  -6  -1   1 334.345 635.713   3
  -6   1   1 847.962 695.863   3
  -6  -1   1 1970.15 843.007   2
  -6   1   0-76.9931 641.152   3
  -6  -1   0 1513.01 949.039   2
  -6   1  -1 551.663 754.353   3
  -6  -1  -1-1378.43 1373.10   2
  -6  -1  -1-1003.53 461.504   1
  -6  -1  -2 2109.88 1380.28   2
  -6  -1  -2 3538.34 660.761   1
  -6   1  -3 160.207 721.112   1
  -6  -1  -3-415.069 1439.77   2
  -6  -1  -3 964.974 490.405   1
  -6  -1  -4 3743.35 1723.87   2
  -6  -1  -4 2607.20 648.110   1
  -6   1  -4 2156.67 947.654   1
  -6  -1  -5 3068.96 1715.59   2
  -6   1  -5 2976.98 1031.10   1
  -6  -1  -5 1490.56 636.622   1
  -6   1  -6 1076.31 858.497   1
  -6  -1  -6 3424.78 1864.07   2
  -6  -1  -6 1140.68 713.597   1
  -6  -1  -7 3560.32 1976.21   2
  -6   1  -7 1731.70 981.235   1
  -6  -1  -8 12475.7 2497.61   2
  -6   1  -8 8068.06 1635.56   1
  -6   1  -9 12796.7 2068.52   1
  -6  -1  -9 12773.0 2619.60   2
  -6   1 -10 388.275 1057.69   1
  -6  -1 -10 5584.16 2374.88   2
  -6  -1 -11 5554.29 2476.16   2
  -6   1 -11-5.29034 1162.78   1
  -6  -1 -12 3876.34 2424.28   2
  -6   1 -12 1800.90 1442.45   1
  -6   1 -13 2051.05 1558.35   1
  -6   1 -14 453.488 1421.47   1
  -6  -2  16-176.118 676.808   3
  -6   2  16 658.497 830.955   3
  -6  -2  15-114.665 631.796   3
  -6   2  15 939.258 860.849   3
  -6  -2  14 1285.72 713.568   3
  -6   2  14 707.583 820.971   3
  -6  -2  13 17.1616 542.627   3
  -6   2  13 223.890 741.499   3
  -6  -2  12 1306.59 685.948   3
  -6   2  12 952.455 785.583   3
  -6  -2  11 456.270 575.034   3
  -6   2  11-334.569 696.132   3
  -6  -2  10-235.137 520.230   3
  -6   2  10 475.840 735.388   3
  -6  -2   9 25290.5 2079.73   3
  -6   2   9 25449.2 2381.23   3
  -6  -2   8 11078.9 1433.94   3
  -6   2   8 10595.3 1574.85   3
  -6  -2   7 9274.89 1316.27   3
  -6   2   7 7277.76 1326.15   3
  -6  -2   6 1975.91 763.457   3
  -6   2   6 1808.08 817.483   3
  -6   2   5 4867.46 1119.05   3
  -6  -2   5 5590.47 1067.94   3
  -6  -2   4 29.9931 521.019   3
  -6   2   4 99.8688 652.633   3
  -6  -2   3 175.977 545.784   3
  -6   2   3-71.2831 630.162   3
  -6  -2   3-293.161 747.905   2
  -6  -2   2 3810.84 1041.62   2
  -6   2   2 4515.73 1149.30   3
  -6   2   1 1756.93 886.734   3
  -6  -2   1 435.252 841.058   2
  -6   2   0 5073.20 1212.34   3
  -6  -2   0 4093.77 1122.90   2
  -6   2  -1 1685.49 897.949   3
  -6  -2  -1 1513.75 951.926   2
  -6   2  -2 1058.66 845.389   1
  -6  -2  -2 2209.97 1088.65   2
  -6   2  -3 282.352 771.135   1
  -6  -2  -3 2410.65 1137.50   2
  -6   2  -4-58.2486 760.128   1
  -6  -2  -4 2655.17 1228.35   2
  -6   2  -5 1471.03 944.446   1
  -6  -2  -5 3847.18 1452.91   2
  -6   2  -6 542.795 863.754   1
  -6  -2  -6 282.843 1442.18   2
  -6  -2  -7-2609.97 2112.00   2
  -6   2  -7 131.508 862.939   1
  -6  -2  -8-1244.07 1985.98   2
  -6   2  -8-145.995 1035.07   1
  -6  -2  -9 66.5954 2058.27   2
  -6   2  -9 1617.45 1328.12   1
  -6  -2 -10 2271.89 2104.96   2
  -6   2 -10 5046.43 1700.22   1
  -6   2 -11 9076.00 2205.84   1
  -6   3  14 209.830 691.297   3
  -6   3  13 1633.12 934.270   3
  -6   3  12 249.098 704.931   3
  -6   3  11 223.920 624.287   3
  -6   3  10 970.293 738.446   3
  -6   3   9-167.514 592.752   3
  -6   3   8 128.335 618.626   3
  -6   3   7 170.042 562.913   3
  -6   3   6-27.7219 619.500   3
  -6   3   5 603.266 733.219   3
  -6   3   4-317.254 685.682   3
  -6   3   3 2141.57 940.956   3
  -6   3   2 5502.62 1289.03   3
  -6   3   1 2533.45 1004.39   3
  -6  -3   1 2165.62 1020.50   2
  -6   3   0 61.0722 674.956   3
  -6  -3   0-234.292 833.013   2
  -6   3  -1 205.319 838.768   1
  -6  -3  -1-438.640 1012.22   2
  -6   3  -2 1632.78 979.884   1
  -6  -3  -2 900.773 1008.04   2
  -6   3  -3-340.472 989.823   1
  -6  -3  -3-621.020 1111.98   2
  -6   3  -4 2732.20 1222.35   1
  -6  -3  -4 2293.46 1221.90   2
  -6   3  -5 6598.17 1637.98   1
  -6  -3  -5 7033.13 1708.13   2
  -6   3  -6 812.600 947.619   1
  -6  -3  -6-66.8594 1143.56   2
  -6   3  -7 3167.50 1345.81   1
  -6  -3  -7 4733.55 1658.62   2
  -6  -4  -1-867.837 1049.03   2
  -7   0  17 635.840 820.483   3
  -7   0  16 1412.89 981.035   3
  -7   0  15-325.529 714.448   3
  -7   0  14 159.649 731.466   3
  -7   0  13 14.9900 653.208   3
  -7   0  12 727.483 789.593   3
  -7   0  11 177.942 649.796   3
  -7   0  10 3515.65 1034.84   3
  -7   0   9-129.247 594.512   3
  -7   0   8 1523.88 835.338   3
  -7   0   7-141.027 729.971   3
  -7   0   6 128782. 5240.78   3
  -7   0   5 21.7602 718.010   3
  -7   0   4 65224.4 1957.12   2
  -7   0   4 58428.0 3584.32   3
  -7   0   3-613.920 890.499   3
  -7   0   3 996.230 661.442   2
  -7   0   2 5508.64 1032.68   2
  -7   0   2 7512.74 1475.58   3
  -7   0   1 29.1895 715.063   3
  -7   0   1 65.1394 943.140   2
  -7   0   0 1876.56 940.414   3
  -7   0   0 4435.38 1332.52   2
  -7   0  -1 1911.82 1371.57   2
  -7   0  -2 8531.86 1846.84   2
  -7   0  -2 7532.90 1175.07   1
  -7   0  -3 71.5761 569.854   1
  -7   0  -4 6203.16 1134.32   1
  -7   0  -5 297.762 643.947   1
  -7   0  -6-293.256 882.833   1
  -7   0  -7-158.365 911.032   1
  -7   0  -8 525.786 878.214   1
  -7   0  -9-121.844 889.407   1
  -7  -1  17-161.948 786.184   3
  -7  -1  16 327.725 719.177   3
  -7   1  16 445.499 884.617   3
  -7  -1  15 1320.34 842.641   3
  -7   1  15 777.996 790.618   3
  -7  -1  14 770.915 756.238   3
  -7   1  14 982.466 884.987   3
  -7  -1  13 1311.21 837.088   3
  -7   1  13 1088.72 838.816   3
  -7  -1  12 3018.17 960.817   3
  -7   1  12 1937.51 969.565   3
  -7  -1  11 5970.28 1233.28   3
  -7   1  11 5558.49 1334.32   3
  -7  -1  10 164.495 617.597   3
  -7   1  10 135.468 669.402   3
  -7  -1   9 1343.42 732.513   3
  -7   1   9 1490.17 795.144   3
  -7  -1   8 8952.84 1447.03   3
  -7   1   8 6744.03 1367.97   3
  -7  -1   7 201.882 671.256   3
  -7   1   7 259.286 701.559   3
  -7  -1   6 536.759 694.096   3
  -7   1   6 31.2270 789.289   3
  -7  -1   5 11791.8 1670.01   3
  -7   1   5 10997.2 1707.56   3
  -7  -1   4 41637.0 2188.12   2
  -7  -1   4 41893.4 2960.37   3
  -7   1   4 41305.9 3110.92   3
  -7  -1   3 40801.8 2248.63   2
  -7  -1   3 48249.2 3249.56   3
  -7   1   3 41400.9 3082.70   3
  -7  -1   2 14485.2 1416.91   2
  -7  -1   2 12931.1 1749.63   3
  -7   1   2 15255.9 1999.62   3
  -7  -1   1-23.2530 761.967   3
  -7   1   1 212.238 862.193   3
  -7  -1   1 991.473 779.104   2
  -7   1   0 1570.94 948.928   3
  -7  -1   0 2759.45 981.320   2
  -7  -1  -1 6947.94 1451.39   2
  -7  -1  -1 10410.9 1104.66   1
  -7   1  -1 10981.8 1833.62   3
  -7  -1  -2 1769.09 1329.13   2
  -7   1  -2 2917.75 982.234   1
  -7  -1  -3-228.448 1411.66   2
  -7   1  -3-153.857 719.230   1
  -7  -1  -4 1188.48 1547.06   2
  -7   1  -4 1516.59 855.491   1
  -7  -1  -5-147.729 1641.91   2
  -7   1  -5 393.784 738.176   1
  -7  -1  -6 2514.08 1879.78   2
  -7   1  -6 2348.76 1032.59   1
  -7  -1  -7 1909.33 1939.87   2
  -7   1  -7 940.840 869.282   1
  -7  -1  -8 1710.60 2149.32   2
  -7   1  -8-677.584 1244.85   1
  -7  -1  -9 5105.34 2434.43   2
  -7   1  -9 3253.17 1344.43   1
  -7   1 -10-306.840 1175.77   1
  -7  -1 -10 3255.09 2559.06   2
  -7   1 -11 1083.59 1297.99   1
  -7   1 -12 463.462 1345.18   1
  -7  -2  15 285.536 715.639   3
  -7  -2  14 1857.60 848.297   3
  -7   2  14 1235.25 928.188   3
  -7  -2  13 1338.67 752.298   3
  -7   2  13 605.394 776.384   3
  -7  -2  12 1040.19 753.932   3
  -7   2  12 1243.83 871.967   3
  -7  -2  11 110.771 566.002   3
  -7   2  11-217.160 636.652   3
  -7  -2  10 11362.5 1634.92   3
  -7   2  10 10030.6 1679.64   3
  -7  -2   9 1634.26 782.876   3
  -7   2   9 2042.91 944.746   3
  -7  -2   8 9417.51 1471.02   3
  -7   2   8 8872.19 1540.43   3
  -7  -2   7 588.710 661.621   3
  -7   2   7 199.013 623.936   3
  -7  -2   6 251.544 607.188   3
  -7   2   6 197.948 663.147   3
  -7  -2   5 1381.36 816.355   3
  -7   2   5 1547.28 890.947   3
  -7  -2   4 839.487 725.912   3
  -7   2   4 1968.29 942.767   3
  -7   2   3 2563.65 1026.43   3
  -7  -2   3 2037.68 808.631   2
  -7  -2   3 2525.47 976.768   3
  -7   2   2 2342.98 1037.19   3
  -7  -2   2 1467.92 887.517   2
  -7  -2   1 23095.9 2117.58   2
  -7   2   1 24730.1 2576.36   3
  -7   2   0 1072.41 864.120   3
  -7  -2   0 536.443 839.241   2
  -7   2  -1 288.950 814.438   3
  -7  -2  -1 183.812 843.542   2
  -7   2  -2 355.668 756.805   1
  -7  -2  -2 1994.19 1059.66   2
  -7   2  -3-20.5129 799.291   1
  -7  -2  -3 2001.43 1142.39   2
  -7   2  -4 2992.01 1127.51   1
  -7  -2  -4 4907.22 1428.46   2
  -7   2  -5 531.824 827.264   1
  -7  -2  -5 3959.59 1521.03   2
  -7   2  -6 3586.44 1322.86   1
  -7  -2  -6 5540.00 1676.74   2
  -7   2  -7 4458.43 1417.47   1
  -7  -2  -7 4296.38 1868.10   2
  -7  -2  -8-779.843 2033.48   2
  -7   2  -8 1931.89 1243.04   1
  -7  -2  -9-1283.42 2437.08   2
  -7   2  -9 2537.06 1565.71   1
  -7   3  12 1106.00 820.340   3
  -7   3  11 23.7405 705.279   3
  -7   3  10-183.480 686.274   3
  -7   3   9 3456.32 1148.14   3
  -7   3   8 1999.13 957.393   3
  -7   3   7 1430.01 930.354   3
  -7   3   6 1181.32 936.706   3
  -7   3   5-415.274 785.089   3
  -7   3   4 470.429 752.659   3
  -7   3   3 473.624 759.355   3
  -7   3   2 539.358 836.937   3
  -7  -3   2-303.289 943.571   2
  -7   3   1 398.153 840.058   3
  -7  -3   1-239.682 890.187   2
  -7  -3   0-38.3808 832.881   2
  -7   3  -1 889.216 978.061   1
  -7  -3  -1-520.388 1035.15   2
  -7   3  -2-22.2228 847.679   1
  -7  -3  -2-1120.31 1194.90   2
  -7   3  -3-565.086 909.178   1
  -7  -3  -3 76.9833 1067.55   2
  -7   3  -4 651.887 958.923   1
  -7  -3  -4 120.732 1106.06   2
  -7  -3  -5 785.490 1171.16   2
  -8   0  15-13.1928 664.068   3
  -8   0  14 316.478 752.239   3
  -8   0  13 319.219 757.008   3
  -8   0  12 7434.83 1555.84   3
  -8   0  11-186.812 681.434   3
  -8   0  10 914.191 777.169   3
  -8   0   9 332.236 772.057   3
  -8   0   8 5191.18 1310.51   3
  -8   0   7-151.909 775.690   3
  -8   0   6 1401.87 918.936   3
  -8   0   5-34.0417 748.846   3
  -8   0   4 2807.33 1080.04   3
  -8   0   3 354.304 798.806   3
  -8   0   2 4455.22 1267.62   3
  -8   0   1 202.400 803.919   3
  -8   0   0 1549.71 1152.67   2
  -8   0   0 2321.88 1180.74   3
  -8   0  -1 1290.51 1357.47   2
  -8   0  -1-338.316 751.489   1
  -8   0  -2 15524.8 2214.56   2
  -8   0  -2 14966.8 1744.97   1
  -8   0  -3 2569.33 1798.45   2
  -8   0  -3-7.93846 560.957   1
  -8   0  -4 347.655 599.039   1
  -8   0  -4 2459.32 1929.68   2
  -8   0  -5 4189.22 2162.77   2
  -8   0  -5 491.250 674.040   1
  -8   0  -6 13357.2 2790.65   2
  -8   0  -7 7761.46 2581.82   2
  -8   0  -8 8499.62 2719.57   2
  -8   0  -9 5968.87 2689.24   2
  -8  -1  16 2224.79 1070.55   3
  -8  -1  15 276.586 730.234   3
  -8  -1  14 343.991 694.759   3
  -8   1  14 143.608 674.871   3
  -8  -1  13 644.179 728.523   3
  -8   1  13 497.622 716.247   3
  -8  -1  12 1443.49 802.744   3
  -8   1  12 1347.21 921.875   3
  -8  -1  11 29.0298 716.355   3
  -8   1  11-39.0433 708.182   3
  -8  -1  10 5129.02 1315.64   3
  -8   1  10 4806.11 1323.59   3
  -8  -1   9 2103.98 935.865   3
  -8   1   9 2372.28 1046.67   3
  -8  -1   8 382.081 680.306   3
  -8   1   8 458.709 766.204   3
  -8   1   7 5855.98 1394.20   3
  -8  -1   7 6608.47 1441.67   3
  -8  -1   6 4736.98 1200.10   3
  -8   1   6 4479.98 1304.28   3
  -8   1   5 6726.64 1486.61   3
  -8  -1   5 7142.83 1485.60   3
  -8  -1   4 2845.21 1173.02   3
  -8   1   4 2924.60 1104.91   3
  -8  -1   3 4256.87 1216.82   3
  -8   1   3 6736.94 1548.99   3
  -8  -1   2 641.208 828.510   3
  -8   1   2-241.107 932.030   3
  -8   1   1 1494.09 998.835   3
  -8  -1   1 1591.12 801.479   2
  -8   1   0 262.667 850.609   3
  -8  -1   0 844.384 865.050   2
  -8  -1  -1 1250.91 939.501   2
  -8  -1  -2-159.706 1479.58   2
  -8   1  -2 815.547 734.831   1
  -8  -1  -3 197.229 1589.51   2
  -8   1  -3 709.537 771.050   1
  -8  -1  -4 3550.88 1754.34   2
  -8   1  -4 6399.30 1457.22   1
  -8  -1  -5-53.4495 1858.92   2
  -8   1  -5 1318.72 885.608   1
  -8  -1  -6-513.375 1939.40   2
  -8   1  -6 62.7101 693.784   1
  -8  -1  -7 303.173 2023.52   2
  -8   1  -7 716.433 954.491   1
  -8  -1  -8 3195.81 2417.27   2
  -8   1  -8 2699.83 1368.79   1
  -8   1  -9 1185.05 1232.09   1
  -8   1 -10-1174.44 1360.14   1
  -8  -2  13 2836.26 1033.35   3
  -8  -2  12-134.965 670.098   3
  -8   2  12 254.856 780.158   3
  -8  -2  11-188.443 643.172   3
  -8   2  11-339.011 821.706   3
  -8  -2  10 503.435 731.706   3
  -8   2  10-315.855 778.924   3
  -8  -2   9 193.782 707.570   3
  -8   2   9 48.0524 694.729   3
  -8  -2   8 494.641 750.212   3
  -8   2   8 1377.69 967.978   3
  -8  -2   7 320.251 709.426   3
  -8   2   7-169.043 868.178   3
  -8  -2   6 2102.06 1006.67   3
  -8   2   6 1651.59 948.882   3
  -8  -2   5 833.364 844.315   3
  -8   2   5 550.587 888.621   3
  -8   2   4 5583.50 1538.32   3
  -8  -2   4 4064.98 1283.54   3
  -8   2   3 16763.2 2327.75   3
  -8  -2   2 22572.0 2145.88   2
  -8   2   2 23951.5 2720.84   3
  -8   2   1 1731.11 1104.84   3
  -8  -2   1 1459.24 865.392   2
  -8   2   0-225.320 1065.38   3
  -8  -2   0 43.4437 830.317   2
  -8   2  -1-477.485 1005.05   1
  -8  -2  -1 203.705 814.112   2
  -8   2  -2 49.3000 876.220   1
  -8  -2  -2 1889.71 1144.19   2
  -8   2  -3-786.451 895.807   1
  -8  -2  -3 1090.19 1033.96   2
  -8   2  -4 780.740 922.267   1
  -8  -2  -4 2182.75 1294.26   2
  -8   2  -5-485.744 859.720   1
  -8  -2  -5 1988.28 1363.14   2
  -8   2  -6 4615.84 1446.28   1
  -8  -2  -6 6407.72 1871.05   2
  -8  -2  -7 3187.53 1755.09   2
  -8   3   9 2674.71 1173.67   3
  -8   3   8 154.951 823.913   3
  -8   3   7 5639.00 1522.88   3
  -8   3   6 94.5231 807.377   3
  -8   3   5 554.479 847.083   3
  -8   3   4 1433.45 1126.76   3
  -8   3   3 635.803 883.000   3
  -8   3   2 1015.64 1029.78   3
  -8  -3   1 5691.78 1431.74   2
  -8   3   1 8254.12 1876.20   3
  -8  -3   0 8506.65 1678.01   2
  -8  -3  -1 4433.30 1419.22   2
  -8  -3  -3-996.881 1268.55   2
  -9   0  12 1301.53 935.110   3
  -9   0  11 302.356 829.494   3
  -9   0  10 4060.31 1276.05   3
  -9   0   9 107.981 804.711   3
  -9   0   8 1464.67 915.950   3
  -9   0   7 313.524 797.570   3
  -9   0   6 3292.50 1253.52   3
  -9   0   5 639.045 914.213   3
  -9   0   4 1191.36 1039.73   3
  -9   0   3 3.51495 930.060   3
  -9   0   2 291.724 883.922   3
  -9   0   1 229.858 961.769   3
  -9   0  -1-222.660 666.028   1
  -9   0  -5 3229.22 2279.38   2
  -9   0  -6 3204.55 2570.66   2
  -9   0  -7 3673.58 2633.92   2
  -9  -1  13 2203.03 1133.19   3
  -9  -1  12 1653.10 1037.43   3
  -9  -1  11-75.8370 797.107   3
  -9  -1  10-164.391 776.373   3
  -9   1  10 119.027 748.871   3
  -9  -1   9-189.561 785.284   3
  -9   1   9 390.579 857.888   3
  -9  -1   8 1881.66 1043.95   3
  -9   1   8 2458.71 1149.39   3
  -9  -1   7 2240.70 1059.46   3
  -9   1   7 2270.46 1160.73   3
  -9  -1   6 75.4401 846.519   3
  -9   1   6 348.500 900.906   3
  -9  -1   5 11163.5 1955.68   3
  -9   1   5 12067.5 2076.10   3
  -9  -1   4 216.346 898.409   3
  -9   1   4 610.329 910.882   3
  -9  -1   3 2027.69 1130.04   3
  -9   1   3 2744.01 1238.11   3
  -9   1   2 293.426 1016.26   3
  -9   1   1 3383.61 1356.94   3
  -9   1  -1-1367.90 924.474   1
  -9   1  -2-672.220 819.897   1
  -9   1  -3 608.063 773.372   1
  -9  -1  -4-2974.42 2056.82   2
  -9   1  -4 313.293 800.157   1
  -9   1  -5 452.717 906.964   1
  -9  -1  -5-2868.22 2342.07   2
  -9  -1  -6-2770.10 2450.51   2
  -9   1  -6 558.374 917.893   1
  -9  -1  -7-1721.42 2602.28   2
  -9   1  -7-2340.71 1385.41   1
  -9  -2  11-3.35905 819.522   3
  -9  -2  10 2220.99 1102.66   3
  -9  -2   9 81.2199 839.283   3
  -9  -2   8 297.588 893.911   3
  -9  -2   7 1836.89 1079.37   3
  -9   2   7 3158.40 1419.91   3
  -9  -2   6 7077.89 1582.15   3
  -9   2   6 9847.66 1938.27   3
  -9   2   5 2759.12 1228.40   3
  -9  -2   5 2793.65 1169.20   3
  -9   2   4 890.409 1070.26   3
  -9   2   3 117.076 901.676   3
  -9   2   2 190.837 898.535   3
  -9   2   1 129.943 942.989   3
  -9   2  -1-1667.76 1098.81   1
  -9  -2  -3 2813.08 1293.75   2
  -9  -2  -4 876.219 1195.98   2
  -9  -2  -5 2127.39 1411.89   2
 -10  -1   7 309.903 1007.91   3
 -10  -1   6 4311.12 1515.01   3
 -10  -1   5 5285.13 1580.96   3
 -10  -1   4 1314.50 1241.42   3
 -10   1   0-1118.29 948.534   1
 -10   1  -1 669.857 842.980   1
 -10   1  -2 1463.08 997.811   1
 -10  -2   6 1491.62 1208.14   3
   0   0   0    0.00    0.00   0
TITL BKS-SS-DI-ANTH-208K in P2(1)/c
REM P2(1)/c (#14 in standard setting)
CELL 0.71073   7.884601   3.937227  15.754045  90.0000 102.5945  90.0000
ZERR    2.00   0.000777   0.000510   0.002290   0.0000   0.0122   0.0000
LATT  1
SYMM -x, y+1/2,-z+1/2
SFAC C H O
UNIT 24.00 16.00 4.00
TREF
HKLF 4
END
;
_shelx_hkl_checksum              66234
_olex2_submission_special_instructions 'No special instructions were received'
loop_
_space_group_symop_operation_xyz
'x, y, z'
'-x, y+1/2, -z+1/2'
'-x, -y, -z'
'x, -y-1/2, z-1/2'
loop_
_atom_site_label
_atom_site_type_symbol
_atom_site_fract_x
_atom_site_fract_y
_atom_site_fract_z
_atom_site_U_iso_or_equiv
_atom_site_adp_type
_atom_site_occupancy
_atom_site_site_symmetry_order
_atom_site_calc_flag
_atom_site_refinement_flags_posn
_atom_site_refinement_flags_adp
_atom_site_refinement_flags_occupancy
_atom_site_disorder_assembly
_atom_site_disorder_group
C2 C 0.4353(3) 0.6545(5) 0.41503(15) 0.0276(6) Uani 1 1 d . . . . .
C7 C 0.3258(3) 0.6397(5) 0.47403(15) 0.0281(6) Uani 1 1 d . . . . .
C1 C 0.6151(3) 0.5137(5) 0.43829(16) 0.0323(6) Uani 1 1 d . . . . .
C5 C 0.1002(3) 0.9155(6) 0.36909(18) 0.0402(6) Uani 1 1 d . . . . .
H5 H -0.011451 1.005054 0.354099 0.048 Uiso 1 1 calc R U . . .
O1 O 0.7104(2) 0.5227(4) 0.38642(12) 0.0527(6) Uani 1 1 d . . . . .
C3 C 0.3750(3) 0.7991(5) 0.33352(15) 0.0358(6) Uani 1 1 d . . . . .
H3 H 0.447519 0.809604 0.294299 0.043 Uiso 1 1 calc R U . . .
C6 C 0.1581(3) 0.7710(5) 0.44989(17) 0.0366(6) Uani 1 1 d . . . . .
H6 H 0.084548 0.761137 0.488653 0.044 Uiso 1 1 calc R U . . .
C4 C 0.2067(3) 0.9285(5) 0.31009(17) 0.0406(7) Uani 1 1 d . . . . .
H4 H 0.166425 1.022705 0.255265 0.049 Uiso 1 1 calc R U . . .
loop_
_atom_site_aniso_label
_atom_site_aniso_U_11
_atom_site_aniso_U_22
_atom_site_aniso_U_33
_atom_site_aniso_U_23
_atom_site_aniso_U_13
_atom_site_aniso_U_12
C2 0.0277(12) 0.0259(13) 0.0284(15) -0.0031(10) 0.0048(10) -0.0034(10)
C7 0.0267(12) 0.0267(12) 0.0307(16) -0.0035(10) 0.0057(10) -0.0024(10)
C1 0.0305(13) 0.0366(14) 0.0312(16) -0.0032(11) 0.0097(11) -0.0031(10)
C5 0.0326(13) 0.0376(14) 0.0470(19) -0.0039(13) 0.0016(12) 0.0031(11)
O1 0.0392(10) 0.0831(13) 0.0418(13) 0.0108(10) 0.0219(9) 0.0100(9)
C3 0.0391(14) 0.0387(15) 0.0292(16) -0.0021(12) 0.0069(11) -0.0014(11)
C6 0.0292(12) 0.0376(15) 0.0442(17) -0.0018(13) 0.0107(11) 0.0001(11)
C4 0.0472(16) 0.0362(14) 0.0338(18) 0.0010(12) -0.0013(12) 0.0029(12)
loop_
_atom_type_symbol
_atom_type_description
_atom_type_scat_dispersion_real
_atom_type_scat_dispersion_imag
_atom_type_scat_source
C C 0.0033 0.0016 'International Tables Vol C Tables 4.2.6.8 and 6.1.1.4'
H H 0.0000 0.0000 'International Tables Vol C Tables 4.2.6.8 and 6.1.1.4'
O O 0.0106 0.0060 'International Tables Vol C Tables 4.2.6.8 and 6.1.1.4'
loop_
_geom_angle_atom_site_label_1
_geom_angle_atom_site_label_2
_geom_angle_atom_site_label_3
_geom_angle
_geom_angle_site_symmetry_1
_geom_angle_site_symmetry_3
_geom_angle_publ_flag
C7 C2 C1 120.8(2) . . ?
C3 C2 C7 119.6(2) . . ?
C3 C2 C1 119.62(19) . . ?
C2 C7 C1 121.33(19) . 3_666 ?
C6 C7 C2 119.3(2) . . ?
C6 C7 C1 119.4(2) . 3_666 ?
C7 C1 C2 117.89(17) 3_666 . ?
O1 C1 C2 120.9(2) . . ?
O1 C1 C7 121.2(2) . 3_666 ?
C6 C5 H5 119.7 . . ?
C6 C5 C4 120.6(2) . . ?
C4 C5 H5 119.7 . . ?
C2 C3 H3 119.7 . . ?
C2 C3 C4 120.6(2) . . ?
C4 C3 H3 119.7 . . ?
C7 C6 H6 119.7 . . ?
C5 C6 C7 120.6(2) . . ?
C5 C6 H6 119.7 . . ?
C5 C4 C3 119.4(2) . . ?
C5 C4 H4 120.3 . . ?
C3 C4 H4 120.3 . . ?
loop_
_geom_bond_atom_site_label_1
_geom_bond_atom_site_label_2
_geom_bond_distance
_geom_bond_site_symmetry_2
_geom_bond_publ_flag
C2 C7 1.401(3) . ?
C2 C1 1.492(3) . ?
C2 C3 1.390(3) . ?
C7 C1 1.486(3) 3_666 ?
C7 C6 1.393(3) . ?
C1 O1 1.225(2) . ?
C5 H5 0.9300 . ?
C5 C6 1.378(3) . ?
C5 C4 1.383(3) . ?
C3 H3 0.9300 . ?
C3 C4 1.393(3) . ?
C6 H6 0.9300 . ?
C4 H4 0.9300 . ?
loop_
_geom_torsion_atom_site_label_1
_geom_torsion_atom_site_label_2
_geom_torsion_atom_site_label_3
_geom_torsion_atom_site_label_4
_geom_torsion
_geom_torsion_site_symmetry_1
_geom_torsion_site_symmetry_2
_geom_torsion_site_symmetry_3
_geom_torsion_site_symmetry_4
_geom_torsion_publ_flag
C2 C7 C6 C5 -0.3(3) . . . . ?
C2 C3 C4 C5 0.7(3) . . . . ?
C7 C2 C1 C7 -0.4(3) . . . 3_666 ?
C7 C2 C1 O1 179.1(2) . . . . ?
C7 C2 C3 C4 -0.1(3) . . . . ?
C1 C2 C7 C1 0.4(3) . . . 3_666 ?
C1 C2 C7 C6 -179.46(18) . . . . ?
C1 C2 C3 C4 179.24(18) . . . . ?
C1 C7 C6 C5 179.8(2) 3_666 . . . ?
C3 C2 C7 C1 179.8(2) . . . 3_666 ?
C3 C2 C7 C6 -0.1(3) . . . . ?
C3 C2 C1 C7 -179.8(2) . . . 3_666 ?
C3 C2 C1 O1 -0.2(3) . . . . ?
C6 C5 C4 C3 -1.1(3) . . . . ?
C4 C5 C6 C7 0.9(3) . . . . ?
