#------------------------------------------------------------------------------
#$Date: 2021-05-06 03:55:18 +0300 (Thu, 06 May 2021) $
#$Revision: 264977 $
#$URL: file:///home/coder/svn-repositories/cod/cif/1/56/23/1562374.cif $
#------------------------------------------------------------------------------
#
# This file is available in the Crystallography Open Database (COD),
# http://www.crystallography.net/
#
# All data on this site have been placed in the public domain by the
# contributors.
#
data_1562374
loop_
_publ_author_name
'Hu, Yajing'
'Yao, Yang-Rong'
'Liu, Xuechen'
'Yu, Ao'
'Xie, Xiao-Ming'
'Abella, Laura'
'Rodriguez-Fortea, Antonio'
'Poblet, Josep M.'
'Akasaka, Takeshi'
'Peng, Ping'
'Zhang, Qianyan'
'Xie, Su-Yuan'
'Li, Fang-Fang'
'Lu, Xing'
_publ_section_title
;
 Unexpected Formation of 1,2- and 1,4-Bismethoxyl Sc3N@Ih-C80 Derivatives
 via Regioselective Anion Addition: Unambiguous Structural Identification
 and Mechanism Study
;
_journal_name_full               'Chemical Science'
_journal_paper_doi               10.1039/D1SC01178B
_journal_year                    2021
_chemical_formula_moiety         'C14 H8 O2'
_chemical_formula_sum            'C14 H8 O2'
_chemical_formula_weight         208.20
_chemical_name_common            Anthraquinone
_chemical_name_systematic        9,10-Anthracenedione
_space_group_crystal_system      monoclinic
_space_group_IT_number           14
_space_group_name_Hall           '-P 2ybc'
_space_group_name_H-M_alt        'P 1 21/c 1'
_atom_sites_solution_hydrogens   geom
_audit_creation_date             2021-03-31
_audit_creation_method
;
Olex2 1.3-alpha
(compiled 2019.09.11 svn.r3662 for OlexSys, GUI svn.r5938)
;
_audit_update_record
;
2021-04-06 deposited with the CCDC.	2021-05-03 downloaded from the CCDC.
;
_cell_angle_alpha                90
_cell_angle_beta                 102.573(12)
_cell_angle_gamma                90
_cell_formula_units_Z            2
_cell_length_a                   7.8702(9)
_cell_length_b                   3.9302(6)
_cell_length_c                   15.732(2)
_cell_measurement_reflns_used    513
_cell_measurement_temperature    193
_cell_measurement_theta_max      28.9583
_cell_measurement_theta_min      3.2068
_cell_volume                     474.94(11)
_computing_cell_refinement
;
CrysAlisPro, Agilent Technologies,
Version 1.171.36.21 (release 14-08-2012 CrysAlis171 .NET)
(compiled Sep 14 2012,17:21:16)
;
_computing_data_collection
;
CrysAlisPro, Agilent Technologies,
Version 1.171.36.21 (release 14-08-2012 CrysAlis171 .NET)
(compiled Sep 14 2012,17:21:16)
;
_computing_data_reduction
;
CrysAlisPro, Agilent Technologies,
Version 1.171.36.21 (release 14-08-2012 CrysAlis171 .NET)
(compiled Sep 14 2012,17:21:16)
;
_computing_molecular_graphics    'Olex2 1.3-alpha (Dolomanov et al., 2009)'
_computing_publication_material  'Olex2 1.3-alpha (Dolomanov et al., 2009)'
_computing_structure_refinement  'ShelXL 2018/3 (Sheldrick, 2015)'
_computing_structure_solution    'ShelXS n/a (Sheldrick, 2008)'
_diffrn_ambient_temperature      193.00(2)
_diffrn_detector_area_resol_mean 15.9821
_diffrn_measured_fraction_theta_full 0.965
_diffrn_measured_fraction_theta_max 0.819
_diffrn_measurement_details
;
#__ type_ start__ end____ width___ exp.time_
  1 omega  -75.00   11.00   1.0000    3.0000
omega____ theta____ kappa____ phi______ frames
    -      -16.8710  -19.0000  120.0000 86

#__ type_ start__ end____ width___ exp.time_
  2 omega  -81.00    5.00   1.0000    3.0000
omega____ theta____ kappa____ phi______ frames
    -      -16.8710  -57.0000   60.0000 86

#__ type_ start__ end____ width___ exp.time_
  3 omega   35.00   96.00   1.0000    3.0000
omega____ theta____ kappa____ phi______ frames
    -       19.6835  178.0000   30.0000 61
;
_diffrn_measurement_device_type  'Xcalibur, Eos'
_diffrn_measurement_method       '\w scans'
_diffrn_radiation_type           MoK\a
_diffrn_radiation_wavelength     0.71073
_diffrn_reflns_av_R_equivalents  0.0241
_diffrn_reflns_av_unetI/netI     0.0482
_diffrn_reflns_Laue_measured_fraction_full 0.965
_diffrn_reflns_Laue_measured_fraction_max 0.819
_diffrn_reflns_limit_h_max       4
_diffrn_reflns_limit_h_min       -10
_diffrn_reflns_limit_k_max       5
_diffrn_reflns_limit_k_min       -4
_diffrn_reflns_limit_l_max       20
_diffrn_reflns_limit_l_min       -19
_diffrn_reflns_number            2118
_diffrn_reflns_point_group_measured_fraction_full 0.965
_diffrn_reflns_point_group_measured_fraction_max 0.819
_diffrn_reflns_theta_full        25.000
_diffrn_reflns_theta_max         29.022
_diffrn_reflns_theta_min         3.318
_exptl_absorpt_coefficient_mu    0.097
_exptl_absorpt_correction_T_max  1.00000
_exptl_absorpt_correction_T_min  0.42399
_exptl_absorpt_correction_type   multi-scan
_exptl_absorpt_process_details
;
CrysAlisPro, Agilent Technologies,
Version 1.171.36.21 (release 14-08-2012 CrysAlis171 .NET)
(compiled Sep 14 2012,17:21:16)
Empirical absorption correction using spherical harmonics,
 implemented in SCALE3 ABSPACK scaling algorithm.
;
_exptl_crystal_colour            yellow
_exptl_crystal_colour_primary    yellow
_exptl_crystal_density_diffrn    1.456
_exptl_crystal_description       block
_exptl_crystal_F_000             216
_exptl_crystal_size_max          0.62
_exptl_crystal_size_mid          0.26
_exptl_crystal_size_min          0.16
_refine_diff_density_max         0.148
_refine_diff_density_min         -0.212
_refine_diff_density_rms         0.051
_refine_ls_extinction_method     none
_refine_ls_goodness_of_fit_ref   0.995
_refine_ls_hydrogen_treatment    constr
_refine_ls_matrix_type           full
_refine_ls_number_parameters     73
_refine_ls_number_reflns         1034
_refine_ls_number_restraints     0
_refine_ls_restrained_S_all      0.995
_refine_ls_R_factor_all          0.0841
_refine_ls_R_factor_gt           0.0520
_refine_ls_shift/su_max          0.000
_refine_ls_shift/su_mean         0.000
_refine_ls_structure_factor_coef Fsqd
_refine_ls_weighting_details
'w=1/[\s^2^(Fo^2^)+(0.0680P)^2^] where P=(Fo^2^+2Fc^2^)/3'
_refine_ls_weighting_scheme      calc
_refine_ls_wR_factor_gt          0.1191
_refine_ls_wR_factor_ref         0.1411
_reflns_Friedel_coverage         0.000
_reflns_number_gt                688
_reflns_number_total             1034
_reflns_threshold_expression     'I > 2\s(I)'
_cod_data_source_file            d1sc01178b2.cif
_cod_data_source_block           anthraquinone-193k
_cod_original_cell_volume        474.93(12)
_cod_database_code               1562374
_shelx_shelxl_version_number     2018/3
_shelx_space_group_comment
;
The symmetry employed for this shelxl refinement is uniquely defined
by the following loop, which should always be used as a source of
symmetry information in preference to the above space-group names.
They are only intended as comments.
;
_shelx_estimated_absorpt_t_max   0.985
_shelx_estimated_absorpt_t_min   0.942
_olex2_refinement_description
;
1. Fixed Uiso
 At 1.2 times of:
  All C(H) groups
2.a Aromatic/amide H refined with riding coordinates:
 C5(H5), C3(H3), C6(H6), C4(H4)
;
_shelx_res_file
;
TITL BKS-SS-DI-ANTH-193K-S in P21/c #14
    anthraquinone-193k.res
    created by SHELXL-2018/3 at 17:32:57 on 31-Mar-2021
REM reset to P21/c #14
CELL 0.71073 7.870227 3.930164 15.731737 90 102.5728 90
ZERR 2 0.000895 0.000606 0.002392 0 0.0123 0
LATT 1
SYMM -X,0.5+Y,0.5-Z
SFAC C H O
UNIT 28 16 4

L.S. 4
PLAN  5
SIZE 0.62 0.26 0.16
TEMP -80.15(2)
CONF
BOND $H
HTAB
MORE -1
fmap 2
acta 50
REM <olex2.extras>
REM <HklSrc "%.\\Anthraquinone-193K.hkl">
REM </olex2.extras>

WGHT    0.068000
FVAR      13.55212
C2    1    0.435014    0.654457    0.414772    11.00000    0.02971    0.03180 =
         0.02923   -0.00350    0.00433   -0.00373
C7    1    0.326084    0.639632    0.474053    11.00000    0.02813    0.03135 =
         0.03149   -0.00316    0.00376   -0.00392
C1    1    0.614553    0.513284    0.438081    11.00000    0.02891    0.04118 =
         0.03243   -0.00414    0.00936   -0.00410
C5    1    0.099266    0.914934    0.368520    11.00000    0.03161    0.03954 =
         0.04733   -0.00304   -0.00407    0.00262
AFIX  43
H5    2   -0.015498    1.004125    0.352859    11.00000   -1.20000
AFIX   0
O1    3    0.710219    0.523104    0.386381    11.00000    0.03969    0.08176 =
         0.04077    0.00958    0.01840    0.00892
C3    1    0.374172    0.797629    0.333020    11.00000    0.04116    0.03952 =
         0.03185   -0.00044    0.00687   -0.00136
AFIX  43
H3    2    0.447614    0.805632    0.292472    11.00000   -1.20000
AFIX   0
C6    1    0.158094    0.770789    0.450091    11.00000    0.03132    0.03811 =
         0.04249   -0.00337    0.00682   -0.00014
AFIX  43
H6    2    0.083191    0.761460    0.489929    11.00000   -1.20000
AFIX   0
C4    1    0.206240    0.929327    0.310242    11.00000    0.04322    0.04086 =
         0.03396    0.00007   -0.00174    0.00161
AFIX  43
H4    2    0.165628    1.029004    0.254503    11.00000   -1.20000
AFIX   0
HKLF 4




REM  BKS-SS-DI-ANTH-193K-S in P21/c #14
REM wR2 = 0.1411, GooF = S = 0.995, Restrained GooF = 0.995 for all data
REM R1 = 0.0520 for 688 Fo > 4sig(Fo) and 0.0841 for all 1034 data
REM 73 parameters refined using 0 restraints

END

WGHT      0.0680      0.0000

REM No hydrogen bonds found for HTAB generation

REM Highest difference peak  0.148,  deepest hole -0.212,  1-sigma level  0.051
Q1    1   0.7745  0.7146  0.4559  11.00000  0.05    0.15
Q2    1   0.5030  0.8712  0.4842  11.00000  0.05    0.15
Q3    1   0.3554  0.8878  0.5428  11.00000  0.05    0.14
Q4    1   0.6626  0.6569  0.3024  11.00000  0.05    0.14
Q5    1   0.5156  0.8096  0.2834  11.00000  0.05    0.14
;
_shelx_res_checksum              14216
_shelx_hkl_file
;
   0   0  -3 117.390 103.801   2
   0   0   3-25.5562 105.146   2
   0   0   4 202495. 2779.36   2
   0   0  -4 202631. 2698.39   2
   0   0  -5-181.286 195.900   2
   0   0   5-270.984 224.968   2
   0   0   5-436.213 188.780   3
   0   0   6 284.874 249.900   2
   0   0   6 266.446 200.304   3
   0   0  -6 348.477 191.056   2
   0   0   7-124.718 225.124   2
   0   0   7 143.921 149.304   3
   0   0   8 18670.5 907.746   3
   0   0   8 20121.8 1314.26   2
   0   0   9 2.81374 288.628   2
   0   0   9-155.415 140.340   3
   0   0  10 437.715 184.378   3
   0   0  10-20.3193 244.136   2
   0   0  11 136.524 218.563   3
   0   0  11 147.307 435.593   2
   0   0  12 3427.54 736.860   2
   0   0  12 3624.02 468.965   3
   0   0  13 6.12913 143.868   3
   0   0  13-144.952 422.503   2
   0   0  14 7406.62 657.200   3
   0   1   0 148.211 187.876   3
   0   1  -1 164447. 2306.99   3
   0   1   1 160980. 2234.42   3
   0   1  -1 159654. 1640.87   1
   0   1   1 157604. 2230.74   2
   0  -1   1 162692. 2356.90   3
   0   1   2 572740. 4624.77   2
   0   1  -2 573929. 4468.35   3
   0  -1  -2 579932. 4302.24   2
   0  -1   2 576593. 4550.72   3
   0  -1  -3 176518. 2572.64   2
   0  -1   3 173286. 2578.27   3
   0   1  -3 175046. 2537.53   3
   0   1   3 169277. 2710.76   2
   0  -1  -4 26259.5 1092.74   2
   0  -1   4 25690.6 1034.66   3
   0   1  -4 27176.1 1049.56   3
   0   1   4 23736.6 1093.04   2
   0  -1  -5 151091. 2817.86   2
   0   1  -5 150184. 2591.31   3
   0  -1   5 147706. 2589.71   3
   0   1   5 145936. 2943.36   2
   0  -1   6 46103.0 1502.43   3
   0   1  -6 49108.1 1587.87   3
   0   1   6 45298.3 1803.07   2
   0   1  -7 25279.7 1226.65   3
   0   1   7 23427.1 1387.34   2
   0  -1   7 27829.2 1264.80   3
   0   1   8 20564.6 1363.38   2
   0  -1   8 21066.5 1098.80   3
   0  -1   9 8666.52 726.092   3
   0   1   9 9461.05 991.273   2
   0  -1  10 1645.22 353.311   3
   0   1  10 1156.01 426.023   2
   0   1  11-170.716 293.728   2
   0  -1  11-625.763 350.751   3
   0  -1  12 2346.54 434.397   3
   0   1  12 1927.12 597.370   2
   0   1  13 432.015 410.448   2
   0  -1  13 100.942 144.767   3
   0   1  14 1298.64 602.968   2
   0  -1  14 1339.91 346.184   3
   0  -1  15 1007.86 317.472   3
   0   1  15 2146.24 721.503   2
   0   1  16 402.394 363.151   2
   0   1  17 634.318 449.341   2
   0   1  18 424.276 462.590   2
   0   2   0 14339.5 831.729   2
   0   2   0 8170.87 362.664   1
   0   2   1 15569.1 918.173   2
   0   2  -1 15366.4 618.488   1
   0   2   2 4533.64 569.427   2
   0   2  -2 5103.17 409.039   1
   0   2  -3 32646.6 1150.02   1
   0   2   3 35127.1 1640.34   2
   0   2  -4 32576.2 1287.52   1
   0  -2   4 29322.3 1525.53   3
   0   2  -5 64301.7 1965.96   1
   0  -2   5 65617.7 2300.22   3
   0   2   6 10120.1 961.546   2
   0  -2   6 9062.18 889.296   3
   0   2   7 7389.30 875.101   2
   0  -2   7 6171.46 758.776   3
   0   2   8 9184.83 1041.55   2
   0  -2   8 8535.01 915.270   3
   0   2   9-71.0611 358.372   2
   0  -2   9-367.938 333.006   3
   0   2  10 6357.16 947.853   2
   0  -2  10 5114.29 764.687   3
   0  -2  11 1210.21 450.309   3
   0   2  11 728.561 370.104   2
   0   2  12 5917.41 1004.18   2
   0  -2  12 4583.71 764.774   3
   0   2  13 7990.60 1201.55   2
   0  -2  13 5376.91 830.197   3
   0   2  14 822.826 349.066   2
   0  -2  14 462.944 307.567   3
   0   2  15 7435.59 1312.48   2
   0  -2  15 6056.93 898.863   3
   0   2  16 11567.6 1630.11   2
   0   2 -16 12102.1 1542.88   1
   0   2  17-566.502 492.301   2
   0   2 -17-251.063 368.696   1
   0  -2 -18-75.5740 178.397   1
   0   3   0-0.95764 124.730   2
   0   3  -1 427.961 103.328   1
   0   3   1 832.414 264.622   2
   0   3  -1 577.856 247.262   2
   0   3  -2 9199.63 577.044   1
   0   3   2 10432.5 951.078   2
   0   3   3 8426.33 901.761   2
   0   3  -3 6764.07 573.173   1
   0   3   4 906.334 346.404   2
   0   3  -4 1051.76 249.643   1
   0   3  -5 1136.97 293.358   1
   0   3   5 1577.29 441.091   2
   0   3   6 2624.62 560.747   2
   0   3  -6 2287.39 424.794   1
   0   3   7 260.176 293.359   2
   0   3  -7 110.193 155.382   1
   0   3   8 2766.96 660.509   2
   0   3  -8 2582.46 514.377   1
   0   3   9 4916.11 908.146   2
   0   3  -9 3475.14 643.759   1
   0   3  10 1230.62 534.930   2
   0   3 -10 1603.50 461.373   1
   0   3 -11 2475.85 578.179   1
   0   3  11 2860.53 764.145   2
   0   3 -12 2310.94 575.979   1
   0   3  12 3242.60 838.543   2
   0   3  13 1402.30 620.145   2
   0   3 -13 275.962 297.393   1
   0   3  14-17.7562 489.922   2
   0   3 -14 184.178 238.419   1
   0   3 -15-167.464 252.484   1
   0   3  15 464.575 453.486   2
   0   3 -16 4423.46 964.810   1
   0   4   0-65.2909 188.196   2
   0   4  -1 241.337 220.437   2
   0   4   1 311.244 231.318   2
   0   4   2-331.176 263.920   2
   0   4  -2-51.8925 136.035   2
   0   4  -3-24.7099 93.7955   2
   0   4   3-117.554 213.082   2
   0   4   4 412.089 302.224   2
   0   4   5-147.742 300.248   2
   0   4   6 118.468 320.104   2
   0   4   7 220.916 237.733   2
   0   4   8 1561.22 586.582   2
   0   4   9-165.290 269.925   2
   0   4  10 3256.04 918.310   2
   0   4  11 1290.89 481.818   2
   0   4  12-20.1888 425.276   2
   0   4  13-1255.50 657.335   2
  -1   0  17-924.020 656.042   2
  -1   0  16-44.1056 449.826   2
  -1   0  15-102.262 255.189   3
  -1   0  15 77.2131 413.745   2
  -1   0  14 2569.29 502.579   3
  -1   0  14 3501.02 844.548   2
  -1   0  13 103.519 232.903   3
  -1   0  13-299.723 466.204   2
  -1   0  12 44660.4 1828.93   3
  -1   0  12 45035.9 2350.57   2
  -1   0  11-420.914 322.732   3
  -1   0  11 244.284 382.337   2
  -1   0  10-184.480 337.403   2
  -1   0  10 345.147 271.264   3
  -1   0   9-348.182 324.741   2
  -1   0   8 17793.6 1190.70   2
  -1   0   7 150.005 280.354   2
  -1   0   6 89106.2 2167.23   2
   1   0  -6 91649.3 2137.21   2
   1   0  -5 4.22503 96.2348   2
  -1   0   5-193.435 163.547   2
  -1   0   4 86868.2 1695.26   2
   1   0  -4 87263.7 1718.26   2
   1   0  -3-8.19520 75.9814   2
  -1   0   3-3.37142 83.8630   2
  -1   0   2 266767. 2149.18   2
  -1   0  -1 206.873 97.3662   1
   1   0   2 10643.4 564.030   1
  -1   0  -2 10711.2 544.883   1
  -1   0  -3 98.3417 192.813   2
  -1   0  -3 203.671 159.381   1
  -1   0  -4 30976.3 1200.67   1
  -1   0  -4 35037.3 1303.25   2
  -1   0  -5 704.647 295.141   2
  -1   0  -5-12.4564 147.809   1
   1   0   6 295052. 1892.90   3
   1   0   7 51.7614 69.1382   3
   1   0   8 211932. 1989.21   3
   1   0   9-101.573 75.2653   3
   1   0  10 12739.3 551.656   3
   1   0  11-28.4101 78.1466   3
   1   0  12 5970.37 400.275   3
  -1   0 -14 3477.87 730.189   1
  -1   0 -15-229.942 251.563   1
  -1   0 -16 9615.63 1296.70   1
  -1   0 -17-283.020 364.090   1
  -1   0 -18-13.7963 299.951   1
  -1   1  19 5718.55 1241.24   2
  -1   1  18 446.721 476.191   2
  -1   1  17-411.625 442.004   2
  -1  -1  16 557.745 209.395   3
  -1   1  16 1652.48 691.956   2
  -1   1  15 41459.6 2710.17   2
  -1  -1  15 41439.3 2036.69   3
  -1  -1  14 33083.4 1784.14   3
  -1   1  14 33561.4 2362.91   2
  -1  -1  13 3098.52 539.684   3
  -1   1  13 4995.05 891.522   2
  -1  -1  12 3480.43 573.069   3
  -1   1  12 2764.30 686.076   2
  -1  -1  11 5965.62 695.862   3
  -1   1  11 7608.38 1052.58   2
  -1  -1  10 925.396 283.077   3
  -1   1  10 2258.12 740.529   2
  -1  -1   9 4429.93 589.824   3
  -1   1   9 4843.34 734.867   2
  -1   1   8 7531.64 826.595   2
  -1  -1   8 6879.36 703.306   3
  -1  -1   7 2690.76 439.606   3
   1   1  -7 2355.01 410.686   2
   1   1  -6 16851.8 894.944   2
  -1  -1   6 19001.7 1053.60   3
  -1   1   5 8.19259 170.132   2
   1   1  -5 99.3240 107.635   2
  -1  -1   5-45.3316 188.139   3
   1   1  -5-407.771 254.446   3
  -1   1   4 6123.15 601.516   2
   1   1  -4 5157.81 498.324   2
  -1  -1   4 5929.31 569.517   3
   1  -1  -4 5882.79 560.466   2
   1   1  -4 7390.72 764.669   3
   1  -1  -3 77069.2 1887.97   2
   1   1  -3 79969.7 1855.05   3
  -1  -1   3 76441.7 1836.03   3
  -1   1   3 77521.6 1926.40   2
  -1  -1   2 619.032 351.288   3
   1   1  -2 496.891 200.110   3
   1  -1  -2 516.115 137.859   1
  -1   1   2 732.058 207.136   2
   1   1  -1 1787.79 266.103   3
   1   1  -1 713.504 111.179   2
  -1  -1   1 1814.08 309.429   3
  -1   1   1 1364.87 217.056   1
   1  -1  -1 960.478 177.744   1
  -1  -1   0 433819. 3825.42   3
   1  -1   0 431157. 3387.03   1
  -1   1   0 431891. 3404.57   1
  -1  -1   0 430402. 2607.03   2
   1   1   0 432433. 3724.74   3
   1   1   0 431762. 2365.46   1
   1   1   0 433127. 2569.01   2
   1   1   1 991913. 4809.35   2
  -1  -1  -1 992665. 3822.94   1
   1   1   1 991245. 3676.69   1
  -1  -1  -1 992680. 5542.18   3
  -1   1  -1 997343. 5628.51   1
  -1  -1  -1 992880. 4697.82   2
   1   1   1 994180. 5462.39   3
  -1  -1  -2 97309.2 1669.78   3
   1  -1   2 95011.9 1916.84   1
  -1   1  -2 94911.7 1890.45   1
  -1   1  -2 96451.2 1851.34   3
   1   1   2 95541.0 1626.18   3
  -1  -1  -2 95600.7 1338.41   1
  -1  -1  -2 95111.5 1683.50   2
   1   1   2 95788.0 1787.30   2
  -1  -1  -3 25444.5 818.227   1
   1   1   3 25837.5 823.239   3
   1   1   3 26493.6 1063.82   2
  -1   1  -3 26488.2 989.529   3
  -1   1  -3 24519.9 1047.64   1
  -1  -1  -3 27122.2 1009.78   2
   1   1   4 1102.17 174.385   3
  -1   1  -4 1098.28 219.955   3
  -1  -1  -4 1649.75 239.192   1
  -1  -1  -4 833.077 206.773   2
  -1   1  -4 1446.41 290.453   1
   1   1   4 1377.70 325.116   2
  -1  -1  -5 128328. 2373.84   1
   1   1   5 123539. 2792.78   2
   1   1   5 123851. 1718.61   3
  -1   1  -5 125494. 2284.96   3
  -1   1  -5 123331. 2801.62   1
   1   1   6 30619.5 1540.44   2
  -1   1  -6 30467.5 1184.10   3
  -1   1  -6 31283.9 1534.22   1
   1   1   6 30162.7 826.624   3
   1   1   7 19775.7 673.470   3
  -1   1  -7 21460.9 1340.81   1
  -1   1  -7 19952.8 1001.55   3
   1   1   7 21199.2 1335.51   2
   1   1   8 27179.7 798.104   3
   1   1   8 26050.8 1589.36   2
  -1   1  -8 24290.3 1171.96   3
  -1   1  -8 27933.6 1645.96   1
   1  -1   8 25870.2 1172.02   3
   1   1   9 3869.72 666.191   2
   1  -1   9 4555.86 515.934   3
  -1   1  -9 4994.17 739.365   1
   1   1  10 25868.8 1802.84   2
  -1   1 -10 29082.8 1860.90   1
   1  -1  10 25411.7 1239.19   3
  -1   1 -11 37.8979 210.437   1
   1   1  11-75.8714 66.8488   3
   1   1  11-56.6009 79.5697   3
  -1   1 -12 975.696 439.900   1
   1   1  12 1076.04 526.833   2
   1   1  13 4983.82 973.043   2
  -1   1 -13 4535.79 837.706   1
  -1  -1 -13 5925.59 902.192   1
  -1   1 -14 4100.22 800.971   1
   1   1  14 5018.67 1171.62   2
  -1  -1 -14 4931.34 878.322   1
  -1  -1 -15 4722.62 913.388   1
  -1   1 -15 4373.66 919.332   1
   1   1  15 4708.88 1076.02   2
  -1   1 -16-215.873 279.236   1
  -1  -1 -16 2.05227 185.965   1
  -1   1 -17 296.694 257.007   1
  -1  -1 -17 331.036 236.383   1
  -1   1 -18-3.61055 298.942   1
  -1  -1 -18 414.532 222.650   1
  -1  -1 -19 178.198 192.679   1
  -1   2  17 12884.6 1809.19   2
  -1   2  16 13800.8 1768.98   2
  -1  -2  16 13842.3 1412.33   3
  -1   2  15 5793.47 1164.61   2
  -1  -2  15 4762.19 829.883   3
  -1   2  14 1223.12 589.438   2
  -1  -2  14 744.047 350.382   3
  -1   2  13 2154.89 723.715   2
  -1  -2  13 1734.49 518.621   3
  -1   2  12 1219.43 565.958   2
  -1  -2  12 1142.04 427.992   3
  -1   2  11 2690.58 628.669   2
  -1  -2  11 2138.66 501.714   3
  -1   2  10 3647.16 842.607   2
  -1  -2  10 2268.53 524.864   3
  -1   2   9 2308.95 559.874   2
  -1  -2   9 2053.02 450.797   3
  -1  -2   8 7247.19 856.953   3
  -1   2   8 7388.65 934.712   2
  -1  -2   7 2982.57 607.724   3
  -1   2   7 2775.82 572.198   2
  -1   2   6 17600.6 1326.50   2
  -1  -2   6 15574.9 1178.08   3
   1  -2  -5 3502.03 382.045   1
  -1  -2   5 3422.53 549.067   3
  -1  -2   4 21722.4 1310.36   3
  -1   2   4 22963.0 1340.28   2
   1  -2  -4 22106.5 921.377   1
  -1   2   3 2415.44 446.713   2
   1  -2  -3 2172.87 256.760   1
  -1  -2   3 2476.74 455.065   3
  -1   2   2 5208.24 624.430   2
   1  -2  -2 5464.59 373.112   1
  -1  -2   2 6795.12 738.567   3
   1   2  -1 16862.8 803.216   2
   1  -2  -1 19404.3 744.024   1
  -1  -2   1 16761.7 1116.31   3
  -1   2   1 18375.5 726.081   1
   1  -2   0 160.210 132.147   1
   1   2   0 506.024 159.092   2
  -1   2   0 596.175 181.611   1
  -1   2  -1 7556.98 552.770   1
   1   2   1 8723.06 659.881   2
   1   2   2 182606. 3096.00   2
  -1   2  -2 193703. 3085.15   1
  -1  -2  -3 215434. 3529.29   2
  -1   2  -3 214939. 3434.38   1
   1   2   3 210856. 3504.99   2
   1   2   4 91149.7 2466.34   2
  -1   2  -4 90303.6 2356.49   1
  -1  -2  -5 4440.91 391.781   1
   1   2   5 5300.86 652.398   2
  -1   2  -5 4895.20 587.744   1
  -1   2  -6 8636.28 820.894   1
  -1  -2  -6 9400.87 654.352   1
   1   2   6 8965.27 892.723   2
  -1   2  -7 1718.17 388.657   1
  -1  -2  -7 1604.25 304.759   1
   1   2   7 984.279 344.349   2
  -1  -2  -8 322.099 140.954   1
  -1   2  -8-43.5752 217.611   1
   1   2   9 306.952 301.576   2
  -1   2  -9 1085.52 365.220   1
   1   2   9 1140.83 288.301   3
  -1  -2  -9 506.104 204.473   1
   1   2  10 899.766 392.401   2
  -1  -2 -10 1074.56 302.164   1
  -1   2 -10 1439.03 442.032   1
   1   2  11 663.836 392.770   2
  -1  -2 -11-30.2333 226.659   1
  -1   2 -11 432.103 237.350   1
  -1  -2 -12 5864.83 850.143   1
   1   2  12 7030.36 1108.59   2
  -1   2 -12 7567.72 1086.44   1
   1   2  13-221.047 480.581   2
  -1   2 -13 526.312 208.197   1
  -1   2 -14 56.2951 202.989   1
   1   2  14 869.890 562.625   2
  -1  -2 -14 359.523 251.166   1
   1   2  15 175.409 437.420   2
  -1  -2 -15 681.101 385.280   1
  -1   2 -15-60.6646 252.717   1
   1   2  16 1375.50 630.433   2
  -1  -2 -16 870.811 437.823   1
  -1   2 -16 680.499 446.506   1
   1   2  17-727.046 657.420   2
  -1   2 -17 176.539 331.399   1
  -1  -2 -17-262.341 355.522   1
   1   3 -16 129.161 341.241   1
  -1  -3  16 580.078 366.729   3
  -1  -3  15 1.60126 455.983   3
   1   3 -15 55.9632 165.665   1
  -1   3  15 404.229 500.653   2
   1   3 -14-325.549 362.430   1
  -1  -3  14 351.150 321.081   3
  -1   3  14 301.393 383.611   2
  -1  -3  13-78.3157 252.240   3
  -1   3  13-43.6038 320.292   2
  -1   3  12-225.232 346.002   2
  -1  -3  12-375.696 393.873   3
  -1   3  11 9421.28 1338.45   2
  -1  -3  11 6915.91 1074.05   3
  -1  -3  10 3085.95 726.161   3
  -1   3  10 5007.53 966.849   2
  -1   3   9 3317.85 763.985   2
  -1  -3   9 3361.25 715.442   3
  -1  -3   8 1122.85 435.318   3
  -1   3   8 1466.46 516.424   2
  -1   3   7 2901.43 644.349   2
  -1  -3   7 3542.79 725.795   3
  -1  -3   6 595.162 304.366   3
  -1   3   6 792.890 377.740   2
   1   3  -6 289.197 170.940   1
  -1  -3   5 803.230 350.023   3
   1   3  -5 1092.84 267.728   1
   1   3  -4 11317.0 731.433   1
  -1   3   4 12527.3 1156.04   2
  -1  -3   4 11864.2 1220.34   3
   1   3  -3 28320.4 1011.08   1
  -1   3   3 31599.0 1752.35   2
   1   3  -2 255.560 139.134   2
   1   3  -2 165.611 61.8913   1
   1   3  -1 4412.43 553.197   2
  -1   3   1 5414.96 692.152   2
  -1   3   0 291.721 132.285   1
  -1   3   0 428.000 236.692   2
   1   3   0 146.084 112.069   2
   1   3   1 1456.23 370.762   2
  -1   3  -1 1523.24 295.879   1
  -1   3  -2 8690.48 706.269   1
   1   3   2 9908.27 893.018   2
   1   3   3 2021.73 456.083   2
  -1   3  -3 1829.80 351.112   1
   1   3   4 16317.4 1250.12   2
  -1   3  -4 15503.1 1068.84   1
   1   3   5 12251.6 1148.96   2
  -1   3  -5 11945.8 998.206   1
   1   3   6 19506.6 1459.77   2
  -1   3  -6 18819.0 1291.93   1
   1   3   7 249.324 314.426   2
  -1   3  -7 138.823 163.825   1
  -1   3  -8-278.029 257.499   1
   1   3   8 85.2075 336.365   2
  -1   3  -9 1795.04 482.508   1
   1   3   9 1993.22 511.611   2
  -1   3 -10 2014.14 538.064   1
   1   3  10 1917.06 570.514   2
  -1   3 -11 1273.32 425.451   1
   1   3  11 1064.66 543.136   2
  -1   3 -12 336.926 314.816   1
   1   3  12 761.948 389.568   2
  -1   3 -13-220.819 306.557   1
   1   3  13 651.300 498.668   2
  -1   3 -14-47.2302 232.542   1
   1   3  14 164.507 385.506   2
  -1   3 -15 266.360 225.448   1
   1   3  15-734.122 694.192   2
  -1   4  12 1700.84 680.081   2
  -1   4  11-225.057 276.041   2
  -1   4  10 885.935 339.017   2
  -1   4   9 3000.65 751.517   2
  -1   4   8-192.021 291.538   2
  -1   4   7 357.855 291.530   2
  -1   4   6 182.128 250.351   2
  -1   4   5 4511.18 781.708   2
  -1   4   4 4291.88 742.739   2
  -1   4   3 1053.24 379.045   2
  -1   4   2 7726.16 934.156   2
  -1   4   1 6022.04 822.014   2
  -1   4   0 239.440 285.515   2
  -1   4  -1-126.541 140.199   2
  -1   4  -2 246.669 274.535   2
   1   4   4-86.2811 286.827   2
   1   4   5 4325.07 783.867   2
   1   4   6 151.165 350.535   2
   1   4   7 941.946 500.820   2
   1   4   8 158.802 403.060   2
   1   4   9-217.945 281.893   2
   1   4  10-1214.49 570.220   2
   1   4  11 1014.08 559.220   2
   1   4  12 292.024 395.953   2
   1   4  13-1120.65 635.340   2
  -2   0  19-325.956 479.575   2
  -2   0  18 4813.93 1090.44   2
  -2   0  17-473.491 574.007   2
  -2   0  16-10.5347 288.773   3
  -2   0  16 521.626 318.526   2
  -2   0  15-789.532 549.172   2
  -2   0  15-281.371 434.614   3
  -2   0  14 212331. 5526.10   2
  -2   0  14 219565. 4906.53   3
  -2   0  13-141.982 363.464   3
  -2   0  13 649.055 436.367   2
  -2   0  12 73894.5 2926.52   2
  -2   0  11 260.718 262.133   2
  -2   0  10 30599.1 1707.86   2
  -2   0   9-227.349 286.574   2
  -2   0   8 541.715 255.886   2
  -2   0   7-148.375 213.749   2
   2   0  -6 3409.20 416.913   2
  -2   0   6 3237.42 410.164   2
  -2   0   5-34.9071 142.093   2
   2   0  -5 123.296 85.0183   2
  -2   0   4 76464.3 1632.68   2
   2   0  -4 77910.7 1680.03   2
  -2   0   3 1586.31 370.177   2
   2   0  -2 113706. 2091.56   1
  -2   0   1 30.9591 137.650   1
   2   0  -1 412.318 212.992   1
   2   0   0 157242. 2474.36   1
  -2   0   0 157832. 2496.82   1
   2   0   1 146.781 129.756   1
  -2   0  -1-29.3585 95.8556   1
  -2   0  -2 75458.2 1851.33   1
   2   0   2 79230.4 1916.23   1
   2   0   3-105.281 124.577   1
  -2   0  -3-138.769 140.150   1
   2   0   4 29741.2 1351.82   1
  -2   0  -4 30734.6 1307.81   1
  -2   0  -5-60.6011 121.089   1
  -2   0  -6 20038.4 1204.98   1
  -2   0  -7 108.982 150.766   1
  -2   0  -8 4645.08 673.463   1
  -2   0  -9 177.808 210.810   1
  -2   0 -10 697.712 283.086   1
  -2   0 -11 40.4809 170.362   1
  -2   0 -12 89.0583 154.700   1
  -2   0 -13 117.799 222.606   1
  -2   0 -14 17236.4 1662.91   1
  -2   0 -15-329.685 423.890   1
  -2   0 -16 3507.85 801.073   1
  -2   0 -17 455.126 401.139   1
  -2   0 -18 279.764 231.990   1
  -2   1  19 6588.09 1265.30   2
  -2   1  18 663.316 523.519   2
  -2   1  17 397.552 395.862   2
  -2  -1  17 715.916 305.190   3
  -2   1  16 19545.3 1932.71   2
  -2  -1  16 18249.5 1464.99   3
  -2   1  15 10256.4 1362.68   2
  -2  -1  15 11528.0 1173.13   3
  -2  -1  14 4666.24 794.751   3
  -2   1  14 4898.88 943.191   2
  -2  -1  13 11891.3 1155.89   3
  -2   1  13 14280.4 1516.95   2
  -2   1  12 43711.1 2396.97   2
  -2  -1  12 41269.8 2060.00   3
  -2  -1  11 29985.2 1733.76   3
  -2   1  11 33460.6 2014.68   2
  -2   1  10 11411.1 1153.22   2
  -2  -1  10 11872.4 1053.16   3
  -2  -1  10 10718.2 1010.10   2
  -2   1   9 10094.3 1006.88   2
  -2  -1   9 11648.6 945.454   2
  -2  -1   9 11041.8 1006.22   3
  -2   1   8 9692.30 957.906   2
   2   1  -8 9640.88 732.405   2
  -2  -1   8 10284.2 923.184   3
  -2  -1   8 9944.61 799.289   2
  -2  -1   7 32433.0 1306.02   2
   2   1  -7 31724.9 1218.30   2
  -2  -1   7 29810.8 1543.95   3
  -2   1   7 34558.0 1780.02   2
  -2  -1   6 49495.0 1456.86   2
  -2  -1   6 51597.9 1945.44   3
   2   1  -6 51108.7 1393.84   2
  -2  -1   5 25904.4 1339.24   3
  -2   1   5 25498.8 1299.58   2
   2   1  -5 26926.4 872.116   2
  -2   1   4 235.798 156.211   2
   2  -1  -4 413.055 134.263   1
   2   1  -4 571.226 113.549   2
  -2   1   3 4573.79 519.972   2
  -2  -1   3 6357.48 653.487   3
   2  -1  -3 5168.54 516.692   1
   2   1  -3 6303.42 616.139   3
  -2   1   2 3556.01 407.630   1
  -2  -1   2 3866.78 501.468   3
   2  -1  -2 4371.97 479.989   1
   2   1  -2 3711.61 379.952   1
   2   1  -2 4762.02 528.786   3
  -2  -1   1 8320.67 643.502   3
   2   1  -1 8148.27 513.711   1
   2  -1  -1 8587.78 633.121   1
   2   1  -1 8536.40 642.524   3
  -2   1   1 7551.00 588.924   1
  -2  -1   0 5442.46 497.668   3
  -2  -1   0 5888.67 305.470   2
   2  -1   0 5550.72 499.580   1
  -2   1   0 4947.83 496.573   1
  -2  -1   0 5738.07 447.515   1
   2   1   0 5421.73 410.090   1
   2   1   0 6249.04 517.644   3
   2   1   1 46925.6 1371.13   3
   2  -1   1 44948.1 1477.19   1
  -2  -1  -1 44444.0 1050.59   2
   2   1   1 43352.3 1189.10   1
  -2   1  -1 42578.3 1455.83   1
  -2  -1  -1 44212.4 1275.82   3
  -2  -1  -1 44757.8 1234.16   1
  -2  -1  -2 6300.78 462.587   2
   2  -1   2 6705.05 599.510   1
   2   1   2 6865.32 511.734   1
   2   1   2 5779.06 463.983   2
  -2  -1  -2 6014.70 454.319   1
  -2   1  -2 6363.80 595.481   1
   2   1   2 7179.93 515.719   3
  -2  -1  -2 6362.16 450.426   3
  -2  -1  -3 7506.03 560.803   1
   2   1   3 8198.59 622.911   2
  -2  -1  -3 8751.36 515.981   3
   2   1   3 8539.13 636.169   1
  -2   1  -3 7694.14 703.878   1
   2   1   3 8317.65 535.137   3
  -2  -1  -3 8123.92 602.164   2
   2   1   4 518.064 206.111   3
   2   1   4-179.561 385.204   2
  -2   1  -4 169.939 124.284   1
  -2  -1  -4 136.287 88.6659   3
  -2   1  -4-7.78365 107.507   3
  -2  -1  -4 106.201 137.932   1
  -2   1  -5 44898.2 1827.34   1
  -2  -1  -5 43789.4 1554.76   1
   2   1   5 44672.3 1079.32   3
  -2   1  -5 44580.7 1375.23   3
   2   1   5 44266.7 1771.51   2
  -2   1  -6 951.344 219.042   3
  -2  -1  -6 753.178 196.500   1
   2   1   6 745.253 245.921   2
  -2   1  -6 1141.01 313.996   1
   2   1   7 37988.3 1922.97   2
  -2  -1  -7 38435.1 1674.71   1
  -2   1  -7 39712.2 1937.87   1
  -2   1  -7 37266.3 1328.85   3
   2   1   8 13362.5 1219.72   2
  -2   1  -8 13754.5 1203.13   1
  -2  -1  -8 12694.0 1019.30   1
  -2   1  -8 12761.0 815.719   3
  -2   1  -9 35053.1 1400.59   3
  -2  -1  -9 34879.2 1813.54   1
  -2   1  -9 37257.4 2112.01   1
   2   1   9 37044.0 2138.49   2
  -2  -1 -10 44.1458 156.518   1
  -2   1 -10-275.579 337.366   1
  -2   1 -11 304.563 248.433   1
  -2  -1 -11-59.8931 193.481   1
  -2  -1 -12 8737.00 1075.49   1
  -2   1 -12 9093.08 1183.24   1
  -2   1 -13 25.3224 233.949   1
  -2  -1 -13 76.1630 242.212   1
  -2   1 -14 292.509 172.935   1
  -2  -1 -14-240.992 258.211   1
  -2   1 -15-215.432 262.334   1
  -2  -1 -15-317.152 192.666   1
  -2   1 -16 2789.22 725.669   1
  -2  -1 -16 2258.75 674.144   1
  -2  -1 -17 4604.65 1028.94   1
  -2   1 -17 4383.03 986.837   1
  -2  -1 -18-828.615 479.358   1
  -2   2  17 6481.65 1346.44   2
  -2  -2  17 4927.68 899.252   3
  -2  -2  16 271.316 308.774   3
  -2   2  16 239.118 371.636   2
  -2   2  15 254.462 420.107   2
  -2  -2  15 492.617 296.751   3
  -2  -2  14 1629.02 525.597   3
  -2   2  14 1041.16 401.481   2
  -2   2  13 2737.70 774.491   2
  -2  -2  13 740.421 284.580   3
  -2   2  12 202.292 347.664   2
  -2  -2  12 155.349 299.054   3
  -2  -2  11 1018.07 360.674   3
  -2   2  11 2186.86 649.586   2
  -2  -2  10 4374.59 698.022   3
  -2   2  10 5121.90 897.230   2
  -2  -2   9 40926.3 2104.54   3
  -2   2   9 41474.5 2308.11   2
   2   2  -8 1061.04 266.666   2
  -2   2   8 1518.41 474.559   2
  -2  -2   8 1824.19 501.772   3
   2   2  -7 159.339 101.599   2
  -2  -2   7-236.851 297.872   3
  -2   2   7 285.828 222.502   2
  -2   2   6 8327.44 923.495   2
   2  -2  -6 8045.68 717.750   1
  -2  -2   6 9515.09 947.940   3
   2   2  -6 7133.83 528.969   2
   2  -2  -5 1250.81 269.582   1
  -2   2   5 1008.50 347.908   2
  -2  -2   5 522.874 217.600   3
   2   2  -5 730.823 161.975   2
  -2   2   4 23257.8 1411.27   2
   2  -2  -4 26592.8 1231.14   1
  -2  -2   4 23436.0 1444.89   3
  -2  -2   3 4204.29 610.499   3
   2   2  -3 3862.96 297.405   2
  -2   2   3 4458.36 642.607   2
   2  -2  -3 5277.41 516.922   1
  -2   2   2 39146.4 1363.31   1
   2   2  -2 37364.9 838.842   2
   2  -2  -2 39041.3 1327.25   1
   2   2  -2 37746.3 1095.58   1
  -2  -2   2 36135.4 1711.57   3
   2   2  -1 26042.9 746.855   2
   2  -2  -1 26817.8 1120.75   1
   2   2  -1 26150.4 852.277   1
  -2   2   1 26536.4 1181.85   1
  -2  -2   1 26682.9 1445.75   3
  -2  -2   0 16665.1 1119.97   3
   2   2   0 16525.4 686.736   2
   2  -2   0 16658.4 914.214   1
   2   2   0 13963.4 572.628   1
  -2   2   0 16144.4 978.476   1
   2   2   1 55252.7 1066.17   1
  -2  -2  -1 60539.0 2086.16   3
  -2  -2  -1 57714.7 1520.28   2
   2  -2   1 60642.2 1841.38   1
   2   2   1 60861.9 1515.72   2
  -2   2  -1 64458.1 1975.76   1
  -2  -2  -2 101796. 2220.17   2
  -2   2  -2 107643. 2643.99   1
   2   2   2 107091. 2252.87   2
  -2  -2  -2 103539. 1560.13   1
  -2  -2  -2 99048.4 2674.56   3
  -2   2  -3 970.774 291.486   1
  -2  -2  -3 769.183 148.862   1
  -2  -2  -3 782.137 221.735   2
   2   2   3 818.969 241.908   2
  -2   2  -4 1695.56 407.611   1
   2   2   4 1348.89 331.564   2
  -2  -2  -4 1478.59 226.179   1
   2   2   5 318.119 277.685   2
  -2   2  -5 178.552 129.467   1
  -2  -2  -5 437.089 151.052   1
   2   2   6 958.540 251.358   3
   2   2   6 1483.48 387.401   2
  -2   2  -6 1509.02 390.581   1
  -2  -2  -6 1001.28 248.636   1
   2   2   7 462.112 160.122   3
  -2  -2  -7 620.843 230.100   1
  -2   2  -7 440.296 268.497   1
  -2   2  -8 1807.40 451.220   1
  -2  -2  -8 2049.66 407.422   1
   2   2   8 969.627 234.606   3
   2   2   9 7432.28 989.235   2
  -2   2  -9 7246.70 956.448   1
  -2  -2  -9 7291.17 809.354   1
  -2  -2 -10 23382.4 1533.83   1
   2   2  10 24225.1 1832.68   2
  -2   2 -10 24688.1 1851.77   1
   2   2  11 4145.76 834.099   2
  -2   2 -11 6145.93 939.704   1
  -2  -2 -11 5412.55 774.669   1
  -2  -2 -12-323.409 326.474   1
   2   2  12 187.776 390.117   2
  -2   2 -12-99.5803 267.622   1
  -2  -2 -13 1024.69 429.236   1
  -2   2 -13 1232.29 472.910   1
   2   2  13 987.708 602.417   2
  -2  -2 -14 1142.11 442.314   1
   2   2  14 2076.33 733.784   2
  -2   2 -14 1761.95 596.942   1
  -2   2 -15-29.4526 248.822   1
  -2  -2 -15 501.139 280.273   1
   2   2  15 240.524 579.404   2
  -2  -2 -16-38.6479 286.661   1
  -2   2 -16-260.361 428.934   1
  -2  -3  17 743.352 532.495   3
  -2  -3  16 344.220 277.534   3
  -2  -3  15 918.263 562.424   3
  -2   3  15-333.573 481.722   2
  -2   3  14 774.193 503.638   2
  -2  -3  14 382.637 263.128   3
  -2   3  13 340.456 515.899   2
  -2  -3  13-52.1954 417.160   3
  -2   3  12 2681.20 752.504   2
  -2  -3  12 2816.66 750.570   3
  -2   3  11 1993.10 618.897   2
  -2  -3  11 2223.47 618.689   3
  -2  -3  10 527.805 277.474   3
  -2   3  10 414.797 314.090   2
  -2   3   9 836.355 449.904   2
  -2  -3   9 534.920 397.837   3
  -2   3   8 963.638 365.576   2
  -2  -3   8 153.289 264.230   3
  -2   3   7 749.395 329.056   2
  -2  -3   7 878.547 381.441   3
  -2   3   6 1072.90 412.906   2
  -2  -3   6 499.240 274.647   3
  -2   3   5 1267.65 427.506   2
  -2  -3   5 1240.89 359.803   3
   2   3  -4 3504.63 368.061   2
  -2  -3   4 2997.33 676.710   3
  -2   3   4 2955.64 582.392   2
  -2   3   3 17957.2 1369.59   2
   2   3  -3 18902.7 909.485   2
   2  -3  -3 19095.4 943.224   1
  -2  -3   3 16531.1 1478.20   3
   2   3  -2 21403.8 978.910   2
   2  -3  -2 22836.0 1097.77   1
  -2   3   2 20467.3 1488.42   2
  -2   3   1 4654.04 744.074   2
   2  -3  -1 5260.98 571.165   1
   2   3  -1 5068.82 499.995   2
  -2   3   1 4671.40 561.468   1
  -2  -3   1 4256.10 760.927   3
   2   3   0 3282.44 410.075   2
  -2   3   0 2977.81 488.418   1
  -2   3  -1-51.2459 113.586   1
   2   3   1 60.1565 121.965   2
   2   3   2 11270.5 868.722   2
  -2   3  -2 9741.49 882.971   1
   2   3   3 48830.1 1881.67   2
  -2   3  -3 53211.1 2113.94   1
   2   3   4 34231.2 1704.04   2
  -2   3  -4 33537.6 1743.85   1
   2   3   5 68625.0 2517.73   2
  -2   3  -5 68332.1 2591.42   1
   2   3   6 5420.41 780.676   2
  -2   3  -6 5878.22 821.533   1
   2   3   7 0.64593 278.066   2
  -2   3  -7-215.039 246.045   1
   2   3   8 279.680 308.313   2
  -2   3  -8-92.0448 202.283   1
  -2   3  -9 1027.70 396.549   1
   2   3   9 439.839 251.867   2
  -2   3 -10 249.843 222.859   1
   2   3  10-231.472 362.183   2
  -2   3 -11-152.882 366.969   1
   2   3  11-737.348 437.045   2
   2   3  12 5337.97 1025.39   2
  -2   3 -12 3669.84 796.961   1
  -2   3 -13 435.640 277.884   1
   2   3  13 392.745 413.422   2
   2   3  14-593.928 656.185   2
  -2   3 -14-206.397 451.490   1
   2   3  15-318.187 465.469   2
  -2  -4  12-789.739 608.476   3
  -2   4  12 678.071 576.740   2
  -2   4  11 241.884 395.038   2
  -2  -4  11-309.607 390.193   3
  -2  -4  10 700.382 346.891   3
  -2   4  10-252.525 540.824   2
  -2   4   9-397.343 405.955   2
  -2   4   8 93.1602 241.833   2
  -2   4   7 95.9527 291.062   2
  -2   4   6 1456.97 478.551   2
  -2   4   5 1597.85 446.609   2
  -2   4   4 4670.77 788.256   2
  -2   4   3 2418.00 589.061   2
  -2   4   2 3586.47 734.705   2
  -2   4   1 569.566 283.502   2
  -2   4   0 750.903 375.446   2
  -2   4  -1 206.342 247.238   2
  -2   5   6-154.747 388.152   2
  -3   0  20 4201.94 1004.90   2
  -3   0  19 887.724 620.687   2
  -3   0  18 4890.58 1047.93   2
  -3   0  18 4088.99 797.867   3
  -3   0  17-81.1821 335.786   2
  -3   0  17 90.4438 395.265   3
  -3   0  16-310.822 445.018   2
  -3   0  16 716.589 512.536   3
  -3   0  15 967.558 540.927   2
  -3   0  15 380.564 459.833   3
  -3   0  14 17626.2 1641.57   2
  -3   0  13-94.6921 268.304   2
  -3   0  12 2261.72 584.198   2
  -3   0  11-209.145 243.123   2
  -3   0  10 8487.98 881.167   2
  -3   0   9-97.3966 226.460   2
  -3   0   8 78608.1 2355.28   2
  -3   0   7 1383.08 328.416   2
   3   0  -6 291437. 3970.05   2
  -3   0   6 285562. 3930.69   2
  -3   0   5 261.718 269.731   2
  -3   0   4 28757.9 1122.68   2
   3   0  -3 18.0162 131.986   1
   3   0  -2 92827.7 2349.28   1
  -3   0   2 89976.1 2314.12   1
  -3   0   1 108.454 161.026   1
   3   0  -1-95.9120 139.571   1
   3   0   0 24517.6 1182.04   1
  -3   0   0 25669.0 1244.54   1
  -3   0  -1-110.845 169.344   1
   3   0   1 60.5198 133.344   1
  -3   0  -2 293548. 4278.55   1
  -3   0  -3 1023.04 275.317   1
  -3   0  -4 2872.57 493.731   1
  -3   0  -5-146.827 160.711   1
  -3   0  -6 46669.4 2032.22   1
  -3   0  -6 46811.8 842.136   3
  -3   0  -7-23.4797 175.645   1
  -3   0  -8 4962.37 736.493   1
  -3   0  -9 26.6648 214.485   1
  -3   0 -10 4341.10 767.401   1
  -3   0 -11-46.9551 211.581   1
  -3   0 -12 1705.17 548.100   1
  -3   0 -13-8.83139 280.809   1
  -3   0 -14 470.778 271.726   1
  -3   0 -15-257.055 281.041   1
  -3   0 -16 2864.22 723.293   1
  -3   0 -17 293.301 418.104   1
  -3   1  19-203.165 593.565   2
  -3   1  18 102.076 481.651   2
  -3  -1  18 1060.73 454.035   3
  -3   1  17 3134.22 844.488   2
  -3  -1  17 3069.08 702.277   3
  -3  -1  16 1138.41 495.744   3
  -3   1  16-129.085 364.728   2
  -3  -1  15 1183.40 531.370   3
  -3   1  15 1995.06 695.330   2
  -3   1  14 12190.6 1417.31   2
  -3  -1  14 13458.0 1322.36   2
  -3  -1  14 10726.0 1216.02   3
  -3   1  13 49234.8 2720.44   2
  -3  -1  13 53833.9 2563.65   2
  -3  -1  13 48796.1 2497.89   3
  -3   1  12 17144.2 1535.35   2
  -3  -1  12 19400.0 1558.26   3
  -3  -1  12 18019.5 1446.36   2
  -3  -1  11 26609.0 1804.99   3
  -3   1  11 26069.0 1813.80   2
  -3  -1  11 26245.2 1571.58   2
  -3  -1  10 1482.93 568.909   3
  -3  -1  10 1366.37 332.678   2
  -3   1  10 878.015 344.503   2
  -3   1   9 33335.8 1861.89   2
  -3  -1   9 32667.7 1497.19   2
  -3  -1   9 34319.3 1942.37   3
   3   1  -8 12672.1 788.974   2
  -3   1   8 13743.1 1134.54   2
  -3  -1   8 12880.7 1182.04   3
  -3  -1   8 13569.1 862.979   2
   3   1  -7 12210.5 687.435   2
  -3   1   7 12468.2 1062.46   2
  -3  -1   7 12324.7 743.445   2
  -3  -1   7 13123.0 1178.55   3
  -3  -1   6 7126.08 854.104   3
   3   1  -6 8529.68 518.675   2
  -3  -1   6 7960.16 524.146   2
  -3   1   6 8107.17 804.298   2
  -3  -1   5 2368.01 502.139   3
  -3  -1   5 2568.18 280.176   2
  -3   1   5 2372.14 426.157   2
  -3   1   4 83604.7 2369.92   2
  -3  -1   4 79547.5 1150.25   2
  -3  -1   4 83222.4 2541.16   3
  -3   1   3 988.638 334.969   1
   3   1  -3 301.731 143.107   1
   3   1  -2-70.5080 104.635   1
  -3   1   2 69.1773 153.870   1
  -3  -1   1 64130.2 1098.02   2
   3   1  -1 66302.7 1816.37   1
  -3   1   1 64026.4 2063.16   1
  -3  -1   1 67194.9 1896.38   1
  -3  -1   1 64735.5 1951.66   3
  -3  -1   0 98076.6 1604.15   2
   3   1   0 96887.5 2195.41   1
  -3   1   0 97085.7 2571.89   1
  -3  -1   0 96967.1 2269.25   1
  -3  -1   0 98912.7 2286.47   3
  -3  -1  -1 129193. 2491.99   3
  -3  -1  -1 133814. 2146.90   2
   3   1   1 132827. 2620.27   1
  -3   1  -1 125129. 2978.80   1
  -3  -1  -1 129492. 2638.51   1
   3   1   2 5528.21 555.444   1
  -3  -1  -2 6112.58 545.642   2
  -3   1  -2 5449.95 653.073   1
  -3  -1  -2 6382.72 508.080   3
  -3  -1  -2 4501.57 508.021   1
  -3  -1  -3 2588.59 350.543   3
  -3  -1  -3 2758.21 569.905   2
  -3   1  -3 760.964 274.057   1
  -3  -1  -3 924.404 288.958   1
  -3  -1  -4 4072.88 362.897   3
  -3   1  -4 3688.68 585.934   1
  -3  -1  -4 2886.69 446.125   1
  -3   1  -5 2079.03 417.538   1
  -3  -1  -5 1326.66 309.847   1
  -3  -1  -5 1670.99 216.289   3
  -3   1  -6 135.719 116.022   3
  -3   1  -6 128.655 164.629   1
  -3  -1  -6 132.741 133.687   1
  -3   1  -7 6852.59 583.232   3
  -3   1  -7 7431.52 896.293   1
  -3  -1  -7 7449.54 812.230   1
  -3   1  -8 3496.87 620.560   1
  -3  -1  -8 2797.07 512.111   1
  -3   1  -8 3404.99 421.710   3
  -3   1  -9 4362.74 768.738   1
  -3  -1  -9 4490.78 680.793   1
  -3   1 -10 848.198 419.173   1
  -3  -1 -10 1135.84 319.336   1
  -3   1 -11 3892.64 770.136   1
  -3  -1 -11 3329.90 651.770   1
  -3   1 -12 90.6106 285.022   1
  -3  -1 -12 256.071 233.392   1
  -3   1 -13 38.1312 206.110   1
  -3  -1 -13-63.9377 259.430   1
  -3   1 -14 6251.57 1076.07   1
  -3  -1 -14 5794.53 1015.85   1
  -3   1 -15 89.4067 250.312   1
  -3  -1 -15 355.331 283.101   1
  -3   1 -16 521.942 385.989   1
  -3  -1 -16 1236.67 550.867   1
  -3  -1 -17 61.1986 239.893   1
  -3  -2  18 1624.83 495.218   3
  -3  -2  17-15.1595 375.646   3
  -3   2  17 514.810 463.311   2
  -3  -2  16 1395.66 471.264   3
  -3   2  16 2507.32 858.466   2
  -3  -2  15 1155.41 474.162   3
  -3   2  15 933.631 558.039   2
  -3  -2  14 1044.81 408.183   3
  -3   2  14 864.354 523.678   2
  -3  -2  13 154.741 269.695   3
  -3   2  13-416.017 402.880   2
  -3   2  12 17745.5 1733.80   2
  -3  -2  12 15455.2 1491.26   3
  -3   2  11 51880.7 2798.81   2
  -3  -2  11 45232.0 2466.19   3
  -3  -2  10 40069.7 2268.70   3
  -3   2  10 41326.0 2411.43   2
  -3   2   9 9103.93 1098.01   2
  -3  -2   9 9022.65 1076.51   3
  -3  -2   8-55.5622 351.917   3
  -3   2   8 739.674 389.876   2
   3   2  -8 927.359 186.371   2
  -3  -2   7 1323.65 420.673   3
  -3   2   7 1151.94 399.024   2
   3   2  -7 1379.42 193.311   2
  -3  -2   6 626.238 282.243   3
  -3   2   6 581.294 317.387   2
   3   2  -6 636.502 103.364   2
  -3  -2   5 2957.21 584.000   3
  -3   2   5 994.598 341.168   2
  -3  -2   4 963.200 370.378   3
  -3   2   4 944.144 320.759   2
  -3  -2   3 4634.95 693.764   3
  -3   2   3 5167.76 727.033   2
   3   2  -3 5110.13 503.190   1
   3   2  -2 51889.1 1562.85   1
  -3   2   2 51950.2 1920.34   1
  -3  -2   2 50269.6 2095.65   3
  -3  -2   1 4286.73 620.745   3
   3   2  -1 4929.44 478.991   1
  -3   2   1 5451.59 635.601   1
   3   2   0 13577.4 771.183   1
  -3   2   0 13261.8 1033.93   1
  -3  -2   0 12326.0 998.931   3
  -3   2  -1 1829.47 447.465   1
   3   2   1 2286.96 320.590   1
  -3  -2  -1 1540.35 257.885   2
  -3  -2  -1 1948.88 427.307   3
  -3  -2  -2 11495.3 961.474   3
  -3  -2  -2 11458.0 734.687   2
   3   2   2 12570.3 767.653   1
   3   2   2 12598.5 804.579   2
  -3   2  -2 12356.7 1045.47   1
  -3  -2  -2 12423.0 730.296   1
  -3  -2  -3 970.667 318.051   3
   3   2   3 620.119 253.513   2
   3   2   3 703.415 218.360   1
  -3  -2  -3 635.736 180.762   1
  -3  -2  -3 469.271 187.443   2
  -3   2  -3 479.310 200.822   1
  -3  -2  -4 1511.43 295.692   1
   3   2   4 1510.80 339.507   2
  -3   2  -4 1728.27 427.854   1
  -3  -2  -4 954.658 276.008   3
  -3   2  -5 8098.37 917.701   1
   3   2   5 8402.13 881.389   2
  -3  -2  -5 7984.44 705.022   1
  -3   2  -6 86615.1 3091.08   1
   3   2   6 92623.5 3020.29   2
  -3  -2  -6 92912.4 2609.58   1
  -3   2  -7 38794.7 2145.86   1
   3   2   7 43303.8 2233.71   2
  -3  -2  -7 43923.5 1956.80   1
   3   2   8 611.864 450.214   2
  -3   2  -8 1021.68 400.255   1
  -3  -2  -8 804.190 286.233   1
   3   2   9 1224.35 404.612   2
  -3   2  -9 570.588 343.636   1
  -3  -2  -9 1211.47 401.153   1
  -3   2 -10 8416.04 1132.38   1
  -3  -2 -10 8592.26 1013.54   1
   3   2  10 8786.99 1214.50   2
  -3   2 -11 100.483 165.094   1
  -3  -2 -11-473.327 370.169   1
  -3   2 -12 878.376 352.620   1
  -3  -2 -12 880.824 369.430   1
  -3   2 -13-8.14159 234.513   1
  -3  -2 -13-275.997 315.427   1
  -3   2 -14 129.656 209.451   1
  -3  -2 -14-24.8940 143.433   1
  -3   2 -15-540.320 450.885   1
  -3  -2 -15-361.216 341.315   1
  -3  -3  17 2934.81 714.496   3
  -3  -3  16 211.827 351.255   3
  -3  -3  15 2071.60 664.212   3
  -3   3  15 2668.86 928.694   2
  -3  -3  14-29.2749 383.691   3
  -3   3  14 43.6485 327.312   2
  -3  -3  13 63.4908 258.392   3
  -3   3  13-239.182 460.905   2
  -3  -3  12 2001.97 624.740   3
  -3   3  12 2548.10 728.590   2
  -3  -3  11 156.275 302.170   3
  -3   3  11-268.565 409.453   2
  -3  -3  10 2036.33 620.259   3
  -3   3  10 3096.93 758.696   2
  -3  -3   9 4430.59 869.232   3
  -3   3   9 6012.56 959.223   2
  -3   3   8 15822.5 1573.95   2
  -3  -3   8 15004.7 1552.63   3
  -3  -3   7 2304.31 647.296   3
  -3   3   7 1715.28 541.353   2
  -3  -3   6-56.2119 266.782   3
  -3   3   6 172.304 299.757   2
  -3  -3   5 754.353 374.450   3
  -3   3   5 1220.30 441.803   2
  -3  -3   4 3042.45 688.878   3
  -3   3   4 3742.23 726.315   2
  -3   3   3 1117.84 446.025   2
  -3  -3   3 1848.65 515.900   3
  -3  -3   2-220.575 260.428   3
  -3   3   2 23.4704 239.228   2
  -3   3   1 314.166 219.829   1
  -3  -3   1-88.2570 196.550   3
  -3  -3   0 521.304 330.377   3
  -3   3   0-47.3059 176.536   1
   3   3   1 919.228 211.524   2
  -3   3  -1 1527.05 394.381   1
  -3  -3  -1 957.505 386.023   3
   3   3   2 1553.87 313.363   2
  -3   3  -2 1476.17 419.447   1
   3   3   3 29936.8 1441.33   2
  -3   3  -3 32382.5 1861.47   1
   3   3   4 39348.7 1770.66   2
  -3   3  -4 43935.9 2213.47   1
   3   3   5 23315.1 1460.51   2
  -3   3  -5 23989.6 1658.79   1
   3   3   6 7584.67 911.983   2
  -3   3  -6 8126.57 998.858   1
   3   3   7-370.711 342.259   2
  -3   3  -7-295.912 293.252   1
   3   3   8 3755.58 719.369   2
  -3   3  -8 3820.21 724.872   1
   3   3   9 1329.24 474.125   2
  -3   3  -9 1542.61 465.970   1
   3   3  10 2950.47 730.791   2
  -3   3 -10 2027.08 617.165   1
   3   3  11 5716.54 997.346   2
  -3   3 -11 5393.14 975.398   1
   3   3  12-592.261 511.737   2
  -3   3 -12 476.491 327.651   1
   3   3  13 1742.73 682.067   2
  -3   3 -13 1932.18 593.221   1
  -3  -4  11 607.962 486.607   3
  -3   4  11-454.462 494.599   2
  -3   4  10-247.987 282.074   2
  -3  -4  10 371.621 323.173   3
  -3  -4   9 2657.08 779.778   3
  -3   4   9 2876.84 670.591   2
  -3   4   8 1480.25 590.966   2
  -3  -4   8 918.931 546.505   3
  -3   4   7-72.7996 250.927   2
  -3  -4   7 626.145 500.312   3
  -3   4   6 32.7875 301.640   2
  -3  -4   6 393.729 311.753   3
  -3  -4   5 18.6413 236.847   3
  -3   4   5 188.735 331.129   2
  -3   4   4 824.341 435.373   2
  -3  -4   4-127.136 330.522   3
  -3   4   3 1269.46 537.325   2
  -3   4   2 739.451 476.447   2
  -3   4   1 1614.67 655.303   2
  -3   4   0 404.025 324.196   2
  -3   5   4-177.545 289.527   2
  -3   5   3 138.878 240.361   2
  -3   5   2 276.331 316.811   2
  -3   5   1-657.567 472.889   2
  -3   5   0 1507.61 699.271   2
  -3   5  -1-2878.41 910.186   2
  -4   0  20 718.382 531.825   2
  -4   0  19-738.911 650.227   3
  -4   0  19-572.935 500.049   2
  -4   0  18 2271.93 704.255   2
  -4   0  18 4724.93 994.929   3
  -4   0  17-122.279 424.052   2
  -4   0  17 357.056 457.362   3
  -4   0  16 4774.73 947.814   2
  -4   0  16 3253.92 821.340   3
  -4   0  15 69.4423 293.474   2
  -4   0  14 11671.1 1310.44   2
  -4   0  13 176.266 298.189   2
  -4   0  12 895.384 410.169   2
  -4   0  11 366.284 238.010   2
  -4   0  10 16683.4 1269.72   2
  -4   0   9-448.311 232.680   2
  -4   0   8 10359.4 897.639   2
  -4   0   7 40.0536 134.258   2
  -4   0   6 10258.0 812.018   2
  -4   0   5-27.4661 131.061   2
  -4   0   4 685.518 219.872   2
  -4   0   3 79.6714 155.019   1
  -4   0   2 15726.0 1121.21   1
  -4   0   1 222.229 219.342   1
  -4   0   0 121402. 3137.70   1
  -4   0  -1-96.6837 191.386   1
  -4   0  -2 176254. 3869.08   1
  -4   0  -3-178.267 216.019   1
  -4   0  -4 393.288 216.242   1
  -4   0  -5-9.02136 152.245   1
  -4   0  -6 456.955 265.289   1
  -4   0  -7-39.5374 258.294   1
  -4   0  -7-14.4189 53.9846   3
  -4   0  -8 63915.4 2823.79   1
  -4   0  -9-204.189 279.346   1
  -4   0 -10 80233.5 3410.17   1
  -4   0 -11 190.920 218.034   1
  -4   0 -12 2163.65 614.811   1
  -4   0 -13 347.156 343.685   1
  -4   0 -14-45.6129 218.808   1
  -4   0 -15 67.2239 213.748   1
  -4   0 -16-456.045 450.623   1
  -4   1  19 731.490 611.914   2
  -4  -1  19 710.052 424.293   3
  -4   1  18-90.1352 552.112   2
  -4  -1  18 959.843 546.406   3
  -4   1  17 403.169 320.237   2
  -4  -1  17 71.9205 394.029   3
  -4  -1  16 230.916 331.802   3
  -4  -1  16 1276.29 523.629   2
  -4   1  16 380.842 375.386   2
  -4  -1  15 4802.41 957.146   3
  -4  -1  15 3041.66 725.207   2
  -4   1  15 3402.13 855.359   2
  -4  -1  14 615.581 456.805   3
  -4  -1  14 906.956 460.624   2
  -4   1  14 192.499 283.562   2
  -4  -1  13 1080.66 527.395   3
  -4  -1  13 2178.46 505.545   2
  -4   1  13 2354.56 639.395   2
  -4  -1  12-47.2840 246.864   2
  -4  -1  12 376.937 391.953   3
  -4   1  12-44.5465 236.264   2
  -4  -1  11 499.196 267.774   2
  -4  -1  11 459.720 480.838   3
  -4  -1  10-59.1269 215.308   2
  -4  -1  10-429.152 495.804   3
  -4   1  10-309.614 336.522   2
  -4   1   9 18266.6 1413.86   2
  -4  -1   9 19365.1 1128.80   2
  -4  -1   9 20718.0 1620.64   3
  -4  -1   8-212.520 215.887   2
  -4  -1   8-155.783 402.858   3
   4   1  -8 69.8926 109.808   2
  -4   1   8 365.618 315.364   2
  -4   1   7 16624.0 1238.75   2
  -4  -1   7 15326.3 818.128   2
  -4  -1   7 15212.6 1374.93   3
  -4  -1   6 8727.26 951.936   3
  -4   1   6 9595.41 932.596   2
  -4  -1   6 10976.1 620.953   2
  -4   1   5 65759.5 2324.17   2
  -4  -1   5 67803.5 1387.57   2
  -4  -1   5 64517.0 2531.55   3
  -4  -1   4 3483.97 653.493   3
  -4  -1   4 3159.21 286.730   2
  -4   1   3 2864.56 499.870   1
  -4  -1   3 2078.47 500.581   3
  -4  -1   3 2004.51 233.718   2
  -4  -1   2 23723.6 1446.06   3
  -4   1   2 26149.3 1495.92   1
  -4  -1   1 651.525 291.994   3
  -4  -1   1 1058.22 311.077   1
  -4   1   1 1603.83 391.814   1
  -4   1   0 12677.6 1078.13   1
  -4  -1   0 11448.5 909.214   1
  -4  -1   0 11650.7 898.707   3
  -4  -1  -1 2898.22 462.537   3
  -4  -1  -1 2581.13 371.402   2
  -4   1  -1 3309.16 578.733   1
  -4  -1  -1 2961.45 471.099   1
  -4  -1  -2 29253.1 1258.43   2
  -4   1  -2 29758.5 1668.09   1
  -4  -1  -2 29084.9 1484.61   1
  -4  -1  -2 27806.0 1241.65   3
  -4   1  -3 84125.7 2908.27   1
  -4  -1  -3 85068.3 2583.20   1
  -4  -1  -3 85882.3 2041.03   3
  -4   1  -4 7206.86 867.157   1
  -4  -1  -4 7221.70 779.583   1
  -4  -1  -4 7348.05 555.771   3
  -4  -1  -5 197.745 151.218   3
  -4   1  -5 302.609 145.579   1
  -4  -1  -5 8.80575 162.691   1
  -4   1  -6 20974.4 1564.81   1
  -4  -1  -6 18979.4 1360.42   1
  -4  -1  -6 21048.5 760.074   3
  -4   1  -7 113630. 3771.75   1
  -4  -1  -7 113295. 3463.71   1
  -4   1  -8 48999.1 2578.00   1
  -4  -1  -8 47761.4 2330.02   1
  -4   1  -9 4686.33 848.543   1
  -4  -1  -9 5758.89 847.372   1
  -4   1 -10 1554.78 577.684   1
  -4  -1 -10 1648.88 447.514   1
  -4   1 -11 262.689 193.899   1
  -4  -1 -11 472.367 297.099   1
  -4   1 -12 4059.89 911.710   1
  -4  -1 -12 3617.87 774.760   1
  -4   1 -13-59.7236 252.604   1
  -4  -1 -13-204.944 312.805   1
  -4   1 -14 7.16190 282.256   1
  -4  -1 -14-188.516 187.478   1
  -4   1 -15 1315.52 524.874   1
  -4  -1 -15 1207.58 521.575   1
  -4  -1 -16 1381.91 623.570   1
  -4  -2  19-522.348 691.744   3
  -4  -2  18 755.986 334.534   3
  -4  -2  17 803.031 383.184   3
  -4   2  17 154.579 422.188   2
  -4  -2  16 2364.49 687.071   3
  -4   2  16 2288.22 742.605   2
  -4  -2  15 316.385 347.590   3
  -4   2  15 176.955 394.741   2
  -4  -2  14 7330.46 1195.08   3
  -4   2  14 6972.80 1153.64   2
  -4  -2  13 7424.24 1136.27   3
  -4   2  13 6927.06 1124.06   2
  -4   2  12 9974.88 1282.15   2
  -4  -2  12 11680.4 1375.28   3
  -4  -2  11 3165.25 757.637   3
  -4   2  11 2794.42 721.565   2
  -4   2  10 6878.95 1001.30   2
  -4  -2  10 7923.92 1147.28   3
  -4   2   9 164.772 263.162   2
  -4  -2   9-377.144 441.865   3
  -4  -2   8 251.985 290.304   3
  -4   2   8 526.455 298.956   2
  -4  -2   7 181.035 379.917   3
  -4   2   7 276.583 203.272   2
  -4  -2   6 712.555 392.465   3
  -4   2   6 12.5604 181.003   2
  -4   2   5 11967.0 1157.00   2
  -4  -2   5 9945.80 1082.77   3
  -4   2   4 20213.0 1506.00   2
  -4  -2   4 18714.3 1423.50   3
  -4   2   3 17818.8 1289.68   1
  -4  -2   3 15009.4 1224.42   3
  -4  -2   2 472.092 307.929   3
  -4   2   2 230.773 198.400   1
  -4  -2   1 4333.96 666.514   3
  -4   2   1 3714.37 601.776   1
  -4  -2   0 6188.75 406.142   2
  -4   2   0 8399.61 939.503   1
  -4  -2   0 8305.52 850.891   3
  -4  -2  -1 2051.92 437.064   3
  -4   2  -1 2902.78 576.134   1
  -4  -2  -1 2557.59 322.005   2
  -4  -2  -1 3087.83 444.046   1
  -4  -2  -2 2169.72 441.989   3
  -4   2  -2 3244.81 614.027   1
  -4  -2  -2 2259.58 339.753   2
  -4  -2  -2 2696.28 414.041   1
  -4  -2  -3 448.320 223.985   3
  -4   2  -3 617.039 336.989   1
  -4  -2  -3 479.570 192.798   1
  -4  -2  -4 3271.35 492.781   1
  -4   2  -4 3893.39 686.438   1
  -4  -2  -4 3611.91 529.419   3
  -4   2  -5 65011.9 2804.54   1
  -4  -2  -5 68826.9 2366.26   1
  -4  -2  -5 66164.1 2201.98   3
  -4   2  -6 12425.3 1254.33   1
  -4  -2  -6 14335.0 1154.43   1
  -4   2  -7 2110.52 513.989   1
  -4  -2  -7 2437.88 518.392   1
  -4   2  -8-141.619 237.735   1
  -4  -2  -8 92.4485 137.921   1
  -4   2  -9 5436.16 924.972   1
  -4  -2  -9 6961.19 954.072   1
  -4   2 -10 40.6874 244.987   1
  -4  -2 -10 389.087 277.687   1
  -4   2 -11 444.641 382.325   1
  -4  -2 -11-33.0090 206.792   1
  -4   2 -12 3267.34 820.556   1
  -4  -2 -12 2927.36 698.709   1
  -4   2 -13 3755.25 897.099   1
  -4  -2 -13 2189.80 610.755   1
  -4   2 -14 3481.65 901.789   1
  -4  -3  16 1607.26 611.871   3
  -4  -3  15 2043.36 683.798   3
  -4  -3  14-601.787 530.625   3
  -4   3  14 276.479 381.714   2
  -4  -3  13 900.740 463.594   3
  -4   3  13 1092.81 555.864   2
  -4  -3  12 723.053 419.465   3
  -4   3  12 508.963 488.952   2
  -4  -3  11 6212.55 1089.53   3
  -4   3  11 6050.95 1014.23   2
  -4   3  10 15106.3 1616.98   2
  -4  -3  10 14555.9 1638.54   3
  -4   3   9 44104.0 2698.52   2
  -4  -3   9 43564.6 2728.01   3
  -4  -3   8 1559.59 571.867   3
  -4   3   8 1245.35 493.121   2
  -4  -3   7 5871.57 997.942   3
  -4   3   7 5860.46 937.119   2
  -4  -3   6 2574.40 655.469   3
  -4   3   6 2749.91 698.774   2
  -4  -3   5-60.2273 305.640   3
  -4   3   5 765.332 431.256   2
  -4  -3   4 569.114 386.374   3
  -4   3   4-253.713 220.054   2
  -4  -3   3 193.401 246.265   3
  -4   3   3 654.219 508.533   2
  -4   3   2 10167.3 1102.51   1
  -4  -3   2 9025.35 1113.34   3
  -4  -3   1 3249.06 716.707   3
  -4   3   1 3272.52 636.768   1
  -4   3   0 870.196 375.046   1
  -4  -3   0 415.253 284.559   3
  -4   3  -1 1965.12 512.687   1
  -4  -3  -1 1274.64 502.752   3
  -4   3  -2 1938.55 489.596   1
  -4  -3  -2 2465.72 624.236   3
  -4   3  -3 101.637 209.107   1
  -4   3  -4 934.334 411.646   1
  -4   3  -5-45.1790 253.508   1
  -4   3  -6 2499.52 617.059   1
  -4   3  -7-306.495 336.224   1
  -4   3  -8 1237.17 471.071   1
  -4   3  -9 97.2847 200.564   1
  -4   3 -10 633.668 420.293   1
  -4   3 -11 1945.71 630.608   1
  -4   3 -12 4311.50 960.988   1
  -4   4  10 11392.1 1572.34   2
  -4   4   9-74.6419 388.212   2
  -4  -4   9 1150.31 490.566   3
  -4   4   8 15316.4 1802.82   2
  -4  -4   8 13376.2 1736.11   3
  -4  -4   7 9869.88 1476.61   3
  -4   4   7 10606.0 1457.96   2
  -4   4   6 1114.24 519.710   2
  -4  -4   6 1577.92 693.732   3
  -4   4   5 78.5530 393.486   2
  -4  -4   5-60.7604 313.728   3
  -4   4   4-584.669 516.706   2
  -4  -4   4-266.170 379.780   3
  -4   4   3 51.4899 395.418   2
  -4  -4   3 64.4705 279.245   3
  -4   4   2 93.0367 345.658   2
  -4  -4   2 114.212 257.871   3
  -4   4   1 1956.08 794.911   2
  -5   0  20 4334.00 900.285   2
  -5   0  20 5301.80 1109.58   3
  -5   0  19 329.507 459.773   2
  -5   0  19-1040.60 550.781   3
  -5   0  18-254.341 502.342   2
  -5   0  18-976.125 722.922   3
  -5   0  17-178.710 334.441   2
  -5   0  17-863.147 644.257   3
  -5   0  16 3949.81 823.004   2
  -5   0  15-172.681 375.465   2
  -5   0  14 2726.56 698.533   2
  -5   0  13-129.394 354.452   2
  -5   0  12 35258.8 2091.03   2
  -5   0  11 234.393 269.846   2
  -5   0  10 762.108 384.123   2
  -5   0   9-160.880 247.055   2
  -5   0   8 34104.9 1718.73   2
  -5   0   7 153.996 198.039   2
  -5   0   6 1953.56 416.769   2
  -5   0   5-347.465 220.135   2
  -5   0   3-95.1283 181.021   1
  -5   0   2 663.959 272.049   1
  -5   0   1 311.793 202.738   1
  -5   0   0 162.515 211.009   1
  -5   0  -1 188.446 281.033   1
  -5   0  -2 16883.9 1333.13   1
  -5   0  -3 352.585 258.623   1
  -5   0  -4 10120.6 1061.55   1
  -5   0  -5 116.335 154.742   1
  -5   0  -6 4065.33 691.528   1
  -5   0  -7-38.7171 185.789   1
  -5   0  -8 172478. 4942.33   1
  -5   0  -9-95.8578 311.530   1
  -5   0 -10 7621.68 1102.30   1
  -5   0 -11 82.2551 265.791   1
  -5   0 -12 5223.90 952.714   1
  -5   0 -13-84.2441 303.140   1
  -5   0 -14 782.136 392.696   1
  -5  -1  20 970.421 582.926   3
  -5  -1  19 890.240 582.055   3
  -5   1  19-15.4646 478.656   2
  -5   1  18 2916.87 898.453   2
  -5  -1  18 3315.18 952.395   3
  -5  -1  17 148.291 439.013   3
  -5   1  17 103.517 405.338   2
  -5  -1  16 480.171 366.417   3
  -5  -1  16 549.675 425.697   2
  -5   1  16 423.960 479.238   2
  -5  -1  15 1949.02 641.592   3
  -5  -1  15 3075.19 655.770   2
  -5   1  15 3089.29 803.227   2
  -5  -1  14 4856.84 769.532   2
  -5  -1  14 4187.22 904.604   3
  -5   1  14 5178.35 1061.43   2
  -5   1  13 21125.6 1828.84   2
  -5  -1  13 20991.2 1479.01   2
  -5  -1  13 22563.4 2004.28   3
  -5  -1  12 595.248 304.908   2
  -5  -1  12 764.671 521.151   3
  -5   1  12 429.707 248.302   2
  -5  -1  11 894.603 336.028   2
  -5  -1  11 1583.99 512.943   3
  -5   1  11 1122.28 423.257   2
  -5  -1  10 1064.06 342.850   2
  -5  -1  10 1541.28 653.424   3
  -5   1  10 413.771 261.937   2
  -5  -1   9 3036.76 822.647   3
  -5   1   9 2641.85 592.106   2
  -5  -1   9 2158.35 409.537   2
  -5  -1   8 376.600 504.683   3
  -5  -1   8 87.3950 140.211   2
  -5   1   8 383.478 278.170   2
  -5  -1   7 3561.38 772.089   3
  -5  -1   7 3707.16 427.959   2
  -5   1   7 3149.07 587.584   2
  -5  -1   6 1804.86 603.814   3
  -5   1   6 2667.64 539.212   2
  -5  -1   6 2583.06 339.435   2
  -5  -1   5 10518.9 1165.74   3
  -5   1   5 11677.6 1065.20   2
  -5  -1   5 11978.1 677.461   2
  -5  -1   4 11679.3 681.379   2
  -5  -1   4 11129.7 1201.66   3
  -5  -1   3 2345.24 569.166   3
  -5   1   3 2246.87 520.962   1
  -5  -1   2 367.826 374.855   3
  -5   1   2 779.199 340.763   1
  -5   1   1 2367.83 539.586   1
  -5  -1   1 2549.58 583.953   3
  -5  -1   1 2204.07 480.666   1
  -5   1   0 12850.9 1219.18   1
  -5  -1   0 13922.5 1127.69   1
  -5  -1   0 13736.0 1090.63   3
  -5  -1  -1-234.511 341.080   3
  -5   1  -1-114.725 252.029   1
  -5  -1  -1-177.235 213.370   1
  -5   1  -2 10465.7 1127.43   1
  -5  -1  -2 9521.45 967.582   1
  -5  -1  -2 9715.13 841.697   3
  -5   1  -3 12300.2 1252.54   1
  -5  -1  -3 11471.1 1081.63   1
  -5  -1  -3 11908.2 872.548   3
  -5  -1  -4 111.484 191.344   3
  -5  -1  -4-8.65158 151.091   1
  -5   1  -4-148.692 236.411   1
  -5  -1  -5 2382.58 507.729   1
  -5  -1  -5 3244.11 412.872   3
  -5   1  -5 2833.81 609.076   1
  -5   1  -6 16936.4 1502.67   1
  -5  -1  -6 15336.8 1352.11   1
  -5   1  -7 942.837 333.371   1
  -5  -1  -7 1205.36 372.925   1
  -5   1  -8 2167.15 574.406   1
  -5  -1  -8 2275.81 548.023   1
  -5   1  -9 8246.83 1181.48   1
  -5  -1  -9 10414.1 1208.89   1
  -5   1 -10 39630.0 2626.66   1
  -5  -1 -10 35873.6 2332.66   1
  -5   1 -11 22956.6 2079.90   1
  -5  -1 -11 21716.5 1878.43   1
  -5   1 -12 3461.32 863.116   1
  -5  -1 -12 1673.47 521.181   1
  -5   1 -13 3936.37 931.694   1
  -5  -1 -13 3320.39 802.494   1
  -5  -1 -14 1386.95 442.479   1
  -5  -1 -15 1842.94 655.004   1
  -5  -2  18-234.483 512.659   3
  -5  -2  17 181.610 387.097   3
  -5   2  17 139.275 439.575   2
  -5   2  16 5849.27 1219.39   2
  -5  -2  16 4439.65 1010.92   3
  -5  -2  15 925.695 532.158   3
  -5   2  15 61.4516 346.976   2
  -5  -2  14 5991.19 1111.23   3
  -5   2  14 6628.89 1193.44   2
  -5  -2  13 596.907 464.816   3
  -5   2  13-29.9912 280.176   2
  -5  -2  12 3246.92 767.169   3
  -5   2  12 4183.72 830.948   2
  -5  -2  11 396.189 455.055   3
  -5   2  11-182.840 255.250   2
  -5  -2  10 634.087 477.512   3
  -5   2  10-116.737 272.061   2
  -5  -2   9 1534.38 551.117   3
  -5   2   9 2064.13 556.050   2
  -5   2   8 46629.9 2520.77   2
  -5  -2   8 43387.8 2538.30   3
  -5   2   7 27633.2 1937.11   2
  -5  -2   7 28173.0 2004.35   3
  -5   2   6 14425.0 1373.05   2
  -5  -2   6 13789.7 1364.85   3
  -5  -2   5 7920.71 1007.48   3
  -5   2   5 6893.85 920.146   2
  -5  -2   4 8625.28 1334.29   3
  -5  -2   3 25.9659 274.770   3
  -5   2   3 51.0275 156.867   1
  -5  -2   2 1228.97 469.759   3
  -5   2   2 1572.56 456.624   1
  -5  -2   1 169.182 261.178   3
  -5   2   1 155.640 146.135   1
  -5  -2   0 2720.73 534.953   3
  -5   2   0 2686.74 615.399   1
  -5  -2  -1 540.102 230.977   3
  -5   2  -1 1380.60 459.961   1
  -5  -2  -1 986.586 299.452   1
  -5  -2  -2 3463.01 562.343   3
  -5   2  -2 4800.98 817.795   1
  -5  -2  -2 3734.13 544.590   1
  -5   2  -3 8256.62 1070.55   1
  -5  -2  -3 7322.70 781.111   1
  -5  -2  -3 7205.52 806.421   3
  -5   2  -4 20097.3 1686.49   1
  -5  -2  -4 18933.2 1330.03   1
  -5  -2  -4 19386.1 1307.78   3
  -5  -2  -5 1004.37 359.283   1
  -5   2  -5 1389.29 502.377   1
  -5   2  -6 6363.01 979.560   1
  -5  -2  -6 7541.97 960.459   1
  -5  -2  -7 2427.10 571.770   1
  -5   2  -7 2143.95 585.851   1
  -5   2  -8-94.5085 191.428   1
  -5  -2  -8 715.660 310.341   1
  -5   2  -9 2177.61 575.324   1
  -5  -2  -9 2534.37 642.712   1
  -5   2 -10 882.688 418.434   1
  -5  -2 -10 1216.37 433.579   1
  -5   2 -11 2809.00 772.240   1
  -5  -2 -11 5858.66 1002.12   1
  -5   2 -12 380.471 411.881   1
  -5  -3  14 269.418 394.711   3
  -5  -3  13 1974.28 704.825   3
  -5   3  13 1034.91 508.979   2
  -5  -3  12-85.4264 495.110   3
  -5   3  12-42.5996 357.775   2
  -5  -3  11 3575.51 812.729   3
  -5   3  11 3923.54 875.917   2
  -5   3  10 9148.15 1328.10   2
  -5  -3  10 9870.30 1402.14   3
  -5   3   9 22526.8 2008.27   2
  -5  -3   9 19280.8 1882.83   3
  -5   3   8 9619.63 1304.88   2
  -5  -3   8 9925.88 1326.89   3
  -5  -3   7 907.610 363.924   3
  -5   3   7 1677.17 626.105   2
  -5  -3   6 2789.74 709.523   3
  -5   3   6 2867.30 784.120   2
  -5  -3   5 477.625 389.196   3
  -5   3   5 658.496 361.154   2
  -5  -3   4 1055.94 499.585   3
  -5   3   4 1302.92 568.922   2
  -5  -3   3 5548.96 901.136   3
  -5   3   3 7652.21 1253.90   2
  -5  -3   2 2459.16 663.998   3
  -5   3   2 2709.97 641.569   1
  -5  -3   1 4117.64 774.344   3
  -5   3   1 5174.73 882.637   1
  -5  -3   0 1731.20 562.580   3
  -5   3   0 2834.00 672.800   1
  -5   3  -1 243.119 197.614   1
  -5  -3  -1-28.6449 213.844   3
  -5   3  -2 2469.74 632.605   1
  -5  -3  -2 2074.43 568.409   3
  -5   3  -3 468.957 327.951   1
  -5  -3  -3 684.354 313.334   3
  -5   3  -4 251.901 242.547   1
  -5   3  -5 5257.74 926.919   1
  -5   3  -6 3554.13 801.464   1
  -5   3  -7 353.119 281.583   1
  -5   3  -8-280.265 274.128   1
  -5   3  -9-58.0612 206.462   1
  -5   3 -10 571.538 370.164   1
  -5  -4   8 1999.11 730.680   3
  -5   4   8 1373.81 742.119   2
  -5   4   7 923.063 506.844   2
  -5  -4   7 463.298 340.062   3
  -5   4   6 264.392 413.891   2
  -5  -4   6-420.272 568.906   3
  -5   4   5 104.745 272.756   2
  -5  -4   5-328.878 349.389   3
  -5   4   4 1306.42 582.459   2
  -5  -4   4 401.165 349.740   3
  -5   4   3 3269.88 1076.80   2
  -5  -4   3 1931.40 684.891   3
  -5   4   2 6754.20 1535.41   2
  -5  -4   2 3494.73 905.792   3
  -5   4   1 425.642 453.517   2
  -5  -4   1 782.078 478.423   3
  -5  -4   0 1437.98 615.230   3
  -6   0  20 1110.97 681.169   3
  -6   0  19 448.997 387.147   2
  -6   0  19-240.856 652.705   3
  -6   0  18 93.8665 378.463   2
  -6   0  18-440.985 589.905   3
  -6   0  17-365.427 327.385   2
  -6   0  16 3073.94 716.772   2
  -6   0  15-334.470 383.208   2
  -6   0  14 3515.03 738.463   2
  -6   0  13-479.243 491.354   2
  -6   0  12 41002.4 2283.13   2
  -6   0  11 380.422 275.935   2
  -6   0  10 9290.16 1011.67   2
  -6   0   9 89.7173 203.435   2
  -6   0   8 798.428 318.822   2
  -6   0   7 48.8162 152.678   2
  -6   0   6 41883.1 1937.81   2
  -6   0   5 97.1305 264.683   2
  -6   0   3 246.641 239.690   1
  -6   0   2 104.871 157.198   1
  -6   0   1 79.4702 159.952   1
  -6   0   0-228.269 293.847   1
  -6   0  -1-20.7562 186.218   1
  -6   0  -2 9225.68 1105.28   1
  -6   0  -3 226.663 190.656   1
  -6   0  -4 2586.52 617.046   1
  -6   0  -5 80.2517 229.079   1
  -6   0  -6 84.5121 228.644   1
  -6   0  -7 130.013 242.519   1
  -6   0  -8 1304.47 470.237   1
  -6   0  -9-1.44233 218.371   1
  -6   0 -10 2409.15 583.490   1
  -6   0 -11-155.382 448.547   1
  -6   0 -12 3089.24 754.975   1
  -6   0 -13-173.950 241.292   1
  -6  -1  19 953.749 629.677   3
  -6  -1  18 1729.54 707.556   3
  -6   1  18 813.781 555.913   2
  -6  -1  17-188.017 447.318   3
  -6   1  17-437.145 340.587   2
  -6  -1  16 576.475 478.226   3
  -6   1  16 79.8262 501.513   2
  -6  -1  15 397.213 486.865   3
  -6   1  15 1433.94 652.865   2
  -6  -1  14 4140.22 910.354   3
  -6   1  14 3991.10 879.235   2
  -6  -1  13 1233.96 590.206   3
  -6   1  13 1349.77 544.487   2
  -6  -1  12 1337.82 418.528   2
  -6  -1  12 598.739 484.410   3
  -6   1  11 24548.2 1897.51   2
  -6  -1  11 19465.1 1311.18   2
  -6  -1  11 21583.4 1956.03   3
  -6  -1  10 2531.38 735.398   3
  -6   1  10 2512.79 615.167   2
  -6  -1  10 1850.35 389.071   2
  -6  -1   9 4251.51 840.413   3
  -6  -1   9 3608.25 529.723   2
  -6   1   9 3056.41 668.588   2
  -6  -1   8 7196.85 1138.35   3
  -6   1   8 8380.76 1046.91   2
  -6  -1   8 8227.65 705.873   2
  -6   1   7 73738.2 2977.51   2
  -6  -1   7 72266.6 1988.21   2
  -6  -1   7 68961.3 3233.30   3
  -6   1   6 53160.6 2456.17   2
  -6  -1   6 51199.2 1600.80   2
  -6  -1   6 50087.8 2715.86   3
  -6   1   5 25057.3 1640.70   2
  -6  -1   5 26151.8 1130.82   2
  -6  -1   5 27524.1 1979.39   3
  -6   1   4 458.813 245.103   1
  -6  -1   4 240.398 478.974   3
  -6  -1   4 600.119 191.569   2
  -6  -1   3 1242.72 549.027   3
  -6   1   3 796.623 371.579   1
  -6   1   2 13836.0 1338.12   1
  -6  -1   2 13982.9 1275.02   1
  -6  -1   2 14682.0 1345.07   3
  -6  -1   1 250.161 513.037   3
  -6   1   1 792.305 360.302   1
  -6  -1   1 395.194 275.190   1
  -6  -1   0 31.9738 377.381   3
  -6   1   0 46.9550 238.087   1
  -6  -1   0 28.1539 140.021   1
  -6  -1  -1 509.064 387.760   3
  -6  -1  -1-60.1490 156.366   1
  -6   1  -1-100.804 260.142   1
  -6  -1  -2 3418.34 592.541   3
  -6   1  -2 4863.70 855.465   1
  -6  -1  -2 4578.65 738.046   1
  -6  -1  -3 689.409 263.696   3
  -6   1  -3 425.915 334.383   1
  -6  -1  -3 429.337 280.210   1
  -6   1  -4 3617.49 740.314   1
  -6  -1  -4 3516.93 537.663   3
  -6  -1  -4 3404.77 679.683   1
  -6   1  -5 3176.09 712.062   1
  -6  -1  -5 2525.96 578.726   1
  -6  -1  -6 877.852 283.364   1
  -6   1  -6 655.340 362.827   1
  -6  -1  -7 1450.37 472.290   1
  -6   1  -7 1029.55 392.624   1
  -6   1  -8 10645.1 1375.67   1
  -6  -1  -8 10820.4 1327.51   1
  -6   1  -9 13609.8 1582.50   1
  -6  -1  -9 13552.5 1513.58   1
  -6   1 -10 381.021 291.399   1
  -6  -1 -10 726.762 324.850   1
  -6   1 -11 150.880 242.857   1
  -6  -1 -11 87.6324 234.212   1
  -6   1 -12 346.774 313.154   1
  -6  -1 -12 86.5908 197.487   1
  -6  -1 -13 1812.54 607.475   1
  -6  -2  16-649.394 583.383   3
  -6   2  16-414.166 487.904   2
  -6  -2  15 256.124 451.531   3
  -6   2  15-346.606 433.826   2
  -6  -2  14 213.861 374.395   3
  -6   2  14 733.640 464.018   2
  -6  -2  13 1412.96 710.978   3
  -6   2  13 5.53905 341.161   2
  -6  -2  12 1692.89 627.326   3
  -6   2  12 1009.98 485.926   2
  -6  -2  11 177.344 432.347   3
  -6   2  11-129.333 368.097   2
  -6  -2  10 342.967 432.950   3
  -6   2  10 529.391 368.402   2
  -6   2   9 23347.5 1898.76   2
  -6  -2   9 22527.5 1975.88   3
  -6  -2   8 9345.21 1252.41   3
  -6   2   8 9996.68 1255.45   2
  -6  -2   7 8242.96 1168.87   3
  -6   2   7 7825.79 1078.24   2
  -6  -2   6 2054.89 657.047   3
  -6   2   6 1386.18 459.827   2
  -6  -2   5 5004.30 915.930   3
  -6   2   5 4645.75 857.242   2
  -6  -2   4 69.6825 303.899   3
  -6  -2   3 256.780 276.340   3
  -6   2   3-179.633 249.143   1
  -6  -2   2 3085.32 658.195   3
  -6   2   2 4836.32 858.429   1
  -6  -2   1 1099.55 413.298   3
  -6   2   1 1552.46 499.688   1
  -6   2   0 5303.39 912.082   1
  -6  -2   0 4241.35 732.506   3
  -6  -2  -1 1917.26 454.667   3
  -6  -2  -1 1173.27 373.941   1
  -6   2  -1 1752.57 568.517   1
  -6  -2  -2 1400.61 361.058   3
  -6  -2  -2 1493.86 425.609   1
  -6   2  -2 2303.15 649.575   1
  -6  -2  -3 660.443 376.193   3
  -6   2  -3 954.411 450.397   1
  -6  -2  -3 734.786 332.617   1
  -6  -2  -4-196.133 202.158   1
  -6   2  -4-455.828 368.191   1
  -6   2  -5 710.282 398.816   1
  -6  -2  -5 122.799 171.453   1
  -6   2  -6-190.411 209.429   1
  -6  -2  -6-96.6673 223.158   1
  -6  -2  -7 256.773 173.505   1
  -6   2  -7-43.7769 203.108   1
  -6  -2  -8 704.946 343.997   1
  -6   2  -8 203.902 203.176   1
  -6  -2  -9 3514.95 804.099   1
  -6   2  -9 2999.64 790.896   1
  -6   2 -10 6149.39 1144.80   1
  -6  -3  12-184.497 339.217   3
  -6   3  12 23.6514 333.275   2
  -6  -3  11 676.341 505.154   3
  -6   3  11 148.016 420.814   2
  -6  -3  10 307.375 313.232   3
  -6   3  10 794.464 428.089   2
  -6  -3   9 21.4818 363.038   3
  -6   3   9 38.1668 276.720   2
  -6  -3   8 941.984 490.133   3
  -6   3   8-257.126 438.893   2
  -6  -3   7-318.522 416.496   3
  -6   3   7-280.004 411.948   2
  -6  -3   6-2.91329 319.671   3
  -6   3   6 106.989 276.483   2
  -6  -3   5 298.142 409.617   3
  -6   3   5-272.320 428.797   2
  -6  -3   4-354.277 295.114   3
  -6   3   4 57.3210 285.159   2
  -6  -3   3 1335.23 545.323   3
  -6   3   2 5477.87 965.020   1
  -6  -3   2 3778.48 787.357   3
  -6  -3   1 1658.90 525.409   3
  -6   3   1 1823.37 526.659   1
  -6  -3   0 136.982 294.366   3
  -6   3   0 281.614 267.936   1
  -6  -3  -1 1115.76 487.126   3
  -6   3  -1 588.098 343.140   1
  -6   3  -2 2044.73 600.844   1
  -6  -3  -2 1892.59 572.689   3
  -6   3  -3 333.370 297.686   1
  -6   3  -4 2051.50 631.428   1
  -6   3  -5 8057.94 1260.16   1
  -6   3  -6 761.584 404.814   1
  -6   3  -7 2507.75 710.370   1
  -6   3  -8 700.476 418.682   1
  -6  -4   5 2014.90 707.076   3
  -6  -4   4 984.757 564.143   3
  -6  -4   3-307.347 335.855   3
  -6  -4   2 394.323 310.662   3
  -6  -4   1 1728.17 676.197   3
  -6  -4   0-13.5469 328.086   3
  -7   0  16 1572.61 584.083   2
  -7   0  15-435.811 514.103   2
  -7   0  14 157.703 338.376   2
  -7   0  13 217.420 293.575   2
  -7   0  12 918.736 373.798   2
  -7   0  11 297.755 207.976   2
  -7   0  10 3587.40 676.945   2
  -7   0   9-124.194 251.711   2
  -7   0   8 1714.07 458.784   2
  -7   0   7-148.469 199.689   2
  -7   0   6 141395. 3768.78   2
  -7   0   5-46.4958 176.824   2
  -7   0   3 118.945 296.798   1
  -7   0   2 7428.62 1050.74   1
  -7   0   1 10.9502 201.416   1
  -7   0   0 2010.33 559.392   1
  -7   0  -1-76.7756 205.854   1
  -7   0  -2 7911.07 1122.13   1
  -7   0  -3-119.442 262.206   1
  -7   0  -4 7153.96 1104.63   1
  -7   0  -5-46.5844 252.205   1
  -7   0  -6 402.690 241.316   1
  -7   0  -7 308.867 309.447   1
  -7   0  -8 1588.36 580.204   1
  -7   0  -9-520.443 352.371   1
  -7   0 -10-66.4728 367.604   1
  -7   0 -11 336.232 332.427   1
  -7   1  18 2994.75 788.740   2
  -7   1  17 383.073 359.619   2
  -7  -1  16 1096.77 644.065   3
  -7   1  16 539.370 440.504   2
  -7  -1  15 1163.57 669.852   3
  -7   1  15 781.062 549.369   2
  -7  -1  14 1126.44 644.959   3
  -7   1  14-70.5874 370.193   2
  -7  -1  13 1438.68 709.859   3
  -7   1  13 949.740 489.323   2
  -7  -1  12 2567.72 845.086   3
  -7   1  12 2811.67 724.931   2
  -7  -1  11 5117.68 1065.42   3
  -7   1  11 5519.97 912.609   2
  -7  -1  10-616.179 620.653   3
  -7   1  10 57.2058 229.753   2
  -7  -1   9 295.553 531.657   3
  -7   1   9 1420.02 436.891   2
  -7  -1   8 8385.20 1319.71   3
  -7   1   8 6463.17 968.864   2
  -7  -1   7 1386.69 669.568   3
  -7   1   7 318.069 219.906   2
  -7   1   6 308.300 235.131   2
  -7  -1   6 82.1609 191.373   2
  -7  -1   5 10418.0 1323.86   3
  -7   1   5 10263.7 1135.96   2
  -7  -1   5 10649.4 802.926   2
  -7  -1   4 39826.9 1588.37   2
  -7  -1   4 40231.4 2448.33   3
  -7   1   3 43405.5 2624.83   1
  -7  -1   3 43008.3 2474.68   3
  -7   1   2 12275.5 1386.87   1
  -7  -1   2 13512.2 1356.53   3
  -7  -1   1 670.469 459.656   3
  -7  -1   1 247.998 196.912   1
  -7   1   1 319.962 195.404   1
  -7   1   0 880.104 371.871   1
  -7  -1   0 2280.58 625.367   3
  -7  -1   0 1388.03 456.522   1
  -7   1  -1 11968.5 1404.26   1
  -7  -1  -1 11034.5 1207.24   1
  -7  -1  -1 11301.6 1198.52   3
  -7  -1  -2 2971.90 609.194   3
  -7  -1  -2 3225.71 659.994   1
  -7   1  -2 3597.23 804.581   1
  -7   1  -3-367.086 336.153   1
  -7  -1  -3-1.69135 221.629   1
  -7   1  -4 1614.60 452.827   1
  -7  -1  -4 2060.39 577.085   1
  -7   1  -5-111.101 353.797   1
  -7  -1  -5 323.740 264.245   1
  -7   1  -6 1340.61 556.262   1
  -7  -1  -6 1798.80 580.438   1
  -7   1  -7 624.605 389.403   1
  -7  -1  -7 1094.33 479.078   1
  -7  -1  -8 607.936 348.489   1
  -7   1  -8 124.773 293.747   1
  -7  -1  -9 5778.08 1085.14   1
  -7   1  -9 5075.42 1063.01   1
  -7  -1 -10 284.052 404.905   1
  -7  -1 -11-489.524 499.361   1
  -7   2  15 252.087 468.873   2
  -7  -2  14 1125.52 550.802   3
  -7   2  14 1135.61 551.814   2
  -7  -2  13 791.067 460.860   3
  -7   2  13 1162.41 556.391   2
  -7  -2  12 2000.01 760.747   3
  -7   2  12 1023.39 477.379   2
  -7  -2  11-168.674 411.481   3
  -7   2  11-196.190 544.248   2
  -7   2  10 11638.6 1452.42   2
  -7  -2  10 11435.8 1503.64   3
  -7  -2   9 1976.80 725.383   3
  -7   2   9 2192.41 645.637   2
  -7  -2   8 8268.60 1256.57   3
  -7   2   8 7920.06 1162.14   2
  -7  -2   7 237.544 391.475   3
  -7   2   7 33.6702 342.676   2
  -7  -2   6-324.575 347.924   3
  -7   2   6 80.6555 298.563   2
  -7  -2   5 1917.36 572.625   3
  -7   2   5 2297.86 659.062   2
  -7  -2   4 1724.26 565.425   3
  -7  -2   3 2074.78 601.808   3
  -7   2   3 2163.20 647.227   1
  -7  -2   2 1876.97 596.205   3
  -7   2   2 2043.33 646.181   1
  -7   2   1 26810.0 2172.67   1
  -7  -2   1 24500.2 1843.73   3
  -7  -2   0 1040.46 384.349   3
  -7   2   0 1464.13 549.317   1
  -7  -2  -1 384.843 241.099   3
  -7  -2  -1-215.477 258.129   1
  -7   2  -1-206.077 342.178   1
  -7  -2  -2 589.414 219.236   1
  -7   2  -2 764.223 371.958   1
  -7   2  -3 1470.57 548.297   1
  -7  -2  -3 590.473 179.553   1
  -7   2  -4 1955.59 586.113   1
  -7  -2  -4 2619.57 619.790   1
  -7  -2  -5 725.281 372.552   1
  -7   2  -5-156.442 266.112   1
  -7   2  -6 2204.12 672.752   1
  -7  -2  -6 3764.39 823.464   1
  -7   2  -7 3783.22 918.613   1
  -7  -2  -7 5048.17 984.704   1
  -7   2  -8 3027.39 836.696   1
  -7  -3  10-461.648 485.905   3
  -7   3  10-76.8788 265.549   2
  -7  -3   9 3724.60 919.603   3
  -7   3   9 4017.95 948.855   2
  -7  -3   8 1394.55 666.774   3
  -7   3   8 1883.26 702.522   2
  -7  -3   7 1778.51 547.678   3
  -7   3   7 1214.48 554.288   2
  -7  -3   6 599.323 294.757   3
  -7   3   6 475.200 487.353   2
  -7  -3   5-138.996 499.963   3
  -7   3   5-399.655 367.079   2
  -7  -3   4 181.183 291.821   3
  -7   3   4 773.054 401.580   2
  -7  -3   3-135.020 351.535   3
  -7  -3   2 24.4514 265.786   3
  -7   3   2-149.838 237.979   1
  -7  -3   1-25.6235 292.636   3
  -7   3   1 17.1597 267.840   1
  -7  -3   0-561.382 441.241   3
  -7   3   0-277.801 406.837   1
  -7   3  -1 646.649 342.841   1
  -7   3  -2 207.235 239.922   1
  -7   3  -3-167.416 354.290   1
  -7   3  -4 997.432 526.708   1
  -7   3  -5 1044.47 531.837   1
  -7  -4   2-162.882 497.450   3
  -8   0  11-511.006 302.123   2
  -8   0  10 1408.82 476.499   2
  -8   0   9-64.8124 308.542   2
  -8   0   8 4545.46 707.166   2
  -8   0   7 109.705 177.045   2
  -8   0   6 748.228 337.510   2
  -8   0   5 353.800 237.718   2
  -8   0   3-50.6004 178.137   1
  -8   0   2 4836.73 899.120   1
  -8   0   1-25.2969 230.505   1
  -8   0   0 2097.97 582.327   1
  -8   0  -1-179.202 368.367   1
  -8   0  -2 15091.7 1653.85   1
  -8   0  -3 45.3749 195.726   1
  -8   0  -4 316.459 391.997   1
  -8   0  -5 375.557 331.971   1
  -8   0  -6 4705.54 981.139   1
  -8   0  -7-313.366 293.847   1
  -8   0  -8 771.290 422.557   1
  -8   1  16 1481.57 673.609   2
  -8   1  15 1446.92 713.819   2
  -8  -1  14 362.565 503.119   3
  -8   1  14 383.415 305.196   2
  -8  -1  13 722.534 651.488   3
  -8   1  13-65.3988 351.354   2
  -8  -1  12 1470.90 829.289   3
  -8   1  12 743.438 436.812   2
  -8  -1  11-502.672 549.344   3
  -8   1  11 194.480 364.353   2
  -8  -1  10 7742.45 1378.82   3
  -8   1  10 3391.32 742.116   2
  -8  -1   9 1782.88 749.128   3
  -8   1   9 1961.49 550.034   2
  -8  -1   8-205.933 626.342   3
  -8   1   8 329.338 325.590   2
  -8  -1   7 6453.83 1236.02   3
  -8   1   7 5274.39 890.529   2
  -8  -1   6 4339.63 955.460   3
  -8   1   6 4166.95 784.014   2
  -8  -1   5 6229.59 1085.64   3
  -8   1   5 5968.90 930.351   2
  -8  -1   4 2809.28 818.429   3
  -8   1   3 4820.34 964.692   1
  -8  -1   3 5289.39 930.080   3
  -8  -1   2 281.638 464.001   3
  -8   1   2 461.354 360.021   1
  -8   1   1 1022.28 463.759   1
  -8  -1   1 1450.00 567.310   3
  -8  -1   1 943.605 407.931   1
  -8  -1   0 548.004 408.125   3
  -8   1   0 187.736 275.920   1
  -8  -1   0 151.555 238.702   1
  -8  -1  -1 465.937 350.018   1
  -8  -1  -1 194.348 352.803   3
  -8   1  -1 329.829 325.880   1
  -8  -1  -2 1138.54 455.059   1
  -8   1  -2 1332.99 551.240   1
  -8  -1  -3 1977.90 587.380   1
  -8   1  -3 974.842 448.817   1
  -8   1  -4 5471.95 1098.85   1
  -8  -1  -4 5898.03 1064.37   1
  -8   1  -5 911.576 509.543   1
  -8  -1  -5 1370.50 553.953   1
  -8   1  -6-314.550 453.990   1
  -8  -1  -6 470.196 392.458   1
  -8   1  -7 2054.96 683.653   1
  -8  -1  -7 2052.98 681.595   1
  -8  -1  -8 5671.18 1121.75   1
  -8  -1  -9 1521.23 618.915   1
  -8   2  13 1421.18 569.989   2
  -8   2  12 10.2873 316.319   2
  -8  -2  11 454.586 419.093   3
  -8   2  11-171.242 394.892   2
  -8  -2  10 511.626 470.126   3
  -8   2  10 288.946 237.979   2
  -8  -2   9 370.517 493.492   3
  -8   2   9-242.413 366.499   2
  -8  -2   8 629.338 431.818   3
  -8   2   8 731.466 451.951   2
  -8  -2   7-27.2672 339.809   3
  -8   2   7-136.651 420.473   2
  -8  -2   6 2157.71 731.023   3
  -8   2   6 2106.45 640.081   2
  -8  -2   5 1037.38 522.090   3
  -8   2   5 783.237 454.587   2
  -8  -2   4 4694.71 969.896   3
  -8   2   3 13594.8 1612.71   1
  -8  -2   3 12369.5 1445.18   3
  -8   2   2 24572.0 2192.77   1
  -8  -2   2 23823.9 1974.34   3
  -8  -2   1 1881.66 606.319   3
  -8   2   1 2547.17 731.852   1
  -8  -2   0 290.082 331.512   3
  -8   2   0 436.832 375.655   1
  -8   2  -1 5.38105 202.758   1
  -8   2  -2 409.714 383.236   1
  -8  -2  -2 1347.21 500.551   1
  -8  -2  -3 83.4731 189.853   1
  -8   2  -3-221.513 475.364   1
  -8  -2  -4 204.791 237.908   1
  -8   2  -4 181.404 223.326   1
  -8   2  -5 212.377 244.729   1
  -8  -2  -5-483.392 415.225   1
  -8  -3   6 20.2012 341.152   3
  -8  -3   5 667.423 406.462   3
  -8  -3   4 1366.99 672.859   3
  -8  -3   3 755.862 458.145   3
  -8  -3   2 1604.25 627.214   3
  -8   3   2 2051.71 680.391   1
  -8   3   1 6613.12 1220.74   1
  -8   3   0 9809.30 1489.62   1
  -8   3  -1 4896.09 1046.99   1
  -9   0   5-236.972 255.770   2
  -9   0   2-80.3262 277.894   1
  -9   0   1-56.0357 335.549   1
  -9   0   0 11.2842 396.614   1
  -9   0  -1 57.0142 320.783   1
  -9   0  -2 1140.58 464.129   1
  -9   0  -3 146.585 226.263   1
  -9   0  -4-59.6444 322.594   1
  -9   1  14 280.706 272.556   2
  -9   1  13 969.280 564.901   2
  -9   1  12 2486.19 729.311   2
  -9  -1  11 195.759 632.856   3
  -9   1  11 224.380 281.971   2
  -9  -1  10-744.689 890.115   3
  -9   1  10-33.6565 459.151   2
  -9  -1   9 228.964 569.335   3
  -9   1   9 200.054 316.771   2
  -9  -1   8 3185.58 1036.22   3
  -9   1   8 1682.79 588.248   2
  -9  -1   7 1426.57 672.965   3
  -9   1   7 999.559 392.726   2
  -9  -1   6-492.467 687.459   3
  -9   1   6-290.509 233.377   2
  -9  -1   5 6960.79 1123.89   3
  -9   1   5 8528.06 1198.39   2
  -9  -1   4-323.358 441.063   3
  -9  -1   3 2132.08 627.580   3
  -9   1   3 3071.84 848.325   1
  -9  -1   2-108.688 468.505   3
  -9   1   2-44.1774 205.703   1
  -9  -1   1 2233.17 635.700   3
  -9   1   1 4106.45 953.289   1
  -9   1   0-125.886 329.354   1
  -9  -1   0-52.5556 192.921   1
  -9   1  -1-131.851 286.064   1
  -9  -1  -1 282.122 360.890   1
  -9  -1  -2 638.996 400.140   1
  -9   1  -2 391.031 379.092   1
  -9  -1  -3 2408.68 680.966   1
  -9  -1  -4 780.718 476.873   1
  -9  -1  -5 60.2183 248.429   1
  -9   2   9 340.252 409.158   2
  -9  -2   8-351.031 563.149   3
  -9   2   8 705.210 518.415   2
  -9  -2   7 2484.96 819.274   3
  -9   2   7 1084.45 512.665   2
  -9  -2   6 6371.46 1140.52   3
  -9   2   6 6612.72 1129.39   2
  -9  -2   5 3004.59 793.958   3
  -9   2   5 2571.22 772.150   2
  -9  -2   4 421.174 441.646   3
  -9   2   4-996.084 485.408   2
  -9  -2   3 59.4017 424.383   3
  -9   2   3-721.402 505.472   1
  -9  -2   2 1345.50 596.689   3
  -9   2   2-523.111 491.996   1
  -9   2   1 989.750 539.419   1
  -9  -2  -2 1637.83 562.252   1
 -10   1   8-87.9344 358.212   2
 -10   1   7-505.454 347.459   2
 -10  -1   6 2370.62 747.471   3
 -10   1   6 2753.43 706.085   2
 -10  -1   5 4449.29 948.049   3
 -10   1   5 3367.97 800.085   2
 -10  -1   4 559.713 451.318   3
 -10   1   4 1523.01 556.602   2
 -10  -1   3 1475.09 446.880   3
   0   0   0    0.00    0.00   0
TITL BKS-SS-DI-ANTH-193K-S in P2(1)/c
REM P2(1)/c (#14 in standard setting)
CELL 0.71073   7.870227   3.930164  15.731737  90.0000 102.5728  90.0000
ZERR    2.00   0.000895   0.000606   0.002392   0.0000   0.0123   0.0000
LATT  1
SYMM -x, y+1/2,-z+1/2
SFAC C H O
UNIT 24.00 16.00 4.00
TREF
HKLF 4
END
;
_shelx_hkl_checksum              93244
_olex2_submission_special_instructions 'No special instructions were received'
loop_
_space_group_symop_operation_xyz
'x, y, z'
'-x, y+1/2, -z+1/2'
'-x, -y, -z'
'x, -y-1/2, z-1/2'
loop_
_atom_site_label
_atom_site_type_symbol
_atom_site_fract_x
_atom_site_fract_y
_atom_site_fract_z
_atom_site_U_iso_or_equiv
_atom_site_adp_type
_atom_site_occupancy
_atom_site_site_symmetry_order
_atom_site_calc_flag
_atom_site_refinement_flags_posn
_atom_site_refinement_flags_adp
_atom_site_refinement_flags_occupancy
_atom_site_disorder_assembly
_atom_site_disorder_group
C2 C 0.4350(2) 0.6545(4) 0.41477(11) 0.0306(5) Uani 1 1 d . . . . .
C7 C 0.3261(2) 0.6396(4) 0.47405(11) 0.0307(5) Uani 1 1 d . . . . .
C1 C 0.6146(2) 0.5133(4) 0.43808(12) 0.0338(5) Uani 1 1 d . . . . .
C5 C 0.0993(2) 0.9149(5) 0.36852(13) 0.0414(5) Uani 1 1 d . . . . .
H5 H -0.015498 1.004125 0.352859 0.050 Uiso 1 1 calc R U . . .
O1 O 0.71022(18) 0.5231(4) 0.38638(9) 0.0526(5) Uani 1 1 d . . . . .
C3 C 0.3742(2) 0.7976(5) 0.33302(12) 0.0377(5) Uani 1 1 d . . . . .
H3 H 0.447614 0.805632 0.292472 0.045 Uiso 1 1 calc R U . . .
C6 C 0.1581(2) 0.7708(5) 0.45009(12) 0.0375(5) Uani 1 1 d . . . . .
H6 H 0.083191 0.761460 0.489929 0.045 Uiso 1 1 calc R U . . .
C4 C 0.2062(3) 0.9293(5) 0.31024(13) 0.0409(5) Uani 1 1 d . . . . .
H4 H 0.165628 1.029004 0.254503 0.049 Uiso 1 1 calc R U . . .
loop_
_atom_site_aniso_label
_atom_site_aniso_U_11
_atom_site_aniso_U_22
_atom_site_aniso_U_33
_atom_site_aniso_U_23
_atom_site_aniso_U_13
_atom_site_aniso_U_12
C2 0.0297(10) 0.0318(10) 0.0292(10) -0.0035(8) 0.0043(7) -0.0037(7)
C7 0.0281(10) 0.0314(11) 0.0315(10) -0.0032(8) 0.0038(7) -0.0039(7)
C1 0.0289(10) 0.0412(12) 0.0324(10) -0.0041(8) 0.0094(8) -0.0041(8)
C5 0.0316(11) 0.0395(12) 0.0473(12) -0.0030(9) -0.0041(9) 0.0026(8)
O1 0.0397(9) 0.0818(12) 0.0408(9) 0.0096(7) 0.0184(7) 0.0089(7)
C3 0.0412(12) 0.0395(12) 0.0319(10) -0.0004(9) 0.0069(8) -0.0014(9)
C6 0.0313(10) 0.0381(12) 0.0425(12) -0.0034(9) 0.0068(8) -0.0001(8)
C4 0.0432(12) 0.0409(11) 0.0340(11) 0.0001(8) -0.0017(9) 0.0016(9)
loop_
_atom_type_symbol
_atom_type_description
_atom_type_scat_dispersion_real
_atom_type_scat_dispersion_imag
_atom_type_scat_source
C C 0.0033 0.0016 'International Tables Vol C Tables 4.2.6.8 and 6.1.1.4'
H H 0.0000 0.0000 'International Tables Vol C Tables 4.2.6.8 and 6.1.1.4'
O O 0.0106 0.0060 'International Tables Vol C Tables 4.2.6.8 and 6.1.1.4'
loop_
_geom_angle_atom_site_label_1
_geom_angle_atom_site_label_2
_geom_angle_atom_site_label_3
_geom_angle
_geom_angle_site_symmetry_1
_geom_angle_site_symmetry_3
_geom_angle_publ_flag
C7 C2 C1 120.48(16) . . ?
C3 C2 C7 119.74(17) . . ?
C3 C2 C1 119.77(17) . . ?
C2 C7 C1 121.52(16) . 3_666 ?
C6 C7 C2 119.19(17) . . ?
C6 C7 C1 119.29(17) . 3_666 ?
C7 C1 C2 118.00(15) 3_666 . ?
O1 C1 C2 120.89(17) . . ?
O1 C1 C7 121.11(17) . 3_666 ?
C6 C5 H5 119.9 . . ?
C4 C5 H5 119.9 . . ?
C4 C5 C6 120.30(18) . . ?
C2 C3 H3 119.8 . . ?
C2 C3 C4 120.36(19) . . ?
C4 C3 H3 119.8 . . ?
C7 C6 H6 119.7 . . ?
C5 C6 C7 120.52(19) . . ?
C5 C6 H6 119.7 . . ?
C5 C4 C3 119.89(19) . . ?
C5 C4 H4 120.1 . . ?
C3 C4 H4 120.1 . . ?
loop_
_geom_bond_atom_site_label_1
_geom_bond_atom_site_label_2
_geom_bond_distance
_geom_bond_site_symmetry_2
_geom_bond_publ_flag
C2 C7 1.399(2) . ?
C2 C1 1.488(2) . ?
C2 C3 1.390(2) . ?
C7 C1 1.486(3) 3_666 ?
C7 C6 1.392(2) . ?
C1 O1 1.223(2) . ?
C5 H5 0.9500 . ?
C5 C6 1.387(3) . ?
C5 C4 1.374(3) . ?
C3 H3 0.9500 . ?
C3 C4 1.392(3) . ?
C6 H6 0.9500 . ?
C4 H4 0.9500 . ?
loop_
_geom_torsion_atom_site_label_1
_geom_torsion_atom_site_label_2
_geom_torsion_atom_site_label_3
_geom_torsion_atom_site_label_4
_geom_torsion
_geom_torsion_site_symmetry_1
_geom_torsion_site_symmetry_2
_geom_torsion_site_symmetry_3
_geom_torsion_site_symmetry_4
_geom_torsion_publ_flag
C2 C7 C6 C5 -0.1(3) . . . . ?
C2 C3 C4 C5 -0.6(3) . . . . ?
C7 C2 C1 C7 -0.5(3) . . . 3_666 ?
C7 C2 C1 O1 179.48(17) . . . . ?
C7 C2 C3 C4 0.7(3) . . . . ?
C1 C2 C7 C1 0.5(3) . . . 3_666 ?
C1 C2 C7 C6 -179.36(15) . . . . ?
C1 C2 C3 C4 179.73(15) . . . . ?
C1 C7 C6 C5 180.00(16) 3_666 . . . ?
C3 C2 C7 C1 179.59(16) . . . 3_666 ?
C3 C2 C7 C6 -0.3(2) . . . . ?
C3 C2 C1 C7 -179.58(16) . . . 3_666 ?
C3 C2 C1 O1 0.4(3) . . . . ?
C6 C5 C4 C3 0.2(3) . . . . ?
C4 C5 C6 C7 0.1(3) . . . . ?
