#------------------------------------------------------------------------------
#$Date: 2021-04-28 12:37:22 +0300 (Wed, 28 Apr 2021) $
#$Revision: 264638 $
#$URL: file:///home/coder/svn-repositories/cod/cif/1/56/22/1562211.cif $
#------------------------------------------------------------------------------
#
# This file is available in the Crystallography Open Database (COD),
# http://www.crystallography.net/
#
# All data on this site have been placed in the public domain by the
# contributors.
#
data_1562211
loop_
_publ_author_name
'Zhang, Yingjie'
'Bhadbhade, Mohan'
'Scales, Nicholas'
'Karatchevtseva, Inna'
'Price, Jason R.'
'Lu, Kim'
'Lumpkin, Gregory R.'
_publ_section_title
;
 Dysprosium complexes with mono-/di-carboxylate ligands---From simple
 dimers to 2D and 3D frameworks
;
_journal_name_full               'Journal of Solid State Chemistry'
_journal_page_first              1
_journal_page_last               8
_journal_paper_doi               10.1016/j.jssc.2014.07.007
_journal_volume                  219
_journal_year                    2014
_chemical_formula_sum            'C3 H3 Dy O6'
_chemical_formula_weight         297.55
_space_group_crystal_system      trigonal
_space_group_IT_number           160
_space_group_name_Hall           'R 3 -2"'
_space_group_name_H-M_alt        'R 3 m :H'
_atom_sites_solution_hydrogens   geom
_audit_creation_method           SHELXL-2013
_cell_angle_alpha                90
_cell_angle_beta                 90
_cell_angle_gamma                120
_cell_formula_units_Z            3
_cell_length_a                   10.3840(15)
_cell_length_b                   10.3840(15)
_cell_length_c                   3.9520(8)
_cell_measurement_reflns_used    9980
_cell_measurement_temperature    100(2)
_cell_measurement_theta_max      22.5
_cell_measurement_theta_min      2.5
_cell_volume                     369.04(11)
_computing_cell_refinement       'XDS (Kabsch, 1993)'
_computing_data_collection       'BLU-ICE (McPhillips et al., 2002)'
_computing_data_reduction        'XDS (Kabsch, 1993)'
_computing_structure_refinement  'SHELXL-2013 (Sheldrick, 2013)'
_computing_structure_solution
;
SHELXS97 (Sheldrick, 2008) and OLEX-2 (Dolomanov <i>et al</i>., 2009)
;
_diffrn_ambient_temperature      100(2)
_diffrn_detector_type            'ADSC Quantum 210r'
_diffrn_measured_fraction_theta_full 0.989
_diffrn_measured_fraction_theta_max 1.000
_diffrn_measurement_device_type  '3-BM1 Australian Synchrotron'
_diffrn_measurement_method       'Phi Scan'
_diffrn_radiation_monochromator  Si<111>
_diffrn_radiation_type           Synchrotron
_diffrn_radiation_wavelength     0.71080
_diffrn_reflns_av_R_equivalents  0.0316
_diffrn_reflns_av_unetI/netI     0.0141
_diffrn_reflns_Laue_measured_fraction_full 0.989
_diffrn_reflns_Laue_measured_fraction_max 1.000
_diffrn_reflns_limit_h_max       12
_diffrn_reflns_limit_h_min       -12
_diffrn_reflns_limit_k_max       12
_diffrn_reflns_limit_k_min       -12
_diffrn_reflns_limit_l_max       4
_diffrn_reflns_limit_l_min       -4
_diffrn_reflns_number            1764
_diffrn_reflns_point_group_measured_fraction_full 0.994
_diffrn_reflns_point_group_measured_fraction_max 1.000
_diffrn_reflns_theta_full        25.244
_diffrn_reflns_theta_max         26.355
_diffrn_reflns_theta_min         3.925
_diffrn_source                   'Synchrotron BM'
_diffrn_standards_decay_%        0
_diffrn_standards_interval_count 0
_diffrn_standards_interval_time  0
_diffrn_standards_number         0
_exptl_absorpt_coefficient_mu    15.146
_exptl_absorpt_correction_type   none
_exptl_crystal_colour            colourless
_exptl_crystal_density_diffrn    4.017
_exptl_crystal_description       tetrahedra
_exptl_crystal_F_000             405
_exptl_crystal_size_max          0.008
_exptl_crystal_size_mid          0.007
_exptl_crystal_size_min          0.007
_refine_diff_density_max         0.306
_refine_diff_density_min         -0.641
_refine_diff_density_rms         0.107
_refine_ls_abs_structure_details
;
 Flack x determined using 93 quotients [(I+)-(I-)]/[(I+)+(I-)]
 (Parsons and Flack (2004), Acta Cryst. A60, s61).
;
_refine_ls_abs_structure_Flack   -0.075(19)
_refine_ls_extinction_coef       0.0065(11)
_refine_ls_extinction_expression Fc^*^=kFc[1+0.001xFc^2^\l^3^/sin(2\q)]^-1/4^
_refine_ls_extinction_method     SHELXL
_refine_ls_goodness_of_fit_ref   0.831
_refine_ls_hydrogen_treatment    constr
_refine_ls_matrix_type           full
_refine_ls_number_parameters     23
_refine_ls_number_reflns         192
_refine_ls_number_restraints     1
_refine_ls_restrained_S_all      0.828
_refine_ls_R_factor_all          0.0091
_refine_ls_R_factor_gt           0.0091
_refine_ls_shift/su_max          0.000
_refine_ls_shift/su_mean         0.000
_refine_ls_structure_factor_coef Fsqd
_refine_ls_weighting_details
'w=1/[\s^2^(Fo^2^)+(0.0250P)^2^+0.6628P] where P=(Fo^2^+2Fc^2^)/3'
_refine_ls_weighting_scheme      calc
_refine_ls_wR_factor_gt          0.0231
_refine_ls_wR_factor_ref         0.0231
_reflns_Friedel_coverage         0.939
_reflns_Friedel_fraction_full    1.000
_reflns_Friedel_fraction_max     1.000
_reflns_number_gt                192
_reflns_number_total             192
_reflns_threshold_expression     'I > 2\s(I)'
_cod_data_source_file            mmc2.cif
_cod_data_source_block           R3m
_cod_original_cell_volume        369.04(13)
_cod_database_code               1562211
_shelx_space_group_comment
;
The symmetry employed for this shelxl refinement is uniquely defined
by the following loop, which should always be used as a source of
symmetry information in preference to the above space-group names.
They are only intended as comments.
;
_shelx_estimated_absorpt_t_min   0.888
_shelx_estimated_absorpt_t_max   0.901
_shelxl_version_number           2013-3
_shelx_res_file
;
TITL
CELL 0.71080 10.384 10.384 3.952 90 90 120
ZERR 3 0.0015 0.0015 0.0008 0 0 0
LATT -3
SYMM -Y,+X-Y,+Z
SYMM +Y-X,-X,+Z
SYMM -Y,-X,+Z
SYMM +Y-X,+Y,+Z
SYMM +X,+X-Y,+Z
SFAC C  H  O  Dy
UNIT 9  9  18  3
L.S. 10
SHEL 999 0.8
ACTA
BOND
FMAP 2
PLAN 5
Size 0.007 0.007 0.008
MORE -1
CONF
WGHT    0.025000    0.662823
EXTI    0.006489
FVAR       0.27596
MOLE 2
DY1   4    0.000000    0.000000    0.068030    10.16667    0.00248    0.00248 =
         0.00441    0.00000    0.00000    0.00124
O1    3    0.132236    0.264473    0.049484    10.50000    0.01224    0.00739 =
         0.00930    0.00107    0.00053    0.00369
O2    3    0.249634    0.499268    0.229502    10.50000    0.00794    0.00545 =
         0.01021    0.00112    0.00056    0.00272
C1    1    0.179463    0.358925    0.277773    10.50000    0.00912    0.00880 =
         0.01088   -0.00135   -0.00067    0.00440
AFIX  43
H1CA  2    0.162572    0.325144    0.500188    10.50000   -1.20000
AFIX   0
HKLF 4

REM
REM R1 =  0.0091 for     192 Fo > 4sig(Fo)  and  0.0091 for all     192 data
REM     23 parameters refined using      1 restraints

END

WGHT      0.0133      0.0000

REM Highest difference peak  0.306,  deepest hole -0.641,  1-sigma level  0.107
Q1    1   0.2833  0.5090  0.3520  11.00000  0.05    0.31
Q2    1   0.1795  0.5898  0.1183  10.50000  0.05    0.30
Q3    1   0.1640  0.3281  0.1545  10.50000  0.05    0.29
Q4    1   0.1064  0.2129  0.1325  10.50000  0.05    0.28
Q5    1   0.2276  0.4552  0.6699  10.50000  0.05    0.26
;
_shelx_res_checksum              62863
_shelx_hkl_file
;
  -1  -1   0 1921.00   72.05
  -1  -1   0 1883.00   70.67
   1   1   0 1863.00   69.91
   1   1   0 2068.00   77.57
  -2  -2   0 2884.00  108.20
  -2  -2   0 2861.00  107.40
   2   2   0 2816.00  105.70
   2   2   0 2942.00  110.40
  -3  -3   0 2203.00   82.82
  -3  -3   0 2021.00   75.95
   3   3   0 2270.00   85.34
   3   3   0 2067.00   77.75
  -4  -4   0 1812.00   68.16
  -4  -4   0 1850.00   69.67
   4   4   0 1798.00   67.75
   4   4   0 2005.00   75.50
  -5  -5   0 1282.00   48.35
  -5  -5   0 1317.00   49.84
   5   5   0 1384.00   52.18
   5   5   0 1349.00   51.08
  -6  -6   0  609.60   23.57
  -6  -6   0  588.20   22.51
   6   6   0  634.50   24.30
   6   6   0  609.70   23.63
   5   8   0  343.90   13.84
  -5  -8   0  332.80   13.68
   4   7   0  656.00   25.20
   4   7   0  648.30   24.74
  -4  -7   0  570.30   21.95
  -4  -7   0  538.50   20.82
   3   6   0  899.40   34.08
   3   6   0 1007.00   38.21
  -3  -6   0  971.00   36.88
  -3  -6   0 1007.00   38.13
   2   5   0 1140.00   43.09
   2   5   0 1089.00   41.10
  -2  -5   0 1202.00   45.47
  -2  -5   0 1102.00   41.65
   1   4   0 1421.00   53.50
   1   4   0 1379.00   51.89
  -1  -4   0 1214.00   45.78
  -1  -4   0 1215.00   45.81
   0  -3   0  896.20   33.76
   0  -3   0  918.30   34.63
  -1   2   0 2220.00   83.25
   1  -2   0 2001.00   75.04
   1  -2   0 1758.00   65.93
  -2   1   0 1805.00   67.69
   2  -1   0 1852.00   69.49
  -3   0   0  895.30   33.72
  -3   0   0  857.90   32.27
   3   0   0  838.70   31.61
   3   0   0  906.90   34.15
  -4  -1   0 1427.00   53.63
  -4  -1   0 1348.00   50.77
   4   1   0 1238.00   46.67
   4   1   0 1205.00   45.42
  -5  -2   0 1124.00   42.48
  -5  -2   0 1105.00   41.65
  -6  -3   0  950.50   35.94
  -6  -3   0  983.20   37.28
   6   3   0 1047.00   39.64
   6   3   0  991.50   37.65
  -7  -4   0  637.90   24.32
  -7  -4   0  655.90   25.17
   7   4   0  595.20   22.76
   7   4   0  589.20   22.84
  -8  -5   0  386.30   15.07
  -8  -5   0  419.10   16.59
   8   5   0  469.50   18.21
   8   5   0  447.50   17.78
   3   9   0  705.10   27.02
   3   9   0  687.90   26.30
  -3  -9   0  695.10   26.66
  -3  -9   0  622.10   24.02
   2   8   0  750.00   28.54
   2   8   0  797.80   30.36
  -2  -8   0  714.80   27.35
  -2  -8   0  711.20   27.10
   1   7   0 1090.00   41.17
   1   7   0 1124.00   42.51
  -1  -7   0 1183.00   44.73
  -1  -7   0 1207.00   45.71
   0   6   0 1506.00   56.71
   0   6   0 1491.00   56.10
   0  -6   0 1401.00   52.82
   0  -6   0 1467.00   55.31
  -1   5   0 1336.00   50.24
  -1   5   0 1385.00   52.10
   1  -5   0 1253.00   47.23
   1  -5   0 1211.00   45.61
  -2   4   0 2846.00  106.70
  -2   4   0 2830.00  106.10
   2  -4   0 3041.00  114.00
   2  -4   0 2871.00  107.70
  -3   3   0  643.80   24.72
   3  -3   0  798.60   30.78
   3  -3   0  774.50   29.85
  -4   2   0 2677.00  100.40
  -4   2   0 2864.00  107.50
   4  -2   0 3367.00  126.30
  -5   1   0 1252.00   47.11
  -5   1   0 1383.00   51.95
   5  -1   0 1246.00   46.88
   5  -1   0 1338.00   50.34
  -6   0   0 1463.00   55.02
  -6   0   0 1518.00   57.16
   6   0   0 1492.00   56.19
   6   0   0 1369.00   51.60
  -7  -1   0 1015.00   38.33
  -7  -1   0 1051.00   39.79
   7   1   0 1200.00   45.38
   7   1   0 1207.00   45.66
  -8  -2   0  732.50   27.81
  -8  -2   0  797.80   30.40
   8   2   0  764.90   29.30
   8   2   0  755.30   28.68
  -9  -3   0  671.10   25.60
  -9  -3   0  723.00   27.79
   9   3   0  718.40   27.66
   9   3   0  703.00   26.83
   1  10   0  748.90   28.61
   1  10   0  741.10   28.30
   0   9   0  652.60   24.87
   0   9   0  645.20   24.66
   0  -9   0  673.30   25.82
   0  -9   0  711.00   27.12
  -1   8   0 1134.00   42.85
  -1   8   0 1122.00   42.35
   1  -8   0 1224.00   46.23
   1  -8   0 1100.00   41.64
  -2   7   0 1110.00   41.84
  -2   7   0 1149.00   43.32
   2  -7   0 1134.00   42.84
   2  -7   0 1178.00   44.39
  -3   6   0 2204.00   82.74
  -3   6   0 2183.00   81.95
   3  -6   0 2107.00   79.10
   3  -6   0 2030.00   76.27
  -4   5   0 1180.00   44.39
  -4   5   0 1074.00   40.39
   4  -5   0 1328.00   49.96
   4  -5   0 1330.00   50.02
  -6   3   0 2177.00   81.76
  -6   3   0 2063.00   77.43
   6  -3   0 2039.00   76.56
   6  -3   0 2276.00   85.46
  -7   2   0 1164.00   43.88
  -7   2   0 1069.00   40.23
   7  -2   0 1169.00   44.04
   7  -2   0 1177.00   44.34
  -8   1   0 1042.00   39.30
  -8   1   0 1143.00   43.20
   8  -1   0 1183.00   44.69
   8  -1   0 1220.00   46.05
  -9   0   0  656.80   25.11
  -9   0   0  672.60   25.56
   9   0   0  727.20   27.76
   9   0   0  722.10   27.63
 -10  -1   0  713.90   27.42
 -10  -1   0  690.50   26.36
  10   1   0  757.80   29.15
  10   1   0  797.40   30.33
 -11  -2   0  589.20   22.98
 -11  -2   0  563.80   21.78
  11   2   0  591.30   22.82
  11   2   0  556.70   21.98
  -1  11   0  722.40   27.60
  -1  11   0  747.90   28.55
   1 -11   0  716.40   27.44
   1 -11   0  726.50   27.75
  -2  10   0  742.60   28.24
  -2  10   0  783.20   29.81
   2 -10   0  737.70   28.15
   2 -10   0  718.20   27.45
  -3   9   0 1015.00   38.31
  -3   9   0  986.50   37.31
   3  -9   0 1018.00   38.61
   3  -9   0 1058.00   39.99
  -4   8   0 1851.00   69.55
  -4   8   0 1825.00   68.63
   4  -8   0 1826.00   68.69
   4  -8   0 1922.00   72.23
  -5   7   0 1066.00   40.12
  -5   7   0 1141.00   42.94
   5  -7   0 1084.00   40.79
   5  -7   0 1067.00   40.21
  -8   4   0 1845.00   69.35
  -8   4   0 1854.00   69.65
   8  -4   0 1935.00   72.73
   8  -4   0 1813.00   68.17
  -9   3   0  950.50   35.95
  -9   3   0  941.70   35.53
   9  -3   0 1009.00   38.13
   9  -3   0 1034.00   39.08
 -10   2   0  726.70   27.62
 -10   2   0  744.40   28.39
  10  -2   0  782.20   29.77
  10  -2   0  755.30   28.77
 -11   1   0  707.50   27.20
 -11   1   0  723.10   27.58
  11  -1   0  731.00   27.86
  11  -1   0  786.30   30.12
 -12   0   0  689.70   26.65
 -12   0   0  656.80   25.27
  12   0   0  664.80   25.54
  12   0   0  660.30   25.68
  -2  13   0  622.60   24.01
  -2  13   0  615.20   23.92
   2 -13   0  538.90   21.07
   2 -13   0  554.30   21.66
  -3  12   0  723.00   27.73
  -3  12   0  693.50   26.55
   3 -12   0  668.60   25.67
   3 -12   0  671.60   25.83
  -4  11   0  683.70   26.13
  -4  11   0  672.90   25.78
   4 -11   0  558.40   21.38
   4 -11   0  563.50   21.71
  -5  10   0 1276.00   48.12
  -5  10   0 1301.00   49.11
   5 -10   0 1336.00   50.41
   5 -10   0 1296.00   48.87
  -6   9   0  922.10   34.80
  -6   9   0 1008.00   38.01
 -10   5   0 1288.00   48.55
 -10   5   0 1184.00   44.66
  10  -5   0 1296.00   48.85
  10  -5   0 1284.00   48.40
 -11   4   0  645.60   24.68
 -11   4   0  639.60   24.35
  11  -4   0  578.70   22.10
  11  -4   0  581.40   22.18
 -12   3   0  697.80   26.80
 -12   3   0  711.30   27.19
  12  -3   0  720.10   27.53
  12  -3   0  691.90   26.50
 -13   2   0  623.20   24.44
 -13   2   0  571.30   22.16
  13  -2   0  599.10   23.15
  13  -2   0  557.30   21.74
  -4  14   0  439.60   17.33
  -4  14   0  455.50   18.27
   4 -14   0  399.00   16.23
   4 -14   0  455.60   18.14
  -5  13   0  424.00   16.59
  -5  13   0  442.60   17.48
   5 -13   0  461.10   18.08
   5 -13   0  442.20   17.31
  -6  12   0  613.70   23.46
  -6  12   0  653.10   25.09
   6 -12   0  613.10   23.54
   6 -12   0  664.60   25.36
  -7  11   0  540.30   20.62
  -7  11   0  546.20   20.79
   7 -11   0  646.70   24.54
   7 -11   0  641.20   24.37
 -13   5   0  387.10   15.17
 -13   5   0  422.20   16.75
  13  -5   0  425.70   16.61
  13  -5   0  422.10   16.34
   8 -13   0  350.30   13.73
   8 -13   0  346.10   13.50
   7 -13  -1  438.30   17.33
   7 -13  -1  402.80   15.84
  13  -4  -1  667.90   25.87
  13  -4  -1  641.40   24.83
 -13   4   1  646.80   25.00
 -13   4   1  645.90   24.99
  12  -5  -1  712.70   27.18
  12  -5  -1  711.80   27.08
 -12   5   1  626.80   23.93
 -12   5   1  641.10   24.44
   7 -10  -1  703.50   26.67
   7 -10  -1  762.10   28.89
  -7  10   1  719.60   27.24
  -7  10   1  677.90   25.70
   6 -11  -1  910.30   34.47
   6 -11  -1  943.80   35.81
  -6  11   1 1013.00   38.35
  -6  11   1 1045.00   39.51
   5 -12  -1  742.30   28.34
   5 -12  -1  774.90   29.65
  -5  12   1  703.30   26.94
  -5  12   1  668.60   25.61
   4 -13  -1  650.40   25.23
   4 -13  -1  663.00   25.60
  -4  13   1  671.90   25.82
  -4  13   1  691.30   26.65
  13  -1  -1  289.10   13.28
  13  -1  -1  280.50   11.51
  12  -2  -1  744.30   28.74
  12  -2  -1  690.10   26.34
 -12   2   1  671.10   25.76
 -12   2   1  694.50   26.87
  11  -3  -1  645.30   24.59
  11  -3  -1  697.30   26.67
 -11   3   1  660.10   25.22
 -11   3   1  648.90   24.91
  10  -4  -1 1057.00   39.95
  10  -4  -1 1028.00   38.84
 -10   4   1  987.60   37.34
 -10   4   1  970.70   36.67
  -9   5   1  672.00   25.43
  -9   5   1  589.00   22.31
   5  -9  -1  702.90   26.70
   5  -9  -1  679.20   25.76
  -5   9   1  743.40   28.19
  -5   9   1  725.20   27.45
   4 -10  -1 1070.00   40.55
   4 -10  -1 1043.00   39.46
  -4  10   1 1021.00   38.65
  -4  10   1 1011.00   38.23
   3 -11  -1  670.30   25.72
   3 -11  -1  713.20   27.21
  -3  11   1  693.30   26.56
  -3  11   1  607.60   23.27
   2 -12  -1  747.80   28.63
   2 -12  -1  729.60   28.07
  -2  12   1  704.10   27.07
  -2  12   1  661.30   25.36
  11   0  -1  452.80   17.96
  11   0  -1  438.00   16.95
 -11   0   1  464.00   18.29
 -11   0   1  419.50   16.45
  10  -1  -1  651.10   24.78
  10  -1  -1  691.10   26.48
 -10   1   1  658.20   25.24
 -10   1   1  664.40   25.40
   9  -2  -1  954.80   36.13
   9  -2  -1  961.50   36.41
  -9   2   1 1066.00   40.21
  -9   2   1 1045.00   39.53
   8  -3  -1  670.80   25.45
   8  -3  -1  635.90   24.14
  -8   3   1  594.50   22.59
  -8   3   1  592.10   22.41
   7  -4  -1  749.60   28.30
   7  -4  -1  806.40   30.41
  -7   4   1  805.80   30.38
  -7   4   1  882.50   33.23
   6  -5  -1 1218.00   46.11
   6  -5  -1 1200.00   45.41
  -6   5   1 1161.00   43.90
  -6   5   1 1231.00   46.51
   5  -6  -1 1166.00   43.91
   5  -6  -1 1080.00   40.67
  -5   6   1 1209.00   45.49
  -5   6   1 1071.00   40.28
   4  -7  -1  782.60   29.59
   4  -7  -1  826.20   31.19
  -4   7   1  923.00   34.77
  -4   7   1  950.10   35.82
   3  -8  -1  644.30   24.52
   3  -8  -1  673.00   25.55
  -3   8   1  600.70   22.79
  -3   8   1  615.30   23.41
   2  -9  -1  981.40   37.18
   2  -9  -1 1001.00   38.01
  -2   9   1 1136.00   42.96
  -2   9   1 1114.00   42.10
   1 -10  -1  683.80   26.27
   1 -10  -1  708.40   27.01
  -1  10   1  648.20   24.77
  -1  10   1  686.30   26.26
   0 -11  -1  457.60   17.81
   0 -11  -1  459.20   18.03
   0  11   1  489.10   18.98
   0  11   1  478.10   18.58
  10   2  -1  687.60   26.24
  10   2  -1  709.40   27.37
 -10  -2   1  647.10   25.02
 -10  -2   1  663.10   25.42
   9   1  -1  708.70   26.99
   9   1  -1  700.10   26.96
  -9  -1   1  677.10   25.80
  -9  -1   1  661.90   25.40
   8   0  -1 1583.00   59.68
   8   0  -1 1582.00   59.64
  -8   0   1 1621.00   61.01
  -8   0   1 1534.00   57.84
   7  -1  -1 1138.00   42.95
   7  -1  -1 1183.00   44.65
  -7   1   1 1126.00   42.50
  -7   1   1 1140.00   42.95
   6  -2  -1 1692.00   63.60
   6  -2  -1 1752.00   65.88
  -6   2   1 1745.00   65.57
  -6   2   1 1644.00   61.82
   5  -3  -1 2177.00   81.73
   5  -3  -1 2063.00   77.49
  -5   3   1 1931.00   72.50
  -5   3   1 2203.00   82.66
   4  -4  -1 2222.00   83.42
   4  -4  -1 2016.00   75.71
  -4   4   1 2130.00   79.94
  -4   4   1 2199.00   82.54
   3  -5  -1 2037.00   76.49
   3  -5  -1 2218.00   83.31
  -3   5   1 2095.00   78.65
  -3   5   1 2291.00   85.97
   2  -6  -1 1802.00   67.73
   2  -6  -1 1788.00   67.29
  -2   6   1 1597.00   60.06
  -2   6   1 1547.00   58.21
   1  -7  -1 1133.00   42.84
   1  -7  -1 1135.00   42.84
  -1   7   1 1186.00   44.75
  -1   7   1 1169.00   44.09
   0  -8  -1 1566.00   59.09
   0  -8  -1 1403.00   52.93
   0   8   1 1556.00   58.60
   0   8   1 1716.00   64.63
  -1  -9  -1  647.00   24.87
  -1  -9  -1  688.30   26.25
   1   9   1  698.50   26.64
   1   9   1  719.00   27.47
  -2 -10  -1  722.90   27.75
  -2 -10  -1  722.90   27.72
   2  10   1  695.50   26.70
   2  10   1  633.70   24.38
   8   3  -1  690.10   26.28
   8   3  -1  657.90   25.36
  -8  -3   1  650.10   24.80
  -8  -3   1  670.10   25.74
   7   2  -1 1023.00   38.70
   7   2  -1  897.80   34.19
  -7  -2   1 1070.00   40.41
  -7  -2   1 1052.00   39.86
   6   1  -1 1170.00   44.22
   6   1  -1 1182.00   44.63
  -6  -1   1 1212.00   45.66
  -6  -1   1 1091.00   41.23
   5   0  -1 1586.00   59.75
   5   0  -1 1511.00   56.91
  -5   0   1 1623.00   61.09
  -5   0   1 1557.00   58.53
   4  -1  -1 2097.00   78.75
   4  -1  -1 2300.00   86.33
  -4   1   1 2011.00   75.50
  -4   1   1 2090.00   78.44
   3  -2  -1 1778.00   66.73
   3  -2  -1 1720.00   64.59
  -3   2   1 1854.00   69.57
  -3   2   1 1994.00   74.81
   2  -3  -1 1895.00   71.16
   2  -3  -1 1714.00   64.35
  -2   3   1 1937.00   72.68
  -2   3   1 2040.00   76.55
   1  -4  -1 2235.00   83.97
   1  -4  -1 2243.00   84.23
  -1   4   1 2051.00   76.99
  -1   4   1 2119.00   79.59
   0  -5  -1 1445.00   54.47
   0  -5  -1 1521.00   57.28
   0   5   1 1646.00   61.91
   0   5   1 1617.00   60.83
  -1  -6  -1 1104.00   41.70
  -1  -6  -1 1102.00   41.75
   1   6   1 1174.00   44.32
   1   6   1 1162.00   43.83
  -2  -7  -1  911.70   34.54
  -2  -7  -1  928.40   35.29
   2   7   1 1043.00   39.43
   2   7   1 1087.00   41.15
  -3  -8  -1  685.20   26.21
  -3  -8  -1  641.40   24.69
   3   8   1  646.80   24.73
   3   8   1  642.30   24.71
   7   5  -1  737.50   28.10
   7   5  -1  712.20   27.39
  -7  -5   1  633.60   24.19
  -7  -5   1  652.90   25.18
   6   4  -1 1077.00   40.74
   6   4  -1 1001.00   38.09
  -6  -4   1  987.30   37.50
  -6  -4   1  973.80   36.82
   5   3  -1  655.60   25.05
   5   3  -1  641.10   24.51
  -5  -3   1  591.10   22.47
  -5  -3   1  560.70   21.51
   4   2  -1 1858.00   69.93
   4   2  -1 1752.00   66.00
  -4  -2   1 1679.00   63.19
  -4  -2   1 1681.00   63.22
   3   1  -1 2081.00   78.20
   3   1  -1 2347.00   88.16
  -3  -1   1 1914.00   71.93
  -3  -1   1 2104.00   79.00
   2   0  -1 2343.00   87.95
   2   0  -1 2312.00   86.76
   1  -1  -1 1246.00   46.81
   1  -1  -1 1192.00   44.82
  -1   1   1 1304.00   48.95
  -1   1   1 1322.00   49.66
   0  -2  -1 2348.00   88.12
   0  -2  -1 2326.00   87.34
   0   2   1 2016.00   75.67
   0   2   1 2040.00   76.59
  -1  -3  -1 2139.00   80.41
  -1  -3  -1 2146.00   80.64
   1   3   1 1879.00   70.58
   1   3   1 1992.00   74.84
  -2  -4  -1 1657.00   62.40
  -2  -4  -1 1684.00   63.46
   2   4   1 1641.00   61.76
   2   4   1 1619.00   60.92
  -3  -5  -1  625.50   24.00
  -3  -5  -1  628.00   24.00
   3   5   1  602.90   23.08
   3   5   1  582.30   22.23
  -4  -6  -1  990.00   37.55
  -4  -6  -1  961.60   36.54
   4   6   1  973.30   36.95
   4   6   1  947.60   35.94
  -5  -7  -1  696.40   26.77
  -5  -7  -1  654.40   25.16
   5   7   1  586.50   22.68
   5   7   1  624.20   24.09
   5   6  -1  906.40   34.38
   5   6  -1  904.00   34.54
  -5  -6   1  917.60   34.95
  -5  -6   1  960.20   36.39
   4   5  -1  640.70   24.66
   4   5  -1  709.70   26.97
  -4  -5   1  651.90   24.81
  -4  -5   1  627.10   24.09
   3   4  -1  826.20   31.40
   3   4  -1  784.60   29.84
  -3  -4   1  904.60   34.20
  -3  -4   1  880.40   33.41
   2   3  -1 2257.00   84.82
   2   3  -1 2255.00   84.79
  -2  -3   1 2162.00   81.32
  -2  -3   1 2243.00   84.24
   0   1  -1 1355.00   50.93
   0   1  -1 1320.00   49.60
   0  -1   1 1366.00   51.38
   0  -1   1 1355.00   50.94
  -1   0  -1 1354.00   50.91
  -1   0  -1 1241.00   46.64
   1   0   1 1342.00   50.44
   1   0   1 1312.00   49.30
  -2  -1  -1 1784.00   67.04
  -2  -1  -1 1868.00   70.15
   2   1   1 1999.00   75.13
   2   1   1 1993.00   74.89
  -3  -2  -1 2065.00   77.66
  -3  -2  -1 2172.00   81.59
  -4  -3  -1  743.80   28.30
  -4  -3  -1  771.80   29.21
   4   3   1  889.60   33.74
   4   3   1  906.70   34.38
  -5  -4  -1  616.90   23.66
  -5  -4  -1  656.80   24.97
   5   4   1  704.60   26.99
   5   4   1  680.80   25.90
  -6  -5  -1  845.40   32.06
  -6  -5  -1  878.80   33.47
   6   5   1 1003.00   37.96
   6   5   1  967.90   36.92
   4   8  -1  707.50   27.11
   4   8  -1  695.80   26.63
  -4  -8   1  730.60   28.09
  -4  -8   1  755.80   28.91
   3   7  -1  761.00   29.02
   3   7  -1  852.00   32.39
  -3  -7   1  826.10   31.60
  -3  -7   1  754.40   28.76
   2   6  -1 1094.00   41.32
   2   6  -1 1135.00   42.94
  -2  -6   1 1070.00   40.55
  -2  -6   1 1063.00   40.28
   1   5  -1 1246.00   47.01
   1   5  -1 1269.00   47.85
  -1  -5   1 1245.00   47.04
  -1  -5   1 1271.00   47.96
   0   4  -1 2188.00   82.19
   0   4  -1 2383.00   89.48
  -1   3  -1 1874.00   70.35
  -1   3  -1 1934.00   72.63
  -2   2  -1 2147.00   80.56
  -2   2  -1 2219.00   83.26
   2  -2   1 1903.00   71.43
   2  -2   1 1935.00   72.64
  -3   1  -1 1746.00   65.56
  -3   1  -1 1848.00   69.40
   3  -1   1 1964.00   73.76
   3  -1   1 1908.00   71.65
  -4   0  -1 2303.00   86.51
  -4   0  -1 2265.00   85.02
   4   0   1 2370.00   89.02
   4   0   1 2311.00   86.82
  -5  -1  -1 1169.00   44.13
  -5  -1  -1 1226.00   46.17
   5   1   1 1231.00   46.47
   5   1   1 1244.00   46.93
  -6  -2  -1 1072.00   40.48
  -6  -2  -1 1009.00   38.24
   6   2   1 1074.00   40.68
   6   2   1 1072.00   40.62
  -7  -3  -1  788.60   29.94
  -7  -3  -1  788.20   30.07
   7   3   1  804.30   30.54
   7   3   1  774.40   29.65
  -8  -4  -1  744.10   28.35
  -8  -4  -1  727.80   28.01
   8   4   1  780.10   29.88
   8   4   1  825.10   31.34
   2   9  -1  537.10   20.64
   2   9  -1  579.40   22.32
  -2  -9   1  558.20   21.63
  -2  -9   1  569.00   21.90
   1   8  -1 1045.00   39.52
   1   8  -1 1113.00   42.12
  -1  -8   1 1032.00   39.06
  -1  -8   1 1033.00   39.24
   0   7  -1 1505.00   56.73
   0   7  -1 1417.00   53.41
   0  -7   1 1393.00   52.57
   0  -7   1 1347.00   50.90
  -1   6  -1 1260.00   47.46
  -1   6  -1 1191.00   44.92
   1  -6   1 1279.00   48.22
   1  -6   1 1201.00   45.37
  -2   5  -1 2230.00   83.72
  -2   5  -1 2130.00   80.00
   2  -5   1 2245.00   84.30
   2  -5   1 2175.00   81.75
  -3   4  -1 2160.00   81.09
  -3   4  -1 2190.00   82.20
   3  -4   1 1932.00   72.53
   3  -4   1 2065.00   77.55
  -4   3  -1 2248.00   84.41
  -4   3  -1 2030.00   76.18
   4  -3   1 1931.00   72.51
   4  -3   1 1918.00   72.01
  -5   2  -1 2113.00   79.31
  -5   2  -1 2181.00   81.92
   5  -2   1 2207.00   82.90
   5  -2   1 2159.00   81.08
  -6   1  -1 1215.00   45.73
  -6   1  -1 1213.00   45.74
   6  -1   1 1238.00   46.67
   6  -1   1 1257.00   47.42
  -7   0  -1 1452.00   54.76
  -7   0  -1 1362.00   51.31
   7   0   1 1404.00   52.96
   7   0   1 1302.00   49.15
  -8  -1  -1  999.80   37.81
  -8  -1  -1 1081.00   40.95
   8   1   1 1068.00   40.55
   8   1   1 1088.00   41.10
  -9  -2  -1  584.60   22.35
  -9  -2  -1  583.30   22.59
   9   2   1  559.80   21.65
   9   2   1  607.30   23.22
   0  10  -1  633.90   24.25
   0  10  -1  634.80   24.28
   0 -10   1  668.60   25.63
   0 -10   1  668.50   25.55
  -1   9  -1 1084.00   41.02
  -1   9  -1 1077.00   40.73
   1  -9   1 1076.00   40.82
   1  -9   1 1144.00   43.28
  -2   8  -1 1024.00   38.71
  -2   8  -1 1018.00   38.49
   2  -8   1 1062.00   40.20
   2  -8   1 1153.00   43.54
  -3   7  -1  840.70   31.77
  -3   7  -1  780.10   29.50
   3  -7   1  904.70   34.25
   3  -7   1  955.10   36.09
  -4   6  -1 1784.00   67.03
  -4   6  -1 1869.00   70.23
   4  -6   1 1599.00   60.14
   4  -6   1 1699.00   63.88
  -5   5  -1 1429.00   53.70
  -5   5  -1 1628.00   61.20
   5  -5   1 1374.00   51.68
   5  -5   1 1427.00   53.65
   6  -4   1 1518.00   57.08
   6  -4   1 1634.00   61.41
  -7   3  -1  760.80   28.72
  -7   3  -1  786.40   29.76
   7  -3   1  933.70   35.24
   7  -3   1  928.00   35.05
  -8   2  -1 1051.00   39.71
  -8   2  -1 1057.00   39.85
   8  -2   1 1149.00   43.42
   8  -2   1 1082.00   40.86
  -9   1  -1 1055.00   39.98
  -9   1  -1 1082.00   40.87
   9  -1   1 1081.00   40.95
   9  -1   1 1073.00   40.63
 -10   0  -1  657.10   25.26
 -10   0  -1  629.50   24.08
  10   0   1  690.90   26.34
  10   0   1  662.00   25.45
 -11  -1  -1  490.10   19.30
 -11  -1  -1  468.60   18.24
  11   1   1  499.60   19.49
  11   1   1  467.80   18.38
  -1  12  -1  476.10   18.57
  -1  12  -1  447.90   17.36
   1 -12   1  484.10   18.88
   1 -12   1  456.30   18.03
  -2  11  -1  522.40   20.12
  -2  11  -1  589.20   22.63
   2 -11   1  558.90   21.59
   2 -11   1  579.40   22.23
  -3  10  -1  782.30   29.71
  -3  10  -1  767.40   29.16
   3 -10   1  829.80   31.56
   3 -10   1  747.80   28.51
  -4   9  -1  751.00   28.56
  -4   9  -1  670.70   25.47
   4  -9   1  726.20   27.63
   4  -9   1  699.70   26.66
  -5   8  -1  643.20   24.43
  -5   8  -1  692.80   26.22
   5  -8   1  620.30   23.55
   5  -8   1  578.30   22.03
  -6   7  -1  999.40   37.67
  -6   7  -1 1117.00   42.05
   6  -7   1 1207.00   45.46
   6  -7   1 1088.00   40.99
  -7   6  -1 1079.00   40.61
  -7   6  -1 1105.00   41.61
   7  -6   1 1043.00   39.29
   7  -6   1 1151.00   43.34
  -8   5  -1  571.00   21.60
  -8   5  -1  622.30   23.59
   8  -5   1  537.00   20.40
   8  -5   1  613.90   23.27
  -9   4  -1  645.30   24.43
  -9   4  -1  665.70   25.28
 -10   3  -1  765.90   29.14
 -10   3  -1  789.60   29.99
  10  -3   1  844.00   32.02
  10  -3   1  836.10   31.73
 -11   2  -1  592.00   22.89
 -11   2  -1  569.00   21.89
  11  -2   1  608.50   23.47
  11  -2   1  603.70   23.16
 -12   1  -1  458.60   17.97
 -12   1  -1  485.80   19.22
  12  -1   1  480.40   18.91
  12  -1   1  520.30   20.14
  -3  13  -1  646.20   24.81
  -3  13  -1  694.90   26.74
   3 -13   1  718.00   27.69
   3 -13   1  688.90   26.47
  -4  12  -1  698.90   26.76
  -4  12  -1  754.60   28.83
   4 -12   1  832.70   31.79
   4 -12   1  809.40   30.84
  -5  11  -1  946.50   35.95
  -5  11  -1  891.50   33.89
   5 -11   1 1018.00   38.55
   5 -11   1 1006.00   38.14
  -6  10  -1 1091.00   41.28
  -6  10  -1 1018.00   38.52
   6 -10   1  964.90   36.51
   6 -10   1 1045.00   39.47
  -7   9  -1  939.10   35.48
  -7   9  -1  860.30   32.52
   7  -9   1 1100.00   41.47
   7  -9   1  969.50   36.57
  -8   8  -1 1489.00   56.13
  -8   8  -1 1588.00   59.89
   8  -8   1 1616.00   60.94
   8  -8   1 1554.00   58.58
  -9   7  -1  930.50   35.20
  -9   7  -1  919.50   34.78
   9  -7   1 1038.00   39.24
   9  -7   1 1110.00   41.97
 -10   6  -1  999.50   37.74
 -10   6  -1  942.00   35.60
  10  -6   1 1036.00   39.10
  10  -6   1  927.10   35.02
 -11   5  -1  927.40   35.15
 -11   5  -1  857.60   32.52
 -12   4  -1  710.60   27.19
 -12   4  -1  765.80   29.36
  12  -4   1  847.80   32.32
  12  -4   1  812.10   30.95
 -13   3  -1  675.50   26.03
 -13   3  -1  705.60   27.36
  13  -3   1  730.70   28.04
  13  -3   1  722.50   27.97
  -5  14  -1  505.50   20.12
  -5  14  -1  489.60   19.43
   5 -14   1  478.00   19.08
   5 -14   1  467.50   18.35
  -6  13  -1  470.70   18.46
  -6  13  -1  447.70   17.84
   6 -13   1  503.70   19.73
   6 -13   1  467.00   18.20
  -7  12  -1  712.60   27.27
  -7  12  -1  743.70   28.40
   7 -12   1  663.90   25.31
   7 -12   1  621.10   23.82
  -8  11  -1  609.30   23.21
  -8  11  -1  641.10   24.41
   8 -11   1  642.60   24.41
   8 -11   1  594.40   22.62
  13  -6   1  477.10   18.54
  13  -6   1  416.00   16.48
  -8  11   2  459.40   17.75
  -8  11   2  512.80   19.66
   7 -12  -2  471.20   18.45
   7 -12  -2  430.70   16.92
  -7  12   2  437.80   17.28
  -7  12   2  500.80   19.55
   6 -13  -2  302.30   12.68
   6 -13  -2  348.70   14.01
  12  -4  -2  415.70   16.61
  12  -4  -2  411.90   16.35
 -12   4   2  434.40   17.14
 -12   4   2  420.40   16.58
  11  -5  -2  572.60   21.97
  11  -5  -2  539.30   20.67
 -11   5   2  603.00   23.05
 -11   5   2  621.40   23.79
  10  -6  -2  837.00   31.68
  10  -6  -2  899.50   34.05
 -10   6   2  761.20   28.83
 -10   6   2  870.30   32.96
  -9   7   2  544.00   20.71
  -9   7   2  512.80   19.52
   8  -8  -2  872.70   33.03
   8  -8  -2  868.30   32.88
  -8   8   2  911.20   34.46
  -8   8   2  899.30   34.00
   7  -9  -2  533.90   20.37
   7  -9  -2  513.50   19.59
  -7   9   2  557.20   21.21
  -7   9   2  537.80   20.56
   6 -10  -2  825.40   31.34
   6 -10  -2  901.00   34.17
   5 -11  -2  583.60   22.44
   5 -11  -2  606.40   23.32
  -5  11   2  633.60   24.33
  -5  11   2  675.20   25.85
   4 -12  -2  408.70   16.27
   4 -12  -2  442.40   17.45
  -4  12   2  462.10   18.22
  -4  12   2  458.50   17.95
   3 -13  -2  462.00   18.43
   3 -13  -2  463.60   18.59
  -3  13   2  494.60   19.53
  -3  13   2  494.40   19.73
  12  -1  -2  584.00   22.89
  12  -1  -2  595.00   23.48
 -12   1   2  578.10   22.63
 -12   1   2  569.90   22.16
  11  -2  -2  717.50   27.52
  11  -2  -2  655.50   25.44
 -11   2   2  715.90   27.51
 -11   2   2  722.40   27.63
  10  -3  -2  594.20   22.83
  10  -3  -2  646.20   24.76
 -10   3   2  670.40   25.62
 -10   3   2  712.20   27.18
   9  -4  -2 1245.00   47.00
   9  -4  -2 1286.00   48.52
   8  -5  -2 1134.00   42.81
  -8   5   2 1216.00   45.85
  -8   5   2 1076.00   40.58
   7  -6  -2 1012.00   38.22
   7  -6  -2 1023.00   38.59
  -7   6   2 1001.00   37.72
  -7   6   2 1022.00   38.54
   6  -7  -2  966.00   36.48
   6  -7  -2 1035.00   39.09
  -6   7   2 1095.00   41.26
  -6   7   2 1059.00   39.93
   5  -8  -2 1109.00   41.93
   5  -8  -2 1005.00   38.00
  -5   8   2 1071.00   40.39
  -5   8   2 1173.00   44.25
   4  -9  -2 1231.00   46.51
   4  -9  -2 1312.00   49.63
  -4   9   2 1409.00   53.16
  -4   9   2 1338.00   50.46
   3 -10  -2  627.00   24.04
   3 -10  -2  623.00   23.94
  -3  10   2  732.10   27.94
  -3  10   2  713.90   27.31
   2 -11  -2  677.80   25.98
   2 -11  -2  702.10   26.98
  -2  11   2  743.80   28.45
  -2  11   2  767.20   29.33
  11   1  -2  610.60   23.54
  11   1  -2  558.30   22.11
 -11  -1   2  583.60   22.85
 -11  -1   2  572.70   22.24
  10   0  -2  613.00   23.83
  10   0  -2  572.10   22.07
 -10   0   2  512.40   19.79
 -10   0   2  511.70   19.98
   9  -1  -2  643.80   24.63
   9  -1  -2  637.50   24.57
  -9   1   2  575.80   22.14
  -9   1   2  637.50   24.37
   8  -2  -2 1004.00   38.06
   8  -2  -2  951.40   36.09
  -8   2   2  825.20   31.32
  -8   2   2  830.50   31.45
   7  -3  -2 1093.00   41.32
   7  -3  -2 1057.00   39.96
  -7   3   2 1020.00   38.53
  -7   3   2 1100.00   41.47
   6  -4  -2 1309.00   49.33
   6  -4  -2 1408.00   53.01
  -6   4   2 1213.00   45.71
  -6   4   2 1213.00   45.64
   5  -5  -2  684.50   25.93
   5  -5  -2  702.10   26.61
  -5   5   2  550.70   20.92
  -5   5   2  561.50   21.28
   4  -6  -2 1341.00   50.54
   4  -6  -2 1411.00   53.18
  -4   6   2 1297.00   48.89
  -4   6   2 1230.00   46.31
   3  -7  -2 1090.00   41.24
   3  -7  -2 1085.00   40.99
  -3   7   2 1114.00   42.01
  -3   7   2 1090.00   41.19
   2  -8  -2  931.20   35.38
   2  -8  -2  905.90   34.35
  -2   8   2  883.00   33.45
  -2   8   2  815.00   30.94
   1  -9  -2  657.00   25.19
   1  -9  -2  659.60   25.20
  -1   9   2  622.60   23.89
  -1   9   2  622.80   23.78
   0 -10  -2  556.00   21.67
   0 -10  -2  558.40   21.47
   0  10   2  504.30   19.56
   0  10   2  509.50   19.61
   9   2  -2  648.00   24.74
   9   2  -2  658.40   25.45
  -9  -2   2  710.10   27.23
  -9  -2   2  715.00   27.25
   8   1  -2  645.60   24.59
   8   1  -2  642.50   24.80
  -8  -1   2  620.70   23.69
  -8  -1   2  632.40   24.30
   7   0  -2 1244.00   47.07
   7   0  -2 1290.00   48.74
  -7   0   2 1172.00   44.21
  -7   0   2 1183.00   44.72
   6  -1  -2  875.30   33.23
   6  -1  -2  909.10   34.43
  -6   1   2 1001.00   37.78
  -6   1   2  924.00   34.98
   5  -2  -2 1863.00   70.07
   5  -2  -2 1826.00   68.70
  -5   2   2 1780.00   66.95
  -5   2   2 1822.00   68.45
   4  -3  -2 1149.00   43.30
   4  -3  -2 1173.00   44.22
  -4   3   2 1194.00   44.91
  -4   3   2 1101.00   41.51
   3  -4  -2 1248.00   47.04
   3  -4  -2 1167.00   44.00
  -3   4   2 1139.00   42.94
  -3   4   2 1135.00   42.73
   2  -5  -2 1755.00   66.03
   2  -5  -2 1904.00   71.64
  -2   5   2 2011.00   75.58
  -2   5   2 1828.00   68.75
   1  -6  -2  881.20   33.44
   1  -6  -2  861.80   32.66
  -1   6   2  952.50   36.02
  -1   6   2 1008.00   38.08
   0  -7  -2 1218.00   46.10
   0  -7  -2 1175.00   44.39
   0   7   2 1097.00   41.48
   0   7   2 1209.00   45.62
  -1  -8  -2  625.40   23.93
  -1  -8  -2  662.90   25.44
   1   8   2  646.40   24.81
   1   8   2  621.40   23.70
  -2  -9  -2  684.70   26.33
  -2  -9  -2  672.10   25.75
   2   9   2  737.40   28.18
   2   9   2  727.30   27.72
   8   4  -2  378.10   14.71
   8   4  -2  428.20   17.11
  -8  -4   2  429.10   16.91
  -8  -4   2  435.40   16.97
   7   3  -2  576.00   22.27
   7   3  -2  596.00   22.72
  -7  -3   2  647.40   24.85
  -7  -3   2  683.50   26.02
   6   2  -2  954.30   36.36
   6   2  -2  873.70   33.06
  -6  -2   2  787.90   30.02
  -6  -2   2  863.70   32.73
   5   1  -2  912.20   34.62
   5   1  -2  881.50   33.45
  -5  -1   2  955.40   36.19
  -5  -1   2  946.10   35.75
   4   0  -2  893.50   33.85
   4   0  -2  956.70   36.24
  -4   0   2 1073.00   40.44
  -4   0   2 1057.00   39.94
   3  -1  -2 1022.00   38.61
   3  -1  -2 1049.00   39.62
  -3   1   2  936.70   35.31
  -3   1   2  940.70   35.52
   2  -2  -2 1402.00   52.79
   2  -2  -2 1519.00   57.20
  -2   2   2 1439.00   54.12
  -2   2   2 1367.00   51.47
   1  -3  -2  969.70   36.64
   1  -3  -2 1012.00   38.25
  -1   3   2 1005.00   37.96
  -1   3   2  981.50   37.00
   0  -4  -2  919.70   34.81
   0  -4  -2  923.80   35.02
   0   4   2  950.60   35.95
   0   4   2 1061.00   39.99
  -1  -5  -2  874.10   33.17
  -1  -5  -2  863.70   32.86
   1   5   2  966.30   36.51
   1   5   2  954.60   36.14
  -2  -6  -2  894.00   34.01
  -2  -6  -2  899.50   34.09
   2   6   2  830.10   31.47
   2   6   2  805.10   30.64
  -3  -7  -2  606.70   23.38
  -3  -7  -2  562.80   21.60
   3   7   2  686.10   26.14
   3   7   2  690.90   26.50
   6   5  -2  568.80   22.07
   6   5  -2  562.50   21.50
  -6  -5   2  614.50   23.50
  -6  -5   2  580.90   22.51
   5   4  -2 1292.00   48.98
   5   4  -2 1269.00   47.88
  -5  -4   2 1255.00   47.50
  -5  -4   2 1278.00   48.23
   4   3  -2 1124.00   42.59
   4   3  -2 1059.00   40.07
  -4  -3   2 1080.00   40.76
  -4  -3   2 1053.00   39.90
   3   2  -2 1901.00   71.57
   3   2  -2 1840.00   69.26
  -3  -2   2 1941.00   72.94
  -3  -2   2 1832.00   68.97
   2   1  -2 1008.00   38.13
   2   1  -2 1036.00   39.17
  -2  -1   2  994.60   37.59
  -2  -1   2  946.00   35.68
   1   0  -2 2652.00   99.59
   1   0  -2 2700.00  101.40
  -1   0   2 2580.00   96.88
  -1   0   2 2664.00   99.96
   0  -1  -2 2682.00  100.70
   0  -1  -2 2680.00  100.70
   0   1   2 2718.00  102.00
   0   1   2 2593.00   97.36
  -1  -2  -2 1003.00   37.93
  -1  -2  -2  998.10   37.72
   1   2   2  996.00   37.61
   1   2   2 1073.00   40.47
  -2  -3  -2 1778.00   67.03
  -2  -3  -2 1675.00   63.09
   2   3   2 1826.00   68.69
   2   3   2 1845.00   69.41
  -3  -4  -2 1065.00   40.36
  -3  -4  -2 1095.00   41.47
   3   4   2 1054.00   39.81
   3   4   2 1037.00   39.27
  -4  -5  -2 1259.00   47.65
  -4  -5  -2 1198.00   45.31
   4   5   2 1210.00   45.80
   4   5   2 1256.00   47.46
  -5  -6  -2  622.60   23.95
  -5  -6  -2  629.30   24.28
   5   7  -2  387.30   15.18
   4   6  -2  862.70   32.95
   4   6  -2  852.40   32.33
  -4  -6   2  787.00   30.05
  -4  -6   2  797.30   30.32
   3   5  -2 1061.00   40.13
   3   5  -2 1098.00   41.70
  -3  -5   2 1123.00   42.54
  -3  -5   2 1176.00   44.40
  -2  -4   2 1479.00   55.78
  -2  -4   2 1444.00   54.52
   1   3  -2 1204.00   45.49
   1   3  -2 1223.00   46.14
  -1  -3   2 1247.00   47.13
  -1  -3   2 1246.00   47.03
   0   2  -2 1465.00   55.16
   0   2  -2 1449.00   54.53
   0  -2   2 1368.00   51.56
   0  -2   2 1434.00   54.06
  -1   1  -2 2580.00   96.90
  -1   1  -2 2601.00   97.64
   1  -1   2 2715.00  102.00
   1  -1   2 2628.00   98.75
  -2   0  -2 1402.00   52.74
  -2   0  -2 1461.00   55.01
   2   0   2 1356.00   51.09
   2   0   2 1447.00   54.52
  -3  -1  -2 1252.00   47.26
  -3  -1  -2 1186.00   44.68
   3   1   2 1248.00   47.11
   3   1   2 1167.00   44.08
  -4  -2  -2 1367.00   51.62
  -4  -2  -2 1367.00   51.50
   4   2   2 1273.00   48.08
   4   2   2 1374.00   51.89
  -5  -3  -2 1092.00   41.26
  -5  -3  -2 1064.00   40.30
   5   3   2 1177.00   44.44
   5   3   2 1190.00   45.07
  -6  -4  -2  877.10   33.28
  -6  -4  -2  843.10   32.17
   6   4   2  824.80   31.52
   6   4   2  866.10   32.87
  -7  -5  -2  437.60   17.29
  -7  -5  -2  451.10   17.51
   7   5   2  434.00   17.12
   7   5   2  447.40   17.40
   3   8  -2  526.80   20.32
   3   8  -2  532.30   20.58
  -3  -8   2  506.60   19.87
  -3  -8   2  501.50   19.39
   2   7  -2  540.70   20.77
   2   7  -2  521.60   20.05
  -2  -7   2  553.40   21.44
  -2  -7   2  550.60   21.13
   1   6  -2 1015.00   38.43
   1   6  -2 1029.00   38.91
   0   5  -2  696.20   26.46
   0   5  -2  684.30   26.06
   0  -5   2  615.00   23.47
   0  -5   2  580.20   22.22
  -1   4  -2 1318.00   49.72
  -1   4  -2 1213.00   45.71
   1  -4   2 1127.00   42.51
   1  -4   2 1197.00   45.25
  -2   3  -2 1012.00   38.18
  -2   3  -2  916.20   34.63
   2  -3   2  986.20   37.29
   2  -3   2  977.10   36.91
  -3   2  -2 1001.00   37.78
  -3   2  -2  963.80   36.35
   3  -2   2 1023.00   38.62
   3  -2   2  937.60   35.46
  -4   1  -2 1217.00   45.90
  -4   1  -2 1193.00   44.90
   4  -1   2 1189.00   44.87
   4  -1   2 1141.00   43.09
  -5   0  -2  723.00   27.47
  -5   0  -2  691.00   26.20
   5   0   2  622.70   23.77
   5   0   2  559.60   21.39
  -6  -1  -2 1040.00   39.40
  -6  -1  -2 1052.00   39.72
   6   1   2 1157.00   43.76
   6   1   2 1134.00   42.89
  -7  -2  -2  557.10   21.30
  -7  -2  -2  526.90   20.39
   7   2   2  607.20   23.39
   7   2   2  568.40   21.73
  -8  -3  -2  558.70   21.45
  -8  -3  -2  525.00   20.36
   8   3   2  533.90   20.50
   8   3   2  517.40   20.14
   1   9  -2  565.70   21.74
   1   9  -2  595.70   22.82
  -1  -9   2  622.50   23.83
  -1  -9   2  635.90   24.55
   0   8  -2  885.10   33.60
   0   8  -2  940.80   35.68
   0  -8   2  982.10   37.33
   0  -8   2  967.40   36.68
  -1   7  -2 1080.00   40.84
  -1   7  -2 1132.00   42.77
   1  -7   2 1101.00   41.68
   1  -7   2 1132.00   42.82
  -2   6  -2 1382.00   52.08
  -2   6  -2 1370.00   51.66
   2  -6   2 1416.00   53.36
   2  -6   2 1312.00   49.54
  -3   5  -2 1592.00   59.88
  -3   5  -2 1772.00   66.66
   3  -5   2 1761.00   66.27
   3  -5   2 1806.00   67.98
  -4   4  -2  918.40   34.68
  -4   4  -2  880.90   33.30
   4  -4   2  999.30   37.76
   4  -4   2  978.80   37.01
  -5   3  -2 1736.00   65.28
  -5   3  -2 1812.00   68.16
   5  -3   2 1777.00   66.89
   5  -3   2 1748.00   65.80
  -6   2  -2 1381.00   52.07
  -6   2  -2 1315.00   49.52
   6  -2   2 1255.00   47.34
   6  -2   2 1375.00   51.91
  -7   1  -2 1091.00   41.30
  -7   1  -2 1061.00   40.06
   7  -1   2 1101.00   41.63
   7  -1   2 1095.00   41.47
  -8   0  -2  909.90   34.46
  -8   0  -2  888.40   33.80
   8   0   2 1011.00   38.39
   8   0   2  983.70   37.23
  -9  -1  -2  577.10   22.28
  -9  -1  -2  585.20   22.42
   9   1   2  650.80   25.11
   9   1   2  635.90   24.34
  -1  10  -2  643.60   24.76
  -1  10  -2  577.00   22.16
   1 -10   2  640.40   24.55
   1 -10   2  658.20   25.35
  -2   9  -2  562.50   21.56
  -2   9  -2  581.60   22.37
   2  -9   2  557.40   21.33
   2  -9   2  578.50   22.27
  -3   8  -2 1145.00   43.25
  -3   8  -2 1138.00   43.01
   3  -8   2 1205.00   45.54
   3  -8   2 1164.00   44.10
  -4   7  -2 1072.00   40.52
  -4   7  -2 1097.00   41.42
   4  -7   2 1035.00   39.19
   4  -7   2 1091.00   41.24
  -5   6  -2  836.10   31.63
  -5   6  -2  836.60   31.67
   5  -6   2  898.20   33.96
   5  -6   2  900.50   34.10
  -6   5  -2  760.80   28.78
  -6   5  -2  831.80   31.50
   6  -5   2  891.70   33.76
   6  -5   2  904.80   34.23
  -7   4  -2 1071.00   40.47
  -7   4  -2 1022.00   38.56
   7  -4   2  989.00   37.46
   7  -4   2 1078.00   40.77
  -8   3  -2 1054.00   39.80
  -8   3  -2 1065.00   40.31
   8  -3   2 1135.00   42.91
   8  -3   2 1198.00   45.31
  -9   2  -2  517.70   19.85
  -9   2  -2  523.80   20.20
   9  -2   2  589.60   22.52
   9  -2   2  559.70   21.58
 -10   1  -2  582.70   22.41
 -10   1  -2  569.30   21.96
  10  -1   2  649.40   24.86
  10  -1   2  664.20   25.55
 -11   0  -2  472.60   18.54
 -11   0  -2  481.30   18.72
  11   0   2  541.40   21.15
  11   0   2  536.30   20.77
  -2  12  -2  658.30   25.48
  -2  12  -2  654.20   25.26
   2 -12   2  667.50   25.89
   2 -12   2  644.00   24.74
  -3  11  -2  582.00   22.45
  -3  11  -2  577.40   22.31
   3 -11   2  555.40   21.53
   3 -11   2  529.40   20.35
  -4  10  -2  935.50   35.51
  -4  10  -2  873.50   33.34
   4 -10   2  904.40   34.46
   4 -10   2  856.40   32.54
  -5   9  -2 1337.00   50.44
  -5   9  -2 1267.00   47.87
   5  -9   2 1354.00   51.11
   5  -9   2 1207.00   45.67
  -6   8  -2  909.10   34.44
  -6   8  -2  846.10   32.09
   6  -8   2  842.20   31.96
   6  -8   2  782.90   29.76
  -7   7  -2 1171.00   44.18
  -7   7  -2 1193.00   45.01
   7  -7   2 1153.00   43.57
   7  -7   2 1121.00   42.28
  -8   6  -2  882.60   33.37
  -8   6  -2  875.30   33.14
   8  -6   2  800.30   30.40
   8  -6   2  775.60   29.47
  -9   5  -2 1189.00   44.94
  -9   5  -2 1321.00   49.88
   9  -5   2 1255.00   47.40
   9  -5   2 1230.00   46.48
 -10   4  -2  838.00   31.86
 -10   4  -2  914.20   34.76
  10  -4   2  803.10   30.59
  10  -4   2  849.00   32.23
 -11   3  -2  565.60   21.73
 -11   3  -2  554.50   21.42
 -12   2  -2  676.00   26.01
 -12   2  -2  663.70   25.67
  12  -2   2  691.40   26.75
  12  -2   2  687.80   26.43
  -4  13  -2  345.30   14.06
  -4  13  -2  374.80   15.25
   4 -13   2  356.10   14.36
   4 -13   2  367.30   15.24
  -5  12  -2  491.70   19.31
  -5  12  -2  466.40   18.21
   5 -12   2  478.70   18.53
   5 -12   2  521.70   20.49
  -6  11  -2  573.70   22.22
  -6  11  -2  589.30   22.67
   6 -11   2  640.10   24.66
   6 -11   2  574.00   22.04
   7 -10   2  708.90   27.03
   7 -10   2  640.40   24.45
  -8   9  -2  637.50   24.31
  -8   9  -2  653.20   25.07
   8  -9   2  631.20   24.08
   8  -9   2  559.50   21.38
  -9   8  -2  614.30   23.42
  -9   8  -2  605.10   23.17
   9  -8   2  570.60   21.73
   9  -8   2  627.90   23.93
 -10   7  -2  606.00   23.23
 -10   7  -2  581.80   22.33
  10  -7   2  640.90   24.51
  10  -7   2  656.70   25.03
 -11   6  -2  580.30   22.43
 -11   6  -2  569.00   21.94
  11  -6   2  630.00   24.13
  11  -6   2  588.40   22.68
 -12   5  -2  476.60   18.69
 -12   5  -2  442.90   17.45
  12  -5   2  488.60   19.00
  12  -5   2  460.50   18.33
 -13   4  -2  365.80   15.12
 -13   4  -2  350.10   14.17
  13  -4   2  327.50   14.09
  13  -4   2  347.30   14.20
  -7  13  -2  459.80   18.40
  -7  13  -2  465.70   18.84
   7 -13   2  508.50   20.40
   7 -13   2  467.00   18.41
  -8  12  -2  418.80   16.63
  -8  12  -2  410.00   16.30
  -9  11  -2  649.00   24.92
  -9  11  -2  635.80   24.48
   9 -11   2  693.30   26.46
   9 -11   2  748.70   28.58
 -10  10  -2  539.50   20.87
 -10  10  -2  499.50   19.30
  10 -10   2  526.70   20.26
  10 -10   2  486.00   18.73
 -11   9  -2  654.70   25.19
 -11   9  -2  626.40   24.00
  11  -9   2  709.50   27.04
  11  -9   2  677.40   25.84
 -12   8  -2  378.30   15.13
 -12   8  -2  383.00   15.15
  10  -8  -3  475.40   18.54
  10  -8  -3  482.80   18.78
 -10   8   3  406.00   15.89
 -10   8   3  428.30   16.74
   9  -9  -3  561.10   21.65
   9  -9  -3  575.70   22.37
  -9   9   3  582.00   22.42
  -9   9   3  559.70   21.51
   8 -10  -3  462.90   18.19
   8 -10  -3  514.10   20.04
  -8  10   3  450.30   17.56
  -8  10   3  442.40   17.45
   7 -11  -3  475.40   18.88
   7 -11  -3  488.30   19.26
  -7  11   3  535.20   21.29
  -7  11   3  588.00   22.88
  11  -4  -3  678.90   26.38
  11  -4  -3  648.80   25.00
 -11   4   3  682.40   26.41
 -11   4   3  648.90   25.15
  10  -5  -3  745.40   28.61
 -10   5   3  719.20   27.61
 -10   5   3  665.20   25.48
   9  -6  -3  619.10   23.72
   9  -6  -3  708.90   27.17
  -9   6   3  672.50   25.77
  -9   6   3  598.40   22.96
   8  -7  -3  943.30   35.86
   8  -7  -3  897.20   34.03
  -8   7   3  869.10   32.97
  -8   7   3  882.60   33.50
   7  -8  -3  945.50   35.87
   7  -8  -3  928.60   35.24
  -7   8   3  868.60   33.09
  -7   8   3  868.70   32.98
   6  -9  -3  629.80   24.19
   6  -9  -3  675.40   25.90
  -6   9   3  664.90   25.44
  -6   9   3  629.70   24.33
   5 -10  -3  700.50   26.80
   5 -10  -3  680.90   26.23
  -5  10   3  664.90   25.56
  -5  10   3  667.40   25.59
   4 -11  -3  659.60   25.48
   4 -11  -3  643.90   24.79
  -4  11   3  601.30   23.36
  -4  11   3  662.10   25.56
  11  -1  -3  328.30   13.87
  11  -1  -3  350.10   14.52
 -11   1   3  312.80   13.04
 -11   1   3  317.50   13.34
  10  -2  -3  547.10   21.24
  10  -2  -3  523.10   20.56
 -10   2   3  538.40   21.00
 -10   2   3  586.90   22.75
   9  -3  -3  544.70   21.28
   9  -3  -3  518.80   20.10
  -9   3   3  514.10   19.88
  -9   3   3  543.50   21.00
   8  -4  -3  423.10   16.60
   8  -4  -3  406.10   15.80
   7  -5  -3  624.90   23.86
   7  -5  -3  636.20   24.40
  -7   5   3  675.50   25.76
  -7   5   3  676.10   25.73
   6  -6  -3  787.90   29.97
   6  -6  -3  768.60   29.25
  -6   6   3  676.10   25.78
  -6   6   3  692.80   26.40
   5  -7  -3  592.60   22.72
   5  -7  -3  629.20   24.15
  -5   7   3  711.10   27.08
  -5   7   3  668.40   25.51
   4  -8  -3  443.40   17.19
   4  -8  -3  385.20   15.20
  -4   8   3  403.80   15.73
  -4   8   3  379.40   14.81
   3  -9  -3  518.20   20.11
   3  -9  -3  512.10   19.76
  -3   9   3  522.40   20.18
  -3   9   3  544.80   21.04
   2 -10  -3  525.60   20.45
   2 -10  -3  519.60   20.30
  -2  10   3  570.00   21.99
  -2  10   3  574.10   22.22
   9   0  -3  781.90   29.84
   9   0  -3  757.60   29.17
  -9   0   3  716.50   27.44
  -9   0   3  774.60   29.59
   8  -1  -3  863.40   33.01
   8  -1  -3  885.00   33.65
  -8   1   3  835.80   31.82
  -8   1   3  902.00   34.25
   7  -2  -3  742.60   28.43
   7  -2  -3  726.90   27.73
  -7   2   3  676.40   25.76
  -7   2   3  623.70   23.89
   6  -3  -3  973.50   36.96
   6  -3  -3  928.60   35.27
  -6   3   3  858.50   32.61
  -6   3   3  898.30   33.95
   5  -4  -3 1103.00   41.75
   5  -4  -3 1167.00   44.21
  -5   4   3 1012.00   38.30
  -5   4   3 1080.00   40.79
   4  -5  -3 1059.00   40.10
   4  -5  -3 1037.00   39.27
  -4   5   3 1099.00   41.54
  -4   5   3 1064.00   40.17
   3  -6  -3  938.60   35.61
   3  -6  -3 1031.00   39.13
  -3   6   3  928.70   35.22
  -3   6   3  915.90   34.65
   2  -7  -3  707.60   27.09
   2  -7  -3  718.80   27.41
  -2   7   3  638.40   24.36
  -2   7   3  642.20   24.57
   1  -8  -3  834.60   31.71
   1  -8  -3  848.70   32.40
  -1   8   3  900.90   34.23
  -1   8   3  911.80   34.58
   0  -9  -3  730.60   28.06
   0  -9  -3  713.30   27.30
   0   9   3  790.40   30.11
   0   9   3  745.60   28.48
   8   2  -3  516.10   20.20
   8   2  -3  549.30   21.24
  -8  -2   3  562.30   21.63
  -8  -2   3  568.60   21.97
   7   1  -3  898.70   34.36
   7   1  -3  871.30   33.10
  -7  -1   3  896.70   34.11
  -7  -1   3  881.10   33.43
   6   0  -3  804.20   30.56
   6   0  -3  815.10   31.14
  -6   0   3  809.10   30.72
  -6   0   3  802.80   30.55
   5  -1  -3 1074.00   40.70
   5  -1  -3 1033.00   39.18
  -5   1   3 1001.00   37.79
  -5   1   3 1021.00   38.67
   4  -2  -3 1212.00   45.84
   4  -2  -3 1132.00   42.85
  -4   2   3 1131.00   42.74
  -4   2   3 1065.00   40.20
   3  -3  -3 1182.00   44.69
   3  -3  -3 1184.00   44.75
  -3   3   3 1334.00   50.25
  -3   3   3 1224.00   46.22
   2  -4  -3 1171.00   44.29
   2  -4  -3 1166.00   44.05
  -2   4   3 1129.00   42.68
  -2   4   3 1081.00   40.80
   1  -5  -3 1054.00   39.90
   1  -5  -3 1056.00   39.99
  -1   5   3 1050.00   39.75
  -1   5   3 1021.00   38.59
   0  -6  -3  802.20   30.50
   0  -6  -3  771.30   29.44
  -1  -7  -3  828.10   31.48
  -1  -7  -3  819.50   31.35
   1   7   3  872.10   33.15
   1   7   3  904.40   34.29
  -2  -8  -3  481.50   18.66
  -2  -8  -3  483.20   18.93
   2   8   3  526.30   20.39
   2   8   3  572.70   22.06
   6   3  -3  535.30   20.88
   6   3  -3  522.40   20.09
  -6  -3   3  527.40   20.43
  -6  -3   3  556.30   21.40
   5   2  -3  726.20   27.88
   5   2  -3  729.10   27.77
  -5  -2   3  673.10   25.74
  -5  -2   3  726.60   27.67
   4   1  -3 1076.00   40.71
   4   1  -3 1020.00   38.80
  -4  -1   3  995.40   37.74
  -4  -1   3 1026.00   38.78
   3   0  -3 1047.00   39.72
   3   0  -3 1185.00   44.83
  -3   0   3  936.30   35.37
  -3   0   3  992.80   37.62
   2  -1  -3  974.20   36.93
   2  -1  -3  929.80   35.29
  -2   1   3  945.20   35.72
  -2   1   3  956.90   36.24
   1  -2  -3  968.90   36.77
   1  -2  -3  951.60   36.05
  -1   2   3  966.70   36.54
  -1   2   3  912.00   34.56
   0  -3  -3 1131.00   42.80
   0  -3  -3 1065.00   40.34
   0   3   3  990.40   37.51
   0   3   3 1016.00   38.37
  -1  -4  -3  997.10   37.85
  -1  -4  -3 1051.00   39.74
   1   4   3  993.00   37.55
   1   4   3 1026.00   38.88
  -2  -5  -3  681.50   26.12
  -2  -5  -3  672.90   25.68
   2   5   3  622.20   23.83
   2   5   3  677.10   25.77
  -3  -6  -3  500.40   19.47
  -3  -6  -3  505.00   19.46
   3   6   3  525.60   20.22
   3   6   3  507.80   19.64
   5   5  -3  686.00   26.53
   5   5  -3  687.80   26.34
  -5  -5   3  655.50   25.20
  -5  -5   3  705.80   26.93
   4   4  -3  427.90   16.61
   4   4  -3  428.40   16.98
  -4  -4   3  404.60   15.75
  -4  -4   3  407.80   15.91
   3   3  -3  942.00   35.90
   3   3  -3  858.20   32.57
  -3  -3   3  982.60   37.15
  -3  -3   3  865.20   32.91
   2   2  -3 1235.00   46.79
   2   2  -3 1187.00   44.89
  -2  -2   3 1114.00   42.16
  -2  -2   3 1061.00   40.05
   1   1  -3  872.40   33.15
   1   1  -3  930.20   35.31
  -1  -1   3  929.90   35.16
  -1  -1   3  943.30   35.74
   0   0  -3  956.20   36.25
   0   0  -3  982.30   37.28
   0   0   3  873.10   33.06
   0   0   3  864.60   32.82
  -1  -1  -3  916.10   34.82
  -1  -1  -3  920.90   34.94
   1   1   3  970.80   36.73
   1   1   3  936.80   35.51
  -2  -2  -3 1155.00   43.71
  -2  -2  -3 1101.00   41.65
   2   2   3 1083.00   40.91
   2   2   3 1080.00   40.89
  -3  -3  -3  915.90   34.79
  -3  -3  -3  964.60   36.60
   3   3   3  964.20   36.54
   3   3   3  906.60   34.40
  -4  -4  -3  444.10   17.37
  -4  -4  -3  460.40   17.92
  -5  -5  -3  582.40   22.40
  -5  -5  -3  581.00   22.49
   5   5   3  643.00   24.88
   5   5   3  590.20   22.73
  -3  -6   3  672.80   25.87
  -3  -6   3  658.40   25.32
   2   5  -3  608.30   23.37
   2   5  -3  632.60   24.26
  -2  -5   3  695.70   26.62
  -2  -5   3  734.70   28.09
   1   4  -3 1073.00   40.70
   1   4  -3 1030.00   38.98
  -1  -4   3 1056.00   40.08
  -1  -4   3 1066.00   40.30
   0   3  -3 1138.00   43.00
   0   3  -3 1151.00   43.54
   0  -3   3 1274.00   48.20
   0  -3   3 1192.00   45.04
  -1   2  -3  875.00   33.18
  -1   2  -3  937.50   35.48
   1  -2   3  946.80   35.95
   1  -2   3  948.20   35.95
  -2   1  -3  935.70   35.46
  -2   1  -3  874.80   33.13
   2  -1   3  914.30   34.72
   2  -1   3  956.40   36.28
  -3   0  -3 1139.00   43.03
  -3   0  -3 1133.00   42.84
   3   0   3 1257.00   47.50
   3   0   3 1318.00   49.84
  -4  -1  -3 1032.00   39.02
  -4  -1  -3 1069.00   40.53
   4   1   3 1014.00   38.35
   4   1   3 1033.00   39.17
  -5  -2  -3  573.40   21.91
  -5  -2  -3  585.70   22.57
   5   2   3  774.30   29.64
   5   2   3  691.50   26.30
  -6  -3  -3  613.60   23.44
  -6  -3  -3  616.90   23.82
   6   3   3  615.20   23.53
   6   3   3  682.60   26.26
   1   7  -3  953.70   36.31
   1   7  -3  929.70   35.32
  -1  -7   3  919.80   34.90
  -1  -7   3  894.90   34.18
   0   6  -3  735.80   28.06
   0   6  -3  740.70   28.32
   0  -6   3  723.20   27.53
   0  -6   3  679.50   26.07
  -1   5  -3 1060.00   40.08
  -1   5  -3 1082.00   40.97
   1  -5   3 1013.00   38.40
   1  -5   3 1085.00   41.01
  -2   4  -3 1154.00   43.57
  -2   4  -3 1179.00   44.55
  -3   3  -3 1150.00   43.47
  -3   3  -3 1112.00   41.99
   3  -3   3 1016.00   38.49
   3  -3   3 1005.00   38.10
  -4   2  -3 1186.00   44.82
  -4   2  -3 1118.00   42.22
   4  -2   3 1139.00   43.09
   4  -2   3 1125.00   42.59
  -5   1  -3 1035.00   39.18
  -5   1  -3  975.70   36.91
   5  -1   3 1048.00   39.73
   5  -1   3 1094.00   41.37
  -6   0  -3  759.10   28.96
  -6   0  -3  761.60   28.92
   6   0   3  690.00   26.23
   6   0   3  691.10   26.45
  -7  -1  -3  888.00   33.81
  -7  -1  -3  913.10   34.60
   7   1   3  851.90   32.35
   7   1   3  977.00   37.22
  -8  -2  -3  479.50   18.53
  -8  -2  -3  465.90   18.35
   8   2   3  482.90   18.93
   8   2   3  444.00   17.27
   0   9  -3  590.70   22.79
   0   9  -3  599.70   23.27
   0  -9   3  621.00   24.08
   0  -9   3  600.10   23.05
  -1   8  -3 1010.00   38.36
  -1   8  -3  957.00   36.28
   1  -8   3  873.30   33.14
   1  -8   3  868.10   33.16
  -2   7  -3  615.30   23.56
  -2   7  -3  635.90   24.36
   2  -7   3  730.00   27.80
   2  -7   3  742.20   28.39
  -3   6  -3  972.90   36.82
  -3   6  -3  922.00   34.99
   3  -6   3  924.40   35.12
   3  -6   3  939.10   35.55
  -4   5  -3 1018.00   38.51
  -4   5  -3  984.10   37.25
   4  -5   3 1094.00   41.43
   4  -5   3 1046.00   39.63
  -5   4  -3 1044.00   39.46
  -5   4  -3  996.80   37.76
   5  -4   3 1043.00   39.48
   5  -4   3  996.40   37.77
  -6   3  -3  945.80   35.86
  -6   3  -3  907.80   34.37
   6  -3   3  958.40   36.42
   6  -3   3  941.70   35.69
  -7   2  -3  609.10   23.27
  -7   2  -3  647.10   24.81
   7  -2   3  711.30   27.07
   7  -2   3  713.40   27.31
  -8   1  -3  933.30   35.52
  -8   1  -3  926.00   35.11
   8  -1   3  873.70   33.37
   8  -1   3  901.00   34.15
  -9   0  -3  572.50   22.14
  -9   0  -3  562.80   21.63
   9   0   3  591.20   22.65
   9   0   3  626.70   24.25
  -2  10  -3  500.60   19.47
  -2  10  -3  512.80   20.03
   2 -10   3  466.20   18.16
   2 -10   3  462.60   18.20
  -3   9  -3  632.70   24.38
  -3   9  -3  638.80   24.52
   3  -9   3  651.30   25.07
   3  -9   3  630.10   24.11
  -4   8  -3  416.10   16.31
  -4   8  -3  392.90   15.35
   4  -8   3  417.30   16.40
   4  -8   3  404.10   15.70
  -5   7  -3  666.30   25.47
  -5   7  -3  687.70   26.23
   5  -7   3  634.10   24.31
   5  -7   3  650.30   24.79
  -6   6  -3  806.40   30.68
  -6   6  -3  794.00   30.17
   6  -6   3  811.60   30.84
   6  -6   3  802.50   30.61
  -7   5  -3  679.50   25.95
  -7   5  -3  683.00   26.01
   7  -5   3  656.70   25.21
   7  -5   3  670.60   25.57
  -8   4  -3  427.30   16.68
  -8   4  -3  411.70   16.00
   8  -4   3  409.10   16.17
   8  -4   3  421.60   16.32
  -9   3  -3  631.60   24.34
  -9   3  -3  636.50   24.41
   9  -3   3  637.10   24.56
   9  -3   3  634.10   24.23
 -10   2  -3  476.00   18.53
 -10   2  -3  483.30   18.93
  10  -2   3  463.30   18.01
  10  -2   3  439.90   17.47
  -4  11  -3  519.80   20.40
  -4  11  -3  523.90   20.52
   4 -11   3  598.80   23.36
   4 -11   3  544.10   21.07
  -5  10  -3  722.50   27.75
  -5  10  -3  750.00   28.74
   5 -10   3  658.00   25.21
   5 -10   3  711.20   27.29
  -6   9  -3  527.10   20.51
  -6   9  -3  511.40   19.79
   6  -9   3  579.30   22.41
   6  -9   3  525.50   20.23
  -7   8  -3  842.50   32.08
  -7   8  -3  803.40   30.67
   7  -8   3  831.50   31.67
   7  -8   3  871.00   33.06
  -8   7  -3  818.60   31.15
  -8   7  -3  807.80   30.82
   8  -7   3  805.50   30.72
   8  -7   3  856.80   32.53
  -9   6  -3  484.20   18.83
  -9   6  -3  505.10   19.61
   9  -6   3  540.90   21.03
   9  -6   3  548.60   21.08
 -10   5  -3  685.10   26.35
 -10   5  -3  684.30   26.27
  10  -5   3  676.70   25.86
  10  -5   3  701.10   27.05
 -11   4  -3  489.50   19.18
 -11   4  -3  499.70   19.62
  11  -4   3  558.80   21.53
  11  -4   3  561.90   22.06
 -12   3  -3  462.40   18.76
 -12   3  -3  441.90   17.81
  12  -3   3  486.50   19.58
  12  -3   3  487.00   19.26
  -6  12  -3  496.90   19.74
  -6  12  -3  457.30   18.13
   6 -12   3  455.50   18.37
   6 -12   3  424.80   16.84
  -7  11  -3  656.80   25.35
  -7  11  -3  687.30   26.59
   7 -11   3  700.50   27.10
   7 -11   3  630.50   24.26
  -8  10  -3  551.00   21.73
  -8  10  -3  525.00   20.40
   8 -10   3  560.20   21.96
   8 -10   3  554.50   21.42
  -9   9  -3  734.70   28.34
  -9   9  -3  736.30   28.20
   9  -9   3  746.10   28.50
   9  -9   3  749.40   28.82
 -10   8  -3  487.70   19.10
 -10   8  -3  523.00   20.52
  10  -8   3  499.30   19.42
  10  -8   3  563.40   21.73
 -11   7  -3  668.50   25.93
 -11   7  -3  681.40   26.25
  11  -7   3  634.40   24.87
  11  -7   3  628.00   24.12
 -12   6  -3  447.20   18.03
 -12   6  -3  449.60   18.26
 -10   4   4  435.30   17.54
 -10   4   4  488.70   19.54
   9  -5  -4  700.30   26.84
   9  -5  -4  680.10   26.66
  -9   5   4  724.70   27.97
  -9   5   4  702.50   27.10
   8  -6  -4  465.90   18.76
   8  -6  -4  433.40   16.86
  -8   6   4  481.90   18.86
  -8   6   4  483.00   18.75
   7  -7  -4  608.00   23.31
   7  -7  -4  622.20   24.33
  -7   7   4  687.20   26.49
  -7   7   4  651.30   24.96
   6  -8  -4  473.00   18.49
   6  -8  -4  457.30   18.19
  -6   8   4  485.40   18.99
  -6   8   4  522.20   20.37
   5  -9  -4  667.30   25.83
   5  -9  -4  660.30   25.42
  -5   9   4  682.40   26.32
  -5   9   4  724.40   28.12
   4 -10  -4  389.00   16.02
   4 -10  -4  403.80   16.24
  -4  10   4  456.50   18.04
  -4  10   4  470.80   18.84
   9  -2  -4  527.70   21.12
   9  -2  -4  469.20   18.38
  -9   2   4  470.80   18.51
  -9   2   4  490.20   19.30
   8  -3  -4  592.40   23.18
   8  -3  -4  544.80   21.00
  -8   3   4  564.90   21.94
  -8   3   4  546.60   21.16
   7  -4  -4  807.20   30.73
   7  -4  -4  776.50   29.92
  -7   4   4  736.80   28.10
  -7   4   4  751.40   28.75
   6  -5  -4  554.90   21.35
   6  -5  -4  590.80   22.92
  -6   5   4  511.00   19.78
  -6   5   4  474.40   18.28
   5  -6  -4  541.80   20.82
   5  -6  -4  533.00   20.80
  -5   6   4  539.20   20.81
  -5   6   4  518.00   20.10
   4  -7  -4  801.80   30.63
   4  -7  -4  768.90   29.51
  -4   7   4  769.20   29.38
  -4   7   4  787.40   30.09
   3  -8  -4  541.70   21.18
   3  -8  -4  563.90   21.82
  -3   8   4  546.00   21.27
  -3   8   4  530.80   20.58
   8   0  -4  511.80   20.01
   8   0  -4  480.20   19.17
  -8   0   4  431.80   17.04
  -8   0   4  418.80   16.68
   7  -1  -4  581.00   22.36
   7  -1  -4  576.70   22.60
  -7   1   4  528.50   20.47
  -7   1   4  567.00   21.88
   6  -2  -4  569.90   22.30
   6  -2  -4  553.40   21.29
  -6   2   4  557.70   21.51
  -6   2   4  538.00   20.67
   5  -3  -4  893.00   33.86
   5  -3  -4  863.20   33.02
  -5   3   4  828.10   31.57
  -5   3   4  770.00   29.24
   4  -4  -4  432.50   16.73
   4  -4  -4  414.10   16.39
  -4   4   4  362.70   14.24
  -4   4   4  368.10   14.44
   3  -5  -4  868.40   33.24
   3  -5  -4  880.40   33.39
  -3   5   4  819.90   31.24
  -3   5   4  841.70   31.99
   2  -6  -4  552.90   21.50
   2  -6  -4  596.50   22.88
  -2   6   4  550.20   21.21
  -2   6   4  557.30   21.49
   1  -7  -4  546.70   21.32
   1  -7  -4  560.60   21.61
  -1   7   4  528.20   20.38
  -1   7   4  531.00   20.52
   6   1  -4  611.30   23.95
   6   1  -4  572.70   22.11
  -6  -1   4  575.90   22.18
  -6  -1   4  511.60   19.98
   5   0  -4  644.00   24.95
   5   0  -4  632.60   24.17
  -5   0   4  700.50   26.70
  -5   0   4  670.20   25.69
   4  -1  -4  668.20   25.84
   4  -1  -4  639.90   24.40
  -4   1   4  657.30   25.00
  -4   1   4  686.10   26.21
   3  -2  -4  780.30   29.69
   3  -2  -4  753.10   28.86
  -3   2   4  723.60   27.62
  -3   2   4  742.40   28.25
   2  -3  -4  773.70   29.40
   2  -3  -4  750.40   28.73
  -2   3   4  788.00   29.96
  -2   3   4  745.70   28.46
   1  -4  -4  631.90   24.38
   1  -4  -4  646.50   24.64
  -1   4   4  700.60   26.73
  -1   4   4  709.60   27.12
   0  -5  -4  625.20   23.93
   0  -5  -4  621.40   23.96
   0   5   4  673.00   25.69
   0   5   4  669.80   25.64
  -1  -6  -4  519.50   20.26
  -1  -6  -4  555.40   21.41
   1   6   4  513.70   19.88
   1   6   4  500.80   19.42
   5   3  -4  569.50   21.97
   5   3  -4  558.20   21.88
  -5  -3   4  514.50   20.02
  -5  -3   4  545.60   21.07
   4   2  -4  555.20   21.74
   4   2  -4  586.50   22.51
  -4  -2   4  559.20   21.62
  -4  -2   4  570.30   21.88
   3   1  -4  674.30   25.97
   3   1  -4  660.40   25.17
  -3  -1   4  626.90   23.86
  -3  -1   4  679.30   25.98
   2   0  -4  497.60   19.39
   2   0  -4  497.60   19.13
  -2   0   4  502.00   19.36
  -2   0   4  451.10   17.34
   1  -1  -4 1195.00   45.33
   1  -1  -4 1211.00   45.74
  -1   1   4 1195.00   45.14
  -1   1   4 1158.00   43.85
   0  -2  -4  485.10   18.90
   0  -2  -4  493.40   18.92
   0   2   4  485.60   18.72
   0   2   4  457.40   17.74
  -1  -3  -4  643.50   24.55
  -1  -3  -4  640.90   24.71
   1   3   4  675.00   25.83
   1   3   4  686.50   26.18
  -2  -4  -4  537.30   20.88
  -2  -4  -4  555.10   21.36
   2   4   4  536.40   20.59
   2   4   4  518.80   20.04
   3   4  -4  727.50   28.13
   3   4  -4  759.50   29.02
  -3  -4   4  746.70   28.47
  -3  -4   4  721.50   27.69
   2   3  -4  887.10   33.72
   2   3  -4  827.70   31.75
  -2  -3   4  814.40   31.09
  -2  -3   4  827.90   31.46
   1   2  -4  664.60   25.62
   1   2  -4  720.90   27.46
  -1  -2   4  663.50   25.26
  -1  -2   4  683.20   26.15
   0   1  -4 1148.00   43.60
   0   1  -4 1153.00   43.65
   0  -1   4 1061.00   40.27
   0  -1   4 1126.00   42.59
  -1   0  -4 1194.00   45.17
  -1   0  -4 1154.00   43.83
  -2  -1  -4  703.10   26.95
  -2  -1  -4  639.50   24.48
   2   1   4  757.70   28.95
   2   1   4  690.90   26.48
   3   2   4  995.30   37.98
  -4  -3  -4  677.10   26.08
  -4  -3  -4  661.30   25.32
   4   3   4  661.30   25.34
   4   3   4  669.30   25.88
   1   5  -4  530.60   20.62
   1   5  -4  512.00   19.80
  -1  -5   4  491.50   19.28
  -1  -5   4  476.00   18.45
   0   4  -4  393.30   15.39
   0   4  -4  418.30   16.40
   0  -4   4  329.20   12.94
   0  -4   4  317.40   12.59
  -1   3  -4  715.90   27.39
  -1   3  -4  700.20   26.75
   1  -3   4  729.70   27.76
   1  -3   4  671.00   25.68
  -2   2  -4  517.00   19.95
  -2   2  -4  501.50   19.27
   2  -2   4  474.00   18.54
   2  -2   4  452.30   17.46
  -3   1  -4  727.90   27.71
  -3   1  -4  730.10   27.91
   3  -1   4  707.50   26.94
   3  -1   4  727.70   27.96
  -4   0  -4  388.30   15.22
  -4   0  -4  386.30   15.05
   4   0   4  354.50   13.84
   4   0   4  377.40   15.16
  -5  -1  -4  487.80   18.84
  -5  -1  -4  518.10   20.16
   5   1   4  479.90   18.77
   5   1   4  496.30   19.10
  -1   6  -4  539.30   20.95
  -1   6  -4  534.50   20.65
   1  -6   4  511.10   19.94
   1  -6   4  519.30   20.04
  -2   5  -4  844.90   32.18
  -2   5  -4  855.40   32.47
   2  -5   4  774.00   29.52
   2  -5   4  829.30   31.51
  -3   4  -4  667.10   25.53
  -3   4  -4  674.90   25.82
   3  -4   4  678.40   25.81
   3  -4   4  713.90   27.41
  -4   3  -4  662.90   25.28
  -4   3  -4  688.00   26.34
   4  -3   4  696.30   26.51
   4  -3   4  700.00   26.94
  -5   2  -4  841.80   31.96
  -5   2  -4  843.80   32.11
   5  -2   4  856.00   32.75
   5  -2   4  850.60   32.31
  -6   1  -4  570.10   22.05
  -6   1  -4  538.90   20.73
   6  -1   4  544.20   20.92
   6  -1   4  526.90   20.60
  -7   0  -4  616.00   23.87
  -7   0  -4  606.70   23.30
   7   0   4  637.70   24.38
   7   0   4  625.90   24.27
  -2   8  -4  491.70   19.32
  -2   8  -4  461.30   18.15
   2  -8   4  498.60   19.61
   2  -8   4  495.00   19.21
  -3   7  -4  748.70   28.68
  -3   7  -4  774.20   29.56
   3  -7   4  788.30   30.19
   3  -7   4  770.80   29.33
  -4   6  -4  532.30   20.58
  -4   6  -4  588.30   22.59
   4  -6   4  559.50   21.45
   4  -6   4  537.90   20.73
  -5   5  -4  621.70   23.84
  -5   5  -4  651.10   24.96
   5  -5   4  713.00   27.43
   5  -5   4  682.00   26.00
  -6   4  -4  562.50   21.66
  -6   4  -4  596.10   22.85
   6  -4   4  556.90   21.34
   6  -4   4  585.40   22.72
  -7   3  -4  782.40   29.78
  -7   3  -4  769.70   29.36
   7  -3   4  780.50   29.98
   7  -3   4  791.60   30.11
  -8   2  -4  485.70   19.00
  -8   2  -4  434.20   16.93
   8  -2   4  478.10   18.55
   8  -2   4  512.60   20.29
  -4   9  -4  675.50   25.95
   4  -9   4  669.70   25.68
  -5   8  -4  560.40   21.79
  -5   8  -4  565.20   21.88
   5  -8   4  555.70   21.74
   5  -8   4  524.20   20.20
  -6   7  -4  572.00   22.11
  -6   7  -4  553.10   21.50
   6  -7   4  544.50   20.96
   6  -7   4  520.70   20.19
  -7   6  -4  569.30   21.94
  -7   6  -4  571.00   22.11
   7  -6   4  547.90   21.06
   7  -6   4  554.60   21.65
  -8   5  -4  580.70   22.43
  -8   5  -4  566.50   21.91
   8  -5   4  541.30   20.93
   8  -5   4  573.60   22.40
  -9   4  -4  683.20   26.32
  -9   4  -4  704.30   27.13
   9  -4   4  708.30   27.47
   9  -4   4  706.30   27.08
  -7   9  -4  518.90   20.58
  -7   9  -4  549.30   21.33
   7  -9   4  480.40   18.70
   7  -9   4  496.30   19.75
  -8   8  -4  503.90   19.69
  -8   8  -4  461.90   18.30
   8  -8   4  398.30   15.78
   8  -8   4  408.00   16.05
  -9   7  -4  513.80   20.27
  -9   7  -4  466.00   18.35
 -10   6  -4  445.00   17.68
 -10   6  -4  437.60   17.58
  -4   3   5  582.80   22.37
   2  -2  -5  426.80   16.64
   2  -2  -5  445.90   17.73
  -2   2   5  488.80   19.02
  -2   2   5  483.20   18.70
   1   0  -5  496.70   19.22
  -1   0   5  444.40   17.37
  -1   0   5  436.20   16.98
   0  -1  -5  481.50   18.65
   0   1   5  454.30   17.81
   0   0   0    0.00    0.00
;
_shelx_hkl_checksum              99769
loop_
_space_group_symop_operation_xyz
'x, y, z'
'-y, x-y, z'
'-x+y, -x, z'
'-y, -x, z'
'-x+y, y, z'
'x, x-y, z'
'x+2/3, y+1/3, z+1/3'
'-y+2/3, x-y+1/3, z+1/3'
'-x+y+2/3, -x+1/3, z+1/3'
'-y+2/3, -x+1/3, z+1/3'
'-x+y+2/3, y+1/3, z+1/3'
'x+2/3, x-y+1/3, z+1/3'
'x+1/3, y+2/3, z+2/3'
'-y+1/3, x-y+2/3, z+2/3'
'-x+y+1/3, -x+2/3, z+2/3'
'-y+1/3, -x+2/3, z+2/3'
'-x+y+1/3, y+2/3, z+2/3'
'x+1/3, x-y+2/3, z+2/3'
loop_
_atom_site_label
_atom_site_type_symbol
_atom_site_fract_x
_atom_site_fract_y
_atom_site_fract_z
_atom_site_U_iso_or_equiv
_atom_site_adp_type
_atom_site_occupancy
_atom_site_site_symmetry_order
_atom_site_calc_flag
_atom_site_refinement_flags_posn
_atom_site_refinement_flags_adp
_atom_site_refinement_flags_occupancy
_atom_site_disorder_assembly
_atom_site_disorder_group
Dy1 Dy 0.0000 0.0000 0.06803(2) 0.0031(3) Uani 1 6 d S T P . .
O1 O 0.1322(3) 0.2645(7) 0.0495(13) 0.0102(12) Uani 1 2 d S T P . .
O2 O 0.2496(3) 0.4993(6) 0.2295(13) 0.0081(11) Uani 1 2 d S T P . .
C1 C 0.1795(5) 0.3589(10) 0.278(2) 0.0096(14) Uani 1 2 d S T P . .
H1CA H 0.1626 0.3251 0.5002 0.012 Uiso 1 2 calc R U P . .
loop_
_atom_site_aniso_label
_atom_site_aniso_U_11
_atom_site_aniso_U_22
_atom_site_aniso_U_33
_atom_site_aniso_U_23
_atom_site_aniso_U_13
_atom_site_aniso_U_12
Dy1 0.0025(3) 0.0025(3) 0.0044(3) 0.000 0.000 0.00124(14)
O1 0.012(2) 0.007(3) 0.009(3) 0.001(2) 0.0005(10) 0.0037(14)
O2 0.008(2) 0.005(2) 0.010(3) 0.0011(18) 0.0006(9) 0.0027(12)
C1 0.009(3) 0.009(3) 0.011(3) -0.001(3) -0.0007(14) 0.0044(17)
loop_
_atom_type_symbol
_atom_type_description
_atom_type_scat_dispersion_real
_atom_type_scat_dispersion_imag
_atom_type_scat_source
C C 0.0033 0.0016 'International Tables Vol C Tables 4.2.6.8 and 6.1.1.4'
H H 0.0000 0.0000 'International Tables Vol C Tables 4.2.6.8 and 6.1.1.4'
O O 0.0106 0.0060 'International Tables Vol C Tables 4.2.6.8 and 6.1.1.4'
Dy Dy -0.1892 4.4098 'International Tables Vol C Tables 4.2.6.8 and 6.1.1.4'
loop_
_geom_angle_atom_site_label_1
_geom_angle_atom_site_label_2
_geom_angle_atom_site_label_3
_geom_angle
_geom_angle_site_symmetry_1
_geom_angle_site_symmetry_3
O1 Dy1 O1 119.906(14) . 2
O1 Dy1 O1 119.906(14) . 3
O1 Dy1 O1 119.906(14) 2 3
O1 Dy1 O2 73.71(12) . 8
O1 Dy1 O2 129.35(18) 2 8
O1 Dy1 O2 73.71(12) 3 8
O1 Dy1 O2 129.35(18) . 7_445
O1 Dy1 O2 73.71(12) 2 7_445
O1 Dy1 O2 73.71(12) 3 7_445
O2 Dy1 O2 63.8(2) 8 7_445
O1 Dy1 O2 73.71(12) . 9_455
O1 Dy1 O2 73.71(12) 2 9_455
O1 Dy1 O2 129.36(18) 3 9_455
O2 Dy1 O2 63.8(2) 8 9_455
O2 Dy1 O2 63.8(2) 7_445 9_455
O1 Dy1 O2 125.25(17) . 7_444
O1 Dy1 O2 71.01(12) 2 7_444
O1 Dy1 O2 71.01(12) 3 7_444
O2 Dy1 O2 144.72(9) 8 7_444
O2 Dy1 O2 105.4(2) 7_445 7_444
O2 Dy1 O2 144.72(9) 9_455 7_444
O1 Dy1 O2 71.01(12) . 8_554
O1 Dy1 O2 125.25(17) 2 8_554
O1 Dy1 O2 71.01(12) 3 8_554
O2 Dy1 O2 105.4(2) 8 8_554
O2 Dy1 O2 144.72(9) 7_445 8_554
O2 Dy1 O2 144.72(9) 9_455 8_554
O2 Dy1 O2 62.8(2) 7_444 8_554
O1 Dy1 O2 71.01(12) . 9_454
O1 Dy1 O2 71.01(12) 2 9_454
O1 Dy1 O2 125.25(17) 3 9_454
O2 Dy1 O2 144.72(9) 8 9_454
O2 Dy1 O2 144.72(9) 7_445 9_454
O2 Dy1 O2 105.4(2) 9_455 9_454
O2 Dy1 O2 62.8(2) 7_444 9_454
O2 Dy1 O2 62.8(2) 8_554 9_454
O1 Dy1 Dy1 88.23(13) . 1_554
O1 Dy1 Dy1 88.23(13) 2 1_554
O1 Dy1 Dy1 88.23(13) 3 1_554
O2 Dy1 Dy1 142.41(13) 8 1_554
O2 Dy1 Dy1 142.41(13) 7_445 1_554
O2 Dy1 Dy1 142.41(13) 9_455 1_554
O2 Dy1 Dy1 37.02(13) 7_444 1_554
O2 Dy1 Dy1 37.02(13) 8_554 1_554
O2 Dy1 Dy1 37.02(13) 9_454 1_554
O1 Dy1 Dy1 91.77(13) . 1_556
O1 Dy1 Dy1 91.77(13) 2 1_556
O1 Dy1 Dy1 91.77(13) 3 1_556
O2 Dy1 Dy1 37.59(13) 8 1_556
O2 Dy1 Dy1 37.59(13) 7_445 1_556
O2 Dy1 Dy1 37.59(13) 9_455 1_556
O2 Dy1 Dy1 142.98(13) 7_444 1_556
O2 Dy1 Dy1 142.98(13) 8_554 1_556
O2 Dy1 Dy1 142.98(13) 9_454 1_556
Dy1 Dy1 Dy1 180.0 1_554 1_556
C1 O1 Dy1 131.5(5) . .
C1 O2 Dy1 136.2(5) . 13_554
C1 O2 Dy1 118.4(5) . 13
Dy1 O2 Dy1 105.4(2) 13_554 13
O1 C1 O2 124.7(8) . .
loop_
_geom_bond_atom_site_label_1
_geom_bond_atom_site_label_2
_geom_bond_distance
_geom_bond_site_symmetry_2
Dy1 O1 2.379(6) .
Dy1 O1 2.380(6) 2
Dy1 O1 2.380(6) 3
Dy1 O2 2.468(5) 8
Dy1 O2 2.468(5) 7_445
Dy1 O2 2.468(5) 9_455
Dy1 O2 2.500(5) 7_444
Dy1 O2 2.500(5) 8_554
Dy1 O2 2.500(5) 9_454
Dy1 Dy1 3.9520(8) 1_554
Dy1 Dy1 3.9520(8) 1_556
O1 C1 1.239(10) .
O2 C1 1.276(11) .
O2 Dy1 2.468(5) 13_554
O2 Dy1 2.500(5) 13
loop_
_geom_torsion_atom_site_label_1
_geom_torsion_atom_site_label_2
_geom_torsion_atom_site_label_3
_geom_torsion_atom_site_label_4
_geom_torsion
_geom_torsion_site_symmetry_1
_geom_torsion_site_symmetry_2
_geom_torsion_site_symmetry_3
_geom_torsion_site_symmetry_4
Dy1 O1 C1 O2 180.000(2) . . . .
Dy1 O2 C1 O1 -0.001(4) 13_554 . . .
Dy1 O2 C1 O1 180.001(2) 13 . . .
