#------------------------------------------------------------------------------
#$Date: 2021-04-29 11:45:47 +0300 (Thu, 29 Apr 2021) $
#$Revision: 264688 $
#$URL: file:///home/coder/svn-repositories/cod/cif/1/56/22/1562267.cif $
#------------------------------------------------------------------------------
#
# This file is available in the Crystallography Open Database (COD),
# http://www.crystallography.net/
#
# All data on this site have been placed in the public domain by the
# contributors.
#
data_1562267
loop_
_publ_author_name
'Spencer, Elinor C.'
'Ross, Nancy L.'
'Surbella, Robert G.'
'Cahill, Christopher L.'
_publ_section_title
;
 The influence of pressure on the structure of a 2D uranium(VI)
 carboxyphosphonoate compound
;
_journal_name_full               'Journal of Solid State Chemistry'
_journal_page_first              1
_journal_page_last               5
_journal_paper_doi               10.1016/j.jssc.2014.05.026
_journal_volume                  218
_journal_year                    2014
_chemical_formula_moiety         'C2 H3 O7 P U'
_chemical_formula_sum            'C2 H3 O7 P U'
_chemical_formula_weight         408.04
_space_group_crystal_system      monoclinic
_space_group_IT_number           14
_space_group_name_Hall           '-P 2ybc'
_space_group_name_H-M_alt        'P 1 21/c 1'
_atom_sites_solution_hydrogens   geom
_atom_sites_solution_primary     direct
_atom_sites_solution_secondary   difmap
_cell_angle_alpha                90.00
_cell_angle_beta                 104.026(5)
_cell_angle_gamma                90.00
_cell_formula_units_Z            4
_cell_length_a                   6.6750(2)
_cell_length_b                   7.09260(14)
_cell_length_c                   13.8385(6)
_cell_measurement_reflns_used    2687
_cell_measurement_temperature    293(2)
_cell_measurement_theta_max      32.6450
_cell_measurement_theta_min      3.2630
_cell_volume                     635.62(4)
_computing_cell_refinement
;
CrysAlisPro, Agilent Technologies,
Version 1.171.36.24 (release 03-12-2012 CrysAlis171 .NET)
(compiled Dec  3 2012,18:21:49)
;
_computing_data_collection
;
CrysAlisPro, Agilent Technologies,
Version 1.171.36.24 (release 03-12-2012 CrysAlis171 .NET)
(compiled Dec  3 2012,18:21:49)
;
_computing_data_reduction
;
CrysAlisPro, Agilent Technologies,
Version 1.171.36.24 (release 03-12-2012 CrysAlis171 .NET)
(compiled Dec  3 2012,18:21:49)

Absorb Angel (2004) J. Appl. Cryst. 37:486-492

Average v2.2 (Angel, 2003)
;
_computing_molecular_graphics
;
O. V. Dolomanov, L. J. Bourhis, R. J. Gildea, J. A. K. Howard and H. Puschmann,
OLEX2: a complete structure solution, refinement and analysis program.
J. Appl. Cryst. (2009). 42, 339-341.
;
_computing_publication_material
;
O. V. Dolomanov, L. J. Bourhis, R. J. Gildea, J. A. K. Howard and H. Puschmann,
OLEX2: a complete structure solution, refinement and analysis program.
J. Appl. Cryst. (2009). 42, 339-341.
;
_computing_structure_refinement
;
SHELXL, G.M. Sheldrick, Acta Cryst.
(2008). A64, 112-122
;
_computing_structure_solution    'SHELXS-97 (Sheldrick, 1990)'
_diffrn_ambient_temperature      293(2)
_diffrn_detector_area_resol_mean 8.2824
_diffrn_measured_fraction_theta_full 0.168
_diffrn_measured_fraction_theta_max 0.290
_diffrn_measurement_details
;
#__ type_ start__ end____ width___ exp.time_
  1 omega  -40.00    0.00   1.0000  115.0000
omega____ theta____ kappa____ phi______ frames
    -      -40.0000    0.0000    0.0000 40

#__ type_ start__ end____ width___ exp.time_
  2 omega  -40.00   20.00   1.0000  115.0000
omega____ theta____ kappa____ phi______ frames
    -      -20.0000    0.0000    0.0000 60

#__ type_ start__ end____ width___ exp.time_
  3 omega  -20.00   40.00   1.0000  115.0000
omega____ theta____ kappa____ phi______ frames
    -       20.0000    0.0000    0.0000 60

#__ type_ start__ end____ width___ exp.time_
  4 omega    0.00   40.00   1.0000  115.0000
omega____ theta____ kappa____ phi______ frames
    -       40.0000    0.0000    0.0000 40

#__ type_ start__ end____ width___ exp.time_
  5 omega  -53.00  -13.00   1.0000  115.0000
omega____ theta____ kappa____ phi______ frames
    -      -40.0000   39.4600  -12.9000 40

#__ type_ start__ end____ width___ exp.time_
  6 omega  -13.00   27.00   1.0000  115.0000
omega____ theta____ kappa____ phi______ frames
    -       40.0000   39.4600  -12.9000 40

#__ type_ start__ end____ width___ exp.time_
  7 omega  -69.00  -19.00   1.0000  115.0000
omega____ theta____ kappa____ phi______ frames
    -      -40.0000   81.4000  -28.9000 50

#__ type_ start__ end____ width___ exp.time_
  8 omega  -15.00   11.00   1.0000  115.0000
omega____ theta____ kappa____ phi______ frames
    -       40.0000   81.4000  -28.9000 26

#__ type_ start__ end____ width___ exp.time_
  9 omega  -27.00   13.00   1.0000  115.0000
omega____ theta____ kappa____ phi______ frames
    -      -40.0000  -39.4600   12.9000 40

#__ type_ start__ end____ width___ exp.time_
 10 omega   13.00   53.00   1.0000  115.0000
omega____ theta____ kappa____ phi______ frames
    -       40.0000  -39.4600   12.9000 40

#__ type_ start__ end____ width___ exp.time_
 11 omega  -11.00   15.00   1.0000  115.0000
omega____ theta____ kappa____ phi______ frames
    -      -40.0000  -81.4000   28.9000 26

#__ type_ start__ end____ width___ exp.time_
 12 omega   19.00   69.00   1.0000  115.0000
omega____ theta____ kappa____ phi______ frames
    -       40.0000  -81.4000   28.9000 50

#__ type_ start__ end____ width___ exp.time_
 13 omega  -97.00  -57.00   1.0000  115.0000
omega____ theta____ kappa____ phi______ frames
    -      -40.0000  134.6000  -56.9000 40

#__ type_ start__ end____ width___ exp.time_
 14 omega  -97.00  -37.00   1.0000  115.0000
omega____ theta____ kappa____ phi______ frames
    -      -20.0000  134.6000  -56.9000 60

#__ type_ start__ end____ width___ exp.time_
 15 omega  -58.00  -17.00   1.0000  115.0000
omega____ theta____ kappa____ phi______ frames
    -       20.0000  134.6000  -56.9000 41

#__ type_ start__ end____ width___ exp.time_
 16 omega  -38.00  -17.00   1.0000  115.0000
omega____ theta____ kappa____ phi______ frames
    -       40.0000  134.6000  -56.9000 21
;
_diffrn_measurement_device_type  'Xcalibur, Sapphire2, large Be window'
_diffrn_measurement_method       '\w scans'
_diffrn_orient_matrix_UB_11      -0.0282534000
_diffrn_orient_matrix_UB_12      0.0051210000
_diffrn_orient_matrix_UB_13      -0.0527157000
_diffrn_orient_matrix_UB_21      0.0130405000
_diffrn_orient_matrix_UB_22      -0.0988730000
_diffrn_orient_matrix_UB_23      -0.0027438000
_diffrn_orient_matrix_UB_31      -0.1049409000
_diffrn_orient_matrix_UB_32      -0.0137806000
_diffrn_orient_matrix_UB_33      0.0004983000
_diffrn_radiation_monochromator  graphite
_diffrn_radiation_type           'Mo K\a'
_diffrn_radiation_wavelength     0.7107
_diffrn_reflns_av_R_equivalents  0.083
_diffrn_reflns_limit_h_max       10
_diffrn_reflns_limit_h_min       -10
_diffrn_reflns_limit_k_max       10
_diffrn_reflns_limit_k_min       -10
_diffrn_reflns_limit_l_max       7
_diffrn_reflns_limit_l_min       -8
_diffrn_reflns_number            4584
_diffrn_reflns_reduction_process
; 
data averaged using Blessing (1987) criteria 
;
_diffrn_reflns_theta_full        40.00
_diffrn_reflns_theta_max         32.31
_diffrn_reflns_theta_min         2.87
_diffrn_source                   'Enhance (Mo) X-ray Source'
_exptl_absorpt_coefficient_mu    25.703
_exptl_absorpt_correction_T_max  0.439
_exptl_absorpt_correction_T_min  0.161
_exptl_absorpt_correction_type   gaussian
_exptl_absorpt_process_details
;
Gaussian integration over a grid
of 16 x 16 x 16 points =  4096 total grid points
  Based upon method of Burnham (1966)

 Data corrected for diamond-anvil cell absorption
 Note that exptl_absorpt_correction_tmin and _tmax
 the total correction factors applied to the intensities
 The individual factors are: 
         range of dac transmission factors (min-max)      0.437     0.995
         range of gasket transmission (min-max)           0.892     1.000
         range of P media transmission (min-max)          1.000     1.000

    DAC transmission function via a table of values

    Gasket shadowing corrections were made based upon
    Gasket thickness = 100.0 microns, radius = 150.0 microns
    Gasket absorption coeff =        30.00 mm-1
    REFLECTION WAS CONSIDERED TOTALLY OBSCURED IF 
 FRACTION CRYSTAL ILLUMINATED WAS LESS THAN 0.20

    Non-absorbing pressure medium
;
_exptl_crystal_colour            'light yellow'
_exptl_crystal_density_diffrn    4.264
_exptl_crystal_density_method    'not measured'
_exptl_crystal_description
;
crystal was described in terms of coordinates of corners
now back-transformed to potentially non-integer hkl
;
_exptl_crystal_F_000             712
_exptl_crystal_preparation       'mounted in a diamond-anvil cell'
_exptl_crystal_size_max          0.142
_exptl_crystal_size_mid          0.133
_exptl_crystal_size_min          0.032
_refine_diff_density_max         1.239
_refine_diff_density_min         -1.258
_refine_diff_density_rms         0.232
_refine_ls_extinction_method     none
_refine_ls_goodness_of_fit_ref   0.812
_refine_ls_hydrogen_treatment    constr
_refine_ls_matrix_type           full
_refine_ls_number_parameters     46
_refine_ls_number_reflns         672
_refine_ls_number_restraints     2
_refine_ls_restrained_S_all      0.815
_refine_ls_R_factor_all          0.0425
_refine_ls_R_factor_gt           0.0291
_refine_ls_shift/su_max          0.000
_refine_ls_shift/su_mean         0.000
_refine_ls_structure_factor_coef Fsqd
_refine_ls_weighting_details
'calc w=1/[\s^2^(Fo^2^)+(0.0000P)^2^+0.0000P] where P=(Fo^2^+2Fc^2^)/3'
_refine_ls_weighting_scheme      calc
_refine_ls_wR_factor_gt          0.0644
_refine_ls_wR_factor_ref         0.0683
_reflns_number_gt                465
_reflns_number_total             708
_reflns_threshold_expression     'Fsqd > 3.0u(Fsqd)'
_cod_data_source_file            JSSC-2014-218-1.cif
_cod_data_source_block           1.138GPa
_cod_depositor_comments
;
The following automatic conversions were performed:

data item '_exptl_absorpt_correction_type' value 'Gaussian' was
changed to 'gaussian' in accordance with the built-in table derived
from the CIF Core dictionary named 'cif_core.dic' version 2.4.5 last
updated on 2014-11-21.

Automatic conversion script
Id: cif_fix_values 8369 2020-08-20 11:38:08Z andrius 
;
_cod_original_cell_volume        635.63(4)
_cod_database_code               1562267
_diffrn_reflns_uneti/neti        0.052
_olex2_refinement_description
;
1. Fixed Uiso
 At 1.2 times of:
  {H1A,H1B} of C1
 At 1.5 times of:
  H7 of O7
2.a Secondary CH2 refined with riding coordinates:
 C1(H1A,H1B)
2.b Idealised tetrahedral OH refined as rotating group:
 O7(H7)
;
loop_
_space_group_symop_id
_space_group_symop_operation_xyz
1 'x, y, z'
2 '-x, y+1/2, -z+1/2'
3 '-x, -y, -z'
4 'x, -y-1/2, z-1/2'
loop_
_atom_site_label
_atom_site_type_symbol
_atom_site_fract_x
_atom_site_fract_y
_atom_site_fract_z
_atom_site_U_iso_or_equiv
_atom_site_adp_type
_atom_site_occupancy
_atom_site_symmetry_multiplicity
_atom_site_calc_flag
_atom_site_refinement_flags
_atom_site_disorder_assembly
_atom_site_disorder_group
U1 U 0.35627(9) 0.66496(6) 0.26153(13) 0.00565(15) Uiso 1 1 d . . .
P1 P 0.2077(6) 1.1635(4) 0.2899(8) 0.0052(6) Uiso 1 1 d . . .
O1 O 0.279(2) 0.6335(13) 0.122(3) 0.025(3) Uiso 1 1 d . . .
O2 O 0.443(2) 0.7046(14) 0.400(3) 0.029(3) Uiso 1 1 d . . .
O3 O 0.0185(16) 0.6885(11) 0.266(2) 0.012(2) Uiso 1 1 d . . .
O4 O 0.3111(14) 0.9972(13) 0.2463(17) 0.0119(19) Uiso 1 1 d . . .
O5 O 0.3422(14) 1.3309(12) 0.2755(18) 0.0108(19) Uiso 1 1 d . . .
O6 O 0.1318(17) 1.4450(12) 0.430(2) 0.026(3) Uiso 1 1 d D . .
O7 O 0.0747(18) 1.2487(14) 0.5380(19) 0.024(3) Uiso 1 1 d D . .
H7 H 0.0292 1.3441 0.5585 0.036 Uiso 1 1 calc R . .
C1 C 0.230(2) 1.1222(16) 0.421(3) 0.011(3) Uiso 1 1 d . . .
H1A H 0.1552 1.0088 0.4302 0.013 Uiso 1 1 calc R . .
H1B H 0.3735 1.1066 0.4557 0.013 Uiso 1 1 calc R . .
C2 C 0.140(2) 1.2891(15) 0.4604(19) 0.016(3) Uiso 1 1 d D . .
loop_
_atom_type_symbol
_atom_type_description
_atom_type_scat_dispersion_real
_atom_type_scat_dispersion_imag
_atom_type_scat_source
C C 0.0033 0.0016 'International Tables Vol C Tables 4.2.6.8 and 6.1.1.4'
H H 0.0000 0.0000 'International Tables Vol C Tables 4.2.6.8 and 6.1.1.4'
O O 0.0106 0.0060 'International Tables Vol C Tables 4.2.6.8 and 6.1.1.4'
P P 0.1023 0.0942 'International Tables Vol C Tables 4.2.6.8 and 6.1.1.4'
U U -9.6767 9.6646 'International Tables Vol C Tables 4.2.6.8 and 6.1.1.4'
loop_
_exptl_crystal_face_index_h
_exptl_crystal_face_index_k
_exptl_crystal_face_index_l
_exptl_crystal_face_perp_dist
-1.0000 3.8702 -143.4901 0.0000
-1.0000 6.5175 1.1581 0.0223
-6.1791 -1.0000 3.1943 0.0722
8.7232 1.0000 -4.5490 0.0700
1.0000 -25.6447 -2.9941 0.1029
1.0000 -3.8702 143.4901 0.0320
loop_
_geom_angle_atom_site_label_1
_geom_angle_atom_site_label_2
_geom_angle_atom_site_label_3
_geom_angle
_geom_angle_site_symmetry_1
_geom_angle_site_symmetry_3
O2 U1 O1 177.4(5) . .
O2 U1 O3 91.1(7) . .
O1 U1 O3 90.7(7) . .
O2 U1 O4 86.8(6) . .
O1 U1 O4 91.7(6) . .
O3 U1 O4 79.9(3) . .
O2 U1 O5 94.2(7) . 1_545
O1 U1 O5 87.7(7) . 1_545
O3 U1 O5 90.7(3) . 1_545
O4 U1 O5 170.6(3) . 1_545
O2 U1 O5 94.4(6) . 2_645
O1 U1 O5 83.1(6) . 2_645
O3 U1 O5 145.8(4) . 2_645
O4 U1 O5 66.7(3) . 2_645
O5 U1 O5 122.5(2) 1_545 2_645
O2 U1 O4 93.3(6) . 2_645
O1 U1 O4 85.8(6) . 2_645
O3 U1 O4 156.3(3) . 2_645
O4 U1 O4 123.5(2) . 2_645
O5 U1 O4 65.8(3) 1_545 2_645
O5 U1 O4 57.0(3) 2_645 2_645
O2 U1 P1 99.1(4) . 2_645
O1 U1 P1 78.9(4) . 2_645
O3 U1 P1 168.3(7) . 2_645
O4 U1 P1 95.0(2) . 2_645
O5 U1 P1 94.1(2) 1_545 2_645
O5 U1 P1 28.4(2) 2_645 2_645
O4 U1 P1 29.3(3) 2_645 2_645
O2 U1 U1 85.2(3) . 2_655
O1 U1 U1 92.3(3) . 2_655
O3 U1 U1 115.2(2) . 2_655
O4 U1 U1 35.32(18) . 2_655
O5 U1 U1 154.11(19) 1_545 2_655
O5 U1 U1 32.3(2) 2_645 2_655
O4 U1 U1 88.4(2) 2_645 2_655
P1 U1 U1 60.59(5) 2_645 2_655
O2 U1 U1 100.1(3) . 2_645
O1 U1 U1 80.5(3) . 2_645
O3 U1 U1 123.61(19) . 2_645
O4 U1 U1 154.9(3) . 2_645
O5 U1 U1 33.9(2) 1_545 2_645
O5 U1 U1 88.6(2) 2_645 2_645
O4 U1 U1 32.7(2) 2_645 2_645
P1 U1 U1 60.22(5) 2_645 2_645
U1 U1 U1 120.67(2) 2_655 2_645
O5 P1 O3 112.4(8) . 2
O5 P1 O4 102.0(7) . .
O3 P1 O4 111.4(11) 2 .
O5 P1 C1 110.4(12) . .
O3 P1 C1 111.0(10) 2 .
O4 P1 C1 109.2(9) . .
O5 P1 U1 50.7(4) . 2_655
O3 P1 U1 137.2(11) 2 2_655
O4 P1 U1 52.9(3) . 2_655
C1 P1 U1 111.8(5) . 2_655
P1 O3 U1 146.8(16) 2_545 .
P1 O4 U1 140.7(10) . .
P1 O4 U1 97.8(5) . 2_655
U1 O4 U1 112.0(3) . 2_655
P1 O5 U1 145.0(5) . 1_565
P1 O5 U1 100.9(4) . 2_655
U1 O5 U1 113.8(4) 1_565 2_655
C2 O7 H7 109.5 . .
C2 C1 P1 107.3(16) . .
C2 C1 H1A 110.3 . .
P1 C1 H1A 110.3 . .
C2 C1 H1B 110.3 . .
P1 C1 H1B 110.3 . .
H1A C1 H1B 108.5 . .
O6 C2 O7 120.7(17) . .
O6 C2 C1 127(2) . .
O7 C2 C1 112.1(15) . .
loop_
_geom_bond_atom_site_label_1
_geom_bond_atom_site_label_2
_geom_bond_distance
_geom_bond_site_symmetry_2
U1 O2 1.89(3) .
U1 O1 1.89(3) .
U1 O3 2.278(9) .
U1 O4 2.379(9) .
U1 O5 2.381(9) 1_545
U1 O5 2.490(9) 2_645
U1 O4 2.544(8) 2_645
U1 P1 3.159(4) 2_645
U1 U1 4.0812(5) 2_655
U1 U1 4.0812(5) 2_645
P1 O5 1.530(10) .
P1 O3 1.533(16) 2
P1 O4 1.559(13) .
P1 C1 1.81(4) .
P1 U1 3.159(4) 2_655
O3 P1 1.533(16) 2_545
O4 U1 2.544(8) 2_655
O5 U1 2.381(9) 1_565
O5 U1 2.490(9) 2_655
O6 C2 1.179(9) .
O7 C2 1.285(10) .
O7 H7 0.8200 .
C1 C2 1.49(2) .
C1 H1A 0.9700 .
C1 H1B 0.9700 .
loop_
_geom_hbond_atom_site_label_D
_geom_hbond_atom_site_label_H
_geom_hbond_atom_site_label_A
_geom_hbond_distance_DH
_geom_hbond_distance_HA
_geom_hbond_distance_DA
_geom_hbond_angle_DHA
_geom_hbond_site_symmetry_A
O7 H7 O6 0.82 1.87 2.666(15) 163.2 3_586
