#------------------------------------------------------------------------------
#$Date: 2021-06-17 04:21:38 +0300 (Thu, 17 Jun 2021) $
#$Revision: 266508 $
#$URL: file:///home/coder/svn-repositories/cod/cif/1/56/35/1563534.cif $
#------------------------------------------------------------------------------
#
# This file is available in the Crystallography Open Database (COD),
# http://www.crystallography.net/
#
# All data on this site have been placed in the public domain by the
# contributors.
#
data_1563534
loop_
_publ_author_name
'Ai, Yong'
'Sun, Rong'
'Zeng, Yu-Ling'
'Liu, Jun-Chao'
'Tang, Yuan-Yuan'
'Wang, Bing-Wu'
'Wang, Zheming'
'Gao, Song'
'Xiong, Ren-Gen'
_publ_section_title
;
 Coexistence of Magnetic and Electric Orderings in a Divalent Cr2+-Based
 Multiaxial Molecular Ferroelectric
;
_journal_name_full               'Chemical Science'
_journal_paper_doi               10.1039/D1SC01871J
_journal_year                    2021
_chemical_formula_moiety         'C4 H11 Cl4 Cr N'
_chemical_formula_sum            'C4 H11 Cl4 Cr N'
_chemical_formula_weight         266.96
_space_group_crystal_system      hexagonal
_space_group_IT_number           176
_space_group_name_Hall           '-P 6c'
_space_group_name_H-M_alt        'P 63/m'
_atom_sites_solution_hydrogens   geom
_audit_creation_method           SHELXL-2014/7
_audit_update_record
;
2021-01-09 deposited with the CCDC.	2021-06-15 downloaded from the CCDC.
;
_cell_angle_alpha                90
_cell_angle_beta                 90
_cell_angle_gamma                120
_cell_formula_units_Z            2
_cell_length_a                   9.4058(10)
_cell_length_b                   9.4058(10)
_cell_length_c                   6.6531(8)
_cell_measurement_reflns_used    481
_cell_measurement_temperature    415(2)
_cell_measurement_theta_max      25.7960
_cell_measurement_theta_min      3.9380
_cell_volume                     509.74(10)
_computing_cell_refinement       'CrysAlisPro 1.171.39.46 (Rigaku OD, 2018)'
_computing_data_collection       'CrysAlisPro 1.171.39.46 (Rigaku OD, 2018)'
_computing_data_reduction        'CrysAlisPro 1.171.39.46 (Rigaku OD, 2018)'
_computing_molecular_graphics    'DIAMOND (Brandenburg & Putz, 2005)'
_computing_publication_material  'SHELXL-2014/7 (Sheldrick, 2014)'
_computing_structure_refinement  'SHELXL-2014/7 (Sheldrick, 2014)'
_computing_structure_solution    'SHELXL-2014/7 (Sheldrick, 2014)'
_diffrn_ambient_temperature      415(2)
_diffrn_measured_fraction_theta_full 0.979
_diffrn_measured_fraction_theta_max 0.979
_diffrn_measurement_device_type  'XtaLAB Synergy R, DW system, HyPix'
_diffrn_measurement_method       'four-circle diffractometer'
_diffrn_radiation_type           MoK\a
_diffrn_radiation_wavelength     0.71073
_diffrn_reflns_av_R_equivalents  0.0805
_diffrn_reflns_av_unetI/netI     0.0413
_diffrn_reflns_Laue_measured_fraction_full 0.979
_diffrn_reflns_Laue_measured_fraction_max 0.979
_diffrn_reflns_limit_h_max       11
_diffrn_reflns_limit_h_min       -11
_diffrn_reflns_limit_k_max       10
_diffrn_reflns_limit_k_min       -11
_diffrn_reflns_limit_l_max       7
_diffrn_reflns_limit_l_min       -7
_diffrn_reflns_number            1534
_diffrn_reflns_point_group_measured_fraction_full 0.979
_diffrn_reflns_point_group_measured_fraction_max 0.979
_diffrn_reflns_theta_full        24.880
_diffrn_reflns_theta_max         24.880
_diffrn_reflns_theta_min         2.500
_diffrn_source                   'Rotating-anode X-ray tube'
_exptl_absorpt_coefficient_mu    2.105
_exptl_absorpt_correction_T_max  0.699
_exptl_absorpt_correction_T_min  0.691
_exptl_absorpt_correction_type   multi-scan
_exptl_absorpt_process_details   'CrysAlisPro 1.171.39.46 (Rigaku OD, 2018)'
_exptl_crystal_colour            Colourless
_exptl_crystal_density_diffrn    1.739
_exptl_crystal_description       Prism
_exptl_crystal_F_000             268
_exptl_crystal_size_max          0.180
_exptl_crystal_size_mid          0.180
_exptl_crystal_size_min          0.170
_refine_diff_density_max         0.321
_refine_diff_density_min         -0.297
_refine_diff_density_rms         0.093
_refine_ls_extinction_method     none
_refine_ls_goodness_of_fit_ref   1.006
_refine_ls_hydrogen_treatment    constr
_refine_ls_matrix_type           full
_refine_ls_number_parameters     30
_refine_ls_number_reflns         323
_refine_ls_number_restraints     12
_refine_ls_restrained_S_all      1.000
_refine_ls_R_factor_all          0.1901
_refine_ls_R_factor_gt           0.1247
_refine_ls_shift/su_max          0.000
_refine_ls_shift/su_mean         0.000
_refine_ls_structure_factor_coef Fsqd
_refine_ls_weighting_details
'w=1/[\s^2^(Fo^2^)+(0.1432P)^2^+3.8377P] where P=(Fo^2^+2Fc^2^)/3'
_refine_ls_weighting_scheme      calc
_refine_ls_wR_factor_gt          0.3090
_refine_ls_wR_factor_ref         0.3474
_reflns_Friedel_coverage         0.000
_reflns_number_gt                191
_reflns_number_total             323
_reflns_threshold_expression     'I > 2\s(I)'
_cod_data_source_file            d1sc01871j2.cif
_cod_data_source_block           P63m
_cod_original_cell_volume        509.74(12)
_cod_database_code               1563534
_shelx_shelxl_version_number     2014/7
_shelx_space_group_comment
;
The symmetry employed for this shelxl refinement is uniquely defined
by the following loop, which should always be used as a source of
symmetry information in preference to the above space-group names.
They are only intended as comments.
;
_shelx_estimated_absorpt_t_min   0.703
_shelx_estimated_absorpt_t_max   0.716
_shelx_res_file
;

    P63m.res created by SHELXL-2014/7


TITL P63m in P6(3)/m
CELL 0.71073   9.4058   9.4058   6.6531  90.000  90.000 120.000
ZERR    2.00   0.0010   0.0010   0.0008   0.000   0.000   0.000
LATT 1
SYMM -Y, X-Y, Z
SYMM -X+Y, -X, Z
SYMM -X, -Y, 0.5+Z
SYMM Y, -X+Y, 0.5+Z
SYMM X-Y, X, 0.5+Z
SFAC C H N CL CR
UNIT 8 22 2 8 2
OMIT 0 50
L.S. 25
ACTA
BOND
FMAP 2
PLAN 20
TEMP 142
SIZE 0.17 0.18 0.18
WGHT    0.143200    3.837700
FVAR       0.46074
CR1   5    0.000000    0.000000    0.000000    10.16667    0.10841    0.10841 =
         0.06266    0.00000    0.00000    0.05421
CL1   4   -0.119115    0.118536    0.250000    10.50000    0.15115    0.15163 =
         0.14791    0.00000    0.00000    0.07961
PART  -1  ! ammonium, DFIX parameters from 223K structure
DFIX 1.49 0.01 N1 C1 N1 C2 N1 C3 N1 C4
DFIX 2.46 0.01 C1 C2 C1 C3 C1 C4 C2 C3 C2 C4 C3 C4
DFIX 1.76 0.01 C1 CL2
DFIX 2.68 0.01 N1 CL2
EADP C1 C2 C3 C4
N1    3   -0.365622    0.308215   -0.289763    10.16667    0.07894
CL2   4   -0.282676    0.455616    0.069631    10.16667    0.49397
C1    1   -0.423812    0.287183   -0.075337    10.16667    0.19731
AFIX  23
H1A   2   -0.434655    0.186591   -0.020767    10.16667   -1.20000
H1B   2   -0.530644    0.279190   -0.070380    10.16667   -1.20000
AFIX   0
C2    1   -0.421639    0.142426   -0.380998    10.16667    0.19731
AFIX  33
H2A   2   -0.376388    0.087049   -0.306227    10.16667   -1.50000
H2B   2   -0.539318    0.078756   -0.377132    10.16667   -1.50000
H2C   2   -0.385011    0.155511   -0.517947    10.16667   -1.50000
AFIX   0
C3    1   -0.181332    0.407823   -0.294413    10.16667    0.19731
AFIX  33
H3A   2   -0.145772    0.513720   -0.236051    10.16667   -1.50000
H3B   2   -0.136521    0.352299   -0.219096    10.16667   -1.50000
H3C   2   -0.144004    0.421065   -0.431063    10.16667   -1.50000
AFIX   0
C4    1   -0.436096    0.395452   -0.406221    10.16667    0.19731
AFIX  33
H4A   2   -0.400053    0.501328   -0.347512    10.16667   -1.50000
H4B   2   -0.399482    0.408764   -0.543192    10.16667   -1.50000
H4C   2   -0.553789    0.332009   -0.402377    10.16667   -1.50000
PART  0
AFIX   0
HKLF 4

REM  P63m in P6(3)/m
REM R1 =  0.1247 for     191 Fo > 4sig(Fo)  and  0.1901 for all     323 data
REM     30 parameters refined using     12 restraints

END

WGHT      0.1469      1.5003

REM Highest difference peak  0.321,  deepest hole -0.297,  1-sigma level  0.093
Q1    1  -0.3185  0.3992  0.0846  11.00000  0.05    0.31
Q2    1  -0.1568  0.1400  0.1550  11.00000  0.05    0.25
Q3    1  -0.0218  0.1333  0.2500  10.50000  0.05    0.25
Q4    1  -0.1546 -0.0191  0.2500  10.50000  0.05    0.23
Q5    1   0.1231  0.0379  0.0857  11.00000  0.05    0.16
Q6    1  -0.1969 -0.1682  0.0011  11.00000  0.05    0.15
Q7    1  -0.5884  0.1263 -0.4112  11.00000  0.05    0.14
Q8    1   0.0262 -0.0675  0.1176  11.00000  0.05    0.14
Q9    1  -0.7328  0.1340 -0.1495  11.00000  0.05    0.13
Q10   1  -0.4671  0.2140 -0.0661  11.00000  0.05    0.12
Q11   1  -0.6278 -0.0521 -0.2500  10.50000  0.05    0.08
Q12   1  -0.2787  0.0599  0.2500  10.50000  0.05    0.06
Q13   1  -0.2574  0.0718 -0.2500  10.50000  0.05    0.06
Q14   1  -0.1935  0.2130  0.2500  10.50000  0.05    0.00
;
_shelx_res_checksum              50125
_shelx_hkl_file
;
   0   0   1    1.51    0.28
   0   0   2  173.02    1.92
   0   0   3    0.68    0.74
   0   0   4  294.77    3.63
   0   0   5    0.33    1.25
   0   0   6   -1.08    1.47
   0   0   7    8.09    0.93
   0   0  -7   -0.29    0.51
   0   0   8    5.58    0.98
   0   0  -8    0.95    0.65
   1   0   0  632.19    2.73
   0  -1  -1   52.83    0.84
  -1   0   1   51.45    0.40
  -1   1   1   51.35    0.59
  -1   1   2    2.94    0.38
   1   0  -2    2.27    0.18
   0   1   2    3.14    0.51
   0  -1  -2    2.25    0.60
   1  -1  -2    2.55    0.24
   1   0   3    0.34    0.79
   0  -1  -3    3.98    0.85
   1   0  -3    1.52    0.22
   1  -1   3    3.32    0.84
   1  -1  -3    1.28    0.24
   0   1   3    2.76    0.67
   0   1   4  154.98    2.45
   1   0   4  155.76    2.75
   1  -1  -4  163.73    1.81
   0  -1   4  152.72    2.68
   1  -1   4  157.83    2.68
   0   1   5    3.85    0.97
   1  -1   5    0.66    1.23
   1  -1  -5    0.32    0.34
  -1   1   5    4.36    0.85
   0  -1   5    3.34    1.28
   1   0  -5    0.18    0.31
   0  -1   6    8.49    1.53
   1   0  -6    9.48    0.61
   1  -1  -6    9.43    0.69
   0   1   6   11.19    1.20
  -1   1   6   11.84    1.10
  -1   1   7    1.35    0.97
   0   1  -7   -0.17    0.45
   0   1   7    1.67    1.06
   0  -1  -7   -0.57    0.55
   1  -1  -7    0.07    0.49
   0  -1  -8    1.56    0.75
  -1   1  -8    0.99    0.65
   1  -1  -8    0.47    0.67
   1   0  -8    0.85    0.57
   0   1   8   -0.56    1.10
   0   1  -8    1.99    0.57
   1   0   9   -0.55    1.04
   1  -1   9    5.93    1.04
   1  -2   0 1044.95    3.68
   1   1   1   -0.16    0.33
  -1   2   1    0.05    0.16
   1  -2  -1    0.94    0.31
  -1  -1  -1    0.49    0.35
  -1   2   1   -0.32    0.28
   1  -2  -1    0.05    0.15
  -1  -1  -1    0.09    0.42
   2  -1   1    0.01    0.27
  -1   2   2  283.57    2.47
  -2   1  -2  289.81    2.59
  -2   1   2  295.44    1.79
  -1  -1  -2  289.86    2.77
   2  -1  -2  298.86    1.78
   1   1   2  293.08    2.75
   1  -2  -2  294.96    2.39
   1  -2  -2  288.77    2.68
   2  -1   2  294.57    2.51
   1   1   3    0.64    0.60
   1   1   3    1.39    0.72
  -1  -1  -3   -0.01    0.81
  -1   2   3   -0.15    0.49
   1   1  -3    0.00    0.13
   2  -1  -3    0.27    0.24
   1  -2  -3    0.08    0.26
   2  -1   4   50.91    1.75
  -1   2   4   63.50    1.78
   1  -2  -4   54.14    1.18
  -2   1   4   55.36    1.78
  -1  -1  -4   54.28    1.84
   1   1  -4   56.64    0.76
   2  -1  -4   56.56    1.02
   1  -2   4   55.37    1.81
   1   1   4   58.66    1.78
   1   1   4   59.31    1.88
  -1   2   4   51.15    1.76
  -2   1   5    2.72    1.27
   1  -2   5    3.98    1.26
   1  -2  -5   -0.01    0.38
   1   1   5    3.43    1.10
   1   1   5    2.63    1.06
   2  -1  -5   -0.30    0.38
   1   1  -6    5.54    0.47
   1   1   6    8.52    1.33
  -2   1   6    8.19    0.96
   2  -1   6    0.86    1.38
  -1   2   6    2.59    1.28
   1   1   6   10.56    1.40
  -1  -1   6   12.18    1.56
   1  -2   6    7.97    1.54
  -2   1   6    5.27    1.48
   2  -1  -6    5.67    0.59
  -1   2   6   12.04    1.33
   1  -2  -6    6.74    0.70
   2  -1  -7   -0.02    0.48
   1   1   7   -0.02    1.14
   1   1  -7   -0.24    0.36
  -2   1   7    1.33    0.89
   1  -2  -7   -0.08    0.53
   1  -2  -8    0.25    0.71
  -1   2   8    0.60    1.05
   2  -1  -8    1.84    0.59
   1   1  -8    1.52    0.37
  -1   2  -8    0.72    0.57
   2  -1   9    4.13    1.16
  -1  -1  -9   -0.62    0.73
   2   0   0   23.48    0.73
   0  -2   0   21.75    0.45
  -2   0   1  509.38    2.71
   0  -2  -1  518.93    3.40
  -2   2   1  513.34    2.56
   0  -2   1  515.18    1.95
   0   2  -1  514.85    2.08
   2   0   1  503.10    3.68
   0  -2  -1  522.24    3.44
   2  -2   1  512.12    2.56
  -2   2   1  511.42    2.58
   2  -2  -2  358.01    2.31
   0  -2  -2  345.35    3.10
  -2   2   2  348.94    2.29
   0  -2  -2  346.24    3.06
   2  -2   2  350.03    2.76
  -2   0   2  355.92    1.66
  -2   2   2  358.71    2.83
   0   2   2  365.79    3.12
   2   0   2  344.84    3.00
   0   2  -2  329.10    1.27
   0  -2  -3   98.88    2.07
   2  -2  -3  104.09    1.38
   2  -2   3  103.52    1.93
  -2   2   3  105.40    1.98
   0   2   3  109.01    2.07
   2   0   3   99.92    1.85
   2  -2  -4   29.74    0.87
   2  -2   4   31.07    1.49
   0   2   4   30.16    1.52
  -2   2   4   34.91    1.18
   0  -2  -4   32.06    1.57
   2   0  -4   29.65    0.60
  -2   2   4   29.83    1.53
   2   0   4   33.57    1.45
  -2   2   5    1.17    1.27
   0   2   5    1.14    1.11
  -2   2   5    0.01    1.01
   2  -2  -5    2.12    0.46
   2  -2   5    3.13    1.32
   2   0  -5    3.38    0.36
   2   0   5    5.65    1.15
   0   2  -6   11.52    0.58
  -2   2   6    9.16    1.37
   2   0   6   17.82    1.40
  -2   2   6    7.75    1.55
   2   0   6   17.49    1.53
   2   0  -6   11.11    0.54
   2  -2   6    8.28    1.58
  -2   0   6   17.41    1.60
   0  -2   6   18.41    1.68
   2  -2  -6   11.88    0.79
   0   2   6    8.90    1.47
   2  -2  -7   -0.63    0.57
   2   0  -7    0.94    0.39
   0   2  -7    0.05    0.35
   0  -2  -7   -0.19    0.58
   2  -2  -8    1.27    0.70
   2   0   8    3.41    1.22
   0  -2  -8    1.34    0.76
   0  -2  -9   -0.21    0.71
   2  -2   9   10.65    1.14
   3  -1   0    2.86    0.46
   1  -3   0    0.46    0.20
   3  -1  -1  159.41    1.50
  -1  -2  -1  156.69    2.14
  -2  -1  -1  152.61    2.19
   1  -3  -1  156.99    1.87
   2  -3  -1  158.03    1.57
  -1   3  -1  157.86    1.26
  -3   1  -1  166.18    1.81
  -1  -2  -1  167.71    2.30
  -2   3   1  159.28    1.56
  -3   2  -1  157.23    1.51
   2  -3  -1  157.47    1.56
   1  -3  -1  155.07    1.57
  -2   3   1  158.26    1.55
   3  -2   1  163.55    1.48
   2   1   1  168.82    2.29
   3  -1   2  372.42    3.14
  -2   3   2  373.17    2.97
  -1  -2  -2  361.01    3.53
   1  -3  -2  362.70    3.23
  -1  -2  -2  355.68    3.63
  -3   1  -2  373.06    3.22
  -3   2   2  361.45    2.39
   2   1   2  353.80    3.43
   2  -3  -2  362.66    2.69
   2  -3  -2  361.91    2.99
  -1   3   2  365.81    3.23
   1  -3  -2  365.51    3.22
  -3   1   2  363.08    2.14
  -2   3   2  351.81    2.61
  -3   2  -2  358.73    2.93
   3  -2   2  361.42    2.81
  -1   3   3   10.61    0.85
   2   1   3   11.20    1.09
   3  -1   3   13.02    0.95
   3  -2   3    7.76    0.96
  -3   1   3   10.03    0.43
   1   2   3    7.89    0.95
  -1  -2  -3    7.63    1.04
  -2   3   3   12.64    0.84
   1  -3  -3   10.46    1.07
   1  -3  -3    9.81    0.57
  -3   2   3   10.68    0.50
  -3   2   3   14.21    1.05
   3  -2  -3   11.18    0.50
   2  -3  -3   12.27    0.71
   1  -3  -3   11.35    0.90
  -3   1  -3   11.69    1.05
   2  -3  -3   10.00    0.56
   2   1   3    9.34    0.87
   3  -2   4   14.44    1.28
   2  -3  -4   17.82    0.75
   3  -1   4   18.93    1.17
   1  -3  -4   18.19    0.81
  -1   3   4   19.41    1.15
   2  -3   4   23.22    1.42
  -2   3   4   21.06    1.20
   3  -2  -4   18.98    0.69
   2   1   4   21.00    1.45
   2   1   4   16.65    1.17
  -1  -2  -4   18.27    1.48
   1  -3  -4   22.88    1.49
   1   2   4   16.65    1.38
  -3   1  -4   24.80    1.53
  -3   2   4   21.48    1.36
   1  -3  -5    0.67    0.45
  -3   2   5    3.10    1.28
   3  -2  -5    1.28    0.42
  -1   3   5   -0.46    0.98
   3  -1   5    3.22    1.10
  -3   1   5    9.33    1.32
  -1   3   5    2.07    0.99
   2   1   5    2.73    1.25
   2   1   5    0.88    0.95
   2  -3  -5    0.87    0.45
   2  -3   5    5.03    1.33
  -2   3   5    4.27    1.05
  -1  -2  -5    5.38    1.49
   2  -3   6   11.18    1.60
  -3   2   6   11.17    1.04
   2  -3  -6   11.08    0.83
   2   1   6   11.01    1.36
  -2   3   6   16.45    1.40
   3  -1   6   14.68    1.40
  -3   2   6    8.83    1.60
   3  -2   6   14.86    1.43
   3  -2  -6   11.11    0.70
  -3   1   6   11.14    0.93
  -3   1   6   14.00    1.55
   2   1   6   11.84    1.53
   1   2   6    5.95    1.50
  -1   3   6   14.20    1.43
   1  -3   6   16.47    1.67
   1  -3  -6   11.81    0.90
  -1   3   6   10.84    1.49
   3  -2  -7    1.04    0.52
   1  -3  -7    0.53    0.55
   2   1   7   -0.96    1.30
   2  -3  -7   -0.49    0.62
   3  -2  -8    2.87    0.66
   2  -3  -8    0.43    0.71
  -1  -2  -8    0.48    0.68
   1  -3  -8    0.88    0.72
  -2  -1  -9   -0.55    0.69
  -1  -2  -9   -0.53    0.73
  -3   0   0    8.74    0.66
   0  -3   0    8.21    0.38
  -3   3   1  228.75    1.92
  -3   0  -1  226.37    2.56
   0  -3  -1  239.53    2.81
  -3   0   1  226.85    2.34
   0  -3   1  228.20    1.51
   3   0   1  238.60    2.90
  -3   3   1  238.27    1.61
   3  -3   1  228.18    1.64
   0  -3  -2  310.66    3.46
  -3   3   2  301.40    2.38
   3   0   2  295.78    3.57
   0  -3  -2  298.49    3.24
   3  -3  -2  292.74    2.35
   3   0   2  297.10    3.13
  -3   0  -2  297.45    3.16
  -3   3   2  302.74    2.64
   3  -3   2  304.50    2.63
   3   0   3   73.84    1.77
   0   3   3   70.10    1.77
  -3   0   3   73.29    0.86
  -3   3   3   76.00    1.28
   0   3  -3   68.57    0.57
   3  -3   3   80.02    1.77
   3  -3  -3   75.59    1.27
   0  -3  -3   74.12    1.87
   0  -3  -3   73.41    1.99
  -3   0  -3   74.15    1.92
  -3   3   3   77.98    1.79
   0   3   4   10.86    1.07
  -3   3   4    9.57    1.18
   0   3   4    9.20    1.01
   3  -3  -4   12.14    0.65
   3   0   4    9.82    1.04
   3  -3   4   11.54    1.28
   0  -3  -4   12.18    1.41
  -3   0  -4   13.74    1.44
   3   0   5    4.02    1.02
  -3   3   5    0.23    1.27
   3  -3   5    3.25    1.29
   0   3   5    3.13    1.11
   3   0   5   11.53    1.47
   0  -3  -5   11.12    1.64
   3  -3  -5    4.67    0.56
  -3   0  -5   14.44    1.78
   0   3   5    4.80    1.03
   3   0   6   12.35    1.55
   0   3   6    6.78    1.40
   3   0   6    6.79    1.28
  -3   0   6   17.48    1.60
   3  -3   6    2.96    1.46
   3  -3  -6    7.73    0.75
   0   3   6    6.76    1.28
  -3   3   6    0.47    1.56
   0  -3  -7    0.19    0.59
   3  -3  -7    0.25    0.58
   0  -3  -8    0.43    0.73
   3  -3  -8    2.01    0.70
   3   0   8    1.40    1.33
   0  -3  -9   -0.14    0.72
   2  -4   0  234.02    1.97
   2  -4  -1    0.58    0.45
   2  -4  -1    0.07    0.26
  -4   2  -1    0.32    0.42
  -2   4  -1    0.04    0.21
  -2  -2  -2   29.43    1.35
  -2   4   2   27.76    1.02
  -4   2   2   30.61    0.74
  -2  -2  -2   26.36    1.24
   4  -2   2   30.10    1.07
   2  -4  -2   27.19    1.21
  -4   2  -2   28.90    1.11
   2  -4  -3   -0.32    0.37
  -4   2   3   -0.24    0.32
   2  -4  -3   -0.43    0.73
   4  -2   3   -0.18    0.66
   2   2   3   -0.38    0.74
  -2   4   3   -0.50    0.68
  -2  -2  -3    2.02    0.83
  -4   2  -3    2.55    0.97
   2  -4  -3    1.48    1.01
   2  -4  -4   39.82    1.82
   2   2   4   34.29    1.88
  -2   4   4   35.61    1.49
   2  -4  -4   32.41    1.03
  -2  -2  -4   29.18    1.75
   4  -2   4   37.03    1.49
   2   2   4   25.39    1.41
   4  -2   5    1.74    1.00
  -2   4   5    0.44    1.06
  -2  -2  -5    2.30    1.54
   2  -4  -5   -0.03    0.47
  -4   2   6    7.45    1.41
   2  -4   6   11.75    1.61
  -2   4   6    6.83    1.39
   2   2   6   -0.54    1.55
   4  -2   6    8.92    1.33
   2  -4  -6    3.87    0.71
  -2  -2  -6   18.15    2.08
   2  -4  -8   -0.30    0.74
   2   2   8   -0.50    1.22
   2  -4  -9   -0.17    0.80
   1  -4   0  119.69    1.41
  -3  -1   0  115.90    2.10
   3   1   1   75.21    1.79
  -3   4   1   69.45    1.16
   1  -4  -1   69.01    1.53
   1  -4   1   70.27    0.97
   1  -4  -1   71.19    1.19
   4  -3   1   73.30    1.03
   3  -4  -1   67.18    1.10
   4  -1  -1   75.44    1.35
  -3  -1   1   69.17    1.45
  -1  -3  -1   67.82    1.69
  -4   1  -1   68.04    1.46
  -1   4  -1   72.35    1.04
   4  -1   1   63.08    1.60
   3  -4  -2  104.73    1.71
  -3   4   2  106.03    1.52
  -4   3   2   99.43    1.64
  -3   4   2  109.54    1.69
  -1  -3  -2  101.48    2.17
  -1  -3  -2  105.76    2.30
   1  -4  -2  101.40    1.98
  -4   1  -2  110.40    1.95
  -4   3   2  109.65    1.46
   1  -4  -2  115.08    1.75
   4  -3   2  120.32    1.70
  -1   4  -2  108.48    1.17
   4  -1   2  109.89    2.00
  -1  -3   2  107.10    0.82
   3   1   2  114.02    2.52
   1  -4  -2  105.55    1.99
   4  -3   3   23.78    1.07
  -4   1   3   14.51    0.63
  -4   1  -3   17.30    1.30
   1  -4  -3   17.64    1.17
  -1   4  -3   17.14    0.46
   3   1   3   16.07    1.10
  -1   4   3   14.62    1.05
  -1  -3  -3   19.39    1.29
  -4   3   3   18.70    1.13
  -1  -3  -3   20.93    1.23
   3  -4  -3   14.16    0.82
  -3  -1   3   17.49    0.35
  -4   3   3   18.80    0.70
  -4   1   3   19.27    0.62
   3  -4  -3   19.28    0.77
  -3   4   3   20.69    1.02
   4  -1   3   17.50    1.10
   1   3   3   19.50    1.23
   1  -4  -3   15.90    1.32
  -4   1  -4   19.43    1.59
   3  -4   4   20.47    1.38
   4  -1   4   14.74    1.17
   3   1   4   11.81    1.13
   1  -4  -4   16.53    0.88
  -1   4   4   13.19    1.15
  -3   4   4   16.92    1.13
   3  -4  -4   15.35    0.77
  -4   3   4   16.76    1.33
   3   1   4   16.21    1.55
   4  -3   4   19.88    1.24
  -1  -3  -4   11.66    1.49
   1  -4  -4   18.02    1.61
  -1   4  -4   13.74    0.39
   1   3   4   15.89    1.35
   3  -4  -5    2.05    0.53
   3  -4   5    5.59    1.36
   1  -4  -5    2.08    0.57
  -4   1   5    4.67    0.45
  -1   4   5    1.47    1.01
  -3   4   5    5.59    1.09
   3   1   5    0.65    1.01
   1  -4  -5   11.00    1.75
  -1  -3  -5    4.14    1.58
   4  -3  -5    4.54    0.58
   4  -3   5    6.57    1.14
   3   1   5    2.41    1.37
   4  -1   5    1.76    1.03
   1   3   5    0.17    1.09
  -4   3   5    1.38    1.31
   3  -4   6    6.31    1.60
   3   1   6    4.85    1.58
   1   3   6    5.12    1.42
   4  -1   6   16.05    1.59
   1  -4  -6    6.80    0.80
  -4   3   6    2.14    1.46
   4  -3   6   13.78    1.36
  -4   1   6   14.43    1.47
  -3   4   6   12.10    1.49
   4  -1   6    6.61    1.30
  -4   1   6    1.34    0.58
   4  -3  -6    9.13    0.74
  -1   4   6    5.12    1.29
  -1  -3  -6   19.89    2.07
   3  -4  -6    5.42    0.72
   3  -4  -7    0.02    0.59
  -1   4  -7    0.62    0.13
  -1   4  -7   -0.01    0.15
   1  -4  -7   -0.17    0.58
   3  -4  -8    1.26    0.77
  -1  -3  -8    0.46    0.69
   1  -4  -8    0.43    0.73
   0  -4   0    9.14    0.49
  -4   0   0    8.46    0.78
   4   0   0    8.26    0.79
   4   0   1    4.01    0.86
  -4   4   1    3.75    0.36
   0  -4   1    4.74    0.33
  -4   0  -1    4.25    0.73
   0  -4  -1    4.17    0.81
  -4   0   1    4.68    0.76
   4  -4   1    5.68    0.41
   0  -4  -1    5.59    0.46
  -4   4   1    5.24    0.40
   0  -4  -2  155.61    2.69
   4   0   2  161.98    2.98
   0  -4  -2  151.89    2.63
  -4   0  -2  156.02    2.58
  -4   4   2  157.11    1.91
   4  -4   2  163.26    1.99
  -4   4   2  159.35    1.82
   0  -4  -3    0.60    0.94
   0   4   3   -0.66    0.76
   4  -4   3   -0.33    0.89
   4  -4  -3    1.50    0.44
   0  -4  -3    2.80    0.92
   4   0   3   -0.23    0.75
   4  -4  -3    1.87    0.44
  -4   0   3    0.77    0.29
  -4   0  -3    2.82    0.91
  -4   4   3    0.66    0.38
  -4   0   3   -0.31    0.44
  -4   4   4    5.64    1.23
   4  -4  -4   10.97    0.70
   0   4   4    7.59    0.99
   4   0   4    8.37    1.05
   0  -4  -4    5.54    1.41
   4  -4   4    7.75    1.24
  -4   0  -4    7.90    1.44
   4   0   5    3.92    1.46
   0  -4  -5    4.90    1.62
  -4   0  -5    3.26    1.64
   4  -4  -5    1.53    0.52
   0  -4  -6    6.09    0.86
   4   0   6    7.91    1.69
   0  -4  -6   20.03    2.12
   4  -4  -6    6.36    0.73
  -4   4   6    8.12    1.35
  -4   0  -6   20.72    2.14
   4  -4   6   -1.88    1.61
   4  -4  -7    2.37    0.67
   4   0   7    1.97    1.56
   0  -4  -7    0.16    0.65
   4   0   8   -1.26    1.55
   0  -4  -8    0.39    0.72
   5  -2   0  214.58    2.60
  -5   3   0  244.91    1.96
  -3   5   0  267.36    2.36
  -2   5   0  298.45    2.60
   2  -5   0  279.38    2.35
  -3  -2   0  263.33    3.31
   3  -5  -1    1.04    0.56
  -3   5  -1    0.45    0.28
   3  -5  -1    0.93    0.34
   2  -5  -1    0.17    0.32
  -3  -2   1   -0.54    0.58
  -5   2  -1    0.20    0.53
   5  -2  -1    0.05    0.61
  -2  -3  -1   -0.69    0.79
  -2   5  -1    0.23    0.28
  -5   3  -2    3.67    0.78
   2  -5  -2    0.88    0.37
  -5   3   2    1.85    0.34
   3  -5  -2    0.23    0.90
  -3   5   2    0.06    0.58
  -3  -2  -2    3.38    0.97
   5  -3  -2   -0.23    0.41
   5  -3   2    0.72    0.57
  -2  -3  -2    1.10    0.93
   2  -5  -2    4.43    0.90
  -2   5  -2    1.46    0.29
  -2  -3  -2   -0.02    0.92
  -3   5  -2    2.35    0.34
  -3   5   2    1.31    0.36
  -5   2  -2    0.21    0.76
  -2  -3  -3    4.49    1.09
  -5   3   3   -0.28    0.37
   3  -5  -3    3.14    1.14
  -5   2  -3    0.42    1.05
   5  -3   3   -0.57    0.78
  -2  -3  -3    1.34    0.96
  -2   5  -3    0.18    0.24
   5  -2   3   -0.42    0.77
   3  -5  -3   -0.49    0.67
  -5   2   3    0.03    0.33
   3  -5  -4   33.80    1.26
   2   3   4   35.42    1.80
   2  -5  -4   37.00    1.97
   2  -5  -4   36.03    1.20
  -5   3   4   36.27    1.55
  -5   3   4   40.93    1.14
   5  -3   4   41.91    1.65
  -2   5   4   32.00    1.55
   3   2   4   32.77    1.96
   3   2   4   28.63    1.50
   5  -2   4   36.85    1.60
   2  -5  -4   35.14    1.49
  -3   5   4   35.17    1.53
  -2   5  -4   33.82    0.71
  -5   2   4   40.17    1.02
  -5   2  -4   44.68    2.00
   3  -5  -4   33.14    1.13
  -2  -3  -4   29.13    1.98
   2  -5  -5   11.45    1.85
   2  -5  -5   -0.60    0.56
   3  -5   5    8.82    1.43
  -5   3   5    2.30    1.20
   5  -3   5    0.46    1.14
   3   2   5   -0.44    0.93
   3  -5  -5   -0.38    0.52
  -2  -3  -5   -1.59    1.58
  -3   5   5   -0.01    1.02
   2  -5  -6    1.02    0.66
  -3   5   6    2.18    1.22
  -2  -3  -6   11.21    1.98
   3  -5  -6    1.21    0.60
  -5   2   6    8.88    1.36
  -5   3   6    1.82    1.38
   2   3   6   -0.14    1.33
   5  -3   6    4.79    1.38
   5  -2   6    2.05    1.25
   3  -5   6    6.59    1.56
   5  -2   7   13.51    1.66
  -2  -3  -7   21.62    2.42
   2  -5  -8   -0.74    0.79
   3  -5  -8    0.84    0.78
   3   2   8   -0.72    1.27
   5  -1   0   83.52    1.96
   1  -5   0   77.16    1.27
   5  -1   1   11.24    1.14
  -5   1  -1    8.39    0.82
   1  -5  -1    8.21    0.93
   5  -1  -1    7.13    0.71
   1  -5  -1    9.17    0.56
  -4   5   1    8.25    0.52
   4   1   1    8.99    0.98
  -1  -4  -1    6.57    0.82
   1  -5   1    9.50    0.47
  -1  -4   1    9.36    0.46
  -5   4   1    8.65    0.50
  -5   4   1    3.84    0.44
  -4  -1   1    6.31    0.86
   4  -5  -1   11.78    0.68
  -4  -1   2   15.53    0.91
   4   1   2   17.02    1.39
  -1   5  -2   18.26    0.62
  -1  -4  -2   15.53    1.29
  -1  -4   2   19.29    0.49
   5  -1   2   20.95    1.42
  -4   5   2   17.12    0.86
  -1  -4  -2   16.96    1.30
  -4  -1  -2   17.09    1.24
   5  -4   2   22.03    0.94
   1  -5  -2   17.85    1.18
  -5   1  -2   21.95    1.24
   1  -5  -2   19.96    0.85
  -4   5   2   18.93    0.75
   1  -5  -2   15.12    1.10
  -5   4   2   18.03    0.91
  -5   4   2   19.59    0.75
   4  -5   3    5.99    1.04
  -1  -4  -3    1.26    0.98
   5  -1   3   -0.95    0.86
  -1  -4  -3    1.16    1.05
   5  -4   3    2.39    0.80
   4  -5  -3   -0.71    0.56
  -4  -1  -3    1.44    0.98
  -5   4   3    0.12    0.37
  -5   1   3    1.19    0.35
  -5   4   3    0.05    0.91
   1  -5  -3    3.15    1.01
  -4   5   3   -0.12    0.38
  -1   5  -3    0.22    0.25
   4  -5  -3    0.66    0.43
  -4   5   3    0.15    0.65
   5  -1   3    6.39    1.27
   4  -5   4   18.16    1.43
   4   1   4   13.24    1.22
  -1  -4  -4    7.44    1.59
   4   1   4   15.45    1.72
  -1  -4  -4   22.69    1.47
   1   4   4   12.82    1.22
   4  -5  -4   14.92    0.80
  -1   5   4   12.19    1.21
  -5   1   4   16.72    0.65
  -5   4   4   16.30    0.81
  -4   5   4   19.96    1.32
   1  -5  -4   18.77    1.43
  -1   5  -4   13.73    0.44
   5  -4   4   20.24    1.26
  -4  -1  -4   10.62    1.65
   5  -1   4   14.42    1.21
   1  -5  -4   12.76    1.70
  -5   4   4   14.19    1.35
  -5   1  -4   17.53    1.71
  -4  -1  -5   -0.59    1.68
  -5   1  -5    6.16    1.71
   4  -5   5    0.60    1.31
   5  -1   5    7.53    1.62
   4  -5  -5    0.96    0.51
  -4   5   5    2.15    1.03
   4   1   5   -1.75    1.52
   1   4   5   -1.13    1.01
   4   1   5   -0.84    0.99
  -1   5   5   -0.29    0.97
  -1  -4  -5   -0.50    1.70
   5  -4   5    3.74    1.12
   1  -5  -5    5.74    1.74
   1  -5  -5   -0.29    0.61
  -1  -4  -6    9.86    1.97
   4  -5  -6    3.46    0.66
  -4   5   6    6.59    1.30
  -4  -1  -6   10.77    2.03
   5  -4   6    8.08    1.31
   1  -5  -6    3.34    0.74
   4   1   6   -1.49    1.67
   4  -5   6    0.78    1.47
   5  -1   6   10.54    1.78
   4  -5  -7    1.42    0.66
  -1  -4  -7    0.18    0.68
   1  -5  -7    0.09    0.63
  -1  -4  -8    0.11    0.70
   1  -5  -8   -0.61    0.83
   0  -5   0    5.06    0.45
   5   0   0    4.23    0.84
  -5   0  -1   17.00    1.28
  -5   0   1   18.73    1.18
   0  -5  -1   19.17    0.83
  -5   5   1   16.91    0.68
   5   0   1   15.94    1.35
   0  -5   1   17.33    0.62
  -5   0  -2   62.74    1.93
  -5   5   2   60.18    1.29
   0  -5  -2   58.86    1.97
  -5   5   2   66.97    1.26
   5   0   2   68.25    2.31
  -5   0   2   58.95    1.68
   0  -5  -2   60.22    1.95
   5  -5   2   70.20    1.36
   0  -5  -2   72.15    1.69
   5  -5   3    1.51    1.04
   5  -5  -3    3.01    0.49
   0  -5  -3    2.52    1.15
  -5   5   3    8.44    0.90
   0  -5  -3    6.98    0.75
  -5   5   3    5.75    0.55
   0  -5  -3    7.33    1.18
  -5   0  -3    8.54    1.16
  -5   0   3    2.95    0.86
   5   0   3    6.83    1.41
  -5   5   4    2.82    0.53
  -5   0  -4   -0.01    1.45
  -5   0   4   -0.49    0.78
   5   0   4    0.34    1.03
  -5   0   4    3.02    0.35
  -5   5   4    6.28    0.92
   0  -5  -4    8.46    1.36
  -5   5   5    3.58    1.01
   0  -5  -5   -0.60    0.69
  -5   0  -5    2.38    1.73
   0  -5  -5    1.01    1.74
   5   0   5    0.98    1.55
   0  -5  -6   12.90    2.09
  -5   0   6   -0.54    0.60
   5   0   6    2.43    1.71
  -5   0  -6   12.50    2.16
  -5   5   6    6.51    1.25
   0  -5  -6    2.23    0.78
   5   0   7   -1.37    1.77
   0  -5  -7   -0.56    0.77
  -3  -3   0  174.93    2.95
  -3   6   0  185.69    2.12
  -3   6  -1   -0.18    0.33
  -6   3  -1    0.42    0.57
   3  -6  -1    0.41    0.38
   3  -6  -1   -0.87    0.74
  -3   6  -2    1.58    0.33
  -6   3  -2    0.23    0.87
   6  -3  -2    0.43    0.45
  -3  -3  -2    3.49    1.13
   3  -6  -2    1.97    0.45
   3  -6  -2    4.61    0.94
  -6   3  -3    4.08    1.14
  -6   3   3   -0.11    0.40
  -3   6  -3    0.18    0.30
  -3  -3  -3    6.52    1.20
   3  -6  -3   -0.71    1.31
   3  -6  -4   33.27    2.05
   3  -6  -4   21.63    1.38
   3   3   4   23.53    1.69
   6  -3   4   28.06    1.63
  -6   3   4   31.59    1.06
   3  -6  -4   22.97    1.05
  -3   6  -4   25.64    0.75
  -3   6   4   22.87    1.37
   3  -6  -5   -0.33    0.56
  -3   6  -5    0.47    0.33
   3  -6  -6    0.28    0.61
  -3   6  -6    1.68    0.35
   3  -6  -7   -0.51    0.69
   3  -6  -8    0.42    0.79
  -4  -2   0   63.01    2.00
  -2   6   0   65.03    1.31
  -4   6   0   66.26    1.29
   2  -6   0   65.98    1.24
   6  -2   0   67.05    1.88
   2  -6  -1   -0.03    0.39
  -4   6  -1    0.19    0.33
   6  -2   1    4.35    0.99
  -2  -4  -1   -0.78    0.81
  -4  -2   1   -0.65    0.67
   2  -6  -1   -0.67    0.72
  -6   2  -1   -0.32    0.69
   4  -6  -1   -0.38    0.72
  -2   6  -1    0.31    0.31
  -6   4  -1    3.59    0.57
   4   2   2    3.42    0.96
  -2  -4   2    5.54    0.35
   6  -2   2   10.01    1.14
  -4  -2   2    2.69    0.68
  -2  -4  -2    3.79    1.16
   2  -6  -2    7.36    1.11
  -4   6   2    5.35    0.55
  -2   6  -2    5.07    0.42
  -2  -4  -2    2.29    1.16
   2  -6  -2    4.49    0.56
  -6   2  -2    8.12    1.00
  -6   4   2    5.76    0.50
  -4   6  -2    6.45    0.49
   4  -6  -2    6.56    1.10
   2  -6  -3   -0.39    0.91
  -6   4   3   -0.20    0.42
  -6   4   3    4.27    0.98
  -2  -4  -3    0.13    1.11
  -6   2   3    0.52    0.41
  -2  -4  -3    3.03    1.29
  -4   6   3   -0.79    0.68
  -2   6  -3   -0.22    0.31
   4  -6  -4   11.22    1.03
   2  -6  -4   14.33    1.45
  -6   4   4   14.89    0.83
  -2   6   4    9.94    1.22
   6  -2   4   12.82    1.33
  -4   6   4   10.82    1.16
   6  -4   4   14.92    1.34
  -2   6  -4   10.19    0.52
  -6   2   4   15.76    0.81
   4  -6   4   22.37    1.51
   4  -6  -4   11.88    0.82
  -2  -4  -4   18.66    1.56
  -4  -2  -4   19.28    1.62
   2  -6  -4   13.56    1.89
   4   2   4   14.28    1.55
  -6   4   4   13.80    1.27
  -6   2  -4   18.52    1.68
   4  -6   5    6.54    1.44
   2  -6  -5    9.16    1.96
   4  -6  -5    0.35    0.52
  -6   2  -5   14.38    1.88
   4   2   5   -1.35    1.43
  -6   4   5    0.45    1.23
  -2   6   5   -1.08    0.99
   6  -4   5   -0.45    1.14
   2  -6  -6   -0.54    0.72
  -2  -4  -6    3.80    1.99
   6  -4   6    1.46    1.28
  -4  -2  -6    3.92    2.00
   4  -6  -6    1.81    0.62
   4   2   6   -1.47    1.52
  -6   4   6   -0.87    1.31
  -4   6   6   -0.27    1.19
  -2   6  -6    0.71    0.23
   6  -2   7   10.09    1.92
   4  -6  -7    0.74    0.66
  -2  -4  -7   18.84    2.48
  -4  -2  -7   17.36    2.45
   4   2   7   -1.49    1.49
   4  -6  -8    2.25    0.82
  -5  -1   0    9.04    1.13
  -1  -5   0    8.46    0.60
   1  -6   0    7.75    0.56
  -1  -5  -1   11.80    1.06
   5   1   1   14.29    1.21
   6  -1   1   15.46    1.38
  -5  -1  -1   16.14    1.22
   1  -6  -1   12.79    1.16
  -6   1  -1   12.91    1.10
  -1  -5   1   15.80    0.63
   1  -6  -1   15.29    0.81
  -5   6   1   14.09    0.70
   1  -6   1   16.22    0.65
  -6   5   1   13.66    0.64
  -5  -1   1   12.76    1.17
  -5   6  -1   14.81    0.68
   5  -6   1    9.99    0.62
   1  -6  -2   30.19    1.53
  -5  -1   2   29.60    1.44
   1  -6  -2   39.54    1.25
  -1  -5  -2   30.60    1.63
   6  -1   2   39.65    1.95
   6  -5   2   42.04    1.18
  -1  -5  -2   35.24    1.88
  -5  -1  -2   33.98    1.79
   1  -6  -2   34.11    1.65
  -6   1  -2   38.30    1.60
  -5   6   2   35.60    1.07
  -6   5   2   36.79    0.96
  -1  -5   2   38.17    0.80
  -6   5   2   37.31    1.06
   5   1   2   39.63    1.84
   5  -6   2   34.70    1.17
  -6   5   3   -0.71    0.98
  -1  -5  -3    5.30    1.31
  -5  -1   3    2.29    0.74
   5   1   3   -0.12    1.39
   6  -1   3    6.38    1.48
  -1  -5  -3    3.63    1.33
   6  -5   3    5.31    0.95
  -5   6   3    3.41    0.54
  -5  -1  -3    5.56    1.35
   1  -6  -3    4.61    0.65
  -6   5   3    3.51    0.58
  -5   6   3    1.90    0.74
   1  -6  -3    9.04    1.36
  -6   1  -3    6.97    1.16
  -6   1   3    6.08    0.53
   5  -6   3    5.68    1.10
   5  -6  -4    6.76    0.70
   6  -1   4    6.31    1.62
  -1  -5  -4    8.61    1.47
  -5  -1   4    1.02    0.66
  -6   1  -4    0.44    1.52
   1  -6  -4    4.57    1.35
  -5  -1   4    2.52    0.28
  -6   5   4    3.25    0.60
   6  -5   4    5.67    1.10
  -6   1   4    3.22    0.53
  -1  -5  -4    9.42    1.43
  -5   6   4    1.95    0.89
   5  -6   4    3.63    1.26
  -5  -1  -4    2.26    1.42
  -5  -1  -5   -1.36    1.77
   5  -6  -5    2.19    0.63
   6  -5   5    3.98    1.16
   1  -6  -5    2.40    1.90
  -6   1  -5    5.18    1.82
   1  -6  -5    0.46    0.61
  -5   6   5    0.52    1.02
  -5   6   6    2.12    1.19
   1  -6  -6   14.21    2.25
  -6   1  -6   16.22    2.22
  -1  -5  -6    6.58    2.10
   6  -5   6    4.15    1.33
  -5  -1  -6    5.73    2.09
   6  -1   6    5.64    1.91
   5  -6  -6    3.42    0.71
  -6   5   6    1.21    1.20
   1  -6  -6    0.47    0.67
  -5  -1  -7   18.86    2.53
  -1  -5  -7   19.06    2.54
   6  -1   7    0.94    1.81
   5  -6  -7    3.37    0.79
  -1  -5  -7   -0.49    0.76
   1  -6  -7    0.19    0.69
   6   0   0    2.66    0.90
   0  -6   0    5.51    0.52
  -6   0   1   16.49    1.28
   0  -6  -1   10.67    1.30
  -6   0  -1   13.07    1.33
   0  -6  -1   16.09    0.86
   0  -6   1   14.28    0.66
  -6   6   1   13.96    0.71
   6   0   1   14.14    1.31
  -6   6   2   16.55    0.72
   0  -6  -2   14.08    1.30
   6   0   2   16.23    1.68
  -6   0   2   20.48    1.45
   0  -6  -2   13.74    1.47
  -6   0  -2   16.22    1.41
   6  -6   2   20.54    0.90
   0  -6  -2   20.63    1.09
  -6   6   2   16.93    0.81
  -6   0   3    5.22    1.19
   0  -6  -3   -0.79    1.35
   6   0   3    0.92    1.42
   0  -6  -3    3.70    0.79
   0  -6  -3    4.32    1.35
  -6   0  -3    4.89    1.20
  -6   6   3    3.82    0.56
   6  -6   3    8.03    0.92
  -6   6   3    1.83    0.72
  -6   6   4    4.07    0.99
  -6   0   4    4.25    1.11
   0  -6  -4    5.29    1.54
  -6   6   4    2.66    0.56
  -6   0   4    3.35    0.47
   0  -6  -4    3.25    0.85
   0  -6  -4    7.00    1.48
  -6   6   5    1.74    1.00
  -6   0   5    3.16    1.00
   0  -6  -6    8.74    2.19
  -6   0  -6   10.37    2.20
  -6   6   6    4.69    1.22
   6  -6   6    7.78    1.32
   0  -6  -7   -0.42    0.78
  -3  -4   0   15.16    1.20
  -4  -3   0   13.66    1.33
   7  -3   0   19.13    1.25
   4  -7   0   13.35    0.89
  -7   4   0   10.96    0.62
  -3   7   0   18.38    0.80
  -4   7   0   18.95    0.81
  -4   7  -1   -0.36    0.40
   4  -7  -1    1.19    0.80
   7  -3  -1   -0.28    0.84
   3  -7  -1    0.51    0.44
  -3   7  -1    0.04    0.32
  -7   3  -1    0.04    0.64
  -7   4  -2    9.42    0.99
  -7   3  -2    1.76    1.07
   4  -7  -2    2.40    1.22
  -3  -4  -2    6.61    1.35
  -4  -3   2    3.11    0.79
   7  -4  -2    3.30    0.69
  -4  -3  -2    9.13    1.40
  -3  -4  -2    5.09    1.48
  -3   7  -2    7.24    0.54
   3  -7  -2   12.07    1.31
  -4   7  -2    6.95    0.54
   3  -7  -2    6.40    0.64
   4  -7  -2    7.72    0.66
  -7   4   2    7.51    0.54
  -3  -4   3    0.15    0.19
   3  -7  -3   -0.02    0.49
  -7   4   3    0.10    0.45
  -7   3  -3   -0.29    1.17
  -4   7  -3    0.17    0.37
  -7   3   3    0.18    0.41
   4  -7  -3    4.47    1.48
  -3  -4  -3    4.12    1.33
  -3  -4  -3   -0.86    1.36
  -7   3  -4   14.91    1.64
  -7   4   4   11.33    1.20
   4  -7  -4   23.93    2.06
   4   3   4    1.71    1.25
   4  -7  -4    1.17    1.13
   3  -7  -4    2.98    1.33
  -4   7   4    3.37    1.02
   7  -4   4    5.48    1.18
  -7   4   4    6.38    0.73
  -7   3   4    6.46    0.74
  -3   7  -4    4.29    0.45
  -3  -4  -4   11.47    1.73
   4  -7  -4    5.24    0.69
  -4   7  -4    6.07    0.53
   3  -7  -4   10.74    1.95
  -3   7  -5   -0.08    0.30
   3  -7  -5   -0.21    0.59
   4  -7  -5    0.54    0.59
   3  -7  -5   15.96    2.25
  -7   4   5    4.31    1.19
  -4   7  -5    0.72    0.38
   3  -7  -5   10.62    1.24
   4  -7   5   11.86    1.53
   7  -3   5   -1.33    1.24
  -4   7   5   -1.06    0.97
  -7   4   5   -0.32    0.56
  -7   3   5   -0.22    0.50
   3  -7  -6   -0.33    0.69
   4  -7  -6    1.18    0.64
  -4   7  -6    0.97    0.38
  -3  -4  -6    0.42    2.15
  -3   7  -6   -0.33    0.31
   3  -7  -7   -0.18    0.72
   4  -7  -7    0.95    0.71
   7  -2   0    7.02    1.16
  -5  -2   0    8.20    1.25
  -5   7   0    9.36    0.63
   2  -7   0   10.21    0.64
   5  -7   0    8.84    0.71
   2  -7  -1    0.86    0.47
   7  -2  -1   -0.16    0.79
  -2  -5  -1   -0.22    0.89
   5  -7  -1    0.86    0.86
   7  -2   1    2.61    1.14
   2  -7  -1    0.02    0.80
  -7   2  -1   -0.79    0.88
  -5   7  -1    1.12    0.42
  -2  -5   1    0.65    0.36
   5   2   2    6.22    1.23
   7  -2   2   11.76    1.48
  -5  -2   2    5.28    0.97
  -2  -5  -2    3.76    1.29
  -2   7  -2    8.47    0.57
   2  -7  -2    8.48    1.22
  -5   7   2    8.59    0.66
  -7   2  -2   10.29    1.11
  -2  -5   2    8.23    0.49
  -2  -5  -2    6.14    1.50
  -5  -2  -2    5.25    1.45
   2  -7  -2    7.62    0.70
  -7   5   2    7.96    0.57
  -5   7  -2    9.25    0.63
  -7   5   2    5.36    0.82
   2  -7  -3   -0.38    0.60
  -7   5   3   -0.44    0.50
  -5  -2  -3   -0.06    1.28
   7  -2   3    7.12    1.50
  -5   7  -3    1.26    0.45
   2  -7  -3   -0.94    1.17
  -2  -5  -3    1.09    1.30
  -7   5   3    0.06    0.95
   2  -7  -3    5.85    1.23
  -7   2   3    1.70    0.47
  -2   7  -3    0.07    0.34
  -5   7   3   -0.02    0.44
   5  -7   3    9.44    1.15
  -2  -5  -3   -0.49    1.36
   5  -7   4    8.74    1.30
  -5  -2   4    1.09    0.69
  -7   2  -4    5.15    1.55
   2  -7  -4   -2.36    1.86
   7  -2   4   11.99    1.77
  -2  -5  -4   11.71    1.59
  -7   5   4    1.44    1.12
   5  -7  -4    0.37    0.91
  -5   7   4    1.55    0.84
  -2   7  -4    3.12    0.40
  -7   5   4    4.29    0.63
  -7   2   4    4.10    0.63
   7  -5   4    1.01    1.16
  -2  -5  -4    9.88    1.54
  -5  -2  -4   10.10    1.52
   5  -7  -4    5.14    0.69
   2  -7  -4    1.59    1.41
  -7   2  -5   12.49    1.93
   2  -7  -5    9.92    1.44
   5  -7  -5    1.64    0.62
   5   2   5   -1.26    1.46
   2  -7  -5    5.78    2.05
  -7   5   5   -0.34    0.55
  -7   2   5   -0.15    0.46
   5  -7   5    1.84    1.38
   2  -7  -6    0.10    0.75
  -2  -5  -6    1.03    2.18
   5   2   6    0.06    1.55
  -5  -2  -6    3.53    2.21
   7  -5   6   -0.55    1.35
   5  -7  -6    2.89    0.71
   5  -7  -7    2.70    0.79
   7  -1   0    1.58    0.97
  -1  -6   0    2.55    0.52
   1  -7   0    2.52    0.48
  -6   7   1   -0.27    0.43
  -7   6   1    0.27    0.36
   1  -7   1    0.83    0.39
  -6   7  -1    0.73    0.40
  -1  -6  -1   -0.40    0.53
   6   1   2    8.59    1.37
  -1  -6  -2    7.49    1.23
   7  -1   2    7.84    1.54
  -6  -1   2    8.59    1.27
   1  -7  -2    5.44    1.13
  -7   6   2    5.30    0.52
   1  -7  -2    7.60    1.29
  -1  -6  -2   11.68    1.00
  -7   1  -2    9.41    1.25
   1  -7  -2   10.11    0.84
  -6   7   2    9.75    0.70
  -1  -6  -2    5.34    1.46
  -6  -1  -2    6.09    1.46
  -7   6   2    9.01    0.66
  -1  -6   2   10.03    0.56
   6  -7   2    2.19    0.86
  -1  -6  -3   -0.46    1.31
  -6  -1  -3    1.17    1.34
  -7   6   3    1.65    0.66
   6   1   3   -0.50    1.22
   7  -1   3    0.24    1.42
   1  -7  -3    1.60    1.21
  -7   1  -3    3.19    1.16
  -6   7   3    0.09    0.50
   1  -7  -3    0.14    0.56
  -6  -1   4    1.03    0.37
  -7   1   4    1.20    0.53
   6  -7  -4    2.16    0.68
   1  -7  -4    1.06    1.46
   7  -1   4    2.25    1.63
  -1  -6  -4    5.56    1.56
  -7   6   4    4.93    0.88
  -1  -6  -4    6.86    1.48
  -6  -1  -4   10.01    1.52
   7  -6   4    1.11    1.06
  -7   6   4    1.31    0.55
   1  -7  -4    1.01    0.65
   7  -6   5   -0.29    1.17
   1  -7  -5   -1.07    1.99
  -7   1   5   -0.18    0.41
  -7   1  -5    2.86    1.86
   1  -7  -6   11.56    2.42
   7  -6   6    1.80    1.34
  -6  -1  -6    3.92    2.21
  -7   1  -6   15.09    2.37
  -1  -6  -6    3.03    2.25
   7  -1   6    1.17    1.97
  -7   6   6    5.85    1.33
  -1  -6  -6    0.70    0.86
   1  -7  -6    1.19    0.78
   0  -7   0    9.08    0.71
   0  -7   1    0.39    0.40
  -7   7   1    0.29    0.42
   0  -7  -1    0.35    0.47
   0  -7  -2    1.65    1.08
   7   0   2   -0.55    1.38
   0  -7  -2    3.80    0.74
  -7   7   2    2.69    0.55
   0  -7  -2   -0.06    1.34
  -7   0  -2    1.67    1.23
   0  -7  -3    0.35    1.29
  -7   0  -3    2.87    1.31
  -7   7   3   -0.46    0.56
   7  -7   3    0.54    0.84
   0  -7  -3    0.31    0.73
  -7   7   3    0.42    0.45
  -7   0   4    1.44    0.52
   0  -7  -4    1.81    1.55
  -7   7   4   -0.42    0.79
   0  -7  -4    1.19    0.85
   7  -7   5    4.59    1.18
  -7   7   5   -1.00    0.98
  -7   0  -6    6.09    2.30
   0  -7  -6    6.49    2.41
  -7   7   6    0.38    1.14
   0  -7  -6    0.47    0.87
   4  -8   0    1.40    0.74
  -8   4   0    1.38    0.62
   8  -4  -1    1.81    0.92
  -8   4  -1    2.02    0.68
  -4   8   1   -0.13    0.42
   4  -8  -1   -0.09    0.94
  -4   8  -1    0.11    0.38
  -4  -4  -2    6.31    1.47
  -4  -4   2    1.23    0.86
   8  -4  -2    3.13    0.70
  -8   4  -2    4.01    1.05
  -4   8  -2    4.24    0.55
   4  -8  -2    5.65    0.68
   4  -8  -2    5.29    1.33
  -8   4  -3    8.71    1.24
  -8   4   3    0.46    0.45
   4  -8  -3    0.59    0.52
  -4  -4  -3    8.42    1.51
   4  -8  -3   -1.53    1.76
  -4  -4   3   -0.08    0.24
  -8   4   4    0.93    0.61
  -4   8  -4    1.06    0.41
  -4   8  -5   -0.14    0.35
  -8   4   5    6.89    1.15
   4  -8  -5    0.40    0.59
   4  -8  -5    7.72    1.29
  -8   4   5   -0.01    0.63
   4  -8  -6    0.84    0.69
  -3  -5   0   -1.00    0.95
   8  -3   0    1.36    1.08
  -8   3   0   -0.92    0.76
  -5  -3   0   -0.65    1.16
  -5   8   0    0.02    0.44
  -5  -3  -1    6.11    1.36
   8  -3   1    9.66    1.35
  -5  -3   1    0.51    1.11
  -3   8  -1    4.35    0.56
  -5   8   1    5.10    0.60
  -5   8  -1    3.56    0.56
   3  -8  -1    0.77    1.00
   3  -8  -1    5.38    0.64
  -8   3  -1    3.54    0.86
   5  -8  -1   -0.37    1.16
  -8   5   2   12.60    0.94
   8  -5  -2    7.21    0.83
   8  -3   2   15.94    1.58
  -5  -3   2    6.24    0.99
  -3  -5  -2    6.35    1.47
  -3  -5  -2    8.15    1.73
  -3  -5   2    8.38    0.53
  -3   8  -2    8.39    0.63
   3  -8  -2   10.24    1.33
  -5  -3  -2    5.45    1.73
  -5   8  -2    7.52    0.65
   3  -8  -2    9.20    0.81
  -8   3  -2   11.77    1.09
  -8   5   2    8.02    0.59
   5  -8  -2    9.90    1.43
  -8   5   3    1.03    0.51
   3  -8  -3    0.60    0.57
  -5   8  -3    1.16    0.47
  -8   3   3    1.78    0.49
  -5  -3   3   -0.81    0.87
  -8   3  -3   -0.60    1.29
  -3  -5  -3    4.40    1.47
  -3  -5   3    1.13    0.28
  -3  -5  -3   -0.23    1.60
  -3   8  -3    0.66    0.41
  -5  -3  -3   -0.93    1.60
  -8   5   3    4.77    1.01
  -8   5   4   -0.16    0.62
  -8   3  -4    7.42    1.61
  -8   3   4    0.76    0.59
  -5   8  -4    1.05    0.44
   8  -3   4   11.69    1.77
  -8   5   4    2.42    1.12
  -3  -5  -4    5.60    1.65
  -5  -3  -4    7.27    1.80
   3  -8  -4   -0.49    1.99
   5  -8  -4    2.40    0.63
  -3   8  -4    0.82    0.38
   3  -8  -5   12.70    2.37
   5  -8   5    8.49    1.48
   3  -8  -5   -0.13    0.65
  -5   8  -5    0.55    0.40
   8  -3   5   11.85    1.91
   5  -8  -5    1.51    0.63
  -8   5   5   -1.08    1.24
  -3   8  -5   -0.12    0.34
  -8   5   5   -0.22    0.62
   3  -8  -5    6.78    1.51
  -8   3   5    0.17    0.56
   3  -8  -6    0.56    0.74
   5  -8  -6    2.43    0.73
  -3  -5  -6   -1.11    2.34
  -5  -3  -6   -0.06    2.26
  -6   8   0    1.22    0.46
   2  -8   0    2.44    0.52
  -2  -6   0    1.19    0.52
   2  -8  -1    0.99    0.54
  -6   8  -1    1.01    0.47
  -2  -6  -1   -0.57    1.02
   8  -2   1   -0.52    1.24
  -6  -2  -1   -1.67    1.65
  -6  -2   1    0.29    1.11
   2  -8  -1   -0.67    0.89
  -8   6   1    1.84    0.43
  -2  -6   1    0.67    0.41
   8  -2   2    7.65    1.52
  -2  -6  -2    0.54    1.38
  -6  -2   2    4.30    1.19
  -8   6   2    2.85    0.47
  -8   2  -2    7.73    1.25
  -6   8   2    6.12    0.65
  -2  -6  -2    3.63    1.60
  -2  -6   2    5.63    0.49
  -6  -2  -2    0.80    1.59
   2  -8  -2    5.89    0.77
  -8   6   2    5.35    0.55
  -6   8  -2    6.13    0.61
   2  -8  -2    5.24    1.27
   6  -8   2    9.15    0.94
  -6  -2  -3   -1.05    1.55
   2  -8  -3   -0.71    0.68
  -8   6   3   -0.40    0.52
  -6   8  -3    0.58    0.49
  -2  -6  -3   -0.03    1.42
   8  -2   3    3.06    1.57
   6  -8   3    3.53    1.07
  -8   6   3    3.55    0.72
   2  -8  -3    4.57    1.33
  -2  -6  -3   -0.73    1.58
  -8   2   4    0.36    0.57
  -6   8  -4    1.82    0.53
   8  -2   4    3.04    1.75
  -8   2  -4   -0.95    1.61
  -2  -6  -4    5.72    1.81
  -6  -2  -4    6.88    1.61
   6  -8   4    1.10    1.25
  -8   6   4   -0.17    0.98
  -8   6   4    0.34    0.53
  -6  -2   4   -0.11    0.29
   2  -8  -5    7.36    1.71
  -6   8  -5    1.41    0.53
   2  -8  -5    3.05    2.21
   8  -2   5    3.60    1.94
  -8   2  -5    6.23    1.93
  -8   6   5    2.74    1.05
  -8   6   6    5.28    1.12
  -6  -2  -6    1.42    2.44
  -1  -7   0    7.00    0.68
   1  -8   0    7.17    0.71
  -7   8   0    6.04    0.62
  -8   7   0    6.47    0.57
   1  -8  -1   -0.33    0.55
  -8   7   1    0.49    0.39
  -7   8  -1    0.70    0.43
   1  -8   1    0.74    0.46
   8  -1   1   -0.39    1.12
   1  -8  -1   -1.18    1.00
  -8   1  -1   -0.33    1.02
  -1  -7  -1   -0.26    0.62
  -8   7   2    0.45    0.44
  -1  -7   2    1.16    0.41
  -7   8  -2    1.52    0.50
  -1  -7  -2    0.65    1.08
   1  -8  -2   -1.14    1.18
  -1  -7  -2    0.66    0.71
  -8   1  -2   -0.17    1.16
  -7   8   2    0.01    0.47
  -1  -7  -3    0.46    1.46
  -7  -1  -3    2.09    1.49
   1  -8  -3    2.79    1.36
  -7  -1   3    3.55    1.32
   7  -8   3    4.83    0.93
  -8   1  -3    4.07    1.28
  -1  -7  -3   -0.33    0.82
  -8   1   4    2.49    0.64
   7   1   4   -0.99    1.56
  -7   8   4   -0.46    0.76
   1  -8  -4    0.74    1.70
  -7  -1   4    4.36    1.34
   7  -8   4    8.16    1.03
  -7  -1  -4    9.61    1.62
  -1  -7  -4    6.88    1.79
  -8   7   4    1.02    0.77
  -1  -7  -4    1.07    0.95
   1  -8  -4   -1.07    1.80
   1  -8  -4    1.33    0.83
  -8   7   5    0.36    0.97
  -8   1  -5   -0.02    2.00
  -7   8   5   -0.81    0.86
  -1  -7  -5   -0.67    0.99
  -7  -1  -6    4.12    2.45
   1  -8  -6    8.15    2.48
  -8   1  -6   10.43    2.35
   0  -8   0    4.74    0.70
   0  -8   1   -0.01    0.47
  -8   8  -1    0.94    0.45
   0  -8  -2    0.21    0.61
   0  -8  -3    1.05    1.46
   8   0   3    0.49    1.41
  -8   0  -3    3.64    1.44
   0  -8  -3    0.07    0.72
  -8   8   4   -0.54    0.70
   0  -8  -4    1.57    0.93
  -8   0  -4    0.53    1.75
  -8   0  -5   -1.87    2.15
   0  -8  -5    0.44    0.94
  -9   5   0    2.13    0.48
  -5  -4   0   -1.29    1.24
   9  -4   0    1.91    1.13
   4  -9   0   -0.35    0.77
  -9   4   0   -0.50    0.71
  -4   9   0    0.71    0.47
  -5   9   0    0.82    0.45
   9  -4   1    6.08    1.27
  -9   5   1   -0.34    0.50
  -5  -4  -1    0.79    1.27
   9  -5  -1    4.14    0.99
  -9   5  -1    2.30    0.71
  -9   4  -1    3.14    0.82
   5  -9  -1    6.59    1.07
  -5   9   1   -0.07    0.44
  -4   9  -1    0.15    0.45
  -5   9  -1    0.14    0.43
  -5   9  -2    1.97    0.54
  -9   4  -2   -1.15    1.10
   9  -4   2   12.25    1.51
  -4  -5   2   -0.30    0.91
  -5  -4   2    0.54    0.95
  -4  -5  -2    1.09    1.69
   4  -9  -2   10.03    1.32
   4  -9  -2    3.76    0.67
  -9   5   2    3.46    0.48
  -4   9  -2    2.12    0.53
   5  -9  -3    9.61    1.86
  -5   9  -3   -0.36    0.47
  -9   5   3    0.18    0.48
  -9   5   3    9.10    1.03
  -9   4   3    0.92    0.47
   4  -9  -3    1.09    0.60
   9  -4   3   12.19    1.57
   5  -9  -3    2.25    0.65
  -4  -5  -3   -1.60    1.85
  -4   9  -3    0.01    0.39
  -9   4  -3    5.76    1.29
  -9   5   4   -0.60    0.65
  -9   5   4    6.48    1.11
  -5   9  -4    0.11    0.44
  -9   4   4   -0.30    0.62
   4  -9  -4    6.46    2.14
  -4  -5  -4    4.14    1.84
  -4   9  -4    0.45    0.37
  -5   9  -5   -0.29    0.42
   4  -9  -5    0.42    0.66
  -9   4   5   10.26    1.18
   9  -4   5   13.31    2.03
   5  -9  -5    1.10    0.65
  -9   5   5    1.94    1.18
  -4  -5  -5   -0.31    2.18
  -3  -6   0   -0.81    1.03
  -9   3   0   -0.92    0.85
   6  -9   0    0.57    0.77
  -6   9   0    0.69    0.47
  -6   9  -1    0.05    0.49
  -6  -3  -1    7.01    1.45
   3  -9  -1    1.06    0.55
  -6  -3   1   -0.57    1.23
   9  -3   1   -0.47    1.30
  -9   3  -1    0.14    0.87
  -3  -6   1    0.35    0.43
   6  -9  -1    5.66    0.99
  -6   9   1    0.19    0.45
  -6   9  -2    1.94    0.54
   9  -6  -2    4.82    0.86
   3  -9  -2    3.21    1.32
   3  -9  -2    2.28    0.64
  -9   6   2    1.53    0.51
   9  -3   2    4.32    1.49
  -9   3  -2    5.47    1.01
  -9   6   2    2.35    0.47
  -3  -6   2    1.52    0.42
  -6   9  -3    0.47    0.49
   3  -9  -3    0.63    0.66
  -3  -6   3    1.29    0.34
  -9   3   3    1.61    0.49
  -3  -6  -3   -0.80    1.79
   3  -9  -3    0.93    1.53
   6  -9   4    6.16    1.30
  -9   3   4    0.24    0.59
   3  -9  -4    0.10    0.67
  -9   3  -4    4.55    1.59
  -6   9  -4    0.55    0.49
   9  -3   4    6.46    1.78
  -3  -6  -4    3.05    1.80
  -6  -3  -4    6.53    1.82
  -6   9  -5    0.23    0.48
  -6  -3   5   -0.18    0.87
   3  -9  -6   28.47    3.01
   2  -9   0    1.31    0.57
  -2  -7   0    0.34    0.56
  -7   9  -1    0.44    0.48
   2  -9  -1    0.56    0.57
  -2  -7  -1   -0.28    0.64
  -2  -7   1   -0.03    0.44
  -2  -7   2    0.95    0.42
   2  -9  -2    1.73    0.69
  -7   9  -2    1.49    0.55
  -9   2  -2    3.45    1.29
  -7  -2   2    2.95    1.33
   7  -9   2    4.70    0.56
  -2  -7  -2    1.66    0.81
   2  -9  -2    0.89    1.22
  -7  -2  -3   -0.69    1.69
   2  -9  -3   -0.34    0.70
  -7   9  -3    0.54    0.49
  -7  -2   3   -0.73    1.19
  -2  -7  -3    0.02    0.87
  -2  -7  -3   -0.37    1.66
  -9   2  -3   -1.21    1.40
   2  -9  -4    0.33    0.77
  -7  -2   4   -0.62    1.17
  -2  -7  -4    6.66    1.84
  -7  -2  -4    7.41    1.96
  -2  -7  -4   -0.24    1.01
  -9   7   4    0.48    0.77
  -9   2  -5    5.81    2.04
   2  -9  -5    0.88    2.36
  -9   2  -6   18.77    2.42
  -1  -8   0    0.57    0.61
   1  -9   0    2.73    0.65
  -1  -8   1   -0.20    0.48
   1  -9  -1   -0.54    0.59
   1  -9   1    0.94    0.53
   1  -9  -1   -0.75    0.97
  -1  -8  -1   -0.05    0.59
   1  -9  -2   -0.79    0.71
  -1  -8   2    1.42    0.47
   9  -1   2   -1.59    1.33
  -1  -8  -2   -0.06    0.71
  -9   1  -2   -0.08    1.28
  -1  -8  -3   -0.08    1.54
  -8  -1  -3    1.56    1.65
   1  -9  -3    2.95    1.42
  -1  -8  -3   -0.17    0.90
   1  -9  -4    0.13    0.95
  -8  -1   4   13.71    1.54
  -1  -8  -4    8.14    1.97
  -8  -1  -4    9.71    1.76
   1  -9  -4    7.67    1.71
  -1  -8  -4    0.54    1.09
  -9   1  -5    0.44    2.16
   0  -9   0    0.68    0.60
   0  -9   1    0.34    0.49
   0  -9  -3    1.09    1.47
   0  -9  -3   -0.50    0.90
  -9   0  -4    0.52    1.87
   0  -9  -4    1.15    1.00
  10  -5   0    4.56    1.30
 -10   5   0    3.98    0.68
   5 -10  -1    3.83    1.15
  -5  10  -1   -0.15    0.47
 -10   5  -2    7.23    1.05
  10  -5   2   11.40    1.49
   5 -10  -3    2.19    0.69
  -5  10  -3    0.03    0.41
   5 -10  -4   19.65    2.43
  10  -5   4   17.23    1.92
   4 -10   0   -0.87    0.78
 -10   4   0   -0.55    0.78
  10  -6  -1    4.91    1.08
  10  -4  -1   -1.08    0.92
  10  -4   1    1.51    1.36
 -10   4  -1    2.36    0.90
   4 -10  -1   -1.42    1.10
   4 -10  -2    2.05    0.68
  10  -4   2    4.46    1.56
   4 -10  -2    7.40    1.35
  -4  -6   2    0.29    0.39
   6 -10  -2    9.76    1.46
  -6  10  -3   -0.49    0.53
   4 -10  -3    1.49    0.69
 -10   4  -3    2.58    1.31
  -4  -6  -3   -0.64    2.03
  -6  -4  -3   -0.72    1.99
  -6  10  -4   -0.26    0.51
   4 -10  -4    0.77    0.69
   4 -10  -4    4.28    2.29
  -6  -4   4   -0.64    0.96
  -4  -6  -4    4.10    2.13
  10  -4   4    8.09    1.94
  -6  -4  -4    6.15    2.13
   4 -10  -5   21.95    2.81
  10  -3   0   -1.26    1.10
 -10   3   0   -0.96    0.90
  -3  -7   0   -0.17    0.55
   3 -10  -1    1.50    0.62
  -3  -7  -1   -0.21    0.69
 -10   3  -1   -0.19    0.97
  -3  -7   1    0.12    0.44
  -3  -7   2    0.07    0.44
   3 -10  -2    3.27    1.39
  10  -7  -2    4.79    0.92
   3 -10  -2    1.26    0.64
  10  -3   2   -1.51    1.56
  -7  -3   2    1.32    1.27
 -10   3  -2    5.20    1.09
   3 -10  -3    0.27    0.71
 -10   3   3    1.45    0.50
  -7  -3   3   -0.87    1.26
  10  -3   3   -1.48    1.65
  -3  -7  -3   -1.73    1.96
  -7  -3  -3   -0.96    1.94
   3 -10  -4   -0.04    0.79
  10  -3   4   -0.18    1.86
  -3  -7  -4    5.33    2.07
  -7  -3  -4    6.03    2.05
 -10   3  -4    3.30    1.71
   3 -10  -5    5.54    2.49
 -10   3  -5   14.95    2.09
   2 -10   0    1.12    0.59
  -2  -8   0    0.32    0.53
   2 -10  -1    1.31    0.63
  -2  -8  -1   -0.33    0.64
   2 -10  -2    0.96    0.71
  -2  -8   2    0.60    0.45
 -10   2  -2    2.11    1.23
  -2  -8  -2    0.41    0.79
   2 -10  -2    0.04    1.19
  -8  -2  -3   -0.53    1.81
   2 -10  -3   -0.22    0.76
   2 -10  -3    5.06    1.60
  -2  -8  -3   -0.30    0.94
 -10   2  -3   -0.45    1.48
  -2  -8  -3   -0.15    1.73
  -8  -2  -4    7.35    2.16
   2 -10  -5   -2.63    2.33
 -10   2  -5    3.74    2.02
  -1  -9   0   -0.43    0.60
   1 -10   0    1.41    0.59
   1 -10  -1    0.05    0.66
  -1  -9   1   -0.09    0.52
  -9  -1  -1   -1.88    1.48
   1 -10  -1   -1.11    0.97
 -10   1  -2    0.97    1.40
   1 -10  -2   -0.11    0.75
  -1  -9   2    1.74    0.54
  -1  -9  -2    0.53    0.73
   1 -10  -3   -0.78    0.89
  -1  -9  -3    0.78    1.56
  -9  -1  -3    2.15    1.89
   1 -10  -3    1.78    1.42
  -1  -9  -3    0.07    0.85
  -9  -1  -4   11.38    1.91
   1 -10  -4    8.51    1.72
   0 -10   0    0.38    0.61
   0 -10  -1   -0.77    0.70
   0 -10   1    1.34    0.59
   0 -10  -1   -1.22    1.00
 -10   0  -2   -0.55    1.59
   0 -10  -3    0.53    1.54
 -10   0  -3    7.09    1.74
  11  -6   0    5.94    1.42
 -11   5   0    3.63    0.76
   5 -11  -1    3.80    1.19
  11  -5   1    1.59    1.39
  11  -5   2    5.10    1.67
 -11   5  -2    5.52    1.10
  11  -6   3   15.63    1.85
  11  -5   3    7.04    1.86
 -11   4   0   -0.39    0.85
  -4  -7   0    0.26    0.58
 -11   4   1   -0.92    0.86
  -4  -7  -1   -1.89    1.65
  11  -7  -1    5.30    1.23
 -11   4  -1    3.83    1.02
   4 -11  -1   -1.13    1.12
  -4  -7   1    0.13    0.51
   4 -11  -2    2.07    0.73
  11  -4   2   -0.90    1.59
 -11   4  -3    2.57    1.43
  11  -4   3    0.02    1.72
  -7  -4  -3    0.83    2.19
 -11   4  -4   13.46    1.73
  -3  -8   0    0.12    0.55
 -11   3  -1    0.13    1.06
   3 -11  -1    2.19    0.72
  11  -3   1   -0.29    1.27
  -3  -8  -1   -0.03    0.67
   3 -11  -2    1.36    0.74
  -3  -8  -2    0.03    0.82
   3 -11  -3   10.21    1.60
  -3  -8  -3   -0.97    0.98
 -11   3  -4    3.70    1.76
   2 -11   0    2.65    0.70
  -2  -9   1   -0.18    0.54
   2 -11  -1    1.51    0.69
  -2  -9  -1   -1.15    1.25
  -9  -2  -1   -1.98    1.64
 -11   2  -1   -0.62    1.25
  -2  -9  -1    0.42    0.64
   2 -11  -2    0.48    1.19
   2 -11  -2    1.22    0.78
 -11   2  -2    3.48    1.32
  -9  -2  -2   -1.49    1.83
  -2  -9  -2    0.63    0.79
   2 -11  -3    6.59    1.61
 -11   2  -4   -2.47    1.94
  -1 -10   0   -0.21    0.62
   1 -11   0    1.22    0.65
 -11   1   0   -1.39    1.27
  -1 -10  -1   -0.77    0.73
   1 -11  -1    0.84    0.69
 -11   1  -2    2.14    1.52
   1 -11  -2   -1.32    1.21
 -11   1  -3    8.24    1.58
   0 -11   0    0.86    0.62
   0 -11  -1    0.31    0.73
 -11   0  -2   -0.50    1.60
  12  -6   0   -1.87    1.44
  12  -6   1    1.23    1.52
  12  -6   2    6.78    1.85
  12  -7   0    6.20    1.54
  -5  -7   0   -0.12    0.59
  12  -7   1    9.62    1.69
  12  -7   2   14.69    1.93
  12  -5   2   -0.74    1.72
  -4  -8   0   -0.41    0.62
  -4  -8  -1   -0.51    0.69
   3 -12   0   -0.57    0.82
 -12   3   0   -1.19    1.11
  -3  -9  -1    0.49    0.66
 -12   2  -1   -0.53    1.29
   2 -12  -2    2.20    1.20
 -12   1  -1   -1.13    1.44
   0   0   0    0.00    0.00
;
_shelx_hkl_checksum              84882
loop_
_space_group_symop_operation_xyz
'x, y, z'
'-y, x-y, z'
'-x+y, -x, z'
'-x, -y, z+1/2'
'y, -x+y, z+1/2'
'x-y, x, z+1/2'
'-x, -y, -z'
'y, -x+y, -z'
'x-y, x, -z'
'x, y, -z-1/2'
'-y, x-y, -z-1/2'
'-x+y, -x, -z-1/2'
loop_
_atom_site_label
_atom_site_type_symbol
_atom_site_fract_x
_atom_site_fract_y
_atom_site_fract_z
_atom_site_U_iso_or_equiv
_atom_site_adp_type
_atom_site_occupancy
_atom_site_site_symmetry_order
_atom_site_calc_flag
_atom_site_refinement_flags_posn
_atom_site_refinement_flags_adp
_atom_site_refinement_flags_occupancy
_atom_site_disorder_assembly
_atom_site_disorder_group
Cr1 Cr 0.0000 0.0000 0.0000 0.093(2) Uani 1 6 d S T P . .
Cl1 Cl -0.1191(9) 0.1185(9) 0.2500 0.148(3) Uani 1 2 d S T P . .
N1 N -0.366(7) 0.308(8) -0.290(5) 0.079(19) Uiso 0.1667 1 d D . P A -1
Cl2 Cl -0.283(16) 0.456(10) 0.070(7) 0.49(7) Uiso 0.1667 1 d D . P A -1
C1 C -0.424(12) 0.287(12) -0.075(8) 0.20(2) Uiso 0.1667 1 d D . P A -1
H1A H -0.4347 0.1866 -0.0208 0.237 Uiso 0.1667 1 calc R U P A -1
H1B H -0.5306 0.2792 -0.0704 0.237 Uiso 0.1667 1 calc R U P A -1
C2 C -0.422(11) 0.142(9) -0.381(12) 0.20(2) Uiso 0.1667 1 d D . P A -1
H2A H -0.3764 0.0870 -0.3062 0.296 Uiso 0.1667 1 calc R U P A -1
H2B H -0.5393 0.0788 -0.3771 0.296 Uiso 0.1667 1 calc R U P A -1
H2C H -0.3850 0.1555 -0.5179 0.296 Uiso 0.1667 1 calc R U P A -1
C3 C -0.181(7) 0.408(8) -0.294(14) 0.20(2) Uiso 0.1667 1 d D . P A -1
H3A H -0.1458 0.5137 -0.2361 0.296 Uiso 0.1667 1 calc R U P A -1
H3B H -0.1365 0.3523 -0.2191 0.296 Uiso 0.1667 1 calc R U P A -1
H3C H -0.1440 0.4211 -0.4311 0.296 Uiso 0.1667 1 calc R U P A -1
C4 C -0.436(12) 0.395(11) -0.406(18) 0.20(2) Uiso 0.1667 1 d D . P A -1
H4A H -0.4001 0.5013 -0.3475 0.296 Uiso 0.1667 1 calc R U P A -1
H4B H -0.3995 0.4088 -0.5432 0.296 Uiso 0.1667 1 calc R U P A -1
H4C H -0.5538 0.3320 -0.4024 0.296 Uiso 0.1667 1 calc R U P A -1
loop_
_atom_site_aniso_label
_atom_site_aniso_U_11
_atom_site_aniso_U_22
_atom_site_aniso_U_33
_atom_site_aniso_U_23
_atom_site_aniso_U_13
_atom_site_aniso_U_12
Cr1 0.108(3) 0.108(3) 0.063(3) 0.000 0.000 0.0542(14)
Cl1 0.151(6) 0.152(6) 0.148(6) 0.000 0.000 0.080(5)
loop_
_atom_type_symbol
_atom_type_description
_atom_type_scat_dispersion_real
_atom_type_scat_dispersion_imag
_atom_type_scat_source
C C 0.0033 0.0016 'International Tables Vol C Tables 4.2.6.8 and 6.1.1.4'
H H 0.0000 0.0000 'International Tables Vol C Tables 4.2.6.8 and 6.1.1.4'
N N 0.0061 0.0033 'International Tables Vol C Tables 4.2.6.8 and 6.1.1.4'
Cl Cl 0.1484 0.1585 'International Tables Vol C Tables 4.2.6.8 and 6.1.1.4'
Cr Cr 0.3209 0.6236 'International Tables Vol C Tables 4.2.6.8 and 6.1.1.4'
loop_
_geom_angle_atom_site_label_1
_geom_angle_atom_site_label_2
_geom_angle_atom_site_label_3
_geom_angle
_geom_angle_site_symmetry_1
_geom_angle_site_symmetry_3
_geom_angle_publ_flag
Cl1 Cr1 Cl1 180.0(4) 9 3 ?
Cl1 Cr1 Cl1 82.12(16) 9 7 ?
Cl1 Cr1 Cl1 97.88(16) 3 7 ?
Cl1 Cr1 Cl1 97.88(16) 9 2 ?
Cl1 Cr1 Cl1 82.12(16) 3 2 ?
Cl1 Cr1 Cl1 97.88(16) 7 2 ?
Cl1 Cr1 Cl1 82.12(16) 9 8 ?
Cl1 Cr1 Cl1 97.88(16) 3 8 ?
Cl1 Cr1 Cl1 82.12(16) 7 8 ?
Cl1 Cr1 Cl1 180.0(4) 2 8 ?
Cl1 Cr1 Cl1 97.88(16) 9 . ?
Cl1 Cr1 Cl1 82.12(16) 3 . ?
Cl1 Cr1 Cl1 180.0 7 . ?
Cl1 Cr1 Cl1 82.12(16) 2 . ?
Cl1 Cr1 Cl1 97.88(16) 8 . ?
Cr1 Cl1 Cr1 81.3(2) 4 . ?
C2 N1 C4 109.7(8) . . ?
C2 N1 C3 109.6(8) . . ?
C4 N1 C3 109.6(8) . . ?
C2 N1 C1 109.3(8) . . ?
C4 N1 C1 109.3(8) . . ?
C3 N1 C1 109.4(8) . . ?
N1 C1 Cl2 109.9(10) . . ?
loop_
_geom_bond_atom_site_label_1
_geom_bond_atom_site_label_2
_geom_bond_distance
_geom_bond_site_symmetry_2
_geom_bond_publ_flag
Cr1 Cl1 2.552(5) 9 ?
Cr1 Cl1 2.552(5) 3 ?
Cr1 Cl1 2.552(5) 7 ?
Cr1 Cl1 2.552(5) 2 ?
Cr1 Cl1 2.552(5) 8 ?
Cr1 Cl1 2.552(5) . ?
Cl1 Cr1 2.552(5) 4 ?
N1 C2 1.502(9) . ?
N1 C4 1.502(9) . ?
N1 C3 1.503(9) . ?
N1 C1 1.505(9) . ?
Cl2 C1 1.760(10) . ?
