#------------------------------------------------------------------------------
#$Date: 2022-02-04 21:15:49 +0200 (Fri, 04 Feb 2022) $
#$Revision: 272593 $
#$URL: file:///home/coder/svn-repositories/cod/cif/1/56/58/1565833.cif $
#------------------------------------------------------------------------------
#
# This file is available in the Crystallography Open Database (COD),
# http://www.crystallography.net/
#
# All data on this site have been placed in the public domain by the
# contributors.
#
data_1565833
loop_
_publ_author_name
'Ai, Yong'
'Li, Peng-Fei'
'Yang, Meng-Juan'
'Xu, Yu-Qiu'
'Li, Meng-Zhen'
'Xiong, Ren-Gen'
_publ_section_title
;
 An organic plastic ferroelectric with high Curie point
;
_journal_issue                   3
_journal_name_full               'Chemical Science'
_journal_page_first              748
_journal_page_last               753
_journal_paper_doi               10.1039/D1SC06781H
_journal_volume                  13
_journal_year                    2022
_chemical_formula_moiety         'C10 H14 O4'
_chemical_formula_sum            'C10 H14 O4'
_chemical_formula_weight         198.21
_space_group_crystal_system      monoclinic
_space_group_IT_number           4
_space_group_name_Hall           'P 2yb'
_space_group_name_H-M_alt        'P 1 21 1'
_atom_sites_solution_hydrogens   geom
_audit_creation_method           SHELXL-2018/1
_audit_update_record
;
2021-09-08 deposited with the CCDC.	2021-12-17 downloaded from the CCDC.
;
_cell_angle_alpha                90
_cell_angle_beta                 103.5036(14)
_cell_angle_gamma                90
_cell_formula_units_Z            2
_cell_length_a                   6.29835(9)
_cell_length_b                   10.64131(14)
_cell_length_c                   7.53892(11)
_cell_measurement_reflns_used    2412
_cell_measurement_temperature    100(2)
_cell_measurement_theta_max      75.6200
_cell_measurement_theta_min      7.2300
_cell_volume                     491.310(12)
_computing_structure_refinement  'SHELXL-2018/1 (Sheldrick, 2018)'
_diffrn_ambient_temperature      100(2)
_diffrn_measured_fraction_theta_full 0.986
_diffrn_measured_fraction_theta_max 0.933
_diffrn_measurement_device_type  'XtaLAB Synergy R, DW system, HyPix'
_diffrn_radiation_type           CuK\a
_diffrn_radiation_wavelength     1.54184
_diffrn_reflns_av_R_equivalents  0.0102
_diffrn_reflns_av_unetI/netI     0.0116
_diffrn_reflns_Laue_measured_fraction_full 0.986
_diffrn_reflns_Laue_measured_fraction_max 0.933
_diffrn_reflns_limit_h_max       7
_diffrn_reflns_limit_h_min       -7
_diffrn_reflns_limit_k_max       7
_diffrn_reflns_limit_k_min       -13
_diffrn_reflns_limit_l_max       9
_diffrn_reflns_limit_l_min       -9
_diffrn_reflns_number            2534
_diffrn_reflns_point_group_measured_fraction_full 0.721
_diffrn_reflns_point_group_measured_fraction_max 0.672
_diffrn_reflns_theta_full        67.684
_diffrn_reflns_theta_max         75.825
_diffrn_reflns_theta_min         7.232
_exptl_absorpt_coefficient_mu    0.865
_exptl_crystal_colour            colourless
_exptl_crystal_density_diffrn    1.340
_exptl_crystal_description       needle
_exptl_crystal_F_000             212
_refine_diff_density_max         0.201
_refine_diff_density_min         -0.112
_refine_diff_density_rms         0.029
_refine_ls_abs_structure_details
;
 Flack x determined using 367 quotients [(I+)-(I-)]/[(I+)+(I-)]
 (Parsons, Flack and Wagner, Acta Cryst. B69 (2013) 249-259).
;
_refine_ls_abs_structure_Flack   0.04(7)
_refine_ls_extinction_coef       0.034(4)
_refine_ls_extinction_expression Fc^*^=kFc[1+0.001xFc^2^\l^3^/sin(2\q)]^-1/4^
_refine_ls_extinction_method     'SHELXL-2018/1 (Sheldrick 2018)'
_refine_ls_goodness_of_fit_ref   1.097
_refine_ls_hydrogen_treatment    constr
_refine_ls_matrix_type           full
_refine_ls_number_parameters     132
_refine_ls_number_reflns         1379
_refine_ls_number_restraints     1
_refine_ls_restrained_S_all      1.097
_refine_ls_R_factor_all          0.0217
_refine_ls_R_factor_gt           0.0217
_refine_ls_shift/su_max          0.000
_refine_ls_shift/su_mean         0.000
_refine_ls_structure_factor_coef Fsqd
_refine_ls_weighting_details
'w=1/[\s^2^(Fo^2^)+(0.0339P)^2^+0.0798P] where P=(Fo^2^+2Fc^2^)/3'
_refine_ls_weighting_scheme      calc
_refine_ls_wR_factor_gt          0.0586
_refine_ls_wR_factor_ref         0.0587
_reflns_Friedel_coverage         0.365
_reflns_Friedel_fraction_full    0.423
_reflns_Friedel_fraction_max     0.381
_reflns_number_gt                1376
_reflns_number_total             1379
_reflns_threshold_expression     'I > 2\s(I)'
_cod_data_source_file            d1sc06781h2.cif
_cod_data_source_block           ay-cas13429-83-9-100k_auto
_cod_depositor_comments
'Adding full bibliography for 1565833--1565834.cif.'
_cod_original_sg_symbol_H-M      'P 21'
_cod_database_code               1565833
_shelx_shelxl_version_number     2018/1
_shelx_space_group_comment
;
The symmetry employed for this shelxl refinement is uniquely defined
by the following loop, which should always be used as a source of
symmetry information in preference to the above space-group names.
They are only intended as comments.
;
_shelx_res_file
;
TITL AY-CAS13429-83-9-100K_auto in P21 #4
    ay-cas13429-83-9-100k_auto.res
    created by SHELXL-2018/1 at 16:43:44 on 04-Aug-2021
REM reset to P21 #4
CELL 1.54184 6.29835 10.641305 7.538917 90 103.5036 90
ZERR 2 0.000089 0.000136 0.000105 0 0.0014 0
LATT -1
SYMM -X,0.5+Y,-Z
SFAC C H O
UNIT 20 28 8

L.S. 4
PLAN  5
TEMP -173
fmap 2
ACTA
REM <olex2.extras>
REM <HklSrc "%.\\olex2\\history.hkl">
REM </olex2.extras>

WGHT    0.033900    0.079800
EXTI    0.033851
FVAR      24.60821
O11   3   -0.343693   -0.897817   -0.092771    11.00000    0.02576    0.01787 =
         0.01714   -0.00233    0.00426    0.00582
O6    3   -0.442175   -1.005362   -0.354700    11.00000    0.01575    0.01570 =
         0.01517   -0.00078    0.00253    0.00313
O10   3   -0.400809   -1.221170   -0.706579    11.00000    0.01996    0.02121 =
         0.01908   -0.00612    0.00665   -0.00611
AFIX 147
H10   2   -0.487147   -1.272048   -0.771779    11.00000   -1.50000
AFIX   0
O9    3   -0.686968   -1.181119   -0.583896    11.00000    0.01485    0.03470 =
         0.02181   -0.00370    0.00303   -0.00362
C1    1   -0.331011   -1.100332   -0.441596    11.00000    0.01467    0.01401 =
         0.01464   -0.00021    0.00492    0.00210
C3    1    0.011308   -1.001496   -0.311793    11.00000    0.01617    0.01884 =
         0.01889   -0.00132    0.00342   -0.00335
AFIX  23
H3A   2    0.029950   -0.909908   -0.290756    11.00000   -1.20000
H3B   2    0.156174   -1.040168   -0.303927    11.00000   -1.20000
AFIX   0
C13   1   -0.055249   -1.277053   -0.320325    11.00000    0.01919    0.01632 =
         0.01832    0.00140    0.00532    0.00319
AFIX 137
H13A  2   -0.137048   -1.345422   -0.392580    11.00000   -1.50000
H13B  2    0.035141   -1.311144   -0.206824    11.00000   -1.50000
H13C  2    0.038546   -1.236380   -0.390324    11.00000   -1.50000
AFIX   0
C5    1   -0.304061   -0.979833   -0.191795    11.00000    0.01897    0.01447 =
         0.01466    0.00222    0.00409    0.00052
C4    1   -0.105742   -1.062713   -0.172237    11.00000    0.01650    0.01418 =
         0.01450   -0.00097    0.00245    0.00072
C12   1    0.031565   -1.079142    0.019969    11.00000    0.02308    0.02213 =
         0.01661   -0.00191   -0.00097    0.00542
AFIX 137
H12A  2    0.155159   -1.134646    0.018010    11.00000   -1.50000
H12B  2   -0.057795   -1.116322    0.096740    11.00000   -1.50000
H12C  2    0.086195   -0.997091    0.069552    11.00000   -1.50000
AFIX   0
C2    1   -0.146536   -1.029328   -0.499344    11.00000    0.01764    0.01794 =
         0.01491    0.00092    0.00495   -0.00287
AFIX  23
H2A   2   -0.200228   -0.950799   -0.565097    11.00000   -1.20000
H2B   2   -0.075677   -1.082054   -0.577130    11.00000   -1.20000
AFIX   0
C8    1   -0.496705   -1.169659   -0.584925    11.00000    0.01708    0.01580 =
         0.01357    0.00208    0.00359   -0.00093
C7    1   -0.214026   -1.181237   -0.275738    11.00000    0.01469    0.01477 =
         0.01256    0.00103    0.00293   -0.00039
C14   1   -0.372318   -1.246960   -0.179018    11.00000    0.02161    0.01725 =
         0.01850    0.00220    0.00729   -0.00043
AFIX 137
H14A  2   -0.476864   -1.185535   -0.152852    11.00000   -1.50000
H14B  2   -0.290020   -1.284041   -0.064532    11.00000   -1.50000
H14C  2   -0.451169   -1.313280   -0.257897    11.00000   -1.50000
AFIX   0
HKLF 4




REM  AY-CAS13429-83-9-100K_auto in P21 #4
REM R1 =  0.0217 for    1376 Fo > 4sig(Fo)  and  0.0217 for all    1379 data
REM    132 parameters refined using      1 restraints

END

WGHT      0.0339      0.0798

REM Highest difference peak  0.201,  deepest hole -0.112,  1-sigma level  0.029
Q1    1  -0.2737 -1.1487 -0.3683  11.00000  0.05    0.20
Q2    1  -0.1489 -1.1308 -0.2087  11.00000  0.05    0.19
Q3    1  -0.2448 -1.0648 -0.4821  11.00000  0.05    0.19
Q4    1  -0.3902 -1.1372 -0.5094  11.00000  0.05    0.16
Q5    1  -0.1924 -1.0159 -0.1745  11.00000  0.05    0.15
;
_shelx_res_checksum              80481
_shelx_hkl_file
;
   0 -12   0 60421.9 671.713  12
   0 -12   1 80833.3 833.496  12
   0 -12  -1 81834.3 830.201  12
   0 -12  -2 8808.45 189.392  17
   0 -12  -2 8552.13 164.176  12
   0 -11   0 13.1472 30.3185  12
   0 -11   0 44.2132 27.1265  17
   0 -11  -1 80321.7 902.489  12
   0 -11   1 80426.2 894.377  12
   0 -11  -2 84901.6 903.870  12
   0 -11  -3 19723.6 333.043  18
   0 -11  -4 76542.6 798.469  18
   0 -10   0 129557. 1320.52  16
   0 -10   0 132018. 1371.53  12
   0 -10   1 9960.47 221.733  17
   0 -10   1 10339.4 233.154  16
   0 -10  -1 10293.9 258.335  16
   0 -10  -1 10830.1 278.224  12
   0 -10   1 10274.7 259.416  12
   0 -10  -1 10314.4 269.491  19
   0 -10  -1 10022.6 238.640  18
   0 -10  -2 655.064 65.7524  18
   0 -10  -2 662.549 67.9954  12
   0 -10   2 670.644 65.8735  12
   0 -10   3 44695.1 565.914  12
   0 -10  -3 44056.2 625.632  18
   0 -10  -3 44541.6 642.225  19
   0 -10  -4 5199.44 173.922  18
   0 -10  -4 5034.44 172.461  19
   0 -10  -5 62144.5 698.504  18
   0  -9   0 50.3848 28.6221  16
   0  -9   0 110.665 100.841   5
   0  -9   0 10.8727 20.4136  18
   0  -9   0 61.2496 30.3602  19
   0  -9   1 4973.43 180.026  12
   0  -9  -1 4990.19 175.535  16
   0  -9   1 4909.20 535.959   5
   0  -9  -1 5226.80 173.405  18
   0  -9  -1 5113.86 187.681  19
   0  -9  -1 4884.23 515.423   5
   0  -9   1 4906.66 157.771  16
   0  -9   2 17950.1 329.647  15
   0  -9  -2 18810.1 367.719  18
   0  -9   2 18653.0 353.602  12
   0  -9  -2 17932.0 962.415   5
   0  -9  -3 151862. 1565.16  19
   0  -9  -3 151941. 1546.09  18
   0  -9   3 150304. 1506.20  15
   0  -9   3 151048. 1462.45  12
   0  -9   4 20297.8 378.578  15
   0  -9  -4 21350.7 402.401  19
   0  -9  -5 1498.78 89.7108  19
   0  -9  -5 1647.95 98.9082  18
   0  -9  -6 12999.8 238.535  18
   0  -8   0 18309.3 312.518  18
   0  -8   0 19118.4 347.036  19
   0  -8   0 18751.7 942.616   5
   0  -8   0 18942.7 333.520  16
   0  -8  -1 8620.27 221.500  16
   0  -8   1 8497.92 203.455  15
   0  -8   1 8345.96 230.304  12
   0  -8  -1 8914.66 633.567   5
   0  -8  -1 9012.42 221.328  18
   0  -8   1 7693.12 625.280   5
   0  -8   1 8301.75 201.029  16
   0  -8  -1 8868.65 236.319  19
   0  -8   2 28068.7 446.981  15
   0  -8  -2 29008.5 1164.45   5
   0  -8   2 27777.5 441.169  12
   0  -8  -2 27553.0 448.875  16
   0  -8  -3 5024.77 484.716   5
   0  -8   3 5447.66 168.882  12
   0  -8  -3 5513.20 186.251  16
   0  -8  -4 30786.0 514.726  19
   0  -8   5 44697.2 638.833  14
   0  -8  -5 45219.7 615.961  19
   0  -8  -6 30819.7 408.087  19
   0  -8  -6 31339.6 454.112  18
   0  -8  -7 55888.1 559.230  18
   0  -7   0-30.5886 73.4516   5
   0  -7   0 3.35115 20.1979  16
   0  -7   0 1.80193 18.1525  19
   0  -7  -1 114208. 1132.28  16
   0  -7  -1 114717. 1154.49  19
   0  -7   1 111548. 1102.82  19
   0  -7   1 113156. 1096.97  16
   0  -7  -1 111520. 1175.12  11
   0  -7   1 114704. 2264.62   5
   0  -7  -2 167162. 1597.70  16
   0  -7  -2 168608. 1637.17  11
   0  -7   2 169915. 1595.03  12
   0  -7  -2 168416. 2819.30   5
   0  -7   3 41862.6 557.153  13
   0  -7  -3 43164.9 586.381  16
   0  -7   3 43925.3 558.221  12
   0  -7  -3 42613.4 590.382  11
   0  -7  -3 41753.9 1319.54   5
   0  -7   3 43280.3 616.812  14
   0  -7  -4 306759. 2780.20  19
   0  -7  -4 311944. 4274.41   5
   0  -7   4 305456. 2831.05  14
   0  -7   4 308592. 2746.72  13
   0  -7   5 6930.30 237.009  14
   0  -7   5 7177.43 218.353  13
   0  -7  -5 6703.12 208.162  19
   0  -7   6 7648.08 232.994  14
   0  -7   7 27011.0 401.748  14
   0  -7  -7 27101.3 362.667  18
   0  -6   0 203859. 2817.10   5
   0  -6   1 298760. 3878.89   5
   0  -6  -1 298548. 3712.95   5
   0  -6  -2 13517.7 256.225  16
   0  -6   2 13970.0 264.137  12
   0  -6  -2 13274.8 627.477   5
   0  -6   3 31720.1 427.393  12
   0  -6   3 31308.9 447.466  13
   0  -6  -3 31874.0 455.556  16
   0  -6   3 31533.0 492.680  14
   0  -6   4 7813.11 244.146  14
   0  -6   4 8241.06 222.480  13
   0  -6  -4 7646.06 533.084   5
   0  -6   5 31242.7 504.207  13
   0  -6   5 31522.5 557.603  14
   0  -6  -5 30459.2 481.253  19
   0  -6   6 8035.54 259.306  14
   0  -6   7 4769.75 171.716  14
   0  -6  -7 4894.66 142.844  18
   0  -5   0 542.737 119.414   5
   0  -5  -1 39823.3 959.722   5
   0  -5   1 39520.0 1045.06   5
   0  -5  -2 3495.41 280.700   5
   0  -5  -2 3499.33 141.774   1
   0  -5  -3 225866. 2326.84   1
   0  -5  -3 229457. 2963.96   5
   0  -5  -4 85522.5 1303.61   9
   0  -5  -4 88575.4 1757.41   5
   0  -5  -4 87259.6 1360.25   1
   0  -5   4 89670.0 964.133  13
   0  -5  -5 65230.1 1272.20   1
   0  -5  -5 64588.8 1578.90   5
   0  -5   6 50379.6 695.124  13
   0  -5  -7 14061.4 263.154  18
   0  -4   0 449222. 4405.65   5
   0  -4   1 175943. 2305.30   5
   0  -4  -1 173378. 1485.78   1
   0  -4  -1 174914. 2110.69   5
   0  -4  -2 517312. 5000.10   5
   0  -4  -2 523408. 4440.86   9
   0  -4  -3 53684.4 845.363   9
   0  -4  -4 21890.8 599.088   9
   0  -4   5 10854.2 264.352  13
   0  -4  -5 11500.5 495.460   9
   0  -4  -5 11232.4 507.404   1
   0  -4  -6 340626. 3923.27   9
   0  -4   6 345854. 3064.84  13
   0  -4   7 40898.7 645.540  14
   0  -4   8 10032.2 235.905  14
   0  -3   0 1029.02 111.791   5
   0  -3   1 719802. 6527.57   5
   0  -3   3 53920.7 944.738   6
   0  -3   4 70466.5 768.354  13
   0  -3   5 40720.6 562.009  13
   0  -3  -5 41548.8 975.960   9
   0  -3  -6 37025.6 1022.15   9
   0  -3  -6 36638.1 1053.82   1
   0  -3   6 35299.2 544.183  13
   0  -3   7 16263.4 333.817  13
   0  -3   8 7630.31 215.384  14
   0  -2   1 395123. 3712.16   5
   0  -2   2 259679. 2477.33   6
   0  -2   3 25681.2 602.187   6
   0  -2   4 38533.9 903.387   6
   0  -2   5 80519.1 884.049  13
   0  -2  -6 83827.3 1639.41   9
   0  -2   6 80421.7 934.644  13
   0  -2   6 81062.5 912.812   4
   0  -2  -6 84382.9 1683.50   1
   0  -2   7 176384. 1668.66   4
   0  -2   7 175837. 1701.93  13
   0  -2   8 11256.8 272.339  14
   0  -1   0 21.9576 14.1367   5
   0  -1   5 116379. 1155.24  13
   0  -1  -6 1745.59 227.819   9
   0  -1   6 1813.33 103.954   4
   0  -1   6 1890.13 103.648  13
   0  -1   7 52598.5 690.730   4
   0  -1   7 52426.3 666.266  13
   0   0   2 88640.4 1052.40   6
   0   0   3 60486.4 977.634   6
   0   0   4 15255.2 544.666   6
   0   0   5 1442.99 84.9809   4
   0   0   5 1423.46 77.5505  13
   0   0   6 11193.6 272.907   4
   0   0  -6 11116.5 561.148   9
   0   0   6 11190.3 249.341  13
   0   0   7 27460.1 469.868   4
   0   0   8 67753.5 775.886   4
   0   1   2 72798.8 920.937   6
   0   1   3 220004. 2389.92   6
   0   1   4 14595.0 529.080   6
   0   1   5 116894. 1190.44   4
   0   1  -6 1795.81 230.679   9
   0   1   6 2826.28 135.408   4
   0   1   7 53458.4 730.582   4
   0   1   8 37268.5 523.265   4
   0   2   1 395651. 3319.68   6
   0   2   2 249845. 2395.84   6
   0   2   3 26044.6 607.517   6
   0   2   4 39343.5 915.008   6
   0   2   5 79772.4 898.831   4
   0   2  -6 82447.5 1666.65   9
   0   2  -6 85621.8 1733.68   1
   0   2   8 11862.1 263.992   4
   0   2   9 9406.76 160.861   4
   0   3   2 734118. 6243.26   6
   0   3   3 51950.0 921.304   6
   0   3  -5 41699.1 1018.68   9
   0   3   5 41793.8 584.636   4
   0   3  -6 37616.8 1086.62   1
   0   3   6 35368.1 560.546   4
   0   3  -6 38194.4 1082.95   9
   0   3   7 17292.8 367.355   4
   0   3   8 6921.06 193.355   4
   0   4  -1 173132. 1491.43   9
   0   4  -2 522914. 4487.46   9
   0   4  -4 22436.6 634.616   9
   0   4  -5 11441.6 530.505   1
   0   4  -5 10413.8 499.065   9
   0   4   5 10458.8 263.240   4
   0   4  -6 355258. 4110.05   9
   0   4   6 343620. 3106.64   4
   0   4   7 41248.2 606.310   4
   0   4   8 10138.6 225.455   4
   0   5   4 87094.4 946.391   4
   0   5   5 66924.8 824.415   4
   0   5   6 50183.8 699.337   4
   0   5   7 13992.6 305.459   4
   0   5   8 764.932 55.4120   4
   0   6   4 7721.61 208.557   4
   0   6   5 31115.6 496.469   4
   0   6   6 8298.14 235.319   4
   0   6   7 4702.85 155.686   4
   0   6   8 12917.8 199.201   4
   0   7   5 6921.07 203.874   4
   0   7   6 7500.96 203.762   4
   0   7   7 26143.5 355.916   4
   1 -13  -1 833.358 41.4294  12
   1 -13   0 2050.98 66.2334  12
   1 -12  -3 7172.08 136.969  12
   1 -12  -2 87836.1 875.273  12
   1 -12  -1 45657.2 549.804  12
  -1 -12   0 9118.83 184.000  12
   1 -12   0 9073.68 198.502  12
  -1 -12  -1 212.938 28.0347  12
   1 -12   1 177.884 31.9707  12
  -1 -12  -3 7915.78 153.549  17
   1 -11  -5 13482.5 207.950  18
   1 -11  -4 107.970 30.5427  19
   1 -11  -3 34827.2 496.708  19
   1 -11  -3 34655.1 475.601  12
   1 -11  -2 2752.80 127.484  12
   1 -11  -2 2892.33 126.819  19
  -1 -11   2 2777.30 113.596  12
   1 -11  -1 35027.2 509.443  16
  -1 -11   1 35473.5 491.411  12
  -1 -11   0 8568.46 208.202  12
   1 -11   0 8949.15 232.358  12
   1 -11   0 8196.92 209.241  16
  -1 -11   0 8670.06 216.263  17
   1 -11   1 18418.7 332.527  12
  -1 -11  -1 18963.1 346.291  17
  -1 -11  -1 18204.1 305.866  12
   1 -11   2 50739.5 592.020  12
  -1 -11  -2 51164.9 633.274  18
  -1 -11  -3 991.269 68.6246  17
  -1 -11  -3 1025.23 70.0045  18
  -1 -11  -4 24580.7 325.138  17
   1 -10  -6 10421.3 181.398  18
   1 -10  -5 11647.0 240.694  18
   1 -10  -5 11278.9 236.449  19
   1 -10  -4 13719.5 287.797  18
   1 -10  -4 13920.2 300.614  19
   1 -10  -4 13549.2 263.399  12
   1 -10  -3 43361.9 591.511  16
   1 -10  -3 42600.7 586.900  18
   1 -10  -2 40370.2 548.267  18
   1 -10  -2 40384.5 592.759  19
  -1 -10   2 39522.8 545.024  12
  -1 -10   1 122135. 1256.22  12
  -1 -10   1 121832. 1231.93  17
   1 -10  -1 123195. 1276.90  16
   1 -10  -1 122004. 1274.64  19
  -1 -10   0 21799.4 390.207  17
  -1 -10   0 21332.4 378.667  12
   1 -10   0 21789.5 417.081  12
   1 -10   0 21327.8 382.189  16
   1 -10   1 14837.2 290.926  16
   1 -10   1 14792.2 317.253  12
  -1 -10  -1 15088.5 315.125  18
  -1 -10  -1 14630.4 297.789  12
  -1 -10  -2 10391.1 223.184  12
   1 -10   2 10658.7 247.100  15
  -1 -10  -2 10493.0 265.961  18
   1 -10   2 10452.9 241.842  12
  -1 -10  -3 58850.2 738.060  18
   1 -10   3 58528.0 645.346  12
  -1 -10  -4 2849.29 122.158  18
  -1 -10  -5 18027.9 275.320  18
  -1 -10  -5 16187.5 231.258  17
   1  -9  -6 945.249 65.0888  18
   1  -9  -6 999.687 61.3698  19
   1  -9  -5 12363.3 278.375  19
   1  -9  -4 52654.6 721.566  19
   1  -9  -3 46310.4 640.181  16
   1  -9  -2 31786.7 503.742  16
   1  -9  -2 32221.4 526.393  19
   1  -9  -2 31197.9 1278.40   5
  -1  -9   2 31910.1 444.678  17
  -1  -9   2 31838.1 483.934  12
   1  -9  -1 14624.6 314.050  16
  -1  -9   1 13665.6 868.559   5
   1  -9  -1 13846.9 276.164  18
  -1  -9   1 14473.7 307.757  12
   1  -9  -1 14821.5 319.241  19
  -1  -9   1 14701.7 298.260  17
   1  -9  -1 13433.6 845.393   5
   1  -9   0 42098.3 582.661  16
  -1  -9   0 40654.2 562.164  18
  -1  -9   0 40945.0 577.968  12
   1  -9   0 41093.3 558.439  19
   1  -9   1 53794.5 714.717  12
  -1  -9  -1 50356.1 1662.86   5
   1  -9   1 51540.9 655.638  16
  -1  -9  -1 50969.5 689.797  18
   1  -9   1 52586.6 676.499  15
  -1  -9  -1 52978.5 679.668  12
   1  -9   2 30505.5 493.553  15
   1  -9   2 30294.4 467.347  12
   1  -9   2 29285.7 420.281  16
  -1  -9  -2 30546.3 517.655  19
  -1  -9  -2 30025.9 506.572  18
  -1  -9  -2 30599.7 445.998  21
  -1  -9  -2 28309.3 1231.14   5
  -1  -9  -2 29226.7 439.744  12
   1  -9   3 39521.4 595.284  15
   1  -9   3 39796.3 515.704  12
  -1  -9  -3 39196.9 599.750  19
  -1  -9  -4 3047.51 142.256  18
   1  -9   4 2922.33 138.941  15
  -1  -9  -5 6517.97 182.296  18
   1  -9   5 6542.28 185.713  15
  -1  -9  -6 24413.1 307.051  18
   1  -9   6 23386.6 311.482  15
   1  -8  -7 20185.3 293.867  18
   1  -8  -6 7735.87 197.152  19
   1  -8  -5 59324.5 758.087  19
  -1  -8   5 57986.3 714.824  13
  -1  -8   4 125142. 1258.71  13
   1  -8  -4 125641. 1295.39  16
   1  -8  -4 125039. 1332.70  11
   1  -8  -3 8599.22 256.494  11
   1  -8  -3 8978.97 238.059  16
   1  -8  -3 8207.96 602.047   5
  -1  -8   3 9060.74 224.589  12
  -1  -8   2 70296.0 777.766  17
   1  -8  -2 70170.4 892.938  11
  -1  -8   2 70546.9 814.671  12
  -1  -8   2 70782.4 1967.62   5
   1  -8  -2 70222.0 833.592  16
   1  -8  -2 72212.6 873.272  20
   1  -8  -1 27452.1 441.245  19
   1  -8  -1 26082.1 1104.73   5
   1  -8  -1 27392.4 482.467  11
  -1  -8   1 27132.3 428.381  12
  -1  -8   1 28286.2 1174.59   5
   1  -8  -1 25008.5 423.835  16
   1  -8  -1 28254.4 455.725  20
  -1  -8   1 26361.4 393.569  16
   1  -8   0 32118.6 475.939  16
  -1  -8   0 31502.2 460.110  16
  -1  -8   0 32883.2 493.374  12
   1  -8   0 31489.9 458.621  15
   1  -8   0 31357.7 473.597  20
   1  -8   0 31547.9 1243.80   5
  -1  -8   0 31466.5 435.077  21
  -1  -8   0 31443.9 464.812  18
  -1  -8   0 31977.1 491.533  19
   1  -8   0 31746.8 459.765  19
   1  -8   1 71633.1 816.128  16
  -1  -8  -1 73062.1 858.339  18
  -1  -8  -1 72394.0 811.520  21
  -1  -8  -1 73521.6 839.204  16
  -1  -8  -1 74198.4 849.170  12
   1  -8   1 71989.0 851.687  15
   1  -8   1 72808.5 2023.55   5
   1  -8   2 32380.6 524.045  15
  -1  -8  -2 33025.0 532.274  19
  -1  -8  -2 32681.9 524.644  18
   1  -8   2 32841.3 494.848  12
   1  -8   2 32475.5 449.384  16
  -1  -8  -2 32971.1 479.011  12
  -1  -8  -2 32450.0 1251.03   5
  -1  -8  -3 2667.03 139.956  18
   1  -8   3 2786.69 115.061  12
  -1  -8  -3 2782.54 369.927   5
  -1  -8  -3 2721.06 140.424  19
  -1  -8  -4 11660.1 283.139  19
  -1  -8  -4 11056.2 288.651  18
  -1  -8  -5 23478.9 408.804  18
  -1  -8  -6 75283.2 784.785  18
  -1  -7   6 14113.8 301.979  13
   1  -7  -6 13780.5 287.836  19
  -1  -7   6 14038.0 312.933  14
  -1  -7   5 134157. 1423.38  14
  -1  -7   5 135832. 1389.78  13
   1  -7  -4 142033. 1402.54  16
  -1  -7   4 140765. 1436.91  14
  -1  -7   4 138876. 1390.01  13
   1  -7  -4 137930. 1443.98  11
   1  -7  -3 1561.44 93.7119  16
   1  -7  -3 1486.42 242.131   5
   1  -7  -3 1357.55 97.2736  11
   1  -7  -3 1452.77 98.7020  20
  -1  -7   3 1409.00 79.9766  13
  -1  -7   3 1536.59 90.9717  14
  -1  -7   3 1557.30 87.7366  12
   1  -7  -2 7772.80 204.878  16
  -1  -7   2 7762.54 585.078   5
   1  -7  -2 7258.71 513.659   5
   1  -7  -2 7726.56 228.855  11
  -1  -7   2 7838.08 182.689  17
  -1  -7   2 7629.14 169.027  21
  -1  -7   2 7577.36 194.974  12
  -1  -7   1 9896.38 224.637  12
  -1  -7   1 9607.73 204.515  18
  -1  -7   1 10148.1 636.124   5
   1  -7  -1 10182.7 619.363   5
   1  -7  -1 9419.44 245.891  11
  -1  -7   1 9206.24 197.207  16
   1  -7  -1 9690.70 234.946  20
  -1  -7   0 6255.54 165.969  16
   1  -7   0 5647.51 472.519   5
  -1  -7   0 5552.61 169.616  19
  -1  -7   0 5512.88 167.058  12
   1  -7   0 5382.23 163.659  20
  -1  -7   0 5498.07 160.939  18
   1  -7   0 5240.66 151.821  19
   1  -7   0 5485.49 161.031  15
  -1  -7  -1 81444.4 920.772  19
  -1  -7  -1 82242.4 906.050  18
   1  -7   1 83490.7 922.716  15
  -1  -7  -1 82259.6 886.658  12
  -1  -7  -1 84771.2 896.366  16
   1  -7   1 82020.4 2030.31   5
   1  -7   2 2820.72 124.529  12
  -1  -7  -2 3121.66 352.032   5
  -1  -7  -2 2709.88 127.564  19
   1  -7   3 22113.3 351.060  12
   1  -7   3 21617.6 426.327  14
  -1  -7  -3 21622.0 401.350  19
  -1  -7  -4 39545.6 1369.40   5
   1  -7   4 40840.2 642.854  14
  -1  -7  -4 39527.0 583.268  19
  -1  -7  -5 61479.7 729.410  19
   1  -7   5 60678.2 826.512  14
  -1  -7  -5 60490.6 774.510  18
  -1  -7  -6 825.167 64.3997  18
  -1  -6   7 25204.5 430.236  14
  -1  -6   6 4922.05 180.244  13
  -1  -6   6 3952.21 176.115  14
  -1  -6   5 90597.3 1026.26  13
  -1  -6   5 90949.7 1075.38  14
   1  -6  -4 34397.2 1101.84   5
   1  -6  -4 34401.9 540.985  11
  -1  -6   4 35939.0 547.596  14
   1  -6  -4 36280.0 502.307  16
  -1  -6   4 35660.2 507.702  13
  -1  -6   3 90742.8 972.241  14
  -1  -6   3 90789.6 927.898  12
   1  -6  -3 87913.9 1009.81  11
  -1  -6   3 90888.9 932.552  13
   1  -6  -3 87370.4 1764.31   5
   1  -6  -3 90248.7 994.795  20
   1  -6  -3 91958.6 954.574  16
  -1  -6   2 255661. 3489.33   5
   1  -6  -2 253606. 3239.99   5
  -1  -6   2 243553. 2152.59  12
   1  -6  -2 243632. 2243.12  11
   1  -6  -2 246624. 2167.16  16
   1  -6  -1 56520.8 1329.87   5
  -1  -6   1 60188.3 1428.58   5
   1  -6   0 54792.1 1369.30   5
   1  -6   1 414.933 135.049   5
  -1  -6  -1 247.783 36.7425  19
   1  -6   2 29161.1 416.794  12
  -1  -6  -2 29394.7 422.608  16
  -1  -6  -2 29281.8 438.842  19
   1  -6   2 29087.8 457.085  14
   1  -6   3 139277. 1293.58  12
  -1  -6  -3 135255. 2449.47   5
  -1  -6  -3 134637. 1374.48  19
   1  -6   3 138562. 1438.58  14
  -1  -6  -4 19209.8 882.757   5
  -1  -6  -4 19608.6 362.436  19
   1  -6   6 6160.56 217.583  14
  -1  -6  -6 6211.89 182.340  18
   1  -6   7 7436.26 199.215  14
  -1  -5   8 1438.15 83.4081  14
  -1  -5   7 7581.74 237.730  14
  -1  -5   7 6348.04 198.599  13
   1  -5  -5 108643. 1773.18   1
   1  -5  -5 108764. 2035.33   5
  -1  -5   5 114145. 1198.66  13
   1  -5  -4 75524.6 1542.43   5
   1  -5  -4 75030.9 803.025  16
   1  -5  -4 72434.9 1244.90   1
  -1  -5   4 74339.6 830.539  13
   1  -5  -3 12173.2 546.395   5
   1  -5  -3 12400.9 258.738  20
   1  -5  -2 119797. 1290.13   2
  -1  -5   2 123163. 2091.36   5
   1  -5  -2 121932. 1879.17   5
  -1  -5   1 59615.7 1270.05   5
   1  -5  -1 57520.1 1199.79   5
   1  -5   0 94333.0 1687.18   5
   1  -5   1 9554.77 537.222   5
  -1  -5  -2 161681. 2339.02   5
   1  -5   2 161772. 1771.62   6
  -1  -5  -2 162354. 1690.96   8
   1  -5   3 133122. 1757.79   6
  -1  -5  -3 131932. 1298.58  19
   1  -5   3 135039. 1311.27  13
  -1  -5  -4 90974.9 972.987  19
  -1  -5  -4 92328.3 1907.30   5
   1  -5   4 91866.9 1013.50  13
   1  -5   4 88539.6 1071.57  14
   1  -5   5 66895.7 909.289  14
  -1  -5  -5 66747.7 1693.22   5
   1  -5   6 374.803 69.5605  14
  -1  -5  -6 489.289 53.5496  18
   1  -5   7 12391.3 286.574  14
  -1  -4   8 15349.1 312.774  14
  -1  -4   7 88370.2 1002.30  13
  -1  -4   6 9695.34 256.646  13
   1  -4  -6 10319.7 535.733   1
   1  -4  -6 9589.35 473.096   9
   1  -4  -5 164344. 2434.89   5
   1  -4  -5 164481. 2308.66   1
  -1  -4   5 161403. 1580.70  13
  -1  -4   4 24041.8 366.254  13
   1  -4  -4 23295.0 734.397   5
   1  -4  -4 23079.4 652.061   1
   1  -4  -3 92303.6 1270.38   1
   1  -4  -3 92507.5 1470.63   5
  -1  -4   2 139471. 1400.68   7
  -1  -4   2 135504. 2044.46   5
   1  -4  -2 137552. 1830.93   5
   1  -4  -1 44366.3 892.962   5
  -1  -4   1 44414.0 502.987   7
   1  -4   0 663501. 6279.14   5
   1  -4   1 54807.4 689.702   6
  -1  -4  -1 54062.0 678.557   8
   1  -4   2 19959.1 461.536   6
  -1  -4  -2 19331.6 437.933   9
   1  -4   3 20382.1 568.057   6
  -1  -4  -3 19878.3 543.315   9
   1  -4   4 25949.4 462.910  14
  -1  -4  -4 25231.9 715.484   9
   1  -4   4 25754.0 421.115  13
  -1  -4  -5 20237.0 710.722   9
   1  -4   5 19730.5 384.561  13
   1  -4   5 20263.2 434.895  14
   1  -4   6 86805.9 1084.71  14
   1  -4   7 4479.35 177.551  14
   1  -4   8 4061.66 123.224  14
  -1  -3   9 4284.59 116.069  14
  -1  -3   8 9273.70 216.059  13
  -1  -3   7 70657.8 855.829  13
   1  -3  -6 69401.1 1502.28   1
  -1  -3   6 69305.8 835.746  13
  -1  -3   5 195478. 1815.43  13
   1  -3  -5 195016. 2603.67   1
   1  -3  -4 156870. 2039.00   1
   1  -3  -3 67691.3 1032.20   1
  -1  -3   3 69482.3 974.681   7
   1  -3  -2 115168. 1442.34   5
  -1  -3   2 119266. 1239.73   7
  -1  -3   2 115112. 1703.81   5
   1  -3  -2 114850. 1321.19   1
   1  -3  -1 144552. 1655.66   5
  -1  -3   1 144343. 1748.34   5
  -1  -3   0 219598. 2302.82   5
   1  -3   0 214886. 2408.85   5
   1  -3   1 584862. 4916.03   6
   1  -3   3 145121. 1820.95   6
  -1  -3  -3 144191. 1781.78   9
  -1  -3  -4 48273.0 1012.77   9
   1  -3   4 49197.4 1073.97   6
   1  -3   4 47520.0 605.023  13
  -1  -3  -5 46573.5 1129.66   9
   1  -3   5 46516.2 638.383  13
   1  -3   5 45390.8 1180.83   6
  -1  -3  -6 8312.22 492.705   9
   1  -3   7 1024.04 91.7857  14
   1  -3   8 6894.60 174.762  14
  -1  -2   9 17542.1 280.237  14
  -1  -2   8 84514.8 902.236  13
  -1  -2   7 89105.0 998.842  13
  -1  -2   7 87211.3 981.833   4
  -1  -2   6 13414.0 294.441  13
   1  -2  -6 12965.2 630.146   1
  -1  -2   6 13203.6 290.597   4
  -1  -2   5 15396.9 289.186  13
   1  -2  -5 15106.1 602.403   1
   1  -2  -4 172824. 2169.58   1
  -1  -2   3 80395.5 1073.62   7
   1  -2  -3 80614.3 1148.18   1
   1  -2  -2 131240. 1421.73   1
  -1  -2   2 128983. 1347.69   7
   1  -2   0 341450. 3221.77   5
  -1  -2   0 344085. 3083.45   5
  -1  -2   0 341898. 2933.46   8
  -1  -2  -1 314525. 2818.09   9
  -1  -2  -2 280170. 2664.40   9
   1  -2   2 273508. 2659.65   6
   1  -2   3 30531.5 685.356   6
  -1  -2  -3 29830.3 666.076   9
   1  -2   4 189036. 1731.43  13
  -1  -2  -4 187053. 2390.80   9
   1  -2   4 188575. 2429.83   6
   1  -2   5 35597.1 1020.51   6
   1  -2   5 34763.8 477.159   4
  -1  -2  -5 35488.6 968.509   9
   1  -2   5 34447.9 509.019  13
   1  -2   6 21903.4 371.344   4
  -1  -2  -6 22474.1 831.181   9
   1  -2   7 36892.4 587.351  14
   1  -2   8 2687.98 109.988  14
  -1  -1   9 12539.8 234.990  14
  -1  -1   8 52743.2 652.202   4
  -1  -1   8 52467.1 618.296  13
  -1  -1   7 38301.5 547.003  13
  -1  -1   7 37442.4 566.369   4
  -1  -1   6 163062. 1579.86  13
  -1  -1   6 163809. 1611.16   4
  -1  -1   5 55251.4 640.803  13
  -1  -1   1 459534. 3883.32   5
   1  -1  -1 456095. 3768.10   5
  -1  -1  -4 142976. 1978.28   9
   1  -1   5 20826.5 353.857   4
  -1  -1  -5 20892.0 736.088   9
   1  -1   5 21305.5 363.890  13
   1  -1   6 7672.02 216.214   4
  -1  -1  -6 8097.93 498.693   9
   1  -1   7 7098.95 199.248   4
   1  -1   8 6987.61 180.092  14
  -1   0   8 2771.96 127.107   4
  -1   0   7 4257.62 149.355  13
  -1   0   7 4301.81 172.965   4
   1   0  -6 147322. 2406.08   1
  -1   0   6 150254. 1521.56   4
  -1   0   6 151347. 1456.14  13
   1   0  -5 9090.50 461.428   1
  -1   0   5 8877.62 195.400  13
  -1   0   4 3107.59 208.250   7
   1   0  -4 3207.43 232.086   1
   1   0  -3 378720. 3652.90   1
  -1   0   3 385997. 3545.05   7
   1   0  -2 84540.7 1025.69   1
   1   0   0 60315.0 706.846   2
  -1   0   0 61852.1 692.921   8
  -1   0  -1 361567. 3175.67   9
   1   0   2 3968.66 185.326   6
  -1   0  -2 3687.80 183.900   9
  -1   0  -3 103027. 1412.43   9
   1   0   3 104663. 1425.98   6
   1   0   4 418791. 4356.93   6
  -1   0  -4 423231. 4331.27   9
  -1   0  -5 37351.5 1006.50   9
   1   0   5 37407.4 520.976   4
   1   0   5 36829.7 500.815  13
   1   0   5 38578.5 1067.35   6
   1   0   6 53338.5 704.600   4
  -1   0  -6 53146.4 1336.64   9
   1   0   7 1583.01 98.9213   4
   1   0   8 545.235 51.2647  14
  -1   1   9 12820.7 218.905   4
  -1   1   8 52708.7 684.682   4
  -1   1   7 37731.3 588.066   4
   1   1  -6 171357. 2549.78   1
  -1   1   6 162861. 1642.38   4
   1   1  -5 54597.1 1206.71   1
   1   1  -4 20440.4 605.081   1
   1   1  -3 1674.82 141.099   1
  -1   1   3 1431.71 119.308   7
   1   1  -2 2895.49 149.044   1
  -1   1  -1 239371. 2212.38   9
  -1   1  -3 446501. 4304.04   9
   1   1   3 458654. 4298.67   6
   1   1   4 149966. 2065.26   6
  -1   1  -4 150150. 2053.35   9
   1   1   5 21195.7 781.482   6
   1   1   5 21453.1 376.199   4
  -1   1  -5 21568.5 754.762   9
   1   1   6 7799.67 232.262   4
  -1   1  -6 7516.32 483.836   9
   1   1   7 7175.90 216.951   4
   1   1   8 7620.81 185.512   4
  -1   2   9 18684.8 278.412   4
  -1   2   6 13322.7 317.500   4
   1   2  -6 14017.8 658.425   1
   1   2  -5 16255.8 628.222   1
  -1   2   5 15417.5 309.440   4
   1   2  -4 171183. 2165.97   1
   1   2  -3 79434.2 1153.35   1
  -1   2   3 82423.8 1098.97   7
   1   2  -2 126019. 1390.84   1
  -1   2   2 125121. 1331.46   7
  -1   2   0 343363. 2942.97   8
  -1   2  -1 315267. 2832.36   9
   1   2   2 271276. 2617.86   6
  -1   2  -2 271651. 2647.80   9
  -1   2  -3 33353.7 717.562   9
   1   2   3 29622.0 682.670   6
   1   2   4 186955. 2434.42   6
  -1   2  -4 193465. 2431.42   9
  -1   2  -5 35988.6 1001.48   9
   1   2   5 35715.8 1038.27   6
  -1   2  -6 23051.0 861.042   9
   1   2   7 37582.5 566.113   4
   1   2   8 2913.01 113.653   4
  -1   3   8 9782.64 242.812   4
  -1   3   7 70696.5 892.646   4
   1   3  -6 68907.1 1541.02   1
  -1   3   6 69332.5 875.208   4
  -1   3   5 196853. 1874.75   4
   1   3  -5 203660. 2685.37   1
   1   3  -4 157819. 2069.36   1
   1   3  -3 67008.9 1042.18   1
  -1   3   3 67902.7 971.126   7
  -1   3   2 116587. 1251.18   7
   1   3  -2 116077. 1318.39   1
   1   3  -1 141621. 1394.14   2
   1   3   1 581249. 4882.16   6
   1   3   3 141951. 1787.50   6
  -1   3  -3 142970. 1806.53   9
   1   3   4 47865.9 1067.01   6
  -1   3  -4 47975.5 1037.06   9
   1   3   5 45554.0 1182.57   6
  -1   3  -5 47088.6 1164.98   9
   1   3   5 46398.5 637.289   4
   1   3   6 7674.66 236.075   4
  -1   3  -6 8338.60 508.680   9
   1   3   7 1176.61 90.3661   4
  -1   4   9 6422.04 124.123   4
  -1   4   8 15287.4 298.966   4
  -1   4   7 89388.3 1041.13   4
   1   4  -6 10638.4 527.502   9
  -1   4   6 9730.15 272.889   4
   1   4  -5 167763. 2384.57   1
  -1   4   5 164711. 1632.83   4
   1   4  -4 22352.3 653.123   1
   1   4  -3 94497.9 1302.33   1
  -1   4   2 139516. 1435.49   7
  -1   4   1 44408.5 518.299   7
   1   4  -1 42569.3 537.274   2
  -1   4  -1 53148.6 689.744   8
   1   4   1 52495.8 658.386   6
   1   4   2 19393.2 448.298   6
  -1   4  -2 19663.4 466.581   9
   1   4   3 20596.3 567.541   6
  -1   4  -3 20669.2 576.629   9
   1   4   4 25566.1 761.350   6
   1   4   4 25821.3 411.642   4
  -1   4  -4 26274.5 755.828   9
   1   4   5 19636.7 378.974   4
  -1   4  -5 21317.1 766.790   9
   1   4   6 85881.7 1011.21   4
   1   4   7 4434.75 164.810   4
   1   4   8 4344.52 126.428   4
  -1   5   8 1597.49 83.8303   4
  -1   5   7 7050.02 216.086   4
  -1   5   6 194121. 1908.06   4
  -1   5   5 112981. 1214.24   4
  -1   5   4 72783.5 826.056   4
   1   5   4 90515.4 989.290   4
   1   5   5 66711.6 829.542   4
   1   5   6 387.916 56.7542   4
   1   5   7 12250.6 264.960   4
   1   5   8 49113.7 521.732   4
  -1   6   8 4015.30 111.066   4
  -1   6   7 25530.9 411.060   4
  -1   6   6 3809.03 158.327   4
  -1   6   5 89657.8 1019.12   4
   1   6   4 19172.7 355.516   4
   1   6   5 94430.4 1058.04   4
   1   6   6 6378.19 197.470   4
   1   6   7 7529.99 184.702   4
  -1   7   7 41775.7 504.579   4
  -1   7   6 13754.1 284.359   4
   1   7   5 60008.4 734.727   4
   1   7   6 858.266 65.9846   4
   1   7   7 3663.79 99.4145   4
   2 -12  -3 5358.82 120.027  12
   2 -12  -2 11447.8 211.584  12
   2 -12  -1 23246.3 327.091  16
   2 -12  -1 23385.9 335.980  12
   2 -12   0 12431.7 218.540  12
  -2 -12   0 12597.3 217.263  17
  -2 -12  -1 13825.8 230.236  17
  -2 -12  -2 18655.3 257.815  17
   2 -11  -5 12418.7 196.373  19
   2 -11  -4 4154.46 119.478  12
   2 -11  -4 4414.32 132.432  19
   2 -11  -3 24592.7 383.631  12
   2 -11  -3 25252.2 381.342  19
   2 -11  -3 24279.2 367.458  16
   2 -11  -2 2423.88 110.223  16
   2 -11  -2 2462.56 117.712  12
   2 -11  -1 8055.54 205.264  16
  -2 -11   1 8261.87 194.373  17
   2 -11   0 8320.67 201.374  16
   2 -11   0 8089.27 210.081  12
  -2 -11   0 7887.23 200.421  17
   2 -11   1 17890.7 301.000  12
  -2 -11  -2 59228.3 675.803  17
  -2 -11  -3 4854.54 126.856  17
   2 -10  -6 26000.7 316.857  18
   2 -10  -5 4800.08 138.978  18
   2 -10  -5 4753.64 145.528  19
   2 -10  -4 581.080 53.9224  16
   2 -10  -3 1396.30 94.0878  19
   2 -10  -3 1233.43 85.1536  16
  -2 -10   2 33099.8 458.135  17
   2 -10  -2 33328.1 511.540  16
   2 -10  -2 33617.9 508.384  19
  -2 -10   1 12203.7 257.223  12
   2 -10  -1 11913.4 259.142  19
   2 -10  -1 12099.7 283.046  16
   2 -10   0 973.336 83.0102  12
   2 -10   0 936.610 76.4536  16
  -2 -10   0 693.357 58.6024  12
  -2 -10   0 807.282 72.8905  17
   2 -10   1 4938.49 168.902  12
  -2 -10  -1 4719.15 173.009  17
   2 -10   1 4878.30 157.656  16
   2 -10   2 18717.5 344.891  15
   2 -10   2 19495.6 312.938  12
  -2 -10  -2 19481.1 367.055  18
  -2 -10  -2 19328.2 359.418  17
  -2 -10  -3 88189.0 927.100  17
   2 -10   3 86961.4 933.839  15
  -2 -10  -3 88088.4 957.875  18
  -2 -10  -4 1288.04 61.3249  17
   2 -10   4 1070.26 64.2819  15
   2  -9  -6 3898.23 124.051  19
   2  -9  -5 15690.6 301.920  11
   2  -9  -5 16227.9 323.131  19
   2  -9  -4 13230.1 281.568  16
   2  -9  -4 13332.8 318.403  11
   2  -9  -3 856.578 74.8475  16
   2  -9  -3 639.702 77.1631  11
   2  -9  -2 78704.9 962.658  20
  -2  -9   2 79045.2 879.655  12
   2  -9  -2 76291.1 991.218  11
  -2  -9   2 78136.3 872.421  17
   2  -9  -2 78444.4 921.669  16
  -2  -9   1 38152.7 522.932  12
   2  -9  -1 37760.1 579.275  20
  -2  -9   1 37345.6 505.328  21
  -2  -9   1 37762.6 548.373  17
   2  -9  -1 37330.9 536.289  19
   2  -9   0 217249. 2065.30  20
  -2  -9   0 213260. 3724.09   5
  -2  -9   0 220448. 1992.43  12
  -2  -9   0 220819. 2013.63  21
   2  -9   0 220712. 2070.36  16
  -2  -9   0 220110. 2076.15  17
   2  -9   1 11946.2 288.353  15
  -2  -9  -1 12223.8 295.666  18
   2  -9   1 12626.0 290.270  12
   2  -9   1 12025.0 271.830  16
  -2  -9  -1 11993.6 273.608  21
  -2  -9  -1 11888.0 290.117  17
   2  -9   2 7255.13 188.357  16
   2  -9   2 7546.01 196.355  12
   2  -9   2 7606.92 230.431  15
  -2  -9  -2 7476.17 214.568  21
   2  -9   3 9056.42 251.611  15
  -2  -9  -3 9211.59 234.484  17
  -2  -9  -3 8724.80 246.470  18
   2  -9   4 41161.0 575.376  15
  -2  -9  -4 41550.2 516.885  17
  -2  -9  -4 42223.1 567.789  18
   2  -9   5 2620.37 101.605  15
   2  -8  -7 15986.2 229.452  19
   2  -8  -6 3490.50 133.993  19
  -2  -8   5 7097.91 192.204  13
   2  -8  -5 6896.08 213.385  11
   2  -8  -4 81522.9 1001.44  11
  -2  -8   4 78907.4 867.524  13
   2  -8  -4 80724.5 912.487  16
   2  -8  -3 54580.1 780.409  11
   2  -8  -3 54298.8 702.028  16
   2  -8  -3 53666.5 747.327  20
  -2  -8   2 92433.6 2227.41   5
  -2  -8   2 96048.8 1007.26  12
  -2  -8   2 93377.2 982.332  21
   2  -8  -2 95695.3 1127.95  11
   2  -8  -2 95787.3 1056.61  16
  -2  -8   2 94886.5 1009.92  17
   2  -8  -2 96008.1 1105.78  20
  -2  -8   1 202017. 3444.63   5
  -2  -8   1 209949. 1917.92  12
  -2  -8   1 209782. 1953.34  17
  -2  -8   1 208800. 1918.43  21
   2  -8  -1 210496. 2013.20  20
   2  -8  -1 200431. 3408.86   5
   2  -8   0 16052.3 328.920  15
  -2  -8   0 17186.5 891.386   5
  -2  -8   0 16183.8 298.292  12
  -2  -8   0 16410.0 324.187  21
   2  -8   0 16463.4 338.763  20
  -2  -8   0 16498.9 333.208  18
  -2  -8  -1 8849.44 644.990   5
   2  -8   1 8812.86 248.723  15
   2  -8   1 8616.98 219.494  20
  -2  -8  -1 8967.21 249.057  18
   2  -8   2 1872.45 119.897  15
   2  -8   2 1378.40 85.7848  12
  -2  -8  -2 1470.63 103.596  18
  -2  -8  -2 1375.37 265.040   5
   2  -8   3 20938.0 427.412  15
  -2  -8  -3 21896.2 416.625  18
  -2  -8  -4 16469.3 339.049  18
  -2  -8  -4 16502.1 304.559  17
  -2  -8  -5 58047.6 673.735  18
   2  -8   6 4184.68 119.665  15
  -2  -7   7 234.865 38.2238  13
   2  -7  -7 452.135 42.7024  19
  -2  -7   6 1193.85 83.8566  13
   2  -7  -5 45531.4 575.995  16
  -2  -7   5 44387.2 608.627  13
   2  -7  -5 44470.4 658.369  11
   2  -7  -4 99478.9 1059.22  16
  -2  -7   4 98896.1 1049.32  13
   2  -7  -4 98026.8 1123.72  20
   2  -7  -4 99338.6 1170.13  11
  -2  -7   3 72028.5 789.340  13
   2  -7  -3 73100.3 937.954  11
   2  -7  -3 73861.4 851.211  16
   2  -7  -3 71709.6 894.935  20
  -2  -7   2 55584.4 1573.16   5
  -2  -7   2 57586.6 678.040  12
  -2  -7   2 58523.1 681.501  21
   2  -7  -2 55714.8 1475.55   5
   2  -7  -2 58592.2 790.078  11
  -2  -7   2 58473.3 687.555  17
   2  -7  -1 98967.1 2081.77   5
  -2  -7   1 102497. 2134.95   5
  -2  -7   1 102335. 1035.74  12
  -2  -7   1 101881. 1058.18  21
   2  -7  -1 104276. 1117.64  20
  -2  -7   1 100888. 1066.04  17
   2  -7   0 90358.8 984.865  15
   2  -7   0 86228.5 2025.48   5
  -2  -7   0 89542.8 973.262  21
  -2  -7   0 87624.7 915.368  12
  -2  -7   0 88906.2 1945.94   5
   2  -7   0 89048.8 1010.91  11
   2  -7   0 89380.3 990.141  20
  -2  -7   0 88587.0 971.960  18
   2  -7   1 77767.8 872.675  20
   2  -7   1 79541.3 933.875  15
  -2  -7  -1 79222.9 1834.37   5
   2  -7   2 37254.8 512.197  12
  -2  -7  -2 35594.4 554.116  18
  -2  -7  -2 35732.6 1247.23   5
  -2  -7  -3 29152.6 495.811  18
  -2  -7  -4 134632. 1401.16  18
  -2  -7  -5 50438.7 637.507  18
  -2  -6   6 14626.3 321.481  14
  -2  -6   6 15375.5 322.407  13
   2  -6  -6 14635.1 315.007  11
  -2  -6   5 32887.9 505.336  13
  -2  -6   5 31187.3 505.501  14
   2  -6  -5 32148.0 541.791  11
  -2  -6   4 84044.1 924.091  13
   2  -6  -4 84501.8 914.101  16
   2  -6  -4 83364.2 980.838  20
  -2  -6   3 68885.4 761.671  21
  -2  -6   3 68597.7 751.382  13
   2  -6  -3 69886.7 789.255  16
   2  -6  -3 69330.8 839.161  20
  -2  -6   2 75843.3 1705.19   5
  -2  -6   2 76805.1 815.072  17
   2  -6  -2 75359.7 1582.07   5
  -2  -6   2 76605.3 807.480  12
   2  -6  -2 74892.1 900.585  11
   2  -6  -2 76483.5 881.453  20
  -2  -6   2 77419.2 821.018  21
  -2  -6   1 104011. 1963.53   5
  -2  -6   1 105779. 1038.28  12
   2  -6  -1 107034. 1138.51  11
   2  -6  -1 108574. 1080.54  15
   2  -6  -1 106917. 1114.86  20
  -2  -6   1 107642. 1076.44  21
  -2  -6   1 105466. 1065.95  17
   2  -6   0 368.835 47.4693  15
   2  -6   0 412.474 49.6048  11
   2  -6   0 453.148 139.406   5
  -2  -6   0 194.689 90.5774   5
  -2  -6   0 365.031 43.6513  18
  -2  -6  -1 8290.04 212.904  18
  -2  -6  -1 8767.71 523.122   5
   2  -6   1 8191.52 208.182  11
  -2  -6  -2 37207.0 543.334  18
  -2  -6  -2 37949.4 1189.19   5
  -2  -6  -2 36457.2 529.187  19
   2  -6   2 37806.9 489.707  12
   2  -6   3 14370.1 345.605  14
  -2  -6  -3 14570.4 321.375  18
  -2  -6  -4 25994.2 451.398  18
   2  -6   4 26069.5 499.988  14
   2  -6   5 36716.0 598.242  14
  -2  -6  -5 37131.3 527.966  18
   2  -6   7 6140.35 143.415  15
  -2  -5   8 17794.1 292.439  13
  -2  -5   7 15428.0 314.848  13
  -2  -5   7 15530.1 335.018  14
   2  -5  -5 519.168 117.875   2
  -2  -5   5 884.121 75.1097  13
   2  -5  -4 6216.25 193.849  20
   2  -5  -4 5746.36 161.580  16
   2  -5  -3 339792. 3534.59   2
   2  -5  -3 334258. 3878.69   5
  -2  -5   3 357497. 3315.00   7
  -2  -5   3 354235. 2984.80  21
   2  -5  -3 352983. 3065.15  20
   2  -5  -2 398919. 4237.71   5
   2  -5  -2 395157. 3730.14   2
  -2  -5   2 397537. 3559.77   7
   2  -5  -1 22837.7 760.600   5
  -2  -5   1 23634.0 761.879   5
   2  -5   0 14109.9 638.099   5
  -2  -5   0 14120.5 578.153   5
  -2  -5  -1 24105.5 786.253   5
   2  -5   1 23148.8 486.943   6
   2  -5   2 90460.4 1289.47   6
   2  -5   2 91293.2 1013.64  14
  -2  -5  -2 90902.7 973.613  18
  -2  -5  -2 92841.3 1740.06   5
  -2  -5  -2 91821.5 957.365  19
  -2  -5  -2 90306.7 1291.11   8
   2  -5   3 55688.5 1082.49   6
   2  -5   3 54976.1 751.896  14
  -2  -5  -3 55143.1 699.336  18
  -2  -5  -3 56615.0 671.482  19
  -2  -5  -3 54084.1 1051.27   8
   2  -5   4 11747.7 318.447  14
   2  -5   4 11675.4 525.989   6
  -2  -5  -4 11765.3 278.167  18
   2  -5   5 9639.50 289.301  14
  -2  -5  -5 9949.06 239.336  18
   2  -5   6 37440.7 574.646  14
  -2  -4   8 4186.42 151.111  14
  -2  -4   8 4198.41 139.036  13
  -2  -4   7 12993.8 293.717  13
  -2  -4   6 83592.3 968.949  13
  -2  -4   4 15640.3 497.054   7
   2  -4  -4 16728.5 313.658  20
   2  -4  -3 393758. 3948.80   5
   2  -4  -3 391107. 3923.73   2
  -2  -4   3 395897. 3714.06   7
  -2  -4   2 59828.8 1207.32   5
   2  -4  -2 57839.4 925.147   2
   2  -4  -1 109455. 1645.93   5
  -2  -4   1 112467. 1666.36   5
  -2  -4   0 275182. 3058.75   5
  -2  -4  -1 55171.0 1080.52   5
  -2  -4  -1 51089.5 833.974   8
   2  -4   2 94261.2 1318.80   6
  -2  -4  -2 96772.2 1375.31   8
   2  -4   3 45687.9 960.426   6
  -2  -4  -3 43877.4 570.563  18
  -2  -4  -3 44951.9 971.107   8
   2  -4   3 44670.5 627.665  14
   2  -4   4 136354. 2064.95   6
   2  -4   4 133777. 1445.56  14
  -2  -4  -4 133668. 1337.77  18
  -2  -4  -4 134441. 2043.38   8
   2  -4   5 138895. 1496.71  14
   2  -4   5 132379. 2213.63   6
  -2  -4  -5 134426. 2156.11   8
   2  -4   6 63850.8 834.433  14
   2  -4   7 4445.34 146.130  14
  -2  -3   9 16555.6 252.672  14
  -2  -3   8 443.256 52.2457  13
  -2  -3   7 140.393 43.6652  13
  -2  -3   6 49991.9 656.059   4
  -2  -3   6 49162.9 659.312  13
   2  -3  -6 49157.7 1291.26   1
   2  -3  -5 42305.4 1087.73   1
  -2  -3   5 41592.2 560.954   4
  -2  -3   4 43844.8 872.236   7
   2  -3  -4 42623.5 978.626   1
   2  -3  -3 46338.8 815.946   5
  -2  -3   3 46092.7 800.741   7
  -2  -3   2 566361. 5276.93   5
   2  -3  -2 555769. 5039.07   2
   2  -3  -2 559150. 5007.63   5
   2  -3  -1 250785. 2670.40   5
  -2  -3   1 258674. 2694.28   5
   2  -3  -1 255653. 2547.73   2
  -2  -3   0 263651. 2729.73   5
  -2  -3  -1 327599. 3168.74   8
   2  -3   2 60891.7 998.087   6
  -2  -3  -2 63251.1 1054.61   8
   2  -3   3 180928. 1733.47  14
   2  -3   3 181627. 2274.41   6
   2  -3   4 158766. 1618.61  14
   2  -3   4 157187. 2279.31   6
   2  -3   5 83421.7 1693.09   6
   2  -3   5 81481.5 1016.04  14
   2  -3   6 7076.42 232.631  14
   2  -3   7 23301.0 379.065  14
  -2  -2   9 318.143 39.4977  14
  -2  -2   8 29356.8 432.248  13
  -2  -2   7 4614.69 170.177  13
  -2  -2   7 4588.69 170.787   4
  -2  -2   6 33561.0 504.176  13
   2  -2  -6 35102.1 1084.39   1
  -2  -2   6 33953.2 525.516   4
   2  -2  -5 1229.76 183.557   1
  -2  -2   5 1102.92 151.530   7
  -2  -2   5 911.425 71.1696   4
  -2  -2   4 335833. 3424.99   7
   2  -2  -4 329658. 3654.59   1
   2  -2  -3 303844. 3178.52   1
   2  -2  -2 711612. 5938.34   5
  -2  -2   1 473257. 4187.20   5
   2  -2  -1 467284. 4272.48   2
  -2  -2   0 26048.7 521.572   8
  -2  -2  -1 112552. 1401.59   8
   2  -2   2 208623. 2296.08   6
   2  -2   3 49181.3 990.204   6
  -2  -2  -3 47677.8 1008.99   9
   2  -2   4 180335. 2416.10   6
  -2  -2  -4 176620. 2414.10   9
   2  -2   5 12914.8 630.089   6
   2  -2   5 12252.2 312.757  14
   2  -2   5 11729.0 249.395   4
  -2  -2  -5 12437.1 602.761   9
   2  -2   6 9125.84 263.993  14
   2  -2   7 1139.21 78.0677  14
  -2  -1   8 51699.9 619.732  13
  -2  -1   8 50839.5 650.841   4
  -2  -1   7 11982.0 274.817  13
  -2  -1   7 11846.5 294.824   4
  -2  -1   6 42379.1 616.419   4
  -2  -1   6 42669.5 575.752  13
  -2  -1   5 102276. 1640.50   7
  -2  -1   5 108990. 1128.97   4
  -2  -1   1 72519.6 784.199   5
  -2  -1  -4 112968. 1884.89   9
   2  -1   5 60065.2 726.003   4
  -2  -1  -5 60170.8 1421.01   9
   2  -1   6 6053.65 206.782  14
   2  -1   6 6117.69 187.115   4
   2  -1   7 1705.93 91.6273  14
  -2  -1  -8 4727.09 129.543  10
  -2   0   8 34820.2 521.041   4
  -2   0   7 11306.1 256.808  13
  -2   0   7 11506.5 295.981   4
  -2   0   6 14602.4 289.766  13
   2   0  -6 14975.7 700.594   1
  -2   0   6 14548.1 328.807   4
  -2   0   5 1889.54 193.703   7
   2   0  -5 1779.21 218.343   1
  -2   0   5 1994.22 105.869   4
   2   0  -4 69470.5 1275.21   1
  -2   0   4 69415.1 1150.96   7
   2   0  -3 1389.18 143.775   1
   2   0  -2 67666.2 1018.61   2
   2   0  -1 62074.1 914.625   2
  -2   0   0 141536. 1580.26   8
  -2   0  -1 22776.4 518.393   8
  -2   0  -2 21722.9 562.093   9
   2   0   3 999999. 8750.36   6
  -2   0  -3 977676. 8850.28   9
   2   0   4 141914. 2139.89   6
  -2   0  -4 143298. 2174.57   9
   2   0   5 123.975 79.8938   6
   2   0   5 203.678 42.1639   4
  -2   0  -5 173.934 84.3930   9
   2   0   6 100839. 1100.74   4
   2   0   7 4618.11 150.617   4
  -2   0  -8 27912.1 379.649  10
  -2   1   9 47799.5 540.719   4
  -2   1   8 51248.3 681.426   4
  -2   1   7 16789.4 367.048   4
  -2   1   6 41689.2 540.845  13
   2   1  -6 42005.9 1221.28   1
  -2   1   5 111407. 1724.76   7
   2   1  -5 111068. 1856.66   1
   2   1  -4 31654.6 825.041   1
  -2   1   4 32218.9 732.004   7
   2   1  -3 138507. 1793.79   1
   2   1  -2 238037. 2484.11   2
   2   1  -1 71130.3 1003.03   2
  -2   1   0 135336. 1529.54   8
  -2   1  -1 36405.1 683.032   8
  -2   1  -2 133638. 1707.73   9
   2   1   3 120461. 1705.73   6
  -2   1  -3 125670. 1818.88   9
   2   1   4 110976. 1817.56   6
  -2   1  -4 113169. 1895.55   9
   2   1   5 60322.7 764.599   4
   2   1   5 59462.8 1410.10   6
  -2   1  -5 61260.0 1440.44   9
   2   1   6 5903.52 197.571   4
   2   1   7 2000.18 103.351   4
  -2   1  -8 4628.55 130.564  10
  -2   2   9 258.177 34.2448   4
  -2   2   7 4131.65 177.647   4
   2   2  -6 32025.4 1053.40   1
  -2   2   6 32442.6 539.237   4
  -2   2   5 737.268 129.479   7
   2   2  -5 1101.49 178.522   1
  -2   2   5 903.893 75.7529   4
   2   2  -4 332159. 3670.21   1
  -2   2   4 332170. 3443.31   7
   2   2  -3 307279. 3212.58   1
   2   2  -2 713455. 6284.63   2
   2   2  -1 471348. 4287.34   2
  -2   2   0 27599.9 540.571   8
  -2   2  -1 111673. 1406.24   8
   2   2   2 209210. 2291.76   6
   2   2   3 48567.0 981.062   6
  -2   2  -3 48286.4 1032.37   9
   2   2   4 167866. 2377.35   6
  -2   2  -4 169236. 2452.87   9
   2   2   5 12059.0 610.518   6
  -2   2  -5 12910.8 630.840   9
   2   2   6 8679.34 245.156   4
   2   2   7 1113.39 79.4093   4
   2   2   8 419.337 35.2398   4
  -2   2  -8 393.677 37.0913  10
  -2   3   9 16624.9 252.149   4
  -2   3   8 351.713 53.1326   4
  -2   3   7 5.79760 36.8332   4
   2   3  -6 48397.4 1301.23   1
  -2   3   6 49217.3 705.827   4
  -2   3   5 42893.1 607.962   4
   2   3  -5 42658.2 1118.47   1
  -2   3   4 43749.2 889.990   7
   2   3  -4 43491.2 1005.41   1
  -2   3   3 46992.1 823.678   7
   2   3  -2 552816. 5001.74   2
   2   3  -1 248727. 2509.64   2
  -2   3  -1 326229. 3174.52   8
   2   3   2 61416.9 992.570   6
   2   3   3 176235. 2224.24   6
   2   3   4 155398. 2269.42   6
  -2   3  -4 162206. 2320.18   9
   2   3   5 81391.9 961.125   4
   2   3   5 79314.7 1657.74   6
   2   3   6 7160.88 223.232   4
   2   3   8 3416.51 92.5130   4
  -2   4   9 4786.55 107.700   4
  -2   4   8 4468.00 155.129   4
  -2   4   7 13373.9 319.051   4
  -2   4   6 82201.0 999.785   4
  -2   4   5 4567.75 173.970   4
  -2   4   4 15366.1 502.473   7
  -2   4   3 400090. 3769.88   7
   2   4  -3 391010. 3951.54   2
   2   4  -2 57481.2 929.599   2
  -2   4  -1 51058.4 846.602   8
   2   4   2 94158.8 1308.22   6
  -2   4  -2 95236.4 1394.41   8
   2   4   3 44484.2 946.094   6
   2   4   4 132440. 2034.96   6
   2   4   5 136939. 1425.47   4
   2   4   6 64537.9 807.872   4
   2   4   7 4797.85 152.845   4
  -2   4  -7 5002.66 148.069  10
  -2   5   8 18318.3 308.643   4
  -2   5   7 16104.2 339.169   4
  -2   5   6 95342.8 1097.84   4
  -2   5   5 495.251 61.5164   4
  -2   5   4 6143.97 186.650   4
   2   5   5 9391.65 254.768   4
   2   5   6 37597.6 543.648   4
   2   5   7 11985.0 231.965   4
  -2   6   8 10447.2 184.950   4
  -2   6   7 26071.6 415.618   4
  -2   6   6 15216.1 327.990   4
  -2   6   5 31342.2 499.819   4
   2   6   4 26105.3 439.730   4
   2   6   5 37409.1 549.838   4
   2   6   6 7010.76 190.339   4
   2   6   7 6241.26 138.370   4
   2   7   4 132937. 1338.69   4
   2   7   5 49555.6 628.591   4
   2   7   6 36553.3 457.528   4
   3 -12  -1 13328.6 203.390  16
   3 -12  -1 13897.9 205.475  12
   3 -11  -4 25846.5 334.977  12
   3 -11  -3 14827.5 248.067  16
   3 -11  -2 11231.3 225.956  16
   3 -11  -1 17682.6 300.269  16
   3 -11  -1 18421.2 315.384  12
   3 -11   0 1779.16 81.9152  16
   3 -11   0 1796.12 81.7626  12
  -3 -11  -1 16818.0 274.315  17
   3 -10  -4 24048.6 347.463  16
   3 -10  -4 25643.3 383.562  19
   3 -10  -3 6926.98 185.833  16
   3 -10  -3 6584.08 183.056  19
   3 -10  -2 8701.22 232.200  20
   3 -10  -2 8370.24 219.741  16
  -3 -10   1 9998.13 235.369  17
   3 -10  -1 9844.92 242.369  20
  -3 -10   0 50290.6 601.912  21
   3 -10   0 51099.3 643.978  12
   3 -10   0 49822.0 638.414  16
  -3 -10  -1 1486.48 88.7697  17
   3 -10   1 1487.32 82.0677  16
  -3 -10  -2 44258.8 544.794  17
  -3 -10  -3 8335.19 161.203  17
   3  -9  -6 4934.95 132.439  19
   3  -9  -5 20435.8 358.530  11
   3  -9  -4 3095.79 121.450  16
   3  -9  -4 3113.56 146.547  11
   3  -9  -3 12995.3 323.899  11
   3  -9  -3 12918.0 282.460  16
   3  -9  -2 30073.3 510.195  20
   3  -9  -2 29673.8 477.098  16
   3  -9  -1 16030.8 347.225  20
  -3  -9   1 15592.8 306.498  21
  -3  -9   1 15323.8 318.726  17
  -3  -9   0 23963.9 403.587  21
   3  -9   0 23402.0 410.390  20
  -3  -9   0 22660.9 406.357  17
   3  -9   1 11163.2 252.870  12
  -3  -9  -1 10398.7 259.473  21
  -3  -9  -2 6019.23 190.464  21
  -3  -9  -2 6299.14 185.997  17
  -3  -9  -3 25323.8 399.624  21
  -3  -9  -3 24580.7 358.034  17
   3  -9   4 11622.1 229.095  15
  -3  -9  -4 11997.7 225.111  21
   3  -8  -7 193.172 24.1079  19
   3  -8  -6 16730.3 293.952  11
   3  -8  -5 31712.6 423.652  16
   3  -8  -5 32633.4 524.262  11
   3  -8  -4 4415.06 154.100  16
   3  -8  -4 4751.16 196.916  11
   3  -8  -4 4615.28 179.924  20
   3  -8  -3 5315.26 212.611  11
   3  -8  -3 5253.14 200.762  20
   3  -8  -3 5165.03 179.138  16
  -3  -8   2 127598. 1271.68  21
   3  -8  -2 123872. 1372.98  20
  -3  -8   2 124808. 1286.47  17
  -3  -8   1 119487. 1236.29  21
   3  -8  -1 118331. 1309.00  11
   3  -8  -1 117724. 1303.24  20
  -3  -8   0 66762.1 1795.11   5
   3  -8   0 68388.2 865.149  20
  -3  -8   0 69663.6 851.628  17
   3  -8   1 2539.37 117.310  12
  -3  -8  -1 2669.95 137.438  21
   3  -8   1 2529.10 120.873  20
  -3  -8  -1 2544.22 127.582  17
   3  -8   2 839.554 82.1322  15
  -3  -8  -2 1164.86 85.3045  17
   3  -8   3 22707.5 422.511  15
  -3  -8  -3 22759.0 364.826  17
   3  -8   4 44123.7 592.143  15
   3  -8   5 7685.87 169.602  15
  -3  -7   7 47154.8 536.114  13
  -3  -7   6 4436.23 147.787  13
   3  -7  -6 4554.08 165.205  11
  -3  -7   5 8543.02 220.495  13
   3  -7  -5 8650.45 268.099  11
  -3  -7   4 87830.3 941.916  13
   3  -7  -4 89478.8 1102.95  11
   3  -7  -4 85986.7 1039.50  20
   3  -7  -4 87839.9 960.007  16
   3  -7  -3 86060.3 968.666  16
   3  -7  -3 85739.9 1078.11  11
  -3  -7   3 86633.8 942.416  21
   3  -7  -3 85761.8 1038.22  20
  -3  -7   2 18953.7 860.521   5
   3  -7  -2 19237.7 414.180  11
  -3  -7   2 19744.8 357.255  17
  -3  -7   2 19821.5 358.414  21
  -3  -7   1 77986.3 1833.35   5
   3  -7  -1 80746.3 979.312  11
  -3  -7   1 79981.8 920.507  21
   3  -7  -1 80677.3 974.191  20
   3  -7   0 675.781 71.0166  15
   3  -7   0 791.398 74.5375  11
  -3  -7   0 869.648 192.194   5
  -3  -7   0 785.217 74.7186  21
  -3  -7   0 702.172 67.5426  17
   3  -7   1 31114.5 523.955  15
  -3  -7  -1 32690.7 1180.31   5
  -3  -7  -1 32798.5 502.911  17
   3  -7   2 64593.8 856.424  15
  -3  -7  -2 65376.2 1745.17   5
  -3  -7  -2 63554.4 823.246  18
  -3  -7  -2 65571.6 789.885  17
   3  -7   3 8421.00 258.062  15
  -3  -7  -3 8652.27 243.944  18
  -3  -7  -3 8515.07 214.213  17
   3  -7   4 17315.9 362.801  15
   3  -7   5 5845.67 173.263  15
  -3  -6   7 13958.2 268.385  13
  -3  -6   6 3437.11 141.116  13
   3  -6  -6 3176.18 150.135  11
  -3  -6   5 5732.57 183.629  13
   3  -6  -5 5699.80 194.757  20
   3  -6  -4 95845.1 1102.04  20
   3  -6  -4 97134.6 1026.39  16
  -3  -6   3 41509.0 551.822  21
   3  -6  -3 40240.4 609.861  20
   3  -6  -2 190721. 1877.70  20
   3  -6  -2 191473. 1898.17  11
  -3  -6   2 192796. 1803.59  21
  -3  -6   2 194086. 1789.46  17
  -3  -6   1 14629.6 687.904   5
   3  -6  -1 15054.0 331.899  11
  -3  -6   1 14738.7 307.100  21
  -3  -6   1 15013.9 295.605  17
   3  -6   0 120746. 1253.07  15
   3  -6   0 118914. 1240.43  11
  -3  -6   0 120893. 1225.57  17
   3  -6   1 56872.0 747.218  15
  -3  -6  -1 57951.5 1480.04   5
  -3  -6  -1 55460.4 721.954  18
  -3  -6  -1 56521.0 703.491  17
   3  -6   2 22606.1 439.883  15
  -3  -6  -2 23223.2 967.769   5
  -3  -6  -2 23394.3 393.890  17
  -3  -6  -2 22479.9 414.607  18
  -3  -6  -3 6658.91 210.139  18
  -3  -6  -3 6761.89 541.205   5
  -3  -6  -3 6605.90 184.068  17
   3  -6   6 53064.1 585.896  15
  -3  -5   8 6573.64 155.215  13
   3  -5  -7 21173.6 363.135  11
  -3  -5   6 50493.6 670.361  13
   3  -5  -5 23529.6 418.526  20
   3  -5  -4 18.7109 51.2658   2
   3  -5  -4 177.384 41.1808  20
   3  -5  -3 171010. 1672.73  20
   3  -5  -3 172111. 2244.13   2
  -3  -5   3 167549. 1990.33   7
  -3  -5   2 75295.0 1494.48   5
  -3  -5   2 75799.4 825.588  17
   3  -5  -1 1622.08 89.2125  15
  -3  -5   1 1615.53 202.571   5
  -3  -5   1 1652.81 92.9655  21
  -3  -5   1 1604.43 86.0561  17
   3  -5   0 111238. 1143.43  15
   3  -5   0 109328. 1125.53  11
  -3  -5   0 109670. 1876.87   5
  -3  -5   0 109265. 1108.13  17
   3  -5   1 73934.6 865.623  15
   3  -5   1 70661.5 1139.14   6
  -3  -5  -1 74306.6 1568.41   5
  -3  -5  -1 71722.9 833.942  18
  -3  -5  -1 72570.8 808.372  17
   3  -5   2 84329.7 1372.89   6
  -3  -5  -2 87336.3 1812.19   5
  -3  -5  -2 84733.2 910.580  17
  -3  -5  -2 84335.9 955.686  18
  -3  -5  -3 12478.2 285.551  18
  -3  -5  -3 11122.0 645.094   5
  -3  -5  -4 3891.19 145.939  18
   3  -5   6 22940.4 351.375  15
  -3  -4   8 75324.8 798.477  13
  -3  -4   7 70350.2 827.442  13
  -3  -4   5 3845.98 280.457   7
   3  -4  -5 4261.46 341.051   2
   3  -4  -5 4687.47 164.652  20
  -3  -4   4 25440.7 686.885   7
   3  -4  -4 26732.7 822.753   2
   3  -4  -4 27427.7 443.402  20
  -3  -4   3 34630.7 465.867  21
   3  -4  -3 34071.3 868.772   2
  -3  -4   2 309652. 3368.32   5
  -3  -4   2 306686. 2659.80  21
   3  -4  -2 307029. 3261.29   2
  -3  -4   1 181814. 2335.56   5
  -3  -4   0 11334.7 482.355   5
  -3  -4  -1 106260. 1738.41   5
  -3  -4  -1 104110. 1063.57  18
  -3  -4  -1 103142. 1032.53  17
   3  -4   2 65507.9 1184.98   6
   3  -4   2 65124.2 741.496   3
  -3  -4  -2 65801.1 757.982  10
  -3  -4  -2 68289.4 1455.87   5
  -3  -4  -2 64224.6 760.023  18
  -3  -4  -2 64605.4 1240.74   8
   3  -4   3 73879.7 1389.19   6
   3  -4   3 75052.2 917.822  14
  -3  -4  -3 74563.0 872.017  10
  -3  -4  -3 74179.5 849.997  18
  -3  -4  -3 74294.3 1454.48   8
   3  -4   4 3296.91 297.027   6
   3  -4   4 3789.39 170.401  14
  -3  -4  -4 3916.06 160.068  10
  -3  -4  -4 3682.02 316.590   8
  -3  -4  -5 34801.4 523.748  10
  -3  -3   8 1499.09 83.2199  13
  -3  -3   7 33667.5 505.855  13
  -3  -3   7 32467.4 485.819   4
   3  -3  -6 38319.3 1148.06   2
  -3  -3   6 38922.4 573.510   4
  -3  -3   5 7574.98 397.969   7
   3  -3  -5 7831.36 477.241   2
  -3  -3   5 7320.38 215.563   4
   3  -3  -4 9206.32 471.002   2
   3  -3  -4 9206.43 224.025  20
  -3  -3   4 9371.97 229.456   4
  -3  -3   4 9028.96 399.896   7
   3  -3  -3 178133. 2280.59   2
  -3  -3   3 174782. 1590.87  21
   3  -3  -2 216041. 2577.01   2
  -3  -3   1 155252. 1875.66   5
  -3  -3   0 44657.7 889.317   5
  -3  -3  -1 56850.3 1073.19   8
   3  -3   2 66017.7 770.927  14
   3  -3   2 65733.9 1188.41   6
  -3  -3  -2 63806.4 752.192  10
  -3  -3  -2 64827.6 728.236  18
  -3  -3  -2 64231.6 1244.64   8
   3  -3   3 64887.3 809.132  14
   3  -3   3 65122.0 1303.68   6
  -3  -3  -3 64442.7 792.352  10
  -3  -3  -3 65501.6 1364.85   8
   3  -3   4 18874.3 722.496   6
   3  -3   4 18330.4 381.033  14
  -3  -3  -4 18200.0 376.253  10
  -3  -3  -4 18464.8 732.921   8
   3  -3   5 32341.4 524.603  14
  -3  -3  -5 33975.1 538.617  10
  -3  -3  -6 17722.9 334.992  10
  -3  -2   8 1971.41 95.2910  13
  -3  -2   7 45872.7 619.585  13
  -3  -2   7 45779.7 639.351   4
   3  -2  -6 49732.3 1354.27   2
  -3  -2   6 49177.1 687.244   4
  -3  -2   5 16020.4 594.357   7
   3  -2  -5 15667.9 690.150   2
  -3  -2   5 15563.8 329.614   4
   3  -2  -4 63351.7 1310.28   2
  -3  -2   4 61607.5 1147.30   7
   3  -2  -3 32377.7 829.434   2
   3  -2  -2 276468. 3069.35   2
  -3  -2   1 411479. 3718.08   5
  -3  -2   0 27578.3 588.780   5
  -3  -2  -1 5796.06 315.368   8
  -3  -2  -2 17445.5 318.180  10
  -3  -2  -2 16937.4 601.884   8
   3  -2   3 5943.64 186.722  14
   3  -2   3 5364.54 350.020   6
  -3  -2  -3 6129.86 395.122   8
   3  -2   4 28749.0 916.721   6
   3  -2   4 28921.0 480.590  14
  -3  -2  -4 28215.4 936.968   8
   3  -2   5 50983.7 681.320  14
   3  -2   5 50586.7 614.849   4
  -3  -2  -6 14590.6 319.120  10
  -3  -2  -7 19585.6 307.336  10
  -3  -1   8 32878.9 446.832  13
  -3  -1   8 32425.2 478.857   4
  -3  -1   7 15697.5 314.191  13
  -3  -1   7 15731.3 347.785   4
  -3  -1   6 38798.4 605.407   4
  -3  -1   5 12050.1 519.781   7
  -3  -1   5 12825.5 299.603   4
  -3  -1  -3 2818.85 269.190   8
  -3  -1  -4 77086.2 1634.98   8
   3  -1   5 9489.56 234.812   4
  -3  -1  -6 17881.6 369.267  10
  -3  -1  -7 16121.5 288.720  10
  -3   0   8 169739. 1542.03  13
  -3   0   8 169347. 1638.59   4
  -3   0   7 65499.5 767.452  13
  -3   0   7 64739.3 850.464   4
  -3   0   6 25372.6 828.997   7
  -3   0   6 24866.0 466.555   4
   3   0  -6 24763.6 952.346   2
  -3   0   5 80182.4 1456.03   7
   3   0  -5 80521.0 1633.35   2
  -3   0   5 79510.4 943.784   4
   3   0  -4 27302.7 827.965   2
   3   0  -3 83112.4 1408.01   2
   3   0  -2 23277.4 656.067   2
   3   0  -1 71622.6 1187.20   2
  -3   0   0 347952. 3530.23   8
  -3   0  -1 48077.8 963.739   8
  -3   0  -2 11734.6 498.054   8
   3   0   3 15812.2 599.737   6
   3   0   3 15552.3 320.685   3
   3   0   4 2989.38 292.362   6
  -3   0  -4 3286.27 319.049   8
   3   0   5 62346.9 774.124   4
   3   0   6 44470.8 582.929   4
  -3   0  -7 437.121 49.2679  10
  -3   1   9 18471.9 273.715   4
  -3   1   8 33140.2 504.245   4
  -3   1   7 15748.1 292.311  13
   3   1  -6 39825.4 1224.21   2
  -3   1   5 12054.2 521.401   7
   3   1  -5 12081.6 606.587   2
  -3   1   5 12432.0 298.455   4
   3   1  -4 49732.7 1160.68   2
   3   1  -3 28329.1 766.862   2
   3   1  -2 46559.2 981.572   2
   3   1  -1 113386. 1614.18   2
  -3   1   0 221267. 2503.90   8
  -3   1  -1 66860.7 1186.05   8
  -3   1  -2 60122.9 1201.25   8
   3   1   3 2681.86 245.904   6
  -3   1  -3 2728.30 270.341   8
   3   1   4 75026.6 1548.47   6
  -3   1  -4 75291.3 1633.69   8
   3   1   6 17806.7 338.481   4
  -3   1  -6 17784.3 372.388  10
  -3   1  -7 16182.6 293.571  10
  -3   2   8 2024.01 111.333   4
  -3   2   7 45755.8 680.294   4
   3   2  -6 48771.0 1360.92   2
  -3   2   6 48050.0 708.415   4
  -3   2   5 16685.6 616.947   7
   3   2  -5 16766.5 722.424   2
  -3   2   5 16397.9 353.487   4
   3   2  -4 61402.9 1320.37   2
  -3   2   4 63132.6 764.032   4
  -3   2   4 62504.0 1167.04   7
   3   2  -3 33316.7 860.858   2
   3   2  -2 276976. 3107.46   2
  -3   2  -1 5580.51 316.276   8
  -3   2  -2 17728.8 325.863  10
  -3   2  -2 17662.6 619.956   8
   3   2   3 6784.54 390.697   6
  -3   2  -3 6024.68 399.480   8
   3   2   4 29838.1 939.641   6
  -3   2  -4 29621.2 983.128   8
   3   2   6 14983.9 307.876   4
  -3   2  -6 14483.3 324.455  10
   3   2   7 19546.6 297.595   4
  -3   2  -7 20096.3 320.688  10
  -3   3   9 12763.2 202.244   4
  -3   3   8 1469.04 92.2341   4
  -3   3   7 33000.8 547.648   4
   3   3  -6 36691.7 1151.79   2
  -3   3   6 38515.1 613.353   4
  -3   3   5 7654.47 410.298   7
   3   3  -5 7625.13 484.139   2
  -3   3   5 7323.03 230.823   4
   3   3  -4 9027.27 474.925   2
  -3   3   4 9068.47 237.121   4
  -3   3   4 9180.32 410.794   7
   3   3  -3 170479. 2288.70   2
   3   3  -2 218529. 2614.76   2
  -3   3  -1 56240.6 1086.65   8
   3   3   2 65833.5 1192.76   6
  -3   3  -2 64332.9 759.355  10
  -3   3  -2 64398.2 1273.37   8
   3   3   3 66904.8 1317.29   6
  -3   3  -3 64565.2 1396.48   8
   3   3   4 18016.5 708.468   6
  -3   3  -4 16891.4 726.815   8
   3   3   5 32608.8 525.890   4
  -3   3  -5 32863.4 547.203  10
  -3   3  -6 17916.8 351.861  10
   3   3   7 11477.0 209.924   4
  -3   3  -7 11503.4 209.193  10
  -3   4   8 76802.3 838.276   4
  -3   4   7 68690.5 861.396   4
  -3   4   6 57564.7 789.740   4
  -3   4   5 4545.31 311.006   7
   3   4  -5 3880.24 341.026   2
  -3   4   5 4458.37 178.644   4
  -3   4   4 25411.0 695.837   7
   3   4  -4 25376.3 822.061   2
  -3   4   4 26621.3 442.740   4
   3   4  -3 34705.5 885.637   2
   3   4  -2 299542. 3251.76   2
  -3   4  -1 104437. 1572.34   8
   3   4   2 65505.5 1180.64   6
  -3   4  -2 65348.0 769.486  10
  -3   4  -2 63614.9 1264.82   8
   3   4   3 74631.1 1395.86   6
  -3   4  -3 74789.4 887.647  10
  -3   4  -3 74605.2 1486.53   8
  -3   4  -4 3909.00 165.846  10
  -3   4  -4 3550.45 322.855   8
   3   4   5 34010.3 531.917   4
  -3   4  -5 35181.3 545.796  10
   3   4   6 1145.43 81.0669   4
  -3   4  -6 1366.49 83.0550  10
   3   4   7 5376.71 127.546   4
  -3   5   8 6353.60 157.538   4
  -3   5   7 21595.8 389.452   4
  -3   5   6 49218.8 695.006   4
  -3   5   5 21911.3 417.081   4
  -3   5   4 1120.60 82.1637   4
   3   5   5 5455.02 182.371   4
   3   5   6 24491.2 374.002   4
  -3   6   7 13135.1 258.241   4
  -3   6   6 3157.46 137.029   4
   3   6   4 18874.5 361.687   4
   3   6   5 8231.78 212.270   4
   3   6   6 55225.2 600.488   4
   3   7   4 17675.7 324.326   4
   3   7   5 5830.21 155.309   4
   4 -11  -3 4496.59 107.933  12
   4 -11  -2 880.634 49.1126  16
   4 -11  -2 1043.58 55.0985  12
   4 -11  -1 18846.1 265.564  16
   4 -10  -4 1594.53 61.0008  16
   4 -10  -3 26821.3 365.749  16
   4 -10  -2 5316.78 158.946  20
   4 -10  -2 4976.21 147.540  16
  -4 -10   1 343.666 38.2472  21
  -4 -10   0 42178.0 494.185  21
   4 -10   0 41589.0 515.309  16
  -4 -10  -1 29634.7 378.649  21
   4  -9  -5 16453.7 288.133  11
   4  -9  -4 3688.68 115.888  16
   4  -9  -4 3905.10 150.258  11
   4  -9  -3 17143.1 352.913  11
   4  -9  -3 17522.8 311.941  16
   4  -9  -2 69920.6 847.793  11
  -4  -9   2 68489.9 764.326  21
   4  -9  -2 69692.1 843.244  20
   4  -9  -2 68649.2 803.529  16
  -4  -9   1 16841.9 308.029  21
   4  -9  -1 16460.1 334.006  20
   4  -9  -1 16201.2 323.139  16
  -4  -9   0 220.724 43.7433  21
  -4  -9  -1 23367.5 381.663  21
  -4  -9  -2 4955.08 151.554  21
  -4  -9  -3 46340.3 525.278  21
   4  -8  -6 4170.55 127.766  11
   4  -8  -5 2035.02 111.238  11
   4  -8  -4 3604.95 162.800  11
   4  -8  -4 3708.83 152.861  20
   4  -8  -4 3296.21 121.208  16
   4  -8  -3 32578.2 555.036  11
   4  -8  -3 33419.1 540.454  20
   4  -8  -3 32609.6 487.837  16
   4  -8  -2 18400.5 389.367  11
  -4  -8   2 18189.0 338.643  21
  -4  -8   1 35920.9 532.562  21
   4  -8  -1 36008.8 560.357  11
   4  -8  -1 36264.3 575.635  20
   4  -8   0 7234.49 223.024  20
  -4  -8   0 7215.38 218.983  21
  -4  -8  -1 3932.91 145.620  17
   4  -8   2 48917.6 629.087  15
   4  -8   3 13453.5 256.982  15
   4  -8   4 16889.5 246.929  15
   4  -7  -6 2228.14 110.797  11
   4  -7  -5 12451.9 314.828  11
   4  -7  -5 11801.5 267.652  20
   4  -7  -4 12041.2 326.237  11
   4  -7  -4 11252.5 288.328  20
   4  -7  -4 11798.0 251.668  16
   4  -7  -3 23652.9 475.681  11
   4  -7  -3 22433.3 444.029  20
   4  -7  -2 16784.7 381.650  11
   4  -7  -1 53696.1 731.514  11
   4  -7   0 60002.5 728.111  11
  -4  -7   0 59253.6 735.136  17
   4  -7   1 69609.7 848.315  15
  -4  -7  -1 67879.5 870.618  21
  -4  -7  -1 68398.1 809.960  17
   4  -7   2 2458.94 128.730  15
   4  -7   3 10214.2 246.656  15
   4  -7   4 15460.3 269.816  15
  -4  -7  -5 6377.40 136.001  21
  -4  -6   7 4298.92 123.943  13
   4  -6  -7 4203.14 130.455  11
  -4  -6   6 10436.7 231.713  13
   4  -6  -6 10473.6 271.820  11
  -4  -6   5 19953.4 349.870  13
   4  -6  -5 19441.6 369.494  20
   4  -6  -4 120479. 1310.26  20
   4  -6  -4 119478. 1204.31  16
  -4  -6   3 18988.5 357.068  21
   4  -6  -3 20058.9 413.993  20
   4  -6  -2 27949.1 505.518  11
  -4  -6   2 27056.1 449.672  21
  -4  -6   1 56709.0 747.165  21
   4  -6  -1 58429.7 766.055  11
   4  -6   0 147839. 1485.67  15
   4  -6   0 146427. 1448.10  11
  -4  -6   0 148109. 1517.02  21
  -4  -6   0 144293. 1459.47  17
   4  -6   1 16620.4 354.987  15
  -4  -6  -1 16518.0 323.806  17
   4  -6   2 57199.7 757.907  15
   4  -6   3 1220.11 89.7102  15
   4  -6   4 6452.80 179.357  15
   4  -6   5 2253.05 75.9905  15
  -4  -5   7 45714.8 567.424  13
   4  -5  -7 47980.4 604.718  11
  -4  -5   6 36340.3 514.518  13
   4  -5  -5 29080.1 467.601   3
   4  -5  -5 30227.2 481.452  20
   4  -5  -4 33995.9 514.886   3
   4  -5  -4 34673.6 550.243  20
  -4  -5   3 28416.9 447.045  21
  -4  -5   2 38656.5 556.517  21
  -4  -5   1 1246.38 90.1496  21
   4  -5  -1 1355.56 93.2038  11
   4  -5   0 245429. 2253.60  15
  -4  -5   0 244149. 2289.07  21
  -4  -5   0 247276. 2232.17  17
   4  -5   1 255744. 2343.50  15
  -4  -5  -1 251723. 2281.90  17
   4  -5   2 58195.9 761.772  15
  -4  -5  -2 58005.9 707.904  10
   4  -5   3 31832.8 513.007  15
   4  -5   4 60617.1 733.921  15
   4  -5   5 29783.2 378.801  15
  -4  -4   8 4495.71 121.939  13
  -4  -4   7 5640.05 168.546  13
  -4  -4   5 12784.8 519.501   7
   4  -4  -5 12938.7 288.570  20
   4  -4  -5 12239.8 619.664   2
   4  -4  -4 30912.5 507.406   3
   4  -4  -4 32011.6 510.156  20
   4  -4  -4 31416.3 975.545   2
  -4  -4   4 30987.9 808.285   7
   4  -4  -3 35275.4 532.321   3
   4  -4  -3 36735.8 1001.66   2
  -4  -4   3 36113.1 505.355  21
  -4  -4   2 17724.7 331.055  21
  -4  -4   2 18286.5 316.195  10
  -4  -4   1 25610.4 425.479  21
  -4  -4   1 25899.7 398.646  10
   4  -4  -1 25603.3 416.320   3
   4  -4   0 12293.9 264.891  15
  -4  -4   0 11782.0 255.997  10
   4  -4   0 11576.3 262.481   3
   4  -4   1 45167.5 607.712  15
  -4  -4  -1 42720.6 1111.09   5
   4  -4   1 42940.5 590.876   3
  -4  -4  -1 44833.1 600.750  10
   4  -4   2 12476.8 293.370  15
   4  -4   2 12514.9 536.459   6
   4  -4   2 12004.1 277.242   3
  -4  -4  -2 11505.8 603.504   5
  -4  -4  -2 11837.1 282.990  10
   4  -4   3 152557. 1539.49  15
  -4  -4  -3 153184. 1541.00  10
   4  -4   4 7913.50 215.344  15
  -4  -4  -4 8334.59 226.023  10
  -4  -3   8 11189.7 212.805  13
  -4  -3   7 91842.2 983.792  13
  -4  -3   5 27468.6 812.400   7
   4  -3  -5 28657.8 986.486   2
   4  -3  -4 18033.7 746.405   2
  -4  -3   4 17708.5 617.428   7
   4  -3  -3 83831.8 967.758   3
  -4  -3   3 84793.6 901.996  21
   4  -3  -3 84822.6 1635.16   2
   4  -3  -2 51480.9 675.020   3
  -4  -3   2 52712.0 635.720  21
  -4  -3   2 52457.9 641.212  10
  -4  -3   1 16563.1 306.240  10
  -4  -3   1 16467.7 309.805  21
   4  -3  -1 16174.9 323.138   3
   4  -3   0 12087.8 246.595  15
  -4  -3   0 11791.6 261.207  10
   4  -3   0 12024.9 269.893   3
   4  -3   1 80153.3 879.499  15
  -4  -3  -1 77731.6 1434.41   5
   4  -3   1 78483.5 906.678   3
  -4  -3  -1 79697.0 913.292  10
   4  -3   2 51034.8 660.022  15
   4  -3   2 52194.4 1168.22   6
   4  -3   2 49664.4 674.754   3
  -4  -3  -2 51229.8 691.533  10
  -4  -3  -2 50868.0 1239.64   5
  -4  -3  -2 49936.5 1225.12   8
   4  -3   3 4822.78 360.155   6
  -4  -3  -3 4839.10 187.624  10
  -4  -3  -3 4585.07 368.709   8
  -4  -3  -4 1611.83 108.942  10
  -4  -3  -5 4421.89 158.580  10
  -4  -2   8 28807.8 391.560  13
  -4  -2   7 11394.6 255.883  13
   4  -2  -5 27828.8 986.998   2
  -4  -2   5 26777.7 814.416   7
   4  -2  -4 143127. 2303.48   2
   4  -2  -3 67833.2 832.646   3
  -4  -2   3 68739.6 743.274  21
   4  -2  -3 70313.5 1467.51   2
  -4  -2   2 53930.0 623.617  21
  -4  -2   2 54073.2 658.515  10
  -4  -2   1 16158.2 288.468  21
  -4  -2   1 16379.5 307.436  10
  -4  -2   0 8529.93 220.911  10
   4  -2   0 9478.27 237.402   3
  -4  -2  -1 53908.4 693.524  10
   4  -2   1 53120.5 691.995   3
   4  -2   2 353512. 3154.98   3
  -4  -2  -2 353159. 3172.83  10
  -4  -2  -2 360326. 4133.79   8
   4  -2   3 52164.5 1248.74   6
  -4  -2  -3 52030.6 736.584  10
  -4  -2  -3 51026.7 1305.13   8
  -4  -2  -4 43790.7 661.350  10
  -4  -2  -5 16481.0 343.954  10
  -4  -2  -6 17507.5 292.087  10
  -4  -1   8 18334.7 290.176  13
  -4  -1   7 199.177 46.9510   4
   4  -1  -6 108493. 2189.94   2
  -4  -1   6 111483. 1253.95   4
  -4  -1   5 17721.3 384.529   4
  -4  -1   5 18570.8 679.795   7
  -4  -1   2 24943.0 396.833  10
  -4  -1   1 56223.4 680.394  10
  -4  -1   0 89241.7 976.627  10
  -4  -1  -1 53347.4 693.783  10
   4  -1   1 54382.7 700.860   3
   4  -1   2 34002.2 535.007   3
  -4  -1  -2 34086.5 543.497  10
  -4  -1  -2 33623.3 996.552   8
  -4  -1  -3 216766. 2134.98  10
  -4  -1  -3 225626. 3150.02   8
  -4  -1  -4 55675.2 786.210  10
  -4  -1  -5 607.201 69.9729  10
  -4  -1  -6 15720.0 290.327  10
   4   0  -9 13667.9 216.860   3
  -4   0   8 9572.12 188.687  13
  -4   0   7 49048.4 690.676   4
  -4   0   6 31978.5 935.829   7
   4   0  -6 31150.5 1113.17   2
   4   0  -5 93071.4 1954.74   2
  -4   0   5 93732.1 1673.63   7
   4   0  -4 32903.1 1020.96   2
  -4   0   4 32241.1 524.350   4
  -4   0   3 370383. 3216.50  10
   4   0  -3 378126. 4259.67   2
   4   0  -2 4785.56 342.256   2
  -4   0   2 4810.17 157.584  10
  -4   0   1 33686.2 480.914  10
  -4   0   0 22986.8 390.622  10
  -4   0  -1 85107.8 970.541  10
   4   0   1 85868.7 972.376   3
  -4   0  -1 85547.6 1592.23   8
   4   0   2 8798.88 246.936   3
  -4   0  -2 8368.32 245.868  10
   4   0   3 9587.88 522.257   6
  -4   0  -3 10213.5 286.787  10
  -4   0  -3 10137.7 576.011   8
  -4   0  -4 28645.6 521.040  10
   4   0   5 2548.25 113.688   4
  -4   0  -5 1462.25 106.258  10
  -4   0  -6 1031.58 73.0195  10
   4   1  -9 7110.47 140.977   3
   4   1  -6 108810. 2192.26   2
  -4   1   6 111373. 1262.09   4
   4   1  -5 16912.3 774.751   2
  -4   1   5 17840.3 387.526   4
  -4   1   5 17759.0 669.739   7
   4   1  -4 179944. 2653.20   2
  -4   1   4 174123. 1740.34   4
  -4   1   3 29706.0 449.501  10
   4   1  -3 28584.0 910.498   2
   4   1  -2 24727.6 796.880   2
  -4   1   2 24523.0 394.314  10
  -4   1   1 55988.3 679.497  10
  -4   1   0 88983.9 976.988  10
  -4   1  -1 53823.6 700.398  10
   4   1   1 54132.7 702.880   3
  -4   1  -1 53546.5 1226.56   8
   4   1   2 34832.4 542.727   3
  -4   1  -2 34332.1 550.036  10
   4   1   3 227725. 3048.72   6
  -4   1  -3 222310. 2176.23  10
  -4   1  -3 218833. 3172.25   8
  -4   1  -4 58291.9 812.258  10
   4   1   5 639.897 63.4544   4
  -4   1  -5 718.710 76.6843  10
   4   1   6 15230.2 255.551   4
  -4   1  -6 15502.7 291.661  10
  -4   2   8 28383.5 427.068   4
  -4   2   7 11477.9 293.800   4
  -4   2   6 43804.3 673.188   4
   4   2  -5 26253.6 974.370   2
  -4   2   5 27541.1 499.105   4
  -4   2   5 27762.5 835.461   7
  -4   2   4 141003. 1464.28   4
   4   2  -4 139017. 2350.27   2
   4   2  -3 67863.1 839.383   3
   4   2  -3 70263.8 1497.63   2
  -4   2   2 54922.8 668.649  10
  -4   2   1 16408.3 310.094  10
  -4   2   0 8718.21 224.543  10
   4   2   0 8531.53 228.577   3
  -4   2  -1 53557.4 701.294  10
   4   2   1 54504.9 702.018   3
   4   2   2 355793. 4024.27   6
   4   2   2 348586. 3129.57   3
  -4   2  -2 351492. 3151.34  10
  -4   2  -2 356512. 4138.71   8
   4   2   3 51577.3 1242.91   6
  -4   2  -3 51865.1 742.485  10
  -4   2  -3 51481.7 1336.20   8
  -4   2  -4 44678.7 681.862  10
   4   2   5 16814.5 329.250   4
  -4   2  -5 16751.6 356.258  10
   4   2   6 18131.1 288.892   4
  -4   2  -6 18030.8 306.265  10
   4   3  -8 10846.1 226.850   3
  -4   3   8 10926.7 230.985   4
  -4   3   7 91464.6 1046.54   4
  -4   3   6 51050.6 731.865   4
  -4   3   5 27282.8 820.952   7
  -4   3   5 27918.3 501.588   4
   4   3  -5 26426.2 976.064   2
  -4   3   4 18458.6 378.809   4
   4   3  -4 17747.8 755.240   2
   4   3  -3 82854.0 967.631   3
   4   3  -3 86093.6 1665.53   2
   4   3  -2 52282.7 686.449   3
  -4   3   2 53089.3 648.335  10
  -4   3   1 16325.3 308.501  10
   4   3  -1 15994.8 322.447   3
  -4   3   0 12049.0 266.093  10
   4   3   0 11529.5 267.740   3
   4   3   1 76763.8 898.340   3
  -4   3  -1 78035.7 904.197  10
   4   3   2 49062.7 1149.69   6
   4   3   2 51984.3 690.223   3
  -4   3  -2 51029.3 703.322  10
  -4   3  -2 50277.6 1250.68   8
  -4   3  -3 7023.07 232.155  10
  -4   3  -3 6834.32 460.565   8
  -4   3  -4 1682.62 114.983  10
  -4   3  -5 4525.13 167.104  10
   4   3   6 5929.89 150.052   4
  -4   3  -6 6519.74 154.838  10
   4   4  -7 5797.07 182.239   3
  -4   4   7 5782.53 188.678   4
  -4   4   6 12214.4 306.368   4
  -4   4   5 13587.2 326.112   4
   4   4  -4 32103.5 524.629   3
  -4   4   4 33118.1 526.865   4
   4   4  -4 31735.0 1006.89   2
  -4   4   4 32469.3 847.170   7
   4   4  -3 36200.3 542.676   3
  -4   4   2 18515.2 322.821  10
  -4   4   1 25261.4 395.009  10
  -4   4   0 11534.1 256.389  10
   4   4   1 43344.0 589.473   3
  -4   4  -1 43807.1 602.039  10
   4   4   2 11513.5 517.189   6
  -4   4  -2 12247.5 293.191  10
  -4   4  -3 153423. 1564.99  10
  -4   4  -4 8354.77 237.297  10
   4   4   5 8972.17 220.438   4
  -4   4  -5 9072.55 216.605  10
   4   4   6 2416.25 86.1371   4
  -4   5   6 34246.0 527.213   4
  -4   5   5 30334.8 499.851   4
   4   5   5 33069.4 447.698   4
   4   5   6 14001.6 199.723   4
   4   6   4 6904.90 188.079   4
   4   6   5 2863.84 98.2382   4
   4   7   3 10894.0 237.061   4
   4   7   4 16381.5 267.698   4
   5 -10  -2 8214.22 147.426  16
   5  -9  -3 19243.5 307.010  20
   5  -9  -3 18635.1 272.029  16
   5  -9  -2 17955.3 306.688  20
   5  -9  -2 17803.7 286.717  16
   5  -9  -1 4664.86 138.635  20
   5  -9  -1 4623.42 137.278  16
   5  -9   0 16977.9 272.598  16
   5  -8  -5 139.843 30.0894  11
   5  -8  -4 11125.2 193.106  16
   5  -8  -4 11768.5 254.539  11
   5  -8  -4 11512.2 237.624  20
   5  -8  -3 23539.8 393.014  11
   5  -8  -3 22852.7 390.315  20
   5  -8  -3 22843.6 349.063  16
  -5  -8   2 46615.1 570.360  21
  -5  -8   1 20905.6 343.128  21
   5  -8  -1 20232.5 369.441  20
  -5  -8   0 26779.6 404.588  21
   5  -8   0 25280.5 398.445  20
  -5  -8  -1 6573.20 174.919  21
  -5  -8  -2 18393.5 285.328  21
   5  -7  -6 21028.1 318.727  11
   5  -7  -5 3316.13 114.882  20
   5  -7  -4 25708.3 447.766  11
   5  -7  -4 25317.3 416.683  20
   5  -7  -4 25217.2 354.588  16
   5  -7  -3 27904.2 475.925  11
   5  -7  -3 27631.3 470.530  20
   5  -7  -2 18668.9 360.410  11
  -5  -7   2 17949.2 332.710  21
   5  -7  -2 18047.2 379.465  20
  -5  -7   1 54065.2 686.081  21
   5  -7  -1 54734.5 740.470  20
  -5  -7   0 26733.9 435.828  21
  -5  -7  -1 27388.5 437.002  21
  -5  -7  -2 53131.9 647.555  21
  -5  -7  -3 17123.3 272.696  21
   5  -6  -6 4643.55 156.647  11
   5  -6  -5 55666.1 668.452  20
   5  -6  -4 398.499 61.0507  11
   5  -6  -4 378.660 55.5788  20
   5  -6  -3 16609.3 372.432  11
   5  -6  -3 15771.2 355.111  20
  -5  -6   2 25640.3 425.906  21
   5  -6  -2 26772.2 467.573  11
  -5  -6   1 19402.4 368.592  21
  -5  -6   0 7745.69 225.715  21
  -5  -6  -1 9085.68 246.227  21
  -5  -6  -2 20324.6 369.915  21
  -5  -6  -3 7398.09 188.257  21
  -5  -6  -4 19439.6 268.034  21
  -5  -5   7 3860.96 108.210  13
   5  -5  -7 3684.23 121.220  11
  -5  -5   6 24201.2 361.647  13
   5  -5  -5 1174.76 79.8540  20
   5  -5  -4 12083.1 292.858  20
  -5  -5   3 40113.5 553.919  21
   5  -5  -3 40128.5 569.759   3
   5  -5  -2 93263.3 1067.40  11
  -5  -5   2 90589.1 1011.95  21
   5  -5  -2 91002.4 1005.66   3
   5  -5  -1 20877.9 372.138  11
   5  -5  -1 21047.6 372.693   3
  -5  -5   1 20858.3 388.930  21
  -5  -5   1 21509.8 356.394  10
   5  -5   0 58656.4 712.468   3
  -5  -5   0 58952.5 702.047  10
  -5  -5   0 58500.5 758.301  21
  -5  -5  -1 34729.3 540.054  21
  -5  -5  -2 5538.47 189.195  21
  -5  -5  -3 40857.2 551.788  21
  -5  -5  -4 13990.7 240.183  21
   5  -4  -6 6838.35 196.930   3
   5  -4  -5 51055.7 689.266   3
   5  -4  -5 50459.6 642.071  20
   5  -4  -4 2262.55 127.611   3
   5  -4  -4 2414.35 127.586  20
   5  -4  -3 83427.7 997.864   3
  -5  -4   3 84843.7 928.027  21
  -5  -4   2 72290.4 847.302  21
  -5  -4   2 75211.7 856.371  10
   5  -4  -2 73556.4 896.587   3
  -5  -4   1 843.157 74.9211  21
  -5  -4   1 885.578 73.7401  10
   5  -4  -1 875.197 77.1332   3
   5  -4   0 39750.9 581.277   3
  -5  -4   0 39526.9 582.037  21
  -5  -4   0 40649.3 575.547  10
   5  -4   1 65784.1 807.819   3
  -5  -4  -1 65100.2 815.880  21
  -5  -4  -1 65670.3 805.317  10
  -5  -4  -2 39642.4 567.510  10
  -5  -4  -4 38167.4 479.853  21
  -5  -3   8 13187.6 196.451  13
  -5  -3   7 18293.8 299.783  13
   5  -3  -7 18225.7 324.082   3
   5  -3  -6 9174.36 251.561   3
   5  -3  -5 10417.8 284.858   3
   5  -3  -4 302768. 2802.87   3
   5  -3  -3 60911.2 815.411   3
  -5  -3   2 7441.41 201.559  21
  -5  -3   2 7270.75 212.410  10
   5  -3  -2 7030.66 229.421   3
  -5  -3   1 47076.1 618.175  21
  -5  -3   1 47972.1 653.168  10
   5  -3  -1 47637.1 678.420   3
   5  -3   0 4959.96 186.260   3
  -5  -3   0 4746.34 178.456  10
  -5  -3   0 4871.03 171.982  21
   5  -3   1 18390.6 376.237   3
  -5  -3  -1 19120.4 380.454  10
  -5  -3  -1 18085.9 358.536  21
   5  -3   2 18932.2 376.686   3
  -5  -3  -2 18581.2 379.616  10
  -5  -3  -3 21162.8 392.725  10
  -5  -3  -4 8537.98 209.456  10
  -5  -2   8 8601.04 157.803  13
   5  -2  -8 8645.63 179.217   3
  -5  -2   7 15999.1 284.730  13
   5  -2  -7 16278.1 327.152   3
   5  -2  -6 16025.8 362.384   3
   5  -2  -5 40213.3 642.743   3
   5  -2  -4 142747. 1525.60   3
   5  -2  -4 139462. 2439.04   2
   5  -2  -3 88739.3 1073.00   3
   5  -2  -2 31102.8 536.634   3
  -5  -2   2 31598.8 441.296  21
  -5  -2   1 55100.8 722.797  10
  -5  -2   1 53227.2 650.161  21
   5  -2  -1 53984.3 748.985   3
  -5  -2   0 13920.7 320.337  10
  -5  -2   0 14127.5 287.159  21
   5  -2   0 13714.2 330.231   3
   5  -2   1 44507.0 663.601   3
  -5  -2  -1 45340.7 661.013  10
  -5  -2  -1 44862.4 600.946  21
   5  -2   2 113731. 1261.31   3
  -5  -2  -2 114049. 1270.60  10
  -5  -2  -3 22202.5 423.925  10
  -5  -2  -4 785.094 71.0207  10
  -5  -2  -5 21364.5 314.521  10
  -5  -1   8 3901.55 100.691  13
   5  -1  -4 101111. 2015.44   2
   5  -1   2 154790. 2409.91   6
  -5  -1  -4 35925.9 541.507  10
  -5  -1  -5 10961.5 224.415  10
  -5   0   8 5675.35 116.612  13
   5   0  -8 6558.35 166.368   3
   5   0  -7 6624.31 214.925   3
   5   0  -6 51078.6 750.423   3
   5   0  -5 222749. 2216.23   3
   5   0  -4 206936. 2075.24   3
   5   0  -4 213234. 3196.08   2
   5   0  -3 30213.7 537.745   3
  -5   0   3 31155.7 501.318  10
   5   0  -2 210973. 2094.20   3
  -5   0   2 216676. 2036.71  10
  -5   0   1 5407.33 193.283  10
   5   0  -1 5466.89 205.737   3
  -5   0   0 3989.14 168.563  10
   5   0   0 4041.17 176.171   3
   5   0   1 10613.4 292.385   3
  -5   0  -1 10262.5 287.401  10
   5   0   2 1794.51 236.942   6
   5   0   2 1798.15 119.725   3
  -5   0  -2 1863.55 123.655  10
  -5   0  -3 162753. 1682.79  10
  -5   0  -4 762.316 75.2671  10
  -5   0  -5 28629.9 411.438  10
   5   1  -8 4218.93 130.436   3
   5   1  -7 20334.3 389.212   3
   5   1  -6 29865.2 534.971   3
   5   1  -5 53418.6 782.816   3
   5   1  -4 115661. 1316.50   3
   5   1  -4 114396. 2197.01   2
   5   1  -3 16046.3 374.919   3
  -5   1   3 16444.7 345.057  10
   5   1  -2 6125.11 219.684   3
  -5   1   2 6370.77 206.141  10
  -5   1   1 11651.6 287.634  10
   5   1  -1 11254.4 300.874   3
  -5   1   0 29440.9 501.584  10
   5   1   0 29315.3 516.749   3
   5   1   1 8495.44 259.770   3
  -5   1  -1 8377.14 257.217  10
   5   1   2 157540. 2444.75   6
   5   1   2 157684. 1626.16   3
  -5   1  -2 154972. 1638.99  10
  -5   1  -3 66549.0 871.212  10
  -5   1  -4 35394.2 541.791  10
  -5   1  -5 10978.2 227.074  10
   5   2  -8 8523.82 178.926   3
   5   2  -7 16195.9 329.945   3
   5   2  -6 15909.8 366.699   3
   5   2  -5 40417.0 651.885   3
   5   2  -4 144035. 1545.66   3
   5   2  -4 141280. 2485.48   2
   5   2  -3 90893.3 1096.26   3
   5   2  -2 31732.3 545.122   3
  -5   2   2 32401.0 511.744  10
  -5   2   1 54358.1 724.172  10
   5   2  -1 54048.9 754.077   3
  -5   2   0 14173.5 327.005  10
   5   2   0 13782.3 332.736   3
   5   2   1 45709.5 676.040   3
  -5   2  -1 46886.5 679.553  10
   5   2   2 116571. 1286.84   3
  -5   2  -2 115134. 1294.82  10
  -5   2  -3 22218.6 433.164  10
  -5   2  -4 586.578 64.7212  10
   5   2   5 21715.7 308.277   4
  -5   2  -5 22313.7 328.978  10
   5   3  -7 18690.9 335.856   3
   5   3  -6 9023.38 255.434   3
   5   3  -5 10851.1 295.542   3
   5   3  -4 304831. 2839.20   3
   5   3  -3 61490.2 829.766   3
  -5   3   2 7056.13 210.214  10
   5   3  -2 7127.34 232.389   3
  -5   3   1 48414.8 660.816  10
   5   3  -1 48059.9 686.086   3
   5   3   0 5104.67 190.435   3
  -5   3   0 5189.24 188.591  10
   5   3   1 18784.0 381.005   3
  -5   3  -1 18211.2 381.569  10
  -5   3  -2 18633.8 387.086  10
  -5   3  -3 21321.1 407.017  10
  -5   3  -4 8338.19 213.731  10
  -5   3  -5 2810.17 89.3127  10
   5   4  -7 4274.79 127.252   3
   5   4  -6 6833.18 204.184   3
   5   4  -5 51586.7 714.227   3
   5   4  -4 2526.26 136.342   3
   5   4  -3 87138.7 1030.55   3
  -5   4   2 73877.1 857.643  10
   5   4  -2 74543.5 909.412   3
  -5   4   1 884.267 72.9761  10
   5   4  -1 1007.04 82.4964   3
   5   4   0 41035.2 597.739   3
  -5   4   0 41107.8 586.535  10
   5   4   1 66711.6 822.004   3
  -5   4  -1 66369.1 822.277  10
  -5   4  -2 39414.5 580.080  10
  -5   4  -3 5452.37 176.429  10
  -5   4  -4 38469.7 485.066  10
   5   4   5 30940.7 362.915   4
   5   5   4 13915.6 246.683   4
   5   6   4 19935.7 269.043   4
   5   7   3 16102.8 234.830   4
   6  -8  -3 4438.36 116.612  20
   6  -8  -2 797.868 45.8184  16
   6  -8  -1 8385.91 166.283  20
   6  -8  -1 8351.85 160.606  16
  -6  -8   0 4661.26 101.129  21
   6  -7  -4 32107.6 400.718  20
   6  -7  -3 9428.26 207.709  20
   6  -7  -3 8900.16 168.318  16
   6  -7  -2 23748.8 375.389  20
  -6  -7   1 22297.8 315.876  21
   6  -7  -1 22378.6 355.891  20
  -6  -7   0 1972.76 78.3058  21
   6  -7   0 1958.26 85.4899  20
  -6  -7  -1 5051.29 113.893  21
   6  -6  -5 12236.4 232.003  11
   6  -6  -4 7418.89 181.186  20
   6  -6  -3 14357.2 291.084  20
   6  -6  -2 33232.3 503.365  20
  -6  -6   1 38026.6 480.451  21
  -6  -6   0 5553.93 149.563  21
  -6  -6  -1 882.815 54.6749  21
  -6  -6  -2 6294.80 123.372  21
   6  -5  -5 22913.2 376.088  11
   6  -5  -4 4054.38 151.963  11
   6  -5  -4 3875.52 140.064  20
   6  -5  -3 66036.5 805.559  20
  -6  -5   2 2016.49 93.2247  21
  -6  -5   1 1450.98 80.9018  21
  -6  -5   0 2081.15 94.8786  21
  -6  -5  -1 4367.45 129.927  21
  -6  -5  -2 40123.5 447.568  21
  -6  -4   6 21336.8 299.870  13
   6  -4  -4 25013.8 409.019  20
   6  -4  -4 25670.8 416.322   3
   6  -4  -3 17204.2 337.796   3
   6  -4  -2 6820.07 203.438   3
  -6  -4   2 6371.31 169.689  21
   6  -4  -1 3390.64 140.310   3
  -6  -4   1 3639.18 128.357  21
  -6  -4   1 3803.60 139.853  10
   6  -4   0 24858.7 400.997   3
  -6  -4   0 24795.3 393.490  10
  -6  -4  -1 8187.66 185.998  21
  -6  -3   7 4505.02 105.591  13
   6  -3  -6 13428.1 261.674   3
   6  -3  -5 5648.29 185.795   3
   6  -3  -4 13928.7 290.744  20
   6  -3  -4 14258.9 320.882   3
   6  -3  -3 7492.72 232.302   3
  -6  -3   2 57188.4 723.656  10
   6  -3  -2 57124.7 759.238   3
   6  -3  -1 7710.45 231.120   3
  -6  -3   1 7722.50 185.104  21
  -6  -3   1 7939.21 223.336  10
   6  -3   0 173452. 1696.42   3
  -6  -3   0 172086. 1676.25  10
   6  -3   1 22616.8 393.062   3
  -6  -3  -1 22554.0 390.307  10
  -6  -3  -2 13266.3 266.026  10
   6  -2  -7 26959.4 361.014   3
  -6  -2   7 26162.4 328.700  13
   6  -2  -6 2216.85 111.725   3
   6  -2  -5 45421.6 650.068   3
   6  -2  -4 46708.2 684.378   3
   6  -2  -3 26860.1 491.361   3
  -6  -2   2 31660.7 505.375  10
   6  -2  -2 31370.6 539.682   3
   6  -2  -1 97449.7 1127.91   3
  -6  -2   1 98304.9 1097.60  10
   6  -2   0 14835.5 335.638   3
  -6  -2   0 14561.2 325.790  10
   6  -2   1 69206.8 844.431   3
  -6  -2  -1 68276.7 839.686  10
  -6  -2  -2 16731.0 327.246  10
  -6  -2  -3 7988.52 189.905  10
  -6  -1   7 4140.97 108.634  13
  -6  -1  -3 5117.79 158.400  10
  -6  -1  -4 4211.46 109.978  10
   6   0  -7 729.293 59.8893   3
  -6   0   7 753.394 45.4317  13
   6   0  -6 48949.1 663.392   3
   6   0  -5 23746.4 455.030   3
   6   0  -4 10104.1 294.221   3
   6   0  -3 38811.8 634.278   3
  -6   0   2 143119. 1468.98  10
   6   0  -2 138244. 1519.82   3
  -6   0   1 30967.5 520.400  10
   6   0  -1 31525.0 548.505   3
   6   0   0 45538.5 679.131   3
  -6   0   0 45181.2 663.531  10
   6   0   1 623.432 75.1921   3
  -6   0  -1 1319.90 98.3047  10
  -6   0  -2 17323.6 353.260  10
  -6   0  -3 2423.11 110.190  10
  -6   0  -4 11528.6 201.709  10
   6   1  -7 4172.39 132.037   3
  -6   1   7 3512.54 89.5049  13
   6   1  -6 17944.9 354.124   3
   6   1  -5 22778.5 441.828   3
   6   1  -4 8697.14 268.904   3
   6   1  -3 40359.9 645.974   3
  -6   1   2 33967.9 540.492  10
   6   1  -2 33120.2 573.902   3
  -6   1   1 2128.60 125.437  10
   6   1  -1 2033.22 130.098   3
   6   1   0 73551.7 925.983   3
  -6   1   0 72174.0 904.561  10
   6   1   1 20530.5 406.212   3
  -6   1  -1 20501.8 403.268  10
  -6   1  -2 18556.1 365.767  10
  -6   1  -3 5085.17 159.783  10
  -6   1  -4 4298.49 113.001  10
   6   2  -7 26571.6 360.726   3
   6   2  -6 2261.47 113.539   3
   6   2  -5 44872.3 651.127   3
   6   2  -4 46392.0 692.300   3
   6   2  -3 26252.4 490.368   3
  -6   2   2 32480.5 516.918  10
   6   2  -2 31368.2 545.586   3
   6   2  -1 100245. 1155.15   3
  -6   2   1 98534.3 1115.93  10
   6   2   0 14757.8 341.126   3
  -6   2   0 14527.4 328.618  10
   6   2   1 68036.9 847.244   3
  -6   2  -1 68151.6 844.318  10
  -6   2  -2 17260.3 338.877  10
  -6   2  -3 7939.77 192.592  10
   6   2   4 9210.28 152.321   4
   6   3  -6 13500.5 267.256   3
   6   3  -5 5214.94 182.155   3
   6   3  -4 14133.7 326.549   3
   6   3  -3 7158.76 229.224   3
   6   3  -2 57035.0 764.641   3
  -6   3   2 56531.8 722.038  10
   6   3  -1 7914.64 236.952   3
  -6   3   1 8005.93 228.282  10
   6   3   0 174060. 1705.79   3
  -6   3   0 171700. 1689.75  10
   6   3   1 23180.8 403.543   3
  -6   3  -1 21909.7 393.190  10
  -6   3  -2 12741.1 268.967  10
  -6   3  -3 1065.06 62.4678  10
   6   4  -5 11830.3 249.250   3
   6   4  -4 26727.3 437.470   3
   6   4  -3 17888.2 353.659   3
   6   4  -2 6829.63 207.688   3
   6   4  -1 3303.66 141.111   3
  -6   4   1 3318.65 132.212  10
   6   4   0 24469.2 406.215   3
  -6   4   0 24341.5 395.153  10
  -6   4  -1 8442.98 208.517  10
  -6   4  -2 11744.5 226.666  10
   6   5   3 41907.7 445.948   4
   7  -5  -3 24684.8 326.529  20
   7  -5  -2 8265.01 179.375  20
   7  -5  -1 711.891 51.2684  20
   7  -5   0 11293.3 190.708  20
   7  -4  -3 3213.15 109.555  20
   7  -3  -3 9798.41 210.504   3
   7  -3  -2 1551.07 83.0602   3
   7  -3  -1 110888. 1085.80   3
   7  -2  -5 2825.73 102.762   3
   7  -2  -4 9612.81 218.667   3
   7  -2  -3 9910.40 232.779   3
   7  -2  -2 7701.08 203.887   3
   7  -2  -1 27838.1 417.072   3
  -7  -2   1 27244.7 399.424  10
   7  -2   0 64965.4 719.703   3
  -7  -2   0 63570.6 701.675  10
  -7  -2  -1 5657.12 137.653  10
  -7  -1  -1 21074.2 317.469  10
  -7  -1  -2 7503.42 143.855  10
   7   0  -6 14405.5 229.261   3
   7   0  -5 8088.54 196.214   3
   7   0  -4 11573.3 259.812   3
   7   0  -3 24851.8 420.334   3
   7   0  -2 20469.9 374.135   3
   7   0  -1 2128.42 111.960   3
  -7   0   1 2049.56 102.588  10
   7   0   0 188.923 39.3933   3
  -7   0   0 27.0715 27.1406  10
  -7   0  -1 33139.9 434.368  10
  -7   0  -2 23471.5 303.494  10
   7   1  -6 17320.1 250.204   3
   7   1  -5 12563.0 246.048   3
   7   1  -4 3506.16 136.839   3
   7   1  -3 10378.1 252.227   3
   7   1  -2 16003.6 320.339   3
   7   1  -1 25582.9 416.262   3
  -7   1   1 24830.7 393.479  10
   7   1   0 19596.0 338.273   3
  -7   1   0 19336.2 326.358  10
  -7   1  -1 22043.4 329.774  10
  -7   1  -2 7471.78 144.855  10
   7   2  -5 2885.47 104.685   3
   7   2  -4 9798.98 224.212   3
   7   2  -3 9830.53 234.090   3
   7   2  -2 7699.13 207.070   3
   7   2  -1 26067.3 407.924   3
  -7   2   1 26890.5 396.456  10
   7   2   0 65032.5 725.284   3
  -7   2   0 63968.2 709.282  10
  -7   2  -1 5550.67 139.157  10
   7   3  -5 4094.32 105.253   3
   7   3  -4 15615.2 265.590   3
   7   3  -3 9577.69 211.463   3
   7   3  -2 1585.99 86.0771   3
   7   3  -1 111700. 1098.29   3
  -7   3   0 9229.39 185.150  10
  -7   3  -1 8391.57 153.391  10
   7   4  -2 1471.33 66.8938   3
   0   0   0    0.00    0.00   0

TITL AY-CAS13429-83-9-100K_auto in P2(1)
REM P2(1) (#4 in standard setting)
CELL 1.54184   6.298350  10.641305   7.538917  90.0000 103.5036  90.0000
ZERR    9.00   0.000089   0.000136   0.000105   0.0000   0.0014   0.0000
LATT -1
SYMM -x, y+1/2,-z
SFAC C H N O
UNIT 9.00 9.00 9.00 9.00
REM  CrysAlisPro recorded range (K): Min=99.2; max=100.7; aver:100.0
TEMP -173
TREF
HKLF 4
END
;
_shelx_hkl_checksum              8598
loop_
_space_group_symop_operation_xyz
'x, y, z'
'-x, y+1/2, -z'
loop_
_atom_site_label
_atom_site_type_symbol
_atom_site_fract_x
_atom_site_fract_y
_atom_site_fract_z
_atom_site_U_iso_or_equiv
_atom_site_adp_type
_atom_site_occupancy
_atom_site_site_symmetry_order
_atom_site_calc_flag
_atom_site_refinement_flags_posn
_atom_site_refinement_flags_adp
_atom_site_refinement_flags_occupancy
_atom_site_disorder_assembly
_atom_site_disorder_group
O11 O -0.34369(18) -0.89782(12) -0.09277(13) 0.0204(3) Uani 1 1 d . . . . .
O6 O -0.44218(16) -1.00536(11) -0.35470(13) 0.0157(3) Uani 1 1 d . . . . .
O10 O -0.40081(18) -1.22117(12) -0.70658(14) 0.0197(3) Uani 1 1 d . . . . .
H10 H -0.487147 -1.272048 -0.771779 0.030 Uiso 1 1 calc R U . . .
O9 O -0.68697(18) -1.18112(13) -0.58390(15) 0.0240(3) Uani 1 1 d . . . . .
C1 C -0.3310(2) -1.10033(15) -0.4416(2) 0.0142(3) Uani 1 1 d . . . . .
C3 C 0.0113(2) -1.00150(18) -0.31179(19) 0.0181(3) Uani 1 1 d . . . . .
H3A H 0.029950 -0.909908 -0.290756 0.022 Uiso 1 1 calc R U . . .
H3B H 0.156174 -1.040168 -0.303927 0.022 Uiso 1 1 calc R U . . .
C13 C -0.0552(3) -1.27705(16) -0.3203(2) 0.0178(3) Uani 1 1 d . . . . .
H13A H -0.137048 -1.345422 -0.392580 0.027 Uiso 1 1 calc R U . . .
H13B H 0.035141 -1.311144 -0.206824 0.027 Uiso 1 1 calc R U . . .
H13C H 0.038546 -1.236380 -0.390324 0.027 Uiso 1 1 calc R U . . .
C5 C -0.3041(2) -0.97983(15) -0.19179(19) 0.0160(3) Uani 1 1 d . . . . .
C4 C -0.1057(2) -1.06271(16) -0.17224(19) 0.0153(3) Uani 1 1 d . . . . .
C12 C 0.0316(3) -1.07914(17) 0.0200(2) 0.0215(4) Uani 1 1 d . . . . .
H12A H 0.155159 -1.134646 0.018010 0.032 Uiso 1 1 calc R U . . .
H12B H -0.057795 -1.116322 0.096740 0.032 Uiso 1 1 calc R U . . .
H12C H 0.086195 -0.997091 0.069552 0.032 Uiso 1 1 calc R U . . .
C2 C -0.1465(2) -1.02933(16) -0.49934(19) 0.0166(3) Uani 1 1 d . . . . .
H2A H -0.200228 -0.950799 -0.565097 0.020 Uiso 1 1 calc R U . . .
H2B H -0.075677 -1.082054 -0.577130 0.020 Uiso 1 1 calc R U . . .
C8 C -0.4967(2) -1.16966(16) -0.58493(18) 0.0155(3) Uani 1 1 d . . . . .
C7 C -0.2140(2) -1.18124(15) -0.27574(19) 0.0140(3) Uani 1 1 d . . . . .
C14 C -0.3723(3) -1.24696(17) -0.1790(2) 0.0187(3) Uani 1 1 d . . . . .
H14A H -0.476864 -1.185535 -0.152852 0.028 Uiso 1 1 calc R U . . .
H14B H -0.290020 -1.284041 -0.064532 0.028 Uiso 1 1 calc R U . . .
H14C H -0.451169 -1.313280 -0.257897 0.028 Uiso 1 1 calc R U . . .
loop_
_atom_site_aniso_label
_atom_site_aniso_U_11
_atom_site_aniso_U_22
_atom_site_aniso_U_33
_atom_site_aniso_U_23
_atom_site_aniso_U_13
_atom_site_aniso_U_12
O11 0.0258(5) 0.0179(6) 0.0171(5) -0.0023(5) 0.0043(4) 0.0058(5)
O6 0.0157(5) 0.0157(6) 0.0152(5) -0.0008(4) 0.0025(4) 0.0031(5)
O10 0.0200(5) 0.0212(6) 0.0191(5) -0.0061(5) 0.0066(4) -0.0061(5)
O9 0.0149(5) 0.0347(8) 0.0218(6) -0.0037(5) 0.0030(4) -0.0036(5)
C1 0.0147(7) 0.0140(8) 0.0146(6) -0.0002(6) 0.0049(5) 0.0021(6)
C3 0.0162(7) 0.0188(9) 0.0189(7) -0.0013(6) 0.0034(5) -0.0034(7)
C13 0.0192(7) 0.0163(9) 0.0183(7) 0.0014(6) 0.0053(5) 0.0032(7)
C5 0.0190(7) 0.0145(9) 0.0147(6) 0.0022(6) 0.0041(5) 0.0005(6)
C4 0.0165(7) 0.0142(8) 0.0145(6) -0.0010(6) 0.0024(5) 0.0007(6)
C12 0.0231(8) 0.0221(9) 0.0166(7) -0.0019(6) -0.0010(6) 0.0054(7)
C2 0.0176(7) 0.0179(9) 0.0149(6) 0.0009(6) 0.0049(5) -0.0029(6)
C8 0.0171(7) 0.0158(8) 0.0136(6) 0.0021(6) 0.0036(5) -0.0009(6)
C7 0.0147(6) 0.0148(8) 0.0126(6) 0.0010(6) 0.0029(5) -0.0004(6)
C14 0.0216(7) 0.0172(8) 0.0185(7) 0.0022(6) 0.0073(6) -0.0004(7)
loop_
_atom_type_symbol
_atom_type_description
_atom_type_scat_dispersion_real
_atom_type_scat_dispersion_imag
_atom_type_scat_source
C C 0.0181 0.0091 'International Tables Vol C Tables 4.2.6.8 and 6.1.1.4'
H H 0.0000 0.0000 'International Tables Vol C Tables 4.2.6.8 and 6.1.1.4'
O O 0.0492 0.0322 'International Tables Vol C Tables 4.2.6.8 and 6.1.1.4'
loop_
_geom_angle_atom_site_label_1
_geom_angle_atom_site_label_2
_geom_angle_atom_site_label_3
_geom_angle
_geom_angle_site_symmetry_1
_geom_angle_site_symmetry_3
_geom_angle_publ_flag
C5 O6 C1 105.67(11) . . ?
O6 C1 C8 109.52(12) . . ?
O6 C1 C2 105.05(13) . . ?
C8 C1 C2 118.79(12) . . ?
O6 C1 C7 102.01(11) . . ?
C8 C1 C7 115.09(14) . . ?
C2 C1 C7 104.67(12) . . ?
C2 C3 C4 103.36(12) . . ?
O11 C5 O6 121.42(14) . . ?
O11 C5 C4 130.25(14) . . ?
O6 C5 C4 108.23(12) . . ?
C5 C4 C12 115.85(12) . . ?
C5 C4 C7 99.74(12) . . ?
C12 C4 C7 118.18(14) . . ?
C5 C4 C3 101.58(12) . . ?
C12 C4 C3 116.04(13) . . ?
C7 C4 C3 102.78(11) . . ?
C1 C2 C3 101.64(11) . . ?
O9 C8 O10 125.11(15) . . ?
O9 C8 C1 124.55(14) . . ?
O10 C8 C1 110.27(12) . . ?
C13 C7 C14 109.48(14) . . ?
C13 C7 C4 114.91(12) . . ?
C14 C7 C4 112.89(12) . . ?
C13 C7 C1 113.98(11) . . ?
C14 C7 C1 113.33(12) . . ?
C4 C7 C1 91.40(12) . . ?
loop_
_geom_bond_atom_site_label_1
_geom_bond_atom_site_label_2
_geom_bond_distance
_geom_bond_site_symmetry_2
_geom_bond_publ_flag
O11 C5 1.212(2) . ?
O6 C5 1.3564(17) . ?
O6 C1 1.4680(18) . ?
O10 C8 1.3286(19) . ?
O9 C8 1.2064(19) . ?
C1 C8 1.508(2) . ?
C1 C2 1.532(2) . ?
C1 C7 1.555(2) . ?
C3 C2 1.5553(19) . ?
C3 C4 1.561(2) . ?
C13 C7 1.520(2) . ?
C5 C4 1.508(2) . ?
C4 C12 1.5142(19) . ?
C4 C7 1.554(2) . ?
C7 C14 1.534(2) . ?
