#------------------------------------------------------------------------------
#$Date: 2022-02-04 21:15:49 +0200 (Fri, 04 Feb 2022) $
#$Revision: 272593 $
#$URL: file:///home/coder/svn-repositories/cod/cif/1/56/58/1565834.cif $
#------------------------------------------------------------------------------
#
# This file is available in the Crystallography Open Database (COD),
# http://www.crystallography.net/
#
# All data on this site have been placed in the public domain by the
# contributors.
#
data_1565834
loop_
_publ_author_name
'Ai, Yong'
'Li, Peng-Fei'
'Yang, Meng-Juan'
'Xu, Yu-Qiu'
'Li, Meng-Zhen'
'Xiong, Ren-Gen'
_publ_section_title
;
 An organic plastic ferroelectric with high Curie point
;
_journal_issue                   3
_journal_name_full               'Chemical Science'
_journal_page_first              748
_journal_page_last               753
_journal_paper_doi               10.1039/D1SC06781H
_journal_volume                  13
_journal_year                    2022
_chemical_formula_moiety         'C10 H14 O4'
_chemical_formula_sum            'C10 H14 O4'
_chemical_formula_weight         198.21
_space_group_crystal_system      monoclinic
_space_group_IT_number           4
_space_group_name_Hall           'P 2yb'
_space_group_name_H-M_alt        'P 1 21 1'
_atom_sites_solution_hydrogens   geom
_atom_sites_solution_primary     dual
_audit_creation_date             2021-08-04
_audit_creation_method
;
Olex2 1.3-ac4
(compiled 2020.11.27 svn.r5f609507 for Rigaku Oxford Diffraction, GUI svn.r6214)
;
_audit_update_record
;
2021-09-08 deposited with the CCDC.	2021-12-17 downloaded from the CCDC.
;
_cell_angle_alpha                90
_cell_angle_beta                 103.203(3)
_cell_angle_gamma                90
_cell_formula_units_Z            2
_cell_length_a                   6.3879(2)
_cell_length_b                   10.8484(3)
_cell_length_c                   7.6137(3)
_cell_measurement_reflns_used    2383
_cell_measurement_temperature    373.01(11)
_cell_measurement_theta_max      75.6100
_cell_measurement_theta_min      4.0090
_cell_volume                     513.67(3)
_computing_cell_refinement       'CrysAlisPro 1.171.41.108a (Rigaku OD, 2021)'
_computing_data_collection       'CrysAlisPro 1.171.41.108a (Rigaku OD, 2021)'
_computing_data_reduction        'CrysAlisPro 1.171.41.108a (Rigaku OD, 2021)'
_computing_molecular_graphics    'Olex2 1.3-ac4 (Dolomanov et al., 2009)'
_computing_publication_material  'Olex2 1.3-ac4 (Dolomanov et al., 2009)'
_computing_structure_refinement  'SHELXL 2018/1 (Sheldrick, 2015)'
_computing_structure_solution    'SHELXT 2014/5 (Sheldrick, 2014)'
_diffrn_ambient_environment      air
_diffrn_ambient_temperature      373.01(11)
_diffrn_detector                 'Hybrid Pixel Array Detector'
_diffrn_detector_area_resol_mean 10.0000
_diffrn_detector_type            HyPix
_diffrn_measured_fraction_theta_full 0.963
_diffrn_measured_fraction_theta_max 0.907
_diffrn_measurement_details
;
List of Runs (angles in degrees, time in seconds):

  # Type    Start    End  Width  t~exp~   \w     \q     \k     \f   Frames
#--------------------------------------------------------------------------
  1  \w    -28.00  18.00   0.50    0.05    --   45.15 -37.00-150.00   92
  2  \w     37.00  62.00   0.50    0.20    --  107.00 -61.00-180.00   50
  3  \w      1.00  26.00   0.50    0.05    --   45.15 -25.00-104.00   50
  4  \w     35.00  66.00   0.50    0.20    --  107.00 -61.00 -30.00   62
  5  \w     49.00  84.00   0.50    0.05    --   45.15  25.00  59.00   70
  6  \w     38.00  67.00   0.50    0.20    --  107.00 -61.00 120.00   58
  7  \w    100.00 164.00   0.50    0.20    --  107.00  25.00  59.00  128
  8  \w   -107.00 -71.00   0.50    0.20    -- -102.00 125.00 150.00   72
  9  \w    -68.00 -34.00   0.50    0.20    -- -102.00 125.00 150.00   68
 10  \w    -64.00 -34.00   0.50    0.05    --  -45.15 -25.00-104.00   60
 11  \w   -108.00 -73.00   0.50    0.05    --  -45.15 -25.00-104.00   70
 12  \w   -120.00 -93.00   0.50    0.20    -- -102.00 -25.00-104.00   54
 13  \w   -175.00-144.00   0.50    0.20    -- -102.00 -15.00 -30.00   62
 14  \w   -119.00 -87.00   0.50    0.20    -- -102.00 -15.00 -30.00   64
 15  \w    -98.00 -67.00   0.50    0.20    -- -102.00  77.00 -90.00   62
 16  \w    -53.00 -28.00   0.50    0.20    -- -102.00  77.00 -90.00   50
 17  \w    -59.00 -29.00   0.50    0.20    -- -102.00  61.00   0.00   60
 18  \w    -60.00 -34.00   0.50    0.20    -- -102.00  61.00 -30.00   52
 19  \w    -53.00 -28.00   0.50    0.20    -- -102.00  61.00-120.00   50
 20  \w    -68.00 -32.00   0.50    0.20    -- -102.00  61.00-180.00   72
 21  \w    -39.00  27.00   0.50    0.05    --  -45.15  37.00-180.00  132
 22  \w    -69.00 -28.00   0.50    0.20    -- -102.00  61.00  60.00   82
 23  \w    -68.00 -29.00   0.50    0.20    -- -102.00  61.00 120.00   78
 24  \w    -64.00 -30.00   0.50    0.20    -- -102.00  61.00 150.00   68
 25  \w    -28.00  31.00   0.50    0.05    --  -45.15  25.00  59.00  118
;
_diffrn_measurement_device       'four-circle diffractometer'
_diffrn_measurement_device_type  'XtaLAB Synergy R, DW system, HyPix'
_diffrn_measurement_method       '\w scans'
_diffrn_orient_matrix_type
'CrysAlisPro convention (1999,Acta A55,543-557)'
_diffrn_orient_matrix_UB_11      0.0735755000
_diffrn_orient_matrix_UB_12      0.0475965000
_diffrn_orient_matrix_UB_13      -0.1667974000
_diffrn_orient_matrix_UB_21      0.2363779000
_diffrn_orient_matrix_UB_22      -0.0195190000
_diffrn_orient_matrix_UB_23      0.0990169000
_diffrn_orient_matrix_UB_31      -0.0084305000
_diffrn_orient_matrix_UB_32      -0.1323836000
_diffrn_orient_matrix_UB_33      -0.0745893000
_diffrn_radiation_monochromator  mirror
_diffrn_radiation_probe          x-ray
_diffrn_radiation_type           'Cu K\a'
_diffrn_radiation_wavelength     1.54184
_diffrn_reflns_av_R_equivalents  0.0224
_diffrn_reflns_av_unetI/netI     0.0198
_diffrn_reflns_Laue_measured_fraction_full 0.963
_diffrn_reflns_Laue_measured_fraction_max 0.907
_diffrn_reflns_limit_h_max       7
_diffrn_reflns_limit_h_min       -8
_diffrn_reflns_limit_k_max       5
_diffrn_reflns_limit_k_min       -13
_diffrn_reflns_limit_l_max       8
_diffrn_reflns_limit_l_min       -9
_diffrn_reflns_number            2651
_diffrn_reflns_point_group_measured_fraction_full 0.656
_diffrn_reflns_point_group_measured_fraction_max 0.607
_diffrn_reflns_theta_full        67.684
_diffrn_reflns_theta_max         75.755
_diffrn_reflns_theta_min         7.121
_diffrn_source                   'Rotating-anode X-ray tube'
_diffrn_source_type              'Rigaku (Cu) X-ray Source'
_exptl_absorpt_coefficient_mu    0.827
_exptl_absorpt_correction_T_max  1.00000
_exptl_absorpt_correction_T_min  0.62294
_exptl_absorpt_correction_type   multi-scan
_exptl_absorpt_process_details
;
CrysAlisPro 1.171.41.108a (Rigaku Oxford Diffraction, 2021)
Empirical absorption correction using spherical harmonics,
implemented in SCALE3 ABSPACK scaling algorithm.
;
_exptl_crystal_colour            colourless
_exptl_crystal_density_diffrn    1.281
_exptl_crystal_description       needle
_exptl_crystal_F_000             212
_refine_diff_density_max         0.359
_refine_diff_density_min         -0.317
_refine_diff_density_rms         0.091
_refine_ls_abs_structure_details
;
 Classical Flack method preferred over Parsons because s.u. lower.
;
_refine_ls_abs_structure_Flack   0.2(8)
_refine_ls_extinction_method     none
_refine_ls_goodness_of_fit_ref   1.416
_refine_ls_hydrogen_treatment    constr
_refine_ls_matrix_type           full
_refine_ls_number_parameters     131
_refine_ls_number_reflns         1299
_refine_ls_number_restraints     1
_refine_ls_restrained_S_all      1.416
_refine_ls_R_factor_all          0.0584
_refine_ls_R_factor_gt           0.0544
_refine_ls_shift/su_max          0.000
_refine_ls_shift/su_mean         0.000
_refine_ls_structure_factor_coef Fsqd
_refine_ls_weighting_details
'w=1/[\s^2^(Fo^2^)+(0.1777P)^2^+0.1069P] where P=(Fo^2^+2Fc^2^)/3'
_refine_ls_weighting_scheme      calc
_refine_ls_wR_factor_gt          0.2882
_refine_ls_wR_factor_ref         0.2892
_reflns_Friedel_coverage         0.270
_reflns_Friedel_fraction_full    0.310
_reflns_Friedel_fraction_max     0.272
_reflns_number_gt                1261
_reflns_number_total             1299
_reflns_threshold_expression     'I > 2\s(I)'
_cod_data_source_file            d1sc06781h2.cif
_cod_data_source_block           ay-cas13429-83-9-373k_auto
_cod_depositor_comments
'Adding full bibliography for 1565833--1565834.cif.'
_cod_original_sg_symbol_H-M      'P 21'
_cod_database_code               1565834
_shelx_shelxl_version_number     2018/1
_chemical_oxdiff_formula         'C N H O '
_chemical_oxdiff_usercomment     'C H N O'
_shelx_space_group_comment
;
The symmetry employed for this shelxl refinement is uniquely defined
by the following loop, which should always be used as a source of
symmetry information in preference to the above space-group names.
They are only intended as comments.
;
_reflns_odcompleteness_completeness 96.82
_reflns_odcompleteness_iscentric 1
_reflns_odcompleteness_theta     66.97
_olex2_refinement_description
;
1. Fixed Uiso
 At 1.2 times of:
  All C(H,H) groups
 At 1.5 times of:
  All C(H,H,H) groups, All O(H) groups
2.a Secondary CH2 refined with riding coordinates:
 C00A(H00A,H00B), C00C(H00F,H00G)
2.b Idealised Me refined as rotating group:
 C00B(H00C,H00D,H00E), C00D(H00H,H00I,H00J), C00E(H00K,H00L,H00M)
2.c Idealised tetrahedral OH refined as rotating group:
 O002(H002)
;
_shelx_res_file
;
TITL ay-cas13429-83-9-373k_auto_a.res in P2(1)
    ay-cas13429-83-9-373k_auto.res
    created by SHELXL-2018/1 at 18:24:08 on 04-Aug-2021
REM Old TITL AY-CAS13429-83-9-373K_auto in P2(1)/m
REM SHELXT solution in P2(1)
REM R1 0.154, Rweak 0.158, Alpha 0.010, Orientation as input
REM Flack x = -3.065 ( 1.258 ) from Parsons' quotients
REM Formula found by SHELXT: C10 O4
CELL 1.54184 6.3879 10.8484 7.6137 90 103.203 90
ZERR 10 0.0002 0.0003 0.0003 0 0.003 0
LATT -1
SYMM -X,0.5+Y,-Z
SFAC C H N O
UNIT 10 10 10 10

L.S. 20
PLAN  1
TEMP 100
BOND $H
list 4
fmap 2 53
ACTA
REM <olex2.extras>
REM <HklSrc "%.\\AY-CAS13429-83-9-373K_auto.hkl">
REM </olex2.extras>

WGHT    0.177700    0.106900
FVAR       2.75458
O001  4   -0.440216   -0.421433   -0.357068    11.00000    0.05536    0.05481 =
         0.05514   -0.00034    0.01216    0.01608
O002  4   -0.397926   -0.638248   -0.698643    11.00000    0.07442    0.08060 =
         0.06680   -0.02460    0.02718   -0.02456
AFIX 147
H002  2   -0.482110   -0.687038   -0.759921    11.00000   -1.50000
AFIX   0
O003  4   -0.349014   -0.314342   -0.102156    11.00000    0.10440    0.06654 =
         0.06124   -0.00973    0.01785    0.03107
O004  4   -0.679288   -0.590875   -0.586549    11.00000    0.04952    0.14701 =
         0.08179   -0.02426    0.01174   -0.01374
C005  1   -0.306395   -0.394551   -0.197722    11.00000    0.06768    0.04986 =
         0.05115    0.00082    0.01475    0.01288
C006  1   -0.213958   -0.591520   -0.278232    11.00000    0.05211    0.04529 =
         0.04446    0.00472    0.01523    0.00508
C007  1   -0.492107   -0.583089   -0.582689    11.00000    0.05473    0.06532 =
         0.04276   -0.00067    0.01152   -0.00735
C008  1   -0.110165   -0.474433   -0.178479    11.00000    0.05517    0.05124 =
         0.04815   -0.00136    0.00795    0.00660
C009  1   -0.330004   -0.514632   -0.443217    11.00000    0.04839    0.04630 =
         0.03983    0.00165    0.01524    0.00258
C00A  1   -0.148818   -0.444958   -0.500107    11.00000    0.06356    0.05884 =
         0.05390    0.00544    0.02159   -0.01173
AFIX  23
H00A  2   -0.201448   -0.370375   -0.565779    11.00000   -1.20000
H00B  2   -0.078560   -0.496020   -0.574075    11.00000   -1.20000
AFIX   0
C00B  1   -0.054561   -0.685655   -0.317508    11.00000    0.07337    0.05530 =
         0.06321    0.00116    0.02008    0.01750
AFIX 137
H00C  2    0.034578   -0.714432   -0.206003    11.00000   -1.50000
H00D  2    0.033733   -0.648078   -0.389076    11.00000   -1.50000
H00E  2   -0.131274   -0.753940   -0.382264    11.00000   -1.50000
AFIX   0
C00C  1    0.003612   -0.415110   -0.317520    11.00000    0.05908    0.06359 =
         0.06551   -0.00549    0.01511   -0.01399
AFIX  23
H00F  2    0.019097   -0.326784   -0.299296    11.00000   -1.20000
H00G  2    0.144470   -0.451189   -0.309254    11.00000   -1.20000
AFIX   0
C00D  1   -0.369596   -0.656248   -0.180965    11.00000    0.08437    0.06398 =
         0.06551    0.01258    0.03567   -0.00378
AFIX 137
H00H  2   -0.462119   -0.596130   -0.145316    11.00000   -1.50000
H00I  2   -0.288937   -0.698024   -0.075986    11.00000   -1.50000
H00J  2   -0.454864   -0.714984   -0.260892    11.00000   -1.50000
AFIX   0
C00E  1    0.025299   -0.487066    0.012526    11.00000    0.09056    0.08754 =
         0.06011   -0.01112   -0.00507    0.02135
AFIX 137
H00K  2   -0.056313   -0.528763    0.085907    11.00000   -1.50000
H00L  2    0.065318   -0.406686    0.061578    11.00000   -1.50000
H00M  2    0.152501   -0.533733    0.010800    11.00000   -1.50000
AFIX   0
HKLF 4




REM  ay-cas13429-83-9-373k_auto_a.res in P2(1)
REM R1 =  0.0544 for    1261 Fo > 4sig(Fo)  and  0.0584 for all    1299 data
REM    131 parameters refined using      1 restraints

END

WGHT      0.1777      0.1069

REM Highest difference peak  0.359,  deepest hole -0.317,  1-sigma level  0.091
Q1    1  -0.6241 -0.5162 -0.6115  11.00000  0.05    0.36
;
_shelx_res_checksum              68022
_shelx_hkl_file
;
   0   0  -2 1320.84   14.19
   0   0  -2 1246.00   12.61
   0   0   3  760.59   10.56
   0   0  -3  709.10   10.31
   0   0   4  179.17    5.65
   0   0  -4  166.52    5.43
   0   0   5    3.21    1.00
   0   0   5    3.56    0.54
   0   0   6  112.91    6.66
   0   0   6  106.37    2.94
   0   0  -7  643.34   16.50
   0   0  -8  298.97    9.55
   0  -1   0    0.06    0.07
   0   1  -2 1115.18   12.87
   0   1  -2 1066.58   11.32
   0   1  -3 2472.93   23.82
   0   1   3 2482.73   22.57
   0  -1   4   64.09    3.62
   0   1   4   58.12    2.91
   0  -1   5  512.74    6.61
   0  -1   5  515.16   11.84
   0   1   5  502.85    6.25
   0  -1   6    2.28    0.60
   0   1   6    3.73    1.53
   0  -1  -7  266.12   11.28
   0   1  -7 1997.38   27.03
   0  -1  -8  304.20    9.93
   0   1  -8  174.13    6.96
   0  -1  -9    5.85    0.57
   0  -2  -2 3142.07   25.66
   0   2  -2 3070.84   25.44
   0  -2   2 3089.75   28.09
   0   2  -3  334.89    6.69
   0   2   3  316.31    5.12
   0  -2   3  339.49    8.24
   0  -2   4  430.86   10.53
   0  -2   5  576.27    7.33
   0  -2   5  583.72   13.39
   0   2   6  293.97   10.83
   0  -2   6  292.50   10.79
   0  -2   6  282.14    9.92
   0  -2   6  276.76    5.22
   0  -2  -7  584.85   16.17
   0  -2  -8  272.72   10.05
   0  -2  -9   14.89    0.79
   0  -2  -9   13.36    0.74
   0  -3   0    3.23    0.32
   0  -3   0    0.98    0.34
   0  -3   3  473.44   10.52
   0  -3   4  371.08   10.20
   0  -3   5  223.10    8.57
   0  -3   5  220.60    4.30
   0   3   5  232.69    8.62
   0  -3   6  233.63    9.74
   0  -3   6  222.56    9.42
   0   3   6  237.02    9.69
   0  -3  -7 1839.86   29.88
   0  -3  -8  112.90    6.25
   0  -4   0 5301.52   41.49
   0  -4   1 1109.39    9.27
   0   4   1 1057.76    8.25
   0   4   2 4359.36   34.77
   0   4   3  659.90   10.86
   0  -4   3  658.86   13.34
   0  -4   4  184.44    3.57
   0  -4  -4  200.76    3.81
   0  -4   4  185.82    6.64
   0   4   4  184.23    6.57
   0  -4   4  181.42    7.49
   0  -4   5   61.62    4.77
   0  -4   5   63.19    2.31
   0  -4   5   70.69    4.74
   0   4   5   60.54    4.43
   0  -4   6 1189.66   23.57
   0  -4   6 1187.49   22.28
   0  -4  -7  145.76    8.40
   0  -4  -8   16.80    1.07
   0  -4  -8   11.04    2.29
   0  -5   0    0.09    0.38
   0  -5   1  312.56    7.42
   0  -5   1  311.95    4.23
   0  -5   2   90.65    2.77
   0  -5   2   84.44    4.39
   0  -5   3 1201.76   15.82
   0  -5   4  555.79   13.97
   0  -5   4  527.31    6.15
   0  -5  -4  544.25    5.59
   0  -5   4  554.63   11.47
   0  -5   5  274.56    9.28
   0  -5   5  286.51   10.99
   0  -5  -5  281.83   10.78
   0  -5  -6 4848.31   55.66
   0  -5  -7   16.62    1.23
   0  -5  -7   14.51    1.19
   0  -6   0 1260.29   15.56
   0  -6   1 1663.91   21.34
   0  -6   2  109.60    5.43
   0  -6  -3  193.98    3.53
   0  -6   3  195.68    8.09
   0  -6  -4   12.63    1.08
   0  -6  -4   11.27    0.91
   0  -6   5  108.16    7.06
   0  -6  -5  105.06    3.22
   0  -6  -6   53.55    2.24
   0  -6  -6   48.69    2.20
   0  -6  -7   22.93    3.06
   0  -6   8   29.03    1.20
   0  -7   0    0.67    0.33
   0  -7   0    0.20    0.44
   0  -7  -1  505.97    6.47
   0  -7   1  504.71   11.17
   0  -7   1  504.09    6.50
   0  -7   2  811.37   16.60
   0  -7  -2  825.87    8.98
   0  -7   2  795.89    8.90
   0  -7  -3  174.85    3.42
   0  -7   3  181.88    8.39
   0  -7   4  986.71   20.90
   0  -7  -4  961.56    8.09
   0  -7  -5  324.70   10.65
   0  -7   6   18.35    1.22
   0  -7   6   15.97    1.25
   0  -7   7   32.16    1.44
   0  -8   0  210.13    3.91
   0  -8   0  215.94    4.14
   0  -8   1   61.81    4.01
   0  -8  -1   68.24    2.30
   0  -8   1   66.23    2.27
   0  -8   1   62.63    2.15
   0  -8   1   68.20    2.43
   0  -8  -1   61.57    1.80
   0  -8   2   98.97    5.71
   0  -8   2  103.65    2.86
   0  -8  -3   50.43    2.00
   0  -8   3   38.04    3.99
   0  -8   4  129.78    7.59
   0  -8  -4  131.08    3.18
   0  -8   5   90.53    3.12
   0  -8   5   88.20    2.87
   0  -8   6   47.73    1.95
   0  -8   6   52.44    1.93
   0  -9   0    0.38    0.37
   0  -9   0   -0.12    0.50
   0  -9   0   -0.09    0.43
   0  -9   1   11.85    1.11
   0  -9  -1   12.66    1.12
   0  -9  -1   12.37    0.86
   0  -9   1   12.09    1.08
   0  -9   1   13.18    1.20
   0  -9   2   36.29    3.64
   0  -9   2   40.36    2.12
   0  -9   2   40.90    1.99
   0  -9   3  383.96    6.67
   0  -9  -3  424.25    6.34
   0  -9   4   95.63    3.08
   0  -9   4   87.15    3.18
   0  -9   5    3.32    0.74
   0  -9   5    3.80    0.71
   0  -9   6   10.54    0.78
   0  -9   6    9.98    0.83
   0 -10   0  184.20    3.99
   0 -10   0  187.57    3.77
   0 -10   0  189.00    4.24
   0 -10  -1   34.21    1.79
   0 -10   1   33.18    1.82
   0 -10   1   35.00    1.71
   0 -10   1   32.99    1.73
   0 -10   1   34.41    1.77
   0 -10   2   34.48    1.68
   0 -10   2   38.43    1.95
   0 -10   2   32.98    1.88
   0 -10   2   35.66    2.00
   0 -10  -3   43.82    1.89
   0 -10   3   37.25    2.06
   0 -10   4   14.58    1.28
   0 -10   4   15.64    1.26
   0 -10   5   65.54    2.25
   0 -10   5   69.85    2.12
   0 -10   6   20.93    1.09
   0 -10   6   21.14    0.81
   0 -10   6   21.35    0.93
   0 -11   0    0.12    0.54
   0 -11   1  206.82    4.00
   0 -11   1  204.51    4.32
   0 -11   1  201.90    4.15
   0 -11  -1  206.84    4.24
   0 -11   2  208.17    3.92
   0 -11   2  208.55    4.54
   0 -11  -2  216.25    4.23
   0 -11   2  212.73    4.20
   0 -11  -3   54.58    1.90
   0 -11   3   50.25    2.17
   0 -11   4  102.95    2.57
   0 -11   5    3.97    0.53
   0 -11   5    4.59    0.50
   0 -12   0   99.30    2.61
   0 -12  -1  139.42    3.10
   0 -12   1  132.05    2.90
   0 -12   2   21.02    0.99
   0 -12   2   22.95    1.17
   0 -12  -2   23.30    1.21
   0 -12   3   47.59    1.69
   0 -12   3   50.07    1.61
   0 -12   4   11.88    0.74
   0 -13   0    0.39    0.32
   0 -13   1    0.41    0.25
   1   0  -9   53.04    3.27
   1   0  -8  691.80   16.09
  -1   0   7    5.60    1.76
  -1   0   7    4.96    0.74
  -1   0   6  680.43    8.43
   1   0  -5   87.12    2.38
  -1   0   5   83.29    2.24
   1   0  -3 3047.02   30.21
   1   0  -2 1035.36   12.72
   1   0   0  932.27    9.48
  -1   0   0  913.15    9.04
   1   0   1 4773.12   35.53
   1   0   1 4701.38   36.61
   1   0   2   41.78    1.99
   1   0   2   41.31    2.31
  -1   0  -3  352.65    7.25
   1   0   3  375.27    7.38
   1   0   3  368.40    8.46
  -1   0  -4 4346.17   40.84
   1   0   4 4359.78   39.85
   1   0   4 4357.80   44.04
  -1   0  -5  170.25    6.61
   1   0   5  165.64    7.57
   1   0   6  266.21   10.29
  -1   0  -6   37.94    4.00
  -1   0  -7   30.95    3.66
   1  -1  -9   64.78    3.86
   1   1  -8  884.15   16.63
   1  -1  -8   17.10    3.44
  -1   1   7  137.51    3.38
  -1  -1   7  142.42    3.64
   1  -1  -6  568.48    7.71
  -1   1   6  564.83    7.32
  -1  -1   6  560.60   14.18
  -1  -1   6  565.96    7.66
  -1  -1   5  246.07    4.18
  -1   1   5  237.49    3.91
  -1  -1   5  247.74    8.51
   1   1  -5  249.29    4.14
   1   1  -4  134.33    5.73
   1  -1  -4  125.61    5.35
   1  -1  -3   95.59    3.98
   1   1  -3   92.92    4.06
   1   1  -2   24.29    1.72
   1  -1  -2   24.66    1.68
  -1   1   1 6655.80   48.83
  -1  -1  -1 2915.08   24.18
   1   1   1 2892.67   24.38
   1  -1   1 2955.78   24.69
   1   1   2 9199.22   65.26
   1   1   3 4496.15   36.04
   1  -1   3 4560.12   39.93
   1   1   3 4474.59   41.12
   1   1   4 1017.63   17.31
   1  -1   4  969.23   15.86
  -1   1  -4 1012.22   15.56
  -1   1  -5  127.16    5.70
   1  -1   5  121.76    5.60
   1   1   5  122.01    6.47
   1   1   6    8.35    2.05
  -1   1  -6  305.83    9.91
  -1  -1  -7    5.99    2.48
  -1  -1  -8    2.35    1.34
   1  -1   8    8.06    0.75
   1  -2  -9   58.93    3.66
   1  -2  -9   17.86    0.99
   1   2  -8   25.92    3.13
   1  -2  -8  635.43   14.93
  -1  -2   7  196.78    4.42
  -1  -2   6  194.33    8.66
   1  -2  -6  192.02    4.22
  -1  -2   6  191.69    4.23
  -1  -2   5   82.95    2.40
   1  -2  -5   86.05    2.53
   1  -2  -4  993.39   16.08
   1   2  -4  999.80   17.11
   1  -2  -3  552.38   10.03
   1   2  -3  564.78   10.73
   1  -2  -2 1673.54   17.47
   1   2  -2 1703.65   18.43
  -1   2   1 9337.20   66.83
   1  -2  -1 9339.08   67.04
   1   2   0 3957.93   30.26
   1  -2   0 3939.78   30.16
  -1   2   0 3983.28   27.78
  -1  -2   0 3984.49   31.10
   1  -2   1 3268.38   26.67
   1   2   1 3217.82   26.63
   1  -2   1 3204.69   28.29
  -1  -2  -1 3170.53   26.73
   1  -2   2 2311.19   23.12
   1  -2   2 2330.21   23.72
   1   2   2 2339.49   22.88
  -1   2  -3  183.04    5.05
   1  -2   3  187.10    6.04
   1   2   3  192.26    6.11
  -1  -2  -3  181.79    5.07
   1  -2   3  183.95    6.02
   1  -2   4 1382.81   20.70
   1   2   4 1351.31   20.86
  -1  -2  -4 1429.18   19.25
  -1   2  -4 1414.53   19.20
   1  -2   4 1404.56   21.27
  -1  -2  -5  240.54    7.99
   1  -2   5  252.63    8.89
   1   2   5  240.03    9.10
  -1   2  -5  240.92    8.05
   1  -2   5  247.72    9.30
   1  -2   6   99.52    6.45
   1   2   6   98.41    6.37
  -1  -2  -7   24.42    3.73
  -1  -2  -8    6.87    1.72
   1  -2   8    0.94    0.42
   1  -3  -9   38.03    2.84
   1  -3  -9    2.72    0.44
   1  -3  -8  807.67   17.23
  -1  -3   7  400.93    6.66
   1  -3  -6  313.27    5.63
  -1  -3   6  314.50   11.42
  -1  -3   6  318.85    5.66
  -1  -3   5  987.33   19.50
   1  -3  -5 1026.12   11.00
  -1  -3   4 1395.80   21.78
   1   3  -4 1385.06   20.45
   1  -3  -3  595.27   10.39
   1   3  -3  596.10   11.40
   1  -3  -2 1624.04   16.66
   1   3  -2 1661.14   18.20
  -1   3   1 1310.92   12.53
   1   3  -1 1333.85   13.64
   1  -3  -1 1319.38   12.55
  -1  -3   1 1281.97   12.86
   1  -3   0 2221.50   18.35
   1  -3   0 2216.34   21.04
  -1  -3  -1 5563.10   43.26
   1  -3   2 9989.57   74.67
   1  -3   2 9883.99   77.87
   1   3   2 9999.00   74.92
  -1   3  -3 1327.16   16.05
  -1  -3  -3 1277.75   15.71
   1  -3   3 1327.22   19.18
   1   3   3 1269.53   17.57
   1  -3   3 1270.13   17.91
  -1   3  -4  156.10    5.72
   1   3   4  146.02    6.20
  -1  -3  -4  153.56    5.66
   1  -3   4  151.78    6.65
   1  -3   4  147.91    6.23
   1  -3   5  191.83    8.27
   1   3   5  189.15    8.25
   1  -3   5  196.93    8.27
   1   3   6   23.01    3.18
   1  -3   6   23.91    3.24
  -1  -3  -7  148.74    7.59
  -1  -3  -8   11.15    0.93
   1  -3   8   12.16    0.91
   1  -4  -9    2.44    0.33
   1  -4  -8   23.12    1.41
  -1  -4   6  119.45    6.66
  -1  -4   6  112.25    6.89
  -1  -4   5  576.98    7.66
   1  -4  -5  586.91    7.81
  -1  -4   5  570.86   15.72
  -1  -4   4  128.38    6.46
  -1  -4   4  129.01    2.86
   1   4  -3  867.99   14.14
   1  -4  -2 1282.64   13.75
   1   4  -2 1329.79   15.92
  -1  -4   2 1281.86   14.92
  -1   4   2 1342.61   14.55
   1   4  -1  321.89    5.58
   1  -4  -1  311.61    4.24
  -1  -4   0 6058.82   45.79
  -1  -4   0 6044.75   45.03
   1  -4   0 6072.13   48.23
   1   4   1  502.53    7.23
   1  -4   1  480.69    9.40
   1  -4   2  151.73    4.57
  -1   4  -2  147.43    3.78
   1  -4   2  151.62    5.75
  -1  -4  -2  142.81    3.69
   1  -4   3   90.24    4.23
  -1  -4  -3   81.68    3.57
  -1   4  -3   87.23    3.71
   1   4   3   76.27    3.85
   1  -4   3   79.83    4.66
   1  -4   4  110.97    6.07
   1   4   4  108.87    5.42
  -1  -4  -4  112.06    4.75
  -1   4  -4  112.83    4.83
   1  -4   4  117.56    5.61
   1  -4   5   94.44    5.85
   1  -4   5   92.59    6.05
   1   4   5   93.81    5.67
  -1  -4  -6   83.63    6.50
  -1  -4  -7    1.02    0.58
  -1  -4  -7   15.15    2.71
  -1  -4  -8    1.98    0.47
   1  -4   8    1.93    0.46
   1  -5  -8    0.99    0.44
   1  -5  -8   64.36    4.71
   1  -5  -7  985.69   19.53
   1  -5  -7   62.50    2.54
  -1  -5   6  728.10    9.38
  -1  -5   6  709.01   18.21
   1  -5  -5  324.74    5.63
  -1  -5   5  311.71    5.42
  -1  -5   5  315.07   11.75
   1  -5  -4  554.36    7.19
  -1  -5   4  535.54    6.83
  -1  -5   3   37.57    3.33
  -1  -5   3   38.31    2.68
  -1  -5   2  826.30   10.69
  -1  -5   2  758.13   13.73
  -1  -5   1  573.34    9.00
  -1  -5   1  573.25   10.26
  -1  -5   0  639.89    9.04
  -1  -5   0  615.92    8.58
   1  -5   0  647.70   11.08
   1  -5   1   19.71    1.10
   1  -5   1   20.16    2.03
  -1  -5  -2 1071.59   12.02
   1  -5   3  723.43   12.72
  -1  -5  -3  736.02    9.08
   1  -5   3  747.25   15.87
  -1  -5  -4  312.09    6.04
   1  -5   4  288.65    8.97
   1  -5   4  310.23   10.81
  -1  -5  -4  292.91    5.41
   1  -5   5  202.48    9.21
   1  -5   5  208.49    4.32
  -1  -5  -5  197.09    4.96
  -1  -5  -5  190.77    4.22
   1  -5   5  193.84    8.06
  -1  -5  -6   15.44    1.42
  -1  -5  -6  550.32   14.93
  -1  -5  -7   24.58    1.49
  -1  -5  -7   -0.75    1.84
   1  -5   8   40.35    1.42
   1  -6  -8    1.88    1.42
   1  -6  -7  207.09    8.89
   1  -6  -7   41.44    1.89
   1  -6  -6    2.65    0.74
  -1  -6   6    3.25    0.65
  -1  -6   5  318.01    5.56
  -1  -6   5  316.85    5.51
   1  -6  -5  322.91    5.63
   1  -6  -5  331.63    6.23
   1  -6  -4  262.32    4.63
  -1  -6   4  251.44    4.37
  -1  -6   4  251.37    4.52
  -1  -6   4  251.33   10.10
   1  -6  -3  699.69    7.91
  -1  -6   3  656.64   15.24
   1  -6  -2 1614.69   14.17
  -1  -6   2 1673.85   15.13
  -1  -6   2 1706.31   19.33
  -1  -6   2 1619.10   23.15
  -1  -6   1  493.83    8.10
  -1  -6   1  489.57    9.81
   1  -6   0  239.51    7.08
  -1  -6   0  242.67    5.42
  -1  -6   0  260.74    5.49
   1  -6   1   11.54    1.70
   1  -6   2  214.57    7.93
  -1  -6  -2  210.37    4.37
  -1  -6  -2  215.91    3.64
  -1  -6  -3  395.52    4.75
  -1  -6  -3  394.01    6.26
  -1  -6  -4   73.31    2.91
  -1  -6  -4   66.32    2.50
  -1  -6  -4   76.74    2.08
   1  -6   4   68.38    5.29
  -1  -6  -5  288.43    6.14
   1  -6   5  300.08   11.49
   1  -6   5  316.63    5.71
  -1  -6  -6   21.39    1.52
  -1  -6  -6    8.54    2.81
   1  -6   7    7.00    0.81
   1  -7  -7   82.07    4.48
  -1  -7   7   29.37    1.42
  -1  -7   6   50.52    1.93
   1  -7  -6   45.14    2.01
  -1  -7   5  584.33    8.27
   1  -7  -5  562.50    8.38
  -1  -7   5  558.17   16.52
  -1  -7   4  464.66   14.11
  -1  -7   4  464.24    6.44
  -1  -7   4  478.35    6.88
   1  -7  -4  469.79    6.32
   1  -7  -3    6.52    0.80
  -1  -7   3    5.45    0.71
  -1  -7   3    5.41    0.75
  -1  -7   3    5.63    1.65
   1  -7  -2    2.61    0.56
   1  -7  -2    5.37    0.67
  -1  -7   2    2.33    0.54
  -1  -7   2    2.80    0.68
  -1  -7   2    1.48    0.96
  -1  -7   2    4.35    0.63
  -1  -7   1   47.47    1.78
   1  -7  -1   34.82    1.50
  -1  -7   1   52.16    2.00
   1  -7  -1   39.14    1.68
  -1  -7   1   37.38    1.65
   1  -7  -1   36.66    1.54
  -1  -7   1   40.10    2.94
   1  -7   0   10.79    0.83
   1  -7   0   10.85    1.65
   1  -7   0   10.72    0.91
  -1  -7   0   11.12    0.90
   1  -7   0    9.85    0.92
   1  -7   1  238.44    8.30
  -1  -7  -1  233.65    4.17
   1  -7   1  243.89    4.64
  -1  -7  -1  241.80    4.23
   1  -7   1  236.46    3.90
  -1  -7  -2    4.64    0.64
  -1  -7  -2    4.09    0.87
   1  -7   2    3.85    0.70
  -1  -7  -3   55.69    2.46
  -1  -7  -3   58.77    1.96
  -1  -7  -3   60.65    2.60
   1  -7   3   59.66    2.47
   1  -7   3   55.31    2.06
   1  -7   3   54.11    4.68
  -1  -7  -4  193.58    3.59
  -1  -7  -4  199.77    8.00
  -1  -7  -4  189.50    4.56
   1  -7   4  197.09    4.65
   1  -7   5   72.61    2.63
  -1  -7  -5   63.36    2.66
   1  -7   5   68.20    2.53
   1  -7   6    7.29    0.85
   1  -7   6    6.19    0.71
   1  -7   7   10.35    0.81
  -1  -8   7   23.53    1.10
  -1  -8   6   22.07    1.21
  -1  -8   5  189.39    4.45
   1  -8  -5 1440.58   19.41
   1  -8  -4  592.84    8.04
  -1  -8   4  605.41    8.59
  -1  -8   4  576.28    7.84
  -1  -8   3   85.82    2.79
  -1  -8   3   89.63    2.97
  -1  -8   3   88.79    5.98
   1  -8  -2  170.68    3.73
  -1  -8   2  173.74    4.00
  -1  -8   2  167.40    7.27
   1  -8  -1   50.46    2.05
   1  -8  -1   50.68    1.96
   1  -8  -1   50.88    1.93
  -1  -8   1   52.10    2.11
  -1  -8   1   53.05    2.01
  -1  -8   0  181.88    3.59
  -1  -8   0  184.06    3.61
   1  -8   0  190.94    4.10
  -1  -8   0  186.63    3.69
   1  -8   0  181.19    3.81
   1  -8   0  181.69    3.72
   1  -8   0  178.81    4.17
  -1  -8   0  187.95    4.05
  -1  -8   0  183.85    3.99
   1  -8   1  196.32    4.43
  -1  -8  -1  190.14    3.89
  -1  -8  -1  201.66    3.72
   1  -8   1  196.83    3.78
   1  -8   2   77.99    2.89
  -1  -8  -2   88.01    2.62
   1  -8   2   85.73    5.75
   1  -8   3    3.87    1.53
  -1  -8  -3    5.09    0.71
   1  -8   3    4.05    0.85
  -1  -8  -4   37.77    1.55
   1  -8   4   40.44    2.11
   1  -8   5   39.04    1.90
   1  -8   6  134.84    2.93
   1  -8   6  121.95    2.66
  -1  -9   6   14.43    1.10
  -1  -9   6   15.11    0.90
  -1  -9   5   34.62    1.68
  -1  -9   4  199.20    4.08
  -1  -9   4  216.02    4.68
  -1  -9   3   48.35    2.12
   1  -9  -3   49.84    2.08
  -1  -9   3   53.38    2.32
  -1  -9   3   45.07    4.20
   1  -9  -2  129.15    3.37
  -1  -9   2  130.24    3.59
  -1  -9   1  111.06    3.18
  -1  -9   1  109.43    3.26
   1  -9  -1  104.55    2.95
   1  -9  -1  108.80    2.96
   1  -9  -1  109.38    3.12
  -1  -9   1  109.50    3.01
   1  -9   0   93.79    2.63
   1  -9   0   91.70    2.94
   1  -9   0   94.21    2.77
  -1  -9   0   94.28    2.59
  -1  -9   0   96.49    2.68
   1  -9   0   89.33    3.01
  -1  -9  -1  175.23    3.50
   1  -9   1  171.70    3.68
   1  -9   1  174.67    4.50
   1  -9   1  171.41    4.29
  -1  -9  -2   56.22    2.19
   1  -9   2   50.72    4.50
  -1  -9  -3   80.69    2.46
   1  -9   3   78.86    2.98
   1  -9   4    7.54    0.99
   1  -9   5   12.40    1.05
   1  -9   5   12.77    1.04
   1  -9   6   16.41    1.11
   1  -9   6   18.09    0.94
  -1 -10   6   23.34    1.11
  -1 -10   5    9.00    0.96
  -1 -10   5   10.25    0.87
  -1 -10   4   13.08    1.11
  -1 -10   3   87.21    3.09
   1 -10  -3   88.96    2.71
  -1 -10   3   84.76    2.67
  -1 -10   3   90.08    2.85
   1 -10  -2   97.91    2.93
  -1 -10   2   90.92    3.07
  -1 -10   2   91.51    2.88
  -1 -10   2   91.93    2.95
  -1 -10   1  274.88    5.14
  -1 -10   1  292.41    5.15
   1 -10  -1  285.75    5.19
  -1 -10   1  287.82    4.79
   1 -10   0  142.93    3.46
   1 -10   0  150.05    3.27
  -1 -10   0  151.08    3.19
   1 -10   0  149.14    3.88
   1 -10   0  147.43    3.76
  -1 -10   0  152.61    3.86
   1 -10   1   63.75    2.59
   1 -10   1   60.69    2.61
   1 -10   1   58.18    2.22
   1 -10   1   57.24    2.03
   1 -10   2   29.46    1.66
   1 -10   2   29.46    1.83
   1 -10   2   28.78    1.88
  -1 -10  -2   26.77    1.50
   1 -10   3  188.25    4.20
  -1 -10  -3  184.98    3.66
   1 -10   3  181.59    4.70
   1 -10   3  177.44    4.41
   1 -10   4    2.06    0.70
   1 -10   4    2.59    0.64
   1 -10   4    2.13    0.64
   1 -10   5   18.72    1.08
   1 -10   5   16.92    1.03
  -1 -11   4    1.66    0.55
  -1 -11   4    2.22    0.53
  -1 -11   3   80.58    2.30
  -1 -11   3   77.32    2.61
  -1 -11   2   11.93    1.06
  -1 -11   2   11.89    1.06
   1 -11  -2   13.21    1.10
  -1 -11   2   15.79    1.18
   1 -11  -1   25.17    1.46
  -1 -11   1   24.65    1.50
   1 -11   0   59.49    2.20
   1 -11   0   58.29    2.10
  -1 -11   0   61.80    2.32
   1 -11   1   68.72    2.12
   1 -11   1   69.32    2.51
   1 -11   1   73.60    2.24
   1 -11   2  159.96    3.95
   1 -11   2  160.39    3.92
  -1 -11  -2  173.13    3.57
   1 -11   2  171.93    3.67
   1 -11   3    0.45    0.52
  -1 -11  -3    1.45    0.47
   1 -11   3    0.76    0.47
   1 -11   4   12.40    0.94
   1 -11   4   11.54    0.95
   1 -11   5    3.01    0.36
  -1 -12   4   22.18    0.99
  -1 -12   3    4.64    0.47
  -1 -12   2  147.22    2.98
   1 -12  -1   45.79    1.70
  -1 -12   1   45.36    1.77
  -1 -12   0   18.01    1.13
   1 -12   0   18.35    1.05
  -1 -12  -2   30.88    1.29
   1 -12   2   27.86    1.36
   1 -12   3   12.04    0.85
   1 -12   3   13.47    0.78
  -1 -13   1   14.19    0.78
  -1 -13   0    3.43    0.47
  -1 -13  -1   30.38    1.08
   2   0  -9    5.87    0.64
   2   0  -9  350.78    8.23
  -2   0   8   79.14    2.47
  -2   0   7   54.27    5.62
  -2   0   7   47.96    2.06
  -2   0   6   38.70    1.77
   2   0  -6   33.76    1.67
   2   0  -5    0.10    0.34
   2   0  -3   10.01    1.49
   2   0  -2  588.01   10.82
  -2   0   2  529.34    9.73
  -2   0   1  758.01   10.78
  -2   0   0 1628.42   16.77
   2   0   0 1727.70   18.07
  -2   0  -1  284.20    5.88
   2   0   2   45.02    2.93
   2   0   2   47.71    2.63
   2   0   3 8442.30   66.82
   2   0   3 8159.16   70.85
  -2   0  -4  935.57   14.31
   2   0   4  951.34   17.42
  -2   0  -5   16.12    2.34
   2   0   5   16.32    2.69
  -2   0  -6   99.12    5.39
   2   0   6  225.29    4.55
   2   0   7   14.41    1.06
  -2   0  -8   22.90    1.13
   2  -1  -9   20.67    2.41
   2  -1  -9  111.88    2.44
   2   1  -9   97.80    2.12
   2   1  -9    2.86    1.35
  -2  -1   8  147.42    3.52
  -2   1   8  149.31    3.26
  -2  -1   7   22.83    1.50
  -2   1   7   24.23    1.44
   2  -1  -7   20.44    1.39
  -2   1   6  185.34    3.86
  -2  -1   6  191.21    4.11
   2   1  -6  189.48    3.89
   2  -1  -6  197.87    4.20
   2  -1  -5  669.76   15.35
   2   1  -5  670.03    7.73
   2   1  -5  658.24   15.51
   2  -1  -5  682.36    8.13
   2   1  -4  215.67    7.70
   2  -1  -4  221.15    7.55
  -2   1   3 1251.80   18.02
   2   1  -3 1227.39   17.81
   2  -1  -3 1237.13   17.50
  -2   1   2 2251.19   24.40
   2   1  -2 2335.00   25.52
  -2   1   1  744.93   10.78
  -2  -1   0 1099.00   13.21
  -2   1   0 1097.46   12.11
  -2  -1  -1  276.49    6.07
   2  -1   1  293.03    6.65
   2  -1   2 1229.32   16.46
   2   1   3  494.91   11.54
   2  -1   3  506.87   10.76
   2  -1   4  677.18   13.07
  -2   1  -4  644.91   11.94
   2   1   4  658.25   14.55
  -2   1  -5  346.77   10.18
   2   1   5  322.04    5.09
   2   1   5  331.59   11.58
   2  -1   6   32.85    1.77
   2   1   6   34.86    1.71
   2  -1   7    1.16    0.48
  -2  -1  -8    6.12    0.65
  -2   1  -8    5.83    0.59
   2  -2  -9    0.53    0.39
   2   2  -9    0.32    0.26
  -2  -2   8   83.14    2.63
  -2   2   7   24.46    1.36
  -2  -2   7   27.00    1.64
   2  -2  -7   25.15    1.56
  -2  -2   6  162.35    3.84
   2  -2  -6  168.78    3.95
  -2   2   6  157.34    3.42
  -2  -2   6  164.71    8.39
   2  -2  -5    5.54    1.49
   2  -2  -5    4.96    0.72
   2   2  -4 2655.83   32.45
   2  -2  -4 2669.04   31.08
   2   2  -3 2242.97   26.44
  -2   2   3 2196.35   25.74
  -2  -2   3 2159.19   25.81
   2  -2  -3 2192.81   25.20
  -2   2   2 7521.67   60.73
  -2  -2   2 7575.03   60.97
   2   2  -2 7530.60   62.01
   2  -2  -2 7663.71   60.96
  -2  -2   1 3704.62   32.52
   2  -2   0  264.66    5.90
   2   2   0  269.81    5.98
  -2   2   0  252.95    4.59
   2   2   1 1489.85   18.15
   2  -2   1 1421.62   18.08
   2  -2   2 1825.25   21.98
   2  -2   3  710.57   13.57
   2   2   3  689.09   13.79
   2  -2   3  697.47   13.83
  -2   2  -4  635.05   12.47
  -2  -2  -4  648.12   12.53
   2  -2   4  622.00   14.81
   2   2   4  648.56   14.69
   2  -2   4  621.41   13.80
   2  -2   5  124.31    7.15
  -2   2  -5  133.93    6.33
  -2  -2  -5  130.53    6.22
  -2  -2  -6   87.61    5.68
   2  -2   6   10.63    1.11
  -2  -2  -7    0.56    0.56
   2  -2   7    0.72    0.45
   2  -2   8    0.12    0.26
  -2  -2  -8    0.19    0.30
  -2   2  -8    0.03    0.23
   2  -3  -9   21.50    1.04
   2  -3  -8   14.54    1.23
  -2  -3   7   13.37    1.21
   2  -3  -7   13.06    1.18
  -2  -3   6  292.86   12.04
  -2   3   6  283.19   11.86
   2  -3  -6  286.14    5.36
  -2  -3   6  262.82   10.86
   2   3  -5  204.75    8.55
  -2  -3   5  211.68    4.13
   2  -3  -5  221.83    4.40
   2  -3  -5  194.17    7.64
  -2  -3   4  284.80    9.28
   2   3  -4  262.67    8.83
  -2   3   4  280.12    9.18
   2  -3  -4  264.08    8.17
   2  -3  -3  869.89   14.02
   2   3  -3  858.60   15.09
  -2   3   3  831.38   14.48
  -2  -3   3  848.79   14.66
  -2   3   2 5319.05   45.19
  -2  -3   2 5260.24   45.43
   2   3  -2 5326.04   46.48
   2  -3  -2 5280.74   44.96
  -2  -3   1 2537.58   25.57
  -2   3   1 2525.10   20.98
  -2  -3   0 2633.50   25.94
   2  -3   0 2614.21   25.06
  -2  -3  -1 2863.20   28.08
   2   3   1 2908.36   28.53
   2  -3   1 2900.91   28.46
   2  -3   1 2841.89   30.42
   2  -3   2  588.69   11.88
   2  -3   3  880.51   16.11
  -2   3  -4  617.85   12.60
  -2  -3  -4  644.71   12.79
   2  -3   4  604.99   14.56
   2  -3   4  591.63   14.23
  -2   3  -5  266.24    8.87
  -2  -3  -5  265.15    8.79
   2  -3   5  271.36   10.13
   2  -3   6   53.36    2.30
  -2  -3  -6   50.92    2.53
   2  -3   7   62.51    2.28
  -2  -3  -7   55.70    2.31
  -2  -3  -8    1.66    0.38
   2  -3   8    2.12    0.38
   2  -4  -8   58.79    4.64
  -2  -4   6  376.78   13.42
  -2  -4   6  366.43   13.48
  -2  -4   6  397.48    6.54
  -2   4   5   87.12    5.82
  -2  -4   5   86.18    5.83
  -2  -4   5   85.66    2.63
  -2  -4   5   83.27    6.01
  -2   4   4   44.51    3.63
  -2  -4   4   44.96    3.70
   2   4  -4   41.08    3.56
   2  -4  -4   45.46    1.80
   2  -4  -4   45.42    3.28
   2  -4  -4   47.61    2.07
  -2   4   3 3149.31   32.95
  -2  -4   3 3075.86   33.38
   2  -4  -3 3032.50   30.98
   2   4  -3 3109.42   33.62
  -2  -4   2  696.94   11.47
   2  -4  -2  719.12   11.03
  -2   4   2  704.39   11.31
   2   4  -2  724.99   12.37
   2   4  -1 1231.21   16.12
  -2  -4   1 1108.12   15.67
  -2  -4   0 2108.58   22.50
   2   4   1  437.57    8.61
  -2  -4  -1  425.73    8.75
   2  -4   1  411.86    8.40
   2  -4   1  400.66    9.96
   2  -4   2  938.05   15.51
   2   4   2  905.34   14.97
  -2   4  -3  168.24    5.48
  -2  -4  -3  166.69    5.44
   2  -4   3  155.81    3.23
   2  -4   3  154.81    6.89
  -2   4  -4  780.69   14.95
  -2  -4  -4  756.91   14.59
  -2  -4  -5  774.61   16.70
   2  -4   5  310.30   11.55
  -2  -4  -6   40.98    3.91
   2  -4   6  166.08    4.07
   2  -4   7    1.13    0.51
   2  -5  -8    5.00    2.05
   2  -5  -8   48.70    1.83
   2  -5  -7   49.64    2.31
  -2  -5   7   49.72    2.13
  -2  -5   6  228.33    4.78
   2  -5  -6  229.27    4.82
   2  -5  -6  232.58    5.36
  -2  -5   6  219.09   10.41
  -2  -5   5   12.20    2.28
   2  -5  -5   12.28    1.13
   2  -5  -5   10.44    1.14
  -2  -5   5   11.67    1.06
  -2  -5   4   39.03    1.74
  -2  -5   4   40.32    1.65
   2   5  -4   38.90    3.43
   2  -5  -4   41.89    2.04
  -2  -5   4   37.55    3.96
  -2  -5   4   41.54    1.74
  -2  -5   3 2146.67   19.17
  -2  -5   3 2142.56   25.65
   2  -5  -3 2183.34   18.88
   2  -5  -3 2214.04   18.39
   2   5  -3 2191.33   26.76
   2   5  -2 2777.60   28.87
  -2  -5   2 2745.58   30.13
  -2  -5   1  272.29    7.24
   2  -5  -1  280.36    5.70
  -2  -5   0   47.49    2.85
  -2  -5   0   41.31    2.09
   2  -5   1  320.60    7.03
   2  -5   1  323.12    9.56
   2  -5   2  355.94    5.44
  -2  -5  -2  379.71    6.39
  -2  -5  -2  378.85    6.33
   2  -5   2  363.61    8.82
   2  -5   2  335.49    5.18
  -2  -5  -2  384.52    7.48
   2  -5   2  355.40   10.59
   2  -5   3  442.08    6.45
  -2  -5  -3  466.05    9.67
  -2  -5  -3  465.80    7.73
   2  -5   3  455.43   11.52
   2  -5   3  448.82   12.79
  -2  -5  -4   42.01    2.35
   2  -5   4   44.91    1.92
   2  -5   4   41.25    2.02
   2  -5   4   39.82    3.87
  -2  -5  -4   42.12    3.09
   2  -5   4   48.89    4.52
  -2  -5  -5   65.80    2.97
  -2  -5  -5   67.25    2.70
   2  -5   5   66.61    2.63
  -2  -5  -6   52.55    2.44
  -2  -5  -7   31.78    1.53
   2  -5   7   37.36    1.63
   2  -6  -8    3.98    0.53
   2  -6  -7   37.67    1.86
   2  -6  -7  196.84    8.04
   2  -6  -6  101.52    3.02
  -2  -6   6  105.41    3.07
   2  -6  -6  111.85    3.61
  -2  -6   6  103.18    2.91
  -2  -6   5  370.48    5.99
   2  -6  -5  371.74    6.96
   2  -6  -5  369.53    6.15
  -2  -6   5  387.92   13.97
  -2  -6   5  389.61    5.96
   2  -6  -4  525.68    7.98
  -2  -6   4  493.49    6.66
   2  -6  -4  509.77    7.18
  -2  -6   4  499.39   14.74
  -2  -6   4  521.52    7.18
  -2  -6   3  184.51    4.14
   2  -6  -3  184.07    3.92
   2  -6  -3  202.74    4.39
   2  -6  -3  185.64    3.69
  -2  -6   3  172.49    7.77
  -2  -6   3  192.02    3.91
   2  -6  -2  681.65    7.79
   2  -6  -2  696.48    8.42
  -2  -6   2  692.35    8.87
   2  -6  -2  693.25    8.54
  -2  -6   2  719.65   13.58
  -2  -6   2  690.17    7.95
   2  -6  -1  567.24    7.02
   2  -6  -1  578.99    6.57
   2  -6  -1  568.73    7.40
   2  -6  -1  567.02    7.57
  -2  -6   1  566.57   10.98
  -2  -6   1  546.83   10.84
  -2  -6   0   20.86    1.14
  -2  -6   0   21.69    2.04
  -2  -6   0   24.21    1.62
   2  -6   0   21.20    1.35
   2  -6   1   81.77    2.54
  -2  -6  -1   86.10    2.28
   2  -6   1   88.19    5.19
   2  -6   2  121.45    3.25
  -2  -6  -2  126.34    3.80
  -2  -6  -2  118.83    3.58
   2  -6   2  119.67    3.05
  -2  -6  -2  121.85    2.65
   2  -6   3   76.97    2.68
  -2  -6  -3   75.47    2.98
   2  -6   3   77.01    2.62
  -2  -6  -3   78.72    3.15
   2  -6   3   80.11    5.80
  -2  -6  -4   97.61    3.58
  -2  -6  -4  101.95    3.41
   2  -6   4  104.60    3.23
   2  -6   4  108.73    3.15
   2  -6   4  103.41    6.85
  -2  -6  -5   94.81    3.46
  -2  -6  -5   98.59    3.08
   2  -6   5  105.59    3.34
  -2  -6  -6   14.65    1.26
   2  -6   6   15.50    1.23
   2  -6   7   15.09    0.95
   2  -7  -7   21.93    1.25
   2  -7  -6    1.77    0.63
  -2  -7   5   93.60    2.72
   2  -7  -5  100.40    3.37
  -2  -7   5   99.08    3.04
   2  -7  -5   93.30    2.87
  -2  -7   5  103.10    2.96
   2  -7  -4  514.84    7.14
   2  -7  -4  525.49    8.06
  -2  -7   4  480.85   14.90
  -2  -7   4  498.32    7.27
  -2  -7   4  488.75    7.59
  -2  -7   3  312.78    5.78
   2  -7  -3  323.14    5.87
   2  -7  -3  295.14    5.27
   2  -7  -3  304.46    4.97
  -2  -7   3  272.71   10.23
  -2  -7   3  299.28    5.25
  -2  -7   3  289.07    5.51
  -2  -7   2  354.66    5.89
   2  -7  -2  361.50    5.44
   2  -7  -2  349.70    5.95
   2  -7  -2  358.75    5.88
  -2  -7   2  358.08    6.26
  -2  -7   2  344.40    5.50
  -2  -7   1  324.65    5.98
   2  -7  -1  318.83    4.88
   2  -7  -1  318.52    5.53
  -2  -7   1  324.11    8.07
   2  -7  -1  324.60    5.32
   2  -7  -1  322.97    5.75
   2  -7   0  442.66    6.60
  -2  -7   0  445.79    6.36
  -2  -7   0  426.05    6.77
   2  -7   0  440.21    7.04
   2  -7   0  421.88    5.57
  -2  -7   0  438.49    6.23
   2  -7   1  435.57    6.83
  -2  -7  -1  424.16    6.58
  -2  -7  -1  439.93    6.19
  -2  -7  -1  446.61    6.22
   2  -7   1  428.74   12.40
   2  -7   2  148.67    3.53
  -2  -7  -2  154.10    3.26
  -2  -7  -2  162.48    4.53
   2  -7   2  152.19    3.90
   2  -7   2  149.71    7.72
  -2  -7  -3   98.07    2.40
  -2  -7  -3   92.16    3.37
   2  -7   3   91.71    2.94
   2  -7   4  206.23    4.64
  -2  -7  -4  198.26    5.14
  -2  -7  -4  203.98    4.92
   2  -7   5  132.92    3.18
   2  -7   5  133.52    3.60
   2  -7   6   78.06    2.39
  -2  -8   7   28.62    1.32
  -2  -8   5   94.29    2.85
  -2  -8   5   95.95    2.82
   2  -8  -5   88.30    2.94
  -2  -8   4  300.68    5.69
   2  -8  -4  293.00    4.94
  -2  -8   3  260.54    5.32
   2  -8  -3  275.23    5.04
  -2  -8   3  275.64    5.17
  -2  -8   2  349.70    6.23
  -2  -8   2  352.48    6.42
   2  -8  -2  345.16    5.59
   2  -8  -2  359.16    6.02
  -2  -8   2  343.59    5.75
   2  -8  -1  746.58    9.28
  -2  -8   1  759.51   10.00
   2  -8  -1  760.47    9.61
   2  -8  -1  747.75    8.74
  -2  -8   1  754.18    9.02
   2  -8  -1  741.04    9.92
  -2  -8   1  759.88    9.59
   2  -8   0   84.78    2.85
  -2  -8   0   89.35    2.81
   2  -8   0   83.84    2.36
   2  -8   0   86.33    2.96
  -2  -8   0   83.86    2.91
  -2  -8   0   85.69    2.67
   2  -8   0   86.63    3.11
  -2  -8  -1   60.19    2.32
  -2  -8  -1   58.15    2.14
   2  -8   1   61.91    2.75
   2  -8   2   12.66    1.25
  -2  -8  -2   14.12    1.04
   2  -8   3   73.62    2.81
  -2  -8  -3   74.00    2.14
   2  -8   3   67.18    2.42
   2  -8   4   81.06    2.78
   2  -8   5   91.53    2.47
   2  -8   6   15.98    0.88
   2  -8   6   14.88    0.99
  -2  -9   5   12.64    0.98
  -2  -9   5   13.10    1.04
  -2  -9   4   37.04    1.88
  -2  -9   4   36.33    1.83
  -2  -9   3   10.42    1.10
  -2  -9   3   10.22    1.06
   2  -9  -2  407.64    6.28
   2  -9  -2  403.86    6.25
  -2  -9   2  416.16    6.99
  -2  -9   2  393.93    6.41
   2  -9  -1  289.31    5.80
  -2  -9   1  308.53    5.98
   2  -9  -1  292.79    5.06
   2  -9  -1  294.77    5.47
  -2  -9   1  297.53    5.42
  -2  -9   1  295.01    5.66
   2  -9   0  766.88    9.93
  -2  -9   0  784.02    9.80
  -2  -9   0  746.85    9.84
   2  -9   0  745.05    8.69
   2  -9   0  768.70    9.93
  -2  -9   0  780.82    9.30
   2  -9   0  780.32   10.61
   2  -9   1   72.73    3.04
  -2  -9  -1   70.54    2.45
  -2  -9  -1   73.18    2.52
  -2  -9  -1   73.41    2.41
   2  -9   2    3.55    0.82
  -2  -9  -2    2.08    0.55
   2  -9   2    2.61    0.82
   2  -9   3   24.39    1.65
   2  -9   4   77.17    2.55
   2  -9   4   76.90    2.96
   2  -9   5    3.77    0.53
   2  -9   5    3.68    0.67
  -2 -10   6   14.61    0.89
  -2 -10   4    0.74    0.43
  -2 -10   3    3.99    0.72
  -2 -10   2   90.76    2.87
  -2 -10   2   93.96    3.06
  -2 -10   2   95.82    2.91
  -2 -10   1   79.36    2.82
   2 -10  -1   75.01    2.43
  -2 -10   1   81.85    2.61
   2 -10  -1   77.69    2.78
   2 -10   0   11.94    1.15
   2 -10   0   12.33    1.25
   2 -10   0   12.67    0.98
  -2 -10   0   12.95    1.05
   2 -10   1   49.76    1.94
  -2 -10  -1   55.89    2.15
   2 -10   1   52.09    2.32
   2 -10   1   53.16    2.52
   2 -10   2   61.98    2.52
  -2 -10  -2   65.03    2.10
   2 -10   2   66.08    2.82
   2 -10   3  109.84    3.13
   2 -10   3  101.60    3.35
   2 -10   4    8.01    0.79
   2 -10   4    6.04    0.85
   2 -10   5   12.73    0.74
   2 -10   5   10.85    0.80
  -2 -11   5   12.19    0.80
  -2 -11   4   10.93    0.90
  -2 -11   4   10.03    0.77
  -2 -11   1    9.19    0.98
  -2 -11  -1   34.59    1.55
   2 -11   1   30.09    1.74
  -2 -11  -2   64.08    1.88
   2 -11   2   59.75    2.36
   2 -11   2   64.48    2.02
   2 -11   3   18.49    1.14
   2 -11   3   17.72    1.23
   2 -11   3   19.71    1.08
   2 -11   4   30.45    1.30
   2 -11   4   30.63    1.09
  -2 -12   3    1.83    0.39
  -2 -12   2    3.44    0.57
  -2 -12   1   35.31    1.50
  -2 -12  -1    6.37    0.64
  -2 -13   1    5.14    0.47
   3   0  -9   43.76    3.23
   3   0  -9  122.67    2.23
   3   0  -8  304.99    5.22
  -3   0   8  306.49    5.07
  -3   0   7  115.83    3.21
   3   0  -7  102.56    2.91
  -3   0   6  187.13    9.98
   3   0  -6  171.10    3.89
  -3   0   5  355.48   12.62
   3   0  -5  331.89    5.26
  -3   0   4  428.65   12.52
  -3   0   3  650.23   13.93
   3   0  -3  564.26   12.98
  -3   0   2  101.74    4.82
  -3   0   1  520.21    9.95
   3   0   0 2964.39   30.86
  -3   0   0 2847.42   28.25
  -3   0  -1  132.23    4.79
   3   0   1  120.49    5.40
   3   0   2   47.26    3.77
  -3   0  -3   28.79    1.33
   3   0   3   27.10    1.46
   3   0   3   25.99    3.23
  -3   0  -4    3.74    1.26
   3   0   4    3.88    0.73
   3   0   4    3.98    1.62
  -3   0  -5  216.26    8.23
   3   0   5  219.47    4.80
   3   0   5  223.06   10.70
  -3   0  -6   53.75    2.31
   3   0   6   52.85    2.11
  -3   0  -7   -0.02    0.36
   3   1  -9  203.47    6.06
   3  -1  -9   11.57    0.75
  -3  -1   8   79.06    2.49
  -3   1   8   75.80    2.29
   3  -1  -8   78.98    2.61
   3   1  -8   78.16    2.37
  -3   1   7   94.58    2.81
  -3  -1   7   93.42    2.93
   3  -1  -7   96.52    3.25
   3  -1  -7   87.62    2.75
  -3   1   6  233.58   11.23
   3  -1  -6  205.51    9.19
   3  -1  -6  217.68    4.52
   3   1  -6  206.34    9.51
   3   1  -6  213.25    4.19
  -3   1   5   55.77    5.08
   3   1  -5   57.11    4.69
   3  -1  -5   52.28    4.39
   3  -1  -5   53.19    2.03
   3   1  -5   54.30    1.91
  -3   1   4  373.34   11.63
   3   1  -4  343.02   10.72
   3  -1  -4  344.45   10.59
  -3   1   3  168.47    6.79
   3  -1  -3  174.85    6.85
   3   1  -3  160.27    6.70
  -3   1   2  394.48    9.70
  -3   1   1  822.88   12.47
  -3  -1   1  826.88   13.42
  -3   1   0 1682.45   18.88
   3   1   0 1700.20   21.57
  -3  -1  -1  486.92    9.93
   3   1   1  500.17   11.27
   3   1   2  198.84    7.80
  -3   1  -3   14.51    0.96
  -3  -1  -3   15.67    0.98
   3   1   3   16.45    1.13
   3   1   3   14.39    2.41
   3  -1   3   15.33    1.15
  -3   1  -4  406.59   10.75
   3  -1   4  394.88    6.55
   3   1   4  380.65    6.19
   3   1   4  401.71   13.78
  -3   1  -5   14.65    2.30
  -3  -1  -5   17.04    2.46
  -3  -1  -5   17.70    1.52
   3  -1   5   16.75    1.39
   3   1   5   17.67    1.28
   3   1   5   18.04    3.13
   3  -1   6   27.78    1.60
  -3   1  -6   26.15    1.56
  -3  -1  -6   24.04    1.61
  -3   1  -7    7.89    0.71
  -3  -1  -7    8.01    0.80
   3  -1   7    9.25    0.74
   3  -2  -9   55.55    1.58
   3  -2  -8   17.88    1.30
  -3  -2   8   19.64    1.28
  -3   2   7   88.05    2.60
  -3  -2   7   89.99    2.93
   3  -2  -7   84.49    3.10
   3  -2  -7   82.30    2.72
  -3   2   6  273.10   12.19
  -3  -2   6  292.27   12.63
   3  -2  -6  262.72    5.62
   3  -2  -6  253.29    9.97
   3   2  -6  232.71   10.11
   3  -2  -6  269.24    5.21
  -3   2   5   45.51    4.53
  -3  -2   5   41.23    4.36
   3   2  -5   38.38    3.90
   3  -2  -5   36.02    3.61
   3  -2  -5   34.38    1.69
   3  -2  -5   37.40    1.94
  -3   2   4  473.11   13.08
  -3  -2   4  463.74   13.09
   3  -2  -4  439.37   12.02
   3   2  -4  448.33   12.58
  -3   2   3  310.10    9.38
  -3  -2   3  319.37    9.50
   3  -2  -3  299.48    8.98
   3   2  -3  306.34    9.45
  -3   2   2 2374.08   28.28
  -3  -2   2 2373.71   27.98
  -3  -2   1 3342.17   34.11
  -3   2   1 3405.33   30.90
  -3   2   0  203.20    5.24
   3  -2   0  190.28    6.35
  -3  -2   0  187.15    5.93
   3   2   0  196.10    6.44
   3   2   1   20.84    2.30
   3  -2   1   20.30    2.24
  -3  -2  -1   20.09    2.04
  -3  -2  -2  118.65    3.28
   3  -2   2  117.18    2.97
   3   2   2  115.86    5.91
   3  -2   2  119.14    5.95
  -3  -2  -3   62.68    2.59
  -3   2  -3   61.72    1.96
  -3  -2  -3   62.18    1.93
   3  -2   3   63.40    2.34
   3   2   3   65.34    4.94
   3  -2   3   62.53    4.91
   3  -2   4  116.66    3.49
  -3  -2  -4  117.06    3.81
  -3   2  -4  128.38    5.90
  -3  -2  -4  121.32    5.71
   3   2   4  134.34    7.86
   3  -2   4  135.96    7.92
  -3  -2  -5  165.07    4.59
   3  -2   5  164.89    4.26
  -3   2  -6   33.64    1.65
  -3  -2  -6   35.76    1.98
   3  -2   6   37.85    1.90
  -3  -2  -7   20.89    1.19
   3  -2   7   22.48    1.16
   3  -3  -9   82.90    3.76
   3  -3  -9   13.47    0.76
   3  -3  -8   11.23    1.06
  -3  -3   8    9.98    0.94
  -3  -3   7   73.22    2.66
   3  -3  -7   67.73    2.48
   3  -3  -7   76.48    2.94
  -3   3   6   79.15    6.44
  -3  -3   6   84.70    6.68
   3  -3  -6   75.54    2.71
   3   3  -6   71.29    5.44
   3  -3  -6   77.09    3.00
   3  -3  -5   54.88    2.41
  -3   3   5   58.36    5.12
   3  -3  -5   52.78    4.32
   3  -3  -5   51.87    2.14
   3   3  -5   51.37    4.54
   3  -3  -4  154.32    3.78
  -3   3   4  161.68    7.54
  -3  -3   4  149.22    7.27
   3   3  -4  156.39    7.27
   3  -3  -4  146.12    6.64
  -3   3   3 1433.88   21.81
  -3  -3   3 1420.73   21.84
   3  -3  -3 1422.34   21.10
   3   3  -3 1426.20   22.31
   3  -3  -3 1450.41   13.86
   3  -3  -2 1634.69   22.79
   3   3  -2 1617.08   23.56
  -3   3   2 1564.23   18.01
  -3   3   1 1236.41   14.01
   3  -3   0  424.94    9.75
   3   3   0  441.79   10.00
   3   3   1  364.79    9.72
   3  -3   1  365.30    9.55
  -3  -3  -2  374.63    6.46
   3   3   2  345.74   10.46
   3  -3   2  358.12   10.49
   3   3   3  216.99    9.02
  -3  -3  -3  230.74    5.32
  -3   3  -3  226.19    3.94
  -3  -3  -3  222.79    3.82
   3  -3   3  214.35    4.60
   3  -3   3  229.73    9.23
  -3   3  -4   20.70    2.40
  -3  -3  -4   22.05    2.50
  -3  -3  -4   21.45    1.72
   3  -3   4   22.61    1.60
   3  -3   4   25.59    3.37
   3   3   4   20.60    3.07
  -3  -3  -5  143.04    4.37
   3  -3   5  145.86    4.09
  -3  -3  -6   43.13    2.14
   3  -3   6   49.31    2.17
  -3  -3  -7    5.80    0.68
   3   3   7    5.29    0.60
   3  -4  -9    0.16    0.20
   3  -4  -8   33.90    3.82
   3  -4  -8  100.05    2.72
  -3  -4   7  212.73    4.48
   3  -4  -7  200.47    4.78
  -3  -4   6  203.14    9.93
  -3  -4   6  219.67    4.64
   3  -4  -6  211.17    5.13
   3  -4  -6  207.86    4.61
  -3   4   5   15.43    2.66
  -3  -4   5   15.73    2.72
   3  -4  -5   14.43    1.35
   3   4  -5   13.88    2.45
   3  -4  -5   11.80    2.07
  -3  -4   4  130.84    3.30
  -3   4   4  132.83    6.73
  -3  -4   4  125.39    6.60
   3  -4  -4  142.05    3.82
   3   4  -4  125.60    6.66
   3  -4  -4  126.39    6.06
   3  -4  -4  130.98    3.30
   3   4  -3  320.32   10.01
  -3   4   3  323.32    9.68
  -3  -4   3  295.24    9.20
   3  -4  -3  313.05    5.45
   3  -4  -3  311.50    8.95
   3  -4  -3  311.41    5.37
   3  -4  -2 2371.59   20.53
  -3  -4   2 2332.47   29.27
   3  -4  -2 2388.94   28.04
   3  -4  -2 2334.03   20.36
  -3  -4   1 1155.26   18.09
  -3  -4   0   93.46    4.59
  -3  -4  -1  512.96   11.41
   3  -4   1  505.55    6.57
  -3  -4  -1  519.37    7.78
   3   4   1  508.45   11.56
   3  -4   1  497.10    6.83
   3  -4   1  507.74    7.12
   3  -4   1  489.04   11.22
  -3  -4  -2  353.66    6.55
   3  -4   2  347.04    5.37
   3  -4   2  345.83    5.83
   3  -4   2  338.25   10.18
   3   4   2  341.41   10.21
  -3  -4  -3  403.29    7.45
   3   4   3  411.33   12.36
   3  -4   3  395.26   12.05
   3  -4   3  393.83   12.39
  -3   4  -4   42.12    3.46
  -3  -4  -4   37.38    3.23
  -3  -4  -4   36.43    2.25
   3  -4   4   37.37    2.05
   3  -4   4   33.98    3.78
  -3  -4  -5   37.04    2.21
   3  -4   5   39.40    2.13
  -3  -4  -6    7.98    1.01
   3  -4   6    9.18    1.00
   3  -4   7   15.83    0.92
  -3  -5   7   44.24    1.94
  -3  -5   6  205.30    4.46
   3  -5  -6  201.10    4.47
  -3  -5   5   93.76    6.10
  -3  -5   5  104.65    2.99
   3  -5  -5   97.84    3.05
  -3  -5   5   96.91    6.92
  -3  -5   4   15.81    1.24
   3   5  -4   16.01    2.48
  -3  -5   4   13.13    2.17
   3  -5  -4   15.64    1.19
  -3  -5   3  723.46    9.33
   3   5  -3  740.21   15.43
   3  -5  -2  533.57   10.89
   3   5  -2  543.37   12.35
  -3  -5   2  555.75   13.20
  -3  -5   1   48.20    3.52
  -3  -5   1   54.13    2.34
   3  -5  -1   50.33    2.12
  -3  -5   0  545.24    6.57
   3  -5   0  560.65    7.30
  -3  -5   0  555.08   12.12
  -3  -5   0  557.68    7.99
   3  -5   0  550.83    7.78
  -3  -5   0  543.60    6.97
   3  -5   1  238.59    4.49
  -3  -5  -1  236.53    3.76
  -3  -5  -1  252.39    5.40
   3  -5   1  234.41    4.89
  -3  -5  -1  247.29    4.31
   3  -5   1  233.27    4.55
   3  -5   1  232.54    7.42
   3  -5   2  321.45    5.42
  -3  -5  -2  322.80    6.56
  -3  -5  -2  305.21    6.33
   3  -5   2  308.72    5.64
   3  -5   2  308.79    9.47
   3  -5   3   42.15    1.85
  -3  -5  -3   35.72    2.77
  -3  -5  -3   38.39    2.33
   3  -5   3   40.81    2.07
   3  -5   3   37.39    3.59
  -3  -5  -4   30.29    2.07
  -3  -5  -4   30.74    2.02
   3  -5   4   30.35    1.90
  -3  -5  -5    4.91    0.97
  -3  -5  -5    5.26    0.90
   3  -5   5    5.57    0.81
  -3  -5  -6   48.88    2.10
   3  -5   6   56.70    2.15
   3  -6  -7   60.41    2.28
  -3  -6   7   60.84    2.04
  -3  -6   7   59.43    1.87
  -3  -6   6   47.35    1.97
   3  -6  -6   43.31    2.22
   3  -6  -6   43.46    1.98
  -3  -6   5   26.32    1.49
   3  -6  -5   24.65    1.77
   3  -6  -5   24.57    1.58
  -3  -6   5   23.07    3.52
  -3  -6   4  476.57    7.33
  -3  -6   4  480.92    6.50
   3  -6  -4  495.37    7.99
  -3  -6   4  473.61   13.82
   3  -6  -4  487.85    7.12
  -3  -6   3  105.25    3.39
  -3  -6   3  116.52    6.37
   3  -6  -3  114.35    3.49
   3  -6  -3  103.23    3.20
   3  -6  -3  101.53    2.88
  -3  -6   3   88.99    5.88
   3  -6  -2  855.78   10.67
  -3  -6   2  857.66   16.86
   3  -6  -2  867.49   10.58
   3  -6  -1   72.13    2.67
  -3  -6   1   72.08    4.40
  -3  -6   1   76.47    2.46
  -3  -6   0  709.46    8.36
   3  -6   0  715.83    9.01
  -3  -6   0  740.89   14.58
  -3  -6   0  751.49   10.35
  -3  -6   0  708.76    8.72
   3  -6   0  728.06    9.69
   3  -6   1  331.75    5.76
  -3  -6  -1  330.39    4.89
  -3  -6  -1  321.00    6.42
   3  -6   1  324.69    5.56
   3  -6   1  340.73    6.35
   3  -6   2   89.57    2.88
   3  -6   2   83.68    2.88
   3  -6   2   86.97    3.22
   3  -6   3   67.87    2.46
  -3  -6  -3   59.44    2.83
   3  -6   3   64.37    2.63
  -3  -6  -4   75.31    2.99
   3  -6   4   76.45    2.89
   3  -6   4   74.06    2.91
  -3  -6  -5   23.60    1.49
   3  -6   5   24.39    1.49
   3  -6   5   27.94    1.67
   3  -6   6   65.57    2.12
  -3  -7   6    1.34    0.50
   3  -7  -6    1.48    0.61
   3  -7  -6    1.46    0.54
   3  -7  -5   59.96    2.59
   3  -7  -5   59.18    2.26
  -3  -7   5   62.43    2.56
  -3  -7   4  198.52    4.63
   3  -7  -4  186.37    4.14
  -3  -7   4  183.61    9.12
  -3  -7   3  562.77    8.59
  -3  -7   3  525.08   13.42
   3  -7  -3  546.00    8.10
   3  -7  -3  558.09    7.42
  -3  -7   3  526.79    8.15
   3  -7  -2   38.99    2.10
  -3  -7   2   37.97    2.21
  -3  -7   2   40.22    3.45
   3  -7  -2   38.02    2.04
   3  -7  -2   40.93    1.71
  -3  -7   1  408.43    6.42
  -3  -7   1  405.87   10.70
   3  -7  -1  408.61    7.00
   3  -7  -1  404.54    7.15
  -3  -7   0    3.99    0.64
   3  -7   0    3.61    0.78
   3  -7   0    3.35    0.83
   3  -7   1  105.91    3.27
  -3  -7  -1  103.86    2.73
  -3  -7  -1  115.12    4.09
   3  -7   1  104.47    3.59
   3  -7   2  166.81    4.15
  -3  -7  -2  151.46    3.71
  -3  -7  -2  163.72    3.15
   3  -7   2  155.55    3.93
   3  -7   2  161.62    4.56
   3  -7   3   43.75    2.04
  -3  -7  -3   43.20    2.41
   3  -7   3   41.86    2.10
   3  -7   3   45.95    2.41
   3  -7   4   17.27    1.17
  -3  -7  -4   16.51    1.46
   3  -7   4   16.60    1.34
   3  -7   4   15.95    1.42
   3  -7   5    9.80    0.96
   3  -7   5   10.68    0.98
  -3  -8   6   13.97    0.97
  -3  -8   5   52.82    2.20
  -3  -8   4   17.09    1.38
  -3  -8   3   34.33    1.91
  -3  -8   3   41.01    2.20
   3  -8  -3   38.00    1.97
  -3  -8   2  592.47    9.17
   3  -8  -2  602.14    8.76
  -3  -8   1  491.75    7.47
  -3  -8   1  486.15    8.22
   3  -8  -1  483.23    7.87
  -3  -8   1  467.79    7.32
   3  -8  -1  484.64    8.07
  -3  -8   0  516.45    7.33
  -3  -8   0  494.55    8.12
  -3  -8   0  500.42    7.34
   3  -8   0  511.69    8.26
   3  -8   1   52.71    2.38
  -3  -8  -1   52.25    2.33
  -3  -8  -1   50.99    2.11
   3  -8   1   55.26    2.68
   3  -8   2    4.60    0.96
   3  -8   2    4.44    0.83
   3  -8   3   20.60    1.42
   3  -8   3   20.18    1.64
   3  -8   4   68.29    2.61
   3  -8   5   11.32    0.90
  -3  -9   6   11.11    0.68
  -3  -9   5    9.00    0.87
  -3  -9   4   15.47    1.25
  -3  -9   3   69.94    2.70
  -3  -9   2  129.44    3.72
  -3  -9   2  136.23    3.99
   3  -9  -2  134.69    3.68
  -3  -9   2  139.33    3.75
  -3  -9   1   90.84    3.00
  -3  -9   1   88.95    3.16
  -3  -9   1   88.98    2.94
   3  -9  -1   87.58    3.24
   3  -9  -1   85.29    3.04
  -3  -9   0   96.26    2.91
  -3  -9   0   92.83    3.12
  -3  -9   0   95.94    2.94
   3  -9   0   93.37    3.24
   3  -9   0   99.26    3.53
  -3  -9  -1   28.79    1.57
  -3  -9  -1   31.94    1.53
   3  -9   1   34.34    2.02
   3  -9   2   11.33    1.15
   3  -9   2   12.41    1.35
   3  -9   3   41.46    2.14
   3  -9   4    9.16    0.95
   3  -9   5    0.27    0.25
  -3 -10   6   12.98    0.67
  -3 -10   5   16.36    0.91
  -3 -10   4   34.31    1.62
  -3 -10   3    6.00    0.80
  -3 -10   3    5.75    0.81
  -3 -10   2    1.92    0.61
  -3 -10   2    0.98    0.56
  -3 -10   1   12.13    1.09
  -3 -10   1   13.02    1.10
   3 -10  -1   13.81    1.16
   3 -10   0   77.20    2.92
  -3 -10   0   79.99    2.51
  -3 -10   0   81.50    2.51
   3 -10   0   78.42    2.71
  -3 -10  -1    0.53    0.42
   3 -10   1    0.91    0.65
   3 -10   1    0.99    0.56
   3 -10   2   87.21    2.75
   3 -10   3   41.40    1.88
   3 -10   4    9.29    0.64
   3 -10   4    8.83    0.74
  -3 -11   3   13.42    0.91
  -3 -11   2   21.90    1.18
  -3 -11   1   32.91    1.52
  -3 -11   1   34.94    1.47
  -3 -11   0    2.11    0.50
   3 -11   1   17.97    1.26
   3 -11   2    0.33    0.44
  -3 -12   3    1.32    0.31
  -3 -12   2    1.55    0.38
  -3 -12   1    8.94    0.68
  -3 -12   0   26.21    1.01
  -4   0   8    5.29    0.69
   4   0  -8    4.84    0.59
  -4   0   7  171.49    3.88
   4   0  -7  161.06    3.72
  -4   0   6  205.35   10.62
   4   0  -6  199.98    9.45
   4   0  -6  196.77    4.39
   4   0  -6  201.77    4.24
   4   0  -5  238.11    4.71
   4   0  -5  230.72    4.52
  -4   0   4  269.29   10.69
  -4   0   2    0.30    0.64
  -4   0   1  300.69    8.60
   4   0  -1  311.30    5.21
  -4   0   0  190.47    6.63
   4   0   0  179.88    3.96
   4   0   0  176.48    7.37
  -4   0  -1  309.11    4.84
   4   0   1  309.01    5.61
   4   0   1  292.90   10.15
  -4   0  -2    4.03    0.61
   4   0   2    3.69    0.72
   4   0   2    2.37    1.21
  -4   0  -3   58.67    2.44
  -4   0  -3   58.23    2.09
   4   0   3   64.52    2.58
   4   0   3   60.09    5.21
  -4   0  -4  176.57    4.38
   4   0   4  180.44    4.40
  -4   0  -5    6.95    0.85
  -4   0  -6    1.07    0.39
   4   0   6    0.76    0.44
  -4  -1   8   57.86    2.02
  -4   1   8   56.72    1.87
   4  -1  -8   54.48    1.85
  -4   1   7    2.32    0.62
  -4  -1   7    2.64    0.68
   4  -1  -7    3.21    0.68
   4  -1  -7    2.80    0.62
  -4   1   6  329.48   13.42
   4   1  -6  303.71   11.79
   4  -1  -6  291.08   11.35
   4  -1  -6  308.66    5.82
   4  -1  -6  308.40    5.53
   4   1  -6  309.45    5.15
  -4   1   5   70.22    5.89
   4   1  -5   65.67    5.37
   4  -1  -5   60.77    5.10
   4  -1  -5   65.95    2.51
   4  -1  -5   66.72    2.42
   4   1  -5   67.86    2.26
  -4   1   4  802.78   18.92
   4  -1  -4  748.14    9.10
   4  -1  -4  757.28   17.66
   4   1  -4  764.63   18.02
   4   1  -3  125.68    6.92
   4  -1  -3  125.36    6.78
   4  -1  -3  130.04    3.17
  -4   1   2  266.07    8.24
  -4  -1   2  248.52    8.55
  -4  -1   1  344.07    9.49
   4  -1  -1  346.45    5.55
   4   1  -1  340.30    5.52
  -4   1   1  338.99    8.73
   4   1   0  515.30    7.21
   4  -1   0  512.17    7.19
  -4   1   0  516.37   10.93
  -4  -1   0  508.58   11.56
   4   1   0  501.65   12.76
  -4  -1  -1  298.12    4.71
  -4   1  -1  294.27    4.73
   4  -1   1  280.70    5.34
   4   1   1  302.61    5.54
   4   1   1  297.48   10.17
  -4  -1  -2  216.69    4.77
  -4   1  -2  211.85    4.03
  -4  -1  -2  216.93    4.01
   4  -1   2  212.59    4.69
   4   1   2  205.61    9.01
  -4  -1  -3  658.53    9.44
  -4   1  -3  681.07    8.23
  -4  -1  -3  685.30    8.23
   4  -1   3  692.54    9.56
   4   1   3  684.95   17.93
  -4  -1  -4  215.10    5.06
   4  -1   4  220.67    5.06
  -4  -1  -5    0.70    0.52
   4  -1   5    0.69    0.49
  -4  -1  -6   18.91    1.11
   4   1   6   20.81    1.30
  -4  -2   8   34.04    1.54
  -4   2   8   31.66    1.24
   4  -2  -8   30.23    1.42
  -4   2   7   38.60    1.70
  -4  -2   7   40.31    1.93
   4  -2  -7   35.93    1.88
   4  -2  -7   35.01    1.72
   4  -2  -6  127.15    3.71
   4  -2  -6  126.28    3.46
  -4   2   5  155.43    8.70
  -4  -2   5  153.89    8.63
   4  -2  -5  150.39    7.80
   4  -2  -5  137.10    3.79
   4   2  -5  154.99    8.25
   4  -2  -5  142.71    3.67
  -4   2   4  728.06   17.94
  -4  -2   4  755.97   17.82
   4  -2  -4  701.03    9.09
   4  -2  -4  708.01   16.92
   4   2  -4  699.52   17.38
  -4   2   3  578.64   12.99
   4  -2  -3  589.53    7.75
   4  -2  -3  575.70   14.86
   4   2  -3  564.69   15.02
   4  -2  -3  607.68    7.95
  -4  -2   2  347.93   10.50
  -4   2   2  359.79    9.25
   4  -2  -2  373.99    5.80
  -4  -2   1  117.42    5.69
  -4   2   1  119.26    4.83
   4  -2  -1  117.21    3.06
   4  -2  -1  121.66    3.07
  -4   2   0   29.30    2.42
  -4  -2   0   30.47    2.86
   4   2   0   30.26    1.58
   4  -2   0   28.26    1.53
  -4   2  -1  175.79    3.56
  -4  -2  -1  177.94    3.52
   4   2   1  177.84    4.14
   4  -2   1  177.27    7.82
   4   2   1  171.75    7.76
   4  -2   1  181.29    4.18
  -4  -2  -2 1135.42   13.28
  -4   2  -2 1136.62   11.40
  -4  -2  -2 1122.73   11.27
   4  -2   2 1094.01   12.80
   4   2   2 1121.49   12.95
   4  -2   2 1105.31   21.97
   4   2   2 1073.77   21.84
  -4  -2  -3  316.43    6.42
  -4   2  -3  329.75    5.27
  -4  -2  -3  332.57    5.19
   4  -2   3  331.22    6.35
   4  -2   3  335.43   12.19
   4   2   3  316.56   11.93
  -4  -2  -4  109.00    3.61
   4  -2   4  120.65    3.73
  -4  -2  -5   39.19    2.01
   4  -2   5   42.49    2.06
  -4  -2  -6   20.84    1.19
   4  -2   6   21.69    1.28
   4   2   6   22.74    1.29
   4  -3  -8   19.24    1.13
  -4  -3   8   20.37    1.17
  -4   3   7  198.07    3.66
   4  -3  -7  195.22    4.38
   4  -3  -7  189.70    4.02
   4  -3  -6  166.75    4.31
   4  -3  -6  171.69    4.10
  -4   3   5   88.14    6.51
  -4  -3   5   88.35    6.45
   4  -3  -5   83.40    3.01
   4   3  -5   83.18    6.11
   4  -3  -5   78.08    5.55
   4  -3  -5   82.53    2.80
  -4  -3   4  132.83    7.50
   4  -3  -4  143.65    3.82
   4   3  -4  132.40    7.53
   4  -3  -4  131.18    7.04
  -4  -3   3  323.52   10.92
   4  -3  -3  324.40    5.69
   4  -3  -3  313.49   10.53
   4   3  -3  301.60   10.86
   4  -3  -3  325.07    5.75
   4  -3  -2  196.94    8.49
   4  -3  -2  191.50    4.23
  -4  -3   2  189.96    7.88
  -4   3   2  191.01    3.95
  -4  -3   1   10.27    0.97
   4  -3  -1   10.21    1.00
  -4  -3   1   10.95    1.90
   4  -3  -1   12.00    1.06
  -4  -3   0   74.25    4.56
  -4  -3   0   81.20    2.27
  -4   3   0   81.36    2.33
   4  -3   0   79.32    2.62
  -4  -3   0   78.45    2.27
   4  -3   0   78.32    2.56
   4   3   0   77.68    2.58
   4   3   1  306.30    5.62
  -4   3  -1  312.30    4.90
  -4  -3  -1  306.86    4.78
   4  -3   1  311.21    5.47
   4  -3   1  312.45    5.61
   4  -3   1  298.92   10.20
   4   3   1  305.88   10.45
  -4  -3  -2  298.64    6.30
  -4   3  -2  310.84    5.00
  -4  -3  -2  304.01    4.80
   4  -3   2  294.29    5.88
   4  -3   2  311.48    5.88
   4   3   2  297.46    5.79
   4  -3   2  306.23   10.95
   4   3   2  284.54   10.68
  -4  -3  -3   15.86    1.54
  -4   3  -3   15.01    1.08
  -4  -3  -3   15.79    1.07
   4  -3   3   15.89    1.44
   4   3   3   15.76    1.40
   4  -3   3   14.72    2.59
   4   3   3   16.29    2.81
  -4  -3  -4    5.12    0.97
   4  -3   4    4.86    0.91
   4   3   4    4.32    0.82
  -4  -3  -5    6.53    0.91
   4  -3   5    7.01    0.94
   4  -3   5    6.56    0.89
   4   3   5    6.21    0.88
  -4  -3  -6   17.19    1.05
   4   3   6   17.74    1.03
   4  -4  -8   15.32    0.97
  -4  -4   8   17.35    1.00
  -4  -4   7   18.76    1.29
   4  -4  -7   18.35    1.35
   4  -4  -7   17.27    1.21
  -4  -4   6   43.85    2.00
   4  -4  -6   40.12    2.14
   4  -4  -6   42.37    2.03
  -4  -4   5   18.76    3.04
   4  -4  -5   19.34    1.54
   4   4  -5   18.84    2.98
  -4  -4   4   22.86    1.52
  -4  -4   4   24.56    3.37
   4  -4  -4   24.93    1.66
   4   4  -4   22.86    3.19
   4  -4  -4   21.47    2.83
   4  -4  -4   25.37    1.66
   4  -4  -3  215.98    8.50
   4   4  -3  240.87    9.66
   4  -4  -3  231.73    4.98
  -4  -4   3  225.29    9.42
  -4  -4   2  158.36    7.35
   4  -4  -2  175.27    7.84
   4   4  -2  169.99    8.06
   4  -4  -2  167.06    4.07
  -4  -4   2  152.76    3.47
  -4  -4   1  117.89    3.38
   4  -4  -1  118.37    3.41
  -4  -4   1  111.38    5.79
   4  -4  -1  113.55    3.35
  -4  -4   1  112.34    2.91
  -4  -4   1  116.81    2.84
  -4  -4   0   84.39    3.04
   4   4   0   75.81    2.53
  -4  -4   0   77.22    2.37
  -4   4   0   80.70    2.29
  -4  -4   0   79.15    2.24
   4  -4   0   80.67    2.81
   4  -4   0   80.08    2.55
  -4   4  -1  183.73    3.54
  -4  -4  -1  175.75    3.42
   4  -4   1  180.86    4.14
   4   4   1  179.33    4.13
   4  -4   1  178.17    4.26
   4  -4   1  172.04    7.60
  -4   4  -2   83.87    2.38
  -4  -4  -2   83.31    2.30
   4  -4   2   81.75    2.86
   4  -4   2   76.78    2.77
   4   4   2   79.52    2.83
   4  -4   2   71.14    5.18
   4   4   2   78.73    5.46
  -4  -4  -3  423.07    7.92
  -4  -4  -3  432.59   10.83
   4  -4   3  434.41    7.17
   4   4   3  421.49    7.17
   4  -4   3  404.57   12.93
  -4  -4  -4   23.05    1.77
   4  -4   4   24.48    1.70
   4  -4   4   24.71    1.58
   4   4   4   23.78    1.56
  -4  -4  -5   21.38    1.48
   4  -4   5   22.51    1.47
   4   4   5   23.65    1.35
   4  -5  -7  105.45    2.97
  -4  -5   7  106.92    2.74
   4  -5  -6   76.56    2.88
  -4  -5   6   82.82    2.62
  -4  -5   5   87.07    2.71
   4  -5  -5   85.93    3.18
   4  -5  -5   87.43    2.91
  -4  -5   4  191.21    9.17
  -4  -5   4  200.26    4.69
   4  -5  -4  190.41    4.75
   4  -5  -4  187.84    4.56
   4  -5  -3  154.39    4.15
  -4  -5   3  158.16    7.94
  -4  -5   2  147.15    7.26
   4  -5  -2  148.84    4.03
   4  -5  -1   25.06    1.69
  -4  -5   1   28.07    1.88
   4  -5  -1   23.99    1.66
  -4  -5   1   19.85    2.62
  -4  -5   1   22.33    1.42
  -4  -5   0  963.79    9.92
  -4  -5   0 1003.16   19.00
  -4  -5   0  980.87   12.22
  -4  -5   0  966.33   10.73
   4  -5   0 1003.93   12.05
  -4  -5  -1  946.57   12.57
   4  -5   1  927.76   11.70
   4  -5   1  946.04   10.64
  -4  -5  -2  253.81    6.11
  -4  -5  -2  247.97    3.95
   4  -5   2  251.95    5.45
   4  -5   2  252.16    5.43
   4  -5   2  248.23    4.93
  -4  -5  -3   94.01    3.67
   4  -5   3   92.28    3.31
   4  -5   3   96.98    3.14
   4  -5   3   95.97    2.97
  -4  -5  -4   88.07    3.22
  -4  -5  -5   25.75    1.46
   4  -6  -7    5.53    0.63
  -4  -6   7    7.84    0.72
   4  -6  -6   56.66    2.14
  -4  -6   5   11.60    0.98
   4  -6  -5   12.42    1.14
  -4  -6   4  276.86    5.67
  -4  -6   4  264.71    4.51
   4  -6  -4  268.46    5.17
  -4  -6   3  124.45    3.92
  -4  -6   3  110.69    6.64
  -4  -6   2   95.61    5.75
   4  -6  -2   92.87    3.27
  -4  -6   1  190.98    4.06
  -4  -6   1  188.25    7.98
   4  -6  -1  194.69    4.88
   4  -6  -1  194.82    4.86
  -4  -6   1  192.96    4.32
  -4  -6   0  516.43    6.79
  -4  -6   0  508.96    7.36
   4  -6   0  507.55    8.38
  -4  -6   0  528.82   13.46
  -4  -6  -1   34.38    2.24
   4  -6   1   33.91    2.09
  -4  -6  -2  201.50    5.32
   4  -6   2  220.99    5.13
   4  -6   3   21.36    1.53
  -4  -6  -4    4.25    0.83
   4  -6   4    4.26    0.68
  -4  -6  -5    4.22    0.66
  -4  -7   7   17.16    0.83
  -4  -7   6    2.50    0.59
   4  -7  -6    1.73    0.48
   4  -7  -5   22.95    1.37
  -4  -7   5   23.01    1.57
  -4  -7   4   28.09    1.75
   4  -7  -4   27.69    1.55
  -4  -7   4   26.88    1.76
  -4  -7   3   10.95    1.33
   4  -7  -3   10.18    1.16
   4  -7  -3   10.60    1.00
  -4  -7   2  120.69    3.47
  -4  -7   2  119.51    4.00
  -4  -7   2  113.52    6.25
  -4  -7   1  215.88    4.49
  -4  -7   1  211.65    8.37
  -4  -7   1  202.87    4.56
   4  -7  -1  207.74    5.18
  -4  -7   0  316.83    5.19
  -4  -7   0  318.86    5.63
   4  -7   0  332.75    6.66
  -4  -7  -1  217.31    5.91
   4  -7   1  202.55    5.09
  -4  -7  -2    5.95    1.15
   4  -7   2    6.13    0.97
   4  -7   3   17.75    1.39
   4  -7   4   24.35    1.31
  -4  -7  -4   25.86    1.61
  -4  -8   6    4.31    0.58
  -4  -8   5    0.69    0.50
  -4  -8   4    5.55    0.84
  -4  -8   3   76.53    2.94
   4  -8  -3   73.13    2.75
  -4  -8   2   36.57    1.92
  -4  -8   2   35.90    2.19
  -4  -8   2   34.74    1.91
   4  -8  -2   35.26    2.06
  -4  -8   1  137.34    3.53
  -4  -8   1  130.03    4.09
  -4  -8   1  133.80    3.60
   4  -8  -1  141.22    4.10
  -4  -8   0   14.99    1.43
  -4  -8   0   12.71    1.00
   4  -8   0   15.14    1.50
  -4  -8   0   14.96    1.22
   4  -8   0   14.97    1.46
  -4  -8  -1    1.84    0.65
   4  -8   1    1.09    0.69
   4  -8   2   78.24    2.94
   4  -8   3    6.94    0.88
   4  -8   4   23.23    1.12
  -4  -9   6   61.62    1.67
  -4  -9   5   11.38    0.90
  -4  -9   4   10.16    0.97
  -4  -9   4    9.84    1.00
  -4  -9   3   48.63    2.20
  -4  -9   3   43.80    2.01
  -4  -9   2   99.74    3.00
  -4  -9   2   94.13    3.16
   4  -9  -2   99.90    3.11
  -4  -9   1   15.46    1.15
  -4  -9   1   15.20    1.34
   4  -9  -1   14.99    1.35
  -4  -9   0   11.92    1.14
   4  -9   0   12.68    1.26
   4  -9   0   12.38    1.28
   4  -9   1   36.62    2.01
   4  -9   1   39.00    2.02
   4  -9   2   28.36    1.66
   4  -9   2   31.11    1.72
   4  -9   3   36.34    1.58
   4  -9   3   37.82    1.67
  -4 -10   5   61.96    1.54
  -4 -10   4    2.92    0.52
  -4 -10   2    5.58    0.72
  -4 -10   2    5.35    0.73
   4 -10  -2    5.06    0.71
  -4 -10   1    5.81    0.74
   4 -10  -1    6.06    0.82
   4 -10   0   60.93    2.23
   4 -10   1   30.18    1.60
   4 -10   1   30.59    1.54
   4 -10   2   20.00    1.19
   4 -10   2   20.94    1.17
  -4 -11   3   13.50    0.76
  -4 -11   2    4.96    0.55
  -5   0   8    6.42    0.63
  -5   0   7    1.18    0.53
   5   0  -7    0.80    0.39
   5   0  -6  102.71    2.85
  -5   0   5  877.28   20.54
  -5   0   4  921.52   20.42
  -5   0   3  120.19    6.71
  -5   0   2  690.73    9.22
  -5   0   2  698.28   15.73
  -5   0   1   27.42    2.94
  -5   0   1   29.33    1.65
  -5   0   0    9.09    1.82
  -5   0   0    9.06    0.95
   5   0   0    8.91    1.06
  -5   0  -1   42.48    1.87
   5   0   1   38.52    2.15
  -5   0  -2    6.27    0.81
   5   0   2    6.91    1.03
   5   0   2    5.71    1.81
  -5   0  -3  485.94    6.64
   5   0   3  482.31    8.09
   5   0   4   18.76    1.44
   5   0   5   35.39    1.62
  -5  -1   8    4.28    0.55
  -5   1   8    4.16    0.51
  -5   1   7   66.14    2.18
  -5  -1   7   64.53    2.23
   5  -1  -6   62.62    2.21
   5  -1  -6   60.65    2.25
   5   1  -6   61.92    2.06
   5   1  -5  147.69    3.48
  -5   1   4  532.47   14.78
   5  -1  -4  521.63   15.75
   5   1  -4  501.63   15.70
  -5  -1   4  530.14   15.50
  -5   1   3  139.89    6.92
   5  -1  -3  144.14    8.26
   5   1  -3  131.54    7.93
  -5  -1   3  130.80    7.17
  -5  -1   2   36.82    3.63
   5   1  -2   43.69    4.72
  -5   1   2   39.01    1.97
  -5   1   2   39.45    3.41
  -5   1   1   90.82    5.08
  -5   1   1   91.51    2.89
  -5  -1   0   73.05    4.86
  -5   1   0   67.98    2.42
   5   1   0   69.66    2.78
  -5   1  -1   12.54    1.06
   5   1   1   12.55    1.27
  -5   1  -2  432.26    6.37
  -5  -1  -2  406.75    6.17
   5   1   2  423.90    7.61
   5  -1   2  406.48   13.78
   5   1   2  394.62   13.59
  -5   1  -3  187.53    3.80
  -5  -1  -3  184.08    3.77
   5   1   3  186.04    4.76
   5   1   4   45.05    2.15
   5   1   5    1.50    0.48
  -5  -2   8   19.57    1.00
  -5   2   7   29.24    1.38
  -5  -2   7   31.09    1.54
   5  -2  -7   27.55    1.37
   5  -2  -6   33.93    1.72
   5  -2  -5  198.79    4.43
   5  -2  -4  535.91   15.68
   5   2  -4  535.38   16.25
  -5  -2   4  573.83   16.55
   5  -2  -3  314.73   12.04
   5   2  -3  302.39   12.07
  -5  -2   3  298.87   11.12
   5  -2  -3  321.93    5.74
  -5   2   3  296.10    5.82
  -5  -2   2   61.39    4.80
   5  -2  -2   69.41    5.81
   5   2  -2   73.86    6.21
  -5   2   2   67.73    2.57
  -5  -2   2   64.48    2.49
   5  -2  -2   71.60    2.58
  -5  -2   1  129.48    6.70
  -5   2   1  129.63    3.47
  -5  -2   1  127.56    3.40
   5  -2  -1  132.88    3.50
  -5  -2   0   62.79    4.63
  -5   2   0   59.80    2.26
  -5  -2   0   57.39    2.19
   5  -2   0   57.08    2.29
   5  -2   0   60.35    2.56
   5   2   0   61.18    2.61
  -5   2  -1  218.42    4.37
  -5  -2  -1  217.24    4.29
   5  -2   1  227.73    5.19
   5   2   1  218.52    5.18
  -5   2  -2  389.90    5.97
  -5  -2  -2  387.23    5.86
   5  -2   2  381.95    7.08
   5   2   2  381.87    7.03
  -5  -2  -3   79.27    2.34
   5  -2   3   78.74    2.99
   5   2   3   82.25    3.07
   5  -2   4    2.84    0.66
   5   2   4    2.29    0.61
   5  -2   5   17.93    1.10
   5   2   5   18.11    1.09
  -5   3   7   19.80    1.02
  -5  -3   7   19.38    1.20
   5  -3  -7   17.86    1.11
   5  -3  -6   18.94    1.31
   5  -3  -5   47.14    2.15
  -5  -3   4  933.70   21.52
   5  -3  -4  871.87   19.96
   5   3  -4  913.70   21.36
  -5  -3   3  136.21    7.58
   5  -3  -3  128.73    7.45
   5   3  -3  121.29    7.59
  -5   3   3  132.68    3.71
   5  -3  -3  139.07    3.81
  -5  -3   3  129.56    3.64
   5  -3  -2   28.04    3.81
   5   3  -2   31.45    4.07
  -5   3   2   30.45    1.71
  -5  -3   2   28.20    1.64
   5  -3  -2   28.66    1.75
  -5  -3   2   30.45    3.48
  -5  -3   1  235.54    4.24
  -5   3   1  226.85    4.59
  -5  -3   1  222.61    4.54
   5  -3  -1  230.65    4.99
  -5  -3   0   62.07    4.70
  -5  -3   0   60.60    2.63
  -5   3   0   55.69    2.15
  -5  -3   0   56.68    2.13
   5  -3   0   55.49    2.39
  -5   3  -1   52.83    2.03
  -5  -3  -1   53.49    2.00
   5  -3   1   53.16    2.43
   5   3   1   49.96    2.40
  -5   3  -2   52.86    2.00
  -5  -3  -2   53.79    1.96
   5  -3   2   50.15    2.38
   5   3   2   54.37    2.48
   5  -3   3   15.70    1.32
   5   3   3   15.22    1.31
   5  -3   4   11.56    1.04
   5   3   4   12.04    1.05
   5   3   5    9.59    0.71
  -5  -4   7   16.87    1.05
   5  -4  -7   14.06    0.95
  -5  -4   6   14.19    1.09
   5  -4  -6   13.23    1.12
  -5   4   5  102.37    3.17
   5  -4  -5  104.62    3.13
  -5  -4   4    1.75    0.69
  -5   4   4    1.88    0.66
   5  -4  -3  282.10   10.62
   5   4  -3  289.90   11.48
  -5   4   3  301.79    5.55
  -5  -4   3  290.38    5.48
   5  -4  -3  302.25    5.91
   5  -4  -2  209.09    9.41
   5   4  -2  201.07    9.72
  -5   4   2  214.41    4.46
  -5  -4   2  212.57    4.29
  -5  -4   2  198.98    4.29
   5  -4  -2  206.69    4.86
  -5  -4   1    8.88    1.11
  -5  -4   1    5.93    0.78
  -5   4   1    6.75    0.82
  -5  -4   1    6.89    0.83
   5   4  -1    7.07    2.14
   5  -4  -1    6.40    0.97
  -5  -4   1    6.38    0.71
  -5  -4   0  196.46    4.89
  -5   4   0  207.84    4.11
  -5  -4   0  199.25    3.95
   5  -4   0  199.08    4.83
  -5  -4  -1  308.46    6.60
  -5   4  -1  330.44    5.18
  -5  -4  -1  305.65    4.89
   5  -4   1  310.86    5.69
   5  -4   1  312.29    5.92
   5   4   1  315.79    6.02
  -5  -4  -2  189.74    5.08
  -5   4  -2  191.64    3.72
  -5  -4  -2  187.18    3.54
   5  -4   2  182.31    4.39
   5   4   2  187.36    4.49
  -5  -4  -3   10.22    1.25
   5  -4   3   11.40    1.07
   5   4   3    8.84    0.95
  -5  -4  -4   45.27    2.04
   5   4   4   47.67    1.77
  -5  -4  -5   27.56    1.19
   5  -5  -7    5.81    0.62
  -5  -5   5    1.77    0.52
   5  -5  -5    1.84    0.64
  -5  -5   4   54.80    2.43
  -5  -5   4   50.38    2.08
  -5  -5   3  124.59    3.23
   5  -5  -3  132.29    3.86
  -5  -5   3  128.06    3.46
  -5  -5   2  227.55    9.45
  -5  -5   2  227.79    4.34
  -5  -5   2  235.07    4.70
   5  -5  -2  239.41    5.41
  -5  -5   1  213.07    3.99
  -5  -5   1  213.62    9.01
  -5  -5   1  225.39    4.52
  -5  -5   1  224.17    4.08
  -5  -5   0  229.73    5.52
  -5  -5   0  220.75    3.92
   5  -5   0  229.82    5.27
  -5  -5  -1   74.38    3.09
  -5  -5  -1   79.68    2.16
   5  -5   1   80.12    2.86
   5  -5   1   76.59    3.00
  -5  -5  -2   36.18    2.14
  -5  -5  -3   55.47    2.44
  -5  -5  -4   13.53    1.07
  -5  -6   7    4.57    0.50
   5  -6  -7    4.05    0.44
   5  -6  -6    5.59    0.68
  -5  -6   6    6.18    0.75
   5  -6  -5   78.04    2.49
  -5  -6   4    3.90    0.81
   5  -6  -4    3.28    0.70
  -5  -6   3   51.32    2.52
   5  -6  -3   52.01    2.42
  -5  -6   3   50.42    2.20
  -5  -6   3   51.78    2.24
  -5  -6   2   52.42    2.11
  -5  -6   2   54.46    2.22
   5  -6  -2   53.48    2.53
  -5  -6   1   30.35    1.46
  -5  -6   1   31.77    1.69
   5  -6  -1   28.66    1.91
  -5  -6   0   11.29    1.41
   5  -6   0    9.74    1.21
  -5  -6  -1   27.90    2.00
   5  -6   1   27.35    1.70
   5  -6   1   27.04    1.82
  -5  -6  -2   31.11    1.95
   5  -6   2   31.63    1.63
   5  -6   2   28.45    1.75
  -5  -6  -3    7.31    0.97
   5  -6   4   14.88    0.92
  -5  -7   6   15.23    0.96
  -5  -7   6   17.64    0.97
  -5  -7   5    1.88    0.53
   5  -7  -5    1.83    0.51
  -5  -7   5    1.54    0.52
  -5  -7   4   51.26    2.14
  -5  -7   4   54.02    2.17
   5  -7  -4   48.66    1.86
  -5  -7   4   50.30    2.07
  -5  -7   3   42.60    1.94
  -5  -7   3   45.98    2.30
  -5  -7   3   45.42    2.01
   5  -7  -3   41.57    2.10
   5  -7  -3   40.99    1.77
  -5  -7   2   49.89    2.01
  -5  -7   2   51.95    2.56
  -5  -7   2   50.28    2.12
   5  -7  -2   53.12    2.45
  -5  -7   1  145.19    3.54
   5  -7  -1  146.70    4.12
   5  -7   0   58.33    2.60
   5  -7   1   35.63    1.87
   5  -7   1   37.02    2.01
   5  -7   2   81.67    2.48
   5  -7   2   79.17    2.72
   5  -7   3   19.98    1.21
  -5  -8   6   42.43    1.18
  -5  -8   5    0.79    0.39
  -5  -8   5    1.12    0.42
  -5  -8   4    0.40    0.41
  -5  -8   4    0.78    0.49
  -5  -8   3   35.90    1.68
  -5  -8   3   36.07    1.84
  -5  -8   3   34.14    1.65
  -5  -8   2  108.84    2.82
  -5  -8   2  103.45    3.30
  -5  -8   2  104.42    2.86
  -5  -8   1   39.68    1.74
   5  -8  -1   35.48    1.93
  -5  -8   0   37.69    1.90
   5  -8   0   38.29    1.97
   5  -8   1   39.34    1.91
   5  -8   2   21.15    1.29
   5  -8   3   16.70    0.93
  -5  -9   5   82.83    1.81
  -5  -9   5   88.15    1.79
  -5  -9   4    1.88    0.43
  -5  -9   4    1.87    0.45
  -5  -9   3   26.46    1.25
  -5  -9   3   26.74    1.30
  -5  -9   2   19.40    1.27
  -5  -9   2   19.80    1.15
   5  -9  -2   18.00    1.21
  -5  -9   1    7.68    0.86
  -5  -9   0   24.73    1.25
   5  -9   2   17.93    0.97
  -5 -10   3    4.73    0.49
   5 -10  -1    3.90    0.53
   5 -10   0   28.59    1.15
  -6   0   7    0.86    0.37
  -6   0   7    0.96    0.50
  -6   0   6  110.95    3.24
   6   0  -6   98.84    2.40
  -6   0   5   79.66    2.96
   6   0  -5   79.62    2.45
  -6   0   4   27.99    1.82
  -6   0   3  149.51    4.05
  -6   0   2  292.16    5.68
  -6   0   1  152.85    3.85
  -6   0   0  173.00    3.94
  -6   0  -1   22.38    1.37
   6   0   1   21.08    1.60
  -6   0  -2   64.08    2.07
   6   0   2   61.18    2.54
   6   0   3    0.76    0.47
   6   0   4   10.16    0.78
  -6   1   7    3.50    0.49
  -6  -1   7    4.00    0.55
  -6   1   7    3.36    0.60
   6  -1  -7    2.59    0.38
  -6   1   6   21.03    1.44
   6  -1  -6   20.06    1.14
  -6   1   5   64.97    2.62
   6  -1  -5   62.19    2.24
   6   1  -5   61.28    2.00
  -6   1   4    4.72    0.95
  -6   1   3  142.16    3.94
  -6   1   2  140.84    3.82
  -6   1   1    0.10    0.52
  -6   1   0  136.25    3.47
  -6   1  -1   28.89    1.51
  -6   1  -2   14.77    1.03
   6   1   2   12.85    1.22
   6   1   3    2.11    0.56
  -6  -1  -4    6.69    0.66
  -6   2   7   24.96    1.01
  -6   2   7   23.32    1.15
  -6  -2   7   25.72    1.25
   6  -2  -7   21.68    0.93
  -6   2   6   22.93    1.42
  -6  -2   6   22.76    1.42
   6  -2  -6   21.59    1.20
  -6   2   5  110.29    3.32
  -6  -2   5  113.48    3.36
   6  -2  -5  108.82    3.00
  -6   2   4  146.32    3.96
  -6  -2   4  152.82    3.99
  -6   2   3   52.94    2.38
  -6  -2   3   55.99    2.40
  -6   2   2   87.15    2.94
  -6  -2   2   86.40    2.91
  -6   2   1  245.19    4.84
  -6  -2   1  240.98    4.75
  -6   2   0   71.80    2.45
  -6  -2   0   66.54    2.34
  -6  -2  -1  149.83    3.96
  -6   2  -1  156.32    3.48
  -6  -2  -1  157.56    3.42
  -6  -2  -2   50.29    2.24
  -6   2  -2   54.20    1.84
  -6  -2  -2   52.73    1.79
   6  -2   2   50.40    2.21
  -6  -2  -3    8.49    0.92
   6  -2   3    9.64    0.89
  -6  -2  -4    9.52    0.71
  -6  -3   7    4.39    0.49
   6  -3  -7    3.01    0.41
  -6  -3   6   27.94    1.32
  -6   3   6   27.88    1.39
  -6  -3   6   27.49    1.43
   6  -3  -6   25.89    1.29
  -6   3   5   11.29    1.07
  -6  -3   5   11.33    1.09
   6  -3  -5   10.89    1.00
  -6   3   4   29.83    1.72
  -6  -3   4   29.42    1.70
  -6   3   3   33.07    1.79
  -6  -3   3   33.33    1.79
  -6   3   2  174.91    4.07
  -6  -3   2  173.71    3.97
   6  -3  -2  167.01    3.95
  -6   3   1    5.94    0.83
  -6  -3   1    8.08    0.91
   6  -3  -1    6.16    0.87
  -6   3   0  309.60    5.12
  -6  -3   0  298.42    4.96
   6  -3   0  292.63    5.22
  -6  -3  -1   22.13    1.52
  -6   3  -1   23.30    1.29
  -6  -3  -1   23.57    1.27
  -6  -3  -2    7.37    0.95
  -6  -3  -2    7.97    0.70
  -6  -3  -3    1.31    0.50
  -6  -3  -4   11.53    0.72
   6  -4  -7    2.92    0.36
  -6  -4   7    2.53    0.41
   6  -4  -6   32.11    1.36
  -6   4   5   29.71    1.41
  -6  -4   5   30.19    1.49
   6  -4  -5   28.16    1.47
  -6  -4   4   34.97    1.73
  -6   4   4   35.46    1.67
  -6  -4   4   37.99    1.74
  -6   4   3   16.36    1.18
  -6  -4   3   12.89    1.09
   6  -4  -2    1.39    0.62
  -6   4   2    1.72    0.52
  -6  -4   2    2.05    0.58
  -6   4   1   18.52    1.18
  -6  -4   1   17.53    1.15
   6  -4  -1   16.84    1.33
  -6  -4   0   41.44    2.11
  -6   4   0   42.39    1.68
  -6  -4   0   39.80    1.59
   6  -4   0   38.85    1.90
  -6  -4  -1   46.93    2.15
  -6   4  -1   53.40    1.75
  -6  -4  -1   49.62    1.63
   6  -4   1   50.74    2.01
  -6  -4  -2   15.03    1.19
  -6  -4  -3    7.62    0.79
   6  -5  -5   13.98    1.00
  -6  -5   4   14.85    1.14
   6  -5  -4   13.18    1.08
  -6  -5   3  117.18    2.69
   6  -5  -2   25.26    1.56
   6  -5  -1    3.43    0.73
   6  -5   0   15.10    1.22
  -6  -5  -1    6.91    0.95
   6  -5   1    6.49    0.80
  -6  -5  -2   49.49    2.04
   6  -5   2   48.19    1.65
  -6  -5  -3   53.66    1.75
  -6  -6   5   19.44    1.06
   6  -6  -5   18.39    0.99
  -6  -6   4   22.59    1.20
  -6  -6   4   23.91    1.26
  -6  -6   4   24.21    1.09
   6  -6  -4   25.31    1.28
  -6  -6   3   29.14    1.68
  -6  -6   3   30.78    1.33
  -6  -6   2   34.39    1.92
   6  -6  -2   35.95    1.77
   6  -6  -1   22.06    1.45
   6  -6   0    8.12    0.91
   6  -6   1    4.38    0.65
   6  -6   2    5.96    0.59
  -6  -7   5   12.58    0.73
  -6  -7   4   42.02    1.46
  -6  -7   4   41.25    1.30
  -6  -7   3    4.98    0.74
  -6  -7   3    6.36    0.63
  -6  -7   2   55.38    2.18
   6  -7  -2   54.90    2.03
   6  -7  -1   42.19    1.78
  -6  -7   0    8.99    0.89
   6  -7   0    7.08    0.79
   6  -7   1    1.52    0.45
  -6  -8   3   14.44    0.89
  -6  -8   2    3.82    0.60
   6  -8  -1    3.99    0.58
  -6  -8   0    8.71    0.67
   6  -8   0    8.43    0.71
  -7   0   6   14.45    0.84
  -7   0   5    1.61    0.51
   7   0  -5    1.48    0.36
  -7   0   4    2.46    0.61
  -7   0   3   38.48    1.74
  -7   0   2   66.47    2.21
  -7   0   1   16.32    1.11
  -7   0   0    0.29    0.41
  -7   0  -1   18.89    0.96
  -7   1   6   25.80    1.05
  -7   1   5   19.58    1.14
   7  -1  -5   17.48    0.93
  -7   1   4    8.37    0.86
  -7   1   3   28.53    1.49
  -7   1   2   40.43    1.73
  -7   1   1   67.19    2.12
  -7   1   0   15.83    0.99
  -7   1  -1   12.61    0.79
  -7  -2   6   71.10    1.63
  -7   2   5    3.13    0.51
  -7  -2   5    3.52    0.55
   7  -2  -5    3.32    0.49
  -7   2   4   17.60    1.10
  -7  -2   4   17.23    1.09
  -7   2   3   23.73    1.31
  -7  -2   3   21.49    1.26
  -7   2   2   24.36    1.31
  -7  -2   2   23.13    1.27
  -7   2   1   57.87    1.89
  -7  -2   1   60.35    1.93
  -7   2   0  126.98    2.67
  -7  -2   0  122.94    2.60
  -7   2  -1   12.69    0.75
  -7  -2  -1   11.70    0.71
  -7   3   5    6.14    0.52
   7  -3  -5    6.81    0.60
  -7   3   4   30.67    1.27
  -7  -3   4   31.74    1.31
   7  -3  -4   28.81    1.32
  -7   3   3   28.88    1.30
  -7  -3   3   28.31    1.30
  -7   3   2    2.41    0.50
  -7  -3   2    2.64    0.51
  -7   3   1  136.43    2.74
  -7  -3   1  133.58    2.68
  -7   3   0   12.09    0.77
  -7  -3   0   11.02    0.72
   7  -4  -5   31.97    1.11
  -7  -4   3    2.41    0.56
  -7   4   3    2.42    0.38
  -7   4   2    1.34    0.34
  -7   4   1   23.54    0.95
   7  -5  -4   27.81    1.05
  -7  -5   3   44.38    1.53
   7  -5  -3   44.43    1.45
  -7  -5   2   14.27    1.00
  -7  -6   2    7.47    0.64
  -7  -6   1   14.69    0.85
  -8   0   3    2.46    0.30
  -8   0   2    0.81    0.23
   0   0   0    0.00    0.00


TITL AY-CAS13429-83-9-373K_auto in P2(1)/m
REM P2(1)/m (#11 in standard setting)
CELL 1.54184   6.387867  10.848391   7.613674  90.0000 103.2034  90.0000
ZERR   10.00   0.000217   0.000335   0.000286   0.0000   0.0034   0.0000
LATT  1
SYMM -x, y+1/2,-z
SFAC C H N O
UNIT 10.00 10.00 10.00 10.00
REM  CrysAlisPro recorded range (K): Min=372.9; max=373.1; aver:373.0
TEMP 100
TREF
HKLF 4
END
_computing_structure_solution     'SHELXT 2014/5 (Sheldrick, 2014)'
;
_shelx_hkl_checksum              44060
_olex2_submission_special_instructions 'No special instructions were received'
_oxdiff_exptl_absorpt_empirical_details
;
Empirical correction (ABSPACK) includes:
- Absorption correction using spherical harmonics
- Frame scaling
;
_oxdiff_exptl_absorpt_empirical_full_max 4.432
_oxdiff_exptl_absorpt_empirical_full_min 0.595
loop_
_space_group_symop_operation_xyz
'x, y, z'
'-x, y+1/2, -z'
loop_
_atom_site_label
_atom_site_type_symbol
_atom_site_fract_x
_atom_site_fract_y
_atom_site_fract_z
_atom_site_U_iso_or_equiv
_atom_site_adp_type
_atom_site_occupancy
_atom_site_site_symmetry_order
_atom_site_calc_flag
_atom_site_refinement_flags_posn
_atom_site_refinement_flags_adp
_atom_site_refinement_flags_occupancy
_atom_site_disorder_assembly
_atom_site_disorder_group
O001 O -0.4402(6) -0.4214(4) -0.3571(6) 0.0552(11) Uani 1 1 d . . . . .
O002 O -0.3979(8) -0.6382(6) -0.6986(7) 0.0722(15) Uani 1 1 d . . . . .
H002 H -0.482110 -0.687038 -0.759921 0.108 Uiso 1 1 calc R U . . .
O003 O -0.3490(10) -0.3143(6) -0.1022(7) 0.0776(17) Uani 1 1 d . . . . .
O004 O -0.6793(8) -0.5909(9) -0.5865(8) 0.093(2) Uani 1 1 d . . . . .
C005 C -0.3064(11) -0.3946(6) -0.1977(9) 0.0560(15) Uani 1 1 d . . . . .
C006 C -0.2140(8) -0.5915(6) -0.2782(7) 0.0466(13) Uani 1 1 d . . . . .
C007 C -0.4921(9) -0.5831(7) -0.5827(8) 0.0542(15) Uani 1 1 d . . . . .
C008 C -0.1102(9) -0.4744(6) -0.1785(8) 0.0521(14) Uani 1 1 d . . . . .
C009 C -0.3300(8) -0.5146(6) -0.4432(7) 0.0440(13) Uani 1 1 d . . . . .
C00A C -0.1488(10) -0.4450(7) -0.5001(8) 0.0575(16) Uani 1 1 d . . . . .
H00A H -0.201448 -0.370375 -0.565779 0.069 Uiso 1 1 calc R U . . .
H00B H -0.078560 -0.496020 -0.574075 0.069 Uiso 1 1 calc R U . . .
C00B C -0.0546(13) -0.6857(7) -0.3175(10) 0.0632(17) Uani 1 1 d . . . . .
H00C H 0.034578 -0.714432 -0.206003 0.095 Uiso 1 1 calc R U . . .
H00D H 0.033733 -0.648078 -0.389076 0.095 Uiso 1 1 calc R U . . .
H00E H -0.131274 -0.753940 -0.382264 0.095 Uiso 1 1 calc R U . . .
C00C C 0.0036(10) -0.4151(8) -0.3175(9) 0.0626(17) Uani 1 1 d . . . . .
H00F H 0.019097 -0.326784 -0.299296 0.075 Uiso 1 1 calc R U . . .
H00G H 0.144470 -0.451189 -0.309254 0.075 Uiso 1 1 calc R U . . .
C00D C -0.3696(14) -0.6562(8) -0.1810(11) 0.0683(19) Uani 1 1 d . . . . .
H00H H -0.462119 -0.596130 -0.145316 0.102 Uiso 1 1 calc R U . . .
H00I H -0.288937 -0.698024 -0.075986 0.102 Uiso 1 1 calc R U . . .
H00J H -0.454864 -0.714984 -0.260892 0.102 Uiso 1 1 calc R U . . .
C00E C 0.0253(15) -0.4871(10) 0.0125(11) 0.083(2) Uani 1 1 d . . . . .
H00K H -0.056313 -0.528763 0.085907 0.124 Uiso 1 1 calc R U . . .
H00L H 0.065318 -0.406686 0.061578 0.124 Uiso 1 1 calc R U . . .
H00M H 0.152501 -0.533733 0.010800 0.124 Uiso 1 1 calc R U . . .
loop_
_atom_site_aniso_label
_atom_site_aniso_U_11
_atom_site_aniso_U_22
_atom_site_aniso_U_33
_atom_site_aniso_U_23
_atom_site_aniso_U_13
_atom_site_aniso_U_12
O001 0.055(2) 0.055(2) 0.055(2) 0.000(2) 0.0122(16) 0.0161(19)
O002 0.074(3) 0.081(4) 0.067(3) -0.025(3) 0.027(2) -0.025(3)
O003 0.104(4) 0.067(3) 0.061(3) -0.010(3) 0.018(2) 0.031(3)
O004 0.050(2) 0.147(7) 0.082(4) -0.024(4) 0.012(2) -0.014(3)
C005 0.068(3) 0.050(4) 0.051(3) 0.001(3) 0.015(2) 0.013(3)
C006 0.052(3) 0.045(3) 0.044(3) 0.005(2) 0.015(2) 0.005(2)
C007 0.055(3) 0.065(4) 0.043(3) -0.001(3) 0.012(2) -0.007(3)
C008 0.055(3) 0.051(3) 0.048(3) -0.001(3) 0.008(2) 0.007(3)
C009 0.048(2) 0.046(3) 0.040(3) 0.002(2) 0.0152(18) 0.003(2)
C00A 0.064(3) 0.059(4) 0.054(3) 0.005(3) 0.022(2) -0.012(3)
C00B 0.073(4) 0.055(4) 0.063(4) 0.001(3) 0.020(3) 0.017(3)
C00C 0.059(3) 0.064(4) 0.066(4) -0.005(3) 0.015(3) -0.014(3)
C00D 0.084(4) 0.064(5) 0.066(4) 0.013(4) 0.036(3) -0.004(3)
C00E 0.091(5) 0.088(6) 0.060(4) -0.011(4) -0.005(3) 0.021(5)
loop_
_atom_type_symbol
_atom_type_description
_atom_type_scat_dispersion_real
_atom_type_scat_dispersion_imag
_atom_type_scat_source
C C 0.0181 0.0091 'International Tables Vol C Tables 4.2.6.8 and 6.1.1.4'
H H 0.0000 0.0000 'International Tables Vol C Tables 4.2.6.8 and 6.1.1.4'
N N 0.0311 0.0180 'International Tables Vol C Tables 4.2.6.8 and 6.1.1.4'
O O 0.0492 0.0322 'International Tables Vol C Tables 4.2.6.8 and 6.1.1.4'
loop_
_geom_angle_atom_site_label_1
_geom_angle_atom_site_label_2
_geom_angle_atom_site_label_3
_geom_angle
_geom_angle_site_symmetry_1
_geom_angle_site_symmetry_3
_geom_angle_publ_flag
C005 O001 C009 106.3(4) . . ?
C007 O002 H002 109.5 . . ?
O001 C005 C008 107.9(5) . . ?
O003 C005 O001 121.1(6) . . ?
O003 C005 C008 131.0(7) . . ?
C009 C006 C008 91.6(4) . . ?
C00B C006 C008 114.6(5) . . ?
C00B C006 C009 114.9(5) . . ?
C00B C006 C00D 108.9(6) . . ?
C00D C006 C008 112.9(5) . . ?
C00D C006 C009 113.2(5) . . ?
O002 C007 C009 110.6(5) . . ?
O004 C007 O002 124.0(6) . . ?
O004 C007 C009 125.4(6) . . ?
C005 C008 C006 99.8(5) . . ?
C005 C008 C00C 101.8(5) . . ?
C005 C008 C00E 115.2(6) . . ?
C006 C008 C00C 102.7(5) . . ?
C00E C008 C006 118.8(6) . . ?
C00E C008 C00C 115.9(6) . . ?
O001 C009 C006 101.4(4) . . ?
O001 C009 C007 109.5(5) . . ?
O001 C009 C00A 104.9(5) . . ?
C007 C009 C006 115.6(6) . . ?
C007 C009 C00A 119.4(4) . . ?
C00A C009 C006 104.1(4) . . ?
C009 C00A H00A 111.3 . . ?
C009 C00A H00B 111.3 . . ?
C009 C00A C00C 102.3(4) . . ?
H00A C00A H00B 109.2 . . ?
C00C C00A H00A 111.3 . . ?
C00C C00A H00B 111.3 . . ?
C006 C00B H00C 109.5 . . ?
C006 C00B H00D 109.5 . . ?
C006 C00B H00E 109.5 . . ?
H00C C00B H00D 109.5 . . ?
H00C C00B H00E 109.5 . . ?
H00D C00B H00E 109.5 . . ?
C008 C00C H00F 111.1 . . ?
C008 C00C H00G 111.1 . . ?
C00A C00C C008 103.3(5) . . ?
C00A C00C H00F 111.1 . . ?
C00A C00C H00G 111.1 . . ?
H00F C00C H00G 109.1 . . ?
C006 C00D H00H 109.5 . . ?
C006 C00D H00I 109.5 . . ?
C006 C00D H00J 109.5 . . ?
H00H C00D H00I 109.5 . . ?
H00H C00D H00J 109.5 . . ?
H00I C00D H00J 109.5 . . ?
C008 C00E H00K 109.5 . . ?
C008 C00E H00L 109.5 . . ?
C008 C00E H00M 109.5 . . ?
H00K C00E H00L 109.5 . . ?
H00K C00E H00M 109.5 . . ?
H00L C00E H00M 109.5 . . ?
loop_
_geom_bond_atom_site_label_1
_geom_bond_atom_site_label_2
_geom_bond_distance
_geom_bond_site_symmetry_2
_geom_bond_publ_flag
O001 C005 1.347(8) . ?
O001 C009 1.469(7) . ?
O002 H002 0.8200 . ?
O002 C007 1.320(8) . ?
O003 C005 1.205(8) . ?
O004 C007 1.192(8) . ?
C005 C008 1.503(8) . ?
C006 C008 1.549(9) . ?
C006 C009 1.548(8) . ?
C006 C00B 1.519(8) . ?
C006 C00D 1.538(8) . ?
C007 C009 1.500(8) . ?
C008 C00C 1.554(9) . ?
C008 C00E 1.519(9) . ?
C009 C00A 1.526(7) . ?
C00A H00A 0.9700 . ?
C00A H00B 0.9700 . ?
C00A C00C 1.539(9) . ?
C00B H00C 0.9600 . ?
C00B H00D 0.9600 . ?
C00B H00E 0.9600 . ?
C00C H00F 0.9700 . ?
C00C H00G 0.9700 . ?
C00D H00H 0.9600 . ?
C00D H00I 0.9600 . ?
C00D H00J 0.9600 . ?
C00E H00K 0.9600 . ?
C00E H00L 0.9600 . ?
C00E H00M 0.9600 . ?
