#------------------------------------------------------------------------------
#$Date: 2022-02-04 21:14:28 +0200 (Fri, 04 Feb 2022) $
#$Revision: 272590 $
#$URL: file:///home/coder/svn-repositories/cod/cif/1/56/52/1565227.cif $
#------------------------------------------------------------------------------
#
# This file is available in the Crystallography Open Database (COD),
# http://www.crystallography.net/
#
# All data on this site have been placed in the public domain by the
# contributors.
#
data_1565227
loop_
_publ_author_name
'Li, Peng-Fei'
'Ai, Yong'
'Zeng, Yu-Ling'
'Liu, Jun-Chao'
'Xu, Zhe-Kun'
'Wang, Zhong-Xia'
_publ_section_title
;
 Highest-Tc single-component homochiral organic ferroelectrics
;
_journal_issue                   3
_journal_name_full               'Chemical Science'
_journal_page_first              657
_journal_page_last               664
_journal_paper_doi               10.1039/D1SC04322F
_journal_volume                  13
_journal_year                    2022
_chemical_absolute_configuration S
_chemical_formula_moiety         'C10 H15 N O2 S'
_chemical_formula_sum            'C10 H15 N O2 S'
_chemical_formula_weight         213.29
_chemical_name_systematic        S-CSAI
_space_group_crystal_system      monoclinic
_space_group_IT_number           4
_space_group_name_Hall           'P 2yb'
_space_group_name_H-M_alt        'P 1 21 1'
_atom_sites_solution_hydrogens   geom
_audit_creation_method           SHELXL-2014/7
_audit_update_record
;
2021-06-01 deposited with the CCDC.	2021-11-15 downloaded from the CCDC.
;
_cell_angle_alpha                90
_cell_angle_beta                 94.727(5)
_cell_angle_gamma                90
_cell_formula_units_Z            2
_cell_length_a                   7.7253(5)
_cell_length_b                   7.7557(4)
_cell_length_c                   9.0549(5)
_cell_measurement_reflns_used    3141
_cell_measurement_temperature    298(2)
_cell_measurement_theta_max      29.4680
_cell_measurement_theta_min      2.2520
_cell_volume                     540.68(5)
_computing_structure_refinement  'SHELXL-2014/7 (Sheldrick, 2014)'
_diffrn_ambient_temperature      298(2)
_diffrn_measured_fraction_theta_full 0.999
_diffrn_measured_fraction_theta_max 0.783
_diffrn_measurement_device_type  'XtaLAB Synergy R, DW system, HyPix'
_diffrn_radiation_type           MoK\a
_diffrn_radiation_wavelength     0.71073
_diffrn_reflns_av_R_equivalents  0.0182
_diffrn_reflns_av_unetI/netI     0.0294
_diffrn_reflns_Laue_measured_fraction_full 0.999
_diffrn_reflns_Laue_measured_fraction_max 0.783
_diffrn_reflns_limit_h_max       9
_diffrn_reflns_limit_h_min       -9
_diffrn_reflns_limit_k_max       10
_diffrn_reflns_limit_k_min       -10
_diffrn_reflns_limit_l_max       12
_diffrn_reflns_limit_l_min       -11
_diffrn_reflns_number            4641
_diffrn_reflns_point_group_measured_fraction_full 0.928
_diffrn_reflns_point_group_measured_fraction_max 0.699
_diffrn_reflns_theta_full        25.242
_diffrn_reflns_theta_max         30.946
_diffrn_reflns_theta_min         2.257
_exptl_absorpt_coefficient_mu    0.274
_exptl_crystal_colour            colorless
_exptl_crystal_density_diffrn    1.310
_exptl_crystal_description       block
_exptl_crystal_F_000             228
_refine_diff_density_max         0.208
_refine_diff_density_min         -0.247
_refine_diff_density_rms         0.038
_refine_ls_abs_structure_details
;
 Flack x determined using 730 quotients [(I+)-(I-)]/[(I+)+(I-)]
 (Parsons, Flack and Wagner, Acta Cryst. B69 (2013) 249-259).
;
_refine_ls_abs_structure_Flack   0.02(5)
_refine_ls_extinction_method     none
_refine_ls_goodness_of_fit_ref   1.054
_refine_ls_hydrogen_treatment    constr
_refine_ls_matrix_type           full
_refine_ls_number_parameters     129
_refine_ls_number_reflns         2392
_refine_ls_number_restraints     1
_refine_ls_restrained_S_all      1.054
_refine_ls_R_factor_all          0.0453
_refine_ls_R_factor_gt           0.0355
_refine_ls_shift/su_max          0.000
_refine_ls_shift/su_mean         0.000
_refine_ls_structure_factor_coef Fsqd
_refine_ls_weighting_details
'w=1/[\s^2^(Fo^2^)+(0.0540P)^2^+0.0092P] where P=(Fo^2^+2Fc^2^)/3'
_refine_ls_weighting_scheme      calc
_refine_ls_wR_factor_gt          0.0920
_refine_ls_wR_factor_ref         0.0962
_reflns_Friedel_coverage         0.674
_reflns_Friedel_fraction_full    0.845
_reflns_Friedel_fraction_max     0.603
_reflns_number_gt                1978
_reflns_number_total             2392
_reflns_threshold_expression     'I > 2\s(I)'
_cod_data_source_file            d1sc04322f2.cif
_cod_data_source_block           1_CCDC1
_cod_depositor_comments
'Adding full bibliography for 1565226--1565230.cif.'
_cod_original_sg_symbol_H-M      'P 21'
_cod_database_code               1565227
_shelx_shelxl_version_number     2014/7
_shelx_space_group_comment
;
The symmetry employed for this shelxl refinement is uniquely defined
by the following loop, which should always be used as a source of
symmetry information in preference to the above space-group names.
They are only intended as comments.
;
_shelx_res_file
;

    1.res created by SHELXL-2014/7

TITL 1 in P2(1)
CELL 0.71073   7.7253   7.7557   9.0549  90.000  94.727  90.000
ZERR    2.00   0.0005   0.0004   0.0005   0.000   0.005   0.000
LATT -1
SYMM -X, 0.5+Y, -Z
SFAC C  H  N  O  S
UNIT 20 30 2 4 2
L.S. 20
ACTA
BOND
FMAP 2
PLAN 5
WGHT    0.054000    0.009200
FVAR       0.66586
MOLE 1
S1    5    0.287801    0.039650    0.402402    11.00000    0.05120    0.04749 =
         0.04362    0.00028    0.00220   -0.00422
C1    1    0.412067    0.032895    0.579130    11.00000    0.03968    0.05080 =
         0.05230    0.00116   -0.00178   -0.00071
AFIX  23
H1A   2    0.499899   -0.056657    0.581432    11.00000   -1.20000
H1B   2    0.467789    0.142809    0.602231    11.00000   -1.20000
AFIX   0
O1    4    0.304691   -0.119260    0.323803    11.00000    0.08603    0.06394 =
         0.06236   -0.01761    0.00445   -0.00484
N1    3    0.088059    0.049126    0.462322    11.00000    0.04405    0.06026 =
         0.05631    0.00435   -0.00695   -0.00149
O2    4    0.316714    0.196070    0.324248    11.00000    0.07494    0.06543 =
         0.06048    0.01935    0.00596   -0.00988
C7    1    0.102848    0.027229    0.602110    11.00000    0.04091    0.04281 =
         0.05361    0.00353    0.00025   -0.00015
C6    1   -0.030599    0.033865    0.713154    11.00000    0.04602    0.07138 =
         0.07618    0.00850    0.01440    0.00578
AFIX  23
H6A   2   -0.115412   -0.057904    0.697338    11.00000   -1.20000
H6B   2   -0.089848    0.144204    0.711445    11.00000   -1.20000
AFIX   0
C3    1    0.263504   -0.195343    0.741703    11.00000    0.06010    0.04257 =
         0.06595    0.00769   -0.00307    0.00105
AFIX  23
H3A   2    0.218878   -0.271557    0.662575    11.00000   -1.20000
H3B   2    0.376085   -0.237159    0.781711    11.00000   -1.20000
AFIX   0
C2    1    0.276280   -0.006856    0.685158    11.00000    0.04405    0.04734 =
         0.04264    0.00112    0.00037   -0.00016
C5    1    0.085236    0.008104    0.857687    11.00000    0.07028    0.07672 =
         0.05764   -0.00078    0.02239    0.00103
AFIX  13
H5    2    0.033013    0.048306    0.946515    11.00000   -1.20000
AFIX   0
C4    1    0.137338   -0.183253    0.862678    11.00000    0.07699    0.07234 =
         0.06408    0.01965    0.00872   -0.00960
AFIX  23
H4A   2    0.193645   -0.214201    0.958729    11.00000   -1.20000
H4B   2    0.037226   -0.257181    0.840789    11.00000   -1.20000
AFIX   0
C9    1    0.408070    0.073833    0.946440    11.00000    0.09699    0.09738 =
         0.05001   -0.00744   -0.01284   -0.01064
AFIX 137
H9A   2    0.512768    0.119976    0.911925    11.00000   -1.50000
H9B   2    0.422631   -0.047319    0.965318    11.00000   -1.50000
H9C   2    0.383407    0.131441    1.036171    11.00000   -1.50000
AFIX   0
C8    1    0.257172    0.101592    0.828245    11.00000    0.06761    0.05270 =
         0.04503   -0.00509    0.00395   -0.00249
C10   1    0.234728    0.295540    0.796980    11.00000    0.10032    0.05148 =
         0.08636   -0.01804    0.01078    0.00247
AFIX 137
H10A  2    0.193876    0.351421    0.882101    11.00000   -1.50000
H10B  2    0.151959    0.312002    0.713131    11.00000   -1.50000
H10C  2    0.344339    0.344275    0.776191    11.00000   -1.50000
AFIX   0
HKLF 4

REM  1 in P2(1)
REM R1 =  0.0355 for    1978 Fo > 4sig(Fo)  and  0.0453 for all    2392 data
REM    129 parameters refined using      1 restraints

END

WGHT      0.0521      0.0152

REM Highest difference peak  0.208,  deepest hole -0.247,  1-sigma level  0.038
Q1    1   0.1854  0.0383  0.4289  11.00000  0.05    0.21
Q2    1   0.3672  0.0361  0.4913  11.00000  0.05    0.18
Q3    1   0.2332 -0.2244  0.8221  11.00000  0.05    0.15
Q4    1   0.2705  0.0509  0.7273  11.00000  0.05    0.13
Q5    1   0.2061 -0.0990  0.2842  11.00000  0.05    0.13
;
_shelx_res_checksum              98052
loop_
_space_group_symop_operation_xyz
'x, y, z'
'-x, y+1/2, -z'
loop_
_atom_site_label
_atom_site_type_symbol
_atom_site_fract_x
_atom_site_fract_y
_atom_site_fract_z
_atom_site_U_iso_or_equiv
_atom_site_adp_type
_atom_site_occupancy
_atom_site_site_symmetry_order
_atom_site_calc_flag
_atom_site_refinement_flags_posn
_atom_site_refinement_flags_adp
_atom_site_refinement_flags_occupancy
_atom_site_disorder_assembly
_atom_site_disorder_group
S1 S 0.28780(8) 0.03965(9) 0.40240(6) 0.0475(2) Uani 1 1 d . . . . .
C1 C 0.4121(3) 0.0329(5) 0.5791(3) 0.0479(5) Uani 1 1 d . . . . .
H1A H 0.4999 -0.0567 0.5814 0.057 Uiso 1 1 calc R U . . .
H1B H 0.4678 0.1428 0.6022 0.057 Uiso 1 1 calc R U . . .
O1 O 0.3047(4) -0.1193(3) 0.3238(3) 0.0709(7) Uani 1 1 d . . . . .
N1 N 0.0881(3) 0.0491(5) 0.4623(2) 0.0542(5) Uani 1 1 d . . . . .
O2 O 0.3167(4) 0.1961(3) 0.3242(3) 0.0669(7) Uani 1 1 d . . . . .
C7 C 0.1028(3) 0.0272(4) 0.6021(3) 0.0460(5) Uani 1 1 d . . . . .
C6 C -0.0306(4) 0.0339(6) 0.7132(3) 0.0640(7) Uani 1 1 d . . . . .
H6A H -0.1154 -0.0579 0.6973 0.077 Uiso 1 1 calc R U . . .
H6B H -0.0898 0.1442 0.7114 0.077 Uiso 1 1 calc R U . . .
C3 C 0.2635(4) -0.1953(4) 0.7417(4) 0.0567(8) Uani 1 1 d . . . . .
H3A H 0.2189 -0.2716 0.6626 0.068 Uiso 1 1 calc R U . . .
H3B H 0.3761 -0.2372 0.7817 0.068 Uiso 1 1 calc R U . . .
C2 C 0.2763(4) -0.0069(3) 0.6852(3) 0.0449(6) Uani 1 1 d . . . . .
C5 C 0.0852(5) 0.0081(5) 0.8577(4) 0.0673(10) Uani 1 1 d . . . . .
H5 H 0.0330 0.0483 0.9465 0.081 Uiso 1 1 calc R U . . .
C4 C 0.1373(5) -0.1833(5) 0.8627(4) 0.0710(10) Uani 1 1 d . . . . .
H4A H 0.1936 -0.2142 0.9587 0.085 Uiso 1 1 calc R U . . .
H4B H 0.0372 -0.2572 0.8408 0.085 Uiso 1 1 calc R U . . .
C9 C 0.4081(6) 0.0738(6) 0.9464(4) 0.0825(13) Uani 1 1 d . . . . .
H9A H 0.5128 0.1200 0.9119 0.124 Uiso 1 1 calc R U . . .
H9B H 0.4226 -0.0473 0.9653 0.124 Uiso 1 1 calc R U . . .
H9C H 0.3834 0.1314 1.0362 0.124 Uiso 1 1 calc R U . . .
C8 C 0.2572(5) 0.1016(4) 0.8282(3) 0.0552(8) Uani 1 1 d . . . . .
C10 C 0.2347(6) 0.2955(4) 0.7970(5) 0.0792(12) Uani 1 1 d . . . . .
H10A H 0.1939 0.3514 0.8821 0.119 Uiso 1 1 calc R U . . .
H10B H 0.1520 0.3120 0.7131 0.119 Uiso 1 1 calc R U . . .
H10C H 0.3443 0.3443 0.7762 0.119 Uiso 1 1 calc R U . . .
loop_
_atom_site_aniso_label
_atom_site_aniso_U_11
_atom_site_aniso_U_22
_atom_site_aniso_U_33
_atom_site_aniso_U_23
_atom_site_aniso_U_13
_atom_site_aniso_U_12
S1 0.0512(3) 0.0475(3) 0.0436(3) 0.0003(4) 0.0022(2) -0.0042(4)
C1 0.0397(12) 0.0508(13) 0.0523(13) 0.0012(17) -0.0018(9) -0.0007(16)
O1 0.086(2) 0.0639(16) 0.0624(16) -0.0176(13) 0.0045(14) -0.0048(14)
N1 0.0440(12) 0.0603(12) 0.0563(12) 0.0043(15) -0.0070(9) -0.0015(14)
O2 0.0749(18) 0.0654(15) 0.0605(16) 0.0193(13) 0.0060(14) -0.0099(13)
C7 0.0409(12) 0.0428(13) 0.0536(13) 0.0035(15) 0.0003(10) -0.0001(13)
C6 0.0460(15) 0.0714(17) 0.0762(18) 0.009(2) 0.0144(13) 0.0058(19)
C3 0.060(2) 0.0426(16) 0.066(2) 0.0077(14) -0.0031(16) 0.0011(12)
C2 0.0441(15) 0.0473(17) 0.0426(13) 0.0011(10) 0.0004(11) -0.0002(9)
C5 0.070(2) 0.077(3) 0.0576(16) -0.0008(17) 0.0224(15) 0.0010(16)
C4 0.077(2) 0.072(2) 0.064(2) 0.0196(17) 0.0087(18) -0.0096(17)
C9 0.097(3) 0.097(4) 0.0500(17) -0.007(2) -0.0128(18) -0.011(2)
C8 0.068(2) 0.0527(15) 0.0450(15) -0.0051(12) 0.0039(14) -0.0025(12)
C10 0.100(3) 0.051(2) 0.086(3) -0.0180(19) 0.011(2) 0.0025(17)
loop_
_atom_type_symbol
_atom_type_description
_atom_type_scat_dispersion_real
_atom_type_scat_dispersion_imag
_atom_type_scat_source
C C 0.0033 0.0016 'International Tables Vol C Tables 4.2.6.8 and 6.1.1.4'
H H 0.0000 0.0000 'International Tables Vol C Tables 4.2.6.8 and 6.1.1.4'
N N 0.0061 0.0033 'International Tables Vol C Tables 4.2.6.8 and 6.1.1.4'
O O 0.0106 0.0060 'International Tables Vol C Tables 4.2.6.8 and 6.1.1.4'
S S 0.1246 0.1234 'International Tables Vol C Tables 4.2.6.8 and 6.1.1.4'
loop_
_geom_angle_atom_site_label_1
_geom_angle_atom_site_label_2
_geom_angle_atom_site_label_3
_geom_angle
_geom_angle_site_symmetry_1
_geom_angle_site_symmetry_3
_geom_angle_publ_flag
O2 S1 O1 117.30(12) . . ?
O2 S1 N1 107.92(16) . . ?
O1 S1 N1 108.76(16) . . ?
O2 S1 C1 111.79(16) . . ?
O1 S1 C1 110.66(17) . . ?
N1 S1 C1 98.70(11) . . ?
C2 C1 S1 102.93(16) . . ?
C7 N1 S1 107.82(18) . . ?
N1 C7 C6 130.7(2) . . ?
N1 C7 C2 121.6(2) . . ?
C6 C7 C2 107.7(2) . . ?
C7 C6 C5 100.5(2) . . ?
C4 C3 C2 103.9(2) . . ?
C7 C2 C1 106.4(2) . . ?
C7 C2 C3 104.6(2) . . ?
C1 C2 C3 117.9(3) . . ?
C7 C2 C8 100.3(2) . . ?
C1 C2 C8 122.4(2) . . ?
C3 C2 C8 102.7(2) . . ?
C6 C5 C4 106.5(3) . . ?
C6 C5 C8 103.8(3) . . ?
C4 C5 C8 103.3(3) . . ?
C3 C4 C5 102.7(2) . . ?
C9 C8 C10 109.5(3) . . ?
C9 C8 C5 115.2(3) . . ?
C10 C8 C5 113.7(3) . . ?
C9 C8 C2 112.7(3) . . ?
C10 C8 C2 113.0(3) . . ?
C5 C8 C2 91.8(2) . . ?
loop_
_geom_bond_atom_site_label_1
_geom_bond_atom_site_label_2
_geom_bond_distance
_geom_bond_site_symmetry_2
_geom_bond_publ_flag
S1 O2 1.431(2) . ?
S1 O1 1.435(2) . ?
S1 N1 1.679(2) . ?
S1 C1 1.798(2) . ?
C1 C2 1.511(3) . ?
N1 C7 1.273(3) . ?
C7 C6 1.499(3) . ?
C7 C2 1.505(4) . ?
C6 C5 1.536(5) . ?
C3 C4 1.528(5) . ?
C3 C2 1.555(4) . ?
C2 C8 1.562(4) . ?
C5 C4 1.537(5) . ?
C5 C8 1.555(5) . ?
C9 C8 1.531(5) . ?
C8 C10 1.538(4) . ?
