#------------------------------------------------------------------------------
#$Date: 2022-03-02 05:20:08 +0200 (Wed, 02 Mar 2022) $
#$Revision: 273207 $
#$URL: file:///home/coder/svn-repositories/cod/cif/1/56/64/1566439.cif $
#------------------------------------------------------------------------------
#
# This file is available in the Crystallography Open Database (COD),
# http://www.crystallography.net/. The original data for this entry
# were provided by IUCr Journals, http://journals.iucr.org/.
#
# The file may be used within the scientific community so long as
# proper attribution is given to the journal article from which the
# data were obtained.
#
data_1566439
loop_
_publ_author_name
'Ruth, Paul Niklas'
'Herbst-Irmer, Regine'
'Stalke, Dietmar'
_publ_section_title
;
 Hirshfeld atom refinement based on projector augmented wave densities
 with periodic boundary conditions
;
_journal_issue                   2
_journal_name_full               IUCrJ
_journal_page_first              286
_journal_page_last               297
_journal_paper_doi               10.1107/S2052252522001385
_journal_volume                  9
_journal_year                    2022
_chemical_absolute_configuration syn
_chemical_formula_moiety         'C3 H7 N O2'
_chemical_formula_sum            'C3 H7 N O2'
_chemical_formula_weight         89.0947
_space_group_crystal_system      orthorhombic
_space_group_IT_number           19
_space_group_name_Hall           'P 2ac 2ab'
_space_group_name_H-M_alt        'P 21 21 21'
_atom_sites_solution_hydrogens   difmap
_audit_creation_method           'xHARPY 0.1'
_cell_angle_alpha                90
_cell_angle_beta                 90
_cell_angle_gamma                90
_cell_formula_units_Z            4
_cell_length_a                   5.9279(10)
_cell_length_b                   12.2597(17)
_cell_length_c                   5.7939(9)
_cell_measurement_reflns_used    1524
_cell_measurement_temperature    23
_cell_measurement_theta_max      22.5
_cell_measurement_theta_min      15.0
_cell_volume                     421.07(11)
_computing_publication_material  'xHARPY 0.1'
_computing_structure_refinement  'xHARPY 0.1'
_computing_structure_solution    'SHELXS-2013 (Sheldrick, 2008)'
_diffrn_ambient_temperature      23
_diffrn_measured_fraction_theta_full 0.994
_diffrn_measured_fraction_theta_max 0.993
_diffrn_measurement_device_type  'P-1 four circle diffractometer'
_diffrn_measurement_method       'area detector'
_diffrn_radiation_type           MoK\a
_diffrn_radiation_wavelength     0.71073
_diffrn_reflns_av_unetI/netI     0.0243
_diffrn_reflns_Laue_measured_fraction_full 0.994
_diffrn_reflns_Laue_measured_fraction_max 0.993
_diffrn_reflns_limit_h_max       12
_diffrn_reflns_limit_h_min       0
_diffrn_reflns_limit_k_max       26
_diffrn_reflns_limit_k_min       0
_diffrn_reflns_limit_l_max       12
_diffrn_reflns_limit_l_min       0
_diffrn_reflns_number            2519
_diffrn_reflns_point_group_measured_fraction_full 0.618
_diffrn_reflns_point_group_measured_fraction_max 0.567
_diffrn_reflns_theta_full        25.242
_diffrn_reflns_theta_max         50.138
_diffrn_reflns_theta_min         3.323
_exptl_absorpt_coefficient_mu    0.117
_exptl_absorpt_correction_type   none
_exptl_crystal_colour            colorless
_exptl_crystal_density_diffrn    1.405
_exptl_crystal_density_method    'not measured'
_exptl_crystal_description       sphere
_exptl_crystal_F_000             192
_exptl_crystal_size_rad          0.18
_refine_diff_density_max         0.2046
_refine_diff_density_min         -0.1834
_refine_diff_density_rms         0.0444
_refine_ls_extinction_method     none
_refine_ls_goodness_of_fit_ref   1.179
_refine_ls_hydrogen_treatment    refall
_refine_ls_matrix_type           full
_refine_ls_number_parameters     118
_refine_ls_number_reflns         2519
_refine_ls_number_restraints     0
_refine_ls_R_factor_all          0.0213
_refine_ls_R_factor_gt           0.0194
_refine_ls_shift/su_max          0.0
_refine_ls_shift/su_mean         0.0
_refine_ls_structure_factor_coef Fsqd
_refine_ls_weighting_details     w=1/[\s^2^(Fo^2^)]
_refine_ls_weighting_scheme      sigma
_refine_ls_wR_factor_gt          0.0329
_refine_ls_wR_factor_ref         0.0331
_reflns_Friedel_coverage         0.0
_reflns_Friedel_fraction_full    0.0
_reflns_Friedel_fraction_max     0.0
_reflns_number_gt                2393
_reflns_number_total             2519
_reflns_threshold_expression     'I > 2\s(I)'
_cod_data_source_file            fc5060.cif
_cod_data_source_block           A23_xHARPy_PW
_cod_database_code               1566439
loop_
_space_group_symop_operation_xyz
'x, y, z'
'-x+1/2, -y, z+1/2'
'x+1/2, -y+1/2, -z'
'-x, y+1/2, -z+1/2'
loop_
_atom_site_label
_atom_site_type_symbol
_atom_site_fract_x
_atom_site_fract_y
_atom_site_fract_z
_atom_site_U_iso_or_equiv
_atom_site_adp_type
_atom_site_occupancy
_atom_site_site_symmetry_order
O1 O 0.72677(4) 0.083784(17) 0.62432(4) 0.00664(3) Uani 1.0 1
O2 O 0.44092(4) 0.184054(17) 0.76114(4) 0.00646(3) Uani 1.0 1
N1 N 0.64720(4) 0.13752(2) 0.18303(5) 0.00529(3) Uani 1.0 1
H1 H 0.7039(11) 0.0607(5) 0.1951(14) 0.0174(18) Uani 1.0 1
H2 H 0.7790(11) 0.1899(5) 0.2082(14) 0.0150(17) Uani 1.0 1
H3 H 0.5857(12) 0.1494(5) 0.0141(13) 0.0165(18) Uani 1.0 1
C1 C 0.46629(5) 0.16106(2) 0.35446(5) 0.00436(4) Uani 1.0 1
H4 H 0.4230(10) 0.2479(4) 0.3390(11) 0.0135(15) Uani 1.0 1
C2 C 0.25988(5) 0.09069(2) 0.30334(6) 0.00684(4) Uani 1.0 1
H5 H 0.1924(11) 0.1108(5) 0.1310(12) 0.0228(19) Uani 1.0 1
H6 H 0.1279(10) 0.1052(5) 0.4299(13) 0.0211(18) Uani 1.0 1
H7 H 0.3046(10) 0.0044(5) 0.3077(14) 0.025(2) Uani 1.0 1
C3 C 0.55406(5) 0.14079(2) 0.59991(5) 0.00410(3) Uani 1.0 1
loop_
_atom_site_aniso_label
_atom_site_aniso_U_11
_atom_site_aniso_U_22
_atom_site_aniso_U_33
_atom_site_aniso_U_23
_atom_site_aniso_U_13
_atom_site_aniso_U_12
O1 0.00679(7) 0.00721(7) 0.00593(9) 0.00052(6) -0.00061(6) 0.00249(6)
O2 0.00767(7) 0.00767(7) 0.00406(8) -0.00059(6) 0.00061(6) 0.00201(6)
N1 0.00566(7) 0.00603(7) 0.00418(9) -0.00008(7) 0.00046(7) 0.00005(7)
H1 0.018(4) 0.020(4) 0.015(5) -0.002(3) 0.008(4) 0.005(3)
H2 0.008(3) 0.019(4) 0.017(5) 0.004(4) 0.007(4) 0.001(3)
H3 0.027(4) 0.018(4) 0.004(4) -0.006(3) 0.010(4) -0.005(4)
C1 0.00502(8) 0.00459(7) 0.00348(9) 0.00004(6) -0.00026(7) 0.00045(7)
H4 0.017(3) 0.012(3) 0.012(4) 0.003(3) 0.008(3) 0.009(3)
C2 0.00574(9) 0.00878(9) 0.00600(11) -0.00043(8) -0.00061(8) -0.00129(8)
H5 0.017(4) 0.044(5) 0.007(4) 0.008(4) -0.010(3) -0.010(4)
H6 0.007(3) 0.027(4) 0.029(5) 0.003(4) 0.005(4) -0.001(3)
H7 0.032(5) 0.010(3) 0.034(5) -0.005(3) 0.002(4) -0.003(3)
C3 0.00479(8) 0.00422(7) 0.00328(9) 0.00001(7) -0.00032(7) 0.00028(7)
loop_
_atom_type_symbol
_atom_type_description
_atom_type_scat_dispersion_real
_atom_type_scat_dispersion_imag
_atom_type_scat_source
C C 0.0033 0.0016 'HAR in xHARPy 0.1'
H H 0.0000 0.0000 'HAR in xHARPy 0.1'
N N 0.0061 0.0033 'HAR in xHARPy 0.1'
O O 0.0106 0.0060 'HAR in xHARPy 0.1'
loop_
_geom_angle_atom_site_label_1
_geom_angle_atom_site_label_2
_geom_angle_atom_site_label_3
_geom_angle
C1 N1 H1 112.2(4)
C1 N1 H2 109.5(4)
H1 N1 H2 108.9(5)
C1 N1 H3 110.1(4)
H1 N1 H3 108.0(6)
H2 N1 H3 108.1(5)
N1 C1 C2 109.77(3)
N1 C1 C3 110.02(2)
C2 C1 C3 111.11(2)
N1 C1 H4 107.5(3)
C2 C1 H4 110.2(3)
C3 C1 H4 108.2(3)
C1 C2 H5 109.9(3)
C1 C2 H6 110.7(3)
H5 C2 H6 108.3(4)
C1 C2 H7 110.4(3)
H5 C2 H7 109.0(5)
H6 C2 H7 108.5(5)
O1 C3 O2 125.85(3)
O1 C3 C1 118.29(3)
O2 C3 C1 115.86(3)
loop_
_geom_bond_atom_site_label_1
_geom_bond_atom_site_label_2
_geom_bond_distance
O1 C3 1.2477(4)
O2 C3 1.2664(4)
N1 C1 1.4900(4)
N1 H1 1.002(7)
N1 H2 1.022(7)
N1 H3 1.054(8)
C1 C2 1.5262(4)
C1 C3 1.5346(5)
C1 H4 1.099(5)
C2 H5 1.103(7)
C2 H6 1.087(7)
C2 H7 1.091(6)
loop_
_refln_index_h
_refln_index_k
_refln_index_l
_refln_F_squared_calc
_refln_F_squared_meas
_refln_F_squared_sigma
0 2 0 183.31 184.50 1.76
0 4 0 5358.71 5206.03 44.62
0 6 0 90.61 90.04 1.05
0 8 0 45.18 45.53 0.72
0 10 0 0.55 0.80 0.34
0 12 0 239.17 233.69 2.67
0 14 0 56.61 58.80 1.13
0 16 0 24.18 25.34 0.86
0 18 0 226.84 228.54 2.99
0 20 0 0.03 0.22 0.34
0 22 0 133.34 136.07 2.36
0 24 0 0.06 0.23 0.38
0 26 0 5.39 6.47 0.62
0 1 1 727.33 727.27 7.36
0 2 1 120.40 120.01 1.22
0 3 1 692.33 711.37 6.42
0 4 1 94.45 98.66 1.07
0 5 1 0.20 0.23 0.17
0 6 1 472.30 476.84 4.60
0 7 1 36.13 37.07 0.61
0 8 1 43.42 44.53 0.73
0 9 1 32.39 32.21 0.67
0 10 1 133.99 137.85 1.70
0 11 1 67.63 66.98 1.11
0 12 1 76.74 76.65 1.23
0 13 1 20.04 18.91 0.69
0 14 1 39.32 38.06 0.95
0 15 1 91.73 91.33 1.56
0 16 1 0.33 2.39 9.23
0 17 1 0.89 1.13 0.35
0 18 1 61.25 60.12 1.37
0 19 1 15.85 16.22 0.90
0 20 1 28.25 27.55 1.05
0 21 1 2.07 2.70 0.42
0 23 1 1.77 1.74 0.42
0 24 1 0.03 0.17 0.39
0 25 1 2.31 3.00 0.56
0 26 1 19.57 19.86 1.24
0 0 2 2887.59 2853.64 33.44
0 1 2 513.35 535.27 6.58
0 2 2 172.94 182.29 2.08
0 3 2 56.31 56.41 0.80
0 4 2 173.51 171.88 1.80
0 5 2 552.52 569.07 5.34
0 6 2 91.29 97.10 1.17
0 7 2 5.53 5.44 0.34
0 8 2 108.80 112.17 1.40
0 9 2 22.03 23.78 0.60
0 10 2 46.07 46.44 0.87
0 11 2 85.45 84.11 1.27
0 12 2 28.70 28.36 0.75
0 13 2 21.83 21.58 0.70
0 14 2 22.24 21.38 0.75
0 15 2 183.10 182.04 2.40
0 16 2 4.25 4.46 0.41
0 17 2 63.78 61.31 1.39
0 18 2 19.63 20.48 0.91
0 19 2 118.96 120.35 2.10
0 20 2 0.87 0.98 0.41
0 21 2 45.85 46.12 1.37
0 22 2 37.34 36.96 1.29
0 23 2 16.91 18.08 1.03
0 24 2 1.84 2.50 0.46
0 25 2 21.71 22.55 1.27
0 26 2 1.69 2.57 0.50
0 1 3 82.74 84.32 1.75
0 2 3 157.75 158.39 2.94
0 3 3 203.27 206.24 2.46
0 4 3 714.82 741.93 7.80
0 5 3 78.31 81.64 1.20
0 6 3 269.08 273.42 2.85
0 7 3 21.73 22.49 0.57
0 8 3 61.17 61.89 1.00
0 9 3 146.41 143.29 1.79
0 10 3 40.04 39.77 0.84
0 11 3 69.69 70.65 1.18
0 12 3 120.32 119.38 1.70
0 13 3 146.32 146.08 2.01
0 14 3 29.27 27.93 0.86
0 15 3 91.59 90.82 1.59
0 16 3 157.07 155.40 2.27
0 17 3 48.73 47.40 1.25
0 18 3 27.90 27.11 1.00
0 19 3 3.17 2.51 0.41
0 20 3 43.62 44.61 1.34
0 21 3 0.85 0.88 0.39
0 22 3 0.62 1.16 0.41
0 23 3 26.64 28.27 1.17
0 24 3 12.21 12.77 0.91
0 25 3 5.76 5.00 0.58
0 0 4 213.40 210.50 3.92
0 1 4 39.03 39.98 1.21
0 2 4 91.02 93.42 2.06
0 3 4 7.73 8.03 0.45
0 4 4 227.31 230.37 2.85
0 5 4 0.30 0.68 0.37
0 6 4 70.67 71.21 1.23
0 7 4 30.00 29.33 0.78
0 8 4 66.10 64.74 1.08
0 9 4 7.08 7.22 0.46
0 10 4 88.86 90.69 1.39
0 11 4 98.42 98.36 1.52
0 12 4 39.86 39.16 0.96
0 13 4 11.21 11.53 0.65
0 14 4 144.34 142.98 2.09
0 15 4 46.23 45.44 1.18
0 16 4 95.23 95.05 1.75
0 17 4 5.29 5.73 0.46
0 18 4 10.23 9.67 0.74
0 19 4 3.87 3.37 0.44
0 20 4 1.65 1.84 0.41
0 21 4 0.48 0.19 0.37
0 22 4 3.57 4.37 0.50
0 23 4 0.03 0.12 0.40
0 24 4 25.89 26.68 1.14
0 25 4 2.22 2.91 0.51
0 1 5 242.74 237.03 4.53
0 2 5 141.98 137.81 2.96
0 3 5 50.11 49.41 1.54
0 4 5 389.98 390.61 4.60
0 5 5 181.89 178.42 2.44
0 6 5 0.66 0.78 0.41
0 7 5 7.16 6.65 0.53
0 8 5 150.05 145.80 2.19
0 9 5 73.59 69.63 1.43
0 10 5 9.33 7.98 0.55
0 11 5 22.23 20.83 0.78
0 12 5 1.32 1.49 0.33
0 13 5 78.34 79.49 1.51
0 14 5 2.81 3.53 0.41
0 15 5 13.43 14.15 0.79
0 16 5 13.89 13.33 0.80
0 17 5 73.94 77.32 1.66
0 18 5 2.75 2.34 0.42
0 19 5 14.30 13.67 0.90
0 20 5 0.16 0.30 0.40
0 21 5 21.25 19.71 1.04
0 22 5 4.80 5.52 0.53
0 23 5 14.10 12.57 0.96
0 24 5 0.31 0.26 0.38
0 0 6 0.74 0.79 0.63
0 1 6 95.63 94.12 2.46
0 2 6 15.41 16.26 1.03
0 3 6 1.03 1.49 0.65
0 4 6 16.94 16.05 1.09
0 5 6 86.72 86.60 1.58
0 6 6 12.20 11.22 0.66
0 7 6 145.37 142.61 2.25
0 8 6 32.10 30.12 0.99
0 9 6 13.06 14.41 0.78
0 10 6 16.14 15.67 0.83
0 11 6 120.12 117.66 1.91
0 12 6 6.49 6.34 0.56
0 13 6 4.33 4.80 0.48
0 14 6 11.05 11.74 0.74
0 15 6 0.03 0.09 0.34
0 16 6 43.55 41.70 1.28
0 17 6 29.11 29.23 1.11
0 18 6 6.92 7.83 0.69
0 19 6 43.33 44.39 1.39
0 20 6 1.34 1.85 0.43
0 21 6 22.33 21.38 1.09
0 22 6 10.32 10.62 0.78
0 23 6 17.03 17.07 1.00
0 1 7 61.82 59.01 2.06
0 2 7 557.35 543.34 9.76
0 3 7 0.00 0.47 0.77
0 4 7 12.06 11.83 1.10
0 5 7 24.38 24.18 1.44
0 6 7 43.24 43.34 1.22
0 7 7 47.77 46.83 1.28
0 8 7 1.55 1.96 0.44
0 9 7 4.47 4.96 0.52
0 10 7 10.38 9.26 0.81
0 11 7 30.33 31.52 1.19
0 12 7 5.13 5.86 0.64
0 13 7 13.12 11.69 0.80
0 14 7 1.03 1.48 0.39
0 16 7 83.87 82.02 1.82
0 17 7 0.47 1.06 0.40
0 18 7 1.46 2.31 0.44
0 19 7 5.15 6.89 0.56
0 20 7 137.31 135.76 2.46
0 21 7 0.41 0.91 0.40
0 0 8 26.18 24.57 1.52
0 1 8 2.94 3.60 0.95
0 2 8 9.73 8.74 1.15
0 3 8 16.52 15.78 1.35
0 4 8 1.87 1.74 0.95
0 6 8 10.23 10.31 0.82
0 7 8 58.08 59.87 1.57
0 8 8 89.94 87.85 1.93
0 9 8 11.29 12.31 0.87
0 10 8 5.40 6.57 0.70
0 11 8 41.21 40.25 1.41
0 12 8 40.16 40.39 1.45
0 13 8 32.72 32.28 1.35
0 14 8 11.14 12.59 0.99
0 15 8 0.08 0.56 0.39
0 16 8 0.57 1.00 0.40
0 17 8 7.23 6.60 0.55
0 18 8 0.28 0.58 0.40
0 19 8 10.23 9.26 0.77
0 20 8 5.64 6.18 0.53
0 1 9 6.66 8.56 1.17
0 2 9 48.35 46.56 2.20
0 3 9 63.29 63.60 2.54
0 4 9 21.08 22.31 1.63
0 5 9 1.34 1.66 0.96
0 6 9 1.39 1.59 0.99
0 7 9 47.57 46.71 1.53
0 8 9 79.49 79.97 1.95
0 9 9 17.16 16.54 1.07
0 10 9 13.94 13.91 1.02
0 11 9 1.77 2.25 0.53
0 12 9 35.69 35.02 1.40
0 13 9 29.16 29.26 1.34
0 14 9 0.70 0.29 0.49
0 15 9 46.35 47.49 1.65
0 16 9 13.38 14.51 1.10
0 17 9 15.25 15.59 0.99
0 18 9 8.41 8.62 0.64
0 0 10 5.19 4.83 1.23
0 1 10 0.00 0.01 1.01
0 2 10 21.32 20.78 1.74
0 3 10 49.37 49.16 2.42
0 4 10 27.81 28.45 1.95
0 5 10 32.82 32.83 2.07
0 6 10 41.02 41.78 2.34
0 7 10 54.05 54.57 2.61
0 8 10 58.24 60.44 1.81
0 9 10 6.79 6.76 0.66
0 10 10 1.25 1.87 0.52
0 11 10 17.46 16.45 1.15
0 12 10 11.95 13.48 0.93
0 13 10 11.46 12.59 1.05
0 14 10 46.29 43.75 1.63
0 15 10 5.01 5.88 0.65
0 1 11 0.62 0.48 1.22
0 2 11 1.96 2.71 1.24
0 3 11 7.64 6.82 1.49
0 4 11 1.19 0.92 1.29
0 5 11 1.53 0.90 1.29
0 6 11 8.87 7.75 1.54
0 7 11 2.44 3.11 1.36
0 8 11 7.78 8.43 1.54
0 9 11 7.80 8.03 0.77
0 10 11 0.78 1.58 0.54
0 11 11 9.24 8.38 0.84
0 12 11 31.40 30.28 1.41
0 0 12 0.04 2.49 9.23
0 1 12 29.01 27.12 2.26
0 2 12 18.99 20.29 1.97
0 3 12 119.03 116.68 3.97
0 4 12 0.33 0.42 1.42
0 5 12 9.31 9.82 1.72
0 6 12 54.18 56.01 2.77
0 7 12 69.08 65.09 3.05
1 1 0 251.78 252.54 2.37
1 2 0 5369.60 5509.65 58.34
1 3 0 58.66 59.35 0.69
1 4 0 1706.77 1685.49 14.83
1 5 0 332.73 339.79 3.30
1 6 0 64.32 62.13 0.80
1 7 0 20.18 19.33 0.44
1 8 0 395.93 403.82 4.02
1 9 0 2.47 3.27 0.34
1 10 0 41.95 43.24 0.80
1 11 0 96.14 97.29 1.36
1 12 0 25.84 27.03 0.71
1 13 0 58.67 57.56 1.09
1 14 0 1.51 0.87 0.44
1 15 0 85.88 86.67 1.48
1 16 0 24.61 24.56 0.85
1 17 0 30.68 29.66 0.96
1 18 0 0.85 0.94 0.39
1 19 0 34.53 33.87 1.10
1 20 0 42.28 40.44 1.25
1 21 0 1.18 1.44 0.43
1 22 0 3.87 4.01 0.47
1 23 0 6.15 7.04 0.61
1 24 0 9.71 9.83 0.79
1 26 0 6.66 7.35 0.64
1 0 1 73.20 77.11 0.84
1 1 1 129.62 134.13 1.36
1 2 1 100.85 104.56 1.11
1 3 1 1077.33 1092.16 9.72
1 4 1 154.34 157.69 1.65
1 5 1 434.90 439.72 4.24
1 6 1 20.93 21.98 0.44
1 7 1 332.10 340.78 3.42
1 8 1 228.35 235.58 2.49
1 9 1 231.77 233.27 2.54
1 10 1 134.02 131.77 1.68
1 11 1 17.38 17.22 0.56
1 12 1 1.18 0.36 0.36
1 13 1 129.99 128.18 1.78
1 14 1 30.54 29.70 0.83
1 15 1 89.29 87.99 1.53
1 16 1 62.14 62.04 1.29
1 17 1 25.47 25.54 0.91
1 18 1 23.34 23.88 0.93
1 19 1 14.61 15.38 0.83
1 20 1 6.48 5.85 0.48
1 21 1 1.44 2.07 0.41
1 22 1 33.37 34.91 1.21
1 23 1 9.50 10.71 0.89
1 24 1 21.78 21.02 1.08
1 25 1 8.69 9.54 0.82
1 26 1 0.77 2.01 0.48
1 0 2 3254.76 3118.58 36.29
1 1 2 68.56 71.97 0.94
1 2 2 561.46 574.88 6.14
1 3 2 192.18 194.93 2.03
1 4 2 1060.75 1068.79 9.67
1 5 2 18.53 18.68 0.41
1 6 2 214.98 220.43 2.32
1 7 2 165.05 162.74 1.83
1 8 2 10.81 10.29 0.44
1 9 2 59.19 62.07 0.99
1 10 2 60.23 59.73 1.00
1 11 2 118.56 118.46 1.60
1 12 2 119.35 115.91 1.63
1 13 2 112.58 110.69 1.64
1 14 2 55.18 54.95 1.14
1 15 2 31.03 31.77 0.93
1 16 2 29.27 27.75 0.95
1 17 2 77.52 76.05 1.53
1 18 2 109.69 110.57 1.93
1 19 2 40.10 41.39 1.21
1 20 2 10.37 9.75 0.71
1 21 2 22.07 22.97 1.02
1 22 2 38.66 36.74 1.28
1 23 2 43.39 43.59 1.43
1 24 2 9.65 10.69 0.80
1 25 2 0.09 0.15 0.43
1 26 2 3.64 4.51 0.56
1 0 3 29.99 32.18 0.93
1 1 3 290.21 303.87 5.25
1 2 3 221.18 225.74 2.65
1 3 3 87.94 92.13 1.28
1 4 3 92.53 96.08 1.34
1 5 3 23.41 23.14 0.53
1 6 3 134.98 138.72 1.64
1 7 3 5.02 5.20 0.38
1 8 3 258.32 258.76 2.82
1 9 3 29.70 29.14 0.71
1 10 3 79.04 80.03 1.25
1 11 3 15.59 16.74 0.60
1 12 3 32.75 32.44 0.84
1 13 3 35.29 33.95 0.91
1 14 3 116.03 115.35 1.79
1 15 3 34.42 33.64 0.99
1 16 3 10.12 9.33 0.62
1 17 3 26.12 25.14 0.95
1 18 3 27.49 26.64 1.01
1 19 3 27.77 27.34 1.06
1 20 3 7.86 7.80 0.66
1 21 3 24.18 23.69 1.05
1 22 3 6.72 7.23 0.61
1 23 3 2.90 2.75 0.46
1 24 3 8.07 8.17 0.64
1 25 3 15.73 17.99 1.16
1 0 4 332.04 329.83 5.86
1 1 4 251.67 261.19 4.75
1 2 4 28.76 28.88 1.05
1 3 4 22.81 23.52 0.64
1 4 4 109.15 110.16 1.58
1 5 4 82.90 84.06 1.35
1 6 4 132.67 130.94 1.88
1 7 4 84.90 84.09 1.23
1 8 4 45.86 45.38 0.89
1 9 4 2.17 2.19 0.39
1 10 4 22.26 22.81 0.71
1 11 4 64.90 62.63 1.18
1 12 4 147.23 141.50 2.00
1 13 4 25.96 27.25 0.86
1 14 4 42.46 39.59 1.07
1 15 4 2.15 2.99 0.40
1 16 4 22.21 23.69 0.91
1 17 4 26.92 28.21 1.02
1 18 4 56.97 58.84 1.47
1 19 4 40.20 40.99 1.26
1 20 4 9.05 9.28 0.80
1 21 4 11.19 10.85 0.79
1 22 4 20.92 21.87 1.05
1 23 4 14.63 15.15 0.96
1 24 4 2.23 2.15 0.44
1 0 5 288.87 285.82 5.33
1 1 5 122.09 122.97 2.72
1 2 5 478.51 465.79 8.16
1 3 5 180.87 177.09 3.65
1 4 5 112.80 108.60 1.69
1 5 5 8.75 8.60 0.53
1 6 5 230.03 230.78 3.02
1 7 5 74.58 73.28 1.39
1 8 5 71.54 69.64 1.38
1 9 5 93.11 90.45 1.47
1 10 5 9.97 9.56 0.58
1 11 5 35.21 36.02 0.96
1 12 5 25.16 25.19 0.87
1 13 5 45.03 44.93 1.16
1 14 5 40.17 40.38 1.12
1 15 5 29.84 29.98 1.03
1 16 5 75.09 78.97 1.64
1 17 5 11.25 11.51 0.80
1 18 5 7.31 6.99 0.65
1 19 5 18.07 18.77 0.98
1 20 5 65.21 64.96 1.65
1 21 5 25.06 25.22 1.12
1 22 5 1.47 1.74 0.43
1 23 5 3.47 4.60 0.50
1 24 5 17.94 17.52 1.00
1 0 6 0.63 0.07 0.63
1 1 6 0.46 0.90 0.62
1 2 6 7.88 7.58 0.84
1 3 6 13.14 12.48 0.99
1 4 6 16.64 16.07 1.09
1 5 6 12.84 13.35 0.67
1 6 6 22.51 21.98 0.82
1 7 6 7.59 7.81 0.62
1 8 6 10.16 9.14 0.68
1 9 6 11.78 11.12 0.77
1 10 6 2.83 2.44 0.44
1 11 6 10.89 9.88 0.68
1 12 6 30.15 29.14 0.96
1 13 6 7.67 7.58 0.61
1 14 6 28.15 28.14 1.01
1 15 6 11.85 11.06 0.82
1 16 6 3.05 3.00 0.43
1 17 6 21.07 21.62 1.01
1 18 6 13.87 13.92 0.90
1 19 6 10.92 11.86 0.87
1 20 6 33.54 31.74 1.25
1 21 6 9.10 9.45 0.78
1 22 6 10.18 8.67 0.76
1 23 6 11.65 12.09 0.89
1 0 7 252.80 249.06 5.17
1 1 7 26.54 26.98 1.45
1 2 7 60.58 61.64 2.13
1 3 7 81.07 81.82 2.50
1 4 7 145.65 141.96 3.53
1 5 7 29.37 30.72 1.05
1 6 7 63.17 62.02 1.48
1 7 7 10.56 9.56 0.77
1 8 7 57.93 56.61 1.46
1 9 7 68.16 67.69 1.62
1 10 7 18.01 18.85 0.96
1 11 7 21.75 21.94 0.91
1 12 7 2.63 1.92 0.46
1 13 7 41.26 42.55 1.26
1 14 7 26.03 24.74 1.05
1 15 7 34.49 32.47 1.18
1 16 7 23.40 25.98 1.08
1 17 7 19.37 20.61 1.02
1 18 7 45.23 43.26 1.39
1 19 7 6.78 6.78 0.62
1 20 7 14.34 15.52 0.99
1 21 7 9.20 9.36 0.67
1 0 8 10.12 10.50 1.21
1 1 8 34.13 35.51 1.80
1 2 8 19.55 19.95 1.44
1 3 8 31.50 32.28 1.72
1 4 8 33.72 32.95 1.76
1 5 8 103.80 102.77 3.12
1 6 8 16.26 15.12 0.93
1 7 8 95.37 91.82 1.97
1 8 8 3.70 3.26 0.49
1 9 8 51.18 51.50 1.53
1 10 8 42.02 39.94 1.39
1 11 8 94.43 96.03 2.13
1 12 8 12.89 11.83 0.98
1 13 8 28.67 28.46 1.27
1 14 8 1.95 1.21 0.51
1 15 8 43.73 46.52 1.39
1 16 8 5.24 5.61 0.52
1 17 8 28.86 26.96 1.18
1 18 8 4.47 5.49 0.52
1 19 8 1.89 2.28 0.44
1 20 8 0.04 0.11 0.39
1 0 9 0.14 0.04 0.93
1 1 9 3.17 2.24 1.00
1 2 9 50.59 51.81 2.28
1 3 9 1.27 1.64 0.99
1 4 9 3.75 3.27 1.14
1 5 9 28.27 28.74 1.84
1 6 9 8.83 10.10 1.31
1 7 9 14.73 15.96 1.02
1 8 9 8.09 8.39 0.74
1 9 9 19.81 19.94 1.12
1 10 9 31.56 29.74 1.32
1 11 9 45.17 46.35 1.59
1 12 9 8.44 8.99 0.83
1 13 9 16.94 16.18 1.14
1 14 9 7.34 7.97 0.83
1 15 9 21.61 22.36 1.25
1 16 9 42.91 43.17 1.59
1 17 9 17.99 18.40 1.05
1 18 9 11.78 11.63 0.90
1 0 10 2.66 3.50 1.18
1 1 10 24.39 25.87 1.88
1 2 10 2.19 1.57 1.13
1 3 10 17.90 20.26 1.72
1 4 10 21.67 21.82 1.83
1 5 10 33.13 32.87 2.10
1 6 10 40.55 41.83 2.32
1 7 10 33.06 31.87 2.12
1 8 10 24.42 24.66 1.26
1 9 10 7.54 7.42 0.82
1 10 10 60.52 56.28 1.81
1 11 10 15.51 16.39 1.15
1 12 10 47.94 45.82 1.65
1 13 10 0.09 0.23 0.51
1 14 10 7.75 6.61 0.67
1 15 10 11.07 10.59 0.89
1 0 11 1.54 0.81 1.29
1 1 11 13.47 12.07 1.62
1 2 11 34.60 34.00 2.28
1 3 11 23.80 23.53 1.96
1 4 11 11.75 11.97 1.63
1 5 11 5.21 6.18 1.45
1 6 11 2.91 3.97 1.36
1 7 11 7.78 8.66 1.59
1 8 11 16.53 15.71 1.18
1 9 11 24.93 23.65 1.32
1 10 11 19.42 18.83 1.23
1 11 11 2.73 3.63 0.60
1 12 11 0.79 1.63 0.53
1 0 12 16.65 17.97 1.93
1 1 12 75.91 76.41 3.20
1 2 12 9.29 8.34 1.75
1 3 12 3.10 3.25 1.56
1 4 12 27.83 29.21 2.23
1 5 12 71.56 68.99 3.13
1 6 12 2.72 2.87 1.53
1 7 12 23.82 22.99 2.09
2 0 0 40.82 42.10 0.54
2 1 0 31.44 31.25 0.44
2 2 0 1700.51 1685.46 14.85
2 3 0 788.96 789.74 7.20
2 4 0 35.48 35.99 0.53
2 5 0 92.49 91.50 1.09
2 6 0 2106.43 2089.52 18.55
2 7 0 293.45 294.92 3.02
2 8 0 0.48 0.77 0.30
2 9 0 237.40 235.89 2.60
2 10 0 251.20 255.37 2.80
2 11 0 2.04 2.42 0.36
2 12 0 45.85 43.57 0.91
2 13 0 168.45 168.64 2.15
2 14 0 12.17 10.98 0.61
2 15 0 72.15 70.23 1.33
2 16 0 39.10 37.14 1.03
2 17 0 36.30 35.82 1.05
2 18 0 43.37 43.88 1.21
2 19 0 36.33 37.91 1.17
2 20 0 1.71 0.93 0.37
2 21 0 8.46 7.76 0.64
2 22 0 15.85 15.18 0.93
2 23 0 10.71 11.21 0.88
2 24 0 32.69 32.52 1.25
2 25 0 3.11 4.14 0.58
2 26 0 1.00 1.08 0.45
2 0 1 1.42 1.64 0.16
2 1 1 78.57 78.32 0.89
2 2 1 276.62 278.52 2.74
2 3 1 517.23 538.60 5.07
2 4 1 152.88 158.44 1.67
2 5 1 421.34 428.49 4.17
2 6 1 22.86 23.01 0.48
2 7 1 96.10 98.37 1.23
2 8 1 3.81 4.86 0.36
2 9 1 276.13 274.29 2.95
2 10 1 9.14 8.74 0.46
2 11 1 5.40 4.77 0.44
2 12 1 41.84 40.86 0.89
2 13 1 82.25 80.14 1.36
2 14 1 44.00 44.91 1.03
2 15 1 22.04 23.85 0.81
2 16 1 3.45 3.58 0.40
2 17 1 11.65 10.12 0.69
2 18 1 10.59 9.99 0.73
2 19 1 29.16 29.36 1.06
2 20 1 69.93 71.95 1.64
2 21 1 27.41 28.99 1.12
2 22 1 23.64 23.43 1.07
2 23 1 2.89 2.57 0.45
2 24 1 37.90 41.31 1.34
2 25 1 22.51 23.09 1.33
2 26 1 29.33 30.60 1.46
2 0 2 4.37 4.21 0.23
2 1 2 300.82 309.87 3.06
2 2 2 1079.11 1088.86 9.86
2 3 2 108.38 107.53 1.26
2 4 2 88.51 89.44 1.10
2 5 2 7.33 8.43 0.35
2 6 2 289.11 293.30 3.02
2 7 2 138.74 140.96 1.67
2 8 2 142.77 144.68 1.76
2 9 2 129.90 128.67 1.63
2 10 2 2.67 2.66 0.37
2 11 2 65.39 64.37 1.12
2 12 2 58.16 57.55 1.09
2 13 2 74.46 73.80 1.31
2 14 2 32.84 33.96 0.91
2 15 2 33.10 31.96 0.94
2 16 2 77.88 73.54 1.47
2 17 2 0.10 0.07 0.34
2 18 2 9.60 10.86 0.74
2 19 2 1.26 1.14 0.36
2 20 2 31.06 31.98 1.13
2 21 2 29.33 30.37 1.17
2 22 2 3.26 3.58 0.47
2 23 2 1.69 2.55 0.45
2 24 2 9.08 8.75 0.77
2 25 2 40.68 40.09 1.67
2 0 3 133.68 132.65 1.54
2 1 3 139.18 140.99 1.59
2 2 3 372.90 385.30 3.82
2 3 3 446.73 450.15 4.45
2 4 3 64.89 66.13 0.94
2 5 3 252.39 250.47 2.68
2 6 3 89.66 91.41 1.23
2 7 3 108.18 109.09 1.42
2 8 3 122.11 120.17 1.55
2 9 3 291.52 290.73 3.20
2 10 3 256.35 258.10 2.94
2 11 3 12.55 12.07 0.58
2 12 3 86.28 84.86 1.42
2 13 3 43.72 44.06 1.04
2 14 3 50.37 48.40 1.14
2 15 3 17.13 17.05 0.80
2 16 3 2.23 2.80 0.40
2 17 3 11.15 12.82 0.75
2 18 3 2.80 2.12 0.39
2 19 3 38.97 39.03 1.22
2 20 3 9.12 9.92 0.67
2 21 3 43.60 43.53 1.38
2 22 3 8.87 7.83 0.72
2 23 3 3.99 5.23 0.57
2 24 3 0.01 0.04 0.40
2 25 3 12.60 13.12 1.07
2 0 4 53.54 57.02 1.54
2 1 4 105.14 107.37 1.55
2 2 4 127.78 131.74 1.83
2 3 4 133.81 133.97 1.86
2 4 4 13.17 13.06 0.57
2 5 4 61.97 60.10 0.99
2 6 4 110.67 108.69 1.46
2 7 4 104.37 102.94 1.44
2 8 4 117.11 117.01 1.60
2 9 4 47.97 48.85 0.98
2 10 4 141.06 138.94 1.89
2 11 4 51.36 50.04 1.07
2 12 4 13.53 12.74 0.66
2 13 4 0.40 0.40 0.33
2 14 4 12.80 11.75 0.71
2 15 4 12.82 12.89 0.75
2 16 4 25.14 25.31 0.92
2 17 4 40.28 38.93 1.19
2 18 4 26.79 25.49 1.05
2 19 4 8.67 8.75 0.71
2 20 4 24.99 26.77 1.10
2 21 4 19.81 20.37 1.05
2 22 4 18.43 16.87 1.04
2 23 4 21.18 23.55 1.07
2 24 4 4.52 3.36 0.47
2 0 5 146.04 145.15 3.12
2 1 5 35.03 34.12 1.31
2 2 5 164.69 162.07 2.25
2 3 5 30.93 31.77 0.85
2 4 5 148.91 149.02 2.13
2 5 5 63.94 64.03 1.25
2 6 5 12.20 12.54 0.64
2 7 5 14.83 14.22 0.71
2 8 5 62.42 63.02 1.17
2 9 5 26.02 26.32 0.81
2 10 5 139.66 139.26 1.98
2 11 5 60.81 60.61 1.27
2 12 5 14.87 14.37 0.74
2 13 5 1.36 2.27 0.37
2 14 5 94.28 92.86 1.72
2 15 5 11.82 12.76 0.77
2 16 5 1.05 1.14 0.36
2 17 5 5.37 5.36 0.48
2 18 5 44.91 44.52 1.37
2 19 5 9.69 11.17 0.84
2 20 5 1.36 1.42 0.42
2 21 5 0.95 0.95 0.41
2 22 5 19.86 21.06 1.05
2 23 5 16.79 16.52 1.02
2 0 6 75.66 76.82 2.21
2 1 6 93.93 94.40 2.52
2 2 6 2.28 2.32 0.72
2 3 6 2.03 2.27 0.58
2 4 6 22.43 22.74 0.83
2 5 6 100.70 99.04 1.76
2 6 6 0.39 0.60 0.48
2 7 6 77.94 77.50 1.57
2 8 6 0.17 0.23 0.52
2 9 6 3.75 4.94 0.48
2 10 6 10.76 12.17 0.69
2 11 6 104.75 104.96 1.80
2 12 6 8.13 7.92 0.55
2 13 6 61.49 62.62 1.42
2 14 6 10.75 11.32 0.75
2 15 6 58.00 57.04 1.44
2 16 6 15.17 15.44 0.90
2 17 6 47.33 47.14 1.37
2 18 6 49.55 49.88 1.46
2 19 6 1.54 2.36 0.44
2 20 6 3.84 3.83 0.48
2 21 6 14.07 13.81 0.96
2 22 6 45.85 45.93 1.43
2 0 7 7.54 7.45 0.99
2 1 7 45.75 44.14 1.82
2 2 7 12.90 12.62 1.13
2 3 7 14.52 14.55 1.20
2 4 7 136.41 130.97 2.68
2 5 7 72.38 71.34 1.58
2 6 7 30.07 29.47 1.06
2 7 7 85.80 84.07 1.79
2 8 7 81.60 82.77 1.78
2 9 7 4.51 5.00 0.53
2 10 7 9.08 9.54 0.80
2 11 7 96.23 98.08 2.07
2 12 7 1.39 2.19 0.39
2 13 7 48.73 49.15 1.37
2 14 7 38.47 40.45 1.26
2 15 7 32.67 32.93 1.20
2 16 7 4.41 4.31 0.48
2 17 7 49.93 51.07 1.48
2 18 7 9.23 9.94 0.77
2 19 7 6.02 7.04 0.64
2 20 7 0.33 0.99 0.41
2 21 7 11.61 10.44 0.80
2 0 8 56.12 54.34 2.21
2 1 8 59.16 59.11 2.31
2 2 8 25.31 23.69 1.59
2 3 8 27.51 29.17 1.69
2 4 8 16.61 16.01 1.39
2 5 8 58.45 56.81 1.53
2 6 8 51.19 47.28 1.45
2 7 8 44.50 42.03 1.37
2 8 8 0.09 0.31 0.41
2 9 8 11.34 11.82 0.80
2 10 8 1.25 1.41 0.49
2 11 8 9.85 8.56 0.78
2 12 8 0.44 0.02 0.44
2 13 8 34.07 31.58 1.37
2 14 8 8.34 10.02 0.82
2 15 8 6.75 7.05 0.70
2 16 8 2.37 3.27 0.47
2 17 8 24.22 23.61 1.14
2 18 8 1.62 1.92 0.44
2 19 8 5.71 6.75 0.55
2 0 9 73.62 76.07 2.78
2 1 9 15.92 17.57 1.51
2 2 9 110.85 109.91 3.45
2 3 9 4.94 5.38 1.11
2 4 9 48.55 49.02 2.31
2 5 9 10.93 11.52 1.39
2 6 9 50.93 50.10 1.58
2 7 9 10.40 10.62 0.93
2 8 9 1.97 3.37 0.54
2 9 9 38.76 38.55 1.44
2 10 9 12.46 14.19 1.03
2 11 9 14.98 15.71 1.08
2 12 9 17.06 17.45 1.13
2 13 9 33.78 35.31 1.47
2 14 9 69.53 72.66 1.99
2 15 9 0.35 1.10 0.52
2 16 9 15.99 15.61 1.01
2 17 9 3.81 4.35 0.53
2 0 10 50.46 49.94 2.46
2 1 10 68.77 67.52 2.84
2 2 10 2.08 2.88 1.18
2 3 10 6.73 6.60 1.34
2 4 10 4.51 4.71 1.26
2 5 10 46.88 46.90 2.42
2 6 10 16.52 17.06 1.67
2 7 10 26.96 26.35 1.33
2 8 10 31.23 30.55 1.40
2 9 10 11.80 12.29 0.92
2 10 10 32.99 33.66 1.46
2 11 10 42.67 44.55 1.59
2 12 10 47.97 48.56 1.69
2 13 10 6.82 7.13 0.68
2 14 10 17.09 17.18 1.16
2 15 10 2.82 2.97 0.57
2 0 11 12.13 12.66 1.68
2 1 11 10.82 9.97 1.60
2 2 11 3.93 3.33 1.37
2 3 11 5.89 7.29 1.46
2 4 11 2.94 2.29 1.42
2 5 11 1.34 0.71 1.31
2 6 11 13.89 13.71 1.68
2 7 11 1.01 0.52 1.31
2 8 11 6.08 5.69 0.66
2 9 11 0.22 0.31 0.51
2 10 11 5.67 6.33 0.79
2 11 11 3.52 4.61 0.62
2 0 12 46.91 46.90 2.66
2 1 12 22.06 20.67 2.10
2 2 12 6.90 6.25 1.63
2 3 12 39.68 42.82 2.54
2 4 12 10.81 11.24 1.79
2 5 12 2.03 2.27 1.53
2 6 12 30.59 29.48 2.22
3 1 0 29.33 31.14 0.51
3 3 0 67.30 69.46 0.89
3 4 0 404.20 415.14 4.05
3 5 0 208.71 209.39 2.23
3 6 0 38.28 39.58 0.70
3 7 0 243.32 244.01 2.62
3 8 0 79.36 81.07 1.16
3 9 0 111.67 108.18 1.44
3 10 0 30.26 30.15 0.73
3 11 0 256.78 252.36 2.88
3 12 0 9.85 8.22 0.53
3 13 0 3.02 2.75 0.45
3 14 0 2.76 3.77 0.49
3 15 0 23.44 24.13 0.85
3 16 0 45.00 43.09 1.14
3 17 0 41.65 42.46 1.17
3 18 0 1.67 2.14 0.37
3 19 0 2.75 2.95 0.41
3 20 0 26.00 28.04 1.08
3 21 0 30.04 30.49 1.15
3 22 0 3.90 4.10 0.48
3 23 0 0.04 0.06 0.40
3 24 0 9.18 8.09 0.66
3 25 0 28.27 29.69 1.43
3 0 1 174.02 176.34 1.87
3 1 1 355.82 370.41 3.66
3 2 1 56.71 59.20 0.79
3 3 1 427.45 435.97 4.26
3 4 1 82.29 82.20 1.05
3 5 1 24.73 24.39 0.53
3 6 1 66.27 69.22 0.99
3 7 1 161.19 159.82 1.86
3 8 1 42.81 42.87 0.80
3 9 1 396.38 383.57 4.03
3 10 1 37.46 37.05 0.82
3 11 1 55.69 53.79 1.04
3 12 1 56.59 54.62 1.09
3 13 1 90.57 89.90 1.52
3 14 1 27.80 27.17 0.86
3 15 1 1.55 1.99 0.37
3 16 1 38.37 39.53 1.10
3 17 1 31.21 30.30 1.01
3 18 1 52.60 51.28 1.33
3 19 1 18.92 19.80 0.93
3 20 1 3.86 3.71 0.46
3 21 1 63.83 67.93 1.64
3 22 1 65.06 62.22 1.64
3 23 1 15.24 15.53 0.96
3 24 1 27.55 29.94 1.21
3 25 1 6.43 7.83 0.77
3 0 2 0.13 0.10 0.23
3 1 2 183.22 180.41 1.97
3 2 2 267.32 272.85 2.80
3 3 2 265.71 267.84 2.78
3 4 2 55.20 55.28 0.86
3 5 2 317.18 316.10 3.27
3 6 2 637.56 640.49 6.28
3 7 2 6.20 7.33 0.42
3 8 2 90.41 89.33 1.27
3 9 2 63.38 62.47 1.06
3 10 2 258.63 254.87 2.89
3 11 2 36.96 34.74 0.85
3 12 2 109.25 106.84 1.63
3 13 2 26.58 26.31 0.82
3 14 2 6.75 6.67 0.59
3 15 2 12.87 12.95 0.72
3 16 2 35.71 36.85 1.06
3 17 2 28.54 28.64 1.00
3 18 2 8.89 9.08 0.72
3 19 2 6.53 5.55 0.55
3 20 2 11.66 11.61 0.84
3 21 2 0.74 0.59 0.39
3 22 2 2.83 2.82 0.46
3 23 2 10.18 9.85 0.87
3 24 2 26.61 27.67 1.18
3 25 2 4.42 4.56 0.56
3 0 3 176.41 184.09 2.06
3 1 3 253.11 252.39 2.68
3 2 3 16.31 17.46 0.51
3 3 3 169.41 167.84 1.93
3 4 3 12.22 12.66 0.48
3 5 3 209.40 214.84 2.39
3 6 3 3.29 3.40 0.38
3 7 3 257.90 255.30 2.84
3 8 3 42.79 43.23 0.88
3 9 3 25.69 26.26 0.73
3 10 3 11.96 11.60 0.57
3 11 3 77.78 76.19 1.32
3 12 3 41.56 40.31 0.98
3 13 3 11.17 12.46 0.67
3 14 3 9.57 9.10 0.60
3 15 3 12.66 12.08 0.73
3 16 3 1.71 2.06 0.39
3 17 3 8.76 8.21 0.64
3 18 3 0.34 0.20 0.34
3 19 3 9.75 10.33 0.82
3 20 3 6.92 6.14 0.52
3 21 3 1.87 1.62 0.41
3 22 3 6.53 6.42 0.55
3 23 3 40.19 39.96 1.38
3 24 3 7.04 8.53 0.73
3 0 4 11.13 11.63 0.47
3 1 4 114.90 113.75 1.48
3 2 4 30.32 31.07 0.70
3 3 4 81.40 80.40 1.18
3 4 4 24.71 25.09 0.65
3 5 4 276.60 271.55 3.00
3 6 4 82.91 80.28 1.25
3 7 4 58.57 59.75 1.07
3 8 4 54.10 54.09 1.05
3 9 4 67.04 67.63 1.22
3 10 4 22.07 21.07 0.73
3 11 4 30.81 29.12 0.88
3 12 4 29.61 30.08 0.91
3 13 4 105.59 105.06 1.75
3 14 4 10.00 10.08 0.68
3 15 4 38.15 37.72 1.12
3 16 4 16.30 17.34 0.85
3 17 4 32.43 32.30 1.12
3 18 4 24.07 25.57 1.06
3 19 4 17.58 16.94 0.94
3 20 4 20.71 20.92 1.01
3 21 4 24.04 25.83 1.12
3 22 4 7.00 7.00 0.62
3 23 4 9.94 10.09 0.87
3 24 4 0.98 1.10 0.41
3 0 5 52.41 50.13 0.98
3 1 5 44.99 44.88 0.92
3 2 5 37.31 35.60 0.84
3 3 5 71.93 73.52 1.22
3 4 5 71.63 71.91 1.22
3 5 5 72.97 72.66 1.25
3 6 5 43.07 44.16 0.96
3 7 5 124.43 123.03 1.77
3 8 5 194.18 187.85 2.40
3 9 5 1.65 1.82 0.47
3 10 5 136.69 134.03 1.99
3 11 5 5.74 7.32 0.53
3 12 5 126.51 123.94 1.97
3 13 5 9.96 10.31 0.72
3 14 5 68.59 64.17 1.47
3 15 5 44.17 44.39 1.26
3 16 5 9.71 10.05 0.78
3 17 5 2.80 3.15 0.44
3 18 5 5.50 6.43 0.53
3 19 5 12.35 10.64 0.78
3 20 5 1.86 2.84 0.46
3 21 5 3.31 3.59 0.48
3 22 5 15.49 15.18 1.00
3 23 5 2.94 3.79 0.48
3 1 6 3.76 3.80 0.51
3 2 6 42.34 41.86 1.10
3 3 6 4.71 4.84 0.56
3 4 6 10.36 9.59 0.68
3 5 6 21.54 21.10 0.86
3 6 6 19.82 18.70 0.86
3 7 6 40.21 39.49 1.15
3 8 6 19.73 18.84 0.80
3 9 6 31.89 32.53 0.98
3 10 6 23.91 24.08 0.89
3 11 6 69.46 68.12 1.45
3 12 6 2.82 3.62 0.43
3 13 6 58.15 56.73 1.41
3 14 6 24.44 25.83 1.02
3 15 6 6.99 7.21 0.58
3 16 6 41.39 41.85 1.31
3 17 6 24.07 24.06 1.07
3 18 6 10.50 10.21 0.77
3 19 6 21.26 21.89 1.09
3 20 6 61.40 63.69 1.66
3 21 6 5.16 5.80 0.53
3 22 6 5.85 5.17 0.51
3 0 7 6.11 5.94 1.01
3 1 7 0.48 0.85 0.84
3 2 7 155.24 151.95 3.75
3 3 7 30.93 29.11 1.08
3 4 7 10.74 9.67 0.79
3 5 7 33.58 32.20 1.13
3 6 7 12.67 12.06 0.85
3 7 7 35.76 36.14 1.21
3 8 7 13.04 11.19 0.86
3 9 7 107.31 109.33 2.14
3 10 7 50.51 50.83 1.32
3 11 7 6.21 6.19 0.48
3 12 7 2.53 2.40 0.40
3 13 7 38.01 38.25 1.23
3 14 7 49.26 49.25 1.39
3 15 7 37.31 37.34 1.27
3 16 7 2.90 2.79 0.45
3 17 7 3.11 2.85 0.46
3 18 7 7.60 7.86 0.64
3 19 7 21.40 20.92 1.09
3 20 7 10.16 9.21 0.75
3 21 7 5.08 5.22 0.51
3 0 8 1.82 2.14 1.01
3 1 8 115.04 114.25 3.33
3 2 8 58.40 59.72 2.36
3 3 8 45.49 46.03 2.10
3 4 8 40.16 39.15 1.31
3 5 8 39.65 38.72 1.31
3 6 8 26.73 26.31 1.13
3 7 8 29.89 30.38 1.21
3 8 8 34.64 33.53 1.29
3 9 8 22.73 22.26 1.12
3 10 8 5.39 4.42 0.57
3 11 8 100.16 100.36 2.23
3 12 8 16.92 17.34 1.07
3 13 8 7.32 6.34 0.59
3 14 8 4.43 4.60 0.50
3 15 8 17.91 18.09 0.99
3 16 8 17.45 15.42 0.99
3 17 8 10.49 11.26 0.90
3 18 8 8.97 8.35 0.65
3 19 8 21.64 23.18 1.11
3 0 9 70.95 69.29 2.72
3 1 9 11.79 11.99 1.41
3 2 9 20.11 19.47 1.62
3 3 9 13.38 14.01 1.50
3 4 9 100.93 102.37 3.38
3 5 9 0.06 0.14 0.47
3 6 9 8.15 8.12 0.66
3 7 9 8.39 9.06 0.75
3 8 9 45.11 43.43 1.54
3 9 9 6.48 6.33 0.64
3 10 9 28.16 28.07 1.30
3 11 9 3.96 4.27 0.60
3 12 9 4.17 4.96 0.62
3 13 9 1.64 1.55 0.53
3 14 9 28.72 31.28 1.37
3 15 9 6.70 6.44 0.61
3 16 9 9.82 9.06 0.66
3 17 9 21.83 21.88 1.09
3 0 10 0.99 0.86 1.17
3 1 10 54.52 57.62 2.62
3 2 10 27.38 27.88 2.01
3 3 10 79.98 82.81 3.19
3 4 10 12.55 11.99 1.59
3 5 10 6.62 7.18 1.42
3 6 10 22.91 23.43 1.25
3 7 10 10.33 11.75 0.89
3 8 10 7.73 7.28 0.68
3 9 10 34.05 33.52 1.46
3 10 10 7.66 7.63 0.84
3 11 10 4.93 4.60 0.61
3 12 10 0.77 1.13 0.51
3 13 10 20.38 19.14 1.22
3 14 10 17.30 17.04 1.13
3 0 11 1.69 1.25 1.34
3 1 11 10.68 11.02 1.68
3 2 11 14.50 15.21 1.74
3 3 11 33.88 34.99 2.29
3 4 11 16.43 17.01 1.88
3 5 11 15.41 15.72 1.76
3 6 11 12.19 12.19 1.71
3 7 11 22.06 22.65 1.29
3 8 11 5.94 6.55 0.80
3 9 11 10.95 10.80 0.84
3 10 11 8.62 9.02 0.87
3 11 11 10.61 9.44 2.96
3 0 12 6.95 5.54 1.67
3 1 12 6.54 7.34 1.68
3 2 12 3.20 3.28 1.54
3 3 12 1.63 0.78 1.54
3 4 12 0.80 1.01 1.47
4 0 0 387.81 394.18 3.91
4 1 0 388.38 388.29 3.90
4 2 0 41.44 40.46 0.71
4 3 0 2.23 1.76 0.31
4 4 0 36.79 37.16 0.71
4 5 0 16.81 15.49 0.51
4 6 0 131.30 132.28 1.64
4 7 0 89.83 88.50 1.27
4 8 0 138.80 133.06 1.71
4 9 0 132.61 130.82 1.73
4 10 0 70.01 69.43 1.20
4 11 0 13.11 12.72 0.62
4 12 0 247.00 241.52 2.98
4 13 0 67.55 69.53 1.32
4 14 0 3.32 2.83 0.37
4 15 0 12.52 12.70 0.72
4 16 0 90.06 90.95 1.70
4 17 0 1.00 1.19 0.35
4 18 0 2.07 2.05 0.39
4 19 0 8.83 7.28 0.66
4 20 0 0.45 0.28 0.37
4 21 0 7.19 8.03 0.63
4 22 0 0.01 0.04 0.41
4 23 0 4.21 4.81 0.51
4 24 0 21.57 21.94 1.09
4 0 1 1.61 1.47 0.29
4 1 1 145.90 149.27 1.71
4 2 1 33.69 34.78 0.66
4 3 1 151.06 151.34 1.75
4 4 1 13.85 12.19 0.46
4 5 1 61.38 60.30 0.95
4 6 1 43.08 43.69 0.83
4 7 1 253.50 246.56 2.74
4 8 1 43.91 43.16 0.87
4 9 1 3.97 4.27 0.41
4 10 1 35.06 34.39 0.83
4 11 1 273.88 267.61 3.11
4 12 1 68.15 68.07 1.28
4 13 1 45.53 43.15 1.06
4 14 1 45.85 46.37 1.13
4 15 1 46.26 45.22 1.17
4 16 1 53.86 52.70 1.29
4 17 1 17.68 17.12 0.87
4 18 1 31.56 31.15 1.08
4 19 1 40.68 42.81 1.28
4 20 1 31.83 32.83 1.18
4 21 1 7.98 7.76 0.70
4 22 1 17.53 14.35 0.97
4 23 1 2.40 2.20 0.46
4 24 1 19.50 19.70 1.05
4 25 1 4.89 5.25 0.58
4 0 2 11.07 10.78 0.45
4 1 2 264.79 265.47 2.84
4 2 2 10.81 9.73 0.45
4 3 2 75.38 75.48 1.09
4 4 2 196.16 200.87 2.25
4 5 2 140.06 136.40 1.71
4 6 2 31.69 32.48 0.73
4 7 2 185.02 177.86 2.15
4 8 2 163.36 162.18 2.02
4 9 2 5.11 5.66 0.45
4 10 2 40.82 41.41 0.93
4 11 2 18.92 18.78 0.69
4 12 2 46.97 46.52 1.06
4 13 2 0.03 0.13 0.31
4 14 2 13.95 14.48 0.74
4 15 2 15.38 15.12 0.78
4 16 2 18.12 16.62 0.84
4 17 2 20.56 19.45 0.91
4 18 2 6.13 6.14 0.55
4 19 2 10.78 11.25 0.83
4 20 2 7.57 8.48 0.62
4 21 2 8.01 9.56 0.83
4 22 2 8.61 9.76 0.67
4 23 2 18.19 17.81 1.04
4 24 2 1.74 1.63 0.42
4 0 3 4.71 4.71 0.39
4 1 3 228.88 225.59 2.49
4 2 3 40.93 38.60 0.78
4 3 3 473.36 465.93 4.71
4 4 3 97.92 95.52 1.34
4 5 3 112.67 108.93 1.49
4 6 3 5.13 5.45 0.43
4 7 3 61.01 60.73 1.09
4 8 3 89.99 87.51 1.39
4 9 3 31.59 32.12 0.84
4 10 3 17.67 17.00 0.68
4 11 3 30.54 29.83 0.87
4 12 3 42.37 42.25 1.06
4 13 3 12.65 12.37 0.71
4 14 3 24.05 22.61 0.89
4 15 3 74.81 73.99 1.53
4 16 3 27.41 27.47 1.02
4 17 3 1.55 0.96 0.36
4 18 3 20.58 21.71 1.00
4 19 3 32.78 35.20 1.21
4 20 3 13.03 13.26 0.88
4 21 3 33.91 33.92 1.26
4 22 3 27.06 25.56 1.17
4 23 3 1.05 1.00 0.41
4 24 3 15.14 14.01 0.97
4 0 4 76.34 77.64 1.20
4 1 4 126.28 124.58 1.64
4 2 4 35.01 34.27 0.79
4 3 4 98.70 97.17 1.41
4 4 4 34.30 35.27 0.82
4 5 4 87.74 87.71 1.36
4 6 4 56.21 56.33 1.08
4 7 4 44.57 43.16 0.96
4 8 4 8.33 8.96 0.54
4 9 4 2.28 1.45 0.46
4 10 4 34.93 36.26 0.96
4 11 4 23.27 24.67 0.85
4 12 4 70.06 69.31 1.40
4 13 4 26.01 26.21 0.93
4 14 4 8.59 9.24 0.64
4 15 4 43.28 40.23 1.20
4 16 4 54.81 54.18 1.40
4 17 4 61.53 59.84 1.53
4 18 4 1.90 1.59 0.41
4 19 4 9.08 8.54 0.64
4 20 4 22.73 22.63 1.10
4 21 4 19.03 20.21 1.05
4 22 4 1.92 2.10 0.47
4 23 4 63.71 64.27 1.66
4 0 5 28.64 28.06 0.78
4 1 5 22.50 23.13 0.72
4 2 5 6.09 6.23 0.49
4 3 5 168.84 164.63 2.12
4 4 5 28.77 28.73 0.80
4 5 5 85.18 85.07 1.42
4 6 5 13.47 13.85 0.63
4 7 5 35.12 35.38 0.95
4 8 5 47.25 48.45 1.10
4 9 5 47.17 45.14 1.12
4 10 5 24.65 27.29 0.89
4 11 5 9.07 9.93 0.67
4 12 5 19.74 19.42 0.88
4 13 5 6.33 6.76 0.60
4 14 5 8.80 8.55 0.64
4 15 5 2.15 1.97 0.40
4 16 5 20.70 21.30 0.99
4 17 5 9.54 10.41 0.80
4 18 5 1.82 2.32 0.44
4 19 5 5.56 5.48 0.52
4 20 5 28.88 29.19 1.20
4 21 5 1.53 2.24 0.44
4 22 5 1.04 1.09 0.41
4 0 6 0.48 0.29 0.44
4 1 6 90.25 88.89 1.51
4 2 6 14.21 15.39 0.69
4 3 6 27.13 25.86 0.85
4 4 6 12.47 11.92 0.67
4 5 6 140.82 138.71 2.03
4 6 6 41.91 41.49 1.08
4 7 6 43.04 40.61 1.09
4 8 6 57.30 54.49 1.28
4 9 6 141.32 136.41 2.13
4 10 6 28.36 26.55 0.98
4 11 6 35.37 36.72 1.10
4 12 6 62.13 63.51 1.48
4 13 6 49.70 49.56 1.33
4 14 6 12.78 12.56 0.83
4 15 6 54.31 54.93 1.47
4 16 6 17.01 18.37 0.98
4 17 6 41.45 42.57 1.36
4 18 6 25.94 26.73 1.14
4 19 6 36.71 37.26 1.31
4 20 6 1.10 1.87 0.44
4 21 6 23.36 22.61 1.11
4 0 7 141.01 139.00 2.11
4 1 7 10.75 9.48 0.72
4 2 7 13.50 12.90 0.84
4 3 7 11.79 12.18 0.82
4 4 7 65.81 65.57 1.59
4 5 7 15.66 16.49 0.91
4 6 7 20.15 20.25 0.87
4 7 7 27.52 26.30 0.97
4 8 7 53.93 51.92 1.32
4 9 7 6.51 6.27 0.60
4 10 7 43.11 44.16 1.25
4 11 7 51.84 52.40 1.39
4 12 7 37.35 40.25 1.25
4 13 7 10.68 10.58 0.74
4 14 7 31.04 30.78 1.18
4 15 7 1.44 2.14 0.43
4 16 7 2.92 3.39 0.47
4 17 7 9.98 9.46 0.78
4 18 7 6.22 5.74 0.53
4 19 7 14.30 13.00 0.91
4 20 7 1.37 1.96 0.44
4 0 8 42.38 44.56 2.10
4 1 8 19.55 19.75 1.25
4 2 8 13.91 13.81 0.91
4 3 8 12.26 11.88 0.90
4 4 8 28.37 29.36 1.19
4 5 8 4.31 4.44 0.54
4 6 8 9.86 9.09 0.77
4 7 8 34.30 32.78 1.31
4 8 8 3.97 3.76 0.55
4 9 8 92.72 89.66 2.13
4 10 8 19.62 19.28 0.99
4 11 8 9.82 8.90 0.74
4 12 8 0.33 0.85 0.40
4 13 8 53.87 52.87 1.52
4 14 8 34.54 34.32 1.27
4 15 8 1.90 2.25 0.45
4 16 8 11.05 9.87 0.79
4 17 8 0.02 0.06 0.39
4 18 8 16.18 16.36 0.99
4 0 9 19.04 19.36 1.66
4 1 9 12.67 13.80 1.50
4 2 9 12.66 13.38 1.47
4 3 9 23.64 24.33 1.21
4 4 9 56.48 59.69 1.72
4 5 9 14.08 13.98 1.01
4 6 9 38.39 36.42 1.46
4 7 9 4.98 5.64 0.63
4 8 9 83.08 85.77 2.13
4 9 9 15.72 17.14 1.11
4 10 9 18.10 20.04 1.16
4 11 9 0.14 0.35 0.52
4 12 9 23.87 23.97 1.30
4 13 9 8.97 9.36 0.77
4 14 9 10.05 11.85 0.90
4 15 9 27.57 26.71 1.16
4 16 9 1.41 2.47 0.45
4 1 10 81.23 83.56 3.25
4 2 10 14.32 14.29 1.65
4 3 10 3.96 3.12 1.29
4 4 10 30.75 30.45 1.37
4 5 10 60.62 58.13 1.83
4 6 10 28.60 28.31 1.37
4 7 10 16.62 15.69 1.12
4 8 10 14.33 15.60 1.12
4 9 10 1.43 0.78 0.52
4 10 10 14.61 15.18 1.12
4 11 10 6.58 7.11 0.68
4 12 10 1.43 1.63 0.54
4 13 10 9.73 8.74 0.72
4 0 11 28.78 28.06 2.15
4 1 11 1.78 1.63 1.34
4 2 11 3.15 3.20 1.36
4 3 11 9.80 9.08 1.58
4 4 11 34.46 33.23 2.27
4 5 11 12.91 13.22 1.36
4 6 11 0.37 0.50 0.52
4 7 11 5.59 6.80 0.68
4 8 11 22.19 20.72 1.28
4 9 11 8.65 9.91 0.87
5 1 0 41.41 40.41 0.78
5 2 0 43.96 43.91 0.84
5 3 0 239.13 232.45 2.59
5 4 0 64.59 61.39 1.03
5 5 0 73.35 73.52 1.15
5 6 0 0.04 0.10 0.33
5 7 0 12.37 11.86 0.55
5 8 0 16.48 16.45 0.62
5 9 0 26.59 25.73 0.75
5 10 0 38.34 38.80 0.94
5 11 0 35.98 37.14 0.96
5 12 0 1.51 1.63 0.48
5 13 0 12.52 12.30 0.71
5 14 0 52.53 52.96 1.26
5 15 0 16.06 15.50 0.83
5 16 0 4.73 4.61 0.44
5 17 0 11.59 10.57 0.70
5 18 0 6.27 6.33 0.64
5 19 0 0.00 0.14 0.37
5 20 0 0.13 0.44 0.38
5 21 0 1.09 0.93 0.40
5 22 0 8.61 7.99 0.64
5 24 0 3.26 2.07 0.44
5 0 1 5.71 6.00 0.41
5 1 1 136.49 134.52 1.67
5 2 1 93.15 91.51 1.29
5 3 1 392.69 383.99 3.93
5 4 1 5.05 5.33 0.41
5 5 1 38.24 35.91 0.78
5 6 1 74.53 71.57 1.17
5 7 1 158.26 155.35 1.97
5 8 1 2.53 3.22 0.42
5 9 1 59.85 58.76 1.13
5 10 1 12.62 12.81 0.62
5 11 1 67.49 68.89 1.29
5 12 1 22.17 21.90 0.82
5 13 1 21.72 19.13 0.84
5 14 1 16.03 16.30 0.79
5 15 1 219.28 219.44 2.94
5 16 1 60.14 61.83 1.45
5 17 1 4.29 4.29 0.45
5 18 1 8.31 7.76 0.69
5 19 1 53.11 54.02 1.50
5 20 1 51.30 52.09 1.47
5 21 1 3.84 3.54 0.48
5 22 1 0.72 0.91 0.41
5 23 1 1.65 1.90 0.44
5 24 1 13.50 14.75 0.95
5 0 2 334.18 333.11 3.53
5 1 2 175.52 170.57 2.07
5 2 2 0.50 0.57 0.34
5 3 2 258.02 254.09 2.86
5 4 2 88.08 86.39 1.31
5 5 2 43.58 42.91 0.89
5 6 2 7.28 6.64 0.46
5 7 2 14.42 13.02 0.58
5 8 2 29.78 29.37 0.80
5 9 2 38.56 37.72 0.93
5 10 2 0.59 1.41 0.44
5 11 2 16.62 16.39 0.73
5 12 2 128.28 125.32 1.94
5 13 2 0.44 0.48 0.34
5 14 2 7.16 7.61 0.67
5 15 2 3.43 3.10 0.40
5 16 2 59.92 61.05 1.47
5 17 2 14.89 14.83 0.87
5 18 2 11.07 11.65 0.82
5 19 2 30.52 30.59 1.15
5 20 2 2.09 2.18 0.44
5 21 2 41.39 39.38 1.34
5 22 2 1.00 1.79 0.44
5 23 2 5.95 5.40 0.58
5 24 2 6.49 7.42 0.91
5 0 3 31.99 31.34 0.77
5 1 3 202.71 200.18 2.38
5 2 3 24.20 24.66 0.69
5 3 3 9.92 9.64 0.52
5 4 3 1.46 1.37 0.39
5 5 3 69.19 69.18 1.20
5 6 3 34.33 35.06 0.86
5 7 3 66.10 64.58 1.20
5 8 3 18.20 18.74 0.69
5 9 3 8.95 9.14 0.60
5 10 3 45.57 43.60 1.07
5 11 3 27.85 26.11 0.89
5 12 3 28.71 27.68 0.94
5 13 3 18.98 19.29 0.85
5 14 3 47.33 47.44 1.23
5 15 3 3.28 3.75 0.42
5 16 3 51.44 51.28 1.39
5 17 3 23.57 23.93 1.02
5 18 3 24.05 24.15 1.07
5 19 3 3.83 4.46 0.50
5 20 3 55.35 57.01 1.58
5 21 3 8.04 8.33 0.66
5 22 3 4.37 4.84 0.51
5 23 3 9.11 8.73 0.64
5 0 4 0.08 0.29 0.37
5 1 4 72.94 70.45 1.22
5 2 4 43.31 44.00 0.95
5 3 4 30.61 28.53 0.81
5 4 4 16.61 17.41 0.67
5 5 4 7.33 6.30 0.51
5 6 4 28.57 28.61 0.84
5 7 4 30.40 30.34 0.88
5 8 4 90.60 90.15 1.54
5 9 4 1.91 2.69 0.38
5 10 4 117.46 112.84 1.85
5 11 4 35.35 34.89 1.04
5 12 4 84.74 86.37 1.64
5 13 4 3.58 4.43 0.42
5 14 4 82.91 86.78 1.74
5 15 4 19.79 20.85 0.98
5 16 4 20.57 22.37 1.00
5 17 4 9.14 8.32 0.69
5 18 4 24.23 25.72 1.10
5 19 4 74.50 76.33 1.81
5 20 4 0.44 0.06 0.39
5 21 4 43.18 44.52 1.42
5 22 4 13.32 11.83 0.95
5 0 5 7.99 7.12 0.56
5 1 5 193.31 187.57 2.40
5 2 5 32.90 32.07 0.89
5 3 5 15.76 16.21 0.68
5 4 5 74.06 73.49 1.37
5 5 5 60.99 59.99 1.26
5 6 5 19.11 18.76 0.79
5 7 5 35.19 34.76 0.98
5 8 5 52.96 50.61 1.21
5 9 5 11.94 11.00 0.71
5 10 5 19.82 19.09 0.84
5 11 5 20.11 20.56 0.90
5 12 5 0.42 0.98 0.35
5 13 5 18.21 17.90 0.91
5 14 5 41.45 42.60 1.25
5 15 5 1.38 1.33 0.40
5 16 5 18.19 18.87 0.95
5 17 5 3.04 3.71 0.47
5 18 5 28.97 29.76 1.18
5 19 5 2.83 3.17 0.48
5 20 5 12.68 12.02 0.94
5 21 5 9.89 8.88 0.67
5 0 6 49.24 47.71 1.16
5 1 6 47.37 45.79 1.12
5 2 6 12.23 11.17 0.70
5 3 6 55.73 54.35 1.24
5 4 6 53.14 50.13 1.21
5 5 6 82.79 80.85 1.56
5 6 6 12.81 13.53 0.74
5 7 6 106.48 105.49 1.84
5 8 6 22.79 22.13 0.91
5 9 6 21.29 21.22 0.89
5 10 6 68.22 69.50 1.53
5 11 6 78.84 80.68 1.69
5 12 6 0.46 0.52 0.36
5 13 6 66.94 67.77 1.61
5 14 6 54.97 54.33 1.47
5 15 6 13.54 15.39 0.91
5 16 6 4.98 5.37 0.52
5 17 6 53.50 53.20 1.54
5 18 6 7.88 7.30 0.64
5 19 6 5.16 5.27 0.52
5 20 6 0.01 0.01 0.39
5 0 7 1.12 1.50 0.37
5 1 7 30.04 30.13 1.00
5 2 7 17.19 16.85 0.85
5 3 7 4.15 4.05 0.44
5 4 7 111.60 108.37 1.90
5 5 7 10.21 10.43 0.68
5 6 7 19.76 21.17 0.91
5 7 7 9.22 9.79 0.75
5 8 7 101.70 100.93 1.91
5 9 7 10.30 11.49 0.77
5 10 7 2.14 2.03 0.41
5 11 7 4.48 4.30 0.47
5 12 7 14.04 13.36 0.80
5 13 7 13.67 16.34 0.93
5 14 7 5.51 6.45 0.54
5 15 7 17.98 18.44 1.01
5 16 7 8.50 7.92 0.74
5 17 7 4.12 4.95 0.52
5 18 7 2.47 2.96 0.47
5 0 8 37.65 36.90 1.18
5 1 8 48.07 48.12 1.32
5 2 8 3.09 3.27 0.43
5 3 8 0.46 0.69 0.36
5 4 8 20.48 19.65 0.97
5 5 8 143.19 141.27 2.35
5 6 8 0.54 1.19 0.80
5 7 8 5.11 5.30 0.50
5 8 8 2.55 2.97 0.45
5 9 8 24.49 24.33 1.06
5 10 8 2.06 2.08 0.43
5 11 8 11.16 12.81 0.89
5 12 8 8.66 8.14 0.64
5 13 8 32.35 32.71 1.27
5 14 8 8.57 8.21 0.66
5 15 8 8.29 8.88 0.66
5 16 8 10.84 12.03 0.90
5 17 8 58.53 59.35 1.60
5 0 9 0.11 0.69 0.80
5 1 9 30.96 30.29 1.15
5 2 9 35.52 35.75 1.43
5 3 9 6.73 5.54 0.62
5 4 9 5.13 6.26 0.64
5 5 9 15.42 14.29 1.07
5 6 9 27.52 27.47 1.29
5 7 9 9.36 9.60 0.84
5 8 9 0.66 1.11 0.51
5 9 9 0.67 1.33 0.41
5 10 9 20.95 21.49 1.08
5 11 9 15.23 15.64 0.99
5 12 9 0.89 1.72 0.43
5 13 9 8.54 8.84 0.66
5 14 9 6.65 6.84 0.55
5 15 9 1.99 2.64 0.46
5 0 10 75.88 75.56 3.15
5 1 10 5.25 5.25 0.90
5 2 10 2.52 2.86 0.57
5 3 10 50.49 51.50 1.73
5 4 10 24.77 24.77 1.29
5 5 10 31.58 30.23 1.46
5 6 10 5.83 6.66 0.68
5 7 10 18.07 17.97 1.18
5 8 10 6.15 7.03 0.68
5 9 10 33.65 32.95 1.43
5 10 10 0.62 0.87 0.53
5 11 10 1.17 2.04 0.54
5 12 10 5.36 5.92 0.53
5 0 11 5.31 3.76 1.53
5 1 11 24.63 23.99 2.02
5 2 11 11.41 12.37 1.63
5 3 11 17.61 16.48 1.18
5 4 11 12.16 11.07 0.91
5 5 11 0.06 0.06 0.52
5 6 11 39.07 40.03 1.54
5 7 11 2.01 2.44 0.57
6 0 0 137.91 135.02 1.77
6 1 0 66.55 66.59 1.13
6 2 0 4.72 4.86 0.44
6 3 0 33.00 31.80 0.80
6 4 0 9.14 9.97 0.52
6 5 0 80.11 76.78 1.29
6 6 0 70.99 70.82 1.25
6 7 0 88.12 84.71 1.42
6 8 0 60.42 59.19 1.18
6 9 0 0.07 0.23 0.44
6 10 0 90.94 88.29 1.57
6 11 0 0.08 0.26 0.32
6 12 0 64.98 64.32 1.37
6 13 0 21.05 21.54 0.90
6 14 0 9.03 9.28 0.64
6 15 0 26.92 28.57 1.02
6 16 0 6.81 7.32 0.64
6 17 0 8.22 8.97 0.69
6 18 0 22.39 21.30 1.04
6 19 0 5.93 7.00 0.69
6 21 0 2.52 2.28 0.45
6 22 0 24.17 23.64 1.10
6 23 0 0.13 0.68 0.40
6 0 1 41.18 39.70 0.88
6 1 1 121.62 119.00 1.64
6 2 1 87.33 86.00 1.34
6 3 1 78.27 76.43 1.27
6 4 1 87.30 87.89 1.39
6 5 1 107.21 104.94 1.56
6 6 1 9.79 9.51 0.54
6 7 1 61.85 61.26 1.18
6 8 1 53.94 53.01 1.12
6 9 1 1.59 1.47 0.47
6 10 1 1.06 1.46 0.34
6 11 1 27.39 26.75 0.90
6 12 1 12.71 12.82 0.75
6 13 1 121.62 120.00 1.99
6 14 1 39.51 41.28 1.18
6 15 1 18.38 18.62 0.90
6 16 1 11.08 11.78 0.79
6 17 1 71.82 72.15 1.66
6 18 1 64.31 66.57 1.63
6 19 1 17.60 18.58 0.99
6 20 1 12.24 13.22 0.92
6 21 1 8.85 8.07 0.65
6 22 1 23.05 21.89 1.10
6 23 1 10.27 9.37 0.87
6 0 2 18.49 19.27 0.66
6 1 2 114.89 114.36 1.63
6 2 2 180.81 174.74 2.21
6 3 2 2.93 3.32 0.43
6 4 2 1.00 0.87 0.41
6 5 2 49.27 47.48 1.02
6 6 2 9.11 9.53 0.56
6 7 2 18.89 17.99 0.72
6 8 2 47.71 46.68 1.09
6 9 2 6.55 5.47 0.57
6 10 2 109.54 106.65 1.77
6 11 2 3.30 3.71 0.41
6 12 2 30.50 30.58 1.02
6 13 2 10.13 10.79 0.67
6 14 2 94.00 91.43 1.79
6 15 2 1.22 1.02 0.36
6 16 2 8.35 6.99 0.58
6 17 2 14.37 14.29 0.89
6 18 2 6.95 7.48 0.61
6 19 2 6.33 6.95 0.61
6 20 2 1.35 1.83 0.44
6 21 2 9.57 8.76 0.77
6 22 2 5.64 6.24 0.55
6 23 2 11.69 13.47 1.55
6 0 3 11.75 12.31 0.60
6 1 3 100.08 99.55 1.54
6 2 3 17.57 16.60 0.68
6 3 3 202.71 199.98 2.47
6 4 3 67.20 66.72 1.25
6 5 3 4.27 4.55 0.52
6 6 3 23.90 24.45 0.80
6 7 3 57.11 57.50 1.21
6 8 3 24.25 22.85 0.83
6 9 3 26.55 25.37 0.89
6 10 3 0.81 1.29 0.36
6 11 3 6.71 6.83 0.52
6 12 3 22.11 20.71 0.90
6 13 3 4.20 4.39 0.44
6 14 3 47.02 48.01 1.33
6 15 3 31.78 32.26 1.13
6 16 3 29.89 28.34 1.12
6 17 3 12.28 12.78 0.88
6 18 3 69.18 69.52 1.71
6 19 3 46.24 46.95 1.47
6 20 3 3.62 3.01 0.47
6 21 3 20.90 20.91 1.10
6 22 3 29.18 28.89 1.21
6 0 4 0.63 1.05 0.44
6 1 4 96.71 93.87 1.56
6 2 4 20.73 20.98 0.76
6 3 4 56.66 56.70 1.18
6 4 4 1.96 0.91 0.49
6 5 4 38.22 36.76 1.00
6 6 4 68.79 66.87 1.36
6 7 4 4.90 4.93 0.42
6 8 4 17.49 16.88 0.78
6 9 4 41.63 39.91 1.12
6 10 4 48.80 48.23 1.25
6 11 4 2.33 2.48 0.38
6 12 4 28.16 27.29 1.02
6 13 4 3.88 4.67 0.46
6 14 4 40.56 39.62 1.25
6 15 4 4.16 3.81 0.46
6 16 4 30.41 31.88 1.18
6 17 4 80.46 80.19 1.82
6 18 4 9.93 9.87 0.79
6 19 4 31.42 31.36 1.25
6 20 4 12.07 12.34 0.92
6 21 4 55.10 54.41 1.55
6 0 5 15.33 14.27 0.75
6 1 5 65.88 64.90 1.33
6 2 5 18.75 19.63 0.80
6 3 5 108.60 105.86 1.77
6 4 5 20.29 19.06 0.82
6 5 5 4.21 4.18 0.41
6 6 5 42.68 43.75 1.14
6 7 5 11.44 10.14 0.71
6 8 5 0.13 0.26 0.36
6 9 5 34.15 33.66 1.09
6 10 5 2.06 2.29 0.39
6 11 5 20.52 19.30 0.92
6 12 5 23.28 23.13 1.00
6 13 5 8.70 9.52 0.63
6 14 5 21.29 22.60 1.04
6 15 5 2.09 1.91 0.42
6 16 5 16.45 16.80 1.00
6 17 5 1.60 1.88 0.44
6 18 5 17.75 17.71 1.00
6 19 5 6.09 6.00 0.54
6 20 5 0.27 0.09 0.38
6 0 6 52.61 50.80 1.25
6 1 6 100.86 100.93 1.78
6 2 6 74.46 72.25 1.51
6 3 6 56.74 55.80 1.33
6 4 6 18.91 19.61 0.88
6 5 6 79.78 79.48 1.61
6 6 6 70.76 73.77 1.56
6 7 6 6.91 6.33 0.48
6 8 6 11.72 10.81 0.78
6 9 6 75.44 75.86 1.66
6 10 6 13.03 12.69 0.86
6 11 6 34.05 33.14 1.17
6 12 6 39.53 40.45 1.27
6 13 6 34.84 34.70 1.25
6 14 6 13.73 13.15 0.93
6 15 6 41.37 43.48 1.37
6 16 6 26.28 28.78 1.17
6 17 6 23.13 22.77 1.10
6 18 6 8.22 8.62 0.60
6 19 6 14.18 14.29 0.94
6 0 7 17.32 17.69 0.87
6 1 7 1.78 2.25 0.39
6 2 7 49.99 49.88 1.33
6 3 7 12.35 11.80 0.80
6 4 7 7.56 8.16 0.66
6 5 7 20.78 20.67 0.93
6 6 7 95.98 98.48 1.90
6 7 7 1.54 2.31 0.42
6 8 7 18.43 19.00 0.94
6 9 7 5.31 5.09 0.55
6 10 7 57.44 57.93 1.52
6 11 7 5.06 5.12 0.51
6 12 7 16.84 17.49 1.01
6 13 7 16.84 15.52 0.98
6 14 7 12.41 13.81 0.95
6 15 7 3.01 3.52 0.48
6 16 7 0.07 0.09 0.40
6 17 7 10.67 11.90 0.87
6 18 7 6.73 7.08 0.55
6 0 8 27.33 28.41 1.09
6 1 8 0.98 1.25 0.39
6 2 8 13.61 14.80 0.87
6 3 8 49.73 49.43 1.39
6 4 8 8.27 7.79 0.69
6 5 8 3.15 3.41 0.45
6 6 8 11.89 13.21 0.89
6 7 8 50.85 53.28 1.47
6 8 8 0.26 0.73 0.39
6 9 8 2.68 3.15 0.47
6 10 8 6.50 7.85 0.66
6 11 8 18.40 17.67 1.04
6 12 8 1.43 2.41 0.46
6 13 8 10.25 10.48 0.74
6 14 8 15.08 15.32 0.98
6 15 8 39.86 41.41 1.37
6 16 8 21.91 21.21 1.09
6 0 9 37.03 39.18 1.32
6 1 9 1.02 1.11 0.41
6 2 9 11.08 11.47 0.87
6 3 9 12.41 11.25 0.82
6 4 9 9.34 9.01 0.76
6 5 9 2.52 2.72 0.46
6 6 9 11.29 13.12 0.91
6 7 9 6.60 7.05 0.56
6 8 9 27.46 30.20 1.18
6 9 9 5.17 5.85 0.54
6 10 9 41.50 42.30 1.40
6 11 9 5.70 6.60 0.61
6 12 9 34.54 36.57 1.31
6 13 9 14.22 14.01 0.95
6 0 10 3.65 4.95 0.52
6 1 10 40.60 43.66 1.40
6 2 10 45.06 46.00 1.45
6 3 10 1.23 1.62 0.46
6 4 10 5.79 7.06 0.56
6 5 10 49.39 51.85 1.52
6 6 10 8.05 8.60 0.66
6 7 10 21.14 22.67 1.12
6 8 10 0.93 1.58 0.43
6 9 10 3.85 4.56 0.51
6 0 11 6.16 7.47 0.63
6 1 11 28.33 29.75 1.39
6 2 11 3.01 4.31 0.61
7 2 0 73.00 71.76 1.31
7 3 0 13.57 13.72 0.63
7 4 0 4.01 3.83 0.51
7 5 0 55.07 52.80 1.16
7 6 0 21.96 21.20 0.80
7 7 0 2.28 2.43 0.35
7 8 0 34.51 34.82 0.99
7 9 0 44.41 43.12 1.12
7 10 0 102.11 98.43 1.76
7 11 0 33.16 32.87 1.05
7 12 0 24.10 24.39 0.95
7 13 0 0.08 0.08 0.35
7 14 0 17.92 17.49 0.89
7 15 0 16.40 15.20 0.89
7 16 0 2.92 2.50 0.44
7 17 0 12.40 11.54 0.86
7 18 0 1.61 1.23 0.41
7 19 0 3.28 3.11 0.47
7 20 0 22.63 24.95 1.11
7 21 0 17.79 17.91 1.03
7 22 0 1.11 1.44 0.44
7 0 1 223.00 219.82 2.71
7 1 1 58.31 56.64 1.15
7 2 1 16.97 15.97 0.68
7 3 1 40.60 41.64 0.99
7 4 1 69.80 70.23 1.31
7 5 1 72.64 73.19 1.37
7 6 1 39.72 40.01 1.03
7 7 1 23.11 22.92 0.83
7 8 1 0.89 1.15 0.34
7 9 1 102.18 100.56 1.76
7 10 1 19.69 19.11 0.85
7 11 1 18.72 18.25 0.87
7 12 1 0.29 0.51 0.33
7 13 1 36.19 37.09 1.16
7 14 1 20.60 18.13 0.96
7 15 1 11.58 10.77 0.79
7 16 1 17.93 17.39 0.97
7 17 1 36.19 36.06 1.27
7 18 1 41.67 42.95 1.38
7 19 1 27.18 26.40 1.16
7 20 1 11.11 11.22 0.90
7 21 1 26.17 25.28 1.16
7 22 1 33.66 33.69 1.28
7 0 2 12.11 11.53 0.63
7 1 2 2.02 2.05 0.48
7 2 2 37.91 38.88 0.99
7 3 2 29.02 29.17 0.87
7 4 2 13.45 12.67 0.67
7 5 2 49.07 50.69 1.15
7 6 2 212.42 209.23 2.70
7 7 2 7.58 7.10 0.51
7 8 2 17.82 17.52 0.81
7 9 2 25.36 23.61 0.94
7 10 2 146.49 142.65 2.22
7 11 2 10.68 10.68 0.66
7 12 2 58.29 58.46 1.42
7 13 2 5.68 5.28 0.52
7 14 2 6.41 5.77 0.50
7 15 2 17.54 20.04 0.96
7 16 2 15.65 15.20 0.93
7 17 2 6.66 6.17 0.59
7 18 2 10.60 11.25 0.88
7 19 2 1.32 1.66 0.44
7 20 2 1.10 1.89 0.45
7 21 2 0.89 0.98 0.41
7 0 3 3.63 3.77 0.53
7 1 3 120.04 118.36 1.85
7 2 3 31.20 30.23 0.93
7 3 3 17.92 17.98 0.78
7 4 3 26.35 24.60 0.87
7 5 3 103.12 102.94 1.73
7 6 3 43.98 44.40 1.12
7 7 3 11.51 12.04 0.71
7 8 3 38.57 37.53 1.09
7 9 3 6.22 5.69 0.51
7 10 3 6.08 6.00 0.51
7 11 3 6.40 5.96 0.60
7 12 3 14.47 14.91 0.84
7 13 3 20.88 21.39 0.99
7 14 3 42.93 42.64 1.32
7 15 3 14.64 16.36 0.94
7 16 3 25.57 24.61 1.13
7 17 3 33.08 32.51 1.25
7 18 3 8.34 7.92 0.64
7 19 3 22.38 21.17 1.09
7 20 3 12.62 12.67 0.92
7 21 3 9.25 8.88 0.75
7 0 4 2.16 2.62 0.38
7 1 4 65.65 66.41 1.38
7 2 4 12.30 11.96 0.72
7 3 4 24.38 23.43 0.89
7 4 4 57.62 57.12 1.29
7 5 4 52.06 51.97 1.27
7 6 4 48.32 48.64 1.23
7 7 4 4.93 4.52 0.44
7 8 4 9.55 9.16 0.64
7 9 4 17.96 16.53 0.86
7 10 4 10.97 11.82 0.78
7 11 4 14.27 14.02 0.86
7 12 4 28.46 27.27 1.08
7 13 4 40.38 39.42 1.31
7 14 4 11.98 11.82 0.87
7 15 4 37.77 38.26 1.31
7 16 4 33.47 35.50 1.26
7 17 4 22.04 23.20 1.08
7 18 4 14.60 16.12 0.99
7 19 4 26.68 25.66 1.18
7 20 4 2.87 1.94 0.44
7 0 5 2.51 3.01 0.40
7 1 5 22.84 22.07 0.90
7 2 5 22.03 21.72 0.88
7 3 5 8.02 7.25 0.62
7 4 5 32.00 31.44 1.05
7 5 5 32.11 32.66 1.06
7 6 5 27.22 27.31 1.01
7 7 5 46.25 44.97 1.26
7 8 5 63.08 62.68 1.49
7 9 5 5.18 4.83 0.47
7 10 5 43.30 44.25 1.31
7 11 5 13.28 12.03 0.85
7 12 5 30.39 28.18 1.15
7 13 5 5.05 4.59 0.49
7 14 5 52.32 53.25 1.50
7 15 5 2.52 3.15 0.47
7 16 5 12.61 12.18 0.83
7 17 5 4.11 4.03 0.50
7 18 5 6.58 5.67 0.53
7 19 5 4.67 5.49 0.52
7 0 6 14.54 14.40 0.82
7 1 6 61.39 61.37 1.46
7 2 6 74.77 77.16 1.64
7 3 6 56.64 57.67 1.44
7 4 6 53.23 54.83 1.39
7 5 6 6.45 6.49 0.54
7 6 6 13.05 12.12 0.83
7 7 6 32.49 33.66 1.18
7 8 6 28.17 28.39 1.11
7 9 6 9.76 8.91 0.72
7 10 6 7.82 7.49 0.69
7 11 6 23.97 25.23 1.08
7 12 6 6.92 6.68 0.61
7 13 6 12.39 13.42 0.91
7 14 6 9.51 10.81 0.78
7 15 6 18.31 17.47 1.02
7 16 6 20.38 18.91 1.05
7 17 6 16.52 14.81 0.99
7 18 6 7.70 7.04 0.62
7 0 7 31.94 30.59 1.14
7 1 7 1.12 1.22 0.39
7 2 7 69.04 72.35 1.66
7 3 7 8.28 8.19 0.70
7 4 7 3.28 3.12 0.44
7 5 7 4.55 4.82 0.48
7 6 7 2.91 3.26 0.45
7 7 7 20.63 22.26 1.04
7 8 7 33.88 35.50 1.23
7 9 7 18.26 17.16 1.00
7 10 7 35.82 36.99 1.30
7 11 7 13.43 12.89 0.83
7 12 7 22.26 20.53 1.10
7 13 7 7.52 7.63 0.64
7 14 7 29.09 29.04 1.25
7 15 7 6.73 6.87 0.56
7 16 7 0.01 0.19 0.82
7 0 8 0.86 1.19 0.41
7 1 8 31.66 32.23 1.22
7 2 8 69.63 71.17 1.69
7 3 8 16.44 18.22 0.98
7 4 8 6.10 6.34 0.60
7 5 8 9.40 10.49 0.84
7 6 8 3.55 4.49 0.50
7 7 8 9.33 8.66 0.73
7 8 8 3.67 3.91 0.53
7 9 8 23.96 23.48 1.11
7 10 8 1.83 2.10 0.45
7 11 8 28.70 27.60 1.18
7 12 8 15.95 17.18 1.00
7 13 8 20.59 21.05 1.06
7 14 8 2.56 2.44 0.45
7 0 9 3.72 4.66 0.51
7 1 9 3.97 4.46 0.50
7 2 9 10.26 10.42 0.79
7 3 9 6.88 7.20 0.60
7 4 9 19.22 19.28 1.05
7 5 9 11.70 10.71 0.70
7 6 9 9.49 10.33 0.74
7 7 9 3.09 3.82 0.49
7 8 9 58.10 57.63 1.60
7 9 9 0.48 0.69 0.88
7 10 9 31.15 31.75 1.23
7 11 9 6.15 6.61 0.55
7 0 10 0.30 0.22 0.42
7 1 10 31.16 31.22 1.24
7 2 10 2.89 3.94 0.48
7 3 10 63.29 66.24 1.69
7 4 10 6.66 7.47 0.57
7 5 10 0.37 0.72 0.42
7 6 10 10.27 9.74 0.88
8 0 0 2.74 2.36 0.36
8 1 0 1.21 1.72 0.35
8 2 0 50.07 49.55 1.16
8 3 0 0.07 0.14 0.33
8 4 0 2.09 2.38 0.37
8 5 0 10.25 10.63 0.68
8 6 0 135.47 131.66 2.08
8 7 0 18.26 18.03 0.85
8 8 0 5.57 5.74 0.51
8 9 0 64.16 64.30 1.48
8 10 0 18.33 17.86 0.89
8 11 0 21.91 22.85 0.96
8 12 0 9.09 10.22 0.66
8 13 0 56.12 58.60 1.50
8 14 0 1.46 1.28 0.40
8 15 0 1.64 1.80 0.42
8 16 0 34.56 36.33 1.27
8 17 0 16.45 17.06 0.98
8 18 0 0.18 0.53 0.40
8 19 0 9.78 9.31 0.67
8 20 0 0.66 0.79 0.41
8 0 1 34.16 31.60 0.99
8 1 1 30.85 31.19 0.96
8 2 1 100.19 96.60 1.68
8 3 1 0.77 1.24 0.35
8 4 1 34.05 32.73 1.00
8 5 1 68.67 66.96 1.42
8 6 1 2.28 2.56 0.40
8 7 1 21.98 21.91 0.89
8 8 1 4.66 5.12 0.50
8 9 1 63.18 61.23 1.47
8 10 1 3.88 4.35 0.44
8 11 1 4.35 3.98 0.45
8 12 1 20.67 21.28 0.99
8 13 1 26.11 26.33 1.07
8 14 1 4.44 4.56 0.49
8 15 1 18.77 18.62 0.99
8 16 1 8.63 8.75 0.76
8 17 1 16.99 18.44 1.04
8 18 1 3.31 3.94 0.50
8 19 1 40.03 40.71 1.37
8 20 1 35.28 37.57 1.31
8 0 2 0.18 0.56 0.34
8 1 2 2.46 3.13 0.39
8 2 2 32.68 32.39 1.00
8 3 2 11.38 11.44 0.72
8 4 2 131.77 129.85 2.07
8 5 2 2.99 3.09 0.41
8 6 2 51.30 50.10 1.26
8 7 2 13.81 12.53 0.81
8 8 2 178.63 183.05 2.64
8 9 2 2.01 1.97 0.38
8 10 2 24.99 23.22 0.99
8 11 2 5.09 4.21 0.46
8 12 2 26.79 27.82 1.09
8 13 2 2.80 2.75 0.44
8 14 2 27.20 27.29 1.12
8 15 2 3.68 3.71 0.47
8 16 2 21.65 21.31 1.06
8 17 2 5.11 5.40 0.53
8 18 2 4.22 2.93 0.47
8 19 2 2.19 3.03 0.47
8 20 2 10.11 10.46 0.77
8 0 3 82.85 83.14 1.61
8 1 3 1.99 1.91 0.38
8 2 3 14.62 14.77 0.79
8 3 3 36.36 35.07 1.06
8 4 3 43.19 42.20 1.17
8 5 3 23.24 23.07 0.94
8 6 3 34.39 35.97 1.10
8 7 3 35.35 35.09 1.11
8 8 3 20.91 21.34 0.92
8 9 3 59.73 59.94 1.47
8 10 3 69.60 71.22 1.63
8 11 3 10.74 11.02 0.82
8 12 3 62.78 63.35 1.59
8 13 3 34.08 37.65 1.26
8 14 3 14.83 16.00 0.93
8 15 3 0.75 0.54 0.39
8 16 3 11.19 12.32 0.90
8 17 3 2.37 3.25 0.48
8 18 3 5.02 5.99 0.53
8 19 3 1.43 1.86 0.44
8 0 4 5.43 5.53 0.50
8 1 4 13.16 14.14 0.77
8 2 4 16.09 16.41 0.83
8 3 4 45.88 46.08 1.24
8 4 4 22.91 23.88 0.96
8 5 4 10.85 12.13 0.75
8 6 4 6.31 6.93 0.52
8 7 4 39.71 41.31 1.25
8 8 4 65.65 65.54 1.56
8 9 4 24.44 24.66 1.02
8 10 4 29.63 30.92 1.15
8 11 4 55.87 54.60 1.48
8 12 4 15.04 15.74 0.92
8 13 4 24.99 24.79 1.10
8 14 4 24.97 25.11 1.13
8 15 4 36.47 39.06 1.34
8 16 4 7.34 8.45 0.60
8 17 4 6.79 7.19 0.63
8 18 4 0.39 0.56 0.40
8 0 5 0.50 0.67 0.35
8 1 5 20.84 23.52 0.95
8 2 5 18.03 18.30 0.89
8 3 5 14.42 14.94 0.85
8 4 5 16.11 17.17 0.89
8 5 5 34.09 34.10 1.17
8 6 5 46.21 46.80 1.33
8 7 5 8.51 8.35 0.69
8 8 5 36.33 37.17 1.25
8 9 5 13.58 13.54 0.89
8 10 5 49.87 49.82 1.45
8 11 5 0.54 1.11 0.40
8 12 5 55.28 54.11 1.55
8 13 5 0.85 1.23 0.42
8 14 5 6.68 5.51 0.53
8 15 5 12.81 14.12 0.94
8 16 5 9.45 10.28 0.88
8 17 5 5.14 5.44 0.52
8 0 6 83.25 86.04 1.81
8 1 6 1.89 1.90 0.41
8 2 6 8.74 8.45 0.69
8 3 6 12.15 12.37 0.85
8 4 6 36.38 37.14 1.23
8 5 6 21.47 22.52 1.02
8 6 6 14.53 16.51 0.94
8 7 6 31.30 28.48 1.18
8 8 6 13.19 13.07 0.93
8 9 6 4.76 5.31 0.52
8 10 6 0.04 0.14 0.40
8 11 6 28.64 29.72 1.22
8 12 6 0.10 0.03 0.39
8 13 6 8.80 9.86 0.74
8 14 6 2.74 3.32 0.48
8 15 6 14.40 14.88 0.99
8 16 6 17.85 18.85 1.04
8 0 7 55.23 55.10 1.54
8 1 7 4.77 5.04 0.50
8 2 7 1.12 1.32 0.41
8 3 7 11.89 11.39 0.77
8 4 7 57.05 60.34 1.58
8 5 7 1.25 1.02 0.41
8 6 7 2.79 3.13 0.46
8 7 7 36.53 36.08 1.29
8 8 7 29.31 30.61 1.22
8 9 7 9.53 10.41 0.79
8 10 7 0.14 0.13 0.43
8 11 7 30.13 28.52 1.23
8 12 7 32.67 32.96 1.25
8 13 7 7.57 8.73 0.66
8 14 7 11.51 13.26 0.94
8 0 8 45.62 47.78 1.46
8 1 8 43.05 45.12 1.43
8 2 8 10.25 10.06 0.77
8 3 8 36.02 35.52 1.31
8 4 8 11.74 11.81 0.82
8 5 8 14.87 14.23 0.98
8 6 8 8.80 8.96 0.63
8 7 8 12.91 13.45 0.95
8 8 8 3.08 3.12 0.47
8 9 8 3.09 3.94 0.50
8 10 8 4.01 4.48 0.50
8 11 8 20.91 22.58 1.10
8 0 9 6.62 6.29 0.55
8 1 9 5.51 5.85 0.54
8 2 9 19.25 20.08 1.09
8 3 9 16.03 17.25 1.02
8 4 9 19.30 18.03 1.05
8 5 9 0.59 0.91 0.44
8 6 9 42.13 44.48 1.38
8 7 9 20.82 23.34 1.11
8 8 9 6.27 7.56 0.65
9 1 0 0.48 0.57 0.33
9 2 0 23.58 24.24 0.95
9 4 0 181.58 178.98 2.63
9 5 0 0.06 0.58 0.69
9 6 0 6.04 6.73 0.55
9 7 0 7.75 7.28 0.64
9 8 0 128.58 127.26 2.21
9 9 0 5.02 4.42 0.47
9 10 0 16.53 15.88 0.91
9 11 0 25.66 25.28 1.08
9 12 0 5.46 5.58 0.52
9 13 0 6.35 6.83 0.55
9 14 0 40.35 42.58 1.38
9 15 0 36.65 37.80 1.32
9 16 0 0.08 0.11 0.41
9 18 0 4.56 4.70 0.51
9 0 1 7.24 7.50 0.55
9 1 1 12.19 12.00 0.76
9 2 1 26.46 26.77 0.99
9 3 1 14.42 13.12 0.80
9 4 1 4.75 5.92 0.52
9 5 1 7.69 7.04 0.62
9 6 1 19.59 19.83 0.92
9 7 1 40.61 39.75 1.25
9 8 1 13.58 14.44 0.84
9 9 1 37.88 39.18 1.22
9 10 1 4.55 4.36 0.48
9 11 1 34.82 34.96 1.23
9 12 1 3.50 3.31 0.46
9 13 1 59.56 60.23 1.60
9 14 1 13.55 13.77 0.95
9 15 1 4.08 4.25 0.50
9 16 1 9.51 10.35 0.85
9 17 1 22.85 22.14 1.09
9 18 1 1.32 1.40 0.42
9 0 2 114.13 113.32 2.01
9 1 2 1.35 1.83 0.37
9 2 2 4.96 4.62 0.45
9 3 2 3.18 2.83 0.41
9 4 2 93.28 93.19 1.82
9 5 2 31.94 32.98 1.11
9 6 2 11.00 10.12 0.79
9 7 2 11.99 11.29 0.83
9 8 2 6.55 6.36 0.51
9 9 2 61.90 64.55 1.58
9 10 2 9.04 10.17 0.78
9 11 2 16.21 16.04 0.94
9 12 2 19.82 19.63 1.03
9 13 2 34.12 35.74 1.29
9 14 2 11.25 10.72 0.80
9 15 2 9.99 11.01 0.85
9 16 2 17.16 18.52 1.04
9 17 2 4.24 3.71 0.48
9 18 2 12.63 13.21 0.90
9 0 3 19.69 20.36 0.91
9 1 3 19.90 20.80 0.94
9 2 3 74.55 74.41 1.63
9 3 3 0.22 0.07 0.34
9 4 3 7.84 7.86 0.58
9 5 3 21.55 21.87 1.00
9 6 3 27.06 28.16 1.10
9 7 3 16.97 16.68 0.92
9 8 3 83.94 87.09 1.86
9 9 3 8.93 10.09 0.83
9 10 3 48.34 50.28 1.44
9 11 3 15.42 15.85 0.95
9 12 3 42.74 44.93 1.39
9 13 3 4.26 3.98 0.50
9 14 3 30.54 30.96 1.25
9 15 3 2.50 3.62 0.48
9 16 3 2.02 2.18 0.45
9 17 3 4.64 4.95 0.51
9 0 4 66.52 67.33 1.60
9 1 4 0.85 1.60 0.40
9 2 4 3.07 3.49 0.44
9 3 4 13.56 15.45 0.87
9 4 4 41.33 42.94 1.29
9 5 4 18.78 19.45 0.97
9 6 4 28.98 29.48 1.10
9 7 4 14.33 13.38 0.89
9 8 4 33.67 35.47 1.24
9 9 4 18.97 20.77 1.01
9 10 4 46.15 49.62 1.48
9 11 4 0.45 0.58 0.40
9 12 4 35.64 36.13 1.28
9 13 4 1.24 1.33 0.43
9 14 4 4.45 4.52 0.51
9 15 4 5.10 5.39 0.53
9 16 4 4.76 4.79 0.51
9 0 5 71.26 70.07 1.69
9 1 5 12.28 12.37 0.87
9 2 5 43.45 44.14 1.34
9 3 5 41.39 40.69 1.31
9 4 5 13.70 13.40 0.89
9 5 5 0.63 1.16 0.40
9 6 5 16.94 18.03 1.00
9 7 5 36.88 37.11 1.27
9 8 5 19.77 20.87 1.03
9 9 5 1.50 1.63 0.43
9 10 5 2.60 2.94 0.47
9 11 5 21.00 21.02 1.07
9 12 5 11.01 11.81 0.89
9 13 5 9.19 7.88 0.66
9 14 5 2.21 2.84 0.47
9 15 5 9.56 9.56 0.77
9 0 6 0.35 0.89 0.40
9 1 6 2.60 2.89 0.46
9 2 6 16.15 16.22 0.96
9 3 6 29.48 30.66 1.18
9 4 6 9.61 9.28 0.75
9 5 6 11.36 10.96 0.87
9 6 6 9.11 10.22 0.83
9 7 6 16.12 16.19 0.99
9 8 6 3.26 3.23 0.48
9 9 6 21.96 24.06 1.12
9 10 6 5.34 5.28 0.58
9 11 6 22.06 21.35 1.08
9 12 6 7.84 9.31 0.75
9 13 6 8.21 7.93 0.58
9 0 7 18.99 18.55 1.04
9 1 7 5.59 6.13 0.61
9 2 7 21.46 20.95 1.09
9 3 7 5.17 5.57 0.53
9 4 7 20.71 19.87 1.08
9 5 7 19.08 20.35 1.08
9 6 7 62.95 63.96 1.67
9 7 7 1.05 1.37 0.42
9 8 7 21.36 21.35 1.05
9 9 7 12.14 11.64 0.93
9 10 7 12.60 13.57 0.93
9 11 7 1.31 1.42 0.42
9 0 8 3.89 4.44 0.51
9 1 8 2.41 2.37 0.45
9 2 8 2.90 2.99 0.47
9 3 8 12.97 13.80 0.95
9 4 8 23.44 23.87 1.15
9 5 8 7.72 7.04 0.62
9 6 8 16.74 19.15 1.01
9 7 8 28.67 29.71 1.22
9 8 8 4.26 5.13 0.51
10 0 0 274.45 276.52 3.63
10 1 0 0.00 0.08 0.75
10 2 0 10.03 10.41 0.80
10 3 0 1.33 1.77 0.41
10 4 0 119.02 120.84 2.19
10 5 0 11.81 10.63 0.82
10 6 0 23.65 24.84 1.07
10 7 0 1.08 1.34 0.41
10 8 0 3.38 3.12 0.46
10 9 0 20.24 18.78 1.00
10 10 0 4.28 3.76 0.48
10 11 0 1.89 2.48 0.45
10 12 0 1.10 1.96 0.45
10 14 0 7.28 7.56 0.72
10 15 0 1.29 1.61 0.43
10 16 0 0.46 0.15 0.39
10 0 1 0.64 0.75 0.37
10 1 1 40.39 41.53 1.28
10 2 1 12.33 13.41 0.81
10 3 1 18.98 19.38 0.95
10 4 1 13.96 13.29 0.89
10 5 1 5.81 5.88 0.57
10 6 1 41.08 42.05 1.32
10 7 1 11.76 12.01 0.79
10 8 1 2.04 2.21 0.44
10 9 1 8.80 10.21 0.85
10 10 1 10.98 11.20 0.87
10 11 1 49.48 49.31 1.48
10 12 1 10.34 9.07 0.78
10 13 1 9.40 9.46 0.68
10 14 1 9.45 8.98 0.77
10 15 1 16.76 17.21 1.01
10 16 1 2.20 2.39 0.45
10 0 2 54.47 52.48 1.45
10 1 2 3.84 3.72 0.46
10 2 2 50.60 51.43 1.45
10 3 2 13.37 14.62 0.89
10 4 2 17.21 19.09 0.95
10 5 2 6.11 5.43 0.51
10 6 2 2.53 2.74 0.45
10 7 2 37.11 37.55 1.27
10 8 2 7.83 7.51 0.71
10 9 2 2.36 2.74 0.46
10 10 2 32.77 33.14 1.27
10 11 2 45.07 45.26 1.44
10 12 2 1.62 2.37 0.46
10 13 2 0.57 0.98 0.41
10 14 2 35.71 35.30 1.29
10 15 2 33.31 33.90 1.27
10 0 3 8.59 7.70 0.71
10 1 3 0.72 0.73 0.39
10 2 3 15.61 15.37 0.90
10 3 3 5.17 5.18 0.51
10 4 3 15.77 15.85 0.93
10 5 3 8.48 8.38 0.64
10 6 3 57.40 58.63 1.55
10 7 3 2.28 2.46 0.45
10 9 3 10.68 11.01 0.88
10 10 3 24.22 23.42 1.14
10 11 3 1.74 1.85 0.44
10 12 3 20.91 22.32 1.08
10 13 3 27.96 27.87 1.20
10 14 3 2.07 2.56 0.46
10 15 3 4.13 2.52 0.45
10 0 4 2.88 3.26 0.46
10 1 4 8.60 8.93 0.73
10 2 4 14.43 15.02 0.90
10 3 4 19.03 18.24 1.02
10 4 4 13.65 15.85 0.94
10 5 4 34.36 33.23 1.25
10 6 4 4.69 3.98 0.48
10 7 4 39.66 39.81 1.38
10 8 4 21.21 22.52 1.10
10 9 4 13.75 15.95 0.97
10 10 4 22.85 23.31 1.13
10 11 4 20.41 21.53 1.09
10 12 4 1.09 1.56 0.43
10 13 4 0.82 0.97 0.41
10 14 4 20.68 20.18 1.05
10 0 5 16.95 18.34 1.01
10 1 5 32.15 33.21 1.25
10 2 5 32.57 30.88 1.25
10 3 5 1.12 1.30 0.42
10 4 5 22.80 23.62 1.10
10 5 5 56.94 58.25 1.62
10 6 5 18.29 20.22 1.07
10 7 5 2.52 2.24 0.46
10 8 5 11.90 12.81 0.91
10 9 5 42.87 42.33 1.42
10 10 5 12.45 13.39 0.96
10 11 5 2.19 2.20 0.45
10 12 5 10.82 9.53 0.78
10 0 6 0.09 0.18 0.41
10 1 6 9.59 9.49 0.64
10 2 6 11.96 11.93 0.93
10 3 6 0.18 0.45 0.40
10 4 6 2.02 2.02 0.45
10 5 6 3.43 4.04 0.50
10 6 6 3.45 3.23 0.47
10 7 6 13.13 13.34 0.85
10 8 6 5.86 6.41 0.55
10 9 6 6.88 6.80 0.61
10 10 6 15.03 15.94 0.96
10 0 7 3.21 3.47 0.48
10 1 7 4.86 5.93 0.53
10 2 7 87.74 87.27 1.96
10 3 7 3.48 3.76 0.48
10 4 7 9.07 9.44 0.78
10 5 7 4.64 4.73 0.51
10 6 7 37.23 37.80 1.32
10 7 7 11.41 11.97 0.92
11 1 0 0.57 0.79 0.40
11 2 0 190.49 188.50 2.94
11 3 0 10.72 10.68 0.79
11 4 0 0.84 0.67 0.40
11 5 0 0.45 0.39 0.40
11 6 0 17.00 20.25 1.05
11 7 0 59.53 60.14 1.61
11 8 0 0.46 0.91 0.41
11 9 0 1.16 1.75 0.44
11 10 0 11.17 10.67 0.81
11 11 0 54.30 57.12 1.57
11 12 0 5.23 4.58 0.51
11 13 0 10.87 9.96 0.80
11 0 1 0.04 0.31 0.38
11 1 1 31.56 31.30 1.22
11 2 1 1.49 1.63 0.43
11 3 1 9.85 8.83 0.75
11 4 1 8.06 8.30 0.64
11 5 1 27.15 26.91 1.16
11 6 1 1.68 1.68 0.44
11 7 1 27.43 29.29 1.18
11 8 1 14.73 15.50 0.98
11 9 1 2.87 2.17 0.45
11 10 1 7.23 8.20 0.66
11 11 1 5.33 5.36 0.52
11 12 1 0.76 0.88 0.41
11 13 1 13.94 13.86 0.82
11 0 2 8.90 7.74 0.71
11 1 2 9.57 10.39 0.85
11 2 2 17.31 14.96 0.99
11 3 2 22.60 21.53 1.10
11 4 2 10.92 13.30 0.90
11 5 2 1.02 1.53 0.44
11 6 2 1.89 1.99 0.45
11 7 2 20.12 20.44 1.06
11 8 2 8.71 9.67 0.77
11 9 2 2.18 2.34 0.46
11 10 2 3.24 3.29 0.48
11 11 2 21.31 22.33 1.09
11 12 2 6.67 6.15 0.60
11 0 3 16.74 16.40 0.98
11 1 3 19.05 20.01 1.03
11 2 3 9.39 8.97 0.75
11 3 3 0.93 0.62 0.40
11 4 3 29.23 28.51 1.20
11 5 3 17.18 19.78 1.02
11 6 3 17.46 18.78 1.04
11 7 3 13.37 12.96 0.94
11 8 3 16.02 15.82 1.02
11 9 3 2.66 3.23 0.47
11 10 3 3.70 3.81 0.48
11 11 3 18.26 16.79 1.03
11 0 4 7.76 7.20 0.63
11 1 4 13.73 14.99 0.96
11 2 4 28.01 28.55 1.19
11 3 4 35.39 36.48 1.32
11 4 4 7.33 7.66 0.58
11 5 4 3.41 3.36 0.47
11 6 4 15.59 16.99 0.97
11 7 4 5.40 5.23 0.53
11 8 4 0.99 1.45 0.42
11 9 4 12.61 11.25 0.80
11 10 4 4.03 3.48 0.47
11 0 5 7.59 9.25 0.68
11 1 5 14.80 14.94 0.99
11 2 5 35.62 36.09 1.32
11 3 5 22.71 23.36 1.08
11 4 5 2.26 2.49 0.45
11 5 5 3.74 3.17 0.47
11 6 5 47.25 49.61 1.52
11 7 5 11.35 12.55 0.90
11 8 5 0.06 0.27 0.41
11 0 6 19.55 18.74 1.06
11 1 6 5.12 4.92 0.51
11 2 6 0.46 0.95 0.44
11 3 6 28.07 28.63 1.18
11 4 6 6.52 7.18 0.62
12 0 0 10.03 9.20 0.68
12 1 0 12.89 14.26 0.96
12 2 0 5.21 5.51 0.59
12 3 0 25.80 25.43 1.15
12 4 0 2.19 2.39 0.45
12 5 0 17.96 18.04 1.01
12 6 0 21.44 20.98 1.06
12 7 0 7.58 8.26 0.58
12 8 0 0.54 0.61 0.41
12 9 0 36.52 36.80 1.31
12 0 1 12.08 12.68 0.91
12 1 1 4.82 5.26 0.52
12 2 1 4.58 3.91 0.50
12 3 1 24.39 23.00 1.13
12 4 1 7.59 9.07 0.71
12 5 1 37.51 35.37 1.32
12 6 1 0.20 0.53 0.40
12 7 1 21.18 23.34 1.12
12 8 1 9.05 10.34 0.87
12 0 2 0.81 1.01 0.41
12 1 2 5.31 5.27 0.52
12 2 2 49.67 48.69 1.52
12 3 2 1.18 1.56 0.43
12 4 2 9.29 8.87 0.77
12 5 2 7.98 7.94 0.64
12 6 2 15.94 15.49 1.00
12 7 2 4.98 5.02 0.51
12 8 2 5.70 5.45 0.59
12 0 3 0.21 1.09 0.85
12 1 3 16.33 18.48 0.99
12 2 3 0.35 0.84 0.41
12 3 3 20.37 21.29 1.08
12 4 3 1.11 1.90 0.44
12 5 3 6.81 7.21 0.71
12 6 3 1.01 0.91 0.41
12 0 4 12.25 14.55 0.95
12 1 4 44.92 45.16 1.42
12 2 4 7.73 9.29 0.85
12 3 4 16.94 17.56 1.01
