#------------------------------------------------------------------------------
#$Date: 2022-03-02 05:20:08 +0200 (Wed, 02 Mar 2022) $
#$Revision: 273207 $
#$URL: file:///home/coder/svn-repositories/cod/cif/1/56/64/1566445.cif $
#------------------------------------------------------------------------------
#
# This file is available in the Crystallography Open Database (COD),
# http://www.crystallography.net/. The original data for this entry
# were provided by IUCr Journals, http://journals.iucr.org/.
#
# The file may be used within the scientific community so long as
# proper attribution is given to the journal article from which the
# data were obtained.
#
data_1566445
loop_
_publ_author_name
'Ruth, Paul Niklas'
'Herbst-Irmer, Regine'
'Stalke, Dietmar'
_publ_section_title
;
 Hirshfeld atom refinement based on projector augmented wave densities
 with periodic boundary conditions
;
_journal_issue                   2
_journal_name_full               IUCrJ
_journal_page_first              286
_journal_page_last               297
_journal_paper_doi               10.1107/S2052252522001385
_journal_volume                  9
_journal_year                    2022
_chemical_absolute_configuration syn
_chemical_formula_moiety         'C3 H7 N O2'
_chemical_formula_sum            'C3 H7 N O2'
_chemical_formula_weight         89.0947
_space_group_crystal_system      orthorhombic
_space_group_IT_number           19
_space_group_name_Hall           'P 2ac 2ab'
_space_group_name_H-M_alt        'P 21 21 21'
_atom_sites_solution_hydrogens   difmap
_audit_creation_method           'xHARPY 0.1'
_cell_angle_alpha                90
_cell_angle_beta                 90
_cell_angle_gamma                90
_cell_formula_units_Z            4
_cell_length_a                   5.9279(10)
_cell_length_b                   12.2597(17)
_cell_length_c                   5.7939(9)
_cell_measurement_reflns_used    1524
_cell_measurement_temperature    23
_cell_measurement_theta_max      22.5
_cell_measurement_theta_min      15.0
_cell_volume                     421.07(11)
_computing_publication_material  'xHARPY 0.1'
_computing_structure_refinement  'xHARPY 0.1'
_computing_structure_solution    'SHELXS-2013 (Sheldrick, 2008)'
_diffrn_ambient_temperature      23
_diffrn_measured_fraction_theta_full 0.994
_diffrn_measured_fraction_theta_max 0.993
_diffrn_measurement_device_type  'P-1 four circle diffractometer'
_diffrn_measurement_method       'area detector'
_diffrn_radiation_type           MoK\a
_diffrn_radiation_wavelength     0.71073
_diffrn_reflns_av_unetI/netI     0.0243
_diffrn_reflns_Laue_measured_fraction_full 0.994
_diffrn_reflns_Laue_measured_fraction_max 0.993
_diffrn_reflns_limit_h_max       12
_diffrn_reflns_limit_h_min       0
_diffrn_reflns_limit_k_max       26
_diffrn_reflns_limit_k_min       0
_diffrn_reflns_limit_l_max       12
_diffrn_reflns_limit_l_min       0
_diffrn_reflns_number            2519
_diffrn_reflns_point_group_measured_fraction_full 0.618
_diffrn_reflns_point_group_measured_fraction_max 0.567
_diffrn_reflns_theta_full        25.242
_diffrn_reflns_theta_max         50.138
_diffrn_reflns_theta_min         3.323
_exptl_absorpt_coefficient_mu    0.117
_exptl_absorpt_correction_type   none
_exptl_crystal_colour            colorless
_exptl_crystal_density_diffrn    1.405
_exptl_crystal_density_method    'not measured'
_exptl_crystal_description       sphere
_exptl_crystal_F_000             192
_exptl_crystal_size_rad          0.18
_refine_diff_density_max         0.1824
_refine_diff_density_min         -0.1879
_refine_diff_density_rms         0.0434
_refine_ls_extinction_method     none
_refine_ls_goodness_of_fit_ref   1.118
_refine_ls_hydrogen_treatment    refall
_refine_ls_matrix_type           full
_refine_ls_number_parameters     118
_refine_ls_number_reflns         2519
_refine_ls_number_restraints     0
_refine_ls_R_factor_all          0.0206
_refine_ls_R_factor_gt           0.0188
_refine_ls_shift/su_max          0.0
_refine_ls_shift/su_mean         0.0
_refine_ls_structure_factor_coef Fsqd
_refine_ls_weighting_details     w=1/[\s^2^(Fo^2^)]
_refine_ls_weighting_scheme      sigma
_refine_ls_wR_factor_gt          0.0312
_refine_ls_wR_factor_ref         0.0314
_reflns_Friedel_coverage         0.0
_reflns_Friedel_fraction_full    0.0
_reflns_Friedel_fraction_max     0.0
_reflns_number_gt                2393
_reflns_number_total             2519
_reflns_threshold_expression     'I > 2\s(I)'
_cod_data_source_file            fc5060.cif
_cod_data_source_block           A23_xHARPy_vdW-DF
_cod_database_code               1566445
loop_
_space_group_symop_operation_xyz
'x, y, z'
'-x+1/2, -y, z+1/2'
'x+1/2, -y+1/2, -z'
'-x, y+1/2, -z+1/2'
loop_
_atom_site_label
_atom_site_type_symbol
_atom_site_fract_x
_atom_site_fract_y
_atom_site_fract_z
_atom_site_U_iso_or_equiv
_atom_site_adp_type
_atom_site_occupancy
_atom_site_site_symmetry_order
O1 O 0.72674(4) 0.083788(17) 0.62433(4) 0.00656(3) Uani 1.0 1
O2 O 0.44092(4) 0.184044(16) 0.76113(4) 0.00638(3) Uani 1.0 1
N1 N 0.64721(4) 0.137517(20) 0.18303(5) 0.00520(3) Uani 1.0 1
H1 H 0.7039(11) 0.0607(5) 0.1962(14) 0.0254(19) Uani 1.0 1
H2 H 0.7784(10) 0.1897(5) 0.2081(14) 0.0217(17) Uani 1.0 1
H3 H 0.5861(12) 0.1492(5) 0.0156(12) 0.0226(18) Uani 1.0 1
C1 C 0.46632(4) 0.161079(20) 0.35444(5) 0.00427(3) Uani 1.0 1
H4 H 0.4238(9) 0.2475(4) 0.3391(11) 0.0216(15) Uani 1.0 1
C2 C 0.25991(5) 0.09067(2) 0.30334(6) 0.00673(4) Uani 1.0 1
H5 H 0.1929(10) 0.1105(5) 0.1327(12) 0.0304(19) Uani 1.0 1
H6 H 0.1284(10) 0.1048(5) 0.4290(13) 0.0302(19) Uani 1.0 1
H7 H 0.3047(10) 0.0049(5) 0.3074(14) 0.032(2) Uani 1.0 1
C3 C 0.55408(5) 0.140795(20) 0.59993(5) 0.00402(3) Uani 1.0 1
loop_
_atom_site_aniso_label
_atom_site_aniso_U_11
_atom_site_aniso_U_22
_atom_site_aniso_U_33
_atom_site_aniso_U_23
_atom_site_aniso_U_13
_atom_site_aniso_U_12
O1 0.00675(7) 0.00717(6) 0.00577(8) 0.00050(6) -0.00060(6) 0.00247(6)
O2 0.00757(7) 0.00759(6) 0.00399(7) -0.00056(6) 0.00056(6) 0.00203(6)
N1 0.00558(7) 0.00593(7) 0.00409(8) -0.00008(6) 0.00046(6) 0.00006(6)
H1 0.028(4) 0.025(4) 0.023(5) 0.000(4) 0.009(4) 0.005(3)
H2 0.014(3) 0.026(4) 0.024(5) 0.003(4) 0.007(4) -0.001(3)
H3 0.032(4) 0.025(4) 0.010(4) -0.006(3) 0.007(4) -0.006(4)
C1 0.00493(8) 0.00450(7) 0.00339(9) 0.00004(6) -0.00028(7) 0.00043(6)
H4 0.027(4) 0.017(3) 0.021(4) 0.004(3) 0.006(3) 0.010(3)
C2 0.00564(8) 0.00867(8) 0.00589(10) -0.00043(8) -0.00060(7) -0.00130(7)
H5 0.026(4) 0.052(5) 0.014(4) 0.009(4) -0.012(3) -0.012(4)
H6 0.016(3) 0.038(4) 0.037(5) 0.003(4) 0.006(4) -0.002(3)
H7 0.036(5) 0.017(3) 0.044(5) -0.004(3) 0.003(4) -0.005(3)
C3 0.00472(7) 0.00414(7) 0.00321(9) 0.00002(6) -0.00030(7) 0.00028(7)
loop_
_atom_type_symbol
_atom_type_description
_atom_type_scat_dispersion_real
_atom_type_scat_dispersion_imag
_atom_type_scat_source
C C 0.0033 0.0016 'HAR in xHARPy 0.1'
H H 0.0000 0.0000 'HAR in xHARPy 0.1'
N N 0.0061 0.0033 'HAR in xHARPy 0.1'
O O 0.0106 0.0060 'HAR in xHARPy 0.1'
loop_
_geom_angle_atom_site_label_1
_geom_angle_atom_site_label_2
_geom_angle_atom_site_label_3
_geom_angle
C1 N1 H1 111.9(4)
C1 N1 H2 109.5(4)
H1 N1 H2 108.9(5)
C1 N1 H3 110.0(4)
H1 N1 H3 108.4(6)
H2 N1 H3 108.1(5)
N1 C1 C2 109.76(2)
N1 C1 C3 110.02(2)
C2 C1 C3 111.09(2)
N1 C1 H4 107.4(3)
C2 C1 H4 110.3(3)
C3 C1 H4 108.1(3)
C1 C2 H5 110.0(3)
C1 C2 H6 110.9(3)
H5 C2 H6 108.2(4)
C1 C2 H7 110.4(3)
H5 C2 H7 108.9(5)
H6 C2 H7 108.5(5)
O1 C3 O2 125.85(3)
O1 C3 C1 118.29(2)
O2 C3 C1 115.86(2)
loop_
_geom_bond_atom_site_label_1
_geom_bond_atom_site_label_2
_geom_bond_distance
O1 C3 1.2474(4)
O2 C3 1.2663(4)
N1 C1 1.4898(4)
N1 H1 1.003(7)
N1 H2 1.017(6)
N1 H3 1.046(7)
C1 C2 1.5264(4)
C1 C3 1.5348(4)
C1 H4 1.092(5)
C2 H5 1.093(7)
C2 H6 1.081(7)
C2 H7 1.084(6)
loop_
_refln_index_h
_refln_index_k
_refln_index_l
_refln_F_squared_calc
_refln_F_squared_meas
_refln_F_squared_sigma
0 2 0 182.77 185.55 1.77
0 4 0 5389.32 5235.48 44.88
0 6 0 90.67 90.55 1.05
0 8 0 45.64 45.79 0.73
0 10 0 0.64 0.81 0.34
0 12 0 239.68 235.01 2.69
0 14 0 56.99 59.13 1.14
0 16 0 24.85 25.49 0.86
0 18 0 227.68 229.83 3.00
0 20 0 0.03 0.22 0.34
0 22 0 134.54 136.84 2.38
0 24 0 0.06 0.23 0.38
0 26 0 5.59 6.51 0.62
0 1 1 728.91 731.39 7.40
0 2 1 118.00 120.69 1.23
0 3 1 698.92 715.40 6.46
0 4 1 95.86 99.22 1.07
0 5 1 0.27 0.23 0.17
0 6 1 480.09 479.54 4.62
0 7 1 36.91 37.28 0.62
0 8 1 44.62 44.79 0.74
0 9 1 32.52 32.39 0.67
0 10 1 136.69 138.63 1.71
0 11 1 68.03 67.36 1.12
0 12 1 77.80 77.08 1.24
0 13 1 19.88 19.02 0.70
0 14 1 39.62 38.27 0.95
0 15 1 92.11 91.84 1.57
0 16 1 0.32 2.40 9.29
0 17 1 0.90 1.14 0.35
0 18 1 61.95 60.46 1.38
0 19 1 15.89 16.31 0.90
0 20 1 28.12 27.70 1.06
0 21 1 2.08 2.72 0.43
0 23 1 1.78 1.75 0.43
0 24 1 0.03 0.17 0.39
0 25 1 2.32 3.02 0.57
0 26 1 19.98 19.97 1.25
0 0 2 2920.58 2869.78 33.63
0 1 2 519.62 538.30 6.62
0 2 2 175.59 183.32 2.09
0 3 2 56.93 56.73 0.80
0 4 2 173.39 172.86 1.81
0 5 2 560.65 572.28 5.37
0 6 2 92.80 97.65 1.18
0 7 2 5.26 5.47 0.34
0 8 2 110.12 112.80 1.41
0 9 2 21.92 23.91 0.60
0 10 2 46.47 46.70 0.87
0 11 2 84.83 84.59 1.27
0 12 2 28.65 28.52 0.76
0 13 2 22.11 21.70 0.70
0 14 2 22.45 21.50 0.76
0 15 2 183.32 183.07 2.41
0 16 2 4.02 4.49 0.41
0 17 2 63.81 61.65 1.40
0 18 2 19.67 20.60 0.92
0 19 2 119.18 121.03 2.11
0 20 2 0.88 0.99 0.41
0 21 2 46.49 46.38 1.37
0 22 2 37.66 37.17 1.30
0 23 2 16.95 18.19 1.04
0 24 2 1.84 2.52 0.46
0 25 2 22.15 22.68 1.27
0 26 2 1.73 2.58 0.50
0 1 3 83.70 84.80 1.76
0 2 3 157.83 159.28 2.95
0 3 3 204.46 207.40 2.48
0 4 3 724.31 746.13 7.85
0 5 3 80.07 82.10 1.21
0 6 3 271.25 274.97 2.87
0 7 3 22.32 22.62 0.58
0 8 3 61.79 62.24 1.00
0 9 3 147.28 144.10 1.80
0 10 3 40.22 40.00 0.84
0 11 3 69.00 71.05 1.19
0 12 3 120.23 120.06 1.71
0 13 3 145.73 146.91 2.02
0 14 3 29.43 28.09 0.86
0 15 3 91.39 91.33 1.60
0 16 3 156.92 156.28 2.28
0 17 3 49.08 47.67 1.25
0 18 3 28.20 27.26 1.00
0 19 3 3.12 2.53 0.41
0 20 3 44.02 44.86 1.35
0 21 3 0.85 0.88 0.39
0 22 3 0.61 1.17 0.41
0 23 3 26.98 28.43 1.17
0 24 3 12.35 12.84 0.92
0 25 3 5.82 5.03 0.58
0 0 4 212.76 211.69 3.94
0 1 4 39.37 40.20 1.21
0 2 4 92.53 93.95 2.07
0 3 4 7.90 8.08 0.45
0 4 4 227.93 231.67 2.86
0 5 4 0.34 0.68 0.38
0 6 4 72.34 71.62 1.24
0 7 4 30.28 29.49 0.79
0 8 4 66.31 65.10 1.09
0 9 4 7.24 7.26 0.47
0 10 4 88.70 91.21 1.40
0 11 4 98.06 98.92 1.53
0 12 4 39.62 39.38 0.97
0 13 4 10.98 11.60 0.65
0 14 4 144.83 143.79 2.11
0 15 4 46.44 45.70 1.19
0 16 4 95.43 95.58 1.76
0 17 4 5.31 5.76 0.47
0 18 4 10.24 9.72 0.75
0 19 4 3.89 3.39 0.44
0 20 4 1.68 1.85 0.42
0 21 4 0.47 0.19 0.38
0 22 4 3.62 4.39 0.50
0 23 4 0.03 0.12 0.40
0 24 4 26.03 26.83 1.15
0 25 4 2.27 2.93 0.52
0 1 5 244.13 238.37 4.56
0 2 5 141.43 138.59 2.98
0 3 5 50.50 49.68 1.55
0 4 5 390.83 392.82 4.63
0 5 5 182.23 179.43 2.45
0 6 5 0.71 0.78 0.42
0 7 5 6.92 6.69 0.53
0 8 5 149.44 146.62 2.20
0 9 5 73.55 70.03 1.44
0 10 5 9.25 8.03 0.55
0 11 5 22.02 20.94 0.79
0 12 5 1.38 1.50 0.33
0 13 5 78.05 79.94 1.52
0 14 5 2.81 3.55 0.41
0 15 5 13.41 14.23 0.80
0 16 5 13.98 13.41 0.80
0 17 5 74.29 77.76 1.67
0 18 5 2.73 2.35 0.42
0 19 5 14.32 13.75 0.90
0 20 5 0.16 0.30 0.40
0 21 5 21.32 19.83 1.05
0 22 5 4.77 5.55 0.53
0 23 5 14.34 12.64 0.97
0 24 5 0.33 0.26 0.38
0 0 6 0.69 0.79 0.63
0 1 6 95.60 94.65 2.47
0 2 6 15.53 16.36 1.04
0 3 6 1.00 1.50 0.65
0 4 6 17.20 16.14 1.10
0 5 6 86.19 87.09 1.58
0 6 6 12.23 11.28 0.66
0 7 6 145.79 143.41 2.27
0 8 6 31.77 30.29 1.00
0 9 6 12.67 14.49 0.78
0 10 6 15.84 15.76 0.83
0 11 6 119.75 118.33 1.92
0 12 6 6.44 6.37 0.56
0 13 6 4.37 4.83 0.49
0 14 6 10.94 11.80 0.74
0 15 6 0.02 0.09 0.34
0 16 6 44.01 41.93 1.29
0 17 6 29.46 29.40 1.12
0 18 6 6.97 7.87 0.69
0 19 6 43.79 44.64 1.40
0 20 6 1.32 1.86 0.43
0 21 6 22.71 21.50 1.10
0 22 6 10.41 10.68 0.78
0 23 6 17.17 17.17 1.00
0 1 7 62.32 59.34 2.07
0 2 7 557.12 546.41 9.82
0 3 7 0.00 0.47 0.78
0 4 7 12.07 11.90 1.11
0 5 7 25.01 24.31 1.45
0 6 7 43.39 43.58 1.23
0 7 7 47.72 47.10 1.29
0 8 7 1.52 1.97 0.44
0 9 7 4.43 4.99 0.52
0 10 7 10.33 9.31 0.81
0 11 7 30.29 31.70 1.20
0 12 7 5.09 5.90 0.65
0 13 7 13.26 11.75 0.80
0 14 7 1.05 1.49 0.39
0 16 7 84.30 82.48 1.83
0 17 7 0.51 1.06 0.40
0 18 7 1.43 2.33 0.44
0 19 7 5.27 6.93 0.56
0 20 7 138.83 136.53 2.47
0 21 7 0.40 0.92 0.40
0 0 8 26.27 24.71 1.52
0 1 8 3.01 3.62 0.96
0 2 8 9.70 8.79 1.16
0 3 8 16.78 15.87 1.36
0 4 8 1.95 1.75 0.96
0 6 8 10.26 10.37 0.83
0 7 8 58.81 60.21 1.58
0 8 8 90.12 88.34 1.94
0 9 8 11.35 12.38 0.88
0 10 8 5.40 6.60 0.70
0 11 8 41.47 40.48 1.42
0 12 8 40.41 40.61 1.46
0 13 8 32.96 32.46 1.36
0 14 8 11.21 12.66 0.99
0 15 8 0.07 0.56 0.39
0 16 8 0.59 1.01 0.40
0 17 8 7.28 6.63 0.55
0 18 8 0.30 0.58 0.40
0 19 8 10.44 9.31 0.78
0 20 8 5.72 6.22 0.53
0 1 9 6.79 8.60 1.17
0 2 9 48.73 46.83 2.22
0 3 9 63.29 63.96 2.55
0 4 9 21.27 22.43 1.64
0 5 9 1.32 1.67 0.97
0 6 9 1.33 1.60 0.99
0 7 9 48.03 46.98 1.54
0 8 9 80.05 80.43 1.96
0 9 9 17.34 16.63 1.08
0 10 9 13.97 13.99 1.03
0 11 9 1.78 2.27 0.53
0 12 9 35.79 35.22 1.41
0 13 9 29.38 29.43 1.35
0 14 9 0.67 0.29 0.49
0 15 9 46.69 47.76 1.66
0 16 9 13.66 14.59 1.10
0 17 9 15.51 15.68 1.00
0 18 9 8.44 8.67 0.65
0 0 10 5.24 4.85 1.24
0 1 10 0.00 0.01 1.01
0 2 10 21.35 20.90 1.75
0 3 10 49.69 49.44 2.44
0 4 10 27.99 28.61 1.96
0 5 10 33.06 33.02 2.08
0 6 10 41.62 42.02 2.35
0 7 10 54.61 54.88 2.63
0 8 10 59.03 60.78 1.82
0 9 10 6.75 6.80 0.66
0 10 10 1.24 1.88 0.53
0 11 10 17.75 16.54 1.16
0 12 10 12.13 13.55 0.94
0 13 10 11.65 12.66 1.06
0 14 10 46.79 43.99 1.64
0 15 10 5.11 5.91 0.65
0 1 11 0.64 0.49 1.23
0 2 11 2.05 2.73 1.25
0 3 11 7.73 6.86 1.50
0 4 11 1.15 0.93 1.30
0 5 11 1.56 0.90 1.30
0 6 11 8.95 7.80 1.55
0 7 11 2.48 3.13 1.36
0 8 11 7.96 8.48 1.55
0 9 11 7.84 8.08 0.78
0 10 11 0.78 1.58 0.54
0 11 11 9.34 8.43 0.85
0 12 11 31.82 30.45 1.42
0 0 12 0.05 2.50 9.29
0 1 12 29.23 27.27 2.27
0 2 12 19.22 20.40 1.98
0 3 12 120.46 117.34 3.99
0 4 12 0.34 0.43 1.43
0 5 12 9.49 9.87 1.73
0 6 12 55.24 56.32 2.78
0 7 12 70.19 65.45 3.07
1 1 0 253.00 253.96 2.39
1 2 0 5381.52 5540.83 58.67
1 3 0 58.71 59.69 0.70
1 4 0 1727.73 1695.03 14.92
1 5 0 337.14 341.71 3.32
1 6 0 64.27 62.48 0.80
1 7 0 19.48 19.44 0.44
1 8 0 400.55 406.10 4.04
1 9 0 2.81 3.29 0.34
1 10 0 41.66 43.48 0.81
1 11 0 95.77 97.84 1.37
1 12 0 26.09 27.18 0.71
1 13 0 59.46 57.89 1.09
1 14 0 1.51 0.87 0.44
1 15 0 85.85 87.16 1.49
1 16 0 24.56 24.70 0.86
1 17 0 30.52 29.83 0.97
1 18 0 0.82 0.94 0.39
1 19 0 34.34 34.06 1.11
1 20 0 42.38 40.67 1.26
1 21 0 1.21 1.45 0.43
1 22 0 3.85 4.03 0.48
1 23 0 6.13 7.08 0.61
1 24 0 9.88 9.88 0.80
1 26 0 6.73 7.39 0.64
1 0 1 74.61 77.54 0.84
1 1 1 130.20 134.89 1.37
1 2 1 102.35 105.15 1.11
1 3 1 1088.89 1098.34 9.77
1 4 1 156.38 158.58 1.66
1 5 1 441.14 442.21 4.27
1 6 1 21.30 22.10 0.44
1 7 1 339.03 342.71 3.44
1 8 1 233.79 236.91 2.50
1 9 1 232.46 234.59 2.55
1 10 1 136.15 132.52 1.69
1 11 1 17.21 17.32 0.57
1 12 1 1.10 0.36 0.37
1 13 1 129.73 128.90 1.79
1 14 1 30.78 29.87 0.84
1 15 1 89.09 88.49 1.53
1 16 1 62.45 62.40 1.30
1 17 1 25.53 25.68 0.91
1 18 1 23.44 24.02 0.94
1 19 1 14.77 15.46 0.84
1 20 1 6.44 5.88 0.49
1 21 1 1.47 2.08 0.42
1 22 1 33.53 35.11 1.22
1 23 1 9.58 10.77 0.90
1 24 1 22.03 21.14 1.09
1 25 1 8.74 9.59 0.83
1 26 1 0.77 2.02 0.49
1 0 2 3287.81 3136.22 36.49
1 1 2 69.42 72.38 0.95
1 2 2 568.48 578.13 6.18
1 3 2 195.07 196.03 2.04
1 4 2 1070.68 1074.84 9.72
1 5 2 18.63 18.79 0.42
1 6 2 217.86 221.68 2.33
1 7 2 164.60 163.66 1.84
1 8 2 10.80 10.35 0.44
1 9 2 59.25 62.42 0.99
1 10 2 60.38 60.07 1.01
1 11 2 118.16 119.13 1.61
1 12 2 118.92 116.56 1.64
1 13 2 112.58 111.32 1.65
1 14 2 55.18 55.26 1.15
1 15 2 31.09 31.95 0.93
1 16 2 29.54 27.90 0.95
1 17 2 78.14 76.48 1.54
1 18 2 110.06 111.20 1.94
1 19 2 40.52 41.62 1.21
1 20 2 10.42 9.80 0.71
1 21 2 22.20 23.10 1.03
1 22 2 39.01 36.95 1.29
1 23 2 43.96 43.84 1.44
1 24 2 9.72 10.75 0.80
1 25 2 0.09 0.16 0.43
1 26 2 3.72 4.54 0.56
1 0 3 30.52 32.36 0.93
1 1 3 296.98 305.59 5.28
1 2 3 223.40 227.02 2.67
1 3 3 90.18 92.65 1.29
1 4 3 93.67 96.63 1.35
1 5 3 23.42 23.27 0.53
1 6 3 136.21 139.50 1.65
1 7 3 4.96 5.23 0.38
1 8 3 259.84 260.23 2.84
1 9 3 29.65 29.31 0.71
1 10 3 79.72 80.49 1.25
1 11 3 15.75 16.83 0.60
1 12 3 32.73 32.62 0.84
1 13 3 35.17 34.14 0.91
1 14 3 116.36 116.00 1.80
1 15 3 34.55 33.83 0.99
1 16 3 10.10 9.39 0.62
1 17 3 26.18 25.28 0.95
1 18 3 27.90 26.79 1.01
1 19 3 27.94 27.49 1.06
1 20 3 7.99 7.84 0.66
1 21 3 24.39 23.82 1.06
1 22 3 6.73 7.27 0.62
1 23 3 2.92 2.77 0.46
1 24 3 8.21 8.22 0.65
1 25 3 15.95 18.09 1.17
1 0 4 331.87 331.70 5.89
1 1 4 252.69 262.67 4.78
1 2 4 28.07 29.04 1.06
1 3 4 22.64 23.65 0.65
1 4 4 109.99 110.78 1.58
1 5 4 82.85 84.54 1.36
1 6 4 132.92 131.68 1.89
1 7 4 85.35 84.56 1.24
1 8 4 45.68 45.63 0.89
1 9 4 2.20 2.20 0.39
1 10 4 22.35 22.94 0.71
1 11 4 64.82 62.98 1.19
1 12 4 147.20 142.30 2.01
1 13 4 25.76 27.40 0.86
1 14 4 42.46 39.81 1.07
1 15 4 2.17 3.01 0.40
1 16 4 22.49 23.82 0.92
1 17 4 27.01 28.37 1.03
1 18 4 57.43 59.18 1.48
1 19 4 40.33 41.22 1.26
1 20 4 9.12 9.34 0.80
1 21 4 11.32 10.91 0.79
1 22 4 21.19 21.99 1.06
1 23 4 14.74 15.23 0.97
1 24 4 2.26 2.16 0.44
1 0 5 287.03 287.44 5.36
1 1 5 122.57 123.67 2.74
1 2 5 478.82 468.43 8.21
1 3 5 181.09 178.09 3.67
1 4 5 112.38 109.21 1.70
1 5 5 8.62 8.65 0.54
1 6 5 230.15 232.08 3.04
1 7 5 74.32 73.70 1.40
1 8 5 71.89 70.04 1.39
1 9 5 93.48 90.96 1.47
1 10 5 9.87 9.62 0.58
1 11 5 34.94 36.22 0.96
1 12 5 25.06 25.33 0.87
1 13 5 45.10 45.19 1.16
1 14 5 40.30 40.61 1.13
1 15 5 29.95 30.15 1.04
1 16 5 75.25 79.42 1.65
1 17 5 11.28 11.57 0.81
1 18 5 7.48 7.03 0.65
1 19 5 18.21 18.87 0.99
1 20 5 65.95 65.33 1.66
1 21 5 25.35 25.37 1.12
1 22 5 1.50 1.75 0.43
1 23 5 3.52 4.63 0.50
1 24 5 18.24 17.61 1.01
1 0 6 0.54 0.07 0.64
1 1 6 0.51 0.90 0.63
1 2 6 8.03 7.62 0.84
1 3 6 12.97 12.55 1.00
1 4 6 16.60 16.16 1.10
1 5 6 13.01 13.43 0.68
1 6 6 22.39 22.11 0.83
1 7 6 7.60 7.86 0.63
1 8 6 10.04 9.19 0.69
1 9 6 11.68 11.19 0.78
1 10 6 2.76 2.45 0.44
1 11 6 10.84 9.93 0.69
1 12 6 29.95 29.30 0.97
1 13 6 7.68 7.62 0.61
1 14 6 28.21 28.30 1.01
1 15 6 11.95 11.12 0.82
1 16 6 3.02 3.01 0.43
1 17 6 21.23 21.74 1.01
1 18 6 13.92 14.00 0.90
1 19 6 11.08 11.92 0.87
1 20 6 33.84 31.92 1.26
1 21 6 9.15 9.50 0.78
1 22 6 10.37 8.72 0.76
1 23 6 11.82 12.16 0.89
1 0 7 252.01 250.47 5.20
1 1 7 26.50 27.13 1.46
1 2 7 60.31 61.99 2.14
1 3 7 81.08 82.29 2.52
1 4 7 145.73 142.77 3.55
1 5 7 29.51 30.90 1.05
1 6 7 63.28 62.37 1.48
1 7 7 10.67 9.61 0.78
1 8 7 57.87 56.93 1.47
1 9 7 68.84 68.07 1.63
1 10 7 18.06 18.96 0.97
1 11 7 21.77 22.07 0.92
1 12 7 2.60 1.93 0.47
1 13 7 41.48 42.79 1.26
1 14 7 26.34 24.88 1.06
1 15 7 34.62 32.66 1.19
1 16 7 23.54 26.13 1.09
1 17 7 19.52 20.72 1.03
1 18 7 45.55 43.50 1.40
1 19 7 6.89 6.82 0.62
1 20 7 14.57 15.61 1.00
1 21 7 9.29 9.41 0.67
1 0 8 10.16 10.56 1.21
1 1 8 34.41 35.71 1.81
1 2 8 19.51 20.06 1.45
1 3 8 31.52 32.46 1.73
1 4 8 33.68 33.14 1.77
1 5 8 104.84 103.35 3.14
1 6 8 16.31 15.21 0.93
1 7 8 96.05 92.34 1.98
1 8 8 3.68 3.28 0.49
1 9 8 51.25 51.79 1.53
1 10 8 42.06 40.17 1.40
1 11 8 94.98 96.57 2.14
1 12 8 12.93 11.90 0.98
1 13 8 28.82 28.62 1.28
1 14 8 1.97 1.21 0.51
1 15 8 44.17 46.79 1.40
1 16 8 5.31 5.65 0.53
1 17 8 29.26 27.12 1.19
1 18 8 4.55 5.52 0.53
1 19 8 1.90 2.29 0.44
1 20 8 0.04 0.11 0.39
1 0 9 0.15 0.04 0.94
1 1 9 3.16 2.26 1.01
1 2 9 50.74 52.11 2.29
1 3 9 1.24 1.65 0.99
1 4 9 3.74 3.29 1.15
1 5 9 28.42 28.91 1.85
1 6 9 8.89 10.16 1.31
1 7 9 14.81 16.05 1.03
1 8 9 8.05 8.44 0.75
1 9 9 20.05 20.05 1.13
1 10 9 31.62 29.90 1.32
1 11 9 45.58 46.61 1.60
1 12 9 8.48 9.04 0.83
1 13 9 17.11 16.27 1.15
1 14 9 7.36 8.01 0.83
1 15 9 21.90 22.48 1.25
1 16 9 43.32 43.41 1.60
1 17 9 18.23 18.50 1.06
1 18 9 11.98 11.70 0.90
1 0 10 2.73 3.52 1.19
1 1 10 24.46 26.01 1.89
1 2 10 2.23 1.58 1.14
1 3 10 17.98 20.38 1.73
1 4 10 21.83 21.95 1.84
1 5 10 33.35 33.06 2.11
1 6 10 40.95 42.07 2.33
1 7 10 33.51 32.05 2.13
1 8 10 24.59 24.80 1.27
1 9 10 7.59 7.46 0.82
1 10 10 61.23 56.59 1.82
1 11 10 15.75 16.48 1.16
1 12 10 48.50 46.08 1.66
1 13 10 0.10 0.23 0.52
1 14 10 7.91 6.65 0.68
1 15 10 11.18 10.65 0.89
1 0 11 1.60 0.81 1.30
1 1 11 13.72 12.14 1.63
1 2 11 34.98 34.19 2.29
1 3 11 24.16 23.66 1.97
1 4 11 12.01 12.03 1.64
1 5 11 5.25 6.21 1.46
1 6 11 2.97 3.99 1.36
1 7 11 7.89 8.70 1.60
1 8 11 16.71 15.80 1.19
1 9 11 25.26 23.78 1.32
1 10 11 19.68 18.94 1.24
1 11 11 2.76 3.65 0.60
1 12 11 0.80 1.63 0.54
1 0 12 16.81 18.07 1.94
1 1 12 76.71 76.84 3.22
1 2 12 9.36 8.39 1.76
1 3 12 3.14 3.27 1.57
1 4 12 28.18 29.37 2.24
1 5 12 72.51 69.38 3.15
1 6 12 2.77 2.89 1.54
1 7 12 24.17 23.12 2.11
2 0 0 41.16 42.34 0.54
2 1 0 31.29 31.43 0.44
2 2 0 1727.33 1695.00 14.93
2 3 0 800.70 794.21 7.24
2 4 0 36.00 36.19 0.54
2 5 0 92.60 92.02 1.09
2 6 0 2130.27 2101.34 18.66
2 7 0 294.41 296.59 3.04
2 8 0 0.39 0.77 0.30
2 9 0 238.56 237.23 2.61
2 10 0 252.82 256.81 2.81
2 11 0 2.24 2.44 0.37
2 12 0 46.07 43.82 0.92
2 13 0 168.19 169.59 2.16
2 14 0 11.96 11.04 0.61
2 15 0 72.62 70.63 1.34
2 16 0 39.50 37.35 1.04
2 17 0 36.81 36.03 1.06
2 18 0 43.78 44.13 1.21
2 19 0 36.70 38.13 1.17
2 20 0 1.69 0.93 0.38
2 21 0 8.53 7.81 0.65
2 22 0 16.00 15.26 0.94
2 23 0 10.91 11.27 0.89
2 24 0 32.89 32.70 1.25
2 25 0 3.15 4.16 0.58
2 26 0 1.03 1.09 0.45
2 0 1 1.42 1.65 0.16
2 1 1 79.17 78.76 0.89
2 2 1 278.02 280.10 2.75
2 3 1 526.90 541.65 5.10
2 4 1 155.34 159.33 1.68
2 5 1 425.39 430.92 4.19
2 6 1 23.15 23.14 0.49
2 7 1 96.67 98.93 1.24
2 8 1 4.14 4.89 0.37
2 9 1 278.11 275.84 2.97
2 10 1 9.08 8.79 0.47
2 11 1 5.39 4.80 0.44
2 12 1 42.40 41.09 0.90
2 13 1 82.05 80.60 1.36
2 14 1 43.76 45.17 1.04
2 15 1 22.03 23.98 0.81
2 16 1 3.44 3.60 0.40
2 17 1 11.67 10.17 0.70
2 18 1 10.53 10.05 0.73
2 19 1 29.36 29.52 1.07
2 20 1 70.79 72.36 1.65
2 21 1 27.61 29.16 1.13
2 22 1 23.67 23.56 1.08
2 23 1 2.92 2.59 0.45
2 24 1 38.38 41.55 1.35
2 25 1 22.76 23.22 1.34
2 26 1 29.66 30.77 1.47
2 0 2 4.41 4.24 0.23
2 1 2 307.73 311.63 3.08
2 2 2 1093.56 1095.02 9.91
2 3 2 109.97 108.13 1.26
2 4 2 89.63 89.94 1.10
2 5 2 7.80 8.48 0.35
2 6 2 290.85 294.96 3.04
2 7 2 141.22 141.76 1.68
2 8 2 143.53 145.50 1.77
2 9 2 130.29 129.40 1.63
2 10 2 2.79 2.68 0.37
2 11 2 65.90 64.74 1.13
2 12 2 58.17 57.87 1.10
2 13 2 74.37 74.22 1.32
2 14 2 32.61 34.15 0.92
2 15 2 33.24 32.14 0.94
2 16 2 78.24 73.96 1.47
2 17 2 0.11 0.07 0.34
2 18 2 9.76 10.92 0.74
2 19 2 1.31 1.15 0.37
2 20 2 31.29 32.16 1.14
2 21 2 29.68 30.55 1.17
2 22 2 3.32 3.60 0.48
2 23 2 1.68 2.56 0.45
2 24 2 9.25 8.80 0.77
2 25 2 41.10 40.32 1.68
2 0 3 135.88 133.40 1.55
2 1 3 140.48 141.78 1.60
2 2 3 379.37 387.48 3.85
2 3 3 452.05 452.70 4.48
2 4 3 65.24 66.51 0.95
2 5 3 252.79 251.89 2.69
2 6 3 90.25 91.93 1.24
2 7 3 107.72 109.71 1.43
2 8 3 122.21 120.85 1.56
2 9 3 291.11 292.37 3.22
2 10 3 257.11 259.56 2.95
2 11 3 12.43 12.13 0.59
2 12 3 86.50 85.34 1.43
2 13 3 43.66 44.31 1.04
2 14 3 50.66 48.67 1.15
2 15 3 17.01 17.14 0.80
2 16 3 2.31 2.81 0.40
2 17 3 11.30 12.89 0.76
2 18 3 2.80 2.13 0.39
2 19 3 39.18 39.25 1.23
2 20 3 9.10 9.98 0.68
2 21 3 43.94 43.77 1.39
2 22 3 9.01 7.88 0.73
2 23 3 4.04 5.26 0.57
2 24 3 0.01 0.04 0.40
2 25 3 12.77 13.19 1.08
2 0 4 54.58 57.35 1.55
2 1 4 105.85 107.97 1.56
2 2 4 129.51 132.49 1.85
2 3 4 135.45 134.73 1.87
2 4 4 13.08 13.13 0.58
2 5 4 62.15 60.44 1.00
2 6 4 110.98 109.30 1.47
2 7 4 104.72 103.52 1.45
2 8 4 117.25 117.68 1.61
2 9 4 47.62 49.13 0.99
2 10 4 140.84 139.73 1.90
2 11 4 50.94 50.32 1.08
2 12 4 13.50 12.81 0.66
2 13 4 0.42 0.40 0.33
2 14 4 12.86 11.81 0.71
2 15 4 12.77 12.96 0.75
2 16 4 25.42 25.45 0.93
2 17 4 40.47 39.15 1.20
2 18 4 26.90 25.64 1.05
2 19 4 8.78 8.80 0.71
2 20 4 25.18 26.92 1.11
2 21 4 19.96 20.48 1.05
2 22 4 18.58 16.96 1.05
2 23 4 21.44 23.69 1.08
2 24 4 4.58 3.37 0.47
2 0 5 147.35 145.97 3.14
2 1 5 35.04 34.31 1.32
2 2 5 164.40 162.98 2.27
2 3 5 31.50 31.95 0.85
2 4 5 149.78 149.86 2.14
2 5 5 63.60 64.40 1.26
2 6 5 12.36 12.61 0.64
2 7 5 14.92 14.30 0.71
2 8 5 62.21 63.38 1.18
2 9 5 26.05 26.47 0.81
2 10 5 139.68 140.04 1.99
2 11 5 60.85 60.95 1.27
2 12 5 15.00 14.46 0.75
2 13 5 1.35 2.28 0.38
2 14 5 94.48 93.39 1.73
2 15 5 11.84 12.83 0.77
2 16 5 1.08 1.15 0.36
2 17 5 5.36 5.39 0.49
2 18 5 45.34 44.78 1.38
2 19 5 9.84 11.23 0.85
2 20 5 1.33 1.42 0.42
2 21 5 0.97 0.96 0.41
2 22 5 20.21 21.18 1.05
2 23 5 16.94 16.62 1.03
2 0 6 75.83 77.26 2.23
2 1 6 93.68 94.94 2.53
2 2 6 2.34 2.33 0.72
2 3 6 2.14 2.28 0.58
2 4 6 22.50 22.87 0.83
2 5 6 100.35 99.60 1.77
2 6 6 0.37 0.60 0.49
2 7 6 78.41 77.94 1.58
2 8 6 0.14 0.23 0.53
2 9 6 3.75 4.97 0.49
2 10 6 10.68 12.24 0.70
2 11 6 104.97 105.56 1.81
2 12 6 8.25 7.96 0.55
2 13 6 61.52 62.97 1.43
2 14 6 10.80 11.38 0.75
2 15 6 58.31 57.36 1.45
2 16 6 15.20 15.53 0.90
2 17 6 47.61 47.41 1.38
2 18 6 50.23 50.17 1.47
2 19 6 1.54 2.37 0.44
2 20 6 3.90 3.85 0.49
2 21 6 14.23 13.89 0.97
2 22 6 46.47 46.19 1.44
2 0 7 7.25 7.50 1.00
2 1 7 45.70 44.39 1.83
2 2 7 12.82 12.69 1.14
2 3 7 14.38 14.63 1.21
2 4 7 136.35 131.71 2.70
2 5 7 72.46 71.75 1.58
2 6 7 30.33 29.63 1.07
2 7 7 86.35 84.55 1.80
2 8 7 81.87 83.24 1.79
2 9 7 4.64 5.03 0.54
2 10 7 9.05 9.59 0.80
2 11 7 96.47 98.64 2.08
2 12 7 1.39 2.20 0.39
2 13 7 48.82 49.43 1.37
2 14 7 38.61 40.68 1.26
2 15 7 32.87 33.11 1.20
2 16 7 4.44 4.33 0.49
2 17 7 50.38 51.36 1.49
2 18 7 9.39 10.00 0.77
2 19 7 6.10 7.08 0.64
2 20 7 0.34 0.99 0.41
2 21 7 11.80 10.50 0.80
2 0 8 56.01 54.65 2.22
2 1 8 59.33 59.44 2.32
2 2 8 25.42 23.83 1.60
2 3 8 27.72 29.34 1.70
2 4 8 16.77 16.10 1.40
2 5 8 58.52 57.13 1.54
2 6 8 51.01 47.55 1.46
2 7 8 44.53 42.27 1.38
2 8 8 0.08 0.31 0.42
2 9 8 11.52 11.89 0.81
2 10 8 1.24 1.42 0.49
2 11 8 9.83 8.61 0.79
2 12 8 0.43 0.02 0.44
2 13 8 34.34 31.75 1.38
2 14 8 8.42 10.08 0.82
2 15 8 6.80 7.09 0.70
2 16 8 2.38 3.29 0.48
2 17 8 24.45 23.75 1.15
2 18 8 1.62 1.93 0.44
2 19 8 5.74 6.79 0.55
2 0 9 73.83 76.50 2.80
2 1 9 15.99 17.67 1.52
2 2 9 111.50 110.53 3.47
2 3 9 4.99 5.41 1.11
2 4 9 49.07 49.30 2.32
2 5 9 10.89 11.59 1.40
2 6 9 51.38 50.38 1.58
2 7 9 10.59 10.68 0.93
2 8 9 2.01 3.39 0.54
2 9 9 39.13 38.77 1.45
2 10 9 12.57 14.27 1.04
2 11 9 15.05 15.80 1.09
2 12 9 17.11 17.55 1.14
2 13 9 34.10 35.51 1.47
2 14 9 70.45 73.07 2.01
2 15 9 0.36 1.11 0.53
2 16 9 16.18 15.70 1.02
2 17 9 3.88 4.38 0.53
2 0 10 50.75 50.22 2.47
2 1 10 69.12 67.90 2.85
2 2 10 2.10 2.89 1.19
2 3 10 6.73 6.64 1.35
2 4 10 4.63 4.73 1.27
2 5 10 47.48 47.16 2.43
2 6 10 16.76 17.15 1.68
2 7 10 27.29 26.50 1.34
2 8 10 31.51 30.72 1.41
2 9 10 11.93 12.36 0.93
2 10 10 33.35 33.85 1.47
2 11 10 43.08 44.80 1.60
2 12 10 48.61 48.84 1.70
2 13 10 6.93 7.17 0.69
2 14 10 17.34 17.28 1.16
2 15 10 2.85 2.99 0.58
2 0 11 12.25 12.73 1.69
2 1 11 10.97 10.02 1.61
2 2 11 3.99 3.35 1.38
2 3 11 5.98 7.34 1.47
2 4 11 3.01 2.30 1.42
2 5 11 1.35 0.71 1.32
2 6 11 14.06 13.79 1.69
2 7 11 1.01 0.52 1.32
2 8 11 6.19 5.72 0.66
2 9 11 0.22 0.31 0.52
2 10 11 5.73 6.37 0.79
2 11 11 3.53 4.64 0.62
2 0 12 47.59 47.16 2.68
2 1 12 22.40 20.79 2.12
2 2 12 6.99 6.28 1.64
2 3 12 40.13 43.06 2.55
2 4 12 11.01 11.30 1.80
2 5 12 2.03 2.28 1.54
2 6 12 31.09 29.65 2.23
3 1 0 30.40 31.31 0.52
3 3 0 69.07 69.85 0.89
3 4 0 409.06 417.48 4.07
3 5 0 209.60 210.58 2.24
3 6 0 38.06 39.81 0.70
3 7 0 247.79 245.39 2.63
3 8 0 79.69 81.53 1.17
3 9 0 111.55 108.79 1.45
3 10 0 30.74 30.32 0.73
3 11 0 257.76 253.79 2.89
3 12 0 9.72 8.27 0.53
3 13 0 2.97 2.76 0.45
3 14 0 2.85 3.79 0.49
3 15 0 23.40 24.26 0.86
3 16 0 44.92 43.33 1.15
3 17 0 42.03 42.70 1.17
3 18 0 1.65 2.15 0.38
3 19 0 2.64 2.97 0.42
3 20 0 26.39 28.20 1.09
3 21 0 30.51 30.66 1.16
3 22 0 3.89 4.12 0.49
3 23 0 0.04 0.06 0.40
3 24 0 9.31 8.13 0.66
3 25 0 28.54 29.85 1.44
3 0 1 175.07 177.34 1.88
3 1 1 360.49 372.51 3.68
3 2 1 58.19 59.53 0.80
3 3 1 434.28 438.44 4.29
3 4 1 82.84 82.66 1.05
3 5 1 24.43 24.53 0.53
3 6 1 67.08 69.61 0.99
3 7 1 162.33 160.72 1.87
3 8 1 43.37 43.11 0.81
3 9 1 396.88 385.74 4.06
3 10 1 37.47 37.26 0.83
3 11 1 55.71 54.10 1.04
3 12 1 56.91 54.93 1.10
3 13 1 91.03 90.40 1.53
3 14 1 27.51 27.32 0.86
3 15 1 1.56 2.01 0.38
3 16 1 38.31 39.75 1.11
3 17 1 31.42 30.47 1.02
3 18 1 53.14 51.57 1.34
3 19 1 19.11 19.91 0.93
3 20 1 3.94 3.73 0.46
3 21 1 64.28 68.32 1.65
3 22 1 65.77 62.57 1.65
3 23 1 15.39 15.61 0.96
3 24 1 27.89 30.11 1.22
3 25 1 6.50 7.87 0.78
3 0 2 0.18 0.11 0.23
3 1 2 184.79 181.43 1.98
3 2 2 269.82 274.40 2.81
3 3 2 270.06 269.35 2.80
3 4 2 56.23 55.59 0.86
3 5 2 319.64 317.89 3.29
3 6 2 641.70 644.11 6.31
3 7 2 6.14 7.37 0.43
3 8 2 91.04 89.84 1.28
3 9 2 63.24 62.82 1.07
3 10 2 258.42 256.31 2.91
3 11 2 37.14 34.94 0.86
3 12 2 109.49 107.45 1.63
3 13 2 26.64 26.46 0.82
3 14 2 6.94 6.70 0.59
3 15 2 12.91 13.02 0.72
3 16 2 35.95 37.06 1.07
3 17 2 28.79 28.80 1.01
3 18 2 8.92 9.13 0.72
3 19 2 6.49 5.59 0.55
3 20 2 11.79 11.67 0.85
3 21 2 0.74 0.59 0.39
3 22 2 2.82 2.84 0.46
3 23 2 10.26 9.90 0.88
3 24 2 26.85 27.83 1.19
3 25 2 4.50 4.58 0.57
3 0 3 179.79 185.14 2.07
3 1 3 253.41 253.82 2.69
3 2 3 16.86 17.56 0.51
3 3 3 168.82 168.79 1.94
3 4 3 12.46 12.73 0.48
3 5 3 210.29 216.05 2.40
3 6 3 3.43 3.42 0.38
3 7 3 258.49 256.74 2.85
3 8 3 43.04 43.48 0.88
3 9 3 25.46 26.41 0.73
3 10 3 11.89 11.67 0.57
3 11 3 77.42 76.62 1.32
3 12 3 41.74 40.54 0.98
3 13 3 11.20 12.53 0.67
3 14 3 9.46 9.15 0.60
3 15 3 12.58 12.15 0.73
3 16 3 1.73 2.07 0.39
3 17 3 8.83 8.26 0.64
3 18 3 0.35 0.20 0.34
3 19 3 9.88 10.38 0.83
3 20 3 7.06 6.17 0.52
3 21 3 1.93 1.63 0.42
3 22 3 6.57 6.46 0.55
3 23 3 40.55 40.18 1.39
3 24 3 7.12 8.58 0.73
3 0 4 11.04 11.70 0.47
3 1 4 115.30 114.40 1.48
3 2 4 30.09 31.25 0.70
3 3 4 81.49 80.85 1.19
3 4 4 24.51 25.23 0.65
3 5 4 277.50 273.09 3.02
3 6 4 82.88 80.74 1.26
3 7 4 58.63 60.09 1.08
3 8 4 53.96 54.39 1.06
3 9 4 66.81 68.01 1.22
3 10 4 21.61 21.19 0.74
3 11 4 30.76 29.29 0.89
3 12 4 29.63 30.25 0.91
3 13 4 105.03 105.65 1.76
3 14 4 10.05 10.14 0.69
3 15 4 38.20 37.93 1.12
3 16 4 16.46 17.44 0.85
3 17 4 32.39 32.48 1.12
3 18 4 24.36 25.71 1.06
3 19 4 17.71 17.03 0.95
3 20 4 20.87 21.04 1.02
3 21 4 24.28 25.98 1.13
3 22 4 7.07 7.04 0.63
3 23 4 10.05 10.15 0.87
3 24 4 1.01 1.11 0.41
3 0 5 52.48 50.42 0.98
3 1 5 45.33 45.14 0.93
3 2 5 37.22 35.80 0.84
3 3 5 71.69 73.93 1.22
3 4 5 71.38 72.31 1.22
3 5 5 73.61 73.07 1.25
3 6 5 42.95 44.41 0.96
3 7 5 124.94 123.72 1.78
3 8 5 193.54 188.91 2.41
3 9 5 1.69 1.83 0.48
3 10 5 136.94 134.79 2.01
3 11 5 5.68 7.36 0.54
3 12 5 126.53 124.64 1.98
3 13 5 9.94 10.37 0.73
3 14 5 69.07 64.53 1.47
3 15 5 44.22 44.64 1.26
3 16 5 9.80 10.11 0.78
3 17 5 2.86 3.16 0.44
3 18 5 5.64 6.47 0.53
3 19 5 12.51 10.70 0.78
3 20 5 1.89 2.85 0.46
3 21 5 3.31 3.61 0.49
3 22 5 15.69 15.27 1.00
3 23 5 2.97 3.81 0.48
3 1 6 3.65 3.82 0.52
3 2 6 42.05 42.09 1.10
3 3 6 4.83 4.87 0.57
3 4 6 10.34 9.65 0.68
3 5 6 21.55 21.22 0.86
3 6 6 19.85 18.81 0.86
3 7 6 40.73 39.71 1.16
3 8 6 19.77 18.94 0.80
3 9 6 31.98 32.71 0.98
3 10 6 24.10 24.21 0.90
3 11 6 69.60 68.51 1.46
3 12 6 2.83 3.64 0.43
3 13 6 58.28 57.05 1.42
3 14 6 24.63 25.98 1.03
3 15 6 6.99 7.25 0.59
3 16 6 41.97 42.08 1.32
3 17 6 24.37 24.20 1.07
3 18 6 10.54 10.27 0.77
3 19 6 21.53 22.01 1.09
3 20 6 62.21 64.05 1.67
3 21 6 5.21 5.83 0.53
3 22 6 5.89 5.20 0.52
3 0 7 5.99 5.97 1.01
3 1 7 0.49 0.85 0.84
3 2 7 154.82 152.81 3.77
3 3 7 31.05 29.27 1.09
3 4 7 10.78 9.73 0.79
3 5 7 33.14 32.38 1.14
3 6 7 12.71 12.12 0.86
3 7 7 36.05 36.34 1.22
3 8 7 13.09 11.25 0.86
3 9 7 107.31 109.95 2.16
3 10 7 50.79 51.11 1.32
3 11 7 6.21 6.22 0.48
3 12 7 2.58 2.41 0.40
3 13 7 38.06 38.47 1.24
3 14 7 49.59 49.52 1.40
3 15 7 37.62 37.55 1.28
3 16 7 2.92 2.81 0.45
3 17 7 3.12 2.86 0.46
3 18 7 7.75 7.91 0.64
3 19 7 21.79 21.04 1.10
3 20 7 10.28 9.26 0.76
3 21 7 5.17 5.25 0.52
3 0 8 1.94 2.15 1.01
3 1 8 115.54 114.89 3.35
3 2 8 58.37 60.06 2.37
3 3 8 45.68 46.29 2.11
3 4 8 40.26 39.37 1.32
3 5 8 39.88 38.94 1.32
3 6 8 26.79 26.46 1.14
3 7 8 30.22 30.55 1.21
3 8 8 34.73 33.72 1.30
3 9 8 22.77 22.39 1.13
3 10 8 5.46 4.44 0.57
3 11 8 100.92 100.93 2.24
3 12 8 17.00 17.44 1.08
3 13 8 7.39 6.37 0.59
3 14 8 4.47 4.63 0.50
3 15 8 18.08 18.20 1.00
3 16 8 17.71 15.50 1.00
3 17 8 10.62 11.33 0.91
3 18 8 9.16 8.40 0.65
3 19 8 21.90 23.31 1.12
3 0 9 71.27 69.68 2.74
3 1 9 11.71 12.06 1.42
3 2 9 20.27 19.58 1.63
3 3 9 13.48 14.08 1.51
3 4 9 101.64 102.95 3.40
3 5 9 0.06 0.14 0.47
3 6 9 8.27 8.17 0.66
3 7 9 8.38 9.11 0.75
3 8 9 45.44 43.67 1.55
3 9 9 6.47 6.36 0.64
3 10 9 28.29 28.22 1.31
3 11 9 3.99 4.29 0.60
3 12 9 4.25 4.99 0.63
3 13 9 1.67 1.56 0.53
3 14 9 28.99 31.46 1.37
3 15 9 6.78 6.48 0.62
3 16 9 10.01 9.11 0.66
3 17 9 22.08 22.00 1.09
3 0 10 1.00 0.86 1.17
3 1 10 55.17 57.95 2.63
3 2 10 27.73 28.04 2.02
3 3 10 80.59 83.28 3.21
3 4 10 12.79 12.06 1.60
3 5 10 6.75 7.22 1.43
3 6 10 23.06 23.57 1.26
3 7 10 10.30 11.81 0.89
3 8 10 7.81 7.32 0.69
3 9 10 34.54 33.70 1.47
3 10 10 7.80 7.67 0.85
3 11 10 5.00 4.62 0.62
3 12 10 0.79 1.14 0.52
3 13 10 20.66 19.25 1.23
3 14 10 17.60 17.14 1.14
3 0 11 1.71 1.25 1.35
3 1 11 10.76 11.08 1.69
3 2 11 14.77 15.30 1.75
3 3 11 34.31 35.19 2.30
3 4 11 16.62 17.10 1.89
3 5 11 15.64 15.81 1.77
3 6 11 12.35 12.26 1.72
3 7 11 22.25 22.78 1.30
3 8 11 6.00 6.59 0.81
3 9 11 11.31 10.87 0.85
3 10 11 8.76 9.08 0.88
3 11 11 10.76 9.49 2.98
3 0 12 7.04 5.57 1.68
3 1 12 6.64 7.39 1.69
3 2 12 3.29 3.30 1.55
3 3 12 1.65 0.78 1.55
3 4 12 0.80 1.01 1.47
4 0 0 392.02 396.41 3.93
4 1 0 391.45 390.48 3.92
4 2 0 41.59 40.69 0.71
4 3 0 2.20 1.77 0.32
4 4 0 36.69 37.37 0.71
4 5 0 16.43 15.58 0.51
4 6 0 133.23 133.03 1.65
4 7 0 89.74 89.00 1.28
4 8 0 139.95 133.81 1.72
4 9 0 134.71 131.56 1.74
4 10 0 70.26 69.83 1.21
4 11 0 12.90 12.79 0.62
4 12 0 248.02 242.88 3.00
4 13 0 67.80 69.92 1.32
4 14 0 3.45 2.85 0.37
4 15 0 12.40 12.77 0.73
4 16 0 90.95 91.47 1.71
4 17 0 0.98 1.20 0.35
4 18 0 2.02 2.06 0.39
4 19 0 8.97 7.32 0.66
4 20 0 0.47 0.28 0.38
4 21 0 7.24 8.07 0.63
4 22 0 0.00 0.04 0.42
4 23 0 4.23 4.84 0.52
4 24 0 21.84 22.07 1.10
4 0 1 1.56 1.48 0.29
4 1 1 147.95 150.12 1.72
4 2 1 34.64 34.97 0.66
4 3 1 152.71 152.20 1.76
4 4 1 13.73 12.26 0.47
4 5 1 61.93 60.64 0.96
4 6 1 44.10 43.93 0.83
4 7 1 252.52 247.96 2.76
4 8 1 44.00 43.41 0.88
4 9 1 4.03 4.29 0.41
4 10 1 35.09 34.59 0.84
4 11 1 272.77 269.12 3.13
4 12 1 68.21 68.46 1.29
4 13 1 45.55 43.40 1.06
4 14 1 46.22 46.64 1.14
4 15 1 46.25 45.47 1.17
4 16 1 54.14 53.00 1.30
4 17 1 17.78 17.22 0.88
4 18 1 31.99 31.33 1.09
4 19 1 40.86 43.05 1.29
4 20 1 32.06 33.01 1.19
4 21 1 8.00 7.81 0.70
4 22 1 17.70 14.43 0.98
4 23 1 2.41 2.21 0.46
4 24 1 19.77 19.81 1.06
4 25 1 4.96 5.28 0.59
4 0 2 11.04 10.84 0.45
4 1 2 267.54 266.97 2.86
4 2 2 10.76 9.79 0.45
4 3 2 75.82 75.90 1.10
4 4 2 198.05 202.00 2.27
4 5 2 141.12 137.17 1.72
4 6 2 31.90 32.67 0.74
4 7 2 185.86 178.87 2.16
4 8 2 163.45 163.09 2.03
4 9 2 5.19 5.70 0.45
4 10 2 40.56 41.64 0.94
4 11 2 18.92 18.89 0.70
4 12 2 47.16 46.79 1.07
4 13 2 0.04 0.13 0.31
4 14 2 14.00 14.57 0.74
4 15 2 15.43 15.20 0.79
4 16 2 18.26 16.72 0.85
4 17 2 20.60 19.56 0.92
4 18 2 6.13 6.18 0.55
4 19 2 10.76 11.31 0.84
4 20 2 7.68 8.53 0.62
4 21 2 8.09 9.61 0.83
4 22 2 8.65 9.81 0.67
4 23 2 18.39 17.91 1.04
4 24 2 1.79 1.63 0.43
4 0 3 4.79 4.73 0.39
4 1 3 228.34 226.86 2.50
4 2 3 40.76 38.82 0.79
4 3 3 473.20 468.57 4.73
4 4 3 98.41 96.06 1.35
4 5 3 112.52 109.54 1.50
4 6 3 5.11 5.48 0.43
4 7 3 60.80 61.08 1.09
4 8 3 90.05 88.01 1.40
4 9 3 31.84 32.30 0.84
4 10 3 17.70 17.09 0.68
4 11 3 30.78 30.00 0.88
4 12 3 42.24 42.49 1.07
4 13 3 12.67 12.44 0.71
4 14 3 24.00 22.74 0.90
4 15 3 75.08 74.41 1.54
4 16 3 27.50 27.62 1.03
4 17 3 1.55 0.96 0.37
4 18 3 20.96 21.84 1.00
4 19 3 33.03 35.40 1.21
4 20 3 13.14 13.34 0.89
4 21 3 34.15 34.11 1.27
4 22 3 27.39 25.70 1.18
4 23 3 1.05 1.00 0.41
4 24 3 15.35 14.09 0.98
4 0 4 76.38 78.08 1.20
4 1 4 126.34 125.28 1.65
4 2 4 35.40 34.46 0.80
4 3 4 98.70 97.72 1.42
4 4 4 34.41 35.47 0.82
4 5 4 87.32 88.21 1.37
4 6 4 56.53 56.65 1.09
4 7 4 44.20 43.41 0.96
4 8 4 8.45 9.01 0.54
4 9 4 2.28 1.46 0.46
4 10 4 34.95 36.46 0.96
4 11 4 23.26 24.81 0.85
4 12 4 70.08 69.70 1.41
4 13 4 26.10 26.36 0.94
4 14 4 8.53 9.29 0.64
4 15 4 43.32 40.45 1.21
4 16 4 55.07 54.48 1.41
4 17 4 62.04 60.18 1.53
4 18 4 1.88 1.60 0.41
4 19 4 9.25 8.59 0.64
4 20 4 23.12 22.76 1.10
4 21 4 19.22 20.33 1.06
4 22 4 1.95 2.11 0.48
4 23 4 64.52 64.63 1.67
4 0 5 29.29 28.21 0.78
4 1 5 22.54 23.26 0.72
4 2 5 6.18 6.26 0.49
4 3 5 169.27 165.57 2.13
4 4 5 28.89 28.89 0.80
4 5 5 85.46 85.55 1.42
4 6 5 13.55 13.92 0.63
4 7 5 35.33 35.58 0.95
4 8 5 47.32 48.73 1.11
4 9 5 47.25 45.39 1.12
4 10 5 24.72 27.44 0.90
4 11 5 9.00 9.99 0.67
4 12 5 19.81 19.53 0.88
4 13 5 6.30 6.80 0.60
4 14 5 8.97 8.59 0.65
4 15 5 2.18 1.98 0.40
4 16 5 20.85 21.42 1.00
4 17 5 9.61 10.47 0.81
4 18 5 1.83 2.33 0.44
4 19 5 5.66 5.51 0.53
4 20 5 29.13 29.36 1.21
4 21 5 1.56 2.25 0.44
4 22 5 1.05 1.10 0.41
4 0 6 0.45 0.29 0.44
4 1 6 90.40 89.39 1.52
4 2 6 14.37 15.48 0.69
4 3 6 27.31 26.01 0.85
4 4 6 12.52 11.99 0.67
4 5 6 141.51 139.49 2.04
4 6 6 42.18 41.73 1.09
4 7 6 43.22 40.84 1.10
4 8 6 57.20 54.79 1.29
4 9 6 141.59 137.18 2.14
4 10 6 28.28 26.70 0.99
4 11 6 35.48 36.93 1.11
4 12 6 62.38 63.87 1.48
4 13 6 49.97 49.85 1.34
4 14 6 12.84 12.63 0.83
4 15 6 54.81 55.24 1.48
4 16 6 17.22 18.47 0.98
4 17 6 41.80 42.81 1.37
4 18 6 26.21 26.88 1.15
4 19 6 37.10 37.47 1.31
4 20 6 1.09 1.88 0.44
4 21 6 23.66 22.73 1.12
4 0 7 141.20 139.78 2.12
4 1 7 10.68 9.54 0.73
4 2 7 13.52 12.98 0.85
4 3 7 11.86 12.25 0.83
4 4 7 66.12 65.94 1.60
4 5 7 15.79 16.58 0.91
4 6 7 20.15 20.37 0.87
4 7 7 27.43 26.45 0.98
4 8 7 54.06 52.21 1.33
4 9 7 6.44 6.31 0.60
4 10 7 43.15 44.41 1.25
4 11 7 52.12 52.69 1.40
4 12 7 37.47 40.48 1.25
4 13 7 10.74 10.64 0.74
4 14 7 31.39 30.96 1.19
4 15 7 1.45 2.15 0.43
4 16 7 2.96 3.41 0.47
4 17 7 10.12 9.51 0.78
4 18 7 6.30 5.77 0.54
4 19 7 14.45 13.07 0.92
4 20 7 1.38 1.97 0.44
4 0 8 42.15 44.81 2.11
4 1 8 19.57 19.86 1.25
4 2 8 13.94 13.89 0.92
4 3 8 12.24 11.95 0.90
4 4 8 28.31 29.52 1.20
4 5 8 4.42 4.46 0.54
4 6 8 10.01 9.14 0.77
4 7 8 34.46 32.96 1.31
4 8 8 3.96 3.78 0.55
4 9 8 93.33 90.17 2.14
4 10 8 19.79 19.39 1.00
4 11 8 9.93 8.95 0.74
4 12 8 0.35 0.86 0.40
4 13 8 54.32 53.16 1.52
4 14 8 34.87 34.51 1.28
4 15 8 1.90 2.27 0.45
4 16 8 11.26 9.92 0.79
4 17 8 0.02 0.06 0.39
4 18 8 16.34 16.45 1.00
4 0 9 19.17 19.47 1.67
4 1 9 12.70 13.87 1.51
4 2 9 12.70 13.46 1.47
4 3 9 23.72 24.47 1.21
4 4 9 57.17 60.02 1.73
4 5 9 14.16 14.06 1.02
4 6 9 38.92 36.63 1.47
4 7 9 4.99 5.67 0.63
4 8 9 84.11 86.26 2.14
4 9 9 15.95 17.23 1.12
4 10 9 18.31 20.15 1.16
4 11 9 0.14 0.35 0.53
4 12 9 24.20 24.11 1.31
4 13 9 9.05 9.41 0.77
4 14 9 10.17 11.91 0.91
4 15 9 27.84 26.86 1.17
4 16 9 1.41 2.48 0.45
4 1 10 81.83 84.03 3.26
4 2 10 14.47 14.37 1.66
4 3 10 4.08 3.14 1.30
4 4 10 31.00 30.62 1.38
4 5 10 61.13 58.46 1.85
4 6 10 29.07 28.47 1.38
4 7 10 16.81 15.77 1.12
4 8 10 14.47 15.69 1.13
4 9 10 1.43 0.78 0.52
4 10 10 14.84 15.26 1.12
4 11 10 6.70 7.15 0.69
4 12 10 1.44 1.63 0.54
4 13 10 9.89 8.79 0.72
4 0 11 29.32 28.21 2.16
4 1 11 1.80 1.64 1.35
4 2 11 3.18 3.21 1.36
4 3 11 9.92 9.13 1.58
4 4 11 35.06 33.42 2.28
4 5 11 13.09 13.29 1.36
4 6 11 0.37 0.50 0.53
4 7 11 5.75 6.84 0.68
4 8 11 22.46 20.84 1.29
4 9 11 8.85 9.96 0.87
5 1 0 41.13 40.64 0.78
5 2 0 43.75 44.15 0.84
5 3 0 239.60 233.76 2.60
5 4 0 64.95 61.74 1.04
5 5 0 73.76 73.94 1.16
5 6 0 0.02 0.11 0.33
5 7 0 12.31 11.93 0.55
5 8 0 16.36 16.54 0.63
5 9 0 26.32 25.88 0.76
5 10 0 38.47 39.02 0.94
5 11 0 36.19 37.35 0.96
5 12 0 1.49 1.63 0.48
5 13 0 12.64 12.37 0.71
5 14 0 52.78 53.26 1.27
5 15 0 16.25 15.59 0.83
5 16 0 4.67 4.64 0.44
5 17 0 11.56 10.63 0.70
5 18 0 6.35 6.36 0.65
5 19 0 0.00 0.14 0.37
5 20 0 0.13 0.44 0.38
5 21 0 1.10 0.93 0.40
5 22 0 8.68 8.03 0.64
5 24 0 3.33 2.08 0.44
5 0 1 5.62 6.03 0.42
5 1 1 136.33 135.28 1.68
5 2 1 94.45 92.03 1.30
5 3 1 394.54 386.16 3.96
5 4 1 5.10 5.36 0.41
5 5 1 37.62 36.11 0.79
5 6 1 74.81 71.98 1.18
5 7 1 158.63 156.23 1.98
5 8 1 2.54 3.24 0.42
5 9 1 59.46 59.09 1.14
5 10 1 12.49 12.88 0.62
5 11 1 67.02 69.28 1.30
5 12 1 22.38 22.02 0.83
5 13 1 21.78 19.24 0.84
5 14 1 16.29 16.40 0.79
5 15 1 219.99 220.69 2.96
5 16 1 60.52 62.18 1.46
5 17 1 4.28 4.32 0.45
5 18 1 8.30 7.81 0.69
5 19 1 53.49 54.32 1.51
5 20 1 51.74 52.38 1.47
5 21 1 3.91 3.56 0.48
5 22 1 0.75 0.91 0.41
5 23 1 1.67 1.91 0.44
5 24 1 13.64 14.84 0.95
5 0 2 334.98 334.99 3.55
5 1 2 175.65 171.53 2.08
5 2 2 0.48 0.58 0.34
5 3 2 258.28 255.53 2.88
5 4 2 88.27 86.88 1.31
5 5 2 43.46 43.15 0.89
5 6 2 7.20 6.68 0.47
5 7 2 14.42 13.10 0.59
5 8 2 30.19 29.53 0.81
5 9 2 38.90 37.93 0.93
5 10 2 0.61 1.42 0.44
5 11 2 16.75 16.48 0.73
5 12 2 128.30 126.03 1.96
5 13 2 0.44 0.49 0.34
5 14 2 7.19 7.65 0.67
5 15 2 3.42 3.12 0.40
5 16 2 60.40 61.40 1.47
5 17 2 14.96 14.92 0.87
5 18 2 11.03 11.71 0.83
5 19 2 30.86 30.76 1.15
5 20 2 2.10 2.19 0.44
5 21 2 41.76 39.61 1.35
5 22 2 0.99 1.80 0.44
5 23 2 6.08 5.43 0.58
5 24 2 6.57 7.46 0.91
5 0 3 32.25 31.52 0.78
5 1 3 203.53 201.31 2.39
5 2 3 24.46 24.80 0.70
5 3 3 9.76 9.69 0.52
5 4 3 1.41 1.37 0.39
5 5 3 69.55 69.58 1.20
5 6 3 34.63 35.26 0.86
5 7 3 65.99 64.95 1.21
5 8 3 18.26 18.85 0.70
5 9 3 9.09 9.19 0.60
5 10 3 45.66 43.84 1.07
5 11 3 27.66 26.26 0.90
5 12 3 28.67 27.83 0.94
5 13 3 19.20 19.40 0.86
5 14 3 47.72 47.71 1.24
5 15 3 3.35 3.77 0.43
5 16 3 51.64 51.57 1.40
5 17 3 23.53 24.07 1.03
5 18 3 24.26 24.29 1.07
5 19 3 3.81 4.49 0.50
5 20 3 55.85 57.34 1.58
5 21 3 8.06 8.37 0.66
5 22 3 4.44 4.87 0.52
5 23 3 9.22 8.78 0.65
5 0 4 0.08 0.29 0.38
5 1 4 73.26 70.85 1.22
5 2 4 43.41 44.25 0.96
5 3 4 30.70 28.70 0.81
5 4 4 16.75 17.51 0.67
5 5 4 7.30 6.33 0.52
5 6 4 28.36 28.77 0.85
5 7 4 30.48 30.51 0.88
5 8 4 91.17 90.66 1.55
5 9 4 1.89 2.71 0.38
5 10 4 117.35 113.48 1.86
5 11 4 35.35 35.09 1.05
5 12 4 85.10 86.86 1.65
5 13 4 3.57 4.45 0.43
5 14 4 83.04 87.27 1.75
5 15 4 19.90 20.97 0.98
5 16 4 20.82 22.50 1.01
5 17 4 9.23 8.37 0.70
5 18 4 24.44 25.87 1.11
5 19 4 75.04 76.76 1.82
5 20 4 0.43 0.06 0.39
5 21 4 43.72 44.77 1.43
5 22 4 13.50 11.90 0.95
5 0 5 7.92 7.16 0.57
5 1 5 192.94 188.63 2.42
5 2 5 32.70 32.25 0.90
5 3 5 15.76 16.31 0.69
5 4 5 74.31 73.90 1.38
5 5 5 61.18 60.33 1.26
5 6 5 18.96 18.87 0.79
5 7 5 35.39 34.96 0.99
5 8 5 53.09 50.89 1.22
5 9 5 11.99 11.07 0.71
5 10 5 19.87 19.19 0.85
5 11 5 20.19 20.67 0.90
5 12 5 0.42 0.98 0.35
5 13 5 18.20 18.00 0.91
5 14 5 41.72 42.84 1.26
5 15 5 1.41 1.34 0.40
5 16 5 18.32 18.97 0.96
5 17 5 3.02 3.73 0.48
5 18 5 29.23 29.93 1.19
5 19 5 2.80 3.19 0.48
5 20 5 12.82 12.08 0.95
5 21 5 10.03 8.93 0.67
5 0 6 48.94 47.98 1.17
5 1 6 47.39 46.04 1.13
5 2 6 12.51 11.23 0.70
5 3 6 56.18 54.66 1.25
5 4 6 53.27 50.42 1.22
5 5 6 82.93 81.31 1.57
5 6 6 12.96 13.60 0.74
5 7 6 107.00 106.09 1.85
5 8 6 22.74 22.26 0.92
5 9 6 21.44 21.34 0.89
5 10 6 68.39 69.90 1.54
5 11 6 79.14 81.13 1.70
5 12 6 0.45 0.52 0.36
5 13 6 67.33 68.15 1.62
5 14 6 55.34 54.63 1.48
5 15 6 13.62 15.48 0.92
5 16 6 5.00 5.40 0.52
5 17 6 54.00 53.50 1.55
5 18 6 7.89 7.34 0.65
5 19 6 5.20 5.30 0.53
5 20 6 0.01 0.01 0.39
5 0 7 1.16 1.51 0.38
5 1 7 29.99 30.30 1.01
5 2 7 16.99 16.94 0.86
5 3 7 4.14 4.07 0.44
5 4 7 112.11 108.99 1.91
5 5 7 10.16 10.49 0.68
5 6 7 19.79 21.29 0.92
5 7 7 9.24 9.85 0.75
5 8 7 102.19 101.50 1.92
5 9 7 10.41 11.56 0.77
5 10 7 2.11 2.04 0.42
5 11 7 4.51 4.33 0.47
5 12 7 14.17 13.44 0.80
5 13 7 13.81 16.43 0.94
5 14 7 5.53 6.49 0.54
5 15 7 18.07 18.55 1.01
5 16 7 8.65 7.96 0.75
5 17 7 4.16 4.98 0.52
5 18 7 2.53 2.98 0.47
5 0 8 37.78 37.11 1.19
5 1 8 48.39 48.39 1.33
5 2 8 3.12 3.29 0.43
5 3 8 0.50 0.70 0.36
5 4 8 20.55 19.76 0.98
5 5 8 143.87 142.07 2.37
5 6 8 0.54 1.20 0.80
5 7 8 5.16 5.33 0.50
5 8 8 2.66 2.99 0.45
5 9 8 24.71 24.47 1.07
5 10 8 2.07 2.09 0.43
5 11 8 11.19 12.88 0.89
5 12 8 8.72 8.19 0.64
5 13 8 32.66 32.89 1.28
5 14 8 8.63 8.26 0.66
5 15 8 8.42 8.93 0.66
5 16 8 10.95 12.10 0.91
5 17 8 59.42 59.69 1.61
5 0 9 0.10 0.69 0.80
5 1 9 31.22 30.46 1.15
5 2 9 35.89 35.95 1.44
5 3 9 6.81 5.57 0.62
5 4 9 5.20 6.30 0.64
5 5 9 15.45 14.37 1.07
5 6 9 27.82 27.62 1.30
5 7 9 9.49 9.66 0.85
5 8 9 0.67 1.12 0.52
5 9 9 0.68 1.34 0.42
5 10 9 21.20 21.61 1.09
5 11 9 15.38 15.72 1.00
5 12 9 0.90 1.73 0.43
5 13 9 8.59 8.89 0.66
5 14 9 6.72 6.88 0.55
5 15 9 2.01 2.66 0.46
5 0 10 76.45 75.99 3.16
5 1 10 5.35 5.27 0.91
5 2 10 2.55 2.88 0.58
5 3 10 50.94 51.80 1.74
5 4 10 25.01 24.91 1.30
5 5 10 31.95 30.40 1.47
5 6 10 5.86 6.69 0.69
5 7 10 18.38 18.07 1.19
5 8 10 6.25 7.07 0.69
5 9 10 34.10 33.14 1.44
5 10 10 0.62 0.88 0.53
5 11 10 1.20 2.05 0.54
5 12 10 5.44 5.95 0.54
5 0 11 5.36 3.78 1.53
5 1 11 25.01 24.12 2.03
5 2 11 11.55 12.44 1.63
5 3 11 17.87 16.58 1.19
5 4 11 12.43 11.13 0.92
5 5 11 0.06 0.06 0.52
5 6 11 39.55 40.25 1.55
5 7 11 2.05 2.45 0.57
6 0 0 138.52 135.78 1.78
6 1 0 66.44 66.97 1.14
6 2 0 4.81 4.89 0.44
6 3 0 33.12 31.98 0.80
6 4 0 9.33 10.03 0.52
6 5 0 79.84 77.21 1.30
6 6 0 71.04 71.22 1.26
6 7 0 88.55 85.19 1.43
6 8 0 60.65 59.53 1.19
6 9 0 0.06 0.23 0.44
6 10 0 91.32 88.79 1.58
6 11 0 0.09 0.26 0.32
6 12 0 64.68 64.68 1.37
6 13 0 20.92 21.66 0.90
6 14 0 8.96 9.33 0.65
6 15 0 26.87 28.73 1.03
6 16 0 6.86 7.36 0.64
6 17 0 8.27 9.02 0.70
6 18 0 22.43 21.42 1.04
6 19 0 6.05 7.04 0.69
6 21 0 2.48 2.29 0.45
6 22 0 24.48 23.78 1.11
6 23 0 0.12 0.68 0.40
6 0 1 42.03 39.92 0.88
6 1 1 121.78 119.67 1.65
6 2 1 87.37 86.49 1.35
6 3 1 77.91 76.86 1.27
6 4 1 87.75 88.39 1.40
6 5 1 107.41 105.54 1.57
6 6 1 9.87 9.56 0.54
6 7 1 61.43 61.60 1.19
6 8 1 53.90 53.31 1.13
6 9 1 1.65 1.47 0.48
6 10 1 1.06 1.47 0.34
6 11 1 27.64 26.91 0.91
6 12 1 12.73 12.89 0.76
6 13 1 122.16 120.68 2.01
6 14 1 39.60 41.52 1.19
6 15 1 18.50 18.72 0.90
6 16 1 11.08 11.85 0.79
6 17 1 72.21 72.56 1.67
6 18 1 64.71 66.95 1.64
6 19 1 17.77 18.69 1.00
6 20 1 12.27 13.29 0.93
6 21 1 8.92 8.11 0.65
6 22 1 23.30 22.01 1.10
6 23 1 10.46 9.42 0.88
6 0 2 18.63 19.38 0.66
6 1 2 115.24 115.01 1.64
6 2 2 180.40 175.73 2.22
6 3 2 3.00 3.34 0.43
6 4 2 0.97 0.87 0.41
6 5 2 48.91 47.75 1.03
6 6 2 8.84 9.58 0.57
6 7 2 18.81 18.10 0.72
6 8 2 47.90 46.95 1.09
6 9 2 6.56 5.50 0.58
6 10 2 109.82 107.25 1.78
6 11 2 3.28 3.73 0.41
6 12 2 30.56 30.75 1.03
6 13 2 10.20 10.85 0.68
6 14 2 94.23 91.95 1.80
6 15 2 1.24 1.03 0.37
6 16 2 8.38 7.03 0.59
6 17 2 14.36 14.37 0.90
6 18 2 7.03 7.52 0.62
6 19 2 6.38 6.99 0.61
6 20 2 1.37 1.85 0.44
6 21 2 9.73 8.81 0.77
6 22 2 5.73 6.27 0.55
6 23 2 11.84 13.55 1.56
6 0 3 11.80 12.38 0.60
6 1 3 99.44 100.11 1.55
6 2 3 17.64 16.69 0.68
6 3 3 203.07 201.12 2.49
6 4 3 67.32 67.09 1.25
6 5 3 4.37 4.58 0.52
6 6 3 23.92 24.59 0.81
6 7 3 56.89 57.83 1.21
6 8 3 24.20 22.98 0.83
6 9 3 26.71 25.51 0.90
6 10 3 0.80 1.30 0.36
6 11 3 6.72 6.87 0.52
6 12 3 22.24 20.83 0.90
6 13 3 4.22 4.41 0.44
6 14 3 47.40 48.28 1.34
6 15 3 32.05 32.44 1.14
6 16 3 30.26 28.50 1.12
6 17 3 12.41 12.85 0.88
6 18 3 69.75 69.91 1.72
6 19 3 46.66 47.21 1.47
6 20 3 3.62 3.03 0.48
6 21 3 21.24 21.03 1.11
6 22 3 29.52 29.05 1.21
6 0 4 0.63 1.06 0.44
6 1 4 96.75 94.40 1.57
6 2 4 20.73 21.09 0.76
6 3 4 56.66 57.02 1.19
6 4 4 2.02 0.92 0.49
6 5 4 38.27 36.97 1.01
6 6 4 68.73 67.24 1.36
6 7 4 4.94 4.95 0.42
6 8 4 17.66 16.97 0.79
6 9 4 41.47 40.13 1.12
6 10 4 49.01 48.50 1.26
6 11 4 2.28 2.50 0.38
6 12 4 28.56 27.45 1.03
6 13 4 3.90 4.69 0.46
6 14 4 40.98 39.84 1.26
6 15 4 4.22 3.83 0.47
6 16 4 30.72 32.06 1.19
6 17 4 81.12 80.64 1.83
6 18 4 10.02 9.92 0.80
6 19 4 31.91 31.53 1.26
6 20 4 12.20 12.41 0.93
6 21 4 55.81 54.72 1.56
6 0 5 15.54 14.35 0.75
6 1 5 66.32 65.27 1.34
6 2 5 18.66 19.74 0.81
6 3 5 109.14 106.46 1.78
6 4 5 20.35 19.17 0.82
6 5 5 4.16 4.20 0.42
6 6 5 42.91 44.00 1.15
6 7 5 11.40 10.20 0.71
6 8 5 0.14 0.26 0.37
6 9 5 34.19 33.85 1.10
6 10 5 2.09 2.30 0.39
6 11 5 20.69 19.41 0.93
6 12 5 23.42 23.26 1.00
6 13 5 8.75 9.57 0.63
6 14 5 21.25 22.72 1.05
6 15 5 2.18 1.92 0.43
6 16 5 16.62 16.89 1.00
6 17 5 1.59 1.89 0.44
6 18 5 17.95 17.81 1.01
6 19 5 6.16 6.03 0.54
6 20 5 0.28 0.09 0.38
6 0 6 53.30 51.09 1.26
6 1 6 101.58 101.50 1.79
6 2 6 74.52 72.66 1.52
6 3 6 57.24 56.12 1.34
6 4 6 18.98 19.73 0.88
6 5 6 80.06 79.93 1.62
6 6 6 70.92 74.19 1.57
6 7 6 6.91 6.36 0.48
6 8 6 11.87 10.87 0.78
6 9 6 75.52 76.29 1.67
6 10 6 13.29 12.77 0.86
6 11 6 34.23 33.32 1.18
6 12 6 39.79 40.68 1.28
6 13 6 35.08 34.90 1.25
6 14 6 13.80 13.23 0.94
6 15 6 41.70 43.72 1.38
6 16 6 26.40 28.95 1.18
6 17 6 23.41 22.89 1.11
6 18 6 8.29 8.67 0.60
6 19 6 14.38 14.37 0.95
6 0 7 17.24 17.79 0.87
6 1 7 1.83 2.26 0.39
6 2 7 49.90 50.16 1.34
6 3 7 12.33 11.86 0.80
6 4 7 7.64 8.21 0.66
6 5 7 20.70 20.78 0.93
6 6 7 96.61 99.04 1.91
6 7 7 1.57 2.33 0.42
6 8 7 18.54 19.11 0.94
6 9 7 5.30 5.11 0.55
6 10 7 57.81 58.26 1.53
6 11 7 5.12 5.15 0.51
6 12 7 16.94 17.59 1.01
6 13 7 16.90 15.61 0.99
6 14 7 12.51 13.89 0.95
6 15 7 3.05 3.54 0.49
6 16 7 0.07 0.09 0.40
6 17 7 10.83 11.96 0.88
6 18 7 6.91 7.12 0.55
6 0 8 27.46 28.57 1.10
6 1 8 1.00 1.25 0.39
6 2 8 13.63 14.88 0.88
6 3 8 50.03 49.71 1.40
6 4 8 8.32 7.83 0.70
6 5 8 3.26 3.43 0.45
6 6 8 12.00 13.28 0.90
6 7 8 51.34 53.59 1.47
6 8 8 0.28 0.73 0.39
6 9 8 2.68 3.17 0.47
6 10 8 6.64 7.89 0.66
6 11 8 18.73 17.77 1.04
6 12 8 1.45 2.43 0.46
6 13 8 10.37 10.54 0.75
6 14 8 15.33 15.40 0.98
6 15 8 40.49 41.64 1.38
6 16 8 22.29 21.33 1.09
6 0 9 37.40 39.41 1.32
6 1 9 1.02 1.12 0.41
6 2 9 11.21 11.54 0.88
6 3 9 12.44 11.31 0.82
6 4 9 9.52 9.06 0.76
6 5 9 2.52 2.74 0.46
6 6 9 11.36 13.19 0.91
6 7 9 6.65 7.09 0.57
6 8 9 27.65 30.37 1.19
6 9 9 5.16 5.88 0.54
6 10 9 41.99 42.54 1.41
6 11 9 5.87 6.63 0.62
6 12 9 34.81 36.78 1.32
6 13 9 14.38 14.09 0.95
6 0 10 3.76 4.98 0.53
6 1 10 40.97 43.91 1.41
6 2 10 45.52 46.26 1.46
6 3 10 1.25 1.63 0.46
6 4 10 5.81 7.10 0.57
6 5 10 50.23 52.14 1.53
6 6 10 8.14 8.65 0.66
6 7 10 21.53 22.80 1.13
6 8 10 0.93 1.59 0.43
6 9 10 3.91 4.58 0.51
6 0 11 6.23 7.51 0.64
6 1 11 28.81 29.91 1.40
6 2 11 3.05 4.33 0.61
7 2 0 72.87 72.17 1.31
7 3 0 13.61 13.80 0.63
7 4 0 3.94 3.85 0.51
7 5 0 55.02 53.10 1.17
7 6 0 22.24 21.32 0.80
7 7 0 2.31 2.44 0.35
7 8 0 34.43 35.01 1.00
7 9 0 44.51 43.37 1.13
7 10 0 102.34 98.99 1.77
7 11 0 33.02 33.05 1.06
7 12 0 24.25 24.53 0.95
7 13 0 0.08 0.08 0.35
7 14 0 17.94 17.59 0.90
7 15 0 16.57 15.28 0.89
7 16 0 2.95 2.51 0.44
7 17 0 12.68 11.61 0.86
7 18 0 1.61 1.24 0.42
7 19 0 3.37 3.13 0.47
7 20 0 22.93 25.09 1.12
7 21 0 18.13 18.01 1.04
7 22 0 1.12 1.45 0.44
7 0 1 223.65 221.06 2.73
7 1 1 58.11 56.96 1.15
7 2 1 16.96 16.06 0.69
7 3 1 40.54 41.88 1.00
7 4 1 69.68 70.63 1.32
7 5 1 72.45 73.60 1.37
7 6 1 39.34 40.23 1.04
7 7 1 23.15 23.05 0.84
7 8 1 0.84 1.15 0.34
7 9 1 102.43 101.13 1.77
7 10 1 19.83 19.22 0.85
7 11 1 18.93 18.35 0.87
7 12 1 0.30 0.52 0.33
7 13 1 36.43 37.30 1.17
7 14 1 20.73 18.23 0.96
7 15 1 11.73 10.83 0.80
7 16 1 18.16 17.49 0.98
7 17 1 36.59 36.26 1.27
7 18 1 41.83 43.20 1.39
7 19 1 27.51 26.55 1.17
7 20 1 11.24 11.28 0.91
7 21 1 26.52 25.42 1.16
7 22 1 34.02 33.88 1.29
7 0 2 12.31 11.59 0.64
7 1 2 2.11 2.06 0.49
7 2 2 38.10 39.10 0.99
7 3 2 28.97 29.33 0.88
7 4 2 13.61 12.74 0.67
7 5 2 49.13 50.98 1.15
7 6 2 212.45 210.41 2.72
7 7 2 7.64 7.14 0.51
7 8 2 17.87 17.62 0.81
7 9 2 25.33 23.75 0.94
7 10 2 146.50 143.46 2.23
7 11 2 10.75 10.74 0.66
7 12 2 58.65 58.79 1.43
7 13 2 5.74 5.31 0.52
7 14 2 6.38 5.81 0.50
7 15 2 17.53 20.16 0.96
7 16 2 15.76 15.29 0.94
7 17 2 6.74 6.20 0.59
7 18 2 10.69 11.31 0.88
7 19 2 1.34 1.67 0.44
7 20 2 1.10 1.90 0.45
7 21 2 0.86 0.99 0.41
7 0 3 3.75 3.79 0.54
7 1 3 120.15 119.03 1.86
7 2 3 31.15 30.40 0.93
7 3 3 17.73 18.08 0.78
7 4 3 26.57 24.73 0.87
7 5 3 103.69 103.52 1.74
7 6 3 43.99 44.65 1.13
7 7 3 11.44 12.11 0.71
7 8 3 38.63 37.74 1.09
7 9 3 6.17 5.72 0.52
7 10 3 6.04 6.03 0.52
7 11 3 6.45 6.00 0.60
7 12 3 14.45 14.99 0.85
7 13 3 20.94 21.52 0.99
7 14 3 43.03 42.88 1.33
7 15 3 14.82 16.46 0.94
7 16 3 25.82 24.75 1.14
7 17 3 33.43 32.70 1.25
7 18 3 8.45 7.97 0.65
7 19 3 22.68 21.29 1.10
7 20 3 12.85 12.74 0.93
7 21 3 9.39 8.93 0.75
7 0 4 2.15 2.64 0.38
7 1 4 65.67 66.78 1.39
7 2 4 12.50 12.03 0.72
7 3 4 24.91 23.56 0.89
7 4 4 57.83 57.44 1.30
7 5 4 51.98 52.26 1.27
7 6 4 48.60 48.91 1.24
7 7 4 4.99 4.55 0.44
7 8 4 9.52 9.21 0.65
7 9 4 17.93 16.63 0.86
7 10 4 11.06 11.89 0.79
7 11 4 14.36 14.10 0.86
7 12 4 28.64 27.43 1.09
7 13 4 40.73 39.64 1.31
7 14 4 12.02 11.89 0.88
7 15 4 38.17 38.48 1.32
7 16 4 33.77 35.71 1.27
7 17 4 22.21 23.33 1.09
7 18 4 14.83 16.21 0.99
7 19 4 27.05 25.81 1.19
7 20 4 2.90 1.95 0.44
7 0 5 2.58 3.03 0.40
7 1 5 22.84 22.20 0.90
7 2 5 21.95 21.84 0.88
7 3 5 8.08 7.29 0.62
7 4 5 32.11 31.62 1.06
7 5 5 32.21 32.85 1.07
7 6 5 27.27 27.47 1.01
7 7 5 46.51 45.22 1.27
7 8 5 63.42 63.03 1.50
7 9 5 5.21 4.85 0.47
7 10 5 43.56 44.50 1.31
7 11 5 13.46 12.10 0.85
7 12 5 30.59 28.34 1.15
7 13 5 5.10 4.62 0.49
7 14 5 52.73 53.55 1.51
7 15 5 2.52 3.17 0.47
7 16 5 12.66 12.25 0.83
7 17 5 4.19 4.06 0.50
7 18 5 6.73 5.71 0.53
7 19 5 4.73 5.52 0.53
7 0 6 14.66 14.48 0.82
7 1 6 61.78 61.72 1.47
7 2 6 74.99 77.59 1.65
7 3 6 57.17 58.00 1.45
7 4 6 53.67 55.14 1.40
7 5 6 6.42 6.53 0.54
7 6 6 13.09 12.19 0.84
7 7 6 32.58 33.85 1.19
7 8 6 28.49 28.55 1.11
7 9 6 9.85 8.96 0.72
7 10 6 7.79 7.53 0.69
7 11 6 24.24 25.37 1.09
7 12 6 7.10 6.72 0.61
7 13 6 12.56 13.49 0.92
7 14 6 9.56 10.87 0.78
7 15 6 18.57 17.56 1.03
7 16 6 20.64 19.02 1.05
7 17 6 16.71 14.89 0.99
7 18 6 7.80 7.08 0.63
7 0 7 31.96 30.76 1.15
7 1 7 1.13 1.23 0.39
7 2 7 69.59 72.76 1.67
7 3 7 8.38 8.23 0.70
7 4 7 3.31 3.14 0.44
7 5 7 4.64 4.84 0.49
7 6 7 2.93 3.28 0.45
7 7 7 20.69 22.39 1.04
7 8 7 34.10 35.71 1.24
7 9 7 18.32 17.25 1.01
7 10 7 36.11 37.20 1.31
7 11 7 13.57 12.97 0.83
7 12 7 22.42 20.65 1.10
7 13 7 7.61 7.67 0.64
7 14 7 29.48 29.21 1.25
7 15 7 6.89 6.91 0.56
7 16 7 0.01 0.19 0.82
7 0 8 0.92 1.20 0.41
7 1 8 31.87 32.41 1.23
7 2 8 70.20 71.57 1.70
7 3 8 16.62 18.32 0.99
7 4 8 6.10 6.37 0.60
7 5 8 9.50 10.55 0.85
7 6 8 3.59 4.52 0.50
7 7 8 9.36 8.71 0.74
7 8 8 3.72 3.93 0.53
7 9 8 24.16 23.61 1.12
7 10 8 1.84 2.12 0.45
7 11 8 29.07 27.75 1.19
7 12 8 16.22 17.28 1.01
7 13 8 20.91 21.17 1.06
7 14 8 2.60 2.45 0.45
7 0 9 3.79 4.68 0.52
7 1 9 4.01 4.48 0.50
7 2 9 10.38 10.48 0.80
7 3 9 6.89 7.24 0.60
7 4 9 19.39 19.39 1.05
7 5 9 11.84 10.77 0.70
7 6 9 9.64 10.39 0.74
7 7 9 3.07 3.84 0.49
7 8 9 58.70 57.95 1.61
7 9 9 0.46 0.70 0.88
7 10 9 31.46 31.93 1.24
7 11 9 6.22 6.64 0.55
7 0 10 0.29 0.22 0.43
7 1 10 31.62 31.40 1.25
7 2 10 2.88 3.96 0.49
7 3 10 64.35 66.62 1.70
7 4 10 6.68 7.51 0.57
7 5 10 0.37 0.73 0.42
7 6 10 10.36 9.79 0.89
8 0 0 2.67 2.37 0.37
8 1 0 1.28 1.73 0.35
8 2 0 50.05 49.83 1.17
8 3 0 0.08 0.14 0.33
8 4 0 2.05 2.39 0.38
8 5 0 10.14 10.69 0.69
8 6 0 135.84 132.40 2.09
8 7 0 18.36 18.13 0.86
8 8 0 5.59 5.77 0.52
8 9 0 64.20 64.66 1.48
8 10 0 18.19 17.96 0.89
8 11 0 21.97 22.98 0.97
8 12 0 9.18 10.28 0.66
8 13 0 56.67 58.93 1.51
8 14 0 1.48 1.29 0.40
8 15 0 1.58 1.81 0.43
8 16 0 34.65 36.54 1.27
8 17 0 16.72 17.16 0.99
8 18 0 0.19 0.53 0.40
8 19 0 9.95 9.36 0.68
8 20 0 0.68 0.79 0.41
8 0 1 34.37 31.78 0.99
8 1 1 31.00 31.37 0.97
8 2 1 100.51 97.15 1.69
8 3 1 0.73 1.25 0.35
8 4 1 33.98 32.91 1.01
8 5 1 69.27 67.34 1.42
8 6 1 2.28 2.57 0.40
8 7 1 22.09 22.03 0.90
8 8 1 4.65 5.15 0.50
8 9 1 63.25 61.58 1.47
8 10 1 3.92 4.38 0.44
8 11 1 4.30 4.01 0.45
8 12 1 20.72 21.40 1.00
8 13 1 26.29 26.47 1.07
8 14 1 4.41 4.58 0.49
8 15 1 19.03 18.72 0.99
8 16 1 8.75 8.80 0.76
8 17 1 17.23 18.55 1.04
8 18 1 3.31 3.96 0.50
8 19 1 40.51 40.94 1.37
8 20 1 35.78 37.78 1.31
8 0 2 0.20 0.56 0.34
8 1 2 2.38 3.15 0.39
8 2 2 32.86 32.57 1.01
8 3 2 11.57 11.51 0.73
8 4 2 132.06 130.58 2.08
8 5 2 2.89 3.10 0.41
8 6 2 51.62 50.38 1.27
8 7 2 13.95 12.60 0.81
8 8 2 179.06 184.08 2.65
8 9 2 1.97 1.98 0.38
8 10 2 25.04 23.35 0.99
8 11 2 5.10 4.24 0.46
8 12 2 27.02 27.98 1.09
8 13 2 2.88 2.77 0.44
8 14 2 27.35 27.44 1.12
8 15 2 3.74 3.73 0.48
8 16 2 21.82 21.43 1.06
8 17 2 5.23 5.44 0.54
8 18 2 4.27 2.95 0.47
8 19 2 2.21 3.05 0.47
8 20 2 10.29 10.52 0.77
8 0 3 83.20 83.61 1.62
8 1 3 2.03 1.92 0.38
8 2 3 14.69 14.85 0.80
8 3 3 36.19 35.27 1.06
8 4 3 43.11 42.44 1.18
8 5 3 23.18 23.20 0.94
8 6 3 34.43 36.17 1.11
8 7 3 35.34 35.29 1.12
8 8 3 21.08 21.46 0.93
8 9 3 59.83 60.28 1.48
8 10 3 70.06 71.62 1.64
8 11 3 10.75 11.08 0.82
8 12 3 63.28 63.71 1.60
8 13 3 34.51 37.86 1.27
8 14 3 14.90 16.09 0.94
8 15 3 0.76 0.54 0.39
8 16 3 11.30 12.39 0.90
8 17 3 2.40 3.27 0.48
8 18 3 5.05 6.03 0.54
8 19 3 1.44 1.87 0.44
8 0 4 5.43 5.56 0.50
8 1 4 13.26 14.22 0.77
8 2 4 16.05 16.51 0.83
8 3 4 45.97 46.34 1.25
8 4 4 23.05 24.01 0.96
8 5 4 10.91 12.20 0.75
8 6 4 6.30 6.97 0.52
8 7 4 39.81 41.55 1.25
8 8 4 65.86 65.91 1.57
8 9 4 24.51 24.80 1.03
8 10 4 29.71 31.10 1.16
8 11 4 56.60 54.90 1.49
8 12 4 15.25 15.83 0.93
8 13 4 25.21 24.93 1.10
8 14 4 25.29 25.25 1.14
8 15 4 36.94 39.28 1.35
8 16 4 7.46 8.49 0.60
8 17 4 6.94 7.23 0.63
8 18 4 0.39 0.56 0.40
8 0 5 0.51 0.67 0.35
8 1 5 21.08 23.65 0.96
8 2 5 17.95 18.40 0.89
8 3 5 14.59 15.02 0.85
8 4 5 16.16 17.27 0.89
8 5 5 34.48 34.29 1.17
8 6 5 46.44 47.07 1.34
8 7 5 8.56 8.40 0.70
8 8 5 36.60 37.38 1.26
8 9 5 13.79 13.62 0.90
8 10 5 50.40 50.11 1.46
8 11 5 0.55 1.11 0.40
8 12 5 55.62 54.42 1.56
8 13 5 0.88 1.24 0.43
8 14 5 6.76 5.54 0.54
8 15 5 13.06 14.20 0.95
8 16 5 9.63 10.34 0.89
8 17 5 5.25 5.47 0.53
8 0 6 84.18 86.53 1.82
8 1 6 1.91 1.91 0.41
8 2 6 8.75 8.50 0.70
8 3 6 12.25 12.44 0.86
8 4 6 36.74 37.35 1.24
8 5 6 21.57 22.65 1.03
8 6 6 14.52 16.60 0.94
8 7 6 31.51 28.65 1.19
8 8 6 13.21 13.15 0.94
8 9 6 4.81 5.34 0.52
8 10 6 0.05 0.14 0.40
8 11 6 29.07 29.89 1.23
8 12 6 0.09 0.03 0.39
8 13 6 8.93 9.92 0.74
8 14 6 2.79 3.34 0.48
8 15 6 14.59 14.96 0.99
8 16 6 18.10 18.96 1.05
8 0 7 55.93 55.41 1.55
8 1 7 4.81 5.06 0.50
8 2 7 1.14 1.32 0.42
8 3 7 11.92 11.46 0.77
8 4 7 57.62 60.68 1.58
8 5 7 1.30 1.03 0.41
8 6 7 2.77 3.15 0.47
8 7 7 36.77 36.28 1.30
8 8 7 29.57 30.78 1.23
8 9 7 9.69 10.47 0.79
8 10 7 0.13 0.13 0.43
8 11 7 30.48 28.68 1.24
8 12 7 33.13 33.15 1.25
8 13 7 7.65 8.78 0.66
8 14 7 11.62 13.34 0.94
8 0 8 45.99 48.05 1.47
8 1 8 43.49 45.38 1.44
8 2 8 10.39 10.11 0.77
8 3 8 36.55 35.72 1.32
8 4 8 11.89 11.88 0.83
8 5 8 15.07 14.31 0.99
8 6 8 8.85 9.01 0.64
8 7 8 12.98 13.53 0.95
8 8 8 3.16 3.14 0.48
8 9 8 3.17 3.96 0.50
8 10 8 4.09 4.51 0.50
8 11 8 21.13 22.71 1.10
8 0 9 6.70 6.33 0.55
8 1 9 5.50 5.88 0.54
8 2 9 19.48 20.20 1.10
8 3 9 16.14 17.35 1.03
8 4 9 19.52 18.13 1.06
8 5 9 0.61 0.91 0.44
8 6 9 42.52 44.73 1.39
8 7 9 21.04 23.47 1.12
8 8 9 6.39 7.60 0.65
9 1 0 0.48 0.58 0.33
9 2 0 23.47 24.38 0.96
9 4 0 181.92 179.99 2.65
9 5 0 0.07 0.59 0.69
9 6 0 6.08 6.77 0.55
9 7 0 7.74 7.32 0.65
9 8 0 129.18 127.98 2.23
9 9 0 5.08 4.45 0.47
9 10 0 16.69 15.97 0.92
9 11 0 26.02 25.42 1.09
9 12 0 5.60 5.61 0.52
9 13 0 6.50 6.87 0.55
9 14 0 40.66 42.82 1.39
9 15 0 37.21 38.01 1.32
9 16 0 0.08 0.11 0.41
9 18 0 4.67 4.73 0.51
9 0 1 7.39 7.54 0.55
9 1 1 12.34 12.07 0.76
9 2 1 26.53 26.92 1.00
9 3 1 14.38 13.19 0.81
9 4 1 4.80 5.95 0.52
9 5 1 7.76 7.08 0.62
9 6 1 19.61 19.94 0.93
9 7 1 40.79 39.97 1.25
9 8 1 13.74 14.52 0.85
9 9 1 37.97 39.40 1.23
9 10 1 4.60 4.39 0.48
9 11 1 35.11 35.16 1.24
9 12 1 3.54 3.32 0.47
9 13 1 60.38 60.57 1.61
9 14 1 13.71 13.85 0.95
9 15 1 4.11 4.27 0.50
9 16 1 9.55 10.41 0.86
9 17 1 23.19 22.26 1.10
9 18 1 1.36 1.41 0.43
9 0 2 114.34 113.96 2.02
9 1 2 1.40 1.84 0.38
9 2 2 4.95 4.65 0.45
9 3 2 3.11 2.85 0.41
9 4 2 92.98 93.72 1.83
9 5 2 32.05 33.17 1.11
9 6 2 11.04 10.17 0.80
9 7 2 12.01 11.35 0.83
9 8 2 6.55 6.40 0.52
9 9 2 62.31 64.92 1.58
9 10 2 9.16 10.22 0.79
9 11 2 16.36 16.13 0.94
9 12 2 20.01 19.74 1.04
9 13 2 34.36 35.94 1.30
9 14 2 11.37 10.78 0.80
9 15 2 10.14 11.07 0.86
9 16 2 17.29 18.63 1.04
9 17 2 4.33 3.73 0.48
9 18 2 12.78 13.28 0.90
9 0 3 19.68 20.48 0.91
9 1 3 20.05 20.92 0.94
9 2 3 75.08 74.83 1.63
9 3 3 0.21 0.07 0.34
9 4 3 7.86 7.91 0.58
9 5 3 21.79 21.99 1.01
9 6 3 27.01 28.32 1.10
9 7 3 17.06 16.78 0.93
9 8 3 84.53 87.58 1.87
9 9 3 9.00 10.15 0.84
9 10 3 48.73 50.56 1.45
9 11 3 15.52 15.94 0.96
9 12 3 43.09 45.19 1.40
9 13 3 4.36 4.00 0.50
9 14 3 30.96 31.14 1.26
9 15 3 2.48 3.64 0.49
9 16 3 2.05 2.19 0.45
9 17 3 4.74 4.98 0.52
9 0 4 67.38 67.71 1.61
9 1 4 0.86 1.61 0.40
9 2 4 3.05 3.51 0.44
9 3 4 13.80 15.54 0.88
9 4 4 41.56 43.19 1.30
9 5 4 18.90 19.56 0.98
9 6 4 29.10 29.64 1.11
9 7 4 14.50 13.46 0.89
9 8 4 33.91 35.67 1.25
9 9 4 19.14 20.88 1.01
9 10 4 46.46 49.90 1.48
9 11 4 0.44 0.59 0.40
9 12 4 36.00 36.33 1.29
9 13 4 1.29 1.34 0.43
9 14 4 4.51 4.55 0.51
9 15 4 5.23 5.42 0.53
9 16 4 4.84 4.81 0.52
9 0 5 71.53 70.46 1.70
9 1 5 12.50 12.44 0.87
9 2 5 43.90 44.39 1.35
9 3 5 41.56 40.92 1.31
9 4 5 13.84 13.48 0.90
9 5 5 0.63 1.16 0.40
9 6 5 17.04 18.14 1.00
9 7 5 37.10 37.32 1.28
9 8 5 19.93 20.98 1.04
9 9 5 1.52 1.63 0.43
9 10 5 2.65 2.96 0.47
9 11 5 21.21 21.14 1.07
9 12 5 11.05 11.87 0.89
9 13 5 9.38 7.92 0.66
9 14 5 2.23 2.85 0.47
9 15 5 9.65 9.62 0.77
9 0 6 0.37 0.90 0.40
9 1 6 2.61 2.91 0.46
9 2 6 16.34 16.31 0.97
9 3 6 29.92 30.83 1.19
9 4 6 9.68 9.34 0.75
9 5 6 11.47 11.03 0.87
9 6 6 9.30 10.28 0.84
9 7 6 16.25 16.28 0.99
9 8 6 3.32 3.25 0.49
9 9 6 22.24 24.20 1.12
9 10 6 5.43 5.31 0.58
9 11 6 22.36 21.47 1.09
9 12 6 7.91 9.36 0.75
9 13 6 8.34 7.98 0.58
9 0 7 19.17 18.65 1.04
9 1 7 5.53 6.16 0.61
9 2 7 21.66 21.07 1.10
9 3 7 5.19 5.60 0.53
9 4 7 20.98 19.98 1.09
9 5 7 19.17 20.46 1.09
9 6 7 63.61 64.32 1.68
9 7 7 1.04 1.37 0.43
9 8 7 21.68 21.47 1.06
9 9 7 12.30 11.71 0.94
9 10 7 12.81 13.65 0.94
9 11 7 1.32 1.43 0.43
9 0 8 4.04 4.47 0.51
9 1 8 2.40 2.39 0.45
9 2 8 3.00 3.00 0.47
9 3 8 13.20 13.88 0.96
9 4 8 23.73 24.01 1.15
9 5 8 7.74 7.08 0.63
9 6 8 17.03 19.26 1.02
9 7 8 28.98 29.88 1.22
9 8 8 4.33 5.16 0.52
10 0 0 276.16 278.09 3.65
10 1 0 0.00 0.08 0.75
10 2 0 10.05 10.47 0.80
10 3 0 1.29 1.78 0.41
10 4 0 119.59 121.52 2.20
10 5 0 11.82 10.69 0.83
10 6 0 23.76 24.98 1.07
10 7 0 1.04 1.35 0.41
10 8 0 3.40 3.14 0.47
10 9 0 20.34 18.89 1.01
10 10 0 4.34 3.78 0.48
10 11 0 1.97 2.49 0.45
10 12 0 1.10 1.97 0.45
10 14 0 7.39 7.60 0.72
10 15 0 1.36 1.62 0.43
10 16 0 0.45 0.16 0.39
10 0 1 0.71 0.76 0.38
10 1 1 40.65 41.76 1.29
10 2 1 12.49 13.48 0.81
10 3 1 19.00 19.49 0.96
10 4 1 14.18 13.36 0.90
10 5 1 5.89 5.92 0.57
10 6 1 41.19 42.29 1.32
10 7 1 11.82 12.07 0.79
10 8 1 2.08 2.22 0.44
10 9 1 8.88 10.27 0.85
10 10 1 11.05 11.26 0.87
10 11 1 49.99 49.58 1.49
10 12 1 10.41 9.13 0.78
10 13 1 9.56 9.51 0.69
10 14 1 9.58 9.03 0.77
10 15 1 17.07 17.30 1.01
10 16 1 2.25 2.40 0.45
10 0 2 54.96 52.78 1.46
10 1 2 3.89 3.75 0.47
10 2 2 51.12 51.72 1.46
10 3 2 13.48 14.70 0.89
10 4 2 17.28 19.20 0.96
10 5 2 6.20 5.46 0.51
10 6 2 2.51 2.75 0.45
10 7 2 37.48 37.76 1.27
10 8 2 7.91 7.55 0.71
10 9 2 2.37 2.76 0.46
10 10 2 33.07 33.32 1.27
10 11 2 45.69 45.52 1.45
10 12 2 1.63 2.38 0.46
10 13 2 0.58 0.99 0.42
10 14 2 36.16 35.50 1.30
10 15 2 33.89 34.09 1.28
10 0 3 8.88 7.75 0.71
10 1 3 0.72 0.74 0.39
10 2 3 15.78 15.45 0.91
10 3 3 5.12 5.21 0.51
10 4 3 15.90 15.94 0.93
10 5 3 8.48 8.43 0.64
10 6 3 57.75 58.96 1.56
10 7 3 2.28 2.48 0.45
10 9 3 10.78 11.08 0.88
10 10 3 24.50 23.55 1.15
10 11 3 1.76 1.86 0.44
10 12 3 21.20 22.45 1.09
10 13 3 28.23 28.03 1.21
10 14 3 2.08 2.58 0.46
10 15 3 4.17 2.54 0.45
10 0 4 2.88 3.27 0.47
10 1 4 8.75 8.98 0.73
10 2 4 14.61 15.10 0.91
10 3 4 19.16 18.34 1.03
10 4 4 13.78 15.94 0.95
10 5 4 34.75 33.42 1.26
10 6 4 4.72 4.00 0.49
10 7 4 40.00 40.04 1.39
10 8 4 21.45 22.65 1.11
10 9 4 13.92 16.04 0.98
10 10 4 23.11 23.44 1.14
10 11 4 20.70 21.65 1.10
10 12 4 1.11 1.57 0.43
10 13 4 0.83 0.98 0.41
10 14 4 20.99 20.29 1.06
10 0 5 17.18 18.45 1.01
10 1 5 32.33 33.39 1.25
10 2 5 32.89 31.06 1.25
10 3 5 1.14 1.31 0.43
10 4 5 22.90 23.75 1.11
10 5 5 57.41 58.58 1.63
10 6 5 18.40 20.33 1.07
10 7 5 2.58 2.26 0.46
10 8 5 12.01 12.88 0.91
10 9 5 43.49 42.57 1.42
10 10 5 12.62 13.46 0.96
10 11 5 2.23 2.22 0.45
10 12 5 10.99 9.58 0.79
10 0 6 0.09 0.18 0.42
10 1 6 9.70 9.54 0.65
10 2 6 12.03 12.00 0.94
10 3 6 0.18 0.45 0.40
10 4 6 2.05 2.03 0.45
10 5 6 3.47 4.06 0.50
10 6 6 3.53 3.25 0.48
10 7 6 13.25 13.42 0.86
10 8 6 5.95 6.44 0.55
10 9 6 6.94 6.84 0.62
10 10 6 15.21 16.04 0.97
10 0 7 3.23 3.49 0.49
10 1 7 4.83 5.96 0.54
10 2 7 88.74 87.76 1.97
10 3 7 3.50 3.78 0.49
10 4 7 9.18 9.50 0.78
10 5 7 4.68 4.76 0.51
10 6 7 37.71 38.02 1.32
10 7 7 11.61 12.04 0.93
11 1 0 0.57 0.80 0.40
11 2 0 192.39 189.56 2.96
11 3 0 10.88 10.74 0.80
11 4 0 0.86 0.68 0.40
11 5 0 0.43 0.39 0.40
11 6 0 17.11 20.37 1.06
11 7 0 60.24 60.48 1.62
11 8 0 0.45 0.92 0.42
11 9 0 1.22 1.76 0.44
11 10 0 11.29 10.73 0.81
11 11 0 55.18 57.44 1.58
11 12 0 5.23 4.61 0.51
11 13 0 11.04 10.02 0.81
11 0 1 0.03 0.32 0.38
11 1 1 31.94 31.48 1.22
11 2 1 1.51 1.63 0.43
11 3 1 9.96 8.88 0.75
11 4 1 8.20 8.35 0.64
11 5 1 27.39 27.07 1.17
11 6 1 1.66 1.69 0.44
11 7 1 27.74 29.46 1.19
11 8 1 14.89 15.59 0.99
11 9 1 2.88 2.18 0.45
11 10 1 7.26 8.24 0.66
11 11 1 5.45 5.39 0.53
11 12 1 0.77 0.89 0.41
11 13 1 14.04 13.94 0.82
11 0 2 8.92 7.78 0.71
11 1 2 9.56 10.45 0.85
11 2 2 17.48 15.04 0.99
11 3 2 22.58 21.65 1.10
11 4 2 11.03 13.38 0.90
11 5 2 1.04 1.53 0.44
11 6 2 1.90 2.01 0.45
11 7 2 20.16 20.56 1.07
11 8 2 8.79 9.73 0.78
11 9 2 2.23 2.35 0.46
11 10 2 3.31 3.31 0.48
11 11 2 21.58 22.45 1.10
11 12 2 6.83 6.19 0.60
11 0 3 16.84 16.49 0.99
11 1 3 19.25 20.12 1.04
11 2 3 9.43 9.02 0.75
11 3 3 0.93 0.63 0.40
11 4 3 29.55 28.67 1.21
11 5 3 17.37 19.89 1.03
11 6 3 17.58 18.89 1.04
11 7 3 13.52 13.03 0.94
11 8 3 16.30 15.91 1.03
11 9 3 2.70 3.25 0.47
11 10 3 3.76 3.83 0.49
11 11 3 18.52 16.88 1.04
11 0 4 7.83 7.24 0.64
11 1 4 13.84 15.07 0.97
11 2 4 28.18 28.71 1.20
11 3 4 35.85 36.69 1.32
11 4 4 7.39 7.71 0.59
11 5 4 3.47 3.38 0.48
11 6 4 15.77 17.08 0.98
11 7 4 5.54 5.26 0.53
11 8 4 1.00 1.46 0.43
11 9 4 12.81 11.31 0.81
11 10 4 4.10 3.50 0.48
11 0 5 7.68 9.30 0.69
11 1 5 14.92 15.02 1.00
11 2 5 36.03 36.30 1.32
11 3 5 22.99 23.49 1.09
11 4 5 2.27 2.50 0.45
11 5 5 3.76 3.19 0.47
11 6 5 47.79 49.89 1.52
11 7 5 11.57 12.62 0.90
11 8 5 0.06 0.27 0.41
11 0 6 19.98 18.85 1.06
11 1 6 5.15 4.95 0.52
11 2 6 0.46 0.95 0.44
11 3 6 28.50 28.80 1.19
11 4 6 6.62 7.22 0.62
12 0 0 10.08 9.25 0.69
12 1 0 13.10 14.34 0.97
12 2 0 5.31 5.54 0.59
12 3 0 25.90 25.58 1.16
12 4 0 2.19 2.40 0.45
12 5 0 18.33 18.15 1.01
12 6 0 21.71 21.09 1.06
12 7 0 7.57 8.31 0.59
12 8 0 0.55 0.62 0.41
12 9 0 37.29 37.01 1.32
12 0 1 12.14 12.75 0.91
12 1 1 4.87 5.29 0.53
12 2 1 4.67 3.93 0.50
12 3 1 24.77 23.13 1.14
12 4 1 7.68 9.13 0.71
12 5 1 37.96 35.57 1.32
12 6 1 0.20 0.53 0.40
12 7 1 21.48 23.48 1.13
12 8 1 9.22 10.39 0.88
12 0 2 0.82 1.02 0.42
12 1 2 5.35 5.30 0.53
12 2 2 50.29 48.97 1.52
12 3 2 1.20 1.57 0.43
12 4 2 9.40 8.92 0.77
12 5 2 8.13 7.98 0.64
12 6 2 16.15 15.58 1.01
12 7 2 5.03 5.05 0.52
12 8 2 5.78 5.48 0.59
12 0 3 0.20 1.10 0.86
12 1 3 16.52 18.58 1.00
12 2 3 0.35 0.85 0.42
12 3 3 20.65 21.41 1.09
12 4 3 1.14 1.91 0.44
12 5 3 6.89 7.25 0.71
12 6 3 1.05 0.92 0.41
12 0 4 12.41 14.63 0.95
12 1 4 45.60 45.42 1.43
12 2 4 7.86 9.35 0.86
12 3 4 17.14 17.66 1.02
