#------------------------------------------------------------------------------
#$Date: 2022-03-02 05:20:08 +0200 (Wed, 02 Mar 2022) $
#$Revision: 273207 $
#$URL: file:///home/coder/svn-repositories/cod/cif/1/56/64/1566428.cif $
#------------------------------------------------------------------------------
#
# This file is available in the Crystallography Open Database (COD),
# http://www.crystallography.net/. The original data for this entry
# were provided by IUCr Journals, http://journals.iucr.org/.
#
# The file may be used within the scientific community so long as
# proper attribution is given to the journal article from which the
# data were obtained.
#
data_1566428
loop_
_publ_author_name
'Ruth, Paul Niklas'
'Herbst-Irmer, Regine'
'Stalke, Dietmar'
_publ_section_title
;
 Hirshfeld atom refinement based on projector augmented wave densities
 with periodic boundary conditions
;
_journal_issue                   2
_journal_name_full               IUCrJ
_journal_page_first              286
_journal_page_last               297
_journal_paper_doi               10.1107/S2052252522001385
_journal_volume                  9
_journal_year                    2022
_chemical_formula_sum            'C3 H7 N O2'
_chemical_formula_weight         89.10
_space_group_crystal_system      orthorhombic
_space_group_IT_number           19
_space_group_name_Hall           'P 2ac 2ab'
_space_group_name_H-M_alt        'P 21 21 21'
_atom_sites_solution_hydrogens   difmap
_audit_creation_method           SHELXL-2018/3
_cell_angle_alpha                90
_cell_angle_beta                 90
_cell_angle_gamma                90
_cell_formula_units_Z            4
_cell_length_a                   5.9279(10)
_cell_length_b                   12.2597(17)
_cell_length_c                   5.7939(9)
_cell_measurement_temperature    23(2)
_cell_volume                     421.07(11)
_computing_structure_refinement  'SHELXL-2018/3 (Sheldrick, 2018)'
_diffrn_ambient_temperature      23(2)
_diffrn_measured_fraction_theta_full 0.973
_diffrn_measured_fraction_theta_max 0.948
_diffrn_radiation_type           MoK\a
_diffrn_radiation_wavelength     0.71073
_diffrn_reflns_av_unetI/netI     0.0239
_diffrn_reflns_Laue_measured_fraction_full 0.973
_diffrn_reflns_Laue_measured_fraction_max 0.948
_diffrn_reflns_number            2404
_diffrn_reflns_point_group_measured_fraction_full 0.605
_diffrn_reflns_point_group_measured_fraction_max 0.541
_diffrn_reflns_theta_full        25.242
_diffrn_reflns_theta_max         50.138
_diffrn_reflns_theta_min         3.323
_exptl_absorpt_coefficient_mu    0.117
_exptl_crystal_density_diffrn    1.405
_exptl_crystal_F_000             192
_refine_diff_density_max         0.525
_refine_diff_density_min         -0.309
_refine_diff_density_rms         0.059
_refine_ls_abs_structure_details
;
No quotients, so Flack parameter determined by classical intensity fit
;
_refine_ls_abs_structure_Flack   0.2(7)
_refine_ls_extinction_method     none
_refine_ls_goodness_of_fit_ref   2.281
_refine_ls_hydrogen_treatment    refall
_refine_ls_matrix_type           full
_refine_ls_number_parameters     83
_refine_ls_number_reflns         2404
_refine_ls_number_restraints     0
_refine_ls_restrained_S_all      2.281
_refine_ls_R_factor_all          0.0287
_refine_ls_R_factor_gt           0.0283
_refine_ls_shift/su_max          0.000
_refine_ls_shift/su_mean         0.000
_refine_ls_structure_factor_coef Fsqd
_refine_ls_weighting_details     'w=1/[\s^2^(Fo^2^)] where P=(Fo^2^+2Fc^2^)/3'
_refine_ls_weighting_scheme      calc
_refine_ls_wR_factor_gt          0.0633
_refine_ls_wR_factor_ref         0.0633
_reflns_Friedel_coverage         0.000
_reflns_Friedel_fraction_full    0.000
_reflns_Friedel_fraction_max     0.000
_reflns_number_gt                2372
_reflns_number_total             2404
_reflns_threshold_expression     'I > 2\s(I)'
_cod_data_source_file            fc5060.cif
_cod_data_source_block           A23_SHELXL_iam
_cod_database_code               1566428
_shelx_shelxl_version_number     2018/3
_shelx_space_group_comment
;
The symmetry employed for this shelxl refinement is uniquely defined
by the following loop, which should always be used as a source of
symmetry information in preference to the above space-group names.
They are only intended as comments.
;
_shelx_res_file
;
TITL L-Ala_23K_P 21 21 21   R = 0.03
    iam.res
    created by SHELXL-2018/3 at 22:03:48 on 17-Feb-2021
CELL  0.71073    5.9279   12.2597    5.7939    90.000    90.000    90.000
ZERR        4    0.0010    0.0017    0.0009     0.000     0.000     0.000
LATT  -1
SYMM     0.50000 - X ,            - Y ,    0.50000 + Z
SYMM     0.50000 + X ,    0.50000 - Y ,            - Z
SYMM             - X ,    0.50000 + Y ,    0.50000 - Z
SFAC  C  H  N  O
UNIT    12   28   4   8
LIST 4! automatically inserted. Change 6 to 4 for CHECKCIF!!
TEMP  -250
ACTA
L.S. 100
FMAP 2
PLAN -20
ACTA
BOND $H
CONF
WGHT    0.000000
FVAR       0.99645
O1    4    0.727073    0.083733    0.624342    11.00000    0.00679    0.00706 =
         0.00697    0.00064   -0.00056    0.00217
O2    4    0.440895    0.184100    0.761270    11.00000    0.00797    0.00793 =
         0.00421   -0.00072    0.00098    0.00162
N1    3    0.647301    0.137422    0.182811    11.00000    0.00581    0.00653 =
         0.00462   -0.00022    0.00065    0.00013
H1    2    0.697996    0.064872    0.189182    11.00000    0.03066
H2    2    0.768594    0.182813    0.200996    11.00000    0.01702
H3    2    0.578949    0.145959    0.016300    11.00000    0.03011
C1    1    0.466184    0.161057    0.354883    11.00000    0.00558    0.00544 =
         0.00393   -0.00004    0.00002    0.00050
H4    2    0.423470    0.239960    0.343428    11.00000    0.00634
C2    1    0.259888    0.090728    0.303298    11.00000    0.00630    0.00946 =
         0.00661   -0.00047   -0.00060   -0.00125
H5    2    0.201752    0.108887    0.151609    11.00000    0.01641
H6    2    0.143957    0.107627    0.423033    11.00000    0.01332
H7    2    0.301527    0.009722    0.309176    11.00000    0.01829
C3    1    0.553990    0.140796    0.599944    11.00000    0.00562    0.00427 =
         0.00420    0.00007   -0.00041   -0.00046
HKLF 4




REM  L-Ala_23K_P 21 21 21   R = 0.03
REM wR2 = 0.0633, GooF = S = 2.281, Restrained GooF = 2.281 for all data
REM R1 = 0.0283 for 2372 Fo > 4sig(Fo) and 0.0287 for all 2404 data
REM 83 parameters refined using 0 restraints

END

WGHT      0.0402      0.0156

REM Highest difference peak  0.525,  deepest hole -0.309,  1-sigma level  0.059
Q1    1   0.4994  0.1610  0.6810  11.00000  0.05    0.52
Q2    1   0.6524  0.1252  0.6180  11.00000  0.05    0.45
Q3    1   0.3617  0.1227  0.3326  11.00000  0.05    0.36
Q4    1   0.5064  0.1470  0.4486  11.00000  0.05    0.36
Q5    1   0.6236  0.1421  0.0786  11.00000  0.05    0.34
Q6    1   0.7710  0.0888  0.7167  11.00000  0.05    0.32
Q7    1   0.7152  0.0899  0.5206  11.00000  0.05    0.31
Q8    1   0.5653  0.1460  0.2660  11.00000  0.05    0.28
Q9    1   0.4989  0.1577  0.8212  11.00000  0.05    0.27
Q10   1   0.3407  0.1821  0.7179  11.00000  0.05    0.26
Q11   1   0.6827  0.0946  0.1875  11.00000  0.05    0.25
Q12   1   0.3666  0.2157  0.7625  11.00000  0.05    0.25
Q13   1   0.4538  0.2044  0.3668  11.00000  0.05    0.24
Q14   1   0.7647  0.0573  0.5454  11.00000  0.05    0.24
Q15   1   0.3990  0.1473  0.7096  11.00000  0.05    0.24
Q16   1   0.7100  0.0445  0.5613  11.00000  0.05    0.24
Q17   1   0.2884  0.0457  0.2943  11.00000  0.05    0.22
Q18   1   0.5022  0.2125  0.6947  11.00000  0.05    0.22
Q19   1   0.1720  0.0885  0.2365  11.00000  0.05    0.20
Q20   1   0.2280  0.0991  0.2163  11.00000  0.05    0.20
;
_shelx_res_checksum              64818
_shelx_hkl_file
;
   0   2   0  176.45    1.69   1
   0   4   0 4978.68   42.76   1
   0   6   0   86.11    1.00   1
   0   8   0   43.54    0.69   1
   0  10   0    0.77    0.37   1
   0  12   0  223.48    2.56   1
   0  14   0   56.23    1.09   1
   0  16   0   24.24    0.83   1
   0  18   0  218.56    2.87   1
   0  22   0  130.13    2.27   1
   0  26   0    6.19    0.60   1
   0   1   1  695.51    7.05   1
   0   2   1  114.77    1.17   1
   0   3   1  680.31    6.16   1
   0   4   1   94.35    1.03   1
   0   6   1  456.02    4.40   1
   0   7   1   35.45    0.59   1
   0   8   1   42.59    0.70   1
   0   9   1   30.80    0.64   1
   0  10   1  131.83    1.63   1
   0  11   1   64.06    1.07   1
   0  12   1   73.30    1.19   1
   0  13   1   18.08    0.67   1
   0  14   1   36.39    0.91   1
   0  15   1   87.34    1.50   1
   0  17   1    1.09    0.36   1
   0  18   1   57.49    1.32   1
   0  19   1   15.51    0.87   1
   0  20   1   26.35    1.02   1
   0  21   1    2.58    0.42   1
   0  23   1    1.66    0.44   1
   0  25   1    2.87    0.56   1
   0  26   1   18.99    1.20   1
   0   0   2 2729.03   32.07   1
   0   1   2  511.90    6.31   1
   0   2   2  174.33    2.00   1
   0   3   2   53.95    0.77   1
   0   4   2  164.38    1.72   1
   0   5   2  544.21    5.12   1
   0   6   2   92.85    1.12   1
   0   7   2    5.20    0.33   1
   0   8   2  107.27    1.35   1
   0   9   2   22.74    0.58   1
   0  10   2   44.41    0.83   1
   0  11   2   80.44    1.22   1
   0  12   2   27.12    0.73   1
   0  13   2   20.63    0.68   1
   0  14   2   20.44    0.73   1
   0  15   2  174.09    2.30   1
   0  16   2    4.27    0.40   1
   0  17   2   58.63    1.34   1
   0  18   2   19.59    0.89   1
   0  19   2  115.10    2.02   1
   0  20   2    0.94    0.45   1
   0  21   2   44.11    1.32   1
   0  22   2   35.35    1.25   1
   0  23   2   17.29    1.00   1
   0  24   2    2.39    0.46   1
   0  25   2   21.57    1.23   1
   0  26   2    2.46    0.50   1
   0   1   3   80.64    1.69   1
   0   2   3  151.47    2.82   1
   0   3   3  197.23    2.36   1
   0   4   3  709.53    7.48   1
   0   5   3   78.07    1.15   1
   0   6   3  261.48    2.74   1
   0   7   3   21.51    0.55   1
   0   8   3   59.19    0.96   1
   0   9   3  137.03    1.72   1
   0  10   3   38.04    0.80   1
   0  11   3   67.56    1.14   1
   0  12   3  114.17    1.63   1
   0  13   3  139.70    1.93   1
   0  14   3   26.71    0.83   1
   0  15   3   86.85    1.53   1
   0  16   3  148.61    2.18   1
   0  17   3   45.33    1.20   1
   0  18   3   25.92    0.96   1
   0  19   3    2.40    0.41   1
   0  20   3   42.66    1.29   1
   0  21   3    0.84    0.42   1
   0  22   3    1.11    0.43   1
   0  23   3   27.03    1.13   1
   0  24   3   12.21    0.89   1
   0  25   3    4.78    0.57   1
   0   0   4  201.30    3.76   1
   0   1   4   38.23    1.16   1
   0   2   4   89.34    1.98   1
   0   3   4    7.68    0.44   1
   0   4   4  220.31    2.73   1
   0   5   4    0.65    0.43   1
   0   6   4   68.10    1.18   1
   0   7   4   28.05    0.75   1
   0   8   4   61.91    1.04   1
   0   9   4    6.91    0.45   1
   0  10   4   86.73    1.33   1
   0  11   4   94.07    1.46   1
   0  12   4   37.45    0.93   1
   0  13   4   11.03    0.63   1
   0  14   4  136.74    2.01   1
   0  15   4   43.46    1.14   1
   0  16   4   90.90    1.68   1
   0  17   4    5.48    0.45   1
   0  18   4    9.25    0.73   1
   0  19   4    3.23    0.44   1
   0  20   4    1.76    0.42   1
   0  22   4    4.18    0.49   1
   0  24   4   25.51    1.10   1
   0  25   4    2.78    0.51   1
   0   1   5  226.68    4.36   1
   0   2   5  131.80    2.85   1
   0   3   5   47.25    1.49   1
   0   4   5  373.55    4.41   1
   0   5   5  170.63    2.34   1
   0   6   5    0.74    0.47   1
   0   7   5    6.36    0.52   1
   0   8   5  139.43    2.10   1
   0   9   5   66.59    1.37   1
   0  10   5    7.63    0.54   1
   0  11   5   19.92    0.76   1
   0  12   5    1.43    0.34   1
   0  13   5   76.02    1.45   1
   0  14   5    3.38    0.40   1
   0  15   5   13.54    0.77   1
   0  16   5   12.75    0.78   1
   0  17   5   73.94    1.60   1
   0  18   5    2.24    0.42   1
   0  19   5   13.08    0.87   1
   0  21   5   18.85    1.01   1
   0  22   5    5.28    0.52   1
   0  23   5   12.02    0.94   1
   0   1   6   90.01    2.37   1
   0   2   6   15.56    1.00   1
   0   3   6    1.43    0.71   1
   0   4   6   15.35    1.06   1
   0   5   6   82.81    1.52   1
   0   6   6   10.73    0.64   1
   0   7   6  136.38    2.16   1
   0   8   6   28.80    0.95   1
   0   9   6   13.78    0.75   1
   0  10   6   14.98    0.80   1
   0  11   6  112.53    1.83   1
   0  12   6    6.06    0.55   1
   0  13   6    4.59    0.48   1
   0  14   6   11.22    0.72   1
   0  16   6   39.88    1.24   1
   0  17   6   27.96    1.07   1
   0  18   6    7.49    0.67   1
   0  19   6   42.45    1.34   1
   0  20   6    1.77    0.44   1
   0  21   6   20.45    1.06   1
   0  22   6   10.16    0.76   1
   0  23   6   16.32    0.97   1
   0   1   7   56.43    1.99   1
   0   2   7  519.61    9.38   1
   0   4   7   11.31    1.08   1
   0   5   7   23.12    1.39   1
   0   6   7   41.44    1.18   1
   0   7   7   44.79    1.24   1
   0   8   7    1.87    0.44   1
   0   9   7    4.74    0.51   1
   0  10   7    8.85    0.80   1
   0  11   7   30.15    1.15   1
   0  12   7    5.61    0.63   1
   0  13   7   11.18    0.78   1
   0  14   7    1.42    0.40   1
   0  16   7   78.43    1.75   1
   0  17   7    1.01    0.43   1
   0  18   7    2.21    0.45   1
   0  19   7    6.59    0.55   1
   0  20   7  129.83    2.36   1
   0  21   7    0.88    0.43   1
   0   0   8   23.50    1.47   1
   0   1   8    3.44    0.98   1
   0   2   8    8.36    1.14   1
   0   3   8   15.09    1.32   1
   0   4   8    1.66    1.09   1
   0   6   8    9.86    0.80   1
   0   7   8   57.25    1.51   1
   0   8   8   84.01    1.86   1
   0   9   8   11.78    0.85   1
   0  10   8    6.28    0.69   1
   0  11   8   38.49    1.36   1
   0  12   8   38.62    1.40   1
   0  13   8   30.87    1.31   1
   0  14   8   12.04    0.96   1
   0  16   8    0.96    0.43   1
   0  17   8    6.31    0.54   1
   0  19   8    8.86    0.75   1
   0  20   8    5.91    0.52   1
   0   1   9    8.18    1.16   1
   0   2   9   44.53    2.13   1
   0   3   9   60.82    2.45   1
   0   4   9   21.33    1.59   1
   0   7   9   44.67    1.48   1
   0   8   9   76.48    1.88   1
   0   9   9   15.82    1.04   1
   0  10   9   13.30    1.00   1
   0  11   9    2.15    0.54   1
   0  12   9   33.50    1.35   1
   0  13   9   27.98    1.30   1
   0  15   9   45.42    1.59   1
   0  16   9   13.88    1.07   1
   0  17   9   14.90    0.96   1
   0  18   9    8.24    0.63   1
   0   0  10    4.62    1.27   1
   0   2  10   19.88    1.70   1
   0   3  10   47.01    2.35   1
   0   4  10   27.21    1.90   1
   0   5  10   31.40    2.01   1
   0   6  10   39.95    2.27   1
   0   7  10   52.18    2.53   1
   0   8  10   57.80    1.74   1
   0   9  10    6.47    0.65   1
   0  10  10    1.79    0.54   1
   0  11  10   15.73    1.12   1
   0  12  10   12.89    0.90   1
   0  13  10   12.04    1.03   1
   0  14  10   41.84    1.58   1
   0  15  10    5.62    0.64   1
   0   2  11    2.59    1.36   1
   0   3  11    6.52    1.51   1
   0   6  11    7.41    1.56   1
   0   7  11    2.97    1.48   1
   0   8  11    8.06    1.55   1
   0   9  11    7.68    0.76   1
   0  10  11    1.51    0.57   1
   0  11  11    8.02    0.83   1
   0  12  11   28.96    1.36   1
   0   1  12   25.94    2.21   1
   0   2  12   19.40    1.93   1
   0   3  12  111.59    3.83   1
   0   5  12    9.39    1.73   1
   0   6  12   53.56    2.68   1
   0   7  12   62.24    2.96   1
   1   1   0  241.51    2.28   1
   1   2   0 5269.05   55.94   1
   1   3   0   56.76    0.66   1
   1   4   0 1611.89   14.21   1
   1   5   0  324.96    3.16   1
   1   6   0   59.42    0.77   1
   1   7   0   18.49    0.42   1
   1   8   0  386.19    3.85   1
   1   9   0    3.13    0.34   1
   1  10   0   41.35    0.77   1
   1  11   0   93.04    1.31   1
   1  12   0   25.85    0.69   1
   1  13   0   55.05    1.04   1
   1  14   0    0.83    0.49   1
   1  15   0   82.89    1.43   1
   1  16   0   23.49    0.82   1
   1  17   0   28.37    0.93   1
   1  18   0    0.90    0.42   1
   1  19   0   32.39    1.06   1
   1  20   0   38.67    1.21   1
   1  21   0    1.38    0.45   1
   1  22   0    3.84    0.47   1
   1  23   0    6.73    0.59   1
   1  24   0    9.40    0.77   1
   1  26   0    7.03    0.63   1
   1   0   1   73.74    0.80   1
   1   1   1  128.27    1.31   1
   1   2   1   99.99    1.06   1
   1   3   1 1044.47    9.31   1
   1   4   1  150.81    1.58   1
   1   5   1  420.52    4.07   1
   1   6   1   21.02    0.42   1
   1   7   1  325.89    3.28   1
   1   8   1  225.29    2.39   1
   1   9   1  223.08    2.44   1
   1  10   1  126.02    1.61   1
   1  11   1   16.47    0.54   1
   1  13   1  122.58    1.71   1
   1  14   1   28.40    0.80   1
   1  15   1   84.15    1.46   1
   1  16   1   59.33    1.25   1
   1  17   1   24.42    0.88   1
   1  18   1   22.84    0.90   1
   1  19   1   14.70    0.81   1
   1  20   1    5.60    0.48   1
   1  21   1    1.98    0.42   1
   1  22   1   33.39    1.17   1
   1  23   1   10.24    0.87   1
   1  24   1   20.11    1.05   1
   1  25   1    9.12    0.80   1
   1  26   1    1.92    0.49   1
   1   0   2 2982.39   34.81   1
   1   1   2   68.83    0.90   1
   1   2   2  549.78    5.89   1
   1   3   2  186.41    1.95   1
   1   4   2 1022.12    9.27   1
   1   5   2   17.87    0.40   1
   1   6   2  210.81    2.22   1
   1   7   2  155.63    1.75   1
   1   8   2    9.84    0.42   1
   1   9   2   59.36    0.95   1
   1  10   2   57.12    0.96   1
   1  11   2  113.28    1.53   1
   1  12   2  110.84    1.56   1
   1  13   2  105.86    1.58   1
   1  14   2   52.55    1.09   1
   1  15   2   30.39    0.89   1
   1  16   2   26.54    0.91   1
   1  17   2   72.73    1.47   1
   1  18   2  105.74    1.86   1
   1  19   2   39.58    1.16   1
   1  20   2    9.32    0.69   1
   1  21   2   21.97    0.99   1
   1  22   2   35.13    1.23   1
   1  23   2   41.69    1.38   1
   1  24   2   10.23    0.78   1
   1  26   2    4.31    0.55   1
   1   0   3   30.78    0.89   1
   1   1   3  290.60    5.04   1
   1   2   3  215.88    2.54   1
   1   3   3   88.11    1.23   1
   1   4   3   91.89    1.29   1
   1   5   3   22.12    0.51   1
   1   6   3  132.66    1.57   1
   1   7   3    4.98    0.37   1
   1   8   3  247.46    2.71   1
   1   9   3   27.87    0.68   1
   1  10   3   76.54    1.19   1
   1  11   3   16.01    0.58   1
   1  12   3   31.02    0.81   1
   1  13   3   32.47    0.88   1
   1  14   3  110.31    1.72   1
   1  15   3   32.17    0.95   1
   1  16   3    8.93    0.60   1
   1  17   3   24.04    0.91   1
   1  18   3   25.48    0.97   1
   1  19   3   26.14    1.02   1
   1  20   3    7.46    0.65   1
   1  21   3   22.65    1.02   1
   1  22   3    6.91    0.60   1
   1  23   3    2.64    0.46   1
   1  24   3    7.82    0.63   1
   1  25   3   17.20    1.13   1
   1   0   4  315.43    5.63   1
   1   1   4  249.79    4.56   1
   1   2   4   27.61    1.01   1
   1   3   4   22.49    0.62   1
   1   4   4  105.35    1.51   1
   1   5   4   80.39    1.29   1
   1   6   4  125.22    1.80   1
   1   7   4   80.42    1.18   1
   1   8   4   43.39    0.85   1
   1   9   4    2.09    0.39   1
   1  10   4   21.81    0.68   1
   1  11   4   59.89    1.13   1
   1  12   4  135.32    1.92   1
   1  13   4   26.06    0.83   1
   1  14   4   37.86    1.03   1
   1  15   4    2.86    0.39   1
   1  16   4   22.65    0.88   1
   1  17   4   26.98    0.99   1
   1  18   4   56.28    1.41   1
   1  19   4   39.20    1.21   1
   1  20   4    8.88    0.78   1
   1  21   4   10.38    0.77   1
   1  22   4   20.91    1.02   1
   1  23   4   14.49    0.94   1
   1  24   4    2.05    0.44   1
   1   0   5  273.34    5.12   1
   1   1   5  117.60    2.62   1
   1   2   5  445.45    7.84   1
   1   3   5  169.35    3.51   1
   1   4   5  103.86    1.63   1
   1   5   5    8.22    0.52   1
   1   6   5  220.70    2.90   1
   1   7   5   70.09    1.34   1
   1   8   5   66.60    1.33   1
   1   9   5   86.50    1.41   1
   1  10   5    9.14    0.56   1
   1  11   5   34.45    0.92   1
   1  12   5   24.09    0.83   1
   1  13   5   42.97    1.11   1
   1  14   5   38.62    1.08   1
   1  15   5   28.67    0.99   1
   1  16   5   75.52    1.58   1
   1  17   5   11.01    0.78   1
   1  18   5    6.69    0.63   1
   1  19   5   17.95    0.95   1
   1  20   5   62.12    1.59   1
   1  21   5   24.12    1.08   1
   1  22   5    1.66    0.44   1
   1  23   5    4.40    0.49   1
   1  24   5   16.75    0.97   1
   1   2   6    7.25    0.82   1
   1   3   6   11.94    0.97   1
   1   4   6   15.37    1.06   1
   1   5   6   12.77    0.65   1
   1   6   6   21.03    0.79   1
   1   7   6    7.47    0.61   1
   1   8   6    8.74    0.67   1
   1   9   6   10.64    0.75   1
   1  10   6    2.34    0.44   1
   1  11   6    9.45    0.66   1
   1  12   6   27.86    0.93   1
   1  13   6    7.24    0.59   1
   1  14   6   26.91    0.97   1
   1  15   6   10.58    0.80   1
   1  16   6    2.86    0.43   1
   1  17   6   20.68    0.97   1
   1  18   6   13.31    0.87   1
   1  19   6   11.34    0.84   1
   1  20   6   30.36    1.21   1
   1  21   6    9.04    0.76   1
   1  22   6    8.29    0.74   1
   1  23   6   11.56    0.87   1
   1   0   7  238.19    4.98   1
   1   1   7   25.80    1.41   1
   1   2   7   58.95    2.05   1
   1   3   7   78.25    2.41   1
   1   4   7  135.76    3.40   1
   1   5   7   29.38    1.01   1
   1   6   7   59.31    1.42   1
   1   7   7    9.14    0.75   1
   1   8   7   54.14    1.40   1
   1   9   7   64.73    1.56   1
   1  10   7   18.03    0.94   1
   1  11   7   20.99    0.88   1
   1  12   7    1.83    0.47   1
   1  13   7   40.69    1.21   1
   1  14   7   23.66    1.02   1
   1  15   7   31.06    1.14   1
   1  16   7   24.85    1.04   1
   1  17   7   19.71    0.99   1
   1  18   7   41.37    1.35   1
   1  19   7    6.49    0.60   1
   1  20   7   14.84    0.96   1
   1  21   7    8.94    0.65   1
   1   0   8   10.04    1.19   1
   1   1   8   33.96    1.74   1
   1   2   8   19.08    1.41   1
   1   3   8   30.87    1.66   1
   1   4   8   31.51    1.71   1
   1   5   8   98.29    3.01   1
   1   6   8   14.46    0.90   1
   1   7   8   87.82    1.89   1
   1   8   8    3.12    0.49   1
   1   9   8   49.25    1.47   1
   1  10   8   38.19    1.34   1
   1  11   8   91.84    2.05   1
   1  12   8   11.32    0.95   1
   1  13   8   27.22    1.23   1
   1  14   8    1.15    0.55   1
   1  15   8   44.49    1.34   1
   1  16   8    5.37    0.51   1
   1  17   8   25.79    1.15   1
   1  18   8    5.25    0.51   1
   1  19   8    2.18    0.45   1
   1   1   9    2.15    1.10   1
   1   2   9   49.55    2.20   1
   1   4   9    3.13    1.20   1
   1   5   9   27.49    1.79   1
   1   6   9    9.66    1.29   1
   1   7   9   15.26    0.99   1
   1   8   9    8.03    0.73   1
   1   9   9   19.07    1.09   1
   1  10   9   28.44    1.28   1
   1  11   9   44.32    1.53   1
   1  12   9    8.60    0.81   1
   1  13   9   15.47    1.11   1
   1  14   9    7.62    0.81   1
   1  15   9   21.38    1.21   1
   1  16   9   41.28    1.54   1
   1  17   9   17.59    1.02   1
   1  18   9   11.12    0.88   1
   1   0  10    3.34    1.24   1
   1   1  10   24.74    1.84   1
   1   3  10   19.38    1.68   1
   1   4  10   20.87    1.79   1
   1   5  10   31.43    2.04   1
   1   6  10   40.00    2.25   1
   1   7  10   30.48    2.06   1
   1   8  10   23.58    1.22   1
   1   9  10    7.10    0.80   1
   1  10  10   53.82    1.75   1
   1  11  10   15.67    1.12   1
   1  12  10   43.82    1.59   1
   1  14  10    6.32    0.66   1
   1  15  10   10.13    0.87   1
   1   1  11   11.54    1.61   1
   1   2  11   32.52    2.21   1
   1   3  11   22.50    1.92   1
   1   4  11   11.45    1.62   1
   1   5  11    5.91    1.48   1
   1   6  11    3.80    1.43   1
   1   7  11    8.28    1.59   1
   1   8  11   15.03    1.16   1
   1   9  11   22.61    1.27   1
   1  10  11   18.01    1.19   1
   1  11  11    3.46    0.59   1
   1  12  11    1.55    0.56   1
   1   0  12   17.19    1.90   1
   1   1  12   73.07    3.09   1
   1   2  12    7.98    1.77   1
   1   3  12    3.11    1.74   1
   1   4  12   27.93    2.17   1
   1   5  12   65.97    3.03   1
   1   6  12    2.75    1.74   1
   1   7  12   21.98    2.05   1
   2   0   0   40.26    0.52   1
   2   1   0   29.88    0.43   1
   2   2   0 1611.86   14.23   1
   2   3   0  755.25    6.90   1
   2   4   0   34.42    0.51   1
   2   5   0   87.50    1.04   1
   2   6   0 1998.27   17.78   1
   2   7   0  282.04    2.90   1
   2   8   0    0.73    0.33   1
   2   9   0  225.59    2.49   1
   2  10   0  244.21    2.68   1
   2  11   0    2.32    0.36   1
   2  12   0   41.67    0.88   1
   2  13   0  161.28    2.06   1
   2  14   0   10.50    0.59   1
   2  15   0   67.16    1.28   1
   2  16   0   35.52    0.99   1
   2  17   0   34.26    1.01   1
   2  18   0   41.96    1.16   1
   2  19   0   36.26    1.12   1
   2  20   0    0.89    0.40   1
   2  21   0    7.43    0.63   1
   2  22   0   14.52    0.90   1
   2  23   0   10.72    0.86   1
   2  24   0   31.10    1.20   1
   2  25   0    3.96    0.58   1
   2  26   0    1.03    0.49   1
   2   0   1    1.57    0.16   1
   2   1   1   74.90    0.85   1
   2   2   1  266.36    2.63   1
   2   3   1  515.08    4.86   1
   2   4   1  151.52    1.60   1
   2   5   1  409.78    4.00   1
   2   6   1   22.00    0.47   1
   2   7   1   94.08    1.19   1
   2   8   1    4.65    0.36   1
   2   9   1  262.31    2.83   1
   2  10   1    8.36    0.45   1
   2  11   1    4.56    0.43   1
   2  12   1   39.08    0.86   1
   2  13   1   76.64    1.30   1
   2  14   1   42.96    0.99   1
   2  15   1   22.81    0.78   1
   2  16   1    3.42    0.39   1
   2  17   1    9.67    0.67   1
   2  18   1    9.56    0.71   1
   2  19   1   28.08    1.03   1
   2  20   1   68.81    1.58   1
   2  21   1   27.73    1.09   1
   2  22   1   22.41    1.04   1
   2  23   1    2.46    0.45   1
   2  24   1   39.51    1.30   1
   2  25   1   22.08    1.29   1
   2  26   1   29.26    1.41   1
   2   0   2    4.03    0.22   1
   2   1   2  296.34    2.94   1
   2   2   2 1041.31    9.45   1
   2   3   2  102.83    1.21   1
   2   4   2   85.53    1.05   1
   2   5   2    8.06    0.33   1
   2   6   2  280.49    2.90   1
   2   7   2  134.80    1.60   1
   2   8   2  138.36    1.69   1
   2   9   2  123.05    1.56   1
   2  10   2    2.54    0.37   1
   2  11   2   61.56    1.08   1
   2  12   2   55.04    1.05   1
   2  13   2   70.58    1.26   1
   2  14   2   32.48    0.88   1
   2  15   2   30.56    0.90   1
   2  16   2   70.33    1.41   1
   2  18   2   10.39    0.72   1
   2  19   2    1.09    0.38   1
   2  20   2   30.58    1.09   1
   2  21   2   29.05    1.13   1
   2  22   2    3.43    0.47   1
   2  23   2    2.44    0.45   1
   2  24   2    8.37    0.75   1
   2  25   2   38.34    1.61   1
   2   0   3  126.86    1.47   1
   2   1   3  134.83    1.52   1
   2   2   3  368.47    3.66   1
   2   3   3  430.49    4.27   1
   2   4   3   63.24    0.91   1
   2   5   3  239.53    2.57   1
   2   6   3   87.42    1.18   1
   2   7   3  104.33    1.36   1
   2   8   3  114.92    1.49   1
   2   9   3  278.03    3.07   1
   2  10   3  246.83    2.82   1
   2  11   3   11.54    0.57   1
   2  12   3   81.15    1.36   1
   2  13   3   42.14    0.99   1
   2  14   3   46.28    1.10   1
   2  15   3   16.30    0.77   1
   2  16   3    2.68    0.39   1
   2  17   3   12.26    0.73   1
   2  18   3    2.02    0.39   1
   2  19   3   37.33    1.18   1
   2  20   3    9.49    0.65   1
   2  21   3   41.63    1.33   1
   2  22   3    7.49    0.71   1
   2  23   3    5.01    0.56   1
   2  25   3   12.54    1.05   1
   2   0   4   54.54    1.48   1
   2   1   4  102.68    1.49   1
   2   2   4  125.99    1.76   1
   2   3   4  128.12    1.78   1
   2   4   4   12.49    0.55   1
   2   5   4   57.48    0.95   1
   2   6   4  103.94    1.40   1
   2   7   4   98.45    1.38   1
   2   8   4  111.90    1.54   1
   2   9   4   46.72    0.94   1
   2  10   4  132.87    1.81   1
   2  11   4   47.85    1.03   1
   2  12   4   12.18    0.64   1
   2  14   4   11.24    0.69   1
   2  15   4   12.33    0.73   1
   2  16   4   24.21    0.89   1
   2  17   4   37.23    1.15   1
   2  18   4   24.38    1.01   1
   2  19   4    8.37    0.69   1
   2  20   4   25.60    1.06   1
   2  21   4   19.48    1.01   1
   2  22   4   16.13    1.01   1
   2  23   4   22.53    1.04   1
   2  24   4    3.21    0.47   1
   2   0   5  138.81    3.00   1
   2   1   5   32.63    1.26   1
   2   2   5  154.99    2.16   1
   2   3   5   30.39    0.82   1
   2   4   5  142.51    2.05   1
   2   5   5   61.24    1.20   1
   2   6   5   11.99    0.62   1
   2   7   5   13.60    0.68   1
   2   8   5   60.27    1.13   1
   2   9   5   25.17    0.78   1
   2  10   5  133.18    1.90   1
   2  11   5   57.96    1.22   1
   2  12   5   13.75    0.72   1
   2  13   5    2.17    0.38   1
   2  14   5   88.80    1.66   1
   2  15   5   12.20    0.74   1
   2  16   5    1.09    0.38   1
   2  17   5    5.12    0.47   1
   2  18   5   42.58    1.32   1
   2  19   5   10.68    0.82   1
   2  20   5    1.35    0.44   1
   2  21   5    0.91    0.44   1
   2  22   5   20.14    1.01   1
   2  23   5   15.80    1.00   1
   2   0   6   73.47    2.14   1
   2   1   6   90.28    2.42   1
   2   2   6    2.22    0.75   1
   2   3   6    2.17    0.60   1
   2   4   6   21.74    0.80   1
   2   5   6   94.72    1.69   1
   2   7   6   74.12    1.51   1
   2   9   6    4.73    0.48   1
   2  10   6   11.64    0.67   1
   2  11   6  100.38    1.73   1
   2  12   6    7.57    0.53   1
   2  13   6   59.88    1.37   1
   2  14   6   10.82    0.73   1
   2  15   6   54.55    1.39   1
   2  16   6   14.77    0.87   1
   2  17   6   45.08    1.32   1
   2  18   6   47.70    1.41   1
   2  19   6    2.25    0.44   1
   2  20   6    3.66    0.48   1
   2  21   6   13.21    0.94   1
   2  22   6   43.92    1.37   1
   2   0   7    7.13    0.98   1
   2   1   7   42.21    1.77   1
   2   2   7   12.07    1.11   1
   2   3   7   13.92    1.17   1
   2   4   7  125.25    2.58   1
   2   5   7   68.23    1.52   1
   2   6   7   28.18    1.03   1
   2   7   7   80.40    1.72   1
   2   8   7   79.16    1.71   1
   2   9   7    4.79    0.52   1
   2  10   7    9.12    0.78   1
   2  11   7   93.80    1.99   1
   2  12   7    2.09    0.39   1
   2  13   7   47.01    1.31   1
   2  14   7   38.68    1.21   1
   2  15   7   31.49    1.16   1
   2  16   7    4.12    0.48   1
   2  17   7   48.84    1.43   1
   2  18   7    9.51    0.75   1
   2  19   7    6.74    0.62   1
   2  20   7    0.94    0.44   1
   2  21   7    9.99    0.78   1
   2   0   8   51.97    2.13   1
   2   1   8   56.53    2.23   1
   2   2   8   22.66    1.55   1
   2   3   8   27.90    1.64   1
   2   4   8   15.31    1.36   1
   2   5   8   54.33    1.48   1
   2   6   8   45.22    1.40   1
   2   7   8   40.19    1.32   1
   2   9   8   11.30    0.78   1
   2  10   8    1.35    0.52   1
   2  11   8    8.19    0.77   1
   2  13   8   30.20    1.32   1
   2  14   8    9.58    0.79   1
   2  15   8    6.74    0.69   1
   2  16   8    3.12    0.47   1
   2  17   8   22.58    1.10   1
   2  18   8    1.84    0.44   1
   2  19   8    6.46    0.54   1
   2   0   9   72.75    2.69   1
   2   1   9   16.80    1.47   1
   2   2   9  105.11    3.33   1
   2   3   9    5.15    1.12   1
   2   4   9   46.88    2.24   1
   2   5   9   11.02    1.38   1
   2   6   9   47.91    1.52   1
   2   7   9   10.15    0.90   1
   2   8   9    3.22    0.54   1
   2   9   9   36.87    1.39   1
   2  10   9   13.57    1.00   1
   2  11   9   15.02    1.05   1
   2  12   9   16.69    1.11   1
   2  13   9   33.77    1.42   1
   2  14   9   69.48    1.92   1
   2  15   9    1.05    0.58   1
   2  16   9   14.93    0.98   1
   2  17   9    4.16    0.52   1
   2   0  10   47.76    2.38   1
   2   1  10   64.57    2.74   1
   2   2  10    2.75    1.29   1
   2   3  10    6.31    1.35   1
   2   4  10    4.50    1.30   1
   2   5  10   44.85    2.34   1
   2   6  10   16.31    1.64   1
   2   7  10   25.20    1.28   1
   2   8  10   29.21    1.36   1
   2   9  10   11.75    0.90   1
   2  10  10   32.20    1.41   1
   2  11  10   42.60    1.54   1
   2  12  10   46.44    1.63   1
   2  13  10    6.82    0.67   1
   2  14  10   16.43    1.12   1
   2  15  10    2.84    0.58   1
   2   0  11   12.10    1.66   1
   2   1  11    9.53    1.60   1
   2   2  11    3.18    1.49   1
   2   3  11    6.98    1.48   1
   2   6  11   13.11    1.66   1
   2   8  11    5.44    0.65   1
   2  10  11    6.05    0.78   1
   2  11  11    4.41    0.61   1
   2   0  12   44.85    2.58   1
   2   1  12   19.77    2.07   1
   2   2  12    5.97    1.68   1
   2   3  12   40.94    2.47   1
   2   4  12   10.75    1.78   1
   2   6  12   28.19    2.17   1
   3   1   0   29.78    0.49   1
   3   3   0   66.43    0.85   1
   3   4   0  397.01    3.88   1
   3   5   0  200.25    2.13   1
   3   6   0   37.85    0.67   1
   3   7   0  233.35    2.51   1
   3   8   0   77.53    1.11   1
   3   9   0  103.45    1.39   1
   3  10   0   28.84    0.70   1
   3  11   0  241.34    2.76   1
   3  12   0    7.86    0.51   1
   3  13   0    2.63    0.45   1
   3  14   0    3.60    0.49   1
   3  15   0   23.07    0.82   1
   3  16   0   41.20    1.10   1
   3  17   0   40.61    1.12   1
   3  18   0    2.05    0.38   1
   3  19   0    2.83    0.41   1
   3  20   0   26.81    1.04   1
   3  21   0   29.16    1.11   1
   3  22   0    3.92    0.48   1
   3  24   0    7.74    0.64   1
   3  25   0   28.39    1.39   1
   3   0   1  168.64    1.79   1
   3   1   1  354.24    3.50   1
   3   2   1   56.61    0.76   1
   3   3   1  416.94    4.09   1
   3   4   1   78.61    1.00   1
   3   5   1   23.32    0.51   1
   3   6   1   66.20    0.95   1
   3   7   1  152.84    1.79   1
   3   8   1   41.00    0.77   1
   3   9   1  366.82    3.87   1
   3  10   1   35.43    0.79   1
   3  11   1   51.44    0.99   1
   3  12   1   52.23    1.05   1
   3  13   1   85.97    1.46   1
   3  14   1   25.98    0.83   1
   3  15   1    1.91    0.38   1
   3  16   1   37.80    1.06   1
   3  17   1   28.98    0.98   1
   3  18   1   49.04    1.29   1
   3  19   1   18.94    0.89   1
   3  20   1    3.55    0.45   1
   3  21   1   64.97    1.58   1
   3  22   1   59.51    1.58   1
   3  23   1   14.85    0.93   1
   3  24   1   28.63    1.17   1
   3  25   1    7.49    0.76   1
   3   1   2  172.53    1.89   1
   3   2   2  260.94    2.68   1
   3   3   2  256.14    2.67   1
   3   4   2   52.87    0.82   1
   3   5   2  302.30    3.14   1
   3   6   2  612.52    6.02   1
   3   7   2    7.01    0.41   1
   3   8   2   85.43    1.22   1
   3   9   2   59.74    1.02   1
   3  10   2  243.74    2.77   1
   3  11   2   33.23    0.82   1
   3  12   2  102.18    1.56   1
   3  13   2   25.17    0.79   1
   3  14   2    6.38    0.58   1
   3  15   2   12.38    0.70   1
   3  16   2   35.24    1.03   1
   3  17   2   27.39    0.97   1
   3  18   2    8.68    0.70   1
   3  19   2    5.31    0.53   1
   3  20   2   11.10    0.82   1
   3  22   2    2.70    0.45   1
   3  23   2    9.42    0.85   1
   3  24   2   26.46    1.14   1
   3  25   2    4.36    0.56   1
   3   0   3  176.05    1.97   1
   3   1   3  241.37    2.57   1
   3   2   3   16.70    0.49   1
   3   3   3  160.51    1.85   1
   3   4   3   12.11    0.46   1
   3   5   3  205.45    2.29   1
   3   6   3    3.25    0.37   1
   3   7   3  244.15    2.72   1
   3   8   3   41.35    0.84   1
   3   9   3   25.11    0.70   1
   3  10   3   11.10    0.55   1
   3  11   3   72.86    1.27   1
   3  12   3   38.55    0.94   1
   3  13   3   11.92    0.65   1
   3  14   3    8.71    0.58   1
   3  15   3   11.55    0.71   1
   3  16   3    1.97    0.39   1
   3  17   3    7.85    0.62   1
   3  19   3    9.87    0.80   1
   3  20   3    5.87    0.51   1
   3  21   3    1.55    0.43   1
   3  22   3    6.14    0.53   1
   3  23   3   38.21    1.34   1
   3  24   3    8.16    0.71   1
   3   0   4   11.12    0.45   1
   3   1   4  108.79    1.42   1
   3   2   4   29.72    0.67   1
   3   3   4   76.89    1.14   1
   3   4   4   23.99    0.63   1
   3   5   4  259.69    2.88   1
   3   6   4   76.78    1.20   1
   3   7   4   57.14    1.03   1
   3   8   4   51.72    1.01   1
   3   9   4   64.68    1.17   1
   3  10   4   20.15    0.71   1
   3  11   4   27.85    0.85   1
   3  12   4   28.77    0.87   1
   3  13   4  100.47    1.69   1
   3  14   4    9.64    0.66   1
   3  15   4   36.07    1.08   1
   3  16   4   16.59    0.82   1
   3  17   4   30.89    1.08   1
   3  18   4   24.46    1.02   1
   3  19   4   16.20    0.91   1
   3  20   4   20.01    0.98   1
   3  21   4   24.71    1.08   1
   3  22   4    6.69    0.61   1
   3  23   4    9.65    0.85   1
   3  24   4    1.05    0.43   1
   3   0   5   47.94    0.94   1
   3   1   5   42.92    0.88   1
   3   2   5   34.04    0.80   1
   3   3   5   70.31    1.17   1
   3   4   5   68.77    1.17   1
   3   5   5   69.49    1.19   1
   3   6   5   42.23    0.92   1
   3   7   5  117.65    1.70   1
   3   8   5  179.65    2.30   1
   3   9   5    1.74    0.49   1
   3  10   5  128.17    1.91   1
   3  11   5    7.00    0.52   1
   3  12   5  118.53    1.89   1
   3  13   5    9.86    0.70   1
   3  14   5   61.37    1.41   1
   3  15   5   42.45    1.21   1
   3  16   5    9.61    0.76   1
   3  17   5    3.01    0.44   1
   3  18   5    6.15    0.52   1
   3  19   5   10.17    0.75   1
   3  20   5    2.72    0.46   1
   3  21   5    3.43    0.48   1
   3  22   5   14.52    0.97   1
   3  23   5    3.62    0.47   1
   3   1   6    3.63    0.51   1
   3   2   6   40.03    1.06   1
   3   3   6    4.63    0.55   1
   3   4   6    9.18    0.66   1
   3   5   6   20.18    0.83   1
   3   6   6   17.88    0.83   1
   3   7   6   37.76    1.11   1
   3   8   6   18.02    0.77   1
   3   9   6   31.11    0.94   1
   3  10   6   23.03    0.86   1
   3  11   6   65.15    1.40   1
   3  12   6    3.46    0.42   1
   3  13   6   54.25    1.36   1
   3  14   6   24.70    0.99   1
   3  15   6    6.90    0.57   1
   3  16   6   40.02    1.27   1
   3  17   6   23.01    1.04   1
   3  18   6    9.77    0.75   1
   3  19   6   20.94    1.05   1
   3  20   6   60.91    1.60   1
   3  21   6    5.54    0.52   1
   3  22   6    4.95    0.50   1
   3   0   7    5.68    1.01   1
   3   2   7  145.31    3.61   1
   3   3   7   27.84    1.04   1
   3   4   7    9.25    0.77   1
   3   5   7   30.79    1.09   1
   3   6   7   11.53    0.83   1
   3   7   7   34.56    1.17   1
   3   8   7   10.70    0.84   1
   3   9   7  104.56    2.06   1
   3  10   7   48.61    1.27   1
   3  11   7    5.92    0.47   1
   3  12   7    2.29    0.40   1
   3  13   7   36.58    1.19   1
   3  14   7   47.09    1.34   1
   3  15   7   35.71    1.23   1
   3  16   7    2.67    0.45   1
   3  17   7    2.72    0.45   1
   3  18   7    7.52    0.62   1
   3  19   7   20.01    1.06   1
   3  20   7    8.80    0.74   1
   3  21   7    4.99    0.50   1
   3   0   8    2.05    1.12   1
   3   1   8  109.26    3.21   1
   3   2   8   57.11    2.28   1
   3   3   8   44.02    2.03   1
   3   4   8   37.44    1.26   1
   3   5   8   37.02    1.26   1
   3   6   8   25.17    1.10   1
   3   7   8   29.05    1.17   1
   3   8   8   32.07    1.25   1
   3   9   8   21.29    1.09   1
   3  10   8    4.23    0.56   1
   3  11   8   95.98    2.15   1
   3  12   8   16.59    1.04   1
   3  13   8    6.06    0.58   1
   3  14   8    4.40    0.49   1
   3  15   8   17.30    0.96   1
   3  16   8   14.74    0.96   1
   3  17   8   10.77    0.88   1
   3  18   8    7.99    0.63   1
   3  19   8   22.16    1.08   1
   3   0   9   66.26    2.63   1
   3   1   9   11.47    1.39   1
   3   2   9   18.61    1.59   1
   3   3   9   13.39    1.47   1
   3   4   9   97.90    3.26   1
   3   6   9    7.77    0.65   1
   3   7   9    8.66    0.73   1
   3   8   9   41.53    1.49   1
   3   9   9    6.05    0.63   1
   3  10   9   26.84    1.26   1
   3  11   9    4.08    0.59   1
   3  12   9    4.74    0.61   1
   3  13   9    1.48    0.56   1
   3  14   9   29.92    1.32   1
   3  15   9    6.16    0.60   1
   3  16   9    8.66    0.65   1
   3  17   9   20.92    1.05   1
   3   1  10   55.11    2.53   1
   3   2  10   26.66    1.95   1
   3   3  10   79.19    3.08   1
   3   4  10   11.47    1.57   1
   3   5  10    6.87    1.43   1
   3   6  10   22.41    1.21   1
   3   7  10   11.23    0.87   1
   3   8  10    6.96    0.67   1
   3   9  10   32.05    1.41   1
   3  10  10    7.29    0.83   1
   3  11  10    4.40    0.61   1
   3  12  10    1.08    0.57   1
   3  13  10   18.30    1.19   1
   3  14  10   16.30    1.10   1
   3   1  11   10.54    1.67   1
   3   2  11   14.55    1.71   1
   3   3  11   33.47    2.23   1
   3   4  11   16.27    1.85   1
   3   5  11   15.03    1.73   1
   3   6  11   11.66    1.69   1
   3   7  11   21.66    1.26   1
   3   8  11    6.26    0.80   1
   3   9  11   10.33    0.82   1
   3  10  11    8.63    0.85   1
   3  11  11    9.02    3.09   1
   3   0  12    5.30    1.75   1
   3   1  12    7.03    1.71   1
   3   2  12    3.14    1.70   1
   4   0   0  376.96    3.75   1
   4   1   0  371.33    3.74   1
   4   2   0   38.70    0.68   1
   4   3   0    1.68    0.31   1
   4   4   0   35.54    0.68   1
   4   5   0   14.81    0.49   1
   4   6   0  126.51    1.57   1
   4   7   0   84.63    1.22   1
   4   8   0  127.25    1.64   1
   4   9   0  125.11    1.66   1
   4  10   0   66.40    1.15   1
   4  11   0   12.17    0.60   1
   4  12   0  230.97    2.86   1
   4  13   0   66.49    1.26   1
   4  14   0    2.71    0.37   1
   4  15   0   12.15    0.70   1
   4  16   0   86.98    1.63   1
   4  17   0    1.14    0.36   1
   4  18   0    1.96    0.39   1
   4  19   0    6.97    0.65   1
   4  21   0    7.67    0.61   1
   4  23   0    4.60    0.51   1
   4  24   0   20.98    1.06   1
   4   0   1    1.41    0.30   1
   4   1   1  142.76    1.64   1
   4   2   1   33.26    0.64   1
   4   3   1  144.74    1.68   1
   4   4   1   11.66    0.45   1
   4   5   1   57.66    0.92   1
   4   6   1   41.78    0.79   1
   4   7   1  235.80    2.63   1
   4   8   1   41.28    0.84   1
   4   9   1    4.08    0.40   1
   4  10   1   32.89    0.80   1
   4  11   1  255.92    2.99   1
   4  12   1   65.10    1.23   1
   4  13   1   41.27    1.02   1
   4  14   1   44.35    1.09   1
   4  15   1   43.24    1.12   1
   4  16   1   50.40    1.24   1
   4  17   1   16.38    0.84   1
   4  18   1   29.79    1.04   1
   4  19   1   40.94    1.23   1
   4  20   1   31.39    1.14   1
   4  21   1    7.42    0.69   1
   4  22   1   13.73    0.94   1
   4  23   1    2.10    0.46   1
   4  24   1   18.84    1.02   1
   4  25   1    5.02    0.57   1
   4   0   2   10.31    0.43   1
   4   1   2  253.87    2.73   1
   4   2   2    9.31    0.43   1
   4   3   2   72.18    1.05   1
   4   4   2  192.09    2.16   1
   4   5   2  130.44    1.64   1
   4   6   2   31.07    0.70   1
   4   7   2  170.10    2.06   1
   4   8   2  155.09    1.94   1
   4   9   2    5.41    0.44   1
   4  10   2   39.60    0.89   1
   4  11   2   17.96    0.67   1
   4  12   2   44.49    1.03   1
   4  14   2   13.85    0.71   1
   4  15   2   14.46    0.76   1
   4  16   2   15.89    0.82   1
   4  17   2   18.60    0.88   1
   4  18   2    5.87    0.53   1
   4  19   2   10.76    0.81   1
   4  20   2    8.11    0.60   1
   4  21   2    9.14    0.81   1
   4  22   2    9.33    0.65   1
   4  23   2   17.03    1.00   1
   4  24   2    1.55    0.44   1
   4   0   3    4.50    0.38   1
   4   1   3  215.74    2.39   1
   4   2   3   36.92    0.75   1
   4   3   3  445.58    4.51   1
   4   4   3   91.34    1.29   1
   4   5   3  104.17    1.43   1
   4   6   3    5.21    0.42   1
   4   7   3   58.08    1.04   1
   4   8   3   83.69    1.33   1
   4   9   3   30.72    0.81   1
   4  10   3   16.26    0.66   1
   4  11   3   28.53    0.84   1
   4  12   3   40.40    1.03   1
   4  13   3   11.83    0.69   1
   4  14   3   21.62    0.86   1
   4  15   3   70.76    1.47   1
   4  16   3   26.27    0.98   1
   4  17   3    0.92    0.39   1
   4  18   3   20.76    0.96   1
   4  19   3   33.66    1.16   1
   4  20   3   12.68    0.86   1
   4  21   3   32.44    1.22   1
   4  22   3   24.45    1.13   1
   4  23   3    0.95    0.44   1
   4  24   3   13.40    0.94   1
   4   0   4   74.25    1.15   1
   4   1   4  119.14    1.58   1
   4   2   4   32.77    0.76   1
   4   3   4   92.93    1.35   1
   4   4   4   33.73    0.78   1
   4   5   4   83.88    1.31   1
   4   6   4   53.87    1.04   1
   4   7   4   41.28    0.92   1
   4   8   4    8.57    0.52   1
   4   9   4    1.38    0.48   1
   4  10   4   34.67    0.92   1
   4  11   4   23.59    0.82   1
   4  12   4   66.28    1.35   1
   4  13   4   25.07    0.90   1
   4  14   4    8.83    0.62   1
   4  15   4   38.47    1.16   1
   4  16   4   51.81    1.35   1
   4  17   4   57.23    1.47   1
   4  18   4    1.52    0.42   1
   4  19   4    8.17    0.62   1
   4  20   4   21.65    1.06   1
   4  21   4   19.33    1.02   1
   4  22   4    2.01    0.48   1
   4  23   4   61.46    1.60   1
   4   0   5   26.83    0.75   1
   4   1   5   22.12    0.69   1
   4   2   5    5.96    0.48   1
   4   3   5  157.45    2.03   1
   4   4   5   27.47    0.77   1
   4   5   5   81.35    1.36   1
   4   6   5   13.24    0.61   1
   4   7   5   33.83    0.91   1
   4   8   5   46.33    1.06   1
   4   9   5   43.16    1.08   1
   4  10   5   26.10    0.86   1
   4  11   5    9.50    0.65   1
   4  12   5   18.57    0.85   1
   4  13   5    6.46    0.58   1
   4  14   5    8.17    0.63   1
   4  15   5    1.88    0.40   1
   4  16   5   20.37    0.96   1
   4  17   5    9.95    0.79   1
   4  18   5    2.22    0.44   1
   4  19   5    5.24    0.51   1
   4  20   5   27.91    1.16   1
   4  21   5    2.14    0.45   1
   4  22   5    1.04    0.44   1
   4   1   6   85.01    1.45   1
   4   2   6   14.72    0.66   1
   4   3   6   24.73    0.82   1
   4   4   6   11.40    0.64   1
   4   5   6  132.65    1.95   1
   4   6   6   39.68    1.04   1
   4   7   6   38.84    1.05   1
   4   8   6   52.11    1.24   1
   4   9   6  130.45    2.04   1
   4  10   6   25.39    0.95   1
   4  11   6   35.12    1.06   1
   4  12   6   60.74    1.42   1
   4  13   6   47.40    1.28   1
   4  14   6   12.01    0.80   1
   4  15   6   52.53    1.42   1
   4  16   6   17.57    0.95   1
   4  17   6   40.71    1.31   1
   4  18   6   25.56    1.10   1
   4  19   6   35.63    1.26   1
   4  20   6    1.78    0.44   1
   4  21   6   21.62    1.08   1
   4   0   7  132.93    2.03   1
   4   1   7    9.07    0.71   1
   4   2   7   12.34    0.82   1
   4   3   7   11.64    0.80   1
   4   4   7   62.71    1.53   1
   4   5   7   15.77    0.88   1
   4   6   7   19.37    0.84   1
   4   7   7   25.15    0.94   1
   4   8   7   49.65    1.27   1
   4   9   7    5.99    0.59   1
   4  10   7   42.23    1.20   1
   4  11   7   50.11    1.34   1
   4  12   7   38.49    1.20   1
   4  13   7   10.12    0.72   1
   4  14   7   29.44    1.14   1
   4  15   7    2.04    0.44   1
   4  16   7    3.24    0.46   1
   4  17   7    9.05    0.76   1
   4  18   7    5.49    0.52   1
   4  19   7   12.43    0.89   1
   4  20   7    1.88    0.44   1
   4   0   8   42.61    2.03   1
   4   1   8   18.88    1.21   1
   4   2   8   13.21    0.89   1
   4   3   8   11.36    0.87   1
   4   4   8   28.07    1.15   1
   4   5   8    4.24    0.53   1
   4   6   8    8.69    0.75   1
   4   7   8   31.35    1.26   1
   4   8   8    3.59    0.54   1
   4   9   8   85.75    2.04   1
   4  10   8   18.43    0.96   1
   4  11   8    8.51    0.72   1
   4  12   8    0.82    0.44   1
   4  13   8   50.56    1.46   1
   4  14   8   32.82    1.23   1
   4  15   8    2.16    0.45   1
   4  16   8    9.44    0.77   1
   4  18   8   15.64    0.96   1
   4   0   9   18.52    1.63   1
   4   1   9   13.19    1.48   1
   4   2   9   12.80    1.44   1
   4   3   9   23.27    1.17   1
   4   4   9   57.08    1.66   1
   4   5   9   13.37    0.99   1
   4   6   9   34.83    1.41   1
   4   7   9    5.39    0.62   1
   4   8   9   82.03    2.05   1
   4   9   9   16.38    1.08   1
   4  10   9   19.16    1.12   1
   4  12   9   22.92    1.26   1
   4  13   9    8.95    0.75   1
   4  14   9   11.33    0.88   1
   4  15   9   25.54    1.13   1
   4  16   9    2.36    0.45   1
   4   1  10   79.91    3.13   1
   4   2  10   13.67    1.63   1
   4   3  10    2.99    1.40   1
   4   4  10   29.12    1.33   1
   4   5  10   55.59    1.77   1
   4   6  10   27.08    1.33   1
   4   7  10   15.00    1.09   1
   4   8  10   14.92    1.09   1
   4  10  10   14.52    1.09   1
   4  11  10    6.80    0.67   1
   4  12  10    1.56    0.57   1
   4  13  10    8.36    0.70   1
   4   0  11   26.83    2.09   1
   4   2  11    3.05    1.47   1
   4   3  11    8.69    1.58   1
   4   4  11   31.78    2.21   1
   4   5  11   12.64    1.33   1
   4   7  11    6.50    0.66   1
   4   8  11   19.82    1.24   1
   4   9  11    9.47    0.85   1
   5   1   0   38.64    0.75   1
   5   2   0   41.99    0.80   1
   5   3   0  222.30    2.48   1
   5   4   0   58.71    0.99   1
   5   5   0   70.31    1.10   1
   5   7   0   11.34    0.53   1
   5   8   0   15.73    0.60   1
   5   9   0   24.61    0.73   1
   5  10   0   37.11    0.90   1
   5  11   0   35.51    0.92   1
   5  12   0    1.56    0.50   1
   5  13   0   11.77    0.68   1
   5  14   0   50.65    1.21   1
   5  15   0   14.82    0.80   1
   5  16   0    4.41    0.43   1
   5  17   0   10.11    0.68   1
   5  18   0    6.05    0.63   1
   5  21   0    0.89    0.44   1
   5  22   0    7.64    0.62   1
   5  24   0    1.98    0.45   1
   5   0   1    5.74    0.40   1
   5   1   1  128.65    1.60   1
   5   2   1   87.51    1.24   1
   5   3   1  367.22    3.77   1
   5   4   1    5.10    0.40   1
   5   5   1   34.34    0.75   1
   5   6   1   68.44    1.13   1
   5   7   1  148.57    1.89   1
   5   8   1    3.08    0.41   1
   5   9   1   56.19    1.09   1
   5  10   1   12.25    0.60   1
   5  11   1   65.88    1.25   1
   5  12   1   20.94    0.79   1
   5  13   1   18.29    0.81   1
   5  14   1   15.59    0.76   1
   5  15   1  209.86    2.82   1
   5  16   1   59.13    1.39   1
   5  17   1    4.10    0.44   1
   5  18   1    7.42    0.67   1
   5  19   1   51.66    1.44   1
   5  20   1   49.82    1.41   1
   5  21   1    3.39    0.47   1
   5  22   1    0.87    0.45   1
   5  23   1    1.81    0.44   1
   5  24   1   14.11    0.92   1
   5   0   2  318.56    3.39   1
   5   1   2  163.12    1.98   1
   5   3   2  243.00    2.74   1
   5   4   2   82.62    1.25   1
   5   5   2   41.04    0.85   1
   5   6   2    6.35    0.45   1
   5   7   2   12.46    0.57   1
   5   8   2   28.09    0.78   1
   5   9   2   36.07    0.89   1
   5  10   2    1.35    0.46   1
   5  11   2   15.67    0.70   1
   5  12   2  119.85    1.87   1
   5  14   2    7.28    0.65   1
   5  15   2    2.96    0.39   1
   5  16   2   58.39    1.41   1
   5  17   2   14.18    0.84   1
   5  18   2   11.14    0.80   1
   5  19   2   29.26    1.11   1
   5  20   2    2.08    0.44   1
   5  21   2   37.66    1.29   1
   5  22   2    1.71    0.45   1
   5  23   2    5.16    0.57   1
   5  24   2    7.09    0.90   1
   5   0   3   29.98    0.74   1
   5   1   3  191.44    2.28   1
   5   2   3   23.58    0.67   1
   5   3   3    9.22    0.50   1
   5   4   3    1.31    0.40   1
   5   5   3   66.16    1.15   1
   5   6   3   33.53    0.83   1
   5   7   3   61.77    1.15   1
   5   8   3   17.92    0.67   1
   5   9   3    8.74    0.58   1
   5  10   3   41.70    1.03   1
   5  11   3   24.97    0.86   1
   5  12   3   26.47    0.91   1
   5  13   3   18.44    0.83   1
   5  14   3   45.37    1.19   1
   5  15   3    3.59    0.42   1
   5  16   3   49.04    1.34   1
   5  17   3   22.89    0.99   1
   5  18   3   23.10    1.04   1
   5  19   3    4.27    0.49   1
   5  20   3   54.53    1.52   1
   5  21   3    7.96    0.64   1
   5  22   3    4.63    0.50   1
   5  23   3    8.35    0.63   1
   5   1   4   67.38    1.17   1
   5   2   4   42.08    0.92   1
   5   3   4   27.29    0.78   1
   5   4   4   16.65    0.65   1
   5   5   4    6.02    0.50   1
   5   6   4   27.36    0.81   1
   5   7   4   29.02    0.85   1
   5   8   4   86.21    1.48   1
   5   9   4    2.57    0.38   1
   5  10   4  107.92    1.77   1
   5  11   4   33.37    1.01   1
   5  12   4   82.60    1.57   1
   5  13   4    4.24    0.42   1
   5  14   4   82.99    1.67   1
   5  15   4   19.94    0.94   1
   5  16   4   21.39    0.97   1
   5  17   4    7.96    0.68   1
   5  18   4   24.60    1.06   1
   5  19   4   72.99    1.74   1
   5  21   4   42.57    1.37   1
   5  22   4   11.31    0.92   1
   5   0   5    6.81    0.55   1
   5   1   5  179.38    2.30   1
   5   2   5   30.67    0.86   1
   5   3   5   15.51    0.66   1
   5   4   5   70.28    1.32   1
   5   5   5   57.37    1.21   1
   5   6   5   17.94    0.76   1
   5   7   5   33.24    0.95   1
   5   8   5   48.40    1.16   1
   5   9   5   10.52    0.69   1
   5  10   5   18.25    0.82   1
   5  11   5   19.66    0.87   1
   5  12   5    0.94    0.37   1
   5  13   5   17.12    0.88   1
   5  14   5   40.74    1.21   1
   5  15   5    1.27    0.41   1
   5  16   5   18.04    0.92   1
   5  17   5    3.55    0.47   1
   5  18   5   28.46    1.14   1
   5  19   5    3.04    0.47   1
   5  20   5   11.49    0.92   1
   5  21   5    8.49    0.65   1
   5   0   6   45.63    1.12   1
   5   1   6   43.79    1.08   1
   5   2   6   10.68    0.68   1
   5   3   6   51.98    1.19   1
   5   4   6   47.94    1.16   1
   5   5   6   77.32    1.50   1
   5   6   6   12.94    0.71   1
   5   7   6  100.89    1.77   1
   5   8   6   21.17    0.88   1
   5   9   6   20.29    0.86   1
   5  10   6   66.47    1.47   1
   5  11   6   77.16    1.62   1
   5  13   6   64.81    1.55   1
   5  14   6   51.95    1.42   1
   5  15   6   14.72    0.89   1
   5  16   6    5.13    0.51   1
   5  17   6   50.87    1.48   1
   5  18   6    6.98    0.63   1
   5  19   6    5.03    0.51   1
   5   0   7    1.43    0.38   1
   5   1   7   28.81    0.97   1
   5   2   7   16.11    0.83   1
   5   3   7    3.88    0.43   1
   5   4   7  103.64    1.83   1
   5   5   7    9.98    0.66   1
   5   6   7   20.24    0.88   1
   5   7   7    9.36    0.73   1
   5   8   7   96.52    1.83   1
   5   9   7   10.99    0.75   1
   5  10   7    1.94    0.42   1
   5  11   7    4.11    0.46   1
   5  12   7   12.78    0.78   1
   5  13   7   15.63    0.90   1
   5  14   7    6.17    0.53   1
   5  15   7   17.63    0.98   1
   5  16   7    7.57    0.73   1
   5  17   7    4.73    0.51   1
   5  18   7    2.83    0.46   1
   5   0   8   35.29    1.14   1
   5   1   8   46.01    1.27   1
   5   2   8    3.13    0.43   1
   5   3   8    0.66    0.40   1
   5   4   8   18.79    0.94   1
   5   5   8  135.10    2.26   1
   5   7   8    5.07    0.48   1
   5   8   8    2.84    0.44   1
   5   9   8   23.27    1.03   1
   5  10   8    1.99    0.43   1
   5  11   8   12.25    0.86   1
   5  12   8    7.79    0.62   1
   5  13   8   31.28    1.23   1
   5  14   8    7.86    0.64   1
   5  15   8    8.50    0.64   1
   5  16   8   11.51    0.88   1
   5  17   8   56.76    1.54   1
   5   1   9   28.97    1.11   1
   5   2   9   34.18    1.38   1
   5   3   9    5.30    0.61   1
   5   4   9    5.99    0.63   1
   5   5   9   13.67    1.04   1
   5   6   9   26.26    1.26   1
   5   7   9    9.18    0.83   1
   5   8   9    1.07    0.56   1
   5   9   9    1.27    0.43   1
   5  10   9   20.55    1.04   1
   5  11   9   14.95    0.96   1
   5  12   9    1.65    0.44   1
   5  13   9    8.46    0.65   1
   5  14   9    6.55    0.54   1
   5  15   9    2.53    0.46   1
   5   0  10   72.26    3.04   1
   5   1  10    5.02    0.90   1
   5   2  10    2.73    0.58   1
   5   3  10   49.25    1.67   1
   5   4  10   23.68    1.26   1
   5   5  10   28.91    1.41   1
   5   6  10    6.36    0.67   1
   5   7  10   17.19    1.15   1
   5   8  10    6.72    0.67   1
   5   9  10   31.51    1.38   1
   5  11  10    1.95    0.55   1
   5  12  10    5.66    0.52   1
   5   0  11    3.60    1.65   1
   5   1  11   22.94    1.97   1
   5   2  11   11.83    1.61   1
   5   3  11   15.77    1.15   1
   5   4  11   10.59    0.90   1
   5   6  11   38.28    1.49   1
   5   7  11    2.33    0.58   1
   6   0   0  129.13    1.70   1
   6   1   0   63.68    1.09   1
   6   2   0    4.65    0.43   1
   6   3   0   30.41    0.77   1
   6   4   0    9.54    0.50   1
   6   5   0   73.42    1.24   1
   6   6   0   67.73    1.20   1
   6   7   0   81.01    1.36   1
   6   8   0   56.61    1.13   1
   6  10   0   84.43    1.51   1
   6  12   0   61.51    1.32   1
   6  13   0   20.60    0.87   1
   6  14   0    8.87    0.63   1
   6  15   0   27.32    0.99   1
   6  16   0    7.00    0.63   1
   6  17   0    8.58    0.68   1
   6  18   0   20.37    1.00   1
   6  19   0    6.69    0.68   1
   6  21   0    2.18    0.45   1
   6  22   0   22.61    1.07   1
   6   0   1   37.96    0.84   1
   6   1   1  113.80    1.57   1
   6   2   1   82.24    1.29   1
   6   3   1   73.09    1.21   1
   6   4   1   84.05    1.33   1
   6   5   1  100.36    1.50   1
   6   6   1    9.09    0.52   1
   6   7   1   58.58    1.14   1
   6   8   1   50.70    1.08   1
   6   9   1    1.40    0.50   1
   6  10   1    1.40    0.34   1
   6  11   1   25.59    0.87   1
   6  12   1   12.26    0.73   1
   6  13   1  114.76    1.92   1
   6  14   1   39.48    1.14   1
   6  15   1   17.81    0.87   1
   6  16   1   11.26    0.76   1
   6  17   1   69.00    1.59   1
   6  18   1   63.67    1.57   1
   6  19   1   17.77    0.96   1
   6  20   1   12.64    0.90   1
   6  21   1    7.72    0.64   1
   6  22   1   20.93    1.06   1
   6  23   1    8.96    0.85   1
   6   0   2   18.43    0.63   1
   6   1   2  109.37    1.57   1
   6   2   2  167.11    2.12   1
   6   3   2    3.18    0.43   1
   6   4   2    0.83    0.45   1
   6   5   2   45.40    0.99   1
   6   6   2    9.11    0.55   1
   6   7   2   17.21    0.69   1
   6   8   2   44.64    1.05   1
   6   9   2    5.23    0.56   1
   6  10   2  101.99    1.70   1
   6  11   2    3.55    0.40   1
   6  12   2   29.25    0.99   1
   6  13   2   10.32    0.65   1
   6  14   2   87.44    1.72   1
   6  15   2    0.98    0.39   1
   6  16   2    6.68    0.57   1
   6  17   2   13.67    0.87   1
   6  18   2    7.16    0.60   1
   6  19   2    6.65    0.59   1
   6  20   2    1.75    0.45   1
   6  21   2    8.38    0.75   1
   6  22   2    5.97    0.53   1
   6  23   2   12.88    1.53   1
   6   0   3   11.77    0.58   1
   6   1   3   95.20    1.47   1
   6   2   3   15.88    0.66   1
   6   3   3  191.25    2.37   1
   6   4   3   63.80    1.20   1
   6   5   3    4.35    0.51   1
   6   6   3   23.38    0.78   1
   6   7   3   54.99    1.16   1
   6   8   3   21.85    0.80   1
   6   9   3   24.26    0.86   1
   6  10   3    1.24    0.37   1
   6  11   3    6.53    0.51   1
   6  12   3   19.81    0.87   1
   6  13   3    4.19    0.43   1
   6  14   3   45.91    1.28   1
   6  15   3   30.85    1.10   1
   6  16   3   27.10    1.08   1
   6  17   3   12.23    0.85   1
   6  18   3   66.48    1.65   1
   6  19   3   44.90    1.41   1
   6  20   3    2.88    0.47   1
   6  21   3   20.00    1.07   1
   6  22   3   27.62    1.16   1
   6   0   4    1.00    0.47   1
   6   1   4   89.77    1.50   1
   6   2   4   20.06    0.73   1
   6   3   4   54.22    1.14   1
   6   4   4    0.88    0.55   1
   6   5   4   35.16    0.97   1
   6   6   4   63.94    1.30   1
   6   7   4    4.71    0.41   1
   6   8   4   16.14    0.76   1
   6   9   4   38.16    1.08   1
   6  10   4   46.13    1.20   1
   6  11   4    2.38    0.38   1
   6  12   4   26.10    0.98   1
   6  13   4    4.46    0.45   1
   6  14   4   37.89    1.21   1
   6  15   4    3.64    0.46   1
   6  16   4   30.48    1.14   1
   6  17   4   76.69    1.75   1
   6  18   4    9.44    0.78   1
   6  19   4   29.99    1.21   1
   6  20   4   11.80    0.90   1
   6  21   4   52.03    1.50   1
   6   0   5   13.65    0.73   1
   6   1   5   62.07    1.28   1
   6   2   5   18.77    0.78   1
   6   3   5  101.24    1.70   1
   6   4   5   18.23    0.79   1
   6   5   5    4.00    0.41   1
   6   6   5   41.84    1.10   1
   6   7   5    9.69    0.69   1
   6   9   5   32.19    1.05   1
   6  10   5    2.18    0.39   1
   6  11   5   18.46    0.89   1
   6  12   5   22.12    0.96   1
   6  13   5    9.10    0.61   1
   6  14   5   21.61    1.01   1
   6  15   5    1.82    0.43   1
   6  16   5   16.07    0.97   1
   6  17   5    1.80    0.44   1
   6  18   5   16.94    0.97   1
   6  19   5    5.74    0.53   1
   6   0   6   48.59    1.21   1
   6   1   6   96.52    1.71   1
   6   2   6   69.09    1.45   1
   6   3   6   53.37    1.28   1
   6   4   6   18.76    0.85   1
   6   5   6   76.01    1.55   1
   6   6   6   70.55    1.51   1
   6   7   6    6.05    0.47   1
   6   8   6   10.34    0.75   1
   6   9   6   72.55    1.60   1
   6  10   6   12.14    0.83   1
   6  11   6   31.69    1.13   1
   6  12   6   38.68    1.23   1
   6  13   6   33.19    1.20   1
   6  14   6   12.58    0.91   1
   6  15   6   41.58    1.32   1
   6  16   6   27.53    1.14   1
   6  17   6   21.77    1.06   1
   6  18   6    8.24    0.58   1
   6  19   6   13.67    0.92   1
   6   0   7   16.92    0.84   1
   6   1   7    2.15    0.39   1
   6   2   7   47.70    1.28   1
   6   3   7   11.28    0.78   1
   6   4   7    7.81    0.64   1
   6   5   7   19.76    0.90   1
   6   6   7   94.18    1.83   1
   6   7   7    2.21    0.42   1
   6   8   7   18.18    0.91   1
   6   9   7    4.86    0.53   1
   6  10   7   55.40    1.46   1
   6  11   7    4.90    0.50   1
   6  12   7   16.72    0.98   1
   6  13   7   14.84    0.95   1
   6  14   7   13.21    0.92   1
   6  15   7    3.36    0.48   1
   6  17   7   11.38    0.85   1
   6  18   7    6.77    0.54   1
   6   0   8   27.17    1.05   1
   6   1   8    1.19    0.41   1
   6   2   8   14.15    0.84   1
   6   3   8   47.27    1.34   1
   6   4   8    7.45    0.68   1
   6   5   8    3.26    0.45   1
   6   6   8   12.63    0.87   1
   6   7   8   50.96    1.41   1
   6   8   8    0.70    0.45   1
   6   9   8    3.01    0.46   1
   6  10   8    7.50    0.64   1
   6  11   8   16.91    1.00   1
   6  12   8    2.31    0.46   1
   6  13   8   10.03    0.73   1
   6  14   8   14.65    0.95   1
   6  15   8   39.60    1.32   1
   6  16   8   20.29    1.05   1
   6   0   9   37.47    1.27   1
   6   1   9    1.07    0.43   1
   6   2   9   10.97    0.85   1
   6   3   9   10.76    0.80   1
   6   4   9    8.62    0.74   1
   6   5   9    2.60    0.46   1
   6   6   9   12.54    0.88   1
   6   7   9    6.74    0.55   1
   6   8   9   28.88    1.14   1
   6   9   9    5.59    0.53   1
   6  10   9   40.45    1.35   1
   6  11   9    6.30    0.60   1
   6  12   9   34.98    1.27   1
   6  13   9   13.40    0.92   1
   6   0  10    4.74    0.51   1
   6   1  10   41.76    1.35   1
   6   2  10   43.99    1.40   1
   6   3  10    1.55    0.48   1
   6   4  10    6.75    0.55   1
   6   5  10   49.58    1.46   1
   6   6  10    8.23    0.65   1
   6   7  10   21.68    1.09   1
   6   8  10    1.51    0.45   1
   6   9  10    4.35    0.50   1
   6   0  11    7.15    0.62   1
   6   1  11   28.45    1.35   1
   6   2  11    4.12    0.60   1
   7   2   0   68.63    1.25   1
   7   3   0   13.13    0.61   1
   7   4   0    3.66    0.50   1
   7   5   0   50.49    1.12   1
   7   6   0   20.27    0.77   1
   7   7   0    2.32    0.35   1
   7   8   0   33.29    0.96   1
   7   9   0   41.24    1.08   1
   7  10   0   94.13    1.69   1
   7  11   0   31.43    1.02   1
   7  12   0   23.33    0.92   1
   7  14   0   16.73    0.87   1
   7  15   0   14.53    0.86   1
   7  16   0    2.39    0.44   1
   7  17   0   11.04    0.84   1
   7  18   0    1.18    0.44   1
   7  19   0    2.98    0.47   1
   7  20   0   23.86    1.08   1
   7  21   0   17.13    1.00   1
   7  22   0    1.38    0.46   1
   7   0   1  210.22    2.60   1
   7   1   1   54.16    1.10   1
   7   2   1   15.27    0.66   1
   7   3   1   39.82    0.96   1
   7   4   1   67.16    1.26   1
   7   5   1   69.99    1.32   1
   7   6   1   38.26    0.99   1
   7   7   1   21.92    0.80   1
   7   8   1    1.09    0.36   1
   7   9   1   96.17    1.69   1
   7  10   1   18.28    0.82   1
   7  11   1   17.45    0.84   1
   7  13   1   35.47    1.12   1
   7  14   1   17.34    0.93   1
   7  15   1   10.30    0.77   1
   7  16   1   16.63    0.94   1
   7  17   1   34.49    1.22   1
   7  18   1   41.08    1.33   1
   7  19   1   25.25    1.13   1
   7  20   1   10.73    0.88   1
   7  21   1   24.17    1.12   1
   7  22   1   32.22    1.23   1
   7   0   2   11.02    0.62   1
   7   1   2    1.96    0.49   1
   7   2   2   37.19    0.95   1
   7   3   2   27.89    0.84   1
   7   4   2   12.11    0.65   1
   7   5   2   48.48    1.10   1
   7   6   2  200.09    2.59   1
   7   7   2    6.79    0.49   1
   7   8   2   16.76    0.78   1
   7   9   2   22.58    0.90   1
   7  10   2  136.42    2.13   1
   7  11   2   10.22    0.65   1
   7  12   2   55.91    1.37   1
   7  13   2    5.05    0.51   1
   7  14   2    5.52    0.49   1
   7  15   2   19.17    0.93   1
   7  16   2   14.54    0.90   1
   7  17   2    5.90    0.58   1
   7  18   2   10.76    0.85   1
   7  19   2    1.59    0.45   1
   7  20   2    1.81    0.46   1
   7  21   2    0.94    0.44   1
   7   0   3    3.61    0.53   1
   7   1   3  113.19    1.77   1
   7   2   3   28.90    0.89   1
   7   3   3   17.19    0.75   1
   7   4   3   23.52    0.84   1
   7   5   3   98.44    1.66   1
   7   6   3   42.46    1.08   1
   7   7   3   11.51    0.69   1
   7   8   3   35.89    1.04   1
   7   9   3    5.44    0.50   1
   7  10   3    5.74    0.50   1
   7  11   3    5.70    0.59   1
   7  12   3   14.26    0.82   1
   7  13   3   20.46    0.95   1
   7  14   3   40.78    1.28   1
   7  15   3   15.65    0.91   1
   7  16   3   23.54    1.10   1
   7  17   3   31.09    1.20   1
   7  18   3    7.58    0.63   1
   7  19   3   20.25    1.06   1
   7  20   3   12.12    0.90   1
   7  21   3    8.49    0.73   1
   7   0   4    2.51    0.38   1
   7   1   4   63.51    1.32   1
   7   2   4   11.44    0.70   1
   7   3   4   22.40    0.86   1
   7   4   4   54.62    1.25   1
   7   5   4   49.70    1.22   1
   7   6   4   46.51    1.18   1
   7   7   4    4.32    0.43   1
   7   8   4    8.76    0.63   1
   7   9   4   15.81    0.83   1
   7  10   4   11.31    0.76   1
   7  11   4   13.41    0.83   1
   7  12   4   26.08    1.04   1
   7  13   4   37.70    1.26   1
   7  14   4   11.30    0.85   1
   7  15   4   36.60    1.26   1
   7  16   4   33.95    1.22   1
   7  17   4   22.19    1.05   1
   7  18   4   15.42    0.96   1
   7  19   4   24.55    1.15   1
   7  20   4    1.86    0.45   1
   7   0   5    2.88    0.40   1
   7   1   5   21.11    0.87   1
   7   2   5   20.77    0.85   1
   7   3   5    6.93    0.60   1
   7   4   5   30.07    1.01   1
   7   5   5   31.23    1.03   1
   7   6   5   26.12    0.97   1
   7   7   5   43.01    1.22   1
   7   8   5   59.94    1.44   1
   7   9   5    4.62    0.46   1
   7  10   5   42.32    1.26   1
   7  11   5   11.51    0.83   1
   7  12   5   26.94    1.11   1
   7  13   5    4.39    0.48   1
   7  14   5   50.92    1.44   1
   7  15   5    3.01    0.46   1
   7  16   5   11.65    0.81   1
   7  17   5    3.86    0.49   1
   7  18   5    5.43    0.52   1
   7  19   5    5.25    0.51   1
   7   0   6   13.77    0.79   1
   7   1   6   58.69    1.40   1
   7   2   6   73.79    1.57   1
   7   3   6   55.15    1.38   1
   7   4   6   52.43    1.33   1
   7   5   6    6.21    0.53   1
   7   6   6   11.59    0.81   1
   7   7   6   32.19    1.14   1
   7   8   6   27.15    1.07   1
   7   9   6    8.52    0.70   1
   7  10   6    7.16    0.68   1
   7  11   6   24.13    1.04   1
   7  12   6    6.39    0.59   1
   7  13   6   12.83    0.89   1
   7  14   6   10.34    0.76   1
   7  15   6   16.70    1.00   1
   7  16   6   18.08    1.02   1
   7  17   6   14.16    0.96   1
   7  18   6    6.73    0.61   1
   7   0   7   29.25    1.10   1
   7   1   7    1.17    0.40   1
   7   2   7   69.19    1.60   1
   7   3   7    7.83    0.68   1
   7   4   7    2.99    0.44   1
   7   5   7    4.61    0.48   1
   7   6   7    3.12    0.45   1
   7   7   7   21.29    1.00   1
   7   8   7   33.95    1.19   1
   7   9   7   16.41    0.97   1
   7  10   7   35.37    1.25   1
   7  11   7   12.33    0.80   1
   7  12   7   19.64    1.07   1
   7  13   7    7.30    0.63   1
   7  14   7   27.77    1.20   1
   7  15   7    6.57    0.54   1
   7   0   8    1.14    0.43   1
   7   1   8   30.83    1.18   1
   7   2   8   68.06    1.63   1
   7   3   8   17.42    0.95   1
   7   4   8    6.06    0.59   1
   7   5   8   10.03    0.82   1
   7   6   8    4.30    0.49   1
   7   7   8    8.28    0.72   1
   7   8   8    3.74    0.53   1
   7   9   8   22.45    1.08   1
   7  10   8    2.01    0.46   1
   7  11   8   26.39    1.14   1
   7  12   8   16.43    0.97   1
   7  13   8   20.13    1.02   1
   7  14   8    2.33    0.45   1
   7   0   9    4.45    0.50   1
   7   1   9    4.26    0.50   1
   7   2   9    9.97    0.78   1
   7   3   9    6.88    0.58   1
   7   4   9   18.44    1.02   1
   7   5   9   10.24    0.68   1
   7   6   9    9.88    0.72   1
   7   7   9    3.65    0.49   1
   7   8   9   55.11    1.54   1
   7  10   9   30.36    1.19   1
   7  11   9    6.32    0.53   1
   7   1  10   29.86    1.20   1
   7   2  10    3.77    0.48   1
   7   3  10   63.35    1.63   1
   7   4  10    7.15    0.55   1
   7   6  10    9.31    0.86   1
   8   0   0    2.25    0.37   1
   8   1   0    1.64    0.36   1
   8   2   0   47.39    1.12   1
   8   4   0    2.27    0.37   1
   8   5   0   10.17    0.66   1
   8   6   0  125.91    2.00   1
   8   7   0   17.24    0.83   1
   8   8   0    5.48    0.50   1
   8   9   0   61.49    1.42   1
   8  10   0   17.08    0.86   1
   8  11   0   21.85    0.93   1
   8  12   0    9.78    0.65   1
   8  13   0   56.04    1.45   1
   8  14   0    1.22    0.42   1
   8  15   0    1.72    0.43   1
   8  16   0   34.74    1.22   1
   8  17   0   16.32    0.95   1
   8  19   0    8.90    0.66   1
   8  20   0    0.76    0.46   1
   8   0   1   30.22    0.95   1
   8   1   1   29.83    0.93   1
   8   2   1   92.38    1.62   1
   8   3   1    1.18    0.36   1
   8   4   1   31.30    0.97   1
   8   5   1   64.04    1.36   1
   8   6   1    2.44    0.39   1
   8   7   1   20.95    0.86   1
   8   8   1    4.90    0.49   1
   8   9   1   58.56    1.41   1
   8  10   1    4.16    0.43   1
   8  11   1    3.81    0.44   1
   8  12   1   20.35    0.96   1
   8  13   1   25.18    1.03   1
   8  14   1    4.36    0.48   1
   8  15   1   17.80    0.95   1
   8  16   1    8.37    0.74   1
   8  17   1   17.64    1.01   1
   8  18   1    3.77    0.49   1
   8  19   1   38.93    1.32   1
   8  20   1   35.93    1.26   1
   8   1   2    3.00    0.39   1
   8   2   2   30.98    0.97   1
   8   3   2   10.95    0.70   1
   8   4   2  124.18    1.99   1
   8   5   2    2.95    0.40   1
   8   6   2   47.91    1.21   1
   8   7   2   11.98    0.79   1
   8   8   2  175.06    2.53   1
   8   9   2    1.89    0.38   1
   8  10   2   22.21    0.95   1
   8  11   2    4.03    0.45   1
   8  12   2   26.61    1.05   1
   8  13   2    2.63    0.44   1
   8  14   2   26.10    1.08   1
   8  15   2    3.55    0.47   1
   8  16   2   20.38    1.02   1
   8  17   2    5.17    0.52   1
   8  18   2    2.81    0.47   1
   8  19   2    2.90    0.47   1
   8  20   2   10.00    0.75   1
   8   0   3   79.51    1.55   1
   8   1   3    1.83    0.38   1
   8   2   3   14.12    0.77   1
   8   3   3   33.54    1.02   1
   8   4   3   40.36    1.13   1
   8   5   3   22.06    0.91   1
   8   6   3   34.39    1.06   1
   8   7   3   33.56    1.07   1
   8   8   3   20.41    0.89   1
   8   9   3   57.32    1.42   1
   8  10   3   68.11    1.57   1
   8  11   3   10.54    0.80   1
   8  12   3   60.58    1.53   1
   8  13   3   36.00    1.22   1
   8  14   3   15.30    0.90   1
   8  16   3   11.78    0.88   1
   8  17   3    3.11    0.47   1
   8  18   3    5.73    0.53   1
   8  19   3    1.78    0.45   1
   8   0   4    5.29    0.48   1
   8   1   4   13.52    0.74   1
   8   2   4   15.70    0.80   1
   8   3   4   44.07    1.20   1
   8   4   4   22.83    0.93   1
   8   5   4   11.60    0.73   1
   8   6   4    6.63    0.51   1
   8   7   4   39.50    1.20   1
   8   8   4   62.68    1.50   1
   8   9   4   23.59    0.99   1
   8  10   4   29.57    1.11   1
   8  11   4   52.21    1.42   1
   8  12   4   15.05    0.89   1
   8  13   4   23.70    1.06   1
   8  14   4   24.01    1.10   1
   8  15   4   37.35    1.29   1
   8  16   4    8.08    0.58   1
   8  17   4    6.87    0.61   1
   8   0   5    0.64    0.40   1
   8   1   5   22.49    0.92   1
   8   2   5   17.50    0.86   1
   8   3   5   14.28    0.82   1
   8   4   5   16.43    0.86   1
   8   5   5   32.61    1.13   1
   8   6   5   44.76    1.28   1
   8   7   5    7.99    0.68   1
   8   8   5   35.55    1.21   1
   8   9   5   12.95    0.87   1
   8  10   5   47.65    1.39   1
   8  11   5    1.06    0.43   1
   8  12   5   51.75    1.49   1
   8  13   5    1.18    0.45   1
   8  14   5    5.27    0.52   1
   8  15   5   13.51    0.92   1
   8  16   5    9.83    0.86   1
   8  17   5    5.20    0.51   1
   8   0   6   82.28    1.75   1
   8   1   6    1.81    0.41   1
   8   2   6    8.08    0.68   1
   8   3   6   11.83    0.83   1
   8   4   6   35.52    1.18   1
   8   5   6   21.53    0.99   1
   8   6   6   15.79    0.91   1
   8   7   6   27.24    1.14   1
   8   8   6   12.50    0.91   1
   8   9   6    5.07    0.51   1
   8  11   6   28.42    1.18   1
   8  13   6    9.43    0.72   1
   8  14   6    3.17    0.48   1
   8  15   6   14.23    0.96   1
   8  16   6   18.03    1.01   1
   8   0   7   52.70    1.48   1
   8   1   7    4.82    0.49   1
   8   2   7    1.26    0.43   1
   8   3   7   10.90    0.75   1
   8   4   7   57.70    1.52   1
   8   5   7    0.98    0.44   1
   8   6   7    2.99    0.46   1
   8   7   7   34.50    1.25   1
   8   8   7   29.27    1.18   1
   8   9   7    9.96    0.77   1
   8  11   7   27.27    1.19   1
   8  12   7   31.52    1.20   1
   8  13   7    8.34    0.64   1
   8  14   7   12.68    0.91   1
   8   0   8   45.69    1.41   1
   8   1   8   43.16    1.37   1
   8   2   8    9.62    0.75   1
   8   3   8   33.96    1.27   1
   8   4   8   11.30    0.80   1
   8   5   8   13.61    0.95   1
   8   6   8    8.57    0.62   1
   8   7   8   12.87    0.92   1
   8   8   8    2.99    0.47   1
   8   9   8    3.77    0.49   1
   8  10   8    4.29    0.49   1
   8  11   8   21.60    1.06   1
   8   0   9    6.02    0.53   1
   8   1   9    5.60    0.53   1
   8   2   9   19.21    1.06   1
   8   3   9   16.50    0.99   1
   8   4   9   17.24    1.02   1
   8   5   9    0.87    0.48   1
   8   6   9   42.54    1.33   1
   8   7   9   22.32    1.08   1
   8   8   9    7.23    0.63   1
   9   2   0   23.19    0.92   1
   9   4   0  171.16    2.53   1
   9   6   0    6.44    0.54   1
   9   7   0    6.96    0.63   1
   9   8   0  121.70    2.13   1
   9   9   0    4.23    0.46   1
   9  10   0   15.19    0.89   1
   9  11   0   24.18    1.04   1
   9  12   0    5.34    0.51   1
   9  13   0    6.53    0.54   1
   9  14   0   40.72    1.33   1
   9  15   0   36.14    1.27   1
   9  18   0    4.50    0.50   1
   9   0   1    7.17    0.53   1
   9   1   1   11.48    0.74   1
   9   2   1   25.60    0.96   1
   9   3   1   12.54    0.78   1
   9   4   1    5.66    0.51   1
   9   5   1    6.73    0.61   1
   9   6   1   18.96    0.89   1
   9   7   1   38.01    1.20   1
   9   8   1   13.81    0.82   1
   9   9   1   37.47    1.18   1
   9  10   1    4.17    0.47   1
   9  11   1   33.43    1.19   1
   9  12   1    3.16    0.46   1
   9  13   1   57.60    1.54   1
   9  14   1   13.17    0.92   1
   9  15   1    4.06    0.49   1
   9  16   1    9.90    0.83   1
   9  17   1   21.17    1.06   1
   9  18   1    1.35    0.44   1
   9   0   2  108.37    1.93   1
   9   1   2    1.75    0.38   1
   9   2   2    4.42    0.44   1
   9   3   2    2.71    0.40   1
   9   4   2   89.12    1.76   1
   9   5   2   31.54    1.07   1
   9   6   2    9.67    0.77   1
   9   7   2   10.80    0.81   1
   9   8   2    6.09    0.50   1
   9   9   2   61.73    1.52   1
   9  10   2    9.72    0.76   1
   9  11   2   15.35    0.91   1
   9  12   2   18.77    1.00   1
   9  13   2   34.18    1.25   1
   9  14   2   10.25    0.78   1
   9  15   2   10.53    0.83   1
   9  16   2   17.72    1.01   1
   9  17   2    3.55    0.48   1
   9  18   2   12.63    0.87   1
   9   0   3   19.48    0.88   1
   9   1   3   19.90    0.91   1
   9   2   3   71.16    1.56   1
   9   4   3    7.52    0.57   1
   9   5   3   20.91    0.97   1
   9   6   3   26.93    1.06   1
   9   7   3   15.96    0.89   1
   9   8   3   83.28    1.79   1
   9   9   3    9.65    0.81   1
   9  10   3   48.08    1.39   1
   9  11   3   15.15    0.93   1
   9  12   3   42.97    1.35   1
   9  13   3    3.80    0.49   1
   9  14   3   29.61    1.21   1
   9  15   3    3.46    0.48   1
   9  16   3    2.08    0.45   1
   9  17   3    4.73    0.50   1
   9   0   4   64.39    1.54   1
   9   1   4    1.53    0.41   1
   9   2   4    3.33    0.44   1
   9   3   4   14.78    0.85   1
   9   4   4   41.07    1.24   1
   9   5   4   18.60    0.94   1
   9   6   4   28.19    1.07   1
   9   7   4   12.80    0.86   1
   9   8   4   33.92    1.20   1
   9   9   4   19.86    0.97   1
   9  10   4   47.45    1.42   1
   9  12   4   34.55    1.23   1
   9  13   4    1.27    0.45   1
   9  14   4    4.33    0.50   1
   9  15   4    5.16    0.52   1
   9  16   4    4.58    0.50   1
   9   0   5   67.00    1.63   1
   9   1   5   11.83    0.84   1
   9   2   5   42.21    1.29   1
   9   3   5   38.92    1.26   1
   9   4   5   12.81    0.87   1
   9   5   5    1.11    0.42   1
   9   6   5   17.25    0.97   1
   9   7   5   35.49    1.23   1
   9   8   5   19.96    1.00   1
   9   9   5    1.56    0.44   1
   9  10   5    2.81    0.47   1
   9  11   5   20.10    1.04   1
   9  12   5   11.29    0.86   1
   9  13   5    7.53    0.64   1
   9  14   5    2.71    0.47   1
   9  15   5    9.15    0.75   1
   9   0   6    0.85    0.44   1
   9   1   6    2.77    0.46   1
   9   2   6   15.51    0.94   1
   9   3   6   29.32    1.14   1
   9   4   6    8.88    0.73   1
   9   5   6   10.48    0.85   1
   9   6   6    9.77    0.81   1
   9   7   6   15.48    0.96   1
   9   8   6    3.09    0.48   1
   9   9   6   23.01    1.08   1
   9  10   6    5.05    0.57   1
   9  11   6   20.42    1.05   1
   9  12   6    8.90    0.73   1
   9  13   6    7.59    0.56   1
   9   0   7   17.74    1.00   1
   9   1   7    5.86    0.59   1
   9   2   7   20.04    1.06   1
   9   3   7    5.33    0.52   1
   9   4   7   19.00    1.05   1
   9   5   7   19.46    1.04   1
   9   6   7   61.16    1.61   1
   9   7   7    1.31    0.45   1
   9   8   7   20.42    1.02   1
   9   9   7   11.14    0.91   1
   9  10   7   12.98    0.90   1
   9  11   7    1.36    0.44   1
   9   0   8    4.24    0.50   1
   9   1   8    2.27    0.46   1
   9   2   8    2.86    0.47   1
   9   3   8   13.20    0.93   1
   9   4   8   22.83    1.11   1
   9   5   8    6.73    0.61   1
   9   6   8   18.32    0.98   1
   9   7   8   28.41    1.18   1
   9   8   8    4.91    0.51   1
  10   0   0  264.45    3.48   1
  10   2   0    9.96    0.78   1
  10   3   0    1.69    0.42   1
  10   4   0  115.56    2.10   1
  10   5   0   10.17    0.80   1
  10   6   0   23.75    1.03   1
  10   7   0    1.28    0.42   1
  10   8   0    2.98    0.46   1
  10   9   0   17.96    0.97   1
  10  10   0    3.59    0.48   1
  10  11   0    2.37    0.45   1
  10  12   0    1.87    0.45   1
  10  14   0    7.23    0.70   1
  10  15   0    1.55    0.44   1
  10   0   1    0.72    0.42   1
  10   1   1   39.71    1.24   1
  10   2   1   12.82    0.79   1
  10   3   1   18.54    0.92   1
  10   4   1   12.71    0.87   1
  10   5   1    5.63    0.56   1
  10   6   1   40.21    1.27   1
  10   7   1   11.48    0.77   1
  10   8   1    2.11    0.44   1
  10   9   1    9.76    0.83   1
  10  10   1   10.71    0.84   1
  10  11   1   47.15    1.43   1
  10  12   1    8.68    0.76   1
  10  13   1    9.05    0.67   1
  10  14   1    8.59    0.75   1
  10  15   1   16.46    0.98   1
  10  16   1    2.29    0.45   1
  10   0   2   50.19    1.39   1
  10   1   2    3.56    0.46   1
  10   2   2   49.18    1.40   1
  10   3   2   13.98    0.86   1
  10   4   2   18.26    0.93   1
  10   5   2    5.19    0.50   1
  10   6   2    2.62    0.45   1
  10   7   2   35.91    1.22   1
  10   8   2    7.18    0.70   1
  10   9   2    2.62    0.46   1
  10  10   2   31.69    1.23   1
  10  11   2   43.29    1.39   1
  10  12   2    2.27    0.46   1
  10  13   2    0.94    0.45   1
  10  14   2   33.76    1.24   1
  10  15   2   32.42    1.23   1
  10   0   3    7.36    0.69   1
  10   1   3    0.70    0.44   1
  10   2   3   14.70    0.88   1
  10   3   3    4.95    0.50   1
  10   4   3   15.16    0.90   1
  10   5   3    8.01    0.62   1
  10   6   3   56.07    1.49   1
  10   7   3    2.36    0.45   1
  10   9   3   10.53    0.85   1
  10  10   3   22.39    1.11   1
  10  11   3    1.77    0.45   1
  10  12   3   21.34    1.05   1
  10  13   3   26.65    1.16   1
  10  14   3    2.45    0.46   1
  10  15   3    2.41    0.45   1
  10   0   4    3.11    0.46   1
  10   1   4    8.54    0.71   1
  10   2   4   14.37    0.88   1
  10   3   4   17.44    0.99   1
  10   4   4   15.16    0.92   1
  10   5   4   31.79    1.21   1
  10   6   4    3.80    0.48   1
  10   7   4   38.07    1.33   1
  10   8   4   21.54    1.07   1
  10   9   4   15.26    0.94   1
  10  10   4   22.29    1.09   1
  10  11   4   20.58    1.06   1
  10  12   4    1.50    0.44   1
  10  13   4    0.93    0.44   1
  10  14   4   19.30    1.02   1
  10   0   5   17.54    0.98   1
  10   1   5   31.75    1.20   1
  10   2   5   29.53    1.21   1
  10   3   5    1.24    0.45   1
  10   4   5   22.59    1.06   1
  10   5   5   55.71    1.56   1
  10   6   5   19.34    1.04   1
  10   7   5    2.14    0.46   1
  10   8   5   12.25    0.89   1
  10   9   5   40.48    1.37   1
  10  10   5   12.81    0.93   1
  10  11   5    2.11    0.45   1
  10  12   5    9.11    0.76   1
  10   1   6    9.07    0.63   1
  10   2   6   11.41    0.91   1
  10   4   6    1.94    0.45   1
  10   5   6    3.86    0.49   1
  10   6   6    3.09    0.47   1
  10   7   6   12.76    0.83   1
  10   8   6    6.13    0.54   1
  10   9   6    6.51    0.60   1
  10  10   6   15.25    0.94   1
  10   0   7    3.32    0.48   1
  10   1   7    5.67    0.53   1
  10   2   7   83.46    1.89   1
  10   3   7    3.59    0.48   1
  10   4   7    9.03    0.76   1
  10   5   7    4.53    0.50   1
  10   6   7   36.15    1.27   1
  10   7   7   11.45    0.90   1
  11   1   0    0.76    0.44   1
  11   2   0  180.27    2.83   1
  11   3   0   10.22    0.77   1
  11   6   0   19.37    1.02   1
  11   7   0   57.52    1.55   1
  11   8   0    0.87    0.46   1
  11   9   0    1.67    0.45   1
  11  10   0   10.20    0.79   1
  11  11   0   54.62    1.51   1
  11  12   0    4.38    0.50   1
  11  13   0    9.53    0.78   1
  11   1   1   29.93    1.18   1
  11   2   1    1.55    0.44   1
  11   3   1    8.45    0.73   1
  11   4   1    7.94    0.63   1
  11   5   1   25.74    1.13   1
  11   6   1    1.61    0.45   1
  11   7   1   28.01    1.14   1
  11   8   1   14.82    0.95   1
  11   9   1    2.07    0.46   1
  11  10   1    7.84    0.64   1
  11  11   1    5.12    0.51   1
  11  12   1    0.84    0.45   1
  11  13   1   13.25    0.79   1
  11   0   2    7.40    0.69   1
  11   1   2    9.94    0.83   1
  11   2   2   14.30    0.96   1
  11   3   2   20.59    1.06   1
  11   4   2   12.72    0.87   1
  11   5   2    1.46    0.45   1
  11   6   2    1.91    0.45   1
  11   7   2   19.55    1.03   1
  11   8   2    9.25    0.75   1
  11   9   2    2.23    0.46   1
  11  10   2    3.14    0.48   1
  11  11   2   21.35    1.05   1
  11  12   2    5.88    0.58   1
  11   0   3   15.68    0.95   1
  11   1   3   19.14    1.00   1
  11   2   3    8.58    0.73   1
  11   4   3   27.26    1.16   1
  11   5   3   18.92    0.99   1
  11   6   3   17.96    1.01   1
  11   7   3   12.39    0.91   1
  11   8   3   15.13    0.99   1
  11   9   3    3.09    0.47   1
  11  10   3    3.65    0.48   1
  11  11   3   16.05    1.00   1
  11   0   4    6.89    0.62   1
  11   1   4   14.33    0.94   1
  11   2   4   27.30    1.15   1
  11   3   4   34.89    1.27   1
  11   4   4    7.33    0.57   1
  11   5   4    3.21    0.47   1
  11   6   4   16.24    0.94   1
  11   7   4    5.01    0.52   1
  11   8   4    1.39    0.44   1
  11   9   4   10.76    0.78   1
  11  10   4    3.33    0.47   1
  11   0   5    8.85    0.66   1
  11   1   5   14.29    0.97   1
  11   2   5   34.52    1.27   1
  11   3   5   22.34    1.04   1
  11   4   5    2.38    0.45   1
  11   5   5    3.03    0.47   1
  11   6   5   47.44    1.46   1
  11   7   5   12.00    0.87   1
  11   0   6   17.92    1.03   1
  11   1   6    4.71    0.51   1
  11   2   6    0.90    0.48   1
  11   3   6   27.38    1.14   1
  11   4   6    6.87    0.61   1
  12   0   0    8.80    0.67   1
  12   1   0   13.63    0.94   1
  12   2   0    5.27    0.58   1
  12   3   0   24.32    1.11   1
  12   4   0    2.28    0.45   1
  12   5   0   17.26    0.98   1
  12   6   0   20.06    1.02   1
  12   7   0    7.90    0.57   1
  12   9   0   35.19    1.27   1
  12   0   1   12.12    0.88   1
  12   1   1    5.03    0.52   1
  12   2   1    3.74    0.49   1
  12   3   1   22.00    1.09   1
  12   4   1    8.68    0.69   1
  12   5   1   33.83    1.27   1
  12   7   1   22.33    1.09   1
  12   8   1    9.88    0.85   1
  12   0   2    0.97    0.45   1
  12   1   2    5.04    0.51   1
  12   2   2   46.57    1.46   1
  12   3   2    1.49    0.44   1
  12   4   2    8.49    0.75   1
  12   5   2    7.59    0.62   1
  12   6   2   14.82    0.97   1
  12   7   2    4.80    0.50   1
  12   8   2    5.21    0.58   1
  12   1   3   17.67    0.96   1
  12   2   3    0.80    0.46   1
  12   3   3   20.36    1.05   1
  12   4   3    1.82    0.44   1
  12   5   3    6.90    0.70   1
  12   6   3    0.88    0.45   1
  12   0   4   13.92    0.92   1
  12   1   4   43.19    1.37   1
  12   2   4    8.89    0.83   1
;
_shelx_hkl_checksum              96670
loop_
_space_group_symop_operation_xyz
'x, y, z'
'-x+1/2, -y, z+1/2'
'x+1/2, -y+1/2, -z'
'-x, y+1/2, -z+1/2'
loop_
_atom_site_label
_atom_site_type_symbol
_atom_site_fract_x
_atom_site_fract_y
_atom_site_fract_z
_atom_site_U_iso_or_equiv
_atom_site_adp_type
_atom_site_occupancy
_atom_site_site_symmetry_order
_atom_site_calc_flag
_atom_site_refinement_flags_posn
_atom_site_refinement_flags_adp
_atom_site_refinement_flags_occupancy
_atom_site_disorder_assembly
_atom_site_disorder_group
O1 O 0.72707(7) 0.08373(3) 0.62434(8) 0.00694(7) Uani 1 1 d . . . . .
O2 O 0.44089(7) 0.18410(3) 0.76127(8) 0.00670(6) Uani 1 1 d . . . . .
N1 N 0.64730(8) 0.13742(4) 0.18281(9) 0.00565(7) Uani 1 1 d . . . . .
H1 H 0.698(2) 0.0649(9) 0.189(3) 0.031(4) Uiso 1 1 d . . . . .
H2 H 0.7686(17) 0.1828(8) 0.201(2) 0.017(3) Uiso 1 1 d . . . . .
H3 H 0.579(2) 0.1460(9) 0.016(2) 0.030(3) Uiso 1 1 d . . . . .
C1 C 0.46618(9) 0.16106(4) 0.35488(10) 0.00499(7) Uani 1 1 d . . . . .
H4 H 0.4235(15) 0.2400(7) 0.3434(19) 0.006(2) Uiso 1 1 d . . . . .
C2 C 0.25989(10) 0.09073(5) 0.30330(11) 0.00746(8) Uani 1 1 d . . . . .
H5 H 0.2018(18) 0.1089(8) 0.152(2) 0.016(3) Uiso 1 1 d . . . . .
H6 H 0.1440(17) 0.1076(8) 0.423(2) 0.013(3) Uiso 1 1 d . . . . .
H7 H 0.3015(16) 0.0097(9) 0.309(2) 0.018(3) Uiso 1 1 d . . . . .
C3 C 0.55399(9) 0.14080(4) 0.59994(10) 0.00470(7) Uani 1 1 d . . . . .
loop_
_atom_site_aniso_label
_atom_site_aniso_U_11
_atom_site_aniso_U_22
_atom_site_aniso_U_33
_atom_site_aniso_U_23
_atom_site_aniso_U_13
_atom_site_aniso_U_12
O1 0.00679(14) 0.00706(13) 0.00697(17) 0.00064(12) -0.00056(13) 0.00217(12)
O2 0.00797(14) 0.00793(13) 0.00421(15) -0.00072(11) 0.00098(13) 0.00162(12)
N1 0.00581(14) 0.00653(14) 0.00462(17) -0.00022(13) 0.00065(13) 0.00013(13)
C1 0.00558(16) 0.00544(14) 0.00393(19) -0.00004(13) 0.00002(14) 0.00050(13)
C2 0.00630(17) 0.00946(17) 0.0066(2) -0.00047(16) -0.00060(15) -0.00125(16)
C3 0.00562(15) 0.00427(14) 0.00420(18) 0.00007(13) -0.00041(14) -0.00046(14)
loop_
_atom_type_symbol
_atom_type_description
_atom_type_scat_dispersion_real
_atom_type_scat_dispersion_imag
_atom_type_scat_source
C C 0.0033 0.0016 'International Tables Vol C Tables 4.2.6.8 and 6.1.1.4'
H H 0.0000 0.0000 'International Tables Vol C Tables 4.2.6.8 and 6.1.1.4'
N N 0.0061 0.0033 'International Tables Vol C Tables 4.2.6.8 and 6.1.1.4'
O O 0.0106 0.0060 'International Tables Vol C Tables 4.2.6.8 and 6.1.1.4'
loop_
_geom_angle_atom_site_label_1
_geom_angle_atom_site_label_2
_geom_angle_atom_site_label_3
_geom_angle
_geom_angle_site_symmetry_1
_geom_angle_site_symmetry_3
_geom_angle_publ_flag
C1 N1 H1 112.8(8) . . ?
C1 N1 H2 111.7(7) . . ?
H1 N1 H2 108.6(9) . . ?
C1 N1 H3 108.4(7) . . ?
H1 N1 H3 104.7(10) . . ?
H2 N1 H3 110.4(10) . . ?
N1 C1 C2 109.62(5) . . ?
N1 C1 C3 110.05(4) . . ?
C2 C1 C3 111.23(5) . . ?
N1 C1 H4 108.9(6) . . ?
C2 C1 H4 109.3(5) . . ?
C3 C1 H4 107.7(6) . . ?
C1 C2 H5 109.4(6) . . ?
C1 C2 H6 107.4(6) . . ?
H5 C2 H6 109.7(8) . . ?
C1 C2 H7 110.4(6) . . ?
H5 C2 H7 109.8(9) . . ?
H6 C2 H7 110.1(8) . . ?
O1 C3 O2 125.84(5) . . ?
O1 C3 C1 118.32(5) . . ?
O2 C3 C1 115.84(5) . . ?
loop_
_geom_bond_atom_site_label_1
_geom_bond_atom_site_label_2
_geom_bond_distance
_geom_bond_site_symmetry_2
_geom_bond_publ_flag
O1 C3 1.2498(7) . ?
O2 C3 1.2669(7) . ?
N1 C1 1.4935(8) . ?
N1 H1 0.940(11) . ?
N1 H2 0.915(10) . ?
N1 H3 1.052(13) . ?
C1 C2 1.5259(8) . ?
C1 C3 1.5325(8) . ?
C1 H4 1.002(9) . ?
C2 H5 0.970(13) . ?
C2 H6 0.998(11) . ?
C2 H7 1.024(11) . ?
loop_
_geom_torsion_atom_site_label_1
_geom_torsion_atom_site_label_2
_geom_torsion_atom_site_label_3
_geom_torsion_atom_site_label_4
_geom_torsion
_geom_torsion_site_symmetry_1
_geom_torsion_site_symmetry_2
_geom_torsion_site_symmetry_3
_geom_torsion_site_symmetry_4
_geom_torsion_publ_flag
N1 C1 C3 O1 -18.15(7) . . . . ?
C2 C1 C3 O1 103.53(6) . . . . ?
N1 C1 C3 O2 162.15(4) . . . . ?
C2 C1 C3 O2 -76.16(6) . . . . ?
