#------------------------------------------------------------------------------
#$Date: 2022-03-02 05:20:08 +0200 (Wed, 02 Mar 2022) $
#$Revision: 273207 $
#$URL: file:///home/coder/svn-repositories/cod/cif/1/56/64/1566429.cif $
#------------------------------------------------------------------------------
#
# This file is available in the Crystallography Open Database (COD),
# http://www.crystallography.net/. The original data for this entry
# were provided by IUCr Journals, http://journals.iucr.org/.
#
# The file may be used within the scientific community so long as
# proper attribution is given to the journal article from which the
# data were obtained.
#
data_1566429
loop_
_publ_author_name
'Ruth, Paul Niklas'
'Herbst-Irmer, Regine'
'Stalke, Dietmar'
_publ_section_title
;
 Hirshfeld atom refinement based on projector augmented wave densities
 with periodic boundary conditions
;
_journal_issue                   2
_journal_name_full               IUCrJ
_journal_page_first              286
_journal_page_last               297
_journal_paper_doi               10.1107/S2052252522001385
_journal_volume                  9
_journal_year                    2022
_chemical_absolute_configuration syn
_chemical_formula_moiety         'C3 H7 N O2'
_chemical_formula_sum            'C3 H7 N O2'
_chemical_formula_weight         89.0947
_space_group_crystal_system      orthorhombic
_space_group_IT_number           19
_space_group_name_Hall           'P 2ac 2ab'
_space_group_name_H-M_alt        'P 21 21 21'
_atom_sites_solution_hydrogens   difmap
_audit_creation_method           'xHARPY 0.1'
_cell_angle_alpha                90
_cell_angle_beta                 90
_cell_angle_gamma                90
_cell_formula_units_Z            4
_cell_length_a                   5.9279(10)
_cell_length_b                   12.2597(17)
_cell_length_c                   5.7939(9)
_cell_measurement_reflns_used    1524
_cell_measurement_temperature    23
_cell_measurement_theta_max      22.5
_cell_measurement_theta_min      15.0
_cell_volume                     421.07(11)
_computing_publication_material  'xHARPY 0.1'
_computing_structure_refinement  'xHARPY 0.1'
_computing_structure_solution    'SHELXS-2013 (Sheldrick, 2008)'
_diffrn_ambient_temperature      23
_diffrn_measured_fraction_theta_full 0.994
_diffrn_measured_fraction_theta_max 0.993
_diffrn_measurement_device_type  'P-1 four circle diffractometer'
_diffrn_measurement_method       'area detector'
_diffrn_radiation_type           MoK\a
_diffrn_radiation_wavelength     0.71073
_diffrn_reflns_av_unetI/netI     0.0243
_diffrn_reflns_Laue_measured_fraction_full 0.994
_diffrn_reflns_Laue_measured_fraction_max 0.993
_diffrn_reflns_limit_h_max       12
_diffrn_reflns_limit_h_min       0
_diffrn_reflns_limit_k_max       26
_diffrn_reflns_limit_k_min       0
_diffrn_reflns_limit_l_max       12
_diffrn_reflns_limit_l_min       0
_diffrn_reflns_number            2519
_diffrn_reflns_point_group_measured_fraction_full 0.618
_diffrn_reflns_point_group_measured_fraction_max 0.567
_diffrn_reflns_theta_full        25.242
_diffrn_reflns_theta_max         50.138
_diffrn_reflns_theta_min         3.323
_exptl_absorpt_coefficient_mu    0.117
_exptl_absorpt_correction_type   none
_exptl_crystal_colour            colorless
_exptl_crystal_density_diffrn    1.405
_exptl_crystal_density_method    'not measured'
_exptl_crystal_description       sphere
_exptl_crystal_F_000             192
_exptl_crystal_size_rad          0.18
_refine_diff_density_max         0.5326
_refine_diff_density_min         -0.3044
_refine_diff_density_rms         0.0643
_refine_ls_extinction_method     none
_refine_ls_goodness_of_fit_ref   2.25
_refine_ls_hydrogen_treatment    refall
_refine_ls_matrix_type           full
_refine_ls_number_parameters     83
_refine_ls_number_reflns         2519
_refine_ls_number_restraints     0
_refine_ls_R_factor_all          0.0304
_refine_ls_R_factor_gt           0.0285
_refine_ls_shift/su_max          0.0
_refine_ls_shift/su_mean         0.0
_refine_ls_structure_factor_coef Fsqd
_refine_ls_weighting_details     w=1/[\s^2^(Fo^2^)]
_refine_ls_weighting_scheme      sigma
_refine_ls_wR_factor_gt          0.0635
_refine_ls_wR_factor_ref         0.0637
_reflns_Friedel_coverage         0.0
_reflns_Friedel_fraction_full    0.0
_reflns_Friedel_fraction_max     0.0
_reflns_number_gt                2393
_reflns_number_total             2519
_reflns_threshold_expression     'I > 2\s(I)'
_cod_data_source_file            fc5060.cif
_cod_data_source_block           A23_xHARPy_iam
_cod_database_code               1566429
loop_
_space_group_symop_operation_xyz
'x, y, z'
'-x+1/2, -y, z+1/2'
'x+1/2, -y+1/2, -z'
'-x, y+1/2, -z+1/2'
loop_
_atom_site_label
_atom_site_type_symbol
_atom_site_fract_x
_atom_site_fract_y
_atom_site_fract_z
_atom_site_U_iso_or_equiv
_atom_site_adp_type
_atom_site_occupancy
_atom_site_site_symmetry_order
O1 O 0.72707(7) 0.08373(3) 0.62435(8) 0.00693(7) Uani 1.0 1
O2 O 0.44089(7) 0.18410(3) 0.76127(8) 0.00670(6) Uani 1.0 1
N1 N 0.64730(8) 0.13742(4) 0.18282(9) 0.00565(7) Uani 1.0 1
H1 H 0.6980(19) 0.0649(9) 0.189(2) 0.031(3) Uiso 1.0 1
H2 H 0.7687(17) 0.1828(8) 0.201(2) 0.017(3) Uiso 1.0 1
H3 H 0.579(2) 0.1459(9) 0.016(2) 0.030(3) Uiso 1.0 1
C1 C 0.46619(9) 0.16105(4) 0.35487(10) 0.00498(7) Uani 1.0 1
H4 H 0.4234(15) 0.2399(7) 0.3434(19) 0.007(2) Uiso 1.0 1
C2 C 0.25989(10) 0.09073(5) 0.30330(11) 0.00745(8) Uani 1.0 1
H5 H 0.2018(18) 0.1088(8) 0.152(2) 0.016(3) Uiso 1.0 1
H6 H 0.1439(17) 0.1076(8) 0.423(2) 0.013(3) Uiso 1.0 1
H7 H 0.3016(16) 0.0097(8) 0.309(2) 0.018(3) Uiso 1.0 1
C3 C 0.55399(9) 0.14080(4) 0.59994(9) 0.00469(7) Uani 1.0 1
loop_
_atom_site_aniso_label
_atom_site_aniso_U_11
_atom_site_aniso_U_22
_atom_site_aniso_U_33
_atom_site_aniso_U_23
_atom_site_aniso_U_13
_atom_site_aniso_U_12
O1 0.00678(13) 0.00706(13) 0.00696(16) 0.00064(12) -0.00055(12) 0.00218(11)
O2 0.00797(13) 0.00792(13) 0.00421(15) -0.00072(11) 0.00098(12) 0.00162(12)
N1 0.00581(14) 0.00651(14) 0.00463(16) -0.00022(12) 0.00065(13) 0.00014(12)
C1 0.00556(16) 0.00544(14) 0.00394(18) -0.00004(12) 0.00001(14) 0.00050(13)
C2 0.00630(17) 0.00946(17) 0.0066(2) -0.00047(15) -0.00060(15) -0.00125(15)
C3 0.00562(15) 0.00428(13) 0.00419(17) 0.00007(12) -0.00041(14) -0.00044(13)
loop_
_atom_type_symbol
_atom_type_description
_atom_type_scat_dispersion_real
_atom_type_scat_dispersion_imag
_atom_type_scat_source
C C 0.0033 0.0016 'International Tables Vol C Tables 4.2.6.8 and 6.1.1.4'
H H 0.0000 0.0000 'International Tables Vol C Tables 4.2.6.8 and 6.1.1.4'
N N 0.0061 0.0033 'International Tables Vol C Tables 4.2.6.8 and 6.1.1.4'
O O 0.0106 0.0060 'International Tables Vol C Tables 4.2.6.8 and 6.1.1.4'
loop_
_geom_angle_atom_site_label_1
_geom_angle_atom_site_label_2
_geom_angle_atom_site_label_3
_geom_angle
C1 N1 H1 112.8(8)
C1 N1 H2 111.7(7)
H1 N1 H2 108.6(9)
C1 N1 H3 108.4(7)
H1 N1 H3 105(1)
H2 N1 H3 110.4(9)
C3 C1 N1 110.05(4)
C3 C1 C2 111.23(5)
N1 C1 C2 109.62(5)
C3 C1 H4 107.7(6)
N1 C1 H4 109.0(6)
C2 C1 H4 109.2(5)
C1 C2 H5 109.4(6)
C1 C2 H6 107.4(6)
H5 C2 H6 109.7(8)
C1 C2 H7 110.4(5)
H5 C2 H7 109.8(9)
H6 C2 H7 110.1(8)
O2 C3 O1 125.84(5)
O2 C3 C1 115.85(5)
O1 C3 C1 118.32(5)
loop_
_geom_bond_atom_site_label_1
_geom_bond_atom_site_label_2
_geom_bond_distance
O1 C3 1.2498(7)
O2 C3 1.2669(7)
N1 C1 1.4934(7)
N1 H1 0.939(11)
N1 H2 0.916(10)
N1 H3 1.051(13)
C1 C3 1.5326(8)
C1 C2 1.5259(8)
C1 H4 1.002(9)
C2 H5 0.969(12)
C2 H6 0.998(11)
C2 H7 1.024(10)
loop_
_refln_index_h
_refln_index_k
_refln_index_l
_refln_F_squared_calc
_refln_F_squared_meas
_refln_F_squared_sigma
0 2 0 180.98 177.74 1.70
0 4 0 5172.54 5015.15 42.99
0 6 0 81.91 86.74 1.01
0 8 0 49.91 43.86 0.70
0 10 0 0.03 0.77 0.33
0 12 0 223.84 225.12 2.57
0 14 0 48.88 56.64 1.09
0 16 0 20.29 24.42 0.83
0 18 0 216.75 220.16 2.88
0 20 0 0.00 0.21 0.33
0 22 0 129.94 131.08 2.28
0 24 0 0.05 0.22 0.37
0 26 0 5.13 6.24 0.59
0 1 1 704.24 700.61 7.09
0 2 1 146.25 115.61 1.18
0 3 1 626.77 685.29 6.19
0 4 1 87.72 95.04 1.03
0 5 1 0.32 0.22 0.16
0 6 1 426.55 459.36 4.43
0 7 1 34.21 35.72 0.59
0 8 1 41.32 42.90 0.71
0 9 1 35.95 31.03 0.64
0 10 1 127.27 132.80 1.64
0 11 1 68.35 64.53 1.07
0 12 1 71.70 73.84 1.19
0 13 1 21.11 18.22 0.67
0 14 1 36.16 36.66 0.91
0 15 1 88.66 87.98 1.51
0 16 1 0.69 2.30 8.90
0 17 1 0.86 1.09 0.33
0 18 1 54.41 57.91 1.32
0 19 1 15.60 15.63 0.87
0 20 1 27.42 26.54 1.01
0 21 1 2.11 2.60 0.41
0 23 1 1.46 1.67 0.41
0 24 1 0.03 0.16 0.37
0 25 1 2.10 2.89 0.54
0 26 1 18.62 19.13 1.19
0 0 2 2684.88 2749.01 32.21
0 1 2 516.24 515.64 6.34
0 2 2 150.81 175.60 2.01
0 3 2 58.18 54.35 0.77
0 4 2 157.27 165.58 1.73
0 5 2 523.85 548.20 5.15
0 6 2 93.79 93.54 1.13
0 7 2 3.24 5.24 0.33
0 8 2 106.99 108.05 1.35
0 9 2 22.47 22.91 0.58
0 10 2 41.62 44.73 0.83
0 11 2 82.13 81.03 1.22
0 12 2 27.56 27.32 0.73
0 13 2 17.94 20.78 0.67
0 14 2 20.89 20.59 0.73
0 15 2 179.50 175.36 2.31
0 16 2 4.41 4.30 0.39
0 17 2 61.62 59.06 1.34
0 18 2 18.76 19.73 0.88
0 19 2 114.43 115.94 2.02
0 20 2 0.99 0.94 0.39
0 21 2 44.28 44.43 1.32
0 22 2 35.48 35.60 1.25
0 23 2 17.00 17.42 0.99
0 24 2 1.69 2.41 0.44
0 25 2 20.32 21.72 1.22
0 26 2 1.54 2.47 0.48
0 1 3 75.99 81.23 1.69
0 2 3 154.18 152.58 2.83
0 3 3 199.82 198.68 2.37
0 4 3 680.32 714.73 7.52
0 5 3 70.65 78.64 1.16
0 6 3 257.07 263.40 2.75
0 7 3 21.49 21.67 0.55
0 8 3 58.01 59.62 0.96
0 9 3 141.86 138.04 1.72
0 10 3 36.93 38.32 0.81
0 11 3 74.28 68.06 1.14
0 12 3 118.30 115.01 1.64
0 13 3 143.25 140.73 1.93
0 14 3 27.49 26.90 0.83
0 15 3 90.38 87.49 1.53
0 16 3 154.20 149.70 2.19
0 17 3 46.20 45.66 1.20
0 18 3 26.27 26.11 0.96
0 19 3 3.18 2.42 0.39
0 20 3 43.39 42.98 1.30
0 21 3 0.72 0.84 0.37
0 22 3 0.68 1.12 0.39
0 23 3 24.57 27.23 1.13
0 24 3 12.13 12.30 0.88
0 25 3 5.29 4.81 0.56
0 0 4 207.17 202.78 3.77
0 1 4 34.83 38.51 1.16
0 2 4 87.68 90.00 1.99
0 3 4 6.62 7.74 0.44
0 4 4 213.11 221.92 2.74
0 5 4 0.56 0.65 0.36
0 6 4 67.32 68.60 1.19
0 7 4 30.30 28.25 0.75
0 8 4 62.44 62.36 1.04
0 9 4 7.62 6.96 0.45
0 10 4 89.63 87.37 1.34
0 11 4 98.63 94.76 1.46
0 12 4 39.09 37.72 0.93
0 13 4 12.50 11.11 0.63
0 14 4 139.01 137.74 2.02
0 15 4 44.80 43.78 1.14
0 16 4 91.86 91.56 1.68
0 17 4 5.47 5.52 0.45
0 18 4 10.14 9.31 0.72
0 19 4 3.47 3.25 0.42
0 20 4 1.62 1.77 0.40
0 21 4 0.61 0.18 0.36
0 22 4 3.09 4.21 0.48
0 23 4 0.02 0.12 0.39
0 24 4 24.29 25.70 1.10
0 25 4 1.71 2.80 0.49
0 1 5 252.36 228.34 4.37
0 2 5 146.96 132.76 2.86
0 3 5 47.84 47.59 1.49
0 4 5 400.02 376.29 4.43
0 5 5 184.52 171.88 2.35
0 6 5 0.39 0.75 0.40
0 7 5 8.52 6.41 0.51
0 8 5 155.62 140.45 2.11
0 9 5 75.07 67.08 1.38
0 10 5 8.79 7.69 0.53
0 11 5 22.00 20.06 0.75
0 12 5 1.02 1.44 0.32
0 13 5 76.66 76.58 1.45
0 14 5 2.44 3.40 0.39
0 15 5 12.81 13.64 0.76
0 16 5 13.49 12.84 0.77
0 17 5 71.30 74.49 1.60
0 18 5 2.83 2.26 0.40
0 19 5 13.74 13.17 0.87
0 20 5 0.12 0.29 0.39
0 21 5 20.84 18.99 1.00
0 22 5 4.83 5.31 0.51
0 23 5 13.32 12.11 0.93
0 24 5 0.33 0.25 0.37
0 0 6 0.15 0.76 0.61
0 1 6 97.88 90.67 2.37
0 2 6 16.34 15.67 0.99
0 3 6 0.89 1.44 0.63
0 4 6 14.41 15.46 1.05
0 5 6 86.46 83.42 1.52
0 6 6 13.27 10.81 0.63
0 7 6 141.35 137.38 2.17
0 8 6 32.90 29.02 0.96
0 9 6 12.91 13.88 0.75
0 10 6 14.80 15.09 0.80
0 11 6 115.79 113.35 1.84
0 12 6 5.42 6.10 0.54
0 13 6 4.28 4.62 0.47
0 14 6 10.57 11.31 0.71
0 15 6 0.00 0.09 0.33
0 16 6 40.43 40.17 1.24
0 17 6 29.16 28.16 1.07
0 18 6 6.51 7.54 0.66
0 19 6 41.55 42.76 1.34
0 20 6 1.10 1.78 0.41
0 21 6 22.16 20.60 1.05
0 22 6 9.59 10.23 0.75
0 23 6 15.97 16.44 0.96
0 1 7 54.77 56.84 1.99
0 2 7 528.57 523.41 9.41
0 3 7 0.09 0.45 0.74
0 4 7 11.84 11.40 1.06
0 5 7 21.53 23.29 1.39
0 6 7 40.39 41.75 1.18
0 7 7 47.17 45.12 1.24
0 8 7 1.48 1.88 0.42
0 9 7 4.13 4.78 0.50
0 10 7 9.77 8.92 0.78
0 11 7 29.86 30.37 1.15
0 12 7 4.72 5.65 0.62
0 13 7 12.57 11.26 0.77
0 14 7 0.84 1.43 0.37
0 16 7 80.90 79.01 1.76
0 17 7 0.44 1.02 0.39
0 18 7 1.64 2.23 0.42
0 19 7 5.10 6.63 0.54
0 20 7 132.91 130.79 2.37
0 21 7 0.49 0.88 0.38
0 0 8 26.79 23.67 1.46
0 1 8 2.15 3.47 0.92
0 2 8 9.90 8.42 1.11
0 3 8 14.68 15.20 1.30
0 4 8 1.61 1.67 0.92
0 6 8 10.84 9.94 0.79
0 7 8 55.16 57.67 1.51
0 8 8 88.00 84.63 1.86
0 9 8 11.15 11.86 0.84
0 10 8 4.20 6.33 0.67
0 11 8 39.90 38.78 1.36
0 12 8 39.77 38.91 1.40
0 13 8 31.74 31.09 1.30
0 14 8 10.23 12.13 0.95
0 15 8 0.08 0.54 0.37
0 16 8 0.44 0.97 0.39
0 17 8 6.75 6.35 0.53
0 18 8 0.24 0.56 0.39
0 19 8 9.34 8.92 0.74
0 20 8 5.01 5.96 0.51
0 1 9 7.18 8.24 1.13
0 2 9 45.51 44.85 2.12
0 3 9 60.99 61.27 2.45
0 4 9 20.20 21.49 1.57
0 5 9 1.70 1.60 0.93
0 6 9 1.25 1.53 0.95
0 7 9 44.17 45.00 1.48
0 8 9 76.47 77.04 1.88
0 9 9 17.22 15.93 1.03
0 10 9 12.82 13.40 0.99
0 11 9 2.04 2.17 0.51
0 12 9 35.26 33.74 1.35
0 13 9 28.00 28.19 1.30
0 14 9 0.81 0.28 0.47
0 15 9 45.35 45.75 1.59
0 16 9 12.44 13.98 1.06
0 17 9 13.82 15.02 0.96
0 18 9 8.19 8.30 0.62
0 0 10 4.23 4.65 1.19
0 1 10 0.06 0.01 0.97
0 2 10 20.59 20.02 1.68
0 3 10 50.45 47.35 2.34
0 4 10 25.39 27.41 1.88
0 5 10 30.75 31.63 1.99
0 6 10 39.58 40.25 2.25
0 7 10 52.31 52.57 2.52
0 8 10 55.03 58.22 1.74
0 9 10 6.87 6.51 0.64
0 10 10 1.03 1.80 0.50
0 11 10 16.01 15.84 1.11
0 12 10 11.35 12.98 0.90
0 13 10 10.42 12.13 1.01
0 14 10 43.08 42.14 1.57
0 15 10 4.53 5.66 0.63
0 1 11 0.67 0.47 1.18
0 2 11 1.68 2.61 1.19
0 3 11 7.26 6.57 1.43
0 4 11 1.08 0.89 1.25
0 5 11 1.78 0.87 1.25
0 6 11 8.40 7.47 1.49
0 7 11 2.34 2.99 1.31
0 8 11 7.64 8.12 1.49
0 9 11 8.29 7.74 0.74
0 10 11 0.89 1.52 0.52
0 11 11 8.99 8.07 0.81
0 12 11 30.49 29.17 1.36
0 0 12 0.01 2.40 8.90
0 1 12 27.01 26.12 2.18
0 2 12 17.20 19.54 1.90
0 3 12 112.58 112.41 3.83
0 4 12 0.28 0.41 1.37
0 5 12 9.43 9.46 1.66
0 6 12 48.44 53.95 2.66
0 7 12 63.60 62.70 2.94
1 1 0 246.13 243.28 2.29
1 2 0 5331.63 5307.64 56.20
1 3 0 66.22 57.17 0.67
1 4 0 1568.21 1623.69 14.29
1 5 0 301.75 327.33 3.18
1 6 0 54.15 59.85 0.77
1 7 0 16.38 18.62 0.42
1 8 0 346.70 389.01 3.87
1 9 0 1.90 3.15 0.33
1 10 0 43.55 41.65 0.77
1 11 0 97.01 93.72 1.31
1 12 0 21.34 26.04 0.68
1 13 0 51.34 55.45 1.05
1 14 0 1.39 0.83 0.42
1 15 0 85.03 83.49 1.43
1 16 0 22.63 23.66 0.82
1 17 0 28.79 28.58 0.93
1 18 0 1.09 0.90 0.37
1 19 0 34.68 32.63 1.06
1 20 0 42.37 38.96 1.20
1 21 0 1.11 1.39 0.41
1 22 0 3.81 3.86 0.46
1 23 0 6.88 6.78 0.58
1 24 0 9.88 9.47 0.76
1 26 0 6.79 7.08 0.62
1 0 1 62.88 74.28 0.81
1 1 1 123.76 129.21 1.31
1 2 1 88.19 100.72 1.07
1 3 1 978.00 1052.12 9.36
1 4 1 137.56 151.91 1.59
1 5 1 393.57 423.60 4.09
1 6 1 22.20 21.17 0.42
1 7 1 315.08 328.28 3.30
1 8 1 216.60 226.94 2.40
1 9 1 230.51 224.72 2.45
1 10 1 127.49 126.94 1.62
1 11 1 18.49 16.59 0.54
1 12 1 1.53 0.34 0.35
1 13 1 128.63 123.48 1.71
1 14 1 27.38 28.61 0.80
1 15 1 88.14 84.77 1.47
1 16 1 58.52 59.77 1.25
1 17 1 25.02 24.60 0.88
1 18 1 22.89 23.01 0.90
1 19 1 13.98 14.81 0.80
1 20 1 5.92 5.64 0.47
1 21 1 1.42 2.00 0.40
1 22 1 31.87 33.63 1.17
1 23 1 8.97 10.31 0.86
1 24 1 21.30 20.25 1.04
1 25 1 8.02 9.19 0.79
1 26 1 0.78 1.94 0.47
1 0 2 3113.27 3004.24 34.96
1 1 2 62.90 69.33 0.91
1 2 2 516.14 553.80 5.92
1 3 2 182.93 187.78 1.96
1 4 2 971.49 1029.60 9.31
1 5 2 17.97 18.00 0.40
1 6 2 201.34 212.35 2.23
1 7 2 158.02 156.77 1.76
1 8 2 11.56 9.91 0.42
1 9 2 56.43 59.80 0.95
1 10 2 56.95 57.54 0.97
1 11 2 120.91 114.11 1.54
1 12 2 115.05 111.66 1.57
1 13 2 111.52 106.63 1.58
1 14 2 52.80 52.93 1.10
1 15 2 29.73 30.61 0.89
1 16 2 27.17 26.73 0.91
1 17 2 75.49 73.26 1.48
1 18 2 106.32 106.52 1.86
1 19 2 39.17 39.87 1.16
1 20 2 9.96 9.39 0.68
1 21 2 21.17 22.13 0.99
1 22 2 37.53 35.39 1.23
1 23 2 41.73 41.99 1.37
1 24 2 9.51 10.30 0.77
1 25 2 0.07 0.15 0.41
1 26 2 3.34 4.35 0.54
1 0 3 27.28 31.00 0.89
1 1 3 278.74 292.73 5.06
1 2 3 193.78 217.47 2.55
1 3 3 82.08 88.75 1.24
1 4 3 92.49 92.56 1.30
1 5 3 22.73 22.29 0.51
1 6 3 125.25 133.63 1.58
1 7 3 6.02 5.01 0.37
1 8 3 253.76 249.27 2.72
1 9 3 27.79 28.07 0.68
1 10 3 76.57 77.10 1.20
1 11 3 15.03 16.12 0.58
1 12 3 32.73 31.25 0.81
1 13 3 35.19 32.71 0.88
1 14 3 112.36 111.12 1.72
1 15 3 33.98 32.40 0.95
1 16 3 9.45 8.99 0.59
1 17 3 25.12 24.21 0.91
1 18 3 26.64 25.66 0.97
1 19 3 25.96 26.34 1.02
1 20 3 7.62 7.51 0.64
1 21 3 22.87 22.82 1.01
1 22 3 6.59 6.96 0.59
1 23 3 2.77 2.65 0.44
1 24 3 7.68 7.87 0.62
1 25 3 14.18 17.33 1.12
1 0 4 308.55 317.74 5.64
1 1 4 256.25 251.61 4.58
1 2 4 27.88 27.82 1.01
1 3 4 23.73 22.65 0.62
1 4 4 102.06 106.12 1.52
1 5 4 81.65 80.98 1.30
1 6 4 127.16 126.14 1.81
1 7 4 85.17 81.01 1.19
1 8 4 46.49 43.71 0.85
1 9 4 2.43 2.11 0.37
1 10 4 20.64 21.97 0.68
1 11 4 63.78 60.33 1.14
1 12 4 145.16 136.31 1.93
1 13 4 26.18 26.25 0.83
1 14 4 42.69 38.14 1.03
1 15 4 2.32 2.88 0.38
1 16 4 21.27 22.82 0.88
1 17 4 26.57 27.18 0.98
1 18 4 55.18 56.69 1.42
1 19 4 38.86 39.48 1.21
1 20 4 8.00 8.94 0.77
1 21 4 10.84 10.45 0.76
1 22 4 19.83 21.07 1.01
1 23 4 14.10 14.59 0.93
1 24 4 1.94 2.07 0.42
1 0 5 306.47 275.34 5.13
1 1 5 118.10 118.46 2.62
1 2 5 449.88 448.71 7.86
1 3 5 188.01 170.59 3.52
1 4 5 112.84 104.61 1.63
1 5 5 10.14 8.29 0.51
1 6 5 229.05 222.32 2.91
1 7 5 75.87 70.60 1.34
1 8 5 67.03 67.09 1.33
1 9 5 91.42 87.14 1.41
1 10 5 10.73 9.21 0.56
1 11 5 35.27 34.70 0.92
1 12 5 24.80 24.27 0.83
1 13 5 44.99 43.28 1.11
1 14 5 38.21 38.90 1.08
1 15 5 28.93 28.88 0.99
1 16 5 72.35 76.07 1.58
1 17 5 11.16 11.09 0.77
1 18 5 6.47 6.74 0.63
1 19 5 17.33 18.08 0.94
1 20 5 62.96 62.58 1.59
1 21 5 24.29 24.30 1.08
1 22 5 1.69 1.67 0.41
1 23 5 3.38 4.43 0.48
1 24 5 17.18 16.87 0.97
1 0 6 0.23 0.07 0.61
1 1 6 0.39 0.87 0.60
1 2 6 8.71 7.30 0.81
1 3 6 14.52 12.02 0.96
1 4 6 18.33 15.48 1.05
1 5 6 12.06 12.86 0.65
1 6 6 22.61 21.18 0.79
1 7 6 7.85 7.53 0.60
1 8 6 10.04 8.80 0.66
1 9 6 11.29 10.72 0.74
1 10 6 3.78 2.35 0.42
1 11 6 10.89 9.52 0.66
1 12 6 29.09 28.07 0.93
1 13 6 7.59 7.30 0.58
1 14 6 26.34 27.11 0.97
1 15 6 11.48 10.65 0.79
1 16 6 3.00 2.89 0.41
1 17 6 20.44 20.83 0.97
1 18 6 12.58 13.41 0.87
1 19 6 10.77 11.42 0.83
1 20 6 31.67 30.58 1.20
1 21 6 8.71 9.10 0.75
1 22 6 9.77 8.35 0.73
1 23 6 11.76 11.65 0.85
1 0 7 238.98 239.93 4.98
1 1 7 24.62 25.99 1.40
1 2 7 58.13 59.38 2.05
1 3 7 74.94 78.82 2.41
1 4 7 139.33 136.76 3.40
1 5 7 27.62 29.60 1.01
1 6 7 61.97 59.75 1.42
1 7 7 9.35 9.21 0.74
1 8 7 56.90 54.54 1.41
1 9 7 64.88 65.21 1.56
1 10 7 17.47 18.16 0.93
1 11 7 20.88 21.14 0.88
1 12 7 2.90 1.85 0.45
1 13 7 40.27 40.99 1.21
1 14 7 25.08 23.83 1.01
1 15 7 33.04 31.28 1.14
1 16 7 22.20 25.03 1.04
1 17 7 19.02 19.85 0.98
1 18 7 44.09 41.67 1.34
1 19 7 6.28 6.53 0.59
1 20 7 13.29 14.95 0.96
1 21 7 9.00 9.01 0.64
1 0 8 9.56 10.11 1.16
1 1 8 33.55 34.21 1.73
1 2 8 20.60 19.22 1.39
1 3 8 30.01 31.09 1.66
1 4 8 33.61 31.75 1.70
1 5 8 99.89 99.00 3.01
1 6 8 15.43 14.57 0.89
1 7 8 91.22 88.46 1.89
1 8 8 3.93 3.14 0.47
1 9 8 48.82 49.61 1.47
1 10 8 41.57 38.48 1.34
1 11 8 90.32 92.51 2.05
1 12 8 11.92 11.40 0.94
1 13 8 27.17 27.42 1.23
1 14 8 2.18 1.16 0.49
1 15 8 41.75 44.82 1.34
1 16 8 5.07 5.41 0.50
1 17 8 27.36 25.98 1.14
1 18 8 3.99 5.29 0.50
1 19 8 1.82 2.20 0.42
1 20 8 0.03 0.11 0.38
1 0 9 0.07 0.04 0.90
1 1 9 3.15 2.16 0.97
1 2 9 47.07 49.91 2.20
1 3 9 0.97 1.58 0.95
1 4 9 3.79 3.15 1.10
1 5 9 26.47 27.69 1.77
1 6 9 8.10 9.73 1.26
1 7 9 15.08 15.37 0.98
1 8 9 7.78 8.08 0.72
1 9 9 18.47 19.21 1.08
1 10 9 30.39 28.65 1.27
1 11 9 43.68 44.65 1.53
1 12 9 8.47 8.66 0.80
1 13 9 16.80 15.58 1.10
1 14 9 7.01 7.67 0.80
1 15 9 20.06 21.54 1.20
1 16 9 41.50 41.59 1.53
1 17 9 17.70 17.72 1.01
1 18 9 11.21 11.20 0.87
1 0 10 2.33 3.37 1.14
1 1 10 25.05 24.92 1.82
1 2 10 2.19 1.51 1.09
1 3 10 16.43 19.52 1.66
1 4 10 21.10 21.02 1.76
1 5 10 33.38 31.67 2.02
1 6 10 37.74 40.30 2.23
1 7 10 31.37 30.70 2.04
1 8 10 23.41 23.75 1.22
1 9 10 7.13 7.15 0.79
1 10 10 56.93 54.21 1.75
1 11 10 14.64 15.78 1.11
1 12 10 44.84 44.14 1.59
1 13 10 0.13 0.22 0.49
1 14 10 7.36 6.37 0.65
1 15 10 10.54 10.20 0.85
1 0 11 1.32 0.78 1.25
1 1 11 12.93 11.63 1.56
1 2 11 32.16 32.75 2.19
1 3 11 22.00 22.67 1.89
1 4 11 10.67 11.53 1.57
1 5 11 4.83 5.95 1.40
1 6 11 2.69 3.83 1.31
1 7 11 7.43 8.34 1.53
1 8 11 15.57 15.14 1.14
1 9 11 22.72 22.78 1.27
1 10 11 18.31 18.14 1.18
1 11 11 2.91 3.49 0.57
1 12 11 0.70 1.57 0.51
1 0 12 14.83 17.31 1.86
1 1 12 71.75 73.61 3.08
1 2 12 8.49 8.04 1.68
1 3 12 2.74 3.13 1.51
1 4 12 25.15 28.14 2.14
1 5 12 67.03 66.46 3.01
1 6 12 2.67 2.77 1.48
1 7 12 22.93 22.14 2.02
2 0 0 38.26 40.56 0.52
2 1 0 35.83 30.10 0.42
2 2 0 1555.24 1623.66 14.30
2 3 0 750.72 760.78 6.94
2 4 0 32.44 34.67 0.51
2 5 0 82.61 88.14 1.05
2 6 0 1926.81 2012.91 17.87
2 7 0 280.73 284.11 2.91
2 8 0 0.91 0.74 0.29
2 9 0 232.81 227.24 2.50
2 10 0 224.96 246.00 2.70
2 11 0 0.69 2.34 0.35
2 12 0 42.54 41.97 0.88
2 13 0 169.21 162.46 2.07
2 14 0 12.59 10.57 0.58
2 15 0 64.81 67.66 1.28
2 16 0 36.96 35.78 0.99
2 17 0 36.17 34.51 1.01
2 18 0 41.32 42.27 1.16
2 19 0 34.13 36.52 1.13
2 20 0 1.82 0.89 0.36
2 21 0 8.76 7.48 0.62
2 22 0 14.33 14.62 0.90
2 23 0 10.26 10.80 0.85
2 24 0 33.10 31.33 1.20
2 25 0 3.42 3.99 0.56
2 26 0 0.76 1.04 0.44
2 0 1 1.11 1.58 0.15
2 1 1 69.76 75.45 0.85
2 2 1 275.25 268.31 2.64
2 3 1 469.05 518.85 4.88
2 4 1 152.39 152.63 1.61
2 5 1 374.11 412.78 4.01
2 6 1 18.96 22.16 0.47
2 7 1 90.27 94.76 1.19
2 8 1 3.82 4.68 0.35
2 9 1 257.75 264.24 2.84
2 10 1 9.67 8.42 0.45
2 11 1 4.67 4.60 0.42
2 12 1 38.44 39.36 0.86
2 13 1 83.99 77.21 1.31
2 14 1 45.31 43.27 0.99
2 15 1 22.75 22.97 0.78
2 16 1 3.82 3.44 0.38
2 17 1 11.70 9.74 0.67
2 18 1 10.31 9.63 0.70
2 19 1 27.44 28.28 1.02
2 20 1 66.46 69.31 1.58
2 21 1 25.53 27.93 1.08
2 22 1 23.18 22.57 1.03
2 23 1 3.00 2.48 0.43
2 24 1 36.17 39.80 1.30
2 25 1 20.56 22.24 1.28
2 26 1 28.77 29.47 1.41
2 0 2 3.77 4.06 0.22
2 1 2 276.40 298.51 2.95
2 2 2 967.13 1048.94 9.50
2 3 2 95.17 103.58 1.21
2 4 2 79.80 86.16 1.06
2 5 2 7.83 8.12 0.33
2 6 2 261.09 282.54 2.91
2 7 2 131.60 135.79 1.61
2 8 2 138.56 139.37 1.70
2 9 2 129.80 123.95 1.57
2 10 2 1.83 2.56 0.36
2 11 2 60.51 62.01 1.08
2 12 2 55.33 55.44 1.05
2 13 2 72.58 71.10 1.26
2 14 2 32.46 32.72 0.88
2 15 2 31.97 30.78 0.90
2 16 2 73.53 70.85 1.41
2 17 2 0.19 0.06 0.32
2 18 2 9.34 10.46 0.71
2 19 2 1.04 1.10 0.35
2 20 2 30.72 30.81 1.09
2 21 2 28.52 29.26 1.13
2 22 2 3.10 3.45 0.46
2 23 2 1.92 2.45 0.44
2 24 2 9.09 8.43 0.74
2 25 2 40.26 38.62 1.61
2 0 3 109.67 127.79 1.48
2 1 3 135.18 135.82 1.53
2 2 3 348.14 371.17 3.68
2 3 3 425.94 433.65 4.29
2 4 3 57.15 63.71 0.91
2 5 3 250.76 241.29 2.58
2 6 3 84.63 88.06 1.19
2 7 3 104.20 105.09 1.37
2 8 3 120.64 115.77 1.50
2 9 3 294.82 280.07 3.08
2 10 3 247.23 248.64 2.83
2 11 3 11.25 11.62 0.56
2 12 3 82.33 81.75 1.37
2 13 3 43.22 42.45 1.00
2 14 3 47.77 46.62 1.10
2 15 3 17.24 16.42 0.77
2 16 3 2.27 2.70 0.38
2 17 3 10.52 12.35 0.73
2 18 3 2.71 2.04 0.37
2 19 3 37.90 37.60 1.18
2 20 3 8.35 9.56 0.65
2 21 3 41.68 41.93 1.33
2 22 3 9.15 7.55 0.70
2 23 3 3.55 5.04 0.55
2 24 3 0.02 0.04 0.38
2 25 3 12.14 12.64 1.03
2 0 4 54.98 54.93 1.48
2 1 4 99.00 103.43 1.49
2 2 4 120.27 126.91 1.77
2 3 4 129.71 129.06 1.79
2 4 4 14.01 12.58 0.55
2 5 4 61.84 57.90 0.96
2 6 4 111.34 104.70 1.41
2 7 4 103.54 99.17 1.39
2 8 4 117.94 112.72 1.54
2 9 4 47.38 47.06 0.94
2 10 4 140.03 133.85 1.82
2 11 4 51.33 48.20 1.03
2 12 4 12.62 12.27 0.64
2 13 4 0.39 0.39 0.32
2 14 4 12.92 11.32 0.68
2 15 4 12.21 12.41 0.72
2 16 4 24.49 24.38 0.89
2 17 4 38.65 37.50 1.15
2 18 4 25.30 24.56 1.01
2 19 4 8.86 8.43 0.68
2 20 4 24.36 25.79 1.06
2 21 4 18.81 19.62 1.01
2 22 4 17.12 16.25 1.00
2 23 4 20.61 22.69 1.03
2 24 4 4.32 3.23 0.45
2 0 5 130.04 139.82 3.00
2 1 5 38.48 32.87 1.26
2 2 5 174.00 156.12 2.17
2 3 5 25.58 30.61 0.82
2 4 5 140.65 143.56 2.05
2 5 5 67.50 61.69 1.20
2 6 5 10.75 12.08 0.62
2 7 5 15.86 13.70 0.68
2 8 5 60.40 60.71 1.13
2 9 5 25.17 25.35 0.78
2 10 5 136.30 134.15 1.91
2 11 5 59.21 58.39 1.22
2 12 5 14.22 13.85 0.72
2 13 5 1.29 2.19 0.36
2 14 5 90.57 89.46 1.66
2 15 5 12.12 12.29 0.74
2 16 5 1.07 1.10 0.34
2 17 5 5.33 5.16 0.47
2 18 5 43.21 42.89 1.32
2 19 5 9.67 10.76 0.81
2 20 5 1.22 1.36 0.40
2 21 5 0.91 0.92 0.39
2 22 5 19.53 20.29 1.01
2 23 5 16.78 15.92 0.99
2 0 6 78.47 74.00 2.13
2 1 6 98.29 90.94 2.43
2 2 6 2.73 2.23 0.69
2 3 6 1.35 2.19 0.56
2 4 6 22.01 21.90 0.80
2 5 6 101.05 95.41 1.70
2 6 6 0.84 0.57 0.47
2 7 6 74.58 74.66 1.51
2 8 6 0.19 0.22 0.50
2 9 6 3.12 4.76 0.47
2 10 6 10.31 11.72 0.67
2 11 6 101.44 101.12 1.73
2 12 6 7.61 7.63 0.53
2 13 6 59.45 60.32 1.37
2 14 6 10.97 10.90 0.72
2 15 6 56.14 54.95 1.39
2 16 6 13.90 14.87 0.87
2 17 6 44.77 45.41 1.32
2 18 6 47.45 48.06 1.41
2 19 6 1.53 2.27 0.42
2 20 6 3.52 3.69 0.47
2 21 6 13.42 13.31 0.93
2 22 6 43.08 44.24 1.37
2 0 7 8.48 7.18 0.96
2 1 7 44.38 42.52 1.76
2 2 7 11.93 12.16 1.09
2 3 7 13.53 14.02 1.16
2 4 7 132.46 126.17 2.58
2 5 7 69.26 68.73 1.52
2 6 7 27.50 28.39 1.02
2 7 7 80.80 80.99 1.72
2 8 7 78.66 79.74 1.71
2 9 7 4.24 4.82 0.51
2 10 7 8.52 9.19 0.77
2 11 7 92.12 94.49 2.00
2 12 7 1.32 2.11 0.37
2 13 7 46.66 47.35 1.32
2 14 7 36.42 38.96 1.21
2 15 7 31.33 31.72 1.15
2 16 7 4.12 4.15 0.47
2 17 7 47.59 49.20 1.43
2 18 7 8.49 9.58 0.74
2 19 7 5.82 6.78 0.62
2 20 7 0.24 0.95 0.39
2 21 7 10.92 10.06 0.77
2 0 8 55.80 52.35 2.13
2 1 8 58.90 56.94 2.22
2 2 8 24.45 22.82 1.53
2 3 8 26.68 28.10 1.62
2 4 8 16.63 15.42 1.34
2 5 8 57.25 54.73 1.48
2 6 8 50.79 45.55 1.40
2 7 8 41.76 40.49 1.32
2 8 8 0.08 0.30 0.40
2 9 8 10.82 11.38 0.77
2 10 8 1.24 1.36 0.47
2 11 8 9.40 8.25 0.75
2 12 8 0.45 0.02 0.42
2 13 8 32.74 30.42 1.32
2 14 8 8.19 9.65 0.79
2 15 8 6.52 6.79 0.67
2 16 8 2.16 3.15 0.46
2 17 8 23.63 22.75 1.10
2 18 8 1.64 1.85 0.42
2 19 8 5.47 6.51 0.53
2 0 9 69.56 73.28 2.68
2 1 9 14.82 16.93 1.45
2 2 9 105.62 105.88 3.32
2 3 9 4.80 5.19 1.07
2 4 9 45.72 47.22 2.22
2 5 9 10.68 11.10 1.34
2 6 9 48.84 48.26 1.52
2 7 9 9.89 10.23 0.89
2 8 9 1.89 3.25 0.52
2 9 9 37.44 37.14 1.39
2 10 9 11.74 13.67 0.99
2 11 9 13.99 15.13 1.04
2 12 9 16.25 16.81 1.09
2 13 9 31.63 34.01 1.41
2 14 9 66.47 69.99 1.92
2 15 9 0.19 1.06 0.50
2 16 9 15.05 15.04 0.98
2 17 9 3.48 4.19 0.51
2 0 10 48.20 48.11 2.37
2 1 10 64.64 65.04 2.73
2 2 10 2.08 2.77 1.14
2 3 10 6.91 6.36 1.29
2 4 10 4.41 4.53 1.22
2 5 10 42.96 45.18 2.33
2 6 10 16.25 16.43 1.61
2 7 10 24.36 25.39 1.28
2 8 10 29.13 29.43 1.35
2 9 10 11.20 11.84 0.89
2 10 10 31.66 32.43 1.41
2 11 10 39.99 42.91 1.53
2 12 10 45.29 46.78 1.63
2 13 10 6.41 6.87 0.66
2 14 10 16.21 16.55 1.11
2 15 10 2.70 2.86 0.55
2 0 11 11.40 12.19 1.62
2 1 11 10.07 9.60 1.54
2 2 11 3.62 3.21 1.32
2 3 11 5.68 7.03 1.41
2 4 11 2.73 2.20 1.36
2 5 11 1.18 0.68 1.26
2 6 11 13.02 13.21 1.62
2 7 11 0.79 0.50 1.26
2 8 11 5.13 5.48 0.63
2 9 11 0.27 0.30 0.49
2 10 11 5.38 6.10 0.76
2 11 11 3.39 4.44 0.59
2 0 12 41.02 45.18 2.56
2 1 12 20.95 19.91 2.03
2 2 12 5.94 6.02 1.57
2 3 12 38.11 41.25 2.45
2 4 12 9.58 10.83 1.72
2 5 12 2.13 2.19 1.48
2 6 12 28.75 28.40 2.14
3 1 0 27.17 29.99 0.49
3 3 0 62.87 66.91 0.85
3 4 0 366.86 399.92 3.90
3 5 0 200.10 201.72 2.14
3 6 0 33.76 38.13 0.67
3 7 0 224.76 235.07 2.52
3 8 0 68.61 78.10 1.12
3 9 0 113.60 104.21 1.39
3 10 0 25.77 29.05 0.70
3 11 0 240.43 243.11 2.77
3 12 0 10.43 7.92 0.51
3 13 0 2.37 2.65 0.43
3 14 0 2.40 3.63 0.47
3 15 0 24.24 23.24 0.82
3 16 0 44.66 41.51 1.10
3 17 0 39.61 40.91 1.13
3 18 0 1.62 2.06 0.36
3 19 0 2.50 2.84 0.40
3 20 0 25.10 27.01 1.04
3 21 0 28.59 29.37 1.11
3 22 0 4.18 3.95 0.47
3 23 0 0.06 0.06 0.38
3 24 0 8.66 7.79 0.63
3 25 0 28.61 28.60 1.38
3 0 1 160.64 169.88 1.80
3 1 1 334.71 356.83 3.52
3 2 1 53.26 57.03 0.76
3 3 1 385.86 419.99 4.11
3 4 1 72.89 79.18 1.01
3 5 1 22.05 23.50 0.51
3 6 1 57.58 66.69 0.95
3 7 1 150.25 153.96 1.79
3 8 1 43.33 41.30 0.77
3 9 1 396.06 369.51 3.89
3 10 1 35.30 35.69 0.79
3 11 1 56.19 51.82 1.00
3 12 1 56.99 52.61 1.05
3 13 1 86.68 86.60 1.46
3 14 1 27.82 26.17 0.83
3 15 1 1.68 1.92 0.36
3 16 1 37.55 38.08 1.06
3 17 1 29.22 29.19 0.98
3 18 1 51.18 49.40 1.28
3 19 1 17.61 19.08 0.89
3 20 1 3.93 3.58 0.44
3 21 1 59.95 65.44 1.58
3 22 1 61.90 59.94 1.58
3 23 1 13.48 14.96 0.92
3 24 1 26.54 28.84 1.17
3 25 1 6.13 7.54 0.74
3 0 2 0.16 0.10 0.22
3 1 2 158.43 173.80 1.89
3 2 2 256.15 262.85 2.70
3 3 2 246.19 258.02 2.68
3 4 2 49.39 53.25 0.83
3 5 2 305.06 304.51 3.15
3 6 2 618.34 617.00 6.05
3 7 2 6.93 7.06 0.41
3 8 2 83.48 86.06 1.23
3 9 2 62.70 60.18 1.02
3 10 2 254.52 245.53 2.79
3 11 2 35.57 33.47 0.82
3 12 2 102.07 102.93 1.57
3 13 2 25.02 25.35 0.79
3 14 2 6.25 6.42 0.57
3 15 2 11.68 12.47 0.69
3 16 2 34.60 35.50 1.02
3 17 2 26.94 27.59 0.97
3 18 2 8.57 8.75 0.69
3 19 2 6.60 5.35 0.53
3 20 2 11.22 11.18 0.81
3 21 2 0.97 0.57 0.37
3 22 2 2.40 2.72 0.44
3 23 2 9.78 9.48 0.84
3 24 2 26.07 26.66 1.14
3 25 2 4.64 4.39 0.54
3 0 3 160.44 177.34 1.98
3 1 3 252.96 243.14 2.58
3 2 3 15.31 16.82 0.49
3 3 3 172.01 161.69 1.86
3 4 3 10.87 12.20 0.46
3 5 3 208.20 206.96 2.30
3 6 3 3.26 3.28 0.37
3 7 3 261.61 245.94 2.73
3 8 3 40.89 41.65 0.84
3 9 3 24.52 25.30 0.70
3 10 3 12.07 11.18 0.55
3 11 3 80.94 73.39 1.27
3 12 3 38.80 38.84 0.94
3 13 3 10.31 12.01 0.64
3 14 3 9.92 8.77 0.57
3 15 3 12.54 11.63 0.70
3 16 3 1.24 1.98 0.38
3 17 3 8.41 7.91 0.62
3 18 3 0.28 0.19 0.33
3 19 3 9.30 9.95 0.79
3 20 3 6.99 5.91 0.50
3 21 3 1.79 1.56 0.40
3 22 3 6.52 6.18 0.53
3 23 3 39.62 38.49 1.33
3 24 3 7.12 8.22 0.70
3 0 4 8.97 11.20 0.45
3 1 4 119.07 109.58 1.42
3 2 4 28.28 29.94 0.67
3 3 4 81.55 77.45 1.14
3 4 4 22.37 24.17 0.63
3 5 4 282.57 261.59 2.89
3 6 4 82.98 77.34 1.20
3 7 4 59.23 57.56 1.03
3 8 4 52.92 52.11 1.01
3 9 4 69.86 65.15 1.17
3 10 4 23.25 20.30 0.71
3 11 4 30.04 28.06 0.85
3 12 4 29.22 28.98 0.88
3 13 4 102.50 101.21 1.69
3 14 4 9.34 9.71 0.66
3 15 4 37.18 36.34 1.08
3 16 4 15.33 16.71 0.82
3 17 4 30.63 31.11 1.08
3 18 4 23.38 24.63 1.02
3 19 4 16.77 16.32 0.91
3 20 4 19.71 20.15 0.98
3 21 4 23.99 24.89 1.08
3 22 4 6.97 6.74 0.60
3 23 4 9.81 9.72 0.83
3 24 4 1.02 1.06 0.39
3 0 5 53.39 48.29 0.94
3 1 5 37.42 43.24 0.89
3 2 5 35.65 34.29 0.81
3 3 5 72.62 70.82 1.17
3 4 5 70.33 69.27 1.17
3 5 5 65.51 70.00 1.20
3 6 5 41.62 42.54 0.92
3 7 5 119.99 118.51 1.70
3 8 5 191.99 180.96 2.31
3 9 5 1.69 1.76 0.46
3 10 5 129.01 129.11 1.92
3 11 5 5.71 7.05 0.51
3 12 5 122.82 119.40 1.89
3 13 5 9.46 9.94 0.70
3 14 5 66.82 61.82 1.41
3 15 5 42.57 42.76 1.21
3 16 5 9.39 9.68 0.75
3 17 5 2.63 3.03 0.42
3 18 5 5.61 6.19 0.51
3 19 5 12.09 10.25 0.75
3 20 5 1.66 2.73 0.44
3 21 5 3.33 3.46 0.47
3 22 5 14.55 14.63 0.96
3 23 5 3.26 3.65 0.46
3 1 6 4.63 3.66 0.49
3 2 6 43.42 40.32 1.06
3 3 6 5.63 4.67 0.54
3 4 6 10.63 9.24 0.65
3 5 6 19.13 20.33 0.83
3 6 6 19.81 18.01 0.83
3 7 6 35.63 38.04 1.11
3 8 6 19.91 18.15 0.77
3 9 6 30.09 31.34 0.94
3 10 6 22.99 23.19 0.86
3 11 6 66.84 65.62 1.40
3 12 6 2.70 3.49 0.41
3 13 6 56.07 54.65 1.36
3 14 6 22.65 24.89 0.98
3 15 6 6.79 6.95 0.56
3 16 6 39.98 40.31 1.26
3 17 6 23.52 23.18 1.03
3 18 6 9.71 9.84 0.74
3 19 6 19.75 21.09 1.05
3 20 6 58.19 61.36 1.60
3 21 6 4.78 5.58 0.51
3 22 6 5.53 4.98 0.49
3 0 7 4.30 5.72 0.97
3 1 7 0.47 0.82 0.81
3 2 7 148.82 146.38 3.61
3 3 7 30.34 28.04 1.04
3 4 7 9.15 9.32 0.76
3 5 7 32.49 31.02 1.09
3 6 7 12.11 11.61 0.82
3 7 7 34.71 34.81 1.17
3 8 7 13.08 10.78 0.83
3 9 7 103.02 105.32 2.06
3 10 7 46.98 48.96 1.27
3 11 7 5.63 5.96 0.46
3 12 7 2.43 2.31 0.39
3 13 7 35.92 36.85 1.19
3 14 7 46.84 47.44 1.34
3 15 7 35.35 35.97 1.23
3 16 7 2.80 2.69 0.44
3 17 7 2.95 2.74 0.44
3 18 7 6.99 7.57 0.62
3 19 7 19.89 20.15 1.05
3 20 7 10.28 8.87 0.73
3 21 7 4.69 5.03 0.49
3 0 8 1.68 2.06 0.97
3 1 8 112.93 110.06 3.21
3 2 8 55.83 57.53 2.27
3 3 8 45.23 44.34 2.02
3 4 8 40.04 37.71 1.26
3 5 8 38.74 37.30 1.26
3 6 8 25.63 25.35 1.09
3 7 8 27.47 29.27 1.16
3 8 8 34.67 32.30 1.25
3 9 8 22.61 21.45 1.08
3 10 8 4.82 4.26 0.55
3 11 8 95.33 96.68 2.15
3 12 8 16.53 16.71 1.03
3 13 8 7.26 6.10 0.57
3 14 8 3.89 4.43 0.48
3 15 8 17.55 17.43 0.96
3 16 8 16.88 14.85 0.96
3 17 8 9.77 10.85 0.87
3 18 8 8.73 8.05 0.63
3 19 8 20.92 22.33 1.07
3 0 9 65.31 66.75 2.62
3 1 9 10.62 11.55 1.36
3 2 9 19.41 18.75 1.56
3 3 9 12.59 13.49 1.44
3 4 9 94.28 98.62 3.26
3 5 9 0.05 0.14 0.45
3 6 9 8.28 7.82 0.64
3 7 9 8.10 8.73 0.72
3 8 9 41.74 41.83 1.49
3 9 9 6.03 6.09 0.62
3 10 9 26.95 27.04 1.25
3 11 9 3.74 4.11 0.57
3 12 9 3.80 4.78 0.60
3 13 9 1.47 1.49 0.51
3 14 9 26.92 30.14 1.32
3 15 9 6.52 6.20 0.59
3 16 9 9.38 8.73 0.64
3 17 9 21.34 21.08 1.05
3 0 10 0.86 0.83 1.13
3 1 10 51.69 55.51 2.52
3 2 10 25.74 26.86 1.93
3 3 10 75.07 79.77 3.07
3 4 10 11.90 11.55 1.53
3 5 10 5.79 6.92 1.37
3 6 10 21.85 22.57 1.20
3 7 10 9.73 11.32 0.85
3 8 10 7.55 7.02 0.66
3 9 10 32.06 32.29 1.41
3 10 10 7.11 7.35 0.81
3 11 10 5.06 4.43 0.59
3 12 10 0.69 1.09 0.49
3 13 10 19.79 18.44 1.18
3 14 10 16.46 16.42 1.09
3 0 11 1.41 1.20 1.29
3 1 11 9.60 10.62 1.62
3 2 11 13.10 14.65 1.67
3 3 11 31.29 33.71 2.21
3 4 11 15.12 16.38 1.81
3 5 11 14.60 15.14 1.69
3 6 11 11.06 11.74 1.65
3 7 11 20.74 21.82 1.25
3 8 11 5.30 6.31 0.77
3 9 11 10.16 10.41 0.81
3 10 11 7.38 8.69 0.84
3 11 11 9.78 9.09 2.85
3 0 12 7.37 5.34 1.61
3 1 12 6.37 7.08 1.62
3 2 12 2.57 3.16 1.48
3 3 12 1.52 0.75 1.48
3 4 12 0.73 0.97 1.41
4 0 0 368.13 379.73 3.77
4 1 0 368.61 374.05 3.75
4 2 0 44.90 38.98 0.68
4 3 0 1.61 1.70 0.30
4 4 0 41.49 35.80 0.68
4 5 0 17.40 14.93 0.49
4 6 0 137.52 127.43 1.58
4 7 0 93.25 85.26 1.23
4 8 0 119.64 128.18 1.65
4 9 0 116.49 126.02 1.67
4 10 0 72.35 66.89 1.16
4 11 0 13.68 12.26 0.59
4 12 0 228.56 232.66 2.87
4 13 0 63.66 66.98 1.27
4 14 0 3.09 2.73 0.36
4 15 0 12.14 12.23 0.70
4 16 0 86.60 87.62 1.63
4 17 0 0.77 1.15 0.33
4 18 0 2.02 1.97 0.38
4 19 0 8.55 7.02 0.64
4 20 0 0.47 0.27 0.36
4 21 0 6.72 7.73 0.61
4 22 0 0.01 0.04 0.40
4 23 0 4.21 4.63 0.49
4 24 0 19.94 21.14 1.05
4 0 1 0.74 1.42 0.28
4 1 1 128.90 143.80 1.65
4 2 1 28.94 33.50 0.64
4 3 1 149.56 145.80 1.69
4 4 1 11.63 11.74 0.45
4 5 1 57.63 58.09 0.92
4 6 1 37.44 42.08 0.80
4 7 1 262.17 237.52 2.64
4 8 1 41.79 41.58 0.84
4 9 1 4.96 4.11 0.39
4 10 1 32.56 33.13 0.80
4 11 1 276.01 257.80 3.00
4 12 1 65.39 65.58 1.23
4 13 1 44.01 41.57 1.02
4 14 1 44.24 44.67 1.09
4 15 1 44.15 43.56 1.13
4 16 1 50.77 50.77 1.24
4 17 1 16.30 16.50 0.84
4 18 1 31.07 30.01 1.04
4 19 1 37.61 41.24 1.24
4 20 1 29.72 31.62 1.14
4 21 1 7.52 7.48 0.67
4 22 1 17.06 13.83 0.93
4 23 1 2.17 2.12 0.44
4 24 1 18.73 18.97 1.01
4 25 1 4.40 5.06 0.56
4 0 2 11.43 10.39 0.43
4 1 2 256.36 255.73 2.74
4 2 2 10.57 9.37 0.43
4 3 2 70.42 72.71 1.05
4 4 2 188.31 193.50 2.17
4 5 2 137.71 131.40 1.65
4 6 2 30.48 31.29 0.71
4 7 2 179.44 171.34 2.07
4 8 2 158.58 156.23 1.94
4 9 2 5.43 5.46 0.44
4 10 2 39.80 39.89 0.90
4 11 2 17.06 18.09 0.67
4 12 2 45.60 44.82 1.02
4 13 2 0.00 0.13 0.30
4 14 2 13.47 13.95 0.71
4 15 2 14.80 14.56 0.75
4 16 2 17.08 16.01 0.81
4 17 2 20.49 18.74 0.88
4 18 2 5.57 5.92 0.53
4 19 2 9.83 10.84 0.80
4 20 2 6.82 8.17 0.59
4 21 2 7.89 9.21 0.80
4 22 2 8.42 9.40 0.64
4 23 2 17.50 17.15 1.00
4 24 2 1.59 1.57 0.41
4 0 3 4.07 4.53 0.38
4 1 3 232.54 217.32 2.40
4 2 3 39.00 37.19 0.75
4 3 3 471.53 448.85 4.53
4 4 3 95.73 92.01 1.30
4 5 3 114.43 104.93 1.44
4 6 3 5.80 5.25 0.41
4 7 3 62.31 58.51 1.05
4 8 3 90.49 84.30 1.34
4 9 3 30.24 30.94 0.81
4 10 3 15.96 16.37 0.65
4 11 3 28.00 28.74 0.84
4 12 3 43.17 40.70 1.02
4 13 3 11.63 11.92 0.68
4 14 3 23.57 21.78 0.86
4 15 3 71.30 71.28 1.48
4 16 3 26.70 26.46 0.98
4 17 3 1.61 0.92 0.35
4 18 3 20.77 20.92 0.96
4 19 3 31.38 33.91 1.16
4 20 3 12.55 12.78 0.85
4 21 3 33.25 32.68 1.22
4 22 3 25.31 24.62 1.13
4 23 3 1.01 0.96 0.39
4 24 3 14.14 13.50 0.93
4 0 4 81.87 74.80 1.15
4 1 4 134.26 120.01 1.58
4 2 4 30.96 33.01 0.76
4 3 4 106.57 93.61 1.36
4 4 4 37.02 33.97 0.79
4 5 4 87.86 84.50 1.31
4 6 4 53.08 54.27 1.04
4 7 4 47.88 41.58 0.92
4 8 4 6.75 8.64 0.52
4 9 4 2.09 1.40 0.44
4 10 4 34.10 34.93 0.92
4 11 4 21.86 23.77 0.82
4 12 4 64.54 66.76 1.35
4 13 4 25.71 25.25 0.90
4 14 4 8.80 8.90 0.62
4 15 4 40.59 38.75 1.16
4 16 4 52.79 52.19 1.35
4 17 4 59.73 57.65 1.47
4 18 4 1.92 1.53 0.39
4 19 4 8.89 8.23 0.62
4 20 4 21.71 21.80 1.06
4 21 4 18.09 19.47 1.01
4 22 4 1.85 2.02 0.46
4 23 4 60.85 61.91 1.60
4 0 5 23.75 27.03 0.75
4 1 5 19.99 22.28 0.69
4 2 5 5.10 6.00 0.47
4 3 5 157.09 158.60 2.04
4 4 5 28.87 27.67 0.77
4 5 5 81.27 81.95 1.36
4 6 5 13.04 13.34 0.61
4 7 5 34.32 34.08 0.91
4 8 5 44.26 46.68 1.06
4 9 5 45.43 43.48 1.08
4 10 5 24.57 26.29 0.86
4 11 5 8.82 9.57 0.64
4 12 5 18.79 18.70 0.84
4 13 5 5.69 6.51 0.57
4 14 5 8.68 8.23 0.62
4 15 5 1.96 1.89 0.38
4 16 5 20.66 20.52 0.96
4 17 5 9.22 10.03 0.77
4 18 5 1.67 2.23 0.42
4 19 5 5.05 5.28 0.50
4 20 5 27.91 28.12 1.16
4 21 5 1.62 2.15 0.42
4 22 5 0.92 1.05 0.39
4 0 6 0.77 0.28 0.42
4 1 6 87.41 85.63 1.45
4 2 6 12.48 14.83 0.66
4 3 6 25.08 24.91 0.82
4 4 6 13.01 11.49 0.64
4 5 6 134.54 133.62 1.95
4 6 6 40.41 39.97 1.04
4 7 6 41.92 39.12 1.05
4 8 6 55.15 52.49 1.24
4 9 6 136.24 131.41 2.05
4 10 6 27.84 25.58 0.94
4 11 6 33.76 35.38 1.06
4 12 6 58.83 61.18 1.42
4 13 6 48.16 47.75 1.28
4 14 6 12.47 12.10 0.80
4 15 6 51.72 52.91 1.42
4 16 6 15.61 17.70 0.94
4 17 6 38.83 41.01 1.31
4 18 6 24.15 25.75 1.10
4 19 6 35.42 35.89 1.26
4 20 6 1.00 1.80 0.42
4 21 6 21.43 21.78 1.07
4 0 7 129.95 133.90 2.03
4 1 7 10.13 9.13 0.70
4 2 7 14.01 12.43 0.81
4 3 7 10.82 11.73 0.79
4 4 7 60.93 63.17 1.53
4 5 7 14.84 15.89 0.88
4 6 7 19.18 19.51 0.83
4 7 7 26.64 25.33 0.93
4 8 7 51.11 50.01 1.27
4 9 7 5.76 6.04 0.57
4 10 7 41.10 42.54 1.20
4 11 7 49.38 50.48 1.34
4 12 7 34.86 38.77 1.20
4 13 7 10.33 10.19 0.71
4 14 7 29.97 29.65 1.14
4 15 7 1.42 2.06 0.41
4 16 7 2.62 3.26 0.45
4 17 7 9.49 9.11 0.75
4 18 7 6.06 5.53 0.51
4 19 7 13.68 12.52 0.88
4 20 7 1.30 1.89 0.42
4 0 8 42.23 42.92 2.02
4 1 8 19.52 19.02 1.20
4 2 8 13.85 13.31 0.88
4 3 8 11.88 11.44 0.87
4 4 8 28.05 28.28 1.15
4 5 8 3.77 4.27 0.52
4 6 8 10.29 8.76 0.74
4 7 8 34.36 31.58 1.26
4 8 8 3.74 3.62 0.53
4 9 8 86.95 86.38 2.05
4 10 8 19.55 18.57 0.96
4 11 8 9.98 8.57 0.71
4 12 8 0.28 0.82 0.38
4 13 8 51.82 50.93 1.46
4 14 8 33.30 33.06 1.23
4 15 8 1.86 2.17 0.43
4 16 8 10.54 9.51 0.76
4 17 8 0.06 0.05 0.38
4 18 8 14.93 15.76 0.96
4 0 9 17.72 18.65 1.60
4 1 9 11.44 13.29 1.44
4 2 9 12.06 12.89 1.41
4 3 9 22.16 23.44 1.16
4 4 9 53.94 57.50 1.66
4 5 9 13.21 13.47 0.98
4 6 9 35.88 35.09 1.41
4 7 9 4.50 5.43 0.61
4 8 9 79.53 82.63 2.05
4 9 9 14.93 16.51 1.07
4 10 9 16.62 19.30 1.11
4 11 9 0.18 0.34 0.50
4 12 9 22.35 23.09 1.25
4 13 9 9.15 9.01 0.74
4 14 9 9.52 11.41 0.87
4 15 9 26.69 25.73 1.12
4 16 9 1.51 2.38 0.44
4 1 10 76.13 80.50 3.13
4 2 10 14.04 13.77 1.59
4 3 10 3.45 3.01 1.25
4 4 10 29.42 29.34 1.32
4 5 10 57.07 56.00 1.77
4 6 10 26.25 27.28 1.32
4 7 10 15.96 15.11 1.08
4 8 10 13.72 15.03 1.08
4 9 10 1.53 0.75 0.50
4 10 10 13.23 14.62 1.08
4 11 10 6.13 6.85 0.66
4 12 10 1.43 1.57 0.52
4 13 10 9.07 8.42 0.69
4 0 11 26.25 27.03 2.07
4 1 11 1.67 1.57 1.29
4 2 11 2.55 3.08 1.31
4 3 11 9.30 8.75 1.52
4 4 11 32.34 32.01 2.19
4 5 11 12.07 12.73 1.31
4 6 11 0.31 0.48 0.50
4 7 11 5.11 6.55 0.65
4 8 11 21.53 19.96 1.23
4 9 11 7.90 9.54 0.83
5 1 0 39.69 38.93 0.75
5 2 0 40.07 42.30 0.81
5 3 0 240.32 223.92 2.49
5 4 0 68.13 59.14 0.99
5 5 0 75.93 70.83 1.11
5 6 0 0.23 0.10 0.31
5 7 0 13.19 11.43 0.53
5 8 0 18.98 15.84 0.60
5 9 0 28.57 24.79 0.73
5 10 0 33.81 37.38 0.90
5 11 0 34.13 35.77 0.92
5 12 0 1.21 1.57 0.46
5 13 0 10.70 11.85 0.68
5 14 0 50.73 51.02 1.22
5 15 0 15.89 14.93 0.80
5 16 0 4.78 4.44 0.42
5 17 0 11.75 10.19 0.67
5 18 0 6.71 6.09 0.62
5 19 0 0.01 0.14 0.36
5 20 0 0.11 0.42 0.37
5 21 0 0.96 0.89 0.39
5 22 0 7.85 7.70 0.62
5 24 0 3.02 2.00 0.42
5 0 1 5.66 5.78 0.40
5 1 1 132.80 129.59 1.61
5 2 1 84.91 88.15 1.25
5 3 1 382.86 369.91 3.79
5 4 1 5.05 5.14 0.39
5 5 1 43.69 34.59 0.75
5 6 1 75.58 68.95 1.13
5 7 1 158.56 149.65 1.90
5 8 1 1.73 3.10 0.40
5 9 1 61.26 56.61 1.09
5 10 1 13.14 12.34 0.59
5 11 1 66.27 66.36 1.25
5 12 1 19.84 21.10 0.79
5 13 1 20.76 18.43 0.81
5 14 1 14.96 15.71 0.76
5 15 1 209.31 211.40 2.83
5 16 1 58.18 59.56 1.40
5 17 1 4.03 4.13 0.44
5 18 1 7.14 7.48 0.66
5 19 1 50.34 52.04 1.44
5 20 1 49.52 50.18 1.41
5 21 1 3.95 3.41 0.46
5 22 1 0.61 0.88 0.39
5 23 1 1.40 1.83 0.42
5 24 1 12.93 14.21 0.91
5 0 2 329.95 320.90 3.40
5 1 2 172.93 164.31 1.99
5 2 2 0.76 0.55 0.32
5 3 2 262.34 244.78 2.75
5 4 2 91.19 83.22 1.26
5 5 2 43.60 41.34 0.85
5 6 2 8.11 6.40 0.45
5 7 2 15.73 12.55 0.56
5 8 2 25.13 28.29 0.77
5 9 2 35.22 36.34 0.89
5 10 2 0.63 1.36 0.42
5 11 2 15.21 15.78 0.70
5 12 2 122.43 120.73 1.87
5 13 2 0.38 0.47 0.32
5 14 2 6.78 7.33 0.64
5 15 2 3.58 2.99 0.38
5 16 2 57.84 58.81 1.41
5 17 2 13.37 14.29 0.83
5 18 2 10.67 11.22 0.79
5 19 2 29.73 29.47 1.10
5 20 2 1.91 2.10 0.42
5 21 2 38.76 37.94 1.29
5 22 2 1.11 1.72 0.42
5 23 2 5.71 5.20 0.56
5 24 2 5.81 7.14 0.88
5 0 3 29.90 30.20 0.74
5 1 3 197.36 192.84 2.29
5 2 3 23.68 23.76 0.67
5 3 3 11.27 9.28 0.50
5 4 3 1.41 1.32 0.37
5 5 3 65.95 66.65 1.15
5 6 3 33.31 33.78 0.83
5 7 3 62.83 62.22 1.16
5 8 3 16.85 18.06 0.67
5 9 3 8.11 8.81 0.57
5 10 3 45.09 42.00 1.03
5 11 3 27.74 25.15 0.86
5 12 3 27.89 26.66 0.90
5 13 3 17.41 18.58 0.82
5 14 3 46.90 45.70 1.19
5 15 3 3.33 3.61 0.41
5 16 3 50.82 49.40 1.34
5 17 3 22.77 23.06 0.99
5 18 3 23.44 23.26 1.03
5 19 3 3.79 4.30 0.48
5 20 3 52.58 54.92 1.52
5 21 3 7.83 8.02 0.64
5 22 3 3.87 4.67 0.49
5 23 3 8.81 8.41 0.62
5 0 4 0.05 0.28 0.36
5 1 4 74.63 67.87 1.17
5 2 4 45.54 42.39 0.92
5 3 4 33.74 27.49 0.78
5 4 4 15.08 16.77 0.64
5 5 4 7.12 6.07 0.49
5 6 4 28.70 27.56 0.81
5 7 4 28.16 29.23 0.84
5 8 4 83.62 86.84 1.49
5 9 4 1.68 2.60 0.37
5 10 4 112.51 108.71 1.78
5 11 4 33.92 33.61 1.00
5 12 4 81.06 83.20 1.58
5 13 4 3.78 4.27 0.41
5 14 4 79.89 83.60 1.67
5 15 4 19.51 20.08 0.94
5 16 4 19.96 21.55 0.97
5 17 4 9.06 8.01 0.67
5 18 4 23.32 24.78 1.06
5 19 4 71.70 73.53 1.74
5 20 4 0.43 0.05 0.37
5 21 4 40.77 42.89 1.37
5 22 4 12.04 11.40 0.91
5 0 5 7.37 6.86 0.54
5 1 5 188.08 180.69 2.31
5 2 5 33.15 30.90 0.86
5 3 5 16.03 15.62 0.66
5 4 5 71.13 70.79 1.32
5 5 5 60.68 57.79 1.21
5 6 5 19.50 18.07 0.76
5 7 5 32.79 33.49 0.94
5 8 5 51.46 48.75 1.17
5 9 5 10.93 10.60 0.68
5 10 5 18.62 18.39 0.81
5 11 5 19.51 19.80 0.87
5 12 5 0.32 0.94 0.33
5 13 5 17.51 17.24 0.88
5 14 5 39.48 41.03 1.20
5 15 5 1.43 1.28 0.38
5 16 5 17.58 18.17 0.92
5 17 5 3.12 3.57 0.46
5 18 5 27.89 28.67 1.14
5 19 5 2.63 3.06 0.46
5 20 5 12.10 11.58 0.91
5 21 5 9.67 8.56 0.64
5 0 6 47.63 45.96 1.12
5 1 6 45.29 44.11 1.08
5 2 6 9.91 10.76 0.67
5 3 6 53.51 52.36 1.19
5 4 6 50.12 48.29 1.17
5 5 6 80.01 77.89 1.50
5 6 6 12.65 13.03 0.71
5 7 6 102.95 101.63 1.77
5 8 6 21.01 21.32 0.88
5 9 6 19.90 20.44 0.85
5 10 6 65.78 66.96 1.48
5 11 6 76.69 77.72 1.62
5 12 6 0.50 0.50 0.34
5 13 6 63.68 65.28 1.55
5 14 6 53.09 52.33 1.42
5 15 6 12.89 14.83 0.88
5 16 6 4.62 5.17 0.50
5 17 6 50.34 51.25 1.48
5 18 6 7.67 7.03 0.62
5 19 6 4.77 5.07 0.50
5 20 6 0.01 0.01 0.38
5 0 7 0.99 1.44 0.36
5 1 7 28.78 29.02 0.97
5 2 7 15.59 16.23 0.82
5 3 7 4.18 3.90 0.42
5 4 7 106.10 104.40 1.83
5 5 7 9.86 10.05 0.65
5 6 7 17.95 20.39 0.88
5 7 7 8.39 9.43 0.72
5 8 7 96.33 97.23 1.84
5 9 7 9.73 11.07 0.74
5 10 7 1.89 1.95 0.40
5 11 7 4.62 4.15 0.45
5 12 7 13.29 12.87 0.77
5 13 7 12.62 15.74 0.90
5 14 7 5.37 6.22 0.52
5 15 7 17.74 17.76 0.97
5 16 7 8.75 7.63 0.72
5 17 7 3.93 4.77 0.50
5 18 7 2.47 2.85 0.45
5 0 8 36.65 35.55 1.14
5 1 8 45.03 46.35 1.27
5 2 8 3.68 3.15 0.41
5 3 8 0.42 0.67 0.34
5 4 8 19.54 18.93 0.93
5 5 8 136.86 136.09 2.27
5 6 8 0.66 1.15 0.77
5 7 8 4.75 5.11 0.48
5 8 8 2.28 2.86 0.43
5 9 8 23.91 23.44 1.02
5 10 8 1.96 2.00 0.41
5 11 8 10.74 12.34 0.85
5 12 8 8.30 7.84 0.62
5 13 8 30.33 31.51 1.23
5 14 8 8.48 7.91 0.63
5 15 8 8.31 8.56 0.63
5 16 8 10.01 11.59 0.87
5 17 8 54.85 57.17 1.54
5 0 9 0.03 0.66 0.77
5 1 9 28.70 29.18 1.10
5 2 9 32.33 34.44 1.37
5 3 9 6.13 5.33 0.59
5 4 9 4.81 6.03 0.62
5 5 9 13.98 13.77 1.03
5 6 9 26.35 26.46 1.25
5 7 9 8.51 9.25 0.81
5 8 9 0.67 1.07 0.49
5 9 9 0.52 1.28 0.40
5 10 9 20.31 20.71 1.04
5 11 9 14.70 15.06 0.96
5 12 9 0.83 1.66 0.41
5 13 9 8.07 8.52 0.64
5 14 9 6.02 6.59 0.53
5 15 9 2.14 2.55 0.44
5 0 10 74.56 72.79 3.03
5 1 10 4.77 5.05 0.87
5 2 10 2.58 2.75 0.55
5 3 10 47.71 49.62 1.67
5 4 10 24.08 23.86 1.25
5 5 10 30.42 29.12 1.41
5 6 10 6.17 6.41 0.66
5 7 10 17.34 17.31 1.14
5 8 10 5.63 6.77 0.66
5 9 10 31.80 31.75 1.37
5 10 10 0.70 0.84 0.51
5 11 10 0.92 1.96 0.52
5 12 10 5.07 5.70 0.51
5 0 11 4.58 3.63 1.47
5 1 11 22.66 23.11 1.94
5 2 11 10.75 11.92 1.57
5 3 11 16.21 15.88 1.14
5 4 11 11.05 10.66 0.88
5 5 11 0.04 0.06 0.50
5 6 11 37.48 38.56 1.49
5 7 11 1.70 2.35 0.55
6 0 0 137.35 130.07 1.70
6 1 0 65.67 64.15 1.09
6 2 0 3.68 4.68 0.42
6 3 0 32.05 30.64 0.77
6 4 0 9.92 9.61 0.50
6 5 0 79.77 73.96 1.24
6 6 0 66.37 68.22 1.20
6 7 0 87.87 81.61 1.37
6 8 0 55.17 57.02 1.14
6 9 0 0.11 0.22 0.42
6 10 0 86.01 85.05 1.51
6 11 0 0.20 0.25 0.31
6 12 0 61.49 61.96 1.32
6 13 0 20.95 20.75 0.87
6 14 0 8.55 8.94 0.62
6 15 0 26.11 27.52 0.99
6 16 0 5.97 7.05 0.62
6 17 0 7.86 8.64 0.67
6 18 0 21.94 20.52 1.00
6 19 0 6.65 6.74 0.66
6 21 0 2.18 2.19 0.43
6 22 0 23.21 22.78 1.06
6 23 0 0.08 0.65 0.39
6 0 1 38.42 38.24 0.84
6 1 1 122.87 114.63 1.58
6 2 1 86.87 82.85 1.30
6 3 1 74.58 73.63 1.22
6 4 1 85.22 84.67 1.34
6 5 1 109.13 101.09 1.51
6 6 1 10.84 9.16 0.52
6 7 1 60.09 59.01 1.14
6 8 1 53.73 51.07 1.08
6 9 1 0.99 1.41 0.46
6 10 1 0.69 1.41 0.32
6 11 1 25.56 25.77 0.87
6 12 1 12.36 12.35 0.73
6 13 1 116.61 115.60 1.92
6 14 1 38.14 39.77 1.14
6 15 1 17.38 17.93 0.87
6 16 1 11.47 11.35 0.76
6 17 1 69.44 69.50 1.60
6 18 1 62.44 64.13 1.57
6 19 1 16.42 17.90 0.96
6 20 1 12.52 12.73 0.89
6 21 1 9.35 7.77 0.63
6 22 1 22.21 21.09 1.06
6 23 1 9.48 9.02 0.84
6 0 2 16.61 18.56 0.63
6 1 2 116.29 110.17 1.57
6 2 2 178.59 168.34 2.13
6 3 2 3.21 3.20 0.41
6 4 2 1.00 0.83 0.39
6 5 2 49.76 45.74 0.99
6 6 2 10.66 9.18 0.54
6 7 2 17.74 17.33 0.69
6 8 2 45.48 44.97 1.05
6 9 2 6.03 5.27 0.55
6 10 2 101.81 102.74 1.70
6 11 2 3.25 3.58 0.39
6 12 2 29.67 29.46 0.99
6 13 2 8.91 10.40 0.65
6 14 2 91.38 88.08 1.72
6 15 2 0.96 0.98 0.35
6 16 2 8.02 6.74 0.56
6 17 2 13.33 13.77 0.86
6 18 2 7.24 7.21 0.59
6 19 2 5.68 6.69 0.58
6 20 2 1.35 1.77 0.42
6 21 2 9.48 8.44 0.74
6 22 2 4.72 6.01 0.53
6 23 2 11.15 12.98 1.49
6 0 3 12.60 11.86 0.58
6 1 3 95.80 95.90 1.48
6 2 3 16.22 15.99 0.65
6 3 3 190.48 192.65 2.38
6 4 3 64.56 64.27 1.20
6 5 3 4.06 4.38 0.50
6 6 3 23.36 23.56 0.77
6 7 3 54.19 55.40 1.16
6 8 3 23.34 22.01 0.80
6 9 3 24.93 24.44 0.86
6 10 3 0.63 1.25 0.34
6 11 3 6.81 6.58 0.50
6 12 3 20.84 19.95 0.87
6 13 3 4.09 4.22 0.42
6 14 3 43.98 46.25 1.28
6 15 3 30.17 31.08 1.09
6 16 3 28.35 27.30 1.08
6 17 3 12.31 12.31 0.84
6 18 3 64.80 66.97 1.65
6 19 3 43.18 45.23 1.41
6 20 3 3.48 2.90 0.46
6 21 3 20.95 20.14 1.06
6 22 3 28.08 27.83 1.16
6 0 4 0.44 1.01 0.42
6 1 4 92.72 90.43 1.50
6 2 4 19.96 20.21 0.73
6 3 4 53.23 54.62 1.14
6 4 4 1.81 0.88 0.47
6 5 4 36.52 35.41 0.97
6 6 4 65.15 64.41 1.31
6 7 4 4.58 4.75 0.40
6 8 4 17.12 16.26 0.75
6 9 4 39.84 38.44 1.08
6 10 4 44.62 46.46 1.20
6 11 4 2.27 2.39 0.37
6 12 4 27.29 26.29 0.98
6 13 4 3.39 4.50 0.44
6 14 4 38.79 38.17 1.20
6 15 4 4.27 3.67 0.45
6 16 4 28.77 30.71 1.14
6 17 4 75.04 77.25 1.75
6 18 4 9.48 9.51 0.76
6 19 4 30.60 30.21 1.20
6 20 4 10.94 11.89 0.89
6 21 4 51.75 52.41 1.50
6 0 5 14.31 13.75 0.72
6 1 5 64.81 62.52 1.28
6 2 5 17.46 18.91 0.77
6 3 5 107.09 101.98 1.70
6 4 5 18.46 18.36 0.79
6 5 5 4.22 4.02 0.40
6 6 5 40.41 42.15 1.10
6 7 5 10.89 9.77 0.68
6 8 5 0.21 0.25 0.35
6 9 5 32.71 32.43 1.05
6 10 5 1.82 2.20 0.37
6 11 5 18.99 18.59 0.89
6 12 5 22.19 22.28 0.96
6 13 5 8.50 9.17 0.61
6 14 5 20.45 21.77 1.00
6 15 5 2.16 1.84 0.41
6 16 5 16.31 16.18 0.96
6 17 5 1.82 1.82 0.42
6 18 5 17.19 17.06 0.97
6 19 5 5.99 5.78 0.52
6 20 5 0.39 0.08 0.37
6 0 6 47.37 48.94 1.20
6 1 6 96.04 97.23 1.71
6 2 6 72.61 69.60 1.45
6 3 6 54.19 53.76 1.28
6 4 6 17.23 18.90 0.84
6 5 6 76.20 76.57 1.56
6 6 6 67.94 71.06 1.51
6 7 6 6.76 6.09 0.46
6 8 6 11.59 10.41 0.75
6 9 6 72.00 73.08 1.60
6 10 6 12.23 12.23 0.83
6 11 6 32.30 31.92 1.13
6 12 6 38.49 38.96 1.23
6 13 6 33.40 33.43 1.20
6 14 6 13.50 12.67 0.90
6 15 6 39.71 41.88 1.32
6 16 6 25.65 27.73 1.13
6 17 6 21.71 21.93 1.06
6 18 6 8.70 8.31 0.57
6 19 6 14.35 13.77 0.91
6 0 7 16.71 17.04 0.83
6 1 7 1.67 2.17 0.38
6 2 7 46.83 48.05 1.28
6 3 7 11.67 11.36 0.77
6 4 7 7.44 7.86 0.63
6 5 7 20.11 19.91 0.89
6 6 7 90.44 94.87 1.83
6 7 7 1.49 2.23 0.40
6 8 7 18.18 18.31 0.90
6 9 7 5.03 4.90 0.53
6 10 7 54.61 55.80 1.46
6 11 7 4.71 4.93 0.49
6 12 7 16.29 16.85 0.97
6 13 7 16.44 14.95 0.94
6 14 7 11.39 13.31 0.91
6 15 7 2.52 3.39 0.47
6 16 7 0.08 0.09 0.38
6 17 7 10.66 11.46 0.84
6 18 7 6.49 6.82 0.53
6 0 8 25.26 27.37 1.05
6 1 8 0.85 1.20 0.38
6 2 8 13.19 14.26 0.84
6 3 8 46.19 47.62 1.34
6 4 8 7.47 7.51 0.67
6 5 8 3.11 3.29 0.44
6 6 8 10.79 12.72 0.86
6 7 8 49.03 51.33 1.41
6 8 8 0.19 0.70 0.38
6 9 8 2.60 3.04 0.45
6 10 8 5.72 7.56 0.64
6 11 8 17.66 17.03 1.00
6 12 8 1.54 2.32 0.44
6 13 8 9.91 10.10 0.72
6 14 8 14.21 14.76 0.94
6 15 8 36.94 39.89 1.32
6 16 8 21.63 20.43 1.05
6 0 9 34.10 37.75 1.27
6 1 9 1.01 1.07 0.39
6 2 9 10.90 11.05 0.84
6 3 9 11.34 10.84 0.79
6 4 9 8.26 8.68 0.73
6 5 9 2.69 2.62 0.44
6 6 9 10.96 12.64 0.88
6 7 9 6.08 6.79 0.54
6 8 9 25.97 29.09 1.14
6 9 9 5.08 5.63 0.52
6 10 9 40.64 40.75 1.35
6 11 9 4.97 6.35 0.59
6 12 9 32.58 35.23 1.26
6 13 9 13.44 13.50 0.91
6 0 10 2.99 4.77 0.50
6 1 10 38.39 42.06 1.35
6 2 10 44.12 44.31 1.40
6 3 10 1.26 1.56 0.44
6 4 10 5.81 6.80 0.54
6 5 10 46.50 49.94 1.46
6 6 10 7.97 8.29 0.64
6 7 10 20.31 21.84 1.08
6 8 10 1.08 1.52 0.41
6 9 10 3.43 4.39 0.49
6 0 11 5.85 7.20 0.61
6 1 11 26.53 28.66 1.34
6 2 11 2.78 4.15 0.58
7 2 0 73.76 69.13 1.26
7 3 0 12.89 13.22 0.61
7 4 0 3.55 3.69 0.49
7 5 0 53.02 50.86 1.12
7 6 0 18.65 20.42 0.77
7 7 0 2.26 2.34 0.34
7 8 0 34.41 33.54 0.96
7 9 0 42.57 41.54 1.08
7 10 0 93.48 94.82 1.69
7 11 0 32.35 31.66 1.01
7 12 0 23.93 23.50 0.91
7 13 0 0.06 0.08 0.34
7 14 0 17.09 16.85 0.86
7 15 0 15.89 14.64 0.85
7 16 0 2.80 2.40 0.42
7 17 0 12.93 11.12 0.83
7 18 0 1.49 1.19 0.40
7 19 0 2.58 3.00 0.45
7 20 0 22.67 24.03 1.07
7 21 0 18.41 17.26 0.99
7 22 0 0.99 1.39 0.42
7 0 1 217.50 211.76 2.61
7 1 1 57.68 54.56 1.10
7 2 1 16.62 15.38 0.66
7 3 1 38.09 40.12 0.96
7 4 1 69.05 67.66 1.26
7 5 1 68.33 70.51 1.32
7 6 1 38.42 38.54 0.99
7 7 1 21.43 22.08 0.80
7 8 1 0.98 1.10 0.33
7 9 1 95.73 96.87 1.69
7 10 1 18.25 18.41 0.82
7 11 1 17.45 17.58 0.83
7 12 1 0.27 0.49 0.32
7 13 1 33.46 35.73 1.12
7 14 1 19.29 17.47 0.92
7 15 1 10.99 10.37 0.76
7 16 1 17.80 16.75 0.93
7 17 1 34.60 34.74 1.22
7 18 1 40.84 41.38 1.33
7 19 1 25.79 25.43 1.12
7 20 1 10.55 10.81 0.87
7 21 1 25.94 24.35 1.11
7 22 1 33.42 32.46 1.23
7 0 2 12.02 11.10 0.61
7 1 2 1.72 1.97 0.47
7 2 2 35.06 37.46 0.95
7 3 2 28.36 28.10 0.84
7 4 2 13.91 12.20 0.64
7 5 2 47.08 48.83 1.10
7 6 2 204.94 201.56 2.60
7 7 2 7.06 6.84 0.49
7 8 2 17.81 16.88 0.78
7 9 2 24.70 22.75 0.90
7 10 2 141.23 137.42 2.14
7 11 2 9.35 10.29 0.64
7 12 2 55.94 56.31 1.37
7 13 2 5.16 5.09 0.50
7 14 2 6.36 5.56 0.48
7 15 2 15.97 19.31 0.92
7 16 2 14.67 14.64 0.90
7 17 2 6.55 5.94 0.57
7 18 2 9.70 10.84 0.84
7 19 2 1.29 1.60 0.42
7 20 2 1.43 1.82 0.43
7 21 2 1.12 0.94 0.39
7 0 3 2.92 3.63 0.51
7 1 3 115.89 114.02 1.78
7 2 3 29.46 29.12 0.89
7 3 3 18.39 17.32 0.75
7 4 3 25.18 23.69 0.83
7 5 3 98.81 99.16 1.67
7 6 3 42.70 42.77 1.08
7 7 3 11.68 11.60 0.68
7 8 3 37.99 36.15 1.05
7 9 3 5.96 5.48 0.49
7 10 3 5.26 5.78 0.49
7 11 3 6.32 5.74 0.57
7 12 3 13.95 14.36 0.81
7 13 3 19.85 20.61 0.95
7 14 3 40.11 41.08 1.27
7 15 3 13.51 15.76 0.90
7 16 3 23.75 23.71 1.09
7 17 3 30.60 31.32 1.20
7 18 3 7.95 7.63 0.62
7 19 3 21.70 20.40 1.05
7 20 3 11.28 12.21 0.89
7 21 3 8.66 8.55 0.72
7 0 4 2.57 2.53 0.37
7 1 4 62.52 63.97 1.33
7 2 4 11.99 11.52 0.69
7 3 4 23.91 22.57 0.85
7 4 4 55.85 55.02 1.25
7 5 4 49.72 50.06 1.22
7 6 4 47.17 46.86 1.18
7 7 4 5.15 4.36 0.42
7 8 4 9.08 8.82 0.62
7 9 4 17.29 15.93 0.83
7 10 4 10.91 11.39 0.75
7 11 4 13.24 13.50 0.83
7 12 4 26.93 26.27 1.04
7 13 4 38.69 37.98 1.26
7 14 4 11.48 11.38 0.84
7 15 4 34.37 36.86 1.26
7 16 4 31.39 34.20 1.22
7 17 4 21.38 22.35 1.04
7 18 4 13.23 15.53 0.95
7 19 4 23.93 24.72 1.14
7 20 4 3.00 1.87 0.42
7 0 5 2.48 2.90 0.39
7 1 5 21.86 21.26 0.87
7 2 5 21.11 20.92 0.84
7 3 5 7.40 6.98 0.59
7 4 5 31.28 30.29 1.01
7 5 5 31.73 31.46 1.02
7 6 5 24.89 26.31 0.97
7 7 5 45.07 43.32 1.22
7 8 5 60.69 60.38 1.44
7 9 5 4.56 4.65 0.45
7 10 5 41.55 42.63 1.26
7 11 5 12.70 11.59 0.82
7 12 5 29.34 27.14 1.10
7 13 5 4.58 4.42 0.47
7 14 5 49.10 51.29 1.44
7 15 5 2.42 3.04 0.45
7 16 5 12.16 11.74 0.80
7 17 5 4.19 3.89 0.48
7 18 5 5.85 5.47 0.51
7 19 5 4.75 5.29 0.50
7 0 6 14.21 13.87 0.79
7 1 6 58.01 59.12 1.41
7 2 6 72.55 74.33 1.58
7 3 6 53.54 55.56 1.39
7 4 6 50.88 52.82 1.34
7 5 6 6.17 6.25 0.52
7 6 6 12.98 11.68 0.80
7 7 6 30.30 32.42 1.14
7 8 6 26.23 27.35 1.07
7 9 6 9.22 8.58 0.69
7 10 6 7.56 7.21 0.66
7 11 6 22.17 24.30 1.04
7 12 6 6.44 6.44 0.58
7 13 6 11.90 12.92 0.88
7 14 6 10.09 10.41 0.75
7 15 6 16.69 16.83 0.99
7 16 6 20.77 18.22 1.01
7 17 6 15.92 14.27 0.95
7 18 6 8.06 6.78 0.60
7 0 7 29.00 29.47 1.10
7 1 7 1.12 1.18 0.37
7 2 7 66.69 69.70 1.60
7 3 7 7.75 7.89 0.67
7 4 7 2.98 3.01 0.42
7 5 7 4.82 4.64 0.47
7 6 7 2.65 3.14 0.44
7 7 7 18.97 21.45 1.00
7 8 7 32.50 34.20 1.19
7 9 7 17.52 16.53 0.97
7 10 7 35.72 35.63 1.25
7 11 7 12.52 12.42 0.80
7 12 7 20.93 19.78 1.06
7 13 7 6.92 7.35 0.62
7 14 7 28.39 27.98 1.20
7 15 7 6.85 6.62 0.54
7 16 7 0.01 0.18 0.79
7 0 8 0.70 1.15 0.39
7 1 8 30.53 31.05 1.18
7 2 8 65.43 68.56 1.63
7 3 8 16.16 17.55 0.94
7 4 8 5.79 6.10 0.58
7 5 8 9.05 10.11 0.81
7 6 8 3.37 4.33 0.48
7 7 8 8.74 8.34 0.71
7 8 8 3.13 3.77 0.51
7 9 8 23.30 22.62 1.07
7 10 8 1.57 2.03 0.44
7 11 8 27.07 26.59 1.14
7 12 8 14.07 16.55 0.97
7 13 8 20.17 20.28 1.02
7 14 8 2.67 2.35 0.43
7 0 9 3.59 4.48 0.49
7 1 9 3.60 4.29 0.48
7 2 9 9.57 10.04 0.76
7 3 9 7.04 6.93 0.57
7 4 9 18.42 18.58 1.01
7 5 9 11.29 10.32 0.67
7 6 9 8.14 9.95 0.71
7 7 9 3.15 3.68 0.47
7 8 9 54.83 55.51 1.54
7 9 9 0.57 0.67 0.84
7 10 9 29.19 30.58 1.18
7 11 9 5.55 6.36 0.53
7 0 10 0.49 0.21 0.41
7 1 10 29.56 30.08 1.19
7 2 10 3.00 3.79 0.47
7 3 10 59.42 63.81 1.63
7 4 10 6.58 7.20 0.55
7 5 10 0.43 0.70 0.40
7 6 10 10.65 9.38 0.85
8 0 0 3.32 2.27 0.35
8 1 0 1.05 1.66 0.34
8 2 0 47.86 47.73 1.12
8 3 0 0.06 0.14 0.32
8 4 0 1.69 2.29 0.36
8 5 0 9.54 10.24 0.66
8 6 0 129.83 126.83 2.01
8 7 0 17.36 17.37 0.82
8 8 0 4.72 5.53 0.49
8 9 0 61.29 61.94 1.42
8 10 0 17.49 17.21 0.85
8 11 0 19.94 22.01 0.93
8 12 0 9.00 9.85 0.64
8 13 0 54.03 56.45 1.45
8 14 0 1.43 1.23 0.39
8 15 0 1.28 1.73 0.41
8 16 0 32.46 35.00 1.22
8 17 0 15.36 16.44 0.94
8 18 0 0.15 0.51 0.39
8 19 0 10.07 8.96 0.65
8 20 0 0.46 0.76 0.39
8 0 1 32.87 30.44 0.95
8 1 1 30.46 30.05 0.93
8 2 1 96.90 93.06 1.62
8 3 1 0.57 1.19 0.33
8 4 1 32.78 31.53 0.97
8 5 1 65.63 64.51 1.36
8 6 1 2.26 2.46 0.38
8 7 1 19.67 21.10 0.86
8 8 1 4.06 4.93 0.48
8 9 1 60.53 58.99 1.41
8 10 1 3.61 4.19 0.42
8 11 1 3.97 3.84 0.43
8 12 1 19.46 20.50 0.96
8 13 1 24.62 25.36 1.03
8 14 1 4.71 4.39 0.47
8 15 1 17.47 17.93 0.95
8 16 1 7.68 8.43 0.73
8 17 1 15.38 17.76 1.00
8 18 1 3.24 3.79 0.48
8 19 1 38.85 39.22 1.32
8 20 1 33.89 36.19 1.26
8 0 2 0.23 0.54 0.32
8 1 2 2.37 3.02 0.38
8 2 2 31.16 31.20 0.97
8 3 2 11.18 11.02 0.70
8 4 2 126.43 125.09 1.99
8 5 2 3.06 2.97 0.39
8 6 2 48.85 48.26 1.22
8 7 2 13.64 12.07 0.78
8 8 2 174.20 176.34 2.54
8 9 2 2.15 1.90 0.37
8 10 2 22.52 22.37 0.95
8 11 2 4.84 4.06 0.44
8 12 2 27.31 26.80 1.05
8 13 2 2.69 2.65 0.42
8 14 2 25.24 26.29 1.08
8 15 2 3.48 3.58 0.46
8 16 2 20.03 20.53 1.02
8 17 2 5.06 5.21 0.51
8 18 2 4.12 2.82 0.45
8 19 2 2.19 2.92 0.45
8 20 2 9.38 10.07 0.74
8 0 3 77.95 80.09 1.55
8 1 3 1.81 1.84 0.37
8 2 3 14.58 14.22 0.76
8 3 3 34.57 33.79 1.02
8 4 3 41.55 40.66 1.13
8 5 3 22.81 22.23 0.90
8 6 3 33.15 34.65 1.06
8 7 3 34.17 33.80 1.07
8 8 3 19.37 20.56 0.89
8 9 3 58.35 57.74 1.42
8 10 3 67.57 68.61 1.57
8 11 3 10.08 10.62 0.79
8 12 3 58.57 61.03 1.53
8 13 3 32.03 36.27 1.22
8 14 3 14.55 15.41 0.90
8 15 3 0.57 0.52 0.38
8 16 3 10.18 11.87 0.87
8 17 3 2.06 3.13 0.46
8 18 3 4.94 5.77 0.51
8 19 3 1.66 1.79 0.42
8 0 4 5.25 5.33 0.48
8 1 4 12.03 13.62 0.74
8 2 4 15.70 15.81 0.80
8 3 4 43.53 44.39 1.19
8 4 4 21.45 23.00 0.92
8 5 4 10.25 11.69 0.72
8 6 4 6.30 6.68 0.50
8 7 4 37.48 39.80 1.20
8 8 4 63.32 63.13 1.51
8 9 4 23.05 23.76 0.98
8 10 4 28.02 29.79 1.11
8 11 4 52.10 52.59 1.43
8 12 4 14.65 15.16 0.89
8 13 4 23.17 23.88 1.06
8 14 4 23.08 24.19 1.09
8 15 4 34.03 37.63 1.29
8 16 4 7.15 8.14 0.57
8 17 4 5.95 6.93 0.61
8 18 4 0.65 0.54 0.38
8 0 5 0.45 0.64 0.34
8 1 5 19.18 22.65 0.92
8 2 5 16.93 17.63 0.85
8 3 5 13.93 14.39 0.82
8 4 5 15.24 16.54 0.85
8 5 5 31.64 32.85 1.13
8 6 5 44.11 45.09 1.28
8 7 5 8.31 8.05 0.67
8 8 5 34.28 35.81 1.20
8 9 5 13.27 13.05 0.86
8 10 5 48.95 48.00 1.40
8 11 5 0.38 1.07 0.39
8 12 5 52.08 52.13 1.49
8 13 5 0.76 1.19 0.41
8 14 5 6.83 5.31 0.51
8 15 5 12.34 13.60 0.91
8 16 5 8.48 9.90 0.85
8 17 5 5.15 5.24 0.50
8 0 6 79.87 82.88 1.75
8 1 6 1.94 1.83 0.39
8 2 6 8.03 8.14 0.67
8 3 6 11.35 11.92 0.82
8 4 6 35.17 35.78 1.18
8 5 6 20.69 21.69 0.99
8 6 6 13.19 15.90 0.90
8 7 6 29.71 27.44 1.14
8 8 6 12.76 12.60 0.90
8 9 6 4.25 5.11 0.50
8 10 6 0.02 0.13 0.39
8 11 6 26.70 28.63 1.18
8 12 6 0.16 0.03 0.37
8 13 6 9.01 9.50 0.71
8 14 6 2.90 3.20 0.46
8 15 6 13.18 14.33 0.95
8 16 6 17.11 18.16 1.00
8 0 7 52.54 53.08 1.48
8 1 7 4.91 4.85 0.48
8 2 7 1.01 1.27 0.40
8 3 7 12.09 10.98 0.74
8 4 7 54.94 58.12 1.52
8 5 7 1.04 0.98 0.39
8 6 7 2.77 3.01 0.45
8 7 7 35.40 34.75 1.24
8 8 7 27.85 29.49 1.18
8 9 7 8.40 10.03 0.76
8 10 7 0.12 0.12 0.41
8 11 7 28.58 27.47 1.18
8 12 7 31.68 31.75 1.20
8 13 7 7.11 8.41 0.64
8 14 7 10.85 12.78 0.90
8 0 8 42.33 46.03 1.41
8 1 8 41.20 43.47 1.37
8 2 8 9.69 9.69 0.74
8 3 8 34.25 34.21 1.26
8 4 8 10.82 11.38 0.79
8 5 8 15.02 13.71 0.94
8 6 8 8.35 8.63 0.61
8 7 8 12.24 12.96 0.91
8 8 8 2.73 3.01 0.46
8 9 8 2.70 3.79 0.48
8 10 8 3.37 4.32 0.48
8 11 8 20.19 21.76 1.06
8 0 9 6.51 6.06 0.53
8 1 9 6.03 5.64 0.52
8 2 9 18.01 19.35 1.05
8 3 9 15.85 16.62 0.98
8 4 9 19.07 17.37 1.01
8 5 9 0.42 0.88 0.42
8 6 9 39.73 42.85 1.33
8 7 9 19.79 22.48 1.07
8 8 9 5.77 7.28 0.63
9 1 0 0.42 0.55 0.32
9 2 0 23.26 23.35 0.92
9 4 0 174.13 172.41 2.54
9 5 0 0.02 0.56 0.66
9 6 0 5.79 6.49 0.53
9 7 0 6.94 7.01 0.62
9 8 0 125.68 122.59 2.13
9 9 0 4.31 4.26 0.45
9 10 0 15.84 15.30 0.88
9 11 0 24.39 24.35 1.04
9 12 0 6.01 5.38 0.50
9 13 0 5.23 6.58 0.53
9 14 0 38.51 41.02 1.33
9 15 0 35.59 36.41 1.27
9 16 0 0.05 0.11 0.39
9 18 0 4.42 4.53 0.49
9 0 1 6.76 7.22 0.53
9 1 1 11.22 11.56 0.73
9 2 1 25.43 25.78 0.96
9 3 1 13.24 12.64 0.77
9 4 1 4.47 5.70 0.50
9 5 1 7.63 6.78 0.59
9 6 1 18.34 19.10 0.89
9 7 1 37.92 38.29 1.20
9 8 1 12.96 13.91 0.81
9 9 1 37.10 37.74 1.18
9 10 1 4.75 4.20 0.46
9 11 1 33.48 33.68 1.18
9 12 1 3.12 3.18 0.45
9 13 1 56.14 58.02 1.54
9 14 1 13.05 13.26 0.91
9 15 1 4.28 4.09 0.48
9 16 1 9.22 9.97 0.82
9 17 1 21.15 21.33 1.05
9 18 1 1.07 1.35 0.41
9 0 2 109.21 109.17 1.93
9 1 2 1.27 1.76 0.36
9 2 2 5.00 4.45 0.43
9 3 2 3.03 2.73 0.39
9 4 2 89.71 89.77 1.76
9 5 2 30.46 31.77 1.07
9 6 2 10.49 9.74 0.76
9 7 2 11.41 10.88 0.80
9 8 2 6.25 6.13 0.49
9 9 2 59.10 62.18 1.52
9 10 2 9.05 9.79 0.75
9 11 2 15.80 15.46 0.90
9 12 2 19.41 18.91 0.99
9 13 2 33.20 34.43 1.25
9 14 2 11.05 10.33 0.77
9 15 2 10.17 10.60 0.82
9 16 2 16.73 17.84 1.00
9 17 2 4.08 3.58 0.46
9 18 2 12.22 12.72 0.87
9 0 3 18.95 19.62 0.88
9 1 3 19.05 20.04 0.90
9 2 3 71.54 71.68 1.57
9 3 3 0.23 0.06 0.33
9 4 3 7.28 7.57 0.56
9 5 3 20.99 21.07 0.97
9 6 3 26.03 27.13 1.06
9 7 3 15.84 16.07 0.89
9 8 3 79.59 83.89 1.79
9 9 3 8.59 9.72 0.80
9 10 3 45.80 48.43 1.39
9 11 3 15.22 15.26 0.92
9 12 3 40.60 43.28 1.34
9 13 3 3.71 3.83 0.48
9 14 3 28.37 29.83 1.20
9 15 3 2.82 3.49 0.47
9 16 3 1.78 2.10 0.43
9 17 3 4.49 4.77 0.49
9 0 4 64.93 64.86 1.54
9 1 4 0.76 1.54 0.39
9 2 4 2.95 3.36 0.42
9 3 4 13.12 14.89 0.84
9 4 4 40.78 41.37 1.24
9 5 4 17.52 18.74 0.93
9 6 4 27.30 28.40 1.06
9 7 4 13.80 12.89 0.85
9 8 4 32.23 34.17 1.19
9 9 4 16.71 20.00 0.97
9 10 4 43.86 47.80 1.42
9 11 4 0.42 0.56 0.38
9 12 4 33.76 34.80 1.23
9 13 4 0.72 1.28 0.41
9 14 4 4.09 4.36 0.49
9 15 4 4.70 5.19 0.51
9 16 4 3.82 4.61 0.49
9 0 5 68.19 67.50 1.63
9 1 5 11.67 11.92 0.83
9 2 5 41.74 42.52 1.30
9 3 5 39.14 39.20 1.26
9 4 5 13.42 12.91 0.86
9 5 5 0.57 1.11 0.39
9 6 5 16.02 17.37 0.96
9 7 5 35.10 35.75 1.23
9 8 5 18.75 20.10 0.99
9 9 5 1.51 1.57 0.41
9 10 5 2.41 2.83 0.45
9 11 5 20.55 20.25 1.03
9 12 5 10.60 11.37 0.85
9 13 5 8.93 7.59 0.63
9 14 5 2.22 2.73 0.45
9 15 5 9.44 9.21 0.74
9 0 6 0.28 0.86 0.38
9 1 6 2.30 2.79 0.44
9 2 6 14.60 15.63 0.93
9 3 6 28.28 29.54 1.14
9 4 6 8.88 8.94 0.72
9 5 6 10.60 10.56 0.83
9 6 6 8.99 9.85 0.80
9 7 6 15.84 15.59 0.95
9 8 6 3.30 3.11 0.47
9 9 6 20.28 23.18 1.08
9 10 6 5.46 5.09 0.56
9 11 6 21.54 20.57 1.04
9 12 6 8.14 8.97 0.72
9 13 6 7.38 7.64 0.56
9 0 7 18.48 17.87 1.00
9 1 7 5.98 5.90 0.58
9 2 7 20.46 20.18 1.05
9 3 7 5.30 5.37 0.51
9 4 7 20.69 19.14 1.04
9 5 7 18.67 19.60 1.04
9 6 7 59.67 61.61 1.61
9 7 7 1.17 1.32 0.41
9 8 7 21.19 20.57 1.01
9 9 7 11.58 11.22 0.90
9 10 7 11.93 13.07 0.90
9 11 7 1.29 1.37 0.41
9 0 8 3.64 4.28 0.49
9 1 8 2.09 2.29 0.44
9 2 8 2.56 2.88 0.45
9 3 8 12.47 13.30 0.92
9 4 8 21.94 23.00 1.10
9 5 8 7.02 6.78 0.60
9 6 8 15.30 18.45 0.98
9 7 8 28.50 28.62 1.17
9 8 8 3.76 4.94 0.49
10 0 0 266.51 266.39 3.49
10 1 0 0.00 0.07 0.72
10 2 0 9.48 10.03 0.77
10 3 0 1.03 1.70 0.39
10 4 0 115.69 116.41 2.11
10 5 0 11.54 10.24 0.79
10 6 0 22.67 23.93 1.03
10 7 0 0.84 1.29 0.39
10 8 0 3.01 3.00 0.45
10 9 0 19.79 18.09 0.97
10 10 0 4.57 3.62 0.46
10 11 0 1.60 2.39 0.44
10 12 0 1.23 1.88 0.43
10 14 0 7.62 7.28 0.69
10 15 0 0.92 1.56 0.41
10 16 0 0.44 0.15 0.37
10 0 1 0.64 0.73 0.36
10 1 1 38.28 40.00 1.24
10 2 1 12.13 12.91 0.78
10 3 1 18.23 18.67 0.92
10 4 1 12.94 12.80 0.86
10 5 1 5.28 5.67 0.55
10 6 1 39.37 40.51 1.27
10 7 1 11.11 11.57 0.76
10 8 1 2.08 2.13 0.42
10 9 1 8.36 9.84 0.82
10 10 1 10.36 10.79 0.83
10 11 1 47.56 47.50 1.43
10 12 1 10.03 8.74 0.75
10 13 1 9.22 9.11 0.66
10 14 1 8.52 8.65 0.74
10 15 1 15.91 16.58 0.97
10 16 1 1.92 2.30 0.43
10 0 2 53.36 50.56 1.40
10 1 2 3.82 3.59 0.45
10 2 2 48.80 49.54 1.40
10 3 2 12.42 14.08 0.85
10 4 2 16.78 18.39 0.92
10 5 2 5.76 5.23 0.49
10 6 2 2.49 2.64 0.43
10 7 2 34.48 36.17 1.22
10 8 2 7.26 7.23 0.68
10 9 2 2.03 2.64 0.44
10 10 2 31.98 31.92 1.22
10 11 2 43.07 43.60 1.39
10 12 2 1.55 2.28 0.44
10 13 2 0.70 0.94 0.40
10 14 2 35.25 34.01 1.24
10 15 2 32.88 32.66 1.23
10 0 3 7.98 7.42 0.68
10 1 3 0.72 0.71 0.37
10 2 3 14.41 14.80 0.87
10 3 3 4.85 4.99 0.49
10 4 3 15.29 15.26 0.89
10 5 3 8.08 8.07 0.62
10 6 3 52.95 56.48 1.50
10 7 3 2.05 2.37 0.43
10 9 3 10.70 10.61 0.84
10 10 3 22.02 22.56 1.10
10 11 3 1.91 1.78 0.42
10 12 3 20.00 21.50 1.04
10 13 3 27.85 26.85 1.16
10 14 3 2.03 2.47 0.44
10 15 3 4.44 2.43 0.44
10 0 4 2.89 3.14 0.45
10 1 4 7.86 8.60 0.70
10 2 4 13.69 14.47 0.87
10 3 4 18.15 17.57 0.98
10 4 4 13.10 15.27 0.91
10 5 4 32.12 32.02 1.20
10 6 4 4.45 3.83 0.47
10 7 4 37.73 38.35 1.33
10 8 4 19.44 21.70 1.06
10 9 4 12.68 15.37 0.93
10 10 4 21.85 22.45 1.09
10 11 4 19.80 20.74 1.05
10 12 4 0.81 1.51 0.41
10 13 4 0.78 0.93 0.39
10 14 4 20.04 19.44 1.01
10 0 5 15.69 17.67 0.97
10 1 5 30.62 31.99 1.20
10 2 5 30.99 29.75 1.20
10 3 5 1.06 1.25 0.41
10 4 5 22.12 22.75 1.06
10 5 5 53.87 56.12 1.56
10 6 5 17.47 19.48 1.03
10 7 5 2.55 2.16 0.44
10 8 5 11.89 12.34 0.88
10 9 5 40.12 40.78 1.36
10 10 5 11.62 12.90 0.92
10 11 5 2.22 2.12 0.44
10 12 5 10.56 9.18 0.75
10 0 6 0.03 0.17 0.40
10 1 6 9.08 9.14 0.62
10 2 6 11.73 11.49 0.90
10 3 6 0.19 0.44 0.38
10 4 6 2.23 1.95 0.43
10 5 6 3.15 3.89 0.48
10 6 6 3.12 3.12 0.46
10 7 6 13.39 12.86 0.82
10 8 6 5.84 6.17 0.53
10 9 6 6.66 6.55 0.59
10 10 6 14.59 15.36 0.93
10 0 7 2.79 3.34 0.47
10 1 7 5.08 5.71 0.51
10 2 7 83.68 84.07 1.89
10 3 7 3.39 3.62 0.47
10 4 7 8.43 9.10 0.75
10 5 7 4.50 4.56 0.49
10 6 7 35.64 36.42 1.27
10 7 7 11.03 11.53 0.89
11 1 0 0.66 0.76 0.38
11 2 0 183.19 181.59 2.83
11 3 0 10.01 10.29 0.76
11 4 0 0.82 0.65 0.38
11 5 0 0.56 0.37 0.39
11 6 0 16.31 19.51 1.01
11 7 0 56.39 57.94 1.56
11 8 0 0.48 0.88 0.40
11 9 0 1.10 1.69 0.42
11 10 0 11.32 10.28 0.78
11 11 0 52.10 55.02 1.51
11 12 0 5.15 4.42 0.49
11 13 0 10.32 9.60 0.77
11 0 1 0.02 0.30 0.37
11 1 1 30.26 30.15 1.17
11 2 1 1.31 1.57 0.41
11 3 1 9.44 8.51 0.72
11 4 1 7.44 8.00 0.62
11 5 1 26.64 25.93 1.12
11 6 1 1.59 1.62 0.42
11 7 1 26.52 28.22 1.14
11 8 1 13.97 14.93 0.94
11 9 1 3.01 2.09 0.44
11 10 1 6.63 7.90 0.63
11 11 1 5.06 5.16 0.50
11 12 1 0.78 0.85 0.39
11 13 1 13.98 13.35 0.79
11 0 2 9.11 7.46 0.68
11 1 2 8.88 10.01 0.82
11 2 2 16.90 14.41 0.95
11 3 2 21.32 20.74 1.06
11 4 2 10.74 12.81 0.87
11 5 2 0.93 1.47 0.42
11 6 2 2.14 1.92 0.43
11 7 2 19.36 19.69 1.02
11 8 2 8.28 9.32 0.74
11 9 2 1.92 2.25 0.44
11 10 2 3.04 3.17 0.46
11 11 2 20.42 21.51 1.05
11 12 2 6.51 5.93 0.57
11 0 3 15.61 15.80 0.94
11 1 3 18.15 19.28 0.99
11 2 3 9.06 8.64 0.72
11 3 3 0.78 0.60 0.39
11 4 3 26.46 27.46 1.16
11 5 3 15.81 19.05 0.99
11 6 3 17.14 18.09 1.00
11 7 3 12.47 12.48 0.90
11 8 3 14.18 15.24 0.98
11 9 3 2.43 3.11 0.45
11 10 3 3.59 3.67 0.47
11 11 3 17.64 16.17 0.99
11 0 4 8.07 6.94 0.61
11 1 4 13.23 14.44 0.93
11 2 4 26.82 27.50 1.15
11 3 4 33.00 35.15 1.27
11 4 4 7.26 7.38 0.56
11 5 4 3.11 3.24 0.46
11 6 4 14.29 16.36 0.93
11 7 4 4.67 5.04 0.51
11 8 4 0.93 1.40 0.41
11 9 4 12.05 10.84 0.77
11 10 4 3.59 3.35 0.46
11 0 5 7.24 8.91 0.66
11 1 5 14.11 14.39 0.96
11 2 5 34.75 34.77 1.27
11 3 5 21.63 22.50 1.04
11 4 5 2.31 2.40 0.44
11 5 5 3.62 3.05 0.45
11 6 5 45.61 47.79 1.46
11 7 5 10.46 12.09 0.87
11 8 5 0.04 0.26 0.39
11 0 6 19.05 18.06 1.02
11 1 6 5.09 4.74 0.49
11 2 6 0.63 0.91 0.42
11 3 6 26.74 27.58 1.14
11 4 6 6.46 6.92 0.59
12 0 0 8.69 8.86 0.66
12 1 0 12.30 13.74 0.93
12 2 0 5.10 5.31 0.57
12 3 0 25.51 24.50 1.11
12 4 0 1.96 2.30 0.44
12 5 0 16.59 17.38 0.97
12 6 0 21.48 20.21 1.02
12 7 0 7.69 7.96 0.56
12 8 0 0.52 0.59 0.39
12 9 0 34.11 35.45 1.26
12 0 1 11.17 12.21 0.88
12 1 1 4.42 5.06 0.50
12 2 1 4.31 3.76 0.48
12 3 1 23.72 22.16 1.09
12 4 1 6.82 8.74 0.68
12 5 1 36.18 34.08 1.27
12 6 1 0.24 0.51 0.39
12 7 1 20.91 22.49 1.08
12 8 1 8.17 9.96 0.84
12 0 2 0.82 0.98 0.40
12 1 2 4.82 5.07 0.50
12 2 2 48.06 46.91 1.46
12 3 2 1.20 1.51 0.41
12 4 2 9.12 8.55 0.74
12 5 2 7.28 7.65 0.62
12 6 2 15.21 14.93 0.97
12 7 2 4.71 4.84 0.49
12 8 2 5.63 5.25 0.57
12 0 3 0.13 1.05 0.82
12 1 3 15.45 17.80 0.96
12 2 3 0.40 0.81 0.40
12 3 3 18.76 20.51 1.04
12 4 3 1.15 1.83 0.42
12 5 3 6.79 6.95 0.68
12 6 3 0.79 0.88 0.39
12 0 4 11.44 14.02 0.91
12 1 4 42.90 43.51 1.37
12 2 4 8.08 8.95 0.82
12 3 4 16.58 16.92 0.98
