#------------------------------------------------------------------------------
#$Date: 2022-03-02 05:20:08 +0200 (Wed, 02 Mar 2022) $
#$Revision: 273207 $
#$URL: file:///home/coder/svn-repositories/cod/cif/1/56/65/1566508.cif $
#------------------------------------------------------------------------------
#
# This file is available in the Crystallography Open Database (COD),
# http://www.crystallography.net/. The original data for this entry
# were provided by IUCr Journals, http://journals.iucr.org/.
#
# The file may be used within the scientific community so long as
# proper attribution is given to the journal article from which the
# data were obtained.
#
data_1566508
loop_
_publ_author_name
'Ruth, Paul Niklas'
'Herbst-Irmer, Regine'
'Stalke, Dietmar'
_publ_section_title
;
 Hirshfeld atom refinement based on projector augmented wave densities
 with periodic boundary conditions
;
_journal_issue                   2
_journal_name_full               IUCrJ
_journal_page_first              286
_journal_page_last               297
_journal_paper_doi               10.1107/S2052252522001385
_journal_volume                  9
_journal_year                    2022
_chemical_formula_moiety         'C H4 N2 O'
_chemical_formula_sum            'C H4 N2 O'
_chemical_formula_weight         60.06
_chemical_name_common            urea
_space_group_crystal_system      tetragonal
_space_group_IT_number           113
_space_group_name_Hall           'P -4 2ab'
_space_group_name_H-M_alt        'P -4 21 m'
_atom_sites_solution_hydrogens   difmap
_audit_creation_method           'xHARPY 0.1'
_cell_angle_alpha                90
_cell_angle_beta                 90
_cell_angle_gamma                90
_cell_formula_units_Z            2
_cell_length_a                   5.5780(6)
_cell_length_b                   5.5780(6)
_cell_length_c                   4.6860(7)
_cell_measurement_reflns_used    17
_cell_measurement_temperature    123(2)
_cell_volume                     145.80(3)
_computing_cell_refinement       'KM6-CH software'
_computing_data_collection       'KM6-CH software'
_computing_data_reduction        XD_RED
_computing_publication_material  'xHARPY 0.1'
_computing_structure_refinement  'xHARPY 0.1'
_diffrn_ambient_temperature      123(2)
_diffrn_measured_fraction_theta_full 1.0
_diffrn_measured_fraction_theta_max 0.982
_diffrn_measurement_device_type
;
KM6-CH six-circle \k diffractometer operated as standard four-circle
\k diffractometer with detector circle in the vertical plane to profit
from the linear polarization of the synchrotron beam.
;
_diffrn_measurement_method       \w-scan
_diffrn_radiation_type           synchrotron
_diffrn_radiation_wavelength     0.5996
_diffrn_reflns_av_R_equivalents  0.0141
_diffrn_reflns_av_unetI/netI     0.0148
_diffrn_reflns_Laue_measured_fraction_full 1.0
_diffrn_reflns_Laue_measured_fraction_max 0.982
_diffrn_reflns_number            1022
_diffrn_reflns_point_group_measured_fraction_full 0.656
_diffrn_reflns_point_group_measured_fraction_max 0.562
_diffrn_reflns_theta_full        21.085
_diffrn_reflns_theta_max         57.401
_diffrn_reflns_theta_min         3.668
_exptl_absorpt_coefficient_mu    0.081
_exptl_absorpt_correction_type   none
_exptl_crystal_colour            colourless
_exptl_crystal_density_diffrn    1.368
_exptl_crystal_density_method    'not measured'
_exptl_crystal_description       block
_exptl_crystal_F_000             64
_exptl_crystal_size_max          0.23
_exptl_crystal_size_mid          0.13
_exptl_crystal_size_min          0.09
_refine_diff_density_max         0.2088
_refine_diff_density_min         -0.3352
_refine_diff_density_rms         0.0358
_refine_ls_extinction_method     none
_refine_ls_goodness_of_fit_ref   1.438
_refine_ls_hydrogen_treatment    refall
_refine_ls_matrix_type           full
_refine_ls_number_parameters     51
_refine_ls_number_reflns         1022
_refine_ls_number_restraints     0
_refine_ls_R_factor_all          0.0249
_refine_ls_R_factor_gt           0.0105
_refine_ls_shift/su_max          0.0
_refine_ls_shift/su_mean         0.0
_refine_ls_structure_factor_coef Fsqd
_refine_ls_weighting_details     w=1/[\s^2^(Fo^2^)]
_refine_ls_weighting_scheme      sigma
_refine_ls_wR_factor_gt          0.0132
_refine_ls_wR_factor_ref         0.0133
_reflns_Friedel_coverage         0.0
_reflns_Friedel_fraction_full    0.0
_reflns_Friedel_fraction_max     0.0
_reflns_number_gt                803
_reflns_number_total             1022
_reflns_threshold_expression     'I > 2\s(I)'
_cod_data_source_file            fc5060.cif
_cod_data_source_block           urea_xHARPy_SCAN_dijkl
_cod_original_cell_volume        145.80(4)
_cod_database_code               1566508
loop_
_space_group_symop_operation_xyz
'x, y, z'
'y, -x, -z'
'-x, -y, z'
'-y, x, -z'
'x+1/2, -y+1/2, -z'
'-y+1/2, -x+1/2, z'
'-x+1/2, y+1/2, -z'
'y+1/2, x+1/2, z'
loop_
_atom_site_label
_atom_site_type_symbol
_atom_site_fract_x
_atom_site_fract_y
_atom_site_fract_z
_atom_site_U_iso_or_equiv
_atom_site_adp_type
_atom_site_occupancy
_atom_site_site_symmetry_order
O O 0.0 0.5 0.59608(4) 0.01538(5) Uani 1.0 4
N N 0.14467(3) 0.64467(3) 0.17894(4) 0.02219(5) Uani 1.0 2
H1 H 0.2561(3) 0.7561(3) 0.2841(4) 0.0433(9) Uani 1.0 2
H2 H 0.1435(3) 0.6435(3) -0.0349(6) 0.0367(7) Uani 1.0 2
C C 0.0 0.5 0.32825(3) 0.01186(2) Uani 1.0 4
loop_
_atom_site_aniso_label
_atom_site_aniso_U_11
_atom_site_aniso_U_22
_atom_site_aniso_U_33
_atom_site_aniso_U_23
_atom_site_aniso_U_13
_atom_site_aniso_U_12
O 0.01971(7) 0.01971(7) 0.00672(6) 0.0 0.0 0.00180(9)
N 0.02863(7) 0.02863(7) 0.00930(7) 0.00011(5) 0.00011(5) -0.01466(10)
H1 0.0537(15) 0.0537(15) 0.0226(16) -0.0027(10) -0.0027(10) -0.0375(18)
H2 0.0437(11) 0.0437(11) 0.0226(14) -0.0003(10) -0.0003(10) -0.0187(20)
C 0.01453(3) 0.01453(3) 0.00654(3) 0.0 0.0 -0.00011(5)
loop_
_atom_type_symbol
_atom_type_description
_atom_type_scat_dispersion_real
_atom_type_scat_dispersion_imag
_atom_type_scat_source
C C 0.0020 0.0010 'HAR in xHARPy 0.1'
H H 0.0000 0.0000 'HAR in xHARPy 0.1'
N N 0.0040 0.0020 'HAR in xHARPy 0.1'
O O 0.0070 0.0040 'HAR in xHARPy 0.1'
loop_
_geom_angle_atom_site_label_1
_geom_angle_atom_site_label_2
_geom_angle_atom_site_label_3
_geom_angle
C N H1 119.21(12)
C N H2 120.96(14)
H1 N H2 119.83(19)
O C N 121.510(11)
loop_
_geom_bond_atom_site_label_1
_geom_bond_atom_site_label_2
_geom_bond_distance
O C 1.2550(3)
N C 1.3386(2)
N H1 1.008(2)
N H2 1.002(3)
loop_
_refln_index_h
_refln_index_k
_refln_index_l
_refln_F_squared_calc
_refln_F_squared_meas
_refln_F_squared_sigma
0 0 1 13.25 13.36 0.05
0 0 2 128.64 134.16 0.83
0 0 3 13.54 13.56 0.08
0 0 4 29.10 29.68 0.18
0 0 5 48.39 48.82 0.36
0 0 6 15.17 15.72 0.19
0 0 7 0.23 0.27 0.03
0 0 8 15.20 14.68 0.25
0 0 9 3.58 3.64 0.10
0 0 10 2.92 2.89 0.09
0 0 11 0.10 0.07 0.26
0 0 12 3.80 3.79 0.11
0 0 13 0.18 0.18 0.02
1 0 1 148.49 149.17 0.18
1 0 2 151.95 152.43 0.27
1 0 3 87.51 87.30 0.19
1 0 4 2.23 2.21 0.03
1 0 5 18.87 18.98 0.10
1 0 6 0.47 0.53 0.03
1 0 7 43.20 43.06 0.34
1 0 8 6.06 6.12 0.07
1 0 9 0.01 -0.01 0.32
1 0 10 0.21 0.19 0.01
1 0 11 1.47 1.42 0.04
1 0 12 1.22 1.25 0.04
1 0 13 0.04 0.00 0.31
1 1 0 1037.42 1003.26 1.91
1 1 1 279.56 282.04 0.51
1 1 2 52.60 52.66 0.12
1 1 3 11.59 11.55 0.06
1 1 4 43.14 43.27 0.18
1 1 5 16.76 16.92 0.11
1 1 6 3.00 2.95 0.03
1 1 7 5.72 5.67 0.08
1 1 8 4.41 4.48 0.07
1 1 9 1.29 1.30 0.05
1 1 10 3.24 3.24 0.07
1 1 11 1.63 1.64 0.05
1 1 12 2.40 2.46 0.06
1 1 13 0.24 0.23 0.02
2 0 0 154.10 155.15 0.30
2 0 1 195.62 196.72 0.26
2 0 2 8.27 8.26 0.03
2 0 3 49.43 49.42 0.13
2 0 4 20.07 20.05 0.09
2 0 5 0.56 0.56 0.03
2 0 6 1.45 1.46 0.02
2 0 7 0.26 0.27 0.01
2 0 8 0.04 0.05 0.20
2 0 9 0.37 0.36 0.02
2 0 10 1.09 1.07 0.04
2 0 11 4.38 4.32 0.07
2 0 12 0.99 1.06 0.04
2 0 13 0.00 -0.03 0.30
2 1 0 226.98 225.77 0.28
2 1 1 49.10 49.33 0.08
2 1 2 29.92 30.09 0.07
2 1 3 68.17 68.31 0.16
2 1 4 45.04 45.12 0.14
2 1 5 13.68 13.52 0.07
2 1 6 13.76 13.86 0.09
2 1 7 10.74 10.75 0.09
2 1 8 15.07 14.86 0.13
2 1 9 3.30 3.29 0.05
2 1 10 1.18 1.19 0.03
2 1 11 1.93 1.90 0.04
2 1 12 0.41 0.42 0.02
2 1 13 0.20 0.21 0.01
2 2 0 228.68 226.25 0.42
2 2 1 200.24 198.85 0.39
2 2 2 55.14 54.51 0.16
2 2 3 27.36 27.40 0.12
2 2 4 43.55 43.25 0.21
2 2 5 9.76 9.74 0.08
2 2 6 2.88 2.75 0.05
2 2 7 10.26 10.05 0.12
2 2 8 1.80 1.84 0.05
2 2 9 1.68 1.66 0.05
2 2 10 3.69 3.65 0.07
2 2 11 2.86 2.77 0.06
2 2 12 1.73 1.74 0.05
3 0 1 93.25 92.95 0.17
3 0 2 17.68 17.74 0.06
3 0 3 11.54 11.56 0.05
3 0 4 103.78 104.43 0.38
3 0 5 0.31 0.37 0.02
3 0 6 11.02 10.83 0.09
3 0 7 0.47 0.50 0.02
3 0 8 15.64 15.51 0.16
3 0 9 4.20 4.25 0.06
3 0 10 4.87 4.82 0.07
3 0 11 0.39 0.41 0.02
3 0 12 0.04 0.04 0.17
3 1 0 28.94 28.97 0.07
3 1 1 141.90 141.64 0.23
3 1 2 14.92 14.80 0.05
3 1 3 66.05 65.87 0.18
3 1 4 14.28 14.45 0.07
3 1 5 1.67 1.66 0.03
3 1 6 5.21 5.21 0.05
3 1 7 1.53 1.53 0.03
3 1 8 0.47 0.47 0.02
3 1 9 1.45 1.48 0.03
3 1 10 1.03 1.07 0.03
3 1 11 5.42 5.39 0.07
3 1 12 0.58 0.59 0.03
3 2 0 17.26 17.32 0.05
3 2 1 5.09 5.10 0.03
3 2 2 11.10 10.95 0.04
3 2 3 25.50 25.52 0.09
3 2 4 13.62 13.60 0.07
3 2 5 7.64 7.60 0.05
3 2 6 3.00 3.03 0.04
3 2 7 16.04 16.07 0.13
3 2 8 7.12 7.02 0.07
3 2 9 0.65 0.68 0.03
3 2 10 0.16 0.12 0.02
3 2 11 1.00 0.95 0.03
3 2 12 0.40 0.41 0.02
3 3 0 221.71 218.41 0.62
3 3 1 8.01 8.09 0.05
3 3 2 7.62 7.92 0.06
3 3 3 0.49 0.51 0.03
3 3 4 15.95 15.71 0.12
3 3 5 13.44 13.31 0.09
3 3 6 5.44 5.56 0.07
3 3 7 0.15 0.15 0.02
3 3 8 5.69 5.60 0.09
3 3 9 1.02 0.98 0.05
3 3 10 1.36 1.49 0.05
3 3 11 0.33 0.31 0.02
3 3 12 1.92 1.97 0.05
4 0 0 5.13 5.48 0.06
4 0 1 95.49 97.13 0.24
4 0 2 7.74 7.64 0.04
4 0 3 70.95 71.56 0.25
4 0 4 5.83 5.89 0.05
4 0 5 2.51 2.60 0.04
4 0 6 7.84 7.76 0.07
4 0 7 0.15 0.16 0.01
4 0 8 1.16 1.11 0.04
4 0 9 2.12 2.13 0.05
4 0 10 0.50 0.42 0.02
4 0 11 5.91 5.98 0.09
4 0 12 0.24 0.23 0.01
4 1 0 7.04 7.10 0.04
4 1 1 11.62 11.60 0.04
4 1 2 2.78 2.74 0.03
4 1 3 13.13 13.06 0.06
4 1 4 42.37 42.80 0.18
4 1 5 1.47 1.51 0.03
4 1 6 5.75 5.72 0.05
4 1 7 3.41 3.38 0.04
4 1 8 10.16 10.07 0.10
4 1 9 1.85 1.86 0.04
4 1 10 1.84 1.80 0.04
4 1 11 0.57 0.57 0.02
4 1 12 0.05 0.03 0.28
4 2 0 93.33 92.93 0.22
4 2 1 25.35 25.59 0.08
4 2 2 5.46 5.41 0.03
4 2 3 4.22 4.21 0.03
4 2 4 16.62 16.53 0.09
4 2 5 5.28 5.28 0.03
4 2 6 1.11 1.12 0.03
4 2 7 1.70 1.69 0.03
4 2 8 1.88 1.85 0.04
4 2 9 0.37 0.39 0.02
4 2 10 1.43 1.42 0.04
4 2 11 1.23 1.19 0.03
4 2 12 1.21 1.22 0.03
4 3 0 3.36 3.24 0.03
4 3 1 20.37 20.50 0.08
4 3 2 18.80 18.65 0.08
4 3 3 16.59 16.73 0.08
4 3 4 0.34 0.31 0.02
4 3 5 13.22 13.20 0.09
4 3 6 1.10 1.14 0.03
4 3 7 24.14 23.99 0.20
4 3 8 2.93 3.02 0.04
4 3 9 0.21 0.21 0.01
4 3 10 0.23 0.25 0.01
4 3 11 1.01 1.04 0.03
4 3 12 0.74 0.74 0.03
4 4 0 82.67 82.61 0.39
4 4 1 4.79 4.74 0.05
4 4 2 3.97 3.99 0.05
4 4 3 0.14 0.16 0.01
4 4 4 8.77 8.66 0.06
4 4 5 5.61 5.55 0.07
4 4 6 2.63 2.57 0.05
4 4 7 0.12 0.12 0.02
4 4 8 2.89 2.96 0.06
4 4 9 0.44 0.45 0.02
4 4 10 0.78 0.74 0.05
4 4 11 0.37 0.35 0.02
4 4 12 1.20 1.17 0.05
5 0 1 0.09 0.10 0.01
5 0 2 0.08 0.09 0.02
5 0 3 8.59 8.49 0.06
5 0 4 17.71 17.89 0.11
5 0 5 1.88 1.88 0.04
5 0 6 2.03 1.98 0.04
5 0 7 6.37 6.33 0.08
5 0 8 6.03 5.94 0.08
5 0 9 0.57 0.55 0.03
5 0 10 0.58 0.53 0.03
5 0 11 0.46 0.45 0.02
5 0 12 0.10 0.09 0.02
5 1 0 41.50 42.08 0.15
5 1 1 29.88 30.20 0.10
5 1 2 8.15 8.23 0.05
5 1 3 10.10 10.18 0.06
5 1 4 15.30 15.40 0.09
5 1 5 3.35 3.38 0.04
5 1 6 0.83 0.77 0.03
5 1 7 3.11 3.02 0.04
5 1 8 0.86 0.84 0.03
5 1 9 0.56 0.59 0.02
5 1 10 1.53 1.56 0.04
5 1 11 1.72 1.76 0.04
5 1 12 0.84 0.82 0.03
5 2 0 21.30 21.33 0.08
5 2 1 7.13 7.17 0.04
5 2 2 7.47 7.38 0.04
5 2 3 21.36 21.26 0.10
5 2 4 7.54 7.55 0.06
5 2 5 9.13 9.13 0.07
5 2 6 6.18 6.16 0.06
5 2 7 10.32 10.20 0.10
5 2 8 6.53 6.60 0.07
5 2 9 1.33 1.35 0.03
5 2 10 0.13 0.12 0.01
5 2 11 1.21 1.25 0.03
5 2 12 0.41 0.41 0.01
5 3 0 43.24 42.98 0.16
5 3 1 11.82 11.80 0.06
5 3 2 2.25 2.25 0.03
5 3 3 3.41 3.36 0.03
5 3 4 8.47 8.48 0.06
5 3 5 2.37 2.41 0.03
5 3 6 0.56 0.57 0.02
5 3 7 0.76 0.81 0.03
5 3 8 1.13 1.06 0.03
5 3 9 0.17 0.18 0.01
5 3 10 0.83 0.86 0.03
5 3 11 0.89 0.82 0.03
5 3 12 0.78 0.71 0.03
5 4 0 2.88 2.88 0.03
5 4 1 0.49 0.48 0.02
5 4 2 0.71 0.69 0.03
5 4 3 5.78 5.71 0.03
5 4 4 8.59 8.42 0.07
5 4 5 2.60 2.59 0.04
5 4 6 1.58 1.58 0.03
5 4 7 5.04 5.07 0.06
5 4 8 3.55 3.60 0.05
5 4 9 0.46 0.46 0.02
5 4 10 0.25 0.25 0.01
5 4 11 0.44 0.48 0.02
5 4 12 0.11 0.11 0.01
5 5 0 6.66 6.74 0.07
5 5 1 15.59 15.57 0.14
5 5 2 4.98 4.98 0.04
5 5 3 10.27 10.23 0.11
5 5 4 6.95 6.93 0.09
5 5 5 1.61 1.66 0.05
5 5 6 0.75 0.82 0.04
5 5 7 2.35 2.43 0.06
5 5 8 0.25 0.25 0.02
5 5 9 0.48 0.51 0.03
5 5 10 0.80 0.82 0.05
5 5 11 1.41 1.40 0.05
6 0 0 59.81 61.25 0.41
6 0 1 4.44 4.45 0.04
6 0 2 2.58 2.55 0.03
6 0 3 0.23 0.23 0.01
6 0 4 7.66 7.73 0.07
6 0 5 4.46 4.37 0.05
6 0 6 1.97 1.95 0.04
6 0 7 0.08 0.03 0.33
6 0 8 2.31 2.35 0.05
6 0 9 0.28 0.27 0.01
6 0 10 0.69 0.74 0.04
6 0 11 0.39 0.44 0.02
6 0 12 1.01 1.01 0.03
6 1 0 5.18 5.30 0.04
6 1 1 5.65 5.66 0.04
6 1 2 4.63 4.68 0.04
6 1 3 10.43 10.48 0.07
6 1 4 2.89 2.91 0.04
6 1 5 6.39 6.43 0.06
6 1 6 1.92 1.91 0.03
6 1 7 11.00 10.86 0.11
6 1 8 3.29 3.29 0.05
6 1 9 0.38 0.38 0.02
6 1 10 0.01 -0.01 0.28
6 1 11 0.71 0.73 0.03
6 1 12 0.33 0.32 0.01
6 2 0 22.99 23.36 0.11
6 2 1 13.60 13.70 0.08
6 2 2 2.82 2.84 0.03
6 2 3 6.16 6.18 0.04
6 2 4 7.60 7.54 0.06
6 2 5 1.55 1.54 0.03
6 2 6 0.32 0.31 0.01
6 2 7 1.31 1.29 0.03
6 2 8 0.57 0.61 0.02
6 2 9 0.25 0.25 0.01
6 2 10 0.84 0.84 0.03
6 2 11 1.13 1.17 0.03
6 2 12 0.53 0.55 0.03
6 3 0 0.01 0.04 0.23
6 3 1 0.88 0.89 0.03
6 3 2 0.85 0.92 0.03
6 3 3 2.97 2.87 0.04
6 3 4 15.20 15.13 0.11
6 3 5 0.34 0.33 0.01
6 3 6 1.77 1.75 0.04
6 3 7 1.77 1.78 0.03
6 3 8 4.25 4.32 0.06
6 3 9 0.60 0.60 0.02
6 3 10 0.80 0.78 0.03
6 3 11 0.22 0.23 0.01
6 4 0 2.48 2.46 0.03
6 4 1 13.58 13.42 0.06
6 4 2 2.62 2.62 0.03
6 4 3 14.67 14.72 0.10
6 4 4 3.46 3.43 0.04
6 4 5 0.92 0.87 0.03
6 4 6 1.33 1.30 0.03
6 4 7 0.91 0.92 0.03
6 4 8 0.17 0.16 0.01
6 4 9 0.61 0.63 0.03
6 4 10 0.40 0.40 0.02
6 4 11 1.75 1.71 0.04
6 5 0 4.18 4.15 0.04
6 5 1 0.86 0.86 0.03
6 5 2 1.60 1.56 0.03
6 5 3 4.04 4.02 0.05
6 5 4 9.42 9.28 0.08
6 5 5 1.54 1.53 0.03
6 5 6 2.10 2.09 0.04
6 5 7 1.22 1.27 0.03
6 5 8 2.99 3.12 0.05
6 5 9 0.72 0.76 0.03
6 5 10 0.50 0.49 0.02
6 5 11 0.30 0.28 0.01
6 6 0 8.86 8.47 0.10
6 6 1 2.80 2.72 0.05
6 6 2 0.44 0.43 0.03
6 6 3 1.86 1.76 0.05
6 6 4 1.94 1.93 0.05
6 6 5 0.29 0.29 0.02
6 6 6 0.06 0.04 0.23
6 6 7 0.14 0.16 0.02
6 6 8 0.21 0.23 0.02
6 6 9 0.00 0.05 0.39
6 6 10 0.19 0.20 0.02
6 6 11 0.40 0.37 0.03
7 0 1 8.18 8.49 0.07
7 0 2 5.09 5.11 0.04
7 0 3 5.24 5.24 0.05
7 0 4 0.19 0.18 0.01
7 0 5 6.22 6.26 0.07
7 0 6 0.05 0.05 0.31
7 0 7 11.83 11.92 0.14
7 0 8 1.15 1.23 0.04
7 0 9 0.01 0.05 0.32
7 0 10 0.09 0.09 0.02
7 0 11 0.51 0.48 0.03
7 1 0 30.63 31.34 0.18
7 1 1 3.14 3.17 0.04
7 1 2 1.43 1.44 0.02
7 1 3 0.58 0.61 0.02
7 1 4 4.55 4.59 0.05
7 1 5 2.00 2.05 0.03
7 1 6 0.96 1.01 0.03
7 1 7 0.06 0.08 0.02
7 1 8 1.20 1.23 0.03
7 1 9 0.11 0.10 0.01
7 1 10 0.41 0.41 0.02
7 1 11 0.35 0.36 0.01
7 2 0 0.26 0.28 0.01
7 2 1 0.02 0.01 0.17
7 2 2 0.14 0.17 0.01
7 2 3 2.71 2.71 0.04
7 2 4 8.26 8.30 0.07
7 2 5 0.85 0.87 0.03
7 2 6 0.99 0.95 0.03
7 2 7 2.52 2.59 0.04
7 2 8 2.84 2.93 0.05
7 2 9 0.30 0.28 0.01
7 2 10 0.36 0.39 0.01
7 2 11 0.22 0.22 0.01
7 3 0 1.37 1.37 0.03
7 3 1 10.71 10.67 0.08
7 3 2 1.43 1.44 0.03
7 3 3 14.00 13.96 0.11
7 3 4 1.85 1.83 0.03
7 3 5 0.66 0.65 0.03
7 3 6 1.40 1.35 0.03
7 3 7 0.30 0.32 0.01
7 3 8 0.17 0.18 0.01
7 3 9 0.61 0.58 0.03
7 3 10 0.24 0.27 0.01
7 3 11 1.62 1.62 0.03
7 4 0 1.02 0.99 0.03
7 4 1 1.32 1.34 0.03
7 4 2 1.81 1.81 0.03
7 4 3 1.71 1.69 0.03
7 4 4 11.63 11.53 0.10
7 4 5 0.36 0.34 0.01
7 4 6 1.45 1.46 0.03
7 4 7 0.45 0.45 0.02
7 4 8 2.96 3.03 0.05
7 4 9 0.56 0.55 0.03
7 4 10 0.77 0.78 0.03
7 4 11 0.12 0.14 0.01
7 5 0 5.93 5.80 0.06
7 5 1 3.19 3.16 0.04
7 5 2 0.05 0.10 0.03
7 5 3 2.91 2.85 0.04
7 5 4 1.44 1.42 0.03
7 5 5 0.05 0.08 0.02
7 5 6 0.00 0.01 0.20
7 5 7 0.02 0.01 0.29
7 5 8 0.08 0.09 0.02
7 5 9 0.03 0.04 0.28
7 5 10 0.16 0.16 0.01
7 5 11 0.50 0.48 0.02
7 6 0 0.55 0.52 0.02
7 6 1 2.22 2.20 0.04
7 6 2 1.05 1.09 0.03
7 6 3 2.14 2.14 0.04
7 6 4 0.36 0.36 0.01
7 6 5 1.85 1.86 0.04
7 6 6 0.34 0.32 0.01
7 6 7 3.44 3.54 0.05
7 6 8 0.70 0.71 0.03
7 6 9 0.03 -0.01 0.29
7 6 10 0.00 -0.03 0.27
7 7 1 1.24 1.28 0.05
7 7 2 1.36 1.38 0.05
7 7 3 0.02 0.00 0.39
7 7 4 2.04 1.92 0.06
7 7 5 1.11 1.10 0.05
7 7 6 0.84 0.88 0.05
7 7 7 0.24 0.29 0.02
7 7 8 0.67 0.70 0.04
7 7 9 0.16 0.17 0.02
7 7 10 0.20 0.21 0.02
8 0 0 16.82 17.12 0.14
8 0 1 2.30 2.27 0.04
8 0 2 0.73 0.82 0.03
8 0 3 0.76 0.80 0.03
8 0 4 2.82 2.73 0.05
8 0 5 0.91 0.90 0.03
8 0 6 0.46 0.51 0.02
8 0 7 0.04 0.06 0.33
8 0 8 0.62 0.66 0.03
8 0 9 0.04 0.01 0.33
8 0 10 0.24 0.25 0.01
8 0 11 0.30 0.29 0.01
8 1 0 1.46 1.49 0.03
8 1 1 0.96 0.97 0.03
8 1 2 0.59 0.62 0.02
8 1 3 3.16 3.16 0.04
8 1 4 2.84 2.91 0.04
8 1 5 1.92 1.97 0.04
8 1 6 0.80 0.78 0.03
8 1 7 3.46 3.51 0.05
8 1 8 1.62 1.65 0.04
8 1 9 0.20 0.22 0.01
8 1 10 0.06 0.02 0.28
8 1 11 0.29 0.28 0.01
8 2 0 4.74 4.66 0.05
8 2 1 6.53 6.53 0.06
8 2 2 1.53 1.55 0.03
8 2 3 5.08 5.11 0.05
8 2 4 3.02 3.05 0.04
8 2 5 0.56 0.56 0.02
8 2 6 0.23 0.26 0.01
8 2 7 0.79 0.83 0.03
8 2 8 0.11 0.12 0.01
8 2 9 0.19 0.19 0.01
8 2 10 0.36 0.39 0.02
8 2 11 0.76 0.79 0.03
8 3 0 1.16 1.12 0.03
8 3 1 0.39 0.39 0.01
8 3 2 0.86 0.87 0.03
8 3 3 1.80 1.83 0.03
8 3 4 6.98 7.00 0.07
8 3 5 0.52 0.52 0.02
8 3 6 1.04 1.09 0.03
8 3 7 0.77 0.81 0.03
8 3 8 2.10 2.08 0.04
8 3 9 0.36 0.37 0.02
8 3 10 0.42 0.40 0.02
8 3 11 0.14 0.14 0.01
8 4 0 4.17 4.14 0.05
8 4 1 2.99 2.92 0.04
8 4 2 0.01 0.03 0.26
8 4 3 2.99 2.94 0.04
8 4 4 1.14 1.12 0.03
8 4 5 0.02 0.02 0.28
8 4 6 0.02 0.09 0.03
8 4 7 0.01 0.03 0.16
8 4 8 0.05 0.05 0.02
8 4 9 0.06 0.05 0.20
8 4 10 0.14 0.17 0.01
8 5 0 1.00 0.98 0.03
8 5 1 1.31 1.34 0.03
8 5 2 0.69 0.72 0.03
8 5 3 2.22 2.20 0.04
8 5 4 0.79 0.79 0.03
8 5 5 1.31 1.33 0.03
8 5 6 0.57 0.60 0.03
8 5 7 2.35 2.35 0.04
8 5 8 0.88 0.88 0.03
8 5 9 0.09 0.09 0.02
8 5 10 0.01 0.02 0.26
8 6 0 8.13 8.38 0.09
8 6 1 1.56 1.49 0.04
8 6 2 1.24 1.19 0.03
8 6 3 0.04 0.02 0.28
8 6 4 2.00 1.97 0.04
8 6 5 0.93 1.01 0.03
8 6 6 0.59 0.59 0.03
8 6 7 0.31 0.31 0.02
8 6 8 0.54 0.56 0.02
8 6 9 0.12 0.13 0.01
8 6 10 0.22 0.24 0.02
8 7 0 0.11 0.14 0.02
8 7 1 0.65 0.56 0.03
8 7 2 0.22 0.22 0.01
8 7 3 0.76 0.78 0.03
8 7 4 0.36 0.35 0.02
8 7 5 0.62 0.65 0.03
8 7 6 0.13 0.15 0.02
8 7 7 1.28 1.25 0.04
8 7 8 0.35 0.36 0.01
8 7 9 0.01 0.00 0.27
8 8 0 0.91 0.89 0.05
8 8 1 0.85 0.87 0.04
8 8 2 0.13 0.16 0.02
8 8 3 0.95 0.96 0.05
8 8 4 0.36 0.35 0.02
8 8 5 0.04 0.01 0.41
8 8 6 0.01 0.00 0.41
8 8 7 0.07 0.03 0.41
8 8 8 0.01 0.01 0.39
9 0 1 0.00 -0.02 0.30
9 0 2 0.10 0.09 0.02
9 0 3 1.05 1.01 0.04
9 0 4 3.82 3.86 0.06
9 0 5 0.35 0.35 0.02
9 0 6 0.44 0.45 0.02
9 0 7 1.12 1.14 0.04
9 0 8 1.31 1.33 0.04
9 0 9 0.13 0.12 0.02
9 0 10 0.19 0.19 0.01
9 1 0 3.53 3.58 0.04
9 1 1 3.63 3.61 0.04
9 1 2 0.61 0.64 0.02
9 1 3 3.09 3.11 0.04
9 1 4 1.67 1.66 0.04
9 1 5 0.25 0.26 0.01
9 1 6 0.08 0.05 0.20
9 1 7 0.32 0.32 0.01
9 1 8 0.07 0.03 0.29
9 1 9 0.09 0.07 0.01
9 1 10 0.20 0.20 0.01
9 2 0 1.36 1.39 0.03
9 2 1 0.23 0.23 0.01
9 2 2 0.41 0.41 0.01
9 2 3 1.89 1.90 0.04
9 2 4 3.08 3.11 0.04
9 2 5 0.82 0.79 0.03
9 2 6 0.77 0.83 0.03
9 2 7 1.18 1.18 0.03
9 2 8 1.26 1.24 0.04
9 2 9 0.23 0.22 0.01
9 2 10 0.14 0.11 0.01
9 3 0 5.07 5.24 0.06
9 3 1 1.61 1.62 0.03
9 3 2 0.19 0.19 0.01
9 3 3 1.16 1.13 0.03
9 3 4 1.10 1.05 0.03
9 3 5 0.14 0.12 0.01
9 3 6 0.04 0.04 0.20
9 3 7 0.05 0.03 0.20
9 3 8 0.13 0.13 0.01
9 3 9 0.00 0.02 0.28
9 3 10 0.11 0.09 0.02
9 4 0 0.42 0.42 0.02
9 4 1 1.08 1.06 0.03
9 4 2 0.45 0.48 0.02
9 4 3 1.43 1.39 0.03
9 4 4 0.53 0.54 0.02
9 4 5 1.05 1.03 0.03
9 4 6 0.28 0.29 0.01
9 4 7 2.02 2.03 0.04
9 4 8 0.59 0.62 0.03
9 4 9 0.04 0.05 0.28
9 4 10 0.00 -0.03 0.27
9 5 0 5.99 6.26 0.07
9 5 1 1.39 1.35 0.03
9 5 2 0.93 0.98 0.03
9 5 3 0.10 0.06 0.02
9 5 4 1.59 1.59 0.04
9 5 5 0.66 0.65 0.03
9 5 6 0.37 0.38 0.01
9 5 7 0.27 0.28 0.01
9 5 8 0.39 0.38 0.02
9 5 9 0.08 0.05 0.20
9 6 0 0.17 0.18 0.01
9 6 1 0.42 0.42 0.02
9 6 2 0.15 0.15 0.01
9 6 3 0.72 0.77 0.03
9 6 4 0.49 0.50 0.02
9 6 5 0.45 0.45 0.02
9 6 6 0.17 0.16 0.01
9 6 7 0.96 0.94 0.03
9 6 8 0.38 0.40 0.01
9 6 9 0.02 0.03 0.27
9 7 0 0.76 0.81 0.03
9 7 1 0.83 0.90 0.03
9 7 2 0.09 0.05 0.20
9 7 3 1.00 0.98 0.03
9 7 4 0.29 0.30 0.01
9 7 5 0.02 -0.04 0.29
9 7 6 0.01 0.04 0.28
9 7 7 0.04 0.03 0.28
9 7 8 0.00 0.01 0.27
9 8 0 0.53 0.58 0.02
9 8 1 0.17 0.17 0.01
9 8 2 0.38 0.40 0.02
9 8 3 0.41 0.38 0.02
9 8 4 1.37 1.41 0.04
9 8 5 0.19 0.20 0.01
9 8 6 0.28 0.29 0.01
9 8 7 0.04 0.03 0.20
9 8 8 0.38 0.37 0.02
9 9 0 0.12 0.11 0.02
9 9 1 0.56 0.66 0.04
9 9 2 0.17 0.16 0.02
9 9 3 0.71 0.79 0.04
9 9 4 0.20 0.22 0.02
9 9 5 0.08 0.06 0.40
9 9 6 0.04 0.06 0.22
9 9 7 0.08 0.07 0.38
10 0 0 0.95 0.93 0.04
10 0 1 2.30 2.25 0.04
10 0 2 0.06 0.05 0.32
10 0 3 3.20 3.11 0.05
10 0 4 0.45 0.47 0.02
10 0 5 0.05 0.07 0.33
10 0 6 0.17 0.19 0.01
10 0 7 0.00 0.00 0.33
10 0 8 0.00 0.04 0.32
10 0 9 0.13 0.10 0.02
10 0 10 0.07 0.09 0.51
10 1 0 0.10 0.10 0.01
10 1 1 0.03 0.02 0.27
10 1 2 0.20 0.20 0.01
10 1 3 0.60 0.61 0.02
10 1 4 2.68 2.70 0.04
10 1 5 0.15 0.13 0.01
10 1 6 0.32 0.33 0.01
10 1 7 0.49 0.50 0.02
10 1 8 0.87 0.89 0.03
10 1 9 0.10 0.07 0.02
10 1 10 0.16 0.18 0.02
10 2 0 3.30 3.35 0.05
10 2 1 1.08 1.06 0.03
10 2 2 0.10 0.09 0.03
10 2 3 0.83 0.85 0.03
10 2 4 0.72 0.77 0.03
10 2 5 0.07 0.06 0.02
10 2 6 0.02 0.01 0.28
10 2 7 0.02 0.02 0.28
10 2 8 0.08 0.09 0.01
10 2 9 0.00 -0.02 0.28
10 2 10 0.07 0.04 0.37
10 3 0 0.07 0.07 0.02
10 3 1 0.87 0.87 0.03
10 3 2 0.30 0.32 0.01
10 3 3 0.79 0.85 0.03
10 3 4 0.29 0.31 0.01
10 3 5 0.82 0.78 0.03
10 3 6 0.09 0.11 0.02
10 3 7 1.61 1.54 0.04
10 3 8 0.32 0.29 0.01
10 3 9 0.00 0.05 0.27
10 4 0 4.87 5.06 0.07
10 4 1 0.63 0.61 0.02
10 4 2 0.52 0.50 0.02
10 4 3 0.04 0.03 0.28
10 4 4 0.96 1.00 0.03
10 4 5 0.41 0.40 0.02
10 4 6 0.32 0.31 0.01
10 4 7 0.08 0.08 0.02
10 4 8 0.29 0.26 0.01
10 4 9 0.05 -0.02 0.19
10 5 0 0.07 0.06 0.02
10 5 1 0.33 0.34 0.01
10 5 2 0.09 0.10 0.02
10 5 3 0.50 0.48 0.02
10 5 4 0.38 0.38 0.02
10 5 5 0.37 0.36 0.02
10 5 6 0.10 0.09 0.02
10 5 7 0.79 0.78 0.03
10 5 8 0.28 0.27 0.01
10 5 9 0.01 0.00 0.26
10 6 0 0.63 0.59 0.02
10 6 1 0.70 0.70 0.03
10 6 2 0.05 0.03 0.20
10 6 3 0.86 0.86 0.03
10 6 4 0.23 0.23 0.01
10 6 5 0.01 -0.01 0.29
10 6 6 0.01 0.00 0.29
10 6 7 0.03 0.03 0.20
10 6 8 0.00 0.00 0.27
10 7 0 0.37 0.37 0.02
10 7 1 0.14 0.13 0.02
10 7 2 0.32 0.32 0.01
10 7 3 0.30 0.32 0.01
10 7 4 1.23 1.27 0.04
10 7 5 0.14 0.14 0.01
10 7 6 0.21 0.19 0.01
10 7 7 0.04 0.02 0.20
10 7 8 0.34 0.34 0.01
10 8 0 0.11 0.10 0.02
10 8 1 0.52 0.51 0.02
10 8 2 0.14 0.16 0.01
10 8 3 0.68 0.74 0.03
10 8 4 0.17 0.17 0.01
10 8 5 0.06 0.03 0.20
10 8 6 0.04 0.05 0.19
10 8 7 0.07 0.05 0.01
10 9 0 0.00 0.01 0.20
10 9 1 0.02 0.04 0.28
10 9 2 0.00 0.00 0.28
10 9 3 0.07 0.07 0.02
10 9 4 0.16 0.18 0.01
10 9 5 0.05 0.02 0.28
10 9 6 0.02 0.03 0.19
10 10 0 0.56 0.59 0.04
10 10 1 0.10 0.12 0.02
10 10 2 0.09 0.07 0.40
10 10 3 0.00 -0.02 0.40
10 10 4 0.13 0.13 0.02
10 10 5 0.05 0.06 0.38
11 0 1 0.01 0.00 0.33
11 0 2 0.12 0.08 0.02
11 0 3 0.31 0.33 0.02
11 0 4 1.58 1.54 0.04
11 0 5 0.06 0.02 0.33
11 0 6 0.16 0.14 0.02
11 0 7 0.27 0.27 0.01
11 0 8 0.53 0.50 0.03
11 0 9 0.04 -0.01 0.31
11 1 0 1.26 1.32 0.03
11 1 1 0.91 0.92 0.03
11 1 2 0.02 0.03 0.20
11 1 3 0.96 0.96 0.03
11 1 4 0.36 0.38 0.01
11 1 5 0.01 0.02 0.28
11 1 6 0.01 0.03 0.28
11 1 7 0.01 0.04 0.28
11 1 8 0.02 0.04 0.28
11 1 9 0.03 0.05 0.26
11 2 0 0.12 0.12 0.02
11 2 1 0.27 0.24 0.01
11 2 2 0.08 0.03 0.20
11 2 3 0.50 0.51 0.02
11 2 4 0.45 0.42 0.02
11 2 5 0.36 0.37 0.01
11 2 6 0.11 0.10 0.02
11 2 7 0.74 0.74 0.03
11 2 8 0.29 0.28 0.01
11 2 9 0.02 0.04 0.26
11 3 0 2.82 2.78 0.05
11 3 1 0.42 0.44 0.02
11 3 2 0.25 0.23 0.01
11 3 3 0.08 0.09 0.02
11 3 4 0.57 0.54 0.03
11 3 5 0.19 0.18 0.01
11 3 6 0.15 0.15 0.01
11 3 7 0.04 0.03 0.28
11 3 8 0.15 0.12 0.01
11 4 0 0.01 0.02 0.28
11 4 1 0.24 0.23 0.01
11 4 2 0.05 0.04 0.17
11 4 3 0.30 0.32 0.01
11 4 4 0.26 0.27 0.01
11 4 5 0.28 0.26 0.01
11 4 6 0.05 0.05 0.20
11 4 7 0.60 0.54 0.03
11 4 8 0.17 0.15 0.01
11 5 0 0.62 0.63 0.03
11 5 1 0.48 0.52 0.02
11 5 2 0.05 0.08 0.28
11 5 3 0.53 0.52 0.02
11 5 4 0.21 0.22 0.01
11 5 5 0.01 -0.01 0.29
11 5 6 0.00 0.04 0.28
11 5 7 0.03 0.05 0.27
11 5 8 0.01 -0.02 0.26
11 6 0 0.26 0.25 0.01
11 6 1 0.07 0.09 0.01
11 6 2 0.20 0.21 0.01
11 6 3 0.23 0.24 0.01
11 6 4 0.87 0.88 0.03
11 6 5 0.10 0.10 0.02
11 6 6 0.15 0.16 0.01
11 6 7 0.05 0.04 0.19
11 7 0 0.11 0.12 0.02
11 7 1 0.41 0.41 0.02
11 7 2 0.10 0.09 0.01
11 7 3 0.54 0.52 0.03
11 7 4 0.13 0.13 0.01
11 7 5 0.04 0.08 0.02
11 7 6 0.03 0.06 0.27
11 7 7 0.05 0.06 0.26
11 8 0 0.00 0.00 0.28
11 8 1 0.02 -0.01 0.29
11 8 2 0.00 -0.02 0.29
11 8 3 0.06 0.07 0.02
11 8 4 0.15 0.16 0.01
11 8 5 0.04 0.06 0.19
11 8 6 0.02 0.03 0.26
11 9 0 0.51 0.53 0.02
11 9 1 0.10 0.10 0.01
11 9 2 0.08 0.06 0.02
11 9 3 0.00 -0.02 0.28
11 9 4 0.12 0.13 0.02
11 9 5 0.05 0.05 0.19
11 10 0 0.06 0.05 0.28
11 10 1 0.13 0.11 0.01
11 10 2 0.06 0.06 0.02
11 10 3 0.10 0.08 0.02
12 0 0 0.99 0.99 0.04
12 0 1 0.38 0.37 0.02
12 0 2 0.02 0.00 0.22
12 0 3 0.34 0.34 0.02
12 0 4 0.22 0.20 0.01
12 0 5 0.01 0.01 0.33
12 0 6 0.01 0.04 0.32
12 0 7 0.00 0.03 0.31
12 0 8 0.02 0.05 0.31
12 1 0 0.07 0.05 0.29
12 1 1 0.09 0.08 0.02
12 1 2 0.02 0.05 0.28
12 1 3 0.27 0.28 0.01
12 1 4 0.37 0.37 0.02
12 1 5 0.16 0.16 0.01
12 1 6 0.07 0.01 0.29
12 1 7 0.35 0.36 0.02
12 1 8 0.19 0.19 0.01
12 2 0 1.20 1.16 0.03
12 2 1 0.36 0.36 0.01
12 2 2 0.11 0.12 0.02
12 2 3 0.18 0.17 0.01
12 2 4 0.30 0.29 0.01
12 2 5 0.06 0.01 0.29
12 2 6 0.03 0.00 0.28
12 2 7 0.03 0.05 0.28
12 2 8 0.05 0.06 0.01
12 3 0 0.01 0.03 0.28
12 3 1 0.09 0.09 0.01
12 3 2 0.01 0.03 0.20
12 3 3 0.19 0.18 0.01
12 3 4 0.27 0.27 0.01
12 3 5 0.13 0.14 0.02
12 3 6 0.05 0.07 0.02
12 3 7 0.30 0.29 0.01
12 4 0 0.45 0.47 0.02
12 4 1 0.31 0.29 0.01
12 4 2 0.03 0.01 0.29
12 4 3 0.35 0.32 0.01
12 4 4 0.14 0.14 0.01
12 4 5 0.01 0.00 0.28
12 4 6 0.00 -0.01 0.28
12 4 7 0.01 0.03 0.27
12 5 0 0.15 0.12 0.02
12 5 1 0.03 0.02 0.29
12 5 2 0.10 0.10 0.02
12 5 3 0.15 0.13 0.01
12 5 4 0.53 0.55 0.02
12 5 5 0.06 0.06 0.28
12 5 6 0.09 0.08 0.28
12 5 7 0.06 0.03 0.26
12 6 0 0.13 0.15 0.01
12 6 1 0.27 0.27 0.01
12 6 2 0.06 0.05 0.21
12 6 3 0.34 0.38 0.02
12 6 4 0.10 0.08 0.02
12 6 5 0.02 0.03 0.20
12 6 6 0.01 0.01 0.27
12 7 0 0.00 -0.01 0.28
12 7 1 0.02 0.01 0.20
12 7 2 0.00 0.00 0.28
12 7 3 0.05 0.06 0.01
12 7 4 0.12 0.13 0.01
12 7 5 0.04 0.00 0.19
12 8 0 0.41 0.43 0.02
12 8 1 0.08 0.06 0.02
12 8 2 0.06 0.09 0.02
12 8 3 0.00 0.00 0.27
12 8 4 0.10 0.10 0.02
12 9 0 0.05 0.05 0.28
12 9 1 0.11 0.06 0.02
12 9 2 0.05 0.00 0.28
12 9 3 0.08 0.07 0.02
13 0 1 0.09 0.08 0.02
13 0 2 0.01 0.03 0.21
13 0 3 0.11 0.12 0.02
13 0 4 0.12 0.11 0.01
13 0 5 0.12 0.09 0.02
13 0 6 0.02 0.00 0.32
13 0 7 0.25 0.20 0.01
13 1 0 0.68 0.67 0.03
13 1 1 0.15 0.15 0.01
13 1 2 0.04 0.00 0.29
13 1 3 0.09 0.10 0.01
13 1 4 0.14 0.13 0.01
13 1 5 0.02 0.01 0.20
13 1 6 0.02 0.01 0.19
13 1 7 0.00 0.03 0.26
13 2 0 0.01 0.01 0.28
13 2 1 0.03 0.02 0.28
13 2 2 0.00 0.00 0.28
13 2 3 0.10 0.09 0.02
13 2 4 0.19 0.16 0.01
13 2 5 0.06 0.02 0.29
13 2 6 0.03 0.05 0.27
13 3 0 0.25 0.24 0.01
13 3 1 0.20 0.19 0.01
13 3 2 0.00 0.00 0.29
13 3 3 0.24 0.22 0.01
13 3 4 0.07 0.05 0.29
13 3 5 0.00 0.01 0.28
13 3 6 0.00 0.01 0.27
13 4 0 0.05 0.02 0.20
13 4 1 0.01 0.03 0.28
13 4 2 0.05 0.04 0.28
13 4 3 0.07 0.07 0.02
13 4 4 0.31 0.30 0.01
13 4 5 0.03 -0.03 0.32
13 4 6 0.04 0.05 0.19
13 5 0 0.12 0.13 0.01
13 5 1 0.16 0.17 0.01
13 5 2 0.02 -0.01 0.28
13 5 3 0.20 0.18 0.01
13 5 4 0.06 0.00 0.28
13 5 5 0.01 0.04 0.26
13 6 0 0.00 0.01 0.28
13 6 1 0.02 0.01 0.28
13 6 2 0.00 0.00 0.28
13 6 3 0.04 0.06 0.27
13 6 4 0.08 0.08 0.02
13 6 5 0.03 -0.01 0.27
13 7 0 0.29 0.26 0.01
13 7 1 0.05 0.05 0.02
13 7 2 0.04 0.02 0.16
13 7 3 0.01 0.00 0.19
13 7 4 0.07 0.04 0.27
13 8 0 0.03 0.01 0.27
13 8 1 0.07 0.06 0.02
13 8 2 0.03 0.05 0.26
14 0 0 0.36 0.33 0.02
14 0 1 0.07 0.01 0.33
14 0 2 0.02 0.01 0.21
14 0 3 0.04 -0.01 0.33
14 0 4 0.07 0.08 0.02
14 0 5 0.01 0.00 0.31
14 1 0 0.00 0.01 0.28
14 1 1 0.03 0.03 0.28
14 1 2 0.00 -0.05 0.29
14 1 3 0.05 0.02 0.28
14 1 4 0.08 0.06 0.28
14 1 5 0.05 0.02 0.27
14 2 0 0.18 0.17 0.01
14 2 1 0.10 0.10 0.02
14 2 2 0.00 -0.01 0.28
14 2 3 0.11 0.09 0.02
14 2 4 0.05 0.04 0.27
14 2 5 0.00 -0.02 0.27
14 3 0 0.01 0.01 0.28
14 3 1 0.00 0.00 0.28
14 3 2 0.02 0.02 0.28
14 3 3 0.04 0.04 0.28
14 3 4 0.16 0.11 0.02
14 3 5 0.01 -0.02 0.26
14 4 0 0.09 0.07 0.01
14 4 1 0.09 0.07 0.02
14 4 2 0.01 -0.01 0.28
14 4 3 0.11 0.11 0.02
14 4 4 0.03 -0.01 0.19
14 5 0 0.00 -0.03 0.28
14 5 1 0.01 -0.02 0.20
14 5 2 0.00 0.00 0.27
14 5 3 0.02 0.04 0.27
14 6 0 0.18 0.17 0.01
14 6 1 0.03 -0.01 0.19
14 6 2 0.02 0.00 0.27
15 0 1 0.01 -0.01 0.32
15 0 2 0.00 -0.04 0.32
15 0 3 0.02 0.04 0.30
15 1 0 0.11 0.08 0.28
15 1 1 0.04 0.03 0.19
15 1 2 0.00 0.03 0.26
15 1 3 0.04 0.03 0.19
15 2 0 0.01 0.02 0.27
15 2 1 0.00 0.00 0.27
15 2 2 0.00 -0.01 0.27
15 3 0 0.06 0.06 0.27
15 3 1 0.04 -0.02 0.27
15 3 2 0.00 0.01 0.26
15 4 0 0.00 0.01 0.19
loop_
_atom_site_anharm_gc_c_label
_atom_site_anharm_gc_c_111
_atom_site_anharm_gc_c_222
_atom_site_anharm_gc_c_333
_atom_site_anharm_gc_c_112
_atom_site_anharm_gc_c_122
_atom_site_anharm_gc_c_113
_atom_site_anharm_gc_c_133
_atom_site_anharm_gc_c_223
_atom_site_anharm_gc_c_233
_atom_site_anharm_gc_c_123
O 0.0 0.0 -0.00000016(9) 0.0 0.0 -0.00000033(5) 0.0 -0.00000033(5) 0.0
0.00000007(13)
N -0.00000141(14) -0.00000141(14) 0.00000044(11) 0.00000045(6) 0.00000045(6)
0.00000141(8) 0.00000001(5) 0.00000141(8) 0.00000001(5) -0.00000144(13)
loop_
_atom_site_anharm_gc_d_label
_atom_site_anharm_gc_d_1111
_atom_site_anharm_gc_d_2222
_atom_site_anharm_gc_d_3333
_atom_site_anharm_gc_d_1112
_atom_site_anharm_gc_d_1222
_atom_site_anharm_gc_d_1113
_atom_site_anharm_gc_d_1333
_atom_site_anharm_gc_d_2223
_atom_site_anharm_gc_d_2333
_atom_site_anharm_gc_d_1122
_atom_site_anharm_gc_d_1133
_atom_site_anharm_gc_d_2233
_atom_site_anharm_gc_d_1123
_atom_site_anharm_gc_d_1223
_atom_site_anharm_gc_d_1233
O 0.000000031(8) 0.000000031(8) 0.000000023(9) 0.000000007(6) 0.000000007(6) 0.0
0.0 0.0 0.0 -0.000000002(5) 0.000000002(3) 0.000000002(3) 0.0 0.0
-0.000000004(5)
N -0.000000021(12) -0.000000021(12) -0.000000025(10) 0.000000072(9)
0.000000072(9) -0.000000003(7) -0.000000001(4) -0.000000003(7) -0.000000001(4)
-0.000000081(10) 0.000000008(4) 0.000000008(4) 0.000000006(3) 0.000000006(3)
-0.000000001(5)
