#------------------------------------------------------------------------------
#$Date: 2022-03-02 05:20:08 +0200 (Wed, 02 Mar 2022) $
#$Revision: 273207 $
#$URL: file:///home/coder/svn-repositories/cod/cif/1/56/64/1566434.cif $
#------------------------------------------------------------------------------
#
# This file is available in the Crystallography Open Database (COD),
# http://www.crystallography.net/. The original data for this entry
# were provided by IUCr Journals, http://journals.iucr.org/.
#
# The file may be used within the scientific community so long as
# proper attribution is given to the journal article from which the
# data were obtained.
#
data_1566434
loop_
_publ_author_name
'Ruth, Paul Niklas'
'Herbst-Irmer, Regine'
'Stalke, Dietmar'
_publ_section_title
;
 Hirshfeld atom refinement based on projector augmented wave densities
 with periodic boundary conditions
;
_journal_issue                   2
_journal_name_full               IUCrJ
_journal_page_first              286
_journal_page_last               297
_journal_paper_doi               10.1107/S2052252522001385
_journal_volume                  9
_journal_year                    2022
_chemical_absolute_configuration syn
_chemical_formula_moiety         'C3 H7 N O2'
_chemical_formula_sum            'C3 H7 N O2'
_chemical_formula_weight         89.0947
_space_group_crystal_system      orthorhombic
_space_group_IT_number           19
_space_group_name_Hall           'P 2ac 2ab'
_space_group_name_H-M_alt        'P 21 21 21'
_atom_sites_solution_hydrogens   difmap
_audit_creation_method           'xHARPY 0.1'
_cell_angle_alpha                90
_cell_angle_beta                 90
_cell_angle_gamma                90
_cell_formula_units_Z            4
_cell_length_a                   5.9279(10)
_cell_length_b                   12.2597(17)
_cell_length_c                   5.7939(9)
_cell_measurement_reflns_used    1524
_cell_measurement_temperature    23
_cell_measurement_theta_max      22.5
_cell_measurement_theta_min      15.0
_cell_volume                     421.07(11)
_computing_publication_material  'xHARPY 0.1'
_computing_structure_refinement  'xHARPY 0.1'
_computing_structure_solution    'SHELXS-2013 (Sheldrick, 2008)'
_diffrn_ambient_temperature      23
_diffrn_measured_fraction_theta_full 0.994
_diffrn_measured_fraction_theta_max 0.993
_diffrn_measurement_device_type  'P-1 four circle diffractometer'
_diffrn_measurement_method       'area detector'
_diffrn_radiation_type           MoK\a
_diffrn_radiation_wavelength     0.71073
_diffrn_reflns_av_unetI/netI     0.0243
_diffrn_reflns_Laue_measured_fraction_full 0.994
_diffrn_reflns_Laue_measured_fraction_max 0.993
_diffrn_reflns_limit_h_max       12
_diffrn_reflns_limit_h_min       0
_diffrn_reflns_limit_k_max       26
_diffrn_reflns_limit_k_min       0
_diffrn_reflns_limit_l_max       12
_diffrn_reflns_limit_l_min       0
_diffrn_reflns_number            2519
_diffrn_reflns_point_group_measured_fraction_full 0.618
_diffrn_reflns_point_group_measured_fraction_max 0.567
_diffrn_reflns_theta_full        25.242
_diffrn_reflns_theta_max         50.138
_diffrn_reflns_theta_min         3.323
_exptl_absorpt_coefficient_mu    0.117
_exptl_absorpt_correction_type   none
_exptl_crystal_colour            colorless
_exptl_crystal_density_diffrn    1.405
_exptl_crystal_density_method    'not measured'
_exptl_crystal_description       sphere
_exptl_crystal_F_000             192
_exptl_crystal_size_rad          0.18
_refine_diff_density_max         0.1700
_refine_diff_density_min         -0.1874
_refine_diff_density_rms         0.0428
_refine_ls_extinction_method     none
_refine_ls_goodness_of_fit_ref   1.088
_refine_ls_hydrogen_treatment    refall
_refine_ls_matrix_type           full
_refine_ls_number_parameters     118
_refine_ls_number_reflns         2519
_refine_ls_number_restraints     0
_refine_ls_R_factor_all          0.0203
_refine_ls_R_factor_gt           0.0185
_refine_ls_shift/su_max          0.0
_refine_ls_shift/su_mean         0.0
_refine_ls_structure_factor_coef Fsqd
_refine_ls_weighting_details     w=1/[\s^2^(Fo^2^)]
_refine_ls_weighting_scheme      sigma
_refine_ls_wR_factor_gt          0.0303
_refine_ls_wR_factor_ref         0.0306
_reflns_Friedel_coverage         0.0
_reflns_Friedel_fraction_full    0.0
_reflns_Friedel_fraction_max     0.0
_reflns_number_gt                2393
_reflns_number_total             2519
_reflns_threshold_expression     'I > 2\s(I)'
_cod_data_source_file            fc5060.cif
_cod_data_source_block           A23_xharpy_SCAN
_cod_database_code               1566434
loop_
_space_group_symop_operation_xyz
'x, y, z'
'-x+1/2, -y, z+1/2'
'x+1/2, -y+1/2, -z'
'-x, y+1/2, -z+1/2'
loop_
_atom_site_label
_atom_site_type_symbol
_atom_site_fract_x
_atom_site_fract_y
_atom_site_fract_z
_atom_site_U_iso_or_equiv
_atom_site_adp_type
_atom_site_occupancy
_atom_site_site_symmetry_order
O1 O 0.72673(4) 0.083793(16) 0.62435(4) 0.00662(3) Uani 1.0 1
O2 O 0.44092(4) 0.184038(16) 0.76114(4) 0.00644(3) Uani 1.0 1
N1 N 0.64719(4) 0.137523(19) 0.18303(4) 0.00526(3) Uani 1.0 1
H1 H 0.7039(11) 0.0597(5) 0.1966(14) 0.0214(18) Uani 1.0 1
H2 H 0.7790(10) 0.1902(5) 0.2084(13) 0.0188(16) Uani 1.0 1
H3 H 0.5843(11) 0.1492(5) 0.0147(12) 0.0176(16) Uani 1.0 1
C1 C 0.46634(4) 0.161080(19) 0.35442(5) 0.00435(3) Uani 1.0 1
H4 H 0.4241(9) 0.2481(4) 0.3385(11) 0.0183(14) Uani 1.0 1
C2 C 0.25992(5) 0.09067(2) 0.30334(5) 0.00682(4) Uani 1.0 1
H5 H 0.1926(10) 0.1105(5) 0.1320(12) 0.0264(18) Uani 1.0 1
H6 H 0.1274(10) 0.1048(5) 0.4298(12) 0.0273(18) Uani 1.0 1
H7 H 0.3044(10) 0.0046(4) 0.3072(13) 0.0284(19) Uani 1.0 1
C3 C 0.55408(4) 0.140792(19) 0.59992(5) 0.00410(3) Uani 1.0 1
loop_
_atom_site_aniso_label
_atom_site_aniso_U_11
_atom_site_aniso_U_22
_atom_site_aniso_U_33
_atom_site_aniso_U_23
_atom_site_aniso_U_13
_atom_site_aniso_U_12
O1 0.00681(6) 0.00722(6) 0.00584(8) 0.00051(6) -0.00061(6) 0.00246(6)
O2 0.00763(6) 0.00764(6) 0.00406(7) -0.00057(5) 0.00056(6) 0.00200(6)
N1 0.00562(7) 0.00599(7) 0.00417(8) -0.00008(6) 0.00046(6) 0.00005(6)
H1 0.022(4) 0.023(3) 0.019(5) -0.000(3) 0.008(4) 0.003(3)
H2 0.012(3) 0.023(3) 0.021(5) 0.003(3) 0.007(3) 0.000(3)
H3 0.025(4) 0.019(4) 0.008(4) -0.005(3) 0.006(3) -0.003(3)
C1 0.00500(8) 0.00459(7) 0.00347(9) 0.00003(6) -0.00029(7) 0.00043(6)
H4 0.023(3) 0.014(3) 0.018(4) 0.005(3) 0.005(3) 0.009(3)
C2 0.00573(8) 0.00875(8) 0.00597(10) -0.00041(8) -0.00060(7) -0.00131(7)
H5 0.022(4) 0.046(4) 0.011(4) 0.007(3) -0.010(3) -0.011(3)
H6 0.015(3) 0.035(4) 0.031(5) 0.003(4) 0.004(4) -0.002(3)
H7 0.032(5) 0.016(3) 0.037(5) -0.003(3) 0.004(4) -0.006(3)
C3 0.00480(7) 0.00427(7) 0.00324(8) 0.00001(6) -0.00030(7) 0.00035(6)
loop_
_atom_type_symbol
_atom_type_description
_atom_type_scat_dispersion_real
_atom_type_scat_dispersion_imag
_atom_type_scat_source
C C 0.0033 0.0016 'HAR in xHARPy 0.1'
H H 0.0000 0.0000 'HAR in xHARPy 0.1'
N N 0.0061 0.0033 'HAR in xHARPy 0.1'
O O 0.0106 0.0060 'HAR in xHARPy 0.1'
loop_
_geom_angle_atom_site_label_1
_geom_angle_atom_site_label_2
_geom_angle_atom_site_label_3
_geom_angle
C1 N1 H1 111.7(4)
C1 N1 H2 109.3(4)
H1 N1 H2 109.2(5)
C1 N1 H3 109.6(4)
H1 N1 H3 108.5(5)
H2 N1 H3 108.4(5)
N1 C1 C2 109.76(2)
N1 C1 C3 110.03(2)
C2 C1 C3 111.08(2)
N1 C1 H4 107.2(3)
C2 C1 H4 110.5(3)
C3 C1 H4 108.2(3)
C1 C2 H5 110.0(3)
C1 C2 H6 111.0(3)
H5 C2 H6 108.2(4)
C1 C2 H7 110.5(3)
H5 C2 H7 108.7(5)
H6 C2 H7 108.4(5)
O1 C3 O2 125.84(3)
O1 C3 C1 118.30(2)
O2 C3 C1 115.87(2)
loop_
_geom_bond_atom_site_label_1
_geom_bond_atom_site_label_2
_geom_bond_distance
O1 C3 1.2473(4)
O2 C3 1.2663(4)
N1 C1 1.4896(4)
N1 H1 1.015(6)
N1 H2 1.024(6)
N1 H3 1.054(7)
C1 C2 1.5264(4)
C1 C3 1.5348(4)
C1 H4 1.100(5)
C2 H5 1.097(6)
C2 H6 1.088(6)
C2 H7 1.088(6)
loop_
_refln_index_h
_refln_index_k
_refln_index_l
_refln_F_squared_calc
_refln_F_squared_meas
_refln_F_squared_sigma
0 2 0 182.35 183.80 1.76
0 4 0 5360.75 5186.29 44.45
0 6 0 89.70 89.70 1.04
0 8 0 45.46 45.36 0.72
0 10 0 0.69 0.80 0.34
0 12 0 235.78 232.80 2.66
0 14 0 56.61 58.58 1.13
0 16 0 24.70 25.25 0.86
0 18 0 225.89 227.67 2.97
0 20 0 0.03 0.22 0.34
0 22 0 133.39 135.56 2.35
0 24 0 0.06 0.23 0.38
0 26 0 5.51 6.45 0.61
0 1 1 727.85 724.52 7.33
0 2 1 116.74 119.56 1.22
0 3 1 697.73 708.68 6.40
0 4 1 95.68 98.29 1.06
0 5 1 0.37 0.23 0.16
0 6 1 476.04 475.04 4.58
0 7 1 36.63 36.93 0.61
0 8 1 44.37 44.37 0.73
0 9 1 32.12 32.09 0.66
0 10 1 135.51 137.33 1.70
0 11 1 67.41 66.73 1.11
0 12 1 76.44 76.36 1.23
0 13 1 19.51 18.84 0.69
0 14 1 39.16 37.91 0.94
0 15 1 91.21 90.98 1.56
0 16 1 0.33 2.38 9.20
0 17 1 0.88 1.13 0.35
0 18 1 61.61 59.89 1.37
0 19 1 15.72 16.16 0.89
0 20 1 27.87 27.44 1.05
0 21 1 2.07 2.69 0.42
0 23 1 1.79 1.73 0.42
0 24 1 0.03 0.16 0.38
0 25 1 2.32 2.99 0.56
0 26 1 19.65 19.79 1.23
0 0 2 2918.92 2842.82 33.31
0 1 2 517.57 533.24 6.55
0 2 2 175.65 181.60 2.07
0 3 2 56.25 56.20 0.80
0 4 2 172.19 171.23 1.79
0 5 2 556.27 566.91 5.32
0 6 2 92.63 96.73 1.17
0 7 2 5.12 5.42 0.34
0 8 2 109.11 111.74 1.40
0 9 2 21.84 23.69 0.60
0 10 2 46.02 46.26 0.86
0 11 2 84.13 83.79 1.26
0 12 2 28.31 28.26 0.75
0 13 2 21.82 21.49 0.70
0 14 2 22.32 21.30 0.75
0 15 2 181.98 181.35 2.39
0 16 2 3.99 4.45 0.41
0 17 2 63.21 61.07 1.38
0 18 2 19.50 20.41 0.91
0 19 2 118.25 119.90 2.09
0 20 2 0.87 0.98 0.41
0 21 2 46.08 45.95 1.36
0 22 2 37.43 36.82 1.29
0 23 2 16.80 18.01 1.03
0 24 2 1.82 2.49 0.46
0 25 2 21.78 22.47 1.26
0 26 2 1.73 2.56 0.50
0 1 3 81.92 84.00 1.75
0 2 3 154.62 157.79 2.93
0 3 3 203.17 205.46 2.45
0 4 3 720.68 739.12 7.77
0 5 3 80.05 81.33 1.20
0 6 3 267.77 272.39 2.84
0 7 3 22.18 22.41 0.57
0 8 3 61.22 61.66 0.99
0 9 3 145.21 142.75 1.78
0 10 3 39.93 39.62 0.83
0 11 3 68.59 70.38 1.18
0 12 3 119.28 118.93 1.70
0 13 3 144.39 145.53 2.00
0 14 3 29.00 27.82 0.86
0 15 3 90.82 90.47 1.59
0 16 3 155.66 154.81 2.26
0 17 3 48.69 47.22 1.24
0 18 3 27.95 27.00 0.99
0 19 3 3.11 2.50 0.41
0 20 3 43.62 44.44 1.34
0 21 3 0.84 0.87 0.38
0 22 3 0.61 1.16 0.41
0 23 3 26.81 28.16 1.16
0 24 3 12.14 12.72 0.91
0 25 3 5.78 4.98 0.58
0 0 4 208.50 209.70 3.90
0 1 4 38.38 39.83 1.20
0 2 4 92.27 93.07 2.05
0 3 4 7.62 8.00 0.45
0 4 4 225.01 229.50 2.84
0 5 4 0.36 0.68 0.37
0 6 4 71.82 70.94 1.23
0 7 4 29.70 29.22 0.78
0 8 4 65.39 64.49 1.08
0 9 4 7.13 7.20 0.46
0 10 4 87.80 90.35 1.38
0 11 4 97.25 97.99 1.51
0 12 4 39.17 39.01 0.96
0 13 4 11.01 11.49 0.65
0 14 4 143.24 142.44 2.09
0 15 4 46.18 45.27 1.18
0 16 4 94.51 94.69 1.74
0 17 4 5.25 5.71 0.46
0 18 4 10.16 9.63 0.74
0 19 4 3.87 3.36 0.44
0 20 4 1.66 1.83 0.41
0 21 4 0.45 0.19 0.37
0 22 4 3.60 4.35 0.49
0 23 4 0.03 0.12 0.40
0 24 4 25.86 26.58 1.14
0 25 4 2.26 2.90 0.51
0 1 5 239.01 236.13 4.52
0 2 5 138.86 137.29 2.95
0 3 5 49.89 49.22 1.54
0 4 5 385.87 389.13 4.58
0 5 5 178.78 177.74 2.43
0 6 5 0.71 0.77 0.41
0 7 5 6.87 6.62 0.53
0 8 5 148.14 145.24 2.18
0 9 5 73.16 69.37 1.43
0 10 5 9.17 7.95 0.55
0 11 5 21.75 20.75 0.78
0 12 5 1.35 1.49 0.33
0 13 5 77.98 79.19 1.50
0 14 5 2.77 3.52 0.41
0 15 5 13.28 14.10 0.79
0 16 5 13.86 13.28 0.80
0 17 5 73.76 77.03 1.66
0 18 5 2.71 2.33 0.42
0 19 5 14.23 13.62 0.89
0 20 5 0.16 0.30 0.40
0 21 5 21.14 19.64 1.04
0 22 5 4.75 5.49 0.53
0 23 5 14.19 12.53 0.96
0 24 5 0.33 0.26 0.38
0 0 6 0.71 0.78 0.63
0 1 6 95.07 93.76 2.45
0 2 6 15.31 16.20 1.03
0 3 6 0.95 1.49 0.65
0 4 6 16.91 15.99 1.09
0 5 6 85.53 86.27 1.57
0 6 6 12.01 11.18 0.65
0 7 6 143.98 142.07 2.24
0 8 6 31.24 30.01 0.99
0 9 6 12.76 14.35 0.77
0 10 6 15.73 15.61 0.82
0 11 6 118.89 117.22 1.90
0 12 6 6.49 6.31 0.55
0 13 6 4.36 4.78 0.48
0 14 6 10.85 11.69 0.74
0 15 6 0.03 0.09 0.34
0 16 6 43.70 41.54 1.28
0 17 6 29.11 29.12 1.11
0 18 6 6.87 7.80 0.69
0 19 6 43.41 44.22 1.39
0 20 6 1.34 1.84 0.43
0 21 6 22.36 21.30 1.09
0 22 6 10.29 10.58 0.77
0 23 6 17.04 17.00 0.99
0 1 7 61.61 58.78 2.05
0 2 7 551.58 541.28 9.73
0 3 7 0.00 0.47 0.77
0 4 7 11.89 11.78 1.10
0 5 7 24.70 24.08 1.43
0 6 7 43.02 43.17 1.22
0 7 7 47.65 46.65 1.28
0 8 7 1.53 1.95 0.43
0 9 7 4.41 4.94 0.52
0 10 7 10.22 9.22 0.81
0 11 7 30.13 31.40 1.19
0 12 7 5.11 5.84 0.64
0 13 7 13.18 11.64 0.80
0 14 7 1.05 1.48 0.38
0 16 7 83.57 81.71 1.82
0 17 7 0.50 1.05 0.40
0 18 7 1.42 2.31 0.44
0 19 7 5.20 6.86 0.55
0 20 7 137.36 135.25 2.45
0 21 7 0.41 0.91 0.40
0 0 8 25.80 24.48 1.51
0 1 8 2.99 3.58 0.95
0 2 8 9.63 8.71 1.15
0 3 8 16.73 15.72 1.34
0 4 8 1.90 1.73 0.95
0 6 8 10.17 10.27 0.82
0 7 8 58.49 59.64 1.56
0 8 8 89.17 87.51 1.93
0 9 8 11.30 12.27 0.87
0 10 8 5.34 6.54 0.70
0 11 8 41.24 40.10 1.41
0 12 8 39.96 40.23 1.44
0 13 8 32.58 32.15 1.34
0 14 8 11.13 12.54 0.98
0 15 8 0.07 0.55 0.38
0 16 8 0.59 1.00 0.40
0 17 8 7.19 6.57 0.55
0 18 8 0.29 0.58 0.40
0 19 8 10.35 9.23 0.77
0 20 8 5.69 6.16 0.53
0 1 9 6.67 8.52 1.16
0 2 9 48.23 46.39 2.20
0 3 9 62.74 63.36 2.53
0 4 9 21.19 22.22 1.62
0 5 9 1.31 1.65 0.96
0 6 9 1.35 1.58 0.98
0 7 9 47.62 46.53 1.53
0 8 9 79.52 79.67 1.94
0 9 9 17.21 16.48 1.07
0 10 9 13.91 13.85 1.02
0 11 9 1.76 2.24 0.53
0 12 9 35.50 34.89 1.39
0 13 9 29.22 29.15 1.34
0 14 9 0.65 0.29 0.49
0 15 9 46.30 47.31 1.64
0 16 9 13.48 14.46 1.09
0 17 9 15.37 15.53 0.99
0 18 9 8.36 8.58 0.64
0 0 10 5.23 4.81 1.23
0 1 10 0.00 0.01 1.00
0 2 10 21.17 20.70 1.73
0 3 10 49.14 48.97 2.42
0 4 10 27.77 28.34 1.94
0 5 10 32.78 32.71 2.06
0 6 10 41.11 41.62 2.33
0 7 10 54.09 54.36 2.60
0 8 10 58.51 60.21 1.80
0 9 10 6.71 6.73 0.66
0 10 10 1.25 1.86 0.52
0 11 10 17.62 16.38 1.15
0 12 10 12.06 13.43 0.93
0 13 10 11.52 12.54 1.05
0 14 10 46.39 43.58 1.62
0 15 10 5.08 5.86 0.65
0 1 11 0.61 0.48 1.22
0 2 11 2.04 2.70 1.23
0 3 11 7.64 6.80 1.48
0 4 11 1.13 0.92 1.29
0 5 11 1.50 0.89 1.29
0 6 11 8.90 7.72 1.54
0 7 11 2.46 3.10 1.35
0 8 11 7.88 8.40 1.54
0 9 11 7.69 8.00 0.77
0 10 11 0.77 1.57 0.54
0 11 11 9.22 8.35 0.84
0 12 11 31.42 30.17 1.41
0 0 12 0.04 2.48 9.20
0 1 12 28.90 27.02 2.25
0 2 12 19.06 20.21 1.96
0 3 12 119.14 116.24 3.96
0 4 12 0.32 0.42 1.42
0 5 12 9.38 9.78 1.72
0 6 12 54.70 55.79 2.76
0 7 12 69.44 64.84 3.04
1 1 0 253.55 251.58 2.37
1 2 0 5377.33 5488.76 58.12
1 3 0 58.09 59.13 0.69
1 4 0 1718.06 1679.10 14.78
1 5 0 336.88 338.50 3.29
1 6 0 63.21 61.90 0.80
1 7 0 19.13 19.26 0.44
1 8 0 396.14 402.29 4.00
1 9 0 2.66 3.26 0.34
1 10 0 41.17 43.08 0.80
1 11 0 94.70 96.92 1.36
1 12 0 26.18 26.93 0.71
1 13 0 58.74 57.35 1.08
1 14 0 1.51 0.86 0.43
1 15 0 85.21 86.34 1.48
1 16 0 24.49 24.47 0.85
1 17 0 30.26 29.55 0.96
1 18 0 0.79 0.93 0.38
1 19 0 34.02 33.74 1.10
1 20 0 42.04 40.29 1.25
1 21 0 1.21 1.43 0.43
1 22 0 3.80 4.00 0.47
1 23 0 6.07 7.01 0.60
1 24 0 9.79 9.79 0.79
1 26 0 6.64 7.32 0.64
1 0 1 74.57 76.82 0.83
1 1 1 128.65 133.62 1.36
1 2 1 102.82 104.16 1.10
1 3 1 1085.70 1088.02 9.68
1 4 1 156.53 157.09 1.64
1 5 1 439.78 438.05 4.23
1 6 1 21.18 21.89 0.44
1 7 1 336.00 339.49 3.41
1 8 1 232.10 234.68 2.48
1 9 1 229.83 232.38 2.53
1 10 1 134.22 131.27 1.67
1 11 1 17.08 17.15 0.56
1 12 1 1.12 0.36 0.36
1 13 1 128.21 127.69 1.77
1 14 1 30.29 29.59 0.83
1 15 1 88.21 87.66 1.52
1 16 1 61.90 61.81 1.29
1 17 1 25.30 25.44 0.91
1 18 1 23.24 23.79 0.93
1 19 1 14.62 15.32 0.83
1 20 1 6.41 5.83 0.48
1 21 1 1.45 2.06 0.41
1 22 1 33.26 34.78 1.21
1 23 1 9.54 10.66 0.89
1 24 1 21.76 20.95 1.08
1 25 1 8.68 9.50 0.82
1 26 1 0.77 2.00 0.48
1 0 2 3268.18 3106.75 36.15
1 1 2 68.95 71.70 0.94
1 2 2 568.92 572.70 6.12
1 3 2 192.79 194.19 2.03
1 4 2 1063.91 1064.74 9.63
1 5 2 18.44 18.61 0.41
1 6 2 216.83 219.59 2.31
1 7 2 162.48 162.12 1.82
1 8 2 10.66 10.25 0.43
1 9 2 58.66 61.84 0.98
1 10 2 59.79 59.50 1.00
1 11 2 116.97 118.01 1.59
1 12 2 117.31 115.47 1.62
1 13 2 111.76 110.27 1.64
1 14 2 54.61 54.74 1.14
1 15 2 30.90 31.65 0.92
1 16 2 29.29 27.64 0.94
1 17 2 77.57 75.76 1.53
1 18 2 109.25 110.15 1.93
1 19 2 40.15 41.23 1.20
1 20 2 10.34 9.71 0.70
1 21 2 22.02 22.88 1.02
1 22 2 38.68 36.60 1.27
1 23 2 43.44 43.43 1.42
1 24 2 9.66 10.65 0.80
1 25 2 0.09 0.15 0.43
1 26 2 3.69 4.50 0.55
1 0 3 31.16 32.06 0.92
1 1 3 294.02 302.72 5.23
1 2 3 221.17 224.89 2.64
1 3 3 89.38 91.78 1.28
1 4 3 92.49 95.72 1.34
1 5 3 22.99 23.05 0.53
1 6 3 134.93 138.19 1.64
1 7 3 4.81 5.18 0.38
1 8 3 257.21 257.78 2.81
1 9 3 29.05 29.03 0.70
1 10 3 79.00 79.73 1.24
1 11 3 15.48 16.67 0.60
1 12 3 32.44 32.31 0.83
1 13 3 34.96 33.82 0.91
1 14 3 115.41 114.91 1.78
1 15 3 34.22 33.51 0.98
1 16 3 9.99 9.30 0.61
1 17 3 26.00 25.04 0.94
1 18 3 27.65 26.54 1.00
1 19 3 27.76 27.24 1.05
1 20 3 7.92 7.77 0.66
1 21 3 24.18 23.60 1.05
1 22 3 6.66 7.20 0.61
1 23 3 2.90 2.74 0.46
1 24 3 8.13 8.14 0.64
1 25 3 15.81 17.92 1.16
1 0 4 328.11 328.58 5.83
1 1 4 250.41 260.20 4.73
1 2 4 27.14 28.77 1.05
1 3 4 22.48 23.43 0.64
1 4 4 108.38 109.74 1.57
1 5 4 81.67 83.74 1.34
1 6 4 131.02 130.44 1.87
1 7 4 84.28 83.77 1.23
1 8 4 45.14 45.21 0.88
1 9 4 2.18 2.18 0.38
1 10 4 21.99 22.72 0.70
1 11 4 64.19 62.39 1.17
1 12 4 145.41 140.96 1.99
1 13 4 25.63 27.15 0.86
1 14 4 42.03 39.44 1.06
1 15 4 2.16 2.98 0.40
1 16 4 22.28 23.60 0.91
1 17 4 26.80 28.11 1.02
1 18 4 56.97 58.62 1.47
1 19 4 40.04 40.83 1.25
1 20 4 9.06 9.25 0.80
1 21 4 11.22 10.81 0.78
1 22 4 21.04 21.78 1.05
1 23 4 14.63 15.09 0.96
1 24 4 2.25 2.14 0.43
1 0 5 283.40 284.74 5.31
1 1 5 120.50 122.50 2.71
1 2 5 471.90 464.03 8.13
1 3 5 177.87 176.41 3.64
1 4 5 111.19 108.18 1.69
1 5 5 8.56 8.57 0.53
1 6 5 227.32 229.90 3.01
1 7 5 73.49 73.01 1.39
1 8 5 70.95 69.38 1.38
1 9 5 92.43 90.11 1.46
1 10 5 9.74 9.53 0.58
1 11 5 34.82 35.88 0.96
1 12 5 24.94 25.09 0.86
1 13 5 44.78 44.76 1.15
1 14 5 39.89 40.23 1.12
1 15 5 29.78 29.86 1.03
1 16 5 74.70 78.67 1.64
1 17 5 11.20 11.47 0.80
1 18 5 7.43 6.97 0.65
1 19 5 18.06 18.69 0.98
1 20 5 65.36 64.71 1.64
1 21 5 25.08 25.13 1.11
1 22 5 1.48 1.73 0.43
1 23 5 3.48 4.58 0.50
1 24 5 18.00 17.45 1.00
1 0 6 0.54 0.07 0.63
1 1 6 0.52 0.89 0.62
1 2 6 7.75 7.55 0.83
1 3 6 12.80 12.43 0.99
1 4 6 16.22 16.01 1.09
1 5 6 12.88 13.30 0.67
1 6 6 22.10 21.90 0.82
1 7 6 7.53 7.78 0.62
1 8 6 9.95 9.10 0.68
1 9 6 11.55 11.08 0.77
1 10 6 2.70 2.43 0.44
1 11 6 10.80 9.84 0.68
1 12 6 29.66 29.02 0.96
1 13 6 7.61 7.55 0.60
1 14 6 28.04 28.04 1.00
1 15 6 11.89 11.02 0.81
1 16 6 2.99 2.99 0.43
1 17 6 21.02 21.54 1.00
1 18 6 13.85 13.87 0.89
1 19 6 10.97 11.81 0.86
1 20 6 33.47 31.62 1.25
1 21 6 9.09 9.41 0.77
1 22 6 10.22 8.63 0.76
1 23 6 11.62 12.05 0.88
1 0 7 249.86 248.12 5.15
1 1 7 26.21 26.87 1.45
1 2 7 59.75 61.41 2.12
1 3 7 80.19 81.51 2.49
1 4 7 144.66 141.42 3.52
1 5 7 29.31 30.61 1.04
1 6 7 62.72 61.79 1.47
1 7 7 10.51 9.52 0.77
1 8 7 57.61 56.40 1.45
1 9 7 68.53 67.44 1.61
1 10 7 18.03 18.78 0.96
1 11 7 21.68 21.86 0.91
1 12 7 2.59 1.91 0.46
1 13 7 41.30 42.38 1.25
1 14 7 26.14 24.64 1.05
1 15 7 34.38 32.35 1.17
1 16 7 23.34 25.89 1.08
1 17 7 19.36 20.53 1.02
1 18 7 45.10 43.09 1.39
1 19 7 6.83 6.76 0.61
1 20 7 14.44 15.46 0.99
1 21 7 9.19 9.32 0.66
1 0 8 10.11 10.46 1.20
1 1 8 34.30 35.38 1.79
1 2 8 19.32 19.87 1.44
1 3 8 31.22 32.15 1.71
1 4 8 33.25 32.83 1.76
1 5 8 104.07 102.38 3.11
1 6 8 16.09 15.07 0.92
1 7 8 95.16 91.48 1.96
1 8 8 3.63 3.25 0.49
1 9 8 50.97 51.30 1.52
1 10 8 41.66 39.79 1.38
1 11 8 94.36 95.66 2.12
1 12 8 12.85 11.78 0.97
1 13 8 28.63 28.35 1.27
1 14 8 1.93 1.20 0.50
1 15 8 43.76 46.35 1.38
1 16 8 5.26 5.59 0.52
1 17 8 28.97 26.86 1.18
1 18 8 4.49 5.47 0.52
1 19 8 1.87 2.27 0.44
1 20 8 0.04 0.11 0.39
1 0 9 0.14 0.04 0.93
1 1 9 3.14 2.23 1.00
1 2 9 50.34 51.62 2.27
1 3 9 1.22 1.64 0.98
1 4 9 3.74 3.26 1.14
1 5 9 28.22 28.63 1.83
1 6 9 8.86 10.07 1.30
1 7 9 14.69 15.90 1.02
1 8 9 8.01 8.36 0.74
1 9 9 19.88 19.86 1.12
1 10 9 31.35 29.62 1.31
1 11 9 45.24 46.17 1.58
1 12 9 8.38 8.96 0.82
1 13 9 16.93 16.12 1.14
1 14 9 7.30 7.94 0.82
1 15 9 21.73 22.27 1.24
1 16 9 42.83 43.00 1.59
1 17 9 18.05 18.33 1.05
1 18 9 11.81 11.59 0.89
1 0 10 2.69 3.49 1.17
1 1 10 24.22 25.77 1.88
1 2 10 2.20 1.56 1.13
1 3 10 17.84 20.19 1.72
1 4 10 21.62 21.74 1.82
1 5 10 33.06 32.75 2.09
1 6 10 40.63 41.67 2.31
1 7 10 33.20 31.75 2.11
1 8 10 24.41 24.56 1.26
1 9 10 7.54 7.39 0.81
1 10 10 60.73 56.06 1.81
1 11 10 15.62 16.32 1.15
1 12 10 48.09 45.64 1.64
1 13 10 0.10 0.23 0.51
1 14 10 7.82 6.59 0.67
1 15 10 11.06 10.55 0.88
1 0 11 1.60 0.81 1.29
1 1 11 13.56 12.03 1.61
1 2 11 34.65 33.87 2.27
1 3 11 23.90 23.44 1.95
1 4 11 11.92 11.92 1.62
1 5 11 5.19 6.15 1.45
1 6 11 2.94 3.96 1.35
1 7 11 7.76 8.62 1.58
1 8 11 16.58 15.65 1.18
1 9 11 24.94 23.56 1.31
1 10 11 19.49 18.76 1.22
1 11 11 2.72 3.61 0.59
1 12 11 0.79 1.62 0.53
1 0 12 16.61 17.90 1.93
1 1 12 75.90 76.12 3.19
1 2 12 9.31 8.31 1.74
1 3 12 3.11 3.24 1.56
1 4 12 27.89 29.10 2.22
1 5 12 71.74 68.72 3.12
1 6 12 2.71 2.86 1.53
1 7 12 23.89 22.90 2.09
2 0 0 41.17 41.94 0.54
2 1 0 30.86 31.13 0.44
2 2 0 1721.94 1679.07 14.79
2 3 0 795.65 786.74 7.17
2 4 0 35.92 35.85 0.53
2 5 0 90.74 91.15 1.08
2 6 0 2110.82 2081.60 18.48
2 7 0 291.69 293.80 3.01
2 8 0 0.38 0.76 0.30
2 9 0 235.63 235.00 2.59
2 10 0 250.27 254.40 2.79
2 11 0 2.21 2.42 0.36
2 12 0 45.20 43.41 0.91
2 13 0 166.49 168.00 2.14
2 14 0 11.60 10.93 0.60
2 15 0 72.12 69.97 1.33
2 16 0 38.98 37.00 1.03
2 17 0 36.41 35.69 1.05
2 18 0 43.39 43.71 1.20
2 19 0 36.41 37.77 1.16
2 20 0 1.65 0.92 0.37
2 21 0 8.41 7.73 0.64
2 22 0 15.89 15.12 0.93
2 23 0 10.78 11.16 0.88
2 24 0 32.50 32.39 1.24
2 25 0 3.10 4.12 0.58
2 26 0 1.01 1.08 0.45
2 0 1 1.42 1.64 0.16
2 1 1 78.13 78.02 0.88
2 2 1 274.77 277.47 2.73
2 3 1 528.46 536.56 5.05
2 4 1 156.12 157.84 1.67
2 5 1 421.21 426.87 4.15
2 6 1 23.23 22.92 0.48
2 7 1 95.94 98.00 1.23
2 8 1 4.12 4.84 0.36
2 9 1 274.44 273.25 2.94
2 10 1 8.99 8.71 0.46
2 11 1 5.32 4.75 0.43
2 12 1 41.92 40.70 0.89
2 13 1 81.03 79.84 1.35
2 14 1 43.46 44.74 1.03
2 15 1 21.74 23.76 0.81
2 16 1 3.41 3.56 0.40
2 17 1 11.58 10.08 0.69
2 18 1 10.44 9.96 0.72
2 19 1 29.15 29.24 1.06
2 20 1 70.19 71.68 1.64
2 21 1 27.40 28.88 1.12
2 22 1 23.43 23.34 1.07
2 23 1 2.88 2.56 0.44
2 24 1 37.97 41.15 1.34
2 25 1 22.60 23.00 1.32
2 26 1 29.31 30.48 1.45
2 0 2 4.20 4.20 0.23
2 1 2 306.23 308.70 3.05
2 2 2 1084.40 1084.73 9.82
2 3 2 109.13 107.12 1.25
2 4 2 88.27 89.10 1.09
2 5 2 7.97 8.40 0.35
2 6 2 287.44 292.18 3.01
2 7 2 139.93 140.42 1.66
2 8 2 141.92 144.13 1.76
2 9 2 128.26 128.18 1.62
2 10 2 2.76 2.65 0.37
2 11 2 65.22 64.13 1.12
2 12 2 57.42 57.33 1.09
2 13 2 73.28 73.52 1.31
2 14 2 32.30 33.83 0.91
2 15 2 32.93 31.83 0.93
2 16 2 77.52 73.26 1.46
2 17 2 0.11 0.07 0.33
2 18 2 9.72 10.82 0.74
2 19 2 1.30 1.14 0.36
2 20 2 31.05 31.86 1.13
2 21 2 29.31 30.26 1.16
2 22 2 3.28 3.57 0.47
2 23 2 1.66 2.54 0.45
2 24 2 9.14 8.72 0.76
2 25 2 40.54 39.94 1.66
2 0 3 134.26 132.15 1.53
2 1 3 138.93 140.45 1.58
2 2 3 377.98 383.84 3.81
2 3 3 447.62 448.44 4.43
2 4 3 64.41 65.88 0.94
2 5 3 248.44 249.52 2.67
2 6 3 88.97 91.06 1.23
2 7 3 106.37 108.68 1.42
2 8 3 120.54 119.72 1.55
2 9 3 287.88 289.63 3.19
2 10 3 253.99 257.12 2.93
2 11 3 12.32 12.02 0.58
2 12 3 85.64 84.54 1.42
2 13 3 43.33 43.89 1.03
2 14 3 50.08 48.21 1.14
2 15 3 16.90 16.98 0.80
2 16 3 2.28 2.79 0.40
2 17 3 11.21 12.77 0.75
2 18 3 2.77 2.11 0.38
2 19 3 38.83 38.88 1.22
2 20 3 9.08 9.89 0.67
2 21 3 43.60 43.36 1.37
2 22 3 8.90 7.81 0.72
2 23 3 4.01 5.21 0.57
2 24 3 0.01 0.04 0.40
2 25 3 12.62 13.07 1.07
2 0 4 55.28 56.81 1.53
2 1 4 104.74 106.96 1.54
2 2 4 128.00 131.24 1.83
2 3 4 133.13 133.46 1.85
2 4 4 12.81 13.01 0.57
2 5 4 61.27 59.87 0.99
2 6 4 109.63 108.28 1.45
2 7 4 103.17 102.55 1.43
2 8 4 115.46 116.57 1.60
2 9 4 47.16 48.66 0.98
2 10 4 139.18 138.42 1.88
2 11 4 50.79 49.85 1.07
2 12 4 13.27 12.69 0.66
2 13 4 0.43 0.40 0.33
2 14 4 12.74 11.70 0.71
2 15 4 12.69 12.84 0.75
2 16 4 25.14 25.22 0.92
2 17 4 40.12 38.78 1.19
2 18 4 26.68 25.40 1.04
2 19 4 8.67 8.72 0.71
2 20 4 24.96 26.67 1.10
2 21 4 19.80 20.29 1.04
2 22 4 18.46 16.80 1.04
2 23 4 21.18 23.46 1.07
2 24 4 4.55 3.34 0.47
2 0 5 145.31 144.60 3.11
2 1 5 34.40 33.99 1.31
2 2 5 162.13 161.45 2.24
2 3 5 31.23 31.65 0.85
2 4 5 147.62 148.45 2.12
2 5 5 62.59 63.79 1.25
2 6 5 12.19 12.49 0.64
2 7 5 14.67 14.17 0.70
2 8 5 61.69 62.79 1.17
2 9 5 25.77 26.22 0.81
2 10 5 138.58 138.73 1.98
2 11 5 60.40 60.38 1.26
2 12 5 14.80 14.32 0.74
2 13 5 1.35 2.26 0.37
2 14 5 94.00 92.51 1.72
2 15 5 11.78 12.71 0.76
2 16 5 1.07 1.14 0.36
2 17 5 5.32 5.34 0.48
2 18 5 44.98 44.35 1.37
2 19 5 9.71 11.13 0.84
2 20 5 1.34 1.41 0.42
2 21 5 0.95 0.95 0.41
2 22 5 19.97 20.98 1.04
2 23 5 16.70 16.46 1.02
2 0 6 74.64 76.53 2.21
2 1 6 92.48 94.04 2.51
2 2 6 2.23 2.31 0.71
2 3 6 2.14 2.26 0.58
2 4 6 22.16 22.65 0.82
2 5 6 99.22 98.67 1.76
2 6 6 0.33 0.59 0.48
2 7 6 77.45 77.21 1.56
2 8 6 0.14 0.23 0.52
2 9 6 3.72 4.92 0.48
2 10 6 10.62 12.12 0.69
2 11 6 104.32 104.57 1.79
2 12 6 8.19 7.89 0.54
2 13 6 61.16 62.38 1.42
2 14 6 10.68 11.27 0.75
2 15 6 57.78 56.83 1.44
2 16 6 15.08 15.38 0.89
2 17 6 47.34 46.96 1.37
2 18 6 49.72 49.70 1.45
2 19 6 1.53 2.35 0.44
2 20 6 3.87 3.81 0.48
2 21 6 14.10 13.76 0.96
2 22 6 45.98 45.75 1.42
2 0 7 7.28 7.43 0.99
2 1 7 45.27 43.98 1.82
2 2 7 12.73 12.57 1.13
2 3 7 14.27 14.50 1.20
2 4 7 135.19 130.47 2.67
2 5 7 71.83 71.07 1.57
2 6 7 30.05 29.35 1.06
2 7 7 85.65 83.75 1.78
2 8 7 81.24 82.46 1.77
2 9 7 4.58 4.98 0.53
2 10 7 9.01 9.50 0.80
2 11 7 95.89 97.71 2.06
2 12 7 1.38 2.18 0.38
2 13 7 48.58 48.97 1.36
2 14 7 38.25 40.29 1.25
2 15 7 32.63 32.80 1.19
2 16 7 4.43 4.29 0.48
2 17 7 49.99 50.88 1.48
2 18 7 9.32 9.91 0.76
2 19 7 6.03 7.01 0.64
2 20 7 0.34 0.98 0.41
2 21 7 11.66 10.40 0.80
2 0 8 55.48 54.14 2.20
2 1 8 58.81 58.88 2.30
2 2 8 25.07 23.60 1.59
2 3 8 27.55 29.06 1.68
2 4 8 16.59 15.95 1.38
2 5 8 57.99 56.59 1.53
2 6 8 50.46 47.10 1.44
2 7 8 44.21 41.87 1.37
2 8 8 0.08 0.31 0.41
2 9 8 11.41 11.77 0.80
2 10 8 1.22 1.41 0.49
2 11 8 9.72 8.53 0.78
2 12 8 0.42 0.02 0.43
2 13 8 34.10 31.46 1.37
2 14 8 8.34 9.98 0.81
2 15 8 6.74 7.03 0.70
2 16 8 2.36 3.25 0.47
2 17 8 24.23 23.52 1.14
2 18 8 1.60 1.92 0.43
2 19 8 5.67 6.73 0.54
2 0 9 73.28 75.78 2.77
2 1 9 15.85 17.50 1.50
2 2 9 110.77 109.50 3.44
2 3 9 4.92 5.36 1.10
2 4 9 48.65 48.83 2.30
2 5 9 10.81 11.48 1.39
2 6 9 50.99 49.91 1.57
2 7 9 10.46 10.58 0.92
2 8 9 1.99 3.36 0.54
2 9 9 38.77 38.40 1.43
2 10 9 12.49 14.14 1.03
2 11 9 14.94 15.65 1.08
2 12 9 16.97 17.38 1.13
2 13 9 33.81 35.17 1.46
2 14 9 69.67 72.38 1.99
2 15 9 0.36 1.10 0.52
2 16 9 16.06 15.55 1.01
2 17 9 3.84 4.34 0.53
2 0 10 50.21 49.75 2.45
2 1 10 68.55 67.26 2.83
2 2 10 2.08 2.87 1.18
2 3 10 6.66 6.58 1.33
2 4 10 4.54 4.69 1.26
2 5 10 47.09 46.72 2.41
2 6 10 16.58 16.99 1.67
2 7 10 27.04 26.25 1.32
2 8 10 31.29 30.43 1.40
2 9 10 11.84 12.24 0.92
2 10 10 33.00 33.54 1.45
2 11 10 42.68 44.38 1.59
2 12 10 48.14 48.38 1.69
2 13 10 6.85 7.10 0.68
2 14 10 17.16 17.11 1.15
2 15 10 2.82 2.96 0.57
2 0 11 12.11 12.61 1.67
2 1 11 10.92 9.93 1.60
2 2 11 3.98 3.32 1.37
2 3 11 5.95 7.27 1.45
2 4 11 2.96 2.28 1.41
2 5 11 1.34 0.70 1.31
2 6 11 13.91 13.66 1.67
2 7 11 1.00 0.52 1.31
2 8 11 6.13 5.66 0.65
2 9 11 0.22 0.31 0.51
2 10 11 5.67 6.31 0.78
2 11 11 3.48 4.59 0.61
2 0 12 47.22 46.72 2.65
2 1 12 22.20 20.59 2.10
2 2 12 6.93 6.22 1.62
2 3 12 39.72 42.65 2.53
2 4 12 10.90 11.20 1.78
2 5 12 2.00 2.26 1.53
2 6 12 30.70 29.37 2.21
3 1 0 30.51 31.02 0.51
3 3 0 68.97 69.20 0.88
3 4 0 406.83 413.56 4.03
3 5 0 207.25 208.60 2.22
3 6 0 37.94 39.43 0.70
3 7 0 244.70 243.09 2.61
3 8 0 78.91 80.76 1.16
3 9 0 110.14 107.77 1.44
3 10 0 30.13 30.04 0.72
3 11 0 254.68 251.40 2.87
3 12 0 9.45 8.19 0.53
3 13 0 3.05 2.74 0.44
3 14 0 2.86 3.75 0.49
3 15 0 23.14 24.04 0.85
3 16 0 44.48 42.92 1.14
3 17 0 41.85 42.30 1.16
3 18 0 1.62 2.13 0.37
3 19 0 2.64 2.94 0.41
3 20 0 26.23 27.93 1.08
3 21 0 30.15 30.37 1.15
3 22 0 3.81 4.08 0.48
3 23 0 0.04 0.06 0.40
3 24 0 9.21 8.06 0.65
3 25 0 28.08 29.57 1.43
3 0 1 173.69 175.67 1.86
3 1 1 361.16 369.01 3.64
3 2 1 58.67 58.97 0.79
3 3 1 429.81 434.32 4.25
3 4 1 82.05 81.89 1.04
3 5 1 24.13 24.30 0.53
3 6 1 67.16 68.96 0.98
3 7 1 159.66 159.21 1.86
3 8 1 42.46 42.71 0.80
3 9 1 392.84 382.12 4.02
3 10 1 37.16 36.91 0.82
3 11 1 54.87 53.59 1.03
3 12 1 56.30 54.41 1.09
3 13 1 90.35 89.55 1.51
3 14 1 27.30 27.07 0.86
3 15 1 1.54 1.99 0.37
3 16 1 38.03 39.38 1.10
3 17 1 31.11 30.19 1.01
3 18 1 52.70 51.08 1.33
3 19 1 18.93 19.73 0.92
3 20 1 3.87 3.70 0.46
3 21 1 63.86 67.68 1.64
3 22 1 65.20 61.98 1.64
3 23 1 15.30 15.47 0.96
3 24 1 27.53 29.83 1.21
3 25 1 6.42 7.80 0.77
3 0 2 0.13 0.10 0.23
3 1 2 183.04 179.73 1.96
3 2 2 266.85 271.82 2.79
3 3 2 267.65 266.82 2.77
3 4 2 55.24 55.07 0.86
3 5 2 315.80 314.90 3.26
3 6 2 633.04 638.06 6.25
3 7 2 6.14 7.31 0.42
3 8 2 90.15 88.99 1.27
3 9 2 62.55 62.23 1.06
3 10 2 255.34 253.91 2.88
3 11 2 36.61 34.61 0.85
3 12 2 108.26 106.44 1.62
3 13 2 26.41 26.21 0.81
3 14 2 6.91 6.64 0.59
3 15 2 12.84 12.90 0.71
3 16 2 35.69 36.71 1.06
3 17 2 28.54 28.53 1.00
3 18 2 8.84 9.05 0.71
3 19 2 6.42 5.53 0.54
3 20 2 11.72 11.56 0.84
3 21 2 0.73 0.59 0.38
3 22 2 2.82 2.81 0.46
3 23 2 10.11 9.81 0.87
3 24 2 26.56 27.56 1.17
3 25 2 4.44 4.54 0.56
3 0 3 178.87 183.40 2.05
3 1 3 249.98 251.44 2.67
3 2 3 16.81 17.39 0.50
3 3 3 166.48 167.20 1.92
3 4 3 12.50 12.61 0.48
3 5 3 207.50 214.02 2.38
3 6 3 3.42 3.39 0.38
3 7 3 254.84 254.33 2.83
3 8 3 42.49 43.07 0.87
3 9 3 25.26 26.16 0.72
3 10 3 11.78 11.56 0.57
3 11 3 76.72 75.90 1.31
3 12 3 41.25 40.16 0.97
3 13 3 11.14 12.42 0.66
3 14 3 9.35 9.07 0.59
3 15 3 12.39 12.03 0.72
3 16 3 1.72 2.05 0.39
3 17 3 8.76 8.18 0.64
3 18 3 0.35 0.20 0.34
3 19 3 9.77 10.29 0.82
3 20 3 6.95 6.11 0.52
3 21 3 1.92 1.61 0.41
3 22 3 6.53 6.39 0.54
3 23 3 40.06 39.80 1.38
3 24 3 6.99 8.50 0.72
3 0 4 10.75 11.59 0.47
3 1 4 113.72 113.32 1.47
3 2 4 29.97 30.96 0.70
3 3 4 80.29 80.09 1.18
3 4 4 24.13 25.00 0.65
3 5 4 273.75 270.52 2.99
3 6 4 81.79 79.98 1.25
3 7 4 57.74 59.53 1.07
3 8 4 53.47 53.88 1.05
3 9 4 66.46 67.37 1.21
3 10 4 21.33 20.99 0.73
3 11 4 30.59 29.01 0.88
3 12 4 29.31 29.97 0.91
3 13 4 104.27 104.66 1.75
3 14 4 9.96 10.04 0.68
3 15 4 37.81 37.58 1.11
3 16 4 16.37 17.28 0.85
3 17 4 32.21 32.18 1.11
3 18 4 24.08 25.47 1.05
3 19 4 17.53 16.87 0.94
3 20 4 20.73 20.84 1.01
3 21 4 24.01 25.74 1.12
3 22 4 6.96 6.97 0.62
3 23 4 9.96 10.05 0.86
3 24 4 1.00 1.10 0.41
3 0 5 51.60 49.94 0.97
3 1 5 44.81 44.71 0.92
3 2 5 36.61 35.46 0.83
3 3 5 70.96 73.24 1.21
3 4 5 70.44 71.63 1.21
3 5 5 72.85 72.39 1.24
3 6 5 42.72 43.99 0.96
3 7 5 123.71 122.56 1.76
3 8 5 191.61 187.14 2.39
3 9 5 1.65 1.82 0.47
3 10 5 135.78 133.52 1.99
3 11 5 5.71 7.29 0.53
3 12 5 125.84 123.47 1.96
3 13 5 9.86 10.27 0.72
3 14 5 68.35 63.93 1.46
3 15 5 43.88 44.22 1.25
3 16 5 9.75 10.01 0.77
3 17 5 2.83 3.13 0.44
3 18 5 5.60 6.41 0.53
3 19 5 12.38 10.60 0.77
3 20 5 1.89 2.83 0.46
3 21 5 3.27 3.58 0.48
3 22 5 15.52 15.13 0.99
3 23 5 2.92 3.78 0.48
3 1 6 3.59 3.78 0.51
3 2 6 41.53 41.70 1.09
3 3 6 4.77 4.82 0.56
3 4 6 10.20 9.56 0.68
3 5 6 21.19 21.02 0.86
3 6 6 19.71 18.63 0.86
3 7 6 40.43 39.34 1.15
3 8 6 19.61 18.77 0.80
3 9 6 31.77 32.41 0.97
3 10 6 23.94 23.99 0.89
3 11 6 69.03 67.86 1.45
3 12 6 2.81 3.61 0.43
3 13 6 57.78 56.51 1.41
3 14 6 24.46 25.74 1.02
3 15 6 6.98 7.18 0.58
3 16 6 41.58 41.69 1.31
3 17 6 24.11 23.97 1.06
3 18 6 10.48 10.18 0.76
3 19 6 21.31 21.81 1.08
3 20 6 61.61 63.45 1.66
3 21 6 5.17 5.77 0.53
3 22 6 5.83 5.15 0.51
3 0 7 5.95 5.92 1.00
3 1 7 0.48 0.85 0.83
3 2 7 153.77 151.37 3.73
3 3 7 30.99 29.00 1.08
3 4 7 10.65 9.64 0.78
3 5 7 33.03 32.08 1.13
3 6 7 12.55 12.01 0.85
3 7 7 35.79 36.00 1.21
3 8 7 12.92 11.15 0.86
3 9 7 106.49 108.92 2.14
3 10 7 50.43 50.63 1.31
3 11 7 6.20 6.16 0.48
3 12 7 2.55 2.39 0.40
3 13 7 37.80 38.11 1.23
3 14 7 49.23 49.06 1.38
3 15 7 37.38 37.20 1.27
3 16 7 2.92 2.78 0.45
3 17 7 3.11 2.84 0.46
3 18 7 7.70 7.83 0.64
3 19 7 21.55 20.84 1.09
3 20 7 10.17 9.17 0.75
3 21 7 5.13 5.20 0.51
3 0 8 1.92 2.13 1.00
3 1 8 114.55 113.82 3.32
3 2 8 57.79 59.50 2.35
3 3 8 45.21 45.85 2.09
3 4 8 39.81 39.00 1.31
3 5 8 39.62 38.57 1.31
3 6 8 26.57 26.21 1.13
3 7 8 29.92 30.27 1.20
3 8 8 34.44 33.40 1.29
3 9 8 22.59 22.18 1.12
3 10 8 5.42 4.40 0.57
3 11 8 100.12 99.98 2.22
3 12 8 16.86 17.28 1.07
3 13 8 7.34 6.31 0.59
3 14 8 4.44 4.58 0.49
3 15 8 17.90 18.03 0.99
3 16 8 17.47 15.36 0.99
3 17 8 10.52 11.22 0.90
3 18 8 9.02 8.32 0.65
3 19 8 21.70 23.09 1.11
3 0 9 70.78 69.03 2.71
3 1 9 11.66 11.95 1.41
3 2 9 20.23 19.39 1.61
3 3 9 13.40 13.95 1.49
3 4 9 100.77 101.98 3.37
3 5 9 0.06 0.14 0.47
3 6 9 8.21 8.09 0.66
3 7 9 8.31 9.02 0.75
3 8 9 45.08 43.26 1.54
3 9 9 6.44 6.30 0.64
3 10 9 28.00 27.96 1.30
3 11 9 3.94 4.25 0.59
3 12 9 4.21 4.94 0.62
3 13 9 1.66 1.54 0.53
3 14 9 28.74 31.17 1.36
3 15 9 6.68 6.42 0.61
3 16 9 9.89 9.02 0.66
3 17 9 21.79 21.80 1.08
3 0 10 1.01 0.86 1.16
3 1 10 54.75 57.40 2.61
3 2 10 27.43 27.77 2.00
3 3 10 79.94 82.50 3.18
3 4 10 12.67 11.95 1.58
3 5 10 6.71 7.15 1.42
3 6 10 22.85 23.34 1.25
3 7 10 10.24 11.70 0.88
3 8 10 7.75 7.26 0.68
3 9 10 34.22 33.39 1.45
3 10 10 7.75 7.60 0.84
3 11 10 4.94 4.58 0.61
3 12 10 0.78 1.13 0.51
3 13 10 20.45 19.07 1.22
3 14 10 17.44 16.98 1.13
3 0 11 1.71 1.24 1.33
3 1 11 10.70 10.98 1.67
3 2 11 14.66 15.15 1.73
3 3 11 33.95 34.86 2.28
3 4 11 16.48 16.94 1.87
3 5 11 15.50 15.66 1.75
3 6 11 12.24 12.14 1.70
3 7 11 22.02 22.56 1.29
3 8 11 5.94 6.53 0.80
3 9 11 11.15 10.76 0.84
3 10 11 8.65 8.99 0.87
3 11 11 10.64 9.40 2.95
3 0 12 6.90 5.52 1.67
3 1 12 6.59 7.32 1.67
3 2 12 3.27 3.27 1.53
3 3 12 1.61 0.77 1.53
3 4 12 0.80 1.00 1.46
4 0 0 388.65 392.68 3.90
4 1 0 387.71 386.82 3.88
4 2 0 41.03 40.31 0.70
4 3 0 2.13 1.76 0.31
4 4 0 35.89 37.02 0.70
4 5 0 15.93 15.43 0.50
4 6 0 130.88 131.78 1.63
4 7 0 88.99 88.17 1.27
4 8 0 138.12 132.55 1.70
4 9 0 133.37 130.33 1.72
4 10 0 69.06 69.17 1.20
4 11 0 12.67 12.67 0.61
4 12 0 245.26 240.60 2.97
4 13 0 67.42 69.26 1.31
4 14 0 3.41 2.82 0.37
4 15 0 12.43 12.65 0.72
4 16 0 90.15 90.61 1.69
4 17 0 0.97 1.19 0.35
4 18 0 1.98 2.04 0.39
4 19 0 8.88 7.26 0.66
4 20 0 0.44 0.28 0.37
4 21 0 7.22 8.00 0.63
4 22 0 0.00 0.04 0.41
4 23 0 4.12 4.79 0.51
4 24 0 21.73 21.86 1.09
4 0 1 1.46 1.47 0.29
4 1 1 146.81 148.71 1.70
4 2 1 34.50 34.65 0.66
4 3 1 150.30 150.77 1.75
4 4 1 13.40 12.14 0.46
4 5 1 61.13 60.07 0.95
4 6 1 43.59 43.52 0.82
4 7 1 248.56 245.63 2.73
4 8 1 43.38 43.00 0.87
4 9 1 3.99 4.25 0.41
4 10 1 34.57 34.26 0.83
4 11 1 269.74 266.60 3.10
4 12 1 67.66 67.81 1.27
4 13 1 44.99 42.99 1.05
4 14 1 45.86 46.20 1.13
4 15 1 45.89 45.05 1.16
4 16 1 53.74 52.50 1.28
4 17 1 17.59 17.06 0.87
4 18 1 31.66 31.03 1.08
4 19 1 40.56 42.65 1.28
4 20 1 31.82 32.70 1.18
4 21 1 7.98 7.73 0.70
4 22 1 17.46 14.30 0.97
4 23 1 2.41 2.19 0.46
4 24 1 19.54 19.62 1.05
4 25 1 4.93 5.23 0.58
4 0 2 10.74 10.74 0.44
4 1 2 265.16 264.46 2.83
4 2 2 10.67 9.69 0.44
4 3 2 74.67 75.19 1.09
4 4 2 195.16 200.10 2.24
4 5 2 139.30 135.88 1.71
4 6 2 31.78 32.36 0.73
4 7 2 182.96 177.19 2.14
4 8 2 161.63 161.56 2.01
4 9 2 5.04 5.64 0.45
4 10 2 40.12 41.25 0.93
4 11 2 18.58 18.71 0.69
4 12 2 46.87 46.35 1.06
4 13 2 0.03 0.13 0.31
4 14 2 13.89 14.43 0.74
4 15 2 15.31 15.06 0.78
4 16 2 18.16 16.56 0.84
4 17 2 20.39 19.38 0.91
4 18 2 6.08 6.12 0.54
4 19 2 10.71 11.21 0.83
4 20 2 7.65 8.45 0.61
4 21 2 8.02 9.52 0.82
4 22 2 8.55 9.72 0.66
4 23 2 18.25 17.74 1.03
4 24 2 1.78 1.62 0.42
4 0 3 4.64 4.69 0.39
4 1 3 225.10 224.73 2.48
4 2 3 40.11 38.45 0.78
4 3 3 466.25 464.16 4.69
4 4 3 97.04 95.15 1.34
4 5 3 110.88 108.51 1.49
4 6 3 5.07 5.43 0.43
4 7 3 60.11 60.50 1.08
4 8 3 88.83 87.18 1.38
4 9 3 31.52 32.00 0.83
4 10 3 17.53 16.93 0.68
4 11 3 30.58 29.72 0.87
4 12 3 41.93 42.09 1.06
4 13 3 12.55 12.32 0.70
4 14 3 23.75 22.53 0.89
4 15 3 74.64 73.71 1.53
4 16 3 27.24 27.36 1.02
4 17 3 1.54 0.96 0.36
4 18 3 20.69 21.63 0.99
4 19 3 32.75 35.07 1.20
4 20 3 13.03 13.21 0.88
4 21 3 33.80 33.79 1.26
4 22 3 27.10 25.46 1.17
4 23 3 1.04 0.99 0.41
4 24 3 15.18 13.96 0.97
4 0 4 75.11 77.35 1.19
4 1 4 124.28 124.11 1.64
4 2 4 34.83 34.14 0.79
4 3 4 97.41 96.80 1.41
4 4 4 33.98 35.13 0.81
4 5 4 85.91 87.38 1.36
4 6 4 55.80 56.12 1.08
4 7 4 43.63 43.00 0.96
4 8 4 8.49 8.93 0.54
4 9 4 2.26 1.44 0.46
4 10 4 34.64 36.12 0.96
4 11 4 23.08 24.58 0.85
4 12 4 69.63 69.04 1.40
4 13 4 25.98 26.12 0.93
4 14 4 8.44 9.20 0.64
4 15 4 42.95 40.07 1.20
4 16 4 54.71 53.97 1.40
4 17 4 61.46 59.61 1.52
4 18 4 1.87 1.59 0.41
4 19 4 9.12 8.51 0.64
4 20 4 22.88 22.55 1.09
4 21 4 19.01 20.14 1.05
4 22 4 1.92 2.09 0.47
4 23 4 63.72 64.03 1.65
4 0 5 28.99 27.95 0.77
4 1 5 22.41 23.04 0.71
4 2 5 6.13 6.20 0.49
4 3 5 167.64 164.01 2.11
4 4 5 28.51 28.62 0.80
4 5 5 84.42 84.75 1.41
4 6 5 13.39 13.79 0.63
4 7 5 35.08 35.24 0.94
4 8 5 47.04 48.27 1.10
4 9 5 46.85 44.96 1.11
4 10 5 24.58 27.19 0.89
4 11 5 8.87 9.90 0.66
4 12 5 19.70 19.34 0.87
4 13 5 6.25 6.73 0.59
4 14 5 8.91 8.51 0.64
4 15 5 2.18 1.96 0.40
4 16 5 20.74 21.22 0.99
4 17 5 9.57 10.37 0.80
4 18 5 1.82 2.31 0.44
4 19 5 5.63 5.46 0.52
4 20 5 28.92 29.08 1.20
4 21 5 1.53 2.23 0.44
4 22 5 1.05 1.09 0.41
4 0 6 0.41 0.29 0.43
4 1 6 89.34 88.55 1.50
4 2 6 14.31 15.34 0.69
4 3 6 26.92 25.76 0.85
4 4 6 12.25 11.88 0.66
4 5 6 140.14 138.18 2.02
4 6 6 41.82 41.34 1.08
4 7 6 42.79 40.46 1.09
4 8 6 56.77 54.28 1.28
4 9 6 140.46 135.89 2.12
4 10 6 28.03 26.45 0.98
4 11 6 35.29 36.58 1.10
4 12 6 61.96 63.27 1.47
4 13 6 49.57 49.38 1.33
4 14 6 12.77 12.51 0.82
4 15 6 54.26 54.72 1.47
4 16 6 17.13 18.30 0.97
4 17 6 41.42 42.41 1.36
4 18 6 25.98 26.63 1.14
4 19 6 36.77 37.12 1.30
4 20 6 1.10 1.86 0.43
4 21 6 23.37 22.52 1.11
4 0 7 140.33 138.47 2.10
4 1 7 10.52 9.45 0.72
4 2 7 13.38 12.85 0.84
4 3 7 11.64 12.13 0.82
4 4 7 65.66 65.32 1.59
4 5 7 15.78 16.43 0.91
4 6 7 20.01 20.18 0.86
4 7 7 27.33 26.20 0.97
4 8 7 53.65 51.72 1.32
4 9 7 6.44 6.25 0.59
4 10 7 42.76 43.99 1.24
4 11 7 51.68 52.20 1.39
4 12 7 37.28 40.10 1.24
4 13 7 10.66 10.54 0.74
4 14 7 31.07 30.67 1.17
4 15 7 1.44 2.13 0.43
4 16 7 2.92 3.38 0.47
4 17 7 10.05 9.42 0.77
4 18 7 6.22 5.71 0.53
4 19 7 14.32 12.95 0.91
4 20 7 1.36 1.95 0.43
4 0 8 41.64 44.39 2.09
4 1 8 19.38 19.67 1.24
4 2 8 13.87 13.76 0.91
4 3 8 12.19 11.83 0.89
4 4 8 28.07 29.24 1.19
4 5 8 4.38 4.42 0.54
4 6 8 9.92 9.06 0.76
4 7 8 34.18 32.65 1.30
4 8 8 3.92 3.74 0.54
4 9 8 92.61 89.32 2.12
4 10 8 19.61 19.21 0.99
4 11 8 9.87 8.86 0.74
4 12 8 0.34 0.85 0.40
4 13 8 53.84 52.66 1.51
4 14 8 34.52 34.19 1.27
4 15 8 1.88 2.24 0.44
4 16 8 11.11 9.83 0.78
4 17 8 0.02 0.05 0.39
4 18 8 16.19 16.30 0.99
4 0 9 19.12 19.29 1.66
4 1 9 12.64 13.74 1.49
4 2 9 12.61 13.33 1.46
4 3 9 23.58 24.24 1.20
4 4 9 56.70 59.46 1.71
4 5 9 14.10 13.93 1.01
4 6 9 38.58 36.29 1.45
4 7 9 4.99 5.62 0.63
4 8 9 83.30 85.45 2.12
4 9 9 15.82 17.07 1.11
4 10 9 18.18 19.96 1.15
4 11 9 0.14 0.35 0.52
4 12 9 23.96 23.88 1.30
4 13 9 8.91 9.32 0.76
4 14 9 10.10 11.80 0.90
4 15 9 27.47 26.60 1.16
4 16 9 1.40 2.46 0.45
4 1 10 81.21 83.24 3.23
4 2 10 14.31 14.24 1.64
4 3 10 4.08 3.11 1.29
4 4 10 30.70 30.34 1.37
4 5 10 60.61 57.91 1.83
4 6 10 28.79 28.21 1.37
4 7 10 16.60 15.63 1.11
4 8 10 14.32 15.54 1.12
4 9 10 1.41 0.77 0.52
4 10 10 14.69 15.12 1.11
4 11 10 6.62 7.09 0.68
4 12 10 1.41 1.62 0.54
4 13 10 9.78 8.71 0.71
4 0 11 29.07 27.95 2.14
4 1 11 1.78 1.62 1.33
4 2 11 3.16 3.18 1.35
4 3 11 9.82 9.05 1.57
4 4 11 34.73 33.10 2.26
4 5 11 12.95 13.17 1.35
4 6 11 0.37 0.50 0.52
4 7 11 5.68 6.77 0.68
4 8 11 22.21 20.64 1.27
4 9 11 8.78 9.87 0.86
5 1 0 40.61 40.25 0.77
5 2 0 43.10 43.74 0.83
5 3 0 235.73 231.57 2.58
5 4 0 63.50 61.16 1.03
5 5 0 72.74 73.24 1.15
5 6 0 0.01 0.10 0.32
5 7 0 11.80 11.82 0.54
5 8 0 15.95 16.38 0.62
5 9 0 25.96 25.63 0.75
5 10 0 38.13 38.66 0.93
5 11 0 36.28 36.99 0.96
5 12 0 1.51 1.62 0.48
5 13 0 12.47 12.26 0.70
5 14 0 52.32 52.76 1.26
5 15 0 16.19 15.44 0.82
5 16 0 4.61 4.59 0.43
5 17 0 11.44 10.53 0.70
5 18 0 6.25 6.30 0.64
5 19 0 0.00 0.14 0.37
5 20 0 0.12 0.44 0.38
5 21 0 1.11 0.92 0.40
5 22 0 8.68 7.96 0.64
5 24 0 3.25 2.06 0.44
5 0 1 5.57 5.98 0.41
5 1 1 134.68 134.01 1.66
5 2 1 92.58 91.16 1.29
5 3 1 389.27 382.53 3.92
5 4 1 4.96 5.31 0.41
5 5 1 36.75 35.77 0.78
5 6 1 73.76 71.30 1.17
5 7 1 156.36 154.76 1.96
5 8 1 2.57 3.21 0.42
5 9 1 58.56 58.54 1.13
5 10 1 12.35 12.76 0.61
5 11 1 66.50 68.63 1.29
5 12 1 22.24 21.82 0.82
5 13 1 21.54 19.06 0.83
5 14 1 16.11 16.24 0.78
5 15 1 218.29 218.61 2.93
5 16 1 59.96 61.59 1.44
5 17 1 4.24 4.28 0.45
5 18 1 8.29 7.73 0.69
5 19 1 53.07 53.81 1.49
5 20 1 51.22 51.89 1.46
5 21 1 3.86 3.53 0.48
5 22 1 0.73 0.91 0.41
5 23 1 1.68 1.89 0.43
5 24 1 13.47 14.70 0.94
5 0 2 331.45 331.85 3.52
5 1 2 173.74 169.92 2.06
5 2 2 0.46 0.57 0.33
5 3 2 255.21 253.13 2.85
5 4 2 87.40 86.06 1.30
5 5 2 42.93 42.75 0.88
5 6 2 7.04 6.61 0.46
5 7 2 14.19 12.98 0.58
5 8 2 29.74 29.26 0.80
5 9 2 38.39 37.58 0.92
5 10 2 0.58 1.41 0.44
5 11 2 16.51 16.32 0.72
5 12 2 127.09 124.85 1.94
5 13 2 0.42 0.48 0.33
5 14 2 7.16 7.58 0.66
5 15 2 3.36 3.09 0.40
5 16 2 59.83 60.82 1.46
5 17 2 14.91 14.78 0.86
5 18 2 10.94 11.60 0.82
5 19 2 30.64 30.47 1.14
5 20 2 2.07 2.17 0.44
5 21 2 41.43 39.23 1.33
5 22 2 0.97 1.78 0.43
5 23 2 6.02 5.38 0.58
5 24 2 6.54 7.39 0.91
5 0 3 31.93 31.23 0.77
5 1 3 200.47 199.42 2.37
5 2 3 24.27 24.57 0.69
5 3 3 9.62 9.60 0.52
5 4 3 1.36 1.36 0.38
5 5 3 68.88 68.92 1.19
5 6 3 34.31 34.93 0.86
5 7 3 65.32 64.34 1.20
5 8 3 18.09 18.67 0.69
5 9 3 8.92 9.11 0.59
5 10 3 45.29 43.43 1.06
5 11 3 27.47 26.01 0.89
5 12 3 28.47 27.57 0.93
5 13 3 19.10 19.22 0.85
5 14 3 47.33 47.26 1.23
5 15 3 3.33 3.74 0.42
5 16 3 51.30 51.08 1.38
5 17 3 23.33 23.84 1.02
5 18 3 24.04 24.06 1.06
5 19 3 3.76 4.45 0.49
5 20 3 55.40 56.80 1.57
5 21 3 8.02 8.29 0.66
5 22 3 4.43 4.82 0.51
5 23 3 9.12 8.70 0.64
5 0 4 0.07 0.29 0.37
5 1 4 72.35 70.18 1.21
5 2 4 42.78 43.83 0.95
5 3 4 30.17 28.43 0.81
5 4 4 16.82 17.34 0.66
5 5 4 7.25 6.27 0.51
5 6 4 28.27 28.50 0.84
5 7 4 30.26 30.23 0.87
5 8 4 90.58 89.81 1.54
5 9 4 1.91 2.68 0.38
5 10 4 116.51 112.42 1.84
5 11 4 35.00 34.76 1.04
5 12 4 84.55 86.04 1.63
5 13 4 3.53 4.41 0.42
5 14 4 82.62 86.45 1.73
5 15 4 19.71 20.77 0.97
5 16 4 20.63 22.28 1.00
5 17 4 9.09 8.29 0.69
5 18 4 24.25 25.63 1.10
5 19 4 74.38 76.04 1.80
5 20 4 0.44 0.05 0.38
5 21 4 43.12 44.35 1.42
5 22 4 13.37 11.78 0.94
5 0 5 7.84 7.09 0.56
5 1 5 191.12 186.86 2.39
5 2 5 32.39 31.95 0.89
5 3 5 15.65 16.15 0.68
5 4 5 73.62 73.21 1.37
5 5 5 60.72 59.76 1.25
5 6 5 18.88 18.69 0.78
5 7 5 35.06 34.63 0.98
5 8 5 52.61 50.41 1.21
5 9 5 11.82 10.96 0.70
5 10 5 19.68 19.01 0.84
5 11 5 20.04 20.48 0.89
5 12 5 0.41 0.97 0.35
5 13 5 18.03 17.83 0.91
5 14 5 41.37 42.43 1.25
5 15 5 1.39 1.32 0.40
5 16 5 18.14 18.79 0.95
5 17 5 3.00 3.69 0.47
5 18 5 28.98 29.64 1.18
5 19 5 2.79 3.16 0.48
5 20 5 12.63 11.97 0.94
5 21 5 9.97 8.85 0.66
5 0 6 48.41 47.53 1.16
5 1 6 47.14 45.61 1.12
5 2 6 12.47 11.13 0.70
5 3 6 55.93 54.15 1.23
5 4 6 52.88 49.94 1.21
5 5 6 82.22 80.55 1.55
5 6 6 12.90 13.47 0.74
5 7 6 106.34 105.09 1.83
5 8 6 22.58 22.05 0.91
5 9 6 21.30 21.14 0.88
5 10 6 67.86 69.24 1.53
5 11 6 78.57 80.37 1.68
5 12 6 0.45 0.52 0.36
5 13 6 66.74 67.51 1.60
5 14 6 54.89 54.12 1.47
5 15 6 13.53 15.34 0.91
5 16 6 4.95 5.35 0.52
5 17 6 53.50 52.99 1.53
5 18 6 7.83 7.27 0.64
5 19 6 5.16 5.25 0.52
5 20 6 0.01 0.01 0.39
5 0 7 1.15 1.49 0.37
5 1 7 29.76 30.01 1.00
5 2 7 16.92 16.78 0.85
5 3 7 4.13 4.03 0.43
5 4 7 111.30 107.96 1.89
5 5 7 10.04 10.39 0.68
5 6 7 19.67 21.09 0.91
5 7 7 9.14 9.75 0.75
5 8 7 101.53 100.55 1.90
5 9 7 10.34 11.45 0.76
5 10 7 2.11 2.02 0.41
5 11 7 4.44 4.29 0.47
5 12 7 14.05 13.31 0.80
5 13 7 13.75 16.28 0.93
5 14 7 5.48 6.43 0.54
5 15 7 17.91 18.37 1.00
5 16 7 8.54 7.89 0.74
5 17 7 4.13 4.93 0.52
5 18 7 2.49 2.95 0.47
5 0 8 37.53 36.76 1.17
5 1 8 48.03 47.93 1.32
5 2 8 3.07 3.26 0.43
5 3 8 0.49 0.69 0.36
5 4 8 20.41 19.57 0.97
5 5 8 142.68 140.73 2.34
5 6 8 0.54 1.19 0.80
5 7 8 5.12 5.28 0.49
5 8 8 2.63 2.96 0.44
5 9 8 24.50 24.24 1.06
5 10 8 2.05 2.07 0.43
5 11 8 11.10 12.76 0.88
5 12 8 8.65 8.11 0.64
5 13 8 32.37 32.58 1.27
5 14 8 8.57 8.18 0.65
5 15 8 8.32 8.85 0.65
5 16 8 10.86 11.99 0.90
5 17 8 58.75 59.13 1.60
5 0 9 0.11 0.69 0.80
5 1 9 30.97 30.18 1.14
5 2 9 35.63 35.61 1.42
5 3 9 6.76 5.52 0.61
5 4 9 5.17 6.24 0.64
5 5 9 15.38 14.24 1.06
5 6 9 27.59 27.36 1.29
5 7 9 9.42 9.57 0.84
5 8 9 0.66 1.11 0.51
5 9 9 0.69 1.33 0.41
5 10 9 20.98 21.41 1.08
5 11 9 15.18 15.58 0.99
5 12 9 0.91 1.72 0.43
5 13 9 8.51 8.81 0.66
5 14 9 6.65 6.82 0.55
5 15 9 1.99 2.63 0.46
5 0 10 75.73 75.27 3.13
5 1 10 5.33 5.23 0.90
5 2 10 2.52 2.85 0.57
5 3 10 50.54 51.31 1.72
5 4 10 24.79 24.67 1.29
5 5 10 31.57 30.12 1.45
5 6 10 5.80 6.63 0.68
5 7 10 18.23 17.90 1.18
5 8 10 6.21 7.00 0.68
5 9 10 33.71 32.83 1.42
5 10 10 0.61 0.87 0.53
5 11 10 1.19 2.03 0.54
5 12 10 5.39 5.89 0.53
5 0 11 5.31 3.75 1.52
5 1 11 24.71 23.90 2.01
5 2 11 11.44 12.33 1.62
5 3 11 17.67 16.42 1.17
5 4 11 12.28 11.03 0.91
5 5 11 0.06 0.06 0.52
5 6 11 39.14 39.88 1.54
5 7 11 2.03 2.43 0.57
6 0 0 137.39 134.51 1.76
6 1 0 65.33 66.34 1.13
6 2 0 4.83 4.84 0.44
6 3 0 32.81 31.68 0.80
6 4 0 9.35 9.93 0.52
6 5 0 78.44 76.49 1.28
6 6 0 70.67 70.55 1.25
6 7 0 87.39 84.39 1.42
6 8 0 59.76 58.97 1.17
6 9 0 0.07 0.23 0.43
6 10 0 90.43 87.95 1.56
6 11 0 0.10 0.26 0.32
6 12 0 64.15 64.08 1.36
6 13 0 20.83 21.46 0.89
6 14 0 8.91 9.24 0.64
6 15 0 26.50 28.46 1.02
6 16 0 6.83 7.29 0.64
6 17 0 8.16 8.94 0.69
6 18 0 22.25 21.22 1.03
6 19 0 5.95 6.97 0.69
6 21 0 2.45 2.27 0.44
6 22 0 24.13 23.55 1.10
6 23 0 0.13 0.68 0.40
6 0 1 41.49 39.55 0.87
6 1 1 120.15 118.55 1.64
6 2 1 86.24 85.67 1.34
6 3 1 77.25 76.14 1.26
6 4 1 87.12 87.56 1.38
6 5 1 105.79 104.54 1.56
6 6 1 9.73 9.47 0.54
6 7 1 61.00 61.02 1.18
6 8 1 53.51 52.81 1.12
6 9 1 1.65 1.46 0.47
6 10 1 1.06 1.45 0.33
6 11 1 27.28 26.65 0.90
6 12 1 12.69 12.77 0.75
6 13 1 121.27 119.55 1.99
6 14 1 39.22 41.13 1.18
6 15 1 18.32 18.55 0.89
6 16 1 10.98 11.73 0.78
6 17 1 71.68 71.88 1.65
6 18 1 64.09 66.32 1.62
6 19 1 17.59 18.51 0.99
6 20 1 12.17 13.17 0.92
6 21 1 8.79 8.04 0.65
6 22 1 23.05 21.81 1.09
6 23 1 10.35 9.33 0.87
6 0 2 18.36 19.19 0.65
6 1 2 114.11 113.93 1.62
6 2 2 178.43 174.08 2.20
6 3 2 2.98 3.31 0.43
6 4 2 0.98 0.86 0.41
6 5 2 48.47 47.30 1.02
6 6 2 8.82 9.49 0.56
6 7 2 18.45 17.93 0.71
6 8 2 47.56 46.51 1.08
6 9 2 6.51 5.44 0.57
6 10 2 108.96 106.25 1.76
6 11 2 3.25 3.70 0.41
6 12 2 30.26 30.46 1.02
6 13 2 10.21 10.75 0.67
6 14 2 93.55 91.09 1.78
6 15 2 1.24 1.02 0.36
6 16 2 8.26 6.97 0.58
6 17 2 14.31 14.24 0.89
6 18 2 6.92 7.45 0.61
6 19 2 6.33 6.92 0.60
6 20 2 1.36 1.83 0.43
6 21 2 9.67 8.73 0.76
6 22 2 5.72 6.21 0.54
6 23 2 11.72 13.42 1.54
6 0 3 11.56 12.27 0.60
6 1 3 98.18 99.17 1.53
6 2 3 17.49 16.54 0.68
6 3 3 200.93 199.23 2.46
6 4 3 66.70 66.46 1.24
6 5 3 4.33 4.53 0.52
6 6 3 23.70 24.36 0.80
6 7 3 56.48 57.29 1.20
6 8 3 24.01 22.76 0.82
6 9 3 26.52 25.27 0.89
6 10 3 0.80 1.29 0.36
6 11 3 6.59 6.81 0.52
6 12 3 22.14 20.63 0.89
6 13 3 4.17 4.37 0.43
6 14 3 47.14 47.82 1.32
6 15 3 31.78 32.14 1.13
6 16 3 29.95 28.23 1.11
6 17 3 12.29 12.73 0.87
6 18 3 69.26 69.25 1.70
6 19 3 46.30 46.77 1.46
6 20 3 3.57 3.00 0.47
6 21 3 20.94 20.83 1.10
6 22 3 29.22 28.78 1.20
6 0 4 0.66 1.05 0.43
6 1 4 95.58 93.51 1.55
6 2 4 20.54 20.90 0.76
6 3 4 56.11 56.48 1.18
6 4 4 1.97 0.91 0.49
6 5 4 37.85 36.62 1.00
6 6 4 68.40 66.61 1.35
6 7 4 4.92 4.91 0.42
6 8 4 17.53 16.81 0.78
6 9 4 41.08 39.76 1.11
6 10 4 48.79 48.05 1.25
6 11 4 2.27 2.48 0.38
6 12 4 28.36 27.19 1.02
6 13 4 3.88 4.65 0.46
6 14 4 40.67 39.47 1.25
6 15 4 4.18 3.79 0.46
6 16 4 30.53 31.76 1.17
6 17 4 80.37 79.88 1.81
6 18 4 9.90 9.83 0.79
6 19 4 31.49 31.24 1.25
6 20 4 12.09 12.29 0.92
6 21 4 55.30 54.20 1.55
6 0 5 15.54 14.22 0.75
6 1 5 65.70 64.66 1.33
6 2 5 18.62 19.56 0.80
6 3 5 108.22 105.46 1.76
6 4 5 20.11 18.99 0.81
6 5 5 4.10 4.16 0.41
6 6 5 42.65 43.59 1.14
6 7 5 11.34 10.10 0.70
6 8 5 0.14 0.26 0.36
6 9 5 33.92 33.54 1.09
6 10 5 2.08 2.28 0.38
6 11 5 20.50 19.23 0.92
6 12 5 23.29 23.04 0.99
6 13 5 8.70 9.48 0.63
6 14 5 21.11 22.51 1.04
6 15 5 2.15 1.90 0.42
6 16 5 16.45 16.74 0.99
6 17 5 1.57 1.88 0.43
6 18 5 17.75 17.65 1.00
6 19 5 6.13 5.98 0.54
6 20 5 0.27 0.09 0.38
6 0 6 52.84 50.61 1.25
6 1 6 100.92 100.55 1.77
6 2 6 73.79 71.97 1.50
6 3 6 56.78 55.59 1.32
6 4 6 18.82 19.54 0.87
6 5 6 79.58 79.18 1.61
6 6 6 70.57 73.49 1.56
6 7 6 6.87 6.30 0.48
6 8 6 11.75 10.77 0.77
6 9 6 75.07 75.57 1.66
6 10 6 13.20 12.65 0.86
6 11 6 33.96 33.01 1.17
6 12 6 39.34 40.29 1.27
6 13 6 34.86 34.57 1.24
6 14 6 13.66 13.10 0.93
6 15 6 41.32 43.31 1.37
6 16 6 26.15 28.67 1.17
6 17 6 23.18 22.68 1.10
6 18 6 8.19 8.59 0.59
6 19 6 14.20 14.24 0.94
6 0 7 17.08 17.62 0.86
6 1 7 1.82 2.24 0.39
6 2 7 49.69 49.69 1.32
6 3 7 12.25 11.75 0.80
6 4 7 7.59 8.13 0.65
6 5 7 20.56 20.59 0.92
6 6 7 95.92 98.11 1.89
6 7 7 1.54 2.31 0.42
6 8 7 18.39 18.93 0.93
6 9 7 5.28 5.07 0.54
6 10 7 57.30 57.71 1.51
6 11 7 5.09 5.10 0.50
6 12 7 16.79 17.42 1.00
6 13 7 16.66 15.46 0.98
6 14 7 12.42 13.76 0.94
6 15 7 3.05 3.50 0.48
6 16 7 0.07 0.09 0.40
6 17 7 10.69 11.85 0.87
6 18 7 6.84 7.05 0.55
6 0 8 27.24 28.31 1.09
6 1 8 1.01 1.24 0.39
6 2 8 13.52 14.74 0.87
6 3 8 49.65 49.25 1.38
6 4 8 8.24 7.76 0.69
6 5 8 3.22 3.40 0.45
6 6 8 11.92 13.16 0.89
6 7 8 50.96 53.08 1.46
6 8 8 0.27 0.72 0.39
6 9 8 2.66 3.14 0.47
6 10 8 6.60 7.82 0.66
6 11 8 18.53 17.61 1.03
6 12 8 1.43 2.40 0.46
6 13 8 10.23 10.45 0.74
6 14 8 15.19 15.26 0.97
6 15 8 40.09 41.25 1.37
6 16 8 21.98 21.13 1.08
6 0 9 37.14 39.04 1.31
6 1 9 1.02 1.11 0.41
6 2 9 11.10 11.43 0.87
6 3 9 12.39 11.21 0.81
6 4 9 9.44 8.97 0.76
6 5 9 2.49 2.71 0.46
6 6 9 11.26 13.07 0.91
6 7 9 6.60 7.03 0.56
6 8 9 27.41 30.08 1.18
6 9 9 5.10 5.82 0.54
6 10 9 41.51 42.14 1.39
6 11 9 5.83 6.57 0.61
6 12 9 34.50 36.43 1.31
6 13 9 14.19 13.96 0.94
6 0 10 3.73 4.93 0.52
6 1 10 40.54 43.50 1.39
6 2 10 45.01 45.83 1.45
6 3 10 1.23 1.61 0.46
6 4 10 5.76 7.03 0.56
6 5 10 49.73 51.65 1.51
6 6 10 8.00 8.57 0.66
6 7 10 21.26 22.59 1.12
6 8 10 0.92 1.58 0.43
6 9 10 3.89 4.54 0.50
6 0 11 6.13 7.44 0.63
6 1 11 28.48 29.63 1.39
6 2 11 3.02 4.29 0.60
7 2 0 72.09 71.49 1.30
7 3 0 13.42 13.67 0.63
7 4 0 3.92 3.81 0.50
7 5 0 54.53 52.60 1.16
7 6 0 22.03 21.12 0.80
7 7 0 2.26 2.42 0.35
7 8 0 33.98 34.68 0.99
7 9 0 44.09 42.96 1.12
7 10 0 101.48 98.06 1.75
7 11 0 32.73 32.74 1.05
7 12 0 24.02 24.30 0.94
7 13 0 0.08 0.08 0.35
7 14 0 17.86 17.42 0.89
7 15 0 16.48 15.14 0.88
7 16 0 2.91 2.49 0.43
7 17 0 12.50 11.50 0.86
7 18 0 1.59 1.23 0.41
7 19 0 3.35 3.10 0.47
7 20 0 22.67 24.85 1.11
7 21 0 17.82 17.84 1.03
7 22 0 1.11 1.43 0.44
7 0 1 221.12 218.99 2.70
7 1 1 57.17 56.42 1.14
7 2 1 16.85 15.91 0.68
7 3 1 40.09 41.48 0.99
7 4 1 69.21 69.97 1.31
7 5 1 71.92 72.91 1.36
7 6 1 39.18 39.85 1.03
7 7 1 22.98 22.83 0.83
7 8 1 0.84 1.14 0.34
7 9 1 101.59 100.18 1.75
7 10 1 19.71 19.04 0.85
7 11 1 18.71 18.18 0.86
7 12 1 0.29 0.51 0.33
7 13 1 36.16 36.95 1.16
7 14 1 20.60 18.06 0.96
7 15 1 11.59 10.73 0.79
7 16 1 17.90 17.32 0.97
7 17 1 36.27 35.92 1.26
7 18 1 41.49 42.79 1.37
7 19 1 27.22 26.30 1.16
7 20 1 11.08 11.18 0.90
7 21 1 26.20 25.18 1.15
7 22 1 33.62 33.56 1.27
7 0 2 12.28 11.48 0.63
7 1 2 2.11 2.04 0.48
7 2 2 37.82 38.73 0.98
7 3 2 28.72 29.06 0.87
7 4 2 13.42 12.62 0.66
7 5 2 48.46 50.50 1.14
7 6 2 211.11 208.44 2.69
7 7 2 7.61 7.07 0.50
7 8 2 17.81 17.45 0.81
7 9 2 25.00 23.52 0.93
7 10 2 145.40 142.11 2.21
7 11 2 10.72 10.64 0.66
7 12 2 58.34 58.24 1.42
7 13 2 5.70 5.26 0.52
7 14 2 6.32 5.75 0.50
7 15 2 17.43 19.97 0.96
7 16 2 15.68 15.14 0.93
7 17 2 6.69 6.14 0.59
7 18 2 10.64 11.21 0.87
7 19 2 1.33 1.66 0.43
7 20 2 1.07 1.88 0.44
7 21 2 0.83 0.98 0.41
7 0 3 3.77 3.75 0.53
7 1 3 119.19 117.91 1.84
7 2 3 30.94 30.11 0.92
7 3 3 17.63 17.91 0.77
7 4 3 26.40 24.50 0.86
7 5 3 102.98 102.55 1.72
7 6 3 43.59 44.23 1.12
7 7 3 11.35 11.99 0.70
7 8 3 38.35 37.38 1.08
7 9 3 6.18 5.67 0.51
7 10 3 6.02 5.98 0.51
7 11 3 6.39 5.94 0.59
7 12 3 14.41 14.85 0.84
7 13 3 20.82 21.31 0.98
7 14 3 42.71 42.48 1.32
7 15 3 14.73 16.30 0.93
7 16 3 25.70 24.52 1.13
7 17 3 33.25 32.39 1.24
7 18 3 8.33 7.89 0.64
7 19 3 22.45 21.09 1.09
7 20 3 12.70 12.62 0.92
7 21 3 9.33 8.84 0.75
7 0 4 2.12 2.61 0.38
7 1 4 65.43 66.16 1.37
7 2 4 12.36 11.92 0.71
7 3 4 24.73 23.34 0.88
7 4 4 57.34 56.90 1.29
7 5 4 51.64 51.77 1.26
7 6 4 48.23 48.45 1.22
7 7 4 4.98 4.51 0.44
7 8 4 9.47 9.12 0.64
7 9 4 17.83 16.47 0.86
7 10 4 10.96 11.78 0.78
7 11 4 14.27 13.96 0.86
7 12 4 28.32 27.17 1.08
7 13 4 40.39 39.27 1.30
7 14 4 11.95 11.77 0.87
7 15 4 37.83 38.12 1.31
7 16 4 33.42 35.37 1.26
7 17 4 22.08 23.11 1.08
7 18 4 14.72 16.06 0.98
7 19 4 26.82 25.57 1.18
7 20 4 2.85 1.93 0.44
7 0 5 2.59 3.00 0.40
7 1 5 22.67 21.99 0.89
7 2 5 21.76 21.64 0.87
7 3 5 7.98 7.22 0.61
7 4 5 31.90 31.32 1.05
7 5 5 31.96 32.54 1.06
7 6 5 26.99 27.21 1.00
7 7 5 46.05 44.80 1.26
7 8 5 62.85 62.44 1.49
7 9 5 5.21 4.81 0.47
7 10 5 43.28 44.08 1.30
7 11 5 13.33 11.99 0.85
7 12 5 30.31 28.07 1.14
7 13 5 5.06 4.57 0.49
7 14 5 52.42 53.04 1.49
7 15 5 2.51 3.14 0.47
7 16 5 12.60 12.14 0.82
7 17 5 4.13 4.02 0.49
7 18 5 6.68 5.65 0.53
7 19 5 4.66 5.47 0.52
7 0 6 14.54 14.34 0.81
7 1 6 61.37 61.14 1.45
7 2 6 74.49 76.86 1.63
7 3 6 56.71 57.45 1.43
7 4 6 53.40 54.62 1.38
7 5 6 6.39 6.47 0.54
7 6 6 12.98 12.08 0.83
7 7 6 32.36 33.53 1.17
7 8 6 28.36 28.28 1.10
7 9 6 9.77 8.88 0.71
7 10 6 7.69 7.46 0.69
7 11 6 24.05 25.13 1.08
7 12 6 7.01 6.66 0.60
7 13 6 12.42 13.37 0.91
7 14 6 9.44 10.77 0.77
7 15 6 18.46 17.40 1.02
7 16 6 20.36 18.84 1.04
7 17 6 16.52 14.75 0.98
7 18 6 7.68 7.01 0.62
7 0 7 31.75 30.47 1.14
7 1 7 1.11 1.22 0.38
7 2 7 69.06 72.08 1.66
7 3 7 8.34 8.16 0.70
7 4 7 3.28 3.11 0.44
7 5 7 4.57 4.80 0.48
7 6 7 2.92 3.25 0.45
7 7 7 20.62 22.18 1.03
7 8 7 33.82 35.37 1.23
7 9 7 18.13 17.09 1.00
7 10 7 35.78 36.85 1.30
7 11 7 13.47 12.84 0.82
7 12 7 22.27 20.46 1.09
7 13 7 7.56 7.60 0.64
7 14 7 29.15 28.93 1.24
7 15 7 6.75 6.84 0.55
7 16 7 0.01 0.19 0.81
7 0 8 0.90 1.19 0.41
7 1 8 31.56 32.11 1.22
7 2 8 69.63 70.90 1.69
7 3 8 16.44 18.15 0.98
7 4 8 6.06 6.31 0.60
7 5 8 9.42 10.45 0.84
7 6 8 3.56 4.47 0.49
7 7 8 9.28 8.63 0.73
7 8 8 3.70 3.90 0.53
7 9 8 23.97 23.39 1.11
7 10 8 1.83 2.10 0.45
7 11 8 28.73 27.49 1.18
7 12 8 16.06 17.11 1.00
7 13 8 20.67 20.97 1.05
7 14 8 2.56 2.43 0.44
7 0 9 3.77 4.64 0.51
7 1 9 3.95 4.44 0.50
7 2 9 10.30 10.38 0.79
7 3 9 6.81 7.17 0.59
7 4 9 19.19 19.21 1.04
7 5 9 11.67 10.67 0.70
7 6 9 9.59 10.29 0.74
7 7 9 3.04 3.80 0.49
7 8 9 58.14 57.41 1.60
7 9 9 0.45 0.69 0.87
7 10 9 31.19 31.63 1.22
7 11 9 6.14 6.58 0.54
7 0 10 0.28 0.22 0.42
7 1 10 31.27 31.10 1.23
7 2 10 2.84 3.92 0.48
7 3 10 63.65 65.99 1.69
7 4 10 6.58 7.44 0.57
7 5 10 0.37 0.72 0.42
7 6 10 10.24 9.70 0.88
8 0 0 2.68 2.35 0.36
8 1 0 1.27 1.71 0.35
8 2 0 49.61 49.36 1.16
8 3 0 0.08 0.14 0.33
8 4 0 2.03 2.37 0.37
8 5 0 10.02 10.59 0.68
8 6 0 134.63 131.16 2.07
8 7 0 18.26 17.96 0.85
8 8 0 5.51 5.71 0.51
8 9 0 63.59 64.05 1.47
8 10 0 18.05 17.79 0.88
8 11 0 21.90 22.76 0.96
8 12 0 9.07 10.18 0.66
8 13 0 56.29 58.38 1.50
8 14 0 1.49 1.27 0.40
8 15 0 1.60 1.79 0.42
8 16 0 34.39 36.19 1.26
8 17 0 16.71 17.00 0.98
8 18 0 0.19 0.53 0.40
8 19 0 9.79 9.27 0.67
8 20 0 0.68 0.78 0.41
8 0 1 34.05 31.48 0.98
8 1 1 30.65 31.07 0.96
8 2 1 99.74 96.23 1.67
8 3 1 0.74 1.23 0.35
8 4 1 33.73 32.60 1.00
8 5 1 68.73 66.71 1.41
8 6 1 2.28 2.55 0.40
8 7 1 21.89 21.82 0.89
8 8 1 4.65 5.10 0.49
8 9 1 62.75 61.00 1.46
8 10 1 3.90 4.34 0.44
8 11 1 4.28 3.97 0.44
8 12 1 20.58 21.20 0.99
8 13 1 26.04 26.23 1.06
8 14 1 4.36 4.54 0.49
8 15 1 18.84 18.55 0.98
8 16 1 8.71 8.72 0.76
8 17 1 17.15 18.37 1.03
8 18 1 3.28 3.92 0.49
8 19 1 40.09 40.56 1.36
8 20 1 35.33 37.43 1.30
8 0 2 0.21 0.55 0.33
8 1 2 2.40 3.12 0.39
8 2 2 32.63 32.27 1.00
8 3 2 11.52 11.40 0.72
8 4 2 131.26 129.35 2.06
8 5 2 2.86 3.07 0.41
8 6 2 51.15 49.91 1.26
8 7 2 13.83 12.48 0.81
8 8 2 177.69 182.35 2.63
8 9 2 1.93 1.96 0.38
8 10 2 24.95 23.13 0.98
8 11 2 5.04 4.20 0.46
8 12 2 26.78 27.72 1.08
8 13 2 2.86 2.74 0.44
8 14 2 27.27 27.19 1.11
8 15 2 3.71 3.70 0.47
8 16 2 21.70 21.23 1.05
8 17 2 5.17 5.38 0.53
8 18 2 4.19 2.92 0.47
8 19 2 2.22 3.02 0.47
8 20 2 10.18 10.42 0.76
8 0 3 82.51 82.82 1.60
8 1 3 2.03 1.90 0.38
8 2 3 14.60 14.71 0.79
8 3 3 35.91 34.94 1.05
8 4 3 42.82 42.04 1.17
8 5 3 22.96 22.99 0.93
8 6 3 34.20 35.83 1.10
8 7 3 35.05 34.96 1.11
8 8 3 20.91 21.26 0.92
8 9 3 59.42 59.71 1.47
8 10 3 69.47 70.95 1.62
8 11 3 10.69 10.98 0.81
8 12 3 62.77 63.11 1.58
8 13 3 34.24 37.50 1.26
8 14 3 14.80 15.94 0.93
8 15 3 0.76 0.54 0.39
8 16 3 11.20 12.27 0.89
8 17 3 2.39 3.24 0.48
8 18 3 5.05 5.97 0.53
8 19 3 1.39 1.86 0.43
8 0 4 5.39 5.51 0.49
8 1 4 13.16 14.08 0.76
8 2 4 15.89 16.35 0.82
8 3 4 45.61 45.91 1.23
8 4 4 23.00 23.79 0.96
8 5 4 10.81 12.09 0.75
8 6 4 6.25 6.90 0.52
8 7 4 39.61 41.15 1.24
8 8 4 65.45 65.29 1.56
8 9 4 24.38 24.57 1.02
8 10 4 29.39 30.80 1.15
8 11 4 56.14 54.39 1.48
8 12 4 15.15 15.68 0.92
8 13 4 25.02 24.69 1.09
8 14 4 25.00 25.01 1.13
8 15 4 36.69 38.91 1.33
8 16 4 7.40 8.41 0.59
8 17 4 6.87 7.16 0.63
8 18 4 0.38 0.55 0.40
8 0 5 0.51 0.66 0.35
8 1 5 20.92 23.43 0.95
8 2 5 17.78 18.23 0.88
8 3 5 14.44 14.88 0.85
8 4 5 15.97 17.11 0.88
8 5 5 34.26 33.97 1.16
8 6 5 46.09 46.63 1.33
8 7 5 8.49 8.32 0.69
8 8 5 36.35 37.03 1.25
8 9 5 13.69 13.49 0.89
8 10 5 49.91 49.63 1.44
8 11 5 0.55 1.10 0.40
8 12 5 55.32 53.91 1.54
8 13 5 0.88 1.23 0.42
8 14 5 6.67 5.49 0.53
8 15 5 12.93 14.07 0.94
8 16 5 9.60 10.24 0.88
8 17 5 5.22 5.42 0.52
8 0 6 83.61 85.71 1.81
8 1 6 1.88 1.89 0.41
8 2 6 8.71 8.42 0.69
8 3 6 12.17 12.32 0.85
8 4 6 36.50 37.00 1.22
8 5 6 21.41 22.43 1.02
8 6 6 14.49 16.44 0.93
8 7 6 31.27 28.38 1.18
8 8 6 13.10 13.02 0.93
8 9 6 4.76 5.29 0.52
8 10 6 0.05 0.14 0.40
8 11 6 28.72 29.61 1.22
8 12 6 0.09 0.03 0.38
8 13 6 8.81 9.82 0.74
8 14 6 2.71 3.30 0.48
8 15 6 14.36 14.82 0.98
8 16 6 17.87 18.78 1.04
8 0 7 55.47 54.89 1.53
8 1 7 4.75 5.02 0.50
8 2 7 1.13 1.31 0.41
8 3 7 11.79 11.35 0.76
8 4 7 57.07 60.11 1.57
8 5 7 1.29 1.02 0.41
8 6 7 2.77 3.12 0.46
8 7 7 36.38 35.94 1.28
8 8 7 29.26 30.50 1.22
8 9 7 9.63 10.37 0.78
8 10 7 0.14 0.13 0.43
8 11 7 30.20 28.41 1.22
8 12 7 32.79 32.83 1.24
8 13 7 7.56 8.69 0.66
8 14 7 11.46 13.21 0.93
8 0 8 45.57 47.60 1.45
8 1 8 43.07 44.95 1.42
8 2 8 10.28 10.02 0.76
8 3 8 36.23 35.38 1.31
8 4 8 11.81 11.77 0.82
8 5 8 14.92 14.18 0.98
8 6 8 8.78 8.92 0.63
8 7 8 12.86 13.40 0.94
8 8 8 3.14 3.11 0.47
8 9 8 3.14 3.92 0.49
8 10 8 4.06 4.47 0.50
8 11 8 20.94 22.50 1.09
8 0 9 6.64 6.27 0.54
8 1 9 5.43 5.83 0.54
8 2 9 19.25 20.01 1.09
8 3 9 15.97 17.19 1.02
8 4 9 19.29 17.96 1.05
8 5 9 0.61 0.91 0.43
8 6 9 42.10 44.31 1.37
8 7 9 20.80 23.25 1.11
8 8 9 6.31 7.53 0.65
9 1 0 0.47 0.57 0.33
9 2 0 23.21 24.15 0.95
9 4 0 180.51 178.30 2.62
9 5 0 0.07 0.58 0.69
9 6 0 6.04 6.71 0.54
9 7 0 7.70 7.25 0.64
9 8 0 128.13 126.77 2.21
9 9 0 5.13 4.41 0.47
9 10 0 16.57 15.82 0.91
9 11 0 25.81 25.18 1.08
9 12 0 5.51 5.56 0.52
9 13 0 6.51 6.81 0.55
9 14 0 40.41 42.42 1.38
9 15 0 37.01 37.65 1.31
9 16 0 0.08 0.11 0.41
9 18 0 4.66 4.68 0.50
9 0 1 7.38 7.47 0.54
9 1 1 12.24 11.95 0.76
9 2 1 26.26 26.66 0.99
9 3 1 14.23 13.07 0.80
9 4 1 4.78 5.89 0.52
9 5 1 7.69 7.01 0.61
9 6 1 19.46 19.75 0.92
9 7 1 40.47 39.60 1.24
9 8 1 13.66 14.38 0.84
9 9 1 37.77 39.03 1.22
9 10 1 4.55 4.35 0.48
9 11 1 34.77 34.83 1.22
9 12 1 3.51 3.29 0.46
9 13 1 59.78 60.00 1.59
9 14 1 13.63 13.72 0.94
9 15 1 4.02 4.23 0.50
9 16 1 9.46 10.31 0.85
9 17 1 22.91 22.05 1.09
9 18 1 1.35 1.40 0.42
9 0 2 113.46 112.89 2.00
9 1 2 1.39 1.82 0.37
9 2 2 4.86 4.61 0.44
9 3 2 3.12 2.82 0.41
9 4 2 92.45 92.84 1.82
9 5 2 31.88 32.86 1.10
9 6 2 10.98 10.08 0.79
9 7 2 11.97 11.25 0.82
9 8 2 6.51 6.34 0.51
9 9 2 61.77 64.31 1.57
9 10 2 9.07 10.13 0.78
9 11 2 16.21 15.98 0.93
9 12 2 19.74 19.56 1.03
9 13 2 34.00 35.60 1.29
9 14 2 11.28 10.68 0.80
9 15 2 10.05 10.97 0.85
9 16 2 17.01 18.45 1.03
9 17 2 4.23 3.70 0.48
9 18 2 12.68 13.16 0.89
9 0 3 19.51 20.29 0.91
9 1 3 19.93 20.73 0.93
9 2 3 74.74 74.13 1.62
9 3 3 0.22 0.07 0.34
9 4 3 7.84 7.83 0.58
9 5 3 21.64 21.78 1.00
9 6 3 26.93 28.05 1.09
9 7 3 16.91 16.62 0.92
9 8 3 83.87 86.76 1.85
9 9 3 8.96 10.06 0.83
9 10 3 48.32 50.09 1.44
9 11 3 15.41 15.79 0.95
9 12 3 42.75 44.76 1.39
9 13 3 4.36 3.96 0.49
9 14 3 30.65 30.85 1.25
9 15 3 2.44 3.61 0.48
9 16 3 2.04 2.17 0.44
9 17 3 4.72 4.93 0.51
9 0 4 66.90 67.08 1.60
9 1 4 0.85 1.59 0.40
9 2 4 3.06 3.47 0.44
9 3 4 13.70 15.40 0.87
9 4 4 41.35 42.78 1.28
9 5 4 18.77 19.38 0.97
9 6 4 28.82 29.36 1.10
9 7 4 14.34 13.33 0.88
9 8 4 33.60 35.34 1.23
9 9 4 19.02 20.69 1.00
9 10 4 46.11 49.43 1.47
9 11 4 0.44 0.58 0.40
9 12 4 35.66 35.99 1.27
9 13 4 1.28 1.32 0.43
9 14 4 4.49 4.51 0.50
9 15 4 5.21 5.37 0.53
9 16 4 4.82 4.77 0.51
9 0 5 70.86 69.80 1.69
9 1 5 12.38 12.33 0.86
9 2 5 43.50 43.98 1.34
9 3 5 41.25 40.54 1.30
9 4 5 13.68 13.35 0.89
9 5 5 0.62 1.15 0.40
9 6 5 16.92 17.96 0.99
9 7 5 36.78 36.97 1.27
9 8 5 19.76 20.79 1.03
9 9 5 1.51 1.62 0.43
9 10 5 2.64 2.93 0.47
9 11 5 20.97 20.94 1.06
9 12 5 10.96 11.76 0.88
9 13 5 9.29 7.85 0.65
9 14 5 2.17 2.83 0.47
9 15 5 9.53 9.53 0.76
9 0 6 0.36 0.89 0.40
9 1 6 2.58 2.88 0.46
9 2 6 16.24 16.16 0.96
9 3 6 29.65 30.55 1.18
9 4 6 9.61 9.25 0.75
9 5 6 11.39 10.92 0.86
9 6 6 9.17 10.18 0.83
9 7 6 16.13 16.13 0.98
9 8 6 3.28 3.22 0.48
9 9 6 22.03 23.97 1.11
9 10 6 5.37 5.26 0.58
9 11 6 22.12 21.27 1.08
9 12 6 7.79 9.28 0.75
9 13 6 8.21 7.90 0.58
9 0 7 19.00 18.48 1.03
9 1 7 5.50 6.10 0.60
9 2 7 21.46 20.87 1.09
9 3 7 5.12 5.55 0.53
9 4 7 20.73 19.79 1.08
9 5 7 19.00 20.27 1.08
9 6 7 62.97 63.71 1.67
9 7 7 1.03 1.36 0.42
9 8 7 21.40 21.27 1.05
9 9 7 12.16 11.60 0.93
9 10 7 12.66 13.52 0.93
9 11 7 1.30 1.42 0.42
9 0 8 4.00 4.42 0.50
9 1 8 2.37 2.37 0.45
9 2 8 2.97 2.97 0.47
9 3 8 13.06 13.75 0.95
9 4 8 23.47 23.78 1.14
9 5 8 7.62 7.01 0.62
9 6 8 16.89 19.08 1.01
9 7 8 28.69 29.60 1.21
9 8 8 4.29 5.11 0.51
10 0 0 273.40 275.48 3.61
10 1 0 0.00 0.08 0.75
10 2 0 9.98 10.37 0.80
10 3 0 1.28 1.76 0.41
10 4 0 118.54 120.38 2.18
10 5 0 11.77 10.59 0.82
10 6 0 23.57 24.74 1.06
10 7 0 1.06 1.33 0.41
10 8 0 3.39 3.11 0.46
10 9 0 20.15 18.71 1.00
10 10 0 4.31 3.74 0.48
10 11 0 1.98 2.47 0.45
10 12 0 1.07 1.95 0.44
10 14 0 7.28 7.53 0.71
10 15 0 1.36 1.61 0.43
10 16 0 0.43 0.15 0.38
10 0 1 0.70 0.75 0.37
10 1 1 40.32 41.37 1.28
10 2 1 12.38 13.35 0.81
10 3 1 18.86 19.31 0.95
10 4 1 14.04 13.24 0.89
10 5 1 5.81 5.86 0.57
10 6 1 40.95 41.89 1.31
10 7 1 11.78 11.96 0.78
10 8 1 2.04 2.20 0.43
10 9 1 8.78 10.17 0.85
10 10 1 11.00 11.16 0.86
10 11 1 49.63 49.12 1.48
10 12 1 10.35 9.04 0.77
10 13 1 9.42 9.42 0.68
10 14 1 9.45 8.95 0.76
10 15 1 16.80 17.14 1.00
10 16 1 2.26 2.38 0.44
10 0 2 54.48 52.28 1.44
10 1 2 3.88 3.71 0.46
10 2 2 50.80 51.23 1.45
10 3 2 13.42 14.56 0.88
10 4 2 17.18 19.02 0.95
10 5 2 6.16 5.41 0.50
10 6 2 2.51 2.73 0.44
10 7 2 37.24 37.41 1.26
10 8 2 7.84 7.48 0.71
10 9 2 2.35 2.73 0.46
10 10 2 32.68 33.01 1.26
10 11 2 45.26 45.09 1.44
10 12 2 1.61 2.36 0.46
10 13 2 0.57 0.98 0.41
10 14 2 35.71 35.17 1.28
10 15 2 33.49 33.77 1.27
10 0 3 8.85 7.67 0.70
10 1 3 0.71 0.73 0.38
10 2 3 15.65 15.31 0.90
10 3 3 5.07 5.16 0.50
10 4 3 15.78 15.79 0.92
10 5 3 8.50 8.35 0.64
10 6 3 57.35 58.41 1.55
10 7 3 2.26 2.45 0.44
10 9 3 10.72 10.97 0.87
10 10 3 24.35 23.33 1.14
10 11 3 1.71 1.84 0.43
10 12 3 20.98 22.24 1.08
10 13 3 27.89 27.76 1.20
10 14 3 2.04 2.55 0.46
10 15 3 4.06 2.51 0.45
10 0 4 2.84 3.24 0.46
10 1 4 8.65 8.89 0.72
10 2 4 14.56 14.96 0.90
10 3 4 19.01 18.17 1.02
10 4 4 13.62 15.79 0.94
10 5 4 34.46 33.11 1.25
10 6 4 4.68 3.96 0.48
10 7 4 39.77 39.66 1.37
10 8 4 21.27 22.44 1.10
10 9 4 13.76 15.89 0.97
10 10 4 22.82 23.22 1.13
10 11 4 20.52 21.44 1.09
10 12 4 1.13 1.56 0.43
10 13 4 0.80 0.97 0.41
10 14 4 20.78 20.10 1.05
10 0 5 17.06 18.27 1.00
10 1 5 32.06 33.08 1.24
10 2 5 32.63 30.76 1.24
10 3 5 1.13 1.30 0.42
10 4 5 22.69 23.53 1.10
10 5 5 56.95 58.03 1.61
10 6 5 18.26 20.14 1.06
10 7 5 2.54 2.23 0.46
10 8 5 11.85 12.76 0.91
10 9 5 43.02 42.17 1.41
10 10 5 12.50 13.34 0.96
10 11 5 2.20 2.20 0.45
10 12 5 10.82 9.49 0.78
10 0 6 0.09 0.18 0.41
10 1 6 9.60 9.45 0.64
10 2 6 11.92 11.88 0.93
10 3 6 0.18 0.45 0.40
10 4 6 2.02 2.01 0.44
10 5 6 3.42 4.02 0.50
10 6 6 3.48 3.22 0.47
10 7 6 13.11 13.29 0.85
10 8 6 5.91 6.38 0.54
10 9 6 6.86 6.78 0.61
10 10 6 15.02 15.88 0.96
10 0 7 3.21 3.46 0.48
10 1 7 4.78 5.91 0.53
10 2 7 87.76 86.94 1.95
10 3 7 3.47 3.74 0.48
10 4 7 9.11 9.41 0.77
10 5 7 4.62 4.71 0.50
10 6 7 37.32 37.66 1.31
10 7 7 11.46 11.93 0.92
11 1 0 0.57 0.79 0.40
11 2 0 190.72 187.78 2.93
11 3 0 10.82 10.64 0.79
11 4 0 0.83 0.67 0.40
11 5 0 0.42 0.38 0.40
11 6 0 17.01 20.18 1.05
11 7 0 59.78 59.92 1.61
11 8 0 0.44 0.91 0.41
11 9 0 1.22 1.75 0.43
11 10 0 11.13 10.63 0.81
11 11 0 54.57 56.90 1.56
11 12 0 5.15 4.57 0.50
11 13 0 11.01 9.92 0.80
11 0 1 0.03 0.31 0.38
11 1 1 31.69 31.18 1.21
11 2 1 1.49 1.62 0.43
11 3 1 9.81 8.80 0.75
11 4 1 8.15 8.27 0.64
11 5 1 27.21 26.81 1.16
11 6 1 1.65 1.67 0.43
11 7 1 27.45 29.18 1.17
11 8 1 14.79 15.44 0.98
11 9 1 2.83 2.16 0.45
11 10 1 7.23 8.17 0.65
11 11 1 5.40 5.34 0.52
11 12 1 0.77 0.88 0.41
11 13 1 13.81 13.80 0.81
11 0 2 8.81 7.71 0.71
11 1 2 9.51 10.35 0.85
11 2 2 17.35 14.90 0.98
11 3 2 22.43 21.45 1.09
11 4 2 10.90 13.25 0.89
11 5 2 1.05 1.52 0.43
11 6 2 1.87 1.99 0.44
11 7 2 20.02 20.36 1.06
11 8 2 8.70 9.64 0.77
11 9 2 2.22 2.33 0.46
11 10 2 3.27 3.28 0.48
11 11 2 21.35 22.24 1.09
11 12 2 6.72 6.13 0.59
11 0 3 16.70 16.33 0.98
11 1 3 19.03 19.94 1.03
11 2 3 9.34 8.94 0.75
11 3 3 0.92 0.62 0.40
11 4 3 29.28 28.40 1.20
11 5 3 17.23 19.70 1.02
11 6 3 17.45 18.71 1.03
11 7 3 13.53 12.91 0.93
11 8 3 16.16 15.76 1.02
11 9 3 2.64 3.22 0.47
11 10 3 3.73 3.80 0.48
11 11 3 18.40 16.72 1.03
11 0 4 7.72 7.17 0.63
11 1 4 13.66 14.93 0.96
11 2 4 27.89 28.44 1.19
11 3 4 35.52 36.35 1.31
11 4 4 7.34 7.63 0.58
11 5 4 3.48 3.35 0.47
11 6 4 15.61 16.92 0.97
11 7 4 5.48 5.21 0.53
11 8 4 0.97 1.45 0.42
11 9 4 12.76 11.21 0.80
11 10 4 4.04 3.47 0.47
11 0 5 7.59 9.22 0.68
11 1 5 14.79 14.88 0.99
11 2 5 35.58 35.96 1.31
11 3 5 22.76 23.27 1.08
11 4 5 2.24 2.48 0.45
11 5 5 3.74 3.16 0.47
11 6 5 47.28 49.42 1.51
11 7 5 11.45 12.50 0.89
11 8 5 0.06 0.27 0.41
11 0 6 19.73 18.67 1.05
11 1 6 5.12 4.90 0.51
11 2 6 0.46 0.94 0.43
11 3 6 28.24 28.53 1.18
11 4 6 6.56 7.15 0.61
12 0 0 10.00 9.17 0.68
12 1 0 12.99 14.20 0.96
12 2 0 5.21 5.49 0.59
12 3 0 25.67 25.34 1.15
12 4 0 2.17 2.38 0.45
12 5 0 18.20 17.98 1.00
12 6 0 21.32 20.90 1.05
12 7 0 7.49 8.23 0.58
12 8 0 0.55 0.61 0.41
12 9 0 36.91 36.66 1.31
12 0 1 12.01 12.63 0.91
12 1 1 4.80 5.24 0.52
12 2 1 4.61 3.89 0.49
12 3 1 24.62 22.92 1.13
12 4 1 7.58 9.04 0.70
12 5 1 37.54 35.24 1.31
12 6 1 0.20 0.53 0.40
12 7 1 21.32 23.26 1.12
12 8 1 9.13 10.30 0.87
12 0 2 0.79 1.01 0.41
12 1 2 5.30 5.25 0.52
12 2 2 49.77 48.51 1.51
12 3 2 1.18 1.56 0.43
12 4 2 9.29 8.84 0.76
12 5 2 8.07 7.91 0.64
12 6 2 15.97 15.43 1.00
12 7 2 5.00 5.00 0.51
12 8 2 5.72 5.43 0.59
12 0 3 0.20 1.09 0.85
12 1 3 16.35 18.41 0.99
12 2 3 0.34 0.84 0.41
12 3 3 20.45 21.21 1.08
12 4 3 1.13 1.89 0.43
12 5 3 6.75 7.18 0.71
12 6 3 1.04 0.91 0.41
12 0 4 12.25 14.50 0.94
12 1 4 45.14 44.99 1.42
12 2 4 7.79 9.26 0.85
12 3 4 16.92 17.50 1.01
