#------------------------------------------------------------------------------
#$Date: 2022-03-02 05:20:08 +0200 (Wed, 02 Mar 2022) $
#$Revision: 273207 $
#$URL: file:///home/coder/svn-repositories/cod/cif/1/56/65/1566502.cif $
#------------------------------------------------------------------------------
#
# This file is available in the Crystallography Open Database (COD),
# http://www.crystallography.net/. The original data for this entry
# were provided by IUCr Journals, http://journals.iucr.org/.
#
# The file may be used within the scientific community so long as
# proper attribution is given to the journal article from which the
# data were obtained.
#
data_1566502
loop_
_publ_author_name
'Ruth, Paul Niklas'
'Herbst-Irmer, Regine'
'Stalke, Dietmar'
_publ_section_title
;
 Hirshfeld atom refinement based on projector augmented wave densities
 with periodic boundary conditions
;
_journal_issue                   2
_journal_name_full               IUCrJ
_journal_page_first              286
_journal_page_last               297
_journal_paper_doi               10.1107/S2052252522001385
_journal_volume                  9
_journal_year                    2022
_chemical_absolute_configuration unk
_chemical_formula_moiety         '2(C0.5 H2 N O0.5)'
_chemical_formula_sum            'C H4 N2 O'
_chemical_formula_weight         60.056
_chemical_name_common            urea
_space_group_crystal_system      tetragonal
_space_group_IT_number           113
_space_group_name_Hall           'P -4 2ab'
_space_group_name_H-M_alt        'P -4 21 m'
_symmetry_Int_Tables_number      113
_audit_creation_date             2022-01-14
_audit_creation_method
;
Olex2 1.5
(compiled 2021.12.09 svn.r5202d8cf for OlexSys, GUI svn.r6439)
;
_cell_angle_alpha                90
_cell_angle_beta                 90
_cell_angle_gamma                90
_cell_formula_units_Z            2
_cell_length_a                   5.5780(6)
_cell_length_b                   5.5780(6)
_cell_length_c                   4.6860(7)
_cell_measurement_reflns_used    17
_cell_measurement_temperature    123.15
_cell_volume                     145.80(3)
_computing_cell_refinement       'KM6-CH software'
_computing_data_collection       'KM6-CH software'
_computing_data_reduction        XD_RED
_computing_molecular_graphics    'Olex2 1.5 (Dolomanov et al., 2009)'
_computing_publication_material  'Olex2 1.5 (Dolomanov et al., 2009)'
_computing_structure_refinement  'olex2.refine 1.5 (Bourhis et al., 2015)'
_diffrn_ambient_temperature      123
_diffrn_measured_fraction_theta_full 1.0000
_diffrn_measured_fraction_theta_max 0.9817
_diffrn_measurement_device_type
;
KM6-CH six-circle \k diffractometer operated as standard four-circle
\k diffractometer with detector circle in the vertical plane to profit
from the linear polarization of the synchrotron beam.
;
_diffrn_measurement_method       \w-scan
_diffrn_radiation_type           synchrotron
_diffrn_radiation_wavelength     0.5996
_diffrn_reflns_av_R_equivalents  0.0141
_diffrn_reflns_av_unetI/netI     0.0148
_diffrn_reflns_Laue_measured_fraction_full 1.0000
_diffrn_reflns_Laue_measured_fraction_max 0.9817
_diffrn_reflns_limit_h_max       15
_diffrn_reflns_limit_h_min       0
_diffrn_reflns_limit_k_max       10
_diffrn_reflns_limit_k_min       0
_diffrn_reflns_limit_l_max       13
_diffrn_reflns_limit_l_min       0
_diffrn_reflns_number            1022
_diffrn_reflns_point_group_measured_fraction_full 1.0000
_diffrn_reflns_point_group_measured_fraction_max 0.9817
_diffrn_reflns_theta_full        21.0855
_diffrn_reflns_theta_max         57.40
_diffrn_reflns_theta_min         3.67
_exptl_absorpt_coefficient_mu    0.081
_exptl_absorpt_correction_type   none
_exptl_crystal_colour            colourless
_exptl_crystal_density_diffrn    1.368
_exptl_crystal_density_method    'not measured'
_exptl_crystal_description       block
_exptl_crystal_F_000             64.034
_exptl_crystal_size_max          0.23
_exptl_crystal_size_mid          0.13
_exptl_crystal_size_min          0.09
_refine_diff_density_max         0.1888
_refine_diff_density_min         -0.3491
_refine_diff_density_rms         0.0380
_refine_ls_d_res_high            0.3559
_refine_ls_d_res_low             4.6860
_refine_ls_goodness_of_fit_ref   1.9273
_refine_ls_hydrogen_treatment    refall
_refine_ls_matrix_type           full
_refine_ls_number_constraints    0
_refine_ls_number_parameters     27
_refine_ls_number_reflns         1022
_refine_ls_number_restraints     0
_refine_ls_restrained_S_all      1.9273
_refine_ls_R_factor_all          0.0248
_refine_ls_R_factor_gt           0.0138
_refine_ls_shift/su_max          -0.0004
_refine_ls_shift/su_mean         0.0001
_refine_ls_structure_factor_coef Fsqd
_refine_ls_weighting_details
'w=1/[\s^2^(Fo^2^)+(0.0000P)^2^] where P=(Fo^2^+2Fc^2^)/3'
_refine_ls_weighting_scheme      calc
_refine_ls_wR_factor_gt          0.0180
_refine_ls_wR_factor_ref         0.0180
_reflns_Friedel_coverage         0.0
_reflns_limit_h_max              15
_reflns_limit_h_min              0
_reflns_limit_k_max              10
_reflns_limit_k_min              0
_reflns_limit_l_max              13
_reflns_limit_l_min              0
_reflns_number_gt                803
_reflns_number_total             1022
_reflns_threshold_expression     I>=2u(I)
_iucr_refine_instructions_details
;
TITL I P -4 21 m
CELL 0.5996 5.578 5.578 4.686 90 90 90
ZERR 2 0.0006 0.0006 0.0007 0 0 0
LATT -1
SYMM +Y,-X,-Z
SYMM -X,-Y,+Z
SYMM -Y,+X,-Z
SYMM 0.5+X,0.5-Y,-Z
SYMM 0.5-Y,0.5-X,+Z
SYMM 0.5-X,0.5+Y,-Z
SYMM 0.5+Y,0.5+X,+Z
SFAC C H N O
DISP C 0.002 0.001 8.3
DISP H 0 0 0.7
DISP N 0.004 0.002 13.3
DISP O 0.007 0.004 21.1
UNIT 2 8 4 2

L.S. 0
SIZE 0.09 0.13 0.23
TEMP -150
CONF
FMAP 2
BOND $H
ACTA 
LIST -6
MORE -1
WGHT 0
FVAR 0.999512
REM <olex2.extras>
REM <HklSrc "%.\\tonto8.hkl">
REM </olex2.extras>

O     4     0.00000  0.50000  0.59626  10.25000  0.01940  0.01940  0.00658 =
 0.00000 -0.00000  0.00169 
N     3     0.14479  0.64479  0.17851  10.50000  0.02882  0.02882  0.00936 =
 0.00005  0.00005 -0.01503 
H1    2     0.25411  0.75411  0.28557  10.50000  0.05666  0.05666  0.02086 =
 -0.00284 -0.00284 -0.03673 
H2    2     0.14287  0.64287 -0.03390  10.50000  0.04684  0.04684  0.02401 =
 -0.00273 -0.00273 -0.01863 
C     1     0.00000  0.50000  0.32826  10.25000  0.01462  0.01462  0.00662 =
 0.00000 -0.00000 -0.00007 
HKLF 4

END
Q1 1 0.15 0.65 0.138889 11 0.05 0.19
Q2 1 0 0.5 0.444444 11 0.05 0.18
Q3 1 0 0.5 0.861111 11 0.05 0.16
Q4 1 0.15 0.35 0.138889 11 0.05 0.16
Q5 1 0.275 0.775 0.277778 11 0.05 0.11

  REM The information below was added by Olex2.
  REM
  REM R1 = 0.0138 for 803 Fo > 4sig(Fo) and 0.0248 for all 1022 data
  REM 27 parameters refined using 0 restraints
  REM Highest difference peak 0.1888, deepest hole -0.3491
  REM Mean Shift 0.0001, Max Shift -0.0004.

  REM +++ Tabular Listing of Refinement Information +++
  REM R1_all = 0.0248
  REM R1_gt = 0.0138
  REM wR_ref = 0.0180
  REM GOOF = 1.9273
  REM Shift_max = -0.0004
  REM Shift_mean = 0.0001
  REM Reflections_all = 1022
  REM Reflections_gt = 803
  REM Parameters = 27
  REM Hole = -0.3491
  REM Peak = 0.1888
  REM Flack = n/a

  
;
_cod_data_source_file            fc5060.cif
_cod_data_source_block           urea_NoSpherA2_B3LYP_tonto
_cod_original_sg_symbol_Hall     ' P -4 2ab'
_cod_database_code               1566502
_olex2_refinement_description
;
;
_iucr_refine_fcf_details
;
data_urea_NoSpherA2_B3LYP_tonto
_computing_structure_refinement   'olex2.refine 1.5 (Bourhis et al., 2015)'
_shelx_refln_list_code            4
loop_
  _space_group_symop_id
  _space_group_symop_operation_xyz
  1  x,y,z
  2  y,-x,-z
  3  -y,x,-z
  4  x+1/2,-y+1/2,-z
  5  -x+1/2,y+1/2,-z
  6  -x,-y,z
  7  -y+1/2,-x+1/2,z
  8  y+1/2,x+1/2,z

_space_group_crystal_system       tetragonal
_space_group_IT_number            113
_space_group_name_H-M_alt         'P -4 21 m'
_space_group_name_Hall            ' P -4 2ab'
_symmetry_space_group_name_H-M    'P -4 21 m'
_symmetry_space_group_name_Hall   ' P -4 2ab'
_symmetry_Int_Tables_number       113
_cell_length_a                    5.5780(6)
_cell_length_b                    5.5780(6)
_cell_length_c                    4.6860(7)
_cell_angle_alpha                 90
_cell_angle_beta                  90
_cell_angle_gamma                 90
_cell_volume                      145.80(3)
loop_
  _refln_index_h
  _refln_index_k
  _refln_index_l
  _refln_F_squared_calc
  _refln_F_squared_meas
  _refln_F_squared_sigma
  _refln_F_squared_weight
  _refln_observed_status
0 0 1 12.975 13.443 0.050 17.548 o
0 0 2 129.121 134.971 0.831 0.064 o
0 0 3 13.549 13.643 0.080 6.855 o
0 0 4 30.123 29.859 0.180 1.354 o
0 0 5 48.441 49.118 0.360 0.339 o
0 0 6 15.502 15.815 0.190 1.215 o
0 0 7 0.277 0.270 0.030 48.745 o
0 0 8 15.127 14.764 0.250 0.702 o
0 0 9 3.745 3.664 0.100 4.387 o
0 0 10 2.875 2.903 0.090 5.416 o
0 0 11 0.079 0.070 0.260 0.649 o
0 0 12 3.889 3.814 0.110 3.626 o
0 0 13 0.196 0.180 0.020 109.677 o
1 0 1 147.499 150.076 0.180 1.354 o
1 0 2 153.852 153.359 0.270 0.602 o
1 0 3 87.516 87.826 0.190 1.215 o
1 0 4 2.268 2.222 0.030 48.745 o
1 0 5 19.163 19.099 0.100 4.387 o
1 0 6 0.501 0.531 0.030 48.745 o
1 0 7 43.261 43.322 0.340 0.380 o
1 0 8 5.928 6.156 0.070 8.953 o
1 0 9 0.008 -0.010 0.320 0.428 o
1 0 10 0.216 0.190 0.010 438.710 o
1 0 11 1.496 1.431 0.040 27.419 o
1 0 12 1.259 1.261 0.040 27.419 o
1 0 13 0.050 0.000 0.310 0.457 o
1 1 0 1037.700 1009.350 1.922 0.012 o
1 1 1 280.598 283.756 0.510 0.169 o
1 1 2 52.863 52.982 0.120 3.047 o
1 1 3 11.724 11.621 0.060 12.186 o
1 1 4 43.642 43.532 0.180 1.354 o
1 1 5 17.053 17.027 0.110 3.626 o
1 1 6 2.950 2.973 0.030 48.745 o
1 1 7 5.760 5.706 0.080 6.855 o
1 1 8 4.414 4.504 0.070 8.953 o
1 1 9 1.297 1.311 0.050 17.548 o
1 1 10 3.285 3.263 0.070 8.953 o
1 1 11 1.601 1.652 0.050 17.548 o
1 1 12 2.418 2.472 0.060 12.186 o
1 1 13 0.261 0.230 0.020 109.677 o
2 0 0 153.999 156.092 0.300 0.487 o
2 0 1 195.874 197.913 0.260 0.649 o
2 0 2 8.277 8.308 0.030 48.745 o
2 0 3 49.883 49.718 0.130 2.596 o
2 0 4 20.299 20.170 0.090 5.416 o
2 0 5 0.623 0.561 0.030 48.745 o
2 0 6 1.460 1.471 0.020 109.677 o
2 0 7 0.240 0.270 0.010 438.710 o
2 0 8 0.039 0.050 0.200 1.097 o
2 0 9 0.380 0.360 0.020 109.677 o
2 0 10 1.097 1.081 0.040 27.419 o
2 0 11 4.410 4.344 0.070 8.953 o
2 0 12 0.971 1.071 0.040 27.419 o
2 0 13 0.001 -0.030 0.300 0.487 o
2 1 0 229.034 227.141 0.280 0.560 o
2 1 1 49.698 49.628 0.080 6.855 o
2 1 2 30.026 30.270 0.070 8.953 o
2 1 3 68.959 68.727 0.160 1.714 o
2 1 4 45.538 45.394 0.140 2.238 o
2 1 5 13.558 13.603 0.070 8.953 o
2 1 6 13.801 13.944 0.090 5.416 o
2 1 7 10.680 10.810 0.090 5.416 o
2 1 8 15.206 14.955 0.130 2.596 o
2 1 9 3.324 3.313 0.050 17.548 o
2 1 10 1.210 1.201 0.030 48.745 o
2 1 11 1.967 1.912 0.040 27.419 o
2 1 12 0.414 0.420 0.020 109.677 o
2 1 13 0.213 0.210 0.010 438.710 o
2 2 0 228.915 227.622 0.420 0.249 o
2 2 1 202.341 200.055 0.390 0.288 o
2 2 2 56.212 54.843 0.160 1.714 o
2 2 3 27.943 27.567 0.120 3.047 o
2 2 4 43.618 43.512 0.210 0.995 o
2 2 5 9.861 9.800 0.080 6.855 o
2 2 6 2.871 2.763 0.050 17.548 o
2 2 7 10.256 10.110 0.120 3.047 o
2 2 8 1.822 1.852 0.050 17.548 o
2 2 9 1.709 1.672 0.050 17.548 o
2 2 10 3.782 3.674 0.070 8.953 o
2 2 11 2.851 2.783 0.060 12.186 o
2 2 12 1.745 1.752 0.050 17.548 o
3 0 1 93.927 93.511 0.170 1.518 o
3 0 2 17.978 17.847 0.060 12.186 o
3 0 3 11.711 11.631 0.050 17.548 o
3 0 4 104.331 105.062 0.380 0.304 o
3 0 5 0.318 0.370 0.020 109.677 o
3 0 6 10.942 10.901 0.090 5.416 o
3 0 7 0.457 0.500 0.020 109.677 o
3 0 8 15.703 15.605 0.160 1.714 o
3 0 9 4.233 4.274 0.060 12.186 o
3 0 10 4.945 4.845 0.070 8.953 o
3 0 11 0.398 0.410 0.020 109.677 o
3 0 12 0.051 0.040 0.170 1.518 o
3 1 0 29.173 29.148 0.070 8.953 o
3 1 1 143.110 142.499 0.230 0.829 o
3 1 2 15.190 14.895 0.050 17.548 o
3 1 3 66.849 66.275 0.180 1.354 o
3 1 4 14.392 14.534 0.070 8.953 o
3 1 5 1.687 1.672 0.030 48.745 o
3 1 6 5.215 5.245 0.050 17.548 o
3 1 7 1.527 1.542 0.030 48.745 o
3 1 8 0.479 0.470 0.020 109.677 o
3 1 9 1.463 1.491 0.030 48.745 o
3 1 10 1.035 1.081 0.030 48.745 o
3 1 11 5.489 5.425 0.070 8.953 o
3 1 12 0.574 0.591 0.030 48.745 o
3 2 0 17.251 17.427 0.050 17.548 o
3 2 1 5.226 5.135 0.030 48.745 o
3 2 2 10.980 11.021 0.040 27.419 o
3 2 3 26.005 25.675 0.090 5.416 o
3 2 4 13.693 13.683 0.070 8.953 o
3 2 5 7.635 7.647 0.050 17.548 o
3 2 6 2.948 3.053 0.040 27.419 o
3 2 7 16.064 16.166 0.130 2.596 o
3 2 8 7.206 7.067 0.070 8.953 o
3 2 9 0.618 0.681 0.030 48.745 o
3 2 10 0.159 0.120 0.020 109.677 o
3 2 11 0.990 0.951 0.030 48.745 o
3 2 12 0.400 0.410 0.020 109.677 o
3 3 0 224.588 219.734 0.621 0.114 o
3 3 1 8.039 8.138 0.050 17.548 o
3 3 2 7.847 7.968 0.060 12.186 o
3 3 3 0.543 0.510 0.030 48.745 o
3 3 4 15.990 15.805 0.120 3.047 o
3 3 5 13.548 13.393 0.090 5.416 o
3 3 6 5.418 5.595 0.070 8.953 o
3 3 7 0.130 0.150 0.020 109.677 o
3 3 8 5.772 5.635 0.090 5.416 o
3 3 9 1.009 0.991 0.050 17.548 o
3 3 10 1.429 1.501 0.050 17.548 o
3 3 11 0.307 0.310 0.020 109.677 o
3 3 12 1.912 1.982 0.050 17.548 o
4 0 0 5.179 5.515 0.060 12.186 o
4 0 1 96.463 97.715 0.240 0.762 o
4 0 2 7.802 7.687 0.040 27.419 o
4 0 3 71.618 71.990 0.250 0.702 o
4 0 4 5.951 5.926 0.050 17.548 o
4 0 5 2.546 2.613 0.040 27.419 o
4 0 6 7.765 7.808 0.070 8.953 o
4 0 7 0.169 0.160 0.010 438.710 o
4 0 8 1.189 1.121 0.040 27.419 o
4 0 9 2.081 2.142 0.050 17.548 o
4 0 10 0.459 0.420 0.020 109.677 o
4 0 11 6.028 6.016 0.090 5.416 o
4 0 12 0.255 0.230 0.010 438.710 o
4 1 0 7.130 7.147 0.040 27.419 o
4 1 1 11.617 11.671 0.040 27.419 o
4 1 2 2.866 2.753 0.030 48.745 o
4 1 3 13.217 13.143 0.060 12.186 o
4 1 4 42.511 43.062 0.180 1.354 o
4 1 5 1.503 1.521 0.030 48.745 o
4 1 6 5.798 5.756 0.050 17.548 o
4 1 7 3.425 3.403 0.040 27.419 o
4 1 8 10.055 10.130 0.100 4.387 o
4 1 9 1.902 1.872 0.040 27.419 o
4 1 10 1.831 1.812 0.040 27.419 o
4 1 11 0.601 0.571 0.020 109.677 o
4 1 12 0.038 0.030 0.280 0.560 o
4 2 0 94.802 93.491 0.220 0.906 o
4 2 1 25.448 25.745 0.080 6.855 o
4 2 2 5.544 5.445 0.030 48.745 o
4 2 3 4.135 4.234 0.030 48.745 o
4 2 4 16.887 16.626 0.090 5.416 o
4 2 5 5.284 5.315 0.030 48.745 o
4 2 6 1.119 1.131 0.030 48.745 o
4 2 7 1.721 1.702 0.030 48.745 o
4 2 8 1.884 1.862 0.040 27.419 o
4 2 9 0.373 0.390 0.020 109.677 o
4 2 10 1.421 1.431 0.040 27.419 o
4 2 11 1.221 1.201 0.030 48.745 o
4 2 12 1.247 1.231 0.030 48.745 o
4 3 0 3.376 3.263 0.030 48.745 o
4 3 1 20.781 20.620 0.080 6.855 o
4 3 2 19.160 18.758 0.080 6.855 o
4 3 3 16.796 16.836 0.080 6.855 o
4 3 4 0.368 0.310 0.020 109.677 o
4 3 5 13.222 13.283 0.090 5.416 o
4 3 6 1.130 1.151 0.030 48.745 o
4 3 7 24.224 24.134 0.200 1.097 o
4 3 8 2.957 3.043 0.040 27.419 o
4 3 9 0.247 0.210 0.010 438.710 o
4 3 10 0.236 0.250 0.010 438.710 o
4 3 11 0.974 1.051 0.030 48.745 o
4 3 12 0.782 0.741 0.030 48.745 o
4 4 0 83.436 83.111 0.390 0.288 o
4 4 1 4.861 4.765 0.050 17.548 o
4 4 2 4.046 4.014 0.050 17.548 o
4 4 3 0.163 0.160 0.010 438.710 o
4 4 4 8.582 8.708 0.060 12.186 o
4 4 5 5.720 5.585 0.070 8.953 o
4 4 6 2.544 2.583 0.050 17.548 o
4 4 7 0.096 0.120 0.020 109.677 o
4 4 8 2.975 2.983 0.060 12.186 o
4 4 9 0.396 0.450 0.020 109.677 o
4 4 10 0.854 0.741 0.050 17.548 o
4 4 11 0.354 0.350 0.020 109.677 o
4 4 12 1.173 1.181 0.050 17.548 o
5 0 1 0.101 0.100 0.010 438.710 o
5 0 2 0.073 0.090 0.020 109.677 o
5 0 3 8.683 8.538 0.060 12.186 o
5 0 4 17.941 17.997 0.110 3.626 o
5 0 5 1.920 1.892 0.040 27.419 o
5 0 6 2.080 1.992 0.040 27.419 o
5 0 7 6.338 6.366 0.080 6.855 o
5 0 8 6.007 5.976 0.080 6.855 o
5 0 9 0.607 0.551 0.030 48.745 o
5 0 10 0.580 0.531 0.030 48.745 o
5 0 11 0.472 0.450 0.020 109.677 o
5 0 12 0.086 0.090 0.020 109.677 o
5 1 0 41.824 42.331 0.150 1.950 o
5 1 1 30.175 30.380 0.100 4.387 o
5 1 2 8.167 8.278 0.050 17.548 o
5 1 3 10.154 10.240 0.060 12.186 o
5 1 4 15.483 15.495 0.090 5.416 o
5 1 5 3.218 3.403 0.040 27.419 o
5 1 6 0.875 0.771 0.030 48.745 o
5 1 7 3.125 3.043 0.040 27.419 o
5 1 8 0.803 0.841 0.030 48.745 o
5 1 9 0.591 0.591 0.020 109.677 o
5 1 10 1.487 1.572 0.040 27.419 o
5 1 11 1.736 1.772 0.040 27.419 o
5 1 12 0.891 0.821 0.030 48.745 o
5 2 0 21.371 21.461 0.080 6.855 o
5 2 1 7.158 7.217 0.040 27.419 o
5 2 2 7.665 7.427 0.040 27.419 o
5 2 3 21.262 21.391 0.100 4.387 o
5 2 4 7.565 7.597 0.060 12.186 o
5 2 5 9.386 9.189 0.070 8.953 o
5 2 6 6.127 6.196 0.060 12.186 o
5 2 7 10.364 10.260 0.100 4.387 o
5 2 8 6.461 6.636 0.070 8.953 o
5 2 9 1.317 1.361 0.030 48.745 o
5 2 10 0.133 0.120 0.010 438.710 o
5 2 11 1.260 1.261 0.030 48.745 o
5 2 12 0.383 0.410 0.010 438.710 o
5 3 0 43.675 43.242 0.160 1.714 o
5 3 1 11.821 11.872 0.060 12.186 o
5 3 2 2.248 2.262 0.030 48.745 o
5 3 3 3.387 3.383 0.030 48.745 o
5 3 4 8.508 8.528 0.060 12.186 o
5 3 5 2.335 2.422 0.030 48.745 o
5 3 6 0.565 0.571 0.020 109.677 o
5 3 7 0.768 0.811 0.030 48.745 o
5 3 8 1.125 1.071 0.030 48.745 o
5 3 9 0.170 0.180 0.010 438.710 o
5 3 10 0.821 0.861 0.030 48.745 o
5 3 11 0.898 0.821 0.030 48.745 o
5 3 12 0.805 0.711 0.030 48.745 o
5 4 0 2.963 2.893 0.030 48.745 o
5 4 1 0.503 0.480 0.020 109.677 o
5 4 2 0.734 0.691 0.030 48.745 o
5 4 3 5.991 5.746 0.030 48.745 o
5 4 4 8.657 8.468 0.070 8.953 o
5 4 5 2.572 2.603 0.040 27.419 o
5 4 6 1.513 1.592 0.030 48.745 o
5 4 7 5.048 5.105 0.060 12.186 o
5 4 8 3.742 3.624 0.050 17.548 o
5 4 9 0.438 0.460 0.020 109.677 o
5 4 10 0.256 0.250 0.010 438.710 o
5 4 11 0.414 0.480 0.020 109.677 o
5 4 12 0.106 0.110 0.010 438.710 o
5 5 0 6.754 6.777 0.070 8.953 o
5 5 1 15.894 15.665 0.140 2.238 o
5 5 2 5.029 5.015 0.040 27.419 o
5 5 3 10.332 10.290 0.110 3.626 o
5 5 4 6.850 6.977 0.090 5.416 o
5 5 5 1.594 1.672 0.050 17.548 o
5 5 6 0.843 0.821 0.040 27.419 o
5 5 7 2.355 2.442 0.060 12.186 o
5 5 8 0.225 0.250 0.020 109.677 o
5 5 9 0.550 0.510 0.030 48.745 o
5 5 10 0.848 0.821 0.050 17.548 o
5 5 11 1.398 1.411 0.050 17.548 o
6 0 0 59.696 61.620 0.410 0.261 o
6 0 1 4.580 4.474 0.040 27.419 o
6 0 2 2.576 2.562 0.030 48.745 o
6 0 3 0.258 0.230 0.010 438.710 o
6 0 4 7.503 7.778 0.070 8.953 o
6 0 5 4.434 4.394 0.050 17.548 o
6 0 6 1.867 1.962 0.040 27.419 o
6 0 7 0.067 0.030 0.330 0.403 o
6 0 8 2.333 2.362 0.050 17.548 o
6 0 9 0.251 0.270 0.010 438.710 o
6 0 10 0.738 0.741 0.040 27.419 o
6 0 11 0.386 0.440 0.020 109.677 o
6 0 12 0.987 1.021 0.030 48.745 o
6 1 0 5.229 5.335 0.040 27.419 o
6 1 1 5.599 5.696 0.040 27.419 o
6 1 2 4.627 4.705 0.040 27.419 o
6 1 3 10.504 10.540 0.070 8.953 o
6 1 4 2.969 2.923 0.040 27.419 o
6 1 5 6.431 6.466 0.060 12.186 o
6 1 6 1.887 1.922 0.030 48.745 o
6 1 7 10.939 10.931 0.110 3.626 o
6 1 8 3.385 3.313 0.050 17.548 o
6 1 9 0.371 0.380 0.020 109.677 o
6 1 10 0.016 -0.010 0.280 0.560 o
6 1 11 0.699 0.731 0.030 48.745 o
6 1 12 0.329 0.320 0.010 438.710 o
6 2 0 23.038 23.503 0.110 3.626 o
6 2 1 13.701 13.783 0.080 6.855 o
6 2 2 2.825 2.853 0.030 48.745 o
6 2 3 6.186 6.216 0.040 27.419 o
6 2 4 7.772 7.587 0.060 12.186 o
6 2 5 1.447 1.552 0.030 48.745 o
6 2 6 0.366 0.310 0.010 438.710 o
6 2 7 1.348 1.301 0.030 48.745 o
6 2 8 0.520 0.611 0.020 109.677 o
6 2 9 0.277 0.250 0.010 438.710 o
6 2 10 0.802 0.841 0.030 48.745 o
6 2 11 1.144 1.181 0.030 48.745 o
6 2 12 0.581 0.551 0.030 48.745 o
6 3 0 0.015 0.040 0.230 0.829 o
6 3 1 0.882 0.891 0.030 48.745 o
6 3 2 0.848 0.921 0.030 48.745 o
6 3 3 2.914 2.883 0.040 27.419 o
6 3 4 15.399 15.225 0.110 3.626 o
6 3 5 0.387 0.330 0.010 438.710 o
6 3 6 1.841 1.762 0.040 27.419 o
6 3 7 1.779 1.792 0.030 48.745 o
6 3 8 4.156 4.344 0.060 12.186 o
6 3 9 0.668 0.601 0.020 109.677 o
6 3 10 0.771 0.781 0.030 48.745 o
6 3 11 0.237 0.230 0.010 438.710 o
6 4 0 2.499 2.472 0.030 48.745 o
6 4 1 13.661 13.503 0.060 12.186 o
6 4 2 2.669 2.633 0.030 48.745 o
6 4 3 14.689 14.814 0.100 4.387 o
6 4 4 3.428 3.453 0.040 27.419 o
6 4 5 0.951 0.871 0.030 48.745 o
6 4 6 1.338 1.311 0.030 48.745 o
6 4 7 0.912 0.921 0.030 48.745 o
6 4 8 0.174 0.160 0.010 438.710 o
6 4 9 0.614 0.631 0.030 48.745 o
6 4 10 0.405 0.400 0.020 109.677 o
6 4 11 1.792 1.722 0.040 27.419 o
6 5 0 4.310 4.174 0.040 27.419 o
6 5 1 0.837 0.861 0.030 48.745 o
6 5 2 1.646 1.572 0.030 48.745 o
6 5 3 4.174 4.044 0.050 17.548 o
6 5 4 9.348 9.339 0.080 6.855 o
6 5 5 1.549 1.542 0.030 48.745 o
6 5 6 2.011 2.102 0.040 27.419 o
6 5 7 1.253 1.281 0.030 48.745 o
6 5 8 3.142 3.143 0.050 17.548 o
6 5 9 0.688 0.761 0.030 48.745 o
6 5 10 0.493 0.490 0.020 109.677 o
6 5 11 0.286 0.280 0.010 438.710 o
6 6 0 9.087 8.518 0.100 4.387 o
6 6 1 2.820 2.733 0.050 17.548 o
6 6 2 0.466 0.430 0.030 48.745 o
6 6 3 1.785 1.772 0.050 17.548 o
6 6 4 1.884 1.942 0.050 17.548 o
6 6 5 0.333 0.290 0.020 109.677 o
6 6 6 0.063 0.040 0.230 0.829 o
6 6 7 0.136 0.160 0.020 109.677 o
6 6 8 0.248 0.230 0.020 109.677 o
6 6 9 0.008 0.050 0.390 0.288 o
6 6 10 0.218 0.200 0.020 109.677 o
6 6 11 0.392 0.370 0.030 48.745 o
7 0 1 8.220 8.538 0.070 8.953 o
7 0 2 4.985 5.145 0.040 27.419 o
7 0 3 5.420 5.275 0.050 17.548 o
7 0 4 0.198 0.180 0.010 438.710 o
7 0 5 6.016 6.296 0.070 8.953 o
7 0 6 0.025 0.050 0.310 0.457 o
7 0 7 11.801 11.992 0.140 2.238 o
7 0 8 1.305 1.241 0.040 27.419 o
7 0 9 0.022 0.050 0.320 0.428 o
7 0 10 0.089 0.090 0.020 109.677 o
7 0 11 0.429 0.480 0.030 48.745 o
7 1 0 30.643 31.531 0.180 1.354 o
7 1 1 3.193 3.193 0.040 27.419 o
7 1 2 1.458 1.451 0.020 109.677 o
7 1 3 0.588 0.611 0.020 109.677 o
7 1 4 4.401 4.614 0.050 17.548 o
7 1 5 2.051 2.062 0.030 48.745 o
7 1 6 0.901 1.021 0.030 48.745 o
7 1 7 0.047 0.080 0.020 109.677 o
7 1 8 1.254 1.241 0.030 48.745 o
7 1 9 0.088 0.100 0.010 438.710 o
7 1 10 0.452 0.410 0.020 109.677 o
7 1 11 0.351 0.360 0.010 438.710 o
7 2 0 0.231 0.280 0.010 438.710 o
7 2 1 0.014 0.010 0.170 1.518 o
7 2 2 0.135 0.170 0.010 438.710 o
7 2 3 2.689 2.723 0.040 27.419 o
7 2 4 8.369 8.348 0.070 8.953 o
7 2 5 0.864 0.871 0.030 48.745 o
7 2 6 0.996 0.951 0.030 48.745 o
7 2 7 2.519 2.603 0.040 27.419 o
7 2 8 2.837 2.943 0.050 17.548 o
7 2 9 0.323 0.280 0.010 438.710 o
7 2 10 0.344 0.390 0.010 438.710 o
7 2 11 0.222 0.220 0.010 438.710 o
7 3 0 1.356 1.381 0.030 48.745 o
7 3 1 10.671 10.730 0.080 6.855 o
7 3 2 1.465 1.451 0.030 48.745 o
7 3 3 14.027 14.044 0.110 3.626 o
7 3 4 1.868 1.842 0.030 48.745 o
7 3 5 0.716 0.651 0.030 48.745 o
7 3 6 1.368 1.361 0.030 48.745 o
7 3 7 0.303 0.320 0.010 438.710 o
7 3 8 0.182 0.180 0.010 438.710 o
7 3 9 0.580 0.581 0.030 48.745 o
7 3 10 0.207 0.270 0.010 438.710 o
7 3 11 1.675 1.632 0.030 48.745 o
7 4 0 1.010 1.001 0.030 48.745 o
7 4 1 1.361 1.351 0.030 48.745 o
7 4 2 1.795 1.822 0.030 48.745 o
7 4 3 1.669 1.702 0.030 48.745 o
7 4 4 11.821 11.601 0.100 4.387 o
7 4 5 0.326 0.340 0.010 438.710 o
7 4 6 1.521 1.471 0.030 48.745 o
7 4 7 0.448 0.450 0.020 109.677 o
7 4 8 2.887 3.053 0.050 17.548 o
7 4 9 0.624 0.551 0.030 48.745 o
7 4 10 0.737 0.781 0.030 48.745 o
7 4 11 0.133 0.140 0.010 438.710 o
7 5 0 5.976 5.836 0.060 12.186 o
7 5 1 3.201 3.183 0.040 27.419 o
7 5 2 0.046 0.100 0.030 48.745 o
7 5 3 2.869 2.863 0.040 27.419 o
7 5 4 1.461 1.431 0.030 48.745 o
7 5 5 0.054 0.080 0.020 109.677 o
7 5 6 0.003 0.010 0.200 1.097 o
7 5 7 0.023 0.010 0.290 0.522 o
7 5 8 0.087 0.090 0.020 109.677 o
7 5 9 0.035 0.040 0.280 0.560 o
7 5 10 0.157 0.160 0.010 438.710 o
7 5 11 0.510 0.480 0.020 109.677 o
7 6 0 0.527 0.521 0.020 109.677 o
7 6 1 2.315 2.212 0.040 27.419 o
7 6 2 1.075 1.101 0.030 48.745 o
7 6 3 2.196 2.152 0.040 27.419 o
7 6 4 0.349 0.360 0.010 438.710 o
7 6 5 1.874 1.872 0.040 27.419 o
7 6 6 0.330 0.320 0.010 438.710 o
7 6 7 3.499 3.563 0.050 17.548 o
7 6 8 0.717 0.711 0.030 48.745 o
7 6 9 0.041 -0.010 0.290 0.522 o
7 6 10 0.003 -0.030 0.270 0.602 o
7 7 1 1.204 1.291 0.050 17.548 o
7 7 2 1.389 1.391 0.050 17.548 o
7 7 3 0.013 0.000 0.390 0.288 o
7 7 4 1.998 1.932 0.060 12.186 o
7 7 5 1.167 1.111 0.050 17.548 o
7 7 6 0.801 0.881 0.050 17.548 o
7 7 7 0.232 0.290 0.020 109.677 o
7 7 8 0.722 0.701 0.040 27.419 o
7 7 9 0.143 0.170 0.020 109.677 o
7 7 10 0.205 0.210 0.020 109.677 o
8 0 0 17.100 17.227 0.140 2.238 o
8 0 1 2.280 2.282 0.040 27.419 o
8 0 2 0.792 0.821 0.030 48.745 o
8 0 3 0.713 0.801 0.030 48.745 o
8 0 4 2.715 2.743 0.050 17.548 o
8 0 5 0.995 0.901 0.030 48.745 o
8 0 6 0.447 0.510 0.020 109.677 o
8 0 7 0.030 0.060 0.330 0.403 o
8 0 8 0.692 0.661 0.030 48.745 o
8 0 9 0.027 0.010 0.330 0.403 o
8 0 10 0.280 0.250 0.010 438.710 o
8 0 11 0.293 0.290 0.010 438.710 o
8 1 0 1.415 1.501 0.030 48.745 o
8 1 1 1.003 0.971 0.030 48.745 o
8 1 2 0.600 0.621 0.020 109.677 o
8 1 3 3.205 3.183 0.040 27.419 o
8 1 4 2.767 2.923 0.040 27.419 o
8 1 5 1.933 1.982 0.040 27.419 o
8 1 6 0.708 0.781 0.030 48.745 o
8 1 7 3.507 3.533 0.050 17.548 o
8 1 8 1.711 1.662 0.040 27.419 o
8 1 9 0.167 0.220 0.010 438.710 o
8 1 10 0.058 0.020 0.280 0.560 o
8 1 11 0.260 0.280 0.010 438.710 o
8 2 0 4.784 4.685 0.050 17.548 o
8 2 1 6.495 6.566 0.060 12.186 o
8 2 2 1.466 1.562 0.030 48.745 o
8 2 3 5.059 5.145 0.050 17.548 o
8 2 4 2.960 3.073 0.040 27.419 o
8 2 5 0.504 0.561 0.020 109.677 o
8 2 6 0.256 0.260 0.010 438.710 o
8 2 7 0.757 0.831 0.030 48.745 o
8 2 8 0.090 0.120 0.010 438.710 o
8 2 9 0.212 0.190 0.010 438.710 o
8 2 10 0.351 0.390 0.020 109.677 o
8 2 11 0.766 0.791 0.030 48.745 o
8 3 0 1.138 1.131 0.030 48.745 o
8 3 1 0.398 0.390 0.010 438.710 o
8 3 2 0.870 0.871 0.030 48.745 o
8 3 3 1.758 1.842 0.030 48.745 o
8 3 4 7.116 7.047 0.070 8.953 o
8 3 5 0.515 0.521 0.020 109.677 o
8 3 6 1.051 1.101 0.030 48.745 o
8 3 7 0.760 0.811 0.030 48.745 o
8 3 8 2.085 2.092 0.040 27.419 o
8 3 9 0.386 0.370 0.020 109.677 o
8 3 10 0.403 0.400 0.020 109.677 o
8 3 11 0.141 0.140 0.010 438.710 o
8 4 0 4.064 4.164 0.050 17.548 o
8 4 1 3.031 2.933 0.040 27.419 o
8 4 2 0.006 0.030 0.260 0.649 o
8 4 3 3.035 2.953 0.040 27.419 o
8 4 4 1.188 1.131 0.030 48.745 o
8 4 5 0.014 0.020 0.280 0.560 o
8 4 6 0.033 0.090 0.030 48.745 o
8 4 7 0.020 0.030 0.160 1.714 o
8 4 8 0.040 0.050 0.020 109.677 o
8 4 9 0.063 0.050 0.200 1.097 o
8 4 10 0.123 0.170 0.010 438.710 o
8 5 0 1.030 0.991 0.030 48.745 o
8 5 1 1.282 1.351 0.030 48.745 o
8 5 2 0.721 0.721 0.030 48.745 o
8 5 3 2.218 2.212 0.040 27.419 o
8 5 4 0.848 0.791 0.030 48.745 o
8 5 5 1.389 1.341 0.030 48.745 o
8 5 6 0.576 0.601 0.030 48.745 o
8 5 7 2.330 2.362 0.040 27.419 o
8 5 8 0.882 0.881 0.030 48.745 o
8 5 9 0.090 0.090 0.020 109.677 o
8 5 10 0.008 0.020 0.260 0.649 o
8 6 0 8.184 8.428 0.090 5.416 o
8 6 1 1.574 1.501 0.040 27.419 o
8 6 2 1.236 1.201 0.030 48.745 o
8 6 3 0.037 0.020 0.280 0.560 o
8 6 4 2.033 1.982 0.040 27.419 o
8 6 5 0.921 1.021 0.030 48.745 o
8 6 6 0.574 0.591 0.030 48.745 o
8 6 7 0.318 0.310 0.020 109.677 o
8 6 8 0.549 0.561 0.020 109.677 o
8 6 9 0.122 0.130 0.010 438.710 o
8 6 10 0.211 0.240 0.020 109.677 o
8 7 0 0.090 0.140 0.020 109.677 o
8 7 1 0.665 0.561 0.030 48.745 o
8 7 2 0.216 0.220 0.010 438.710 o
8 7 3 0.768 0.781 0.030 48.745 o
8 7 4 0.370 0.350 0.020 109.677 o
8 7 5 0.638 0.651 0.030 48.745 o
8 7 6 0.121 0.150 0.020 109.677 o
8 7 7 1.291 1.261 0.040 27.419 o
8 7 8 0.353 0.360 0.010 438.710 o
8 7 9 0.009 0.000 0.270 0.602 o
8 8 0 0.947 0.891 0.050 17.548 o
8 8 1 0.881 0.871 0.040 27.419 o
8 8 2 0.142 0.160 0.020 109.677 o
8 8 3 0.934 0.961 0.050 17.548 o
8 8 4 0.365 0.350 0.020 109.677 o
8 8 5 0.036 0.010 0.410 0.261 o
8 8 6 0.014 0.000 0.410 0.261 o
8 8 7 0.073 0.030 0.410 0.261 o
8 8 8 0.008 0.010 0.390 0.288 o
9 0 1 0.003 -0.020 0.300 0.487 o
9 0 2 0.078 0.090 0.020 109.677 o
9 0 3 1.051 1.021 0.040 27.419 o
9 0 4 3.724 3.884 0.060 12.186 o
9 0 5 0.399 0.350 0.020 109.677 o
9 0 6 0.426 0.450 0.020 109.677 o
9 0 7 1.172 1.151 0.040 27.419 o
9 0 8 1.284 1.341 0.040 27.419 o
9 0 9 0.133 0.120 0.020 109.677 o
9 0 10 0.167 0.190 0.010 438.710 o
9 1 0 3.663 3.604 0.040 27.419 o
9 1 1 3.597 3.634 0.040 27.419 o
9 1 2 0.600 0.641 0.020 109.677 o
9 1 3 2.982 3.133 0.040 27.419 o
9 1 4 1.696 1.672 0.040 27.419 o
9 1 5 0.222 0.260 0.010 438.710 o
9 1 6 0.096 0.050 0.200 1.097 o
9 1 7 0.327 0.320 0.010 438.710 o
9 1 8 0.062 0.030 0.290 0.522 o
9 1 9 0.104 0.070 0.010 438.710 o
9 1 10 0.193 0.200 0.010 438.710 o
9 2 0 1.412 1.401 0.030 48.745 o
9 2 1 0.233 0.230 0.010 438.710 o
9 2 2 0.445 0.410 0.010 438.710 o
9 2 3 1.927 1.912 0.040 27.419 o
9 2 4 3.057 3.133 0.040 27.419 o
9 2 5 0.877 0.791 0.030 48.745 o
9 2 6 0.721 0.831 0.030 48.745 o
9 2 7 1.187 1.191 0.030 48.745 o
9 2 8 1.314 1.251 0.040 27.419 o
9 2 9 0.212 0.220 0.010 438.710 o
9 2 10 0.134 0.110 0.010 438.710 o
9 3 0 5.018 5.275 0.060 12.186 o
9 3 1 1.647 1.632 0.030 48.745 o
9 3 2 0.186 0.190 0.010 438.710 o
9 3 3 1.181 1.141 0.030 48.745 o
9 3 4 1.069 1.061 0.030 48.745 o
9 3 5 0.139 0.120 0.010 438.710 o
9 3 6 0.031 0.040 0.200 1.097 o
9 3 7 0.047 0.030 0.200 1.097 o
9 3 8 0.136 0.130 0.010 438.710 o
9 3 9 0.006 0.020 0.280 0.560 o
9 3 10 0.117 0.090 0.020 109.677 o
9 4 0 0.416 0.420 0.020 109.677 o
9 4 1 1.040 1.071 0.030 48.745 o
9 4 2 0.440 0.480 0.020 109.677 o
9 4 3 1.429 1.401 0.030 48.745 o
9 4 4 0.585 0.541 0.020 109.677 o
9 4 5 1.052 1.041 0.030 48.745 o
9 4 6 0.275 0.290 0.010 438.710 o
9 4 7 1.978 2.042 0.040 27.419 o
9 4 8 0.608 0.621 0.030 48.745 o
9 4 9 0.037 0.050 0.280 0.560 o
9 4 10 0.003 -0.030 0.270 0.602 o
9 5 0 5.903 6.296 0.070 8.953 o
9 5 1 1.449 1.361 0.030 48.745 o
9 5 2 0.904 0.981 0.030 48.745 o
9 5 3 0.112 0.060 0.020 109.677 o
9 5 4 1.642 1.602 0.040 27.419 o
9 5 5 0.617 0.651 0.030 48.745 o
9 5 6 0.362 0.380 0.010 438.710 o
9 5 7 0.277 0.280 0.010 438.710 o
9 5 8 0.372 0.380 0.020 109.677 o
9 5 9 0.085 0.050 0.200 1.097 o
9 6 0 0.177 0.180 0.010 438.710 o
9 6 1 0.407 0.420 0.020 109.677 o
9 6 2 0.152 0.150 0.010 438.710 o
9 6 3 0.721 0.771 0.030 48.745 o
9 6 4 0.534 0.500 0.020 109.677 o
9 6 5 0.479 0.450 0.020 109.677 o
9 6 6 0.177 0.160 0.010 438.710 o
9 6 7 0.943 0.941 0.030 48.745 o
9 6 8 0.379 0.400 0.010 438.710 o
9 6 9 0.022 0.030 0.270 0.602 o
9 7 0 0.758 0.811 0.030 48.745 o
9 7 1 0.846 0.901 0.030 48.745 o
9 7 2 0.088 0.050 0.200 1.097 o
9 7 3 1.003 0.991 0.030 48.745 o
9 7 4 0.296 0.300 0.010 438.710 o
9 7 5 0.024 -0.040 0.290 0.522 o
9 7 6 0.017 0.040 0.280 0.560 o
9 7 7 0.045 0.030 0.280 0.560 o
9 7 8 0.003 0.010 0.270 0.602 o
9 8 0 0.558 0.581 0.020 109.677 o
9 8 1 0.168 0.170 0.010 438.710 o
9 8 2 0.375 0.400 0.020 109.677 o
9 8 3 0.430 0.380 0.020 109.677 o
9 8 4 1.383 1.421 0.040 27.419 o
9 8 5 0.201 0.200 0.010 438.710 o
9 8 6 0.269 0.290 0.010 438.710 o
9 8 7 0.046 0.030 0.200 1.097 o
9 8 8 0.392 0.370 0.020 109.677 o
9 9 0 0.132 0.110 0.020 109.677 o
9 9 1 0.575 0.661 0.040 27.419 o
9 9 2 0.178 0.160 0.020 109.677 o
9 9 3 0.692 0.791 0.040 27.419 o
9 9 4 0.193 0.220 0.020 109.677 o
9 9 5 0.073 0.060 0.400 0.274 o
9 9 6 0.043 0.060 0.220 0.906 o
9 9 7 0.083 0.070 0.380 0.304 o
10 0 0 0.974 0.931 0.040 27.419 o
10 0 1 2.249 2.262 0.040 27.419 o
10 0 2 0.070 0.050 0.320 0.428 o
10 0 3 3.112 3.133 0.050 17.548 o
10 0 4 0.504 0.470 0.020 109.677 o
10 0 5 0.063 0.070 0.330 0.403 o
10 0 6 0.152 0.190 0.010 438.710 o
10 0 7 0.008 0.000 0.330 0.403 o
10 0 8 0.004 0.040 0.320 0.428 o
10 0 9 0.116 0.100 0.020 109.677 o
10 0 10 0.048 0.090 0.510 0.169 o
10 1 0 0.114 0.100 0.010 438.710 o
10 1 1 0.031 0.020 0.270 0.602 o
10 1 2 0.197 0.200 0.010 438.710 o
10 1 3 0.593 0.611 0.020 109.677 o
10 1 4 2.697 2.713 0.040 27.419 o
10 1 5 0.184 0.130 0.010 438.710 o
10 1 6 0.332 0.330 0.010 438.710 o
10 1 7 0.493 0.500 0.020 109.677 o
10 1 8 0.835 0.891 0.030 48.745 o
10 1 9 0.111 0.070 0.020 109.677 o
10 1 10 0.147 0.180 0.020 109.677 o
10 2 0 3.297 3.373 0.050 17.548 o
10 2 1 1.099 1.071 0.030 48.745 o
10 2 2 0.105 0.090 0.030 48.745 o
10 2 3 0.832 0.851 0.030 48.745 o
10 2 4 0.706 0.771 0.030 48.745 o
10 2 5 0.077 0.060 0.020 109.677 o
10 2 6 0.021 0.010 0.280 0.560 o
10 2 7 0.023 0.020 0.280 0.560 o
10 2 8 0.090 0.090 0.010 438.710 o
10 2 9 0.006 -0.020 0.280 0.560 o
10 2 10 0.075 0.040 0.370 0.320 o
10 3 0 0.048 0.070 0.020 109.677 o
10 3 1 0.875 0.871 0.030 48.745 o
10 3 2 0.273 0.320 0.010 438.710 o
10 3 3 0.818 0.851 0.030 48.745 o
10 3 4 0.298 0.310 0.010 438.710 o
10 3 5 0.782 0.781 0.030 48.745 o
10 3 6 0.066 0.110 0.020 109.677 o
10 3 7 1.593 1.552 0.040 27.419 o
10 3 8 0.354 0.290 0.010 438.710 o
10 3 9 0.004 0.050 0.270 0.602 o
10 4 0 4.873 5.095 0.070 8.953 o
10 4 1 0.624 0.611 0.020 109.677 o
10 4 2 0.520 0.500 0.020 109.677 o
10 4 3 0.039 0.030 0.280 0.560 o
10 4 4 0.920 1.011 0.030 48.745 o
10 4 5 0.420 0.400 0.020 109.677 o
10 4 6 0.294 0.310 0.010 438.710 o
10 4 7 0.079 0.080 0.020 109.677 o
10 4 8 0.302 0.260 0.010 438.710 o
10 4 9 0.039 -0.020 0.190 1.215 o
10 5 0 0.070 0.060 0.020 109.677 o
10 5 1 0.330 0.340 0.010 438.710 o
10 5 2 0.090 0.100 0.020 109.677 o
10 5 3 0.507 0.480 0.020 109.677 o
10 5 4 0.401 0.380 0.020 109.677 o
10 5 5 0.380 0.360 0.020 109.677 o
10 5 6 0.099 0.090 0.020 109.677 o
10 5 7 0.784 0.781 0.030 48.745 o
10 5 8 0.284 0.270 0.010 438.710 o
10 5 9 0.011 0.000 0.260 0.649 o
10 6 0 0.622 0.591 0.020 109.677 o
10 6 1 0.704 0.701 0.030 48.745 o
10 6 2 0.048 0.030 0.200 1.097 o
10 6 3 0.869 0.861 0.030 48.745 o
10 6 4 0.232 0.230 0.010 438.710 o
10 6 5 0.014 -0.010 0.290 0.522 o
10 6 6 0.014 0.000 0.290 0.522 o
10 6 7 0.025 0.030 0.200 1.097 o
10 6 8 0.002 0.000 0.270 0.602 o
10 7 0 0.362 0.370 0.020 109.677 o
10 7 1 0.145 0.130 0.020 109.677 o
10 7 2 0.315 0.320 0.010 438.710 o
10 7 3 0.295 0.320 0.010 438.710 o
10 7 4 1.271 1.281 0.040 27.419 o
10 7 5 0.133 0.140 0.010 438.710 o
10 7 6 0.212 0.190 0.010 438.710 o
10 7 7 0.037 0.020 0.200 1.097 o
10 7 8 0.337 0.340 0.010 438.710 o
10 8 0 0.115 0.100 0.020 109.677 o
10 8 1 0.527 0.510 0.020 109.677 o
10 8 2 0.146 0.160 0.010 438.710 o
10 8 3 0.678 0.741 0.030 48.745 o
10 8 4 0.160 0.170 0.010 438.710 o
10 8 5 0.064 0.030 0.200 1.097 o
10 8 6 0.042 0.050 0.190 1.215 o
10 8 7 0.065 0.050 0.010 438.710 o
10 9 0 0.003 0.010 0.200 1.097 o
10 9 1 0.025 0.040 0.280 0.560 o
10 9 2 0.001 0.000 0.280 0.560 o
10 9 3 0.074 0.070 0.020 109.677 o
10 9 4 0.165 0.180 0.010 438.710 o
10 9 5 0.054 0.020 0.280 0.560 o
10 9 6 0.017 0.030 0.190 1.215 o
10 10 0 0.579 0.591 0.040 27.419 o
10 10 1 0.101 0.120 0.020 109.677 o
10 10 2 0.086 0.070 0.400 0.274 o
10 10 3 0.001 -0.020 0.400 0.274 o
10 10 4 0.133 0.130 0.020 109.677 o
10 10 5 0.056 0.060 0.380 0.304 o
11 0 1 0.016 0.000 0.330 0.403 o
11 0 2 0.134 0.080 0.020 109.677 o
11 0 3 0.279 0.330 0.020 109.677 o
11 0 4 1.660 1.552 0.040 27.419 o
11 0 5 0.074 0.020 0.330 0.403 o
11 0 6 0.185 0.140 0.020 109.677 o
11 0 7 0.256 0.270 0.010 438.710 o
11 0 8 0.488 0.500 0.030 48.745 o
11 0 9 0.062 -0.010 0.310 0.457 o
11 1 0 1.205 1.331 0.030 48.745 o
11 1 1 0.909 0.921 0.030 48.745 o
11 1 2 0.016 0.030 0.200 1.097 o
11 1 3 0.975 0.961 0.030 48.745 o
11 1 4 0.368 0.380 0.010 438.710 o
11 1 5 0.007 0.020 0.280 0.560 o
11 1 6 0.007 0.030 0.280 0.560 o
11 1 7 0.012 0.040 0.280 0.560 o
11 1 8 0.014 0.040 0.280 0.560 o
11 1 9 0.026 0.050 0.260 0.649 o
11 2 0 0.098 0.120 0.020 109.677 o
11 2 1 0.260 0.240 0.010 438.710 o
11 2 2 0.069 0.030 0.200 1.097 o
11 2 3 0.490 0.510 0.020 109.677 o
11 2 4 0.469 0.420 0.020 109.677 o
11 2 5 0.353 0.370 0.010 438.710 o
11 2 6 0.096 0.100 0.020 109.677 o
11 2 7 0.718 0.741 0.030 48.745 o
11 2 8 0.301 0.280 0.010 438.710 o
11 2 9 0.015 0.040 0.260 0.649 o
11 3 0 2.851 2.793 0.050 17.548 o
11 3 1 0.404 0.440 0.020 109.677 o
11 3 2 0.252 0.230 0.010 438.710 o
11 3 3 0.076 0.090 0.020 109.677 o
11 3 4 0.528 0.541 0.030 48.745 o
11 3 5 0.193 0.180 0.010 438.710 o
11 3 6 0.143 0.150 0.010 438.710 o
11 3 7 0.034 0.030 0.280 0.560 o
11 3 8 0.161 0.120 0.010 438.710 o
11 4 0 0.007 0.020 0.280 0.560 o
11 4 1 0.266 0.230 0.010 438.710 o
11 4 2 0.050 0.040 0.170 1.518 o
11 4 3 0.320 0.320 0.010 438.710 o
11 4 4 0.250 0.270 0.010 438.710 o
11 4 5 0.289 0.260 0.010 438.710 o
11 4 6 0.038 0.050 0.200 1.097 o
11 4 7 0.609 0.541 0.030 48.745 o
11 4 8 0.186 0.150 0.010 438.710 o
11 5 0 0.655 0.631 0.030 48.745 o
11 5 1 0.473 0.521 0.020 109.677 o
11 5 2 0.050 0.080 0.280 0.560 o
11 5 3 0.504 0.521 0.020 109.677 o
11 5 4 0.206 0.220 0.010 438.710 o
11 5 5 0.012 -0.010 0.290 0.522 o
11 5 6 0.003 0.040 0.280 0.560 o
11 5 7 0.026 0.050 0.270 0.602 o
11 5 8 0.009 -0.020 0.260 0.649 o
11 6 0 0.246 0.250 0.010 438.710 o
11 6 1 0.067 0.090 0.010 438.710 o
11 6 2 0.192 0.210 0.010 438.710 o
11 6 3 0.220 0.240 0.010 438.710 o
11 6 4 0.879 0.881 0.030 48.745 o
11 6 5 0.098 0.100 0.020 109.677 o
11 6 6 0.145 0.160 0.010 438.710 o
11 6 7 0.050 0.040 0.190 1.215 o
11 7 0 0.112 0.120 0.020 109.677 o
11 7 1 0.411 0.410 0.020 109.677 o
11 7 2 0.096 0.090 0.010 438.710 o
11 7 3 0.546 0.521 0.030 48.745 o
11 7 4 0.118 0.130 0.010 438.710 o
11 7 5 0.044 0.080 0.020 109.677 o
11 7 6 0.028 0.060 0.270 0.602 o
11 7 7 0.043 0.060 0.260 0.649 o
11 8 0 0.001 0.000 0.280 0.560 o
11 8 1 0.019 -0.010 0.290 0.522 o
11 8 2 0.002 -0.020 0.290 0.522 o
11 8 3 0.064 0.070 0.020 109.677 o
11 8 4 0.160 0.160 0.010 438.710 o
11 8 5 0.044 0.060 0.190 1.215 o
11 8 6 0.018 0.030 0.260 0.649 o
11 9 0 0.515 0.531 0.020 109.677 o
11 9 1 0.098 0.100 0.010 438.710 o
11 9 2 0.076 0.060 0.020 109.677 o
11 9 3 0.002 -0.020 0.280 0.560 o
11 9 4 0.125 0.130 0.020 109.677 o
11 9 5 0.049 0.050 0.190 1.215 o
11 10 0 0.054 0.050 0.280 0.560 o
11 10 1 0.131 0.110 0.010 438.710 o
11 10 2 0.061 0.060 0.020 109.677 o
11 10 3 0.100 0.080 0.020 109.677 o
12 0 0 0.917 1.001 0.040 27.419 o
12 0 1 0.393 0.370 0.020 109.677 o
12 0 2 0.014 0.000 0.220 0.906 o
12 0 3 0.370 0.340 0.020 109.677 o
12 0 4 0.210 0.200 0.010 438.710 o
12 0 5 0.007 0.010 0.330 0.403 o
12 0 6 0.003 0.040 0.320 0.428 o
12 0 7 0.002 0.030 0.310 0.457 o
12 0 8 0.022 0.050 0.310 0.457 o
12 1 0 0.065 0.050 0.290 0.522 o
12 1 1 0.082 0.080 0.020 109.677 o
12 1 2 0.026 0.050 0.280 0.560 o
12 1 3 0.255 0.280 0.010 438.710 o
12 1 4 0.396 0.370 0.020 109.677 o
12 1 5 0.162 0.160 0.010 438.710 o
12 1 6 0.068 0.010 0.290 0.522 o
12 1 7 0.331 0.360 0.020 109.677 o
12 1 8 0.198 0.190 0.010 438.710 o
12 2 0 1.176 1.171 0.030 48.745 o
12 2 1 0.366 0.360 0.010 438.710 o
12 2 2 0.101 0.120 0.020 109.677 o
12 2 3 0.181 0.170 0.010 438.710 o
12 2 4 0.300 0.290 0.010 438.710 o
12 2 5 0.055 0.010 0.290 0.522 o
12 2 6 0.034 0.000 0.280 0.560 o
12 2 7 0.032 0.050 0.280 0.560 o
12 2 8 0.052 0.060 0.010 438.710 o
12 3 0 0.016 0.030 0.280 0.560 o
12 3 1 0.097 0.090 0.010 438.710 o
12 3 2 0.014 0.030 0.200 1.097 o
12 3 3 0.191 0.180 0.010 438.710 o
12 3 4 0.260 0.270 0.010 438.710 o
12 3 5 0.143 0.140 0.020 109.677 o
12 3 6 0.040 0.070 0.020 109.677 o
12 3 7 0.309 0.290 0.010 438.710 o
12 4 0 0.485 0.470 0.020 109.677 o
12 4 1 0.300 0.290 0.010 438.710 o
12 4 2 0.024 0.010 0.290 0.522 o
12 4 3 0.318 0.320 0.010 438.710 o
12 4 4 0.137 0.140 0.010 438.710 o
12 4 5 0.005 0.000 0.280 0.560 o
12 4 6 0.001 -0.010 0.280 0.560 o
12 4 7 0.012 0.030 0.270 0.602 o
12 5 0 0.146 0.120 0.020 109.677 o
12 5 1 0.019 0.020 0.290 0.522 o
12 5 2 0.091 0.100 0.020 109.677 o
12 5 3 0.151 0.130 0.010 438.710 o
12 5 4 0.504 0.551 0.020 109.677 o
12 5 5 0.071 0.060 0.280 0.560 o
12 5 6 0.084 0.080 0.280 0.560 o
12 5 7 0.062 0.030 0.260 0.649 o
12 6 0 0.137 0.150 0.010 438.710 o
12 6 1 0.273 0.270 0.010 438.710 o
12 6 2 0.058 0.050 0.210 0.995 o
12 6 3 0.335 0.380 0.020 109.677 o
12 6 4 0.093 0.080 0.020 109.677 o
12 6 5 0.023 0.030 0.200 1.097 o
12 6 6 0.010 0.010 0.270 0.602 o
12 7 0 0.001 -0.010 0.280 0.560 o
12 7 1 0.017 0.010 0.200 1.097 o
12 7 2 0.001 0.000 0.280 0.560 o
12 7 3 0.051 0.060 0.010 438.710 o
12 7 4 0.125 0.130 0.010 438.710 o
12 7 5 0.038 0.000 0.190 1.215 o
12 8 0 0.403 0.430 0.020 109.677 o
12 8 1 0.079 0.060 0.020 109.677 o
12 8 2 0.055 0.090 0.020 109.677 o
12 8 3 0.005 0.000 0.270 0.602 o
12 8 4 0.096 0.100 0.020 109.677 o
12 9 0 0.044 0.050 0.280 0.560 o
12 9 1 0.106 0.060 0.020 109.677 o
12 9 2 0.047 0.000 0.280 0.560 o
12 9 3 0.084 0.070 0.020 109.677 o
13 0 1 0.090 0.080 0.020 109.677 o
13 0 2 0.006 0.030 0.210 0.995 o
13 0 3 0.117 0.120 0.020 109.677 o
13 0 4 0.131 0.110 0.010 438.710 o
13 0 5 0.108 0.090 0.020 109.677 o
13 0 6 0.013 0.000 0.320 0.428 o
13 0 7 0.232 0.200 0.010 438.710 o
13 1 0 0.657 0.671 0.030 48.745 o
13 1 1 0.158 0.150 0.010 438.710 o
13 1 2 0.037 0.000 0.290 0.522 o
13 1 3 0.098 0.100 0.010 438.710 o
13 1 4 0.132 0.130 0.010 438.710 o
13 1 5 0.020 0.010 0.200 1.097 o
13 1 6 0.018 0.010 0.190 1.215 o
13 1 7 0.005 0.030 0.260 0.649 o
13 2 0 0.011 0.010 0.280 0.560 o
13 2 1 0.037 0.020 0.280 0.560 o
13 2 2 0.006 0.000 0.280 0.560 o
13 2 3 0.101 0.090 0.020 109.677 o
13 2 4 0.191 0.160 0.010 438.710 o
13 2 5 0.070 0.020 0.290 0.522 o
13 2 6 0.027 0.050 0.270 0.602 o
13 3 0 0.263 0.240 0.010 438.710 o
13 3 1 0.187 0.190 0.010 438.710 o
13 3 2 0.003 0.000 0.290 0.522 o
13 3 3 0.222 0.220 0.010 438.710 o
13 3 4 0.074 0.050 0.290 0.522 o
13 3 5 0.000 0.010 0.280 0.560 o
13 3 6 0.000 0.010 0.270 0.602 o
13 4 0 0.044 0.020 0.200 1.097 o
13 4 1 0.004 0.030 0.280 0.560 o
13 4 2 0.041 0.040 0.280 0.560 o
13 4 3 0.068 0.070 0.020 109.677 o
13 4 4 0.304 0.300 0.010 438.710 o
13 4 5 0.031 -0.030 0.320 0.428 o
13 4 6 0.040 0.050 0.190 1.215 o
13 5 0 0.121 0.130 0.010 438.710 o
13 5 1 0.160 0.170 0.010 438.710 o
13 5 2 0.025 -0.010 0.280 0.560 o
13 5 3 0.197 0.180 0.010 438.710 o
13 5 4 0.057 0.000 0.280 0.560 o
13 5 5 0.010 0.040 0.260 0.649 o
13 6 0 0.002 0.010 0.280 0.560 o
13 6 1 0.015 0.010 0.280 0.560 o
13 6 2 0.000 0.000 0.280 0.560 o
13 6 3 0.037 0.060 0.270 0.602 o
13 6 4 0.085 0.080 0.020 109.677 o
13 6 5 0.030 -0.010 0.270 0.602 o
13 7 0 0.285 0.260 0.010 438.710 o
13 7 1 0.049 0.050 0.020 109.677 o
13 7 2 0.033 0.020 0.160 1.714 o
13 7 3 0.006 0.000 0.190 1.215 o
13 7 4 0.061 0.040 0.270 0.602 o
13 8 0 0.026 0.010 0.270 0.602 o
13 8 1 0.071 0.060 0.020 109.677 o
13 8 2 0.028 0.050 0.260 0.649 o
14 0 0 0.360 0.330 0.020 109.677 o
14 0 1 0.064 0.010 0.330 0.403 o
14 0 2 0.020 0.010 0.210 0.995 o
14 0 3 0.039 -0.010 0.330 0.403 o
14 0 4 0.061 0.080 0.020 109.677 o
14 0 5 0.010 0.000 0.310 0.457 o
14 1 0 0.000 0.010 0.280 0.560 o
14 1 1 0.033 0.030 0.280 0.560 o
14 1 2 0.000 -0.050 0.290 0.522 o
14 1 3 0.049 0.020 0.280 0.560 o
14 1 4 0.078 0.060 0.280 0.560 o
14 1 5 0.046 0.020 0.270 0.602 o
14 2 0 0.179 0.170 0.010 438.710 o
14 2 1 0.092 0.100 0.020 109.677 o
14 2 2 0.004 -0.010 0.280 0.560 o
14 2 3 0.100 0.090 0.020 109.677 o
14 2 4 0.044 0.040 0.270 0.602 o
14 2 5 0.000 -0.020 0.270 0.602 o
14 3 0 0.010 0.010 0.280 0.560 o
14 3 1 0.001 0.000 0.280 0.560 o
14 3 2 0.016 0.020 0.280 0.560 o
14 3 3 0.032 0.040 0.280 0.560 o
14 3 4 0.158 0.110 0.020 109.677 o
14 3 5 0.016 -0.020 0.260 0.649 o
14 4 0 0.082 0.070 0.010 438.710 o
14 4 1 0.087 0.070 0.020 109.677 o
14 4 2 0.006 -0.010 0.280 0.560 o
14 4 3 0.114 0.110 0.020 109.677 o
14 4 4 0.029 -0.010 0.190 1.215 o
14 5 0 0.000 -0.030 0.280 0.560 o
14 5 1 0.009 -0.020 0.200 1.097 o
14 5 2 0.001 0.000 0.270 0.602 o
14 5 3 0.023 0.040 0.270 0.602 o
14 6 0 0.171 0.170 0.010 438.710 o
14 6 1 0.031 -0.010 0.190 1.215 o
14 6 2 0.016 0.000 0.270 0.602 o
15 0 1 0.013 -0.010 0.320 0.428 o
15 0 2 0.000 -0.040 0.320 0.428 o
15 0 3 0.022 0.040 0.300 0.487 o
15 1 0 0.111 0.080 0.280 0.560 o
15 1 1 0.040 0.030 0.190 1.215 o
15 1 2 0.004 0.030 0.260 0.649 o
15 1 3 0.039 0.030 0.190 1.215 o
15 2 0 0.005 0.020 0.270 0.602 o
15 2 1 0.003 0.000 0.270 0.602 o
15 2 2 0.004 -0.010 0.270 0.602 o
15 3 0 0.060 0.060 0.270 0.602 o
15 3 1 0.042 -0.020 0.270 0.602 o
15 3 2 0.003 0.010 0.260 0.649 o
15 4 0 0.000 0.010 0.190 1.215 o
;
_olex2_submission_special_instructions 'No special instructions were received'
loop_
_space_group_symop_id
_space_group_symop_operation_xyz
1 x,y,z
2 y,-x,-z
3 -y,x,-z
4 x+1/2,-y+1/2,-z
5 -x+1/2,y+1/2,-z
6 -x,-y,z
7 -y+1/2,-x+1/2,z
8 y+1/2,x+1/2,z
loop_
_atom_site_label
_atom_site_type_symbol
_atom_site_fract_x
_atom_site_fract_y
_atom_site_fract_z
_atom_site_U_iso_or_equiv
_atom_site_adp_type
_atom_site_occupancy
_atom_site_site_symmetry_order
_atom_site_refinement_flags_posn
_atom_site_refinement_flags_adp
_atom_site_refinement_flags_occupancy
O O 0.0 0.5 0.59626(3) 0.01513(3) Uani 1.000000 4 S T P
N N 0.14479(2) 0.64479(2) 0.17851(3) 0.02234(3) Uani 1.000000 2 S T P
H1 H 0.2541(4) 0.7541(4) 0.2856(5) 0.0447(12) Uani 1.000000 2 S T P
H2 H 0.1429(4) 0.6429(4) -0.0339(7) 0.0392(9) Uani 1.000000 2 S T P
C C 0.0 0.5 0.32826(4) 0.01195(3) Uani 1.000000 4 S T P
loop_
_atom_site_aniso_label
_atom_site_aniso_U_11
_atom_site_aniso_U_22
_atom_site_aniso_U_33
_atom_site_aniso_U_12
_atom_site_aniso_U_13
_atom_site_aniso_U_23
O 0.01940(4) 0.01940(4) 0.00658(4) 0.00169(7) -0.000000 0.000000
N 0.02882(5) 0.02882(5) 0.00936(4) -0.01503(7) 0.00005(3) 0.00005(3)
H1 0.0567(19) 0.0567(19) 0.021(2) -0.037(2) -0.0028(12) -0.0028(12)
H2 0.0468(14) 0.0468(14) 0.0240(17) -0.019(2) -0.0027(12) -0.0027(12)
C 0.01462(4) 0.01462(4) 0.00662(4) -0.00007(7) -0.000000 0.000000
loop_
_atom_type_symbol
_atom_type_scat_dispersion_real
_atom_type_scat_dispersion_imag
_atom_type_scat_Cromer_Mann_a1
_atom_type_scat_Cromer_Mann_a2
_atom_type_scat_Cromer_Mann_a3
_atom_type_scat_Cromer_Mann_a4
_atom_type_scat_Cromer_Mann_b1
_atom_type_scat_Cromer_Mann_b2
_atom_type_scat_Cromer_Mann_b3
_atom_type_scat_Cromer_Mann_b4
_atom_type_scat_Cromer_Mann_c
_atom_type_scat_source
_atom_type_scat_dispersion_source
C 0.00200 0.00100 2.31000 1.02000 1.58860 0.86500 20.84390 10.20750 0.56870
51.65120 0.21560 'International Tables Volume C Table 6.1.1.4 (pp. 500-502)'
custom
H 0.00000 0.00000 0.49300 0.32291 0.14019 0.04081 10.51090 26.12570 3.14236
57.79970 0.00304 'International Tables Volume C Table 6.1.1.4 (pp. 500-502)'
custom
N 0.00400 0.00200 12.21260 3.13220 2.01250 1.16630 0.00570 9.89330 28.99750
0.58260 -11.52900 'International Tables Volume C Table 6.1.1.4 (pp. 500-502)'
custom
O 0.00700 0.00400 3.04850 2.28680 1.54630 0.86700 13.27710 5.70110 0.32390
32.90890 0.25080 'International Tables Volume C Table 6.1.1.4 (pp. 500-502)'
custom
loop_
_diffrn_refln_index_h
_diffrn_refln_index_k
_diffrn_refln_index_l
_diffrn_refln_intensity_net
_diffrn_refln_intensity_u
0 0 1 13.43 0.05
0 0 2 134.84 0.83
0 0 3 13.63 0.08
0 0 4 29.83 0.18
0 0 5 49.07 0.36
0 0 6 15.8 0.19
0 0 7 0.27 0.03
0 0 8 14.75 0.25
0 0 9 3.66 0.1
0 0 10 2.9 0.09
0 0 11 0.07 0.26
0 0 12 3.81 0.11
0 0 13 0.18 0.02
1 0 1 149.93 0.18
1 0 2 153.21 0.27
1 0 3 87.74 0.19
1 0 4 2.22 0.03
1 0 5 19.08 0.1
1 0 6 0.53 0.03
1 0 7 43.28 0.34
1 0 8 6.15 0.07
1 0 9 -0.01 0.32
1 0 10 0.19 0.01
1 0 11 1.43 0.04
1 0 12 1.26 0.04
1 0 13 0 0.31
1 1 0 1008.37 1.92
1 1 1 283.48 0.51
1 1 2 52.93 0.12
1 1 3 11.61 0.06
1 1 4 43.49 0.18
1 1 5 17.01 0.11
1 1 6 2.97 0.03
1 1 7 5.7 0.08
1 1 8 4.5 0.07
1 1 9 1.31 0.05
1 1 10 3.26 0.07
1 1 11 1.65 0.05
1 1 12 2.47 0.06
1 1 13 0.23 0.02
2 0 0 155.94 0.3
2 0 1 197.72 0.26
2 0 2 8.3 0.03
2 0 3 49.67 0.13
2 0 4 20.15 0.09
2 0 5 0.56 0.03
2 0 6 1.47 0.02
2 0 7 0.27 0.01
2 0 8 0.05 0.2
2 0 9 0.36 0.02
2 0 10 1.08 0.04
2 0 11 4.34 0.07
2 0 12 1.07 0.04
2 0 13 -0.03 0.3
2 1 0 226.92 0.28
2 1 1 49.58 0.08
2 1 2 30.24 0.07
2 1 3 68.66 0.16
2 1 4 45.35 0.14
2 1 5 13.59 0.07
2 1 6 13.93 0.09
2 1 7 10.8 0.09
2 1 8 14.94 0.13
2 1 9 3.31 0.05
2 1 10 1.2 0.03
2 1 11 1.91 0.04
2 1 12 0.42 0.02
2 1 13 0.21 0.01
2 2 0 227.4 0.42
2 2 1 199.86 0.39
2 2 2 54.79 0.16
2 2 3 27.54 0.12
2 2 4 43.47 0.21
2 2 5 9.79 0.08
2 2 6 2.76 0.05
2 2 7 10.1 0.12
2 2 8 1.85 0.05
2 2 9 1.67 0.05
2 2 10 3.67 0.07
2 2 11 2.78 0.06
2 2 12 1.75 0.05
3 0 1 93.42 0.17
3 0 2 17.83 0.06
3 0 3 11.62 0.05
3 0 4 104.96 0.38
3 0 5 0.37 0.02
3 0 6 10.89 0.09
3 0 7 0.5 0.02
3 0 8 15.59 0.16
3 0 9 4.27 0.06
3 0 10 4.84 0.07
3 0 11 0.41 0.02
3 0 12 0.04 0.17
3 1 0 29.12 0.07
3 1 1 142.36 0.23
3 1 2 14.88 0.05
3 1 3 66.21 0.18
3 1 4 14.52 0.07
3 1 5 1.67 0.03
3 1 6 5.24 0.05
3 1 7 1.54 0.03
3 1 8 0.47 0.02
3 1 9 1.49 0.03
3 1 10 1.08 0.03
3 1 11 5.42 0.07
3 1 12 0.59 0.03
3 2 0 17.41 0.05
3 2 1 5.13 0.03
3 2 2 11.01 0.04
3 2 3 25.65 0.09
3 2 4 13.67 0.07
3 2 5 7.64 0.05
3 2 6 3.05 0.04
3 2 7 16.15 0.13
3 2 8 7.06 0.07
3 2 9 0.68 0.03
3 2 10 0.12 0.02
3 2 11 0.95 0.03
3 2 12 0.41 0.02
3 3 0 219.52 0.62
3 3 1 8.13 0.05
3 3 2 7.96 0.06
3 3 3 0.51 0.03
3 3 4 15.79 0.12
3 3 5 13.38 0.09
3 3 6 5.59 0.07
3 3 7 0.15 0.02
3 3 8 5.63 0.09
3 3 9 0.99 0.05
3 3 10 1.5 0.05
3 3 11 0.31 0.02
3 3 12 1.98 0.05
4 0 0 5.51 0.06
4 0 1 97.62 0.24
4 0 2 7.68 0.04
4 0 3 71.92 0.25
4 0 4 5.92 0.05
4 0 5 2.61 0.04
4 0 6 7.8 0.07
4 0 7 0.16 0.01
4 0 8 1.12 0.04
4 0 9 2.14 0.05
4 0 10 0.42 0.02
4 0 11 6.01 0.09
4 0 12 0.23 0.01
4 1 0 7.14 0.04
4 1 1 11.66 0.04
4 1 2 2.75 0.03
4 1 3 13.13 0.06
4 1 4 43.02 0.18
4 1 5 1.52 0.03
4 1 6 5.75 0.05
4 1 7 3.4 0.04
4 1 8 10.12 0.1
4 1 9 1.87 0.04
4 1 10 1.81 0.04
4 1 11 0.57 0.02
4 1 12 0.03 0.28
4 2 0 93.4 0.22
4 2 1 25.72 0.08
4 2 2 5.44 0.03
4 2 3 4.23 0.03
4 2 4 16.61 0.09
4 2 5 5.31 0.03
4 2 6 1.13 0.03
4 2 7 1.7 0.03
4 2 8 1.86 0.04
4 2 9 0.39 0.02
4 2 10 1.43 0.04
4 2 11 1.2 0.03
4 2 12 1.23 0.03
4 3 0 3.26 0.03
4 3 1 20.6 0.08
4 3 2 18.74 0.08
4 3 3 16.82 0.08
4 3 4 0.31 0.02
4 3 5 13.27 0.09
4 3 6 1.15 0.03
4 3 7 24.11 0.2
4 3 8 3.04 0.04
4 3 9 0.21 0.01
4 3 10 0.25 0.01
4 3 11 1.05 0.03
4 3 12 0.74 0.03
4 4 0 83.03 0.39
4 4 1 4.76 0.05
4 4 2 4.01 0.05
4 4 3 0.16 0.01
4 4 4 8.7 0.06
4 4 5 5.58 0.07
4 4 6 2.58 0.05
4 4 7 0.12 0.02
4 4 8 2.98 0.06
4 4 9 0.45 0.02
4 4 10 0.74 0.05
4 4 11 0.35 0.02
4 4 12 1.18 0.05
5 0 1 0.1 0.01
5 0 2 0.09 0.02
5 0 3 8.53 0.06
5 0 4 17.98 0.11
5 0 5 1.89 0.04
5 0 6 1.99 0.04
5 0 7 6.36 0.08
5 0 8 5.97 0.08
5 0 9 0.55 0.03
5 0 10 0.53 0.03
5 0 11 0.45 0.02
5 0 12 0.09 0.02
5 1 0 42.29 0.15
5 1 1 30.35 0.1
5 1 2 8.27 0.05
5 1 3 10.23 0.06
5 1 4 15.48 0.09
5 1 5 3.4 0.04
5 1 6 0.77 0.03
5 1 7 3.04 0.04
5 1 8 0.84 0.03
5 1 9 0.59 0.02
5 1 10 1.57 0.04
5 1 11 1.77 0.04
5 1 12 0.82 0.03
5 2 0 21.44 0.08
5 2 1 7.21 0.04
5 2 2 7.42 0.04
5 2 3 21.37 0.1
5 2 4 7.59 0.06
5 2 5 9.18 0.07
5 2 6 6.19 0.06
5 2 7 10.25 0.1
5 2 8 6.63 0.07
5 2 9 1.36 0.03
5 2 10 0.12 0.01
5 2 11 1.26 0.03
5 2 12 0.41 0.01
5 3 0 43.2 0.16
5 3 1 11.86 0.06
5 3 2 2.26 0.03
5 3 3 3.38 0.03
5 3 4 8.52 0.06
5 3 5 2.42 0.03
5 3 6 0.57 0.02
5 3 7 0.81 0.03
5 3 8 1.07 0.03
5 3 9 0.18 0.01
5 3 10 0.86 0.03
5 3 11 0.82 0.03
5 3 12 0.71 0.03
5 4 0 2.89 0.03
5 4 1 0.48 0.02
5 4 2 0.69 0.03
5 4 3 5.74 0.03
5 4 4 8.46 0.07
5 4 5 2.6 0.04
5 4 6 1.59 0.03
5 4 7 5.1 0.06
5 4 8 3.62 0.05
5 4 9 0.46 0.02
5 4 10 0.25 0.01
5 4 11 0.48 0.02
5 4 12 0.11 0.01
5 5 0 6.77 0.07
5 5 1 15.65 0.14
5 5 2 5.01 0.04
5 5 3 10.28 0.11
5 5 4 6.97 0.09
5 5 5 1.67 0.05
5 5 6 0.82 0.04
5 5 7 2.44 0.06
5 5 8 0.25 0.02
5 5 9 0.51 0.03
5 5 10 0.82 0.05
5 5 11 1.41 0.05
6 0 0 61.56 0.41
6 0 1 4.47 0.04
6 0 2 2.56 0.03
6 0 3 0.23 0.01
6 0 4 7.77 0.07
6 0 5 4.39 0.05
6 0 6 1.96 0.04
6 0 7 0.03 0.33
6 0 8 2.36 0.05
6 0 9 0.27 0.01
6 0 10 0.74 0.04
6 0 11 0.44 0.02
6 0 12 1.02 0.03
6 1 0 5.33 0.04
6 1 1 5.69 0.04
6 1 2 4.7 0.04
6 1 3 10.53 0.07
6 1 4 2.92 0.04
6 1 5 6.46 0.06
6 1 6 1.92 0.03
6 1 7 10.92 0.11
6 1 8 3.31 0.05
6 1 9 0.38 0.02
6 1 10 -0.01 0.28
6 1 11 0.73 0.03
6 1 12 0.32 0.01
6 2 0 23.48 0.11
6 2 1 13.77 0.08
6 2 2 2.85 0.03
6 2 3 6.21 0.04
6 2 4 7.58 0.06
6 2 5 1.55 0.03
6 2 6 0.31 0.01
6 2 7 1.3 0.03
6 2 8 0.61 0.02
6 2 9 0.25 0.01
6 2 10 0.84 0.03
6 2 11 1.18 0.03
6 2 12 0.55 0.03
6 3 0 0.04 0.23
6 3 1 0.89 0.03
6 3 2 0.92 0.03
6 3 3 2.88 0.04
6 3 4 15.21 0.11
6 3 5 0.33 0.01
6 3 6 1.76 0.04
6 3 7 1.79 0.03
6 3 8 4.34 0.06
6 3 9 0.6 0.02
6 3 10 0.78 0.03
6 3 11 0.23 0.01
6 4 0 2.47 0.03
6 4 1 13.49 0.06
6 4 2 2.63 0.03
6 4 3 14.8 0.1
6 4 4 3.45 0.04
6 4 5 0.87 0.03
6 4 6 1.31 0.03
6 4 7 0.92 0.03
6 4 8 0.16 0.01
6 4 9 0.63 0.03
6 4 10 0.4 0.02
6 4 11 1.72 0.04
6 5 0 4.17 0.04
6 5 1 0.86 0.03
6 5 2 1.57 0.03
6 5 3 4.04 0.05
6 5 4 9.33 0.08
6 5 5 1.54 0.03
6 5 6 2.1 0.04
6 5 7 1.28 0.03
6 5 8 3.14 0.05
6 5 9 0.76 0.03
6 5 10 0.49 0.02
6 5 11 0.28 0.01
6 6 0 8.51 0.1
6 6 1 2.73 0.05
6 6 2 0.43 0.03
6 6 3 1.77 0.05
6 6 4 1.94 0.05
6 6 5 0.29 0.02
6 6 6 0.04 0.23
6 6 7 0.16 0.02
6 6 8 0.23 0.02
6 6 9 0.05 0.39
6 6 10 0.2 0.02
6 6 11 0.37 0.03
7 0 1 8.53 0.07
7 0 2 5.14 0.04
7 0 3 5.27 0.05
7 0 4 0.18 0.01
7 0 5 6.29 0.07
7 0 6 0.05 0.31
7 0 7 11.98 0.14
7 0 8 1.24 0.04
7 0 9 0.05 0.32
7 0 10 0.09 0.02
7 0 11 0.48 0.03
7 1 0 31.5 0.18
7 1 1 3.19 0.04
7 1 2 1.45 0.02
7 1 3 0.61 0.02
7 1 4 4.61 0.05
7 1 5 2.06 0.03
7 1 6 1.02 0.03
7 1 7 0.08 0.02
7 1 8 1.24 0.03
7 1 9 0.1 0.01
7 1 10 0.41 0.02
7 1 11 0.36 0.01
7 2 0 0.28 0.01
7 2 1 0.01 0.17
7 2 2 0.17 0.01
7 2 3 2.72 0.04
7 2 4 8.34 0.07
7 2 5 0.87 0.03
7 2 6 0.95 0.03
7 2 7 2.6 0.04
7 2 8 2.94 0.05
7 2 9 0.28 0.01
7 2 10 0.39 0.01
7 2 11 0.22 0.01
7 3 0 1.38 0.03
7 3 1 10.72 0.08
7 3 2 1.45 0.03
7 3 3 14.03 0.11
7 3 4 1.84 0.03
7 3 5 0.65 0.03
7 3 6 1.36 0.03
7 3 7 0.32 0.01
7 3 8 0.18 0.01
7 3 9 0.58 0.03
7 3 10 0.27 0.01
7 3 11 1.63 0.03
7 4 0 1 0.03
7 4 1 1.35 0.03
7 4 2 1.82 0.03
7 4 3 1.7 0.03
7 4 4 11.59 0.1
7 4 5 0.34 0.01
7 4 6 1.47 0.03
7 4 7 0.45 0.02
7 4 8 3.05 0.05
7 4 9 0.55 0.03
7 4 10 0.78 0.03
7 4 11 0.14 0.01
7 5 0 5.83 0.06
7 5 1 3.18 0.04
7 5 2 0.1 0.03
7 5 3 2.86 0.04
7 5 4 1.43 0.03
7 5 5 0.08 0.02
7 5 6 0.01 0.2
7 5 7 0.01 0.29
7 5 8 0.09 0.02
7 5 9 0.04 0.28
7 5 10 0.16 0.01
7 5 11 0.48 0.02
7 6 0 0.52 0.02
7 6 1 2.21 0.04
7 6 2 1.1 0.03
7 6 3 2.15 0.04
7 6 4 0.36 0.01
7 6 5 1.87 0.04
7 6 6 0.32 0.01
7 6 7 3.56 0.05
7 6 8 0.71 0.03
7 6 9 -0.01 0.29
7 6 10 -0.03 0.27
7 7 1 1.29 0.05
7 7 2 1.39 0.05
7 7 3 0 0.39
7 7 4 1.93 0.06
7 7 5 1.11 0.05
7 7 6 0.88 0.05
7 7 7 0.29 0.02
7 7 8 0.7 0.04
7 7 9 0.17 0.02
7 7 10 0.21 0.02
8 0 0 17.21 0.14
8 0 1 2.28 0.04
8 0 2 0.82 0.03
8 0 3 0.8 0.03
8 0 4 2.74 0.05
8 0 5 0.9 0.03
8 0 6 0.51 0.02
8 0 7 0.06 0.33
8 0 8 0.66 0.03
8 0 9 0.01 0.33
8 0 10 0.25 0.01
8 0 11 0.29 0.01
8 1 0 1.5 0.03
8 1 1 0.97 0.03
8 1 2 0.62 0.02
8 1 3 3.18 0.04
8 1 4 2.92 0.04
8 1 5 1.98 0.04
8 1 6 0.78 0.03
8 1 7 3.53 0.05
8 1 8 1.66 0.04
8 1 9 0.22 0.01
8 1 10 0.02 0.28
8 1 11 0.28 0.01
8 2 0 4.68 0.05
8 2 1 6.56 0.06
8 2 2 1.56 0.03
8 2 3 5.14 0.05
8 2 4 3.07 0.04
8 2 5 0.56 0.02
8 2 6 0.26 0.01
8 2 7 0.83 0.03
8 2 8 0.12 0.01
8 2 9 0.19 0.01
8 2 10 0.39 0.02
8 2 11 0.79 0.03
8 3 0 1.13 0.03
8 3 1 0.39 0.01
8 3 2 0.87 0.03
8 3 3 1.84 0.03
8 3 4 7.04 0.07
8 3 5 0.52 0.02
8 3 6 1.1 0.03
8 3 7 0.81 0.03
8 3 8 2.09 0.04
8 3 9 0.37 0.02
8 3 10 0.4 0.02
8 3 11 0.14 0.01
8 4 0 4.16 0.05
8 4 1 2.93 0.04
8 4 2 0.03 0.26
8 4 3 2.95 0.04
8 4 4 1.13 0.03
8 4 5 0.02 0.28
8 4 6 0.09 0.03
8 4 7 0.03 0.16
8 4 8 0.05 0.02
8 4 9 0.05 0.2
8 4 10 0.17 0.01
8 5 0 0.99 0.03
8 5 1 1.35 0.03
8 5 2 0.72 0.03
8 5 3 2.21 0.04
8 5 4 0.79 0.03
8 5 5 1.34 0.03
8 5 6 0.6 0.03
8 5 7 2.36 0.04
8 5 8 0.88 0.03
8 5 9 0.09 0.02
8 5 10 0.02 0.26
8 6 0 8.42 0.09
8 6 1 1.5 0.04
8 6 2 1.2 0.03
8 6 3 0.02 0.28
8 6 4 1.98 0.04
8 6 5 1.02 0.03
8 6 6 0.59 0.03
8 6 7 0.31 0.02
8 6 8 0.56 0.02
8 6 9 0.13 0.01
8 6 10 0.24 0.02
8 7 0 0.14 0.02
8 7 1 0.56 0.03
8 7 2 0.22 0.01
8 7 3 0.78 0.03
8 7 4 0.35 0.02
8 7 5 0.65 0.03
8 7 6 0.15 0.02
8 7 7 1.26 0.04
8 7 8 0.36 0.01
8 7 9 0 0.27
8 8 0 0.89 0.05
8 8 1 0.87 0.04
8 8 2 0.16 0.02
8 8 3 0.96 0.05
8 8 4 0.35 0.02
8 8 5 0.01 0.41
8 8 6 0 0.41
8 8 7 0.03 0.41
8 8 8 0.01 0.39
9 0 1 -0.02 0.3
9 0 2 0.09 0.02
9 0 3 1.02 0.04
9 0 4 3.88 0.06
9 0 5 0.35 0.02
9 0 6 0.45 0.02
9 0 7 1.15 0.04
9 0 8 1.34 0.04
9 0 9 0.12 0.02
9 0 10 0.19 0.01
9 1 0 3.6 0.04
9 1 1 3.63 0.04
9 1 2 0.64 0.02
9 1 3 3.13 0.04
9 1 4 1.67 0.04
9 1 5 0.26 0.01
9 1 6 0.05 0.2
9 1 7 0.32 0.01
9 1 8 0.03 0.29
9 1 9 0.07 0.01
9 1 10 0.2 0.01
9 2 0 1.4 0.03
9 2 1 0.23 0.01
9 2 2 0.41 0.01
9 2 3 1.91 0.04
9 2 4 3.13 0.04
9 2 5 0.79 0.03
9 2 6 0.83 0.03
9 2 7 1.19 0.03
9 2 8 1.25 0.04
9 2 9 0.22 0.01
9 2 10 0.11 0.01
9 3 0 5.27 0.06
9 3 1 1.63 0.03
9 3 2 0.19 0.01
9 3 3 1.14 0.03
9 3 4 1.06 0.03
9 3 5 0.12 0.01
9 3 6 0.04 0.2
9 3 7 0.03 0.2
9 3 8 0.13 0.01
9 3 9 0.02 0.28
9 3 10 0.09 0.02
9 4 0 0.42 0.02
9 4 1 1.07 0.03
9 4 2 0.48 0.02
9 4 3 1.4 0.03
9 4 4 0.54 0.02
9 4 5 1.04 0.03
9 4 6 0.29 0.01
9 4 7 2.04 0.04
9 4 8 0.62 0.03
9 4 9 0.05 0.28
9 4 10 -0.03 0.27
9 5 0 6.29 0.07
9 5 1 1.36 0.03
9 5 2 0.98 0.03
9 5 3 0.06 0.02
9 5 4 1.6 0.04
9 5 5 0.65 0.03
9 5 6 0.38 0.01
9 5 7 0.28 0.01
9 5 8 0.38 0.02
9 5 9 0.05 0.2
9 6 0 0.18 0.01
9 6 1 0.42 0.02
9 6 2 0.15 0.01
9 6 3 0.77 0.03
9 6 4 0.5 0.02
9 6 5 0.45 0.02
9 6 6 0.16 0.01
9 6 7 0.94 0.03
9 6 8 0.4 0.01
9 6 9 0.03 0.27
9 7 0 0.81 0.03
9 7 1 0.9 0.03
9 7 2 0.05 0.2
9 7 3 0.99 0.03
9 7 4 0.3 0.01
9 7 5 -0.04 0.29
9 7 6 0.04 0.28
9 7 7 0.03 0.28
9 7 8 0.01 0.27
9 8 0 0.58 0.02
9 8 1 0.17 0.01
9 8 2 0.4 0.02
9 8 3 0.38 0.02
9 8 4 1.42 0.04
9 8 5 0.2 0.01
9 8 6 0.29 0.01
9 8 7 0.03 0.2
9 8 8 0.37 0.02
9 9 0 0.11 0.02
9 9 1 0.66 0.04
9 9 2 0.16 0.02
9 9 3 0.79 0.04
9 9 4 0.22 0.02
9 9 5 0.06 0.4
9 9 6 0.06 0.22
9 9 7 0.07 0.38
10 0 0 0.93 0.04
10 0 1 2.26 0.04
10 0 2 0.05 0.32
10 0 3 3.13 0.05
10 0 4 0.47 0.02
10 0 5 0.07 0.33
10 0 6 0.19 0.01
10 0 7 0 0.33
10 0 8 0.04 0.32
10 0 9 0.1 0.02
10 0 10 0.09 0.51
10 1 0 0.1 0.01
10 1 1 0.02 0.27
10 1 2 0.2 0.01
10 1 3 0.61 0.02
10 1 4 2.71 0.04
10 1 5 0.13 0.01
10 1 6 0.33 0.01
10 1 7 0.5 0.02
10 1 8 0.89 0.03
10 1 9 0.07 0.02
10 1 10 0.18 0.02
10 2 0 3.37 0.05
10 2 1 1.07 0.03
10 2 2 0.09 0.03
10 2 3 0.85 0.03
10 2 4 0.77 0.03
10 2 5 0.06 0.02
10 2 6 0.01 0.28
10 2 7 0.02 0.28
10 2 8 0.09 0.01
10 2 9 -0.02 0.28
10 2 10 0.04 0.37
10 3 0 0.07 0.02
10 3 1 0.87 0.03
10 3 2 0.32 0.01
10 3 3 0.85 0.03
10 3 4 0.31 0.01
10 3 5 0.78 0.03
10 3 6 0.11 0.02
10 3 7 1.55 0.04
10 3 8 0.29 0.01
10 3 9 0.05 0.27
10 4 0 5.09 0.07
10 4 1 0.61 0.02
10 4 2 0.5 0.02
10 4 3 0.03 0.28
10 4 4 1.01 0.03
10 4 5 0.4 0.02
10 4 6 0.31 0.01
10 4 7 0.08 0.02
10 4 8 0.26 0.01
10 4 9 -0.02 0.19
10 5 0 0.06 0.02
10 5 1 0.34 0.01
10 5 2 0.1 0.02
10 5 3 0.48 0.02
10 5 4 0.38 0.02
10 5 5 0.36 0.02
10 5 6 0.09 0.02
10 5 7 0.78 0.03
10 5 8 0.27 0.01
10 5 9 0 0.26
10 6 0 0.59 0.02
10 6 1 0.7 0.03
10 6 2 0.03 0.2
10 6 3 0.86 0.03
10 6 4 0.23 0.01
10 6 5 -0.01 0.29
10 6 6 0 0.29
10 6 7 0.03 0.2
10 6 8 0 0.27
10 7 0 0.37 0.02
10 7 1 0.13 0.02
10 7 2 0.32 0.01
10 7 3 0.32 0.01
10 7 4 1.28 0.04
10 7 5 0.14 0.01
10 7 6 0.19 0.01
10 7 7 0.02 0.2
10 7 8 0.34 0.01
10 8 0 0.1 0.02
10 8 1 0.51 0.02
10 8 2 0.16 0.01
10 8 3 0.74 0.03
10 8 4 0.17 0.01
10 8 5 0.03 0.2
10 8 6 0.05 0.19
10 8 7 0.05 0.01
10 9 0 0.01 0.2
10 9 1 0.04 0.28
10 9 2 0 0.28
10 9 3 0.07 0.02
10 9 4 0.18 0.01
10 9 5 0.02 0.28
10 9 6 0.03 0.19
10 10 0 0.59 0.04
10 10 1 0.12 0.02
10 10 2 0.07 0.4
10 10 3 -0.02 0.4
10 10 4 0.13 0.02
10 10 5 0.06 0.38
11 0 1 0 0.33
11 0 2 0.08 0.02
11 0 3 0.33 0.02
11 0 4 1.55 0.04
11 0 5 0.02 0.33
11 0 6 0.14 0.02
11 0 7 0.27 0.01
11 0 8 0.5 0.03
11 0 9 -0.01 0.31
11 1 0 1.33 0.03
11 1 1 0.92 0.03
11 1 2 0.03 0.2
11 1 3 0.96 0.03
11 1 4 0.38 0.01
11 1 5 0.02 0.28
11 1 6 0.03 0.28
11 1 7 0.04 0.28
11 1 8 0.04 0.28
11 1 9 0.05 0.26
11 2 0 0.12 0.02
11 2 1 0.24 0.01
11 2 2 0.03 0.2
11 2 3 0.51 0.02
11 2 4 0.42 0.02
11 2 5 0.37 0.01
11 2 6 0.1 0.02
11 2 7 0.74 0.03
11 2 8 0.28 0.01
11 2 9 0.04 0.26
11 3 0 2.79 0.05
11 3 1 0.44 0.02
11 3 2 0.23 0.01
11 3 3 0.09 0.02
11 3 4 0.54 0.03
11 3 5 0.18 0.01
11 3 6 0.15 0.01
11 3 7 0.03 0.28
11 3 8 0.12 0.01
11 4 0 0.02 0.28
11 4 1 0.23 0.01
11 4 2 0.04 0.17
11 4 3 0.32 0.01
11 4 4 0.27 0.01
11 4 5 0.26 0.01
11 4 6 0.05 0.2
11 4 7 0.54 0.03
11 4 8 0.15 0.01
11 5 0 0.63 0.03
11 5 1 0.52 0.02
11 5 2 0.08 0.28
11 5 3 0.52 0.02
11 5 4 0.22 0.01
11 5 5 -0.01 0.29
11 5 6 0.04 0.28
11 5 7 0.05 0.27
11 5 8 -0.02 0.26
11 6 0 0.25 0.01
11 6 1 0.09 0.01
11 6 2 0.21 0.01
11 6 3 0.24 0.01
11 6 4 0.88 0.03
11 6 5 0.1 0.02
11 6 6 0.16 0.01
11 6 7 0.04 0.19
11 7 0 0.12 0.02
11 7 1 0.41 0.02
11 7 2 0.09 0.01
11 7 3 0.52 0.03
11 7 4 0.13 0.01
11 7 5 0.08 0.02
11 7 6 0.06 0.27
11 7 7 0.06 0.26
11 8 0 0 0.28
11 8 1 -0.01 0.29
11 8 2 -0.02 0.29
11 8 3 0.07 0.02
11 8 4 0.16 0.01
11 8 5 0.06 0.19
11 8 6 0.03 0.26
11 9 0 0.53 0.02
11 9 1 0.1 0.01
11 9 2 0.06 0.02
11 9 3 -0.02 0.28
11 9 4 0.13 0.02
11 9 5 0.05 0.19
11 10 0 0.05 0.28
11 10 1 0.11 0.01
11 10 2 0.06 0.02
11 10 3 0.08 0.02
12 0 0 1 0.04
12 0 1 0.37 0.02
12 0 2 0 0.22
12 0 3 0.34 0.02
12 0 4 0.2 0.01
12 0 5 0.01 0.33
12 0 6 0.04 0.32
12 0 7 0.03 0.31
12 0 8 0.05 0.31
12 1 0 0.05 0.29
12 1 1 0.08 0.02
12 1 2 0.05 0.28
12 1 3 0.28 0.01
12 1 4 0.37 0.02
12 1 5 0.16 0.01
12 1 6 0.01 0.29
12 1 7 0.36 0.02
12 1 8 0.19 0.01
12 2 0 1.17 0.03
12 2 1 0.36 0.01
12 2 2 0.12 0.02
12 2 3 0.17 0.01
12 2 4 0.29 0.01
12 2 5 0.01 0.29
12 2 6 0 0.28
12 2 7 0.05 0.28
12 2 8 0.06 0.01
12 3 0 0.03 0.28
12 3 1 0.09 0.01
12 3 2 0.03 0.2
12 3 3 0.18 0.01
12 3 4 0.27 0.01
12 3 5 0.14 0.02
12 3 6 0.07 0.02
12 3 7 0.29 0.01
12 4 0 0.47 0.02
12 4 1 0.29 0.01
12 4 2 0.01 0.29
12 4 3 0.32 0.01
12 4 4 0.14 0.01
12 4 5 0 0.28
12 4 6 -0.01 0.28
12 4 7 0.03 0.27
12 5 0 0.12 0.02
12 5 1 0.02 0.29
12 5 2 0.1 0.02
12 5 3 0.13 0.01
12 5 4 0.55 0.02
12 5 5 0.06 0.28
12 5 6 0.08 0.28
12 5 7 0.03 0.26
12 6 0 0.15 0.01
12 6 1 0.27 0.01
12 6 2 0.05 0.21
12 6 3 0.38 0.02
12 6 4 0.08 0.02
12 6 5 0.03 0.2
12 6 6 0.01 0.27
12 7 0 -0.01 0.28
12 7 1 0.01 0.2
12 7 2 0 0.28
12 7 3 0.06 0.01
12 7 4 0.13 0.01
12 7 5 0 0.19
12 8 0 0.43 0.02
12 8 1 0.06 0.02
12 8 2 0.09 0.02
12 8 3 0 0.27
12 8 4 0.1 0.02
12 9 0 0.05 0.28
12 9 1 0.06 0.02
12 9 2 0 0.28
12 9 3 0.07 0.02
13 0 1 0.08 0.02
13 0 2 0.03 0.21
13 0 3 0.12 0.02
13 0 4 0.11 0.01
13 0 5 0.09 0.02
13 0 6 0 0.32
13 0 7 0.2 0.01
13 1 0 0.67 0.03
13 1 1 0.15 0.01
13 1 2 0 0.29
13 1 3 0.1 0.01
13 1 4 0.13 0.01
13 1 5 0.01 0.2
13 1 6 0.01 0.19
13 1 7 0.03 0.26
13 2 0 0.01 0.28
13 2 1 0.02 0.28
13 2 2 0 0.28
13 2 3 0.09 0.02
13 2 4 0.16 0.01
13 2 5 0.02 0.29
13 2 6 0.05 0.27
13 3 0 0.24 0.01
13 3 1 0.19 0.01
13 3 2 0 0.29
13 3 3 0.22 0.01
13 3 4 0.05 0.29
13 3 5 0.01 0.28
13 3 6 0.01 0.27
13 4 0 0.02 0.2
13 4 1 0.03 0.28
13 4 2 0.04 0.28
13 4 3 0.07 0.02
13 4 4 0.3 0.01
13 4 5 -0.03 0.32
13 4 6 0.05 0.19
13 5 0 0.13 0.01
13 5 1 0.17 0.01
13 5 2 -0.01 0.28
13 5 3 0.18 0.01
13 5 4 0 0.28
13 5 5 0.04 0.26
13 6 0 0.01 0.28
13 6 1 0.01 0.28
13 6 2 0 0.28
13 6 3 0.06 0.27
13 6 4 0.08 0.02
13 6 5 -0.01 0.27
13 7 0 0.26 0.01
13 7 1 0.05 0.02
13 7 2 0.02 0.16
13 7 3 0 0.19
13 7 4 0.04 0.27
13 8 0 0.01 0.27
13 8 1 0.06 0.02
13 8 2 0.05 0.26
14 0 0 0.33 0.02
14 0 1 0.01 0.33
14 0 2 0.01 0.21
14 0 3 -0.01 0.33
14 0 4 0.08 0.02
14 0 5 0 0.31
14 1 0 0.01 0.28
14 1 1 0.03 0.28
14 1 2 -0.05 0.29
14 1 3 0.02 0.28
14 1 4 0.06 0.28
14 1 5 0.02 0.27
14 2 0 0.17 0.01
14 2 1 0.1 0.02
14 2 2 -0.01 0.28
14 2 3 0.09 0.02
14 2 4 0.04 0.27
14 2 5 -0.02 0.27
14 3 0 0.01 0.28
14 3 1 0 0.28
14 3 2 0.02 0.28
14 3 3 0.04 0.28
14 3 4 0.11 0.02
14 3 5 -0.02 0.26
14 4 0 0.07 0.01
14 4 1 0.07 0.02
14 4 2 -0.01 0.28
14 4 3 0.11 0.02
14 4 4 -0.01 0.19
14 5 0 -0.03 0.28
14 5 1 -0.02 0.2
14 5 2 0 0.27
14 5 3 0.04 0.27
14 6 0 0.17 0.01
14 6 1 -0.01 0.19
14 6 2 0 0.27
15 0 1 -0.01 0.32
15 0 2 -0.04 0.32
15 0 3 0.04 0.3
15 1 0 0.08 0.28
15 1 1 0.03 0.19
15 1 2 0.03 0.26
15 1 3 0.03 0.19
15 2 0 0.02 0.27
15 2 1 0 0.27
15 2 2 -0.01 0.27
15 3 0 0.06 0.27
15 3 1 -0.02 0.27
15 3 2 0.01 0.26
15 4 0 0.01 0.19
loop_
_geom_angle_atom_site_label_1
_geom_angle_atom_site_label_2
_geom_angle_atom_site_label_3
_geom_angle
_geom_angle_site_symmetry_1
_geom_angle_site_symmetry_3
_geom_angle_publ_flag
H2 N H1 121.1(2) . . ?
C N H1 118.25(15) 6_565 . ?
C N H2 120.70(18) 6_565 . ?
N C O 121.566(10) . . ?
N C O 121.566(10) 6_565 . ?
N C N 116.87(2) 6_565 . ?
loop_
_geom_bond_atom_site_label_1
_geom_bond_atom_site_label_2
_geom_bond_distance
_geom_bond_site_symmetry_2
_geom_bond_publ_flag
O C 1.2558(3) . ?
N H1 0.998(3) . ?
N H2 0.995(3) . ?
N C 1.3405(2) 6_565 ?
