#------------------------------------------------------------------------------
#$Date: 2022-03-02 05:20:08 +0200 (Wed, 02 Mar 2022) $
#$Revision: 273207 $
#$URL: file:///home/coder/svn-repositories/cod/cif/1/56/65/1566507.cif $
#------------------------------------------------------------------------------
#
# This file is available in the Crystallography Open Database (COD),
# http://www.crystallography.net/. The original data for this entry
# were provided by IUCr Journals, http://journals.iucr.org/.
#
# The file may be used within the scientific community so long as
# proper attribution is given to the journal article from which the
# data were obtained.
#
data_1566507
loop_
_publ_author_name
'Ruth, Paul Niklas'
'Herbst-Irmer, Regine'
'Stalke, Dietmar'
_publ_section_title
;
 Hirshfeld atom refinement based on projector augmented wave densities
 with periodic boundary conditions
;
_journal_issue                   2
_journal_name_full               IUCrJ
_journal_page_first              286
_journal_page_last               297
_journal_paper_doi               10.1107/S2052252522001385
_journal_volume                  9
_journal_year                    2022
_chemical_formula_moiety         'C H4 N2 O'
_chemical_formula_sum            'C H4 N2 O'
_chemical_formula_weight         60.06
_chemical_name_common            urea
_space_group_crystal_system      tetragonal
_space_group_IT_number           113
_space_group_name_Hall           'P -4 2ab'
_space_group_name_H-M_alt        'P -4 21 m'
_atom_sites_solution_hydrogens   difmap
_audit_creation_method           'xHARPY 0.1'
_cell_angle_alpha                90
_cell_angle_beta                 90
_cell_angle_gamma                90
_cell_formula_units_Z            2
_cell_length_a                   5.5780(6)
_cell_length_b                   5.5780(6)
_cell_length_c                   4.6860(7)
_cell_measurement_reflns_used    17
_cell_measurement_temperature    123(2)
_cell_volume                     145.80(3)
_computing_cell_refinement       'KM6-CH software'
_computing_data_collection       'KM6-CH software'
_computing_data_reduction        XD_RED
_computing_publication_material  'xHARPY 0.1'
_computing_structure_refinement  'xHARPY 0.1'
_diffrn_ambient_temperature      123(2)
_diffrn_measured_fraction_theta_full 1.0
_diffrn_measured_fraction_theta_max 0.982
_diffrn_measurement_device_type
;
KM6-CH six-circle \k diffractometer operated as standard four-circle
\k diffractometer with detector circle in the vertical plane to profit
from the linear polarization of the synchrotron beam.
;
_diffrn_measurement_method       \w-scan
_diffrn_radiation_type           synchrotron
_diffrn_radiation_wavelength     0.5996
_diffrn_reflns_av_R_equivalents  0.0141
_diffrn_reflns_av_unetI/netI     0.0148
_diffrn_reflns_Laue_measured_fraction_full 1.0
_diffrn_reflns_Laue_measured_fraction_max 0.982
_diffrn_reflns_number            1022
_diffrn_reflns_point_group_measured_fraction_full 0.656
_diffrn_reflns_point_group_measured_fraction_max 0.562
_diffrn_reflns_theta_full        21.085
_diffrn_reflns_theta_max         57.401
_diffrn_reflns_theta_min         3.668
_exptl_absorpt_coefficient_mu    0.081
_exptl_absorpt_correction_type   none
_exptl_crystal_colour            colourless
_exptl_crystal_density_diffrn    1.368
_exptl_crystal_density_method    'not measured'
_exptl_crystal_description       block
_exptl_crystal_F_000             64
_exptl_crystal_size_max          0.23
_exptl_crystal_size_mid          0.13
_exptl_crystal_size_min          0.09
_refine_diff_density_max         0.2075
_refine_diff_density_min         -0.3712
_refine_diff_density_rms         0.0361
_refine_ls_extinction_method     none
_refine_ls_goodness_of_fit_ref   1.516
_refine_ls_hydrogen_treatment    refall
_refine_ls_matrix_type           full
_refine_ls_number_parameters     36
_refine_ls_number_reflns         1022
_refine_ls_number_restraints     0
_refine_ls_R_factor_all          0.0256
_refine_ls_R_factor_gt           0.0112
_refine_ls_shift/su_max          0.0
_refine_ls_shift/su_mean         0.0
_refine_ls_structure_factor_coef Fsqd
_refine_ls_weighting_details     w=1/[\s^2^(Fo^2^)]
_refine_ls_weighting_scheme      sigma
_refine_ls_wR_factor_gt          0.014
_refine_ls_wR_factor_ref         0.014
_reflns_Friedel_coverage         0.0
_reflns_Friedel_fraction_full    0.0
_reflns_Friedel_fraction_max     0.0
_reflns_number_gt                803
_reflns_number_total             1022
_reflns_threshold_expression     'I > 2\s(I)'
_cod_data_source_file            fc5060.cif
_cod_data_source_block           urea_xHARPy_SCAN_cijk
_cod_original_cell_volume        145.80(4)
_cod_database_code               1566507
loop_
_space_group_symop_operation_xyz
'x, y, z'
'y, -x, -z'
'-x, -y, z'
'-y, x, -z'
'x+1/2, -y+1/2, -z'
'-y+1/2, -x+1/2, z'
'-x+1/2, y+1/2, -z'
'y+1/2, x+1/2, z'
loop_
_atom_site_label
_atom_site_type_symbol
_atom_site_fract_x
_atom_site_fract_y
_atom_site_fract_z
_atom_site_U_iso_or_equiv
_atom_site_adp_type
_atom_site_occupancy
_atom_site_site_symmetry_order
O O 0.0 0.5 0.59607(4) 0.01522(2) Uani 1.0 4
N N 0.14465(3) 0.64465(3) 0.17897(4) 0.02232(3) Uani 1.0 2
H1 H 0.2558(3) 0.7558(3) 0.2838(4) 0.0435(10) Uani 1.0 2
H2 H 0.1433(3) 0.6433(3) -0.0343(6) 0.0367(7) Uani 1.0 2
C C 0.0 0.5 0.32826(3) 0.01183(2) Uani 1.0 4
loop_
_atom_site_aniso_label
_atom_site_aniso_U_11
_atom_site_aniso_U_22
_atom_site_aniso_U_33
_atom_site_aniso_U_23
_atom_site_aniso_U_13
_atom_site_aniso_U_12
O 0.01953(3) 0.01953(3) 0.00659(3) 0.0 0.0 0.00172(5)
N 0.02881(4) 0.02881(4) 0.00935(3) 0.00007(2) 0.00007(2) -0.01511(5)
H1 0.0537(15) 0.0537(15) 0.0231(17) -0.0016(10) -0.0016(10) -0.0370(19)
H2 0.0432(11) 0.0432(11) 0.0235(15) -0.0003(10) -0.0003(10) -0.0168(19)
C 0.01448(3) 0.01448(3) 0.00651(3) 0.0 0.0 -0.00010(5)
loop_
_atom_type_symbol
_atom_type_description
_atom_type_scat_dispersion_real
_atom_type_scat_dispersion_imag
_atom_type_scat_source
C C 0.0020 0.0010 'HAR in xHARPy 0.1'
H H 0.0000 0.0000 'HAR in xHARPy 0.1'
N N 0.0040 0.0020 'HAR in xHARPy 0.1'
O O 0.0070 0.0040 'HAR in xHARPy 0.1'
loop_
_geom_angle_atom_site_label_1
_geom_angle_atom_site_label_2
_geom_angle_atom_site_label_3
_geom_angle
C N H1 119.23(13)
C N H2 120.90(15)
H1 N H2 119.87(20)
O C N 121.511(12)
loop_
_geom_bond_atom_site_label_1
_geom_bond_atom_site_label_2
_geom_bond_distance
O C 1.2550(3)
N C 1.3385(2)
N H1 1.005(2)
N H2 0.999(3)
loop_
_refln_index_h
_refln_index_k
_refln_index_l
_refln_F_squared_calc
_refln_F_squared_meas
_refln_F_squared_sigma
0 0 1 13.25 13.38 0.05
0 0 2 128.72 134.37 0.83
0 0 3 13.57 13.58 0.08
0 0 4 29.14 29.73 0.18
0 0 5 48.51 48.90 0.36
0 0 6 15.12 15.74 0.19
0 0 7 0.23 0.27 0.03
0 0 8 15.30 14.70 0.25
0 0 9 3.62 3.65 0.10
0 0 10 2.92 2.89 0.09
0 0 11 0.08 0.07 0.26
0 0 12 3.87 3.80 0.11
0 0 13 0.19 0.18 0.02
1 0 1 148.75 149.41 0.18
1 0 2 152.24 152.67 0.27
1 0 3 87.65 87.43 0.19
1 0 4 2.26 2.21 0.03
1 0 5 18.83 19.01 0.10
1 0 6 0.46 0.53 0.03
1 0 7 43.34 43.13 0.34
1 0 8 6.08 6.13 0.07
1 0 9 0.01 -0.01 0.32
1 0 10 0.22 0.19 0.01
1 0 11 1.47 1.42 0.04
1 0 12 1.23 1.26 0.04
1 0 13 0.05 0.00 0.31
1 1 0 1037.89 1004.84 1.91
1 1 1 279.60 282.49 0.51
1 1 2 52.63 52.74 0.12
1 1 3 11.61 11.57 0.06
1 1 4 43.14 43.34 0.18
1 1 5 16.78 16.95 0.11
1 1 6 2.99 2.96 0.03
1 1 7 5.72 5.68 0.08
1 1 8 4.44 4.48 0.07
1 1 9 1.30 1.31 0.05
1 1 10 3.26 3.25 0.07
1 1 11 1.59 1.64 0.05
1 1 12 2.41 2.46 0.06
1 1 13 0.26 0.23 0.02
2 0 0 154.42 155.39 0.30
2 0 1 195.78 197.03 0.26
2 0 2 8.28 8.27 0.03
2 0 3 49.51 49.50 0.13
2 0 4 20.12 20.08 0.09
2 0 5 0.58 0.56 0.03
2 0 6 1.46 1.46 0.02
2 0 7 0.26 0.27 0.01
2 0 8 0.04 0.05 0.20
2 0 9 0.38 0.36 0.02
2 0 10 1.09 1.08 0.04
2 0 11 4.38 4.32 0.07
2 0 12 0.97 1.07 0.04
2 0 13 0.00 -0.03 0.30
2 1 0 227.15 226.13 0.28
2 1 1 49.25 49.41 0.08
2 1 2 29.98 30.13 0.07
2 1 3 68.26 68.42 0.16
2 1 4 45.16 45.19 0.14
2 1 5 13.68 13.54 0.07
2 1 6 13.77 13.88 0.09
2 1 7 10.77 10.76 0.09
2 1 8 15.15 14.89 0.13
2 1 9 3.33 3.30 0.05
2 1 10 1.20 1.20 0.03
2 1 11 1.96 1.90 0.04
2 1 12 0.41 0.42 0.02
2 1 13 0.20 0.21 0.01
2 2 0 228.55 226.60 0.42
2 2 1 200.56 199.16 0.39
2 2 2 55.09 54.60 0.16
2 2 3 27.51 27.44 0.12
2 2 4 43.50 43.32 0.21
2 2 5 9.72 9.76 0.08
2 2 6 2.90 2.75 0.05
2 2 7 10.27 10.06 0.12
2 2 8 1.80 1.84 0.05
2 2 9 1.70 1.66 0.05
2 2 10 3.72 3.66 0.07
2 2 11 2.86 2.77 0.06
2 2 12 1.74 1.74 0.05
3 0 1 93.33 93.09 0.17
3 0 2 17.64 17.77 0.06
3 0 3 11.60 11.58 0.05
3 0 4 103.73 104.59 0.38
3 0 5 0.29 0.37 0.02
3 0 6 11.04 10.85 0.09
3 0 7 0.48 0.50 0.02
3 0 8 15.71 15.54 0.16
3 0 9 4.21 4.26 0.06
3 0 10 4.94 4.82 0.07
3 0 11 0.38 0.41 0.02
3 0 12 0.05 0.04 0.17
3 1 0 29.00 29.02 0.07
3 1 1 142.12 141.86 0.23
3 1 2 14.95 14.83 0.05
3 1 3 66.08 65.98 0.18
3 1 4 14.34 14.47 0.07
3 1 5 1.65 1.66 0.03
3 1 6 5.23 5.22 0.05
3 1 7 1.54 1.53 0.03
3 1 8 0.47 0.47 0.02
3 1 9 1.48 1.48 0.03
3 1 10 1.03 1.08 0.03
3 1 11 5.45 5.40 0.07
3 1 12 0.56 0.59 0.03
3 2 0 17.25 17.35 0.05
3 2 1 5.07 5.11 0.03
3 2 2 11.11 10.97 0.04
3 2 3 25.57 25.56 0.09
3 2 4 13.70 13.62 0.07
3 2 5 7.62 7.61 0.05
3 2 6 3.01 3.04 0.04
3 2 7 16.06 16.09 0.13
3 2 8 7.15 7.04 0.07
3 2 9 0.65 0.68 0.03
3 2 10 0.16 0.12 0.02
3 2 11 1.01 0.95 0.03
3 2 12 0.39 0.41 0.02
3 3 0 222.30 218.75 0.62
3 3 1 8.04 8.10 0.05
3 3 2 7.63 7.93 0.06
3 3 3 0.48 0.51 0.03
3 3 4 16.00 15.73 0.12
3 3 5 13.47 13.33 0.09
3 3 6 5.41 5.57 0.07
3 3 7 0.15 0.15 0.02
3 3 8 5.70 5.61 0.09
3 3 9 1.03 0.99 0.05
3 3 10 1.36 1.49 0.05
3 3 11 0.31 0.31 0.02
3 3 12 1.94 1.97 0.05
4 0 0 5.19 5.49 0.06
4 0 1 95.60 97.28 0.24
4 0 2 7.72 7.65 0.04
4 0 3 70.80 71.67 0.25
4 0 4 5.90 5.90 0.05
4 0 5 2.47 2.60 0.04
4 0 6 7.81 7.77 0.07
4 0 7 0.16 0.16 0.01
4 0 8 1.16 1.12 0.04
4 0 9 2.13 2.13 0.05
4 0 10 0.49 0.42 0.02
4 0 11 5.95 5.99 0.09
4 0 12 0.23 0.23 0.01
4 1 0 7.03 7.12 0.04
4 1 1 11.61 11.62 0.04
4 1 2 2.75 2.74 0.03
4 1 3 13.18 13.08 0.06
4 1 4 42.37 42.87 0.18
4 1 5 1.48 1.51 0.03
4 1 6 5.75 5.73 0.05
4 1 7 3.44 3.39 0.04
4 1 8 10.18 10.08 0.10
4 1 9 1.86 1.86 0.04
4 1 10 1.85 1.80 0.04
4 1 11 0.57 0.57 0.02
4 1 12 0.04 0.03 0.28
4 2 0 93.57 93.07 0.22
4 2 1 25.45 25.63 0.08
4 2 2 5.49 5.42 0.03
4 2 3 4.22 4.22 0.03
4 2 4 16.66 16.55 0.09
4 2 5 5.30 5.29 0.03
4 2 6 1.10 1.13 0.03
4 2 7 1.71 1.69 0.03
4 2 8 1.89 1.85 0.04
4 2 9 0.36 0.39 0.02
4 2 10 1.43 1.42 0.04
4 2 11 1.21 1.20 0.03
4 2 12 1.21 1.23 0.03
4 3 0 3.38 3.25 0.03
4 3 1 20.43 20.53 0.08
4 3 2 18.91 18.67 0.08
4 3 3 16.66 16.76 0.08
4 3 4 0.35 0.31 0.02
4 3 5 13.26 13.22 0.09
4 3 6 1.10 1.15 0.03
4 3 7 24.25 24.03 0.20
4 3 8 2.95 3.03 0.04
4 3 9 0.22 0.21 0.01
4 3 10 0.24 0.25 0.01
4 3 11 1.01 1.05 0.03
4 3 12 0.75 0.74 0.03
4 4 0 83.24 82.74 0.39
4 4 1 4.79 4.74 0.05
4 4 2 3.99 4.00 0.05
4 4 3 0.14 0.16 0.01
4 4 4 8.82 8.67 0.06
4 4 5 5.67 5.56 0.07
4 4 6 2.62 2.57 0.05
4 4 7 0.12 0.12 0.02
4 4 8 2.91 2.97 0.06
4 4 9 0.44 0.45 0.02
4 4 10 0.78 0.74 0.05
4 4 11 0.35 0.35 0.02
4 4 12 1.20 1.18 0.05
5 0 1 0.09 0.10 0.01
5 0 2 0.09 0.09 0.02
5 0 3 8.62 8.50 0.06
5 0 4 17.75 17.92 0.11
5 0 5 1.90 1.88 0.04
5 0 6 2.05 1.98 0.04
5 0 7 6.41 6.34 0.08
5 0 8 6.02 5.95 0.08
5 0 9 0.58 0.55 0.03
5 0 10 0.59 0.53 0.03
5 0 11 0.47 0.45 0.02
5 0 12 0.09 0.09 0.02
5 1 0 41.60 42.14 0.15
5 1 1 29.92 30.24 0.10
5 1 2 8.13 8.24 0.05
5 1 3 10.10 10.19 0.06
5 1 4 15.30 15.43 0.09
5 1 5 3.34 3.39 0.04
5 1 6 0.82 0.77 0.03
5 1 7 3.10 3.03 0.04
5 1 8 0.86 0.84 0.03
5 1 9 0.55 0.59 0.02
5 1 10 1.52 1.56 0.04
5 1 11 1.71 1.76 0.04
5 1 12 0.84 0.82 0.03
5 2 0 21.34 21.36 0.08
5 2 1 7.13 7.18 0.04
5 2 2 7.47 7.39 0.04
5 2 3 21.37 21.30 0.10
5 2 4 7.59 7.56 0.06
5 2 5 9.15 9.15 0.07
5 2 6 6.16 6.17 0.06
5 2 7 10.38 10.21 0.10
5 2 8 6.55 6.61 0.07
5 2 9 1.34 1.36 0.03
5 2 10 0.13 0.12 0.01
5 2 11 1.21 1.26 0.03
5 2 12 0.41 0.41 0.01
5 3 0 43.40 43.05 0.16
5 3 1 11.88 11.82 0.06
5 3 2 2.27 2.25 0.03
5 3 3 3.41 3.37 0.03
5 3 4 8.51 8.49 0.06
5 3 5 2.40 2.41 0.03
5 3 6 0.56 0.57 0.02
5 3 7 0.77 0.81 0.03
5 3 8 1.13 1.07 0.03
5 3 9 0.16 0.18 0.01
5 3 10 0.83 0.86 0.03
5 3 11 0.88 0.82 0.03
5 3 12 0.78 0.71 0.03
5 4 0 2.91 2.88 0.03
5 4 1 0.50 0.48 0.02
5 4 2 0.73 0.69 0.03
5 4 3 5.84 5.72 0.03
5 4 4 8.60 8.43 0.07
5 4 5 2.61 2.59 0.04
5 4 6 1.60 1.58 0.03
5 4 7 5.08 5.08 0.06
5 4 8 3.57 3.61 0.05
5 4 9 0.46 0.46 0.02
5 4 10 0.25 0.25 0.01
5 4 11 0.45 0.48 0.02
5 4 12 0.10 0.11 0.01
5 5 0 6.78 6.75 0.07
5 5 1 15.75 15.60 0.14
5 5 2 5.08 4.99 0.04
5 5 3 10.27 10.24 0.11
5 5 4 7.06 6.95 0.09
5 5 5 1.63 1.66 0.05
5 5 6 0.76 0.82 0.04
5 5 7 2.37 2.43 0.06
5 5 8 0.25 0.25 0.02
5 5 9 0.49 0.51 0.03
5 5 10 0.81 0.82 0.05
5 5 11 1.40 1.41 0.05
6 0 0 59.83 61.34 0.41
6 0 1 4.47 4.45 0.04
6 0 2 2.56 2.55 0.03
6 0 3 0.24 0.23 0.01
6 0 4 7.69 7.74 0.07
6 0 5 4.43 4.37 0.05
6 0 6 1.95 1.95 0.04
6 0 7 0.08 0.03 0.33
6 0 8 2.29 2.35 0.05
6 0 9 0.28 0.27 0.01
6 0 10 0.68 0.74 0.04
6 0 11 0.38 0.44 0.02
6 0 12 1.01 1.02 0.03
6 1 0 5.16 5.31 0.04
6 1 1 5.63 5.67 0.04
6 1 2 4.62 4.68 0.04
6 1 3 10.41 10.49 0.07
6 1 4 2.93 2.91 0.04
6 1 5 6.40 6.44 0.06
6 1 6 1.90 1.91 0.03
6 1 7 11.01 10.88 0.11
6 1 8 3.30 3.30 0.05
6 1 9 0.38 0.38 0.02
6 1 10 0.01 -0.01 0.28
6 1 11 0.71 0.73 0.03
6 1 12 0.33 0.32 0.01
6 2 0 23.00 23.40 0.11
6 2 1 13.66 13.72 0.08
6 2 2 2.83 2.84 0.03
6 2 3 6.19 6.19 0.04
6 2 4 7.63 7.55 0.06
6 2 5 1.54 1.54 0.03
6 2 6 0.32 0.31 0.01
6 2 7 1.31 1.30 0.03
6 2 8 0.57 0.61 0.02
6 2 9 0.25 0.25 0.01
6 2 10 0.84 0.84 0.03
6 2 11 1.12 1.18 0.03
6 2 12 0.53 0.55 0.03
6 3 0 0.02 0.04 0.23
6 3 1 0.90 0.89 0.03
6 3 2 0.86 0.92 0.03
6 3 3 3.00 2.87 0.04
6 3 4 15.30 15.16 0.11
6 3 5 0.34 0.33 0.01
6 3 6 1.78 1.75 0.04
6 3 7 1.78 1.78 0.03
6 3 8 4.27 4.32 0.06
6 3 9 0.61 0.60 0.02
6 3 10 0.81 0.78 0.03
6 3 11 0.21 0.23 0.01
6 4 0 2.47 2.46 0.03
6 4 1 13.67 13.44 0.06
6 4 2 2.64 2.62 0.03
6 4 3 14.78 14.75 0.10
6 4 4 3.47 3.44 0.04
6 4 5 0.92 0.87 0.03
6 4 6 1.34 1.31 0.03
6 4 7 0.90 0.92 0.03
6 4 8 0.17 0.16 0.01
6 4 9 0.62 0.63 0.03
6 4 10 0.40 0.40 0.02
6 4 11 1.76 1.71 0.04
6 5 0 4.30 4.16 0.04
6 5 1 0.87 0.86 0.03
6 5 2 1.63 1.56 0.03
6 5 3 4.13 4.03 0.05
6 5 4 9.44 9.30 0.08
6 5 5 1.56 1.53 0.03
6 5 6 2.12 2.09 0.04
6 5 7 1.24 1.28 0.03
6 5 8 3.01 3.13 0.05
6 5 9 0.72 0.76 0.03
6 5 10 0.50 0.49 0.02
6 5 11 0.30 0.28 0.01
6 6 0 9.05 8.48 0.10
6 6 1 2.81 2.72 0.05
6 6 2 0.48 0.43 0.03
6 6 3 1.82 1.76 0.05
6 6 4 1.97 1.93 0.05
6 6 5 0.32 0.29 0.02
6 6 6 0.07 0.04 0.23
6 6 7 0.15 0.16 0.02
6 6 8 0.22 0.23 0.02
6 6 9 0.00 0.05 0.39
6 6 10 0.19 0.20 0.02
6 6 11 0.39 0.37 0.03
7 0 1 8.15 8.50 0.07
7 0 2 5.05 5.12 0.04
7 0 3 5.24 5.25 0.05
7 0 4 0.21 0.18 0.01
7 0 5 6.20 6.27 0.07
7 0 6 0.05 0.05 0.31
7 0 7 11.79 11.94 0.14
7 0 8 1.16 1.24 0.04
7 0 9 0.01 0.05 0.32
7 0 10 0.09 0.09 0.02
7 0 11 0.51 0.48 0.03
7 1 0 30.68 31.39 0.18
7 1 1 3.15 3.18 0.04
7 1 2 1.43 1.44 0.02
7 1 3 0.59 0.61 0.02
7 1 4 4.55 4.59 0.05
7 1 5 1.99 2.05 0.03
7 1 6 0.95 1.02 0.03
7 1 7 0.06 0.08 0.02
7 1 8 1.20 1.24 0.03
7 1 9 0.10 0.10 0.01
7 1 10 0.40 0.41 0.02
7 1 11 0.35 0.36 0.01
7 2 0 0.26 0.28 0.01
7 2 1 0.02 0.01 0.17
7 2 2 0.14 0.17 0.01
7 2 3 2.72 2.71 0.04
7 2 4 8.28 8.31 0.07
7 2 5 0.85 0.87 0.03
7 2 6 0.99 0.95 0.03
7 2 7 2.53 2.59 0.04
7 2 8 2.84 2.93 0.05
7 2 9 0.30 0.28 0.01
7 2 10 0.36 0.39 0.01
7 2 11 0.22 0.22 0.01
7 3 0 1.36 1.38 0.03
7 3 1 10.76 10.68 0.08
7 3 2 1.43 1.44 0.03
7 3 3 14.09 13.98 0.11
7 3 4 1.84 1.83 0.03
7 3 5 0.66 0.65 0.03
7 3 6 1.40 1.36 0.03
7 3 7 0.29 0.32 0.01
7 3 8 0.17 0.18 0.01
7 3 9 0.62 0.58 0.03
7 3 10 0.23 0.27 0.01
7 3 11 1.62 1.62 0.03
7 4 0 0.99 1.00 0.03
7 4 1 1.37 1.35 0.03
7 4 2 1.84 1.81 0.03
7 4 3 1.70 1.69 0.03
7 4 4 11.77 11.55 0.10
7 4 5 0.34 0.34 0.01
7 4 6 1.46 1.46 0.03
7 4 7 0.44 0.45 0.02
7 4 8 2.97 3.04 0.05
7 4 9 0.56 0.55 0.03
7 4 10 0.78 0.78 0.03
7 4 11 0.12 0.14 0.01
7 5 0 5.93 5.81 0.06
7 5 1 3.23 3.17 0.04
7 5 2 0.05 0.10 0.03
7 5 3 2.94 2.85 0.04
7 5 4 1.44 1.42 0.03
7 5 5 0.05 0.08 0.02
7 5 6 0.00 0.01 0.20
7 5 7 0.02 0.01 0.29
7 5 8 0.08 0.09 0.02
7 5 9 0.04 0.04 0.28
7 5 10 0.16 0.16 0.01
7 5 11 0.50 0.48 0.02
7 6 0 0.53 0.52 0.02
7 6 1 2.28 2.20 0.04
7 6 2 1.08 1.10 0.03
7 6 3 2.16 2.14 0.04
7 6 4 0.34 0.36 0.01
7 6 5 1.86 1.86 0.04
7 6 6 0.32 0.32 0.01
7 6 7 3.48 3.55 0.05
7 6 8 0.70 0.71 0.03
7 6 9 0.03 -0.01 0.29
7 6 10 0.00 -0.03 0.27
7 7 1 1.21 1.29 0.05
7 7 2 1.39 1.39 0.05
7 7 3 0.02 0.00 0.39
7 7 4 2.03 1.92 0.06
7 7 5 1.14 1.11 0.05
7 7 6 0.86 0.88 0.05
7 7 7 0.23 0.29 0.02
7 7 8 0.68 0.70 0.04
7 7 9 0.16 0.17 0.02
7 7 10 0.19 0.21 0.02
8 0 0 16.82 17.15 0.14
8 0 1 2.30 2.27 0.04
8 0 2 0.74 0.82 0.03
8 0 3 0.78 0.80 0.03
8 0 4 2.80 2.73 0.05
8 0 5 0.90 0.90 0.03
8 0 6 0.45 0.51 0.02
8 0 7 0.04 0.06 0.33
8 0 8 0.62 0.66 0.03
8 0 9 0.03 0.01 0.33
8 0 10 0.24 0.25 0.01
8 0 11 0.30 0.29 0.01
8 1 0 1.47 1.49 0.03
8 1 1 0.98 0.97 0.03
8 1 2 0.59 0.62 0.02
8 1 3 3.17 3.17 0.04
8 1 4 2.84 2.91 0.04
8 1 5 1.92 1.97 0.04
8 1 6 0.79 0.78 0.03
8 1 7 3.46 3.52 0.05
8 1 8 1.63 1.65 0.04
8 1 9 0.19 0.22 0.01
8 1 10 0.06 0.02 0.28
8 1 11 0.28 0.28 0.01
8 2 0 4.81 4.66 0.05
8 2 1 6.51 6.54 0.06
8 2 2 1.54 1.55 0.03
8 2 3 5.03 5.12 0.05
8 2 4 3.03 3.06 0.04
8 2 5 0.56 0.56 0.02
8 2 6 0.22 0.26 0.01
8 2 7 0.77 0.83 0.03
8 2 8 0.11 0.12 0.01
8 2 9 0.19 0.19 0.01
8 2 10 0.36 0.39 0.02
8 2 11 0.75 0.79 0.03
8 3 0 1.15 1.13 0.03
8 3 1 0.39 0.39 0.01
8 3 2 0.86 0.87 0.03
8 3 3 1.79 1.83 0.03
8 3 4 6.98 7.02 0.07
8 3 5 0.51 0.52 0.02
8 3 6 1.04 1.10 0.03
8 3 7 0.78 0.81 0.03
8 3 8 2.09 2.08 0.04
8 3 9 0.36 0.37 0.02
8 3 10 0.41 0.40 0.02
8 3 11 0.14 0.14 0.01
8 4 0 4.11 4.15 0.05
8 4 1 3.04 2.92 0.04
8 4 2 0.01 0.03 0.26
8 4 3 3.05 2.94 0.04
8 4 4 1.14 1.13 0.03
8 4 5 0.02 0.02 0.28
8 4 6 0.03 0.09 0.03
8 4 7 0.01 0.03 0.16
8 4 8 0.05 0.05 0.02
8 4 9 0.06 0.05 0.20
8 4 10 0.14 0.17 0.01
8 5 0 1.04 0.99 0.03
8 5 1 1.29 1.35 0.03
8 5 2 0.70 0.72 0.03
8 5 3 2.26 2.20 0.04
8 5 4 0.83 0.79 0.03
8 5 5 1.31 1.34 0.03
8 5 6 0.58 0.60 0.03
8 5 7 2.32 2.35 0.04
8 5 8 0.90 0.88 0.03
8 5 9 0.09 0.09 0.02
8 5 10 0.01 0.02 0.26
8 6 0 8.17 8.39 0.09
8 6 1 1.59 1.49 0.04
8 6 2 1.26 1.20 0.03
8 6 3 0.04 0.02 0.28
8 6 4 2.02 1.97 0.04
8 6 5 0.93 1.02 0.03
8 6 6 0.59 0.59 0.03
8 6 7 0.32 0.31 0.02
8 6 8 0.54 0.56 0.02
8 6 9 0.12 0.13 0.01
8 6 10 0.22 0.24 0.02
8 7 0 0.10 0.14 0.02
8 7 1 0.68 0.56 0.03
8 7 2 0.22 0.22 0.01
8 7 3 0.76 0.78 0.03
8 7 4 0.35 0.35 0.02
8 7 5 0.64 0.65 0.03
8 7 6 0.13 0.15 0.02
8 7 7 1.30 1.26 0.04
8 7 8 0.34 0.36 0.01
8 7 9 0.01 0.00 0.27
8 8 0 0.95 0.89 0.05
8 8 1 0.86 0.87 0.04
8 8 2 0.14 0.16 0.02
8 8 3 0.93 0.96 0.05
8 8 4 0.38 0.35 0.02
8 8 5 0.04 0.01 0.41
8 8 6 0.01 0.00 0.41
8 8 7 0.07 0.03 0.41
8 8 8 0.01 0.01 0.39
9 0 1 0.00 -0.02 0.30
9 0 2 0.10 0.09 0.02
9 0 3 1.05 1.02 0.04
9 0 4 3.82 3.87 0.06
9 0 5 0.35 0.35 0.02
9 0 6 0.43 0.45 0.02
9 0 7 1.12 1.15 0.04
9 0 8 1.32 1.34 0.04
9 0 9 0.12 0.12 0.02
9 0 10 0.19 0.19 0.01
9 1 0 3.55 3.59 0.04
9 1 1 3.61 3.62 0.04
9 1 2 0.61 0.64 0.02
9 1 3 3.08 3.12 0.04
9 1 4 1.66 1.66 0.04
9 1 5 0.24 0.26 0.01
9 1 6 0.08 0.05 0.20
9 1 7 0.32 0.32 0.01
9 1 8 0.07 0.03 0.29
9 1 9 0.09 0.07 0.01
9 1 10 0.19 0.20 0.01
9 2 0 1.38 1.40 0.03
9 2 1 0.24 0.23 0.01
9 2 2 0.41 0.41 0.01
9 2 3 1.89 1.90 0.04
9 2 4 3.03 3.12 0.04
9 2 5 0.84 0.79 0.03
9 2 6 0.76 0.83 0.03
9 2 7 1.20 1.19 0.03
9 2 8 1.24 1.25 0.04
9 2 9 0.23 0.22 0.01
9 2 10 0.13 0.11 0.01
9 3 0 5.14 5.25 0.06
9 3 1 1.60 1.62 0.03
9 3 2 0.20 0.19 0.01
9 3 3 1.14 1.14 0.03
9 3 4 1.11 1.06 0.03
9 3 5 0.14 0.12 0.01
9 3 6 0.04 0.04 0.20
9 3 7 0.05 0.03 0.20
9 3 8 0.13 0.13 0.01
9 3 9 0.00 0.02 0.28
9 3 10 0.11 0.09 0.02
9 4 0 0.42 0.42 0.02
9 4 1 1.07 1.07 0.03
9 4 2 0.45 0.48 0.02
9 4 3 1.42 1.40 0.03
9 4 4 0.55 0.54 0.02
9 4 5 1.04 1.04 0.03
9 4 6 0.28 0.29 0.01
9 4 7 2.00 2.03 0.04
9 4 8 0.59 0.62 0.03
9 4 9 0.04 0.05 0.28
9 4 10 0.00 -0.03 0.27
9 5 0 5.91 6.27 0.07
9 5 1 1.44 1.36 0.03
9 5 2 0.93 0.98 0.03
9 5 3 0.11 0.06 0.02
9 5 4 1.61 1.59 0.04
9 5 5 0.64 0.65 0.03
9 5 6 0.36 0.38 0.01
9 5 7 0.27 0.28 0.01
9 5 8 0.38 0.38 0.02
9 5 9 0.07 0.05 0.20
9 6 0 0.18 0.18 0.01
9 6 1 0.41 0.42 0.02
9 6 2 0.15 0.15 0.01
9 6 3 0.73 0.77 0.03
9 6 4 0.51 0.50 0.02
9 6 5 0.45 0.45 0.02
9 6 6 0.18 0.16 0.01
9 6 7 0.94 0.94 0.03
9 6 8 0.38 0.40 0.01
9 6 9 0.02 0.03 0.27
9 7 0 0.75 0.81 0.03
9 7 1 0.83 0.90 0.03
9 7 2 0.09 0.05 0.20
9 7 3 1.01 0.99 0.03
9 7 4 0.30 0.30 0.01
9 7 5 0.02 -0.04 0.29
9 7 6 0.01 0.04 0.28
9 7 7 0.04 0.03 0.28
9 7 8 0.00 0.01 0.27
9 8 0 0.56 0.58 0.02
9 8 1 0.17 0.17 0.01
9 8 2 0.38 0.40 0.02
9 8 3 0.42 0.38 0.02
9 8 4 1.37 1.42 0.04
9 8 5 0.20 0.20 0.01
9 8 6 0.28 0.29 0.01
9 8 7 0.05 0.03 0.20
9 8 8 0.37 0.37 0.02
9 9 0 0.12 0.11 0.02
9 9 1 0.57 0.66 0.04
9 9 2 0.18 0.16 0.02
9 9 3 0.70 0.79 0.04
9 9 4 0.20 0.22 0.02
9 9 5 0.08 0.06 0.40
9 9 6 0.04 0.06 0.22
9 9 7 0.08 0.07 0.38
10 0 0 0.94 0.93 0.04
10 0 1 2.29 2.25 0.04
10 0 2 0.06 0.05 0.32
10 0 3 3.20 3.12 0.05
10 0 4 0.45 0.47 0.02
10 0 5 0.06 0.07 0.33
10 0 6 0.17 0.19 0.01
10 0 7 0.00 0.00 0.33
10 0 8 0.00 0.04 0.32
10 0 9 0.13 0.10 0.02
10 0 10 0.06 0.09 0.51
10 1 0 0.09 0.10 0.01
10 1 1 0.03 0.02 0.27
10 1 2 0.20 0.20 0.01
10 1 3 0.59 0.61 0.02
10 1 4 2.67 2.70 0.04
10 1 5 0.15 0.13 0.01
10 1 6 0.31 0.33 0.01
10 1 7 0.49 0.50 0.02
10 1 8 0.86 0.89 0.03
10 1 9 0.09 0.07 0.02
10 1 10 0.16 0.18 0.02
10 2 0 3.31 3.36 0.05
10 2 1 1.07 1.07 0.03
10 2 2 0.10 0.09 0.03
10 2 3 0.83 0.85 0.03
10 2 4 0.72 0.77 0.03
10 2 5 0.07 0.06 0.02
10 2 6 0.03 0.01 0.28
10 2 7 0.02 0.02 0.28
10 2 8 0.08 0.09 0.01
10 2 9 0.00 -0.02 0.28
10 2 10 0.07 0.04 0.37
10 3 0 0.06 0.07 0.02
10 3 1 0.89 0.87 0.03
10 3 2 0.29 0.32 0.01
10 3 3 0.78 0.85 0.03
10 3 4 0.28 0.31 0.01
10 3 5 0.82 0.78 0.03
10 3 6 0.08 0.11 0.02
10 3 7 1.61 1.54 0.04
10 3 8 0.31 0.29 0.01
10 3 9 0.00 0.05 0.27
10 4 0 4.88 5.07 0.07
10 4 1 0.60 0.61 0.02
10 4 2 0.52 0.50 0.02
10 4 3 0.04 0.03 0.28
10 4 4 0.94 1.01 0.03
10 4 5 0.40 0.40 0.02
10 4 6 0.32 0.31 0.01
10 4 7 0.08 0.08 0.02
10 4 8 0.28 0.26 0.01
10 4 9 0.04 -0.02 0.19
10 5 0 0.06 0.06 0.02
10 5 1 0.33 0.34 0.01
10 5 2 0.08 0.10 0.02
10 5 3 0.49 0.48 0.02
10 5 4 0.39 0.38 0.02
10 5 5 0.37 0.36 0.02
10 5 6 0.10 0.09 0.02
10 5 7 0.78 0.78 0.03
10 5 8 0.27 0.27 0.01
10 5 9 0.01 0.00 0.26
10 6 0 0.61 0.59 0.02
10 6 1 0.70 0.70 0.03
10 6 2 0.05 0.03 0.20
10 6 3 0.89 0.86 0.03
10 6 4 0.23 0.23 0.01
10 6 5 0.01 -0.01 0.29
10 6 6 0.01 0.00 0.29
10 6 7 0.02 0.03 0.20
10 6 8 0.00 0.00 0.27
10 7 0 0.36 0.37 0.02
10 7 1 0.14 0.13 0.02
10 7 2 0.33 0.32 0.01
10 7 3 0.29 0.32 0.01
10 7 4 1.25 1.28 0.04
10 7 5 0.14 0.14 0.01
10 7 6 0.21 0.19 0.01
10 7 7 0.04 0.02 0.20
10 7 8 0.34 0.34 0.01
10 8 0 0.11 0.10 0.02
10 8 1 0.52 0.51 0.02
10 8 2 0.15 0.16 0.01
10 8 3 0.69 0.74 0.03
10 8 4 0.16 0.17 0.01
10 8 5 0.06 0.03 0.20
10 8 6 0.04 0.05 0.19
10 8 7 0.07 0.05 0.01
10 9 0 0.00 0.01 0.20
10 9 1 0.02 0.04 0.28
10 9 2 0.00 0.00 0.28
10 9 3 0.07 0.07 0.02
10 9 4 0.16 0.18 0.01
10 9 5 0.05 0.02 0.28
10 9 6 0.02 0.03 0.19
10 10 0 0.57 0.59 0.04
10 10 1 0.10 0.12 0.02
10 10 2 0.09 0.07 0.40
10 10 3 0.00 -0.02 0.40
10 10 4 0.13 0.13 0.02
10 10 5 0.05 0.06 0.38
11 0 1 0.01 0.00 0.33
11 0 2 0.13 0.08 0.02
11 0 3 0.30 0.33 0.02
11 0 4 1.57 1.54 0.04
11 0 5 0.06 0.02 0.33
11 0 6 0.16 0.14 0.02
11 0 7 0.27 0.27 0.01
11 0 8 0.52 0.50 0.03
11 0 9 0.04 -0.01 0.31
11 1 0 1.23 1.33 0.03
11 1 1 0.90 0.92 0.03
11 1 2 0.02 0.03 0.20
11 1 3 0.96 0.96 0.03
11 1 4 0.36 0.38 0.01
11 1 5 0.01 0.02 0.28
11 1 6 0.00 0.03 0.28
11 1 7 0.01 0.04 0.28
11 1 8 0.02 0.04 0.28
11 1 9 0.03 0.05 0.26
11 2 0 0.12 0.12 0.02
11 2 1 0.27 0.24 0.01
11 2 2 0.07 0.03 0.20
11 2 3 0.49 0.51 0.02
11 2 4 0.46 0.42 0.02
11 2 5 0.35 0.37 0.01
11 2 6 0.11 0.10 0.02
11 2 7 0.72 0.74 0.03
11 2 8 0.29 0.28 0.01
11 2 9 0.02 0.04 0.26
11 3 0 2.79 2.78 0.05
11 3 1 0.40 0.44 0.02
11 3 2 0.25 0.23 0.01
11 3 3 0.08 0.09 0.02
11 3 4 0.55 0.54 0.03
11 3 5 0.18 0.18 0.01
11 3 6 0.15 0.15 0.01
11 3 7 0.04 0.03 0.28
11 3 8 0.14 0.12 0.01
11 4 0 0.01 0.02 0.28
11 4 1 0.25 0.23 0.01
11 4 2 0.04 0.04 0.17
11 4 3 0.29 0.32 0.01
11 4 4 0.26 0.27 0.01
11 4 5 0.29 0.26 0.01
11 4 6 0.05 0.05 0.20
11 4 7 0.60 0.54 0.03
11 4 8 0.17 0.15 0.01
11 5 0 0.63 0.63 0.03
11 5 1 0.47 0.52 0.02
11 5 2 0.06 0.08 0.28
11 5 3 0.52 0.52 0.02
11 5 4 0.21 0.22 0.01
11 5 5 0.01 -0.01 0.29
11 5 6 0.00 0.04 0.28
11 5 7 0.03 0.05 0.27
11 5 8 0.01 -0.02 0.26
11 6 0 0.25 0.25 0.01
11 6 1 0.07 0.09 0.01
11 6 2 0.20 0.21 0.01
11 6 3 0.22 0.24 0.01
11 6 4 0.86 0.88 0.03
11 6 5 0.10 0.10 0.02
11 6 6 0.15 0.16 0.01
11 6 7 0.05 0.04 0.19
11 7 0 0.11 0.12 0.02
11 7 1 0.40 0.41 0.02
11 7 2 0.09 0.09 0.01
11 7 3 0.55 0.52 0.03
11 7 4 0.12 0.13 0.01
11 7 5 0.04 0.08 0.02
11 7 6 0.03 0.06 0.27
11 7 7 0.04 0.06 0.26
11 8 0 0.00 0.00 0.28
11 8 1 0.02 -0.01 0.29
11 8 2 0.00 -0.02 0.29
11 8 3 0.06 0.07 0.02
11 8 4 0.15 0.16 0.01
11 8 5 0.04 0.06 0.19
11 8 6 0.02 0.03 0.26
11 9 0 0.51 0.53 0.02
11 9 1 0.10 0.10 0.01
11 9 2 0.08 0.06 0.02
11 9 3 0.00 -0.02 0.28
11 9 4 0.12 0.13 0.02
11 9 5 0.05 0.05 0.19
11 10 0 0.06 0.05 0.28
11 10 1 0.13 0.11 0.01
11 10 2 0.06 0.06 0.02
11 10 3 0.10 0.08 0.02
12 0 0 0.97 1.00 0.04
12 0 1 0.37 0.37 0.02
12 0 2 0.02 0.00 0.22
12 0 3 0.34 0.34 0.02
12 0 4 0.21 0.20 0.01
12 0 5 0.01 0.01 0.33
12 0 6 0.01 0.04 0.32
12 0 7 0.00 0.03 0.31
12 0 8 0.02 0.05 0.31
12 1 0 0.07 0.05 0.29
12 1 1 0.09 0.08 0.02
12 1 2 0.02 0.05 0.28
12 1 3 0.26 0.28 0.01
12 1 4 0.37 0.37 0.02
12 1 5 0.16 0.16 0.01
12 1 6 0.07 0.01 0.29
12 1 7 0.34 0.36 0.02
12 1 8 0.19 0.19 0.01
12 2 0 1.15 1.17 0.03
12 2 1 0.36 0.36 0.01
12 2 2 0.10 0.12 0.02
12 2 3 0.19 0.17 0.01
12 2 4 0.30 0.29 0.01
12 2 5 0.06 0.01 0.29
12 2 6 0.03 0.00 0.28
12 2 7 0.03 0.05 0.28
12 2 8 0.05 0.06 0.01
12 3 0 0.01 0.03 0.28
12 3 1 0.09 0.09 0.01
12 3 2 0.01 0.03 0.20
12 3 3 0.18 0.18 0.01
12 3 4 0.27 0.27 0.01
12 3 5 0.13 0.14 0.02
12 3 6 0.04 0.07 0.02
12 3 7 0.29 0.29 0.01
12 4 0 0.45 0.47 0.02
12 4 1 0.30 0.29 0.01
12 4 2 0.03 0.01 0.29
12 4 3 0.34 0.32 0.01
12 4 4 0.14 0.14 0.01
12 4 5 0.01 0.00 0.28
12 4 6 0.00 -0.01 0.28
12 4 7 0.01 0.03 0.27
12 5 0 0.15 0.12 0.02
12 5 1 0.02 0.02 0.29
12 5 2 0.09 0.10 0.02
12 5 3 0.15 0.13 0.01
12 5 4 0.50 0.55 0.02
12 5 5 0.07 0.06 0.28
12 5 6 0.09 0.08 0.28
12 5 7 0.06 0.03 0.26
12 6 0 0.14 0.15 0.01
12 6 1 0.26 0.27 0.01
12 6 2 0.06 0.05 0.21
12 6 3 0.33 0.38 0.02
12 6 4 0.09 0.08 0.02
12 6 5 0.02 0.03 0.20
12 6 6 0.01 0.01 0.27
12 7 0 0.00 -0.01 0.28
12 7 1 0.02 0.01 0.20
12 7 2 0.00 0.00 0.28
12 7 3 0.05 0.06 0.01
12 7 4 0.12 0.13 0.01
12 7 5 0.04 0.00 0.19
12 8 0 0.40 0.43 0.02
12 8 1 0.08 0.06 0.02
12 8 2 0.06 0.09 0.02
12 8 3 0.00 0.00 0.27
12 8 4 0.10 0.10 0.02
12 9 0 0.05 0.05 0.28
12 9 1 0.11 0.06 0.02
12 9 2 0.05 0.00 0.28
12 9 3 0.08 0.07 0.02
13 0 1 0.10 0.08 0.02
13 0 2 0.01 0.03 0.21
13 0 3 0.11 0.12 0.02
13 0 4 0.12 0.11 0.01
13 0 5 0.12 0.09 0.02
13 0 6 0.02 0.00 0.32
13 0 7 0.24 0.20 0.01
13 1 0 0.66 0.67 0.03
13 1 1 0.15 0.15 0.01
13 1 2 0.04 0.00 0.29
13 1 3 0.09 0.10 0.01
13 1 4 0.14 0.13 0.01
13 1 5 0.02 0.01 0.20
13 1 6 0.02 0.01 0.19
13 1 7 0.00 0.03 0.26
13 2 0 0.01 0.01 0.28
13 2 1 0.03 0.02 0.28
13 2 2 0.00 0.00 0.28
13 2 3 0.09 0.09 0.02
13 2 4 0.19 0.16 0.01
13 2 5 0.06 0.02 0.29
13 2 6 0.03 0.05 0.27
13 3 0 0.24 0.24 0.01
13 3 1 0.19 0.19 0.01
13 3 2 0.00 0.00 0.29
13 3 3 0.24 0.22 0.01
13 3 4 0.07 0.05 0.29
13 3 5 0.00 0.01 0.28
13 3 6 0.00 0.01 0.27
13 4 0 0.04 0.02 0.20
13 4 1 0.00 0.03 0.28
13 4 2 0.05 0.04 0.28
13 4 3 0.07 0.07 0.02
13 4 4 0.30 0.30 0.01
13 4 5 0.03 -0.03 0.32
13 4 6 0.04 0.05 0.19
13 5 0 0.12 0.13 0.01
13 5 1 0.15 0.17 0.01
13 5 2 0.02 -0.01 0.28
13 5 3 0.20 0.18 0.01
13 5 4 0.05 0.00 0.28
13 5 5 0.01 0.04 0.26
13 6 0 0.00 0.01 0.28
13 6 1 0.02 0.01 0.28
13 6 2 0.00 0.00 0.28
13 6 3 0.04 0.06 0.27
13 6 4 0.08 0.08 0.02
13 6 5 0.03 -0.01 0.27
13 7 0 0.29 0.26 0.01
13 7 1 0.05 0.05 0.02
13 7 2 0.04 0.02 0.16
13 7 3 0.01 0.00 0.19
13 7 4 0.06 0.04 0.27
13 8 0 0.03 0.01 0.27
13 8 1 0.07 0.06 0.02
13 8 2 0.03 0.05 0.26
14 0 0 0.35 0.33 0.02
14 0 1 0.06 0.01 0.33
14 0 2 0.02 0.01 0.21
14 0 3 0.04 -0.01 0.33
14 0 4 0.07 0.08 0.02
14 0 5 0.01 0.00 0.31
14 1 0 0.00 0.01 0.28
14 1 1 0.03 0.03 0.28
14 1 2 0.00 -0.05 0.29
14 1 3 0.04 0.02 0.28
14 1 4 0.08 0.06 0.28
14 1 5 0.05 0.02 0.27
14 2 0 0.17 0.17 0.01
14 2 1 0.09 0.10 0.02
14 2 2 0.01 -0.01 0.28
14 2 3 0.11 0.09 0.02
14 2 4 0.04 0.04 0.27
14 2 5 0.00 -0.02 0.27
14 3 0 0.01 0.01 0.28
14 3 1 0.00 0.00 0.28
14 3 2 0.02 0.02 0.28
14 3 3 0.03 0.04 0.28
14 3 4 0.15 0.11 0.02
14 3 5 0.01 -0.02 0.26
14 4 0 0.08 0.07 0.01
14 4 1 0.08 0.07 0.02
14 4 2 0.01 -0.01 0.28
14 4 3 0.11 0.11 0.02
14 4 4 0.03 -0.01 0.19
14 5 0 0.00 -0.03 0.28
14 5 1 0.01 -0.02 0.20
14 5 2 0.00 0.00 0.27
14 5 3 0.02 0.04 0.27
14 6 0 0.17 0.17 0.01
14 6 1 0.03 -0.01 0.19
14 6 2 0.02 0.00 0.27
15 0 1 0.01 -0.01 0.32
15 0 2 0.00 -0.04 0.32
15 0 3 0.02 0.04 0.30
15 1 0 0.10 0.08 0.28
15 1 1 0.04 0.03 0.19
15 1 2 0.00 0.03 0.26
15 1 3 0.04 0.03 0.19
15 2 0 0.01 0.02 0.27
15 2 1 0.00 0.00 0.27
15 2 2 0.00 -0.01 0.27
15 3 0 0.06 0.06 0.27
15 3 1 0.04 -0.02 0.27
15 3 2 0.00 0.01 0.26
15 4 0 0.00 0.01 0.19
loop_
_atom_site_anharm_gc_c_label
_atom_site_anharm_gc_c_111
_atom_site_anharm_gc_c_222
_atom_site_anharm_gc_c_333
_atom_site_anharm_gc_c_112
_atom_site_anharm_gc_c_122
_atom_site_anharm_gc_c_113
_atom_site_anharm_gc_c_133
_atom_site_anharm_gc_c_223
_atom_site_anharm_gc_c_233
_atom_site_anharm_gc_c_123
O 0.0 0.0 -0.00000015(9) 0.0 0.0 -0.00000031(5) 0.0 -0.00000031(5) 0.0
0.00000007(13)
N -0.00000149(14) -0.00000149(14) 0.00000048(12) 0.00000046(6) 0.00000046(6)
0.00000142(8) -0.00000000(5) 0.00000142(8) -0.00000000(5) -0.00000145(13)
