#------------------------------------------------------------------------------
#$Date: 2022-03-02 05:20:08 +0200 (Wed, 02 Mar 2022) $
#$Revision: 273207 $
#$URL: file:///home/coder/svn-repositories/cod/cif/1/56/64/1566447.cif $
#------------------------------------------------------------------------------
#
# This file is available in the Crystallography Open Database (COD),
# http://www.crystallography.net/. The original data for this entry
# were provided by IUCr Journals, http://journals.iucr.org/.
#
# The file may be used within the scientific community so long as
# proper attribution is given to the journal article from which the
# data were obtained.
#
data_1566447
loop_
_publ_author_name
'Ruth, Paul Niklas'
'Herbst-Irmer, Regine'
'Stalke, Dietmar'
_publ_section_title
;
 Hirshfeld atom refinement based on projector augmented wave densities
 with periodic boundary conditions
;
_journal_issue                   2
_journal_name_full               IUCrJ
_journal_page_first              286
_journal_page_last               297
_journal_paper_doi               10.1107/S2052252522001385
_journal_volume                  9
_journal_year                    2022
_chemical_absolute_configuration syn
_chemical_formula_moiety         'C3 H7 N O2'
_chemical_formula_sum            'C3 H7 N O2'
_chemical_formula_weight         89.0947
_space_group_crystal_system      orthorhombic
_space_group_IT_number           19
_space_group_name_Hall           'P 2ac 2ab'
_space_group_name_H-M_alt        'P 21 21 21'
_atom_sites_solution_hydrogens   difmap
_audit_creation_method           'xHARPY 0.1'
_cell_angle_alpha                90
_cell_angle_beta                 90
_cell_angle_gamma                90
_cell_formula_units_Z            4
_cell_length_a                   5.9279(10)
_cell_length_b                   12.2597(17)
_cell_length_c                   5.7939(9)
_cell_measurement_reflns_used    1524
_cell_measurement_temperature    23
_cell_measurement_theta_max      22.5
_cell_measurement_theta_min      15.0
_cell_volume                     421.07(11)
_computing_publication_material  'xHARPY 0.1'
_computing_structure_refinement  'xHARPY 0.1'
_computing_structure_solution    'SHELXS-2013 (Sheldrick, 2008)'
_diffrn_ambient_temperature      23
_diffrn_measured_fraction_theta_full 0.994
_diffrn_measured_fraction_theta_max 0.993
_diffrn_measurement_device_type  'P-1 four circle diffractometer'
_diffrn_measurement_method       'area detector'
_diffrn_radiation_type           MoK\a
_diffrn_radiation_wavelength     0.71073
_diffrn_reflns_av_unetI/netI     0.0243
_diffrn_reflns_Laue_measured_fraction_full 0.994
_diffrn_reflns_Laue_measured_fraction_max 0.993
_diffrn_reflns_limit_h_max       12
_diffrn_reflns_limit_h_min       0
_diffrn_reflns_limit_k_max       26
_diffrn_reflns_limit_k_min       0
_diffrn_reflns_limit_l_max       12
_diffrn_reflns_limit_l_min       0
_diffrn_reflns_number            2519
_diffrn_reflns_point_group_measured_fraction_full 0.618
_diffrn_reflns_point_group_measured_fraction_max 0.567
_diffrn_reflns_theta_full        25.242
_diffrn_reflns_theta_max         50.138
_diffrn_reflns_theta_min         3.323
_exptl_absorpt_coefficient_mu    0.117
_exptl_absorpt_correction_type   none
_exptl_crystal_colour            colorless
_exptl_crystal_density_diffrn    1.405
_exptl_crystal_density_method    'not measured'
_exptl_crystal_description       sphere
_exptl_crystal_F_000             192
_exptl_crystal_size_rad          0.18
_refine_diff_density_max         0.1804
_refine_diff_density_min         -0.1826
_refine_diff_density_rms         0.0434
_refine_ls_extinction_method     none
_refine_ls_goodness_of_fit_ref   1.117
_refine_ls_hydrogen_treatment    refall
_refine_ls_matrix_type           full
_refine_ls_number_parameters     118
_refine_ls_number_reflns         2519
_refine_ls_number_restraints     0
_refine_ls_R_factor_all          0.0206
_refine_ls_R_factor_gt           0.0188
_refine_ls_shift/su_max          0.0
_refine_ls_shift/su_mean         0.0
_refine_ls_structure_factor_coef Fsqd
_refine_ls_weighting_details     w=1/[\s^2^(Fo^2^)]
_refine_ls_weighting_scheme      sigma
_refine_ls_wR_factor_gt          0.0312
_refine_ls_wR_factor_ref         0.0314
_reflns_Friedel_coverage         0.0
_reflns_Friedel_fraction_full    0.0
_reflns_Friedel_fraction_max     0.0
_reflns_number_gt                2393
_reflns_number_total             2519
_reflns_threshold_expression     'I > 2\s(I)'
_cod_data_source_file            fc5060.cif
_cod_data_source_block           A23_xHARPy_RPBE_fd_rectangular
_cod_database_code               1566447
loop_
_space_group_symop_operation_xyz
'x, y, z'
'-x+1/2, -y, z+1/2'
'x+1/2, -y+1/2, -z'
'-x, y+1/2, -z+1/2'
loop_
_atom_site_label
_atom_site_type_symbol
_atom_site_fract_x
_atom_site_fract_y
_atom_site_fract_z
_atom_site_U_iso_or_equiv
_atom_site_adp_type
_atom_site_occupancy
_atom_site_site_symmetry_order
O1 O 0.72674(4) 0.083789(17) 0.62434(4) 0.00667(3) Uani 1.0 1
O2 O 0.44092(4) 0.184035(16) 0.76114(4) 0.00648(3) Uani 1.0 1
N1 N 0.64723(4) 0.137512(20) 0.18304(5) 0.00534(3) Uani 1.0 1
H1 H 0.7034(11) 0.0602(5) 0.1956(14) 0.0236(19) Uani 1.0 1
H2 H 0.7795(10) 0.1899(5) 0.2085(14) 0.0206(17) Uani 1.0 1
H3 H 0.5853(12) 0.1488(5) 0.0157(12) 0.0231(18) Uani 1.0 1
C1 C 0.46630(4) 0.161076(20) 0.35445(5) 0.00448(3) Uani 1.0 1
H4 H 0.4238(9) 0.2476(4) 0.3392(11) 0.0195(15) Uani 1.0 1
C2 C 0.25991(5) 0.09068(2) 0.30334(6) 0.00696(4) Uani 1.0 1
H5 H 0.1932(10) 0.1105(5) 0.1324(12) 0.0280(18) Uani 1.0 1
H6 H 0.1283(10) 0.1050(5) 0.4299(13) 0.0282(18) Uani 1.0 1
H7 H 0.3046(10) 0.0047(5) 0.3077(14) 0.0302(20) Uani 1.0 1
C3 C 0.55407(4) 0.140792(20) 0.59991(5) 0.00424(3) Uani 1.0 1
loop_
_atom_site_aniso_label
_atom_site_aniso_U_11
_atom_site_aniso_U_22
_atom_site_aniso_U_33
_atom_site_aniso_U_23
_atom_site_aniso_U_13
_atom_site_aniso_U_12
O1 0.00686(7) 0.00725(6) 0.00588(8) 0.00053(6) -0.00059(6) 0.00246(6)
O2 0.00766(7) 0.00762(6) 0.00415(7) -0.00059(6) 0.00061(6) 0.00201(6)
N1 0.00565(7) 0.00607(7) 0.00430(8) -0.00008(6) 0.00046(6) 0.00006(6)
H1 0.025(4) 0.026(4) 0.020(5) 0.001(3) 0.009(4) 0.005(3)
H2 0.014(3) 0.025(4) 0.022(5) 0.002(4) 0.008(4) 0.000(3)
H3 0.039(4) 0.024(4) 0.007(4) -0.006(3) 0.009(4) -0.009(4)
C1 0.00509(8) 0.00472(7) 0.00362(9) 0.00005(6) -0.00028(7) 0.00045(6)
H4 0.023(3) 0.016(3) 0.019(4) 0.004(3) 0.006(3) 0.009(3)
C2 0.00584(8) 0.00890(8) 0.00612(10) -0.00042(8) -0.00060(7) -0.00131(7)
H5 0.025(4) 0.047(5) 0.012(4) 0.008(3) -0.011(3) -0.012(3)
H6 0.016(3) 0.035(4) 0.033(5) 0.004(4) 0.005(4) -0.002(3)
H7 0.034(5) 0.016(3) 0.041(5) -0.004(3) 0.003(4) -0.005(3)
C3 0.00495(7) 0.00433(7) 0.00342(9) 0.00001(6) -0.00030(7) 0.00029(7)
loop_
_atom_type_symbol
_atom_type_description
_atom_type_scat_dispersion_real
_atom_type_scat_dispersion_imag
_atom_type_scat_source
C C 0.0033 0.0016 'HAR in xHARPy 0.1'
H H 0.0000 0.0000 'HAR in xHARPy 0.1'
N N 0.0061 0.0033 'HAR in xHARPy 0.1'
O O 0.0106 0.0060 'HAR in xHARPy 0.1'
loop_
_geom_angle_atom_site_label_1
_geom_angle_atom_site_label_2
_geom_angle_atom_site_label_3
_geom_angle
C1 N1 H1 111.8(4)
C1 N1 H2 109.5(4)
H1 N1 H2 109.0(5)
C1 N1 H3 109.9(4)
H1 N1 H3 107.9(6)
H2 N1 H3 108.6(5)
C3 C1 N1 110.01(2)
C3 C1 C2 111.10(2)
N1 C1 C2 109.76(2)
C3 C1 H4 108.1(3)
N1 C1 H4 107.4(3)
C2 C1 H4 110.4(3)
C1 C2 H5 109.9(3)
C1 C2 H6 110.7(3)
H5 C2 H6 108.4(4)
C1 C2 H7 110.4(3)
H5 C2 H7 108.9(5)
H6 C2 H7 108.4(5)
O2 C3 O1 125.83(3)
O2 C3 C1 115.86(2)
O1 C3 C1 118.30(2)
loop_
_geom_bond_atom_site_label_1
_geom_bond_atom_site_label_2
_geom_bond_distance
O1 C3 1.2474(4)
O2 C3 1.2663(4)
N1 C1 1.4900(4)
N1 H1 1.007(7)
N1 H2 1.024(6)
N1 H3 1.046(7)
C1 C3 1.5346(4)
C1 C2 1.5262(4)
C1 H4 1.094(5)
C2 H5 1.094(7)
C2 H6 1.085(7)
C2 H7 1.087(6)
loop_
_refln_index_h
_refln_index_k
_refln_index_l
_refln_F_squared_calc
_refln_F_squared_meas
_refln_F_squared_sigma
0 2 0 182.06 183.99 1.76
0 4 0 5390.83 5191.56 44.50
0 6 0 89.95 89.79 1.04
0 8 0 45.49 45.41 0.72
0 10 0 0.59 0.80 0.34
0 12 0 236.90 233.04 2.66
0 14 0 56.40 58.64 1.13
0 16 0 24.62 25.27 0.86
0 18 0 225.93 227.91 2.98
0 20 0 0.02 0.22 0.34
0 22 0 133.68 135.69 2.36
0 24 0 0.06 0.23 0.38
0 26 0 5.50 6.46 0.62
0 1 1 731.43 725.25 7.33
0 2 1 118.19 119.68 1.22
0 3 1 697.71 709.40 6.41
0 4 1 95.12 98.39 1.07
0 5 1 0.30 0.23 0.16
0 6 1 474.10 475.52 4.58
0 7 1 36.61 36.97 0.61
0 8 1 44.06 44.41 0.73
0 9 1 32.66 32.12 0.66
0 10 1 134.65 137.47 1.70
0 11 1 67.61 66.79 1.11
0 12 1 76.25 76.44 1.23
0 13 1 19.73 18.86 0.69
0 14 1 39.29 37.95 0.95
0 15 1 91.41 91.07 1.56
0 16 1 0.34 2.38 9.21
0 17 1 0.89 1.13 0.35
0 18 1 61.47 59.95 1.37
0 19 1 15.79 16.18 0.90
0 20 1 28.02 27.47 1.05
0 21 1 2.07 2.69 0.42
0 23 1 1.76 1.73 0.42
0 24 1 0.03 0.16 0.38
0 25 1 2.29 2.99 0.56
0 26 1 19.72 19.81 1.24
0 0 2 2907.47 2845.71 33.35
0 1 2 518.23 533.78 6.56
0 2 2 174.62 181.78 2.08
0 3 2 56.58 56.26 0.80
0 4 2 171.40 171.41 1.79
0 5 2 557.23 567.48 5.33
0 6 2 92.18 96.83 1.17
0 7 2 5.25 5.42 0.34
0 8 2 109.20 111.85 1.40
0 9 2 21.74 23.71 0.60
0 10 2 45.82 46.31 0.86
0 11 2 84.32 83.88 1.26
0 12 2 28.48 28.28 0.75
0 13 2 21.70 21.52 0.70
0 14 2 22.20 21.32 0.75
0 15 2 182.18 181.53 2.39
0 16 2 3.98 4.45 0.41
0 17 2 63.39 61.14 1.38
0 18 2 19.50 20.43 0.91
0 19 2 118.41 120.02 2.09
0 20 2 0.89 0.98 0.41
0 21 2 46.08 45.99 1.36
0 22 2 37.43 36.86 1.29
0 23 2 16.86 18.03 1.03
0 24 2 1.85 2.49 0.46
0 25 2 21.70 22.49 1.26
0 26 2 1.71 2.56 0.50
0 1 3 82.94 84.09 1.75
0 2 3 156.69 157.95 2.93
0 3 3 203.29 205.66 2.46
0 4 3 717.33 739.87 7.78
0 5 3 78.90 81.41 1.20
0 6 3 267.70 272.66 2.85
0 7 3 21.96 22.43 0.57
0 8 3 61.00 61.72 0.99
0 9 3 145.63 142.89 1.79
0 10 3 39.51 39.66 0.84
0 11 3 69.06 70.45 1.18
0 12 3 119.02 119.05 1.70
0 13 3 144.68 145.68 2.00
0 14 3 29.12 27.85 0.86
0 15 3 90.93 90.56 1.59
0 16 3 156.12 154.97 2.26
0 17 3 48.70 47.27 1.24
0 18 3 28.02 27.03 0.99
0 19 3 3.12 2.51 0.41
0 20 3 43.64 44.49 1.34
0 21 3 0.84 0.87 0.38
0 22 3 0.61 1.16 0.41
0 23 3 26.65 28.19 1.16
0 24 3 12.11 12.73 0.91
0 25 3 5.72 4.98 0.58
0 0 4 211.41 209.91 3.91
0 1 4 38.35 39.87 1.20
0 2 4 91.92 93.16 2.05
0 3 4 7.78 8.01 0.45
0 4 4 225.78 229.73 2.84
0 5 4 0.37 0.68 0.37
0 6 4 70.91 71.01 1.23
0 7 4 29.99 29.25 0.78
0 8 4 65.42 64.56 1.08
0 9 4 7.21 7.20 0.46
0 10 4 88.45 90.44 1.38
0 11 4 97.85 98.09 1.52
0 12 4 39.39 39.05 0.96
0 13 4 11.03 11.50 0.65
0 14 4 143.79 142.58 2.09
0 15 4 46.22 45.32 1.18
0 16 4 94.83 94.78 1.74
0 17 4 5.27 5.71 0.46
0 18 4 10.18 9.64 0.74
0 19 4 3.87 3.36 0.44
0 20 4 1.67 1.84 0.41
0 21 4 0.47 0.19 0.37
0 22 4 3.59 4.36 0.49
0 23 4 0.03 0.12 0.40
0 24 4 25.89 26.60 1.14
0 25 4 2.20 2.90 0.51
0 1 5 243.10 236.37 4.52
0 2 5 141.07 137.43 2.96
0 3 5 49.95 49.27 1.54
0 4 5 387.93 389.52 4.59
0 5 5 181.14 177.92 2.43
0 6 5 0.70 0.77 0.41
0 7 5 7.07 6.63 0.53
0 8 5 148.94 145.39 2.18
0 9 5 73.73 69.44 1.43
0 10 5 9.27 7.96 0.55
0 11 5 21.96 20.77 0.78
0 12 5 1.33 1.49 0.33
0 13 5 78.00 79.27 1.51
0 14 5 2.76 3.52 0.41
0 15 5 13.36 14.11 0.79
0 16 5 13.92 13.30 0.80
0 17 5 73.88 77.11 1.66
0 18 5 2.73 2.34 0.42
0 19 5 14.22 13.64 0.90
0 20 5 0.16 0.30 0.40
0 21 5 21.30 19.66 1.04
0 22 5 4.77 5.50 0.53
0 23 5 14.16 12.54 0.96
0 24 5 0.34 0.26 0.38
0 0 6 0.68 0.79 0.63
0 1 6 94.39 93.85 2.45
0 2 6 15.50 16.22 1.03
0 3 6 1.02 1.49 0.65
0 4 6 16.98 16.01 1.09
0 5 6 85.57 86.35 1.57
0 6 6 12.14 11.19 0.65
0 7 6 145.06 142.21 2.25
0 8 6 31.55 30.04 0.99
0 9 6 12.78 14.37 0.77
0 10 6 15.76 15.63 0.82
0 11 6 119.34 117.34 1.90
0 12 6 6.36 6.32 0.55
0 13 6 4.32 4.79 0.48
0 14 6 10.90 11.70 0.74
0 15 6 0.03 0.09 0.34
0 16 6 43.67 41.58 1.28
0 17 6 29.16 29.15 1.11
0 18 6 6.92 7.81 0.69
0 19 6 43.37 44.26 1.39
0 20 6 1.33 1.84 0.43
0 21 6 22.37 21.32 1.09
0 22 6 10.33 10.59 0.77
0 23 6 16.98 17.02 0.99
0 1 7 61.40 58.84 2.05
0 2 7 553.68 541.83 9.74
0 3 7 0.00 0.47 0.77
0 4 7 12.05 11.80 1.10
0 5 7 24.65 24.11 1.43
0 6 7 43.22 43.22 1.22
0 7 7 47.72 46.70 1.28
0 8 7 1.56 1.95 0.43
0 9 7 4.41 4.94 0.52
0 10 7 10.24 9.23 0.81
0 11 7 30.14 31.43 1.19
0 12 7 5.09 5.85 0.64
0 13 7 13.17 11.65 0.80
0 14 7 1.03 1.48 0.38
0 16 7 83.59 81.79 1.82
0 17 7 0.50 1.05 0.40
0 18 7 1.45 2.31 0.44
0 19 7 5.20 6.87 0.55
0 20 7 137.40 135.39 2.45
0 21 7 0.43 0.91 0.40
0 0 8 25.92 24.50 1.51
0 1 8 2.93 3.59 0.95
0 2 8 9.70 8.72 1.15
0 3 8 16.56 15.74 1.35
0 4 8 1.94 1.73 0.95
0 6 8 10.27 10.29 0.82
0 7 8 58.37 59.70 1.57
0 8 8 89.59 87.60 1.93
0 9 8 11.29 12.28 0.87
0 10 8 5.35 6.55 0.70
0 11 8 41.22 40.14 1.41
0 12 8 40.26 40.27 1.45
0 13 8 32.65 32.19 1.35
0 14 8 11.14 12.55 0.98
0 15 8 0.08 0.55 0.38
0 16 8 0.58 1.00 0.40
0 17 8 7.24 6.58 0.55
0 18 8 0.28 0.58 0.40
0 19 8 10.28 9.24 0.77
0 20 8 5.69 6.16 0.53
0 1 9 6.74 8.53 1.16
0 2 9 48.11 46.43 2.20
0 3 9 62.76 63.42 2.53
0 4 9 21.21 22.25 1.63
0 5 9 1.31 1.65 0.96
0 6 9 1.35 1.58 0.98
0 7 9 47.52 46.58 1.53
0 8 9 79.59 79.75 1.94
0 9 9 17.14 16.49 1.07
0 10 9 13.90 13.87 1.02
0 11 9 1.77 2.25 0.53
0 12 9 35.60 34.93 1.40
0 13 9 29.06 29.18 1.34
0 14 9 0.66 0.29 0.49
0 15 9 46.26 47.36 1.64
0 16 9 13.42 14.47 1.09
0 17 9 15.29 15.54 0.99
0 18 9 8.37 8.59 0.64
0 0 10 5.18 4.81 1.23
0 1 10 0.00 0.01 1.01
0 2 10 21.13 20.72 1.74
0 3 10 49.21 49.02 2.42
0 4 10 27.68 28.37 1.94
0 5 10 32.79 32.74 2.06
0 6 10 41.09 41.66 2.33
0 7 10 54.10 54.42 2.60
0 8 10 58.35 60.27 1.80
0 9 10 6.73 6.74 0.66
0 10 10 1.25 1.86 0.52
0 11 10 17.56 16.40 1.15
0 12 10 11.99 13.44 0.93
0 13 10 11.54 12.55 1.05
0 14 10 46.23 43.63 1.63
0 15 10 5.01 5.86 0.65
0 1 11 0.63 0.48 1.22
0 2 11 1.99 2.70 1.24
0 3 11 7.65 6.80 1.48
0 4 11 1.17 0.92 1.29
0 5 11 1.49 0.90 1.29
0 6 11 8.80 7.73 1.54
0 7 11 2.47 3.10 1.35
0 8 11 7.74 8.41 1.54
0 9 11 7.63 8.01 0.77
0 10 11 0.76 1.57 0.54
0 11 11 9.17 8.36 0.84
0 12 11 31.29 30.20 1.41
0 0 12 0.05 2.48 9.21
0 1 12 28.73 27.04 2.25
0 2 12 18.95 20.23 1.97
0 3 12 118.32 116.36 3.96
0 4 12 0.34 0.42 1.42
0 5 12 9.33 9.79 1.72
0 6 12 54.42 55.85 2.76
0 7 12 68.84 64.90 3.04
1 1 0 252.29 251.83 2.37
1 2 0 5399.30 5494.34 58.18
1 3 0 58.73 59.19 0.69
1 4 0 1721.66 1680.81 14.79
1 5 0 334.54 338.85 3.29
1 6 0 63.79 61.96 0.80
1 7 0 19.31 19.28 0.44
1 8 0 395.27 402.70 4.01
1 9 0 2.70 3.26 0.34
1 10 0 41.42 43.12 0.80
1 11 0 94.86 97.02 1.36
1 12 0 25.76 26.96 0.71
1 13 0 58.50 57.40 1.08
1 14 0 1.52 0.86 0.43
1 15 0 85.32 86.43 1.48
1 16 0 24.33 24.49 0.85
1 17 0 30.32 29.58 0.96
1 18 0 0.82 0.93 0.38
1 19 0 34.20 33.77 1.10
1 20 0 42.18 40.33 1.25
1 21 0 1.20 1.43 0.43
1 22 0 3.80 4.00 0.47
1 23 0 6.15 7.02 0.60
1 24 0 9.86 9.80 0.79
1 26 0 6.74 7.33 0.64
1 0 1 73.65 76.89 0.84
1 1 1 130.38 133.75 1.36
1 2 1 102.07 104.27 1.10
1 3 1 1089.62 1089.13 9.69
1 4 1 155.63 157.25 1.64
1 5 1 438.41 438.50 4.23
1 6 1 21.06 21.92 0.44
1 7 1 335.03 339.83 3.41
1 8 1 230.57 234.92 2.48
1 9 1 230.64 232.62 2.53
1 10 1 134.20 131.41 1.68
1 11 1 17.18 17.17 0.56
1 12 1 1.15 0.36 0.36
1 13 1 128.53 127.82 1.77
1 14 1 30.23 29.62 0.83
1 15 1 88.49 87.75 1.52
1 16 1 61.96 61.87 1.29
1 17 1 25.37 25.47 0.91
1 18 1 23.32 23.82 0.93
1 19 1 14.65 15.33 0.83
1 20 1 6.41 5.83 0.48
1 21 1 1.44 2.07 0.41
1 22 1 33.33 34.82 1.21
1 23 1 9.51 10.68 0.89
1 24 1 21.85 20.97 1.08
1 25 1 8.61 9.51 0.82
1 26 1 0.77 2.01 0.48
1 0 2 3280.84 3109.91 36.19
1 1 2 69.11 71.77 0.94
1 2 2 566.41 573.28 6.13
1 3 2 194.50 194.38 2.03
1 4 2 1061.55 1065.82 9.64
1 5 2 18.57 18.63 0.41
1 6 2 216.24 219.82 2.31
1 7 2 162.98 162.29 1.82
1 8 2 10.77 10.26 0.43
1 9 2 58.74 61.90 0.98
1 10 2 59.68 59.56 1.00
1 11 2 117.13 118.13 1.59
1 12 2 117.77 115.58 1.63
1 13 2 111.81 110.38 1.64
1 14 2 54.74 54.80 1.14
1 15 2 30.85 31.69 0.92
1 16 2 29.34 27.67 0.95
1 17 2 77.68 75.84 1.53
1 18 2 109.31 110.27 1.93
1 19 2 40.22 41.27 1.20
1 20 2 10.36 9.72 0.70
1 21 2 22.00 22.91 1.02
1 22 2 38.66 36.64 1.27
1 23 2 43.39 43.47 1.42
1 24 2 9.67 10.66 0.80
1 25 2 0.08 0.15 0.43
1 26 2 3.71 4.50 0.55
1 0 3 30.33 32.09 0.92
1 1 3 294.35 303.02 5.24
1 2 3 221.06 225.11 2.64
1 3 3 89.24 91.88 1.28
1 4 3 92.94 95.82 1.34
1 5 3 23.04 23.07 0.53
1 6 3 134.13 138.33 1.64
1 7 3 4.94 5.19 0.38
1 8 3 256.68 258.04 2.81
1 9 3 29.33 29.06 0.70
1 10 3 78.65 79.81 1.24
1 11 3 15.55 16.69 0.60
1 12 3 32.43 32.35 0.84
1 13 3 34.98 33.86 0.91
1 14 3 115.45 115.03 1.79
1 15 3 34.29 33.54 0.98
1 16 3 10.00 9.31 0.62
1 17 3 26.02 25.07 0.95
1 18 3 27.74 26.57 1.01
1 19 3 27.72 27.26 1.05
1 20 3 7.93 7.77 0.66
1 21 3 24.21 23.62 1.05
1 22 3 6.65 7.21 0.61
1 23 3 2.91 2.75 0.46
1 24 3 8.07 8.15 0.64
1 25 3 15.72 17.94 1.16
1 0 4 329.90 328.91 5.84
1 1 4 251.13 260.47 4.74
1 2 4 28.06 28.80 1.05
1 3 4 22.73 23.45 0.64
1 4 4 108.29 109.85 1.57
1 5 4 81.88 83.83 1.35
1 6 4 131.75 130.57 1.87
1 7 4 84.52 83.85 1.23
1 8 4 45.57 45.25 0.88
1 9 4 2.21 2.18 0.38
1 10 4 22.03 22.75 0.70
1 11 4 64.24 62.45 1.18
1 12 4 146.15 141.11 1.99
1 13 4 25.65 27.18 0.86
1 14 4 42.21 39.48 1.07
1 15 4 2.15 2.98 0.40
1 16 4 22.33 23.62 0.91
1 17 4 26.84 28.14 1.02
1 18 4 57.04 58.68 1.47
1 19 4 40.06 40.87 1.25
1 20 4 9.06 9.26 0.80
1 21 4 11.21 10.82 0.79
1 22 4 20.96 21.81 1.05
1 23 4 14.61 15.10 0.96
1 24 4 2.25 2.14 0.43
1 0 5 286.88 285.02 5.31
1 1 5 121.54 122.63 2.71
1 2 5 474.55 464.50 8.14
1 3 5 180.20 176.59 3.64
1 4 5 111.83 108.29 1.69
1 5 5 8.58 8.58 0.53
1 6 5 228.99 230.14 3.02
1 7 5 74.18 73.08 1.39
1 8 5 71.24 69.45 1.38
1 9 5 92.72 90.20 1.46
1 10 5 9.85 9.54 0.58
1 11 5 34.97 35.92 0.96
1 12 5 25.01 25.12 0.86
1 13 5 44.88 44.81 1.15
1 14 5 39.95 40.27 1.12
1 15 5 29.77 29.89 1.03
1 16 5 74.77 78.75 1.64
1 17 5 11.18 11.48 0.80
1 18 5 7.40 6.97 0.65
1 19 5 18.11 18.71 0.98
1 20 5 65.31 64.78 1.64
1 21 5 25.10 25.15 1.12
1 22 5 1.51 1.73 0.43
1 23 5 3.48 4.59 0.50
1 24 5 17.96 17.47 1.00
1 0 6 0.64 0.07 0.63
1 1 6 0.47 0.90 0.62
1 2 6 7.87 7.56 0.84
1 3 6 12.95 12.44 0.99
1 4 6 16.61 16.03 1.09
1 5 6 12.94 13.31 0.67
1 6 6 22.13 21.92 0.82
1 7 6 7.57 7.79 0.62
1 8 6 10.06 9.11 0.68
1 9 6 11.68 11.09 0.77
1 10 6 2.77 2.43 0.44
1 11 6 10.86 9.85 0.68
1 12 6 29.80 29.05 0.96
1 13 6 7.64 7.55 0.60
1 14 6 27.98 28.07 1.01
1 15 6 11.87 11.03 0.81
1 16 6 3.00 2.99 0.43
1 17 6 21.04 21.56 1.01
1 18 6 13.86 13.88 0.90
1 19 6 10.98 11.82 0.86
1 20 6 33.54 31.65 1.25
1 21 6 9.09 9.42 0.77
1 22 6 10.21 8.64 0.76
1 23 6 11.66 12.06 0.88
1 0 7 250.71 248.37 5.16
1 1 7 26.33 26.90 1.45
1 2 7 59.99 61.47 2.12
1 3 7 80.33 81.60 2.49
1 4 7 145.06 141.57 3.52
1 5 7 29.36 30.64 1.04
1 6 7 63.10 61.85 1.47
1 7 7 10.50 9.53 0.77
1 8 7 57.70 56.45 1.46
1 9 7 68.49 67.50 1.62
1 10 7 18.00 18.80 0.96
1 11 7 21.68 21.88 0.91
1 12 7 2.60 1.91 0.46
1 13 7 41.28 42.43 1.25
1 14 7 26.12 24.67 1.05
1 15 7 34.43 32.38 1.18
1 16 7 23.39 25.91 1.08
1 17 7 19.40 20.55 1.02
1 18 7 45.16 43.14 1.39
1 19 7 6.80 6.76 0.62
1 20 7 14.41 15.48 0.99
1 21 7 9.20 9.33 0.66
1 0 8 10.07 10.47 1.20
1 1 8 34.02 35.41 1.79
1 2 8 19.41 19.90 1.44
1 3 8 31.33 32.19 1.71
1 4 8 33.48 32.86 1.76
1 5 8 103.98 102.49 3.12
1 6 8 16.20 15.08 0.92
1 7 8 95.37 91.57 1.96
1 8 8 3.67 3.25 0.49
1 9 8 50.92 51.36 1.52
1 10 8 41.84 39.83 1.38
1 11 8 94.36 95.76 2.13
1 12 8 12.87 11.80 0.97
1 13 8 28.66 28.38 1.27
1 14 8 1.95 1.20 0.51
1 15 8 43.78 46.39 1.38
1 16 8 5.28 5.60 0.52
1 17 8 28.95 26.89 1.18
1 18 8 4.50 5.47 0.52
1 19 8 1.89 2.27 0.44
1 20 8 0.04 0.11 0.39
1 0 9 0.13 0.04 0.93
1 1 9 3.14 2.24 1.00
1 2 9 50.29 51.67 2.27
1 3 9 1.23 1.64 0.98
1 4 9 3.76 3.26 1.14
1 5 9 28.12 28.66 1.84
1 6 9 8.84 10.08 1.30
1 7 9 14.66 15.91 1.02
1 8 9 8.02 8.37 0.74
1 9 9 19.81 19.88 1.12
1 10 9 31.43 29.65 1.31
1 11 9 45.10 46.22 1.58
1 12 9 8.38 8.97 0.82
1 13 9 16.90 16.13 1.14
1 14 9 7.34 7.94 0.82
1 15 9 21.66 22.30 1.24
1 16 9 42.83 43.05 1.59
1 17 9 18.01 18.35 1.05
1 18 9 11.79 11.60 0.90
1 0 10 2.71 3.49 1.18
1 1 10 24.29 25.80 1.88
1 2 10 2.20 1.57 1.13
1 3 10 17.77 20.21 1.72
1 4 10 21.58 21.76 1.82
1 5 10 33.07 32.78 2.09
1 6 10 40.54 41.71 2.31
1 7 10 33.12 31.78 2.11
1 8 10 24.35 24.59 1.26
1 9 10 7.52 7.40 0.81
1 10 10 60.51 56.12 1.81
1 11 10 15.55 16.34 1.15
1 12 10 48.06 45.69 1.64
1 13 10 0.10 0.23 0.51
1 14 10 7.74 6.59 0.67
1 15 10 11.07 10.56 0.88
1 0 11 1.54 0.81 1.29
1 1 11 13.52 12.04 1.62
1 2 11 34.54 33.91 2.27
1 3 11 23.82 23.47 1.96
1 4 11 11.82 11.93 1.63
1 5 11 5.20 6.16 1.45
1 6 11 2.91 3.96 1.35
1 7 11 7.73 8.63 1.58
1 8 11 16.52 15.67 1.18
1 9 11 24.96 23.58 1.31
1 10 11 19.35 18.78 1.23
1 11 11 2.73 3.62 0.59
1 12 11 0.79 1.62 0.53
1 0 12 16.49 17.92 1.93
1 1 12 75.43 76.20 3.19
1 2 12 9.21 8.32 1.74
1 3 12 3.08 3.24 1.56
1 4 12 27.67 29.13 2.22
1 5 12 71.21 68.79 3.12
1 6 12 2.71 2.86 1.53
1 7 12 23.82 22.92 2.09
2 0 0 41.02 41.98 0.54
2 1 0 31.49 31.16 0.44
2 2 0 1724.52 1680.78 14.81
2 3 0 798.10 787.54 7.18
2 4 0 35.55 35.89 0.53
2 5 0 92.26 91.24 1.08
2 6 0 2111.65 2083.72 18.50
2 7 0 291.83 294.10 3.01
2 8 0 0.40 0.76 0.30
2 9 0 236.21 235.24 2.59
2 10 0 249.49 254.66 2.79
2 11 0 2.12 2.42 0.36
2 12 0 45.50 43.45 0.91
2 13 0 166.95 168.17 2.14
2 14 0 11.88 10.94 0.60
2 15 0 71.73 70.04 1.33
2 16 0 39.17 37.04 1.03
2 17 0 36.66 35.72 1.05
2 18 0 43.48 43.76 1.20
2 19 0 36.40 37.81 1.16
2 20 0 1.65 0.92 0.37
2 21 0 8.46 7.74 0.64
2 22 0 15.74 15.14 0.93
2 23 0 10.72 11.18 0.88
2 24 0 32.67 32.43 1.24
2 25 0 3.15 4.13 0.58
2 26 0 1.00 1.08 0.45
2 0 1 1.37 1.64 0.16
2 1 1 78.28 78.10 0.88
2 2 1 276.68 277.75 2.73
2 3 1 523.59 537.11 5.05
2 4 1 154.86 158.00 1.67
2 5 1 420.52 427.30 4.15
2 6 1 22.88 22.94 0.48
2 7 1 95.45 98.10 1.23
2 8 1 4.05 4.85 0.36
2 9 1 274.60 273.53 2.94
2 10 1 9.06 8.71 0.46
2 11 1 5.24 4.76 0.43
2 12 1 41.79 40.75 0.89
2 13 1 81.45 79.92 1.35
2 14 1 43.50 44.79 1.03
2 15 1 21.88 23.78 0.81
2 16 1 3.44 3.57 0.40
2 17 1 11.64 10.09 0.69
2 18 1 10.48 9.97 0.73
2 19 1 29.20 29.27 1.06
2 20 1 70.22 71.75 1.64
2 21 1 27.34 28.91 1.12
2 22 1 23.49 23.36 1.07
2 23 1 2.92 2.57 0.45
2 24 1 37.95 41.20 1.34
2 25 1 22.55 23.03 1.32
2 26 1 29.45 30.51 1.46
2 0 2 4.34 4.20 0.23
2 1 2 305.99 309.01 3.05
2 2 2 1083.87 1085.84 9.83
2 3 2 108.73 107.23 1.25
2 4 2 88.27 89.19 1.09
2 5 2 7.87 8.41 0.35
2 6 2 287.00 292.48 3.02
2 7 2 139.49 140.57 1.66
2 8 2 141.57 144.28 1.76
2 9 2 128.70 128.32 1.62
2 10 2 2.68 2.65 0.37
2 11 2 65.04 64.20 1.12
2 12 2 57.56 57.39 1.09
2 13 2 73.56 73.60 1.31
2 14 2 32.36 33.87 0.91
2 15 2 33.00 31.87 0.93
2 16 2 77.60 73.34 1.46
2 17 2 0.11 0.07 0.34
2 18 2 9.71 10.83 0.74
2 19 2 1.29 1.14 0.36
2 20 2 31.08 31.89 1.13
2 21 2 29.36 30.29 1.16
2 22 2 3.25 3.57 0.47
2 23 2 1.70 2.54 0.45
2 24 2 9.17 8.73 0.76
2 25 2 40.58 39.98 1.66
2 0 3 133.79 132.28 1.53
2 1 3 138.74 140.59 1.58
2 2 3 375.50 384.23 3.81
2 3 3 446.53 448.90 4.44
2 4 3 64.33 65.95 0.94
2 5 3 250.65 249.77 2.67
2 6 3 89.10 91.16 1.23
2 7 3 106.57 108.79 1.42
2 8 3 120.89 119.84 1.55
2 9 3 289.00 289.92 3.19
2 10 3 254.20 257.38 2.93
2 11 3 12.31 12.03 0.58
2 12 3 85.57 84.62 1.42
2 13 3 43.38 43.94 1.03
2 14 3 50.25 48.26 1.14
2 15 3 16.91 17.00 0.80
2 16 3 2.31 2.79 0.40
2 17 3 11.19 12.78 0.75
2 18 3 2.78 2.11 0.38
2 19 3 38.93 38.92 1.22
2 20 3 9.06 9.90 0.67
2 21 3 43.55 43.41 1.37
2 22 3 8.92 7.81 0.72
2 23 3 4.00 5.22 0.57
2 24 3 0.01 0.04 0.40
2 25 3 12.65 13.08 1.07
2 0 4 54.00 56.87 1.53
2 1 4 105.53 107.07 1.54
2 2 4 128.29 131.38 1.83
2 3 4 133.55 133.60 1.85
2 4 4 13.12 13.02 0.57
2 5 4 61.83 59.93 0.99
2 6 4 109.83 108.39 1.46
2 7 4 103.66 102.66 1.43
2 8 4 116.34 116.69 1.60
2 9 4 47.37 48.71 0.98
2 10 4 139.80 138.56 1.88
2 11 4 50.82 49.90 1.07
2 12 4 13.34 12.70 0.66
2 13 4 0.42 0.40 0.33
2 14 4 12.80 11.71 0.71
2 15 4 12.71 12.85 0.75
2 16 4 25.21 25.24 0.92
2 17 4 40.16 38.82 1.19
2 18 4 26.69 25.42 1.04
2 19 4 8.69 8.73 0.71
2 20 4 24.98 26.70 1.10
2 21 4 19.82 20.31 1.04
2 22 4 18.47 16.82 1.04
2 23 4 21.19 23.49 1.07
2 24 4 4.54 3.35 0.47
2 0 5 145.10 144.74 3.11
2 1 5 34.96 34.03 1.31
2 2 5 163.62 161.62 2.25
2 3 5 31.00 31.69 0.85
2 4 5 148.43 148.61 2.13
2 5 5 63.41 63.86 1.25
2 6 5 12.09 12.51 0.64
2 7 5 14.78 14.18 0.70
2 8 5 61.87 62.85 1.17
2 9 5 25.77 26.25 0.81
2 10 5 138.91 138.87 1.98
2 11 5 60.47 60.44 1.26
2 12 5 14.83 14.33 0.74
2 13 5 1.36 2.26 0.37
2 14 5 94.09 92.60 1.72
2 15 5 11.79 12.72 0.76
2 16 5 1.06 1.14 0.36
2 17 5 5.34 5.34 0.48
2 18 5 45.05 44.40 1.37
2 19 5 9.69 11.14 0.84
2 20 5 1.35 1.41 0.42
2 21 5 0.95 0.95 0.41
2 22 5 19.95 21.00 1.04
2 23 5 16.77 16.48 1.02
2 0 6 75.37 76.61 2.21
2 1 6 93.18 94.14 2.51
2 2 6 2.32 2.31 0.71
2 3 6 2.03 2.26 0.58
2 4 6 22.27 22.68 0.82
2 5 6 99.70 98.77 1.76
2 6 6 0.36 0.59 0.48
2 7 6 77.53 77.29 1.57
2 8 6 0.15 0.23 0.52
2 9 6 3.68 4.93 0.48
2 10 6 10.62 12.14 0.69
2 11 6 104.47 104.67 1.79
2 12 6 8.17 7.90 0.54
2 13 6 61.19 62.44 1.42
2 14 6 10.75 11.29 0.75
2 15 6 58.01 56.88 1.44
2 16 6 15.09 15.40 0.90
2 17 6 47.31 47.01 1.37
2 18 6 49.73 49.75 1.46
2 19 6 1.53 2.35 0.44
2 20 6 3.86 3.82 0.48
2 21 6 14.12 13.77 0.96
2 22 6 45.95 45.80 1.42
2 0 7 7.37 7.43 0.99
2 1 7 45.59 44.02 1.82
2 2 7 12.71 12.59 1.13
2 3 7 14.38 14.51 1.20
2 4 7 135.51 130.61 2.68
2 5 7 71.92 71.15 1.57
2 6 7 30.08 29.38 1.06
2 7 7 85.76 83.84 1.78
2 8 7 81.41 82.54 1.77
2 9 7 4.60 4.99 0.53
2 10 7 8.97 9.51 0.80
2 11 7 95.96 97.81 2.07
2 12 7 1.38 2.18 0.38
2 13 7 48.57 49.02 1.36
2 14 7 38.28 40.33 1.25
2 15 7 32.65 32.83 1.19
2 16 7 4.42 4.30 0.48
2 17 7 49.92 50.93 1.48
2 18 7 9.32 9.92 0.76
2 19 7 6.05 7.02 0.64
2 20 7 0.33 0.98 0.41
2 21 7 11.59 10.41 0.80
2 0 8 55.86 54.19 2.20
2 1 8 59.19 58.94 2.30
2 2 8 25.17 23.63 1.59
2 3 8 27.56 29.09 1.68
2 4 8 16.69 15.97 1.38
2 5 8 58.28 56.65 1.53
2 6 8 50.69 47.15 1.45
2 7 8 44.24 41.91 1.37
2 8 8 0.08 0.31 0.41
2 9 8 11.44 11.79 0.80
2 10 8 1.24 1.41 0.49
2 11 8 9.77 8.54 0.78
2 12 8 0.43 0.02 0.43
2 13 8 34.02 31.49 1.37
2 14 8 8.37 9.99 0.81
2 15 8 6.76 7.03 0.70
2 16 8 2.37 3.26 0.47
2 17 8 24.27 23.55 1.14
2 18 8 1.62 1.92 0.43
2 19 8 5.68 6.74 0.54
2 0 9 73.17 75.86 2.77
2 1 9 15.85 17.52 1.51
2 2 9 110.82 109.61 3.44
2 3 9 4.95 5.37 1.10
2 4 9 48.56 48.88 2.30
2 5 9 10.83 11.49 1.39
2 6 9 50.98 49.96 1.57
2 7 9 10.43 10.59 0.92
2 8 9 1.97 3.36 0.54
2 9 9 38.77 38.44 1.43
2 10 9 12.43 14.15 1.03
2 11 9 14.92 15.66 1.08
2 12 9 16.98 17.40 1.13
2 13 9 33.73 35.21 1.46
2 14 9 69.59 72.45 1.99
2 15 9 0.35 1.10 0.52
2 16 9 16.03 15.57 1.01
2 17 9 3.84 4.34 0.53
2 0 10 50.11 49.80 2.45
2 1 10 68.47 67.33 2.83
2 2 10 2.07 2.87 1.18
2 3 10 6.71 6.58 1.34
2 4 10 4.54 4.69 1.26
2 5 10 46.92 46.77 2.41
2 6 10 16.52 17.01 1.67
2 7 10 26.98 26.28 1.32
2 8 10 31.15 30.46 1.40
2 9 10 11.78 12.25 0.92
2 10 10 32.96 33.57 1.46
2 11 10 42.67 44.42 1.59
2 12 10 47.83 48.43 1.69
2 13 10 6.86 7.11 0.68
2 14 10 17.10 17.13 1.15
2 15 10 2.82 2.96 0.57
2 0 11 12.05 12.62 1.68
2 1 11 10.86 9.94 1.60
2 2 11 3.89 3.32 1.37
2 3 11 5.92 7.27 1.46
2 4 11 2.95 2.28 1.41
2 5 11 1.33 0.70 1.31
2 6 11 13.85 13.67 1.68
2 7 11 1.01 0.52 1.31
2 8 11 6.09 5.67 0.65
2 9 11 0.22 0.31 0.51
2 10 11 5.70 6.31 0.79
2 11 11 3.50 4.60 0.62
2 0 12 46.97 46.77 2.65
2 1 12 22.03 20.61 2.10
2 2 12 6.87 6.23 1.63
2 3 12 39.47 42.70 2.53
2 4 12 10.87 11.21 1.78
2 5 12 2.00 2.26 1.53
2 6 12 30.54 29.40 2.21
3 1 0 30.02 31.05 0.51
3 3 0 67.97 69.27 0.88
3 4 0 406.84 413.98 4.04
3 5 0 207.43 208.81 2.22
3 6 0 37.77 39.47 0.70
3 7 0 244.93 243.33 2.61
3 8 0 78.78 80.84 1.16
3 9 0 110.51 107.88 1.44
3 10 0 30.11 30.07 0.73
3 11 0 254.34 251.66 2.87
3 12 0 9.58 8.20 0.53
3 13 0 2.91 2.74 0.45
3 14 0 2.81 3.76 0.49
3 15 0 23.33 24.06 0.85
3 16 0 44.67 42.97 1.14
3 17 0 41.66 42.34 1.16
3 18 0 1.62 2.13 0.37
3 19 0 2.64 2.94 0.41
3 20 0 26.18 27.96 1.08
3 21 0 30.11 30.41 1.15
3 22 0 3.87 4.09 0.48
3 23 0 0.03 0.06 0.40
3 24 0 9.16 8.07 0.65
3 25 0 28.07 29.60 1.43
3 0 1 173.25 175.85 1.86
3 1 1 358.74 369.39 3.65
3 2 1 57.58 59.03 0.79
3 3 1 428.45 434.76 4.25
3 4 1 82.03 81.97 1.04
3 5 1 24.19 24.32 0.53
3 6 1 66.43 69.03 0.98
3 7 1 159.48 159.37 1.86
3 8 1 42.87 42.75 0.80
3 9 1 393.36 382.51 4.02
3 10 1 37.15 36.94 0.82
3 11 1 55.18 53.64 1.03
3 12 1 56.40 54.47 1.09
3 13 1 90.18 89.65 1.52
3 14 1 27.36 27.09 0.86
3 15 1 1.57 1.99 0.37
3 16 1 38.07 39.42 1.10
3 17 1 31.14 30.22 1.01
3 18 1 52.77 51.14 1.33
3 19 1 18.86 19.75 0.92
3 20 1 3.90 3.70 0.46
3 21 1 63.84 67.75 1.64
3 22 1 65.21 62.05 1.64
3 23 1 15.28 15.48 0.96
3 24 1 27.56 29.86 1.21
3 25 1 6.40 7.81 0.77
3 0 2 0.13 0.10 0.23
3 1 2 182.49 179.91 1.96
3 2 2 267.36 272.10 2.79
3 3 2 266.98 267.09 2.77
3 4 2 55.32 55.12 0.86
3 5 2 315.60 315.22 3.26
3 6 2 633.20 638.71 6.26
3 7 2 6.07 7.31 0.42
3 8 2 89.81 89.09 1.27
3 9 2 62.45 62.29 1.06
3 10 2 255.75 254.16 2.88
3 11 2 36.76 34.65 0.85
3 12 2 108.17 106.55 1.62
3 13 2 26.41 26.24 0.81
3 14 2 6.86 6.65 0.59
3 15 2 12.81 12.91 0.71
3 16 2 35.67 36.75 1.06
3 17 2 28.55 28.56 1.00
3 18 2 8.88 9.05 0.71
3 19 2 6.49 5.54 0.54
3 20 2 11.67 11.58 0.84
3 21 2 0.75 0.59 0.38
3 22 2 2.79 2.81 0.46
3 23 2 10.09 9.82 0.87
3 24 2 26.55 27.59 1.18
3 25 2 4.50 4.54 0.56
3 0 3 176.54 183.58 2.05
3 1 3 251.27 251.69 2.67
3 2 3 16.58 17.41 0.51
3 3 3 167.90 167.37 1.92
3 4 3 12.24 12.63 0.48
3 5 3 207.69 214.24 2.38
3 6 3 3.33 3.40 0.38
3 7 3 256.05 254.59 2.83
3 8 3 42.52 43.11 0.87
3 9 3 25.37 26.19 0.73
3 10 3 11.83 11.57 0.57
3 11 3 76.92 75.98 1.31
3 12 3 41.39 40.20 0.97
3 13 3 11.10 12.43 0.66
3 14 3 9.45 9.08 0.59
3 15 3 12.48 12.04 0.73
3 16 3 1.70 2.05 0.39
3 17 3 8.76 8.19 0.64
3 18 3 0.35 0.20 0.34
3 19 3 9.76 10.30 0.82
3 20 3 6.99 6.12 0.52
3 21 3 1.92 1.62 0.41
3 22 3 6.53 6.40 0.54
3 23 3 40.26 39.85 1.38
3 24 3 7.02 8.51 0.73
3 0 4 10.82 11.60 0.47
3 1 4 113.96 113.44 1.47
3 2 4 30.04 30.99 0.70
3 3 4 81.17 80.17 1.18
3 4 4 24.26 25.02 0.65
3 5 4 274.47 270.79 2.99
3 6 4 82.59 80.06 1.25
3 7 4 58.28 59.59 1.07
3 8 4 53.59 53.94 1.05
3 9 4 66.58 67.44 1.21
3 10 4 21.63 21.01 0.73
3 11 4 30.62 29.04 0.88
3 12 4 29.43 30.00 0.91
3 13 4 104.28 104.77 1.75
3 14 4 9.94 10.05 0.68
3 15 4 37.92 37.61 1.12
3 16 4 16.33 17.30 0.85
3 17 4 32.26 32.21 1.12
3 18 4 24.13 25.50 1.05
3 19 4 17.59 16.89 0.94
3 20 4 20.72 20.86 1.01
3 21 4 24.08 25.76 1.12
3 22 4 6.96 6.98 0.62
3 23 4 9.98 10.06 0.86
3 24 4 0.99 1.10 0.41
3 0 5 52.01 49.99 0.97
3 1 5 44.63 44.76 0.92
3 2 5 36.97 35.50 0.84
3 3 5 71.26 73.31 1.21
3 4 5 70.81 71.71 1.21
3 5 5 72.64 72.46 1.24
3 6 5 42.71 44.04 0.96
3 7 5 123.86 122.68 1.76
3 8 5 192.42 187.33 2.39
3 9 5 1.69 1.82 0.47
3 10 5 135.72 133.66 1.99
3 11 5 5.68 7.30 0.53
3 12 5 125.93 123.60 1.96
3 13 5 9.87 10.29 0.72
3 14 5 68.57 63.99 1.46
3 15 5 44.02 44.27 1.25
3 16 5 9.75 10.02 0.77
3 17 5 2.83 3.14 0.44
3 18 5 5.56 6.41 0.53
3 19 5 12.43 10.61 0.77
3 20 5 1.87 2.83 0.46
3 21 5 3.25 3.58 0.48
3 22 5 15.46 15.14 0.99
3 23 5 2.97 3.78 0.48
3 1 6 3.69 3.79 0.51
3 2 6 41.93 41.74 1.09
3 3 6 4.74 4.83 0.56
3 4 6 10.32 9.57 0.68
3 5 6 21.27 21.04 0.86
3 6 6 19.63 18.65 0.86
3 7 6 40.29 39.38 1.15
3 8 6 19.66 18.79 0.80
3 9 6 31.83 32.44 0.97
3 10 6 23.91 24.01 0.89
3 11 6 69.24 67.93 1.45
3 12 6 2.83 3.61 0.43
3 13 6 57.97 56.57 1.41
3 14 6 24.46 25.76 1.02
3 15 6 6.99 7.19 0.58
3 16 6 41.55 41.73 1.31
3 17 6 24.24 23.99 1.07
3 18 6 10.49 10.19 0.76
3 19 6 21.35 21.83 1.08
3 20 6 61.58 63.51 1.66
3 21 6 5.15 5.78 0.53
3 22 6 5.85 5.16 0.51
3 0 7 5.93 5.92 1.01
3 1 7 0.47 0.85 0.84
3 2 7 154.16 151.53 3.74
3 3 7 30.90 29.03 1.08
3 4 7 10.66 9.65 0.79
3 5 7 33.09 32.11 1.13
3 6 7 12.60 12.02 0.85
3 7 7 35.77 36.04 1.21
3 8 7 12.99 11.16 0.86
3 9 7 106.62 109.03 2.14
3 10 7 50.44 50.69 1.31
3 11 7 6.20 6.17 0.48
3 12 7 2.55 2.39 0.40
3 13 7 37.79 38.15 1.23
3 14 7 49.30 49.11 1.38
3 15 7 37.30 37.24 1.27
3 16 7 2.90 2.79 0.45
3 17 7 3.14 2.84 0.46
3 18 7 7.66 7.84 0.64
3 19 7 21.42 20.86 1.09
3 20 7 10.21 9.18 0.75
3 21 7 5.14 5.20 0.51
3 0 8 1.90 2.13 1.01
3 1 8 114.90 113.93 3.32
3 2 8 58.13 59.56 2.35
3 3 8 45.53 45.90 2.09
3 4 8 40.03 39.04 1.31
3 5 8 39.69 38.61 1.31
3 6 8 26.63 26.24 1.13
3 7 8 29.87 30.30 1.20
3 8 8 34.57 33.44 1.29
3 9 8 22.69 22.20 1.12
3 10 8 5.41 4.41 0.57
3 11 8 100.17 100.09 2.23
3 12 8 16.82 17.30 1.07
3 13 8 7.35 6.32 0.59
3 14 8 4.44 4.59 0.49
3 15 8 17.91 18.04 0.99
3 16 8 17.45 15.37 0.99
3 17 8 10.46 11.23 0.90
3 18 8 9.02 8.33 0.65
3 19 8 21.76 23.11 1.11
3 0 9 70.78 69.10 2.71
3 1 9 11.68 11.96 1.41
3 2 9 20.07 19.41 1.62
3 3 9 13.36 13.97 1.49
3 4 9 100.73 102.08 3.37
3 5 9 0.06 0.14 0.47
3 6 9 8.19 8.10 0.66
3 7 9 8.32 9.03 0.75
3 8 9 45.01 43.31 1.54
3 9 9 6.44 6.31 0.64
3 10 9 28.01 27.99 1.30
3 11 9 3.94 4.26 0.59
3 12 9 4.18 4.94 0.62
3 13 9 1.63 1.54 0.53
3 14 9 28.67 31.20 1.36
3 15 9 6.65 6.42 0.61
3 16 9 9.85 9.03 0.66
3 17 9 21.82 21.82 1.08
3 0 10 1.00 0.86 1.16
3 1 10 54.57 57.46 2.61
3 2 10 27.38 27.80 2.00
3 3 10 79.76 82.58 3.18
3 4 10 12.60 11.96 1.58
3 5 10 6.63 7.16 1.42
3 6 10 22.89 23.37 1.25
3 7 10 10.21 11.71 0.88
3 8 10 7.68 7.26 0.68
3 9 10 34.12 33.42 1.46
3 10 10 7.68 7.60 0.84
3 11 10 4.97 4.58 0.61
3 12 10 0.78 1.13 0.51
3 13 10 20.38 19.09 1.22
3 14 10 17.40 16.99 1.13
3 0 11 1.67 1.24 1.34
3 1 11 10.65 10.99 1.68
3 2 11 14.63 15.17 1.73
3 3 11 33.91 34.89 2.29
3 4 11 16.40 16.96 1.87
3 5 11 15.39 15.68 1.75
3 6 11 12.18 12.15 1.70
3 7 11 21.97 22.59 1.29
3 8 11 5.95 6.53 0.80
3 9 11 11.05 10.77 0.84
3 10 11 8.60 9.00 0.87
3 11 11 10.56 9.41 2.95
3 0 12 6.91 5.53 1.67
3 1 12 6.56 7.32 1.68
3 2 12 3.25 3.27 1.53
3 3 12 1.62 0.77 1.53
3 4 12 0.80 1.01 1.46
4 0 0 388.48 393.08 3.90
4 1 0 386.20 387.21 3.88
4 2 0 41.37 40.35 0.70
4 3 0 2.09 1.76 0.31
4 4 0 36.51 37.06 0.70
4 5 0 15.96 15.45 0.51
4 6 0 131.54 131.91 1.63
4 7 0 89.11 88.26 1.27
4 8 0 137.51 132.69 1.70
4 9 0 132.25 130.46 1.73
4 10 0 69.45 69.24 1.20
4 11 0 12.92 12.69 0.62
4 12 0 245.58 240.84 2.97
4 13 0 67.26 69.33 1.31
4 14 0 3.42 2.82 0.37
4 15 0 12.33 12.66 0.72
4 16 0 90.31 90.70 1.69
4 17 0 0.97 1.19 0.35
4 18 0 2.00 2.04 0.39
4 19 0 8.89 7.26 0.66
4 20 0 0.46 0.28 0.37
4 21 0 7.26 8.01 0.63
4 22 0 0.01 0.04 0.41
4 23 0 4.10 4.80 0.51
4 24 0 21.52 21.88 1.09
4 0 1 1.53 1.47 0.29
4 1 1 145.33 148.86 1.70
4 2 1 34.24 34.68 0.66
4 3 1 150.66 150.92 1.75
4 4 1 13.64 12.15 0.46
4 5 1 60.99 60.13 0.95
4 6 1 43.13 43.56 0.82
4 7 1 250.01 245.88 2.74
4 8 1 43.54 43.04 0.87
4 9 1 4.04 4.26 0.41
4 10 1 34.56 34.30 0.83
4 11 1 270.53 266.87 3.10
4 12 1 67.76 67.88 1.27
4 13 1 45.12 43.03 1.05
4 14 1 45.96 46.25 1.13
4 15 1 45.81 45.09 1.16
4 16 1 53.78 52.55 1.29
4 17 1 17.68 17.08 0.87
4 18 1 31.77 31.07 1.08
4 19 1 40.57 42.69 1.28
4 20 1 31.83 32.74 1.18
4 21 1 7.97 7.74 0.70
4 22 1 17.53 14.31 0.97
4 23 1 2.40 2.19 0.46
4 24 1 19.54 19.64 1.05
4 25 1 4.90 5.24 0.58
4 0 2 10.79 10.75 0.45
4 1 2 263.79 264.73 2.84
4 2 2 10.76 9.70 0.45
4 3 2 74.62 75.27 1.09
4 4 2 195.31 200.31 2.25
4 5 2 138.65 136.02 1.71
4 6 2 31.73 32.39 0.73
4 7 2 183.72 177.37 2.14
4 8 2 161.53 161.73 2.01
4 9 2 5.12 5.65 0.45
4 10 2 40.22 41.29 0.93
4 11 2 18.62 18.73 0.69
4 12 2 46.74 46.39 1.06
4 13 2 0.04 0.13 0.31
4 14 2 13.89 14.44 0.74
4 15 2 15.35 15.08 0.78
4 16 2 18.13 16.58 0.84
4 17 2 20.50 19.40 0.91
4 18 2 6.08 6.13 0.54
4 19 2 10.67 11.22 0.83
4 20 2 7.65 8.46 0.62
4 21 2 8.09 9.53 0.82
4 22 2 8.58 9.73 0.66
4 23 2 18.34 17.76 1.03
4 24 2 1.75 1.62 0.42
4 0 3 4.62 4.69 0.39
4 1 3 227.10 224.96 2.48
4 2 3 40.53 38.49 0.78
4 3 3 468.79 464.64 4.69
4 4 3 97.06 95.25 1.34
4 5 3 111.65 108.62 1.49
4 6 3 5.04 5.43 0.43
4 7 3 60.15 60.56 1.08
4 8 3 89.12 87.27 1.38
4 9 3 31.51 32.03 0.84
4 10 3 17.49 16.95 0.68
4 11 3 30.56 29.75 0.87
4 12 3 42.13 42.13 1.06
4 13 3 12.58 12.33 0.70
4 14 3 23.83 22.55 0.89
4 15 3 74.52 73.78 1.53
4 16 3 27.36 27.39 1.02
4 17 3 1.56 0.96 0.36
4 18 3 20.78 21.65 0.99
4 19 3 32.75 35.10 1.20
4 20 3 13.00 13.22 0.88
4 21 3 33.87 33.83 1.26
4 22 3 27.11 25.49 1.17
4 23 3 1.04 0.99 0.41
4 24 3 15.12 13.97 0.97
4 0 4 75.80 77.43 1.19
4 1 4 125.43 124.23 1.64
4 2 4 34.70 34.17 0.79
4 3 4 97.88 96.90 1.41
4 4 4 34.25 35.17 0.81
4 5 4 86.77 87.47 1.36
4 6 4 55.81 56.17 1.08
4 7 4 43.80 43.04 0.96
4 8 4 8.28 8.94 0.54
4 9 4 2.28 1.45 0.46
4 10 4 34.67 36.16 0.96
4 11 4 23.10 24.60 0.85
4 12 4 69.44 69.11 1.40
4 13 4 25.99 26.14 0.93
4 14 4 8.50 9.21 0.64
4 15 4 43.07 40.11 1.20
4 16 4 54.68 54.03 1.40
4 17 4 61.53 59.67 1.52
4 18 4 1.88 1.59 0.41
4 19 4 9.14 8.52 0.64
4 20 4 22.91 22.57 1.09
4 21 4 19.03 20.16 1.05
4 22 4 1.92 2.09 0.47
4 23 4 63.84 64.09 1.65
4 0 5 28.69 27.98 0.77
4 1 5 22.32 23.07 0.71
4 2 5 6.03 6.21 0.49
4 3 5 167.49 164.18 2.12
4 4 5 28.65 28.65 0.80
4 5 5 84.64 84.83 1.41
4 6 5 13.40 13.81 0.63
4 7 5 35.04 35.28 0.95
4 8 5 47.00 48.32 1.10
4 9 5 46.93 45.01 1.12
4 10 5 24.55 27.21 0.89
4 11 5 8.98 9.91 0.66
4 12 5 19.68 19.36 0.87
4 13 5 6.27 6.74 0.59
4 14 5 8.88 8.52 0.64
4 15 5 2.17 1.96 0.40
4 16 5 20.70 21.24 0.99
4 17 5 9.61 10.38 0.80
4 18 5 1.81 2.31 0.44
4 19 5 5.59 5.46 0.52
4 20 5 28.89 29.11 1.20
4 21 5 1.54 2.23 0.44
4 22 5 1.06 1.09 0.41
4 0 6 0.45 0.29 0.43
4 1 6 89.70 88.64 1.51
4 2 6 14.28 15.35 0.69
4 3 6 27.12 25.79 0.85
4 4 6 12.39 11.89 0.66
4 5 6 140.54 138.32 2.02
4 6 6 41.97 41.38 1.08
4 7 6 42.84 40.50 1.09
4 8 6 56.90 54.33 1.28
4 9 6 140.82 136.03 2.12
4 10 6 28.17 26.48 0.98
4 11 6 35.28 36.62 1.10
4 12 6 62.02 63.33 1.47
4 13 6 49.66 49.43 1.33
4 14 6 12.75 12.52 0.82
4 15 6 54.44 54.77 1.47
4 16 6 17.09 18.32 0.97
4 17 6 41.39 42.45 1.36
4 18 6 25.94 26.66 1.14
4 19 6 36.80 37.15 1.30
4 20 6 1.09 1.86 0.43
4 21 6 23.36 22.54 1.11
4 0 7 140.33 138.61 2.10
4 1 7 10.58 9.46 0.72
4 2 7 13.43 12.87 0.84
4 3 7 11.71 12.14 0.82
4 4 7 65.73 65.39 1.59
4 5 7 15.65 16.44 0.91
4 6 7 20.08 20.20 0.86
4 7 7 27.28 26.22 0.97
4 8 7 53.69 51.77 1.32
4 9 7 6.43 6.25 0.59
4 10 7 42.82 44.04 1.24
4 11 7 51.72 52.25 1.39
4 12 7 37.23 40.14 1.24
4 13 7 10.68 10.55 0.74
4 14 7 31.08 30.70 1.18
4 15 7 1.44 2.13 0.43
4 16 7 2.92 3.38 0.47
4 17 7 10.00 9.43 0.77
4 18 7 6.25 5.72 0.53
4 19 7 14.38 12.96 0.91
4 20 7 1.37 1.96 0.43
4 0 8 42.01 44.43 2.09
4 1 8 19.48 19.69 1.24
4 2 8 13.88 13.77 0.91
4 3 8 12.19 11.85 0.90
4 4 8 28.21 29.27 1.19
4 5 8 4.34 4.42 0.54
4 6 8 9.94 9.07 0.76
4 7 8 34.29 32.69 1.30
4 8 8 3.93 3.75 0.54
4 9 8 92.63 89.42 2.12
4 10 8 19.59 19.22 0.99
4 11 8 9.91 8.87 0.74
4 12 8 0.34 0.85 0.40
4 13 8 53.93 52.72 1.51
4 14 8 34.48 34.22 1.27
4 15 8 1.89 2.25 0.45
4 16 8 11.03 9.84 0.79
4 17 8 0.02 0.05 0.39
4 18 8 16.21 16.31 0.99
4 0 9 18.91 19.31 1.66
4 1 9 12.65 13.76 1.49
4 2 9 12.58 13.35 1.46
4 3 9 23.58 24.26 1.20
4 4 9 56.66 59.52 1.71
4 5 9 14.04 13.94 1.01
4 6 9 38.49 36.32 1.46
4 7 9 4.97 5.62 0.63
4 8 9 83.28 85.54 2.13
4 9 9 15.77 17.09 1.11
4 10 9 18.11 19.98 1.15
4 11 9 0.14 0.35 0.52
4 12 9 23.88 23.91 1.30
4 13 9 8.93 9.33 0.76
4 14 9 10.11 11.81 0.90
4 15 9 27.49 26.63 1.16
4 16 9 1.41 2.46 0.45
4 1 10 80.94 83.33 3.24
4 2 10 14.26 14.25 1.64
4 3 10 4.00 3.12 1.29
4 4 10 30.70 30.37 1.37
4 5 10 60.52 57.97 1.83
4 6 10 28.57 28.24 1.37
4 7 10 16.62 15.64 1.12
4 8 10 14.34 15.55 1.12
4 9 10 1.43 0.77 0.52
4 10 10 14.56 15.14 1.12
4 11 10 6.57 7.09 0.68
4 12 10 1.43 1.62 0.54
4 13 10 9.80 8.71 0.71
4 0 11 28.91 27.98 2.14
4 1 11 1.77 1.63 1.34
4 2 11 3.16 3.19 1.35
4 3 11 9.75 9.05 1.57
4 4 11 34.52 33.14 2.26
4 5 11 12.96 13.18 1.35
4 6 11 0.36 0.50 0.52
4 7 11 5.61 6.78 0.68
4 8 11 22.08 20.66 1.27
4 9 11 8.74 9.88 0.86
5 1 0 40.39 40.30 0.77
5 2 0 43.18 43.78 0.84
5 3 0 236.56 231.80 2.58
5 4 0 64.17 61.22 1.03
5 5 0 73.10 73.32 1.15
5 6 0 0.03 0.10 0.32
5 7 0 12.11 11.83 0.54
5 8 0 16.18 16.40 0.62
5 9 0 26.18 25.66 0.75
5 10 0 38.04 38.70 0.93
5 11 0 36.08 37.03 0.96
5 12 0 1.49 1.62 0.48
5 13 0 12.46 12.27 0.70
5 14 0 52.39 52.81 1.26
5 15 0 16.20 15.46 0.82
5 16 0 4.67 4.60 0.43
5 17 0 11.54 10.54 0.70
5 18 0 6.31 6.31 0.64
5 19 0 0.00 0.14 0.37
5 20 0 0.12 0.44 0.38
5 21 0 1.10 0.92 0.40
5 22 0 8.61 7.97 0.64
5 24 0 3.26 2.07 0.44
5 0 1 5.56 5.98 0.41
5 1 1 134.50 134.15 1.66
5 2 1 92.99 91.26 1.29
5 3 1 389.71 382.92 3.92
5 4 1 5.10 5.32 0.41
5 5 1 37.19 35.81 0.78
5 6 1 73.91 71.37 1.17
5 7 1 156.97 154.92 1.97
5 8 1 2.47 3.21 0.42
5 9 1 58.73 58.60 1.13
5 10 1 12.46 12.77 0.62
5 11 1 66.64 68.70 1.29
5 12 1 22.20 21.84 0.82
5 13 1 21.51 19.08 0.84
5 14 1 16.18 16.26 0.79
5 15 1 218.45 218.83 2.93
5 16 1 60.13 61.66 1.45
5 17 1 4.24 4.28 0.45
5 18 1 8.24 7.74 0.69
5 19 1 53.08 53.87 1.49
5 20 1 51.35 51.94 1.46
5 21 1 3.84 3.53 0.48
5 22 1 0.73 0.91 0.41
5 23 1 1.67 1.89 0.43
5 24 1 13.51 14.71 0.95
5 0 2 332.01 332.18 3.52
5 1 2 173.38 170.09 2.06
5 2 2 0.47 0.57 0.34
5 3 2 255.56 253.39 2.85
5 4 2 87.90 86.15 1.30
5 5 2 43.12 42.79 0.88
5 6 2 7.20 6.62 0.46
5 7 2 14.23 12.99 0.58
5 8 2 29.55 29.28 0.80
5 9 2 38.42 37.61 0.92
5 10 2 0.60 1.41 0.44
5 11 2 16.61 16.34 0.73
5 12 2 127.35 124.97 1.94
5 13 2 0.43 0.48 0.34
5 14 2 7.11 7.59 0.66
5 15 2 3.40 3.09 0.40
5 16 2 60.02 60.88 1.46
5 17 2 14.81 14.79 0.86
5 18 2 10.93 11.62 0.82
5 19 2 30.72 30.50 1.14
5 20 2 2.08 2.17 0.44
5 21 2 41.41 39.27 1.34
5 22 2 0.98 1.78 0.43
5 23 2 6.01 5.38 0.58
5 24 2 6.47 7.40 0.91
5 0 3 31.85 31.26 0.77
5 1 3 201.50 199.63 2.37
5 2 3 24.11 24.59 0.69
5 3 3 9.90 9.61 0.52
5 4 3 1.40 1.36 0.38
5 5 3 68.73 68.99 1.19
5 6 3 34.07 34.97 0.86
5 7 3 65.14 64.40 1.20
5 8 3 18.03 18.69 0.69
5 9 3 8.97 9.12 0.59
5 10 3 45.35 43.48 1.07
5 11 3 27.55 26.04 0.89
5 12 3 28.49 27.60 0.93
5 13 3 19.12 19.24 0.85
5 14 3 47.47 47.31 1.23
5 15 3 3.34 3.74 0.42
5 16 3 51.33 51.14 1.38
5 17 3 23.38 23.87 1.02
5 18 3 24.13 24.08 1.07
5 19 3 3.77 4.45 0.49
5 20 3 55.48 56.86 1.57
5 21 3 8.07 8.30 0.66
5 22 3 4.40 4.83 0.51
5 23 3 9.18 8.71 0.64
5 0 4 0.08 0.29 0.37
5 1 4 72.58 70.26 1.21
5 2 4 42.91 43.88 0.95
5 3 4 30.54 28.46 0.81
5 4 4 16.52 17.36 0.66
5 5 4 7.25 6.28 0.51
5 6 4 28.26 28.53 0.84
5 7 4 30.14 30.26 0.87
5 8 4 90.18 89.90 1.54
5 9 4 1.91 2.69 0.38
5 10 4 116.51 112.53 1.84
5 11 4 35.01 34.80 1.04
5 12 4 84.59 86.13 1.63
5 13 4 3.58 4.42 0.42
5 14 4 82.55 86.54 1.73
5 15 4 19.81 20.79 0.97
5 16 4 20.68 22.31 1.00
5 17 4 9.11 8.30 0.69
5 18 4 24.31 25.65 1.10
5 19 4 74.59 76.11 1.80
5 20 4 0.44 0.05 0.38
5 21 4 43.25 44.39 1.42
5 22 4 13.36 11.80 0.95
5 0 5 7.83 7.10 0.56
5 1 5 191.49 187.05 2.40
5 2 5 32.59 31.98 0.89
5 3 5 15.68 16.17 0.68
5 4 5 73.73 73.28 1.37
5 5 5 60.71 59.82 1.25
5 6 5 18.93 18.71 0.79
5 7 5 35.08 34.66 0.98
5 8 5 52.73 50.47 1.21
5 9 5 11.90 10.97 0.70
5 10 5 19.71 19.03 0.84
5 11 5 20.10 20.50 0.90
5 12 5 0.42 0.97 0.35
5 13 5 18.17 17.85 0.91
5 14 5 41.42 42.48 1.25
5 15 5 1.39 1.32 0.40
5 16 5 18.14 18.81 0.95
5 17 5 3.02 3.70 0.47
5 18 5 29.03 29.67 1.18
5 19 5 2.79 3.16 0.48
5 20 5 12.60 11.98 0.94
5 21 5 9.98 8.86 0.66
5 0 6 48.69 47.58 1.16
5 1 6 47.20 45.66 1.12
5 2 6 12.37 11.14 0.70
5 3 6 55.78 54.20 1.24
5 4 6 52.96 49.99 1.21
5 5 6 82.43 80.63 1.55
5 6 6 12.94 13.49 0.74
5 7 6 106.45 105.20 1.84
5 8 6 22.65 22.07 0.91
5 9 6 21.32 21.16 0.88
5 10 6 67.99 69.31 1.53
5 11 6 78.75 80.45 1.68
5 12 6 0.45 0.52 0.36
5 13 6 66.85 67.58 1.60
5 14 6 54.98 54.17 1.47
5 15 6 13.55 15.35 0.91
5 16 6 4.96 5.36 0.52
5 17 6 53.52 53.05 1.53
5 18 6 7.89 7.28 0.64
5 19 6 5.17 5.25 0.52
5 20 6 0.00 0.01 0.39
5 0 7 1.16 1.49 0.37
5 1 7 29.85 30.04 1.00
5 2 7 16.96 16.80 0.85
5 3 7 4.09 4.04 0.43
5 4 7 111.58 108.07 1.90
5 5 7 10.12 10.40 0.68
5 6 7 19.66 21.11 0.91
5 7 7 9.16 9.76 0.75
5 8 7 101.73 100.65 1.90
5 9 7 10.29 11.46 0.76
5 10 7 2.09 2.02 0.41
5 11 7 4.48 4.29 0.47
5 12 7 14.06 13.32 0.80
5 13 7 13.65 16.30 0.93
5 14 7 5.52 6.43 0.54
5 15 7 17.98 18.39 1.01
5 16 7 8.56 7.90 0.74
5 17 7 4.15 4.93 0.52
5 18 7 2.53 2.95 0.47
5 0 8 37.56 36.80 1.18
5 1 8 48.02 47.98 1.32
5 2 8 3.11 3.26 0.43
5 3 8 0.48 0.69 0.36
5 4 8 20.41 19.59 0.97
5 5 8 142.85 140.88 2.35
5 6 8 0.54 1.19 0.80
5 7 8 5.09 5.29 0.49
5 8 8 2.62 2.96 0.45
5 9 8 24.56 24.26 1.06
5 10 8 2.06 2.07 0.43
5 11 8 11.11 12.77 0.88
5 12 8 8.62 8.12 0.64
5 13 8 32.33 32.61 1.27
5 14 8 8.55 8.19 0.65
5 15 8 8.32 8.86 0.65
5 16 8 10.87 12.00 0.90
5 17 8 58.64 59.19 1.60
5 0 9 0.10 0.69 0.80
5 1 9 30.95 30.21 1.14
5 2 9 35.48 35.65 1.42
5 3 9 6.71 5.52 0.62
5 4 9 5.14 6.25 0.64
5 5 9 15.40 14.25 1.07
5 6 9 27.58 27.39 1.29
5 7 9 9.36 9.58 0.84
5 8 9 0.66 1.11 0.51
5 9 9 0.69 1.33 0.41
5 10 9 20.99 21.43 1.08
5 11 9 15.19 15.59 0.99
5 12 9 0.90 1.72 0.43
5 13 9 8.52 8.82 0.66
5 14 9 6.66 6.82 0.55
5 15 9 2.03 2.64 0.46
5 0 10 75.70 75.35 3.14
5 1 10 5.27 5.23 0.90
5 2 10 2.50 2.85 0.57
5 3 10 50.34 51.36 1.73
5 4 10 24.71 24.70 1.29
5 5 10 31.58 30.15 1.46
5 6 10 5.78 6.64 0.68
5 7 10 18.11 17.92 1.18
5 8 10 6.16 7.01 0.68
5 9 10 33.67 32.86 1.42
5 10 10 0.61 0.87 0.53
5 11 10 1.18 2.03 0.54
5 12 10 5.40 5.90 0.53
5 0 11 5.33 3.75 1.52
5 1 11 24.63 23.92 2.01
5 2 11 11.31 12.34 1.62
5 3 11 17.57 16.44 1.18
5 4 11 12.22 11.04 0.91
5 5 11 0.06 0.06 0.52
5 6 11 38.89 39.92 1.54
5 7 11 2.01 2.43 0.57
6 0 0 137.58 134.64 1.76
6 1 0 65.66 66.40 1.13
6 2 0 4.76 4.85 0.44
6 3 0 32.80 31.71 0.80
6 4 0 9.37 9.94 0.52
6 5 0 78.97 76.56 1.29
6 6 0 70.72 70.62 1.25
6 7 0 87.60 84.48 1.42
6 8 0 59.75 59.03 1.18
6 9 0 0.07 0.23 0.43
6 10 0 90.63 88.04 1.57
6 11 0 0.10 0.26 0.32
6 12 0 64.37 64.14 1.36
6 13 0 20.89 21.48 0.90
6 14 0 8.99 9.25 0.64
6 15 0 26.69 28.49 1.02
6 16 0 6.84 7.30 0.64
6 17 0 8.18 8.94 0.69
6 18 0 22.13 21.24 1.03
6 19 0 6.03 6.98 0.69
6 21 0 2.44 2.27 0.45
6 22 0 24.12 23.58 1.10
6 23 0 0.13 0.68 0.40
6 0 1 41.36 39.59 0.87
6 1 1 121.00 118.67 1.64
6 2 1 86.48 85.76 1.34
6 3 1 77.53 76.22 1.26
6 4 1 86.92 87.65 1.38
6 5 1 106.44 104.65 1.56
6 6 1 9.83 9.48 0.54
6 7 1 61.00 61.09 1.18
6 8 1 53.60 52.87 1.12
6 9 1 1.61 1.46 0.47
6 10 1 1.03 1.46 0.34
6 11 1 27.32 26.68 0.90
6 12 1 12.73 12.79 0.75
6 13 1 121.48 119.67 1.99
6 14 1 39.34 41.17 1.18
6 15 1 18.39 18.57 0.90
6 16 1 11.05 11.75 0.79
6 17 1 71.78 71.95 1.65
6 18 1 64.30 66.39 1.63
6 19 1 17.62 18.53 0.99
6 20 1 12.32 13.18 0.92
6 21 1 8.81 8.04 0.65
6 22 1 23.07 21.83 1.09
6 23 1 10.32 9.34 0.87
6 0 2 18.49 19.21 0.65
6 1 2 114.39 114.05 1.63
6 2 2 178.69 174.26 2.20
6 3 2 2.98 3.31 0.43
6 4 2 0.94 0.86 0.41
6 5 2 48.70 47.34 1.02
6 6 2 8.86 9.50 0.56
6 7 2 18.58 17.94 0.71
6 8 2 47.41 46.55 1.08
6 9 2 6.51 5.45 0.57
6 10 2 108.82 106.35 1.76
6 11 2 3.27 3.70 0.41
6 12 2 30.45 30.49 1.02
6 13 2 10.13 10.76 0.67
6 14 2 93.78 91.18 1.79
6 15 2 1.23 1.02 0.36
6 16 2 8.31 6.97 0.58
6 17 2 14.28 14.25 0.89
6 18 2 6.97 7.46 0.61
6 19 2 6.30 6.93 0.60
6 20 2 1.37 1.83 0.43
6 21 2 9.67 8.74 0.76
6 22 2 5.67 6.22 0.54
6 23 2 11.76 13.43 1.54
6 0 3 11.71 12.28 0.60
6 1 3 98.37 99.27 1.53
6 2 3 17.43 16.55 0.68
6 3 3 200.89 199.43 2.47
6 4 3 66.82 66.53 1.24
6 5 3 4.31 4.54 0.52
6 6 3 23.80 24.38 0.80
6 7 3 56.52 57.34 1.20
6 8 3 24.01 22.79 0.82
6 9 3 26.50 25.30 0.89
6 10 3 0.80 1.29 0.36
6 11 3 6.66 6.81 0.52
6 12 3 22.13 20.65 0.90
6 13 3 4.18 4.37 0.43
6 14 3 47.01 47.87 1.32
6 15 3 31.75 32.17 1.13
6 16 3 30.00 28.26 1.12
6 17 3 12.31 12.75 0.87
6 18 3 69.17 69.32 1.70
6 19 3 46.32 46.82 1.46
6 20 3 3.58 3.01 0.47
6 21 3 20.99 20.85 1.10
6 22 3 29.21 28.81 1.20
6 0 4 0.60 1.05 0.43
6 1 4 95.84 93.61 1.55
6 2 4 20.49 20.92 0.76
6 3 4 56.14 56.54 1.18
6 4 4 2.02 0.91 0.49
6 5 4 37.94 36.66 1.00
6 6 4 68.06 66.68 1.35
6 7 4 4.91 4.91 0.42
6 8 4 17.53 16.83 0.78
6 9 4 41.20 39.80 1.12
6 10 4 48.69 48.10 1.25
6 11 4 2.30 2.48 0.38
6 12 4 28.33 27.22 1.02
6 13 4 3.85 4.65 0.46
6 14 4 40.73 39.51 1.25
6 15 4 4.19 3.80 0.46
6 16 4 30.54 31.79 1.18
6 17 4 80.46 79.96 1.81
6 18 4 9.91 9.84 0.79
6 19 4 31.53 31.27 1.25
6 20 4 12.04 12.31 0.92
6 21 4 55.25 54.26 1.55
6 0 5 15.49 14.23 0.75
6 1 5 65.89 64.72 1.33
6 2 5 18.49 19.58 0.80
6 3 5 108.49 105.57 1.76
6 4 5 20.25 19.00 0.81
6 5 5 4.15 4.16 0.41
6 6 5 42.53 43.63 1.14
6 7 5 11.34 10.11 0.70
6 8 5 0.14 0.26 0.36
6 9 5 34.03 33.57 1.09
6 10 5 2.08 2.28 0.38
6 11 5 20.60 19.25 0.92
6 12 5 23.27 23.07 0.99
6 13 5 8.69 9.49 0.63
6 14 5 21.15 22.53 1.04
6 15 5 2.16 1.90 0.42
6 16 5 16.53 16.75 0.99
6 17 5 1.56 1.88 0.43
6 18 5 17.80 17.66 1.00
6 19 5 6.15 5.98 0.54
6 20 5 0.28 0.09 0.38
6 0 6 52.77 50.66 1.25
6 1 6 101.00 100.65 1.77
6 2 6 74.08 72.05 1.51
6 3 6 56.94 55.65 1.32
6 4 6 18.81 19.56 0.87
6 5 6 79.65 79.26 1.61
6 6 6 70.58 73.56 1.56
6 7 6 6.89 6.31 0.48
6 8 6 11.75 10.78 0.77
6 9 6 75.09 75.65 1.66
6 10 6 13.19 12.66 0.86
6 11 6 33.95 33.04 1.17
6 12 6 39.45 40.33 1.27
6 13 6 34.83 34.60 1.24
6 14 6 13.69 13.12 0.93
6 15 6 41.38 43.36 1.37
6 16 6 26.27 28.70 1.17
6 17 6 23.12 22.70 1.10
6 18 6 8.24 8.60 0.59
6 19 6 14.23 14.25 0.94
6 0 7 17.23 17.64 0.86
6 1 7 1.82 2.24 0.39
6 2 7 49.58 49.74 1.32
6 3 7 12.27 11.76 0.80
6 4 7 7.62 8.14 0.65
6 5 7 20.59 20.61 0.92
6 6 7 96.10 98.21 1.90
6 7 7 1.55 2.31 0.42
6 8 7 18.42 18.95 0.93
6 9 7 5.27 5.07 0.54
6 10 7 57.47 57.77 1.52
6 11 7 5.05 5.10 0.51
6 12 7 16.88 17.44 1.01
6 13 7 16.79 15.48 0.98
6 14 7 12.40 13.77 0.95
6 15 7 2.98 3.51 0.48
6 16 7 0.07 0.09 0.40
6 17 7 10.71 11.86 0.87
6 18 7 6.81 7.06 0.55
6 0 8 27.30 28.33 1.09
6 1 8 1.00 1.24 0.39
6 2 8 13.53 14.76 0.87
6 3 8 49.64 49.30 1.38
6 4 8 8.26 7.77 0.69
6 5 8 3.22 3.40 0.45
6 6 8 11.87 13.17 0.89
6 7 8 50.98 53.14 1.46
6 8 8 0.27 0.73 0.39
6 9 8 2.63 3.14 0.47
6 10 8 6.52 7.82 0.66
6 11 8 18.49 17.63 1.03
6 12 8 1.42 2.41 0.46
6 13 8 10.23 10.46 0.74
6 14 8 15.12 15.27 0.97
6 15 8 40.04 41.29 1.37
6 16 8 21.91 21.15 1.08
6 0 9 37.05 39.08 1.31
6 1 9 1.01 1.11 0.41
6 2 9 11.09 11.44 0.87
6 3 9 12.32 11.22 0.81
6 4 9 9.40 8.98 0.76
6 5 9 2.52 2.71 0.46
6 6 9 11.25 13.08 0.91
6 7 9 6.59 7.03 0.56
6 8 9 27.44 30.11 1.18
6 9 9 5.12 5.83 0.54
6 10 9 41.54 42.18 1.40
6 11 9 5.78 6.58 0.61
6 12 9 34.54 36.47 1.31
6 13 9 14.22 13.97 0.95
6 0 10 3.63 4.94 0.52
6 1 10 40.46 43.54 1.40
6 2 10 45.02 45.87 1.45
6 3 10 1.24 1.62 0.46
6 4 10 5.70 7.04 0.56
6 5 10 49.49 51.70 1.52
6 6 10 8.04 8.58 0.66
6 7 10 21.21 22.61 1.12
6 8 10 0.92 1.58 0.43
6 9 10 3.84 4.54 0.51
6 0 11 6.04 7.45 0.63
6 1 11 28.27 29.66 1.39
6 2 11 3.00 4.30 0.60
7 2 0 72.39 71.56 1.30
7 3 0 13.36 13.69 0.63
7 4 0 3.90 3.82 0.51
7 5 0 54.54 52.65 1.16
7 6 0 21.91 21.14 0.80
7 7 0 2.27 2.42 0.35
7 8 0 34.16 34.72 0.99
7 9 0 44.32 43.00 1.12
7 10 0 101.66 98.16 1.75
7 11 0 32.88 32.77 1.05
7 12 0 24.16 24.32 0.95
7 13 0 0.08 0.08 0.35
7 14 0 17.92 17.44 0.89
7 15 0 16.52 15.15 0.88
7 16 0 2.89 2.49 0.43
7 17 0 12.57 11.51 0.86
7 18 0 1.60 1.23 0.41
7 19 0 3.31 3.10 0.47
7 20 0 22.71 24.88 1.11
7 21 0 17.85 17.86 1.03
7 22 0 1.11 1.43 0.44
7 0 1 221.38 219.21 2.70
7 1 1 57.68 56.48 1.14
7 2 1 16.83 15.92 0.68
7 3 1 40.29 41.53 0.99
7 4 1 69.14 70.04 1.31
7 5 1 71.90 72.99 1.36
7 6 1 39.12 39.89 1.03
7 7 1 23.02 22.86 0.83
7 8 1 0.86 1.14 0.34
7 9 1 101.71 100.28 1.75
7 10 1 19.72 19.06 0.85
7 11 1 18.86 18.20 0.86
7 12 1 0.29 0.51 0.33
7 13 1 36.20 36.99 1.16
7 14 1 20.59 18.08 0.96
7 15 1 11.63 10.74 0.79
7 16 1 18.05 17.34 0.97
7 17 1 36.37 35.96 1.26
7 18 1 41.58 42.83 1.37
7 19 1 27.22 26.33 1.16
7 20 1 11.14 11.19 0.90
7 21 1 26.24 25.21 1.15
7 22 1 33.85 33.60 1.27
7 0 2 12.29 11.49 0.63
7 1 2 2.07 2.04 0.48
7 2 2 37.76 38.77 0.98
7 3 2 28.87 29.09 0.87
7 4 2 13.54 12.63 0.66
7 5 2 48.64 50.55 1.14
7 6 2 211.01 208.65 2.69
7 7 2 7.64 7.08 0.51
7 8 2 17.79 17.47 0.81
7 9 2 25.24 23.55 0.93
7 10 2 145.79 142.25 2.21
7 11 2 10.60 10.65 0.66
7 12 2 58.34 58.30 1.42
7 13 2 5.68 5.27 0.52
7 14 2 6.37 5.76 0.50
7 15 2 17.36 19.99 0.96
7 16 2 15.70 15.16 0.93
7 17 2 6.68 6.15 0.59
7 18 2 10.58 11.22 0.87
7 19 2 1.33 1.66 0.43
7 20 2 1.09 1.88 0.45
7 21 2 0.86 0.98 0.41
7 0 3 3.71 3.76 0.53
7 1 3 119.19 118.03 1.84
7 2 3 30.94 30.14 0.92
7 3 3 17.60 17.93 0.77
7 4 3 26.41 24.53 0.86
7 5 3 102.89 102.65 1.73
7 6 3 43.78 44.28 1.12
7 7 3 11.35 12.01 0.70
7 8 3 38.47 37.42 1.08
7 9 3 6.13 5.68 0.51
7 10 3 5.97 5.98 0.51
7 11 3 6.37 5.94 0.59
7 12 3 14.40 14.87 0.84
7 13 3 20.84 21.33 0.98
7 14 3 42.73 42.52 1.32
7 15 3 14.70 16.32 0.93
7 16 3 25.67 24.54 1.13
7 17 3 33.20 32.42 1.24
7 18 3 8.35 7.90 0.64
7 19 3 22.43 21.11 1.09
7 20 3 12.61 12.64 0.92
7 21 3 9.28 8.85 0.75
7 0 4 2.14 2.62 0.38
7 1 4 65.26 66.22 1.37
7 2 4 12.44 11.93 0.71
7 3 4 24.68 23.36 0.88
7 4 4 57.32 56.96 1.29
7 5 4 51.56 51.82 1.26
7 6 4 48.41 48.50 1.23
7 7 4 4.94 4.51 0.44
7 8 4 9.43 9.13 0.64
7 9 4 17.84 16.49 0.86
7 10 4 11.02 11.79 0.78
7 11 4 14.24 13.98 0.86
7 12 4 28.49 27.20 1.08
7 13 4 40.47 39.31 1.30
7 14 4 11.99 11.79 0.87
7 15 4 37.83 38.16 1.31
7 16 4 33.54 35.41 1.26
7 17 4 22.05 23.14 1.08
7 18 4 14.68 16.08 0.98
7 19 4 26.72 25.59 1.18
7 20 4 2.85 1.93 0.44
7 0 5 2.52 3.00 0.40
7 1 5 22.73 22.01 0.90
7 2 5 21.77 21.66 0.87
7 3 5 8.01 7.23 0.62
7 4 5 31.89 31.36 1.05
7 5 5 32.10 32.57 1.06
7 6 5 27.13 27.24 1.01
7 7 5 46.27 44.84 1.26
7 8 5 62.99 62.50 1.49
7 9 5 5.18 4.81 0.47
7 10 5 43.24 44.13 1.30
7 11 5 13.40 12.00 0.85
7 12 5 30.44 28.10 1.14
7 13 5 5.07 4.58 0.49
7 14 5 52.33 53.10 1.49
7 15 5 2.52 3.14 0.47
7 16 5 12.63 12.15 0.82
7 17 5 4.12 4.02 0.49
7 18 5 6.64 5.66 0.53
7 19 5 4.68 5.47 0.52
7 0 6 14.53 14.36 0.81
7 1 6 61.36 61.20 1.46
7 2 6 74.48 76.94 1.63
7 3 6 56.76 57.51 1.43
7 4 6 53.32 54.67 1.38
7 5 6 6.40 6.47 0.54
7 6 6 12.94 12.09 0.83
7 7 6 32.34 33.56 1.18
7 8 6 28.27 28.31 1.10
7 9 6 9.76 8.88 0.71
7 10 6 7.71 7.47 0.69
7 11 6 23.98 25.16 1.08
7 12 6 6.97 6.66 0.60
7 13 6 12.45 13.38 0.91
7 14 6 9.50 10.78 0.77
7 15 6 18.37 17.42 1.02
7 16 6 20.38 18.86 1.04
7 17 6 16.56 14.77 0.98
7 18 6 7.81 7.02 0.62
7 0 7 31.69 30.50 1.14
7 1 7 1.13 1.22 0.38
7 2 7 69.21 72.15 1.66
7 3 7 8.33 8.16 0.70
7 4 7 3.29 3.12 0.44
7 5 7 4.60 4.80 0.48
7 6 7 2.92 3.25 0.45
7 7 7 20.55 22.20 1.03
7 8 7 33.96 35.41 1.23
7 9 7 18.21 17.11 1.00
7 10 7 35.92 36.88 1.30
7 11 7 13.49 12.86 0.82
7 12 7 22.32 20.48 1.09
7 13 7 7.54 7.61 0.64
7 14 7 29.18 28.96 1.24
7 15 7 6.78 6.85 0.55
7 16 7 0.01 0.19 0.81
7 0 8 0.88 1.19 0.41
7 1 8 31.63 32.14 1.22
7 2 8 69.69 70.97 1.69
7 3 8 16.49 18.17 0.98
7 4 8 6.05 6.32 0.60
7 5 8 9.40 10.46 0.84
7 6 8 3.55 4.48 0.49
7 7 8 9.23 8.64 0.73
7 8 8 3.64 3.90 0.53
7 9 8 23.87 23.41 1.11
7 10 8 1.85 2.10 0.45
7 11 8 28.66 27.52 1.18
7 12 8 15.91 17.13 1.00
7 13 8 20.63 20.99 1.05
7 14 8 2.53 2.43 0.45
7 0 9 3.77 4.64 0.51
7 1 9 3.96 4.44 0.50
7 2 9 10.27 10.40 0.79
7 3 9 6.81 7.18 0.59
7 4 9 19.17 19.23 1.04
7 5 9 11.70 10.68 0.70
7 6 9 9.53 10.30 0.74
7 7 9 3.08 3.81 0.49
7 8 9 58.10 57.47 1.60
7 9 9 0.47 0.69 0.87
7 10 9 31.17 31.66 1.23
7 11 9 6.12 6.59 0.54
7 0 10 0.28 0.22 0.42
7 1 10 31.16 31.14 1.24
7 2 10 2.87 3.93 0.48
7 3 10 63.40 66.06 1.69
7 4 10 6.65 7.45 0.57
7 5 10 0.37 0.72 0.42
7 6 10 10.26 9.71 0.88
8 0 0 2.74 2.35 0.36
8 1 0 1.25 1.71 0.35
8 2 0 49.76 49.41 1.16
8 3 0 0.08 0.14 0.33
8 4 0 2.02 2.37 0.37
8 5 0 10.07 10.60 0.68
8 6 0 135.02 131.29 2.08
8 7 0 18.28 17.98 0.85
8 8 0 5.56 5.72 0.51
8 9 0 63.85 64.12 1.47
8 10 0 18.13 17.81 0.88
8 11 0 21.82 22.79 0.96
8 12 0 9.03 10.19 0.66
8 13 0 56.46 58.44 1.50
8 14 0 1.49 1.27 0.40
8 15 0 1.57 1.79 0.42
8 16 0 34.39 36.23 1.26
8 17 0 16.63 17.02 0.98
8 18 0 0.18 0.53 0.40
8 19 0 9.81 9.28 0.67
8 20 0 0.67 0.79 0.41
8 0 1 34.31 31.51 0.98
8 1 1 30.78 31.10 0.96
8 2 1 99.68 96.33 1.68
8 3 1 0.72 1.24 0.35
8 4 1 33.76 32.64 1.00
8 5 1 68.85 66.78 1.41
8 6 1 2.28 2.55 0.40
8 7 1 21.91 21.85 0.89
8 8 1 4.60 5.10 0.49
8 9 1 62.88 61.06 1.46
8 10 1 3.91 4.34 0.44
8 11 1 4.28 3.97 0.45
8 12 1 20.65 21.22 0.99
8 13 1 26.03 26.25 1.07
8 14 1 4.41 4.54 0.49
8 15 1 18.91 18.57 0.98
8 16 1 8.64 8.73 0.76
8 17 1 17.08 18.39 1.03
8 18 1 3.35 3.93 0.49
8 19 1 40.18 40.60 1.36
8 20 1 35.37 37.47 1.30
8 0 2 0.20 0.55 0.34
8 1 2 2.36 3.13 0.39
8 2 2 32.71 32.30 1.00
8 3 2 11.48 11.41 0.72
8 4 2 131.20 129.49 2.06
8 5 2 2.87 3.08 0.41
8 6 2 51.35 49.96 1.26
8 7 2 13.88 12.49 0.81
8 8 2 178.15 182.54 2.63
8 9 2 1.97 1.97 0.38
8 10 2 24.89 23.15 0.98
8 11 2 5.06 4.20 0.46
8 12 2 26.89 27.75 1.08
8 13 2 2.85 2.75 0.44
8 14 2 27.23 27.21 1.12
8 15 2 3.71 3.70 0.47
8 16 2 21.69 21.25 1.05
8 17 2 5.16 5.39 0.53
8 18 2 4.18 2.92 0.47
8 19 2 2.19 3.02 0.47
8 20 2 10.15 10.43 0.76
8 0 3 82.46 82.90 1.60
8 1 3 2.01 1.91 0.38
8 2 3 14.62 14.72 0.79
8 3 3 35.97 34.98 1.05
8 4 3 42.83 42.09 1.17
8 5 3 23.02 23.01 0.93
8 6 3 34.17 35.87 1.10
8 7 3 35.12 34.99 1.11
8 8 3 20.84 21.28 0.92
8 9 3 59.42 59.77 1.47
8 10 3 69.62 71.02 1.63
8 11 3 10.71 10.99 0.81
8 12 3 62.76 63.17 1.58
8 13 3 34.16 37.54 1.26
8 14 3 14.85 15.96 0.93
8 15 3 0.75 0.54 0.39
8 16 3 11.22 12.29 0.90
8 17 3 2.36 3.24 0.48
8 18 3 5.08 5.98 0.53
8 19 3 1.41 1.86 0.43
8 0 4 5.37 5.52 0.49
8 1 4 13.21 14.10 0.76
8 2 4 15.96 16.37 0.82
8 3 4 45.63 45.95 1.24
8 4 4 22.95 23.81 0.96
8 5 4 10.80 12.10 0.75
8 6 4 6.27 6.91 0.52
8 7 4 39.54 41.20 1.24
8 8 4 65.57 65.36 1.56
8 9 4 24.33 24.59 1.02
8 10 4 29.55 30.83 1.15
8 11 4 56.09 54.44 1.48
8 12 4 15.15 15.70 0.92
8 13 4 25.02 24.72 1.09
8 14 4 25.12 25.04 1.13
8 15 4 36.59 38.95 1.34
8 16 4 7.45 8.42 0.59
8 17 4 6.85 7.17 0.63
8 18 4 0.40 0.55 0.40
8 0 5 0.49 0.66 0.35
8 1 5 20.92 23.45 0.95
8 2 5 17.88 18.25 0.88
8 3 5 14.50 14.90 0.85
8 4 5 16.10 17.13 0.88
8 5 5 34.21 34.00 1.16
8 6 5 46.15 46.67 1.33
8 7 5 8.53 8.33 0.69
8 8 5 36.44 37.06 1.25
8 9 5 13.70 13.51 0.89
8 10 5 50.14 49.69 1.45
8 11 5 0.54 1.10 0.40
8 12 5 55.29 53.96 1.54
8 13 5 0.88 1.23 0.42
8 14 5 6.75 5.49 0.53
8 15 5 12.88 14.08 0.94
8 16 5 9.51 10.25 0.88
8 17 5 5.21 5.42 0.52
8 0 6 83.52 85.80 1.81
8 1 6 1.90 1.89 0.41
8 2 6 8.72 8.43 0.69
8 3 6 12.10 12.33 0.85
8 4 6 36.41 37.04 1.23
8 5 6 21.38 22.46 1.02
8 6 6 14.40 16.46 0.93
8 7 6 31.19 28.41 1.18
8 8 6 13.11 13.04 0.93
8 9 6 4.75 5.29 0.52
8 10 6 0.04 0.14 0.40
8 11 6 28.67 29.64 1.22
8 12 6 0.09 0.03 0.38
8 13 6 8.86 9.83 0.74
8 14 6 2.72 3.31 0.48
8 15 6 14.35 14.83 0.98
8 16 6 17.99 18.80 1.04
8 0 7 55.52 54.95 1.53
8 1 7 4.79 5.02 0.50
8 2 7 1.13 1.31 0.41
8 3 7 11.88 11.36 0.76
8 4 7 57.09 60.17 1.57
8 5 7 1.27 1.02 0.41
8 6 7 2.78 3.12 0.46
8 7 7 36.53 35.98 1.29
8 8 7 29.30 30.53 1.22
8 9 7 9.55 10.38 0.79
8 10 7 0.14 0.13 0.43
8 11 7 30.21 28.44 1.23
8 12 7 32.83 32.87 1.24
8 13 7 7.57 8.70 0.66
8 14 7 11.45 13.22 0.93
8 0 8 45.47 47.65 1.46
8 1 8 43.10 45.00 1.42
8 2 8 10.27 10.03 0.76
8 3 8 36.25 35.42 1.31
8 4 8 11.72 11.78 0.82
8 5 8 14.91 14.19 0.98
8 6 8 8.81 8.93 0.63
8 7 8 12.83 13.42 0.95
8 8 8 3.13 3.12 0.47
8 9 8 3.12 3.93 0.49
8 10 8 4.01 4.47 0.50
8 11 8 20.86 22.52 1.09
8 0 9 6.61 6.27 0.54
8 1 9 5.45 5.83 0.54
8 2 9 19.22 20.03 1.09
8 3 9 15.99 17.20 1.02
8 4 9 19.28 17.98 1.05
8 5 9 0.60 0.91 0.43
8 6 9 42.07 44.36 1.37
8 7 9 20.81 23.27 1.11
8 8 9 6.28 7.54 0.65
9 1 0 0.48 0.57 0.33
9 2 0 23.43 24.18 0.95
9 4 0 180.87 178.48 2.63
9 5 0 0.07 0.58 0.69
9 6 0 6.07 6.71 0.54
9 7 0 7.72 7.26 0.64
9 8 0 128.68 126.90 2.21
9 9 0 5.05 4.41 0.47
9 10 0 16.53 15.84 0.91
9 11 0 25.85 25.21 1.08
9 12 0 5.57 5.57 0.52
9 13 0 6.41 6.81 0.55
9 14 0 40.36 42.46 1.38
9 15 0 36.92 37.69 1.31
9 16 0 0.08 0.11 0.41
9 18 0 4.66 4.69 0.51
9 0 1 7.29 7.48 0.54
9 1 1 12.26 11.97 0.76
9 2 1 26.35 26.69 0.99
9 3 1 14.26 13.08 0.80
9 4 1 4.79 5.90 0.52
9 5 1 7.71 7.02 0.62
9 6 1 19.42 19.77 0.92
9 7 1 40.47 39.64 1.24
9 8 1 13.74 14.40 0.84
9 9 1 37.76 39.07 1.22
9 10 1 4.64 4.35 0.48
9 11 1 34.76 34.86 1.23
9 12 1 3.51 3.30 0.46
9 13 1 59.85 60.06 1.59
9 14 1 13.75 13.73 0.95
9 15 1 4.03 4.24 0.50
9 16 1 9.56 10.32 0.85
9 17 1 22.95 22.08 1.09
9 18 1 1.32 1.40 0.42
9 0 2 113.47 113.01 2.00
9 1 2 1.38 1.82 0.37
9 2 2 4.93 4.61 0.45
9 3 2 3.07 2.82 0.41
9 4 2 92.50 92.93 1.82
9 5 2 31.76 32.89 1.10
9 6 2 10.98 10.09 0.79
9 7 2 11.92 11.26 0.82
9 8 2 6.54 6.35 0.51
9 9 2 61.80 64.37 1.57
9 10 2 9.11 10.14 0.78
9 11 2 16.24 16.00 0.93
9 12 2 19.77 19.58 1.03
9 13 2 34.15 35.64 1.29
9 14 2 11.29 10.69 0.80
9 15 2 10.05 10.98 0.85
9 16 2 17.03 18.47 1.03
9 17 2 4.28 3.70 0.48
9 18 2 12.72 13.17 0.90
9 0 3 19.62 20.31 0.91
9 1 3 19.91 20.75 0.93
9 2 3 74.50 74.20 1.62
9 3 3 0.21 0.07 0.34
9 4 3 7.78 7.84 0.58
9 5 3 21.68 21.81 1.00
9 6 3 26.84 28.08 1.09
9 7 3 16.92 16.64 0.92
9 8 3 83.97 86.84 1.85
9 9 3 8.98 10.07 0.83
9 10 3 48.30 50.14 1.44
9 11 3 15.36 15.80 0.95
9 12 3 42.83 44.81 1.39
9 13 3 4.33 3.97 0.49
9 14 3 30.66 30.88 1.25
9 15 3 2.48 3.61 0.48
9 16 3 2.03 2.18 0.45
9 17 3 4.69 4.93 0.51
9 0 4 66.92 67.15 1.60
9 1 4 0.84 1.59 0.40
9 2 4 3.05 3.48 0.44
9 3 4 13.75 15.41 0.87
9 4 4 41.36 42.82 1.29
9 5 4 18.73 19.40 0.97
9 6 4 28.85 29.39 1.10
9 7 4 14.42 13.35 0.88
9 8 4 33.65 35.37 1.24
9 9 4 18.99 20.71 1.01
9 10 4 46.12 49.48 1.47
9 11 4 0.44 0.58 0.40
9 12 4 35.73 36.03 1.27
9 13 4 1.26 1.32 0.43
9 14 4 4.45 4.51 0.51
9 15 4 5.19 5.37 0.53
9 16 4 4.74 4.77 0.51
9 0 5 71.21 69.87 1.69
9 1 5 12.39 12.34 0.86
9 2 5 43.59 44.02 1.34
9 3 5 41.29 40.58 1.30
9 4 5 13.77 13.36 0.89
9 5 5 0.63 1.15 0.40
9 6 5 17.03 17.98 0.99
9 7 5 36.83 37.00 1.27
9 8 5 19.75 20.81 1.03
9 9 5 1.50 1.62 0.43
9 10 5 2.63 2.93 0.47
9 11 5 21.01 20.96 1.07
9 12 5 11.01 11.77 0.88
9 13 5 9.26 7.86 0.65
9 14 5 2.19 2.83 0.47
9 15 5 9.55 9.54 0.76
9 0 6 0.37 0.89 0.40
9 1 6 2.61 2.88 0.46
9 2 6 16.11 16.18 0.96
9 3 6 29.71 30.58 1.18
9 4 6 9.60 9.26 0.75
9 5 6 11.31 10.93 0.86
9 6 6 9.18 10.19 0.83
9 7 6 16.13 16.14 0.98
9 8 6 3.29 3.22 0.48
9 9 6 21.91 23.99 1.12
9 10 6 5.39 5.27 0.58
9 11 6 22.13 21.29 1.08
9 12 6 7.91 9.29 0.75
9 13 6 8.14 7.91 0.58
9 0 7 19.00 18.49 1.03
9 1 7 5.54 6.11 0.60
9 2 7 21.47 20.90 1.09
9 3 7 5.18 5.55 0.53
9 4 7 20.80 19.81 1.08
9 5 7 19.07 20.29 1.08
9 6 7 63.02 63.78 1.67
9 7 7 1.06 1.36 0.42
9 8 7 21.40 21.29 1.05
9 9 7 12.16 11.61 0.93
9 10 7 12.63 13.53 0.93
9 11 7 1.29 1.42 0.42
9 0 8 3.96 4.43 0.51
9 1 8 2.35 2.37 0.45
9 2 8 2.92 2.98 0.47
9 3 8 13.00 13.76 0.95
9 4 8 23.50 23.81 1.14
9 5 8 7.58 7.02 0.62
9 6 8 16.77 19.10 1.01
9 7 8 28.64 29.63 1.21
9 8 8 4.28 5.12 0.51
10 0 0 274.39 275.76 3.62
10 1 0 0.00 0.08 0.75
10 2 0 10.02 10.38 0.80
10 3 0 1.27 1.76 0.41
10 4 0 118.96 120.50 2.18
10 5 0 11.73 10.60 0.82
10 6 0 23.74 24.77 1.07
10 7 0 1.03 1.34 0.41
10 8 0 3.39 3.11 0.46
10 9 0 20.20 18.73 1.00
10 10 0 4.36 3.75 0.48
10 11 0 1.94 2.47 0.45
10 12 0 1.08 1.95 0.45
10 14 0 7.29 7.54 0.71
10 15 0 1.34 1.61 0.43
10 16 0 0.43 0.15 0.38
10 0 1 0.70 0.75 0.37
10 1 1 40.36 41.41 1.28
10 2 1 12.46 13.37 0.81
10 3 1 18.89 19.33 0.95
10 4 1 14.03 13.25 0.89
10 5 1 5.82 5.87 0.57
10 6 1 41.05 41.93 1.31
10 7 1 11.69 11.97 0.79
10 8 1 2.03 2.20 0.43
10 9 1 8.81 10.18 0.85
10 10 1 11.00 11.17 0.86
10 11 1 49.54 49.17 1.48
10 12 1 10.45 9.05 0.77
10 13 1 9.45 9.43 0.68
10 14 1 9.46 8.96 0.76
10 15 1 16.80 17.16 1.01
10 16 1 2.26 2.38 0.45
10 0 2 54.64 52.33 1.45
10 1 2 3.85 3.71 0.46
10 2 2 50.79 51.28 1.45
10 3 2 13.34 14.58 0.88
10 4 2 17.21 19.04 0.95
10 5 2 6.15 5.41 0.51
10 6 2 2.52 2.73 0.45
10 7 2 37.12 37.44 1.26
10 8 2 7.84 7.49 0.71
10 9 2 2.37 2.74 0.46
10 10 2 32.76 33.04 1.26
10 11 2 45.27 45.14 1.44
10 12 2 1.60 2.36 0.46
10 13 2 0.56 0.98 0.41
10 14 2 35.75 35.20 1.29
10 15 2 33.58 33.81 1.27
10 0 3 8.74 7.68 0.70
10 1 3 0.72 0.73 0.38
10 2 3 15.55 15.32 0.90
10 3 3 5.07 5.16 0.51
10 4 3 15.79 15.80 0.92
10 5 3 8.45 8.36 0.64
10 6 3 57.25 58.47 1.55
10 7 3 2.25 2.46 0.45
10 9 3 10.71 10.98 0.87
10 10 3 24.33 23.35 1.14
10 11 3 1.74 1.84 0.43
10 12 3 21.00 22.26 1.08
10 13 3 28.00 27.79 1.20
10 14 3 2.06 2.55 0.46
10 15 3 4.11 2.52 0.45
10 0 4 2.84 3.25 0.46
10 1 4 8.65 8.90 0.73
10 2 4 14.47 14.98 0.90
10 3 4 19.01 18.19 1.02
10 4 4 13.62 15.81 0.94
10 5 4 34.44 33.14 1.25
10 6 4 4.64 3.97 0.48
10 7 4 39.77 39.70 1.37
10 8 4 21.24 22.46 1.10
10 9 4 13.74 15.91 0.97
10 10 4 22.87 23.24 1.13
10 11 4 20.57 21.47 1.09
10 12 4 1.08 1.56 0.43
10 13 4 0.80 0.97 0.41
10 14 4 20.74 20.12 1.05
10 0 5 17.01 18.29 1.01
10 1 5 32.10 33.11 1.24
10 2 5 32.71 30.80 1.24
10 3 5 1.13 1.30 0.42
10 4 5 22.79 23.55 1.10
10 5 5 56.98 58.09 1.62
10 6 5 18.24 20.16 1.07
10 7 5 2.56 2.24 0.46
10 8 5 11.92 12.77 0.91
10 9 5 42.96 42.21 1.41
10 10 5 12.46 13.35 0.96
10 11 5 2.20 2.20 0.45
10 12 5 10.85 9.50 0.78
10 0 6 0.08 0.18 0.41
10 1 6 9.59 9.46 0.64
10 2 6 11.94 11.90 0.93
10 3 6 0.17 0.45 0.40
10 4 6 2.06 2.02 0.45
10 5 6 3.41 4.03 0.50
10 6 6 3.45 3.23 0.47
10 7 6 13.20 13.31 0.85
10 8 6 5.95 6.39 0.54
10 9 6 6.85 6.79 0.61
10 10 6 15.06 15.90 0.96
10 0 7 3.19 3.46 0.48
10 1 7 4.85 5.91 0.53
10 2 7 87.65 87.02 1.96
10 3 7 3.46 3.75 0.48
10 4 7 9.12 9.42 0.77
10 5 7 4.66 4.72 0.51
10 6 7 37.28 37.70 1.31
10 7 7 11.48 11.94 0.92
11 1 0 0.57 0.79 0.40
11 2 0 190.98 187.97 2.93
11 3 0 10.76 10.65 0.79
11 4 0 0.86 0.67 0.40
11 5 0 0.44 0.38 0.40
11 6 0 16.99 20.20 1.05
11 7 0 59.71 59.98 1.61
11 8 0 0.46 0.91 0.41
11 9 0 1.20 1.75 0.43
11 10 0 11.21 10.64 0.81
11 11 0 54.71 56.96 1.57
11 12 0 5.15 4.57 0.51
11 13 0 10.96 9.93 0.80
11 0 1 0.03 0.31 0.38
11 1 1 31.73 31.21 1.21
11 2 1 1.47 1.62 0.43
11 3 1 9.81 8.81 0.75
11 4 1 8.14 8.28 0.64
11 5 1 27.28 26.84 1.16
11 6 1 1.66 1.68 0.43
11 7 1 27.48 29.21 1.18
11 8 1 14.77 15.46 0.98
11 9 1 2.86 2.16 0.45
11 10 1 7.26 8.18 0.65
11 11 1 5.41 5.34 0.52
11 12 1 0.75 0.88 0.41
11 13 1 13.88 13.82 0.81
11 0 2 8.84 7.72 0.71
11 1 2 9.41 10.36 0.85
11 2 2 17.36 14.92 0.98
11 3 2 22.36 21.47 1.09
11 4 2 10.95 13.26 0.90
11 5 2 1.03 1.52 0.43
11 6 2 1.87 1.99 0.45
11 7 2 20.07 20.38 1.06
11 8 2 8.74 9.65 0.77
11 9 2 2.19 2.33 0.46
11 10 2 3.26 3.28 0.48
11 11 2 21.46 22.26 1.09
11 12 2 6.76 6.14 0.59
11 0 3 16.60 16.35 0.98
11 1 3 19.07 19.96 1.03
11 2 3 9.39 8.94 0.75
11 3 3 0.92 0.62 0.40
11 4 3 29.13 28.43 1.20
11 5 3 17.21 19.72 1.02
11 6 3 17.52 18.73 1.03
11 7 3 13.42 12.92 0.93
11 8 3 16.04 15.77 1.02
11 9 3 2.66 3.22 0.47
11 10 3 3.75 3.80 0.48
11 11 3 18.31 16.74 1.03
11 0 4 7.82 7.18 0.63
11 1 4 13.68 14.94 0.96
11 2 4 27.86 28.47 1.19
11 3 4 35.45 36.38 1.31
11 4 4 7.39 7.64 0.58
11 5 4 3.48 3.35 0.47
11 6 4 15.56 16.94 0.97
11 7 4 5.44 5.22 0.53
11 8 4 0.99 1.45 0.42
11 9 4 12.72 11.22 0.80
11 10 4 4.00 3.47 0.47
11 0 5 7.61 9.23 0.68
11 1 5 14.80 14.90 0.99
11 2 5 35.63 35.99 1.31
11 3 5 22.79 23.30 1.08
11 4 5 2.25 2.48 0.45
11 5 5 3.72 3.16 0.47
11 6 5 47.35 49.47 1.51
11 7 5 11.39 12.52 0.90
11 8 5 0.06 0.27 0.41
11 0 6 19.76 18.69 1.05
11 1 6 5.11 4.91 0.51
11 2 6 0.47 0.95 0.43
11 3 6 28.21 28.55 1.18
11 4 6 6.58 7.16 0.62
12 0 0 9.98 9.18 0.68
12 1 0 12.93 14.22 0.96
12 2 0 5.24 5.49 0.59
12 3 0 25.69 25.36 1.15
12 4 0 2.16 2.38 0.45
12 5 0 18.08 17.99 1.01
12 6 0 21.43 20.92 1.05
12 7 0 7.56 8.24 0.58
12 8 0 0.57 0.61 0.41
12 9 0 36.83 36.70 1.31
12 0 1 11.91 12.64 0.91
12 1 1 4.81 5.24 0.52
12 2 1 4.61 3.90 0.49
12 3 1 24.70 22.94 1.13
12 4 1 7.54 9.05 0.70
12 5 1 37.54 35.27 1.31
12 6 1 0.21 0.53 0.40
12 7 1 21.34 23.28 1.12
12 8 1 9.13 10.31 0.87
12 0 2 0.81 1.01 0.41
12 1 2 5.26 5.25 0.52
12 2 2 49.77 48.56 1.51
12 3 2 1.22 1.56 0.43
12 4 2 9.29 8.85 0.76
12 5 2 8.05 7.92 0.64
12 6 2 15.97 15.45 1.00
12 7 2 5.05 5.01 0.51
12 8 2 5.71 5.43 0.59
12 0 3 0.19 1.09 0.85
12 1 3 16.36 18.43 0.99
12 2 3 0.35 0.84 0.41
12 3 3 20.43 21.23 1.08
12 4 3 1.16 1.90 0.43
12 5 3 6.83 7.19 0.71
12 6 3 1.02 0.91 0.41
12 0 4 12.24 14.51 0.95
12 1 4 45.02 45.04 1.42
12 2 4 7.86 9.27 0.85
12 3 4 16.95 17.52 1.01
