#------------------------------------------------------------------------------
#$Date: 2022-03-02 05:20:08 +0200 (Wed, 02 Mar 2022) $
#$Revision: 273207 $
#$URL: file:///home/coder/svn-repositories/cod/cif/1/56/64/1566446.cif $
#------------------------------------------------------------------------------
#
# This file is available in the Crystallography Open Database (COD),
# http://www.crystallography.net/. The original data for this entry
# were provided by IUCr Journals, http://journals.iucr.org/.
#
# The file may be used within the scientific community so long as
# proper attribution is given to the journal article from which the
# data were obtained.
#
data_1566446
loop_
_publ_author_name
'Ruth, Paul Niklas'
'Herbst-Irmer, Regine'
'Stalke, Dietmar'
_publ_section_title
;
 Hirshfeld atom refinement based on projector augmented wave densities
 with periodic boundary conditions
;
_journal_issue                   2
_journal_name_full               IUCrJ
_journal_page_first              286
_journal_page_last               297
_journal_paper_doi               10.1107/S2052252522001385
_journal_volume                  9
_journal_year                    2022
_chemical_absolute_configuration syn
_chemical_formula_moiety         'C3 H7 N O2'
_chemical_formula_sum            'C3 H7 N O2'
_chemical_formula_weight         89.0947
_space_group_crystal_system      orthorhombic
_space_group_IT_number           19
_space_group_name_Hall           'P 2ac 2ab'
_space_group_name_H-M_alt        'P 21 21 21'
_atom_sites_solution_hydrogens   difmap
_audit_creation_method           'xHARPY 0.1'
_cell_angle_alpha                90
_cell_angle_beta                 90
_cell_angle_gamma                90
_cell_formula_units_Z            4
_cell_length_a                   5.9279(10)
_cell_length_b                   12.2597(17)
_cell_length_c                   5.7939(9)
_cell_measurement_reflns_used    1524
_cell_measurement_temperature    23
_cell_measurement_theta_max      22.5
_cell_measurement_theta_min      15.0
_cell_volume                     421.07(11)
_computing_publication_material  'xHARPY 0.1'
_computing_structure_refinement  'xHARPY 0.1'
_computing_structure_solution    'SHELXS-2013 (Sheldrick, 2008)'
_diffrn_ambient_temperature      23
_diffrn_measured_fraction_theta_full 0.994
_diffrn_measured_fraction_theta_max 0.993
_diffrn_measurement_device_type  'P-1 four circle diffractometer'
_diffrn_measurement_method       'area detector'
_diffrn_radiation_type           MoK\a
_diffrn_radiation_wavelength     0.71073
_diffrn_reflns_av_unetI/netI     0.0243
_diffrn_reflns_Laue_measured_fraction_full 0.994
_diffrn_reflns_Laue_measured_fraction_max 0.993
_diffrn_reflns_limit_h_max       12
_diffrn_reflns_limit_h_min       0
_diffrn_reflns_limit_k_max       26
_diffrn_reflns_limit_k_min       0
_diffrn_reflns_limit_l_max       12
_diffrn_reflns_limit_l_min       0
_diffrn_reflns_number            2519
_diffrn_reflns_point_group_measured_fraction_full 0.618
_diffrn_reflns_point_group_measured_fraction_max 0.567
_diffrn_reflns_theta_full        25.242
_diffrn_reflns_theta_max         50.138
_diffrn_reflns_theta_min         3.323
_exptl_absorpt_coefficient_mu    0.117
_exptl_absorpt_correction_type   none
_exptl_crystal_colour            colorless
_exptl_crystal_density_diffrn    1.405
_exptl_crystal_density_method    'not measured'
_exptl_crystal_description       sphere
_exptl_crystal_F_000             192
_exptl_crystal_size_rad          0.18
_refine_diff_density_max         0.1945
_refine_diff_density_min         -0.1897
_refine_diff_density_rms         0.0441
_refine_ls_extinction_method     none
_refine_ls_goodness_of_fit_ref   1.147
_refine_ls_hydrogen_treatment    refall
_refine_ls_matrix_type           full
_refine_ls_number_parameters     118
_refine_ls_number_reflns         2519
_refine_ls_number_restraints     0
_refine_ls_R_factor_all          0.0209
_refine_ls_R_factor_gt           0.019
_refine_ls_shift/su_max          0.0
_refine_ls_shift/su_mean         0.0
_refine_ls_structure_factor_coef Fsqd
_refine_ls_weighting_details     w=1/[\s^2^(Fo^2^)]
_refine_ls_weighting_scheme      sigma
_refine_ls_wR_factor_gt          0.032
_refine_ls_wR_factor_ref         0.0322
_reflns_Friedel_coverage         0.0
_reflns_Friedel_fraction_full    0.0
_reflns_Friedel_fraction_max     0.0
_reflns_number_gt                2393
_reflns_number_total             2519
_reflns_threshold_expression     'I > 2\s(I)'
_cod_data_source_file            fc5060.cif
_cod_data_source_block           A23_xHARPy_vdW-DF2
_cod_database_code               1566446
loop_
_space_group_symop_operation_xyz
'x, y, z'
'-x+1/2, -y, z+1/2'
'x+1/2, -y+1/2, -z'
'-x, y+1/2, -z+1/2'
loop_
_atom_site_label
_atom_site_type_symbol
_atom_site_fract_x
_atom_site_fract_y
_atom_site_fract_z
_atom_site_U_iso_or_equiv
_atom_site_adp_type
_atom_site_occupancy
_atom_site_site_symmetry_order
O1 O 0.72675(4) 0.083789(17) 0.62432(4) 0.00652(3) Uani 1.0 1
O2 O 0.44092(4) 0.184049(17) 0.76113(4) 0.00633(3) Uani 1.0 1
N1 N 0.64722(4) 0.13752(2) 0.18303(5) 0.00515(3) Uani 1.0 1
H1 H 0.7044(12) 0.0613(5) 0.1963(15) 0.0255(20) Uani 1.0 1
H2 H 0.7782(11) 0.1895(5) 0.2080(14) 0.0217(18) Uani 1.0 1
H3 H 0.5877(12) 0.1495(6) 0.0158(13) 0.0237(18) Uani 1.0 1
C1 C 0.46631(4) 0.16108(2) 0.35444(5) 0.00421(4) Uani 1.0 1
H4 H 0.4236(10) 0.2474(4) 0.3392(12) 0.0220(16) Uani 1.0 1
C2 C 0.25990(5) 0.09067(2) 0.30335(6) 0.00667(4) Uani 1.0 1
H5 H 0.1925(10) 0.1106(5) 0.1330(12) 0.0312(20) Uani 1.0 1
H6 H 0.1282(10) 0.1048(5) 0.4286(13) 0.0303(19) Uani 1.0 1
H7 H 0.3047(10) 0.0051(5) 0.3075(14) 0.033(2) Uani 1.0 1
C3 C 0.55408(5) 0.14080(2) 0.59994(5) 0.00396(3) Uani 1.0 1
loop_
_atom_site_aniso_label
_atom_site_aniso_U_11
_atom_site_aniso_U_22
_atom_site_aniso_U_33
_atom_site_aniso_U_23
_atom_site_aniso_U_13
_atom_site_aniso_U_12
O1 0.00671(7) 0.00713(7) 0.00571(8) 0.00051(6) -0.00061(6) 0.00248(6)
O2 0.00753(7) 0.00754(6) 0.00394(8) -0.00056(6) 0.00054(6) 0.00204(6)
N1 0.00554(7) 0.00588(7) 0.00403(8) -0.00008(6) 0.00045(6) 0.00006(6)
H1 0.029(4) 0.023(4) 0.025(5) -0.001(4) 0.008(4) 0.007(4)
H2 0.014(3) 0.027(4) 0.024(5) 0.004(4) 0.007(4) -0.001(3)
H3 0.033(4) 0.028(4) 0.009(5) -0.008(4) 0.008(4) -0.006(4)
C1 0.00487(8) 0.00444(7) 0.00334(9) 0.00004(6) -0.00029(7) 0.00043(6)
H4 0.028(4) 0.017(3) 0.022(4) 0.004(3) 0.007(3) 0.010(3)
C2 0.00558(9) 0.00860(9) 0.00584(10) -0.00043(8) -0.00060(8) -0.00130(8)
H5 0.026(4) 0.055(5) 0.013(4) 0.010(4) -0.013(3) -0.012(4)
H6 0.015(3) 0.038(4) 0.038(5) 0.003(4) 0.007(4) -0.001(3)
H7 0.038(5) 0.016(3) 0.045(5) -0.005(3) 0.004(4) -0.004(3)
C3 0.00466(7) 0.00410(7) 0.00313(9) 0.00002(6) -0.00031(7) 0.00028(7)
loop_
_atom_type_symbol
_atom_type_description
_atom_type_scat_dispersion_real
_atom_type_scat_dispersion_imag
_atom_type_scat_source
C C 0.0033 0.0016 'HAR in xHARPy 0.1'
H H 0.0000 0.0000 'HAR in xHARPy 0.1'
N N 0.0061 0.0033 'HAR in xHARPy 0.1'
O O 0.0106 0.0060 'HAR in xHARPy 0.1'
loop_
_geom_angle_atom_site_label_1
_geom_angle_atom_site_label_2
_geom_angle_atom_site_label_3
_geom_angle
C1 N1 H1 112.0(4)
C1 N1 H2 109.5(4)
H1 N1 H2 108.6(5)
C1 N1 H3 110.4(4)
H1 N1 H3 108.6(6)
H2 N1 H3 107.7(5)
N1 C1 C2 109.76(3)
N1 C1 C3 110.02(2)
C2 C1 C3 111.09(2)
N1 C1 H4 107.5(3)
C2 C1 H4 110.3(3)
C3 C1 H4 108.1(4)
C1 C2 H5 110.0(3)
C1 C2 H6 111.0(3)
H5 C2 H6 107.9(4)
C1 C2 H7 110.3(3)
H5 C2 H7 109.0(5)
H6 C2 H7 108.5(5)
O1 C3 O2 125.86(3)
O1 C3 C1 118.28(2)
O2 C3 C1 115.86(3)
loop_
_geom_bond_atom_site_label_1
_geom_bond_atom_site_label_2
_geom_bond_distance
O1 C3 1.2474(4)
O2 C3 1.2662(4)
N1 C1 1.4899(4)
N1 H1 0.997(7)
N1 H2 1.015(7)
N1 H3 1.042(8)
C1 C2 1.5264(4)
C1 C3 1.5348(5)
C1 H4 1.092(5)
C2 H5 1.093(7)
C2 H6 1.080(7)
C2 H7 1.082(6)
loop_
_refln_index_h
_refln_index_k
_refln_index_l
_refln_F_squared_calc
_refln_F_squared_meas
_refln_F_squared_sigma
0 2 0 183.04 186.99 1.79
0 4 0 5388.04 5276.36 45.23
0 6 0 91.46 91.26 1.06
0 8 0 45.57 46.15 0.73
0 10 0 0.68 0.82 0.35
0 12 0 242.73 236.84 2.71
0 14 0 57.51 59.59 1.14
0 16 0 24.93 25.69 0.87
0 18 0 229.05 231.63 3.03
0 20 0 0.02 0.22 0.35
0 22 0 135.28 137.91 2.40
0 24 0 0.06 0.23 0.39
0 26 0 5.64 6.56 0.63
0 1 1 726.59 737.10 7.45
0 2 1 118.38 121.63 1.24
0 3 1 698.44 720.98 6.51
0 4 1 95.87 99.99 1.08
0 5 1 0.21 0.23 0.17
0 6 1 483.52 483.29 4.66
0 7 1 37.11 37.58 0.62
0 8 1 44.92 45.14 0.74
0 9 1 32.30 32.64 0.68
0 10 1 138.01 139.71 1.73
0 11 1 68.62 67.89 1.13
0 12 1 78.95 77.69 1.25
0 13 1 20.06 19.16 0.70
0 14 1 39.99 38.57 0.96
0 15 1 92.90 92.56 1.59
0 16 1 0.32 2.42 9.36
0 17 1 0.91 1.15 0.35
0 18 1 62.23 60.93 1.39
0 19 1 16.00 16.44 0.91
0 20 1 28.33 27.92 1.07
0 21 1 2.09 2.74 0.43
0 23 1 1.79 1.76 0.43
0 24 1 0.02 0.17 0.39
0 25 1 2.34 3.04 0.57
0 26 1 20.21 20.13 1.26
0 0 2 2919.03 2892.19 33.89
0 1 2 518.81 542.50 6.67
0 2 2 175.61 184.75 2.11
0 3 2 57.16 57.18 0.81
0 4 2 175.25 174.21 1.82
0 5 2 562.55 576.75 5.42
0 6 2 92.94 98.41 1.19
0 7 2 5.43 5.51 0.35
0 8 2 110.82 113.68 1.42
0 9 2 22.03 24.10 0.61
0 10 2 46.79 47.06 0.88
0 11 2 85.50 85.25 1.28
0 12 2 28.94 28.75 0.77
0 13 2 22.52 21.87 0.71
0 14 2 22.58 21.67 0.77
0 15 2 184.56 184.50 2.43
0 16 2 4.07 4.52 0.41
0 17 2 64.24 62.13 1.41
0 18 2 19.84 20.76 0.93
0 19 2 119.89 121.98 2.13
0 20 2 0.87 0.99 0.41
0 21 2 46.74 46.74 1.38
0 22 2 37.88 37.46 1.31
0 23 2 17.02 18.33 1.04
0 24 2 1.86 2.54 0.46
0 25 2 22.39 22.86 1.28
0 26 2 1.75 2.60 0.51
0 1 3 84.79 85.46 1.78
0 2 3 159.95 160.53 2.98
0 3 3 206.10 209.02 2.50
0 4 3 729.44 751.95 7.91
0 5 3 80.62 82.74 1.22
0 6 3 274.74 277.12 2.89
0 7 3 22.41 22.79 0.58
0 8 3 62.40 62.73 1.01
0 9 3 148.88 145.23 1.81
0 10 3 40.74 40.31 0.85
0 11 3 69.17 71.60 1.20
0 12 3 121.30 121.00 1.73
0 13 3 146.97 148.06 2.03
0 14 3 29.78 28.31 0.87
0 15 3 91.91 92.04 1.61
0 16 3 157.85 157.50 2.30
0 17 3 49.39 48.04 1.26
0 18 3 28.33 27.47 1.01
0 19 3 3.15 2.55 0.41
0 20 3 44.24 45.21 1.36
0 21 3 0.85 0.89 0.39
0 22 3 0.61 1.18 0.41
0 23 3 27.16 28.65 1.18
0 24 3 12.48 12.94 0.93
0 25 3 5.89 5.06 0.59
0 0 4 215.31 213.34 3.97
0 1 4 40.28 40.52 1.22
0 2 4 93.06 94.68 2.09
0 3 4 7.95 8.14 0.46
0 4 4 230.64 233.48 2.89
0 5 4 0.32 0.69 0.38
0 6 4 73.28 72.17 1.25
0 7 4 30.68 29.72 0.79
0 8 4 67.34 65.61 1.09
0 9 4 7.22 7.32 0.47
0 10 4 89.25 91.92 1.41
0 11 4 98.59 99.69 1.54
0 12 4 40.00 39.69 0.98
0 13 4 10.97 11.69 0.66
0 14 4 146.04 144.91 2.12
0 15 4 46.71 46.06 1.20
0 16 4 96.11 96.33 1.77
0 17 4 5.35 5.81 0.47
0 18 4 10.30 9.80 0.75
0 19 4 3.91 3.42 0.45
0 20 4 1.69 1.87 0.42
0 21 4 0.48 0.19 0.38
0 22 4 3.65 4.43 0.50
0 23 4 0.03 0.12 0.41
0 24 4 26.23 27.04 1.16
0 25 4 2.30 2.95 0.52
0 1 5 247.05 240.23 4.60
0 2 5 143.17 139.67 3.00
0 3 5 51.18 50.07 1.56
0 4 5 394.87 395.88 4.66
0 5 5 184.36 180.83 2.47
0 6 5 0.73 0.79 0.42
0 7 5 6.84 6.74 0.54
0 8 5 150.19 147.77 2.22
0 9 5 73.53 70.57 1.45
0 10 5 9.32 8.09 0.56
0 11 5 22.19 21.11 0.79
0 12 5 1.40 1.51 0.34
0 13 5 78.30 80.57 1.53
0 14 5 2.84 3.58 0.41
0 15 5 13.46 14.35 0.80
0 16 5 14.04 13.51 0.81
0 17 5 74.72 78.37 1.69
0 18 5 2.74 2.37 0.42
0 19 5 14.37 13.86 0.91
0 20 5 0.17 0.30 0.41
0 21 5 21.44 19.98 1.06
0 22 5 4.80 5.59 0.54
0 23 5 14.43 12.74 0.98
0 24 5 0.33 0.26 0.39
0 0 6 0.74 0.80 0.64
0 1 6 96.42 95.39 2.49
0 2 6 15.61 16.48 1.04
0 3 6 1.05 1.51 0.66
0 4 6 17.45 16.27 1.11
0 5 6 86.90 87.77 1.60
0 6 6 12.28 11.37 0.66
0 7 6 147.03 144.53 2.28
0 8 6 32.08 30.53 1.01
0 9 6 12.71 14.60 0.79
0 10 6 15.97 15.88 0.84
0 11 6 120.47 119.25 1.93
0 12 6 6.52 6.42 0.56
0 13 6 4.40 4.86 0.49
0 14 6 10.99 11.89 0.75
0 15 6 0.02 0.09 0.35
0 16 6 44.27 42.26 1.30
0 17 6 29.72 29.63 1.13
0 18 6 7.04 7.93 0.70
0 19 6 44.07 44.99 1.41
0 20 6 1.33 1.87 0.44
0 21 6 22.95 21.67 1.11
0 22 6 10.49 10.77 0.79
0 23 6 17.31 17.30 1.01
0 1 7 63.08 59.81 2.09
0 2 7 562.44 550.68 9.90
0 3 7 0.00 0.47 0.78
0 4 7 12.16 11.99 1.12
0 5 7 25.24 24.50 1.46
0 6 7 43.70 43.92 1.24
0 7 7 47.91 47.46 1.30
0 8 7 1.51 1.98 0.44
0 9 7 4.46 5.03 0.52
0 10 7 10.42 9.38 0.82
0 11 7 30.50 31.95 1.21
0 12 7 5.13 5.94 0.65
0 13 7 13.30 11.84 0.81
0 14 7 1.06 1.50 0.39
0 16 7 85.02 83.12 1.85
0 17 7 0.52 1.07 0.41
0 18 7 1.43 2.35 0.45
0 19 7 5.32 6.98 0.56
0 20 7 140.05 137.60 2.49
0 21 7 0.39 0.93 0.40
0 0 8 26.51 24.91 1.54
0 1 8 3.03 3.65 0.97
0 2 8 9.76 8.86 1.17
0 3 8 16.83 15.99 1.37
0 4 8 1.96 1.76 0.97
0 6 8 10.31 10.45 0.83
0 7 8 59.01 60.68 1.59
0 8 8 90.69 89.03 1.96
0 9 8 11.43 12.48 0.88
0 10 8 5.41 6.66 0.71
0 11 8 41.68 40.80 1.43
0 12 8 40.61 40.93 1.47
0 13 8 33.24 32.71 1.37
0 14 8 11.27 12.76 1.00
0 15 8 0.07 0.56 0.39
0 16 8 0.59 1.02 0.41
0 17 8 7.34 6.68 0.56
0 18 8 0.31 0.59 0.41
0 19 8 10.51 9.39 0.78
0 20 8 5.75 6.27 0.54
0 1 9 6.86 8.67 1.18
0 2 9 48.98 47.19 2.23
0 3 9 63.79 64.46 2.57
0 4 9 21.36 22.61 1.65
0 5 9 1.35 1.68 0.98
0 6 9 1.34 1.61 1.00
0 7 9 48.38 47.34 1.55
0 8 9 80.55 81.05 1.98
0 9 9 17.50 16.76 1.09
0 10 9 14.04 14.09 1.04
0 11 9 1.80 2.28 0.54
0 12 9 36.05 35.50 1.42
0 13 9 29.62 29.66 1.36
0 14 9 0.68 0.29 0.50
0 15 9 47.10 48.13 1.67
0 16 9 13.78 14.71 1.11
0 17 9 15.66 15.80 1.01
0 18 9 8.50 8.73 0.65
0 0 10 5.31 4.89 1.25
0 1 10 0.00 0.01 1.02
0 2 10 21.47 21.06 1.76
0 3 10 49.97 49.82 2.46
0 4 10 28.23 28.84 1.98
0 5 10 33.24 33.28 2.09
0 6 10 41.86 42.34 2.37
0 7 10 54.94 55.30 2.65
0 8 10 59.39 61.26 1.83
0 9 10 6.77 6.85 0.67
0 10 10 1.25 1.89 0.53
0 11 10 17.89 16.67 1.17
0 12 10 12.19 13.66 0.94
0 13 10 11.77 12.76 1.07
0 14 10 47.26 44.34 1.65
0 15 10 5.15 5.96 0.66
0 1 11 0.65 0.49 1.24
0 2 11 2.07 2.75 1.26
0 3 11 7.76 6.91 1.51
0 4 11 1.16 0.93 1.31
0 5 11 1.58 0.91 1.31
0 6 11 9.03 7.86 1.56
0 7 11 2.48 3.15 1.37
0 8 11 8.04 8.54 1.56
0 9 11 7.92 8.14 0.78
0 10 11 0.78 1.60 0.55
0 11 11 9.42 8.49 0.85
0 12 11 32.17 30.69 1.43
0 0 12 0.05 2.52 9.36
0 1 12 29.54 27.48 2.29
0 2 12 19.38 20.56 2.00
0 3 12 121.61 118.26 4.03
0 4 12 0.34 0.43 1.44
0 5 12 9.54 9.95 1.75
0 6 12 55.71 56.76 2.80
0 7 12 70.94 65.96 3.09
1 1 0 253.65 255.95 2.41
1 2 0 5364.55 5584.09 59.13
1 3 0 58.93 60.15 0.70
1 4 0 1728.70 1708.26 15.03
1 5 0 337.88 344.38 3.34
1 6 0 65.15 62.97 0.81
1 7 0 19.84 19.59 0.45
1 8 0 405.99 409.28 4.07
1 9 0 2.85 3.32 0.35
1 10 0 41.95 43.82 0.82
1 11 0 96.56 98.60 1.38
1 12 0 26.44 27.40 0.72
1 13 0 60.43 58.34 1.10
1 14 0 1.51 0.88 0.44
1 15 0 86.52 87.84 1.50
1 16 0 24.74 24.89 0.87
1 17 0 30.69 30.06 0.98
1 18 0 0.84 0.95 0.39
1 19 0 34.54 34.33 1.12
1 20 0 42.58 40.99 1.27
1 21 0 1.20 1.46 0.44
1 22 0 3.87 4.07 0.48
1 23 0 6.14 7.13 0.61
1 24 0 9.92 9.96 0.80
1 26 0 6.76 7.45 0.65
1 0 1 74.75 78.15 0.85
1 1 1 130.07 135.94 1.38
1 2 1 101.98 105.97 1.12
1 3 1 1087.09 1106.92 9.85
1 4 1 156.65 159.82 1.67
1 5 1 442.49 445.66 4.30
1 6 1 21.30 22.27 0.45
1 7 1 342.02 345.38 3.47
1 8 1 235.47 238.76 2.52
1 9 1 234.47 236.42 2.57
1 10 1 137.73 133.55 1.70
1 11 1 17.25 17.45 0.57
1 12 1 1.07 0.36 0.37
1 13 1 131.14 129.91 1.80
1 14 1 31.23 30.10 0.84
1 15 1 89.73 89.18 1.55
1 16 1 62.90 62.88 1.31
1 17 1 25.71 25.88 0.92
1 18 1 23.60 24.21 0.94
1 19 1 14.88 15.59 0.84
1 20 1 6.46 5.93 0.49
1 21 1 1.48 2.10 0.42
1 22 1 33.75 35.39 1.23
1 23 1 9.63 10.85 0.90
1 24 1 22.23 21.31 1.09
1 25 1 8.84 9.67 0.83
1 26 1 0.77 2.04 0.49
1 0 2 3292.06 3160.71 36.78
1 1 2 69.63 72.95 0.95
1 2 2 568.52 582.64 6.23
1 3 2 195.37 197.56 2.06
1 4 2 1077.60 1083.23 9.80
1 5 2 18.69 18.94 0.42
1 6 2 219.39 223.41 2.35
1 7 2 166.60 164.94 1.85
1 8 2 10.94 10.43 0.44
1 9 2 59.82 62.91 1.00
1 10 2 61.03 60.54 1.02
1 11 2 119.28 120.06 1.62
1 12 2 120.17 117.47 1.65
1 13 2 113.36 112.18 1.66
1 14 2 55.67 55.69 1.16
1 15 2 31.35 32.20 0.94
1 16 2 29.70 28.12 0.96
1 17 2 78.52 77.08 1.55
1 18 2 110.65 112.07 1.96
1 19 2 40.75 41.95 1.22
1 20 2 10.49 9.88 0.71
1 21 2 22.34 23.28 1.04
1 22 2 39.25 37.23 1.30
1 23 2 44.32 44.18 1.45
1 24 2 9.78 10.84 0.81
1 25 2 0.09 0.16 0.44
1 26 2 3.75 4.57 0.56
1 0 3 30.42 32.62 0.94
1 1 3 298.17 307.97 5.32
1 2 3 225.58 228.79 2.69
1 3 3 90.62 93.38 1.30
1 4 3 94.45 97.38 1.36
1 5 3 23.84 23.45 0.54
1 6 3 137.91 140.59 1.66
1 7 3 4.98 5.27 0.39
1 8 3 262.72 262.26 2.86
1 9 3 30.10 29.53 0.71
1 10 3 80.62 81.11 1.26
1 11 3 15.97 16.96 0.61
1 12 3 33.01 32.87 0.85
1 13 3 35.37 34.41 0.92
1 14 3 117.18 116.91 1.81
1 15 3 34.79 34.09 1.00
1 16 3 10.21 9.46 0.63
1 17 3 26.36 25.47 0.96
1 18 3 28.00 27.00 1.02
1 19 3 28.09 27.71 1.07
1 20 3 8.03 7.90 0.67
1 21 3 24.54 24.01 1.07
1 22 3 6.77 7.33 0.62
1 23 3 2.94 2.79 0.46
1 24 3 8.29 8.28 0.65
1 25 3 16.09 18.23 1.18
1 0 4 335.65 334.29 5.94
1 1 4 254.81 264.72 4.81
1 2 4 28.47 29.27 1.07
1 3 4 22.72 23.83 0.65
1 4 4 111.48 111.65 1.60
1 5 4 83.98 85.20 1.37
1 6 4 134.47 132.71 1.90
1 7 4 86.19 85.22 1.25
1 8 4 45.95 45.99 0.90
1 9 4 2.22 2.22 0.39
1 10 4 22.66 23.12 0.71
1 11 4 65.34 63.47 1.19
1 12 4 148.55 143.41 2.03
1 13 4 25.94 27.62 0.87
1 14 4 42.79 40.12 1.08
1 15 4 2.18 3.03 0.40
1 16 4 22.61 24.01 0.93
1 17 4 27.20 28.60 1.03
1 18 4 57.79 59.64 1.49
1 19 4 40.57 41.54 1.27
1 20 4 9.18 9.41 0.81
1 21 4 11.41 11.00 0.80
1 22 4 21.35 22.16 1.07
1 23 4 14.83 15.35 0.98
1 24 4 2.29 2.18 0.44
1 0 5 289.71 289.68 5.40
1 1 5 124.10 124.63 2.76
1 2 5 485.38 472.08 8.27
1 3 5 182.92 179.48 3.70
1 4 5 113.39 110.06 1.71
1 5 5 8.66 8.72 0.54
1 6 5 232.25 233.90 3.07
1 7 5 74.76 74.27 1.41
1 8 5 72.64 70.58 1.40
1 9 5 94.21 91.67 1.49
1 10 5 9.92 9.69 0.59
1 11 5 35.07 36.50 0.97
1 12 5 25.18 25.53 0.88
1 13 5 45.31 45.54 1.17
1 14 5 40.64 40.93 1.14
1 15 5 30.10 30.38 1.04
1 16 5 75.75 80.04 1.66
1 17 5 11.33 11.67 0.82
1 18 5 7.51 7.09 0.66
1 19 5 18.31 19.02 0.99
1 20 5 66.42 65.84 1.67
1 21 5 25.51 25.56 1.13
1 22 5 1.50 1.76 0.44
1 23 5 3.54 4.66 0.51
1 24 5 18.43 17.75 1.02
1 0 6 0.54 0.07 0.64
1 1 6 0.51 0.91 0.63
1 2 6 8.13 7.68 0.85
1 3 6 13.11 12.65 1.01
1 4 6 16.70 16.29 1.11
1 5 6 13.15 13.53 0.68
1 6 6 22.71 22.28 0.83
1 7 6 7.65 7.92 0.63
1 8 6 10.11 9.26 0.69
1 9 6 11.77 11.27 0.78
1 10 6 2.76 2.47 0.45
1 11 6 10.88 10.01 0.69
1 12 6 30.13 29.53 0.98
1 13 6 7.74 7.68 0.61
1 14 6 28.42 28.52 1.02
1 15 6 12.00 11.21 0.83
1 16 6 3.04 3.04 0.44
1 17 6 21.39 21.91 1.02
1 18 6 13.99 14.11 0.91
1 19 6 11.16 12.02 0.88
1 20 6 34.11 32.17 1.27
1 21 6 9.21 9.58 0.79
1 22 6 10.49 8.78 0.77
1 23 6 11.95 12.26 0.90
1 0 7 254.24 252.43 5.24
1 1 7 26.81 27.34 1.47
1 2 7 60.89 62.47 2.16
1 3 7 81.93 82.93 2.54
1 4 7 146.72 143.88 3.58
1 5 7 29.74 31.14 1.06
1 6 7 63.64 62.86 1.50
1 7 7 10.80 9.69 0.78
1 8 7 58.13 57.38 1.48
1 9 7 69.15 68.61 1.64
1 10 7 18.11 19.10 0.98
1 11 7 21.88 22.24 0.93
1 12 7 2.62 1.94 0.47
1 13 7 41.73 43.12 1.27
1 14 7 26.51 25.07 1.07
1 15 7 34.83 32.91 1.19
1 16 7 23.69 26.33 1.09
1 17 7 19.67 20.88 1.03
1 18 7 45.93 43.84 1.41
1 19 7 6.94 6.87 0.63
1 20 7 14.69 15.73 1.01
1 21 7 9.37 9.48 0.68
1 0 8 10.26 10.64 1.22
1 1 8 34.56 35.99 1.82
1 2 8 19.65 20.22 1.46
1 3 8 31.78 32.71 1.74
1 4 8 33.96 33.40 1.79
1 5 8 105.32 104.16 3.17
1 6 8 16.42 15.33 0.94
1 7 8 96.64 93.06 1.99
1 8 8 3.71 3.31 0.50
1 9 8 51.54 52.19 1.55
1 10 8 42.32 40.48 1.41
1 11 8 95.57 97.33 2.16
1 12 8 12.98 11.99 0.99
1 13 8 29.01 28.85 1.29
1 14 8 1.98 1.22 0.51
1 15 8 44.50 47.15 1.41
1 16 8 5.34 5.69 0.53
1 17 8 29.50 27.33 1.20
1 18 8 4.59 5.56 0.53
1 19 8 1.91 2.31 0.45
1 20 8 0.04 0.11 0.40
1 0 9 0.15 0.04 0.94
1 1 9 3.19 2.27 1.02
1 2 9 51.08 52.51 2.31
1 3 9 1.25 1.66 1.00
1 4 9 3.76 3.32 1.16
1 5 9 28.62 29.13 1.87
1 6 9 8.95 10.24 1.32
1 7 9 14.94 16.17 1.03
1 8 9 8.09 8.50 0.75
1 9 9 20.18 20.21 1.14
1 10 9 31.85 30.14 1.33
1 11 9 45.92 46.97 1.61
1 12 9 8.57 9.11 0.84
1 13 9 17.26 16.39 1.16
1 14 9 7.40 8.07 0.84
1 15 9 22.06 22.66 1.26
1 16 9 43.72 43.75 1.61
1 17 9 18.41 18.65 1.07
1 18 9 12.10 11.79 0.91
1 0 10 2.75 3.55 1.19
1 1 10 24.59 26.22 1.91
1 2 10 2.24 1.59 1.14
1 3 10 18.11 20.54 1.75
1 4 10 21.93 22.12 1.85
1 5 10 33.52 33.31 2.13
1 6 10 41.21 42.39 2.35
1 7 10 33.72 32.30 2.14
1 8 10 24.74 24.99 1.28
1 9 10 7.66 7.52 0.83
1 10 10 61.66 57.04 1.84
1 11 10 15.87 16.61 1.17
1 12 10 48.89 46.44 1.67
1 13 10 0.09 0.23 0.52
1 14 10 7.99 6.70 0.68
1 15 10 11.30 10.73 0.90
1 0 11 1.62 0.82 1.31
1 1 11 13.83 12.23 1.64
1 2 11 35.21 34.46 2.31
1 3 11 24.37 23.85 1.99
1 4 11 12.10 12.13 1.65
1 5 11 5.29 6.26 1.47
1 6 11 2.99 4.03 1.37
1 7 11 7.96 8.77 1.61
1 8 11 16.85 15.93 1.20
1 9 11 25.49 23.97 1.33
1 10 11 19.88 19.09 1.25
1 11 11 2.78 3.67 0.60
1 12 11 0.80 1.65 0.54
1 0 12 17.02 18.22 1.96
1 1 12 77.44 77.44 3.24
1 2 12 9.43 8.45 1.77
1 3 12 3.18 3.29 1.59
1 4 12 28.47 29.60 2.26
1 5 12 73.25 69.92 3.17
1 6 12 2.80 2.91 1.55
1 7 12 24.37 23.30 2.12
2 0 0 41.35 42.67 0.55
2 1 0 31.36 31.67 0.45
2 2 0 1725.06 1708.23 15.05
2 3 0 800.16 800.41 7.30
2 4 0 36.18 36.48 0.54
2 5 0 93.43 92.74 1.10
2 6 0 2148.57 2117.75 18.80
2 7 0 297.11 298.91 3.06
2 8 0 0.39 0.78 0.31
2 9 0 240.75 239.08 2.63
2 10 0 256.37 258.82 2.84
2 11 0 2.31 2.46 0.37
2 12 0 46.68 44.16 0.93
2 13 0 169.57 170.92 2.18
2 14 0 12.13 11.12 0.61
2 15 0 73.21 71.18 1.35
2 16 0 39.80 37.64 1.04
2 17 0 36.92 36.31 1.07
2 18 0 44.04 44.47 1.22
2 19 0 36.85 38.42 1.18
2 20 0 1.71 0.94 0.38
2 21 0 8.58 7.87 0.65
2 22 0 16.14 15.38 0.94
2 23 0 10.98 11.36 0.89
2 24 0 33.10 32.96 1.26
2 25 0 3.17 4.19 0.59
2 26 0 1.05 1.09 0.46
2 0 1 1.48 1.66 0.16
2 1 1 79.90 79.38 0.90
2 2 1 278.90 282.29 2.78
2 3 1 526.80 545.88 5.14
2 4 1 155.05 160.58 1.70
2 5 1 430.49 434.28 4.22
2 6 1 23.36 23.32 0.49
2 7 1 97.94 99.70 1.25
2 8 1 4.11 4.93 0.37
2 9 1 281.99 278.00 2.99
2 10 1 9.10 8.86 0.47
2 11 1 5.58 4.84 0.44
2 12 1 42.88 41.41 0.90
2 13 1 82.73 81.23 1.37
2 14 1 44.03 45.52 1.04
2 15 1 22.19 24.17 0.82
2 16 1 3.46 3.62 0.40
2 17 1 11.73 10.25 0.70
2 18 1 10.60 10.13 0.74
2 19 1 29.52 29.75 1.08
2 20 1 71.26 72.92 1.66
2 21 1 27.79 29.38 1.14
2 22 1 23.86 23.74 1.09
2 23 1 2.93 2.61 0.45
2 24 1 38.69 41.87 1.36
2 25 1 22.94 23.40 1.35
2 26 1 29.90 31.01 1.48
2 0 2 4.49 4.27 0.23
2 1 2 308.37 314.06 3.10
2 2 2 1100.64 1103.57 9.99
2 3 2 110.75 108.98 1.27
2 4 2 90.67 90.65 1.11
2 5 2 7.71 8.54 0.35
2 6 2 295.10 297.26 3.07
2 7 2 142.46 142.86 1.69
2 8 2 145.14 146.63 1.79
2 9 2 131.78 130.41 1.65
2 10 2 2.88 2.70 0.37
2 11 2 66.68 65.24 1.14
2 12 2 58.84 58.33 1.11
2 13 2 75.28 74.80 1.33
2 14 2 32.83 34.42 0.93
2 15 2 33.46 32.39 0.95
2 16 2 78.77 74.54 1.49
2 17 2 0.11 0.07 0.34
2 18 2 9.78 11.01 0.75
2 19 2 1.32 1.16 0.37
2 20 2 31.41 32.41 1.14
2 21 2 29.93 30.79 1.18
2 22 2 3.36 3.63 0.48
2 23 2 1.68 2.58 0.46
2 24 2 9.31 8.87 0.78
2 25 2 41.45 40.63 1.69
2 0 3 137.51 134.44 1.56
2 1 3 142.02 142.89 1.61
2 2 3 382.24 390.50 3.88
2 3 3 456.39 456.23 4.51
2 4 3 66.29 67.03 0.95
2 5 3 255.93 253.85 2.71
2 6 3 91.43 92.65 1.25
2 7 3 109.15 110.57 1.44
2 8 3 124.03 121.79 1.57
2 9 3 293.34 294.66 3.24
2 10 3 259.96 261.59 2.98
2 11 3 12.60 12.23 0.59
2 12 3 87.46 86.01 1.44
2 13 3 43.93 44.66 1.05
2 14 3 51.07 49.05 1.16
2 15 3 17.14 17.28 0.81
2 16 3 2.31 2.84 0.40
2 17 3 11.35 12.99 0.77
2 18 3 2.82 2.14 0.39
2 19 3 39.43 39.56 1.24
2 20 3 9.17 10.06 0.68
2 21 3 44.22 44.11 1.40
2 22 3 9.05 7.94 0.73
2 23 3 4.08 5.30 0.58
2 24 3 0.01 0.04 0.40
2 25 3 12.89 13.30 1.09
2 0 4 54.84 57.80 1.56
2 1 4 106.57 108.82 1.57
2 2 4 131.01 133.52 1.86
2 3 4 137.15 135.78 1.88
2 4 4 13.17 13.23 0.58
2 5 4 62.71 60.91 1.01
2 6 4 112.09 110.16 1.48
2 7 4 105.65 104.33 1.46
2 8 4 118.43 118.60 1.62
2 9 4 47.97 49.51 0.99
2 10 4 142.12 140.82 1.92
2 11 4 51.15 50.71 1.09
2 12 4 13.65 12.91 0.67
2 13 4 0.42 0.41 0.34
2 14 4 12.91 11.91 0.72
2 15 4 12.85 13.06 0.76
2 16 4 25.62 25.65 0.93
2 17 4 40.79 39.45 1.21
2 18 4 27.08 25.84 1.06
2 19 4 8.86 8.87 0.72
2 20 4 25.34 27.13 1.12
2 21 4 20.08 20.64 1.06
2 22 4 18.71 17.09 1.06
2 23 4 21.65 23.87 1.09
2 24 4 4.62 3.40 0.47
2 0 5 149.86 147.11 3.16
2 1 5 35.32 34.58 1.33
2 2 5 165.92 164.26 2.28
2 3 5 31.98 32.20 0.86
2 4 5 151.79 151.03 2.16
2 5 5 64.04 64.90 1.27
2 6 5 12.60 12.71 0.65
2 7 5 15.05 14.41 0.71
2 8 5 62.76 63.88 1.19
2 9 5 26.32 26.68 0.82
2 10 5 140.52 141.14 2.01
2 11 5 61.24 61.43 1.28
2 12 5 15.13 14.57 0.75
2 13 5 1.36 2.30 0.38
2 14 5 94.94 94.11 1.75
2 15 5 11.90 12.93 0.78
2 16 5 1.09 1.16 0.36
2 17 5 5.40 5.43 0.49
2 18 5 45.61 45.13 1.39
2 19 5 9.94 11.32 0.85
2 20 5 1.33 1.44 0.42
2 21 5 0.98 0.97 0.41
2 22 5 20.35 21.35 1.06
2 23 5 17.09 16.75 1.04
2 0 6 76.48 77.86 2.24
2 1 6 94.51 95.68 2.55
2 2 6 2.37 2.35 0.73
2 3 6 2.21 2.30 0.59
2 4 6 22.72 23.05 0.84
2 5 6 101.20 100.38 1.79
2 6 6 0.37 0.60 0.49
2 7 6 79.15 78.55 1.59
2 8 6 0.15 0.23 0.53
2 9 6 3.82 5.01 0.49
2 10 6 10.77 12.34 0.70
2 11 6 105.53 106.38 1.82
2 12 6 8.30 8.02 0.55
2 13 6 61.87 63.46 1.44
2 14 6 10.87 11.47 0.76
2 15 6 58.72 57.81 1.46
2 16 6 15.29 15.65 0.91
2 17 6 47.90 47.78 1.39
2 18 6 50.61 50.56 1.48
2 19 6 1.55 2.39 0.45
2 20 6 3.93 3.88 0.49
2 21 6 14.34 14.00 0.98
2 22 6 46.88 46.55 1.45
2 0 7 7.27 7.56 1.01
2 1 7 46.00 44.74 1.85
2 2 7 12.98 12.79 1.14
2 3 7 14.53 14.75 1.22
2 4 7 137.31 132.74 2.72
2 5 7 73.05 72.31 1.60
2 6 7 30.57 29.86 1.08
2 7 7 86.98 85.21 1.81
2 8 7 82.36 83.89 1.80
2 9 7 4.66 5.07 0.54
2 10 7 9.13 9.67 0.81
2 11 7 97.07 99.41 2.10
2 12 7 1.41 2.22 0.39
2 13 7 49.15 49.82 1.38
2 14 7 38.92 40.99 1.27
2 15 7 33.08 33.37 1.21
2 16 7 4.47 4.37 0.49
2 17 7 50.76 51.76 1.50
2 18 7 9.45 10.08 0.78
2 19 7 6.13 7.14 0.65
2 20 7 0.34 1.00 0.41
2 21 7 11.92 10.58 0.81
2 0 8 56.44 55.08 2.24
2 1 8 59.61 59.91 2.34
2 2 8 25.63 24.01 1.61
2 3 8 27.83 29.57 1.71
2 4 8 16.89 16.23 1.41
2 5 8 58.87 57.58 1.55
2 6 8 51.39 47.92 1.47
2 7 8 44.80 42.60 1.39
2 8 8 0.08 0.31 0.42
2 9 8 11.58 11.98 0.82
2 10 8 1.25 1.43 0.50
2 11 8 9.91 8.68 0.79
2 12 8 0.43 0.02 0.44
2 13 8 34.56 32.00 1.39
2 14 8 8.45 10.16 0.83
2 15 8 6.86 7.15 0.71
2 16 8 2.40 3.31 0.48
2 17 8 24.63 23.93 1.16
2 18 8 1.63 1.95 0.44
2 19 8 5.80 6.85 0.55
2 0 9 74.33 77.10 2.82
2 1 9 16.08 17.81 1.53
2 2 9 112.15 111.40 3.50
2 3 9 5.03 5.46 1.12
2 4 9 49.35 49.68 2.34
2 5 9 10.96 11.68 1.41
2 6 9 51.71 50.78 1.60
2 7 9 10.65 10.76 0.94
2 8 9 2.02 3.42 0.55
2 9 9 39.41 39.07 1.46
2 10 9 12.68 14.38 1.04
2 11 9 15.14 15.92 1.09
2 12 9 17.22 17.68 1.15
2 13 9 34.36 35.78 1.49
2 14 9 71.04 73.64 2.02
2 15 9 0.36 1.12 0.53
2 16 9 16.29 15.82 1.03
2 17 9 3.91 4.41 0.54
2 0 10 51.06 50.61 2.49
2 1 10 69.55 68.43 2.88
2 2 10 2.10 2.91 1.20
2 3 10 6.75 6.69 1.36
2 4 10 4.66 4.77 1.28
2 5 10 47.81 47.53 2.45
2 6 10 16.85 17.29 1.70
2 7 10 27.52 26.71 1.35
2 8 10 31.75 30.96 1.42
2 9 10 12.02 12.45 0.93
2 10 10 33.64 34.12 1.48
2 11 10 43.43 45.15 1.61
2 12 10 49.04 49.22 1.71
2 13 10 6.99 7.23 0.69
2 14 10 17.50 17.41 1.17
2 15 10 2.88 3.01 0.58
2 0 11 12.31 12.83 1.70
2 1 11 11.04 10.10 1.62
2 2 11 4.03 3.37 1.39
2 3 11 6.02 7.39 1.48
2 4 11 3.02 2.32 1.44
2 5 11 1.36 0.71 1.33
2 6 11 14.20 13.89 1.70
2 7 11 1.02 0.52 1.33
2 8 11 6.25 5.76 0.66
2 9 11 0.22 0.31 0.52
2 10 11 5.79 6.42 0.80
2 11 11 3.56 4.67 0.63
2 0 12 47.99 47.53 2.70
2 1 12 22.59 20.95 2.13
2 2 12 7.08 6.33 1.65
2 3 12 40.51 43.39 2.57
2 4 12 11.09 11.39 1.81
2 5 12 2.05 2.30 1.55
2 6 12 31.42 29.88 2.25
3 1 0 30.38 31.56 0.52
3 3 0 69.30 70.40 0.90
3 4 0 412.33 420.74 4.10
3 5 0 211.32 212.22 2.26
3 6 0 38.45 40.12 0.71
3 7 0 250.46 247.31 2.65
3 8 0 81.00 82.16 1.18
3 9 0 112.58 109.64 1.46
3 10 0 31.32 30.56 0.74
3 11 0 261.10 255.77 2.91
3 12 0 9.86 8.33 0.54
3 13 0 2.96 2.79 0.45
3 14 0 2.86 3.82 0.50
3 15 0 23.47 24.45 0.87
3 16 0 45.27 43.67 1.16
3 17 0 42.25 43.04 1.18
3 18 0 1.67 2.17 0.38
3 19 0 2.67 2.99 0.42
3 20 0 26.50 28.42 1.09
3 21 0 30.74 30.90 1.17
3 22 0 3.91 4.15 0.49
3 23 0 0.04 0.06 0.40
3 24 0 9.40 8.20 0.66
3 25 0 28.79 30.09 1.45
3 0 1 176.30 178.72 1.89
3 1 1 361.28 375.42 3.71
3 2 1 58.28 60.00 0.80
3 3 1 438.35 441.86 4.32
3 4 1 83.50 83.31 1.06
3 5 1 24.84 24.72 0.54
3 6 1 67.67 70.16 1.00
3 7 1 165.08 161.98 1.89
3 8 1 43.88 43.45 0.82
3 9 1 400.55 388.75 4.09
3 10 1 37.90 37.55 0.83
3 11 1 56.33 54.52 1.05
3 12 1 57.37 55.36 1.11
3 13 1 91.75 91.11 1.54
3 14 1 27.72 27.54 0.87
3 15 1 1.56 2.02 0.38
3 16 1 38.54 40.06 1.12
3 17 1 31.63 30.71 1.03
3 18 1 53.46 51.97 1.35
3 19 1 19.27 20.07 0.94
3 20 1 3.98 3.76 0.46
3 21 1 64.69 68.85 1.66
3 22 1 66.20 63.06 1.66
3 23 1 15.53 15.74 0.97
3 24 1 28.14 30.34 1.23
3 25 1 6.56 7.93 0.78
3 0 2 0.22 0.11 0.23
3 1 2 186.44 182.85 1.99
3 2 2 271.88 276.54 2.84
3 3 2 272.21 271.45 2.82
3 4 2 57.05 56.03 0.87
3 5 2 323.31 320.37 3.32
3 6 2 649.38 649.14 6.36
3 7 2 6.10 7.43 0.43
3 8 2 92.37 90.54 1.29
3 9 2 63.93 63.31 1.08
3 10 2 261.21 258.31 2.93
3 11 2 37.50 35.21 0.87
3 12 2 110.80 108.29 1.65
3 13 2 26.88 26.67 0.83
3 14 2 6.94 6.76 0.60
3 15 2 12.99 13.12 0.73
3 16 2 36.13 37.35 1.08
3 17 2 29.02 29.03 1.02
3 18 2 8.98 9.20 0.73
3 19 2 6.55 5.63 0.55
3 20 2 11.86 11.77 0.85
3 21 2 0.74 0.60 0.39
3 22 2 2.86 2.86 0.46
3 23 2 10.37 9.98 0.88
3 24 2 27.07 28.04 1.19
3 25 2 4.54 4.62 0.57
3 0 3 181.67 186.58 2.08
3 1 3 256.44 255.80 2.71
3 2 3 17.04 17.70 0.51
3 3 3 170.49 170.11 1.95
3 4 3 12.56 12.83 0.49
3 5 3 212.84 217.74 2.42
3 6 3 3.48 3.45 0.39
3 7 3 261.05 258.74 2.88
3 8 3 43.61 43.82 0.89
3 9 3 25.72 26.61 0.74
3 10 3 12.02 11.76 0.58
3 11 3 77.95 77.22 1.33
3 12 3 42.08 40.86 0.99
3 13 3 11.29 12.63 0.68
3 14 3 9.52 9.22 0.60
3 15 3 12.70 12.24 0.74
3 16 3 1.74 2.08 0.40
3 17 3 8.87 8.32 0.65
3 18 3 0.36 0.20 0.35
3 19 3 9.96 10.46 0.83
3 20 3 7.12 6.22 0.52
3 21 3 1.94 1.64 0.42
3 22 3 6.61 6.51 0.55
3 23 3 40.86 40.50 1.40
3 24 3 7.20 8.65 0.74
3 0 4 11.21 11.79 0.47
3 1 4 116.21 115.29 1.50
3 2 4 30.39 31.49 0.71
3 3 4 82.05 81.48 1.20
3 4 4 24.77 25.43 0.66
3 5 4 280.24 275.22 3.04
3 6 4 83.49 81.37 1.27
3 7 4 59.19 60.56 1.09
3 8 4 54.41 54.82 1.07
3 9 4 67.03 68.54 1.23
3 10 4 21.76 21.35 0.74
3 11 4 30.96 29.52 0.89
3 12 4 29.84 30.49 0.92
3 13 4 105.80 106.48 1.78
3 14 4 10.15 10.22 0.69
3 15 4 38.50 38.23 1.13
3 16 4 16.56 17.58 0.86
3 17 4 32.51 32.73 1.13
3 18 4 24.53 25.92 1.07
3 19 4 17.82 17.17 0.95
3 20 4 21.01 21.20 1.03
3 21 4 24.48 26.18 1.14
3 22 4 7.15 7.09 0.63
3 23 4 10.13 10.22 0.88
3 24 4 1.02 1.12 0.41
3 0 5 53.19 50.81 0.99
3 1 5 46.13 45.49 0.93
3 2 5 37.66 36.08 0.85
3 3 5 72.29 74.51 1.23
3 4 5 72.12 72.88 1.23
3 5 5 74.53 73.64 1.26
3 6 5 43.27 44.76 0.97
3 7 5 126.03 124.69 1.79
3 8 5 195.09 190.39 2.43
3 9 5 1.70 1.85 0.48
3 10 5 138.09 135.84 2.02
3 11 5 5.69 7.42 0.54
3 12 5 127.17 125.61 1.99
3 13 5 10.01 10.45 0.73
3 14 5 69.52 65.04 1.49
3 15 5 44.48 44.99 1.27
3 16 5 9.83 10.19 0.79
3 17 5 2.87 3.19 0.45
3 18 5 5.68 6.52 0.54
3 19 5 12.59 10.78 0.79
3 20 5 1.91 2.88 0.46
3 21 5 3.34 3.64 0.49
3 22 5 15.84 15.39 1.01
3 23 5 3.00 3.84 0.49
3 1 6 3.68 3.85 0.52
3 2 6 42.30 42.42 1.11
3 3 6 4.88 4.91 0.57
3 4 6 10.40 9.72 0.69
3 5 6 21.86 21.39 0.87
3 6 6 20.01 18.95 0.87
3 7 6 41.08 40.02 1.17
3 8 6 19.91 19.09 0.81
3 9 6 32.16 32.97 0.99
3 10 6 24.24 24.40 0.90
3 11 6 70.07 69.04 1.47
3 12 6 2.84 3.67 0.44
3 13 6 58.65 57.49 1.43
3 14 6 24.77 26.18 1.03
3 15 6 7.02 7.31 0.59
3 16 6 42.29 42.41 1.33
3 17 6 24.51 24.39 1.08
3 18 6 10.59 10.35 0.78
3 19 6 21.71 22.19 1.10
3 20 6 62.70 64.55 1.69
3 21 6 5.25 5.87 0.54
3 22 6 5.94 5.24 0.52
3 0 7 6.12 6.02 1.02
3 1 7 0.50 0.86 0.85
3 2 7 155.87 154.00 3.80
3 3 7 31.17 29.50 1.09
3 4 7 10.91 9.81 0.80
3 5 7 33.41 32.63 1.15
3 6 7 12.76 12.22 0.87
3 7 7 36.25 36.63 1.23
3 8 7 13.17 11.34 0.87
3 9 7 108.09 110.81 2.17
3 10 7 51.13 51.51 1.33
3 11 7 6.25 6.27 0.49
3 12 7 2.61 2.43 0.41
3 13 7 38.30 38.77 1.25
3 14 7 49.93 49.91 1.41
3 15 7 37.90 37.84 1.29
3 16 7 2.92 2.83 0.46
3 17 7 3.13 2.89 0.46
3 18 7 7.81 7.97 0.65
3 19 7 22.01 21.20 1.11
3 20 7 10.36 9.33 0.77
3 21 7 5.21 5.29 0.52
3 0 8 1.94 2.17 1.02
3 1 8 116.12 115.79 3.38
3 2 8 58.79 60.53 2.39
3 3 8 45.83 46.65 2.13
3 4 8 40.51 39.67 1.33
3 5 8 40.11 39.24 1.33
3 6 8 26.99 26.67 1.15
3 7 8 30.45 30.79 1.22
3 8 8 34.94 33.98 1.31
3 9 8 22.91 22.57 1.14
3 10 8 5.51 4.48 0.58
3 11 8 101.54 101.72 2.26
3 12 8 17.15 17.58 1.09
3 13 8 7.42 6.42 0.60
3 14 8 4.49 4.66 0.50
3 15 8 18.22 18.34 1.01
3 16 8 17.87 15.62 1.01
3 17 8 10.71 11.41 0.92
3 18 8 9.25 8.47 0.66
3 19 8 22.07 23.49 1.13
3 0 9 71.70 70.23 2.76
3 1 9 11.78 12.16 1.43
3 2 9 20.37 19.73 1.64
3 3 9 13.56 14.19 1.52
3 4 9 102.30 103.75 3.43
3 5 9 0.06 0.15 0.47
3 6 9 8.33 8.23 0.67
3 7 9 8.43 9.18 0.76
3 8 9 45.78 44.01 1.56
3 9 9 6.48 6.41 0.65
3 10 9 28.51 28.45 1.32
3 11 9 4.02 4.33 0.60
3 12 9 4.29 5.03 0.63
3 13 9 1.69 1.57 0.54
3 14 9 29.22 31.71 1.38
3 15 9 6.86 6.53 0.62
3 16 9 10.09 9.18 0.67
3 17 9 22.30 22.17 1.10
3 0 10 0.99 0.87 1.18
3 1 10 55.52 58.40 2.65
3 2 10 27.89 28.26 2.03
3 3 10 81.15 83.93 3.23
3 4 10 12.85 12.16 1.61
3 5 10 6.81 7.28 1.44
3 6 10 23.23 23.75 1.27
3 7 10 10.41 11.91 0.90
3 8 10 7.85 7.38 0.69
3 9 10 34.80 33.97 1.48
3 10 10 7.86 7.73 0.85
3 11 10 5.02 4.66 0.62
3 12 10 0.79 1.14 0.52
3 13 10 20.85 19.40 1.24
3 14 10 17.71 17.27 1.15
3 0 11 1.73 1.26 1.36
3 1 11 10.84 11.17 1.70
3 2 11 14.91 15.42 1.76
3 3 11 34.59 35.46 2.32
3 4 11 16.75 17.24 1.90
3 5 11 15.80 15.93 1.78
3 6 11 12.48 12.35 1.73
3 7 11 22.45 22.96 1.31
3 8 11 6.06 6.64 0.82
3 9 11 11.46 10.95 0.85
3 10 11 8.85 9.15 0.88
3 11 11 10.87 9.57 3.00
3 0 12 7.09 5.62 1.70
3 1 12 6.69 7.44 1.70
3 2 12 3.31 3.33 1.56
3 3 12 1.66 0.79 1.56
3 4 12 0.81 1.02 1.49
4 0 0 394.85 399.50 3.96
4 1 0 394.95 393.53 3.95
4 2 0 41.83 41.01 0.71
4 3 0 2.22 1.79 0.32
4 4 0 36.99 37.66 0.71
4 5 0 16.78 15.70 0.51
4 6 0 134.34 134.07 1.66
4 7 0 90.32 89.70 1.29
4 8 0 142.19 134.86 1.73
4 9 0 136.74 132.59 1.75
4 10 0 70.93 70.37 1.22
4 11 0 12.99 12.89 0.63
4 12 0 250.51 244.78 3.02
4 13 0 68.15 70.47 1.33
4 14 0 3.44 2.87 0.37
4 15 0 12.47 12.87 0.73
4 16 0 91.39 92.18 1.72
4 17 0 1.00 1.21 0.35
4 18 0 2.05 2.08 0.40
4 19 0 9.01 7.38 0.67
4 20 0 0.47 0.28 0.38
4 21 0 7.25 8.14 0.64
4 22 0 0.00 0.04 0.42
4 23 0 4.28 4.87 0.52
4 24 0 22.02 22.24 1.11
4 0 1 1.65 1.49 0.30
4 1 1 149.89 151.29 1.73
4 2 1 35.03 35.25 0.67
4 3 1 154.12 153.39 1.78
4 4 1 14.04 12.35 0.47
4 5 1 62.74 61.11 0.97
4 6 1 44.81 44.28 0.84
4 7 1 255.31 249.89 2.78
4 8 1 44.63 43.75 0.88
4 9 1 4.05 4.33 0.41
4 10 1 35.62 34.86 0.84
4 11 1 275.21 271.23 3.16
4 12 1 68.69 68.99 1.30
4 13 1 46.00 43.73 1.07
4 14 1 46.48 47.00 1.15
4 15 1 46.56 45.83 1.18
4 16 1 54.42 53.41 1.31
4 17 1 17.87 17.36 0.88
4 18 1 32.15 31.57 1.09
4 19 1 41.12 43.39 1.30
4 20 1 32.22 33.27 1.20
4 21 1 8.06 7.87 0.71
4 22 1 17.85 14.55 0.98
4 23 1 2.43 2.23 0.46
4 24 1 19.93 19.96 1.07
4 25 1 5.01 5.32 0.59
4 0 2 11.23 10.93 0.45
4 1 2 270.06 269.05 2.88
4 2 2 10.80 9.86 0.45
4 3 2 76.80 76.50 1.11
4 4 2 200.51 203.58 2.28
4 5 2 142.67 138.24 1.74
4 6 2 32.16 32.92 0.74
4 7 2 187.93 180.27 2.18
4 8 2 165.25 164.37 2.04
4 9 2 5.28 5.74 0.46
4 10 2 41.05 41.96 0.94
4 11 2 19.24 19.04 0.70
4 12 2 47.48 47.15 1.08
4 13 2 0.04 0.13 0.31
4 14 2 14.06 14.68 0.75
4 15 2 15.56 15.32 0.79
4 16 2 18.41 16.85 0.85
4 17 2 20.73 19.71 0.93
4 18 2 6.18 6.23 0.55
4 19 2 10.83 11.40 0.84
4 20 2 7.74 8.59 0.63
4 21 2 8.13 9.69 0.84
4 22 2 8.71 9.89 0.68
4 23 2 18.51 18.05 1.05
4 24 2 1.81 1.65 0.43
4 0 3 4.83 4.77 0.40
4 1 3 230.35 228.64 2.52
4 2 3 41.27 39.12 0.79
4 3 3 478.54 472.22 4.77
4 4 3 99.55 96.81 1.36
4 5 3 113.83 110.40 1.51
4 6 3 5.14 5.52 0.44
4 7 3 61.43 61.55 1.10
4 8 3 90.96 88.69 1.41
4 9 3 32.19 32.56 0.85
4 10 3 17.91 17.23 0.69
4 11 3 30.99 30.23 0.88
4 12 3 42.46 42.82 1.08
4 13 3 12.76 12.54 0.71
4 14 3 24.20 22.92 0.90
4 15 3 75.53 74.99 1.55
4 16 3 27.67 27.84 1.03
4 17 3 1.54 0.97 0.37
4 18 3 21.12 22.01 1.01
4 19 3 33.28 35.68 1.22
4 20 3 13.23 13.44 0.89
4 21 3 34.40 34.38 1.28
4 22 3 27.63 25.90 1.19
4 23 3 1.07 1.01 0.41
4 24 3 15.51 14.20 0.98
4 0 4 76.86 78.69 1.21
4 1 4 127.23 126.26 1.66
4 2 4 35.88 34.73 0.80
4 3 4 99.34 98.48 1.43
4 4 4 34.60 35.74 0.83
4 5 4 88.13 88.90 1.38
4 6 4 57.18 57.09 1.09
4 7 4 44.60 43.75 0.97
4 8 4 8.61 9.09 0.55
4 9 4 2.29 1.47 0.46
4 10 4 35.25 36.75 0.97
4 11 4 23.44 25.01 0.86
4 12 4 70.64 70.24 1.42
4 13 4 26.21 26.57 0.94
4 14 4 8.57 9.36 0.65
4 15 4 43.54 40.77 1.22
4 16 4 55.42 54.91 1.42
4 17 4 62.44 60.65 1.55
4 18 4 1.87 1.61 0.41
4 19 4 9.33 8.66 0.65
4 20 4 23.29 22.94 1.11
4 21 4 19.36 20.49 1.07
4 22 4 1.97 2.13 0.48
4 23 4 65.14 65.14 1.68
4 0 5 29.76 28.43 0.79
4 1 5 22.76 23.44 0.73
4 2 5 6.25 6.31 0.50
4 3 5 171.14 166.86 2.15
4 4 5 29.12 29.12 0.81
4 5 5 86.28 86.22 1.44
4 6 5 13.68 14.03 0.64
4 7 5 35.51 35.86 0.96
4 8 5 47.62 49.11 1.12
4 9 5 47.55 45.74 1.13
4 10 5 24.86 27.66 0.90
4 11 5 9.09 10.07 0.68
4 12 5 19.91 19.68 0.89
4 13 5 6.34 6.85 0.60
4 14 5 9.00 8.66 0.65
4 15 5 2.19 1.99 0.40
4 16 5 20.93 21.59 1.01
4 17 5 9.64 10.55 0.82
4 18 5 1.85 2.35 0.45
4 19 5 5.71 5.55 0.53
4 20 5 29.34 29.58 1.22
4 21 5 1.57 2.27 0.45
4 22 5 1.05 1.11 0.41
4 0 6 0.45 0.30 0.44
4 1 6 91.17 90.09 1.53
4 2 6 14.48 15.60 0.70
4 3 6 27.53 26.21 0.86
4 4 6 12.61 12.08 0.68
4 5 6 142.49 140.58 2.05
4 6 6 42.45 42.05 1.09
4 7 6 43.56 41.16 1.11
4 8 6 57.57 55.22 1.30
4 9 6 142.46 138.25 2.16
4 10 6 28.46 26.91 0.99
4 11 6 35.68 37.22 1.12
4 12 6 62.77 64.37 1.50
4 13 6 50.22 50.23 1.35
4 14 6 12.92 12.73 0.84
4 15 6 55.14 55.67 1.49
4 16 6 17.34 18.62 0.99
4 17 6 42.11 43.14 1.38
4 18 6 26.41 27.09 1.16
4 19 6 37.34 37.76 1.32
4 20 6 1.10 1.89 0.44
4 21 6 23.90 22.91 1.13
4 0 7 142.18 140.88 2.14
4 1 7 10.78 9.61 0.73
4 2 7 13.61 13.08 0.85
4 3 7 11.99 12.34 0.83
4 4 7 66.56 66.46 1.61
4 5 7 15.86 16.71 0.92
4 6 7 20.28 20.53 0.88
4 7 7 27.61 26.65 0.98
4 8 7 54.49 52.62 1.34
4 9 7 6.46 6.35 0.60
4 10 7 43.44 44.76 1.26
4 11 7 52.45 53.10 1.41
4 12 7 37.71 40.79 1.26
4 13 7 10.81 10.72 0.75
4 14 7 31.61 31.20 1.19
4 15 7 1.46 2.17 0.44
4 16 7 2.98 3.43 0.47
4 17 7 10.21 9.59 0.79
4 18 7 6.35 5.81 0.54
4 19 7 14.58 13.17 0.93
4 20 7 1.41 1.99 0.44
4 0 8 42.41 45.16 2.13
4 1 8 19.64 20.01 1.26
4 2 8 14.03 14.00 0.93
4 3 8 12.33 12.04 0.91
4 4 8 28.49 29.75 1.21
4 5 8 4.46 4.50 0.55
4 6 8 10.07 9.21 0.78
4 7 8 34.68 33.22 1.32
4 8 8 4.00 3.81 0.55
4 9 8 93.94 90.88 2.16
4 10 8 19.96 19.54 1.01
4 11 8 9.98 9.02 0.75
4 12 8 0.36 0.87 0.40
4 13 8 54.70 53.58 1.54
4 14 8 35.14 34.78 1.29
4 15 8 1.92 2.28 0.45
4 16 8 11.38 10.00 0.80
4 17 8 0.02 0.06 0.40
4 18 8 16.46 16.58 1.01
4 0 9 19.30 19.62 1.69
4 1 9 12.77 13.98 1.52
4 2 9 12.77 13.56 1.49
4 3 9 23.87 24.66 1.22
4 4 9 57.48 60.49 1.74
4 5 9 14.25 14.17 1.03
4 6 9 39.13 36.92 1.48
4 7 9 5.02 5.71 0.64
4 8 9 84.66 86.93 2.16
4 9 9 16.08 17.37 1.13
4 10 9 18.43 20.31 1.17
4 11 9 0.14 0.36 0.53
4 12 9 24.40 24.30 1.32
4 13 9 9.15 9.48 0.78
4 14 9 10.24 12.01 0.92
4 15 9 28.12 27.07 1.18
4 16 9 1.42 2.50 0.46
4 1 10 82.46 84.69 3.29
4 2 10 14.60 14.49 1.67
4 3 10 4.12 3.17 1.31
4 4 10 31.24 30.86 1.39
4 5 10 61.64 58.92 1.86
4 6 10 29.33 28.70 1.39
4 7 10 16.94 15.90 1.13
4 8 10 14.60 15.81 1.14
4 9 10 1.45 0.79 0.52
4 10 10 14.98 15.38 1.13
4 11 10 6.76 7.21 0.69
4 12 10 1.45 1.65 0.55
4 13 10 9.97 8.86 0.73
4 0 11 29.58 28.43 2.18
4 1 11 1.81 1.65 1.36
4 2 11 3.21 3.24 1.37
4 3 11 10.03 9.20 1.60
4 4 11 35.38 33.68 2.30
4 5 11 13.18 13.40 1.37
4 6 11 0.38 0.51 0.53
4 7 11 5.82 6.89 0.69
4 8 11 22.68 21.00 1.30
4 9 11 8.91 10.04 0.88
5 1 0 41.70 40.95 0.79
5 2 0 44.45 44.50 0.85
5 3 0 242.34 235.59 2.62
5 4 0 65.73 62.22 1.04
5 5 0 74.75 74.51 1.17
5 6 0 0.02 0.11 0.33
5 7 0 12.49 12.02 0.55
5 8 0 16.53 16.67 0.63
5 9 0 26.54 26.08 0.77
5 10 0 38.91 39.33 0.95
5 11 0 36.24 37.64 0.97
5 12 0 1.52 1.65 0.49
5 13 0 12.79 12.47 0.71
5 14 0 53.06 53.67 1.28
5 15 0 16.29 15.71 0.84
5 16 0 4.73 4.67 0.44
5 17 0 11.59 10.72 0.71
5 18 0 6.37 6.41 0.65
5 19 0 0.00 0.15 0.37
5 20 0 0.13 0.45 0.39
5 21 0 1.11 0.94 0.41
5 22 0 8.72 8.10 0.65
5 24 0 3.36 2.10 0.45
5 0 1 5.59 6.08 0.42
5 1 1 137.80 136.34 1.69
5 2 1 95.92 92.75 1.31
5 3 1 398.57 389.18 3.99
5 4 1 5.10 5.41 0.41
5 5 1 38.01 36.39 0.79
5 6 1 75.60 72.54 1.19
5 7 1 160.17 157.45 2.00
5 8 1 2.58 3.26 0.42
5 9 1 60.16 59.55 1.15
5 10 1 12.55 12.98 0.63
5 11 1 67.57 69.82 1.31
5 12 1 22.54 22.20 0.83
5 13 1 21.94 19.39 0.85
5 14 1 16.36 16.52 0.80
5 15 1 221.31 222.41 2.98
5 16 1 60.87 62.66 1.47
5 17 1 4.31 4.35 0.46
5 18 1 8.34 7.87 0.70
5 19 1 53.82 54.75 1.52
5 20 1 52.06 52.79 1.49
5 21 1 3.95 3.59 0.49
5 22 1 0.76 0.92 0.41
5 23 1 1.69 1.92 0.44
5 24 1 13.76 14.95 0.96
5 0 2 337.64 337.61 3.58
5 1 2 177.59 172.87 2.09
5 2 2 0.48 0.58 0.34
5 3 2 260.66 257.53 2.90
5 4 2 88.69 87.56 1.32
5 5 2 43.85 43.49 0.90
5 6 2 7.28 6.73 0.47
5 7 2 14.54 13.20 0.59
5 8 2 30.73 29.76 0.82
5 9 2 39.32 38.23 0.94
5 10 2 0.63 1.43 0.45
5 11 2 16.94 16.61 0.74
5 12 2 129.36 127.02 1.97
5 13 2 0.45 0.49 0.34
5 14 2 7.23 7.71 0.68
5 15 2 3.44 3.14 0.40
5 16 2 60.79 61.88 1.49
5 17 2 15.07 15.03 0.88
5 18 2 11.10 11.80 0.83
5 19 2 31.02 31.00 1.16
5 20 2 2.12 2.21 0.45
5 21 2 42.09 39.92 1.36
5 22 2 1.00 1.81 0.44
5 23 2 6.13 5.47 0.59
5 24 2 6.63 7.52 0.92
5 0 3 32.58 31.77 0.78
5 1 3 206.11 202.89 2.41
5 2 3 24.66 24.99 0.70
5 3 3 9.76 9.77 0.52
5 4 3 1.43 1.38 0.39
5 5 3 70.39 70.12 1.21
5 6 3 35.00 35.54 0.87
5 7 3 66.77 65.46 1.22
5 8 3 18.48 19.00 0.70
5 9 3 9.22 9.26 0.60
5 10 3 45.95 44.19 1.08
5 11 3 27.82 26.46 0.90
5 12 3 28.81 28.05 0.95
5 13 3 19.28 19.55 0.87
5 14 3 48.02 48.08 1.25
5 15 3 3.36 3.80 0.43
5 16 3 51.92 51.97 1.41
5 17 3 23.70 24.26 1.04
5 18 3 24.41 24.48 1.08
5 19 3 3.84 4.52 0.50
5 20 3 56.22 57.78 1.60
5 21 3 8.09 8.44 0.67
5 22 3 4.48 4.91 0.52
5 23 3 9.28 8.85 0.65
5 0 4 0.09 0.29 0.38
5 1 4 73.99 71.40 1.23
5 2 4 43.80 44.59 0.97
5 3 4 30.89 28.92 0.82
5 4 4 16.85 17.65 0.68
5 5 4 7.35 6.38 0.52
5 6 4 28.46 29.00 0.85
5 7 4 30.78 30.75 0.89
5 8 4 91.88 91.37 1.56
5 9 4 1.89 2.73 0.39
5 10 4 118.18 114.37 1.87
5 11 4 35.64 35.36 1.06
5 12 4 85.63 87.54 1.66
5 13 4 3.58 4.49 0.43
5 14 4 83.47 87.96 1.76
5 15 4 20.03 21.13 0.99
5 16 4 20.97 22.67 1.02
5 17 4 9.34 8.43 0.70
5 18 4 24.58 26.07 1.12
5 19 4 75.50 77.36 1.83
5 20 4 0.43 0.06 0.39
5 21 4 44.17 45.12 1.44
5 22 4 13.62 11.99 0.96
5 0 5 8.04 7.21 0.57
5 1 5 194.48 190.10 2.43
5 2 5 32.95 32.51 0.90
5 3 5 15.80 16.43 0.69
5 4 5 74.85 74.48 1.39
5 5 5 61.56 60.80 1.27
5 6 5 19.07 19.01 0.80
5 7 5 35.64 35.23 0.99
5 8 5 53.49 51.29 1.23
5 9 5 12.10 11.15 0.71
5 10 5 20.02 19.34 0.85
5 11 5 20.26 20.83 0.91
5 12 5 0.42 0.99 0.35
5 13 5 18.30 18.14 0.92
5 14 5 42.01 43.17 1.27
5 15 5 1.42 1.35 0.40
5 16 5 18.47 19.12 0.97
5 17 5 3.04 3.76 0.48
5 18 5 29.44 30.16 1.20
5 19 5 2.83 3.22 0.49
5 20 5 12.96 12.18 0.95
5 21 5 10.09 9.00 0.68
5 0 6 49.37 48.36 1.18
5 1 6 47.60 46.40 1.14
5 2 6 12.61 11.32 0.71
5 3 6 56.43 55.09 1.26
5 4 6 53.67 50.81 1.23
5 5 6 83.53 81.95 1.58
5 6 6 12.99 13.71 0.75
5 7 6 107.48 106.92 1.87
5 8 6 22.89 22.43 0.93
5 9 6 21.54 21.50 0.90
5 10 6 68.89 70.44 1.55
5 11 6 79.53 81.77 1.71
5 12 6 0.45 0.52 0.36
5 13 6 67.79 68.68 1.63
5 14 6 55.69 55.06 1.49
5 15 6 13.68 15.60 0.93
5 16 6 5.03 5.44 0.52
5 17 6 54.40 53.91 1.56
5 18 6 7.93 7.40 0.65
5 19 6 5.23 5.34 0.53
5 20 6 0.01 0.01 0.40
5 0 7 1.15 1.52 0.38
5 1 7 30.14 30.53 1.02
5 2 7 17.14 17.08 0.87
5 3 7 4.18 4.10 0.44
5 4 7 112.70 109.84 1.93
5 5 7 10.22 10.57 0.69
5 6 7 19.93 21.45 0.93
5 7 7 9.29 9.92 0.76
5 8 7 102.77 102.30 1.93
5 9 7 10.48 11.65 0.78
5 10 7 2.12 2.05 0.42
5 11 7 4.55 4.36 0.47
5 12 7 14.27 13.54 0.81
5 13 7 13.90 16.56 0.94
5 14 7 5.58 6.54 0.55
5 15 7 18.19 18.69 1.02
5 16 7 8.69 8.02 0.75
5 17 7 4.19 5.01 0.52
5 18 7 2.56 3.00 0.47
5 0 8 38.05 37.40 1.19
5 1 8 48.74 48.77 1.34
5 2 8 3.14 3.32 0.44
5 3 8 0.50 0.70 0.36
5 4 8 20.71 19.91 0.98
5 5 8 144.82 143.18 2.38
5 6 8 0.54 1.21 0.81
5 7 8 5.20 5.37 0.50
5 8 8 2.67 3.01 0.45
5 9 8 24.87 24.66 1.08
5 10 8 2.09 2.11 0.44
5 11 8 11.26 12.98 0.90
5 12 8 8.78 8.25 0.65
5 13 8 32.92 33.15 1.29
5 14 8 8.72 8.33 0.66
5 15 8 8.48 9.00 0.66
5 16 8 11.02 12.20 0.92
5 17 8 60.01 60.15 1.62
5 0 9 0.10 0.70 0.81
5 1 9 31.40 30.70 1.16
5 2 9 36.16 36.23 1.45
5 3 9 6.87 5.61 0.63
5 4 9 5.21 6.35 0.65
5 5 9 15.52 14.49 1.08
5 6 9 27.95 27.84 1.31
5 7 9 9.57 9.73 0.85
5 8 9 0.67 1.13 0.52
5 9 9 0.68 1.35 0.42
5 10 9 21.34 21.78 1.09
5 11 9 15.52 15.85 1.01
5 12 9 0.89 1.75 0.44
5 13 9 8.67 8.96 0.67
5 14 9 6.79 6.94 0.56
5 15 9 2.02 2.68 0.46
5 0 10 77.02 76.58 3.19
5 1 10 5.40 5.32 0.92
5 2 10 2.57 2.90 0.58
5 3 10 51.37 52.20 1.75
5 4 10 25.21 25.10 1.31
5 5 10 32.16 30.64 1.48
5 6 10 5.91 6.75 0.69
5 7 10 18.55 18.22 1.20
5 8 10 6.30 7.13 0.69
5 9 10 34.41 33.40 1.45
5 10 10 0.63 0.88 0.54
5 11 10 1.22 2.07 0.55
5 12 10 5.48 6.00 0.54
5 0 11 5.42 3.81 1.55
5 1 11 25.29 24.31 2.04
5 2 11 11.69 12.54 1.65
5 3 11 18.08 16.71 1.19
5 4 11 12.56 11.22 0.93
5 5 11 0.06 0.06 0.52
5 6 11 39.92 40.57 1.56
5 7 11 2.08 2.47 0.58
6 0 0 139.46 136.84 1.79
6 1 0 67.18 67.49 1.14
6 2 0 4.85 4.93 0.45
6 3 0 33.52 32.23 0.81
6 4 0 9.27 10.11 0.52
6 5 0 80.70 77.81 1.31
6 6 0 71.62 71.78 1.27
6 7 0 89.49 85.86 1.44
6 8 0 61.43 59.99 1.19
6 9 0 0.06 0.23 0.44
6 10 0 92.13 89.48 1.59
6 11 0 0.08 0.26 0.32
6 12 0 65.23 65.19 1.38
6 13 0 21.03 21.83 0.91
6 14 0 9.02 9.40 0.65
6 15 0 27.01 28.95 1.04
6 16 0 6.92 7.42 0.65
6 17 0 8.36 9.09 0.70
6 18 0 22.57 21.59 1.05
6 19 0 6.06 7.09 0.70
6 21 0 2.51 2.31 0.45
6 22 0 24.71 23.96 1.12
6 23 0 0.12 0.69 0.41
6 0 1 42.62 40.23 0.89
6 1 1 122.75 120.61 1.66
6 2 1 88.20 87.16 1.36
6 3 1 78.48 77.46 1.28
6 4 1 88.47 89.08 1.41
6 5 1 108.31 106.36 1.59
6 6 1 9.88 9.64 0.55
6 7 1 61.94 62.08 1.20
6 8 1 54.20 53.73 1.14
6 9 1 1.67 1.49 0.48
6 10 1 1.09 1.48 0.34
6 11 1 27.90 27.12 0.92
6 12 1 12.76 12.99 0.77
6 13 1 122.84 121.62 2.02
6 14 1 39.84 41.84 1.20
6 15 1 18.65 18.87 0.91
6 16 1 11.14 11.94 0.80
6 17 1 72.55 73.12 1.68
6 18 1 65.09 67.47 1.65
6 19 1 17.93 18.84 1.01
6 20 1 12.33 13.40 0.93
6 21 1 8.98 8.18 0.66
6 22 1 23.48 22.19 1.11
6 23 1 10.57 9.49 0.88
6 0 2 18.92 19.53 0.66
6 1 2 116.04 115.91 1.65
6 2 2 181.97 177.11 2.24
6 3 2 2.99 3.37 0.44
6 4 2 0.97 0.88 0.41
6 5 2 49.18 48.12 1.04
6 6 2 8.81 9.65 0.57
6 7 2 19.10 18.24 0.73
6 8 2 48.24 47.31 1.10
6 9 2 6.61 5.54 0.58
6 10 2 110.67 108.09 1.79
6 11 2 3.30 3.76 0.41
6 12 2 30.76 30.99 1.04
6 13 2 10.25 10.94 0.68
6 14 2 94.76 92.67 1.81
6 15 2 1.24 1.03 0.37
6 16 2 8.44 7.09 0.59
6 17 2 14.44 14.49 0.90
6 18 2 7.07 7.58 0.62
6 19 2 6.44 7.04 0.61
6 20 2 1.37 1.86 0.44
6 21 2 9.79 8.88 0.78
6 22 2 5.78 6.32 0.55
6 23 2 11.94 13.65 1.57
6 0 3 11.87 12.48 0.61
6 1 3 100.60 100.89 1.56
6 2 3 17.84 16.82 0.69
6 3 3 205.20 202.69 2.51
6 4 3 67.85 67.62 1.26
6 5 3 4.40 4.61 0.52
6 6 3 24.13 24.78 0.82
6 7 3 57.39 58.28 1.22
6 8 3 24.38 23.16 0.84
6 9 3 26.87 25.71 0.90
6 10 3 0.81 1.31 0.36
6 11 3 6.77 6.92 0.52
6 12 3 22.37 20.99 0.91
6 13 3 4.25 4.44 0.44
6 14 3 47.66 48.65 1.35
6 15 3 32.25 32.69 1.15
6 16 3 30.48 28.72 1.13
6 17 3 12.46 12.96 0.89
6 18 3 70.21 70.45 1.73
6 19 3 46.99 47.58 1.49
6 20 3 3.64 3.05 0.48
6 21 3 21.41 21.19 1.12
6 22 3 29.76 29.28 1.22
6 0 4 0.64 1.07 0.44
6 1 4 97.60 95.14 1.58
6 2 4 20.93 21.26 0.77
6 3 4 57.16 57.47 1.20
6 4 4 2.03 0.93 0.50
6 5 4 38.60 37.26 1.02
6 6 4 69.26 67.77 1.37
6 7 4 4.95 4.99 0.42
6 8 4 17.74 17.10 0.79
6 9 4 41.78 40.45 1.13
6 10 4 49.28 48.88 1.27
6 11 4 2.29 2.52 0.39
6 12 4 28.65 27.66 1.03
6 13 4 3.93 4.73 0.46
6 14 4 41.21 40.16 1.27
6 15 4 4.24 3.86 0.47
6 16 4 30.86 32.31 1.19
6 17 4 81.75 81.27 1.84
6 18 4 10.09 10.00 0.80
6 19 4 32.21 31.78 1.27
6 20 4 12.30 12.51 0.93
6 21 4 56.28 55.14 1.57
6 0 5 15.62 14.46 0.76
6 1 5 66.62 65.78 1.35
6 2 5 18.78 19.90 0.82
6 3 5 109.67 107.29 1.79
6 4 5 20.54 19.32 0.83
6 5 5 4.21 4.23 0.42
6 6 5 43.20 44.34 1.16
6 7 5 11.48 10.27 0.71
6 8 5 0.14 0.26 0.37
6 9 5 34.39 34.12 1.11
6 10 5 2.11 2.32 0.39
6 11 5 20.78 19.56 0.93
6 12 5 23.55 23.44 1.01
6 13 5 8.80 9.64 0.64
6 14 5 21.44 22.90 1.06
6 15 5 2.19 1.93 0.43
6 16 5 16.71 17.03 1.01
6 17 5 1.61 1.91 0.44
6 18 5 18.12 17.95 1.02
6 19 5 6.19 6.08 0.55
6 20 5 0.28 0.09 0.39
6 0 6 53.66 51.49 1.27
6 1 6 102.14 102.30 1.80
6 2 6 75.04 73.22 1.53
6 3 6 57.51 56.56 1.35
6 4 6 19.12 19.88 0.89
6 5 6 80.51 80.56 1.64
6 6 6 71.30 74.77 1.59
6 7 6 6.92 6.41 0.49
6 8 6 11.97 10.96 0.79
6 9 6 75.95 76.89 1.69
6 10 6 13.35 12.87 0.87
6 11 6 34.49 33.58 1.19
6 12 6 40.09 40.99 1.29
6 13 6 35.28 35.17 1.26
6 14 6 13.92 13.33 0.94
6 15 6 41.99 44.06 1.39
6 16 6 26.57 29.17 1.19
6 17 6 23.63 23.07 1.12
6 18 6 8.36 8.74 0.60
6 19 6 14.48 14.49 0.95
6 0 7 17.38 17.93 0.88
6 1 7 1.83 2.28 0.40
6 2 7 50.25 50.55 1.35
6 3 7 12.38 11.96 0.81
6 4 7 7.70 8.27 0.66
6 5 7 20.83 20.95 0.94
6 6 7 97.12 99.81 1.93
6 7 7 1.58 2.35 0.42
6 8 7 18.67 19.26 0.95
6 9 7 5.33 5.15 0.55
6 10 7 58.22 58.71 1.54
6 11 7 5.16 5.19 0.51
6 12 7 17.05 17.72 1.02
6 13 7 17.03 15.73 0.99
6 14 7 12.64 14.00 0.96
6 15 7 3.08 3.56 0.49
6 16 7 0.07 0.09 0.40
6 17 7 10.92 12.06 0.88
6 18 7 6.98 7.18 0.56
6 0 8 27.64 28.80 1.11
6 1 8 1.01 1.26 0.40
6 2 8 13.74 15.00 0.88
6 3 8 50.35 50.10 1.41
6 4 8 8.38 7.90 0.70
6 5 8 3.27 3.46 0.46
6 6 8 12.10 13.39 0.90
6 7 8 51.61 54.00 1.49
6 8 8 0.28 0.74 0.40
6 9 8 2.71 3.19 0.47
6 10 8 6.71 7.95 0.67
6 11 8 18.87 17.91 1.05
6 12 8 1.48 2.45 0.46
6 13 8 10.47 10.63 0.75
6 14 8 15.45 15.52 0.99
6 15 8 40.85 41.96 1.39
6 16 8 22.54 21.50 1.10
6 0 9 37.67 39.71 1.33
6 1 9 1.03 1.13 0.41
6 2 9 11.27 11.63 0.88
6 3 9 12.53 11.40 0.83
6 4 9 9.61 9.13 0.77
6 5 9 2.54 2.76 0.46
6 6 9 11.44 13.30 0.92
6 7 9 6.69 7.15 0.57
6 8 9 27.87 30.61 1.20
6 9 9 5.21 5.92 0.55
6 10 9 42.33 42.87 1.42
6 11 9 5.91 6.68 0.62
6 12 9 35.13 37.07 1.33
6 13 9 14.52 14.20 0.96
6 0 10 3.83 5.02 0.53
6 1 10 41.36 44.25 1.42
6 2 10 45.88 46.62 1.47
6 3 10 1.26 1.64 0.46
6 4 10 5.89 7.15 0.57
6 5 10 50.69 52.55 1.54
6 6 10 8.22 8.72 0.67
6 7 10 21.70 22.98 1.14
6 8 10 0.94 1.60 0.44
6 9 10 3.96 4.62 0.51
6 0 11 6.32 7.57 0.64
6 1 11 29.14 30.15 1.41
6 2 11 3.08 4.37 0.61
7 2 0 73.43 72.73 1.32
7 3 0 13.78 13.91 0.64
7 4 0 3.97 3.88 0.51
7 5 0 55.43 53.51 1.18
7 6 0 22.50 21.48 0.81
7 7 0 2.35 2.46 0.36
7 8 0 34.75 35.29 1.01
7 9 0 44.76 43.71 1.14
7 10 0 103.08 99.76 1.78
7 11 0 33.21 33.31 1.07
7 12 0 24.39 24.72 0.96
7 13 0 0.08 0.08 0.36
7 14 0 18.03 17.72 0.90
7 15 0 16.66 15.40 0.90
7 16 0 2.97 2.53 0.44
7 17 0 12.74 11.70 0.87
7 18 0 1.62 1.25 0.42
7 19 0 3.42 3.16 0.47
7 20 0 23.09 25.28 1.13
7 21 0 18.32 18.15 1.04
7 22 0 1.13 1.46 0.45
7 0 1 225.56 222.79 2.75
7 1 1 58.70 57.40 1.16
7 2 1 17.07 16.18 0.69
7 3 1 40.94 42.20 1.01
7 4 1 70.13 71.18 1.33
7 5 1 73.02 74.18 1.38
7 6 1 39.59 40.55 1.04
7 7 1 23.37 23.23 0.84
7 8 1 0.86 1.16 0.35
7 9 1 103.14 101.92 1.78
7 10 1 19.91 19.37 0.86
7 11 1 19.07 18.49 0.88
7 12 1 0.30 0.52 0.34
7 13 1 36.65 37.59 1.18
7 14 1 20.83 18.38 0.97
7 15 1 11.79 10.91 0.80
7 16 1 18.27 17.62 0.98
7 17 1 36.85 36.55 1.28
7 18 1 42.08 43.53 1.40
7 19 1 27.75 26.76 1.18
7 20 1 11.33 11.37 0.92
7 21 1 26.75 25.62 1.17
7 22 1 34.30 34.15 1.30
7 0 2 12.28 11.68 0.64
7 1 2 2.12 2.08 0.49
7 2 2 38.42 39.41 1.00
7 3 2 29.15 29.56 0.88
7 4 2 13.69 12.84 0.68
7 5 2 49.60 51.37 1.16
7 6 2 213.91 212.06 2.74
7 7 2 7.65 7.19 0.51
7 8 2 17.94 17.76 0.82
7 9 2 25.51 23.93 0.95
7 10 2 147.46 144.58 2.25
7 11 2 10.83 10.83 0.67
7 12 2 58.96 59.25 1.44
7 13 2 5.78 5.36 0.52
7 14 2 6.43 5.85 0.51
7 15 2 17.65 20.31 0.97
7 16 2 15.84 15.41 0.94
7 17 2 6.77 6.25 0.60
7 18 2 10.77 11.40 0.89
7 19 2 1.34 1.69 0.44
7 20 2 1.11 1.92 0.45
7 21 2 0.86 0.99 0.41
7 0 3 3.77 3.82 0.54
7 1 3 120.98 119.96 1.87
7 2 3 31.40 30.63 0.94
7 3 3 17.81 18.22 0.79
7 4 3 26.73 24.93 0.88
7 5 3 104.33 104.33 1.75
7 6 3 44.24 45.00 1.14
7 7 3 11.52 12.20 0.71
7 8 3 38.87 38.03 1.10
7 9 3 6.22 5.77 0.52
7 10 3 6.10 6.08 0.52
7 11 3 6.50 6.04 0.60
7 12 3 14.55 15.11 0.85
7 13 3 21.04 21.68 1.00
7 14 3 43.34 43.22 1.34
7 15 3 14.89 16.58 0.95
7 16 3 25.98 24.94 1.15
7 17 3 33.61 32.95 1.26
7 18 3 8.52 8.03 0.65
7 19 3 22.85 21.46 1.11
7 20 3 12.99 12.84 0.93
7 21 3 9.46 9.00 0.76
7 0 4 2.15 2.66 0.39
7 1 4 66.02 67.31 1.40
7 2 4 12.57 12.12 0.73
7 3 4 25.00 23.74 0.90
7 4 4 58.23 57.89 1.31
7 5 4 52.27 52.67 1.28
7 6 4 48.89 49.30 1.25
7 7 4 5.00 4.58 0.45
7 8 4 9.57 9.28 0.65
7 9 4 18.03 16.76 0.87
7 10 4 11.16 11.98 0.79
7 11 4 14.48 14.21 0.87
7 12 4 28.85 27.64 1.09
7 13 4 40.97 39.95 1.32
7 14 4 12.08 11.98 0.88
7 15 4 38.50 38.78 1.33
7 16 4 34.00 35.98 1.28
7 17 4 22.34 23.51 1.09
7 18 4 14.94 16.34 1.00
7 19 4 27.29 26.01 1.20
7 20 4 2.93 1.97 0.45
7 0 5 2.58 3.05 0.41
7 1 5 22.95 22.37 0.91
7 2 5 22.13 22.01 0.89
7 3 5 8.15 7.35 0.63
7 4 5 32.28 31.87 1.07
7 5 5 32.32 33.10 1.08
7 6 5 27.48 27.68 1.02
7 7 5 46.79 45.58 1.28
7 8 5 63.89 63.52 1.51
7 9 5 5.24 4.89 0.47
7 10 5 43.89 44.85 1.32
7 11 5 13.53 12.20 0.86
7 12 5 30.85 28.56 1.16
7 13 5 5.12 4.65 0.50
7 14 5 53.11 53.96 1.52
7 15 5 2.52 3.19 0.47
7 16 5 12.75 12.35 0.84
7 17 5 4.22 4.09 0.50
7 18 5 6.79 5.75 0.54
7 19 5 4.77 5.56 0.53
7 0 6 14.76 14.59 0.83
7 1 6 62.15 62.20 1.48
7 2 6 75.40 78.20 1.66
7 3 6 57.49 58.45 1.46
7 4 6 53.93 55.57 1.41
7 5 6 6.47 6.58 0.55
7 6 6 13.18 12.29 0.84
7 7 6 32.80 34.11 1.19
7 8 6 28.64 28.77 1.12
7 9 6 9.93 9.03 0.73
7 10 6 7.86 7.59 0.70
7 11 6 24.41 25.57 1.09
7 12 6 7.17 6.77 0.61
7 13 6 12.64 13.60 0.93
7 14 6 9.62 10.96 0.79
7 15 6 18.72 17.70 1.04
7 16 6 20.83 19.16 1.06
7 17 6 16.84 15.01 1.00
7 18 6 7.85 7.13 0.63
7 0 7 32.21 31.00 1.16
7 1 7 1.13 1.24 0.39
7 2 7 69.96 73.33 1.69
7 3 7 8.42 8.30 0.71
7 4 7 3.34 3.17 0.45
7 5 7 4.69 4.88 0.49
7 6 7 2.95 3.31 0.46
7 7 7 20.81 22.57 1.05
7 8 7 34.27 35.98 1.25
7 9 7 18.47 17.39 1.02
7 10 7 36.31 37.49 1.32
7 11 7 13.66 13.07 0.84
7 12 7 22.56 20.81 1.11
7 13 7 7.67 7.73 0.65
7 14 7 29.71 29.43 1.26
7 15 7 6.96 6.96 0.56
7 16 7 0.01 0.19 0.83
7 0 8 0.92 1.21 0.41
7 1 8 32.09 32.67 1.24
7 2 8 70.66 72.13 1.71
7 3 8 16.73 18.47 0.99
7 4 8 6.14 6.42 0.61
7 5 8 9.59 10.63 0.85
7 6 8 3.61 4.55 0.50
7 7 8 9.44 8.78 0.74
7 8 8 3.76 3.96 0.54
7 9 8 24.35 23.79 1.13
7 10 8 1.85 2.13 0.46
7 11 8 29.35 27.97 1.20
7 12 8 16.40 17.41 1.02
7 13 8 21.10 21.33 1.07
7 14 8 2.63 2.47 0.45
7 0 9 3.80 4.72 0.52
7 1 9 4.07 4.52 0.51
7 2 9 10.45 10.57 0.80
7 3 9 6.96 7.29 0.60
7 4 9 19.55 19.54 1.06
7 5 9 11.95 10.86 0.71
7 6 9 9.72 10.47 0.75
7 7 9 3.09 3.87 0.50
7 8 9 59.17 58.40 1.62
7 9 9 0.46 0.70 0.89
7 10 9 31.74 32.18 1.25
7 11 9 6.30 6.70 0.55
7 0 10 0.29 0.22 0.43
7 1 10 31.92 31.65 1.26
7 2 10 2.90 3.99 0.49
7 3 10 64.96 67.14 1.71
7 4 10 6.72 7.57 0.58
7 5 10 0.37 0.73 0.42
7 6 10 10.45 9.87 0.89
8 0 0 2.66 2.39 0.37
8 1 0 1.29 1.74 0.36
8 2 0 50.44 50.22 1.18
8 3 0 0.08 0.15 0.34
8 4 0 2.07 2.41 0.38
8 5 0 10.25 10.78 0.69
8 6 0 136.82 133.44 2.11
8 7 0 18.45 18.27 0.87
8 8 0 5.63 5.81 0.52
8 9 0 64.58 65.17 1.50
8 10 0 18.38 18.10 0.90
8 11 0 22.12 23.16 0.98
8 12 0 9.27 10.36 0.67
8 13 0 56.90 59.39 1.52
8 14 0 1.48 1.30 0.41
8 15 0 1.60 1.82 0.43
8 16 0 34.95 36.82 1.28
8 17 0 16.83 17.29 0.99
8 18 0 0.19 0.54 0.41
8 19 0 10.03 9.43 0.68
8 20 0 0.69 0.80 0.41
8 0 1 34.57 32.02 1.00
8 1 1 31.19 31.61 0.98
8 2 1 101.07 97.91 1.70
8 3 1 0.75 1.26 0.35
8 4 1 34.23 33.17 1.02
8 5 1 69.72 67.87 1.44
8 6 1 2.28 2.59 0.40
8 7 1 22.26 22.20 0.90
8 8 1 4.68 5.19 0.50
8 9 1 63.75 62.06 1.49
8 10 1 3.96 4.41 0.45
8 11 1 4.32 4.04 0.45
8 12 1 20.86 21.57 1.01
8 13 1 26.48 26.68 1.08
8 14 1 4.43 4.62 0.50
8 15 1 19.18 18.87 1.00
8 16 1 8.82 8.87 0.77
8 17 1 17.36 18.69 1.05
8 18 1 3.32 3.99 0.50
8 19 1 40.83 41.26 1.38
8 20 1 36.11 38.08 1.32
8 0 2 0.19 0.56 0.34
8 1 2 2.39 3.18 0.40
8 2 2 33.05 32.83 1.02
8 3 2 11.61 11.60 0.73
8 4 2 132.79 131.60 2.09
8 5 2 2.92 3.13 0.41
8 6 2 51.94 50.78 1.28
8 7 2 14.00 12.70 0.82
8 8 2 180.09 185.52 2.67
8 9 2 1.99 2.00 0.39
8 10 2 25.17 23.53 1.00
8 11 2 5.13 4.27 0.46
8 12 2 27.16 28.20 1.10
8 13 2 2.88 2.79 0.45
8 14 2 27.47 27.66 1.13
8 15 2 3.76 3.76 0.48
8 16 2 22.00 21.60 1.07
8 17 2 5.27 5.48 0.54
8 18 2 4.31 2.97 0.47
8 19 2 2.22 3.07 0.47
8 20 2 10.39 10.60 0.78
8 0 3 83.77 84.26 1.63
8 1 3 2.04 1.94 0.39
8 2 3 14.75 14.97 0.80
8 3 3 36.41 35.55 1.07
8 4 3 43.38 42.77 1.19
8 5 3 23.30 23.39 0.95
8 6 3 34.68 36.45 1.12
8 7 3 35.56 35.57 1.13
8 8 3 21.26 21.63 0.93
8 9 3 60.17 60.75 1.49
8 10 3 70.52 72.18 1.65
8 11 3 10.82 11.17 0.83
8 12 3 63.72 64.21 1.61
8 13 3 34.73 38.16 1.28
8 14 3 14.97 16.22 0.94
8 15 3 0.77 0.55 0.40
8 16 3 11.38 12.49 0.91
8 17 3 2.41 3.29 0.49
8 18 3 5.06 6.08 0.54
8 19 3 1.46 1.89 0.44
8 0 4 5.47 5.61 0.50
8 1 4 13.34 14.33 0.78
8 2 4 16.18 16.64 0.84
8 3 4 46.21 46.71 1.26
8 4 4 23.16 24.20 0.97
8 5 4 11.02 12.30 0.76
8 6 4 6.34 7.02 0.52
8 7 4 39.99 41.87 1.26
8 8 4 66.28 66.42 1.59
8 9 4 24.66 24.99 1.03
8 10 4 29.95 31.34 1.17
8 11 4 56.98 55.33 1.50
8 12 4 15.35 15.95 0.93
8 13 4 25.42 25.12 1.11
8 14 4 25.49 25.45 1.15
8 15 4 37.18 39.59 1.36
8 16 4 7.52 8.56 0.60
8 17 4 7.03 7.29 0.64
8 18 4 0.39 0.56 0.40
8 0 5 0.51 0.68 0.36
8 1 5 21.22 23.83 0.97
8 2 5 18.08 18.54 0.90
8 3 5 14.66 15.14 0.86
8 4 5 16.28 17.41 0.90
8 5 5 34.68 34.56 1.18
8 6 5 46.72 47.44 1.35
8 7 5 8.61 8.47 0.70
8 8 5 36.81 37.67 1.27
8 9 5 13.85 13.73 0.90
8 10 5 50.70 50.50 1.47
8 11 5 0.55 1.12 0.41
8 12 5 55.99 54.84 1.57
8 13 5 0.88 1.25 0.43
8 14 5 6.81 5.58 0.54
8 15 5 13.16 14.31 0.95
8 16 5 9.71 10.42 0.89
8 17 5 5.27 5.51 0.53
8 0 6 84.59 87.20 1.84
8 1 6 1.92 1.92 0.41
8 2 6 8.79 8.57 0.70
8 3 6 12.34 12.54 0.87
8 4 6 36.93 37.64 1.25
8 5 6 21.74 22.82 1.04
8 6 6 14.59 16.73 0.95
8 7 6 31.76 28.87 1.20
8 8 6 13.31 13.25 0.94
8 9 6 4.86 5.38 0.52
8 10 6 0.05 0.14 0.41
8 11 6 29.35 30.12 1.24
8 12 6 0.09 0.03 0.39
8 13 6 9.00 10.00 0.75
8 14 6 2.82 3.36 0.49
8 15 6 14.75 15.08 1.00
8 16 6 18.24 19.10 1.06
8 0 7 56.20 55.85 1.56
8 1 7 4.85 5.10 0.51
8 2 7 1.15 1.33 0.42
8 3 7 12.01 11.55 0.78
8 4 7 58.04 61.15 1.60
8 5 7 1.31 1.03 0.41
8 6 7 2.77 3.17 0.47
8 7 7 37.06 36.56 1.31
8 8 7 29.82 31.03 1.24
8 9 7 9.76 10.55 0.80
8 10 7 0.13 0.13 0.44
8 11 7 30.72 28.90 1.25
8 12 7 33.38 33.40 1.26
8 13 7 7.73 8.85 0.67
8 14 7 11.77 13.44 0.95
8 0 8 46.39 48.43 1.48
8 1 8 43.81 45.73 1.45
8 2 8 10.46 10.19 0.78
8 3 8 36.81 36.00 1.33
8 4 8 11.99 11.97 0.83
8 5 8 15.17 14.42 0.99
8 6 8 8.90 9.08 0.64
8 7 8 13.13 13.64 0.96
8 8 8 3.19 3.17 0.48
8 9 8 3.19 3.99 0.50
8 10 8 4.14 4.55 0.51
8 11 8 21.33 22.89 1.11
8 0 9 6.75 6.38 0.55
8 1 9 5.54 5.93 0.55
8 2 9 19.67 20.35 1.11
8 3 9 16.30 17.48 1.03
8 4 9 19.69 18.27 1.07
8 5 9 0.62 0.92 0.44
8 6 9 42.90 45.08 1.40
8 7 9 21.25 23.65 1.13
8 8 9 6.47 7.66 0.66
9 1 0 0.49 0.58 0.34
9 2 0 23.64 24.57 0.97
9 4 0 183.02 181.39 2.67
9 5 0 0.06 0.59 0.70
9 6 0 6.12 6.82 0.55
9 7 0 7.77 7.38 0.65
9 8 0 129.99 128.98 2.24
9 9 0 5.09 4.48 0.47
9 10 0 16.81 16.10 0.93
9 11 0 26.15 25.62 1.09
9 12 0 5.65 5.66 0.52
9 13 0 6.56 6.92 0.56
9 14 0 40.92 43.15 1.40
9 15 0 37.44 38.31 1.33
9 16 0 0.08 0.11 0.41
9 18 0 4.70 4.76 0.51
9 0 1 7.41 7.60 0.55
9 1 1 12.44 12.16 0.77
9 2 1 26.72 27.13 1.01
9 3 1 14.52 13.30 0.82
9 4 1 4.83 6.00 0.52
9 5 1 7.80 7.13 0.63
9 6 1 19.72 20.10 0.93
9 7 1 41.06 40.28 1.26
9 8 1 13.82 14.63 0.85
9 9 1 38.21 39.71 1.24
9 10 1 4.64 4.42 0.49
9 11 1 35.35 35.43 1.25
9 12 1 3.56 3.35 0.47
9 13 1 60.88 61.05 1.62
9 14 1 13.79 13.95 0.96
9 15 1 4.14 4.31 0.51
9 16 1 9.61 10.49 0.87
9 17 1 23.41 22.44 1.11
9 18 1 1.39 1.42 0.43
9 0 2 115.19 114.85 2.03
9 1 2 1.40 1.85 0.38
9 2 2 4.99 4.69 0.45
9 3 2 3.14 2.87 0.41
9 4 2 93.56 94.45 1.85
9 5 2 32.27 33.43 1.12
9 6 2 11.08 10.25 0.80
9 7 2 12.08 11.44 0.84
9 8 2 6.59 6.45 0.52
9 9 2 62.72 65.42 1.60
9 10 2 9.18 10.30 0.79
9 11 2 16.45 16.26 0.95
9 12 2 20.17 19.90 1.04
9 13 2 34.63 36.22 1.31
9 14 2 11.45 10.87 0.81
9 15 2 10.20 11.16 0.87
9 16 2 17.48 18.77 1.05
9 17 2 4.39 3.76 0.49
9 18 2 12.89 13.39 0.91
9 0 3 19.78 20.64 0.92
9 1 3 20.14 21.09 0.95
9 2 3 75.49 75.41 1.65
9 3 3 0.21 0.07 0.35
9 4 3 7.90 7.97 0.59
9 5 3 21.87 22.16 1.02
9 6 3 27.15 28.54 1.11
9 7 3 17.15 16.91 0.93
9 8 3 85.02 88.26 1.88
9 9 3 9.04 10.23 0.84
9 10 3 49.09 50.95 1.46
9 11 3 15.59 16.06 0.97
9 12 3 43.36 45.54 1.41
9 13 3 4.38 4.03 0.50
9 14 3 31.23 31.38 1.27
9 15 3 2.51 3.67 0.49
9 16 3 2.05 2.21 0.45
9 17 3 4.78 5.01 0.52
9 0 4 67.75 68.24 1.62
9 1 4 0.86 1.62 0.41
9 2 4 3.04 3.53 0.45
9 3 4 13.89 15.66 0.88
9 4 4 41.77 43.52 1.31
9 5 4 19.02 19.72 0.98
9 6 4 29.34 29.87 1.12
9 7 4 14.59 13.56 0.90
9 8 4 34.16 35.95 1.26
9 9 4 19.30 21.05 1.02
9 10 4 46.73 50.29 1.50
9 11 4 0.44 0.59 0.40
9 12 4 36.30 36.61 1.30
9 13 4 1.30 1.35 0.44
9 14 4 4.53 4.58 0.51
9 15 4 5.28 5.46 0.54
9 16 4 4.91 4.85 0.52
9 0 5 71.95 71.01 1.71
9 1 5 12.60 12.54 0.88
9 2 5 44.20 44.74 1.36
9 3 5 41.87 41.24 1.32
9 4 5 13.94 13.58 0.90
9 5 5 0.64 1.17 0.41
9 6 5 17.14 18.28 1.01
9 7 5 37.39 37.61 1.29
9 8 5 20.06 21.15 1.04
9 9 5 1.52 1.65 0.44
9 10 5 2.66 2.98 0.47
9 11 5 21.40 21.30 1.08
9 12 5 11.11 11.97 0.90
9 13 5 9.44 7.99 0.66
9 14 5 2.27 2.88 0.47
9 15 5 9.76 9.69 0.78
9 0 6 0.37 0.90 0.40
9 1 6 2.64 2.93 0.46
9 2 6 16.44 16.44 0.98
9 3 6 30.10 31.08 1.20
9 4 6 9.73 9.41 0.76
9 5 6 11.55 11.11 0.88
9 6 6 9.39 10.36 0.84
9 7 6 16.35 16.41 1.00
9 8 6 3.34 3.27 0.49
9 9 6 22.43 24.39 1.13
9 10 6 5.47 5.36 0.59
9 11 6 22.56 21.64 1.09
9 12 6 7.97 9.44 0.76
9 13 6 8.45 8.04 0.59
9 0 7 19.32 18.80 1.05
9 1 7 5.56 6.21 0.61
9 2 7 21.82 21.24 1.11
9 3 7 5.23 5.65 0.54
9 4 7 21.14 20.14 1.09
9 5 7 19.30 20.62 1.09
9 6 7 64.15 64.82 1.70
9 7 7 1.05 1.38 0.43
9 8 7 21.88 21.64 1.07
9 9 7 12.41 11.80 0.94
9 10 7 12.95 13.75 0.94
9 11 7 1.34 1.44 0.43
9 0 8 4.07 4.50 0.51
9 1 8 2.44 2.41 0.46
9 2 8 3.03 3.03 0.47
9 3 8 13.30 13.99 0.97
9 4 8 23.92 24.20 1.16
9 5 8 7.86 7.13 0.63
9 6 8 17.21 19.41 1.03
9 7 8 29.20 30.11 1.23
9 8 8 4.36 5.20 0.52
10 0 0 278.10 280.26 3.67
10 1 0 0.00 0.08 0.76
10 2 0 10.09 10.55 0.81
10 3 0 1.29 1.79 0.41
10 4 0 120.39 122.47 2.22
10 5 0 11.92 10.78 0.83
10 6 0 23.87 25.17 1.08
10 7 0 1.04 1.36 0.41
10 8 0 3.43 3.16 0.47
10 9 0 20.50 19.04 1.02
10 10 0 4.36 3.81 0.49
10 11 0 1.99 2.51 0.46
10 12 0 1.11 1.98 0.45
10 14 0 7.46 7.66 0.73
10 15 0 1.38 1.64 0.44
10 16 0 0.47 0.16 0.39
10 0 1 0.72 0.77 0.38
10 1 1 40.96 42.09 1.30
10 2 1 12.58 13.59 0.82
10 3 1 19.17 19.64 0.97
10 4 1 14.27 13.47 0.90
10 5 1 5.94 5.96 0.58
10 6 1 41.44 42.62 1.33
10 7 1 11.87 12.17 0.80
10 8 1 2.09 2.24 0.44
10 9 1 8.96 10.35 0.86
10 10 1 11.12 11.35 0.88
10 11 1 50.33 49.97 1.50
10 12 1 10.45 9.20 0.79
10 13 1 9.65 9.59 0.69
10 14 1 9.70 9.10 0.78
10 15 1 17.24 17.44 1.02
10 16 1 2.25 2.42 0.45
10 0 2 55.28 53.19 1.47
10 1 2 3.90 3.77 0.47
10 2 2 51.33 52.12 1.47
10 3 2 13.57 14.81 0.90
10 4 2 17.36 19.35 0.97
10 5 2 6.23 5.50 0.51
10 6 2 2.51 2.78 0.45
10 7 2 37.74 38.06 1.28
10 8 2 7.96 7.61 0.72
10 9 2 2.39 2.78 0.46
10 10 2 33.34 33.58 1.28
10 11 2 46.04 45.87 1.46
10 12 2 1.65 2.40 0.46
10 13 2 0.58 0.99 0.42
10 14 2 36.47 35.78 1.31
10 15 2 34.20 34.36 1.29
10 0 3 8.91 7.81 0.71
10 1 3 0.72 0.74 0.39
10 2 3 15.91 15.57 0.92
10 3 3 5.18 5.25 0.51
10 4 3 15.98 16.06 0.94
10 5 3 8.50 8.49 0.65
10 6 3 58.10 59.42 1.57
10 7 3 2.30 2.50 0.45
10 9 3 10.86 11.16 0.89
10 10 3 24.63 23.73 1.16
10 11 3 1.78 1.87 0.44
10 12 3 21.36 22.62 1.09
10 13 3 28.48 28.24 1.22
10 14 3 2.11 2.60 0.46
10 15 3 4.22 2.56 0.46
10 0 4 2.93 3.30 0.47
10 1 4 8.83 9.05 0.74
10 2 4 14.68 15.22 0.92
10 3 4 19.27 18.48 1.03
10 4 4 13.91 16.07 0.95
10 5 4 35.02 33.68 1.27
10 6 4 4.76 4.03 0.49
10 7 4 40.29 40.35 1.40
10 8 4 21.60 22.83 1.12
10 9 4 14.03 16.17 0.98
10 10 4 23.34 23.62 1.14
10 11 4 20.88 21.82 1.11
10 12 4 1.12 1.59 0.44
10 13 4 0.84 0.98 0.41
10 14 4 21.18 20.45 1.07
10 0 5 17.28 18.59 1.02
10 1 5 32.56 33.66 1.26
10 2 5 33.10 31.30 1.26
10 3 5 1.15 1.32 0.43
10 4 5 23.03 23.94 1.12
10 5 5 57.84 59.04 1.64
10 6 5 18.55 20.49 1.08
10 7 5 2.60 2.27 0.46
10 8 5 12.10 12.98 0.92
10 9 5 43.89 42.90 1.44
10 10 5 12.75 13.57 0.97
10 11 5 2.24 2.23 0.46
10 12 5 11.11 9.65 0.79
10 0 6 0.09 0.18 0.42
10 1 6 9.80 9.62 0.65
10 2 6 12.13 12.09 0.94
10 3 6 0.18 0.46 0.40
10 4 6 2.06 2.05 0.45
10 5 6 3.52 4.09 0.51
10 6 6 3.55 3.28 0.48
10 7 6 13.34 13.52 0.87
10 8 6 5.98 6.49 0.55
10 9 6 7.00 6.90 0.62
10 10 6 15.33 16.16 0.98
10 0 7 3.26 3.52 0.49
10 1 7 4.86 6.01 0.54
10 2 7 89.59 88.45 1.99
10 3 7 3.53 3.81 0.49
10 4 7 9.24 9.57 0.79
10 5 7 4.73 4.80 0.51
10 6 7 38.04 38.31 1.33
10 7 7 11.73 12.13 0.93
11 1 0 0.58 0.80 0.40
11 2 0 193.57 191.04 2.98
11 3 0 10.98 10.83 0.80
11 4 0 0.86 0.68 0.40
11 5 0 0.43 0.39 0.41
11 6 0 17.22 20.53 1.07
11 7 0 60.73 60.96 1.64
11 8 0 0.46 0.93 0.42
11 9 0 1.23 1.78 0.44
11 10 0 11.38 10.81 0.82
11 11 0 55.70 57.89 1.59
11 12 0 5.28 4.65 0.51
11 13 0 11.14 10.10 0.82
11 0 1 0.04 0.32 0.39
11 1 1 32.15 31.72 1.23
11 2 1 1.53 1.65 0.44
11 3 1 10.08 8.95 0.76
11 4 1 8.26 8.42 0.65
11 5 1 27.56 27.28 1.18
11 6 1 1.68 1.70 0.44
11 7 1 27.97 29.69 1.19
11 8 1 14.98 15.71 0.99
11 9 1 2.92 2.19 0.46
11 10 1 7.30 8.31 0.66
11 11 1 5.49 5.43 0.53
11 12 1 0.77 0.89 0.41
11 13 1 14.18 14.04 0.83
11 0 2 9.02 7.85 0.72
11 1 2 9.63 10.53 0.86
11 2 2 17.57 15.16 1.00
11 3 2 22.73 21.82 1.11
11 4 2 11.13 13.48 0.91
11 5 2 1.04 1.55 0.44
11 6 2 1.92 2.02 0.45
11 7 2 20.31 20.72 1.08
11 8 2 8.87 9.81 0.78
11 9 2 2.25 2.37 0.46
11 10 2 3.33 3.33 0.49
11 11 2 21.79 22.63 1.11
11 12 2 6.89 6.24 0.60
11 0 3 16.97 16.62 0.99
11 1 3 19.42 20.28 1.04
11 2 3 9.51 9.09 0.76
11 3 3 0.94 0.63 0.41
11 4 3 29.80 28.89 1.22
11 5 3 17.51 20.05 1.04
11 6 3 17.70 19.04 1.05
11 7 3 13.58 13.13 0.95
11 8 3 16.44 16.03 1.03
11 9 3 2.73 3.27 0.47
11 10 3 3.79 3.86 0.49
11 11 3 18.65 17.01 1.04
11 0 4 7.91 7.30 0.64
11 1 4 13.98 15.19 0.98
11 2 4 28.43 28.94 1.21
11 3 4 36.17 36.98 1.33
11 4 4 7.43 7.77 0.59
11 5 4 3.49 3.41 0.48
11 6 4 15.91 17.22 0.98
11 7 4 5.59 5.30 0.54
11 8 4 1.02 1.47 0.43
11 9 4 12.90 11.40 0.82
11 10 4 4.15 3.53 0.48
11 0 5 7.74 9.38 0.69
11 1 5 15.03 15.14 1.01
11 2 5 36.38 36.58 1.33
11 3 5 23.15 23.68 1.09
11 4 5 2.29 2.52 0.46
11 5 5 3.80 3.21 0.47
11 6 5 48.17 50.28 1.54
11 7 5 11.67 12.72 0.91
11 8 5 0.06 0.27 0.41
11 0 6 20.17 19.00 1.07
11 1 6 5.19 4.99 0.52
11 2 6 0.46 0.96 0.44
11 3 6 28.74 29.02 1.20
11 4 6 6.68 7.28 0.63
12 0 0 10.13 9.33 0.69
12 1 0 13.21 14.45 0.98
12 2 0 5.36 5.58 0.60
12 3 0 26.07 25.78 1.17
12 4 0 2.19 2.42 0.46
12 5 0 18.50 18.29 1.02
12 6 0 21.93 21.26 1.07
12 7 0 7.62 8.37 0.59
12 8 0 0.56 0.62 0.41
12 9 0 37.67 37.30 1.33
12 0 1 12.26 12.85 0.92
12 1 1 4.93 5.33 0.53
12 2 1 4.72 3.96 0.50
12 3 1 24.91 23.31 1.14
12 4 1 7.77 9.20 0.71
12 5 1 38.30 35.85 1.33
12 6 1 0.21 0.54 0.41
12 7 1 21.62 23.66 1.14
12 8 1 9.32 10.48 0.88
12 0 2 0.84 1.03 0.42
12 1 2 5.40 5.34 0.53
12 2 2 50.67 49.35 1.54
12 3 2 1.21 1.59 0.44
12 4 2 9.48 8.99 0.78
12 5 2 8.20 8.05 0.65
12 6 2 16.29 15.70 1.02
12 7 2 5.08 5.09 0.52
12 8 2 5.82 5.52 0.60
12 0 3 0.21 1.11 0.87
12 1 3 16.67 18.73 1.01
12 2 3 0.36 0.85 0.42
12 3 3 20.84 21.58 1.09
12 4 3 1.14 1.93 0.44
12 5 3 6.99 7.31 0.72
12 6 3 1.06 0.93 0.41
12 0 4 12.55 14.75 0.96
12 1 4 46.01 45.77 1.44
12 2 4 7.90 9.42 0.87
12 3 4 17.29 17.80 1.03
