#------------------------------------------------------------------------------
#$Date: 2022-03-02 05:20:08 +0200 (Wed, 02 Mar 2022) $
#$Revision: 273207 $
#$URL: file:///home/coder/svn-repositories/cod/cif/1/56/64/1566444.cif $
#------------------------------------------------------------------------------
#
# This file is available in the Crystallography Open Database (COD),
# http://www.crystallography.net/. The original data for this entry
# were provided by IUCr Journals, http://journals.iucr.org/.
#
# The file may be used within the scientific community so long as
# proper attribution is given to the journal article from which the
# data were obtained.
#
data_1566444
loop_
_publ_author_name
'Ruth, Paul Niklas'
'Herbst-Irmer, Regine'
'Stalke, Dietmar'
_publ_section_title
;
 Hirshfeld atom refinement based on projector augmented wave densities
 with periodic boundary conditions
;
_journal_issue                   2
_journal_name_full               IUCrJ
_journal_page_first              286
_journal_page_last               297
_journal_paper_doi               10.1107/S2052252522001385
_journal_volume                  9
_journal_year                    2022
_chemical_absolute_configuration syn
_chemical_formula_moiety         'C3 H7 N O2'
_chemical_formula_sum            'C3 H7 N O2'
_chemical_formula_weight         89.0947
_space_group_crystal_system      orthorhombic
_space_group_IT_number           19
_space_group_name_Hall           'P 2ac 2ab'
_space_group_name_H-M_alt        'P 21 21 21'
_atom_sites_solution_hydrogens   difmap
_audit_creation_method           'xHARPY 0.1'
_cell_angle_alpha                90
_cell_angle_beta                 90
_cell_angle_gamma                90
_cell_formula_units_Z            4
_cell_length_a                   5.9279(10)
_cell_length_b                   12.2597(17)
_cell_length_c                   5.7939(9)
_cell_measurement_reflns_used    1524
_cell_measurement_temperature    23
_cell_measurement_theta_max      22.5
_cell_measurement_theta_min      15.0
_cell_volume                     421.07(11)
_computing_publication_material  'xHARPY 0.1'
_computing_structure_refinement  'xHARPY 0.1'
_computing_structure_solution    'SHELXS-2013 (Sheldrick, 2008)'
_diffrn_ambient_temperature      23
_diffrn_measured_fraction_theta_full 0.994
_diffrn_measured_fraction_theta_max 0.993
_diffrn_measurement_device_type  'P-1 four circle diffractometer'
_diffrn_measurement_method       'area detector'
_diffrn_radiation_type           MoK\a
_diffrn_radiation_wavelength     0.71073
_diffrn_reflns_av_unetI/netI     0.0243
_diffrn_reflns_Laue_measured_fraction_full 0.994
_diffrn_reflns_Laue_measured_fraction_max 0.993
_diffrn_reflns_limit_h_max       12
_diffrn_reflns_limit_h_min       0
_diffrn_reflns_limit_k_max       26
_diffrn_reflns_limit_k_min       0
_diffrn_reflns_limit_l_max       12
_diffrn_reflns_limit_l_min       0
_diffrn_reflns_number            2519
_diffrn_reflns_point_group_measured_fraction_full 0.618
_diffrn_reflns_point_group_measured_fraction_max 0.567
_diffrn_reflns_theta_full        25.242
_diffrn_reflns_theta_max         50.138
_diffrn_reflns_theta_min         3.323
_exptl_absorpt_coefficient_mu    0.117
_exptl_absorpt_correction_type   none
_exptl_crystal_colour            colorless
_exptl_crystal_density_diffrn    1.405
_exptl_crystal_density_method    'not measured'
_exptl_crystal_description       sphere
_exptl_crystal_F_000             192
_exptl_crystal_size_rad          0.18
_refine_diff_density_max         0.1649
_refine_diff_density_min         -0.1833
_refine_diff_density_rms         0.0426
_refine_ls_extinction_method     none
_refine_ls_goodness_of_fit_ref   1.078
_refine_ls_hydrogen_treatment    refall
_refine_ls_matrix_type           full
_refine_ls_number_parameters     118
_refine_ls_number_reflns         2519
_refine_ls_number_restraints     0
_refine_ls_R_factor_all          0.0202
_refine_ls_R_factor_gt           0.0183
_refine_ls_shift/su_max          0.0
_refine_ls_shift/su_mean         0.0
_refine_ls_structure_factor_coef Fsqd
_refine_ls_weighting_details     w=1/[\s^2^(Fo^2^)]
_refine_ls_weighting_scheme      sigma
_refine_ls_wR_factor_gt          0.0301
_refine_ls_wR_factor_ref         0.0303
_reflns_Friedel_coverage         0.0
_reflns_Friedel_fraction_full    0.0
_reflns_Friedel_fraction_max     0.0
_reflns_number_gt                2393
_reflns_number_total             2519
_reflns_threshold_expression     'I > 2\s(I)'
_cod_data_source_file            fc5060.cif
_cod_data_source_block           A23_xHARPy_revSCAN
_cod_database_code               1566444
loop_
_space_group_symop_operation_xyz
'x, y, z'
'-x+1/2, -y, z+1/2'
'x+1/2, -y+1/2, -z'
'-x, y+1/2, -z+1/2'
loop_
_atom_site_label
_atom_site_type_symbol
_atom_site_fract_x
_atom_site_fract_y
_atom_site_fract_z
_atom_site_U_iso_or_equiv
_atom_site_adp_type
_atom_site_occupancy
_atom_site_site_symmetry_order
O1 O 0.72672(4) 0.083794(16) 0.62436(4) 0.00663(3) Uani 1.0 1
O2 O 0.44092(4) 0.184033(16) 0.76114(4) 0.00645(3) Uani 1.0 1
N1 N 0.64718(4) 0.137524(19) 0.18302(4) 0.00527(3) Uani 1.0 1
H1 H 0.7039(11) 0.0593(5) 0.1966(13) 0.0213(18) Uani 1.0 1
H2 H 0.7791(10) 0.1904(5) 0.2085(13) 0.0186(16) Uani 1.0 1
H3 H 0.5834(11) 0.1492(5) 0.0146(12) 0.0168(16) Uani 1.0 1
C1 C 0.46635(4) 0.161080(19) 0.35441(5) 0.00437(3) Uani 1.0 1
H4 H 0.4242(9) 0.2482(4) 0.3383(11) 0.0188(14) Uani 1.0 1
C2 C 0.25992(5) 0.09067(2) 0.30334(5) 0.00683(4) Uani 1.0 1
H5 H 0.1926(10) 0.1104(5) 0.1320(11) 0.0262(17) Uani 1.0 1
H6 H 0.1274(10) 0.1048(5) 0.4300(12) 0.0276(18) Uani 1.0 1
H7 H 0.3043(9) 0.0045(4) 0.3070(13) 0.0282(19) Uani 1.0 1
C3 C 0.55408(4) 0.140790(19) 0.59991(5) 0.00412(3) Uani 1.0 1
loop_
_atom_site_aniso_label
_atom_site_aniso_U_11
_atom_site_aniso_U_22
_atom_site_aniso_U_33
_atom_site_aniso_U_23
_atom_site_aniso_U_13
_atom_site_aniso_U_12
O1 0.00682(6) 0.00722(6) 0.00586(8) 0.00050(6) -0.00061(6) 0.00244(5)
O2 0.00764(6) 0.00764(6) 0.00409(7) -0.00056(5) 0.00056(6) 0.00199(6)
N1 0.00562(7) 0.00601(7) 0.00418(8) -0.00008(6) 0.00046(6) 0.00006(6)
H1 0.022(4) 0.024(3) 0.018(5) -0.000(3) 0.008(4) 0.002(3)
H2 0.013(3) 0.023(3) 0.021(5) 0.002(3) 0.007(3) 0.000(3)
H3 0.025(4) 0.017(3) 0.009(4) -0.005(3) 0.005(3) -0.003(3)
C1 0.00502(8) 0.00461(7) 0.00348(9) 0.00004(6) -0.00029(6) 0.00043(6)
H4 0.023(3) 0.014(3) 0.019(4) 0.006(3) 0.003(3) 0.008(3)
C2 0.00575(8) 0.00876(8) 0.00599(10) -0.00040(7) -0.00059(7) -0.00131(7)
H5 0.023(4) 0.044(4) 0.012(4) 0.007(3) -0.010(3) -0.011(3)
H6 0.017(3) 0.036(4) 0.030(5) 0.002(4) 0.003(4) -0.003(3)
H7 0.032(5) 0.016(3) 0.037(5) -0.003(3) 0.004(4) -0.006(3)
C3 0.00482(7) 0.00429(7) 0.00326(8) 0.00000(6) -0.00029(7) 0.00035(6)
loop_
_atom_type_symbol
_atom_type_description
_atom_type_scat_dispersion_real
_atom_type_scat_dispersion_imag
_atom_type_scat_source
C C 0.0033 0.0016 'HAR in xHARPy 0.1'
H H 0.0000 0.0000 'HAR in xHARPy 0.1'
N N 0.0061 0.0033 'HAR in xHARPy 0.1'
O O 0.0106 0.0060 'HAR in xHARPy 0.1'
loop_
_geom_angle_atom_site_label_1
_geom_angle_atom_site_label_2
_geom_angle_atom_site_label_3
_geom_angle
C1 N1 H1 111.6(4)
C1 N1 H2 109.3(4)
H1 N1 H2 109.4(5)
C1 N1 H3 109.4(4)
H1 N1 H3 108.5(5)
H2 N1 H3 108.7(5)
N1 C1 C2 109.76(2)
N1 C1 C3 110.03(2)
C2 C1 C3 111.08(2)
N1 C1 H4 107.2(3)
C2 C1 H4 110.5(3)
C3 C1 H4 108.2(3)
C1 C2 H5 110.0(3)
C1 C2 H6 111.0(3)
H5 C2 H6 108.2(4)
C1 C2 H7 110.6(3)
H5 C2 H7 108.6(5)
H6 C2 H7 108.4(4)
O1 C3 O2 125.83(3)
O1 C3 C1 118.30(2)
O2 C3 C1 115.87(2)
loop_
_geom_bond_atom_site_label_1
_geom_bond_atom_site_label_2
_geom_bond_distance
O1 C3 1.2472(4)
O2 C3 1.2664(4)
N1 C1 1.4895(4)
N1 H1 1.020(6)
N1 H2 1.026(6)
N1 H3 1.056(7)
C1 C2 1.5265(4)
C1 C3 1.5348(4)
C1 H4 1.101(5)
C2 H5 1.097(6)
C2 H6 1.089(6)
C2 H7 1.088(6)
loop_
_refln_index_h
_refln_index_k
_refln_index_l
_refln_F_squared_calc
_refln_F_squared_meas
_refln_F_squared_sigma
0 2 0 182.17 183.29 1.75
0 4 0 5364.22 5171.75 44.33
0 6 0 89.37 89.45 1.04
0 8 0 45.55 45.23 0.72
0 10 0 0.69 0.80 0.34
0 12 0 233.85 232.15 2.65
0 14 0 56.40 58.41 1.12
0 16 0 24.55 25.18 0.85
0 18 0 225.42 227.04 2.97
0 20 0 0.03 0.22 0.34
0 22 0 133.25 135.18 2.35
0 24 0 0.07 0.23 0.38
0 26 0 5.50 6.43 0.61
0 1 1 728.69 722.49 7.31
0 2 1 116.31 119.22 1.22
0 3 1 698.84 706.69 6.38
0 4 1 95.90 98.01 1.06
0 5 1 0.41 0.23 0.16
0 6 1 475.79 473.70 4.56
0 7 1 36.59 36.83 0.61
0 8 1 44.37 44.24 0.73
0 9 1 32.15 32.00 0.66
0 10 1 135.13 136.94 1.69
0 11 1 67.16 66.54 1.11
0 12 1 75.75 76.15 1.23
0 13 1 19.36 18.78 0.69
0 14 1 38.92 37.80 0.94
0 15 1 90.78 90.73 1.55
0 16 1 0.35 2.38 9.17
0 17 1 0.87 1.13 0.34
0 18 1 61.44 59.72 1.36
0 19 1 15.67 16.11 0.89
0 20 1 27.81 27.37 1.05
0 21 1 2.08 2.68 0.42
0 23 1 1.80 1.72 0.42
0 24 1 0.03 0.16 0.38
0 25 1 2.33 2.98 0.56
0 26 1 19.59 19.73 1.23
0 0 2 2925.49 2834.85 33.22
0 1 2 518.64 531.74 6.54
0 2 2 176.11 181.09 2.07
0 3 2 56.13 56.04 0.79
0 4 2 171.91 170.75 1.78
0 5 2 556.80 565.32 5.31
0 6 2 92.92 96.46 1.17
0 7 2 5.02 5.40 0.34
0 8 2 108.97 111.43 1.40
0 9 2 21.82 23.62 0.60
0 10 2 45.92 46.13 0.86
0 11 2 83.90 83.56 1.26
0 12 2 28.12 28.18 0.75
0 13 2 21.63 21.43 0.70
0 14 2 22.26 21.24 0.75
0 15 2 181.52 180.84 2.38
0 16 2 3.99 4.43 0.41
0 17 2 63.02 60.90 1.38
0 18 2 19.42 20.35 0.91
0 19 2 118.04 119.56 2.09
0 20 2 0.88 0.97 0.41
0 21 2 46.02 45.82 1.36
0 22 2 37.39 36.72 1.29
0 23 2 16.80 17.96 1.02
0 24 2 1.81 2.48 0.45
0 25 2 21.69 22.40 1.26
0 26 2 1.73 2.55 0.50
0 1 3 81.40 83.76 1.74
0 2 3 153.36 157.34 2.92
0 3 3 202.90 204.88 2.45
0 4 3 720.82 737.05 7.75
0 5 3 80.05 81.10 1.19
0 6 3 266.46 271.62 2.84
0 7 3 22.19 22.34 0.57
0 8 3 61.00 61.48 0.99
0 9 3 144.38 142.35 1.78
0 10 3 39.71 39.51 0.83
0 11 3 68.69 70.19 1.18
0 12 3 118.90 118.60 1.69
0 13 3 143.76 145.12 1.99
0 14 3 28.85 27.74 0.85
0 15 3 90.78 90.22 1.58
0 16 3 155.28 154.38 2.26
0 17 3 48.56 47.09 1.24
0 18 3 27.87 26.93 0.99
0 19 3 3.12 2.50 0.41
0 20 3 43.59 44.32 1.34
0 21 3 0.84 0.87 0.38
0 22 3 0.61 1.15 0.41
0 23 3 26.78 28.08 1.16
0 24 3 12.09 12.68 0.91
0 25 3 5.77 4.96 0.57
0 0 4 207.05 209.11 3.89
0 1 4 37.92 39.71 1.20
0 2 4 92.32 92.81 2.05
0 3 4 7.55 7.98 0.45
0 4 4 224.04 228.85 2.83
0 5 4 0.37 0.67 0.37
0 6 4 71.64 70.74 1.23
0 7 4 29.43 29.13 0.78
0 8 4 64.90 64.31 1.07
0 9 4 7.16 7.18 0.46
0 10 4 87.66 90.10 1.38
0 11 4 97.11 97.72 1.51
0 12 4 39.02 38.90 0.96
0 13 4 11.10 11.46 0.65
0 14 4 142.70 142.04 2.08
0 15 4 46.18 45.14 1.18
0 16 4 94.19 94.42 1.74
0 17 4 5.26 5.69 0.46
0 18 4 10.14 9.61 0.74
0 19 4 3.88 3.35 0.44
0 20 4 1.65 1.83 0.41
0 21 4 0.45 0.19 0.37
0 22 4 3.59 4.34 0.49
0 23 4 0.03 0.12 0.40
0 24 4 25.85 26.50 1.13
0 25 4 2.26 2.89 0.51
0 1 5 237.82 235.47 4.50
0 2 5 137.60 136.91 2.94
0 3 5 49.69 49.08 1.53
0 4 5 384.02 388.04 4.57
0 5 5 177.72 177.24 2.42
0 6 5 0.70 0.77 0.41
0 7 5 6.96 6.61 0.53
0 8 5 147.92 144.84 2.17
0 9 5 73.21 69.17 1.42
0 10 5 9.14 7.93 0.55
0 11 5 21.71 20.69 0.78
0 12 5 1.34 1.48 0.33
0 13 5 78.04 78.97 1.50
0 14 5 2.74 3.51 0.41
0 15 5 13.24 14.06 0.79
0 16 5 13.86 13.25 0.79
0 17 5 73.66 76.81 1.65
0 18 5 2.69 2.33 0.42
0 19 5 14.22 13.58 0.89
0 20 5 0.17 0.30 0.40
0 21 5 21.10 19.58 1.03
0 22 5 4.75 5.48 0.53
0 23 5 14.17 12.49 0.96
0 24 5 0.34 0.26 0.38
0 0 6 0.66 0.78 0.62
0 1 6 94.82 93.50 2.44
0 2 6 15.27 16.16 1.02
0 3 6 0.91 1.48 0.65
0 4 6 16.71 15.94 1.08
0 5 6 85.09 86.03 1.57
0 6 6 11.95 11.14 0.65
0 7 6 143.37 141.67 2.24
0 8 6 31.00 29.92 0.99
0 9 6 12.73 14.31 0.77
0 10 6 15.68 15.57 0.82
0 11 6 118.69 116.89 1.89
0 12 6 6.49 6.29 0.55
0 13 6 4.37 4.77 0.48
0 14 6 10.83 11.66 0.73
0 15 6 0.03 0.09 0.34
0 16 6 43.65 41.42 1.28
0 17 6 29.05 29.04 1.11
0 18 6 6.83 7.78 0.68
0 19 6 43.36 44.09 1.38
0 20 6 1.35 1.83 0.43
0 21 6 22.30 21.24 1.08
0 22 6 10.28 10.55 0.77
0 23 6 17.03 16.96 0.99
0 1 7 61.15 58.62 2.05
0 2 7 548.48 539.76 9.70
0 3 7 0.00 0.47 0.77
0 4 7 11.87 11.75 1.09
0 5 7 24.53 24.02 1.43
0 6 7 42.76 43.05 1.22
0 7 7 47.75 46.52 1.28
0 8 7 1.56 1.94 0.43
0 9 7 4.41 4.93 0.51
0 10 7 10.22 9.20 0.80
0 11 7 30.11 31.31 1.18
0 12 7 5.13 5.82 0.64
0 13 7 13.16 11.61 0.79
0 14 7 1.07 1.47 0.38
0 16 7 83.37 81.48 1.81
0 17 7 0.50 1.05 0.40
0 18 7 1.41 2.30 0.44
0 19 7 5.20 6.84 0.55
0 20 7 137.07 134.87 2.44
0 21 7 0.41 0.91 0.39
0 0 8 25.65 24.41 1.51
0 1 8 2.95 3.57 0.95
0 2 8 9.60 8.69 1.14
0 3 8 16.63 15.68 1.34
0 4 8 1.89 1.72 0.95
0 6 8 10.17 10.25 0.82
0 7 8 58.39 59.47 1.56
0 8 8 88.93 87.27 1.92
0 9 8 11.31 12.23 0.86
0 10 8 5.32 6.52 0.70
0 11 8 41.19 39.99 1.40
0 12 8 39.88 40.12 1.44
0 13 8 32.49 32.06 1.34
0 14 8 11.13 12.51 0.98
0 15 8 0.07 0.55 0.38
0 16 8 0.59 1.00 0.40
0 17 8 7.16 6.55 0.55
0 18 8 0.29 0.57 0.40
0 19 8 10.36 9.20 0.77
0 20 8 5.70 6.14 0.53
0 1 9 6.64 8.50 1.16
0 2 9 48.17 46.26 2.19
0 3 9 62.50 63.18 2.52
0 4 9 21.15 22.16 1.62
0 5 9 1.31 1.65 0.96
0 6 9 1.35 1.58 0.98
0 7 9 47.50 46.40 1.52
0 8 9 79.35 79.45 1.94
0 9 9 17.19 16.43 1.07
0 10 9 13.90 13.81 1.02
0 11 9 1.75 2.24 0.53
0 12 9 35.41 34.79 1.39
0 13 9 29.17 29.07 1.34
0 14 9 0.65 0.28 0.49
0 15 9 46.17 47.18 1.64
0 16 9 13.44 14.42 1.09
0 17 9 15.36 15.48 0.99
0 18 9 8.36 8.56 0.64
0 0 10 5.21 4.79 1.23
0 1 10 0.00 0.01 1.00
0 2 10 21.12 20.65 1.73
0 3 10 49.04 48.83 2.41
0 4 10 27.66 28.26 1.94
0 5 10 32.67 32.62 2.05
0 6 10 41.05 41.50 2.32
0 7 10 54.01 54.21 2.59
0 8 10 58.41 60.04 1.80
0 9 10 6.69 6.72 0.66
0 10 10 1.24 1.86 0.52
0 11 10 17.61 16.34 1.14
0 12 10 12.07 13.39 0.93
0 13 10 11.49 12.51 1.05
0 14 10 46.27 43.46 1.62
0 15 10 5.08 5.84 0.65
0 1 11 0.62 0.48 1.22
0 2 11 2.04 2.69 1.23
0 3 11 7.64 6.78 1.48
0 4 11 1.12 0.91 1.29
0 5 11 1.49 0.89 1.29
0 6 11 8.89 7.70 1.53
0 7 11 2.45 3.09 1.35
0 8 11 7.87 8.37 1.53
0 9 11 7.66 7.98 0.77
0 10 11 0.78 1.57 0.54
0 11 11 9.20 8.33 0.84
0 12 11 31.32 30.08 1.40
0 0 12 0.04 2.47 9.17
0 1 12 28.80 26.94 2.24
0 2 12 19.01 20.15 1.96
0 3 12 118.81 115.92 3.95
0 4 12 0.32 0.42 1.41
0 5 12 9.35 9.75 1.71
0 6 12 54.62 55.64 2.75
0 7 12 69.29 64.66 3.03
1 1 0 253.59 250.87 2.36
1 2 0 5385.23 5473.38 57.96
1 3 0 57.89 58.96 0.69
1 4 0 1720.36 1674.40 14.73
1 5 0 337.79 337.55 3.28
1 6 0 62.78 61.72 0.79
1 7 0 18.95 19.21 0.44
1 8 0 394.31 401.16 3.99
1 9 0 2.62 3.25 0.34
1 10 0 41.05 42.96 0.80
1 11 0 94.41 96.65 1.35
1 12 0 26.01 26.85 0.71
1 13 0 58.22 57.19 1.08
1 14 0 1.50 0.86 0.43
1 15 0 84.93 86.10 1.47
1 16 0 24.42 24.40 0.85
1 17 0 30.17 29.47 0.96
1 18 0 0.79 0.93 0.38
1 19 0 33.96 33.64 1.09
1 20 0 41.96 40.17 1.24
1 21 0 1.22 1.43 0.43
1 22 0 3.78 3.98 0.47
1 23 0 6.06 6.99 0.60
1 24 0 9.79 9.76 0.79
1 26 0 6.63 7.30 0.63
1 0 1 74.70 76.60 0.83
1 1 1 128.55 133.24 1.35
1 2 1 103.12 103.87 1.10
1 3 1 1088.45 1084.97 9.66
1 4 1 156.85 156.65 1.64
1 5 1 440.86 436.83 4.21
1 6 1 21.26 21.83 0.44
1 7 1 335.60 338.53 3.40
1 8 1 231.97 234.03 2.47
1 9 1 228.93 231.73 2.52
1 10 1 133.50 130.91 1.67
1 11 1 17.12 17.10 0.56
1 12 1 1.14 0.36 0.36
1 13 1 127.47 127.33 1.77
1 14 1 29.98 29.51 0.83
1 15 1 88.01 87.42 1.52
1 16 1 61.68 61.64 1.29
1 17 1 25.21 25.37 0.90
1 18 1 23.22 23.73 0.93
1 19 1 14.59 15.28 0.83
1 20 1 6.40 5.81 0.48
1 21 1 1.45 2.06 0.41
1 22 1 33.22 34.68 1.20
1 23 1 9.53 10.63 0.89
1 24 1 21.71 20.89 1.07
1 25 1 8.67 9.47 0.82
1 26 1 0.77 2.00 0.48
1 0 2 3270.91 3098.04 36.05
1 1 2 69.11 71.50 0.94
1 2 2 570.51 571.09 6.10
1 3 2 192.80 193.64 2.02
1 4 2 1064.29 1061.75 9.61
1 5 2 18.46 18.56 0.41
1 6 2 216.82 218.98 2.30
1 7 2 161.53 161.67 1.82
1 8 2 10.59 10.22 0.43
1 9 2 58.49 61.66 0.98
1 10 2 59.52 59.34 1.00
1 11 2 116.47 117.68 1.59
1 12 2 116.64 115.14 1.62
1 13 2 111.50 109.96 1.63
1 14 2 54.40 54.59 1.13
1 15 2 30.81 31.57 0.92
1 16 2 29.19 27.56 0.94
1 17 2 77.47 75.55 1.52
1 18 2 109.10 109.85 1.92
1 19 2 40.07 41.12 1.20
1 20 2 10.31 9.68 0.70
1 21 2 22.00 22.82 1.02
1 22 2 38.64 36.50 1.27
1 23 2 43.35 43.31 1.42
1 24 2 9.66 10.62 0.79
1 25 2 0.09 0.15 0.43
1 26 2 3.69 4.48 0.55
1 0 3 31.52 31.97 0.92
1 1 3 294.00 301.87 5.22
1 2 3 220.78 224.26 2.63
1 3 3 89.42 91.53 1.28
1 4 3 92.22 95.45 1.34
1 5 3 22.80 22.98 0.53
1 6 3 134.47 137.80 1.63
1 7 3 4.76 5.17 0.38
1 8 3 256.19 257.06 2.80
1 9 3 28.85 28.95 0.70
1 10 3 78.70 79.51 1.24
1 11 3 15.36 16.63 0.60
1 12 3 32.23 32.22 0.83
1 13 3 34.95 33.73 0.90
1 14 3 115.02 114.59 1.78
1 15 3 34.09 33.42 0.98
1 16 3 9.93 9.27 0.61
1 17 3 25.96 24.97 0.94
1 18 3 27.60 26.46 1.00
1 19 3 27.72 27.16 1.05
1 20 3 7.91 7.74 0.66
1 21 3 24.13 23.53 1.05
1 22 3 6.64 7.18 0.61
1 23 3 2.90 2.74 0.45
1 24 3 8.11 8.12 0.64
1 25 3 15.78 17.87 1.15
1 0 4 326.09 327.66 5.82
1 1 4 249.82 259.47 4.72
1 2 4 26.86 28.69 1.05
1 3 4 22.48 23.36 0.64
1 4 4 107.68 109.43 1.57
1 5 4 81.24 83.51 1.34
1 6 4 130.31 130.07 1.87
1 7 4 83.90 83.53 1.23
1 8 4 44.97 45.08 0.88
1 9 4 2.18 2.17 0.38
1 10 4 21.81 22.66 0.70
1 11 4 63.98 62.22 1.17
1 12 4 144.77 140.57 1.99
1 13 4 25.63 27.07 0.85
1 14 4 41.89 39.33 1.06
1 15 4 2.16 2.97 0.39
1 16 4 22.24 23.53 0.91
1 17 4 26.76 28.03 1.01
1 18 4 56.88 58.46 1.46
1 19 4 39.99 40.72 1.25
1 20 4 9.04 9.22 0.79
1 21 4 11.20 10.78 0.78
1 22 4 21.01 21.72 1.05
1 23 4 14.64 15.05 0.96
1 24 4 2.25 2.13 0.43
1 0 5 281.88 283.94 5.29
1 1 5 119.79 122.16 2.70
1 2 5 468.50 462.73 8.11
1 3 5 177.09 175.92 3.63
1 4 5 110.71 107.88 1.68
1 5 5 8.57 8.54 0.53
1 6 5 226.12 229.26 3.00
1 7 5 73.36 72.80 1.38
1 8 5 70.60 69.18 1.37
1 9 5 92.16 89.86 1.46
1 10 5 9.75 9.50 0.57
1 11 5 34.78 35.78 0.95
1 12 5 24.94 25.02 0.86
1 13 5 44.69 44.64 1.15
1 14 5 39.79 40.11 1.12
1 15 5 29.75 29.78 1.02
1 16 5 74.57 78.45 1.63
1 17 5 11.20 11.43 0.80
1 18 5 7.43 6.95 0.65
1 19 5 18.04 18.64 0.97
1 20 5 65.29 64.53 1.64
1 21 5 25.04 25.06 1.11
1 22 5 1.48 1.72 0.43
1 23 5 3.48 4.57 0.50
1 24 5 17.96 17.40 1.00
1 0 6 0.53 0.07 0.63
1 1 6 0.53 0.89 0.62
1 2 6 7.70 7.53 0.83
1 3 6 12.75 12.40 0.99
1 4 6 16.16 15.97 1.08
1 5 6 12.78 13.26 0.67
1 6 6 21.96 21.84 0.82
1 7 6 7.51 7.76 0.62
1 8 6 9.91 9.07 0.68
1 9 6 11.51 11.05 0.77
1 10 6 2.70 2.42 0.44
1 11 6 10.78 9.81 0.68
1 12 6 29.56 28.94 0.96
1 13 6 7.58 7.53 0.60
1 14 6 27.99 27.96 1.00
1 15 6 11.89 10.99 0.81
1 16 6 2.97 2.98 0.43
1 17 6 20.97 21.48 1.00
1 18 6 13.85 13.83 0.89
1 19 6 10.95 11.78 0.86
1 20 6 33.40 31.53 1.24
1 21 6 9.08 9.39 0.77
1 22 6 10.18 8.61 0.76
1 23 6 11.58 12.01 0.88
1 0 7 248.64 247.42 5.14
1 1 7 26.06 26.80 1.44
1 2 7 59.46 61.24 2.11
1 3 7 79.74 81.29 2.48
1 4 7 144.19 141.03 3.51
1 5 7 29.21 30.52 1.04
1 6 7 62.63 61.61 1.47
1 7 7 10.42 9.50 0.77
1 8 7 57.55 56.24 1.45
1 9 7 68.53 67.25 1.61
1 10 7 18.07 18.72 0.96
1 11 7 21.69 21.80 0.91
1 12 7 2.57 1.90 0.46
1 13 7 41.28 42.27 1.25
1 14 7 26.12 24.58 1.05
1 15 7 34.32 32.26 1.17
1 16 7 23.27 25.81 1.07
1 17 7 19.34 20.47 1.01
1 18 7 44.98 42.97 1.38
1 19 7 6.83 6.74 0.61
1 20 7 14.43 15.42 0.99
1 21 7 9.17 9.29 0.66
1 0 8 10.08 10.43 1.20
1 1 8 34.17 35.28 1.78
1 2 8 19.24 19.82 1.43
1 3 8 31.11 32.06 1.71
1 4 8 33.11 32.74 1.75
1 5 8 103.82 102.10 3.10
1 6 8 16.04 15.02 0.92
1 7 8 94.93 91.22 1.95
1 8 8 3.62 3.24 0.49
1 9 8 50.88 51.16 1.52
1 10 8 41.59 39.68 1.38
1 11 8 94.24 95.40 2.12
1 12 8 12.85 11.75 0.97
1 13 8 28.57 28.28 1.26
1 14 8 1.93 1.20 0.50
1 15 8 43.68 46.22 1.38
1 16 8 5.27 5.58 0.52
1 17 8 28.93 26.79 1.18
1 18 8 4.49 5.45 0.52
1 19 8 1.86 2.27 0.44
1 20 8 0.04 0.11 0.39
1 0 9 0.14 0.04 0.93
1 1 9 3.12 2.23 1.00
1 2 9 50.17 51.47 2.27
1 3 9 1.21 1.63 0.98
1 4 9 3.74 3.25 1.13
1 5 9 28.14 28.55 1.83
1 6 9 8.83 10.04 1.30
1 7 9 14.64 15.85 1.01
1 8 9 8.00 8.34 0.74
1 9 9 19.85 19.81 1.12
1 10 9 31.25 29.54 1.31
1 11 9 45.15 46.04 1.58
1 12 9 8.36 8.93 0.82
1 13 9 16.88 16.07 1.13
1 14 9 7.30 7.91 0.82
1 15 9 21.70 22.21 1.24
1 16 9 42.72 42.88 1.58
1 17 9 18.00 18.28 1.05
1 18 9 11.77 11.55 0.89
1 0 10 2.68 3.48 1.17
1 1 10 24.17 25.70 1.87
1 2 10 2.20 1.56 1.12
1 3 10 17.78 20.13 1.71
1 4 10 21.60 21.68 1.82
1 5 10 33.02 32.65 2.09
1 6 10 40.53 41.55 2.30
1 7 10 33.14 31.66 2.10
1 8 10 24.38 24.49 1.25
1 9 10 7.53 7.37 0.81
1 10 10 60.64 55.91 1.80
1 11 10 15.60 16.28 1.14
1 12 10 47.99 45.52 1.64
1 13 10 0.10 0.23 0.51
1 14 10 7.82 6.57 0.67
1 15 10 11.02 10.52 0.88
1 0 11 1.60 0.80 1.29
1 1 11 13.53 11.99 1.61
1 2 11 34.58 33.78 2.26
1 3 11 23.82 23.38 1.95
1 4 11 11.91 11.89 1.62
1 5 11 5.17 6.14 1.44
1 6 11 2.94 3.95 1.35
1 7 11 7.74 8.60 1.58
1 8 11 16.53 15.61 1.18
1 9 11 24.85 23.49 1.31
1 10 11 19.43 18.71 1.22
1 11 11 2.72 3.60 0.59
1 12 11 0.78 1.61 0.53
1 0 12 16.55 17.85 1.92
1 1 12 75.66 75.90 3.18
1 2 12 9.31 8.29 1.74
1 3 12 3.10 3.23 1.55
1 4 12 27.82 29.01 2.21
1 5 12 71.53 68.53 3.11
1 6 12 2.69 2.85 1.52
1 7 12 23.84 22.83 2.08
2 0 0 41.18 41.82 0.54
2 1 0 30.78 31.05 0.44
2 2 0 1725.83 1674.36 14.75
2 3 0 796.56 784.54 7.15
2 4 0 36.00 35.75 0.53
2 5 0 90.31 90.90 1.08
2 6 0 2107.46 2075.76 18.43
2 7 0 290.80 292.98 3.00
2 8 0 0.38 0.76 0.30
2 9 0 234.87 234.34 2.58
2 10 0 248.52 253.69 2.78
2 11 0 2.18 2.41 0.36
2 12 0 44.84 43.28 0.91
2 13 0 165.87 167.53 2.13
2 14 0 11.55 10.90 0.60
2 15 0 71.86 69.77 1.32
2 16 0 38.83 36.90 1.02
2 17 0 36.36 35.59 1.05
2 18 0 43.34 43.59 1.20
2 19 0 36.35 37.66 1.16
2 20 0 1.64 0.92 0.37
2 21 0 8.39 7.71 0.64
2 22 0 15.87 15.08 0.93
2 23 0 10.76 11.13 0.88
2 24 0 32.46 32.30 1.24
2 25 0 3.10 4.11 0.57
2 26 0 1.00 1.07 0.45
2 0 1 1.40 1.63 0.16
2 1 1 77.83 77.80 0.88
2 2 1 274.57 276.69 2.72
2 3 1 530.82 535.06 5.04
2 4 1 156.81 157.39 1.66
2 5 1 420.19 425.67 4.14
2 6 1 23.20 22.86 0.48
2 7 1 95.71 97.72 1.23
2 8 1 4.17 4.83 0.36
2 9 1 272.59 272.49 2.93
2 10 1 8.99 8.68 0.46
2 11 1 5.20 4.74 0.43
2 12 1 41.63 40.59 0.89
2 13 1 80.79 79.62 1.35
2 14 1 43.44 44.62 1.02
2 15 1 21.66 23.69 0.80
2 16 1 3.43 3.55 0.39
2 17 1 11.57 10.05 0.69
2 18 1 10.42 9.93 0.72
2 19 1 29.10 29.16 1.06
2 20 1 70.10 71.48 1.63
2 21 1 27.33 28.80 1.12
2 22 1 23.37 23.27 1.07
2 23 1 2.87 2.56 0.44
2 24 1 37.92 41.04 1.34
2 25 1 22.57 22.94 1.32
2 26 1 29.27 30.39 1.45
2 0 2 4.14 4.19 0.22
2 1 2 306.55 307.83 3.04
2 2 2 1084.51 1081.69 9.79
2 3 2 108.98 106.82 1.25
2 4 2 87.94 88.85 1.09
2 5 2 8.09 8.37 0.34
2 6 2 285.93 291.36 3.00
2 7 2 139.74 140.03 1.66
2 8 2 141.19 143.73 1.75
2 9 2 127.64 127.83 1.61
2 10 2 2.70 2.64 0.37
2 11 2 64.88 63.95 1.12
2 12 2 57.04 57.17 1.08
2 13 2 72.77 73.32 1.30
2 14 2 32.22 33.74 0.91
2 15 2 32.78 31.75 0.93
2 16 2 77.25 73.06 1.46
2 17 2 0.11 0.07 0.33
2 18 2 9.74 10.79 0.73
2 19 2 1.29 1.13 0.36
2 20 2 31.03 31.77 1.12
2 21 2 29.24 30.17 1.16
2 22 2 3.28 3.56 0.47
2 23 2 1.66 2.53 0.45
2 24 2 9.13 8.70 0.76
2 25 2 40.46 39.82 1.66
2 0 3 133.85 131.78 1.53
2 1 3 138.53 140.06 1.58
2 2 3 378.54 382.76 3.80
2 3 3 446.70 447.19 4.42
2 4 3 63.99 65.70 0.94
2 5 3 246.66 248.82 2.66
2 6 3 88.49 90.81 1.23
2 7 3 105.82 108.37 1.41
2 8 3 119.64 119.38 1.54
2 9 3 286.77 288.81 3.18
2 10 3 252.49 256.40 2.92
2 11 3 12.22 11.99 0.58
2 12 3 85.15 84.30 1.41
2 13 3 43.26 43.77 1.03
2 14 3 49.78 48.08 1.13
2 15 3 16.86 16.93 0.79
2 16 3 2.27 2.78 0.39
2 17 3 11.20 12.73 0.75
2 18 3 2.76 2.10 0.38
2 19 3 38.76 38.77 1.22
2 20 3 9.07 9.86 0.67
2 21 3 43.54 43.24 1.37
2 22 3 8.90 7.78 0.72
2 23 3 4.00 5.20 0.56
2 24 3 0.01 0.04 0.39
2 25 3 12.60 13.03 1.07
2 0 4 55.46 56.65 1.53
2 1 4 104.50 106.66 1.54
2 2 4 127.28 130.87 1.82
2 3 4 132.11 133.09 1.84
2 4 4 12.78 12.97 0.57
2 5 4 61.04 59.70 0.99
2 6 4 109.10 107.97 1.45
2 7 4 102.58 102.26 1.43
2 8 4 114.85 116.24 1.59
2 9 4 47.05 48.53 0.97
2 10 4 138.44 138.03 1.88
2 11 4 50.73 49.71 1.07
2 12 4 13.19 12.65 0.66
2 13 4 0.43 0.40 0.33
2 14 4 12.71 11.67 0.71
2 15 4 12.64 12.80 0.74
2 16 4 25.05 25.14 0.91
2 17 4 40.02 38.67 1.18
2 18 4 26.60 25.33 1.04
2 19 4 8.64 8.70 0.71
2 20 4 24.91 26.60 1.09
2 21 4 19.79 20.24 1.04
2 22 4 18.43 16.75 1.03
2 23 4 21.14 23.40 1.07
2 24 4 4.55 3.33 0.47
2 0 5 144.06 144.19 3.10
2 1 5 34.30 33.90 1.30
2 2 5 161.49 161.00 2.24
2 3 5 30.98 31.57 0.84
2 4 5 146.47 148.04 2.12
2 5 5 62.51 63.61 1.24
2 6 5 12.06 12.46 0.63
2 7 5 14.65 14.13 0.70
2 8 5 61.32 62.61 1.17
2 9 5 25.68 26.15 0.80
2 10 5 138.29 138.34 1.97
2 11 5 60.29 60.21 1.26
2 12 5 14.69 14.28 0.74
2 13 5 1.36 2.26 0.37
2 14 5 93.95 92.25 1.71
2 15 5 11.78 12.68 0.76
2 16 5 1.07 1.13 0.36
2 17 5 5.30 5.32 0.48
2 18 5 44.92 44.23 1.36
2 19 5 9.68 11.09 0.84
2 20 5 1.34 1.41 0.42
2 21 5 0.95 0.95 0.41
2 22 5 19.96 20.92 1.04
2 23 5 16.66 16.41 1.02
2 0 6 74.21 76.32 2.20
2 1 6 92.09 93.78 2.50
2 2 6 2.22 2.30 0.71
2 3 6 2.12 2.26 0.57
2 4 6 22.02 22.59 0.82
2 5 6 98.96 98.39 1.75
2 6 6 0.33 0.59 0.48
2 7 6 76.98 76.99 1.56
2 8 6 0.14 0.23 0.52
2 9 6 3.68 4.91 0.48
2 10 6 10.58 12.09 0.69
2 11 6 104.10 104.27 1.78
2 12 6 8.16 7.87 0.54
2 13 6 61.08 62.21 1.41
2 14 6 10.64 11.24 0.74
2 15 6 57.64 56.67 1.43
2 16 6 15.05 15.34 0.89
2 17 6 47.30 46.83 1.36
2 18 6 49.62 49.56 1.45
2 19 6 1.52 2.34 0.44
2 20 6 3.86 3.80 0.48
2 21 6 14.07 13.72 0.96
2 22 6 45.91 45.63 1.42
2 0 7 7.31 7.41 0.99
2 1 7 45.08 43.85 1.81
2 2 7 12.64 12.54 1.12
2 3 7 14.20 14.46 1.19
2 4 7 134.79 130.11 2.67
2 5 7 71.58 70.87 1.57
2 6 7 29.92 29.27 1.06
2 7 7 85.45 83.52 1.77
2 8 7 81.08 82.23 1.77
2 9 7 4.56 4.97 0.53
2 10 7 8.98 9.47 0.79
2 11 7 95.76 97.44 2.06
2 12 7 1.38 2.17 0.38
2 13 7 48.54 48.83 1.36
2 14 7 38.11 40.18 1.25
2 15 7 32.60 32.71 1.19
2 16 7 4.43 4.28 0.48
2 17 7 49.95 50.74 1.47
2 18 7 9.32 9.88 0.76
2 19 7 6.03 6.99 0.63
2 20 7 0.34 0.98 0.41
2 21 7 11.64 10.37 0.79
2 0 8 55.24 53.98 2.19
2 1 8 58.72 58.72 2.29
2 2 8 24.94 23.54 1.58
2 3 8 27.47 28.98 1.67
2 4 8 16.54 15.91 1.38
2 5 8 57.88 56.44 1.52
2 6 8 50.27 46.97 1.44
2 7 8 44.10 41.75 1.36
2 8 8 0.08 0.31 0.41
2 9 8 11.40 11.74 0.80
2 10 8 1.21 1.40 0.49
2 11 8 9.68 8.51 0.78
2 12 8 0.42 0.02 0.43
2 13 8 34.08 31.37 1.36
2 14 8 8.34 9.96 0.81
2 15 8 6.73 7.01 0.70
2 16 8 2.35 3.25 0.47
2 17 8 24.20 23.46 1.13
2 18 8 1.60 1.91 0.43
2 19 8 5.64 6.71 0.54
2 0 9 73.07 75.57 2.76
2 1 9 15.82 17.45 1.50
2 2 9 110.48 109.19 3.43
2 3 9 4.90 5.35 1.10
2 4 9 48.59 48.70 2.29
2 5 9 10.77 11.44 1.38
2 6 9 50.88 49.77 1.57
2 7 9 10.44 10.55 0.92
2 8 9 1.99 3.35 0.54
2 9 9 38.65 38.30 1.43
2 10 9 12.48 14.10 1.02
2 11 9 14.92 15.60 1.07
2 12 9 16.94 17.33 1.13
2 13 9 33.72 35.07 1.46
2 14 9 69.51 72.18 1.98
2 15 9 0.36 1.09 0.52
2 16 9 16.07 15.51 1.01
2 17 9 3.84 4.32 0.53
2 0 10 50.10 49.61 2.44
2 1 10 68.36 67.07 2.82
2 2 10 2.08 2.86 1.18
2 3 10 6.64 6.56 1.33
2 4 10 4.53 4.67 1.25
2 5 10 47.01 46.59 2.40
2 6 10 16.57 16.95 1.66
2 7 10 26.98 26.18 1.32
2 8 10 31.25 30.34 1.40
2 9 10 11.82 12.21 0.91
2 10 10 32.92 33.44 1.45
2 11 10 42.57 44.25 1.58
2 12 10 48.08 48.24 1.68
2 13 10 6.83 7.08 0.68
2 14 10 17.13 17.07 1.15
2 15 10 2.81 2.95 0.57
2 0 11 12.10 12.57 1.67
2 1 11 10.91 9.90 1.59
2 2 11 3.98 3.31 1.36
2 3 11 5.95 7.25 1.45
2 4 11 2.96 2.27 1.41
2 5 11 1.34 0.70 1.30
2 6 11 13.86 13.62 1.67
2 7 11 0.99 0.51 1.30
2 8 11 6.10 5.65 0.65
2 9 11 0.21 0.31 0.51
2 10 11 5.64 6.29 0.78
2 11 11 3.46 4.58 0.61
2 0 12 47.13 46.59 2.64
2 1 12 22.14 20.54 2.09
2 2 12 6.92 6.21 1.62
2 3 12 39.59 42.53 2.52
2 4 12 10.88 11.17 1.77
2 5 12 2.00 2.26 1.52
2 6 12 30.61 29.29 2.21
3 1 0 30.62 30.93 0.51
3 3 0 69.25 69.00 0.88
3 4 0 406.54 412.40 4.02
3 5 0 206.48 208.02 2.21
3 6 0 37.86 39.32 0.70
3 7 0 243.73 242.41 2.60
3 8 0 78.34 80.54 1.15
3 9 0 109.45 107.46 1.43
3 10 0 29.77 29.96 0.72
3 11 0 253.03 250.70 2.86
3 12 0 9.40 8.17 0.53
3 13 0 3.09 2.73 0.44
3 14 0 2.84 3.74 0.49
3 15 0 23.05 23.97 0.85
3 16 0 44.37 42.80 1.13
3 17 0 41.78 42.18 1.16
3 18 0 1.61 2.12 0.37
3 19 0 2.64 2.93 0.41
3 20 0 26.24 27.85 1.07
3 21 0 30.09 30.29 1.14
3 22 0 3.80 4.07 0.48
3 23 0 0.03 0.06 0.39
3 24 0 9.19 8.03 0.65
3 25 0 28.01 29.49 1.42
3 0 1 173.58 175.18 1.86
3 1 1 362.30 367.98 3.63
3 2 1 59.00 58.81 0.79
3 3 1 429.13 433.10 4.24
3 4 1 81.83 81.66 1.04
3 5 1 23.89 24.23 0.53
3 6 1 67.13 68.77 0.98
3 7 1 158.50 158.77 1.85
3 8 1 42.23 42.59 0.80
3 9 1 391.02 381.05 4.01
3 10 1 36.99 36.80 0.82
3 11 1 54.54 53.44 1.03
3 12 1 56.05 54.26 1.08
3 13 1 90.01 89.30 1.51
3 14 1 27.23 26.99 0.85
3 15 1 1.54 1.98 0.37
3 16 1 37.96 39.27 1.09
3 17 1 31.01 30.10 1.01
3 18 1 52.60 50.94 1.32
3 19 1 18.86 19.67 0.92
3 20 1 3.86 3.69 0.45
3 21 1 63.78 67.49 1.63
3 22 1 65.10 61.81 1.63
3 23 1 15.27 15.42 0.95
3 24 1 27.46 29.74 1.20
3 25 1 6.41 7.78 0.77
3 0 2 0.11 0.10 0.23
3 1 2 182.64 179.23 1.95
3 2 2 266.18 271.06 2.78
3 3 2 267.17 266.07 2.76
3 4 2 54.89 54.91 0.85
3 5 2 314.67 314.02 3.25
3 6 2 629.86 636.27 6.23
3 7 2 6.15 7.29 0.42
3 8 2 89.50 88.75 1.26
3 9 2 62.24 62.06 1.06
3 10 2 253.81 253.19 2.87
3 11 2 36.42 34.52 0.85
3 12 2 107.49 106.14 1.61
3 13 2 26.28 26.14 0.81
3 14 2 6.89 6.62 0.59
3 15 2 12.81 12.86 0.71
3 16 2 35.62 36.61 1.06
3 17 2 28.43 28.45 1.00
3 18 2 8.82 9.02 0.71
3 19 2 6.40 5.52 0.54
3 20 2 11.71 11.53 0.84
3 21 2 0.73 0.59 0.38
3 22 2 2.82 2.80 0.45
3 23 2 10.08 9.78 0.86
3 24 2 26.52 27.49 1.17
3 25 2 4.44 4.53 0.56
3 0 3 178.99 182.88 2.04
3 1 3 248.75 250.73 2.66
3 2 3 16.82 17.35 0.50
3 3 3 165.60 166.74 1.92
3 4 3 12.56 12.58 0.48
3 5 3 206.66 213.42 2.37
3 6 3 3.43 3.38 0.38
3 7 3 253.62 253.61 2.82
3 8 3 42.25 42.95 0.87
3 9 3 25.13 26.09 0.72
3 10 3 11.72 11.53 0.56
3 11 3 76.59 75.69 1.31
3 12 3 41.01 40.05 0.97
3 13 3 11.08 12.38 0.66
3 14 3 9.29 9.04 0.59
3 15 3 12.34 12.00 0.72
3 16 3 1.70 2.04 0.39
3 17 3 8.75 8.16 0.63
3 18 3 0.35 0.20 0.34
3 19 3 9.73 10.26 0.82
3 20 3 6.94 6.10 0.51
3 21 3 1.92 1.61 0.41
3 22 3 6.53 6.38 0.54
3 23 3 39.97 39.69 1.37
3 24 3 6.97 8.48 0.72
3 0 4 10.62 11.55 0.47
3 1 4 113.23 113.00 1.47
3 2 4 29.84 30.87 0.70
3 3 4 80.01 79.87 1.18
3 4 4 23.97 24.93 0.65
3 5 4 272.53 269.76 2.98
3 6 4 81.57 79.75 1.24
3 7 4 57.38 59.36 1.07
3 8 4 53.31 53.73 1.05
3 9 4 66.42 67.19 1.21
3 10 4 21.25 20.93 0.73
3 11 4 30.55 28.93 0.88
3 12 4 29.16 29.88 0.90
3 13 4 103.91 104.37 1.74
3 14 4 9.92 10.02 0.68
3 15 4 37.69 37.47 1.11
3 16 4 16.35 17.23 0.84
3 17 4 32.15 32.08 1.11
3 18 4 24.03 25.40 1.05
3 19 4 17.49 16.83 0.94
3 20 4 20.71 20.78 1.01
3 21 4 23.95 25.66 1.12
3 22 4 6.94 6.95 0.62
3 23 4 9.94 10.02 0.86
3 24 4 1.01 1.09 0.41
3 0 5 51.23 49.80 0.97
3 1 5 44.30 44.59 0.91
3 2 5 36.29 35.36 0.83
3 3 5 70.68 73.03 1.21
3 4 5 70.13 71.43 1.21
3 5 5 72.39 72.18 1.24
3 6 5 42.62 43.87 0.95
3 7 5 123.22 122.22 1.76
3 8 5 190.90 186.62 2.38
3 9 5 1.65 1.81 0.47
3 10 5 135.22 133.15 1.98
3 11 5 5.73 7.27 0.53
3 12 5 125.68 123.12 1.95
3 13 5 9.85 10.25 0.72
3 14 5 68.13 63.75 1.46
3 15 5 43.78 44.10 1.25
3 16 5 9.75 9.98 0.77
3 17 5 2.83 3.13 0.44
3 18 5 5.60 6.39 0.53
3 19 5 12.37 10.57 0.77
3 20 5 1.89 2.82 0.45
3 21 5 3.26 3.57 0.48
3 22 5 15.49 15.08 0.99
3 23 5 2.92 3.77 0.48
3 1 6 3.60 3.77 0.51
3 2 6 41.39 41.58 1.09
3 3 6 4.78 4.81 0.56
3 4 6 10.13 9.53 0.67
3 5 6 21.00 20.96 0.85
3 6 6 19.58 18.58 0.85
3 7 6 40.20 39.23 1.14
3 8 6 19.56 18.71 0.79
3 9 6 31.65 32.31 0.97
3 10 6 23.83 23.92 0.89
3 11 6 68.80 67.67 1.44
3 12 6 2.81 3.60 0.43
3 13 6 57.59 56.35 1.40
3 14 6 24.41 25.66 1.01
3 15 6 6.99 7.16 0.58
3 16 6 41.50 41.57 1.30
3 17 6 24.06 23.90 1.06
3 18 6 10.48 10.15 0.76
3 19 6 21.25 21.75 1.08
3 20 6 61.51 63.27 1.65
3 21 6 5.16 5.76 0.53
3 22 6 5.81 5.14 0.51
3 0 7 5.84 5.90 1.00
3 1 7 0.48 0.84 0.83
3 2 7 153.29 150.95 3.72
3 3 7 30.97 28.92 1.07
3 4 7 10.54 9.61 0.78
3 5 7 32.98 31.99 1.13
3 6 7 12.50 11.98 0.85
3 7 7 35.75 35.90 1.20
3 8 7 12.85 11.12 0.85
3 9 7 106.27 108.61 2.13
3 10 7 50.34 50.49 1.31
3 11 7 6.19 6.15 0.48
3 12 7 2.55 2.38 0.40
3 13 7 37.73 38.00 1.23
3 14 7 49.17 48.92 1.38
3 15 7 37.32 37.09 1.26
3 16 7 2.93 2.78 0.45
3 17 7 3.11 2.83 0.45
3 18 7 7.71 7.81 0.63
3 19 7 21.52 20.78 1.08
3 20 7 10.16 9.15 0.75
3 21 7 5.13 5.18 0.51
3 0 8 1.93 2.12 1.00
3 1 8 114.34 113.50 3.31
3 2 8 57.60 59.33 2.34
3 3 8 45.18 45.72 2.09
3 4 8 39.69 38.89 1.30
3 5 8 39.58 38.46 1.30
3 6 8 26.48 26.14 1.13
3 7 8 29.77 30.18 1.20
3 8 8 34.38 33.31 1.29
3 9 8 22.57 22.12 1.12
3 10 8 5.40 4.39 0.56
3 11 8 99.93 99.70 2.22
3 12 8 16.82 17.23 1.07
3 13 8 7.34 6.29 0.59
3 14 8 4.44 4.57 0.49
3 15 8 17.87 17.97 0.99
3 16 8 17.43 15.31 0.99
3 17 8 10.49 11.19 0.90
3 18 8 9.00 8.30 0.65
3 19 8 21.67 23.03 1.11
3 0 9 70.54 68.83 2.70
3 1 9 11.63 11.92 1.40
3 2 9 20.25 19.34 1.61
3 3 9 13.40 13.91 1.49
3 4 9 100.50 101.70 3.36
3 5 9 0.06 0.14 0.47
3 6 9 8.20 8.07 0.66
3 7 9 8.29 9.00 0.74
3 8 9 44.97 43.14 1.53
3 9 9 6.43 6.28 0.63
3 10 9 27.94 27.88 1.29
3 11 9 3.92 4.24 0.59
3 12 9 4.20 4.93 0.62
3 13 9 1.66 1.54 0.53
3 14 9 28.72 31.08 1.36
3 15 9 6.65 6.40 0.61
3 16 9 9.87 9.00 0.66
3 17 9 21.72 21.73 1.08
3 0 10 1.02 0.85 1.16
3 1 10 54.67 57.24 2.60
3 2 10 27.37 27.70 1.99
3 3 10 79.77 82.26 3.17
3 4 10 12.68 11.92 1.58
3 5 10 6.72 7.13 1.41
3 6 10 22.77 23.28 1.24
3 7 10 10.21 11.67 0.88
3 8 10 7.75 7.24 0.68
3 9 10 34.17 33.29 1.45
3 10 10 7.76 7.58 0.84
3 11 10 4.93 4.56 0.61
3 12 10 0.78 1.12 0.51
3 13 10 20.42 19.01 1.22
3 14 10 17.44 16.93 1.13
3 0 11 1.70 1.24 1.33
3 1 11 10.69 10.95 1.67
3 2 11 14.63 15.11 1.72
3 3 11 33.86 34.76 2.28
3 4 11 16.44 16.90 1.87
3 5 11 15.46 15.62 1.75
3 6 11 12.20 12.11 1.70
3 7 11 21.97 22.50 1.29
3 8 11 5.91 6.51 0.80
3 9 11 11.13 10.73 0.84
3 10 11 8.63 8.97 0.86
3 11 11 10.62 9.38 2.94
3 0 12 6.86 5.51 1.66
3 1 12 6.57 7.30 1.67
3 2 12 3.27 3.26 1.53
3 3 12 1.60 0.77 1.53
3 4 12 0.80 1.00 1.46
4 0 0 388.25 391.58 3.89
4 1 0 386.65 385.73 3.87
4 2 0 40.86 40.20 0.70
4 3 0 2.11 1.75 0.31
4 4 0 35.75 36.92 0.70
4 5 0 15.74 15.39 0.50
4 6 0 130.35 131.41 1.63
4 7 0 88.75 87.92 1.26
4 8 0 136.92 132.18 1.70
4 9 0 132.37 129.96 1.72
4 10 0 68.73 68.98 1.19
4 11 0 12.61 12.64 0.61
4 12 0 243.54 239.93 2.96
4 13 0 67.17 69.07 1.31
4 14 0 3.41 2.81 0.37
4 15 0 12.42 12.62 0.72
4 16 0 89.91 90.35 1.69
4 17 0 0.96 1.18 0.34
4 18 0 1.98 2.04 0.39
4 19 0 8.87 7.24 0.66
4 20 0 0.44 0.28 0.37
4 21 0 7.24 7.97 0.62
4 22 0 0.00 0.04 0.41
4 23 0 4.09 4.78 0.51
4 24 0 21.73 21.80 1.08
4 0 1 1.41 1.46 0.29
4 1 1 146.44 148.29 1.70
4 2 1 34.50 34.55 0.66
4 3 1 149.72 150.35 1.74
4 4 1 13.21 12.11 0.46
4 5 1 60.80 59.90 0.95
4 6 1 43.36 43.40 0.82
4 7 1 247.14 244.94 2.73
4 8 1 43.08 42.88 0.86
4 9 1 4.00 4.24 0.41
4 10 1 34.19 34.16 0.83
4 11 1 268.57 265.85 3.09
4 12 1 67.39 67.62 1.27
4 13 1 44.75 42.87 1.05
4 14 1 45.70 46.07 1.13
4 15 1 45.71 44.92 1.16
4 16 1 53.59 52.35 1.28
4 17 1 17.55 17.01 0.86
4 18 1 31.62 30.95 1.07
4 19 1 40.46 42.53 1.28
4 20 1 31.76 32.61 1.18
4 21 1 7.97 7.71 0.70
4 22 1 17.41 14.26 0.96
4 23 1 2.41 2.18 0.45
4 24 1 19.50 19.57 1.05
4 25 1 4.92 5.22 0.58
4 0 2 10.62 10.71 0.44
4 1 2 264.39 263.72 2.82
4 2 2 10.63 9.67 0.44
4 3 2 74.36 74.98 1.08
4 4 2 194.08 199.54 2.24
4 5 2 138.64 135.50 1.70
4 6 2 31.73 32.27 0.73
4 7 2 182.03 176.69 2.13
4 8 2 160.73 161.11 2.00
4 9 2 5.00 5.63 0.45
4 10 2 39.78 41.13 0.93
4 11 2 18.41 18.66 0.69
4 12 2 46.64 46.22 1.06
4 13 2 0.03 0.13 0.31
4 14 2 13.80 14.39 0.73
4 15 2 15.25 15.02 0.78
4 16 2 18.14 16.51 0.84
4 17 2 20.34 19.32 0.91
4 18 2 6.06 6.10 0.54
4 19 2 10.70 11.18 0.83
4 20 2 7.65 8.42 0.61
4 21 2 8.01 9.50 0.82
4 22 2 8.53 9.69 0.66
4 23 2 18.24 17.69 1.03
4 24 2 1.78 1.61 0.42
4 0 3 4.59 4.67 0.39
4 1 3 224.14 224.10 2.47
4 2 3 39.71 38.35 0.78
4 3 3 463.55 462.86 4.67
4 4 3 96.59 94.89 1.34
4 5 3 110.24 108.21 1.48
4 6 3 5.07 5.41 0.43
4 7 3 59.82 60.33 1.08
4 8 3 88.39 86.93 1.38
4 9 3 31.30 31.91 0.83
4 10 3 17.43 16.89 0.67
4 11 3 30.47 29.63 0.86
4 12 3 41.80 41.97 1.06
4 13 3 12.54 12.29 0.70
4 14 3 23.67 22.46 0.89
4 15 3 74.50 73.50 1.52
4 16 3 27.17 27.28 1.01
4 17 3 1.55 0.95 0.36
4 18 3 20.66 21.57 0.99
4 19 3 32.68 34.97 1.20
4 20 3 13.02 13.17 0.88
4 21 3 33.71 33.70 1.25
4 22 3 27.03 25.39 1.17
4 23 3 1.04 0.99 0.41
4 24 3 15.15 13.92 0.96
4 0 4 74.89 77.13 1.19
4 1 4 123.80 123.76 1.63
4 2 4 34.48 34.04 0.79
4 3 4 97.21 96.53 1.40
4 4 4 34.02 35.04 0.81
4 5 4 85.44 87.14 1.35
4 6 4 55.41 55.96 1.07
4 7 4 43.43 42.88 0.95
4 8 4 8.44 8.91 0.54
4 9 4 2.25 1.44 0.45
4 10 4 34.49 36.02 0.95
4 11 4 23.01 24.51 0.84
4 12 4 69.39 68.85 1.40
4 13 4 25.98 26.04 0.93
4 14 4 8.42 9.18 0.63
4 15 4 42.84 39.96 1.19
4 16 4 54.64 53.82 1.40
4 17 4 61.34 59.45 1.52
4 18 4 1.87 1.58 0.41
4 19 4 9.08 8.48 0.63
4 20 4 22.84 22.48 1.09
4 21 4 18.97 20.08 1.05
4 22 4 1.92 2.09 0.47
4 23 4 63.56 63.85 1.65
4 0 5 28.61 27.87 0.77
4 1 5 22.25 22.98 0.71
4 2 5 6.09 6.18 0.49
4 3 5 166.53 163.55 2.11
4 4 5 28.39 28.54 0.79
4 5 5 84.02 84.51 1.41
4 6 5 13.27 13.75 0.62
4 7 5 35.02 35.14 0.94
4 8 5 47.01 48.13 1.09
4 9 5 46.73 44.84 1.11
4 10 5 24.51 27.11 0.89
4 11 5 8.83 9.87 0.66
4 12 5 19.67 19.29 0.87
4 13 5 6.23 6.72 0.59
4 14 5 8.90 8.49 0.64
4 15 5 2.18 1.95 0.39
4 16 5 20.73 21.16 0.99
4 17 5 9.58 10.34 0.80
4 18 5 1.83 2.30 0.44
4 19 5 5.64 5.44 0.52
4 20 5 28.88 29.00 1.19
4 21 5 1.52 2.22 0.44
4 22 5 1.06 1.08 0.41
4 0 6 0.41 0.29 0.43
4 1 6 88.91 88.30 1.50
4 2 6 14.18 15.29 0.68
4 3 6 26.81 25.69 0.84
4 4 6 12.16 11.84 0.66
4 5 6 139.60 137.79 2.01
4 6 6 41.69 41.22 1.07
4 7 6 42.63 40.34 1.08
4 8 6 56.56 54.13 1.28
4 9 6 140.03 135.51 2.11
4 10 6 27.95 26.38 0.97
4 11 6 35.25 36.48 1.09
4 12 6 61.81 63.09 1.47
4 13 6 49.50 49.24 1.32
4 14 6 12.76 12.47 0.82
4 15 6 54.13 54.56 1.46
4 16 6 17.12 18.25 0.97
4 17 6 41.34 42.29 1.35
4 18 6 25.92 26.56 1.13
4 19 6 36.72 37.01 1.30
4 20 6 1.10 1.86 0.43
4 21 6 23.31 22.46 1.11
4 0 7 139.80 138.08 2.10
4 1 7 10.45 9.42 0.72
4 2 7 13.34 12.82 0.84
4 3 7 11.54 12.10 0.82
4 4 7 65.47 65.14 1.58
4 5 7 15.81 16.38 0.90
4 6 7 19.98 20.12 0.86
4 7 7 27.30 26.12 0.96
4 8 7 53.53 51.58 1.31
4 9 7 6.45 6.23 0.59
4 10 7 42.65 43.87 1.24
4 11 7 51.57 52.05 1.38
4 12 7 37.25 39.98 1.24
4 13 7 10.62 10.51 0.73
4 14 7 31.03 30.58 1.17
4 15 7 1.44 2.12 0.43
4 16 7 2.92 3.37 0.47
4 17 7 10.03 9.40 0.77
4 18 7 6.21 5.70 0.53
4 19 7 14.30 12.91 0.91
4 20 7 1.35 1.95 0.43
4 0 8 41.54 44.26 2.09
4 1 8 19.36 19.62 1.24
4 2 8 13.87 13.72 0.91
4 3 8 12.18 11.80 0.89
4 4 8 28.04 29.16 1.18
4 5 8 4.35 4.41 0.54
4 6 8 9.93 9.03 0.76
4 7 8 34.14 32.56 1.30
4 8 8 3.90 3.73 0.54
4 9 8 92.37 89.07 2.11
4 10 8 19.58 19.15 0.99
4 11 8 9.87 8.84 0.73
4 12 8 0.34 0.85 0.39
4 13 8 53.77 52.52 1.51
4 14 8 34.45 34.09 1.26
4 15 8 1.87 2.24 0.44
4 16 8 11.09 9.80 0.78
4 17 8 0.02 0.05 0.39
4 18 8 16.15 16.25 0.99
4 0 9 19.09 19.23 1.65
4 1 9 12.63 13.71 1.49
4 2 9 12.57 13.29 1.46
4 3 9 23.53 24.17 1.20
4 4 9 56.61 59.29 1.71
4 5 9 14.10 13.89 1.01
4 6 9 38.52 36.18 1.45
4 7 9 4.99 5.60 0.62
4 8 9 83.15 85.21 2.12
4 9 9 15.83 17.02 1.11
4 10 9 18.17 19.91 1.15
4 11 9 0.13 0.35 0.52
4 12 9 23.92 23.81 1.29
4 13 9 8.88 9.29 0.76
4 14 9 10.09 11.77 0.90
4 15 9 27.36 26.53 1.15
4 16 9 1.40 2.45 0.45
4 1 10 81.05 83.01 3.22
4 2 10 14.27 14.20 1.64
4 3 10 4.09 3.10 1.29
4 4 10 30.61 30.25 1.36
4 5 10 60.48 57.75 1.82
4 6 10 28.76 28.13 1.36
4 7 10 16.56 15.58 1.11
4 8 10 14.28 15.50 1.12
4 9 10 1.41 0.77 0.51
4 10 10 14.67 15.08 1.11
4 11 10 6.62 7.07 0.68
4 12 10 1.40 1.61 0.54
4 13 10 9.76 8.68 0.71
4 0 11 29.05 27.87 2.13
4 1 11 1.79 1.62 1.33
4 2 11 3.14 3.17 1.35
4 3 11 9.78 9.02 1.57
4 4 11 34.68 33.01 2.26
4 5 11 12.93 13.13 1.35
4 6 11 0.37 0.50 0.52
4 7 11 5.67 6.75 0.67
4 8 11 22.14 20.59 1.27
4 9 11 8.80 9.84 0.86
5 1 0 40.32 40.14 0.77
5 2 0 42.84 43.62 0.83
5 3 0 234.35 230.92 2.57
5 4 0 63.05 60.98 1.02
5 5 0 72.35 73.04 1.14
5 6 0 0.01 0.10 0.32
5 7 0 11.72 11.78 0.54
5 8 0 15.85 16.34 0.62
5 9 0 25.87 25.56 0.75
5 10 0 37.77 38.55 0.93
5 11 0 36.24 36.89 0.95
5 12 0 1.52 1.61 0.48
5 13 0 12.37 12.22 0.70
5 14 0 52.16 52.61 1.25
5 15 0 16.18 15.40 0.82
5 16 0 4.60 4.58 0.43
5 17 0 11.41 10.50 0.70
5 18 0 6.24 6.28 0.64
5 19 0 0.00 0.14 0.37
5 20 0 0.12 0.44 0.38
5 21 0 1.11 0.92 0.40
5 22 0 8.69 7.94 0.63
5 24 0 3.23 2.06 0.44
5 0 1 5.57 5.96 0.41
5 1 1 133.88 133.64 1.66
5 2 1 91.74 90.91 1.29
5 3 1 387.25 381.46 3.91
5 4 1 4.93 5.30 0.41
5 5 1 36.56 35.67 0.78
5 6 1 73.32 71.10 1.17
5 7 1 155.51 154.33 1.96
5 8 1 2.53 3.20 0.42
5 9 1 58.20 58.37 1.13
5 10 1 12.28 12.73 0.61
5 11 1 66.29 68.43 1.29
5 12 1 22.14 21.76 0.82
5 13 1 21.42 19.00 0.83
5 14 1 16.04 16.20 0.78
5 15 1 217.82 218.00 2.92
5 16 1 59.81 61.42 1.44
5 17 1 4.23 4.26 0.45
5 18 1 8.27 7.71 0.68
5 19 1 52.99 53.66 1.49
5 20 1 51.13 51.75 1.46
5 21 1 3.85 3.52 0.48
5 22 1 0.73 0.90 0.41
5 23 1 1.68 1.88 0.43
5 24 1 13.44 14.66 0.94
5 0 2 330.50 330.92 3.51
5 1 2 172.77 169.45 2.05
5 2 2 0.47 0.57 0.33
5 3 2 254.15 252.42 2.84
5 4 2 87.47 85.82 1.30
5 5 2 42.82 42.63 0.88
5 6 2 7.03 6.60 0.46
5 7 2 14.13 12.94 0.58
5 8 2 29.40 29.17 0.80
5 9 2 38.16 37.47 0.92
5 10 2 0.59 1.40 0.44
5 11 2 16.40 16.28 0.72
5 12 2 126.51 124.50 1.93
5 13 2 0.41 0.48 0.33
5 14 2 7.14 7.56 0.66
5 15 2 3.35 3.08 0.39
5 16 2 59.70 60.65 1.46
5 17 2 14.91 14.73 0.86
5 18 2 10.93 11.57 0.82
5 19 2 30.62 30.39 1.14
5 20 2 2.06 2.16 0.44
5 21 2 41.38 39.12 1.33
5 22 2 0.97 1.77 0.43
5 23 2 6.02 5.36 0.57
5 24 2 6.54 7.37 0.90
5 0 3 31.76 31.14 0.77
5 1 3 199.28 198.86 2.36
5 2 3 24.18 24.50 0.69
5 3 3 9.64 9.57 0.51
5 4 3 1.34 1.36 0.38
5 5 3 68.46 68.73 1.19
5 6 3 34.10 34.83 0.85
5 7 3 64.84 64.16 1.19
5 8 3 17.99 18.62 0.69
5 9 3 8.87 9.08 0.59
5 10 3 45.03 43.31 1.06
5 11 3 27.34 25.94 0.89
5 12 3 28.44 27.49 0.93
5 13 3 19.07 19.16 0.85
5 14 3 47.21 47.13 1.23
5 15 3 3.33 3.73 0.42
5 16 3 51.22 50.94 1.38
5 17 3 23.26 23.78 1.02
5 18 3 24.01 23.99 1.06
5 19 3 3.73 4.43 0.49
5 20 3 55.29 56.64 1.57
5 21 3 8.02 8.27 0.66
5 22 3 4.43 4.81 0.51
5 23 3 9.11 8.68 0.64
5 0 4 0.07 0.28 0.37
5 1 4 72.08 69.99 1.21
5 2 4 42.65 43.71 0.95
5 3 4 30.09 28.35 0.80
5 4 4 16.78 17.30 0.66
5 5 4 7.22 6.26 0.51
5 6 4 28.22 28.42 0.84
5 7 4 30.14 30.14 0.87
5 8 4 90.19 89.56 1.53
5 9 4 1.91 2.68 0.38
5 10 4 116.16 112.10 1.83
5 11 4 34.87 34.66 1.03
5 12 4 84.33 85.80 1.63
5 13 4 3.53 4.40 0.42
5 14 4 82.51 86.21 1.72
5 15 4 19.67 20.71 0.97
5 16 4 20.60 22.22 1.00
5 17 4 9.05 8.26 0.69
5 18 4 24.22 25.56 1.09
5 19 4 74.28 75.82 1.80
5 20 4 0.44 0.05 0.38
5 21 4 42.97 44.22 1.41
5 22 4 13.34 11.75 0.94
5 0 5 7.79 7.07 0.56
5 1 5 190.24 186.34 2.39
5 2 5 32.33 31.86 0.89
5 3 5 15.66 16.11 0.68
5 4 5 73.41 73.00 1.36
5 5 5 60.54 59.59 1.25
5 6 5 18.87 18.64 0.78
5 7 5 34.95 34.53 0.97
5 8 5 52.51 50.27 1.20
5 9 5 11.78 10.93 0.70
5 10 5 19.60 18.96 0.84
5 11 5 20.00 20.42 0.89
5 12 5 0.41 0.97 0.34
5 13 5 17.99 17.78 0.90
5 14 5 41.28 42.31 1.24
5 15 5 1.39 1.32 0.39
5 16 5 18.09 18.74 0.95
5 17 5 2.99 3.68 0.47
5 18 5 28.94 29.56 1.18
5 19 5 2.78 3.15 0.48
5 20 5 12.59 11.94 0.94
5 21 5 9.97 8.82 0.66
5 0 6 48.14 47.40 1.15
5 1 6 47.04 45.48 1.12
5 2 6 12.39 11.09 0.70
5 3 6 55.79 53.99 1.23
5 4 6 52.73 49.80 1.20
5 5 6 81.96 80.32 1.55
5 6 6 12.87 13.44 0.73
5 7 6 106.15 104.80 1.83
5 8 6 22.51 21.99 0.91
5 9 6 21.25 21.08 0.88
5 10 6 67.64 69.05 1.52
5 11 6 78.43 80.15 1.67
5 12 6 0.44 0.51 0.36
5 13 6 66.59 67.32 1.60
5 14 6 54.78 53.97 1.46
5 15 6 13.52 15.29 0.91
5 16 6 4.93 5.34 0.51
5 17 6 53.42 52.85 1.53
5 18 6 7.81 7.25 0.64
5 19 6 5.16 5.23 0.52
5 20 6 0.01 0.01 0.39
5 0 7 1.15 1.49 0.37
5 1 7 29.68 29.93 1.00
5 2 7 16.85 16.74 0.85
5 3 7 4.13 4.02 0.43
5 4 7 111.08 107.66 1.89
5 5 7 10.02 10.36 0.67
5 6 7 19.63 21.03 0.91
5 7 7 9.14 9.73 0.74
5 8 7 101.40 100.27 1.89
5 9 7 10.32 11.42 0.76
5 10 7 2.11 2.01 0.41
5 11 7 4.41 4.27 0.47
5 12 7 14.06 13.27 0.79
5 13 7 13.74 16.23 0.93
5 14 7 5.45 6.41 0.54
5 15 7 17.85 18.32 1.00
5 16 7 8.54 7.87 0.74
5 17 7 4.12 4.92 0.51
5 18 7 2.48 2.94 0.47
5 0 8 37.50 36.66 1.17
5 1 8 47.91 47.80 1.31
5 2 8 3.07 3.25 0.43
5 3 8 0.49 0.69 0.36
5 4 8 20.35 19.52 0.96
5 5 8 142.34 140.34 2.34
5 6 8 0.54 1.18 0.79
5 7 8 5.11 5.27 0.49
5 8 8 2.64 2.95 0.44
5 9 8 24.48 24.17 1.06
5 10 8 2.04 2.06 0.43
5 11 8 11.09 12.73 0.88
5 12 8 8.63 8.09 0.63
5 13 8 32.30 32.49 1.26
5 14 8 8.55 8.16 0.65
5 15 8 8.32 8.82 0.65
5 16 8 10.83 11.95 0.90
5 17 8 58.64 58.96 1.59
5 0 9 0.11 0.68 0.79
5 1 9 30.92 30.09 1.14
5 2 9 35.52 35.51 1.42
5 3 9 6.75 5.50 0.61
5 4 9 5.16 6.22 0.63
5 5 9 15.37 14.20 1.06
5 6 9 27.56 27.28 1.29
5 7 9 9.42 9.54 0.84
5 8 9 0.66 1.11 0.51
5 9 9 0.70 1.32 0.41
5 10 9 20.92 21.35 1.07
5 11 9 15.13 15.53 0.99
5 12 9 0.91 1.71 0.43
5 13 9 8.47 8.78 0.66
5 14 9 6.63 6.80 0.55
5 15 9 1.98 2.63 0.45
5 0 10 75.57 75.06 3.13
5 1 10 5.34 5.21 0.90
5 2 10 2.51 2.84 0.57
5 3 10 50.44 51.17 1.72
5 4 10 24.76 24.60 1.29
5 5 10 31.48 30.03 1.45
5 6 10 5.79 6.61 0.68
5 7 10 18.22 17.85 1.18
5 8 10 6.20 6.98 0.68
5 9 10 33.63 32.74 1.42
5 10 10 0.61 0.86 0.53
5 11 10 1.19 2.03 0.54
5 12 10 5.38 5.88 0.53
5 0 11 5.29 3.74 1.52
5 1 11 24.61 23.83 2.00
5 2 11 11.43 12.29 1.61
5 3 11 17.60 16.38 1.17
5 4 11 12.26 11.00 0.91
5 5 11 0.06 0.06 0.51
5 6 11 39.07 39.76 1.53
5 7 11 2.02 2.42 0.56
6 0 0 137.15 134.13 1.76
6 1 0 64.90 66.15 1.12
6 2 0 4.84 4.83 0.44
6 3 0 32.67 31.59 0.79
6 4 0 9.43 9.91 0.51
6 5 0 78.07 76.27 1.28
6 6 0 70.44 70.35 1.24
6 7 0 86.93 84.15 1.41
6 8 0 59.38 58.80 1.17
6 9 0 0.08 0.23 0.43
6 10 0 90.13 87.71 1.56
6 11 0 0.10 0.26 0.32
6 12 0 63.89 63.90 1.36
6 13 0 20.79 21.40 0.89
6 14 0 8.91 9.22 0.64
6 15 0 26.40 28.38 1.02
6 16 0 6.81 7.27 0.63
6 17 0 8.13 8.91 0.69
6 18 0 22.21 21.16 1.03
6 19 0 5.97 6.95 0.68
6 21 0 2.44 2.26 0.44
6 22 0 24.08 23.49 1.09
6 23 0 0.13 0.67 0.40
6 0 1 41.24 39.44 0.87
6 1 1 119.66 118.21 1.63
6 2 1 85.89 85.43 1.34
6 3 1 77.09 75.93 1.26
6 4 1 86.88 87.31 1.38
6 5 1 105.29 104.25 1.55
6 6 1 9.74 9.45 0.54
6 7 1 60.82 60.85 1.18
6 8 1 53.38 52.66 1.12
6 9 1 1.64 1.46 0.47
6 10 1 1.05 1.45 0.33
6 11 1 27.10 26.58 0.90
6 12 1 12.68 12.74 0.75
6 13 1 121.03 119.21 1.98
6 14 1 39.08 41.01 1.18
6 15 1 18.26 18.49 0.89
6 16 1 10.96 11.70 0.78
6 17 1 71.59 71.67 1.65
6 18 1 63.98 66.13 1.62
6 19 1 17.54 18.46 0.99
6 20 1 12.14 13.13 0.91
6 21 1 8.77 8.01 0.65
6 22 1 23.02 21.75 1.09
6 23 1 10.32 9.30 0.86
6 0 2 18.19 19.14 0.65
6 1 2 113.82 113.61 1.62
6 2 2 177.79 173.59 2.19
6 3 2 2.98 3.30 0.43
6 4 2 0.99 0.86 0.41
6 5 2 48.35 47.16 1.02
6 6 2 8.87 9.46 0.56
6 7 2 18.28 17.88 0.71
6 8 2 47.51 46.38 1.08
6 9 2 6.49 5.43 0.57
6 10 2 108.62 105.95 1.76
6 11 2 3.24 3.69 0.41
6 12 2 30.15 30.38 1.02
6 13 2 10.19 10.72 0.67
6 14 2 93.44 90.83 1.78
6 15 2 1.24 1.01 0.36
6 16 2 8.23 6.95 0.58
6 17 2 14.28 14.20 0.89
6 18 2 6.92 7.43 0.61
6 19 2 6.31 6.90 0.60
6 20 2 1.36 1.82 0.43
6 21 2 9.67 8.70 0.76
6 22 2 5.72 6.20 0.54
6 23 2 11.71 13.38 1.54
6 0 3 11.57 12.23 0.60
6 1 3 97.53 98.89 1.53
6 2 3 17.36 16.49 0.67
6 3 3 199.84 198.67 2.46
6 4 3 66.52 66.28 1.24
6 5 3 4.31 4.52 0.51
6 6 3 23.56 24.29 0.80
6 7 3 56.24 57.13 1.20
6 8 3 23.95 22.70 0.82
6 9 3 26.43 25.20 0.89
6 10 3 0.79 1.29 0.36
6 11 3 6.57 6.79 0.51
6 12 3 22.05 20.57 0.89
6 13 3 4.14 4.36 0.43
6 14 3 47.04 47.69 1.32
6 15 3 31.74 32.05 1.13
6 16 3 29.87 28.15 1.11
6 17 3 12.28 12.70 0.87
6 18 3 69.14 69.06 1.70
6 19 3 46.23 46.64 1.46
6 20 3 3.56 2.99 0.47
6 21 3 20.90 20.77 1.09
6 22 3 29.18 28.70 1.20
6 0 4 0.65 1.05 0.43
6 1 4 95.12 93.25 1.55
6 2 4 20.49 20.84 0.76
6 3 4 55.78 56.33 1.18
6 4 4 1.98 0.91 0.49
6 5 4 37.71 36.52 1.00
6 6 4 68.22 66.42 1.35
6 7 4 4.90 4.89 0.42
6 8 4 17.53 16.76 0.78
6 9 4 40.94 39.64 1.11
6 10 4 48.65 47.91 1.24
6 11 4 2.27 2.47 0.38
6 12 4 28.32 27.12 1.01
6 13 4 3.87 4.64 0.45
6 14 4 40.61 39.36 1.24
6 15 4 4.17 3.78 0.46
6 16 4 30.49 31.67 1.17
6 17 4 80.20 79.66 1.81
6 18 4 9.87 9.80 0.79
6 19 4 31.42 31.15 1.24
6 20 4 12.07 12.26 0.91
6 21 4 55.26 54.05 1.54
6 0 5 15.51 14.18 0.74
6 1 5 65.53 64.48 1.32
6 2 5 18.58 19.50 0.80
6 3 5 107.92 105.17 1.76
6 4 5 19.98 18.93 0.81
6 5 5 4.07 4.15 0.41
6 6 5 42.56 43.46 1.13
6 7 5 11.27 10.07 0.70
6 8 5 0.14 0.26 0.36
6 9 5 33.83 33.44 1.08
6 10 5 2.07 2.27 0.38
6 11 5 20.47 19.17 0.91
6 12 5 23.28 22.98 0.99
6 13 5 8.69 9.45 0.62
6 14 5 21.05 22.45 1.03
6 15 5 2.16 1.89 0.42
6 16 5 16.44 16.69 0.99
6 17 5 1.56 1.87 0.43
6 18 5 17.72 17.60 1.00
6 19 5 6.13 5.96 0.54
6 20 5 0.27 0.09 0.38
6 0 6 52.65 50.47 1.24
6 1 6 100.72 100.27 1.77
6 2 6 73.59 71.77 1.50
6 3 6 56.68 55.43 1.32
6 4 6 18.71 19.49 0.87
6 5 6 79.50 78.96 1.60
6 6 6 70.43 73.28 1.55
6 7 6 6.86 6.28 0.48
6 8 6 11.70 10.74 0.77
6 9 6 74.96 75.36 1.65
6 10 6 13.20 12.61 0.85
6 11 6 33.86 32.92 1.17
6 12 6 39.17 40.18 1.26
6 13 6 34.82 34.47 1.24
6 14 6 13.62 13.06 0.93
6 15 6 41.27 43.19 1.36
6 16 6 26.08 28.59 1.17
6 17 6 23.13 22.62 1.09
6 18 6 8.16 8.57 0.59
6 19 6 14.20 14.20 0.94
6 0 7 17.03 17.58 0.86
6 1 7 1.82 2.23 0.39
6 2 7 49.60 49.55 1.32
6 3 7 12.25 11.72 0.79
6 4 7 7.61 8.11 0.65
6 5 7 20.52 20.53 0.92
6 6 7 95.79 97.83 1.89
6 7 7 1.53 2.30 0.42
6 8 7 18.36 18.88 0.93
6 9 7 5.27 5.05 0.54
6 10 7 57.13 57.55 1.51
6 11 7 5.07 5.08 0.50
6 12 7 16.77 17.37 1.00
6 13 7 16.57 15.42 0.97
6 14 7 12.37 13.72 0.94
6 15 7 3.05 3.49 0.48
6 16 7 0.07 0.09 0.39
6 17 7 10.68 11.82 0.86
6 18 7 6.83 7.03 0.55
6 0 8 27.17 28.23 1.08
6 1 8 1.02 1.24 0.39
6 2 8 13.49 14.70 0.86
6 3 8 49.53 49.11 1.38
6 4 8 8.21 7.74 0.69
6 5 8 3.21 3.39 0.45
6 6 8 11.90 13.12 0.89
6 7 8 50.94 52.93 1.46
6 8 8 0.27 0.72 0.39
6 9 8 2.65 3.13 0.47
6 10 8 6.61 7.79 0.66
6 11 8 18.50 17.56 1.03
6 12 8 1.42 2.40 0.45
6 13 8 10.20 10.42 0.74
6 14 8 15.18 15.22 0.97
6 15 8 40.01 41.13 1.36
6 16 8 21.92 21.07 1.08
6 0 9 37.05 38.93 1.31
6 1 9 1.02 1.11 0.41
6 2 9 11.08 11.40 0.86
6 3 9 12.38 11.18 0.81
6 4 9 9.42 8.95 0.76
6 5 9 2.47 2.70 0.45
6 6 9 11.22 13.03 0.90
6 7 9 6.60 7.01 0.56
6 8 9 27.35 30.00 1.18
6 9 9 5.07 5.81 0.54
6 10 9 41.40 42.02 1.39
6 11 9 5.84 6.55 0.61
6 12 9 34.41 36.33 1.30
6 13 9 14.14 13.92 0.94
6 0 10 3.73 4.92 0.52
6 1 10 40.43 43.38 1.39
6 2 10 44.89 45.70 1.44
6 3 10 1.22 1.61 0.45
6 4 10 5.74 7.01 0.56
6 5 10 49.63 51.50 1.51
6 6 10 7.96 8.54 0.66
6 7 10 21.22 22.52 1.12
6 8 10 0.91 1.57 0.43
6 9 10 3.88 4.53 0.50
6 0 11 6.12 7.42 0.63
6 1 11 28.39 29.55 1.38
6 2 11 3.02 4.28 0.60
7 2 0 71.98 71.29 1.30
7 3 0 13.34 13.63 0.62
7 4 0 3.91 3.80 0.50
7 5 0 54.26 52.45 1.15
7 6 0 21.82 21.06 0.79
7 7 0 2.24 2.41 0.35
7 8 0 33.82 34.59 0.99
7 9 0 43.90 42.84 1.12
7 10 0 101.07 97.78 1.75
7 11 0 32.62 32.65 1.05
7 12 0 23.99 24.23 0.94
7 13 0 0.08 0.08 0.35
7 14 0 17.85 17.37 0.89
7 15 0 16.48 15.10 0.88
7 16 0 2.90 2.48 0.43
7 17 0 12.53 11.47 0.85
7 18 0 1.58 1.23 0.41
7 19 0 3.34 3.09 0.47
7 20 0 22.66 24.78 1.11
7 21 0 17.79 17.79 1.02
7 22 0 1.11 1.43 0.44
7 0 1 220.44 218.37 2.69
7 1 1 56.85 56.27 1.14
7 2 1 16.86 15.86 0.68
7 3 1 39.90 41.37 0.99
7 4 1 68.97 69.77 1.30
7 5 1 71.68 72.71 1.36
7 6 1 39.11 39.74 1.02
7 7 1 22.89 22.77 0.83
7 8 1 0.85 1.14 0.34
7 9 1 101.24 99.89 1.75
7 10 1 19.68 18.99 0.84
7 11 1 18.63 18.13 0.86
7 12 1 0.29 0.51 0.33
7 13 1 36.07 36.85 1.15
7 14 1 20.56 18.01 0.95
7 15 1 11.55 10.69 0.79
7 16 1 17.84 17.27 0.96
7 17 1 36.22 35.82 1.26
7 18 1 41.42 42.67 1.37
7 19 1 27.14 26.23 1.15
7 20 1 11.06 11.14 0.90
7 21 1 26.16 25.11 1.15
7 22 1 33.56 33.47 1.27
7 0 2 12.25 11.45 0.63
7 1 2 2.12 2.04 0.48
7 2 2 37.68 38.63 0.98
7 3 2 28.64 28.98 0.86
7 4 2 13.35 12.58 0.66
7 5 2 48.19 50.36 1.14
7 6 2 210.65 207.85 2.68
7 7 2 7.61 7.05 0.50
7 8 2 17.82 17.41 0.80
7 9 2 24.88 23.46 0.93
7 10 2 145.06 141.71 2.21
7 11 2 10.71 10.61 0.66
7 12 2 58.30 58.07 1.41
7 13 2 5.70 5.25 0.51
7 14 2 6.31 5.74 0.50
7 15 2 17.39 19.91 0.95
7 16 2 15.68 15.10 0.93
7 17 2 6.69 6.12 0.59
7 18 2 10.63 11.18 0.87
7 19 2 1.33 1.65 0.43
7 20 2 1.07 1.88 0.44
7 21 2 0.83 0.97 0.41
7 0 3 3.75 3.74 0.53
7 1 3 118.69 117.58 1.83
7 2 3 30.86 30.03 0.92
7 3 3 17.61 17.86 0.77
7 4 3 26.32 24.43 0.86
7 5 3 102.69 102.26 1.72
7 6 3 43.56 44.11 1.12
7 7 3 11.34 11.96 0.70
7 8 3 38.29 37.28 1.08
7 9 3 6.16 5.65 0.51
7 10 3 5.97 5.96 0.51
7 11 3 6.36 5.92 0.59
7 12 3 14.41 14.81 0.84
7 13 3 20.80 21.25 0.98
7 14 3 42.57 42.36 1.31
7 15 3 14.71 16.26 0.93
7 16 3 25.68 24.45 1.13
7 17 3 33.23 32.30 1.24
7 18 3 8.31 7.87 0.64
7 19 3 22.41 21.03 1.08
7 20 3 12.67 12.59 0.91
7 21 3 9.34 8.82 0.74
7 0 4 2.12 2.61 0.38
7 1 4 65.24 65.97 1.37
7 2 4 12.35 11.88 0.71
7 3 4 24.68 23.27 0.88
7 4 4 57.21 56.74 1.29
7 5 4 51.53 51.62 1.26
7 6 4 48.17 48.32 1.22
7 7 4 4.98 4.49 0.44
7 8 4 9.46 9.10 0.64
7 9 4 17.79 16.43 0.85
7 10 4 10.97 11.75 0.78
7 11 4 14.22 13.92 0.85
7 12 4 28.21 27.09 1.07
7 13 4 40.32 39.16 1.30
7 14 4 11.93 11.74 0.86
7 15 4 37.72 38.01 1.30
7 16 4 33.35 35.27 1.25
7 17 4 22.07 23.05 1.07
7 18 4 14.72 16.02 0.98
7 19 4 26.78 25.50 1.18
7 20 4 2.84 1.93 0.44
7 0 5 2.60 2.99 0.40
7 1 5 22.62 21.93 0.89
7 2 5 21.68 21.58 0.87
7 3 5 7.93 7.20 0.61
7 4 5 31.84 31.24 1.05
7 5 5 31.91 32.45 1.06
7 6 5 26.88 27.13 1.00
7 7 5 45.94 44.67 1.25
7 8 5 62.67 62.27 1.48
7 9 5 5.19 4.79 0.47
7 10 5 43.18 43.96 1.30
7 11 5 13.31 11.95 0.84
7 12 5 30.24 27.99 1.14
7 13 5 5.06 4.56 0.49
7 14 5 52.33 52.89 1.49
7 15 5 2.51 3.13 0.47
7 16 5 12.58 12.10 0.82
7 17 5 4.13 4.01 0.49
7 18 5 6.68 5.64 0.53
7 19 5 4.66 5.45 0.52
7 0 6 14.49 14.30 0.81
7 1 6 61.29 60.97 1.45
7 2 6 74.33 76.65 1.63
7 3 6 56.61 57.29 1.43
7 4 6 53.34 54.47 1.38
7 5 6 6.38 6.45 0.54
7 6 6 12.95 12.04 0.83
7 7 6 32.32 33.44 1.17
7 8 6 28.33 28.20 1.10
7 9 6 9.74 8.85 0.71
7 10 6 7.64 7.44 0.68
7 11 6 24.01 25.06 1.07
7 12 6 7.00 6.64 0.60
7 13 6 12.40 13.33 0.91
7 14 6 9.41 10.74 0.77
7 15 6 18.43 17.35 1.02
7 16 6 20.31 18.78 1.04
7 17 6 16.50 14.71 0.98
7 18 6 7.65 6.99 0.62
7 0 7 31.65 30.39 1.13
7 1 7 1.10 1.22 0.38
7 2 7 68.99 71.88 1.65
7 3 7 8.33 8.13 0.70
7 4 7 3.27 3.10 0.44
7 5 7 4.54 4.78 0.48
7 6 7 2.93 3.24 0.45
7 7 7 20.61 22.12 1.03
7 8 7 33.76 35.27 1.23
7 9 7 18.04 17.04 1.00
7 10 7 35.74 36.74 1.29
7 11 7 13.44 12.81 0.82
7 12 7 22.23 20.40 1.09
7 13 7 7.55 7.58 0.63
7 14 7 29.10 28.85 1.24
7 15 7 6.74 6.83 0.55
7 16 7 0.01 0.19 0.81
7 0 8 0.90 1.18 0.41
7 1 8 31.48 32.02 1.22
7 2 8 69.54 70.70 1.68
7 3 8 16.42 18.10 0.97
7 4 8 6.05 6.29 0.60
7 5 8 9.39 10.42 0.84
7 6 8 3.57 4.46 0.49
7 7 8 9.25 8.60 0.73
7 8 8 3.70 3.89 0.53
7 9 8 23.92 23.32 1.11
7 10 8 1.82 2.09 0.45
7 11 8 28.64 27.42 1.18
7 12 8 16.03 17.07 1.00
7 13 8 20.63 20.91 1.05
7 14 8 2.55 2.42 0.44
7 0 9 3.77 4.63 0.51
7 1 9 3.93 4.43 0.50
7 2 9 10.29 10.36 0.79
7 3 9 6.78 7.15 0.59
7 4 9 19.12 19.16 1.04
7 5 9 11.62 10.64 0.70
7 6 9 9.58 10.26 0.73
7 7 9 3.02 3.79 0.49
7 8 9 58.00 57.25 1.59
7 9 9 0.44 0.69 0.87
7 10 9 31.12 31.54 1.22
7 11 9 6.10 6.56 0.54
7 0 10 0.28 0.22 0.42
7 1 10 31.22 31.02 1.23
7 2 10 2.83 3.91 0.48
7 3 10 63.53 65.81 1.68
7 4 10 6.56 7.42 0.56
7 5 10 0.37 0.72 0.42
7 6 10 10.20 9.67 0.88
8 0 0 2.71 2.34 0.36
8 1 0 1.26 1.71 0.35
8 2 0 49.41 49.22 1.15
8 3 0 0.08 0.14 0.33
8 4 0 2.00 2.36 0.37
8 5 0 9.98 10.56 0.68
8 6 0 134.28 130.79 2.07
8 7 0 18.20 17.91 0.85
8 8 0 5.47 5.70 0.51
8 9 0 63.40 63.87 1.47
8 10 0 17.98 17.74 0.88
8 11 0 21.85 22.70 0.96
8 12 0 9.03 10.15 0.66
8 13 0 56.27 58.21 1.49
8 14 0 1.49 1.27 0.40
8 15 0 1.59 1.78 0.42
8 16 0 34.28 36.09 1.26
8 17 0 16.74 16.95 0.97
8 18 0 0.19 0.53 0.40
8 19 0 9.76 9.24 0.67
8 20 0 0.67 0.78 0.41
8 0 1 33.99 31.39 0.98
8 1 1 30.55 30.98 0.96
8 2 1 99.56 95.96 1.67
8 3 1 0.72 1.23 0.34
8 4 1 33.66 32.51 1.00
8 5 1 68.59 66.52 1.41
8 6 1 2.27 2.54 0.39
8 7 1 21.80 21.76 0.89
8 8 1 4.65 5.08 0.49
8 9 1 62.58 60.83 1.46
8 10 1 3.91 4.32 0.44
8 11 1 4.28 3.96 0.44
8 12 1 20.55 21.14 0.99
8 13 1 25.96 26.15 1.06
8 14 1 4.33 4.53 0.49
8 15 1 18.78 18.49 0.98
8 16 1 8.70 8.69 0.76
8 17 1 17.13 18.32 1.03
8 18 1 3.27 3.91 0.49
8 19 1 40.02 40.44 1.36
8 20 1 35.26 37.32 1.30
8 0 2 0.22 0.55 0.33
8 1 2 2.41 3.11 0.39
8 2 2 32.53 32.18 1.00
8 3 2 11.51 11.37 0.72
8 4 2 131.05 128.99 2.05
8 5 2 2.86 3.07 0.41
8 6 2 50.96 49.77 1.25
8 7 2 13.78 12.45 0.80
8 8 2 177.38 181.84 2.62
8 9 2 1.92 1.96 0.38
8 10 2 24.89 23.06 0.98
8 11 2 5.02 4.19 0.45
8 12 2 26.79 27.64 1.08
8 13 2 2.86 2.74 0.44
8 14 2 27.26 27.11 1.11
8 15 2 3.70 3.69 0.47
8 16 2 21.67 21.17 1.05
8 17 2 5.18 5.37 0.53
8 18 2 4.17 2.91 0.47
8 19 2 2.23 3.01 0.47
8 20 2 10.17 10.39 0.76
8 0 3 82.29 82.59 1.60
8 1 3 2.03 1.90 0.38
8 2 3 14.60 14.67 0.79
8 3 3 35.82 34.84 1.05
8 4 3 42.71 41.93 1.17
8 5 3 22.93 22.92 0.93
8 6 3 34.11 35.73 1.09
8 7 3 34.99 34.86 1.11
8 8 3 20.82 21.20 0.91
8 9 3 59.30 59.54 1.46
8 10 3 69.34 70.75 1.62
8 11 3 10.67 10.95 0.81
8 12 3 62.63 62.93 1.58
8 13 3 34.17 37.40 1.25
8 14 3 14.80 15.89 0.93
8 15 3 0.76 0.54 0.39
8 16 3 11.19 12.24 0.89
8 17 3 2.38 3.23 0.48
8 18 3 5.06 5.96 0.53
8 19 3 1.38 1.85 0.43
8 0 4 5.37 5.50 0.49
8 1 4 13.14 14.04 0.76
8 2 4 15.86 16.31 0.82
8 3 4 45.52 45.78 1.23
8 4 4 23.01 23.72 0.95
8 5 4 10.76 12.05 0.74
8 6 4 6.23 6.89 0.51
8 7 4 39.56 41.04 1.24
8 8 4 65.34 65.11 1.55
8 9 4 24.32 24.50 1.01
8 10 4 29.27 30.72 1.14
8 11 4 56.05 54.24 1.47
8 12 4 15.14 15.64 0.91
8 13 4 24.97 24.62 1.09
8 14 4 24.93 24.94 1.13
8 15 4 36.67 38.80 1.33
8 16 4 7.40 8.39 0.59
8 17 4 6.85 7.14 0.62
8 18 4 0.38 0.55 0.39
8 0 5 0.50 0.66 0.35
8 1 5 20.86 23.36 0.95
8 2 5 17.72 18.18 0.88
8 3 5 14.42 14.84 0.84
8 4 5 15.90 17.06 0.88
8 5 5 34.19 33.87 1.16
8 6 5 46.01 46.50 1.32
8 7 5 8.47 8.30 0.69
8 8 5 36.27 36.92 1.24
8 9 5 13.69 13.45 0.89
8 10 5 49.85 49.50 1.44
8 11 5 0.55 1.10 0.40
8 12 5 55.22 53.75 1.54
8 13 5 0.89 1.23 0.42
8 14 5 6.67 5.47 0.53
8 15 5 12.93 14.03 0.94
8 16 5 9.61 10.21 0.88
8 17 5 5.24 5.40 0.52
8 0 6 83.54 85.47 1.80
8 1 6 1.87 1.88 0.41
8 2 6 8.72 8.40 0.69
8 3 6 12.16 12.29 0.85
8 4 6 36.46 36.90 1.22
8 5 6 21.35 22.37 1.02
8 6 6 14.48 16.40 0.93
8 7 6 31.20 28.30 1.18
8 8 6 13.05 12.99 0.93
8 9 6 4.74 5.27 0.51
8 10 6 0.05 0.14 0.40
8 11 6 28.64 29.52 1.22
8 12 6 0.09 0.03 0.38
8 13 6 8.78 9.80 0.73
8 14 6 2.69 3.29 0.48
8 15 6 14.31 14.78 0.98
8 16 6 17.84 18.72 1.03
8 0 7 55.42 54.74 1.53
8 1 7 4.72 5.00 0.50
8 2 7 1.12 1.31 0.41
8 3 7 11.74 11.32 0.76
8 4 7 56.91 59.94 1.57
8 5 7 1.29 1.01 0.41
8 6 7 2.77 3.11 0.46
8 7 7 36.26 35.84 1.28
8 8 7 29.15 30.41 1.22
8 9 7 9.63 10.34 0.78
8 10 7 0.14 0.13 0.43
8 11 7 30.16 28.33 1.22
8 12 7 32.72 32.74 1.24
8 13 7 7.54 8.67 0.66
8 14 7 11.40 13.17 0.93
8 0 8 45.49 47.47 1.45
8 1 8 43.01 44.83 1.42
8 2 8 10.26 9.99 0.76
8 3 8 36.19 35.28 1.30
8 4 8 11.82 11.73 0.82
8 5 8 14.93 14.14 0.97
8 6 8 8.77 8.90 0.63
8 7 8 12.81 13.37 0.94
8 8 8 3.14 3.10 0.47
8 9 8 3.13 3.91 0.49
8 10 8 4.05 4.46 0.50
8 11 8 20.88 22.44 1.09
8 0 9 6.63 6.25 0.54
8 1 9 5.41 5.81 0.54
8 2 9 19.20 19.95 1.08
8 3 9 15.91 17.14 1.01
8 4 9 19.23 17.91 1.05
8 5 9 0.61 0.90 0.43
8 6 9 41.99 44.19 1.37
8 7 9 20.73 23.19 1.11
8 8 9 6.29 7.51 0.65
9 1 0 0.47 0.57 0.33
9 2 0 23.14 24.08 0.95
9 4 0 180.15 177.80 2.62
9 5 0 0.07 0.58 0.68
9 6 0 6.02 6.69 0.54
9 7 0 7.71 7.23 0.64
9 8 0 127.94 126.42 2.20
9 9 0 5.14 4.40 0.47
9 10 0 16.53 15.78 0.91
9 11 0 25.82 25.11 1.07
9 12 0 5.52 5.54 0.51
9 13 0 6.52 6.79 0.55
9 14 0 40.35 42.30 1.37
9 15 0 37.04 37.55 1.31
9 16 0 0.09 0.11 0.41
9 18 0 4.67 4.67 0.50
9 0 1 7.39 7.45 0.54
9 1 1 12.20 11.92 0.76
9 2 1 26.20 26.59 0.99
9 3 1 14.16 13.03 0.80
9 4 1 4.77 5.88 0.51
9 5 1 7.68 6.99 0.61
9 6 1 19.42 19.70 0.91
9 7 1 40.38 39.48 1.24
9 8 1 13.63 14.34 0.84
9 9 1 37.71 38.92 1.22
9 10 1 4.54 4.33 0.48
9 11 1 34.72 34.73 1.22
9 12 1 3.49 3.28 0.46
9 13 1 59.62 59.84 1.59
9 14 1 13.63 13.68 0.94
9 15 1 4.01 4.22 0.50
9 16 1 9.45 10.28 0.85
9 17 1 22.84 21.99 1.08
9 18 1 1.34 1.40 0.42
9 0 2 113.12 112.58 1.99
9 1 2 1.40 1.82 0.37
9 2 2 4.83 4.59 0.44
9 3 2 3.12 2.81 0.41
9 4 2 92.22 92.58 1.81
9 5 2 31.84 32.76 1.10
9 6 2 10.98 10.05 0.79
9 7 2 11.96 11.21 0.82
9 8 2 6.49 6.32 0.51
9 9 2 61.64 64.13 1.57
9 10 2 9.08 10.10 0.78
9 11 2 16.17 15.94 0.93
9 12 2 19.68 19.50 1.02
9 13 2 33.92 35.50 1.29
9 14 2 11.26 10.65 0.79
9 15 2 10.05 10.94 0.85
9 16 2 16.93 18.40 1.03
9 17 2 4.21 3.69 0.48
9 18 2 12.66 13.12 0.89
9 0 3 19.46 20.23 0.90
9 1 3 19.90 20.67 0.93
9 2 3 74.71 73.92 1.61
9 3 3 0.22 0.07 0.34
9 4 3 7.82 7.81 0.57
9 5 3 21.62 21.72 1.00
9 6 3 26.90 27.97 1.09
9 7 3 16.87 16.57 0.91
9 8 3 83.70 86.51 1.84
9 9 3 8.97 10.03 0.83
9 10 3 48.23 49.94 1.43
9 11 3 15.40 15.74 0.95
9 12 3 42.69 44.64 1.38
9 13 3 4.37 3.95 0.49
9 14 3 30.61 30.76 1.24
9 15 3 2.42 3.60 0.48
9 16 3 2.05 2.17 0.44
9 17 3 4.72 4.92 0.51
9 0 4 66.87 66.89 1.59
9 1 4 0.84 1.59 0.40
9 2 4 3.06 3.46 0.44
9 3 4 13.69 15.35 0.86
9 4 4 41.33 42.66 1.28
9 5 4 18.71 19.33 0.96
9 6 4 28.72 29.28 1.09
9 7 4 14.29 13.29 0.88
9 8 4 33.53 35.24 1.23
9 9 4 18.96 20.63 1.00
9 10 4 46.04 49.29 1.47
9 11 4 0.43 0.58 0.39
9 12 4 35.61 35.89 1.27
9 13 4 1.28 1.32 0.43
9 14 4 4.49 4.49 0.50
9 15 4 5.21 5.35 0.53
9 16 4 4.82 4.76 0.51
9 0 5 70.67 69.61 1.68
9 1 5 12.34 12.29 0.86
9 2 5 43.41 43.85 1.34
9 3 5 41.15 40.43 1.30
9 4 5 13.64 13.31 0.89
9 5 5 0.62 1.15 0.40
9 6 5 16.89 17.91 0.99
9 7 5 36.72 36.86 1.26
9 8 5 19.71 20.73 1.02
9 9 5 1.51 1.61 0.43
9 10 5 2.64 2.92 0.47
9 11 5 20.94 20.88 1.06
9 12 5 10.95 11.73 0.88
9 13 5 9.29 7.83 0.65
9 14 5 2.15 2.82 0.47
9 15 5 9.50 9.50 0.76
9 0 6 0.37 0.89 0.39
9 1 6 2.58 2.87 0.45
9 2 6 16.23 16.11 0.96
9 3 6 29.60 30.46 1.18
9 4 6 9.61 9.22 0.74
9 5 6 11.34 10.89 0.86
9 6 6 9.15 10.15 0.83
9 7 6 16.09 16.08 0.98
9 8 6 3.29 3.21 0.48
9 9 6 21.98 23.90 1.11
9 10 6 5.36 5.25 0.57
9 11 6 22.06 21.21 1.07
9 12 6 7.76 9.25 0.74
9 13 6 8.18 7.88 0.57
9 0 7 18.95 18.42 1.03
9 1 7 5.48 6.09 0.60
9 2 7 21.42 20.82 1.08
9 3 7 5.10 5.53 0.53
9 4 7 20.68 19.74 1.07
9 5 7 18.97 20.21 1.07
9 6 7 62.81 63.54 1.66
9 7 7 1.02 1.36 0.42
9 8 7 21.35 21.21 1.05
9 9 7 12.14 11.57 0.93
9 10 7 12.63 13.48 0.93
9 11 7 1.29 1.41 0.42
9 0 8 4.01 4.41 0.50
9 1 8 2.36 2.36 0.45
9 2 8 2.96 2.97 0.47
9 3 8 13.06 13.71 0.95
9 4 8 23.42 23.72 1.14
9 5 8 7.58 6.99 0.62
9 6 8 16.86 19.03 1.01
9 7 8 28.66 29.51 1.21
9 8 8 4.28 5.10 0.51
10 0 0 272.70 274.70 3.60
10 1 0 0.00 0.08 0.74
10 2 0 9.97 10.34 0.79
10 3 0 1.27 1.76 0.41
10 4 0 118.28 120.04 2.17
10 5 0 11.75 10.56 0.82
10 6 0 23.56 24.67 1.06
10 7 0 1.06 1.33 0.41
10 8 0 3.38 3.10 0.46
10 9 0 20.10 18.66 1.00
10 10 0 4.32 3.73 0.48
10 11 0 2.00 2.46 0.45
10 12 0 1.06 1.94 0.44
10 14 0 7.27 7.51 0.71
10 15 0 1.37 1.60 0.43
10 16 0 0.41 0.15 0.38
10 0 1 0.70 0.75 0.37
10 1 1 40.22 41.25 1.28
10 2 1 12.36 13.32 0.80
10 3 1 18.82 19.26 0.95
10 4 1 14.02 13.20 0.89
10 5 1 5.79 5.85 0.56
10 6 1 40.88 41.77 1.31
10 7 1 11.76 11.93 0.78
10 8 1 2.03 2.19 0.43
10 9 1 8.76 10.14 0.84
10 10 1 10.99 11.13 0.86
10 11 1 49.56 48.98 1.47
10 12 1 10.33 9.01 0.77
10 13 1 9.39 9.40 0.68
10 14 1 9.42 8.92 0.76
10 15 1 16.75 17.09 1.00
10 16 1 2.28 2.38 0.44
10 0 2 54.39 52.13 1.44
10 1 2 3.88 3.70 0.46
10 2 2 50.75 51.09 1.44
10 3 2 13.40 14.52 0.88
10 4 2 17.16 18.97 0.95
10 5 2 6.13 5.39 0.50
10 6 2 2.51 2.72 0.44
10 7 2 37.22 37.30 1.26
10 8 2 7.83 7.46 0.71
10 9 2 2.34 2.73 0.45
10 10 2 32.58 32.92 1.26
10 11 2 45.23 44.96 1.43
10 12 2 1.61 2.35 0.45
10 13 2 0.58 0.97 0.41
10 14 2 35.63 35.07 1.28
10 15 2 33.46 33.68 1.26
10 0 3 8.87 7.65 0.70
10 1 3 0.71 0.73 0.38
10 2 3 15.61 15.27 0.90
10 3 3 5.04 5.14 0.50
10 4 3 15.75 15.74 0.92
10 5 3 8.52 8.33 0.63
10 6 3 57.25 58.24 1.54
10 7 3 2.25 2.45 0.44
10 9 3 10.72 10.94 0.87
10 10 3 24.35 23.26 1.13
10 11 3 1.70 1.83 0.43
10 12 3 20.96 22.17 1.07
10 13 3 27.81 27.68 1.19
10 14 3 2.02 2.55 0.45
10 15 3 4.03 2.51 0.45
10 0 4 2.82 3.23 0.46
10 1 4 8.63 8.87 0.72
10 2 4 14.57 14.92 0.90
10 3 4 18.96 18.12 1.01
10 4 4 13.57 15.75 0.94
10 5 4 34.38 33.02 1.24
10 6 4 4.68 3.95 0.48
10 7 4 39.72 39.55 1.37
10 8 4 21.23 22.38 1.09
10 9 4 13.72 15.85 0.96
10 10 4 22.77 23.15 1.12
10 11 4 20.47 21.38 1.08
10 12 4 1.13 1.55 0.43
10 13 4 0.79 0.96 0.41
10 14 4 20.77 20.04 1.05
10 0 5 17.04 18.22 1.00
10 1 5 31.99 32.99 1.24
10 2 5 32.59 30.68 1.24
10 3 5 1.13 1.29 0.42
10 4 5 22.65 23.46 1.09
10 5 5 56.89 57.87 1.61
10 6 5 18.21 20.09 1.06
10 7 5 2.55 2.23 0.45
10 8 5 11.82 12.73 0.90
10 9 5 42.97 42.05 1.41
10 10 5 12.47 13.30 0.95
10 11 5 2.21 2.19 0.45
10 12 5 10.78 9.46 0.78
10 0 6 0.09 0.18 0.41
10 1 6 9.57 9.43 0.64
10 2 6 11.89 11.85 0.93
10 3 6 0.17 0.45 0.39
10 4 6 2.02 2.01 0.44
10 5 6 3.40 4.01 0.50
10 6 6 3.48 3.21 0.47
10 7 6 13.09 13.26 0.85
10 8 6 5.91 6.37 0.54
10 9 6 6.84 6.76 0.61
10 10 6 14.98 15.84 0.96
10 0 7 3.20 3.45 0.48
10 1 7 4.75 5.89 0.53
10 2 7 87.53 86.69 1.95
10 3 7 3.47 3.73 0.48
10 4 7 9.11 9.38 0.77
10 5 7 4.60 4.70 0.50
10 6 7 37.25 37.55 1.31
10 7 7 11.43 11.89 0.91
11 1 0 0.57 0.79 0.39
11 2 0 190.44 187.26 2.92
11 3 0 10.81 10.61 0.79
11 4 0 0.83 0.67 0.39
11 5 0 0.42 0.38 0.40
11 6 0 17.01 20.12 1.05
11 7 0 59.73 59.75 1.60
11 8 0 0.43 0.91 0.41
11 9 0 1.23 1.74 0.43
11 10 0 11.09 10.60 0.80
11 11 0 54.51 56.74 1.56
11 12 0 5.12 4.55 0.50
11 13 0 11.01 9.90 0.80
11 0 1 0.03 0.31 0.38
11 1 1 31.66 31.09 1.21
11 2 1 1.48 1.61 0.43
11 3 1 9.78 8.77 0.74
11 4 1 8.14 8.25 0.63
11 5 1 27.19 26.74 1.15
11 6 1 1.64 1.67 0.43
11 7 1 27.38 29.10 1.17
11 8 1 14.80 15.40 0.97
11 9 1 2.81 2.15 0.45
11 10 1 7.22 8.14 0.65
11 11 1 5.39 5.32 0.52
11 12 1 0.77 0.88 0.41
11 13 1 13.76 13.77 0.81
11 0 2 8.77 7.69 0.71
11 1 2 9.50 10.32 0.84
11 2 2 17.33 14.86 0.98
11 3 2 22.38 21.39 1.09
11 4 2 10.87 13.21 0.89
11 5 2 1.05 1.52 0.43
11 6 2 1.86 1.98 0.44
11 7 2 19.98 20.31 1.06
11 8 2 8.67 9.61 0.77
11 9 2 2.22 2.32 0.45
11 10 2 3.26 3.27 0.48
11 11 2 21.31 22.18 1.08
11 12 2 6.71 6.11 0.59
11 0 3 16.66 16.29 0.97
11 1 3 18.97 19.88 1.02
11 2 3 9.32 8.91 0.74
11 3 3 0.92 0.62 0.40
11 4 3 29.21 28.32 1.19
11 5 3 17.20 19.65 1.02
11 6 3 17.43 18.66 1.03
11 7 3 13.56 12.87 0.93
11 8 3 16.15 15.71 1.01
11 9 3 2.63 3.21 0.47
11 10 3 3.72 3.79 0.48
11 11 3 18.39 16.68 1.02
11 0 4 7.70 7.15 0.63
11 1 4 13.61 14.89 0.96
11 2 4 27.81 28.36 1.18
11 3 4 35.43 36.24 1.31
11 4 4 7.34 7.61 0.58
11 5 4 3.49 3.34 0.47
11 6 4 15.59 16.87 0.96
11 7 4 5.46 5.20 0.53
11 8 4 0.96 1.44 0.42
11 9 4 12.76 11.18 0.80
11 10 4 4.03 3.46 0.47
11 0 5 7.58 9.19 0.68
11 1 5 14.77 14.84 0.99
11 2 5 35.47 35.86 1.31
11 3 5 22.73 23.21 1.07
11 4 5 2.24 2.47 0.45
11 5 5 3.73 3.15 0.47
11 6 5 47.19 49.28 1.51
11 7 5 11.44 12.47 0.89
11 8 5 0.07 0.27 0.41
11 0 6 19.70 18.62 1.05
11 1 6 5.11 4.89 0.51
11 2 6 0.46 0.94 0.43
11 3 6 28.19 28.45 1.18
11 4 6 6.55 7.13 0.61
12 0 0 9.99 9.14 0.68
12 1 0 12.98 14.17 0.96
12 2 0 5.18 5.47 0.59
12 3 0 25.63 25.27 1.14
12 4 0 2.17 2.38 0.45
12 5 0 18.19 17.93 1.00
12 6 0 21.22 20.84 1.05
12 7 0 7.47 8.20 0.58
12 8 0 0.54 0.61 0.41
12 9 0 36.87 36.56 1.30
12 0 1 11.96 12.59 0.90
12 1 1 4.79 5.22 0.52
12 2 1 4.61 3.88 0.49
12 3 1 24.62 22.85 1.12
12 4 1 7.55 9.01 0.70
12 5 1 37.45 35.14 1.31
12 6 1 0.21 0.53 0.40
12 7 1 21.31 23.19 1.12
12 8 1 9.11 10.27 0.86
12 0 2 0.79 1.01 0.41
12 1 2 5.28 5.23 0.52
12 2 2 49.69 48.37 1.51
12 3 2 1.17 1.55 0.43
12 4 2 9.26 8.81 0.76
12 5 2 8.08 7.89 0.63
12 6 2 15.95 15.39 1.00
12 7 2 4.99 4.99 0.51
12 8 2 5.70 5.41 0.59
12 0 3 0.20 1.08 0.85
12 1 3 16.32 18.36 0.99
12 2 3 0.34 0.84 0.41
12 3 3 20.43 21.15 1.07
12 4 3 1.14 1.89 0.43
12 5 3 6.72 7.16 0.71
12 6 3 1.04 0.91 0.41
12 0 4 12.21 14.46 0.94
12 1 4 45.06 44.87 1.41
12 2 4 7.79 9.23 0.85
12 3 4 16.87 17.45 1.01
