#------------------------------------------------------------------------------
#$Date: 2022-03-02 05:20:08 +0200 (Wed, 02 Mar 2022) $
#$Revision: 273207 $
#$URL: file:///home/coder/svn-repositories/cod/cif/1/56/64/1566442.cif $
#------------------------------------------------------------------------------
#
# This file is available in the Crystallography Open Database (COD),
# http://www.crystallography.net/. The original data for this entry
# were provided by IUCr Journals, http://journals.iucr.org/.
#
# The file may be used within the scientific community so long as
# proper attribution is given to the journal article from which the
# data were obtained.
#
data_1566442
loop_
_publ_author_name
'Ruth, Paul Niklas'
'Herbst-Irmer, Regine'
'Stalke, Dietmar'
_publ_section_title
;
 Hirshfeld atom refinement based on projector augmented wave densities
 with periodic boundary conditions
;
_journal_issue                   2
_journal_name_full               IUCrJ
_journal_page_first              286
_journal_page_last               297
_journal_paper_doi               10.1107/S2052252522001385
_journal_volume                  9
_journal_year                    2022
_chemical_absolute_configuration syn
_chemical_formula_moiety         'C3 H7 N O2'
_chemical_formula_sum            'C3 H7 N O2'
_chemical_formula_weight         89.0947
_space_group_crystal_system      orthorhombic
_space_group_IT_number           19
_space_group_name_Hall           'P 2ac 2ab'
_space_group_name_H-M_alt        'P 21 21 21'
_atom_sites_solution_hydrogens   difmap
_audit_creation_method           'xHARPY 0.1'
_cell_angle_alpha                90
_cell_angle_beta                 90
_cell_angle_gamma                90
_cell_formula_units_Z            4
_cell_length_a                   5.9279(10)
_cell_length_b                   12.2597(17)
_cell_length_c                   5.7939(9)
_cell_measurement_reflns_used    1524
_cell_measurement_temperature    23
_cell_measurement_theta_max      22.5
_cell_measurement_theta_min      15.0
_cell_volume                     421.07(11)
_computing_publication_material  'xHARPY 0.1'
_computing_structure_refinement  'xHARPY 0.1'
_computing_structure_solution    'SHELXS-2013 (Sheldrick, 2008)'
_diffrn_ambient_temperature      23
_diffrn_measured_fraction_theta_full 0.994
_diffrn_measured_fraction_theta_max 0.993
_diffrn_measurement_device_type  'P-1 four circle diffractometer'
_diffrn_measurement_method       'area detector'
_diffrn_radiation_type           MoK\a
_diffrn_radiation_wavelength     0.71073
_diffrn_reflns_av_unetI/netI     0.0243
_diffrn_reflns_Laue_measured_fraction_full 0.994
_diffrn_reflns_Laue_measured_fraction_max 0.993
_diffrn_reflns_limit_h_max       12
_diffrn_reflns_limit_h_min       0
_diffrn_reflns_limit_k_max       26
_diffrn_reflns_limit_k_min       0
_diffrn_reflns_limit_l_max       12
_diffrn_reflns_limit_l_min       0
_diffrn_reflns_number            2519
_diffrn_reflns_point_group_measured_fraction_full 0.618
_diffrn_reflns_point_group_measured_fraction_max 0.567
_diffrn_reflns_theta_full        25.242
_diffrn_reflns_theta_max         50.138
_diffrn_reflns_theta_min         3.323
_exptl_absorpt_coefficient_mu    0.117
_exptl_absorpt_correction_type   none
_exptl_crystal_colour            colorless
_exptl_crystal_density_diffrn    1.405
_exptl_crystal_density_method    'not measured'
_exptl_crystal_description       sphere
_exptl_crystal_F_000             192
_exptl_crystal_size_rad          0.18
_refine_diff_density_max         0.1848
_refine_diff_density_min         -0.1875
_refine_diff_density_rms         0.0434
_refine_ls_extinction_method     none
_refine_ls_goodness_of_fit_ref   1.117
_refine_ls_hydrogen_treatment    refall
_refine_ls_matrix_type           full
_refine_ls_number_parameters     118
_refine_ls_number_reflns         2519
_refine_ls_number_restraints     0
_refine_ls_R_factor_all          0.0207
_refine_ls_R_factor_gt           0.0188
_refine_ls_shift/su_max          0.0
_refine_ls_shift/su_mean         0.0
_refine_ls_structure_factor_coef Fsqd
_refine_ls_weighting_details     w=1/[\s^2^(Fo^2^)]
_refine_ls_weighting_scheme      sigma
_refine_ls_wR_factor_gt          0.0312
_refine_ls_wR_factor_ref         0.0314
_reflns_Friedel_coverage         0.0
_reflns_Friedel_fraction_full    0.0
_reflns_Friedel_fraction_max     0.0
_reflns_number_gt                2393
_reflns_number_total             2519
_reflns_threshold_expression     'I > 2\s(I)'
_cod_data_source_file            fc5060.cif
_cod_data_source_block           A23_xHARPy_TPSS
_cod_database_code               1566442
loop_
_space_group_symop_operation_xyz
'x, y, z'
'-x+1/2, -y, z+1/2'
'x+1/2, -y+1/2, -z'
'-x, y+1/2, -z+1/2'
loop_
_atom_site_label
_atom_site_type_symbol
_atom_site_fract_x
_atom_site_fract_y
_atom_site_fract_z
_atom_site_U_iso_or_equiv
_atom_site_adp_type
_atom_site_occupancy
_atom_site_site_symmetry_order
O1 O 0.72674(4) 0.083788(17) 0.62434(4) 0.00662(3) Uani 1.0 1
O2 O 0.44093(4) 0.184041(16) 0.76113(4) 0.00644(3) Uani 1.0 1
N1 N 0.64720(4) 0.137514(20) 0.18303(5) 0.00525(3) Uani 1.0 1
H1 H 0.7035(11) 0.0603(5) 0.1961(14) 0.0239(19) Uani 1.0 1
H2 H 0.7786(10) 0.1898(5) 0.2083(14) 0.0202(17) Uani 1.0 1
H3 H 0.5849(12) 0.1492(5) 0.0151(12) 0.0200(17) Uani 1.0 1
C1 C 0.46633(4) 0.161080(20) 0.35443(5) 0.00432(3) Uani 1.0 1
H4 H 0.4242(9) 0.2477(4) 0.3390(11) 0.0197(15) Uani 1.0 1
C2 C 0.25991(5) 0.09067(2) 0.30334(6) 0.00679(4) Uani 1.0 1
H5 H 0.1930(10) 0.1104(5) 0.1321(12) 0.0286(19) Uani 1.0 1
H6 H 0.1280(10) 0.1048(5) 0.4294(13) 0.0288(19) Uani 1.0 1
H7 H 0.3048(10) 0.0047(5) 0.3075(14) 0.0306(20) Uani 1.0 1
C3 C 0.55407(5) 0.140793(20) 0.59993(5) 0.00408(3) Uani 1.0 1
loop_
_atom_site_aniso_label
_atom_site_aniso_U_11
_atom_site_aniso_U_22
_atom_site_aniso_U_33
_atom_site_aniso_U_23
_atom_site_aniso_U_13
_atom_site_aniso_U_12
O1 0.00680(7) 0.00723(6) 0.00583(8) 0.00050(6) -0.00061(6) 0.00247(6)
O2 0.00763(7) 0.00764(6) 0.00404(7) -0.00057(6) 0.00057(6) 0.00201(6)
N1 0.00562(7) 0.00598(7) 0.00415(8) -0.00008(6) 0.00047(6) 0.00006(6)
H1 0.026(4) 0.025(4) 0.021(5) 0.001(4) 0.009(4) 0.005(3)
H2 0.014(3) 0.024(4) 0.023(5) 0.002(4) 0.007(4) -0.000(3)
H3 0.030(4) 0.022(4) 0.008(4) -0.005(3) 0.006(4) -0.006(4)
C1 0.00498(8) 0.00456(7) 0.00344(9) 0.00004(6) -0.00028(7) 0.00043(6)
H4 0.023(3) 0.016(3) 0.020(4) 0.004(3) 0.006(3) 0.010(3)
C2 0.00570(8) 0.00873(8) 0.00594(10) -0.00042(8) -0.00060(7) -0.00130(7)
H5 0.024(4) 0.049(5) 0.013(4) 0.009(4) -0.011(3) -0.012(4)
H6 0.015(3) 0.036(4) 0.035(5) 0.004(4) 0.005(4) -0.002(3)
H7 0.034(5) 0.017(3) 0.041(5) -0.004(3) 0.004(4) -0.006(3)
C3 0.00478(7) 0.00419(7) 0.00326(9) 0.00002(6) -0.00030(7) 0.00027(7)
loop_
_atom_type_symbol
_atom_type_description
_atom_type_scat_dispersion_real
_atom_type_scat_dispersion_imag
_atom_type_scat_source
C C 0.0033 0.0016 'HAR in xHARPy 0.1'
H H 0.0000 0.0000 'HAR in xHARPy 0.1'
N N 0.0061 0.0033 'HAR in xHARPy 0.1'
O O 0.0106 0.0060 'HAR in xHARPy 0.1'
loop_
_geom_angle_atom_site_label_1
_geom_angle_atom_site_label_2
_geom_angle_atom_site_label_3
_geom_angle
C1 N1 H1 111.8(4)
C1 N1 H2 109.4(4)
H1 N1 H2 109.1(5)
C1 N1 H3 109.7(4)
H1 N1 H3 108.3(6)
H2 N1 H3 108.4(5)
N1 C1 C2 109.76(2)
N1 C1 C3 110.03(2)
C2 C1 C3 111.09(2)
N1 C1 H4 107.3(3)
C2 C1 H4 110.5(3)
C3 C1 H4 108.1(3)
C1 C2 H5 109.9(3)
C1 C2 H6 110.9(3)
H5 C2 H6 108.3(4)
C1 C2 H7 110.3(3)
H5 C2 H7 108.8(5)
H6 C2 H7 108.5(5)
O1 C3 O2 125.84(3)
O1 C3 C1 118.29(2)
O2 C3 C1 115.87(2)
loop_
_geom_bond_atom_site_label_1
_geom_bond_atom_site_label_2
_geom_bond_distance
O1 C3 1.2474(4)
O2 C3 1.2662(4)
N1 C1 1.4898(4)
N1 H1 1.007(7)
N1 H2 1.019(6)
N1 H3 1.051(7)
C1 C2 1.5264(4)
C1 C3 1.5348(4)
C1 H4 1.095(5)
C2 H5 1.095(7)
C2 H6 1.084(7)
C2 H7 1.088(6)
loop_
_refln_index_h
_refln_index_k
_refln_index_l
_refln_F_squared_calc
_refln_F_squared_meas
_refln_F_squared_sigma
0 2 0 182.53 184.46 1.76
0 4 0 5379.24 5204.82 44.61
0 6 0 90.13 90.02 1.05
0 8 0 45.40 45.52 0.72
0 10 0 0.63 0.80 0.34
0 12 0 237.82 233.63 2.67
0 14 0 56.65 58.79 1.13
0 16 0 24.79 25.34 0.86
0 18 0 226.66 228.49 2.99
0 20 0 0.02 0.22 0.34
0 22 0 133.77 136.04 2.36
0 24 0 0.06 0.23 0.38
0 26 0 5.56 6.47 0.62
0 1 1 730.49 727.11 7.35
0 2 1 118.05 119.98 1.22
0 3 1 697.63 711.21 6.42
0 4 1 95.63 98.64 1.07
0 5 1 0.32 0.23 0.17
0 6 1 476.57 476.73 4.59
0 7 1 36.71 37.07 0.61
0 8 1 44.36 44.52 0.73
0 9 1 32.47 32.20 0.67
0 10 1 135.59 137.82 1.70
0 11 1 67.73 66.97 1.11
0 12 1 77.32 76.63 1.23
0 13 1 19.77 18.90 0.69
0 14 1 39.34 38.05 0.95
0 15 1 91.67 91.31 1.56
0 16 1 0.33 2.39 9.23
0 17 1 0.90 1.13 0.35
0 18 1 61.81 60.10 1.37
0 19 1 15.77 16.22 0.90
0 20 1 27.98 27.54 1.05
0 21 1 2.08 2.70 0.42
0 23 1 1.77 1.74 0.42
0 24 1 0.03 0.17 0.39
0 25 1 2.31 3.00 0.56
0 26 1 19.83 19.86 1.24
0 0 2 2916.16 2852.98 33.43
0 1 2 518.75 535.14 6.58
0 2 2 175.19 182.24 2.08
0 3 2 56.66 56.40 0.80
0 4 2 171.76 171.84 1.80
0 5 2 557.54 568.93 5.34
0 6 2 92.41 97.07 1.17
0 7 2 5.19 5.44 0.34
0 8 2 109.20 112.14 1.40
0 9 2 21.82 23.77 0.60
0 10 2 46.15 46.42 0.86
0 11 2 84.28 84.09 1.27
0 12 2 28.48 28.36 0.75
0 13 2 21.97 21.57 0.70
0 14 2 22.42 21.37 0.75
0 15 2 182.42 182.00 2.40
0 16 2 4.00 4.46 0.41
0 17 2 63.51 61.29 1.39
0 18 2 19.56 20.48 0.91
0 19 2 118.59 120.33 2.10
0 20 2 0.88 0.98 0.41
0 21 2 46.29 46.11 1.37
0 22 2 37.43 36.95 1.29
0 23 2 16.83 18.08 1.03
0 24 2 1.81 2.50 0.46
0 25 2 22.01 22.55 1.27
0 26 2 1.72 2.57 0.50
0 1 3 82.72 84.30 1.75
0 2 3 156.25 158.35 2.94
0 3 3 203.14 206.19 2.46
0 4 3 718.67 741.76 7.80
0 5 3 79.67 81.62 1.20
0 6 3 268.80 273.36 2.85
0 7 3 22.22 22.49 0.57
0 8 3 61.34 61.88 1.00
0 9 3 146.55 143.26 1.79
0 10 3 39.94 39.77 0.84
0 11 3 68.61 70.63 1.18
0 12 3 119.56 119.36 1.70
0 13 3 144.87 146.05 2.01
0 14 3 29.26 27.92 0.86
0 15 3 91.01 90.79 1.59
0 16 3 156.15 155.36 2.27
0 17 3 48.82 47.39 1.24
0 18 3 28.04 27.10 1.00
0 19 3 3.10 2.51 0.41
0 20 3 43.79 44.60 1.34
0 21 3 0.84 0.88 0.39
0 22 3 0.61 1.16 0.41
0 23 3 26.82 28.26 1.17
0 24 3 12.26 12.76 0.91
0 25 3 5.75 5.00 0.58
0 0 4 211.17 210.45 3.92
0 1 4 38.77 39.97 1.21
0 2 4 92.10 93.40 2.06
0 3 4 7.76 8.03 0.45
0 4 4 226.03 230.32 2.85
0 5 4 0.35 0.68 0.37
0 6 4 71.63 71.20 1.23
0 7 4 30.08 29.32 0.78
0 8 4 65.67 64.72 1.08
0 9 4 7.20 7.22 0.46
0 10 4 88.08 90.67 1.39
0 11 4 97.66 98.34 1.52
0 12 4 39.36 39.15 0.96
0 13 4 10.92 11.53 0.65
0 14 4 144.23 142.95 2.09
0 15 4 46.19 45.43 1.18
0 16 4 95.01 95.03 1.75
0 17 4 5.29 5.73 0.46
0 18 4 10.18 9.67 0.74
0 19 4 3.86 3.37 0.44
0 20 4 1.66 1.84 0.41
0 21 4 0.46 0.19 0.37
0 22 4 3.59 4.37 0.50
0 23 4 0.03 0.12 0.40
0 24 4 25.82 26.67 1.14
0 25 4 2.25 2.91 0.51
0 1 5 241.93 236.98 4.53
0 2 5 140.41 137.78 2.96
0 3 5 50.08 49.39 1.54
0 4 5 387.98 390.52 4.60
0 5 5 180.90 178.38 2.44
0 6 5 0.71 0.78 0.41
0 7 5 6.90 6.65 0.53
0 8 5 148.74 145.76 2.19
0 9 5 73.28 69.61 1.43
0 10 5 9.18 7.98 0.55
0 11 5 21.88 20.82 0.78
0 12 5 1.38 1.49 0.33
0 13 5 77.58 79.47 1.51
0 14 5 2.81 3.53 0.41
0 15 5 13.34 14.15 0.79
0 16 5 13.94 13.33 0.80
0 17 5 73.87 77.30 1.66
0 18 5 2.71 2.34 0.42
0 19 5 14.23 13.67 0.90
0 20 5 0.17 0.30 0.40
0 21 5 21.18 19.71 1.04
0 22 5 4.73 5.51 0.53
0 23 5 14.26 12.57 0.96
0 24 5 0.33 0.26 0.38
0 0 6 0.68 0.79 0.63
0 1 6 94.92 94.09 2.46
0 2 6 15.49 16.26 1.03
0 3 6 1.01 1.49 0.65
0 4 6 17.08 16.05 1.09
0 5 6 85.75 86.58 1.58
0 6 6 12.21 11.22 0.66
0 7 6 145.09 142.57 2.25
0 8 6 31.63 30.11 0.99
0 9 6 12.60 14.40 0.78
0 10 6 15.74 15.67 0.83
0 11 6 119.08 117.64 1.91
0 12 6 6.37 6.33 0.56
0 13 6 4.36 4.80 0.48
0 14 6 10.90 11.73 0.74
0 15 6 0.02 0.09 0.34
0 16 6 43.82 41.69 1.28
0 17 6 29.30 29.23 1.11
0 18 6 6.95 7.83 0.69
0 19 6 43.56 44.38 1.39
0 20 6 1.31 1.85 0.43
0 21 6 22.52 21.38 1.09
0 22 6 10.34 10.62 0.78
0 23 6 17.03 17.06 1.00
0 1 7 62.01 58.99 2.06
0 2 7 554.55 543.21 9.76
0 3 7 0.00 0.47 0.77
0 4 7 12.01 11.83 1.10
0 5 7 24.86 24.17 1.44
0 6 7 43.11 43.33 1.22
0 7 7 47.47 46.82 1.28
0 8 7 1.52 1.96 0.44
0 9 7 4.46 4.96 0.52
0 10 7 10.31 9.25 0.81
0 11 7 30.15 31.51 1.19
0 12 7 5.06 5.86 0.64
0 13 7 13.22 11.68 0.80
0 14 7 1.05 1.48 0.39
0 16 7 83.80 82.00 1.82
0 17 7 0.52 1.06 0.40
0 18 7 1.42 2.31 0.44
0 19 7 5.26 6.89 0.56
0 20 7 137.81 135.73 2.46
0 21 7 0.40 0.91 0.40
0 0 8 26.17 24.57 1.51
0 1 8 3.00 3.60 0.95
0 2 8 9.67 8.74 1.15
0 3 8 16.74 15.78 1.35
0 4 8 1.91 1.74 0.95
0 6 8 10.22 10.31 0.82
0 7 8 58.57 59.85 1.57
0 8 8 89.64 87.83 1.93
0 9 8 11.30 12.31 0.87
0 10 8 5.34 6.57 0.70
0 11 8 41.30 40.24 1.41
0 12 8 40.19 40.38 1.45
0 13 8 32.79 32.27 1.35
0 14 8 11.11 12.59 0.99
0 15 8 0.07 0.56 0.39
0 16 8 0.59 1.00 0.40
0 17 8 7.23 6.59 0.55
0 18 8 0.30 0.58 0.40
0 19 8 10.36 9.26 0.77
0 20 8 5.66 6.18 0.53
0 1 9 6.74 8.55 1.17
0 2 9 48.51 46.55 2.20
0 3 9 63.03 63.58 2.54
0 4 9 21.23 22.30 1.63
0 5 9 1.31 1.66 0.96
0 6 9 1.33 1.59 0.99
0 7 9 47.79 46.70 1.53
0 8 9 79.70 79.95 1.95
0 9 9 17.23 16.54 1.07
0 10 9 13.91 13.90 1.02
0 11 9 1.77 2.25 0.53
0 12 9 35.64 35.02 1.40
0 13 9 29.21 29.26 1.34
0 14 9 0.67 0.29 0.49
0 15 9 46.36 47.48 1.65
0 16 9 13.54 14.51 1.10
0 17 9 15.41 15.58 0.99
0 18 9 8.38 8.62 0.64
0 0 10 5.23 4.83 1.23
0 1 10 0.00 0.01 1.01
0 2 10 21.27 20.78 1.74
0 3 10 49.40 49.15 2.42
0 4 10 27.87 28.45 1.95
0 5 10 32.79 32.82 2.07
0 6 10 41.36 41.77 2.34
0 7 10 54.25 54.56 2.61
0 8 10 58.66 60.43 1.81
0 9 10 6.69 6.76 0.66
0 10 10 1.23 1.87 0.52
0 11 10 17.62 16.44 1.15
0 12 10 12.05 13.47 0.93
0 13 10 11.56 12.59 1.05
0 14 10 46.42 43.74 1.63
0 15 10 5.06 5.88 0.65
0 1 11 0.64 0.48 1.22
0 2 11 2.02 2.71 1.24
0 3 11 7.69 6.82 1.49
0 4 11 1.14 0.92 1.29
0 5 11 1.54 0.90 1.29
0 6 11 8.88 7.75 1.54
0 7 11 2.46 3.11 1.36
0 8 11 7.91 8.43 1.54
0 9 11 7.77 8.03 0.77
0 10 11 0.78 1.58 0.54
0 11 11 9.26 8.38 0.84
0 12 11 31.58 30.27 1.41
0 0 12 0.04 2.49 9.23
0 1 12 28.99 27.11 2.26
0 2 12 19.08 20.28 1.97
0 3 12 119.52 116.66 3.97
0 4 12 0.33 0.42 1.42
0 5 12 9.41 9.82 1.72
0 6 12 54.76 55.99 2.77
0 7 12 69.62 65.07 3.05
1 1 0 252.75 252.48 2.37
1 2 0 5389.15 5508.38 58.33
1 3 0 58.58 59.34 0.69
1 4 0 1722.34 1685.10 14.83
1 5 0 335.59 339.71 3.30
1 6 0 63.71 62.12 0.80
1 7 0 19.26 19.33 0.44
1 8 0 396.94 403.73 4.02
1 9 0 2.77 3.27 0.34
1 10 0 41.37 43.23 0.80
1 11 0 95.03 97.27 1.36
1 12 0 25.93 27.02 0.71
1 13 0 59.04 57.55 1.09
1 14 0 1.50 0.86 0.44
1 15 0 85.50 86.65 1.48
1 16 0 24.46 24.56 0.85
1 17 0 30.38 29.66 0.96
1 18 0 0.81 0.94 0.39
1 19 0 34.17 33.86 1.10
1 20 0 42.20 40.43 1.25
1 21 0 1.21 1.44 0.43
1 22 0 3.81 4.01 0.47
1 23 0 6.10 7.03 0.61
1 24 0 9.83 9.83 0.79
1 26 0 6.67 7.35 0.64
1 0 1 74.51 77.09 0.84
1 1 1 129.59 134.10 1.36
1 2 1 102.71 104.53 1.11
1 3 1 1087.16 1091.91 9.72
1 4 1 155.93 157.66 1.65
1 5 1 438.84 439.62 4.24
1 6 1 21.17 21.97 0.44
1 7 1 336.20 340.70 3.42
1 8 1 232.10 235.52 2.49
1 9 1 231.12 233.21 2.54
1 10 1 135.19 131.74 1.68
1 11 1 17.12 17.21 0.56
1 12 1 1.09 0.36 0.36
1 13 1 128.83 128.15 1.78
1 14 1 30.66 29.70 0.83
1 15 1 88.69 87.97 1.53
1 16 1 62.23 62.03 1.29
1 17 1 25.41 25.53 0.91
1 18 1 23.35 23.88 0.93
1 19 1 14.68 15.37 0.83
1 20 1 6.39 5.85 0.48
1 21 1 1.46 2.07 0.41
1 22 1 33.34 34.91 1.21
1 23 1 9.53 10.70 0.89
1 24 1 21.89 21.02 1.08
1 25 1 8.66 9.54 0.82
1 26 1 0.76 2.01 0.48
1 0 2 3275.65 3117.85 36.28
1 1 2 68.91 71.96 0.94
1 2 2 567.27 574.74 6.14
1 3 2 194.30 194.88 2.03
1 4 2 1062.48 1068.54 9.67
1 5 2 18.56 18.68 0.41
1 6 2 216.01 220.38 2.32
1 7 2 163.33 162.70 1.83
1 8 2 10.71 10.29 0.44
1 9 2 58.83 62.06 0.99
1 10 2 59.93 59.72 1.00
1 11 2 117.40 118.43 1.60
1 12 2 118.10 115.88 1.63
1 13 2 111.90 110.66 1.64
1 14 2 54.93 54.94 1.14
1 15 2 30.94 31.77 0.93
1 16 2 29.46 27.74 0.95
1 17 2 77.82 76.03 1.53
1 18 2 109.59 110.55 1.93
1 19 2 40.36 41.38 1.21
1 20 2 10.36 9.74 0.71
1 21 2 22.07 22.96 1.02
1 22 2 38.77 36.73 1.28
1 23 2 43.71 43.58 1.43
1 24 2 9.66 10.69 0.80
1 25 2 0.09 0.15 0.43
1 26 2 3.69 4.51 0.56
1 0 3 30.37 32.17 0.93
1 1 3 295.07 303.80 5.25
1 2 3 221.57 225.69 2.65
1 3 3 89.43 92.11 1.28
1 4 3 92.98 96.06 1.34
1 5 3 23.22 23.13 0.53
1 6 3 135.09 138.68 1.64
1 7 3 4.93 5.20 0.38
1 8 3 257.87 258.70 2.82
1 9 3 29.30 29.13 0.71
1 10 3 79.21 80.01 1.24
1 11 3 15.68 16.73 0.60
1 12 3 32.61 32.43 0.84
1 13 3 34.91 33.94 0.91
1 14 3 115.82 115.32 1.79
1 15 3 34.36 33.63 0.99
1 16 3 10.05 9.33 0.62
1 17 3 26.06 25.13 0.95
1 18 3 27.77 26.63 1.01
1 19 3 27.79 27.33 1.06
1 20 3 7.94 7.79 0.66
1 21 3 24.25 23.68 1.05
1 22 3 6.68 7.23 0.61
1 23 3 2.91 2.75 0.46
1 24 3 8.16 8.17 0.64
1 25 3 15.82 17.98 1.16
1 0 4 330.23 329.75 5.86
1 1 4 250.91 261.13 4.75
1 2 4 27.81 28.87 1.05
1 3 4 22.54 23.51 0.64
1 4 4 109.18 110.13 1.58
1 5 4 82.05 84.04 1.35
1 6 4 131.84 130.91 1.88
1 7 4 84.80 84.07 1.23
1 8 4 45.38 45.37 0.89
1 9 4 2.21 2.19 0.39
1 10 4 22.21 22.80 0.71
1 11 4 64.49 62.61 1.18
1 12 4 146.30 141.47 2.00
1 13 4 25.65 27.24 0.86
1 14 4 42.23 39.58 1.07
1 15 4 2.17 2.99 0.40
1 16 4 22.39 23.68 0.91
1 17 4 26.88 28.21 1.02
1 18 4 57.11 58.83 1.47
1 19 4 40.14 40.98 1.26
1 20 4 9.06 9.28 0.80
1 21 4 11.24 10.85 0.79
1 22 4 21.05 21.86 1.05
1 23 4 14.63 15.14 0.96
1 24 4 2.25 2.15 0.44
1 0 5 285.11 285.75 5.33
1 1 5 121.62 122.94 2.72
1 2 5 475.18 465.68 8.16
1 3 5 179.79 177.04 3.65
1 4 5 111.72 108.57 1.69
1 5 5 8.56 8.60 0.53
1 6 5 228.99 230.72 3.02
1 7 5 73.94 73.27 1.39
1 8 5 71.47 69.63 1.38
1 9 5 93.08 90.43 1.47
1 10 5 9.80 9.56 0.58
1 11 5 34.82 36.01 0.96
1 12 5 24.93 25.18 0.86
1 13 5 44.94 44.92 1.16
1 14 5 40.09 40.37 1.12
1 15 5 29.81 29.97 1.03
1 16 5 74.86 78.95 1.64
1 17 5 11.20 11.51 0.80
1 18 5 7.44 6.99 0.65
1 19 5 18.12 18.76 0.98
1 20 5 65.56 64.94 1.65
1 21 5 25.17 25.22 1.12
1 22 5 1.49 1.74 0.43
1 23 5 3.50 4.60 0.50
1 24 5 18.09 17.51 1.00
1 0 6 0.54 0.07 0.63
1 1 6 0.50 0.90 0.62
1 2 6 7.95 7.58 0.84
1 3 6 12.92 12.48 0.99
1 4 6 16.51 16.07 1.09
1 5 6 12.94 13.35 0.67
1 6 6 22.31 21.98 0.82
1 7 6 7.58 7.81 0.62
1 8 6 9.98 9.13 0.68
1 9 6 11.61 11.12 0.77
1 10 6 2.76 2.44 0.44
1 11 6 10.80 9.88 0.68
1 12 6 29.84 29.13 0.96
1 13 6 7.64 7.57 0.61
1 14 6 28.09 28.14 1.01
1 15 6 11.89 11.06 0.82
1 16 6 3.00 3.00 0.43
1 17 6 21.13 21.61 1.01
1 18 6 13.85 13.92 0.90
1 19 6 11.01 11.85 0.86
1 20 6 33.63 31.73 1.25
1 21 6 9.10 9.45 0.78
1 22 6 10.30 8.66 0.76
1 23 6 11.73 12.09 0.89
1 0 7 250.99 249.01 5.17
1 1 7 26.35 26.97 1.45
1 2 7 59.97 61.63 2.13
1 3 7 80.63 81.80 2.50
1 4 7 145.14 141.93 3.53
1 5 7 29.39 30.71 1.05
1 6 7 63.05 62.01 1.48
1 7 7 10.61 9.56 0.77
1 8 7 57.55 56.60 1.46
1 9 7 68.49 67.68 1.62
1 10 7 18.02 18.84 0.96
1 11 7 21.69 21.94 0.91
1 12 7 2.58 1.92 0.46
1 13 7 41.26 42.54 1.26
1 14 7 26.22 24.73 1.05
1 15 7 34.44 32.47 1.18
1 16 7 23.39 25.98 1.08
1 17 7 19.41 20.60 1.02
1 18 7 45.25 43.25 1.39
1 19 7 6.84 6.78 0.62
1 20 7 14.47 15.52 0.99
1 21 7 9.24 9.35 0.67
1 0 8 10.09 10.49 1.21
1 1 8 34.32 35.50 1.80
1 2 8 19.46 19.95 1.44
1 3 8 31.36 32.27 1.72
1 4 8 33.54 32.95 1.76
1 5 8 104.40 102.75 3.12
1 6 8 16.20 15.12 0.93
1 7 8 95.52 91.80 1.97
1 8 8 3.68 3.26 0.49
1 9 8 51.01 51.49 1.53
1 10 8 41.83 39.93 1.39
1 11 8 94.46 96.01 2.13
1 12 8 12.84 11.83 0.97
1 13 8 28.68 28.46 1.27
1 14 8 1.96 1.21 0.51
1 15 8 43.91 46.51 1.39
1 16 8 5.27 5.61 0.52
1 17 8 29.06 26.96 1.18
1 18 8 4.51 5.49 0.52
1 19 8 1.88 2.28 0.44
1 20 8 0.04 0.11 0.39
1 0 9 0.14 0.04 0.93
1 1 9 3.14 2.24 1.00
1 2 9 50.43 51.80 2.28
1 3 9 1.23 1.64 0.99
1 4 9 3.74 3.27 1.14
1 5 9 28.27 28.74 1.84
1 6 9 8.84 10.10 1.31
1 7 9 14.74 15.95 1.02
1 8 9 8.02 8.39 0.74
1 9 9 19.90 19.93 1.12
1 10 9 31.47 29.73 1.32
1 11 9 45.33 46.34 1.59
1 12 9 8.44 8.99 0.83
1 13 9 16.99 16.17 1.14
1 14 9 7.31 7.97 0.83
1 15 9 21.77 22.35 1.24
1 16 9 43.01 43.16 1.59
1 17 9 18.11 18.39 1.05
1 18 9 11.88 11.63 0.90
1 0 10 2.72 3.50 1.18
1 1 10 24.31 25.86 1.88
1 2 10 2.22 1.57 1.13
1 3 10 17.88 20.26 1.72
1 4 10 21.71 21.82 1.83
1 5 10 33.18 32.86 2.10
1 6 10 40.70 41.82 2.32
1 7 10 33.29 31.86 2.12
1 8 10 24.43 24.65 1.26
1 9 10 7.55 7.42 0.82
1 10 10 60.82 56.26 1.81
1 11 10 15.65 16.38 1.15
1 12 10 48.16 45.81 1.65
1 13 10 0.10 0.23 0.51
1 14 10 7.86 6.61 0.67
1 15 10 11.10 10.59 0.89
1 0 11 1.59 0.81 1.29
1 1 11 13.61 12.07 1.62
1 2 11 34.72 33.99 2.27
1 3 11 23.98 23.53 1.96
1 4 11 11.92 11.96 1.63
1 5 11 5.21 6.17 1.45
1 6 11 2.94 3.97 1.36
1 7 11 7.83 8.65 1.59
1 8 11 16.58 15.71 1.18
1 9 11 25.04 23.64 1.32
1 10 11 19.53 18.83 1.23
1 11 11 2.74 3.62 0.59
1 12 11 0.79 1.62 0.53
1 0 12 16.68 17.97 1.93
1 1 12 76.11 76.39 3.20
1 2 12 9.30 8.34 1.75
1 3 12 3.11 3.25 1.56
1 4 12 27.95 29.20 2.23
1 5 12 71.93 68.97 3.13
1 6 12 2.74 2.87 1.53
1 7 12 23.96 22.98 2.09
2 0 0 41.22 42.09 0.54
2 1 0 31.17 31.24 0.44
2 2 0 1725.93 1685.07 14.85
2 3 0 799.69 789.55 7.20
2 4 0 35.70 35.98 0.53
2 5 0 91.88 91.48 1.09
2 6 0 2113.56 2089.04 18.55
2 7 0 292.28 294.85 3.02
2 8 0 0.38 0.77 0.30
2 9 0 236.69 235.84 2.59
2 10 0 250.78 255.31 2.80
2 11 0 2.21 2.42 0.36
2 12 0 45.76 43.56 0.91
2 13 0 167.24 168.60 2.15
2 14 0 11.85 10.97 0.61
2 15 0 72.35 70.22 1.33
2 16 0 39.39 37.13 1.03
2 17 0 36.66 35.82 1.05
2 18 0 43.58 43.87 1.21
2 19 0 36.55 37.90 1.17
2 20 0 1.68 0.93 0.37
2 21 0 8.47 7.76 0.64
2 22 0 15.88 15.18 0.93
2 23 0 10.86 11.20 0.88
2 24 0 32.64 32.51 1.24
2 25 0 3.14 4.14 0.58
2 26 0 1.01 1.08 0.45
2 0 1 1.42 1.64 0.16
2 1 1 78.61 78.30 0.89
2 2 1 276.58 278.46 2.74
2 3 1 525.50 538.48 5.07
2 4 1 155.17 158.40 1.67
2 5 1 420.96 428.39 4.16
2 6 1 23.08 23.00 0.48
2 7 1 95.65 98.35 1.23
2 8 1 4.15 4.86 0.36
2 9 1 275.70 274.23 2.95
2 10 1 9.02 8.74 0.46
2 11 1 5.32 4.77 0.44
2 12 1 42.18 40.85 0.89
2 13 1 81.52 80.12 1.36
2 14 1 43.57 44.90 1.03
2 15 1 21.93 23.84 0.81
2 16 1 3.39 3.57 0.40
2 17 1 11.63 10.11 0.69
2 18 1 10.47 9.99 0.73
2 19 1 29.19 29.35 1.06
2 20 1 70.47 71.93 1.64
2 21 1 27.46 28.99 1.12
2 22 1 23.53 23.42 1.07
2 23 1 2.90 2.57 0.45
2 24 1 38.13 41.30 1.34
2 25 1 22.57 23.09 1.33
2 26 1 29.43 30.59 1.46
2 0 2 4.36 4.21 0.23
2 1 2 306.60 309.80 3.06
2 2 2 1085.83 1088.61 9.85
2 3 2 109.34 107.50 1.26
2 4 2 88.90 89.42 1.10
2 5 2 7.77 8.43 0.35
2 6 2 287.67 293.23 3.02
2 7 2 140.03 140.93 1.67
2 8 2 142.48 144.64 1.76
2 9 2 129.27 128.64 1.62
2 10 2 2.76 2.66 0.37
2 11 2 65.49 64.36 1.12
2 12 2 57.83 57.54 1.09
2 13 2 73.89 73.78 1.31
2 14 2 32.45 33.95 0.91
2 15 2 33.08 31.95 0.94
2 16 2 77.93 73.53 1.47
2 17 2 0.11 0.07 0.34
2 18 2 9.72 10.86 0.74
2 19 2 1.30 1.14 0.36
2 20 2 31.14 31.97 1.13
2 21 2 29.54 30.37 1.17
2 22 2 3.30 3.58 0.47
2 23 2 1.67 2.54 0.45
2 24 2 9.19 8.75 0.77
2 25 2 40.80 40.08 1.67
2 0 3 134.91 132.62 1.54
2 1 3 139.31 140.95 1.59
2 2 3 376.02 385.21 3.82
2 3 3 448.64 450.05 4.45
2 4 3 64.75 66.12 0.94
2 5 3 250.47 250.41 2.68
2 6 3 89.45 91.39 1.23
2 7 3 106.85 109.07 1.42
2 8 3 121.12 120.14 1.55
2 9 3 289.39 290.66 3.20
2 10 3 255.68 258.04 2.94
2 11 3 12.30 12.06 0.58
2 12 3 86.06 84.84 1.42
2 13 3 43.43 44.05 1.04
2 14 3 50.43 48.39 1.14
2 15 3 16.93 17.04 0.80
2 16 3 2.31 2.80 0.40
2 17 3 11.26 12.81 0.75
2 18 3 2.78 2.12 0.39
2 19 3 38.99 39.02 1.22
2 20 3 9.05 9.92 0.67
2 21 3 43.69 43.52 1.38
2 22 3 8.96 7.83 0.72
2 23 3 4.02 5.23 0.57
2 24 3 0.01 0.04 0.40
2 25 3 12.66 13.12 1.07
2 0 4 54.33 57.01 1.54
2 1 4 105.08 107.34 1.55
2 2 4 128.52 131.71 1.83
2 3 4 134.24 133.94 1.86
2 4 4 13.00 13.05 0.57
2 5 4 61.65 60.09 0.99
2 6 4 110.22 108.66 1.46
2 7 4 104.11 102.92 1.44
2 8 4 116.48 116.99 1.60
2 9 4 47.34 48.84 0.98
2 10 4 139.99 138.91 1.89
2 11 4 50.65 50.03 1.07
2 12 4 13.46 12.74 0.66
2 13 4 0.41 0.40 0.33
2 14 4 12.79 11.74 0.71
2 15 4 12.69 12.88 0.75
2 16 4 25.28 25.31 0.92
2 17 4 40.30 38.92 1.19
2 18 4 26.76 25.49 1.05
2 19 4 8.73 8.75 0.71
2 20 4 25.01 26.77 1.10
2 21 4 19.84 20.36 1.05
2 22 4 18.44 16.86 1.04
2 23 4 21.28 23.55 1.07
2 24 4 4.55 3.35 0.47
2 0 5 146.17 145.11 3.12
2 1 5 34.80 34.11 1.31
2 2 5 163.26 162.03 2.25
2 3 5 31.30 31.77 0.85
2 4 5 148.78 148.99 2.13
2 5 5 63.16 64.02 1.25
2 6 5 12.25 12.54 0.64
2 7 5 14.84 14.22 0.71
2 8 5 61.87 63.01 1.17
2 9 5 25.92 26.31 0.81
2 10 5 139.18 139.22 1.98
2 11 5 60.61 60.60 1.27
2 12 5 14.93 14.37 0.74
2 13 5 1.33 2.27 0.37
2 14 5 94.02 92.84 1.72
2 15 5 11.79 12.76 0.77
2 16 5 1.08 1.14 0.36
2 17 5 5.32 5.35 0.48
2 18 5 45.08 44.51 1.37
2 19 5 9.78 11.17 0.84
2 20 5 1.32 1.42 0.42
2 21 5 0.96 0.95 0.41
2 22 5 20.09 21.06 1.05
2 23 5 16.80 16.52 1.02
2 0 6 75.42 76.80 2.21
2 1 6 93.19 94.38 2.52
2 2 6 2.32 2.32 0.72
2 3 6 2.11 2.27 0.58
2 4 6 22.36 22.73 0.83
2 5 6 99.72 99.02 1.76
2 6 6 0.36 0.59 0.48
2 7 6 78.05 77.49 1.57
2 8 6 0.14 0.23 0.52
2 9 6 3.72 4.94 0.48
2 10 6 10.62 12.17 0.69
2 11 6 104.42 104.94 1.80
2 12 6 8.22 7.92 0.55
2 13 6 61.29 62.60 1.42
2 14 6 10.73 11.31 0.75
2 15 6 57.99 57.03 1.44
2 16 6 15.13 15.43 0.90
2 17 6 47.36 47.13 1.37
2 18 6 49.93 49.87 1.46
2 19 6 1.53 2.36 0.44
2 20 6 3.87 3.83 0.48
2 21 6 14.14 13.81 0.96
2 22 6 46.12 45.92 1.43
2 0 7 7.18 7.45 0.99
2 1 7 45.46 44.13 1.82
2 2 7 12.74 12.62 1.13
2 3 7 14.31 14.55 1.20
2 4 7 135.90 130.94 2.68
2 5 7 72.14 71.33 1.58
2 6 7 30.19 29.46 1.06
2 7 7 85.92 84.05 1.78
2 8 7 81.55 82.75 1.78
2 9 7 4.60 5.00 0.53
2 10 7 8.99 9.54 0.80
2 11 7 95.95 98.06 2.07
2 12 7 1.37 2.19 0.39
2 13 7 48.57 49.14 1.37
2 14 7 38.36 40.44 1.26
2 15 7 32.67 32.92 1.20
2 16 7 4.41 4.31 0.48
2 17 7 50.08 51.06 1.48
2 18 7 9.32 9.94 0.77
2 19 7 6.06 7.04 0.64
2 20 7 0.34 0.99 0.41
2 21 7 11.71 10.44 0.80
2 0 8 55.82 54.33 2.21
2 1 8 59.07 59.09 2.31
2 2 8 25.31 23.69 1.59
2 3 8 27.62 29.17 1.69
2 4 8 16.71 16.01 1.39
2 5 8 58.20 56.80 1.53
2 6 8 50.84 47.27 1.45
2 7 8 44.29 42.02 1.37
2 8 8 0.08 0.31 0.41
2 9 8 11.43 11.82 0.80
2 10 8 1.24 1.41 0.49
2 11 8 9.78 8.56 0.78
2 12 8 0.43 0.02 0.44
2 13 8 34.17 31.57 1.37
2 14 8 8.37 10.02 0.82
2 15 8 6.77 7.05 0.70
2 16 8 2.36 3.27 0.47
2 17 8 24.31 23.61 1.14
2 18 8 1.61 1.92 0.44
2 19 8 5.70 6.75 0.55
2 0 9 73.44 76.05 2.78
2 1 9 15.93 17.57 1.51
2 2 9 111.14 109.89 3.45
2 3 9 4.97 5.38 1.11
2 4 9 48.75 49.01 2.31
2 5 9 10.87 11.52 1.39
2 6 9 51.10 50.09 1.58
2 7 9 10.49 10.61 0.93
2 8 9 1.98 3.37 0.54
2 9 9 38.93 38.54 1.44
2 10 9 12.49 14.19 1.03
2 11 9 14.95 15.70 1.08
2 12 9 17.02 17.45 1.13
2 13 9 33.90 35.30 1.47
2 14 9 69.98 72.64 1.99
2 15 9 0.35 1.10 0.52
2 16 9 16.06 15.61 1.01
2 17 9 3.84 4.35 0.53
2 0 10 50.55 49.93 2.46
2 1 10 68.72 67.50 2.84
2 2 10 2.09 2.88 1.18
2 3 10 6.69 6.60 1.34
2 4 10 4.61 4.70 1.26
2 5 10 47.16 46.89 2.42
2 6 10 16.65 17.05 1.67
2 7 10 27.08 26.35 1.33
2 8 10 31.30 30.54 1.40
2 9 10 11.85 12.28 0.92
2 10 10 33.13 33.66 1.46
2 11 10 42.74 44.54 1.59
2 12 10 48.26 48.55 1.69
2 13 10 6.88 7.13 0.68
2 14 10 17.23 17.18 1.16
2 15 10 2.83 2.97 0.57
2 0 11 12.18 12.65 1.68
2 1 11 10.89 9.96 1.60
2 2 11 3.99 3.33 1.37
2 3 11 5.94 7.29 1.46
2 4 11 2.99 2.29 1.42
2 5 11 1.34 0.71 1.31
2 6 11 13.95 13.70 1.68
2 7 11 1.00 0.52 1.31
2 8 11 6.13 5.68 0.66
2 9 11 0.22 0.31 0.51
2 10 11 5.67 6.33 0.79
2 11 11 3.50 4.61 0.62
2 0 12 47.24 46.89 2.66
2 1 12 22.23 20.67 2.10
2 2 12 6.93 6.25 1.63
2 3 12 39.82 42.81 2.54
2 4 12 10.91 11.24 1.78
2 5 12 2.01 2.27 1.53
2 6 12 30.80 29.48 2.22
3 1 0 30.36 31.13 0.51
3 3 0 68.61 69.44 0.89
3 4 0 406.14 415.04 4.05
3 5 0 208.16 209.35 2.23
3 6 0 37.82 39.57 0.70
3 7 0 245.31 243.96 2.62
3 8 0 78.90 81.05 1.16
3 9 0 110.77 108.15 1.44
3 10 0 30.41 30.15 0.73
3 11 0 256.04 252.30 2.88
3 12 0 9.66 8.22 0.53
3 13 0 2.96 2.75 0.45
3 14 0 2.83 3.77 0.49
3 15 0 23.30 24.12 0.85
3 16 0 44.71 43.08 1.14
3 17 0 41.90 42.45 1.17
3 18 0 1.63 2.14 0.37
3 19 0 2.62 2.95 0.41
3 20 0 26.27 28.03 1.08
3 21 0 30.37 30.48 1.15
3 22 0 3.87 4.10 0.48
3 23 0 0.04 0.06 0.40
3 24 0 9.24 8.09 0.66
3 25 0 28.33 29.68 1.43
3 0 1 173.84 176.30 1.87
3 1 1 358.88 370.33 3.66
3 2 1 57.93 59.18 0.79
3 3 1 430.76 435.87 4.26
3 4 1 82.52 82.18 1.05
3 5 1 24.17 24.39 0.53
3 6 1 66.73 69.21 0.99
3 7 1 160.62 159.78 1.86
3 8 1 42.96 42.86 0.80
3 9 1 394.08 383.48 4.03
3 10 1 37.15 37.04 0.82
3 11 1 55.34 53.78 1.04
3 12 1 56.73 54.60 1.09
3 13 1 90.54 89.87 1.52
3 14 1 27.36 27.16 0.86
3 15 1 1.56 1.99 0.37
3 16 1 38.12 39.52 1.10
3 17 1 31.30 30.30 1.01
3 18 1 52.89 51.27 1.33
3 19 1 19.03 19.80 0.93
3 20 1 3.92 3.71 0.46
3 21 1 63.89 67.92 1.64
3 22 1 65.39 62.21 1.64
3 23 1 15.27 15.52 0.96
3 24 1 27.69 29.93 1.21
3 25 1 6.44 7.83 0.77
3 0 2 0.17 0.10 0.23
3 1 2 183.39 180.37 1.97
3 2 2 268.11 272.79 2.80
3 3 2 267.85 267.77 2.78
3 4 2 55.51 55.27 0.86
3 5 2 316.84 316.03 3.27
3 6 2 636.30 640.34 6.27
3 7 2 6.16 7.33 0.42
3 8 2 90.21 89.31 1.27
3 9 2 62.85 62.45 1.06
3 10 2 256.80 254.81 2.89
3 11 2 36.96 34.74 0.85
3 12 2 108.96 106.82 1.62
3 13 2 26.52 26.31 0.82
3 14 2 6.92 6.67 0.59
3 15 2 12.87 12.94 0.72
3 16 2 35.76 36.84 1.06
3 17 2 28.65 28.63 1.00
3 18 2 8.90 9.08 0.72
3 19 2 6.46 5.55 0.55
3 20 2 11.73 11.61 0.84
3 21 2 0.74 0.59 0.39
3 22 2 2.79 2.82 0.46
3 23 2 10.19 9.84 0.87
3 24 2 26.64 27.66 1.18
3 25 2 4.48 4.56 0.56
3 0 3 178.23 184.05 2.05
3 1 3 251.53 252.33 2.68
3 2 3 16.76 17.46 0.51
3 3 3 167.69 167.80 1.93
3 4 3 12.39 12.66 0.48
3 5 3 208.46 214.79 2.39
3 6 3 3.41 3.40 0.38
3 7 3 256.70 255.24 2.84
3 8 3 42.77 43.22 0.88
3 9 3 25.28 26.25 0.73
3 10 3 11.81 11.60 0.57
3 11 3 77.00 76.17 1.32
3 12 3 41.56 40.30 0.97
3 13 3 11.12 12.46 0.67
3 14 3 9.44 9.10 0.59
3 15 3 12.54 12.07 0.73
3 16 3 1.72 2.05 0.39
3 17 3 8.78 8.21 0.64
3 18 3 0.35 0.20 0.34
3 19 3 9.82 10.32 0.82
3 20 3 7.03 6.14 0.52
3 21 3 1.93 1.62 0.41
3 22 3 6.53 6.42 0.55
3 23 3 40.23 39.95 1.38
3 24 3 7.07 8.53 0.73
3 0 4 10.92 11.63 0.47
3 1 4 114.73 113.73 1.48
3 2 4 29.91 31.07 0.70
3 3 4 80.89 80.38 1.18
3 4 4 24.36 25.09 0.65
3 5 4 275.70 271.49 3.00
3 6 4 82.35 80.26 1.25
3 7 4 58.23 59.74 1.07
3 8 4 53.61 54.08 1.05
3 9 4 66.67 67.62 1.22
3 10 4 21.46 21.06 0.73
3 11 4 30.54 29.12 0.88
3 12 4 29.46 30.08 0.91
3 13 4 104.54 105.03 1.75
3 14 4 9.99 10.08 0.68
3 15 4 37.96 37.71 1.12
3 16 4 16.39 17.34 0.85
3 17 4 32.22 32.29 1.12
3 18 4 24.26 25.56 1.06
3 19 4 17.60 16.93 0.94
3 20 4 20.75 20.92 1.01
3 21 4 24.14 25.83 1.12
3 22 4 7.02 7.00 0.62
3 23 4 9.96 10.09 0.86
3 24 4 1.00 1.10 0.41
3 0 5 52.10 50.12 0.97
3 1 5 45.04 44.87 0.92
3 2 5 36.93 35.59 0.84
3 3 5 71.22 73.50 1.22
3 4 5 70.89 71.89 1.22
3 5 5 73.20 72.64 1.24
3 6 5 42.78 44.15 0.96
3 7 5 124.34 123.00 1.77
3 8 5 192.58 187.81 2.40
3 9 5 1.68 1.82 0.47
3 10 5 136.29 134.00 1.99
3 11 5 5.64 7.32 0.53
3 12 5 126.00 123.91 1.97
3 13 5 9.88 10.31 0.72
3 14 5 68.73 64.16 1.47
3 15 5 43.98 44.38 1.26
3 16 5 9.76 10.05 0.78
3 17 5 2.85 3.15 0.44
3 18 5 5.62 6.43 0.53
3 19 5 12.43 10.64 0.78
3 20 5 1.87 2.84 0.46
3 21 5 3.30 3.59 0.48
3 22 5 15.59 15.18 1.00
3 23 5 2.95 3.79 0.48
3 1 6 3.63 3.80 0.51
3 2 6 41.91 41.85 1.10
3 3 6 4.82 4.84 0.56
3 4 6 10.26 9.59 0.68
3 5 6 21.42 21.10 0.86
3 6 6 19.81 18.70 0.86
3 7 6 40.47 39.48 1.15
3 8 6 19.68 18.83 0.80
3 9 6 31.86 32.52 0.97
3 10 6 24.03 24.07 0.89
3 11 6 69.29 68.11 1.45
3 12 6 2.81 3.62 0.43
3 13 6 57.98 56.71 1.41
3 14 6 24.51 25.83 1.02
3 15 6 6.97 7.21 0.58
3 16 6 41.73 41.84 1.31
3 17 6 24.23 24.06 1.07
3 18 6 10.47 10.21 0.77
3 19 6 21.38 21.88 1.09
3 20 6 61.80 63.68 1.66
3 21 6 5.18 5.79 0.53
3 22 6 5.84 5.17 0.51
3 0 7 5.93 5.94 1.01
3 1 7 0.50 0.85 0.84
3 2 7 154.18 151.92 3.75
3 3 7 30.95 29.10 1.08
3 4 7 10.70 9.67 0.79
3 5 7 32.94 32.19 1.13
3 6 7 12.67 12.05 0.85
3 7 7 35.88 36.13 1.21
3 8 7 13.03 11.19 0.86
3 9 7 106.78 109.31 2.14
3 10 7 50.54 50.81 1.32
3 11 7 6.17 6.19 0.48
3 12 7 2.57 2.40 0.40
3 13 7 37.84 38.24 1.23
3 14 7 49.30 49.23 1.39
3 15 7 37.42 37.33 1.27
3 16 7 2.90 2.79 0.45
3 17 7 3.10 2.85 0.46
3 18 7 7.69 7.86 0.64
3 19 7 21.65 20.92 1.09
3 20 7 10.20 9.20 0.75
3 21 7 5.12 5.22 0.51
3 0 8 1.93 2.14 1.01
3 1 8 115.12 114.22 3.33
3 2 8 58.12 59.71 2.36
3 3 8 45.44 46.02 2.10
3 4 8 40.07 39.14 1.31
3 5 8 39.74 38.71 1.31
3 6 8 26.67 26.31 1.13
3 7 8 30.09 30.37 1.21
3 8 8 34.58 33.52 1.29
3 9 8 22.67 22.26 1.12
3 10 8 5.43 4.42 0.57
3 11 8 100.38 100.34 2.23
3 12 8 16.90 17.34 1.07
3 13 8 7.34 6.33 0.59
3 14 8 4.43 4.60 0.50
3 15 8 17.98 18.09 0.99
3 16 8 17.59 15.41 0.99
3 17 8 10.53 11.26 0.90
3 18 8 9.09 8.35 0.65
3 19 8 21.73 23.17 1.11
3 0 9 71.01 69.27 2.72
3 1 9 11.65 11.99 1.41
3 2 9 20.18 19.46 1.62
3 3 9 13.40 14.00 1.50
3 4 9 101.10 102.35 3.38
3 5 9 0.06 0.14 0.47
3 6 9 8.22 8.12 0.66
3 7 9 8.35 9.06 0.75
3 8 9 45.13 43.42 1.54
3 9 9 6.43 6.32 0.64
3 10 9 28.14 28.06 1.30
3 11 9 3.95 4.27 0.59
3 12 9 4.23 4.96 0.62
3 13 9 1.66 1.55 0.53
3 14 9 28.79 31.28 1.37
3 15 9 6.73 6.44 0.61
3 16 9 9.94 9.06 0.66
3 17 9 21.91 21.87 1.09
3 0 10 1.00 0.86 1.17
3 1 10 54.84 57.61 2.62
3 2 10 27.54 27.87 2.01
3 3 10 80.06 82.79 3.19
3 4 10 12.72 11.99 1.59
3 5 10 6.70 7.18 1.42
3 6 10 22.92 23.43 1.25
3 7 10 10.23 11.74 0.89
3 8 10 7.77 7.28 0.68
3 9 10 34.28 33.51 1.46
3 10 10 7.75 7.62 0.84
3 11 10 4.96 4.59 0.61
3 12 10 0.78 1.13 0.51
3 13 10 20.51 19.14 1.22
3 14 10 17.46 17.04 1.13
3 0 11 1.71 1.24 1.34
3 1 11 10.69 11.02 1.68
3 2 11 14.65 15.21 1.74
3 3 11 34.04 34.98 2.29
3 4 11 16.50 17.00 1.88
3 5 11 15.53 15.72 1.76
3 6 11 12.24 12.18 1.71
3 7 11 22.09 22.64 1.29
3 8 11 5.95 6.55 0.80
3 9 11 11.20 10.80 0.84
3 10 11 8.69 9.02 0.87
3 11 11 10.66 9.44 2.96
3 0 12 6.98 5.54 1.67
3 1 12 6.60 7.34 1.68
3 2 12 3.26 3.28 1.54
3 3 12 1.63 0.78 1.54
3 4 12 0.80 1.01 1.47
4 0 0 389.18 394.09 3.91
4 1 0 388.63 388.20 3.89
4 2 0 41.22 40.45 0.71
4 3 0 2.14 1.76 0.31
4 4 0 36.29 37.15 0.71
4 5 0 16.21 15.49 0.51
4 6 0 132.32 132.25 1.64
4 7 0 89.27 88.48 1.27
4 8 0 138.58 133.03 1.71
4 9 0 133.51 130.79 1.73
4 10 0 69.85 69.42 1.20
4 11 0 12.82 12.72 0.62
4 12 0 246.78 241.46 2.98
4 13 0 67.69 69.51 1.32
4 14 0 3.47 2.83 0.37
4 15 0 12.35 12.70 0.72
4 16 0 90.46 90.93 1.70
4 17 0 0.96 1.19 0.35
4 18 0 2.00 2.05 0.39
4 19 0 8.96 7.28 0.66
4 20 0 0.46 0.28 0.37
4 21 0 7.19 8.03 0.63
4 22 0 0.00 0.04 0.41
4 23 0 4.21 4.81 0.51
4 24 0 21.66 21.94 1.09
4 0 1 1.53 1.47 0.29
4 1 1 146.61 149.24 1.71
4 2 1 34.40 34.77 0.66
4 3 1 151.38 151.31 1.75
4 4 1 13.62 12.18 0.46
4 5 1 61.30 60.28 0.95
4 6 1 43.61 43.68 0.83
4 7 1 250.50 246.51 2.74
4 8 1 43.60 43.15 0.87
4 9 1 3.99 4.27 0.41
4 10 1 34.90 34.38 0.83
4 11 1 271.24 267.55 3.11
4 12 1 68.00 68.06 1.28
4 13 1 45.29 43.14 1.06
4 14 1 45.98 46.36 1.13
4 15 1 46.01 45.21 1.17
4 16 1 53.95 52.69 1.29
4 17 1 17.66 17.12 0.87
4 18 1 31.82 31.14 1.08
4 19 1 40.70 42.80 1.28
4 20 1 31.88 32.82 1.18
4 21 1 7.95 7.76 0.70
4 22 1 17.60 14.35 0.97
4 23 1 2.39 2.20 0.46
4 24 1 19.61 19.69 1.05
4 25 1 4.91 5.25 0.58
4 0 2 10.82 10.78 0.45
4 1 2 265.72 265.40 2.84
4 2 2 10.76 9.73 0.45
4 3 2 75.20 75.46 1.09
4 4 2 196.43 200.82 2.25
4 5 2 140.07 136.37 1.71
4 6 2 31.79 32.48 0.73
4 7 2 184.53 177.82 2.15
4 8 2 162.46 162.14 2.02
4 9 2 5.17 5.66 0.45
4 10 2 40.40 41.40 0.93
4 11 2 18.81 18.78 0.69
4 12 2 46.95 46.51 1.06
4 13 2 0.04 0.13 0.31
4 14 2 13.98 14.48 0.74
4 15 2 15.34 15.11 0.78
4 16 2 18.16 16.62 0.84
4 17 2 20.46 19.44 0.91
4 18 2 6.09 6.14 0.55
4 19 2 10.68 11.25 0.83
4 20 2 7.64 8.48 0.62
4 21 2 8.03 9.56 0.83
4 22 2 8.59 9.76 0.67
4 23 2 18.25 17.80 1.04
4 24 2 1.77 1.62 0.42
4 0 3 4.75 4.70 0.39
4 1 3 227.05 225.54 2.49
4 2 3 40.38 38.59 0.78
4 3 3 469.35 465.82 4.70
4 4 3 97.61 95.49 1.34
4 5 3 111.59 108.90 1.49
4 6 3 5.09 5.45 0.43
4 7 3 60.45 60.72 1.09
4 8 3 89.46 87.49 1.39
4 9 3 31.66 32.11 0.84
4 10 3 17.59 16.99 0.68
4 11 3 30.62 29.82 0.87
4 12 3 42.09 42.24 1.06
4 13 3 12.63 12.37 0.71
4 14 3 23.87 22.61 0.89
4 15 3 74.68 73.97 1.53
4 16 3 27.35 27.46 1.02
4 17 3 1.55 0.96 0.36
4 18 3 20.85 21.71 1.00
4 19 3 32.84 35.19 1.21
4 20 3 13.06 13.26 0.88
4 21 3 33.93 33.92 1.26
4 22 3 27.21 25.55 1.17
4 23 3 1.04 1.00 0.41
4 24 3 15.22 14.01 0.97
4 0 4 75.93 77.62 1.20
4 1 4 125.60 124.55 1.64
4 2 4 35.16 34.26 0.79
4 3 4 98.19 97.15 1.41
4 4 4 34.18 35.26 0.82
4 5 4 86.74 87.69 1.36
4 6 4 56.24 56.32 1.08
4 7 4 44.06 43.15 0.96
4 8 4 8.38 8.96 0.54
4 9 4 2.25 1.45 0.46
4 10 4 34.74 36.25 0.96
4 11 4 23.13 24.67 0.85
4 12 4 69.70 69.29 1.40
4 13 4 25.96 26.21 0.93
4 14 4 8.48 9.24 0.64
4 15 4 43.14 40.22 1.20
4 16 4 54.75 54.16 1.40
4 17 4 61.71 59.83 1.53
4 18 4 1.87 1.59 0.41
4 19 4 9.19 8.54 0.64
4 20 4 23.00 22.63 1.10
4 21 4 19.08 20.21 1.05
4 22 4 1.94 2.10 0.47
4 23 4 64.02 64.26 1.66
4 0 5 29.14 28.05 0.78
4 1 5 22.45 23.12 0.72
4 2 5 6.15 6.22 0.49
4 3 5 168.39 164.60 2.12
4 4 5 28.78 28.72 0.80
4 5 5 84.98 85.05 1.42
4 6 5 13.51 13.84 0.63
4 7 5 35.15 35.37 0.95
4 8 5 47.13 48.44 1.10
4 9 5 47.03 45.12 1.12
4 10 5 24.65 27.28 0.89
4 11 5 8.95 9.93 0.67
4 12 5 19.75 19.41 0.88
4 13 5 6.27 6.76 0.59
4 14 5 8.97 8.54 0.64
4 15 5 2.18 1.97 0.40
4 16 5 20.75 21.30 0.99
4 17 5 9.56 10.41 0.80
4 18 5 1.83 2.32 0.44
4 19 5 5.62 5.48 0.52
4 20 5 28.96 29.18 1.20
4 21 5 1.55 2.24 0.44
4 22 5 1.04 1.09 0.41
4 0 6 0.45 0.29 0.44
4 1 6 90.00 88.87 1.51
4 2 6 14.33 15.39 0.69
4 3 6 27.13 25.86 0.85
4 4 6 12.45 11.92 0.67
4 5 6 140.86 138.67 2.03
4 6 6 41.99 41.48 1.08
4 7 6 43.08 40.60 1.09
4 8 6 56.89 54.47 1.28
4 9 6 140.90 136.38 2.13
4 10 6 28.16 26.54 0.98
4 11 6 35.31 36.71 1.10
4 12 6 62.05 63.50 1.48
4 13 6 49.70 49.55 1.33
4 14 6 12.78 12.55 0.83
4 15 6 54.48 54.91 1.47
4 16 6 17.13 18.36 0.97
4 17 6 41.53 42.56 1.36
4 18 6 26.06 26.73 1.14
4 19 6 36.84 37.25 1.31
4 20 6 1.08 1.87 0.44
4 21 6 23.47 22.60 1.11
4 0 7 140.73 138.97 2.11
4 1 7 10.64 9.48 0.72
4 2 7 13.51 12.90 0.84
4 3 7 11.80 12.17 0.82
4 4 7 65.77 65.56 1.59
4 5 7 15.73 16.49 0.91
4 6 7 20.00 20.25 0.86
4 7 7 27.32 26.29 0.97
4 8 7 53.72 51.91 1.32
4 9 7 6.41 6.27 0.59
4 10 7 42.90 44.15 1.24
4 11 7 51.89 52.38 1.39
4 12 7 37.27 40.24 1.24
4 13 7 10.68 10.58 0.74
4 14 7 31.23 30.78 1.18
4 15 7 1.44 2.14 0.43
4 16 7 2.94 3.39 0.47
4 17 7 10.08 9.46 0.78
4 18 7 6.26 5.73 0.53
4 19 7 14.35 12.99 0.91
4 20 7 1.37 1.96 0.44
4 0 8 41.93 44.55 2.10
4 1 8 19.46 19.74 1.24
4 2 8 13.87 13.81 0.91
4 3 8 12.22 11.88 0.90
4 4 8 28.16 29.35 1.19
4 5 8 4.41 4.43 0.54
4 6 8 9.96 9.09 0.77
4 7 8 34.35 32.77 1.31
4 8 8 3.94 3.76 0.55
4 9 8 92.84 89.64 2.13
4 10 8 19.68 19.27 0.99
4 11 8 9.88 8.90 0.74
4 12 8 0.35 0.85 0.40
4 13 8 53.97 52.85 1.51
4 14 8 34.66 34.31 1.27
4 15 8 1.89 2.25 0.45
4 16 8 11.17 9.87 0.79
4 17 8 0.02 0.06 0.39
4 18 8 16.21 16.35 0.99
4 0 9 19.08 19.36 1.66
4 1 9 12.67 13.79 1.50
4 2 9 12.66 13.38 1.47
4 3 9 23.65 24.33 1.21
4 4 9 56.87 59.67 1.72
4 5 9 14.07 13.97 1.01
4 6 9 38.69 36.42 1.46
4 7 9 4.98 5.64 0.63
4 8 9 83.61 85.75 2.13
4 9 9 15.83 17.13 1.11
4 10 9 18.18 20.03 1.16
4 11 9 0.14 0.35 0.52
4 12 9 24.05 23.97 1.30
4 13 9 8.97 9.35 0.77
4 14 9 10.08 11.84 0.90
4 15 9 27.64 26.70 1.16
4 16 9 1.40 2.47 0.45
4 1 10 81.30 83.54 3.24
4 2 10 14.39 14.29 1.65
4 3 10 4.05 3.12 1.29
4 4 10 30.77 30.44 1.37
4 5 10 60.70 58.12 1.83
4 6 10 28.86 28.31 1.37
4 7 10 16.70 15.68 1.12
4 8 10 14.37 15.59 1.12
4 9 10 1.43 0.78 0.52
4 10 10 14.73 15.18 1.12
4 11 10 6.64 7.11 0.68
4 12 10 1.43 1.62 0.54
4 13 10 9.80 8.74 0.72
4 0 11 29.13 28.05 2.15
4 1 11 1.79 1.63 1.34
4 2 11 3.16 3.19 1.36
4 3 11 9.85 9.08 1.58
4 4 11 34.79 33.22 2.27
4 5 11 12.97 13.21 1.36
4 6 11 0.37 0.50 0.52
4 7 11 5.70 6.80 0.68
4 8 11 22.26 20.72 1.28
4 9 11 8.78 9.90 0.86
5 1 0 40.82 40.40 0.78
5 2 0 43.32 43.90 0.84
5 3 0 237.67 232.39 2.59
5 4 0 64.30 61.37 1.03
5 5 0 73.04 73.50 1.15
5 6 0 0.02 0.10 0.32
5 7 0 12.14 11.86 0.55
5 8 0 16.26 16.44 0.62
5 9 0 26.18 25.72 0.75
5 10 0 38.30 38.80 0.94
5 11 0 36.13 37.13 0.96
5 12 0 1.48 1.62 0.48
5 13 0 12.60 12.30 0.71
5 14 0 52.53 52.95 1.26
5 15 0 16.18 15.50 0.83
5 16 0 4.63 4.61 0.44
5 17 0 11.50 10.57 0.70
5 18 0 6.32 6.32 0.64
5 19 0 0.00 0.14 0.37
5 20 0 0.13 0.44 0.38
5 21 0 1.08 0.93 0.40
5 22 0 8.63 7.99 0.64
5 24 0 3.30 2.07 0.44
5 0 1 5.63 6.00 0.41
5 1 1 135.73 134.49 1.67
5 2 1 93.56 91.49 1.29
5 3 1 391.73 383.90 3.93
5 4 1 5.09 5.33 0.41
5 5 1 37.30 35.90 0.78
5 6 1 74.28 71.55 1.17
5 7 1 157.85 155.31 1.97
5 8 1 2.54 3.22 0.42
5 9 1 59.08 58.75 1.13
5 10 1 12.45 12.81 0.62
5 11 1 66.59 68.87 1.29
5 12 1 22.24 21.90 0.82
5 13 1 21.69 19.13 0.84
5 14 1 16.24 16.30 0.79
5 15 1 218.93 219.39 2.94
5 16 1 60.19 61.82 1.45
5 17 1 4.27 4.29 0.45
5 18 1 8.27 7.76 0.69
5 19 1 53.17 54.00 1.50
5 20 1 51.44 52.08 1.47
5 21 1 3.88 3.54 0.48
5 22 1 0.75 0.91 0.41
5 23 1 1.65 1.89 0.44
5 24 1 13.54 14.75 0.95
5 0 2 332.93 333.03 3.53
5 1 2 174.71 170.53 2.07
5 2 2 0.46 0.57 0.34
5 3 2 256.90 254.04 2.86
5 4 2 87.72 86.37 1.31
5 5 2 43.11 42.90 0.89
5 6 2 7.14 6.64 0.46
5 7 2 14.37 13.02 0.58
5 8 2 29.93 29.36 0.80
5 9 2 38.73 37.71 0.93
5 10 2 0.60 1.41 0.44
5 11 2 16.67 16.38 0.73
5 12 2 127.58 125.29 1.94
5 13 2 0.44 0.48 0.34
5 14 2 7.16 7.61 0.67
5 15 2 3.40 3.10 0.40
5 16 2 60.06 61.04 1.47
5 17 2 14.87 14.83 0.86
5 18 2 10.97 11.64 0.82
5 19 2 30.67 30.58 1.15
5 20 2 2.08 2.18 0.44
5 21 2 41.46 39.37 1.34
5 22 2 0.98 1.78 0.44
5 23 2 6.04 5.40 0.58
5 24 2 6.51 7.41 0.91
5 0 3 32.02 31.34 0.77
5 1 3 201.85 200.14 2.38
5 2 3 24.40 24.66 0.69
5 3 3 9.69 9.63 0.52
5 4 3 1.40 1.37 0.39
5 5 3 69.10 69.17 1.20
5 6 3 34.49 35.06 0.86
5 7 3 65.62 64.57 1.20
5 8 3 18.15 18.74 0.69
5 9 3 9.05 9.14 0.59
5 10 3 45.46 43.59 1.07
5 11 3 27.53 26.10 0.89
5 12 3 28.52 27.67 0.94
5 13 3 19.08 19.28 0.85
5 14 3 47.49 47.43 1.23
5 15 3 3.32 3.75 0.42
5 16 3 51.39 51.27 1.39
5 17 3 23.43 23.93 1.02
5 18 3 24.12 24.14 1.07
5 19 3 3.78 4.46 0.50
5 20 3 55.51 57.00 1.58
5 21 3 8.01 8.32 0.66
5 22 3 4.41 4.84 0.51
5 23 3 9.14 8.73 0.64
5 0 4 0.07 0.29 0.37
5 1 4 72.84 70.44 1.22
5 2 4 43.18 43.99 0.95
5 3 4 30.54 28.53 0.81
5 4 4 16.79 17.41 0.67
5 5 4 7.26 6.30 0.51
5 6 4 28.24 28.61 0.84
5 7 4 30.33 30.33 0.88
5 8 4 90.78 90.13 1.54
5 9 4 1.88 2.69 0.38
5 10 4 116.68 112.82 1.85
5 11 4 35.24 34.88 1.04
5 12 4 84.69 86.35 1.64
5 13 4 3.56 4.43 0.42
5 14 4 82.62 86.76 1.74
5 15 4 19.80 20.84 0.97
5 16 4 20.71 22.36 1.00
5 17 4 9.17 8.32 0.69
5 18 4 24.32 25.72 1.10
5 19 4 74.57 76.31 1.81
5 20 4 0.42 0.06 0.39
5 21 4 43.40 44.51 1.42
5 22 4 13.41 11.83 0.95
5 0 5 7.85 7.12 0.56
5 1 5 192.30 187.53 2.40
5 2 5 32.51 32.06 0.89
5 3 5 15.69 16.21 0.68
5 4 5 73.88 73.47 1.37
5 5 5 60.95 59.98 1.26
5 6 5 18.91 18.76 0.79
5 7 5 35.22 34.75 0.98
5 8 5 52.76 50.59 1.21
5 9 5 11.93 11.00 0.71
5 10 5 19.81 19.08 0.84
5 11 5 20.12 20.55 0.90
5 12 5 0.41 0.97 0.35
5 13 5 18.13 17.90 0.91
5 14 5 41.52 42.59 1.25
5 15 5 1.41 1.33 0.40
5 16 5 18.23 18.86 0.95
5 17 5 3.00 3.71 0.47
5 18 5 29.08 29.75 1.18
5 19 5 2.78 3.17 0.48
5 20 5 12.72 12.01 0.94
5 21 5 9.95 8.88 0.67
5 0 6 48.69 47.70 1.16
5 1 6 47.21 45.77 1.12
5 2 6 12.48 11.17 0.70
5 3 6 56.00 54.34 1.24
5 4 6 53.00 50.12 1.21
5 5 6 82.59 80.84 1.56
5 6 6 12.85 13.52 0.74
5 7 6 106.48 105.47 1.84
5 8 6 22.65 22.13 0.91
5 9 6 21.33 21.21 0.89
5 10 6 68.00 69.49 1.53
5 11 6 78.74 80.66 1.69
5 12 6 0.44 0.52 0.36
5 13 6 66.92 67.75 1.61
5 14 6 55.06 54.31 1.47
5 15 6 13.53 15.39 0.91
5 16 6 4.96 5.37 0.52
5 17 6 53.64 53.18 1.54
5 18 6 7.84 7.30 0.64
5 19 6 5.16 5.27 0.52
5 20 6 0.01 0.01 0.39
5 0 7 1.18 1.50 0.37
5 1 7 29.89 30.12 1.00
5 2 7 16.88 16.84 0.85
5 3 7 4.13 4.05 0.44
5 4 7 111.63 108.35 1.90
5 5 7 10.09 10.43 0.68
5 6 7 19.64 21.16 0.91
5 7 7 9.17 9.79 0.75
5 8 7 101.63 100.91 1.91
5 9 7 10.39 11.49 0.77
5 10 7 2.08 2.03 0.41
5 11 7 4.50 4.30 0.47
5 12 7 14.11 13.36 0.80
5 13 7 13.76 16.34 0.93
5 14 7 5.49 6.45 0.54
5 15 7 17.96 18.44 1.01
5 16 7 8.60 7.92 0.74
5 17 7 4.13 4.95 0.52
5 18 7 2.50 2.96 0.47
5 0 8 37.60 36.89 1.18
5 1 8 48.21 48.10 1.32
5 2 8 3.11 3.27 0.43
5 3 8 0.49 0.69 0.36
5 4 8 20.47 19.64 0.97
5 5 8 143.24 141.23 2.35
5 6 8 0.54 1.19 0.80
5 7 8 5.14 5.30 0.50
5 8 8 2.64 2.97 0.45
5 9 8 24.60 24.33 1.06
5 10 8 2.06 2.08 0.43
5 11 8 11.13 12.81 0.89
5 12 8 8.68 8.14 0.64
5 13 8 32.42 32.70 1.27
5 14 8 8.57 8.21 0.66
5 15 8 8.36 8.88 0.66
5 16 8 10.88 12.03 0.90
5 17 8 58.94 59.34 1.60
5 0 9 0.10 0.69 0.80
5 1 9 31.04 30.29 1.15
5 2 9 35.70 35.74 1.43
5 3 9 6.78 5.54 0.62
5 4 9 5.17 6.26 0.64
5 5 9 15.37 14.29 1.07
5 6 9 27.67 27.46 1.29
5 7 9 9.43 9.60 0.84
5 8 9 0.66 1.11 0.51
5 9 9 0.67 1.33 0.41
5 10 9 21.05 21.49 1.08
5 11 9 15.25 15.63 0.99
5 12 9 0.89 1.72 0.43
5 13 9 8.52 8.84 0.66
5 14 9 6.68 6.84 0.55
5 15 9 1.99 2.64 0.46
5 0 10 75.96 75.54 3.15
5 1 10 5.32 5.24 0.90
5 2 10 2.53 2.86 0.57
5 3 10 50.64 51.49 1.73
5 4 10 24.86 24.76 1.29
5 5 10 31.72 30.22 1.46
5 6 10 5.83 6.65 0.68
5 7 10 18.26 17.97 1.18
5 8 10 6.20 7.03 0.68
5 9 10 33.82 32.95 1.43
5 10 10 0.62 0.87 0.53
5 11 10 1.19 2.04 0.54
5 12 10 5.39 5.92 0.53
5 0 11 5.31 3.76 1.53
5 1 11 24.78 23.98 2.02
5 2 11 11.48 12.37 1.62
5 3 11 17.72 16.48 1.18
5 4 11 12.32 11.07 0.91
5 5 11 0.06 0.06 0.52
5 6 11 39.23 40.02 1.54
5 7 11 2.04 2.44 0.57
6 0 0 137.83 134.99 1.77
6 1 0 66.04 66.57 1.13
6 2 0 4.76 4.86 0.44
6 3 0 32.93 31.79 0.80
6 4 0 9.34 9.97 0.52
6 5 0 79.12 76.76 1.29
6 6 0 70.65 70.80 1.25
6 7 0 88.12 84.69 1.42
6 8 0 60.25 59.18 1.18
6 9 0 0.06 0.23 0.44
6 10 0 90.77 88.27 1.57
6 11 0 0.10 0.26 0.32
6 12 0 64.38 64.30 1.37
6 13 0 20.78 21.54 0.90
6 14 0 8.90 9.28 0.64
6 15 0 26.71 28.56 1.02
6 16 0 6.82 7.32 0.64
6 17 0 8.21 8.97 0.69
6 18 0 22.29 21.30 1.04
6 19 0 6.00 7.00 0.69
6 21 0 2.45 2.27 0.45
6 22 0 24.27 23.64 1.10
6 23 0 0.12 0.68 0.40
6 0 1 41.68 39.69 0.88
6 1 1 121.08 118.97 1.64
6 2 1 86.81 85.98 1.34
6 3 1 77.42 76.41 1.27
6 4 1 87.30 87.87 1.39
6 5 1 106.96 104.92 1.56
6 6 1 9.84 9.51 0.54
6 7 1 61.08 61.24 1.18
6 8 1 53.66 53.00 1.12
6 9 1 1.64 1.47 0.47
6 10 1 1.05 1.46 0.34
6 11 1 27.56 26.75 0.90
6 12 1 12.66 12.82 0.75
6 13 1 121.56 119.97 1.99
6 14 1 39.41 41.27 1.18
6 15 1 18.37 18.61 0.90
6 16 1 11.03 11.78 0.79
6 17 1 71.86 72.13 1.66
6 18 1 64.35 66.56 1.63
6 19 1 17.62 18.58 0.99
6 20 1 12.19 13.21 0.92
6 21 1 8.87 8.06 0.65
6 22 1 23.15 21.88 1.10
6 23 1 10.37 9.36 0.87
6 0 2 18.49 19.26 0.66
6 1 2 114.80 114.34 1.63
6 2 2 179.38 174.70 2.21
6 3 2 3.00 3.32 0.43
6 4 2 0.96 0.86 0.41
6 5 2 48.72 47.47 1.02
6 6 2 8.80 9.52 0.56
6 7 2 18.69 17.99 0.72
6 8 2 47.66 46.67 1.09
6 9 2 6.54 5.46 0.57
6 10 2 109.24 106.63 1.77
6 11 2 3.28 3.71 0.41
6 12 2 30.40 30.57 1.02
6 13 2 10.18 10.79 0.67
6 14 2 93.82 91.41 1.79
6 15 2 1.23 1.02 0.36
6 16 2 8.30 6.99 0.58
6 17 2 14.29 14.29 0.89
6 18 2 6.99 7.48 0.61
6 19 2 6.34 6.95 0.61
6 20 2 1.35 1.83 0.44
6 21 2 9.67 8.76 0.77
6 22 2 5.67 6.24 0.55
6 23 2 11.75 13.47 1.55
6 0 3 11.72 12.31 0.60
6 1 3 98.91 99.53 1.54
6 2 3 17.53 16.60 0.68
6 3 3 201.94 199.94 2.47
6 4 3 67.03 66.70 1.24
6 5 3 4.36 4.55 0.52
6 6 3 23.82 24.45 0.80
6 7 3 56.57 57.49 1.21
6 8 3 24.10 22.84 0.83
6 9 3 26.56 25.36 0.89
6 10 3 0.80 1.29 0.36
6 11 3 6.70 6.83 0.52
6 12 3 22.15 20.71 0.90
6 13 3 4.20 4.38 0.44
6 14 3 47.18 47.99 1.33
6 15 3 31.89 32.25 1.13
6 16 3 30.13 28.33 1.12
6 17 3 12.33 12.78 0.88
6 18 3 69.33 69.50 1.71
6 19 3 46.34 46.94 1.47
6 20 3 3.60 3.01 0.47
6 21 3 21.08 20.90 1.10
6 22 3 29.32 28.88 1.21
6 0 4 0.64 1.05 0.44
6 1 4 96.24 93.85 1.56
6 2 4 20.62 20.97 0.76
6 3 4 56.45 56.69 1.18
6 4 4 1.99 0.91 0.49
6 5 4 38.02 36.75 1.00
6 6 4 68.47 66.85 1.36
6 7 4 4.90 4.92 0.42
6 8 4 17.53 16.87 0.78
6 9 4 41.31 39.90 1.12
6 10 4 48.79 48.22 1.25
6 11 4 2.28 2.48 0.38
6 12 4 28.43 27.29 1.02
6 13 4 3.86 4.67 0.46
6 14 4 40.82 39.61 1.25
6 15 4 4.20 3.81 0.46
6 16 4 30.56 31.87 1.18
6 17 4 80.62 80.17 1.82
6 18 4 9.95 9.87 0.79
6 19 4 31.69 31.35 1.25
6 20 4 12.12 12.34 0.92
6 21 4 55.39 54.40 1.55
6 0 5 15.61 14.27 0.75
6 1 5 66.11 64.89 1.33
6 2 5 18.60 19.63 0.80
6 3 5 108.79 105.84 1.77
6 4 5 20.28 19.05 0.82
6 5 5 4.14 4.18 0.41
6 6 5 42.71 43.74 1.14
6 7 5 11.36 10.14 0.71
6 8 5 0.14 0.26 0.36
6 9 5 34.04 33.66 1.09
6 10 5 2.07 2.29 0.39
6 11 5 20.56 19.30 0.92
6 12 5 23.32 23.12 1.00
6 13 5 8.72 9.51 0.63
6 14 5 21.15 22.59 1.04
6 15 5 2.17 1.91 0.42
6 16 5 16.54 16.80 1.00
6 17 5 1.59 1.88 0.44
6 18 5 17.83 17.71 1.00
6 19 5 6.12 6.00 0.54
6 20 5 0.28 0.09 0.38
6 0 6 53.05 50.79 1.25
6 1 6 101.18 100.91 1.78
6 2 6 74.05 72.23 1.51
6 3 6 56.92 55.79 1.33
6 4 6 18.90 19.61 0.88
6 5 6 79.68 79.46 1.61
6 6 6 70.64 73.75 1.56
6 7 6 6.91 6.32 0.48
6 8 6 11.77 10.81 0.78
6 9 6 75.18 75.84 1.66
6 10 6 13.22 12.69 0.86
6 11 6 34.05 33.13 1.17
6 12 6 39.59 40.44 1.27
6 13 6 34.89 34.69 1.24
6 14 6 13.69 13.15 0.93
6 15 6 41.44 43.47 1.37
6 16 6 26.27 28.78 1.17
6 17 6 23.24 22.76 1.10
6 18 6 8.23 8.62 0.59
6 19 6 14.26 14.29 0.94
6 0 7 17.11 17.69 0.86
6 1 7 1.82 2.25 0.39
6 2 7 49.71 49.87 1.33
6 3 7 12.25 11.79 0.80
6 4 7 7.59 8.16 0.66
6 5 7 20.64 20.66 0.93
6 6 7 96.10 98.46 1.90
6 7 7 1.56 2.31 0.42
6 8 7 18.49 19.00 0.94
6 9 7 5.28 5.08 0.55
6 10 7 57.45 57.92 1.52
6 11 7 5.09 5.12 0.51
6 12 7 16.86 17.48 1.01
6 13 7 16.79 15.52 0.98
6 14 7 12.43 13.81 0.95
6 15 7 3.03 3.51 0.48
6 16 7 0.07 0.09 0.40
6 17 7 10.74 11.89 0.87
6 18 7 6.87 7.08 0.55
6 0 8 27.30 28.41 1.09
6 1 8 1.00 1.24 0.39
6 2 8 13.55 14.80 0.87
6 3 8 49.73 49.42 1.39
6 4 8 8.26 7.79 0.69
6 5 8 3.24 3.41 0.45
6 6 8 11.92 13.20 0.89
6 7 8 50.99 53.27 1.47
6 8 8 0.28 0.73 0.39
6 9 8 2.68 3.15 0.47
6 10 8 6.59 7.84 0.66
6 11 8 18.57 17.67 1.04
6 12 8 1.45 2.41 0.46
6 13 8 10.30 10.48 0.74
6 14 8 15.22 15.31 0.97
6 15 8 40.17 41.40 1.37
6 16 8 22.11 21.21 1.09
6 0 9 37.20 39.18 1.32
6 1 9 1.01 1.11 0.41
6 2 9 11.14 11.47 0.87
6 3 9 12.36 11.25 0.82
6 4 9 9.45 9.01 0.76
6 5 9 2.50 2.72 0.46
6 6 9 11.29 13.12 0.91
6 7 9 6.60 7.05 0.56
6 8 9 27.43 30.19 1.18
6 9 9 5.13 5.84 0.54
6 10 9 41.70 42.29 1.40
6 11 9 5.82 6.59 0.61
6 12 9 34.56 36.56 1.31
6 13 9 14.27 14.01 0.95
6 0 10 3.72 4.95 0.52
6 1 10 40.71 43.65 1.40
6 2 10 45.20 45.99 1.45
6 3 10 1.24 1.62 0.46
6 4 10 5.78 7.06 0.56
6 5 10 49.86 51.83 1.52
6 6 10 8.07 8.60 0.66
6 7 10 21.36 22.67 1.12
6 8 10 0.92 1.58 0.43
6 9 10 3.89 4.56 0.51
6 0 11 6.17 7.47 0.63
6 1 11 28.55 29.74 1.39
6 2 11 3.04 4.31 0.61
7 2 0 72.55 71.75 1.31
7 3 0 13.53 13.72 0.63
7 4 0 3.87 3.83 0.51
7 5 0 54.81 52.79 1.16
7 6 0 22.17 21.19 0.80
7 7 0 2.29 2.43 0.35
7 8 0 34.18 34.81 0.99
7 9 0 44.34 43.11 1.12
7 10 0 101.86 98.41 1.76
7 11 0 32.86 32.86 1.05
7 12 0 24.12 24.39 0.95
7 13 0 0.08 0.08 0.35
7 14 0 17.89 17.48 0.89
7 15 0 16.49 15.19 0.89
7 16 0 2.92 2.50 0.44
7 17 0 12.59 11.54 0.86
7 18 0 1.60 1.23 0.41
7 19 0 3.35 3.11 0.47
7 20 0 22.75 24.94 1.11
7 21 0 18.00 17.91 1.03
7 22 0 1.11 1.44 0.44
7 0 1 222.51 219.77 2.71
7 1 1 57.75 56.63 1.15
7 2 1 16.81 15.96 0.68
7 3 1 40.31 41.63 0.99
7 4 1 69.51 70.22 1.31
7 5 1 72.09 73.17 1.37
7 6 1 39.12 40.00 1.03
7 7 1 22.98 22.91 0.83
7 8 1 0.84 1.15 0.34
7 9 1 102.04 100.53 1.76
7 10 1 19.72 19.11 0.85
7 11 1 18.84 18.24 0.86
7 12 1 0.30 0.51 0.33
7 13 1 36.22 37.08 1.16
7 14 1 20.64 18.13 0.96
7 15 1 11.66 10.76 0.79
7 16 1 18.09 17.38 0.97
7 17 1 36.34 36.05 1.27
7 18 1 41.57 42.94 1.38
7 19 1 27.32 26.40 1.16
7 20 1 11.17 11.22 0.90
7 21 1 26.34 25.27 1.16
7 22 1 33.76 33.68 1.28
7 0 2 12.32 11.52 0.63
7 1 2 2.10 2.05 0.48
7 2 2 37.91 38.87 0.99
7 3 2 28.92 29.16 0.87
7 4 2 13.57 12.66 0.67
7 5 2 48.86 50.68 1.15
7 6 2 211.35 209.18 2.70
7 7 2 7.62 7.09 0.51
7 8 2 17.77 17.52 0.81
7 9 2 25.24 23.61 0.94
7 10 2 145.74 142.62 2.22
7 11 2 10.73 10.68 0.66
7 12 2 58.36 58.44 1.42
7 13 2 5.70 5.28 0.52
7 14 2 6.34 5.77 0.50
7 15 2 17.42 20.04 0.96
7 16 2 15.68 15.20 0.93
7 17 2 6.71 6.16 0.59
7 18 2 10.61 11.25 0.88
7 19 2 1.32 1.66 0.44
7 20 2 1.10 1.89 0.45
7 21 2 0.85 0.98 0.41
7 0 3 3.73 3.77 0.53
7 1 3 119.71 118.33 1.85
7 2 3 31.05 30.22 0.93
7 3 3 17.66 17.97 0.78
7 4 3 26.43 24.59 0.86
7 5 3 103.26 102.91 1.73
7 6 3 43.80 44.39 1.12
7 7 3 11.36 12.04 0.71
7 8 3 38.40 37.52 1.09
7 9 3 6.17 5.69 0.51
7 10 3 6.02 6.00 0.51
7 11 3 6.42 5.96 0.59
7 12 3 14.37 14.91 0.84
7 13 3 20.83 21.39 0.99
7 14 3 42.80 42.63 1.32
7 15 3 14.73 16.36 0.94
7 16 3 25.65 24.61 1.13
7 17 3 33.23 32.50 1.24
7 18 3 8.39 7.92 0.64
7 19 3 22.55 21.17 1.09
7 20 3 12.75 12.67 0.92
7 21 3 9.33 8.87 0.75
7 0 4 2.12 2.62 0.38
7 1 4 65.45 66.39 1.38
7 2 4 12.44 11.96 0.72
7 3 4 24.82 23.42 0.89
7 4 4 57.63 57.11 1.29
7 5 4 51.66 51.96 1.27
7 6 4 48.35 48.63 1.23
7 7 4 5.00 4.52 0.44
7 8 4 9.51 9.15 0.64
7 9 4 17.82 16.53 0.86
7 10 4 11.01 11.82 0.78
7 11 4 14.27 14.01 0.86
7 12 4 28.46 27.27 1.08
7 13 4 40.51 39.41 1.31
7 14 4 11.94 11.82 0.87
7 15 4 37.92 38.26 1.31
7 16 4 33.52 35.50 1.26
7 17 4 22.09 23.20 1.08
7 18 4 14.70 16.12 0.99
7 19 4 26.86 25.66 1.18
7 20 4 2.88 1.94 0.44
7 0 5 2.58 3.01 0.40
7 1 5 22.75 22.07 0.90
7 2 5 21.84 21.71 0.88
7 3 5 8.06 7.25 0.62
7 4 5 32.03 31.44 1.05
7 5 5 32.07 32.65 1.06
7 6 5 27.11 27.31 1.01
7 7 5 46.26 44.96 1.26
7 8 5 63.13 62.66 1.49
7 9 5 5.21 4.83 0.47
7 10 5 43.35 44.24 1.31
7 11 5 13.38 12.03 0.85
7 12 5 30.47 28.17 1.15
7 13 5 5.07 4.59 0.49
7 14 5 52.43 53.23 1.50
7 15 5 2.50 3.15 0.47
7 16 5 12.60 12.18 0.83
7 17 5 4.16 4.03 0.50
7 18 5 6.67 5.67 0.53
7 19 5 4.69 5.49 0.52
7 0 6 14.58 14.39 0.82
7 1 6 61.43 61.36 1.46
7 2 6 74.66 77.14 1.64
7 3 6 56.88 57.66 1.44
7 4 6 53.40 54.81 1.39
7 5 6 6.37 6.49 0.54
7 6 6 13.04 12.12 0.83
7 7 6 32.44 33.65 1.18
7 8 6 28.33 28.38 1.11
7 9 6 9.81 8.91 0.72
7 10 6 7.75 7.49 0.69
7 11 6 24.10 25.22 1.08
7 12 6 7.04 6.68 0.61
7 13 6 12.48 13.41 0.91
7 14 6 9.52 10.81 0.78
7 15 6 18.43 17.46 1.02
7 16 6 20.50 18.90 1.05
7 17 6 16.58 14.81 0.99
7 18 6 7.73 7.03 0.62
7 0 7 31.79 30.58 1.14
7 1 7 1.13 1.22 0.39
7 2 7 69.24 72.34 1.66
7 3 7 8.36 8.19 0.70
7 4 7 3.29 3.12 0.44
7 5 7 4.62 4.81 0.48
7 6 7 2.91 3.26 0.45
7 7 7 20.62 22.26 1.04
7 8 7 33.92 35.50 1.23
7 9 7 18.21 17.15 1.00
7 10 7 35.90 36.98 1.30
7 11 7 13.48 12.89 0.83
7 12 7 22.27 20.53 1.10
7 13 7 7.56 7.63 0.64
7 14 7 29.29 29.03 1.24
7 15 7 6.84 6.87 0.56
7 16 7 0.01 0.19 0.82
7 0 8 0.91 1.19 0.41
7 1 8 31.69 32.22 1.22
7 2 8 69.75 71.15 1.69
7 3 8 16.50 18.22 0.98
7 4 8 6.05 6.33 0.60
7 5 8 9.43 10.49 0.84
7 6 8 3.57 4.49 0.50
7 7 8 9.32 8.66 0.73
7 8 8 3.68 3.91 0.53
7 9 8 23.98 23.47 1.11
7 10 8 1.82 2.10 0.45
7 11 8 28.86 27.59 1.18
7 12 8 16.10 17.18 1.00
7 13 8 20.75 21.04 1.06
7 14 8 2.59 2.43 0.45
7 0 9 3.78 4.65 0.51
7 1 9 3.98 4.46 0.50
7 2 9 10.32 10.42 0.79
7 3 9 6.86 7.19 0.59
7 4 9 19.27 19.28 1.05
7 5 9 11.73 10.71 0.70
7 6 9 9.56 10.33 0.74
7 7 9 3.05 3.82 0.49
7 8 9 58.32 57.61 1.60
7 9 9 0.45 0.69 0.88
7 10 9 31.20 31.74 1.23
7 11 9 6.17 6.60 0.55
7 0 10 0.29 0.22 0.42
7 1 10 31.39 31.22 1.24
7 2 10 2.86 3.94 0.48
7 3 10 63.86 66.23 1.69
7 4 10 6.62 7.47 0.57
7 5 10 0.37 0.72 0.42
7 6 10 10.29 9.73 0.88
8 0 0 2.71 2.36 0.36
8 1 0 1.29 1.72 0.35
8 2 0 49.89 49.54 1.16
8 3 0 0.08 0.14 0.33
8 4 0 2.04 2.38 0.37
8 5 0 10.04 10.63 0.68
8 6 0 135.09 131.63 2.08
8 7 0 18.28 18.02 0.85
8 8 0 5.55 5.73 0.51
8 9 0 63.84 64.28 1.48
8 10 0 18.08 17.86 0.89
8 11 0 21.92 22.84 0.96
8 12 0 9.11 10.22 0.66
8 13 0 56.34 58.59 1.50
8 14 0 1.48 1.28 0.40
8 15 0 1.58 1.80 0.42
8 16 0 34.43 36.32 1.27
8 17 0 16.63 17.06 0.98
8 18 0 0.18 0.53 0.40
8 19 0 9.90 9.30 0.67
8 20 0 0.67 0.79 0.41
8 0 1 34.18 31.59 0.99
8 1 1 30.85 31.18 0.96
8 2 1 100.01 96.58 1.68
8 3 1 0.73 1.24 0.35
8 4 1 33.85 32.72 1.00
8 5 1 68.91 66.95 1.42
8 6 1 2.28 2.56 0.40
8 7 1 22.02 21.90 0.89
8 8 1 4.65 5.12 0.50
8 9 1 62.98 61.22 1.47
8 10 1 3.90 4.35 0.44
8 11 1 4.28 3.98 0.45
8 12 1 20.59 21.27 0.99
8 13 1 26.15 26.32 1.07
8 14 1 4.39 4.56 0.49
8 15 1 18.90 18.61 0.99
8 16 1 8.68 8.75 0.76
8 17 1 17.11 18.44 1.04
8 18 1 3.30 3.94 0.50
8 19 1 40.27 40.70 1.37
8 20 1 35.49 37.56 1.31
8 0 2 0.20 0.56 0.34
8 1 2 2.36 3.13 0.39
8 2 2 32.67 32.38 1.00
8 3 2 11.53 11.44 0.72
8 4 2 131.46 129.82 2.07
8 5 2 2.87 3.08 0.41
8 6 2 51.36 50.09 1.26
8 7 2 13.92 12.53 0.81
8 8 2 178.22 183.00 2.64
8 9 2 1.96 1.97 0.38
8 10 2 24.92 23.21 0.99
8 11 2 5.07 4.21 0.46
8 12 2 26.90 27.82 1.09
8 13 2 2.86 2.75 0.44
8 14 2 27.21 27.28 1.12
8 15 2 3.71 3.71 0.47
8 16 2 21.66 21.31 1.06
8 17 2 5.19 5.40 0.53
8 18 2 4.24 2.93 0.47
8 19 2 2.21 3.03 0.47
8 20 2 10.20 10.45 0.77
8 0 3 82.74 83.12 1.61
8 1 3 2.01 1.91 0.38
8 2 3 14.65 14.76 0.79
8 3 3 36.00 35.07 1.06
8 4 3 42.89 42.19 1.17
8 5 3 23.05 23.07 0.94
8 6 3 34.27 35.96 1.10
8 7 3 35.15 35.08 1.11
8 8 3 20.96 21.33 0.92
8 9 3 59.59 59.93 1.47
8 10 3 69.75 71.20 1.63
8 11 3 10.71 11.02 0.82
8 12 3 62.93 63.34 1.59
8 13 3 34.32 37.64 1.26
8 14 3 14.86 16.00 0.93
8 15 3 0.75 0.54 0.39
8 16 3 11.22 12.32 0.90
8 17 3 2.39 3.25 0.48
8 18 3 5.01 5.99 0.53
8 19 3 1.42 1.86 0.44
8 0 4 5.42 5.53 0.50
8 1 4 13.17 14.13 0.77
8 2 4 15.95 16.41 0.83
8 3 4 45.69 46.07 1.24
8 4 4 22.93 23.87 0.96
8 5 4 10.88 12.13 0.75
8 6 4 6.28 6.93 0.52
8 7 4 39.59 41.30 1.24
8 8 4 65.56 65.52 1.56
8 9 4 24.38 24.66 1.02
8 10 4 29.50 30.91 1.15
8 11 4 56.29 54.58 1.48
8 12 4 15.19 15.74 0.92
8 13 4 25.06 24.78 1.10
8 14 4 25.10 25.10 1.13
8 15 4 36.69 39.05 1.34
8 16 4 7.39 8.44 0.59
8 17 4 6.89 7.19 0.63
8 18 4 0.39 0.56 0.40
8 0 5 0.51 0.67 0.35
8 1 5 21.00 23.51 0.95
8 2 5 17.84 18.29 0.89
8 3 5 14.53 14.93 0.85
8 4 5 16.07 17.17 0.89
8 5 5 34.33 34.09 1.17
8 6 5 46.22 46.79 1.33
8 7 5 8.54 8.35 0.69
8 8 5 36.41 37.16 1.25
8 9 5 13.73 13.54 0.89
8 10 5 50.10 49.81 1.45
8 11 5 0.54 1.11 0.40
8 12 5 55.31 54.10 1.55
8 13 5 0.87 1.23 0.42
8 14 5 6.75 5.51 0.53
8 15 5 12.98 14.12 0.94
8 16 5 9.57 10.28 0.88
8 17 5 5.21 5.44 0.52
8 0 6 83.68 86.02 1.81
8 1 6 1.91 1.89 0.41
8 2 6 8.69 8.45 0.69
8 3 6 12.16 12.37 0.85
8 4 6 36.60 37.13 1.23
8 5 6 21.49 22.51 1.02
8 6 6 14.45 16.50 0.94
8 7 6 31.34 28.48 1.18
8 8 6 13.16 13.07 0.93
8 9 6 4.79 5.30 0.52
8 10 6 0.05 0.14 0.40
8 11 6 28.88 29.71 1.22
8 12 6 0.09 0.03 0.39
8 13 6 8.87 9.86 0.74
8 14 6 2.77 3.32 0.48
8 15 6 14.46 14.87 0.99
8 16 6 17.95 18.84 1.04
8 0 7 55.66 55.09 1.54
8 1 7 4.79 5.03 0.50
8 2 7 1.13 1.32 0.41
8 3 7 11.84 11.39 0.77
8 4 7 57.27 60.32 1.58
8 5 7 1.29 1.02 0.41
8 6 7 2.77 3.13 0.46
8 7 7 36.51 36.07 1.29
8 8 7 29.38 30.60 1.22
8 9 7 9.63 10.41 0.79
8 10 7 0.13 0.13 0.43
8 11 7 30.29 28.51 1.23
8 12 7 32.94 32.95 1.24
8 13 7 7.59 8.73 0.66
8 14 7 11.52 13.26 0.94
8 0 8 45.65 47.77 1.46
8 1 8 43.17 45.11 1.43
8 2 8 10.31 10.05 0.77
8 3 8 36.30 35.51 1.31
8 4 8 11.81 11.81 0.82
8 5 8 14.95 14.23 0.98
8 6 8 8.79 8.96 0.63
8 7 8 12.88 13.45 0.95
8 8 8 3.13 3.12 0.47
8 9 8 3.15 3.94 0.50
8 10 8 4.05 4.48 0.50
8 11 8 20.98 22.58 1.10
8 0 9 6.67 6.29 0.55
8 1 9 5.47 5.85 0.54
8 2 9 19.31 20.08 1.09
8 3 9 16.03 17.25 1.02
8 4 9 19.37 18.02 1.05
8 5 9 0.60 0.91 0.44
8 6 9 42.21 44.47 1.38
8 7 9 20.87 23.33 1.11
8 8 9 6.32 7.56 0.65
9 1 0 0.48 0.57 0.33
9 2 0 23.31 24.24 0.95
9 4 0 180.98 178.93 2.63
9 5 0 0.07 0.58 0.69
9 6 0 6.04 6.73 0.55
9 7 0 7.68 7.28 0.64
9 8 0 128.37 127.23 2.21
9 9 0 5.08 4.42 0.47
9 10 0 16.60 15.88 0.91
9 11 0 25.86 25.27 1.08
9 12 0 5.56 5.58 0.52
9 13 0 6.46 6.83 0.55
9 14 0 40.43 42.57 1.38
9 15 0 36.96 37.79 1.32
9 16 0 0.08 0.11 0.41
9 18 0 4.65 4.70 0.51
9 0 1 7.36 7.50 0.55
9 1 1 12.30 12.00 0.76
9 2 1 26.36 26.76 0.99
9 3 1 14.30 13.12 0.80
9 4 1 4.77 5.92 0.52
9 5 1 7.74 7.03 0.62
9 6 1 19.59 19.82 0.92
9 7 1 40.60 39.74 1.24
9 8 1 13.67 14.43 0.84
9 9 1 37.78 39.17 1.22
9 10 1 4.56 4.36 0.48
9 11 1 34.97 34.95 1.23
9 12 1 3.51 3.31 0.46
9 13 1 59.98 60.22 1.60
9 14 1 13.62 13.77 0.95
9 15 1 4.10 4.25 0.50
9 16 1 9.47 10.34 0.85
9 17 1 23.05 22.13 1.09
9 18 1 1.34 1.40 0.42
9 0 2 113.73 113.30 2.01
9 1 2 1.39 1.83 0.37
9 2 2 4.93 4.62 0.45
9 3 2 3.08 2.83 0.41
9 4 2 92.59 93.17 1.82
9 5 2 31.89 32.97 1.11
9 6 2 10.98 10.11 0.79
9 7 2 11.95 11.29 0.83
9 8 2 6.51 6.36 0.51
9 9 2 61.89 64.54 1.58
9 10 2 9.11 10.16 0.78
9 11 2 16.29 16.04 0.94
9 12 2 19.87 19.63 1.03
9 13 2 34.11 35.73 1.29
9 14 2 11.30 10.72 0.80
9 15 2 10.08 11.01 0.85
9 16 2 17.17 18.52 1.04
9 17 2 4.29 3.71 0.48
9 18 2 12.68 13.20 0.90
9 0 3 19.59 20.36 0.91
9 1 3 19.99 20.80 0.94
9 2 3 74.73 74.39 1.62
9 3 3 0.21 0.07 0.34
9 4 3 7.83 7.86 0.58
9 5 3 21.73 21.86 1.00
9 6 3 26.92 28.15 1.10
9 7 3 17.00 16.68 0.92
9 8 3 84.12 87.07 1.86
9 9 3 8.97 10.09 0.83
9 10 3 48.43 50.26 1.44
9 11 3 15.47 15.84 0.95
9 12 3 42.86 44.92 1.39
9 13 3 4.32 3.98 0.50
9 14 3 30.76 30.96 1.25
9 15 3 2.47 3.62 0.48
9 16 3 2.03 2.18 0.45
9 17 3 4.71 4.95 0.51
9 0 4 67.01 67.32 1.60
9 1 4 0.85 1.60 0.40
9 2 4 3.05 3.49 0.44
9 3 4 13.75 15.45 0.87
9 4 4 41.42 42.93 1.29
9 5 4 18.80 19.45 0.97
9 6 4 28.90 29.47 1.10
9 7 4 14.42 13.38 0.89
9 8 4 33.68 35.46 1.24
9 9 4 19.03 20.76 1.01
9 10 4 46.20 49.61 1.48
9 11 4 0.44 0.58 0.40
9 12 4 35.74 36.12 1.28
9 13 4 1.27 1.33 0.43
9 14 4 4.47 4.52 0.51
9 15 4 5.20 5.39 0.53
9 16 4 4.79 4.79 0.51
9 0 5 71.15 70.05 1.69
9 1 5 12.45 12.37 0.86
9 2 5 43.67 44.13 1.34
9 3 5 41.33 40.68 1.31
9 4 5 13.73 13.40 0.89
9 5 5 0.63 1.16 0.40
9 6 5 16.95 18.03 1.00
9 7 5 36.88 37.10 1.27
9 8 5 19.80 20.86 1.03
9 9 5 1.50 1.62 0.43
9 10 5 2.64 2.94 0.47
9 11 5 21.08 21.01 1.07
9 12 5 10.99 11.80 0.89
9 13 5 9.32 7.88 0.66
9 14 5 2.22 2.84 0.47
9 15 5 9.57 9.56 0.77
9 0 6 0.36 0.89 0.40
9 1 6 2.60 2.89 0.46
9 2 6 16.23 16.22 0.96
9 3 6 29.75 30.65 1.18
9 4 6 9.62 9.28 0.75
9 5 6 11.41 10.96 0.86
9 6 6 9.24 10.22 0.83
9 7 6 16.16 16.18 0.99
9 8 6 3.29 3.23 0.48
9 9 6 22.09 24.06 1.12
9 10 6 5.40 5.28 0.58
9 11 6 22.21 21.34 1.08
9 12 6 7.85 9.31 0.75
9 13 6 8.28 7.93 0.58
9 0 7 19.05 18.54 1.04
9 1 7 5.51 6.13 0.61
9 2 7 21.51 20.95 1.09
9 3 7 5.15 5.57 0.53
9 4 7 20.84 19.86 1.08
9 5 7 19.04 20.34 1.08
9 6 7 63.10 63.94 1.67
9 7 7 1.04 1.37 0.42
9 8 7 21.53 21.34 1.05
9 9 7 12.22 11.64 0.93
9 10 7 12.71 13.57 0.93
9 11 7 1.31 1.42 0.42
9 0 8 4.00 4.44 0.51
9 1 8 2.38 2.37 0.45
9 2 8 2.97 2.99 0.47
9 3 8 13.10 13.80 0.95
9 4 8 23.55 23.87 1.15
9 5 8 7.66 7.03 0.62
9 6 8 16.89 19.15 1.01
9 7 8 28.77 29.70 1.22
9 8 8 4.29 5.13 0.51
10 0 0 274.52 276.46 3.62
10 1 0 0.00 0.08 0.75
10 2 0 10.01 10.41 0.80
10 3 0 1.27 1.77 0.41
10 4 0 118.87 120.81 2.19
10 5 0 11.76 10.63 0.82
10 6 0 23.60 24.83 1.07
10 7 0 1.03 1.34 0.41
10 8 0 3.38 3.12 0.46
10 9 0 20.20 18.78 1.00
10 10 0 4.32 3.76 0.48
10 11 0 1.95 2.48 0.45
10 12 0 1.09 1.96 0.45
10 14 0 7.34 7.56 0.72
10 15 0 1.34 1.61 0.43
10 16 0 0.44 0.15 0.39
10 0 1 0.71 0.75 0.37
10 1 1 40.48 41.52 1.28
10 2 1 12.39 13.40 0.81
10 3 1 18.91 19.38 0.95
10 4 1 14.10 13.29 0.89
10 5 1 5.86 5.88 0.57
10 6 1 40.95 42.04 1.32
10 7 1 11.76 12.00 0.79
10 8 1 2.07 2.21 0.44
10 9 1 8.84 10.21 0.85
10 10 1 10.98 11.20 0.86
10 11 1 49.70 49.29 1.48
10 12 1 10.35 9.07 0.78
10 13 1 9.50 9.46 0.68
10 14 1 9.48 8.98 0.77
10 15 1 16.94 17.20 1.01
10 16 1 2.24 2.39 0.45
10 0 2 54.64 52.47 1.45
10 1 2 3.87 3.72 0.46
10 2 2 50.95 51.42 1.45
10 3 2 13.40 14.61 0.89
10 4 2 17.19 19.09 0.95
10 5 2 6.17 5.43 0.51
10 6 2 2.51 2.74 0.45
10 7 2 37.26 37.54 1.27
10 8 2 7.84 7.51 0.71
10 9 2 2.36 2.74 0.46
10 10 2 32.86 33.13 1.27
10 11 2 45.39 45.25 1.44
10 12 2 1.62 2.37 0.46
10 13 2 0.58 0.98 0.41
10 14 2 35.93 35.29 1.29
10 15 2 33.63 33.89 1.27
10 0 3 8.85 7.70 0.71
10 1 3 0.72 0.73 0.39
10 2 3 15.68 15.36 0.90
10 3 3 5.08 5.18 0.51
10 4 3 15.83 15.84 0.93
10 5 3 8.43 8.38 0.64
10 6 3 57.45 58.61 1.55
10 7 3 2.27 2.46 0.45
10 9 3 10.72 11.01 0.88
10 10 3 24.35 23.41 1.14
10 11 3 1.74 1.85 0.44
10 12 3 21.06 22.31 1.08
10 13 3 28.03 27.86 1.20
10 14 3 2.06 2.56 0.46
10 15 3 4.13 2.52 0.45
10 0 4 2.87 3.26 0.46
10 1 4 8.67 8.92 0.73
10 2 4 14.57 15.02 0.90
10 3 4 19.05 18.23 1.02
10 4 4 13.68 15.85 0.94
10 5 4 34.51 33.23 1.25
10 6 4 4.69 3.98 0.48
10 7 4 39.77 39.80 1.38
10 8 4 21.32 22.52 1.10
10 9 4 13.80 15.95 0.97
10 10 4 22.93 23.30 1.13
10 11 4 20.58 21.52 1.09
10 12 4 1.10 1.56 0.43
10 13 4 0.82 0.97 0.41
10 14 4 20.82 20.17 1.05
10 0 5 17.08 18.34 1.01
10 1 5 32.14 33.20 1.24
10 2 5 32.68 30.87 1.24
10 3 5 1.13 1.30 0.42
10 4 5 22.74 23.61 1.10
10 5 5 57.06 58.24 1.62
10 6 5 18.25 20.22 1.07
10 7 5 2.56 2.24 0.46
10 8 5 11.91 12.81 0.91
10 9 5 43.19 42.32 1.42
10 10 5 12.51 13.39 0.96
10 11 5 2.22 2.20 0.45
10 12 5 10.90 9.52 0.78
10 0 6 0.09 0.18 0.41
10 1 6 9.63 9.49 0.64
10 2 6 11.96 11.93 0.93
10 3 6 0.18 0.45 0.40
10 4 6 2.03 2.02 0.45
10 5 6 3.45 4.04 0.50
10 6 6 3.49 3.23 0.47
10 7 6 13.17 13.34 0.85
10 8 6 5.92 6.41 0.55
10 9 6 6.88 6.80 0.61
10 10 6 15.08 15.94 0.96
10 0 7 3.20 3.47 0.48
10 1 7 4.80 5.93 0.53
10 2 7 88.07 87.25 1.96
10 3 7 3.49 3.76 0.48
10 4 7 9.11 9.44 0.78
10 5 7 4.65 4.73 0.51
10 6 7 37.46 37.79 1.32
10 7 7 11.50 11.97 0.92
11 1 0 0.57 0.79 0.40
11 2 0 191.25 188.45 2.94
11 3 0 10.81 10.68 0.79
11 4 0 0.85 0.67 0.40
11 5 0 0.43 0.39 0.40
11 6 0 17.03 20.25 1.05
11 7 0 59.86 60.13 1.61
11 8 0 0.45 0.91 0.41
11 9 0 1.21 1.75 0.44
11 10 0 11.20 10.66 0.81
11 11 0 54.73 57.11 1.57
11 12 0 5.19 4.58 0.51
11 13 0 10.93 9.96 0.80
11 0 1 0.03 0.31 0.38
11 1 1 31.76 31.29 1.22
11 2 1 1.50 1.62 0.43
11 3 1 9.87 8.83 0.75
11 4 1 8.14 8.30 0.64
11 5 1 27.25 26.91 1.16
11 6 1 1.65 1.68 0.44
11 7 1 27.57 29.28 1.18
11 8 1 14.81 15.50 0.98
11 9 1 2.86 2.16 0.45
11 10 1 7.21 8.20 0.66
11 11 1 5.42 5.35 0.52
11 12 1 0.77 0.88 0.41
11 13 1 13.92 13.85 0.82
11 0 2 8.85 7.74 0.71
11 1 2 9.49 10.39 0.85
11 2 2 17.39 14.96 0.99
11 3 2 22.43 21.53 1.10
11 4 2 10.94 13.30 0.90
11 5 2 1.04 1.53 0.44
11 6 2 1.91 1.99 0.45
11 7 2 20.03 20.44 1.06
11 8 2 8.75 9.67 0.77
11 9 2 2.23 2.34 0.46
11 10 2 3.28 3.29 0.48
11 11 2 21.41 22.32 1.09
11 12 2 6.79 6.15 0.59
11 0 3 16.73 16.39 0.98
11 1 3 19.13 20.01 1.03
11 2 3 9.37 8.97 0.75
11 3 3 0.92 0.62 0.40
11 4 3 29.35 28.50 1.20
11 5 3 17.26 19.78 1.02
11 6 3 17.46 18.78 1.04
11 7 3 13.45 12.96 0.94
11 8 3 16.19 15.81 1.02
11 9 3 2.67 3.23 0.47
11 10 3 3.73 3.81 0.48
11 11 3 18.41 16.78 1.03
11 0 4 7.77 7.20 0.63
11 1 4 13.72 14.98 0.96
11 2 4 27.99 28.54 1.19
11 3 4 35.56 36.48 1.32
11 4 4 7.34 7.66 0.58
11 5 4 3.45 3.36 0.47
11 6 4 15.66 16.98 0.97
11 7 4 5.49 5.23 0.53
11 8 4 0.99 1.45 0.42
11 9 4 12.73 11.25 0.80
11 10 4 4.05 3.48 0.47
11 0 5 7.63 9.25 0.68
11 1 5 14.81 14.93 0.99
11 2 5 35.76 36.09 1.32
11 3 5 22.84 23.36 1.08
11 4 5 2.26 2.49 0.45
11 5 5 3.74 3.17 0.47
11 6 5 47.44 49.60 1.51
11 7 5 11.49 12.55 0.90
11 8 5 0.06 0.27 0.41
11 0 6 19.83 18.74 1.06
11 1 6 5.12 4.92 0.51
11 2 6 0.46 0.95 0.44
11 3 6 28.30 28.63 1.18
11 4 6 6.59 7.18 0.62
12 0 0 10.03 9.20 0.68
12 1 0 13.00 14.26 0.96
12 2 0 5.26 5.51 0.59
12 3 0 25.72 25.43 1.15
12 4 0 2.18 2.39 0.45
12 5 0 18.22 18.04 1.01
12 6 0 21.54 20.97 1.06
12 7 0 7.51 8.26 0.58
12 8 0 0.55 0.61 0.41
12 9 0 36.99 36.79 1.31
12 0 1 12.03 12.67 0.91
12 1 1 4.83 5.25 0.52
12 2 1 4.64 3.91 0.50
12 3 1 24.62 23.00 1.13
12 4 1 7.61 9.07 0.71
12 5 1 37.68 35.36 1.32
12 6 1 0.20 0.53 0.40
12 7 1 21.36 23.34 1.12
12 8 1 9.14 10.33 0.87
12 0 2 0.81 1.01 0.41
12 1 2 5.31 5.27 0.52
12 2 2 49.89 48.68 1.51
12 3 2 1.18 1.56 0.43
12 4 2 9.33 8.87 0.77
12 5 2 8.08 7.94 0.64
12 6 2 16.02 15.49 1.00
12 7 2 4.99 5.02 0.51
12 8 2 5.74 5.45 0.59
12 0 3 0.20 1.09 0.85
12 1 3 16.38 18.48 0.99
12 2 3 0.35 0.84 0.41
12 3 3 20.48 21.28 1.08
12 4 3 1.13 1.90 0.44
12 5 3 6.82 7.21 0.71
12 6 3 1.04 0.91 0.41
12 0 4 12.32 14.55 0.95
12 1 4 45.21 45.15 1.42
12 2 4 7.81 9.29 0.85
12 3 4 17.01 17.56 1.01
