#------------------------------------------------------------------------------
#$Date: 2022-03-02 05:20:08 +0200 (Wed, 02 Mar 2022) $
#$Revision: 273207 $
#$URL: file:///home/coder/svn-repositories/cod/cif/1/56/64/1566435.cif $
#------------------------------------------------------------------------------
#
# This file is available in the Crystallography Open Database (COD),
# http://www.crystallography.net/. The original data for this entry
# were provided by IUCr Journals, http://journals.iucr.org/.
#
# The file may be used within the scientific community so long as
# proper attribution is given to the journal article from which the
# data were obtained.
#
data_1566435
loop_
_publ_author_name
'Ruth, Paul Niklas'
'Herbst-Irmer, Regine'
'Stalke, Dietmar'
_publ_section_title
;
 Hirshfeld atom refinement based on projector augmented wave densities
 with periodic boundary conditions
;
_journal_issue                   2
_journal_name_full               IUCrJ
_journal_page_first              286
_journal_page_last               297
_journal_paper_doi               10.1107/S2052252522001385
_journal_volume                  9
_journal_year                    2022
_chemical_absolute_configuration syn
_chemical_formula_moiety         'C3 H7 N O2'
_chemical_formula_sum            'C3 H7 N O2'
_chemical_formula_weight         89.0947
_space_group_crystal_system      orthorhombic
_space_group_IT_number           19
_space_group_name_Hall           'P 2ac 2ab'
_space_group_name_H-M_alt        'P 21 21 21'
_atom_sites_solution_hydrogens   difmap
_audit_creation_method           'xHARPY 0.1'
_cell_angle_alpha                90
_cell_angle_beta                 90
_cell_angle_gamma                90
_cell_formula_units_Z            4
_cell_length_a                   5.9279(10)
_cell_length_b                   12.2597(17)
_cell_length_c                   5.7939(9)
_cell_measurement_reflns_used    1524
_cell_measurement_temperature    23
_cell_measurement_theta_max      22.5
_cell_measurement_theta_min      15.0
_cell_volume                     421.07(11)
_computing_publication_material  'xHARPY 0.1'
_computing_structure_refinement  'xHARPY 0.1'
_computing_structure_solution    'SHELXS-2013 (Sheldrick, 2008)'
_diffrn_ambient_temperature      23
_diffrn_measured_fraction_theta_full 0.973
_diffrn_measured_fraction_theta_max 0.948
_diffrn_measurement_device_type  'P-1 four circle diffractometer'
_diffrn_measurement_method       'area detector'
_diffrn_radiation_type           MoK\a
_diffrn_radiation_wavelength     0.71073
_diffrn_reflns_av_unetI/netI     0.0243
_diffrn_reflns_Laue_measured_fraction_full 0.973
_diffrn_reflns_Laue_measured_fraction_max 0.948
_diffrn_reflns_limit_h_max       12
_diffrn_reflns_limit_h_min       0
_diffrn_reflns_limit_k_max       26
_diffrn_reflns_limit_k_min       0
_diffrn_reflns_limit_l_max       12
_diffrn_reflns_limit_l_min       0
_diffrn_reflns_number            2519
_diffrn_reflns_point_group_measured_fraction_full 0.605
_diffrn_reflns_point_group_measured_fraction_max 0.541
_diffrn_reflns_theta_full        25.242
_diffrn_reflns_theta_max         50.138
_diffrn_reflns_theta_min         3.323
_exptl_absorpt_coefficient_mu    0.117
_exptl_absorpt_correction_type   none
_exptl_crystal_colour            colorless
_exptl_crystal_density_diffrn    1.405
_exptl_crystal_density_method    'not measured'
_exptl_crystal_description       sphere
_exptl_crystal_F_000             192
_exptl_crystal_size_rad          0.18
_refine_diff_density_max         0.1644
_refine_diff_density_min         -0.1750
_refine_diff_density_rms         0.0400
_refine_ls_extinction_method     none
_refine_ls_goodness_of_fit_ref   1.093
_refine_ls_hydrogen_treatment    refall
_refine_ls_matrix_type           full
_refine_ls_number_parameters     118
_refine_ls_number_reflns         2405
_refine_ls_number_restraints     0
_refine_ls_R_factor_all          0.0187
_refine_ls_R_factor_gt           0.0183
_refine_ls_shift/su_max          0.0
_refine_ls_shift/su_mean         0.0
_refine_ls_structure_factor_coef Fsqd
_refine_ls_weighting_details     w=1/[\s^2^(Fo^2^)]
_refine_ls_weighting_scheme      sigma
_refine_ls_wR_factor_gt          0.03
_refine_ls_wR_factor_ref         0.0301
_reflns_Friedel_coverage         0.0
_reflns_Friedel_fraction_full    0.0
_reflns_Friedel_fraction_max     0.0
_reflns_number_gt                2373
_reflns_number_total             2405
_reflns_threshold_expression     'I > 2\s(I)'
_cod_data_source_file            fc5060.cif
_cod_data_source_block           A23_xharpy_SCAN_iovs_cut
_cod_database_code               1566435
loop_
_space_group_symop_operation_xyz
'x, y, z'
'-x+1/2, -y, z+1/2'
'x+1/2, -y+1/2, -z'
'-x, y+1/2, -z+1/2'
loop_
_atom_site_label
_atom_site_type_symbol
_atom_site_fract_x
_atom_site_fract_y
_atom_site_fract_z
_atom_site_U_iso_or_equiv
_atom_site_adp_type
_atom_site_occupancy
_atom_site_site_symmetry_order
O1 O 0.72673(4) 0.083790(16) 0.62434(4) 0.00662(3) Uani 1.0 1
O2 O 0.44092(4) 0.184041(16) 0.76114(4) 0.00645(3) Uani 1.0 1
N1 N 0.64720(4) 0.137520(20) 0.18302(5) 0.00527(3) Uani 1.0 1
H1 H 0.7042(11) 0.0596(5) 0.1963(14) 0.0219(18) Uani 1.0 1
H2 H 0.7795(10) 0.1902(5) 0.2083(13) 0.0189(17) Uani 1.0 1
H3 H 0.5845(11) 0.1493(5) 0.0139(12) 0.0181(17) Uani 1.0 1
C1 C 0.46633(4) 0.161083(20) 0.35442(5) 0.00437(3) Uani 1.0 1
H4 H 0.4241(9) 0.2482(4) 0.3388(11) 0.0186(15) Uani 1.0 1
C2 C 0.25992(5) 0.09067(2) 0.30335(5) 0.00683(4) Uani 1.0 1
H5 H 0.1926(10) 0.1106(5) 0.1315(12) 0.0268(18) Uani 1.0 1
H6 H 0.1273(10) 0.1047(5) 0.4303(13) 0.0276(18) Uani 1.0 1
H7 H 0.3045(10) 0.0044(5) 0.3073(13) 0.0289(19) Uani 1.0 1
C3 C 0.55408(4) 0.140793(19) 0.59992(5) 0.00412(3) Uani 1.0 1
loop_
_atom_site_aniso_label
_atom_site_aniso_U_11
_atom_site_aniso_U_22
_atom_site_aniso_U_33
_atom_site_aniso_U_23
_atom_site_aniso_U_13
_atom_site_aniso_U_12
O1 0.00681(7) 0.00722(6) 0.00584(8) 0.00051(6) -0.00061(6) 0.00246(6)
O2 0.00764(7) 0.00764(6) 0.00407(7) -0.00057(6) 0.00056(6) 0.00201(6)
N1 0.00563(7) 0.00600(7) 0.00418(8) -0.00007(6) 0.00047(6) 0.00005(6)
H1 0.022(4) 0.023(4) 0.020(5) -0.000(3) 0.008(4) 0.004(3)
H2 0.013(3) 0.023(3) 0.021(5) 0.003(3) 0.007(4) 0.000(3)
H3 0.026(4) 0.019(4) 0.008(4) -0.005(3) 0.006(3) -0.003(4)
C1 0.00502(8) 0.00460(7) 0.00348(9) 0.00003(6) -0.00028(7) 0.00043(6)
H4 0.023(3) 0.014(3) 0.019(4) 0.005(3) 0.005(3) 0.009(3)
C2 0.00575(8) 0.00876(8) 0.00599(10) -0.00041(8) -0.00060(7) -0.00132(7)
H5 0.023(4) 0.046(5) 0.011(4) 0.007(3) -0.010(3) -0.012(3)
H6 0.015(3) 0.036(4) 0.033(5) 0.003(4) 0.005(4) -0.002(3)
H7 0.033(5) 0.016(3) 0.038(5) -0.003(3) 0.004(4) -0.006(3)
C3 0.00481(7) 0.00427(7) 0.00326(9) 0.00001(6) -0.00030(7) 0.00034(7)
loop_
_atom_type_symbol
_atom_type_description
_atom_type_scat_dispersion_real
_atom_type_scat_dispersion_imag
_atom_type_scat_source
C C 0.0033 0.0016 'HAR in xHARPy 0.1'
H H 0.0000 0.0000 'HAR in xHARPy 0.1'
N N 0.0061 0.0033 'HAR in xHARPy 0.1'
O O 0.0106 0.0060 'HAR in xHARPy 0.1'
loop_
_geom_angle_atom_site_label_1
_geom_angle_atom_site_label_2
_geom_angle_atom_site_label_3
_geom_angle
C1 N1 H1 111.8(4)
C1 N1 H2 109.4(4)
H1 N1 H2 109.1(5)
C1 N1 H3 109.8(4)
H1 N1 H3 108.4(5)
H2 N1 H3 108.3(5)
N1 C1 C2 109.76(2)
N1 C1 C3 110.03(2)
C2 C1 C3 111.08(2)
N1 C1 H4 107.3(3)
C2 C1 H4 110.5(3)
C3 C1 H4 108.1(3)
C1 C2 H5 109.9(3)
C1 C2 H6 111.0(3)
H5 C2 H6 108.3(4)
C1 C2 H7 110.5(3)
H5 C2 H7 108.8(5)
H6 C2 H7 108.3(5)
O1 C3 O2 125.84(3)
O1 C3 C1 118.29(2)
O2 C3 C1 115.86(2)
loop_
_geom_bond_atom_site_label_1
_geom_bond_atom_site_label_2
_geom_bond_distance
O1 C3 1.2473(4)
O2 C3 1.2663(4)
N1 C1 1.4897(4)
N1 H1 1.016(6)
N1 H2 1.027(6)
N1 H3 1.058(7)
C1 C2 1.5264(4)
C1 C3 1.5348(4)
C1 H4 1.101(5)
C2 H5 1.100(7)
C2 H6 1.090(7)
C2 H7 1.090(6)
loop_
_refln_index_h
_refln_index_k
_refln_index_l
_refln_F_squared_calc
_refln_F_squared_meas
_refln_F_squared_sigma
0 2 0 182.23 183.52 1.76
0 4 0 5355.63 5178.22 44.47
0 6 0 89.77 89.56 1.04
0 8 0 45.16 45.29 0.72
0 10 0 0.71 0.80 0.38
0 12 0 235.66 232.44 2.66
0 14 0 56.57 58.48 1.13
0 16 0 24.64 25.21 0.86
0 18 0 225.55 227.32 2.99
0 22 0 132.95 135.35 2.36
0 26 0 5.47 6.44 0.62
0 1 1 727.73 723.39 7.33
0 2 1 118.03 119.37 1.22
0 3 1 695.61 707.58 6.41
0 4 1 95.40 98.13 1.07
0 6 1 474.78 474.30 4.58
0 7 1 36.62 36.87 0.61
0 8 1 44.22 44.30 0.73
0 9 1 31.97 32.03 0.67
0 10 1 134.97 137.11 1.70
0 11 1 67.46 66.63 1.11
0 12 1 76.41 76.24 1.24
0 13 1 19.48 18.80 0.70
0 14 1 39.09 37.85 0.95
0 15 1 91.14 90.84 1.56
0 17 1 0.88 1.13 0.37
0 18 1 61.49 59.79 1.37
0 19 1 15.71 16.13 0.90
0 20 1 27.83 27.41 1.06
0 21 1 2.07 2.68 0.44
0 23 1 1.79 1.73 0.46
0 25 1 2.31 2.99 0.58
0 26 1 19.60 19.75 1.25
0 0 2 2909.00 2838.41 33.36
0 1 2 515.59 532.42 6.56
0 2 2 174.83 181.32 2.08
0 3 2 56.18 56.11 0.80
0 4 2 171.33 170.97 1.79
0 5 2 555.13 566.02 5.33
0 6 2 92.43 96.57 1.16
0 7 2 5.13 5.41 0.34
0 8 2 108.84 111.57 1.40
0 9 2 21.84 23.65 0.60
0 10 2 45.90 46.19 0.86
0 11 2 84.06 83.66 1.27
0 12 2 28.25 28.21 0.76
0 13 2 21.78 21.46 0.71
0 14 2 22.26 21.26 0.76
0 15 2 181.81 181.07 2.39
0 16 2 3.99 4.44 0.42
0 17 2 63.11 60.98 1.39
0 18 2 19.47 20.38 0.93
0 19 2 118.02 119.71 2.10
0 20 2 0.87 0.98 0.47
0 21 2 45.93 45.88 1.37
0 22 2 37.29 36.77 1.30
0 23 2 16.75 17.98 1.04
0 24 2 1.82 2.49 0.48
0 25 2 21.69 22.43 1.28
0 26 2 1.71 2.56 0.52
0 1 3 82.04 83.87 1.76
0 2 3 154.53 157.54 2.93
0 3 3 202.73 205.13 2.45
0 4 3 718.40 737.97 7.78
0 5 3 79.63 81.20 1.20
0 6 3 267.84 271.96 2.85
0 7 3 22.13 22.37 0.57
0 8 3 61.00 61.56 1.00
0 9 3 145.03 142.52 1.79
0 10 3 39.89 39.56 0.83
0 11 3 68.59 70.27 1.19
0 12 3 119.24 118.75 1.70
0 13 3 144.24 145.30 2.01
0 14 3 28.96 27.78 0.86
0 15 3 90.66 90.33 1.59
0 16 3 155.47 154.57 2.27
0 17 3 48.61 47.15 1.25
0 18 3 27.92 26.96 1.00
0 19 3 3.11 2.50 0.43
0 20 3 43.52 44.37 1.34
0 21 3 0.84 0.87 0.44
0 22 3 0.61 1.15 0.45
0 23 3 26.73 28.11 1.18
0 24 3 12.10 12.70 0.93
0 25 3 5.76 4.97 0.59
0 0 4 208.41 209.37 3.91
0 1 4 38.47 39.76 1.21
0 2 4 91.96 92.92 2.06
0 3 4 7.57 7.99 0.46
0 4 4 224.54 229.14 2.84
0 5 4 0.34 0.68 0.45
0 6 4 71.56 70.83 1.23
0 7 4 29.75 29.17 0.78
0 8 4 65.27 64.39 1.08
0 9 4 7.11 7.19 0.47
0 10 4 87.82 90.21 1.38
0 11 4 97.28 97.84 1.52
0 12 4 39.16 38.95 0.97
0 13 4 10.95 11.47 0.66
0 14 4 143.09 142.22 2.09
0 15 4 46.12 45.20 1.19
0 16 4 94.35 94.54 1.75
0 17 4 5.24 5.70 0.47
0 18 4 10.14 9.62 0.76
0 19 4 3.86 3.36 0.46
0 20 4 1.64 1.83 0.44
0 22 4 3.58 4.35 0.51
0 24 4 25.81 26.53 1.14
0 25 4 2.25 2.89 0.53
0 1 5 238.71 235.77 4.53
0 2 5 139.03 137.08 2.96
0 3 5 49.53 49.14 1.55
0 4 5 385.43 388.52 4.59
0 5 5 178.66 177.47 2.43
0 6 5 0.70 0.77 0.49
0 7 5 6.89 6.61 0.54
0 8 5 148.12 145.02 2.18
0 9 5 73.22 69.26 1.42
0 10 5 9.17 7.94 0.56
0 11 5 21.73 20.72 0.79
0 12 5 1.35 1.49 0.35
0 13 5 77.85 79.07 1.51
0 14 5 2.77 3.52 0.42
0 15 5 13.28 14.08 0.80
0 16 5 13.85 13.26 0.81
0 17 5 73.67 76.90 1.66
0 18 5 2.70 2.33 0.44
0 19 5 14.20 13.60 0.90
0 21 5 21.09 19.61 1.05
0 22 5 4.74 5.49 0.54
0 23 5 14.14 12.50 0.98
0 1 6 95.09 93.62 2.46
0 2 6 15.30 16.18 1.04
0 3 6 0.94 1.49 0.74
0 4 6 16.99 15.97 1.10
0 5 6 85.54 86.13 1.58
0 6 6 11.95 11.16 0.67
0 7 6 143.73 141.85 2.25
0 8 6 31.26 29.95 0.99
0 9 6 12.71 14.33 0.78
0 10 6 15.73 15.58 0.83
0 11 6 118.67 117.04 1.90
0 12 6 6.47 6.30 0.57
0 13 6 4.36 4.77 0.50
0 14 6 10.84 11.67 0.75
0 16 6 43.62 41.48 1.29
0 17 6 29.10 29.08 1.11
0 18 6 6.86 7.79 0.70
0 19 6 43.38 44.15 1.39
0 20 6 1.33 1.84 0.46
0 21 6 22.32 21.27 1.10
0 22 6 10.26 10.57 0.79
0 23 6 16.99 16.97 1.01
0 1 7 61.49 58.69 2.07
0 2 7 550.75 540.44 9.76
0 4 7 11.87 11.76 1.12
0 5 7 24.67 24.05 1.45
0 6 7 43.00 43.10 1.23
0 7 7 47.56 46.59 1.29
0 8 7 1.53 1.94 0.46
0 9 7 4.41 4.93 0.53
0 10 7 10.22 9.20 0.83
0 11 7 30.04 31.36 1.20
0 12 7 5.08 5.83 0.66
0 13 7 13.19 11.63 0.81
0 14 7 1.05 1.48 0.42
0 16 7 83.43 81.57 1.82
0 17 7 0.50 1.05 0.45
0 18 7 1.42 2.30 0.47
0 19 7 5.19 6.85 0.57
0 20 7 137.09 135.03 2.45
0 21 7 0.40 0.92 0.45
0 0 8 25.89 24.44 1.53
0 1 8 2.99 3.58 1.02
0 2 8 9.62 8.70 1.19
0 3 8 16.70 15.69 1.37
0 4 8 1.89 1.73 1.13
0 6 8 10.16 10.26 0.83
0 7 8 58.36 59.54 1.57
0 8 8 89.04 87.38 1.93
0 9 8 11.27 12.25 0.88
0 10 8 5.32 6.53 0.72
0 11 8 41.09 40.03 1.41
0 12 8 39.92 40.17 1.46
0 13 8 32.55 32.11 1.36
0 14 8 11.09 12.52 1.00
0 16 8 0.59 1.00 0.45
0 17 8 7.18 6.56 0.56
0 19 8 10.35 9.22 0.78
0 20 8 5.68 6.15 0.54
0 1 9 6.66 8.51 1.21
0 2 9 48.09 46.31 2.22
0 3 9 62.61 63.26 2.55
0 4 9 21.10 22.18 1.65
0 7 9 47.55 46.46 1.54
0 8 9 79.28 79.55 1.96
0 9 9 17.19 16.45 1.08
0 10 9 13.86 13.83 1.04
0 11 9 1.76 2.24 0.56
0 12 9 35.41 34.84 1.40
0 13 9 29.17 29.10 1.35
0 15 9 46.22 47.24 1.65
0 16 9 13.47 14.44 1.11
0 17 9 15.36 15.50 1.00
0 18 9 8.34 8.57 0.66
0 0 10 5.20 4.81 1.32
0 2 10 21.12 20.68 1.77
0 3 10 49.04 48.89 2.44
0 4 10 27.68 28.30 1.98
0 5 10 32.71 32.66 2.09
0 6 10 41.04 41.55 2.36
0 7 10 53.94 54.27 2.63
0 8 10 58.38 60.12 1.81
0 9 10 6.69 6.73 0.68
0 10 10 1.25 1.86 0.56
0 11 10 17.57 16.36 1.16
0 12 10 12.02 13.41 0.94
0 13 10 11.51 12.52 1.07
0 14 10 46.27 43.52 1.64
0 15 10 5.06 5.85 0.67
0 2 11 2.05 2.69 1.41
0 3 11 7.63 6.78 1.57
0 6 11 8.89 7.71 1.62
0 7 11 2.45 3.09 1.54
0 8 11 7.85 8.38 1.61
0 9 11 7.69 7.99 0.79
0 10 11 0.77 1.57 0.59
0 11 11 9.21 8.34 0.86
0 12 11 31.35 30.12 1.41
0 1 12 28.84 26.98 2.30
0 2 12 18.98 20.18 2.01
0 3 12 118.79 116.06 3.98
0 5 12 9.34 9.77 1.80
0 6 12 54.50 55.71 2.79
0 7 12 69.16 64.73 3.08
1 1 0 251.68 251.19 2.37
1 2 0 5370.48 5480.23 58.18
1 3 0 58.22 59.03 0.69
1 4 0 1715.28 1676.49 14.78
1 5 0 335.11 337.98 3.29
1 6 0 63.45 61.80 0.80
1 7 0 19.12 19.23 0.44
1 8 0 395.96 401.67 4.00
1 9 0 2.65 3.26 0.35
1 10 0 41.11 43.01 0.80
1 11 0 94.60 96.77 1.36
1 12 0 26.14 26.89 0.72
1 13 0 58.65 57.26 1.08
1 14 0 1.51 0.86 0.51
1 15 0 85.10 86.21 1.49
1 16 0 24.42 24.43 0.85
1 17 0 30.20 29.51 0.97
1 18 0 0.79 0.94 0.44
1 19 0 33.96 33.69 1.10
1 20 0 41.94 40.22 1.26
1 21 0 1.20 1.44 0.47
1 22 0 3.79 3.99 0.49
1 23 0 6.05 7.00 0.61
1 24 0 9.74 9.78 0.80
1 26 0 6.62 7.31 0.66
1 0 1 73.96 76.70 0.83
1 1 1 128.76 133.41 1.36
1 2 1 102.13 104.00 1.10
1 3 1 1083.39 1086.33 9.68
1 4 1 155.75 156.85 1.64
1 5 1 437.88 437.37 4.23
1 6 1 21.10 21.86 0.44
1 7 1 335.63 338.95 3.41
1 8 1 231.52 234.32 2.49
1 9 1 229.52 232.02 2.54
1 10 1 133.99 131.07 1.67
1 11 1 17.15 17.13 0.56
1 13 1 128.07 127.49 1.78
1 14 1 30.17 29.54 0.83
1 15 1 88.08 87.52 1.52
1 16 1 61.82 61.71 1.30
1 17 1 25.26 25.40 0.92
1 18 1 23.23 23.76 0.94
1 19 1 14.61 15.29 0.84
1 20 1 6.38 5.82 0.50
1 21 1 1.45 2.06 0.44
1 22 1 33.17 34.73 1.22
1 23 1 9.51 10.65 0.90
1 24 1 21.72 20.92 1.09
1 25 1 8.65 9.49 0.83
1 26 1 0.77 2.00 0.51
1 0 2 3262.82 3101.92 36.21
1 1 2 68.70 71.59 0.94
1 2 2 566.98 571.81 6.13
1 3 2 192.61 193.88 2.03
1 4 2 1060.49 1063.09 9.64
1 5 2 18.36 18.59 0.42
1 6 2 216.29 219.26 2.31
1 7 2 162.16 161.87 1.82
1 8 2 10.66 10.23 0.44
1 9 2 58.47 61.74 0.99
1 10 2 59.71 59.41 1.00
1 11 2 116.91 117.82 1.59
1 12 2 117.22 115.28 1.62
1 13 2 111.66 110.10 1.64
1 14 2 54.53 54.66 1.13
1 15 2 30.87 31.61 0.93
1 16 2 29.23 27.60 0.95
1 17 2 77.43 75.64 1.53
1 18 2 109.06 109.98 1.93
1 19 2 40.06 41.17 1.21
1 20 2 10.32 9.69 0.72
1 21 2 21.96 22.85 1.03
1 22 2 38.56 36.54 1.28
1 23 2 43.32 43.36 1.44
1 24 2 9.63 10.64 0.81
1 26 2 3.67 4.48 0.57
1 0 3 30.96 32.01 0.93
1 1 3 293.91 302.25 5.24
1 2 3 220.95 224.53 2.64
1 3 3 89.25 91.64 1.28
1 4 3 92.55 95.57 1.34
1 5 3 23.01 23.01 0.53
1 6 3 134.45 137.98 1.63
1 7 3 4.83 5.18 0.38
1 8 3 256.85 257.38 2.82
1 9 3 29.02 28.99 0.71
1 10 3 78.97 79.61 1.24
1 11 3 15.46 16.65 0.60
1 12 3 32.39 32.26 0.84
1 13 3 34.93 33.77 0.92
1 14 3 115.34 114.73 1.79
1 15 3 34.20 33.46 0.99
1 16 3 9.98 9.29 0.62
1 17 3 25.97 25.00 0.95
1 18 3 27.60 26.50 1.01
1 19 3 27.69 27.19 1.06
1 20 3 7.90 7.76 0.68
1 21 3 24.12 23.56 1.06
1 22 3 6.64 7.19 0.62
1 23 3 2.89 2.75 0.48
1 24 3 8.10 8.13 0.66
1 25 3 15.75 17.89 1.18
1 0 4 328.07 328.07 5.86
1 1 4 249.87 259.80 4.74
1 2 4 27.20 28.72 1.05
1 3 4 22.40 23.39 0.64
1 4 4 108.51 109.57 1.57
1 5 4 81.66 83.61 1.34
1 6 4 130.80 130.24 1.87
1 7 4 84.23 83.64 1.23
1 8 4 45.07 45.13 0.88
1 9 4 2.19 2.17 0.41
1 10 4 21.97 22.68 0.71
1 11 4 64.18 62.29 1.18
1 12 4 145.24 140.74 2.00
1 13 4 25.59 27.10 0.86
1 14 4 42.00 39.38 1.07
1 15 4 2.16 2.97 0.41
1 16 4 22.23 23.56 0.92
1 17 4 26.75 28.06 1.03
1 18 4 56.84 58.54 1.47
1 19 4 40.00 40.77 1.26
1 20 4 9.04 9.24 0.81
1 21 4 11.18 10.80 0.80
1 22 4 20.97 21.75 1.06
1 23 4 14.60 15.07 0.98
1 24 4 2.23 2.13 0.46
1 0 5 283.31 284.30 5.33
1 1 5 120.35 122.31 2.73
1 2 5 471.69 463.30 8.15
1 3 5 177.80 176.14 3.65
1 4 5 111.11 108.02 1.70
1 5 5 8.55 8.55 0.54
1 6 5 227.37 229.55 3.02
1 7 5 73.46 72.90 1.39
1 8 5 70.90 69.27 1.38
1 9 5 92.28 89.97 1.47
1 10 5 9.73 9.51 0.58
1 11 5 34.79 35.83 0.96
1 12 5 24.91 25.06 0.86
1 13 5 44.72 44.69 1.15
1 14 5 39.85 40.17 1.12
1 15 5 29.73 29.82 1.03
1 16 5 74.58 78.55 1.64
1 17 5 11.18 11.45 0.81
1 18 5 7.41 6.96 0.66
1 19 5 18.03 18.67 0.99
1 20 5 65.20 64.61 1.65
1 21 5 25.03 25.09 1.12
1 22 5 1.49 1.73 0.46
1 23 5 3.47 4.58 0.51
1 24 5 17.93 17.42 1.01
1 2 6 7.73 7.54 0.85
1 3 6 12.82 12.42 1.01
1 4 6 16.19 15.99 1.10
1 5 6 12.84 13.28 0.68
1 6 6 22.11 21.87 0.82
1 7 6 7.55 7.77 0.63
1 8 6 9.96 9.09 0.70
1 9 6 11.52 11.07 0.78
1 10 6 2.71 2.43 0.46
1 11 6 10.79 9.83 0.69
1 12 6 29.66 28.98 0.97
1 13 6 7.60 7.53 0.61
1 14 6 27.99 27.99 1.01
1 15 6 11.88 11.00 0.83
1 16 6 2.98 2.97 0.45
1 17 6 21.02 21.51 1.01
1 18 6 13.82 13.84 0.90
1 19 6 10.97 11.79 0.87
1 20 6 33.41 31.58 1.26
1 21 6 9.07 9.40 0.79
1 22 6 10.20 8.62 0.77
1 23 6 11.61 12.02 0.90
1 0 7 249.35 247.74 5.18
1 1 7 26.15 26.83 1.47
1 2 7 59.49 61.31 2.13
1 3 7 80.06 81.39 2.51
1 4 7 144.41 141.20 3.54
1 5 7 29.32 30.56 1.05
1 6 7 62.64 61.69 1.48
1 7 7 10.51 9.51 0.78
1 8 7 57.48 56.31 1.46
1 9 7 68.46 67.32 1.62
1 10 7 17.98 18.75 0.98
1 11 7 21.66 21.83 0.92
1 12 7 2.58 1.90 0.49
1 13 7 41.22 42.32 1.26
1 14 7 26.09 24.61 1.06
1 15 7 34.33 32.30 1.19
1 16 7 23.32 25.85 1.08
1 17 7 19.35 20.50 1.03
1 18 7 45.02 43.03 1.40
1 19 7 6.81 6.75 0.62
1 20 7 14.40 15.43 1.00
1 21 7 9.17 9.30 0.68
1 0 8 10.04 10.44 1.24
1 1 8 34.22 35.32 1.81
1 2 8 19.33 19.84 1.47
1 3 8 31.17 32.11 1.73
1 4 8 33.22 32.77 1.78
1 5 8 103.90 102.23 3.13
1 6 8 16.07 15.04 0.94
1 7 8 95.03 91.34 1.97
1 8 8 3.64 3.25 0.51
1 9 8 50.85 51.22 1.53
1 10 8 41.59 39.72 1.39
1 11 8 94.19 95.52 2.13
1 12 8 12.82 11.77 0.99
1 13 8 28.58 28.31 1.28
1 14 8 1.93 1.20 0.57
1 15 8 43.67 46.27 1.39
1 16 8 5.25 5.59 0.53
1 17 8 28.94 26.82 1.20
1 18 8 4.49 5.46 0.53
1 19 8 1.86 2.27 0.47
1 1 9 3.13 2.24 1.14
1 2 9 50.31 51.54 2.29
1 4 9 3.73 3.26 1.25
1 5 9 28.19 28.59 1.86
1 6 9 8.84 10.05 1.34
1 7 9 14.66 15.87 1.03
1 8 9 7.98 8.35 0.76
1 9 9 19.86 19.83 1.13
1 10 9 31.28 29.58 1.33
1 11 9 45.17 46.10 1.59
1 12 9 8.37 8.94 0.84
1 13 9 16.89 16.09 1.15
1 14 9 7.28 7.93 0.84
1 15 9 21.69 22.24 1.26
1 16 9 42.75 42.93 1.60
1 17 9 18.00 18.29 1.06
1 18 9 11.80 11.57 0.92
1 0 10 2.68 3.47 1.29
1 1 10 24.17 25.73 1.91
1 3 10 17.80 20.16 1.75
1 4 10 21.59 21.71 1.86
1 5 10 32.97 32.69 2.12
1 6 10 40.52 41.60 2.34
1 7 10 33.10 31.70 2.14
1 8 10 24.37 24.53 1.27
1 9 10 7.52 7.38 0.83
1 10 10 60.57 55.98 1.82
1 11 10 15.54 16.30 1.16
1 12 10 48.00 45.58 1.65
1 14 10 7.78 6.57 0.69
1 15 10 11.01 10.54 0.90
1 1 11 13.54 12.00 1.67
1 2 11 34.53 33.82 2.30
1 3 11 23.84 23.40 2.00
1 4 11 11.90 11.91 1.68
1 5 11 5.17 6.15 1.54
1 6 11 2.94 3.95 1.49
1 7 11 7.76 8.61 1.65
1 8 11 16.53 15.63 1.21
1 9 11 24.86 23.52 1.32
1 10 11 19.44 18.73 1.24
1 11 11 2.73 3.60 0.61
1 12 11 0.78 1.61 0.58
1 0 12 16.54 17.88 1.98
1 1 12 75.67 76.00 3.21
1 2 12 9.28 8.30 1.84
1 3 12 3.10 3.23 1.81
1 4 12 27.79 29.05 2.26
1 5 12 71.50 68.61 3.15
1 6 12 2.71 2.86 1.81
1 7 12 23.85 22.86 2.13
2 0 0 41.03 41.87 0.54
2 1 0 30.89 31.08 0.45
2 2 0 1719.59 1676.46 14.80
2 3 0 795.24 785.52 7.18
2 4 0 35.73 35.80 0.53
2 5 0 90.86 91.01 1.08
2 6 0 2107.26 2078.36 18.49
2 7 0 291.01 293.34 3.02
2 8 0 0.38 0.76 0.34
2 9 0 235.24 234.63 2.59
2 10 0 249.96 254.00 2.79
2 11 0 2.20 2.41 0.37
2 12 0 45.13 43.34 0.92
2 13 0 166.33 167.74 2.14
2 14 0 11.63 10.92 0.61
2 15 0 72.04 69.85 1.33
2 16 0 38.94 36.94 1.03
2 17 0 36.35 35.63 1.05
2 18 0 43.31 43.64 1.21
2 19 0 36.29 37.71 1.16
2 20 0 1.66 0.93 0.42
2 21 0 8.39 7.73 0.66
2 22 0 15.83 15.10 0.94
2 23 0 10.74 11.15 0.89
2 24 0 32.44 32.35 1.25
2 25 0 3.10 4.12 0.60
2 26 0 1.00 1.07 0.51
2 0 1 1.44 1.63 0.17
2 1 1 78.03 77.90 0.88
2 2 1 274.97 277.04 2.74
2 3 1 525.91 535.72 5.05
2 4 1 155.37 157.59 1.66
2 5 1 420.75 426.20 4.16
2 6 1 23.19 22.88 0.49
2 7 1 95.74 97.85 1.24
2 8 1 4.10 4.84 0.37
2 9 1 274.38 272.82 2.94
2 10 1 8.98 8.70 0.47
2 11 1 5.33 4.74 0.45
2 12 1 41.73 40.65 0.89
2 13 1 80.94 79.71 1.35
2 14 1 43.46 44.68 1.03
2 15 1 21.72 23.72 0.81
2 16 1 3.41 3.56 0.41
2 17 1 11.57 10.06 0.70
2 18 1 10.42 9.94 0.74
2 19 1 29.06 29.21 1.07
2 20 1 70.05 71.57 1.64
2 21 1 27.34 28.84 1.13
2 22 1 23.40 23.31 1.08
2 23 1 2.87 2.56 0.47
2 24 1 37.83 41.09 1.35
2 25 1 22.50 22.96 1.34
2 26 1 29.22 30.43 1.47
2 0 2 4.25 4.19 0.23
2 1 2 305.88 308.22 3.06
2 2 2 1082.61 1083.04 9.83
2 3 2 108.92 106.95 1.26
2 4 2 87.99 88.96 1.09
2 5 2 7.93 8.38 0.34
2 6 2 287.08 291.73 3.02
2 7 2 139.47 140.20 1.66
2 8 2 141.65 143.91 1.76
2 9 2 128.25 127.98 1.62
2 10 2 2.77 2.64 0.38
2 11 2 65.11 64.03 1.12
2 12 2 57.36 57.25 1.09
2 13 2 73.24 73.41 1.31
2 14 2 32.28 33.78 0.92
2 15 2 32.88 31.78 0.94
2 16 2 77.39 73.15 1.47
2 18 2 9.69 10.81 0.75
2 19 2 1.29 1.13 0.40
2 20 2 30.97 31.81 1.13
2 21 2 29.28 30.21 1.18
2 22 2 3.27 3.57 0.49
2 23 2 1.66 2.54 0.47
2 24 2 9.11 8.71 0.78
2 25 2 40.45 39.88 1.67
2 0 3 134.09 131.94 1.53
2 1 3 138.74 140.23 1.58
2 2 3 376.40 383.24 3.81
2 3 3 447.10 447.74 4.44
2 4 3 64.37 65.77 0.95
2 5 3 248.22 249.13 2.67
2 6 3 88.93 90.92 1.23
2 7 3 106.42 108.51 1.41
2 8 3 120.58 119.53 1.55
2 9 3 287.71 289.17 3.19
2 10 3 253.68 256.72 2.93
2 11 3 12.31 12.00 0.59
2 12 3 85.52 84.40 1.41
2 13 3 43.26 43.83 1.03
2 14 3 49.97 48.13 1.14
2 15 3 16.87 16.95 0.80
2 16 3 2.28 2.79 0.41
2 17 3 11.19 12.75 0.76
2 18 3 2.77 2.10 0.41
2 19 3 38.76 38.83 1.23
2 20 3 9.06 9.87 0.68
2 21 3 43.48 43.30 1.38
2 22 3 8.89 7.79 0.74
2 23 3 3.99 5.21 0.58
2 25 3 12.57 13.04 1.09
2 0 4 55.06 56.73 1.54
2 1 4 104.36 106.80 1.55
2 2 4 127.83 131.04 1.83
2 3 4 132.67 133.25 1.85
2 4 4 12.82 12.99 0.57
2 5 4 61.24 59.78 0.99
2 6 4 109.45 108.11 1.46
2 7 4 103.11 102.40 1.44
2 8 4 115.40 116.38 1.60
2 9 4 47.12 48.59 0.98
2 10 4 139.03 138.20 1.88
2 11 4 50.72 49.77 1.07
2 12 4 13.27 12.67 0.67
2 14 4 12.71 11.69 0.72
2 15 4 12.68 12.82 0.76
2 16 4 25.12 25.18 0.93
2 17 4 40.11 38.72 1.20
2 18 4 26.65 25.36 1.05
2 19 4 8.66 8.71 0.72
2 20 4 24.91 26.63 1.10
2 21 4 19.77 20.26 1.05
2 22 4 18.40 16.78 1.05
2 23 4 21.12 23.43 1.08
2 24 4 4.54 3.34 0.49
2 0 5 144.83 144.37 3.12
2 1 5 34.49 33.94 1.31
2 2 5 161.97 161.20 2.25
2 3 5 31.17 31.61 0.85
2 4 5 147.54 148.22 2.13
2 5 5 62.53 63.69 1.25
2 6 5 12.17 12.47 0.64
2 7 5 14.66 14.15 0.71
2 8 5 61.65 62.69 1.18
2 9 5 25.75 26.18 0.81
2 10 5 138.47 138.52 1.98
2 11 5 60.38 60.28 1.27
2 12 5 14.79 14.30 0.75
2 13 5 1.35 2.26 0.40
2 14 5 93.87 92.36 1.73
2 15 5 11.78 12.69 0.77
2 16 5 1.06 1.13 0.40
2 17 5 5.31 5.33 0.49
2 18 5 44.89 44.29 1.37
2 19 5 9.69 11.11 0.85
2 20 5 1.34 1.40 0.46
2 21 5 0.95 0.95 0.46
2 22 5 19.91 20.95 1.05
2 23 5 16.67 16.43 1.04
2 0 6 74.52 76.41 2.23
2 1 6 92.46 93.90 2.52
2 2 6 2.22 2.31 0.78
2 3 6 2.13 2.26 0.62
2 4 6 22.09 22.61 0.83
2 5 6 99.11 98.52 1.76
2 7 6 77.42 77.09 1.57
2 9 6 3.70 4.92 0.50
2 10 6 10.60 12.11 0.70
2 11 6 104.23 104.40 1.80
2 12 6 8.19 7.87 0.55
2 13 6 61.09 62.28 1.42
2 14 6 10.67 11.25 0.76
2 15 6 57.70 56.74 1.45
2 16 6 15.06 15.36 0.90
2 17 6 47.24 46.89 1.37
2 18 6 49.62 49.61 1.47
2 19 6 1.52 2.34 0.46
2 20 6 3.86 3.81 0.50
2 21 6 14.08 13.74 0.98
2 22 6 45.85 45.68 1.42
2 0 7 7.30 7.42 1.02
2 1 7 45.22 43.90 1.84
2 2 7 12.72 12.55 1.15
2 3 7 14.24 14.48 1.22
2 4 7 134.96 130.27 2.68
2 5 7 71.74 70.96 1.58
2 6 7 30.04 29.31 1.07
2 7 7 85.55 83.62 1.79
2 8 7 81.12 82.33 1.78
2 9 7 4.59 4.98 0.54
2 10 7 9.00 9.49 0.81
2 11 7 95.76 97.56 2.07
2 12 7 1.38 2.17 0.41
2 13 7 48.48 48.89 1.36
2 14 7 38.23 40.23 1.26
2 15 7 32.58 32.75 1.21
2 16 7 4.42 4.29 0.50
2 17 7 49.86 50.80 1.49
2 18 7 9.30 9.89 0.78
2 19 7 6.03 7.01 0.64
2 20 7 0.34 0.98 0.46
2 21 7 11.62 10.39 0.81
2 0 8 55.44 54.05 2.22
2 1 8 58.67 58.80 2.32
2 2 8 25.05 23.57 1.61
2 3 8 27.50 29.02 1.71
2 4 8 16.59 15.92 1.41
2 5 8 57.82 56.51 1.54
2 6 8 50.42 47.03 1.46
2 7 8 44.15 41.80 1.37
2 9 8 11.39 11.75 0.81
2 10 8 1.22 1.40 0.54
2 11 8 9.71 8.52 0.80
2 13 8 34.03 31.41 1.37
2 14 8 8.32 9.96 0.82
2 15 8 6.74 7.01 0.72
2 16 8 2.36 3.25 0.49
2 17 8 24.14 23.48 1.14
2 18 8 1.60 1.91 0.46
2 19 8 5.65 6.72 0.56
2 0 9 73.15 75.67 2.80
2 1 9 15.81 17.47 1.53
2 2 9 110.45 109.32 3.46
2 3 9 4.91 5.36 1.16
2 4 9 48.55 48.76 2.33
2 5 9 10.77 11.46 1.44
2 6 9 50.88 49.83 1.58
2 7 9 10.46 10.56 0.94
2 8 9 1.98 3.35 0.56
2 9 9 38.72 38.35 1.45
2 10 9 12.46 14.11 1.04
2 11 9 14.92 15.62 1.09
2 12 9 16.93 17.36 1.15
2 13 9 33.74 35.12 1.48
2 14 9 69.52 72.26 2.00
2 15 9 0.36 1.09 0.60
2 16 9 16.01 15.53 1.02
2 17 9 3.84 4.33 0.54
2 0 10 50.11 49.67 2.48
2 1 10 68.37 67.16 2.85
2 2 10 2.07 2.86 1.34
2 3 10 6.65 6.56 1.40
2 4 10 4.54 4.68 1.35
2 5 10 46.98 46.65 2.43
2 6 10 16.56 16.96 1.71
2 7 10 27.01 26.21 1.33
2 8 10 31.21 30.38 1.41
2 9 10 11.80 12.22 0.94
2 10 10 32.94 33.49 1.47
2 11 10 42.61 44.31 1.60
2 12 10 48.01 48.30 1.70
2 13 10 6.83 7.09 0.70
2 14 10 17.12 17.09 1.16
2 15 10 2.82 2.95 0.60
2 0 11 12.09 12.58 1.73
2 1 11 10.88 9.91 1.66
2 2 11 3.96 3.31 1.55
2 3 11 5.93 7.26 1.54
2 6 11 13.88 13.64 1.73
2 8 11 6.13 5.66 0.68
2 10 11 5.67 6.29 0.81
2 11 11 3.46 4.59 0.63
2 0 12 47.00 46.65 2.68
2 1 12 22.10 20.56 2.15
2 2 12 6.89 6.21 1.75
2 3 12 39.60 42.58 2.57
2 4 12 10.86 11.18 1.85
2 6 12 30.60 29.32 2.26
3 1 0 30.36 30.97 0.51
3 3 0 68.65 69.09 0.88
3 4 0 406.60 412.92 4.04
3 5 0 206.91 208.28 2.22
3 6 0 37.95 39.37 0.70
3 7 0 244.15 242.70 2.61
3 8 0 78.90 80.64 1.15
3 9 0 110.05 107.60 1.45
3 10 0 30.13 30.00 0.73
3 11 0 254.24 251.01 2.87
3 12 0 9.45 8.18 0.53
3 13 0 3.03 2.74 0.47
3 14 0 2.87 3.74 0.51
3 15 0 23.09 23.99 0.85
3 16 0 44.37 42.85 1.14
3 17 0 41.75 42.24 1.16
3 18 0 1.62 2.13 0.40
3 19 0 2.65 2.94 0.43
3 20 0 26.15 27.88 1.08
3 21 0 30.09 30.33 1.15
3 22 0 3.82 4.08 0.50
3 24 0 9.16 8.05 0.67
3 25 0 28.03 29.53 1.45
3 0 1 173.32 175.40 1.86
3 1 1 359.35 368.44 3.64
3 2 1 58.34 58.88 0.79
3 3 1 428.65 433.65 4.25
3 4 1 81.91 81.76 1.04
3 5 1 24.09 24.25 0.53
3 6 1 66.91 68.85 0.99
3 7 1 159.49 158.97 1.86
3 8 1 42.49 42.64 0.80
3 9 1 392.73 381.52 4.03
3 10 1 37.11 36.85 0.82
3 11 1 54.80 53.50 1.03
3 12 1 56.30 54.32 1.09
3 13 1 90.22 89.42 1.52
3 14 1 27.27 27.02 0.86
3 15 1 1.53 1.99 0.40
3 16 1 37.96 39.31 1.10
3 17 1 31.06 30.14 1.02
3 18 1 52.61 51.01 1.34
3 19 1 18.90 19.70 0.93
3 20 1 3.87 3.69 0.47
3 21 1 63.70 67.57 1.64
3 22 1 65.01 61.90 1.64
3 23 1 15.24 15.45 0.97
3 24 1 27.46 29.78 1.22
3 25 1 6.39 7.79 0.79
3 1 2 182.46 179.44 1.97
3 2 2 266.57 271.40 2.79
3 3 2 266.89 266.41 2.78
3 4 2 55.22 54.99 0.85
3 5 2 315.01 314.42 3.27
3 6 2 632.12 637.07 6.26
3 7 2 6.14 7.29 0.43
3 8 2 90.02 88.85 1.27
3 9 2 62.44 62.13 1.06
3 10 2 255.04 253.51 2.88
3 11 2 36.57 34.56 0.85
3 12 2 108.18 106.28 1.62
3 13 2 26.40 26.18 0.82
3 14 2 6.88 6.64 0.60
3 15 2 12.82 12.88 0.73
3 16 2 35.63 36.65 1.07
3 17 2 28.49 28.49 1.01
3 18 2 8.83 9.03 0.73
3 19 2 6.42 5.52 0.55
3 20 2 11.69 11.54 0.85
3 22 2 2.81 2.81 0.47
3 23 2 10.10 9.80 0.88
3 24 2 26.48 27.52 1.19
3 25 2 4.43 4.53 0.58
3 0 3 178.31 183.11 2.05
3 1 3 250.05 251.04 2.67
3 2 3 16.72 17.37 0.51
3 3 3 166.06 166.94 1.92
3 4 3 12.43 12.60 0.48
3 5 3 207.51 213.68 2.38
3 6 3 3.40 3.38 0.38
3 7 3 254.63 253.94 2.83
3 8 3 42.45 43.01 0.87
3 9 3 25.25 26.12 0.73
3 10 3 11.75 11.54 0.57
3 11 3 76.60 75.78 1.32
3 12 3 41.19 40.10 0.98
3 13 3 11.12 12.40 0.68
3 14 3 9.35 9.06 0.60
3 15 3 12.38 12.01 0.74
3 16 3 1.72 2.05 0.41
3 17 3 8.74 8.16 0.64
3 19 3 9.75 10.27 0.83
3 20 3 6.94 6.11 0.53
3 21 3 1.90 1.61 0.45
3 22 3 6.52 6.39 0.55
3 23 3 39.97 39.74 1.39
3 24 3 6.98 8.49 0.74
3 0 4 10.73 11.57 0.47
3 1 4 113.41 113.15 1.48
3 2 4 29.94 30.91 0.70
3 3 4 80.06 79.97 1.19
3 4 4 24.13 24.95 0.66
3 5 4 273.32 270.10 3.00
3 6 4 81.87 79.86 1.25
3 7 4 57.67 59.43 1.07
3 8 4 53.52 53.79 1.05
3 9 4 66.41 67.27 1.22
3 10 4 21.32 20.96 0.74
3 11 4 30.54 28.97 0.88
3 12 4 29.31 29.92 0.90
3 13 4 104.19 104.50 1.76
3 14 4 9.96 10.03 0.69
3 15 4 37.78 37.52 1.12
3 16 4 16.35 17.25 0.85
3 17 4 32.14 32.13 1.12
3 18 4 24.03 25.44 1.06
3 19 4 17.48 16.85 0.95
3 20 4 20.68 20.81 1.02
3 21 4 23.99 25.70 1.12
3 22 4 6.94 6.96 0.63
3 23 4 9.94 10.04 0.88
3 24 4 1.00 1.09 0.45
3 0 5 51.47 49.86 0.98
3 1 5 44.77 44.64 0.92
3 2 5 36.57 35.40 0.83
3 3 5 70.79 73.13 1.22
3 4 5 70.35 71.53 1.22
3 5 5 72.80 72.28 1.24
3 6 5 42.70 43.92 0.96
3 7 5 123.59 122.37 1.77
3 8 5 191.58 186.85 2.39
3 9 5 1.66 1.81 0.51
3 10 5 135.58 133.31 1.99
3 11 5 5.69 7.28 0.54
3 12 5 125.67 123.28 1.97
3 13 5 9.86 10.26 0.73
3 14 5 68.26 63.83 1.47
3 15 5 43.85 44.15 1.26
3 16 5 9.72 10.00 0.79
3 17 5 2.82 3.13 0.46
3 18 5 5.58 6.40 0.54
3 19 5 12.36 10.58 0.78
3 20 5 1.89 2.83 0.48
3 21 5 3.26 3.57 0.50
3 22 5 15.49 15.10 1.01
3 23 5 2.92 3.77 0.49
3 1 6 3.58 3.78 0.53
3 2 6 41.51 41.63 1.10
3 3 6 4.77 4.82 0.57
3 4 6 10.23 9.55 0.69
3 5 6 21.20 20.99 0.86
3 6 6 19.71 18.60 0.86
3 7 6 40.37 39.27 1.15
3 8 6 19.64 18.74 0.80
3 9 6 31.75 32.36 0.98
3 10 6 23.96 23.95 0.89
3 11 6 68.92 67.76 1.46
3 12 6 2.82 3.60 0.44
3 13 6 57.69 56.42 1.41
3 14 6 24.45 25.69 1.03
3 15 6 6.96 7.18 0.59
3 16 6 41.51 41.62 1.32
3 17 6 24.05 23.93 1.08
3 18 6 10.47 10.16 0.78
3 19 6 21.29 21.78 1.09
3 20 6 61.47 63.35 1.66
3 21 6 5.16 5.76 0.54
3 22 6 5.81 5.15 0.52
3 0 7 5.95 5.91 1.05
3 2 7 153.55 151.13 3.75
3 3 7 30.93 28.96 1.08
3 4 7 10.65 9.62 0.80
3 5 7 32.91 32.02 1.13
3 6 7 12.53 11.99 0.86
3 7 7 35.76 35.95 1.22
3 8 7 12.93 11.13 0.87
3 9 7 106.36 108.75 2.14
3 10 7 50.34 50.56 1.32
3 11 7 6.18 6.16 0.49
3 12 7 2.55 2.38 0.42
3 13 7 37.75 38.05 1.24
3 14 7 49.13 48.98 1.39
3 15 7 37.26 37.14 1.28
3 16 7 2.91 2.78 0.47
3 17 7 3.11 2.83 0.47
3 18 7 7.67 7.82 0.64
3 19 7 21.47 20.81 1.10
3 20 7 10.16 9.15 0.77
3 21 7 5.12 5.19 0.52
3 0 8 1.92 2.13 1.16
3 1 8 114.34 113.64 3.34
3 2 8 57.72 59.40 2.37
3 3 8 45.13 45.78 2.11
3 4 8 39.77 38.94 1.31
3 5 8 39.54 38.50 1.31
3 6 8 26.53 26.18 1.14
3 7 8 29.93 30.21 1.22
3 8 8 34.38 33.36 1.30
3 9 8 22.56 22.14 1.13
3 10 8 5.41 4.40 0.58
3 11 8 100.00 99.83 2.24
3 12 8 16.82 17.25 1.08
3 13 8 7.32 6.30 0.60
3 14 8 4.44 4.58 0.51
3 15 8 17.85 17.99 1.00
3 16 8 17.43 15.33 1.00
3 17 8 10.48 11.20 0.92
3 18 8 9.00 8.31 0.66
3 19 8 21.66 23.05 1.12
3 0 9 70.57 68.92 2.74
3 1 9 11.64 11.93 1.45
3 2 9 20.16 19.36 1.65
3 3 9 13.39 13.93 1.53
3 4 9 100.58 101.82 3.39
3 6 9 8.19 8.08 0.68
3 7 9 8.29 9.01 0.76
3 8 9 45.01 43.19 1.55
3 9 9 6.43 6.29 0.66
3 10 9 27.95 27.92 1.31
3 11 9 3.93 4.24 0.61
3 12 9 4.20 4.93 0.63
3 13 9 1.65 1.54 0.58
3 14 9 28.69 31.12 1.37
3 15 9 6.67 6.41 0.62
3 16 9 9.87 9.01 0.68
3 17 9 21.76 21.76 1.09
3 1 10 54.58 57.32 2.63
3 2 10 27.36 27.73 2.03
3 3 10 79.75 82.36 3.20
3 4 10 12.64 11.93 1.63
3 5 10 6.70 7.15 1.49
3 6 10 22.80 23.31 1.26
3 7 10 10.22 11.68 0.90
3 8 10 7.72 7.24 0.70
3 9 10 34.18 33.33 1.47
3 10 10 7.74 7.58 0.86
3 11 10 4.93 4.58 0.63
3 12 10 0.78 1.12 0.59
3 13 10 20.41 19.03 1.24
3 14 10 17.42 16.95 1.14
3 1 11 10.66 10.96 1.74
3 2 11 14.60 15.13 1.78
3 3 11 33.83 34.81 2.32
3 4 11 16.42 16.92 1.92
3 5 11 15.47 15.63 1.80
3 6 11 12.21 12.13 1.76
3 7 11 21.94 22.53 1.31
3 8 11 5.92 6.51 0.83
3 9 11 11.14 10.74 0.85
3 10 11 8.63 8.98 0.88
3 11 11 10.61 9.38 3.21
3 0 12 6.90 5.51 1.82
3 1 12 6.58 7.31 1.78
3 2 12 3.25 3.27 1.77
4 0 0 387.87 392.07 3.90
4 1 0 386.67 386.21 3.89
4 2 0 40.94 40.25 0.71
4 3 0 2.12 1.75 0.32
4 4 0 35.88 36.96 0.71
4 5 0 15.91 15.40 0.51
4 6 0 130.69 131.58 1.63
4 7 0 88.91 88.02 1.27
4 8 0 137.92 132.35 1.71
4 9 0 132.91 130.12 1.73
4 10 0 68.93 69.06 1.20
4 11 0 12.69 12.66 0.62
4 12 0 245.04 240.23 2.97
4 13 0 67.33 69.15 1.31
4 14 0 3.39 2.82 0.38
4 15 0 12.40 12.64 0.73
4 16 0 90.01 90.47 1.70
4 17 0 0.98 1.19 0.37
4 18 0 1.99 2.04 0.41
4 19 0 8.87 7.25 0.68
4 21 0 7.20 7.98 0.63
4 23 0 4.12 4.78 0.53
4 24 0 21.66 21.82 1.10
4 0 1 1.48 1.47 0.31
4 1 1 146.47 148.48 1.71
4 2 1 34.36 34.59 0.67
4 3 1 149.79 150.54 1.75
4 4 1 13.47 12.13 0.47
4 5 1 61.06 59.97 0.96
4 6 1 43.47 43.45 0.82
4 7 1 248.67 245.25 2.74
4 8 1 43.40 42.93 0.87
4 9 1 3.98 4.24 0.42
4 10 1 34.58 34.21 0.83
4 11 1 269.56 266.18 3.11
4 12 1 67.60 67.71 1.28
4 13 1 44.99 42.92 1.06
4 14 1 45.80 46.13 1.13
4 15 1 45.82 44.97 1.16
4 16 1 53.68 52.42 1.29
4 17 1 17.56 17.04 0.87
4 18 1 31.61 30.98 1.08
4 19 1 40.49 42.58 1.28
4 20 1 31.75 32.65 1.19
4 21 1 7.96 7.72 0.72
4 22 1 17.43 14.28 0.98
4 23 1 2.39 2.18 0.48
4 24 1 19.48 19.60 1.06
4 25 1 4.92 5.22 0.59
4 0 2 10.72 10.72 0.45
4 1 2 264.18 264.04 2.84
4 2 2 10.66 9.68 0.45
4 3 2 74.55 75.07 1.09
4 4 2 194.97 199.79 2.25
4 5 2 139.07 135.67 1.71
4 6 2 31.78 32.32 0.73
4 7 2 182.74 176.92 2.14
4 8 2 161.46 161.31 2.02
4 9 2 5.02 5.63 0.46
4 10 2 40.09 41.19 0.93
4 11 2 18.53 18.68 0.70
4 12 2 46.76 46.27 1.07
4 14 2 13.86 14.41 0.74
4 15 2 15.30 15.04 0.79
4 16 2 18.13 16.53 0.85
4 17 2 20.38 19.35 0.92
4 18 2 6.07 6.11 0.55
4 19 2 10.70 11.19 0.84
4 20 2 7.63 8.44 0.62
4 21 2 7.99 9.51 0.84
4 22 2 8.54 9.70 0.68
4 23 2 18.21 17.71 1.04
4 24 2 1.77 1.61 0.46
4 0 3 4.65 4.68 0.40
4 1 3 225.03 224.39 2.49
4 2 3 39.97 38.40 0.78
4 3 3 466.03 463.44 4.69
4 4 3 96.98 95.00 1.34
4 5 3 110.76 108.35 1.49
4 6 3 5.02 5.42 0.44
4 7 3 60.06 60.41 1.08
4 8 3 88.80 87.04 1.38
4 9 3 31.51 31.95 0.84
4 10 3 17.52 16.91 0.69
4 11 3 30.53 29.67 0.87
4 12 3 41.94 42.02 1.07
4 13 3 12.54 12.30 0.72
4 14 3 23.74 22.49 0.89
4 15 3 74.50 73.60 1.53
4 16 3 27.22 27.32 1.02
4 17 3 1.54 0.96 0.41
4 18 3 20.67 21.59 1.00
4 19 3 32.68 35.01 1.21
4 20 3 13.01 13.19 0.89
4 21 3 33.75 33.74 1.27
4 22 3 27.04 25.43 1.18
4 23 3 1.04 0.99 0.46
4 24 3 15.14 13.94 0.98
4 0 4 75.08 77.23 1.20
4 1 4 124.18 123.92 1.64
4 2 4 34.67 34.08 0.79
4 3 4 97.29 96.65 1.40
4 4 4 33.96 35.08 0.81
4 5 4 85.87 87.24 1.36
4 6 4 55.71 56.03 1.08
4 7 4 43.53 42.93 0.96
4 8 4 8.47 8.91 0.54
4 9 4 2.26 1.44 0.50
4 10 4 34.62 36.06 0.96
4 11 4 23.09 24.54 0.85
4 12 4 69.63 68.94 1.40
4 13 4 25.93 26.07 0.94
4 14 4 8.42 9.18 0.64
4 15 4 42.90 40.01 1.21
4 16 4 54.62 53.89 1.40
4 17 4 61.34 59.52 1.53
4 18 4 1.86 1.58 0.44
4 19 4 9.12 8.50 0.64
4 20 4 22.83 22.52 1.10
4 21 4 18.95 20.10 1.06
4 22 4 1.91 2.09 0.50
4 23 4 63.61 63.92 1.66
4 0 5 28.82 27.91 0.78
4 1 5 22.39 23.01 0.72
4 2 5 6.12 6.20 0.50
4 3 5 167.41 163.76 2.11
4 4 5 28.47 28.57 0.80
4 5 5 84.40 84.61 1.41
4 6 5 13.38 13.77 0.63
4 7 5 35.02 35.19 0.95
4 8 5 46.96 48.19 1.10
4 9 5 46.80 44.89 1.12
4 10 5 24.54 27.15 0.89
4 11 5 8.87 9.88 0.68
4 12 5 19.67 19.31 0.88
4 13 5 6.25 6.72 0.60
4 14 5 8.89 8.50 0.66
4 15 5 2.16 1.96 0.42
4 16 5 20.72 21.19 1.00
4 17 5 9.56 10.35 0.82
4 18 5 1.82 2.31 0.46
4 19 5 5.61 5.45 0.53
4 20 5 28.87 29.03 1.21
4 21 5 1.52 2.23 0.47
4 22 5 1.05 1.08 0.46
4 1 6 89.17 88.42 1.51
4 2 6 14.30 15.31 0.69
4 3 6 26.90 25.72 0.85
4 4 6 12.30 11.86 0.67
4 5 6 139.92 137.97 2.03
4 6 6 41.81 41.27 1.08
4 7 6 42.77 40.40 1.09
4 8 6 56.78 54.20 1.29
4 9 6 140.25 135.68 2.12
4 10 6 28.01 26.41 0.99
4 11 6 35.24 36.53 1.10
4 12 6 61.93 63.17 1.48
4 13 6 49.51 49.30 1.33
4 14 6 12.77 12.49 0.83
4 15 6 54.18 54.64 1.48
4 16 6 17.09 18.27 0.99
4 17 6 41.35 42.34 1.36
4 18 6 25.94 26.58 1.14
4 19 6 36.68 37.06 1.31
4 20 6 1.09 1.85 0.46
4 21 6 23.30 22.49 1.12
4 0 7 140.07 138.26 2.11
4 1 7 10.52 9.43 0.74
4 2 7 13.36 12.83 0.85
4 3 7 11.65 12.11 0.83
4 4 7 65.57 65.22 1.59
4 5 7 15.76 16.40 0.92
4 6 7 20.01 20.15 0.87
4 7 7 27.24 26.16 0.98
4 8 7 53.58 51.64 1.32
4 9 7 6.42 6.23 0.61
4 10 7 42.72 43.92 1.25
4 11 7 51.61 52.12 1.39
4 12 7 37.22 40.03 1.25
4 13 7 10.63 10.53 0.75
4 14 7 31.03 30.62 1.19
4 15 7 1.44 2.12 0.46
4 16 7 2.92 3.37 0.48
4 17 7 10.01 9.41 0.79
4 18 7 6.21 5.71 0.54
4 19 7 14.30 12.93 0.93
4 20 7 1.36 1.96 0.46
4 0 8 41.57 44.32 2.11
4 1 8 19.36 19.64 1.26
4 2 8 13.83 13.74 0.93
4 3 8 12.18 11.82 0.90
4 4 8 28.01 29.20 1.20
4 5 8 4.38 4.41 0.55
4 6 8 9.89 9.04 0.78
4 7 8 34.16 32.61 1.31
4 8 8 3.91 3.73 0.56
4 9 8 92.52 89.19 2.12
4 10 8 19.56 19.17 1.00
4 11 8 9.85 8.85 0.75
4 12 8 0.34 0.85 0.46
4 13 8 53.78 52.59 1.52
4 14 8 34.47 34.14 1.28
4 15 8 1.88 2.25 0.47
4 16 8 11.09 9.82 0.80
4 18 8 16.17 16.27 1.00
4 0 9 19.06 19.26 1.70
4 1 9 12.59 13.72 1.54
4 2 9 12.58 13.31 1.50
4 3 9 23.50 24.20 1.22
4 4 9 56.56 59.37 1.73
4 5 9 14.08 13.91 1.03
4 6 9 38.51 36.23 1.47
4 7 9 4.96 5.61 0.64
4 8 9 83.10 85.32 2.13
4 9 9 15.81 17.04 1.12
4 10 9 18.11 19.93 1.16
4 12 9 23.88 23.84 1.31
4 13 9 8.92 9.31 0.78
4 14 9 10.06 11.78 0.92
4 15 9 27.42 26.56 1.18
4 16 9 1.40 2.45 0.47
4 1 10 81.03 83.11 3.26
4 2 10 14.29 14.22 1.70
4 3 10 4.06 3.11 1.46
4 4 10 30.65 30.29 1.38
4 5 10 60.49 57.82 1.84
4 6 10 28.71 28.17 1.38
4 7 10 16.59 15.60 1.13
4 8 10 14.29 15.52 1.13
4 10 10 14.64 15.10 1.13
4 11 10 6.61 7.07 0.70
4 12 10 1.40 1.62 0.59
4 13 10 9.76 8.70 0.73
4 0 11 28.97 27.91 2.17
4 2 11 3.15 3.17 1.53
4 3 11 9.80 9.04 1.64
4 4 11 34.61 33.05 2.30
4 5 11 12.91 13.15 1.38
4 7 11 5.68 6.76 0.69
4 8 11 22.13 20.61 1.29
4 9 11 8.76 9.85 0.88
5 1 0 40.52 40.19 0.78
5 2 0 43.10 43.67 0.83
5 3 0 235.60 231.21 2.58
5 4 0 63.49 61.06 1.03
5 5 0 72.70 73.13 1.14
5 7 0 11.81 11.79 0.55
5 8 0 15.94 16.36 0.62
5 9 0 25.92 25.60 0.76
5 10 0 38.09 38.60 0.94
5 11 0 36.27 36.93 0.96
5 12 0 1.52 1.62 0.52
5 13 0 12.49 12.24 0.71
5 14 0 52.23 52.68 1.26
5 15 0 16.15 15.41 0.83
5 16 0 4.61 4.59 0.45
5 17 0 11.45 10.52 0.71
5 18 0 6.24 6.29 0.66
5 21 0 1.10 0.93 0.46
5 22 0 8.67 7.95 0.64
5 24 0 3.25 2.06 0.47
5 0 1 5.57 5.97 0.42
5 1 1 134.61 133.81 1.66
5 2 1 92.53 91.02 1.29
5 3 1 388.62 381.94 3.92
5 4 1 4.95 5.30 0.42
5 5 1 36.82 35.72 0.78
5 6 1 73.61 71.18 1.18
5 7 1 156.17 154.52 1.97
5 8 1 2.55 3.20 0.43
5 9 1 58.50 58.44 1.13
5 10 1 12.36 12.74 0.62
5 11 1 66.47 68.52 1.30
5 12 1 22.22 21.78 0.82
5 13 1 21.50 19.02 0.84
5 14 1 16.09 16.21 0.79
5 15 1 217.95 218.27 2.93
5 16 1 59.92 61.50 1.45
5 17 1 4.24 4.26 0.46
5 18 1 8.27 7.72 0.70
5 19 1 52.93 53.73 1.50
5 20 1 51.13 51.82 1.47
5 21 1 3.86 3.53 0.49
5 22 1 0.73 0.90 0.47
5 23 1 1.67 1.88 0.46
5 24 1 13.42 14.68 0.96
5 0 2 331.04 331.33 3.53
5 1 2 173.44 169.66 2.06
5 3 2 254.95 252.74 2.85
5 4 2 87.33 85.93 1.30
5 5 2 42.84 42.68 0.88
5 6 2 7.05 6.60 0.47
5 7 2 14.16 12.96 0.59
5 8 2 29.71 29.22 0.81
5 9 2 38.29 37.52 0.93
5 10 2 0.58 1.40 0.48
5 11 2 16.53 16.30 0.73
5 12 2 127.02 124.65 1.94
5 14 2 7.13 7.57 0.68
5 15 2 3.37 3.08 0.41
5 16 2 59.74 60.73 1.47
5 17 2 14.89 14.75 0.87
5 18 2 10.93 11.59 0.83
5 19 2 30.59 30.43 1.15
5 20 2 2.06 2.16 0.46
5 21 2 41.33 39.17 1.34
5 22 2 0.97 1.78 0.47
5 23 2 6.00 5.37 0.59
5 24 2 6.52 7.37 0.94
5 0 3 31.77 31.18 0.77
5 1 3 200.42 199.11 2.37
5 2 3 24.16 24.53 0.70
5 3 3 9.62 9.59 0.52
5 4 3 1.36 1.36 0.42
5 5 3 68.79 68.81 1.20
5 6 3 34.24 34.87 0.86
5 7 3 65.22 64.25 1.20
5 8 3 18.06 18.64 0.70
5 9 3 8.92 9.09 0.60
5 10 3 45.27 43.37 1.07
5 11 3 27.45 25.97 0.89
5 12 3 28.45 27.53 0.95
5 13 3 19.07 19.18 0.86
5 14 3 47.29 47.19 1.24
5 15 3 3.32 3.73 0.44
5 16 3 51.26 51.01 1.39
5 17 3 23.31 23.81 1.03
5 18 3 24.01 24.03 1.08
5 19 3 3.76 4.44 0.51
5 20 3 55.31 56.72 1.58
5 21 3 8.01 8.28 0.67
5 22 3 4.42 4.82 0.52
5 23 3 9.10 8.68 0.66
5 1 4 72.18 70.08 1.22
5 2 4 42.74 43.77 0.96
5 3 4 30.13 28.38 0.81
5 4 4 16.75 17.32 0.68
5 5 4 7.21 6.26 0.52
5 6 4 28.24 28.46 0.84
5 7 4 30.21 30.18 0.88
5 8 4 90.47 89.67 1.54
5 9 4 1.90 2.67 0.40
5 10 4 116.38 112.25 1.84
5 11 4 34.97 34.71 1.05
5 12 4 84.45 85.91 1.63
5 13 4 3.52 4.41 0.44
5 14 4 82.48 86.32 1.74
5 15 4 19.71 20.74 0.98
5 16 4 20.59 22.25 1.01
5 17 4 9.09 8.28 0.71
5 18 4 24.20 25.59 1.10
5 19 4 74.25 75.92 1.81
5 21 4 43.05 44.28 1.42
5 22 4 13.33 11.76 0.96
5 0 5 7.83 7.08 0.57
5 1 5 190.94 186.57 2.39
5 2 5 32.33 31.90 0.89
5 3 5 15.65 16.13 0.69
5 4 5 73.59 73.10 1.37
5 5 5 60.67 59.67 1.26
5 6 5 18.82 18.66 0.79
5 7 5 35.00 34.57 0.99
5 8 5 52.54 50.34 1.21
5 9 5 11.82 10.94 0.72
5 10 5 19.64 18.98 0.85
5 11 5 19.99 20.45 0.90
5 12 5 0.42 0.98 0.38
5 13 5 18.00 17.81 0.92
5 14 5 41.32 42.37 1.26
5 15 5 1.39 1.32 0.43
5 16 5 18.12 18.76 0.96
5 17 5 3.01 3.69 0.49
5 18 5 28.93 29.60 1.19
5 19 5 2.79 3.16 0.49
5 20 5 12.60 11.95 0.96
5 21 5 9.96 8.83 0.68
5 0 6 48.45 47.46 1.16
5 1 6 47.05 45.55 1.12
5 2 6 12.44 11.11 0.71
5 3 6 55.81 54.06 1.24
5 4 6 52.84 49.86 1.21
5 5 6 82.17 80.42 1.56
5 6 6 12.89 13.46 0.74
5 7 6 106.20 104.93 1.84
5 8 6 22.54 22.02 0.92
5 9 6 21.31 21.10 0.89
5 10 6 67.77 69.13 1.53
5 11 6 78.47 80.25 1.68
5 13 6 66.64 67.41 1.61
5 14 6 54.80 54.03 1.48
5 15 6 13.52 15.31 0.93
5 16 6 4.96 5.34 0.53
5 17 6 53.38 52.91 1.54
5 18 6 7.82 7.26 0.66
5 19 6 5.15 5.23 0.53
5 0 7 1.15 1.49 0.40
5 1 7 29.72 29.96 1.01
5 2 7 16.88 16.76 0.86
5 3 7 4.13 4.04 0.45
5 4 7 111.15 107.79 1.90
5 5 7 10.07 10.38 0.69
5 6 7 19.64 21.05 0.92
5 7 7 9.15 9.74 0.76
5 8 7 101.32 100.39 1.90
5 9 7 10.30 11.43 0.78
5 10 7 2.10 2.02 0.44
5 11 7 4.45 4.27 0.48
5 12 7 14.00 13.29 0.81
5 13 7 13.70 16.26 0.94
5 14 7 5.47 6.42 0.55
5 15 7 17.90 18.34 1.02
5 16 7 8.54 7.87 0.76
5 17 7 4.13 4.92 0.53
5 18 7 2.49 2.94 0.48
5 0 8 37.48 36.70 1.19
5 1 8 47.94 47.85 1.32
5 2 8 3.05 3.26 0.45
5 3 8 0.49 0.69 0.42
5 4 8 20.39 19.54 0.98
5 5 8 142.49 140.51 2.35
5 7 8 5.11 5.27 0.50
5 8 8 2.64 2.95 0.46
5 9 8 24.47 24.20 1.07
5 10 8 2.05 2.07 0.45
5 11 8 11.10 12.74 0.89
5 12 8 8.64 8.10 0.64
5 13 8 32.33 32.53 1.28
5 14 8 8.56 8.18 0.67
5 15 8 8.32 8.84 0.67
5 16 8 10.85 11.97 0.92
5 17 8 58.64 59.03 1.60
5 1 9 30.88 30.13 1.15
5 2 9 35.55 35.55 1.44
5 3 9 6.73 5.51 0.63
5 4 9 5.15 6.23 0.66
5 5 9 15.33 14.22 1.08
5 6 9 27.53 27.31 1.31
5 7 9 9.40 9.55 0.86
5 8 9 0.66 1.11 0.58
5 9 9 0.69 1.32 0.45
5 10 9 20.96 21.37 1.08
5 11 9 15.17 15.55 1.00
5 12 9 0.91 1.72 0.46
5 13 9 8.48 8.80 0.68
5 14 9 6.66 6.81 0.56
5 15 9 1.99 2.63 0.48
5 0 10 75.61 75.16 3.16
5 1 10 5.33 5.22 0.94
5 2 10 2.51 2.84 0.60
5 3 10 50.44 51.22 1.74
5 4 10 24.74 24.63 1.31
5 5 10 31.47 30.07 1.47
5 6 10 5.79 6.61 0.70
5 7 10 18.17 17.88 1.20
5 8 10 6.18 6.99 0.70
5 9 10 33.64 32.77 1.44
5 11 10 1.19 2.03 0.57
5 12 10 5.36 5.89 0.54
5 0 11 5.30 3.74 1.72
5 1 11 24.64 23.86 2.05
5 2 11 11.40 12.30 1.67
5 3 11 17.60 16.40 1.20
5 4 11 12.23 11.01 0.94
5 6 11 39.02 39.81 1.55
5 7 11 2.02 2.42 0.60
6 0 0 137.07 134.31 1.77
6 1 0 65.34 66.23 1.13
6 2 0 4.85 4.84 0.45
6 3 0 32.78 31.63 0.80
6 4 0 9.32 9.92 0.52
6 5 0 78.34 76.36 1.29
6 6 0 70.68 70.44 1.25
6 7 0 87.28 84.26 1.41
6 8 0 59.71 58.88 1.18
6 10 0 90.38 87.81 1.57
6 12 0 64.14 63.98 1.37
6 13 0 20.81 21.43 0.90
6 14 0 8.91 9.23 0.66
6 15 0 26.53 28.41 1.03
6 16 0 6.82 7.28 0.66
6 17 0 8.15 8.92 0.71
6 18 0 22.19 21.19 1.04
6 19 0 5.94 6.96 0.71
6 21 0 2.45 2.27 0.47
6 22 0 24.07 23.52 1.11
6 0 1 41.39 39.48 0.87
6 1 1 120.05 118.36 1.63
6 2 1 86.13 85.54 1.34
6 3 1 77.22 76.02 1.26
6 4 1 87.07 87.42 1.38
6 5 1 105.69 104.38 1.56
6 6 1 9.70 9.45 0.54
6 7 1 60.91 60.93 1.19
6 8 1 53.48 52.73 1.12
6 9 1 1.65 1.46 0.52
6 10 1 1.06 1.46 0.35
6 11 1 27.23 26.62 0.90
6 12 1 12.66 12.75 0.76
6 13 1 121.13 119.36 2.00
6 14 1 39.20 41.06 1.19
6 15 1 18.30 18.52 0.90
6 16 1 10.97 11.71 0.79
6 17 1 71.54 71.77 1.65
6 18 1 64.00 66.22 1.63
6 19 1 17.56 18.48 1.00
6 20 1 12.16 13.15 0.94
6 21 1 8.77 8.03 0.67
6 22 1 22.98 21.77 1.10
6 23 1 10.33 9.32 0.88
6 0 2 18.36 19.17 0.66
6 1 2 113.98 113.75 1.63
6 2 2 178.25 173.81 2.20
6 3 2 2.97 3.31 0.45
6 4 2 0.96 0.86 0.47
6 5 2 48.43 47.22 1.03
6 6 2 8.82 9.48 0.57
6 7 2 18.46 17.90 0.72
6 8 2 47.48 46.43 1.09
6 9 2 6.52 5.44 0.58
6 10 2 108.83 106.08 1.77
6 11 2 3.25 3.69 0.42
6 12 2 30.26 30.42 1.03
6 13 2 10.19 10.73 0.68
6 14 2 93.40 90.94 1.79
6 15 2 1.24 1.02 0.41
6 16 2 8.26 6.95 0.59
6 17 2 14.29 14.22 0.90
6 18 2 6.90 7.45 0.62
6 19 2 6.31 6.92 0.61
6 20 2 1.36 1.82 0.47
6 21 2 9.64 8.72 0.78
6 22 2 5.71 6.21 0.55
6 23 2 11.68 13.40 1.59
6 0 3 11.58 12.24 0.60
6 1 3 98.14 99.02 1.53
6 2 3 17.47 16.52 0.69
6 3 3 200.79 198.92 2.46
6 4 3 66.64 66.36 1.25
6 5 3 4.34 4.52 0.53
6 6 3 23.68 24.32 0.81
6 7 3 56.44 57.19 1.21
6 8 3 23.98 22.73 0.83
6 9 3 26.49 25.23 0.89
6 10 3 0.80 1.29 0.38
6 11 3 6.59 6.79 0.53
6 12 3 22.12 20.60 0.90
6 13 3 4.16 4.36 0.45
6 14 3 47.07 47.75 1.33
6 15 3 31.74 32.09 1.14
6 16 3 29.91 28.19 1.12
6 17 3 12.28 12.72 0.88
6 18 3 69.12 69.14 1.72
6 19 3 46.22 46.70 1.47
6 20 3 3.56 3.00 0.49
6 21 3 20.90 20.80 1.11
6 22 3 29.14 28.73 1.21
6 0 4 0.64 1.04 0.49
6 1 4 95.48 93.37 1.56
6 2 4 20.52 20.86 0.76
6 3 4 56.06 56.39 1.19
6 4 4 1.98 0.92 0.57
6 5 4 37.80 36.57 1.01
6 6 4 68.29 66.50 1.35
6 7 4 4.91 4.90 0.43
6 8 4 17.50 16.79 0.79
6 9 4 41.07 39.69 1.12
6 10 4 48.72 47.98 1.25
6 11 4 2.26 2.48 0.40
6 12 4 28.31 27.15 1.02
6 13 4 3.86 4.64 0.47
6 14 4 40.59 39.41 1.26
6 15 4 4.18 3.79 0.48
6 16 4 30.47 31.70 1.19
6 17 4 80.25 79.76 1.82
6 18 4 9.88 9.82 0.81
6 19 4 31.45 31.19 1.26
6 20 4 12.05 12.27 0.94
6 21 4 55.15 54.12 1.56
6 0 5 15.47 14.20 0.76
6 1 5 65.66 64.56 1.33
6 2 5 18.57 19.52 0.81
6 3 5 108.15 105.30 1.77
6 4 5 20.11 18.96 0.82
6 5 5 4.10 4.16 0.43
6 6 5 42.58 43.52 1.14
6 7 5 11.32 10.08 0.72
6 9 5 33.87 33.48 1.09
6 10 5 2.08 2.27 0.41
6 11 5 20.49 19.20 0.93
6 12 5 23.26 23.01 1.00
6 13 5 8.67 9.46 0.63
6 14 5 21.08 22.48 1.05
6 15 5 2.14 1.89 0.45
6 16 5 16.44 16.71 1.01
6 17 5 1.56 1.87 0.46
6 18 5 17.72 17.62 1.01
6 19 5 6.13 5.97 0.55
6 0 6 52.78 50.54 1.26
6 1 6 100.76 100.39 1.78
6 2 6 73.73 71.86 1.51
6 3 6 56.76 55.51 1.33
6 4 6 18.79 19.51 0.88
6 5 6 79.46 79.06 1.61
6 6 6 70.40 73.38 1.57
6 7 6 6.86 6.29 0.49
6 8 6 11.73 10.75 0.78
6 9 6 74.97 75.46 1.66
6 10 6 13.17 12.63 0.86
6 11 6 33.90 32.96 1.18
6 12 6 39.28 40.23 1.28
6 13 6 34.79 34.52 1.25
6 14 6 13.65 13.08 0.95
6 15 6 41.23 43.25 1.37
6 16 6 26.11 28.63 1.19
6 17 6 23.14 22.64 1.10
6 18 6 8.18 8.57 0.60
6 19 6 14.17 14.22 0.96
6 0 7 17.04 17.60 0.87
6 1 7 1.81 2.24 0.41
6 2 7 49.58 49.61 1.33
6 3 7 12.24 11.73 0.81
6 4 7 7.56 8.12 0.67
6 5 7 20.52 20.55 0.94
6 6 7 95.74 97.95 1.90
6 7 7 1.54 2.30 0.44
6 8 7 18.36 18.91 0.95
6 9 7 5.27 5.05 0.55
6 10 7 57.21 57.62 1.52
6 11 7 5.08 5.10 0.52
6 12 7 16.78 17.39 1.02
6 13 7 16.67 15.43 0.99
6 14 7 12.41 13.74 0.96
6 15 7 3.03 3.49 0.50
6 17 7 10.68 11.84 0.88
6 18 7 6.84 7.04 0.56
6 0 8 27.25 28.26 1.09
6 1 8 1.01 1.24 0.43
6 2 8 13.51 14.72 0.87
6 3 8 49.58 49.16 1.39
6 4 8 8.25 7.75 0.71
6 5 8 3.22 3.39 0.47
6 6 8 11.91 13.14 0.90
6 7 8 50.87 53.00 1.47
6 8 8 0.27 0.73 0.47
6 9 8 2.65 3.13 0.48
6 10 8 6.59 7.80 0.67
6 11 8 18.50 17.59 1.04
6 12 8 1.42 2.40 0.48
6 13 8 10.23 10.43 0.76
6 14 8 15.17 15.24 0.99
6 15 8 40.02 41.19 1.37
6 16 8 21.95 21.10 1.09
6 0 9 37.05 38.97 1.32
6 1 9 1.01 1.11 0.45
6 2 9 11.07 11.41 0.88
6 3 9 12.33 11.19 0.83
6 4 9 9.41 8.97 0.77
6 5 9 2.49 2.70 0.48
6 6 9 11.23 13.04 0.92
6 7 9 6.57 7.01 0.57
6 8 9 27.36 30.04 1.19
6 9 9 5.09 5.81 0.55
6 10 9 41.42 42.07 1.40
6 11 9 5.81 6.55 0.62
6 12 9 34.43 36.38 1.32
6 13 9 14.18 13.94 0.96
6 0 10 3.71 4.93 0.53
6 1 10 40.49 43.43 1.40
6 2 10 44.96 45.75 1.46
6 3 10 1.22 1.61 0.50
6 4 10 5.74 7.02 0.57
6 5 10 49.66 51.57 1.52
6 6 10 7.99 8.56 0.68
6 7 10 21.20 22.55 1.13
6 8 10 0.92 1.57 0.47
6 9 10 3.89 4.52 0.52
6 0 11 6.11 7.44 0.64
6 1 11 28.39 29.59 1.40
6 2 11 3.01 4.29 0.62
7 2 0 71.99 71.38 1.30
7 3 0 13.35 13.66 0.63
7 4 0 3.92 3.81 0.52
7 5 0 54.48 52.51 1.16
7 6 0 22.00 21.08 0.80
7 7 0 2.28 2.41 0.36
7 8 0 33.95 34.62 1.00
7 9 0 44.06 42.89 1.12
7 10 0 101.46 97.90 1.76
7 11 0 32.73 32.69 1.06
7 12 0 23.97 24.27 0.96
7 14 0 17.83 17.40 0.90
7 15 0 16.45 15.11 0.89
7 16 0 2.91 2.49 0.46
7 17 0 12.49 11.48 0.87
7 18 0 1.59 1.23 0.46
7 19 0 3.33 3.10 0.49
7 20 0 22.64 24.82 1.12
7 21 0 17.78 17.82 1.04
7 22 0 1.11 1.44 0.48
7 0 1 220.89 218.65 2.70
7 1 1 57.18 56.33 1.14
7 2 1 16.83 15.88 0.69
7 3 1 40.08 41.42 1.00
7 4 1 69.09 69.85 1.31
7 5 1 71.80 72.80 1.37
7 6 1 39.14 39.79 1.03
7 7 1 22.96 22.80 0.83
7 8 1 0.84 1.13 0.37
7 9 1 101.46 100.02 1.76
7 10 1 19.67 19.01 0.85
7 11 1 18.72 18.15 0.87
7 13 1 36.10 36.89 1.16
7 14 1 20.55 18.03 0.97
7 15 1 11.58 10.71 0.80
7 16 1 17.88 17.30 0.98
7 17 1 36.23 35.87 1.27
7 18 1 41.42 42.73 1.38
7 19 1 27.19 26.26 1.18
7 20 1 11.06 11.16 0.92
7 21 1 26.12 25.14 1.16
7 22 1 33.55 33.51 1.28
7 0 2 12.27 11.46 0.64
7 1 2 2.09 2.04 0.51
7 2 2 37.81 38.68 0.99
7 3 2 28.67 29.01 0.87
7 4 2 13.41 12.60 0.68
7 5 2 48.42 50.42 1.14
7 6 2 210.84 208.11 2.69
7 7 2 7.59 7.06 0.51
7 8 2 17.76 17.43 0.81
7 9 2 25.00 23.48 0.94
7 10 2 145.26 141.89 2.22
7 11 2 10.69 10.63 0.68
7 12 2 58.23 58.15 1.42
7 13 2 5.70 5.25 0.53
7 14 2 6.31 5.74 0.51
7 15 2 17.41 19.94 0.97
7 16 2 15.65 15.12 0.94
7 17 2 6.67 6.14 0.60
7 18 2 10.61 11.19 0.88
7 19 2 1.32 1.65 0.47
7 20 2 1.07 1.88 0.48
7 21 2 0.84 0.98 0.46
7 0 3 3.76 3.75 0.55
7 1 3 119.04 117.73 1.84
7 2 3 30.90 30.06 0.93
7 3 3 17.62 17.88 0.78
7 4 3 26.40 24.46 0.87
7 5 3 102.83 102.39 1.73
7 6 3 43.54 44.16 1.12
7 7 3 11.35 11.97 0.72
7 8 3 38.32 37.33 1.08
7 9 3 6.16 5.66 0.52
7 10 3 6.01 5.97 0.52
7 11 3 6.38 5.93 0.61
7 12 3 14.37 14.83 0.85
7 13 3 20.80 21.28 0.99
7 14 3 42.66 42.41 1.33
7 15 3 14.72 16.28 0.95
7 16 3 25.65 24.48 1.14
7 17 3 33.19 32.34 1.25
7 18 3 8.32 7.88 0.66
7 19 3 22.42 21.06 1.10
7 20 3 12.65 12.61 0.94
7 21 3 9.29 8.83 0.76
7 0 4 2.11 2.61 0.40
7 1 4 65.28 66.06 1.37
7 2 4 12.35 11.90 0.73
7 3 4 24.67 23.30 0.89
7 4 4 57.26 56.81 1.30
7 5 4 51.56 51.69 1.27
7 6 4 48.15 48.37 1.23
7 7 4 4.96 4.49 0.45
7 8 4 9.45 9.11 0.66
7 9 4 17.78 16.44 0.86
7 10 4 10.93 11.76 0.79
7 11 4 14.25 13.95 0.86
7 12 4 28.31 27.13 1.08
7 13 4 40.33 39.21 1.31
7 14 4 11.96 11.75 0.88
7 15 4 37.75 38.07 1.31
7 16 4 33.38 35.31 1.27
7 17 4 22.04 23.08 1.09
7 18 4 14.68 16.04 1.00
7 19 4 26.73 25.53 1.20
7 20 4 2.84 1.93 0.47
7 0 5 2.58 3.00 0.42
7 1 5 22.66 21.96 0.90
7 2 5 21.72 21.60 0.88
7 3 5 7.98 7.21 0.62
7 4 5 31.87 31.28 1.05
7 5 5 31.93 32.48 1.07
7 6 5 26.99 27.17 1.01
7 7 5 46.02 44.73 1.27
7 8 5 62.79 62.34 1.50
7 9 5 5.19 4.81 0.48
7 10 5 43.22 44.02 1.31
7 11 5 13.31 11.97 0.86
7 12 5 30.27 28.02 1.15
7 13 5 5.05 4.57 0.50
7 14 5 52.36 52.96 1.50
7 15 5 2.51 3.13 0.48
7 16 5 12.56 12.12 0.84
7 17 5 4.11 4.01 0.51
7 18 5 6.68 5.65 0.54
7 19 5 4.66 5.46 0.53
7 0 6 14.49 14.32 0.82
7 1 6 61.28 61.04 1.46
7 2 6 74.35 76.75 1.63
7 3 6 56.62 57.36 1.44
7 4 6 53.29 54.53 1.38
7 5 6 6.37 6.46 0.55
7 6 6 12.95 12.05 0.84
7 7 6 32.29 33.48 1.19
7 8 6 28.29 28.24 1.11
7 9 6 9.78 8.86 0.73
7 10 6 7.69 7.45 0.71
7 11 6 24.02 25.10 1.08
7 12 6 7.00 6.65 0.61
7 13 6 12.41 13.34 0.93
7 14 6 9.43 10.75 0.79
7 15 6 18.43 17.37 1.04
7 16 6 20.31 18.80 1.06
7 17 6 16.50 14.73 1.00
7 18 6 7.69 7.00 0.63
7 0 7 31.69 30.42 1.14
7 1 7 1.11 1.22 0.42
7 2 7 68.85 71.96 1.66
7 3 7 8.31 8.14 0.71
7 4 7 3.27 3.11 0.46
7 5 7 4.58 4.79 0.50
7 6 7 2.90 3.25 0.47
7 7 7 20.56 22.14 1.04
7 8 7 33.80 35.31 1.24
7 9 7 18.14 17.07 1.01
7 10 7 35.74 36.79 1.30
7 11 7 13.44 12.82 0.83
7 12 7 22.25 20.43 1.11
7 13 7 7.56 7.59 0.66
7 14 7 29.08 28.88 1.25
7 15 7 6.74 6.83 0.56
7 0 8 0.89 1.19 0.45
7 1 8 31.51 32.07 1.23
7 2 8 69.57 70.79 1.70
7 3 8 16.44 18.12 0.99
7 4 8 6.05 6.30 0.61
7 5 8 9.40 10.43 0.85
7 6 8 3.56 4.47 0.51
7 7 8 9.26 8.61 0.75
7 8 8 3.69 3.89 0.55
7 9 8 23.93 23.35 1.12
7 10 8 1.83 2.09 0.48
7 11 8 28.67 27.45 1.19
7 12 8 16.03 17.09 1.01
7 13 8 20.62 20.94 1.06
7 14 8 2.55 2.42 0.47
7 0 9 3.77 4.63 0.52
7 1 9 3.95 4.43 0.52
7 2 9 10.27 10.37 0.81
7 3 9 6.81 7.16 0.60
7 4 9 19.15 19.18 1.06
7 5 9 11.67 10.65 0.71
7 6 9 9.55 10.28 0.75
7 7 9 3.04 3.80 0.51
7 8 9 58.01 57.32 1.60
7 10 9 31.10 31.58 1.24
7 11 9 6.12 6.57 0.55
7 1 10 31.18 31.06 1.25
7 2 10 2.84 3.92 0.50
7 3 10 63.54 65.89 1.70
7 4 10 6.57 7.44 0.57
7 6 10 10.22 9.68 0.89
8 0 0 2.68 2.34 0.38
8 1 0 1.25 1.71 0.37
8 2 0 49.60 49.29 1.16
8 4 0 2.03 2.36 0.38
8 5 0 10.05 10.58 0.69
8 6 0 134.53 130.96 2.08
8 7 0 18.23 17.93 0.86
8 8 0 5.52 5.70 0.52
8 9 0 63.57 63.95 1.48
8 10 0 18.03 17.76 0.89
8 11 0 21.82 22.73 0.97
8 12 0 9.06 10.17 0.68
8 13 0 56.23 58.29 1.51
8 14 0 1.49 1.27 0.44
8 15 0 1.59 1.79 0.45
8 16 0 34.34 36.13 1.27
8 17 0 16.65 16.97 0.99
8 19 0 9.76 9.26 0.69
8 20 0 0.67 0.79 0.48
8 0 1 34.01 31.43 0.99
8 1 1 30.61 31.03 0.97
8 2 1 99.55 96.08 1.68
8 3 1 0.73 1.23 0.37
8 4 1 33.65 32.55 1.01
8 5 1 68.62 66.61 1.41
8 6 1 2.28 2.54 0.41
8 7 1 21.86 21.79 0.89
8 8 1 4.63 5.10 0.51
8 9 1 62.67 60.91 1.47
8 10 1 3.89 4.33 0.45
8 11 1 4.27 3.96 0.46
8 12 1 20.55 21.17 1.00
8 13 1 25.99 26.19 1.07
8 14 1 4.35 4.53 0.50
8 15 1 18.83 18.51 0.99
8 16 1 8.68 8.71 0.77
8 17 1 17.12 18.35 1.05
8 18 1 3.28 3.92 0.51
8 19 1 40.02 40.49 1.37
8 20 1 35.25 37.37 1.31
8 1 2 2.39 3.12 0.41
8 2 2 32.63 32.22 1.01
8 3 2 11.49 11.39 0.73
8 4 2 131.05 129.16 2.07
8 5 2 2.86 3.07 0.42
8 6 2 51.12 49.83 1.26
8 7 2 13.81 12.46 0.82
8 8 2 177.44 182.08 2.63
8 9 2 1.93 1.97 0.40
8 10 2 24.94 23.10 0.99
8 11 2 5.04 4.19 0.47
8 12 2 26.72 27.68 1.09
8 13 2 2.85 2.74 0.46
8 14 2 27.22 27.15 1.12
8 15 2 3.70 3.69 0.49
8 16 2 21.67 21.20 1.06
8 17 2 5.16 5.38 0.54
8 18 2 4.17 2.92 0.49
8 19 2 2.21 3.02 0.49
8 20 2 10.15 10.40 0.78
8 0 3 82.44 82.70 1.61
8 1 3 2.03 1.90 0.40
8 2 3 14.56 14.69 0.80
8 3 3 35.86 34.88 1.06
8 4 3 42.77 41.98 1.18
8 5 3 22.94 22.94 0.95
8 6 3 34.16 35.77 1.10
8 7 3 34.99 34.91 1.11
8 8 3 20.88 21.23 0.93
8 9 3 59.32 59.62 1.48
8 10 3 69.35 70.84 1.63
8 11 3 10.67 10.96 0.83
8 12 3 62.67 63.01 1.59
8 13 3 34.16 37.44 1.27
8 14 3 14.77 15.91 0.94
8 16 3 11.17 12.25 0.92
8 17 3 2.38 3.23 0.49
8 18 3 5.04 5.96 0.55
8 19 3 1.39 1.85 0.47
8 0 4 5.39 5.50 0.50
8 1 4 13.13 14.06 0.77
8 2 4 15.88 16.33 0.83
8 3 4 45.53 45.84 1.25
8 4 4 22.95 23.75 0.97
8 5 4 10.79 12.06 0.76
8 6 4 6.24 6.90 0.53
8 7 4 39.51 41.08 1.25
8 8 4 65.32 65.19 1.56
8 9 4 24.36 24.54 1.03
8 10 4 29.38 30.76 1.15
8 11 4 56.03 54.30 1.48
8 12 4 15.10 15.65 0.93
8 13 4 24.99 24.65 1.10
8 14 4 24.97 24.97 1.14
8 15 4 36.60 38.85 1.34
8 16 4 7.39 8.40 0.60
8 17 4 6.85 7.15 0.63
8 0 5 0.50 0.67 0.42
8 1 5 20.90 23.39 0.96
8 2 5 17.76 18.20 0.89
8 3 5 14.39 14.85 0.85
8 4 5 15.97 17.09 0.89
8 5 5 34.22 33.92 1.18
8 6 5 46.05 46.55 1.33
8 7 5 8.46 8.31 0.71
8 8 5 36.31 36.97 1.26
8 9 5 13.66 13.47 0.90
8 10 5 49.87 49.56 1.45
8 11 5 0.54 1.10 0.45
8 12 5 55.24 53.82 1.55
8 13 5 0.88 1.23 0.47
8 14 5 6.66 5.48 0.54
8 15 5 12.89 14.05 0.96
8 16 5 9.58 10.22 0.89
8 17 5 5.21 5.41 0.53
8 0 6 83.45 85.58 1.82
8 1 6 1.88 1.88 0.43
8 2 6 8.71 8.40 0.71
8 3 6 12.14 12.30 0.86
8 4 6 36.42 36.94 1.23
8 5 6 21.36 22.39 1.03
8 6 6 14.45 16.42 0.95
8 7 6 31.19 28.33 1.19
8 8 6 13.08 13.00 0.95
8 9 6 4.76 5.27 0.53
8 11 6 28.65 29.56 1.23
8 13 6 8.80 9.81 0.75
8 14 6 2.70 3.30 0.50
8 15 6 14.33 14.80 1.00
8 16 6 17.87 18.75 1.05
8 0 7 55.34 54.81 1.54
8 1 7 4.76 5.01 0.51
8 2 7 1.13 1.31 0.45
8 3 7 11.79 11.34 0.78
8 4 7 56.98 60.01 1.58
8 5 7 1.29 1.02 0.46
8 6 7 2.76 3.11 0.48
8 7 7 36.36 35.88 1.30
8 8 7 29.22 30.44 1.23
8 9 7 9.59 10.36 0.80
8 11 7 30.17 28.36 1.24
8 12 7 32.71 32.78 1.25
8 13 7 7.53 8.67 0.67
8 14 7 11.44 13.19 0.95
8 0 8 45.48 47.52 1.47
8 1 8 43.00 44.89 1.42
8 2 8 10.27 10.01 0.78
8 3 8 36.18 35.32 1.32
8 4 8 11.77 11.75 0.83
8 5 8 14.88 14.16 0.99
8 6 8 8.78 8.91 0.64
8 7 8 12.86 13.39 0.96
8 8 8 3.14 3.11 0.49
8 9 8 3.13 3.92 0.51
8 10 8 4.04 4.46 0.51
8 11 8 20.92 22.47 1.10
8 0 9 6.62 6.26 0.55
8 1 9 5.43 5.82 0.55
8 2 9 19.16 19.98 1.10
8 3 9 15.93 17.16 1.03
8 4 9 19.25 17.93 1.06
8 5 9 0.61 0.90 0.50
8 6 9 41.98 44.24 1.38
8 7 9 20.76 23.21 1.12
8 8 9 6.31 7.52 0.66
9 2 0 23.23 24.12 0.96
9 4 0 180.25 178.02 2.63
9 6 0 6.04 6.70 0.56
9 7 0 7.71 7.24 0.66
9 8 0 127.92 126.58 2.22
9 9 0 5.10 4.40 0.48
9 10 0 16.56 15.80 0.93
9 11 0 25.77 25.15 1.08
9 12 0 5.49 5.55 0.53
9 13 0 6.47 6.79 0.56
9 14 0 40.35 42.35 1.38
9 15 0 36.89 37.59 1.32
9 18 0 4.64 4.68 0.52
9 0 1 7.34 7.46 0.55
9 1 1 12.22 11.94 0.77
9 2 1 26.21 26.63 1.00
9 3 1 14.20 13.04 0.81
9 4 1 4.76 5.89 0.53
9 5 1 7.68 7.00 0.63
9 6 1 19.42 19.72 0.93
9 7 1 40.40 39.53 1.25
9 8 1 13.64 14.36 0.85
9 9 1 37.70 38.97 1.23
9 10 1 4.55 4.34 0.49
9 11 1 34.69 34.77 1.24
9 12 1 3.50 3.29 0.48
9 13 1 59.67 59.91 1.60
9 14 1 13.60 13.70 0.96
9 15 1 4.01 4.22 0.51
9 16 1 9.46 10.30 0.86
9 17 1 22.85 22.02 1.10
9 18 1 1.34 1.40 0.46
9 0 2 113.25 112.71 2.01
9 1 2 1.39 1.82 0.40
9 2 2 4.86 4.60 0.46
9 3 2 3.10 2.82 0.42
9 4 2 92.29 92.69 1.83
9 5 2 31.82 32.80 1.11
9 6 2 10.95 10.06 0.80
9 7 2 11.93 11.23 0.84
9 8 2 6.50 6.33 0.52
9 9 2 61.69 64.20 1.58
9 10 2 9.05 10.11 0.79
9 11 2 16.17 15.97 0.95
9 12 2 19.70 19.52 1.04
9 13 2 33.96 35.55 1.30
9 14 2 11.26 10.66 0.81
9 15 2 10.02 10.95 0.86
9 16 2 16.97 18.43 1.05
9 17 2 4.23 3.69 0.50
9 18 2 12.65 13.14 0.90
9 0 3 19.48 20.26 0.92
9 1 3 19.88 20.70 0.95
9 2 3 74.53 74.01 1.62
9 4 3 7.81 7.82 0.59
9 5 3 21.57 21.75 1.01
9 6 3 26.87 28.01 1.10
9 7 3 16.89 16.60 0.93
9 8 3 83.75 86.62 1.86
9 9 3 8.93 10.04 0.84
9 10 3 48.24 50.01 1.45
9 11 3 15.37 15.76 0.97
9 12 3 42.67 44.69 1.40
9 13 3 4.35 3.95 0.51
9 14 3 30.57 30.80 1.26
9 15 3 2.44 3.60 0.50
9 16 3 2.04 2.16 0.47
9 17 3 4.70 4.92 0.52
9 0 4 66.69 66.97 1.60
9 1 4 0.84 1.59 0.43
9 2 4 3.05 3.46 0.46
9 3 4 13.66 15.37 0.88
9 4 4 41.22 42.72 1.29
9 5 4 18.73 19.35 0.98
9 6 4 28.78 29.32 1.11
9 7 4 14.31 13.31 0.89
9 8 4 33.56 35.28 1.25
9 9 4 18.98 20.66 1.01
9 10 4 46.02 49.35 1.48
9 12 4 35.59 35.93 1.28
9 13 4 1.28 1.32 0.47
9 14 4 4.47 4.50 0.52
9 15 4 5.20 5.37 0.54
9 16 4 4.80 4.76 0.52
9 0 5 70.76 69.69 1.70
9 1 5 12.35 12.30 0.87
9 2 5 43.41 43.90 1.34
9 3 5 41.19 40.48 1.31
9 4 5 13.66 13.32 0.90
9 5 5 0.62 1.15 0.44
9 6 5 16.89 17.94 1.01
9 7 5 36.73 36.91 1.28
9 8 5 19.75 20.76 1.04
9 9 5 1.51 1.62 0.46
9 10 5 2.64 2.92 0.49
9 11 5 20.95 20.91 1.08
9 12 5 10.95 11.74 0.89
9 13 5 9.27 7.83 0.67
9 14 5 2.18 2.82 0.49
9 15 5 9.52 9.52 0.78
9 0 6 0.36 0.88 0.46
9 1 6 2.58 2.88 0.48
9 2 6 16.19 16.13 0.98
9 3 6 29.60 30.50 1.19
9 4 6 9.59 9.24 0.76
9 5 6 11.36 10.90 0.88
9 6 6 9.16 10.16 0.84
9 7 6 16.10 16.10 1.00
9 8 6 3.27 3.21 0.50
9 9 6 21.97 23.93 1.12
9 10 6 5.36 5.25 0.59
9 11 6 22.10 21.24 1.09
9 12 6 7.79 9.26 0.76
9 13 6 8.18 7.89 0.58
9 0 7 18.97 18.45 1.04
9 1 7 5.49 6.09 0.61
9 2 7 21.43 20.84 1.10
9 3 7 5.13 5.54 0.54
9 4 7 20.69 19.76 1.09
9 5 7 18.98 20.24 1.08
9 6 7 62.88 63.61 1.67
9 7 7 1.03 1.36 0.47
9 8 7 21.34 21.24 1.06
9 9 7 12.13 11.59 0.95
9 10 7 12.62 13.50 0.94
9 11 7 1.29 1.41 0.46
9 0 8 4.00 4.41 0.52
9 1 8 2.36 2.36 0.48
9 2 8 2.96 2.97 0.49
9 3 8 13.02 13.73 0.97
9 4 8 23.45 23.75 1.15
9 5 8 7.61 7.00 0.63
9 6 8 16.85 19.05 1.02
9 7 8 28.59 29.55 1.23
9 8 8 4.28 5.11 0.53
10 0 0 272.88 275.05 3.62
10 2 0 9.96 10.36 0.81
10 3 0 1.28 1.76 0.44
10 4 0 118.31 120.19 2.18
10 5 0 11.72 10.58 0.83
10 6 0 23.54 24.70 1.07
10 7 0 1.05 1.33 0.44
10 8 0 3.39 3.10 0.48
10 9 0 20.11 18.68 1.01
10 10 0 4.30 3.73 0.50
10 11 0 1.97 2.46 0.47
10 12 0 1.06 1.94 0.47
10 14 0 7.26 7.52 0.73
10 15 0 1.35 1.61 0.46
10 0 1 0.70 0.75 0.44
10 1 1 40.23 41.30 1.29
10 2 1 12.35 13.33 0.82
10 3 1 18.82 19.28 0.96
10 4 1 14.01 13.22 0.90
10 5 1 5.80 5.86 0.58
10 6 1 40.85 41.82 1.32
10 7 1 11.74 11.94 0.80
10 8 1 2.03 2.19 0.46
10 9 1 8.77 10.15 0.86
10 10 1 10.97 11.14 0.87
10 11 1 49.50 49.04 1.49
10 12 1 10.33 9.03 0.79
10 13 1 9.40 9.41 0.70
10 14 1 9.44 8.93 0.78
10 15 1 16.74 17.12 1.02
10 16 1 2.25 2.38 0.47
10 0 2 54.34 52.20 1.45
10 1 2 3.87 3.70 0.48
10 2 2 50.64 51.15 1.46
10 3 2 13.39 14.54 0.89
10 4 2 17.14 18.99 0.97
10 5 2 6.15 5.40 0.52
10 6 2 2.50 2.73 0.47
10 7 2 37.17 37.35 1.27
10 8 2 7.83 7.47 0.73
10 9 2 2.35 2.73 0.48
10 10 2 32.63 32.96 1.28
10 11 2 45.18 45.03 1.45
10 12 2 1.61 2.36 0.48
10 13 2 0.57 0.98 0.47
10 14 2 35.63 35.11 1.29
10 15 2 33.43 33.72 1.28
10 0 3 8.80 7.65 0.72
10 1 3 0.71 0.73 0.46
10 2 3 15.60 15.29 0.92
10 3 3 5.06 5.15 0.52
10 4 3 15.73 15.77 0.94
10 5 3 8.47 8.33 0.64
10 6 3 57.21 58.32 1.55
10 7 3 2.25 2.45 0.47
10 9 3 10.69 10.95 0.88
10 10 3 24.28 23.29 1.15
10 11 3 1.71 1.84 0.47
10 12 3 20.94 22.20 1.09
10 13 3 27.84 27.72 1.21
10 14 3 2.04 2.55 0.48
10 15 3 4.05 2.51 0.47
10 0 4 2.84 3.23 0.48
10 1 4 8.63 8.88 0.74
10 2 4 14.49 14.95 0.92
10 3 4 18.98 18.14 1.03
10 4 4 13.60 15.77 0.96
10 5 4 34.36 33.06 1.26
10 6 4 4.66 3.95 0.50
10 7 4 39.68 39.60 1.38
10 8 4 21.23 22.40 1.11
10 9 4 13.72 15.87 0.98
10 10 4 22.79 23.18 1.13
10 11 4 20.48 21.40 1.10
10 12 4 1.12 1.56 0.46
10 13 4 0.80 0.97 0.46
10 14 4 20.72 20.07 1.06
10 0 5 17.00 18.24 1.02
10 1 5 31.98 33.02 1.25
10 2 5 32.57 30.71 1.26
10 3 5 1.13 1.29 0.47
10 4 5 22.64 23.50 1.10
10 5 5 56.81 57.94 1.62
10 6 5 18.22 20.12 1.08
10 7 5 2.54 2.23 0.48
10 8 5 11.84 12.74 0.93
10 9 5 42.90 42.10 1.42
10 10 5 12.47 13.32 0.97
10 11 5 2.20 2.19 0.47
10 12 5 10.81 9.48 0.79
10 1 6 9.58 9.43 0.66
10 2 6 11.91 11.87 0.95
10 4 6 2.02 2.02 0.47
10 5 6 3.40 4.01 0.51
10 6 6 3.47 3.21 0.49
10 7 6 13.07 13.27 0.86
10 8 6 5.91 6.38 0.56
10 9 6 6.85 6.77 0.62
10 10 6 14.99 15.86 0.98
10 0 7 3.20 3.45 0.50
10 1 7 4.78 5.90 0.55
10 2 7 87.60 86.80 1.97
10 3 7 3.46 3.73 0.50
10 4 7 9.09 9.39 0.79
10 5 7 4.61 4.71 0.52
10 6 7 37.23 37.60 1.32
10 7 7 11.44 11.91 0.94
11 1 0 0.57 0.79 0.46
11 2 0 190.18 187.50 2.94
11 3 0 10.77 10.63 0.80
11 6 0 16.94 20.15 1.06
11 7 0 59.60 59.83 1.61
11 8 0 0.44 0.90 0.48
11 9 0 1.21 1.74 0.47
11 10 0 11.12 10.61 0.82
11 11 0 54.45 56.81 1.57
11 12 0 5.14 4.56 0.52
11 13 0 10.96 9.91 0.81
11 1 1 31.60 31.13 1.23
11 2 1 1.48 1.61 0.46
11 3 1 9.78 8.79 0.76
11 4 1 8.11 8.26 0.66
11 5 1 27.12 26.77 1.18
11 6 1 1.64 1.67 0.47
11 7 1 27.36 29.13 1.19
11 8 1 14.73 15.41 0.99
11 9 1 2.82 2.15 0.48
11 10 1 7.21 8.15 0.67
11 11 1 5.38 5.33 0.53
11 12 1 0.76 0.87 0.47
11 13 1 13.79 13.78 0.82
11 0 2 8.79 7.70 0.72
11 1 2 9.48 10.34 0.86
11 2 2 17.29 14.87 1.00
11 3 2 22.38 21.42 1.10
11 4 2 10.88 13.23 0.90
11 5 2 1.05 1.52 0.47
11 6 2 1.86 1.99 0.47
11 7 2 19.97 20.33 1.07
11 8 2 8.69 9.62 0.78
11 9 2 2.22 2.32 0.48
11 10 2 3.26 3.27 0.50
11 11 2 21.32 22.21 1.09
11 12 2 6.71 6.12 0.60
11 0 3 16.65 16.31 0.99
11 1 3 18.99 19.91 1.04
11 2 3 9.33 8.92 0.76
11 4 3 29.18 28.35 1.21
11 5 3 17.18 19.68 1.03
11 6 3 17.42 18.68 1.05
11 7 3 13.48 12.89 0.95
11 8 3 16.08 15.74 1.03
11 9 3 2.64 3.21 0.49
11 10 3 3.72 3.80 0.50
11 11 3 18.34 16.69 1.04
11 0 4 7.72 7.17 0.64
11 1 4 13.63 14.90 0.98
11 2 4 27.85 28.39 1.20
11 3 4 35.41 36.29 1.32
11 4 4 7.33 7.62 0.59
11 5 4 3.47 3.34 0.49
11 6 4 15.58 16.89 0.98
11 7 4 5.46 5.21 0.54
11 8 4 0.98 1.45 0.46
11 9 4 12.71 11.19 0.81
11 10 4 4.02 3.46 0.49
11 0 5 7.58 9.20 0.69
11 1 5 14.75 14.86 1.01
11 2 5 35.50 35.90 1.32
11 3 5 22.69 23.24 1.08
11 4 5 2.24 2.48 0.47
11 5 5 3.72 3.15 0.49
11 6 5 47.18 49.34 1.52
11 7 5 11.40 12.48 0.90
11 0 6 19.67 18.64 1.07
11 1 6 5.11 4.90 0.53
11 2 6 0.46 0.94 0.50
11 3 6 28.17 28.48 1.19
11 4 6 6.54 7.15 0.63
12 0 0 9.97 9.15 0.70
12 1 0 12.94 14.18 0.98
12 2 0 5.19 5.48 0.60
12 3 0 25.60 25.29 1.15
12 4 0 2.16 2.37 0.47
12 5 0 18.11 17.95 1.02
12 6 0 21.25 20.86 1.06
12 7 0 7.48 8.22 0.59
12 9 0 36.78 36.60 1.32
12 0 1 11.96 12.61 0.92
12 1 1 4.79 5.23 0.54
12 2 1 4.60 3.89 0.51
12 3 1 24.53 22.88 1.13
12 4 1 7.56 9.03 0.72
12 5 1 37.43 35.19 1.32
12 7 1 21.24 23.22 1.13
12 8 1 9.10 10.28 0.88
12 0 2 0.80 1.01 0.47
12 1 2 5.28 5.24 0.53
12 2 2 49.65 48.44 1.52
12 3 2 1.18 1.55 0.46
12 4 2 9.26 8.83 0.78
12 5 2 8.04 7.89 0.64
12 6 2 15.92 15.41 1.01
12 7 2 4.99 4.99 0.52
12 8 2 5.70 5.42 0.60
12 1 3 16.31 18.38 1.00
12 2 3 0.34 0.83 0.48
12 3 3 20.40 21.18 1.09
12 4 3 1.13 1.89 0.46
12 5 3 6.74 7.18 0.73
12 6 3 1.03 0.92 0.47
12 0 4 12.22 14.48 0.96
12 1 4 45.00 44.92 1.42
12 2 4 7.77 9.25 0.86
12 3 4 16.88 17.47 1.02
