#------------------------------------------------------------------------------
#$Date: 2022-03-02 05:20:08 +0200 (Wed, 02 Mar 2022) $
#$Revision: 273207 $
#$URL: file:///home/coder/svn-repositories/cod/cif/1/56/65/1566504.cif $
#------------------------------------------------------------------------------
#
# This file is available in the Crystallography Open Database (COD),
# http://www.crystallography.net/. The original data for this entry
# were provided by IUCr Journals, http://journals.iucr.org/.
#
# The file may be used within the scientific community so long as
# proper attribution is given to the journal article from which the
# data were obtained.
#
data_1566504
loop_
_publ_author_name
'Ruth, Paul Niklas'
'Herbst-Irmer, Regine'
'Stalke, Dietmar'
_publ_section_title
;
 Hirshfeld atom refinement based on projector augmented wave densities
 with periodic boundary conditions
;
_journal_issue                   2
_journal_name_full               IUCrJ
_journal_page_first              286
_journal_page_last               297
_journal_paper_doi               10.1107/S2052252522001385
_journal_volume                  9
_journal_year                    2022
_chemical_absolute_configuration unk
_chemical_formula_moiety         '2(C0.5 H2 N O0.5)'
_chemical_formula_sum            'C H4 N2 O'
_chemical_formula_weight         60.056
_chemical_name_common            urea
_space_group_crystal_system      tetragonal
_space_group_IT_number           113
_space_group_name_Hall           'P -4 2ab'
_space_group_name_H-M_alt        'P -4 21 m'
_symmetry_Int_Tables_number      113
_audit_creation_date             2022-01-14
_audit_creation_method
;
Olex2 1.5
(compiled 2021.12.09 svn.r5202d8cf for OlexSys, GUI svn.r6439)
;
_cell_angle_alpha                90
_cell_angle_beta                 90
_cell_angle_gamma                90
_cell_formula_units_Z            2
_cell_length_a                   5.5780(6)
_cell_length_b                   5.5780(6)
_cell_length_c                   4.6860(7)
_cell_measurement_reflns_used    17
_cell_measurement_temperature    123.15
_cell_volume                     145.80(3)
_computing_cell_refinement       'KM6-CH software'
_computing_data_collection       'KM6-CH software'
_computing_data_reduction        XD_RED
_computing_molecular_graphics    'Olex2 1.5 (Dolomanov et al., 2009)'
_computing_publication_material  'Olex2 1.5 (Dolomanov et al., 2009)'
_computing_structure_refinement  'olex2.refine 1.5 (Bourhis et al., 2015)'
_diffrn_ambient_temperature      123
_diffrn_measured_fraction_theta_full 1.0000
_diffrn_measured_fraction_theta_max 0.9817
_diffrn_measurement_device_type
;
KM6-CH six-circle \k diffractometer operated as standard four-circle
\k diffractometer with detector circle in the vertical plane to profit
from the linear polarization of the synchrotron beam.
;
_diffrn_measurement_method       \w-scan
_diffrn_radiation_type           synchrotron
_diffrn_radiation_wavelength     0.5996
_diffrn_reflns_av_R_equivalents  0.0141
_diffrn_reflns_av_unetI/netI     0.0148
_diffrn_reflns_Laue_measured_fraction_full 1.0000
_diffrn_reflns_Laue_measured_fraction_max 0.9817
_diffrn_reflns_limit_h_max       15
_diffrn_reflns_limit_h_min       0
_diffrn_reflns_limit_k_max       10
_diffrn_reflns_limit_k_min       0
_diffrn_reflns_limit_l_max       13
_diffrn_reflns_limit_l_min       0
_diffrn_reflns_number            1022
_diffrn_reflns_point_group_measured_fraction_full 1.0000
_diffrn_reflns_point_group_measured_fraction_max 0.9817
_diffrn_reflns_theta_full        21.0855
_diffrn_reflns_theta_max         57.40
_diffrn_reflns_theta_min         3.67
_exptl_absorpt_coefficient_mu    0.081
_exptl_absorpt_correction_type   none
_exptl_crystal_colour            colourless
_exptl_crystal_density_diffrn    1.368
_exptl_crystal_density_method    'not measured'
_exptl_crystal_description       block
_exptl_crystal_F_000             64.034
_exptl_crystal_size_max          0.23
_exptl_crystal_size_mid          0.13
_exptl_crystal_size_min          0.09
_refine_diff_density_max         0.1847
_refine_diff_density_min         -0.3250
_refine_diff_density_rms         0.0384
_refine_ls_d_res_high            0.3559
_refine_ls_d_res_low             4.6860
_refine_ls_goodness_of_fit_ref   2.2661
_refine_ls_hydrogen_treatment    refall
_refine_ls_matrix_type           full
_refine_ls_number_constraints    0
_refine_ls_number_parameters     27
_refine_ls_number_reflns         1022
_refine_ls_number_restraints     0
_refine_ls_restrained_S_all      2.2661
_refine_ls_R_factor_all          0.0260
_refine_ls_R_factor_gt           0.0150
_refine_ls_shift/su_max          0.0002
_refine_ls_shift/su_mean         0.0000
_refine_ls_structure_factor_coef Fsqd
_refine_ls_weighting_details
'w=1/[\s^2^(Fo^2^)+(0.0000P)^2^] where P=(Fo^2^+2Fc^2^)/3'
_refine_ls_weighting_scheme      calc
_refine_ls_wR_factor_gt          0.0212
_refine_ls_wR_factor_ref         0.0212
_reflns_Friedel_coverage         0.0
_reflns_limit_h_max              15
_reflns_limit_h_min              0
_reflns_limit_k_max              10
_reflns_limit_k_min              0
_reflns_limit_l_max              13
_reflns_limit_l_min              0
_reflns_number_gt                803
_reflns_number_total             1022
_reflns_threshold_expression     I>=2u(I)
_iucr_refine_instructions_details
;
TITL I P -4 21 m
CELL 0.5996 5.578 5.578 4.686 90 90 90
ZERR 2 0.0006 0.0006 0.0007 0 0 0
LATT -1
SYMM +Y,-X,-Z
SYMM -X,-Y,+Z
SYMM -Y,+X,-Z
SYMM 0.5+X,0.5-Y,-Z
SYMM 0.5-Y,0.5-X,+Z
SYMM 0.5-X,0.5+Y,-Z
SYMM 0.5+Y,0.5+X,+Z
SFAC C H N O
DISP C 0.002 0.001 8.3
DISP H 0 0 0.7
DISP N 0.004 0.002 13.3
DISP O 0.007 0.004 21.1
UNIT 2 8 4 2

L.S. 0
SIZE 0.09 0.13 0.23
TEMP -150
CONF
FMAP 2
BOND $H
ACTA 
LIST -6
MORE -1
WGHT 0
FVAR 1.004474
REM <olex2.extras>
REM <HklSrc "%.\\scan.hkl">
REM </olex2.extras>

O     4     0.00000  0.50000  0.59628  10.25000  0.01948  0.01948  0.00653 =
 0.00000 -0.00000  0.00158 
N     3     0.14489  0.64489  0.17854  10.50000  0.02875  0.02875  0.00952 =
 0.00013  0.00013 -0.01487 
H1    2     0.25489  0.75489  0.29163  10.50000  0.06278  0.06278  0.01691 =
 -0.00212 -0.00212 -0.03865 
H2    2     0.14298  0.64298 -0.03296  10.50000  0.04676  0.04676  0.03338 =
 0.00276  0.00276 -0.01499 
C     1     0.00000  0.50000  0.32821  10.25000  0.01469  0.01469  0.00662 =
 0.00000 -0.00000 -0.00007 
HKLF 4

END
Q4 1 0.15 0.35 0.13889 11 0.05 0.15
Q3 1 0 0.5 -0.13889 11 0.05 0.17
Q2 1 0.1375 0.6375 0.19444 11 0.05 0.18
Q5 1 0.3375 0.8375 0.38889 11 0.05 0.11
Q1 1 0 0.5 0.444444 11 0.05 0.18

  REM The information below was added by Olex2.
  REM
  REM R1 = 0.0150 for 803 Fo > 4sig(Fo) and 0.0260 for all 1022 data
  REM 27 parameters refined using 0 restraints
  REM Highest difference peak 0.1847, deepest hole -0.3250
  REM Mean Shift 0.0000, Max Shift 0.0002.

  REM +++ Tabular Listing of Refinement Information +++
  REM R1_all = 0.0260
  REM R1_gt = 0.0150
  REM wR_ref = 0.0212
  REM GOOF = 2.2661
  REM Shift_max = 0.0002
  REM Shift_mean = 0.0000
  REM Reflections_all = 1022
  REM Reflections_gt = 803
  REM Parameters = 27
  REM Hole = -0.3250
  REM Peak = 0.1847
  REM Flack = n/a

  
;
_cod_data_source_file            fc5060.cif
_cod_data_source_block           urea_NoSpherA2_SCAN_ORCA
_cod_original_sg_symbol_Hall     ' P -4 2ab'
_cod_database_code               1566504
_olex2_refinement_description
;
;
_iucr_refine_fcf_details
;
data_urea_NoSpherA2_SCAN_ORCA
_computing_structure_refinement   'olex2.refine 1.5 (Bourhis et al., 2015)'
_shelx_refln_list_code            4
loop_
  _space_group_symop_id
  _space_group_symop_operation_xyz
  1  x,y,z
  2  y,-x,-z
  3  -y,x,-z
  4  x+1/2,-y+1/2,-z
  5  -x+1/2,y+1/2,-z
  6  -x,-y,z
  7  -y+1/2,-x+1/2,z
  8  y+1/2,x+1/2,z

_space_group_crystal_system       tetragonal
_space_group_IT_number            113
_space_group_name_H-M_alt         'P -4 21 m'
_space_group_name_Hall            ' P -4 2ab'
_symmetry_space_group_name_H-M    'P -4 21 m'
_symmetry_space_group_name_Hall   ' P -4 2ab'
_symmetry_Int_Tables_number       113
_cell_length_a                    5.5780(6)
_cell_length_b                    5.5780(6)
_cell_length_c                    4.6860(7)
_cell_angle_alpha                 90
_cell_angle_beta                  90
_cell_angle_gamma                 90
_cell_volume                      145.80(3)
loop_
  _refln_index_h
  _refln_index_k
  _refln_index_l
  _refln_F_squared_calc
  _refln_F_squared_meas
  _refln_F_squared_sigma
  _refln_F_squared_weight
  _refln_observed_status
0 0 1 12.277 13.311 0.050 17.548 o
0 0 2 123.889 133.641 0.823 0.064 o
0 0 3 14.000 13.509 0.079 6.855 o
0 0 4 30.697 29.565 0.178 1.354 o
0 0 5 47.459 48.634 0.357 0.339 o
0 0 6 15.534 15.659 0.188 1.215 o
0 0 7 0.261 0.268 0.030 48.745 o
0 0 8 15.052 14.619 0.248 0.702 o
0 0 9 3.688 3.627 0.099 4.387 o
0 0 10 2.898 2.874 0.089 5.416 o
0 0 11 0.098 0.069 0.258 0.649 o
0 0 12 3.823 3.776 0.109 3.626 o
0 0 13 0.185 0.178 0.020 109.677 o
1 0 1 149.587 148.597 0.178 1.354 o
1 0 2 149.617 151.848 0.268 0.602 o
1 0 3 85.409 86.960 0.188 1.215 o
1 0 4 1.991 2.200 0.030 48.745 o
1 0 5 18.733 18.910 0.099 4.387 o
1 0 6 0.479 0.525 0.030 48.745 o
1 0 7 43.089 42.895 0.337 0.380 o
1 0 8 5.901 6.095 0.069 8.953 o
1 0 9 0.006 -0.010 0.317 0.428 o
1 0 10 0.201 0.188 0.010 438.710 o
1 0 11 1.479 1.417 0.040 27.419 o
1 0 12 1.234 1.249 0.040 27.419 o
1 0 13 0.042 0.000 0.307 0.457 o
1 1 0 1029.200 999.406 1.903 0.012 o
1 1 1 278.530 280.960 0.505 0.169 o
1 1 2 51.252 52.459 0.119 3.047 o
1 1 3 11.161 11.507 0.059 12.186 o
1 1 4 42.996 43.103 0.178 1.354 o
1 1 5 16.909 16.859 0.109 3.626 o
1 1 6 2.957 2.944 0.030 48.745 o
1 1 7 5.803 5.649 0.079 6.855 o
1 1 8 4.377 4.460 0.069 8.953 o
1 1 9 1.287 1.298 0.050 17.548 o
1 1 10 3.257 3.231 0.069 8.953 o
1 1 11 1.637 1.635 0.050 17.548 o
1 1 12 2.394 2.448 0.059 12.186 o
1 1 13 0.247 0.228 0.020 109.677 o
2 0 0 151.805 154.554 0.297 0.487 o
2 0 1 193.950 195.962 0.258 0.649 o
2 0 2 8.360 8.226 0.030 48.745 o
2 0 3 48.425 49.228 0.129 2.596 o
2 0 4 20.006 19.971 0.089 5.416 o
2 0 5 0.645 0.555 0.030 48.745 o
2 0 6 1.468 1.457 0.020 109.677 o
2 0 7 0.232 0.268 0.010 438.710 o
2 0 8 0.036 0.050 0.198 1.097 o
2 0 9 0.367 0.357 0.020 109.677 o
2 0 10 1.102 1.070 0.040 27.419 o
2 0 11 4.417 4.301 0.069 8.953 o
2 0 12 0.982 1.060 0.040 27.419 o
2 0 13 0.001 -0.030 0.297 0.487 o
2 1 0 228.207 224.903 0.278 0.560 o
2 1 1 49.437 49.139 0.079 6.855 o
2 1 2 29.458 29.971 0.069 8.953 o
2 1 3 68.400 68.050 0.159 1.714 o
2 1 4 44.342 44.947 0.139 2.238 o
2 1 5 13.404 13.469 0.069 8.953 o
2 1 6 13.719 13.806 0.089 5.416 o
2 1 7 10.623 10.704 0.089 5.416 o
2 1 8 15.094 14.807 0.129 2.596 o
2 1 9 3.271 3.281 0.050 17.548 o
2 1 10 1.194 1.189 0.030 48.745 o
2 1 11 1.928 1.893 0.040 27.419 o
2 1 12 0.404 0.416 0.020 109.677 o
2 1 13 0.212 0.208 0.010 438.710 o
2 2 0 225.853 225.379 0.416 0.249 o
2 2 1 199.298 198.083 0.387 0.288 o
2 2 2 55.516 54.303 0.159 1.714 o
2 2 3 28.499 27.295 0.119 3.047 o
2 2 4 43.600 43.084 0.208 0.995 o
2 2 5 9.658 9.703 0.079 6.855 o
2 2 6 2.902 2.735 0.050 17.548 o
2 2 7 10.189 10.010 0.119 3.047 o
2 2 8 1.825 1.834 0.050 17.548 o
2 2 9 1.662 1.655 0.050 17.548 o
2 2 10 3.732 3.637 0.069 8.953 o
2 2 11 2.856 2.755 0.059 12.186 o
2 2 12 1.719 1.734 0.050 17.548 o
3 0 1 92.018 92.590 0.168 1.518 o
3 0 2 17.730 17.672 0.059 12.186 o
3 0 3 11.463 11.517 0.050 17.548 o
3 0 4 102.568 104.027 0.377 0.304 o
3 0 5 0.316 0.367 0.020 109.677 o
3 0 6 11.075 10.793 0.089 5.416 o
3 0 7 0.452 0.496 0.020 109.677 o
3 0 8 15.595 15.451 0.159 1.714 o
3 0 9 4.174 4.232 0.059 12.186 o
3 0 10 4.841 4.797 0.069 8.953 o
3 0 11 0.403 0.406 0.020 109.677 o
3 0 12 0.045 0.040 0.168 1.518 o
3 1 0 29.044 28.861 0.069 8.953 o
3 1 1 141.537 141.095 0.228 0.829 o
3 1 2 15.135 14.748 0.050 17.548 o
3 1 3 66.846 65.621 0.178 1.354 o
3 1 4 14.448 14.391 0.069 8.953 o
3 1 5 1.635 1.655 0.030 48.745 o
3 1 6 5.121 5.193 0.050 17.548 o
3 1 7 1.495 1.526 0.030 48.745 o
3 1 8 0.468 0.466 0.020 109.677 o
3 1 9 1.417 1.477 0.030 48.745 o
3 1 10 1.041 1.070 0.030 48.745 o
3 1 11 5.451 5.372 0.069 8.953 o
3 1 12 0.580 0.585 0.030 48.745 o
3 2 0 17.186 17.255 0.050 17.548 o
3 2 1 5.023 5.084 0.030 48.745 o
3 2 2 11.038 10.912 0.040 27.419 o
3 2 3 25.358 25.422 0.089 5.416 o
3 2 4 13.456 13.549 0.069 8.953 o
3 2 5 7.471 7.572 0.050 17.548 o
3 2 6 2.898 3.023 0.040 27.419 o
3 2 7 16.060 16.006 0.129 2.596 o
3 2 8 7.165 6.997 0.069 8.953 o
3 2 9 0.605 0.674 0.030 48.745 o
3 2 10 0.156 0.119 0.020 109.677 o
3 2 11 0.968 0.942 0.030 48.745 o
3 2 12 0.401 0.406 0.020 109.677 o
3 3 0 221.580 217.569 0.614 0.114 o
3 3 1 7.831 8.058 0.050 17.548 o
3 3 2 7.966 7.889 0.059 12.186 o
3 3 3 0.532 0.505 0.030 48.745 o
3 3 4 15.924 15.650 0.119 3.047 o
3 3 5 13.492 13.261 0.089 5.416 o
3 3 6 5.400 5.540 0.069 8.953 o
3 3 7 0.125 0.149 0.020 109.677 o
3 3 8 5.734 5.580 0.089 5.416 o
3 3 9 0.994 0.981 0.050 17.548 o
3 3 10 1.449 1.487 0.050 17.548 o
3 3 11 0.324 0.307 0.020 109.677 o
3 3 12 1.882 1.962 0.050 17.548 o
4 0 0 5.024 5.461 0.059 12.186 o
4 0 1 94.910 96.752 0.238 0.762 o
4 0 2 7.832 7.612 0.040 27.419 o
4 0 3 71.815 71.281 0.248 0.702 o
4 0 4 6.016 5.867 0.050 17.548 o
4 0 5 2.544 2.587 0.040 27.419 o
4 0 6 7.582 7.731 0.069 8.953 o
4 0 7 0.174 0.159 0.010 438.710 o
4 0 8 1.152 1.110 0.040 27.419 o
4 0 9 2.029 2.121 0.050 17.548 o
4 0 10 0.479 0.416 0.020 109.677 o
4 0 11 5.958 5.957 0.089 5.416 o
4 0 12 0.264 0.228 0.010 438.710 o
4 1 0 6.837 7.077 0.040 27.419 o
4 1 1 11.425 11.556 0.040 27.419 o
4 1 2 2.703 2.726 0.030 48.745 o
4 1 3 12.834 13.013 0.059 12.186 o
4 1 4 42.025 42.638 0.178 1.354 o
4 1 5 1.502 1.506 0.030 48.745 o
4 1 6 5.823 5.699 0.050 17.548 o
4 1 7 3.434 3.370 0.040 27.419 o
4 1 8 10.005 10.030 0.099 4.387 o
4 1 9 1.863 1.853 0.040 27.419 o
4 1 10 1.795 1.794 0.040 27.419 o
4 1 11 0.595 0.565 0.020 109.677 o
4 1 12 0.039 0.030 0.278 0.560 o
4 2 0 94.359 92.570 0.218 0.906 o
4 2 1 25.160 25.491 0.079 6.855 o
4 2 2 5.570 5.392 0.030 48.745 o
4 2 3 4.140 4.192 0.030 48.745 o
4 2 4 16.699 16.462 0.089 5.416 o
4 2 5 5.236 5.263 0.030 48.745 o
4 2 6 1.127 1.120 0.030 48.745 o
4 2 7 1.726 1.685 0.030 48.745 o
4 2 8 1.863 1.843 0.040 27.419 o
4 2 9 0.372 0.387 0.020 109.677 o
4 2 10 1.426 1.417 0.040 27.419 o
4 2 11 1.234 1.189 0.030 48.745 o
4 2 12 1.236 1.219 0.030 48.745 o
4 3 0 3.382 3.231 0.030 48.745 o
4 3 1 20.540 20.417 0.079 6.855 o
4 3 2 18.863 18.573 0.079 6.855 o
4 3 3 16.675 16.671 0.079 6.855 o
4 3 4 0.364 0.307 0.020 109.677 o
4 3 5 12.988 13.152 0.089 5.416 o
4 3 6 1.111 1.140 0.030 48.745 o
4 3 7 24.095 23.896 0.198 1.097 o
4 3 8 2.939 3.013 0.040 27.419 o
4 3 9 0.238 0.208 0.010 438.710 o
4 3 10 0.223 0.248 0.010 438.710 o
4 3 11 0.955 1.041 0.030 48.745 o
4 3 12 0.764 0.733 0.030 48.745 o
4 4 0 81.821 82.292 0.387 0.288 o
4 4 1 4.838 4.718 0.050 17.548 o
4 4 2 4.060 3.974 0.050 17.548 o
4 4 3 0.178 0.159 0.010 438.710 o
4 4 4 8.613 8.623 0.059 12.186 o
4 4 5 5.610 5.530 0.069 8.953 o
4 4 6 2.513 2.557 0.050 17.548 o
4 4 7 0.099 0.119 0.020 109.677 o
4 4 8 2.932 2.954 0.059 12.186 o
4 4 9 0.392 0.446 0.020 109.677 o
4 4 10 0.851 0.733 0.050 17.548 o
4 4 11 0.373 0.347 0.020 109.677 o
4 4 12 1.160 1.170 0.050 17.548 o
5 0 1 0.104 0.099 0.010 438.710 o
5 0 2 0.086 0.089 0.020 109.677 o
5 0 3 8.426 8.454 0.059 12.186 o
5 0 4 17.764 17.820 0.109 3.626 o
5 0 5 1.878 1.873 0.040 27.419 o
5 0 6 2.067 1.972 0.040 27.419 o
5 0 7 6.363 6.303 0.079 6.855 o
5 0 8 5.986 5.917 0.079 6.855 o
5 0 9 0.587 0.545 0.030 48.745 o
5 0 10 0.568 0.525 0.030 48.745 o
5 0 11 0.462 0.446 0.020 109.677 o
5 0 12 0.091 0.089 0.020 109.677 o
5 1 0 41.378 41.914 0.149 1.950 o
5 1 1 29.869 30.080 0.099 4.387 o
5 1 2 8.064 8.196 0.050 17.548 o
5 1 3 10.205 10.139 0.059 12.186 o
5 1 4 15.402 15.342 0.089 5.416 o
5 1 5 3.162 3.370 0.040 27.419 o
5 1 6 0.887 0.763 0.030 48.745 o
5 1 7 3.109 3.013 0.040 27.419 o
5 1 8 0.800 0.833 0.030 48.745 o
5 1 9 0.580 0.585 0.020 109.677 o
5 1 10 1.484 1.556 0.040 27.419 o
5 1 11 1.734 1.754 0.040 27.419 o
5 1 12 0.882 0.813 0.030 48.745 o
5 2 0 21.102 21.249 0.079 6.855 o
5 2 1 7.051 7.146 0.040 27.419 o
5 2 2 7.656 7.354 0.040 27.419 o
5 2 3 21.092 21.180 0.099 4.387 o
5 2 4 7.508 7.523 0.059 12.186 o
5 2 5 9.263 9.098 0.069 8.953 o
5 2 6 6.087 6.135 0.059 12.186 o
5 2 7 10.300 10.159 0.099 4.387 o
5 2 8 6.408 6.571 0.069 8.953 o
5 2 9 1.296 1.348 0.030 48.745 o
5 2 10 0.135 0.119 0.010 438.710 o
5 2 11 1.230 1.249 0.030 48.745 o
5 2 12 0.374 0.406 0.010 438.710 o
5 3 0 42.971 42.816 0.159 1.714 o
5 3 1 11.653 11.755 0.059 12.186 o
5 3 2 2.201 2.240 0.030 48.745 o
5 3 3 3.424 3.350 0.030 48.745 o
5 3 4 8.484 8.444 0.059 12.186 o
5 3 5 2.278 2.398 0.030 48.745 o
5 3 6 0.546 0.565 0.020 109.677 o
5 3 7 0.764 0.803 0.030 48.745 o
5 3 8 1.102 1.060 0.030 48.745 o
5 3 9 0.162 0.178 0.010 438.710 o
5 3 10 0.810 0.852 0.030 48.745 o
5 3 11 0.917 0.813 0.030 48.745 o
5 3 12 0.799 0.704 0.030 48.745 o
5 4 0 2.965 2.864 0.030 48.745 o
5 4 1 0.489 0.476 0.020 109.677 o
5 4 2 0.733 0.684 0.030 48.745 o
5 4 3 5.990 5.689 0.030 48.745 o
5 4 4 8.577 8.385 0.069 8.953 o
5 4 5 2.563 2.577 0.040 27.419 o
5 4 6 1.547 1.576 0.030 48.745 o
5 4 7 5.001 5.055 0.059 12.186 o
5 4 8 3.706 3.588 0.050 17.548 o
5 4 9 0.438 0.456 0.020 109.677 o
5 4 10 0.256 0.248 0.010 438.710 o
5 4 11 0.417 0.476 0.020 109.677 o
5 4 12 0.102 0.109 0.010 438.710 o
5 5 0 6.740 6.710 0.069 8.953 o
5 5 1 15.657 15.511 0.139 2.238 o
5 5 2 5.029 4.965 0.040 27.419 o
5 5 3 10.320 10.189 0.109 3.626 o
5 5 4 6.826 6.908 0.089 5.416 o
5 5 5 1.577 1.655 0.050 17.548 o
5 5 6 0.847 0.813 0.040 27.419 o
5 5 7 2.333 2.418 0.059 12.186 o
5 5 8 0.223 0.248 0.020 109.677 o
5 5 9 0.538 0.505 0.030 48.745 o
5 5 10 0.834 0.813 0.050 17.548 o
5 5 11 1.386 1.397 0.050 17.548 o
6 0 0 59.294 61.013 0.406 0.261 o
6 0 1 4.492 4.430 0.040 27.419 o
6 0 2 2.667 2.537 0.030 48.745 o
6 0 3 0.264 0.228 0.010 438.710 o
6 0 4 7.418 7.701 0.069 8.953 o
6 0 5 4.433 4.351 0.050 17.548 o
6 0 6 1.861 1.943 0.040 27.419 o
6 0 7 0.065 0.030 0.327 0.403 o
6 0 8 2.327 2.339 0.050 17.548 o
6 0 9 0.248 0.268 0.010 438.710 o
6 0 10 0.753 0.733 0.040 27.419 o
6 0 11 0.394 0.436 0.020 109.677 o
6 0 12 0.971 1.011 0.030 48.745 o
6 1 0 5.204 5.283 0.040 27.419 o
6 1 1 5.551 5.639 0.040 27.419 o
6 1 2 4.630 4.658 0.040 27.419 o
6 1 3 10.422 10.436 0.069 8.953 o
6 1 4 2.936 2.894 0.040 27.419 o
6 1 5 6.330 6.403 0.059 12.186 o
6 1 6 1.864 1.903 0.030 48.745 o
6 1 7 10.901 10.823 0.109 3.626 o
6 1 8 3.359 3.281 0.050 17.548 o
6 1 9 0.364 0.377 0.020 109.677 o
6 1 10 0.015 -0.010 0.278 0.560 o
6 1 11 0.682 0.724 0.030 48.745 o
6 1 12 0.325 0.317 0.010 438.710 o
6 2 0 22.607 23.271 0.109 3.626 o
6 2 1 13.532 13.648 0.079 6.855 o
6 2 2 2.751 2.825 0.030 48.745 o
6 2 3 6.215 6.155 0.040 27.419 o
6 2 4 7.749 7.513 0.059 12.186 o
6 2 5 1.423 1.536 0.030 48.745 o
6 2 6 0.357 0.307 0.010 438.710 o
6 2 7 1.334 1.288 0.030 48.745 o
6 2 8 0.512 0.605 0.020 109.677 o
6 2 9 0.264 0.248 0.010 438.710 o
6 2 10 0.791 0.833 0.030 48.745 o
6 2 11 1.155 1.170 0.030 48.745 o
6 2 12 0.575 0.545 0.030 48.745 o
6 3 0 0.013 0.040 0.228 0.829 o
6 3 1 0.899 0.882 0.030 48.745 o
6 3 2 0.859 0.912 0.030 48.745 o
6 3 3 2.888 2.854 0.040 27.419 o
6 3 4 15.326 15.075 0.109 3.626 o
6 3 5 0.377 0.327 0.010 438.710 o
6 3 6 1.875 1.744 0.040 27.419 o
6 3 7 1.754 1.774 0.030 48.745 o
6 3 8 4.108 4.301 0.059 12.186 o
6 3 9 0.673 0.595 0.020 109.677 o
6 3 10 0.761 0.773 0.030 48.745 o
6 3 11 0.239 0.228 0.010 438.710 o
6 4 0 2.499 2.448 0.030 48.745 o
6 4 1 13.485 13.370 0.059 12.186 o
6 4 2 2.652 2.607 0.030 48.745 o
6 4 3 14.684 14.668 0.099 4.387 o
6 4 4 3.402 3.419 0.040 27.419 o
6 4 5 0.946 0.862 0.030 48.745 o
6 4 6 1.336 1.298 0.030 48.745 o
6 4 7 0.899 0.912 0.030 48.745 o
6 4 8 0.171 0.159 0.010 438.710 o
6 4 9 0.596 0.624 0.030 48.745 o
6 4 10 0.399 0.396 0.020 109.677 o
6 4 11 1.774 1.705 0.040 27.419 o
6 5 0 4.190 4.133 0.040 27.419 o
6 5 1 0.819 0.852 0.030 48.745 o
6 5 2 1.618 1.556 0.030 48.745 o
6 5 3 4.172 4.004 0.050 17.548 o
6 5 4 9.224 9.247 0.079 6.855 o
6 5 5 1.514 1.526 0.030 48.745 o
6 5 6 1.985 2.081 0.040 27.419 o
6 5 7 1.269 1.269 0.030 48.745 o
6 5 8 3.102 3.112 0.050 17.548 o
6 5 9 0.664 0.753 0.030 48.745 o
6 5 10 0.476 0.486 0.020 109.677 o
6 5 11 0.277 0.278 0.010 438.710 o
6 6 0 9.078 8.434 0.099 4.387 o
6 6 1 2.758 2.706 0.050 17.548 o
6 6 2 0.463 0.426 0.030 48.745 o
6 6 3 1.743 1.754 0.050 17.548 o
6 6 4 1.859 1.923 0.050 17.548 o
6 6 5 0.344 0.287 0.020 109.677 o
6 6 6 0.064 0.040 0.228 0.829 o
6 6 7 0.126 0.159 0.020 109.677 o
6 6 8 0.257 0.228 0.020 109.677 o
6 6 9 0.007 0.050 0.387 0.288 o
6 6 10 0.225 0.198 0.020 109.677 o
6 6 11 0.386 0.367 0.030 48.745 o
7 0 1 8.194 8.454 0.069 8.953 o
7 0 2 4.958 5.094 0.040 27.419 o
7 0 3 5.413 5.223 0.050 17.548 o
7 0 4 0.192 0.178 0.010 438.710 o
7 0 5 5.938 6.234 0.069 8.953 o
7 0 6 0.026 0.050 0.307 0.457 o
7 0 7 11.734 11.873 0.139 2.238 o
7 0 8 1.298 1.229 0.040 27.419 o
7 0 9 0.021 0.050 0.317 0.428 o
7 0 10 0.085 0.089 0.020 109.677 o
7 0 11 0.423 0.476 0.030 48.745 o
7 1 0 30.335 31.220 0.178 1.354 o
7 1 1 3.149 3.162 0.040 27.419 o
7 1 2 1.476 1.437 0.020 109.677 o
7 1 3 0.591 0.605 0.020 109.677 o
7 1 4 4.377 4.569 0.050 17.548 o
7 1 5 2.026 2.042 0.030 48.745 o
7 1 6 0.890 1.011 0.030 48.745 o
7 1 7 0.048 0.079 0.020 109.677 o
7 1 8 1.240 1.229 0.030 48.745 o
7 1 9 0.088 0.099 0.010 438.710 o
7 1 10 0.453 0.406 0.020 109.677 o
7 1 11 0.359 0.357 0.010 438.710 o
7 2 0 0.235 0.278 0.010 438.710 o
7 2 1 0.016 0.010 0.168 1.518 o
7 2 2 0.139 0.168 0.010 438.710 o
7 2 3 2.674 2.696 0.040 27.419 o
7 2 4 8.320 8.266 0.069 8.953 o
7 2 5 0.854 0.862 0.030 48.745 o
7 2 6 1.013 0.942 0.030 48.745 o
7 2 7 2.499 2.577 0.040 27.419 o
7 2 8 2.810 2.914 0.050 17.548 o
7 2 9 0.322 0.278 0.010 438.710 o
7 2 10 0.340 0.387 0.010 438.710 o
7 2 11 0.223 0.218 0.010 438.710 o
7 3 0 1.340 1.368 0.030 48.745 o
7 3 1 10.552 10.625 0.079 6.855 o
7 3 2 1.455 1.437 0.030 48.745 o
7 3 3 14.012 13.905 0.109 3.626 o
7 3 4 1.853 1.824 0.030 48.745 o
7 3 5 0.717 0.644 0.030 48.745 o
7 3 6 1.364 1.348 0.030 48.745 o
7 3 7 0.300 0.317 0.010 438.710 o
7 3 8 0.179 0.178 0.010 438.710 o
7 3 9 0.564 0.575 0.030 48.745 o
7 3 10 0.207 0.268 0.010 438.710 o
7 3 11 1.657 1.616 0.030 48.745 o
7 4 0 0.961 0.991 0.030 48.745 o
7 4 1 1.338 1.338 0.030 48.745 o
7 4 2 1.769 1.804 0.030 48.745 o
7 4 3 1.662 1.685 0.030 48.745 o
7 4 4 11.710 11.487 0.099 4.387 o
7 4 5 0.310 0.337 0.010 438.710 o
7 4 6 1.508 1.457 0.030 48.745 o
7 4 7 0.455 0.446 0.020 109.677 o
7 4 8 2.857 3.023 0.050 17.548 o
7 4 9 0.605 0.545 0.030 48.745 o
7 4 10 0.717 0.773 0.030 48.745 o
7 4 11 0.129 0.139 0.010 438.710 o
7 5 0 5.959 5.778 0.059 12.186 o
7 5 1 3.149 3.152 0.040 27.419 o
7 5 2 0.046 0.099 0.030 48.745 o
7 5 3 2.824 2.835 0.040 27.419 o
7 5 4 1.441 1.417 0.030 48.745 o
7 5 5 0.058 0.079 0.020 109.677 o
7 5 6 0.003 0.010 0.198 1.097 o
7 5 7 0.021 0.010 0.287 0.522 o
7 5 8 0.090 0.089 0.020 109.677 o
7 5 9 0.034 0.040 0.278 0.560 o
7 5 10 0.164 0.159 0.010 438.710 o
7 5 11 0.503 0.476 0.020 109.677 o
7 6 0 0.539 0.515 0.020 109.677 o
7 6 1 2.315 2.190 0.040 27.419 o
7 6 2 1.088 1.090 0.030 48.745 o
7 6 3 2.193 2.131 0.040 27.419 o
7 6 4 0.337 0.357 0.010 438.710 o
7 6 5 1.851 1.853 0.040 27.419 o
7 6 6 0.321 0.317 0.010 438.710 o
7 6 7 3.477 3.528 0.050 17.548 o
7 6 8 0.716 0.704 0.030 48.745 o
7 6 9 0.040 -0.010 0.287 0.522 o
7 6 10 0.003 -0.030 0.268 0.602 o
7 7 1 1.186 1.279 0.050 17.548 o
7 7 2 1.383 1.378 0.050 17.548 o
7 7 3 0.014 0.000 0.387 0.288 o
7 7 4 1.955 1.913 0.059 12.186 o
7 7 5 1.143 1.100 0.050 17.548 o
7 7 6 0.781 0.872 0.050 17.548 o
7 7 7 0.227 0.287 0.020 109.677 o
7 7 8 0.705 0.694 0.040 27.419 o
7 7 9 0.138 0.168 0.020 109.677 o
7 7 10 0.201 0.208 0.020 109.677 o
8 0 0 16.897 17.057 0.139 2.238 o
8 0 1 2.257 2.260 0.040 27.419 o
8 0 2 0.790 0.813 0.030 48.745 o
8 0 3 0.714 0.793 0.030 48.745 o
8 0 4 2.705 2.716 0.050 17.548 o
8 0 5 0.973 0.892 0.030 48.745 o
8 0 6 0.437 0.505 0.020 109.677 o
8 0 7 0.032 0.059 0.327 0.403 o
8 0 8 0.678 0.654 0.030 48.745 o
8 0 9 0.027 0.010 0.327 0.403 o
8 0 10 0.278 0.248 0.010 438.710 o
8 0 11 0.300 0.287 0.010 438.710 o
8 1 0 1.424 1.487 0.030 48.745 o
8 1 1 0.992 0.961 0.030 48.745 o
8 1 2 0.604 0.614 0.020 109.677 o
8 1 3 3.203 3.152 0.040 27.419 o
8 1 4 2.749 2.894 0.040 27.419 o
8 1 5 1.919 1.962 0.040 27.419 o
8 1 6 0.718 0.773 0.030 48.745 o
8 1 7 3.476 3.499 0.050 17.548 o
8 1 8 1.694 1.645 0.040 27.419 o
8 1 9 0.166 0.218 0.010 438.710 o
8 1 10 0.058 0.020 0.278 0.560 o
8 1 11 0.259 0.278 0.010 438.710 o
8 2 0 4.756 4.638 0.050 17.548 o
8 2 1 6.443 6.502 0.059 12.186 o
8 2 2 1.469 1.546 0.030 48.745 o
8 2 3 5.038 5.094 0.050 17.548 o
8 2 4 2.951 3.043 0.040 27.419 o
8 2 5 0.500 0.555 0.020 109.677 o
8 2 6 0.259 0.258 0.010 438.710 o
8 2 7 0.753 0.823 0.030 48.745 o
8 2 8 0.090 0.119 0.010 438.710 o
8 2 9 0.208 0.188 0.010 438.710 o
8 2 10 0.348 0.387 0.020 109.677 o
8 2 11 0.760 0.783 0.030 48.745 o
8 3 0 1.106 1.120 0.030 48.745 o
8 3 1 0.391 0.387 0.010 438.710 o
8 3 2 0.854 0.862 0.030 48.745 o
8 3 3 1.755 1.824 0.030 48.745 o
8 3 4 7.033 6.977 0.069 8.953 o
8 3 5 0.501 0.515 0.020 109.677 o
8 3 6 1.039 1.090 0.030 48.745 o
8 3 7 0.766 0.803 0.030 48.745 o
8 3 8 2.064 2.071 0.040 27.419 o
8 3 9 0.373 0.367 0.020 109.677 o
8 3 10 0.392 0.396 0.020 109.677 o
8 3 11 0.137 0.139 0.010 438.710 o
8 4 0 4.044 4.123 0.050 17.548 o
8 4 1 2.992 2.904 0.040 27.419 o
8 4 2 0.008 0.030 0.258 0.649 o
8 4 3 2.994 2.924 0.040 27.419 o
8 4 4 1.173 1.120 0.030 48.745 o
8 4 5 0.016 0.020 0.278 0.560 o
8 4 6 0.033 0.089 0.030 48.745 o
8 4 7 0.021 0.030 0.159 1.714 o
8 4 8 0.042 0.050 0.020 109.677 o
8 4 9 0.062 0.050 0.198 1.097 o
8 4 10 0.129 0.168 0.010 438.710 o
8 5 0 1.051 0.981 0.030 48.745 o
8 5 1 1.276 1.338 0.030 48.745 o
8 5 2 0.729 0.714 0.030 48.745 o
8 5 3 2.218 2.190 0.040 27.419 o
8 5 4 0.835 0.783 0.030 48.745 o
8 5 5 1.377 1.328 0.030 48.745 o
8 5 6 0.567 0.595 0.030 48.745 o
8 5 7 2.311 2.339 0.040 27.419 o
8 5 8 0.880 0.872 0.030 48.745 o
8 5 9 0.088 0.089 0.020 109.677 o
8 5 10 0.009 0.020 0.258 0.649 o
8 6 0 8.084 8.345 0.089 5.416 o
8 6 1 1.559 1.487 0.040 27.419 o
8 6 2 1.231 1.189 0.030 48.745 o
8 6 3 0.038 0.020 0.278 0.560 o
8 6 4 1.993 1.962 0.040 27.419 o
8 6 5 0.900 1.011 0.030 48.745 o
8 6 6 0.557 0.585 0.030 48.745 o
8 6 7 0.314 0.307 0.020 109.677 o
8 6 8 0.534 0.555 0.020 109.677 o
8 6 9 0.117 0.129 0.010 438.710 o
8 6 10 0.207 0.238 0.020 109.677 o
8 7 0 0.086 0.139 0.020 109.677 o
8 7 1 0.641 0.555 0.030 48.745 o
8 7 2 0.206 0.218 0.010 438.710 o
8 7 3 0.745 0.773 0.030 48.745 o
8 7 4 0.376 0.347 0.020 109.677 o
8 7 5 0.625 0.644 0.030 48.745 o
8 7 6 0.119 0.149 0.020 109.677 o
8 7 7 1.263 1.249 0.040 27.419 o
8 7 8 0.343 0.357 0.010 438.710 o
8 7 9 0.010 0.000 0.268 0.602 o
8 8 0 0.916 0.882 0.050 17.548 o
8 8 1 0.879 0.862 0.040 27.419 o
8 8 2 0.141 0.159 0.020 109.677 o
8 8 3 0.930 0.951 0.050 17.548 o
8 8 4 0.369 0.347 0.020 109.677 o
8 8 5 0.036 0.010 0.406 0.261 o
8 8 6 0.016 0.000 0.406 0.261 o
8 8 7 0.074 0.030 0.406 0.261 o
8 8 8 0.007 0.010 0.387 0.288 o
9 0 1 0.002 -0.020 0.297 0.487 o
9 0 2 0.080 0.089 0.020 109.677 o
9 0 3 1.040 1.011 0.040 27.419 o
9 0 4 3.718 3.846 0.059 12.186 o
9 0 5 0.391 0.347 0.020 109.677 o
9 0 6 0.436 0.446 0.020 109.677 o
9 0 7 1.154 1.140 0.040 27.419 o
9 0 8 1.265 1.328 0.040 27.419 o
9 0 9 0.135 0.119 0.020 109.677 o
9 0 10 0.165 0.188 0.010 438.710 o
9 1 0 3.613 3.568 0.040 27.419 o
9 1 1 3.569 3.598 0.040 27.419 o
9 1 2 0.599 0.634 0.020 109.677 o
9 1 3 2.973 3.102 0.040 27.419 o
9 1 4 1.686 1.655 0.040 27.419 o
9 1 5 0.220 0.258 0.010 438.710 o
9 1 6 0.097 0.050 0.198 1.097 o
9 1 7 0.325 0.317 0.010 438.710 o
9 1 8 0.061 0.030 0.287 0.522 o
9 1 9 0.101 0.069 0.010 438.710 o
9 1 10 0.190 0.198 0.010 438.710 o
9 2 0 1.396 1.388 0.030 48.745 o
9 2 1 0.235 0.228 0.010 438.710 o
9 2 2 0.441 0.406 0.010 438.710 o
9 2 3 1.925 1.893 0.040 27.419 o
9 2 4 3.014 3.102 0.040 27.419 o
9 2 5 0.863 0.783 0.030 48.745 o
9 2 6 0.715 0.823 0.030 48.745 o
9 2 7 1.187 1.179 0.030 48.745 o
9 2 8 1.298 1.239 0.040 27.419 o
9 2 9 0.206 0.218 0.010 438.710 o
9 2 10 0.130 0.109 0.010 438.710 o
9 3 0 5.009 5.223 0.059 12.186 o
9 3 1 1.616 1.616 0.030 48.745 o
9 3 2 0.187 0.188 0.010 438.710 o
9 3 3 1.152 1.130 0.030 48.745 o
9 3 4 1.052 1.051 0.030 48.745 o
9 3 5 0.144 0.119 0.010 438.710 o
9 3 6 0.031 0.040 0.198 1.097 o
9 3 7 0.044 0.030 0.198 1.097 o
9 3 8 0.140 0.129 0.010 438.710 o
9 3 9 0.006 0.020 0.278 0.560 o
9 3 10 0.121 0.089 0.020 109.677 o
9 4 0 0.426 0.416 0.020 109.677 o
9 4 1 1.039 1.060 0.030 48.745 o
9 4 2 0.447 0.476 0.020 109.677 o
9 4 3 1.428 1.388 0.030 48.745 o
9 4 4 0.571 0.535 0.020 109.677 o
9 4 5 1.040 1.031 0.030 48.745 o
9 4 6 0.269 0.287 0.010 438.710 o
9 4 7 1.965 2.022 0.040 27.419 o
9 4 8 0.605 0.614 0.030 48.745 o
9 4 9 0.036 0.050 0.278 0.560 o
9 4 10 0.004 -0.030 0.268 0.602 o
9 5 0 5.825 6.234 0.069 8.953 o
9 5 1 1.437 1.348 0.030 48.745 o
9 5 2 0.900 0.971 0.030 48.745 o
9 5 3 0.113 0.059 0.020 109.677 o
9 5 4 1.612 1.586 0.040 27.419 o
9 5 5 0.604 0.644 0.030 48.745 o
9 5 6 0.351 0.377 0.010 438.710 o
9 5 7 0.275 0.278 0.010 438.710 o
9 5 8 0.362 0.377 0.020 109.677 o
9 5 9 0.082 0.050 0.198 1.097 o
9 6 0 0.174 0.178 0.010 438.710 o
9 6 1 0.388 0.416 0.020 109.677 o
9 6 2 0.144 0.149 0.010 438.710 o
9 6 3 0.700 0.763 0.030 48.745 o
9 6 4 0.541 0.496 0.020 109.677 o
9 6 5 0.467 0.446 0.020 109.677 o
9 6 6 0.176 0.159 0.010 438.710 o
9 6 7 0.920 0.932 0.030 48.745 o
9 6 8 0.369 0.396 0.010 438.710 o
9 6 9 0.023 0.030 0.268 0.602 o
9 7 0 0.731 0.803 0.030 48.745 o
9 7 1 0.842 0.892 0.030 48.745 o
9 7 2 0.088 0.050 0.198 1.097 o
9 7 3 1.001 0.981 0.030 48.745 o
9 7 4 0.298 0.297 0.010 438.710 o
9 7 5 0.024 -0.040 0.287 0.522 o
9 7 6 0.019 0.040 0.278 0.560 o
9 7 7 0.045 0.030 0.278 0.560 o
9 7 8 0.002 0.010 0.268 0.602 o
9 8 0 0.545 0.575 0.020 109.677 o
9 8 1 0.168 0.168 0.010 438.710 o
9 8 2 0.372 0.396 0.020 109.677 o
9 8 3 0.426 0.377 0.020 109.677 o
9 8 4 1.359 1.407 0.040 27.419 o
9 8 5 0.196 0.198 0.010 438.710 o
9 8 6 0.267 0.287 0.010 438.710 o
9 8 7 0.046 0.030 0.198 1.097 o
9 8 8 0.383 0.367 0.020 109.677 o
9 9 0 0.134 0.109 0.020 109.677 o
9 9 1 0.560 0.654 0.040 27.419 o
9 9 2 0.170 0.159 0.020 109.677 o
9 9 3 0.671 0.783 0.040 27.419 o
9 9 4 0.187 0.218 0.020 109.677 o
9 9 5 0.070 0.059 0.396 0.274 o
9 9 6 0.041 0.059 0.218 0.906 o
9 9 7 0.078 0.069 0.377 0.304 o
10 0 0 0.949 0.922 0.040 27.419 o
10 0 1 2.233 2.240 0.040 27.419 o
10 0 2 0.071 0.050 0.317 0.428 o
10 0 3 3.104 3.102 0.050 17.548 o
10 0 4 0.497 0.466 0.020 109.677 o
10 0 5 0.065 0.069 0.327 0.403 o
10 0 6 0.153 0.188 0.010 438.710 o
10 0 7 0.008 0.000 0.327 0.403 o
10 0 8 0.004 0.040 0.317 0.428 o
10 0 9 0.112 0.099 0.020 109.677 o
10 0 10 0.049 0.089 0.505 0.169 o
10 1 0 0.110 0.099 0.010 438.710 o
10 1 1 0.032 0.020 0.268 0.602 o
10 1 2 0.195 0.198 0.010 438.710 o
10 1 3 0.588 0.605 0.020 109.677 o
10 1 4 2.676 2.686 0.040 27.419 o
10 1 5 0.178 0.129 0.010 438.710 o
10 1 6 0.332 0.327 0.010 438.710 o
10 1 7 0.489 0.496 0.020 109.677 o
10 1 8 0.824 0.882 0.030 48.745 o
10 1 9 0.110 0.069 0.020 109.677 o
10 1 10 0.144 0.178 0.020 109.677 o
10 2 0 3.277 3.340 0.050 17.548 o
10 2 1 1.081 1.060 0.030 48.745 o
10 2 2 0.105 0.089 0.030 48.745 o
10 2 3 0.815 0.842 0.030 48.745 o
10 2 4 0.695 0.763 0.030 48.745 o
10 2 5 0.078 0.059 0.020 109.677 o
10 2 6 0.021 0.010 0.278 0.560 o
10 2 7 0.021 0.020 0.278 0.560 o
10 2 8 0.092 0.089 0.010 438.710 o
10 2 9 0.005 -0.020 0.278 0.560 o
10 2 10 0.076 0.040 0.367 0.320 o
10 3 0 0.050 0.069 0.020 109.677 o
10 3 1 0.878 0.862 0.030 48.745 o
10 3 2 0.278 0.317 0.010 438.710 o
10 3 3 0.816 0.842 0.030 48.745 o
10 3 4 0.288 0.307 0.010 438.710 o
10 3 5 0.773 0.773 0.030 48.745 o
10 3 6 0.064 0.109 0.020 109.677 o
10 3 7 1.582 1.536 0.040 27.419 o
10 3 8 0.351 0.287 0.010 438.710 o
10 3 9 0.004 0.050 0.268 0.602 o
10 4 0 4.826 5.045 0.069 8.953 o
10 4 1 0.614 0.605 0.020 109.677 o
10 4 2 0.519 0.496 0.020 109.677 o
10 4 3 0.038 0.030 0.278 0.560 o
10 4 4 0.902 1.001 0.030 48.745 o
10 4 5 0.413 0.396 0.020 109.677 o
10 4 6 0.288 0.307 0.010 438.710 o
10 4 7 0.078 0.079 0.020 109.677 o
10 4 8 0.296 0.258 0.010 438.710 o
10 4 9 0.038 -0.020 0.188 1.215 o
10 5 0 0.068 0.059 0.020 109.677 o
10 5 1 0.317 0.337 0.010 438.710 o
10 5 2 0.085 0.099 0.020 109.677 o
10 5 3 0.494 0.476 0.020 109.677 o
10 5 4 0.403 0.377 0.020 109.677 o
10 5 5 0.372 0.357 0.020 109.677 o
10 5 6 0.099 0.089 0.020 109.677 o
10 5 7 0.767 0.773 0.030 48.745 o
10 5 8 0.277 0.268 0.010 438.710 o
10 5 9 0.011 0.000 0.258 0.649 o
10 6 0 0.599 0.585 0.020 109.677 o
10 6 1 0.699 0.694 0.030 48.745 o
10 6 2 0.048 0.030 0.198 1.097 o
10 6 3 0.867 0.852 0.030 48.745 o
10 6 4 0.232 0.228 0.010 438.710 o
10 6 5 0.015 -0.010 0.287 0.522 o
10 6 6 0.015 0.000 0.287 0.522 o
10 6 7 0.025 0.030 0.198 1.097 o
10 6 8 0.002 0.000 0.268 0.602 o
10 7 0 0.352 0.367 0.020 109.677 o
10 7 1 0.145 0.129 0.020 109.677 o
10 7 2 0.312 0.317 0.010 438.710 o
10 7 3 0.291 0.317 0.010 438.710 o
10 7 4 1.253 1.269 0.040 27.419 o
10 7 5 0.128 0.139 0.010 438.710 o
10 7 6 0.210 0.188 0.010 438.710 o
10 7 7 0.037 0.020 0.198 1.097 o
10 7 8 0.329 0.337 0.010 438.710 o
10 8 0 0.115 0.099 0.020 109.677 o
10 8 1 0.514 0.505 0.020 109.677 o
10 8 2 0.139 0.159 0.010 438.710 o
10 8 3 0.659 0.733 0.030 48.745 o
10 8 4 0.155 0.168 0.010 438.710 o
10 8 5 0.062 0.030 0.198 1.097 o
10 8 6 0.040 0.050 0.188 1.215 o
10 8 7 0.061 0.050 0.010 438.710 o
10 9 0 0.002 0.010 0.198 1.097 o
10 9 1 0.026 0.040 0.278 0.560 o
10 9 2 0.001 0.000 0.278 0.560 o
10 9 3 0.075 0.069 0.020 109.677 o
10 9 4 0.157 0.178 0.010 438.710 o
10 9 5 0.052 0.020 0.278 0.560 o
10 9 6 0.016 0.030 0.188 1.215 o
10 10 0 0.569 0.585 0.040 27.419 o
10 10 1 0.099 0.119 0.020 109.677 o
10 10 2 0.087 0.069 0.396 0.274 o
10 10 3 0.001 -0.020 0.396 0.274 o
10 10 4 0.130 0.129 0.020 109.677 o
10 10 5 0.056 0.059 0.377 0.304 o
11 0 1 0.016 0.000 0.327 0.403 o
11 0 2 0.132 0.079 0.020 109.677 o
11 0 3 0.278 0.327 0.020 109.677 o
11 0 4 1.641 1.536 0.040 27.419 o
11 0 5 0.072 0.020 0.327 0.403 o
11 0 6 0.183 0.139 0.020 109.677 o
11 0 7 0.254 0.268 0.010 438.710 o
11 0 8 0.483 0.496 0.030 48.745 o
11 0 9 0.060 -0.010 0.307 0.457 o
11 1 0 1.188 1.318 0.030 48.745 o
11 1 1 0.899 0.912 0.030 48.745 o
11 1 2 0.017 0.030 0.198 1.097 o
11 1 3 0.963 0.951 0.030 48.745 o
11 1 4 0.362 0.377 0.010 438.710 o
11 1 5 0.007 0.020 0.278 0.560 o
11 1 6 0.007 0.030 0.278 0.560 o
11 1 7 0.012 0.040 0.278 0.560 o
11 1 8 0.014 0.040 0.278 0.560 o
11 1 9 0.026 0.050 0.258 0.649 o
11 2 0 0.102 0.119 0.020 109.677 o
11 2 1 0.258 0.238 0.010 438.710 o
11 2 2 0.070 0.030 0.198 1.097 o
11 2 3 0.489 0.505 0.020 109.677 o
11 2 4 0.461 0.416 0.020 109.677 o
11 2 5 0.349 0.367 0.010 438.710 o
11 2 6 0.095 0.099 0.020 109.677 o
11 2 7 0.711 0.733 0.030 48.745 o
11 2 8 0.298 0.278 0.010 438.710 o
11 2 9 0.014 0.040 0.258 0.649 o
11 3 0 2.818 2.765 0.050 17.548 o
11 3 1 0.398 0.436 0.020 109.677 o
11 3 2 0.251 0.228 0.010 438.710 o
11 3 3 0.074 0.089 0.020 109.677 o
11 3 4 0.520 0.535 0.030 48.745 o
11 3 5 0.190 0.178 0.010 438.710 o
11 3 6 0.140 0.149 0.010 438.710 o
11 3 7 0.034 0.030 0.278 0.560 o
11 3 8 0.158 0.119 0.010 438.710 o
11 4 0 0.007 0.020 0.278 0.560 o
11 4 1 0.259 0.228 0.010 438.710 o
11 4 2 0.048 0.040 0.168 1.518 o
11 4 3 0.313 0.317 0.010 438.710 o
11 4 4 0.248 0.268 0.010 438.710 o
11 4 5 0.284 0.258 0.010 438.710 o
11 4 6 0.038 0.050 0.198 1.097 o
11 4 7 0.598 0.535 0.030 48.745 o
11 4 8 0.181 0.149 0.010 438.710 o
11 5 0 0.637 0.624 0.030 48.745 o
11 5 1 0.470 0.515 0.020 109.677 o
11 5 2 0.050 0.079 0.278 0.560 o
11 5 3 0.500 0.515 0.020 109.677 o
11 5 4 0.206 0.218 0.010 438.710 o
11 5 5 0.012 -0.010 0.287 0.522 o
11 5 6 0.003 0.040 0.278 0.560 o
11 5 7 0.026 0.050 0.268 0.602 o
11 5 8 0.008 -0.020 0.258 0.649 o
11 6 0 0.241 0.248 0.010 438.710 o
11 6 1 0.068 0.089 0.010 438.710 o
11 6 2 0.190 0.208 0.010 438.710 o
11 6 3 0.218 0.238 0.010 438.710 o
11 6 4 0.865 0.872 0.030 48.745 o
11 6 5 0.095 0.099 0.020 109.677 o
11 6 6 0.144 0.159 0.010 438.710 o
11 6 7 0.049 0.040 0.188 1.215 o
11 7 0 0.112 0.119 0.020 109.677 o
11 7 1 0.401 0.406 0.020 109.677 o
11 7 2 0.091 0.089 0.010 438.710 o
11 7 3 0.531 0.515 0.030 48.745 o
11 7 4 0.114 0.129 0.010 438.710 o
11 7 5 0.042 0.079 0.020 109.677 o
11 7 6 0.027 0.059 0.268 0.602 o
11 7 7 0.040 0.059 0.258 0.649 o
11 8 0 0.001 0.000 0.278 0.560 o
11 8 1 0.019 -0.010 0.287 0.522 o
11 8 2 0.002 -0.020 0.287 0.522 o
11 8 3 0.065 0.069 0.020 109.677 o
11 8 4 0.153 0.159 0.010 438.710 o
11 8 5 0.042 0.059 0.188 1.215 o
11 8 6 0.016 0.030 0.258 0.649 o
11 9 0 0.507 0.525 0.020 109.677 o
11 9 1 0.096 0.099 0.010 438.710 o
11 9 2 0.077 0.059 0.020 109.677 o
11 9 3 0.002 -0.020 0.278 0.560 o
11 9 4 0.121 0.129 0.020 109.677 o
11 9 5 0.049 0.050 0.188 1.215 o
11 10 0 0.053 0.050 0.278 0.560 o
11 10 1 0.127 0.109 0.010 438.710 o
11 10 2 0.059 0.059 0.020 109.677 o
11 10 3 0.097 0.079 0.020 109.677 o
12 0 0 0.908 0.991 0.040 27.419 o
12 0 1 0.386 0.367 0.020 109.677 o
12 0 2 0.014 0.000 0.218 0.906 o
12 0 3 0.362 0.337 0.020 109.677 o
12 0 4 0.205 0.198 0.010 438.710 o
12 0 5 0.007 0.010 0.327 0.403 o
12 0 6 0.003 0.040 0.317 0.428 o
12 0 7 0.002 0.030 0.307 0.457 o
12 0 8 0.022 0.050 0.307 0.457 o
12 1 0 0.066 0.050 0.287 0.522 o
12 1 1 0.082 0.079 0.020 109.677 o
12 1 2 0.027 0.050 0.278 0.560 o
12 1 3 0.255 0.278 0.010 438.710 o
12 1 4 0.388 0.367 0.020 109.677 o
12 1 5 0.159 0.159 0.010 438.710 o
12 1 6 0.067 0.010 0.287 0.522 o
12 1 7 0.327 0.357 0.020 109.677 o
12 1 8 0.195 0.188 0.010 438.710 o
12 2 0 1.157 1.160 0.030 48.745 o
12 2 1 0.361 0.357 0.010 438.710 o
12 2 2 0.101 0.119 0.020 109.677 o
12 2 3 0.178 0.168 0.010 438.710 o
12 2 4 0.295 0.287 0.010 438.710 o
12 2 5 0.054 0.010 0.287 0.522 o
12 2 6 0.033 0.000 0.278 0.560 o
12 2 7 0.032 0.050 0.278 0.560 o
12 2 8 0.051 0.059 0.010 438.710 o
12 3 0 0.016 0.030 0.278 0.560 o
12 3 1 0.093 0.089 0.010 438.710 o
12 3 2 0.013 0.030 0.198 1.097 o
12 3 3 0.187 0.178 0.010 438.710 o
12 3 4 0.258 0.268 0.010 438.710 o
12 3 5 0.140 0.139 0.020 109.677 o
12 3 6 0.040 0.069 0.020 109.677 o
12 3 7 0.303 0.287 0.010 438.710 o
12 4 0 0.471 0.466 0.020 109.677 o
12 4 1 0.297 0.287 0.010 438.710 o
12 4 2 0.024 0.010 0.287 0.522 o
12 4 3 0.315 0.317 0.010 438.710 o
12 4 4 0.136 0.139 0.010 438.710 o
12 4 5 0.005 0.000 0.278 0.560 o
12 4 6 0.001 -0.010 0.278 0.560 o
12 4 7 0.012 0.030 0.268 0.602 o
12 5 0 0.144 0.119 0.020 109.677 o
12 5 1 0.020 0.020 0.287 0.522 o
12 5 2 0.090 0.099 0.020 109.677 o
12 5 3 0.150 0.129 0.010 438.710 o
12 5 4 0.496 0.545 0.020 109.677 o
12 5 5 0.069 0.059 0.278 0.560 o
12 5 6 0.083 0.079 0.278 0.560 o
12 5 7 0.061 0.030 0.258 0.649 o
12 6 0 0.136 0.149 0.010 438.710 o
12 6 1 0.267 0.268 0.010 438.710 o
12 6 2 0.056 0.050 0.208 0.995 o
12 6 3 0.325 0.377 0.020 109.677 o
12 6 4 0.090 0.079 0.020 109.677 o
12 6 5 0.022 0.030 0.198 1.097 o
12 6 6 0.010 0.010 0.268 0.602 o
12 7 0 0.001 -0.010 0.278 0.560 o
12 7 1 0.017 0.010 0.198 1.097 o
12 7 2 0.001 0.000 0.278 0.560 o
12 7 3 0.051 0.059 0.010 438.710 o
12 7 4 0.120 0.129 0.010 438.710 o
12 7 5 0.036 0.000 0.188 1.215 o
12 8 0 0.396 0.426 0.020 109.677 o
12 8 1 0.077 0.059 0.020 109.677 o
12 8 2 0.056 0.089 0.020 109.677 o
12 8 3 0.004 0.000 0.268 0.602 o
12 8 4 0.094 0.099 0.020 109.677 o
12 9 0 0.044 0.050 0.278 0.560 o
12 9 1 0.102 0.059 0.020 109.677 o
12 9 2 0.045 0.000 0.278 0.560 o
12 9 3 0.081 0.069 0.020 109.677 o
13 0 1 0.090 0.079 0.020 109.677 o
13 0 2 0.007 0.030 0.208 0.995 o
13 0 3 0.116 0.119 0.020 109.677 o
13 0 4 0.127 0.109 0.010 438.710 o
13 0 5 0.107 0.089 0.020 109.677 o
13 0 6 0.013 0.000 0.317 0.428 o
13 0 7 0.230 0.198 0.010 438.710 o
13 1 0 0.648 0.664 0.030 48.745 o
13 1 1 0.154 0.149 0.010 438.710 o
13 1 2 0.037 0.000 0.287 0.522 o
13 1 3 0.095 0.099 0.010 438.710 o
13 1 4 0.129 0.129 0.010 438.710 o
13 1 5 0.020 0.010 0.198 1.097 o
13 1 6 0.018 0.010 0.188 1.215 o
13 1 7 0.005 0.030 0.258 0.649 o
13 2 0 0.011 0.010 0.278 0.560 o
13 2 1 0.036 0.020 0.278 0.560 o
13 2 2 0.006 0.000 0.278 0.560 o
13 2 3 0.099 0.089 0.020 109.677 o
13 2 4 0.188 0.159 0.010 438.710 o
13 2 5 0.069 0.020 0.287 0.522 o
13 2 6 0.026 0.050 0.268 0.602 o
13 3 0 0.254 0.238 0.010 438.710 o
13 3 1 0.184 0.188 0.010 438.710 o
13 3 2 0.003 0.000 0.287 0.522 o
13 3 3 0.220 0.218 0.010 438.710 o
13 3 4 0.073 0.050 0.287 0.522 o
13 3 5 0.001 0.010 0.278 0.560 o
13 3 6 0.000 0.010 0.268 0.602 o
13 4 0 0.043 0.020 0.198 1.097 o
13 4 1 0.005 0.030 0.278 0.560 o
13 4 2 0.041 0.040 0.278 0.560 o
13 4 3 0.067 0.069 0.020 109.677 o
13 4 4 0.300 0.297 0.010 438.710 o
13 4 5 0.030 -0.030 0.317 0.428 o
13 4 6 0.040 0.050 0.188 1.215 o
13 5 0 0.119 0.129 0.010 438.710 o
13 5 1 0.157 0.168 0.010 438.710 o
13 5 2 0.024 -0.010 0.278 0.560 o
13 5 3 0.191 0.178 0.010 438.710 o
13 5 4 0.055 0.000 0.278 0.560 o
13 5 5 0.009 0.040 0.258 0.649 o
13 6 0 0.001 0.010 0.278 0.560 o
13 6 1 0.015 0.010 0.278 0.560 o
13 6 2 0.000 0.000 0.278 0.560 o
13 6 3 0.037 0.059 0.268 0.602 o
13 6 4 0.082 0.079 0.020 109.677 o
13 6 5 0.029 -0.010 0.268 0.602 o
13 7 0 0.281 0.258 0.010 438.710 o
13 7 1 0.048 0.050 0.020 109.677 o
13 7 2 0.033 0.020 0.159 1.714 o
13 7 3 0.006 0.000 0.188 1.215 o
13 7 4 0.059 0.040 0.268 0.602 o
13 8 0 0.026 0.010 0.268 0.602 o
13 8 1 0.069 0.059 0.020 109.677 o
13 8 2 0.027 0.050 0.258 0.649 o
14 0 0 0.354 0.327 0.020 109.677 o
14 0 1 0.062 0.010 0.327 0.403 o
14 0 2 0.020 0.010 0.208 0.995 o
14 0 3 0.038 -0.010 0.327 0.403 o
14 0 4 0.060 0.079 0.020 109.677 o
14 0 5 0.010 0.000 0.307 0.457 o
14 1 0 0.000 0.010 0.278 0.560 o
14 1 1 0.032 0.030 0.278 0.560 o
14 1 2 0.000 -0.050 0.287 0.522 o
14 1 3 0.049 0.020 0.278 0.560 o
14 1 4 0.076 0.059 0.278 0.560 o
14 1 5 0.045 0.020 0.268 0.602 o
14 2 0 0.174 0.168 0.010 438.710 o
14 2 1 0.090 0.099 0.020 109.677 o
14 2 2 0.004 -0.010 0.278 0.560 o
14 2 3 0.099 0.089 0.020 109.677 o
14 2 4 0.043 0.040 0.268 0.602 o
14 2 5 0.000 -0.020 0.268 0.602 o
14 3 0 0.010 0.010 0.278 0.560 o
14 3 1 0.001 0.000 0.278 0.560 o
14 3 2 0.016 0.020 0.278 0.560 o
14 3 3 0.031 0.040 0.278 0.560 o
14 3 4 0.155 0.109 0.020 109.677 o
14 3 5 0.015 -0.020 0.258 0.649 o
14 4 0 0.080 0.069 0.010 438.710 o
14 4 1 0.085 0.069 0.020 109.677 o
14 4 2 0.006 -0.010 0.278 0.560 o
14 4 3 0.111 0.109 0.020 109.677 o
14 4 4 0.029 -0.010 0.188 1.215 o
14 5 0 0.000 -0.030 0.278 0.560 o
14 5 1 0.009 -0.020 0.198 1.097 o
14 5 2 0.001 0.000 0.268 0.602 o
14 5 3 0.023 0.040 0.268 0.602 o
14 6 0 0.168 0.168 0.010 438.710 o
14 6 1 0.030 -0.010 0.188 1.215 o
14 6 2 0.017 0.000 0.268 0.602 o
15 0 1 0.013 -0.010 0.317 0.428 o
15 0 2 0.000 -0.040 0.317 0.428 o
15 0 3 0.021 0.040 0.297 0.487 o
15 1 0 0.108 0.079 0.278 0.560 o
15 1 1 0.039 0.030 0.188 1.215 o
15 1 2 0.004 0.030 0.258 0.649 o
15 1 3 0.038 0.030 0.188 1.215 o
15 2 0 0.005 0.020 0.268 0.602 o
15 2 1 0.003 0.000 0.268 0.602 o
15 2 2 0.004 -0.010 0.268 0.602 o
15 3 0 0.059 0.059 0.268 0.602 o
15 3 1 0.041 -0.020 0.268 0.602 o
15 3 2 0.002 0.010 0.258 0.649 o
15 4 0 0.000 0.010 0.188 1.215 o
;
_olex2_submission_special_instructions 'No special instructions were received'
loop_
_space_group_symop_id
_space_group_symop_operation_xyz
1 x,y,z
2 y,-x,-z
3 -y,x,-z
4 x+1/2,-y+1/2,-z
5 -x+1/2,y+1/2,-z
6 -x,-y,z
7 -y+1/2,-x+1/2,z
8 y+1/2,x+1/2,z
loop_
_atom_site_label
_atom_site_type_symbol
_atom_site_fract_x
_atom_site_fract_y
_atom_site_fract_z
_atom_site_U_iso_or_equiv
_atom_site_adp_type
_atom_site_occupancy
_atom_site_site_symmetry_order
_atom_site_refinement_flags_posn
_atom_site_refinement_flags_adp
_atom_site_refinement_flags_occupancy
O O 0.0 0.5 0.59628(4) 0.01517(3) Uani 1.000000 4 S T P
N N 0.14489(3) 0.64489(3) 0.17854(4) 0.02234(4) Uani 1.000000 2 S T P
H1 H 0.2549(4) 0.7549(4) 0.2916(6) 0.0475(15) Uani 1.000000 2 S T P
H2 H 0.1430(4) 0.6430(4) -0.0330(8) 0.0423(10) Uani 1.000000 2 S T P
C C 0.0 0.5 0.32821(5) 0.01200(3) Uani 1.000000 4 S T P
loop_
_atom_site_aniso_label
_atom_site_aniso_U_11
_atom_site_aniso_U_22
_atom_site_aniso_U_33
_atom_site_aniso_U_12
_atom_site_aniso_U_13
_atom_site_aniso_U_23
O 0.01948(5) 0.01948(5) 0.00653(4) 0.00158(8) -0.000000 0.000000
N 0.02875(6) 0.02875(6) 0.00952(5) -0.01487(8) 0.00013(4) 0.00013(4)
H1 0.063(2) 0.063(2) 0.017(2) -0.039(3) -0.0021(15) -0.0021(15)
H2 0.0468(16) 0.0468(16) 0.033(2) -0.015(3) 0.0028(15) 0.0028(15)
C 0.01469(5) 0.01469(5) 0.00662(5) -0.00007(8) -0.000000 0.000000
loop_
_atom_type_symbol
_atom_type_scat_dispersion_real
_atom_type_scat_dispersion_imag
_atom_type_scat_source
_atom_type_scat_dispersion_source
C 0.00200 0.00100 'NoSpherA2: Chem.Sci. 2021, DOI:10.1039/D0SC05526C' custom
H 0.00000 0.00000 'NoSpherA2: Chem.Sci. 2021, DOI:10.1039/D0SC05526C' custom
N 0.00400 0.00200 'NoSpherA2: Chem.Sci. 2021, DOI:10.1039/D0SC05526C' custom
O 0.00700 0.00400 'NoSpherA2: Chem.Sci. 2021, DOI:10.1039/D0SC05526C' custom
loop_
_diffrn_refln_index_h
_diffrn_refln_index_k
_diffrn_refln_index_l
_diffrn_refln_intensity_net
_diffrn_refln_intensity_u
0 0 1 13.43 0.05
0 0 2 134.84 0.83
0 0 3 13.63 0.08
0 0 4 29.83 0.18
0 0 5 49.07 0.36
0 0 6 15.8 0.19
0 0 7 0.27 0.03
0 0 8 14.75 0.25
0 0 9 3.66 0.1
0 0 10 2.9 0.09
0 0 11 0.07 0.26
0 0 12 3.81 0.11
0 0 13 0.18 0.02
1 0 1 149.93 0.18
1 0 2 153.21 0.27
1 0 3 87.74 0.19
1 0 4 2.22 0.03
1 0 5 19.08 0.1
1 0 6 0.53 0.03
1 0 7 43.28 0.34
1 0 8 6.15 0.07
1 0 9 -0.01 0.32
1 0 10 0.19 0.01
1 0 11 1.43 0.04
1 0 12 1.26 0.04
1 0 13 0 0.31
1 1 0 1008.37 1.92
1 1 1 283.48 0.51
1 1 2 52.93 0.12
1 1 3 11.61 0.06
1 1 4 43.49 0.18
1 1 5 17.01 0.11
1 1 6 2.97 0.03
1 1 7 5.7 0.08
1 1 8 4.5 0.07
1 1 9 1.31 0.05
1 1 10 3.26 0.07
1 1 11 1.65 0.05
1 1 12 2.47 0.06
1 1 13 0.23 0.02
2 0 0 155.94 0.3
2 0 1 197.72 0.26
2 0 2 8.3 0.03
2 0 3 49.67 0.13
2 0 4 20.15 0.09
2 0 5 0.56 0.03
2 0 6 1.47 0.02
2 0 7 0.27 0.01
2 0 8 0.05 0.2
2 0 9 0.36 0.02
2 0 10 1.08 0.04
2 0 11 4.34 0.07
2 0 12 1.07 0.04
2 0 13 -0.03 0.3
2 1 0 226.92 0.28
2 1 1 49.58 0.08
2 1 2 30.24 0.07
2 1 3 68.66 0.16
2 1 4 45.35 0.14
2 1 5 13.59 0.07
2 1 6 13.93 0.09
2 1 7 10.8 0.09
2 1 8 14.94 0.13
2 1 9 3.31 0.05
2 1 10 1.2 0.03
2 1 11 1.91 0.04
2 1 12 0.42 0.02
2 1 13 0.21 0.01
2 2 0 227.4 0.42
2 2 1 199.86 0.39
2 2 2 54.79 0.16
2 2 3 27.54 0.12
2 2 4 43.47 0.21
2 2 5 9.79 0.08
2 2 6 2.76 0.05
2 2 7 10.1 0.12
2 2 8 1.85 0.05
2 2 9 1.67 0.05
2 2 10 3.67 0.07
2 2 11 2.78 0.06
2 2 12 1.75 0.05
3 0 1 93.42 0.17
3 0 2 17.83 0.06
3 0 3 11.62 0.05
3 0 4 104.96 0.38
3 0 5 0.37 0.02
3 0 6 10.89 0.09
3 0 7 0.5 0.02
3 0 8 15.59 0.16
3 0 9 4.27 0.06
3 0 10 4.84 0.07
3 0 11 0.41 0.02
3 0 12 0.04 0.17
3 1 0 29.12 0.07
3 1 1 142.36 0.23
3 1 2 14.88 0.05
3 1 3 66.21 0.18
3 1 4 14.52 0.07
3 1 5 1.67 0.03
3 1 6 5.24 0.05
3 1 7 1.54 0.03
3 1 8 0.47 0.02
3 1 9 1.49 0.03
3 1 10 1.08 0.03
3 1 11 5.42 0.07
3 1 12 0.59 0.03
3 2 0 17.41 0.05
3 2 1 5.13 0.03
3 2 2 11.01 0.04
3 2 3 25.65 0.09
3 2 4 13.67 0.07
3 2 5 7.64 0.05
3 2 6 3.05 0.04
3 2 7 16.15 0.13
3 2 8 7.06 0.07
3 2 9 0.68 0.03
3 2 10 0.12 0.02
3 2 11 0.95 0.03
3 2 12 0.41 0.02
3 3 0 219.52 0.62
3 3 1 8.13 0.05
3 3 2 7.96 0.06
3 3 3 0.51 0.03
3 3 4 15.79 0.12
3 3 5 13.38 0.09
3 3 6 5.59 0.07
3 3 7 0.15 0.02
3 3 8 5.63 0.09
3 3 9 0.99 0.05
3 3 10 1.5 0.05
3 3 11 0.31 0.02
3 3 12 1.98 0.05
4 0 0 5.51 0.06
4 0 1 97.62 0.24
4 0 2 7.68 0.04
4 0 3 71.92 0.25
4 0 4 5.92 0.05
4 0 5 2.61 0.04
4 0 6 7.8 0.07
4 0 7 0.16 0.01
4 0 8 1.12 0.04
4 0 9 2.14 0.05
4 0 10 0.42 0.02
4 0 11 6.01 0.09
4 0 12 0.23 0.01
4 1 0 7.14 0.04
4 1 1 11.66 0.04
4 1 2 2.75 0.03
4 1 3 13.13 0.06
4 1 4 43.02 0.18
4 1 5 1.52 0.03
4 1 6 5.75 0.05
4 1 7 3.4 0.04
4 1 8 10.12 0.1
4 1 9 1.87 0.04
4 1 10 1.81 0.04
4 1 11 0.57 0.02
4 1 12 0.03 0.28
4 2 0 93.4 0.22
4 2 1 25.72 0.08
4 2 2 5.44 0.03
4 2 3 4.23 0.03
4 2 4 16.61 0.09
4 2 5 5.31 0.03
4 2 6 1.13 0.03
4 2 7 1.7 0.03
4 2 8 1.86 0.04
4 2 9 0.39 0.02
4 2 10 1.43 0.04
4 2 11 1.2 0.03
4 2 12 1.23 0.03
4 3 0 3.26 0.03
4 3 1 20.6 0.08
4 3 2 18.74 0.08
4 3 3 16.82 0.08
4 3 4 0.31 0.02
4 3 5 13.27 0.09
4 3 6 1.15 0.03
4 3 7 24.11 0.2
4 3 8 3.04 0.04
4 3 9 0.21 0.01
4 3 10 0.25 0.01
4 3 11 1.05 0.03
4 3 12 0.74 0.03
4 4 0 83.03 0.39
4 4 1 4.76 0.05
4 4 2 4.01 0.05
4 4 3 0.16 0.01
4 4 4 8.7 0.06
4 4 5 5.58 0.07
4 4 6 2.58 0.05
4 4 7 0.12 0.02
4 4 8 2.98 0.06
4 4 9 0.45 0.02
4 4 10 0.74 0.05
4 4 11 0.35 0.02
4 4 12 1.18 0.05
5 0 1 0.1 0.01
5 0 2 0.09 0.02
5 0 3 8.53 0.06
5 0 4 17.98 0.11
5 0 5 1.89 0.04
5 0 6 1.99 0.04
5 0 7 6.36 0.08
5 0 8 5.97 0.08
5 0 9 0.55 0.03
5 0 10 0.53 0.03
5 0 11 0.45 0.02
5 0 12 0.09 0.02
5 1 0 42.29 0.15
5 1 1 30.35 0.1
5 1 2 8.27 0.05
5 1 3 10.23 0.06
5 1 4 15.48 0.09
5 1 5 3.4 0.04
5 1 6 0.77 0.03
5 1 7 3.04 0.04
5 1 8 0.84 0.03
5 1 9 0.59 0.02
5 1 10 1.57 0.04
5 1 11 1.77 0.04
5 1 12 0.82 0.03
5 2 0 21.44 0.08
5 2 1 7.21 0.04
5 2 2 7.42 0.04
5 2 3 21.37 0.1
5 2 4 7.59 0.06
5 2 5 9.18 0.07
5 2 6 6.19 0.06
5 2 7 10.25 0.1
5 2 8 6.63 0.07
5 2 9 1.36 0.03
5 2 10 0.12 0.01
5 2 11 1.26 0.03
5 2 12 0.41 0.01
5 3 0 43.2 0.16
5 3 1 11.86 0.06
5 3 2 2.26 0.03
5 3 3 3.38 0.03
5 3 4 8.52 0.06
5 3 5 2.42 0.03
5 3 6 0.57 0.02
5 3 7 0.81 0.03
5 3 8 1.07 0.03
5 3 9 0.18 0.01
5 3 10 0.86 0.03
5 3 11 0.82 0.03
5 3 12 0.71 0.03
5 4 0 2.89 0.03
5 4 1 0.48 0.02
5 4 2 0.69 0.03
5 4 3 5.74 0.03
5 4 4 8.46 0.07
5 4 5 2.6 0.04
5 4 6 1.59 0.03
5 4 7 5.1 0.06
5 4 8 3.62 0.05
5 4 9 0.46 0.02
5 4 10 0.25 0.01
5 4 11 0.48 0.02
5 4 12 0.11 0.01
5 5 0 6.77 0.07
5 5 1 15.65 0.14
5 5 2 5.01 0.04
5 5 3 10.28 0.11
5 5 4 6.97 0.09
5 5 5 1.67 0.05
5 5 6 0.82 0.04
5 5 7 2.44 0.06
5 5 8 0.25 0.02
5 5 9 0.51 0.03
5 5 10 0.82 0.05
5 5 11 1.41 0.05
6 0 0 61.56 0.41
6 0 1 4.47 0.04
6 0 2 2.56 0.03
6 0 3 0.23 0.01
6 0 4 7.77 0.07
6 0 5 4.39 0.05
6 0 6 1.96 0.04
6 0 7 0.03 0.33
6 0 8 2.36 0.05
6 0 9 0.27 0.01
6 0 10 0.74 0.04
6 0 11 0.44 0.02
6 0 12 1.02 0.03
6 1 0 5.33 0.04
6 1 1 5.69 0.04
6 1 2 4.7 0.04
6 1 3 10.53 0.07
6 1 4 2.92 0.04
6 1 5 6.46 0.06
6 1 6 1.92 0.03
6 1 7 10.92 0.11
6 1 8 3.31 0.05
6 1 9 0.38 0.02
6 1 10 -0.01 0.28
6 1 11 0.73 0.03
6 1 12 0.32 0.01
6 2 0 23.48 0.11
6 2 1 13.77 0.08
6 2 2 2.85 0.03
6 2 3 6.21 0.04
6 2 4 7.58 0.06
6 2 5 1.55 0.03
6 2 6 0.31 0.01
6 2 7 1.3 0.03
6 2 8 0.61 0.02
6 2 9 0.25 0.01
6 2 10 0.84 0.03
6 2 11 1.18 0.03
6 2 12 0.55 0.03
6 3 0 0.04 0.23
6 3 1 0.89 0.03
6 3 2 0.92 0.03
6 3 3 2.88 0.04
6 3 4 15.21 0.11
6 3 5 0.33 0.01
6 3 6 1.76 0.04
6 3 7 1.79 0.03
6 3 8 4.34 0.06
6 3 9 0.6 0.02
6 3 10 0.78 0.03
6 3 11 0.23 0.01
6 4 0 2.47 0.03
6 4 1 13.49 0.06
6 4 2 2.63 0.03
6 4 3 14.8 0.1
6 4 4 3.45 0.04
6 4 5 0.87 0.03
6 4 6 1.31 0.03
6 4 7 0.92 0.03
6 4 8 0.16 0.01
6 4 9 0.63 0.03
6 4 10 0.4 0.02
6 4 11 1.72 0.04
6 5 0 4.17 0.04
6 5 1 0.86 0.03
6 5 2 1.57 0.03
6 5 3 4.04 0.05
6 5 4 9.33 0.08
6 5 5 1.54 0.03
6 5 6 2.1 0.04
6 5 7 1.28 0.03
6 5 8 3.14 0.05
6 5 9 0.76 0.03
6 5 10 0.49 0.02
6 5 11 0.28 0.01
6 6 0 8.51 0.1
6 6 1 2.73 0.05
6 6 2 0.43 0.03
6 6 3 1.77 0.05
6 6 4 1.94 0.05
6 6 5 0.29 0.02
6 6 6 0.04 0.23
6 6 7 0.16 0.02
6 6 8 0.23 0.02
6 6 9 0.05 0.39
6 6 10 0.2 0.02
6 6 11 0.37 0.03
7 0 1 8.53 0.07
7 0 2 5.14 0.04
7 0 3 5.27 0.05
7 0 4 0.18 0.01
7 0 5 6.29 0.07
7 0 6 0.05 0.31
7 0 7 11.98 0.14
7 0 8 1.24 0.04
7 0 9 0.05 0.32
7 0 10 0.09 0.02
7 0 11 0.48 0.03
7 1 0 31.5 0.18
7 1 1 3.19 0.04
7 1 2 1.45 0.02
7 1 3 0.61 0.02
7 1 4 4.61 0.05
7 1 5 2.06 0.03
7 1 6 1.02 0.03
7 1 7 0.08 0.02
7 1 8 1.24 0.03
7 1 9 0.1 0.01
7 1 10 0.41 0.02
7 1 11 0.36 0.01
7 2 0 0.28 0.01
7 2 1 0.01 0.17
7 2 2 0.17 0.01
7 2 3 2.72 0.04
7 2 4 8.34 0.07
7 2 5 0.87 0.03
7 2 6 0.95 0.03
7 2 7 2.6 0.04
7 2 8 2.94 0.05
7 2 9 0.28 0.01
7 2 10 0.39 0.01
7 2 11 0.22 0.01
7 3 0 1.38 0.03
7 3 1 10.72 0.08
7 3 2 1.45 0.03
7 3 3 14.03 0.11
7 3 4 1.84 0.03
7 3 5 0.65 0.03
7 3 6 1.36 0.03
7 3 7 0.32 0.01
7 3 8 0.18 0.01
7 3 9 0.58 0.03
7 3 10 0.27 0.01
7 3 11 1.63 0.03
7 4 0 1 0.03
7 4 1 1.35 0.03
7 4 2 1.82 0.03
7 4 3 1.7 0.03
7 4 4 11.59 0.1
7 4 5 0.34 0.01
7 4 6 1.47 0.03
7 4 7 0.45 0.02
7 4 8 3.05 0.05
7 4 9 0.55 0.03
7 4 10 0.78 0.03
7 4 11 0.14 0.01
7 5 0 5.83 0.06
7 5 1 3.18 0.04
7 5 2 0.1 0.03
7 5 3 2.86 0.04
7 5 4 1.43 0.03
7 5 5 0.08 0.02
7 5 6 0.01 0.2
7 5 7 0.01 0.29
7 5 8 0.09 0.02
7 5 9 0.04 0.28
7 5 10 0.16 0.01
7 5 11 0.48 0.02
7 6 0 0.52 0.02
7 6 1 2.21 0.04
7 6 2 1.1 0.03
7 6 3 2.15 0.04
7 6 4 0.36 0.01
7 6 5 1.87 0.04
7 6 6 0.32 0.01
7 6 7 3.56 0.05
7 6 8 0.71 0.03
7 6 9 -0.01 0.29
7 6 10 -0.03 0.27
7 7 1 1.29 0.05
7 7 2 1.39 0.05
7 7 3 0 0.39
7 7 4 1.93 0.06
7 7 5 1.11 0.05
7 7 6 0.88 0.05
7 7 7 0.29 0.02
7 7 8 0.7 0.04
7 7 9 0.17 0.02
7 7 10 0.21 0.02
8 0 0 17.21 0.14
8 0 1 2.28 0.04
8 0 2 0.82 0.03
8 0 3 0.8 0.03
8 0 4 2.74 0.05
8 0 5 0.9 0.03
8 0 6 0.51 0.02
8 0 7 0.06 0.33
8 0 8 0.66 0.03
8 0 9 0.01 0.33
8 0 10 0.25 0.01
8 0 11 0.29 0.01
8 1 0 1.5 0.03
8 1 1 0.97 0.03
8 1 2 0.62 0.02
8 1 3 3.18 0.04
8 1 4 2.92 0.04
8 1 5 1.98 0.04
8 1 6 0.78 0.03
8 1 7 3.53 0.05
8 1 8 1.66 0.04
8 1 9 0.22 0.01
8 1 10 0.02 0.28
8 1 11 0.28 0.01
8 2 0 4.68 0.05
8 2 1 6.56 0.06
8 2 2 1.56 0.03
8 2 3 5.14 0.05
8 2 4 3.07 0.04
8 2 5 0.56 0.02
8 2 6 0.26 0.01
8 2 7 0.83 0.03
8 2 8 0.12 0.01
8 2 9 0.19 0.01
8 2 10 0.39 0.02
8 2 11 0.79 0.03
8 3 0 1.13 0.03
8 3 1 0.39 0.01
8 3 2 0.87 0.03
8 3 3 1.84 0.03
8 3 4 7.04 0.07
8 3 5 0.52 0.02
8 3 6 1.1 0.03
8 3 7 0.81 0.03
8 3 8 2.09 0.04
8 3 9 0.37 0.02
8 3 10 0.4 0.02
8 3 11 0.14 0.01
8 4 0 4.16 0.05
8 4 1 2.93 0.04
8 4 2 0.03 0.26
8 4 3 2.95 0.04
8 4 4 1.13 0.03
8 4 5 0.02 0.28
8 4 6 0.09 0.03
8 4 7 0.03 0.16
8 4 8 0.05 0.02
8 4 9 0.05 0.2
8 4 10 0.17 0.01
8 5 0 0.99 0.03
8 5 1 1.35 0.03
8 5 2 0.72 0.03
8 5 3 2.21 0.04
8 5 4 0.79 0.03
8 5 5 1.34 0.03
8 5 6 0.6 0.03
8 5 7 2.36 0.04
8 5 8 0.88 0.03
8 5 9 0.09 0.02
8 5 10 0.02 0.26
8 6 0 8.42 0.09
8 6 1 1.5 0.04
8 6 2 1.2 0.03
8 6 3 0.02 0.28
8 6 4 1.98 0.04
8 6 5 1.02 0.03
8 6 6 0.59 0.03
8 6 7 0.31 0.02
8 6 8 0.56 0.02
8 6 9 0.13 0.01
8 6 10 0.24 0.02
8 7 0 0.14 0.02
8 7 1 0.56 0.03
8 7 2 0.22 0.01
8 7 3 0.78 0.03
8 7 4 0.35 0.02
8 7 5 0.65 0.03
8 7 6 0.15 0.02
8 7 7 1.26 0.04
8 7 8 0.36 0.01
8 7 9 0 0.27
8 8 0 0.89 0.05
8 8 1 0.87 0.04
8 8 2 0.16 0.02
8 8 3 0.96 0.05
8 8 4 0.35 0.02
8 8 5 0.01 0.41
8 8 6 0 0.41
8 8 7 0.03 0.41
8 8 8 0.01 0.39
9 0 1 -0.02 0.3
9 0 2 0.09 0.02
9 0 3 1.02 0.04
9 0 4 3.88 0.06
9 0 5 0.35 0.02
9 0 6 0.45 0.02
9 0 7 1.15 0.04
9 0 8 1.34 0.04
9 0 9 0.12 0.02
9 0 10 0.19 0.01
9 1 0 3.6 0.04
9 1 1 3.63 0.04
9 1 2 0.64 0.02
9 1 3 3.13 0.04
9 1 4 1.67 0.04
9 1 5 0.26 0.01
9 1 6 0.05 0.2
9 1 7 0.32 0.01
9 1 8 0.03 0.29
9 1 9 0.07 0.01
9 1 10 0.2 0.01
9 2 0 1.4 0.03
9 2 1 0.23 0.01
9 2 2 0.41 0.01
9 2 3 1.91 0.04
9 2 4 3.13 0.04
9 2 5 0.79 0.03
9 2 6 0.83 0.03
9 2 7 1.19 0.03
9 2 8 1.25 0.04
9 2 9 0.22 0.01
9 2 10 0.11 0.01
9 3 0 5.27 0.06
9 3 1 1.63 0.03
9 3 2 0.19 0.01
9 3 3 1.14 0.03
9 3 4 1.06 0.03
9 3 5 0.12 0.01
9 3 6 0.04 0.2
9 3 7 0.03 0.2
9 3 8 0.13 0.01
9 3 9 0.02 0.28
9 3 10 0.09 0.02
9 4 0 0.42 0.02
9 4 1 1.07 0.03
9 4 2 0.48 0.02
9 4 3 1.4 0.03
9 4 4 0.54 0.02
9 4 5 1.04 0.03
9 4 6 0.29 0.01
9 4 7 2.04 0.04
9 4 8 0.62 0.03
9 4 9 0.05 0.28
9 4 10 -0.03 0.27
9 5 0 6.29 0.07
9 5 1 1.36 0.03
9 5 2 0.98 0.03
9 5 3 0.06 0.02
9 5 4 1.6 0.04
9 5 5 0.65 0.03
9 5 6 0.38 0.01
9 5 7 0.28 0.01
9 5 8 0.38 0.02
9 5 9 0.05 0.2
9 6 0 0.18 0.01
9 6 1 0.42 0.02
9 6 2 0.15 0.01
9 6 3 0.77 0.03
9 6 4 0.5 0.02
9 6 5 0.45 0.02
9 6 6 0.16 0.01
9 6 7 0.94 0.03
9 6 8 0.4 0.01
9 6 9 0.03 0.27
9 7 0 0.81 0.03
9 7 1 0.9 0.03
9 7 2 0.05 0.2
9 7 3 0.99 0.03
9 7 4 0.3 0.01
9 7 5 -0.04 0.29
9 7 6 0.04 0.28
9 7 7 0.03 0.28
9 7 8 0.01 0.27
9 8 0 0.58 0.02
9 8 1 0.17 0.01
9 8 2 0.4 0.02
9 8 3 0.38 0.02
9 8 4 1.42 0.04
9 8 5 0.2 0.01
9 8 6 0.29 0.01
9 8 7 0.03 0.2
9 8 8 0.37 0.02
9 9 0 0.11 0.02
9 9 1 0.66 0.04
9 9 2 0.16 0.02
9 9 3 0.79 0.04
9 9 4 0.22 0.02
9 9 5 0.06 0.4
9 9 6 0.06 0.22
9 9 7 0.07 0.38
10 0 0 0.93 0.04
10 0 1 2.26 0.04
10 0 2 0.05 0.32
10 0 3 3.13 0.05
10 0 4 0.47 0.02
10 0 5 0.07 0.33
10 0 6 0.19 0.01
10 0 7 0 0.33
10 0 8 0.04 0.32
10 0 9 0.1 0.02
10 0 10 0.09 0.51
10 1 0 0.1 0.01
10 1 1 0.02 0.27
10 1 2 0.2 0.01
10 1 3 0.61 0.02
10 1 4 2.71 0.04
10 1 5 0.13 0.01
10 1 6 0.33 0.01
10 1 7 0.5 0.02
10 1 8 0.89 0.03
10 1 9 0.07 0.02
10 1 10 0.18 0.02
10 2 0 3.37 0.05
10 2 1 1.07 0.03
10 2 2 0.09 0.03
10 2 3 0.85 0.03
10 2 4 0.77 0.03
10 2 5 0.06 0.02
10 2 6 0.01 0.28
10 2 7 0.02 0.28
10 2 8 0.09 0.01
10 2 9 -0.02 0.28
10 2 10 0.04 0.37
10 3 0 0.07 0.02
10 3 1 0.87 0.03
10 3 2 0.32 0.01
10 3 3 0.85 0.03
10 3 4 0.31 0.01
10 3 5 0.78 0.03
10 3 6 0.11 0.02
10 3 7 1.55 0.04
10 3 8 0.29 0.01
10 3 9 0.05 0.27
10 4 0 5.09 0.07
10 4 1 0.61 0.02
10 4 2 0.5 0.02
10 4 3 0.03 0.28
10 4 4 1.01 0.03
10 4 5 0.4 0.02
10 4 6 0.31 0.01
10 4 7 0.08 0.02
10 4 8 0.26 0.01
10 4 9 -0.02 0.19
10 5 0 0.06 0.02
10 5 1 0.34 0.01
10 5 2 0.1 0.02
10 5 3 0.48 0.02
10 5 4 0.38 0.02
10 5 5 0.36 0.02
10 5 6 0.09 0.02
10 5 7 0.78 0.03
10 5 8 0.27 0.01
10 5 9 0 0.26
10 6 0 0.59 0.02
10 6 1 0.7 0.03
10 6 2 0.03 0.2
10 6 3 0.86 0.03
10 6 4 0.23 0.01
10 6 5 -0.01 0.29
10 6 6 0 0.29
10 6 7 0.03 0.2
10 6 8 0 0.27
10 7 0 0.37 0.02
10 7 1 0.13 0.02
10 7 2 0.32 0.01
10 7 3 0.32 0.01
10 7 4 1.28 0.04
10 7 5 0.14 0.01
10 7 6 0.19 0.01
10 7 7 0.02 0.2
10 7 8 0.34 0.01
10 8 0 0.1 0.02
10 8 1 0.51 0.02
10 8 2 0.16 0.01
10 8 3 0.74 0.03
10 8 4 0.17 0.01
10 8 5 0.03 0.2
10 8 6 0.05 0.19
10 8 7 0.05 0.01
10 9 0 0.01 0.2
10 9 1 0.04 0.28
10 9 2 0 0.28
10 9 3 0.07 0.02
10 9 4 0.18 0.01
10 9 5 0.02 0.28
10 9 6 0.03 0.19
10 10 0 0.59 0.04
10 10 1 0.12 0.02
10 10 2 0.07 0.4
10 10 3 -0.02 0.4
10 10 4 0.13 0.02
10 10 5 0.06 0.38
11 0 1 0 0.33
11 0 2 0.08 0.02
11 0 3 0.33 0.02
11 0 4 1.55 0.04
11 0 5 0.02 0.33
11 0 6 0.14 0.02
11 0 7 0.27 0.01
11 0 8 0.5 0.03
11 0 9 -0.01 0.31
11 1 0 1.33 0.03
11 1 1 0.92 0.03
11 1 2 0.03 0.2
11 1 3 0.96 0.03
11 1 4 0.38 0.01
11 1 5 0.02 0.28
11 1 6 0.03 0.28
11 1 7 0.04 0.28
11 1 8 0.04 0.28
11 1 9 0.05 0.26
11 2 0 0.12 0.02
11 2 1 0.24 0.01
11 2 2 0.03 0.2
11 2 3 0.51 0.02
11 2 4 0.42 0.02
11 2 5 0.37 0.01
11 2 6 0.1 0.02
11 2 7 0.74 0.03
11 2 8 0.28 0.01
11 2 9 0.04 0.26
11 3 0 2.79 0.05
11 3 1 0.44 0.02
11 3 2 0.23 0.01
11 3 3 0.09 0.02
11 3 4 0.54 0.03
11 3 5 0.18 0.01
11 3 6 0.15 0.01
11 3 7 0.03 0.28
11 3 8 0.12 0.01
11 4 0 0.02 0.28
11 4 1 0.23 0.01
11 4 2 0.04 0.17
11 4 3 0.32 0.01
11 4 4 0.27 0.01
11 4 5 0.26 0.01
11 4 6 0.05 0.2
11 4 7 0.54 0.03
11 4 8 0.15 0.01
11 5 0 0.63 0.03
11 5 1 0.52 0.02
11 5 2 0.08 0.28
11 5 3 0.52 0.02
11 5 4 0.22 0.01
11 5 5 -0.01 0.29
11 5 6 0.04 0.28
11 5 7 0.05 0.27
11 5 8 -0.02 0.26
11 6 0 0.25 0.01
11 6 1 0.09 0.01
11 6 2 0.21 0.01
11 6 3 0.24 0.01
11 6 4 0.88 0.03
11 6 5 0.1 0.02
11 6 6 0.16 0.01
11 6 7 0.04 0.19
11 7 0 0.12 0.02
11 7 1 0.41 0.02
11 7 2 0.09 0.01
11 7 3 0.52 0.03
11 7 4 0.13 0.01
11 7 5 0.08 0.02
11 7 6 0.06 0.27
11 7 7 0.06 0.26
11 8 0 0 0.28
11 8 1 -0.01 0.29
11 8 2 -0.02 0.29
11 8 3 0.07 0.02
11 8 4 0.16 0.01
11 8 5 0.06 0.19
11 8 6 0.03 0.26
11 9 0 0.53 0.02
11 9 1 0.1 0.01
11 9 2 0.06 0.02
11 9 3 -0.02 0.28
11 9 4 0.13 0.02
11 9 5 0.05 0.19
11 10 0 0.05 0.28
11 10 1 0.11 0.01
11 10 2 0.06 0.02
11 10 3 0.08 0.02
12 0 0 1 0.04
12 0 1 0.37 0.02
12 0 2 0 0.22
12 0 3 0.34 0.02
12 0 4 0.2 0.01
12 0 5 0.01 0.33
12 0 6 0.04 0.32
12 0 7 0.03 0.31
12 0 8 0.05 0.31
12 1 0 0.05 0.29
12 1 1 0.08 0.02
12 1 2 0.05 0.28
12 1 3 0.28 0.01
12 1 4 0.37 0.02
12 1 5 0.16 0.01
12 1 6 0.01 0.29
12 1 7 0.36 0.02
12 1 8 0.19 0.01
12 2 0 1.17 0.03
12 2 1 0.36 0.01
12 2 2 0.12 0.02
12 2 3 0.17 0.01
12 2 4 0.29 0.01
12 2 5 0.01 0.29
12 2 6 0 0.28
12 2 7 0.05 0.28
12 2 8 0.06 0.01
12 3 0 0.03 0.28
12 3 1 0.09 0.01
12 3 2 0.03 0.2
12 3 3 0.18 0.01
12 3 4 0.27 0.01
12 3 5 0.14 0.02
12 3 6 0.07 0.02
12 3 7 0.29 0.01
12 4 0 0.47 0.02
12 4 1 0.29 0.01
12 4 2 0.01 0.29
12 4 3 0.32 0.01
12 4 4 0.14 0.01
12 4 5 0 0.28
12 4 6 -0.01 0.28
12 4 7 0.03 0.27
12 5 0 0.12 0.02
12 5 1 0.02 0.29
12 5 2 0.1 0.02
12 5 3 0.13 0.01
12 5 4 0.55 0.02
12 5 5 0.06 0.28
12 5 6 0.08 0.28
12 5 7 0.03 0.26
12 6 0 0.15 0.01
12 6 1 0.27 0.01
12 6 2 0.05 0.21
12 6 3 0.38 0.02
12 6 4 0.08 0.02
12 6 5 0.03 0.2
12 6 6 0.01 0.27
12 7 0 -0.01 0.28
12 7 1 0.01 0.2
12 7 2 0 0.28
12 7 3 0.06 0.01
12 7 4 0.13 0.01
12 7 5 0 0.19
12 8 0 0.43 0.02
12 8 1 0.06 0.02
12 8 2 0.09 0.02
12 8 3 0 0.27
12 8 4 0.1 0.02
12 9 0 0.05 0.28
12 9 1 0.06 0.02
12 9 2 0 0.28
12 9 3 0.07 0.02
13 0 1 0.08 0.02
13 0 2 0.03 0.21
13 0 3 0.12 0.02
13 0 4 0.11 0.01
13 0 5 0.09 0.02
13 0 6 0 0.32
13 0 7 0.2 0.01
13 1 0 0.67 0.03
13 1 1 0.15 0.01
13 1 2 0 0.29
13 1 3 0.1 0.01
13 1 4 0.13 0.01
13 1 5 0.01 0.2
13 1 6 0.01 0.19
13 1 7 0.03 0.26
13 2 0 0.01 0.28
13 2 1 0.02 0.28
13 2 2 0 0.28
13 2 3 0.09 0.02
13 2 4 0.16 0.01
13 2 5 0.02 0.29
13 2 6 0.05 0.27
13 3 0 0.24 0.01
13 3 1 0.19 0.01
13 3 2 0 0.29
13 3 3 0.22 0.01
13 3 4 0.05 0.29
13 3 5 0.01 0.28
13 3 6 0.01 0.27
13 4 0 0.02 0.2
13 4 1 0.03 0.28
13 4 2 0.04 0.28
13 4 3 0.07 0.02
13 4 4 0.3 0.01
13 4 5 -0.03 0.32
13 4 6 0.05 0.19
13 5 0 0.13 0.01
13 5 1 0.17 0.01
13 5 2 -0.01 0.28
13 5 3 0.18 0.01
13 5 4 0 0.28
13 5 5 0.04 0.26
13 6 0 0.01 0.28
13 6 1 0.01 0.28
13 6 2 0 0.28
13 6 3 0.06 0.27
13 6 4 0.08 0.02
13 6 5 -0.01 0.27
13 7 0 0.26 0.01
13 7 1 0.05 0.02
13 7 2 0.02 0.16
13 7 3 0 0.19
13 7 4 0.04 0.27
13 8 0 0.01 0.27
13 8 1 0.06 0.02
13 8 2 0.05 0.26
14 0 0 0.33 0.02
14 0 1 0.01 0.33
14 0 2 0.01 0.21
14 0 3 -0.01 0.33
14 0 4 0.08 0.02
14 0 5 0 0.31
14 1 0 0.01 0.28
14 1 1 0.03 0.28
14 1 2 -0.05 0.29
14 1 3 0.02 0.28
14 1 4 0.06 0.28
14 1 5 0.02 0.27
14 2 0 0.17 0.01
14 2 1 0.1 0.02
14 2 2 -0.01 0.28
14 2 3 0.09 0.02
14 2 4 0.04 0.27
14 2 5 -0.02 0.27
14 3 0 0.01 0.28
14 3 1 0 0.28
14 3 2 0.02 0.28
14 3 3 0.04 0.28
14 3 4 0.11 0.02
14 3 5 -0.02 0.26
14 4 0 0.07 0.01
14 4 1 0.07 0.02
14 4 2 -0.01 0.28
14 4 3 0.11 0.02
14 4 4 -0.01 0.19
14 5 0 -0.03 0.28
14 5 1 -0.02 0.2
14 5 2 0 0.27
14 5 3 0.04 0.27
14 6 0 0.17 0.01
14 6 1 -0.01 0.19
14 6 2 0 0.27
15 0 1 -0.01 0.32
15 0 2 -0.04 0.32
15 0 3 0.04 0.3
15 1 0 0.08 0.28
15 1 1 0.03 0.19
15 1 2 0.03 0.26
15 1 3 0.03 0.19
15 2 0 0.02 0.27
15 2 1 0 0.27
15 2 2 -0.01 0.27
15 3 0 0.06 0.27
15 3 1 -0.02 0.27
15 3 2 0.01 0.26
15 4 0 0.01 0.19
loop_
_geom_angle_atom_site_label_1
_geom_angle_atom_site_label_2
_geom_angle_atom_site_label_3
_geom_angle
_geom_angle_site_symmetry_1
_geom_angle_site_symmetry_3
_geom_angle_publ_flag
H2 N H1 122.3(3) . . ?
C N H1 117.05(17) 6_565 . ?
C N H2 120.7(2) 6_565 . ?
N C O 121.533(12) . . ?
N C O 121.533(12) 6_565 . ?
N C N 116.93(2) 6_565 . ?
loop_
_geom_bond_atom_site_label_1
_geom_bond_atom_site_label_2
_geom_bond_distance
_geom_bond_site_symmetry_2
_geom_bond_publ_flag
O C 1.2562(3) . ?
N H1 1.017(3) . ?
N H2 0.991(4) . ?
N C 1.3410(3) 6_565 ?
