#------------------------------------------------------------------------------
#$Date: 2022-03-02 05:20:08 +0200 (Wed, 02 Mar 2022) $
#$Revision: 273207 $
#$URL: file:///home/coder/svn-repositories/cod/cif/1/56/65/1566509.cif $
#------------------------------------------------------------------------------
#
# This file is available in the Crystallography Open Database (COD),
# http://www.crystallography.net/. The original data for this entry
# were provided by IUCr Journals, http://journals.iucr.org/.
#
# The file may be used within the scientific community so long as
# proper attribution is given to the journal article from which the
# data were obtained.
#
data_1566509
loop_
_publ_author_name
'Ruth, Paul Niklas'
'Herbst-Irmer, Regine'
'Stalke, Dietmar'
_publ_section_title
;
 Hirshfeld atom refinement based on projector augmented wave densities
 with periodic boundary conditions
;
_journal_issue                   2
_journal_name_full               IUCrJ
_journal_page_first              286
_journal_page_last               297
_journal_paper_doi               10.1107/S2052252522001385
_journal_volume                  9
_journal_year                    2022
_chemical_absolute_configuration unk
_chemical_formula_moiety         '2(C0.5 H2 N O0.5)'
_chemical_formula_sum            'C H4 N2 O'
_chemical_formula_weight         60.056
_chemical_name_common            urea
_space_group_crystal_system      tetragonal
_space_group_IT_number           113
_space_group_name_Hall           'P -4 2ab'
_space_group_name_H-M_alt        'P -4 21 m'
_symmetry_Int_Tables_number      113
_audit_creation_date             2022-01-14
_audit_creation_method
;
Olex2 1.5
(compiled 2021.12.09 svn.r5202d8cf for OlexSys, GUI svn.r6439)
;
_cell_angle_alpha                90
_cell_angle_beta                 90
_cell_angle_gamma                90
_cell_formula_units_Z            2
_cell_length_a                   5.5780(6)
_cell_length_b                   5.5780(6)
_cell_length_c                   4.6860(7)
_cell_measurement_reflns_used    17
_cell_measurement_temperature    123.15
_cell_volume                     145.80(3)
_computing_cell_refinement       'KM6-CH software'
_computing_data_collection       'KM6-CH software'
_computing_data_reduction        XD_RED
_computing_molecular_graphics    'Olex2 1.5 (Dolomanov et al., 2009)'
_computing_publication_material  'Olex2 1.5 (Dolomanov et al., 2009)'
_computing_structure_refinement  'olex2.refine 1.5 (Bourhis et al., 2015)'
_diffrn_ambient_temperature      123
_diffrn_measured_fraction_theta_full 1.0000
_diffrn_measured_fraction_theta_max 0.9817
_diffrn_measurement_device_type
;
KM6-CH six-circle \k diffractometer operated as standard four-circle
\k diffractometer with detector circle in the vertical plane to profit
from the linear polarization of the synchrotron beam.
;
_diffrn_measurement_method       \w-scan
_diffrn_radiation_type           synchrotron
_diffrn_radiation_wavelength     0.5996
_diffrn_reflns_av_R_equivalents  0.0141
_diffrn_reflns_av_unetI/netI     0.0148
_diffrn_reflns_Laue_measured_fraction_full 1.0000
_diffrn_reflns_Laue_measured_fraction_max 0.9817
_diffrn_reflns_limit_h_max       15
_diffrn_reflns_limit_h_min       0
_diffrn_reflns_limit_k_max       10
_diffrn_reflns_limit_k_min       0
_diffrn_reflns_limit_l_max       13
_diffrn_reflns_limit_l_min       0
_diffrn_reflns_number            1022
_diffrn_reflns_point_group_measured_fraction_full 1.0000
_diffrn_reflns_point_group_measured_fraction_max 0.9817
_diffrn_reflns_theta_full        21.0855
_diffrn_reflns_theta_max         57.40
_diffrn_reflns_theta_min         3.67
_exptl_absorpt_coefficient_mu    0.081
_exptl_absorpt_correction_type   none
_exptl_crystal_colour            colourless
_exptl_crystal_density_diffrn    1.368
_exptl_crystal_density_method    'not measured'
_exptl_crystal_description       block
_exptl_crystal_F_000             64.034
_exptl_crystal_size_max          0.23
_exptl_crystal_size_mid          0.13
_exptl_crystal_size_min          0.09
_refine_diff_density_max         0.1785
_refine_diff_density_min         -0.3538
_refine_diff_density_rms         0.0360
_refine_ls_d_res_high            0.3559
_refine_ls_d_res_low             4.6860
_refine_ls_goodness_of_fit_ref   1.5201
_refine_ls_hydrogen_treatment    refall
_refine_ls_matrix_type           full
_refine_ls_number_constraints    0
_refine_ls_number_parameters     51
_refine_ls_number_reflns         1022
_refine_ls_number_restraints     0
_refine_ls_restrained_S_all      1.5201
_refine_ls_R_factor_all          0.0218
_refine_ls_R_factor_gt           0.0109
_refine_ls_shift/su_max          -0.0005
_refine_ls_shift/su_mean         0.0001
_refine_ls_structure_factor_coef Fsqd
_refine_ls_weighting_details
'w=1/[\s^2^(Fo^2^)+(0.0000P)^2^] where P=(Fo^2^+2Fc^2^)/3'
_refine_ls_weighting_scheme      calc
_refine_ls_wR_factor_gt          0.0140
_refine_ls_wR_factor_ref         0.0140
_reflns_Friedel_coverage         0.0
_reflns_limit_h_max              15
_reflns_limit_h_min              0
_reflns_limit_k_max              10
_reflns_limit_k_min              0
_reflns_limit_l_max              13
_reflns_limit_l_min              0
_reflns_number_gt                803
_reflns_number_total             1022
_reflns_threshold_expression     I>=2u(I)
_iucr_refine_instructions_details
;
TITL I P -4 21 m
CELL 0.5996 5.578 5.578 4.686 90 90 90
ZERR 2 0.0006 0.0006 0.0007 0 0 0
LATT -1
SYMM +Y,-X,-Z
SYMM -X,-Y,+Z
SYMM -Y,+X,-Z
SYMM 0.5+X,0.5-Y,-Z
SYMM 0.5-Y,0.5-X,+Z
SYMM 0.5-X,0.5+Y,-Z
SYMM 0.5+Y,0.5+X,+Z
SFAC C H N O
DISP C 0.002 0.001 8.3
DISP H 0 0 0.7
DISP N 0.004 0.002 13.3
DISP O 0.007 0.004 21.1
UNIT 2 8 4 2

L.S. 0
SIZE 0.09 0.13 0.23
TEMP -150
CONF
FMAP 2
BOND $H
ACTA 
LIST 6
MORE -1
WGHT 0
FVAR 0.999056
REM <olex2.extras>
REM <anharmonics
REM  <O Cijk="-0.0000e+00 -0.0000e+00 -3.4633e-07 -0.0000e+00 1.0137e-07
REM  -0.0000e+00 -0.0000e+00 -3.4633e-07 -0.0000e+00 -1.2302e-07"
REM  Dijkl="5.1242e-09 1.0573e-09 -0.0000e+00 -8.9288e-09 -0.0000e+00
REM  -4.0927e-09 1.0573e-09 -0.0000e+00 -5.7610e-09 -0.0000e+00 5.1242e-09
REM  -0.0000e+00 -4.0927e-09 -0.0000e+00 9.0228e-09">
REM  <N Cijk="-1.4492e-06 4.2374e-07 1.4520e-06 4.2374e-07 -1.4484e-06
REM  -1.3433e-08 -1.4492e-06 1.4520e-06 -1.3433e-08 5.3455e-07"
REM  Dijkl="1.9956e-09 6.4070e-08 -9.0068e-09 -7.1670e-08 4.7030e-09
REM  9.1525e-09 6.4070e-08 4.7030e-09 -1.6150e-09 -4.9300e-09 1.9956e-09
REM  -9.0068e-09 9.1525e-09 -4.9300e-09 -2.6983e-08">
REM >
REM <HklSrc "%.\\tonto8.hkl">
REM </olex2.extras>

O     4     0.00000  0.50000  0.59609  10.25000  0.01933  0.01933  0.00659 =
 0.00000 -0.00000  0.00165 
N     3     0.14465  0.64465  0.17900  10.50000  0.02879  0.02879  0.00930 =
 0.00001  0.00001 -0.01466 
H1    2     0.25472  0.75472  0.28375  10.50000  0.05635  0.05635  0.02378 =
 -0.00319 -0.00319 -0.03805 
H2    2     0.14333  0.64333 -0.03282  10.50000  0.04545  0.04545  0.02332 =
 -0.00151 -0.00151 -0.01793 
C     1     0.00000  0.50000  0.32826  10.25000  0.01462  0.01462  0.00660 =
 0.00000 -0.00000 -0.00010 
HKLF 4

END
Q1 1 0 0.5 0.361111 11 0.05 0.18
Q2 1 0.175 0.675 0.194444 11 0.05 0.17
Q3 1 0 0.5 0.888889 11 0.05 0.16
Q4 1 0 0.5 0.611111 11 0.05 0.12
Q5 1 0.2 0.7 0.5 11 0.05 0.11

  REM The information below was added by Olex2.
  REM
  REM R1 = 0.0109 for 803 Fo > 4sig(Fo) and 0.0218 for all 1022 data
  REM 51 parameters refined using 0 restraints
  REM Highest difference peak 0.1785, deepest hole -0.3538
  REM Mean Shift 0.0001, Max Shift -0.0005.

  REM +++ Tabular Listing of Refinement Information +++
  REM R1_all = 0.0218
  REM R1_gt = 0.0109
  REM wR_ref = 0.0140
  REM GOOF = 1.5201
  REM Shift_max = -0.0005
  REM Shift_mean = 0.0001
  REM Reflections_all = 1022
  REM Reflections_gt = 803
  REM Parameters = 51
  REM Hole = -0.3538
  REM Peak = 0.1785
  REM Flack = n/a

  
;
_cod_data_source_file            fc5060.cif
_cod_data_source_block           urea_NoSpherA2_B3LYP_tonto_dijkl
_cod_original_sg_symbol_Hall     ' P -4 2ab'
_cod_database_code               1566509
_olex2_refinement_description
;
;
_iucr_refine_fcf_details
;
data_urea_NoSpherA2_B3LYP_tonto_dijkl
_computing_structure_refinement   'olex2.refine 1.5 (Bourhis et al., 2015)'
_shelx_refln_list_code            4
loop_
  _space_group_symop_id
  _space_group_symop_operation_xyz
  1  x,y,z
  2  y,-x,-z
  3  -y,x,-z
  4  x+1/2,-y+1/2,-z
  5  -x+1/2,y+1/2,-z
  6  -x,-y,z
  7  -y+1/2,-x+1/2,z
  8  y+1/2,x+1/2,z

_space_group_crystal_system       tetragonal
_space_group_IT_number            113
_space_group_name_H-M_alt         'P -4 21 m'
_space_group_name_Hall            ' P -4 2ab'
_symmetry_space_group_name_H-M    'P -4 21 m'
_symmetry_space_group_name_Hall   ' P -4 2ab'
_symmetry_Int_Tables_number       113
_cell_length_a                    5.5780(6)
_cell_length_b                    5.5780(6)
_cell_length_c                    4.6860(7)
_cell_angle_alpha                 90
_cell_angle_beta                  90
_cell_angle_gamma                 90
_cell_volume                      145.80(3)
loop_
  _refln_index_h
  _refln_index_k
  _refln_index_l
  _refln_F_squared_calc
  _refln_F_squared_meas
  _refln_F_squared_sigma
  _refln_F_squared_weight
  _refln_observed_status
0 0 1 13.283 13.455 0.050 17.548 o
0 0 2 130.116 135.095 0.832 0.064 o
0 0 3 13.745 13.656 0.080 6.855 o
0 0 4 29.022 29.886 0.180 1.354 o
0 0 5 49.415 49.163 0.361 0.339 o
0 0 6 15.212 15.830 0.190 1.215 o
0 0 7 0.230 0.271 0.030 48.745 o
0 0 8 15.263 14.778 0.250 0.702 o
0 0 9 3.585 3.667 0.100 4.387 o
0 0 10 2.924 2.905 0.090 5.416 o
0 0 11 0.103 0.070 0.260 0.649 o
0 0 12 3.861 3.817 0.110 3.626 o
0 0 13 0.177 0.180 0.020 109.677 o
1 0 1 148.432 150.214 0.180 1.354 o
1 0 2 153.249 153.500 0.271 0.602 o
1 0 3 88.518 87.906 0.190 1.215 o
1 0 4 2.270 2.224 0.030 48.745 o
1 0 5 19.034 19.116 0.100 4.387 o
1 0 6 0.437 0.531 0.030 48.745 o
1 0 7 43.196 43.362 0.341 0.380 o
1 0 8 6.073 6.162 0.070 8.953 o
1 0 9 0.008 -0.010 0.321 0.428 o
1 0 10 0.209 0.190 0.010 438.710 o
1 0 11 1.486 1.433 0.040 27.419 o
1 0 12 1.232 1.262 0.040 27.419 o
1 0 13 0.040 0.000 0.311 0.457 o
1 1 0 1039.070 1010.280 1.924 0.012 o
1 1 1 281.202 284.016 0.511 0.169 o
1 1 2 53.099 53.030 0.120 3.047 o
1 1 3 11.738 11.632 0.060 12.186 o
1 1 4 43.549 43.572 0.180 1.354 o
1 1 5 17.042 17.042 0.110 3.626 o
1 1 6 3.019 2.976 0.030 48.745 o
1 1 7 5.734 5.711 0.080 6.855 o
1 1 8 4.429 4.509 0.070 8.953 o
1 1 9 1.287 1.312 0.050 17.548 o
1 1 10 3.249 3.266 0.070 8.953 o
1 1 11 1.651 1.653 0.050 17.548 o
1 1 12 2.426 2.475 0.060 12.186 o
1 1 13 0.242 0.230 0.020 109.677 o
2 0 0 154.246 156.235 0.301 0.487 o
2 0 1 196.431 198.094 0.260 0.649 o
2 0 2 8.293 8.316 0.030 48.745 o
2 0 3 49.787 49.764 0.130 2.596 o
2 0 4 20.354 20.188 0.090 5.416 o
2 0 5 0.587 0.561 0.030 48.745 o
2 0 6 1.458 1.473 0.020 109.677 o
2 0 7 0.262 0.271 0.010 438.710 o
2 0 8 0.044 0.050 0.200 1.097 o
2 0 9 0.374 0.361 0.020 109.677 o
2 0 10 1.103 1.082 0.040 27.419 o
2 0 11 4.422 4.348 0.070 8.953 o
2 0 12 0.997 1.072 0.040 27.419 o
2 0 13 0.001 -0.030 0.301 0.487 o
2 1 0 228.748 227.349 0.281 0.560 o
2 1 1 49.425 49.674 0.080 6.855 o
2 1 2 30.222 30.297 0.070 8.953 o
2 1 3 68.680 68.790 0.160 1.714 o
2 1 4 45.578 45.436 0.140 2.238 o
2 1 5 13.858 13.616 0.070 8.953 o
2 1 6 13.764 13.956 0.090 5.416 o
2 1 7 10.705 10.820 0.090 5.416 o
2 1 8 15.117 14.968 0.130 2.596 o
2 1 9 3.320 3.316 0.050 17.548 o
2 1 10 1.184 1.202 0.030 48.745 o
2 1 11 1.944 1.914 0.040 27.419 o
2 1 12 0.413 0.421 0.020 109.677 o
2 1 13 0.202 0.210 0.010 438.710 o
2 2 0 229.573 227.830 0.421 0.249 o
2 2 1 202.066 200.238 0.391 0.288 o
2 2 2 56.081 54.894 0.160 1.714 o
2 2 3 27.704 27.592 0.120 3.047 o
2 2 4 43.968 43.552 0.210 0.995 o
2 2 5 9.739 9.809 0.080 6.855 o
2 2 6 2.921 2.765 0.050 17.548 o
2 2 7 10.307 10.119 0.120 3.047 o
2 2 8 1.801 1.853 0.050 17.548 o
2 2 9 1.682 1.673 0.050 17.548 o
2 2 10 3.708 3.677 0.070 8.953 o
2 2 11 2.893 2.785 0.060 12.186 o
2 2 12 1.747 1.753 0.050 17.548 o
3 0 1 93.962 93.597 0.170 1.518 o
3 0 2 18.006 17.864 0.060 12.186 o
3 0 3 11.652 11.642 0.050 17.548 o
3 0 4 104.654 105.158 0.381 0.304 o
3 0 5 0.293 0.371 0.020 109.677 o
3 0 6 11.008 10.911 0.090 5.416 o
3 0 7 0.457 0.501 0.020 109.677 o
3 0 8 15.708 15.620 0.160 1.714 o
3 0 9 4.214 4.278 0.060 12.186 o
3 0 10 4.895 4.849 0.070 8.953 o
3 0 11 0.387 0.411 0.020 109.677 o
3 0 12 0.037 0.040 0.170 1.518 o
3 1 0 29.160 29.175 0.070 8.953 o
3 1 1 143.201 142.629 0.230 0.829 o
3 1 2 15.148 14.908 0.050 17.548 o
3 1 3 66.683 66.335 0.180 1.354 o
3 1 4 14.487 14.547 0.070 8.953 o
3 1 5 1.677 1.673 0.030 48.745 o
3 1 6 5.224 5.250 0.050 17.548 o
3 1 7 1.543 1.543 0.030 48.745 o
3 1 8 0.467 0.471 0.020 109.677 o
3 1 9 1.459 1.493 0.030 48.745 o
3 1 10 1.042 1.082 0.030 48.745 o
3 1 11 5.469 5.430 0.070 8.953 o
3 1 12 0.578 0.591 0.030 48.745 o
3 2 0 17.424 17.443 0.050 17.548 o
3 2 1 5.188 5.140 0.030 48.745 o
3 2 2 11.057 11.031 0.040 27.419 o
3 2 3 25.832 25.698 0.090 5.416 o
3 2 4 13.819 13.696 0.070 8.953 o
3 2 5 7.732 7.654 0.050 17.548 o
3 2 6 3.006 3.056 0.040 27.419 o
3 2 7 16.042 16.180 0.130 2.596 o
3 2 8 7.136 7.073 0.070 8.953 o
3 2 9 0.654 0.681 0.030 48.745 o
3 2 10 0.156 0.120 0.020 109.677 o
3 2 11 1.011 0.952 0.030 48.745 o
3 2 12 0.401 0.411 0.020 109.677 o
3 3 0 223.933 219.935 0.621 0.114 o
3 3 1 8.064 8.145 0.050 17.548 o
3 3 2 7.656 7.975 0.060 12.186 o
3 3 3 0.494 0.511 0.030 48.745 o
3 3 4 16.017 15.820 0.120 3.047 o
3 3 5 13.460 13.405 0.090 5.416 o
3 3 6 5.458 5.601 0.070 8.953 o
3 3 7 0.149 0.150 0.020 109.677 o
3 3 8 5.698 5.641 0.090 5.416 o
3 3 9 1.034 0.992 0.050 17.548 o
3 3 10 1.369 1.503 0.050 17.548 o
3 3 11 0.334 0.311 0.020 109.677 o
3 3 12 1.947 1.984 0.050 17.548 o
4 0 0 5.178 5.520 0.060 12.186 o
4 0 1 96.598 97.805 0.240 0.762 o
4 0 2 7.812 7.695 0.040 27.419 o
4 0 3 71.445 72.056 0.250 0.702 o
4 0 4 5.942 5.931 0.050 17.548 o
4 0 5 2.538 2.615 0.040 27.419 o
4 0 6 7.832 7.815 0.070 8.953 o
4 0 7 0.154 0.160 0.010 438.710 o
4 0 8 1.167 1.122 0.040 27.419 o
4 0 9 2.124 2.144 0.050 17.548 o
4 0 10 0.507 0.421 0.020 109.677 o
4 0 11 5.965 6.021 0.090 5.416 o
4 0 12 0.242 0.230 0.010 438.710 o
4 1 0 7.149 7.154 0.040 27.419 o
4 1 1 11.723 11.682 0.040 27.419 o
4 1 2 2.836 2.755 0.030 48.745 o
4 1 3 13.261 13.155 0.060 12.186 o
4 1 4 42.660 43.101 0.180 1.354 o
4 1 5 1.476 1.523 0.030 48.745 o
4 1 6 5.767 5.761 0.050 17.548 o
4 1 7 3.407 3.406 0.040 27.419 o
4 1 8 10.199 10.139 0.100 4.387 o
4 1 9 1.864 1.874 0.040 27.419 o
4 1 10 1.846 1.813 0.040 27.419 o
4 1 11 0.572 0.571 0.020 109.677 o
4 1 12 0.047 0.030 0.281 0.560 o
4 2 0 94.372 93.577 0.220 0.906 o
4 2 1 25.564 25.769 0.080 6.855 o
4 2 2 5.516 5.450 0.030 48.745 o
4 2 3 4.239 4.238 0.030 48.745 o
4 2 4 16.714 16.641 0.090 5.416 o
4 2 5 5.275 5.320 0.030 48.745 o
4 2 6 1.108 1.132 0.030 48.745 o
4 2 7 1.704 1.703 0.030 48.745 o
4 2 8 1.883 1.864 0.040 27.419 o
4 2 9 0.366 0.391 0.020 109.677 o
4 2 10 1.440 1.433 0.040 27.419 o
4 2 11 1.239 1.202 0.030 48.745 o
4 2 12 1.223 1.232 0.030 48.745 o
4 3 0 3.388 3.266 0.030 48.745 o
4 3 1 20.619 20.639 0.080 6.855 o
4 3 2 19.103 18.775 0.080 6.855 o
4 3 3 16.770 16.852 0.080 6.855 o
4 3 4 0.342 0.311 0.020 109.677 o
4 3 5 13.247 13.295 0.090 5.416 o
4 3 6 1.089 1.152 0.030 48.745 o
4 3 7 24.219 24.156 0.200 1.097 o
4 3 8 2.951 3.046 0.040 27.419 o
4 3 9 0.214 0.210 0.010 438.710 o
4 3 10 0.231 0.250 0.010 438.710 o
4 3 11 1.027 1.052 0.030 48.745 o
4 3 12 0.747 0.741 0.030 48.745 o
4 4 0 83.510 83.187 0.391 0.288 o
4 4 1 4.841 4.769 0.050 17.548 o
4 4 2 4.014 4.018 0.050 17.548 o
4 4 3 0.141 0.160 0.010 438.710 o
4 4 4 8.733 8.716 0.060 12.186 o
4 4 5 5.650 5.591 0.070 8.953 o
4 4 6 2.624 2.585 0.050 17.548 o
4 4 7 0.116 0.120 0.020 109.677 o
4 4 8 2.898 2.986 0.060 12.186 o
4 4 9 0.440 0.451 0.020 109.677 o
4 4 10 0.784 0.741 0.050 17.548 o
4 4 11 0.370 0.351 0.020 109.677 o
4 4 12 1.219 1.182 0.050 17.548 o
5 0 1 0.095 0.100 0.010 438.710 o
5 0 2 0.083 0.090 0.020 109.677 o
5 0 3 8.705 8.546 0.060 12.186 o
5 0 4 17.850 18.014 0.110 3.626 o
5 0 5 1.916 1.894 0.040 27.419 o
5 0 6 2.047 1.994 0.040 27.419 o
5 0 7 6.390 6.372 0.080 6.855 o
5 0 8 6.059 5.981 0.080 6.855 o
5 0 9 0.580 0.551 0.030 48.745 o
5 0 10 0.587 0.531 0.030 48.745 o
5 0 11 0.464 0.451 0.020 109.677 o
5 0 12 0.098 0.090 0.020 109.677 o
5 1 0 41.956 42.370 0.150 1.950 o
5 1 1 30.176 30.407 0.100 4.387 o
5 1 2 8.206 8.286 0.050 17.548 o
5 1 3 10.145 10.249 0.060 12.186 o
5 1 4 15.340 15.509 0.090 5.416 o
5 1 5 3.332 3.406 0.040 27.419 o
5 1 6 0.827 0.771 0.030 48.745 o
5 1 7 3.121 3.046 0.040 27.419 o
5 1 8 0.862 0.842 0.030 48.745 o
5 1 9 0.557 0.591 0.020 109.677 o
5 1 10 1.542 1.573 0.040 27.419 o
5 1 11 1.736 1.773 0.040 27.419 o
5 1 12 0.844 0.822 0.030 48.745 o
5 2 0 21.431 21.480 0.080 6.855 o
5 2 1 7.197 7.224 0.040 27.419 o
5 2 2 7.544 7.434 0.040 27.419 o
5 2 3 21.477 21.410 0.100 4.387 o
5 2 4 7.563 7.604 0.060 12.186 o
5 2 5 9.173 9.197 0.070 8.953 o
5 2 6 6.165 6.202 0.060 12.186 o
5 2 7 10.361 10.269 0.100 4.387 o
5 2 8 6.576 6.643 0.070 8.953 o
5 2 9 1.342 1.363 0.030 48.745 o
5 2 10 0.126 0.120 0.010 438.710 o
5 2 11 1.222 1.262 0.030 48.745 o
5 2 12 0.415 0.411 0.010 438.710 o
5 3 0 43.734 43.282 0.160 1.714 o
5 3 1 11.932 11.882 0.060 12.186 o
5 3 2 2.291 2.264 0.030 48.745 o
5 3 3 3.418 3.386 0.030 48.745 o
5 3 4 8.448 8.536 0.060 12.186 o
5 3 5 2.379 2.425 0.030 48.745 o
5 3 6 0.567 0.571 0.020 109.677 o
5 3 7 0.759 0.812 0.030 48.745 o
5 3 8 1.129 1.072 0.030 48.745 o
5 3 9 0.166 0.180 0.010 438.710 o
5 3 10 0.838 0.862 0.030 48.745 o
5 3 11 0.902 0.822 0.030 48.745 o
5 3 12 0.788 0.711 0.030 48.745 o
5 4 0 2.852 2.895 0.030 48.745 o
5 4 1 0.499 0.481 0.020 109.677 o
5 4 2 0.697 0.691 0.030 48.745 o
5 4 3 5.841 5.751 0.030 48.745 o
5 4 4 8.647 8.476 0.070 8.953 o
5 4 5 2.586 2.605 0.040 27.419 o
5 4 6 1.586 1.593 0.030 48.745 o
5 4 7 5.076 5.110 0.060 12.186 o
5 4 8 3.590 3.627 0.050 17.548 o
5 4 9 0.471 0.461 0.020 109.677 o
5 4 10 0.255 0.250 0.010 438.710 o
5 4 11 0.451 0.481 0.020 109.677 o
5 4 12 0.105 0.110 0.010 438.710 o
5 5 0 6.720 6.783 0.070 8.953 o
5 5 1 15.626 15.680 0.140 2.238 o
5 5 2 4.970 5.019 0.040 27.419 o
5 5 3 10.285 10.299 0.110 3.626 o
5 5 4 6.943 6.983 0.090 5.416 o
5 5 5 1.615 1.673 0.050 17.548 o
5 5 6 0.751 0.822 0.040 27.419 o
5 5 7 2.365 2.445 0.060 12.186 o
5 5 8 0.248 0.250 0.020 109.677 o
5 5 9 0.479 0.511 0.030 48.745 o
5 5 10 0.806 0.822 0.050 17.548 o
5 5 11 1.416 1.413 0.050 17.548 o
6 0 0 60.205 61.676 0.411 0.261 o
6 0 1 4.501 4.478 0.040 27.419 o
6 0 2 2.569 2.565 0.030 48.745 o
6 0 3 0.240 0.230 0.010 438.710 o
6 0 4 7.692 7.785 0.070 8.953 o
6 0 5 4.436 4.398 0.050 17.548 o
6 0 6 1.975 1.964 0.040 27.419 o
6 0 7 0.082 0.030 0.331 0.403 o
6 0 8 2.311 2.364 0.050 17.548 o
6 0 9 0.288 0.271 0.010 438.710 o
6 0 10 0.695 0.741 0.040 27.419 o
6 0 11 0.387 0.441 0.020 109.677 o
6 0 12 1.018 1.022 0.030 48.745 o
6 1 0 5.180 5.340 0.040 27.419 o
6 1 1 5.647 5.701 0.040 27.419 o
6 1 2 4.662 4.709 0.040 27.419 o
6 1 3 10.479 10.550 0.070 8.953 o
6 1 4 2.923 2.926 0.040 27.419 o
6 1 5 6.426 6.472 0.060 12.186 o
6 1 6 1.915 1.924 0.030 48.745 o
6 1 7 11.056 10.941 0.110 3.626 o
6 1 8 3.320 3.316 0.050 17.548 o
6 1 9 0.387 0.381 0.020 109.677 o
6 1 10 0.009 -0.010 0.281 0.560 o
6 1 11 0.720 0.731 0.030 48.745 o
6 1 12 0.338 0.321 0.010 438.710 o
6 2 0 23.192 23.524 0.110 3.626 o
6 2 1 13.686 13.796 0.080 6.855 o
6 2 2 2.839 2.855 0.030 48.745 o
6 2 3 6.176 6.222 0.040 27.419 o
6 2 4 7.602 7.594 0.060 12.186 o
6 2 5 1.547 1.553 0.030 48.745 o
6 2 6 0.322 0.311 0.010 438.710 o
6 2 7 1.314 1.302 0.030 48.745 o
6 2 8 0.572 0.611 0.020 109.677 o
6 2 9 0.245 0.250 0.010 438.710 o
6 2 10 0.850 0.842 0.030 48.745 o
6 2 11 1.139 1.182 0.030 48.745 o
6 2 12 0.538 0.551 0.030 48.745 o
6 3 0 0.015 0.040 0.230 0.829 o
6 3 1 0.863 0.892 0.030 48.745 o
6 3 2 0.848 0.922 0.030 48.745 o
6 3 3 3.020 2.885 0.040 27.419 o
6 3 4 15.254 15.239 0.110 3.626 o
6 3 5 0.340 0.331 0.010 438.710 o
6 3 6 1.769 1.763 0.040 27.419 o
6 3 7 1.787 1.793 0.030 48.745 o
6 3 8 4.297 4.348 0.060 12.186 o
6 3 9 0.611 0.601 0.020 109.677 o
6 3 10 0.810 0.781 0.030 48.745 o
6 3 11 0.220 0.230 0.010 438.710 o
6 4 0 2.518 2.475 0.030 48.745 o
6 4 1 13.612 13.515 0.060 12.186 o
6 4 2 2.611 2.635 0.030 48.745 o
6 4 3 14.702 14.828 0.100 4.387 o
6 4 4 3.453 3.457 0.040 27.419 o
6 4 5 0.916 0.872 0.030 48.745 o
6 4 6 1.334 1.312 0.030 48.745 o
6 4 7 0.910 0.922 0.030 48.745 o
6 4 8 0.172 0.160 0.010 438.710 o
6 4 9 0.616 0.631 0.030 48.745 o
6 4 10 0.405 0.401 0.020 109.677 o
6 4 11 1.774 1.723 0.040 27.419 o
6 5 0 4.201 4.178 0.040 27.419 o
6 5 1 0.852 0.862 0.030 48.745 o
6 5 2 1.613 1.573 0.030 48.745 o
6 5 3 4.031 4.048 0.050 17.548 o
6 5 4 9.430 9.348 0.080 6.855 o
6 5 5 1.541 1.543 0.030 48.745 o
6 5 6 2.116 2.104 0.040 27.419 o
6 5 7 1.241 1.282 0.030 48.745 o
6 5 8 3.015 3.146 0.050 17.548 o
6 5 9 0.729 0.761 0.030 48.745 o
6 5 10 0.507 0.491 0.020 109.677 o
6 5 11 0.301 0.281 0.010 438.710 o
6 6 0 8.887 8.526 0.100 4.387 o
6 6 1 2.810 2.735 0.050 17.548 o
6 6 2 0.436 0.431 0.030 48.745 o
6 6 3 1.856 1.773 0.050 17.548 o
6 6 4 1.970 1.944 0.050 17.548 o
6 6 5 0.294 0.291 0.020 109.677 o
6 6 6 0.062 0.040 0.230 0.829 o
6 6 7 0.145 0.160 0.020 109.677 o
6 6 8 0.212 0.230 0.020 109.677 o
6 6 9 0.003 0.050 0.391 0.288 o
6 6 10 0.193 0.200 0.020 109.677 o
6 6 11 0.400 0.371 0.030 48.745 o
7 0 1 8.163 8.546 0.070 8.953 o
7 0 2 5.100 5.150 0.040 27.419 o
7 0 3 5.246 5.280 0.050 17.548 o
7 0 4 0.200 0.180 0.010 438.710 o
7 0 5 6.238 6.302 0.070 8.953 o
7 0 6 0.048 0.050 0.311 0.457 o
7 0 7 11.918 12.003 0.140 2.238 o
7 0 8 1.158 1.242 0.040 27.419 o
7 0 9 0.012 0.050 0.321 0.428 o
7 0 10 0.094 0.090 0.020 109.677 o
7 0 11 0.519 0.481 0.030 48.745 o
7 1 0 30.743 31.560 0.180 1.354 o
7 1 1 3.166 3.196 0.040 27.419 o
7 1 2 1.434 1.453 0.020 109.677 o
7 1 3 0.585 0.611 0.020 109.677 o
7 1 4 4.557 4.619 0.050 17.548 o
7 1 5 2.009 2.064 0.030 48.745 o
7 1 6 0.957 1.022 0.030 48.745 o
7 1 7 0.061 0.080 0.020 109.677 o
7 1 8 1.205 1.242 0.030 48.745 o
7 1 9 0.111 0.100 0.010 438.710 o
7 1 10 0.409 0.411 0.020 109.677 o
7 1 11 0.354 0.361 0.010 438.710 o
7 2 0 0.260 0.281 0.010 438.710 o
7 2 1 0.017 0.010 0.170 1.518 o
7 2 2 0.141 0.170 0.010 438.710 o
7 2 3 2.741 2.725 0.040 27.419 o
7 2 4 8.297 8.356 0.070 8.953 o
7 2 5 0.848 0.872 0.030 48.745 o
7 2 6 0.994 0.952 0.030 48.745 o
7 2 7 2.540 2.605 0.040 27.419 o
7 2 8 2.873 2.946 0.050 17.548 o
7 2 9 0.304 0.281 0.010 438.710 o
7 2 10 0.363 0.391 0.010 438.710 o
7 2 11 0.226 0.220 0.010 438.710 o
7 3 0 1.400 1.383 0.030 48.745 o
7 3 1 10.730 10.740 0.080 6.855 o
7 3 2 1.420 1.453 0.030 48.745 o
7 3 3 14.038 14.056 0.110 3.626 o
7 3 4 1.850 1.843 0.030 48.745 o
7 3 5 0.658 0.651 0.030 48.745 o
7 3 6 1.407 1.363 0.030 48.745 o
7 3 7 0.305 0.321 0.010 438.710 o
7 3 8 0.170 0.180 0.010 438.710 o
7 3 9 0.621 0.581 0.030 48.745 o
7 3 10 0.239 0.271 0.010 438.710 o
7 3 11 1.640 1.633 0.030 48.745 o
7 4 0 1.025 1.002 0.030 48.745 o
7 4 1 1.325 1.353 0.030 48.745 o
7 4 2 1.806 1.823 0.030 48.745 o
7 4 3 1.714 1.703 0.030 48.745 o
7 4 4 11.668 11.612 0.100 4.387 o
7 4 5 0.356 0.341 0.010 438.710 o
7 4 6 1.467 1.473 0.030 48.745 o
7 4 7 0.452 0.451 0.020 109.677 o
7 4 8 2.992 3.056 0.050 17.548 o
7 4 9 0.566 0.551 0.030 48.745 o
7 4 10 0.782 0.781 0.030 48.745 o
7 4 11 0.121 0.140 0.010 438.710 o
7 5 0 5.954 5.841 0.060 12.186 o
7 5 1 3.201 3.186 0.040 27.419 o
7 5 2 0.047 0.100 0.030 48.745 o
7 5 3 2.916 2.865 0.040 27.419 o
7 5 4 1.465 1.433 0.030 48.745 o
7 5 5 0.052 0.080 0.020 109.677 o
7 5 6 0.002 0.010 0.200 1.097 o
7 5 7 0.020 0.010 0.291 0.522 o
7 5 8 0.080 0.090 0.020 109.677 o
7 5 9 0.034 0.040 0.281 0.560 o
7 5 10 0.162 0.160 0.010 438.710 o
7 5 11 0.500 0.481 0.020 109.677 o
7 6 0 0.541 0.521 0.020 109.677 o
7 6 1 2.227 2.214 0.040 27.419 o
7 6 2 1.055 1.102 0.030 48.745 o
7 6 3 2.152 2.154 0.040 27.419 o
7 6 4 0.359 0.361 0.010 438.710 o
7 6 5 1.859 1.874 0.040 27.419 o
7 6 6 0.337 0.321 0.010 438.710 o
7 6 7 3.484 3.567 0.050 17.548 o
7 6 8 0.708 0.711 0.030 48.745 o
7 6 9 0.034 -0.010 0.291 0.522 o
7 6 10 0.002 -0.030 0.271 0.602 o
7 7 1 1.244 1.292 0.050 17.548 o
7 7 2 1.364 1.393 0.050 17.548 o
7 7 3 0.016 0.000 0.391 0.288 o
7 7 4 2.046 1.934 0.060 12.186 o
7 7 5 1.120 1.112 0.050 17.548 o
7 7 6 0.843 0.882 0.050 17.548 o
7 7 7 0.240 0.291 0.020 109.677 o
7 7 8 0.676 0.701 0.040 27.419 o
7 7 9 0.167 0.170 0.020 109.677 o
7 7 10 0.197 0.210 0.020 109.677 o
8 0 0 16.862 17.242 0.140 2.238 o
8 0 1 2.309 2.284 0.040 27.419 o
8 0 2 0.735 0.822 0.030 48.745 o
8 0 3 0.766 0.802 0.030 48.745 o
8 0 4 2.834 2.745 0.050 17.548 o
8 0 5 0.919 0.902 0.030 48.745 o
8 0 6 0.458 0.511 0.020 109.677 o
8 0 7 0.043 0.060 0.331 0.403 o
8 0 8 0.625 0.661 0.030 48.745 o
8 0 9 0.037 0.010 0.331 0.403 o
8 0 10 0.241 0.250 0.010 438.710 o
8 0 11 0.303 0.291 0.010 438.710 o
8 1 0 1.454 1.503 0.030 48.745 o
8 1 1 0.965 0.972 0.030 48.745 o
8 1 2 0.587 0.621 0.020 109.677 o
8 1 3 3.178 3.186 0.040 27.419 o
8 1 4 2.855 2.926 0.040 27.419 o
8 1 5 1.926 1.984 0.040 27.419 o
8 1 6 0.806 0.781 0.030 48.745 o
8 1 7 3.489 3.537 0.050 17.548 o
8 1 8 1.639 1.663 0.040 27.419 o
8 1 9 0.202 0.220 0.010 438.710 o
8 1 10 0.060 0.020 0.281 0.560 o
8 1 11 0.293 0.281 0.010 438.710 o
8 2 0 4.781 4.689 0.050 17.548 o
8 2 1 6.543 6.572 0.060 12.186 o
8 2 2 1.534 1.563 0.030 48.745 o
8 2 3 5.096 5.150 0.050 17.548 o
8 2 4 3.029 3.076 0.040 27.419 o
8 2 5 0.562 0.561 0.020 109.677 o
8 2 6 0.230 0.260 0.010 438.710 o
8 2 7 0.794 0.832 0.030 48.745 o
8 2 8 0.111 0.120 0.010 438.710 o
8 2 9 0.194 0.190 0.010 438.710 o
8 2 10 0.366 0.391 0.020 109.677 o
8 2 11 0.768 0.791 0.030 48.745 o
8 3 0 1.165 1.132 0.030 48.745 o
8 3 1 0.389 0.391 0.010 438.710 o
8 3 2 0.863 0.872 0.030 48.745 o
8 3 3 1.808 1.843 0.030 48.745 o
8 3 4 7.004 7.053 0.070 8.953 o
8 3 5 0.519 0.521 0.020 109.677 o
8 3 6 1.048 1.102 0.030 48.745 o
8 3 7 0.777 0.812 0.030 48.745 o
8 3 8 2.128 2.094 0.040 27.419 o
8 3 9 0.365 0.371 0.020 109.677 o
8 3 10 0.425 0.401 0.020 109.677 o
8 3 11 0.137 0.140 0.010 438.710 o
8 4 0 4.184 4.168 0.050 17.548 o
8 4 1 2.999 2.936 0.040 27.419 o
8 4 2 0.009 0.030 0.260 0.649 o
8 4 3 3.000 2.956 0.040 27.419 o
8 4 4 1.152 1.132 0.030 48.745 o
8 4 5 0.024 0.020 0.281 0.560 o
8 4 6 0.026 0.090 0.030 48.745 o
8 4 7 0.010 0.030 0.160 1.714 o
8 4 8 0.048 0.050 0.020 109.677 o
8 4 9 0.062 0.050 0.200 1.097 o
8 4 10 0.145 0.170 0.010 438.710 o
8 5 0 1.004 0.992 0.030 48.745 o
8 5 1 1.305 1.353 0.030 48.745 o
8 5 2 0.696 0.721 0.030 48.745 o
8 5 3 2.240 2.214 0.040 27.419 o
8 5 4 0.803 0.791 0.030 48.745 o
8 5 5 1.320 1.343 0.030 48.745 o
8 5 6 0.577 0.601 0.030 48.745 o
8 5 7 2.377 2.364 0.040 27.419 o
8 5 8 0.899 0.882 0.030 48.745 o
8 5 9 0.089 0.090 0.020 109.677 o
8 5 10 0.009 0.020 0.260 0.649 o
8 6 0 8.158 8.436 0.090 5.416 o
8 6 1 1.568 1.503 0.040 27.419 o
8 6 2 1.249 1.202 0.030 48.745 o
8 6 3 0.041 0.020 0.281 0.560 o
8 6 4 2.012 1.984 0.040 27.419 o
8 6 5 0.940 1.022 0.030 48.745 o
8 6 6 0.595 0.591 0.030 48.745 o
8 6 7 0.315 0.311 0.020 109.677 o
8 6 8 0.546 0.561 0.020 109.677 o
8 6 9 0.126 0.130 0.010 438.710 o
8 6 10 0.220 0.240 0.020 109.677 o
8 7 0 0.103 0.140 0.020 109.677 o
8 7 1 0.650 0.561 0.030 48.745 o
8 7 2 0.218 0.220 0.010 438.710 o
8 7 3 0.766 0.781 0.030 48.745 o
8 7 4 0.364 0.351 0.020 109.677 o
8 7 5 0.623 0.651 0.030 48.745 o
8 7 6 0.128 0.150 0.020 109.677 o
8 7 7 1.294 1.262 0.040 27.419 o
8 7 8 0.348 0.361 0.010 438.710 o
8 7 9 0.007 0.000 0.271 0.602 o
8 8 0 0.920 0.892 0.050 17.548 o
8 8 1 0.864 0.872 0.040 27.419 o
8 8 2 0.133 0.160 0.020 109.677 o
8 8 3 0.957 0.962 0.050 17.548 o
8 8 4 0.368 0.351 0.020 109.677 o
8 8 5 0.036 0.010 0.411 0.261 o
8 8 6 0.009 0.000 0.411 0.261 o
8 8 7 0.071 0.030 0.411 0.261 o
8 8 8 0.005 0.010 0.391 0.288 o
9 0 1 0.000 -0.020 0.301 0.487 o
9 0 2 0.097 0.090 0.020 109.677 o
9 0 3 1.056 1.022 0.040 27.419 o
9 0 4 3.844 3.887 0.060 12.186 o
9 0 5 0.347 0.351 0.020 109.677 o
9 0 6 0.446 0.451 0.020 109.677 o
9 0 7 1.125 1.152 0.040 27.419 o
9 0 8 1.326 1.343 0.040 27.419 o
9 0 9 0.129 0.120 0.020 109.677 o
9 0 10 0.194 0.190 0.010 438.710 o
9 1 0 3.554 3.607 0.040 27.419 o
9 1 1 3.642 3.637 0.040 27.419 o
9 1 2 0.614 0.641 0.020 109.677 o
9 1 3 3.108 3.136 0.040 27.419 o
9 1 4 1.683 1.673 0.040 27.419 o
9 1 5 0.251 0.260 0.010 438.710 o
9 1 6 0.082 0.050 0.200 1.097 o
9 1 7 0.329 0.321 0.010 438.710 o
9 1 8 0.071 0.030 0.291 0.522 o
9 1 9 0.094 0.070 0.010 438.710 o
9 1 10 0.201 0.200 0.010 438.710 o
9 2 0 1.373 1.403 0.030 48.745 o
9 2 1 0.235 0.230 0.010 438.710 o
9 2 2 0.411 0.411 0.010 438.710 o
9 2 3 1.900 1.914 0.040 27.419 o
9 2 4 3.091 3.136 0.040 27.419 o
9 2 5 0.828 0.791 0.030 48.745 o
9 2 6 0.778 0.832 0.030 48.745 o
9 2 7 1.194 1.192 0.030 48.745 o
9 2 8 1.271 1.252 0.040 27.419 o
9 2 9 0.238 0.220 0.010 438.710 o
9 2 10 0.140 0.110 0.010 438.710 o
9 3 0 5.107 5.280 0.060 12.186 o
9 3 1 1.614 1.633 0.030 48.745 o
9 3 2 0.188 0.190 0.010 438.710 o
9 3 3 1.158 1.142 0.030 48.745 o
9 3 4 1.113 1.062 0.030 48.745 o
9 3 5 0.143 0.120 0.010 438.710 o
9 3 6 0.037 0.040 0.200 1.097 o
9 3 7 0.046 0.030 0.200 1.097 o
9 3 8 0.129 0.130 0.010 438.710 o
9 3 9 0.003 0.020 0.281 0.560 o
9 3 10 0.113 0.090 0.020 109.677 o
9 4 0 0.421 0.421 0.020 109.677 o
9 4 1 1.079 1.072 0.030 48.745 o
9 4 2 0.458 0.481 0.020 109.677 o
9 4 3 1.443 1.403 0.030 48.745 o
9 4 4 0.539 0.541 0.020 109.677 o
9 4 5 1.053 1.042 0.030 48.745 o
9 4 6 0.285 0.291 0.010 438.710 o
9 4 7 2.046 2.044 0.040 27.419 o
9 4 8 0.595 0.621 0.030 48.745 o
9 4 9 0.037 0.050 0.281 0.560 o
9 4 10 0.003 -0.030 0.271 0.602 o
9 5 0 6.013 6.302 0.070 8.953 o
9 5 1 1.409 1.363 0.030 48.745 o
9 5 2 0.932 0.982 0.030 48.745 o
9 5 3 0.101 0.060 0.020 109.677 o
9 5 4 1.604 1.603 0.040 27.419 o
9 5 5 0.668 0.651 0.030 48.745 o
9 5 6 0.373 0.381 0.010 438.710 o
9 5 7 0.269 0.281 0.010 438.710 o
9 5 8 0.392 0.381 0.020 109.677 o
9 5 9 0.080 0.050 0.200 1.097 o
9 6 0 0.169 0.180 0.010 438.710 o
9 6 1 0.419 0.421 0.020 109.677 o
9 6 2 0.145 0.150 0.010 438.710 o
9 6 3 0.732 0.771 0.030 48.745 o
9 6 4 0.497 0.501 0.020 109.677 o
9 6 5 0.449 0.451 0.020 109.677 o
9 6 6 0.172 0.160 0.010 438.710 o
9 6 7 0.966 0.942 0.030 48.745 o
9 6 8 0.384 0.401 0.010 438.710 o
9 6 9 0.018 0.030 0.271 0.602 o
9 7 0 0.759 0.812 0.030 48.745 o
9 7 1 0.838 0.902 0.030 48.745 o
9 7 2 0.087 0.050 0.200 1.097 o
9 7 3 1.013 0.992 0.030 48.745 o
9 7 4 0.297 0.301 0.010 438.710 o
9 7 5 0.023 -0.040 0.291 0.522 o
9 7 6 0.015 0.040 0.281 0.560 o
9 7 7 0.046 0.030 0.281 0.560 o
9 7 8 0.002 0.010 0.271 0.602 o
9 8 0 0.538 0.581 0.020 109.677 o
9 8 1 0.173 0.170 0.010 438.710 o
9 8 2 0.380 0.401 0.020 109.677 o
9 8 3 0.413 0.381 0.020 109.677 o
9 8 4 1.387 1.423 0.040 27.419 o
9 8 5 0.200 0.200 0.010 438.710 o
9 8 6 0.287 0.291 0.010 438.710 o
9 8 7 0.042 0.030 0.200 1.097 o
9 8 8 0.380 0.371 0.020 109.677 o
9 9 0 0.120 0.110 0.020 109.677 o
9 9 1 0.567 0.661 0.040 27.419 o
9 9 2 0.176 0.160 0.020 109.677 o
9 9 3 0.716 0.791 0.040 27.419 o
9 9 4 0.201 0.220 0.020 109.677 o
9 9 5 0.077 0.060 0.401 0.274 o
9 9 6 0.041 0.060 0.220 0.906 o
9 9 7 0.085 0.070 0.381 0.304 o
10 0 0 0.951 0.932 0.040 27.419 o
10 0 1 2.316 2.264 0.040 27.419 o
10 0 2 0.065 0.050 0.321 0.428 o
10 0 3 3.232 3.136 0.050 17.548 o
10 0 4 0.458 0.471 0.020 109.677 o
10 0 5 0.056 0.070 0.331 0.403 o
10 0 6 0.178 0.190 0.010 438.710 o
10 0 7 0.001 0.000 0.331 0.403 o
10 0 8 0.005 0.040 0.321 0.428 o
10 0 9 0.136 0.100 0.020 109.677 o
10 0 10 0.066 0.090 0.511 0.169 o
10 1 0 0.098 0.100 0.010 438.710 o
10 1 1 0.033 0.020 0.271 0.602 o
10 1 2 0.199 0.200 0.010 438.710 o
10 1 3 0.609 0.611 0.020 109.677 o
10 1 4 2.703 2.715 0.040 27.419 o
10 1 5 0.148 0.130 0.010 438.710 o
10 1 6 0.322 0.331 0.010 438.710 o
10 1 7 0.488 0.501 0.020 109.677 o
10 1 8 0.881 0.892 0.030 48.745 o
10 1 9 0.098 0.070 0.020 109.677 o
10 1 10 0.168 0.180 0.020 109.677 o
10 2 0 3.323 3.376 0.050 17.548 o
10 2 1 1.086 1.072 0.030 48.745 o
10 2 2 0.097 0.090 0.030 48.745 o
10 2 3 0.837 0.852 0.030 48.745 o
10 2 4 0.730 0.771 0.030 48.745 o
10 2 5 0.075 0.060 0.020 109.677 o
10 2 6 0.024 0.010 0.281 0.560 o
10 2 7 0.018 0.020 0.281 0.560 o
10 2 8 0.082 0.090 0.010 438.710 o
10 2 9 0.003 -0.020 0.281 0.560 o
10 2 10 0.071 0.040 0.371 0.320 o
10 3 0 0.066 0.070 0.020 109.677 o
10 3 1 0.879 0.872 0.030 48.745 o
10 3 2 0.303 0.321 0.010 438.710 o
10 3 3 0.800 0.852 0.030 48.745 o
10 3 4 0.286 0.311 0.010 438.710 o
10 3 5 0.825 0.781 0.030 48.745 o
10 3 6 0.086 0.110 0.020 109.677 o
10 3 7 1.636 1.553 0.040 27.419 o
10 3 8 0.319 0.291 0.010 438.710 o
10 3 9 0.004 0.050 0.271 0.602 o
10 4 0 4.908 5.100 0.070 8.953 o
10 4 1 0.628 0.611 0.020 109.677 o
10 4 2 0.528 0.501 0.020 109.677 o
10 4 3 0.038 0.030 0.281 0.560 o
10 4 4 0.971 1.012 0.030 48.745 o
10 4 5 0.420 0.401 0.020 109.677 o
10 4 6 0.326 0.311 0.010 438.710 o
10 4 7 0.085 0.080 0.020 109.677 o
10 4 8 0.290 0.260 0.010 438.710 o
10 4 9 0.049 -0.020 0.190 1.215 o
10 5 0 0.066 0.060 0.020 109.677 o
10 5 1 0.330 0.341 0.010 438.710 o
10 5 2 0.087 0.100 0.020 109.677 o
10 5 3 0.503 0.481 0.020 109.677 o
10 5 4 0.384 0.381 0.020 109.677 o
10 5 5 0.366 0.361 0.020 109.677 o
10 5 6 0.100 0.090 0.020 109.677 o
10 5 7 0.799 0.781 0.030 48.745 o
10 5 8 0.277 0.271 0.010 438.710 o
10 5 9 0.009 0.000 0.260 0.649 o
10 6 0 0.628 0.591 0.020 109.677 o
10 6 1 0.706 0.701 0.030 48.745 o
10 6 2 0.053 0.030 0.200 1.097 o
10 6 3 0.879 0.862 0.030 48.745 o
10 6 4 0.233 0.230 0.010 438.710 o
10 6 5 0.013 -0.010 0.291 0.522 o
10 6 6 0.014 0.000 0.291 0.522 o
10 6 7 0.028 0.030 0.200 1.097 o
10 6 8 0.001 0.000 0.271 0.602 o
10 7 0 0.375 0.371 0.020 109.677 o
10 7 1 0.145 0.130 0.020 109.677 o
10 7 2 0.325 0.321 0.010 438.710 o
10 7 3 0.306 0.321 0.010 438.710 o
10 7 4 1.250 1.282 0.040 27.419 o
10 7 5 0.144 0.140 0.010 438.710 o
10 7 6 0.220 0.190 0.010 438.710 o
10 7 7 0.036 0.020 0.200 1.097 o
10 7 8 0.344 0.341 0.010 438.710 o
10 8 0 0.110 0.100 0.020 109.677 o
10 8 1 0.524 0.511 0.020 109.677 o
10 8 2 0.146 0.160 0.010 438.710 o
10 8 3 0.691 0.741 0.030 48.745 o
10 8 4 0.170 0.170 0.010 438.710 o
10 8 5 0.066 0.030 0.200 1.097 o
10 8 6 0.040 0.050 0.190 1.215 o
10 8 7 0.070 0.050 0.010 438.710 o
10 9 0 0.002 0.010 0.200 1.097 o
10 9 1 0.023 0.040 0.281 0.560 o
10 9 2 0.001 0.000 0.281 0.560 o
10 9 3 0.068 0.070 0.020 109.677 o
10 9 4 0.162 0.180 0.010 438.710 o
10 9 5 0.051 0.020 0.281 0.560 o
10 9 6 0.021 0.030 0.190 1.215 o
10 10 0 0.571 0.591 0.040 27.419 o
10 10 1 0.103 0.120 0.020 109.677 o
10 10 2 0.090 0.070 0.401 0.274 o
10 10 3 0.002 -0.020 0.401 0.274 o
10 10 4 0.137 0.130 0.020 109.677 o
10 10 5 0.057 0.060 0.381 0.304 o
11 0 1 0.012 0.000 0.331 0.403 o
11 0 2 0.127 0.080 0.020 109.677 o
11 0 3 0.314 0.331 0.020 109.677 o
11 0 4 1.599 1.553 0.040 27.419 o
11 0 5 0.057 0.020 0.331 0.403 o
11 0 6 0.162 0.140 0.020 109.677 o
11 0 7 0.268 0.271 0.010 438.710 o
11 0 8 0.534 0.501 0.030 48.745 o
11 0 9 0.044 -0.010 0.311 0.457 o
11 1 0 1.258 1.333 0.030 48.745 o
11 1 1 0.917 0.922 0.030 48.745 o
11 1 2 0.023 0.030 0.200 1.097 o
11 1 3 0.968 0.962 0.030 48.745 o
11 1 4 0.365 0.381 0.010 438.710 o
11 1 5 0.012 0.020 0.281 0.560 o
11 1 6 0.006 0.030 0.281 0.560 o
11 1 7 0.012 0.040 0.281 0.560 o
11 1 8 0.016 0.040 0.281 0.560 o
11 1 9 0.027 0.050 0.260 0.649 o
11 2 0 0.120 0.120 0.020 109.677 o
11 2 1 0.270 0.240 0.010 438.710 o
11 2 2 0.080 0.030 0.200 1.097 o
11 2 3 0.509 0.511 0.020 109.677 o
11 2 4 0.452 0.421 0.020 109.677 o
11 2 5 0.360 0.371 0.010 438.710 o
11 2 6 0.116 0.100 0.020 109.677 o
11 2 7 0.743 0.741 0.030 48.745 o
11 2 8 0.292 0.281 0.010 438.710 o
11 2 9 0.017 0.040 0.260 0.649 o
11 3 0 2.847 2.795 0.050 17.548 o
11 3 1 0.417 0.441 0.020 109.677 o
11 3 2 0.254 0.230 0.010 438.710 o
11 3 3 0.080 0.090 0.020 109.677 o
11 3 4 0.577 0.541 0.030 48.745 o
11 3 5 0.190 0.180 0.010 438.710 o
11 3 6 0.158 0.150 0.010 438.710 o
11 3 7 0.041 0.030 0.281 0.560 o
11 3 8 0.149 0.120 0.010 438.710 o
11 4 0 0.008 0.020 0.281 0.560 o
11 4 1 0.244 0.230 0.010 438.710 o
11 4 2 0.048 0.040 0.170 1.518 o
11 4 3 0.303 0.321 0.010 438.710 o
11 4 4 0.260 0.271 0.010 438.710 o
11 4 5 0.286 0.260 0.010 438.710 o
11 4 6 0.049 0.050 0.200 1.097 o
11 4 7 0.605 0.541 0.030 48.745 o
11 4 8 0.171 0.150 0.010 438.710 o
11 5 0 0.622 0.631 0.030 48.745 o
11 5 1 0.486 0.521 0.020 109.677 o
11 5 2 0.055 0.080 0.281 0.560 o
11 5 3 0.538 0.521 0.020 109.677 o
11 5 4 0.213 0.220 0.010 438.710 o
11 5 5 0.014 -0.010 0.291 0.522 o
11 5 6 0.002 0.040 0.281 0.560 o
11 5 7 0.029 0.050 0.271 0.602 o
11 5 8 0.005 -0.020 0.260 0.649 o
11 6 0 0.261 0.250 0.010 438.710 o
11 6 1 0.074 0.090 0.010 438.710 o
11 6 2 0.204 0.210 0.010 438.710 o
11 6 3 0.232 0.240 0.010 438.710 o
11 6 4 0.884 0.882 0.030 48.745 o
11 6 5 0.102 0.100 0.020 109.677 o
11 6 6 0.156 0.160 0.010 438.710 o
11 6 7 0.046 0.040 0.190 1.215 o
11 7 0 0.112 0.120 0.020 109.677 o
11 7 1 0.412 0.411 0.020 109.677 o
11 7 2 0.098 0.090 0.010 438.710 o
11 7 3 0.552 0.521 0.030 48.745 o
11 7 4 0.126 0.130 0.010 438.710 o
11 7 5 0.044 0.080 0.020 109.677 o
11 7 6 0.028 0.060 0.271 0.602 o
11 7 7 0.048 0.060 0.260 0.649 o
11 8 0 0.001 0.000 0.281 0.560 o
11 8 1 0.020 -0.010 0.291 0.522 o
11 8 2 0.001 -0.020 0.291 0.522 o
11 8 3 0.062 0.070 0.020 109.677 o
11 8 4 0.149 0.160 0.010 438.710 o
11 8 5 0.042 0.060 0.190 1.215 o
11 8 6 0.019 0.030 0.260 0.649 o
11 9 0 0.518 0.531 0.020 109.677 o
11 9 1 0.098 0.100 0.010 438.710 o
11 9 2 0.082 0.060 0.020 109.677 o
11 9 3 0.002 -0.020 0.281 0.560 o
11 9 4 0.127 0.130 0.020 109.677 o
11 9 5 0.052 0.050 0.190 1.215 o
11 10 0 0.060 0.050 0.281 0.560 o
11 10 1 0.135 0.110 0.010 438.710 o
11 10 2 0.063 0.060 0.020 109.677 o
11 10 3 0.104 0.080 0.020 109.677 o
12 0 0 0.990 1.002 0.040 27.419 o
12 0 1 0.382 0.371 0.020 109.677 o
12 0 2 0.020 0.000 0.220 0.906 o
12 0 3 0.347 0.341 0.020 109.677 o
12 0 4 0.216 0.200 0.010 438.710 o
12 0 5 0.012 0.010 0.331 0.403 o
12 0 6 0.005 0.040 0.321 0.428 o
12 0 7 0.000 0.030 0.311 0.457 o
12 0 8 0.023 0.050 0.311 0.457 o
12 1 0 0.068 0.050 0.291 0.522 o
12 1 1 0.094 0.080 0.020 109.677 o
12 1 2 0.026 0.050 0.281 0.560 o
12 1 3 0.269 0.281 0.010 438.710 o
12 1 4 0.367 0.371 0.020 109.677 o
12 1 5 0.160 0.160 0.010 438.710 o
12 1 6 0.073 0.010 0.291 0.522 o
12 1 7 0.355 0.361 0.020 109.677 o
12 1 8 0.195 0.190 0.010 438.710 o
12 2 0 1.204 1.172 0.030 48.745 o
12 2 1 0.364 0.361 0.010 438.710 o
12 2 2 0.109 0.120 0.020 109.677 o
12 2 3 0.178 0.170 0.010 438.710 o
12 2 4 0.311 0.291 0.010 438.710 o
12 2 5 0.066 0.010 0.291 0.522 o
12 2 6 0.035 0.000 0.281 0.560 o
12 2 7 0.034 0.050 0.281 0.560 o
12 2 8 0.055 0.060 0.010 438.710 o
12 3 0 0.015 0.030 0.281 0.560 o
12 3 1 0.087 0.090 0.010 438.710 o
12 3 2 0.012 0.030 0.200 1.097 o
12 3 3 0.186 0.180 0.010 438.710 o
12 3 4 0.268 0.271 0.010 438.710 o
12 3 5 0.134 0.140 0.020 109.677 o
12 3 6 0.047 0.070 0.020 109.677 o
12 3 7 0.307 0.291 0.010 438.710 o
12 4 0 0.447 0.471 0.020 109.677 o
12 4 1 0.315 0.291 0.010 438.710 o
12 4 2 0.027 0.010 0.291 0.522 o
12 4 3 0.354 0.321 0.010 438.710 o
12 4 4 0.140 0.140 0.010 438.710 o
12 4 5 0.007 0.000 0.281 0.560 o
12 4 6 0.001 -0.010 0.281 0.560 o
12 4 7 0.014 0.030 0.271 0.602 o
12 5 0 0.152 0.120 0.020 109.677 o
12 5 1 0.026 0.020 0.291 0.522 o
12 5 2 0.101 0.100 0.020 109.677 o
12 5 3 0.154 0.130 0.010 438.710 o
12 5 4 0.530 0.551 0.020 109.677 o
12 5 5 0.066 0.060 0.281 0.560 o
12 5 6 0.096 0.080 0.281 0.560 o
12 5 7 0.055 0.030 0.260 0.649 o
12 6 0 0.131 0.150 0.010 438.710 o
12 6 1 0.275 0.271 0.010 438.710 o
12 6 2 0.060 0.050 0.210 0.995 o
12 6 3 0.348 0.381 0.020 109.677 o
12 6 4 0.096 0.080 0.020 109.677 o
12 6 5 0.025 0.030 0.200 1.097 o
12 6 6 0.010 0.010 0.271 0.602 o
12 7 0 0.001 -0.010 0.281 0.560 o
12 7 1 0.019 0.010 0.200 1.097 o
12 7 2 0.001 0.000 0.281 0.560 o
12 7 3 0.050 0.060 0.010 438.710 o
12 7 4 0.116 0.130 0.010 438.710 o
12 7 5 0.037 0.000 0.190 1.215 o
12 8 0 0.417 0.431 0.020 109.677 o
12 8 1 0.078 0.060 0.020 109.677 o
12 8 2 0.062 0.090 0.020 109.677 o
12 8 3 0.003 0.000 0.271 0.602 o
12 8 4 0.099 0.100 0.020 109.677 o
12 9 0 0.048 0.050 0.281 0.560 o
12 9 1 0.112 0.060 0.020 109.677 o
12 9 2 0.049 0.000 0.281 0.560 o
12 9 3 0.087 0.070 0.020 109.677 o
13 0 1 0.096 0.080 0.020 109.677 o
13 0 2 0.010 0.030 0.210 0.995 o
13 0 3 0.115 0.120 0.020 109.677 o
13 0 4 0.119 0.110 0.010 438.710 o
13 0 5 0.116 0.090 0.020 109.677 o
13 0 6 0.016 0.000 0.321 0.428 o
13 0 7 0.250 0.200 0.010 438.710 o
13 1 0 0.685 0.671 0.030 48.745 o
13 1 1 0.152 0.150 0.010 438.710 o
13 1 2 0.039 0.000 0.291 0.522 o
13 1 3 0.093 0.100 0.010 438.710 o
13 1 4 0.142 0.130 0.010 438.710 o
13 1 5 0.022 0.010 0.200 1.097 o
13 1 6 0.022 0.010 0.190 1.215 o
13 1 7 0.005 0.030 0.260 0.649 o
13 2 0 0.007 0.010 0.281 0.560 o
13 2 1 0.035 0.020 0.281 0.560 o
13 2 2 0.004 0.000 0.281 0.560 o
13 2 3 0.100 0.090 0.020 109.677 o
13 2 4 0.189 0.160 0.010 438.710 o
13 2 5 0.065 0.020 0.291 0.522 o
13 2 6 0.029 0.050 0.271 0.602 o
13 3 0 0.251 0.240 0.010 438.710 o
13 3 1 0.197 0.190 0.010 438.710 o
13 3 2 0.004 0.000 0.291 0.522 o
13 3 3 0.242 0.220 0.010 438.710 o
13 3 4 0.072 0.050 0.291 0.522 o
13 3 5 0.001 0.010 0.281 0.560 o
13 3 6 0.000 0.010 0.271 0.602 o
13 4 0 0.049 0.020 0.200 1.097 o
13 4 1 0.007 0.030 0.281 0.560 o
13 4 2 0.048 0.040 0.281 0.560 o
13 4 3 0.073 0.070 0.020 109.677 o
13 4 4 0.317 0.301 0.010 438.710 o
13 4 5 0.028 -0.030 0.321 0.428 o
13 4 6 0.044 0.050 0.190 1.215 o
13 5 0 0.116 0.130 0.010 438.710 o
13 5 1 0.163 0.170 0.010 438.710 o
13 5 2 0.026 -0.010 0.281 0.560 o
13 5 3 0.208 0.180 0.010 438.710 o
13 5 4 0.057 0.000 0.281 0.560 o
13 5 5 0.011 0.040 0.260 0.649 o
13 6 0 0.001 0.010 0.281 0.560 o
13 6 1 0.016 0.010 0.281 0.560 o
13 6 2 0.000 0.000 0.281 0.560 o
13 6 3 0.036 0.060 0.271 0.602 o
13 6 4 0.080 0.080 0.020 109.677 o
13 6 5 0.029 -0.010 0.271 0.602 o
13 7 0 0.298 0.260 0.010 438.710 o
13 7 1 0.052 0.050 0.020 109.677 o
13 7 2 0.039 0.020 0.160 1.714 o
13 7 3 0.005 0.000 0.190 1.215 o
13 7 4 0.068 0.040 0.271 0.602 o
13 8 0 0.030 0.010 0.271 0.602 o
13 8 1 0.077 0.060 0.020 109.677 o
13 8 2 0.031 0.050 0.260 0.649 o
14 0 0 0.363 0.331 0.020 109.677 o
14 0 1 0.064 0.010 0.331 0.403 o
14 0 2 0.019 0.010 0.210 0.995 o
14 0 3 0.041 -0.010 0.331 0.403 o
14 0 4 0.071 0.080 0.020 109.677 o
14 0 5 0.009 0.000 0.311 0.457 o
14 1 0 0.000 0.010 0.281 0.560 o
14 1 1 0.030 0.030 0.281 0.560 o
14 1 2 0.001 -0.050 0.291 0.522 o
14 1 3 0.048 0.020 0.281 0.560 o
14 1 4 0.079 0.060 0.281 0.560 o
14 1 5 0.046 0.020 0.271 0.602 o
14 2 0 0.176 0.170 0.010 438.710 o
14 2 1 0.096 0.100 0.020 109.677 o
14 2 2 0.005 -0.010 0.281 0.560 o
14 2 3 0.108 0.090 0.020 109.677 o
14 2 4 0.045 0.040 0.271 0.602 o
14 2 5 0.001 -0.020 0.271 0.602 o
14 3 0 0.014 0.010 0.281 0.560 o
14 3 1 0.001 0.000 0.281 0.560 o
14 3 2 0.018 0.020 0.281 0.560 o
14 3 3 0.037 0.040 0.281 0.560 o
14 3 4 0.159 0.110 0.020 109.677 o
14 3 5 0.014 -0.020 0.260 0.649 o
14 4 0 0.084 0.070 0.010 438.710 o
14 4 1 0.089 0.070 0.020 109.677 o
14 4 2 0.007 -0.010 0.281 0.560 o
14 4 3 0.117 0.110 0.020 109.677 o
14 4 4 0.029 -0.010 0.190 1.215 o
14 5 0 0.000 -0.030 0.281 0.560 o
14 5 1 0.010 -0.020 0.200 1.097 o
14 5 2 0.001 0.000 0.271 0.602 o
14 5 3 0.024 0.040 0.271 0.602 o
14 6 0 0.182 0.170 0.010 438.710 o
14 6 1 0.032 -0.010 0.190 1.215 o
14 6 2 0.020 0.000 0.271 0.602 o
15 0 1 0.011 -0.010 0.321 0.428 o
15 0 2 0.000 -0.040 0.321 0.428 o
15 0 3 0.020 0.040 0.301 0.487 o
15 1 0 0.107 0.080 0.281 0.560 o
15 1 1 0.043 0.030 0.190 1.215 o
15 1 2 0.004 0.030 0.260 0.649 o
15 1 3 0.044 0.030 0.190 1.215 o
15 2 0 0.006 0.020 0.271 0.602 o
15 2 1 0.003 0.000 0.271 0.602 o
15 2 2 0.005 -0.010 0.271 0.602 o
15 3 0 0.063 0.060 0.271 0.602 o
15 3 1 0.042 -0.020 0.271 0.602 o
15 3 2 0.003 0.010 0.260 0.649 o
15 4 0 0.000 0.010 0.190 1.215 o
;
_olex2_submission_special_instructions 'No special instructions were received'
loop_
_space_group_symop_id
_space_group_symop_operation_xyz
1 x,y,z
2 y,-x,-z
3 -y,x,-z
4 x+1/2,-y+1/2,-z
5 -x+1/2,y+1/2,-z
6 -x,-y,z
7 -y+1/2,-x+1/2,z
8 y+1/2,x+1/2,z
loop_
_atom_site_label
_atom_site_type_symbol
_atom_site_fract_x
_atom_site_fract_y
_atom_site_fract_z
_atom_site_U_iso_or_equiv
_atom_site_adp_type
_atom_site_occupancy
_atom_site_site_symmetry_order
_atom_site_refinement_flags_posn
_atom_site_refinement_flags_adp
_atom_site_refinement_flags_occupancy
O O 0.0 0.5 0.59609(4) 0.01509(5) Uani 1.000000 4 S T P
N N 0.14465(3) 0.64465(3) 0.17900(4) 0.02229(5) Uani 1.000000 2 S T P
H1 H 0.2547(3) 0.7547(3) 0.2838(4) 0.0455(10) Uani 1.000000 2 S T P
H2 H 0.1433(3) 0.6433(3) -0.0328(6) 0.0381(7) Uani 1.000000 2 S T P
C C 0.0 0.5 0.32826(3) 0.01195(2) Uani 1.000000 4 S T P
loop_
_atom_site_aniso_label
_atom_site_aniso_U_11
_atom_site_aniso_U_22
_atom_site_aniso_U_33
_atom_site_aniso_U_12
_atom_site_aniso_U_13
_atom_site_aniso_U_23
O 0.01933(7) 0.01933(7) 0.00659(7) 0.00165(10) -0.000000 0.000000
N 0.02879(8) 0.02879(8) 0.00930(7) -0.01466(11) 0.00001(5) 0.00001(5)
H1 0.0563(16) 0.0563(16) 0.0238(17) -0.0380(19) -0.0032(10) -0.0032(10)
H2 0.0454(11) 0.0454(11) 0.0233(14) -0.018(2) -0.0015(10) -0.0015(10)
C 0.01462(3) 0.01462(3) 0.00660(3) -0.00010(6) -0.000000 0.000000
loop_
_atom_type_symbol
_atom_type_scat_dispersion_real
_atom_type_scat_dispersion_imag
_atom_type_scat_Cromer_Mann_a1
_atom_type_scat_Cromer_Mann_a2
_atom_type_scat_Cromer_Mann_a3
_atom_type_scat_Cromer_Mann_a4
_atom_type_scat_Cromer_Mann_b1
_atom_type_scat_Cromer_Mann_b2
_atom_type_scat_Cromer_Mann_b3
_atom_type_scat_Cromer_Mann_b4
_atom_type_scat_Cromer_Mann_c
_atom_type_scat_source
_atom_type_scat_dispersion_source
C 0.00200 0.00100 2.31000 1.02000 1.58860 0.86500 20.84390 10.20750 0.56870
51.65120 0.21560 'International Tables Volume C Table 6.1.1.4 (pp. 500-502)'
custom
H 0.00000 0.00000 0.49300 0.32291 0.14019 0.04081 10.51090 26.12570 3.14236
57.79970 0.00304 'International Tables Volume C Table 6.1.1.4 (pp. 500-502)'
custom
N 0.00400 0.00200 12.21260 3.13220 2.01250 1.16630 0.00570 9.89330 28.99750
0.58260 -11.52900 'International Tables Volume C Table 6.1.1.4 (pp. 500-502)'
custom
O 0.00700 0.00400 3.04850 2.28680 1.54630 0.86700 13.27710 5.70110 0.32390
32.90890 0.25080 'International Tables Volume C Table 6.1.1.4 (pp. 500-502)'
custom
loop_
_diffrn_refln_index_h
_diffrn_refln_index_k
_diffrn_refln_index_l
_diffrn_refln_intensity_net
_diffrn_refln_intensity_u
0 0 1 13.43 0.05
0 0 2 134.84 0.83
0 0 3 13.63 0.08
0 0 4 29.83 0.18
0 0 5 49.07 0.36
0 0 6 15.8 0.19
0 0 7 0.27 0.03
0 0 8 14.75 0.25
0 0 9 3.66 0.1
0 0 10 2.9 0.09
0 0 11 0.07 0.26
0 0 12 3.81 0.11
0 0 13 0.18 0.02
1 0 1 149.93 0.18
1 0 2 153.21 0.27
1 0 3 87.74 0.19
1 0 4 2.22 0.03
1 0 5 19.08 0.1
1 0 6 0.53 0.03
1 0 7 43.28 0.34
1 0 8 6.15 0.07
1 0 9 -0.01 0.32
1 0 10 0.19 0.01
1 0 11 1.43 0.04
1 0 12 1.26 0.04
1 0 13 0 0.31
1 1 0 1008.37 1.92
1 1 1 283.48 0.51
1 1 2 52.93 0.12
1 1 3 11.61 0.06
1 1 4 43.49 0.18
1 1 5 17.01 0.11
1 1 6 2.97 0.03
1 1 7 5.7 0.08
1 1 8 4.5 0.07
1 1 9 1.31 0.05
1 1 10 3.26 0.07
1 1 11 1.65 0.05
1 1 12 2.47 0.06
1 1 13 0.23 0.02
2 0 0 155.94 0.3
2 0 1 197.72 0.26
2 0 2 8.3 0.03
2 0 3 49.67 0.13
2 0 4 20.15 0.09
2 0 5 0.56 0.03
2 0 6 1.47 0.02
2 0 7 0.27 0.01
2 0 8 0.05 0.2
2 0 9 0.36 0.02
2 0 10 1.08 0.04
2 0 11 4.34 0.07
2 0 12 1.07 0.04
2 0 13 -0.03 0.3
2 1 0 226.92 0.28
2 1 1 49.58 0.08
2 1 2 30.24 0.07
2 1 3 68.66 0.16
2 1 4 45.35 0.14
2 1 5 13.59 0.07
2 1 6 13.93 0.09
2 1 7 10.8 0.09
2 1 8 14.94 0.13
2 1 9 3.31 0.05
2 1 10 1.2 0.03
2 1 11 1.91 0.04
2 1 12 0.42 0.02
2 1 13 0.21 0.01
2 2 0 227.4 0.42
2 2 1 199.86 0.39
2 2 2 54.79 0.16
2 2 3 27.54 0.12
2 2 4 43.47 0.21
2 2 5 9.79 0.08
2 2 6 2.76 0.05
2 2 7 10.1 0.12
2 2 8 1.85 0.05
2 2 9 1.67 0.05
2 2 10 3.67 0.07
2 2 11 2.78 0.06
2 2 12 1.75 0.05
3 0 1 93.42 0.17
3 0 2 17.83 0.06
3 0 3 11.62 0.05
3 0 4 104.96 0.38
3 0 5 0.37 0.02
3 0 6 10.89 0.09
3 0 7 0.5 0.02
3 0 8 15.59 0.16
3 0 9 4.27 0.06
3 0 10 4.84 0.07
3 0 11 0.41 0.02
3 0 12 0.04 0.17
3 1 0 29.12 0.07
3 1 1 142.36 0.23
3 1 2 14.88 0.05
3 1 3 66.21 0.18
3 1 4 14.52 0.07
3 1 5 1.67 0.03
3 1 6 5.24 0.05
3 1 7 1.54 0.03
3 1 8 0.47 0.02
3 1 9 1.49 0.03
3 1 10 1.08 0.03
3 1 11 5.42 0.07
3 1 12 0.59 0.03
3 2 0 17.41 0.05
3 2 1 5.13 0.03
3 2 2 11.01 0.04
3 2 3 25.65 0.09
3 2 4 13.67 0.07
3 2 5 7.64 0.05
3 2 6 3.05 0.04
3 2 7 16.15 0.13
3 2 8 7.06 0.07
3 2 9 0.68 0.03
3 2 10 0.12 0.02
3 2 11 0.95 0.03
3 2 12 0.41 0.02
3 3 0 219.52 0.62
3 3 1 8.13 0.05
3 3 2 7.96 0.06
3 3 3 0.51 0.03
3 3 4 15.79 0.12
3 3 5 13.38 0.09
3 3 6 5.59 0.07
3 3 7 0.15 0.02
3 3 8 5.63 0.09
3 3 9 0.99 0.05
3 3 10 1.5 0.05
3 3 11 0.31 0.02
3 3 12 1.98 0.05
4 0 0 5.51 0.06
4 0 1 97.62 0.24
4 0 2 7.68 0.04
4 0 3 71.92 0.25
4 0 4 5.92 0.05
4 0 5 2.61 0.04
4 0 6 7.8 0.07
4 0 7 0.16 0.01
4 0 8 1.12 0.04
4 0 9 2.14 0.05
4 0 10 0.42 0.02
4 0 11 6.01 0.09
4 0 12 0.23 0.01
4 1 0 7.14 0.04
4 1 1 11.66 0.04
4 1 2 2.75 0.03
4 1 3 13.13 0.06
4 1 4 43.02 0.18
4 1 5 1.52 0.03
4 1 6 5.75 0.05
4 1 7 3.4 0.04
4 1 8 10.12 0.1
4 1 9 1.87 0.04
4 1 10 1.81 0.04
4 1 11 0.57 0.02
4 1 12 0.03 0.28
4 2 0 93.4 0.22
4 2 1 25.72 0.08
4 2 2 5.44 0.03
4 2 3 4.23 0.03
4 2 4 16.61 0.09
4 2 5 5.31 0.03
4 2 6 1.13 0.03
4 2 7 1.7 0.03
4 2 8 1.86 0.04
4 2 9 0.39 0.02
4 2 10 1.43 0.04
4 2 11 1.2 0.03
4 2 12 1.23 0.03
4 3 0 3.26 0.03
4 3 1 20.6 0.08
4 3 2 18.74 0.08
4 3 3 16.82 0.08
4 3 4 0.31 0.02
4 3 5 13.27 0.09
4 3 6 1.15 0.03
4 3 7 24.11 0.2
4 3 8 3.04 0.04
4 3 9 0.21 0.01
4 3 10 0.25 0.01
4 3 11 1.05 0.03
4 3 12 0.74 0.03
4 4 0 83.03 0.39
4 4 1 4.76 0.05
4 4 2 4.01 0.05
4 4 3 0.16 0.01
4 4 4 8.7 0.06
4 4 5 5.58 0.07
4 4 6 2.58 0.05
4 4 7 0.12 0.02
4 4 8 2.98 0.06
4 4 9 0.45 0.02
4 4 10 0.74 0.05
4 4 11 0.35 0.02
4 4 12 1.18 0.05
5 0 1 0.1 0.01
5 0 2 0.09 0.02
5 0 3 8.53 0.06
5 0 4 17.98 0.11
5 0 5 1.89 0.04
5 0 6 1.99 0.04
5 0 7 6.36 0.08
5 0 8 5.97 0.08
5 0 9 0.55 0.03
5 0 10 0.53 0.03
5 0 11 0.45 0.02
5 0 12 0.09 0.02
5 1 0 42.29 0.15
5 1 1 30.35 0.1
5 1 2 8.27 0.05
5 1 3 10.23 0.06
5 1 4 15.48 0.09
5 1 5 3.4 0.04
5 1 6 0.77 0.03
5 1 7 3.04 0.04
5 1 8 0.84 0.03
5 1 9 0.59 0.02
5 1 10 1.57 0.04
5 1 11 1.77 0.04
5 1 12 0.82 0.03
5 2 0 21.44 0.08
5 2 1 7.21 0.04
5 2 2 7.42 0.04
5 2 3 21.37 0.1
5 2 4 7.59 0.06
5 2 5 9.18 0.07
5 2 6 6.19 0.06
5 2 7 10.25 0.1
5 2 8 6.63 0.07
5 2 9 1.36 0.03
5 2 10 0.12 0.01
5 2 11 1.26 0.03
5 2 12 0.41 0.01
5 3 0 43.2 0.16
5 3 1 11.86 0.06
5 3 2 2.26 0.03
5 3 3 3.38 0.03
5 3 4 8.52 0.06
5 3 5 2.42 0.03
5 3 6 0.57 0.02
5 3 7 0.81 0.03
5 3 8 1.07 0.03
5 3 9 0.18 0.01
5 3 10 0.86 0.03
5 3 11 0.82 0.03
5 3 12 0.71 0.03
5 4 0 2.89 0.03
5 4 1 0.48 0.02
5 4 2 0.69 0.03
5 4 3 5.74 0.03
5 4 4 8.46 0.07
5 4 5 2.6 0.04
5 4 6 1.59 0.03
5 4 7 5.1 0.06
5 4 8 3.62 0.05
5 4 9 0.46 0.02
5 4 10 0.25 0.01
5 4 11 0.48 0.02
5 4 12 0.11 0.01
5 5 0 6.77 0.07
5 5 1 15.65 0.14
5 5 2 5.01 0.04
5 5 3 10.28 0.11
5 5 4 6.97 0.09
5 5 5 1.67 0.05
5 5 6 0.82 0.04
5 5 7 2.44 0.06
5 5 8 0.25 0.02
5 5 9 0.51 0.03
5 5 10 0.82 0.05
5 5 11 1.41 0.05
6 0 0 61.56 0.41
6 0 1 4.47 0.04
6 0 2 2.56 0.03
6 0 3 0.23 0.01
6 0 4 7.77 0.07
6 0 5 4.39 0.05
6 0 6 1.96 0.04
6 0 7 0.03 0.33
6 0 8 2.36 0.05
6 0 9 0.27 0.01
6 0 10 0.74 0.04
6 0 11 0.44 0.02
6 0 12 1.02 0.03
6 1 0 5.33 0.04
6 1 1 5.69 0.04
6 1 2 4.7 0.04
6 1 3 10.53 0.07
6 1 4 2.92 0.04
6 1 5 6.46 0.06
6 1 6 1.92 0.03
6 1 7 10.92 0.11
6 1 8 3.31 0.05
6 1 9 0.38 0.02
6 1 10 -0.01 0.28
6 1 11 0.73 0.03
6 1 12 0.32 0.01
6 2 0 23.48 0.11
6 2 1 13.77 0.08
6 2 2 2.85 0.03
6 2 3 6.21 0.04
6 2 4 7.58 0.06
6 2 5 1.55 0.03
6 2 6 0.31 0.01
6 2 7 1.3 0.03
6 2 8 0.61 0.02
6 2 9 0.25 0.01
6 2 10 0.84 0.03
6 2 11 1.18 0.03
6 2 12 0.55 0.03
6 3 0 0.04 0.23
6 3 1 0.89 0.03
6 3 2 0.92 0.03
6 3 3 2.88 0.04
6 3 4 15.21 0.11
6 3 5 0.33 0.01
6 3 6 1.76 0.04
6 3 7 1.79 0.03
6 3 8 4.34 0.06
6 3 9 0.6 0.02
6 3 10 0.78 0.03
6 3 11 0.23 0.01
6 4 0 2.47 0.03
6 4 1 13.49 0.06
6 4 2 2.63 0.03
6 4 3 14.8 0.1
6 4 4 3.45 0.04
6 4 5 0.87 0.03
6 4 6 1.31 0.03
6 4 7 0.92 0.03
6 4 8 0.16 0.01
6 4 9 0.63 0.03
6 4 10 0.4 0.02
6 4 11 1.72 0.04
6 5 0 4.17 0.04
6 5 1 0.86 0.03
6 5 2 1.57 0.03
6 5 3 4.04 0.05
6 5 4 9.33 0.08
6 5 5 1.54 0.03
6 5 6 2.1 0.04
6 5 7 1.28 0.03
6 5 8 3.14 0.05
6 5 9 0.76 0.03
6 5 10 0.49 0.02
6 5 11 0.28 0.01
6 6 0 8.51 0.1
6 6 1 2.73 0.05
6 6 2 0.43 0.03
6 6 3 1.77 0.05
6 6 4 1.94 0.05
6 6 5 0.29 0.02
6 6 6 0.04 0.23
6 6 7 0.16 0.02
6 6 8 0.23 0.02
6 6 9 0.05 0.39
6 6 10 0.2 0.02
6 6 11 0.37 0.03
7 0 1 8.53 0.07
7 0 2 5.14 0.04
7 0 3 5.27 0.05
7 0 4 0.18 0.01
7 0 5 6.29 0.07
7 0 6 0.05 0.31
7 0 7 11.98 0.14
7 0 8 1.24 0.04
7 0 9 0.05 0.32
7 0 10 0.09 0.02
7 0 11 0.48 0.03
7 1 0 31.5 0.18
7 1 1 3.19 0.04
7 1 2 1.45 0.02
7 1 3 0.61 0.02
7 1 4 4.61 0.05
7 1 5 2.06 0.03
7 1 6 1.02 0.03
7 1 7 0.08 0.02
7 1 8 1.24 0.03
7 1 9 0.1 0.01
7 1 10 0.41 0.02
7 1 11 0.36 0.01
7 2 0 0.28 0.01
7 2 1 0.01 0.17
7 2 2 0.17 0.01
7 2 3 2.72 0.04
7 2 4 8.34 0.07
7 2 5 0.87 0.03
7 2 6 0.95 0.03
7 2 7 2.6 0.04
7 2 8 2.94 0.05
7 2 9 0.28 0.01
7 2 10 0.39 0.01
7 2 11 0.22 0.01
7 3 0 1.38 0.03
7 3 1 10.72 0.08
7 3 2 1.45 0.03
7 3 3 14.03 0.11
7 3 4 1.84 0.03
7 3 5 0.65 0.03
7 3 6 1.36 0.03
7 3 7 0.32 0.01
7 3 8 0.18 0.01
7 3 9 0.58 0.03
7 3 10 0.27 0.01
7 3 11 1.63 0.03
7 4 0 1 0.03
7 4 1 1.35 0.03
7 4 2 1.82 0.03
7 4 3 1.7 0.03
7 4 4 11.59 0.1
7 4 5 0.34 0.01
7 4 6 1.47 0.03
7 4 7 0.45 0.02
7 4 8 3.05 0.05
7 4 9 0.55 0.03
7 4 10 0.78 0.03
7 4 11 0.14 0.01
7 5 0 5.83 0.06
7 5 1 3.18 0.04
7 5 2 0.1 0.03
7 5 3 2.86 0.04
7 5 4 1.43 0.03
7 5 5 0.08 0.02
7 5 6 0.01 0.2
7 5 7 0.01 0.29
7 5 8 0.09 0.02
7 5 9 0.04 0.28
7 5 10 0.16 0.01
7 5 11 0.48 0.02
7 6 0 0.52 0.02
7 6 1 2.21 0.04
7 6 2 1.1 0.03
7 6 3 2.15 0.04
7 6 4 0.36 0.01
7 6 5 1.87 0.04
7 6 6 0.32 0.01
7 6 7 3.56 0.05
7 6 8 0.71 0.03
7 6 9 -0.01 0.29
7 6 10 -0.03 0.27
7 7 1 1.29 0.05
7 7 2 1.39 0.05
7 7 3 0 0.39
7 7 4 1.93 0.06
7 7 5 1.11 0.05
7 7 6 0.88 0.05
7 7 7 0.29 0.02
7 7 8 0.7 0.04
7 7 9 0.17 0.02
7 7 10 0.21 0.02
8 0 0 17.21 0.14
8 0 1 2.28 0.04
8 0 2 0.82 0.03
8 0 3 0.8 0.03
8 0 4 2.74 0.05
8 0 5 0.9 0.03
8 0 6 0.51 0.02
8 0 7 0.06 0.33
8 0 8 0.66 0.03
8 0 9 0.01 0.33
8 0 10 0.25 0.01
8 0 11 0.29 0.01
8 1 0 1.5 0.03
8 1 1 0.97 0.03
8 1 2 0.62 0.02
8 1 3 3.18 0.04
8 1 4 2.92 0.04
8 1 5 1.98 0.04
8 1 6 0.78 0.03
8 1 7 3.53 0.05
8 1 8 1.66 0.04
8 1 9 0.22 0.01
8 1 10 0.02 0.28
8 1 11 0.28 0.01
8 2 0 4.68 0.05
8 2 1 6.56 0.06
8 2 2 1.56 0.03
8 2 3 5.14 0.05
8 2 4 3.07 0.04
8 2 5 0.56 0.02
8 2 6 0.26 0.01
8 2 7 0.83 0.03
8 2 8 0.12 0.01
8 2 9 0.19 0.01
8 2 10 0.39 0.02
8 2 11 0.79 0.03
8 3 0 1.13 0.03
8 3 1 0.39 0.01
8 3 2 0.87 0.03
8 3 3 1.84 0.03
8 3 4 7.04 0.07
8 3 5 0.52 0.02
8 3 6 1.1 0.03
8 3 7 0.81 0.03
8 3 8 2.09 0.04
8 3 9 0.37 0.02
8 3 10 0.4 0.02
8 3 11 0.14 0.01
8 4 0 4.16 0.05
8 4 1 2.93 0.04
8 4 2 0.03 0.26
8 4 3 2.95 0.04
8 4 4 1.13 0.03
8 4 5 0.02 0.28
8 4 6 0.09 0.03
8 4 7 0.03 0.16
8 4 8 0.05 0.02
8 4 9 0.05 0.2
8 4 10 0.17 0.01
8 5 0 0.99 0.03
8 5 1 1.35 0.03
8 5 2 0.72 0.03
8 5 3 2.21 0.04
8 5 4 0.79 0.03
8 5 5 1.34 0.03
8 5 6 0.6 0.03
8 5 7 2.36 0.04
8 5 8 0.88 0.03
8 5 9 0.09 0.02
8 5 10 0.02 0.26
8 6 0 8.42 0.09
8 6 1 1.5 0.04
8 6 2 1.2 0.03
8 6 3 0.02 0.28
8 6 4 1.98 0.04
8 6 5 1.02 0.03
8 6 6 0.59 0.03
8 6 7 0.31 0.02
8 6 8 0.56 0.02
8 6 9 0.13 0.01
8 6 10 0.24 0.02
8 7 0 0.14 0.02
8 7 1 0.56 0.03
8 7 2 0.22 0.01
8 7 3 0.78 0.03
8 7 4 0.35 0.02
8 7 5 0.65 0.03
8 7 6 0.15 0.02
8 7 7 1.26 0.04
8 7 8 0.36 0.01
8 7 9 0 0.27
8 8 0 0.89 0.05
8 8 1 0.87 0.04
8 8 2 0.16 0.02
8 8 3 0.96 0.05
8 8 4 0.35 0.02
8 8 5 0.01 0.41
8 8 6 0 0.41
8 8 7 0.03 0.41
8 8 8 0.01 0.39
9 0 1 -0.02 0.3
9 0 2 0.09 0.02
9 0 3 1.02 0.04
9 0 4 3.88 0.06
9 0 5 0.35 0.02
9 0 6 0.45 0.02
9 0 7 1.15 0.04
9 0 8 1.34 0.04
9 0 9 0.12 0.02
9 0 10 0.19 0.01
9 1 0 3.6 0.04
9 1 1 3.63 0.04
9 1 2 0.64 0.02
9 1 3 3.13 0.04
9 1 4 1.67 0.04
9 1 5 0.26 0.01
9 1 6 0.05 0.2
9 1 7 0.32 0.01
9 1 8 0.03 0.29
9 1 9 0.07 0.01
9 1 10 0.2 0.01
9 2 0 1.4 0.03
9 2 1 0.23 0.01
9 2 2 0.41 0.01
9 2 3 1.91 0.04
9 2 4 3.13 0.04
9 2 5 0.79 0.03
9 2 6 0.83 0.03
9 2 7 1.19 0.03
9 2 8 1.25 0.04
9 2 9 0.22 0.01
9 2 10 0.11 0.01
9 3 0 5.27 0.06
9 3 1 1.63 0.03
9 3 2 0.19 0.01
9 3 3 1.14 0.03
9 3 4 1.06 0.03
9 3 5 0.12 0.01
9 3 6 0.04 0.2
9 3 7 0.03 0.2
9 3 8 0.13 0.01
9 3 9 0.02 0.28
9 3 10 0.09 0.02
9 4 0 0.42 0.02
9 4 1 1.07 0.03
9 4 2 0.48 0.02
9 4 3 1.4 0.03
9 4 4 0.54 0.02
9 4 5 1.04 0.03
9 4 6 0.29 0.01
9 4 7 2.04 0.04
9 4 8 0.62 0.03
9 4 9 0.05 0.28
9 4 10 -0.03 0.27
9 5 0 6.29 0.07
9 5 1 1.36 0.03
9 5 2 0.98 0.03
9 5 3 0.06 0.02
9 5 4 1.6 0.04
9 5 5 0.65 0.03
9 5 6 0.38 0.01
9 5 7 0.28 0.01
9 5 8 0.38 0.02
9 5 9 0.05 0.2
9 6 0 0.18 0.01
9 6 1 0.42 0.02
9 6 2 0.15 0.01
9 6 3 0.77 0.03
9 6 4 0.5 0.02
9 6 5 0.45 0.02
9 6 6 0.16 0.01
9 6 7 0.94 0.03
9 6 8 0.4 0.01
9 6 9 0.03 0.27
9 7 0 0.81 0.03
9 7 1 0.9 0.03
9 7 2 0.05 0.2
9 7 3 0.99 0.03
9 7 4 0.3 0.01
9 7 5 -0.04 0.29
9 7 6 0.04 0.28
9 7 7 0.03 0.28
9 7 8 0.01 0.27
9 8 0 0.58 0.02
9 8 1 0.17 0.01
9 8 2 0.4 0.02
9 8 3 0.38 0.02
9 8 4 1.42 0.04
9 8 5 0.2 0.01
9 8 6 0.29 0.01
9 8 7 0.03 0.2
9 8 8 0.37 0.02
9 9 0 0.11 0.02
9 9 1 0.66 0.04
9 9 2 0.16 0.02
9 9 3 0.79 0.04
9 9 4 0.22 0.02
9 9 5 0.06 0.4
9 9 6 0.06 0.22
9 9 7 0.07 0.38
10 0 0 0.93 0.04
10 0 1 2.26 0.04
10 0 2 0.05 0.32
10 0 3 3.13 0.05
10 0 4 0.47 0.02
10 0 5 0.07 0.33
10 0 6 0.19 0.01
10 0 7 0 0.33
10 0 8 0.04 0.32
10 0 9 0.1 0.02
10 0 10 0.09 0.51
10 1 0 0.1 0.01
10 1 1 0.02 0.27
10 1 2 0.2 0.01
10 1 3 0.61 0.02
10 1 4 2.71 0.04
10 1 5 0.13 0.01
10 1 6 0.33 0.01
10 1 7 0.5 0.02
10 1 8 0.89 0.03
10 1 9 0.07 0.02
10 1 10 0.18 0.02
10 2 0 3.37 0.05
10 2 1 1.07 0.03
10 2 2 0.09 0.03
10 2 3 0.85 0.03
10 2 4 0.77 0.03
10 2 5 0.06 0.02
10 2 6 0.01 0.28
10 2 7 0.02 0.28
10 2 8 0.09 0.01
10 2 9 -0.02 0.28
10 2 10 0.04 0.37
10 3 0 0.07 0.02
10 3 1 0.87 0.03
10 3 2 0.32 0.01
10 3 3 0.85 0.03
10 3 4 0.31 0.01
10 3 5 0.78 0.03
10 3 6 0.11 0.02
10 3 7 1.55 0.04
10 3 8 0.29 0.01
10 3 9 0.05 0.27
10 4 0 5.09 0.07
10 4 1 0.61 0.02
10 4 2 0.5 0.02
10 4 3 0.03 0.28
10 4 4 1.01 0.03
10 4 5 0.4 0.02
10 4 6 0.31 0.01
10 4 7 0.08 0.02
10 4 8 0.26 0.01
10 4 9 -0.02 0.19
10 5 0 0.06 0.02
10 5 1 0.34 0.01
10 5 2 0.1 0.02
10 5 3 0.48 0.02
10 5 4 0.38 0.02
10 5 5 0.36 0.02
10 5 6 0.09 0.02
10 5 7 0.78 0.03
10 5 8 0.27 0.01
10 5 9 0 0.26
10 6 0 0.59 0.02
10 6 1 0.7 0.03
10 6 2 0.03 0.2
10 6 3 0.86 0.03
10 6 4 0.23 0.01
10 6 5 -0.01 0.29
10 6 6 0 0.29
10 6 7 0.03 0.2
10 6 8 0 0.27
10 7 0 0.37 0.02
10 7 1 0.13 0.02
10 7 2 0.32 0.01
10 7 3 0.32 0.01
10 7 4 1.28 0.04
10 7 5 0.14 0.01
10 7 6 0.19 0.01
10 7 7 0.02 0.2
10 7 8 0.34 0.01
10 8 0 0.1 0.02
10 8 1 0.51 0.02
10 8 2 0.16 0.01
10 8 3 0.74 0.03
10 8 4 0.17 0.01
10 8 5 0.03 0.2
10 8 6 0.05 0.19
10 8 7 0.05 0.01
10 9 0 0.01 0.2
10 9 1 0.04 0.28
10 9 2 0 0.28
10 9 3 0.07 0.02
10 9 4 0.18 0.01
10 9 5 0.02 0.28
10 9 6 0.03 0.19
10 10 0 0.59 0.04
10 10 1 0.12 0.02
10 10 2 0.07 0.4
10 10 3 -0.02 0.4
10 10 4 0.13 0.02
10 10 5 0.06 0.38
11 0 1 0 0.33
11 0 2 0.08 0.02
11 0 3 0.33 0.02
11 0 4 1.55 0.04
11 0 5 0.02 0.33
11 0 6 0.14 0.02
11 0 7 0.27 0.01
11 0 8 0.5 0.03
11 0 9 -0.01 0.31
11 1 0 1.33 0.03
11 1 1 0.92 0.03
11 1 2 0.03 0.2
11 1 3 0.96 0.03
11 1 4 0.38 0.01
11 1 5 0.02 0.28
11 1 6 0.03 0.28
11 1 7 0.04 0.28
11 1 8 0.04 0.28
11 1 9 0.05 0.26
11 2 0 0.12 0.02
11 2 1 0.24 0.01
11 2 2 0.03 0.2
11 2 3 0.51 0.02
11 2 4 0.42 0.02
11 2 5 0.37 0.01
11 2 6 0.1 0.02
11 2 7 0.74 0.03
11 2 8 0.28 0.01
11 2 9 0.04 0.26
11 3 0 2.79 0.05
11 3 1 0.44 0.02
11 3 2 0.23 0.01
11 3 3 0.09 0.02
11 3 4 0.54 0.03
11 3 5 0.18 0.01
11 3 6 0.15 0.01
11 3 7 0.03 0.28
11 3 8 0.12 0.01
11 4 0 0.02 0.28
11 4 1 0.23 0.01
11 4 2 0.04 0.17
11 4 3 0.32 0.01
11 4 4 0.27 0.01
11 4 5 0.26 0.01
11 4 6 0.05 0.2
11 4 7 0.54 0.03
11 4 8 0.15 0.01
11 5 0 0.63 0.03
11 5 1 0.52 0.02
11 5 2 0.08 0.28
11 5 3 0.52 0.02
11 5 4 0.22 0.01
11 5 5 -0.01 0.29
11 5 6 0.04 0.28
11 5 7 0.05 0.27
11 5 8 -0.02 0.26
11 6 0 0.25 0.01
11 6 1 0.09 0.01
11 6 2 0.21 0.01
11 6 3 0.24 0.01
11 6 4 0.88 0.03
11 6 5 0.1 0.02
11 6 6 0.16 0.01
11 6 7 0.04 0.19
11 7 0 0.12 0.02
11 7 1 0.41 0.02
11 7 2 0.09 0.01
11 7 3 0.52 0.03
11 7 4 0.13 0.01
11 7 5 0.08 0.02
11 7 6 0.06 0.27
11 7 7 0.06 0.26
11 8 0 0 0.28
11 8 1 -0.01 0.29
11 8 2 -0.02 0.29
11 8 3 0.07 0.02
11 8 4 0.16 0.01
11 8 5 0.06 0.19
11 8 6 0.03 0.26
11 9 0 0.53 0.02
11 9 1 0.1 0.01
11 9 2 0.06 0.02
11 9 3 -0.02 0.28
11 9 4 0.13 0.02
11 9 5 0.05 0.19
11 10 0 0.05 0.28
11 10 1 0.11 0.01
11 10 2 0.06 0.02
11 10 3 0.08 0.02
12 0 0 1 0.04
12 0 1 0.37 0.02
12 0 2 0 0.22
12 0 3 0.34 0.02
12 0 4 0.2 0.01
12 0 5 0.01 0.33
12 0 6 0.04 0.32
12 0 7 0.03 0.31
12 0 8 0.05 0.31
12 1 0 0.05 0.29
12 1 1 0.08 0.02
12 1 2 0.05 0.28
12 1 3 0.28 0.01
12 1 4 0.37 0.02
12 1 5 0.16 0.01
12 1 6 0.01 0.29
12 1 7 0.36 0.02
12 1 8 0.19 0.01
12 2 0 1.17 0.03
12 2 1 0.36 0.01
12 2 2 0.12 0.02
12 2 3 0.17 0.01
12 2 4 0.29 0.01
12 2 5 0.01 0.29
12 2 6 0 0.28
12 2 7 0.05 0.28
12 2 8 0.06 0.01
12 3 0 0.03 0.28
12 3 1 0.09 0.01
12 3 2 0.03 0.2
12 3 3 0.18 0.01
12 3 4 0.27 0.01
12 3 5 0.14 0.02
12 3 6 0.07 0.02
12 3 7 0.29 0.01
12 4 0 0.47 0.02
12 4 1 0.29 0.01
12 4 2 0.01 0.29
12 4 3 0.32 0.01
12 4 4 0.14 0.01
12 4 5 0 0.28
12 4 6 -0.01 0.28
12 4 7 0.03 0.27
12 5 0 0.12 0.02
12 5 1 0.02 0.29
12 5 2 0.1 0.02
12 5 3 0.13 0.01
12 5 4 0.55 0.02
12 5 5 0.06 0.28
12 5 6 0.08 0.28
12 5 7 0.03 0.26
12 6 0 0.15 0.01
12 6 1 0.27 0.01
12 6 2 0.05 0.21
12 6 3 0.38 0.02
12 6 4 0.08 0.02
12 6 5 0.03 0.2
12 6 6 0.01 0.27
12 7 0 -0.01 0.28
12 7 1 0.01 0.2
12 7 2 0 0.28
12 7 3 0.06 0.01
12 7 4 0.13 0.01
12 7 5 0 0.19
12 8 0 0.43 0.02
12 8 1 0.06 0.02
12 8 2 0.09 0.02
12 8 3 0 0.27
12 8 4 0.1 0.02
12 9 0 0.05 0.28
12 9 1 0.06 0.02
12 9 2 0 0.28
12 9 3 0.07 0.02
13 0 1 0.08 0.02
13 0 2 0.03 0.21
13 0 3 0.12 0.02
13 0 4 0.11 0.01
13 0 5 0.09 0.02
13 0 6 0 0.32
13 0 7 0.2 0.01
13 1 0 0.67 0.03
13 1 1 0.15 0.01
13 1 2 0 0.29
13 1 3 0.1 0.01
13 1 4 0.13 0.01
13 1 5 0.01 0.2
13 1 6 0.01 0.19
13 1 7 0.03 0.26
13 2 0 0.01 0.28
13 2 1 0.02 0.28
13 2 2 0 0.28
13 2 3 0.09 0.02
13 2 4 0.16 0.01
13 2 5 0.02 0.29
13 2 6 0.05 0.27
13 3 0 0.24 0.01
13 3 1 0.19 0.01
13 3 2 0 0.29
13 3 3 0.22 0.01
13 3 4 0.05 0.29
13 3 5 0.01 0.28
13 3 6 0.01 0.27
13 4 0 0.02 0.2
13 4 1 0.03 0.28
13 4 2 0.04 0.28
13 4 3 0.07 0.02
13 4 4 0.3 0.01
13 4 5 -0.03 0.32
13 4 6 0.05 0.19
13 5 0 0.13 0.01
13 5 1 0.17 0.01
13 5 2 -0.01 0.28
13 5 3 0.18 0.01
13 5 4 0 0.28
13 5 5 0.04 0.26
13 6 0 0.01 0.28
13 6 1 0.01 0.28
13 6 2 0 0.28
13 6 3 0.06 0.27
13 6 4 0.08 0.02
13 6 5 -0.01 0.27
13 7 0 0.26 0.01
13 7 1 0.05 0.02
13 7 2 0.02 0.16
13 7 3 0 0.19
13 7 4 0.04 0.27
13 8 0 0.01 0.27
13 8 1 0.06 0.02
13 8 2 0.05 0.26
14 0 0 0.33 0.02
14 0 1 0.01 0.33
14 0 2 0.01 0.21
14 0 3 -0.01 0.33
14 0 4 0.08 0.02
14 0 5 0 0.31
14 1 0 0.01 0.28
14 1 1 0.03 0.28
14 1 2 -0.05 0.29
14 1 3 0.02 0.28
14 1 4 0.06 0.28
14 1 5 0.02 0.27
14 2 0 0.17 0.01
14 2 1 0.1 0.02
14 2 2 -0.01 0.28
14 2 3 0.09 0.02
14 2 4 0.04 0.27
14 2 5 -0.02 0.27
14 3 0 0.01 0.28
14 3 1 0 0.28
14 3 2 0.02 0.28
14 3 3 0.04 0.28
14 3 4 0.11 0.02
14 3 5 -0.02 0.26
14 4 0 0.07 0.01
14 4 1 0.07 0.02
14 4 2 -0.01 0.28
14 4 3 0.11 0.02
14 4 4 -0.01 0.19
14 5 0 -0.03 0.28
14 5 1 -0.02 0.2
14 5 2 0 0.27
14 5 3 0.04 0.27
14 6 0 0.17 0.01
14 6 1 -0.01 0.19
14 6 2 0 0.27
15 0 1 -0.01 0.32
15 0 2 -0.04 0.32
15 0 3 0.04 0.3
15 1 0 0.08 0.28
15 1 1 0.03 0.19
15 1 2 0.03 0.26
15 1 3 0.03 0.19
15 2 0 0.02 0.27
15 2 1 0 0.27
15 2 2 -0.01 0.27
15 3 0 0.06 0.27
15 3 1 -0.02 0.27
15 3 2 0.01 0.26
15 4 0 0.01 0.19
loop_
_geom_angle_atom_site_label_1
_geom_angle_atom_site_label_2
_geom_angle_atom_site_label_3
_geom_angle
_geom_angle_site_symmetry_1
_geom_angle_site_symmetry_3
_geom_angle_publ_flag
H2 N H1 120.1(2) . . ?
C N H1 119.01(13) 6_565 . ?
C N H2 120.90(15) 6_565 . ?
N C O 121.507(11) . . ?
N C O 121.507(11) 6_565 . ?
N C N 116.99(2) 6_565 . ?
loop_
_geom_bond_atom_site_label_1
_geom_bond_atom_site_label_2
_geom_bond_distance
_geom_bond_site_symmetry_2
_geom_bond_publ_flag
O C 1.2550(3) . ?
N H1 0.997(2) . ?
N H2 0.993(3) . ?
N C 1.3384(3) 6_565 ?
loop_
_atom_site_anharm_gc_c_label
_atom_site_anharm_gc_c_111
_atom_site_anharm_gc_c_112
_atom_site_anharm_gc_c_113
_atom_site_anharm_gc_c_122
_atom_site_anharm_gc_c_123
_atom_site_anharm_gc_c_133
_atom_site_anharm_gc_c_222
_atom_site_anharm_gc_c_223
_atom_site_anharm_gc_c_233
_atom_site_anharm_gc_c_333
O -0.0 -0.0 -0.00000035(7) -0.0 0.00000010(11) -0.0 -0.0 -0.00000035(7) -0.0
-0.00000012(11)
N -0.00000145(15) 0.00000042(7) 0.00000145(8) 0.00000042(7) -0.00000145(14)
-0.00000001(5) -0.00000145(15) 0.00000145(8) -0.00000001(5) 0.00000053(12)
loop_
_atom_site_anharm_gc_d_label
_atom_site_anharm_gc_d_1111
_atom_site_anharm_gc_d_1112
_atom_site_anharm_gc_d_1113
_atom_site_anharm_gc_d_1122
_atom_site_anharm_gc_d_1123
_atom_site_anharm_gc_d_1133
_atom_site_anharm_gc_d_1222
_atom_site_anharm_gc_d_1223
_atom_site_anharm_gc_d_1233
_atom_site_anharm_gc_d_1333
_atom_site_anharm_gc_d_2222
_atom_site_anharm_gc_d_2223
_atom_site_anharm_gc_d_2233
_atom_site_anharm_gc_d_2333
_atom_site_anharm_gc_d_3333
O 0.000000005(10) 0.000000001(8) -0.0 -0.000000009(8) -0.0 -0.000000004(4)
0.000000001(8) -0.0 -0.000000006(5) -0.0 0.000000005(10) -0.0 -0.000000004(4)
-0.0 0.000000009(12)
N 0.000000002(13) 0.000000064(9) -0.000000009(8) -0.000000072(10) 0.000000005(3)
0.000000009(4) 0.000000064(9) 0.000000005(3) -0.000000002(5) -0.000000005(4)
0.000000002(13) -0.000000009(8) 0.000000009(4) -0.000000005(4) -0.000000027(11)
