#------------------------------------------------------------------------------
#$Date: 2022-03-02 05:20:08 +0200 (Wed, 02 Mar 2022) $
#$Revision: 273207 $
#$URL: file:///home/coder/svn-repositories/cod/cif/1/56/64/1566436.cif $
#------------------------------------------------------------------------------
#
# This file is available in the Crystallography Open Database (COD),
# http://www.crystallography.net/. The original data for this entry
# were provided by IUCr Journals, http://journals.iucr.org/.
#
# The file may be used within the scientific community so long as
# proper attribution is given to the journal article from which the
# data were obtained.
#
data_1566436
loop_
_publ_author_name
'Ruth, Paul Niklas'
'Herbst-Irmer, Regine'
'Stalke, Dietmar'
_publ_section_title
;
 Hirshfeld atom refinement based on projector augmented wave densities
 with periodic boundary conditions
;
_journal_issue                   2
_journal_name_full               IUCrJ
_journal_page_first              286
_journal_page_last               297
_journal_paper_doi               10.1107/S2052252522001385
_journal_volume                  9
_journal_year                    2022
_chemical_absolute_configuration syn
_chemical_formula_moiety         'C3 H7 N O2'
_chemical_formula_sum            'C3 H7 N O2'
_chemical_formula_weight         89.0947
_space_group_crystal_system      orthorhombic
_space_group_IT_number           19
_space_group_name_Hall           'P 2ac 2ab'
_space_group_name_H-M_alt        'P 21 21 21'
_atom_sites_solution_hydrogens   difmap
_audit_creation_method           'xHARPY 0.1'
_cell_angle_alpha                90
_cell_angle_beta                 90
_cell_angle_gamma                90
_cell_formula_units_Z            4
_cell_length_a                   5.9279(10)
_cell_length_b                   12.2597(17)
_cell_length_c                   5.7939(9)
_cell_measurement_reflns_used    1524
_cell_measurement_temperature    23
_cell_measurement_theta_max      22.5
_cell_measurement_theta_min      15.0
_cell_volume                     421.07(11)
_computing_publication_material  'xHARPY 0.1'
_computing_structure_refinement  'xHARPY 0.1'
_computing_structure_solution    'SHELXS-2013 (Sheldrick, 2008)'
_diffrn_ambient_temperature      23
_diffrn_measured_fraction_theta_full 0.994
_diffrn_measured_fraction_theta_max 0.993
_diffrn_measurement_device_type  'P-1 four circle diffractometer'
_diffrn_measurement_method       'area detector'
_diffrn_radiation_type           MoK\a
_diffrn_radiation_wavelength     0.71073
_diffrn_reflns_av_unetI/netI     0.0243
_diffrn_reflns_Laue_measured_fraction_full 0.994
_diffrn_reflns_Laue_measured_fraction_max 0.993
_diffrn_reflns_limit_h_max       12
_diffrn_reflns_limit_h_min       0
_diffrn_reflns_limit_k_max       26
_diffrn_reflns_limit_k_min       0
_diffrn_reflns_limit_l_max       12
_diffrn_reflns_limit_l_min       0
_diffrn_reflns_number            2519
_diffrn_reflns_point_group_measured_fraction_full 0.618
_diffrn_reflns_point_group_measured_fraction_max 0.567
_diffrn_reflns_theta_full        25.242
_diffrn_reflns_theta_max         50.138
_diffrn_reflns_theta_min         3.323
_exptl_absorpt_coefficient_mu    0.117
_exptl_absorpt_correction_type   none
_exptl_crystal_colour            colorless
_exptl_crystal_density_diffrn    1.405
_exptl_crystal_density_method    'not measured'
_exptl_crystal_description       sphere
_exptl_crystal_F_000             192
_exptl_crystal_size_rad          0.18
_refine_diff_density_max         0.1821
_refine_diff_density_min         -0.1884
_refine_diff_density_rms         0.0433
_refine_ls_extinction_method     none
_refine_ls_goodness_of_fit_ref   1.105
_refine_ls_hydrogen_treatment    refall
_refine_ls_matrix_type           full
_refine_ls_number_parameters     118
_refine_ls_number_reflns         2519
_refine_ls_number_restraints     0
_refine_ls_R_factor_all          0.0205
_refine_ls_R_factor_gt           0.0187
_refine_ls_shift/su_max          0.0
_refine_ls_shift/su_mean         0.0
_refine_ls_structure_factor_coef Fsqd
_refine_ls_weighting_details     w=1/[\s^2^(Fo^2^)]
_refine_ls_weighting_scheme      sigma
_refine_ls_wR_factor_gt          0.0308
_refine_ls_wR_factor_ref         0.031
_reflns_Friedel_coverage         0.0
_reflns_Friedel_fraction_full    0.0
_reflns_Friedel_fraction_max     0.0
_reflns_number_gt                2393
_reflns_number_total             2519
_reflns_threshold_expression     'I > 2\s(I)'
_cod_data_source_file            fc5060.cif
_cod_data_source_block           A23_xHARPy_BEEF-vdW
_cod_database_code               1566436
loop_
_space_group_symop_operation_xyz
'x, y, z'
'-x+1/2, -y, z+1/2'
'x+1/2, -y+1/2, -z'
'-x, y+1/2, -z+1/2'
loop_
_atom_site_label
_atom_site_type_symbol
_atom_site_fract_x
_atom_site_fract_y
_atom_site_fract_z
_atom_site_U_iso_or_equiv
_atom_site_adp_type
_atom_site_occupancy
_atom_site_site_symmetry_order
O1 O 0.72673(4) 0.083793(16) 0.62434(4) 0.00657(3) Uani 1.0 1
O2 O 0.44093(4) 0.184041(16) 0.76113(4) 0.00639(3) Uani 1.0 1
N1 N 0.64720(4) 0.137517(20) 0.18303(5) 0.00519(3) Uani 1.0 1
H1 H 0.7038(11) 0.0603(5) 0.1962(14) 0.0253(19) Uani 1.0 1
H2 H 0.7786(10) 0.1898(5) 0.2081(14) 0.0219(17) Uani 1.0 1
H3 H 0.5854(12) 0.1491(5) 0.0152(12) 0.0222(17) Uani 1.0 1
C1 C 0.46633(4) 0.161078(20) 0.35444(5) 0.00426(3) Uani 1.0 1
H4 H 0.4236(9) 0.2476(4) 0.3389(11) 0.0216(15) Uani 1.0 1
C2 C 0.25991(5) 0.09067(2) 0.30334(5) 0.00672(4) Uani 1.0 1
H5 H 0.1929(10) 0.1104(5) 0.1326(12) 0.0299(18) Uani 1.0 1
H6 H 0.1283(10) 0.1048(5) 0.4295(13) 0.0306(19) Uani 1.0 1
H7 H 0.3045(10) 0.0048(5) 0.3074(14) 0.0324(20) Uani 1.0 1
C3 C 0.55408(4) 0.140796(19) 0.59992(5) 0.00401(3) Uani 1.0 1
loop_
_atom_site_aniso_label
_atom_site_aniso_U_11
_atom_site_aniso_U_22
_atom_site_aniso_U_33
_atom_site_aniso_U_23
_atom_site_aniso_U_13
_atom_site_aniso_U_12
O1 0.00676(7) 0.00718(6) 0.00578(8) 0.00050(6) -0.00060(6) 0.00245(6)
O2 0.00758(7) 0.00759(6) 0.00401(7) -0.00056(5) 0.00055(6) 0.00201(6)
N1 0.00557(7) 0.00592(7) 0.00408(8) -0.00008(6) 0.00045(6) 0.00006(6)
H1 0.027(4) 0.026(4) 0.023(5) 0.001(4) 0.010(4) 0.005(3)
H2 0.014(3) 0.027(4) 0.025(5) 0.003(4) 0.007(4) -0.001(3)
H3 0.033(4) 0.024(4) 0.010(4) -0.006(3) 0.005(4) -0.006(4)
C1 0.00491(8) 0.00449(7) 0.00337(9) 0.00004(6) -0.00028(7) 0.00044(6)
H4 0.027(3) 0.016(3) 0.022(4) 0.005(3) 0.006(3) 0.010(3)
C2 0.00563(8) 0.00864(8) 0.00588(10) -0.00042(8) -0.00060(7) -0.00130(7)
H5 0.026(4) 0.050(5) 0.014(4) 0.009(3) -0.012(3) -0.012(3)
H6 0.017(3) 0.039(4) 0.036(5) 0.003(4) 0.006(4) -0.002(3)
H7 0.036(5) 0.017(3) 0.044(5) -0.004(3) 0.004(4) -0.006(3)
C3 0.00472(7) 0.00412(7) 0.00320(8) 0.00002(6) -0.00029(7) 0.00028(7)
loop_
_atom_type_symbol
_atom_type_description
_atom_type_scat_dispersion_real
_atom_type_scat_dispersion_imag
_atom_type_scat_source
C C 0.0033 0.0016 'HAR in xHARPy 0.1'
H H 0.0000 0.0000 'HAR in xHARPy 0.1'
N N 0.0061 0.0033 'HAR in xHARPy 0.1'
O O 0.0106 0.0060 'HAR in xHARPy 0.1'
loop_
_geom_angle_atom_site_label_1
_geom_angle_atom_site_label_2
_geom_angle_atom_site_label_3
_geom_angle
C1 N1 H1 111.8(4)
C1 N1 H2 109.4(4)
H1 N1 H2 109.0(5)
C1 N1 H3 109.9(4)
H1 N1 H3 108.3(6)
H2 N1 H3 108.3(5)
N1 C1 C2 109.76(2)
N1 C1 C3 110.03(2)
C2 C1 C3 111.09(2)
N1 C1 H4 107.4(3)
C2 C1 H4 110.3(3)
C3 C1 H4 108.2(3)
C1 C2 H5 110.0(3)
C1 C2 H6 110.9(3)
H5 C2 H6 108.2(4)
C1 C2 H7 110.4(3)
H5 C2 H7 108.8(5)
H6 C2 H7 108.4(5)
O1 C3 O2 125.84(3)
O1 C3 C1 118.29(2)
O2 C3 C1 115.86(2)
loop_
_geom_bond_atom_site_label_1
_geom_bond_atom_site_label_2
_geom_bond_distance
O1 C3 1.2473(4)
O2 C3 1.2662(4)
N1 C1 1.4897(4)
N1 H1 1.008(6)
N1 H2 1.020(6)
N1 H3 1.049(7)
C1 C2 1.5264(4)
C1 C3 1.5347(4)
C1 H4 1.095(5)
C2 H5 1.093(6)
C2 H6 1.083(7)
C2 H7 1.086(6)
loop_
_refln_index_h
_refln_index_k
_refln_index_l
_refln_F_squared_calc
_refln_F_squared_meas
_refln_F_squared_sigma
0 2 0 182.83 185.59 1.77
0 4 0 5403.39 5236.65 44.89
0 6 0 90.67 90.57 1.05
0 8 0 45.92 45.80 0.73
0 10 0 0.61 0.81 0.34
0 12 0 239.14 235.06 2.69
0 14 0 56.80 59.14 1.14
0 16 0 24.72 25.49 0.86
0 18 0 227.67 229.88 3.00
0 20 0 0.03 0.22 0.34
0 22 0 134.74 136.87 2.38
0 24 0 0.06 0.23 0.38
0 26 0 5.64 6.51 0.62
0 1 1 730.40 731.55 7.40
0 2 1 117.95 120.72 1.23
0 3 1 701.08 715.56 6.46
0 4 1 96.41 99.24 1.08
0 5 1 0.29 0.23 0.17
0 6 1 480.82 479.65 4.62
0 7 1 37.07 37.29 0.62
0 8 1 44.81 44.80 0.74
0 9 1 32.91 32.40 0.67
0 10 1 137.47 138.66 1.71
0 11 1 68.05 67.37 1.12
0 12 1 77.77 77.10 1.24
0 13 1 19.87 19.02 0.70
0 14 1 39.49 38.28 0.95
0 15 1 91.91 91.87 1.57
0 16 1 0.34 2.41 9.29
0 17 1 0.89 1.14 0.35
0 18 1 61.86 60.47 1.38
0 19 1 15.91 16.32 0.90
0 20 1 28.09 27.71 1.06
0 21 1 2.08 2.72 0.43
0 23 1 1.76 1.75 0.43
0 24 1 0.03 0.17 0.39
0 25 1 2.33 3.02 0.57
0 26 1 20.07 19.98 1.25
0 0 2 2928.77 2870.42 33.63
0 1 2 521.55 538.42 6.62
0 2 2 176.11 183.36 2.09
0 3 2 57.00 56.75 0.80
0 4 2 173.53 172.90 1.81
0 5 2 562.62 572.41 5.38
0 6 2 93.41 97.67 1.18
0 7 2 5.18 5.47 0.34
0 8 2 110.38 112.83 1.41
0 9 2 21.94 23.92 0.60
0 10 2 46.50 46.71 0.87
0 11 2 84.52 84.61 1.27
0 12 2 28.58 28.53 0.76
0 13 2 22.06 21.70 0.70
0 14 2 22.42 21.50 0.76
0 15 2 183.13 183.11 2.41
0 16 2 4.01 4.49 0.41
0 17 2 63.76 61.67 1.40
0 18 2 19.67 20.61 0.92
0 19 2 119.20 121.06 2.11
0 20 2 0.88 0.99 0.41
0 21 2 46.64 46.39 1.37
0 22 2 37.69 37.18 1.30
0 23 2 16.96 18.19 1.04
0 24 2 1.82 2.52 0.46
0 25 2 22.30 22.68 1.27
0 26 2 1.74 2.58 0.50
0 1 3 83.56 84.82 1.76
0 2 3 157.62 159.32 2.95
0 3 3 204.91 207.45 2.48
0 4 3 726.76 746.29 7.85
0 5 3 80.42 82.12 1.21
0 6 3 271.12 275.03 2.87
0 7 3 22.45 22.62 0.58
0 8 3 61.94 62.25 1.00
0 9 3 147.17 144.13 1.80
0 10 3 40.07 40.01 0.84
0 11 3 69.17 71.07 1.19
0 12 3 120.23 120.09 1.71
0 13 3 145.42 146.94 2.02
0 14 3 29.44 28.09 0.86
0 15 3 91.45 91.35 1.60
0 16 3 156.86 156.31 2.28
0 17 3 49.05 47.68 1.25
0 18 3 28.18 27.27 1.00
0 19 3 3.15 2.53 0.41
0 20 3 44.21 44.87 1.35
0 21 3 0.85 0.88 0.39
0 22 3 0.60 1.17 0.41
0 23 3 26.99 28.44 1.17
0 24 3 12.42 12.84 0.92
0 25 3 5.84 5.03 0.58
0 0 4 211.93 211.73 3.94
0 1 4 38.89 40.21 1.21
0 2 4 93.28 93.97 2.07
0 3 4 7.87 8.08 0.45
0 4 4 227.54 231.72 2.87
0 5 4 0.38 0.68 0.38
0 6 4 72.79 71.63 1.24
0 7 4 30.26 29.50 0.79
0 8 4 66.13 65.12 1.09
0 9 4 7.29 7.27 0.47
0 10 4 88.65 91.23 1.40
0 11 4 98.15 98.94 1.53
0 12 4 39.61 39.39 0.97
0 13 4 11.03 11.60 0.65
0 14 4 144.58 143.82 2.11
0 15 4 46.53 45.71 1.19
0 16 4 95.34 95.61 1.76
0 17 4 5.33 5.76 0.47
0 18 4 10.23 9.73 0.75
0 19 4 3.91 3.39 0.44
0 20 4 1.69 1.85 0.42
0 21 4 0.48 0.19 0.38
0 22 4 3.62 4.39 0.50
0 23 4 0.03 0.12 0.40
0 24 4 25.99 26.83 1.15
0 25 4 2.27 2.93 0.52
0 1 5 244.22 238.43 4.56
0 2 5 140.57 138.62 2.98
0 3 5 50.66 49.70 1.55
0 4 5 390.95 392.90 4.63
0 5 5 181.71 179.47 2.46
0 6 5 0.74 0.78 0.42
0 7 5 6.98 6.69 0.53
0 8 5 149.51 146.65 2.20
0 9 5 73.53 70.04 1.44
0 10 5 9.22 8.03 0.55
0 11 5 22.07 20.95 0.79
0 12 5 1.37 1.50 0.33
0 13 5 78.20 79.96 1.52
0 14 5 2.80 3.55 0.41
0 15 5 13.43 14.24 0.80
0 16 5 13.99 13.41 0.80
0 17 5 74.35 77.78 1.67
0 18 5 2.71 2.36 0.42
0 19 5 14.35 13.76 0.90
0 20 5 0.17 0.30 0.40
0 21 5 21.30 19.83 1.05
0 22 5 4.77 5.55 0.53
0 23 5 14.40 12.65 0.97
0 24 5 0.33 0.26 0.38
0 0 6 0.64 0.79 0.63
0 1 6 95.56 94.67 2.47
0 2 6 15.57 16.36 1.04
0 3 6 0.97 1.50 0.65
0 4 6 17.10 16.14 1.10
0 5 6 85.88 87.10 1.59
0 6 6 12.22 11.28 0.66
0 7 6 145.76 143.45 2.27
0 8 6 31.74 30.30 1.00
0 9 6 12.65 14.49 0.78
0 10 6 15.83 15.76 0.83
0 11 6 119.83 118.36 1.92
0 12 6 6.43 6.37 0.56
0 13 6 4.37 4.83 0.49
0 14 6 10.89 11.80 0.74
0 15 6 0.02 0.09 0.34
0 16 6 44.02 41.94 1.29
0 17 6 29.50 29.41 1.12
0 18 6 6.98 7.88 0.69
0 19 6 43.78 44.65 1.40
0 20 6 1.33 1.86 0.43
0 21 6 22.79 21.51 1.10
0 22 6 10.44 10.69 0.78
0 23 6 17.19 17.17 1.00
0 1 7 62.09 59.36 2.07
0 2 7 555.60 546.53 9.82
0 3 7 0.00 0.47 0.78
0 4 7 12.10 11.90 1.11
0 5 7 24.95 24.32 1.45
0 6 7 43.24 43.59 1.23
0 7 7 47.82 47.11 1.29
0 8 7 1.55 1.97 0.44
0 9 7 4.42 4.99 0.52
0 10 7 10.31 9.31 0.81
0 11 7 30.34 31.71 1.20
0 12 7 5.14 5.90 0.65
0 13 7 13.26 11.75 0.80
0 14 7 1.05 1.49 0.39
0 16 7 84.39 82.50 1.83
0 17 7 0.52 1.06 0.40
0 18 7 1.42 2.33 0.44
0 19 7 5.30 6.93 0.56
0 20 7 139.08 136.56 2.47
0 21 7 0.39 0.92 0.40
0 0 8 26.27 24.72 1.52
0 1 8 2.98 3.62 0.96
0 2 8 9.71 8.80 1.16
0 3 8 16.73 15.87 1.36
0 4 8 1.94 1.75 0.96
0 6 8 10.31 10.37 0.83
0 7 8 58.92 60.22 1.58
0 8 8 90.10 88.36 1.95
0 9 8 11.41 12.39 0.88
0 10 8 5.36 6.61 0.70
0 11 8 41.53 40.49 1.42
0 12 8 40.45 40.62 1.46
0 13 8 32.99 32.47 1.36
0 14 8 11.23 12.66 0.99
0 15 8 0.07 0.56 0.39
0 16 8 0.59 1.01 0.40
0 17 8 7.28 6.63 0.55
0 18 8 0.31 0.58 0.40
0 19 8 10.45 9.32 0.78
0 20 8 5.72 6.22 0.53
0 1 9 6.81 8.61 1.17
0 2 9 48.58 46.84 2.22
0 3 9 63.17 63.97 2.55
0 4 9 21.33 22.44 1.64
0 5 9 1.33 1.67 0.97
0 6 9 1.33 1.60 0.99
0 7 9 47.93 46.99 1.54
0 8 9 80.24 80.44 1.96
0 9 9 17.35 16.64 1.08
0 10 9 13.96 13.99 1.03
0 11 9 1.78 2.27 0.53
0 12 9 35.86 35.23 1.41
0 13 9 29.40 29.43 1.35
0 14 9 0.67 0.29 0.49
0 15 9 46.69 47.77 1.66
0 16 9 13.65 14.60 1.10
0 17 9 15.55 15.68 1.00
0 18 9 8.45 8.67 0.65
0 0 10 5.23 4.85 1.24
0 1 10 0.00 0.01 1.01
0 2 10 21.34 20.90 1.75
0 3 10 49.74 49.45 2.44
0 4 10 27.99 28.62 1.96
0 5 10 33.01 33.03 2.08
0 6 10 41.69 42.03 2.35
0 7 10 54.69 54.89 2.63
0 8 10 59.11 60.80 1.82
0 9 10 6.76 6.80 0.67
0 10 10 1.24 1.88 0.53
0 11 10 17.84 16.54 1.16
0 12 10 12.19 13.56 0.94
0 13 10 11.61 12.66 1.06
0 14 10 46.90 44.00 1.64
0 15 10 5.13 5.91 0.65
0 1 11 0.65 0.49 1.23
0 2 11 2.04 2.73 1.25
0 3 11 7.73 6.86 1.50
0 4 11 1.14 0.93 1.30
0 5 11 1.57 0.90 1.30
0 6 11 8.94 7.80 1.55
0 7 11 2.45 3.13 1.36
0 8 11 7.98 8.48 1.55
0 9 11 7.84 8.08 0.78
0 10 11 0.78 1.59 0.54
0 11 11 9.36 8.43 0.85
0 12 11 31.82 30.46 1.42
0 0 12 0.05 2.51 9.29
0 1 12 29.25 27.28 2.27
0 2 12 19.24 20.41 1.98
0 3 12 120.58 117.37 4.00
0 4 12 0.33 0.43 1.43
0 5 12 9.48 9.88 1.73
0 6 12 55.34 56.34 2.78
0 7 12 70.41 65.47 3.07
1 1 0 253.00 254.02 2.39
1 2 0 5395.68 5542.06 58.68
1 3 0 58.70 59.70 0.70
1 4 0 1732.57 1695.41 14.92
1 5 0 338.28 341.79 3.32
1 6 0 64.09 62.50 0.80
1 7 0 19.35 19.45 0.44
1 8 0 399.59 406.19 4.04
1 9 0 2.79 3.29 0.34
1 10 0 41.80 43.49 0.81
1 11 0 95.50 97.86 1.37
1 12 0 25.85 27.19 0.71
1 13 0 59.39 57.90 1.09
1 14 0 1.49 0.87 0.44
1 15 0 85.73 87.18 1.49
1 16 0 24.51 24.71 0.86
1 17 0 30.45 29.84 0.97
1 18 0 0.81 0.94 0.39
1 19 0 34.30 34.07 1.11
1 20 0 42.40 40.68 1.26
1 21 0 1.22 1.45 0.43
1 22 0 3.85 4.03 0.48
1 23 0 6.12 7.08 0.61
1 24 0 9.91 9.89 0.80
1 26 0 6.74 7.39 0.64
1 0 1 74.69 77.56 0.84
1 1 1 130.65 134.92 1.37
1 2 1 102.69 105.17 1.11
1 3 1 1093.08 1098.59 9.78
1 4 1 156.80 158.62 1.66
1 5 1 442.28 442.31 4.27
1 6 1 21.44 22.11 0.44
1 7 1 339.61 342.78 3.44
1 8 1 234.94 236.96 2.51
1 9 1 232.42 234.64 2.55
1 10 1 136.25 132.55 1.69
1 11 1 17.20 17.32 0.57
1 12 1 1.11 0.36 0.37
1 13 1 129.34 128.93 1.79
1 14 1 30.64 29.88 0.84
1 15 1 89.04 88.51 1.54
1 16 1 62.35 62.41 1.30
1 17 1 25.48 25.69 0.91
1 18 1 23.49 24.02 0.94
1 19 1 14.79 15.47 0.84
1 20 1 6.42 5.89 0.49
1 21 1 1.47 2.08 0.42
1 22 1 33.57 35.12 1.22
1 23 1 9.56 10.77 0.90
1 24 1 22.08 21.15 1.09
1 25 1 8.76 9.59 0.83
1 26 1 0.76 2.02 0.49
1 0 2 3295.91 3136.92 36.50
1 1 2 69.64 72.40 0.95
1 2 2 570.80 578.26 6.18
1 3 2 195.48 196.07 2.05
1 4 2 1072.67 1075.08 9.73
1 5 2 18.71 18.79 0.42
1 6 2 218.50 221.73 2.33
1 7 2 164.19 163.70 1.84
1 8 2 10.79 10.35 0.44
1 9 2 59.26 62.44 0.99
1 10 2 60.38 60.08 1.01
1 11 2 117.92 119.15 1.61
1 12 2 118.84 116.59 1.64
1 13 2 112.55 111.34 1.65
1 14 2 55.15 55.27 1.15
1 15 2 31.07 31.96 0.93
1 16 2 29.51 27.91 0.95
1 17 2 78.23 76.50 1.54
1 18 2 110.04 111.22 1.95
1 19 2 40.58 41.63 1.21
1 20 2 10.40 9.80 0.71
1 21 2 22.27 23.10 1.03
1 22 2 39.08 36.95 1.29
1 23 2 44.14 43.85 1.44
1 24 2 9.72 10.76 0.80
1 25 2 0.09 0.16 0.43
1 26 2 3.73 4.54 0.56
1 0 3 30.91 32.37 0.93
1 1 3 297.96 305.66 5.28
1 2 3 223.16 227.07 2.67
1 3 3 90.52 92.67 1.29
1 4 3 93.83 96.65 1.35
1 5 3 23.27 23.27 0.53
1 6 3 136.25 139.53 1.65
1 7 3 4.90 5.23 0.38
1 8 3 259.95 260.28 2.84
1 9 3 29.58 29.31 0.71
1 10 3 79.76 80.50 1.25
1 11 3 15.71 16.84 0.60
1 12 3 32.64 32.63 0.84
1 13 3 35.18 34.15 0.91
1 14 3 116.24 116.03 1.80
1 15 3 34.50 33.83 0.99
1 16 3 10.07 9.39 0.62
1 17 3 26.19 25.28 0.95
1 18 3 27.98 26.80 1.01
1 19 3 27.96 27.50 1.06
1 20 3 8.02 7.84 0.67
1 21 3 24.37 23.83 1.06
1 22 3 6.75 7.27 0.62
1 23 3 2.94 2.77 0.46
1 24 3 8.24 8.22 0.65
1 25 3 15.97 18.09 1.17
1 0 4 331.36 331.77 5.89
1 1 4 253.52 262.73 4.78
1 2 4 27.74 29.05 1.06
1 3 4 22.74 23.65 0.65
1 4 4 109.84 110.81 1.59
1 5 4 82.68 84.56 1.36
1 6 4 132.70 131.71 1.89
1 7 4 85.46 84.58 1.24
1 8 4 45.58 45.64 0.89
1 9 4 2.22 2.20 0.39
1 10 4 22.25 22.94 0.71
1 11 4 64.83 63.00 1.19
1 12 4 147.00 142.33 2.01
1 13 4 25.80 27.41 0.86
1 14 4 42.47 39.82 1.08
1 15 4 2.18 3.01 0.40
1 16 4 22.50 23.83 0.92
1 17 4 27.03 28.38 1.03
1 18 4 57.49 59.19 1.48
1 19 4 40.30 41.23 1.26
1 20 4 9.11 9.34 0.80
1 21 4 11.36 10.91 0.79
1 22 4 21.23 22.00 1.06
1 23 4 14.76 15.24 0.97
1 24 4 2.27 2.16 0.44
1 0 5 286.69 287.50 5.36
1 1 5 122.37 123.69 2.74
1 2 5 477.41 468.53 8.21
1 3 5 180.86 178.13 3.67
1 4 5 112.28 109.23 1.70
1 5 5 8.62 8.65 0.54
1 6 5 229.69 232.13 3.04
1 7 5 74.19 73.72 1.40
1 8 5 71.83 70.05 1.39
1 9 5 93.54 90.98 1.47
1 10 5 9.85 9.62 0.58
1 11 5 34.92 36.23 0.96
1 12 5 25.09 25.34 0.87
1 13 5 45.13 45.20 1.16
1 14 5 40.27 40.62 1.13
1 15 5 29.96 30.15 1.04
1 16 5 75.26 79.43 1.65
1 17 5 11.33 11.58 0.81
1 18 5 7.52 7.03 0.65
1 19 5 18.22 18.88 0.99
1 20 5 66.12 65.34 1.66
1 21 5 25.40 25.37 1.13
1 22 5 1.49 1.75 0.43
1 23 5 3.52 4.63 0.50
1 24 5 18.32 17.62 1.01
1 0 6 0.53 0.07 0.64
1 1 6 0.53 0.90 0.63
1 2 6 8.05 7.63 0.84
1 3 6 13.01 12.55 1.00
1 4 6 16.67 16.17 1.10
1 5 6 12.97 13.43 0.68
1 6 6 22.38 22.11 0.83
1 7 6 7.59 7.86 0.63
1 8 6 10.06 9.19 0.69
1 9 6 11.69 11.19 0.78
1 10 6 2.76 2.46 0.44
1 11 6 10.85 9.94 0.69
1 12 6 29.89 29.31 0.97
1 13 6 7.68 7.62 0.61
1 14 6 28.19 28.31 1.01
1 15 6 11.97 11.12 0.82
1 16 6 3.01 3.01 0.43
1 17 6 21.24 21.75 1.01
1 18 6 13.92 14.00 0.90
1 19 6 11.11 11.93 0.87
1 20 6 33.89 31.93 1.26
1 21 6 9.15 9.50 0.78
1 22 6 10.40 8.72 0.76
1 23 6 11.85 12.16 0.89
1 0 7 251.45 250.53 5.20
1 1 7 26.45 27.13 1.46
1 2 7 60.20 62.00 2.14
1 3 7 80.93 82.31 2.52
1 4 7 145.56 142.80 3.55
1 5 7 29.47 30.90 1.05
1 6 7 63.32 62.39 1.49
1 7 7 10.62 9.62 0.78
1 8 7 57.94 56.94 1.47
1 9 7 68.98 68.09 1.63
1 10 7 18.12 18.96 0.97
1 11 7 21.80 22.07 0.92
1 12 7 2.61 1.93 0.47
1 13 7 41.60 42.80 1.26
1 14 7 26.41 24.88 1.06
1 15 7 34.64 32.66 1.19
1 16 7 23.52 26.14 1.09
1 17 7 19.56 20.73 1.03
1 18 7 45.63 43.51 1.40
1 19 7 6.92 6.82 0.62
1 20 7 14.61 15.61 1.00
1 21 7 9.32 9.41 0.67
1 0 8 10.14 10.56 1.21
1 1 8 34.34 35.72 1.81
1 2 8 19.53 20.07 1.45
1 3 8 31.47 32.47 1.73
1 4 8 33.66 33.15 1.77
1 5 8 104.83 103.38 3.14
1 6 8 16.29 15.21 0.93
1 7 8 96.01 92.36 1.98
1 8 8 3.69 3.28 0.49
1 9 8 51.29 51.80 1.54
1 10 8 42.10 40.17 1.40
1 11 8 95.15 96.59 2.14
1 12 8 12.93 11.90 0.98
1 13 8 28.81 28.63 1.28
1 14 8 1.99 1.21 0.51
1 15 8 44.25 46.80 1.40
1 16 8 5.34 5.65 0.53
1 17 8 29.28 27.12 1.19
1 18 8 4.55 5.52 0.53
1 19 8 1.90 2.29 0.44
1 20 8 0.04 0.11 0.39
1 0 9 0.14 0.04 0.94
1 1 9 3.16 2.26 1.01
1 2 9 50.61 52.12 2.29
1 3 9 1.23 1.65 0.99
1 4 9 3.77 3.29 1.15
1 5 9 28.37 28.91 1.85
1 6 9 8.91 10.16 1.31
1 7 9 14.81 16.05 1.03
1 8 9 8.05 8.44 0.75
1 9 9 20.08 20.06 1.13
1 10 9 31.66 29.91 1.32
1 11 9 45.58 46.62 1.60
1 12 9 8.50 9.04 0.83
1 13 9 17.14 16.27 1.15
1 14 9 7.37 8.01 0.83
1 15 9 21.91 22.49 1.25
1 16 9 43.37 43.42 1.60
1 17 9 18.25 18.50 1.06
1 18 9 11.97 11.70 0.90
1 0 10 2.72 3.52 1.19
1 1 10 24.50 26.02 1.90
1 2 10 2.24 1.58 1.14
1 3 10 17.96 20.38 1.73
1 4 10 21.84 21.95 1.84
1 5 10 33.43 33.06 2.11
1 6 10 40.97 42.08 2.33
1 7 10 33.57 32.06 2.13
1 8 10 24.60 24.80 1.27
1 9 10 7.62 7.47 0.82
1 10 10 61.35 56.61 1.82
1 11 10 15.83 16.48 1.16
1 12 10 48.56 46.09 1.66
1 13 10 0.10 0.23 0.52
1 14 10 7.95 6.65 0.68
1 15 10 11.19 10.65 0.89
1 0 11 1.60 0.81 1.30
1 1 11 13.74 12.14 1.63
1 2 11 34.97 34.20 2.29
1 3 11 24.17 23.67 1.97
1 4 11 12.02 12.04 1.64
1 5 11 5.24 6.21 1.46
1 6 11 2.98 4.00 1.36
1 7 11 7.91 8.71 1.60
1 8 11 16.71 15.81 1.19
1 9 11 25.29 23.79 1.32
1 10 11 19.67 18.94 1.24
1 11 11 2.75 3.65 0.60
1 12 11 0.80 1.63 0.54
1 0 12 16.83 18.08 1.95
1 1 12 76.76 76.86 3.22
1 2 12 9.38 8.39 1.76
1 3 12 3.15 3.27 1.57
1 4 12 28.21 29.38 2.24
1 5 12 72.64 69.39 3.15
1 6 12 2.76 2.89 1.54
1 7 12 24.16 23.12 2.11
2 0 0 41.11 42.35 0.54
2 1 0 31.35 31.43 0.44
2 2 0 1732.39 1695.37 14.94
2 3 0 803.79 794.38 7.24
2 4 0 36.08 36.20 0.54
2 5 0 92.48 92.04 1.09
2 6 0 2133.41 2101.81 18.66
2 7 0 294.82 296.66 3.04
2 8 0 0.40 0.77 0.30
2 9 0 238.65 237.28 2.61
2 10 0 251.66 256.87 2.82
2 11 0 2.22 2.44 0.37
2 12 0 46.04 43.83 0.92
2 13 0 168.16 169.63 2.16
2 14 0 12.03 11.04 0.61
2 15 0 72.51 70.64 1.34
2 16 0 39.53 37.36 1.04
2 17 0 36.90 36.03 1.06
2 18 0 43.79 44.14 1.21
2 19 0 36.68 38.13 1.17
2 20 0 1.68 0.93 0.38
2 21 0 8.57 7.81 0.65
2 22 0 16.06 15.27 0.94
2 23 0 10.97 11.27 0.89
2 24 0 32.91 32.71 1.25
2 25 0 3.16 4.16 0.58
2 26 0 1.04 1.09 0.45
2 0 1 1.38 1.65 0.16
2 1 1 78.92 78.78 0.89
2 2 1 278.76 280.16 2.75
2 3 1 529.13 541.77 5.10
2 4 1 156.43 159.37 1.68
2 5 1 425.46 431.01 4.19
2 6 1 23.21 23.14 0.49
2 7 1 96.65 98.95 1.24
2 8 1 4.23 4.89 0.37
2 9 1 277.63 275.91 2.97
2 10 1 9.10 8.79 0.47
2 11 1 5.28 4.80 0.44
2 12 1 42.33 41.10 0.90
2 13 1 82.02 80.61 1.36
2 14 1 43.79 45.18 1.04
2 15 1 22.05 23.99 0.81
2 16 1 3.47 3.60 0.40
2 17 1 11.68 10.18 0.70
2 18 1 10.52 10.05 0.73
2 19 1 29.37 29.53 1.07
2 20 1 70.99 72.37 1.65
2 21 1 27.56 29.16 1.13
2 22 1 23.68 23.56 1.08
2 23 1 2.92 2.59 0.45
2 24 1 38.51 41.55 1.35
2 25 1 22.76 23.23 1.34
2 26 1 29.69 30.78 1.47
2 0 2 4.36 4.24 0.23
2 1 2 308.82 311.70 3.08
2 2 2 1095.18 1095.27 9.91
2 3 2 110.04 108.16 1.26
2 4 2 89.32 89.96 1.10
2 5 2 7.99 8.48 0.35
2 6 2 290.41 295.02 3.04
2 7 2 141.70 141.79 1.68
2 8 2 143.39 145.53 1.77
2 9 2 130.04 129.43 1.63
2 10 2 2.76 2.68 0.37
2 11 2 65.92 64.75 1.13
2 12 2 57.95 57.89 1.10
2 13 2 74.14 74.24 1.32
2 14 2 32.59 34.16 0.92
2 15 2 33.20 32.14 0.94
2 16 2 78.14 73.98 1.47
2 17 2 0.11 0.07 0.34
2 18 2 9.81 10.92 0.74
2 19 2 1.31 1.15 0.37
2 20 2 31.34 32.17 1.14
2 21 2 29.76 30.55 1.17
2 22 2 3.35 3.60 0.48
2 23 2 1.67 2.56 0.45
2 24 2 9.27 8.81 0.77
2 25 2 41.19 40.32 1.68
2 0 3 135.61 133.43 1.55
2 1 3 140.57 141.82 1.60
2 2 3 380.88 387.56 3.85
2 3 3 452.53 452.80 4.48
2 4 3 65.03 66.52 0.95
2 5 3 252.47 251.94 2.69
2 6 3 90.08 91.95 1.24
2 7 3 107.22 109.73 1.43
2 8 3 122.03 120.88 1.56
2 9 3 291.11 292.44 3.22
2 10 3 256.66 259.62 2.95
2 11 3 12.34 12.14 0.59
2 12 3 86.24 85.36 1.43
2 13 3 43.66 44.32 1.04
2 14 3 50.53 48.68 1.15
2 15 3 17.02 17.15 0.80
2 16 3 2.30 2.82 0.40
2 17 3 11.30 12.89 0.76
2 18 3 2.78 2.13 0.39
2 19 3 39.19 39.26 1.23
2 20 3 9.08 9.98 0.68
2 21 3 44.01 43.78 1.39
2 22 3 9.04 7.88 0.73
2 23 3 4.06 5.26 0.57
2 24 3 0.01 0.04 0.40
2 25 3 12.83 13.20 1.08
2 0 4 55.38 57.36 1.55
2 1 4 106.24 108.00 1.56
2 2 4 129.54 132.52 1.85
2 3 4 135.24 134.76 1.87
2 4 4 13.05 13.13 0.58
2 5 4 62.07 60.45 1.00
2 6 4 110.79 109.33 1.47
2 7 4 104.48 103.55 1.45
2 8 4 117.23 117.70 1.61
2 9 4 47.61 49.14 0.99
2 10 4 140.67 139.76 1.90
2 11 4 50.86 50.33 1.08
2 12 4 13.45 12.81 0.67
2 13 4 0.43 0.40 0.33
2 14 4 12.87 11.82 0.71
2 15 4 12.76 12.96 0.75
2 16 4 25.45 25.46 0.93
2 17 4 40.46 39.15 1.20
2 18 4 26.82 25.64 1.05
2 19 4 8.79 8.81 0.71
2 20 4 25.19 26.93 1.11
2 21 4 19.99 20.49 1.05
2 22 4 18.59 16.96 1.05
2 23 4 21.50 23.69 1.08
2 24 4 4.58 3.38 0.47
2 0 5 146.62 146.00 3.14
2 1 5 34.95 34.32 1.32
2 2 5 164.34 163.02 2.27
2 3 5 31.44 31.96 0.85
2 4 5 149.09 149.90 2.14
2 5 5 63.66 64.41 1.26
2 6 5 12.33 12.61 0.64
2 7 5 14.98 14.30 0.71
2 8 5 62.02 63.40 1.18
2 9 5 26.01 26.47 0.81
2 10 5 139.74 140.08 2.00
2 11 5 60.89 60.97 1.27
2 12 5 14.95 14.46 0.75
2 13 5 1.36 2.28 0.38
2 14 5 94.65 93.41 1.73
2 15 5 11.87 12.84 0.77
2 16 5 1.08 1.15 0.36
2 17 5 5.35 5.39 0.49
2 18 5 45.47 44.79 1.38
2 19 5 9.89 11.23 0.85
2 20 5 1.33 1.42 0.42
2 21 5 0.97 0.96 0.41
2 22 5 20.30 21.19 1.05
2 23 5 16.97 16.62 1.03
2 0 6 75.76 77.27 2.23
2 1 6 93.63 94.96 2.53
2 2 6 2.37 2.33 0.72
2 3 6 2.13 2.28 0.58
2 4 6 22.45 22.87 0.83
2 5 6 100.35 99.62 1.77
2 6 6 0.37 0.60 0.49
2 7 6 78.22 77.96 1.58
2 8 6 0.14 0.23 0.53
2 9 6 3.72 4.97 0.49
2 10 6 10.66 12.24 0.70
2 11 6 104.97 105.58 1.81
2 12 6 8.26 7.96 0.55
2 13 6 61.54 62.99 1.43
2 14 6 10.81 11.38 0.75
2 15 6 58.41 57.38 1.45
2 16 6 15.19 15.53 0.90
2 17 6 47.63 47.42 1.38
2 18 6 50.31 50.18 1.47
2 19 6 1.55 2.37 0.44
2 20 6 3.91 3.85 0.49
2 21 6 14.24 13.89 0.97
2 22 6 46.61 46.20 1.44
2 0 7 7.27 7.50 1.00
2 1 7 45.68 44.40 1.83
2 2 7 12.74 12.70 1.14
2 3 7 14.35 14.64 1.21
2 4 7 136.15 131.74 2.70
2 5 7 72.41 71.76 1.59
2 6 7 30.29 29.64 1.07
2 7 7 86.36 84.57 1.80
2 8 7 81.80 83.26 1.79
2 9 7 4.63 5.03 0.54
2 10 7 9.04 9.59 0.80
2 11 7 96.57 98.66 2.08
2 12 7 1.39 2.20 0.39
2 13 7 48.93 49.44 1.37
2 14 7 38.55 40.68 1.26
2 15 7 32.93 33.12 1.20
2 16 7 4.43 4.33 0.49
2 17 7 50.52 51.37 1.49
2 18 7 9.41 10.00 0.77
2 19 7 6.12 7.08 0.64
2 20 7 0.34 0.99 0.41
2 21 7 11.86 10.50 0.80
2 0 8 55.95 54.66 2.22
2 1 8 59.42 59.46 2.32
2 2 8 25.40 23.83 1.60
2 3 8 27.75 29.35 1.70
2 4 8 16.79 16.11 1.40
2 5 8 58.54 57.14 1.54
2 6 8 50.95 47.56 1.46
2 7 8 44.53 42.27 1.38
2 8 8 0.08 0.31 0.42
2 9 8 11.56 11.89 0.81
2 10 8 1.24 1.42 0.49
2 11 8 9.81 8.61 0.79
2 12 8 0.42 0.02 0.44
2 13 8 34.43 31.76 1.38
2 14 8 8.42 10.08 0.82
2 15 8 6.80 7.09 0.70
2 16 8 2.39 3.29 0.48
2 17 8 24.51 23.75 1.15
2 18 8 1.61 1.93 0.44
2 19 8 5.73 6.79 0.55
2 0 9 73.67 76.52 2.80
2 1 9 15.96 17.67 1.52
2 2 9 111.62 110.56 3.47
2 3 9 4.99 5.41 1.11
2 4 9 49.01 49.31 2.32
2 5 9 10.88 11.59 1.40
2 6 9 51.47 50.39 1.59
2 7 9 10.59 10.68 0.93
2 8 9 2.01 3.39 0.54
2 9 9 39.12 38.78 1.45
2 10 9 12.60 14.28 1.04
2 11 9 15.06 15.80 1.09
2 12 9 17.15 17.55 1.14
2 13 9 34.11 35.51 1.47
2 14 9 70.57 73.08 2.01
2 15 9 0.36 1.11 0.53
2 16 9 16.22 15.70 1.02
2 17 9 3.88 4.38 0.53
2 0 10 50.76 50.23 2.47
2 1 10 69.12 67.91 2.85
2 2 10 2.10 2.89 1.19
2 3 10 6.75 6.64 1.35
2 4 10 4.65 4.73 1.27
2 5 10 47.55 47.17 2.43
2 6 10 16.77 17.16 1.68
2 7 10 27.26 26.51 1.34
2 8 10 31.55 30.73 1.41
2 9 10 11.97 12.36 0.93
2 10 10 33.36 33.86 1.47
2 11 10 43.06 44.81 1.60
2 12 10 48.73 48.85 1.70
2 13 10 6.96 7.17 0.69
2 14 10 17.39 17.28 1.16
2 15 10 2.87 2.99 0.58
2 0 11 12.23 12.73 1.69
2 1 11 10.96 10.03 1.61
2 2 11 4.00 3.35 1.38
2 3 11 5.98 7.34 1.47
2 4 11 3.01 2.30 1.42
2 5 11 1.34 0.71 1.32
2 6 11 14.07 13.79 1.69
2 7 11 1.02 0.52 1.32
2 8 11 6.17 5.72 0.66
2 9 11 0.22 0.31 0.52
2 10 11 5.72 6.37 0.79
2 11 11 3.54 4.64 0.62
2 0 12 47.65 47.17 2.68
2 1 12 22.44 20.79 2.12
2 2 12 7.02 6.28 1.64
2 3 12 40.18 43.07 2.55
2 4 12 11.03 11.31 1.80
2 5 12 2.03 2.28 1.54
2 6 12 31.13 29.66 2.23
3 1 0 30.61 31.32 0.52
3 3 0 69.50 69.87 0.89
3 4 0 409.98 417.58 4.07
3 5 0 209.71 210.63 2.24
3 6 0 38.20 39.81 0.70
3 7 0 248.41 245.45 2.63
3 8 0 79.32 81.55 1.17
3 9 0 111.47 108.81 1.45
3 10 0 30.54 30.33 0.73
3 11 0 257.60 253.84 2.89
3 12 0 9.79 8.27 0.53
3 13 0 2.96 2.77 0.45
3 14 0 2.82 3.79 0.49
3 15 0 23.38 24.27 0.86
3 16 0 44.90 43.34 1.15
3 17 0 42.06 42.71 1.17
3 18 0 1.63 2.15 0.38
3 19 0 2.60 2.97 0.42
3 20 0 26.48 28.20 1.09
3 21 0 30.61 30.67 1.16
3 22 0 3.88 4.12 0.49
3 23 0 0.04 0.06 0.40
3 24 0 9.35 8.14 0.66
3 25 0 28.62 29.86 1.44
3 0 1 175.37 177.38 1.88
3 1 1 362.56 372.59 3.68
3 2 1 58.62 59.54 0.80
3 3 1 434.49 438.54 4.29
3 4 1 82.94 82.68 1.05
3 5 1 24.31 24.53 0.53
3 6 1 67.37 69.63 0.99
3 7 1 161.71 160.76 1.87
3 8 1 43.36 43.12 0.81
3 9 1 396.77 385.83 4.06
3 10 1 37.45 37.26 0.83
3 11 1 55.59 54.11 1.04
3 12 1 56.81 54.94 1.10
3 13 1 90.86 90.42 1.53
3 14 1 27.48 27.33 0.86
3 15 1 1.57 2.01 0.38
3 16 1 38.27 39.76 1.11
3 17 1 31.37 30.48 1.02
3 18 1 53.21 51.58 1.34
3 19 1 19.08 19.92 0.93
3 20 1 3.97 3.74 0.46
3 21 1 64.33 68.33 1.65
3 22 1 65.92 62.59 1.65
3 23 1 15.41 15.62 0.96
3 24 1 27.94 30.12 1.22
3 25 1 6.53 7.88 0.78
3 0 2 0.15 0.11 0.23
3 1 2 184.77 181.47 1.98
3 2 2 270.00 274.46 2.82
3 3 2 270.86 269.41 2.80
3 4 2 56.10 55.60 0.86
3 5 2 319.46 317.96 3.29
3 6 2 640.84 644.25 6.31
3 7 2 6.12 7.38 0.43
3 8 2 90.89 89.86 1.28
3 9 2 63.09 62.84 1.07
3 10 2 257.63 256.37 2.91
3 11 2 37.10 34.95 0.86
3 12 2 109.18 107.47 1.63
3 13 2 26.60 26.47 0.82
3 14 2 6.91 6.71 0.59
3 15 2 12.89 13.02 0.72
3 16 2 35.92 37.07 1.07
3 17 2 28.75 28.81 1.01
3 18 2 8.91 9.13 0.72
3 19 2 6.48 5.59 0.55
3 20 2 11.82 11.68 0.85
3 21 2 0.74 0.59 0.39
3 22 2 2.83 2.84 0.46
3 23 2 10.30 9.90 0.88
3 24 2 26.88 27.83 1.19
3 25 2 4.52 4.58 0.57
3 0 3 179.93 185.18 2.07
3 1 3 253.09 253.88 2.69
3 2 3 16.91 17.56 0.51
3 3 3 168.71 168.83 1.94
3 4 3 12.50 12.74 0.48
3 5 3 210.10 216.10 2.40
3 6 3 3.45 3.42 0.38
3 7 3 258.52 256.80 2.85
3 8 3 42.85 43.49 0.88
3 9 3 25.34 26.41 0.73
3 10 3 11.88 11.67 0.57
3 11 3 77.47 76.64 1.32
3 12 3 41.62 40.55 0.98
3 13 3 11.13 12.54 0.67
3 14 3 9.42 9.16 0.60
3 15 3 12.54 12.15 0.73
3 16 3 1.71 2.07 0.39
3 17 3 8.84 8.26 0.64
3 18 3 0.35 0.20 0.34
3 19 3 9.91 10.39 0.83
3 20 3 7.09 6.17 0.52
3 21 3 1.94 1.63 0.42
3 22 3 6.58 6.46 0.55
3 23 3 40.60 40.19 1.39
3 24 3 7.15 8.58 0.73
3 0 4 10.95 11.70 0.47
3 1 4 115.32 114.42 1.49
3 2 4 30.06 31.26 0.70
3 3 4 81.76 80.87 1.19
3 4 4 24.41 25.24 0.65
3 5 4 277.48 273.15 3.02
3 6 4 82.84 80.75 1.26
3 7 4 58.58 60.10 1.08
3 8 4 53.86 54.41 1.06
3 9 4 66.80 68.03 1.22
3 10 4 21.59 21.19 0.74
3 11 4 30.73 29.30 0.89
3 12 4 29.56 30.26 0.91
3 13 4 104.84 105.68 1.76
3 14 4 10.06 10.14 0.69
3 15 4 38.19 37.94 1.13
3 16 4 16.48 17.45 0.85
3 17 4 32.34 32.49 1.13
3 18 4 24.41 25.72 1.06
3 19 4 17.74 17.04 0.95
3 20 4 20.90 21.04 1.02
3 21 4 24.29 25.99 1.13
3 22 4 7.12 7.04 0.63
3 23 4 10.06 10.15 0.87
3 24 4 1.02 1.11 0.41
3 0 5 52.21 50.43 0.98
3 1 5 45.18 45.15 0.93
3 2 5 37.24 35.81 0.84
3 3 5 71.76 73.95 1.22
3 4 5 71.15 72.33 1.22
3 5 5 73.52 73.09 1.25
3 6 5 42.85 44.42 0.96
3 7 5 124.94 123.75 1.78
3 8 5 193.21 188.96 2.41
3 9 5 1.70 1.83 0.48
3 10 5 136.69 134.82 2.01
3 11 5 5.70 7.37 0.54
3 12 5 126.59 124.67 1.98
3 13 5 9.93 10.37 0.73
3 14 5 69.03 64.55 1.47
3 15 5 44.19 44.65 1.26
3 16 5 9.85 10.11 0.78
3 17 5 2.86 3.16 0.44
3 18 5 5.67 6.47 0.53
3 19 5 12.53 10.70 0.78
3 20 5 1.88 2.85 0.46
3 21 5 3.32 3.61 0.49
3 22 5 15.71 15.27 1.00
3 23 5 2.97 3.81 0.48
3 1 6 3.67 3.82 0.52
3 2 6 42.04 42.10 1.10
3 3 6 4.86 4.87 0.57
3 4 6 10.30 9.65 0.68
3 5 6 21.48 21.23 0.86
3 6 6 19.79 18.81 0.86
3 7 6 40.63 39.72 1.16
3 8 6 19.77 18.95 0.80
3 9 6 31.90 32.72 0.98
3 10 6 24.07 24.22 0.90
3 11 6 69.56 68.52 1.46
3 12 6 2.84 3.64 0.43
3 13 6 58.25 57.06 1.42
3 14 6 24.65 25.99 1.03
3 15 6 7.01 7.25 0.59
3 16 6 42.05 42.09 1.32
3 17 6 24.44 24.20 1.08
3 18 6 10.52 10.27 0.77
3 19 6 21.52 22.02 1.09
3 20 6 62.33 64.07 1.67
3 21 6 5.20 5.83 0.53
3 22 6 5.89 5.20 0.52
3 0 7 5.91 5.97 1.01
3 1 7 0.49 0.85 0.84
3 2 7 154.66 152.84 3.77
3 3 7 31.09 29.28 1.09
3 4 7 10.69 9.73 0.79
3 5 7 33.15 32.39 1.14
3 6 7 12.68 12.13 0.86
3 7 7 36.04 36.35 1.22
3 8 7 13.05 11.26 0.86
3 9 7 107.27 109.98 2.16
3 10 7 50.76 51.13 1.32
3 11 7 6.22 6.22 0.48
3 12 7 2.58 2.41 0.40
3 13 7 38.07 38.48 1.24
3 14 7 49.67 49.53 1.40
3 15 7 37.75 37.56 1.28
3 16 7 2.93 2.81 0.45
3 17 7 3.12 2.87 0.46
3 18 7 7.79 7.91 0.64
3 19 7 21.89 21.04 1.10
3 20 7 10.29 9.26 0.76
3 21 7 5.18 5.25 0.52
3 0 8 1.96 2.15 1.01
3 1 8 115.60 114.92 3.35
3 2 8 58.33 60.08 2.37
3 3 8 45.79 46.30 2.11
3 4 8 40.28 39.38 1.32
3 5 8 39.98 38.94 1.32
3 6 8 26.79 26.47 1.14
3 7 8 30.13 30.56 1.21
3 8 8 34.78 33.73 1.30
3 9 8 22.82 22.40 1.13
3 10 8 5.45 4.44 0.57
3 11 8 100.95 100.95 2.24
3 12 8 17.05 17.45 1.08
3 13 8 7.41 6.37 0.59
3 14 8 4.47 4.63 0.50
3 15 8 18.12 18.20 1.00
3 16 8 17.72 15.51 1.00
3 17 8 10.63 11.33 0.91
3 18 8 9.19 8.40 0.65
3 19 8 21.90 23.32 1.12
3 0 9 71.32 69.70 2.74
3 1 9 11.70 12.07 1.42
3 2 9 20.29 19.58 1.63
3 3 9 13.49 14.09 1.51
3 4 9 101.59 102.97 3.40
3 5 9 0.06 0.14 0.47
3 6 9 8.31 8.17 0.67
3 7 9 8.39 9.11 0.75
3 8 9 45.44 43.68 1.55
3 9 9 6.45 6.36 0.64
3 10 9 28.35 28.23 1.31
3 11 9 3.98 4.30 0.60
3 12 9 4.27 4.99 0.63
3 13 9 1.68 1.56 0.53
3 14 9 29.04 31.47 1.37
3 15 9 6.79 6.48 0.62
3 16 9 10.05 9.11 0.67
3 17 9 22.10 22.01 1.09
3 0 10 1.01 0.86 1.17
3 1 10 55.29 57.96 2.63
3 2 10 27.75 28.04 2.02
3 3 10 80.71 83.30 3.21
3 4 10 12.84 12.07 1.60
3 5 10 6.75 7.22 1.43
3 6 10 23.02 23.57 1.26
3 7 10 10.32 11.82 0.89
3 8 10 7.83 7.33 0.69
3 9 10 34.56 33.71 1.47
3 10 10 7.83 7.67 0.85
3 11 10 5.01 4.62 0.62
3 12 10 0.79 1.14 0.52
3 13 10 20.73 19.25 1.23
3 14 10 17.62 17.14 1.14
3 0 11 1.70 1.25 1.35
3 1 11 10.77 11.08 1.69
3 2 11 14.81 15.30 1.75
3 3 11 34.33 35.20 2.31
3 4 11 16.59 17.11 1.89
3 5 11 15.64 15.81 1.77
3 6 11 12.35 12.26 1.72
3 7 11 22.27 22.78 1.30
3 8 11 6.00 6.59 0.81
3 9 11 11.34 10.87 0.85
3 10 11 8.77 9.08 0.88
3 11 11 10.80 9.49 2.98
3 0 12 7.01 5.58 1.68
3 1 12 6.65 7.39 1.69
3 2 12 3.30 3.30 1.55
3 3 12 1.64 0.78 1.55
3 4 12 0.80 1.01 1.47
4 0 0 392.99 396.50 3.93
4 1 0 392.44 390.57 3.92
4 2 0 41.79 40.70 0.71
4 3 0 2.24 1.77 0.32
4 4 0 36.60 37.38 0.71
4 5 0 16.34 15.58 0.51
4 6 0 133.50 133.06 1.65
4 7 0 89.86 89.02 1.28
4 8 0 139.67 133.84 1.72
4 9 0 134.45 131.59 1.74
4 10 0 70.37 69.84 1.21
4 11 0 12.87 12.80 0.62
4 12 0 247.21 242.94 3.00
4 13 0 67.62 69.94 1.32
4 14 0 3.46 2.85 0.37
4 15 0 12.40 12.77 0.73
4 16 0 90.92 91.49 1.71
4 17 0 0.98 1.20 0.35
4 18 0 2.01 2.06 0.39
4 19 0 9.00 7.33 0.67
4 20 0 0.47 0.28 0.38
4 21 0 7.22 8.07 0.63
4 22 0 0.00 0.04 0.42
4 23 0 4.26 4.84 0.52
4 24 0 21.84 22.07 1.10
4 0 1 1.55 1.48 0.29
4 1 1 147.82 150.15 1.72
4 2 1 34.78 34.98 0.67
4 3 1 152.91 152.23 1.76
4 4 1 13.66 12.26 0.47
4 5 1 62.02 60.65 0.96
4 6 1 44.09 43.94 0.83
4 7 1 251.99 248.01 2.76
4 8 1 43.82 43.42 0.88
4 9 1 4.09 4.30 0.41
4 10 1 34.80 34.59 0.84
4 11 1 272.42 269.18 3.13
4 12 1 68.13 68.47 1.29
4 13 1 45.40 43.41 1.06
4 14 1 46.19 46.65 1.14
4 15 1 46.13 45.48 1.17
4 16 1 54.04 53.01 1.30
4 17 1 17.75 17.22 0.88
4 18 1 32.06 31.33 1.09
4 19 1 40.80 43.06 1.29
4 20 1 32.05 33.02 1.19
4 21 1 7.99 7.81 0.70
4 22 1 17.76 14.44 0.98
4 23 1 2.42 2.21 0.46
4 24 1 19.82 19.81 1.06
4 25 1 4.97 5.28 0.59
4 0 2 10.99 10.85 0.45
4 1 2 267.95 267.03 2.86
4 2 2 10.69 9.79 0.45
4 3 2 75.56 75.92 1.10
4 4 2 197.77 202.05 2.27
4 5 2 140.90 137.20 1.72
4 6 2 31.85 32.68 0.74
4 7 2 185.78 178.91 2.16
4 8 2 163.00 163.13 2.03
4 9 2 5.18 5.70 0.45
4 10 2 40.40 41.65 0.94
4 11 2 18.87 18.89 0.70
4 12 2 46.98 46.80 1.07
4 13 2 0.04 0.13 0.31
4 14 2 13.94 14.57 0.74
4 15 2 15.42 15.21 0.79
4 16 2 18.28 16.72 0.85
4 17 2 20.60 19.56 0.92
4 18 2 6.12 6.18 0.55
4 19 2 10.75 11.32 0.84
4 20 2 7.70 8.53 0.62
4 21 2 8.09 9.62 0.83
4 22 2 8.66 9.81 0.67
4 23 2 18.40 17.91 1.04
4 24 2 1.81 1.63 0.43
4 0 3 4.84 4.73 0.39
4 1 3 227.98 226.91 2.51
4 2 3 40.74 38.83 0.79
4 3 3 472.84 468.67 4.73
4 4 3 98.32 96.08 1.35
4 5 3 112.53 109.57 1.50
4 6 3 5.17 5.48 0.43
4 7 3 60.65 61.09 1.09
4 8 3 89.84 88.02 1.40
4 9 3 31.76 32.31 0.84
4 10 3 17.69 17.10 0.68
4 11 3 30.71 30.00 0.88
4 12 3 42.24 42.50 1.07
4 13 3 12.68 12.44 0.71
4 14 3 23.97 22.74 0.90
4 15 3 75.09 74.42 1.54
4 16 3 27.49 27.63 1.03
4 17 3 1.54 0.96 0.37
4 18 3 21.01 21.84 1.00
4 19 3 33.05 35.41 1.21
4 20 3 13.15 13.34 0.89
4 21 3 34.17 34.12 1.27
4 22 3 27.43 25.71 1.18
4 23 3 1.06 1.00 0.41
4 24 3 15.38 14.09 0.98
4 0 4 76.48 78.10 1.20
4 1 4 126.31 125.31 1.65
4 2 4 35.24 34.47 0.80
4 3 4 98.78 97.74 1.42
4 4 4 34.51 35.47 0.82
4 5 4 87.19 88.23 1.37
4 6 4 56.38 56.66 1.09
4 7 4 44.22 43.42 0.96
4 8 4 8.42 9.02 0.54
4 9 4 2.26 1.46 0.46
4 10 4 34.90 36.47 0.96
4 11 4 23.24 24.82 0.85
4 12 4 69.99 69.71 1.41
4 13 4 26.14 26.37 0.94
4 14 4 8.52 9.29 0.64
4 15 4 43.21 40.46 1.21
4 16 4 55.14 54.50 1.41
4 17 4 62.14 60.19 1.54
4 18 4 1.87 1.60 0.41
4 19 4 9.26 8.59 0.64
4 20 4 23.21 22.77 1.10
4 21 4 19.28 20.33 1.06
4 22 4 1.96 2.11 0.48
4 23 4 64.61 64.65 1.67
4 0 5 29.26 28.22 0.78
4 1 5 22.45 23.27 0.72
4 2 5 6.19 6.26 0.49
4 3 5 168.85 165.60 2.13
4 4 5 28.90 28.90 0.80
4 5 5 85.39 85.57 1.42
4 6 5 13.46 13.93 0.63
4 7 5 35.31 35.59 0.95
4 8 5 47.38 48.74 1.11
4 9 5 47.21 45.40 1.13
4 10 5 24.68 27.45 0.90
4 11 5 8.99 9.99 0.67
4 12 5 19.80 19.53 0.88
4 13 5 6.29 6.80 0.60
4 14 5 8.99 8.60 0.65
4 15 5 2.20 1.98 0.40
4 16 5 20.86 21.43 1.00
4 17 5 9.63 10.47 0.81
4 18 5 1.83 2.33 0.44
4 19 5 5.69 5.51 0.53
4 20 5 29.16 29.36 1.21
4 21 5 1.55 2.25 0.44
4 22 5 1.04 1.10 0.41
4 0 6 0.45 0.29 0.44
4 1 6 90.24 89.41 1.52
4 2 6 14.27 15.48 0.69
4 3 6 27.32 26.01 0.85
4 4 6 12.49 11.99 0.67
4 5 6 141.33 139.52 2.04
4 6 6 42.14 41.74 1.09
4 7 6 43.18 40.85 1.10
4 8 6 57.12 54.81 1.29
4 9 6 141.60 137.21 2.14
4 10 6 28.26 26.71 0.99
4 11 6 35.53 36.94 1.11
4 12 6 62.39 63.88 1.49
4 13 6 49.97 49.86 1.34
4 14 6 12.86 12.63 0.83
4 15 6 54.80 55.25 1.48
4 16 6 17.27 18.48 0.98
4 17 6 41.82 42.82 1.37
4 18 6 26.23 26.89 1.15
4 19 6 37.17 37.48 1.31
4 20 6 1.09 1.88 0.44
4 21 6 23.73 22.74 1.12
4 0 7 140.97 139.82 2.12
4 1 7 10.67 9.54 0.73
4 2 7 13.51 12.98 0.85
4 3 7 11.78 12.25 0.83
4 4 7 66.08 65.96 1.60
4 5 7 15.83 16.59 0.91
4 6 7 20.14 20.37 0.87
4 7 7 27.47 26.45 0.98
4 8 7 54.01 52.22 1.33
4 9 7 6.44 6.31 0.60
4 10 7 43.10 44.42 1.25
4 11 7 52.13 52.71 1.40
4 12 7 37.52 40.48 1.25
4 13 7 10.75 10.64 0.74
4 14 7 31.42 30.96 1.19
4 15 7 1.45 2.15 0.43
4 16 7 2.98 3.41 0.47
4 17 7 10.17 9.52 0.78
4 18 7 6.32 5.77 0.54
4 19 7 14.47 13.07 0.92
4 20 7 1.38 1.97 0.44
4 0 8 42.17 44.82 2.11
4 1 8 19.59 19.86 1.25
4 2 8 13.96 13.89 0.92
4 3 8 12.27 11.95 0.90
4 4 8 28.33 29.53 1.20
4 5 8 4.40 4.46 0.54
4 6 8 10.07 9.14 0.77
4 7 8 34.52 32.97 1.31
4 8 8 3.96 3.78 0.55
4 9 8 93.30 90.19 2.14
4 10 8 19.87 19.39 1.00
4 11 8 9.99 8.95 0.74
4 12 8 0.36 0.86 0.40
4 13 8 54.42 53.18 1.52
4 14 8 34.89 34.52 1.28
4 15 8 1.89 2.27 0.45
4 16 8 11.31 9.93 0.79
4 17 8 0.02 0.06 0.39
4 18 8 16.31 16.45 1.00
4 0 9 19.16 19.47 1.67
4 1 9 12.71 13.88 1.51
4 2 9 12.68 13.46 1.47
4 3 9 23.71 24.47 1.21
4 4 9 57.29 60.04 1.73
4 5 9 14.17 14.06 1.02
4 6 9 38.93 36.64 1.47
4 7 9 5.00 5.67 0.63
4 8 9 84.33 86.28 2.14
4 9 9 15.97 17.24 1.12
4 10 9 18.34 20.16 1.16
4 11 9 0.14 0.35 0.53
4 12 9 24.30 24.11 1.31
4 13 9 9.05 9.41 0.77
4 14 9 10.16 11.92 0.91
4 15 9 27.88 26.86 1.17
4 16 9 1.41 2.48 0.45
4 1 10 81.87 84.05 3.26
4 2 10 14.47 14.38 1.66
4 3 10 4.10 3.14 1.30
4 4 10 30.98 30.63 1.38
4 5 10 61.23 58.47 1.85
4 6 10 29.18 28.48 1.38
4 7 10 16.82 15.78 1.13
4 8 10 14.48 15.69 1.13
4 9 10 1.44 0.78 0.52
4 10 10 14.89 15.27 1.13
4 11 10 6.73 7.15 0.69
4 12 10 1.43 1.63 0.54
4 13 10 9.88 8.79 0.72
4 0 11 29.45 28.22 2.16
4 1 11 1.80 1.64 1.35
4 2 11 3.16 3.21 1.36
4 3 11 9.91 9.13 1.59
4 4 11 35.16 33.42 2.28
4 5 11 13.11 13.30 1.36
4 6 11 0.38 0.50 0.53
4 7 11 5.76 6.84 0.68
4 8 11 22.48 20.84 1.29
4 9 11 8.88 9.96 0.87
5 1 0 40.96 40.65 0.78
5 2 0 43.52 44.16 0.84
5 3 0 239.44 233.81 2.60
5 4 0 64.96 61.75 1.04
5 5 0 73.88 73.95 1.16
5 6 0 0.02 0.11 0.33
5 7 0 12.37 11.93 0.55
5 8 0 16.37 16.54 0.63
5 9 0 26.32 25.88 0.76
5 10 0 38.34 39.03 0.94
5 11 0 36.14 37.35 0.96
5 12 0 1.50 1.63 0.48
5 13 0 12.59 12.38 0.71
5 14 0 52.68 53.27 1.27
5 15 0 16.30 15.59 0.83
5 16 0 4.67 4.64 0.44
5 17 0 11.52 10.64 0.70
5 18 0 6.37 6.36 0.65
5 19 0 0.00 0.14 0.37
5 20 0 0.12 0.44 0.38
5 21 0 1.08 0.93 0.40
5 22 0 8.68 8.04 0.64
5 24 0 3.31 2.08 0.44
5 0 1 5.62 6.04 0.42
5 1 1 135.61 135.32 1.68
5 2 1 94.37 92.05 1.30
5 3 1 394.53 386.25 3.96
5 4 1 5.13 5.36 0.41
5 5 1 37.37 36.12 0.79
5 6 1 74.76 71.99 1.18
5 7 1 158.64 156.26 1.98
5 8 1 2.52 3.24 0.42
5 9 1 59.32 59.11 1.14
5 10 1 12.42 12.89 0.62
5 11 1 66.92 69.29 1.30
5 12 1 22.33 22.03 0.83
5 13 1 21.68 19.24 0.84
5 14 1 16.27 16.40 0.79
5 15 1 219.89 220.73 2.96
5 16 1 60.50 62.19 1.46
5 17 1 4.28 4.32 0.45
5 18 1 8.30 7.81 0.69
5 19 1 53.59 54.33 1.51
5 20 1 51.81 52.39 1.47
5 21 1 3.91 3.56 0.48
5 22 1 0.76 0.91 0.41
5 23 1 1.67 1.91 0.44
5 24 1 13.68 14.84 0.95
5 0 2 334.71 335.07 3.55
5 1 2 175.18 171.57 2.08
5 2 2 0.49 0.58 0.34
5 3 2 257.98 255.59 2.88
5 4 2 88.33 86.90 1.31
5 5 2 43.45 43.16 0.89
5 6 2 7.26 6.68 0.47
5 7 2 14.36 13.10 0.59
5 8 2 30.09 29.54 0.81
5 9 2 38.82 37.94 0.93
5 10 2 0.63 1.42 0.44
5 11 2 16.71 16.48 0.73
5 12 2 128.11 126.06 1.96
5 13 2 0.43 0.49 0.34
5 14 2 7.18 7.65 0.67
5 15 2 3.41 3.12 0.40
5 16 2 60.50 61.41 1.47
5 17 2 15.00 14.92 0.87
5 18 2 11.03 11.72 0.83
5 19 2 30.90 30.77 1.15
5 20 2 2.12 2.19 0.44
5 21 2 41.82 39.61 1.35
5 22 2 0.99 1.80 0.44
5 23 2 6.11 5.43 0.58
5 24 2 6.54 7.46 0.91
5 0 3 32.30 31.53 0.78
5 1 3 203.18 201.36 2.39
5 2 3 24.59 24.81 0.70
5 3 3 9.77 9.69 0.52
5 4 3 1.41 1.37 0.39
5 5 3 69.22 69.59 1.20
5 6 3 34.52 35.27 0.86
5 7 3 65.71 64.96 1.21
5 8 3 18.24 18.85 0.70
5 9 3 9.13 9.19 0.60
5 10 3 45.53 43.85 1.08
5 11 3 27.58 26.26 0.90
5 12 3 28.66 27.84 0.94
5 13 3 19.23 19.40 0.86
5 14 3 47.78 47.72 1.24
5 15 3 3.37 3.77 0.43
5 16 3 51.63 51.58 1.40
5 17 3 23.50 24.07 1.03
5 18 3 24.30 24.29 1.08
5 19 3 3.80 4.49 0.50
5 20 3 55.87 57.35 1.59
5 21 3 8.04 8.37 0.67
5 22 3 4.46 4.87 0.52
5 23 3 9.24 8.78 0.65
5 0 4 0.08 0.29 0.38
5 1 4 73.30 70.87 1.22
5 2 4 43.43 44.26 0.96
5 3 4 30.78 28.70 0.81
5 4 4 16.72 17.51 0.67
5 5 4 7.27 6.33 0.52
5 6 4 28.31 28.78 0.85
5 7 4 30.43 30.52 0.88
5 8 4 91.00 90.68 1.55
5 9 4 1.90 2.71 0.38
5 10 4 117.24 113.51 1.86
5 11 4 35.29 35.10 1.05
5 12 4 85.09 86.88 1.65
5 13 4 3.58 4.46 0.43
5 14 4 83.10 87.29 1.75
5 15 4 19.94 20.97 0.98
5 16 4 20.89 22.50 1.01
5 17 4 9.25 8.37 0.70
5 18 4 24.48 25.88 1.11
5 19 4 75.11 76.77 1.82
5 20 4 0.43 0.06 0.39
5 21 4 43.80 44.78 1.43
5 22 4 13.53 11.90 0.95
5 0 5 7.91 7.16 0.57
5 1 5 192.68 188.67 2.42
5 2 5 32.64 32.26 0.90
5 3 5 15.79 16.31 0.69
5 4 5 74.34 73.92 1.38
5 5 5 61.12 60.34 1.26
5 6 5 18.99 18.87 0.79
5 7 5 35.33 34.96 0.99
5 8 5 53.11 50.90 1.22
5 9 5 11.96 11.07 0.71
5 10 5 19.84 19.20 0.85
5 11 5 20.20 20.68 0.90
5 12 5 0.41 0.98 0.35
5 13 5 18.20 18.01 0.91
5 14 5 41.73 42.85 1.26
5 15 5 1.42 1.34 0.40
5 16 5 18.33 18.98 0.96
5 17 5 3.00 3.73 0.48
5 18 5 29.29 29.93 1.19
5 19 5 2.79 3.19 0.48
5 20 5 12.84 12.09 0.95
5 21 5 10.03 8.93 0.67
5 0 6 48.79 47.99 1.17
5 1 6 47.38 46.05 1.13
5 2 6 12.49 11.23 0.70
5 3 6 56.15 54.67 1.25
5 4 6 53.23 50.43 1.22
5 5 6 82.90 81.33 1.57
5 6 6 12.97 13.61 0.74
5 7 6 107.12 106.11 1.85
5 8 6 22.72 22.26 0.92
5 9 6 21.45 21.34 0.89
5 10 6 68.43 69.91 1.54
5 11 6 79.20 81.15 1.70
5 12 6 0.45 0.52 0.36
5 13 6 67.38 68.17 1.62
5 14 6 55.35 54.64 1.48
5 15 6 13.64 15.48 0.92
5 16 6 4.98 5.40 0.52
5 17 6 54.11 53.51 1.55
5 18 6 7.88 7.34 0.65
5 19 6 5.21 5.30 0.53
5 20 6 0.01 0.01 0.39
5 0 7 1.16 1.51 0.38
5 1 7 29.96 30.30 1.01
5 2 7 16.96 16.95 0.86
5 3 7 4.16 4.07 0.44
5 4 7 112.16 109.01 1.91
5 5 7 10.13 10.49 0.68
5 6 7 19.78 21.29 0.92
5 7 7 9.23 9.85 0.75
5 8 7 102.38 101.53 1.92
5 9 7 10.44 11.56 0.77
5 10 7 2.12 2.04 0.42
5 11 7 4.50 4.33 0.47
5 12 7 14.23 13.44 0.80
5 13 7 13.85 16.44 0.94
5 14 7 5.51 6.49 0.54
5 15 7 18.06 18.55 1.01
5 16 7 8.65 7.96 0.75
5 17 7 4.16 4.98 0.52
5 18 7 2.52 2.98 0.47
5 0 8 37.83 37.12 1.19
5 1 8 48.38 48.40 1.33
5 2 8 3.15 3.29 0.43
5 3 8 0.50 0.70 0.36
5 4 8 20.54 19.76 0.98
5 5 8 143.86 142.10 2.37
5 6 8 0.54 1.20 0.80
5 7 8 5.16 5.33 0.50
5 8 8 2.66 2.99 0.45
5 9 8 24.77 24.47 1.07
5 10 8 2.08 2.09 0.43
5 11 8 11.20 12.89 0.89
5 12 8 8.74 8.19 0.64
5 13 8 32.64 32.90 1.28
5 14 8 8.68 8.26 0.66
5 15 8 8.45 8.93 0.66
5 16 8 10.94 12.10 0.91
5 17 8 59.49 59.70 1.61
5 0 9 0.09 0.69 0.80
5 1 9 31.27 30.47 1.15
5 2 9 35.86 35.96 1.44
5 3 9 6.83 5.57 0.62
5 4 9 5.20 6.30 0.64
5 5 9 15.48 14.38 1.08
5 6 9 27.87 27.63 1.30
5 7 9 9.50 9.66 0.85
5 8 9 0.67 1.12 0.52
5 9 9 0.68 1.34 0.42
5 10 9 21.20 21.62 1.09
5 11 9 15.37 15.73 1.00
5 12 9 0.89 1.73 0.43
5 13 9 8.60 8.90 0.67
5 14 9 6.71 6.88 0.55
5 15 9 2.00 2.66 0.46
5 0 10 76.45 76.00 3.16
5 1 10 5.35 5.28 0.91
5 2 10 2.55 2.88 0.58
5 3 10 51.00 51.81 1.74
5 4 10 25.03 24.91 1.30
5 5 10 32.00 30.41 1.47
5 6 10 5.87 6.69 0.69
5 7 10 18.47 18.08 1.19
5 8 10 6.27 7.07 0.69
5 9 10 34.18 33.15 1.44
5 10 10 0.63 0.88 0.53
5 11 10 1.20 2.05 0.54
5 12 10 5.45 5.95 0.54
5 0 11 5.36 3.79 1.54
5 1 11 25.01 24.13 2.03
5 2 11 11.63 12.45 1.63
5 3 11 17.87 16.58 1.19
5 4 11 12.50 11.13 0.92
5 5 11 0.06 0.06 0.52
5 6 11 39.61 40.26 1.55
5 7 11 2.06 2.46 0.57
6 0 0 138.84 135.81 1.78
6 1 0 66.24 66.98 1.14
6 2 0 4.80 4.89 0.44
6 3 0 33.15 31.99 0.80
6 4 0 9.41 10.03 0.52
6 5 0 79.86 77.23 1.30
6 6 0 71.00 71.24 1.26
6 7 0 88.45 85.21 1.43
6 8 0 60.51 59.54 1.19
6 9 0 0.06 0.23 0.44
6 10 0 91.31 88.81 1.58
6 11 0 0.10 0.26 0.32
6 12 0 64.62 64.70 1.37
6 13 0 20.96 21.67 0.90
6 14 0 8.98 9.33 0.65
6 15 0 26.76 28.74 1.03
6 16 0 6.89 7.36 0.64
6 17 0 8.30 9.02 0.70
6 18 0 22.44 21.43 1.04
6 19 0 6.10 7.04 0.69
6 21 0 2.48 2.29 0.45
6 22 0 24.50 23.78 1.11
6 23 0 0.11 0.68 0.40
6 0 1 42.01 39.93 0.88
6 1 1 121.55 119.70 1.65
6 2 1 87.48 86.51 1.35
6 3 1 77.87 76.88 1.27
6 4 1 87.62 88.41 1.40
6 5 1 107.39 105.56 1.57
6 6 1 9.92 9.57 0.54
6 7 1 61.36 61.62 1.19
6 8 1 53.80 53.33 1.13
6 9 1 1.65 1.47 0.48
6 10 1 1.05 1.47 0.34
6 11 1 27.53 26.91 0.91
6 12 1 12.78 12.90 0.76
6 13 1 122.19 120.71 2.01
6 14 1 39.55 41.53 1.19
6 15 1 18.48 18.73 0.90
6 16 1 11.08 11.85 0.79
6 17 1 72.32 72.57 1.67
6 18 1 64.77 66.96 1.64
6 19 1 17.79 18.69 1.00
6 20 1 12.25 13.30 0.93
6 21 1 8.93 8.11 0.65
6 22 1 23.39 22.02 1.10
6 23 1 10.49 9.42 0.88
6 0 2 18.60 19.38 0.66
6 1 2 115.16 115.04 1.64
6 2 2 179.98 175.77 2.22
6 3 2 2.99 3.34 0.43
6 4 2 0.97 0.87 0.41
6 5 2 48.88 47.76 1.03
6 6 2 8.82 9.58 0.57
6 7 2 18.74 18.10 0.72
6 8 2 47.91 46.96 1.09
6 9 2 6.55 5.50 0.58
6 10 2 109.72 107.28 1.78
6 11 2 3.28 3.74 0.41
6 12 2 30.56 30.76 1.03
6 13 2 10.21 10.86 0.68
6 14 2 94.29 91.97 1.80
6 15 2 1.23 1.03 0.37
6 16 2 8.39 7.03 0.59
6 17 2 14.33 14.38 0.90
6 18 2 7.08 7.53 0.62
6 19 2 6.39 6.99 0.61
6 20 2 1.37 1.85 0.44
6 21 2 9.76 8.81 0.77
6 22 2 5.71 6.27 0.55
6 23 2 11.87 13.55 1.56
6 0 3 11.90 12.39 0.60
6 1 3 99.10 100.13 1.55
6 2 3 17.55 16.70 0.68
6 3 3 202.56 201.16 2.49
6 4 3 67.39 67.11 1.25
6 5 3 4.37 4.58 0.52
6 6 3 23.88 24.60 0.81
6 7 3 56.79 57.84 1.21
6 8 3 24.19 22.98 0.83
6 9 3 26.68 25.52 0.90
6 10 3 0.80 1.30 0.36
6 11 3 6.69 6.87 0.52
6 12 3 22.23 20.83 0.90
6 13 3 4.20 4.41 0.44
6 14 3 47.37 48.29 1.34
6 15 3 32.03 32.45 1.14
6 16 3 30.28 28.50 1.13
6 17 3 12.43 12.86 0.88
6 18 3 69.80 69.92 1.72
6 19 3 46.71 47.22 1.47
6 20 3 3.62 3.03 0.48
6 21 3 21.28 21.03 1.11
6 22 3 29.58 29.06 1.21
6 0 4 0.63 1.06 0.44
6 1 4 96.60 94.42 1.57
6 2 4 20.73 21.10 0.76
6 3 4 56.48 57.03 1.19
6 4 4 2.04 0.92 0.49
6 5 4 38.24 36.98 1.01
6 6 4 68.69 67.26 1.36
6 7 4 4.94 4.95 0.42
6 8 4 17.67 16.98 0.79
6 9 4 41.41 40.14 1.13
6 10 4 49.00 48.52 1.26
6 11 4 2.29 2.50 0.38
6 12 4 28.60 27.46 1.03
6 13 4 3.89 4.69 0.46
6 14 4 40.98 39.85 1.26
6 15 4 4.23 3.83 0.47
6 16 4 30.75 32.07 1.19
6 17 4 81.19 80.66 1.83
6 18 4 10.02 9.93 0.80
6 19 4 31.99 31.54 1.26
6 20 4 12.25 12.41 0.93
6 21 4 55.96 54.73 1.56
6 0 5 15.52 14.35 0.75
6 1 5 66.35 65.29 1.34
6 2 5 18.66 19.75 0.81
6 3 5 109.11 106.49 1.78
6 4 5 20.32 19.17 0.82
6 5 5 4.14 4.20 0.42
6 6 5 42.90 44.01 1.15
6 7 5 11.36 10.20 0.71
6 8 5 0.14 0.26 0.37
6 9 5 34.19 33.86 1.10
6 10 5 2.09 2.30 0.39
6 11 5 20.68 19.41 0.93
6 12 5 23.43 23.27 1.00
6 13 5 8.78 9.57 0.63
6 14 5 21.25 22.73 1.05
6 15 5 2.21 1.92 0.43
6 16 5 16.63 16.90 1.00
6 17 5 1.59 1.90 0.44
6 18 5 17.98 17.82 1.01
6 19 5 6.15 6.04 0.54
6 20 5 0.28 0.09 0.38
6 0 6 53.27 51.10 1.26
6 1 6 101.68 101.53 1.79
6 2 6 74.47 72.67 1.52
6 3 6 57.34 56.13 1.34
6 4 6 18.93 19.73 0.88
6 5 6 80.21 79.95 1.62
6 6 6 70.94 74.20 1.57
6 7 6 6.91 6.36 0.48
6 8 6 11.89 10.87 0.78
6 9 6 75.60 76.31 1.67
6 10 6 13.32 12.77 0.86
6 11 6 34.25 33.33 1.18
6 12 6 39.80 40.68 1.28
6 13 6 35.14 34.90 1.25
6 14 6 13.82 13.23 0.94
6 15 6 41.81 43.73 1.38
6 16 6 26.41 28.95 1.18
6 17 6 23.46 22.90 1.11
6 18 6 8.30 8.67 0.60
6 19 6 14.42 14.38 0.95
6 0 7 17.27 17.80 0.87
6 1 7 1.85 2.26 0.39
6 2 7 49.89 50.17 1.34
6 3 7 12.34 11.87 0.80
6 4 7 7.68 8.21 0.66
6 5 7 20.68 20.79 0.93
6 6 7 96.69 99.06 1.91
6 7 7 1.56 2.33 0.42
6 8 7 18.55 19.11 0.94
6 9 7 5.29 5.12 0.55
6 10 7 57.86 58.27 1.53
6 11 7 5.14 5.15 0.51
6 12 7 16.95 17.59 1.01
6 13 7 16.88 15.61 0.99
6 14 7 12.51 13.89 0.95
6 15 7 3.06 3.54 0.49
6 16 7 0.06 0.09 0.40
6 17 7 10.87 11.97 0.88
6 18 7 6.93 7.12 0.55
6 0 8 27.36 28.58 1.10
6 1 8 1.01 1.25 0.39
6 2 8 13.62 14.89 0.88
6 3 8 50.04 49.72 1.40
6 4 8 8.29 7.84 0.70
6 5 8 3.26 3.43 0.45
6 6 8 12.01 13.28 0.90
6 7 8 51.46 53.60 1.47
6 8 8 0.28 0.73 0.39
6 9 8 2.68 3.17 0.47
6 10 8 6.68 7.89 0.67
6 11 8 18.75 17.78 1.04
6 12 8 1.47 2.43 0.46
6 13 8 10.37 10.55 0.75
6 14 8 15.36 15.41 0.98
6 15 8 40.54 41.65 1.38
6 16 8 22.37 21.34 1.09
6 0 9 37.39 39.42 1.32
6 1 9 1.03 1.12 0.41
6 2 9 11.23 11.54 0.88
6 3 9 12.47 11.32 0.82
6 4 9 9.54 9.06 0.76
6 5 9 2.51 2.74 0.46
6 6 9 11.34 13.20 0.91
6 7 9 6.66 7.09 0.57
6 8 9 27.66 30.38 1.19
6 9 9 5.16 5.88 0.54
6 10 9 42.03 42.55 1.41
6 11 9 5.89 6.63 0.62
6 12 9 34.84 36.79 1.32
6 13 9 14.37 14.09 0.95
6 0 10 3.78 4.98 0.53
6 1 10 41.02 43.92 1.41
6 2 10 45.54 46.27 1.46
6 3 10 1.26 1.63 0.46
6 4 10 5.82 7.10 0.57
6 5 10 50.27 52.15 1.53
6 6 10 8.14 8.65 0.67
6 7 10 21.60 22.81 1.13
6 8 10 0.93 1.59 0.43
6 9 10 3.91 4.58 0.51
6 0 11 6.29 7.52 0.64
6 1 11 28.84 29.92 1.40
6 2 11 3.07 4.33 0.61
7 2 0 72.87 72.19 1.31
7 3 0 13.60 13.81 0.63
7 4 0 3.93 3.85 0.51
7 5 0 54.81 53.11 1.17
7 6 0 22.17 21.32 0.80
7 7 0 2.30 2.44 0.35
7 8 0 34.38 35.02 1.00
7 9 0 44.43 43.38 1.13
7 10 0 102.20 99.01 1.77
7 11 0 32.98 33.06 1.06
7 12 0 24.27 24.53 0.95
7 13 0 0.08 0.08 0.35
7 14 0 17.98 17.59 0.90
7 15 0 16.62 15.29 0.89
7 16 0 2.95 2.51 0.44
7 17 0 12.77 11.61 0.86
7 18 0 1.59 1.24 0.42
7 19 0 3.41 3.13 0.47
7 20 0 23.00 25.09 1.12
7 21 0 18.26 18.02 1.04
7 22 0 1.11 1.45 0.44
7 0 1 223.71 221.11 2.73
7 1 1 58.02 56.97 1.15
7 2 1 16.99 16.06 0.69
7 3 1 40.49 41.89 1.00
7 4 1 69.61 70.64 1.32
7 5 1 72.35 73.62 1.37
7 6 1 39.30 40.24 1.04
7 7 1 23.13 23.05 0.84
7 8 1 0.85 1.15 0.34
7 9 1 102.31 101.15 1.77
7 10 1 19.85 19.23 0.85
7 11 1 18.95 18.36 0.87
7 12 1 0.29 0.52 0.33
7 13 1 36.45 37.31 1.17
7 14 1 20.76 18.24 0.96
7 15 1 11.73 10.83 0.80
7 16 1 18.16 17.49 0.98
7 17 1 36.66 36.27 1.27
7 18 1 41.84 43.21 1.39
7 19 1 27.52 26.56 1.17
7 20 1 11.28 11.28 0.91
7 21 1 26.62 25.43 1.16
7 22 1 34.06 33.89 1.29
7 0 2 12.27 11.59 0.64
7 1 2 2.13 2.06 0.49
7 2 2 38.04 39.11 0.99
7 3 2 28.97 29.34 0.88
7 4 2 13.58 12.74 0.67
7 5 2 49.01 50.99 1.15
7 6 2 212.42 210.46 2.72
7 7 2 7.64 7.14 0.51
7 8 2 17.90 17.62 0.81
7 9 2 25.28 23.75 0.94
7 10 2 146.61 143.49 2.23
7 11 2 10.75 10.75 0.67
7 12 2 58.73 58.80 1.43
7 13 2 5.72 5.31 0.52
7 14 2 6.43 5.81 0.50
7 15 2 17.51 20.16 0.96
7 16 2 15.78 15.29 0.94
7 17 2 6.75 6.20 0.59
7 18 2 10.66 11.32 0.88
7 19 2 1.34 1.67 0.44
7 20 2 1.11 1.90 0.45
7 21 2 0.86 0.99 0.41
7 0 3 3.75 3.79 0.54
7 1 3 119.88 119.05 1.86
7 2 3 31.16 30.40 0.93
7 3 3 17.70 18.08 0.78
7 4 3 26.54 24.74 0.87
7 5 3 103.62 103.54 1.74
7 6 3 44.07 44.66 1.13
7 7 3 11.43 12.11 0.71
7 8 3 38.68 37.75 1.09
7 9 3 6.17 5.72 0.52
7 10 3 6.01 6.04 0.52
7 11 3 6.42 6.00 0.60
7 12 3 14.49 15.00 0.85
7 13 3 20.94 21.52 0.99
7 14 3 42.96 42.89 1.33
7 15 3 14.81 16.46 0.94
7 16 3 25.86 24.76 1.14
7 17 3 33.49 32.70 1.25
7 18 3 8.46 7.97 0.65
7 19 3 22.73 21.30 1.10
7 20 3 12.91 12.75 0.93
7 21 3 9.45 8.93 0.75
7 0 4 2.15 2.64 0.38
7 1 4 65.58 66.80 1.39
7 2 4 12.51 12.03 0.72
7 3 4 24.93 23.56 0.89
7 4 4 57.82 57.45 1.30
7 5 4 51.94 52.27 1.27
7 6 4 48.68 48.93 1.24
7 7 4 5.00 4.55 0.44
7 8 4 9.51 9.21 0.65
7 9 4 17.93 16.63 0.86
7 10 4 11.10 11.89 0.79
7 11 4 14.36 14.10 0.86
7 12 4 28.62 27.43 1.09
7 13 4 40.74 39.65 1.31
7 14 4 12.00 11.89 0.88
7 15 4 38.24 38.49 1.32
7 16 4 33.81 35.71 1.27
7 17 4 22.24 23.34 1.09
7 18 4 14.89 16.22 0.99
7 19 4 27.16 25.81 1.19
7 20 4 2.93 1.95 0.44
7 0 5 2.60 3.03 0.40
7 1 5 22.84 22.20 0.90
7 2 5 21.92 21.85 0.88
7 3 5 8.06 7.29 0.62
7 4 5 32.11 31.63 1.06
7 5 5 32.27 32.85 1.07
7 6 5 27.19 27.47 1.01
7 7 5 46.53 45.23 1.27
7 8 5 63.43 63.05 1.50
7 9 5 5.20 4.85 0.47
7 10 5 43.55 44.51 1.31
7 11 5 13.47 12.10 0.85
7 12 5 30.65 28.34 1.15
7 13 5 5.11 4.62 0.49
7 14 5 52.76 53.56 1.51
7 15 5 2.51 3.17 0.47
7 16 5 12.69 12.25 0.83
7 17 5 4.21 4.06 0.50
7 18 5 6.74 5.71 0.53
7 19 5 4.74 5.52 0.53
7 0 6 14.69 14.48 0.82
7 1 6 61.84 61.73 1.47
7 2 6 74.97 77.61 1.65
7 3 6 57.21 58.01 1.45
7 4 6 53.74 55.15 1.40
7 5 6 6.45 6.53 0.54
7 6 6 13.07 12.19 0.84
7 7 6 32.67 33.86 1.19
7 8 6 28.54 28.56 1.11
7 9 6 9.85 8.96 0.72
7 10 6 7.77 7.53 0.69
7 11 6 24.29 25.38 1.09
7 12 6 7.15 6.72 0.61
7 13 6 12.60 13.49 0.92
7 14 6 9.56 10.87 0.78
7 15 6 18.63 17.57 1.03
7 16 6 20.73 19.02 1.05
7 17 6 16.71 14.90 0.99
7 18 6 7.78 7.08 0.63
7 0 7 31.94 30.77 1.15
7 1 7 1.12 1.23 0.39
7 2 7 69.75 72.78 1.67
7 3 7 8.41 8.24 0.70
7 4 7 3.32 3.14 0.44
7 5 7 4.63 4.84 0.49
7 6 7 2.95 3.28 0.45
7 7 7 20.73 22.40 1.04
7 8 7 34.08 35.71 1.24
7 9 7 18.30 17.26 1.01
7 10 7 36.15 37.20 1.31
7 11 7 13.57 12.97 0.83
7 12 7 22.44 20.66 1.10
7 13 7 7.62 7.68 0.64
7 14 7 29.57 29.21 1.25
7 15 7 6.93 6.91 0.56
7 16 7 0.01 0.19 0.82
7 0 8 0.92 1.20 0.41
7 1 8 31.90 32.42 1.23
7 2 8 70.19 71.59 1.70
7 3 8 16.66 18.33 0.99
7 4 8 6.09 6.37 0.60
7 5 8 9.50 10.55 0.85
7 6 8 3.60 4.52 0.50
7 7 8 9.33 8.71 0.74
7 8 8 3.73 3.93 0.53
7 9 8 24.18 23.61 1.12
7 10 8 1.82 2.12 0.45
7 11 8 29.08 27.76 1.19
7 12 8 16.26 17.28 1.01
7 13 8 20.93 21.17 1.06
7 14 8 2.61 2.45 0.45
7 0 9 3.79 4.68 0.52
7 1 9 4.01 4.48 0.50
7 2 9 10.41 10.49 0.80
7 3 9 6.89 7.24 0.60
7 4 9 19.36 19.40 1.05
7 5 9 11.83 10.77 0.70
7 6 9 9.67 10.39 0.74
7 7 9 3.07 3.84 0.49
7 8 9 58.73 57.96 1.61
7 9 9 0.45 0.70 0.88
7 10 9 31.51 31.93 1.24
7 11 9 6.23 6.64 0.55
7 0 10 0.29 0.22 0.43
7 1 10 31.73 31.41 1.25
7 2 10 2.87 3.96 0.49
7 3 10 64.48 66.63 1.70
7 4 10 6.67 7.52 0.57
7 5 10 0.37 0.73 0.42
7 6 10 10.35 9.79 0.89
8 0 0 2.68 2.37 0.37
8 1 0 1.28 1.73 0.35
8 2 0 49.98 49.84 1.17
8 3 0 0.08 0.14 0.33
8 4 0 2.02 2.39 0.38
8 5 0 10.11 10.70 0.69
8 6 0 135.86 132.43 2.09
8 7 0 18.35 18.13 0.86
8 8 0 5.57 5.77 0.52
8 9 0 64.08 64.68 1.49
8 10 0 18.24 17.97 0.89
8 11 0 21.98 22.98 0.97
8 12 0 9.16 10.28 0.67
8 13 0 56.72 58.95 1.51
8 14 0 1.47 1.29 0.40
8 15 0 1.57 1.81 0.43
8 16 0 34.66 36.54 1.27
8 17 0 16.83 17.16 0.99
8 18 0 0.18 0.53 0.40
8 19 0 10.00 9.36 0.68
8 20 0 0.68 0.79 0.41
8 0 1 34.47 31.78 0.99
8 1 1 31.00 31.37 0.97
8 2 1 100.48 97.17 1.69
8 3 1 0.72 1.25 0.35
8 4 1 34.01 32.92 1.01
8 5 1 69.32 67.36 1.42
8 6 1 2.28 2.57 0.40
8 7 1 22.09 22.04 0.90
8 8 1 4.64 5.15 0.50
8 9 1 63.27 61.59 1.47
8 10 1 3.93 4.38 0.44
8 11 1 4.32 4.01 0.45
8 12 1 20.72 21.40 1.00
8 13 1 26.29 26.48 1.08
8 14 1 4.38 4.58 0.49
8 15 1 19.02 18.73 0.99
8 16 1 8.79 8.80 0.76
8 17 1 17.25 18.55 1.04
8 18 1 3.29 3.96 0.50
8 19 1 40.59 40.95 1.37
8 20 1 35.87 37.79 1.31
8 0 2 0.21 0.56 0.34
8 1 2 2.39 3.15 0.39
8 2 2 32.84 32.58 1.01
8 3 2 11.59 11.51 0.73
8 4 2 132.10 130.61 2.08
8 5 2 2.88 3.10 0.41
8 6 2 51.60 50.39 1.27
8 7 2 13.98 12.60 0.81
8 8 2 179.23 184.12 2.65
8 9 2 1.96 1.98 0.38
8 10 2 25.00 23.35 0.99
8 11 2 5.10 4.24 0.46
8 12 2 27.13 27.99 1.09
8 13 2 2.88 2.77 0.44
8 14 2 27.37 27.45 1.13
8 15 2 3.75 3.74 0.48
8 16 2 21.85 21.44 1.06
8 17 2 5.26 5.44 0.54
8 18 2 4.29 2.95 0.47
8 19 2 2.23 3.05 0.47
8 20 2 10.31 10.52 0.77
8 0 3 83.15 83.62 1.62
8 1 3 2.03 1.92 0.38
8 2 3 14.72 14.85 0.80
8 3 3 36.17 35.28 1.06
8 4 3 43.08 42.45 1.18
8 5 3 23.17 23.21 0.94
8 6 3 34.41 36.18 1.11
8 7 3 35.34 35.30 1.12
8 8 3 21.06 21.46 0.93
8 9 3 59.81 60.29 1.48
8 10 3 70.09 71.64 1.64
8 11 3 10.75 11.08 0.82
8 12 3 63.28 63.72 1.60
8 13 3 34.53 37.87 1.27
8 14 3 14.92 16.09 0.94
8 15 3 0.76 0.54 0.39
8 16 3 11.33 12.39 0.90
8 17 3 2.41 3.27 0.48
8 18 3 5.05 6.03 0.54
8 19 3 1.43 1.87 0.44
8 0 4 5.42 5.56 0.50
8 1 4 13.29 14.22 0.77
8 2 4 16.05 16.51 0.83
8 3 4 45.95 46.35 1.25
8 4 4 23.10 24.02 0.96
8 5 4 10.88 12.20 0.75
8 6 4 6.29 6.97 0.52
8 7 4 39.86 41.55 1.25
8 8 4 65.94 65.92 1.57
8 9 4 24.48 24.81 1.03
8 10 4 29.68 31.10 1.16
8 11 4 56.70 54.92 1.49
8 12 4 15.29 15.83 0.93
8 13 4 25.24 24.93 1.10
8 14 4 25.33 25.26 1.14
8 15 4 37.05 39.29 1.35
8 16 4 7.47 8.50 0.60
8 17 4 6.98 7.23 0.63
8 18 4 0.39 0.56 0.40
8 0 5 0.51 0.67 0.35
8 1 5 21.06 23.65 0.96
8 2 5 17.90 18.41 0.89
8 3 5 14.63 15.02 0.85
8 4 5 16.11 17.27 0.89
8 5 5 34.49 34.30 1.17
8 6 5 46.49 47.08 1.34
8 7 5 8.59 8.40 0.70
8 8 5 36.60 37.39 1.26
8 9 5 13.85 13.62 0.90
8 10 5 50.47 50.12 1.46
8 11 5 0.55 1.11 0.40
8 12 5 55.67 54.43 1.56
8 13 5 0.88 1.24 0.43
8 14 5 6.80 5.54 0.54
8 15 5 13.12 14.20 0.95
8 16 5 9.67 10.34 0.89
8 17 5 5.27 5.47 0.53
8 0 6 84.35 86.54 1.82
8 1 6 1.90 1.91 0.41
8 2 6 8.76 8.50 0.70
8 3 6 12.27 12.44 0.86
8 4 6 36.80 37.36 1.24
8 5 6 21.56 22.65 1.03
8 6 6 14.51 16.60 0.94
8 7 6 31.55 28.65 1.19
8 8 6 13.20 13.15 0.94
8 9 6 4.81 5.34 0.52
8 10 6 0.05 0.14 0.40
8 11 6 29.14 29.89 1.23
8 12 6 0.09 0.03 0.39
8 13 6 8.90 9.92 0.74
8 14 6 2.80 3.34 0.48
8 15 6 14.61 14.96 0.99
8 16 6 18.09 18.96 1.05
8 0 7 56.05 55.43 1.55
8 1 7 4.80 5.07 0.50
8 2 7 1.14 1.32 0.42
8 3 7 11.92 11.46 0.77
8 4 7 57.65 60.69 1.59
8 5 7 1.31 1.03 0.41
8 6 7 2.77 3.15 0.47
8 7 7 36.78 36.29 1.30
8 8 7 29.58 30.79 1.23
8 9 7 9.72 10.47 0.79
8 10 7 0.13 0.13 0.43
8 11 7 30.53 28.69 1.24
8 12 7 33.22 33.15 1.25
8 13 7 7.67 8.78 0.67
8 14 7 11.60 13.34 0.94
8 0 8 46.06 48.06 1.47
8 1 8 43.63 45.39 1.44
8 2 8 10.39 10.11 0.77
8 3 8 36.63 35.72 1.32
8 4 8 11.93 11.88 0.83
8 5 8 15.13 14.32 0.99
8 6 8 8.82 9.01 0.64
8 7 8 12.98 13.53 0.95
8 8 8 3.16 3.14 0.48
8 9 8 3.16 3.96 0.50
8 10 8 4.11 4.51 0.50
8 11 8 21.13 22.72 1.10
8 0 9 6.71 6.33 0.55
8 1 9 5.50 5.89 0.54
8 2 9 19.52 20.20 1.10
8 3 9 16.16 17.35 1.03
8 4 9 19.53 18.13 1.06
8 5 9 0.61 0.91 0.44
8 6 9 42.57 44.74 1.39
8 7 9 21.05 23.48 1.12
8 8 9 6.39 7.60 0.65
9 1 0 0.49 0.58 0.33
9 2 0 23.43 24.39 0.96
9 4 0 181.98 180.03 2.65
9 5 0 0.07 0.59 0.69
9 6 0 6.08 6.77 0.55
9 7 0 7.74 7.32 0.65
9 8 0 129.48 128.01 2.23
9 9 0 5.10 4.45 0.47
9 10 0 16.69 15.98 0.92
9 11 0 26.10 25.43 1.09
9 12 0 5.67 5.61 0.52
9 13 0 6.53 6.87 0.55
9 14 0 40.73 42.83 1.39
9 15 0 37.38 38.02 1.32
9 16 0 0.07 0.11 0.41
9 18 0 4.69 4.73 0.51
9 0 1 7.41 7.54 0.55
9 1 1 12.35 12.07 0.76
9 2 1 26.54 26.92 1.00
9 3 1 14.36 13.20 0.81
9 4 1 4.81 5.95 0.52
9 5 1 7.76 7.08 0.62
9 6 1 19.56 19.95 0.93
9 7 1 40.81 39.98 1.25
9 8 1 13.74 14.52 0.85
9 9 1 37.95 39.41 1.23
9 10 1 4.62 4.39 0.48
9 11 1 35.16 35.16 1.24
9 12 1 3.53 3.33 0.47
9 13 1 60.42 60.59 1.61
9 14 1 13.73 13.85 0.95
9 15 1 4.13 4.27 0.50
9 16 1 9.54 10.41 0.86
9 17 1 23.25 22.27 1.10
9 18 1 1.37 1.41 0.43
9 0 2 114.34 113.99 2.02
9 1 2 1.41 1.84 0.38
9 2 2 4.92 4.65 0.45
9 3 2 3.10 2.85 0.41
9 4 2 92.97 93.74 1.83
9 5 2 32.08 33.17 1.11
9 6 2 11.08 10.18 0.80
9 7 2 12.01 11.36 0.83
9 8 2 6.57 6.40 0.52
9 9 2 62.32 64.93 1.59
9 10 2 9.19 10.23 0.79
9 11 2 16.38 16.14 0.94
9 12 2 20.00 19.75 1.04
9 13 2 34.40 35.95 1.30
9 14 2 11.39 10.78 0.80
9 15 2 10.18 11.07 0.86
9 16 2 17.32 18.63 1.04
9 17 2 4.34 3.74 0.48
9 18 2 12.79 13.28 0.90
9 0 3 19.68 20.48 0.91
9 1 3 20.06 20.93 0.94
9 2 3 75.21 74.85 1.63
9 3 3 0.21 0.07 0.34
9 4 3 7.85 7.91 0.58
9 5 3 21.83 22.00 1.01
9 6 3 27.06 28.33 1.10
9 7 3 17.08 16.78 0.93
9 8 3 84.50 87.60 1.87
9 9 3 9.05 10.15 0.84
9 10 3 48.80 50.57 1.45
9 11 3 15.55 15.94 0.96
9 12 3 43.15 45.20 1.40
9 13 3 4.37 4.00 0.50
9 14 3 31.08 31.15 1.26
9 15 3 2.47 3.64 0.49
9 16 3 2.05 2.19 0.45
9 17 3 4.75 4.98 0.52
9 0 4 67.57 67.73 1.61
9 1 4 0.85 1.61 0.40
9 2 4 3.05 3.51 0.44
9 3 4 13.83 15.55 0.88
9 4 4 41.65 43.19 1.30
9 5 4 18.88 19.57 0.98
9 6 4 29.10 29.65 1.11
9 7 4 14.51 13.46 0.89
9 8 4 33.92 35.68 1.25
9 9 4 19.17 20.89 1.01
9 10 4 46.47 49.91 1.49
9 11 4 0.44 0.59 0.40
9 12 4 36.08 36.34 1.29
9 13 4 1.31 1.34 0.43
9 14 4 4.52 4.55 0.51
9 15 4 5.25 5.42 0.53
9 16 4 4.87 4.82 0.52
9 0 5 71.45 70.48 1.70
9 1 5 12.52 12.45 0.87
9 2 5 43.94 44.40 1.35
9 3 5 41.55 40.93 1.31
9 4 5 13.84 13.48 0.90
9 5 5 0.64 1.16 0.40
9 6 5 17.07 18.14 1.00
9 7 5 37.12 37.33 1.28
9 8 5 19.92 20.99 1.04
9 9 5 1.51 1.63 0.43
9 10 5 2.65 2.96 0.47
9 11 5 21.26 21.14 1.08
9 12 5 11.06 11.88 0.89
9 13 5 9.41 7.93 0.66
9 14 5 2.23 2.85 0.47
9 15 5 9.67 9.62 0.77
9 0 6 0.38 0.90 0.40
9 1 6 2.62 2.91 0.46
9 2 6 16.38 16.32 0.97
9 3 6 29.94 30.84 1.19
9 4 6 9.70 9.34 0.75
9 5 6 11.46 11.03 0.87
9 6 6 9.34 10.28 0.84
9 7 6 16.26 16.28 0.99
9 8 6 3.33 3.25 0.49
9 9 6 22.27 24.20 1.13
9 10 6 5.44 5.31 0.58
9 11 6 22.34 21.48 1.09
9 12 6 7.89 9.37 0.75
9 13 6 8.38 7.98 0.58
9 0 7 19.19 18.65 1.04
9 1 7 5.52 6.16 0.61
9 2 7 21.68 21.08 1.10
9 3 7 5.17 5.60 0.53
9 4 7 21.04 19.98 1.09
9 5 7 19.18 20.47 1.09
9 6 7 63.72 64.33 1.68
9 7 7 1.04 1.37 0.43
9 8 7 21.74 21.48 1.06
9 9 7 12.35 11.71 0.94
9 10 7 12.88 13.65 0.94
9 11 7 1.32 1.43 0.43
9 0 8 4.05 4.47 0.51
9 1 8 2.41 2.39 0.45
9 2 8 3.00 3.00 0.47
9 3 8 13.27 13.88 0.96
9 4 8 23.71 24.01 1.15
9 5 8 7.75 7.08 0.63
9 6 8 17.06 19.26 1.02
9 7 8 29.05 29.88 1.22
9 8 8 4.32 5.16 0.52
10 0 0 276.20 278.15 3.65
10 1 0 0.00 0.08 0.75
10 2 0 10.05 10.47 0.80
10 3 0 1.27 1.78 0.41
10 4 0 119.69 121.55 2.20
10 5 0 11.85 10.70 0.83
10 6 0 23.83 24.98 1.08
10 7 0 1.04 1.35 0.41
10 8 0 3.42 3.14 0.47
10 9 0 20.31 18.89 1.01
10 10 0 4.39 3.78 0.48
10 11 0 1.99 2.49 0.45
10 12 0 1.09 1.97 0.45
10 14 0 7.43 7.60 0.72
10 15 0 1.37 1.62 0.43
10 16 0 0.45 0.16 0.39
10 0 1 0.72 0.76 0.38
10 1 1 40.68 41.77 1.29
10 2 1 12.52 13.48 0.81
10 3 1 19.02 19.50 0.96
10 4 1 14.22 13.37 0.90
10 5 1 5.90 5.92 0.57
10 6 1 41.21 42.30 1.32
10 7 1 11.82 12.08 0.79
10 8 1 2.08 2.22 0.44
10 9 1 8.88 10.27 0.85
10 10 1 11.06 11.27 0.87
10 11 1 50.05 49.60 1.49
10 12 1 10.40 9.13 0.78
10 13 1 9.58 9.52 0.69
10 14 1 9.61 9.03 0.77
10 15 1 17.11 17.31 1.01
10 16 1 2.27 2.41 0.45
10 0 2 55.01 52.79 1.46
10 1 2 3.88 3.75 0.47
10 2 2 51.22 51.73 1.46
10 3 2 13.51 14.70 0.89
10 4 2 17.29 19.20 0.96
10 5 2 6.18 5.46 0.51
10 6 2 2.51 2.75 0.45
10 7 2 37.55 37.77 1.27
10 8 2 7.91 7.55 0.71
10 9 2 2.37 2.76 0.46
10 10 2 33.10 33.33 1.27
10 11 2 45.84 45.53 1.45
10 12 2 1.64 2.38 0.46
10 13 2 0.58 0.99 0.42
10 14 2 36.26 35.51 1.30
10 15 2 34.00 34.10 1.28
10 0 3 8.93 7.75 0.71
10 1 3 0.72 0.74 0.39
10 2 3 15.78 15.46 0.91
10 3 3 5.10 5.21 0.51
10 4 3 15.91 15.94 0.93
10 5 3 8.47 8.43 0.64
10 6 3 57.77 58.97 1.56
10 7 3 2.26 2.48 0.45
10 9 3 10.80 11.08 0.88
10 10 3 24.56 23.55 1.15
10 11 3 1.76 1.86 0.44
10 12 3 21.26 22.45 1.09
10 13 3 28.24 28.03 1.21
10 14 3 2.07 2.58 0.46
10 15 3 4.17 2.54 0.45
10 0 4 2.86 3.28 0.47
10 1 4 8.77 8.98 0.73
10 2 4 14.67 15.11 0.91
10 3 4 19.14 18.34 1.03
10 4 4 13.76 15.94 0.95
10 5 4 34.80 33.43 1.26
10 6 4 4.74 4.00 0.49
10 7 4 40.03 40.05 1.39
10 8 4 21.47 22.66 1.11
10 9 4 13.95 16.04 0.98
10 10 4 23.16 23.44 1.14
10 11 4 20.72 21.65 1.10
10 12 4 1.12 1.57 0.43
10 13 4 0.83 0.98 0.41
10 14 4 21.06 20.30 1.06
10 0 5 17.21 18.45 1.01
10 1 5 32.33 33.40 1.25
10 2 5 32.95 31.06 1.25
10 3 5 1.14 1.31 0.43
10 4 5 22.92 23.76 1.11
10 5 5 57.49 58.60 1.63
10 6 5 18.43 20.34 1.08
10 7 5 2.59 2.26 0.46
10 8 5 12.00 12.89 0.91
10 9 5 43.66 42.58 1.42
10 10 5 12.66 13.47 0.96
10 11 5 2.24 2.22 0.45
10 12 5 10.99 9.58 0.79
10 0 6 0.09 0.18 0.42
10 1 6 9.69 9.54 0.65
10 2 6 12.02 12.00 0.94
10 3 6 0.18 0.45 0.40
10 4 6 2.05 2.03 0.45
10 5 6 3.47 4.06 0.50
10 6 6 3.54 3.25 0.48
10 7 6 13.26 13.42 0.86
10 8 6 5.95 6.45 0.55
10 9 6 6.93 6.84 0.62
10 10 6 15.20 16.04 0.97
10 0 7 3.22 3.49 0.49
10 1 7 4.82 5.96 0.54
10 2 7 88.86 87.78 1.97
10 3 7 3.51 3.78 0.49
10 4 7 9.22 9.50 0.78
10 5 7 4.68 4.76 0.51
10 6 7 37.83 38.02 1.32
10 7 7 11.61 12.04 0.93
11 1 0 0.57 0.80 0.40
11 2 0 192.73 189.61 2.96
11 3 0 10.94 10.75 0.80
11 4 0 0.86 0.68 0.40
11 5 0 0.42 0.39 0.40
11 6 0 17.19 20.37 1.06
11 7 0 60.42 60.50 1.62
11 8 0 0.46 0.92 0.42
11 9 0 1.24 1.76 0.44
11 10 0 11.28 10.73 0.81
11 11 0 55.34 57.45 1.58
11 12 0 5.23 4.61 0.51
11 13 0 11.07 10.02 0.81
11 0 1 0.03 0.32 0.38
11 1 1 31.99 31.48 1.22
11 2 1 1.50 1.63 0.43
11 3 1 9.97 8.88 0.75
11 4 1 8.24 8.35 0.64
11 5 1 27.43 27.07 1.17
11 6 1 1.65 1.69 0.44
11 7 1 27.74 29.46 1.19
11 8 1 14.93 15.59 0.99
11 9 1 2.89 2.18 0.45
11 10 1 7.25 8.25 0.66
11 11 1 5.46 5.39 0.53
11 12 1 0.78 0.89 0.41
11 13 1 14.03 13.94 0.82
11 0 2 8.88 7.79 0.71
11 1 2 9.56 10.45 0.85
11 2 2 17.52 15.05 0.99
11 3 2 22.55 21.66 1.10
11 4 2 11.01 13.38 0.90
11 5 2 1.04 1.54 0.44
11 6 2 1.90 2.01 0.45
11 7 2 20.17 20.56 1.07
11 8 2 8.81 9.73 0.78
11 9 2 2.25 2.35 0.46
11 10 2 3.32 3.31 0.48
11 11 2 21.59 22.46 1.10
11 12 2 6.88 6.19 0.60
11 0 3 16.85 16.49 0.99
11 1 3 19.22 20.13 1.04
11 2 3 9.43 9.02 0.75
11 3 3 0.94 0.63 0.40
11 4 3 29.61 28.67 1.21
11 5 3 17.37 19.90 1.03
11 6 3 17.60 18.89 1.04
11 7 3 13.54 13.03 0.94
11 8 3 16.37 15.91 1.03
11 9 3 2.71 3.25 0.47
11 10 3 3.76 3.84 0.49
11 11 3 18.56 16.89 1.04
11 0 4 7.83 7.24 0.64
11 1 4 13.84 15.07 0.97
11 2 4 28.15 28.72 1.20
11 3 4 35.90 36.70 1.32
11 4 4 7.39 7.71 0.59
11 5 4 3.49 3.38 0.48
11 6 4 15.80 17.09 0.98
11 7 4 5.57 5.26 0.53
11 8 4 1.00 1.46 0.43
11 9 4 12.85 11.32 0.81
11 10 4 4.10 3.50 0.48
11 0 5 7.71 9.31 0.69
11 1 5 14.93 15.02 1.00
11 2 5 36.06 36.31 1.32
11 3 5 23.03 23.50 1.09
11 4 5 2.28 2.51 0.45
11 5 5 3.78 3.19 0.47
11 6 5 47.85 49.90 1.52
11 7 5 11.62 12.62 0.90
11 8 5 0.06 0.27 0.41
11 0 6 20.05 18.85 1.06
11 1 6 5.15 4.95 0.52
11 2 6 0.46 0.95 0.44
11 3 6 28.52 28.80 1.19
11 4 6 6.65 7.22 0.62
12 0 0 10.13 9.26 0.69
12 1 0 13.14 14.34 0.97
12 2 0 5.32 5.54 0.59
12 3 0 25.87 25.58 1.16
12 4 0 2.20 2.41 0.45
12 5 0 18.43 18.15 1.01
12 6 0 21.74 21.10 1.06
12 7 0 7.54 8.31 0.59
12 8 0 0.55 0.62 0.41
12 9 0 37.44 37.02 1.32
12 0 1 12.13 12.75 0.91
12 1 1 4.89 5.29 0.53
12 2 1 4.69 3.93 0.50
12 3 1 24.82 23.14 1.14
12 4 1 7.69 9.13 0.71
12 5 1 38.00 35.58 1.32
12 6 1 0.21 0.53 0.40
12 7 1 21.52 23.48 1.13
12 8 1 9.25 10.40 0.88
12 0 2 0.82 1.02 0.42
12 1 2 5.36 5.30 0.53
12 2 2 50.31 48.98 1.52
12 3 2 1.20 1.57 0.43
12 4 2 9.41 8.92 0.77
12 5 2 8.17 7.99 0.64
12 6 2 16.20 15.58 1.01
12 7 2 5.04 5.05 0.52
12 8 2 5.79 5.48 0.59
12 0 3 0.20 1.10 0.86
12 1 3 16.52 18.59 1.00
12 2 3 0.35 0.85 0.42
12 3 3 20.65 21.41 1.09
12 4 3 1.15 1.91 0.44
12 5 3 6.89 7.25 0.71
12 6 3 1.06 0.92 0.41
12 0 4 12.43 14.64 0.95
12 1 4 45.66 45.43 1.43
12 2 4 7.88 9.35 0.86
12 3 4 17.15 17.67 1.02
