#------------------------------------------------------------------------------
#$Date: 2022-03-02 05:20:08 +0200 (Wed, 02 Mar 2022) $
#$Revision: 273207 $
#$URL: file:///home/coder/svn-repositories/cod/cif/1/56/64/1566448.cif $
#------------------------------------------------------------------------------
#
# This file is available in the Crystallography Open Database (COD),
# http://www.crystallography.net/. The original data for this entry
# were provided by IUCr Journals, http://journals.iucr.org/.
#
# The file may be used within the scientific community so long as
# proper attribution is given to the journal article from which the
# data were obtained.
#
data_1566448
loop_
_publ_author_name
'Ruth, Paul Niklas'
'Herbst-Irmer, Regine'
'Stalke, Dietmar'
_publ_section_title
;
 Hirshfeld atom refinement based on projector augmented wave densities
 with periodic boundary conditions
;
_journal_issue                   2
_journal_name_full               IUCrJ
_journal_page_first              286
_journal_page_last               297
_journal_paper_doi               10.1107/S2052252522001385
_journal_volume                  9
_journal_year                    2022
_chemical_absolute_configuration syn
_chemical_formula_moiety         'C3 H7 N O2'
_chemical_formula_sum            'C3 H7 N O2'
_chemical_formula_weight         89.0947
_space_group_crystal_system      orthorhombic
_space_group_IT_number           19
_space_group_name_Hall           'P 2ac 2ab'
_space_group_name_H-M_alt        'P 21 21 21'
_atom_sites_solution_hydrogens   difmap
_audit_creation_method           'xHARPY 0.1'
_cell_angle_alpha                90
_cell_angle_beta                 90
_cell_angle_gamma                90
_cell_formula_units_Z            4
_cell_length_a                   5.9279(10)
_cell_length_b                   12.2597(17)
_cell_length_c                   5.7939(9)
_cell_measurement_reflns_used    1524
_cell_measurement_temperature    23
_cell_measurement_theta_max      22.5
_cell_measurement_theta_min      15.0
_cell_volume                     421.07(11)
_computing_publication_material  'xHARPY 0.1'
_computing_structure_refinement  'xHARPY 0.1'
_computing_structure_solution    'SHELXS-2013 (Sheldrick, 2008)'
_diffrn_ambient_temperature      23
_diffrn_measured_fraction_theta_full 0.994
_diffrn_measured_fraction_theta_max 0.993
_diffrn_measurement_device_type  'P-1 four circle diffractometer'
_diffrn_measurement_method       'area detector'
_diffrn_radiation_type           MoK\a
_diffrn_radiation_wavelength     0.71073
_diffrn_reflns_av_unetI/netI     0.0243
_diffrn_reflns_Laue_measured_fraction_full 0.994
_diffrn_reflns_Laue_measured_fraction_max 0.993
_diffrn_reflns_limit_h_max       12
_diffrn_reflns_limit_h_min       0
_diffrn_reflns_limit_k_max       26
_diffrn_reflns_limit_k_min       0
_diffrn_reflns_limit_l_max       12
_diffrn_reflns_limit_l_min       0
_diffrn_reflns_number            2519
_diffrn_reflns_point_group_measured_fraction_full 0.618
_diffrn_reflns_point_group_measured_fraction_max 0.567
_diffrn_reflns_theta_full        25.242
_diffrn_reflns_theta_max         50.138
_diffrn_reflns_theta_min         3.323
_exptl_absorpt_coefficient_mu    0.117
_exptl_absorpt_correction_type   none
_exptl_crystal_colour            colorless
_exptl_crystal_density_diffrn    1.405
_exptl_crystal_density_method    'not measured'
_exptl_crystal_description       sphere
_exptl_crystal_F_000             192
_exptl_crystal_size_rad          0.18
_refine_diff_density_max         0.2320
_refine_diff_density_min         -0.1884
_refine_diff_density_rms         0.0439
_refine_ls_extinction_method     none
_refine_ls_goodness_of_fit_ref   1.14
_refine_ls_hydrogen_treatment    refall
_refine_ls_matrix_type           full
_refine_ls_number_parameters     118
_refine_ls_number_reflns         2519
_refine_ls_number_restraints     0
_refine_ls_R_factor_all          0.0209
_refine_ls_R_factor_gt           0.019
_refine_ls_shift/su_max          0.0
_refine_ls_shift/su_mean         0.0
_refine_ls_structure_factor_coef Fsqd
_refine_ls_weighting_details     w=1/[\s^2^(Fo^2^)]
_refine_ls_weighting_scheme      sigma
_refine_ls_wR_factor_gt          0.0318
_refine_ls_wR_factor_ref         0.032
_reflns_Friedel_coverage         0.0
_reflns_Friedel_fraction_full    0.0
_reflns_Friedel_fraction_max     0.0
_reflns_number_gt                2393
_reflns_number_total             2519
_reflns_threshold_expression     'I > 2\s(I)'
_cod_data_source_file            fc5060.cif
_cod_data_source_block           A23_xHARPy_RPBE_lcao_rectangular
_cod_database_code               1566448
loop_
_space_group_symop_operation_xyz
'x, y, z'
'-x+1/2, -y, z+1/2'
'x+1/2, -y+1/2, -z'
'-x, y+1/2, -z+1/2'
loop_
_atom_site_label
_atom_site_type_symbol
_atom_site_fract_x
_atom_site_fract_y
_atom_site_fract_z
_atom_site_U_iso_or_equiv
_atom_site_adp_type
_atom_site_occupancy
_atom_site_site_symmetry_order
O1 O 0.72669(4) 0.083815(17) 0.62433(4) 0.00658(3) Uani 1.0 1
O2 O 0.44098(4) 0.184011(17) 0.76110(4) 0.00638(3) Uani 1.0 1
N1 N 0.64724(4) 0.13751(2) 0.18301(5) 0.00531(3) Uani 1.0 1
H1 H 0.7027(11) 0.0602(6) 0.1953(14) 0.0197(18) Uani 1.0 1
H2 H 0.7795(10) 0.1897(5) 0.2079(13) 0.0162(17) Uani 1.0 1
H3 H 0.5832(12) 0.1483(5) 0.0163(12) 0.0183(17) Uani 1.0 1
C1 C 0.46631(4) 0.16108(2) 0.35446(5) 0.00450(4) Uani 1.0 1
H4 H 0.4242(9) 0.2473(4) 0.3390(11) 0.0173(15) Uani 1.0 1
C2 C 0.25991(5) 0.09068(2) 0.30335(6) 0.00698(4) Uani 1.0 1
H5 H 0.1939(10) 0.1100(5) 0.1329(12) 0.0256(19) Uani 1.0 1
H6 H 0.1288(10) 0.1055(5) 0.4290(12) 0.0246(18) Uani 1.0 1
H7 H 0.3050(10) 0.0049(5) 0.3079(14) 0.0267(20) Uani 1.0 1
C3 C 0.55408(5) 0.140788(20) 0.59994(5) 0.00426(3) Uani 1.0 1
loop_
_atom_site_aniso_label
_atom_site_aniso_U_11
_atom_site_aniso_U_22
_atom_site_aniso_U_33
_atom_site_aniso_U_23
_atom_site_aniso_U_13
_atom_site_aniso_U_12
O1 0.00684(7) 0.00718(6) 0.00571(8) 0.00049(6) -0.00058(6) 0.00238(6)
O2 0.00755(7) 0.00752(6) 0.00408(8) -0.00052(6) 0.00057(6) 0.00196(6)
N1 0.00558(7) 0.00607(7) 0.00428(8) -0.00007(6) 0.00047(6) 0.00007(6)
H1 0.019(4) 0.028(4) 0.012(5) 0.001(3) 0.009(4) 0.000(3)
H2 0.011(3) 0.021(3) 0.017(5) 0.002(3) 0.005(3) 0.003(3)
H3 0.035(4) 0.014(4) 0.006(4) -0.006(3) 0.007(4) -0.013(4)
C1 0.00510(8) 0.00475(7) 0.00365(9) 0.00005(6) -0.00030(7) 0.00044(6)
H4 0.019(3) 0.015(3) 0.017(4) 0.003(3) 0.003(3) 0.010(3)
C2 0.00587(8) 0.00892(9) 0.00616(10) -0.00041(8) -0.00060(8) -0.00132(8)
H5 0.023(4) 0.041(4) 0.013(4) 0.008(3) -0.011(3) -0.012(3)
H6 0.016(3) 0.031(4) 0.027(5) 0.003(4) 0.003(4) -0.005(3)
H7 0.028(5) 0.015(3) 0.037(5) -0.004(3) 0.002(4) -0.007(3)
C3 0.00502(7) 0.00430(7) 0.00346(9) 0.00003(6) -0.00032(7) 0.00019(7)
loop_
_atom_type_symbol
_atom_type_description
_atom_type_scat_dispersion_real
_atom_type_scat_dispersion_imag
_atom_type_scat_source
C C 0.0033 0.0016 'HAR in xHARPy 0.1'
H H 0.0000 0.0000 'HAR in xHARPy 0.1'
N N 0.0061 0.0033 'HAR in xHARPy 0.1'
O O 0.0106 0.0060 'HAR in xHARPy 0.1'
loop_
_geom_angle_atom_site_label_1
_geom_angle_atom_site_label_2
_geom_angle_atom_site_label_3
_geom_angle
C1 N1 H1 111.8(4)
C1 N1 H2 109.7(4)
H1 N1 H2 109.2(5)
C1 N1 H3 109.3(4)
H1 N1 H3 107.6(5)
H2 N1 H3 109.2(5)
C3 C1 N1 110.02(2)
C3 C1 C2 111.10(2)
N1 C1 C2 109.75(3)
C3 C1 H4 108.1(3)
N1 C1 H4 107.3(3)
C2 C1 H4 110.4(3)
C1 C2 H5 110.0(3)
C1 C2 H6 110.5(3)
H5 C2 H6 108.4(4)
C1 C2 H7 110.2(3)
H5 C2 H7 108.7(5)
H6 C2 H7 108.9(5)
O2 C3 O1 125.84(3)
O2 C3 C1 115.86(3)
O1 C3 C1 118.29(2)
loop_
_geom_bond_atom_site_label_1
_geom_bond_atom_site_label_2
_geom_bond_distance
O1 C3 1.2469(4)
O2 C3 1.2657(4)
N1 C1 1.4902(4)
N1 H1 1.005(7)
N1 H2 1.022(6)
N1 H3 1.046(7)
C1 C3 1.5348(5)
C1 C2 1.5263(4)
C1 H4 1.089(5)
C2 H5 1.089(7)
C2 H6 1.080(7)
C2 H7 1.086(6)
loop_
_refln_index_h
_refln_index_k
_refln_index_l
_refln_F_squared_calc
_refln_F_squared_meas
_refln_F_squared_sigma
0 2 0 181.77 183.51 1.75
0 4 0 5411.21 5177.90 44.38
0 6 0 89.19 89.56 1.04
0 8 0 45.93 45.29 0.72
0 10 0 0.49 0.80 0.34
0 12 0 234.46 232.42 2.66
0 14 0 56.50 58.48 1.12
0 16 0 24.06 25.21 0.85
0 18 0 225.32 227.31 2.97
0 20 0 0.02 0.22 0.34
0 22 0 134.04 135.34 2.35
0 24 0 0.06 0.23 0.38
0 26 0 5.57 6.44 0.61
0 1 1 732.86 723.35 7.32
0 2 1 118.59 119.36 1.22
0 3 1 696.81 707.53 6.39
0 4 1 94.98 98.13 1.06
0 5 1 0.39 0.23 0.16
0 6 1 475.38 474.27 4.57
0 7 1 36.52 36.87 0.61
0 8 1 44.46 44.29 0.73
0 9 1 33.55 32.04 0.66
0 10 1 135.03 137.11 1.69
0 11 1 67.64 66.62 1.11
0 12 1 75.01 76.24 1.23
0 13 1 19.45 18.81 0.69
0 14 1 39.08 37.85 0.94
0 15 1 90.95 90.83 1.56
0 16 1 0.39 2.38 9.18
0 17 1 0.86 1.13 0.35
0 18 1 60.74 59.79 1.36
0 19 1 15.64 16.13 0.89
0 20 1 27.93 27.40 1.05
0 21 1 2.11 2.69 0.42
0 23 1 1.72 1.73 0.42
0 24 1 0.04 0.16 0.38
0 25 1 2.35 2.99 0.56
0 26 1 19.84 19.76 1.23
0 0 2 2917.09 2838.22 33.26
0 1 2 518.50 532.38 6.54
0 2 2 174.10 181.30 2.07
0 3 2 56.48 56.11 0.79
0 4 2 170.46 170.96 1.79
0 5 2 556.88 565.99 5.32
0 6 2 92.39 96.57 1.17
0 7 2 4.83 5.41 0.34
0 8 2 108.94 111.56 1.40
0 9 2 21.59 23.65 0.60
0 10 2 46.20 46.18 0.86
0 11 2 83.89 83.66 1.26
0 12 2 27.96 28.21 0.75
0 13 2 21.41 21.46 0.70
0 14 2 22.08 21.26 0.75
0 15 2 182.57 181.06 2.38
0 16 2 4.04 4.44 0.41
0 17 2 63.15 60.97 1.38
0 18 2 19.44 20.37 0.91
0 19 2 118.15 119.70 2.09
0 20 2 0.94 0.98 0.41
0 21 2 46.25 45.87 1.36
0 22 2 37.43 36.76 1.29
0 23 2 16.95 17.99 1.02
0 24 2 1.84 2.49 0.45
0 25 2 21.66 22.43 1.26
0 26 2 1.71 2.55 0.50
0 1 3 82.28 83.86 1.74
0 2 3 154.13 157.53 2.92
0 3 3 201.78 205.12 2.45
0 4 3 716.75 737.92 7.76
0 5 3 79.58 81.20 1.19
0 6 3 264.72 271.95 2.84
0 7 3 22.06 22.37 0.57
0 8 3 60.59 61.56 0.99
0 9 3 145.10 142.52 1.78
0 10 3 38.66 39.56 0.83
0 11 3 69.60 70.27 1.18
0 12 3 119.16 118.74 1.69
0 13 3 143.46 145.29 1.99
0 14 3 28.80 27.78 0.85
0 15 3 91.39 90.33 1.58
0 16 3 156.11 154.56 2.26
0 17 3 48.51 47.14 1.24
0 18 3 27.89 26.96 0.99
0 19 3 3.16 2.50 0.41
0 20 3 43.78 44.37 1.34
0 21 3 0.83 0.87 0.38
0 22 3 0.60 1.16 0.41
0 23 3 26.44 28.12 1.16
0 24 3 12.05 12.70 0.91
0 25 3 5.73 4.97 0.58
0 0 4 208.13 209.36 3.90
0 1 4 37.65 39.76 1.20
0 2 4 92.24 92.92 2.05
0 3 4 7.85 7.99 0.45
0 4 4 223.55 229.13 2.83
0 5 4 0.42 0.67 0.37
0 6 4 70.04 70.83 1.23
0 7 4 29.53 29.17 0.78
0 8 4 64.09 64.39 1.07
0 9 4 7.57 7.18 0.46
0 10 4 89.19 90.20 1.38
0 11 4 98.67 97.83 1.51
0 12 4 39.47 38.95 0.96
0 13 4 11.34 11.47 0.65
0 14 4 142.98 142.21 2.08
0 15 4 46.41 45.20 1.18
0 16 4 94.18 94.53 1.74
0 17 4 5.33 5.70 0.46
0 18 4 10.14 9.62 0.74
0 19 4 3.88 3.35 0.44
0 20 4 1.69 1.83 0.41
0 21 4 0.48 0.19 0.37
0 22 4 3.55 4.35 0.49
0 23 4 0.03 0.12 0.40
0 24 4 26.09 26.53 1.13
0 25 4 2.17 2.89 0.51
0 1 5 242.80 235.75 4.51
0 2 5 141.80 137.07 2.95
0 3 5 49.51 49.14 1.53
0 4 5 387.58 388.50 4.58
0 5 5 180.83 177.46 2.43
0 6 5 0.65 0.77 0.41
0 7 5 7.74 6.61 0.53
0 8 5 149.91 145.01 2.18
0 9 5 74.99 69.25 1.42
0 10 5 9.38 7.94 0.55
0 11 5 22.33 20.71 0.78
0 12 5 1.29 1.49 0.33
0 13 5 78.76 79.06 1.50
0 14 5 2.64 3.51 0.41
0 15 5 13.42 14.08 0.79
0 16 5 14.04 13.26 0.79
0 17 5 73.69 76.90 1.65
0 18 5 2.78 2.33 0.42
0 19 5 14.36 13.60 0.89
0 20 5 0.17 0.30 0.40
0 21 5 21.28 19.61 1.04
0 22 5 4.68 5.49 0.53
0 23 5 14.24 12.51 0.96
0 24 5 0.37 0.26 0.38
0 0 6 0.49 0.78 0.62
0 1 6 93.13 93.61 2.44
0 2 6 15.63 16.18 1.02
0 3 6 0.92 1.49 0.65
0 4 6 16.55 15.96 1.09
0 5 6 84.36 86.13 1.57
0 6 6 12.15 11.16 0.65
0 7 6 144.24 141.84 2.24
0 8 6 31.29 29.96 0.99
0 9 6 12.66 14.33 0.77
0 10 6 15.67 15.58 0.82
0 11 6 119.39 117.03 1.90
0 12 6 6.27 6.30 0.55
0 13 6 4.35 4.77 0.48
0 14 6 10.96 11.67 0.73
0 15 6 0.03 0.09 0.34
0 16 6 43.38 41.47 1.28
0 17 6 29.33 29.08 1.11
0 18 6 6.82 7.79 0.68
0 19 6 43.23 44.15 1.39
0 20 6 1.37 1.84 0.43
0 21 6 22.51 21.27 1.09
0 22 6 10.49 10.57 0.77
0 23 6 17.06 16.98 0.99
0 1 7 60.19 58.69 2.05
0 2 7 547.83 540.40 9.71
0 3 7 0.01 0.47 0.77
0 4 7 12.16 11.77 1.10
0 5 7 24.27 24.05 1.43
0 6 7 42.99 43.10 1.22
0 7 7 48.17 46.58 1.28
0 8 7 1.69 1.95 0.43
0 9 7 4.32 4.93 0.52
0 10 7 10.20 9.21 0.81
0 11 7 30.07 31.35 1.18
0 12 7 5.20 5.83 0.64
0 13 7 13.00 11.62 0.79
0 14 7 1.05 1.47 0.38
0 16 7 83.36 81.57 1.81
0 17 7 0.49 1.05 0.40
0 18 7 1.45 2.30 0.44
0 19 7 5.11 6.85 0.55
0 20 7 137.99 135.03 2.44
0 21 7 0.44 0.91 0.39
0 0 8 25.68 24.44 1.51
0 1 8 2.86 3.58 0.95
0 2 8 9.74 8.70 1.15
0 3 8 16.35 15.69 1.34
0 4 8 1.90 1.73 0.95
0 6 8 10.53 10.26 0.82
0 7 8 58.05 59.54 1.56
0 8 8 89.12 87.37 1.92
0 9 8 11.36 12.25 0.87
0 10 8 5.15 6.53 0.70
0 11 8 40.84 40.04 1.40
0 12 8 40.55 40.17 1.44
0 13 8 32.46 32.10 1.34
0 14 8 11.10 12.52 0.98
0 15 8 0.07 0.55 0.38
0 16 8 0.54 1.00 0.40
0 17 8 7.19 6.56 0.55
0 18 8 0.26 0.58 0.40
0 19 8 10.29 9.21 0.77
0 20 8 5.77 6.15 0.53
0 1 9 6.82 8.51 1.16
0 2 9 47.79 46.31 2.19
0 3 9 62.38 63.25 2.53
0 4 9 21.18 22.19 1.62
0 5 9 1.36 1.65 0.96
0 6 9 1.36 1.58 0.98
0 7 9 47.10 46.46 1.52
0 8 9 79.28 79.54 1.94
0 9 9 17.08 16.45 1.07
0 10 9 14.02 13.83 1.02
0 11 9 1.82 2.24 0.53
0 12 9 35.62 34.84 1.39
0 13 9 28.82 29.10 1.34
0 14 9 0.64 0.28 0.49
0 15 9 46.50 47.24 1.64
0 16 9 13.30 14.43 1.09
0 17 9 15.25 15.50 0.99
0 18 9 8.49 8.57 0.64
0 0 10 5.10 4.80 1.23
0 1 10 0.00 0.01 1.00
0 2 10 21.06 20.67 1.73
0 3 10 49.00 48.89 2.41
0 4 10 27.34 28.30 1.94
0 5 10 32.75 32.65 2.05
0 6 10 41.16 41.55 2.32
0 7 10 54.03 54.27 2.60
0 8 10 58.08 60.11 1.80
0 9 10 6.71 6.72 0.66
0 10 10 1.22 1.86 0.52
0 11 10 17.71 16.36 1.15
0 12 10 12.03 13.40 0.93
0 13 10 11.71 12.52 1.05
0 14 10 46.36 43.51 1.62
0 15 10 5.07 5.85 0.65
0 1 11 0.66 0.48 1.22
0 2 11 2.02 2.70 1.23
0 3 11 7.79 6.78 1.48
0 4 11 1.24 0.92 1.29
0 5 11 1.48 0.89 1.29
0 6 11 8.91 7.71 1.53
0 7 11 2.49 3.09 1.35
0 8 11 7.51 8.38 1.53
0 9 11 7.56 7.99 0.77
0 10 11 0.79 1.57 0.54
0 11 11 9.30 8.33 0.84
0 12 11 31.38 30.12 1.40
0 0 12 0.06 2.48 9.18
0 1 12 28.73 26.97 2.25
0 2 12 19.15 20.18 1.96
0 3 12 117.98 116.05 3.95
0 4 12 0.35 0.42 1.41
0 5 12 9.30 9.77 1.72
0 6 12 55.14 55.70 2.75
0 7 12 68.39 64.73 3.04
1 1 0 251.32 251.17 2.36
1 2 0 5414.02 5479.89 58.03
1 3 0 58.99 59.03 0.69
1 4 0 1721.69 1676.39 14.75
1 5 0 333.08 337.96 3.28
1 6 0 63.29 61.80 0.79
1 7 0 19.02 19.23 0.44
1 8 0 391.80 401.64 3.99
1 9 0 2.75 3.26 0.34
1 10 0 41.79 43.01 0.80
1 11 0 94.16 96.76 1.35
1 12 0 25.09 26.88 0.71
1 13 0 57.60 57.25 1.08
1 14 0 1.50 0.86 0.43
1 15 0 85.21 86.20 1.47
1 16 0 24.24 24.43 0.85
1 17 0 30.05 29.50 0.96
1 18 0 0.83 0.93 0.38
1 19 0 34.16 33.68 1.10
1 20 0 42.15 40.22 1.24
1 21 0 1.25 1.43 0.43
1 22 0 3.73 3.99 0.47
1 23 0 6.20 7.00 0.60
1 24 0 10.03 9.78 0.79
1 26 0 6.84 7.31 0.64
1 0 1 73.44 76.69 0.83
1 1 1 130.30 133.40 1.35
1 2 1 102.11 103.99 1.10
1 3 1 1089.83 1086.26 9.67
1 4 1 155.67 156.84 1.64
1 5 1 438.52 437.34 4.22
1 6 1 21.06 21.86 0.44
1 7 1 333.62 338.94 3.40
1 8 1 231.46 234.30 2.48
1 9 1 230.55 232.01 2.53
1 10 1 134.30 131.06 1.67
1 11 1 17.65 17.12 0.56
1 12 1 1.28 0.36 0.36
1 13 1 127.40 127.48 1.77
1 14 1 29.47 29.54 0.83
1 15 1 88.88 87.52 1.52
1 16 1 61.70 61.71 1.29
1 17 1 25.17 25.40 0.90
1 18 1 23.43 23.76 0.93
1 19 1 14.53 15.29 0.83
1 20 1 6.35 5.82 0.48
1 21 1 1.44 2.06 0.41
1 22 1 33.40 34.73 1.21
1 23 1 9.46 10.65 0.89
1 24 1 21.94 20.91 1.07
1 25 1 8.64 9.49 0.82
1 26 1 0.78 2.00 0.48
1 0 2 3294.16 3101.73 36.09
1 1 2 68.88 71.58 0.94
1 2 2 566.86 571.77 6.11
1 3 2 195.01 193.87 2.02
1 4 2 1060.86 1063.02 9.62
1 5 2 18.53 18.58 0.41
1 6 2 215.58 219.24 2.31
1 7 2 162.87 161.86 1.82
1 8 2 10.54 10.24 0.43
1 9 2 58.58 61.74 0.98
1 10 2 59.29 59.41 1.00
1 11 2 116.76 117.82 1.59
1 12 2 117.53 115.28 1.62
1 13 2 112.09 110.09 1.63
1 14 2 54.82 54.65 1.13
1 15 2 30.60 31.60 0.92
1 16 2 29.03 27.60 0.94
1 17 2 77.79 75.64 1.52
1 18 2 109.04 109.98 1.92
1 19 2 40.22 41.16 1.20
1 20 2 10.30 9.69 0.70
1 21 2 21.97 22.85 1.02
1 22 2 38.76 36.54 1.27
1 23 2 43.39 43.36 1.42
1 24 2 9.78 10.64 0.79
1 25 2 0.08 0.15 0.43
1 26 2 3.78 4.49 0.55
1 0 3 30.58 32.01 0.92
1 1 3 294.73 302.23 5.22
1 2 3 222.49 224.52 2.64
1 3 3 88.83 91.63 1.28
1 4 3 92.22 95.56 1.34
1 5 3 22.81 23.01 0.53
1 6 3 133.98 137.97 1.63
1 7 3 4.91 5.17 0.38
1 8 3 254.79 257.36 2.81
1 9 3 29.03 28.98 0.70
1 10 3 78.70 79.60 1.24
1 11 3 15.48 16.65 0.60
1 12 3 31.95 32.26 0.83
1 13 3 35.21 33.77 0.90
1 14 3 114.95 114.73 1.78
1 15 3 34.04 33.45 0.98
1 16 3 9.86 9.28 0.61
1 17 3 25.95 25.00 0.94
1 18 3 27.71 26.50 1.00
1 19 3 27.64 27.19 1.05
1 20 3 7.95 7.75 0.66
1 21 3 24.08 23.56 1.05
1 22 3 6.55 7.19 0.61
1 23 3 2.91 2.74 0.45
1 24 3 8.03 8.13 0.64
1 25 3 15.59 17.89 1.16
1 0 4 328.25 328.05 5.83
1 1 4 249.95 259.78 4.72
1 2 4 27.23 28.72 1.05
1 3 4 22.79 23.39 0.64
1 4 4 108.24 109.57 1.57
1 5 4 81.12 83.61 1.34
1 6 4 130.78 130.23 1.87
1 7 4 84.77 83.63 1.23
1 8 4 45.86 45.13 0.88
1 9 4 2.21 2.18 0.38
1 10 4 21.75 22.69 0.70
1 11 4 64.28 62.29 1.17
1 12 4 145.57 140.73 1.99
1 13 4 25.83 27.10 0.85
1 14 4 42.10 39.37 1.06
1 15 4 2.17 2.98 0.39
1 16 4 22.23 23.56 0.91
1 17 4 26.76 28.06 1.01
1 18 4 56.86 58.53 1.46
1 19 4 39.95 40.76 1.25
1 20 4 8.96 9.23 0.79
1 21 4 11.22 10.79 0.78
1 22 4 20.84 21.75 1.05
1 23 4 14.78 15.06 0.96
1 24 4 2.26 2.14 0.43
1 0 5 287.92 284.27 5.30
1 1 5 120.22 122.31 2.71
1 2 5 467.83 463.28 8.12
1 3 5 180.15 176.13 3.63
1 4 5 111.65 108.01 1.68
1 5 5 8.58 8.55 0.53
1 6 5 228.60 229.53 3.01
1 7 5 74.68 72.89 1.39
1 8 5 70.51 69.27 1.38
1 9 5 92.47 89.96 1.46
1 10 5 9.98 9.51 0.58
1 11 5 35.19 35.82 0.95
1 12 5 25.24 25.05 0.86
1 13 5 44.78 44.69 1.15
1 14 5 39.68 40.16 1.12
1 15 5 29.66 29.82 1.02
1 16 5 74.65 78.54 1.63
1 17 5 11.28 11.45 0.80
1 18 5 7.44 6.95 0.65
1 19 5 18.03 18.66 0.98
1 20 5 65.50 64.61 1.64
1 21 5 25.17 25.09 1.11
1 22 5 1.54 1.73 0.43
1 23 5 3.44 4.58 0.50
1 24 5 18.08 17.42 1.00
1 0 6 0.62 0.07 0.63
1 1 6 0.49 0.89 0.62
1 2 6 7.93 7.54 0.83
1 3 6 12.94 12.41 0.99
1 4 6 16.85 15.98 1.09
1 5 6 12.73 13.28 0.67
1 6 6 21.75 21.86 0.82
1 7 6 7.56 7.77 0.62
1 8 6 10.09 9.09 0.68
1 9 6 11.66 11.06 0.77
1 10 6 2.83 2.43 0.44
1 11 6 10.92 9.83 0.68
1 12 6 29.68 28.98 0.96
1 13 6 7.59 7.53 0.60
1 14 6 27.71 27.99 1.00
1 15 6 11.87 11.00 0.81
1 16 6 2.97 2.98 0.43
1 17 6 21.01 21.50 1.00
1 18 6 13.93 13.85 0.89
1 19 6 11.05 11.79 0.86
1 20 6 33.53 31.57 1.24
1 21 6 9.04 9.40 0.77
1 22 6 10.05 8.62 0.76
1 23 6 11.70 12.03 0.88
1 0 7 248.52 247.72 5.15
1 1 7 25.96 26.83 1.45
1 2 7 59.30 61.31 2.12
1 3 7 79.24 81.38 2.49
1 4 7 144.28 141.19 3.51
1 5 7 29.08 30.56 1.04
1 6 7 63.30 61.69 1.47
1 7 7 10.20 9.51 0.77
1 8 7 57.64 56.31 1.45
1 9 7 68.51 67.33 1.61
1 10 7 18.28 18.75 0.96
1 11 7 21.60 21.83 0.91
1 12 7 2.58 1.91 0.46
1 13 7 41.34 42.32 1.25
1 14 7 26.09 24.60 1.05
1 15 7 34.36 32.30 1.17
1 16 7 23.26 25.84 1.07
1 17 7 19.39 20.49 1.01
1 18 7 45.08 43.02 1.39
1 19 7 6.89 6.75 0.61
1 20 7 14.43 15.44 0.99
1 21 7 9.21 9.30 0.66
1 0 8 9.97 10.44 1.20
1 1 8 33.70 35.32 1.79
1 2 8 19.53 19.84 1.44
1 3 8 30.92 32.10 1.71
1 4 8 33.40 32.78 1.75
1 5 8 103.46 102.22 3.11
1 6 8 16.01 15.04 0.92
1 7 8 94.57 91.33 1.96
1 8 8 3.75 3.24 0.49
1 9 8 50.65 51.22 1.52
1 10 8 41.86 39.72 1.38
1 11 8 94.26 95.51 2.12
1 12 8 12.77 11.77 0.97
1 13 8 28.55 28.31 1.27
1 14 8 2.02 1.20 0.50
1 15 8 43.64 46.27 1.38
1 16 8 5.32 5.58 0.52
1 17 8 29.23 26.82 1.18
1 18 8 4.52 5.46 0.52
1 19 8 1.87 2.27 0.44
1 20 8 0.05 0.11 0.39
1 0 9 0.12 0.04 0.93
1 1 9 3.16 2.23 1.00
1 2 9 49.84 51.53 2.27
1 3 9 1.19 1.63 0.98
1 4 9 3.79 3.26 1.13
1 5 9 27.78 28.59 1.83
1 6 9 8.79 10.05 1.30
1 7 9 14.68 15.87 1.01
1 8 9 8.04 8.35 0.74
1 9 9 19.56 19.83 1.12
1 10 9 31.21 29.57 1.31
1 11 9 44.98 46.10 1.58
1 12 9 8.25 8.94 0.82
1 13 9 16.90 16.09 1.13
1 14 9 7.43 7.92 0.82
1 15 9 21.63 22.24 1.24
1 16 9 42.95 42.93 1.58
1 17 9 18.04 18.30 1.05
1 18 9 11.72 11.57 0.89
1 0 10 2.74 3.48 1.17
1 1 10 24.21 25.73 1.87
1 2 10 2.24 1.56 1.12
1 3 10 17.53 20.16 1.72
1 4 10 21.54 21.71 1.82
1 5 10 33.00 32.69 2.09
1 6 10 40.38 41.60 2.31
1 7 10 32.83 31.70 2.10
1 8 10 24.38 24.52 1.25
1 9 10 7.53 7.38 0.81
1 10 10 60.57 55.97 1.80
1 11 10 15.37 16.30 1.15
1 12 10 48.34 45.57 1.64
1 13 10 0.10 0.23 0.51
1 14 10 7.68 6.58 0.67
1 15 10 11.02 10.53 0.88
1 0 11 1.52 0.81 1.29
1 1 11 13.64 12.01 1.61
1 2 11 34.56 33.82 2.26
1 3 11 23.95 23.40 1.95
1 4 11 11.85 11.90 1.62
1 5 11 5.16 6.14 1.45
1 6 11 2.86 3.95 1.35
1 7 11 7.79 8.61 1.58
1 8 11 16.68 15.63 1.18
1 9 11 25.05 23.52 1.31
1 10 11 19.35 18.73 1.22
1 11 11 2.77 3.61 0.59
1 12 11 0.75 1.62 0.53
1 0 12 16.41 17.88 1.92
1 1 12 75.29 76.00 3.18
1 2 12 9.24 8.30 1.74
1 3 12 3.06 3.23 1.56
1 4 12 27.73 29.05 2.21
1 5 12 70.94 68.61 3.11
1 6 12 2.71 2.86 1.52
1 7 12 24.07 22.86 2.08
2 0 0 41.21 41.87 0.54
2 1 0 31.72 31.08 0.44
2 2 0 1732.20 1676.35 14.77
2 3 0 803.60 785.47 7.16
2 4 0 35.87 35.79 0.53
2 5 0 92.22 91.00 1.08
2 6 0 2109.86 2078.23 18.45
2 7 0 292.35 293.33 3.00
2 8 0 0.40 0.76 0.30
2 9 0 235.78 234.62 2.58
2 10 0 245.61 253.99 2.78
2 11 0 2.12 2.41 0.36
2 12 0 45.33 43.34 0.91
2 13 0 166.58 167.73 2.14
2 14 0 12.09 10.92 0.60
2 15 0 70.95 69.85 1.33
2 16 0 38.76 36.94 1.02
2 17 0 36.90 35.63 1.05
2 18 0 43.58 43.64 1.20
2 19 0 36.30 37.71 1.16
2 20 0 1.62 0.92 0.37
2 21 0 8.50 7.72 0.64
2 22 0 15.70 15.10 0.93
2 23 0 10.71 11.15 0.88
2 24 0 32.85 32.34 1.24
2 25 0 3.21 4.12 0.58
2 26 0 0.99 1.07 0.45
2 0 1 1.40 1.63 0.16
2 1 1 78.16 77.90 0.88
2 2 1 277.59 277.02 2.72
2 3 1 524.80 535.69 5.04
2 4 1 153.54 157.58 1.67
2 5 1 415.65 426.18 4.14
2 6 1 22.72 22.88 0.48
2 7 1 94.96 97.84 1.23
2 8 1 4.32 4.83 0.36
2 9 1 272.09 272.81 2.94
2 10 1 9.12 8.69 0.46
2 11 1 4.84 4.75 0.43
2 12 1 41.45 40.64 0.89
2 13 1 81.94 79.71 1.35
2 14 1 43.85 44.67 1.02
2 15 1 21.94 23.72 0.81
2 16 1 3.60 3.56 0.39
2 17 1 11.68 10.06 0.69
2 18 1 10.51 9.94 0.72
2 19 1 29.09 29.20 1.06
2 20 1 70.30 71.56 1.63
2 21 1 27.02 28.84 1.12
2 22 1 23.42 23.30 1.07
2 23 1 2.90 2.56 0.44
2 24 1 37.95 41.09 1.34
2 25 1 22.56 22.97 1.32
2 26 1 29.76 30.43 1.45
2 0 2 4.59 4.19 0.22
2 1 2 305.87 308.20 3.05
2 2 2 1080.80 1082.98 9.80
2 3 2 109.24 106.95 1.25
2 4 2 88.43 88.96 1.09
2 5 2 7.98 8.38 0.35
2 6 2 282.29 291.71 3.01
2 7 2 139.61 140.20 1.66
2 8 2 141.03 143.90 1.75
2 9 2 128.70 127.98 1.62
2 10 2 2.49 2.65 0.37
2 11 2 64.79 64.03 1.12
2 12 2 57.26 57.24 1.09
2 13 2 72.81 73.40 1.30
2 14 2 32.42 33.78 0.91
2 15 2 32.71 31.78 0.93
2 16 2 77.17 73.15 1.46
2 17 2 0.12 0.07 0.33
2 18 2 9.77 10.80 0.73
2 19 2 1.27 1.13 0.36
2 20 2 31.16 31.81 1.12
2 21 2 29.25 30.21 1.16
2 22 2 3.18 3.56 0.47
2 23 2 1.76 2.53 0.45
2 24 2 9.27 8.71 0.76
2 25 2 40.60 39.87 1.66
2 0 3 134.47 131.93 1.53
2 1 3 137.64 140.23 1.58
2 2 3 376.24 383.21 3.80
2 3 3 444.71 447.72 4.43
2 4 3 64.19 65.78 0.94
2 5 3 248.02 249.12 2.66
2 6 3 88.56 90.92 1.23
2 7 3 105.06 108.50 1.41
2 8 3 119.36 119.52 1.55
2 9 3 288.71 289.16 3.18
2 10 3 251.94 256.71 2.92
2 11 3 12.03 12.00 0.58
2 12 3 84.43 84.40 1.41
2 13 3 43.48 43.82 1.03
2 14 3 49.61 48.14 1.13
2 15 3 16.89 16.95 0.79
2 16 3 2.29 2.78 0.39
2 17 3 11.13 12.75 0.75
2 18 3 2.72 2.10 0.38
2 19 3 38.81 38.82 1.22
2 20 3 9.04 9.87 0.67
2 21 3 43.43 43.29 1.37
2 22 3 8.96 7.79 0.72
2 23 3 4.02 5.21 0.56
2 24 3 0.02 0.04 0.39
2 25 3 12.75 13.05 1.07
2 0 4 54.50 56.72 1.53
2 1 4 104.94 106.79 1.54
2 2 4 127.56 131.03 1.82
2 3 4 133.50 133.24 1.85
2 4 4 13.25 12.99 0.57
2 5 4 61.84 59.77 0.99
2 6 4 109.44 108.10 1.45
2 7 4 104.26 102.39 1.43
2 8 4 116.74 116.38 1.59
2 9 4 47.82 48.58 0.98
2 10 4 139.04 138.19 1.88
2 11 4 50.92 49.77 1.07
2 12 4 13.29 12.67 0.66
2 13 4 0.43 0.40 0.33
2 14 4 12.79 11.68 0.71
2 15 4 12.68 12.82 0.75
2 16 4 25.03 25.17 0.92
2 17 4 39.99 38.72 1.18
2 18 4 26.40 25.36 1.04
2 19 4 8.67 8.71 0.71
2 20 4 24.89 26.63 1.10
2 21 4 19.94 20.26 1.04
2 22 4 18.60 16.77 1.04
2 23 4 21.27 23.43 1.07
2 24 4 4.51 3.34 0.47
2 0 5 141.83 144.36 3.10
2 1 5 35.43 33.94 1.30
2 2 5 164.23 161.19 2.24
2 3 5 30.45 31.60 0.84
2 4 5 146.55 148.21 2.12
2 5 5 64.45 63.69 1.24
2 6 5 11.66 12.47 0.64
2 7 5 14.78 14.14 0.70
2 8 5 61.45 62.68 1.17
2 9 5 25.54 26.18 0.81
2 10 5 139.11 138.50 1.97
2 11 5 60.12 60.28 1.26
2 12 5 14.62 14.30 0.74
2 13 5 1.41 2.26 0.37
2 14 5 94.28 92.36 1.72
2 15 5 11.84 12.69 0.76
2 16 5 1.10 1.13 0.36
2 17 5 5.31 5.33 0.48
2 18 5 45.07 44.28 1.36
2 19 5 9.63 11.11 0.84
2 20 5 1.34 1.41 0.42
2 21 5 0.94 0.95 0.41
2 22 5 20.13 20.95 1.04
2 23 5 16.70 16.43 1.02
2 0 6 75.31 76.41 2.20
2 1 6 92.50 93.89 2.50
2 2 6 2.39 2.31 0.71
2 3 6 1.94 2.26 0.58
2 4 6 22.10 22.62 0.82
2 5 6 99.52 98.51 1.75
2 6 6 0.38 0.59 0.48
2 7 6 76.61 77.09 1.56
2 8 6 0.14 0.23 0.52
2 9 6 3.51 4.92 0.48
2 10 6 10.56 12.11 0.69
2 11 6 104.23 104.40 1.79
2 12 6 8.10 7.87 0.54
2 13 6 61.05 62.28 1.41
2 14 6 10.80 11.26 0.75
2 15 6 57.94 56.73 1.44
2 16 6 15.09 15.35 0.89
2 17 6 47.12 46.89 1.36
2 18 6 49.44 49.61 1.45
2 19 6 1.51 2.35 0.44
2 20 6 3.81 3.81 0.48
2 21 6 14.13 13.74 0.96
2 22 6 46.07 45.68 1.42
2 0 7 7.57 7.41 0.99
2 1 7 45.47 43.90 1.81
2 2 7 12.40 12.55 1.12
2 3 7 14.21 14.47 1.19
2 4 7 134.90 130.26 2.67
2 5 7 71.37 70.96 1.57
2 6 7 29.66 29.31 1.06
2 7 7 85.19 83.62 1.78
2 8 7 81.54 82.32 1.77
2 9 7 4.51 4.98 0.53
2 10 7 8.83 9.49 0.79
2 11 7 95.87 97.55 2.06
2 12 7 1.38 2.18 0.38
2 13 7 48.48 48.89 1.36
2 14 7 37.93 40.23 1.25
2 15 7 32.66 32.75 1.19
2 16 7 4.44 4.29 0.48
2 17 7 50.00 50.80 1.47
2 18 7 9.37 9.89 0.76
2 19 7 6.05 7.00 0.64
2 20 7 0.33 0.98 0.41
2 21 7 11.67 10.38 0.79
2 0 8 55.87 54.05 2.20
2 1 8 59.10 58.79 2.30
2 2 8 24.90 23.56 1.58
2 3 8 27.51 29.02 1.68
2 4 8 16.78 15.92 1.38
2 5 8 57.96 56.50 1.52
2 6 8 50.52 47.03 1.44
2 7 8 44.05 41.80 1.36
2 8 8 0.08 0.31 0.41
2 9 8 11.45 11.75 0.80
2 10 8 1.26 1.40 0.49
2 11 8 9.71 8.52 0.78
2 12 8 0.43 0.02 0.43
2 13 8 33.95 31.41 1.36
2 14 8 8.39 9.97 0.81
2 15 8 6.83 7.01 0.70
2 16 8 2.38 3.25 0.47
2 17 8 24.13 23.49 1.13
2 18 8 1.63 1.91 0.43
2 19 8 5.62 6.72 0.54
2 0 9 72.46 75.66 2.77
2 1 9 15.67 17.48 1.50
2 2 9 110.20 109.32 3.43
2 3 9 4.94 5.35 1.10
2 4 9 48.33 48.75 2.30
2 5 9 10.83 11.46 1.39
2 6 9 50.66 49.83 1.57
2 7 9 10.26 10.56 0.92
2 8 9 2.00 3.35 0.54
2 9 9 38.74 38.34 1.43
2 10 9 12.36 14.12 1.02
2 11 9 14.83 15.62 1.07
2 12 9 16.99 17.35 1.13
2 13 9 33.75 35.12 1.46
2 14 9 69.50 72.26 1.98
2 15 9 0.36 1.10 0.52
2 16 9 16.22 15.52 1.01
2 17 9 3.92 4.33 0.53
2 0 10 50.06 49.67 2.44
2 1 10 68.07 67.15 2.82
2 2 10 2.06 2.86 1.18
2 3 10 6.69 6.56 1.33
2 4 10 4.56 4.68 1.25
2 5 10 46.58 46.64 2.41
2 6 10 16.47 16.97 1.67
2 7 10 27.05 26.21 1.32
2 8 10 31.18 30.38 1.40
2 9 10 11.64 12.22 0.92
2 10 10 32.97 33.48 1.45
2 11 10 42.96 44.30 1.58
2 12 10 47.86 48.30 1.68
2 13 10 6.81 7.09 0.68
2 14 10 17.31 17.09 1.15
2 15 10 2.84 2.95 0.57
2 0 11 12.10 12.59 1.67
2 1 11 10.93 9.91 1.59
2 2 11 3.74 3.31 1.36
2 3 11 6.06 7.26 1.45
2 4 11 2.96 2.27 1.41
2 5 11 1.28 0.70 1.30
2 6 11 13.78 13.63 1.67
2 7 11 1.00 0.52 1.30
2 8 11 6.14 5.66 0.65
2 9 11 0.25 0.31 0.51
2 10 11 5.88 6.30 0.78
2 11 11 3.53 4.59 0.61
2 0 12 47.48 46.64 2.65
2 1 12 21.89 20.56 2.09
2 2 12 6.86 6.21 1.62
2 3 12 39.38 42.58 2.53
2 4 12 10.95 11.18 1.78
2 5 12 2.02 2.26 1.52
2 6 12 30.65 29.32 2.21
3 1 0 29.98 30.97 0.51
3 3 0 68.67 69.09 0.88
3 4 0 407.61 412.89 4.03
3 5 0 207.32 208.26 2.21
3 6 0 37.71 39.37 0.70
3 7 0 243.35 242.69 2.60
3 8 0 77.60 80.63 1.16
3 9 0 109.51 107.59 1.44
3 10 0 29.25 29.99 0.72
3 11 0 251.80 251.00 2.86
3 12 0 9.60 8.18 0.53
3 13 0 3.01 2.73 0.44
3 14 0 2.69 3.75 0.49
3 15 0 23.35 24.00 0.85
3 16 0 44.66 42.85 1.13
3 17 0 41.69 42.23 1.16
3 18 0 1.59 2.13 0.37
3 19 0 2.54 2.94 0.41
3 20 0 26.32 27.89 1.07
3 21 0 29.98 30.33 1.15
3 22 0 3.90 4.08 0.48
3 23 0 0.03 0.06 0.39
3 24 0 9.18 8.04 0.65
3 25 0 27.89 29.53 1.42
3 0 1 173.02 175.39 1.86
3 1 1 358.86 368.41 3.64
3 2 1 57.81 58.88 0.79
3 3 1 429.09 433.62 4.24
3 4 1 81.76 81.75 1.04
3 5 1 23.55 24.26 0.53
3 6 1 65.68 68.85 0.98
3 7 1 158.36 158.96 1.85
3 8 1 43.09 42.64 0.80
3 9 1 392.55 381.50 4.01
3 10 1 36.65 36.85 0.82
3 11 1 55.10 53.50 1.03
3 12 1 56.38 54.32 1.09
3 13 1 89.50 89.41 1.51
3 14 1 27.33 27.02 0.85
3 15 1 1.60 1.98 0.37
3 16 1 37.95 39.31 1.10
3 17 1 30.90 30.14 1.01
3 18 1 52.59 51.00 1.33
3 19 1 18.62 19.69 0.92
3 20 1 3.93 3.69 0.45
3 21 1 63.60 67.57 1.63
3 22 1 65.06 61.88 1.63
3 23 1 15.23 15.44 0.95
3 24 1 27.59 29.78 1.21
3 25 1 6.42 7.79 0.77
3 0 2 0.10 0.10 0.23
3 1 2 182.63 179.44 1.96
3 2 2 267.50 271.38 2.78
3 3 2 267.20 266.39 2.77
3 4 2 54.50 54.98 0.85
3 5 2 314.85 314.39 3.26
3 6 2 631.38 637.03 6.24
3 7 2 6.30 7.29 0.42
3 8 2 88.63 88.85 1.27
3 9 2 62.10 62.13 1.06
3 10 2 254.12 253.49 2.88
3 11 2 36.88 34.56 0.85
3 12 2 106.77 106.27 1.62
3 13 2 26.29 26.17 0.81
3 14 2 6.80 6.63 0.59
3 15 2 12.67 12.88 0.71
3 16 2 35.40 36.65 1.06
3 17 2 28.25 28.48 1.00
3 18 2 8.87 9.03 0.71
3 19 2 6.46 5.52 0.54
3 20 2 11.54 11.55 0.84
3 21 2 0.79 0.59 0.38
3 22 2 2.79 2.81 0.45
3 23 2 10.03 9.79 0.87
3 24 2 26.46 27.52 1.17
3 25 2 4.65 4.53 0.56
3 0 3 176.39 183.10 2.04
3 1 3 249.46 251.03 2.66
3 2 3 16.90 17.37 0.50
3 3 3 166.87 166.93 1.92
3 4 3 12.12 12.59 0.48
3 5 3 206.61 213.68 2.37
3 6 3 3.39 3.39 0.38
3 7 3 255.83 253.92 2.82
3 8 3 42.67 43.00 0.87
3 9 3 24.89 26.12 0.72
3 10 3 11.64 11.54 0.56
3 11 3 77.09 75.78 1.31
3 12 3 41.12 40.10 0.97
3 13 3 10.92 12.40 0.66
3 14 3 9.37 9.05 0.59
3 15 3 12.31 12.01 0.72
3 16 3 1.59 2.04 0.39
3 17 3 8.73 8.17 0.64
3 18 3 0.35 0.20 0.34
3 19 3 9.60 10.27 0.82
3 20 3 7.09 6.10 0.52
3 21 3 1.95 1.61 0.41
3 22 3 6.65 6.38 0.54
3 23 3 40.22 39.74 1.38
3 24 3 6.98 8.49 0.72
3 0 4 10.56 11.57 0.47
3 1 4 115.15 113.14 1.47
3 2 4 29.57 30.91 0.70
3 3 4 81.00 79.96 1.18
3 4 4 23.89 24.96 0.65
3 5 4 275.23 270.08 2.99
3 6 4 83.19 79.85 1.24
3 7 4 58.05 59.43 1.07
3 8 4 53.49 53.80 1.05
3 9 4 67.22 67.27 1.21
3 10 4 21.86 20.96 0.73
3 11 4 30.71 28.97 0.88
3 12 4 29.26 29.92 0.90
3 13 4 103.55 104.49 1.74
3 14 4 9.78 10.03 0.68
3 15 4 37.79 37.52 1.11
3 16 4 16.09 17.25 0.84
3 17 4 32.06 32.12 1.11
3 18 4 24.11 25.43 1.05
3 19 4 17.57 16.85 0.94
3 20 4 20.71 20.81 1.01
3 21 4 23.97 25.70 1.12
3 22 4 6.99 6.96 0.62
3 23 4 9.92 10.03 0.86
3 24 4 1.04 1.10 0.41
3 0 5 51.75 49.86 0.97
3 1 5 43.32 44.64 0.92
3 2 5 36.80 35.41 0.83
3 3 5 70.69 73.12 1.21
3 4 5 70.64 71.52 1.21
3 5 5 71.66 72.27 1.24
3 6 5 42.64 43.92 0.95
3 7 5 122.93 122.36 1.76
3 8 5 192.61 186.84 2.38
3 9 5 1.72 1.81 0.47
3 10 5 134.19 133.30 1.98
3 11 5 5.82 7.28 0.53
3 12 5 126.17 123.27 1.96
3 13 5 9.77 10.26 0.72
3 14 5 68.07 63.82 1.46
3 15 5 43.64 44.15 1.25
3 16 5 9.78 10.00 0.77
3 17 5 2.83 3.13 0.44
3 18 5 5.59 6.40 0.53
3 19 5 12.47 10.58 0.77
3 20 5 1.90 2.82 0.45
3 21 5 3.21 3.57 0.48
3 22 5 15.30 15.10 0.99
3 23 5 3.07 3.77 0.48
3 1 6 3.76 3.78 0.51
3 2 6 42.04 41.63 1.09
3 3 6 4.69 4.82 0.56
3 4 6 10.35 9.54 0.67
3 5 6 20.80 20.99 0.85
3 6 6 19.50 18.60 0.85
3 7 6 39.70 39.27 1.15
3 8 6 19.55 18.74 0.79
3 9 6 31.65 32.35 0.97
3 10 6 23.73 23.95 0.89
3 11 6 68.69 67.75 1.45
3 12 6 2.83 3.60 0.43
3 13 6 57.56 56.42 1.40
3 14 6 24.31 25.70 1.01
3 15 6 6.98 7.17 0.58
3 16 6 41.24 41.62 1.30
3 17 6 24.17 23.93 1.06
3 18 6 10.57 10.16 0.76
3 19 6 21.22 21.77 1.08
3 20 6 61.42 63.35 1.65
3 21 6 5.12 5.76 0.53
3 22 6 5.85 5.15 0.51
3 0 7 5.40 5.91 1.00
3 1 7 0.46 0.84 0.83
3 2 7 153.08 151.13 3.73
3 3 7 31.06 28.95 1.07
3 4 7 10.19 9.62 0.78
3 5 7 33.13 32.02 1.13
3 6 7 12.57 11.99 0.85
3 7 7 35.59 35.94 1.21
3 8 7 12.89 11.13 0.85
3 9 7 106.13 108.74 2.13
3 10 7 50.02 50.55 1.31
3 11 7 6.12 6.15 0.48
3 12 7 2.55 2.38 0.40
3 13 7 37.81 38.05 1.23
3 14 7 49.11 48.98 1.38
3 15 7 37.15 37.14 1.27
3 16 7 2.93 2.78 0.45
3 17 7 3.12 2.83 0.45
3 18 7 7.69 7.82 0.64
3 19 7 21.36 20.81 1.09
3 20 7 10.30 9.16 0.75
3 21 7 5.22 5.19 0.51
3 0 8 1.89 2.13 1.00
3 1 8 114.53 113.63 3.32
3 2 8 57.83 59.40 2.35
3 3 8 45.62 45.78 2.09
3 4 8 39.93 38.93 1.30
3 5 8 39.90 38.51 1.30
3 6 8 26.48 26.17 1.13
3 7 8 29.48 30.22 1.20
3 8 8 34.76 33.35 1.29
3 9 8 22.73 22.14 1.12
3 10 8 5.33 4.39 0.56
3 11 8 100.06 99.82 2.22
3 12 8 16.84 17.25 1.07
3 13 8 7.38 6.30 0.59
3 14 8 4.44 4.58 0.49
3 15 8 17.96 18.00 0.99
3 16 8 17.41 15.33 0.99
3 17 8 10.35 11.20 0.90
3 18 8 9.01 8.31 0.65
3 19 8 22.01 23.05 1.11
3 0 9 69.85 68.92 2.71
3 1 9 11.60 11.93 1.40
3 2 9 19.93 19.36 1.61
3 3 9 13.27 13.93 1.49
3 4 9 99.80 101.82 3.36
3 5 9 0.05 0.14 0.47
3 6 9 8.17 8.08 0.66
3 7 9 8.34 9.01 0.75
3 8 9 44.81 43.19 1.53
3 9 9 6.44 6.29 0.64
3 10 9 28.00 27.91 1.29
3 11 9 3.91 4.25 0.59
3 12 9 4.20 4.93 0.62
3 13 9 1.59 1.54 0.53
3 14 9 28.94 31.11 1.36
3 15 9 6.66 6.41 0.61
3 16 9 9.97 9.01 0.66
3 17 9 21.90 21.76 1.08
3 0 10 1.05 0.85 1.16
3 1 10 54.21 57.31 2.60
3 2 10 27.27 27.73 1.99
3 3 10 79.42 82.36 3.17
3 4 10 12.66 11.93 1.58
3 5 10 6.63 7.14 1.41
3 6 10 23.03 23.31 1.24
3 7 10 10.17 11.68 0.88
3 8 10 7.66 7.24 0.68
3 9 10 34.32 33.33 1.45
3 10 10 7.76 7.58 0.84
3 11 10 5.00 4.57 0.61
3 12 10 0.83 1.12 0.51
3 13 10 20.50 19.04 1.22
3 14 10 17.40 16.95 1.13
3 0 11 1.56 1.24 1.33
3 1 11 10.66 10.96 1.67
3 2 11 14.58 15.13 1.73
3 3 11 33.93 34.80 2.28
3 4 11 16.40 16.92 1.87
3 5 11 15.56 15.63 1.75
3 6 11 12.10 12.12 1.70
3 7 11 22.19 22.53 1.29
3 8 11 6.04 6.52 0.80
3 9 11 11.13 10.75 0.84
3 10 11 8.69 8.98 0.87
3 11 11 10.42 9.39 2.94
3 0 12 6.94 5.51 1.67
3 1 12 6.62 7.30 1.67
3 2 12 3.30 3.27 1.53
3 3 12 1.65 0.77 1.53
3 4 12 0.80 1.00 1.46
4 0 0 389.95 392.05 3.89
4 1 0 386.35 386.19 3.87
4 2 0 41.28 40.24 0.70
4 3 0 2.23 1.75 0.31
4 4 0 36.59 36.96 0.70
4 5 0 15.83 15.41 0.50
4 6 0 132.76 131.57 1.63
4 7 0 89.47 88.02 1.27
4 8 0 134.83 132.34 1.70
4 9 0 130.04 130.11 1.72
4 10 0 69.39 69.06 1.19
4 11 0 12.99 12.65 0.61
4 12 0 242.64 240.21 2.96
4 13 0 66.63 69.15 1.31
4 14 0 3.46 2.82 0.37
4 15 0 12.34 12.63 0.72
4 16 0 89.74 90.46 1.69
4 17 0 0.93 1.18 0.35
4 18 0 1.96 2.04 0.39
4 19 0 8.93 7.24 0.66
4 20 0 0.47 0.28 0.37
4 21 0 7.37 7.98 0.62
4 22 0 0.01 0.04 0.41
4 23 0 4.02 4.78 0.51
4 24 0 21.38 21.83 1.09
4 0 1 1.41 1.46 0.29
4 1 1 144.40 148.47 1.70
4 2 1 34.40 34.59 0.66
4 3 1 151.80 150.53 1.74
4 4 1 13.40 12.12 0.46
4 5 1 60.59 59.97 0.95
4 6 1 42.80 43.45 0.82
4 7 1 250.49 245.23 2.73
4 8 1 43.08 42.93 0.87
4 9 1 4.09 4.25 0.41
4 10 1 34.01 34.21 0.83
4 11 1 269.79 266.16 3.10
4 12 1 67.40 67.70 1.27
4 13 1 44.86 42.92 1.05
4 14 1 45.81 46.12 1.13
4 15 1 45.36 44.97 1.16
4 16 1 53.29 52.42 1.28
4 17 1 17.52 17.03 0.87
4 18 1 31.77 30.98 1.07
4 19 1 40.28 42.58 1.28
4 20 1 31.56 32.65 1.18
4 21 1 7.92 7.72 0.70
4 22 1 17.47 14.28 0.96
4 23 1 2.43 2.19 0.45
4 24 1 19.56 19.59 1.05
4 25 1 4.88 5.22 0.58
4 0 2 10.26 10.72 0.44
4 1 2 263.50 264.03 2.83
4 2 2 10.76 9.68 0.44
4 3 2 74.42 75.07 1.09
4 4 2 194.60 199.78 2.24
4 5 2 138.90 135.66 1.70
4 6 2 31.92 32.31 0.73
4 7 2 183.50 176.90 2.14
4 8 2 160.66 161.30 2.01
4 9 2 5.24 5.63 0.45
4 10 2 39.64 41.18 0.93
4 11 2 18.13 18.68 0.69
4 12 2 46.20 46.27 1.06
4 13 2 0.02 0.13 0.31
4 14 2 13.73 14.41 0.73
4 15 2 15.23 15.04 0.78
4 16 2 17.90 16.53 0.84
4 17 2 20.37 19.34 0.91
4 18 2 5.97 6.11 0.54
4 19 2 10.48 11.19 0.83
4 20 2 7.66 8.43 0.61
4 21 2 8.13 9.51 0.82
4 22 2 8.55 9.70 0.66
4 23 2 18.42 17.71 1.03
4 24 2 1.73 1.62 0.42
4 0 3 4.44 4.68 0.39
4 1 3 225.96 224.37 2.48
4 2 3 40.36 38.39 0.78
4 3 3 466.02 463.41 4.68
4 4 3 96.69 95.00 1.34
4 5 3 110.66 108.34 1.49
4 6 3 5.03 5.42 0.43
4 7 3 60.16 60.40 1.08
4 8 3 88.91 87.04 1.38
4 9 3 31.13 31.95 0.83
4 10 3 17.05 16.91 0.67
4 11 3 30.21 29.67 0.87
4 12 3 41.98 42.02 1.06
4 13 3 12.52 12.30 0.70
4 14 3 23.66 22.49 0.89
4 15 3 74.06 73.59 1.52
4 16 3 27.16 27.32 1.01
4 17 3 1.58 0.95 0.36
4 18 3 20.92 21.60 0.99
4 19 3 32.60 35.01 1.20
4 20 3 12.93 13.19 0.88
4 21 3 33.64 33.74 1.25
4 22 3 26.94 25.42 1.17
4 23 3 1.02 0.99 0.41
4 24 3 15.17 13.94 0.96
4 0 4 76.70 77.22 1.19
4 1 4 126.54 123.91 1.63
4 2 4 33.83 34.08 0.79
4 3 4 99.08 96.64 1.40
4 4 4 34.76 35.08 0.81
4 5 4 86.43 87.24 1.35
4 6 4 55.11 56.03 1.07
4 7 4 43.65 42.93 0.95
4 8 4 7.93 8.92 0.54
4 9 4 2.25 1.44 0.45
4 10 4 34.52 36.06 0.95
4 11 4 22.99 24.54 0.84
4 12 4 68.85 68.93 1.40
4 13 4 26.20 26.07 0.93
4 14 4 8.55 9.19 0.64
4 15 4 42.75 40.01 1.19
4 16 4 54.60 53.88 1.40
4 17 4 61.47 59.52 1.52
4 18 4 1.86 1.58 0.41
4 19 4 8.96 8.49 0.64
4 20 4 22.83 22.51 1.09
4 21 4 18.99 20.11 1.05
4 22 4 1.89 2.09 0.47
4 23 4 63.95 63.92 1.65
4 0 5 27.29 27.90 0.77
4 1 5 21.84 23.00 0.71
4 2 5 5.86 6.19 0.49
4 3 5 164.87 163.74 2.11
4 4 5 28.53 28.57 0.79
4 5 5 83.52 84.61 1.41
4 6 5 13.14 13.77 0.62
4 7 5 35.19 35.19 0.94
4 8 5 47.00 48.19 1.10
4 9 5 46.85 44.89 1.11
4 10 5 24.49 27.14 0.89
4 11 5 8.86 9.88 0.66
4 12 5 19.50 19.31 0.87
4 13 5 6.16 6.72 0.59
4 14 5 8.85 8.50 0.64
4 15 5 2.18 1.96 0.39
4 16 5 20.70 21.19 0.99
4 17 5 9.66 10.35 0.80
4 18 5 1.80 2.31 0.44
4 19 5 5.55 5.45 0.52
4 20 5 28.78 29.03 1.19
4 21 5 1.54 2.22 0.44
4 22 5 1.09 1.09 0.41
4 0 6 0.50 0.29 0.43
4 1 6 89.29 88.41 1.50
4 2 6 14.03 15.31 0.68
4 3 6 27.04 25.72 0.84
4 4 6 12.28 11.86 0.66
4 5 6 139.83 137.96 2.02
4 6 6 41.94 41.27 1.07
4 7 6 42.34 40.39 1.09
4 8 6 56.63 54.19 1.28
4 9 6 140.14 135.67 2.12
4 10 6 28.08 26.41 0.98
4 11 6 34.99 36.52 1.10
4 12 6 61.80 63.17 1.47
4 13 6 49.66 49.30 1.33
4 14 6 12.69 12.49 0.82
4 15 6 54.02 54.63 1.46
4 16 6 16.98 18.27 0.97
4 17 6 41.33 42.34 1.35
4 18 6 25.73 26.59 1.13
4 19 6 36.72 37.06 1.30
4 20 6 1.13 1.86 0.43
4 21 6 23.39 22.48 1.11
4 0 7 138.30 138.25 2.10
4 1 7 10.45 9.43 0.72
4 2 7 13.53 12.83 0.84
4 3 7 11.25 12.11 0.82
4 4 7 65.08 65.22 1.58
4 5 7 15.57 16.40 0.90
4 6 7 19.93 20.14 0.86
4 7 7 27.29 26.16 0.96
4 8 7 53.28 51.64 1.32
4 9 7 6.37 6.24 0.59
4 10 7 42.71 43.92 1.24
4 11 7 51.56 52.11 1.39
4 12 7 37.14 40.03 1.24
4 13 7 10.63 10.52 0.73
4 14 7 31.19 30.62 1.17
4 15 7 1.45 2.13 0.43
4 16 7 2.92 3.37 0.47
4 17 7 10.02 9.41 0.77
4 18 7 6.31 5.70 0.53
4 19 7 14.51 12.93 0.91
4 20 7 1.39 1.95 0.43
4 0 8 42.12 44.32 2.09
4 1 8 19.41 19.64 1.24
4 2 8 13.90 13.74 0.91
4 3 8 12.25 11.81 0.89
4 4 8 28.29 29.20 1.18
4 5 8 4.21 4.41 0.54
4 6 8 10.03 9.04 0.76
4 7 8 34.31 32.60 1.30
4 8 8 3.87 3.74 0.54
4 9 8 92.29 89.18 2.12
4 10 8 19.55 19.17 0.99
4 11 8 9.93 8.85 0.73
4 12 8 0.33 0.85 0.39
4 13 8 54.26 52.58 1.51
4 14 8 34.42 34.13 1.27
4 15 8 1.91 2.24 0.44
4 16 8 11.00 9.81 0.78
4 17 8 0.02 0.05 0.39
4 18 8 16.34 16.27 0.99
4 0 9 18.68 19.26 1.65
4 1 9 12.66 13.72 1.49
4 2 9 12.48 13.31 1.46
4 3 9 23.46 24.20 1.20
4 4 9 56.44 59.36 1.71
4 5 9 14.02 13.90 1.01
4 6 9 38.32 36.23 1.45
4 7 9 4.98 5.61 0.62
4 8 9 83.12 85.31 2.12
4 9 9 15.83 17.04 1.11
4 10 9 18.12 19.93 1.15
4 11 9 0.12 0.35 0.52
4 12 9 23.91 23.84 1.29
4 13 9 8.96 9.30 0.76
4 14 9 10.06 11.78 0.90
4 15 9 27.28 26.56 1.16
4 16 9 1.47 2.45 0.45
4 1 10 80.82 83.11 3.23
4 2 10 14.21 14.21 1.64
4 3 10 3.99 3.11 1.29
4 4 10 30.76 30.29 1.36
4 5 10 60.65 57.82 1.82
4 6 10 28.59 28.16 1.36
4 7 10 16.73 15.60 1.11
4 8 10 14.48 15.51 1.12
4 9 10 1.44 0.77 0.52
4 10 10 14.50 15.10 1.11
4 11 10 6.58 7.07 0.68
4 12 10 1.39 1.62 0.54
4 13 10 9.94 8.69 0.71
4 0 11 28.88 27.90 2.14
4 1 11 1.75 1.62 1.33
4 2 11 3.18 3.18 1.35
4 3 11 9.82 9.03 1.57
4 4 11 34.41 33.05 2.26
4 5 11 13.17 13.15 1.35
4 6 11 0.35 0.50 0.52
4 7 11 5.63 6.76 0.67
4 8 11 21.90 20.61 1.27
4 9 11 8.88 9.85 0.86
5 1 0 39.67 40.19 0.77
5 2 0 42.96 43.67 0.83
5 3 0 235.73 231.19 2.58
5 4 0 64.30 61.06 1.02
5 5 0 73.01 73.12 1.15
5 6 0 0.05 0.10 0.32
5 7 0 12.24 11.80 0.54
5 8 0 16.47 16.36 0.62
5 9 0 26.44 25.59 0.75
5 10 0 37.11 38.59 0.93
5 11 0 36.06 36.93 0.95
5 12 0 1.39 1.62 0.48
5 13 0 12.13 12.24 0.70
5 14 0 52.15 52.67 1.25
5 15 0 16.21 15.41 0.82
5 16 0 4.57 4.59 0.43
5 17 0 11.49 10.52 0.70
5 18 0 6.37 6.29 0.64
5 19 0 0.00 0.14 0.37
5 20 0 0.11 0.44 0.38
5 21 0 1.06 0.92 0.40
5 22 0 8.56 7.95 0.64
5 24 0 3.21 2.06 0.44
5 0 1 5.69 5.97 0.41
5 1 1 134.11 133.80 1.66
5 2 1 92.90 91.02 1.29
5 3 1 388.90 381.92 3.91
5 4 1 5.22 5.30 0.41
5 5 1 37.64 35.71 0.78
5 6 1 73.91 71.18 1.17
5 7 1 156.91 154.51 1.96
5 8 1 2.38 3.20 0.42
5 9 1 58.40 58.44 1.13
5 10 1 12.55 12.74 0.61
5 11 1 66.56 68.52 1.29
5 12 1 21.95 21.78 0.82
5 13 1 21.16 19.03 0.83
5 14 1 16.10 16.22 0.78
5 15 1 217.34 218.26 2.93
5 16 1 59.81 61.50 1.44
5 17 1 4.24 4.27 0.45
5 18 1 8.15 7.72 0.68
5 19 1 52.90 53.72 1.49
5 20 1 51.27 51.81 1.46
5 21 1 3.75 3.52 0.48
5 22 1 0.72 0.90 0.41
5 23 1 1.66 1.89 0.43
5 24 1 13.54 14.68 0.94
5 0 2 332.99 331.31 3.51
5 1 2 172.19 169.65 2.05
5 2 2 0.48 0.57 0.33
5 3 2 255.66 252.72 2.84
5 4 2 89.72 85.92 1.30
5 5 2 43.26 42.68 0.88
5 6 2 7.29 6.60 0.46
5 7 2 14.41 12.95 0.58
5 8 2 28.55 29.21 0.80
5 9 2 37.95 37.52 0.92
5 10 2 0.58 1.40 0.44
5 11 2 16.44 16.30 0.72
5 12 2 126.35 124.65 1.93
5 13 2 0.39 0.48 0.33
5 14 2 7.03 7.57 0.66
5 15 2 3.34 3.09 0.39
5 16 2 59.83 60.72 1.46
5 17 2 14.63 14.75 0.86
5 18 2 10.82 11.58 0.82
5 19 2 30.70 30.42 1.14
5 20 2 2.07 2.16 0.44
5 21 2 41.20 39.17 1.33
5 22 2 0.99 1.78 0.43
5 23 2 6.05 5.37 0.58
5 24 2 6.43 7.38 0.90
5 0 3 31.50 31.18 0.77
5 1 3 200.24 199.10 2.37
5 2 3 24.08 24.53 0.69
5 3 3 10.08 9.58 0.52
5 4 3 1.39 1.36 0.38
5 5 3 68.16 68.81 1.19
5 6 3 33.53 34.87 0.85
5 7 3 63.86 64.24 1.19
5 8 3 17.75 18.64 0.69
5 9 3 8.77 9.09 0.59
5 10 3 45.03 43.36 1.06
5 11 3 27.42 25.97 0.89
5 12 3 28.54 27.53 0.93
5 13 3 18.95 19.19 0.85
5 14 3 47.33 47.18 1.23
5 15 3 3.37 3.73 0.42
5 16 3 51.25 51.00 1.38
5 17 3 23.21 23.80 1.02
5 18 3 24.00 24.02 1.06
5 19 3 3.70 4.44 0.49
5 20 3 55.23 56.71 1.57
5 21 3 8.19 8.28 0.66
5 22 3 4.42 4.82 0.51
5 23 3 9.32 8.69 0.64
5 0 4 0.07 0.28 0.37
5 1 4 72.91 70.07 1.21
5 2 4 43.02 43.76 0.95
5 3 4 30.86 28.38 0.81
5 4 4 16.21 17.32 0.66
5 5 4 7.35 6.26 0.51
5 6 4 28.28 28.46 0.84
5 7 4 29.66 30.18 0.87
5 8 4 89.10 89.66 1.53
5 9 4 1.96 2.68 0.38
5 10 4 115.57 112.23 1.84
5 11 4 34.46 34.70 1.04
5 12 4 84.10 85.90 1.63
5 13 4 3.65 4.41 0.42
5 14 4 82.36 86.31 1.73
5 15 4 19.82 20.74 0.97
5 16 4 20.63 22.25 1.00
5 17 4 9.04 8.27 0.69
5 18 4 24.15 25.59 1.10
5 19 4 74.66 75.91 1.80
5 20 4 0.46 0.05 0.38
5 21 4 43.26 44.28 1.41
5 22 4 13.29 11.77 0.94
5 0 5 7.56 7.08 0.56
5 1 5 190.08 186.56 2.39
5 2 5 32.96 31.90 0.89
5 3 5 15.88 16.13 0.68
5 4 5 73.66 73.09 1.36
5 5 5 60.66 59.67 1.25
5 6 5 19.09 18.66 0.78
5 7 5 34.69 34.57 0.98
5 8 5 52.56 50.33 1.21
5 9 5 11.66 10.94 0.70
5 10 5 19.57 18.98 0.84
5 11 5 20.17 20.45 0.89
5 12 5 0.39 0.97 0.35
5 13 5 18.13 17.80 0.90
5 14 5 41.28 42.37 1.24
5 15 5 1.38 1.32 0.39
5 16 5 17.95 18.76 0.95
5 17 5 3.00 3.69 0.47
5 18 5 29.00 29.60 1.18
5 19 5 2.74 3.16 0.48
5 20 5 12.57 11.95 0.94
5 21 5 10.12 8.83 0.66
5 0 6 48.28 47.46 1.16
5 1 6 47.18 45.54 1.12
5 2 6 11.98 11.11 0.70
5 3 6 55.48 54.06 1.23
5 4 6 52.64 49.86 1.21
5 5 6 81.86 80.42 1.55
5 6 6 13.02 13.45 0.73
5 7 6 106.08 104.92 1.83
5 8 6 22.51 22.01 0.91
5 9 6 21.12 21.10 0.88
5 10 6 67.75 69.13 1.52
5 11 6 78.38 80.24 1.68
5 12 6 0.44 0.52 0.36
5 13 6 66.39 67.40 1.60
5 14 6 54.82 54.03 1.46
5 15 6 13.61 15.31 0.91
5 16 6 4.95 5.34 0.52
5 17 6 53.58 52.91 1.53
5 18 6 7.88 7.26 0.64
5 19 6 5.26 5.24 0.52
5 20 6 0.00 0.01 0.39
5 0 7 1.15 1.49 0.37
5 1 7 29.63 29.96 1.00
5 2 7 16.66 16.76 0.85
5 3 7 4.11 4.03 0.43
5 4 7 110.82 107.79 1.89
5 5 7 10.05 10.37 0.67
5 6 7 19.40 21.05 0.91
5 7 7 9.09 9.74 0.75
5 8 7 101.20 100.39 1.90
5 9 7 10.25 11.43 0.76
5 10 7 2.08 2.02 0.41
5 11 7 4.43 4.28 0.47
5 12 7 14.09 13.29 0.79
5 13 7 13.69 16.25 0.93
5 14 7 5.46 6.42 0.54
5 15 7 18.17 18.34 1.00
5 16 7 8.67 7.87 0.74
5 17 7 4.22 4.92 0.52
5 18 7 2.54 2.94 0.47
5 0 8 37.63 36.70 1.17
5 1 8 47.81 47.86 1.32
5 2 8 3.25 3.26 0.43
5 3 8 0.46 0.69 0.36
5 4 8 20.30 19.54 0.96
5 5 8 142.30 140.50 2.34
5 6 8 0.56 1.18 0.79
5 7 8 5.04 5.27 0.49
5 8 8 2.63 2.95 0.44
5 9 8 24.61 24.20 1.06
5 10 8 2.09 2.07 0.43
5 11 8 11.19 12.74 0.88
5 12 8 8.54 8.10 0.64
5 13 8 32.42 32.53 1.27
5 14 8 8.59 8.17 0.65
5 15 8 8.39 8.83 0.65
5 16 8 10.90 11.97 0.90
5 17 8 59.28 59.03 1.59
5 0 9 0.09 0.68 0.79
5 1 9 30.88 30.13 1.14
5 2 9 35.24 35.55 1.42
5 3 9 6.61 5.51 0.61
5 4 9 5.06 6.23 0.64
5 5 9 15.43 14.21 1.06
5 6 9 27.58 27.32 1.29
5 7 9 9.35 9.55 0.84
5 8 9 0.63 1.11 0.51
5 9 9 0.68 1.33 0.41
5 10 9 21.00 21.38 1.07
5 11 9 15.18 15.55 0.99
5 12 9 0.92 1.72 0.43
5 13 9 8.34 8.80 0.66
5 14 9 6.69 6.81 0.55
5 15 9 2.14 2.63 0.45
5 0 10 76.10 75.15 3.13
5 1 10 5.35 5.22 0.90
5 2 10 2.49 2.84 0.57
5 3 10 50.50 51.23 1.72
5 4 10 24.89 24.63 1.29
5 5 10 31.55 30.07 1.45
5 6 10 5.75 6.62 0.68
5 7 10 18.10 17.88 1.18
5 8 10 6.14 6.99 0.68
5 9 10 33.83 32.78 1.42
5 10 10 0.61 0.87 0.53
5 11 10 1.13 2.03 0.54
5 12 10 5.41 5.89 0.53
5 0 11 5.41 3.74 1.52
5 1 11 24.90 23.86 2.01
5 2 11 11.16 12.31 1.62
5 3 11 17.55 16.40 1.17
5 4 11 12.23 11.01 0.91
5 5 11 0.07 0.06 0.52
5 6 11 38.80 39.81 1.53
5 7 11 1.94 2.43 0.56
6 0 0 138.35 134.29 1.76
6 1 0 65.24 66.23 1.12
6 2 0 4.74 4.83 0.44
6 3 0 32.43 31.63 0.79
6 4 0 9.89 9.92 0.52
6 5 0 78.79 76.36 1.28
6 6 0 70.27 70.44 1.24
6 7 0 86.63 84.25 1.41
6 8 0 58.81 58.87 1.17
6 9 0 0.08 0.23 0.43
6 10 0 89.79 87.81 1.56
6 11 0 0.13 0.26 0.32
6 12 0 63.74 63.97 1.36
6 13 0 21.02 21.43 0.89
6 14 0 9.00 9.23 0.64
6 15 0 26.47 28.41 1.02
6 16 0 6.79 7.28 0.64
6 17 0 8.05 8.92 0.69
6 18 0 21.97 21.19 1.03
6 19 0 6.19 6.96 0.68
6 21 0 2.36 2.26 0.44
6 22 0 24.14 23.51 1.10
6 23 0 0.14 0.67 0.40
6 0 1 41.31 39.48 0.87
6 1 1 121.66 118.35 1.63
6 2 1 86.93 85.54 1.34
6 3 1 78.23 76.02 1.26
6 4 1 87.04 87.42 1.38
6 5 1 107.04 104.38 1.56
6 6 1 9.95 9.46 0.54
6 7 1 61.12 60.93 1.18
6 8 1 53.65 52.73 1.12
6 9 1 1.51 1.46 0.47
6 10 1 0.96 1.45 0.33
6 11 1 26.77 26.61 0.90
6 12 1 12.99 12.75 0.75
6 13 1 120.70 119.35 1.98
6 14 1 39.04 41.06 1.18
6 15 1 18.12 18.52 0.89
6 16 1 11.12 11.72 0.78
6 17 1 71.89 71.76 1.65
6 18 1 64.19 66.21 1.62
6 19 1 17.44 18.48 0.99
6 20 1 12.33 13.15 0.92
6 21 1 8.89 8.02 0.65
6 22 1 23.18 21.77 1.09
6 23 1 10.28 9.32 0.87
6 0 2 18.21 19.16 0.65
6 1 2 115.03 113.75 1.62
6 2 2 178.71 173.80 2.20
6 3 2 3.06 3.30 0.43
6 4 2 0.93 0.86 0.41
6 5 2 49.09 47.22 1.02
6 6 2 9.16 9.47 0.56
6 7 2 18.21 17.90 0.71
6 8 2 47.35 46.43 1.08
6 9 2 6.54 5.44 0.57
6 10 2 107.78 106.07 1.76
6 11 2 3.27 3.69 0.41
6 12 2 30.30 30.41 1.02
6 13 2 10.09 10.74 0.67
6 14 2 93.72 90.94 1.78
6 15 2 1.20 1.01 0.36
6 16 2 8.25 6.95 0.58
6 17 2 14.10 14.21 0.89
6 18 2 7.10 7.44 0.61
6 19 2 6.19 6.91 0.60
6 20 2 1.40 1.82 0.43
6 21 2 9.76 8.71 0.76
6 22 2 5.62 6.20 0.54
6 23 2 11.84 13.40 1.54
6 0 3 11.98 12.25 0.60
6 1 3 97.59 99.01 1.53
6 2 3 17.27 16.51 0.67
6 3 3 198.90 198.90 2.46
6 4 3 66.57 66.36 1.24
6 5 3 4.20 4.53 0.52
6 6 3 23.52 24.32 0.80
6 7 3 56.01 57.19 1.20
6 8 3 23.82 22.73 0.82
6 9 3 26.13 25.23 0.89
6 10 3 0.79 1.29 0.36
6 11 3 6.60 6.80 0.52
6 12 3 21.98 20.60 0.89
6 13 3 4.08 4.36 0.43
6 14 3 46.44 47.75 1.32
6 15 3 31.57 32.08 1.13
6 16 3 29.71 28.18 1.11
6 17 3 12.26 12.71 0.87
6 18 3 68.75 69.14 1.70
6 19 3 46.22 46.69 1.46
6 20 3 3.55 3.00 0.47
6 21 3 21.09 20.80 1.10
6 22 3 29.23 28.73 1.20
6 0 4 0.54 1.05 0.43
6 1 4 94.95 93.36 1.55
6 2 4 20.53 20.86 0.76
6 3 4 55.32 56.39 1.18
6 4 4 2.09 0.91 0.49
6 5 4 37.77 36.56 1.00
6 6 4 67.64 66.50 1.35
6 7 4 4.85 4.90 0.42
6 8 4 17.43 16.78 0.78
6 9 4 40.70 39.69 1.11
6 10 4 48.30 47.97 1.24
6 11 4 2.33 2.47 0.38
6 12 4 28.07 27.15 1.01
6 13 4 3.76 4.64 0.45
6 14 4 40.39 39.41 1.24
6 15 4 4.25 3.79 0.46
6 16 4 30.24 31.71 1.17
6 17 4 80.15 79.75 1.81
6 18 4 9.87 9.81 0.79
6 19 4 31.69 31.19 1.24
6 20 4 11.96 12.27 0.92
6 21 4 55.62 54.11 1.55
6 0 5 15.18 14.19 0.75
6 1 5 65.74 64.55 1.33
6 2 5 18.41 19.52 0.80
6 3 5 108.24 105.29 1.76
6 4 5 19.76 18.95 0.81
6 5 5 4.05 4.15 0.41
6 6 5 42.20 43.52 1.13
6 7 5 11.24 10.08 0.70
6 8 5 0.15 0.26 0.36
6 9 5 33.95 33.48 1.09
6 10 5 2.03 2.27 0.38
6 11 5 20.48 19.20 0.92
6 12 5 23.30 23.00 0.99
6 13 5 8.72 9.46 0.62
6 14 5 20.96 22.47 1.04
6 15 5 2.22 1.90 0.42
6 16 5 16.64 16.71 0.99
6 17 5 1.56 1.87 0.43
6 18 5 17.81 17.62 1.00
6 19 5 6.22 5.97 0.54
6 20 5 0.29 0.09 0.38
6 0 6 52.13 50.53 1.24
6 1 6 100.56 100.39 1.77
6 2 6 74.05 71.86 1.50
6 3 6 56.78 55.50 1.32
6 4 6 18.53 19.51 0.87
6 5 6 79.50 79.05 1.61
6 6 6 70.39 73.37 1.56
6 7 6 6.93 6.29 0.48
6 8 6 11.69 10.75 0.77
6 9 6 74.83 75.45 1.65
6 10 6 13.16 12.63 0.85
6 11 6 33.65 32.96 1.17
6 12 6 39.15 40.23 1.27
6 13 6 34.75 34.51 1.24
6 14 6 13.75 13.08 0.93
6 15 6 41.52 43.24 1.36
6 16 6 26.31 28.63 1.17
6 17 6 23.11 22.64 1.10
6 18 6 8.31 8.58 0.59
6 19 6 14.40 14.21 0.94
6 0 7 17.11 17.60 0.86
6 1 7 1.86 2.24 0.39
6 2 7 49.18 49.61 1.32
6 3 7 12.29 11.73 0.79
6 4 7 7.65 8.12 0.65
6 5 7 20.60 20.56 0.92
6 6 7 95.50 97.95 1.89
6 7 7 1.54 2.30 0.42
6 8 7 18.50 18.90 0.93
6 9 7 5.29 5.06 0.54
6 10 7 56.98 57.62 1.51
6 11 7 5.04 5.09 0.50
6 12 7 16.92 17.39 1.00
6 13 7 16.86 15.44 0.98
6 14 7 12.35 13.74 0.94
6 15 7 2.96 3.50 0.48
6 16 7 0.07 0.09 0.39
6 17 7 11.00 11.83 0.87
6 18 7 6.88 7.04 0.55
6 0 8 27.03 28.26 1.09
6 1 8 1.01 1.24 0.39
6 2 8 13.49 14.72 0.87
6 3 8 49.39 49.17 1.38
6 4 8 8.17 7.75 0.69
6 5 8 3.19 3.39 0.45
6 6 8 11.79 13.14 0.89
6 7 8 51.13 53.00 1.46
6 8 8 0.27 0.72 0.39
6 9 8 2.66 3.13 0.47
6 10 8 6.52 7.80 0.66
6 11 8 18.37 17.58 1.03
6 12 8 1.38 2.40 0.45
6 13 8 10.23 10.43 0.74
6 14 8 15.08 15.23 0.97
6 15 8 40.50 41.18 1.36
6 16 8 21.85 21.10 1.08
6 0 9 36.99 38.97 1.31
6 1 9 0.99 1.11 0.41
6 2 9 11.11 11.41 0.87
6 3 9 12.42 11.19 0.81
6 4 9 9.39 8.96 0.76
6 5 9 2.55 2.71 0.45
6 6 9 11.10 13.05 0.90
6 7 9 6.61 7.01 0.56
6 8 9 27.30 30.04 1.18
6 9 9 5.01 5.81 0.54
6 10 9 41.57 42.07 1.39
6 11 9 5.69 6.56 0.61
6 12 9 34.55 36.38 1.30
6 13 9 14.37 13.94 0.94
6 0 10 3.62 4.93 0.52
6 1 10 40.64 43.43 1.39
6 2 10 45.41 45.75 1.45
6 3 10 1.22 1.61 0.45
6 4 10 5.67 7.02 0.56
6 5 10 49.56 51.57 1.51
6 6 10 8.06 8.55 0.66
6 7 10 21.33 22.55 1.12
6 8 10 0.93 1.57 0.43
6 9 10 3.74 4.53 0.50
6 0 11 5.88 7.43 0.63
6 1 11 28.37 29.59 1.39
6 2 11 3.00 4.29 0.60
7 2 0 72.72 71.38 1.30
7 3 0 13.05 13.65 0.62
7 4 0 3.89 3.81 0.50
7 5 0 53.79 52.51 1.16
7 6 0 21.01 21.08 0.79
7 7 0 2.20 2.42 0.35
7 8 0 33.92 34.63 0.99
7 9 0 44.33 42.89 1.12
7 10 0 100.28 97.90 1.75
7 11 0 32.71 32.69 1.05
7 12 0 24.16 24.26 0.94
7 13 0 0.08 0.08 0.35
7 14 0 17.96 17.39 0.89
7 15 0 16.49 15.11 0.88
7 16 0 2.84 2.48 0.43
7 17 0 12.80 11.48 0.85
7 18 0 1.57 1.23 0.41
7 19 0 3.23 3.10 0.47
7 20 0 22.93 24.81 1.11
7 21 0 17.85 17.82 1.02
7 22 0 1.13 1.43 0.44
7 0 1 221.47 218.63 2.70
7 1 1 57.44 56.33 1.14
7 2 1 17.02 15.88 0.68
7 3 1 40.11 41.42 0.99
7 4 1 69.00 69.85 1.30
7 5 1 71.70 72.79 1.36
7 6 1 39.47 39.79 1.02
7 7 1 22.84 22.80 0.83
7 8 1 0.87 1.14 0.34
7 9 1 101.07 100.01 1.75
7 10 1 19.78 19.01 0.84
7 11 1 18.76 18.15 0.86
7 12 1 0.27 0.51 0.33
7 13 1 35.76 36.89 1.16
7 14 1 20.47 18.03 0.95
7 15 1 11.55 10.71 0.79
7 16 1 17.97 17.29 0.96
7 17 1 36.32 35.87 1.26
7 18 1 41.53 42.72 1.37
7 19 1 27.14 26.26 1.16
7 20 1 11.14 11.16 0.90
7 21 1 26.46 25.14 1.15
7 22 1 34.23 33.51 1.27
7 0 2 12.26 11.46 0.63
7 1 2 2.09 2.04 0.48
7 2 2 37.60 38.67 0.98
7 3 2 28.85 29.01 0.87
7 4 2 13.39 12.60 0.66
7 5 2 47.97 50.42 1.14
7 6 2 210.68 208.10 2.69
7 7 2 7.71 7.06 0.50
7 8 2 17.88 17.43 0.81
7 9 2 24.98 23.49 0.93
7 10 2 145.42 141.88 2.21
7 11 2 10.36 10.63 0.66
7 12 2 58.12 58.14 1.41
7 13 2 5.60 5.26 0.52
7 14 2 6.45 5.74 0.50
7 15 2 17.12 19.94 0.95
7 16 2 15.71 15.12 0.93
7 17 2 6.80 6.13 0.59
7 18 2 10.52 11.19 0.87
7 19 2 1.37 1.65 0.43
7 20 2 1.11 1.88 0.44
7 21 2 0.90 0.98 0.41
7 0 3 3.67 3.75 0.53
7 1 3 117.95 117.72 1.84
7 2 3 30.64 30.06 0.92
7 3 3 17.83 17.88 0.77
7 4 3 26.32 24.46 0.86
7 5 3 102.12 102.38 1.72
7 6 3 43.78 44.16 1.12
7 7 3 11.43 11.97 0.70
7 8 3 38.64 37.32 1.08
7 9 3 6.05 5.66 0.51
7 10 3 5.81 5.97 0.51
7 11 3 6.29 5.93 0.59
7 12 3 14.37 14.83 0.84
7 13 3 20.80 21.28 0.98
7 14 3 42.24 42.41 1.32
7 15 3 14.54 16.28 0.93
7 16 3 25.49 24.48 1.13
7 17 3 33.20 32.34 1.24
7 18 3 8.40 7.88 0.64
7 19 3 22.40 21.06 1.09
7 20 3 12.53 12.60 0.92
7 21 3 9.32 8.83 0.75
7 0 4 2.16 2.61 0.38
7 1 4 64.71 66.05 1.37
7 2 4 12.49 11.90 0.71
7 3 4 24.49 23.30 0.88
7 4 4 56.87 56.81 1.29
7 5 4 51.28 51.69 1.26
7 6 4 48.50 48.38 1.22
7 7 4 5.00 4.50 0.44
7 8 4 9.36 9.11 0.64
7 9 4 17.72 16.45 0.85
7 10 4 11.12 11.76 0.78
7 11 4 14.04 13.94 0.85
7 12 4 28.12 27.13 1.07
7 13 4 40.28 39.21 1.30
7 14 4 11.89 11.75 0.87
7 15 4 37.49 38.06 1.30
7 16 4 33.49 35.31 1.25
7 17 4 22.19 23.08 1.07
7 18 4 14.64 16.03 0.98
7 19 4 26.80 25.53 1.18
7 20 4 2.89 1.93 0.44
7 0 5 2.60 2.99 0.40
7 1 5 22.68 21.95 0.89
7 2 5 21.51 21.60 0.87
7 3 5 7.87 7.21 0.61
7 4 5 31.86 31.27 1.05
7 5 5 32.23 32.48 1.06
7 6 5 26.58 27.16 1.00
7 7 5 46.14 44.73 1.25
7 8 5 62.69 62.34 1.49
7 9 5 5.06 4.80 0.47
7 10 5 42.90 44.01 1.30
7 11 5 13.41 11.97 0.84
7 12 5 30.38 28.02 1.14
7 13 5 5.07 4.56 0.49
7 14 5 52.16 52.96 1.49
7 15 5 2.55 3.13 0.47
7 16 5 12.74 12.12 0.82
7 17 5 4.11 4.01 0.49
7 18 5 6.66 5.64 0.53
7 19 5 4.72 5.46 0.52
7 0 6 14.52 14.32 0.81
7 1 6 61.13 61.04 1.45
7 2 6 74.27 76.74 1.63
7 3 6 56.25 57.36 1.43
7 4 6 53.24 54.53 1.38
7 5 6 6.45 6.46 0.54
7 6 6 12.93 12.06 0.83
7 7 6 32.32 33.48 1.17
7 8 6 28.16 28.24 1.10
7 9 6 9.67 8.86 0.71
7 10 6 7.66 7.45 0.68
7 11 6 23.96 25.09 1.07
7 12 6 6.93 6.65 0.60
7 13 6 12.51 13.34 0.91
7 14 6 9.49 10.75 0.77
7 15 6 18.41 17.37 1.02
7 16 6 20.34 18.81 1.04
7 17 6 16.68 14.73 0.98
7 18 6 7.91 7.00 0.62
7 0 7 31.26 30.42 1.13
7 1 7 1.11 1.22 0.38
7 2 7 68.84 71.96 1.65
7 3 7 8.31 8.14 0.70
7 4 7 3.25 3.11 0.44
7 5 7 4.51 4.79 0.48
7 6 7 2.95 3.24 0.45
7 7 7 20.55 22.14 1.03
7 8 7 33.79 35.31 1.23
7 9 7 18.12 17.06 1.00
7 10 7 36.03 36.79 1.29
7 11 7 13.48 12.82 0.82
7 12 7 22.40 20.42 1.09
7 13 7 7.60 7.59 0.64
7 14 7 29.22 28.88 1.24
7 15 7 6.92 6.83 0.55
7 16 7 0.01 0.19 0.81
7 0 8 0.88 1.18 0.41
7 1 8 31.54 32.06 1.22
7 2 8 69.85 70.78 1.68
7 3 8 16.54 18.12 0.98
7 4 8 6.03 6.30 0.60
7 5 8 9.25 10.43 0.84
7 6 8 3.59 4.47 0.49
7 7 8 9.30 8.61 0.73
7 8 8 3.58 3.89 0.53
7 9 8 23.78 23.35 1.11
7 10 8 1.90 2.09 0.45
7 11 8 28.85 27.45 1.18
7 12 8 15.75 17.09 1.00
7 13 8 20.50 20.93 1.05
7 14 8 2.46 2.42 0.44
7 0 9 3.84 4.63 0.51
7 1 9 3.90 4.43 0.50
7 2 9 10.21 10.37 0.79
7 3 9 6.81 7.16 0.59
7 4 9 19.08 19.18 1.04
7 5 9 11.72 10.65 0.70
7 6 9 9.47 10.27 0.73
7 7 9 3.13 3.80 0.49
7 8 9 58.18 57.31 1.59
7 9 9 0.49 0.69 0.87
7 10 9 31.07 31.58 1.22
7 11 9 6.06 6.57 0.54
7 0 10 0.29 0.22 0.42
7 1 10 31.19 31.05 1.23
7 2 10 2.89 3.92 0.48
7 3 10 63.83 65.88 1.68
7 4 10 6.71 7.43 0.56
7 5 10 0.33 0.72 0.42
7 6 10 10.37 9.68 0.88
8 0 0 2.78 2.35 0.36
8 1 0 1.21 1.71 0.35
8 2 0 49.44 49.28 1.16
8 3 0 0.08 0.14 0.33
8 4 0 1.97 2.37 0.37
8 5 0 9.93 10.58 0.68
8 6 0 134.53 130.95 2.07
8 7 0 18.12 17.93 0.85
8 8 0 5.44 5.70 0.51
8 9 0 62.96 63.95 1.47
8 10 0 18.11 17.77 0.88
8 11 0 21.59 22.73 0.96
8 12 0 8.89 10.17 0.66
8 13 0 56.33 58.28 1.50
8 14 0 1.47 1.27 0.40
8 15 0 1.50 1.79 0.42
8 16 0 34.28 36.13 1.26
8 17 0 16.63 16.97 0.98
8 18 0 0.17 0.53 0.40
8 19 0 9.76 9.26 0.67
8 20 0 0.70 0.78 0.41
8 0 1 34.39 31.43 0.98
8 1 1 30.61 31.02 0.96
8 2 1 99.80 96.08 1.67
8 3 1 0.67 1.23 0.35
8 4 1 33.75 32.55 1.00
8 5 1 68.51 66.60 1.41
8 6 1 2.35 2.54 0.39
8 7 1 21.60 21.79 0.89
8 8 1 4.48 5.09 0.49
8 9 1 62.60 60.90 1.46
8 10 1 3.87 4.33 0.44
8 11 1 4.30 3.96 0.44
8 12 1 20.47 21.16 0.99
8 13 1 25.83 26.18 1.06
8 14 1 4.36 4.53 0.49
8 15 1 18.77 18.52 0.98
8 16 1 8.53 8.70 0.76
8 17 1 17.01 18.34 1.03
8 18 1 3.41 3.92 0.49
8 19 1 40.49 40.49 1.36
8 20 1 35.55 37.37 1.30
8 0 2 0.22 0.55 0.33
8 1 2 2.43 3.12 0.39
8 2 2 32.58 32.22 1.00
8 3 2 11.53 11.38 0.72
8 4 2 130.88 129.14 2.05
8 5 2 2.89 3.07 0.41
8 6 2 50.90 49.83 1.25
8 7 2 13.93 12.46 0.81
8 8 2 177.89 182.06 2.62
8 9 2 1.99 1.96 0.38
8 10 2 24.53 23.09 0.98
8 11 2 5.04 4.19 0.45
8 12 2 27.09 27.67 1.08
8 13 2 2.90 2.74 0.44
8 14 2 27.14 27.14 1.11
8 15 2 3.76 3.69 0.47
8 16 2 21.68 21.20 1.05
8 17 2 5.22 5.38 0.53
8 18 2 4.14 2.92 0.47
8 19 2 2.23 3.01 0.47
8 20 2 10.29 10.40 0.76
8 0 3 82.04 82.69 1.60
8 1 3 1.99 1.90 0.38
8 2 3 14.64 14.69 0.79
8 3 3 35.78 34.89 1.05
8 4 3 42.67 41.98 1.17
8 5 3 23.10 22.95 0.93
8 6 3 34.08 35.77 1.10
8 7 3 34.93 34.90 1.11
8 8 3 20.43 21.22 0.92
8 9 3 59.29 59.62 1.46
8 10 3 69.55 70.83 1.62
8 11 3 10.58 10.96 0.81
8 12 3 62.27 63.01 1.58
8 13 3 33.82 37.44 1.25
8 14 3 14.87 15.91 0.93
8 15 3 0.74 0.54 0.39
8 16 3 11.30 12.25 0.89
8 17 3 2.32 3.23 0.48
8 18 3 5.16 5.96 0.53
8 19 3 1.40 1.85 0.43
8 0 4 5.31 5.50 0.49
8 1 4 13.08 14.06 0.76
8 2 4 16.06 16.32 0.82
8 3 4 45.21 45.83 1.23
8 4 4 23.01 23.75 0.95
8 5 4 10.64 12.07 0.75
8 6 4 6.32 6.89 0.52
8 7 4 39.42 41.09 1.24
8 8 4 65.51 65.18 1.56
8 9 4 24.08 24.53 1.01
8 10 4 29.32 30.75 1.15
8 11 4 55.65 54.30 1.47
8 12 4 15.21 15.66 0.92
8 13 4 24.89 24.65 1.09
8 14 4 25.11 24.97 1.13
8 15 4 36.68 38.85 1.33
8 16 4 7.50 8.40 0.59
8 17 4 6.87 7.15 0.62
8 18 4 0.40 0.55 0.39
8 0 5 0.47 0.66 0.35
8 1 5 20.66 23.39 0.95
8 2 5 17.61 18.20 0.88
8 3 5 14.53 14.86 0.84
8 4 5 15.91 17.08 0.88
8 5 5 34.00 33.92 1.16
8 6 5 46.14 46.55 1.33
8 7 5 8.56 8.31 0.69
8 8 5 36.08 36.97 1.24
8 9 5 13.84 13.47 0.89
8 10 5 50.21 49.55 1.44
8 11 5 0.53 1.10 0.40
8 12 5 55.08 53.82 1.54
8 13 5 0.88 1.23 0.42
8 14 5 6.78 5.48 0.53
8 15 5 12.86 14.04 0.94
8 16 5 9.58 10.23 0.88
8 17 5 5.33 5.41 0.52
8 0 6 83.44 85.57 1.80
8 1 6 1.87 1.89 0.41
8 2 6 8.71 8.41 0.69
8 3 6 12.06 12.30 0.85
8 4 6 36.39 36.94 1.22
8 5 6 21.16 22.40 1.02
8 6 6 14.36 16.42 0.93
8 7 6 31.04 28.33 1.18
8 8 6 13.15 13.00 0.93
8 9 6 4.68 5.28 0.52
8 10 6 0.04 0.14 0.40
8 11 6 28.57 29.56 1.22
8 12 6 0.09 0.03 0.38
8 13 6 8.80 9.81 0.73
8 14 6 2.64 3.30 0.48
8 15 6 14.35 14.80 0.98
8 16 6 18.07 18.75 1.04
8 0 7 55.22 54.80 1.53
8 1 7 4.71 5.01 0.50
8 2 7 1.10 1.31 0.41
8 3 7 11.76 11.33 0.76
8 4 7 56.80 60.01 1.57
8 5 7 1.25 1.01 0.41
8 6 7 2.83 3.11 0.46
8 7 7 36.50 35.88 1.28
8 8 7 29.19 30.45 1.22
8 9 7 9.49 10.36 0.78
8 10 7 0.16 0.13 0.43
8 11 7 30.52 28.36 1.22
8 12 7 32.95 32.78 1.24
8 13 7 7.51 8.68 0.66
8 14 7 11.43 13.19 0.93
8 0 8 45.57 47.52 1.45
8 1 8 43.21 44.88 1.42
8 2 8 10.31 10.00 0.76
8 3 8 36.18 35.32 1.30
8 4 8 11.80 11.75 0.82
8 5 8 14.97 14.15 0.98
8 6 8 8.92 8.91 0.63
8 7 8 12.73 13.38 0.94
8 8 8 3.11 3.11 0.47
8 9 8 3.23 3.92 0.49
8 10 8 3.94 4.46 0.50
8 11 8 20.85 22.46 1.09
8 0 9 6.52 6.26 0.54
8 1 9 5.38 5.82 0.54
8 2 9 19.02 19.97 1.09
8 3 9 15.85 17.16 1.01
8 4 9 19.35 17.93 1.05
8 5 9 0.59 0.90 0.43
8 6 9 42.23 44.24 1.37
8 7 9 21.00 23.21 1.11
8 8 9 6.34 7.52 0.65
9 1 0 0.49 0.57 0.33
9 2 0 23.44 24.11 0.95
9 4 0 180.23 178.01 2.62
9 5 0 0.06 0.58 0.68
9 6 0 6.04 6.70 0.54
9 7 0 7.66 7.24 0.64
9 8 0 128.85 126.57 2.20
9 9 0 4.99 4.40 0.47
9 10 0 16.27 15.80 0.91
9 11 0 25.83 25.14 1.07
9 12 0 5.63 5.55 0.52
9 13 0 6.32 6.80 0.55
9 14 0 40.40 42.35 1.38
9 15 0 36.84 37.59 1.31
9 16 0 0.09 0.11 0.41
9 18 0 4.86 4.67 0.50
9 0 1 7.29 7.46 0.54
9 1 1 12.08 11.94 0.76
9 2 1 26.29 26.62 0.99
9 3 1 14.04 13.05 0.80
9 4 1 4.75 5.89 0.52
9 5 1 7.66 7.00 0.61
9 6 1 19.24 19.72 0.92
9 7 1 40.16 39.53 1.24
9 8 1 13.67 14.36 0.84
9 9 1 37.55 38.97 1.22
9 10 1 4.64 4.34 0.48
9 11 1 34.65 34.77 1.22
9 12 1 3.45 3.29 0.46
9 13 1 59.38 59.91 1.59
9 14 1 13.82 13.69 0.94
9 15 1 4.07 4.22 0.50
9 16 1 9.66 10.29 0.85
9 17 1 23.02 22.02 1.09
9 18 1 1.28 1.40 0.42
9 0 2 112.79 112.71 1.99
9 1 2 1.41 1.82 0.37
9 2 2 4.91 4.60 0.44
9 3 2 3.05 2.82 0.41
9 4 2 92.20 92.69 1.81
9 5 2 31.60 32.80 1.10
9 6 2 10.99 10.06 0.79
9 7 2 11.93 11.23 0.82
9 8 2 6.57 6.33 0.51
9 9 2 61.42 64.20 1.57
9 10 2 9.22 10.11 0.78
9 11 2 16.26 15.96 0.93
9 12 2 19.75 19.52 1.02
9 13 2 34.19 35.54 1.29
9 14 2 11.27 10.66 0.79
9 15 2 10.11 10.95 0.85
9 16 2 17.04 18.42 1.03
9 17 2 4.29 3.69 0.48
9 18 2 12.78 13.14 0.89
9 0 3 19.60 20.25 0.90
9 1 3 19.74 20.69 0.93
9 2 3 74.57 74.01 1.62
9 3 3 0.21 0.07 0.34
9 4 3 7.68 7.82 0.58
9 5 3 21.57 21.75 1.00
9 6 3 26.85 28.01 1.09
9 7 3 16.83 16.59 0.92
9 8 3 83.49 86.62 1.85
9 9 3 8.96 10.04 0.83
9 10 3 48.10 50.00 1.44
9 11 3 15.36 15.76 0.95
9 12 3 42.88 44.69 1.39
9 13 3 4.27 3.96 0.49
9 14 3 30.85 30.80 1.24
9 15 3 2.46 3.60 0.48
9 16 3 2.04 2.17 0.44
9 17 3 4.76 4.92 0.51
9 0 4 67.11 66.97 1.59
9 1 4 0.81 1.59 0.40
9 2 4 3.07 3.47 0.44
9 3 4 13.67 15.37 0.87
9 4 4 41.57 42.71 1.28
9 5 4 18.31 19.35 0.96
9 6 4 28.69 29.32 1.10
9 7 4 14.29 13.31 0.88
9 8 4 33.56 35.28 1.23
9 9 4 18.68 20.65 1.00
9 10 4 46.22 49.35 1.47
9 11 4 0.43 0.58 0.39
9 12 4 35.89 35.93 1.27
9 13 4 1.25 1.32 0.43
9 14 4 4.49 4.50 0.50
9 15 4 5.22 5.36 0.53
9 16 4 4.71 4.76 0.51
9 0 5 70.71 69.69 1.68
9 1 5 12.29 12.31 0.86
9 2 5 43.41 43.90 1.34
9 3 5 41.08 40.47 1.30
9 4 5 13.62 13.33 0.89
9 5 5 0.65 1.15 0.40
9 6 5 16.98 17.94 0.99
9 7 5 36.75 36.91 1.27
9 8 5 19.71 20.75 1.02
9 9 5 1.51 1.62 0.43
9 10 5 2.66 2.93 0.47
9 11 5 21.06 20.91 1.06
9 12 5 11.10 11.74 0.88
9 13 5 9.25 7.84 0.65
9 14 5 2.23 2.82 0.47
9 15 5 9.56 9.51 0.76
9 0 6 0.39 0.89 0.39
9 1 6 2.59 2.88 0.45
9 2 6 16.09 16.13 0.96
9 3 6 29.57 30.50 1.18
9 4 6 9.68 9.23 0.75
9 5 6 11.19 10.90 0.86
9 6 6 9.19 10.17 0.83
9 7 6 16.11 16.10 0.98
9 8 6 3.32 3.21 0.48
9 9 6 21.92 23.93 1.11
9 10 6 5.48 5.26 0.58
9 11 6 22.08 21.23 1.07
9 12 6 7.97 9.26 0.75
9 13 6 8.24 7.89 0.58
9 0 7 18.95 18.45 1.03
9 1 7 5.47 6.09 0.60
9 2 7 21.53 20.84 1.09
9 3 7 5.17 5.54 0.53
9 4 7 20.66 19.76 1.07
9 5 7 19.11 20.24 1.07
9 6 7 63.24 63.61 1.67
9 7 7 1.08 1.36 0.42
9 8 7 21.25 21.23 1.05
9 9 7 12.27 11.58 0.93
9 10 7 12.66 13.50 0.93
9 11 7 1.26 1.41 0.42
9 0 8 4.00 4.42 0.50
9 1 8 2.27 2.36 0.45
9 2 8 2.91 2.97 0.47
9 3 8 13.00 13.73 0.95
9 4 8 23.85 23.74 1.14
9 5 8 7.50 7.00 0.62
9 6 8 16.74 19.05 1.01
9 7 8 28.61 29.55 1.21
9 8 8 4.43 5.10 0.51
10 0 0 273.21 275.03 3.61
10 1 0 0.00 0.08 0.75
10 2 0 10.04 10.36 0.79
10 3 0 1.22 1.76 0.41
10 4 0 118.62 120.19 2.18
10 5 0 11.80 10.58 0.82
10 6 0 23.96 24.70 1.06
10 7 0 1.03 1.33 0.41
10 8 0 3.33 3.10 0.46
10 9 0 20.16 18.68 1.00
10 10 0 4.45 3.74 0.48
10 11 0 1.95 2.47 0.45
10 12 0 1.10 1.95 0.44
10 14 0 7.16 7.52 0.71
10 15 0 1.32 1.61 0.43
10 16 0 0.38 0.15 0.38
10 0 1 0.72 0.75 0.37
10 1 1 39.99 41.30 1.28
10 2 1 12.44 13.33 0.81
10 3 1 18.81 19.28 0.95
10 4 1 14.05 13.22 0.89
10 5 1 5.73 5.85 0.56
10 6 1 41.02 41.82 1.31
10 7 1 11.58 11.94 0.78
10 8 1 2.04 2.20 0.43
10 9 1 8.77 10.15 0.84
10 10 1 11.03 11.14 0.86
10 11 1 49.43 49.04 1.47
10 12 1 10.56 9.03 0.77
10 13 1 9.48 9.41 0.68
10 14 1 9.48 8.93 0.76
10 15 1 16.78 17.11 1.00
10 16 1 2.32 2.38 0.44
10 0 2 54.77 52.20 1.44
10 1 2 3.79 3.70 0.46
10 2 2 50.58 51.15 1.45
10 3 2 13.26 14.54 0.88
10 4 2 17.26 18.99 0.95
10 5 2 6.02 5.40 0.50
10 6 2 2.58 2.72 0.44
10 7 2 37.04 37.35 1.26
10 8 2 7.80 7.47 0.71
10 9 2 2.33 2.73 0.45
10 10 2 32.69 32.96 1.26
10 11 2 45.40 45.02 1.44
10 12 2 1.62 2.36 0.45
10 13 2 0.57 0.98 0.41
10 14 2 36.10 35.11 1.28
10 15 2 33.70 33.72 1.27
10 0 3 8.75 7.66 0.70
10 1 3 0.71 0.73 0.38
10 2 3 15.28 15.28 0.90
10 3 3 5.00 5.15 0.50
10 4 3 15.82 15.76 0.92
10 5 3 8.42 8.33 0.64
10 6 3 56.94 58.31 1.55
10 7 3 2.23 2.45 0.44
10 9 3 10.71 10.95 0.87
10 10 3 24.49 23.29 1.13
10 11 3 1.74 1.84 0.43
10 12 3 21.14 22.20 1.07
10 13 3 28.00 27.72 1.19
10 14 3 2.02 2.55 0.45
10 15 3 4.07 2.51 0.45
10 0 4 2.73 3.24 0.46
10 1 4 8.54 8.88 0.72
10 2 4 14.51 14.94 0.90
10 3 4 18.83 18.14 1.01
10 4 4 13.45 15.77 0.94
10 5 4 34.22 33.05 1.24
10 6 4 4.65 3.96 0.48
10 7 4 39.70 39.60 1.37
10 8 4 21.31 22.40 1.10
10 9 4 13.76 15.86 0.96
10 10 4 22.92 23.18 1.12
10 11 4 20.64 21.41 1.09
10 12 4 1.11 1.56 0.43
10 13 4 0.76 0.96 0.41
10 14 4 20.93 20.07 1.05
10 0 5 16.98 18.24 1.00
10 1 5 31.95 33.03 1.24
10 2 5 32.79 30.71 1.24
10 3 5 1.12 1.29 0.42
10 4 5 22.81 23.49 1.10
10 5 5 56.90 57.94 1.61
10 6 5 18.18 20.11 1.06
10 7 5 2.60 2.23 0.45
10 8 5 11.89 12.74 0.90
10 9 5 42.94 42.10 1.41
10 10 5 12.57 13.32 0.95
10 11 5 2.22 2.19 0.45
10 12 5 10.95 9.47 0.78
10 0 6 0.08 0.18 0.41
10 1 6 9.51 9.44 0.64
10 2 6 12.03 11.86 0.93
10 3 6 0.16 0.45 0.39
10 4 6 2.09 2.01 0.44
10 5 6 3.36 4.02 0.50
10 6 6 3.51 3.22 0.47
10 7 6 13.22 13.27 0.85
10 8 6 6.14 6.37 0.54
10 9 6 6.83 6.77 0.61
10 10 6 15.17 15.86 0.96
10 0 7 3.19 3.45 0.48
10 1 7 4.88 5.90 0.53
10 2 7 87.65 86.80 1.95
10 3 7 3.46 3.74 0.48
10 4 7 9.29 9.39 0.77
10 5 7 4.68 4.71 0.50
10 6 7 37.24 37.60 1.31
10 7 7 11.52 11.91 0.92
11 1 0 0.57 0.79 0.39
11 2 0 190.58 187.48 2.93
11 3 0 10.78 10.63 0.79
11 4 0 0.90 0.67 0.39
11 5 0 0.43 0.38 0.40
11 6 0 16.92 20.14 1.05
11 7 0 59.93 59.82 1.61
11 8 0 0.47 0.91 0.41
11 9 0 1.20 1.74 0.43
11 10 0 11.35 10.61 0.81
11 11 0 55.21 56.81 1.56
11 12 0 4.99 4.56 0.50
11 13 0 10.95 9.91 0.80
11 0 1 0.03 0.31 0.38
11 1 1 31.65 31.13 1.21
11 2 1 1.44 1.62 0.43
11 3 1 9.69 8.78 0.75
11 4 1 8.14 8.26 0.64
11 5 1 27.36 26.77 1.16
11 6 1 1.60 1.67 0.43
11 7 1 27.43 29.13 1.17
11 8 1 14.91 15.41 0.98
11 9 1 2.85 2.15 0.45
11 10 1 7.32 8.15 0.65
11 11 1 5.50 5.33 0.52
11 12 1 0.77 0.88 0.41
11 13 1 13.83 13.78 0.81
11 0 2 8.75 7.70 0.71
11 1 2 9.35 10.34 0.84
11 2 2 17.50 14.88 0.98
11 3 2 22.20 21.42 1.09
11 4 2 10.95 13.23 0.89
11 5 2 1.03 1.52 0.43
11 6 2 1.85 1.98 0.44
11 7 2 20.08 20.33 1.06
11 8 2 8.76 9.62 0.77
11 9 2 2.17 2.32 0.45
11 10 2 3.28 3.27 0.48
11 11 2 21.51 22.20 1.09
11 12 2 6.91 6.12 0.59
11 0 3 16.27 16.31 0.98
11 1 3 18.93 19.90 1.02
11 2 3 9.46 8.92 0.75
11 3 3 0.93 0.62 0.40
11 4 3 28.92 28.35 1.19
11 5 3 17.17 19.67 1.02
11 6 3 17.74 18.68 1.03
11 7 3 13.46 12.89 0.93
11 8 3 16.10 15.73 1.01
11 9 3 2.67 3.21 0.47
11 10 3 3.73 3.79 0.48
11 11 3 18.41 16.70 1.02
11 0 4 7.82 7.16 0.63
11 1 4 13.52 14.91 0.96
11 2 4 27.57 28.40 1.18
11 3 4 35.32 36.29 1.31
11 4 4 7.49 7.62 0.58
11 5 4 3.53 3.34 0.47
11 6 4 15.57 16.89 0.96
11 7 4 5.46 5.21 0.53
11 8 4 0.96 1.45 0.42
11 9 4 12.83 11.19 0.80
11 10 4 3.93 3.46 0.47
11 0 5 7.69 9.20 0.68
11 1 5 14.81 14.86 0.99
11 2 5 35.53 35.90 1.31
11 3 5 22.77 23.23 1.07
11 4 5 2.25 2.48 0.45
11 5 5 3.72 3.15 0.47
11 6 5 47.60 49.34 1.51
11 7 5 11.35 12.48 0.89
11 8 5 0.08 0.27 0.41
11 0 6 19.89 18.64 1.05
11 1 6 5.14 4.89 0.51
11 2 6 0.47 0.94 0.43
11 3 6 28.35 28.48 1.18
11 4 6 6.68 7.14 0.61
12 0 0 10.07 9.15 0.68
12 1 0 12.85 14.18 0.96
12 2 0 5.25 5.48 0.59
12 3 0 25.74 25.30 1.15
12 4 0 2.15 2.38 0.45
12 5 0 18.06 17.95 1.00
12 6 0 21.37 20.86 1.05
12 7 0 7.71 8.21 0.58
12 8 0 0.62 0.61 0.41
12 9 0 37.05 36.60 1.30
12 0 1 11.80 12.61 0.90
12 1 1 4.76 5.23 0.52
12 2 1 4.69 3.89 0.49
12 3 1 24.95 22.88 1.12
12 4 1 7.42 9.03 0.70
12 5 1 37.54 35.18 1.31
12 6 1 0.20 0.53 0.40
12 7 1 21.44 23.22 1.12
12 8 1 9.09 10.28 0.87
12 0 2 0.76 1.01 0.41
12 1 2 5.27 5.24 0.52
12 2 2 49.71 48.43 1.51
12 3 2 1.23 1.56 0.43
12 4 2 9.26 8.82 0.76
12 5 2 8.06 7.90 0.64
12 6 2 16.07 15.41 1.00
12 7 2 5.16 4.99 0.51
12 8 2 5.78 5.42 0.59
12 0 3 0.18 1.09 0.85
12 1 3 16.41 18.38 0.99
12 2 3 0.37 0.84 0.41
12 3 3 20.50 21.17 1.07
12 4 3 1.20 1.89 0.43
12 5 3 6.84 7.17 0.71
12 6 3 1.01 0.91 0.41
12 0 4 12.11 14.47 0.94
12 1 4 45.17 44.92 1.41
12 2 4 7.91 9.24 0.85
12 3 4 16.89 17.47 1.01
