#------------------------------------------------------------------------------
#$Date: 2022-03-02 05:20:08 +0200 (Wed, 02 Mar 2022) $
#$Revision: 273207 $
#$URL: file:///home/coder/svn-repositories/cod/cif/1/56/65/1566517.cif $
#------------------------------------------------------------------------------
#
# This file is available in the Crystallography Open Database (COD),
# http://www.crystallography.net/. The original data for this entry
# were provided by IUCr Journals, http://journals.iucr.org/.
#
# The file may be used within the scientific community so long as
# proper attribution is given to the journal article from which the
# data were obtained.
#
data_1566517
loop_
_publ_author_name
'Ruth, Paul Niklas'
'Herbst-Irmer, Regine'
'Stalke, Dietmar'
_publ_section_title
;
 Hirshfeld atom refinement based on projector augmented wave densities
 with periodic boundary conditions
;
_journal_issue                   2
_journal_name_full               IUCrJ
_journal_page_first              286
_journal_page_last               297
_journal_paper_doi               10.1107/S2052252522001385
_journal_volume                  9
_journal_year                    2022
_chemical_formula_moiety         'C H4 N2 O'
_chemical_formula_sum            'C H4 N2 O'
_chemical_formula_weight         60.06
_chemical_name_common            urea
_space_group_crystal_system      tetragonal
_space_group_IT_number           113
_space_group_name_Hall           'P -4 2ab'
_space_group_name_H-M_alt        'P -4 21 m'
_atom_sites_solution_hydrogens   difmap
_audit_creation_method           'xHARPY 0.1'
_cell_angle_alpha                90
_cell_angle_beta                 90
_cell_angle_gamma                90
_cell_formula_units_Z            2
_cell_length_a                   5.5780(6)
_cell_length_b                   5.5780(6)
_cell_length_c                   4.6860(7)
_cell_measurement_reflns_used    17
_cell_measurement_temperature    123(2)
_cell_volume                     145.80(3)
_computing_cell_refinement       'KM6-CH software'
_computing_data_collection       'KM6-CH software'
_computing_data_reduction        XD_RED
_computing_publication_material  'xHARPY 0.1'
_computing_structure_refinement  'xHARPY 0.1'
_diffrn_ambient_temperature      123(2)
_diffrn_measured_fraction_theta_full 1.0
_diffrn_measured_fraction_theta_max 0.982
_diffrn_measurement_device_type
;
KM6-CH six-circle \k diffractometer operated as standard four-circle
\k diffractometer with detector circle in the vertical plane to profit
from the linear polarization of the synchrotron beam.
;
_diffrn_measurement_method       \w-scan
_diffrn_radiation_type           synchrotron
_diffrn_radiation_wavelength     0.5996
_diffrn_reflns_av_R_equivalents  0.0141
_diffrn_reflns_av_unetI/netI     0.0148
_diffrn_reflns_Laue_measured_fraction_full 1.0
_diffrn_reflns_Laue_measured_fraction_max 0.982
_diffrn_reflns_limit_h_max       15
_diffrn_reflns_limit_h_min       -15
_diffrn_reflns_limit_k_max       0
_diffrn_reflns_limit_k_min       -15
_diffrn_reflns_limit_l_max       0
_diffrn_reflns_limit_l_min       -13
_diffrn_reflns_number            1022
_diffrn_reflns_point_group_measured_fraction_full 0.656
_diffrn_reflns_point_group_measured_fraction_max 0.562
_diffrn_reflns_theta_full        21.085
_diffrn_reflns_theta_max         57.401
_diffrn_reflns_theta_min         3.668
_exptl_absorpt_coefficient_mu    0.081
_exptl_absorpt_correction_type   none
_exptl_crystal_colour            colourless
_exptl_crystal_density_diffrn    1.368
_exptl_crystal_density_method    'not measured'
_exptl_crystal_description       block
_exptl_crystal_F_000             64
_exptl_crystal_size_max          0.23
_exptl_crystal_size_mid          0.13
_exptl_crystal_size_min          0.09
_refine_diff_density_max         0.2038
_refine_diff_density_min         -0.3696
_refine_diff_density_rms         0.0381
_refine_ls_extinction_method     none
_refine_ls_goodness_of_fit_ref   1.924
_refine_ls_hydrogen_treatment    refall
_refine_ls_matrix_type           full
_refine_ls_number_parameters     27
_refine_ls_number_reflns         1022
_refine_ls_number_restraints     0
_refine_ls_R_factor_all          0.0286
_refine_ls_R_factor_gt           0.014
_refine_ls_shift/su_max          0.0
_refine_ls_shift/su_mean         0.0
_refine_ls_structure_factor_coef Fsqd
_refine_ls_weighting_details     w=1/[\s^2^(Fo^2^)]
_refine_ls_weighting_scheme      sigma
_refine_ls_wR_factor_gt          0.0179
_refine_ls_wR_factor_ref         0.0179
_reflns_Friedel_coverage         0.0
_reflns_Friedel_fraction_full    0.0
_reflns_Friedel_fraction_max     0.0
_reflns_number_gt                803
_reflns_number_total             1022
_reflns_threshold_expression     'I > 2\s(I)'
_cod_data_source_file            fc5060.cif
_cod_data_source_block           urea_xHARPy_revPBE
_cod_original_cell_volume        145.80(4)
_cod_database_code               1566517
loop_
_space_group_symop_operation_xyz
'x, y, z'
'y, -x, -z'
'-x, -y, z'
'-y, x, -z'
'x+1/2, -y+1/2, -z'
'-y+1/2, -x+1/2, z'
'-x+1/2, y+1/2, -z'
'y+1/2, x+1/2, z'
loop_
_atom_site_label
_atom_site_type_symbol
_atom_site_fract_x
_atom_site_fract_y
_atom_site_fract_z
_atom_site_U_iso_or_equiv
_atom_site_adp_type
_atom_site_occupancy
_atom_site_site_symmetry_order
O O 0.0 0.5 0.59624(3) 0.01521(3) Uani 1.0 4
N N 0.14477(2) 0.64477(2) 0.17851(3) 0.02230(3) Uani 1.0 2
H1 H 0.2549(4) 0.7549(4) 0.2851(5) 0.0434(12) Uani 1.0 2
H2 H 0.1425(4) 0.6425(4) -0.0352(7) 0.0398(9) Uani 1.0 2
C C 0.0 0.5 0.32824(4) 0.01184(3) Uani 1.0 4
loop_
_atom_site_aniso_label
_atom_site_aniso_U_11
_atom_site_aniso_U_22
_atom_site_aniso_U_33
_atom_site_aniso_U_23
_atom_site_aniso_U_13
_atom_site_aniso_U_12
O 0.01953(4) 0.01953(4) 0.00657(4) 0.0 0.0 0.00182(7)
N 0.02880(5) 0.02880(5) 0.00932(4) 0.00007(3) 0.00007(3) -0.01506(7)
H1 0.0551(19) 0.0551(19) 0.0199(20) 0.0007(13) 0.0007(13) -0.036(2)
H2 0.0451(14) 0.0451(14) 0.0292(19) -0.0010(13) -0.0010(13) -0.021(2)
C 0.01449(4) 0.01449(4) 0.00656(4) 0.0 0.0 0.00002(7)
loop_
_atom_type_symbol
_atom_type_description
_atom_type_scat_dispersion_real
_atom_type_scat_dispersion_imag
_atom_type_scat_source
C C 0.0020 0.0010 'HAR in xHARPy 0.1'
H H 0.0000 0.0000 'HAR in xHARPy 0.1'
N N 0.0040 0.0020 'HAR in xHARPy 0.1'
O O 0.0070 0.0040 'HAR in xHARPy 0.1'
loop_
_geom_angle_atom_site_label_1
_geom_angle_atom_site_label_2
_geom_angle_atom_site_label_3
_geom_angle
C N H1 118.53(14)
C N H2 120.55(18)
H1 N H2 120.9(2)
O C N 121.567(11)
loop_
_geom_bond_atom_site_label_1
_geom_bond_atom_site_label_2
_geom_bond_distance
O C 1.2558(3)
N C 1.3404(2)
N H1 1.002(3)
N H2 1.002(3)
loop_
_refln_index_h
_refln_index_k
_refln_index_l
_refln_F_squared_calc
_refln_F_squared_meas
_refln_F_squared_sigma
0 0 1 13.08 13.40 0.05
0 0 2 129.37 134.53 0.83
0 0 3 13.28 13.60 0.08
0 0 4 30.91 29.76 0.18
0 0 5 47.51 48.96 0.36
0 0 6 15.42 15.76 0.19
0 0 7 0.29 0.27 0.03
0 0 8 15.13 14.72 0.25
0 0 9 3.77 3.65 0.10
0 0 10 2.87 2.89 0.09
0 0 11 0.08 0.07 0.26
0 0 12 3.86 3.80 0.11
0 0 13 0.19 0.18 0.02
1 0 1 149.06 149.59 0.18
1 0 2 151.49 152.86 0.27
1 0 3 86.42 87.54 0.19
1 0 4 2.27 2.21 0.03
1 0 5 19.19 19.04 0.10
1 0 6 0.51 0.53 0.03
1 0 7 43.49 43.18 0.34
1 0 8 5.94 6.14 0.07
1 0 9 0.01 -0.01 0.32
1 0 10 0.22 0.19 0.01
1 0 11 1.48 1.43 0.04
1 0 12 1.24 1.26 0.04
1 0 13 0.05 0.00 0.31
1 1 0 1039.92 1006.07 1.92
1 1 1 279.60 282.83 0.51
1 1 2 52.66 52.81 0.12
1 1 3 11.72 11.58 0.06
1 1 4 43.68 43.39 0.18
1 1 5 16.85 16.97 0.11
1 1 6 2.93 2.96 0.03
1 1 7 5.78 5.69 0.08
1 1 8 4.43 4.49 0.07
1 1 9 1.30 1.31 0.05
1 1 10 3.28 3.25 0.07
1 1 11 1.59 1.65 0.05
1 1 12 2.40 2.46 0.06
1 1 13 0.26 0.23 0.02
2 0 0 154.59 155.58 0.30
2 0 1 195.47 197.27 0.26
2 0 2 8.26 8.28 0.03
2 0 3 50.03 49.56 0.13
2 0 4 20.29 20.10 0.09
2 0 5 0.63 0.56 0.03
2 0 6 1.47 1.47 0.02
2 0 7 0.24 0.27 0.01
2 0 8 0.04 0.05 0.20
2 0 9 0.38 0.36 0.02
2 0 10 1.09 1.08 0.04
2 0 11 4.38 4.33 0.07
2 0 12 0.96 1.07 0.04
2 0 13 0.00 -0.03 0.30
2 1 0 227.62 226.40 0.28
2 1 1 49.50 49.47 0.08
2 1 2 29.66 30.17 0.07
2 1 3 68.89 68.50 0.16
2 1 4 45.34 45.25 0.14
2 1 5 13.47 13.56 0.07
2 1 6 13.79 13.90 0.09
2 1 7 10.76 10.78 0.09
2 1 8 15.24 14.91 0.13
2 1 9 3.33 3.30 0.05
2 1 10 1.20 1.20 0.03
2 1 11 1.95 1.91 0.04
2 1 12 0.41 0.42 0.02
2 1 13 0.21 0.21 0.01
2 2 0 229.13 226.88 0.42
2 2 1 200.44 199.40 0.39
2 2 2 55.39 54.67 0.16
2 2 3 27.76 27.48 0.12
2 2 4 43.45 43.37 0.21
2 2 5 9.90 9.77 0.08
2 2 6 2.87 2.75 0.05
2 2 7 10.29 10.08 0.12
2 2 8 1.83 1.85 0.05
2 2 9 1.70 1.67 0.05
2 2 10 3.78 3.66 0.07
2 2 11 2.83 2.77 0.06
2 2 12 1.73 1.75 0.05
3 0 1 93.05 93.21 0.17
3 0 2 17.83 17.79 0.06
3 0 3 11.62 11.59 0.05
3 0 4 104.01 104.72 0.38
3 0 5 0.31 0.37 0.02
3 0 6 11.00 10.87 0.09
3 0 7 0.47 0.50 0.02
3 0 8 15.76 15.55 0.16
3 0 9 4.22 4.26 0.06
3 0 10 4.92 4.83 0.07
3 0 11 0.39 0.41 0.02
3 0 12 0.05 0.04 0.17
3 1 0 29.05 29.05 0.07
3 1 1 142.03 142.04 0.23
3 1 2 14.94 14.85 0.05
3 1 3 66.61 66.06 0.18
3 1 4 14.32 14.49 0.07
3 1 5 1.67 1.67 0.03
3 1 6 5.25 5.23 0.05
3 1 7 1.54 1.54 0.03
3 1 8 0.48 0.47 0.02
3 1 9 1.46 1.49 0.03
3 1 10 1.03 1.08 0.03
3 1 11 5.45 5.41 0.07
3 1 12 0.57 0.59 0.03
3 2 0 17.06 17.37 0.05
3 2 1 5.17 5.12 0.03
3 2 2 11.12 10.98 0.04
3 2 3 25.86 25.59 0.09
3 2 4 13.60 13.64 0.07
3 2 5 7.56 7.62 0.05
3 2 6 2.95 3.04 0.04
3 2 7 16.11 16.11 0.13
3 2 8 7.22 7.04 0.07
3 2 9 0.62 0.68 0.03
3 2 10 0.16 0.12 0.02
3 2 11 0.97 0.95 0.03
3 2 12 0.39 0.41 0.02
3 3 0 223.38 219.02 0.62
3 3 1 7.99 8.11 0.05
3 3 2 7.89 7.94 0.06
3 3 3 0.53 0.51 0.03
3 3 4 16.04 15.75 0.12
3 3 5 13.59 13.35 0.09
3 3 6 5.37 5.58 0.07
3 3 7 0.13 0.15 0.02
3 3 8 5.78 5.62 0.09
3 3 9 1.01 0.99 0.05
3 3 10 1.42 1.50 0.05
3 3 11 0.30 0.31 0.02
3 3 12 1.89 1.98 0.05
4 0 0 5.14 5.50 0.06
4 0 1 95.67 97.40 0.24
4 0 2 7.70 7.66 0.04
4 0 3 71.44 71.76 0.25
4 0 4 5.88 5.91 0.05
4 0 5 2.49 2.60 0.04
4 0 6 7.83 7.78 0.07
4 0 7 0.17 0.16 0.01
4 0 8 1.19 1.12 0.04
4 0 9 2.08 2.14 0.05
4 0 10 0.46 0.42 0.02
4 0 11 5.99 6.00 0.09
4 0 12 0.25 0.23 0.01
4 1 0 7.07 7.12 0.04
4 1 1 11.55 11.63 0.04
4 1 2 2.82 2.74 0.03
4 1 3 13.23 13.10 0.06
4 1 4 42.42 42.92 0.18
4 1 5 1.51 1.52 0.03
4 1 6 5.80 5.74 0.05
4 1 7 3.43 3.39 0.04
4 1 8 10.07 10.10 0.10
4 1 9 1.89 1.87 0.04
4 1 10 1.82 1.81 0.04
4 1 11 0.59 0.57 0.02
4 1 12 0.04 0.03 0.28
4 2 0 94.08 93.19 0.22
4 2 1 25.40 25.66 0.08
4 2 2 5.47 5.43 0.03
4 2 3 4.15 4.22 0.03
4 2 4 16.85 16.57 0.09
4 2 5 5.32 5.30 0.03
4 2 6 1.11 1.13 0.03
4 2 7 1.72 1.70 0.03
4 2 8 1.89 1.86 0.04
4 2 9 0.37 0.39 0.02
4 2 10 1.41 1.43 0.04
4 2 11 1.21 1.20 0.03
4 2 12 1.23 1.23 0.03
4 3 0 3.42 3.25 0.03
4 3 1 20.52 20.55 0.08
4 3 2 18.91 18.70 0.08
4 3 3 16.72 16.78 0.08
4 3 4 0.37 0.31 0.02
4 3 5 13.23 13.24 0.09
4 3 6 1.14 1.15 0.03
4 3 7 24.28 24.06 0.20
4 3 8 2.94 3.03 0.04
4 3 9 0.25 0.21 0.01
4 3 10 0.24 0.25 0.01
4 3 11 0.96 1.05 0.03
4 3 12 0.77 0.74 0.03
4 4 0 83.16 82.84 0.39
4 4 1 4.83 4.75 0.05
4 4 2 4.03 4.00 0.05
4 4 3 0.16 0.16 0.01
4 4 4 8.64 8.68 0.06
4 4 5 5.73 5.57 0.07
4 4 6 2.53 2.57 0.05
4 4 7 0.10 0.12 0.02
4 4 8 2.98 2.97 0.06
4 4 9 0.40 0.45 0.02
4 4 10 0.84 0.74 0.05
4 4 11 0.35 0.35 0.02
4 4 12 1.16 1.18 0.05
5 0 1 0.10 0.10 0.01
5 0 2 0.09 0.09 0.02
5 0 3 8.67 8.51 0.06
5 0 4 17.91 17.94 0.11
5 0 5 1.89 1.89 0.04
5 0 6 2.08 1.99 0.04
5 0 7 6.33 6.35 0.08
5 0 8 6.01 5.96 0.08
5 0 9 0.60 0.55 0.03
5 0 10 0.58 0.53 0.03
5 0 11 0.46 0.45 0.02
5 0 12 0.08 0.09 0.02
5 1 0 41.51 42.19 0.15
5 1 1 30.02 30.28 0.10
5 1 2 8.10 8.25 0.05
5 1 3 10.17 10.21 0.06
5 1 4 15.48 15.44 0.09
5 1 5 3.24 3.39 0.04
5 1 6 0.88 0.77 0.03
5 1 7 3.13 3.03 0.04
5 1 8 0.81 0.84 0.03
5 1 9 0.59 0.59 0.02
5 1 10 1.48 1.57 0.04
5 1 11 1.72 1.77 0.04
5 1 12 0.88 0.82 0.03
5 2 0 21.40 21.39 0.08
5 2 1 7.07 7.19 0.04
5 2 2 7.64 7.40 0.04
5 2 3 21.22 21.32 0.10
5 2 4 7.62 7.57 0.06
5 2 5 9.36 9.16 0.07
5 2 6 6.16 6.18 0.06
5 2 7 10.38 10.23 0.10
5 2 8 6.44 6.61 0.07
5 2 9 1.31 1.36 0.03
5 2 10 0.13 0.12 0.01
5 2 11 1.25 1.26 0.03
5 2 12 0.38 0.41 0.01
5 3 0 43.48 43.10 0.16
5 3 1 11.79 11.83 0.06
5 3 2 2.20 2.25 0.03
5 3 3 3.40 3.37 0.03
5 3 4 8.55 8.50 0.06
5 3 5 2.35 2.41 0.03
5 3 6 0.56 0.57 0.02
5 3 7 0.77 0.81 0.03
5 3 8 1.13 1.07 0.03
5 3 9 0.17 0.18 0.01
5 3 10 0.81 0.86 0.03
5 3 11 0.89 0.82 0.03
5 3 12 0.80 0.71 0.03
5 4 0 2.97 2.88 0.03
5 4 1 0.49 0.48 0.02
5 4 2 0.74 0.69 0.03
5 4 3 6.01 5.73 0.03
5 4 4 8.62 8.44 0.07
5 4 5 2.58 2.59 0.04
5 4 6 1.52 1.59 0.03
5 4 7 5.03 5.09 0.06
5 4 8 3.71 3.61 0.05
5 4 9 0.44 0.46 0.02
5 4 10 0.25 0.25 0.01
5 4 11 0.41 0.48 0.02
5 4 12 0.10 0.11 0.01
5 5 0 6.77 6.75 0.07
5 5 1 15.90 15.61 0.14
5 5 2 5.04 5.00 0.04
5 5 3 10.32 10.26 0.11
5 5 4 6.87 6.95 0.09
5 5 5 1.60 1.67 0.05
5 5 6 0.84 0.82 0.04
5 5 7 2.37 2.43 0.06
5 5 8 0.22 0.25 0.02
5 5 9 0.55 0.51 0.03
5 5 10 0.84 0.82 0.05
5 5 11 1.38 1.41 0.05
6 0 0 59.47 61.42 0.41
6 0 1 4.56 4.46 0.04
6 0 2 2.59 2.55 0.03
6 0 3 0.25 0.23 0.01
6 0 4 7.51 7.75 0.07
6 0 5 4.48 4.38 0.05
6 0 6 1.85 1.96 0.04
6 0 7 0.07 0.03 0.33
6 0 8 2.34 2.35 0.05
6 0 9 0.25 0.27 0.01
6 0 10 0.73 0.74 0.04
6 0 11 0.38 0.44 0.02
6 0 12 0.97 1.02 0.03
6 1 0 5.26 5.32 0.04
6 1 1 5.58 5.68 0.04
6 1 2 4.64 4.69 0.04
6 1 3 10.53 10.51 0.07
6 1 4 2.98 2.91 0.04
6 1 5 6.41 6.45 0.06
6 1 6 1.90 1.92 0.03
6 1 7 10.93 10.90 0.11
6 1 8 3.37 3.30 0.05
6 1 9 0.37 0.38 0.02
6 1 10 0.02 -0.01 0.28
6 1 11 0.69 0.73 0.03
6 1 12 0.32 0.32 0.01
6 2 0 22.99 23.43 0.11
6 2 1 13.69 13.74 0.08
6 2 2 2.80 2.84 0.03
6 2 3 6.21 6.20 0.04
6 2 4 7.80 7.56 0.06
6 2 5 1.46 1.55 0.03
6 2 6 0.36 0.31 0.01
6 2 7 1.35 1.30 0.03
6 2 8 0.53 0.61 0.02
6 2 9 0.28 0.25 0.01
6 2 10 0.79 0.84 0.03
6 2 11 1.13 1.18 0.03
6 2 12 0.57 0.55 0.03
6 3 0 0.02 0.04 0.23
6 3 1 0.91 0.89 0.03
6 3 2 0.83 0.92 0.03
6 3 3 2.93 2.87 0.04
6 3 4 15.39 15.18 0.11
6 3 5 0.39 0.33 0.01
6 3 6 1.85 1.76 0.04
6 3 7 1.77 1.79 0.03
6 3 8 4.12 4.33 0.06
6 3 9 0.66 0.60 0.02
6 3 10 0.77 0.78 0.03
6 3 11 0.23 0.23 0.01
6 4 0 2.49 2.46 0.03
6 4 1 13.67 13.46 0.06
6 4 2 2.68 2.62 0.03
6 4 3 14.68 14.77 0.10
6 4 4 3.44 3.44 0.04
6 4 5 0.95 0.87 0.03
6 4 6 1.34 1.31 0.03
6 4 7 0.92 0.92 0.03
6 4 8 0.17 0.16 0.01
6 4 9 0.61 0.63 0.03
6 4 10 0.40 0.40 0.02
6 4 11 1.77 1.72 0.04
6 5 0 4.34 4.16 0.04
6 5 1 0.84 0.86 0.03
6 5 2 1.63 1.57 0.03
6 5 3 4.18 4.03 0.05
6 5 4 9.38 9.31 0.08
6 5 5 1.56 1.54 0.03
6 5 6 2.00 2.10 0.04
6 5 7 1.24 1.28 0.03
6 5 8 3.12 3.13 0.05
6 5 9 0.68 0.76 0.03
6 5 10 0.49 0.49 0.02
6 5 11 0.28 0.28 0.01
6 6 0 9.11 8.49 0.10
6 6 1 2.83 2.72 0.05
6 6 2 0.47 0.43 0.03
6 6 3 1.79 1.77 0.05
6 6 4 1.87 1.94 0.05
6 6 5 0.33 0.29 0.02
6 6 6 0.06 0.04 0.23
6 6 7 0.14 0.16 0.02
6 6 8 0.25 0.23 0.02
6 6 9 0.01 0.05 0.39
6 6 10 0.21 0.20 0.02
6 6 11 0.39 0.37 0.03
7 0 1 8.22 8.51 0.07
7 0 2 5.00 5.13 0.04
7 0 3 5.47 5.26 0.05
7 0 4 0.20 0.18 0.01
7 0 5 6.01 6.28 0.07
7 0 6 0.02 0.05 0.31
7 0 7 11.78 11.95 0.14
7 0 8 1.29 1.24 0.04
7 0 9 0.02 0.05 0.32
7 0 10 0.09 0.09 0.02
7 0 11 0.42 0.48 0.03
7 1 0 30.69 31.43 0.18
7 1 1 3.19 3.18 0.04
7 1 2 1.46 1.45 0.02
7 1 3 0.58 0.61 0.02
7 1 4 4.41 4.60 0.05
7 1 5 2.06 2.06 0.03
7 1 6 0.90 1.02 0.03
7 1 7 0.05 0.08 0.02
7 1 8 1.25 1.24 0.03
7 1 9 0.09 0.10 0.01
7 1 10 0.44 0.41 0.02
7 1 11 0.34 0.36 0.01
7 2 0 0.23 0.28 0.01
7 2 1 0.01 0.01 0.17
7 2 2 0.13 0.17 0.01
7 2 3 2.70 2.71 0.04
7 2 4 8.36 8.32 0.07
7 2 5 0.86 0.87 0.03
7 2 6 1.00 0.95 0.03
7 2 7 2.50 2.59 0.04
7 2 8 2.81 2.93 0.05
7 2 9 0.32 0.28 0.01
7 2 10 0.34 0.39 0.01
7 2 11 0.22 0.22 0.01
7 3 0 1.34 1.38 0.03
7 3 1 10.70 10.70 0.08
7 3 2 1.47 1.45 0.03
7 3 3 14.03 14.00 0.11
7 3 4 1.87 1.84 0.03
7 3 5 0.72 0.65 0.03
7 3 6 1.36 1.36 0.03
7 3 7 0.31 0.32 0.01
7 3 8 0.18 0.18 0.01
7 3 9 0.58 0.58 0.03
7 3 10 0.20 0.27 0.01
7 3 11 1.65 1.63 0.03
7 4 0 1.02 1.00 0.03
7 4 1 1.37 1.35 0.03
7 4 2 1.79 1.82 0.03
7 4 3 1.67 1.70 0.03
7 4 4 11.85 11.56 0.10
7 4 5 0.33 0.34 0.01
7 4 6 1.52 1.47 0.03
7 4 7 0.44 0.45 0.02
7 4 8 2.87 3.04 0.05
7 4 9 0.62 0.55 0.03
7 4 10 0.74 0.78 0.03
7 4 11 0.13 0.14 0.01
7 5 0 5.98 5.82 0.06
7 5 1 3.21 3.17 0.04
7 5 2 0.05 0.10 0.03
7 5 3 2.87 2.85 0.04
7 5 4 1.45 1.43 0.03
7 5 5 0.05 0.08 0.02
7 5 6 0.00 0.01 0.20
7 5 7 0.02 0.01 0.29
7 5 8 0.09 0.09 0.02
7 5 9 0.04 0.04 0.28
7 5 10 0.15 0.16 0.01
7 5 11 0.50 0.48 0.02
7 6 0 0.52 0.52 0.02
7 6 1 2.32 2.20 0.04
7 6 2 1.08 1.10 0.03
7 6 3 2.20 2.15 0.04
7 6 4 0.34 0.36 0.01
7 6 5 1.86 1.87 0.04
7 6 6 0.33 0.32 0.01
7 6 7 3.47 3.55 0.05
7 6 8 0.71 0.71 0.03
7 6 9 0.04 -0.01 0.29
7 6 10 0.00 -0.03 0.27
7 7 1 1.20 1.29 0.05
7 7 2 1.39 1.39 0.05
7 7 3 0.01 0.00 0.39
7 7 4 2.00 1.93 0.06
7 7 5 1.16 1.11 0.05
7 7 6 0.81 0.88 0.05
7 7 7 0.23 0.29 0.02
7 7 8 0.72 0.70 0.04
7 7 9 0.14 0.17 0.02
7 7 10 0.20 0.21 0.02
8 0 0 17.17 17.17 0.14
8 0 1 2.28 2.27 0.04
8 0 2 0.79 0.82 0.03
8 0 3 0.71 0.80 0.03
8 0 4 2.71 2.73 0.05
8 0 5 0.99 0.90 0.03
8 0 6 0.45 0.51 0.02
8 0 7 0.03 0.06 0.33
8 0 8 0.69 0.66 0.03
8 0 9 0.03 0.01 0.33
8 0 10 0.27 0.25 0.01
8 0 11 0.29 0.29 0.01
8 1 0 1.42 1.50 0.03
8 1 1 1.00 0.97 0.03
8 1 2 0.61 0.62 0.02
8 1 3 3.21 3.17 0.04
8 1 4 2.76 2.91 0.04
8 1 5 1.93 1.98 0.04
8 1 6 0.71 0.78 0.03
8 1 7 3.48 3.52 0.05
8 1 8 1.69 1.66 0.04
8 1 9 0.16 0.22 0.01
8 1 10 0.06 0.02 0.28
8 1 11 0.26 0.28 0.01
8 2 0 4.78 4.67 0.05
8 2 1 6.50 6.55 0.06
8 2 2 1.47 1.56 0.03
8 2 3 5.05 5.13 0.05
8 2 4 2.96 3.06 0.04
8 2 5 0.50 0.56 0.02
8 2 6 0.25 0.26 0.01
8 2 7 0.76 0.83 0.03
8 2 8 0.09 0.12 0.01
8 2 9 0.21 0.19 0.01
8 2 10 0.34 0.39 0.02
8 2 11 0.75 0.79 0.03
8 3 0 1.15 1.13 0.03
8 3 1 0.40 0.39 0.01
8 3 2 0.87 0.87 0.03
8 3 3 1.75 1.84 0.03
8 3 4 7.12 7.02 0.07
8 3 5 0.52 0.52 0.02
8 3 6 1.04 1.10 0.03
8 3 7 0.75 0.81 0.03
8 3 8 2.07 2.09 0.04
8 3 9 0.38 0.37 0.02
8 3 10 0.40 0.40 0.02
8 3 11 0.14 0.14 0.01
8 4 0 4.06 4.15 0.05
8 4 1 3.04 2.92 0.04
8 4 2 0.01 0.03 0.26
8 4 3 3.04 2.94 0.04
8 4 4 1.18 1.13 0.03
8 4 5 0.01 0.02 0.28
8 4 6 0.03 0.09 0.03
8 4 7 0.02 0.03 0.16
8 4 8 0.04 0.05 0.02
8 4 9 0.07 0.05 0.20
8 4 10 0.12 0.17 0.01
8 5 0 1.02 0.99 0.03
8 5 1 1.29 1.35 0.03
8 5 2 0.72 0.72 0.03
8 5 3 2.22 2.20 0.04
8 5 4 0.84 0.79 0.03
8 5 5 1.38 1.34 0.03
8 5 6 0.57 0.60 0.03
8 5 7 2.31 2.35 0.04
8 5 8 0.87 0.88 0.03
8 5 9 0.09 0.09 0.02
8 5 10 0.01 0.02 0.26
8 6 0 8.18 8.40 0.09
8 6 1 1.57 1.50 0.04
8 6 2 1.23 1.20 0.03
8 6 3 0.04 0.02 0.28
8 6 4 2.04 1.98 0.04
8 6 5 0.91 1.02 0.03
8 6 6 0.58 0.59 0.03
8 6 7 0.31 0.31 0.02
8 6 8 0.55 0.56 0.02
8 6 9 0.12 0.13 0.01
8 6 10 0.21 0.24 0.02
8 7 0 0.09 0.14 0.02
8 7 1 0.67 0.56 0.03
8 7 2 0.21 0.22 0.01
8 7 3 0.76 0.78 0.03
8 7 4 0.37 0.35 0.02
8 7 5 0.64 0.65 0.03
8 7 6 0.12 0.15 0.02
8 7 7 1.28 1.26 0.04
8 7 8 0.34 0.36 0.01
8 7 9 0.01 0.00 0.27
8 8 0 0.94 0.89 0.05
8 8 1 0.87 0.87 0.04
8 8 2 0.14 0.16 0.02
8 8 3 0.93 0.96 0.05
8 8 4 0.36 0.35 0.02
8 8 5 0.04 0.01 0.41
8 8 6 0.01 0.00 0.41
8 8 7 0.08 0.03 0.41
8 8 8 0.01 0.01 0.39
9 0 1 0.00 -0.02 0.30
9 0 2 0.08 0.09 0.02
9 0 3 1.05 1.02 0.04
9 0 4 3.71 3.87 0.06
9 0 5 0.40 0.35 0.02
9 0 6 0.42 0.45 0.02
9 0 7 1.16 1.15 0.04
9 0 8 1.26 1.34 0.04
9 0 9 0.13 0.12 0.02
9 0 10 0.17 0.19 0.01
9 1 0 3.66 3.59 0.04
9 1 1 3.60 3.62 0.04
9 1 2 0.60 0.64 0.02
9 1 3 2.98 3.12 0.04
9 1 4 1.69 1.67 0.04
9 1 5 0.22 0.26 0.01
9 1 6 0.09 0.05 0.20
9 1 7 0.33 0.32 0.01
9 1 8 0.06 0.03 0.29
9 1 9 0.11 0.07 0.01
9 1 10 0.19 0.20 0.01
9 2 0 1.43 1.40 0.03
9 2 1 0.23 0.23 0.01
9 2 2 0.44 0.41 0.01
9 2 3 1.92 1.91 0.04
9 2 4 3.05 3.12 0.04
9 2 5 0.88 0.79 0.03
9 2 6 0.72 0.83 0.03
9 2 7 1.17 1.19 0.03
9 2 8 1.30 1.25 0.04
9 2 9 0.21 0.22 0.01
9 2 10 0.13 0.11 0.01
9 3 0 5.01 5.26 0.06
9 3 1 1.65 1.63 0.03
9 3 2 0.19 0.19 0.01
9 3 3 1.18 1.14 0.03
9 3 4 1.06 1.06 0.03
9 3 5 0.14 0.12 0.01
9 3 6 0.03 0.04 0.20
9 3 7 0.05 0.03 0.20
9 3 8 0.14 0.13 0.01
9 3 9 0.01 0.02 0.28
9 3 10 0.11 0.09 0.02
9 4 0 0.41 0.42 0.02
9 4 1 1.05 1.07 0.03
9 4 2 0.44 0.48 0.02
9 4 3 1.43 1.40 0.03
9 4 4 0.58 0.54 0.02
9 4 5 1.05 1.04 0.03
9 4 6 0.27 0.29 0.01
9 4 7 1.96 2.04 0.04
9 4 8 0.60 0.62 0.03
9 4 9 0.04 0.05 0.28
9 4 10 0.00 -0.03 0.27
9 5 0 5.89 6.28 0.07
9 5 1 1.44 1.36 0.03
9 5 2 0.90 0.98 0.03
9 5 3 0.11 0.06 0.02
9 5 4 1.64 1.60 0.04
9 5 5 0.61 0.65 0.03
9 5 6 0.37 0.38 0.01
9 5 7 0.27 0.28 0.01
9 5 8 0.37 0.38 0.02
9 5 9 0.08 0.05 0.20
9 6 0 0.17 0.18 0.01
9 6 1 0.42 0.42 0.02
9 6 2 0.15 0.15 0.01
9 6 3 0.72 0.77 0.03
9 6 4 0.53 0.50 0.02
9 6 5 0.48 0.45 0.02
9 6 6 0.18 0.16 0.01
9 6 7 0.93 0.94 0.03
9 6 8 0.37 0.40 0.01
9 6 9 0.02 0.03 0.27
9 7 0 0.75 0.81 0.03
9 7 1 0.84 0.90 0.03
9 7 2 0.09 0.05 0.20
9 7 3 1.00 0.99 0.03
9 7 4 0.29 0.30 0.01
9 7 5 0.02 -0.04 0.29
9 7 6 0.02 0.04 0.28
9 7 7 0.05 0.03 0.28
9 7 8 0.00 0.01 0.27
9 8 0 0.57 0.58 0.02
9 8 1 0.16 0.17 0.01
9 8 2 0.38 0.40 0.02
9 8 3 0.42 0.38 0.02
9 8 4 1.37 1.42 0.04
9 8 5 0.20 0.20 0.01
9 8 6 0.27 0.29 0.01
9 8 7 0.04 0.03 0.20
9 8 8 0.39 0.37 0.02
9 9 0 0.13 0.11 0.02
9 9 1 0.57 0.66 0.04
9 9 2 0.18 0.16 0.02
9 9 3 0.69 0.79 0.04
9 9 4 0.19 0.22 0.02
9 9 5 0.08 0.06 0.40
9 9 6 0.04 0.06 0.22
9 9 7 0.08 0.07 0.38
10 0 0 0.97 0.93 0.04
10 0 1 2.24 2.25 0.04
10 0 2 0.07 0.05 0.32
10 0 3 3.10 3.12 0.05
10 0 4 0.50 0.47 0.02
10 0 5 0.07 0.07 0.33
10 0 6 0.15 0.19 0.01
10 0 7 0.01 0.00 0.33
10 0 8 0.00 0.04 0.32
10 0 9 0.12 0.10 0.02
10 0 10 0.05 0.09 0.51
10 1 0 0.12 0.10 0.01
10 1 1 0.03 0.02 0.27
10 1 2 0.20 0.20 0.01
10 1 3 0.59 0.61 0.02
10 1 4 2.68 2.70 0.04
10 1 5 0.18 0.13 0.01
10 1 6 0.33 0.33 0.01
10 1 7 0.48 0.50 0.02
10 1 8 0.82 0.89 0.03
10 1 9 0.11 0.07 0.02
10 1 10 0.15 0.18 0.02
10 2 0 3.28 3.36 0.05
10 2 1 1.09 1.07 0.03
10 2 2 0.11 0.09 0.03
10 2 3 0.83 0.85 0.03
10 2 4 0.70 0.77 0.03
10 2 5 0.07 0.06 0.02
10 2 6 0.02 0.01 0.28
10 2 7 0.02 0.02 0.28
10 2 8 0.09 0.09 0.01
10 2 9 0.01 -0.02 0.28
10 2 10 0.07 0.04 0.37
10 3 0 0.05 0.07 0.02
10 3 1 0.88 0.87 0.03
10 3 2 0.27 0.32 0.01
10 3 3 0.81 0.85 0.03
10 3 4 0.29 0.31 0.01
10 3 5 0.78 0.78 0.03
10 3 6 0.06 0.11 0.02
10 3 7 1.57 1.55 0.04
10 3 8 0.35 0.29 0.01
10 3 9 0.00 0.05 0.27
10 4 0 4.86 5.08 0.07
10 4 1 0.62 0.61 0.02
10 4 2 0.52 0.50 0.02
10 4 3 0.04 0.03 0.28
10 4 4 0.92 1.01 0.03
10 4 5 0.41 0.40 0.02
10 4 6 0.30 0.31 0.01
10 4 7 0.08 0.08 0.02
10 4 8 0.30 0.26 0.01
10 4 9 0.04 -0.02 0.19
10 5 0 0.07 0.06 0.02
10 5 1 0.34 0.34 0.01
10 5 2 0.09 0.10 0.02
10 5 3 0.50 0.48 0.02
10 5 4 0.40 0.38 0.02
10 5 5 0.38 0.36 0.02
10 5 6 0.10 0.09 0.02
10 5 7 0.78 0.78 0.03
10 5 8 0.28 0.27 0.01
10 5 9 0.01 0.00 0.26
10 6 0 0.62 0.59 0.02
10 6 1 0.70 0.70 0.03
10 6 2 0.05 0.03 0.20
10 6 3 0.87 0.86 0.03
10 6 4 0.23 0.23 0.01
10 6 5 0.02 -0.01 0.29
10 6 6 0.01 0.00 0.29
10 6 7 0.03 0.03 0.20
10 6 8 0.00 0.00 0.27
10 7 0 0.37 0.37 0.02
10 7 1 0.14 0.13 0.02
10 7 2 0.32 0.32 0.01
10 7 3 0.29 0.32 0.01
10 7 4 1.26 1.28 0.04
10 7 5 0.13 0.14 0.01
10 7 6 0.21 0.19 0.01
10 7 7 0.04 0.02 0.20
10 7 8 0.33 0.34 0.01
10 8 0 0.11 0.10 0.02
10 8 1 0.52 0.51 0.02
10 8 2 0.15 0.16 0.01
10 8 3 0.68 0.74 0.03
10 8 4 0.16 0.17 0.01
10 8 5 0.07 0.03 0.20
10 8 6 0.04 0.05 0.19
10 8 7 0.07 0.05 0.01
10 9 0 0.00 0.01 0.20
10 9 1 0.03 0.04 0.28
10 9 2 0.00 0.00 0.28
10 9 3 0.07 0.07 0.02
10 9 4 0.16 0.18 0.01
10 9 5 0.05 0.02 0.28
10 9 6 0.02 0.03 0.19
10 10 0 0.57 0.59 0.04
10 10 1 0.10 0.12 0.02
10 10 2 0.09 0.07 0.40
10 10 3 0.00 -0.02 0.40
10 10 4 0.13 0.13 0.02
10 10 5 0.05 0.06 0.38
11 0 1 0.02 0.00 0.33
11 0 2 0.14 0.08 0.02
11 0 3 0.27 0.33 0.02
11 0 4 1.65 1.55 0.04
11 0 5 0.07 0.02 0.33
11 0 6 0.18 0.14 0.02
11 0 7 0.25 0.27 0.01
11 0 8 0.48 0.50 0.03
11 0 9 0.06 -0.01 0.31
11 1 0 1.19 1.33 0.03
11 1 1 0.90 0.92 0.03
11 1 2 0.02 0.03 0.20
11 1 3 0.97 0.96 0.03
11 1 4 0.36 0.38 0.01
11 1 5 0.01 0.02 0.28
11 1 6 0.01 0.03 0.28
11 1 7 0.01 0.04 0.28
11 1 8 0.01 0.04 0.28
11 1 9 0.03 0.05 0.26
11 2 0 0.10 0.12 0.02
11 2 1 0.26 0.24 0.01
11 2 2 0.07 0.03 0.20
11 2 3 0.48 0.51 0.02
11 2 4 0.46 0.42 0.02
11 2 5 0.35 0.37 0.01
11 2 6 0.09 0.10 0.02
11 2 7 0.71 0.74 0.03
11 2 8 0.29 0.28 0.01
11 2 9 0.01 0.04 0.26
11 3 0 2.83 2.78 0.05
11 3 1 0.40 0.44 0.02
11 3 2 0.25 0.23 0.01
11 3 3 0.08 0.09 0.02
11 3 4 0.52 0.54 0.03
11 3 5 0.19 0.18 0.01
11 3 6 0.15 0.15 0.01
11 3 7 0.03 0.03 0.28
11 3 8 0.16 0.12 0.01
11 4 0 0.01 0.02 0.28
11 4 1 0.27 0.23 0.01
11 4 2 0.05 0.04 0.17
11 4 3 0.31 0.32 0.01
11 4 4 0.25 0.27 0.01
11 4 5 0.29 0.26 0.01
11 4 6 0.04 0.05 0.20
11 4 7 0.60 0.54 0.03
11 4 8 0.18 0.15 0.01
11 5 0 0.65 0.63 0.03
11 5 1 0.47 0.52 0.02
11 5 2 0.05 0.08 0.28
11 5 3 0.50 0.52 0.02
11 5 4 0.20 0.22 0.01
11 5 5 0.01 -0.01 0.29
11 5 6 0.00 0.04 0.28
11 5 7 0.03 0.05 0.27
11 5 8 0.01 -0.02 0.26
11 6 0 0.25 0.25 0.01
11 6 1 0.06 0.09 0.01
11 6 2 0.20 0.21 0.01
11 6 3 0.21 0.24 0.01
11 6 4 0.87 0.88 0.03
11 6 5 0.10 0.10 0.02
11 6 6 0.14 0.16 0.01
11 6 7 0.05 0.04 0.19
11 7 0 0.11 0.12 0.02
11 7 1 0.41 0.41 0.02
11 7 2 0.10 0.09 0.01
11 7 3 0.54 0.52 0.03
11 7 4 0.11 0.13 0.01
11 7 5 0.05 0.08 0.02
11 7 6 0.03 0.06 0.27
11 7 7 0.04 0.06 0.26
11 8 0 0.00 0.00 0.28
11 8 1 0.02 -0.01 0.29
11 8 2 0.00 -0.02 0.29
11 8 3 0.06 0.07 0.02
11 8 4 0.16 0.16 0.01
11 8 5 0.04 0.06 0.19
11 8 6 0.02 0.03 0.26
11 9 0 0.51 0.53 0.02
11 9 1 0.10 0.10 0.01
11 9 2 0.08 0.06 0.02
11 9 3 0.00 -0.02 0.28
11 9 4 0.12 0.13 0.02
11 9 5 0.05 0.05 0.19
11 10 0 0.05 0.05 0.28
11 10 1 0.13 0.11 0.01
11 10 2 0.06 0.06 0.02
11 10 3 0.10 0.08 0.02
12 0 0 0.91 1.00 0.04
12 0 1 0.39 0.37 0.02
12 0 2 0.01 0.00 0.22
12 0 3 0.37 0.34 0.02
12 0 4 0.20 0.20 0.01
12 0 5 0.01 0.01 0.33
12 0 6 0.00 0.04 0.32
12 0 7 0.00 0.03 0.31
12 0 8 0.02 0.05 0.31
12 1 0 0.06 0.05 0.29
12 1 1 0.08 0.08 0.02
12 1 2 0.03 0.05 0.28
12 1 3 0.25 0.28 0.01
12 1 4 0.39 0.37 0.02
12 1 5 0.16 0.16 0.01
12 1 6 0.07 0.01 0.29
12 1 7 0.32 0.36 0.02
12 1 8 0.19 0.19 0.01
12 2 0 1.16 1.17 0.03
12 2 1 0.36 0.36 0.01
12 2 2 0.10 0.12 0.02
12 2 3 0.18 0.17 0.01
12 2 4 0.30 0.29 0.01
12 2 5 0.05 0.01 0.29
12 2 6 0.04 0.00 0.28
12 2 7 0.03 0.05 0.28
12 2 8 0.05 0.06 0.01
12 3 0 0.01 0.03 0.28
12 3 1 0.10 0.09 0.01
12 3 2 0.01 0.03 0.20
12 3 3 0.19 0.18 0.01
12 3 4 0.26 0.27 0.01
12 3 5 0.14 0.14 0.02
12 3 6 0.04 0.07 0.02
12 3 7 0.30 0.29 0.01
12 4 0 0.48 0.47 0.02
12 4 1 0.29 0.29 0.01
12 4 2 0.02 0.01 0.29
12 4 3 0.32 0.32 0.01
12 4 4 0.13 0.14 0.01
12 4 5 0.01 0.00 0.28
12 4 6 0.00 -0.01 0.28
12 4 7 0.01 0.03 0.27
12 5 0 0.15 0.12 0.02
12 5 1 0.02 0.02 0.29
12 5 2 0.09 0.10 0.02
12 5 3 0.15 0.13 0.01
12 5 4 0.50 0.55 0.02
12 5 5 0.07 0.06 0.28
12 5 6 0.08 0.08 0.28
12 5 7 0.06 0.03 0.26
12 6 0 0.13 0.15 0.01
12 6 1 0.27 0.27 0.01
12 6 2 0.06 0.05 0.21
12 6 3 0.33 0.38 0.02
12 6 4 0.09 0.08 0.02
12 6 5 0.02 0.03 0.20
12 6 6 0.01 0.01 0.27
12 7 0 0.00 -0.01 0.28
12 7 1 0.02 0.01 0.20
12 7 2 0.00 0.00 0.28
12 7 3 0.05 0.06 0.01
12 7 4 0.12 0.13 0.01
12 7 5 0.04 0.00 0.19
12 8 0 0.40 0.43 0.02
12 8 1 0.08 0.06 0.02
12 8 2 0.06 0.09 0.02
12 8 3 0.00 0.00 0.27
12 8 4 0.10 0.10 0.02
12 9 0 0.04 0.05 0.28
12 9 1 0.11 0.06 0.02
12 9 2 0.05 0.00 0.28
12 9 3 0.08 0.07 0.02
13 0 1 0.09 0.08 0.02
13 0 2 0.01 0.03 0.21
13 0 3 0.11 0.12 0.02
13 0 4 0.13 0.11 0.01
13 0 5 0.11 0.09 0.02
13 0 6 0.01 0.00 0.32
13 0 7 0.23 0.20 0.01
13 1 0 0.65 0.67 0.03
13 1 1 0.15 0.15 0.01
13 1 2 0.04 0.00 0.29
13 1 3 0.10 0.10 0.01
13 1 4 0.13 0.13 0.01
13 1 5 0.02 0.01 0.20
13 1 6 0.02 0.01 0.19
13 1 7 0.00 0.03 0.26
13 2 0 0.01 0.01 0.28
13 2 1 0.04 0.02 0.28
13 2 2 0.01 0.00 0.28
13 2 3 0.10 0.09 0.02
13 2 4 0.19 0.16 0.01
13 2 5 0.07 0.02 0.29
13 2 6 0.03 0.05 0.27
13 3 0 0.26 0.24 0.01
13 3 1 0.18 0.19 0.01
13 3 2 0.00 0.00 0.29
13 3 3 0.22 0.22 0.01
13 3 4 0.07 0.05 0.29
13 3 5 0.00 0.01 0.28
13 3 6 0.00 0.01 0.27
13 4 0 0.04 0.02 0.20
13 4 1 0.00 0.03 0.28
13 4 2 0.04 0.04 0.28
13 4 3 0.06 0.07 0.02
13 4 4 0.30 0.30 0.01
13 4 5 0.03 -0.03 0.32
13 4 6 0.04 0.05 0.19
13 5 0 0.12 0.13 0.01
13 5 1 0.16 0.17 0.01
13 5 2 0.02 -0.01 0.28
13 5 3 0.20 0.18 0.01
13 5 4 0.05 0.00 0.28
13 5 5 0.01 0.04 0.26
13 6 0 0.00 0.01 0.28
13 6 1 0.02 0.01 0.28
13 6 2 0.00 0.00 0.28
13 6 3 0.04 0.06 0.27
13 6 4 0.08 0.08 0.02
13 6 5 0.03 -0.01 0.27
13 7 0 0.28 0.26 0.01
13 7 1 0.05 0.05 0.02
13 7 2 0.03 0.02 0.16
13 7 3 0.01 0.00 0.19
13 7 4 0.06 0.04 0.27
13 8 0 0.02 0.01 0.27
13 8 1 0.07 0.06 0.02
13 8 2 0.03 0.05 0.26
14 0 0 0.35 0.33 0.02
14 0 1 0.06 0.01 0.33
14 0 2 0.02 0.01 0.21
14 0 3 0.04 -0.01 0.33
14 0 4 0.06 0.08 0.02
14 0 5 0.01 0.00 0.31
14 1 0 0.00 0.01 0.28
14 1 1 0.03 0.03 0.28
14 1 2 0.00 -0.05 0.29
14 1 3 0.05 0.02 0.28
14 1 4 0.08 0.06 0.28
14 1 5 0.05 0.02 0.27
14 2 0 0.18 0.17 0.01
14 2 1 0.09 0.10 0.02
14 2 2 0.00 -0.01 0.28
14 2 3 0.10 0.09 0.02
14 2 4 0.04 0.04 0.27
14 2 5 0.00 -0.02 0.27
14 3 0 0.01 0.01 0.28
14 3 1 0.00 0.00 0.28
14 3 2 0.02 0.02 0.28
14 3 3 0.03 0.04 0.28
14 3 4 0.16 0.11 0.02
14 3 5 0.02 -0.02 0.26
14 4 0 0.08 0.07 0.01
14 4 1 0.09 0.07 0.02
14 4 2 0.01 -0.01 0.28
14 4 3 0.11 0.11 0.02
14 4 4 0.03 -0.01 0.19
14 5 0 0.00 -0.03 0.28
14 5 1 0.01 -0.02 0.20
14 5 2 0.00 0.00 0.27
14 5 3 0.02 0.04 0.27
14 6 0 0.17 0.17 0.01
14 6 1 0.03 -0.01 0.19
14 6 2 0.02 0.00 0.27
15 0 1 0.01 -0.01 0.32
15 0 2 0.00 -0.04 0.32
15 0 3 0.02 0.04 0.30
15 1 0 0.11 0.08 0.28
15 1 1 0.04 0.03 0.19
15 1 2 0.00 0.03 0.26
15 1 3 0.04 0.03 0.19
15 2 0 0.00 0.02 0.27
15 2 1 0.00 0.00 0.27
15 2 2 0.00 -0.01 0.27
15 3 0 0.06 0.06 0.27
15 3 1 0.04 -0.02 0.27
15 3 2 0.00 0.01 0.26
15 4 0 0.00 0.01 0.19
