#------------------------------------------------------------------------------
#$Date: 2022-03-02 05:20:08 +0200 (Wed, 02 Mar 2022) $
#$Revision: 273207 $
#$URL: file:///home/coder/svn-repositories/cod/cif/1/56/64/1566437.cif $
#------------------------------------------------------------------------------
#
# This file is available in the Crystallography Open Database (COD),
# http://www.crystallography.net/. The original data for this entry
# were provided by IUCr Journals, http://journals.iucr.org/.
#
# The file may be used within the scientific community so long as
# proper attribution is given to the journal article from which the
# data were obtained.
#
data_1566437
loop_
_publ_author_name
'Ruth, Paul Niklas'
'Herbst-Irmer, Regine'
'Stalke, Dietmar'
_publ_section_title
;
 Hirshfeld atom refinement based on projector augmented wave densities
 with periodic boundary conditions
;
_journal_issue                   2
_journal_name_full               IUCrJ
_journal_page_first              286
_journal_page_last               297
_journal_paper_doi               10.1107/S2052252522001385
_journal_volume                  9
_journal_year                    2022
_chemical_absolute_configuration syn
_chemical_formula_moiety         'C3 H7 N O2'
_chemical_formula_sum            'C3 H7 N O2'
_chemical_formula_weight         89.0947
_space_group_crystal_system      orthorhombic
_space_group_IT_number           19
_space_group_name_Hall           'P 2ac 2ab'
_space_group_name_H-M_alt        'P 21 21 21'
_atom_sites_solution_hydrogens   difmap
_audit_creation_method           'xHARPY 0.1'
_cell_angle_alpha                90
_cell_angle_beta                 90
_cell_angle_gamma                90
_cell_formula_units_Z            4
_cell_length_a                   5.9279(10)
_cell_length_b                   12.2597(17)
_cell_length_c                   5.7939(9)
_cell_measurement_reflns_used    1524
_cell_measurement_temperature    23
_cell_measurement_theta_max      22.5
_cell_measurement_theta_min      15.0
_cell_volume                     421.07(11)
_computing_publication_material  'xHARPY 0.1'
_computing_structure_refinement  'xHARPY 0.1'
_computing_structure_solution    'SHELXS-2013 (Sheldrick, 2008)'
_diffrn_ambient_temperature      23
_diffrn_measured_fraction_theta_full 0.994
_diffrn_measured_fraction_theta_max 0.993
_diffrn_measurement_device_type  'P-1 four circle diffractometer'
_diffrn_measurement_method       'area detector'
_diffrn_radiation_type           MoK\a
_diffrn_radiation_wavelength     0.71073
_diffrn_reflns_av_unetI/netI     0.0243
_diffrn_reflns_Laue_measured_fraction_full 0.994
_diffrn_reflns_Laue_measured_fraction_max 0.993
_diffrn_reflns_limit_h_max       12
_diffrn_reflns_limit_h_min       0
_diffrn_reflns_limit_k_max       26
_diffrn_reflns_limit_k_min       0
_diffrn_reflns_limit_l_max       12
_diffrn_reflns_limit_l_min       0
_diffrn_reflns_number            2519
_diffrn_reflns_point_group_measured_fraction_full 0.618
_diffrn_reflns_point_group_measured_fraction_max 0.567
_diffrn_reflns_theta_full        25.242
_diffrn_reflns_theta_max         50.138
_diffrn_reflns_theta_min         3.323
_exptl_absorpt_coefficient_mu    0.117
_exptl_absorpt_correction_type   none
_exptl_crystal_colour            colorless
_exptl_crystal_density_diffrn    1.405
_exptl_crystal_density_method    'not measured'
_exptl_crystal_description       sphere
_exptl_crystal_F_000             192
_exptl_crystal_size_rad          0.18
_refine_diff_density_max         0.1956
_refine_diff_density_min         -0.1884
_refine_diff_density_rms         0.0438
_refine_ls_extinction_method     none
_refine_ls_goodness_of_fit_ref   1.141
_refine_ls_hydrogen_treatment    refall
_refine_ls_matrix_type           full
_refine_ls_number_parameters     118
_refine_ls_number_reflns         2519
_refine_ls_number_restraints     0
_refine_ls_R_factor_all          0.0209
_refine_ls_R_factor_gt           0.019
_refine_ls_shift/su_max          0.0
_refine_ls_shift/su_mean         0.0
_refine_ls_structure_factor_coef Fsqd
_refine_ls_weighting_details     w=1/[\s^2^(Fo^2^)]
_refine_ls_weighting_scheme      sigma
_refine_ls_wR_factor_gt          0.0318
_refine_ls_wR_factor_ref         0.032
_reflns_Friedel_coverage         0.0
_reflns_Friedel_fraction_full    0.0
_reflns_Friedel_fraction_max     0.0
_reflns_number_gt                2393
_reflns_number_total             2519
_reflns_threshold_expression     'I > 2\s(I)'
_cod_data_source_file            fc5060.cif
_cod_data_source_block           A23_xHARPy_BLYP
_cod_database_code               1566437
loop_
_space_group_symop_operation_xyz
'x, y, z'
'-x+1/2, -y, z+1/2'
'x+1/2, -y+1/2, -z'
'-x, y+1/2, -z+1/2'
loop_
_atom_site_label
_atom_site_type_symbol
_atom_site_fract_x
_atom_site_fract_y
_atom_site_fract_z
_atom_site_U_iso_or_equiv
_atom_site_adp_type
_atom_site_occupancy
_atom_site_site_symmetry_order
O1 O 0.72675(4) 0.083786(17) 0.62432(4) 0.00658(3) Uani 1.0 1
O2 O 0.44092(4) 0.184048(17) 0.76114(4) 0.00640(3) Uani 1.0 1
N1 N 0.64721(4) 0.13752(2) 0.18303(5) 0.00522(3) Uani 1.0 1
H1 H 0.7041(11) 0.0608(5) 0.1959(14) 0.0234(19) Uani 1.0 1
H2 H 0.7787(11) 0.1897(5) 0.2081(14) 0.0198(17) Uani 1.0 1
H3 H 0.5863(12) 0.1494(5) 0.0149(13) 0.0211(18) Uani 1.0 1
C1 C 0.46631(4) 0.16108(2) 0.35444(5) 0.00428(4) Uani 1.0 1
H4 H 0.4237(10) 0.2477(4) 0.3392(11) 0.0198(15) Uani 1.0 1
C2 C 0.25990(5) 0.09068(2) 0.30335(6) 0.00674(4) Uani 1.0 1
H5 H 0.1926(10) 0.1106(5) 0.1320(12) 0.0291(19) Uani 1.0 1
H6 H 0.1281(10) 0.1049(5) 0.4293(13) 0.0281(19) Uani 1.0 1
H7 H 0.3049(10) 0.0048(5) 0.3076(14) 0.031(2) Uani 1.0 1
C3 C 0.55407(5) 0.140795(20) 0.59993(5) 0.00403(3) Uani 1.0 1
loop_
_atom_site_aniso_label
_atom_site_aniso_U_11
_atom_site_aniso_U_22
_atom_site_aniso_U_33
_atom_site_aniso_U_23
_atom_site_aniso_U_13
_atom_site_aniso_U_12
O1 0.00676(7) 0.00717(7) 0.00580(8) 0.00051(6) -0.00061(6) 0.00248(6)
O2 0.00759(7) 0.00760(6) 0.00400(8) -0.00057(6) 0.00057(6) 0.00202(6)
N1 0.00559(7) 0.00595(7) 0.00411(8) -0.00008(6) 0.00046(6) 0.00005(6)
H1 0.026(4) 0.023(4) 0.022(5) -0.001(4) 0.008(4) 0.006(3)
H2 0.013(3) 0.024(4) 0.022(5) 0.003(4) 0.007(4) -0.000(3)
H3 0.031(4) 0.024(4) 0.008(4) -0.007(4) 0.008(4) -0.006(4)
C1 0.00494(8) 0.00451(7) 0.00340(9) 0.00004(6) -0.00028(7) 0.00044(6)
H4 0.024(4) 0.016(3) 0.019(4) 0.004(3) 0.007(3) 0.010(3)
C2 0.00565(9) 0.00868(9) 0.00590(10) -0.00043(8) -0.00061(8) -0.00130(8)
H5 0.024(4) 0.051(5) 0.012(4) 0.009(4) -0.012(3) -0.011(4)
H6 0.013(3) 0.035(4) 0.036(5) 0.003(4) 0.007(4) -0.001(3)
H7 0.036(5) 0.015(3) 0.042(5) -0.005(3) 0.003(4) -0.004(3)
C3 0.00472(7) 0.00416(7) 0.00320(9) 0.00002(6) -0.00031(7) 0.00028(7)
loop_
_atom_type_symbol
_atom_type_description
_atom_type_scat_dispersion_real
_atom_type_scat_dispersion_imag
_atom_type_scat_source
C C 0.0033 0.0016 'HAR in xHARPy 0.1'
H H 0.0000 0.0000 'HAR in xHARPy 0.1'
N N 0.0061 0.0033 'HAR in xHARPy 0.1'
O O 0.0106 0.0060 'HAR in xHARPy 0.1'
loop_
_geom_angle_atom_site_label_1
_geom_angle_atom_site_label_2
_geom_angle_atom_site_label_3
_geom_angle
C1 N1 H1 112.0(4)
C1 N1 H2 109.5(4)
H1 N1 H2 108.8(5)
C1 N1 H3 110.1(4)
H1 N1 H3 108.3(6)
H2 N1 H3 108.0(5)
N1 C1 C2 109.76(3)
N1 C1 C3 110.02(2)
C2 C1 C3 111.09(2)
N1 C1 H4 107.5(3)
C2 C1 H4 110.3(3)
C3 C1 H4 108.1(3)
C1 C2 H5 109.9(3)
C1 C2 H6 110.9(3)
H5 C2 H6 108.1(4)
C1 C2 H7 110.3(3)
H5 C2 H7 109.0(5)
H6 C2 H7 108.5(5)
O1 C3 O2 125.85(3)
O1 C3 C1 118.29(2)
O2 C3 C1 115.86(3)
loop_
_geom_bond_atom_site_label_1
_geom_bond_atom_site_label_2
_geom_bond_distance
O1 C3 1.2475(4)
O2 C3 1.2663(4)
N1 C1 1.4899(4)
N1 H1 1.002(7)
N1 H2 1.019(7)
N1 H3 1.049(7)
C1 C2 1.5263(4)
C1 C3 1.5348(5)
C1 H4 1.095(5)
C2 H5 1.097(7)
C2 H6 1.083(7)
C2 H7 1.087(6)
loop_
_refln_index_h
_refln_index_k
_refln_index_l
_refln_F_squared_calc
_refln_F_squared_meas
_refln_F_squared_sigma
0 2 0 183.02 185.75 1.78
0 4 0 5383.83 5241.26 44.92
0 6 0 90.99 90.65 1.05
0 8 0 45.37 45.84 0.73
0 10 0 0.65 0.81 0.34
0 12 0 240.50 235.27 2.69
0 14 0 57.13 59.20 1.14
0 16 0 24.71 25.52 0.87
0 18 0 228.01 230.09 3.01
0 20 0 0.03 0.22 0.34
0 22 0 134.43 136.99 2.38
0 24 0 0.06 0.23 0.38
0 26 0 5.54 6.52 0.62
0 1 1 728.16 732.20 7.41
0 2 1 119.52 120.82 1.23
0 3 1 696.92 716.19 6.47
0 4 1 95.45 99.33 1.08
0 5 1 0.24 0.23 0.17
0 6 1 478.71 480.07 4.63
0 7 1 36.79 37.33 0.62
0 8 1 44.36 44.84 0.74
0 9 1 32.35 32.43 0.67
0 10 1 136.17 138.78 1.71
0 11 1 68.18 67.43 1.12
0 12 1 77.96 77.17 1.24
0 13 1 19.98 19.04 0.70
0 14 1 39.57 38.31 0.95
0 15 1 92.36 91.95 1.58
0 16 1 0.32 2.41 9.30
0 17 1 0.91 1.14 0.35
0 18 1 61.97 60.52 1.38
0 19 1 15.93 16.33 0.90
0 20 1 28.24 27.73 1.06
0 21 1 2.08 2.72 0.43
0 23 1 1.78 1.75 0.43
0 24 1 0.03 0.17 0.39
0 25 1 2.32 3.02 0.57
0 26 1 19.93 20.00 1.25
0 0 2 2912.06 2872.95 33.66
0 1 2 517.59 538.89 6.62
0 2 2 174.77 183.52 2.10
0 3 2 56.83 56.80 0.80
0 4 2 173.55 173.05 1.81
0 5 2 559.01 572.92 5.38
0 6 2 92.38 97.75 1.18
0 7 2 5.37 5.47 0.34
0 8 2 109.90 112.92 1.41
0 9 2 22.00 23.94 0.60
0 10 2 46.43 46.75 0.87
0 11 2 85.26 84.68 1.28
0 12 2 28.74 28.56 0.76
0 13 2 22.18 21.72 0.70
0 14 2 22.46 21.52 0.76
0 15 2 183.70 183.27 2.41
0 16 2 4.10 4.49 0.41
0 17 2 63.95 61.72 1.40
0 18 2 19.71 20.62 0.92
0 19 2 119.39 121.17 2.11
0 20 2 0.88 0.99 0.41
0 21 2 46.39 46.43 1.38
0 22 2 37.65 37.21 1.30
0 23 2 16.95 18.21 1.04
0 24 2 1.85 2.52 0.46
0 25 2 22.09 22.70 1.28
0 26 2 1.72 2.58 0.50
0 1 3 83.81 84.89 1.76
0 2 3 158.43 159.46 2.96
0 3 3 204.54 207.63 2.48
0 4 3 722.54 746.95 7.85
0 5 3 79.73 82.19 1.21
0 6 3 271.79 275.27 2.87
0 7 3 22.18 22.64 0.58
0 8 3 61.73 62.31 1.00
0 9 3 147.68 144.26 1.80
0 10 3 40.35 40.04 0.84
0 11 3 69.22 71.13 1.19
0 12 3 120.65 120.19 1.71
0 13 3 146.40 147.07 2.02
0 14 3 29.49 28.12 0.87
0 15 3 91.60 91.43 1.60
0 16 3 157.30 156.45 2.29
0 17 3 49.13 47.72 1.25
0 18 3 28.20 27.29 1.00
0 19 3 3.14 2.53 0.41
0 20 3 43.95 44.91 1.35
0 21 3 0.85 0.88 0.39
0 22 3 0.61 1.17 0.41
0 23 3 26.96 28.46 1.18
0 24 3 12.33 12.85 0.92
0 25 3 5.82 5.03 0.58
0 0 4 213.85 211.92 3.94
0 1 4 39.64 40.25 1.21
0 2 4 92.21 94.05 2.07
0 3 4 7.84 8.09 0.45
0 4 4 228.46 231.93 2.87
0 5 4 0.31 0.68 0.38
0 6 4 72.06 71.69 1.24
0 7 4 30.38 29.53 0.79
0 8 4 66.55 65.18 1.09
0 9 4 7.18 7.27 0.47
0 10 4 88.92 91.31 1.40
0 11 4 98.46 99.03 1.53
0 12 4 39.80 39.42 0.97
0 13 4 11.00 11.61 0.65
0 14 4 145.24 143.95 2.11
0 15 4 46.48 45.75 1.19
0 16 4 95.66 95.69 1.76
0 17 4 5.31 5.77 0.47
0 18 4 10.27 9.73 0.75
0 19 4 3.89 3.39 0.44
0 20 4 1.67 1.85 0.42
0 21 4 0.48 0.19 0.38
0 22 4 3.61 4.40 0.50
0 23 4 0.03 0.12 0.40
0 24 4 26.05 26.86 1.15
0 25 4 2.26 2.93 0.52
0 1 5 244.62 238.64 4.57
0 2 5 142.40 138.75 2.98
0 3 5 50.46 49.74 1.55
0 4 5 391.92 393.25 4.63
0 5 5 182.89 179.63 2.46
0 6 5 0.70 0.78 0.42
0 7 5 6.97 6.70 0.53
0 8 5 149.93 146.78 2.20
0 9 5 73.67 70.10 1.44
0 10 5 9.30 8.04 0.55
0 11 5 22.12 20.97 0.79
0 12 5 1.37 1.50 0.33
0 13 5 78.21 80.03 1.52
0 14 5 2.84 3.56 0.41
0 15 5 13.43 14.25 0.80
0 16 5 13.98 13.42 0.80
0 17 5 74.37 77.85 1.68
0 18 5 2.74 2.36 0.42
0 19 5 14.32 13.77 0.90
0 20 5 0.16 0.30 0.40
0 21 5 21.33 19.85 1.05
0 22 5 4.78 5.55 0.53
0 23 5 14.29 12.66 0.97
0 24 5 0.33 0.26 0.38
0 0 6 0.73 0.79 0.63
0 1 6 95.93 94.75 2.47
0 2 6 15.53 16.37 1.04
0 3 6 1.02 1.50 0.65
0 4 6 17.28 16.16 1.10
0 5 6 86.67 87.18 1.59
0 6 6 12.22 11.29 0.66
0 7 6 146.08 143.57 2.27
0 8 6 32.00 30.33 1.00
0 9 6 12.77 14.51 0.78
0 10 6 15.97 15.78 0.83
0 11 6 120.07 118.46 1.92
0 12 6 6.46 6.38 0.56
0 13 6 4.39 4.83 0.49
0 14 6 11.01 11.82 0.74
0 15 6 0.02 0.09 0.34
0 16 6 44.01 41.98 1.29
0 17 6 29.47 29.43 1.12
0 18 6 6.98 7.88 0.69
0 19 6 43.79 44.69 1.40
0 20 6 1.33 1.86 0.43
0 21 6 22.69 21.53 1.10
0 22 6 10.41 10.69 0.78
0 23 6 17.16 17.18 1.00
0 1 7 62.44 59.41 2.07
0 2 7 559.29 547.01 9.83
0 3 7 0.00 0.47 0.78
0 4 7 12.10 11.91 1.11
0 5 7 24.92 24.34 1.45
0 6 7 43.50 43.63 1.23
0 7 7 47.76 47.15 1.29
0 8 7 1.52 1.97 0.44
0 9 7 4.47 4.99 0.52
0 10 7 10.38 9.32 0.82
0 11 7 30.32 31.73 1.20
0 12 7 5.10 5.90 0.65
0 13 7 13.25 11.77 0.80
0 14 7 1.04 1.49 0.39
0 16 7 84.40 82.57 1.84
0 17 7 0.51 1.07 0.40
0 18 7 1.44 2.33 0.44
0 19 7 5.25 6.93 0.56
0 20 7 138.72 136.68 2.47
0 21 7 0.40 0.92 0.40
0 0 8 26.43 24.74 1.53
0 1 8 3.01 3.62 0.96
0 2 8 9.74 8.80 1.16
0 3 8 16.73 15.89 1.36
0 4 8 1.92 1.75 0.96
0 6 8 10.27 10.38 0.83
0 7 8 58.68 60.27 1.58
0 8 8 90.26 88.44 1.95
0 9 8 11.34 12.40 0.88
0 10 8 5.41 6.61 0.70
0 11 8 41.45 40.53 1.42
0 12 8 40.42 40.66 1.46
0 13 8 32.97 32.49 1.36
0 14 8 11.19 12.67 0.99
0 15 8 0.07 0.56 0.39
0 16 8 0.59 1.01 0.40
0 17 8 7.28 6.64 0.55
0 18 8 0.29 0.58 0.40
0 19 8 10.41 9.32 0.78
0 20 8 5.70 6.22 0.53
0 1 9 6.78 8.61 1.18
0 2 9 48.77 46.88 2.22
0 3 9 63.47 64.03 2.56
0 4 9 21.24 22.46 1.64
0 5 9 1.33 1.67 0.97
0 6 9 1.34 1.60 0.99
0 7 9 48.07 47.03 1.54
0 8 9 80.04 80.51 1.96
0 9 9 17.35 16.65 1.08
0 10 9 14.00 14.00 1.03
0 11 9 1.79 2.27 0.53
0 12 9 35.84 35.26 1.41
0 13 9 29.40 29.46 1.35
0 14 9 0.68 0.29 0.49
0 15 9 46.71 47.81 1.66
0 16 9 13.62 14.61 1.10
0 17 9 15.49 15.69 1.00
0 18 9 8.43 8.68 0.65
0 0 10 5.26 4.86 1.24
0 1 10 0.00 0.01 1.02
0 2 10 21.38 20.92 1.75
0 3 10 49.64 49.49 2.44
0 4 10 28.04 28.64 1.96
0 5 10 33.09 33.05 2.08
0 6 10 41.55 42.06 2.35
0 7 10 54.51 54.94 2.63
0 8 10 58.95 60.85 1.82
0 9 10 6.76 6.81 0.67
0 10 10 1.25 1.88 0.53
0 11 10 17.69 16.56 1.16
0 12 10 12.08 13.57 0.94
0 13 10 11.65 12.67 1.06
0 14 10 46.75 44.04 1.64
0 15 10 5.08 5.92 0.65
0 1 11 0.64 0.49 1.23
0 2 11 2.05 2.73 1.25
0 3 11 7.71 6.87 1.50
0 4 11 1.16 0.93 1.30
0 5 11 1.55 0.90 1.30
0 6 11 8.96 7.80 1.55
0 7 11 2.47 3.13 1.36
0 8 11 7.95 8.49 1.55
0 9 11 7.84 8.09 0.78
0 10 11 0.78 1.59 0.54
0 11 11 9.33 8.44 0.85
0 12 11 31.83 30.49 1.42
0 0 12 0.05 2.51 9.30
0 1 12 29.26 27.30 2.27
0 2 12 19.19 20.42 1.99
0 3 12 120.41 117.47 4.00
0 4 12 0.34 0.43 1.43
0 5 12 9.46 9.88 1.74
0 6 12 55.07 56.38 2.78
0 7 12 70.11 65.53 3.07
1 1 0 252.50 254.24 2.39
1 2 0 5376.83 5546.94 58.74
1 3 0 58.94 59.75 0.70
1 4 0 1723.27 1696.90 14.93
1 5 0 335.71 342.09 3.32
1 6 0 64.61 62.55 0.80
1 7 0 19.74 19.46 0.44
1 8 0 401.39 406.55 4.04
1 9 0 2.73 3.29 0.34
1 10 0 41.81 43.53 0.81
1 11 0 96.13 97.95 1.37
1 12 0 26.19 27.21 0.72
1 13 0 59.54 57.95 1.09
1 14 0 1.51 0.87 0.44
1 15 0 86.12 87.26 1.49
1 16 0 24.64 24.73 0.86
1 17 0 30.63 29.86 0.97
1 18 0 0.83 0.94 0.39
1 19 0 34.46 34.10 1.11
1 20 0 42.41 40.71 1.26
1 21 0 1.20 1.45 0.43
1 22 0 3.86 4.04 0.48
1 23 0 6.13 7.08 0.61
1 24 0 9.84 9.90 0.80
1 26 0 6.71 7.40 0.64
1 0 1 74.13 77.63 0.84
1 1 1 129.94 135.03 1.37
1 2 1 101.73 105.26 1.11
1 3 1 1085.65 1099.56 9.78
1 4 1 155.86 158.76 1.66
1 5 1 439.53 442.70 4.27
1 6 1 21.16 22.13 0.44
1 7 1 338.03 343.08 3.44
1 8 1 232.71 237.17 2.51
1 9 1 233.04 234.85 2.56
1 10 1 136.07 132.67 1.69
1 11 1 17.29 17.33 0.57
1 12 1 1.11 0.36 0.37
1 13 1 130.31 129.04 1.79
1 14 1 30.91 29.90 0.84
1 15 1 89.38 88.59 1.54
1 16 1 62.56 62.46 1.30
1 17 1 25.61 25.71 0.92
1 18 1 23.47 24.05 0.94
1 19 1 14.78 15.48 0.84
1 20 1 6.47 5.89 0.49
1 21 1 1.47 2.09 0.42
1 22 1 33.57 35.15 1.22
1 23 1 9.58 10.78 0.90
1 24 1 22.02 21.17 1.09
1 25 1 8.75 9.60 0.83
1 26 1 0.77 2.02 0.49
1 0 2 3282.51 3139.68 36.53
1 1 2 69.13 72.46 0.95
1 2 2 566.31 578.77 6.18
1 3 2 194.59 196.25 2.05
1 4 2 1068.89 1076.03 9.73
1 5 2 18.60 18.81 0.42
1 6 2 217.37 221.92 2.34
1 7 2 165.37 163.84 1.84
1 8 2 10.84 10.36 0.44
1 9 2 59.38 62.49 0.99
1 10 2 60.53 60.13 1.01
1 11 2 118.72 119.26 1.61
1 12 2 119.39 116.69 1.64
1 13 2 112.83 111.44 1.65
1 14 2 55.36 55.32 1.15
1 15 2 31.19 31.99 0.93
1 16 2 29.53 27.93 0.95
1 17 2 78.11 76.56 1.54
1 18 2 110.20 111.32 1.95
1 19 2 40.47 41.67 1.21
1 20 2 10.44 9.81 0.71
1 21 2 22.21 23.13 1.03
1 22 2 38.98 36.99 1.29
1 23 2 43.90 43.89 1.44
1 24 2 9.72 10.77 0.80
1 25 2 0.09 0.16 0.43
1 26 2 3.71 4.54 0.56
1 0 3 30.27 32.40 0.93
1 1 3 295.76 305.93 5.29
1 2 3 223.57 227.27 2.67
1 3 3 89.69 92.76 1.29
1 4 3 93.67 96.73 1.35
1 5 3 23.59 23.29 0.53
1 6 3 136.28 139.66 1.65
1 7 3 5.00 5.24 0.38
1 8 3 260.27 260.51 2.84
1 9 3 29.78 29.34 0.71
1 10 3 79.86 80.58 1.25
1 11 3 15.81 16.85 0.60
1 12 3 32.87 32.65 0.84
1 13 3 35.25 34.18 0.92
1 14 3 116.65 116.13 1.80
1 15 3 34.60 33.86 0.99
1 16 3 10.15 9.40 0.62
1 17 3 26.25 25.31 0.95
1 18 3 27.83 26.82 1.02
1 19 3 27.95 27.52 1.07
1 20 3 7.97 7.85 0.67
1 21 3 24.40 23.85 1.06
1 22 3 6.73 7.28 0.62
1 23 3 2.92 2.77 0.46
1 24 3 8.19 8.23 0.65
1 25 3 15.93 18.11 1.17
1 0 4 333.61 332.06 5.90
1 1 4 252.88 262.96 4.78
1 2 4 28.40 29.07 1.06
1 3 4 22.69 23.67 0.65
1 4 4 110.36 110.91 1.59
1 5 4 83.21 84.63 1.36
1 6 4 133.31 131.82 1.89
1 7 4 85.52 84.66 1.24
1 8 4 45.83 45.68 0.89
1 9 4 2.21 2.20 0.39
1 10 4 22.44 22.96 0.71
1 11 4 65.05 63.05 1.19
1 12 4 147.63 142.46 2.01
1 13 4 25.86 27.44 0.87
1 14 4 42.56 39.85 1.08
1 15 4 2.16 3.01 0.40
1 16 4 22.47 23.85 0.92
1 17 4 27.05 28.41 1.03
1 18 4 57.43 59.24 1.48
1 19 4 40.39 41.26 1.26
1 20 4 9.13 9.35 0.80
1 21 4 11.31 10.92 0.79
1 22 4 21.16 22.02 1.06
1 23 4 14.73 15.25 0.97
1 24 4 2.26 2.16 0.44
1 0 5 288.62 287.75 5.36
1 1 5 122.94 123.80 2.74
1 2 5 481.16 468.94 8.22
1 3 5 181.69 178.28 3.68
1 4 5 112.85 109.33 1.70
1 5 5 8.66 8.66 0.54
1 6 5 231.05 232.34 3.05
1 7 5 74.59 73.78 1.40
1 8 5 72.07 70.11 1.39
1 9 5 93.63 91.06 1.48
1 10 5 9.90 9.63 0.58
1 11 5 35.08 36.26 0.97
1 12 5 25.11 25.36 0.87
1 13 5 45.17 45.24 1.16
1 14 5 40.37 40.65 1.13
1 15 5 29.98 30.18 1.04
1 16 5 75.37 79.50 1.65
1 17 5 11.27 11.59 0.81
1 18 5 7.45 7.04 0.65
1 19 5 18.21 18.89 0.99
1 20 5 65.87 65.40 1.66
1 21 5 25.31 25.39 1.13
1 22 5 1.50 1.75 0.43
1 23 5 3.51 4.63 0.50
1 24 5 18.19 17.63 1.01
1 0 6 0.56 0.07 0.64
1 1 6 0.50 0.90 0.63
1 2 6 8.00 7.63 0.84
1 3 6 13.08 12.56 1.00
1 4 6 16.63 16.18 1.10
1 5 6 13.02 13.44 0.68
1 6 6 22.56 22.13 0.83
1 7 6 7.63 7.87 0.63
1 8 6 10.10 9.20 0.69
1 9 6 11.73 11.20 0.78
1 10 6 2.78 2.46 0.44
1 11 6 10.86 9.95 0.69
1 12 6 30.12 29.33 0.97
1 13 6 7.70 7.63 0.61
1 14 6 28.27 28.33 1.02
1 15 6 11.94 11.13 0.82
1 16 6 3.03 3.02 0.43
1 17 6 21.25 21.77 1.02
1 18 6 13.94 14.02 0.90
1 19 6 11.07 11.94 0.87
1 20 6 33.84 31.96 1.26
1 21 6 9.15 9.51 0.78
1 22 6 10.36 8.73 0.77
1 23 6 11.82 12.18 0.89
1 0 7 253.12 250.75 5.21
1 1 7 26.60 27.16 1.46
1 2 7 60.51 62.06 2.14
1 3 7 81.33 82.38 2.52
1 4 7 146.14 142.92 3.56
1 5 7 29.57 30.93 1.05
1 6 7 63.40 62.44 1.49
1 7 7 10.70 9.62 0.78
1 8 7 57.97 56.99 1.47
1 9 7 68.77 68.15 1.63
1 10 7 18.06 18.98 0.97
1 11 7 21.80 22.09 0.92
1 12 7 2.61 1.93 0.47
1 13 7 41.47 42.83 1.26
1 14 7 26.31 24.91 1.06
1 15 7 34.65 32.69 1.19
1 16 7 23.55 26.16 1.09
1 17 7 19.52 20.75 1.03
1 18 7 45.57 43.55 1.40
1 19 7 6.87 6.83 0.62
1 20 7 14.54 15.63 1.00
1 21 7 9.28 9.42 0.67
1 0 8 10.15 10.57 1.21
1 1 8 34.43 35.75 1.81
1 2 8 19.60 20.09 1.45
1 3 8 31.59 32.49 1.73
1 4 8 33.80 33.18 1.78
1 5 8 104.82 103.47 3.15
1 6 8 16.33 15.23 0.93
1 7 8 96.09 92.45 1.98
1 8 8 3.70 3.28 0.49
1 9 8 51.31 51.85 1.54
1 10 8 42.12 40.21 1.40
1 11 8 94.99 96.68 2.15
1 12 8 12.93 11.91 0.98
1 13 8 28.86 28.66 1.28
1 14 8 1.96 1.21 0.51
1 15 8 44.14 46.84 1.40
1 16 8 5.29 5.65 0.53
1 17 8 29.23 27.15 1.19
1 18 8 4.54 5.52 0.53
1 19 8 1.90 2.30 0.44
1 20 8 0.04 0.11 0.39
1 0 9 0.15 0.04 0.94
1 1 9 3.17 2.26 1.01
1 2 9 50.89 52.16 2.30
1 3 9 1.25 1.65 0.99
1 4 9 3.74 3.29 1.15
1 5 9 28.47 28.94 1.85
1 6 9 8.89 10.17 1.31
1 7 9 14.83 16.06 1.03
1 8 9 8.07 8.45 0.75
1 9 9 20.03 20.07 1.13
1 10 9 31.66 29.94 1.33
1 11 9 45.60 46.66 1.60
1 12 9 8.49 9.05 0.83
1 13 9 17.10 16.29 1.15
1 14 9 7.36 8.02 0.83
1 15 9 21.87 22.51 1.25
1 16 9 43.31 43.46 1.60
1 17 9 18.21 18.52 1.06
1 18 9 11.96 11.71 0.90
1 0 10 2.73 3.52 1.19
1 1 10 24.46 26.04 1.90
1 2 10 2.22 1.58 1.14
1 3 10 18.01 20.40 1.74
1 4 10 21.82 21.97 1.84
1 5 10 33.31 33.09 2.11
1 6 10 40.95 42.11 2.34
1 7 10 33.46 32.08 2.13
1 8 10 24.58 24.82 1.27
1 9 10 7.59 7.47 0.82
1 10 10 61.15 56.66 1.82
1 11 10 15.71 16.50 1.16
1 12 10 48.46 46.13 1.66
1 13 10 0.09 0.23 0.52
1 14 10 7.88 6.66 0.68
1 15 10 11.19 10.66 0.89
1 0 11 1.60 0.82 1.30
1 1 11 13.70 12.15 1.63
1 2 11 34.94 34.23 2.29
1 3 11 24.15 23.69 1.97
1 4 11 11.99 12.05 1.64
1 5 11 5.25 6.22 1.46
1 6 11 2.96 4.00 1.36
1 7 11 7.88 8.71 1.60
1 8 11 16.71 15.82 1.19
1 9 11 25.22 23.81 1.33
1 10 11 19.68 18.96 1.24
1 11 11 2.76 3.65 0.60
1 12 11 0.79 1.64 0.54
1 0 12 16.82 18.09 1.95
1 1 12 76.70 76.93 3.22
1 2 12 9.36 8.40 1.76
1 3 12 3.14 3.27 1.58
1 4 12 28.16 29.40 2.24
1 5 12 72.47 69.45 3.15
1 6 12 2.77 2.89 1.54
1 7 12 24.12 23.14 2.11
2 0 0 41.24 42.38 0.54
2 1 0 31.38 31.46 0.44
2 2 0 1721.61 1696.87 14.95
2 3 0 798.64 795.08 7.25
2 4 0 35.89 36.23 0.54
2 5 0 92.94 92.12 1.09
2 6 0 2128.93 2103.66 18.68
2 7 0 294.86 296.92 3.04
2 8 0 0.41 0.77 0.31
2 9 0 238.90 237.49 2.61
2 10 0 253.66 257.10 2.82
2 11 0 2.21 2.44 0.37
2 12 0 46.17 43.87 0.92
2 13 0 168.76 169.78 2.16
2 14 0 12.07 11.05 0.61
2 15 0 72.76 70.71 1.34
2 16 0 39.50 37.39 1.04
2 17 0 36.72 36.07 1.06
2 18 0 43.77 44.18 1.21
2 19 0 36.66 38.17 1.18
2 20 0 1.70 0.93 0.38
2 21 0 8.51 7.82 0.65
2 22 0 15.99 15.28 0.94
2 23 0 10.87 11.28 0.89
2 24 0 32.89 32.74 1.25
2 25 0 3.14 4.17 0.58
2 26 0 1.03 1.09 0.45
2 0 1 1.47 1.65 0.16
2 1 1 79.35 78.85 0.89
2 2 1 278.08 280.41 2.76
2 3 1 524.15 542.25 5.10
2 4 1 154.45 159.51 1.69
2 5 1 425.48 431.39 4.19
2 6 1 23.16 23.16 0.49
2 7 1 96.89 99.04 1.24
2 8 1 4.04 4.89 0.37
2 9 1 278.88 276.15 2.97
2 10 1 9.10 8.80 0.47
2 11 1 5.48 4.80 0.44
2 12 1 42.36 41.14 0.90
2 13 1 82.31 80.69 1.36
2 14 1 43.96 45.22 1.04
2 15 1 22.08 24.01 0.82
2 16 1 3.43 3.60 0.40
2 17 1 11.69 10.18 0.70
2 18 1 10.58 10.06 0.73
2 19 1 29.37 29.55 1.07
2 20 1 70.71 72.44 1.65
2 21 1 27.64 29.19 1.13
2 22 1 23.72 23.59 1.08
2 23 1 2.91 2.59 0.45
2 24 1 38.33 41.59 1.35
2 25 1 22.73 23.25 1.34
2 26 1 29.63 30.80 1.47
2 0 2 4.47 4.24 0.23
2 1 2 306.38 311.97 3.08
2 2 2 1091.52 1096.23 9.92
2 3 2 109.85 108.25 1.26
2 4 2 89.70 90.04 1.10
2 5 2 7.62 8.49 0.35
2 6 2 291.44 295.28 3.05
2 7 2 140.79 141.91 1.68
2 8 2 143.85 145.66 1.78
2 9 2 130.74 129.54 1.64
2 10 2 2.79 2.68 0.37
2 11 2 66.01 64.81 1.13
2 12 2 58.42 57.94 1.10
2 13 2 74.74 74.30 1.32
2 14 2 32.76 34.19 0.92
2 15 2 33.28 32.17 0.94
2 16 2 78.36 74.04 1.48
2 17 2 0.10 0.07 0.34
2 18 2 9.72 10.93 0.74
2 19 2 1.30 1.15 0.37
2 20 2 31.27 32.19 1.14
2 21 2 29.66 30.58 1.18
2 22 2 3.31 3.61 0.48
2 23 2 1.68 2.56 0.45
2 24 2 9.21 8.81 0.77
2 25 2 41.08 40.36 1.68
2 0 3 136.00 133.55 1.55
2 1 3 140.57 141.94 1.60
2 2 3 377.98 387.90 3.85
2 3 3 452.07 453.20 4.48
2 4 3 65.57 66.58 0.95
2 5 3 253.60 252.16 2.70
2 6 3 90.50 92.03 1.24
2 7 3 108.42 109.83 1.43
2 8 3 122.83 120.98 1.56
2 9 3 292.02 292.70 3.22
2 10 3 257.96 259.85 2.96
2 11 3 12.52 12.15 0.59
2 12 3 86.81 85.43 1.43
2 13 3 43.79 44.36 1.04
2 14 3 50.75 48.72 1.15
2 15 3 17.08 17.16 0.80
2 16 3 2.29 2.82 0.40
2 17 3 11.27 12.90 0.76
2 18 3 2.81 2.13 0.39
2 19 3 39.21 39.29 1.23
2 20 3 9.14 9.99 0.68
2 21 3 43.95 43.82 1.39
2 22 3 8.99 7.89 0.73
2 23 3 4.04 5.27 0.57
2 24 3 0.01 0.04 0.40
2 25 3 12.75 13.21 1.08
2 0 4 54.25 57.41 1.55
2 1 4 105.71 108.09 1.56
2 2 4 129.59 132.63 1.85
2 3 4 135.47 134.87 1.87
2 4 4 13.16 13.15 0.58
2 5 4 62.30 60.51 1.00
2 6 4 111.27 109.42 1.47
2 7 4 105.01 103.64 1.45
2 8 4 117.61 117.81 1.61
2 9 4 47.84 49.18 0.99
2 10 4 141.32 139.88 1.90
2 11 4 51.14 50.38 1.08
2 12 4 13.59 12.82 0.67
2 13 4 0.41 0.40 0.33
2 14 4 12.86 11.83 0.72
2 15 4 12.83 12.97 0.75
2 16 4 25.42 25.48 0.93
2 17 4 40.54 39.19 1.20
2 18 4 26.96 25.67 1.05
2 19 4 8.78 8.81 0.72
2 20 4 25.18 26.95 1.11
2 21 4 19.96 20.51 1.05
2 22 4 18.58 16.98 1.05
2 23 4 21.43 23.71 1.08
2 24 4 4.57 3.38 0.47
2 0 5 147.80 146.13 3.14
2 1 5 35.19 34.35 1.32
2 2 5 165.00 163.16 2.27
2 3 5 31.51 31.99 0.85
2 4 5 150.35 150.03 2.15
2 5 5 63.84 64.47 1.26
2 6 5 12.39 12.62 0.64
2 7 5 14.94 14.32 0.71
2 8 5 62.49 63.45 1.18
2 9 5 26.13 26.50 0.82
2 10 5 140.05 140.20 2.00
2 11 5 61.01 61.02 1.28
2 12 5 15.05 14.47 0.75
2 13 5 1.36 2.29 0.38
2 14 5 94.57 93.49 1.74
2 15 5 11.85 12.85 0.77
2 16 5 1.07 1.15 0.36
2 17 5 5.38 5.39 0.49
2 18 5 45.29 44.82 1.38
2 19 5 9.82 11.24 0.85
2 20 5 1.34 1.43 0.42
2 21 5 0.96 0.96 0.41
2 22 5 20.14 21.21 1.05
2 23 5 16.94 16.64 1.03
2 0 6 75.99 77.34 2.23
2 1 6 94.08 95.04 2.53
2 2 6 2.33 2.34 0.72
2 3 6 2.13 2.29 0.58
2 4 6 22.53 22.89 0.83
2 5 6 100.76 99.71 1.78
2 6 6 0.37 0.60 0.49
2 7 6 78.62 78.03 1.58
2 8 6 0.15 0.23 0.53
2 9 6 3.77 4.98 0.49
2 10 6 10.74 12.25 0.70
2 11 6 105.15 105.67 1.81
2 12 6 8.25 7.97 0.55
2 13 6 61.64 63.04 1.43
2 14 6 10.81 11.39 0.75
2 15 6 58.35 57.43 1.45
2 16 6 15.23 15.54 0.90
2 17 6 47.62 47.46 1.38
2 18 6 50.16 50.22 1.47
2 19 6 1.54 2.37 0.44
2 20 6 3.89 3.86 0.49
2 21 6 14.22 13.91 0.97
2 22 6 46.41 46.24 1.44
2 0 7 7.34 7.51 1.00
2 1 7 45.80 44.44 1.84
2 2 7 12.91 12.71 1.14
2 3 7 14.46 14.65 1.21
2 4 7 136.79 131.86 2.70
2 5 7 72.66 71.83 1.59
2 6 7 30.40 29.67 1.07
2 7 7 86.45 84.64 1.80
2 8 7 82.03 83.33 1.79
2 9 7 4.62 5.04 0.54
2 10 7 9.09 9.60 0.80
2 11 7 96.61 98.75 2.09
2 12 7 1.39 2.20 0.39
2 13 7 48.87 49.48 1.38
2 14 7 38.69 40.72 1.26
2 15 7 32.86 33.15 1.20
2 16 7 4.44 4.34 0.49
2 17 7 50.33 51.42 1.49
2 18 7 9.36 10.01 0.77
2 19 7 6.08 7.09 0.64
2 20 7 0.34 0.99 0.41
2 21 7 11.77 10.51 0.80
2 0 8 56.20 54.71 2.22
2 1 8 59.31 59.51 2.32
2 2 8 25.49 23.85 1.60
2 3 8 27.70 29.37 1.70
2 4 8 16.77 16.12 1.40
2 5 8 58.56 57.19 1.54
2 6 8 51.22 47.60 1.46
2 7 8 44.62 42.31 1.38
2 8 8 0.08 0.31 0.42
2 9 8 11.48 11.90 0.81
2 10 8 1.25 1.42 0.49
2 11 8 9.87 8.62 0.79
2 12 8 0.44 0.02 0.44
2 13 8 34.31 31.79 1.38
2 14 8 8.40 10.09 0.82
2 15 8 6.81 7.10 0.70
2 16 8 2.38 3.29 0.48
2 17 8 24.43 23.77 1.15
2 18 8 1.62 1.94 0.44
2 19 8 5.75 6.80 0.55
2 0 9 73.99 76.59 2.80
2 1 9 16.00 17.69 1.52
2 2 9 111.51 110.66 3.47
2 3 9 4.99 5.42 1.11
2 4 9 49.09 49.35 2.32
2 5 9 10.92 11.60 1.40
2 6 9 51.37 50.44 1.59
2 7 9 10.56 10.69 0.93
2 8 9 2.01 3.39 0.54
2 9 9 39.16 38.81 1.45
2 10 9 12.56 14.29 1.04
2 11 9 15.05 15.81 1.09
2 12 9 17.12 17.57 1.14
2 13 9 34.10 35.54 1.48
2 14 9 70.36 73.15 2.01
2 15 9 0.35 1.11 0.53
2 16 9 16.14 15.71 1.02
2 17 9 3.86 4.38 0.53
2 0 10 50.76 50.28 2.47
2 1 10 69.17 67.97 2.86
2 2 10 2.09 2.90 1.19
2 3 10 6.73 6.65 1.35
2 4 10 4.61 4.74 1.27
2 5 10 47.44 47.22 2.44
2 6 10 16.72 17.17 1.69
2 7 10 27.31 26.53 1.34
2 8 10 31.51 30.75 1.41
2 9 10 11.92 12.37 0.93
2 10 10 33.35 33.89 1.47
2 11 10 43.09 44.85 1.60
2 12 10 48.54 48.89 1.70
2 13 10 6.92 7.18 0.69
2 14 10 17.32 17.30 1.16
2 15 10 2.85 2.99 0.58
2 0 11 12.23 12.74 1.69
2 1 11 10.96 10.03 1.61
2 2 11 3.99 3.35 1.38
2 3 11 5.97 7.34 1.47
2 4 11 2.99 2.30 1.43
2 5 11 1.35 0.71 1.32
2 6 11 14.07 13.80 1.69
2 7 11 1.01 0.52 1.32
2 8 11 6.19 5.72 0.66
2 9 11 0.22 0.31 0.52
2 10 11 5.74 6.37 0.79
2 11 11 3.53 4.64 0.62
2 0 12 47.49 47.22 2.68
2 1 12 22.37 20.81 2.12
2 2 12 6.99 6.29 1.64
2 3 12 40.12 43.11 2.56
2 4 12 10.97 11.32 1.80
2 5 12 2.03 2.29 1.54
2 6 12 31.05 29.68 2.24
3 1 0 30.10 31.35 0.52
3 3 0 68.55 69.93 0.89
3 4 0 408.98 417.95 4.08
3 5 0 209.86 210.81 2.24
3 6 0 38.23 39.85 0.70
3 7 0 247.19 245.66 2.63
3 8 0 80.06 81.62 1.17
3 9 0 111.91 108.91 1.45
3 10 0 30.84 30.36 0.73
3 11 0 258.56 254.07 2.90
3 12 0 9.79 8.28 0.53
3 13 0 2.98 2.77 0.45
3 14 0 2.84 3.79 0.49
3 15 0 23.41 24.29 0.86
3 16 0 45.01 43.38 1.15
3 17 0 42.00 42.75 1.18
3 18 0 1.66 2.15 0.38
3 19 0 2.69 2.97 0.42
3 20 0 26.32 28.23 1.09
3 21 0 30.45 30.70 1.16
3 22 0 3.90 4.13 0.49
3 23 0 0.04 0.06 0.40
3 24 0 9.29 8.14 0.66
3 25 0 28.53 29.89 1.44
3 0 1 175.00 177.54 1.88
3 1 1 358.94 372.92 3.68
3 2 1 57.76 59.60 0.80
3 3 1 433.68 438.92 4.29
3 4 1 82.89 82.75 1.05
3 5 1 24.61 24.56 0.53
3 6 1 66.99 69.69 0.99
3 7 1 162.97 160.90 1.87
3 8 1 43.40 43.16 0.81
3 9 1 397.96 386.17 4.06
3 10 1 37.60 37.30 0.83
3 11 1 55.91 54.15 1.04
3 12 1 57.07 54.99 1.10
3 13 1 91.21 90.50 1.53
3 14 1 27.65 27.35 0.87
3 15 1 1.56 2.01 0.38
3 16 1 38.43 39.79 1.11
3 17 1 31.43 30.51 1.02
3 18 1 53.07 51.63 1.34
3 19 1 19.13 19.94 0.93
3 20 1 3.92 3.74 0.46
3 21 1 64.31 68.39 1.65
3 22 1 65.71 62.64 1.65
3 23 1 15.40 15.63 0.97
3 24 1 27.86 30.14 1.22
3 25 1 6.49 7.88 0.78
3 0 2 0.19 0.11 0.23
3 1 2 184.76 181.63 1.98
3 2 2 270.00 274.70 2.82
3 3 2 269.34 269.65 2.80
3 4 2 56.19 55.65 0.87
3 5 2 319.97 318.24 3.29
3 6 2 643.03 644.82 6.32
3 7 2 6.18 7.38 0.43
3 8 2 91.30 89.94 1.28
3 9 2 63.51 62.89 1.07
3 10 2 259.53 256.60 2.91
3 11 2 37.24 34.98 0.86
3 12 2 109.96 107.57 1.64
3 13 2 26.73 26.49 0.82
3 14 2 6.90 6.71 0.59
3 15 2 12.94 13.04 0.72
3 16 2 35.97 37.10 1.07
3 17 2 28.83 28.83 1.01
3 18 2 8.94 9.14 0.72
3 19 2 6.53 5.59 0.55
3 20 2 11.77 11.69 0.85
3 21 2 0.74 0.59 0.39
3 22 2 2.83 2.84 0.46
3 23 2 10.27 9.91 0.88
3 24 2 26.83 27.86 1.19
3 25 2 4.49 4.59 0.57
3 0 3 179.38 185.34 2.07
3 1 3 254.51 254.10 2.70
3 2 3 16.78 17.58 0.51
3 3 3 169.48 168.98 1.94
3 4 3 12.42 12.75 0.48
3 5 3 210.95 216.29 2.40
3 6 3 3.41 3.43 0.38
3 7 3 259.18 257.02 2.86
3 8 3 43.20 43.53 0.88
3 9 3 25.64 26.44 0.73
3 10 3 11.93 11.68 0.57
3 11 3 77.69 76.70 1.33
3 12 3 41.81 40.59 0.98
3 13 3 11.22 12.55 0.67
3 14 3 9.52 9.16 0.60
3 15 3 12.66 12.16 0.73
3 16 3 1.74 2.07 0.39
3 17 3 8.82 8.26 0.64
3 18 3 0.35 0.20 0.34
3 19 3 9.87 10.39 0.83
3 20 3 7.04 6.18 0.52
3 21 3 1.92 1.63 0.42
3 22 3 6.57 6.46 0.55
3 23 3 40.53 40.23 1.39
3 24 3 7.12 8.59 0.73
3 0 4 11.11 11.71 0.47
3 1 4 115.48 114.52 1.49
3 2 4 30.26 31.28 0.70
3 3 4 81.50 80.94 1.19
3 4 4 24.67 25.26 0.65
3 5 4 278.17 273.39 3.02
3 6 4 83.17 80.82 1.26
3 7 4 58.77 60.16 1.08
3 8 4 54.21 54.45 1.06
3 9 4 67.03 68.09 1.23
3 10 4 21.79 21.21 0.74
3 11 4 30.83 29.32 0.89
3 12 4 29.72 30.29 0.92
3 13 4 105.50 105.77 1.76
3 14 4 10.06 10.15 0.69
3 15 4 38.28 37.97 1.13
3 16 4 16.46 17.46 0.85
3 17 4 32.48 32.52 1.13
3 18 4 24.33 25.74 1.07
3 19 4 17.71 17.05 0.95
3 20 4 20.87 21.06 1.02
3 21 4 24.28 26.01 1.13
3 22 4 7.07 7.04 0.63
3 23 4 10.04 10.16 0.87
3 24 4 1.00 1.11 0.41
3 0 5 52.66 50.47 0.98
3 1 5 45.54 45.19 0.93
3 2 5 37.34 35.84 0.84
3 3 5 71.89 74.01 1.23
3 4 5 71.71 72.39 1.23
3 5 5 73.77 73.15 1.25
3 6 5 43.12 44.46 0.97
3 7 5 125.18 123.86 1.78
3 8 5 194.43 189.12 2.41
3 9 5 1.68 1.84 0.48
3 10 5 137.34 134.94 2.01
3 11 5 5.69 7.37 0.54
3 12 5 126.75 124.78 1.98
3 13 5 9.97 10.38 0.73
3 14 5 69.13 64.61 1.48
3 15 5 44.31 44.69 1.26
3 16 5 9.78 10.12 0.78
3 17 5 2.85 3.17 0.44
3 18 5 5.62 6.47 0.53
3 19 5 12.48 10.71 0.78
3 20 5 1.89 2.86 0.46
3 21 5 3.32 3.62 0.49
3 22 5 15.68 15.29 1.00
3 23 5 2.97 3.82 0.48
3 1 6 3.69 3.82 0.52
3 2 6 42.24 42.14 1.10
3 3 6 4.83 4.88 0.57
3 4 6 10.38 9.66 0.68
3 5 6 21.68 21.24 0.87
3 6 6 19.93 18.83 0.87
3 7 6 40.73 39.75 1.16
3 8 6 19.83 18.97 0.80
3 9 6 32.07 32.75 0.98
3 10 6 24.14 24.24 0.90
3 11 6 69.73 68.58 1.46
3 12 6 2.83 3.64 0.43
3 13 6 58.37 57.11 1.42
3 14 6 24.64 26.01 1.03
3 15 6 7.00 7.26 0.59
3 16 6 41.90 42.13 1.32
3 17 6 24.33 24.22 1.08
3 18 6 10.55 10.28 0.77
3 19 6 21.53 22.04 1.09
3 20 6 62.13 64.12 1.68
3 21 6 5.21 5.84 0.53
3 22 6 5.89 5.21 0.52
3 0 7 6.07 5.98 1.02
3 1 7 0.50 0.85 0.84
3 2 7 155.36 152.98 3.77
3 3 7 31.07 29.30 1.09
3 4 7 10.83 9.74 0.79
3 5 7 33.30 32.42 1.14
3 6 7 12.74 12.14 0.86
3 7 7 36.07 36.38 1.22
3 8 7 13.13 11.27 0.87
3 9 7 107.61 110.07 2.16
3 10 7 50.85 51.17 1.33
3 11 7 6.22 6.23 0.48
3 12 7 2.58 2.41 0.40
3 13 7 38.12 38.51 1.24
3 14 7 49.58 49.58 1.40
3 15 7 37.59 37.59 1.28
3 16 7 2.92 2.81 0.45
3 17 7 3.12 2.87 0.46
3 18 7 7.71 7.92 0.64
3 19 7 21.73 21.06 1.10
3 20 7 10.26 9.27 0.76
3 21 7 5.15 5.25 0.52
3 0 8 1.92 2.15 1.02
3 1 8 115.63 115.02 3.36
3 2 8 58.52 60.13 2.37
3 3 8 45.66 46.34 2.11
3 4 8 40.33 39.41 1.32
3 5 8 39.88 38.98 1.32
3 6 8 26.83 26.49 1.14
3 7 8 30.30 30.59 1.21
3 8 8 34.77 33.76 1.30
3 9 8 22.79 22.42 1.13
3 10 8 5.46 4.45 0.57
3 11 8 101.00 101.04 2.25
3 12 8 17.01 17.46 1.08
3 13 8 7.37 6.38 0.59
3 14 8 4.47 4.63 0.50
3 15 8 18.07 18.22 1.00
3 16 8 17.69 15.52 1.00
3 17 8 10.60 11.34 0.91
3 18 8 9.14 8.41 0.65
3 19 8 21.87 23.34 1.12
3 0 9 71.28 69.76 2.74
3 1 9 11.77 12.08 1.42
3 2 9 20.26 19.60 1.63
3 3 9 13.48 14.10 1.51
3 4 9 101.70 103.06 3.41
3 5 9 0.06 0.14 0.47
3 6 9 8.25 8.18 0.67
3 7 9 8.40 9.12 0.75
3 8 9 45.48 43.72 1.55
3 9 9 6.48 6.37 0.64
3 10 9 28.29 28.26 1.31
3 11 9 4.00 4.30 0.60
3 12 9 4.24 4.99 0.63
3 13 9 1.67 1.56 0.53
3 14 9 28.96 31.50 1.38
3 15 9 6.78 6.48 0.62
3 16 9 9.98 9.12 0.67
3 17 9 22.08 22.03 1.09
3 0 10 0.99 0.87 1.18
3 1 10 55.12 58.01 2.63
3 2 10 27.69 28.07 2.02
3 3 10 80.62 83.37 3.21
3 4 10 12.74 12.08 1.60
3 5 10 6.74 7.23 1.43
3 6 10 23.08 23.59 1.26
3 7 10 10.33 11.83 0.89
3 8 10 7.79 7.33 0.69
3 9 10 34.50 33.74 1.47
3 10 10 7.79 7.68 0.85
3 11 10 4.98 4.63 0.62
3 12 10 0.78 1.14 0.52
3 13 10 20.63 19.27 1.23
3 14 10 17.55 17.16 1.14
3 0 11 1.71 1.25 1.35
3 1 11 10.76 11.09 1.69
3 2 11 14.74 15.32 1.75
3 3 11 34.27 35.23 2.31
3 4 11 16.61 17.12 1.89
3 5 11 15.63 15.83 1.77
3 6 11 12.35 12.27 1.72
3 7 11 22.24 22.80 1.30
3 8 11 6.00 6.60 0.81
3 9 11 11.28 10.88 0.85
3 10 11 8.75 9.09 0.88
3 11 11 10.74 9.50 2.98
3 0 12 7.03 5.58 1.69
3 1 12 6.63 7.39 1.69
3 2 12 3.27 3.31 1.55
3 3 12 1.64 0.78 1.55
3 4 12 0.81 1.02 1.48
4 0 0 391.48 396.85 3.94
4 1 0 391.34 390.92 3.92
4 2 0 41.55 40.74 0.71
4 3 0 2.19 1.78 0.32
4 4 0 36.77 37.41 0.71
4 5 0 16.61 15.60 0.51
4 6 0 133.05 133.18 1.65
4 7 0 89.99 89.10 1.28
4 8 0 140.37 133.96 1.72
4 9 0 134.64 131.71 1.74
4 10 0 70.38 69.90 1.21
4 11 0 13.01 12.81 0.62
4 12 0 248.78 243.15 3.00
4 13 0 67.91 70.00 1.33
4 14 0 3.41 2.85 0.37
4 15 0 12.45 12.79 0.73
4 16 0 90.94 91.57 1.71
4 17 0 1.00 1.20 0.35
4 18 0 2.04 2.06 0.39
4 19 0 8.94 7.33 0.67
4 20 0 0.46 0.28 0.38
4 21 0 7.23 8.08 0.63
4 22 0 0.01 0.04 0.42
4 23 0 4.23 4.84 0.52
4 24 0 21.81 22.09 1.10
4 0 1 1.59 1.48 0.29
4 1 1 148.02 150.28 1.72
4 2 1 34.49 35.01 0.67
4 3 1 152.56 152.37 1.76
4 4 1 13.88 12.27 0.47
4 5 1 62.00 60.71 0.96
4 6 1 43.99 43.98 0.83
4 7 1 253.82 248.23 2.76
4 8 1 44.20 43.45 0.88
4 9 1 4.01 4.30 0.41
4 10 1 35.32 34.62 0.84
4 11 1 274.02 269.42 3.13
4 12 1 68.38 68.53 1.29
4 13 1 45.73 43.44 1.07
4 14 1 46.21 46.69 1.14
4 15 1 46.40 45.52 1.18
4 16 1 54.20 53.06 1.30
4 17 1 17.80 17.24 0.88
4 18 1 31.94 31.36 1.09
4 19 1 40.94 43.10 1.29
4 20 1 32.06 33.05 1.19
4 21 1 8.01 7.82 0.70
4 22 1 17.69 14.45 0.98
4 23 1 2.41 2.21 0.46
4 24 1 19.73 19.83 1.06
4 25 1 4.96 5.29 0.59
4 0 2 11.05 10.86 0.45
4 1 2 267.38 267.26 2.86
4 2 2 10.81 9.80 0.45
4 3 2 76.06 75.99 1.10
4 4 2 198.44 202.23 2.27
4 5 2 141.37 137.32 1.73
4 6 2 32.00 32.70 0.74
4 7 2 186.30 179.07 2.16
4 8 2 164.11 163.27 2.03
4 9 2 5.20 5.70 0.45
4 10 2 40.84 41.69 0.94
4 11 2 19.01 18.91 0.70
4 12 2 47.23 46.84 1.07
4 13 2 0.04 0.13 0.31
4 14 2 14.03 14.58 0.74
4 15 2 15.48 15.22 0.79
4 16 2 18.26 16.74 0.85
4 17 2 20.64 19.58 0.92
4 18 2 6.15 6.18 0.55
4 19 2 10.80 11.33 0.84
4 20 2 7.67 8.54 0.62
4 21 2 8.08 9.62 0.83
4 22 2 8.65 9.82 0.67
4 23 2 18.37 17.93 1.04
4 24 2 1.78 1.64 0.43
4 0 3 4.77 4.74 0.39
4 1 3 229.33 227.11 2.51
4 2 3 40.90 38.86 0.79
4 3 3 475.02 469.08 4.74
4 4 3 98.66 96.16 1.35
4 5 3 112.96 109.66 1.50
4 6 3 5.11 5.49 0.43
4 7 3 61.10 61.14 1.09
4 8 3 90.41 88.10 1.40
4 9 3 31.92 32.34 0.84
4 10 3 17.78 17.11 0.68
4 11 3 30.81 30.03 0.88
4 12 3 42.39 42.53 1.07
4 13 3 12.71 12.45 0.71
4 14 3 24.09 22.76 0.90
4 15 3 75.17 74.49 1.54
4 16 3 27.56 27.65 1.03
4 17 3 1.55 0.97 0.37
4 18 3 20.90 21.86 1.00
4 19 3 33.05 35.44 1.21
4 20 3 13.14 13.35 0.89
4 21 3 34.16 34.15 1.27
4 22 3 27.37 25.73 1.18
4 23 3 1.05 1.00 0.41
4 24 3 15.33 14.11 0.98
4 0 4 76.56 78.17 1.20
4 1 4 126.64 125.42 1.65
4 2 4 35.42 34.50 0.80
4 3 4 98.93 97.83 1.42
4 4 4 34.43 35.51 0.82
4 5 4 87.71 88.31 1.37
4 6 4 56.69 56.71 1.09
4 7 4 44.41 43.45 0.97
4 8 4 8.47 9.02 0.54
4 9 4 2.28 1.46 0.46
4 10 4 35.07 36.50 0.97
4 11 4 23.35 24.84 0.85
4 12 4 70.33 69.78 1.41
4 13 4 26.10 26.39 0.94
4 14 4 8.56 9.30 0.64
4 15 4 43.45 40.50 1.21
4 16 4 55.08 54.54 1.41
4 17 4 62.03 60.25 1.54
4 18 4 1.88 1.60 0.41
4 19 4 9.23 8.60 0.64
4 20 4 23.06 22.79 1.10
4 21 4 19.21 20.35 1.06
4 22 4 1.95 2.11 0.48
4 23 4 64.47 64.71 1.67
4 0 5 29.21 28.25 0.78
4 1 5 22.63 23.29 0.72
4 2 5 6.20 6.27 0.49
4 3 5 169.85 165.75 2.14
4 4 5 28.92 28.92 0.80
4 5 5 85.73 85.64 1.43
4 6 5 13.61 13.94 0.63
4 7 5 35.36 35.62 0.95
4 8 5 47.39 48.78 1.11
4 9 5 47.39 45.44 1.13
4 10 5 24.75 27.47 0.90
4 11 5 9.04 10.00 0.67
4 12 5 19.84 19.55 0.88
4 13 5 6.32 6.81 0.60
4 14 5 8.94 8.60 0.65
4 15 5 2.17 1.98 0.40
4 16 5 20.85 21.44 1.00
4 17 5 9.60 10.48 0.81
4 18 5 1.83 2.34 0.44
4 19 5 5.65 5.51 0.53
4 20 5 29.12 29.39 1.21
4 21 5 1.55 2.25 0.44
4 22 5 1.04 1.10 0.41
4 0 6 0.46 0.29 0.44
4 1 6 90.61 89.49 1.52
4 2 6 14.38 15.50 0.69
4 3 6 27.34 26.04 0.85
4 4 6 12.57 12.00 0.67
4 5 6 141.69 139.64 2.04
4 6 6 42.24 41.77 1.09
4 7 6 43.33 40.89 1.10
4 8 6 57.40 54.85 1.29
4 9 6 141.84 137.33 2.14
4 10 6 28.38 26.73 0.99
4 11 6 35.52 36.97 1.11
4 12 6 62.47 63.94 1.49
4 13 6 50.01 49.90 1.34
4 14 6 12.84 12.64 0.83
4 15 6 54.81 55.30 1.48
4 16 6 17.21 18.49 0.98
4 17 6 41.80 42.86 1.37
4 18 6 26.20 26.91 1.15
4 19 6 37.05 37.51 1.31
4 20 6 1.09 1.88 0.44
4 21 6 23.64 22.76 1.12
4 0 7 141.57 139.94 2.12
4 1 7 10.74 9.55 0.73
4 2 7 13.54 12.99 0.85
4 3 7 11.90 12.26 0.83
4 4 7 66.23 66.01 1.60
4 5 7 15.79 16.60 0.92
4 6 7 20.20 20.39 0.87
4 7 7 27.50 26.48 0.98
4 8 7 54.18 52.27 1.33
4 9 7 6.47 6.31 0.60
4 10 7 43.25 44.46 1.25
4 11 7 52.20 52.75 1.40
4 12 7 37.50 40.52 1.25
4 13 7 10.74 10.65 0.74
4 14 7 31.37 30.99 1.19
4 15 7 1.45 2.15 0.43
4 16 7 2.95 3.41 0.47
4 17 7 10.10 9.52 0.78
4 18 7 6.29 5.77 0.54
4 19 7 14.43 13.09 0.92
4 20 7 1.39 1.97 0.44
4 0 8 42.26 44.86 2.11
4 1 8 19.60 19.88 1.25
4 2 8 13.94 13.91 0.92
4 3 8 12.27 11.96 0.90
4 4 8 28.38 29.55 1.20
4 5 8 4.42 4.47 0.54
4 6 8 9.97 9.15 0.77
4 7 8 34.48 33.00 1.31
4 8 8 3.97 3.78 0.55
4 9 8 93.46 90.27 2.14
4 10 8 19.78 19.41 1.00
4 11 8 9.91 8.96 0.74
4 12 8 0.35 0.86 0.40
4 13 8 54.32 53.22 1.53
4 14 8 34.86 34.55 1.28
4 15 8 1.91 2.27 0.45
4 16 8 11.24 9.93 0.79
4 17 8 0.02 0.06 0.39
4 18 8 16.32 16.47 1.00
4 0 9 19.19 19.49 1.68
4 1 9 12.71 13.89 1.51
4 2 9 12.72 13.47 1.48
4 3 9 23.75 24.50 1.21
4 4 9 57.08 60.09 1.73
4 5 9 14.16 14.07 1.02
4 6 9 38.86 36.67 1.47
4 7 9 4.99 5.67 0.63
4 8 9 83.96 86.35 2.15
4 9 9 15.92 17.25 1.12
4 10 9 18.28 20.17 1.16
4 11 9 0.14 0.36 0.53
4 12 9 24.14 24.13 1.31
4 13 9 9.05 9.42 0.77
4 14 9 10.15 11.93 0.91
4 15 9 27.84 26.89 1.17
4 16 9 1.41 2.49 0.45
4 1 10 81.88 84.13 3.27
4 2 10 14.48 14.39 1.66
4 3 10 4.07 3.15 1.30
4 4 10 31.03 30.66 1.38
4 5 10 61.15 58.53 1.85
4 6 10 29.01 28.51 1.38
4 7 10 16.80 15.79 1.13
4 8 10 14.48 15.70 1.13
4 9 10 1.43 0.78 0.52
4 10 10 14.81 15.28 1.13
4 11 10 6.68 7.16 0.69
4 12 10 1.44 1.64 0.54
4 13 10 9.87 8.80 0.72
4 0 11 29.25 28.25 2.16
4 1 11 1.80 1.64 1.35
4 2 11 3.18 3.22 1.36
4 3 11 9.93 9.14 1.59
4 4 11 34.99 33.45 2.29
4 5 11 13.05 13.31 1.36
4 6 11 0.38 0.50 0.53
4 7 11 5.74 6.84 0.68
4 8 11 22.45 20.86 1.29
4 9 11 8.80 9.97 0.87
5 1 0 41.36 40.68 0.78
5 2 0 44.05 44.20 0.84
5 3 0 240.36 234.02 2.61
5 4 0 65.09 61.80 1.04
5 5 0 73.92 74.02 1.16
5 6 0 0.02 0.11 0.33
5 7 0 12.35 11.94 0.55
5 8 0 16.44 16.56 0.63
5 9 0 26.47 25.90 0.76
5 10 0 38.63 39.07 0.94
5 11 0 36.23 37.39 0.97
5 12 0 1.51 1.64 0.48
5 13 0 12.71 12.39 0.71
5 14 0 52.84 53.32 1.27
5 15 0 16.22 15.60 0.83
5 16 0 4.70 4.64 0.44
5 17 0 11.60 10.64 0.70
5 18 0 6.34 6.37 0.65
5 19 0 0.00 0.14 0.37
5 20 0 0.13 0.44 0.38
5 21 0 1.10 0.93 0.40
5 22 0 8.68 8.04 0.64
5 24 0 3.32 2.09 0.44
5 0 1 5.65 6.04 0.42
5 1 1 137.14 135.43 1.68
5 2 1 94.54 92.13 1.30
5 3 1 395.22 386.59 3.96
5 4 1 5.09 5.37 0.41
5 5 1 37.95 36.15 0.79
5 6 1 74.94 72.05 1.18
5 7 1 159.05 156.40 1.99
5 8 1 2.54 3.24 0.42
5 9 1 59.79 59.16 1.14
5 10 1 12.56 12.90 0.62
5 11 1 67.35 69.35 1.30
5 12 1 22.40 22.05 0.83
5 13 1 21.85 19.26 0.84
5 14 1 16.26 16.41 0.79
5 15 1 220.31 220.93 2.96
5 16 1 60.56 62.25 1.46
5 17 1 4.30 4.32 0.45
5 18 1 8.33 7.82 0.69
5 19 1 53.50 54.38 1.51
5 20 1 51.72 52.44 1.48
5 21 1 3.90 3.57 0.48
5 22 1 0.75 0.92 0.41
5 23 1 1.67 1.91 0.44
5 24 1 13.62 14.85 0.95
5 0 2 335.75 335.36 3.56
5 1 2 176.33 171.72 2.08
5 2 2 0.48 0.58 0.34
5 3 2 259.16 255.81 2.88
5 4 2 88.39 86.98 1.31
5 5 2 43.60 43.20 0.89
5 6 2 7.25 6.68 0.47
5 7 2 14.47 13.11 0.59
5 8 2 30.26 29.57 0.81
5 9 2 38.94 37.97 0.93
5 10 2 0.61 1.42 0.44
5 11 2 16.80 16.50 0.73
5 12 2 128.72 126.17 1.96
5 13 2 0.45 0.49 0.34
5 14 2 7.20 7.66 0.67
5 15 2 3.44 3.12 0.40
5 16 2 60.40 61.47 1.48
5 17 2 14.97 14.93 0.87
5 18 2 11.07 11.73 0.83
5 19 2 30.82 30.80 1.15
5 20 2 2.10 2.19 0.44
5 21 2 41.75 39.65 1.35
5 22 2 0.99 1.80 0.44
5 23 2 6.06 5.44 0.58
5 24 2 6.56 7.47 0.92
5 0 3 32.23 31.56 0.78
5 1 3 204.17 201.54 2.40
5 2 3 24.44 24.83 0.70
5 3 3 9.80 9.70 0.52
5 4 3 1.42 1.38 0.39
5 5 3 69.77 69.65 1.20
5 6 3 34.70 35.30 0.87
5 7 3 66.33 65.02 1.21
5 8 3 18.33 18.87 0.70
5 9 3 9.11 9.20 0.60
5 10 3 45.78 43.89 1.08
5 11 3 27.80 26.29 0.90
5 12 3 28.74 27.86 0.94
5 13 3 19.17 19.42 0.86
5 14 3 47.71 47.76 1.24
5 15 3 3.34 3.78 0.43
5 16 3 51.68 51.63 1.40
5 17 3 23.61 24.10 1.03
5 18 3 24.26 24.31 1.08
5 19 3 3.82 4.49 0.50
5 20 3 55.83 57.40 1.59
5 21 3 8.07 8.38 0.67
5 22 3 4.43 4.88 0.52
5 23 3 9.20 8.79 0.65
5 0 4 0.08 0.29 0.38
5 1 4 73.37 70.93 1.23
5 2 4 43.55 44.30 0.96
5 3 4 30.72 28.73 0.82
5 4 4 16.77 17.53 0.67
5 5 4 7.32 6.34 0.52
5 6 4 28.48 28.81 0.85
5 7 4 30.59 30.55 0.88
5 8 4 91.33 90.76 1.55
5 9 4 1.90 2.71 0.38
5 10 4 117.71 113.61 1.86
5 11 4 35.49 35.13 1.05
5 12 4 85.20 86.95 1.65
5 13 4 3.57 4.46 0.43
5 14 4 83.14 87.37 1.75
5 15 4 19.91 20.99 0.98
5 16 4 20.79 22.52 1.01
5 17 4 9.23 8.38 0.70
5 18 4 24.41 25.90 1.11
5 19 4 75.06 76.84 1.82
5 20 4 0.43 0.06 0.39
5 21 4 43.70 44.82 1.43
5 22 4 13.48 11.91 0.95
5 0 5 7.98 7.17 0.57
5 1 5 193.69 188.84 2.42
5 2 5 32.80 32.29 0.90
5 3 5 15.78 16.32 0.69
5 4 5 74.45 73.99 1.38
5 5 5 61.34 60.40 1.26
5 6 5 19.01 18.89 0.79
5 7 5 35.46 35.00 0.99
5 8 5 53.19 50.95 1.22
5 9 5 12.02 11.08 0.71
5 10 5 19.91 19.21 0.85
5 11 5 20.21 20.70 0.90
5 12 5 0.42 0.98 0.35
5 13 5 18.23 18.02 0.92
5 14 5 41.75 42.88 1.26
5 15 5 1.41 1.34 0.40
5 16 5 18.35 18.99 0.96
5 17 5 3.04 3.73 0.48
5 18 5 29.23 29.96 1.19
5 19 5 2.82 3.20 0.48
5 20 5 12.82 12.10 0.95
5 21 5 10.01 8.94 0.67
5 0 6 49.22 48.04 1.17
5 1 6 47.44 46.10 1.13
5 2 6 12.47 11.24 0.70
5 3 6 56.16 54.72 1.25
5 4 6 53.40 50.47 1.22
5 5 6 83.13 81.40 1.57
5 6 6 12.93 13.62 0.74
5 7 6 107.04 106.21 1.85
5 8 6 22.80 22.28 0.92
5 9 6 21.47 21.36 0.89
5 10 6 68.49 69.97 1.54
5 11 6 79.21 81.22 1.70
5 12 6 0.45 0.52 0.36
5 13 6 67.38 68.23 1.62
5 14 6 55.36 54.69 1.48
5 15 6 13.62 15.50 0.92
5 16 6 5.01 5.41 0.52
5 17 6 53.97 53.56 1.55
5 18 6 7.90 7.35 0.65
5 19 6 5.19 5.30 0.53
5 20 6 0.01 0.01 0.39
5 0 7 1.15 1.51 0.38
5 1 7 30.06 30.33 1.01
5 2 7 17.08 16.96 0.86
5 3 7 4.16 4.08 0.44
5 4 7 112.20 109.11 1.91
5 5 7 10.20 10.50 0.68
5 6 7 19.84 21.31 0.92
5 7 7 9.27 9.86 0.75
5 8 7 102.20 101.61 1.92
5 9 7 10.41 11.57 0.77
5 10 7 2.12 2.04 0.42
5 11 7 4.52 4.33 0.47
5 12 7 14.15 13.45 0.80
5 13 7 13.81 16.45 0.94
5 14 7 5.54 6.50 0.54
5 15 7 18.09 18.57 1.02
5 16 7 8.63 7.97 0.75
5 17 7 4.15 4.98 0.52
5 18 7 2.52 2.98 0.47
5 0 8 37.84 37.15 1.19
5 1 8 48.44 48.44 1.33
5 2 8 3.11 3.29 0.43
5 3 8 0.49 0.70 0.36
5 4 8 20.60 19.78 0.98
5 5 8 144.05 142.22 2.37
5 6 8 0.54 1.20 0.80
5 7 8 5.16 5.34 0.50
5 8 8 2.64 2.99 0.45
5 9 8 24.69 24.50 1.07
5 10 8 2.07 2.09 0.43
5 11 8 11.21 12.90 0.89
5 12 8 8.72 8.20 0.64
5 13 8 32.67 32.93 1.28
5 14 8 8.63 8.27 0.66
5 15 8 8.40 8.94 0.66
5 16 8 10.95 12.11 0.91
5 17 8 59.33 59.75 1.61
5 0 9 0.10 0.69 0.80
5 1 9 31.20 30.50 1.15
5 2 9 35.90 35.99 1.44
5 3 9 6.80 5.57 0.62
5 4 9 5.19 6.31 0.64
5 5 9 15.45 14.39 1.08
5 6 9 27.76 27.65 1.30
5 7 9 9.48 9.67 0.85
5 8 9 0.67 1.12 0.52
5 9 9 0.67 1.34 0.42
5 10 9 21.17 21.64 1.09
5 11 9 15.38 15.74 1.00
5 12 9 0.89 1.74 0.43
5 13 9 8.58 8.90 0.67
5 14 9 6.72 6.89 0.55
5 15 9 2.01 2.66 0.46
5 0 10 76.49 76.07 3.17
5 1 10 5.34 5.28 0.91
5 2 10 2.55 2.88 0.58
5 3 10 50.96 51.85 1.74
5 4 10 25.01 24.93 1.30
5 5 10 31.90 30.44 1.47
5 6 10 5.87 6.70 0.69
5 7 10 18.36 18.09 1.19
5 8 10 6.23 7.08 0.69
5 9 10 34.05 33.18 1.44
5 10 10 0.63 0.88 0.53
5 11 10 1.20 2.05 0.54
5 12 10 5.43 5.96 0.54
5 0 11 5.36 3.79 1.54
5 1 11 24.99 24.15 2.03
5 2 11 11.54 12.46 1.64
5 3 11 17.86 16.60 1.19
5 4 11 12.39 11.14 0.92
5 5 11 0.06 0.06 0.52
5 6 11 39.50 40.30 1.55
5 7 11 2.05 2.46 0.57
6 0 0 138.57 135.93 1.78
6 1 0 66.79 67.04 1.14
6 2 0 4.82 4.89 0.44
6 3 0 33.21 32.02 0.80
6 4 0 9.27 10.04 0.52
6 5 0 80.14 77.30 1.30
6 6 0 71.32 71.30 1.26
6 7 0 88.74 85.28 1.43
6 8 0 60.85 59.59 1.19
6 9 0 0.06 0.23 0.44
6 10 0 91.54 88.88 1.58
6 11 0 0.08 0.26 0.32
6 12 0 64.97 64.76 1.38
6 13 0 20.99 21.69 0.90
6 14 0 8.99 9.34 0.65
6 15 0 27.01 28.76 1.03
6 16 0 6.86 7.37 0.64
6 17 0 8.28 9.03 0.70
6 18 0 22.47 21.44 1.04
6 19 0 6.02 7.04 0.69
6 21 0 2.49 2.29 0.45
6 22 0 24.46 23.80 1.11
6 23 0 0.12 0.68 0.40
6 0 1 41.98 39.97 0.88
6 1 1 122.14 119.80 1.65
6 2 1 87.59 86.58 1.35
6 3 1 78.22 76.95 1.28
6 4 1 87.93 88.48 1.40
6 5 1 107.72 105.65 1.58
6 6 1 9.84 9.57 0.54
6 7 1 61.69 61.67 1.19
6 8 1 54.06 53.37 1.13
6 9 1 1.64 1.48 0.48
6 10 1 1.07 1.47 0.34
6 11 1 27.67 26.94 0.91
6 12 1 12.72 12.91 0.76
6 13 1 122.27 120.81 2.01
6 14 1 39.68 41.56 1.19
6 15 1 18.52 18.74 0.90
6 16 1 11.09 11.86 0.79
6 17 1 72.25 72.64 1.67
6 18 1 64.73 67.02 1.64
6 19 1 17.77 18.71 1.00
6 20 1 12.28 13.31 0.93
6 21 1 8.92 8.12 0.65
6 22 1 23.28 22.04 1.10
6 23 1 10.43 9.43 0.88
6 0 2 18.68 19.40 0.66
6 1 2 115.52 115.14 1.64
6 2 2 181.06 175.93 2.22
6 3 2 2.98 3.34 0.43
6 4 2 0.97 0.87 0.41
6 5 2 49.12 47.80 1.03
6 6 2 8.91 9.59 0.57
6 7 2 18.93 18.12 0.72
6 8 2 47.96 47.00 1.09
6 9 2 6.58 5.50 0.58
6 10 2 110.09 107.37 1.78
6 11 2 3.30 3.74 0.41
6 12 2 30.63 30.79 1.03
6 13 2 10.21 10.87 0.68
6 14 2 94.33 92.05 1.80
6 15 2 1.24 1.03 0.37
6 16 2 8.40 7.04 0.59
6 17 2 14.39 14.39 0.90
6 18 2 7.01 7.53 0.62
6 19 2 6.38 6.99 0.61
6 20 2 1.36 1.85 0.44
6 21 2 9.71 8.82 0.77
6 22 2 5.72 6.28 0.55
6 23 2 11.82 13.56 1.56
6 0 3 11.83 12.40 0.60
6 1 3 100.07 100.22 1.55
6 2 3 17.70 16.71 0.68
6 3 3 203.79 201.34 2.49
6 4 3 67.47 67.17 1.25
6 5 3 4.37 4.58 0.52
6 6 3 24.00 24.62 0.81
6 7 3 57.12 57.89 1.21
6 8 3 24.27 23.00 0.83
6 9 3 26.75 25.54 0.90
6 10 3 0.81 1.30 0.36
6 11 3 6.75 6.88 0.52
6 12 3 22.26 20.85 0.90
6 13 3 4.23 4.42 0.44
6 14 3 47.42 48.33 1.34
6 15 3 32.06 32.48 1.14
6 16 3 30.25 28.53 1.13
6 17 3 12.39 12.87 0.88
6 18 3 69.75 69.99 1.72
6 19 3 46.65 47.27 1.48
6 20 3 3.62 3.03 0.48
6 21 3 21.19 21.05 1.11
6 22 3 29.50 29.08 1.21
6 0 4 0.63 1.06 0.44
6 1 4 97.06 94.50 1.57
6 2 4 20.82 21.12 0.77
6 3 4 56.90 57.08 1.19
6 4 4 2.01 0.92 0.49
6 5 4 38.35 37.01 1.01
6 6 4 68.97 67.32 1.36
6 7 4 4.94 4.96 0.42
6 8 4 17.65 16.99 0.79
6 9 4 41.65 40.18 1.13
6 10 4 49.07 48.56 1.26
6 11 4 2.29 2.50 0.38
6 12 4 28.50 27.48 1.03
6 13 4 3.90 4.70 0.46
6 14 4 40.95 39.89 1.26
6 15 4 4.21 3.83 0.47
6 16 4 30.69 32.09 1.19
6 17 4 81.14 80.73 1.83
6 18 4 10.02 9.93 0.80
6 19 4 31.86 31.57 1.26
6 20 4 12.18 12.43 0.93
6 21 4 55.74 54.78 1.56
6 0 5 15.51 14.37 0.75
6 1 5 66.37 65.34 1.34
6 2 5 18.72 19.76 0.81
6 3 5 109.28 106.58 1.78
6 4 5 20.41 19.19 0.82
6 5 5 4.20 4.20 0.42
6 6 5 42.99 44.05 1.15
6 7 5 11.43 10.21 0.71
6 8 5 0.13 0.26 0.37
6 9 5 34.26 33.89 1.10
6 10 5 2.09 2.30 0.39
6 11 5 20.70 19.43 0.93
6 12 5 23.43 23.29 1.00
6 13 5 8.74 9.58 0.63
6 14 5 21.32 22.75 1.05
6 15 5 2.16 1.92 0.43
6 16 5 16.60 16.91 1.00
6 17 5 1.60 1.90 0.44
6 18 5 17.94 17.83 1.01
6 19 5 6.15 6.04 0.54
6 20 5 0.27 0.09 0.38
6 0 6 53.30 51.15 1.26
6 1 6 101.58 101.61 1.79
6 2 6 74.69 72.74 1.52
6 3 6 57.21 56.18 1.34
6 4 6 19.02 19.75 0.88
6 5 6 80.08 80.02 1.63
6 6 6 70.99 74.27 1.58
6 7 6 6.93 6.37 0.48
6 8 6 11.86 10.88 0.78
6 9 6 75.62 76.38 1.68
6 10 6 13.24 12.78 0.87
6 11 6 34.26 33.36 1.18
6 12 6 39.82 40.72 1.28
6 13 6 35.08 34.93 1.25
6 14 6 13.82 13.24 0.94
6 15 6 41.67 43.77 1.38
6 16 6 26.42 28.98 1.18
6 17 6 23.39 22.92 1.11
6 18 6 8.29 8.68 0.60
6 19 6 14.34 14.39 0.95
6 0 7 17.26 17.81 0.87
6 1 7 1.81 2.26 0.39
6 2 7 50.04 50.22 1.34
6 3 7 12.35 11.88 0.80
6 4 7 7.62 8.22 0.66
6 5 7 20.77 20.81 0.93
6 6 7 96.62 99.15 1.91
6 7 7 1.57 2.33 0.42
6 8 7 18.55 19.13 0.94
6 9 7 5.32 5.12 0.55
6 10 7 57.83 58.32 1.53
6 11 7 5.12 5.15 0.51
6 12 7 16.94 17.61 1.02
6 13 7 16.94 15.63 0.99
6 14 7 12.52 13.91 0.95
6 15 7 3.05 3.54 0.49
6 16 7 0.07 0.09 0.40
6 17 7 10.82 11.98 0.88
6 18 7 6.90 7.13 0.55
6 0 8 27.54 28.61 1.10
6 1 8 1.00 1.25 0.39
6 2 8 13.68 14.90 0.88
6 3 8 50.07 49.77 1.40
6 4 8 8.34 7.84 0.70
6 5 8 3.24 3.43 0.45
6 6 8 12.02 13.30 0.90
6 7 8 51.30 53.64 1.48
6 8 8 0.28 0.73 0.39
6 9 8 2.69 3.17 0.47
6 10 8 6.63 7.90 0.67
6 11 8 18.69 17.79 1.04
6 12 8 1.45 2.43 0.46
6 13 8 10.37 10.56 0.75
6 14 8 15.30 15.42 0.98
6 15 8 40.42 41.69 1.38
6 16 8 22.25 21.36 1.09
6 0 9 37.40 39.45 1.33
6 1 9 1.02 1.12 0.41
6 2 9 11.19 11.55 0.88
6 3 9 12.44 11.33 0.82
6 4 9 9.51 9.07 0.77
6 5 9 2.53 2.74 0.46
6 6 9 11.37 13.21 0.92
6 7 9 6.63 7.10 0.57
6 8 9 27.67 30.40 1.19
6 9 9 5.17 5.89 0.54
6 10 9 41.95 42.58 1.41
6 11 9 5.83 6.64 0.62
6 12 9 34.81 36.82 1.32
6 13 9 14.37 14.11 0.95
6 0 10 3.75 4.99 0.53
6 1 10 40.99 43.96 1.41
6 2 10 45.52 46.31 1.46
6 3 10 1.24 1.63 0.46
6 4 10 5.83 7.11 0.57
6 5 10 50.17 52.20 1.53
6 6 10 8.14 8.66 0.67
6 7 10 21.46 22.83 1.13
6 8 10 0.93 1.59 0.43
6 9 10 3.92 4.59 0.51
6 0 11 6.22 7.52 0.64
6 1 11 28.77 29.95 1.40
6 2 11 3.05 4.34 0.61
7 2 0 73.08 72.25 1.31
7 3 0 13.62 13.82 0.63
7 4 0 3.97 3.86 0.51
7 5 0 55.22 53.16 1.17
7 6 0 22.27 21.34 0.80
7 7 0 2.33 2.45 0.36
7 8 0 34.56 35.05 1.00
7 9 0 44.60 43.42 1.13
7 10 0 102.62 99.10 1.77
7 11 0 33.17 33.09 1.06
7 12 0 24.25 24.56 0.95
7 13 0 0.08 0.08 0.36
7 14 0 17.95 17.61 0.90
7 15 0 16.55 15.30 0.89
7 16 0 2.95 2.51 0.44
7 17 0 12.63 11.62 0.87
7 18 0 1.62 1.24 0.42
7 19 0 3.35 3.13 0.47
7 20 0 22.89 25.12 1.12
7 21 0 18.10 18.03 1.04
7 22 0 1.12 1.45 0.44
7 0 1 224.21 221.31 2.73
7 1 1 58.36 57.02 1.15
7 2 1 16.98 16.08 0.69
7 3 1 40.69 41.92 1.00
7 4 1 69.88 70.71 1.32
7 5 1 72.67 73.69 1.38
7 6 1 39.52 40.28 1.04
7 7 1 23.20 23.08 0.84
7 8 1 0.86 1.15 0.34
7 9 1 102.66 101.24 1.77
7 10 1 19.81 19.24 0.85
7 11 1 18.93 18.37 0.87
7 12 1 0.30 0.52 0.33
7 13 1 36.45 37.34 1.17
7 14 1 20.72 18.26 0.97
7 15 1 11.72 10.84 0.80
7 16 1 18.14 17.51 0.98
7 17 1 36.56 36.30 1.28
7 18 1 41.86 43.24 1.39
7 19 1 27.49 26.58 1.17
7 20 1 11.23 11.29 0.91
7 21 1 26.48 25.45 1.16
7 22 1 33.98 33.92 1.29
7 0 2 12.28 11.60 0.64
7 1 2 2.09 2.06 0.49
7 2 2 38.20 39.14 0.99
7 3 2 29.07 29.37 0.88
7 4 2 13.60 12.75 0.67
7 5 2 49.30 51.03 1.15
7 6 2 213.00 210.65 2.72
7 7 2 7.63 7.14 0.51
7 8 2 17.87 17.64 0.82
7 9 2 25.43 23.77 0.94
7 10 2 146.82 143.62 2.24
7 11 2 10.76 10.76 0.67
7 12 2 58.65 58.85 1.43
7 13 2 5.75 5.32 0.52
7 14 2 6.39 5.81 0.50
7 15 2 17.58 20.18 0.97
7 16 2 15.75 15.30 0.94
7 17 2 6.73 6.21 0.59
7 18 2 10.69 11.33 0.88
7 19 2 1.33 1.68 0.44
7 20 2 1.11 1.90 0.45
7 21 2 0.86 0.99 0.41
7 0 3 3.73 3.79 0.54
7 1 3 120.48 119.16 1.86
7 2 3 31.25 30.43 0.93
7 3 3 17.81 18.10 0.78
7 4 3 26.61 24.76 0.87
7 5 3 103.80 103.63 1.74
7 6 3 44.09 44.70 1.13
7 7 3 11.50 12.12 0.71
7 8 3 38.69 37.78 1.09
7 9 3 6.19 5.73 0.52
7 10 3 6.08 6.04 0.52
7 11 3 6.46 6.00 0.60
7 12 3 14.47 15.01 0.85
7 13 3 20.96 21.54 0.99
7 14 3 43.13 42.93 1.33
7 15 3 14.81 16.47 0.94
7 16 3 25.81 24.78 1.14
7 17 3 33.39 32.73 1.25
7 18 3 8.44 7.98 0.65
7 19 3 22.65 21.32 1.10
7 20 3 12.84 12.76 0.93
7 21 3 9.37 8.94 0.75
7 0 4 2.15 2.64 0.38
7 1 4 65.82 66.86 1.39
7 2 4 12.48 12.04 0.72
7 3 4 24.82 23.59 0.89
7 4 4 57.96 57.51 1.30
7 5 4 52.11 52.32 1.28
7 6 4 48.61 48.97 1.24
7 7 4 4.98 4.55 0.44
7 8 4 9.55 9.22 0.65
7 9 4 17.96 16.65 0.87
7 10 4 11.05 11.90 0.79
7 11 4 14.37 14.11 0.87
7 12 4 28.68 27.46 1.09
7 13 4 40.73 39.69 1.31
7 14 4 12.04 11.90 0.88
7 15 4 38.14 38.52 1.32
7 16 4 33.76 35.74 1.27
7 17 4 22.20 23.36 1.09
7 18 4 14.79 16.23 0.99
7 19 4 27.00 25.84 1.19
7 20 4 2.90 1.95 0.44
7 0 5 2.57 3.03 0.40
7 1 5 22.90 22.22 0.90
7 2 5 22.03 21.87 0.88
7 3 5 8.10 7.30 0.62
7 4 5 32.15 31.66 1.06
7 5 5 32.23 32.88 1.07
7 6 5 27.36 27.50 1.02
7 7 5 46.55 45.27 1.27
7 8 5 63.49 63.10 1.50
7 9 5 5.22 4.86 0.47
7 10 5 43.62 44.55 1.31
7 11 5 13.43 12.11 0.85
7 12 5 30.60 28.37 1.15
7 13 5 5.10 4.62 0.49
7 14 5 52.76 53.61 1.51
7 15 5 2.52 3.17 0.47
7 16 5 12.66 12.26 0.83
7 17 5 4.18 4.06 0.50
7 18 5 6.71 5.71 0.53
7 19 5 4.72 5.52 0.53
7 0 6 14.65 14.49 0.82
7 1 6 61.82 61.79 1.47
7 2 6 75.09 77.68 1.65
7 3 6 57.16 58.06 1.45
7 4 6 53.66 55.20 1.40
7 5 6 6.42 6.53 0.54
7 6 6 13.10 12.20 0.84
7 7 6 32.60 33.89 1.19
7 8 6 28.45 28.58 1.11
7 9 6 9.86 8.97 0.72
7 10 6 7.82 7.54 0.69
7 11 6 24.21 25.40 1.09
7 12 6 7.07 6.73 0.61
7 13 6 12.53 13.51 0.92
7 14 6 9.56 10.88 0.78
7 15 6 18.53 17.58 1.03
7 16 6 20.62 19.04 1.05
7 17 6 16.69 14.91 0.99
7 18 6 7.78 7.08 0.63
7 0 7 32.05 30.80 1.15
7 1 7 1.13 1.23 0.39
7 2 7 69.51 72.84 1.68
7 3 7 8.36 8.24 0.70
7 4 7 3.31 3.15 0.44
7 5 7 4.65 4.85 0.49
7 6 7 2.92 3.28 0.45
7 7 7 20.69 22.42 1.04
7 8 7 34.11 35.74 1.24
7 9 7 18.37 17.27 1.01
7 10 7 36.10 37.24 1.31
7 11 7 13.55 12.98 0.83
7 12 7 22.41 20.67 1.10
7 13 7 7.60 7.68 0.64
7 14 7 29.43 29.24 1.25
7 15 7 6.87 6.92 0.56
7 16 7 0.01 0.19 0.82
7 0 8 0.90 1.20 0.41
7 1 8 31.88 32.45 1.23
7 2 8 70.23 71.65 1.70
7 3 8 16.60 18.34 0.99
7 4 8 6.12 6.38 0.60
7 5 8 9.51 10.56 0.85
7 6 8 3.58 4.52 0.50
7 7 8 9.38 8.72 0.74
7 8 8 3.72 3.94 0.53
7 9 8 24.17 23.64 1.12
7 10 8 1.84 2.12 0.45
7 11 8 29.06 27.78 1.19
7 12 8 16.21 17.30 1.01
7 13 8 20.89 21.19 1.07
7 14 8 2.60 2.45 0.45
7 0 9 3.77 4.69 0.52
7 1 9 4.03 4.49 0.50
7 2 9 10.38 10.49 0.80
7 3 9 6.91 7.24 0.60
7 4 9 19.40 19.41 1.05
7 5 9 11.84 10.78 0.70
7 6 9 9.62 10.40 0.74
7 7 9 3.07 3.84 0.49
7 8 9 58.66 58.02 1.61
7 9 9 0.46 0.70 0.88
7 10 9 31.43 31.96 1.24
7 11 9 6.22 6.65 0.55
7 0 10 0.29 0.22 0.43
7 1 10 31.57 31.43 1.25
7 2 10 2.88 3.97 0.49
7 3 10 64.23 66.69 1.70
7 4 10 6.67 7.52 0.57
7 5 10 0.37 0.73 0.42
7 6 10 10.37 9.80 0.89
8 0 0 2.69 2.37 0.37
8 1 0 1.27 1.73 0.36
8 2 0 50.25 49.88 1.17
8 3 0 0.08 0.14 0.33
8 4 0 2.07 2.40 0.38
8 5 0 10.22 10.71 0.69
8 6 0 136.14 132.55 2.10
8 7 0 18.37 18.15 0.86
8 8 0 5.61 5.77 0.52
8 9 0 64.40 64.73 1.49
8 10 0 18.27 17.98 0.89
8 11 0 22.01 23.00 0.97
8 12 0 9.19 10.29 0.67
8 13 0 56.65 59.00 1.51
8 14 0 1.48 1.29 0.40
8 15 0 1.60 1.81 0.43
8 16 0 34.72 36.58 1.28
8 17 0 16.67 17.18 0.99
8 18 0 0.19 0.53 0.40
8 19 0 9.93 9.37 0.68
8 20 0 0.68 0.79 0.41
8 0 1 34.40 31.81 0.99
8 1 1 31.04 31.40 0.97
8 2 1 100.65 97.25 1.69
8 3 1 0.75 1.25 0.35
8 4 1 34.07 32.95 1.01
8 5 1 69.24 67.42 1.43
8 6 1 2.28 2.57 0.40
8 7 1 22.13 22.05 0.90
8 8 1 4.67 5.15 0.50
8 9 1 63.37 61.65 1.48
8 10 1 3.92 4.38 0.44
8 11 1 4.32 4.01 0.45
8 12 1 20.76 21.42 1.00
8 13 1 26.30 26.50 1.08
8 14 1 4.42 4.59 0.49
8 15 1 19.01 18.74 0.99
8 16 1 8.74 8.81 0.77
8 17 1 17.19 18.57 1.04
8 18 1 3.31 3.97 0.50
8 19 1 40.47 40.99 1.38
8 20 1 35.73 37.82 1.31
8 0 2 0.19 0.56 0.34
8 1 2 2.40 3.16 0.39
8 2 2 32.92 32.61 1.01
8 3 2 11.55 11.52 0.73
8 4 2 132.26 130.72 2.08
8 5 2 2.92 3.11 0.41
8 6 2 51.70 50.44 1.27
8 7 2 13.94 12.61 0.82
8 8 2 179.28 184.29 2.66
8 9 2 1.99 1.99 0.38
8 10 2 25.09 23.37 0.99
8 11 2 5.11 4.24 0.46
8 12 2 26.96 28.01 1.09
8 13 2 2.87 2.77 0.44
8 14 2 27.35 27.47 1.13
8 15 2 3.73 3.74 0.48
8 16 2 21.84 21.46 1.07
8 17 2 5.21 5.44 0.54
8 18 2 4.26 2.95 0.47
8 19 2 2.21 3.05 0.47
8 20 2 10.26 10.53 0.77
8 0 3 83.40 83.70 1.62
8 1 3 2.03 1.92 0.38
8 2 3 14.70 14.87 0.80
8 3 3 36.32 35.31 1.07
8 4 3 43.24 42.49 1.18
8 5 3 23.23 23.23 0.94
8 6 3 34.50 36.21 1.11
8 7 3 35.40 35.33 1.12
8 8 3 21.11 21.48 0.93
8 9 3 59.93 60.35 1.48
8 10 3 70.09 71.70 1.64
8 11 3 10.76 11.09 0.82
8 12 3 63.31 63.78 1.60
8 13 3 34.48 37.90 1.27
8 14 3 14.89 16.11 0.94
8 15 3 0.76 0.54 0.39
8 16 3 11.29 12.40 0.90
8 17 3 2.39 3.27 0.48
8 18 3 5.04 6.04 0.54
8 19 3 1.44 1.87 0.44
8 0 4 5.46 5.57 0.50
8 1 4 13.26 14.23 0.77
8 2 4 16.11 16.52 0.83
8 3 4 46.05 46.39 1.25
8 4 4 23.03 24.04 0.97
8 5 4 10.93 12.21 0.75
8 6 4 6.32 6.98 0.52
8 7 4 39.84 41.59 1.25
8 8 4 65.92 65.98 1.58
8 9 4 24.56 24.83 1.03
8 10 4 29.77 31.13 1.16
8 11 4 56.53 54.96 1.49
8 12 4 15.21 15.85 0.93
8 13 4 25.21 24.96 1.10
8 14 4 25.26 25.28 1.14
8 15 4 36.88 39.32 1.35
8 16 4 7.45 8.50 0.60
8 17 4 6.93 7.24 0.63
8 18 4 0.39 0.56 0.40
8 0 5 0.51 0.67 0.36
8 1 5 21.09 23.67 0.96
8 2 5 18.02 18.42 0.89
8 3 5 14.56 15.04 0.85
8 4 5 16.20 17.29 0.89
8 5 5 34.48 34.33 1.18
8 6 5 46.48 47.12 1.34
8 7 5 8.56 8.41 0.70
8 8 5 36.61 37.42 1.26
8 9 5 13.75 13.63 0.90
8 10 5 50.35 50.16 1.46
8 11 5 0.55 1.11 0.40
8 12 5 55.66 54.48 1.56
8 13 5 0.87 1.24 0.43
8 14 5 6.75 5.55 0.54
8 15 5 13.03 14.22 0.95
8 16 5 9.61 10.35 0.89
8 17 5 5.22 5.47 0.53
8 0 6 84.09 86.62 1.82
8 1 6 1.91 1.91 0.41
8 2 6 8.76 8.51 0.70
8 3 6 12.24 12.45 0.86
8 4 6 36.71 37.39 1.24
8 5 6 21.59 22.67 1.03
8 6 6 14.55 16.62 0.94
8 7 6 31.51 28.68 1.19
8 8 6 13.24 13.16 0.94
8 9 6 4.81 5.34 0.52
8 10 6 0.05 0.14 0.40
8 11 6 29.03 29.92 1.23
8 12 6 0.10 0.03 0.39
8 13 6 8.93 9.93 0.74
8 14 6 2.79 3.34 0.48
8 15 6 14.58 14.98 0.99
8 16 6 18.06 18.98 1.05
8 0 7 55.83 55.48 1.55
8 1 7 4.83 5.07 0.50
8 2 7 1.14 1.33 0.42
8 3 7 11.94 11.47 0.77
8 4 7 57.62 60.74 1.59
8 5 7 1.29 1.03 0.41
8 6 7 2.77 3.15 0.47
8 7 7 36.79 36.32 1.30
8 8 7 29.59 30.82 1.23
8 9 7 9.66 10.48 0.79
8 10 7 0.13 0.13 0.43
8 11 7 30.45 28.71 1.24
8 12 7 33.08 33.18 1.25
8 13 7 7.65 8.79 0.67
8 14 7 11.64 13.35 0.94
8 0 8 46.02 48.10 1.47
8 1 8 43.43 45.43 1.44
8 2 8 10.38 10.12 0.77
8 3 8 36.48 35.76 1.32
8 4 8 11.88 11.89 0.83
8 5 8 15.03 14.33 0.99
8 6 8 8.86 9.02 0.64
8 7 8 13.01 13.55 0.95
8 8 8 3.15 3.15 0.48
8 9 8 3.16 3.97 0.50
8 10 8 4.09 4.52 0.50
8 11 8 21.13 22.74 1.10
8 0 9 6.71 6.33 0.55
8 1 9 5.51 5.89 0.54
8 2 9 19.46 20.22 1.10
8 3 9 16.15 17.37 1.03
8 4 9 19.51 18.15 1.06
8 5 9 0.61 0.92 0.44
8 6 9 42.49 44.78 1.39
8 7 9 21.02 23.50 1.12
8 8 9 6.38 7.61 0.65
9 1 0 0.48 0.58 0.33
9 2 0 23.57 24.41 0.96
9 4 0 182.25 180.19 2.65
9 5 0 0.07 0.59 0.69
9 6 0 6.08 6.78 0.55
9 7 0 7.76 7.33 0.65
9 8 0 129.23 128.12 2.23
9 9 0 5.07 4.45 0.47
9 10 0 16.69 15.99 0.92
9 11 0 25.98 25.45 1.09
9 12 0 5.55 5.62 0.52
9 13 0 6.47 6.88 0.55
9 14 0 40.66 42.87 1.39
9 15 0 37.13 38.05 1.33
9 16 0 0.08 0.11 0.41
9 18 0 4.65 4.73 0.51
9 0 1 7.35 7.55 0.55
9 1 1 12.35 12.08 0.77
9 2 1 26.57 26.95 1.00
9 3 1 14.43 13.21 0.81
9 4 1 4.79 5.96 0.52
9 5 1 7.76 7.08 0.62
9 6 1 19.67 19.96 0.93
9 7 1 40.83 40.02 1.25
9 8 1 13.73 14.53 0.85
9 9 1 38.02 39.44 1.23
9 10 1 4.60 4.39 0.48
9 11 1 35.09 35.20 1.24
9 12 1 3.54 3.33 0.47
9 13 1 60.31 60.64 1.61
9 14 1 13.69 13.86 0.95
9 15 1 4.11 4.28 0.50
9 16 1 9.56 10.42 0.86
9 17 1 23.15 22.29 1.10
9 18 1 1.36 1.41 0.43
9 0 2 114.55 114.09 2.02
9 1 2 1.39 1.84 0.38
9 2 2 4.98 4.65 0.45
9 3 2 3.13 2.85 0.41
9 4 2 93.24 93.82 1.84
9 5 2 32.10 33.20 1.11
9 6 2 11.04 10.18 0.80
9 7 2 12.02 11.37 0.83
9 8 2 6.56 6.41 0.52
9 9 2 62.37 64.99 1.59
9 10 2 9.13 10.23 0.79
9 11 2 16.35 16.15 0.94
9 12 2 20.02 19.76 1.04
9 13 2 34.38 35.98 1.30
9 14 2 11.37 10.79 0.80
9 15 2 10.12 11.08 0.86
9 16 2 17.30 18.65 1.04
9 17 2 4.32 3.74 0.48
9 18 2 12.77 13.30 0.90
9 0 3 19.74 20.50 0.92
9 1 3 20.04 20.95 0.94
9 2 3 75.04 74.91 1.64
9 3 3 0.21 0.07 0.34
9 4 3 7.86 7.92 0.58
9 5 3 21.75 22.02 1.01
9 6 3 27.05 28.35 1.10
9 7 3 17.08 16.80 0.93
9 8 3 84.59 87.68 1.87
9 9 3 8.99 10.16 0.84
9 10 3 48.74 50.62 1.45
9 11 3 15.51 15.95 0.96
9 12 3 43.09 45.24 1.40
9 13 3 4.33 4.00 0.50
9 14 3 30.92 31.17 1.26
9 15 3 2.49 3.64 0.49
9 16 3 2.04 2.20 0.45
9 17 3 4.71 4.98 0.52
9 0 4 67.24 67.79 1.61
9 1 4 0.85 1.61 0.40
9 2 4 3.05 3.51 0.44
9 3 4 13.76 15.56 0.88
9 4 4 41.53 43.23 1.30
9 5 4 18.92 19.59 0.98
9 6 4 29.16 29.68 1.11
9 7 4 14.48 13.47 0.89
9 8 4 33.92 35.71 1.25
9 9 4 19.14 20.91 1.02
9 10 4 46.47 49.96 1.49
9 11 4 0.44 0.59 0.40
9 12 4 35.98 36.37 1.29
9 13 4 1.28 1.34 0.43
9 14 4 4.49 4.55 0.51
9 15 4 5.21 5.42 0.53
9 16 4 4.84 4.82 0.52
9 0 5 71.64 70.54 1.70
9 1 5 12.49 12.46 0.87
9 2 5 43.87 44.44 1.35
9 3 5 41.64 40.97 1.31
9 4 5 13.85 13.49 0.90
9 5 5 0.63 1.16 0.40
9 6 5 17.04 18.16 1.00
9 7 5 37.14 37.36 1.28
9 8 5 19.95 21.01 1.04
9 9 5 1.51 1.64 0.43
9 10 5 2.64 2.96 0.47
9 11 5 21.21 21.16 1.08
9 12 5 11.06 11.89 0.89
9 13 5 9.35 7.93 0.66
9 14 5 2.24 2.86 0.47
9 15 5 9.65 9.63 0.77
9 0 6 0.36 0.90 0.40
9 1 6 2.62 2.91 0.46
9 2 6 16.32 16.33 0.97
9 3 6 29.88 30.87 1.19
9 4 6 9.68 9.35 0.75
9 5 6 11.47 11.04 0.87
9 6 6 9.29 10.29 0.84
9 7 6 16.25 16.30 0.99
9 8 6 3.31 3.25 0.49
9 9 6 22.22 24.22 1.13
9 10 6 5.42 5.32 0.58
9 11 6 22.35 21.49 1.09
9 12 6 7.90 9.37 0.75
9 13 6 8.34 7.99 0.58
9 0 7 19.18 18.67 1.04
9 1 7 5.55 6.17 0.61
9 2 7 21.65 21.10 1.10
9 3 7 5.21 5.61 0.53
9 4 7 20.96 20.00 1.09
9 5 7 19.16 20.48 1.09
9 6 7 63.57 64.39 1.69
9 7 7 1.05 1.38 0.43
9 8 7 21.65 21.49 1.06
9 9 7 12.28 11.72 0.94
9 10 7 12.78 13.66 0.94
9 11 7 1.32 1.43 0.43
9 0 8 4.02 4.47 0.51
9 1 8 2.41 2.39 0.45
9 2 8 2.99 3.01 0.47
9 3 8 13.15 13.90 0.96
9 4 8 23.71 24.03 1.15
9 5 8 7.76 7.08 0.63
9 6 8 17.00 19.28 1.02
9 7 8 28.93 29.91 1.23
9 8 8 4.32 5.16 0.52
10 0 0 276.38 278.40 3.65
10 1 0 0.00 0.08 0.75
10 2 0 10.06 10.48 0.80
10 3 0 1.30 1.78 0.41
10 4 0 119.67 121.66 2.20
10 5 0 11.84 10.71 0.83
10 6 0 23.75 25.01 1.08
10 7 0 1.05 1.35 0.41
10 8 0 3.40 3.14 0.47
10 9 0 20.37 18.91 1.01
10 10 0 4.32 3.78 0.48
10 11 0 1.95 2.50 0.45
10 12 0 1.11 1.97 0.45
10 14 0 7.37 7.61 0.72
10 15 0 1.35 1.63 0.43
10 16 0 0.46 0.16 0.39
10 0 1 0.69 0.76 0.38
10 1 1 40.68 41.81 1.29
10 2 1 12.47 13.50 0.82
10 3 1 19.04 19.51 0.96
10 4 1 14.17 13.38 0.90
10 5 1 5.88 5.92 0.57
10 6 1 41.23 42.33 1.33
10 7 1 11.82 12.09 0.79
10 8 1 2.07 2.22 0.44
10 9 1 8.88 10.28 0.85
10 10 1 11.05 11.28 0.87
10 11 1 49.93 49.64 1.49
10 12 1 10.40 9.14 0.78
10 13 1 9.54 9.52 0.69
10 14 1 9.58 9.04 0.77
10 15 1 17.02 17.32 1.02
10 16 1 2.23 2.41 0.45
10 0 2 54.96 52.83 1.46
10 1 2 3.88 3.75 0.47
10 2 2 51.06 51.78 1.46
10 3 2 13.48 14.72 0.89
10 4 2 17.29 19.22 0.96
10 5 2 6.20 5.46 0.51
10 6 2 2.52 2.76 0.45
10 7 2 37.45 37.80 1.28
10 8 2 7.91 7.56 0.72
10 9 2 2.38 2.76 0.46
10 10 2 33.07 33.36 1.28
10 11 2 45.63 45.57 1.45
10 12 2 1.64 2.39 0.46
10 13 2 0.57 0.99 0.42
10 14 2 36.11 35.54 1.30
10 15 2 33.82 34.13 1.28
10 0 3 8.81 7.75 0.71
10 1 3 0.72 0.74 0.39
10 2 3 15.77 15.47 0.91
10 3 3 5.15 5.21 0.51
10 4 3 15.90 15.95 0.93
10 5 3 8.48 8.44 0.64
10 6 3 57.77 59.03 1.56
10 7 3 2.29 2.48 0.45
10 9 3 10.77 11.09 0.88
10 10 3 24.46 23.57 1.15
10 11 3 1.76 1.86 0.44
10 12 3 21.16 22.47 1.09
10 13 3 28.21 28.06 1.21
10 14 3 2.09 2.58 0.46
10 15 3 4.18 2.54 0.45
10 0 4 2.90 3.28 0.47
10 1 4 8.73 8.99 0.73
10 2 4 14.57 15.12 0.91
10 3 4 19.18 18.36 1.03
10 4 4 13.79 15.96 0.95
10 5 4 34.72 33.46 1.26
10 6 4 4.72 4.00 0.49
10 7 4 39.99 40.08 1.39
10 8 4 21.44 22.68 1.11
10 9 4 13.90 16.06 0.98
10 10 4 23.11 23.46 1.14
10 11 4 20.68 21.67 1.10
10 12 4 1.11 1.58 0.43
10 13 4 0.83 0.98 0.41
10 14 4 20.96 20.31 1.06
10 0 5 17.14 18.47 1.02
10 1 5 32.34 33.43 1.25
10 2 5 32.87 31.09 1.25
10 3 5 1.14 1.31 0.43
10 4 5 22.91 23.78 1.11
10 5 5 57.39 58.65 1.63
10 6 5 18.41 20.36 1.08
10 7 5 2.57 2.26 0.46
10 8 5 12.01 12.90 0.92
10 9 5 43.42 42.62 1.43
10 10 5 12.61 13.48 0.97
10 11 5 2.22 2.22 0.45
10 12 5 10.98 9.59 0.79
10 0 6 0.09 0.18 0.42
10 1 6 9.71 9.55 0.65
10 2 6 12.05 12.01 0.94
10 3 6 0.18 0.45 0.40
10 4 6 2.04 2.04 0.45
10 5 6 3.48 4.07 0.50
10 6 6 3.51 3.26 0.48
10 7 6 13.23 13.43 0.86
10 8 6 5.94 6.45 0.55
10 9 6 6.94 6.85 0.62
10 10 6 15.18 16.05 0.97
10 0 7 3.23 3.49 0.49
10 1 7 4.85 5.97 0.54
10 2 7 88.72 87.86 1.97
10 3 7 3.50 3.78 0.49
10 4 7 9.15 9.51 0.78
10 5 7 4.68 4.76 0.51
10 6 7 37.66 38.06 1.33
10 7 7 11.60 12.05 0.93
11 1 0 0.57 0.80 0.40
11 2 0 192.22 189.77 2.96
11 3 0 10.85 10.76 0.80
11 4 0 0.85 0.68 0.40
11 5 0 0.44 0.39 0.40
11 6 0 17.09 20.39 1.06
11 7 0 60.17 60.55 1.63
11 8 0 0.46 0.92 0.42
11 9 0 1.21 1.76 0.44
11 10 0 11.30 10.74 0.82
11 11 0 55.08 57.51 1.58
11 12 0 5.24 4.62 0.51
11 13 0 11.02 10.03 0.81
11 0 1 0.04 0.32 0.38
11 1 1 31.90 31.51 1.23
11 2 1 1.51 1.64 0.43
11 3 1 9.96 8.89 0.75
11 4 1 8.17 8.36 0.64
11 5 1 27.37 27.10 1.17
11 6 1 1.67 1.69 0.44
11 7 1 27.72 29.49 1.19
11 8 1 14.86 15.60 0.99
11 9 1 2.89 2.18 0.45
11 10 1 7.26 8.25 0.66
11 11 1 5.43 5.39 0.53
11 12 1 0.77 0.89 0.41
11 13 1 14.04 13.95 0.82
11 0 2 8.94 7.79 0.72
11 1 2 9.58 10.46 0.85
11 2 2 17.46 15.06 0.99
11 3 2 22.63 21.68 1.10
11 4 2 11.03 13.39 0.90
11 5 2 1.04 1.54 0.44
11 6 2 1.91 2.01 0.45
11 7 2 20.19 20.58 1.07
11 8 2 8.79 9.74 0.78
11 9 2 2.23 2.35 0.46
11 10 2 3.30 3.31 0.48
11 11 2 21.57 22.48 1.10
11 12 2 6.80 6.20 0.60
11 0 3 16.84 16.51 0.99
11 1 3 19.26 20.15 1.04
11 2 3 9.44 9.03 0.75
11 3 3 0.93 0.63 0.40
11 4 3 29.53 28.70 1.21
11 5 3 17.36 19.91 1.03
11 6 3 17.59 18.91 1.04
11 7 3 13.49 13.05 0.94
11 8 3 16.26 15.93 1.03
11 9 3 2.70 3.25 0.47
11 10 3 3.75 3.84 0.49
11 11 3 18.46 16.90 1.04
11 0 4 7.84 7.25 0.64
11 1 4 13.86 15.09 0.97
11 2 4 28.22 28.74 1.20
11 3 4 35.81 36.73 1.33
11 4 4 7.38 7.72 0.59
11 5 4 3.46 3.38 0.48
11 6 4 15.77 17.10 0.98
11 7 4 5.52 5.27 0.53
11 8 4 1.00 1.46 0.43
11 9 4 12.77 11.33 0.81
11 10 4 4.10 3.51 0.48
11 0 5 7.67 9.31 0.69
11 1 5 14.91 15.04 1.00
11 2 5 36.03 36.34 1.33
11 3 5 22.96 23.52 1.09
11 4 5 2.27 2.51 0.45
11 5 5 3.76 3.19 0.47
11 6 5 47.75 49.94 1.53
11 7 5 11.53 12.64 0.90
11 8 5 0.06 0.27 0.41
11 0 6 19.91 18.87 1.07
11 1 6 5.15 4.95 0.52
11 2 6 0.46 0.95 0.44
11 3 6 28.45 28.83 1.19
11 4 6 6.61 7.23 0.62
12 0 0 10.07 9.26 0.69
12 1 0 13.07 14.36 0.97
12 2 0 5.31 5.55 0.59
12 3 0 25.91 25.60 1.16
12 4 0 2.18 2.41 0.45
12 5 0 18.27 18.17 1.02
12 6 0 21.71 21.12 1.07
12 7 0 7.58 8.31 0.59
12 8 0 0.55 0.62 0.41
12 9 0 37.18 37.05 1.32
12 0 1 12.15 12.76 0.92
12 1 1 4.87 5.29 0.53
12 2 1 4.67 3.93 0.50
12 3 1 24.70 23.16 1.14
12 4 1 7.68 9.14 0.71
12 5 1 37.93 35.61 1.33
12 6 1 0.21 0.53 0.40
12 7 1 21.42 23.50 1.13
12 8 1 9.20 10.41 0.88
12 0 2 0.82 1.02 0.42
12 1 2 5.36 5.30 0.53
12 2 2 50.24 49.02 1.53
12 3 2 1.20 1.58 0.43
12 4 2 9.39 8.93 0.77
12 5 2 8.11 7.99 0.64
12 6 2 16.13 15.60 1.01
12 7 2 5.03 5.05 0.52
12 8 2 5.77 5.49 0.59
12 0 3 0.20 1.10 0.86
12 1 3 16.51 18.60 1.00
12 2 3 0.36 0.85 0.42
12 3 3 20.62 21.43 1.09
12 4 3 1.13 1.91 0.44
12 5 3 6.90 7.26 0.72
12 6 3 1.04 0.92 0.41
12 0 4 12.41 14.65 0.95
12 1 4 45.52 45.47 1.43
12 2 4 7.83 9.36 0.86
12 3 4 17.13 17.68 1.02
