#------------------------------------------------------------------------------
#$Date: 2022-03-02 05:20:08 +0200 (Wed, 02 Mar 2022) $
#$Revision: 273207 $
#$URL: file:///home/coder/svn-repositories/cod/cif/1/56/64/1566449.cif $
#------------------------------------------------------------------------------
#
# This file is available in the Crystallography Open Database (COD),
# http://www.crystallography.net/. The original data for this entry
# were provided by IUCr Journals, http://journals.iucr.org/.
#
# The file may be used within the scientific community so long as
# proper attribution is given to the journal article from which the
# data were obtained.
#
data_1566449
loop_
_publ_author_name
'Ruth, Paul Niklas'
'Herbst-Irmer, Regine'
'Stalke, Dietmar'
_publ_section_title
;
 Hirshfeld atom refinement based on projector augmented wave densities
 with periodic boundary conditions
;
_journal_issue                   2
_journal_name_full               IUCrJ
_journal_page_first              286
_journal_page_last               297
_journal_paper_doi               10.1107/S2052252522001385
_journal_volume                  9
_journal_year                    2022
_chemical_absolute_configuration syn
_chemical_formula_moiety         'C3 H7 N O2'
_chemical_formula_sum            'C3 H7 N O2'
_chemical_formula_weight         89.0947
_space_group_crystal_system      orthorhombic
_space_group_IT_number           19
_space_group_name_Hall           'P 2ac 2ab'
_space_group_name_H-M_alt        'P 21 21 21'
_atom_sites_solution_hydrogens   difmap
_audit_creation_method           'xHARPY 0.1'
_cell_angle_alpha                90
_cell_angle_beta                 90
_cell_angle_gamma                90
_cell_formula_units_Z            4
_cell_length_a                   5.9279(10)
_cell_length_b                   12.2597(17)
_cell_length_c                   5.7939(9)
_cell_measurement_reflns_used    1524
_cell_measurement_temperature    23
_cell_measurement_theta_max      22.5
_cell_measurement_theta_min      15.0
_cell_volume                     421.07(11)
_computing_publication_material  'xHARPY 0.1'
_computing_structure_refinement  'xHARPY 0.1'
_computing_structure_solution    'SHELXS-2013 (Sheldrick, 2008)'
_diffrn_ambient_temperature      23
_diffrn_measured_fraction_theta_full 0.994
_diffrn_measured_fraction_theta_max 0.993
_diffrn_measurement_device_type  'P-1 four circle diffractometer'
_diffrn_measurement_method       'area detector'
_diffrn_radiation_type           MoK\a
_diffrn_radiation_wavelength     0.71073
_diffrn_reflns_av_unetI/netI     0.0243
_diffrn_reflns_Laue_measured_fraction_full 0.994
_diffrn_reflns_Laue_measured_fraction_max 0.993
_diffrn_reflns_limit_h_max       12
_diffrn_reflns_limit_h_min       0
_diffrn_reflns_limit_k_max       26
_diffrn_reflns_limit_k_min       0
_diffrn_reflns_limit_l_max       12
_diffrn_reflns_limit_l_min       0
_diffrn_reflns_number            2519
_diffrn_reflns_point_group_measured_fraction_full 0.618
_diffrn_reflns_point_group_measured_fraction_max 0.567
_diffrn_reflns_theta_full        25.242
_diffrn_reflns_theta_max         50.138
_diffrn_reflns_theta_min         3.323
_exptl_absorpt_coefficient_mu    0.117
_exptl_absorpt_correction_type   none
_exptl_crystal_colour            colorless
_exptl_crystal_density_diffrn    1.405
_exptl_crystal_density_method    'not measured'
_exptl_crystal_description       sphere
_exptl_crystal_F_000             192
_exptl_crystal_size_rad          0.18
_refine_diff_density_max         0.2351
_refine_diff_density_min         -0.1889
_refine_diff_density_rms         0.0440
_refine_ls_extinction_method     none
_refine_ls_goodness_of_fit_ref   1.145
_refine_ls_hydrogen_treatment    refall
_refine_ls_matrix_type           full
_refine_ls_number_parameters     118
_refine_ls_number_reflns         2519
_refine_ls_number_restraints     0
_refine_ls_R_factor_all          0.0209
_refine_ls_R_factor_gt           0.0191
_refine_ls_shift/su_max          0.0
_refine_ls_shift/su_mean         0.0
_refine_ls_structure_factor_coef Fsqd
_refine_ls_weighting_details     w=1/[\s^2^(Fo^2^)]
_refine_ls_weighting_scheme      sigma
_refine_ls_wR_factor_gt          0.0319
_refine_ls_wR_factor_ref         0.0322
_reflns_Friedel_coverage         0.0
_reflns_Friedel_fraction_full    0.0
_reflns_Friedel_fraction_max     0.0
_reflns_number_gt                2393
_reflns_number_total             2519
_reflns_threshold_expression     'I > 2\s(I)'
_cod_data_source_file            fc5060.cif
_cod_data_source_block           A23_xHARPy_RPBE_lcao_spherical
_cod_database_code               1566449
loop_
_space_group_symop_operation_xyz
'x, y, z'
'-x+1/2, -y, z+1/2'
'x+1/2, -y+1/2, -z'
'-x, y+1/2, -z+1/2'
loop_
_atom_site_label
_atom_site_type_symbol
_atom_site_fract_x
_atom_site_fract_y
_atom_site_fract_z
_atom_site_U_iso_or_equiv
_atom_site_adp_type
_atom_site_occupancy
_atom_site_site_symmetry_order
O1 O 0.72669(4) 0.083815(17) 0.62433(4) 0.00658(3) Uani 1.0 1
O2 O 0.44099(4) 0.184013(17) 0.76109(4) 0.00639(3) Uani 1.0 1
N1 N 0.64724(4) 0.13751(2) 0.18300(5) 0.00532(3) Uani 1.0 1
H1 H 0.7029(11) 0.0601(6) 0.1951(14) 0.0199(19) Uani 1.0 1
H2 H 0.7798(11) 0.1897(5) 0.2079(14) 0.0162(17) Uani 1.0 1
H3 H 0.5832(12) 0.1483(5) 0.0157(12) 0.0187(18) Uani 1.0 1
C1 C 0.46631(4) 0.16108(2) 0.35446(5) 0.00450(4) Uani 1.0 1
H4 H 0.4242(9) 0.2473(4) 0.3392(11) 0.0174(15) Uani 1.0 1
C2 C 0.25991(5) 0.09069(2) 0.30335(6) 0.00699(4) Uani 1.0 1
H5 H 0.1939(10) 0.1100(5) 0.1326(12) 0.0258(19) Uani 1.0 1
H6 H 0.1288(10) 0.1055(5) 0.4292(13) 0.0247(18) Uani 1.0 1
H7 H 0.3050(10) 0.0048(5) 0.3079(14) 0.0270(20) Uani 1.0 1
C3 C 0.55408(5) 0.14079(2) 0.59994(5) 0.00427(3) Uani 1.0 1
loop_
_atom_site_aniso_label
_atom_site_aniso_U_11
_atom_site_aniso_U_22
_atom_site_aniso_U_33
_atom_site_aniso_U_23
_atom_site_aniso_U_13
_atom_site_aniso_U_12
O1 0.00684(7) 0.00718(7) 0.00571(8) 0.00049(6) -0.00058(6) 0.00239(6)
O2 0.00756(7) 0.00752(6) 0.00408(8) -0.00052(6) 0.00057(6) 0.00196(6)
N1 0.00558(7) 0.00608(7) 0.00428(8) -0.00007(6) 0.00048(6) 0.00007(6)
H1 0.020(4) 0.027(4) 0.013(5) 0.001(4) 0.009(4) 0.001(3)
H2 0.011(3) 0.021(4) 0.017(5) 0.002(4) 0.005(4) 0.003(3)
H3 0.036(5) 0.014(4) 0.006(4) -0.006(3) 0.007(4) -0.014(4)
C1 0.00510(8) 0.00476(7) 0.00365(9) 0.00005(6) -0.00030(7) 0.00044(6)
H4 0.019(3) 0.015(3) 0.017(4) 0.003(3) 0.003(3) 0.010(3)
C2 0.00587(9) 0.00893(9) 0.00617(10) -0.00041(8) -0.00060(8) -0.00133(8)
H5 0.023(4) 0.041(5) 0.013(4) 0.008(4) -0.011(3) -0.012(4)
H6 0.016(3) 0.031(4) 0.027(5) 0.003(4) 0.004(4) -0.004(3)
H7 0.028(5) 0.016(3) 0.037(5) -0.004(3) 0.002(4) -0.006(3)
C3 0.00503(7) 0.00431(7) 0.00347(9) 0.00003(6) -0.00032(7) 0.00019(7)
loop_
_atom_type_symbol
_atom_type_description
_atom_type_scat_dispersion_real
_atom_type_scat_dispersion_imag
_atom_type_scat_source
C C 0.0033 0.0016 'International Tables Vol C Tables 4.2.6.8 and 6.1.1.4'
H H 0.0000 0.0000 'International Tables Vol C Tables 4.2.6.8 and 6.1.1.4'
N N 0.0061 0.0033 'International Tables Vol C Tables 4.2.6.8 and 6.1.1.4'
O O 0.0106 0.0060 'International Tables Vol C Tables 4.2.6.8 and 6.1.1.4'
loop_
_geom_angle_atom_site_label_1
_geom_angle_atom_site_label_2
_geom_angle_atom_site_label_3
_geom_angle
C1 N1 H1 111.9(4)
C1 N1 H2 109.7(4)
H1 N1 H2 109.1(5)
C1 N1 H3 109.3(4)
H1 N1 H3 107.6(6)
H2 N1 H3 109.2(5)
C3 C1 N1 110.02(2)
C3 C1 C2 111.10(2)
N1 C1 C2 109.75(3)
C3 C1 H4 108.1(3)
N1 C1 H4 107.4(3)
C2 C1 H4 110.4(3)
C1 C2 H5 109.9(3)
C1 C2 H6 110.5(3)
H5 C2 H6 108.5(4)
C1 C2 H7 110.2(3)
H5 C2 H7 108.7(5)
H6 C2 H7 108.8(5)
O2 C3 O1 125.84(3)
O2 C3 C1 115.86(3)
O1 C3 C1 118.29(2)
loop_
_geom_bond_atom_site_label_1
_geom_bond_atom_site_label_2
_geom_bond_distance
O1 C3 1.2469(4)
O2 C3 1.2657(4)
N1 C1 1.4903(4)
N1 H1 1.007(7)
N1 H2 1.024(7)
N1 H3 1.049(7)
C1 C3 1.5348(5)
C1 C2 1.5263(4)
C1 H4 1.090(5)
C2 H5 1.090(7)
C2 H6 1.081(7)
C2 H7 1.087(6)
loop_
_refln_index_h
_refln_index_k
_refln_index_l
_refln_F_squared_calc
_refln_F_squared_meas
_refln_F_squared_sigma
0 2 0 181.69 183.39 1.75
0 4 0 5409.71 5174.67 44.35
0 6 0 89.26 89.50 1.04
0 8 0 45.79 45.26 0.72
0 10 0 0.50 0.80 0.34
0 12 0 234.29 232.28 2.66
0 14 0 56.48 58.44 1.12
0 16 0 24.02 25.19 0.85
0 18 0 225.15 227.16 2.97
0 20 0 0.01 0.22 0.34
0 22 0 133.85 135.25 2.35
0 24 0 0.06 0.23 0.38
0 26 0 5.55 6.43 0.61
0 1 1 732.47 722.89 7.31
0 2 1 119.43 119.29 1.22
0 3 1 695.45 707.09 6.39
0 4 1 94.80 98.07 1.06
0 5 1 0.38 0.23 0.16
0 6 1 474.66 473.97 4.57
0 7 1 36.52 36.85 0.61
0 8 1 44.37 44.27 0.73
0 9 1 33.49 32.02 0.66
0 10 1 134.79 137.02 1.69
0 11 1 67.67 66.58 1.11
0 12 1 75.04 76.19 1.23
0 13 1 19.44 18.80 0.69
0 14 1 39.01 37.83 0.94
0 15 1 90.94 90.78 1.56
0 16 1 0.39 2.38 9.18
0 17 1 0.86 1.13 0.35
0 18 1 60.70 59.75 1.36
0 19 1 15.64 16.12 0.89
0 20 1 27.94 27.38 1.05
0 21 1 2.11 2.68 0.42
0 23 1 1.72 1.73 0.42
0 24 1 0.04 0.16 0.38
0 25 1 2.34 2.98 0.56
0 26 1 19.82 19.74 1.23
0 0 2 2912.31 2836.45 33.24
0 1 2 517.55 532.05 6.54
0 2 2 173.62 181.19 2.07
0 3 2 56.46 56.07 0.79
0 4 2 170.03 170.85 1.79
0 5 2 556.22 565.64 5.31
0 6 2 92.28 96.51 1.17
0 7 2 4.83 5.41 0.34
0 8 2 108.84 111.49 1.40
0 9 2 21.60 23.64 0.60
0 10 2 46.13 46.16 0.86
0 11 2 83.89 83.60 1.26
0 12 2 27.93 28.19 0.75
0 13 2 21.40 21.45 0.70
0 14 2 22.05 21.25 0.75
0 15 2 182.52 180.94 2.38
0 16 2 4.05 4.44 0.41
0 17 2 63.11 60.94 1.38
0 18 2 19.43 20.36 0.91
0 19 2 118.05 119.63 2.09
0 20 2 0.94 0.97 0.41
0 21 2 46.19 45.84 1.36
0 22 2 37.37 36.74 1.29
0 23 2 16.92 17.97 1.02
0 24 2 1.84 2.49 0.45
0 25 2 21.60 22.42 1.26
0 26 2 1.70 2.55 0.50
0 1 3 82.36 83.81 1.74
0 2 3 154.15 157.43 2.92
0 3 3 201.55 205.00 2.45
0 4 3 715.43 737.46 7.75
0 5 3 79.35 81.14 1.19
0 6 3 264.86 271.78 2.84
0 7 3 22.05 22.35 0.57
0 8 3 60.47 61.52 0.99
0 9 3 145.13 142.43 1.78
0 10 3 38.65 39.53 0.83
0 11 3 69.59 70.22 1.18
0 12 3 119.17 118.66 1.69
0 13 3 143.42 145.20 1.99
0 14 3 28.80 27.76 0.85
0 15 3 91.31 90.27 1.58
0 16 3 156.03 154.46 2.26
0 17 3 48.49 47.11 1.24
0 18 3 27.89 26.94 0.99
0 19 3 3.16 2.50 0.41
0 20 3 43.72 44.34 1.34
0 21 3 0.83 0.87 0.38
0 22 3 0.60 1.16 0.41
0 23 3 26.39 28.10 1.16
0 24 3 12.02 12.69 0.91
0 25 3 5.72 4.97 0.58
0 0 4 208.14 209.23 3.89
0 1 4 37.66 39.74 1.20
0 2 4 92.10 92.86 2.05
0 3 4 7.80 7.98 0.45
0 4 4 223.26 228.98 2.83
0 5 4 0.41 0.67 0.37
0 6 4 69.94 70.78 1.23
0 7 4 29.60 29.15 0.78
0 8 4 64.02 64.35 1.07
0 9 4 7.55 7.18 0.46
0 10 4 89.20 90.15 1.38
0 11 4 98.74 97.77 1.51
0 12 4 39.47 38.92 0.96
0 13 4 11.28 11.46 0.65
0 14 4 143.04 142.12 2.08
0 15 4 46.39 45.17 1.18
0 16 4 94.16 94.47 1.74
0 17 4 5.33 5.70 0.46
0 18 4 10.14 9.61 0.74
0 19 4 3.87 3.35 0.44
0 20 4 1.69 1.83 0.41
0 21 4 0.48 0.19 0.37
0 22 4 3.55 4.34 0.49
0 23 4 0.03 0.12 0.40
0 24 4 26.07 26.52 1.13
0 25 4 2.16 2.89 0.51
0 1 5 242.72 235.60 4.51
0 2 5 141.94 136.98 2.95
0 3 5 49.36 49.11 1.53
0 4 5 387.50 388.25 4.57
0 5 5 180.84 177.34 2.43
0 6 5 0.65 0.77 0.41
0 7 5 7.75 6.61 0.53
0 8 5 149.96 144.92 2.17
0 9 5 75.02 69.21 1.42
0 10 5 9.38 7.94 0.55
0 11 5 22.35 20.70 0.78
0 12 5 1.28 1.48 0.33
0 13 5 78.69 79.01 1.50
0 14 5 2.65 3.51 0.41
0 15 5 13.41 14.07 0.79
0 16 5 14.02 13.25 0.79
0 17 5 73.65 76.86 1.65
0 18 5 2.78 2.33 0.42
0 19 5 14.34 13.59 0.89
0 20 5 0.17 0.30 0.40
0 21 5 21.25 19.59 1.04
0 22 5 4.68 5.48 0.53
0 23 5 14.21 12.50 0.96
0 24 5 0.37 0.26 0.38
0 0 6 0.50 0.78 0.62
0 1 6 93.20 93.55 2.44
0 2 6 15.62 16.17 1.02
0 3 6 0.92 1.48 0.65
0 4 6 16.59 15.95 1.08
0 5 6 84.39 86.07 1.57
0 6 6 12.12 11.15 0.65
0 7 6 144.17 141.75 2.24
0 8 6 31.29 29.94 0.99
0 9 6 12.59 14.32 0.77
0 10 6 15.67 15.58 0.82
0 11 6 119.37 116.96 1.89
0 12 6 6.28 6.30 0.55
0 13 6 4.36 4.77 0.48
0 14 6 10.99 11.66 0.73
0 15 6 0.03 0.09 0.34
0 16 6 43.34 41.45 1.28
0 17 6 29.35 29.06 1.11
0 18 6 6.82 7.78 0.68
0 19 6 43.21 44.12 1.39
0 20 6 1.38 1.83 0.43
0 21 6 22.48 21.25 1.08
0 22 6 10.49 10.56 0.77
0 23 6 17.04 16.97 0.99
0 1 7 60.14 58.65 2.05
0 2 7 547.59 540.06 9.70
0 3 7 0.01 0.47 0.77
0 4 7 12.15 11.76 1.10
0 5 7 24.25 24.03 1.43
0 6 7 43.00 43.08 1.22
0 7 7 48.08 46.55 1.28
0 8 7 1.69 1.94 0.43
0 9 7 4.33 4.93 0.51
0 10 7 10.20 9.20 0.81
0 11 7 29.98 31.33 1.18
0 12 7 5.18 5.83 0.64
0 13 7 13.00 11.62 0.79
0 14 7 1.04 1.47 0.38
0 16 7 83.39 81.52 1.81
0 17 7 0.48 1.05 0.40
0 18 7 1.46 2.30 0.44
0 19 7 5.10 6.85 0.55
0 20 7 137.85 134.95 2.44
0 21 7 0.44 0.91 0.39
0 0 8 25.75 24.43 1.51
0 1 8 2.85 3.58 0.95
0 2 8 9.74 8.69 1.14
0 3 8 16.33 15.68 1.34
0 4 8 1.90 1.73 0.95
0 6 8 10.53 10.25 0.82
0 7 8 58.04 59.51 1.56
0 8 8 89.08 87.32 1.92
0 9 8 11.33 12.24 0.87
0 10 8 5.14 6.53 0.70
0 11 8 40.79 40.01 1.40
0 12 8 40.53 40.14 1.44
0 13 8 32.43 32.08 1.34
0 14 8 11.08 12.51 0.98
0 15 8 0.07 0.55 0.38
0 16 8 0.53 1.00 0.40
0 17 8 7.17 6.56 0.55
0 18 8 0.26 0.58 0.40
0 19 8 10.29 9.21 0.77
0 20 8 5.76 6.14 0.53
0 1 9 6.82 8.50 1.16
0 2 9 47.73 46.28 2.19
0 3 9 62.34 63.21 2.52
0 4 9 21.13 22.17 1.62
0 5 9 1.35 1.65 0.96
0 6 9 1.35 1.58 0.98
0 7 9 47.08 46.43 1.52
0 8 9 79.17 79.49 1.94
0 9 9 17.08 16.44 1.07
0 10 9 13.99 13.82 1.02
0 11 9 1.82 2.24 0.53
0 12 9 35.60 34.81 1.39
0 13 9 28.83 29.09 1.34
0 14 9 0.64 0.28 0.49
0 15 9 46.46 47.21 1.64
0 16 9 13.28 14.43 1.09
0 17 9 15.22 15.49 0.99
0 18 9 8.51 8.57 0.64
0 0 10 5.09 4.80 1.23
0 1 10 0.00 0.01 1.00
0 2 10 21.03 20.66 1.73
0 3 10 48.97 48.86 2.41
0 4 10 27.31 28.28 1.94
0 5 10 32.70 32.63 2.05
0 6 10 41.13 41.53 2.32
0 7 10 53.95 54.24 2.60
0 8 10 58.02 60.08 1.80
0 9 10 6.70 6.72 0.66
0 10 10 1.22 1.86 0.52
0 11 10 17.68 16.35 1.14
0 12 10 12.01 13.40 0.93
0 13 10 11.71 12.51 1.05
0 14 10 46.32 43.48 1.62
0 15 10 5.06 5.84 0.65
0 1 11 0.66 0.48 1.22
0 2 11 2.03 2.69 1.23
0 3 11 7.77 6.78 1.48
0 4 11 1.24 0.91 1.29
0 5 11 1.49 0.89 1.29
0 6 11 8.90 7.71 1.53
0 7 11 2.49 3.09 1.35
0 8 11 7.50 8.38 1.53
0 9 11 7.56 7.98 0.77
0 10 11 0.78 1.57 0.54
0 11 11 9.28 8.33 0.84
0 12 11 31.37 30.10 1.40
0 0 12 0.06 2.48 9.18
0 1 12 28.69 26.96 2.25
0 2 12 19.09 20.16 1.96
0 3 12 117.75 115.98 3.95
0 4 12 0.35 0.42 1.41
0 5 12 9.28 9.76 1.71
0 6 12 55.01 55.67 2.75
0 7 12 68.25 64.69 3.03
1 1 0 250.55 251.01 2.36
1 2 0 5410.84 5476.47 57.99
1 3 0 59.11 58.99 0.69
1 4 0 1720.31 1675.34 14.74
1 5 0 332.02 337.75 3.28
1 6 0 63.44 61.76 0.79
1 7 0 19.02 19.22 0.44
1 8 0 391.82 401.39 3.99
1 9 0 2.74 3.25 0.34
1 10 0 41.77 42.98 0.80
1 11 0 94.17 96.70 1.35
1 12 0 25.07 26.87 0.71
1 13 0 57.59 57.22 1.08
1 14 0 1.49 0.86 0.43
1 15 0 85.22 86.15 1.47
1 16 0 24.19 24.41 0.85
1 17 0 30.02 29.49 0.96
1 18 0 0.83 0.93 0.38
1 19 0 34.13 33.66 1.10
1 20 0 42.10 40.20 1.24
1 21 0 1.25 1.43 0.43
1 22 0 3.71 3.99 0.47
1 23 0 6.20 6.99 0.60
1 24 0 10.01 9.77 0.79
1 26 0 6.83 7.31 0.64
1 0 1 73.02 76.64 0.83
1 1 1 130.28 133.32 1.35
1 2 1 101.69 103.93 1.10
1 3 1 1088.43 1085.59 9.66
1 4 1 155.27 156.74 1.64
1 5 1 437.43 437.07 4.22
1 6 1 21.01 21.85 0.44
1 7 1 333.53 338.73 3.40
1 8 1 231.17 234.16 2.48
1 9 1 230.53 231.86 2.52
1 10 1 134.22 130.98 1.67
1 11 1 17.67 17.11 0.56
1 12 1 1.27 0.36 0.36
1 13 1 127.37 127.40 1.77
1 14 1 29.44 29.52 0.83
1 15 1 88.83 87.46 1.52
1 16 1 61.67 61.67 1.29
1 17 1 25.18 25.38 0.90
1 18 1 23.44 23.74 0.93
1 19 1 14.53 15.28 0.83
1 20 1 6.34 5.82 0.48
1 21 1 1.44 2.06 0.41
1 22 1 33.38 34.70 1.20
1 23 1 9.45 10.64 0.89
1 24 1 21.93 20.90 1.07
1 25 1 8.63 9.48 0.82
1 26 1 0.78 2.00 0.48
1 0 2 3292.06 3099.79 36.07
1 1 2 68.70 71.54 0.94
1 2 2 565.77 571.42 6.11
1 3 2 194.89 193.75 2.02
1 4 2 1059.07 1062.35 9.61
1 5 2 18.49 18.57 0.41
1 6 2 215.29 219.10 2.31
1 7 2 162.77 161.76 1.82
1 8 2 10.55 10.23 0.43
1 9 2 58.53 61.70 0.98
1 10 2 59.24 59.37 1.00
1 11 2 116.77 117.74 1.59
1 12 2 117.45 115.21 1.62
1 13 2 112.03 110.02 1.63
1 14 2 54.80 54.62 1.13
1 15 2 30.59 31.58 0.92
1 16 2 29.01 27.58 0.94
1 17 2 77.74 75.59 1.52
1 18 2 108.96 109.91 1.92
1 19 2 40.19 41.14 1.20
1 20 2 10.29 9.69 0.70
1 21 2 21.94 22.83 1.02
1 22 2 38.70 36.52 1.27
1 23 2 43.32 43.33 1.42
1 24 2 9.77 10.63 0.79
1 25 2 0.08 0.15 0.43
1 26 2 3.77 4.49 0.55
1 0 3 30.45 31.99 0.92
1 1 3 294.66 302.04 5.22
1 2 3 222.42 224.38 2.63
1 3 3 88.75 91.58 1.28
1 4 3 92.30 95.50 1.34
1 5 3 22.84 23.00 0.53
1 6 3 133.70 137.88 1.63
1 7 3 4.91 5.17 0.38
1 8 3 254.68 257.20 2.80
1 9 3 29.01 28.97 0.70
1 10 3 78.71 79.55 1.24
1 11 3 15.48 16.64 0.60
1 12 3 31.94 32.24 0.83
1 13 3 35.20 33.75 0.90
1 14 3 114.94 114.66 1.78
1 15 3 34.03 33.43 0.98
1 16 3 9.86 9.28 0.61
1 17 3 25.95 24.98 0.94
1 18 3 27.67 26.48 1.00
1 19 3 27.61 27.17 1.05
1 20 3 7.94 7.75 0.66
1 21 3 24.05 23.54 1.05
1 22 3 6.54 7.19 0.61
1 23 3 2.91 2.74 0.45
1 24 3 8.00 8.12 0.64
1 25 3 15.55 17.88 1.16
1 0 4 328.45 327.84 5.82
1 1 4 249.79 259.62 4.72
1 2 4 27.26 28.70 1.05
1 3 4 22.77 23.37 0.64
1 4 4 108.33 109.50 1.57
1 5 4 81.11 83.55 1.34
1 6 4 130.68 130.15 1.87
1 7 4 84.76 83.58 1.23
1 8 4 45.85 45.10 0.88
1 9 4 2.22 2.17 0.38
1 10 4 21.75 22.67 0.70
1 11 4 64.27 62.25 1.17
1 12 4 145.53 140.65 1.99
1 13 4 25.83 27.09 0.85
1 14 4 42.08 39.35 1.06
1 15 4 2.17 2.97 0.39
1 16 4 22.20 23.54 0.91
1 17 4 26.74 28.05 1.01
1 18 4 56.82 58.49 1.46
1 19 4 39.93 40.74 1.25
1 20 4 8.96 9.23 0.79
1 21 4 11.20 10.78 0.78
1 22 4 20.81 21.74 1.05
1 23 4 14.76 15.05 0.96
1 24 4 2.25 2.14 0.43
1 0 5 288.06 284.10 5.30
1 1 5 120.15 122.23 2.71
1 2 5 467.88 462.99 8.11
1 3 5 180.16 176.02 3.63
1 4 5 111.64 107.94 1.68
1 5 5 8.58 8.55 0.53
1 6 5 228.67 229.39 3.01
1 7 5 74.72 72.84 1.39
1 8 5 70.51 69.22 1.37
1 9 5 92.46 89.91 1.46
1 10 5 9.97 9.51 0.58
1 11 5 35.16 35.80 0.95
1 12 5 25.20 25.04 0.86
1 13 5 44.76 44.66 1.15
1 14 5 39.66 40.14 1.12
1 15 5 29.63 29.80 1.02
1 16 5 74.63 78.49 1.63
1 17 5 11.28 11.44 0.80
1 18 5 7.42 6.95 0.65
1 19 5 18.01 18.65 0.97
1 20 5 65.43 64.57 1.64
1 21 5 25.15 25.07 1.11
1 22 5 1.55 1.73 0.43
1 23 5 3.44 4.57 0.50
1 24 5 18.04 17.41 1.00
1 0 6 0.61 0.07 0.63
1 1 6 0.49 0.89 0.62
1 2 6 7.92 7.54 0.83
1 3 6 12.96 12.40 0.99
1 4 6 16.83 15.97 1.08
1 5 6 12.70 13.27 0.67
1 6 6 21.77 21.85 0.82
1 7 6 7.57 7.77 0.62
1 8 6 10.10 9.08 0.68
1 9 6 11.65 11.06 0.77
1 10 6 2.83 2.43 0.44
1 11 6 10.90 9.82 0.68
1 12 6 29.66 28.96 0.96
1 13 6 7.59 7.53 0.60
1 14 6 27.69 27.97 1.00
1 15 6 11.86 10.99 0.81
1 16 6 2.96 2.98 0.43
1 17 6 21.03 21.49 1.00
1 18 6 13.92 13.84 0.89
1 19 6 11.04 11.79 0.86
1 20 6 33.50 31.55 1.24
1 21 6 9.04 9.39 0.77
1 22 6 10.03 8.61 0.76
1 23 6 11.69 12.02 0.88
1 0 7 248.33 247.56 5.14
1 1 7 25.92 26.81 1.45
1 2 7 59.17 61.27 2.11
1 3 7 79.18 81.33 2.49
1 4 7 144.18 141.11 3.51
1 5 7 29.08 30.54 1.04
1 6 7 63.27 61.65 1.47
1 7 7 10.20 9.50 0.77
1 8 7 57.63 56.27 1.45
1 9 7 68.44 67.28 1.61
1 10 7 18.27 18.74 0.96
1 11 7 21.59 21.81 0.91
1 12 7 2.58 1.91 0.46
1 13 7 41.27 42.29 1.25
1 14 7 26.07 24.59 1.05
1 15 7 34.32 32.28 1.17
1 16 7 23.24 25.83 1.07
1 17 7 19.36 20.48 1.01
1 18 7 45.03 43.00 1.39
1 19 7 6.89 6.74 0.61
1 20 7 14.43 15.43 0.99
1 21 7 9.21 9.30 0.66
1 0 8 9.93 10.43 1.20
1 1 8 33.67 35.30 1.79
1 2 8 19.56 19.83 1.43
1 3 8 30.89 32.08 1.71
1 4 8 33.40 32.75 1.75
1 5 8 103.40 102.15 3.11
1 6 8 15.99 15.03 0.92
1 7 8 94.51 91.27 1.96
1 8 8 3.76 3.24 0.49
1 9 8 50.61 51.19 1.52
1 10 8 41.84 39.70 1.38
1 11 8 94.18 95.45 2.12
1 12 8 12.75 11.76 0.97
1 13 8 28.53 28.29 1.27
1 14 8 2.02 1.20 0.50
1 15 8 43.58 46.24 1.38
1 16 8 5.31 5.58 0.52
1 17 8 29.21 26.80 1.18
1 18 8 4.52 5.45 0.52
1 19 8 1.87 2.27 0.44
1 20 8 0.05 0.11 0.39
1 0 9 0.12 0.04 0.93
1 1 9 3.16 2.23 1.00
1 2 9 49.83 51.50 2.27
1 3 9 1.19 1.63 0.98
1 4 9 3.79 3.25 1.13
1 5 9 27.76 28.57 1.83
1 6 9 8.79 10.04 1.30
1 7 9 14.67 15.86 1.01
1 8 9 8.03 8.34 0.74
1 9 9 19.55 19.82 1.12
1 10 9 31.18 29.56 1.31
1 11 9 44.95 46.07 1.58
1 12 9 8.24 8.94 0.82
1 13 9 16.88 16.08 1.13
1 14 9 7.42 7.92 0.82
1 15 9 21.62 22.22 1.24
1 16 9 42.90 42.91 1.58
1 17 9 18.01 18.29 1.05
1 18 9 11.70 11.56 0.89
1 0 10 2.74 3.48 1.17
1 1 10 24.19 25.71 1.87
1 2 10 2.23 1.56 1.12
1 3 10 17.51 20.14 1.71
1 4 10 21.51 21.69 1.82
1 5 10 32.96 32.67 2.09
1 6 10 40.33 41.58 2.31
1 7 10 32.78 31.68 2.10
1 8 10 24.35 24.51 1.25
1 9 10 7.52 7.38 0.81
1 10 10 60.52 55.94 1.80
1 11 10 15.34 16.29 1.14
1 12 10 48.29 45.54 1.64
1 13 10 0.10 0.23 0.51
1 14 10 7.65 6.57 0.67
1 15 10 11.01 10.53 0.88
1 0 11 1.52 0.81 1.29
1 1 11 13.63 12.00 1.61
1 2 11 34.51 33.80 2.26
1 3 11 23.92 23.39 1.95
1 4 11 11.83 11.89 1.62
1 5 11 5.15 6.14 1.45
1 6 11 2.86 3.95 1.35
1 7 11 7.78 8.60 1.58
1 8 11 16.66 15.62 1.18
1 9 11 25.01 23.51 1.31
1 10 11 19.33 18.72 1.22
1 11 11 2.77 3.60 0.59
1 12 11 0.75 1.62 0.53
1 0 12 16.36 17.86 1.92
1 1 12 75.15 75.95 3.18
1 2 12 9.22 8.29 1.74
1 3 12 3.05 3.23 1.56
1 4 12 27.68 29.03 2.21
1 5 12 70.83 68.57 3.11
1 6 12 2.72 2.85 1.52
1 7 12 24.03 22.85 2.08
2 0 0 41.14 41.85 0.54
2 1 0 31.78 31.06 0.44
2 2 0 1730.86 1675.31 14.76
2 3 0 803.49 784.98 7.16
2 4 0 35.75 35.77 0.53
2 5 0 92.31 90.95 1.08
2 6 0 2108.52 2076.94 18.44
2 7 0 292.07 293.14 3.00
2 8 0 0.40 0.76 0.30
2 9 0 235.73 234.47 2.58
2 10 0 245.43 253.83 2.78
2 11 0 2.11 2.41 0.36
2 12 0 45.30 43.31 0.91
2 13 0 166.56 167.62 2.14
2 14 0 12.12 10.91 0.60
2 15 0 70.90 69.81 1.33
2 16 0 38.74 36.92 1.02
2 17 0 36.88 35.61 1.05
2 18 0 43.58 43.61 1.20
2 19 0 36.24 37.68 1.16
2 20 0 1.62 0.92 0.37
2 21 0 8.49 7.72 0.64
2 22 0 15.66 15.09 0.93
2 23 0 10.68 11.14 0.88
2 24 0 32.81 32.32 1.24
2 25 0 3.21 4.11 0.58
2 26 0 0.98 1.07 0.45
2 0 1 1.42 1.63 0.16
2 1 1 78.12 77.85 0.88
2 2 1 277.71 276.85 2.72
2 3 1 523.36 535.36 5.04
2 4 1 153.13 157.48 1.66
2 5 1 415.27 425.91 4.14
2 6 1 22.68 22.87 0.48
2 7 1 94.89 97.78 1.23
2 8 1 4.30 4.83 0.36
2 9 1 272.05 272.64 2.94
2 10 1 9.11 8.69 0.46
2 11 1 4.84 4.74 0.43
2 12 1 41.33 40.61 0.89
2 13 1 81.93 79.66 1.35
2 14 1 43.86 44.64 1.02
2 15 1 21.94 23.70 0.81
2 16 1 3.60 3.55 0.39
2 17 1 11.69 10.05 0.69
2 18 1 10.50 9.93 0.72
2 19 1 29.06 29.18 1.06
2 20 1 70.23 71.52 1.63
2 21 1 26.99 28.82 1.12
2 22 1 23.40 23.29 1.07
2 23 1 2.90 2.56 0.44
2 24 1 37.88 41.06 1.34
2 25 1 22.51 22.95 1.32
2 26 1 29.72 30.41 1.45
2 0 2 4.63 4.19 0.22
2 1 2 305.69 308.01 3.04
2 2 2 1079.78 1082.30 9.80
2 3 2 109.15 106.88 1.25
2 4 2 88.30 88.90 1.09
2 5 2 7.96 8.38 0.35
2 6 2 282.10 291.53 3.01
2 7 2 139.39 140.11 1.66
2 8 2 140.91 143.81 1.75
2 9 2 128.74 127.90 1.62
2 10 2 2.49 2.65 0.37
2 11 2 64.74 63.99 1.12
2 12 2 57.25 57.20 1.08
2 13 2 72.81 73.36 1.30
2 14 2 32.41 33.76 0.91
2 15 2 32.69 31.76 0.93
2 16 2 77.12 73.10 1.46
2 17 2 0.12 0.07 0.33
2 18 2 9.75 10.79 0.73
2 19 2 1.26 1.13 0.36
2 20 2 31.12 31.79 1.12
2 21 2 29.23 30.19 1.16
2 22 2 3.17 3.56 0.47
2 23 2 1.76 2.53 0.45
2 24 2 9.25 8.70 0.76
2 25 2 40.54 39.85 1.66
2 0 3 134.43 131.85 1.53
2 1 3 137.54 140.14 1.58
2 2 3 375.36 382.98 3.80
2 3 3 444.52 447.44 4.42
2 4 3 64.19 65.73 0.94
2 5 3 247.92 248.96 2.66
2 6 3 88.57 90.86 1.23
2 7 3 105.15 108.43 1.41
2 8 3 119.42 119.45 1.54
2 9 3 288.62 288.98 3.18
2 10 3 251.89 256.55 2.92
2 11 3 12.02 11.99 0.58
2 12 3 84.42 84.35 1.41
2 13 3 43.47 43.80 1.03
2 14 3 49.59 48.11 1.13
2 15 3 16.87 16.94 0.79
2 16 3 2.29 2.78 0.39
2 17 3 11.11 12.74 0.75
2 18 3 2.72 2.10 0.38
2 19 3 38.78 38.80 1.22
2 20 3 9.03 9.86 0.67
2 21 3 43.38 43.26 1.37
2 22 3 8.95 7.79 0.72
2 23 3 4.01 5.20 0.56
2 24 3 0.02 0.04 0.39
2 25 3 12.72 13.04 1.07
2 0 4 54.42 56.68 1.53
2 1 4 104.76 106.72 1.54
2 2 4 127.51 130.95 1.82
2 3 4 133.27 133.16 1.85
2 4 4 13.27 12.98 0.57
2 5 4 61.85 59.74 0.99
2 6 4 109.36 108.03 1.45
2 7 4 104.21 102.32 1.43
2 8 4 116.75 116.31 1.59
2 9 4 47.81 48.55 0.97
2 10 4 138.96 138.11 1.88
2 11 4 50.87 49.74 1.07
2 12 4 13.30 12.66 0.66
2 13 4 0.43 0.40 0.33
2 14 4 12.79 11.68 0.71
2 15 4 12.68 12.81 0.74
2 16 4 25.07 25.16 0.91
2 17 4 39.99 38.69 1.18
2 18 4 26.40 25.34 1.04
2 19 4 8.67 8.70 0.71
2 20 4 24.87 26.61 1.10
2 21 4 19.92 20.25 1.04
2 22 4 18.57 16.76 1.04
2 23 4 21.24 23.41 1.07
2 24 4 4.50 3.34 0.47
2 0 5 141.61 144.27 3.10
2 1 5 35.47 33.92 1.30
2 2 5 164.24 161.09 2.24
2 3 5 30.42 31.58 0.84
2 4 5 146.53 148.12 2.12
2 5 5 64.46 63.65 1.24
2 6 5 11.64 12.46 0.64
2 7 5 14.79 14.13 0.70
2 8 5 61.43 62.65 1.17
2 9 5 25.52 26.16 0.81
2 10 5 139.09 138.42 1.97
2 11 5 60.13 60.25 1.26
2 12 5 14.63 14.29 0.74
2 13 5 1.41 2.26 0.37
2 14 5 94.25 92.30 1.71
2 15 5 11.84 12.68 0.76
2 16 5 1.10 1.13 0.36
2 17 5 5.31 5.32 0.48
2 18 5 45.01 44.26 1.36
2 19 5 9.63 11.10 0.84
2 20 5 1.33 1.41 0.42
2 21 5 0.94 0.95 0.41
2 22 5 20.09 20.94 1.04
2 23 5 16.68 16.42 1.02
2 0 6 75.25 76.36 2.20
2 1 6 92.54 93.83 2.50
2 2 6 2.39 2.31 0.71
2 3 6 1.94 2.26 0.58
2 4 6 22.07 22.60 0.82
2 5 6 99.53 98.45 1.75
2 6 6 0.38 0.59 0.48
2 7 6 76.67 77.04 1.56
2 8 6 0.13 0.23 0.52
2 9 6 3.51 4.91 0.48
2 10 6 10.57 12.10 0.69
2 11 6 104.23 104.33 1.79
2 12 6 8.10 7.87 0.54
2 13 6 61.01 62.24 1.41
2 14 6 10.81 11.25 0.74
2 15 6 57.91 56.70 1.43
2 16 6 15.09 15.35 0.89
2 17 6 47.08 46.86 1.36
2 18 6 49.36 49.58 1.45
2 19 6 1.50 2.34 0.44
2 20 6 3.80 3.81 0.48
2 21 6 14.12 13.73 0.96
2 22 6 46.01 45.65 1.42
2 0 7 7.59 7.41 0.99
2 1 7 45.45 43.88 1.81
2 2 7 12.40 12.55 1.12
2 3 7 14.21 14.46 1.19
2 4 7 134.83 130.18 2.67
2 5 7 71.34 70.91 1.57
2 6 7 29.67 29.29 1.06
2 7 7 85.18 83.57 1.77
2 8 7 81.52 82.27 1.77
2 9 7 4.52 4.97 0.53
2 10 7 8.84 9.48 0.79
2 11 7 95.86 97.49 2.06
2 12 7 1.37 2.17 0.38
2 13 7 48.44 48.86 1.36
2 14 7 37.93 40.20 1.25
2 15 7 32.62 32.73 1.19
2 16 7 4.45 4.28 0.48
2 17 7 49.96 50.77 1.47
2 18 7 9.36 9.89 0.76
2 19 7 6.05 7.00 0.64
2 20 7 0.33 0.98 0.41
2 21 7 11.64 10.38 0.79
2 0 8 55.86 54.01 2.20
2 1 8 59.04 58.75 2.29
2 2 8 24.91 23.55 1.58
2 3 8 27.49 29.00 1.68
2 4 8 16.79 15.91 1.38
2 5 8 57.90 56.47 1.52
2 6 8 50.53 47.00 1.44
2 7 8 44.02 41.77 1.36
2 8 8 0.08 0.31 0.41
2 9 8 11.45 11.75 0.80
2 10 8 1.27 1.40 0.49
2 11 8 9.71 8.51 0.78
2 12 8 0.44 0.02 0.43
2 13 8 33.91 31.39 1.36
2 14 8 8.38 9.96 0.81
2 15 8 6.83 7.01 0.70
2 16 8 2.38 3.25 0.47
2 17 8 24.10 23.47 1.13
2 18 8 1.63 1.91 0.43
2 19 8 5.61 6.71 0.54
2 0 9 72.41 75.61 2.77
2 1 9 15.65 17.46 1.50
2 2 9 110.07 109.25 3.43
2 3 9 4.94 5.35 1.10
2 4 9 48.31 48.72 2.29
2 5 9 10.81 11.45 1.39
2 6 9 50.62 49.80 1.57
2 7 9 10.25 10.55 0.92
2 8 9 2.00 3.35 0.54
2 9 9 38.74 38.32 1.43
2 10 9 12.34 14.11 1.02
2 11 9 14.82 15.61 1.07
2 12 9 16.96 17.34 1.13
2 13 9 33.71 35.09 1.46
2 14 9 69.41 72.22 1.98
2 15 9 0.36 1.10 0.52
2 16 9 16.20 15.51 1.01
2 17 9 3.92 4.33 0.53
2 0 10 49.96 49.64 2.44
2 1 10 67.98 67.11 2.82
2 2 10 2.06 2.86 1.18
2 3 10 6.68 6.56 1.33
2 4 10 4.56 4.68 1.25
2 5 10 46.53 46.62 2.40
2 6 10 16.46 16.96 1.66
2 7 10 27.02 26.19 1.32
2 8 10 31.16 30.36 1.40
2 9 10 11.62 12.21 0.91
2 10 10 32.94 33.46 1.45
2 11 10 42.91 44.28 1.58
2 12 10 47.79 48.27 1.68
2 13 10 6.80 7.09 0.68
2 14 10 17.30 17.08 1.15
2 15 10 2.84 2.95 0.57
2 0 11 12.06 12.58 1.67
2 1 11 10.91 9.91 1.59
2 2 11 3.74 3.31 1.36
2 3 11 6.05 7.25 1.45
2 4 11 2.96 2.27 1.41
2 5 11 1.28 0.70 1.30
2 6 11 13.77 13.63 1.67
2 7 11 0.99 0.51 1.30
2 8 11 6.13 5.65 0.65
2 9 11 0.25 0.31 0.51
2 10 11 5.88 6.29 0.78
2 11 11 3.52 4.58 0.61
2 0 12 47.35 46.62 2.65
2 1 12 21.85 20.55 2.09
2 2 12 6.85 6.21 1.62
2 3 12 39.32 42.56 2.52
2 4 12 10.92 11.17 1.77
2 5 12 2.03 2.26 1.52
2 6 12 30.60 29.30 2.21
3 1 0 29.87 30.95 0.51
3 3 0 68.48 69.04 0.88
3 4 0 407.61 412.64 4.03
3 5 0 207.13 208.13 2.21
3 6 0 37.72 39.34 0.70
3 7 0 243.14 242.54 2.60
3 8 0 77.56 80.58 1.16
3 9 0 109.49 107.53 1.43
3 10 0 29.28 29.97 0.72
3 11 0 251.66 250.84 2.86
3 12 0 9.62 8.17 0.53
3 13 0 2.99 2.73 0.44
3 14 0 2.70 3.75 0.49
3 15 0 23.32 23.98 0.85
3 16 0 44.61 42.83 1.13
3 17 0 41.61 42.21 1.16
3 18 0 1.59 2.12 0.37
3 19 0 2.55 2.94 0.41
3 20 0 26.28 27.87 1.07
3 21 0 29.94 30.31 1.14
3 22 0 3.90 4.07 0.48
3 23 0 0.03 0.06 0.39
3 24 0 9.15 8.04 0.65
3 25 0 27.84 29.51 1.42
3 0 1 172.84 175.28 1.86
3 1 1 357.93 368.18 3.64
3 2 1 57.65 58.84 0.79
3 3 1 428.51 433.35 4.24
3 4 1 81.68 81.70 1.04
3 5 1 23.52 24.24 0.53
3 6 1 65.59 68.81 0.98
3 7 1 158.33 158.86 1.85
3 8 1 43.12 42.61 0.80
3 9 1 392.47 381.26 4.01
3 10 1 36.65 36.82 0.82
3 11 1 55.10 53.47 1.03
3 12 1 56.40 54.29 1.08
3 13 1 89.47 89.35 1.51
3 14 1 27.32 27.00 0.85
3 15 1 1.61 1.98 0.37
3 16 1 37.93 39.29 1.10
3 17 1 30.87 30.12 1.01
3 18 1 52.50 50.97 1.33
3 19 1 18.59 19.68 0.92
3 20 1 3.93 3.69 0.45
3 21 1 63.54 67.52 1.63
3 22 1 64.97 61.85 1.63
3 23 1 15.20 15.43 0.95
3 24 1 27.56 29.76 1.20
3 25 1 6.40 7.78 0.77
3 0 2 0.10 0.10 0.23
3 1 2 182.36 179.33 1.96
3 2 2 267.42 271.21 2.78
3 3 2 266.82 266.22 2.77
3 4 2 54.46 54.95 0.85
3 5 2 314.47 314.20 3.25
3 6 2 631.01 636.63 6.24
3 7 2 6.30 7.29 0.42
3 8 2 88.57 88.80 1.27
3 9 2 62.03 62.09 1.06
3 10 2 253.98 253.34 2.88
3 11 2 36.86 34.53 0.85
3 12 2 106.75 106.20 1.62
3 13 2 26.30 26.16 0.81
3 14 2 6.79 6.63 0.59
3 15 2 12.66 12.87 0.71
3 16 2 35.37 36.63 1.06
3 17 2 28.24 28.47 1.00
3 18 2 8.87 9.03 0.71
3 19 2 6.46 5.52 0.54
3 20 2 11.52 11.54 0.84
3 21 2 0.79 0.59 0.38
3 22 2 2.79 2.80 0.45
3 23 2 10.02 9.79 0.87
3 24 2 26.41 27.50 1.17
3 25 2 4.65 4.53 0.56
3 0 3 176.04 182.99 2.04
3 1 3 249.61 250.87 2.66
3 2 3 16.86 17.35 0.50
3 3 3 166.73 166.83 1.92
3 4 3 12.08 12.58 0.48
3 5 3 206.66 213.54 2.37
3 6 3 3.38 3.38 0.38
3 7 3 255.83 253.76 2.82
3 8 3 42.65 42.97 0.87
3 9 3 24.90 26.10 0.72
3 10 3 11.64 11.53 0.56
3 11 3 77.07 75.73 1.31
3 12 3 41.08 40.07 0.97
3 13 3 10.91 12.39 0.66
3 14 3 9.38 9.05 0.59
3 15 3 12.31 12.00 0.72
3 16 3 1.58 2.04 0.39
3 17 3 8.71 8.16 0.64
3 18 3 0.35 0.20 0.34
3 19 3 9.59 10.26 0.82
3 20 3 7.09 6.10 0.51
3 21 3 1.95 1.61 0.41
3 22 3 6.64 6.38 0.54
3 23 3 40.18 39.72 1.37
3 24 3 6.98 8.48 0.72
3 0 4 10.54 11.56 0.47
3 1 4 115.02 113.07 1.47
3 2 4 29.57 30.89 0.70
3 3 4 80.87 79.91 1.18
3 4 4 23.88 24.94 0.65
3 5 4 275.10 269.91 2.98
3 6 4 83.25 79.80 1.24
3 7 4 58.05 59.39 1.07
3 8 4 53.50 53.76 1.05
3 9 4 67.22 67.22 1.21
3 10 4 21.87 20.94 0.73
3 11 4 30.69 28.95 0.88
3 12 4 29.27 29.90 0.90
3 13 4 103.49 104.43 1.74
3 14 4 9.78 10.02 0.68
3 15 4 37.77 37.49 1.11
3 16 4 16.09 17.24 0.84
3 17 4 32.04 32.10 1.11
3 18 4 24.09 25.42 1.05
3 19 4 17.55 16.83 0.94
3 20 4 20.69 20.79 1.01
3 21 4 23.95 25.68 1.12
3 22 4 6.99 6.96 0.62
3 23 4 9.90 10.03 0.86
3 24 4 1.04 1.10 0.41
3 0 5 51.68 49.83 0.97
3 1 5 43.32 44.61 0.91
3 2 5 36.79 35.38 0.83
3 3 5 70.62 73.07 1.21
3 4 5 70.61 71.47 1.21
3 5 5 71.62 72.22 1.24
3 6 5 42.64 43.89 0.95
3 7 5 122.88 122.28 1.76
3 8 5 192.64 186.72 2.38
3 9 5 1.73 1.81 0.47
3 10 5 134.15 133.22 1.98
3 11 5 5.81 7.28 0.53
3 12 5 126.11 123.19 1.96
3 13 5 9.77 10.25 0.72
3 14 5 68.07 63.78 1.46
3 15 5 43.64 44.12 1.25
3 16 5 9.77 9.99 0.77
3 17 5 2.84 3.13 0.44
3 18 5 5.59 6.39 0.53
3 19 5 12.48 10.58 0.77
3 20 5 1.90 2.82 0.45
3 21 5 3.21 3.57 0.48
3 22 5 15.28 15.09 0.99
3 23 5 3.07 3.77 0.48
3 1 6 3.76 3.77 0.51
3 2 6 42.05 41.60 1.09
3 3 6 4.70 4.81 0.56
3 4 6 10.38 9.53 0.67
3 5 6 20.81 20.97 0.85
3 6 6 19.50 18.59 0.85
3 7 6 39.65 39.25 1.14
3 8 6 19.57 18.72 0.79
3 9 6 31.66 32.33 0.97
3 10 6 23.75 23.93 0.89
3 11 6 68.66 67.71 1.45
3 12 6 2.83 3.60 0.43
3 13 6 57.51 56.39 1.40
3 14 6 24.31 25.68 1.01
3 15 6 6.98 7.17 0.58
3 16 6 41.19 41.59 1.30
3 17 6 24.13 23.92 1.06
3 18 6 10.56 10.15 0.76
3 19 6 21.21 21.76 1.08
3 20 6 61.38 63.31 1.65
3 21 6 5.12 5.76 0.53
3 22 6 5.84 5.14 0.51
3 0 7 5.40 5.90 1.00
3 1 7 0.46 0.84 0.83
3 2 7 153.04 151.04 3.72
3 3 7 31.05 28.93 1.07
3 4 7 10.19 9.62 0.78
3 5 7 33.10 32.00 1.13
3 6 7 12.55 11.98 0.85
3 7 7 35.56 35.92 1.20
3 8 7 12.89 11.12 0.85
3 9 7 106.08 108.68 2.13
3 10 7 49.98 50.52 1.31
3 11 7 6.11 6.15 0.48
3 12 7 2.55 2.38 0.40
3 13 7 37.80 38.02 1.23
3 14 7 49.06 48.95 1.38
3 15 7 37.09 37.11 1.27
3 16 7 2.93 2.78 0.45
3 17 7 3.12 2.83 0.45
3 18 7 7.68 7.81 0.64
3 19 7 21.32 20.79 1.08
3 20 7 10.30 9.15 0.75
3 21 7 5.22 5.19 0.51
3 0 8 1.90 2.12 1.00
3 1 8 114.47 113.56 3.31
3 2 8 57.79 59.36 2.34
3 3 8 45.59 45.75 2.09
3 4 8 39.93 38.91 1.30
3 5 8 39.87 38.48 1.30
3 6 8 26.47 26.16 1.13
3 7 8 29.50 30.20 1.20
3 8 8 34.75 33.33 1.29
3 9 8 22.71 22.13 1.12
3 10 8 5.34 4.39 0.56
3 11 8 100.04 99.76 2.22
3 12 8 16.83 17.24 1.07
3 13 8 7.36 6.30 0.59
3 14 8 4.44 4.57 0.49
3 15 8 17.94 17.98 0.99
3 16 8 17.38 15.32 0.99
3 17 8 10.33 11.19 0.90
3 18 8 8.98 8.30 0.65
3 19 8 21.99 23.04 1.11
3 0 9 69.72 68.87 2.71
3 1 9 11.61 11.92 1.40
3 2 9 19.90 19.35 1.61
3 3 9 13.26 13.92 1.49
3 4 9 99.69 101.75 3.36
3 5 9 0.05 0.14 0.47
3 6 9 8.15 8.07 0.66
3 7 9 8.33 9.00 0.74
3 8 9 44.77 43.17 1.53
3 9 9 6.44 6.29 0.64
3 10 9 27.95 27.90 1.29
3 11 9 3.91 4.24 0.59
3 12 9 4.20 4.93 0.62
3 13 9 1.58 1.54 0.53
3 14 9 28.90 31.10 1.36
3 15 9 6.65 6.40 0.61
3 16 9 9.96 9.00 0.66
3 17 9 21.88 21.75 1.08
3 0 10 1.04 0.85 1.16
3 1 10 54.15 57.27 2.60
3 2 10 27.21 27.71 1.99
3 3 10 79.35 82.31 3.17
3 4 10 12.63 11.92 1.58
3 5 10 6.62 7.14 1.41
3 6 10 22.99 23.29 1.24
3 7 10 10.15 11.68 0.88
3 8 10 7.65 7.24 0.68
3 9 10 34.27 33.31 1.45
3 10 10 7.75 7.58 0.84
3 11 10 5.00 4.57 0.61
3 12 10 0.83 1.12 0.51
3 13 10 20.49 19.03 1.22
3 14 10 17.40 16.94 1.13
3 0 11 1.56 1.24 1.33
3 1 11 10.64 10.95 1.67
3 2 11 14.56 15.12 1.73
3 3 11 33.87 34.78 2.28
3 4 11 16.37 16.91 1.87
3 5 11 15.55 15.62 1.75
3 6 11 12.08 12.11 1.70
3 7 11 22.13 22.51 1.29
3 8 11 6.03 6.51 0.80
3 9 11 11.12 10.74 0.84
3 10 11 8.68 8.97 0.87
3 11 11 10.40 9.38 2.94
3 0 12 6.93 5.51 1.66
3 1 12 6.61 7.30 1.67
3 2 12 3.28 3.26 1.53
3 3 12 1.65 0.77 1.53
3 4 12 0.80 1.00 1.46
4 0 0 389.60 391.80 3.89
4 1 0 385.82 385.95 3.87
4 2 0 41.25 40.22 0.70
4 3 0 2.23 1.75 0.31
4 4 0 36.59 36.94 0.70
4 5 0 15.82 15.40 0.50
4 6 0 132.70 131.48 1.63
4 7 0 89.43 87.97 1.27
4 8 0 134.82 132.26 1.70
4 9 0 129.78 130.03 1.72
4 10 0 69.36 69.01 1.19
4 11 0 12.99 12.65 0.61
4 12 0 242.62 240.06 2.96
4 13 0 66.55 69.11 1.31
4 14 0 3.45 2.81 0.37
4 15 0 12.32 12.62 0.72
4 16 0 89.70 90.41 1.69
4 17 0 0.93 1.18 0.35
4 18 0 1.97 2.04 0.39
4 19 0 8.92 7.24 0.66
4 20 0 0.47 0.28 0.37
4 21 0 7.36 7.98 0.62
4 22 0 0.01 0.04 0.41
4 23 0 4.02 4.78 0.51
4 24 0 21.34 21.81 1.08
4 0 1 1.42 1.46 0.29
4 1 1 144.20 148.37 1.70
4 2 1 34.36 34.57 0.66
4 3 1 151.55 150.43 1.74
4 4 1 13.42 12.11 0.46
4 5 1 60.55 59.93 0.95
4 6 1 42.74 43.42 0.82
4 7 1 250.61 245.08 2.73
4 8 1 43.10 42.90 0.87
4 9 1 4.09 4.24 0.41
4 10 1 34.04 34.18 0.83
4 11 1 269.79 266.00 3.09
4 12 1 67.39 67.66 1.27
4 13 1 44.87 42.89 1.05
4 14 1 45.76 46.10 1.13
4 15 1 45.34 44.95 1.16
4 16 1 53.25 52.38 1.28
4 17 1 17.51 17.02 0.87
4 18 1 31.76 30.96 1.07
4 19 1 40.26 42.55 1.28
4 20 1 31.52 32.63 1.18
4 21 1 7.92 7.72 0.70
4 22 1 17.45 14.27 0.96
4 23 1 2.43 2.19 0.45
4 24 1 19.53 19.58 1.05
4 25 1 4.87 5.22 0.58
4 0 2 10.23 10.72 0.44
4 1 2 262.97 263.87 2.83
4 2 2 10.76 9.67 0.44
4 3 2 74.37 75.02 1.08
4 4 2 194.55 199.66 2.24
4 5 2 138.78 135.58 1.70
4 6 2 31.95 32.29 0.73
4 7 2 183.47 176.79 2.14
4 8 2 160.56 161.20 2.00
4 9 2 5.23 5.63 0.45
4 10 2 39.63 41.16 0.93
4 11 2 18.11 18.67 0.69
4 12 2 46.15 46.24 1.06
4 13 2 0.02 0.13 0.31
4 14 2 13.72 14.40 0.73
4 15 2 15.23 15.03 0.78
4 16 2 17.90 16.52 0.84
4 17 2 20.38 19.33 0.91
4 18 2 5.97 6.11 0.54
4 19 2 10.47 11.18 0.83
4 20 2 7.65 8.43 0.61
4 21 2 8.11 9.50 0.82
4 22 2 8.54 9.70 0.66
4 23 2 18.39 17.70 1.03
4 24 2 1.73 1.62 0.42
4 0 3 4.43 4.68 0.39
4 1 3 226.05 224.23 2.48
4 2 3 40.30 38.37 0.78
4 3 3 466.07 463.12 4.68
4 4 3 96.68 94.94 1.34
4 5 3 110.65 108.27 1.48
4 6 3 5.01 5.42 0.43
4 7 3 60.14 60.37 1.08
4 8 3 88.92 86.98 1.38
4 9 3 31.13 31.93 0.83
4 10 3 17.06 16.89 0.67
4 11 3 30.19 29.65 0.87
4 12 3 41.99 41.99 1.06
4 13 3 12.51 12.29 0.70
4 14 3 23.66 22.48 0.89
4 15 3 74.00 73.54 1.52
4 16 3 27.16 27.30 1.01
4 17 3 1.58 0.95 0.36
4 18 3 20.91 21.58 0.99
4 19 3 32.57 34.99 1.20
4 20 3 12.92 13.18 0.88
4 21 3 33.61 33.72 1.25
4 22 3 26.90 25.41 1.17
4 23 3 1.02 0.99 0.41
4 24 3 15.16 13.93 0.96
4 0 4 76.69 77.17 1.19
4 1 4 126.53 123.83 1.63
4 2 4 33.74 34.06 0.79
4 3 4 99.07 96.58 1.40
4 4 4 34.76 35.05 0.81
4 5 4 86.43 87.19 1.35
4 6 4 55.08 55.99 1.07
4 7 4 43.61 42.90 0.95
4 8 4 7.92 8.91 0.54
4 9 4 2.25 1.44 0.45
4 10 4 34.51 36.04 0.95
4 11 4 22.99 24.52 0.84
4 12 4 68.83 68.89 1.40
4 13 4 26.18 26.06 0.93
4 14 4 8.55 9.18 0.64
4 15 4 42.74 39.98 1.19
4 16 4 54.56 53.85 1.40
4 17 4 61.43 59.48 1.52
4 18 4 1.86 1.58 0.41
4 19 4 8.95 8.49 0.64
4 20 4 22.81 22.50 1.09
4 21 4 18.96 20.09 1.05
4 22 4 1.88 2.09 0.47
4 23 4 63.88 63.88 1.65
4 0 5 27.21 27.89 0.77
4 1 5 21.82 22.99 0.71
4 2 5 5.86 6.19 0.49
4 3 5 164.78 163.64 2.11
4 4 5 28.52 28.55 0.79
4 5 5 83.54 84.56 1.41
4 6 5 13.14 13.76 0.62
4 7 5 35.16 35.16 0.94
4 8 5 46.97 48.16 1.10
4 9 5 46.84 44.86 1.11
4 10 5 24.47 27.12 0.89
4 11 5 8.87 9.87 0.66
4 12 5 19.49 19.30 0.87
4 13 5 6.16 6.72 0.59
4 14 5 8.85 8.49 0.64
4 15 5 2.17 1.96 0.39
4 16 5 20.68 21.17 0.99
4 17 5 9.66 10.35 0.80
4 18 5 1.80 2.31 0.44
4 19 5 5.53 5.44 0.52
4 20 5 28.76 29.01 1.19
4 21 5 1.53 2.22 0.44
4 22 5 1.09 1.08 0.41
4 0 6 0.51 0.29 0.43
4 1 6 89.24 88.35 1.50
4 2 6 14.01 15.30 0.68
4 3 6 27.03 25.71 0.84
4 4 6 12.31 11.85 0.66
4 5 6 139.77 137.87 2.02
4 6 6 41.97 41.24 1.07
4 7 6 42.34 40.37 1.08
4 8 6 56.68 54.16 1.28
4 9 6 140.07 135.59 2.11
4 10 6 28.08 26.39 0.97
4 11 6 34.98 36.50 1.10
4 12 6 61.77 63.13 1.47
4 13 6 49.64 49.27 1.33
4 14 6 12.68 12.48 0.82
4 15 6 54.00 54.59 1.46
4 16 6 16.96 18.26 0.97
4 17 6 41.29 42.31 1.35
4 18 6 25.70 26.57 1.13
4 19 6 36.68 37.03 1.30
4 20 6 1.13 1.86 0.43
4 21 6 23.35 22.47 1.11
4 0 7 138.20 138.16 2.10
4 1 7 10.45 9.43 0.72
4 2 7 13.52 12.83 0.84
4 3 7 11.25 12.10 0.82
4 4 7 65.08 65.18 1.58
4 5 7 15.56 16.39 0.90
4 6 7 19.93 20.13 0.86
4 7 7 27.26 26.14 0.96
4 8 7 53.24 51.60 1.31
4 9 7 6.37 6.23 0.59
4 10 7 42.70 43.89 1.24
4 11 7 51.54 52.08 1.39
4 12 7 37.10 40.01 1.24
4 13 7 10.62 10.51 0.73
4 14 7 31.17 30.60 1.17
4 15 7 1.45 2.12 0.43
4 16 7 2.91 3.37 0.47
4 17 7 10.00 9.40 0.77
4 18 7 6.30 5.70 0.53
4 19 7 14.51 12.92 0.91
4 20 7 1.40 1.95 0.43
4 0 8 42.08 44.29 2.09
4 1 8 19.40 19.63 1.24
4 2 8 13.90 13.73 0.91
4 3 8 12.24 11.81 0.89
4 4 8 28.26 29.18 1.18
4 5 8 4.22 4.41 0.54
4 6 8 10.02 9.04 0.76
4 7 8 34.29 32.58 1.30
4 8 8 3.87 3.73 0.54
4 9 8 92.28 89.12 2.11
4 10 8 19.53 19.16 0.99
4 11 8 9.93 8.84 0.73
4 12 8 0.33 0.85 0.39
4 13 8 54.24 52.55 1.51
4 14 8 34.39 34.11 1.27
4 15 8 1.91 2.24 0.44
4 16 8 11.00 9.81 0.78
4 17 8 0.02 0.05 0.39
4 18 8 16.31 16.26 0.99
4 0 9 18.66 19.24 1.65
4 1 9 12.63 13.71 1.49
4 2 9 12.47 13.30 1.46
4 3 9 23.43 24.18 1.20
4 4 9 56.38 59.33 1.71
4 5 9 14.00 13.89 1.01
4 6 9 38.27 36.20 1.45
4 7 9 4.98 5.60 0.62
4 8 9 83.01 85.26 2.12
4 9 9 15.82 17.03 1.11
4 10 9 18.08 19.92 1.15
4 11 9 0.12 0.35 0.52
4 12 9 23.85 23.83 1.29
4 13 9 8.96 9.30 0.76
4 14 9 10.05 11.77 0.90
4 15 9 27.25 26.54 1.16
4 16 9 1.47 2.45 0.45
4 1 10 80.74 83.06 3.23
4 2 10 14.20 14.21 1.64
4 3 10 3.98 3.11 1.29
4 4 10 30.75 30.27 1.36
4 5 10 60.60 57.78 1.82
4 6 10 28.55 28.14 1.36
4 7 10 16.72 15.59 1.11
4 8 10 14.47 15.50 1.12
4 9 10 1.44 0.77 0.51
4 10 10 14.47 15.09 1.11
4 11 10 6.58 7.07 0.68
4 12 10 1.39 1.62 0.54
4 13 10 9.93 8.69 0.71
4 0 11 28.82 27.89 2.14
4 1 11 1.75 1.62 1.33
4 2 11 3.17 3.18 1.35
4 3 11 9.80 9.03 1.57
4 4 11 34.34 33.03 2.26
4 5 11 13.14 13.14 1.35
4 6 11 0.35 0.50 0.52
4 7 11 5.63 6.76 0.67
4 8 11 21.87 20.60 1.27
4 9 11 8.87 9.85 0.86
5 1 0 39.64 40.16 0.77
5 2 0 42.96 43.64 0.83
5 3 0 235.68 231.05 2.57
5 4 0 64.29 61.02 1.02
5 5 0 73.03 73.08 1.14
5 6 0 0.05 0.10 0.32
5 7 0 12.26 11.79 0.54
5 8 0 16.46 16.35 0.62
5 9 0 26.43 25.58 0.75
5 10 0 37.11 38.57 0.93
5 11 0 36.04 36.91 0.95
5 12 0 1.40 1.62 0.48
5 13 0 12.15 12.23 0.70
5 14 0 52.12 52.64 1.25
5 15 0 16.22 15.41 0.82
5 16 0 4.58 4.58 0.43
5 17 0 11.50 10.51 0.70
5 18 0 6.37 6.29 0.64
5 19 0 0.00 0.14 0.37
5 20 0 0.11 0.44 0.38
5 21 0 1.06 0.92 0.40
5 22 0 8.55 7.94 0.64
5 24 0 3.21 2.06 0.44
5 0 1 5.68 5.96 0.41
5 1 1 134.13 133.71 1.66
5 2 1 92.90 90.96 1.29
5 3 1 388.61 381.68 3.91
5 4 1 5.22 5.30 0.41
5 5 1 37.70 35.69 0.78
5 6 1 73.86 71.14 1.17
5 7 1 156.82 154.41 1.96
5 8 1 2.37 3.20 0.42
5 9 1 58.39 58.41 1.13
5 10 1 12.55 12.73 0.61
5 11 1 66.51 68.47 1.29
5 12 1 21.93 21.77 0.82
5 13 1 21.15 19.01 0.83
5 14 1 16.10 16.20 0.78
5 15 1 217.24 218.12 2.92
5 16 1 59.77 61.46 1.44
5 17 1 4.24 4.27 0.45
5 18 1 8.16 7.72 0.68
5 19 1 52.84 53.69 1.49
5 20 1 51.22 51.77 1.46
5 21 1 3.75 3.52 0.48
5 22 1 0.72 0.90 0.41
5 23 1 1.66 1.88 0.43
5 24 1 13.51 14.67 0.94
5 0 2 332.83 331.10 3.51
5 1 2 172.11 169.54 2.05
5 2 2 0.48 0.57 0.33
5 3 2 255.60 252.56 2.84
5 4 2 89.67 85.87 1.30
5 5 2 43.21 42.65 0.88
5 6 2 7.30 6.60 0.46
5 7 2 14.40 12.95 0.58
5 8 2 28.56 29.19 0.80
5 9 2 37.89 37.49 0.92
5 10 2 0.59 1.40 0.44
5 11 2 16.45 16.29 0.72
5 12 2 126.38 124.57 1.93
5 13 2 0.39 0.48 0.33
5 14 2 7.02 7.56 0.66
5 15 2 3.33 3.08 0.39
5 16 2 59.77 60.68 1.46
5 17 2 14.62 14.74 0.86
5 18 2 10.81 11.58 0.82
5 19 2 30.68 30.41 1.14
5 20 2 2.07 2.16 0.44
5 21 2 41.16 39.15 1.33
5 22 2 0.99 1.77 0.43
5 23 2 6.04 5.37 0.58
5 24 2 6.42 7.37 0.90
5 0 3 31.42 31.16 0.77
5 1 3 200.26 198.98 2.37
5 2 3 24.03 24.51 0.69
5 3 3 10.10 9.58 0.51
5 4 3 1.39 1.36 0.38
5 5 3 68.14 68.77 1.19
5 6 3 33.51 34.85 0.85
5 7 3 63.83 64.20 1.19
5 8 3 17.74 18.63 0.69
5 9 3 8.77 9.09 0.59
5 10 3 45.02 43.34 1.06
5 11 3 27.42 25.95 0.89
5 12 3 28.51 27.51 0.93
5 13 3 18.94 19.17 0.85
5 14 3 47.34 47.15 1.23
5 15 3 3.37 3.73 0.42
5 16 3 51.22 50.97 1.38
5 17 3 23.20 23.79 1.02
5 18 3 24.01 24.00 1.06
5 19 3 3.70 4.44 0.49
5 20 3 55.18 56.67 1.57
5 21 3 8.19 8.27 0.66
5 22 3 4.41 4.81 0.51
5 23 3 9.32 8.68 0.64
5 0 4 0.08 0.28 0.37
5 1 4 72.83 70.03 1.21
5 2 4 43.03 43.74 0.95
5 3 4 30.84 28.36 0.81
5 4 4 16.17 17.31 0.66
5 5 4 7.33 6.26 0.51
5 6 4 28.28 28.44 0.84
5 7 4 29.67 30.16 0.87
5 8 4 89.06 89.61 1.53
5 9 4 1.96 2.68 0.38
5 10 4 115.52 112.16 1.83
5 11 4 34.47 34.68 1.04
5 12 4 84.06 85.85 1.63
5 13 4 3.65 4.40 0.42
5 14 4 82.29 86.26 1.73
5 15 4 19.80 20.72 0.97
5 16 4 20.60 22.23 1.00
5 17 4 9.03 8.27 0.69
5 18 4 24.12 25.57 1.10
5 19 4 74.62 75.87 1.80
5 20 4 0.46 0.05 0.38
5 21 4 43.22 44.25 1.41
5 22 4 13.26 11.76 0.94
5 0 5 7.56 7.08 0.56
5 1 5 190.07 186.44 2.39
5 2 5 32.91 31.88 0.89
5 3 5 15.88 16.12 0.68
5 4 5 73.67 73.05 1.36
5 5 5 60.65 59.63 1.25
5 6 5 19.08 18.65 0.78
5 7 5 34.67 34.55 0.97
5 8 5 52.55 50.30 1.20
5 9 5 11.66 10.94 0.70
5 10 5 19.57 18.97 0.84
5 11 5 20.16 20.43 0.89
5 12 5 0.39 0.97 0.35
5 13 5 18.13 17.79 0.90
5 14 5 41.27 42.34 1.24
5 15 5 1.38 1.32 0.39
5 16 5 17.95 18.75 0.95
5 17 5 3.01 3.69 0.47
5 18 5 28.99 29.58 1.18
5 19 5 2.74 3.15 0.48
5 20 5 12.55 11.94 0.94
5 21 5 10.13 8.83 0.66
5 0 6 48.30 47.43 1.16
5 1 6 47.13 45.51 1.12
5 2 6 11.98 11.10 0.70
5 3 6 55.44 54.03 1.23
5 4 6 52.62 49.83 1.20
5 5 6 81.84 80.37 1.55
5 6 6 13.02 13.44 0.73
5 7 6 106.06 104.86 1.83
5 8 6 22.49 22.00 0.91
5 9 6 21.13 21.09 0.88
5 10 6 67.72 69.09 1.52
5 11 6 78.34 80.19 1.68
5 12 6 0.44 0.51 0.36
5 13 6 66.36 67.36 1.60
5 14 6 54.77 54.00 1.46
5 15 6 13.61 15.30 0.91
5 16 6 4.96 5.34 0.51
5 17 6 53.52 52.88 1.53
5 18 6 7.87 7.26 0.64
5 19 6 5.25 5.24 0.52
5 20 6 0.00 0.01 0.39
5 0 7 1.15 1.49 0.37
5 1 7 29.60 29.95 1.00
5 2 7 16.66 16.75 0.85
5 3 7 4.11 4.03 0.43
5 4 7 110.75 107.72 1.89
5 5 7 10.04 10.37 0.67
5 6 7 19.38 21.04 0.91
5 7 7 9.10 9.73 0.74
5 8 7 101.11 100.32 1.89
5 9 7 10.24 11.42 0.76
5 10 7 2.07 2.02 0.41
5 11 7 4.43 4.28 0.47
5 12 7 14.06 13.28 0.79
5 13 7 13.68 16.24 0.93
5 14 7 5.46 6.41 0.54
5 15 7 18.17 18.33 1.00
5 16 7 8.67 7.87 0.74
5 17 7 4.22 4.92 0.51
5 18 7 2.53 2.94 0.47
5 0 8 37.62 36.68 1.17
5 1 8 47.76 47.83 1.31
5 2 8 3.23 3.25 0.43
5 3 8 0.46 0.69 0.36
5 4 8 20.30 19.53 0.96
5 5 8 142.21 140.42 2.34
5 6 8 0.56 1.18 0.79
5 7 8 5.04 5.27 0.49
5 8 8 2.64 2.95 0.44
5 9 8 24.59 24.18 1.06
5 10 8 2.09 2.06 0.43
5 11 8 11.19 12.73 0.88
5 12 8 8.53 8.09 0.64
5 13 8 32.39 32.51 1.27
5 14 8 8.60 8.17 0.65
5 15 8 8.38 8.83 0.65
5 16 8 10.89 11.96 0.90
5 17 8 59.22 58.99 1.59
5 0 9 0.09 0.68 0.79
5 1 9 30.84 30.11 1.14
5 2 9 35.19 35.53 1.42
5 3 9 6.59 5.50 0.61
5 4 9 5.05 6.23 0.64
5 5 9 15.39 14.21 1.06
5 6 9 27.54 27.30 1.29
5 7 9 9.33 9.55 0.84
5 8 9 0.62 1.11 0.51
5 9 9 0.67 1.33 0.41
5 10 9 20.99 21.36 1.07
5 11 9 15.18 15.54 0.99
5 12 9 0.92 1.71 0.43
5 13 9 8.32 8.79 0.66
5 14 9 6.69 6.80 0.55
5 15 9 2.15 2.63 0.45
5 0 10 76.03 75.10 3.13
5 1 10 5.36 5.21 0.90
5 2 10 2.49 2.84 0.57
5 3 10 50.46 51.19 1.72
5 4 10 24.86 24.62 1.29
5 5 10 31.49 30.05 1.45
5 6 10 5.74 6.62 0.68
5 7 10 18.08 17.86 1.18
5 8 10 6.13 6.99 0.68
5 9 10 33.78 32.75 1.42
5 10 10 0.62 0.87 0.53
5 11 10 1.13 2.03 0.54
5 12 10 5.40 5.88 0.53
5 0 11 5.41 3.74 1.52
5 1 11 24.86 23.84 2.00
5 2 11 11.13 12.30 1.62
5 3 11 17.51 16.39 1.17
5 4 11 12.20 11.00 0.91
5 5 11 0.07 0.06 0.51
5 6 11 38.75 39.79 1.53
5 7 11 1.95 2.43 0.56
6 0 0 138.20 134.21 1.76
6 1 0 65.28 66.19 1.12
6 2 0 4.76 4.83 0.44
6 3 0 32.43 31.61 0.79
6 4 0 9.87 9.91 0.51
6 5 0 78.78 76.31 1.28
6 6 0 70.32 70.39 1.24
6 7 0 86.59 84.20 1.41
6 8 0 58.81 58.83 1.17
6 9 0 0.08 0.23 0.43
6 10 0 89.81 87.76 1.56
6 11 0 0.13 0.26 0.32
6 12 0 63.87 63.93 1.36
6 13 0 21.08 21.41 0.89
6 14 0 9.01 9.22 0.64
6 15 0 26.49 28.40 1.02
6 16 0 6.79 7.27 0.64
6 17 0 8.06 8.92 0.69
6 18 0 21.93 21.17 1.03
6 19 0 6.19 6.96 0.68
6 21 0 2.36 2.26 0.44
6 22 0 24.12 23.50 1.10
6 23 0 0.13 0.67 0.40
6 0 1 41.26 39.46 0.87
6 1 1 121.68 118.28 1.63
6 2 1 86.89 85.48 1.34
6 3 1 78.24 75.97 1.26
6 4 1 87.05 87.36 1.38
6 5 1 107.03 104.31 1.56
6 6 1 9.94 9.45 0.54
6 7 1 61.10 60.89 1.18
6 8 1 53.65 52.69 1.12
6 9 1 1.51 1.46 0.47
6 10 1 0.96 1.45 0.33
6 11 1 26.78 26.59 0.90
6 12 1 12.96 12.74 0.75
6 13 1 120.67 119.28 1.98
6 14 1 39.01 41.04 1.18
6 15 1 18.14 18.51 0.89
6 16 1 11.11 11.71 0.78
6 17 1 71.87 71.71 1.65
6 18 1 64.18 66.17 1.62
6 19 1 17.43 18.47 0.99
6 20 1 12.32 13.14 0.91
6 21 1 8.88 8.02 0.65
6 22 1 23.15 21.76 1.09
6 23 1 10.27 9.31 0.87
6 0 2 18.22 19.15 0.65
6 1 2 115.02 113.68 1.62
6 2 2 178.65 173.69 2.20
6 3 2 3.06 3.30 0.43
6 4 2 0.92 0.86 0.41
6 5 2 49.08 47.19 1.02
6 6 2 9.17 9.47 0.56
6 7 2 18.22 17.89 0.71
6 8 2 47.31 46.40 1.08
6 9 2 6.53 5.43 0.57
6 10 2 107.76 106.01 1.76
6 11 2 3.27 3.69 0.41
6 12 2 30.31 30.39 1.02
6 13 2 10.08 10.73 0.67
6 14 2 93.68 90.88 1.78
6 15 2 1.20 1.01 0.36
6 16 2 8.24 6.95 0.58
6 17 2 14.10 14.21 0.89
6 18 2 7.10 7.44 0.61
6 19 2 6.18 6.91 0.60
6 20 2 1.40 1.82 0.43
6 21 2 9.76 8.71 0.76
6 22 2 5.62 6.20 0.54
6 23 2 11.82 13.39 1.54
6 0 3 12.01 12.24 0.60
6 1 3 97.59 98.95 1.53
6 2 3 17.27 16.50 0.67
6 3 3 198.87 198.78 2.46
6 4 3 66.57 66.31 1.24
6 5 3 4.20 4.52 0.51
6 6 3 23.52 24.30 0.80
6 7 3 56.02 57.16 1.20
6 8 3 23.80 22.71 0.82
6 9 3 26.13 25.21 0.89
6 10 3 0.79 1.29 0.36
6 11 3 6.60 6.79 0.51
6 12 3 21.97 20.59 0.89
6 13 3 4.08 4.36 0.43
6 14 3 46.39 47.72 1.32
6 15 3 31.54 32.06 1.13
6 16 3 29.69 28.17 1.11
6 17 3 12.25 12.71 0.87
6 18 3 68.70 69.10 1.70
6 19 3 46.18 46.67 1.46
6 20 3 3.54 3.00 0.47
6 21 3 21.08 20.78 1.10
6 22 3 29.20 28.71 1.20
6 0 4 0.53 1.05 0.43
6 1 4 94.93 93.30 1.55
6 2 4 20.52 20.85 0.76
6 3 4 55.33 56.36 1.18
6 4 4 2.09 0.91 0.49
6 5 4 37.73 36.54 1.00
6 6 4 67.59 66.46 1.35
6 7 4 4.85 4.90 0.42
6 8 4 17.41 16.77 0.78
6 9 4 40.71 39.67 1.11
6 10 4 48.27 47.94 1.24
6 11 4 2.32 2.47 0.38
6 12 4 28.04 27.13 1.01
6 13 4 3.76 4.64 0.45
6 14 4 40.36 39.38 1.24
6 15 4 4.25 3.78 0.46
6 16 4 30.21 31.69 1.17
6 17 4 80.08 79.70 1.81
6 18 4 9.86 9.81 0.79
6 19 4 31.67 31.17 1.24
6 20 4 11.93 12.27 0.91
6 21 4 55.57 54.08 1.54
6 0 5 15.14 14.18 0.74
6 1 5 65.73 64.51 1.33
6 2 5 18.37 19.51 0.80
6 3 5 108.25 105.22 1.76
6 4 5 19.76 18.94 0.81
6 5 5 4.05 4.15 0.41
6 6 5 42.18 43.49 1.13
6 7 5 11.22 10.08 0.70
6 8 5 0.15 0.26 0.36
6 9 5 33.93 33.46 1.08
6 10 5 2.03 2.27 0.38
6 11 5 20.48 19.18 0.91
6 12 5 23.29 22.99 0.99
6 13 5 8.71 9.46 0.62
6 14 5 20.95 22.46 1.04
6 15 5 2.21 1.89 0.42
6 16 5 16.63 16.70 0.99
6 17 5 1.56 1.87 0.43
6 18 5 17.81 17.61 1.00
6 19 5 6.21 5.96 0.54
6 20 5 0.29 0.09 0.38
6 0 6 52.08 50.50 1.24
6 1 6 100.42 100.32 1.77
6 2 6 74.04 71.81 1.50
6 3 6 56.83 55.47 1.32
6 4 6 18.52 19.50 0.87
6 5 6 79.43 79.00 1.60
6 6 6 70.33 73.32 1.56
6 7 6 6.93 6.29 0.48
6 8 6 11.69 10.74 0.77
6 9 6 74.79 75.41 1.65
6 10 6 13.14 12.62 0.85
6 11 6 33.62 32.94 1.17
6 12 6 39.13 40.20 1.27
6 13 6 34.72 34.49 1.24
6 14 6 13.75 13.07 0.93
6 15 6 41.46 43.21 1.36
6 16 6 26.29 28.61 1.17
6 17 6 23.09 22.63 1.10
6 18 6 8.31 8.57 0.59
6 19 6 14.38 14.21 0.94
6 0 7 17.09 17.58 0.86
6 1 7 1.86 2.23 0.39
6 2 7 49.09 49.58 1.32
6 3 7 12.27 11.73 0.79
6 4 7 7.63 8.11 0.65
6 5 7 20.60 20.54 0.92
6 6 7 95.45 97.89 1.89
6 7 7 1.54 2.30 0.42
6 8 7 18.50 18.89 0.93
6 9 7 5.28 5.05 0.54
6 10 7 56.96 57.58 1.51
6 11 7 5.03 5.09 0.50
6 12 7 16.92 17.38 1.00
6 13 7 16.87 15.43 0.97
6 14 7 12.35 13.73 0.94
6 15 7 2.95 3.49 0.48
6 16 7 0.07 0.09 0.39
6 17 7 11.00 11.82 0.87
6 18 7 6.89 7.04 0.55
6 0 8 27.02 28.24 1.08
6 1 8 1.00 1.24 0.39
6 2 8 13.51 14.71 0.87
6 3 8 49.39 49.13 1.38
6 4 8 8.18 7.74 0.69
6 5 8 3.19 3.39 0.45
6 6 8 11.79 13.13 0.89
6 7 8 51.10 52.96 1.46
6 8 8 0.27 0.72 0.39
6 9 8 2.66 3.13 0.47
6 10 8 6.52 7.80 0.66
6 11 8 18.36 17.57 1.03
6 12 8 1.38 2.40 0.45
6 13 8 10.24 10.42 0.74
6 14 8 15.06 15.22 0.97
6 15 8 40.47 41.16 1.36
6 16 8 21.83 21.08 1.08
6 0 9 36.95 38.95 1.31
6 1 9 0.98 1.11 0.41
6 2 9 11.10 11.40 0.87
6 3 9 12.40 11.18 0.81
6 4 9 9.36 8.95 0.76
6 5 9 2.55 2.71 0.45
6 6 9 11.09 13.04 0.90
6 7 9 6.60 7.01 0.56
6 8 9 27.28 30.02 1.18
6 9 9 5.02 5.81 0.54
6 10 9 41.53 42.04 1.39
6 11 9 5.69 6.56 0.61
6 12 9 34.50 36.35 1.30
6 13 9 14.37 13.93 0.94
6 0 10 3.62 4.92 0.52
6 1 10 40.61 43.40 1.39
6 2 10 45.38 45.72 1.45
6 3 10 1.22 1.61 0.45
6 4 10 5.67 7.02 0.56
6 5 10 49.56 51.53 1.51
6 6 10 8.07 8.55 0.66
6 7 10 21.29 22.54 1.12
6 8 10 0.93 1.57 0.43
6 9 10 3.75 4.53 0.50
6 0 11 5.88 7.43 0.63
6 1 11 28.34 29.57 1.39
6 2 11 2.99 4.28 0.60
7 2 0 72.69 71.33 1.30
7 3 0 13.02 13.64 0.62
7 4 0 3.90 3.81 0.50
7 5 0 53.74 52.48 1.16
7 6 0 20.99 21.07 0.79
7 7 0 2.21 2.42 0.35
7 8 0 33.94 34.61 0.99
7 9 0 44.33 42.86 1.12
7 10 0 100.30 97.84 1.75
7 11 0 32.70 32.67 1.05
7 12 0 24.14 24.24 0.94
7 13 0 0.08 0.08 0.35
7 14 0 18.04 17.38 0.89
7 15 0 16.43 15.10 0.88
7 16 0 2.84 2.48 0.43
7 17 0 12.78 11.47 0.85
7 18 0 1.58 1.23 0.41
7 19 0 3.22 3.09 0.47
7 20 0 22.94 24.80 1.11
7 21 0 17.85 17.80 1.02
7 22 0 1.13 1.43 0.44
7 0 1 221.43 218.49 2.69
7 1 1 57.47 56.30 1.14
7 2 1 17.01 15.87 0.68
7 3 1 40.11 41.39 0.99
7 4 1 68.95 69.81 1.30
7 5 1 71.65 72.75 1.36
7 6 1 39.45 39.76 1.02
7 7 1 22.84 22.78 0.83
7 8 1 0.88 1.14 0.34
7 9 1 101.03 99.95 1.75
7 10 1 19.76 19.00 0.84
7 11 1 18.77 18.14 0.86
7 12 1 0.27 0.51 0.33
7 13 1 35.77 36.87 1.16
7 14 1 20.43 18.02 0.95
7 15 1 11.53 10.70 0.79
7 16 1 17.96 17.28 0.96
7 17 1 36.31 35.84 1.26
7 18 1 41.49 42.69 1.37
7 19 1 27.12 26.24 1.16
7 20 1 11.13 11.15 0.90
7 21 1 26.43 25.13 1.15
7 22 1 34.23 33.49 1.27
7 0 2 12.25 11.46 0.63
7 1 2 2.08 2.04 0.48
7 2 2 37.61 38.65 0.98
7 3 2 28.83 28.99 0.87
7 4 2 13.38 12.59 0.66
7 5 2 47.96 50.38 1.14
7 6 2 210.62 207.97 2.68
7 7 2 7.70 7.05 0.50
7 8 2 17.87 17.42 0.81
7 9 2 24.99 23.47 0.93
7 10 2 145.37 141.79 2.21
7 11 2 10.35 10.62 0.66
7 12 2 58.06 58.11 1.41
7 13 2 5.60 5.25 0.51
7 14 2 6.44 5.74 0.50
7 15 2 17.10 19.92 0.95
7 16 2 15.69 15.11 0.93
7 17 2 6.80 6.13 0.59
7 18 2 10.51 11.18 0.87
7 19 2 1.36 1.65 0.43
7 20 2 1.11 1.88 0.44
7 21 2 0.90 0.97 0.41
7 0 3 3.67 3.75 0.53
7 1 3 117.90 117.65 1.83
7 2 3 30.63 30.04 0.92
7 3 3 17.82 17.87 0.77
7 4 3 26.35 24.45 0.86
7 5 3 102.07 102.32 1.72
7 6 3 43.78 44.13 1.12
7 7 3 11.44 11.97 0.70
7 8 3 38.64 37.30 1.08
7 9 3 6.03 5.66 0.51
7 10 3 5.80 5.96 0.51
7 11 3 6.28 5.93 0.59
7 12 3 14.35 14.82 0.84
7 13 3 20.79 21.27 0.98
7 14 3 42.22 42.38 1.31
7 15 3 14.52 16.27 0.93
7 16 3 25.48 24.46 1.13
7 17 3 33.16 32.32 1.24
7 18 3 8.39 7.88 0.64
7 19 3 22.37 21.05 1.08
7 20 3 12.52 12.60 0.91
7 21 3 9.28 8.82 0.74
7 0 4 2.16 2.61 0.38
7 1 4 64.65 66.01 1.37
7 2 4 12.47 11.89 0.71
7 3 4 24.42 23.29 0.88
7 4 4 56.86 56.77 1.29
7 5 4 51.23 51.65 1.26
7 6 4 48.49 48.35 1.22
7 7 4 4.99 4.50 0.44
7 8 4 9.35 9.10 0.64
7 9 4 17.70 16.43 0.85
7 10 4 11.12 11.75 0.78
7 11 4 14.03 13.93 0.85
7 12 4 28.13 27.11 1.07
7 13 4 40.26 39.18 1.30
7 14 4 11.89 11.75 0.87
7 15 4 37.45 38.03 1.30
7 16 4 33.47 35.29 1.25
7 17 4 22.16 23.06 1.07
7 18 4 14.61 16.02 0.98
7 19 4 26.76 25.51 1.18
7 20 4 2.88 1.93 0.44
7 0 5 2.59 2.99 0.40
7 1 5 22.67 21.94 0.89
7 2 5 21.50 21.59 0.87
7 3 5 7.86 7.21 0.61
7 4 5 31.88 31.25 1.05
7 5 5 32.22 32.46 1.06
7 6 5 26.59 27.15 1.00
7 7 5 46.15 44.70 1.25
7 8 5 62.68 62.30 1.48
7 9 5 5.06 4.80 0.47
7 10 5 42.88 43.98 1.30
7 11 5 13.40 11.96 0.84
7 12 5 30.36 28.01 1.14
7 13 5 5.07 4.56 0.49
7 14 5 52.13 52.92 1.49
7 15 5 2.55 3.13 0.47
7 16 5 12.74 12.11 0.82
7 17 5 4.11 4.01 0.49
7 18 5 6.65 5.64 0.53
7 19 5 4.71 5.45 0.52
7 0 6 14.50 14.31 0.81
7 1 6 61.10 61.00 1.45
7 2 6 74.22 76.69 1.63
7 3 6 56.26 57.32 1.43
7 4 6 53.21 54.50 1.38
7 5 6 6.45 6.45 0.54
7 6 6 12.91 12.05 0.83
7 7 6 32.29 33.46 1.17
7 8 6 28.13 28.22 1.10
7 9 6 9.68 8.86 0.71
7 10 6 7.66 7.44 0.68
7 11 6 23.93 25.08 1.07
7 12 6 6.92 6.64 0.60
7 13 6 12.50 13.34 0.91
7 14 6 9.49 10.74 0.77
7 15 6 18.39 17.36 1.02
7 16 6 20.33 18.80 1.04
7 17 6 16.66 14.72 0.98
7 18 6 7.91 6.99 0.62
7 0 7 31.41 30.41 1.13
7 1 7 1.10 1.22 0.38
7 2 7 68.72 71.92 1.65
7 3 7 8.30 8.14 0.70
7 4 7 3.25 3.11 0.44
7 5 7 4.52 4.79 0.48
7 6 7 2.95 3.24 0.45
7 7 7 20.52 22.13 1.03
7 8 7 33.79 35.29 1.23
7 9 7 18.14 17.05 1.00
7 10 7 36.02 36.76 1.29
7 11 7 13.46 12.81 0.82
7 12 7 22.38 20.41 1.09
7 13 7 7.60 7.58 0.64
7 14 7 29.19 28.87 1.24
7 15 7 6.91 6.83 0.55
7 16 7 0.01 0.19 0.81
7 0 8 0.88 1.18 0.41
7 1 8 31.50 32.04 1.22
7 2 8 69.82 70.74 1.68
7 3 8 16.55 18.11 0.97
7 4 8 6.03 6.30 0.60
7 5 8 9.25 10.43 0.84
7 6 8 3.59 4.46 0.49
7 7 8 9.28 8.61 0.73
7 8 8 3.57 3.89 0.53
7 9 8 23.78 23.34 1.11
7 10 8 1.90 2.09 0.45
7 11 8 28.81 27.43 1.18
7 12 8 15.73 17.08 1.00
7 13 8 20.49 20.92 1.05
7 14 8 2.46 2.42 0.44
7 0 9 3.84 4.63 0.51
7 1 9 3.89 4.43 0.50
7 2 9 10.20 10.36 0.79
7 3 9 6.81 7.15 0.59
7 4 9 19.07 19.17 1.04
7 5 9 11.73 10.65 0.70
7 6 9 9.45 10.27 0.73
7 7 9 3.13 3.80 0.49
7 8 9 58.14 57.28 1.59
7 9 9 0.50 0.69 0.87
7 10 9 31.03 31.56 1.22
7 11 9 6.05 6.57 0.54
7 0 10 0.29 0.22 0.42
7 1 10 31.14 31.04 1.23
7 2 10 2.90 3.92 0.48
7 3 10 63.74 65.84 1.68
7 4 10 6.71 7.43 0.56
7 5 10 0.33 0.72 0.42
7 6 10 10.38 9.68 0.88
8 0 0 2.78 2.34 0.36
8 1 0 1.21 1.71 0.35
8 2 0 49.46 49.25 1.16
8 3 0 0.08 0.14 0.33
8 4 0 1.97 2.37 0.37
8 5 0 9.95 10.57 0.68
8 6 0 134.54 130.87 2.07
8 7 0 18.10 17.92 0.85
8 8 0 5.44 5.70 0.51
8 9 0 62.98 63.91 1.47
8 10 0 18.11 17.75 0.88
8 11 0 21.56 22.71 0.96
8 12 0 8.91 10.16 0.66
8 13 0 56.32 58.25 1.50
8 14 0 1.47 1.27 0.40
8 15 0 1.51 1.79 0.42
8 16 0 34.35 36.11 1.26
8 17 0 16.66 16.96 0.97
8 18 0 0.17 0.53 0.40
8 19 0 9.74 9.25 0.67
8 20 0 0.70 0.78 0.41
8 0 1 34.40 31.41 0.98
8 1 1 30.60 31.00 0.96
8 2 1 99.72 96.02 1.67
8 3 1 0.67 1.23 0.35
8 4 1 33.72 32.53 1.00
8 5 1 68.46 66.56 1.41
8 6 1 2.34 2.54 0.39
8 7 1 21.58 21.77 0.89
8 8 1 4.47 5.09 0.49
8 9 1 62.58 60.87 1.46
8 10 1 3.87 4.33 0.44
8 11 1 4.30 3.96 0.44
8 12 1 20.48 21.15 0.99
8 13 1 25.82 26.17 1.06
8 14 1 4.36 4.53 0.49
8 15 1 18.75 18.51 0.98
8 16 1 8.51 8.70 0.76
8 17 1 16.99 18.33 1.03
8 18 1 3.41 3.92 0.49
8 19 1 40.42 40.47 1.36
8 20 1 35.50 37.34 1.30
8 0 2 0.22 0.55 0.33
8 1 2 2.43 3.12 0.39
8 2 2 32.59 32.20 1.00
8 3 2 11.52 11.37 0.72
8 4 2 130.80 129.06 2.05
8 5 2 2.89 3.07 0.41
8 6 2 50.90 49.80 1.25
8 7 2 13.93 12.45 0.81
8 8 2 177.81 181.94 2.62
8 9 2 1.99 1.96 0.38
8 10 2 24.51 23.08 0.98
8 11 2 5.04 4.19 0.45
8 12 2 27.03 27.66 1.08
8 13 2 2.89 2.74 0.44
8 14 2 27.13 27.12 1.11
8 15 2 3.76 3.69 0.47
8 16 2 21.68 21.18 1.05
8 17 2 5.22 5.37 0.53
8 18 2 4.13 2.91 0.47
8 19 2 2.23 3.01 0.47
8 20 2 10.28 10.39 0.76
8 0 3 82.04 82.63 1.60
8 1 3 1.99 1.90 0.38
8 2 3 14.63 14.68 0.79
8 3 3 35.76 34.86 1.05
8 4 3 42.66 41.95 1.17
8 5 3 23.09 22.94 0.93
8 6 3 34.08 35.75 1.10
8 7 3 34.91 34.88 1.11
8 8 3 20.41 21.21 0.91
8 9 3 59.22 59.58 1.46
8 10 3 69.51 70.79 1.62
8 11 3 10.57 10.95 0.81
8 12 3 62.23 62.97 1.58
8 13 3 33.77 37.42 1.25
8 14 3 14.85 15.90 0.93
8 15 3 0.74 0.54 0.39
8 16 3 11.29 12.25 0.89
8 17 3 2.31 3.23 0.48
8 18 3 5.15 5.96 0.53
8 19 3 1.40 1.85 0.43
8 0 4 5.32 5.50 0.49
8 1 4 13.07 14.05 0.76
8 2 4 16.07 16.31 0.82
8 3 4 45.18 45.81 1.23
8 4 4 22.98 23.74 0.95
8 5 4 10.63 12.06 0.74
8 6 4 6.32 6.89 0.51
8 7 4 39.37 41.06 1.24
8 8 4 65.49 65.14 1.56
8 9 4 24.09 24.51 1.01
8 10 4 29.32 30.73 1.14
8 11 4 55.59 54.27 1.47
8 12 4 15.19 15.65 0.91
8 13 4 24.88 24.64 1.09
8 14 4 25.10 24.96 1.13
8 15 4 36.65 38.82 1.33
8 16 4 7.51 8.40 0.59
8 17 4 6.86 7.15 0.62
8 18 4 0.40 0.55 0.39
8 0 5 0.47 0.66 0.35
8 1 5 20.65 23.37 0.95
8 2 5 17.63 18.19 0.88
8 3 5 14.50 14.85 0.84
8 4 5 15.89 17.07 0.88
8 5 5 33.97 33.89 1.16
8 6 5 46.12 46.52 1.33
8 7 5 8.55 8.30 0.69
8 8 5 36.08 36.94 1.24
8 9 5 13.82 13.46 0.89
8 10 5 50.19 49.52 1.44
8 11 5 0.52 1.10 0.40
8 12 5 55.04 53.78 1.54
8 13 5 0.88 1.23 0.42
8 14 5 6.77 5.48 0.53
8 15 5 12.84 14.04 0.94
8 16 5 9.57 10.22 0.88
8 17 5 5.32 5.41 0.52
8 0 6 83.45 85.52 1.80
8 1 6 1.88 1.88 0.41
8 2 6 8.71 8.40 0.69
8 3 6 12.04 12.29 0.85
8 4 6 36.34 36.92 1.22
8 5 6 21.13 22.38 1.02
8 6 6 14.35 16.41 0.93
8 7 6 31.00 28.31 1.18
8 8 6 13.14 13.00 0.93
8 9 6 4.68 5.27 0.51
8 10 6 0.04 0.14 0.40
8 11 6 28.54 29.54 1.22
8 12 6 0.09 0.03 0.38
8 13 6 8.81 9.80 0.73
8 14 6 2.63 3.30 0.48
8 15 6 14.33 14.79 0.98
8 16 6 18.06 18.74 1.04
8 0 7 55.16 54.77 1.53
8 1 7 4.72 5.01 0.50
8 2 7 1.10 1.31 0.41
8 3 7 11.76 11.33 0.76
8 4 7 56.81 59.97 1.57
8 5 7 1.24 1.01 0.41
8 6 7 2.83 3.11 0.46
8 7 7 36.50 35.86 1.28
8 8 7 29.18 30.43 1.22
8 9 7 9.48 10.35 0.78
8 10 7 0.16 0.13 0.43
8 11 7 30.50 28.35 1.22
8 12 7 32.92 32.76 1.24
8 13 7 7.50 8.67 0.66
8 14 7 11.43 13.18 0.93
8 0 8 45.63 47.49 1.45
8 1 8 43.22 44.85 1.42
8 2 8 10.31 9.99 0.76
8 3 8 36.15 35.30 1.30
8 4 8 11.79 11.74 0.82
8 5 8 14.95 14.15 0.97
8 6 8 8.92 8.90 0.63
8 7 8 12.73 13.37 0.94
8 8 8 3.11 3.11 0.47
8 9 8 3.23 3.92 0.49
8 10 8 3.93 4.46 0.50
8 11 8 20.84 22.45 1.09
8 0 9 6.51 6.25 0.54
8 1 9 5.37 5.82 0.54
8 2 9 18.97 19.96 1.08
8 3 9 15.83 17.15 1.01
8 4 9 19.36 17.92 1.05
8 5 9 0.59 0.90 0.43
8 6 9 42.16 44.21 1.37
8 7 9 20.97 23.20 1.11
8 8 9 6.34 7.51 0.65
9 1 0 0.49 0.57 0.33
9 2 0 23.45 24.10 0.95
9 4 0 180.11 177.90 2.62
9 5 0 0.06 0.58 0.68
9 6 0 6.04 6.69 0.54
9 7 0 7.65 7.23 0.64
9 8 0 128.78 126.49 2.20
9 9 0 4.96 4.40 0.47
9 10 0 16.26 15.79 0.91
9 11 0 25.80 25.13 1.07
9 12 0 5.61 5.55 0.51
9 13 0 6.30 6.79 0.55
9 14 0 40.36 42.32 1.37
9 15 0 36.77 37.57 1.31
9 16 0 0.09 0.11 0.41
9 18 0 4.84 4.67 0.50
9 0 1 7.27 7.45 0.54
9 1 1 12.09 11.93 0.76
9 2 1 26.27 26.60 0.99
9 3 1 14.02 13.04 0.80
9 4 1 4.75 5.88 0.51
9 5 1 7.65 6.99 0.61
9 6 1 19.22 19.71 0.91
9 7 1 40.13 39.51 1.24
9 8 1 13.67 14.35 0.84
9 9 1 37.52 38.94 1.22
9 10 1 4.64 4.34 0.48
9 11 1 34.61 34.75 1.22
9 12 1 3.44 3.29 0.46
9 13 1 59.36 59.87 1.59
9 14 1 13.82 13.69 0.94
9 15 1 4.06 4.22 0.50
9 16 1 9.66 10.28 0.85
9 17 1 22.97 22.00 1.08
9 18 1 1.28 1.40 0.42
9 0 2 112.73 112.64 1.99
9 1 2 1.41 1.82 0.37
9 2 2 4.91 4.59 0.44
9 3 2 3.04 2.81 0.41
9 4 2 92.09 92.63 1.81
9 5 2 31.57 32.78 1.10
9 6 2 10.97 10.05 0.79
9 7 2 11.91 11.22 0.82
9 8 2 6.57 6.33 0.51
9 9 2 61.42 64.16 1.57
9 10 2 9.21 10.10 0.78
9 11 2 16.24 15.95 0.93
9 12 2 19.72 19.51 1.02
9 13 2 34.17 35.52 1.29
9 14 2 11.26 10.66 0.79
9 15 2 10.10 10.94 0.85
9 16 2 17.03 18.41 1.03
9 17 2 4.29 3.69 0.48
9 18 2 12.77 13.13 0.89
9 0 3 19.60 20.24 0.90
9 1 3 19.71 20.68 0.93
9 2 3 74.47 73.96 1.62
9 3 3 0.21 0.07 0.34
9 4 3 7.66 7.81 0.58
9 5 3 21.54 21.74 1.00
9 6 3 26.84 27.99 1.09
9 7 3 16.82 16.58 0.91
9 8 3 83.42 86.56 1.85
9 9 3 8.94 10.03 0.83
9 10 3 48.07 49.97 1.43
9 11 3 15.33 15.75 0.95
9 12 3 42.86 44.66 1.39
9 13 3 4.26 3.95 0.49
9 14 3 30.82 30.78 1.24
9 15 3 2.46 3.60 0.48
9 16 3 2.03 2.17 0.44
9 17 3 4.75 4.92 0.51
9 0 4 67.08 66.93 1.59
9 1 4 0.81 1.59 0.40
9 2 4 3.06 3.47 0.44
9 3 4 13.65 15.36 0.87
9 4 4 41.52 42.68 1.28
9 5 4 18.29 19.34 0.96
9 6 4 28.67 29.30 1.10
9 7 4 14.27 13.30 0.88
9 8 4 33.54 35.26 1.23
9 9 4 18.68 20.64 1.00
9 10 4 46.17 49.32 1.47
9 11 4 0.43 0.58 0.39
9 12 4 35.86 35.91 1.27
9 13 4 1.24 1.32 0.43
9 14 4 4.49 4.50 0.50
9 15 4 5.21 5.36 0.53
9 16 4 4.70 4.76 0.51
9 0 5 70.68 69.64 1.68
9 1 5 12.28 12.30 0.86
9 2 5 43.35 43.88 1.34
9 3 5 41.07 40.45 1.30
9 4 5 13.62 13.32 0.89
9 5 5 0.65 1.15 0.40
9 6 5 16.96 17.92 0.99
9 7 5 36.73 36.88 1.27
9 8 5 19.70 20.74 1.02
9 9 5 1.51 1.62 0.43
9 10 5 2.66 2.92 0.47
9 11 5 21.06 20.89 1.06
9 12 5 11.09 11.74 0.88
9 13 5 9.24 7.83 0.65
9 14 5 2.24 2.82 0.47
9 15 5 9.55 9.51 0.76
9 0 6 0.38 0.89 0.39
9 1 6 2.59 2.88 0.45
9 2 6 16.07 16.12 0.96
9 3 6 29.54 30.48 1.18
9 4 6 9.67 9.23 0.74
9 5 6 11.17 10.90 0.86
9 6 6 9.20 10.16 0.83
9 7 6 16.10 16.09 0.98
9 8 6 3.31 3.21 0.48
9 9 6 21.90 23.92 1.11
9 10 6 5.48 5.25 0.58
9 11 6 22.08 21.22 1.07
9 12 6 7.97 9.26 0.74
9 13 6 8.23 7.89 0.58
9 0 7 18.94 18.43 1.03
9 1 7 5.47 6.09 0.60
9 2 7 21.52 20.83 1.08
9 3 7 5.18 5.54 0.53
9 4 7 20.65 19.75 1.07
9 5 7 19.09 20.22 1.07
9 6 7 63.19 63.57 1.66
9 7 7 1.08 1.36 0.42
9 8 7 21.23 21.22 1.05
9 9 7 12.25 11.57 0.93
9 10 7 12.64 13.49 0.93
9 11 7 1.26 1.41 0.42
9 0 8 4.00 4.41 0.50
9 1 8 2.27 2.36 0.45
9 2 8 2.91 2.97 0.47
9 3 8 12.99 13.72 0.95
9 4 8 23.85 23.73 1.14
9 5 8 7.51 6.99 0.62
9 6 8 16.73 19.04 1.01
9 7 8 28.56 29.53 1.21
9 8 8 4.43 5.10 0.51
10 0 0 273.01 274.86 3.60
10 1 0 0.00 0.08 0.74
10 2 0 10.03 10.35 0.79
10 3 0 1.22 1.76 0.41
10 4 0 118.52 120.11 2.17
10 5 0 11.78 10.57 0.82
10 6 0 23.94 24.69 1.06
10 7 0 1.03 1.33 0.41
10 8 0 3.33 3.10 0.46
10 9 0 20.16 18.67 1.00
10 10 0 4.45 3.73 0.48
10 11 0 1.94 2.46 0.45
10 12 0 1.10 1.94 0.44
10 14 0 7.14 7.51 0.71
10 15 0 1.32 1.60 0.43
10 16 0 0.38 0.15 0.38
10 0 1 0.72 0.75 0.37
10 1 1 39.96 41.28 1.28
10 2 1 12.42 13.32 0.81
10 3 1 18.81 19.27 0.95
10 4 1 14.03 13.21 0.89
10 5 1 5.72 5.85 0.56
10 6 1 41.00 41.80 1.31
10 7 1 11.56 11.93 0.78
10 8 1 2.04 2.20 0.43
10 9 1 8.76 10.15 0.84
10 10 1 11.01 11.13 0.86
10 11 1 49.36 49.01 1.47
10 12 1 10.54 9.02 0.77
10 13 1 9.46 9.40 0.68
10 14 1 9.46 8.93 0.76
10 15 1 16.75 17.10 1.00
10 16 1 2.31 2.38 0.44
10 0 2 54.71 52.16 1.44
10 1 2 3.78 3.70 0.46
10 2 2 50.50 51.12 1.45
10 3 2 13.24 14.53 0.88
10 4 2 17.23 18.98 0.95
10 5 2 6.02 5.39 0.50
10 6 2 2.57 2.72 0.44
10 7 2 37.00 37.32 1.26
10 8 2 7.78 7.46 0.71
10 9 2 2.33 2.73 0.45
10 10 2 32.67 32.94 1.26
10 11 2 45.37 44.99 1.43
10 12 2 1.62 2.35 0.45
10 13 2 0.57 0.97 0.41
10 14 2 36.05 35.09 1.28
10 15 2 33.64 33.70 1.27
10 0 3 8.72 7.66 0.70
10 1 3 0.71 0.73 0.38
10 2 3 15.25 15.27 0.90
10 3 3 5.01 5.15 0.50
10 4 3 15.80 15.75 0.92
10 5 3 8.40 8.33 0.64
10 6 3 56.83 58.28 1.54
10 7 3 2.23 2.45 0.44
10 9 3 10.69 10.95 0.87
10 10 3 24.46 23.28 1.13
10 11 3 1.74 1.83 0.43
10 12 3 21.12 22.19 1.07
10 13 3 27.99 27.70 1.19
10 14 3 2.02 2.55 0.45
10 15 3 4.08 2.51 0.45
10 0 4 2.73 3.24 0.46
10 1 4 8.54 8.87 0.72
10 2 4 14.47 14.93 0.90
10 3 4 18.82 18.13 1.01
10 4 4 13.44 15.76 0.94
10 5 4 34.18 33.03 1.24
10 6 4 4.64 3.95 0.48
10 7 4 39.67 39.57 1.37
10 8 4 21.29 22.39 1.10
10 9 4 13.74 15.85 0.96
10 10 4 22.90 23.17 1.12
10 11 4 20.61 21.40 1.08
10 12 4 1.11 1.56 0.43
10 13 4 0.76 0.96 0.41
10 14 4 20.90 20.05 1.05
10 0 5 16.95 18.23 1.00
10 1 5 31.92 33.01 1.24
10 2 5 32.78 30.70 1.24
10 3 5 1.12 1.29 0.42
10 4 5 22.78 23.48 1.10
10 5 5 56.84 57.90 1.61
10 6 5 18.17 20.10 1.06
10 7 5 2.59 2.23 0.45
10 8 5 11.88 12.73 0.90
10 9 5 42.88 42.08 1.41
10 10 5 12.56 13.31 0.95
10 11 5 2.22 2.19 0.45
10 12 5 10.96 9.47 0.78
10 0 6 0.08 0.18 0.41
10 1 6 9.51 9.43 0.64
10 2 6 12.03 11.86 0.93
10 3 6 0.16 0.45 0.39
10 4 6 2.09 2.01 0.44
10 5 6 3.36 4.01 0.50
10 6 6 3.50 3.21 0.47
10 7 6 13.21 13.26 0.85
10 8 6 6.14 6.37 0.54
10 9 6 6.83 6.76 0.61
10 10 6 15.15 15.85 0.96
10 0 7 3.19 3.45 0.48
10 1 7 4.88 5.89 0.53
10 2 7 87.62 86.74 1.95
10 3 7 3.46 3.73 0.48
10 4 7 9.27 9.39 0.77
10 5 7 4.67 4.70 0.50
10 6 7 37.17 37.57 1.31
10 7 7 11.53 11.90 0.91
11 1 0 0.57 0.79 0.39
11 2 0 190.28 187.36 2.92
11 3 0 10.76 10.62 0.79
11 4 0 0.90 0.67 0.39
11 5 0 0.43 0.38 0.40
11 6 0 16.88 20.13 1.05
11 7 0 59.85 59.78 1.60
11 8 0 0.47 0.91 0.41
11 9 0 1.19 1.74 0.43
11 10 0 11.34 10.60 0.81
11 11 0 55.17 56.77 1.56
11 12 0 4.98 4.56 0.50
11 13 0 10.92 9.90 0.80
11 0 1 0.03 0.31 0.38
11 1 1 31.60 31.11 1.21
11 2 1 1.43 1.62 0.43
11 3 1 9.68 8.78 0.74
11 4 1 8.12 8.25 0.64
11 5 1 27.32 26.75 1.16
11 6 1 1.59 1.67 0.43
11 7 1 27.38 29.11 1.17
11 8 1 14.87 15.41 0.97
11 9 1 2.85 2.15 0.45
11 10 1 7.31 8.15 0.65
11 11 1 5.49 5.32 0.52
11 12 1 0.77 0.88 0.41
11 13 1 13.82 13.77 0.81
11 0 2 8.75 7.69 0.71
11 1 2 9.32 10.33 0.84
11 2 2 17.47 14.87 0.98
11 3 2 22.17 21.40 1.09
11 4 2 10.94 13.22 0.89
11 5 2 1.03 1.52 0.43
11 6 2 1.85 1.98 0.44
11 7 2 20.07 20.32 1.06
11 8 2 8.76 9.62 0.77
11 9 2 2.17 2.32 0.45
11 10 2 3.28 3.27 0.48
11 11 2 21.49 22.19 1.08
11 12 2 6.90 6.12 0.59
11 0 3 16.24 16.30 0.97
11 1 3 18.92 19.89 1.02
11 2 3 9.45 8.92 0.74
11 3 3 0.93 0.62 0.40
11 4 3 28.87 28.34 1.19
11 5 3 17.14 19.66 1.02
11 6 3 17.73 18.67 1.03
11 7 3 13.43 12.88 0.93
11 8 3 16.06 15.72 1.01
11 9 3 2.67 3.21 0.47
11 10 3 3.73 3.79 0.48
11 11 3 18.38 16.69 1.02
11 0 4 7.81 7.16 0.63
11 1 4 13.52 14.90 0.96
11 2 4 27.56 28.38 1.18
11 3 4 35.28 36.27 1.31
11 4 4 7.47 7.62 0.58
11 5 4 3.52 3.34 0.47
11 6 4 15.56 16.88 0.96
11 7 4 5.45 5.20 0.53
11 8 4 0.96 1.45 0.42
11 9 4 12.80 11.18 0.80
11 10 4 3.93 3.46 0.47
11 0 5 7.68 9.20 0.68
11 1 5 14.79 14.85 0.99
11 2 5 35.51 35.88 1.31
11 3 5 22.74 23.22 1.07
11 4 5 2.24 2.48 0.45
11 5 5 3.72 3.15 0.47
11 6 5 47.56 49.31 1.51
11 7 5 11.33 12.48 0.89
11 8 5 0.07 0.27 0.41
11 0 6 19.88 18.63 1.05
11 1 6 5.13 4.89 0.51
11 2 6 0.47 0.94 0.43
11 3 6 28.32 28.46 1.18
11 4 6 6.67 7.14 0.61
12 0 0 10.06 9.15 0.68
12 1 0 12.82 14.17 0.96
12 2 0 5.24 5.48 0.59
12 3 0 25.68 25.28 1.14
12 4 0 2.14 2.38 0.45
12 5 0 18.02 17.94 1.00
12 6 0 21.34 20.85 1.05
12 7 0 7.71 8.21 0.58
12 8 0 0.62 0.61 0.41
12 9 0 36.98 36.58 1.30
12 0 1 11.78 12.60 0.90
12 1 1 4.76 5.22 0.52
12 2 1 4.68 3.88 0.49
12 3 1 24.89 22.86 1.12
12 4 1 7.41 9.02 0.70
12 5 1 37.48 35.16 1.31
12 6 1 0.20 0.53 0.40
12 7 1 21.39 23.20 1.12
12 8 1 9.08 10.27 0.87
12 0 2 0.76 1.01 0.41
12 1 2 5.26 5.24 0.52
12 2 2 49.62 48.40 1.51
12 3 2 1.23 1.56 0.43
12 4 2 9.25 8.82 0.76
12 5 2 8.05 7.89 0.64
12 6 2 16.04 15.40 1.00
12 7 2 5.16 4.99 0.51
12 8 2 5.77 5.42 0.59
12 0 3 0.18 1.08 0.85
12 1 3 16.38 18.37 0.99
12 2 3 0.37 0.84 0.41
12 3 3 20.47 21.16 1.07
12 4 3 1.20 1.89 0.43
12 5 3 6.84 7.17 0.71
12 6 3 1.01 0.91 0.41
12 0 4 12.10 14.46 0.94
12 1 4 45.10 44.89 1.41
12 2 4 7.89 9.24 0.85
12 3 4 16.88 17.46 1.01
