#------------------------------------------------------------------------------
#$Date: 2022-03-02 05:20:08 +0200 (Wed, 02 Mar 2022) $
#$Revision: 273207 $
#$URL: file:///home/coder/svn-repositories/cod/cif/1/56/65/1566505.cif $
#------------------------------------------------------------------------------
#
# This file is available in the Crystallography Open Database (COD),
# http://www.crystallography.net/. The original data for this entry
# were provided by IUCr Journals, http://journals.iucr.org/.
#
# The file may be used within the scientific community so long as
# proper attribution is given to the journal article from which the
# data were obtained.
#
data_1566505
loop_
_publ_author_name
'Ruth, Paul Niklas'
'Herbst-Irmer, Regine'
'Stalke, Dietmar'
_publ_section_title
;
 Hirshfeld atom refinement based on projector augmented wave densities
 with periodic boundary conditions
;
_journal_issue                   2
_journal_name_full               IUCrJ
_journal_page_first              286
_journal_page_last               297
_journal_paper_doi               10.1107/S2052252522001385
_journal_volume                  9
_journal_year                    2022
_chemical_absolute_configuration unk
_chemical_formula_moiety         '2(C0.5 H2 N O0.5)'
_chemical_formula_sum            'C H4 N2 O'
_chemical_formula_weight         60.056
_chemical_name_common            urea
_space_group_crystal_system      tetragonal
_space_group_IT_number           113
_space_group_name_Hall           'P -4 2ab'
_space_group_name_H-M_alt        'P -4 21 m'
_symmetry_Int_Tables_number      113
_audit_creation_date             2021-10-20
_audit_creation_method
;
Olex2 1.5
(compiled 2021.10.07 svn.r9718050b for OlexSys, GUI svn.r6410)
;
_cell_angle_alpha                90
_cell_angle_beta                 90
_cell_angle_gamma                90
_cell_formula_units_Z            2
_cell_length_a                   5.5780(6)
_cell_length_b                   5.5780(6)
_cell_length_c                   4.6860(7)
_cell_measurement_reflns_used    17
_cell_measurement_temperature    123.15
_cell_volume                     145.80(3)
_computing_cell_refinement       'KM6-CH software'
_computing_data_collection       'KM6-CH software'
_computing_data_reduction        XD_RED
_computing_molecular_graphics    'Olex2 1.5 (Dolomanov et al., 2009)'
_computing_publication_material  'Olex2 1.5 (Dolomanov et al., 2009)'
_computing_structure_refinement  'olex2.refine 1.5 (Bourhis et al., 2015)'
_diffrn_ambient_temperature      123
_diffrn_measured_fraction_theta_full 1.0000
_diffrn_measured_fraction_theta_max 0.9817
_diffrn_measurement_device_type
;
KM6-CH six-circle \k diffractometer operated as standard four-circle
\k diffractometer with detector circle in the vertical plane to profit
from the linear polarization of the synchrotron beam.
;
_diffrn_measurement_method       \w-scan
_diffrn_radiation_type           synchrotron
_diffrn_radiation_wavelength     0.5996
_diffrn_reflns_av_R_equivalents  0.0141
_diffrn_reflns_av_unetI/netI     0.0148
_diffrn_reflns_Laue_measured_fraction_full 1.0000
_diffrn_reflns_Laue_measured_fraction_max 0.9817
_diffrn_reflns_limit_h_max       15
_diffrn_reflns_limit_h_min       0
_diffrn_reflns_limit_k_max       10
_diffrn_reflns_limit_k_min       0
_diffrn_reflns_limit_l_max       13
_diffrn_reflns_limit_l_min       0
_diffrn_reflns_number            1022
_diffrn_reflns_point_group_measured_fraction_full 1.0000
_diffrn_reflns_point_group_measured_fraction_max 0.9817
_diffrn_reflns_theta_full        21.0855
_diffrn_reflns_theta_max         57.40
_diffrn_reflns_theta_min         3.67
_exptl_absorpt_coefficient_mu    0.081
_exptl_absorpt_correction_type   none
_exptl_crystal_colour            colourless
_exptl_crystal_density_diffrn    1.368
_exptl_crystal_density_method    'not measured'
_exptl_crystal_description       block
_exptl_crystal_F_000             64.009
_exptl_crystal_size_max          0.23
_exptl_crystal_size_mid          0.13
_exptl_crystal_size_min          0.09
_refine_diff_density_max         0.1697
_refine_diff_density_min         -0.3545
_refine_diff_density_rms         0.0358
_refine_ls_d_res_high            0.3559
_refine_ls_d_res_low             4.6860
_refine_ls_goodness_of_fit_ref   1.4453
_refine_ls_hydrogen_treatment    refall
_refine_ls_matrix_type           full
_refine_ls_number_constraints    0
_refine_ls_number_parameters     51
_refine_ls_number_reflns         1022
_refine_ls_number_restraints     0
_refine_ls_restrained_S_all      1.4453
_refine_ls_R_factor_all          0.0214
_refine_ls_R_factor_gt           0.0105
_refine_ls_shift/su_max          0.0002
_refine_ls_shift/su_mean         0.0000
_refine_ls_structure_factor_coef Fsqd
_refine_ls_weighting_details
'w=1/[\s^2^(Fo^2^)+(0.0000P)^2^] where P=(Fo^2^+2Fc^2^)/3'
_refine_ls_weighting_scheme      calc
_refine_ls_wR_factor_gt          0.0133
_refine_ls_wR_factor_ref         0.0133
_reflns_Friedel_coverage         0.0
_reflns_limit_h_max              15
_reflns_limit_h_min              0
_reflns_limit_k_max              10
_reflns_limit_k_min              0
_reflns_limit_l_max              13
_reflns_limit_l_min              0
_reflns_number_gt                803
_reflns_number_total             1022
_reflns_threshold_expression     I>=2u(I)
_iucr_refine_instructions_details
;
TITL I P -4 21 m
CELL 0.5996 5.578 5.578 4.686 90 90 90
ZERR 2 0.0006 0.0006 0.0007 0 0 0
LATT -1
SYMM +Y,-X,-Z
SYMM -X,-Y,+Z
SYMM -Y,+X,-Z
SYMM 0.5+X,0.5-Y,-Z
SYMM 0.5-Y,0.5-X,+Z
SYMM 0.5-X,0.5+Y,-Z
SYMM 0.5+Y,0.5+X,+Z
SFAC C H N O
DISP C 0.002 0.001 8.3
DISP H 0 0 0.7
DISP N 0.004 0.002 13.3
DISP O 0.007 0.004 21.1
UNIT 2 8 4 2

L.S. 0
PLAN  5
SIZE 0.09 0.13 0.23
TEMP -150
CONF
LIST 6
BOND $H
MORE -1
fmap 2
ACTA 
WGHT 0
FVAR 1.00321
REM <olex2.extras>
REM <anharmonics
REM  <O Cijk="-0.0000e+00 -0.0000e+00 -3.2301e-07 -0.0000e+00 8.1581e-08
REM  -0.0000e+00 -0.0000e+00 -3.2301e-07 -0.0000e+00 -1.4310e-07"
REM  Dijkl="3.0387e-08 6.8412e-09 -0.0000e+00 -2.9915e-09 -0.0000e+00
REM  1.5121e-09 6.8412e-09 -0.0000e+00 -4.3585e-09 -0.0000e+00 3.0387e-08
REM  -0.0000e+00 1.5121e-09 -0.0000e+00 2.2973e-08">
REM  <N Cijk="-1.3891e-06 4.5578e-07 1.4194e-06 4.5578e-07 -1.4405e-06
REM  1.8271e-08 -1.3891e-06 1.4194e-06 1.8271e-08 4.5475e-07"
REM  Dijkl="-1.6830e-08 7.1567e-08 -2.4782e-09 -7.9633e-08 6.1208e-09
REM  8.3560e-09 7.1567e-08 6.1208e-09 -1.3035e-09 4.5834e-12 -1.6830e-08
REM  -2.4782e-09 8.3560e-09 4.5834e-12 -2.3551e-08">
REM >
REM <HklSrc "%.\\SCAN.hkl">
REM </olex2.extras>

O     4     0.00000  0.50000  0.59608  10.25000  0.01971  0.01971  0.00672 =
 0.00000 -0.00000  0.00179 
N     3     0.14469  0.64469  0.17896  10.50000  0.02869  0.02869  0.00932 =
 0.00012  0.00012 -0.01465 
H1    2     0.25643  0.75643  0.28455  10.50000  0.05474  0.05474  0.02256 =
 -0.00276 -0.00276 -0.03852 
H2    2     0.14345  0.64345 -0.03520  10.50000  0.04400  0.04400  0.02391 =
 -0.00008 -0.00008 -0.01875 
C     1     0.00000  0.50000  0.32825  10.25000  0.01455  0.01455  0.00655 =
 0.00000 -0.00000 -0.00012 
HKLF 4

END
Q3 1 0.175 0.675 0.19444 11 0.05 0.15
Q2 1 0 0.5 -0.11111 11 0.05 0.17
Q4 1 0 0.5 0.58333 11 0.05 0.11
Q1 1 0 0.5 0.361111 11 0.05 0.17
Q5 1 0.1 0.925 0.416667 11 0.05 0.11

  REM The information below was added by Olex2.
  REM
  REM R1 = 0.0105 for 803 Fo > 4sig(Fo) and 0.0214 for all 1022 data
  REM 51 parameters refined using 0 restraints
  REM Highest difference peak 0.1697, deepest hole -0.3545
  REM Mean Shift 0.0000, Max Shift 0.0002.

  REM +++ Tabular Listing of Refinement Information +++
  REM R1_all = 0.0214
  REM R1_gt = 0.0105
  REM wR_ref = 0.0133
  REM GOOF = 1.4453
  REM Shift_max = 0.0002
  REM Shift_mean = 0.0000
  REM Reflections_all = 1022
  REM Reflections_gt = 803
  REM Parameters = 51
  REM Hole = -0.3545
  REM Peak = 0.1697
  REM Flack = n/a

  
;
_cod_data_source_file            fc5060.cif
_cod_data_source_block           urea_NoSpherA2_SCAN_dijkl
_cod_original_sg_symbol_Hall     ' P -4 2ab'
_cod_database_code               1566505
_olex2_refinement_description
;
;
_iucr_refine_fcf_details
;
data_urea_NoSpherA2_SCAN_dijkl
_computing_structure_refinement   'olex2.refine 1.5 (Bourhis et al., 2015)'
_shelx_refln_list_code            4
loop_
  _space_group_symop_id
  _space_group_symop_operation_xyz
  1  x,y,z
  2  y,-x,-z
  3  -y,x,-z
  4  x+1/2,-y+1/2,-z
  5  -x+1/2,y+1/2,-z
  6  -x,-y,z
  7  -y+1/2,-x+1/2,z
  8  y+1/2,x+1/2,z

_space_group_crystal_system       tetragonal
_space_group_IT_number            113
_space_group_name_H-M_alt         'P -4 21 m'
_space_group_name_Hall            ' P -4 2ab'
_symmetry_space_group_name_H-M    'P -4 21 m'
_symmetry_space_group_name_Hall   ' P -4 2ab'
_symmetry_Int_Tables_number       113
_cell_length_a                    5.5780(6)
_cell_length_b                    5.5780(6)
_cell_length_c                    4.6860(7)
_cell_angle_alpha                 90
_cell_angle_beta                  90
_cell_angle_gamma                 90
_cell_volume                      145.80(3)
loop_
  _refln_index_h
  _refln_index_k
  _refln_index_l
  _refln_F_squared_calc
  _refln_F_squared_meas
  _refln_F_squared_sigma
  _refln_F_squared_weight
  _refln_observed_status
0 0 1 13.175 13.344 0.050 17.548 o
0 0 2 128.937 133.978 0.825 0.064 o
0 0 3 13.508 13.543 0.079 6.855 o
0 0 4 29.140 29.639 0.179 1.354 o
0 0 5 48.258 48.756 0.358 0.339 o
0 0 6 15.130 15.699 0.189 1.215 o
0 0 7 0.232 0.268 0.030 48.745 o
0 0 8 15.188 14.656 0.248 0.702 o
0 0 9 3.579 3.637 0.099 4.387 o
0 0 10 2.915 2.881 0.089 5.416 o
0 0 11 0.100 0.070 0.258 0.649 o
0 0 12 3.801 3.786 0.109 3.626 o
0 0 13 0.176 0.179 0.020 109.677 o
1 0 1 148.627 148.972 0.179 1.354 o
1 0 2 151.358 152.231 0.268 0.602 o
1 0 3 87.377 87.179 0.189 1.215 o
1 0 4 2.226 2.206 0.030 48.745 o
1 0 5 18.851 18.958 0.099 4.387 o
1 0 6 0.464 0.527 0.030 48.745 o
1 0 7 43.172 43.003 0.338 0.380 o
1 0 8 6.056 6.111 0.070 8.953 o
1 0 9 0.008 -0.010 0.318 0.428 o
1 0 10 0.208 0.189 0.010 438.710 o
1 0 11 1.464 1.421 0.040 27.419 o
1 0 12 1.223 1.252 0.040 27.419 o
1 0 13 0.037 0.000 0.308 0.457 o
1 1 0 1036.210 1001.930 1.908 0.012 o
1 1 1 279.275 281.668 0.507 0.169 o
1 1 2 52.457 52.592 0.119 3.047 o
1 1 3 11.592 11.536 0.060 12.186 o
1 1 4 43.109 43.212 0.179 1.354 o
1 1 5 16.732 16.901 0.109 3.626 o
1 1 6 2.998 2.951 0.030 48.745 o
1 1 7 5.715 5.664 0.079 6.855 o
1 1 8 4.405 4.471 0.070 8.953 o
1 1 9 1.285 1.302 0.050 17.548 o
1 1 10 3.229 3.239 0.070 8.953 o
1 1 11 1.629 1.639 0.050 17.548 o
1 1 12 2.394 2.454 0.060 12.186 o
1 1 13 0.237 0.229 0.020 109.677 o
2 0 0 153.579 154.943 0.298 0.487 o
2 0 1 195.142 196.456 0.258 0.649 o
2 0 2 8.254 8.247 0.030 48.745 o
2 0 3 49.372 49.353 0.129 2.596 o
2 0 4 20.047 20.021 0.089 5.416 o
2 0 5 0.566 0.556 0.030 48.745 o
2 0 6 1.452 1.461 0.020 109.677 o
2 0 7 0.264 0.268 0.010 438.710 o
2 0 8 0.044 0.050 0.199 1.097 o
2 0 9 0.370 0.358 0.020 109.677 o
2 0 10 1.092 1.073 0.040 27.419 o
2 0 11 4.374 4.312 0.070 8.953 o
2 0 12 0.985 1.063 0.040 27.419 o
2 0 13 0.001 -0.030 0.298 0.487 o
2 1 0 226.743 225.470 0.278 0.560 o
2 1 1 49.022 49.263 0.079 6.855 o
2 1 2 29.866 30.047 0.070 8.953 o
2 1 3 68.138 68.221 0.159 1.714 o
2 1 4 45.007 45.060 0.139 2.238 o
2 1 5 13.659 13.503 0.070 8.953 o
2 1 6 13.741 13.841 0.089 5.416 o
2 1 7 10.729 10.731 0.089 5.416 o
2 1 8 15.054 14.845 0.129 2.596 o
2 1 9 3.300 3.289 0.050 17.548 o
2 1 10 1.176 1.192 0.030 48.745 o
2 1 11 1.925 1.898 0.040 27.419 o
2 1 12 0.407 0.417 0.020 109.677 o
2 1 13 0.203 0.209 0.010 438.710 o
2 2 0 228.370 225.947 0.417 0.249 o
2 2 1 199.908 198.583 0.388 0.288 o
2 2 2 55.065 54.440 0.159 1.714 o
2 2 3 27.377 27.364 0.119 3.047 o
2 2 4 43.535 43.192 0.209 0.995 o
2 2 5 9.736 9.727 0.079 6.855 o
2 2 6 2.880 2.742 0.050 17.548 o
2 2 7 10.253 10.036 0.119 3.047 o
2 2 8 1.797 1.838 0.050 17.548 o
2 2 9 1.672 1.659 0.050 17.548 o
2 2 10 3.684 3.647 0.070 8.953 o
2 2 11 2.860 2.762 0.060 12.186 o
2 2 12 1.728 1.739 0.050 17.548 o
3 0 1 92.963 92.823 0.169 1.518 o
3 0 2 17.698 17.716 0.060 12.186 o
3 0 3 11.522 11.546 0.050 17.548 o
3 0 4 103.688 104.289 0.378 0.304 o
3 0 5 0.304 0.368 0.020 109.677 o
3 0 6 11.026 10.820 0.089 5.416 o
3 0 7 0.465 0.497 0.020 109.677 o
3 0 8 15.631 15.490 0.159 1.714 o
3 0 9 4.190 4.243 0.060 12.186 o
3 0 10 4.856 4.809 0.070 8.953 o
3 0 11 0.385 0.407 0.020 109.677 o
3 0 12 0.037 0.040 0.169 1.518 o
3 1 0 28.896 28.934 0.070 8.953 o
3 1 1 141.711 141.450 0.229 0.829 o
3 1 2 14.896 14.785 0.050 17.548 o
3 1 3 66.060 65.787 0.179 1.354 o
3 1 4 14.272 14.427 0.070 8.953 o
3 1 5 1.667 1.659 0.030 48.745 o
3 1 6 5.197 5.207 0.050 17.548 o
3 1 7 1.533 1.530 0.030 48.745 o
3 1 8 0.466 0.467 0.020 109.677 o
3 1 9 1.450 1.480 0.030 48.745 o
3 1 10 1.032 1.073 0.030 48.745 o
3 1 11 5.413 5.385 0.070 8.953 o
3 1 12 0.574 0.586 0.030 48.745 o
3 2 0 17.247 17.299 0.050 17.548 o
3 2 1 5.085 5.097 0.030 48.745 o
3 2 2 11.088 10.940 0.040 27.419 o
3 2 3 25.453 25.486 0.089 5.416 o
3 2 4 13.601 13.583 0.070 8.953 o
3 2 5 7.622 7.591 0.050 17.548 o
3 2 6 2.986 3.031 0.040 27.419 o
3 2 7 16.024 16.047 0.129 2.596 o
3 2 8 7.115 7.015 0.070 8.953 o
3 2 9 0.651 0.676 0.030 48.745 o
3 2 10 0.155 0.119 0.020 109.677 o
3 2 11 0.998 0.944 0.030 48.745 o
3 2 12 0.395 0.407 0.020 109.677 o
3 3 0 221.426 218.117 0.616 0.114 o
3 3 1 7.995 8.078 0.050 17.548 o
3 3 2 7.622 7.909 0.060 12.186 o
3 3 3 0.491 0.507 0.030 48.745 o
3 3 4 15.951 15.689 0.119 3.047 o
3 3 5 13.432 13.294 0.089 5.416 o
3 3 6 5.428 5.554 0.070 8.953 o
3 3 7 0.146 0.149 0.020 109.677 o
3 3 8 5.676 5.594 0.089 5.416 o
3 3 9 1.020 0.984 0.050 17.548 o
3 3 10 1.360 1.490 0.050 17.548 o
3 3 11 0.331 0.308 0.020 109.677 o
3 3 12 1.919 1.967 0.050 17.548 o
4 0 0 5.112 5.475 0.060 12.186 o
4 0 1 95.381 96.996 0.238 0.762 o
4 0 2 7.739 7.631 0.040 27.419 o
4 0 3 70.937 71.460 0.248 0.702 o
4 0 4 5.829 5.882 0.050 17.548 o
4 0 5 2.498 2.593 0.040 27.419 o
4 0 6 7.818 7.750 0.070 8.953 o
4 0 7 0.153 0.159 0.010 438.710 o
4 0 8 1.160 1.113 0.040 27.419 o
4 0 9 2.114 2.126 0.050 17.548 o
4 0 10 0.498 0.417 0.020 109.677 o
4 0 11 5.905 5.972 0.089 5.416 o
4 0 12 0.242 0.229 0.010 438.710 o
4 1 0 7.023 7.094 0.040 27.419 o
4 1 1 11.596 11.585 0.040 27.419 o
4 1 2 2.779 2.732 0.030 48.745 o
4 1 3 13.112 13.046 0.060 12.186 o
4 1 4 42.313 42.745 0.179 1.354 o
4 1 5 1.473 1.510 0.030 48.745 o
4 1 6 5.745 5.713 0.050 17.548 o
4 1 7 3.406 3.378 0.040 27.419 o
4 1 8 10.155 10.055 0.099 4.387 o
4 1 9 1.845 1.858 0.040 27.419 o
4 1 10 1.831 1.798 0.040 27.419 o
4 1 11 0.566 0.566 0.020 109.677 o
4 1 12 0.046 0.030 0.278 0.560 o
4 2 0 93.258 92.803 0.219 0.906 o
4 2 1 25.317 25.556 0.079 6.855 o
4 2 2 5.468 5.405 0.030 48.745 o
4 2 3 4.210 4.203 0.030 48.745 o
4 2 4 16.611 16.504 0.089 5.416 o
4 2 5 5.271 5.276 0.030 48.745 o
4 2 6 1.106 1.123 0.030 48.745 o
4 2 7 1.698 1.689 0.030 48.745 o
4 2 8 1.874 1.848 0.040 27.419 o
4 2 9 0.365 0.388 0.020 109.677 o
4 2 10 1.424 1.421 0.040 27.419 o
4 2 11 1.228 1.192 0.030 48.745 o
4 2 12 1.207 1.222 0.030 48.745 o
4 3 0 3.366 3.239 0.030 48.745 o
4 3 1 20.363 20.468 0.079 6.855 o
4 3 2 18.765 18.620 0.079 6.855 o
4 3 3 16.580 16.712 0.079 6.855 o
4 3 4 0.337 0.308 0.020 109.677 o
4 3 5 13.193 13.185 0.089 5.416 o
4 3 6 1.096 1.143 0.030 48.745 o
4 3 7 24.112 23.956 0.199 1.097 o
4 3 8 2.926 3.021 0.040 27.419 o
4 3 9 0.214 0.209 0.010 438.710 o
4 3 10 0.230 0.248 0.010 438.710 o
4 3 11 1.008 1.043 0.030 48.745 o
4 3 12 0.743 0.735 0.030 48.745 o
4 4 0 82.548 82.499 0.388 0.288 o
4 4 1 4.797 4.730 0.050 17.548 o
4 4 2 3.962 3.984 0.050 17.548 o
4 4 3 0.143 0.159 0.010 438.710 o
4 4 4 8.778 8.644 0.060 12.186 o
4 4 5 5.598 5.544 0.070 8.953 o
4 4 6 2.618 2.564 0.050 17.548 o
4 4 7 0.118 0.119 0.020 109.677 o
4 4 8 2.886 2.961 0.060 12.186 o
4 4 9 0.436 0.447 0.020 109.677 o
4 4 10 0.779 0.735 0.050 17.548 o
4 4 11 0.366 0.348 0.020 109.677 o
4 4 12 1.196 1.172 0.050 17.548 o
5 0 1 0.091 0.099 0.010 438.710 o
5 0 2 0.084 0.089 0.020 109.677 o
5 0 3 8.581 8.475 0.060 12.186 o
5 0 4 17.682 17.865 0.109 3.626 o
5 0 5 1.878 1.878 0.040 27.419 o
5 0 6 2.026 1.977 0.040 27.419 o
5 0 7 6.363 6.319 0.079 6.855 o
5 0 8 6.028 5.932 0.079 6.855 o
5 0 9 0.573 0.546 0.030 48.745 o
5 0 10 0.582 0.527 0.030 48.745 o
5 0 11 0.459 0.447 0.020 109.677 o
5 0 12 0.096 0.089 0.020 109.677 o
5 1 0 41.469 42.020 0.149 1.950 o
5 1 1 29.860 30.156 0.099 4.387 o
5 1 2 8.142 8.217 0.050 17.548 o
5 1 3 10.088 10.165 0.060 12.186 o
5 1 4 15.279 15.381 0.089 5.416 o
5 1 5 3.342 3.378 0.040 27.419 o
5 1 6 0.828 0.765 0.030 48.745 o
5 1 7 3.108 3.021 0.040 27.419 o
5 1 8 0.856 0.835 0.030 48.745 o
5 1 9 0.556 0.586 0.020 109.677 o
5 1 10 1.523 1.560 0.040 27.419 o
5 1 11 1.719 1.759 0.040 27.419 o
5 1 12 0.836 0.815 0.030 48.745 o
5 2 0 21.279 21.303 0.079 6.855 o
5 2 1 7.119 7.164 0.040 27.419 o
5 2 2 7.462 7.373 0.040 27.419 o
5 2 3 21.341 21.233 0.099 4.387 o
5 2 4 7.537 7.542 0.060 12.186 o
5 2 5 9.112 9.121 0.070 8.953 o
5 2 6 6.167 6.150 0.060 12.186 o
5 2 7 10.309 10.184 0.099 4.387 o
5 2 8 6.522 6.588 0.070 8.953 o
5 2 9 1.329 1.351 0.030 48.745 o
5 2 10 0.125 0.119 0.010 438.710 o
5 2 11 1.206 1.252 0.030 48.745 o
5 2 12 0.409 0.407 0.010 438.710 o
5 3 0 43.196 42.924 0.159 1.714 o
5 3 1 11.809 11.784 0.060 12.186 o
5 3 2 2.243 2.246 0.030 48.745 o
5 3 3 3.412 3.358 0.030 48.745 o
5 3 4 8.460 8.466 0.060 12.186 o
5 3 5 2.366 2.405 0.030 48.745 o
5 3 6 0.560 0.566 0.020 109.677 o
5 3 7 0.759 0.805 0.030 48.745 o
5 3 8 1.128 1.063 0.030 48.745 o
5 3 9 0.166 0.179 0.010 438.710 o
5 3 10 0.830 0.855 0.030 48.745 o
5 3 11 0.890 0.815 0.030 48.745 o
5 3 12 0.776 0.705 0.030 48.745 o
5 4 0 2.878 2.872 0.030 48.745 o
5 4 1 0.488 0.477 0.020 109.677 o
5 4 2 0.711 0.686 0.030 48.745 o
5 4 3 5.767 5.703 0.030 48.745 o
5 4 4 8.581 8.406 0.070 8.953 o
5 4 5 2.597 2.583 0.040 27.419 o
5 4 6 1.580 1.580 0.030 48.745 o
5 4 7 5.034 5.067 0.060 12.186 o
5 4 8 3.545 3.597 0.050 17.548 o
5 4 9 0.464 0.457 0.020 109.677 o
5 4 10 0.251 0.248 0.010 438.710 o
5 4 11 0.441 0.477 0.020 109.677 o
5 4 12 0.106 0.109 0.010 438.710 o
5 5 0 6.661 6.727 0.070 8.953 o
5 5 1 15.562 15.550 0.139 2.238 o
5 5 2 4.972 4.978 0.040 27.419 o
5 5 3 10.249 10.214 0.109 3.626 o
5 5 4 6.937 6.925 0.089 5.416 o
5 5 5 1.606 1.659 0.050 17.548 o
5 5 6 0.749 0.815 0.040 27.419 o
5 5 7 2.343 2.424 0.060 12.186 o
5 5 8 0.245 0.248 0.020 109.677 o
5 5 9 0.478 0.507 0.030 48.745 o
5 5 10 0.797 0.815 0.050 17.548 o
5 5 11 1.403 1.401 0.050 17.548 o
6 0 0 59.776 61.167 0.407 0.261 o
6 0 1 4.441 4.441 0.040 27.419 o
6 0 2 2.581 2.544 0.030 48.745 o
6 0 3 0.231 0.229 0.010 438.710 o
6 0 4 7.650 7.720 0.070 8.953 o
6 0 5 4.453 4.362 0.050 17.548 o
6 0 6 1.966 1.947 0.040 27.419 o
6 0 7 0.080 0.030 0.328 0.403 o
6 0 8 2.300 2.345 0.050 17.548 o
6 0 9 0.282 0.268 0.010 438.710 o
6 0 10 0.688 0.735 0.040 27.419 o
6 0 11 0.386 0.437 0.020 109.677 o
6 0 12 1.005 1.013 0.030 48.745 o
6 1 0 5.175 5.296 0.040 27.419 o
6 1 1 5.641 5.654 0.040 27.419 o
6 1 2 4.628 4.670 0.040 27.419 o
6 1 3 10.424 10.463 0.070 8.953 o
6 1 4 2.892 2.901 0.040 27.419 o
6 1 5 6.380 6.419 0.060 12.186 o
6 1 6 1.912 1.908 0.030 48.745 o
6 1 7 10.987 10.850 0.109 3.626 o
6 1 8 3.290 3.289 0.050 17.548 o
6 1 9 0.383 0.378 0.020 109.677 o
6 1 10 0.009 -0.010 0.278 0.560 o
6 1 11 0.711 0.725 0.030 48.745 o
6 1 12 0.333 0.318 0.010 438.710 o
6 2 0 22.952 23.330 0.109 3.626 o
6 2 1 13.582 13.682 0.079 6.855 o
6 2 2 2.810 2.832 0.030 48.745 o
6 2 3 6.160 6.170 0.040 27.419 o
6 2 4 7.596 7.532 0.060 12.186 o
6 2 5 1.550 1.540 0.030 48.745 o
6 2 6 0.315 0.308 0.010 438.710 o
6 2 7 1.309 1.292 0.030 48.745 o
6 2 8 0.571 0.606 0.020 109.677 o
6 2 9 0.245 0.248 0.010 438.710 o
6 2 10 0.840 0.835 0.030 48.745 o
6 2 11 1.124 1.172 0.030 48.745 o
6 2 12 0.533 0.546 0.030 48.745 o
6 3 0 0.013 0.040 0.229 0.829 o
6 3 1 0.880 0.884 0.030 48.745 o
6 3 2 0.849 0.914 0.030 48.745 o
6 3 3 2.969 2.862 0.040 27.419 o
6 3 4 15.180 15.113 0.109 3.626 o
6 3 5 0.341 0.328 0.010 438.710 o
6 3 6 1.768 1.749 0.040 27.419 o
6 3 7 1.772 1.779 0.030 48.745 o
6 3 8 4.241 4.312 0.060 12.186 o
6 3 9 0.604 0.596 0.020 109.677 o
6 3 10 0.795 0.775 0.030 48.745 o
6 3 11 0.216 0.229 0.010 438.710 o
6 4 0 2.479 2.454 0.030 48.745 o
6 4 1 13.558 13.404 0.060 12.186 o
6 4 2 2.616 2.613 0.030 48.745 o
6 4 3 14.648 14.705 0.099 4.387 o
6 4 4 3.454 3.428 0.040 27.419 o
6 4 5 0.915 0.864 0.030 48.745 o
6 4 6 1.325 1.302 0.030 48.745 o
6 4 7 0.904 0.914 0.030 48.745 o
6 4 8 0.169 0.159 0.010 438.710 o
6 4 9 0.610 0.626 0.030 48.745 o
6 4 10 0.400 0.397 0.020 109.677 o
6 4 11 1.750 1.709 0.040 27.419 o
6 5 0 4.162 4.143 0.040 27.419 o
6 5 1 0.853 0.855 0.030 48.745 o
6 5 2 1.599 1.560 0.030 48.745 o
6 5 3 4.036 4.014 0.050 17.548 o
6 5 4 9.403 9.270 0.079 6.855 o
6 5 5 1.533 1.530 0.030 48.745 o
6 5 6 2.097 2.087 0.040 27.419 o
6 5 7 1.217 1.272 0.030 48.745 o
6 5 8 2.986 3.120 0.050 17.548 o
6 5 9 0.722 0.755 0.030 48.745 o
6 5 10 0.501 0.487 0.020 109.677 o
6 5 11 0.299 0.278 0.010 438.710 o
6 6 0 8.847 8.456 0.099 4.387 o
6 6 1 2.798 2.713 0.050 17.548 o
6 6 2 0.441 0.427 0.030 48.745 o
6 6 3 1.857 1.759 0.050 17.548 o
6 6 4 1.941 1.928 0.050 17.548 o
6 6 5 0.289 0.288 0.020 109.677 o
6 6 6 0.061 0.040 0.229 0.829 o
6 6 7 0.143 0.159 0.020 109.677 o
6 6 8 0.208 0.229 0.020 109.677 o
6 6 9 0.003 0.050 0.388 0.288 o
6 6 10 0.189 0.199 0.020 109.677 o
6 6 11 0.404 0.368 0.030 48.745 o
7 0 1 8.162 8.475 0.070 8.953 o
7 0 2 5.081 5.107 0.040 27.419 o
7 0 3 5.233 5.236 0.050 17.548 o
7 0 4 0.194 0.179 0.010 438.710 o
7 0 5 6.207 6.250 0.070 8.953 o
7 0 6 0.048 0.050 0.308 0.457 o
7 0 7 11.817 11.903 0.139 2.238 o
7 0 8 1.146 1.232 0.040 27.419 o
7 0 9 0.012 0.050 0.318 0.428 o
7 0 10 0.092 0.089 0.020 109.677 o
7 0 11 0.508 0.477 0.030 48.745 o
7 1 0 30.596 31.299 0.179 1.354 o
7 1 1 3.139 3.170 0.040 27.419 o
7 1 2 1.427 1.441 0.020 109.677 o
7 1 3 0.579 0.606 0.020 109.677 o
7 1 4 4.546 4.581 0.050 17.548 o
7 1 5 1.998 2.047 0.030 48.745 o
7 1 6 0.955 1.013 0.030 48.745 o
7 1 7 0.061 0.079 0.020 109.677 o
7 1 8 1.198 1.232 0.030 48.745 o
7 1 9 0.109 0.099 0.010 438.710 o
7 1 10 0.406 0.407 0.020 109.677 o
7 1 11 0.351 0.358 0.010 438.710 o
7 2 0 0.264 0.278 0.010 438.710 o
7 2 1 0.017 0.010 0.169 1.518 o
7 2 2 0.141 0.169 0.010 438.710 o
7 2 3 2.711 2.703 0.040 27.419 o
7 2 4 8.245 8.287 0.070 8.953 o
7 2 5 0.848 0.864 0.030 48.745 o
7 2 6 0.988 0.944 0.030 48.745 o
7 2 7 2.514 2.583 0.040 27.419 o
7 2 8 2.838 2.921 0.050 17.548 o
7 2 9 0.301 0.278 0.010 438.710 o
7 2 10 0.357 0.388 0.010 438.710 o
7 2 11 0.222 0.219 0.010 438.710 o
7 3 0 1.376 1.371 0.030 48.745 o
7 3 1 10.697 10.652 0.079 6.855 o
7 3 2 1.425 1.441 0.030 48.745 o
7 3 3 13.976 13.940 0.109 3.626 o
7 3 4 1.849 1.828 0.030 48.745 o
7 3 5 0.657 0.646 0.030 48.745 o
7 3 6 1.394 1.351 0.030 48.745 o
7 3 7 0.304 0.318 0.010 438.710 o
7 3 8 0.167 0.179 0.010 438.710 o
7 3 9 0.613 0.576 0.030 48.745 o
7 3 10 0.237 0.268 0.010 438.710 o
7 3 11 1.619 1.620 0.030 48.745 o
7 4 0 1.015 0.994 0.030 48.745 o
7 4 1 1.318 1.341 0.030 48.745 o
7 4 2 1.800 1.808 0.030 48.745 o
7 4 3 1.714 1.689 0.030 48.745 o
7 4 4 11.611 11.516 0.099 4.387 o
7 4 5 0.357 0.338 0.010 438.710 o
7 4 6 1.452 1.461 0.030 48.745 o
7 4 7 0.444 0.447 0.020 109.677 o
7 4 8 2.957 3.031 0.050 17.548 o
7 4 9 0.562 0.546 0.030 48.745 o
7 4 10 0.771 0.775 0.030 48.745 o
7 4 11 0.123 0.139 0.010 438.710 o
7 5 0 5.928 5.793 0.060 12.186 o
7 5 1 3.191 3.160 0.040 27.419 o
7 5 2 0.049 0.099 0.030 48.745 o
7 5 3 2.905 2.842 0.040 27.419 o
7 5 4 1.441 1.421 0.030 48.745 o
7 5 5 0.050 0.079 0.020 109.677 o
7 5 6 0.002 0.010 0.199 1.097 o
7 5 7 0.020 0.010 0.288 0.522 o
7 5 8 0.079 0.089 0.020 109.677 o
7 5 9 0.034 0.040 0.278 0.560 o
7 5 10 0.158 0.159 0.010 438.710 o
7 5 11 0.500 0.477 0.020 109.677 o
7 6 0 0.545 0.517 0.020 109.677 o
7 6 1 2.214 2.196 0.040 27.419 o
7 6 2 1.047 1.093 0.030 48.745 o
7 6 3 2.131 2.136 0.040 27.419 o
7 6 4 0.355 0.358 0.010 438.710 o
7 6 5 1.844 1.858 0.040 27.419 o
7 6 6 0.336 0.318 0.010 438.710 o
7 6 7 3.433 3.537 0.050 17.548 o
7 6 8 0.698 0.705 0.030 48.745 o
7 6 9 0.034 -0.010 0.288 0.522 o
7 6 10 0.002 -0.030 0.268 0.602 o
7 7 1 1.240 1.282 0.050 17.548 o
7 7 2 1.356 1.381 0.050 17.548 o
7 7 3 0.017 0.000 0.388 0.288 o
7 7 4 2.032 1.918 0.060 12.186 o
7 7 5 1.110 1.103 0.050 17.548 o
7 7 6 0.837 0.874 0.050 17.548 o
7 7 7 0.242 0.288 0.020 109.677 o
7 7 8 0.669 0.696 0.040 27.419 o
7 7 9 0.163 0.169 0.020 109.677 o
7 7 10 0.196 0.209 0.020 109.677 o
8 0 0 16.798 17.100 0.139 2.238 o
8 0 1 2.296 2.265 0.040 27.419 o
8 0 2 0.730 0.815 0.030 48.745 o
8 0 3 0.761 0.795 0.030 48.745 o
8 0 4 2.820 2.722 0.050 17.548 o
8 0 5 0.908 0.894 0.030 48.745 o
8 0 6 0.456 0.507 0.020 109.677 o
8 0 7 0.043 0.060 0.328 0.403 o
8 0 8 0.622 0.656 0.030 48.745 o
8 0 9 0.036 0.010 0.328 0.403 o
8 0 10 0.242 0.248 0.010 438.710 o
8 0 11 0.302 0.288 0.010 438.710 o
8 1 0 1.455 1.490 0.030 48.745 o
8 1 1 0.956 0.964 0.030 48.745 o
8 1 2 0.587 0.616 0.020 109.677 o
8 1 3 3.156 3.160 0.040 27.419 o
8 1 4 2.834 2.901 0.040 27.419 o
8 1 5 1.916 1.967 0.040 27.419 o
8 1 6 0.797 0.775 0.030 48.745 o
8 1 7 3.450 3.507 0.050 17.548 o
8 1 8 1.621 1.649 0.040 27.419 o
8 1 9 0.198 0.219 0.010 438.710 o
8 1 10 0.059 0.020 0.278 0.560 o
8 1 11 0.285 0.278 0.010 438.710 o
8 2 0 4.739 4.650 0.050 17.548 o
8 2 1 6.518 6.518 0.060 12.186 o
8 2 2 1.531 1.550 0.030 48.745 o
8 2 3 5.069 5.107 0.050 17.548 o
8 2 4 3.014 3.050 0.040 27.419 o
8 2 5 0.557 0.556 0.020 109.677 o
8 2 6 0.228 0.258 0.010 438.710 o
8 2 7 0.784 0.825 0.030 48.745 o
8 2 8 0.109 0.119 0.010 438.710 o
8 2 9 0.191 0.189 0.010 438.710 o
8 2 10 0.361 0.388 0.020 109.677 o
8 2 11 0.762 0.785 0.030 48.745 o
8 3 0 1.159 1.123 0.030 48.745 o
8 3 1 0.390 0.388 0.010 438.710 o
8 3 2 0.858 0.864 0.030 48.745 o
8 3 3 1.802 1.828 0.030 48.745 o
8 3 4 6.965 6.995 0.070 8.953 o
8 3 5 0.517 0.517 0.020 109.677 o
8 3 6 1.038 1.093 0.030 48.745 o
8 3 7 0.766 0.805 0.030 48.745 o
8 3 8 2.100 2.077 0.040 27.419 o
8 3 9 0.362 0.368 0.020 109.677 o
8 3 10 0.416 0.397 0.020 109.677 o
8 3 11 0.136 0.139 0.010 438.710 o
8 4 0 4.166 4.133 0.050 17.548 o
8 4 1 2.986 2.911 0.040 27.419 o
8 4 2 0.009 0.030 0.258 0.649 o
8 4 3 2.981 2.931 0.040 27.419 o
8 4 4 1.134 1.123 0.030 48.745 o
8 4 5 0.023 0.020 0.278 0.560 o
8 4 6 0.025 0.089 0.030 48.745 o
8 4 7 0.010 0.030 0.159 1.714 o
8 4 8 0.048 0.050 0.020 109.677 o
8 4 9 0.061 0.050 0.199 1.097 o
8 4 10 0.141 0.169 0.010 438.710 o
8 5 0 1.000 0.984 0.030 48.745 o
8 5 1 1.302 1.341 0.030 48.745 o
8 5 2 0.691 0.715 0.030 48.745 o
8 5 3 2.214 2.196 0.040 27.419 o
8 5 4 0.790 0.785 0.030 48.745 o
8 5 5 1.312 1.331 0.030 48.745 o
8 5 6 0.568 0.596 0.030 48.745 o
8 5 7 2.348 2.345 0.040 27.419 o
8 5 8 0.883 0.874 0.030 48.745 o
8 5 9 0.088 0.089 0.020 109.677 o
8 5 10 0.008 0.020 0.258 0.649 o
8 6 0 8.109 8.366 0.089 5.416 o
8 6 1 1.557 1.490 0.040 27.419 o
8 6 2 1.241 1.192 0.030 48.745 o
8 6 3 0.039 0.020 0.278 0.560 o
8 6 4 1.995 1.967 0.040 27.419 o
8 6 5 0.934 1.013 0.030 48.745 o
8 6 6 0.592 0.586 0.030 48.745 o
8 6 7 0.314 0.308 0.020 109.677 o
8 6 8 0.542 0.556 0.020 109.677 o
8 6 9 0.124 0.129 0.010 438.710 o
8 6 10 0.218 0.238 0.020 109.677 o
8 7 0 0.107 0.139 0.020 109.677 o
8 7 1 0.651 0.556 0.030 48.745 o
8 7 2 0.217 0.219 0.010 438.710 o
8 7 3 0.759 0.775 0.030 48.745 o
8 7 4 0.358 0.348 0.020 109.677 o
8 7 5 0.621 0.646 0.030 48.745 o
8 7 6 0.126 0.149 0.020 109.677 o
8 7 7 1.279 1.252 0.040 27.419 o
8 7 8 0.349 0.358 0.010 438.710 o
8 7 9 0.007 0.000 0.268 0.602 o
8 8 0 0.908 0.884 0.050 17.548 o
8 8 1 0.853 0.864 0.040 27.419 o
8 8 2 0.130 0.159 0.020 109.677 o
8 8 3 0.945 0.954 0.050 17.548 o
8 8 4 0.360 0.348 0.020 109.677 o
8 8 5 0.035 0.010 0.407 0.261 o
8 8 6 0.009 0.000 0.407 0.261 o
8 8 7 0.067 0.030 0.407 0.261 o
8 8 8 0.006 0.010 0.388 0.288 o
9 0 1 0.000 -0.020 0.298 0.487 o
9 0 2 0.096 0.089 0.020 109.677 o
9 0 3 1.048 1.013 0.040 27.419 o
9 0 4 3.813 3.855 0.060 12.186 o
9 0 5 0.346 0.348 0.020 109.677 o
9 0 6 0.439 0.447 0.020 109.677 o
9 0 7 1.114 1.143 0.040 27.419 o
9 0 8 1.311 1.331 0.040 27.419 o
9 0 9 0.126 0.119 0.020 109.677 o
9 0 10 0.189 0.189 0.010 438.710 o
9 1 0 3.529 3.577 0.040 27.419 o
9 1 1 3.622 3.607 0.040 27.419 o
9 1 2 0.610 0.636 0.020 109.677 o
9 1 3 3.086 3.110 0.040 27.419 o
9 1 4 1.667 1.659 0.040 27.419 o
9 1 5 0.248 0.258 0.010 438.710 o
9 1 6 0.081 0.050 0.199 1.097 o
9 1 7 0.324 0.318 0.010 438.710 o
9 1 8 0.070 0.030 0.288 0.522 o
9 1 9 0.093 0.070 0.010 438.710 o
9 1 10 0.199 0.199 0.010 438.710 o
9 2 0 1.362 1.391 0.030 48.745 o
9 2 1 0.234 0.229 0.010 438.710 o
9 2 2 0.406 0.407 0.010 438.710 o
9 2 3 1.883 1.898 0.040 27.419 o
9 2 4 3.075 3.110 0.040 27.419 o
9 2 5 0.819 0.785 0.030 48.745 o
9 2 6 0.767 0.825 0.030 48.745 o
9 2 7 1.175 1.182 0.030 48.745 o
9 2 8 1.254 1.242 0.040 27.419 o
9 2 9 0.234 0.219 0.010 438.710 o
9 2 10 0.137 0.109 0.010 438.710 o
9 3 0 5.067 5.236 0.060 12.186 o
9 3 1 1.605 1.620 0.030 48.745 o
9 3 2 0.187 0.189 0.010 438.710 o
9 3 3 1.154 1.133 0.030 48.745 o
9 3 4 1.100 1.053 0.030 48.745 o
9 3 5 0.139 0.119 0.010 438.710 o
9 3 6 0.037 0.040 0.199 1.097 o
9 3 7 0.046 0.030 0.199 1.097 o
9 3 8 0.127 0.129 0.010 438.710 o
9 3 9 0.003 0.020 0.278 0.560 o
9 3 10 0.111 0.089 0.020 109.677 o
9 4 0 0.420 0.417 0.020 109.677 o
9 4 1 1.073 1.063 0.030 48.745 o
9 4 2 0.454 0.477 0.020 109.677 o
9 4 3 1.425 1.391 0.030 48.745 o
9 4 4 0.533 0.537 0.020 109.677 o
9 4 5 1.045 1.033 0.030 48.745 o
9 4 6 0.281 0.288 0.010 438.710 o
9 4 7 2.017 2.027 0.040 27.419 o
9 4 8 0.586 0.616 0.030 48.745 o
9 4 9 0.036 0.050 0.278 0.560 o
9 4 10 0.003 -0.030 0.268 0.602 o
9 5 0 5.979 6.250 0.070 8.953 o
9 5 1 1.393 1.351 0.030 48.745 o
9 5 2 0.925 0.974 0.030 48.745 o
9 5 3 0.098 0.060 0.020 109.677 o
9 5 4 1.587 1.590 0.040 27.419 o
9 5 5 0.662 0.646 0.030 48.745 o
9 5 6 0.372 0.378 0.010 438.710 o
9 5 7 0.266 0.278 0.010 438.710 o
9 5 8 0.389 0.378 0.020 109.677 o
9 5 9 0.078 0.050 0.199 1.097 o
9 6 0 0.171 0.179 0.010 438.710 o
9 6 1 0.422 0.417 0.020 109.677 o
9 6 2 0.145 0.149 0.010 438.710 o
9 6 3 0.723 0.765 0.030 48.745 o
9 6 4 0.486 0.497 0.020 109.677 o
9 6 5 0.449 0.447 0.020 109.677 o
9 6 6 0.167 0.159 0.010 438.710 o
9 6 7 0.960 0.934 0.030 48.745 o
9 6 8 0.384 0.397 0.010 438.710 o
9 6 9 0.017 0.030 0.268 0.602 o
9 7 0 0.755 0.805 0.030 48.745 o
9 7 1 0.826 0.894 0.030 48.745 o
9 7 2 0.086 0.050 0.199 1.097 o
9 7 3 0.996 0.984 0.030 48.745 o
9 7 4 0.292 0.298 0.010 438.710 o
9 7 5 0.022 -0.040 0.288 0.522 o
9 7 6 0.015 0.040 0.278 0.560 o
9 7 7 0.043 0.030 0.278 0.560 o
9 7 8 0.002 0.010 0.268 0.602 o
9 8 0 0.527 0.576 0.020 109.677 o
9 8 1 0.173 0.169 0.010 438.710 o
9 8 2 0.376 0.397 0.020 109.677 o
9 8 3 0.408 0.378 0.020 109.677 o
9 8 4 1.371 1.411 0.040 27.419 o
9 8 5 0.195 0.199 0.010 438.710 o
9 8 6 0.280 0.288 0.010 438.710 o
9 8 7 0.043 0.030 0.199 1.097 o
9 8 8 0.376 0.368 0.020 109.677 o
9 9 0 0.116 0.109 0.020 109.677 o
9 9 1 0.564 0.656 0.040 27.419 o
9 9 2 0.173 0.159 0.020 109.677 o
9 9 3 0.711 0.785 0.040 27.419 o
9 9 4 0.200 0.219 0.020 109.677 o
9 9 5 0.077 0.060 0.397 0.274 o
9 9 6 0.042 0.060 0.219 0.906 o
9 9 7 0.083 0.070 0.378 0.304 o
10 0 0 0.949 0.924 0.040 27.419 o
10 0 1 2.297 2.246 0.040 27.419 o
10 0 2 0.064 0.050 0.318 0.428 o
10 0 3 3.192 3.110 0.050 17.548 o
10 0 4 0.453 0.467 0.020 109.677 o
10 0 5 0.054 0.070 0.328 0.403 o
10 0 6 0.174 0.189 0.010 438.710 o
10 0 7 0.001 0.000 0.328 0.403 o
10 0 8 0.005 0.040 0.318 0.428 o
10 0 9 0.132 0.099 0.020 109.677 o
10 0 10 0.067 0.089 0.507 0.169 o
10 1 0 0.097 0.099 0.010 438.710 o
10 1 1 0.032 0.020 0.268 0.602 o
10 1 2 0.197 0.199 0.010 438.710 o
10 1 3 0.605 0.606 0.020 109.677 o
10 1 4 2.676 2.693 0.040 27.419 o
10 1 5 0.148 0.129 0.010 438.710 o
10 1 6 0.316 0.328 0.010 438.710 o
10 1 7 0.484 0.497 0.020 109.677 o
10 1 8 0.872 0.884 0.030 48.745 o
10 1 9 0.097 0.070 0.020 109.677 o
10 1 10 0.163 0.179 0.020 109.677 o
10 2 0 3.293 3.348 0.050 17.548 o
10 2 1 1.079 1.063 0.030 48.745 o
10 2 2 0.096 0.089 0.030 48.745 o
10 2 3 0.833 0.845 0.030 48.745 o
10 2 4 0.721 0.765 0.030 48.745 o
10 2 5 0.073 0.060 0.020 109.677 o
10 2 6 0.023 0.010 0.278 0.560 o
10 2 7 0.018 0.020 0.278 0.560 o
10 2 8 0.081 0.089 0.010 438.710 o
10 2 9 0.003 -0.020 0.278 0.560 o
10 2 10 0.070 0.040 0.368 0.320 o
10 3 0 0.067 0.070 0.020 109.677 o
10 3 1 0.868 0.864 0.030 48.745 o
10 3 2 0.298 0.318 0.010 438.710 o
10 3 3 0.790 0.845 0.030 48.745 o
10 3 4 0.287 0.308 0.010 438.710 o
10 3 5 0.817 0.775 0.030 48.745 o
10 3 6 0.086 0.109 0.020 109.677 o
10 3 7 1.608 1.540 0.040 27.419 o
10 3 8 0.318 0.288 0.010 438.710 o
10 3 9 0.005 0.050 0.268 0.602 o
10 4 0 4.858 5.057 0.070 8.953 o
10 4 1 0.624 0.606 0.020 109.677 o
10 4 2 0.522 0.497 0.020 109.677 o
10 4 3 0.038 0.030 0.278 0.560 o
10 4 4 0.961 1.004 0.030 48.745 o
10 4 5 0.413 0.397 0.020 109.677 o
10 4 6 0.320 0.308 0.010 438.710 o
10 4 7 0.085 0.079 0.020 109.677 o
10 4 8 0.286 0.258 0.010 438.710 o
10 4 9 0.048 -0.020 0.189 1.215 o
10 5 0 0.067 0.060 0.020 109.677 o
10 5 1 0.330 0.338 0.010 438.710 o
10 5 2 0.087 0.099 0.020 109.677 o
10 5 3 0.498 0.477 0.020 109.677 o
10 5 4 0.378 0.378 0.020 109.677 o
10 5 5 0.365 0.358 0.020 109.677 o
10 5 6 0.098 0.089 0.020 109.677 o
10 5 7 0.792 0.775 0.030 48.745 o
10 5 8 0.278 0.268 0.010 438.710 o
10 5 9 0.008 0.000 0.258 0.649 o
10 6 0 0.627 0.586 0.020 109.677 o
10 6 1 0.696 0.696 0.030 48.745 o
10 6 2 0.053 0.030 0.199 1.097 o
10 6 3 0.862 0.855 0.030 48.745 o
10 6 4 0.229 0.229 0.010 438.710 o
10 6 5 0.013 -0.010 0.288 0.522 o
10 6 6 0.013 0.000 0.288 0.522 o
10 6 7 0.026 0.030 0.199 1.097 o
10 6 8 0.002 0.000 0.268 0.602 o
10 7 0 0.371 0.368 0.020 109.677 o
10 7 1 0.143 0.129 0.020 109.677 o
10 7 2 0.321 0.318 0.010 438.710 o
10 7 3 0.304 0.318 0.010 438.710 o
10 7 4 1.230 1.272 0.040 27.419 o
10 7 5 0.141 0.139 0.010 438.710 o
10 7 6 0.215 0.189 0.010 438.710 o
10 7 7 0.037 0.020 0.199 1.097 o
10 7 8 0.341 0.338 0.010 438.710 o
10 8 0 0.108 0.099 0.020 109.677 o
10 8 1 0.520 0.507 0.020 109.677 o
10 8 2 0.145 0.159 0.010 438.710 o
10 8 3 0.681 0.735 0.030 48.745 o
10 8 4 0.170 0.169 0.010 438.710 o
10 8 5 0.065 0.030 0.199 1.097 o
10 8 6 0.041 0.050 0.189 1.215 o
10 8 7 0.068 0.050 0.010 438.710 o
10 9 0 0.002 0.010 0.199 1.097 o
10 9 1 0.022 0.040 0.278 0.560 o
10 9 2 0.001 0.000 0.278 0.560 o
10 9 3 0.066 0.070 0.020 109.677 o
10 9 4 0.165 0.179 0.010 438.710 o
10 9 5 0.051 0.020 0.278 0.560 o
10 9 6 0.022 0.030 0.189 1.215 o
10 10 0 0.555 0.586 0.040 27.419 o
10 10 1 0.101 0.119 0.020 109.677 o
10 10 2 0.087 0.070 0.397 0.274 o
10 10 3 0.002 -0.020 0.397 0.274 o
10 10 4 0.133 0.129 0.020 109.677 o
10 10 5 0.055 0.060 0.378 0.304 o
11 0 1 0.011 0.000 0.328 0.403 o
11 0 2 0.124 0.079 0.020 109.677 o
11 0 3 0.311 0.328 0.020 109.677 o
11 0 4 1.578 1.540 0.040 27.419 o
11 0 5 0.059 0.020 0.328 0.403 o
11 0 6 0.159 0.139 0.020 109.677 o
11 0 7 0.270 0.268 0.010 438.710 o
11 0 8 0.528 0.497 0.030 48.745 o
11 0 9 0.045 -0.010 0.308 0.457 o
11 1 0 1.253 1.321 0.030 48.745 o
11 1 1 0.907 0.914 0.030 48.745 o
11 1 2 0.023 0.030 0.199 1.097 o
11 1 3 0.954 0.954 0.030 48.745 o
11 1 4 0.360 0.378 0.010 438.710 o
11 1 5 0.012 0.020 0.278 0.560 o
11 1 6 0.005 0.030 0.278 0.560 o
11 1 7 0.011 0.040 0.278 0.560 o
11 1 8 0.017 0.040 0.278 0.560 o
11 1 9 0.025 0.050 0.258 0.649 o
11 2 0 0.118 0.119 0.020 109.677 o
11 2 1 0.267 0.238 0.010 438.710 o
11 2 2 0.078 0.030 0.199 1.097 o
11 2 3 0.502 0.507 0.020 109.677 o
11 2 4 0.451 0.417 0.020 109.677 o
11 2 5 0.356 0.368 0.010 438.710 o
11 2 6 0.114 0.099 0.020 109.677 o
11 2 7 0.735 0.735 0.030 48.745 o
11 2 8 0.290 0.278 0.010 438.710 o
11 2 9 0.017 0.040 0.258 0.649 o
11 3 0 2.813 2.772 0.050 17.548 o
11 3 1 0.415 0.437 0.020 109.677 o
11 3 2 0.250 0.229 0.010 438.710 o
11 3 3 0.080 0.089 0.020 109.677 o
11 3 4 0.568 0.537 0.030 48.745 o
11 3 5 0.186 0.179 0.010 438.710 o
11 3 6 0.153 0.149 0.010 438.710 o
11 3 7 0.041 0.030 0.278 0.560 o
11 3 8 0.146 0.119 0.010 438.710 o
11 4 0 0.009 0.020 0.278 0.560 o
11 4 1 0.241 0.229 0.010 438.710 o
11 4 2 0.047 0.040 0.169 1.518 o
11 4 3 0.301 0.318 0.010 438.710 o
11 4 4 0.260 0.268 0.010 438.710 o
11 4 5 0.282 0.258 0.010 438.710 o
11 4 6 0.048 0.050 0.199 1.097 o
11 4 7 0.596 0.537 0.030 48.745 o
11 4 8 0.173 0.149 0.010 438.710 o
11 5 0 0.617 0.626 0.030 48.745 o
11 5 1 0.480 0.517 0.020 109.677 o
11 5 2 0.054 0.079 0.278 0.560 o
11 5 3 0.530 0.517 0.020 109.677 o
11 5 4 0.209 0.219 0.010 438.710 o
11 5 5 0.014 -0.010 0.288 0.522 o
11 5 6 0.002 0.040 0.278 0.560 o
11 5 7 0.028 0.050 0.268 0.602 o
11 5 8 0.006 -0.020 0.258 0.649 o
11 6 0 0.255 0.248 0.010 438.710 o
11 6 1 0.073 0.089 0.010 438.710 o
11 6 2 0.200 0.209 0.010 438.710 o
11 6 3 0.229 0.238 0.010 438.710 o
11 6 4 0.870 0.874 0.030 48.745 o
11 6 5 0.100 0.099 0.020 109.677 o
11 6 6 0.152 0.159 0.010 438.710 o
11 6 7 0.047 0.040 0.189 1.215 o
11 7 0 0.111 0.119 0.020 109.677 o
11 7 1 0.408 0.407 0.020 109.677 o
11 7 2 0.097 0.089 0.010 438.710 o
11 7 3 0.543 0.517 0.030 48.745 o
11 7 4 0.127 0.129 0.010 438.710 o
11 7 5 0.043 0.079 0.020 109.677 o
11 7 6 0.028 0.060 0.268 0.602 o
11 7 7 0.046 0.060 0.258 0.649 o
11 8 0 0.001 0.000 0.278 0.560 o
11 8 1 0.019 -0.010 0.288 0.522 o
11 8 2 0.001 -0.020 0.288 0.522 o
11 8 3 0.061 0.070 0.020 109.677 o
11 8 4 0.151 0.159 0.010 438.710 o
11 8 5 0.043 0.060 0.189 1.215 o
11 8 6 0.019 0.030 0.258 0.649 o
11 9 0 0.511 0.527 0.020 109.677 o
11 9 1 0.095 0.099 0.010 438.710 o
11 9 2 0.079 0.060 0.020 109.677 o
11 9 3 0.002 -0.020 0.278 0.560 o
11 9 4 0.123 0.129 0.020 109.677 o
11 9 5 0.050 0.050 0.189 1.215 o
11 10 0 0.059 0.050 0.278 0.560 o
11 10 1 0.131 0.109 0.010 438.710 o
11 10 2 0.061 0.060 0.020 109.677 o
11 10 3 0.102 0.079 0.020 109.677 o
12 0 0 0.983 0.994 0.040 27.419 o
12 0 1 0.379 0.368 0.020 109.677 o
12 0 2 0.020 0.000 0.219 0.906 o
12 0 3 0.343 0.338 0.020 109.677 o
12 0 4 0.216 0.199 0.010 438.710 o
12 0 5 0.012 0.010 0.328 0.403 o
12 0 6 0.005 0.040 0.318 0.428 o
12 0 7 0.001 0.030 0.308 0.457 o
12 0 8 0.023 0.050 0.308 0.457 o
12 1 0 0.066 0.050 0.288 0.522 o
12 1 1 0.092 0.079 0.020 109.677 o
12 1 2 0.024 0.050 0.278 0.560 o
12 1 3 0.265 0.278 0.010 438.710 o
12 1 4 0.365 0.368 0.020 109.677 o
12 1 5 0.159 0.159 0.010 438.710 o
12 1 6 0.072 0.010 0.288 0.522 o
12 1 7 0.353 0.358 0.020 109.677 o
12 1 8 0.193 0.189 0.010 438.710 o
12 2 0 1.194 1.163 0.030 48.745 o
12 2 1 0.359 0.358 0.010 438.710 o
12 2 2 0.106 0.119 0.020 109.677 o
12 2 3 0.176 0.169 0.010 438.710 o
12 2 4 0.305 0.288 0.010 438.710 o
12 2 5 0.065 0.010 0.288 0.522 o
12 2 6 0.033 0.000 0.278 0.560 o
12 2 7 0.032 0.050 0.278 0.560 o
12 2 8 0.053 0.060 0.010 438.710 o
12 3 0 0.015 0.030 0.278 0.560 o
12 3 1 0.086 0.089 0.010 438.710 o
12 3 2 0.012 0.030 0.199 1.097 o
12 3 3 0.185 0.179 0.010 438.710 o
12 3 4 0.266 0.268 0.010 438.710 o
12 3 5 0.133 0.139 0.020 109.677 o
12 3 6 0.045 0.070 0.020 109.677 o
12 3 7 0.304 0.288 0.010 438.710 o
12 4 0 0.444 0.467 0.020 109.677 o
12 4 1 0.312 0.288 0.010 438.710 o
12 4 2 0.026 0.010 0.288 0.522 o
12 4 3 0.348 0.318 0.010 438.710 o
12 4 4 0.138 0.139 0.010 438.710 o
12 4 5 0.006 0.000 0.278 0.560 o
12 4 6 0.001 -0.010 0.278 0.560 o
12 4 7 0.013 0.030 0.268 0.602 o
12 5 0 0.146 0.119 0.020 109.677 o
12 5 1 0.026 0.020 0.288 0.522 o
12 5 2 0.098 0.099 0.020 109.677 o
12 5 3 0.152 0.129 0.010 438.710 o
12 5 4 0.526 0.546 0.020 109.677 o
12 5 5 0.064 0.060 0.278 0.560 o
12 5 6 0.094 0.079 0.278 0.560 o
12 5 7 0.056 0.030 0.258 0.649 o
12 6 0 0.129 0.149 0.010 438.710 o
12 6 1 0.272 0.268 0.010 438.710 o
12 6 2 0.058 0.050 0.209 0.995 o
12 6 3 0.344 0.378 0.020 109.677 o
12 6 4 0.095 0.079 0.020 109.677 o
12 6 5 0.024 0.030 0.199 1.097 o
12 6 6 0.010 0.010 0.268 0.602 o
12 7 0 0.001 -0.010 0.278 0.560 o
12 7 1 0.018 0.010 0.199 1.097 o
12 7 2 0.001 0.000 0.278 0.560 o
12 7 3 0.049 0.060 0.010 438.710 o
12 7 4 0.117 0.129 0.010 438.710 o
12 7 5 0.037 0.000 0.189 1.215 o
12 8 0 0.411 0.427 0.020 109.677 o
12 8 1 0.076 0.060 0.020 109.677 o
12 8 2 0.060 0.089 0.020 109.677 o
12 8 3 0.004 0.000 0.268 0.602 o
12 8 4 0.097 0.099 0.020 109.677 o
12 9 0 0.047 0.050 0.278 0.560 o
12 9 1 0.108 0.060 0.020 109.677 o
12 9 2 0.048 0.000 0.278 0.560 o
12 9 3 0.085 0.070 0.020 109.677 o
13 0 1 0.092 0.079 0.020 109.677 o
13 0 2 0.010 0.030 0.209 0.995 o
13 0 3 0.114 0.119 0.020 109.677 o
13 0 4 0.122 0.109 0.010 438.710 o
13 0 5 0.115 0.089 0.020 109.677 o
13 0 6 0.017 0.000 0.318 0.428 o
13 0 7 0.246 0.199 0.010 438.710 o
13 1 0 0.677 0.666 0.030 48.745 o
13 1 1 0.152 0.149 0.010 438.710 o
13 1 2 0.037 0.000 0.288 0.522 o
13 1 3 0.094 0.099 0.010 438.710 o
13 1 4 0.141 0.129 0.010 438.710 o
13 1 5 0.022 0.010 0.199 1.097 o
13 1 6 0.020 0.010 0.189 1.215 o
13 1 7 0.005 0.030 0.258 0.649 o
13 2 0 0.007 0.010 0.278 0.560 o
13 2 1 0.034 0.020 0.278 0.560 o
13 2 2 0.004 0.000 0.278 0.560 o
13 2 3 0.100 0.089 0.020 109.677 o
13 2 4 0.188 0.159 0.010 438.710 o
13 2 5 0.064 0.020 0.288 0.522 o
13 2 6 0.028 0.050 0.268 0.602 o
13 3 0 0.253 0.238 0.010 438.710 o
13 3 1 0.195 0.189 0.010 438.710 o
13 3 2 0.004 0.000 0.288 0.522 o
13 3 3 0.236 0.219 0.010 438.710 o
13 3 4 0.072 0.050 0.288 0.522 o
13 3 5 0.001 0.010 0.278 0.560 o
13 3 6 0.000 0.010 0.268 0.602 o
13 4 0 0.047 0.020 0.199 1.097 o
13 4 1 0.007 0.030 0.278 0.560 o
13 4 2 0.045 0.040 0.278 0.560 o
13 4 3 0.073 0.070 0.020 109.677 o
13 4 4 0.312 0.298 0.010 438.710 o
13 4 5 0.027 -0.030 0.318 0.428 o
13 4 6 0.043 0.050 0.189 1.215 o
13 5 0 0.116 0.129 0.010 438.710 o
13 5 1 0.161 0.169 0.010 438.710 o
13 5 2 0.025 -0.010 0.278 0.560 o
13 5 3 0.204 0.179 0.010 438.710 o
13 5 4 0.057 0.000 0.278 0.560 o
13 5 5 0.010 0.040 0.258 0.649 o
13 6 0 0.000 0.010 0.278 0.560 o
13 6 1 0.015 0.010 0.278 0.560 o
13 6 2 0.000 0.000 0.278 0.560 o
13 6 3 0.036 0.060 0.268 0.602 o
13 6 4 0.081 0.079 0.020 109.677 o
13 6 5 0.029 -0.010 0.268 0.602 o
13 7 0 0.292 0.258 0.010 438.710 o
13 7 1 0.051 0.050 0.020 109.677 o
13 7 2 0.037 0.020 0.159 1.714 o
13 7 3 0.005 0.000 0.189 1.215 o
13 7 4 0.067 0.040 0.268 0.602 o
13 8 0 0.029 0.010 0.268 0.602 o
13 8 1 0.074 0.060 0.020 109.677 o
13 8 2 0.030 0.050 0.258 0.649 o
14 0 0 0.357 0.328 0.020 109.677 o
14 0 1 0.065 0.010 0.328 0.403 o
14 0 2 0.018 0.010 0.209 0.995 o
14 0 3 0.042 -0.010 0.328 0.403 o
14 0 4 0.070 0.079 0.020 109.677 o
14 0 5 0.009 0.000 0.308 0.457 o
14 1 0 0.000 0.010 0.278 0.560 o
14 1 1 0.028 0.030 0.278 0.560 o
14 1 2 0.001 -0.050 0.288 0.522 o
14 1 3 0.048 0.020 0.278 0.560 o
14 1 4 0.080 0.060 0.278 0.560 o
14 1 5 0.045 0.020 0.268 0.602 o
14 2 0 0.177 0.169 0.010 438.710 o
14 2 1 0.096 0.099 0.020 109.677 o
14 2 2 0.005 -0.010 0.278 0.560 o
14 2 3 0.106 0.089 0.020 109.677 o
14 2 4 0.045 0.040 0.268 0.602 o
14 2 5 0.001 -0.020 0.268 0.602 o
14 3 0 0.013 0.010 0.278 0.560 o
14 3 1 0.001 0.000 0.278 0.560 o
14 3 2 0.017 0.020 0.278 0.560 o
14 3 3 0.037 0.040 0.278 0.560 o
14 3 4 0.157 0.109 0.020 109.677 o
14 3 5 0.014 -0.020 0.258 0.649 o
14 4 0 0.086 0.070 0.010 438.710 o
14 4 1 0.088 0.070 0.020 109.677 o
14 4 2 0.007 -0.010 0.278 0.560 o
14 4 3 0.114 0.109 0.020 109.677 o
14 4 4 0.029 -0.010 0.189 1.215 o
14 5 0 0.000 -0.030 0.278 0.560 o
14 5 1 0.010 -0.020 0.199 1.097 o
14 5 2 0.001 0.000 0.268 0.602 o
14 5 3 0.024 0.040 0.268 0.602 o
14 6 0 0.179 0.169 0.010 438.710 o
14 6 1 0.032 -0.010 0.189 1.215 o
14 6 2 0.019 0.000 0.268 0.602 o
15 0 1 0.010 -0.010 0.318 0.428 o
15 0 2 0.000 -0.040 0.318 0.428 o
15 0 3 0.021 0.040 0.298 0.487 o
15 1 0 0.107 0.079 0.278 0.560 o
15 1 1 0.043 0.030 0.189 1.215 o
15 1 2 0.004 0.030 0.258 0.649 o
15 1 3 0.043 0.030 0.189 1.215 o
15 2 0 0.005 0.020 0.268 0.602 o
15 2 1 0.003 0.000 0.268 0.602 o
15 2 2 0.004 -0.010 0.268 0.602 o
15 3 0 0.064 0.060 0.268 0.602 o
15 3 1 0.043 -0.020 0.268 0.602 o
15 3 2 0.003 0.010 0.258 0.649 o
15 4 0 0.000 0.010 0.189 1.215 o
;
_olex2_submission_special_instructions 'No special instructions were received'
loop_
_space_group_symop_id
_space_group_symop_operation_xyz
1 x,y,z
2 y,-x,-z
3 -y,x,-z
4 x+1/2,-y+1/2,-z
5 -x+1/2,y+1/2,-z
6 -x,-y,z
7 -y+1/2,-x+1/2,z
8 y+1/2,x+1/2,z
loop_
_atom_site_label
_atom_site_type_symbol
_atom_site_fract_x
_atom_site_fract_y
_atom_site_fract_z
_atom_site_U_iso_or_equiv
_atom_site_adp_type
_atom_site_occupancy
_atom_site_site_symmetry_order
_atom_site_refinement_flags_posn
_atom_site_refinement_flags_adp
_atom_site_refinement_flags_occupancy
O O 0.0 0.5 0.59608(4) 0.01538(5) Uani 1.000000 4 S T P
N N 0.14469(3) 0.64469(3) 0.17896(4) 0.02223(5) Uani 1.000000 2 S T P
H1 H 0.2564(3) 0.7564(3) 0.2845(4) 0.0440(9) Uani 1.000000 2 S T P
H2 H 0.1435(3) 0.6435(3) -0.0352(6) 0.0373(7) Uani 1.000000 2 S T P
C C 0.0 0.5 0.32825(3) 0.01188(2) Uani 1.000000 4 S T P
loop_
_atom_site_aniso_label
_atom_site_aniso_U_11
_atom_site_aniso_U_22
_atom_site_aniso_U_33
_atom_site_aniso_U_12
_atom_site_aniso_U_13
_atom_site_aniso_U_23
O 0.01971(7) 0.01971(7) 0.00672(6) 0.00179(9) -0.000000 0.000000
N 0.02869(7) 0.02869(7) 0.00932(7) -0.01465(10) 0.00012(5) 0.00012(5)
H1 0.0547(15) 0.0547(15) 0.0226(17) -0.0385(18) -0.0028(10) -0.0028(10)
H2 0.0440(11) 0.0440(11) 0.0239(14) -0.019(2) -0.0001(10) -0.0001(10)
C 0.01455(3) 0.01455(3) 0.00655(3) -0.00012(5) -0.000000 0.000000
loop_
_atom_type_symbol
_atom_type_scat_dispersion_real
_atom_type_scat_dispersion_imag
_atom_type_scat_source
_atom_type_scat_dispersion_source
C 0.00200 0.00100 'NoSpherA2: Chem.Sci. 2021, DOI:10.1039/D0SC05526C' custom
H 0.00000 0.00000 'NoSpherA2: Chem.Sci. 2021, DOI:10.1039/D0SC05526C' custom
N 0.00400 0.00200 'NoSpherA2: Chem.Sci. 2021, DOI:10.1039/D0SC05526C' custom
O 0.00700 0.00400 'NoSpherA2: Chem.Sci. 2021, DOI:10.1039/D0SC05526C' custom
loop_
_diffrn_refln_index_h
_diffrn_refln_index_k
_diffrn_refln_index_l
_diffrn_refln_intensity_net
_diffrn_refln_intensity_u
0 0 1 13.43 0.05
0 0 2 134.84 0.83
0 0 3 13.63 0.08
0 0 4 29.83 0.18
0 0 5 49.07 0.36
0 0 6 15.8 0.19
0 0 7 0.27 0.03
0 0 8 14.75 0.25
0 0 9 3.66 0.1
0 0 10 2.9 0.09
0 0 11 0.07 0.26
0 0 12 3.81 0.11
0 0 13 0.18 0.02
1 0 1 149.93 0.18
1 0 2 153.21 0.27
1 0 3 87.74 0.19
1 0 4 2.22 0.03
1 0 5 19.08 0.1
1 0 6 0.53 0.03
1 0 7 43.28 0.34
1 0 8 6.15 0.07
1 0 9 -0.01 0.32
1 0 10 0.19 0.01
1 0 11 1.43 0.04
1 0 12 1.26 0.04
1 0 13 0 0.31
1 1 0 1008.37 1.92
1 1 1 283.48 0.51
1 1 2 52.93 0.12
1 1 3 11.61 0.06
1 1 4 43.49 0.18
1 1 5 17.01 0.11
1 1 6 2.97 0.03
1 1 7 5.7 0.08
1 1 8 4.5 0.07
1 1 9 1.31 0.05
1 1 10 3.26 0.07
1 1 11 1.65 0.05
1 1 12 2.47 0.06
1 1 13 0.23 0.02
2 0 0 155.94 0.3
2 0 1 197.72 0.26
2 0 2 8.3 0.03
2 0 3 49.67 0.13
2 0 4 20.15 0.09
2 0 5 0.56 0.03
2 0 6 1.47 0.02
2 0 7 0.27 0.01
2 0 8 0.05 0.2
2 0 9 0.36 0.02
2 0 10 1.08 0.04
2 0 11 4.34 0.07
2 0 12 1.07 0.04
2 0 13 -0.03 0.3
2 1 0 226.92 0.28
2 1 1 49.58 0.08
2 1 2 30.24 0.07
2 1 3 68.66 0.16
2 1 4 45.35 0.14
2 1 5 13.59 0.07
2 1 6 13.93 0.09
2 1 7 10.8 0.09
2 1 8 14.94 0.13
2 1 9 3.31 0.05
2 1 10 1.2 0.03
2 1 11 1.91 0.04
2 1 12 0.42 0.02
2 1 13 0.21 0.01
2 2 0 227.4 0.42
2 2 1 199.86 0.39
2 2 2 54.79 0.16
2 2 3 27.54 0.12
2 2 4 43.47 0.21
2 2 5 9.79 0.08
2 2 6 2.76 0.05
2 2 7 10.1 0.12
2 2 8 1.85 0.05
2 2 9 1.67 0.05
2 2 10 3.67 0.07
2 2 11 2.78 0.06
2 2 12 1.75 0.05
3 0 1 93.42 0.17
3 0 2 17.83 0.06
3 0 3 11.62 0.05
3 0 4 104.96 0.38
3 0 5 0.37 0.02
3 0 6 10.89 0.09
3 0 7 0.5 0.02
3 0 8 15.59 0.16
3 0 9 4.27 0.06
3 0 10 4.84 0.07
3 0 11 0.41 0.02
3 0 12 0.04 0.17
3 1 0 29.12 0.07
3 1 1 142.36 0.23
3 1 2 14.88 0.05
3 1 3 66.21 0.18
3 1 4 14.52 0.07
3 1 5 1.67 0.03
3 1 6 5.24 0.05
3 1 7 1.54 0.03
3 1 8 0.47 0.02
3 1 9 1.49 0.03
3 1 10 1.08 0.03
3 1 11 5.42 0.07
3 1 12 0.59 0.03
3 2 0 17.41 0.05
3 2 1 5.13 0.03
3 2 2 11.01 0.04
3 2 3 25.65 0.09
3 2 4 13.67 0.07
3 2 5 7.64 0.05
3 2 6 3.05 0.04
3 2 7 16.15 0.13
3 2 8 7.06 0.07
3 2 9 0.68 0.03
3 2 10 0.12 0.02
3 2 11 0.95 0.03
3 2 12 0.41 0.02
3 3 0 219.52 0.62
3 3 1 8.13 0.05
3 3 2 7.96 0.06
3 3 3 0.51 0.03
3 3 4 15.79 0.12
3 3 5 13.38 0.09
3 3 6 5.59 0.07
3 3 7 0.15 0.02
3 3 8 5.63 0.09
3 3 9 0.99 0.05
3 3 10 1.5 0.05
3 3 11 0.31 0.02
3 3 12 1.98 0.05
4 0 0 5.51 0.06
4 0 1 97.62 0.24
4 0 2 7.68 0.04
4 0 3 71.92 0.25
4 0 4 5.92 0.05
4 0 5 2.61 0.04
4 0 6 7.8 0.07
4 0 7 0.16 0.01
4 0 8 1.12 0.04
4 0 9 2.14 0.05
4 0 10 0.42 0.02
4 0 11 6.01 0.09
4 0 12 0.23 0.01
4 1 0 7.14 0.04
4 1 1 11.66 0.04
4 1 2 2.75 0.03
4 1 3 13.13 0.06
4 1 4 43.02 0.18
4 1 5 1.52 0.03
4 1 6 5.75 0.05
4 1 7 3.4 0.04
4 1 8 10.12 0.1
4 1 9 1.87 0.04
4 1 10 1.81 0.04
4 1 11 0.57 0.02
4 1 12 0.03 0.28
4 2 0 93.4 0.22
4 2 1 25.72 0.08
4 2 2 5.44 0.03
4 2 3 4.23 0.03
4 2 4 16.61 0.09
4 2 5 5.31 0.03
4 2 6 1.13 0.03
4 2 7 1.7 0.03
4 2 8 1.86 0.04
4 2 9 0.39 0.02
4 2 10 1.43 0.04
4 2 11 1.2 0.03
4 2 12 1.23 0.03
4 3 0 3.26 0.03
4 3 1 20.6 0.08
4 3 2 18.74 0.08
4 3 3 16.82 0.08
4 3 4 0.31 0.02
4 3 5 13.27 0.09
4 3 6 1.15 0.03
4 3 7 24.11 0.2
4 3 8 3.04 0.04
4 3 9 0.21 0.01
4 3 10 0.25 0.01
4 3 11 1.05 0.03
4 3 12 0.74 0.03
4 4 0 83.03 0.39
4 4 1 4.76 0.05
4 4 2 4.01 0.05
4 4 3 0.16 0.01
4 4 4 8.7 0.06
4 4 5 5.58 0.07
4 4 6 2.58 0.05
4 4 7 0.12 0.02
4 4 8 2.98 0.06
4 4 9 0.45 0.02
4 4 10 0.74 0.05
4 4 11 0.35 0.02
4 4 12 1.18 0.05
5 0 1 0.1 0.01
5 0 2 0.09 0.02
5 0 3 8.53 0.06
5 0 4 17.98 0.11
5 0 5 1.89 0.04
5 0 6 1.99 0.04
5 0 7 6.36 0.08
5 0 8 5.97 0.08
5 0 9 0.55 0.03
5 0 10 0.53 0.03
5 0 11 0.45 0.02
5 0 12 0.09 0.02
5 1 0 42.29 0.15
5 1 1 30.35 0.1
5 1 2 8.27 0.05
5 1 3 10.23 0.06
5 1 4 15.48 0.09
5 1 5 3.4 0.04
5 1 6 0.77 0.03
5 1 7 3.04 0.04
5 1 8 0.84 0.03
5 1 9 0.59 0.02
5 1 10 1.57 0.04
5 1 11 1.77 0.04
5 1 12 0.82 0.03
5 2 0 21.44 0.08
5 2 1 7.21 0.04
5 2 2 7.42 0.04
5 2 3 21.37 0.1
5 2 4 7.59 0.06
5 2 5 9.18 0.07
5 2 6 6.19 0.06
5 2 7 10.25 0.1
5 2 8 6.63 0.07
5 2 9 1.36 0.03
5 2 10 0.12 0.01
5 2 11 1.26 0.03
5 2 12 0.41 0.01
5 3 0 43.2 0.16
5 3 1 11.86 0.06
5 3 2 2.26 0.03
5 3 3 3.38 0.03
5 3 4 8.52 0.06
5 3 5 2.42 0.03
5 3 6 0.57 0.02
5 3 7 0.81 0.03
5 3 8 1.07 0.03
5 3 9 0.18 0.01
5 3 10 0.86 0.03
5 3 11 0.82 0.03
5 3 12 0.71 0.03
5 4 0 2.89 0.03
5 4 1 0.48 0.02
5 4 2 0.69 0.03
5 4 3 5.74 0.03
5 4 4 8.46 0.07
5 4 5 2.6 0.04
5 4 6 1.59 0.03
5 4 7 5.1 0.06
5 4 8 3.62 0.05
5 4 9 0.46 0.02
5 4 10 0.25 0.01
5 4 11 0.48 0.02
5 4 12 0.11 0.01
5 5 0 6.77 0.07
5 5 1 15.65 0.14
5 5 2 5.01 0.04
5 5 3 10.28 0.11
5 5 4 6.97 0.09
5 5 5 1.67 0.05
5 5 6 0.82 0.04
5 5 7 2.44 0.06
5 5 8 0.25 0.02
5 5 9 0.51 0.03
5 5 10 0.82 0.05
5 5 11 1.41 0.05
6 0 0 61.56 0.41
6 0 1 4.47 0.04
6 0 2 2.56 0.03
6 0 3 0.23 0.01
6 0 4 7.77 0.07
6 0 5 4.39 0.05
6 0 6 1.96 0.04
6 0 7 0.03 0.33
6 0 8 2.36 0.05
6 0 9 0.27 0.01
6 0 10 0.74 0.04
6 0 11 0.44 0.02
6 0 12 1.02 0.03
6 1 0 5.33 0.04
6 1 1 5.69 0.04
6 1 2 4.7 0.04
6 1 3 10.53 0.07
6 1 4 2.92 0.04
6 1 5 6.46 0.06
6 1 6 1.92 0.03
6 1 7 10.92 0.11
6 1 8 3.31 0.05
6 1 9 0.38 0.02
6 1 10 -0.01 0.28
6 1 11 0.73 0.03
6 1 12 0.32 0.01
6 2 0 23.48 0.11
6 2 1 13.77 0.08
6 2 2 2.85 0.03
6 2 3 6.21 0.04
6 2 4 7.58 0.06
6 2 5 1.55 0.03
6 2 6 0.31 0.01
6 2 7 1.3 0.03
6 2 8 0.61 0.02
6 2 9 0.25 0.01
6 2 10 0.84 0.03
6 2 11 1.18 0.03
6 2 12 0.55 0.03
6 3 0 0.04 0.23
6 3 1 0.89 0.03
6 3 2 0.92 0.03
6 3 3 2.88 0.04
6 3 4 15.21 0.11
6 3 5 0.33 0.01
6 3 6 1.76 0.04
6 3 7 1.79 0.03
6 3 8 4.34 0.06
6 3 9 0.6 0.02
6 3 10 0.78 0.03
6 3 11 0.23 0.01
6 4 0 2.47 0.03
6 4 1 13.49 0.06
6 4 2 2.63 0.03
6 4 3 14.8 0.1
6 4 4 3.45 0.04
6 4 5 0.87 0.03
6 4 6 1.31 0.03
6 4 7 0.92 0.03
6 4 8 0.16 0.01
6 4 9 0.63 0.03
6 4 10 0.4 0.02
6 4 11 1.72 0.04
6 5 0 4.17 0.04
6 5 1 0.86 0.03
6 5 2 1.57 0.03
6 5 3 4.04 0.05
6 5 4 9.33 0.08
6 5 5 1.54 0.03
6 5 6 2.1 0.04
6 5 7 1.28 0.03
6 5 8 3.14 0.05
6 5 9 0.76 0.03
6 5 10 0.49 0.02
6 5 11 0.28 0.01
6 6 0 8.51 0.1
6 6 1 2.73 0.05
6 6 2 0.43 0.03
6 6 3 1.77 0.05
6 6 4 1.94 0.05
6 6 5 0.29 0.02
6 6 6 0.04 0.23
6 6 7 0.16 0.02
6 6 8 0.23 0.02
6 6 9 0.05 0.39
6 6 10 0.2 0.02
6 6 11 0.37 0.03
7 0 1 8.53 0.07
7 0 2 5.14 0.04
7 0 3 5.27 0.05
7 0 4 0.18 0.01
7 0 5 6.29 0.07
7 0 6 0.05 0.31
7 0 7 11.98 0.14
7 0 8 1.24 0.04
7 0 9 0.05 0.32
7 0 10 0.09 0.02
7 0 11 0.48 0.03
7 1 0 31.5 0.18
7 1 1 3.19 0.04
7 1 2 1.45 0.02
7 1 3 0.61 0.02
7 1 4 4.61 0.05
7 1 5 2.06 0.03
7 1 6 1.02 0.03
7 1 7 0.08 0.02
7 1 8 1.24 0.03
7 1 9 0.1 0.01
7 1 10 0.41 0.02
7 1 11 0.36 0.01
7 2 0 0.28 0.01
7 2 1 0.01 0.17
7 2 2 0.17 0.01
7 2 3 2.72 0.04
7 2 4 8.34 0.07
7 2 5 0.87 0.03
7 2 6 0.95 0.03
7 2 7 2.6 0.04
7 2 8 2.94 0.05
7 2 9 0.28 0.01
7 2 10 0.39 0.01
7 2 11 0.22 0.01
7 3 0 1.38 0.03
7 3 1 10.72 0.08
7 3 2 1.45 0.03
7 3 3 14.03 0.11
7 3 4 1.84 0.03
7 3 5 0.65 0.03
7 3 6 1.36 0.03
7 3 7 0.32 0.01
7 3 8 0.18 0.01
7 3 9 0.58 0.03
7 3 10 0.27 0.01
7 3 11 1.63 0.03
7 4 0 1 0.03
7 4 1 1.35 0.03
7 4 2 1.82 0.03
7 4 3 1.7 0.03
7 4 4 11.59 0.1
7 4 5 0.34 0.01
7 4 6 1.47 0.03
7 4 7 0.45 0.02
7 4 8 3.05 0.05
7 4 9 0.55 0.03
7 4 10 0.78 0.03
7 4 11 0.14 0.01
7 5 0 5.83 0.06
7 5 1 3.18 0.04
7 5 2 0.1 0.03
7 5 3 2.86 0.04
7 5 4 1.43 0.03
7 5 5 0.08 0.02
7 5 6 0.01 0.2
7 5 7 0.01 0.29
7 5 8 0.09 0.02
7 5 9 0.04 0.28
7 5 10 0.16 0.01
7 5 11 0.48 0.02
7 6 0 0.52 0.02
7 6 1 2.21 0.04
7 6 2 1.1 0.03
7 6 3 2.15 0.04
7 6 4 0.36 0.01
7 6 5 1.87 0.04
7 6 6 0.32 0.01
7 6 7 3.56 0.05
7 6 8 0.71 0.03
7 6 9 -0.01 0.29
7 6 10 -0.03 0.27
7 7 1 1.29 0.05
7 7 2 1.39 0.05
7 7 3 0 0.39
7 7 4 1.93 0.06
7 7 5 1.11 0.05
7 7 6 0.88 0.05
7 7 7 0.29 0.02
7 7 8 0.7 0.04
7 7 9 0.17 0.02
7 7 10 0.21 0.02
8 0 0 17.21 0.14
8 0 1 2.28 0.04
8 0 2 0.82 0.03
8 0 3 0.8 0.03
8 0 4 2.74 0.05
8 0 5 0.9 0.03
8 0 6 0.51 0.02
8 0 7 0.06 0.33
8 0 8 0.66 0.03
8 0 9 0.01 0.33
8 0 10 0.25 0.01
8 0 11 0.29 0.01
8 1 0 1.5 0.03
8 1 1 0.97 0.03
8 1 2 0.62 0.02
8 1 3 3.18 0.04
8 1 4 2.92 0.04
8 1 5 1.98 0.04
8 1 6 0.78 0.03
8 1 7 3.53 0.05
8 1 8 1.66 0.04
8 1 9 0.22 0.01
8 1 10 0.02 0.28
8 1 11 0.28 0.01
8 2 0 4.68 0.05
8 2 1 6.56 0.06
8 2 2 1.56 0.03
8 2 3 5.14 0.05
8 2 4 3.07 0.04
8 2 5 0.56 0.02
8 2 6 0.26 0.01
8 2 7 0.83 0.03
8 2 8 0.12 0.01
8 2 9 0.19 0.01
8 2 10 0.39 0.02
8 2 11 0.79 0.03
8 3 0 1.13 0.03
8 3 1 0.39 0.01
8 3 2 0.87 0.03
8 3 3 1.84 0.03
8 3 4 7.04 0.07
8 3 5 0.52 0.02
8 3 6 1.1 0.03
8 3 7 0.81 0.03
8 3 8 2.09 0.04
8 3 9 0.37 0.02
8 3 10 0.4 0.02
8 3 11 0.14 0.01
8 4 0 4.16 0.05
8 4 1 2.93 0.04
8 4 2 0.03 0.26
8 4 3 2.95 0.04
8 4 4 1.13 0.03
8 4 5 0.02 0.28
8 4 6 0.09 0.03
8 4 7 0.03 0.16
8 4 8 0.05 0.02
8 4 9 0.05 0.2
8 4 10 0.17 0.01
8 5 0 0.99 0.03
8 5 1 1.35 0.03
8 5 2 0.72 0.03
8 5 3 2.21 0.04
8 5 4 0.79 0.03
8 5 5 1.34 0.03
8 5 6 0.6 0.03
8 5 7 2.36 0.04
8 5 8 0.88 0.03
8 5 9 0.09 0.02
8 5 10 0.02 0.26
8 6 0 8.42 0.09
8 6 1 1.5 0.04
8 6 2 1.2 0.03
8 6 3 0.02 0.28
8 6 4 1.98 0.04
8 6 5 1.02 0.03
8 6 6 0.59 0.03
8 6 7 0.31 0.02
8 6 8 0.56 0.02
8 6 9 0.13 0.01
8 6 10 0.24 0.02
8 7 0 0.14 0.02
8 7 1 0.56 0.03
8 7 2 0.22 0.01
8 7 3 0.78 0.03
8 7 4 0.35 0.02
8 7 5 0.65 0.03
8 7 6 0.15 0.02
8 7 7 1.26 0.04
8 7 8 0.36 0.01
8 7 9 0 0.27
8 8 0 0.89 0.05
8 8 1 0.87 0.04
8 8 2 0.16 0.02
8 8 3 0.96 0.05
8 8 4 0.35 0.02
8 8 5 0.01 0.41
8 8 6 0 0.41
8 8 7 0.03 0.41
8 8 8 0.01 0.39
9 0 1 -0.02 0.3
9 0 2 0.09 0.02
9 0 3 1.02 0.04
9 0 4 3.88 0.06
9 0 5 0.35 0.02
9 0 6 0.45 0.02
9 0 7 1.15 0.04
9 0 8 1.34 0.04
9 0 9 0.12 0.02
9 0 10 0.19 0.01
9 1 0 3.6 0.04
9 1 1 3.63 0.04
9 1 2 0.64 0.02
9 1 3 3.13 0.04
9 1 4 1.67 0.04
9 1 5 0.26 0.01
9 1 6 0.05 0.2
9 1 7 0.32 0.01
9 1 8 0.03 0.29
9 1 9 0.07 0.01
9 1 10 0.2 0.01
9 2 0 1.4 0.03
9 2 1 0.23 0.01
9 2 2 0.41 0.01
9 2 3 1.91 0.04
9 2 4 3.13 0.04
9 2 5 0.79 0.03
9 2 6 0.83 0.03
9 2 7 1.19 0.03
9 2 8 1.25 0.04
9 2 9 0.22 0.01
9 2 10 0.11 0.01
9 3 0 5.27 0.06
9 3 1 1.63 0.03
9 3 2 0.19 0.01
9 3 3 1.14 0.03
9 3 4 1.06 0.03
9 3 5 0.12 0.01
9 3 6 0.04 0.2
9 3 7 0.03 0.2
9 3 8 0.13 0.01
9 3 9 0.02 0.28
9 3 10 0.09 0.02
9 4 0 0.42 0.02
9 4 1 1.07 0.03
9 4 2 0.48 0.02
9 4 3 1.4 0.03
9 4 4 0.54 0.02
9 4 5 1.04 0.03
9 4 6 0.29 0.01
9 4 7 2.04 0.04
9 4 8 0.62 0.03
9 4 9 0.05 0.28
9 4 10 -0.03 0.27
9 5 0 6.29 0.07
9 5 1 1.36 0.03
9 5 2 0.98 0.03
9 5 3 0.06 0.02
9 5 4 1.6 0.04
9 5 5 0.65 0.03
9 5 6 0.38 0.01
9 5 7 0.28 0.01
9 5 8 0.38 0.02
9 5 9 0.05 0.2
9 6 0 0.18 0.01
9 6 1 0.42 0.02
9 6 2 0.15 0.01
9 6 3 0.77 0.03
9 6 4 0.5 0.02
9 6 5 0.45 0.02
9 6 6 0.16 0.01
9 6 7 0.94 0.03
9 6 8 0.4 0.01
9 6 9 0.03 0.27
9 7 0 0.81 0.03
9 7 1 0.9 0.03
9 7 2 0.05 0.2
9 7 3 0.99 0.03
9 7 4 0.3 0.01
9 7 5 -0.04 0.29
9 7 6 0.04 0.28
9 7 7 0.03 0.28
9 7 8 0.01 0.27
9 8 0 0.58 0.02
9 8 1 0.17 0.01
9 8 2 0.4 0.02
9 8 3 0.38 0.02
9 8 4 1.42 0.04
9 8 5 0.2 0.01
9 8 6 0.29 0.01
9 8 7 0.03 0.2
9 8 8 0.37 0.02
9 9 0 0.11 0.02
9 9 1 0.66 0.04
9 9 2 0.16 0.02
9 9 3 0.79 0.04
9 9 4 0.22 0.02
9 9 5 0.06 0.4
9 9 6 0.06 0.22
9 9 7 0.07 0.38
10 0 0 0.93 0.04
10 0 1 2.26 0.04
10 0 2 0.05 0.32
10 0 3 3.13 0.05
10 0 4 0.47 0.02
10 0 5 0.07 0.33
10 0 6 0.19 0.01
10 0 7 0 0.33
10 0 8 0.04 0.32
10 0 9 0.1 0.02
10 0 10 0.09 0.51
10 1 0 0.1 0.01
10 1 1 0.02 0.27
10 1 2 0.2 0.01
10 1 3 0.61 0.02
10 1 4 2.71 0.04
10 1 5 0.13 0.01
10 1 6 0.33 0.01
10 1 7 0.5 0.02
10 1 8 0.89 0.03
10 1 9 0.07 0.02
10 1 10 0.18 0.02
10 2 0 3.37 0.05
10 2 1 1.07 0.03
10 2 2 0.09 0.03
10 2 3 0.85 0.03
10 2 4 0.77 0.03
10 2 5 0.06 0.02
10 2 6 0.01 0.28
10 2 7 0.02 0.28
10 2 8 0.09 0.01
10 2 9 -0.02 0.28
10 2 10 0.04 0.37
10 3 0 0.07 0.02
10 3 1 0.87 0.03
10 3 2 0.32 0.01
10 3 3 0.85 0.03
10 3 4 0.31 0.01
10 3 5 0.78 0.03
10 3 6 0.11 0.02
10 3 7 1.55 0.04
10 3 8 0.29 0.01
10 3 9 0.05 0.27
10 4 0 5.09 0.07
10 4 1 0.61 0.02
10 4 2 0.5 0.02
10 4 3 0.03 0.28
10 4 4 1.01 0.03
10 4 5 0.4 0.02
10 4 6 0.31 0.01
10 4 7 0.08 0.02
10 4 8 0.26 0.01
10 4 9 -0.02 0.19
10 5 0 0.06 0.02
10 5 1 0.34 0.01
10 5 2 0.1 0.02
10 5 3 0.48 0.02
10 5 4 0.38 0.02
10 5 5 0.36 0.02
10 5 6 0.09 0.02
10 5 7 0.78 0.03
10 5 8 0.27 0.01
10 5 9 0 0.26
10 6 0 0.59 0.02
10 6 1 0.7 0.03
10 6 2 0.03 0.2
10 6 3 0.86 0.03
10 6 4 0.23 0.01
10 6 5 -0.01 0.29
10 6 6 0 0.29
10 6 7 0.03 0.2
10 6 8 0 0.27
10 7 0 0.37 0.02
10 7 1 0.13 0.02
10 7 2 0.32 0.01
10 7 3 0.32 0.01
10 7 4 1.28 0.04
10 7 5 0.14 0.01
10 7 6 0.19 0.01
10 7 7 0.02 0.2
10 7 8 0.34 0.01
10 8 0 0.1 0.02
10 8 1 0.51 0.02
10 8 2 0.16 0.01
10 8 3 0.74 0.03
10 8 4 0.17 0.01
10 8 5 0.03 0.2
10 8 6 0.05 0.19
10 8 7 0.05 0.01
10 9 0 0.01 0.2
10 9 1 0.04 0.28
10 9 2 0 0.28
10 9 3 0.07 0.02
10 9 4 0.18 0.01
10 9 5 0.02 0.28
10 9 6 0.03 0.19
10 10 0 0.59 0.04
10 10 1 0.12 0.02
10 10 2 0.07 0.4
10 10 3 -0.02 0.4
10 10 4 0.13 0.02
10 10 5 0.06 0.38
11 0 1 0 0.33
11 0 2 0.08 0.02
11 0 3 0.33 0.02
11 0 4 1.55 0.04
11 0 5 0.02 0.33
11 0 6 0.14 0.02
11 0 7 0.27 0.01
11 0 8 0.5 0.03
11 0 9 -0.01 0.31
11 1 0 1.33 0.03
11 1 1 0.92 0.03
11 1 2 0.03 0.2
11 1 3 0.96 0.03
11 1 4 0.38 0.01
11 1 5 0.02 0.28
11 1 6 0.03 0.28
11 1 7 0.04 0.28
11 1 8 0.04 0.28
11 1 9 0.05 0.26
11 2 0 0.12 0.02
11 2 1 0.24 0.01
11 2 2 0.03 0.2
11 2 3 0.51 0.02
11 2 4 0.42 0.02
11 2 5 0.37 0.01
11 2 6 0.1 0.02
11 2 7 0.74 0.03
11 2 8 0.28 0.01
11 2 9 0.04 0.26
11 3 0 2.79 0.05
11 3 1 0.44 0.02
11 3 2 0.23 0.01
11 3 3 0.09 0.02
11 3 4 0.54 0.03
11 3 5 0.18 0.01
11 3 6 0.15 0.01
11 3 7 0.03 0.28
11 3 8 0.12 0.01
11 4 0 0.02 0.28
11 4 1 0.23 0.01
11 4 2 0.04 0.17
11 4 3 0.32 0.01
11 4 4 0.27 0.01
11 4 5 0.26 0.01
11 4 6 0.05 0.2
11 4 7 0.54 0.03
11 4 8 0.15 0.01
11 5 0 0.63 0.03
11 5 1 0.52 0.02
11 5 2 0.08 0.28
11 5 3 0.52 0.02
11 5 4 0.22 0.01
11 5 5 -0.01 0.29
11 5 6 0.04 0.28
11 5 7 0.05 0.27
11 5 8 -0.02 0.26
11 6 0 0.25 0.01
11 6 1 0.09 0.01
11 6 2 0.21 0.01
11 6 3 0.24 0.01
11 6 4 0.88 0.03
11 6 5 0.1 0.02
11 6 6 0.16 0.01
11 6 7 0.04 0.19
11 7 0 0.12 0.02
11 7 1 0.41 0.02
11 7 2 0.09 0.01
11 7 3 0.52 0.03
11 7 4 0.13 0.01
11 7 5 0.08 0.02
11 7 6 0.06 0.27
11 7 7 0.06 0.26
11 8 0 0 0.28
11 8 1 -0.01 0.29
11 8 2 -0.02 0.29
11 8 3 0.07 0.02
11 8 4 0.16 0.01
11 8 5 0.06 0.19
11 8 6 0.03 0.26
11 9 0 0.53 0.02
11 9 1 0.1 0.01
11 9 2 0.06 0.02
11 9 3 -0.02 0.28
11 9 4 0.13 0.02
11 9 5 0.05 0.19
11 10 0 0.05 0.28
11 10 1 0.11 0.01
11 10 2 0.06 0.02
11 10 3 0.08 0.02
12 0 0 1 0.04
12 0 1 0.37 0.02
12 0 2 0 0.22
12 0 3 0.34 0.02
12 0 4 0.2 0.01
12 0 5 0.01 0.33
12 0 6 0.04 0.32
12 0 7 0.03 0.31
12 0 8 0.05 0.31
12 1 0 0.05 0.29
12 1 1 0.08 0.02
12 1 2 0.05 0.28
12 1 3 0.28 0.01
12 1 4 0.37 0.02
12 1 5 0.16 0.01
12 1 6 0.01 0.29
12 1 7 0.36 0.02
12 1 8 0.19 0.01
12 2 0 1.17 0.03
12 2 1 0.36 0.01
12 2 2 0.12 0.02
12 2 3 0.17 0.01
12 2 4 0.29 0.01
12 2 5 0.01 0.29
12 2 6 0 0.28
12 2 7 0.05 0.28
12 2 8 0.06 0.01
12 3 0 0.03 0.28
12 3 1 0.09 0.01
12 3 2 0.03 0.2
12 3 3 0.18 0.01
12 3 4 0.27 0.01
12 3 5 0.14 0.02
12 3 6 0.07 0.02
12 3 7 0.29 0.01
12 4 0 0.47 0.02
12 4 1 0.29 0.01
12 4 2 0.01 0.29
12 4 3 0.32 0.01
12 4 4 0.14 0.01
12 4 5 0 0.28
12 4 6 -0.01 0.28
12 4 7 0.03 0.27
12 5 0 0.12 0.02
12 5 1 0.02 0.29
12 5 2 0.1 0.02
12 5 3 0.13 0.01
12 5 4 0.55 0.02
12 5 5 0.06 0.28
12 5 6 0.08 0.28
12 5 7 0.03 0.26
12 6 0 0.15 0.01
12 6 1 0.27 0.01
12 6 2 0.05 0.21
12 6 3 0.38 0.02
12 6 4 0.08 0.02
12 6 5 0.03 0.2
12 6 6 0.01 0.27
12 7 0 -0.01 0.28
12 7 1 0.01 0.2
12 7 2 0 0.28
12 7 3 0.06 0.01
12 7 4 0.13 0.01
12 7 5 0 0.19
12 8 0 0.43 0.02
12 8 1 0.06 0.02
12 8 2 0.09 0.02
12 8 3 0 0.27
12 8 4 0.1 0.02
12 9 0 0.05 0.28
12 9 1 0.06 0.02
12 9 2 0 0.28
12 9 3 0.07 0.02
13 0 1 0.08 0.02
13 0 2 0.03 0.21
13 0 3 0.12 0.02
13 0 4 0.11 0.01
13 0 5 0.09 0.02
13 0 6 0 0.32
13 0 7 0.2 0.01
13 1 0 0.67 0.03
13 1 1 0.15 0.01
13 1 2 0 0.29
13 1 3 0.1 0.01
13 1 4 0.13 0.01
13 1 5 0.01 0.2
13 1 6 0.01 0.19
13 1 7 0.03 0.26
13 2 0 0.01 0.28
13 2 1 0.02 0.28
13 2 2 0 0.28
13 2 3 0.09 0.02
13 2 4 0.16 0.01
13 2 5 0.02 0.29
13 2 6 0.05 0.27
13 3 0 0.24 0.01
13 3 1 0.19 0.01
13 3 2 0 0.29
13 3 3 0.22 0.01
13 3 4 0.05 0.29
13 3 5 0.01 0.28
13 3 6 0.01 0.27
13 4 0 0.02 0.2
13 4 1 0.03 0.28
13 4 2 0.04 0.28
13 4 3 0.07 0.02
13 4 4 0.3 0.01
13 4 5 -0.03 0.32
13 4 6 0.05 0.19
13 5 0 0.13 0.01
13 5 1 0.17 0.01
13 5 2 -0.01 0.28
13 5 3 0.18 0.01
13 5 4 0 0.28
13 5 5 0.04 0.26
13 6 0 0.01 0.28
13 6 1 0.01 0.28
13 6 2 0 0.28
13 6 3 0.06 0.27
13 6 4 0.08 0.02
13 6 5 -0.01 0.27
13 7 0 0.26 0.01
13 7 1 0.05 0.02
13 7 2 0.02 0.16
13 7 3 0 0.19
13 7 4 0.04 0.27
13 8 0 0.01 0.27
13 8 1 0.06 0.02
13 8 2 0.05 0.26
14 0 0 0.33 0.02
14 0 1 0.01 0.33
14 0 2 0.01 0.21
14 0 3 -0.01 0.33
14 0 4 0.08 0.02
14 0 5 0 0.31
14 1 0 0.01 0.28
14 1 1 0.03 0.28
14 1 2 -0.05 0.29
14 1 3 0.02 0.28
14 1 4 0.06 0.28
14 1 5 0.02 0.27
14 2 0 0.17 0.01
14 2 1 0.1 0.02
14 2 2 -0.01 0.28
14 2 3 0.09 0.02
14 2 4 0.04 0.27
14 2 5 -0.02 0.27
14 3 0 0.01 0.28
14 3 1 0 0.28
14 3 2 0.02 0.28
14 3 3 0.04 0.28
14 3 4 0.11 0.02
14 3 5 -0.02 0.26
14 4 0 0.07 0.01
14 4 1 0.07 0.02
14 4 2 -0.01 0.28
14 4 3 0.11 0.02
14 4 4 -0.01 0.19
14 5 0 -0.03 0.28
14 5 1 -0.02 0.2
14 5 2 0 0.27
14 5 3 0.04 0.27
14 6 0 0.17 0.01
14 6 1 -0.01 0.19
14 6 2 0 0.27
15 0 1 -0.01 0.32
15 0 2 -0.04 0.32
15 0 3 0.04 0.3
15 1 0 0.08 0.28
15 1 1 0.03 0.19
15 1 2 0.03 0.26
15 1 3 0.03 0.19
15 2 0 0.02 0.27
15 2 1 0 0.27
15 2 2 -0.01 0.27
15 3 0 0.06 0.27
15 3 1 -0.02 0.27
15 3 2 0.01 0.26
15 4 0 0.01 0.19
loop_
_geom_angle_atom_site_label_1
_geom_angle_atom_site_label_2
_geom_angle_atom_site_label_3
_geom_angle
_geom_angle_site_symmetry_1
_geom_angle_site_symmetry_3
_geom_angle_publ_flag
H2 N H1 119.9(2) . . ?
C N H1 119.19(12) 6_565 . ?
C N H2 120.95(14) 6_565 . ?
N C O 121.507(10) . . ?
N C O 121.507(10) 6_565 . ?
N C N 116.99(2) 6_565 . ?
loop_
_geom_bond_atom_site_label_1
_geom_bond_atom_site_label_2
_geom_bond_distance
_geom_bond_site_symmetry_2
_geom_bond_publ_flag
O C 1.2550(3) . ?
N H1 1.011(2) . ?
N H2 1.004(3) . ?
N C 1.3387(2) 6_565 ?
loop_
_atom_site_anharm_gc_c_label
_atom_site_anharm_gc_c_111
_atom_site_anharm_gc_c_112
_atom_site_anharm_gc_c_113
_atom_site_anharm_gc_c_122
_atom_site_anharm_gc_c_123
_atom_site_anharm_gc_c_133
_atom_site_anharm_gc_c_222
_atom_site_anharm_gc_c_223
_atom_site_anharm_gc_c_233
_atom_site_anharm_gc_c_333
O -0.0 -0.0 -0.00000032(7) -0.0 0.00000008(11) -0.0 -0.0 -0.00000032(7) -0.0
-0.00000014(10)
N -0.00000139(14) 0.00000046(6) 0.00000142(8) 0.00000046(6) -0.00000144(13)
0.00000002(5) -0.00000139(14) 0.00000142(8) 0.00000002(5) 0.00000045(11)
loop_
_atom_site_anharm_gc_d_label
_atom_site_anharm_gc_d_1111
_atom_site_anharm_gc_d_1112
_atom_site_anharm_gc_d_1113
_atom_site_anharm_gc_d_1122
_atom_site_anharm_gc_d_1123
_atom_site_anharm_gc_d_1133
_atom_site_anharm_gc_d_1222
_atom_site_anharm_gc_d_1223
_atom_site_anharm_gc_d_1233
_atom_site_anharm_gc_d_1333
_atom_site_anharm_gc_d_2222
_atom_site_anharm_gc_d_2223
_atom_site_anharm_gc_d_2233
_atom_site_anharm_gc_d_2333
_atom_site_anharm_gc_d_3333
O 0.000000030(10) 0.000000007(8) -0.0 -0.000000003(7) -0.0 0.000000002(4)
0.000000007(8) -0.0 -0.000000004(5) -0.0 0.000000030(10) -0.0 0.000000002(4)
-0.0 0.000000023(12)
N -0.000000017(12) 0.000000072(9) -0.000000002(7) -0.000000080(10)
0.000000006(3) 0.000000008(4) 0.000000072(9) 0.000000006(3) -0.000000001(5)
0.000000000(4) -0.000000017(12) -0.000000002(7) 0.000000008(4) 0.000000000(4)
-0.000000024(10)
