#------------------------------------------------------------------------------
#$Date: 2022-03-02 05:20:08 +0200 (Wed, 02 Mar 2022) $
#$Revision: 273207 $
#$URL: file:///home/coder/svn-repositories/cod/cif/1/56/64/1566438.cif $
#------------------------------------------------------------------------------
#
# This file is available in the Crystallography Open Database (COD),
# http://www.crystallography.net/. The original data for this entry
# were provided by IUCr Journals, http://journals.iucr.org/.
#
# The file may be used within the scientific community so long as
# proper attribution is given to the journal article from which the
# data were obtained.
#
data_1566438
loop_
_publ_author_name
'Ruth, Paul Niklas'
'Herbst-Irmer, Regine'
'Stalke, Dietmar'
_publ_section_title
;
 Hirshfeld atom refinement based on projector augmented wave densities
 with periodic boundary conditions
;
_journal_issue                   2
_journal_name_full               IUCrJ
_journal_page_first              286
_journal_page_last               297
_journal_paper_doi               10.1107/S2052252522001385
_journal_volume                  9
_journal_year                    2022
_chemical_absolute_configuration syn
_chemical_formula_moiety         'C3 H7 N O2'
_chemical_formula_sum            'C3 H7 N O2'
_chemical_formula_weight         89.0947
_space_group_crystal_system      orthorhombic
_space_group_IT_number           19
_space_group_name_Hall           'P 2ac 2ab'
_space_group_name_H-M_alt        'P 21 21 21'
_atom_sites_solution_hydrogens   difmap
_audit_creation_method           'xHARPY 0.1'
_cell_angle_alpha                90
_cell_angle_beta                 90
_cell_angle_gamma                90
_cell_formula_units_Z            4
_cell_length_a                   5.9279(10)
_cell_length_b                   12.2597(17)
_cell_length_c                   5.7939(9)
_cell_measurement_reflns_used    1524
_cell_measurement_temperature    23
_cell_measurement_theta_max      22.5
_cell_measurement_theta_min      15.0
_cell_volume                     421.07(11)
_computing_publication_material  'xHARPY 0.1'
_computing_structure_refinement  'xHARPY 0.1'
_computing_structure_solution    'SHELXS-2013 (Sheldrick, 2008)'
_diffrn_ambient_temperature      23
_diffrn_measured_fraction_theta_full 0.994
_diffrn_measured_fraction_theta_max 0.993
_diffrn_measurement_device_type  'P-1 four circle diffractometer'
_diffrn_measurement_method       'area detector'
_diffrn_radiation_type           MoK\a
_diffrn_radiation_wavelength     0.71073
_diffrn_reflns_av_unetI/netI     0.0243
_diffrn_reflns_Laue_measured_fraction_full 0.994
_diffrn_reflns_Laue_measured_fraction_max 0.993
_diffrn_reflns_limit_h_max       12
_diffrn_reflns_limit_h_min       0
_diffrn_reflns_limit_k_max       26
_diffrn_reflns_limit_k_min       0
_diffrn_reflns_limit_l_max       12
_diffrn_reflns_limit_l_min       0
_diffrn_reflns_number            2519
_diffrn_reflns_point_group_measured_fraction_full 0.618
_diffrn_reflns_point_group_measured_fraction_max 0.567
_diffrn_reflns_theta_full        25.242
_diffrn_reflns_theta_max         50.138
_diffrn_reflns_theta_min         3.323
_exptl_absorpt_coefficient_mu    0.117
_exptl_absorpt_correction_type   none
_exptl_crystal_colour            colorless
_exptl_crystal_density_diffrn    1.405
_exptl_crystal_density_method    'not measured'
_exptl_crystal_description       sphere
_exptl_crystal_F_000             192
_exptl_crystal_size_rad          0.18
_refine_diff_density_max         0.1884
_refine_diff_density_min         -0.1846
_refine_diff_density_rms         0.0434
_refine_ls_extinction_method     none
_refine_ls_goodness_of_fit_ref   1.124
_refine_ls_hydrogen_treatment    refall
_refine_ls_matrix_type           full
_refine_ls_number_parameters     118
_refine_ls_number_reflns         2519
_refine_ls_number_restraints     0
_refine_ls_R_factor_all          0.0207
_refine_ls_R_factor_gt           0.0189
_refine_ls_shift/su_max          0.0
_refine_ls_shift/su_mean         0.0
_refine_ls_structure_factor_coef Fsqd
_refine_ls_weighting_details     w=1/[\s^2^(Fo^2^)]
_refine_ls_weighting_scheme      sigma
_refine_ls_wR_factor_gt          0.0313
_refine_ls_wR_factor_ref         0.0316
_reflns_Friedel_coverage         0.0
_reflns_Friedel_fraction_full    0.0
_reflns_Friedel_fraction_max     0.0
_reflns_number_gt                2393
_reflns_number_total             2519
_reflns_threshold_expression     'I > 2\s(I)'
_cod_data_source_file            fc5060.cif
_cod_data_source_block           A23_xHARPy_PBE
_cod_database_code               1566438
loop_
_space_group_symop_operation_xyz
'x, y, z'
'-x+1/2, -y, z+1/2'
'x+1/2, -y+1/2, -z'
'-x, y+1/2, -z+1/2'
loop_
_atom_site_label
_atom_site_type_symbol
_atom_site_fract_x
_atom_site_fract_y
_atom_site_fract_z
_atom_site_U_iso_or_equiv
_atom_site_adp_type
_atom_site_occupancy
_atom_site_site_symmetry_order
O1 O 0.72675(4) 0.083789(17) 0.62433(4) 0.00662(3) Uani 1.0 1
O2 O 0.44093(4) 0.184044(17) 0.76113(4) 0.00643(3) Uani 1.0 1
N1 N 0.64720(4) 0.137517(20) 0.18303(5) 0.00526(3) Uani 1.0 1
H1 H 0.7036(11) 0.0604(5) 0.1956(14) 0.0219(18) Uani 1.0 1
H2 H 0.7788(10) 0.1899(5) 0.2082(14) 0.0191(17) Uani 1.0 1
H3 H 0.5852(12) 0.1492(5) 0.0147(12) 0.0197(17) Uani 1.0 1
C1 C 0.46631(4) 0.161072(20) 0.35444(5) 0.00434(3) Uani 1.0 1
H4 H 0.4235(9) 0.2477(4) 0.3390(11) 0.0177(15) Uani 1.0 1
C2 C 0.25990(5) 0.09068(2) 0.30334(6) 0.00681(4) Uani 1.0 1
H5 H 0.1929(10) 0.1106(5) 0.1318(12) 0.0266(18) Uani 1.0 1
H6 H 0.1282(10) 0.1050(5) 0.4298(13) 0.0261(18) Uani 1.0 1
H7 H 0.3048(10) 0.0045(5) 0.3075(14) 0.0289(20) Uani 1.0 1
C3 C 0.55407(5) 0.140794(20) 0.59991(5) 0.00409(3) Uani 1.0 1
loop_
_atom_site_aniso_label
_atom_site_aniso_U_11
_atom_site_aniso_U_22
_atom_site_aniso_U_33
_atom_site_aniso_U_23
_atom_site_aniso_U_13
_atom_site_aniso_U_12
O1 0.00679(7) 0.00720(6) 0.00587(8) 0.00051(6) -0.00061(6) 0.00247(6)
O2 0.00763(7) 0.00764(6) 0.00404(7) -0.00058(6) 0.00059(6) 0.00201(6)
N1 0.00563(7) 0.00599(7) 0.00415(8) -0.00008(6) 0.00046(6) 0.00005(6)
H1 0.023(4) 0.024(4) 0.019(5) 0.000(3) 0.009(4) 0.005(3)
H2 0.012(3) 0.024(4) 0.021(5) 0.003(4) 0.007(4) 0.000(3)
H3 0.030(4) 0.021(4) 0.008(4) -0.006(3) 0.007(4) -0.006(4)
C1 0.00499(8) 0.00458(7) 0.00345(9) 0.00004(6) -0.00027(7) 0.00044(6)
H4 0.022(3) 0.014(3) 0.017(4) 0.004(3) 0.007(3) 0.009(3)
C2 0.00572(8) 0.00874(8) 0.00597(10) -0.00043(8) -0.00060(7) -0.00130(8)
H5 0.022(4) 0.047(5) 0.011(4) 0.009(3) -0.011(3) -0.011(3)
H6 0.013(3) 0.033(4) 0.033(5) 0.004(4) 0.005(4) -0.002(3)
H7 0.034(5) 0.014(3) 0.039(5) -0.004(3) 0.003(4) -0.005(3)
C3 0.00478(7) 0.00420(7) 0.00328(9) 0.00001(6) -0.00030(7) 0.00028(7)
loop_
_atom_type_symbol
_atom_type_description
_atom_type_scat_dispersion_real
_atom_type_scat_dispersion_imag
_atom_type_scat_source
C C 0.0033 0.0016 'HAR in xHARPy 0.1'
H H 0.0000 0.0000 'HAR in xHARPy 0.1'
N N 0.0061 0.0033 'HAR in xHARPy 0.1'
O O 0.0106 0.0060 'HAR in xHARPy 0.1'
loop_
_geom_angle_atom_site_label_1
_geom_angle_atom_site_label_2
_geom_angle_atom_site_label_3
_geom_angle
C1 N1 H1 111.9(4)
C1 N1 H2 109.4(4)
H1 N1 H2 109.1(5)
C1 N1 H3 109.9(4)
H1 N1 H3 108.1(5)
H2 N1 H3 108.3(5)
N1 C1 C2 109.76(2)
N1 C1 C3 110.02(2)
C2 C1 C3 111.10(2)
N1 C1 H4 107.5(3)
C2 C1 H4 110.3(3)
C3 C1 H4 108.1(3)
C1 C2 H5 109.9(3)
C1 C2 H6 110.7(3)
H5 C2 H6 108.4(4)
C1 C2 H7 110.4(3)
H5 C2 H7 108.9(5)
H6 C2 H7 108.5(5)
O1 C3 O2 125.84(3)
O1 C3 C1 118.30(2)
O2 C3 C1 115.87(2)
loop_
_geom_bond_atom_site_label_1
_geom_bond_atom_site_label_2
_geom_bond_distance
O1 C3 1.2475(4)
O2 C3 1.2663(4)
N1 C1 1.4898(4)
N1 H1 1.006(6)
N1 H2 1.021(6)
N1 H3 1.052(7)
C1 C2 1.5263(4)
C1 C3 1.5346(4)
C1 H4 1.096(5)
C2 H5 1.098(7)
C2 H6 1.085(7)
C2 H7 1.089(6)
loop_
_refln_index_h
_refln_index_k
_refln_index_l
_refln_F_squared_calc
_refln_F_squared_meas
_refln_F_squared_sigma
0 2 0 182.89 184.40 1.76
0 4 0 5378.90 5203.01 44.60
0 6 0 90.36 89.99 1.05
0 8 0 45.49 45.51 0.72
0 10 0 0.57 0.80 0.34
0 12 0 238.04 233.55 2.67
0 14 0 56.53 58.77 1.13
0 16 0 24.46 25.33 0.86
0 18 0 226.55 228.41 2.98
0 20 0 0.03 0.22 0.34
0 22 0 133.75 135.99 2.36
0 24 0 0.06 0.23 0.38
0 26 0 5.49 6.47 0.62
0 1 1 730.18 726.85 7.35
0 2 1 118.85 119.94 1.22
0 3 1 696.39 710.96 6.42
0 4 1 95.32 98.60 1.07
0 5 1 0.26 0.23 0.17
0 6 1 474.60 476.57 4.59
0 7 1 36.54 37.05 0.61
0 8 1 43.93 44.51 0.73
0 9 1 32.59 32.19 0.67
0 10 1 135.01 137.77 1.70
0 11 1 67.61 66.94 1.11
0 12 1 76.78 76.61 1.23
0 13 1 19.84 18.90 0.69
0 14 1 39.33 38.03 0.95
0 15 1 91.51 91.28 1.56
0 16 1 0.34 2.39 9.23
0 17 1 0.89 1.13 0.35
0 18 1 61.44 60.08 1.37
0 19 1 15.82 16.21 0.90
0 20 1 28.07 27.53 1.05
0 21 1 2.08 2.70 0.42
0 23 1 1.76 1.73 0.42
0 24 1 0.03 0.17 0.39
0 25 1 2.31 3.00 0.56
0 26 1 19.71 19.85 1.24
0 0 2 2906.90 2851.99 33.42
0 1 2 517.71 534.96 6.57
0 2 2 174.48 182.18 2.08
0 3 2 56.62 56.38 0.80
0 4 2 172.48 171.79 1.80
0 5 2 556.80 568.74 5.34
0 6 2 92.17 97.04 1.17
0 7 2 5.32 5.43 0.34
0 8 2 109.29 112.10 1.40
0 9 2 21.89 23.77 0.60
0 10 2 46.11 46.41 0.86
0 11 2 84.72 84.06 1.27
0 12 2 28.56 28.35 0.75
0 13 2 21.79 21.56 0.70
0 14 2 22.25 21.37 0.75
0 15 2 182.53 181.93 2.40
0 16 2 4.08 4.46 0.41
0 17 2 63.55 61.27 1.39
0 18 2 19.57 20.47 0.91
0 19 2 118.71 120.28 2.10
0 20 2 0.88 0.98 0.41
0 21 2 46.12 46.09 1.37
0 22 2 37.42 36.94 1.29
0 23 2 16.91 18.07 1.03
0 24 2 1.83 2.50 0.46
0 25 2 21.85 22.54 1.27
0 26 2 1.71 2.57 0.50
0 1 3 82.90 84.27 1.75
0 2 3 157.07 158.29 2.93
0 3 3 203.31 206.12 2.46
0 4 3 718.22 741.50 7.80
0 5 3 79.03 81.59 1.20
0 6 3 268.84 273.26 2.85
0 7 3 22.03 22.48 0.57
0 8 3 61.20 61.85 1.00
0 9 3 146.07 143.21 1.79
0 10 3 39.86 39.75 0.84
0 11 3 69.25 70.61 1.18
0 12 3 119.76 119.31 1.70
0 13 3 145.26 146.00 2.00
0 14 3 29.20 27.91 0.86
0 15 3 91.21 90.76 1.59
0 16 3 156.50 155.31 2.27
0 17 3 48.75 47.37 1.24
0 18 3 27.99 27.09 1.00
0 19 3 3.14 2.51 0.41
0 20 3 43.77 44.59 1.34
0 21 3 0.84 0.88 0.39
0 22 3 0.61 1.16 0.41
0 23 3 26.75 28.25 1.17
0 24 3 12.24 12.76 0.91
0 25 3 5.76 4.99 0.58
0 0 4 211.91 210.37 3.92
0 1 4 38.70 39.95 1.21
0 2 4 91.83 93.37 2.06
0 3 4 7.80 8.03 0.45
0 4 4 226.48 230.24 2.85
0 5 4 0.35 0.68 0.37
0 6 4 71.24 71.17 1.23
0 7 4 29.95 29.31 0.78
0 8 4 65.71 64.70 1.08
0 9 4 7.19 7.22 0.46
0 10 4 88.56 90.64 1.39
0 11 4 97.98 98.31 1.52
0 12 4 39.57 39.13 0.96
0 13 4 11.10 11.53 0.65
0 14 4 143.94 142.90 2.09
0 15 4 46.26 45.42 1.18
0 16 4 94.98 94.99 1.75
0 17 4 5.29 5.73 0.46
0 18 4 10.20 9.66 0.74
0 19 4 3.88 3.37 0.44
0 20 4 1.66 1.84 0.41
0 21 4 0.48 0.19 0.37
0 22 4 3.58 4.37 0.50
0 23 4 0.03 0.12 0.40
0 24 4 25.90 26.66 1.14
0 25 4 2.23 2.91 0.51
0 1 5 242.32 236.89 4.53
0 2 5 140.55 137.73 2.96
0 3 5 50.09 49.38 1.54
0 4 5 388.54 390.38 4.60
0 5 5 181.04 178.32 2.44
0 6 5 0.69 0.78 0.41
0 7 5 7.09 6.65 0.53
0 8 5 149.27 145.71 2.19
0 9 5 73.55 69.59 1.43
0 10 5 9.24 7.98 0.55
0 11 5 22.05 20.81 0.78
0 12 5 1.33 1.49 0.33
0 13 5 78.09 79.45 1.51
0 14 5 2.79 3.53 0.41
0 15 5 13.40 14.15 0.79
0 16 5 13.91 13.33 0.80
0 17 5 73.94 77.28 1.66
0 18 5 2.72 2.34 0.42
0 19 5 14.29 13.67 0.90
0 20 5 0.16 0.30 0.40
0 21 5 21.25 19.70 1.04
0 22 5 4.78 5.51 0.53
0 23 5 14.20 12.57 0.96
0 24 5 0.33 0.26 0.38
0 0 6 0.68 0.79 0.63
0 1 6 95.18 94.06 2.46
0 2 6 15.44 16.26 1.03
0 3 6 0.98 1.49 0.65
0 4 6 16.93 16.04 1.09
0 5 6 85.98 86.55 1.57
0 6 6 12.18 11.21 0.66
0 7 6 145.00 142.52 2.25
0 8 6 31.75 30.10 0.99
0 9 6 12.82 14.40 0.78
0 10 6 15.90 15.66 0.83
0 11 6 119.57 117.60 1.91
0 12 6 6.42 6.33 0.56
0 13 6 4.33 4.80 0.48
0 14 6 10.94 11.73 0.74
0 15 6 0.03 0.09 0.34
0 16 6 43.66 41.67 1.28
0 17 6 29.20 29.22 1.11
0 18 6 6.92 7.82 0.69
0 19 6 43.45 44.36 1.39
0 20 6 1.33 1.84 0.43
0 21 6 22.44 21.37 1.09
0 22 6 10.34 10.62 0.78
0 23 6 17.05 17.06 1.00
0 1 7 61.65 58.97 2.06
0 2 7 554.11 543.02 9.76
0 3 7 0.00 0.47 0.77
0 4 7 12.04 11.82 1.10
0 5 7 24.61 24.16 1.44
0 6 7 43.13 43.31 1.22
0 7 7 47.69 46.81 1.28
0 8 7 1.55 1.95 0.44
0 9 7 4.42 4.96 0.52
0 10 7 10.30 9.25 0.81
0 11 7 30.24 31.50 1.19
0 12 7 5.10 5.86 0.64
0 13 7 13.17 11.68 0.80
0 14 7 1.04 1.48 0.39
0 16 7 83.79 81.97 1.82
0 17 7 0.50 1.06 0.40
0 18 7 1.44 2.31 0.44
0 19 7 5.21 6.88 0.56
0 20 7 137.72 135.68 2.46
0 21 7 0.41 0.91 0.40
0 0 8 26.11 24.56 1.51
0 1 8 2.96 3.60 0.95
0 2 8 9.68 8.74 1.15
0 3 8 16.61 15.77 1.35
0 4 8 1.91 1.73 0.95
0 6 8 10.24 10.31 0.82
0 7 8 58.40 59.83 1.57
0 8 8 89.76 87.80 1.93
0 9 8 11.31 12.31 0.87
0 10 8 5.38 6.56 0.70
0 11 8 41.25 40.23 1.41
0 12 8 40.23 40.36 1.45
0 13 8 32.75 32.26 1.35
0 14 8 11.17 12.58 0.99
0 15 8 0.07 0.56 0.39
0 16 8 0.58 1.00 0.40
0 17 8 7.24 6.59 0.55
0 18 8 0.29 0.58 0.40
0 19 8 10.32 9.26 0.77
0 20 8 5.68 6.18 0.53
0 1 9 6.72 8.55 1.17
0 2 9 48.33 46.54 2.20
0 3 9 62.99 63.56 2.54
0 4 9 21.15 22.30 1.63
0 5 9 1.32 1.66 0.96
0 6 9 1.35 1.59 0.99
0 7 9 47.61 46.68 1.53
0 8 9 79.62 79.93 1.95
0 9 9 17.18 16.53 1.07
0 10 9 13.91 13.90 1.02
0 11 9 1.77 2.25 0.53
0 12 9 35.64 35.00 1.40
0 13 9 29.15 29.24 1.34
0 14 9 0.68 0.29 0.49
0 15 9 46.36 47.47 1.65
0 16 9 13.48 14.50 1.10
0 17 9 15.33 15.58 0.99
0 18 9 8.41 8.61 0.64
0 0 10 5.17 4.82 1.23
0 1 10 0.00 0.01 1.01
0 2 10 21.27 20.77 1.74
0 3 10 49.46 49.13 2.42
0 4 10 27.77 28.44 1.95
0 5 10 32.83 32.81 2.06
0 6 10 41.28 41.76 2.33
0 7 10 54.26 54.54 2.61
0 8 10 58.53 60.41 1.81
0 9 10 6.75 6.76 0.66
0 10 10 1.24 1.87 0.52
0 11 10 17.61 16.44 1.15
0 12 10 12.03 13.47 0.93
0 13 10 11.51 12.58 1.05
0 14 10 46.39 43.72 1.63
0 15 10 5.05 5.88 0.65
0 1 11 0.64 0.48 1.22
0 2 11 1.99 2.71 1.24
0 3 11 7.69 6.82 1.49
0 4 11 1.17 0.92 1.29
0 5 11 1.54 0.90 1.29
0 6 11 8.86 7.75 1.54
0 7 11 2.46 3.11 1.35
0 8 11 7.83 8.42 1.54
0 9 11 7.80 8.03 0.77
0 10 11 0.77 1.57 0.54
0 11 11 9.26 8.38 0.84
0 12 11 31.47 30.26 1.41
0 0 12 0.04 2.49 9.23
0 1 12 28.98 27.10 2.26
0 2 12 19.06 20.27 1.97
0 3 12 119.27 116.62 3.97
0 4 12 0.33 0.42 1.42
0 5 12 9.38 9.81 1.72
0 6 12 54.64 55.97 2.76
0 7 12 69.36 65.05 3.05
1 1 0 252.24 252.39 2.37
1 2 0 5387.94 5506.47 58.31
1 3 0 58.60 59.32 0.69
1 4 0 1718.61 1684.52 14.82
1 5 0 334.87 339.60 3.30
1 6 0 63.89 62.10 0.80
1 7 0 19.61 19.32 0.44
1 8 0 396.06 403.59 4.01
1 9 0 2.65 3.27 0.34
1 10 0 41.69 43.21 0.80
1 11 0 95.45 97.23 1.36
1 12 0 25.75 27.01 0.71
1 13 0 58.68 57.53 1.08
1 14 0 1.50 0.86 0.44
1 15 0 85.49 86.62 1.48
1 16 0 24.46 24.55 0.85
1 17 0 30.46 29.65 0.96
1 18 0 0.83 0.94 0.39
1 19 0 34.31 33.85 1.10
1 20 0 42.24 40.42 1.25
1 21 0 1.20 1.44 0.43
1 22 0 3.84 4.01 0.47
1 23 0 6.14 7.03 0.61
1 24 0 9.81 9.82 0.79
1 26 0 6.69 7.35 0.64
1 0 1 74.03 77.06 0.84
1 1 1 130.09 134.05 1.36
1 2 1 101.92 104.50 1.11
1 3 1 1085.30 1091.53 9.71
1 4 1 155.29 157.60 1.65
1 5 1 437.53 439.47 4.24
1 6 1 21.16 21.97 0.44
1 7 1 334.90 340.58 3.42
1 8 1 230.73 235.44 2.49
1 9 1 231.16 233.13 2.54
1 10 1 134.48 131.70 1.68
1 11 1 17.26 17.21 0.56
1 12 1 1.15 0.36 0.36
1 13 1 129.06 128.10 1.78
1 14 1 30.40 29.69 0.83
1 15 1 88.82 87.94 1.53
1 16 1 62.05 62.01 1.29
1 17 1 25.39 25.52 0.91
1 18 1 23.34 23.87 0.93
1 19 1 14.66 15.37 0.83
1 20 1 6.43 5.85 0.48
1 21 1 1.45 2.07 0.41
1 22 1 33.36 34.89 1.21
1 23 1 9.52 10.70 0.89
1 24 1 21.85 21.01 1.08
1 25 1 8.68 9.53 0.82
1 26 1 0.77 2.01 0.48
1 0 2 3271.75 3116.77 36.27
1 1 2 68.98 71.93 0.94
1 2 2 565.35 574.55 6.14
1 3 2 193.81 194.81 2.03
1 4 2 1063.30 1068.17 9.66
1 5 2 18.60 18.67 0.41
1 6 2 216.06 220.30 2.32
1 7 2 163.82 162.64 1.83
1 8 2 10.75 10.29 0.44
1 9 2 58.98 62.04 0.99
1 10 2 60.02 59.70 1.00
1 11 2 117.70 118.39 1.60
1 12 2 118.54 115.84 1.63
1 13 2 112.19 110.63 1.64
1 14 2 54.94 54.92 1.14
1 15 2 30.92 31.76 0.93
1 16 2 29.33 27.73 0.95
1 17 2 77.69 76.01 1.53
1 18 2 109.55 110.51 1.93
1 19 2 40.23 41.36 1.21
1 20 2 10.37 9.74 0.70
1 21 2 22.09 22.96 1.02
1 22 2 38.76 36.72 1.28
1 23 2 43.56 43.57 1.43
1 24 2 9.68 10.69 0.80
1 25 2 0.09 0.15 0.43
1 26 2 3.68 4.51 0.56
1 0 3 30.34 32.16 0.93
1 1 3 293.56 303.69 5.25
1 2 3 221.24 225.61 2.65
1 3 3 89.11 92.08 1.28
1 4 3 92.89 96.03 1.34
1 5 3 23.20 23.12 0.53
1 6 3 134.86 138.64 1.64
1 7 3 4.97 5.20 0.38
1 8 3 257.94 258.61 2.82
1 9 3 29.46 29.12 0.70
1 10 3 78.98 79.99 1.24
1 11 3 15.57 16.73 0.60
1 12 3 32.57 32.42 0.84
1 13 3 35.12 33.93 0.91
1 14 3 115.75 115.28 1.79
1 15 3 34.37 33.62 0.99
1 16 3 10.05 9.33 0.62
1 17 3 26.07 25.12 0.95
1 18 3 27.69 26.62 1.01
1 19 3 27.79 27.32 1.06
1 20 3 7.92 7.79 0.66
1 21 3 24.23 23.67 1.05
1 22 3 6.70 7.22 0.61
1 23 3 2.91 2.75 0.46
1 24 3 8.12 8.17 0.64
1 25 3 15.79 17.98 1.16
1 0 4 330.24 329.64 5.85
1 1 4 251.68 261.04 4.75
1 2 4 28.17 28.86 1.05
1 3 4 22.71 23.50 0.64
1 4 4 108.83 110.10 1.57
1 5 4 82.33 84.01 1.35
1 6 4 132.13 130.86 1.88
1 7 4 84.76 84.04 1.23
1 8 4 45.64 45.35 0.89
1 9 4 2.18 2.19 0.39
1 10 4 22.13 22.80 0.70
1 11 4 64.58 62.59 1.18
1 12 4 146.56 141.42 2.00
1 13 4 25.77 27.24 0.86
1 14 4 42.32 39.56 1.07
1 15 4 2.16 2.99 0.40
1 16 4 22.30 23.67 0.91
1 17 4 26.89 28.20 1.02
1 18 4 57.08 58.81 1.47
1 19 4 40.15 40.96 1.26
1 20 4 9.06 9.28 0.80
1 21 4 11.24 10.84 0.79
1 22 4 21.00 21.86 1.05
1 23 4 14.66 15.14 0.96
1 24 4 2.24 2.15 0.44
1 0 5 286.43 285.65 5.32
1 1 5 121.70 122.90 2.72
1 2 5 475.47 465.52 8.16
1 3 5 180.14 176.98 3.65
1 4 5 112.02 108.53 1.69
1 5 5 8.64 8.60 0.53
1 6 5 228.90 230.64 3.02
1 7 5 74.16 73.24 1.39
1 8 5 71.38 69.60 1.38
1 9 5 92.94 90.40 1.46
1 10 5 9.89 9.56 0.58
1 11 5 34.98 36.00 0.96
1 12 5 25.05 25.18 0.86
1 13 5 44.94 44.91 1.16
1 14 5 40.07 40.36 1.12
1 15 5 29.82 29.96 1.03
1 16 5 74.92 78.92 1.64
1 17 5 11.24 11.50 0.80
1 18 5 7.40 6.99 0.65
1 19 5 18.10 18.76 0.98
1 20 5 65.47 64.92 1.65
1 21 5 25.16 25.21 1.12
1 22 5 1.49 1.73 0.43
1 23 5 3.49 4.60 0.50
1 24 5 18.05 17.51 1.00
1 0 6 0.58 0.07 0.63
1 1 6 0.49 0.90 0.62
1 2 6 7.93 7.58 0.84
1 3 6 12.98 12.47 0.99
1 4 6 16.59 16.06 1.09
1 5 6 12.86 13.34 0.67
1 6 6 22.25 21.97 0.82
1 7 6 7.56 7.81 0.62
1 8 6 10.07 9.13 0.68
1 9 6 11.68 11.12 0.77
1 10 6 2.78 2.44 0.44
1 11 6 10.84 9.87 0.68
1 12 6 29.92 29.12 0.96
1 13 6 7.65 7.57 0.61
1 14 6 28.07 28.13 1.01
1 15 6 11.89 11.05 0.81
1 16 6 3.01 3.00 0.43
1 17 6 21.08 21.61 1.01
1 18 6 13.87 13.91 0.90
1 19 6 10.98 11.85 0.86
1 20 6 33.59 31.72 1.25
1 21 6 9.10 9.44 0.78
1 22 6 10.24 8.66 0.76
1 23 6 11.69 12.09 0.89
1 0 7 251.07 248.92 5.17
1 1 7 26.36 26.96 1.45
1 2 7 60.13 61.61 2.13
1 3 7 80.62 81.78 2.50
1 4 7 145.11 141.88 3.53
1 5 7 29.33 30.70 1.05
1 6 7 63.05 61.99 1.48
1 7 7 10.54 9.55 0.77
1 8 7 57.78 56.58 1.46
1 9 7 68.42 67.65 1.62
1 10 7 18.02 18.84 0.96
1 11 7 21.71 21.93 0.91
1 12 7 2.61 1.92 0.46
1 13 7 41.29 42.52 1.26
1 14 7 26.14 24.72 1.05
1 15 7 34.47 32.46 1.18
1 16 7 23.40 25.97 1.08
1 17 7 19.40 20.59 1.02
1 18 7 45.25 43.23 1.39
1 19 7 6.83 6.78 0.62
1 20 7 14.43 15.51 0.99
1 21 7 9.23 9.35 0.67
1 0 8 10.09 10.49 1.21
1 1 8 34.15 35.49 1.80
1 2 8 19.46 19.94 1.44
1 3 8 31.36 32.26 1.72
1 4 8 33.55 32.93 1.76
1 5 8 104.08 102.71 3.12
1 6 8 16.23 15.12 0.93
1 7 8 95.45 91.77 1.97
1 8 8 3.67 3.26 0.49
1 9 8 51.07 51.47 1.53
1 10 8 41.94 39.92 1.39
1 11 8 94.52 95.97 2.13
1 12 8 12.89 11.82 0.97
1 13 8 28.66 28.45 1.27
1 14 8 1.96 1.21 0.51
1 15 8 43.85 46.50 1.39
1 16 8 5.28 5.61 0.52
1 17 8 28.99 26.95 1.18
1 18 8 4.50 5.48 0.52
1 19 8 1.89 2.28 0.44
1 20 8 0.04 0.11 0.39
1 0 9 0.14 0.04 0.93
1 1 9 3.15 2.24 1.00
1 2 9 50.43 51.78 2.28
1 3 9 1.24 1.64 0.99
1 4 9 3.75 3.27 1.14
1 5 9 28.22 28.73 1.84
1 6 9 8.83 10.10 1.31
1 7 9 14.70 15.95 1.02
1 8 9 8.04 8.39 0.74
1 9 9 19.90 19.93 1.12
1 10 9 31.50 29.72 1.32
1 11 9 45.22 46.32 1.59
1 12 9 8.43 8.99 0.83
1 13 9 16.98 16.17 1.14
1 14 9 7.34 7.96 0.83
1 15 9 21.69 22.35 1.24
1 16 9 42.99 43.14 1.59
1 17 9 18.05 18.39 1.05
1 18 9 11.84 11.62 0.90
1 0 10 2.69 3.50 1.18
1 1 10 24.40 25.85 1.88
1 2 10 2.22 1.57 1.13
1 3 10 17.86 20.25 1.72
1 4 10 21.71 21.81 1.83
1 5 10 33.21 32.85 2.10
1 6 10 40.65 41.81 2.32
1 7 10 33.22 31.85 2.11
1 8 10 24.45 24.64 1.26
1 9 10 7.55 7.42 0.81
1 10 10 60.76 56.24 1.81
1 11 10 15.60 16.38 1.15
1 12 10 48.11 45.79 1.65
1 13 10 0.10 0.23 0.51
1 14 10 7.81 6.61 0.67
1 15 10 11.08 10.58 0.89
1 0 11 1.55 0.81 1.29
1 1 11 13.57 12.06 1.62
1 2 11 34.70 33.98 2.27
1 3 11 23.90 23.52 1.96
1 4 11 11.83 11.96 1.63
1 5 11 5.22 6.17 1.45
1 6 11 2.93 3.97 1.35
1 7 11 7.82 8.65 1.59
1 8 11 16.56 15.70 1.18
1 9 11 25.04 23.63 1.32
1 10 11 19.46 18.82 1.23
1 11 11 2.75 3.62 0.59
1 12 11 0.79 1.62 0.53
1 0 12 16.63 17.96 1.93
1 1 12 76.00 76.36 3.20
1 2 12 9.31 8.34 1.75
1 3 12 3.10 3.25 1.56
1 4 12 27.90 29.19 2.22
1 5 12 71.75 68.95 3.13
1 6 12 2.73 2.87 1.53
1 7 12 23.93 22.97 2.09
2 0 0 40.91 42.07 0.54
2 1 0 31.32 31.23 0.44
2 2 0 1717.17 1684.48 14.84
2 3 0 796.35 789.28 7.20
2 4 0 35.64 35.97 0.53
2 5 0 92.17 91.45 1.08
2 6 0 2113.06 2088.31 18.54
2 7 0 293.10 294.75 3.02
2 8 0 0.43 0.77 0.30
2 9 0 237.00 235.75 2.59
2 10 0 250.22 255.22 2.80
2 11 0 2.11 2.42 0.36
2 12 0 45.72 43.55 0.91
2 13 0 167.63 168.54 2.15
2 14 0 12.02 10.97 0.61
2 15 0 72.02 70.19 1.33
2 16 0 39.20 37.12 1.03
2 17 0 36.57 35.80 1.05
2 18 0 43.49 43.85 1.21
2 19 0 36.43 37.89 1.17
2 20 0 1.68 0.93 0.37
2 21 0 8.49 7.76 0.64
2 22 0 15.87 15.17 0.93
2 23 0 10.79 11.20 0.88
2 24 0 32.75 32.50 1.24
2 25 0 3.13 4.14 0.58
2 26 0 1.01 1.08 0.45
2 0 1 1.39 1.64 0.16
2 1 1 78.51 78.27 0.89
2 2 1 277.21 278.36 2.74
2 3 1 522.26 538.29 5.07
2 4 1 154.52 158.34 1.67
2 5 1 421.58 428.24 4.16
2 6 1 22.94 23.00 0.48
2 7 1 95.78 98.31 1.23
2 8 1 4.01 4.86 0.36
2 9 1 275.51 274.13 2.95
2 10 1 9.10 8.73 0.46
2 11 1 5.29 4.77 0.44
2 12 1 41.89 40.84 0.89
2 13 1 81.80 80.10 1.35
2 14 1 43.71 44.89 1.03
2 15 1 21.97 23.83 0.81
2 16 1 3.45 3.57 0.40
2 17 1 11.64 10.11 0.69
2 18 1 10.52 9.99 0.73
2 19 1 29.20 29.34 1.06
2 20 1 70.23 71.91 1.64
2 21 1 27.42 28.98 1.12
2 22 1 23.57 23.41 1.07
2 23 1 2.90 2.57 0.45
2 24 1 38.04 41.29 1.34
2 25 1 22.57 23.08 1.33
2 26 1 29.43 30.58 1.46
2 0 2 4.35 4.21 0.23
2 1 2 304.65 309.69 3.06
2 2 2 1084.28 1088.23 9.85
2 3 2 108.84 107.46 1.26
2 4 2 88.63 89.39 1.10
2 5 2 7.66 8.42 0.35
2 6 2 288.18 293.13 3.02
2 7 2 139.70 140.88 1.67
2 8 2 142.42 144.59 1.76
2 9 2 129.35 128.60 1.62
2 10 2 2.69 2.66 0.37
2 11 2 65.34 64.34 1.12
2 12 2 57.81 57.52 1.09
2 13 2 73.93 73.76 1.31
2 14 2 32.58 33.94 0.91
2 15 2 33.05 31.94 0.94
2 16 2 77.75 73.50 1.46
2 17 2 0.11 0.07 0.34
2 18 2 9.69 10.85 0.74
2 19 2 1.28 1.14 0.36
2 20 2 31.13 31.96 1.13
2 21 2 29.42 30.36 1.17
2 22 2 3.28 3.58 0.47
2 23 2 1.69 2.54 0.45
2 24 2 9.16 8.75 0.77
2 25 2 40.77 40.07 1.67
2 0 3 134.09 132.57 1.54
2 1 3 139.29 140.91 1.59
2 2 3 375.25 385.07 3.82
2 3 3 447.95 449.89 4.45
2 4 3 64.52 66.09 0.94
2 5 3 251.30 250.32 2.68
2 6 3 89.44 91.36 1.23
2 7 3 107.14 109.03 1.42
2 8 3 121.35 120.10 1.55
2 9 3 290.27 290.56 3.20
2 10 3 255.29 257.95 2.93
2 11 3 12.39 12.06 0.58
2 12 3 85.84 84.81 1.42
2 13 3 43.52 44.04 1.04
2 14 3 50.30 48.37 1.14
2 15 3 17.01 17.04 0.80
2 16 3 2.27 2.80 0.40
2 17 3 11.21 12.81 0.75
2 18 3 2.78 2.11 0.39
2 19 3 38.98 39.01 1.22
2 20 3 9.09 9.92 0.67
2 21 3 43.67 43.50 1.38
2 22 3 8.94 7.83 0.72
2 23 3 4.00 5.23 0.57
2 24 3 0.01 0.04 0.40
2 25 3 12.66 13.11 1.07
2 0 4 54.14 56.99 1.54
2 1 4 105.34 107.30 1.55
2 2 4 128.05 131.67 1.83
2 3 4 134.00 133.89 1.86
2 4 4 13.07 13.05 0.57
2 5 4 61.78 60.06 0.99
2 6 4 110.28 108.63 1.46
2 7 4 104.09 102.88 1.44
2 8 4 116.63 116.95 1.60
2 9 4 47.59 48.82 0.98
2 10 4 140.30 138.86 1.89
2 11 4 50.97 50.01 1.07
2 12 4 13.41 12.73 0.66
2 13 4 0.41 0.40 0.33
2 14 4 12.80 11.74 0.71
2 15 4 12.74 12.88 0.75
2 16 4 25.23 25.30 0.92
2 17 4 40.23 38.90 1.19
2 18 4 26.74 25.48 1.05
2 19 4 8.70 8.75 0.71
2 20 4 25.03 26.76 1.10
2 21 4 19.84 20.36 1.05
2 22 4 18.47 16.86 1.04
2 23 4 21.25 23.54 1.07
2 24 4 4.54 3.35 0.47
2 0 5 145.47 145.06 3.12
2 1 5 34.89 34.10 1.31
2 2 5 163.74 161.97 2.25
2 3 5 31.06 31.76 0.85
2 4 5 148.23 148.93 2.13
2 5 5 63.55 64.00 1.25
2 6 5 12.18 12.53 0.64
2 7 5 14.83 14.21 0.70
2 8 5 61.98 62.99 1.17
2 9 5 25.88 26.30 0.81
2 10 5 139.21 139.18 1.98
2 11 5 60.64 60.58 1.27
2 12 5 14.86 14.37 0.74
2 13 5 1.36 2.27 0.37
2 14 5 94.21 92.81 1.72
2 15 5 11.82 12.75 0.77
2 16 5 1.06 1.14 0.36
2 17 5 5.35 5.35 0.48
2 18 5 45.07 44.50 1.37
2 19 5 9.73 11.16 0.84
2 20 5 1.35 1.42 0.42
2 21 5 0.96 0.95 0.41
2 22 5 20.02 21.05 1.05
2 23 5 16.81 16.51 1.02
2 0 6 75.38 76.78 2.21
2 1 6 93.33 94.35 2.52
2 2 6 2.31 2.32 0.72
2 3 6 2.06 2.27 0.58
2 4 6 22.35 22.73 0.83
2 5 6 100.10 98.98 1.76
2 6 6 0.38 0.59 0.48
2 7 6 77.77 77.46 1.57
2 8 6 0.15 0.23 0.52
2 9 6 3.71 4.94 0.48
2 10 6 10.66 12.16 0.69
2 11 6 104.58 104.90 1.80
2 12 6 8.17 7.91 0.55
2 13 6 61.33 62.58 1.42
2 14 6 10.75 11.31 0.75
2 15 6 58.01 57.01 1.44
2 16 6 15.14 15.43 0.90
2 17 6 47.38 47.11 1.37
2 18 6 49.76 49.86 1.46
2 19 6 1.53 2.36 0.44
2 20 6 3.87 3.83 0.48
2 21 6 14.11 13.80 0.96
2 22 6 46.03 45.90 1.43
2 0 7 7.37 7.45 0.99
2 1 7 45.60 44.12 1.82
2 2 7 12.74 12.62 1.13
2 3 7 14.37 14.54 1.20
2 4 7 135.77 130.89 2.68
2 5 7 72.11 71.30 1.57
2 6 7 30.07 29.45 1.06
2 7 7 85.80 84.02 1.78
2 8 7 81.47 82.72 1.78
2 9 7 4.57 5.00 0.53
2 10 7 9.02 9.53 0.80
2 11 7 96.09 98.03 2.07
2 12 7 1.38 2.19 0.39
2 13 7 48.66 49.12 1.37
2 14 7 38.37 40.42 1.26
2 15 7 32.70 32.91 1.19
2 16 7 4.42 4.31 0.48
2 17 7 50.05 51.04 1.48
2 18 7 9.31 9.94 0.77
2 19 7 6.05 7.04 0.64
2 20 7 0.33 0.99 0.41
2 21 7 11.68 10.43 0.80
2 0 8 55.81 54.31 2.21
2 1 8 59.15 59.07 2.31
2 2 8 25.26 23.68 1.59
2 3 8 27.58 29.16 1.68
2 4 8 16.65 16.00 1.39
2 5 8 58.33 56.78 1.53
2 6 8 50.87 47.26 1.45
2 7 8 44.37 42.00 1.37
2 8 8 0.08 0.31 0.41
2 9 8 11.44 11.81 0.80
2 10 8 1.24 1.41 0.49
2 11 8 9.79 8.56 0.78
2 12 8 0.43 0.02 0.44
2 13 8 34.13 31.56 1.37
2 14 8 8.37 10.02 0.81
2 15 8 6.75 7.05 0.70
2 16 8 2.37 3.27 0.47
2 17 8 24.29 23.60 1.14
2 18 8 1.62 1.92 0.44
2 19 8 5.70 6.75 0.55
2 0 9 73.38 76.03 2.78
2 1 9 15.91 17.56 1.51
2 2 9 110.90 109.85 3.45
2 3 9 4.96 5.38 1.11
2 4 9 48.64 48.99 2.31
2 5 9 10.87 11.51 1.39
2 6 9 51.07 50.07 1.57
2 7 9 10.48 10.61 0.93
2 8 9 1.98 3.37 0.54
2 9 9 38.82 38.53 1.44
2 10 9 12.48 14.18 1.03
2 11 9 14.99 15.70 1.08
2 12 9 17.06 17.44 1.13
2 13 9 33.84 35.29 1.46
2 14 9 69.81 72.61 1.99
2 15 9 0.36 1.10 0.52
2 16 9 16.06 15.60 1.01
2 17 9 3.85 4.35 0.53
2 0 10 50.48 49.91 2.46
2 1 10 68.73 67.48 2.84
2 2 10 2.09 2.87 1.18
2 3 10 6.73 6.60 1.34
2 4 10 4.58 4.70 1.26
2 5 10 47.06 46.87 2.42
2 6 10 16.62 17.05 1.67
2 7 10 27.03 26.34 1.33
2 8 10 31.28 30.53 1.40
2 9 10 11.83 12.28 0.92
2 10 10 33.07 33.64 1.46
2 11 10 42.72 44.52 1.59
2 12 10 48.16 48.53 1.69
2 13 10 6.87 7.13 0.68
2 14 10 17.17 17.17 1.16
2 15 10 2.83 2.97 0.57
2 0 11 12.17 12.65 1.68
2 1 11 10.87 9.96 1.60
2 2 11 3.93 3.33 1.37
2 3 11 5.92 7.29 1.46
2 4 11 2.97 2.29 1.42
2 5 11 1.33 0.70 1.31
2 6 11 13.92 13.70 1.68
2 7 11 1.01 0.52 1.31
2 8 11 6.10 5.68 0.66
2 9 11 0.22 0.31 0.51
2 10 11 5.68 6.33 0.79
2 11 11 3.52 4.61 0.62
2 0 12 47.15 46.87 2.66
2 1 12 22.15 20.66 2.10
2 2 12 6.91 6.24 1.63
2 3 12 39.74 42.79 2.54
2 4 12 10.89 11.23 1.78
2 5 12 2.02 2.27 1.53
2 6 12 30.72 29.47 2.22
3 1 0 29.94 31.12 0.51
3 3 0 68.17 69.42 0.89
3 4 0 405.89 414.90 4.05
3 5 0 208.65 209.27 2.22
3 6 0 37.96 39.56 0.70
3 7 0 244.92 243.87 2.62
3 8 0 78.90 81.02 1.16
3 9 0 111.12 108.11 1.44
3 10 0 30.19 30.14 0.73
3 11 0 255.73 252.21 2.87
3 12 0 9.73 8.22 0.53
3 13 0 2.97 2.75 0.45
3 14 0 2.79 3.77 0.49
3 15 0 23.37 24.11 0.85
3 16 0 44.79 43.06 1.14
3 17 0 41.72 42.44 1.17
3 18 0 1.64 2.14 0.37
3 19 0 2.66 2.95 0.41
3 20 0 26.20 28.02 1.08
3 21 0 30.20 30.47 1.15
3 22 0 3.88 4.10 0.48
3 23 0 0.04 0.06 0.40
3 24 0 9.21 8.08 0.66
3 25 0 28.32 29.67 1.43
3 0 1 174.02 176.24 1.87
3 1 1 358.12 370.20 3.66
3 2 1 57.45 59.16 0.79
3 3 1 429.58 435.72 4.26
3 4 1 82.34 82.15 1.05
3 5 1 24.38 24.38 0.53
3 6 1 66.54 69.18 0.99
3 7 1 160.48 159.73 1.86
3 8 1 42.90 42.85 0.80
3 9 1 394.98 383.35 4.03
3 10 1 37.26 37.03 0.82
3 11 1 55.38 53.76 1.04
3 12 1 56.51 54.59 1.09
3 13 1 90.35 89.84 1.52
3 14 1 27.52 27.15 0.86
3 15 1 1.56 1.99 0.37
3 16 1 38.20 39.50 1.10
3 17 1 31.21 30.29 1.01
3 18 1 52.76 51.25 1.33
3 19 1 18.93 19.79 0.93
3 20 1 3.90 3.71 0.46
3 21 1 63.92 67.89 1.64
3 22 1 65.29 62.18 1.64
3 23 1 15.27 15.52 0.96
3 24 1 27.63 29.92 1.21
3 25 1 6.45 7.82 0.77
3 0 2 0.14 0.10 0.23
3 1 2 183.35 180.31 1.97
3 2 2 267.83 272.70 2.80
3 3 2 267.34 267.68 2.78
3 4 2 55.40 55.25 0.86
3 5 2 316.81 315.92 3.27
3 6 2 636.01 640.12 6.27
3 7 2 6.17 7.33 0.42
3 8 2 90.13 89.28 1.27
3 9 2 62.90 62.43 1.06
3 10 2 256.97 254.72 2.89
3 11 2 36.88 34.72 0.85
3 12 2 108.62 106.78 1.62
3 13 2 26.47 26.30 0.81
3 14 2 6.82 6.66 0.59
3 15 2 12.83 12.94 0.72
3 16 2 35.72 36.83 1.06
3 17 2 28.56 28.62 1.00
3 18 2 8.88 9.07 0.72
3 19 2 6.48 5.55 0.55
3 20 2 11.71 11.60 0.84
3 21 2 0.74 0.59 0.39
3 22 2 2.82 2.82 0.46
3 23 2 10.18 9.84 0.87
3 24 2 26.66 27.65 1.18
3 25 2 4.46 4.55 0.56
3 0 3 177.40 183.99 2.05
3 1 3 251.96 252.25 2.68
3 2 3 16.51 17.45 0.51
3 3 3 168.31 167.74 1.93
3 4 3 12.28 12.65 0.48
3 5 3 208.77 214.71 2.38
3 6 3 3.33 3.40 0.38
3 7 3 256.99 255.15 2.84
3 8 3 42.61 43.21 0.88
3 9 3 25.42 26.24 0.73
3 10 3 11.86 11.60 0.57
3 11 3 77.30 76.14 1.32
3 12 3 41.46 40.29 0.97
3 13 3 11.12 12.46 0.67
3 14 3 9.46 9.10 0.59
3 15 3 12.54 12.07 0.73
3 16 3 1.71 2.05 0.39
3 17 3 8.78 8.20 0.64
3 18 3 0.35 0.20 0.34
3 19 3 9.78 10.32 0.82
3 20 3 6.98 6.13 0.52
3 21 3 1.90 1.62 0.41
3 22 3 6.54 6.42 0.55
3 23 3 40.27 39.93 1.38
3 24 3 7.06 8.53 0.73
3 0 4 10.99 11.62 0.47
3 1 4 114.63 113.69 1.48
3 2 4 30.05 31.06 0.70
3 3 4 81.28 80.35 1.18
3 4 4 24.51 25.08 0.65
3 5 4 275.71 271.39 3.00
3 6 4 82.58 80.23 1.25
3 7 4 58.35 59.72 1.07
3 8 4 53.80 54.06 1.05
3 9 4 66.73 67.59 1.22
3 10 4 21.74 21.06 0.73
3 11 4 30.67 29.11 0.88
3 12 4 29.49 30.07 0.91
3 13 4 104.78 105.00 1.75
3 14 4 9.98 10.08 0.68
3 15 4 38.03 37.70 1.12
3 16 4 16.34 17.33 0.85
3 17 4 32.31 32.28 1.12
3 18 4 24.16 25.56 1.06
3 19 4 17.60 16.93 0.94
3 20 4 20.74 20.91 1.01
3 21 4 24.08 25.82 1.12
3 22 4 7.01 6.99 0.62
3 23 4 9.98 10.08 0.86
3 24 4 1.00 1.10 0.41
3 0 5 52.03 50.10 0.97
3 1 5 44.80 44.86 0.92
3 2 5 37.07 35.58 0.84
3 3 5 71.53 73.47 1.22
3 4 5 71.03 71.86 1.22
3 5 5 72.87 72.62 1.24
3 6 5 42.81 44.13 0.96
3 7 5 124.16 122.95 1.77
3 8 5 192.93 187.74 2.40
3 9 5 1.67 1.82 0.47
3 10 5 136.18 133.95 1.99
3 11 5 5.70 7.32 0.53
3 12 5 126.18 123.87 1.97
3 13 5 9.92 10.31 0.72
3 14 5 68.63 64.13 1.46
3 15 5 44.07 44.37 1.26
3 16 5 9.75 10.04 0.78
3 17 5 2.83 3.14 0.44
3 18 5 5.57 6.43 0.53
3 19 5 12.42 10.63 0.78
3 20 5 1.87 2.84 0.46
3 21 5 3.30 3.59 0.48
3 22 5 15.53 15.18 1.00
3 23 5 2.96 3.79 0.48
3 1 6 3.68 3.79 0.51
3 2 6 42.01 41.83 1.10
3 3 6 4.75 4.84 0.56
3 4 6 10.31 9.59 0.68
3 5 6 21.39 21.09 0.86
3 6 6 19.71 18.69 0.86
3 7 6 40.31 39.46 1.15
3 8 6 19.68 18.83 0.80
3 9 6 31.80 32.51 0.97
3 10 6 23.92 24.06 0.89
3 11 6 69.28 68.08 1.45
3 12 6 2.83 3.62 0.43
3 13 6 58.02 56.69 1.41
3 14 6 24.48 25.82 1.02
3 15 6 6.99 7.21 0.58
3 16 6 41.58 41.82 1.31
3 17 6 24.19 24.05 1.07
3 18 6 10.50 10.21 0.77
3 19 6 21.34 21.88 1.08
3 20 6 61.66 63.65 1.66
3 21 6 5.17 5.79 0.53
3 22 6 5.85 5.17 0.51
3 0 7 5.94 5.94 1.01
3 1 7 0.48 0.85 0.84
3 2 7 154.42 151.86 3.74
3 3 7 30.94 29.09 1.08
3 4 7 10.65 9.67 0.79
3 5 7 33.21 32.18 1.13
3 6 7 12.65 12.05 0.85
3 7 7 35.80 36.12 1.21
3 8 7 13.01 11.18 0.86
3 9 7 106.90 109.27 2.14
3 10 7 50.48 50.80 1.32
3 11 7 6.20 6.18 0.48
3 12 7 2.55 2.40 0.40
3 13 7 37.93 38.23 1.23
3 14 7 49.33 49.22 1.39
3 15 7 37.38 37.32 1.27
3 16 7 2.91 2.79 0.45
3 17 7 3.12 2.85 0.46
3 18 7 7.68 7.86 0.64
3 19 7 21.54 20.91 1.09
3 20 7 10.20 9.20 0.75
3 21 7 5.12 5.21 0.51
3 0 8 1.89 2.14 1.01
3 1 8 115.04 114.18 3.33
3 2 8 58.15 59.69 2.36
3 3 8 45.57 46.00 2.10
3 4 8 40.10 39.12 1.31
3 5 8 39.70 38.69 1.31
3 6 8 26.67 26.30 1.13
3 7 8 29.90 30.36 1.21
3 8 8 34.60 33.51 1.29
3 9 8 22.71 22.25 1.12
3 10 8 5.41 4.42 0.57
3 11 8 100.25 100.31 2.23
3 12 8 16.90 17.33 1.07
3 13 8 7.35 6.33 0.59
3 14 8 4.44 4.60 0.50
3 15 8 17.94 18.08 0.99
3 16 8 17.53 15.41 0.99
3 17 8 10.53 11.26 0.90
3 18 8 9.04 8.35 0.65
3 19 8 21.74 23.17 1.11
3 0 9 70.91 69.25 2.72
3 1 9 11.71 11.99 1.41
3 2 9 20.13 19.45 1.62
3 3 9 13.40 14.00 1.50
3 4 9 100.97 102.31 3.38
3 5 9 0.06 0.14 0.47
3 6 9 8.21 8.12 0.66
3 7 9 8.37 9.05 0.75
3 8 9 45.14 43.40 1.54
3 9 9 6.46 6.32 0.64
3 10 9 28.15 28.05 1.30
3 11 9 3.96 4.27 0.59
3 12 9 4.20 4.96 0.62
3 13 9 1.64 1.55 0.53
3 14 9 28.79 31.27 1.37
3 15 9 6.72 6.44 0.61
3 16 9 9.90 9.05 0.66
3 17 9 21.88 21.87 1.08
3 0 10 1.01 0.86 1.17
3 1 10 54.73 57.59 2.62
3 2 10 27.51 27.86 2.00
3 3 10 80.06 82.76 3.19
3 4 10 12.69 11.99 1.59
3 5 10 6.66 7.17 1.42
3 6 10 22.90 23.42 1.25
3 7 10 10.27 11.74 0.89
3 8 10 7.76 7.28 0.68
3 9 10 34.22 33.50 1.46
3 10 10 7.72 7.62 0.84
3 11 10 4.97 4.59 0.61
3 12 10 0.78 1.13 0.51
3 13 10 20.47 19.13 1.22
3 14 10 17.43 17.03 1.13
3 0 11 1.68 1.24 1.34
3 1 11 10.69 11.01 1.68
3 2 11 14.57 15.20 1.73
3 3 11 34.02 34.97 2.29
3 4 11 16.47 17.00 1.88
3 5 11 15.45 15.71 1.76
3 6 11 12.21 12.18 1.71
3 7 11 22.09 22.64 1.29
3 8 11 5.96 6.55 0.80
3 9 11 11.09 10.80 0.84
3 10 11 8.65 9.02 0.87
3 11 11 10.65 9.43 2.96
3 0 12 6.98 5.54 1.67
3 1 12 6.57 7.34 1.68
3 2 12 3.25 3.28 1.54
3 3 12 1.64 0.78 1.54
3 4 12 0.79 1.01 1.46
4 0 0 389.07 393.95 3.91
4 1 0 388.92 388.06 3.89
4 2 0 41.39 40.44 0.70
4 3 0 2.20 1.76 0.31
4 4 0 36.59 37.14 0.70
4 5 0 16.39 15.48 0.51
4 6 0 131.85 132.20 1.64
4 7 0 89.53 88.45 1.27
4 8 0 138.36 132.98 1.71
4 9 0 132.73 130.75 1.73
4 10 0 69.83 69.39 1.20
4 11 0 12.95 12.71 0.62
4 12 0 246.12 241.38 2.98
4 13 0 67.40 69.49 1.32
4 14 0 3.40 2.83 0.37
4 15 0 12.41 12.69 0.72
4 16 0 90.28 90.90 1.70
4 17 0 0.98 1.19 0.35
4 18 0 2.03 2.05 0.39
4 19 0 8.88 7.28 0.66
4 20 0 0.46 0.28 0.37
4 21 0 7.22 8.02 0.63
4 22 0 0.01 0.04 0.41
4 23 0 4.19 4.81 0.51
4 24 0 21.64 21.93 1.09
4 0 1 1.55 1.47 0.29
4 1 1 146.11 149.19 1.71
4 2 1 34.05 34.76 0.66
4 3 1 151.30 151.26 1.75
4 4 1 13.69 12.18 0.46
4 5 1 61.38 60.26 0.95
4 6 1 43.28 43.66 0.83
4 7 1 251.48 246.42 2.74
4 8 1 43.61 43.14 0.87
4 9 1 4.01 4.27 0.41
4 10 1 34.75 34.37 0.83
4 11 1 271.90 267.45 3.11
4 12 1 67.91 68.03 1.28
4 13 1 45.26 43.13 1.06
4 14 1 45.92 46.35 1.13
4 15 1 46.02 45.19 1.17
4 16 1 53.82 52.67 1.29
4 17 1 17.67 17.11 0.87
4 18 1 31.73 31.13 1.08
4 19 1 40.63 42.79 1.28
4 20 1 31.88 32.81 1.18
4 21 1 7.97 7.76 0.70
4 22 1 17.56 14.34 0.97
4 23 1 2.40 2.20 0.46
4 24 1 19.59 19.69 1.05
4 25 1 4.91 5.25 0.58
4 0 2 10.97 10.78 0.45
4 1 2 265.25 265.31 2.84
4 2 2 10.76 9.72 0.45
4 3 2 75.12 75.43 1.09
4 4 2 196.09 200.75 2.25
4 5 2 139.79 136.32 1.71
4 6 2 31.67 32.47 0.73
4 7 2 184.53 177.76 2.15
4 8 2 162.47 162.08 2.02
4 9 2 5.12 5.66 0.45
4 10 2 40.41 41.38 0.93
4 11 2 18.76 18.77 0.69
4 12 2 46.85 46.50 1.06
4 13 2 0.03 0.13 0.31
4 14 2 13.91 14.48 0.74
4 15 2 15.35 15.11 0.78
4 16 2 18.15 16.61 0.84
4 17 2 20.52 19.44 0.91
4 18 2 6.10 6.14 0.55
4 19 2 10.72 11.24 0.83
4 20 2 7.63 8.47 0.62
4 21 2 8.04 9.55 0.83
4 22 2 8.61 9.75 0.67
4 23 2 18.27 17.80 1.04
4 24 2 1.76 1.62 0.42
4 0 3 4.76 4.70 0.39
4 1 3 227.57 225.46 2.49
4 2 3 40.65 38.58 0.78
4 3 3 470.89 465.66 4.70
4 4 3 97.60 95.46 1.34
4 5 3 111.96 108.86 1.49
4 6 3 5.12 5.45 0.43
4 7 3 60.58 60.70 1.08
4 8 3 89.50 87.46 1.39
4 9 3 31.52 32.10 0.84
4 10 3 17.59 16.99 0.68
4 11 3 30.54 29.81 0.87
4 12 3 42.19 42.22 1.06
4 13 3 12.61 12.36 0.70
4 14 3 23.92 22.60 0.89
4 15 3 74.71 73.95 1.53
4 16 3 27.38 27.45 1.02
4 17 3 1.55 0.96 0.36
4 18 3 20.74 21.70 1.00
4 19 3 32.81 35.18 1.21
4 20 3 13.04 13.25 0.88
4 21 3 33.93 33.90 1.26
4 22 3 27.15 25.54 1.17
4 23 3 1.05 1.00 0.41
4 24 3 15.18 14.00 0.97
4 0 4 76.22 77.60 1.19
4 1 4 125.83 124.51 1.64
4 2 4 34.98 34.25 0.79
4 3 4 98.34 97.11 1.41
4 4 4 34.30 35.25 0.81
4 5 4 87.12 87.66 1.36
4 6 4 56.05 56.30 1.08
4 7 4 44.15 43.14 0.96
4 8 4 8.30 8.96 0.54
4 9 4 2.26 1.45 0.46
4 10 4 34.79 36.24 0.96
4 11 4 23.17 24.66 0.85
4 12 4 69.73 69.27 1.40
4 13 4 26.01 26.20 0.93
4 14 4 8.53 9.23 0.64
4 15 4 43.14 40.20 1.20
4 16 4 54.79 54.15 1.40
4 17 4 61.64 59.81 1.53
4 18 4 1.88 1.59 0.41
4 19 4 9.13 8.54 0.64
4 20 4 22.90 22.62 1.10
4 21 4 19.08 20.20 1.05
4 22 4 1.93 2.10 0.47
4 23 4 63.91 64.23 1.66
4 0 5 28.76 28.04 0.78
4 1 5 22.39 23.12 0.72
4 2 5 6.10 6.22 0.49
4 3 5 168.06 164.54 2.12
4 4 5 28.72 28.71 0.80
4 5 5 84.90 85.02 1.42
4 6 5 13.40 13.84 0.63
4 7 5 35.13 35.36 0.95
4 8 5 47.16 48.42 1.10
4 9 5 47.04 45.11 1.12
4 10 5 24.60 27.27 0.89
4 11 5 8.99 9.93 0.67
4 12 5 19.71 19.40 0.88
4 13 5 6.29 6.76 0.59
4 14 5 8.87 8.54 0.64
4 15 5 2.17 1.97 0.40
4 16 5 20.74 21.29 0.99
4 17 5 9.58 10.40 0.80
4 18 5 1.82 2.32 0.44
4 19 5 5.60 5.47 0.52
4 20 5 28.93 29.17 1.20
4 21 5 1.54 2.24 0.44
4 22 5 1.05 1.09 0.41
4 0 6 0.47 0.29 0.44
4 1 6 89.92 88.84 1.51
4 2 6 14.21 15.39 0.69
4 3 6 27.12 25.85 0.85
4 4 6 12.44 11.92 0.67
4 5 6 140.67 138.63 2.03
4 6 6 41.90 41.47 1.08
4 7 6 42.95 40.59 1.09
4 8 6 57.01 54.45 1.28
4 9 6 141.04 136.33 2.13
4 10 6 28.21 26.54 0.98
4 11 6 35.35 36.70 1.10
4 12 6 62.06 63.47 1.48
4 13 6 49.69 49.54 1.33
4 14 6 12.78 12.55 0.83
4 15 6 54.42 54.89 1.47
4 16 6 17.08 18.36 0.97
4 17 6 41.49 42.54 1.36
4 18 6 26.00 26.72 1.14
4 19 6 36.84 37.23 1.31
4 20 6 1.09 1.87 0.44
4 21 6 23.44 22.59 1.11
4 0 7 140.49 138.92 2.11
4 1 7 10.66 9.48 0.72
4 2 7 13.47 12.90 0.84
4 3 7 11.73 12.17 0.82
4 4 7 65.73 65.53 1.59
4 5 7 15.71 16.48 0.91
4 6 7 20.08 20.24 0.86
4 7 7 27.39 26.28 0.97
4 8 7 53.77 51.89 1.32
4 9 7 6.45 6.27 0.59
4 10 7 42.96 44.13 1.24
4 11 7 51.83 52.37 1.39
4 12 7 37.32 40.22 1.24
4 13 7 10.68 10.57 0.74
4 14 7 31.14 30.76 1.18
4 15 7 1.44 2.14 0.43
4 16 7 2.93 3.39 0.47
4 17 7 10.02 9.45 0.78
4 18 7 6.25 5.73 0.53
4 19 7 14.36 12.99 0.91
4 20 7 1.37 1.96 0.44
4 0 8 42.15 44.53 2.10
4 1 8 19.54 19.74 1.24
4 2 8 13.88 13.80 0.91
4 3 8 12.21 11.87 0.90
4 4 8 28.26 29.34 1.19
4 5 8 4.33 4.43 0.54
4 6 8 9.93 9.09 0.77
4 7 8 34.32 32.76 1.31
4 8 8 3.94 3.76 0.55
4 9 8 92.72 89.61 2.13
4 10 8 19.66 19.27 0.99
4 11 8 9.89 8.89 0.74
4 12 8 0.34 0.85 0.40
4 13 8 53.96 52.83 1.51
4 14 8 34.60 34.30 1.27
4 15 8 1.89 2.25 0.45
4 16 8 11.11 9.86 0.79
4 17 8 0.02 0.06 0.39
4 18 8 16.22 16.35 0.99
4 0 9 19.03 19.35 1.66
4 1 9 12.66 13.79 1.50
4 2 9 12.64 13.38 1.46
4 3 9 23.62 24.32 1.21
4 4 9 56.75 59.65 1.72
4 5 9 14.08 13.97 1.01
4 6 9 38.57 36.40 1.46
4 7 9 4.98 5.63 0.63
4 8 9 83.49 85.72 2.13
4 9 9 15.81 17.13 1.11
4 10 9 18.16 20.03 1.16
4 11 9 0.14 0.35 0.52
4 12 9 24.01 23.96 1.30
4 13 9 8.98 9.35 0.77
4 14 9 10.09 11.84 0.90
4 15 9 27.59 26.69 1.16
4 16 9 1.40 2.47 0.45
4 1 10 81.25 83.51 3.24
4 2 10 14.33 14.28 1.65
4 3 10 4.01 3.12 1.29
4 4 10 30.77 30.43 1.37
4 5 10 60.69 58.10 1.83
4 6 10 28.78 28.30 1.37
4 7 10 16.69 15.68 1.12
4 8 10 14.35 15.59 1.12
4 9 10 1.43 0.78 0.52
4 10 10 14.69 15.17 1.12
4 11 10 6.62 7.11 0.68
4 12 10 1.43 1.62 0.54
4 13 10 9.80 8.73 0.72
4 0 11 28.96 28.04 2.15
4 1 11 1.79 1.63 1.34
4 2 11 3.15 3.19 1.35
4 3 11 9.81 9.07 1.57
4 4 11 34.65 33.21 2.27
4 5 11 13.00 13.21 1.35
4 6 11 0.37 0.50 0.52
4 7 11 5.64 6.79 0.68
4 8 11 22.23 20.71 1.28
4 9 11 8.76 9.90 0.86
5 1 0 40.88 40.38 0.78
5 2 0 43.47 43.88 0.84
5 3 0 238.03 232.31 2.59
5 4 0 64.41 61.35 1.03
5 5 0 73.18 73.48 1.15
5 6 0 0.03 0.10 0.32
5 7 0 12.27 11.86 0.55
5 8 0 16.33 16.44 0.62
5 9 0 26.35 25.72 0.75
5 10 0 38.18 38.78 0.94
5 11 0 36.02 37.11 0.96
5 12 0 1.49 1.62 0.48
5 13 0 12.50 12.30 0.70
5 14 0 52.44 52.93 1.26
5 15 0 16.15 15.49 0.83
5 16 0 4.68 4.61 0.44
5 17 0 11.54 10.57 0.70
5 18 0 6.30 6.32 0.64
5 19 0 0.00 0.14 0.37
5 20 0 0.12 0.44 0.38
5 21 0 1.09 0.93 0.40
5 22 0 8.63 7.98 0.64
5 24 0 3.27 2.07 0.44
5 0 1 5.69 6.00 0.41
5 1 1 135.56 134.45 1.67
5 2 1 93.33 91.46 1.29
5 3 1 391.84 383.77 3.93
5 4 1 5.10 5.33 0.41
5 5 1 37.62 35.89 0.78
5 6 1 74.32 71.53 1.17
5 7 1 157.75 155.26 1.97
5 8 1 2.51 3.22 0.42
5 9 1 59.25 58.73 1.13
5 10 1 12.48 12.80 0.62
5 11 1 66.95 68.85 1.29
5 12 1 22.19 21.89 0.82
5 13 1 21.62 19.12 0.84
5 14 1 16.13 16.29 0.79
5 15 1 218.88 219.32 2.94
5 16 1 60.15 61.79 1.45
5 17 1 4.27 4.29 0.45
5 18 1 8.28 7.76 0.69
5 19 1 53.18 53.99 1.50
5 20 1 51.41 52.06 1.46
5 21 1 3.86 3.54 0.48
5 22 1 0.73 0.91 0.41
5 23 1 1.66 1.89 0.44
5 24 1 13.53 14.75 0.95
5 0 2 333.36 332.92 3.53
5 1 2 174.50 170.47 2.06
5 2 2 0.48 0.57 0.34
5 3 2 256.84 253.95 2.86
5 4 2 87.97 86.34 1.31
5 5 2 43.34 42.88 0.89
5 6 2 7.21 6.64 0.46
5 7 2 14.33 13.02 0.58
5 8 2 29.72 29.35 0.80
5 9 2 38.50 37.70 0.93
5 10 2 0.60 1.41 0.44
5 11 2 16.59 16.38 0.73
5 12 2 127.73 125.25 1.94
5 13 2 0.43 0.48 0.34
5 14 2 7.14 7.60 0.67
5 15 2 3.41 3.10 0.40
5 16 2 60.03 61.02 1.46
5 17 2 14.88 14.82 0.86
5 18 2 11.00 11.64 0.82
5 19 2 30.65 30.57 1.15
5 20 2 2.09 2.18 0.44
5 21 2 41.47 39.36 1.34
5 22 2 0.99 1.78 0.44
5 23 2 6.01 5.40 0.58
5 24 2 6.50 7.41 0.91
5 0 3 31.99 31.33 0.77
5 1 3 201.96 200.07 2.38
5 2 3 24.28 24.65 0.69
5 3 3 9.83 9.63 0.52
5 4 3 1.42 1.37 0.39
5 5 3 68.91 69.14 1.19
5 6 3 34.23 35.04 0.86
5 7 3 65.56 64.55 1.20
5 8 3 18.13 18.73 0.69
5 9 3 8.98 9.14 0.59
5 10 3 45.43 43.57 1.07
5 11 3 27.62 26.10 0.89
5 12 3 28.60 27.66 0.94
5 13 3 19.08 19.28 0.85
5 14 3 47.43 47.41 1.23
5 15 3 3.32 3.75 0.42
5 16 3 51.40 51.25 1.39
5 17 3 23.46 23.92 1.02
5 18 3 24.11 24.13 1.07
5 19 3 3.80 4.46 0.50
5 20 3 55.47 56.98 1.57
5 21 3 8.03 8.32 0.66
5 22 3 4.40 4.84 0.51
5 23 3 9.15 8.73 0.64
5 0 4 0.08 0.29 0.37
5 1 4 72.76 70.41 1.22
5 2 4 43.16 43.97 0.95
5 3 4 30.58 28.52 0.81
5 4 4 16.60 17.40 0.67
5 5 4 7.28 6.29 0.51
5 6 4 28.37 28.60 0.84
5 7 4 30.27 30.32 0.88
5 8 4 90.46 90.10 1.54
5 9 4 1.90 2.69 0.38
5 10 4 116.92 112.78 1.84
5 11 4 35.17 34.87 1.04
5 12 4 84.67 86.32 1.64
5 13 4 3.57 4.43 0.42
5 14 4 82.76 86.73 1.73
5 15 4 19.80 20.84 0.97
5 16 4 20.66 22.36 1.00
5 17 4 9.15 8.31 0.69
5 18 4 24.30 25.71 1.10
5 19 4 74.61 76.28 1.81
5 20 4 0.44 0.06 0.39
5 21 4 43.30 44.49 1.42
5 22 4 13.38 11.82 0.95
5 0 5 7.89 7.11 0.56
5 1 5 192.26 187.46 2.40
5 2 5 32.65 32.05 0.89
5 3 5 15.74 16.21 0.68
5 4 5 73.92 73.45 1.37
5 5 5 60.86 59.95 1.26
5 6 5 18.98 18.75 0.79
5 7 5 35.15 34.74 0.98
5 8 5 52.85 50.58 1.21
5 9 5 11.90 11.00 0.70
5 10 5 19.76 19.07 0.84
5 11 5 20.12 20.54 0.90
5 12 5 0.42 0.97 0.35
5 13 5 18.16 17.89 0.91
5 14 5 41.47 42.57 1.25
5 15 5 1.39 1.33 0.40
5 16 5 18.18 18.85 0.95
5 17 5 3.02 3.71 0.47
5 18 5 29.05 29.74 1.18
5 19 5 2.80 3.17 0.48
5 20 5 12.68 12.01 0.94
5 21 5 9.95 8.88 0.67
5 0 6 48.81 47.69 1.16
5 1 6 47.27 45.76 1.12
5 2 6 12.32 11.16 0.70
5 3 6 55.83 54.32 1.24
5 4 6 52.99 50.10 1.21
5 5 6 82.53 80.81 1.56
5 6 6 12.88 13.52 0.74
5 7 6 106.55 105.43 1.84
5 8 6 22.67 22.12 0.91
5 9 6 21.31 21.21 0.89
5 10 6 68.07 69.46 1.53
5 11 6 78.83 80.63 1.68
5 12 6 0.45 0.52 0.36
5 13 6 66.96 67.73 1.61
5 14 6 55.00 54.29 1.47
5 15 6 13.56 15.39 0.91
5 16 6 4.97 5.37 0.52
5 17 6 53.64 53.16 1.54
5 18 6 7.87 7.30 0.64
5 19 6 5.17 5.26 0.52
5 20 6 0.01 0.01 0.39
5 0 7 1.14 1.50 0.37
5 1 7 29.92 30.11 1.00
5 2 7 16.99 16.84 0.85
5 3 7 4.14 4.05 0.44
5 4 7 111.58 108.31 1.90
5 5 7 10.14 10.42 0.68
5 6 7 19.70 21.16 0.91
5 7 7 9.20 9.78 0.75
5 8 7 101.77 100.87 1.91
5 9 7 10.33 11.49 0.77
5 10 7 2.12 2.03 0.41
5 11 7 4.47 4.30 0.47
5 12 7 14.09 13.35 0.80
5 13 7 13.70 16.33 0.93
5 14 7 5.50 6.45 0.54
5 15 7 17.98 18.43 1.01
5 16 7 8.55 7.91 0.74
5 17 7 4.14 4.94 0.52
5 18 7 2.50 2.96 0.47
5 0 8 37.61 36.88 1.18
5 1 8 48.07 48.09 1.32
5 2 8 3.13 3.27 0.43
5 3 8 0.48 0.69 0.36
5 4 8 20.44 19.64 0.97
5 5 8 143.10 141.19 2.35
5 6 8 0.54 1.19 0.80
5 7 8 5.11 5.30 0.50
5 8 8 2.60 2.97 0.45
5 9 8 24.57 24.32 1.06
5 10 8 2.07 2.08 0.43
5 11 8 11.14 12.80 0.89
5 12 8 8.66 8.14 0.64
5 13 8 32.39 32.69 1.27
5 14 8 8.58 8.21 0.66
5 15 8 8.34 8.88 0.66
5 16 8 10.86 12.03 0.90
5 17 8 58.78 59.32 1.60
5 0 9 0.10 0.69 0.80
5 1 9 31.05 30.27 1.15
5 2 9 35.57 35.73 1.43
5 3 9 6.75 5.53 0.62
5 4 9 5.15 6.26 0.64
5 5 9 15.43 14.28 1.07
5 6 9 27.63 27.45 1.29
5 7 9 9.39 9.60 0.84
5 8 9 0.66 1.11 0.51
5 9 9 0.68 1.33 0.41
5 10 9 21.05 21.48 1.08
5 11 9 15.25 15.63 0.99
5 12 9 0.90 1.72 0.43
5 13 9 8.53 8.84 0.66
5 14 9 6.66 6.84 0.55
5 15 9 2.01 2.64 0.46
5 0 10 75.94 75.52 3.14
5 1 10 5.28 5.24 0.90
5 2 10 2.52 2.86 0.57
5 3 10 50.53 51.47 1.73
5 4 10 24.81 24.75 1.29
5 5 10 31.70 30.21 1.46
5 6 10 5.82 6.65 0.68
5 7 10 18.16 17.96 1.18
5 8 10 6.19 7.03 0.68
5 9 10 33.79 32.93 1.43
5 10 10 0.62 0.87 0.53
5 11 10 1.18 2.04 0.54
5 12 10 5.39 5.91 0.53
5 0 11 5.32 3.76 1.53
5 1 11 24.72 23.98 2.02
5 2 11 11.44 12.37 1.62
5 3 11 17.65 16.48 1.18
5 4 11 12.26 11.06 0.91
5 5 11 0.06 0.06 0.52
5 6 11 39.18 40.00 1.54
5 7 11 2.02 2.44 0.57
6 0 0 137.91 134.94 1.77
6 1 0 66.12 66.55 1.13
6 2 0 4.73 4.86 0.44
6 3 0 32.84 31.78 0.80
6 4 0 9.29 9.97 0.52
6 5 0 79.56 76.73 1.29
6 6 0 70.76 70.78 1.25
6 7 0 87.79 84.66 1.42
6 8 0 60.13 59.16 1.18
6 9 0 0.07 0.23 0.44
6 10 0 90.76 88.24 1.57
6 11 0 0.09 0.26 0.32
6 12 0 64.56 64.28 1.37
6 13 0 20.93 21.53 0.90
6 14 0 8.97 9.27 0.64
6 15 0 26.76 28.55 1.02
6 16 0 6.83 7.31 0.64
6 17 0 8.21 8.96 0.69
6 18 0 22.31 21.29 1.04
6 19 0 6.00 6.99 0.69
6 21 0 2.48 2.27 0.45
6 22 0 24.21 23.63 1.10
6 23 0 0.12 0.68 0.40
6 0 1 41.35 39.67 0.88
6 1 1 121.20 118.93 1.64
6 2 1 87.02 85.95 1.34
6 3 1 77.80 76.39 1.27
6 4 1 87.10 87.84 1.39
6 5 1 106.91 104.88 1.56
6 6 1 9.82 9.50 0.54
6 7 1 61.36 61.22 1.18
6 8 1 53.74 52.98 1.12
6 9 1 1.61 1.46 0.47
6 10 1 1.05 1.46 0.34
6 11 1 27.37 26.74 0.90
6 12 1 12.72 12.81 0.75
6 13 1 121.59 119.93 1.99
6 14 1 39.41 41.26 1.18
6 15 1 18.37 18.61 0.90
6 16 1 11.05 11.77 0.79
6 17 1 71.90 72.11 1.66
6 18 1 64.35 66.53 1.63
6 19 1 17.63 18.57 0.99
6 20 1 12.25 13.21 0.92
6 21 1 8.85 8.06 0.65
6 22 1 23.13 21.88 1.10
6 23 1 10.33 9.36 0.87
6 0 2 18.44 19.26 0.66
6 1 2 114.58 114.30 1.63
6 2 2 179.73 174.64 2.21
6 3 2 2.97 3.32 0.43
6 4 2 0.98 0.86 0.41
6 5 2 48.90 47.45 1.02
6 6 2 8.97 9.52 0.56
6 7 2 18.68 17.98 0.72
6 8 2 47.62 46.66 1.08
6 9 2 6.53 5.46 0.57
6 10 2 109.23 106.59 1.77
6 11 2 3.28 3.71 0.41
6 12 2 30.43 30.56 1.02
6 13 2 10.15 10.79 0.67
6 14 2 93.87 91.38 1.79
6 15 2 1.22 1.02 0.36
6 16 2 8.34 6.99 0.58
6 17 2 14.31 14.28 0.89
6 18 2 6.99 7.48 0.61
6 19 2 6.33 6.94 0.61
6 20 2 1.36 1.83 0.44
6 21 2 9.64 8.76 0.77
6 22 2 5.66 6.23 0.55
6 23 2 11.75 13.46 1.55
6 0 3 11.77 12.31 0.60
6 1 3 99.09 99.49 1.54
6 2 3 17.49 16.59 0.68
6 3 3 201.73 199.87 2.47
6 4 3 67.00 66.68 1.24
6 5 3 4.31 4.55 0.52
6 6 3 23.80 24.44 0.80
6 7 3 56.74 57.47 1.21
6 8 3 24.13 22.84 0.83
6 9 3 26.53 25.35 0.89
6 10 3 0.80 1.29 0.36
6 11 3 6.69 6.83 0.52
6 12 3 22.11 20.70 0.90
6 13 3 4.19 4.38 0.44
6 14 3 47.07 47.98 1.33
6 15 3 31.80 32.24 1.13
6 16 3 29.99 28.32 1.12
6 17 3 12.32 12.78 0.88
6 18 3 69.27 69.48 1.71
6 19 3 46.33 46.92 1.46
6 20 3 3.60 3.01 0.47
6 21 3 21.02 20.90 1.10
6 22 3 29.27 28.87 1.21
6 0 4 0.62 1.05 0.44
6 1 4 96.24 93.81 1.56
6 2 4 20.64 20.96 0.76
6 3 4 56.35 56.67 1.18
6 4 4 1.99 0.91 0.49
6 5 4 38.09 36.74 1.00
6 6 4 68.46 66.83 1.35
6 7 4 4.91 4.92 0.42
6 8 4 17.54 16.87 0.78
6 9 4 41.35 39.88 1.12
6 10 4 48.77 48.20 1.25
6 11 4 2.30 2.48 0.38
6 12 4 28.34 27.28 1.02
6 13 4 3.87 4.66 0.46
6 14 4 40.66 39.60 1.25
6 15 4 4.18 3.80 0.46
6 16 4 30.53 31.86 1.18
6 17 4 80.53 80.14 1.82
6 18 4 9.94 9.86 0.79
6 19 4 31.58 31.34 1.25
6 20 4 12.10 12.33 0.92
6 21 4 55.34 54.38 1.55
6 0 5 15.37 14.26 0.75
6 1 5 65.95 64.87 1.33
6 2 5 18.61 19.62 0.80
6 3 5 108.60 105.80 1.77
6 4 5 20.21 19.05 0.81
6 5 5 4.15 4.17 0.41
6 6 5 42.63 43.73 1.14
6 7 5 11.37 10.13 0.70
6 8 5 0.13 0.26 0.36
6 9 5 34.08 33.64 1.09
6 10 5 2.07 2.29 0.39
6 11 5 20.56 19.29 0.92
6 12 5 23.30 23.12 1.00
6 13 5 8.71 9.51 0.63
6 14 5 21.17 22.58 1.04
6 15 5 2.14 1.91 0.42
6 16 5 16.51 16.79 1.00
6 17 5 1.59 1.88 0.44
6 18 5 17.80 17.70 1.00
6 19 5 6.12 6.00 0.54
6 20 5 0.27 0.09 0.38
6 0 6 52.79 50.78 1.25
6 1 6 101.01 100.87 1.78
6 2 6 74.22 72.21 1.51
6 3 6 56.92 55.77 1.33
6 4 6 18.85 19.60 0.88
6 5 6 79.79 79.44 1.61
6 6 6 70.64 73.73 1.56
6 7 6 6.90 6.32 0.48
6 8 6 11.75 10.80 0.78
6 9 6 75.31 75.82 1.66
6 10 6 13.14 12.69 0.86
6 11 6 34.04 33.12 1.17
6 12 6 39.52 40.42 1.27
6 13 6 34.90 34.68 1.24
6 14 6 13.72 13.14 0.93
6 15 6 41.47 43.45 1.37
6 16 6 26.28 28.77 1.17
6 17 6 23.20 22.75 1.10
6 18 6 8.23 8.62 0.59
6 19 6 14.27 14.28 0.94
6 0 7 17.24 17.68 0.86
6 1 7 1.81 2.25 0.39
6 2 7 49.74 49.85 1.33
6 3 7 12.32 11.79 0.80
6 4 7 7.60 8.16 0.66
6 5 7 20.66 20.65 0.93
6 6 7 96.09 98.42 1.90
6 7 7 1.55 2.31 0.42
6 8 7 18.44 18.99 0.94
6 9 7 5.29 5.08 0.55
6 10 7 57.49 57.90 1.52
6 11 7 5.07 5.12 0.51
6 12 7 16.86 17.48 1.01
6 13 7 16.80 15.51 0.98
6 14 7 12.42 13.80 0.95
6 15 7 3.01 3.51 0.48
6 16 7 0.07 0.09 0.40
6 17 7 10.74 11.89 0.87
6 18 7 6.81 7.08 0.55
6 0 8 27.28 28.40 1.09
6 1 8 0.99 1.24 0.39
6 2 8 13.57 14.79 0.87
6 3 8 49.74 49.40 1.39
6 4 8 8.25 7.79 0.69
6 5 8 3.21 3.41 0.45
6 6 8 11.89 13.20 0.89
6 7 8 51.03 53.25 1.46
6 8 8 0.27 0.73 0.39
6 9 8 2.66 3.15 0.47
6 10 8 6.55 7.84 0.66
6 11 8 18.51 17.66 1.04
6 12 8 1.44 2.41 0.46
6 13 8 10.27 10.48 0.74
6 14 8 15.16 15.31 0.97
6 15 8 40.08 41.38 1.37
6 16 8 22.03 21.20 1.08
6 0 9 37.08 39.16 1.32
6 1 9 1.02 1.11 0.41
6 2 9 11.14 11.46 0.87
6 3 9 12.41 11.24 0.81
6 4 9 9.40 9.00 0.76
6 5 9 2.52 2.72 0.46
6 6 9 11.27 13.11 0.91
6 7 9 6.62 7.05 0.56
6 8 9 27.47 30.18 1.18
6 9 9 5.13 5.84 0.54
6 10 9 41.62 42.27 1.40
6 11 9 5.78 6.59 0.61
6 12 9 34.56 36.55 1.31
6 13 9 14.24 14.00 0.95
6 0 10 3.68 4.95 0.52
6 1 10 40.64 43.64 1.40
6 2 10 45.19 45.97 1.45
6 3 10 1.24 1.62 0.46
6 4 10 5.76 7.05 0.56
6 5 10 49.64 51.82 1.52
6 6 10 8.08 8.60 0.66
6 7 10 21.31 22.66 1.12
6 8 10 0.93 1.58 0.43
6 9 10 3.85 4.55 0.51
6 0 11 6.17 7.47 0.63
6 1 11 28.46 29.73 1.39
6 2 11 3.02 4.31 0.61
7 2 0 72.65 71.72 1.31
7 3 0 13.51 13.72 0.63
7 4 0 3.94 3.83 0.51
7 5 0 54.76 52.77 1.16
7 6 0 21.95 21.18 0.80
7 7 0 2.27 2.43 0.35
7 8 0 34.30 34.80 0.99
7 9 0 44.33 43.10 1.12
7 10 0 101.83 98.37 1.76
7 11 0 32.95 32.85 1.05
7 12 0 24.14 24.38 0.95
7 13 0 0.08 0.08 0.35
7 14 0 17.92 17.48 0.89
7 15 0 16.46 15.19 0.89
7 16 0 2.92 2.49 0.44
7 17 0 12.54 11.54 0.86
7 18 0 1.59 1.23 0.41
7 19 0 3.32 3.11 0.47
7 20 0 22.75 24.93 1.11
7 21 0 17.91 17.90 1.03
7 22 0 1.11 1.44 0.44
7 0 1 222.37 219.69 2.71
7 1 1 57.91 56.61 1.15
7 2 1 16.89 15.96 0.68
7 3 1 40.40 41.62 0.99
7 4 1 69.45 70.19 1.31
7 5 1 72.25 73.15 1.37
7 6 1 39.36 39.98 1.03
7 7 1 23.05 22.91 0.83
7 8 1 0.86 1.15 0.34
7 9 1 101.94 100.50 1.76
7 10 1 19.73 19.10 0.85
7 11 1 18.79 18.24 0.86
7 12 1 0.29 0.51 0.33
7 13 1 36.24 37.07 1.16
7 14 1 20.62 18.12 0.96
7 15 1 11.62 10.76 0.79
7 16 1 17.99 17.38 0.97
7 17 1 36.33 36.04 1.27
7 18 1 41.65 42.93 1.38
7 19 1 27.24 26.39 1.16
7 20 1 11.14 11.21 0.90
7 21 1 26.30 25.26 1.16
7 22 1 33.78 33.67 1.28
7 0 2 12.21 11.52 0.63
7 1 2 2.06 2.05 0.48
7 2 2 37.84 38.86 0.99
7 3 2 28.88 29.15 0.87
7 4 2 13.49 12.66 0.67
7 5 2 48.83 50.66 1.15
7 6 2 211.69 209.11 2.70
7 7 2 7.60 7.09 0.51
7 8 2 17.82 17.51 0.81
7 9 2 25.25 23.60 0.94
7 10 2 146.08 142.57 2.22
7 11 2 10.66 10.68 0.66
7 12 2 58.37 58.42 1.42
7 13 2 5.69 5.28 0.52
7 14 2 6.39 5.77 0.50
7 15 2 17.46 20.03 0.96
7 16 2 15.69 15.19 0.93
7 17 2 6.68 6.16 0.59
7 18 2 10.60 11.24 0.88
7 19 2 1.33 1.66 0.44
7 20 2 1.10 1.89 0.45
7 21 2 0.87 0.98 0.41
7 0 3 3.68 3.77 0.53
7 1 3 119.53 118.29 1.84
7 2 3 31.03 30.21 0.93
7 3 3 17.74 17.97 0.78
7 4 3 26.37 24.58 0.86
7 5 3 103.07 102.88 1.73
7 6 3 43.87 44.38 1.12
7 7 3 11.42 12.03 0.70
7 8 3 38.50 37.50 1.08
7 9 3 6.16 5.69 0.51
7 10 3 6.01 6.00 0.51
7 11 3 6.39 5.96 0.59
7 12 3 14.43 14.90 0.84
7 13 3 20.87 21.38 0.99
7 14 3 42.78 42.61 1.32
7 15 3 14.69 16.35 0.94
7 16 3 25.65 24.60 1.13
7 17 3 33.20 32.49 1.24
7 18 3 8.37 7.92 0.64
7 19 3 22.47 21.16 1.09
7 20 3 12.68 12.66 0.92
7 21 3 9.30 8.87 0.75
7 0 4 2.16 2.62 0.38
7 1 4 65.41 66.37 1.38
7 2 4 12.38 11.95 0.72
7 3 4 24.62 23.41 0.89
7 4 4 57.51 57.09 1.29
7 5 4 51.83 51.94 1.27
7 6 4 48.36 48.61 1.23
7 7 4 4.95 4.52 0.44
7 8 4 9.50 9.15 0.64
7 9 4 17.90 16.52 0.86
7 10 4 10.99 11.82 0.78
7 11 4 14.26 14.01 0.86
7 12 4 28.46 27.26 1.08
7 13 4 40.47 39.40 1.31
7 14 4 11.98 11.81 0.87
7 15 4 37.86 38.24 1.31
7 16 4 33.54 35.48 1.26
7 17 4 22.07 23.19 1.08
7 18 4 14.69 16.11 0.99
7 19 4 26.80 25.65 1.18
7 20 4 2.89 1.94 0.44
7 0 5 2.56 3.01 0.40
7 1 5 22.78 22.06 0.90
7 2 5 21.88 21.71 0.88
7 3 5 8.01 7.25 0.62
7 4 5 31.96 31.43 1.05
7 5 5 32.13 32.64 1.06
7 6 5 27.12 27.30 1.01
7 7 5 46.28 44.94 1.26
7 8 5 63.04 62.64 1.49
7 9 5 5.17 4.82 0.47
7 10 5 43.27 44.22 1.31
7 11 5 13.37 12.03 0.85
7 12 5 30.41 28.16 1.15
7 13 5 5.06 4.59 0.49
7 14 5 52.38 53.21 1.50
7 15 5 2.52 3.15 0.47
7 16 5 12.61 12.17 0.83
7 17 5 4.14 4.03 0.50
7 18 5 6.65 5.67 0.53
7 19 5 4.69 5.48 0.52
7 0 6 14.56 14.39 0.81
7 1 6 61.43 61.34 1.46
7 2 6 74.67 77.11 1.64
7 3 6 56.78 57.64 1.44
7 4 6 53.35 54.79 1.39
7 5 6 6.42 6.49 0.54
7 6 6 13.00 12.11 0.83
7 7 6 32.48 33.64 1.18
7 8 6 28.29 28.37 1.11
7 9 6 9.78 8.90 0.72
7 10 6 7.76 7.48 0.69
7 11 6 24.07 25.21 1.08
7 12 6 6.99 6.68 0.61
7 13 6 12.47 13.41 0.91
7 14 6 9.51 10.80 0.78
7 15 6 18.41 17.46 1.02
7 16 6 20.45 18.90 1.05
7 17 6 16.57 14.80 0.99
7 18 6 7.74 7.03 0.62
7 0 7 31.80 30.57 1.14
7 1 7 1.11 1.22 0.39
7 2 7 69.21 72.31 1.66
7 3 7 8.32 8.18 0.70
7 4 7 3.29 3.12 0.44
7 5 7 4.57 4.81 0.48
7 6 7 2.92 3.26 0.45
7 7 7 20.62 22.25 1.04
7 8 7 33.93 35.48 1.23
7 9 7 18.22 17.15 1.00
7 10 7 35.91 36.96 1.30
7 11 7 13.48 12.89 0.83
7 12 7 22.30 20.52 1.10
7 13 7 7.55 7.63 0.64
7 14 7 29.23 29.02 1.24
7 15 7 6.80 6.87 0.56
7 16 7 0.01 0.19 0.81
7 0 8 0.89 1.19 0.41
7 1 8 31.68 32.21 1.22
7 2 8 69.74 71.13 1.69
7 3 8 16.51 18.21 0.98
7 4 8 6.07 6.33 0.60
7 5 8 9.41 10.48 0.84
7 6 8 3.56 4.49 0.50
7 7 8 9.29 8.66 0.73
7 8 8 3.67 3.91 0.53
7 9 8 23.97 23.46 1.11
7 10 8 1.83 2.10 0.45
7 11 8 28.79 27.58 1.18
7 12 8 16.02 17.17 1.00
7 13 8 20.67 21.03 1.06
7 14 8 2.57 2.43 0.45
7 0 9 3.76 4.65 0.51
7 1 9 3.96 4.45 0.50
7 2 9 10.29 10.42 0.79
7 3 9 6.86 7.19 0.59
7 4 9 19.23 19.27 1.05
7 5 9 11.73 10.70 0.70
7 6 9 9.53 10.32 0.74
7 7 9 3.08 3.82 0.49
7 8 9 58.23 57.59 1.60
7 9 9 0.47 0.69 0.88
7 10 9 31.22 31.73 1.23
7 11 9 6.15 6.60 0.55
7 0 10 0.29 0.22 0.42
7 1 10 31.30 31.21 1.24
7 2 10 2.87 3.94 0.48
7 3 10 63.65 66.20 1.69
7 4 10 6.66 7.47 0.57
7 5 10 0.37 0.72 0.42
7 6 10 10.28 9.73 0.88
8 0 0 2.70 2.36 0.36
8 1 0 1.25 1.72 0.35
8 2 0 49.85 49.52 1.16
8 3 0 0.08 0.14 0.33
8 4 0 2.05 2.38 0.37
8 5 0 10.13 10.63 0.68
8 6 0 135.21 131.58 2.08
8 7 0 18.28 18.02 0.85
8 8 0 5.56 5.73 0.51
8 9 0 63.94 64.26 1.48
8 10 0 18.20 17.85 0.89
8 11 0 21.87 22.84 0.96
8 12 0 9.08 10.21 0.66
8 13 0 56.33 58.57 1.50
8 14 0 1.47 1.28 0.40
8 15 0 1.60 1.80 0.42
8 16 0 34.47 36.31 1.27
8 17 0 16.57 17.05 0.98
8 18 0 0.18 0.53 0.40
8 19 0 9.83 9.30 0.67
8 20 0 0.67 0.79 0.41
8 0 1 34.21 31.58 0.99
8 1 1 30.83 31.17 0.96
8 2 1 100.05 96.54 1.68
8 3 1 0.74 1.24 0.35
8 4 1 33.89 32.71 1.00
8 5 1 68.82 66.93 1.42
8 6 1 2.28 2.56 0.40
8 7 1 21.96 21.89 0.89
8 8 1 4.63 5.12 0.50
8 9 1 63.00 61.20 1.46
8 10 1 3.89 4.35 0.44
8 11 1 4.32 3.98 0.45
8 12 1 20.64 21.27 0.99
8 13 1 26.11 26.31 1.07
8 14 1 4.41 4.55 0.49
8 15 1 18.83 18.61 0.99
8 16 1 8.68 8.74 0.76
8 17 1 17.06 18.43 1.04
8 18 1 3.31 3.94 0.50
8 19 1 40.19 40.69 1.37
8 20 1 35.43 37.55 1.31
8 0 2 0.20 0.56 0.34
8 1 2 2.41 3.13 0.39
8 2 2 32.68 32.37 1.00
8 3 2 11.47 11.44 0.72
8 4 2 131.51 129.77 2.06
8 5 2 2.91 3.08 0.41
8 6 2 51.30 50.07 1.26
8 7 2 13.87 12.52 0.81
8 8 2 178.42 182.94 2.64
8 9 2 1.98 1.97 0.38
8 10 2 24.94 23.20 0.99
8 11 2 5.07 4.21 0.46
8 12 2 26.90 27.81 1.08
8 13 2 2.84 2.75 0.44
8 14 2 27.25 27.27 1.12
8 15 2 3.71 3.71 0.47
8 16 2 21.68 21.30 1.06
8 17 2 5.16 5.40 0.53
8 18 2 4.23 2.93 0.47
8 19 2 2.20 3.03 0.47
8 20 2 10.18 10.45 0.77
8 0 3 82.74 83.09 1.61
8 1 3 2.01 1.91 0.38
8 2 3 14.63 14.76 0.79
8 3 3 36.13 35.05 1.06
8 4 3 43.00 42.18 1.17
8 5 3 23.13 23.06 0.94
8 6 3 34.27 35.95 1.10
8 7 3 35.22 35.07 1.11
8 8 3 20.89 21.33 0.92
8 9 3 59.59 59.90 1.47
8 10 3 69.64 71.18 1.63
8 11 3 10.72 11.01 0.81
8 12 3 62.82 63.31 1.59
8 13 3 34.21 37.63 1.26
8 14 3 14.85 15.99 0.93
8 15 3 0.75 0.54 0.39
8 16 3 11.22 12.31 0.90
8 17 3 2.38 3.25 0.48
8 18 3 5.04 5.99 0.53
8 19 3 1.42 1.86 0.44
8 0 4 5.40 5.53 0.50
8 1 4 13.18 14.13 0.77
8 2 4 16.02 16.40 0.83
8 3 4 45.80 46.06 1.24
8 4 4 22.93 23.87 0.96
8 5 4 10.82 12.13 0.75
8 6 4 6.28 6.93 0.52
8 7 4 39.68 41.29 1.24
8 8 4 65.60 65.50 1.56
8 9 4 24.39 24.65 1.02
8 10 4 29.55 30.90 1.15
8 11 4 56.13 54.56 1.48
8 12 4 15.13 15.73 0.92
8 13 4 25.02 24.77 1.10
8 14 4 25.07 25.09 1.13
8 15 4 36.67 39.04 1.34
8 16 4 7.39 8.44 0.59
8 17 4 6.85 7.19 0.63
8 18 4 0.39 0.56 0.40
8 0 5 0.50 0.67 0.35
8 1 5 20.87 23.50 0.95
8 2 5 17.89 18.29 0.89
8 3 5 14.49 14.93 0.85
8 4 5 16.07 17.16 0.89
8 5 5 34.20 34.08 1.17
8 6 5 46.22 46.78 1.33
8 7 5 8.53 8.35 0.69
8 8 5 36.38 37.15 1.25
8 9 5 13.68 13.53 0.89
8 10 5 50.08 49.80 1.45
8 11 5 0.54 1.11 0.40
8 12 5 55.31 54.08 1.55
8 13 5 0.87 1.23 0.42
8 14 5 6.73 5.51 0.53
8 15 5 12.91 14.11 0.94
8 16 5 9.53 10.28 0.88
8 17 5 5.20 5.43 0.52
8 0 6 83.62 85.99 1.81
8 1 6 1.89 1.89 0.41
8 2 6 8.73 8.45 0.69
8 3 6 12.16 12.36 0.85
8 4 6 36.50 37.12 1.23
8 5 6 21.44 22.50 1.02
8 6 6 14.48 16.50 0.94
8 7 6 31.29 28.47 1.18
8 8 6 13.15 13.07 0.93
8 9 6 4.77 5.30 0.52
8 10 6 0.05 0.14 0.40
8 11 6 28.77 29.70 1.22
8 12 6 0.10 0.03 0.39
8 13 6 8.83 9.86 0.74
8 14 6 2.74 3.31 0.48
8 15 6 14.43 14.87 0.99
8 16 6 17.94 18.84 1.04
8 0 7 55.52 55.07 1.54
8 1 7 4.77 5.03 0.50
8 2 7 1.13 1.32 0.41
8 3 7 11.86 11.39 0.77
8 4 7 57.19 60.30 1.57
8 5 7 1.28 1.02 0.41
8 6 7 2.79 3.13 0.46
8 7 7 36.55 36.06 1.29
8 8 7 29.34 30.59 1.22
8 9 7 9.58 10.41 0.79
8 10 7 0.14 0.13 0.43
8 11 7 30.26 28.50 1.23
8 12 7 32.85 32.94 1.24
8 13 7 7.59 8.72 0.66
8 14 7 11.50 13.25 0.94
8 0 8 45.65 47.75 1.46
8 1 8 43.19 45.10 1.43
8 2 8 10.29 10.05 0.77
8 3 8 36.23 35.49 1.31
8 4 8 11.78 11.81 0.82
8 5 8 14.95 14.22 0.98
8 6 8 8.80 8.95 0.63
8 7 8 12.89 13.45 0.95
8 8 8 3.11 3.12 0.47
8 9 8 3.12 3.94 0.50
8 10 8 4.04 4.48 0.50
8 11 8 20.94 22.57 1.10
8 0 9 6.64 6.29 0.55
8 1 9 5.48 5.85 0.54
8 2 9 19.29 20.07 1.09
8 3 9 16.01 17.24 1.02
8 4 9 19.34 18.02 1.05
8 5 9 0.59 0.91 0.44
8 6 9 42.20 44.45 1.38
8 7 9 20.86 23.33 1.11
8 8 9 6.30 7.55 0.65
9 1 0 0.48 0.57 0.33
9 2 0 23.43 24.23 0.95
9 4 0 181.18 178.87 2.63
9 5 0 0.06 0.58 0.69
9 6 0 6.04 6.73 0.55
9 7 0 7.72 7.27 0.64
9 8 0 128.69 127.18 2.21
9 9 0 5.05 4.42 0.47
9 10 0 16.55 15.88 0.91
9 11 0 25.82 25.26 1.08
9 12 0 5.55 5.58 0.52
9 13 0 6.40 6.83 0.55
9 14 0 40.42 42.55 1.38
9 15 0 36.89 37.77 1.32
9 16 0 0.08 0.11 0.41
9 18 0 4.63 4.70 0.51
9 0 1 7.31 7.49 0.55
9 1 1 12.22 11.99 0.76
9 2 1 26.42 26.75 0.99
9 3 1 14.32 13.11 0.80
9 4 1 4.77 5.91 0.52
9 5 1 7.71 7.03 0.62
9 6 1 19.53 19.82 0.92
9 7 1 40.59 39.72 1.24
9 8 1 13.64 14.43 0.84
9 9 1 37.79 39.16 1.22
9 10 1 4.58 4.36 0.48
9 11 1 34.88 34.94 1.23
9 12 1 3.51 3.30 0.46
9 13 1 59.79 60.20 1.60
9 14 1 13.64 13.76 0.95
9 15 1 4.08 4.25 0.50
9 16 1 9.52 10.34 0.85
9 17 1 22.95 22.13 1.09
9 18 1 1.34 1.40 0.42
9 0 2 113.84 113.26 2.00
9 1 2 1.38 1.83 0.37
9 2 2 4.92 4.62 0.45
9 3 2 3.12 2.83 0.41
9 4 2 92.80 93.14 1.82
9 5 2 31.88 32.96 1.11
9 6 2 11.01 10.11 0.79
9 7 2 11.96 11.28 0.83
9 8 2 6.54 6.36 0.51
9 9 2 61.92 64.51 1.57
9 10 2 9.11 10.16 0.78
9 11 2 16.25 16.03 0.94
9 12 2 19.84 19.62 1.03
9 13 2 34.15 35.71 1.29
9 14 2 11.29 10.72 0.80
9 15 2 10.06 11.00 0.85
9 16 2 17.14 18.51 1.04
9 17 2 4.26 3.71 0.48
9 18 2 12.69 13.20 0.90
9 0 3 19.65 20.35 0.91
9 1 3 19.93 20.79 0.94
9 2 3 74.68 74.36 1.62
9 3 3 0.21 0.07 0.34
9 4 3 7.81 7.86 0.58
9 5 3 21.65 21.86 1.00
9 6 3 26.96 28.14 1.10
9 7 3 16.98 16.67 0.92
9 8 3 84.01 87.04 1.86
9 9 3 8.97 10.09 0.83
9 10 3 48.41 50.25 1.44
9 11 3 15.44 15.84 0.95
9 12 3 42.84 44.91 1.39
9 13 3 4.31 3.98 0.50
9 14 3 30.69 30.95 1.25
9 15 3 2.48 3.62 0.48
9 16 3 2.04 2.18 0.45
9 17 3 4.68 4.94 0.51
9 0 4 66.90 67.29 1.60
9 1 4 0.85 1.60 0.40
9 2 4 3.06 3.49 0.44
9 3 4 13.66 15.45 0.87
9 4 4 41.38 42.92 1.29
9 5 4 18.77 19.44 0.97
9 6 4 28.93 29.46 1.10
9 7 4 14.38 13.38 0.89
9 8 4 33.69 35.45 1.24
9 9 4 18.99 20.75 1.01
9 10 4 46.21 49.59 1.48
9 11 4 0.44 0.58 0.40
9 12 4 35.74 36.11 1.28
9 13 4 1.27 1.33 0.43
9 14 4 4.47 4.52 0.51
9 15 4 5.16 5.39 0.53
9 16 4 4.78 4.79 0.51
9 0 5 71.19 70.03 1.69
9 1 5 12.35 12.37 0.86
9 2 5 43.60 44.12 1.34
9 3 5 41.30 40.67 1.31
9 4 5 13.73 13.39 0.89
9 5 5 0.63 1.16 0.40
9 6 5 16.97 18.02 1.00
9 7 5 36.86 37.09 1.27
9 8 5 19.80 20.85 1.03
9 9 5 1.51 1.62 0.43
9 10 5 2.63 2.94 0.47
9 11 5 21.05 21.01 1.07
9 12 5 11.02 11.80 0.89
9 13 5 9.27 7.87 0.66
9 14 5 2.21 2.84 0.47
9 15 5 9.57 9.56 0.77
9 0 6 0.37 0.89 0.40
9 1 6 2.60 2.89 0.46
9 2 6 16.21 16.21 0.96
9 3 6 29.66 30.64 1.18
9 4 6 9.64 9.28 0.75
9 5 6 11.37 10.96 0.86
9 6 6 9.18 10.21 0.83
9 7 6 16.16 16.18 0.99
9 8 6 3.29 3.23 0.48
9 9 6 22.01 24.05 1.12
9 10 6 5.37 5.28 0.58
9 11 6 22.13 21.34 1.08
9 12 6 7.86 9.31 0.75
9 13 6 8.23 7.93 0.58
9 0 7 19.03 18.53 1.04
9 1 7 5.54 6.12 0.61
9 2 7 21.51 20.94 1.09
9 3 7 5.16 5.57 0.53
9 4 7 20.79 19.86 1.08
9 5 7 19.08 20.34 1.08
9 6 7 63.13 63.92 1.67
9 7 7 1.04 1.37 0.42
9 8 7 21.45 21.34 1.05
9 9 7 12.20 11.64 0.93
9 10 7 12.67 13.56 0.93
9 11 7 1.31 1.42 0.42
9 0 8 3.96 4.44 0.51
9 1 8 2.38 2.37 0.45
9 2 8 2.94 2.98 0.47
9 3 8 13.07 13.79 0.95
9 4 8 23.53 23.86 1.15
9 5 8 7.67 7.03 0.62
9 6 8 16.83 19.14 1.01
9 7 8 28.76 29.69 1.22
9 8 8 4.28 5.13 0.51
10 0 0 274.57 276.36 3.62
10 1 0 0.00 0.08 0.75
10 2 0 10.02 10.41 0.80
10 3 0 1.30 1.77 0.41
10 4 0 119.00 120.77 2.19
10 5 0 11.77 10.63 0.82
10 6 0 23.71 24.82 1.07
10 7 0 1.05 1.34 0.41
10 8 0 3.39 3.12 0.46
10 9 0 20.23 18.77 1.00
10 10 0 4.33 3.76 0.48
10 11 0 1.93 2.48 0.45
10 12 0 1.09 1.95 0.45
10 14 0 7.32 7.55 0.72
10 15 0 1.32 1.61 0.43
10 16 0 0.45 0.15 0.39
10 0 1 0.68 0.75 0.37
10 1 1 40.39 41.50 1.28
10 2 1 12.40 13.40 0.81
10 3 1 18.91 19.37 0.95
10 4 1 14.06 13.28 0.89
10 5 1 5.84 5.88 0.57
10 6 1 41.05 42.03 1.32
10 7 1 11.77 12.00 0.79
10 8 1 2.05 2.21 0.44
10 9 1 8.80 10.20 0.85
10 10 1 11.00 11.19 0.86
10 11 1 49.62 49.28 1.48
10 12 1 10.38 9.07 0.78
10 13 1 9.45 9.45 0.68
10 14 1 9.48 8.98 0.77
10 15 1 16.86 17.20 1.01
10 16 1 2.23 2.39 0.45
10 0 2 54.63 52.45 1.45
10 1 2 3.86 3.72 0.46
10 2 2 50.81 51.40 1.45
10 3 2 13.39 14.61 0.89
10 4 2 17.21 19.08 0.95
10 5 2 6.14 5.42 0.51
10 6 2 2.53 2.74 0.45
10 7 2 37.20 37.53 1.27
10 8 2 7.86 7.51 0.71
10 9 2 2.36 2.74 0.46
10 10 2 32.81 33.12 1.27
10 11 2 45.29 45.24 1.44
10 12 2 1.62 2.37 0.46
10 13 2 0.57 0.98 0.41
10 14 2 35.85 35.28 1.29
10 15 2 33.52 33.88 1.27
10 0 3 8.74 7.70 0.70
10 1 3 0.72 0.73 0.39
10 2 3 15.63 15.36 0.90
10 3 3 5.10 5.18 0.51
10 4 3 15.80 15.84 0.93
10 5 3 8.46 8.38 0.64
10 6 3 57.41 58.59 1.55
10 7 3 2.26 2.46 0.45
10 9 3 10.70 11.01 0.88
10 10 3 24.34 23.40 1.14
10 11 3 1.74 1.84 0.44
10 12 3 21.02 22.31 1.08
10 13 3 28.01 27.85 1.20
10 14 3 2.06 2.56 0.46
10 15 3 4.13 2.52 0.45
10 0 4 2.85 3.25 0.46
10 1 4 8.65 8.92 0.73
10 2 4 14.51 15.01 0.90
10 3 4 19.05 18.23 1.02
10 4 4 13.65 15.84 0.94
10 5 4 34.46 33.22 1.25
10 6 4 4.69 3.98 0.48
10 7 4 39.73 39.79 1.38
10 8 4 21.29 22.51 1.10
10 9 4 13.81 15.94 0.97
10 10 4 22.91 23.29 1.13
10 11 4 20.50 21.51 1.09
10 12 4 1.10 1.56 0.43
10 13 4 0.82 0.97 0.41
10 14 4 20.79 20.16 1.05
10 0 5 17.05 18.33 1.01
10 1 5 32.13 33.19 1.24
10 2 5 32.68 30.86 1.24
10 3 5 1.12 1.30 0.42
10 4 5 22.81 23.61 1.10
10 5 5 57.01 58.22 1.62
10 6 5 18.28 20.21 1.07
10 7 5 2.55 2.24 0.46
10 8 5 11.91 12.80 0.91
10 9 5 43.05 42.31 1.42
10 10 5 12.50 13.38 0.96
10 11 5 2.21 2.20 0.45
10 12 5 10.87 9.52 0.78
10 0 6 0.09 0.18 0.41
10 1 6 9.60 9.48 0.64
10 2 6 11.96 11.92 0.93
10 3 6 0.18 0.45 0.40
10 4 6 2.04 2.02 0.45
10 5 6 3.42 4.04 0.50
10 6 6 3.48 3.23 0.47
10 7 6 13.16 13.34 0.85
10 8 6 5.91 6.40 0.55
10 9 6 6.88 6.80 0.61
10 10 6 15.09 15.94 0.96
10 0 7 3.20 3.47 0.48
10 1 7 4.84 5.92 0.53
10 2 7 87.96 87.22 1.96
10 3 7 3.49 3.76 0.48
10 4 7 9.13 9.44 0.78
10 5 7 4.64 4.73 0.51
10 6 7 37.37 37.78 1.32
10 7 7 11.47 11.97 0.92
11 1 0 0.57 0.79 0.40
11 2 0 191.14 188.39 2.94
11 3 0 10.77 10.68 0.79
11 4 0 0.85 0.67 0.40
11 5 0 0.43 0.39 0.40
11 6 0 17.04 20.24 1.05
11 7 0 59.73 60.11 1.61
11 8 0 0.46 0.91 0.41
11 9 0 1.20 1.75 0.44
11 10 0 11.21 10.66 0.81
11 11 0 54.62 57.09 1.57
11 12 0 5.20 4.58 0.51
11 13 0 10.93 9.96 0.80
11 0 1 0.04 0.31 0.38
11 1 1 31.70 31.28 1.22
11 2 1 1.49 1.62 0.43
11 3 1 9.86 8.83 0.75
11 4 1 8.12 8.30 0.64
11 5 1 27.21 26.90 1.16
11 6 1 1.66 1.68 0.44
11 7 1 27.49 29.27 1.18
11 8 1 14.80 15.49 0.98
11 9 1 2.86 2.16 0.45
11 10 1 7.24 8.19 0.66
11 11 1 5.39 5.35 0.52
11 12 1 0.77 0.88 0.41
11 13 1 13.93 13.85 0.81
11 0 2 8.85 7.74 0.71
11 1 2 9.53 10.39 0.85
11 2 2 17.38 14.95 0.99
11 3 2 22.51 21.52 1.10
11 4 2 10.94 13.29 0.90
11 5 2 1.04 1.53 0.44
11 6 2 1.89 1.99 0.45
11 7 2 20.07 20.43 1.06
11 8 2 8.72 9.67 0.77
11 9 2 2.20 2.33 0.46
11 10 2 3.27 3.29 0.48
11 11 2 21.39 22.31 1.09
11 12 2 6.75 6.15 0.59
11 0 3 16.73 16.39 0.98
11 1 3 19.07 20.00 1.03
11 2 3 9.39 8.96 0.75
11 3 3 0.93 0.62 0.40
11 4 3 29.30 28.49 1.20
11 5 3 17.22 19.77 1.02
11 6 3 17.49 18.77 1.04
11 7 3 13.44 12.95 0.94
11 8 3 16.12 15.81 1.02
11 9 3 2.66 3.23 0.47
11 10 3 3.72 3.81 0.48
11 11 3 18.36 16.78 1.03
11 0 4 7.77 7.20 0.63
11 1 4 13.72 14.98 0.96
11 2 4 27.96 28.53 1.19
11 3 4 35.50 36.46 1.32
11 4 4 7.36 7.66 0.58
11 5 4 3.45 3.36 0.47
11 6 4 15.63 16.98 0.97
11 7 4 5.46 5.23 0.53
11 8 4 0.98 1.45 0.42
11 9 4 12.69 11.24 0.80
11 10 4 4.04 3.48 0.47
11 0 5 7.62 9.25 0.68
11 1 5 14.84 14.93 0.99
11 2 5 35.69 36.07 1.32
11 3 5 22.81 23.35 1.08
11 4 5 2.26 2.49 0.45
11 5 5 3.73 3.17 0.47
11 6 5 47.41 49.58 1.51
11 7 5 11.43 12.54 0.90
11 8 5 0.06 0.27 0.41
11 0 6 19.74 18.73 1.06
11 1 6 5.12 4.92 0.51
11 2 6 0.46 0.95 0.44
11 3 6 28.20 28.62 1.18
11 4 6 6.56 7.17 0.62
12 0 0 10.06 9.20 0.68
12 1 0 12.97 14.25 0.96
12 2 0 5.25 5.51 0.59
12 3 0 25.78 25.42 1.15
12 4 0 2.19 2.39 0.45
12 5 0 18.10 18.03 1.01
12 6 0 21.50 20.96 1.06
12 7 0 7.56 8.25 0.58
12 8 0 0.55 0.61 0.41
12 9 0 36.81 36.78 1.31
12 0 1 12.04 12.67 0.91
12 1 1 4.83 5.25 0.52
12 2 1 4.62 3.90 0.50
12 3 1 24.57 22.99 1.13
12 4 1 7.59 9.07 0.70
12 5 1 37.62 35.35 1.32
12 6 1 0.20 0.53 0.40
12 7 1 21.29 23.33 1.12
12 8 1 9.12 10.33 0.87
12 0 2 0.80 1.01 0.41
12 1 2 5.32 5.26 0.52
12 2 2 49.86 48.67 1.51
12 3 2 1.18 1.56 0.43
12 4 2 9.31 8.87 0.77
12 5 2 8.05 7.93 0.64
12 6 2 16.01 15.48 1.00
12 7 2 5.00 5.02 0.51
12 8 2 5.73 5.45 0.59
12 0 3 0.20 1.09 0.85
12 1 3 16.38 18.47 0.99
12 2 3 0.35 0.84 0.41
12 3 3 20.45 21.28 1.08
12 4 3 1.13 1.90 0.44
12 5 3 6.80 7.21 0.71
12 6 3 1.03 0.91 0.41
12 0 4 12.27 14.54 0.95
12 1 4 45.15 45.14 1.42
12 2 4 7.80 9.29 0.85
12 3 4 16.99 17.55 1.01
