#------------------------------------------------------------------------------
#$Date: 2022-03-02 05:20:08 +0200 (Wed, 02 Mar 2022) $
#$Revision: 273207 $
#$URL: file:///home/coder/svn-repositories/cod/cif/1/56/64/1566440.cif $
#------------------------------------------------------------------------------
#
# This file is available in the Crystallography Open Database (COD),
# http://www.crystallography.net/. The original data for this entry
# were provided by IUCr Journals, http://journals.iucr.org/.
#
# The file may be used within the scientific community so long as
# proper attribution is given to the journal article from which the
# data were obtained.
#
data_1566440
loop_
_publ_author_name
'Ruth, Paul Niklas'
'Herbst-Irmer, Regine'
'Stalke, Dietmar'
_publ_section_title
;
 Hirshfeld atom refinement based on projector augmented wave densities
 with periodic boundary conditions
;
_journal_issue                   2
_journal_name_full               IUCrJ
_journal_page_first              286
_journal_page_last               297
_journal_paper_doi               10.1107/S2052252522001385
_journal_volume                  9
_journal_year                    2022
_chemical_absolute_configuration syn
_chemical_formula_moiety         'C3 H7 N O2'
_chemical_formula_sum            'C3 H7 N O2'
_chemical_formula_weight         89.0947
_space_group_crystal_system      orthorhombic
_space_group_IT_number           19
_space_group_name_Hall           'P 2ac 2ab'
_space_group_name_H-M_alt        'P 21 21 21'
_atom_sites_solution_hydrogens   difmap
_audit_creation_method           'xHARPY 0.1'
_cell_angle_alpha                90
_cell_angle_beta                 90
_cell_angle_gamma                90
_cell_formula_units_Z            4
_cell_length_a                   5.9279(10)
_cell_length_b                   12.2597(17)
_cell_length_c                   5.7939(9)
_cell_measurement_reflns_used    1524
_cell_measurement_temperature    23
_cell_measurement_theta_max      22.5
_cell_measurement_theta_min      15.0
_cell_volume                     421.07(11)
_computing_publication_material  'xHARPY 0.1'
_computing_structure_refinement  'xHARPY 0.1'
_computing_structure_solution    'SHELXS-2013 (Sheldrick, 2008)'
_diffrn_ambient_temperature      23
_diffrn_measured_fraction_theta_full 0.994
_diffrn_measured_fraction_theta_max 0.993
_diffrn_measurement_device_type  'P-1 four circle diffractometer'
_diffrn_measurement_method       'area detector'
_diffrn_radiation_type           MoK\a
_diffrn_radiation_wavelength     0.71073
_diffrn_reflns_av_unetI/netI     0.0243
_diffrn_reflns_Laue_measured_fraction_full 0.994
_diffrn_reflns_Laue_measured_fraction_max 0.993
_diffrn_reflns_limit_h_max       12
_diffrn_reflns_limit_h_min       0
_diffrn_reflns_limit_k_max       26
_diffrn_reflns_limit_k_min       0
_diffrn_reflns_limit_l_max       12
_diffrn_reflns_limit_l_min       0
_diffrn_reflns_number            2519
_diffrn_reflns_point_group_measured_fraction_full 0.618
_diffrn_reflns_point_group_measured_fraction_max 0.567
_diffrn_reflns_theta_full        25.242
_diffrn_reflns_theta_max         50.138
_diffrn_reflns_theta_min         3.323
_exptl_absorpt_coefficient_mu    0.117
_exptl_absorpt_correction_type   none
_exptl_crystal_colour            colorless
_exptl_crystal_density_diffrn    1.405
_exptl_crystal_density_method    'not measured'
_exptl_crystal_description       sphere
_exptl_crystal_F_000             192
_exptl_crystal_size_rad          0.18
_refine_diff_density_max         0.1902
_refine_diff_density_min         -0.1863
_refine_diff_density_rms         0.0435
_refine_ls_extinction_method     none
_refine_ls_goodness_of_fit_ref   1.128
_refine_ls_hydrogen_treatment    refall
_refine_ls_matrix_type           full
_refine_ls_number_parameters     118
_refine_ls_number_reflns         2519
_refine_ls_number_restraints     0
_refine_ls_R_factor_all          0.0208
_refine_ls_R_factor_gt           0.0189
_refine_ls_shift/su_max          0.0
_refine_ls_shift/su_mean         0.0
_refine_ls_structure_factor_coef Fsqd
_refine_ls_weighting_details     w=1/[\s^2^(Fo^2^)]
_refine_ls_weighting_scheme      sigma
_refine_ls_wR_factor_gt          0.0314
_refine_ls_wR_factor_ref         0.0317
_reflns_Friedel_coverage         0.0
_reflns_Friedel_fraction_full    0.0
_reflns_Friedel_fraction_max     0.0
_reflns_number_gt                2393
_reflns_number_total             2519
_reflns_threshold_expression     'I > 2\s(I)'
_cod_data_source_file            fc5060.cif
_cod_data_source_block           A23_xHARPy_PW91
_cod_database_code               1566440
loop_
_space_group_symop_operation_xyz
'x, y, z'
'-x+1/2, -y, z+1/2'
'x+1/2, -y+1/2, -z'
'-x, y+1/2, -z+1/2'
loop_
_atom_site_label
_atom_site_type_symbol
_atom_site_fract_x
_atom_site_fract_y
_atom_site_fract_z
_atom_site_U_iso_or_equiv
_atom_site_adp_type
_atom_site_occupancy
_atom_site_site_symmetry_order
O1 O 0.72675(4) 0.083788(17) 0.62433(4) 0.00661(3) Uani 1.0 1
O2 O 0.44093(4) 0.184045(17) 0.76113(4) 0.00643(3) Uani 1.0 1
N1 N 0.64720(4) 0.137517(20) 0.18303(5) 0.00525(3) Uani 1.0 1
H1 H 0.7036(11) 0.0604(5) 0.1956(14) 0.0219(18) Uani 1.0 1
H2 H 0.7788(10) 0.1899(5) 0.2082(14) 0.0189(17) Uani 1.0 1
H3 H 0.5852(12) 0.1492(5) 0.0146(12) 0.0194(17) Uani 1.0 1
C1 C 0.46631(4) 0.161072(20) 0.35444(5) 0.00433(4) Uani 1.0 1
H4 H 0.4235(9) 0.2478(4) 0.3390(11) 0.0177(15) Uani 1.0 1
C2 C 0.25990(5) 0.09068(2) 0.30334(6) 0.00680(4) Uani 1.0 1
H5 H 0.1928(10) 0.1106(5) 0.1317(12) 0.0267(18) Uani 1.0 1
H6 H 0.1281(10) 0.1050(5) 0.4298(13) 0.0262(18) Uani 1.0 1
H7 H 0.3048(10) 0.0045(5) 0.3075(14) 0.0290(20) Uani 1.0 1
C3 C 0.55407(5) 0.140794(20) 0.59992(5) 0.00407(3) Uani 1.0 1
loop_
_atom_site_aniso_label
_atom_site_aniso_U_11
_atom_site_aniso_U_22
_atom_site_aniso_U_33
_atom_site_aniso_U_23
_atom_site_aniso_U_13
_atom_site_aniso_U_12
O1 0.00678(7) 0.00720(6) 0.00586(8) 0.00051(6) -0.00061(6) 0.00247(6)
O2 0.00762(7) 0.00763(6) 0.00404(7) -0.00058(6) 0.00059(6) 0.00201(6)
N1 0.00562(7) 0.00599(7) 0.00415(8) -0.00008(6) 0.00046(6) 0.00005(6)
H1 0.023(4) 0.024(4) 0.019(5) -0.000(3) 0.009(4) 0.005(3)
H2 0.012(3) 0.023(4) 0.021(5) 0.003(4) 0.007(4) 0.000(3)
H3 0.030(4) 0.021(4) 0.007(4) -0.006(3) 0.007(4) -0.006(4)
C1 0.00498(8) 0.00456(7) 0.00344(9) 0.00004(6) -0.00027(7) 0.00044(6)
H4 0.022(3) 0.014(3) 0.017(4) 0.004(3) 0.007(3) 0.010(3)
C2 0.00570(8) 0.00873(8) 0.00595(10) -0.00043(8) -0.00060(7) -0.00130(8)
H5 0.022(4) 0.047(5) 0.011(4) 0.009(3) -0.011(3) -0.011(3)
H6 0.012(3) 0.033(4) 0.033(5) 0.004(4) 0.005(4) -0.002(3)
H7 0.034(5) 0.014(3) 0.039(5) -0.004(3) 0.003(4) -0.005(3)
C3 0.00477(7) 0.00419(7) 0.00326(9) 0.00001(6) -0.00030(7) 0.00028(7)
loop_
_atom_type_symbol
_atom_type_description
_atom_type_scat_dispersion_real
_atom_type_scat_dispersion_imag
_atom_type_scat_source
C C 0.0033 0.0016 'HAR in xHARPy 0.1'
H H 0.0000 0.0000 'HAR in xHARPy 0.1'
N N 0.0061 0.0033 'HAR in xHARPy 0.1'
O O 0.0106 0.0060 'HAR in xHARPy 0.1'
loop_
_geom_angle_atom_site_label_1
_geom_angle_atom_site_label_2
_geom_angle_atom_site_label_3
_geom_angle
C1 N1 H1 111.9(4)
C1 N1 H2 109.5(4)
H1 N1 H2 109.1(5)
C1 N1 H3 109.9(4)
H1 N1 H3 108.1(6)
H2 N1 H3 108.3(5)
N1 C1 C2 109.76(2)
N1 C1 C3 110.02(2)
C2 C1 C3 111.10(2)
N1 C1 H4 107.5(3)
C2 C1 H4 110.3(3)
C3 C1 H4 108.1(3)
C1 C2 H5 109.9(3)
C1 C2 H6 110.8(3)
H5 C2 H6 108.3(4)
C1 C2 H7 110.4(3)
H5 C2 H7 108.9(5)
H6 C2 H7 108.5(5)
O1 C3 O2 125.84(3)
O1 C3 C1 118.29(2)
O2 C3 C1 115.87(3)
loop_
_geom_bond_atom_site_label_1
_geom_bond_atom_site_label_2
_geom_bond_distance
O1 C3 1.2475(4)
O2 C3 1.2663(4)
N1 C1 1.4898(4)
N1 H1 1.006(7)
N1 H2 1.021(6)
N1 H3 1.052(7)
C1 C2 1.5263(4)
C1 C3 1.5347(4)
C1 H4 1.096(5)
C2 H5 1.098(7)
C2 H6 1.085(7)
C2 H7 1.089(6)
loop_
_refln_index_h
_refln_index_k
_refln_index_l
_refln_F_squared_calc
_refln_F_squared_meas
_refln_F_squared_sigma
0 2 0 182.98 184.65 1.76
0 4 0 5381.18 5210.22 44.66
0 6 0 90.45 90.12 1.05
0 8 0 45.50 45.57 0.72
0 10 0 0.58 0.81 0.34
0 12 0 238.47 233.88 2.67
0 14 0 56.64 58.85 1.13
0 16 0 24.49 25.36 0.86
0 18 0 226.86 228.72 2.99
0 20 0 0.03 0.22 0.34
0 22 0 133.86 136.18 2.37
0 24 0 0.06 0.23 0.38
0 26 0 5.50 6.48 0.62
0 1 1 730.42 727.86 7.36
0 2 1 119.25 120.11 1.22
0 3 1 696.49 711.95 6.43
0 4 1 95.35 98.74 1.07
0 5 1 0.26 0.23 0.17
0 6 1 475.12 477.23 4.60
0 7 1 36.57 37.10 0.61
0 8 1 44.01 44.57 0.73
0 9 1 32.61 32.24 0.67
0 10 1 135.21 137.96 1.70
0 11 1 67.73 67.03 1.11
0 12 1 76.98 76.71 1.24
0 13 1 19.88 18.92 0.69
0 14 1 39.33 38.09 0.95
0 15 1 91.67 91.40 1.57
0 16 1 0.33 2.39 9.24
0 17 1 0.89 1.14 0.35
0 18 1 61.54 60.16 1.37
0 19 1 15.84 16.23 0.90
0 20 1 28.10 27.57 1.05
0 21 1 2.08 2.70 0.42
0 23 1 1.77 1.74 0.42
0 24 1 0.03 0.17 0.39
0 25 1 2.31 3.01 0.56
0 26 1 19.75 19.88 1.24
0 0 2 2908.16 2855.94 33.47
0 1 2 517.70 535.70 6.58
0 2 2 174.49 182.43 2.08
0 3 2 56.64 56.46 0.80
0 4 2 172.62 172.02 1.80
0 5 2 557.15 569.52 5.35
0 6 2 92.21 97.17 1.17
0 7 2 5.32 5.44 0.34
0 8 2 109.38 112.26 1.41
0 9 2 21.94 23.80 0.60
0 10 2 46.18 46.47 0.87
0 11 2 84.84 84.18 1.27
0 12 2 28.60 28.39 0.76
0 13 2 21.85 21.59 0.70
0 14 2 22.30 21.39 0.76
0 15 2 182.75 182.19 2.40
0 16 2 4.10 4.47 0.41
0 17 2 63.64 61.36 1.39
0 18 2 19.60 20.50 0.92
0 19 2 118.85 120.45 2.10
0 20 2 0.88 0.98 0.41
0 21 2 46.17 46.16 1.37
0 22 2 37.46 36.99 1.30
0 23 2 16.91 18.10 1.03
0 24 2 1.83 2.50 0.46
0 25 2 21.90 22.57 1.27
0 26 2 1.71 2.57 0.50
0 1 3 82.92 84.39 1.75
0 2 3 157.21 158.51 2.94
0 3 3 203.54 206.40 2.46
0 4 3 718.88 742.53 7.81
0 5 3 79.16 81.70 1.20
0 6 3 269.25 273.64 2.86
0 7 3 22.06 22.51 0.57
0 8 3 61.31 61.94 1.00
0 9 3 146.39 143.41 1.79
0 10 3 39.95 39.81 0.84
0 11 3 69.32 70.71 1.19
0 12 3 119.96 119.48 1.70
0 13 3 145.53 146.20 2.01
0 14 3 29.25 27.95 0.86
0 15 3 91.32 90.89 1.59
0 16 3 156.68 155.53 2.27
0 17 3 48.82 47.44 1.25
0 18 3 28.03 27.13 1.00
0 19 3 3.14 2.51 0.41
0 20 3 43.81 44.65 1.35
0 21 3 0.85 0.88 0.39
0 22 3 0.61 1.16 0.41
0 23 3 26.78 28.29 1.17
0 24 3 12.26 12.78 0.92
0 25 3 5.77 5.00 0.58
0 0 4 212.28 210.67 3.92
0 1 4 38.80 40.01 1.21
0 2 4 91.92 93.50 2.06
0 3 4 7.79 8.04 0.45
0 4 4 226.78 230.56 2.85
0 5 4 0.34 0.68 0.37
0 6 4 71.37 71.27 1.24
0 7 4 30.03 29.35 0.78
0 8 4 65.86 64.79 1.08
0 9 4 7.18 7.23 0.46
0 10 4 88.63 90.77 1.39
0 11 4 98.13 98.44 1.52
0 12 4 39.61 39.19 0.96
0 13 4 11.09 11.54 0.65
0 14 4 144.19 143.10 2.10
0 15 4 46.29 45.48 1.19
0 16 4 95.11 95.12 1.75
0 17 4 5.29 5.73 0.46
0 18 4 10.21 9.68 0.74
0 19 4 3.88 3.37 0.44
0 20 4 1.67 1.84 0.41
0 21 4 0.48 0.19 0.37
0 22 4 3.59 4.37 0.50
0 23 4 0.03 0.12 0.40
0 24 4 25.91 26.70 1.14
0 25 4 2.24 2.91 0.51
0 1 5 242.72 237.22 4.54
0 2 5 140.95 137.92 2.97
0 3 5 50.15 49.44 1.54
0 4 5 389.28 390.92 4.60
0 5 5 181.35 178.56 2.44
0 6 5 0.69 0.78 0.41
0 7 5 7.08 6.66 0.53
0 8 5 149.51 145.91 2.19
0 9 5 73.61 69.69 1.43
0 10 5 9.25 7.99 0.55
0 11 5 22.07 20.84 0.78
0 12 5 1.34 1.49 0.33
0 13 5 78.15 79.56 1.51
0 14 5 2.80 3.53 0.41
0 15 5 13.41 14.17 0.79
0 16 5 13.92 13.34 0.80
0 17 5 74.02 77.38 1.67
0 18 5 2.73 2.34 0.42
0 19 5 14.30 13.69 0.90
0 20 5 0.16 0.30 0.40
0 21 5 21.26 19.73 1.04
0 22 5 4.78 5.52 0.53
0 23 5 14.22 12.58 0.96
0 24 5 0.33 0.26 0.38
0 0 6 0.68 0.79 0.63
0 1 6 95.35 94.19 2.46
0 2 6 15.46 16.28 1.03
0 3 6 0.99 1.49 0.65
0 4 6 16.99 16.06 1.09
0 5 6 86.16 86.67 1.58
0 6 6 12.19 11.23 0.66
0 7 6 145.23 142.72 2.26
0 8 6 31.83 30.15 0.99
0 9 6 12.82 14.42 0.78
0 10 6 15.93 15.68 0.83
0 11 6 119.70 117.76 1.91
0 12 6 6.42 6.34 0.56
0 13 6 4.34 4.80 0.49
0 14 6 10.96 11.75 0.74
0 15 6 0.02 0.09 0.34
0 16 6 43.73 41.73 1.28
0 17 6 29.24 29.26 1.11
0 18 6 6.93 7.84 0.69
0 19 6 43.50 44.42 1.40
0 20 6 1.33 1.85 0.43
0 21 6 22.48 21.40 1.09
0 22 6 10.36 10.63 0.78
0 23 6 17.07 17.08 1.00
0 1 7 61.79 59.06 2.06
0 2 7 555.24 543.77 9.77
0 3 7 0.00 0.47 0.77
0 4 7 12.06 11.84 1.10
0 5 7 24.64 24.20 1.44
0 6 7 43.19 43.37 1.22
0 7 7 47.70 46.87 1.28
0 8 7 1.55 1.96 0.44
0 9 7 4.44 4.96 0.52
0 10 7 10.32 9.26 0.81
0 11 7 30.25 31.55 1.19
0 12 7 5.10 5.87 0.65
0 13 7 13.18 11.70 0.80
0 14 7 1.03 1.48 0.39
0 16 7 83.90 82.08 1.83
0 17 7 0.50 1.06 0.40
0 18 7 1.44 2.32 0.44
0 19 7 5.22 6.89 0.56
0 20 7 137.87 135.87 2.46
0 21 7 0.41 0.92 0.40
0 0 8 26.18 24.59 1.52
0 1 8 2.97 3.60 0.95
0 2 8 9.69 8.75 1.15
0 3 8 16.63 15.79 1.35
0 4 8 1.91 1.74 0.95
0 6 8 10.24 10.32 0.82
0 7 8 58.44 59.92 1.57
0 8 8 89.85 87.92 1.94
0 9 8 11.31 12.32 0.87
0 10 8 5.38 6.57 0.70
0 11 8 41.29 40.29 1.41
0 12 8 40.26 40.42 1.45
0 13 8 32.78 32.30 1.35
0 14 8 11.17 12.60 0.99
0 15 8 0.07 0.56 0.39
0 16 8 0.58 1.00 0.40
0 17 8 7.24 6.60 0.55
0 18 8 0.29 0.58 0.40
0 19 8 10.33 9.27 0.77
0 20 8 5.68 6.19 0.53
0 1 9 6.72 8.56 1.17
0 2 9 48.42 46.60 2.21
0 3 9 63.09 63.65 2.54
0 4 9 21.17 22.33 1.63
0 5 9 1.32 1.66 0.96
0 6 9 1.35 1.59 0.99
0 7 9 47.69 46.75 1.53
0 8 9 79.70 80.04 1.95
0 9 9 17.20 16.55 1.08
0 10 9 13.93 13.92 1.03
0 11 9 1.77 2.26 0.53
0 12 9 35.69 35.05 1.40
0 13 9 29.20 29.29 1.35
0 14 9 0.68 0.29 0.49
0 15 9 46.41 47.53 1.65
0 16 9 13.50 14.52 1.10
0 17 9 15.36 15.60 0.99
0 18 9 8.42 8.62 0.65
0 0 10 5.19 4.83 1.24
0 1 10 0.00 0.01 1.01
0 2 10 21.29 20.80 1.74
0 3 10 49.47 49.20 2.43
0 4 10 27.83 28.47 1.95
0 5 10 32.87 32.86 2.07
0 6 10 41.32 41.81 2.34
0 7 10 54.29 54.61 2.61
0 8 10 58.59 60.49 1.81
0 9 10 6.75 6.77 0.66
0 10 10 1.24 1.87 0.52
0 11 10 17.61 16.46 1.15
0 12 10 12.04 13.49 0.93
0 13 10 11.52 12.60 1.05
0 14 10 46.45 43.78 1.63
0 15 10 5.05 5.88 0.65
0 1 11 0.63 0.49 1.22
0 2 11 2.00 2.71 1.24
0 3 11 7.69 6.83 1.49
0 4 11 1.16 0.92 1.30
0 5 11 1.54 0.90 1.30
0 6 11 8.88 7.76 1.54
0 7 11 2.46 3.11 1.36
0 8 11 7.86 8.44 1.54
0 9 11 7.80 8.04 0.77
0 10 11 0.78 1.58 0.54
0 11 11 9.27 8.39 0.84
0 12 11 31.54 30.31 1.41
0 0 12 0.04 2.49 9.24
0 1 12 29.03 27.14 2.26
0 2 12 19.08 20.30 1.97
0 3 12 119.47 116.78 3.98
0 4 12 0.33 0.42 1.42
0 5 12 9.39 9.83 1.73
0 6 12 54.68 56.05 2.77
0 7 12 69.50 65.14 3.05
1 1 0 252.17 252.74 2.38
1 2 0 5389.47 5514.10 58.39
1 3 0 58.70 59.40 0.69
1 4 0 1719.12 1686.85 14.84
1 5 0 334.98 340.07 3.30
1 6 0 63.96 62.18 0.80
1 7 0 19.63 19.35 0.44
1 8 0 396.73 404.14 4.02
1 9 0 2.64 3.28 0.34
1 10 0 41.75 43.27 0.81
1 11 0 95.60 97.37 1.36
1 12 0 25.82 27.05 0.71
1 13 0 58.80 57.61 1.09
1 14 0 1.50 0.87 0.44
1 15 0 85.62 86.74 1.48
1 16 0 24.51 24.58 0.85
1 17 0 30.52 29.69 0.96
1 18 0 0.82 0.94 0.39
1 19 0 34.35 33.90 1.10
1 20 0 42.28 40.47 1.25
1 21 0 1.20 1.44 0.43
1 22 0 3.84 4.01 0.47
1 23 0 6.14 7.04 0.61
1 24 0 9.81 9.84 0.79
1 26 0 6.69 7.36 0.64
1 0 1 73.99 77.17 0.84
1 1 1 130.08 134.24 1.36
1 2 1 101.91 104.64 1.11
1 3 1 1085.53 1093.04 9.73
1 4 1 155.40 157.82 1.65
1 5 1 437.90 440.07 4.25
1 6 1 21.16 22.00 0.44
1 7 1 335.14 341.05 3.42
1 8 1 231.02 235.77 2.49
1 9 1 231.59 233.46 2.54
1 10 1 134.73 131.88 1.68
1 11 1 17.28 17.23 0.56
1 12 1 1.15 0.36 0.36
1 13 1 129.31 128.28 1.78
1 14 1 30.51 29.73 0.83
1 15 1 88.95 88.07 1.53
1 16 1 62.15 62.09 1.30
1 17 1 25.43 25.56 0.91
1 18 1 23.36 23.90 0.93
1 19 1 14.67 15.39 0.83
1 20 1 6.44 5.86 0.49
1 21 1 1.45 2.07 0.41
1 22 1 33.40 34.94 1.21
1 23 1 9.53 10.71 0.89
1 24 1 21.87 21.04 1.08
1 25 1 8.69 9.54 0.82
1 26 1 0.77 2.01 0.49
1 0 2 3273.71 3121.09 36.32
1 1 2 68.97 72.03 0.94
1 2 2 565.56 575.34 6.15
1 3 2 193.95 195.08 2.03
1 4 2 1063.87 1069.65 9.68
1 5 2 18.60 18.70 0.41
1 6 2 216.22 220.61 2.32
1 7 2 164.11 162.87 1.83
1 8 2 10.76 10.30 0.44
1 9 2 59.06 62.12 0.99
1 10 2 60.14 59.78 1.00
1 11 2 117.94 118.55 1.60
1 12 2 118.73 116.00 1.63
1 13 2 112.33 110.78 1.64
1 14 2 55.03 54.99 1.14
1 15 2 30.97 31.80 0.93
1 16 2 29.37 27.77 0.95
1 17 2 77.77 76.11 1.53
1 18 2 109.69 110.66 1.94
1 19 2 40.27 41.42 1.21
1 20 2 10.38 9.75 0.71
1 21 2 22.12 22.99 1.03
1 22 2 38.80 36.77 1.28
1 23 2 43.63 43.63 1.43
1 24 2 9.68 10.70 0.80
1 25 2 0.09 0.15 0.43
1 26 2 3.68 4.52 0.56
1 0 3 30.36 32.21 0.93
1 1 3 293.77 304.11 5.25
1 2 3 221.56 225.92 2.65
1 3 3 89.14 92.21 1.28
1 4 3 93.00 96.16 1.35
1 5 3 23.26 23.15 0.53
1 6 3 135.09 138.83 1.64
1 7 3 4.98 5.21 0.38
1 8 3 258.38 258.97 2.82
1 9 3 29.52 29.16 0.71
1 10 3 79.15 80.10 1.25
1 11 3 15.61 16.75 0.60
1 12 3 32.64 32.46 0.84
1 13 3 35.16 33.98 0.91
1 14 3 115.94 115.44 1.79
1 15 3 34.41 33.66 0.99
1 16 3 10.07 9.34 0.62
1 17 3 26.11 25.16 0.95
1 18 3 27.71 26.66 1.01
1 19 3 27.82 27.36 1.06
1 20 3 7.93 7.80 0.66
1 21 3 24.25 23.71 1.05
1 22 3 6.71 7.23 0.61
1 23 3 2.91 2.76 0.46
1 24 3 8.13 8.18 0.65
1 25 3 15.81 18.00 1.16
1 0 4 331.00 330.10 5.86
1 1 4 251.96 261.40 4.75
1 2 4 28.21 28.90 1.05
1 3 4 22.74 23.53 0.65
1 4 4 109.11 110.25 1.58
1 5 4 82.49 84.13 1.35
1 6 4 132.34 131.04 1.88
1 7 4 84.93 84.16 1.24
1 8 4 45.68 45.41 0.89
1 9 4 2.19 2.19 0.39
1 10 4 22.20 22.83 0.71
1 11 4 64.70 62.68 1.18
1 12 4 146.76 141.61 2.00
1 13 4 25.80 27.27 0.86
1 14 4 42.36 39.62 1.07
1 15 4 2.16 2.99 0.40
1 16 4 22.33 23.71 0.92
1 17 4 26.92 28.24 1.02
1 18 4 57.13 58.89 1.47
1 19 4 40.19 41.02 1.26
1 20 4 9.07 9.29 0.80
1 21 4 11.25 10.86 0.79
1 22 4 21.03 21.89 1.05
1 23 4 14.67 15.16 0.96
1 24 4 2.25 2.15 0.44
1 0 5 287.07 286.05 5.33
1 1 5 121.92 123.07 2.72
1 2 5 476.54 466.17 8.17
1 3 5 180.46 177.23 3.66
1 4 5 112.24 108.68 1.69
1 5 5 8.65 8.61 0.53
1 6 5 229.40 230.96 3.03
1 7 5 74.27 73.34 1.40
1 8 5 71.52 69.70 1.38
1 9 5 93.09 90.52 1.47
1 10 5 9.89 9.57 0.58
1 11 5 35.03 36.05 0.96
1 12 5 25.07 25.21 0.87
1 13 5 45.01 44.97 1.16
1 14 5 40.13 40.41 1.12
1 15 5 29.85 30.00 1.03
1 16 5 75.01 79.03 1.64
1 17 5 11.25 11.52 0.81
1 18 5 7.41 7.00 0.65
1 19 5 18.12 18.78 0.98
1 20 5 65.53 65.01 1.65
1 21 5 25.18 25.24 1.12
1 22 5 1.49 1.74 0.43
1 23 5 3.49 4.60 0.50
1 24 5 18.08 17.53 1.00
1 0 6 0.58 0.07 0.63
1 1 6 0.49 0.90 0.62
1 2 6 7.93 7.59 0.84
1 3 6 13.01 12.49 0.99
1 4 6 16.61 16.08 1.09
1 5 6 12.89 13.36 0.67
1 6 6 22.34 22.00 0.82
1 7 6 7.58 7.82 0.62
1 8 6 10.09 9.14 0.68
1 9 6 11.70 11.13 0.77
1 10 6 2.79 2.44 0.44
1 11 6 10.85 9.89 0.68
1 12 6 29.97 29.16 0.96
1 13 6 7.66 7.58 0.61
1 14 6 28.10 28.17 1.01
1 15 6 11.89 11.07 0.82
1 16 6 3.01 3.00 0.43
1 17 6 21.11 21.64 1.01
1 18 6 13.88 13.93 0.90
1 19 6 10.99 11.87 0.87
1 20 6 33.63 31.77 1.25
1 21 6 9.11 9.46 0.78
1 22 6 10.26 8.67 0.76
1 23 6 11.71 12.10 0.89
1 0 7 251.57 249.26 5.18
1 1 7 26.41 27.00 1.46
1 2 7 60.21 61.69 2.13
1 3 7 80.76 81.89 2.50
1 4 7 145.35 142.08 3.53
1 5 7 29.37 30.75 1.05
1 6 7 63.13 62.07 1.48
1 7 7 10.57 9.57 0.77
1 8 7 57.83 56.66 1.46
1 9 7 68.47 67.75 1.62
1 10 7 18.03 18.86 0.96
1 11 7 21.73 21.96 0.92
1 12 7 2.61 1.92 0.46
1 13 7 41.33 42.58 1.26
1 14 7 26.17 24.76 1.05
1 15 7 34.50 32.50 1.18
1 16 7 23.42 26.00 1.08
1 17 7 19.42 20.62 1.02
1 18 7 45.31 43.29 1.40
1 19 7 6.84 6.79 0.62
1 20 7 14.45 15.53 0.99
1 21 7 9.24 9.36 0.67
1 0 8 10.10 10.50 1.21
1 1 8 34.21 35.54 1.80
1 2 8 19.49 19.97 1.44
1 3 8 31.40 32.30 1.72
1 4 8 33.61 32.98 1.76
1 5 8 104.23 102.85 3.13
1 6 8 16.25 15.14 0.93
1 7 8 95.55 91.90 1.97
1 8 8 3.68 3.26 0.49
1 9 8 51.12 51.54 1.53
1 10 8 41.97 39.97 1.39
1 11 8 94.60 96.11 2.13
1 12 8 12.90 11.84 0.98
1 13 8 28.70 28.49 1.27
1 14 8 1.96 1.21 0.51
1 15 8 43.90 46.56 1.39
1 16 8 5.28 5.62 0.52
1 17 8 29.02 26.99 1.19
1 18 8 4.51 5.49 0.52
1 19 8 1.89 2.28 0.44
1 20 8 0.04 0.11 0.39
1 0 9 0.14 0.04 0.93
1 1 9 3.16 2.24 1.00
1 2 9 50.52 51.85 2.28
1 3 9 1.24 1.64 0.99
1 4 9 3.75 3.28 1.14
1 5 9 28.27 28.77 1.84
1 6 9 8.85 10.11 1.31
1 7 9 14.73 15.97 1.02
1 8 9 8.05 8.40 0.74
1 9 9 19.92 19.96 1.12
1 10 9 31.53 29.76 1.32
1 11 9 45.28 46.38 1.59
1 12 9 8.44 9.00 0.83
1 13 9 17.00 16.19 1.14
1 14 9 7.34 7.97 0.83
1 15 9 21.72 22.38 1.25
1 16 9 43.04 43.20 1.59
1 17 9 18.08 18.41 1.05
1 18 9 11.86 11.64 0.90
1 0 10 2.69 3.50 1.18
1 1 10 24.40 25.89 1.89
1 2 10 2.22 1.57 1.13
1 3 10 17.89 20.28 1.73
1 4 10 21.73 21.84 1.83
1 5 10 33.22 32.90 2.10
1 6 10 40.70 41.86 2.32
1 7 10 33.26 31.89 2.12
1 8 10 24.47 24.68 1.26
1 9 10 7.56 7.43 0.82
1 10 10 60.82 56.32 1.81
1 11 10 15.62 16.40 1.15
1 12 10 48.16 45.86 1.65
1 13 10 0.10 0.23 0.51
1 14 10 7.83 6.62 0.67
1 15 10 11.10 10.60 0.89
1 0 11 1.56 0.81 1.30
1 1 11 13.59 12.08 1.62
1 2 11 34.73 34.03 2.28
1 3 11 23.94 23.55 1.96
1 4 11 11.86 11.98 1.63
1 5 11 5.22 6.18 1.46
1 6 11 2.94 3.98 1.36
1 7 11 7.82 8.66 1.59
1 8 11 16.58 15.73 1.19
1 9 11 25.07 23.67 1.32
1 10 11 19.50 18.85 1.23
1 11 11 2.75 3.63 0.60
1 12 11 0.79 1.63 0.53
1 0 12 16.67 17.99 1.94
1 1 12 76.12 76.47 3.20
1 2 12 9.31 8.35 1.75
1 3 12 3.11 3.25 1.57
1 4 12 27.94 29.23 2.23
1 5 12 71.88 69.04 3.13
1 6 12 2.74 2.87 1.53
1 7 12 23.95 23.00 2.10
2 0 0 41.01 42.13 0.54
2 1 0 31.36 31.28 0.44
2 2 0 1718.10 1686.82 14.86
2 3 0 796.97 790.37 7.21
2 4 0 35.68 36.02 0.53
2 5 0 92.29 91.57 1.09
2 6 0 2114.82 2091.21 18.57
2 7 0 293.44 295.16 3.02
2 8 0 0.43 0.77 0.30
2 9 0 237.37 236.08 2.60
2 10 0 250.77 255.57 2.80
2 11 0 2.12 2.43 0.36
2 12 0 45.79 43.61 0.92
2 13 0 167.91 168.78 2.15
2 14 0 12.02 10.98 0.61
2 15 0 72.19 70.29 1.33
2 16 0 39.25 37.17 1.03
2 17 0 36.59 35.85 1.05
2 18 0 43.52 43.91 1.21
2 19 0 36.48 37.94 1.17
2 20 0 1.69 0.93 0.37
2 21 0 8.50 7.77 0.65
2 22 0 15.90 15.19 0.93
2 23 0 10.81 11.22 0.88
2 24 0 32.76 32.54 1.25
2 25 0 3.13 4.14 0.58
2 26 0 1.01 1.08 0.45
2 0 1 1.40 1.64 0.16
2 1 1 78.63 78.38 0.89
2 2 1 277.38 278.75 2.74
2 3 1 522.68 539.04 5.07
2 4 1 154.60 158.56 1.68
2 5 1 421.90 428.84 4.17
2 6 1 22.98 23.03 0.49
2 7 1 95.94 98.45 1.24
2 8 1 4.01 4.86 0.36
2 9 1 276.04 274.51 2.96
2 10 1 9.11 8.75 0.46
2 11 1 5.32 4.78 0.44
2 12 1 41.97 40.89 0.89
2 13 1 81.91 80.21 1.36
2 14 1 43.78 44.95 1.03
2 15 1 21.99 23.87 0.81
2 16 1 3.44 3.58 0.40
2 17 1 11.65 10.12 0.69
2 18 1 10.54 10.00 0.73
2 19 1 29.23 29.38 1.06
2 20 1 70.32 72.01 1.64
2 21 1 27.45 29.02 1.12
2 22 1 23.59 23.45 1.08
2 23 1 2.90 2.58 0.45
2 24 1 38.10 41.34 1.35
2 25 1 22.59 23.11 1.33
2 26 1 29.45 30.62 1.46
2 0 2 4.37 4.22 0.23
2 1 2 304.92 310.12 3.07
2 2 2 1085.00 1089.74 9.86
2 3 2 109.03 107.61 1.26
2 4 2 88.77 89.51 1.10
2 5 2 7.66 8.44 0.35
2 6 2 288.56 293.53 3.03
2 7 2 139.84 141.07 1.67
2 8 2 142.70 144.79 1.76
2 9 2 129.60 128.78 1.63
2 10 2 2.70 2.66 0.37
2 11 2 65.46 64.43 1.12
2 12 2 57.92 57.59 1.09
2 13 2 74.09 73.86 1.31
2 14 2 32.64 33.99 0.92
2 15 2 33.09 31.98 0.94
2 16 2 77.88 73.60 1.47
2 17 2 0.10 0.07 0.34
2 18 2 9.69 10.87 0.74
2 19 2 1.29 1.14 0.36
2 20 2 31.16 32.00 1.13
2 21 2 29.46 30.40 1.17
2 22 2 3.29 3.58 0.47
2 23 2 1.68 2.55 0.45
2 24 2 9.16 8.76 0.77
2 25 2 40.83 40.12 1.67
2 0 3 134.35 132.76 1.54
2 1 3 139.47 141.10 1.59
2 2 3 375.59 385.61 3.83
2 3 3 448.55 450.51 4.46
2 4 3 64.70 66.19 0.94
2 5 3 251.71 250.67 2.68
2 6 3 89.60 91.48 1.24
2 7 3 107.40 109.18 1.42
2 8 3 121.63 120.27 1.55
2 9 3 290.75 290.96 3.20
2 10 3 255.83 258.31 2.94
2 11 3 12.42 12.08 0.58
2 12 3 86.04 84.93 1.42
2 13 3 43.59 44.10 1.04
2 14 3 50.38 48.44 1.14
2 15 3 17.02 17.06 0.80
2 16 3 2.27 2.80 0.40
2 17 3 11.22 12.83 0.76
2 18 3 2.79 2.12 0.39
2 19 3 39.01 39.06 1.22
2 20 3 9.09 9.93 0.67
2 21 3 43.72 43.56 1.38
2 22 3 8.95 7.84 0.72
2 23 3 4.01 5.24 0.57
2 24 3 0.01 0.04 0.40
2 25 3 12.68 13.13 1.08
2 0 4 54.20 57.07 1.54
2 1 4 105.42 107.45 1.55
2 2 4 128.30 131.85 1.84
2 3 4 134.17 134.08 1.86
2 4 4 13.10 13.07 0.57
2 5 4 61.88 60.15 0.99
2 6 4 110.46 108.78 1.46
2 7 4 104.28 103.03 1.44
2 8 4 116.86 117.11 1.60
2 9 4 47.66 48.89 0.98
2 10 4 140.53 139.05 1.89
2 11 4 51.04 50.08 1.08
2 12 4 13.45 12.75 0.66
2 13 4 0.41 0.40 0.33
2 14 4 12.82 11.76 0.71
2 15 4 12.76 12.90 0.75
2 16 4 25.25 25.33 0.92
2 17 4 40.28 38.96 1.19
2 18 4 26.78 25.51 1.05
2 19 4 8.71 8.76 0.71
2 20 4 25.06 26.79 1.10
2 21 4 19.86 20.39 1.05
2 22 4 18.49 16.88 1.04
2 23 4 21.28 23.57 1.08
2 24 4 4.55 3.36 0.47
2 0 5 145.83 145.26 3.12
2 1 5 34.96 34.15 1.31
2 2 5 164.06 162.20 2.26
2 3 5 31.12 31.80 0.85
2 4 5 148.61 149.14 2.13
2 5 5 63.63 64.08 1.25
2 6 5 12.21 12.55 0.64
2 7 5 14.85 14.23 0.71
2 8 5 62.10 63.08 1.17
2 9 5 25.93 26.34 0.81
2 10 5 139.43 139.37 1.99
2 11 5 60.73 60.66 1.27
2 12 5 14.90 14.39 0.74
2 13 5 1.36 2.27 0.37
2 14 5 94.29 92.93 1.73
2 15 5 11.83 12.77 0.77
2 16 5 1.06 1.14 0.36
2 17 5 5.35 5.36 0.49
2 18 5 45.11 44.56 1.37
2 19 5 9.75 11.18 0.84
2 20 5 1.34 1.42 0.42
2 21 5 0.96 0.95 0.41
2 22 5 20.04 21.08 1.05
2 23 5 16.84 16.54 1.03
2 0 6 75.51 76.88 2.22
2 1 6 93.52 94.48 2.52
2 2 6 2.31 2.32 0.72
2 3 6 2.07 2.27 0.58
2 4 6 22.38 22.76 0.83
2 5 6 100.26 99.12 1.76
2 6 6 0.38 0.60 0.49
2 7 6 77.94 77.57 1.57
2 8 6 0.15 0.23 0.52
2 9 6 3.72 4.95 0.49
2 10 6 10.68 12.18 0.69
2 11 6 104.69 105.05 1.80
2 12 6 8.19 7.92 0.55
2 13 6 61.40 62.67 1.42
2 14 6 10.76 11.33 0.75
2 15 6 58.07 57.09 1.44
2 16 6 15.15 15.45 0.90
2 17 6 47.42 47.18 1.37
2 18 6 49.82 49.92 1.46
2 19 6 1.54 2.36 0.44
2 20 6 3.87 3.83 0.49
2 21 6 14.13 13.82 0.96
2 22 6 46.10 45.97 1.43
2 0 7 7.38 7.46 0.99
2 1 7 45.64 44.18 1.83
2 2 7 12.78 12.63 1.13
2 3 7 14.39 14.56 1.20
2 4 7 136.02 131.08 2.69
2 5 7 72.23 71.40 1.58
2 6 7 30.13 29.49 1.06
2 7 7 85.92 84.14 1.79
2 8 7 81.59 82.84 1.78
2 9 7 4.57 5.01 0.53
2 10 7 9.03 9.54 0.80
2 11 7 96.20 98.16 2.07
2 12 7 1.38 2.19 0.39
2 13 7 48.70 49.19 1.37
2 14 7 38.43 40.48 1.26
2 15 7 32.73 32.95 1.20
2 16 7 4.42 4.31 0.49
2 17 7 50.10 51.12 1.48
2 18 7 9.32 9.95 0.77
2 19 7 6.06 7.05 0.64
2 20 7 0.33 0.99 0.41
2 21 7 11.69 10.45 0.80
2 0 8 55.90 54.39 2.21
2 1 8 59.18 59.16 2.31
2 2 8 25.31 23.71 1.59
2 3 8 27.60 29.20 1.69
2 4 8 16.67 16.02 1.39
2 5 8 58.37 56.86 1.53
2 6 8 50.95 47.32 1.45
2 7 8 44.42 42.06 1.37
2 8 8 0.08 0.31 0.41
2 9 8 11.44 11.83 0.81
2 10 8 1.24 1.41 0.49
2 11 8 9.81 8.57 0.78
2 12 8 0.43 0.02 0.44
2 13 8 34.16 31.60 1.37
2 14 8 8.37 10.03 0.82
2 15 8 6.76 7.06 0.70
2 16 8 2.37 3.27 0.47
2 17 8 24.31 23.63 1.14
2 18 8 1.62 1.92 0.44
2 19 8 5.71 6.76 0.55
2 0 9 73.50 76.13 2.78
2 1 9 15.92 17.58 1.51
2 2 9 111.02 110.00 3.45
2 3 9 4.96 5.39 1.11
2 4 9 48.71 49.06 2.31
2 5 9 10.88 11.53 1.40
2 6 9 51.11 50.14 1.58
2 7 9 10.49 10.63 0.93
2 8 9 1.98 3.37 0.54
2 9 9 38.88 38.58 1.44
2 10 9 12.49 14.20 1.03
2 11 9 15.00 15.72 1.08
2 12 9 17.07 17.46 1.14
2 13 9 33.89 35.33 1.47
2 14 9 69.90 72.71 2.00
2 15 9 0.35 1.10 0.52
2 16 9 16.07 15.62 1.01
2 17 9 3.85 4.36 0.53
2 0 10 50.53 49.98 2.46
2 1 10 68.81 67.57 2.84
2 2 10 2.09 2.88 1.19
2 3 10 6.73 6.61 1.34
2 4 10 4.58 4.71 1.26
2 5 10 47.13 46.94 2.42
2 6 10 16.63 17.07 1.68
2 7 10 27.07 26.37 1.33
2 8 10 31.32 30.57 1.41
2 9 10 11.85 12.30 0.92
2 10 10 33.11 33.69 1.46
2 11 10 42.78 44.58 1.59
2 12 10 48.22 48.60 1.69
2 13 10 6.87 7.14 0.68
2 14 10 17.20 17.19 1.16
2 15 10 2.83 2.97 0.57
2 0 11 12.17 12.67 1.68
2 1 11 10.88 9.98 1.60
2 2 11 3.95 3.33 1.37
2 3 11 5.93 7.30 1.46
2 4 11 2.97 2.29 1.42
2 5 11 1.34 0.71 1.31
2 6 11 13.95 13.72 1.68
2 7 11 1.01 0.52 1.31
2 8 11 6.11 5.69 0.66
2 9 11 0.22 0.31 0.51
2 10 11 5.69 6.34 0.79
2 11 11 3.52 4.62 0.62
2 0 12 47.20 46.94 2.66
2 1 12 22.19 20.69 2.11
2 2 12 6.93 6.25 1.63
2 3 12 39.82 42.85 2.54
2 4 12 10.90 11.25 1.79
2 5 12 2.02 2.27 1.53
2 6 12 30.77 29.51 2.22
3 1 0 29.98 31.16 0.51
3 3 0 68.22 69.52 0.89
3 4 0 406.28 415.47 4.05
3 5 0 208.79 209.56 2.23
3 6 0 38.04 39.61 0.70
3 7 0 245.12 244.21 2.62
3 8 0 79.07 81.13 1.16
3 9 0 111.30 108.26 1.44
3 10 0 30.28 30.18 0.73
3 11 0 256.30 252.56 2.88
3 12 0 9.75 8.23 0.53
3 13 0 2.98 2.75 0.45
3 14 0 2.80 3.77 0.49
3 15 0 23.39 24.15 0.85
3 16 0 44.83 43.12 1.14
3 17 0 41.78 42.50 1.17
3 18 0 1.65 2.14 0.37
3 19 0 2.67 2.96 0.41
3 20 0 26.21 28.06 1.08
3 21 0 30.25 30.52 1.15
3 22 0 3.88 4.10 0.49
3 23 0 0.04 0.06 0.40
3 24 0 9.23 8.09 0.66
3 25 0 28.36 29.71 1.43
3 0 1 174.15 176.48 1.87
3 1 1 358.33 370.71 3.66
3 2 1 57.52 59.24 0.79
3 3 1 430.04 436.33 4.27
3 4 1 82.45 82.26 1.05
3 5 1 24.42 24.41 0.53
3 6 1 66.61 69.28 0.99
3 7 1 160.83 159.95 1.86
3 8 1 42.97 42.91 0.81
3 9 1 395.67 383.88 4.04
3 10 1 37.33 37.08 0.82
3 11 1 55.49 53.83 1.04
3 12 1 56.62 54.66 1.09
3 13 1 90.54 89.97 1.52
3 14 1 27.56 27.19 0.86
3 15 1 1.56 2.00 0.37
3 16 1 38.26 39.56 1.10
3 17 1 31.24 30.33 1.01
3 18 1 52.81 51.32 1.33
3 19 1 18.97 19.82 0.93
3 20 1 3.90 3.72 0.46
3 21 1 63.98 67.99 1.64
3 22 1 65.37 62.27 1.64
3 23 1 15.29 15.54 0.96
3 24 1 27.67 29.96 1.21
3 25 1 6.45 7.84 0.77
3 0 2 0.15 0.10 0.23
3 1 2 183.55 180.56 1.97
3 2 2 268.20 273.07 2.80
3 3 2 267.61 268.05 2.78
3 4 2 55.46 55.32 0.86
3 5 2 317.28 316.35 3.28
3 6 2 637.19 641.00 6.28
3 7 2 6.19 7.34 0.42
3 8 2 90.33 89.41 1.27
3 9 2 63.04 62.52 1.06
3 10 2 257.51 255.08 2.89
3 11 2 36.94 34.77 0.85
3 12 2 108.91 106.93 1.63
3 13 2 26.53 26.34 0.82
3 14 2 6.84 6.67 0.59
3 15 2 12.86 12.96 0.72
3 16 2 35.78 36.88 1.06
3 17 2 28.60 28.66 1.00
3 18 2 8.89 9.09 0.72
3 19 2 6.49 5.56 0.55
3 20 2 11.72 11.62 0.84
3 21 2 0.74 0.59 0.39
3 22 2 2.82 2.82 0.46
3 23 2 10.20 9.85 0.87
3 24 2 26.69 27.69 1.18
3 25 2 4.46 4.56 0.56
3 0 3 177.66 184.24 2.06
3 1 3 252.45 252.60 2.68
3 2 3 16.55 17.47 0.51
3 3 3 168.59 167.98 1.93
3 4 3 12.31 12.67 0.48
3 5 3 209.16 215.01 2.39
3 6 3 3.35 3.41 0.38
3 7 3 257.47 255.50 2.84
3 8 3 42.71 43.27 0.88
3 9 3 25.48 26.28 0.73
3 10 3 11.88 11.61 0.57
3 11 3 77.42 76.25 1.32
3 12 3 41.52 40.35 0.98
3 13 3 11.14 12.47 0.67
3 14 3 9.48 9.11 0.60
3 15 3 12.57 12.09 0.73
3 16 3 1.72 2.06 0.39
3 17 3 8.79 8.22 0.64
3 18 3 0.35 0.20 0.34
3 19 3 9.80 10.33 0.82
3 20 3 6.99 6.14 0.52
3 21 3 1.91 1.62 0.41
3 22 3 6.55 6.42 0.55
3 23 3 40.31 39.99 1.38
3 24 3 7.07 8.54 0.73
3 0 4 11.00 11.64 0.47
3 1 4 114.83 113.84 1.48
3 2 4 30.11 31.10 0.70
3 3 4 81.35 80.46 1.19
3 4 4 24.54 25.11 0.65
3 5 4 276.23 271.77 3.01
3 6 4 82.72 80.35 1.25
3 7 4 58.43 59.80 1.08
3 8 4 53.89 54.13 1.05
3 9 4 66.85 67.69 1.22
3 10 4 21.77 21.09 0.73
3 11 4 30.70 29.15 0.88
3 12 4 29.54 30.11 0.91
3 13 4 104.98 105.14 1.75
3 14 4 10.00 10.09 0.68
3 15 4 38.07 37.75 1.12
3 16 4 16.36 17.36 0.85
3 17 4 32.35 32.32 1.12
3 18 4 24.19 25.59 1.06
3 19 4 17.62 16.95 0.94
3 20 4 20.76 20.94 1.01
3 21 4 24.11 25.86 1.12
3 22 4 7.02 7.00 0.62
3 23 4 9.99 10.10 0.87
3 24 4 1.00 1.10 0.41
3 0 5 52.14 50.17 0.98
3 1 5 44.93 44.92 0.92
3 2 5 37.13 35.63 0.84
3 3 5 71.63 73.57 1.22
3 4 5 71.18 71.96 1.22
3 5 5 73.03 72.72 1.25
3 6 5 42.89 44.20 0.96
3 7 5 124.38 123.12 1.77
3 8 5 193.30 188.00 2.40
3 9 5 1.67 1.83 0.47
3 10 5 136.42 134.14 2.00
3 11 5 5.70 7.33 0.53
3 12 5 126.32 124.04 1.97
3 13 5 9.93 10.32 0.72
3 14 5 68.72 64.22 1.47
3 15 5 44.11 44.43 1.26
3 16 5 9.76 10.06 0.78
3 17 5 2.83 3.15 0.44
3 18 5 5.58 6.43 0.53
3 19 5 12.43 10.65 0.78
3 20 5 1.87 2.84 0.46
3 21 5 3.30 3.60 0.49
3 22 5 15.56 15.20 1.00
3 23 5 2.95 3.79 0.48
3 1 6 3.69 3.80 0.51
3 2 6 42.09 41.89 1.10
3 3 6 4.76 4.85 0.56
3 4 6 10.33 9.60 0.68
3 5 6 21.44 21.12 0.86
3 6 6 19.77 18.71 0.86
3 7 6 40.37 39.52 1.15
3 8 6 19.71 18.85 0.80
3 9 6 31.86 32.56 0.98
3 10 6 23.97 24.10 0.89
3 11 6 69.37 68.18 1.46
3 12 6 2.83 3.62 0.43
3 13 6 58.08 56.77 1.41
3 14 6 24.51 25.86 1.02
3 15 6 6.99 7.22 0.58
3 16 6 41.63 41.88 1.31
3 17 6 24.22 24.08 1.07
3 18 6 10.51 10.22 0.77
3 19 6 21.37 21.91 1.09
3 20 6 61.74 63.74 1.67
3 21 6 5.18 5.80 0.53
3 22 6 5.86 5.18 0.51
3 0 7 5.97 5.94 1.01
3 1 7 0.49 0.85 0.84
3 2 7 154.64 152.07 3.75
3 3 7 30.97 29.13 1.08
3 4 7 10.69 9.68 0.79
3 5 7 33.25 32.22 1.14
3 6 7 12.67 12.06 0.85
3 7 7 35.85 36.17 1.21
3 8 7 13.03 11.20 0.86
3 9 7 107.05 109.42 2.14
3 10 7 50.54 50.87 1.32
3 11 7 6.20 6.19 0.48
3 12 7 2.55 2.40 0.40
3 13 7 37.96 38.28 1.24
3 14 7 49.37 49.29 1.39
3 15 7 37.42 37.37 1.27
3 16 7 2.92 2.80 0.45
3 17 7 3.11 2.85 0.46
3 18 7 7.68 7.87 0.64
3 19 7 21.57 20.94 1.09
3 20 7 10.20 9.21 0.76
3 21 7 5.12 5.22 0.51
3 0 8 1.89 2.14 1.01
3 1 8 115.16 114.34 3.34
3 2 8 58.23 59.77 2.36
3 3 8 45.58 46.06 2.10
3 4 8 40.14 39.18 1.31
3 5 8 39.73 38.75 1.31
3 6 8 26.70 26.34 1.14
3 7 8 29.98 30.40 1.21
3 8 8 34.64 33.56 1.30
3 9 8 22.73 22.28 1.12
3 10 8 5.42 4.42 0.57
3 11 8 100.39 100.44 2.23
3 12 8 16.93 17.36 1.08
3 13 8 7.35 6.34 0.59
3 14 8 4.44 4.60 0.50
3 15 8 17.97 18.11 0.99
3 16 8 17.55 15.43 0.99
3 17 8 10.54 11.27 0.90
3 18 8 9.06 8.36 0.65
3 19 8 21.75 23.20 1.11
3 0 9 70.98 69.35 2.72
3 1 9 11.72 12.00 1.41
3 2 9 20.16 19.48 1.62
3 3 9 13.42 14.02 1.50
3 4 9 101.10 102.45 3.39
3 5 9 0.06 0.14 0.47
3 6 9 8.21 8.13 0.66
3 7 9 8.37 9.07 0.75
3 8 9 45.19 43.46 1.54
3 9 9 6.46 6.33 0.64
3 10 9 28.18 28.09 1.30
3 11 9 3.97 4.27 0.60
3 12 9 4.21 4.96 0.62
3 13 9 1.65 1.55 0.53
3 14 9 28.81 31.31 1.37
3 15 9 6.73 6.45 0.61
3 16 9 9.92 9.07 0.66
3 17 9 21.91 21.90 1.09
3 0 10 1.00 0.86 1.17
3 1 10 54.80 57.67 2.62
3 2 10 27.53 27.90 2.01
3 3 10 80.16 82.88 3.19
3 4 10 12.69 12.00 1.59
3 5 10 6.67 7.18 1.42
3 6 10 22.93 23.45 1.25
3 7 10 10.28 11.76 0.89
3 8 10 7.76 7.29 0.68
3 9 10 34.25 33.54 1.46
3 10 10 7.73 7.63 0.84
3 11 10 4.97 4.60 0.61
3 12 10 0.78 1.13 0.51
3 13 10 20.50 19.16 1.22
3 14 10 17.45 17.06 1.14
3 0 11 1.69 1.25 1.34
3 1 11 10.70 11.03 1.68
3 2 11 14.61 15.22 1.74
3 3 11 34.05 35.02 2.29
3 4 11 16.49 17.02 1.88
3 5 11 15.48 15.73 1.76
3 6 11 12.23 12.20 1.71
3 7 11 22.11 22.67 1.30
3 8 11 5.96 6.56 0.81
3 9 11 11.12 10.81 0.84
3 10 11 8.67 9.03 0.87
3 11 11 10.66 9.45 2.96
3 0 12 6.98 5.55 1.68
3 1 12 6.58 7.35 1.68
3 2 12 3.25 3.29 1.54
3 3 12 1.64 0.78 1.54
3 4 12 0.80 1.01 1.47
4 0 0 389.40 394.50 3.92
4 1 0 389.32 388.60 3.90
4 2 0 41.43 40.50 0.71
4 3 0 2.19 1.76 0.31
4 4 0 36.62 37.19 0.71
4 5 0 16.43 15.51 0.51
4 6 0 132.06 132.39 1.64
4 7 0 89.68 88.57 1.27
4 8 0 138.67 133.17 1.71
4 9 0 132.99 130.93 1.73
4 10 0 69.94 69.49 1.20
4 11 0 12.97 12.73 0.62
4 12 0 246.66 241.71 2.98
4 13 0 67.54 69.58 1.32
4 14 0 3.40 2.83 0.37
4 15 0 12.43 12.71 0.72
4 16 0 90.41 91.03 1.70
4 17 0 0.99 1.19 0.35
4 18 0 2.03 2.05 0.39
4 19 0 8.90 7.29 0.66
4 20 0 0.46 0.28 0.37
4 21 0 7.22 8.03 0.63
4 22 0 0.01 0.04 0.41
4 23 0 4.21 4.81 0.51
4 24 0 21.66 21.96 1.09
4 0 1 1.56 1.47 0.29
4 1 1 146.39 149.39 1.71
4 2 1 34.11 34.81 0.66
4 3 1 151.51 151.47 1.75
4 4 1 13.72 12.20 0.46
4 5 1 61.48 60.35 0.95
4 6 1 43.36 43.72 0.83
4 7 1 252.01 246.76 2.75
4 8 1 43.70 43.20 0.87
4 9 1 4.01 4.27 0.41
4 10 1 34.85 34.42 0.83
4 11 1 272.45 267.83 3.12
4 12 1 68.03 68.13 1.28
4 13 1 45.35 43.19 1.06
4 14 1 45.96 46.41 1.14
4 15 1 46.11 45.25 1.17
4 16 1 53.90 52.74 1.29
4 17 1 17.70 17.14 0.87
4 18 1 31.76 31.18 1.08
4 19 1 40.69 42.84 1.28
4 20 1 31.91 32.85 1.19
4 21 1 7.98 7.77 0.70
4 22 1 17.59 14.36 0.97
4 23 1 2.40 2.20 0.46
4 24 1 19.62 19.71 1.05
4 25 1 4.92 5.25 0.58
4 0 2 10.97 10.79 0.45
4 1 2 265.64 265.68 2.85
4 2 2 10.77 9.74 0.45
4 3 2 75.27 75.54 1.09
4 4 2 196.46 201.03 2.26
4 5 2 140.08 136.51 1.71
4 6 2 31.74 32.51 0.73
4 7 2 184.86 178.01 2.15
4 8 2 162.80 162.31 2.02
4 9 2 5.13 5.67 0.45
4 10 2 40.51 41.44 0.93
4 11 2 18.81 18.80 0.69
4 12 2 46.93 46.56 1.06
4 13 2 0.04 0.13 0.31
4 14 2 13.95 14.50 0.74
4 15 2 15.37 15.13 0.78
4 16 2 18.16 16.64 0.84
4 17 2 20.54 19.46 0.92
4 18 2 6.11 6.15 0.55
4 19 2 10.74 11.26 0.83
4 20 2 7.63 8.49 0.62
4 21 2 8.04 9.57 0.83
4 22 2 8.62 9.77 0.67
4 23 2 18.28 17.82 1.04
4 24 2 1.77 1.63 0.42
4 0 3 4.76 4.71 0.39
4 1 3 228.02 225.77 2.49
4 2 3 40.70 38.63 0.78
4 3 3 471.75 466.31 4.71
4 4 3 97.81 95.59 1.35
4 5 3 112.20 109.01 1.49
4 6 3 5.13 5.45 0.43
4 7 3 60.69 60.78 1.09
4 8 3 89.68 87.58 1.39
4 9 3 31.60 32.15 0.84
4 10 3 17.63 17.01 0.68
4 11 3 30.59 29.85 0.87
4 12 3 42.25 42.28 1.06
4 13 3 12.63 12.38 0.71
4 14 3 23.96 22.63 0.89
4 15 3 74.80 74.05 1.53
4 16 3 27.41 27.49 1.02
4 17 3 1.55 0.96 0.36
4 18 3 20.76 21.73 1.00
4 19 3 32.85 35.23 1.21
4 20 3 13.06 13.27 0.88
4 21 3 33.97 33.95 1.26
4 22 3 27.19 25.58 1.17
4 23 3 1.05 1.00 0.41
4 24 3 15.21 14.02 0.97
4 0 4 76.31 77.70 1.20
4 1 4 126.03 124.68 1.64
4 2 4 35.03 34.30 0.79
4 3 4 98.50 97.25 1.41
4 4 4 34.33 35.30 0.82
4 5 4 87.26 87.78 1.36
4 6 4 56.17 56.38 1.08
4 7 4 44.24 43.20 0.96
4 8 4 8.33 8.97 0.54
4 9 4 2.26 1.45 0.46
4 10 4 34.85 36.29 0.96
4 11 4 23.21 24.69 0.85
4 12 4 69.86 69.36 1.41
4 13 4 26.03 26.24 0.93
4 14 4 8.54 9.25 0.64
4 15 4 43.20 40.26 1.20
4 16 4 54.84 54.22 1.41
4 17 4 61.71 59.89 1.53
4 18 4 1.88 1.59 0.41
4 19 4 9.15 8.55 0.64
4 20 4 22.93 22.65 1.10
4 21 4 19.11 20.23 1.05
4 22 4 1.93 2.10 0.47
4 23 4 64.00 64.32 1.66
4 0 5 28.82 28.08 0.78
4 1 5 22.44 23.15 0.72
4 2 5 6.12 6.23 0.49
4 3 5 168.42 164.77 2.12
4 4 5 28.77 28.75 0.80
4 5 5 85.08 85.14 1.42
4 6 5 13.45 13.86 0.63
4 7 5 35.18 35.41 0.95
4 8 5 47.22 48.49 1.10
4 9 5 47.13 45.17 1.12
4 10 5 24.63 27.31 0.89
4 11 5 9.00 9.94 0.67
4 12 5 19.74 19.43 0.88
4 13 5 6.30 6.77 0.60
4 14 5 8.89 8.55 0.65
4 15 5 2.17 1.97 0.40
4 16 5 20.76 21.32 0.99
4 17 5 9.58 10.42 0.81
4 18 5 1.82 2.32 0.44
4 19 5 5.61 5.48 0.52
4 20 5 28.96 29.21 1.20
4 21 5 1.54 2.24 0.44
4 22 5 1.04 1.09 0.41
4 0 6 0.47 0.29 0.44
4 1 6 90.06 88.96 1.51
4 2 6 14.24 15.41 0.69
4 3 6 27.16 25.88 0.85
4 4 6 12.47 11.93 0.67
4 5 6 140.85 138.82 2.03
4 6 6 41.97 41.53 1.08
4 7 6 43.03 40.64 1.09
4 8 6 57.10 54.53 1.28
4 9 6 141.21 136.52 2.13
4 10 6 28.25 26.57 0.98
4 11 6 35.38 36.75 1.10
4 12 6 62.14 63.56 1.48
4 13 6 49.75 49.60 1.33
4 14 6 12.79 12.57 0.83
4 15 6 54.48 54.97 1.47
4 16 6 17.10 18.38 0.98
4 17 6 41.54 42.60 1.36
4 18 6 26.03 26.75 1.14
4 19 6 36.87 37.29 1.31
4 20 6 1.09 1.87 0.44
4 21 6 23.47 22.62 1.11
4 0 7 140.73 139.11 2.11
4 1 7 10.68 9.49 0.72
4 2 7 13.48 12.91 0.84
4 3 7 11.76 12.19 0.82
4 4 7 65.83 65.62 1.59
4 5 7 15.72 16.50 0.91
4 6 7 20.10 20.27 0.87
4 7 7 27.42 26.32 0.97
4 8 7 53.85 51.96 1.32
4 9 7 6.46 6.28 0.60
4 10 7 43.02 44.20 1.25
4 11 7 51.91 52.44 1.40
4 12 7 37.36 40.28 1.25
4 13 7 10.69 10.59 0.74
4 14 7 31.18 30.81 1.18
4 15 7 1.44 2.14 0.43
4 16 7 2.94 3.39 0.47
4 17 7 10.04 9.47 0.78
4 18 7 6.26 5.74 0.53
4 19 7 14.36 13.01 0.92
4 20 7 1.37 1.96 0.44
4 0 8 42.18 44.59 2.10
4 1 8 19.55 19.76 1.25
4 2 8 13.89 13.82 0.92
4 3 8 12.22 11.89 0.90
4 4 8 28.28 29.38 1.19
4 5 8 4.35 4.44 0.54
4 6 8 9.94 9.10 0.77
4 7 8 34.35 32.80 1.31
4 8 8 3.95 3.76 0.55
4 9 8 92.86 89.74 2.13
4 10 8 19.69 19.29 0.99
4 11 8 9.89 8.91 0.74
4 12 8 0.34 0.85 0.40
4 13 8 54.03 52.91 1.52
4 14 8 34.65 34.35 1.27
4 15 8 1.89 2.26 0.45
4 16 8 11.13 9.88 0.79
4 17 8 0.02 0.06 0.39
4 18 8 16.23 16.37 0.99
4 0 9 19.07 19.38 1.67
4 1 9 12.67 13.81 1.50
4 2 9 12.65 13.39 1.47
4 3 9 23.65 24.35 1.21
4 4 9 56.80 59.73 1.72
4 5 9 14.10 13.99 1.01
4 6 9 38.61 36.45 1.46
4 7 9 4.98 5.64 0.63
4 8 9 83.55 85.84 2.13
4 9 9 15.82 17.15 1.11
4 10 9 18.18 20.05 1.16
4 11 9 0.14 0.35 0.52
4 12 9 24.03 23.99 1.30
4 13 9 8.99 9.36 0.77
4 14 9 10.09 11.86 0.90
4 15 9 27.64 26.73 1.16
4 16 9 1.40 2.47 0.45
4 1 10 81.36 83.63 3.25
4 2 10 14.36 14.30 1.65
4 3 10 4.02 3.13 1.30
4 4 10 30.81 30.48 1.37
4 5 10 60.78 58.18 1.84
4 6 10 28.82 28.34 1.37
4 7 10 16.70 15.70 1.12
4 8 10 14.38 15.61 1.12
4 9 10 1.43 0.78 0.52
4 10 10 14.71 15.19 1.12
4 11 10 6.63 7.12 0.68
4 12 10 1.43 1.63 0.54
4 13 10 9.80 8.75 0.72
4 0 11 29.02 28.08 2.15
4 1 11 1.79 1.63 1.34
4 2 11 3.15 3.20 1.36
4 3 11 9.83 9.09 1.58
4 4 11 34.71 33.26 2.27
4 5 11 13.00 13.23 1.36
4 6 11 0.37 0.50 0.52
4 7 11 5.66 6.80 0.68
4 8 11 22.27 20.74 1.28
4 9 11 8.76 9.91 0.87
5 1 0 40.98 40.44 0.78
5 2 0 43.58 43.94 0.84
5 3 0 238.48 232.63 2.59
5 4 0 64.54 61.44 1.03
5 5 0 73.31 73.58 1.15
5 6 0 0.03 0.10 0.33
5 7 0 12.28 11.87 0.55
5 8 0 16.36 16.46 0.62
5 9 0 26.39 25.75 0.76
5 10 0 38.28 38.84 0.94
5 11 0 36.08 37.17 0.96
5 12 0 1.49 1.63 0.48
5 13 0 12.55 12.31 0.71
5 14 0 52.53 53.00 1.26
5 15 0 16.16 15.51 0.83
5 16 0 4.68 4.62 0.44
5 17 0 11.55 10.58 0.70
5 18 0 6.31 6.33 0.65
5 19 0 0.00 0.14 0.37
5 20 0 0.13 0.44 0.38
5 21 0 1.09 0.93 0.40
5 22 0 8.64 8.00 0.64
5 24 0 3.28 2.07 0.44
5 0 1 5.69 6.00 0.41
5 1 1 135.91 134.63 1.67
5 2 1 93.46 91.58 1.30
5 3 1 392.49 384.30 3.94
5 4 1 5.10 5.34 0.41
5 5 1 37.70 35.94 0.78
5 6 1 74.42 71.63 1.17
5 7 1 158.05 155.48 1.97
5 8 1 2.52 3.22 0.42
5 9 1 59.37 58.81 1.14
5 10 1 12.51 12.82 0.62
5 11 1 67.04 68.94 1.30
5 12 1 22.22 21.92 0.82
5 13 1 21.67 19.14 0.84
5 14 1 16.15 16.32 0.79
5 15 1 219.18 219.62 2.94
5 16 1 60.23 61.88 1.45
5 17 1 4.28 4.30 0.45
5 18 1 8.29 7.77 0.69
5 19 1 53.24 54.06 1.50
5 20 1 51.47 52.13 1.47
5 21 1 3.87 3.55 0.48
5 22 1 0.74 0.91 0.41
5 23 1 1.66 1.90 0.44
5 24 1 13.55 14.77 0.95
5 0 2 333.87 333.38 3.53
5 1 2 174.90 170.71 2.07
5 2 2 0.48 0.57 0.34
5 3 2 257.39 254.30 2.86
5 4 2 88.09 86.46 1.31
5 5 2 43.40 42.94 0.89
5 6 2 7.23 6.64 0.46
5 7 2 14.36 13.04 0.58
5 8 2 29.80 29.39 0.81
5 9 2 38.58 37.75 0.93
5 10 2 0.60 1.41 0.44
5 11 2 16.63 16.40 0.73
5 12 2 127.93 125.42 1.95
5 13 2 0.44 0.49 0.34
5 14 2 7.15 7.61 0.67
5 15 2 3.42 3.10 0.40
5 16 2 60.10 61.10 1.47
5 17 2 14.90 14.84 0.87
5 18 2 11.02 11.66 0.82
5 19 2 30.68 30.61 1.15
5 20 2 2.10 2.18 0.44
5 21 2 41.51 39.41 1.34
5 22 2 0.99 1.79 0.44
5 23 2 6.02 5.40 0.58
5 24 2 6.50 7.42 0.91
5 0 3 32.02 31.37 0.77
5 1 3 202.34 200.34 2.38
5 2 3 24.33 24.68 0.69
5 3 3 9.84 9.64 0.52
5 4 3 1.43 1.37 0.39
5 5 3 69.05 69.24 1.20
5 6 3 34.33 35.09 0.86
5 7 3 65.72 64.64 1.20
5 8 3 18.17 18.76 0.69
5 9 3 9.01 9.15 0.60
5 10 3 45.50 43.63 1.07
5 11 3 27.67 26.13 0.89
5 12 3 28.64 27.70 0.94
5 13 3 19.09 19.30 0.85
5 14 3 47.48 47.48 1.24
5 15 3 3.32 3.76 0.42
5 16 3 51.45 51.32 1.39
5 17 3 23.49 23.95 1.03
5 18 3 24.14 24.17 1.07
5 19 3 3.80 4.47 0.50
5 20 3 55.53 57.06 1.58
5 21 3 8.04 8.33 0.66
5 22 3 4.40 4.85 0.51
5 23 3 9.16 8.74 0.65
5 0 4 0.08 0.29 0.37
5 1 4 72.88 70.51 1.22
5 2 4 43.25 44.04 0.95
5 3 4 30.62 28.56 0.81
5 4 4 16.65 17.42 0.67
5 5 4 7.29 6.30 0.51
5 6 4 28.41 28.63 0.84
5 7 4 30.34 30.37 0.88
5 8 4 90.63 90.22 1.54
5 9 4 1.90 2.70 0.38
5 10 4 117.09 112.93 1.85
5 11 4 35.24 34.92 1.04
5 12 4 84.77 86.44 1.64
5 13 4 3.57 4.43 0.42
5 14 4 82.85 86.85 1.74
5 15 4 19.82 20.87 0.98
5 16 4 20.69 22.39 1.00
5 17 4 9.16 8.33 0.69
5 18 4 24.32 25.75 1.10
5 19 4 74.69 76.39 1.81
5 20 4 0.44 0.06 0.39
5 21 4 43.37 44.55 1.42
5 22 4 13.40 11.84 0.95
5 0 5 7.92 7.12 0.56
5 1 5 192.63 187.72 2.40
5 2 5 32.67 32.10 0.89
5 3 5 15.76 16.23 0.68
5 4 5 74.03 73.55 1.37
5 5 5 60.97 60.04 1.26
5 6 5 18.99 18.78 0.79
5 7 5 35.22 34.79 0.98
5 8 5 52.91 50.65 1.21
5 9 5 11.92 11.01 0.71
5 10 5 19.79 19.10 0.84
5 11 5 20.14 20.57 0.90
5 12 5 0.42 0.98 0.35
5 13 5 18.17 17.92 0.91
5 14 5 41.52 42.63 1.25
5 15 5 1.40 1.33 0.40
5 16 5 18.22 18.88 0.95
5 17 5 3.02 3.71 0.47
5 18 5 29.08 29.78 1.19
5 19 5 2.80 3.18 0.48
5 20 5 12.71 12.03 0.94
5 21 5 9.95 8.89 0.67
5 0 6 48.91 47.75 1.16
5 1 6 47.31 45.82 1.12
5 2 6 12.34 11.18 0.70
5 3 6 55.89 54.40 1.24
5 4 6 53.07 50.17 1.21
5 5 6 82.66 80.92 1.56
5 6 6 12.88 13.54 0.74
5 7 6 106.64 105.58 1.84
5 8 6 22.70 22.15 0.92
5 9 6 21.34 21.23 0.89
5 10 6 68.15 69.56 1.53
5 11 6 78.90 80.74 1.69
5 12 6 0.45 0.52 0.36
5 13 6 67.03 67.82 1.61
5 14 6 55.07 54.37 1.47
5 15 6 13.57 15.41 0.92
5 16 6 4.97 5.38 0.52
5 17 6 53.69 53.24 1.54
5 18 6 7.88 7.31 0.65
5 19 6 5.18 5.27 0.52
5 20 6 0.01 0.01 0.39
5 0 7 1.14 1.50 0.37
5 1 7 29.96 30.15 1.00
5 2 7 17.02 16.86 0.85
5 3 7 4.14 4.05 0.44
5 4 7 111.70 108.46 1.90
5 5 7 10.15 10.44 0.68
5 6 7 19.73 21.19 0.92
5 7 7 9.22 9.80 0.75
5 8 7 101.84 101.01 1.91
5 9 7 10.35 11.50 0.77
5 10 7 2.12 2.03 0.41
5 11 7 4.48 4.31 0.47
5 12 7 14.10 13.37 0.80
5 13 7 13.73 16.35 0.93
5 14 7 5.50 6.46 0.54
5 15 7 18.00 18.46 1.01
5 16 7 8.56 7.92 0.74
5 17 7 4.14 4.95 0.52
5 18 7 2.50 2.96 0.47
5 0 8 37.65 36.93 1.18
5 1 8 48.14 48.15 1.32
5 2 8 3.12 3.28 0.43
5 3 8 0.48 0.69 0.36
5 4 8 20.47 19.66 0.97
5 5 8 143.28 141.38 2.35
5 6 8 0.54 1.19 0.80
5 7 8 5.12 5.30 0.50
5 8 8 2.61 2.97 0.45
5 9 8 24.59 24.35 1.06
5 10 8 2.07 2.08 0.43
5 11 8 11.15 12.82 0.89
5 12 8 8.67 8.15 0.64
5 13 8 32.43 32.73 1.27
5 14 8 8.59 8.22 0.66
5 15 8 8.35 8.89 0.66
5 16 8 10.88 12.04 0.90
5 17 8 58.87 59.40 1.60
5 0 9 0.10 0.69 0.80
5 1 9 31.07 30.32 1.15
5 2 9 35.63 35.78 1.43
5 3 9 6.76 5.54 0.62
5 4 9 5.16 6.27 0.64
5 5 9 15.43 14.30 1.07
5 6 9 27.65 27.49 1.30
5 7 9 9.41 9.61 0.84
5 8 9 0.66 1.11 0.51
5 9 9 0.68 1.33 0.41
5 10 9 21.06 21.51 1.08
5 11 9 15.27 15.65 0.99
5 12 9 0.89 1.73 0.43
5 13 9 8.54 8.85 0.66
5 14 9 6.66 6.85 0.55
5 15 9 2.00 2.65 0.46
5 0 10 76.03 75.62 3.15
5 1 10 5.29 5.25 0.90
5 2 10 2.53 2.86 0.57
5 3 10 50.61 51.55 1.73
5 4 10 24.84 24.79 1.30
5 5 10 31.73 30.26 1.46
5 6 10 5.83 6.66 0.68
5 7 10 18.20 17.99 1.19
5 8 10 6.20 7.04 0.68
5 9 10 33.82 32.98 1.43
5 10 10 0.62 0.87 0.53
5 11 10 1.18 2.04 0.54
5 12 10 5.40 5.92 0.53
5 0 11 5.33 3.77 1.53
5 1 11 24.76 24.01 2.02
5 2 11 11.46 12.38 1.63
5 3 11 17.68 16.50 1.18
5 4 11 12.28 11.08 0.92
5 5 11 0.06 0.06 0.52
5 6 11 39.23 40.06 1.54
5 7 11 2.03 2.44 0.57
6 0 0 138.07 135.13 1.77
6 1 0 66.27 66.64 1.13
6 2 0 4.75 4.86 0.44
6 3 0 32.92 31.83 0.80
6 4 0 9.30 9.98 0.52
6 5 0 79.68 76.84 1.29
6 6 0 70.89 70.88 1.25
6 7 0 87.98 84.78 1.42
6 8 0 60.24 59.24 1.18
6 9 0 0.07 0.23 0.44
6 10 0 90.90 88.36 1.57
6 11 0 0.09 0.26 0.32
6 12 0 64.65 64.37 1.37
6 13 0 20.95 21.56 0.90
6 14 0 8.98 9.29 0.65
6 15 0 26.82 28.59 1.03
6 16 0 6.84 7.32 0.64
6 17 0 8.22 8.98 0.69
6 18 0 22.34 21.32 1.04
6 19 0 6.01 7.00 0.69
6 21 0 2.49 2.28 0.45
6 22 0 24.25 23.66 1.10
6 23 0 0.12 0.68 0.40
6 0 1 41.44 39.73 0.88
6 1 1 121.39 119.09 1.64
6 2 1 87.15 86.07 1.35
6 3 1 77.90 76.49 1.27
6 4 1 87.27 87.96 1.39
6 5 1 107.11 105.03 1.57
6 6 1 9.83 9.52 0.54
6 7 1 61.44 61.31 1.19
6 8 1 53.81 53.06 1.12
6 9 1 1.62 1.47 0.47
6 10 1 1.05 1.46 0.34
6 11 1 27.43 26.78 0.90
6 12 1 12.72 12.83 0.76
6 13 1 121.72 120.10 2.00
6 14 1 39.47 41.32 1.19
6 15 1 18.39 18.63 0.90
6 16 1 11.06 11.79 0.79
6 17 1 71.97 72.21 1.66
6 18 1 64.42 66.63 1.63
6 19 1 17.65 18.60 0.99
6 20 1 12.25 13.23 0.92
6 21 1 8.87 8.07 0.65
6 22 1 23.16 21.91 1.10
6 23 1 10.35 9.37 0.87
6 0 2 18.47 19.28 0.66
6 1 2 114.82 114.46 1.63
6 2 2 180.01 174.89 2.21
6 3 2 2.97 3.33 0.43
6 4 2 0.98 0.87 0.41
6 5 2 48.98 47.52 1.03
6 6 2 8.97 9.53 0.56
6 7 2 18.73 18.01 0.72
6 8 2 47.69 46.72 1.09
6 9 2 6.54 5.47 0.57
6 10 2 109.41 106.74 1.77
6 11 2 3.29 3.72 0.41
6 12 2 30.47 30.60 1.03
6 13 2 10.16 10.80 0.67
6 14 2 93.97 91.51 1.79
6 15 2 1.23 1.02 0.36
6 16 2 8.35 7.00 0.58
6 17 2 14.33 14.30 0.89
6 18 2 7.00 7.49 0.61
6 19 2 6.34 6.95 0.61
6 20 2 1.36 1.84 0.44
6 21 2 9.65 8.77 0.77
6 22 2 5.67 6.24 0.55
6 23 2 11.76 13.48 1.55
6 0 3 11.79 12.32 0.60
6 1 3 99.32 99.63 1.54
6 2 3 17.52 16.61 0.68
6 3 3 202.14 200.15 2.48
6 4 3 67.12 66.77 1.25
6 5 3 4.33 4.55 0.52
6 6 3 23.84 24.47 0.81
6 7 3 56.82 57.55 1.21
6 8 3 24.16 22.87 0.83
6 9 3 26.58 25.39 0.89
6 10 3 0.80 1.30 0.36
6 11 3 6.70 6.84 0.52
6 12 3 22.14 20.73 0.90
6 13 3 4.20 4.39 0.44
6 14 3 47.14 48.04 1.33
6 15 3 31.85 32.29 1.14
6 16 3 30.03 28.36 1.12
6 17 3 12.33 12.79 0.88
6 18 3 69.35 69.57 1.71
6 19 3 46.39 46.99 1.47
6 20 3 3.61 3.02 0.47
6 21 3 21.05 20.93 1.10
6 22 3 29.32 28.91 1.21
6 0 4 0.62 1.05 0.44
6 1 4 96.42 93.94 1.56
6 2 4 20.68 20.99 0.76
6 3 4 56.47 56.75 1.19
6 4 4 1.99 0.92 0.49
6 5 4 38.13 36.79 1.00
6 6 4 68.59 66.92 1.36
6 7 4 4.91 4.93 0.42
6 8 4 17.56 16.89 0.78
6 9 4 41.43 39.94 1.12
6 10 4 48.83 48.27 1.25
6 11 4 2.30 2.49 0.38
6 12 4 28.37 27.32 1.02
6 13 4 3.87 4.67 0.46
6 14 4 40.71 39.65 1.25
6 15 4 4.19 3.81 0.46
6 16 4 30.56 31.90 1.18
6 17 4 80.64 80.25 1.82
6 18 4 9.95 9.88 0.79
6 19 4 31.62 31.38 1.25
6 20 4 12.12 12.35 0.92
6 21 4 55.41 54.45 1.55
6 0 5 15.40 14.28 0.75
6 1 5 66.05 64.96 1.33
6 2 5 18.65 19.65 0.81
6 3 5 108.76 105.95 1.77
6 4 5 20.25 19.07 0.82
6 5 5 4.16 4.18 0.41
6 6 5 42.70 43.79 1.14
6 7 5 11.38 10.15 0.71
6 8 5 0.13 0.26 0.36
6 9 5 34.12 33.69 1.09
6 10 5 2.07 2.29 0.39
6 11 5 20.58 19.32 0.92
6 12 5 23.32 23.15 1.00
6 13 5 8.72 9.52 0.63
6 14 5 21.20 22.61 1.04
6 15 5 2.15 1.91 0.42
6 16 5 16.52 16.81 1.00
6 17 5 1.59 1.89 0.44
6 18 5 17.82 17.73 1.00
6 19 5 6.12 6.00 0.54
6 20 5 0.27 0.09 0.38
6 0 6 52.87 50.85 1.25
6 1 6 101.11 101.01 1.78
6 2 6 74.31 72.31 1.51
6 3 6 56.96 55.85 1.33
6 4 6 18.89 19.63 0.88
6 5 6 79.84 79.55 1.62
6 6 6 70.72 73.83 1.57
6 7 6 6.91 6.33 0.48
6 8 6 11.77 10.82 0.78
6 9 6 75.38 75.92 1.67
6 10 6 13.16 12.70 0.86
6 11 6 34.08 33.16 1.17
6 12 6 39.58 40.48 1.27
6 13 6 34.93 34.73 1.25
6 14 6 13.74 13.16 0.93
6 15 6 41.50 43.51 1.37
6 16 6 26.31 28.81 1.17
6 17 6 23.23 22.78 1.10
6 18 6 8.24 8.63 0.60
6 19 6 14.28 14.30 0.94
6 0 7 17.24 17.71 0.87
6 1 7 1.81 2.25 0.39
6 2 7 49.81 49.92 1.33
6 3 7 12.33 11.81 0.80
6 4 7 7.60 8.17 0.66
6 5 7 20.69 20.68 0.93
6 6 7 96.18 98.56 1.90
6 7 7 1.55 2.32 0.42
6 8 7 18.46 19.02 0.94
6 9 7 5.29 5.09 0.55
6 10 7 57.54 57.98 1.52
6 11 7 5.08 5.12 0.51
6 12 7 16.87 17.50 1.01
6 13 7 16.83 15.53 0.98
6 14 7 12.44 13.82 0.95
6 15 7 3.02 3.52 0.49
6 16 7 0.07 0.09 0.40
6 17 7 10.75 11.90 0.87
6 18 7 6.83 7.09 0.55
6 0 8 27.32 28.44 1.09
6 1 8 0.99 1.25 0.39
6 2 8 13.59 14.81 0.87
6 3 8 49.80 49.47 1.39
6 4 8 8.27 7.80 0.69
6 5 8 3.21 3.41 0.45
6 6 8 11.92 13.22 0.89
6 7 8 51.08 53.33 1.47
6 8 8 0.27 0.73 0.39
6 9 8 2.67 3.15 0.47
6 10 8 6.56 7.85 0.66
6 11 8 18.53 17.69 1.04
6 12 8 1.44 2.42 0.46
6 13 8 10.29 10.49 0.74
6 14 8 15.18 15.33 0.98
6 15 8 40.12 41.44 1.37
6 16 8 22.07 21.23 1.09
6 0 9 37.14 39.22 1.32
6 1 9 1.02 1.11 0.41
6 2 9 11.14 11.48 0.87
6 3 9 12.42 11.26 0.82
6 4 9 9.42 9.02 0.76
6 5 9 2.52 2.72 0.46
6 6 9 11.29 13.13 0.91
6 7 9 6.62 7.06 0.56
6 8 9 27.50 30.22 1.19
6 9 9 5.14 5.85 0.54
6 10 9 41.67 42.33 1.40
6 11 9 5.79 6.60 0.61
6 12 9 34.60 36.60 1.31
6 13 9 14.26 14.02 0.95
6 0 10 3.69 4.96 0.52
6 1 10 40.70 43.70 1.40
6 2 10 45.24 46.04 1.46
6 3 10 1.24 1.62 0.46
6 4 10 5.78 7.06 0.56
6 5 10 49.73 51.89 1.52
6 6 10 8.09 8.61 0.66
6 7 10 21.33 22.69 1.12
6 8 10 0.93 1.58 0.43
6 9 10 3.86 4.56 0.51
6 0 11 6.18 7.48 0.63
6 1 11 28.50 29.77 1.40
6 2 11 3.03 4.31 0.61
7 2 0 72.75 71.82 1.31
7 3 0 13.53 13.74 0.63
7 4 0 3.95 3.83 0.51
7 5 0 54.87 52.84 1.16
7 6 0 22.01 21.21 0.80
7 7 0 2.28 2.43 0.35
7 8 0 34.35 34.84 0.99
7 9 0 44.38 43.16 1.12
7 10 0 101.98 98.51 1.76
7 11 0 33.01 32.89 1.05
7 12 0 24.15 24.41 0.95
7 13 0 0.08 0.08 0.35
7 14 0 17.93 17.50 0.89
7 15 0 16.48 15.21 0.89
7 16 0 2.92 2.50 0.44
7 17 0 12.55 11.55 0.86
7 18 0 1.60 1.24 0.41
7 19 0 3.33 3.12 0.47
7 20 0 22.77 24.97 1.11
7 21 0 17.95 17.93 1.03
7 22 0 1.11 1.44 0.44
7 0 1 222.77 220.00 2.71
7 1 1 58.00 56.68 1.15
7 2 1 16.91 15.98 0.68
7 3 1 40.45 41.68 0.99
7 4 1 69.57 70.29 1.31
7 5 1 72.34 73.25 1.37
7 6 1 39.41 40.04 1.03
7 7 1 23.06 22.94 0.83
7 8 1 0.86 1.15 0.34
7 9 1 102.09 100.64 1.76
7 10 1 19.74 19.13 0.85
7 11 1 18.81 18.26 0.87
7 12 1 0.29 0.51 0.33
7 13 1 36.27 37.12 1.16
7 14 1 20.64 18.15 0.96
7 15 1 11.64 10.77 0.79
7 16 1 18.02 17.40 0.97
7 17 1 36.36 36.09 1.27
7 18 1 41.68 42.99 1.38
7 19 1 27.28 26.42 1.16
7 20 1 11.16 11.23 0.90
7 21 1 26.33 25.30 1.16
7 22 1 33.80 33.72 1.28
7 0 2 12.22 11.54 0.63
7 1 2 2.07 2.05 0.49
7 2 2 37.91 38.91 0.99
7 3 2 28.94 29.19 0.87
7 4 2 13.51 12.68 0.67
7 5 2 48.92 50.73 1.15
7 6 2 211.97 209.40 2.70
7 7 2 7.61 7.10 0.51
7 8 2 17.83 17.53 0.81
7 9 2 25.29 23.63 0.94
7 10 2 146.23 142.77 2.22
7 11 2 10.68 10.69 0.66
7 12 2 58.43 58.50 1.42
7 13 2 5.70 5.29 0.52
7 14 2 6.39 5.78 0.50
7 15 2 17.49 20.06 0.96
7 16 2 15.70 15.21 0.93
7 17 2 6.69 6.17 0.59
7 18 2 10.61 11.26 0.88
7 19 2 1.33 1.67 0.44
7 20 2 1.10 1.89 0.45
7 21 2 0.87 0.98 0.41
7 0 3 3.69 3.77 0.53
7 1 3 119.75 118.45 1.85
7 2 3 31.09 30.25 0.93
7 3 3 17.77 17.99 0.78
7 4 3 26.41 24.61 0.87
7 5 3 103.21 103.02 1.73
7 6 3 43.93 44.44 1.12
7 7 3 11.44 12.05 0.71
7 8 3 38.53 37.56 1.09
7 9 3 6.17 5.70 0.51
7 10 3 6.03 6.00 0.51
7 11 3 6.41 5.97 0.60
7 12 3 14.44 14.92 0.84
7 13 3 20.88 21.41 0.99
7 14 3 42.85 42.67 1.32
7 15 3 14.71 16.38 0.94
7 16 3 25.68 24.63 1.14
7 17 3 33.23 32.54 1.25
7 18 3 8.39 7.93 0.65
7 19 3 22.50 21.19 1.09
7 20 3 12.72 12.68 0.92
7 21 3 9.32 8.88 0.75
7 0 4 2.16 2.62 0.38
7 1 4 65.52 66.46 1.38
7 2 4 12.39 11.97 0.72
7 3 4 24.65 23.45 0.89
7 4 4 57.61 57.16 1.30
7 5 4 51.89 52.01 1.27
7 6 4 48.40 48.68 1.23
7 7 4 4.96 4.53 0.44
7 8 4 9.52 9.16 0.65
7 9 4 17.91 16.55 0.86
7 10 4 11.00 11.83 0.78
7 11 4 14.28 14.03 0.86
7 12 4 28.49 27.29 1.08
7 13 4 40.51 39.45 1.31
7 14 4 11.99 11.83 0.87
7 15 4 37.90 38.30 1.31
7 16 4 33.57 35.53 1.26
7 17 4 22.10 23.22 1.08
7 18 4 14.71 16.13 0.99
7 19 4 26.84 25.68 1.19
7 20 4 2.89 1.94 0.44
7 0 5 2.56 3.01 0.40
7 1 5 22.81 22.09 0.90
7 2 5 21.92 21.74 0.88
7 3 5 8.03 7.26 0.62
7 4 5 32.00 31.47 1.05
7 5 5 32.15 32.69 1.06
7 6 5 27.16 27.33 1.01
7 7 5 46.32 45.01 1.26
7 8 5 63.12 62.73 1.49
7 9 5 5.18 4.83 0.47
7 10 5 43.33 44.28 1.31
7 11 5 13.37 12.04 0.85
7 12 5 30.45 28.20 1.15
7 13 5 5.07 4.59 0.49
7 14 5 52.45 53.29 1.50
7 15 5 2.52 3.15 0.47
7 16 5 12.62 12.19 0.83
7 17 5 4.15 4.04 0.50
7 18 5 6.65 5.68 0.53
7 19 5 4.69 5.49 0.52
7 0 6 14.58 14.41 0.82
7 1 6 61.50 61.42 1.46
7 2 6 74.76 77.22 1.64
7 3 6 56.85 57.72 1.44
7 4 6 53.40 54.87 1.39
7 5 6 6.42 6.50 0.54
7 6 6 13.02 12.13 0.83
7 7 6 32.51 33.69 1.18
7 8 6 28.31 28.41 1.11
7 9 6 9.79 8.92 0.72
7 10 6 7.77 7.49 0.69
7 11 6 24.10 25.25 1.08
7 12 6 7.01 6.69 0.61
7 13 6 12.48 13.43 0.92
7 14 6 9.52 10.82 0.78
7 15 6 18.43 17.48 1.03
7 16 6 20.49 18.92 1.05
7 17 6 16.59 14.82 0.99
7 18 6 7.74 7.04 0.62
7 0 7 31.86 30.61 1.14
7 1 7 1.12 1.22 0.39
7 2 7 69.26 72.41 1.67
7 3 7 8.33 8.19 0.70
7 4 7 3.29 3.13 0.44
7 5 7 4.59 4.82 0.49
7 6 7 2.92 3.26 0.45
7 7 7 20.63 22.28 1.04
7 8 7 33.95 35.53 1.24
7 9 7 18.24 17.17 1.00
7 10 7 35.94 37.02 1.30
7 11 7 13.48 12.90 0.83
7 12 7 22.31 20.55 1.10
7 13 7 7.55 7.64 0.64
7 14 7 29.26 29.06 1.25
7 15 7 6.81 6.88 0.56
7 16 7 0.01 0.19 0.82
7 0 8 0.89 1.19 0.41
7 1 8 31.72 32.26 1.22
7 2 8 69.82 71.23 1.69
7 3 8 16.52 18.24 0.98
7 4 8 6.08 6.34 0.60
7 5 8 9.42 10.50 0.84
7 6 8 3.56 4.49 0.50
7 7 8 9.31 8.67 0.73
7 8 8 3.68 3.92 0.53
7 9 8 24.00 23.50 1.11
7 10 8 1.83 2.11 0.45
7 11 8 28.83 27.62 1.19
7 12 8 16.05 17.19 1.00
7 13 8 20.71 21.06 1.06
7 14 8 2.57 2.44 0.45
7 0 9 3.76 4.66 0.51
7 1 9 3.97 4.46 0.50
7 2 9 10.31 10.43 0.79
7 3 9 6.87 7.20 0.60
7 4 9 19.26 19.30 1.05
7 5 9 11.74 10.72 0.70
7 6 9 9.54 10.34 0.74
7 7 9 3.08 3.82 0.49
7 8 9 58.30 57.67 1.60
7 9 9 0.46 0.69 0.88
7 10 9 31.25 31.77 1.23
7 11 9 6.16 6.61 0.55
7 0 10 0.29 0.22 0.42
7 1 10 31.35 31.25 1.24
7 2 10 2.87 3.94 0.49
7 3 10 63.74 66.30 1.69
7 4 10 6.66 7.48 0.57
7 5 10 0.37 0.72 0.42
7 6 10 10.30 9.74 0.88
8 0 0 2.71 2.36 0.36
8 1 0 1.25 1.72 0.35
8 2 0 49.94 49.59 1.16
8 3 0 0.08 0.14 0.33
8 4 0 2.06 2.38 0.37
8 5 0 10.15 10.64 0.68
8 6 0 135.37 131.76 2.08
8 7 0 18.29 18.04 0.85
8 8 0 5.57 5.74 0.51
8 9 0 64.03 64.35 1.48
8 10 0 18.22 17.88 0.89
8 11 0 21.90 22.87 0.96
8 12 0 9.10 10.23 0.66
8 13 0 56.39 58.65 1.51
8 14 0 1.47 1.28 0.40
8 15 0 1.60 1.80 0.42
8 16 0 34.52 36.36 1.27
8 17 0 16.59 17.08 0.98
8 18 0 0.18 0.53 0.40
8 19 0 9.85 9.31 0.67
8 20 0 0.67 0.79 0.41
8 0 1 34.25 31.62 0.99
8 1 1 30.87 31.22 0.96
8 2 1 100.17 96.68 1.68
8 3 1 0.74 1.24 0.35
8 4 1 33.93 32.75 1.00
8 5 1 68.87 67.02 1.42
8 6 1 2.28 2.56 0.40
8 7 1 22.00 21.92 0.89
8 8 1 4.64 5.12 0.50
8 9 1 63.07 61.28 1.47
8 10 1 3.89 4.36 0.44
8 11 1 4.32 3.99 0.45
8 12 1 20.66 21.30 0.99
8 13 1 26.14 26.35 1.07
8 14 1 4.41 4.56 0.49
8 15 1 18.86 18.63 0.99
8 16 1 8.69 8.76 0.76
8 17 1 17.08 18.46 1.04
8 18 1 3.31 3.94 0.50
8 19 1 40.24 40.74 1.37
8 20 1 35.48 37.60 1.31
8 0 2 0.20 0.56 0.34
8 1 2 2.41 3.14 0.39
8 2 2 32.72 32.42 1.00
8 3 2 11.48 11.45 0.72
8 4 2 131.67 129.95 2.07
8 5 2 2.91 3.09 0.41
8 6 2 51.37 50.14 1.26
8 7 2 13.89 12.54 0.81
8 8 2 178.60 183.19 2.64
8 9 2 1.98 1.97 0.38
8 10 2 24.97 23.24 0.99
8 11 2 5.08 4.22 0.46
8 12 2 26.91 27.85 1.09
8 13 2 2.84 2.76 0.44
8 14 2 27.27 27.31 1.12
8 15 2 3.71 3.72 0.47
8 16 2 21.71 21.33 1.06
8 17 2 5.17 5.41 0.53
8 18 2 4.23 2.93 0.47
8 19 2 2.20 3.03 0.47
8 20 2 10.19 10.47 0.77
8 0 3 82.87 83.20 1.61
8 1 3 2.01 1.91 0.38
8 2 3 14.65 14.78 0.79
8 3 3 36.19 35.10 1.06
8 4 3 43.06 42.24 1.17
8 5 3 23.16 23.09 0.94
8 6 3 34.31 36.00 1.10
8 7 3 35.26 35.12 1.11
8 8 3 20.93 21.36 0.92
8 9 3 59.67 59.99 1.47
8 10 3 69.72 71.28 1.63
8 11 3 10.72 11.03 0.82
8 12 3 62.91 63.40 1.59
8 13 3 34.25 37.68 1.26
8 14 3 14.86 16.01 0.93
8 15 3 0.75 0.54 0.39
8 16 3 11.23 12.33 0.90
8 17 3 2.38 3.25 0.48
8 18 3 5.03 6.00 0.53
8 19 3 1.42 1.86 0.44
8 0 4 5.42 5.54 0.50
8 1 4 13.19 14.15 0.77
8 2 4 16.04 16.43 0.83
8 3 4 45.85 46.12 1.24
8 4 4 22.95 23.90 0.96
8 5 4 10.84 12.14 0.75
8 6 4 6.29 6.94 0.52
8 7 4 39.72 41.34 1.25
8 8 4 65.66 65.59 1.57
8 9 4 24.42 24.68 1.02
8 10 4 29.59 30.95 1.15
8 11 4 56.19 54.64 1.48
8 12 4 15.14 15.75 0.92
8 13 4 25.06 24.81 1.10
8 14 4 25.10 25.13 1.14
8 15 4 36.70 39.09 1.34
8 16 4 7.40 8.45 0.60
8 17 4 6.86 7.20 0.63
8 18 4 0.39 0.56 0.40
8 0 5 0.50 0.67 0.35
8 1 5 20.91 23.53 0.95
8 2 5 17.92 18.31 0.89
8 3 5 14.50 14.95 0.85
8 4 5 16.09 17.19 0.89
8 5 5 34.24 34.13 1.17
8 6 5 46.27 46.84 1.33
8 7 5 8.54 8.36 0.69
8 8 5 36.42 37.20 1.25
8 9 5 13.70 13.55 0.89
8 10 5 50.11 49.86 1.45
8 11 5 0.54 1.11 0.40
8 12 5 55.38 54.15 1.55
8 13 5 0.87 1.24 0.42
8 14 5 6.73 5.51 0.53
8 15 5 12.93 14.13 0.94
8 16 5 9.54 10.29 0.88
8 17 5 5.20 5.44 0.52
8 0 6 83.69 86.11 1.81
8 1 6 1.90 1.90 0.41
8 2 6 8.73 8.46 0.69
8 3 6 12.17 12.38 0.85
8 4 6 36.54 37.17 1.23
8 5 6 21.47 22.54 1.03
8 6 6 14.50 16.52 0.94
8 7 6 31.34 28.51 1.19
8 8 6 13.17 13.08 0.93
8 9 6 4.77 5.31 0.52
8 10 6 0.05 0.14 0.40
8 11 6 28.81 29.74 1.22
8 12 6 0.10 0.03 0.39
8 13 6 8.84 9.87 0.74
8 14 6 2.75 3.32 0.48
8 15 6 14.45 14.89 0.99
8 16 6 17.95 18.86 1.04
8 0 7 55.58 55.15 1.54
8 1 7 4.78 5.04 0.50
8 2 7 1.13 1.32 0.41
8 3 7 11.88 11.40 0.77
8 4 7 57.26 60.38 1.58
8 5 7 1.28 1.02 0.41
8 6 7 2.79 3.13 0.46
8 7 7 36.58 36.11 1.29
8 8 7 29.38 30.64 1.22
8 9 7 9.60 10.42 0.79
8 10 7 0.14 0.13 0.43
8 11 7 30.28 28.54 1.23
8 12 7 32.89 32.99 1.25
8 13 7 7.60 8.73 0.66
8 14 7 11.52 13.27 0.94
8 0 8 45.72 47.82 1.46
8 1 8 43.23 45.16 1.43
8 2 8 10.30 10.06 0.77
8 3 8 36.27 35.54 1.31
8 4 8 11.80 11.82 0.82
8 5 8 14.96 14.24 0.98
8 6 8 8.81 8.97 0.63
8 7 8 12.91 13.47 0.95
8 8 8 3.11 3.13 0.47
8 9 8 3.13 3.94 0.50
8 10 8 4.05 4.49 0.50
8 11 8 20.98 22.60 1.10
8 0 9 6.66 6.30 0.55
8 1 9 5.49 5.86 0.54
8 2 9 19.32 20.10 1.09
8 3 9 16.04 17.26 1.02
8 4 9 19.37 18.04 1.05
8 5 9 0.60 0.91 0.44
8 6 9 42.25 44.52 1.38
8 7 9 20.88 23.36 1.11
8 8 9 6.31 7.57 0.65
9 1 0 0.48 0.57 0.33
9 2 0 23.46 24.26 0.95
9 4 0 181.40 179.12 2.64
9 5 0 0.06 0.58 0.69
9 6 0 6.05 6.74 0.55
9 7 0 7.73 7.28 0.65
9 8 0 128.77 127.36 2.22
9 9 0 5.06 4.43 0.47
9 10 0 16.58 15.90 0.92
9 11 0 25.85 25.30 1.08
9 12 0 5.54 5.59 0.52
9 13 0 6.42 6.84 0.55
9 14 0 40.46 42.61 1.38
9 15 0 36.94 37.83 1.32
9 16 0 0.08 0.11 0.41
9 18 0 4.63 4.70 0.51
9 0 1 7.32 7.50 0.55
9 1 1 12.24 12.01 0.76
9 2 1 26.44 26.79 0.99
9 3 1 14.34 13.13 0.81
9 4 1 4.77 5.92 0.52
9 5 1 7.72 7.04 0.62
9 6 1 19.56 19.85 0.92
9 7 1 40.63 39.78 1.25
9 8 1 13.65 14.45 0.84
9 9 1 37.84 39.21 1.22
9 10 1 4.58 4.37 0.48
9 11 1 34.92 34.99 1.23
9 12 1 3.51 3.31 0.46
9 13 1 59.86 60.28 1.60
9 14 1 13.64 13.78 0.95
9 15 1 4.09 4.25 0.50
9 16 1 9.52 10.36 0.85
9 17 1 22.99 22.16 1.09
9 18 1 1.34 1.41 0.42
9 0 2 113.97 113.41 2.01
9 1 2 1.38 1.83 0.37
9 2 2 4.93 4.63 0.45
9 3 2 3.13 2.83 0.41
9 4 2 92.91 93.27 1.83
9 5 2 31.93 33.01 1.11
9 6 2 11.02 10.12 0.79
9 7 2 11.98 11.30 0.83
9 8 2 6.54 6.37 0.51
9 9 2 61.99 64.60 1.58
9 10 2 9.11 10.17 0.78
9 11 2 16.28 16.06 0.94
9 12 2 19.86 19.65 1.03
9 13 2 34.19 35.76 1.30
9 14 2 11.30 10.73 0.80
9 15 2 10.07 11.02 0.85
9 16 2 17.17 18.54 1.04
9 17 2 4.27 3.72 0.48
9 18 2 12.70 13.22 0.90
9 0 3 19.67 20.38 0.91
9 1 3 19.95 20.82 0.94
9 2 3 74.74 74.47 1.63
9 3 3 0.21 0.07 0.34
9 4 3 7.82 7.87 0.58
9 5 3 21.67 21.89 1.00
9 6 3 26.99 28.18 1.10
9 7 3 17.00 16.70 0.92
9 8 3 84.11 87.16 1.86
9 9 3 8.97 10.10 0.83
9 10 3 48.47 50.32 1.44
9 11 3 15.46 15.86 0.95
9 12 3 42.88 44.97 1.40
9 13 3 4.31 3.98 0.50
9 14 3 30.73 30.99 1.25
9 15 3 2.48 3.62 0.49
9 16 3 2.04 2.18 0.45
9 17 3 4.69 4.95 0.51
9 0 4 66.94 67.39 1.60
9 1 4 0.85 1.60 0.40
9 2 4 3.06 3.49 0.44
9 3 4 13.68 15.47 0.87
9 4 4 41.42 42.98 1.29
9 5 4 18.80 19.47 0.97
9 6 4 28.97 29.50 1.10
9 7 4 14.40 13.39 0.89
9 8 4 33.73 35.50 1.24
9 9 4 19.02 20.78 1.01
9 10 4 46.25 49.66 1.48
9 11 4 0.44 0.58 0.40
9 12 4 35.77 36.16 1.28
9 13 4 1.27 1.33 0.43
9 14 4 4.48 4.53 0.51
9 15 4 5.16 5.39 0.53
9 16 4 4.79 4.79 0.51
9 0 5 71.27 70.12 1.69
9 1 5 12.37 12.38 0.87
9 2 5 43.63 44.18 1.35
9 3 5 41.37 40.73 1.31
9 4 5 13.75 13.41 0.89
9 5 5 0.63 1.16 0.40
9 6 5 16.99 18.05 1.00
9 7 5 36.91 37.14 1.27
9 8 5 19.82 20.88 1.03
9 9 5 1.51 1.63 0.43
9 10 5 2.63 2.94 0.47
9 11 5 21.08 21.04 1.07
9 12 5 11.02 11.82 0.89
9 13 5 9.29 7.89 0.66
9 14 5 2.21 2.84 0.47
9 15 5 9.58 9.57 0.77
9 0 6 0.36 0.89 0.40
9 1 6 2.60 2.89 0.46
9 2 6 16.23 16.23 0.96
9 3 6 29.69 30.69 1.19
9 4 6 9.65 9.29 0.75
9 5 6 11.39 10.97 0.87
9 6 6 9.20 10.23 0.83
9 7 6 16.17 16.20 0.99
9 8 6 3.29 3.23 0.49
9 9 6 22.05 24.08 1.12
9 10 6 5.38 5.29 0.58
9 11 6 22.16 21.37 1.08
9 12 6 7.86 9.32 0.75
9 13 6 8.25 7.94 0.58
9 0 7 19.05 18.56 1.04
9 1 7 5.54 6.13 0.61
9 2 7 21.53 20.97 1.09
9 3 7 5.17 5.57 0.53
9 4 7 20.82 19.88 1.08
9 5 7 19.09 20.36 1.08
9 6 7 63.19 64.01 1.68
9 7 7 1.04 1.37 0.42
9 8 7 21.48 21.37 1.05
9 9 7 12.21 11.65 0.93
9 10 7 12.69 13.58 0.93
9 11 7 1.31 1.42 0.42
9 0 8 3.97 4.44 0.51
9 1 8 2.39 2.38 0.45
9 2 8 2.95 2.99 0.47
9 3 8 13.08 13.81 0.95
9 4 8 23.55 23.89 1.15
9 5 8 7.69 7.04 0.62
9 6 8 16.85 19.17 1.01
9 7 8 28.79 29.73 1.22
9 8 8 4.29 5.13 0.51
10 0 0 274.87 276.75 3.63
10 1 0 0.00 0.08 0.75
10 2 0 10.03 10.42 0.80
10 3 0 1.30 1.77 0.41
10 4 0 119.11 120.94 2.19
10 5 0 11.79 10.64 0.82
10 6 0 23.71 24.86 1.07
10 7 0 1.05 1.34 0.41
10 8 0 3.39 3.12 0.46
10 9 0 20.24 18.80 1.00
10 10 0 4.33 3.76 0.48
10 11 0 1.93 2.48 0.45
10 12 0 1.09 1.96 0.45
10 14 0 7.33 7.57 0.72
10 15 0 1.32 1.62 0.43
10 16 0 0.45 0.15 0.39
10 0 1 0.68 0.76 0.37
10 1 1 40.44 41.56 1.28
10 2 1 12.41 13.42 0.81
10 3 1 18.94 19.40 0.95
10 4 1 14.08 13.30 0.89
10 5 1 5.85 5.89 0.57
10 6 1 41.08 42.08 1.32
10 7 1 11.78 12.02 0.79
10 8 1 2.06 2.21 0.44
10 9 1 8.82 10.22 0.85
10 10 1 11.01 11.21 0.87
10 11 1 49.67 49.35 1.48
10 12 1 10.38 9.08 0.78
10 13 1 9.47 9.47 0.68
10 14 1 9.50 8.99 0.77
10 15 1 16.89 17.22 1.01
10 16 1 2.23 2.39 0.45
10 0 2 54.68 52.52 1.45
10 1 2 3.86 3.73 0.46
10 2 2 50.86 51.47 1.46
10 3 2 13.41 14.63 0.89
10 4 2 17.22 19.11 0.95
10 5 2 6.15 5.43 0.51
10 6 2 2.53 2.74 0.45
10 7 2 37.24 37.58 1.27
10 8 2 7.86 7.52 0.71
10 9 2 2.37 2.75 0.46
10 10 2 32.85 33.16 1.27
10 11 2 45.35 45.30 1.44
10 12 2 1.63 2.37 0.46
10 13 2 0.58 0.98 0.41
10 14 2 35.89 35.33 1.29
10 15 2 33.57 33.93 1.27
10 0 3 8.75 7.71 0.71
10 1 3 0.72 0.73 0.39
10 2 3 15.65 15.38 0.90
10 3 3 5.11 5.18 0.51
10 4 3 15.82 15.86 0.93
10 5 3 8.46 8.39 0.64
10 6 3 57.49 58.68 1.55
10 7 3 2.27 2.46 0.45
10 9 3 10.71 11.02 0.88
10 10 3 24.36 23.43 1.14
10 11 3 1.74 1.85 0.44
10 12 3 21.04 22.34 1.08
10 13 3 28.04 27.89 1.20
10 14 3 2.06 2.56 0.46
10 15 3 4.14 2.53 0.45
10 0 4 2.86 3.26 0.46
10 1 4 8.66 8.93 0.73
10 2 4 14.53 15.03 0.90
10 3 4 19.07 18.25 1.02
10 4 4 13.67 15.86 0.94
10 5 4 34.50 33.26 1.25
10 6 4 4.69 3.98 0.49
10 7 4 39.77 39.84 1.38
10 8 4 21.31 22.54 1.10
10 9 4 13.82 15.96 0.97
10 10 4 22.94 23.32 1.13
10 11 4 20.53 21.54 1.09
10 12 4 1.10 1.57 0.43
10 13 4 0.82 0.97 0.41
10 14 4 20.82 20.19 1.05
10 0 5 17.06 18.36 1.01
10 1 5 32.17 33.23 1.25
10 2 5 32.71 30.91 1.25
10 3 5 1.13 1.30 0.42
10 4 5 22.82 23.64 1.10
10 5 5 57.09 58.30 1.62
10 6 5 18.30 20.24 1.07
10 7 5 2.55 2.24 0.46
10 8 5 11.92 12.82 0.91
10 9 5 43.13 42.36 1.42
10 10 5 12.52 13.40 0.96
10 11 5 2.21 2.21 0.45
10 12 5 10.88 9.53 0.78
10 0 6 0.09 0.18 0.41
10 1 6 9.62 9.50 0.65
10 2 6 11.97 11.94 0.93
10 3 6 0.18 0.45 0.40
10 4 6 2.04 2.02 0.45
10 5 6 3.43 4.04 0.50
10 6 6 3.49 3.24 0.47
10 7 6 13.17 13.36 0.85
10 8 6 5.91 6.41 0.55
10 9 6 6.89 6.81 0.61
10 10 6 15.09 15.96 0.96
10 0 7 3.21 3.47 0.49
10 1 7 4.84 5.93 0.53
10 2 7 88.09 87.34 1.96
10 3 7 3.49 3.76 0.49
10 4 7 9.13 9.45 0.78
10 5 7 4.65 4.74 0.51
10 6 7 37.43 37.83 1.32
10 7 7 11.49 11.98 0.92
11 1 0 0.57 0.79 0.40
11 2 0 191.32 188.65 2.94
11 3 0 10.79 10.69 0.79
11 4 0 0.85 0.67 0.40
11 5 0 0.43 0.39 0.40
11 6 0 17.05 20.27 1.05
11 7 0 59.81 60.19 1.62
11 8 0 0.46 0.92 0.41
11 9 0 1.20 1.75 0.44
11 10 0 11.22 10.68 0.81
11 11 0 54.69 57.16 1.57
11 12 0 5.21 4.59 0.51
11 13 0 10.94 9.97 0.81
11 0 1 0.04 0.31 0.38
11 1 1 31.73 31.33 1.22
11 2 1 1.49 1.63 0.43
11 3 1 9.88 8.84 0.75
11 4 1 8.13 8.31 0.64
11 5 1 27.24 26.94 1.16
11 6 1 1.66 1.68 0.44
11 7 1 27.53 29.31 1.18
11 8 1 14.81 15.51 0.98
11 9 1 2.86 2.17 0.45
11 10 1 7.24 8.20 0.66
11 11 1 5.39 5.36 0.52
11 12 1 0.77 0.88 0.41
11 13 1 13.95 13.87 0.82
11 0 2 8.86 7.75 0.71
11 1 2 9.54 10.40 0.85
11 2 2 17.39 14.97 0.99
11 3 2 22.54 21.55 1.10
11 4 2 10.95 13.31 0.90
11 5 2 1.04 1.53 0.44
11 6 2 1.89 2.00 0.45
11 7 2 20.09 20.46 1.06
11 8 2 8.73 9.68 0.77
11 9 2 2.21 2.34 0.46
11 10 2 3.27 3.29 0.48
11 11 2 21.41 22.34 1.09
11 12 2 6.75 6.16 0.60
11 0 3 16.75 16.41 0.98
11 1 3 19.10 20.03 1.03
11 2 3 9.40 8.98 0.75
11 3 3 0.93 0.62 0.40
11 4 3 29.34 28.53 1.20
11 5 3 17.24 19.80 1.03
11 6 3 17.51 18.80 1.04
11 7 3 13.44 12.97 0.94
11 8 3 16.15 15.83 1.02
11 9 3 2.67 3.23 0.47
11 10 3 3.72 3.82 0.49
11 11 3 18.38 16.80 1.03
11 0 4 7.78 7.21 0.63
11 1 4 13.74 15.00 0.96
11 2 4 28.01 28.57 1.19
11 3 4 35.55 36.51 1.32
11 4 4 7.36 7.67 0.58
11 5 4 3.45 3.36 0.47
11 6 4 15.66 17.00 0.97
11 7 4 5.47 5.24 0.53
11 8 4 0.99 1.46 0.42
11 9 4 12.71 11.26 0.81
11 10 4 4.05 3.48 0.47
11 0 5 7.63 9.26 0.68
11 1 5 14.85 14.95 0.99
11 2 5 35.75 36.12 1.32
11 3 5 22.83 23.38 1.08
11 4 5 2.26 2.49 0.45
11 5 5 3.74 3.17 0.47
11 6 5 47.46 49.65 1.52
11 7 5 11.45 12.56 0.90
11 8 5 0.06 0.27 0.41
11 0 6 19.76 18.76 1.06
11 1 6 5.12 4.92 0.51
11 2 6 0.46 0.95 0.44
11 3 6 28.24 28.66 1.19
11 4 6 6.57 7.18 0.62
12 0 0 10.06 9.21 0.68
12 1 0 12.98 14.27 0.96
12 2 0 5.26 5.51 0.59
12 3 0 25.80 25.45 1.15
12 4 0 2.19 2.39 0.45
12 5 0 18.13 18.06 1.01
12 6 0 21.54 20.99 1.06
12 7 0 7.56 8.27 0.58
12 8 0 0.55 0.61 0.41
12 9 0 36.87 36.83 1.31
12 0 1 12.06 12.69 0.91
12 1 1 4.84 5.26 0.52
12 2 1 4.63 3.91 0.50
12 3 1 24.59 23.02 1.13
12 4 1 7.61 9.08 0.71
12 5 1 37.67 35.40 1.32
12 6 1 0.20 0.53 0.40
12 7 1 21.31 23.36 1.12
12 8 1 9.13 10.34 0.87
12 0 2 0.81 1.01 0.41
12 1 2 5.32 5.27 0.52
12 2 2 49.92 48.73 1.52
12 3 2 1.19 1.57 0.43
12 4 2 9.33 8.88 0.77
12 5 2 8.06 7.95 0.64
12 6 2 16.03 15.51 1.00
12 7 2 5.00 5.02 0.51
12 8 2 5.73 5.45 0.59
12 0 3 0.20 1.09 0.85
12 1 3 16.40 18.49 0.99
12 2 3 0.35 0.84 0.41
12 3 3 20.48 21.31 1.08
12 4 3 1.13 1.90 0.44
12 5 3 6.82 7.22 0.71
12 6 3 1.03 0.92 0.41
12 0 4 12.30 14.56 0.95
12 1 4 45.20 45.20 1.42
12 2 4 7.80 9.30 0.85
12 3 4 17.01 17.58 1.01
