#------------------------------------------------------------------------------
#$Date: 2022-03-02 05:20:08 +0200 (Wed, 02 Mar 2022) $
#$Revision: 273207 $
#$URL: file:///home/coder/svn-repositories/cod/cif/1/56/65/1566519.cif $
#------------------------------------------------------------------------------
#
# This file is available in the Crystallography Open Database (COD),
# http://www.crystallography.net/. The original data for this entry
# were provided by IUCr Journals, http://journals.iucr.org/.
#
# The file may be used within the scientific community so long as
# proper attribution is given to the journal article from which the
# data were obtained.
#
data_1566519
loop_
_publ_author_name
'Ruth, Paul Niklas'
'Herbst-Irmer, Regine'
'Stalke, Dietmar'
_publ_section_title
;
 Hirshfeld atom refinement based on projector augmented wave densities
 with periodic boundary conditions
;
_journal_issue                   2
_journal_name_full               IUCrJ
_journal_page_first              286
_journal_page_last               297
_journal_paper_doi               10.1107/S2052252522001385
_journal_volume                  9
_journal_year                    2022
_chemical_formula_moiety         'C H4 N2 O'
_chemical_formula_sum            'C H4 N2 O'
_chemical_formula_weight         60.06
_chemical_name_common            urea
_space_group_crystal_system      tetragonal
_space_group_IT_number           113
_space_group_name_Hall           'P -4 2ab'
_space_group_name_H-M_alt        'P -4 21 m'
_atom_sites_solution_hydrogens   difmap
_audit_creation_method           'xHARPY 0.1'
_cell_angle_alpha                90
_cell_angle_beta                 90
_cell_angle_gamma                90
_cell_formula_units_Z            2
_cell_length_a                   5.5780(6)
_cell_length_b                   5.5780(6)
_cell_length_c                   4.6860(7)
_cell_measurement_reflns_used    17
_cell_measurement_temperature    123(2)
_cell_volume                     145.80(3)
_computing_cell_refinement       'KM6-CH software'
_computing_data_collection       'KM6-CH software'
_computing_data_reduction        XD_RED
_computing_publication_material  'xHARPY 0.1'
_computing_structure_refinement  'xHARPY 0.1'
_diffrn_ambient_temperature      123(2)
_diffrn_measured_fraction_theta_full 1.0
_diffrn_measured_fraction_theta_max 0.982
_diffrn_measurement_device_type
;
KM6-CH six-circle \k diffractometer operated as standard four-circle
\k diffractometer with detector circle in the vertical plane to profit
from the linear polarization of the synchrotron beam.
;
_diffrn_measurement_method       \w-scan
_diffrn_radiation_type           synchrotron
_diffrn_radiation_wavelength     0.5996
_diffrn_reflns_av_R_equivalents  0.0141
_diffrn_reflns_av_unetI/netI     0.0148
_diffrn_reflns_Laue_measured_fraction_full 1.0
_diffrn_reflns_Laue_measured_fraction_max 0.982
_diffrn_reflns_limit_h_max       15
_diffrn_reflns_limit_h_min       -15
_diffrn_reflns_limit_k_max       0
_diffrn_reflns_limit_k_min       -15
_diffrn_reflns_limit_l_max       0
_diffrn_reflns_limit_l_min       -13
_diffrn_reflns_number            1022
_diffrn_reflns_point_group_measured_fraction_full 0.656
_diffrn_reflns_point_group_measured_fraction_max 0.562
_diffrn_reflns_theta_full        21.085
_diffrn_reflns_theta_max         57.401
_diffrn_reflns_theta_min         3.668
_exptl_absorpt_coefficient_mu    0.081
_exptl_absorpt_correction_type   none
_exptl_crystal_colour            colourless
_exptl_crystal_density_diffrn    1.368
_exptl_crystal_density_method    'not measured'
_exptl_crystal_description       block
_exptl_crystal_F_000             64
_exptl_crystal_size_max          0.23
_exptl_crystal_size_mid          0.13
_exptl_crystal_size_min          0.09
_refine_diff_density_max         0.2119
_refine_diff_density_min         -0.4013
_refine_diff_density_rms         0.0381
_refine_ls_extinction_method     none
_refine_ls_goodness_of_fit_ref   1.957
_refine_ls_hydrogen_treatment    refall
_refine_ls_matrix_type           full
_refine_ls_number_parameters     27
_refine_ls_number_reflns         1022
_refine_ls_number_restraints     0
_refine_ls_R_factor_all          0.0287
_refine_ls_R_factor_gt           0.0142
_refine_ls_shift/su_max          0.0
_refine_ls_shift/su_mean         0.0
_refine_ls_structure_factor_coef Fsqd
_refine_ls_weighting_details     w=1/[\s^2^(Fo^2^)]
_refine_ls_weighting_scheme      sigma
_refine_ls_wR_factor_gt          0.0181
_refine_ls_wR_factor_ref         0.0181
_reflns_Friedel_coverage         0.0
_reflns_Friedel_fraction_full    0.0
_reflns_Friedel_fraction_max     0.0
_reflns_number_gt                803
_reflns_number_total             1022
_reflns_threshold_expression     'I > 2\s(I)'
_cod_data_source_file            fc5060.cif
_cod_data_source_block           urea_xHARPy_vdW-DF
_cod_original_cell_volume        145.80(4)
_cod_database_code               1566519
loop_
_space_group_symop_operation_xyz
'x, y, z'
'y, -x, -z'
'-x, -y, z'
'-y, x, -z'
'x+1/2, -y+1/2, -z'
'-y+1/2, -x+1/2, z'
'-x+1/2, y+1/2, -z'
'y+1/2, x+1/2, z'
loop_
_atom_site_label
_atom_site_type_symbol
_atom_site_fract_x
_atom_site_fract_y
_atom_site_fract_z
_atom_site_U_iso_or_equiv
_atom_site_adp_type
_atom_site_occupancy
_atom_site_site_symmetry_order
O O 0.0 0.5 0.59622(3) 0.01518(3) Uani 1.0 4
N N 0.14477(2) 0.64477(2) 0.17851(3) 0.02230(3) Uani 1.0 2
H1 H 0.2540(4) 0.7540(4) 0.2849(5) 0.0450(12) Uani 1.0 2
H2 H 0.1427(4) 0.6427(4) -0.0338(7) 0.0415(9) Uani 1.0 2
C C 0.0 0.5 0.32826(4) 0.01180(3) Uani 1.0 4
loop_
_atom_site_aniso_label
_atom_site_aniso_U_11
_atom_site_aniso_U_22
_atom_site_aniso_U_33
_atom_site_aniso_U_23
_atom_site_aniso_U_13
_atom_site_aniso_U_12
O 0.01951(4) 0.01951(4) 0.00654(4) 0.0 0.0 0.00180(7)
N 0.02882(5) 0.02882(5) 0.00927(4) 0.00006(3) 0.00006(3) -0.01510(7)
H1 0.0567(20) 0.0567(20) 0.022(2) -0.0006(13) -0.0006(13) -0.036(2)
H2 0.0471(14) 0.0471(14) 0.0302(20) -0.0014(13) -0.0014(13) -0.022(2)
C 0.01444(4) 0.01444(4) 0.00652(4) 0.0 0.0 0.00002(7)
loop_
_atom_type_symbol
_atom_type_description
_atom_type_scat_dispersion_real
_atom_type_scat_dispersion_imag
_atom_type_scat_source
C C 0.0020 0.0010 'HAR in xHARPy 0.1'
H H 0.0000 0.0000 'HAR in xHARPy 0.1'
N N 0.0040 0.0020 'HAR in xHARPy 0.1'
O O 0.0070 0.0040 'HAR in xHARPy 0.1'
loop_
_geom_angle_atom_site_label_1
_geom_angle_atom_site_label_2
_geom_angle_atom_site_label_3
_geom_angle
C N H1 118.39(15)
C N H2 120.64(18)
H1 N H2 121.0(2)
O C N 121.570(11)
loop_
_geom_bond_atom_site_label_1
_geom_bond_atom_site_label_2
_geom_bond_distance
O C 1.2557(3)
N C 1.3404(2)
N H1 0.996(3)
N H2 0.995(3)
loop_
_refln_index_h
_refln_index_k
_refln_index_l
_refln_F_squared_calc
_refln_F_squared_meas
_refln_F_squared_sigma
0 0 1 13.07 13.48 0.05
0 0 2 129.96 135.32 0.83
0 0 3 13.37 13.68 0.08
0 0 4 30.81 29.94 0.18
0 0 5 48.11 49.24 0.36
0 0 6 15.42 15.86 0.19
0 0 7 0.28 0.27 0.03
0 0 8 15.19 14.80 0.25
0 0 9 3.78 3.67 0.10
0 0 10 2.89 2.91 0.09
0 0 11 0.08 0.07 0.26
0 0 12 3.90 3.82 0.11
0 0 13 0.20 0.18 0.02
1 0 1 149.13 150.46 0.18
1 0 2 152.48 153.75 0.27
1 0 3 87.32 88.05 0.19
1 0 4 2.30 2.23 0.03
1 0 5 19.20 19.15 0.10
1 0 6 0.51 0.53 0.03
1 0 7 43.67 43.43 0.34
1 0 8 5.98 6.17 0.07
1 0 9 0.01 -0.01 0.32
1 0 10 0.22 0.19 0.01
1 0 11 1.49 1.44 0.04
1 0 12 1.25 1.26 0.04
1 0 13 0.05 0.00 0.31
1 1 0 1037.79 1011.95 1.93
1 1 1 280.06 284.49 0.51
1 1 2 52.99 53.12 0.12
1 1 3 11.85 11.65 0.06
1 1 4 43.90 43.64 0.18
1 1 5 16.98 17.07 0.11
1 1 6 2.95 2.98 0.03
1 1 7 5.80 5.72 0.08
1 1 8 4.44 4.52 0.07
1 1 9 1.30 1.31 0.05
1 1 10 3.30 3.27 0.07
1 1 11 1.59 1.66 0.05
1 1 12 2.42 2.48 0.06
1 1 13 0.26 0.23 0.02
2 0 0 154.58 156.49 0.30
2 0 1 196.18 198.42 0.26
2 0 2 8.28 8.33 0.03
2 0 3 50.38 49.85 0.13
2 0 4 20.43 20.22 0.09
2 0 5 0.63 0.56 0.03
2 0 6 1.49 1.48 0.02
2 0 7 0.25 0.27 0.01
2 0 8 0.04 0.05 0.20
2 0 9 0.38 0.36 0.02
2 0 10 1.10 1.08 0.04
2 0 11 4.41 4.36 0.07
2 0 12 0.97 1.07 0.04
2 0 13 0.00 -0.03 0.30
2 1 0 228.81 227.73 0.28
2 1 1 49.77 49.76 0.08
2 1 2 29.93 30.35 0.07
2 1 3 69.43 68.90 0.16
2 1 4 45.70 45.51 0.14
2 1 5 13.57 13.64 0.07
2 1 6 13.86 13.98 0.09
2 1 7 10.79 10.84 0.09
2 1 8 15.31 14.99 0.13
2 1 9 3.35 3.32 0.05
2 1 10 1.21 1.20 0.03
2 1 11 1.97 1.92 0.04
2 1 12 0.41 0.42 0.02
2 1 13 0.21 0.21 0.01
2 2 0 230.19 228.21 0.42
2 2 1 202.11 200.57 0.39
2 2 2 56.17 54.98 0.16
2 2 3 28.03 27.64 0.12
2 2 4 43.71 43.62 0.21
2 2 5 9.91 9.82 0.08
2 2 6 2.91 2.77 0.05
2 2 7 10.34 10.14 0.12
2 2 8 1.83 1.86 0.05
2 2 9 1.71 1.68 0.05
2 2 10 3.79 3.68 0.07
2 2 11 2.85 2.79 0.06
2 2 12 1.75 1.76 0.05
3 0 1 93.83 93.75 0.17
3 0 2 18.01 17.89 0.06
3 0 3 11.73 11.66 0.05
3 0 4 104.67 105.33 0.38
3 0 5 0.31 0.37 0.02
3 0 6 11.09 10.93 0.09
3 0 7 0.47 0.50 0.02
3 0 8 15.82 15.65 0.16
3 0 9 4.25 4.29 0.06
3 0 10 4.95 4.86 0.07
3 0 11 0.39 0.41 0.02
3 0 12 0.05 0.04 0.17
3 1 0 29.26 29.22 0.07
3 1 1 143.34 142.87 0.23
3 1 2 15.14 14.93 0.05
3 1 3 67.16 66.45 0.18
3 1 4 14.43 14.57 0.07
3 1 5 1.68 1.68 0.03
3 1 6 5.29 5.26 0.05
3 1 7 1.55 1.55 0.03
3 1 8 0.48 0.47 0.02
3 1 9 1.47 1.50 0.03
3 1 10 1.03 1.08 0.03
3 1 11 5.49 5.44 0.07
3 1 12 0.57 0.59 0.03
3 2 0 17.20 17.47 0.05
3 2 1 5.27 5.15 0.03
3 2 2 11.14 11.05 0.04
3 2 3 26.13 25.74 0.09
3 2 4 13.73 13.72 0.07
3 2 5 7.60 7.67 0.05
3 2 6 2.96 3.06 0.04
3 2 7 16.16 16.21 0.13
3 2 8 7.25 7.09 0.07
3 2 9 0.62 0.68 0.03
3 2 10 0.16 0.12 0.02
3 2 11 0.98 0.95 0.03
3 2 12 0.40 0.41 0.02
3 3 0 225.62 220.30 0.62
3 3 1 8.09 8.16 0.05
3 3 2 7.91 7.99 0.06
3 3 3 0.54 0.51 0.03
3 3 4 16.12 15.85 0.12
3 3 5 13.68 13.43 0.09
3 3 6 5.38 5.61 0.07
3 3 7 0.13 0.15 0.02
3 3 8 5.80 5.65 0.09
3 3 9 1.01 0.99 0.05
3 3 10 1.43 1.51 0.05
3 3 11 0.30 0.31 0.02
3 3 12 1.91 1.99 0.05
4 0 0 5.18 5.53 0.06
4 0 1 96.76 97.97 0.24
4 0 2 7.79 7.71 0.04
4 0 3 71.95 72.18 0.25
4 0 4 5.93 5.94 0.05
4 0 5 2.50 2.62 0.04
4 0 6 7.86 7.83 0.07
4 0 7 0.17 0.16 0.01
4 0 8 1.19 1.12 0.04
4 0 9 2.10 2.15 0.05
4 0 10 0.45 0.42 0.02
4 0 11 6.03 6.03 0.09
4 0 12 0.25 0.23 0.01
4 1 0 7.16 7.17 0.04
4 1 1 11.67 11.70 0.04
4 1 2 2.87 2.76 0.03
4 1 3 13.32 13.18 0.06
4 1 4 42.67 43.17 0.18
4 1 5 1.51 1.53 0.03
4 1 6 5.84 5.77 0.05
4 1 7 3.44 3.41 0.04
4 1 8 10.10 10.16 0.10
4 1 9 1.91 1.88 0.04
4 1 10 1.83 1.82 0.04
4 1 11 0.60 0.57 0.02
4 1 12 0.04 0.03 0.28
4 2 0 95.01 93.73 0.22
4 2 1 25.60 25.81 0.08
4 2 2 5.51 5.46 0.03
4 2 3 4.16 4.25 0.03
4 2 4 16.97 16.67 0.09
4 2 5 5.35 5.33 0.03
4 2 6 1.11 1.13 0.03
4 2 7 1.73 1.71 0.03
4 2 8 1.90 1.87 0.04
4 2 9 0.37 0.39 0.02
4 2 10 1.42 1.44 0.04
4 2 11 1.21 1.20 0.03
4 2 12 1.25 1.23 0.03
4 3 0 3.43 3.27 0.03
4 3 1 20.72 20.67 0.08
4 3 2 19.13 18.81 0.08
4 3 3 16.80 16.88 0.08
4 3 4 0.38 0.31 0.02
4 3 5 13.28 13.32 0.09
4 3 6 1.15 1.15 0.03
4 3 7 24.36 24.20 0.20
4 3 8 2.96 3.05 0.04
4 3 9 0.25 0.21 0.01
4 3 10 0.24 0.25 0.01
4 3 11 0.97 1.05 0.03
4 3 12 0.78 0.74 0.03
4 4 0 83.91 83.32 0.39
4 4 1 4.88 4.78 0.05
4 4 2 4.03 4.02 0.05
4 4 3 0.16 0.16 0.01
4 4 4 8.67 8.73 0.06
4 4 5 5.77 5.60 0.07
4 4 6 2.53 2.59 0.05
4 4 7 0.10 0.12 0.02
4 4 8 2.99 2.99 0.06
4 4 9 0.40 0.45 0.02
4 4 10 0.85 0.74 0.05
4 4 11 0.35 0.35 0.02
4 4 12 1.17 1.18 0.05
5 0 1 0.10 0.10 0.01
5 0 2 0.08 0.09 0.02
5 0 3 8.74 8.56 0.06
5 0 4 18.02 18.04 0.11
5 0 5 1.90 1.90 0.04
5 0 6 2.09 2.00 0.04
5 0 7 6.35 6.38 0.08
5 0 8 6.03 5.99 0.08
5 0 9 0.61 0.55 0.03
5 0 10 0.58 0.53 0.03
5 0 11 0.47 0.45 0.02
5 0 12 0.08 0.09 0.02
5 1 0 41.90 42.44 0.15
5 1 1 30.28 30.46 0.10
5 1 2 8.18 8.30 0.05
5 1 3 10.20 10.27 0.06
5 1 4 15.55 15.53 0.09
5 1 5 3.25 3.41 0.04
5 1 6 0.89 0.77 0.03
5 1 7 3.14 3.05 0.04
5 1 8 0.81 0.84 0.03
5 1 9 0.60 0.59 0.02
5 1 10 1.48 1.58 0.04
5 1 11 1.73 1.78 0.04
5 1 12 0.89 0.82 0.03
5 2 0 21.54 21.52 0.08
5 2 1 7.14 7.24 0.04
5 2 2 7.67 7.45 0.04
5 2 3 21.31 21.45 0.10
5 2 4 7.63 7.62 0.06
5 2 5 9.41 9.21 0.07
5 2 6 6.17 6.21 0.06
5 2 7 10.42 10.29 0.10
5 2 8 6.47 6.65 0.07
5 2 9 1.32 1.36 0.03
5 2 10 0.13 0.12 0.01
5 2 11 1.26 1.26 0.03
5 2 12 0.38 0.41 0.01
5 3 0 43.87 43.35 0.16
5 3 1 11.88 11.90 0.06
5 3 2 2.21 2.27 0.03
5 3 3 3.40 3.39 0.03
5 3 4 8.59 8.55 0.06
5 3 5 2.36 2.43 0.03
5 3 6 0.56 0.57 0.02
5 3 7 0.77 0.81 0.03
5 3 8 1.14 1.07 0.03
5 3 9 0.17 0.18 0.01
5 3 10 0.82 0.86 0.03
5 3 11 0.89 0.82 0.03
5 3 12 0.80 0.71 0.03
5 4 0 2.99 2.90 0.03
5 4 1 0.50 0.48 0.02
5 4 2 0.74 0.69 0.03
5 4 3 6.04 5.76 0.03
5 4 4 8.67 8.49 0.07
5 4 5 2.58 2.61 0.04
5 4 6 1.52 1.60 0.03
5 4 7 5.05 5.12 0.06
5 4 8 3.74 3.63 0.05
5 4 9 0.44 0.46 0.02
5 4 10 0.26 0.25 0.01
5 4 11 0.41 0.48 0.02
5 4 12 0.10 0.11 0.01
5 5 0 6.80 6.79 0.07
5 5 1 16.02 15.71 0.14
5 5 2 5.06 5.03 0.04
5 5 3 10.36 10.32 0.11
5 5 4 6.87 6.99 0.09
5 5 5 1.60 1.68 0.05
5 5 6 0.85 0.82 0.04
5 5 7 2.38 2.45 0.06
5 5 8 0.22 0.25 0.02
5 5 9 0.56 0.51 0.03
5 5 10 0.84 0.82 0.05
5 5 11 1.40 1.42 0.05
6 0 0 59.88 61.78 0.41
6 0 1 4.60 4.49 0.04
6 0 2 2.56 2.57 0.03
6 0 3 0.26 0.23 0.01
6 0 4 7.56 7.80 0.07
6 0 5 4.49 4.41 0.05
6 0 6 1.86 1.97 0.04
6 0 7 0.07 0.03 0.33
6 0 8 2.34 2.37 0.05
6 0 9 0.25 0.27 0.01
6 0 10 0.73 0.74 0.04
6 0 11 0.38 0.44 0.02
6 0 12 0.98 1.02 0.03
6 1 0 5.28 5.35 0.04
6 1 1 5.60 5.71 0.04
6 1 2 4.66 4.72 0.04
6 1 3 10.56 10.57 0.07
6 1 4 2.99 2.93 0.04
6 1 5 6.44 6.48 0.06
6 1 6 1.90 1.93 0.03
6 1 7 10.97 10.96 0.11
6 1 8 3.38 3.32 0.05
6 1 9 0.37 0.38 0.02
6 1 10 0.02 -0.01 0.28
6 1 11 0.70 0.73 0.03
6 1 12 0.32 0.32 0.01
6 2 0 23.17 23.56 0.11
6 2 1 13.78 13.82 0.08
6 2 2 2.82 2.86 0.03
6 2 3 6.22 6.23 0.04
6 2 4 7.83 7.61 0.06
6 2 5 1.46 1.56 0.03
6 2 6 0.37 0.31 0.01
6 2 7 1.35 1.30 0.03
6 2 8 0.53 0.61 0.02
6 2 9 0.28 0.25 0.01
6 2 10 0.80 0.84 0.03
6 2 11 1.14 1.18 0.03
6 2 12 0.58 0.55 0.03
6 3 0 0.02 0.04 0.23
6 3 1 0.90 0.89 0.03
6 3 2 0.84 0.92 0.03
6 3 3 2.95 2.89 0.04
6 3 4 15.42 15.26 0.11
6 3 5 0.39 0.33 0.01
6 3 6 1.85 1.77 0.04
6 3 7 1.78 1.80 0.03
6 3 8 4.14 4.36 0.06
6 3 9 0.67 0.60 0.02
6 3 10 0.77 0.78 0.03
6 3 11 0.24 0.23 0.01
6 4 0 2.51 2.48 0.03
6 4 1 13.77 13.54 0.06
6 4 2 2.69 2.64 0.03
6 4 3 14.72 14.85 0.10
6 4 4 3.45 3.46 0.04
6 4 5 0.96 0.87 0.03
6 4 6 1.34 1.31 0.03
6 4 7 0.93 0.92 0.03
6 4 8 0.17 0.16 0.01
6 4 9 0.62 0.63 0.03
6 4 10 0.40 0.40 0.02
6 4 11 1.78 1.73 0.04
6 5 0 4.37 4.18 0.04
6 5 1 0.85 0.86 0.03
6 5 2 1.64 1.58 0.03
6 5 3 4.19 4.05 0.05
6 5 4 9.41 9.36 0.08
6 5 5 1.56 1.55 0.03
6 5 6 2.01 2.11 0.04
6 5 7 1.24 1.28 0.03
6 5 8 3.14 3.15 0.05
6 5 9 0.69 0.76 0.03
6 5 10 0.50 0.49 0.02
6 5 11 0.28 0.28 0.01
6 6 0 9.13 8.54 0.10
6 6 1 2.85 2.74 0.05
6 6 2 0.47 0.43 0.03
6 6 3 1.80 1.78 0.05
6 6 4 1.88 1.95 0.05
6 6 5 0.33 0.29 0.02
6 6 6 0.06 0.04 0.23
6 6 7 0.14 0.16 0.02
6 6 8 0.25 0.23 0.02
6 6 9 0.01 0.05 0.39
6 6 10 0.21 0.20 0.02
6 6 11 0.39 0.37 0.03
7 0 1 8.22 8.56 0.07
7 0 2 5.03 5.16 0.04
7 0 3 5.46 5.29 0.05
7 0 4 0.20 0.18 0.01
7 0 5 6.03 6.31 0.07
7 0 6 0.02 0.05 0.31
7 0 7 11.81 12.02 0.14
7 0 8 1.30 1.24 0.04
7 0 9 0.02 0.05 0.32
7 0 10 0.09 0.09 0.02
7 0 11 0.43 0.48 0.03
7 1 0 30.83 31.61 0.18
7 1 1 3.21 3.20 0.04
7 1 2 1.45 1.46 0.02
7 1 3 0.59 0.61 0.02
7 1 4 4.43 4.63 0.05
7 1 5 2.06 2.07 0.03
7 1 6 0.91 1.02 0.03
7 1 7 0.05 0.08 0.02
7 1 8 1.26 1.24 0.03
7 1 9 0.09 0.10 0.01
7 1 10 0.44 0.41 0.02
7 1 11 0.35 0.36 0.01
7 2 0 0.23 0.28 0.01
7 2 1 0.01 0.01 0.17
7 2 2 0.13 0.17 0.01
7 2 3 2.71 2.73 0.04
7 2 4 8.38 8.37 0.07
7 2 5 0.87 0.87 0.03
7 2 6 1.00 0.95 0.03
7 2 7 2.51 2.61 0.04
7 2 8 2.83 2.95 0.05
7 2 9 0.32 0.28 0.01
7 2 10 0.35 0.39 0.01
7 2 11 0.22 0.22 0.01
7 3 0 1.36 1.38 0.03
7 3 1 10.76 10.76 0.08
7 3 2 1.47 1.46 0.03
7 3 3 14.05 14.08 0.11
7 3 4 1.88 1.85 0.03
7 3 5 0.72 0.65 0.03
7 3 6 1.36 1.36 0.03
7 3 7 0.31 0.32 0.01
7 3 8 0.18 0.18 0.01
7 3 9 0.59 0.58 0.03
7 3 10 0.20 0.27 0.01
7 3 11 1.67 1.64 0.03
7 4 0 1.03 1.00 0.03
7 4 1 1.38 1.35 0.03
7 4 2 1.79 1.83 0.03
7 4 3 1.67 1.71 0.03
7 4 4 11.86 11.63 0.10
7 4 5 0.33 0.34 0.01
7 4 6 1.52 1.48 0.03
7 4 7 0.44 0.45 0.02
7 4 8 2.88 3.06 0.05
7 4 9 0.62 0.55 0.03
7 4 10 0.74 0.78 0.03
7 4 11 0.13 0.14 0.01
7 5 0 6.00 5.85 0.06
7 5 1 3.23 3.19 0.04
7 5 2 0.05 0.10 0.03
7 5 3 2.88 2.87 0.04
7 5 4 1.46 1.44 0.03
7 5 5 0.05 0.08 0.02
7 5 6 0.00 0.01 0.20
7 5 7 0.02 0.01 0.29
7 5 8 0.09 0.09 0.02
7 5 9 0.04 0.04 0.28
7 5 10 0.15 0.16 0.01
7 5 11 0.51 0.48 0.02
7 6 0 0.52 0.52 0.02
7 6 1 2.33 2.22 0.04
7 6 2 1.07 1.10 0.03
7 6 3 2.20 2.16 0.04
7 6 4 0.35 0.36 0.01
7 6 5 1.88 1.88 0.04
7 6 6 0.33 0.32 0.01
7 6 7 3.48 3.57 0.05
7 6 8 0.71 0.71 0.03
7 6 9 0.04 -0.01 0.29
7 6 10 0.00 -0.03 0.27
7 7 1 1.20 1.29 0.05
7 7 2 1.39 1.39 0.05
7 7 3 0.01 0.00 0.39
7 7 4 2.01 1.94 0.06
7 7 5 1.16 1.11 0.05
7 7 6 0.82 0.88 0.05
7 7 7 0.23 0.29 0.02
7 7 8 0.73 0.70 0.04
7 7 9 0.14 0.17 0.02
7 7 10 0.20 0.21 0.02
8 0 0 17.22 17.27 0.14
8 0 1 2.29 2.29 0.04
8 0 2 0.79 0.82 0.03
8 0 3 0.71 0.80 0.03
8 0 4 2.72 2.75 0.05
8 0 5 0.99 0.90 0.03
8 0 6 0.45 0.51 0.02
8 0 7 0.03 0.06 0.33
8 0 8 0.70 0.66 0.03
8 0 9 0.03 0.01 0.33
8 0 10 0.27 0.25 0.01
8 0 11 0.29 0.29 0.01
8 1 0 1.42 1.51 0.03
8 1 1 1.00 0.97 0.03
8 1 2 0.60 0.62 0.02
8 1 3 3.21 3.19 0.04
8 1 4 2.77 2.93 0.04
8 1 5 1.94 1.99 0.04
8 1 6 0.71 0.78 0.03
8 1 7 3.50 3.54 0.05
8 1 8 1.70 1.67 0.04
8 1 9 0.16 0.22 0.01
8 1 10 0.06 0.02 0.28
8 1 11 0.26 0.28 0.01
8 2 0 4.80 4.70 0.05
8 2 1 6.53 6.58 0.06
8 2 2 1.47 1.57 0.03
8 2 3 5.07 5.16 0.05
8 2 4 2.96 3.08 0.04
8 2 5 0.50 0.56 0.02
8 2 6 0.25 0.26 0.01
8 2 7 0.76 0.83 0.03
8 2 8 0.09 0.12 0.01
8 2 9 0.22 0.19 0.01
8 2 10 0.35 0.39 0.02
8 2 11 0.76 0.79 0.03
8 3 0 1.16 1.13 0.03
8 3 1 0.40 0.39 0.01
8 3 2 0.87 0.87 0.03
8 3 3 1.76 1.85 0.03
8 3 4 7.14 7.06 0.07
8 3 5 0.52 0.52 0.02
8 3 6 1.05 1.10 0.03
8 3 7 0.75 0.81 0.03
8 3 8 2.08 2.10 0.04
8 3 9 0.38 0.37 0.02
8 3 10 0.41 0.40 0.02
8 3 11 0.14 0.14 0.01
8 4 0 4.08 4.17 0.05
8 4 1 3.05 2.94 0.04
8 4 2 0.01 0.03 0.26
8 4 3 3.05 2.96 0.04
8 4 4 1.18 1.13 0.03
8 4 5 0.01 0.02 0.28
8 4 6 0.03 0.09 0.03
8 4 7 0.02 0.03 0.16
8 4 8 0.04 0.05 0.02
8 4 9 0.07 0.05 0.20
8 4 10 0.12 0.17 0.01
8 5 0 1.02 0.99 0.03
8 5 1 1.30 1.35 0.03
8 5 2 0.72 0.72 0.03
8 5 3 2.22 2.22 0.04
8 5 4 0.84 0.79 0.03
8 5 5 1.39 1.34 0.03
8 5 6 0.57 0.60 0.03
8 5 7 2.32 2.37 0.04
8 5 8 0.87 0.88 0.03
8 5 9 0.09 0.09 0.02
8 5 10 0.01 0.02 0.26
8 6 0 8.21 8.45 0.09
8 6 1 1.57 1.51 0.04
8 6 2 1.24 1.20 0.03
8 6 3 0.04 0.02 0.28
8 6 4 2.04 1.99 0.04
8 6 5 0.91 1.02 0.03
8 6 6 0.59 0.59 0.03
8 6 7 0.31 0.31 0.02
8 6 8 0.56 0.56 0.02
8 6 9 0.12 0.13 0.01
8 6 10 0.21 0.24 0.02
8 7 0 0.09 0.14 0.02
8 7 1 0.68 0.56 0.03
8 7 2 0.21 0.22 0.01
8 7 3 0.77 0.78 0.03
8 7 4 0.37 0.35 0.02
8 7 5 0.64 0.65 0.03
8 7 6 0.12 0.15 0.02
8 7 7 1.29 1.26 0.04
8 7 8 0.35 0.36 0.01
8 7 9 0.01 0.00 0.27
8 8 0 0.94 0.89 0.05
8 8 1 0.88 0.87 0.04
8 8 2 0.14 0.16 0.02
8 8 3 0.94 0.96 0.05
8 8 4 0.36 0.35 0.02
8 8 5 0.04 0.01 0.41
8 8 6 0.01 0.00 0.41
8 8 7 0.08 0.03 0.41
8 8 8 0.01 0.01 0.39
9 0 1 0.00 -0.02 0.30
9 0 2 0.08 0.09 0.02
9 0 3 1.05 1.02 0.04
9 0 4 3.72 3.89 0.06
9 0 5 0.40 0.35 0.02
9 0 6 0.42 0.45 0.02
9 0 7 1.17 1.15 0.04
9 0 8 1.27 1.34 0.04
9 0 9 0.13 0.12 0.02
9 0 10 0.17 0.19 0.01
9 1 0 3.68 3.61 0.04
9 1 1 3.61 3.64 0.04
9 1 2 0.60 0.64 0.02
9 1 3 2.98 3.14 0.04
9 1 4 1.69 1.68 0.04
9 1 5 0.22 0.26 0.01
9 1 6 0.09 0.05 0.20
9 1 7 0.33 0.32 0.01
9 1 8 0.06 0.03 0.29
9 1 9 0.11 0.07 0.01
9 1 10 0.19 0.20 0.01
9 2 0 1.42 1.40 0.03
9 2 1 0.23 0.23 0.01
9 2 2 0.45 0.41 0.01
9 2 3 1.92 1.92 0.04
9 2 4 3.06 3.14 0.04
9 2 5 0.88 0.79 0.03
9 2 6 0.72 0.83 0.03
9 2 7 1.18 1.19 0.03
9 2 8 1.31 1.25 0.04
9 2 9 0.21 0.22 0.01
9 2 10 0.14 0.11 0.01
9 3 0 5.02 5.29 0.06
9 3 1 1.65 1.64 0.03
9 3 2 0.19 0.19 0.01
9 3 3 1.19 1.14 0.03
9 3 4 1.06 1.06 0.03
9 3 5 0.14 0.12 0.01
9 3 6 0.03 0.04 0.20
9 3 7 0.05 0.03 0.20
9 3 8 0.14 0.13 0.01
9 3 9 0.01 0.02 0.28
9 3 10 0.11 0.09 0.02
9 4 0 0.41 0.42 0.02
9 4 1 1.05 1.07 0.03
9 4 2 0.44 0.48 0.02
9 4 3 1.43 1.40 0.03
9 4 4 0.58 0.54 0.02
9 4 5 1.05 1.04 0.03
9 4 6 0.27 0.29 0.01
9 4 7 1.97 2.05 0.04
9 4 8 0.60 0.62 0.03
9 4 9 0.04 0.05 0.28
9 4 10 0.00 -0.03 0.27
9 5 0 5.92 6.31 0.07
9 5 1 1.44 1.36 0.03
9 5 2 0.91 0.98 0.03
9 5 3 0.11 0.06 0.02
9 5 4 1.65 1.61 0.04
9 5 5 0.61 0.65 0.03
9 5 6 0.37 0.38 0.01
9 5 7 0.27 0.28 0.01
9 5 8 0.38 0.38 0.02
9 5 9 0.08 0.05 0.20
9 6 0 0.17 0.18 0.01
9 6 1 0.42 0.42 0.02
9 6 2 0.15 0.15 0.01
9 6 3 0.72 0.77 0.03
9 6 4 0.53 0.50 0.02
9 6 5 0.48 0.45 0.02
9 6 6 0.18 0.16 0.01
9 6 7 0.94 0.94 0.03
9 6 8 0.37 0.40 0.01
9 6 9 0.02 0.03 0.27
9 7 0 0.76 0.81 0.03
9 7 1 0.84 0.90 0.03
9 7 2 0.09 0.05 0.20
9 7 3 1.00 0.99 0.03
9 7 4 0.29 0.30 0.01
9 7 5 0.03 -0.04 0.29
9 7 6 0.02 0.04 0.28
9 7 7 0.05 0.03 0.28
9 7 8 0.00 0.01 0.27
9 8 0 0.57 0.58 0.02
9 8 1 0.16 0.17 0.01
9 8 2 0.38 0.40 0.02
9 8 3 0.42 0.38 0.02
9 8 4 1.38 1.43 0.04
9 8 5 0.20 0.20 0.01
9 8 6 0.27 0.29 0.01
9 8 7 0.05 0.03 0.20
9 8 8 0.39 0.37 0.02
9 9 0 0.13 0.11 0.02
9 9 1 0.58 0.66 0.04
9 9 2 0.18 0.16 0.02
9 9 3 0.70 0.79 0.04
9 9 4 0.19 0.22 0.02
9 9 5 0.08 0.06 0.40
9 9 6 0.04 0.06 0.22
9 9 7 0.08 0.07 0.38
10 0 0 0.98 0.93 0.04
10 0 1 2.25 2.27 0.04
10 0 2 0.07 0.05 0.32
10 0 3 3.11 3.14 0.05
10 0 4 0.50 0.47 0.02
10 0 5 0.07 0.07 0.33
10 0 6 0.15 0.19 0.01
10 0 7 0.01 0.00 0.33
10 0 8 0.00 0.04 0.32
10 0 9 0.12 0.10 0.02
10 0 10 0.05 0.09 0.51
10 1 0 0.12 0.10 0.01
10 1 1 0.03 0.02 0.27
10 1 2 0.20 0.20 0.01
10 1 3 0.59 0.61 0.02
10 1 4 2.69 2.72 0.04
10 1 5 0.19 0.13 0.01
10 1 6 0.33 0.33 0.01
10 1 7 0.49 0.50 0.02
10 1 8 0.83 0.89 0.03
10 1 9 0.11 0.07 0.02
10 1 10 0.15 0.18 0.02
10 2 0 3.29 3.38 0.05
10 2 1 1.10 1.07 0.03
10 2 2 0.11 0.09 0.03
10 2 3 0.84 0.85 0.03
10 2 4 0.70 0.77 0.03
10 2 5 0.07 0.06 0.02
10 2 6 0.02 0.01 0.28
10 2 7 0.02 0.02 0.28
10 2 8 0.09 0.09 0.01
10 2 9 0.01 -0.02 0.28
10 2 10 0.07 0.04 0.37
10 3 0 0.05 0.07 0.02
10 3 1 0.88 0.87 0.03
10 3 2 0.27 0.32 0.01
10 3 3 0.81 0.85 0.03
10 3 4 0.30 0.31 0.01
10 3 5 0.78 0.78 0.03
10 3 6 0.06 0.11 0.02
10 3 7 1.58 1.56 0.04
10 3 8 0.35 0.29 0.01
10 3 9 0.00 0.05 0.27
10 4 0 4.87 5.11 0.07
10 4 1 0.62 0.61 0.02
10 4 2 0.52 0.50 0.02
10 4 3 0.04 0.03 0.28
10 4 4 0.92 1.01 0.03
10 4 5 0.41 0.40 0.02
10 4 6 0.30 0.31 0.01
10 4 7 0.08 0.08 0.02
10 4 8 0.31 0.26 0.01
10 4 9 0.04 -0.02 0.19
10 5 0 0.07 0.06 0.02
10 5 1 0.34 0.34 0.01
10 5 2 0.09 0.10 0.02
10 5 3 0.50 0.48 0.02
10 5 4 0.40 0.38 0.02
10 5 5 0.38 0.36 0.02
10 5 6 0.10 0.09 0.02
10 5 7 0.78 0.78 0.03
10 5 8 0.28 0.27 0.01
10 5 9 0.01 0.00 0.26
10 6 0 0.62 0.59 0.02
10 6 1 0.70 0.70 0.03
10 6 2 0.05 0.03 0.20
10 6 3 0.87 0.86 0.03
10 6 4 0.23 0.23 0.01
10 6 5 0.02 -0.01 0.29
10 6 6 0.01 0.00 0.29
10 6 7 0.03 0.03 0.20
10 6 8 0.00 0.00 0.27
10 7 0 0.37 0.37 0.02
10 7 1 0.14 0.13 0.02
10 7 2 0.32 0.32 0.01
10 7 3 0.29 0.32 0.01
10 7 4 1.27 1.28 0.04
10 7 5 0.13 0.14 0.01
10 7 6 0.21 0.19 0.01
10 7 7 0.04 0.02 0.20
10 7 8 0.33 0.34 0.01
10 8 0 0.11 0.10 0.02
10 8 1 0.53 0.51 0.02
10 8 2 0.15 0.16 0.01
10 8 3 0.68 0.74 0.03
10 8 4 0.16 0.17 0.01
10 8 5 0.07 0.03 0.20
10 8 6 0.04 0.05 0.19
10 8 7 0.07 0.05 0.01
10 9 0 0.00 0.01 0.20
10 9 1 0.03 0.04 0.28
10 9 2 0.00 0.00 0.28
10 9 3 0.07 0.07 0.02
10 9 4 0.17 0.18 0.01
10 9 5 0.05 0.02 0.28
10 9 6 0.02 0.03 0.19
10 10 0 0.57 0.59 0.04
10 10 1 0.10 0.12 0.02
10 10 2 0.09 0.07 0.40
10 10 3 0.00 -0.02 0.40
10 10 4 0.13 0.13 0.02
10 10 5 0.05 0.06 0.38
11 0 1 0.01 0.00 0.33
11 0 2 0.14 0.08 0.02
11 0 3 0.27 0.33 0.02
11 0 4 1.65 1.56 0.04
11 0 5 0.07 0.02 0.33
11 0 6 0.18 0.14 0.02
11 0 7 0.25 0.27 0.01
11 0 8 0.48 0.50 0.03
11 0 9 0.06 -0.01 0.31
11 1 0 1.20 1.33 0.03
11 1 1 0.90 0.92 0.03
11 1 2 0.02 0.03 0.20
11 1 3 0.98 0.96 0.03
11 1 4 0.36 0.38 0.01
11 1 5 0.01 0.02 0.28
11 1 6 0.01 0.03 0.28
11 1 7 0.01 0.04 0.28
11 1 8 0.01 0.04 0.28
11 1 9 0.03 0.05 0.26
11 2 0 0.10 0.12 0.02
11 2 1 0.27 0.24 0.01
11 2 2 0.07 0.03 0.20
11 2 3 0.48 0.51 0.02
11 2 4 0.47 0.42 0.02
11 2 5 0.35 0.37 0.01
11 2 6 0.09 0.10 0.02
11 2 7 0.71 0.74 0.03
11 2 8 0.30 0.28 0.01
11 2 9 0.01 0.04 0.26
11 3 0 2.84 2.80 0.05
11 3 1 0.40 0.44 0.02
11 3 2 0.25 0.23 0.01
11 3 3 0.08 0.09 0.02
11 3 4 0.53 0.54 0.03
11 3 5 0.19 0.18 0.01
11 3 6 0.15 0.15 0.01
11 3 7 0.03 0.03 0.28
11 3 8 0.16 0.12 0.01
11 4 0 0.01 0.02 0.28
11 4 1 0.27 0.23 0.01
11 4 2 0.05 0.04 0.17
11 4 3 0.32 0.32 0.01
11 4 4 0.25 0.27 0.01
11 4 5 0.29 0.26 0.01
11 4 6 0.04 0.05 0.20
11 4 7 0.60 0.54 0.03
11 4 8 0.18 0.15 0.01
11 5 0 0.65 0.63 0.03
11 5 1 0.47 0.52 0.02
11 5 2 0.05 0.08 0.28
11 5 3 0.50 0.52 0.02
11 5 4 0.20 0.22 0.01
11 5 5 0.01 -0.01 0.29
11 5 6 0.00 0.04 0.28
11 5 7 0.03 0.05 0.27
11 5 8 0.01 -0.02 0.26
11 6 0 0.25 0.25 0.01
11 6 1 0.06 0.09 0.01
11 6 2 0.20 0.21 0.01
11 6 3 0.22 0.24 0.01
11 6 4 0.88 0.88 0.03
11 6 5 0.10 0.10 0.02
11 6 6 0.14 0.16 0.01
11 6 7 0.05 0.04 0.19
11 7 0 0.11 0.12 0.02
11 7 1 0.41 0.41 0.02
11 7 2 0.10 0.09 0.01
11 7 3 0.55 0.52 0.03
11 7 4 0.12 0.13 0.01
11 7 5 0.05 0.08 0.02
11 7 6 0.03 0.06 0.27
11 7 7 0.04 0.06 0.26
11 8 0 0.00 0.00 0.28
11 8 1 0.02 -0.01 0.29
11 8 2 0.00 -0.02 0.29
11 8 3 0.06 0.07 0.02
11 8 4 0.16 0.16 0.01
11 8 5 0.04 0.06 0.19
11 8 6 0.02 0.03 0.26
11 9 0 0.51 0.53 0.02
11 9 1 0.10 0.10 0.01
11 9 2 0.08 0.06 0.02
11 9 3 0.00 -0.02 0.28
11 9 4 0.12 0.13 0.02
11 9 5 0.05 0.05 0.19
11 10 0 0.05 0.05 0.28
11 10 1 0.14 0.11 0.01
11 10 2 0.06 0.06 0.02
11 10 3 0.10 0.08 0.02
12 0 0 0.91 1.00 0.04
12 0 1 0.39 0.37 0.02
12 0 2 0.01 0.00 0.22
12 0 3 0.37 0.34 0.02
12 0 4 0.21 0.20 0.01
12 0 5 0.01 0.01 0.33
12 0 6 0.00 0.04 0.32
12 0 7 0.00 0.03 0.31
12 0 8 0.02 0.05 0.31
12 1 0 0.06 0.05 0.29
12 1 1 0.08 0.08 0.02
12 1 2 0.03 0.05 0.28
12 1 3 0.25 0.28 0.01
12 1 4 0.39 0.37 0.02
12 1 5 0.16 0.16 0.01
12 1 6 0.07 0.01 0.29
12 1 7 0.33 0.36 0.02
12 1 8 0.19 0.19 0.01
12 2 0 1.17 1.17 0.03
12 2 1 0.36 0.36 0.01
12 2 2 0.10 0.12 0.02
12 2 3 0.18 0.17 0.01
12 2 4 0.30 0.29 0.01
12 2 5 0.05 0.01 0.29
12 2 6 0.04 0.00 0.28
12 2 7 0.03 0.05 0.28
12 2 8 0.05 0.06 0.01
12 3 0 0.02 0.03 0.28
12 3 1 0.10 0.09 0.01
12 3 2 0.01 0.03 0.20
12 3 3 0.19 0.18 0.01
12 3 4 0.26 0.27 0.01
12 3 5 0.14 0.14 0.02
12 3 6 0.04 0.07 0.02
12 3 7 0.31 0.29 0.01
12 4 0 0.48 0.47 0.02
12 4 1 0.30 0.29 0.01
12 4 2 0.02 0.01 0.29
12 4 3 0.32 0.32 0.01
12 4 4 0.13 0.14 0.01
12 4 5 0.01 0.00 0.28
12 4 6 0.00 -0.01 0.28
12 4 7 0.01 0.03 0.27
12 5 0 0.15 0.12 0.02
12 5 1 0.02 0.02 0.29
12 5 2 0.09 0.10 0.02
12 5 3 0.15 0.13 0.01
12 5 4 0.50 0.55 0.02
12 5 5 0.07 0.06 0.28
12 5 6 0.08 0.08 0.28
12 5 7 0.06 0.03 0.26
12 6 0 0.13 0.15 0.01
12 6 1 0.27 0.27 0.01
12 6 2 0.06 0.05 0.21
12 6 3 0.34 0.38 0.02
12 6 4 0.09 0.08 0.02
12 6 5 0.02 0.03 0.20
12 6 6 0.01 0.01 0.27
12 7 0 0.00 -0.01 0.28
12 7 1 0.02 0.01 0.20
12 7 2 0.00 0.00 0.28
12 7 3 0.05 0.06 0.01
12 7 4 0.12 0.13 0.01
12 7 5 0.04 0.00 0.19
12 8 0 0.40 0.43 0.02
12 8 1 0.08 0.06 0.02
12 8 2 0.06 0.09 0.02
12 8 3 0.00 0.00 0.27
12 8 4 0.10 0.10 0.02
12 9 0 0.04 0.05 0.28
12 9 1 0.11 0.06 0.02
12 9 2 0.05 0.00 0.28
12 9 3 0.08 0.07 0.02
13 0 1 0.09 0.08 0.02
13 0 2 0.01 0.03 0.21
13 0 3 0.11 0.12 0.02
13 0 4 0.13 0.11 0.01
13 0 5 0.11 0.09 0.02
13 0 6 0.01 0.00 0.32
13 0 7 0.23 0.20 0.01
13 1 0 0.65 0.67 0.03
13 1 1 0.16 0.15 0.01
13 1 2 0.04 0.00 0.29
13 1 3 0.10 0.10 0.01
13 1 4 0.13 0.13 0.01
13 1 5 0.02 0.01 0.20
13 1 6 0.02 0.01 0.19
13 1 7 0.01 0.03 0.26
13 2 0 0.01 0.01 0.28
13 2 1 0.04 0.02 0.28
13 2 2 0.01 0.00 0.28
13 2 3 0.10 0.09 0.02
13 2 4 0.19 0.16 0.01
13 2 5 0.07 0.02 0.29
13 2 6 0.03 0.05 0.27
13 3 0 0.26 0.24 0.01
13 3 1 0.18 0.19 0.01
13 3 2 0.00 0.00 0.29
13 3 3 0.22 0.22 0.01
13 3 4 0.07 0.05 0.29
13 3 5 0.00 0.01 0.28
13 3 6 0.00 0.01 0.27
13 4 0 0.04 0.02 0.20
13 4 1 0.00 0.03 0.28
13 4 2 0.04 0.04 0.28
13 4 3 0.07 0.07 0.02
13 4 4 0.30 0.30 0.01
13 4 5 0.03 -0.03 0.32
13 4 6 0.04 0.05 0.19
13 5 0 0.12 0.13 0.01
13 5 1 0.16 0.17 0.01
13 5 2 0.02 -0.01 0.28
13 5 3 0.20 0.18 0.01
13 5 4 0.06 0.00 0.28
13 5 5 0.01 0.04 0.26
13 6 0 0.00 0.01 0.28
13 6 1 0.02 0.01 0.28
13 6 2 0.00 0.00 0.28
13 6 3 0.04 0.06 0.27
13 6 4 0.09 0.08 0.02
13 6 5 0.03 -0.01 0.27
13 7 0 0.28 0.26 0.01
13 7 1 0.05 0.05 0.02
13 7 2 0.03 0.02 0.16
13 7 3 0.01 0.00 0.19
13 7 4 0.06 0.04 0.27
13 8 0 0.02 0.01 0.27
13 8 1 0.07 0.06 0.02
13 8 2 0.03 0.05 0.26
14 0 0 0.36 0.33 0.02
14 0 1 0.06 0.01 0.33
14 0 2 0.02 0.01 0.21
14 0 3 0.04 -0.01 0.33
14 0 4 0.06 0.08 0.02
14 0 5 0.01 0.00 0.31
14 1 0 0.00 0.01 0.28
14 1 1 0.03 0.03 0.28
14 1 2 0.00 -0.05 0.29
14 1 3 0.05 0.02 0.28
14 1 4 0.08 0.06 0.28
14 1 5 0.05 0.02 0.27
14 2 0 0.18 0.17 0.01
14 2 1 0.09 0.10 0.02
14 2 2 0.00 -0.01 0.28
14 2 3 0.10 0.09 0.02
14 2 4 0.04 0.04 0.27
14 2 5 0.00 -0.02 0.27
14 3 0 0.01 0.01 0.28
14 3 1 0.00 0.00 0.28
14 3 2 0.02 0.02 0.28
14 3 3 0.03 0.04 0.28
14 3 4 0.16 0.11 0.02
14 3 5 0.02 -0.02 0.26
14 4 0 0.08 0.07 0.01
14 4 1 0.09 0.07 0.02
14 4 2 0.01 -0.01 0.28
14 4 3 0.11 0.11 0.02
14 4 4 0.03 -0.01 0.19
14 5 0 0.00 -0.03 0.28
14 5 1 0.01 -0.02 0.20
14 5 2 0.00 0.00 0.27
14 5 3 0.02 0.04 0.27
14 6 0 0.17 0.17 0.01
14 6 1 0.03 -0.01 0.19
14 6 2 0.02 0.00 0.27
15 0 1 0.01 -0.01 0.32
15 0 2 0.00 -0.04 0.32
15 0 3 0.02 0.04 0.30
15 1 0 0.11 0.08 0.28
15 1 1 0.04 0.03 0.19
15 1 2 0.00 0.03 0.26
15 1 3 0.04 0.03 0.19
15 2 0 0.00 0.02 0.27
15 2 1 0.00 0.00 0.27
15 2 2 0.00 -0.01 0.27
15 3 0 0.06 0.06 0.27
15 3 1 0.04 -0.02 0.27
15 3 2 0.00 0.01 0.26
15 4 0 0.00 0.01 0.19
