#------------------------------------------------------------------------------
#$Date: 2022-03-02 05:20:08 +0200 (Wed, 02 Mar 2022) $
#$Revision: 273207 $
#$URL: file:///home/coder/svn-repositories/cod/cif/1/56/64/1566443.cif $
#------------------------------------------------------------------------------
#
# This file is available in the Crystallography Open Database (COD),
# http://www.crystallography.net/. The original data for this entry
# were provided by IUCr Journals, http://journals.iucr.org/.
#
# The file may be used within the scientific community so long as
# proper attribution is given to the journal article from which the
# data were obtained.
#
data_1566443
loop_
_publ_author_name
'Ruth, Paul Niklas'
'Herbst-Irmer, Regine'
'Stalke, Dietmar'
_publ_section_title
;
 Hirshfeld atom refinement based on projector augmented wave densities
 with periodic boundary conditions
;
_journal_issue                   2
_journal_name_full               IUCrJ
_journal_page_first              286
_journal_page_last               297
_journal_paper_doi               10.1107/S2052252522001385
_journal_volume                  9
_journal_year                    2022
_chemical_absolute_configuration syn
_chemical_formula_moiety         'C3 H7 N O2'
_chemical_formula_sum            'C3 H7 N O2'
_chemical_formula_weight         89.0947
_space_group_crystal_system      orthorhombic
_space_group_IT_number           19
_space_group_name_Hall           'P 2ac 2ab'
_space_group_name_H-M_alt        'P 21 21 21'
_atom_sites_solution_hydrogens   difmap
_audit_creation_method           'xHARPY 0.1'
_cell_angle_alpha                90
_cell_angle_beta                 90
_cell_angle_gamma                90
_cell_formula_units_Z            4
_cell_length_a                   5.9279(10)
_cell_length_b                   12.2597(17)
_cell_length_c                   5.7939(9)
_cell_measurement_reflns_used    1524
_cell_measurement_temperature    23
_cell_measurement_theta_max      22.5
_cell_measurement_theta_min      15.0
_cell_volume                     421.07(11)
_computing_publication_material  'xHARPY 0.1'
_computing_structure_refinement  'xHARPY 0.1'
_computing_structure_solution    'SHELXS-2013 (Sheldrick, 2008)'
_diffrn_ambient_temperature      23
_diffrn_measured_fraction_theta_full 0.994
_diffrn_measured_fraction_theta_max 0.993
_diffrn_measurement_device_type  'P-1 four circle diffractometer'
_diffrn_measurement_method       'area detector'
_diffrn_radiation_type           MoK\a
_diffrn_radiation_wavelength     0.71073
_diffrn_reflns_av_unetI/netI     0.0243
_diffrn_reflns_Laue_measured_fraction_full 0.994
_diffrn_reflns_Laue_measured_fraction_max 0.993
_diffrn_reflns_limit_h_max       12
_diffrn_reflns_limit_h_min       0
_diffrn_reflns_limit_k_max       26
_diffrn_reflns_limit_k_min       0
_diffrn_reflns_limit_l_max       12
_diffrn_reflns_limit_l_min       0
_diffrn_reflns_number            2519
_diffrn_reflns_point_group_measured_fraction_full 0.618
_diffrn_reflns_point_group_measured_fraction_max 0.567
_diffrn_reflns_theta_full        25.242
_diffrn_reflns_theta_max         50.138
_diffrn_reflns_theta_min         3.323
_exptl_absorpt_coefficient_mu    0.117
_exptl_absorpt_correction_type   none
_exptl_crystal_colour            colorless
_exptl_crystal_density_diffrn    1.405
_exptl_crystal_density_method    'not measured'
_exptl_crystal_description       sphere
_exptl_crystal_F_000             192
_exptl_crystal_size_rad          0.18
_refine_diff_density_max         0.1807
_refine_diff_density_min         -0.1842
_refine_diff_density_rms         0.0433
_refine_ls_extinction_method     none
_refine_ls_goodness_of_fit_ref   1.112
_refine_ls_hydrogen_treatment    refall
_refine_ls_matrix_type           full
_refine_ls_number_parameters     118
_refine_ls_number_reflns         2519
_refine_ls_number_restraints     0
_refine_ls_R_factor_all          0.0206
_refine_ls_R_factor_gt           0.0187
_refine_ls_shift/su_max          0.0
_refine_ls_shift/su_mean         0.0
_refine_ls_structure_factor_coef Fsqd
_refine_ls_weighting_details     w=1/[\s^2^(Fo^2^)]
_refine_ls_weighting_scheme      sigma
_refine_ls_wR_factor_gt          0.031
_refine_ls_wR_factor_ref         0.0312
_reflns_Friedel_coverage         0.0
_reflns_Friedel_fraction_full    0.0
_reflns_Friedel_fraction_max     0.0
_reflns_number_gt                2393
_reflns_number_total             2519
_reflns_threshold_expression     'I > 2\s(I)'
_cod_data_source_file            fc5060.cif
_cod_data_source_block           A23_xHARPy_revPBE
_cod_database_code               1566443
loop_
_space_group_symop_operation_xyz
'x, y, z'
'-x+1/2, -y, z+1/2'
'x+1/2, -y+1/2, -z'
'-x, y+1/2, -z+1/2'
loop_
_atom_site_label
_atom_site_type_symbol
_atom_site_fract_x
_atom_site_fract_y
_atom_site_fract_z
_atom_site_U_iso_or_equiv
_atom_site_adp_type
_atom_site_occupancy
_atom_site_site_symmetry_order
O1 O 0.72674(4) 0.083789(16) 0.62434(4) 0.00661(3) Uani 1.0 1
O2 O 0.44093(4) 0.184041(16) 0.76113(4) 0.00643(3) Uani 1.0 1
N1 N 0.64719(4) 0.137517(20) 0.18303(5) 0.00526(3) Uani 1.0 1
H1 H 0.7034(11) 0.0602(5) 0.1958(14) 0.0234(19) Uani 1.0 1
H2 H 0.7787(10) 0.1899(5) 0.2082(14) 0.0203(17) Uani 1.0 1
H3 H 0.5847(12) 0.1491(5) 0.0149(12) 0.0204(17) Uani 1.0 1
C1 C 0.46631(4) 0.161074(20) 0.35444(5) 0.00434(3) Uani 1.0 1
H4 H 0.4237(9) 0.2477(4) 0.3390(11) 0.0190(15) Uani 1.0 1
C2 C 0.25991(5) 0.09068(2) 0.30334(6) 0.00681(4) Uani 1.0 1
H5 H 0.1931(10) 0.1105(5) 0.1320(12) 0.0277(18) Uani 1.0 1
H6 H 0.1283(10) 0.1049(5) 0.4298(13) 0.0278(18) Uani 1.0 1
H7 H 0.3048(10) 0.0046(5) 0.3074(13) 0.0300(20) Uani 1.0 1
C3 C 0.55407(4) 0.140794(19) 0.59991(5) 0.00409(3) Uani 1.0 1
loop_
_atom_site_aniso_label
_atom_site_aniso_U_11
_atom_site_aniso_U_22
_atom_site_aniso_U_33
_atom_site_aniso_U_23
_atom_site_aniso_U_13
_atom_site_aniso_U_12
O1 0.00679(7) 0.00720(6) 0.00585(8) 0.00050(6) -0.00060(6) 0.00246(6)
O2 0.00762(7) 0.00763(6) 0.00404(7) -0.00057(6) 0.00058(6) 0.00200(6)
N1 0.00562(7) 0.00599(7) 0.00415(8) -0.00008(6) 0.00046(6) 0.00005(6)
H1 0.024(4) 0.026(4) 0.020(5) 0.001(3) 0.009(4) 0.004(3)
H2 0.013(3) 0.025(4) 0.023(5) 0.003(4) 0.007(4) -0.000(3)
H3 0.031(4) 0.021(4) 0.009(4) -0.005(3) 0.006(4) -0.006(4)
C1 0.00499(8) 0.00458(7) 0.00345(9) 0.00004(6) -0.00027(7) 0.00044(6)
H4 0.023(3) 0.015(3) 0.019(4) 0.004(3) 0.006(3) 0.010(3)
C2 0.00572(8) 0.00874(8) 0.00596(10) -0.00042(8) -0.00060(7) -0.00130(7)
H5 0.024(4) 0.047(5) 0.012(4) 0.009(3) -0.011(3) -0.012(3)
H6 0.014(3) 0.035(4) 0.034(5) 0.004(4) 0.005(4) -0.002(3)
H7 0.034(5) 0.016(3) 0.041(5) -0.004(3) 0.003(4) -0.005(3)
C3 0.00479(7) 0.00420(7) 0.00329(9) 0.00001(6) -0.00029(7) 0.00028(7)
loop_
_atom_type_symbol
_atom_type_description
_atom_type_scat_dispersion_real
_atom_type_scat_dispersion_imag
_atom_type_scat_source
C C 0.0033 0.0016 'HAR in xHARPy 0.1'
H H 0.0000 0.0000 'HAR in xHARPy 0.1'
N N 0.0061 0.0033 'HAR in xHARPy 0.1'
O O 0.0106 0.0060 'HAR in xHARPy 0.1'
loop_
_geom_angle_atom_site_label_1
_geom_angle_atom_site_label_2
_geom_angle_atom_site_label_3
_geom_angle
C1 N1 H1 111.8(4)
C1 N1 H2 109.4(4)
H1 N1 H2 109.2(5)
C1 N1 H3 109.7(4)
H1 N1 H3 108.1(5)
H2 N1 H3 108.5(5)
N1 C1 C2 109.76(2)
N1 C1 C3 110.02(2)
C2 C1 C3 111.09(2)
N1 C1 H4 107.4(3)
C2 C1 H4 110.3(3)
C3 C1 H4 108.1(3)
C1 C2 H5 109.9(3)
C1 C2 H6 110.8(3)
H5 C2 H6 108.5(4)
C1 C2 H7 110.4(3)
H5 C2 H7 108.8(5)
H6 C2 H7 108.5(5)
O1 C3 O2 125.83(3)
O1 C3 C1 118.30(2)
O2 C3 C1 115.87(2)
loop_
_geom_bond_atom_site_label_1
_geom_bond_atom_site_label_2
_geom_bond_distance
O1 C3 1.2475(4)
O2 C3 1.2663(4)
N1 C1 1.4898(4)
N1 H1 1.008(6)
N1 H2 1.020(6)
N1 H3 1.052(7)
C1 C2 1.5263(4)
C1 C3 1.5346(4)
C1 H4 1.095(5)
C2 H5 1.096(6)
C2 H6 1.084(7)
C2 H7 1.089(6)
loop_
_refln_index_h
_refln_index_k
_refln_index_l
_refln_F_squared_calc
_refln_F_squared_meas
_refln_F_squared_sigma
0 2 0 182.75 184.16 1.76
0 4 0 5386.12 5196.46 44.54
0 6 0 90.17 89.88 1.04
0 8 0 45.56 45.45 0.72
0 10 0 0.58 0.80 0.34
0 12 0 237.23 233.26 2.67
0 14 0 56.45 58.69 1.13
0 16 0 24.54 25.30 0.86
0 18 0 226.30 228.12 2.98
0 20 0 0.02 0.22 0.34
0 22 0 133.76 135.82 2.36
0 24 0 0.06 0.23 0.38
0 26 0 5.51 6.46 0.62
0 1 1 731.52 725.94 7.34
0 2 1 118.39 119.79 1.22
0 3 1 697.99 710.07 6.41
0 4 1 95.59 98.48 1.07
0 5 1 0.29 0.23 0.16
0 6 1 474.87 475.97 4.59
0 7 1 36.62 37.01 0.61
0 8 1 44.05 44.45 0.73
0 9 1 32.66 32.15 0.67
0 10 1 135.05 137.60 1.70
0 11 1 67.53 66.86 1.11
0 12 1 76.63 76.51 1.23
0 13 1 19.75 18.87 0.69
0 14 1 39.26 37.99 0.95
0 15 1 91.34 91.16 1.56
0 16 1 0.34 2.39 9.22
0 17 1 0.89 1.13 0.35
0 18 1 61.47 60.01 1.37
0 19 1 15.79 16.19 0.90
0 20 1 27.99 27.50 1.05
0 21 1 2.08 2.69 0.42
0 23 1 1.76 1.73 0.42
0 24 1 0.03 0.16 0.38
0 25 1 2.31 3.00 0.56
0 26 1 19.72 19.83 1.24
0 0 2 2914.04 2848.40 33.38
0 1 2 519.20 534.29 6.57
0 2 2 174.99 181.95 2.08
0 3 2 56.65 56.31 0.80
0 4 2 171.85 171.57 1.79
0 5 2 557.74 568.02 5.33
0 6 2 92.39 96.92 1.17
0 7 2 5.22 5.43 0.34
0 8 2 109.29 111.96 1.40
0 9 2 21.85 23.74 0.60
0 10 2 46.07 46.35 0.86
0 11 2 84.41 83.96 1.26
0 12 2 28.47 28.31 0.75
0 13 2 21.73 21.54 0.70
0 14 2 22.24 21.34 0.75
0 15 2 182.18 181.70 2.39
0 16 2 4.03 4.45 0.41
0 17 2 63.43 61.19 1.39
0 18 2 19.54 20.45 0.91
0 19 2 118.55 120.13 2.10
0 20 2 0.88 0.98 0.41
0 21 2 46.16 46.04 1.36
0 22 2 37.42 36.89 1.29
0 23 2 16.89 18.05 1.03
0 24 2 1.82 2.50 0.46
0 25 2 21.85 22.51 1.26
0 26 2 1.71 2.56 0.50
0 1 3 82.75 84.16 1.75
0 2 3 156.49 158.10 2.93
0 3 3 203.08 205.86 2.46
0 4 3 718.25 740.57 7.79
0 5 3 79.15 81.49 1.20
0 6 3 268.26 272.92 2.85
0 7 3 22.11 22.45 0.57
0 8 3 61.13 61.78 1.00
0 9 3 145.78 143.03 1.79
0 10 3 39.75 39.70 0.84
0 11 3 69.09 70.52 1.18
0 12 3 119.44 119.16 1.70
0 13 3 144.76 145.81 2.00
0 14 3 29.13 27.88 0.86
0 15 3 91.03 90.65 1.59
0 16 3 156.20 155.11 2.27
0 17 3 48.71 47.31 1.24
0 18 3 28.00 27.06 1.00
0 19 3 3.12 2.51 0.41
0 20 3 43.78 44.53 1.34
0 21 3 0.84 0.87 0.38
0 22 3 0.61 1.16 0.41
0 23 3 26.75 28.22 1.17
0 24 3 12.22 12.74 0.91
0 25 3 5.75 4.99 0.58
0 0 4 211.11 210.11 3.91
0 1 4 38.49 39.90 1.20
0 2 4 91.96 93.25 2.06
0 3 4 7.82 8.02 0.45
0 4 4 225.80 229.95 2.84
0 5 4 0.36 0.68 0.37
0 6 4 71.22 71.08 1.23
0 7 4 29.89 29.27 0.78
0 8 4 65.44 64.62 1.08
0 9 4 7.22 7.21 0.46
0 10 4 88.38 90.53 1.39
0 11 4 97.78 98.18 1.52
0 12 4 39.43 39.09 0.96
0 13 4 11.06 11.51 0.65
0 14 4 143.69 142.72 2.09
0 15 4 46.23 45.36 1.18
0 16 4 94.82 94.87 1.74
0 17 4 5.28 5.72 0.46
0 18 4 10.19 9.65 0.74
0 19 4 3.88 3.37 0.44
0 20 4 1.67 1.84 0.41
0 21 4 0.47 0.19 0.37
0 22 4 3.58 4.36 0.49
0 23 4 0.03 0.12 0.40
0 24 4 25.87 26.63 1.14
0 25 4 2.23 2.90 0.51
0 1 5 241.69 236.60 4.53
0 2 5 139.93 137.56 2.96
0 3 5 49.94 49.31 1.54
0 4 5 387.47 389.89 4.59
0 5 5 180.46 178.09 2.44
0 6 5 0.70 0.78 0.41
0 7 5 7.08 6.64 0.53
0 8 5 148.93 145.53 2.18
0 9 5 73.55 69.50 1.43
0 10 5 9.20 7.97 0.55
0 11 5 21.97 20.79 0.78
0 12 5 1.33 1.49 0.33
0 13 5 77.97 79.35 1.51
0 14 5 2.78 3.53 0.41
0 15 5 13.38 14.13 0.79
0 16 5 13.91 13.31 0.80
0 17 5 73.89 77.18 1.66
0 18 5 2.71 2.34 0.42
0 19 5 14.27 13.65 0.90
0 20 5 0.16 0.30 0.40
0 21 5 21.23 19.68 1.04
0 22 5 4.78 5.51 0.53
0 23 5 14.21 12.55 0.96
0 24 5 0.33 0.26 0.38
0 0 6 0.65 0.79 0.63
0 1 6 94.94 93.94 2.45
0 2 6 15.44 16.23 1.03
0 3 6 0.96 1.49 0.65
0 4 6 16.90 16.02 1.09
0 5 6 85.67 86.44 1.57
0 6 6 12.16 11.20 0.65
0 7 6 144.71 142.34 2.25
0 8 6 31.60 30.07 0.99
0 9 6 12.74 14.38 0.78
0 10 6 15.80 15.64 0.82
0 11 6 119.30 117.45 1.90
0 12 6 6.38 6.32 0.56
0 13 6 4.33 4.79 0.48
0 14 6 10.91 11.71 0.74
0 15 6 0.02 0.09 0.34
0 16 6 43.67 41.62 1.28
0 17 6 29.19 29.18 1.11
0 18 6 6.91 7.81 0.69
0 19 6 43.45 44.30 1.39
0 20 6 1.33 1.84 0.43
0 21 6 22.44 21.34 1.09
0 22 6 10.34 10.60 0.78
0 23 6 17.05 17.04 1.00
0 1 7 61.51 58.90 2.06
0 2 7 552.48 542.34 9.75
0 3 7 0.00 0.47 0.77
0 4 7 12.03 11.81 1.10
0 5 7 24.65 24.13 1.44
0 6 7 43.05 43.26 1.22
0 7 7 47.63 46.75 1.28
0 8 7 1.55 1.95 0.43
0 9 7 4.41 4.95 0.52
0 10 7 10.28 9.24 0.81
0 11 7 30.19 31.46 1.19
0 12 7 5.09 5.85 0.64
0 13 7 13.18 11.66 0.80
0 14 7 1.04 1.48 0.38
0 16 7 83.67 81.87 1.82
0 17 7 0.50 1.06 0.40
0 18 7 1.43 2.31 0.44
0 19 7 5.22 6.87 0.56
0 20 7 137.66 135.51 2.45
0 21 7 0.41 0.91 0.40
0 0 8 26.06 24.53 1.51
0 1 8 2.96 3.59 0.95
0 2 8 9.66 8.73 1.15
0 3 8 16.63 15.75 1.35
0 4 8 1.92 1.73 0.95
0 6 8 10.23 10.30 0.82
0 7 8 58.46 59.76 1.57
0 8 8 89.62 87.68 1.93
0 9 8 11.31 12.29 0.87
0 10 8 5.37 6.56 0.70
0 11 8 41.23 40.18 1.41
0 12 8 40.22 40.31 1.45
0 13 8 32.71 32.22 1.35
0 14 8 11.16 12.57 0.98
0 15 8 0.07 0.56 0.38
0 16 8 0.58 1.00 0.40
0 17 8 7.23 6.58 0.55
0 18 8 0.29 0.58 0.40
0 19 8 10.34 9.24 0.77
0 20 8 5.69 6.17 0.53
0 1 9 6.72 8.54 1.17
0 2 9 48.30 46.48 2.20
0 3 9 62.84 63.48 2.54
0 4 9 21.15 22.27 1.63
0 5 9 1.31 1.66 0.96
0 6 9 1.34 1.58 0.98
0 7 9 47.59 46.63 1.53
0 8 9 79.58 79.83 1.95
0 9 9 17.16 16.51 1.07
0 10 9 13.90 13.88 1.02
0 11 9 1.77 2.25 0.53
0 12 9 35.60 34.96 1.40
0 13 9 29.12 29.21 1.34
0 14 9 0.67 0.29 0.49
0 15 9 46.31 47.41 1.64
0 16 9 13.49 14.49 1.09
0 17 9 15.34 15.56 0.99
0 18 9 8.41 8.60 0.64
0 0 10 5.15 4.82 1.23
0 1 10 0.00 0.01 1.01
0 2 10 21.23 20.74 1.74
0 3 10 49.44 49.07 2.42
0 4 10 27.73 28.40 1.95
0 5 10 32.81 32.77 2.06
0 6 10 41.32 41.70 2.33
0 7 10 54.28 54.47 2.61
0 8 10 58.56 60.33 1.80
0 9 10 6.74 6.75 0.66
0 10 10 1.23 1.86 0.52
0 11 10 17.63 16.42 1.15
0 12 10 12.05 13.45 0.93
0 13 10 11.51 12.57 1.05
0 14 10 46.35 43.67 1.63
0 15 10 5.06 5.87 0.65
0 1 11 0.64 0.48 1.22
0 2 11 1.99 2.71 1.24
0 3 11 7.70 6.81 1.48
0 4 11 1.16 0.92 1.29
0 5 11 1.54 0.90 1.29
0 6 11 8.85 7.74 1.54
0 7 11 2.47 3.10 1.35
0 8 11 7.83 8.41 1.54
0 9 11 7.78 8.02 0.77
0 10 11 0.77 1.57 0.54
0 11 11 9.25 8.36 0.84
0 12 11 31.45 30.23 1.41
0 0 12 0.04 2.49 9.22
0 1 12 28.93 27.07 2.25
0 2 12 19.06 20.25 1.97
0 3 12 119.17 116.47 3.97
0 4 12 0.33 0.42 1.42
0 5 12 9.40 9.80 1.72
0 6 12 54.70 55.90 2.76
0 7 12 69.34 64.97 3.05
1 1 0 252.28 252.07 2.37
1 2 0 5397.50 5499.53 58.23
1 3 0 58.55 59.24 0.69
1 4 0 1722.59 1682.40 14.80
1 5 0 335.39 339.17 3.29
1 6 0 63.62 62.02 0.80
1 7 0 19.38 19.30 0.44
1 8 0 395.36 403.08 4.01
1 9 0 2.68 3.27 0.34
1 10 0 41.55 43.16 0.80
1 11 0 95.13 97.11 1.36
1 12 0 25.69 26.98 0.71
1 13 0 58.53 57.46 1.08
1 14 0 1.50 0.86 0.43
1 15 0 85.28 86.51 1.48
1 16 0 24.39 24.52 0.85
1 17 0 30.37 29.61 0.96
1 18 0 0.82 0.93 0.38
1 19 0 34.22 33.81 1.10
1 20 0 42.20 40.37 1.25
1 21 0 1.21 1.44 0.43
1 22 0 3.82 4.00 0.47
1 23 0 6.14 7.02 0.60
1 24 0 9.83 9.81 0.79
1 26 0 6.70 7.34 0.64
1 0 1 74.27 76.97 0.84
1 1 1 130.24 133.88 1.36
1 2 1 102.34 104.36 1.11
1 3 1 1088.47 1090.16 9.70
1 4 1 155.59 157.40 1.64
1 5 1 438.22 438.91 4.23
1 6 1 21.21 21.94 0.44
1 7 1 335.23 340.15 3.42
1 8 1 231.14 235.14 2.49
1 9 1 230.74 232.84 2.54
1 10 1 134.36 131.53 1.68
1 11 1 17.22 17.19 0.56
1 12 1 1.15 0.36 0.36
1 13 1 128.56 127.94 1.78
1 14 1 30.32 29.65 0.83
1 15 1 88.60 87.83 1.52
1 16 1 61.98 61.93 1.29
1 17 1 25.34 25.49 0.91
1 18 1 23.32 23.84 0.93
1 19 1 14.65 15.35 0.83
1 20 1 6.42 5.84 0.48
1 21 1 1.45 2.07 0.41
1 22 1 33.33 34.85 1.21
1 23 1 9.52 10.69 0.89
1 24 1 21.84 20.99 1.08
1 25 1 8.66 9.52 0.82
1 26 1 0.77 2.01 0.48
1 0 2 3277.40 3112.85 36.22
1 1 2 69.06 71.84 0.94
1 2 2 566.64 573.82 6.13
1 3 2 194.30 194.57 2.03
1 4 2 1062.89 1066.83 9.65
1 5 2 18.60 18.65 0.41
1 6 2 216.07 220.03 2.32
1 7 2 163.17 162.44 1.83
1 8 2 10.71 10.27 0.43
1 9 2 58.84 61.96 0.98
1 10 2 59.86 59.62 1.00
1 11 2 117.29 118.24 1.59
1 12 2 118.09 115.69 1.63
1 13 2 111.95 110.49 1.64
1 14 2 54.80 54.85 1.14
1 15 2 30.86 31.72 0.92
1 16 2 29.33 27.70 0.95
1 17 2 77.69 75.91 1.53
1 18 2 109.44 110.37 1.93
1 19 2 40.24 41.31 1.20
1 20 2 10.36 9.73 0.70
1 21 2 22.07 22.93 1.02
1 22 2 38.75 36.67 1.28
1 23 2 43.56 43.51 1.42
1 24 2 9.68 10.67 0.80
1 25 2 0.09 0.15 0.43
1 26 2 3.68 4.50 0.56
1 0 3 30.45 32.12 0.92
1 1 3 294.43 303.31 5.24
1 2 3 220.96 225.33 2.65
1 3 3 89.37 91.96 1.28
1 4 3 92.87 95.91 1.34
1 5 3 23.08 23.09 0.53
1 6 3 134.57 138.46 1.64
1 7 3 4.95 5.19 0.38
1 8 3 257.38 258.29 2.82
1 9 3 29.32 29.09 0.70
1 10 3 78.85 79.89 1.24
1 11 3 15.54 16.71 0.60
1 12 3 32.49 32.38 0.84
1 13 3 35.04 33.89 0.91
1 14 3 115.56 115.14 1.79
1 15 3 34.31 33.57 0.98
1 16 3 10.01 9.32 0.62
1 17 3 26.03 25.09 0.95
1 18 3 27.73 26.59 1.01
1 19 3 27.77 27.29 1.06
1 20 3 7.93 7.78 0.66
1 21 3 24.22 23.64 1.05
1 22 3 6.69 7.22 0.61
1 23 3 2.91 2.75 0.46
1 24 3 8.12 8.16 0.64
1 25 3 15.78 17.96 1.16
1 0 4 329.20 329.22 5.85
1 1 4 251.28 260.71 4.74
1 2 4 27.95 28.82 1.05
1 3 4 22.67 23.47 0.64
1 4 4 108.57 109.96 1.57
1 5 4 82.00 83.91 1.35
1 6 4 131.75 130.70 1.88
1 7 4 84.60 83.93 1.23
1 8 4 45.54 45.29 0.89
1 9 4 2.19 2.18 0.38
1 10 4 22.06 22.77 0.70
1 11 4 64.41 62.51 1.18
1 12 4 146.16 141.24 2.00
1 13 4 25.69 27.20 0.86
1 14 4 42.22 39.51 1.07
1 15 4 2.16 2.99 0.40
1 16 4 22.31 23.64 0.91
1 17 4 26.86 28.16 1.02
1 18 4 57.06 58.74 1.47
1 19 4 40.10 40.91 1.25
1 20 4 9.05 9.27 0.80
1 21 4 11.23 10.83 0.79
1 22 4 21.00 21.83 1.05
1 23 4 14.66 15.12 0.96
1 24 4 2.24 2.14 0.43
1 0 5 285.30 285.29 5.32
1 1 5 121.34 122.74 2.72
1 2 5 473.63 464.94 8.14
1 3 5 179.64 176.76 3.65
1 4 5 111.65 108.40 1.69
1 5 5 8.61 8.58 0.53
1 6 5 228.33 230.35 3.02
1 7 5 73.98 73.15 1.39
1 8 5 71.24 69.51 1.38
1 9 5 92.80 90.29 1.46
1 10 5 9.85 9.55 0.58
1 11 5 34.90 35.95 0.96
1 12 5 24.99 25.14 0.86
1 13 5 44.89 44.85 1.15
1 14 5 40.00 40.31 1.12
1 15 5 29.79 29.92 1.03
1 16 5 74.81 78.82 1.64
1 17 5 11.23 11.49 0.80
1 18 5 7.42 6.98 0.65
1 19 5 18.10 18.73 0.98
1 20 5 65.48 64.84 1.64
1 21 5 25.16 25.18 1.12
1 22 5 1.49 1.73 0.43
1 23 5 3.49 4.59 0.50
1 24 5 18.06 17.48 1.00
1 0 6 0.57 0.07 0.63
1 1 6 0.50 0.90 0.62
1 2 6 7.92 7.57 0.84
1 3 6 12.91 12.46 0.99
1 4 6 16.57 16.04 1.09
1 5 6 12.84 13.33 0.67
1 6 6 22.15 21.94 0.82
1 7 6 7.55 7.80 0.62
1 8 6 10.03 9.12 0.68
1 9 6 11.64 11.10 0.77
1 10 6 2.77 2.44 0.44
1 11 6 10.82 9.86 0.68
1 12 6 29.82 29.08 0.96
1 13 6 7.63 7.56 0.60
1 14 6 28.01 28.09 1.01
1 15 6 11.89 11.04 0.81
1 16 6 3.00 2.99 0.43
1 17 6 21.06 21.58 1.01
1 18 6 13.86 13.90 0.90
1 19 6 10.99 11.84 0.86
1 20 6 33.57 31.68 1.25
1 21 6 9.10 9.43 0.78
1 22 6 10.24 8.65 0.76
1 23 6 11.68 12.07 0.89
1 0 7 250.27 248.61 5.16
1 1 7 26.27 26.93 1.45
1 2 7 59.91 61.53 2.12
1 3 7 80.38 81.67 2.50
1 4 7 144.83 141.70 3.53
1 5 7 29.28 30.67 1.04
1 6 7 62.98 61.91 1.47
1 7 7 10.52 9.54 0.77
1 8 7 57.69 56.51 1.46
1 9 7 68.45 67.57 1.62
1 10 7 18.02 18.81 0.96
1 11 7 21.68 21.90 0.91
1 12 7 2.59 1.91 0.46
1 13 7 41.26 42.47 1.25
1 14 7 26.15 24.69 1.05
1 15 7 34.44 32.41 1.18
1 16 7 23.38 25.94 1.08
1 17 7 19.39 20.57 1.02
1 18 7 45.20 43.18 1.39
1 19 7 6.83 6.77 0.62
1 20 7 14.44 15.49 0.99
1 21 7 9.23 9.34 0.67
1 0 8 10.07 10.48 1.20
1 1 8 34.14 35.44 1.79
1 2 8 19.41 19.91 1.44
1 3 8 31.29 32.22 1.72
1 4 8 33.46 32.89 1.76
1 5 8 104.10 102.58 3.12
1 6 8 16.20 15.10 0.92
1 7 8 95.38 91.66 1.96
1 8 8 3.66 3.26 0.49
1 9 8 50.99 51.40 1.52
1 10 8 41.87 39.87 1.39
1 11 8 94.46 95.85 2.13
1 12 8 12.89 11.81 0.97
1 13 8 28.64 28.41 1.27
1 14 8 1.95 1.20 0.51
1 15 8 43.84 46.44 1.39
1 16 8 5.29 5.60 0.52
1 17 8 29.00 26.91 1.18
1 18 8 4.51 5.48 0.52
1 19 8 1.89 2.28 0.44
1 20 8 0.04 0.11 0.39
1 0 9 0.14 0.04 0.93
1 1 9 3.14 2.24 1.00
1 2 9 50.34 51.72 2.28
1 3 9 1.23 1.64 0.98
1 4 9 3.74 3.27 1.14
1 5 9 28.18 28.69 1.84
1 6 9 8.82 10.09 1.30
1 7 9 14.68 15.93 1.02
1 8 9 8.03 8.38 0.74
1 9 9 19.90 19.90 1.12
1 10 9 31.45 29.68 1.31
1 11 9 45.19 46.26 1.58
1 12 9 8.41 8.98 0.82
1 13 9 16.97 16.15 1.14
1 14 9 7.33 7.95 0.82
1 15 9 21.69 22.32 1.24
1 16 9 42.96 43.09 1.59
1 17 9 18.05 18.36 1.05
1 18 9 11.84 11.61 0.90
1 0 10 2.70 3.49 1.18
1 1 10 24.38 25.82 1.88
1 2 10 2.23 1.57 1.13
1 3 10 17.82 20.23 1.72
1 4 10 21.71 21.78 1.83
1 5 10 33.21 32.81 2.10
1 6 10 40.63 41.75 2.32
1 7 10 33.24 31.81 2.11
1 8 10 24.44 24.61 1.26
1 9 10 7.55 7.41 0.81
1 10 10 60.77 56.17 1.81
1 11 10 15.61 16.36 1.15
1 12 10 48.10 45.73 1.64
1 13 10 0.10 0.23 0.51
1 14 10 7.82 6.60 0.67
1 15 10 11.07 10.57 0.89
1 0 11 1.56 0.81 1.29
1 1 11 13.59 12.05 1.62
1 2 11 34.69 33.94 2.27
1 3 11 23.91 23.49 1.96
1 4 11 11.85 11.94 1.63
1 5 11 5.22 6.16 1.45
1 6 11 2.93 3.97 1.35
1 7 11 7.82 8.64 1.58
1 8 11 16.55 15.68 1.18
1 9 11 25.04 23.60 1.31
1 10 11 19.45 18.80 1.23
1 11 11 2.75 3.62 0.59
1 12 11 0.79 1.62 0.53
1 0 12 16.59 17.94 1.93
1 1 12 75.92 76.27 3.20
1 2 12 9.30 8.33 1.74
1 3 12 3.10 3.24 1.56
1 4 12 27.88 29.15 2.22
1 5 12 71.70 68.86 3.12
1 6 12 2.73 2.87 1.53
1 7 12 23.94 22.94 2.09
2 0 0 40.96 42.02 0.54
2 1 0 31.27 31.19 0.44
2 2 0 1723.48 1682.36 14.82
2 3 0 798.82 788.29 7.19
2 4 0 35.66 35.92 0.53
2 5 0 91.94 91.33 1.08
2 6 0 2111.94 2085.68 18.52
2 7 0 292.49 294.38 3.01
2 8 0 0.41 0.76 0.30
2 9 0 236.55 235.46 2.59
2 10 0 249.50 254.90 2.79
2 11 0 2.12 2.42 0.36
2 12 0 45.59 43.49 0.91
2 13 0 167.20 168.33 2.14
2 14 0 11.94 10.96 0.60
2 15 0 71.92 70.10 1.33
2 16 0 39.19 37.07 1.03
2 17 0 36.63 35.76 1.05
2 18 0 43.50 43.80 1.20
2 19 0 36.44 37.84 1.17
2 20 0 1.67 0.92 0.37
2 21 0 8.49 7.75 0.64
2 22 0 15.85 15.15 0.93
2 23 0 10.80 11.19 0.88
2 24 0 32.73 32.46 1.24
2 25 0 3.14 4.13 0.58
2 26 0 1.01 1.08 0.45
2 0 1 1.37 1.64 0.16
2 1 1 78.41 78.18 0.89
2 2 1 277.20 278.01 2.73
2 3 1 524.07 537.61 5.06
2 4 1 155.06 158.14 1.67
2 5 1 420.83 427.70 4.16
2 6 1 22.93 22.97 0.48
2 7 1 95.50 98.19 1.23
2 8 1 4.07 4.85 0.36
2 9 1 274.75 273.79 2.95
2 10 1 9.08 8.72 0.46
2 11 1 5.24 4.76 0.43
2 12 1 41.85 40.78 0.89
2 13 1 81.54 80.00 1.35
2 14 1 43.59 44.83 1.03
2 15 1 21.92 23.80 0.81
2 16 1 3.44 3.57 0.40
2 17 1 11.62 10.10 0.69
2 18 1 10.49 9.98 0.73
2 19 1 29.19 29.30 1.06
2 20 1 70.26 71.82 1.64
2 21 1 27.39 28.94 1.12
2 22 1 23.52 23.38 1.07
2 23 1 2.90 2.57 0.45
2 24 1 38.04 41.24 1.34
2 25 1 22.56 23.05 1.33
2 26 1 29.42 30.54 1.46
2 0 2 4.33 4.21 0.23
2 1 2 305.75 309.30 3.06
2 2 2 1084.77 1086.86 9.84
2 3 2 108.88 107.33 1.25
2 4 2 88.54 89.27 1.09
2 5 2 7.77 8.41 0.35
2 6 2 287.23 292.76 3.02
2 7 2 139.76 140.70 1.67
2 8 2 142.09 144.41 1.76
2 9 2 128.97 128.44 1.62
2 10 2 2.68 2.66 0.37
2 11 2 65.21 64.26 1.12
2 12 2 57.61 57.44 1.09
2 13 2 73.65 73.67 1.31
2 14 2 32.48 33.90 0.91
2 15 2 33.01 31.90 0.93
2 16 2 77.65 73.41 1.46
2 17 2 0.11 0.07 0.34
2 18 2 9.72 10.84 0.74
2 19 2 1.29 1.14 0.36
2 20 2 31.13 31.92 1.13
2 21 2 29.41 30.32 1.17
2 22 2 3.28 3.57 0.47
2 23 2 1.68 2.54 0.45
2 24 2 9.17 8.74 0.76
2 25 2 40.75 40.01 1.67
2 0 3 134.02 132.41 1.53
2 1 3 139.08 140.73 1.58
2 2 3 375.41 384.59 3.82
2 3 3 447.68 449.32 4.44
2 4 3 64.30 66.01 0.94
2 5 3 250.47 250.01 2.67
2 6 3 89.20 91.24 1.23
2 7 3 106.67 108.89 1.42
2 8 3 120.85 119.95 1.55
2 9 3 289.57 290.19 3.20
2 10 3 254.60 257.63 2.93
2 11 3 12.32 12.04 0.58
2 12 3 85.60 84.70 1.42
2 13 3 43.42 43.98 1.03
2 14 3 50.22 48.31 1.14
2 15 3 16.95 17.02 0.80
2 16 3 2.28 2.79 0.40
2 17 3 11.22 12.79 0.75
2 18 3 2.77 2.11 0.38
2 19 3 38.94 38.96 1.22
2 20 3 9.07 9.90 0.67
2 21 3 43.65 43.45 1.37
2 22 3 8.95 7.82 0.72
2 23 3 4.00 5.22 0.57
2 24 3 0.01 0.04 0.40
2 25 3 12.66 13.09 1.07
2 0 4 54.23 56.92 1.53
2 1 4 105.25 107.17 1.55
2 2 4 127.91 131.50 1.83
2 3 4 133.78 133.72 1.85
2 4 4 13.04 13.03 0.57
2 5 4 61.65 59.99 0.99
2 6 4 110.00 108.49 1.46
2 7 4 103.90 102.75 1.44
2 8 4 116.31 116.80 1.60
2 9 4 47.41 48.76 0.98
2 10 4 139.89 138.69 1.89
2 11 4 50.82 49.95 1.07
2 12 4 13.36 12.71 0.66
2 13 4 0.42 0.40 0.33
2 14 4 12.80 11.73 0.71
2 15 4 12.70 12.86 0.75
2 16 4 25.23 25.26 0.92
2 17 4 40.18 38.85 1.19
2 18 4 26.71 25.45 1.04
2 19 4 8.70 8.74 0.71
2 20 4 25.02 26.72 1.10
2 21 4 19.84 20.33 1.04
2 22 4 18.47 16.83 1.04
2 23 4 21.23 23.51 1.07
2 24 4 4.55 3.35 0.47
2 0 5 144.97 144.88 3.11
2 1 5 34.81 34.06 1.31
2 2 5 163.22 161.77 2.25
2 3 5 31.03 31.72 0.85
2 4 5 147.80 148.75 2.13
2 5 5 63.36 63.92 1.25
2 6 5 12.14 12.52 0.64
2 7 5 14.81 14.19 0.70
2 8 5 61.77 62.91 1.17
2 9 5 25.82 26.27 0.81
2 10 5 138.97 139.00 1.98
2 11 5 60.55 60.50 1.26
2 12 5 14.84 14.35 0.74
2 13 5 1.35 2.27 0.37
2 14 5 94.12 92.69 1.72
2 15 5 11.81 12.74 0.76
2 16 5 1.06 1.14 0.36
2 17 5 5.34 5.35 0.48
2 18 5 45.08 44.44 1.37
2 19 5 9.73 11.15 0.84
2 20 5 1.34 1.41 0.42
2 21 5 0.96 0.95 0.41
2 22 5 20.04 21.02 1.04
2 23 5 16.80 16.49 1.02
2 0 6 75.22 76.68 2.21
2 1 6 93.04 94.23 2.51
2 2 6 2.31 2.32 0.71
2 3 6 2.06 2.27 0.58
2 4 6 22.29 22.70 0.82
2 5 6 99.79 98.86 1.76
2 6 6 0.37 0.59 0.48
2 7 6 77.63 77.36 1.57
2 8 6 0.15 0.23 0.52
2 9 6 3.69 4.93 0.48
2 10 6 10.62 12.15 0.69
2 11 6 104.44 104.77 1.79
2 12 6 8.18 7.90 0.54
2 13 6 61.25 62.50 1.42
2 14 6 10.74 11.30 0.75
2 15 6 57.95 56.94 1.44
2 16 6 15.11 15.41 0.90
2 17 6 47.36 47.05 1.37
2 18 6 49.77 49.79 1.46
2 19 6 1.53 2.35 0.44
2 20 6 3.87 3.82 0.48
2 21 6 14.11 13.79 0.96
2 22 6 46.03 45.84 1.42
2 0 7 7.31 7.44 0.99
2 1 7 45.50 44.06 1.82
2 2 7 12.68 12.60 1.13
2 3 7 14.30 14.52 1.20
2 4 7 135.47 130.73 2.68
2 5 7 71.96 71.21 1.57
2 6 7 30.04 29.41 1.06
2 7 7 85.71 83.92 1.78
2 8 7 81.37 82.62 1.78
2 9 7 4.58 4.99 0.53
2 10 7 8.99 9.52 0.80
2 11 7 95.96 97.90 2.07
2 12 7 1.38 2.18 0.38
2 13 7 48.60 49.06 1.36
2 14 7 38.30 40.37 1.25
2 15 7 32.68 32.87 1.19
2 16 7 4.42 4.30 0.48
2 17 7 50.03 50.98 1.48
2 18 7 9.32 9.93 0.76
2 19 7 6.06 7.03 0.64
2 20 7 0.34 0.98 0.41
2 21 7 11.68 10.42 0.80
2 0 8 55.65 54.24 2.21
2 1 8 59.10 59.00 2.30
2 2 8 25.22 23.65 1.59
2 3 8 27.58 29.12 1.68
2 4 8 16.64 15.98 1.39
2 5 8 58.25 56.71 1.53
2 6 8 50.73 47.20 1.45
2 7 8 44.30 41.95 1.37
2 8 8 0.08 0.31 0.41
2 9 8 11.46 11.80 0.80
2 10 8 1.23 1.41 0.49
2 11 8 9.76 8.55 0.78
2 12 8 0.43 0.02 0.43
2 13 8 34.13 31.52 1.37
2 14 8 8.38 10.00 0.81
2 15 8 6.75 7.04 0.70
2 16 8 2.37 3.26 0.47
2 17 8 24.28 23.57 1.14
2 18 8 1.61 1.92 0.43
2 19 8 5.69 6.74 0.54
2 0 9 73.24 75.93 2.78
2 1 9 15.89 17.54 1.51
2 2 9 110.82 109.71 3.44
2 3 9 4.96 5.37 1.11
2 4 9 48.63 48.93 2.30
2 5 9 10.85 11.50 1.39
2 6 9 51.05 50.01 1.57
2 7 9 10.49 10.60 0.92
2 8 9 1.98 3.37 0.54
2 9 9 38.81 38.48 1.44
2 10 9 12.47 14.17 1.03
2 11 9 14.98 15.68 1.08
2 12 9 17.04 17.42 1.13
2 13 9 33.83 35.24 1.46
2 14 9 69.81 72.52 1.99
2 15 9 0.36 1.10 0.52
2 16 9 16.07 15.58 1.01
2 17 9 3.85 4.34 0.53
2 0 10 50.43 49.85 2.45
2 1 10 68.66 67.39 2.83
2 2 10 2.09 2.87 1.18
2 3 10 6.72 6.59 1.34
2 4 10 4.59 4.70 1.26
2 5 10 47.06 46.81 2.41
2 6 10 16.63 17.03 1.67
2 7 10 27.02 26.30 1.33
2 8 10 31.26 30.49 1.40
2 9 10 11.83 12.26 0.92
2 10 10 33.05 33.60 1.46
2 11 10 42.69 44.46 1.59
2 12 10 48.16 48.47 1.69
2 13 10 6.87 7.12 0.68
2 14 10 17.17 17.15 1.15
2 15 10 2.82 2.96 0.57
2 0 11 12.17 12.63 1.68
2 1 11 10.88 9.95 1.60
2 2 11 3.93 3.32 1.37
2 3 11 5.93 7.28 1.46
2 4 11 2.98 2.28 1.41
2 5 11 1.33 0.70 1.31
2 6 11 13.91 13.68 1.68
2 7 11 1.01 0.52 1.31
2 8 11 6.09 5.68 0.65
2 9 11 0.22 0.31 0.51
2 10 11 5.68 6.32 0.79
2 11 11 3.51 4.60 0.62
2 0 12 47.17 46.81 2.66
2 1 12 22.15 20.63 2.10
2 2 12 6.90 6.24 1.63
2 3 12 39.71 42.74 2.54
2 4 12 10.91 11.22 1.78
2 5 12 2.02 2.27 1.53
2 6 12 30.71 29.43 2.22
3 1 0 30.13 31.08 0.51
3 3 0 68.39 69.33 0.89
3 4 0 405.84 414.37 4.04
3 5 0 208.32 209.01 2.22
3 6 0 37.80 39.51 0.70
3 7 0 244.85 243.56 2.61
3 8 0 78.61 80.92 1.16
3 9 0 110.79 107.98 1.44
3 10 0 30.10 30.10 0.73
3 11 0 254.98 251.90 2.87
3 12 0 9.66 8.21 0.53
3 13 0 2.96 2.74 0.45
3 14 0 2.79 3.76 0.49
3 15 0 23.34 24.08 0.85
3 16 0 44.69 43.01 1.14
3 17 0 41.72 42.38 1.17
3 18 0 1.63 2.13 0.37
3 19 0 2.63 2.95 0.41
3 20 0 26.23 27.99 1.08
3 21 0 30.22 30.43 1.15
3 22 0 3.87 4.09 0.48
3 23 0 0.04 0.06 0.40
3 24 0 9.21 8.07 0.65
3 25 0 28.29 29.63 1.43
3 0 1 173.80 176.02 1.86
3 1 1 358.67 369.73 3.65
3 2 1 57.66 59.09 0.79
3 3 1 429.63 435.17 4.26
3 4 1 82.26 82.05 1.04
3 5 1 24.23 24.35 0.53
3 6 1 66.52 69.10 0.98
3 7 1 159.89 159.53 1.86
3 8 1 42.85 42.79 0.80
3 9 1 394.01 382.87 4.03
3 10 1 37.14 36.98 0.82
3 11 1 55.19 53.69 1.03
3 12 1 56.44 54.52 1.09
3 13 1 90.19 89.73 1.52
3 14 1 27.41 27.12 0.86
3 15 1 1.56 1.99 0.37
3 16 1 38.11 39.45 1.10
3 17 1 31.19 30.25 1.01
3 18 1 52.76 51.18 1.33
3 19 1 18.92 19.77 0.92
3 20 1 3.90 3.71 0.46
3 21 1 63.88 67.81 1.64
3 22 1 65.29 62.11 1.64
3 23 1 15.26 15.50 0.96
3 24 1 27.63 29.88 1.21
3 25 1 6.44 7.81 0.77
3 0 2 0.14 0.10 0.23
3 1 2 183.11 180.08 1.96
3 2 2 267.70 272.35 2.79
3 3 2 267.42 267.34 2.78
3 4 2 55.32 55.18 0.86
3 5 2 316.11 315.52 3.27
3 6 2 634.47 639.31 6.26
3 7 2 6.18 7.32 0.42
3 8 2 89.84 89.17 1.27
3 9 2 62.65 62.35 1.06
3 10 2 256.12 254.40 2.89
3 11 2 36.80 34.68 0.85
3 12 2 108.28 106.65 1.62
3 13 2 26.42 26.27 0.81
3 14 2 6.85 6.65 0.59
3 15 2 12.81 12.92 0.71
3 16 2 35.70 36.78 1.06
3 17 2 28.53 28.59 1.00
3 18 2 8.87 9.06 0.71
3 19 2 6.46 5.54 0.54
3 20 2 11.72 11.59 0.84
3 21 2 0.74 0.59 0.38
3 22 2 2.81 2.82 0.46
3 23 2 10.16 9.83 0.87
3 24 2 26.65 27.62 1.18
3 25 2 4.47 4.55 0.56
3 0 3 177.40 183.76 2.05
3 1 3 251.20 251.93 2.67
3 2 3 16.55 17.43 0.51
3 3 3 167.74 167.53 1.92
3 4 3 12.30 12.64 0.48
3 5 3 208.21 214.44 2.38
3 6 3 3.34 3.40 0.38
3 7 3 256.35 254.83 2.83
3 8 3 42.50 43.15 0.87
3 9 3 25.30 26.21 0.73
3 10 3 11.82 11.58 0.57
3 11 3 77.09 76.05 1.31
3 12 3 41.38 40.24 0.97
3 13 3 11.09 12.44 0.67
3 14 3 9.42 9.09 0.59
3 15 3 12.50 12.05 0.73
3 16 3 1.71 2.05 0.39
3 17 3 8.78 8.19 0.64
3 18 3 0.35 0.20 0.34
3 19 3 9.78 10.31 0.82
3 20 3 6.99 6.13 0.52
3 21 3 1.91 1.62 0.41
3 22 3 6.54 6.41 0.54
3 23 3 40.25 39.88 1.38
3 24 3 7.05 8.52 0.73
3 0 4 10.92 11.61 0.47
3 1 4 114.44 113.54 1.47
3 2 4 29.92 31.02 0.70
3 3 4 81.14 80.25 1.18
3 4 4 24.41 25.04 0.65
3 5 4 275.06 271.05 3.00
3 6 4 82.40 80.13 1.25
3 7 4 58.21 59.64 1.07
3 8 4 53.65 53.99 1.05
3 9 4 66.63 67.51 1.22
3 10 4 21.62 21.03 0.73
3 11 4 30.60 29.07 0.88
3 12 4 29.43 30.03 0.91
3 13 4 104.45 104.87 1.75
3 14 4 9.96 10.06 0.68
3 15 4 37.94 37.65 1.12
3 16 4 16.34 17.31 0.85
3 17 4 32.27 32.24 1.12
3 18 4 24.16 25.52 1.06
3 19 4 17.58 16.91 0.94
3 20 4 20.73 20.88 1.01
3 21 4 24.07 25.79 1.12
3 22 4 7.00 6.98 0.62
3 23 4 9.98 10.07 0.86
3 24 4 1.00 1.10 0.41
3 0 5 51.81 50.04 0.97
3 1 5 44.64 44.80 0.92
3 2 5 36.91 35.53 0.84
3 3 5 71.30 73.38 1.22
3 4 5 70.76 71.77 1.22
3 5 5 72.72 72.53 1.24
3 6 5 42.69 44.08 0.96
3 7 5 123.94 122.80 1.77
3 8 5 192.38 187.51 2.39
3 9 5 1.68 1.82 0.47
3 10 5 135.89 133.78 1.99
3 11 5 5.68 7.31 0.53
3 12 5 126.00 123.71 1.96
3 13 5 9.90 10.30 0.72
3 14 5 68.57 64.05 1.46
3 15 5 44.00 44.31 1.25
3 16 5 9.75 10.03 0.78
3 17 5 2.84 3.14 0.44
3 18 5 5.58 6.42 0.53
3 19 5 12.43 10.62 0.78
3 20 5 1.87 2.83 0.46
3 21 5 3.29 3.59 0.48
3 22 5 15.53 15.16 1.00
3 23 5 2.96 3.78 0.48
3 1 6 3.66 3.79 0.51
3 2 6 41.88 41.78 1.09
3 3 6 4.76 4.83 0.56
3 4 6 10.29 9.57 0.68
3 5 6 21.30 21.06 0.86
3 6 6 19.67 18.67 0.86
3 7 6 40.29 39.42 1.15
3 8 6 19.65 18.80 0.80
3 9 6 31.75 32.47 0.97
3 10 6 23.90 24.03 0.89
3 11 6 69.16 68.00 1.45
3 12 6 2.82 3.61 0.43
3 13 6 57.92 56.62 1.41
3 14 6 24.47 25.79 1.02
3 15 6 6.99 7.20 0.58
3 16 6 41.59 41.77 1.31
3 17 6 24.20 24.02 1.07
3 18 6 10.49 10.20 0.76
3 19 6 21.34 21.85 1.08
3 20 6 61.67 63.57 1.66
3 21 6 5.17 5.79 0.53
3 22 6 5.85 5.16 0.51
3 0 7 5.88 5.93 1.01
3 1 7 0.48 0.85 0.84
3 2 7 154.02 151.67 3.74
3 3 7 30.93 29.05 1.08
3 4 7 10.61 9.66 0.79
3 5 7 33.06 32.14 1.13
3 6 7 12.64 12.03 0.85
3 7 7 35.79 36.07 1.21
3 8 7 12.99 11.17 0.86
3 9 7 106.67 109.13 2.14
3 10 7 50.43 50.73 1.31
3 11 7 6.18 6.18 0.48
3 12 7 2.55 2.39 0.40
3 13 7 37.87 38.18 1.23
3 14 7 49.31 49.15 1.39
3 15 7 37.36 37.27 1.27
3 16 7 2.92 2.79 0.45
3 17 7 3.12 2.84 0.46
3 18 7 7.69 7.85 0.64
3 19 7 21.55 20.88 1.09
3 20 7 10.20 9.19 0.75
3 21 7 5.13 5.21 0.51
3 0 8 1.91 2.13 1.01
3 1 8 114.96 114.04 3.33
3 2 8 58.01 59.61 2.35
3 3 8 45.57 45.94 2.10
3 4 8 40.04 39.07 1.31
3 5 8 39.69 38.65 1.31
3 6 8 26.62 26.27 1.13
3 7 8 29.88 30.32 1.20
3 8 8 34.56 33.47 1.29
3 9 8 22.69 22.22 1.12
3 10 8 5.40 4.41 0.57
3 11 8 100.20 100.18 2.23
3 12 8 16.87 17.31 1.07
3 13 8 7.36 6.32 0.59
3 14 8 4.44 4.59 0.49
3 15 8 17.94 18.06 0.99
3 16 8 17.53 15.39 0.99
3 17 8 10.53 11.24 0.90
3 18 8 9.05 8.34 0.65
3 19 8 21.74 23.14 1.11
3 0 9 70.83 69.16 2.72
3 1 9 11.68 11.97 1.41
3 2 9 20.13 19.43 1.62
3 3 9 13.40 13.98 1.50
3 4 9 100.89 102.18 3.38
3 5 9 0.06 0.14 0.47
3 6 9 8.21 8.11 0.66
3 7 9 8.35 9.04 0.75
3 8 9 45.10 43.35 1.54
3 9 9 6.46 6.31 0.64
3 10 9 28.12 28.01 1.30
3 11 9 3.95 4.26 0.59
3 12 9 4.20 4.95 0.62
3 13 9 1.64 1.55 0.53
3 14 9 28.79 31.23 1.36
3 15 9 6.71 6.43 0.61
3 16 9 9.92 9.04 0.66
3 17 9 21.87 21.84 1.08
3 0 10 1.01 0.86 1.17
3 1 10 54.73 57.51 2.61
3 2 10 27.51 27.83 2.00
3 3 10 80.00 82.66 3.18
3 4 10 12.72 11.97 1.58
3 5 10 6.66 7.17 1.42
3 6 10 22.87 23.39 1.25
3 7 10 10.23 11.73 0.89
3 8 10 7.76 7.27 0.68
3 9 10 34.23 33.45 1.46
3 10 10 7.73 7.61 0.84
3 11 10 4.98 4.59 0.61
3 12 10 0.78 1.13 0.51
3 13 10 20.47 19.11 1.22
3 14 10 17.46 17.01 1.13
3 0 11 1.67 1.24 1.34
3 1 11 10.69 11.00 1.68
3 2 11 14.58 15.18 1.73
3 3 11 34.02 34.93 2.29
3 4 11 16.47 16.98 1.88
3 5 11 15.45 15.69 1.75
3 6 11 12.19 12.16 1.70
3 7 11 22.07 22.61 1.29
3 8 11 5.95 6.54 0.80
3 9 11 11.11 10.78 0.84
3 10 11 8.65 9.01 0.87
3 11 11 10.64 9.42 2.95
3 0 12 6.98 5.53 1.67
3 1 12 6.57 7.33 1.68
3 2 12 3.26 3.28 1.53
3 3 12 1.64 0.78 1.53
3 4 12 0.79 1.01 1.46
4 0 0 388.98 393.45 3.90
4 1 0 388.38 387.57 3.89
4 2 0 41.31 40.39 0.70
4 3 0 2.17 1.76 0.31
4 4 0 36.48 37.09 0.70
4 5 0 16.21 15.46 0.51
4 6 0 131.84 132.04 1.63
4 7 0 89.37 88.34 1.27
4 8 0 137.89 132.81 1.70
4 9 0 132.50 130.58 1.73
4 10 0 69.68 69.31 1.20
4 11 0 12.89 12.70 0.62
4 12 0 245.56 241.07 2.98
4 13 0 67.34 69.40 1.31
4 14 0 3.42 2.83 0.37
4 15 0 12.37 12.68 0.72
4 16 0 90.26 90.79 1.69
4 17 0 0.98 1.19 0.35
4 18 0 2.01 2.05 0.39
4 19 0 8.90 7.27 0.66
4 20 0 0.46 0.28 0.37
4 21 0 7.22 8.01 0.63
4 22 0 0.01 0.04 0.41
4 23 0 4.18 4.80 0.51
4 24 0 21.64 21.90 1.09
4 0 1 1.52 1.47 0.29
4 1 1 145.93 149.00 1.70
4 2 1 34.10 34.71 0.66
4 3 1 151.16 151.07 1.75
4 4 1 13.59 12.16 0.46
4 5 1 61.22 60.19 0.95
4 6 1 43.24 43.61 0.82
4 7 1 250.50 246.11 2.74
4 8 1 43.44 43.08 0.87
4 9 1 4.02 4.26 0.41
4 10 1 34.60 34.33 0.83
4 11 1 270.97 267.12 3.11
4 12 1 67.78 67.95 1.28
4 13 1 45.12 43.07 1.06
4 14 1 45.89 46.29 1.13
4 15 1 45.91 45.13 1.17
4 16 1 53.78 52.60 1.29
4 17 1 17.65 17.09 0.87
4 18 1 31.75 31.09 1.08
4 19 1 40.58 42.73 1.28
4 20 1 31.86 32.77 1.18
4 21 1 7.96 7.75 0.70
4 22 1 17.55 14.33 0.97
4 23 1 2.40 2.19 0.46
4 24 1 19.60 19.66 1.05
4 25 1 4.91 5.24 0.58
4 0 2 10.90 10.76 0.45
4 1 2 265.00 264.98 2.84
4 2 2 10.74 9.71 0.45
4 3 2 74.93 75.34 1.09
4 4 2 195.69 200.50 2.25
4 5 2 139.50 136.15 1.71
4 6 2 31.65 32.43 0.73
4 7 2 184.06 177.54 2.14
4 8 2 161.96 161.88 2.01
4 9 2 5.11 5.65 0.45
4 10 2 40.22 41.33 0.93
4 11 2 18.67 18.75 0.69
4 12 2 46.78 46.44 1.06
4 13 2 0.04 0.13 0.31
4 14 2 13.90 14.46 0.74
4 15 2 15.31 15.09 0.78
4 16 2 18.13 16.59 0.84
4 17 2 20.49 19.41 0.91
4 18 2 6.09 6.13 0.54
4 19 2 10.69 11.23 0.83
4 20 2 7.64 8.46 0.62
4 21 2 8.04 9.54 0.82
4 22 2 8.60 9.74 0.67
4 23 2 18.27 17.77 1.03
4 24 2 1.77 1.62 0.42
4 0 3 4.76 4.70 0.39
4 1 3 226.96 225.17 2.49
4 2 3 40.45 38.53 0.78
4 3 3 469.28 465.07 4.70
4 4 3 97.34 95.34 1.34
4 5 3 111.55 108.73 1.49
4 6 3 5.11 5.44 0.43
4 7 3 60.37 60.62 1.08
4 8 3 89.24 87.35 1.39
4 9 3 31.46 32.06 0.84
4 10 3 17.54 16.97 0.68
4 11 3 30.52 29.77 0.87
4 12 3 42.10 42.17 1.06
4 13 3 12.58 12.35 0.70
4 14 3 23.85 22.57 0.89
4 15 3 74.61 73.85 1.53
4 16 3 27.34 27.42 1.02
4 17 3 1.56 0.96 0.36
4 18 3 20.77 21.67 1.00
4 19 3 32.79 35.14 1.20
4 20 3 13.04 13.24 0.88
4 21 3 33.90 33.86 1.26
4 22 3 27.14 25.51 1.17
4 23 3 1.05 1.00 0.41
4 24 3 15.18 13.99 0.97
4 0 4 76.09 77.50 1.19
4 1 4 125.60 124.35 1.64
4 2 4 34.90 34.21 0.79
4 3 4 98.16 96.99 1.41
4 4 4 34.25 35.20 0.81
4 5 4 86.82 87.55 1.36
4 6 4 55.92 56.23 1.08
4 7 4 43.97 43.08 0.96
4 8 4 8.28 8.95 0.54
4 9 4 2.26 1.45 0.46
4 10 4 34.70 36.19 0.96
4 11 4 23.11 24.63 0.85
4 12 4 69.57 69.18 1.40
4 13 4 25.99 26.17 0.93
4 14 4 8.51 9.22 0.64
4 15 4 43.07 40.15 1.20
4 16 4 54.74 54.08 1.40
4 17 4 61.61 59.73 1.52
4 18 4 1.88 1.59 0.41
4 19 4 9.14 8.52 0.64
4 20 4 22.93 22.59 1.09
4 21 4 19.08 20.18 1.05
4 22 4 1.93 2.10 0.47
4 23 4 63.89 64.15 1.66
4 0 5 28.72 28.00 0.78
4 1 5 22.34 23.09 0.71
4 2 5 6.10 6.21 0.49
4 3 5 167.58 164.33 2.12
4 4 5 28.67 28.67 0.80
4 5 5 84.71 84.91 1.41
4 6 5 13.37 13.82 0.63
4 7 5 35.12 35.31 0.95
4 8 5 47.09 48.36 1.10
4 9 5 46.97 45.05 1.12
4 10 5 24.56 27.24 0.89
4 11 5 8.95 9.92 0.67
4 12 5 19.70 19.38 0.87
4 13 5 6.27 6.75 0.59
4 14 5 8.89 8.53 0.64
4 15 5 2.17 1.96 0.40
4 16 5 20.74 21.26 0.99
4 17 5 9.59 10.39 0.80
4 18 5 1.82 2.32 0.44
4 19 5 5.61 5.47 0.52
4 20 5 28.92 29.14 1.20
4 21 5 1.53 2.23 0.44
4 22 5 1.05 1.09 0.41
4 0 6 0.46 0.29 0.43
4 1 6 89.72 88.72 1.51
4 2 6 14.20 15.37 0.69
4 3 6 27.09 25.81 0.85
4 4 6 12.43 11.90 0.67
4 5 6 140.49 138.45 2.02
4 6 6 41.86 41.42 1.08
4 7 6 42.89 40.54 1.09
4 8 6 56.87 54.38 1.28
4 9 6 140.83 136.16 2.12
4 10 6 28.14 26.50 0.98
4 11 6 35.32 36.65 1.10
4 12 6 61.98 63.39 1.47
4 13 6 49.65 49.47 1.33
4 14 6 12.77 12.53 0.82
4 15 6 54.41 54.82 1.47
4 16 6 17.08 18.34 0.97
4 17 6 41.45 42.49 1.36
4 18 6 25.98 26.68 1.14
4 19 6 36.84 37.19 1.30
4 20 6 1.09 1.86 0.43
4 21 6 23.42 22.56 1.11
4 0 7 140.21 138.74 2.11
4 1 7 10.61 9.46 0.72
4 2 7 13.44 12.88 0.84
4 3 7 11.70 12.15 0.82
4 4 7 65.65 65.45 1.59
4 5 7 15.71 16.46 0.91
4 6 7 20.04 20.22 0.86
4 7 7 27.32 26.25 0.97
4 8 7 53.67 51.82 1.32
4 9 7 6.43 6.26 0.59
4 10 7 42.87 44.08 1.24
4 11 7 51.79 52.30 1.39
4 12 7 37.28 40.17 1.24
4 13 7 10.67 10.56 0.74
4 14 7 31.14 30.73 1.18
4 15 7 1.44 2.13 0.43
4 16 7 2.94 3.38 0.47
4 17 7 10.03 9.44 0.78
4 18 7 6.26 5.73 0.53
4 19 7 14.35 12.97 0.91
4 20 7 1.36 1.96 0.43
4 0 8 42.04 44.47 2.10
4 1 8 19.52 19.71 1.24
4 2 8 13.86 13.79 0.91
4 3 8 12.19 11.86 0.90
4 4 8 28.20 29.30 1.19
4 5 8 4.33 4.43 0.54
4 6 8 9.95 9.07 0.76
4 7 8 34.30 32.72 1.30
4 8 8 3.93 3.75 0.54
4 9 8 92.64 89.50 2.12
4 10 8 19.65 19.24 0.99
4 11 8 9.90 8.88 0.74
4 12 8 0.34 0.85 0.40
4 13 8 53.94 52.77 1.51
4 14 8 34.58 34.26 1.27
4 15 8 1.88 2.25 0.45
4 16 8 11.11 9.85 0.79
4 17 8 0.02 0.05 0.39
4 18 8 16.21 16.33 0.99
4 0 9 19.02 19.33 1.66
4 1 9 12.65 13.77 1.50
4 2 9 12.62 13.36 1.46
4 3 9 23.59 24.29 1.20
4 4 9 56.78 59.58 1.72
4 5 9 14.07 13.95 1.01
4 6 9 38.60 36.36 1.46
4 7 9 4.97 5.63 0.63
4 8 9 83.52 85.62 2.13
4 9 9 15.82 17.10 1.11
4 10 9 18.16 20.00 1.15
4 11 9 0.14 0.35 0.52
4 12 9 24.02 23.93 1.30
4 13 9 8.97 9.34 0.76
4 14 9 10.09 11.82 0.90
4 15 9 27.56 26.66 1.16
4 16 9 1.40 2.46 0.45
4 1 10 81.17 83.41 3.24
4 2 10 14.31 14.27 1.64
4 3 10 4.02 3.12 1.29
4 4 10 30.74 30.40 1.37
4 5 10 60.64 58.03 1.83
4 6 10 28.80 28.26 1.37
4 7 10 16.69 15.66 1.12
4 8 10 14.34 15.57 1.12
4 9 10 1.43 0.78 0.52
4 10 10 14.69 15.15 1.12
4 11 10 6.62 7.10 0.68
4 12 10 1.43 1.62 0.54
4 13 10 9.80 8.72 0.71
4 0 11 28.98 28.00 2.14
4 1 11 1.79 1.63 1.34
4 2 11 3.15 3.19 1.35
4 3 11 9.80 9.06 1.57
4 4 11 34.66 33.17 2.27
4 5 11 13.01 13.19 1.35
4 6 11 0.37 0.50 0.52
4 7 11 5.64 6.79 0.68
4 8 11 22.21 20.68 1.28
4 9 11 8.78 9.89 0.86
5 1 0 40.66 40.33 0.78
5 2 0 43.24 43.83 0.84
5 3 0 237.31 232.02 2.58
5 4 0 64.19 61.28 1.03
5 5 0 72.95 73.39 1.15
5 6 0 0.02 0.10 0.32
5 7 0 12.20 11.84 0.54
5 8 0 16.27 16.42 0.62
5 9 0 26.25 25.68 0.75
5 10 0 38.08 38.73 0.93
5 11 0 36.03 37.07 0.96
5 12 0 1.48 1.62 0.48
5 13 0 12.47 12.28 0.70
5 14 0 52.38 52.86 1.26
5 15 0 16.17 15.47 0.82
5 16 0 4.65 4.60 0.43
5 17 0 11.52 10.55 0.70
5 18 0 6.31 6.31 0.64
5 19 0 0.00 0.14 0.37
5 20 0 0.12 0.44 0.38
5 21 0 1.09 0.92 0.40
5 22 0 8.64 7.97 0.64
5 24 0 3.27 2.07 0.44
5 0 1 5.69 5.99 0.41
5 1 1 135.14 134.28 1.67
5 2 1 93.14 91.34 1.29
5 3 1 390.95 383.28 3.93
5 4 1 5.11 5.32 0.41
5 5 1 37.39 35.84 0.78
5 6 1 74.13 71.44 1.17
5 7 1 157.39 155.06 1.97
5 8 1 2.50 3.21 0.42
5 9 1 58.98 58.65 1.13
5 10 1 12.43 12.79 0.62
5 11 1 66.71 68.76 1.29
5 12 1 22.17 21.86 0.82
5 13 1 21.58 19.09 0.84
5 14 1 16.15 16.27 0.79
5 15 1 218.60 219.04 2.94
5 16 1 60.11 61.72 1.45
5 17 1 4.26 4.28 0.45
5 18 1 8.26 7.75 0.69
5 19 1 53.15 53.92 1.50
5 20 1 51.39 51.99 1.46
5 21 1 3.86 3.54 0.48
5 22 1 0.73 0.91 0.41
5 23 1 1.66 1.89 0.43
5 24 1 13.53 14.73 0.95
5 0 2 332.72 332.50 3.53
5 1 2 173.95 170.25 2.06
5 2 2 0.47 0.57 0.34
5 3 2 256.21 253.63 2.85
5 4 2 87.87 86.23 1.30
5 5 2 43.20 42.83 0.89
5 6 2 7.18 6.63 0.46
5 7 2 14.29 13.00 0.58
5 8 2 29.63 29.31 0.80
5 9 2 38.44 37.65 0.92
5 10 2 0.60 1.41 0.44
5 11 2 16.56 16.36 0.73
5 12 2 127.42 125.09 1.94
5 13 2 0.43 0.48 0.34
5 14 2 7.13 7.59 0.67
5 15 2 3.40 3.10 0.40
5 16 2 60.00 60.94 1.46
5 17 2 14.86 14.80 0.86
5 18 2 10.97 11.63 0.82
5 19 2 30.67 30.53 1.14
5 20 2 2.09 2.17 0.44
5 21 2 41.45 39.31 1.34
5 22 2 0.99 1.78 0.43
5 23 2 6.02 5.39 0.58
5 24 2 6.49 7.40 0.91
5 0 3 31.93 31.29 0.77
5 1 3 201.34 199.81 2.38
5 2 3 24.28 24.62 0.69
5 3 3 9.80 9.62 0.52
5 4 3 1.41 1.36 0.38
5 5 3 68.72 69.06 1.19
5 6 3 34.16 35.00 0.86
5 7 3 65.31 64.47 1.20
5 8 3 18.08 18.71 0.69
5 9 3 8.98 9.12 0.59
5 10 3 45.35 43.52 1.07
5 11 3 27.52 26.06 0.89
5 12 3 28.55 27.62 0.93
5 13 3 19.10 19.25 0.85
5 14 3 47.42 47.35 1.23
5 15 3 3.32 3.75 0.42
5 16 3 51.35 51.18 1.39
5 17 3 23.40 23.89 1.02
5 18 3 24.12 24.10 1.07
5 19 3 3.79 4.45 0.49
5 20 3 55.46 56.91 1.57
5 21 3 8.03 8.31 0.66
5 22 3 4.40 4.83 0.51
5 23 3 9.16 8.72 0.64
5 0 4 0.07 0.29 0.37
5 1 4 72.60 70.32 1.22
5 2 4 43.06 43.92 0.95
5 3 4 30.55 28.48 0.81
5 4 4 16.60 17.38 0.67
5 5 4 7.26 6.29 0.51
5 6 4 28.29 28.56 0.84
5 7 4 30.19 30.29 0.87
5 8 4 90.33 89.98 1.54
5 9 4 1.89 2.69 0.38
5 10 4 116.64 112.64 1.84
5 11 4 35.08 34.83 1.04
5 12 4 84.58 86.21 1.63
5 13 4 3.56 4.42 0.42
5 14 4 82.66 86.62 1.73
5 15 4 19.78 20.81 0.97
5 16 4 20.67 22.33 1.00
5 17 4 9.13 8.30 0.69
5 18 4 24.30 25.68 1.10
5 19 4 74.59 76.19 1.80
5 20 4 0.44 0.05 0.38
5 21 4 43.27 44.44 1.42
5 22 4 13.38 11.81 0.95
5 0 5 7.85 7.11 0.56
5 1 5 191.77 187.23 2.40
5 2 5 32.53 32.01 0.89
5 3 5 15.73 16.19 0.68
5 4 5 73.80 73.35 1.37
5 5 5 60.79 59.88 1.25
5 6 5 18.92 18.73 0.79
5 7 5 35.11 34.70 0.98
5 8 5 52.76 50.51 1.21
5 9 5 11.87 10.98 0.70
5 10 5 19.72 19.05 0.84
5 11 5 20.11 20.52 0.90
5 12 5 0.42 0.97 0.35
5 13 5 18.13 17.87 0.91
5 14 5 41.44 42.52 1.25
5 15 5 1.39 1.33 0.40
5 16 5 18.16 18.83 0.95
5 17 5 3.01 3.70 0.47
5 18 5 29.04 29.70 1.18
5 19 5 2.78 3.17 0.48
5 20 5 12.67 11.99 0.94
5 21 5 9.97 8.87 0.67
5 0 6 48.63 47.63 1.16
5 1 6 47.21 45.70 1.12
5 2 6 12.34 11.15 0.70
5 3 6 55.83 54.25 1.24
5 4 6 52.89 50.04 1.21
5 5 6 82.38 80.71 1.56
5 6 6 12.89 13.50 0.74
5 7 6 106.50 105.30 1.84
5 8 6 22.61 22.09 0.91
5 9 6 21.30 21.18 0.89
5 10 6 67.96 69.38 1.53
5 11 6 78.76 80.53 1.68
5 12 6 0.45 0.52 0.36
5 13 6 66.90 67.64 1.61
5 14 6 54.96 54.23 1.47
5 15 6 13.55 15.37 0.91
5 16 6 4.96 5.36 0.52
5 17 6 53.61 53.10 1.53
5 18 6 7.86 7.29 0.64
5 19 6 5.17 5.26 0.52
5 20 6 0.01 0.01 0.39
5 0 7 1.15 1.50 0.37
5 1 7 29.87 30.07 1.00
5 2 7 16.91 16.82 0.85
5 3 7 4.13 4.04 0.43
5 4 7 111.49 108.18 1.90
5 5 7 10.12 10.41 0.68
5 6 7 19.66 21.13 0.91
5 7 7 9.19 9.77 0.75
5 8 7 101.69 100.75 1.90
5 9 7 10.33 11.47 0.76
5 10 7 2.11 2.02 0.41
5 11 7 4.47 4.30 0.47
5 12 7 14.09 13.34 0.80
5 13 7 13.71 16.31 0.93
5 14 7 5.49 6.44 0.54
5 15 7 17.96 18.41 1.01
5 16 7 8.56 7.90 0.74
5 17 7 4.14 4.94 0.52
5 18 7 2.50 2.95 0.47
5 0 8 37.56 36.83 1.18
5 1 8 48.02 48.03 1.32
5 2 8 3.13 3.27 0.43
5 3 8 0.49 0.69 0.36
5 4 8 20.41 19.61 0.97
5 5 8 142.95 141.01 2.35
5 6 8 0.54 1.19 0.80
5 7 8 5.11 5.29 0.49
5 8 8 2.62 2.96 0.45
5 9 8 24.57 24.29 1.06
5 10 8 2.07 2.07 0.43
5 11 8 11.12 12.79 0.89
5 12 8 8.66 8.13 0.64
5 13 8 32.37 32.65 1.27
5 14 8 8.57 8.20 0.65
5 15 8 8.34 8.87 0.65
5 16 8 10.86 12.01 0.90
5 17 8 58.78 59.24 1.60
5 0 9 0.10 0.69 0.80
5 1 9 31.05 30.24 1.14
5 2 9 35.56 35.68 1.42
5 3 9 6.74 5.53 0.62
5 4 9 5.16 6.25 0.64
5 5 9 15.42 14.27 1.07
5 6 9 27.65 27.42 1.29
5 7 9 9.39 9.59 0.84
5 8 9 0.66 1.11 0.51
5 9 9 0.68 1.33 0.41
5 10 9 21.05 21.45 1.08
5 11 9 15.23 15.61 0.99
5 12 9 0.90 1.72 0.43
5 13 9 8.51 8.83 0.66
5 14 9 6.65 6.83 0.55
5 15 9 2.01 2.64 0.46
5 0 10 75.88 75.42 3.14
5 1 10 5.29 5.24 0.90
5 2 10 2.52 2.85 0.57
5 3 10 50.50 51.41 1.73
5 4 10 24.79 24.72 1.29
5 5 10 31.70 30.18 1.46
5 6 10 5.81 6.64 0.68
5 7 10 18.17 17.94 1.18
5 8 10 6.19 7.02 0.68
5 9 10 33.78 32.89 1.42
5 10 10 0.61 0.87 0.53
5 11 10 1.18 2.03 0.54
5 12 10 5.40 5.91 0.53
5 0 11 5.32 3.76 1.52
5 1 11 24.71 23.94 2.01
5 2 11 11.43 12.35 1.62
5 3 11 17.63 16.45 1.18
5 4 11 12.27 11.05 0.91
5 5 11 0.06 0.06 0.52
5 6 11 39.16 39.95 1.54
5 7 11 2.02 2.44 0.57
6 0 0 137.73 134.77 1.77
6 1 0 65.88 66.47 1.13
6 2 0 4.74 4.85 0.44
6 3 0 32.74 31.74 0.80
6 4 0 9.35 9.95 0.52
6 5 0 79.25 76.64 1.29
6 6 0 70.61 70.69 1.25
6 7 0 87.57 84.56 1.42
6 8 0 59.93 59.08 1.18
6 9 0 0.07 0.23 0.43
6 10 0 90.59 88.12 1.57
6 11 0 0.10 0.26 0.32
6 12 0 64.36 64.20 1.36
6 13 0 20.87 21.50 0.90
6 14 0 8.94 9.26 0.64
6 15 0 26.70 28.52 1.02
6 16 0 6.83 7.30 0.64
6 17 0 8.20 8.95 0.69
6 18 0 22.26 21.26 1.03
6 19 0 6.02 6.98 0.69
6 21 0 2.47 2.27 0.45
6 22 0 24.19 23.60 1.10
6 23 0 0.12 0.68 0.40
6 0 1 41.33 39.62 0.87
6 1 1 120.94 118.78 1.64
6 2 1 86.79 85.84 1.34
6 3 1 77.56 76.29 1.26
6 4 1 86.96 87.73 1.39
6 5 1 106.72 104.75 1.56
6 6 1 9.83 9.49 0.54
6 7 1 61.14 61.14 1.18
6 8 1 53.64 52.92 1.12
6 9 1 1.62 1.46 0.47
6 10 1 1.04 1.46 0.34
6 11 1 27.35 26.71 0.90
6 12 1 12.72 12.80 0.75
6 13 1 121.49 119.78 1.99
6 14 1 39.35 41.21 1.18
6 15 1 18.35 18.58 0.90
6 16 1 11.04 11.76 0.79
6 17 1 71.87 72.02 1.66
6 18 1 64.30 66.45 1.63
6 19 1 17.61 18.55 0.99
6 20 1 12.23 13.19 0.92
6 21 1 8.85 8.05 0.65
6 22 1 23.12 21.85 1.09
6 23 1 10.33 9.35 0.87
6 0 2 18.37 19.23 0.65
6 1 2 114.40 114.15 1.63
6 2 2 179.17 174.42 2.21
6 3 2 2.99 3.32 0.43
6 4 2 0.97 0.86 0.41
6 5 2 48.75 47.39 1.02
6 6 2 8.92 9.51 0.56
6 7 2 18.57 17.96 0.71
6 8 2 47.55 46.60 1.08
6 9 2 6.52 5.46 0.57
6 10 2 109.03 106.45 1.77
6 11 2 3.27 3.71 0.41
6 12 2 30.38 30.52 1.02
6 13 2 10.14 10.77 0.67
6 14 2 93.77 91.26 1.79
6 15 2 1.22 1.02 0.36
6 16 2 8.33 6.98 0.58
6 17 2 14.28 14.27 0.89
6 18 2 6.99 7.47 0.61
6 19 2 6.32 6.93 0.60
6 20 2 1.37 1.83 0.43
6 21 2 9.66 8.74 0.76
6 22 2 5.66 6.23 0.54
6 23 2 11.76 13.45 1.55
6 0 3 11.76 12.29 0.60
6 1 3 98.65 99.37 1.53
6 2 3 17.44 16.57 0.68
6 3 3 201.17 199.62 2.47
6 4 3 66.87 66.59 1.24
6 5 3 4.33 4.54 0.52
6 6 3 23.74 24.41 0.80
6 7 3 56.55 57.40 1.20
6 8 3 24.07 22.81 0.82
6 9 3 26.51 25.32 0.89
6 10 3 0.80 1.29 0.36
6 11 3 6.68 6.82 0.52
6 12 3 22.09 20.67 0.90
6 13 3 4.18 4.38 0.43
6 14 3 47.05 47.92 1.33
6 15 3 31.78 32.20 1.13
6 16 3 29.99 28.28 1.12
6 17 3 12.32 12.76 0.87
6 18 3 69.23 69.39 1.70
6 19 3 46.31 46.86 1.46
6 20 3 3.60 3.01 0.47
6 21 3 21.03 20.87 1.10
6 22 3 29.27 28.83 1.20
6 0 4 0.62 1.05 0.43
6 1 4 95.99 93.70 1.56
6 2 4 20.59 20.94 0.76
6 3 4 56.20 56.60 1.18
6 4 4 2.00 0.91 0.49
6 5 4 38.00 36.69 1.00
6 6 4 68.30 66.74 1.35
6 7 4 4.91 4.92 0.42
6 8 4 17.54 16.85 0.78
6 9 4 41.23 39.83 1.12
6 10 4 48.73 48.14 1.25
6 11 4 2.29 2.48 0.38
6 12 4 28.38 27.24 1.02
6 13 4 3.86 4.66 0.46
6 14 4 40.66 39.55 1.25
6 15 4 4.19 3.80 0.46
6 16 4 30.54 31.82 1.18
6 17 4 80.47 80.04 1.81
6 18 4 9.93 9.85 0.79
6 19 4 31.58 31.30 1.25
6 20 4 12.10 12.32 0.92
6 21 4 55.35 54.31 1.55
6 0 5 15.39 14.24 0.75
6 1 5 65.95 64.78 1.33
6 2 5 18.56 19.59 0.80
6 3 5 108.55 105.67 1.77
6 4 5 20.16 19.02 0.81
6 5 5 4.13 4.17 0.41
6 6 5 42.57 43.67 1.14
6 7 5 11.33 10.12 0.70
6 8 5 0.13 0.26 0.36
6 9 5 34.03 33.60 1.09
6 10 5 2.07 2.28 0.38
6 11 5 20.56 19.26 0.92
6 12 5 23.29 23.09 1.00
6 13 5 8.71 9.50 0.63
6 14 5 21.12 22.55 1.04
6 15 5 2.16 1.90 0.42
6 16 5 16.51 16.77 1.00
6 17 5 1.58 1.88 0.43
6 18 5 17.79 17.68 1.00
6 19 5 6.12 5.99 0.54
6 20 5 0.27 0.09 0.38
6 0 6 52.79 50.71 1.25
6 1 6 100.97 100.75 1.78
6 2 6 74.08 72.12 1.51
6 3 6 56.93 55.70 1.33
6 4 6 18.81 19.58 0.87
6 5 6 79.72 79.34 1.61
6 6 6 70.56 73.63 1.56
6 7 6 6.90 6.31 0.48
6 8 6 11.74 10.79 0.78
6 9 6 75.22 75.72 1.66
6 10 6 13.17 12.67 0.86
6 11 6 34.00 33.07 1.17
6 12 6 39.48 40.37 1.27
6 13 6 34.89 34.64 1.24
6 14 6 13.70 13.13 0.93
6 15 6 41.46 43.40 1.37
6 16 6 26.26 28.73 1.17
6 17 6 23.19 22.72 1.10
6 18 6 8.22 8.61 0.59
6 19 6 14.28 14.27 0.94
6 0 7 17.19 17.66 0.86
6 1 7 1.82 2.24 0.39
6 2 7 49.62 49.79 1.33
6 3 7 12.31 11.77 0.80
6 4 7 7.61 8.14 0.65
6 5 7 20.61 20.63 0.92
6 6 7 96.04 98.30 1.90
6 7 7 1.55 2.31 0.42
6 8 7 18.42 18.97 0.93
6 9 7 5.28 5.08 0.54
6 10 7 57.44 57.82 1.52
6 11 7 5.07 5.11 0.51
6 12 7 16.84 17.46 1.01
6 13 7 16.77 15.49 0.98
6 14 7 12.41 13.79 0.95
6 15 7 3.01 3.51 0.48
6 16 7 0.07 0.09 0.40
6 17 7 10.74 11.87 0.87
6 18 7 6.83 7.07 0.55
6 0 8 27.24 28.36 1.09
6 1 8 1.00 1.24 0.39
6 2 8 13.54 14.77 0.87
6 3 8 49.69 49.34 1.39
6 4 8 8.24 7.78 0.69
6 5 8 3.22 3.40 0.45
6 6 8 11.88 13.18 0.89
6 7 8 51.04 53.19 1.46
6 8 8 0.28 0.73 0.39
6 9 8 2.66 3.15 0.47
6 10 8 6.55 7.83 0.66
6 11 8 18.51 17.64 1.03
6 12 8 1.44 2.41 0.46
6 13 8 10.27 10.47 0.74
6 14 8 15.17 15.29 0.97
6 15 8 40.09 41.33 1.37
6 16 8 22.03 21.17 1.08
6 0 9 37.07 39.11 1.31
6 1 9 1.02 1.11 0.41
6 2 9 11.14 11.45 0.87
6 3 9 12.40 11.23 0.81
6 4 9 9.40 8.99 0.76
6 5 9 2.51 2.72 0.46
6 6 9 11.26 13.09 0.91
6 7 9 6.62 7.04 0.56
6 8 9 27.44 30.14 1.18
6 9 9 5.11 5.84 0.54
6 10 9 41.60 42.22 1.40
6 11 9 5.79 6.58 0.61
6 12 9 34.53 36.51 1.31
6 13 9 14.23 13.99 0.95
6 0 10 3.68 4.94 0.52
6 1 10 40.60 43.58 1.40
6 2 10 45.17 45.92 1.45
6 3 10 1.24 1.62 0.46
6 4 10 5.75 7.04 0.56
6 5 10 49.66 51.75 1.52
6 6 10 8.07 8.58 0.66
6 7 10 21.33 22.63 1.12
6 8 10 0.92 1.58 0.43
6 9 10 3.84 4.55 0.51
6 0 11 6.15 7.46 0.63
6 1 11 28.44 29.69 1.39
6 2 11 3.02 4.30 0.60
7 2 0 72.48 71.63 1.30
7 3 0 13.46 13.70 0.63
7 4 0 3.91 3.82 0.51
7 5 0 54.63 52.70 1.16
7 6 0 21.91 21.16 0.80
7 7 0 2.27 2.43 0.35
7 8 0 34.20 34.75 0.99
7 9 0 44.28 43.04 1.12
7 10 0 101.65 98.25 1.75
7 11 0 32.86 32.80 1.05
7 12 0 24.13 24.35 0.95
7 13 0 0.08 0.08 0.35
7 14 0 17.90 17.46 0.89
7 15 0 16.47 15.17 0.89
7 16 0 2.91 2.49 0.43
7 17 0 12.57 11.52 0.86
7 18 0 1.59 1.23 0.41
7 19 0 3.32 3.11 0.47
7 20 0 22.76 24.90 1.11
7 21 0 17.92 17.88 1.03
7 22 0 1.11 1.44 0.44
7 0 1 221.93 219.42 2.71
7 1 1 57.70 56.54 1.14
7 2 1 16.84 15.94 0.68
7 3 1 40.28 41.57 0.99
7 4 1 69.29 70.10 1.31
7 5 1 72.04 73.06 1.36
7 6 1 39.21 39.93 1.03
7 7 1 22.99 22.88 0.83
7 8 1 0.85 1.14 0.34
7 9 1 101.78 100.37 1.75
7 10 1 19.73 19.08 0.85
7 11 1 18.79 18.21 0.86
7 12 1 0.29 0.51 0.33
7 13 1 36.22 37.02 1.16
7 14 1 20.62 18.10 0.96
7 15 1 11.63 10.75 0.79
7 16 1 18.00 17.36 0.97
7 17 1 36.33 35.99 1.26
7 18 1 41.60 42.87 1.37
7 19 1 27.22 26.35 1.16
7 20 1 11.14 11.20 0.90
7 21 1 26.31 25.23 1.15
7 22 1 33.77 33.63 1.28
7 0 2 12.25 11.51 0.63
7 1 2 2.08 2.05 0.48
7 2 2 37.79 38.81 0.98
7 3 2 28.82 29.11 0.87
7 4 2 13.49 12.64 0.67
7 5 2 48.70 50.60 1.14
7 6 2 211.27 208.84 2.69
7 7 2 7.61 7.08 0.51
7 8 2 17.82 17.49 0.81
7 9 2 25.20 23.57 0.93
7 10 2 145.81 142.39 2.22
7 11 2 10.64 10.66 0.66
7 12 2 58.36 58.35 1.42
7 13 2 5.69 5.27 0.52
7 14 2 6.37 5.76 0.50
7 15 2 17.42 20.01 0.96
7 16 2 15.69 15.17 0.93
7 17 2 6.69 6.15 0.59
7 18 2 10.59 11.23 0.87
7 19 2 1.33 1.66 0.43
7 20 2 1.10 1.89 0.45
7 21 2 0.86 0.98 0.41
7 0 3 3.69 3.76 0.53
7 1 3 119.28 118.14 1.84
7 2 3 30.95 30.17 0.92
7 3 3 17.68 17.94 0.78
7 4 3 26.36 24.55 0.86
7 5 3 102.97 102.75 1.73
7 6 3 43.80 44.32 1.12
7 7 3 11.39 12.02 0.70
7 8 3 38.44 37.46 1.08
7 9 3 6.14 5.68 0.51
7 10 3 5.99 5.99 0.51
7 11 3 6.39 5.95 0.59
7 12 3 14.40 14.88 0.84
7 13 3 20.86 21.35 0.98
7 14 3 42.70 42.56 1.32
7 15 3 14.70 16.33 0.93
7 16 3 25.65 24.57 1.13
7 17 3 33.21 32.45 1.24
7 18 3 8.37 7.91 0.64
7 19 3 22.48 21.13 1.09
7 20 3 12.68 12.65 0.92
7 21 3 9.31 8.86 0.75
7 0 4 2.15 2.62 0.38
7 1 4 65.29 66.29 1.37
7 2 4 12.40 11.94 0.71
7 3 4 24.69 23.38 0.89
7 4 4 57.44 57.01 1.29
7 5 4 51.72 51.87 1.26
7 6 4 48.33 48.55 1.23
7 7 4 4.96 4.52 0.44
7 8 4 9.48 9.14 0.64
7 9 4 17.87 16.50 0.86
7 10 4 10.98 11.80 0.78
7 11 4 14.24 13.99 0.86
7 12 4 28.42 27.22 1.08
7 13 4 40.46 39.35 1.30
7 14 4 11.97 11.80 0.87
7 15 4 37.83 38.19 1.31
7 16 4 33.53 35.44 1.26
7 17 4 22.07 23.16 1.08
7 18 4 14.70 16.09 0.98
7 19 4 26.80 25.62 1.18
7 20 4 2.88 1.94 0.44
7 0 5 2.57 3.00 0.40
7 1 5 22.75 22.03 0.90
7 2 5 21.82 21.68 0.87
7 3 5 8.00 7.24 0.62
7 4 5 31.93 31.39 1.05
7 5 5 32.12 32.60 1.06
7 6 5 27.06 27.26 1.01
7 7 5 46.25 44.89 1.26
7 8 5 62.96 62.56 1.49
7 9 5 5.17 4.82 0.47
7 10 5 43.22 44.17 1.30
7 11 5 13.38 12.01 0.85
7 12 5 30.38 28.12 1.14
7 13 5 5.06 4.58 0.49
7 14 5 52.35 53.15 1.50
7 15 5 2.51 3.15 0.47
7 16 5 12.60 12.16 0.82
7 17 5 4.14 4.03 0.49
7 18 5 6.66 5.66 0.53
7 19 5 4.69 5.48 0.52
7 0 6 14.55 14.37 0.81
7 1 6 61.39 61.26 1.46
7 2 6 74.57 77.02 1.63
7 3 6 56.78 57.56 1.44
7 4 6 53.34 54.73 1.39
7 5 6 6.40 6.48 0.54
7 6 6 12.98 12.10 0.83
7 7 6 32.46 33.60 1.18
7 8 6 28.30 28.34 1.11
7 9 6 9.77 8.89 0.71
7 10 6 7.73 7.47 0.69
7 11 6 24.09 25.18 1.08
7 12 6 7.00 6.67 0.60
7 13 6 12.49 13.39 0.91
7 14 6 9.49 10.79 0.78
7 15 6 18.42 17.43 1.02
7 16 6 20.44 18.87 1.04
7 17 6 16.57 14.78 0.98
7 18 6 7.74 7.02 0.62
7 0 7 31.73 30.53 1.14
7 1 7 1.11 1.22 0.38
7 2 7 69.21 72.22 1.66
7 3 7 8.32 8.17 0.70
7 4 7 3.29 3.12 0.44
7 5 7 4.57 4.81 0.48
7 6 7 2.92 3.26 0.45
7 7 7 20.60 22.22 1.03
7 8 7 33.91 35.44 1.23
7 9 7 18.18 17.13 1.00
7 10 7 35.90 36.92 1.30
7 11 7 13.48 12.87 0.82
7 12 7 22.29 20.50 1.09
7 13 7 7.55 7.62 0.64
7 14 7 29.24 28.99 1.24
7 15 7 6.80 6.86 0.56
7 16 7 0.01 0.19 0.81
7 0 8 0.89 1.19 0.41
7 1 8 31.66 32.17 1.22
7 2 8 69.71 71.04 1.69
7 3 8 16.51 18.19 0.98
7 4 8 6.05 6.32 0.60
7 5 8 9.40 10.47 0.84
7 6 8 3.56 4.48 0.49
7 7 8 9.27 8.65 0.73
7 8 8 3.66 3.90 0.53
7 9 8 23.94 23.43 1.11
7 10 8 1.83 2.10 0.45
7 11 8 28.78 27.55 1.18
7 12 8 16.01 17.15 1.00
7 13 8 20.67 21.01 1.06
7 14 8 2.57 2.43 0.45
7 0 9 3.77 4.65 0.51
7 1 9 3.95 4.45 0.50
7 2 9 10.28 10.41 0.79
7 3 9 6.84 7.18 0.59
7 4 9 19.21 19.25 1.04
7 5 9 11.72 10.69 0.70
7 6 9 9.53 10.31 0.74
7 7 9 3.07 3.81 0.49
7 8 9 58.20 57.52 1.60
7 9 9 0.46 0.69 0.87
7 10 9 31.19 31.69 1.23
7 11 9 6.14 6.59 0.54
7 0 10 0.29 0.22 0.42
7 1 10 31.30 31.17 1.24
7 2 10 2.86 3.93 0.48
7 3 10 63.67 66.12 1.69
7 4 10 6.65 7.46 0.57
7 5 10 0.36 0.72 0.42
7 6 10 10.27 9.72 0.88
8 0 0 2.69 2.35 0.36
8 1 0 1.26 1.72 0.35
8 2 0 49.74 49.46 1.16
8 3 0 0.08 0.14 0.33
8 4 0 2.03 2.38 0.37
8 5 0 10.07 10.61 0.68
8 6 0 135.00 131.42 2.08
8 7 0 18.27 17.99 0.85
8 8 0 5.55 5.73 0.51
8 9 0 63.82 64.18 1.47
8 10 0 18.14 17.83 0.89
8 11 0 21.84 22.81 0.96
8 12 0 9.06 10.20 0.66
8 13 0 56.35 58.49 1.50
8 14 0 1.48 1.28 0.40
8 15 0 1.58 1.79 0.42
8 16 0 34.40 36.26 1.26
8 17 0 16.59 17.03 0.98
8 18 0 0.18 0.53 0.40
8 19 0 9.83 9.29 0.67
8 20 0 0.67 0.79 0.41
8 0 1 34.20 31.54 0.98
8 1 1 30.79 31.13 0.96
8 2 1 99.93 96.42 1.68
8 3 1 0.73 1.24 0.35
8 4 1 33.81 32.67 1.00
8 5 1 68.80 66.84 1.41
8 6 1 2.28 2.55 0.40
8 7 1 21.94 21.87 0.89
8 8 1 4.62 5.11 0.49
8 9 1 62.89 61.12 1.46
8 10 1 3.89 4.34 0.44
8 11 1 4.31 3.98 0.45
8 12 1 20.61 21.24 0.99
8 13 1 26.08 26.28 1.07
8 14 1 4.39 4.55 0.49
8 15 1 18.83 18.58 0.98
8 16 1 8.68 8.73 0.76
8 17 1 17.07 18.41 1.03
8 18 1 3.31 3.93 0.49
8 19 1 40.19 40.64 1.36
8 20 1 35.43 37.50 1.30
8 0 2 0.21 0.56 0.34
8 1 2 2.39 3.13 0.39
8 2 2 32.65 32.33 1.00
8 3 2 11.49 11.42 0.72
8 4 2 131.33 129.61 2.06
8 5 2 2.88 3.08 0.41
8 6 2 51.25 50.01 1.26
8 7 2 13.88 12.51 0.81
8 8 2 178.21 182.71 2.63
8 9 2 1.97 1.97 0.38
8 10 2 24.91 23.18 0.98
8 11 2 5.06 4.21 0.46
8 12 2 26.90 27.77 1.08
8 13 2 2.85 2.75 0.44
8 14 2 27.24 27.24 1.12
8 15 2 3.71 3.71 0.47
8 16 2 21.67 21.27 1.06
8 17 2 5.16 5.40 0.53
8 18 2 4.22 2.93 0.47
8 19 2 2.20 3.02 0.47
8 20 2 10.19 10.44 0.76
8 0 3 82.64 82.98 1.61
8 1 3 2.01 1.91 0.38
8 2 3 14.63 14.74 0.79
8 3 3 36.03 35.01 1.06
8 4 3 42.91 42.13 1.17
8 5 3 23.08 23.03 0.93
8 6 3 34.19 35.90 1.10
8 7 3 35.15 35.03 1.11
8 8 3 20.86 21.30 0.92
8 9 3 59.51 59.83 1.47
8 10 3 69.59 71.09 1.63
8 11 3 10.70 11.00 0.81
8 12 3 62.77 63.23 1.58
8 13 3 34.22 37.58 1.26
8 14 3 14.84 15.97 0.93
8 15 3 0.75 0.54 0.39
8 16 3 11.21 12.30 0.90
8 17 3 2.37 3.24 0.48
8 18 3 5.04 5.98 0.53
8 19 3 1.41 1.86 0.43
8 0 4 5.39 5.52 0.49
8 1 4 13.17 14.11 0.76
8 2 4 15.98 16.38 0.82
8 3 4 45.74 46.00 1.24
8 4 4 22.92 23.83 0.96
8 5 4 10.80 12.11 0.75
8 6 4 6.27 6.92 0.52
8 7 4 39.64 41.24 1.24
8 8 4 65.53 65.42 1.56
8 9 4 24.35 24.62 1.02
8 10 4 29.50 30.86 1.15
8 11 4 56.15 54.49 1.48
8 12 4 15.15 15.71 0.92
8 13 4 25.00 24.74 1.09
8 14 4 25.07 25.06 1.13
8 15 4 36.69 38.99 1.34
8 16 4 7.40 8.43 0.59
8 17 4 6.85 7.18 0.63
8 18 4 0.39 0.56 0.40
8 0 5 0.50 0.67 0.35
8 1 5 20.87 23.47 0.95
8 2 5 17.83 18.26 0.89
8 3 5 14.49 14.91 0.85
8 4 5 16.05 17.14 0.89
8 5 5 34.20 34.04 1.17
8 6 5 46.18 46.72 1.33
8 7 5 8.53 8.34 0.69
8 8 5 36.36 37.10 1.25
8 9 5 13.70 13.52 0.89
8 10 5 50.10 49.73 1.45
8 11 5 0.54 1.11 0.40
8 12 5 55.27 54.01 1.55
8 13 5 0.88 1.23 0.42
8 14 5 6.73 5.50 0.53
8 15 5 12.92 14.10 0.94
8 16 5 9.54 10.26 0.88
8 17 5 5.22 5.43 0.52
8 0 6 83.67 85.88 1.81
8 1 6 1.89 1.89 0.41
8 2 6 8.72 8.44 0.69
8 3 6 12.15 12.35 0.85
8 4 6 36.51 37.07 1.23
8 5 6 21.41 22.48 1.02
8 6 6 14.46 16.48 0.93
8 7 6 31.26 28.43 1.18
8 8 6 13.12 13.05 0.93
8 9 6 4.76 5.30 0.52
8 10 6 0.05 0.14 0.40
8 11 6 28.77 29.66 1.22
8 12 6 0.09 0.03 0.38
8 13 6 8.82 9.84 0.74
8 14 6 2.74 3.31 0.48
8 15 6 14.42 14.85 0.98
8 16 6 17.95 18.81 1.04
8 0 7 55.57 55.00 1.53
8 1 7 4.76 5.03 0.50
8 2 7 1.13 1.31 0.41
8 3 7 11.83 11.37 0.76
8 4 7 57.17 60.23 1.57
8 5 7 1.28 1.02 0.41
8 6 7 2.79 3.12 0.46
8 7 7 36.50 36.01 1.29
8 8 7 29.31 30.56 1.22
8 9 7 9.59 10.39 0.79
8 10 7 0.14 0.13 0.43
8 11 7 30.26 28.47 1.23
8 12 7 32.86 32.90 1.24
8 13 7 7.58 8.71 0.66
8 14 7 11.48 13.24 0.93
8 0 8 45.61 47.69 1.46
8 1 8 43.19 45.04 1.42
8 2 8 10.29 10.04 0.76
8 3 8 36.25 35.45 1.31
8 4 8 11.78 11.79 0.82
8 5 8 14.96 14.21 0.98
8 6 8 8.80 8.94 0.63
8 7 8 12.86 13.43 0.95
8 8 8 3.12 3.12 0.47
8 9 8 3.13 3.93 0.49
8 10 8 4.04 4.48 0.50
8 11 8 20.93 22.54 1.09
8 0 9 6.63 6.28 0.54
8 1 9 5.47 5.84 0.54
8 2 9 19.27 20.05 1.09
8 3 9 15.98 17.22 1.02
8 4 9 19.34 17.99 1.05
8 5 9 0.59 0.91 0.43
8 6 9 42.17 44.40 1.37
8 7 9 20.84 23.30 1.11
8 8 9 6.29 7.55 0.65
9 1 0 0.48 0.57 0.33
9 2 0 23.36 24.20 0.95
9 4 0 180.91 178.65 2.63
9 5 0 0.07 0.58 0.69
9 6 0 6.04 6.72 0.54
9 7 0 7.71 7.26 0.64
9 8 0 128.60 127.02 2.21
9 9 0 5.06 4.42 0.47
9 10 0 16.54 15.86 0.91
9 11 0 25.85 25.23 1.08
9 12 0 5.56 5.57 0.52
9 13 0 6.41 6.82 0.55
9 14 0 40.40 42.50 1.38
9 15 0 36.93 37.73 1.31
9 16 0 0.08 0.11 0.41
9 18 0 4.64 4.69 0.51
9 0 1 7.33 7.48 0.54
9 1 1 12.22 11.98 0.76
9 2 1 26.38 26.72 0.99
9 3 1 14.28 13.09 0.80
9 4 1 4.77 5.91 0.52
9 5 1 7.71 7.02 0.62
9 6 1 19.51 19.79 0.92
9 7 1 40.54 39.67 1.24
9 8 1 13.65 14.41 0.84
9 9 1 37.73 39.11 1.22
9 10 1 4.58 4.36 0.48
9 11 1 34.86 34.89 1.23
9 12 1 3.51 3.30 0.46
9 13 1 59.79 60.12 1.59
9 14 1 13.65 13.74 0.95
9 15 1 4.07 4.24 0.50
9 16 1 9.51 10.33 0.85
9 17 1 22.95 22.10 1.09
9 18 1 1.34 1.40 0.42
9 0 2 113.63 113.11 2.00
9 1 2 1.38 1.83 0.37
9 2 2 4.91 4.61 0.45
9 3 2 3.10 2.83 0.41
9 4 2 92.57 93.02 1.82
9 5 2 31.83 32.92 1.11
9 6 2 11.01 10.10 0.79
9 7 2 11.94 11.27 0.82
9 8 2 6.53 6.35 0.51
9 9 2 61.87 64.43 1.57
9 10 2 9.12 10.15 0.78
9 11 2 16.25 16.01 0.93
9 12 2 19.82 19.59 1.03
9 13 2 34.12 35.67 1.29
9 14 2 11.29 10.70 0.80
9 15 2 10.07 10.99 0.85
9 16 2 17.11 18.49 1.03
9 17 2 4.26 3.71 0.48
9 18 2 12.69 13.18 0.90
9 0 3 19.63 20.33 0.91
9 1 3 19.92 20.77 0.93
9 2 3 74.66 74.27 1.62
9 3 3 0.21 0.07 0.34
9 4 3 7.80 7.85 0.58
9 5 3 21.66 21.83 1.00
9 6 3 26.92 28.11 1.09
9 7 3 16.98 16.65 0.92
9 8 3 83.97 86.93 1.85
9 9 3 8.97 10.08 0.83
9 10 3 48.38 50.18 1.44
9 11 3 15.44 15.82 0.95
9 12 3 42.83 44.85 1.39
9 13 3 4.32 3.97 0.49
9 14 3 30.70 30.91 1.25
9 15 3 2.47 3.61 0.48
9 16 3 2.04 2.18 0.45
9 17 3 4.69 4.94 0.51
9 0 4 66.95 67.21 1.60
9 1 4 0.85 1.59 0.40
9 2 4 3.06 3.48 0.44
9 3 4 13.68 15.43 0.87
9 4 4 41.37 42.86 1.29
9 5 4 18.75 19.42 0.97
9 6 4 28.89 29.42 1.10
9 7 4 14.38 13.36 0.89
9 8 4 33.66 35.41 1.24
9 9 4 18.98 20.73 1.01
9 10 4 46.19 49.53 1.47
9 11 4 0.44 0.58 0.40
9 12 4 35.72 36.06 1.28
9 13 4 1.27 1.33 0.43
9 14 4 4.48 4.52 0.51
9 15 4 5.17 5.38 0.53
9 16 4 4.78 4.78 0.51
9 0 5 71.12 69.94 1.69
9 1 5 12.35 12.35 0.86
9 2 5 43.60 44.06 1.34
9 3 5 41.24 40.62 1.30
9 4 5 13.72 13.37 0.89
9 5 5 0.63 1.15 0.40
9 6 5 16.97 18.00 1.00
9 7 5 36.82 37.04 1.27
9 8 5 19.79 20.83 1.03
9 9 5 1.51 1.62 0.43
9 10 5 2.63 2.94 0.47
9 11 5 21.04 20.98 1.07
9 12 5 11.02 11.79 0.89
9 13 5 9.29 7.86 0.65
9 14 5 2.20 2.83 0.47
9 15 5 9.55 9.55 0.76
9 0 6 0.37 0.89 0.40
9 1 6 2.59 2.89 0.46
9 2 6 16.22 16.19 0.96
9 3 6 29.69 30.60 1.18
9 4 6 9.64 9.27 0.75
9 5 6 11.36 10.94 0.86
9 6 6 9.18 10.20 0.83
9 7 6 16.15 16.16 0.98
9 8 6 3.30 3.22 0.48
9 9 6 22.01 24.02 1.12
9 10 6 5.38 5.27 0.58
9 11 6 22.13 21.31 1.08
9 12 6 7.85 9.29 0.75
9 13 6 8.23 7.92 0.58
9 0 7 19.01 18.51 1.03
9 1 7 5.53 6.12 0.60
9 2 7 21.50 20.91 1.09
9 3 7 5.16 5.56 0.53
9 4 7 20.79 19.83 1.08
9 5 7 19.06 20.31 1.08
9 6 7 63.10 63.84 1.67
9 7 7 1.04 1.36 0.42
9 8 7 21.44 21.31 1.05
9 9 7 12.20 11.62 0.93
9 10 7 12.67 13.55 0.93
9 11 7 1.30 1.42 0.42
9 0 8 3.98 4.43 0.51
9 1 8 2.37 2.37 0.45
9 2 8 2.95 2.98 0.47
9 3 8 13.09 13.78 0.95
9 4 8 23.53 23.83 1.14
9 5 8 7.64 7.02 0.62
9 6 8 16.83 19.12 1.01
9 7 8 28.76 29.65 1.22
9 8 8 4.29 5.12 0.51
10 0 0 274.34 276.02 3.62
10 1 0 0.00 0.08 0.75
10 2 0 10.01 10.39 0.80
10 3 0 1.29 1.77 0.41
10 4 0 118.87 120.62 2.18
10 5 0 11.75 10.61 0.82
10 6 0 23.70 24.79 1.07
10 7 0 1.04 1.34 0.41
10 8 0 3.38 3.11 0.46
10 9 0 20.20 18.75 1.00
10 10 0 4.34 3.75 0.48
10 11 0 1.94 2.47 0.45
10 12 0 1.09 1.95 0.45
10 14 0 7.32 7.55 0.71
10 15 0 1.32 1.61 0.43
10 16 0 0.44 0.15 0.38
10 0 1 0.69 0.75 0.37
10 1 1 40.35 41.45 1.28
10 2 1 12.40 13.38 0.81
10 3 1 18.87 19.35 0.95
10 4 1 14.07 13.26 0.89
10 5 1 5.84 5.87 0.57
10 6 1 41.00 41.97 1.31
10 7 1 11.76 11.98 0.79
10 8 1 2.06 2.21 0.43
10 9 1 8.80 10.19 0.85
10 10 1 11.00 11.18 0.86
10 11 1 49.62 49.22 1.48
10 12 1 10.38 9.06 0.78
10 13 1 9.46 9.44 0.68
10 14 1 9.48 8.96 0.76
10 15 1 16.87 17.18 1.01
10 16 1 2.24 2.39 0.45
10 0 2 54.62 52.38 1.45
10 1 2 3.86 3.72 0.46
10 2 2 50.85 51.33 1.45
10 3 2 13.38 14.59 0.89
10 4 2 17.19 19.06 0.95
10 5 2 6.15 5.42 0.51
10 6 2 2.52 2.73 0.45
10 7 2 37.19 37.48 1.26
10 8 2 7.86 7.50 0.71
10 9 2 2.36 2.74 0.46
10 10 2 32.79 33.07 1.26
10 11 2 45.30 45.18 1.44
10 12 2 1.62 2.36 0.46
10 13 2 0.58 0.98 0.41
10 14 2 35.85 35.24 1.29
10 15 2 33.54 33.84 1.27
10 0 3 8.78 7.69 0.70
10 1 3 0.72 0.73 0.38
10 2 3 15.62 15.34 0.90
10 3 3 5.07 5.17 0.51
10 4 3 15.80 15.82 0.92
10 5 3 8.45 8.36 0.64
10 6 3 57.37 58.52 1.55
10 7 3 2.25 2.46 0.45
10 9 3 10.69 10.99 0.87
10 10 3 24.36 23.37 1.14
10 11 3 1.74 1.84 0.43
10 12 3 21.03 22.28 1.08
10 13 3 27.98 27.82 1.20
10 14 3 2.05 2.56 0.46
10 15 3 4.12 2.52 0.45
10 0 4 2.83 3.25 0.46
10 1 4 8.65 8.91 0.73
10 2 4 14.53 14.99 0.90
10 3 4 19.04 18.20 1.02
10 4 4 13.63 15.82 0.94
10 5 4 34.45 33.17 1.25
10 6 4 4.68 3.97 0.48
10 7 4 39.72 39.74 1.37
10 8 4 21.29 22.48 1.10
10 9 4 13.80 15.92 0.97
10 10 4 22.89 23.26 1.13
10 11 4 20.50 21.49 1.09
10 12 4 1.11 1.56 0.43
10 13 4 0.81 0.97 0.41
10 14 4 20.80 20.14 1.05
10 0 5 17.08 18.31 1.01
10 1 5 32.10 33.15 1.24
10 2 5 32.68 30.82 1.24
10 3 5 1.12 1.30 0.42
10 4 5 22.79 23.58 1.10
10 5 5 56.98 58.15 1.62
10 6 5 18.25 20.18 1.07
10 7 5 2.56 2.24 0.46
10 8 5 11.90 12.79 0.91
10 9 5 43.05 42.25 1.41
10 10 5 12.50 13.36 0.96
10 11 5 2.21 2.20 0.45
10 12 5 10.87 9.51 0.78
10 0 6 0.09 0.18 0.41
10 1 6 9.59 9.47 0.64
10 2 6 11.95 11.91 0.93
10 3 6 0.17 0.45 0.40
10 4 6 2.04 2.02 0.45
10 5 6 3.41 4.03 0.50
10 6 6 3.49 3.23 0.47
10 7 6 13.16 13.32 0.85
10 8 6 5.92 6.40 0.54
10 9 6 6.87 6.79 0.61
10 10 6 15.08 15.92 0.96
10 0 7 3.20 3.46 0.48
10 1 7 4.83 5.92 0.53
10 2 7 87.91 87.11 1.96
10 3 7 3.48 3.75 0.48
10 4 7 9.14 9.43 0.78
10 5 7 4.64 4.72 0.51
10 6 7 37.36 37.73 1.31
10 7 7 11.47 11.95 0.92
11 1 0 0.57 0.79 0.40
11 2 0 191.16 188.15 2.94
11 3 0 10.77 10.66 0.79
11 4 0 0.85 0.67 0.40
11 5 0 0.43 0.38 0.40
11 6 0 17.03 20.22 1.05
11 7 0 59.72 60.03 1.61
11 8 0 0.45 0.91 0.41
11 9 0 1.20 1.75 0.43
11 10 0 11.21 10.65 0.81
11 11 0 54.64 57.01 1.57
11 12 0 5.18 4.58 0.51
11 13 0 10.94 9.94 0.80
11 0 1 0.04 0.31 0.38
11 1 1 31.71 31.24 1.22
11 2 1 1.48 1.62 0.43
11 3 1 9.85 8.82 0.75
11 4 1 8.13 8.29 0.64
11 5 1 27.21 26.87 1.16
11 6 1 1.66 1.68 0.43
11 7 1 27.48 29.24 1.18
11 8 1 14.81 15.47 0.98
11 9 1 2.84 2.16 0.45
11 10 1 7.24 8.18 0.65
11 11 1 5.40 5.35 0.52
11 12 1 0.77 0.88 0.41
11 13 1 13.91 13.83 0.81
11 0 2 8.82 7.73 0.71
11 1 2 9.51 10.37 0.85
11 2 2 17.39 14.93 0.98
11 3 2 22.47 21.49 1.09
11 4 2 10.93 13.28 0.90
11 5 2 1.04 1.52 0.43
11 6 2 1.88 1.99 0.45
11 7 2 20.03 20.40 1.06
11 8 2 8.71 9.66 0.77
11 9 2 2.20 2.33 0.46
11 10 2 3.27 3.28 0.48
11 11 2 21.38 22.28 1.09
11 12 2 6.76 6.14 0.59
11 0 3 16.71 16.37 0.98
11 1 3 19.06 19.97 1.03
11 2 3 9.38 8.95 0.75
11 3 3 0.92 0.62 0.40
11 4 3 29.29 28.45 1.20
11 5 3 17.22 19.74 1.02
11 6 3 17.48 18.75 1.03
11 7 3 13.45 12.93 0.93
11 8 3 16.13 15.79 1.02
11 9 3 2.66 3.22 0.47
11 10 3 3.72 3.81 0.48
11 11 3 18.37 16.76 1.03
11 0 4 7.76 7.19 0.63
11 1 4 13.69 14.96 0.96
11 2 4 27.91 28.50 1.19
11 3 4 35.49 36.42 1.31
11 4 4 7.36 7.65 0.58
11 5 4 3.46 3.35 0.47
11 6 4 15.62 16.96 0.97
11 7 4 5.47 5.22 0.53
11 8 4 0.98 1.45 0.42
11 9 4 12.71 11.23 0.80
11 10 4 4.04 3.48 0.47
11 0 5 7.63 9.23 0.68
11 1 5 14.83 14.91 0.99
11 2 5 35.66 36.03 1.31
11 3 5 22.81 23.32 1.08
11 4 5 2.26 2.49 0.45
11 5 5 3.73 3.16 0.47
11 6 5 47.41 49.52 1.51
11 7 5 11.44 12.53 0.90
11 8 5 0.06 0.27 0.41
11 0 6 19.76 18.71 1.06
11 1 6 5.11 4.91 0.51
11 2 6 0.46 0.95 0.43
11 3 6 28.21 28.58 1.18
11 4 6 6.57 7.17 0.62
12 0 0 10.06 9.18 0.68
12 1 0 12.98 14.23 0.96
12 2 0 5.25 5.50 0.59
12 3 0 25.76 25.39 1.15
12 4 0 2.19 2.39 0.45
12 5 0 18.12 18.01 1.01
12 6 0 21.48 20.94 1.06
12 7 0 7.55 8.24 0.58
12 8 0 0.55 0.61 0.41
12 9 0 36.84 36.73 1.31
12 0 1 12.02 12.65 0.91
12 1 1 4.82 5.25 0.52
12 2 1 4.62 3.90 0.49
12 3 1 24.61 22.96 1.13
12 4 1 7.58 9.06 0.70
12 5 1 37.62 35.31 1.31
12 6 1 0.20 0.53 0.40
12 7 1 21.30 23.30 1.12
12 8 1 9.12 10.32 0.87
12 0 2 0.80 1.01 0.41
12 1 2 5.31 5.26 0.52
12 2 2 49.86 48.60 1.51
12 3 2 1.18 1.56 0.43
12 4 2 9.31 8.85 0.76
12 5 2 8.06 7.92 0.64
12 6 2 16.01 15.46 1.00
12 7 2 5.00 5.01 0.51
12 8 2 5.73 5.44 0.59
12 0 3 0.20 1.09 0.85
12 1 3 16.38 18.45 0.99
12 2 3 0.34 0.84 0.41
12 3 3 20.46 21.25 1.08
12 4 3 1.14 1.90 0.43
12 5 3 6.79 7.20 0.71
12 6 3 1.04 0.91 0.41
12 0 4 12.26 14.52 0.95
12 1 4 45.16 45.08 1.42
12 2 4 7.81 9.28 0.85
12 3 4 16.98 17.53 1.01
