#------------------------------------------------------------------------------
#$Date: 2022-03-02 05:20:08 +0200 (Wed, 02 Mar 2022) $
#$Revision: 273207 $
#$URL: file:///home/coder/svn-repositories/cod/cif/1/56/65/1566503.cif $
#------------------------------------------------------------------------------
#
# This file is available in the Crystallography Open Database (COD),
# http://www.crystallography.net/. The original data for this entry
# were provided by IUCr Journals, http://journals.iucr.org/.
#
# The file may be used within the scientific community so long as
# proper attribution is given to the journal article from which the
# data were obtained.
#
data_1566503
loop_
_publ_author_name
'Ruth, Paul Niklas'
'Herbst-Irmer, Regine'
'Stalke, Dietmar'
_publ_section_title
;
 Hirshfeld atom refinement based on projector augmented wave densities
 with periodic boundary conditions
;
_journal_issue                   2
_journal_name_full               IUCrJ
_journal_page_first              286
_journal_page_last               297
_journal_paper_doi               10.1107/S2052252522001385
_journal_volume                  9
_journal_year                    2022
_chemical_absolute_configuration unk
_chemical_formula_moiety         '2(C0.5 H2 N O0.5)'
_chemical_formula_sum            'C H4 N2 O'
_chemical_formula_weight         60.056
_chemical_name_common            urea
_space_group_crystal_system      tetragonal
_space_group_IT_number           113
_space_group_name_Hall           'P -4 2ab'
_space_group_name_H-M_alt        'P -4 21 m'
_symmetry_Int_Tables_number      113
_audit_creation_date             2022-01-14
_audit_creation_method
;
Olex2 1.5
(compiled 2021.12.09 svn.r5202d8cf for OlexSys, GUI svn.r6439)
;
_cell_angle_alpha                90
_cell_angle_beta                 90
_cell_angle_gamma                90
_cell_formula_units_Z            2
_cell_length_a                   5.5780(6)
_cell_length_b                   5.5780(6)
_cell_length_c                   4.6860(7)
_cell_measurement_reflns_used    17
_cell_measurement_temperature    123.15
_cell_volume                     145.80(3)
_computing_cell_refinement       'KM6-CH software'
_computing_data_collection       'KM6-CH software'
_computing_data_reduction        XD_RED
_computing_molecular_graphics    'Olex2 1.5 (Dolomanov et al., 2009)'
_computing_publication_material  'Olex2 1.5 (Dolomanov et al., 2009)'
_computing_structure_refinement  'olex2.refine 1.5 (Bourhis et al., 2015)'
_diffrn_ambient_temperature      123
_diffrn_measured_fraction_theta_full 1.0000
_diffrn_measured_fraction_theta_max 0.9817
_diffrn_measurement_device_type
;
KM6-CH six-circle \k diffractometer operated as standard four-circle
\k diffractometer with detector circle in the vertical plane to profit
from the linear polarization of the synchrotron beam.
;
_diffrn_measurement_method       \w-scan
_diffrn_radiation_type           synchrotron
_diffrn_radiation_wavelength     0.5996
_diffrn_reflns_av_R_equivalents  0.0141
_diffrn_reflns_av_unetI/netI     0.0148
_diffrn_reflns_Laue_measured_fraction_full 1.0000
_diffrn_reflns_Laue_measured_fraction_max 0.9817
_diffrn_reflns_limit_h_max       15
_diffrn_reflns_limit_h_min       0
_diffrn_reflns_limit_k_max       10
_diffrn_reflns_limit_k_min       0
_diffrn_reflns_limit_l_max       13
_diffrn_reflns_limit_l_min       0
_diffrn_reflns_number            1022
_diffrn_reflns_point_group_measured_fraction_full 1.0000
_diffrn_reflns_point_group_measured_fraction_max 0.9817
_diffrn_reflns_theta_full        21.0855
_diffrn_reflns_theta_max         57.40
_diffrn_reflns_theta_min         3.67
_exptl_absorpt_coefficient_mu    0.081
_exptl_absorpt_correction_type   none
_exptl_crystal_colour            colourless
_exptl_crystal_density_diffrn    1.368
_exptl_crystal_density_method    'not measured'
_exptl_crystal_description       block
_exptl_crystal_F_000             64.034
_exptl_crystal_size_max          0.23
_exptl_crystal_size_mid          0.13
_exptl_crystal_size_min          0.09
_refine_diff_density_max         0.1946
_refine_diff_density_min         -0.3129
_refine_diff_density_rms         0.0387
_refine_ls_d_res_high            0.3559
_refine_ls_d_res_low             4.6860
_refine_ls_goodness_of_fit_ref   2.3617
_refine_ls_hydrogen_treatment    refall
_refine_ls_matrix_type           full
_refine_ls_number_constraints    0
_refine_ls_number_parameters     27
_refine_ls_number_reflns         1022
_refine_ls_number_restraints     0
_refine_ls_restrained_S_all      2.3617
_refine_ls_R_factor_all          0.0262
_refine_ls_R_factor_gt           0.0152
_refine_ls_shift/su_max          -0.0001
_refine_ls_shift/su_mean         0.0000
_refine_ls_structure_factor_coef Fsqd
_refine_ls_weighting_details
'w=1/[\s^2^(Fo^2^)+(0.0000P)^2^] where P=(Fo^2^+2Fc^2^)/3'
_refine_ls_weighting_scheme      calc
_refine_ls_wR_factor_gt          0.0221
_refine_ls_wR_factor_ref         0.0221
_reflns_Friedel_coverage         0.0
_reflns_limit_h_max              15
_reflns_limit_h_min              0
_reflns_limit_k_max              10
_reflns_limit_k_min              0
_reflns_limit_l_max              13
_reflns_limit_l_min              0
_reflns_number_gt                803
_reflns_number_total             1022
_reflns_threshold_expression     I>=2u(I)
_iucr_refine_instructions_details
;
TITL I P -4 21 m
CELL 0.5996 5.578 5.578 4.686 90 90 90
ZERR 2 0.0006 0.0006 0.0007 0 0 0
LATT -1
SYMM +Y,-X,-Z
SYMM -X,-Y,+Z
SYMM -Y,+X,-Z
SYMM 0.5+X,0.5-Y,-Z
SYMM 0.5-Y,0.5-X,+Z
SYMM 0.5-X,0.5+Y,-Z
SYMM 0.5+Y,0.5+X,+Z
SFAC C H N O
DISP C 0.002 0.001 8.3
DISP H 0 0 0.7
DISP N 0.004 0.002 13.3
DISP O 0.007 0.004 21.1
UNIT 2 8 4 2

L.S. 0
SIZE 0.09 0.13 0.23
TEMP -150
CONF
FMAP 2
BOND $H
ACTA 
LIST -6
MORE -1
WGHT 0
FVAR 1.002951
REM <olex2.extras>
REM <HklSrc "%.\\pbe.hkl">
REM </olex2.extras>

O     4     0.00000  0.50000  0.59628  10.25000  0.01948  0.01948  0.00651 =
 0.00000 -0.00000  0.00164 
N     3     0.14487  0.64487  0.17856  10.50000  0.02884  0.02884  0.00948 =
 0.00012  0.00012 -0.01497 
H1    2     0.25452  0.75452  0.29082  10.50000  0.06108  0.06108  0.01497 =
 0.00124  0.00124 -0.03776 
H2    2     0.14290  0.64290 -0.03302  10.50000  0.04483  0.04483  0.03685 =
 0.00318  0.00318 -0.01713 
C     1     0.00000  0.50000  0.32820  10.25000  0.01467  0.01467  0.00664 =
 0.00000 -0.00000  0.00004 
HKLF 4

END
Q2 1 0.15 0.65 0.13889 11 0.05 0.19
Q3 1 0.35 0.85 -0.13889 11 0.05 0.16
Q4 1 0 0.5 -0.13889 11 0.05 0.16
Q1 1 0 0.5 0.444444 11 0.05 0.19
Q5 1 0.3375 0.8375 0.388889 11 0.05 0.12

  REM The information below was added by Olex2.
  REM
  REM R1 = 0.0152 for 803 Fo > 4sig(Fo) and 0.0262 for all 1022 data
  REM 27 parameters refined using 0 restraints
  REM Highest difference peak 0.1946, deepest hole -0.3129
  REM Mean Shift 0.0000, Max Shift -0.0001.

  REM +++ Tabular Listing of Refinement Information +++
  REM R1_all = 0.0262
  REM R1_gt = 0.0152
  REM wR_ref = 0.0221
  REM GOOF = 2.3617
  REM Shift_max = -0.0001
  REM Shift_mean = 0.0000
  REM Reflections_all = 1022
  REM Reflections_gt = 803
  REM Parameters = 27
  REM Hole = -0.3129
  REM Peak = 0.1946
  REM Flack = n/a

  
;
_cod_data_source_file            fc5060.cif
_cod_data_source_block           urea_NoSpherA2_PBE_ORCA
_cod_original_sg_symbol_Hall     ' P -4 2ab'
_cod_database_code               1566503
_olex2_refinement_description
;
;
_iucr_refine_fcf_details
;
data_urea_NoSpherA2_PBE_ORCA
_computing_structure_refinement   'olex2.refine 1.5 (Bourhis et al., 2015)'
_shelx_refln_list_code            4
loop_
  _space_group_symop_id
  _space_group_symop_operation_xyz
  1  x,y,z
  2  y,-x,-z
  3  -y,x,-z
  4  x+1/2,-y+1/2,-z
  5  -x+1/2,y+1/2,-z
  6  -x,-y,z
  7  -y+1/2,-x+1/2,z
  8  y+1/2,x+1/2,z

_space_group_crystal_system       tetragonal
_space_group_IT_number            113
_space_group_name_H-M_alt         'P -4 21 m'
_space_group_name_Hall            ' P -4 2ab'
_symmetry_space_group_name_H-M    'P -4 21 m'
_symmetry_space_group_name_Hall   ' P -4 2ab'
_symmetry_Int_Tables_number       113
_cell_length_a                    5.5780(6)
_cell_length_b                    5.5780(6)
_cell_length_c                    4.6860(7)
_cell_angle_alpha                 90
_cell_angle_beta                  90
_cell_angle_gamma                 90
_cell_volume                      145.80(3)
loop_
  _refln_index_h
  _refln_index_k
  _refln_index_l
  _refln_F_squared_calc
  _refln_F_squared_meas
  _refln_F_squared_sigma
  _refln_F_squared_weight
  _refln_observed_status
0 0 1 12.320 13.351 0.050 17.548 o
0 0 2 125.441 134.048 0.825 0.064 o
0 0 3 13.909 13.550 0.080 6.855 o
0 0 4 31.435 29.655 0.179 1.354 o
0 0 5 47.381 48.782 0.358 0.339 o
0 0 6 15.549 15.707 0.189 1.215 o
0 0 7 0.271 0.268 0.030 48.745 o
0 0 8 15.089 14.663 0.249 0.702 o
0 0 9 3.729 3.638 0.099 4.387 o
0 0 10 2.921 2.883 0.089 5.416 o
0 0 11 0.094 0.070 0.258 0.649 o
0 0 12 3.828 3.788 0.109 3.626 o
0 0 13 0.187 0.179 0.020 109.677 o
1 0 1 150.918 149.049 0.179 1.354 o
1 0 2 147.875 152.310 0.268 0.602 o
1 0 3 85.179 87.224 0.189 1.215 o
1 0 4 2.036 2.207 0.030 48.745 o
1 0 5 19.026 18.968 0.099 4.387 o
1 0 6 0.470 0.527 0.030 48.745 o
1 0 7 43.148 43.026 0.338 0.380 o
1 0 8 5.888 6.114 0.070 8.953 o
1 0 9 0.006 -0.010 0.318 0.428 o
1 0 10 0.207 0.189 0.010 438.710 o
1 0 11 1.476 1.422 0.040 27.419 o
1 0 12 1.248 1.253 0.040 27.419 o
1 0 13 0.041 0.000 0.308 0.457 o
1 1 0 1028.900 1002.440 1.909 0.012 o
1 1 1 278.002 281.814 0.507 0.169 o
1 1 2 51.590 52.619 0.119 3.047 o
1 1 3 11.345 11.542 0.060 12.186 o
1 1 4 43.524 43.234 0.179 1.354 o
1 1 5 16.963 16.910 0.109 3.626 o
1 1 6 2.939 2.953 0.030 48.745 o
1 1 7 5.821 5.667 0.080 6.855 o
1 1 8 4.392 4.474 0.070 8.953 o
1 1 9 1.297 1.302 0.050 17.548 o
1 1 10 3.277 3.241 0.070 8.953 o
1 1 11 1.632 1.640 0.050 17.548 o
1 1 12 2.397 2.455 0.060 12.186 o
1 1 13 0.249 0.229 0.020 109.677 o
2 0 0 151.906 155.024 0.298 0.487 o
2 0 1 193.774 196.558 0.258 0.649 o
2 0 2 8.326 8.251 0.030 48.745 o
2 0 3 48.995 49.378 0.129 2.596 o
2 0 4 20.341 20.032 0.089 5.416 o
2 0 5 0.673 0.557 0.030 48.745 o
2 0 6 1.466 1.461 0.020 109.677 o
2 0 7 0.228 0.268 0.010 438.710 o
2 0 8 0.036 0.050 0.199 1.097 o
2 0 9 0.366 0.358 0.020 109.677 o
2 0 10 1.106 1.074 0.040 27.419 o
2 0 11 4.425 4.314 0.070 8.953 o
2 0 12 0.979 1.064 0.040 27.419 o
2 0 13 0.002 -0.030 0.298 0.487 o
2 1 0 228.016 225.586 0.278 0.560 o
2 1 1 49.292 49.289 0.080 6.855 o
2 1 2 29.427 30.062 0.070 8.953 o
2 1 3 68.907 68.257 0.159 1.714 o
2 1 4 44.849 45.084 0.139 2.238 o
2 1 5 13.508 13.510 0.070 8.953 o
2 1 6 13.703 13.848 0.089 5.416 o
2 1 7 10.627 10.736 0.089 5.416 o
2 1 8 15.110 14.852 0.129 2.596 o
2 1 9 3.283 3.291 0.050 17.548 o
2 1 10 1.192 1.193 0.030 48.745 o
2 1 11 1.935 1.899 0.040 27.419 o
2 1 12 0.408 0.418 0.020 109.677 o
2 1 13 0.217 0.209 0.010 438.710 o
2 2 0 227.090 226.064 0.418 0.249 o
2 2 1 199.332 198.685 0.388 0.288 o
2 2 2 55.798 54.468 0.159 1.714 o
2 2 3 28.723 27.378 0.119 3.047 o
2 2 4 43.918 43.215 0.209 0.995 o
2 2 5 9.705 9.732 0.080 6.855 o
2 2 6 2.915 2.744 0.050 17.548 o
2 2 7 10.241 10.041 0.119 3.047 o
2 2 8 1.822 1.839 0.050 17.548 o
2 2 9 1.668 1.660 0.050 17.548 o
2 2 10 3.748 3.648 0.070 8.953 o
2 2 11 2.859 2.764 0.060 12.186 o
2 2 12 1.723 1.740 0.050 17.548 o
3 0 1 91.899 92.871 0.169 1.518 o
3 0 2 18.082 17.725 0.060 12.186 o
3 0 3 11.429 11.552 0.050 17.548 o
3 0 4 103.473 104.343 0.378 0.304 o
3 0 5 0.299 0.368 0.020 109.677 o
3 0 6 11.072 10.826 0.089 5.416 o
3 0 7 0.452 0.497 0.020 109.677 o
3 0 8 15.617 15.498 0.159 1.714 o
3 0 9 4.184 4.245 0.060 12.186 o
3 0 10 4.847 4.812 0.070 8.953 o
3 0 11 0.402 0.408 0.020 109.677 o
3 0 12 0.046 0.040 0.169 1.518 o
3 1 0 29.126 28.949 0.070 8.953 o
3 1 1 141.798 141.523 0.229 0.829 o
3 1 2 15.142 14.793 0.050 17.548 o
3 1 3 67.376 65.821 0.179 1.354 o
3 1 4 14.575 14.435 0.070 8.953 o
3 1 5 1.650 1.660 0.030 48.745 o
3 1 6 5.157 5.209 0.050 17.548 o
3 1 7 1.509 1.531 0.030 48.745 o
3 1 8 0.470 0.467 0.020 109.677 o
3 1 9 1.413 1.481 0.030 48.745 o
3 1 10 1.044 1.074 0.030 48.745 o
3 1 11 5.467 5.388 0.070 8.953 o
3 1 12 0.578 0.587 0.030 48.745 o
3 2 0 17.193 17.308 0.050 17.548 o
3 2 1 5.118 5.100 0.030 48.745 o
3 2 2 11.113 10.945 0.040 27.419 o
3 2 3 25.649 25.499 0.089 5.416 o
3 2 4 13.548 13.590 0.070 8.953 o
3 2 5 7.470 7.595 0.050 17.548 o
3 2 6 2.907 3.032 0.040 27.419 o
3 2 7 16.021 16.055 0.129 2.596 o
3 2 8 7.168 7.019 0.070 8.953 o
3 2 9 0.608 0.676 0.030 48.745 o
3 2 10 0.155 0.119 0.020 109.677 o
3 2 11 0.969 0.944 0.030 48.745 o
3 2 12 0.404 0.408 0.020 109.677 o
3 3 0 223.652 218.230 0.616 0.114 o
3 3 1 7.821 8.082 0.050 17.548 o
3 3 2 8.085 7.913 0.060 12.186 o
3 3 3 0.526 0.507 0.030 48.745 o
3 3 4 15.954 15.697 0.119 3.047 o
3 3 5 13.541 13.301 0.089 5.416 o
3 3 6 5.376 5.557 0.070 8.953 o
3 3 7 0.126 0.149 0.020 109.677 o
3 3 8 5.731 5.597 0.089 5.416 o
3 3 9 1.000 0.984 0.050 17.548 o
3 3 10 1.457 1.491 0.050 17.548 o
3 3 11 0.322 0.308 0.020 109.677 o
3 3 12 1.884 1.968 0.050 17.548 o
4 0 0 5.033 5.478 0.060 12.186 o
4 0 1 95.512 97.046 0.239 0.762 o
4 0 2 7.815 7.635 0.040 27.419 o
4 0 3 72.295 71.497 0.249 0.702 o
4 0 4 6.004 5.885 0.050 17.548 o
4 0 5 2.547 2.595 0.040 27.419 o
4 0 6 7.623 7.754 0.070 8.953 o
4 0 7 0.180 0.159 0.010 438.710 o
4 0 8 1.160 1.113 0.040 27.419 o
4 0 9 2.020 2.127 0.050 17.548 o
4 0 10 0.480 0.418 0.020 109.677 o
4 0 11 5.977 5.975 0.089 5.416 o
4 0 12 0.262 0.229 0.010 438.710 o
4 1 0 6.955 7.098 0.040 27.419 o
4 1 1 11.482 11.591 0.040 27.419 o
4 1 2 2.747 2.734 0.030 48.745 o
4 1 3 12.990 13.053 0.060 12.186 o
4 1 4 42.239 42.767 0.179 1.354 o
4 1 5 1.504 1.511 0.030 48.745 o
4 1 6 5.807 5.716 0.050 17.548 o
4 1 7 3.422 3.380 0.040 27.419 o
4 1 8 10.000 10.060 0.099 4.387 o
4 1 9 1.873 1.859 0.040 27.419 o
4 1 10 1.792 1.799 0.040 27.419 o
4 1 11 0.596 0.567 0.020 109.677 o
4 1 12 0.039 0.030 0.278 0.560 o
4 2 0 94.968 92.851 0.219 0.906 o
4 2 1 25.360 25.569 0.080 6.855 o
4 2 2 5.564 5.408 0.030 48.745 o
4 2 3 4.149 4.205 0.030 48.745 o
4 2 4 16.740 16.512 0.089 5.416 o
4 2 5 5.271 5.279 0.030 48.745 o
4 2 6 1.126 1.123 0.030 48.745 o
4 2 7 1.719 1.690 0.030 48.745 o
4 2 8 1.864 1.849 0.040 27.419 o
4 2 9 0.373 0.388 0.020 109.677 o
4 2 10 1.433 1.422 0.040 27.419 o
4 2 11 1.234 1.193 0.030 48.745 o
4 2 12 1.237 1.223 0.030 48.745 o
4 3 0 3.464 3.241 0.030 48.745 o
4 3 1 20.697 20.479 0.080 6.855 o
4 3 2 18.924 18.630 0.080 6.855 o
4 3 3 16.809 16.721 0.080 6.855 o
4 3 4 0.367 0.308 0.020 109.677 o
4 3 5 13.033 13.192 0.089 5.416 o
4 3 6 1.121 1.143 0.030 48.745 o
4 3 7 24.134 23.968 0.199 1.097 o
4 3 8 2.945 3.022 0.040 27.419 o
4 3 9 0.240 0.209 0.010 438.710 o
4 3 10 0.226 0.249 0.010 438.710 o
4 3 11 0.956 1.044 0.030 48.745 o
4 3 12 0.771 0.736 0.030 48.745 o
4 4 0 82.629 82.542 0.388 0.288 o
4 4 1 4.853 4.732 0.050 17.548 o
4 4 2 4.100 3.986 0.050 17.548 o
4 4 3 0.174 0.159 0.010 438.710 o
4 4 4 8.588 8.649 0.060 12.186 o
4 4 5 5.620 5.547 0.070 8.953 o
4 4 6 2.496 2.565 0.050 17.548 o
4 4 7 0.100 0.119 0.020 109.677 o
4 4 8 2.935 2.962 0.060 12.186 o
4 4 9 0.396 0.447 0.020 109.677 o
4 4 10 0.859 0.736 0.050 17.548 o
4 4 11 0.371 0.348 0.020 109.677 o
4 4 12 1.160 1.173 0.050 17.548 o
5 0 1 0.105 0.099 0.010 438.710 o
5 0 2 0.095 0.089 0.020 109.677 o
5 0 3 8.536 8.480 0.060 12.186 o
5 0 4 17.838 17.874 0.109 3.626 o
5 0 5 1.868 1.879 0.040 27.419 o
5 0 6 2.069 1.978 0.040 27.419 o
5 0 7 6.341 6.323 0.080 6.855 o
5 0 8 5.981 5.935 0.080 6.855 o
5 0 9 0.593 0.547 0.030 48.745 o
5 0 10 0.566 0.527 0.030 48.745 o
5 0 11 0.463 0.447 0.020 109.677 o
5 0 12 0.091 0.089 0.020 109.677 o
5 1 0 41.613 42.041 0.149 1.950 o
5 1 1 30.056 30.172 0.099 4.387 o
5 1 2 8.082 8.221 0.050 17.548 o
5 1 3 10.235 10.170 0.060 12.186 o
5 1 4 15.427 15.389 0.089 5.416 o
5 1 5 3.168 3.380 0.040 27.419 o
5 1 6 0.893 0.765 0.030 48.745 o
5 1 7 3.105 3.022 0.040 27.419 o
5 1 8 0.798 0.835 0.030 48.745 o
5 1 9 0.580 0.587 0.020 109.677 o
5 1 10 1.488 1.561 0.040 27.419 o
5 1 11 1.737 1.760 0.040 27.419 o
5 1 12 0.883 0.815 0.030 48.745 o
5 2 0 21.371 21.314 0.080 6.855 o
5 2 1 7.092 7.168 0.040 27.419 o
5 2 2 7.715 7.376 0.040 27.419 o
5 2 3 21.160 21.244 0.099 4.387 o
5 2 4 7.536 7.545 0.060 12.186 o
5 2 5 9.277 9.126 0.070 8.953 o
5 2 6 6.084 6.154 0.060 12.186 o
5 2 7 10.328 10.190 0.099 4.387 o
5 2 8 6.411 6.591 0.070 8.953 o
5 2 9 1.296 1.352 0.030 48.745 o
5 2 10 0.133 0.119 0.010 438.710 o
5 2 11 1.235 1.253 0.030 48.745 o
5 2 12 0.376 0.408 0.010 438.710 o
5 3 0 43.351 42.946 0.159 1.714 o
5 3 1 11.745 11.790 0.060 12.186 o
5 3 2 2.193 2.247 0.030 48.745 o
5 3 3 3.427 3.360 0.030 48.745 o
5 3 4 8.478 8.470 0.060 12.186 o
5 3 5 2.286 2.406 0.030 48.745 o
5 3 6 0.544 0.567 0.020 109.677 o
5 3 7 0.761 0.805 0.030 48.745 o
5 3 8 1.109 1.064 0.030 48.745 o
5 3 9 0.165 0.179 0.010 438.710 o
5 3 10 0.819 0.855 0.030 48.745 o
5 3 11 0.915 0.815 0.030 48.745 o
5 3 12 0.799 0.706 0.030 48.745 o
5 4 0 2.977 2.873 0.030 48.745 o
5 4 1 0.481 0.477 0.020 109.677 o
5 4 2 0.729 0.686 0.030 48.745 o
5 4 3 6.020 5.706 0.030 48.745 o
5 4 4 8.584 8.410 0.070 8.953 o
5 4 5 2.550 2.585 0.040 27.419 o
5 4 6 1.549 1.581 0.030 48.745 o
5 4 7 4.991 5.070 0.060 12.186 o
5 4 8 3.710 3.599 0.050 17.548 o
5 4 9 0.438 0.457 0.020 109.677 o
5 4 10 0.255 0.249 0.010 438.710 o
5 4 11 0.415 0.477 0.020 109.677 o
5 4 12 0.104 0.109 0.010 438.710 o
5 5 0 6.728 6.730 0.070 8.953 o
5 5 1 15.717 15.558 0.139 2.238 o
5 5 2 5.014 4.981 0.040 27.419 o
5 5 3 10.312 10.220 0.109 3.626 o
5 5 4 6.809 6.929 0.089 5.416 o
5 5 5 1.578 1.660 0.050 17.548 o
5 5 6 0.850 0.815 0.040 27.419 o
5 5 7 2.347 2.426 0.060 12.186 o
5 5 8 0.219 0.249 0.020 109.677 o
5 5 9 0.538 0.507 0.030 48.745 o
5 5 10 0.834 0.815 0.050 17.548 o
5 5 11 1.392 1.402 0.050 17.548 o
6 0 0 59.523 61.198 0.408 0.261 o
6 0 1 4.518 4.444 0.040 27.419 o
6 0 2 2.650 2.545 0.030 48.745 o
6 0 3 0.265 0.229 0.010 438.710 o
6 0 4 7.413 7.724 0.070 8.953 o
6 0 5 4.444 4.364 0.050 17.548 o
6 0 6 1.844 1.948 0.040 27.419 o
6 0 7 0.066 0.030 0.328 0.403 o
6 0 8 2.320 2.346 0.050 17.548 o
6 0 9 0.250 0.268 0.010 438.710 o
6 0 10 0.756 0.736 0.040 27.419 o
6 0 11 0.395 0.437 0.020 109.677 o
6 0 12 0.972 1.014 0.030 48.745 o
6 1 0 5.252 5.299 0.040 27.419 o
6 1 1 5.553 5.657 0.040 27.419 o
6 1 2 4.655 4.672 0.040 27.419 o
6 1 3 10.477 10.468 0.070 8.953 o
6 1 4 2.955 2.903 0.040 27.419 o
6 1 5 6.328 6.422 0.060 12.186 o
6 1 6 1.866 1.909 0.030 48.745 o
6 1 7 10.902 10.856 0.109 3.626 o
6 1 8 3.363 3.291 0.050 17.548 o
6 1 9 0.364 0.378 0.020 109.677 o
6 1 10 0.015 -0.010 0.278 0.560 o
6 1 11 0.683 0.726 0.030 48.745 o
6 1 12 0.327 0.318 0.010 438.710 o
6 2 0 22.794 23.342 0.109 3.626 o
6 2 1 13.610 13.689 0.080 6.855 o
6 2 2 2.742 2.833 0.030 48.745 o
6 2 3 6.218 6.173 0.040 27.419 o
6 2 4 7.745 7.535 0.060 12.186 o
6 2 5 1.420 1.541 0.030 48.745 o
6 2 6 0.358 0.308 0.010 438.710 o
6 2 7 1.328 1.292 0.030 48.745 o
6 2 8 0.515 0.606 0.020 109.677 o
6 2 9 0.265 0.249 0.010 438.710 o
6 2 10 0.797 0.835 0.030 48.745 o
6 2 11 1.154 1.173 0.030 48.745 o
6 2 12 0.576 0.547 0.030 48.745 o
6 3 0 0.013 0.040 0.229 0.829 o
6 3 1 0.904 0.885 0.030 48.745 o
6 3 2 0.837 0.915 0.030 48.745 o
6 3 3 2.925 2.863 0.040 27.419 o
6 3 4 15.304 15.121 0.109 3.626 o
6 3 5 0.377 0.328 0.010 438.710 o
6 3 6 1.869 1.750 0.040 27.419 o
6 3 7 1.758 1.779 0.030 48.745 o
6 3 8 4.106 4.314 0.060 12.186 o
6 3 9 0.673 0.596 0.020 109.677 o
6 3 10 0.758 0.775 0.030 48.745 o
6 3 11 0.239 0.229 0.010 438.710 o
6 4 0 2.495 2.455 0.030 48.745 o
6 4 1 13.532 13.411 0.060 12.186 o
6 4 2 2.652 2.615 0.030 48.745 o
6 4 3 14.645 14.713 0.099 4.387 o
6 4 4 3.406 3.430 0.040 27.419 o
6 4 5 0.947 0.865 0.030 48.745 o
6 4 6 1.339 1.302 0.030 48.745 o
6 4 7 0.911 0.915 0.030 48.745 o
6 4 8 0.170 0.159 0.010 438.710 o
6 4 9 0.595 0.626 0.030 48.745 o
6 4 10 0.400 0.398 0.020 109.677 o
6 4 11 1.781 1.710 0.040 27.419 o
6 5 0 4.247 4.145 0.040 27.419 o
6 5 1 0.823 0.855 0.030 48.745 o
6 5 2 1.617 1.561 0.030 48.745 o
6 5 3 4.152 4.016 0.050 17.548 o
6 5 4 9.273 9.275 0.080 6.855 o
6 5 5 1.523 1.531 0.030 48.745 o
6 5 6 1.991 2.088 0.040 27.419 o
6 5 7 1.267 1.272 0.030 48.745 o
6 5 8 3.108 3.122 0.050 17.548 o
6 5 9 0.667 0.756 0.030 48.745 o
6 5 10 0.478 0.487 0.020 109.677 o
6 5 11 0.277 0.278 0.010 438.710 o
6 6 0 9.071 8.460 0.099 4.387 o
6 6 1 2.776 2.714 0.050 17.548 o
6 6 2 0.458 0.427 0.030 48.745 o
6 6 3 1.755 1.760 0.050 17.548 o
6 6 4 1.855 1.929 0.050 17.548 o
6 6 5 0.343 0.288 0.020 109.677 o
6 6 6 0.062 0.040 0.229 0.829 o
6 6 7 0.131 0.159 0.020 109.677 o
6 6 8 0.253 0.229 0.020 109.677 o
6 6 9 0.007 0.050 0.388 0.288 o
6 6 10 0.225 0.199 0.020 109.677 o
6 6 11 0.389 0.368 0.030 48.745 o
7 0 1 8.168 8.480 0.070 8.953 o
7 0 2 4.959 5.110 0.040 27.419 o
7 0 3 5.451 5.239 0.050 17.548 o
7 0 4 0.198 0.179 0.010 438.710 o
7 0 5 5.926 6.253 0.070 8.953 o
7 0 6 0.026 0.050 0.308 0.457 o
7 0 7 11.726 11.910 0.139 2.238 o
7 0 8 1.301 1.233 0.040 27.419 o
7 0 9 0.021 0.050 0.318 0.428 o
7 0 10 0.086 0.089 0.020 109.677 o
7 0 11 0.422 0.477 0.030 48.745 o
7 1 0 30.445 31.315 0.179 1.354 o
7 1 1 3.165 3.171 0.040 27.419 o
7 1 2 1.471 1.441 0.020 109.677 o
7 1 3 0.594 0.606 0.020 109.677 o
7 1 4 4.367 4.583 0.050 17.548 o
7 1 5 2.029 2.048 0.030 48.745 o
7 1 6 0.881 1.014 0.030 48.745 o
7 1 7 0.048 0.080 0.020 109.677 o
7 1 8 1.239 1.233 0.030 48.745 o
7 1 9 0.089 0.099 0.010 438.710 o
7 1 10 0.457 0.408 0.020 109.677 o
7 1 11 0.359 0.358 0.010 438.710 o
7 2 0 0.235 0.278 0.010 438.710 o
7 2 1 0.015 0.010 0.169 1.518 o
7 2 2 0.132 0.169 0.010 438.710 o
7 2 3 2.693 2.704 0.040 27.419 o
7 2 4 8.319 8.291 0.070 8.953 o
7 2 5 0.852 0.865 0.030 48.745 o
7 2 6 1.013 0.944 0.030 48.745 o
7 2 7 2.499 2.585 0.040 27.419 o
7 2 8 2.810 2.923 0.050 17.548 o
7 2 9 0.323 0.278 0.010 438.710 o
7 2 10 0.339 0.388 0.010 438.710 o
7 2 11 0.222 0.219 0.010 438.710 o
7 3 0 1.346 1.372 0.030 48.745 o
7 3 1 10.580 10.657 0.080 6.855 o
7 3 2 1.454 1.441 0.030 48.745 o
7 3 3 13.965 13.947 0.109 3.626 o
7 3 4 1.858 1.829 0.030 48.745 o
7 3 5 0.715 0.646 0.030 48.745 o
7 3 6 1.363 1.352 0.030 48.745 o
7 3 7 0.306 0.318 0.010 438.710 o
7 3 8 0.178 0.179 0.010 438.710 o
7 3 9 0.561 0.577 0.030 48.745 o
7 3 10 0.208 0.268 0.010 438.710 o
7 3 11 1.661 1.620 0.030 48.745 o
7 4 0 0.988 0.994 0.030 48.745 o
7 4 1 1.343 1.342 0.030 48.745 o
7 4 2 1.757 1.809 0.030 48.745 o
7 4 3 1.658 1.690 0.030 48.745 o
7 4 4 11.728 11.522 0.099 4.387 o
7 4 5 0.316 0.338 0.010 438.710 o
7 4 6 1.515 1.461 0.030 48.745 o
7 4 7 0.457 0.447 0.020 109.677 o
7 4 8 2.858 3.032 0.050 17.548 o
7 4 9 0.608 0.547 0.030 48.745 o
7 4 10 0.717 0.775 0.030 48.745 o
7 4 11 0.130 0.139 0.010 438.710 o
7 5 0 5.966 5.796 0.060 12.186 o
7 5 1 3.161 3.161 0.040 27.419 o
7 5 2 0.045 0.099 0.030 48.745 o
7 5 3 2.828 2.843 0.040 27.419 o
7 5 4 1.443 1.422 0.030 48.745 o
7 5 5 0.058 0.080 0.020 109.677 o
7 5 6 0.003 0.010 0.199 1.097 o
7 5 7 0.022 0.010 0.288 0.522 o
7 5 8 0.090 0.089 0.020 109.677 o
7 5 9 0.034 0.040 0.278 0.560 o
7 5 10 0.164 0.159 0.010 438.710 o
7 5 11 0.505 0.477 0.020 109.677 o
7 6 0 0.527 0.517 0.020 109.677 o
7 6 1 2.312 2.197 0.040 27.419 o
7 6 2 1.087 1.094 0.030 48.745 o
7 6 3 2.211 2.137 0.040 27.419 o
7 6 4 0.339 0.358 0.010 438.710 o
7 6 5 1.846 1.859 0.040 27.419 o
7 6 6 0.319 0.318 0.010 438.710 o
7 6 7 3.473 3.539 0.050 17.548 o
7 6 8 0.715 0.706 0.030 48.745 o
7 6 9 0.041 -0.010 0.288 0.522 o
7 6 10 0.003 -0.030 0.268 0.602 o
7 7 1 1.184 1.282 0.050 17.548 o
7 7 2 1.382 1.382 0.050 17.548 o
7 7 3 0.013 0.000 0.388 0.288 o
7 7 4 1.969 1.919 0.060 12.186 o
7 7 5 1.144 1.103 0.050 17.548 o
7 7 6 0.782 0.875 0.050 17.548 o
7 7 7 0.224 0.288 0.020 109.677 o
7 7 8 0.708 0.696 0.040 27.419 o
7 7 9 0.139 0.169 0.020 109.677 o
7 7 10 0.205 0.209 0.020 109.677 o
8 0 0 16.946 17.109 0.139 2.238 o
8 0 1 2.265 2.267 0.040 27.419 o
8 0 2 0.788 0.815 0.030 48.745 o
8 0 3 0.717 0.795 0.030 48.745 o
8 0 4 2.697 2.724 0.050 17.548 o
8 0 5 0.975 0.895 0.030 48.745 o
8 0 6 0.433 0.507 0.020 109.677 o
8 0 7 0.033 0.060 0.328 0.403 o
8 0 8 0.678 0.656 0.030 48.745 o
8 0 9 0.028 0.010 0.328 0.403 o
8 0 10 0.281 0.249 0.010 438.710 o
8 0 11 0.300 0.288 0.010 438.710 o
8 1 0 1.420 1.491 0.030 48.745 o
8 1 1 0.984 0.964 0.030 48.745 o
8 1 2 0.603 0.616 0.020 109.677 o
8 1 3 3.203 3.161 0.040 27.419 o
8 1 4 2.755 2.903 0.040 27.419 o
8 1 5 1.912 1.968 0.040 27.419 o
8 1 6 0.716 0.775 0.030 48.745 o
8 1 7 3.475 3.509 0.050 17.548 o
8 1 8 1.696 1.650 0.040 27.419 o
8 1 9 0.166 0.219 0.010 438.710 o
8 1 10 0.058 0.020 0.278 0.560 o
8 1 11 0.258 0.278 0.010 438.710 o
8 2 0 4.760 4.652 0.050 17.548 o
8 2 1 6.448 6.521 0.060 12.186 o
8 2 2 1.458 1.551 0.030 48.745 o
8 2 3 5.032 5.110 0.050 17.548 o
8 2 4 2.939 3.052 0.040 27.419 o
8 2 5 0.498 0.557 0.020 109.677 o
8 2 6 0.259 0.258 0.010 438.710 o
8 2 7 0.754 0.825 0.030 48.745 o
8 2 8 0.088 0.119 0.010 438.710 o
8 2 9 0.207 0.189 0.010 438.710 o
8 2 10 0.348 0.388 0.020 109.677 o
8 2 11 0.763 0.785 0.030 48.745 o
8 3 0 1.122 1.123 0.030 48.745 o
8 3 1 0.391 0.388 0.010 438.710 o
8 3 2 0.849 0.865 0.030 48.745 o
8 3 3 1.748 1.829 0.030 48.745 o
8 3 4 7.047 6.999 0.070 8.953 o
8 3 5 0.504 0.517 0.020 109.677 o
8 3 6 1.043 1.094 0.030 48.745 o
8 3 7 0.767 0.805 0.030 48.745 o
8 3 8 2.065 2.078 0.040 27.419 o
8 3 9 0.374 0.368 0.020 109.677 o
8 3 10 0.392 0.398 0.020 109.677 o
8 3 11 0.137 0.139 0.010 438.710 o
8 4 0 4.054 4.136 0.050 17.548 o
8 4 1 2.996 2.913 0.040 27.419 o
8 4 2 0.008 0.030 0.258 0.649 o
8 4 3 2.992 2.933 0.040 27.419 o
8 4 4 1.176 1.123 0.030 48.745 o
8 4 5 0.015 0.020 0.278 0.560 o
8 4 6 0.034 0.089 0.030 48.745 o
8 4 7 0.020 0.030 0.159 1.714 o
8 4 8 0.042 0.050 0.020 109.677 o
8 4 9 0.061 0.050 0.199 1.097 o
8 4 10 0.129 0.169 0.010 438.710 o
8 5 0 1.029 0.984 0.030 48.745 o
8 5 1 1.281 1.342 0.030 48.745 o
8 5 2 0.727 0.716 0.030 48.745 o
8 5 3 2.230 2.197 0.040 27.419 o
8 5 4 0.833 0.785 0.030 48.745 o
8 5 5 1.375 1.332 0.030 48.745 o
8 5 6 0.562 0.596 0.030 48.745 o
8 5 7 2.313 2.346 0.040 27.419 o
8 5 8 0.877 0.875 0.030 48.745 o
8 5 9 0.089 0.089 0.020 109.677 o
8 5 10 0.008 0.020 0.258 0.649 o
8 6 0 8.102 8.371 0.089 5.416 o
8 6 1 1.552 1.491 0.040 27.419 o
8 6 2 1.230 1.193 0.030 48.745 o
8 6 3 0.038 0.020 0.278 0.560 o
8 6 4 2.006 1.968 0.040 27.419 o
8 6 5 0.900 1.014 0.030 48.745 o
8 6 6 0.559 0.587 0.030 48.745 o
8 6 7 0.309 0.308 0.020 109.677 o
8 6 8 0.538 0.557 0.020 109.677 o
8 6 9 0.119 0.129 0.010 438.710 o
8 6 10 0.210 0.239 0.020 109.677 o
8 7 0 0.083 0.139 0.020 109.677 o
8 7 1 0.644 0.557 0.030 48.745 o
8 7 2 0.206 0.219 0.010 438.710 o
8 7 3 0.755 0.775 0.030 48.745 o
8 7 4 0.376 0.348 0.020 109.677 o
8 7 5 0.627 0.646 0.030 48.745 o
8 7 6 0.119 0.149 0.020 109.677 o
8 7 7 1.268 1.253 0.040 27.419 o
8 7 8 0.344 0.358 0.010 438.710 o
8 7 9 0.010 0.000 0.268 0.602 o
8 8 0 0.921 0.885 0.050 17.548 o
8 8 1 0.881 0.865 0.040 27.419 o
8 8 2 0.139 0.159 0.020 109.677 o
8 8 3 0.931 0.954 0.050 17.548 o
8 8 4 0.364 0.348 0.020 109.677 o
8 8 5 0.037 0.010 0.408 0.261 o
8 8 6 0.015 0.000 0.408 0.261 o
8 8 7 0.076 0.030 0.408 0.261 o
8 8 8 0.007 0.010 0.388 0.288 o
9 0 1 0.002 -0.020 0.298 0.487 o
9 0 2 0.077 0.089 0.020 109.677 o
9 0 3 1.047 1.014 0.040 27.419 o
9 0 4 3.710 3.857 0.060 12.186 o
9 0 5 0.392 0.348 0.020 109.677 o
9 0 6 0.435 0.447 0.020 109.677 o
9 0 7 1.158 1.143 0.040 27.419 o
9 0 8 1.265 1.332 0.040 27.419 o
9 0 9 0.134 0.119 0.020 109.677 o
9 0 10 0.164 0.189 0.010 438.710 o
9 1 0 3.626 3.579 0.040 27.419 o
9 1 1 3.569 3.609 0.040 27.419 o
9 1 2 0.593 0.636 0.020 109.677 o
9 1 3 2.966 3.112 0.040 27.419 o
9 1 4 1.681 1.660 0.040 27.419 o
9 1 5 0.219 0.258 0.010 438.710 o
9 1 6 0.097 0.050 0.199 1.097 o
9 1 7 0.324 0.318 0.010 438.710 o
9 1 8 0.061 0.030 0.288 0.522 o
9 1 9 0.100 0.070 0.010 438.710 o
9 1 10 0.191 0.199 0.010 438.710 o
9 2 0 1.399 1.392 0.030 48.745 o
9 2 1 0.231 0.229 0.010 438.710 o
9 2 2 0.439 0.408 0.010 438.710 o
9 2 3 1.913 1.899 0.040 27.419 o
9 2 4 3.024 3.112 0.040 27.419 o
9 2 5 0.861 0.785 0.030 48.745 o
9 2 6 0.715 0.825 0.030 48.745 o
9 2 7 1.186 1.183 0.030 48.745 o
9 2 8 1.299 1.243 0.040 27.419 o
9 2 9 0.206 0.219 0.010 438.710 o
9 2 10 0.130 0.109 0.010 438.710 o
9 3 0 5.003 5.239 0.060 12.186 o
9 3 1 1.624 1.620 0.030 48.745 o
9 3 2 0.184 0.189 0.010 438.710 o
9 3 3 1.159 1.133 0.030 48.745 o
9 3 4 1.050 1.054 0.030 48.745 o
9 3 5 0.144 0.119 0.010 438.710 o
9 3 6 0.030 0.040 0.199 1.097 o
9 3 7 0.045 0.030 0.199 1.097 o
9 3 8 0.138 0.129 0.010 438.710 o
9 3 9 0.006 0.020 0.278 0.560 o
9 3 10 0.121 0.089 0.020 109.677 o
9 4 0 0.415 0.418 0.020 109.677 o
9 4 1 1.038 1.064 0.030 48.745 o
9 4 2 0.444 0.477 0.020 109.677 o
9 4 3 1.435 1.392 0.030 48.745 o
9 4 4 0.573 0.537 0.020 109.677 o
9 4 5 1.037 1.034 0.030 48.745 o
9 4 6 0.267 0.288 0.010 438.710 o
9 4 7 1.965 2.028 0.040 27.419 o
9 4 8 0.604 0.616 0.030 48.745 o
9 4 9 0.036 0.050 0.278 0.560 o
9 4 10 0.004 -0.030 0.268 0.602 o
9 5 0 5.840 6.253 0.070 8.953 o
9 5 1 1.428 1.352 0.030 48.745 o
9 5 2 0.899 0.974 0.030 48.745 o
9 5 3 0.112 0.060 0.020 109.677 o
9 5 4 1.621 1.591 0.040 27.419 o
9 5 5 0.603 0.646 0.030 48.745 o
9 5 6 0.352 0.378 0.010 438.710 o
9 5 7 0.270 0.278 0.010 438.710 o
9 5 8 0.365 0.378 0.020 109.677 o
9 5 9 0.082 0.050 0.199 1.097 o
9 6 0 0.168 0.179 0.010 438.710 o
9 6 1 0.393 0.418 0.020 109.677 o
9 6 2 0.143 0.149 0.010 438.710 o
9 6 3 0.709 0.765 0.030 48.745 o
9 6 4 0.539 0.497 0.020 109.677 o
9 6 5 0.469 0.447 0.020 109.677 o
9 6 6 0.174 0.159 0.010 438.710 o
9 6 7 0.925 0.934 0.030 48.745 o
9 6 8 0.370 0.398 0.010 438.710 o
9 6 9 0.023 0.030 0.268 0.602 o
9 7 0 0.737 0.805 0.030 48.745 o
9 7 1 0.844 0.895 0.030 48.745 o
9 7 2 0.086 0.050 0.199 1.097 o
9 7 3 0.999 0.984 0.030 48.745 o
9 7 4 0.295 0.298 0.010 438.710 o
9 7 5 0.025 -0.040 0.288 0.522 o
9 7 6 0.018 0.040 0.278 0.560 o
9 7 7 0.047 0.030 0.278 0.560 o
9 7 8 0.002 0.010 0.268 0.602 o
9 8 0 0.556 0.577 0.020 109.677 o
9 8 1 0.166 0.169 0.010 438.710 o
9 8 2 0.372 0.398 0.020 109.677 o
9 8 3 0.420 0.378 0.020 109.677 o
9 8 4 1.363 1.412 0.040 27.419 o
9 8 5 0.196 0.199 0.010 438.710 o
9 8 6 0.269 0.288 0.010 438.710 o
9 8 7 0.046 0.030 0.199 1.097 o
9 8 8 0.385 0.368 0.020 109.677 o
9 9 0 0.133 0.109 0.020 109.677 o
9 9 1 0.565 0.656 0.040 27.419 o
9 9 2 0.169 0.159 0.020 109.677 o
9 9 3 0.675 0.785 0.040 27.419 o
9 9 4 0.185 0.219 0.020 109.677 o
9 9 5 0.072 0.060 0.398 0.274 o
9 9 6 0.041 0.060 0.219 0.906 o
9 9 7 0.081 0.070 0.378 0.304 o
10 0 0 0.960 0.925 0.040 27.419 o
10 0 1 2.230 2.247 0.040 27.419 o
10 0 2 0.070 0.050 0.318 0.428 o
10 0 3 3.087 3.112 0.050 17.548 o
10 0 4 0.499 0.467 0.020 109.677 o
10 0 5 0.064 0.070 0.328 0.403 o
10 0 6 0.152 0.189 0.010 438.710 o
10 0 7 0.009 0.000 0.328 0.403 o
10 0 8 0.004 0.040 0.318 0.428 o
10 0 9 0.111 0.099 0.020 109.677 o
10 0 10 0.049 0.089 0.507 0.169 o
10 1 0 0.112 0.099 0.010 438.710 o
10 1 1 0.031 0.020 0.268 0.602 o
10 1 2 0.192 0.199 0.010 438.710 o
10 1 3 0.589 0.606 0.020 109.677 o
10 1 4 2.672 2.694 0.040 27.419 o
10 1 5 0.179 0.129 0.010 438.710 o
10 1 6 0.332 0.328 0.010 438.710 o
10 1 7 0.491 0.497 0.020 109.677 o
10 1 8 0.824 0.885 0.030 48.745 o
10 1 9 0.110 0.070 0.020 109.677 o
10 1 10 0.144 0.179 0.020 109.677 o
10 2 0 3.276 3.350 0.050 17.548 o
10 2 1 1.085 1.064 0.030 48.745 o
10 2 2 0.104 0.089 0.030 48.745 o
10 2 3 0.818 0.845 0.030 48.745 o
10 2 4 0.695 0.765 0.030 48.745 o
10 2 5 0.078 0.060 0.020 109.677 o
10 2 6 0.020 0.010 0.278 0.560 o
10 2 7 0.022 0.020 0.278 0.560 o
10 2 8 0.091 0.089 0.010 438.710 o
10 2 9 0.005 -0.020 0.278 0.560 o
10 2 10 0.076 0.040 0.368 0.320 o
10 3 0 0.048 0.070 0.020 109.677 o
10 3 1 0.872 0.865 0.030 48.745 o
10 3 2 0.275 0.318 0.010 438.710 o
10 3 3 0.819 0.845 0.030 48.745 o
10 3 4 0.292 0.308 0.010 438.710 o
10 3 5 0.770 0.775 0.030 48.745 o
10 3 6 0.064 0.109 0.020 109.677 o
10 3 7 1.579 1.541 0.040 27.419 o
10 3 8 0.352 0.288 0.010 438.710 o
10 3 9 0.004 0.050 0.268 0.602 o
10 4 0 4.823 5.060 0.070 8.953 o
10 4 1 0.613 0.606 0.020 109.677 o
10 4 2 0.518 0.497 0.020 109.677 o
10 4 3 0.039 0.030 0.278 0.560 o
10 4 4 0.906 1.004 0.030 48.745 o
10 4 5 0.412 0.398 0.020 109.677 o
10 4 6 0.287 0.308 0.010 438.710 o
10 4 7 0.076 0.080 0.020 109.677 o
10 4 8 0.297 0.258 0.010 438.710 o
10 4 9 0.038 -0.020 0.189 1.215 o
10 5 0 0.065 0.060 0.020 109.677 o
10 5 1 0.319 0.338 0.010 438.710 o
10 5 2 0.085 0.099 0.020 109.677 o
10 5 3 0.499 0.477 0.020 109.677 o
10 5 4 0.403 0.378 0.020 109.677 o
10 5 5 0.373 0.358 0.020 109.677 o
10 5 6 0.098 0.089 0.020 109.677 o
10 5 7 0.770 0.775 0.030 48.745 o
10 5 8 0.278 0.268 0.010 438.710 o
10 5 9 0.011 0.000 0.258 0.649 o
10 6 0 0.605 0.587 0.020 109.677 o
10 6 1 0.700 0.696 0.030 48.745 o
10 6 2 0.047 0.030 0.199 1.097 o
10 6 3 0.865 0.855 0.030 48.745 o
10 6 4 0.231 0.229 0.010 438.710 o
10 6 5 0.015 -0.010 0.288 0.522 o
10 6 6 0.015 0.000 0.288 0.522 o
10 6 7 0.026 0.030 0.199 1.097 o
10 6 8 0.002 0.000 0.268 0.602 o
10 7 0 0.361 0.368 0.020 109.677 o
10 7 1 0.143 0.129 0.020 109.677 o
10 7 2 0.312 0.318 0.010 438.710 o
10 7 3 0.287 0.318 0.010 438.710 o
10 7 4 1.254 1.272 0.040 27.419 o
10 7 5 0.128 0.139 0.010 438.710 o
10 7 6 0.212 0.189 0.010 438.710 o
10 7 7 0.037 0.020 0.199 1.097 o
10 7 8 0.330 0.338 0.010 438.710 o
10 8 0 0.116 0.099 0.020 109.677 o
10 8 1 0.517 0.507 0.020 109.677 o
10 8 2 0.138 0.159 0.010 438.710 o
10 8 3 0.661 0.736 0.030 48.745 o
10 8 4 0.153 0.169 0.010 438.710 o
10 8 5 0.063 0.030 0.199 1.097 o
10 8 6 0.040 0.050 0.189 1.215 o
10 8 7 0.063 0.050 0.010 438.710 o
10 9 0 0.003 0.010 0.199 1.097 o
10 9 1 0.026 0.040 0.278 0.560 o
10 9 2 0.001 0.000 0.278 0.560 o
10 9 3 0.074 0.070 0.020 109.677 o
10 9 4 0.159 0.179 0.010 438.710 o
10 9 5 0.052 0.020 0.278 0.560 o
10 9 6 0.016 0.030 0.189 1.215 o
10 10 0 0.570 0.587 0.040 27.419 o
10 10 1 0.098 0.119 0.020 109.677 o
10 10 2 0.087 0.070 0.398 0.274 o
10 10 3 0.001 -0.020 0.398 0.274 o
10 10 4 0.132 0.129 0.020 109.677 o
10 10 5 0.055 0.060 0.378 0.304 o
11 0 1 0.016 0.000 0.328 0.403 o
11 0 2 0.130 0.080 0.020 109.677 o
11 0 3 0.279 0.328 0.020 109.677 o
11 0 4 1.638 1.541 0.040 27.419 o
11 0 5 0.072 0.020 0.328 0.403 o
11 0 6 0.183 0.139 0.020 109.677 o
11 0 7 0.256 0.268 0.010 438.710 o
11 0 8 0.483 0.497 0.030 48.745 o
11 0 9 0.060 -0.010 0.308 0.457 o
11 1 0 1.194 1.322 0.030 48.745 o
11 1 1 0.899 0.915 0.030 48.745 o
11 1 2 0.016 0.030 0.199 1.097 o
11 1 3 0.962 0.954 0.030 48.745 o
11 1 4 0.363 0.378 0.010 438.710 o
11 1 5 0.006 0.020 0.278 0.560 o
11 1 6 0.007 0.030 0.278 0.560 o
11 1 7 0.012 0.040 0.278 0.560 o
11 1 8 0.014 0.040 0.278 0.560 o
11 1 9 0.025 0.050 0.258 0.649 o
11 2 0 0.098 0.119 0.020 109.677 o
11 2 1 0.258 0.239 0.010 438.710 o
11 2 2 0.069 0.030 0.199 1.097 o
11 2 3 0.489 0.507 0.020 109.677 o
11 2 4 0.463 0.418 0.020 109.677 o
11 2 5 0.348 0.368 0.010 438.710 o
11 2 6 0.095 0.099 0.020 109.677 o
11 2 7 0.711 0.736 0.030 48.745 o
11 2 8 0.298 0.278 0.010 438.710 o
11 2 9 0.014 0.040 0.258 0.649 o
11 3 0 2.816 2.774 0.050 17.548 o
11 3 1 0.398 0.437 0.020 109.677 o
11 3 2 0.250 0.229 0.010 438.710 o
11 3 3 0.076 0.089 0.020 109.677 o
11 3 4 0.521 0.537 0.030 48.745 o
11 3 5 0.189 0.179 0.010 438.710 o
11 3 6 0.139 0.149 0.010 438.710 o
11 3 7 0.033 0.030 0.278 0.560 o
11 3 8 0.158 0.119 0.010 438.710 o
11 4 0 0.006 0.020 0.278 0.560 o
11 4 1 0.259 0.229 0.010 438.710 o
11 4 2 0.048 0.040 0.169 1.518 o
11 4 3 0.315 0.318 0.010 438.710 o
11 4 4 0.250 0.268 0.010 438.710 o
11 4 5 0.283 0.258 0.010 438.710 o
11 4 6 0.038 0.050 0.199 1.097 o
11 4 7 0.599 0.537 0.030 48.745 o
11 4 8 0.182 0.149 0.010 438.710 o
11 5 0 0.640 0.626 0.030 48.745 o
11 5 1 0.471 0.517 0.020 109.677 o
11 5 2 0.049 0.080 0.278 0.560 o
11 5 3 0.501 0.517 0.020 109.677 o
11 5 4 0.204 0.219 0.010 438.710 o
11 5 5 0.012 -0.010 0.288 0.522 o
11 5 6 0.003 0.040 0.278 0.560 o
11 5 7 0.027 0.050 0.268 0.602 o
11 5 8 0.008 -0.020 0.258 0.649 o
11 6 0 0.246 0.249 0.010 438.710 o
11 6 1 0.067 0.089 0.010 438.710 o
11 6 2 0.190 0.209 0.010 438.710 o
11 6 3 0.215 0.239 0.010 438.710 o
11 6 4 0.867 0.875 0.030 48.745 o
11 6 5 0.095 0.099 0.020 109.677 o
11 6 6 0.145 0.159 0.010 438.710 o
11 6 7 0.049 0.040 0.189 1.215 o
11 7 0 0.112 0.119 0.020 109.677 o
11 7 1 0.403 0.408 0.020 109.677 o
11 7 2 0.090 0.089 0.010 438.710 o
11 7 3 0.532 0.517 0.030 48.745 o
11 7 4 0.113 0.129 0.010 438.710 o
11 7 5 0.043 0.080 0.020 109.677 o
11 7 6 0.027 0.060 0.268 0.602 o
11 7 7 0.041 0.060 0.258 0.649 o
11 8 0 0.001 0.000 0.278 0.560 o
11 8 1 0.019 -0.010 0.288 0.522 o
11 8 2 0.002 -0.020 0.288 0.522 o
11 8 3 0.065 0.070 0.020 109.677 o
11 8 4 0.155 0.159 0.010 438.710 o
11 8 5 0.042 0.060 0.189 1.215 o
11 8 6 0.017 0.030 0.258 0.649 o
11 9 0 0.508 0.527 0.020 109.677 o
11 9 1 0.095 0.099 0.010 438.710 o
11 9 2 0.077 0.060 0.020 109.677 o
11 9 3 0.002 -0.020 0.278 0.560 o
11 9 4 0.123 0.129 0.020 109.677 o
11 9 5 0.048 0.050 0.189 1.215 o
11 10 0 0.052 0.050 0.278 0.560 o
11 10 1 0.128 0.109 0.010 438.710 o
11 10 2 0.059 0.060 0.020 109.677 o
11 10 3 0.099 0.080 0.020 109.677 o
12 0 0 0.909 0.994 0.040 27.419 o
12 0 1 0.387 0.368 0.020 109.677 o
12 0 2 0.014 0.000 0.219 0.906 o
12 0 3 0.363 0.338 0.020 109.677 o
12 0 4 0.205 0.199 0.010 438.710 o
12 0 5 0.007 0.010 0.328 0.403 o
12 0 6 0.003 0.040 0.318 0.428 o
12 0 7 0.002 0.030 0.308 0.457 o
12 0 8 0.022 0.050 0.308 0.457 o
12 1 0 0.064 0.050 0.288 0.522 o
12 1 1 0.082 0.080 0.020 109.677 o
12 1 2 0.026 0.050 0.278 0.560 o
12 1 3 0.255 0.278 0.010 438.710 o
12 1 4 0.390 0.368 0.020 109.677 o
12 1 5 0.159 0.159 0.010 438.710 o
12 1 6 0.067 0.010 0.288 0.522 o
12 1 7 0.328 0.358 0.020 109.677 o
12 1 8 0.195 0.189 0.010 438.710 o
12 2 0 1.159 1.163 0.030 48.745 o
12 2 1 0.360 0.358 0.010 438.710 o
12 2 2 0.100 0.119 0.020 109.677 o
12 2 3 0.179 0.169 0.010 438.710 o
12 2 4 0.295 0.288 0.010 438.710 o
12 2 5 0.053 0.010 0.288 0.522 o
12 2 6 0.033 0.000 0.278 0.560 o
12 2 7 0.031 0.050 0.278 0.560 o
12 2 8 0.051 0.060 0.010 438.710 o
12 3 0 0.015 0.030 0.278 0.560 o
12 3 1 0.094 0.089 0.010 438.710 o
12 3 2 0.013 0.030 0.199 1.097 o
12 3 3 0.188 0.179 0.010 438.710 o
12 3 4 0.259 0.268 0.010 438.710 o
12 3 5 0.140 0.139 0.020 109.677 o
12 3 6 0.040 0.070 0.020 109.677 o
12 3 7 0.304 0.288 0.010 438.710 o
12 4 0 0.473 0.467 0.020 109.677 o
12 4 1 0.297 0.288 0.010 438.710 o
12 4 2 0.023 0.010 0.288 0.522 o
12 4 3 0.315 0.318 0.010 438.710 o
12 4 4 0.135 0.139 0.010 438.710 o
12 4 5 0.005 0.000 0.278 0.560 o
12 4 6 0.001 -0.010 0.278 0.560 o
12 4 7 0.012 0.030 0.268 0.602 o
12 5 0 0.146 0.119 0.020 109.677 o
12 5 1 0.019 0.020 0.288 0.522 o
12 5 2 0.090 0.099 0.020 109.677 o
12 5 3 0.148 0.129 0.010 438.710 o
12 5 4 0.497 0.547 0.020 109.677 o
12 5 5 0.069 0.060 0.278 0.560 o
12 5 6 0.084 0.080 0.278 0.560 o
12 5 7 0.061 0.030 0.258 0.649 o
12 6 0 0.136 0.149 0.010 438.710 o
12 6 1 0.269 0.268 0.010 438.710 o
12 6 2 0.055 0.050 0.209 0.995 o
12 6 3 0.327 0.378 0.020 109.677 o
12 6 4 0.089 0.080 0.020 109.677 o
12 6 5 0.023 0.030 0.199 1.097 o
12 6 6 0.010 0.010 0.268 0.602 o
12 7 0 0.001 -0.010 0.278 0.560 o
12 7 1 0.018 0.010 0.199 1.097 o
12 7 2 0.001 0.000 0.278 0.560 o
12 7 3 0.051 0.060 0.010 438.710 o
12 7 4 0.121 0.129 0.010 438.710 o
12 7 5 0.036 0.000 0.189 1.215 o
12 8 0 0.397 0.427 0.020 109.677 o
12 8 1 0.076 0.060 0.020 109.677 o
12 8 2 0.056 0.089 0.020 109.677 o
12 8 3 0.005 0.000 0.268 0.602 o
12 8 4 0.095 0.099 0.020 109.677 o
12 9 0 0.042 0.050 0.278 0.560 o
12 9 1 0.103 0.060 0.020 109.677 o
12 9 2 0.045 0.000 0.278 0.560 o
12 9 3 0.083 0.070 0.020 109.677 o
13 0 1 0.089 0.080 0.020 109.677 o
13 0 2 0.006 0.030 0.209 0.995 o
13 0 3 0.116 0.119 0.020 109.677 o
13 0 4 0.128 0.109 0.010 438.710 o
13 0 5 0.106 0.089 0.020 109.677 o
13 0 6 0.013 0.000 0.318 0.428 o
13 0 7 0.230 0.199 0.010 438.710 o
13 1 0 0.648 0.666 0.030 48.745 o
13 1 1 0.155 0.149 0.010 438.710 o
13 1 2 0.037 0.000 0.288 0.522 o
13 1 3 0.096 0.099 0.010 438.710 o
13 1 4 0.129 0.129 0.010 438.710 o
13 1 5 0.019 0.010 0.199 1.097 o
13 1 6 0.018 0.010 0.189 1.215 o
13 1 7 0.005 0.030 0.258 0.649 o
13 2 0 0.010 0.010 0.278 0.560 o
13 2 1 0.036 0.020 0.278 0.560 o
13 2 2 0.006 0.000 0.278 0.560 o
13 2 3 0.100 0.089 0.020 109.677 o
13 2 4 0.189 0.159 0.010 438.710 o
13 2 5 0.069 0.020 0.288 0.522 o
13 2 6 0.026 0.050 0.268 0.602 o
13 3 0 0.256 0.239 0.010 438.710 o
13 3 1 0.184 0.189 0.010 438.710 o
13 3 2 0.003 0.000 0.288 0.522 o
13 3 3 0.219 0.219 0.010 438.710 o
13 3 4 0.073 0.050 0.288 0.522 o
13 3 5 0.001 0.010 0.278 0.560 o
13 3 6 0.000 0.010 0.268 0.602 o
13 4 0 0.044 0.020 0.199 1.097 o
13 4 1 0.004 0.030 0.278 0.560 o
13 4 2 0.041 0.040 0.278 0.560 o
13 4 3 0.066 0.070 0.020 109.677 o
13 4 4 0.300 0.298 0.010 438.710 o
13 4 5 0.030 -0.030 0.318 0.428 o
13 4 6 0.040 0.050 0.189 1.215 o
13 5 0 0.120 0.129 0.010 438.710 o
13 5 1 0.157 0.169 0.010 438.710 o
13 5 2 0.024 -0.010 0.278 0.560 o
13 5 3 0.192 0.179 0.010 438.710 o
13 5 4 0.055 0.000 0.278 0.560 o
13 5 5 0.009 0.040 0.258 0.649 o
13 6 0 0.002 0.010 0.278 0.560 o
13 6 1 0.015 0.010 0.278 0.560 o
13 6 2 0.000 0.000 0.278 0.560 o
13 6 3 0.037 0.060 0.268 0.602 o
13 6 4 0.083 0.080 0.020 109.677 o
13 6 5 0.029 -0.010 0.268 0.602 o
13 7 0 0.281 0.258 0.010 438.710 o
13 7 1 0.048 0.050 0.020 109.677 o
13 7 2 0.033 0.020 0.159 1.714 o
13 7 3 0.006 0.000 0.189 1.215 o
13 7 4 0.060 0.040 0.268 0.602 o
13 8 0 0.024 0.010 0.268 0.602 o
13 8 1 0.070 0.060 0.020 109.677 o
13 8 2 0.027 0.050 0.258 0.649 o
14 0 0 0.354 0.328 0.020 109.677 o
14 0 1 0.062 0.010 0.328 0.403 o
14 0 2 0.020 0.010 0.209 0.995 o
14 0 3 0.038 -0.010 0.328 0.403 o
14 0 4 0.060 0.080 0.020 109.677 o
14 0 5 0.010 0.000 0.308 0.457 o
14 1 0 0.000 0.010 0.278 0.560 o
14 1 1 0.032 0.030 0.278 0.560 o
14 1 2 0.000 -0.050 0.288 0.522 o
14 1 3 0.049 0.020 0.278 0.560 o
14 1 4 0.077 0.060 0.278 0.560 o
14 1 5 0.045 0.020 0.268 0.602 o
14 2 0 0.175 0.169 0.010 438.710 o
14 2 1 0.090 0.099 0.020 109.677 o
14 2 2 0.004 -0.010 0.278 0.560 o
14 2 3 0.099 0.089 0.020 109.677 o
14 2 4 0.043 0.040 0.268 0.602 o
14 2 5 0.000 -0.020 0.268 0.602 o
14 3 0 0.010 0.010 0.278 0.560 o
14 3 1 0.001 0.000 0.278 0.560 o
14 3 2 0.016 0.020 0.278 0.560 o
14 3 3 0.031 0.040 0.278 0.560 o
14 3 4 0.155 0.109 0.020 109.677 o
14 3 5 0.016 -0.020 0.258 0.649 o
14 4 0 0.081 0.070 0.010 438.710 o
14 4 1 0.085 0.070 0.020 109.677 o
14 4 2 0.006 -0.010 0.278 0.560 o
14 4 3 0.111 0.109 0.020 109.677 o
14 4 4 0.029 -0.010 0.189 1.215 o
14 5 0 0.000 -0.030 0.278 0.560 o
14 5 1 0.009 -0.020 0.199 1.097 o
14 5 2 0.001 0.000 0.268 0.602 o
14 5 3 0.023 0.040 0.268 0.602 o
14 6 0 0.168 0.169 0.010 438.710 o
14 6 1 0.030 -0.010 0.189 1.215 o
14 6 2 0.017 0.000 0.268 0.602 o
15 0 1 0.013 -0.010 0.318 0.428 o
15 0 2 0.000 -0.040 0.318 0.428 o
15 0 3 0.021 0.040 0.298 0.487 o
15 1 0 0.108 0.080 0.278 0.560 o
15 1 1 0.039 0.030 0.189 1.215 o
15 1 2 0.004 0.030 0.258 0.649 o
15 1 3 0.038 0.030 0.189 1.215 o
15 2 0 0.005 0.020 0.268 0.602 o
15 2 1 0.003 0.000 0.268 0.602 o
15 2 2 0.004 -0.010 0.268 0.602 o
15 3 0 0.059 0.060 0.268 0.602 o
15 3 1 0.041 -0.020 0.268 0.602 o
15 3 2 0.002 0.010 0.258 0.649 o
15 4 0 0.000 0.010 0.189 1.215 o
;
_olex2_submission_special_instructions 'No special instructions were received'
loop_
_space_group_symop_id
_space_group_symop_operation_xyz
1 x,y,z
2 y,-x,-z
3 -y,x,-z
4 x+1/2,-y+1/2,-z
5 -x+1/2,y+1/2,-z
6 -x,-y,z
7 -y+1/2,-x+1/2,z
8 y+1/2,x+1/2,z
loop_
_atom_site_label
_atom_site_type_symbol
_atom_site_fract_x
_atom_site_fract_y
_atom_site_fract_z
_atom_site_U_iso_or_equiv
_atom_site_adp_type
_atom_site_occupancy
_atom_site_site_symmetry_order
_atom_site_refinement_flags_posn
_atom_site_refinement_flags_adp
_atom_site_refinement_flags_occupancy
O O 0.0 0.5 0.59628(4) 0.01515(3) Uani 1.000000 4 S T P
N N 0.14487(3) 0.64487(3) 0.17856(4) 0.02239(4) Uani 1.000000 2 S T P
H1 H 0.2545(5) 0.7545(5) 0.2908(6) 0.0457(15) Uani 1.000000 2 S T P
H2 H 0.1429(5) 0.6429(5) -0.0330(9) 0.0422(11) Uani 1.000000 2 S T P
C C 0.0 0.5 0.32820(5) 0.01199(3) Uani 1.000000 4 S T P
loop_
_atom_site_aniso_label
_atom_site_aniso_U_11
_atom_site_aniso_U_22
_atom_site_aniso_U_33
_atom_site_aniso_U_12
_atom_site_aniso_U_13
_atom_site_aniso_U_23
O 0.01948(5) 0.01948(5) 0.00651(4) 0.00164(8) -0.000000 0.000000
N 0.02884(6) 0.02884(6) 0.00948(5) -0.01497(9) 0.00012(4) 0.00012(4)
H1 0.061(2) 0.061(2) 0.015(2) -0.038(3) 0.0012(15) 0.0012(15)
H2 0.0448(16) 0.0448(16) 0.037(2) -0.017(3) 0.0032(16) 0.0032(16)
C 0.01467(5) 0.01467(5) 0.00664(5) 0.00004(8) -0.000000 0.000000
loop_
_atom_type_symbol
_atom_type_scat_dispersion_real
_atom_type_scat_dispersion_imag
_atom_type_scat_source
_atom_type_scat_dispersion_source
C 0.00200 0.00100 'NoSpherA2: Chem.Sci. 2021, DOI:10.1039/D0SC05526C' custom
H 0.00000 0.00000 'NoSpherA2: Chem.Sci. 2021, DOI:10.1039/D0SC05526C' custom
N 0.00400 0.00200 'NoSpherA2: Chem.Sci. 2021, DOI:10.1039/D0SC05526C' custom
O 0.00700 0.00400 'NoSpherA2: Chem.Sci. 2021, DOI:10.1039/D0SC05526C' custom
loop_
_diffrn_refln_index_h
_diffrn_refln_index_k
_diffrn_refln_index_l
_diffrn_refln_intensity_net
_diffrn_refln_intensity_u
0 0 1 13.43 0.05
0 0 2 134.84 0.83
0 0 3 13.63 0.08
0 0 4 29.83 0.18
0 0 5 49.07 0.36
0 0 6 15.8 0.19
0 0 7 0.27 0.03
0 0 8 14.75 0.25
0 0 9 3.66 0.1
0 0 10 2.9 0.09
0 0 11 0.07 0.26
0 0 12 3.81 0.11
0 0 13 0.18 0.02
1 0 1 149.93 0.18
1 0 2 153.21 0.27
1 0 3 87.74 0.19
1 0 4 2.22 0.03
1 0 5 19.08 0.1
1 0 6 0.53 0.03
1 0 7 43.28 0.34
1 0 8 6.15 0.07
1 0 9 -0.01 0.32
1 0 10 0.19 0.01
1 0 11 1.43 0.04
1 0 12 1.26 0.04
1 0 13 0 0.31
1 1 0 1008.37 1.92
1 1 1 283.48 0.51
1 1 2 52.93 0.12
1 1 3 11.61 0.06
1 1 4 43.49 0.18
1 1 5 17.01 0.11
1 1 6 2.97 0.03
1 1 7 5.7 0.08
1 1 8 4.5 0.07
1 1 9 1.31 0.05
1 1 10 3.26 0.07
1 1 11 1.65 0.05
1 1 12 2.47 0.06
1 1 13 0.23 0.02
2 0 0 155.94 0.3
2 0 1 197.72 0.26
2 0 2 8.3 0.03
2 0 3 49.67 0.13
2 0 4 20.15 0.09
2 0 5 0.56 0.03
2 0 6 1.47 0.02
2 0 7 0.27 0.01
2 0 8 0.05 0.2
2 0 9 0.36 0.02
2 0 10 1.08 0.04
2 0 11 4.34 0.07
2 0 12 1.07 0.04
2 0 13 -0.03 0.3
2 1 0 226.92 0.28
2 1 1 49.58 0.08
2 1 2 30.24 0.07
2 1 3 68.66 0.16
2 1 4 45.35 0.14
2 1 5 13.59 0.07
2 1 6 13.93 0.09
2 1 7 10.8 0.09
2 1 8 14.94 0.13
2 1 9 3.31 0.05
2 1 10 1.2 0.03
2 1 11 1.91 0.04
2 1 12 0.42 0.02
2 1 13 0.21 0.01
2 2 0 227.4 0.42
2 2 1 199.86 0.39
2 2 2 54.79 0.16
2 2 3 27.54 0.12
2 2 4 43.47 0.21
2 2 5 9.79 0.08
2 2 6 2.76 0.05
2 2 7 10.1 0.12
2 2 8 1.85 0.05
2 2 9 1.67 0.05
2 2 10 3.67 0.07
2 2 11 2.78 0.06
2 2 12 1.75 0.05
3 0 1 93.42 0.17
3 0 2 17.83 0.06
3 0 3 11.62 0.05
3 0 4 104.96 0.38
3 0 5 0.37 0.02
3 0 6 10.89 0.09
3 0 7 0.5 0.02
3 0 8 15.59 0.16
3 0 9 4.27 0.06
3 0 10 4.84 0.07
3 0 11 0.41 0.02
3 0 12 0.04 0.17
3 1 0 29.12 0.07
3 1 1 142.36 0.23
3 1 2 14.88 0.05
3 1 3 66.21 0.18
3 1 4 14.52 0.07
3 1 5 1.67 0.03
3 1 6 5.24 0.05
3 1 7 1.54 0.03
3 1 8 0.47 0.02
3 1 9 1.49 0.03
3 1 10 1.08 0.03
3 1 11 5.42 0.07
3 1 12 0.59 0.03
3 2 0 17.41 0.05
3 2 1 5.13 0.03
3 2 2 11.01 0.04
3 2 3 25.65 0.09
3 2 4 13.67 0.07
3 2 5 7.64 0.05
3 2 6 3.05 0.04
3 2 7 16.15 0.13
3 2 8 7.06 0.07
3 2 9 0.68 0.03
3 2 10 0.12 0.02
3 2 11 0.95 0.03
3 2 12 0.41 0.02
3 3 0 219.52 0.62
3 3 1 8.13 0.05
3 3 2 7.96 0.06
3 3 3 0.51 0.03
3 3 4 15.79 0.12
3 3 5 13.38 0.09
3 3 6 5.59 0.07
3 3 7 0.15 0.02
3 3 8 5.63 0.09
3 3 9 0.99 0.05
3 3 10 1.5 0.05
3 3 11 0.31 0.02
3 3 12 1.98 0.05
4 0 0 5.51 0.06
4 0 1 97.62 0.24
4 0 2 7.68 0.04
4 0 3 71.92 0.25
4 0 4 5.92 0.05
4 0 5 2.61 0.04
4 0 6 7.8 0.07
4 0 7 0.16 0.01
4 0 8 1.12 0.04
4 0 9 2.14 0.05
4 0 10 0.42 0.02
4 0 11 6.01 0.09
4 0 12 0.23 0.01
4 1 0 7.14 0.04
4 1 1 11.66 0.04
4 1 2 2.75 0.03
4 1 3 13.13 0.06
4 1 4 43.02 0.18
4 1 5 1.52 0.03
4 1 6 5.75 0.05
4 1 7 3.4 0.04
4 1 8 10.12 0.1
4 1 9 1.87 0.04
4 1 10 1.81 0.04
4 1 11 0.57 0.02
4 1 12 0.03 0.28
4 2 0 93.4 0.22
4 2 1 25.72 0.08
4 2 2 5.44 0.03
4 2 3 4.23 0.03
4 2 4 16.61 0.09
4 2 5 5.31 0.03
4 2 6 1.13 0.03
4 2 7 1.7 0.03
4 2 8 1.86 0.04
4 2 9 0.39 0.02
4 2 10 1.43 0.04
4 2 11 1.2 0.03
4 2 12 1.23 0.03
4 3 0 3.26 0.03
4 3 1 20.6 0.08
4 3 2 18.74 0.08
4 3 3 16.82 0.08
4 3 4 0.31 0.02
4 3 5 13.27 0.09
4 3 6 1.15 0.03
4 3 7 24.11 0.2
4 3 8 3.04 0.04
4 3 9 0.21 0.01
4 3 10 0.25 0.01
4 3 11 1.05 0.03
4 3 12 0.74 0.03
4 4 0 83.03 0.39
4 4 1 4.76 0.05
4 4 2 4.01 0.05
4 4 3 0.16 0.01
4 4 4 8.7 0.06
4 4 5 5.58 0.07
4 4 6 2.58 0.05
4 4 7 0.12 0.02
4 4 8 2.98 0.06
4 4 9 0.45 0.02
4 4 10 0.74 0.05
4 4 11 0.35 0.02
4 4 12 1.18 0.05
5 0 1 0.1 0.01
5 0 2 0.09 0.02
5 0 3 8.53 0.06
5 0 4 17.98 0.11
5 0 5 1.89 0.04
5 0 6 1.99 0.04
5 0 7 6.36 0.08
5 0 8 5.97 0.08
5 0 9 0.55 0.03
5 0 10 0.53 0.03
5 0 11 0.45 0.02
5 0 12 0.09 0.02
5 1 0 42.29 0.15
5 1 1 30.35 0.1
5 1 2 8.27 0.05
5 1 3 10.23 0.06
5 1 4 15.48 0.09
5 1 5 3.4 0.04
5 1 6 0.77 0.03
5 1 7 3.04 0.04
5 1 8 0.84 0.03
5 1 9 0.59 0.02
5 1 10 1.57 0.04
5 1 11 1.77 0.04
5 1 12 0.82 0.03
5 2 0 21.44 0.08
5 2 1 7.21 0.04
5 2 2 7.42 0.04
5 2 3 21.37 0.1
5 2 4 7.59 0.06
5 2 5 9.18 0.07
5 2 6 6.19 0.06
5 2 7 10.25 0.1
5 2 8 6.63 0.07
5 2 9 1.36 0.03
5 2 10 0.12 0.01
5 2 11 1.26 0.03
5 2 12 0.41 0.01
5 3 0 43.2 0.16
5 3 1 11.86 0.06
5 3 2 2.26 0.03
5 3 3 3.38 0.03
5 3 4 8.52 0.06
5 3 5 2.42 0.03
5 3 6 0.57 0.02
5 3 7 0.81 0.03
5 3 8 1.07 0.03
5 3 9 0.18 0.01
5 3 10 0.86 0.03
5 3 11 0.82 0.03
5 3 12 0.71 0.03
5 4 0 2.89 0.03
5 4 1 0.48 0.02
5 4 2 0.69 0.03
5 4 3 5.74 0.03
5 4 4 8.46 0.07
5 4 5 2.6 0.04
5 4 6 1.59 0.03
5 4 7 5.1 0.06
5 4 8 3.62 0.05
5 4 9 0.46 0.02
5 4 10 0.25 0.01
5 4 11 0.48 0.02
5 4 12 0.11 0.01
5 5 0 6.77 0.07
5 5 1 15.65 0.14
5 5 2 5.01 0.04
5 5 3 10.28 0.11
5 5 4 6.97 0.09
5 5 5 1.67 0.05
5 5 6 0.82 0.04
5 5 7 2.44 0.06
5 5 8 0.25 0.02
5 5 9 0.51 0.03
5 5 10 0.82 0.05
5 5 11 1.41 0.05
6 0 0 61.56 0.41
6 0 1 4.47 0.04
6 0 2 2.56 0.03
6 0 3 0.23 0.01
6 0 4 7.77 0.07
6 0 5 4.39 0.05
6 0 6 1.96 0.04
6 0 7 0.03 0.33
6 0 8 2.36 0.05
6 0 9 0.27 0.01
6 0 10 0.74 0.04
6 0 11 0.44 0.02
6 0 12 1.02 0.03
6 1 0 5.33 0.04
6 1 1 5.69 0.04
6 1 2 4.7 0.04
6 1 3 10.53 0.07
6 1 4 2.92 0.04
6 1 5 6.46 0.06
6 1 6 1.92 0.03
6 1 7 10.92 0.11
6 1 8 3.31 0.05
6 1 9 0.38 0.02
6 1 10 -0.01 0.28
6 1 11 0.73 0.03
6 1 12 0.32 0.01
6 2 0 23.48 0.11
6 2 1 13.77 0.08
6 2 2 2.85 0.03
6 2 3 6.21 0.04
6 2 4 7.58 0.06
6 2 5 1.55 0.03
6 2 6 0.31 0.01
6 2 7 1.3 0.03
6 2 8 0.61 0.02
6 2 9 0.25 0.01
6 2 10 0.84 0.03
6 2 11 1.18 0.03
6 2 12 0.55 0.03
6 3 0 0.04 0.23
6 3 1 0.89 0.03
6 3 2 0.92 0.03
6 3 3 2.88 0.04
6 3 4 15.21 0.11
6 3 5 0.33 0.01
6 3 6 1.76 0.04
6 3 7 1.79 0.03
6 3 8 4.34 0.06
6 3 9 0.6 0.02
6 3 10 0.78 0.03
6 3 11 0.23 0.01
6 4 0 2.47 0.03
6 4 1 13.49 0.06
6 4 2 2.63 0.03
6 4 3 14.8 0.1
6 4 4 3.45 0.04
6 4 5 0.87 0.03
6 4 6 1.31 0.03
6 4 7 0.92 0.03
6 4 8 0.16 0.01
6 4 9 0.63 0.03
6 4 10 0.4 0.02
6 4 11 1.72 0.04
6 5 0 4.17 0.04
6 5 1 0.86 0.03
6 5 2 1.57 0.03
6 5 3 4.04 0.05
6 5 4 9.33 0.08
6 5 5 1.54 0.03
6 5 6 2.1 0.04
6 5 7 1.28 0.03
6 5 8 3.14 0.05
6 5 9 0.76 0.03
6 5 10 0.49 0.02
6 5 11 0.28 0.01
6 6 0 8.51 0.1
6 6 1 2.73 0.05
6 6 2 0.43 0.03
6 6 3 1.77 0.05
6 6 4 1.94 0.05
6 6 5 0.29 0.02
6 6 6 0.04 0.23
6 6 7 0.16 0.02
6 6 8 0.23 0.02
6 6 9 0.05 0.39
6 6 10 0.2 0.02
6 6 11 0.37 0.03
7 0 1 8.53 0.07
7 0 2 5.14 0.04
7 0 3 5.27 0.05
7 0 4 0.18 0.01
7 0 5 6.29 0.07
7 0 6 0.05 0.31
7 0 7 11.98 0.14
7 0 8 1.24 0.04
7 0 9 0.05 0.32
7 0 10 0.09 0.02
7 0 11 0.48 0.03
7 1 0 31.5 0.18
7 1 1 3.19 0.04
7 1 2 1.45 0.02
7 1 3 0.61 0.02
7 1 4 4.61 0.05
7 1 5 2.06 0.03
7 1 6 1.02 0.03
7 1 7 0.08 0.02
7 1 8 1.24 0.03
7 1 9 0.1 0.01
7 1 10 0.41 0.02
7 1 11 0.36 0.01
7 2 0 0.28 0.01
7 2 1 0.01 0.17
7 2 2 0.17 0.01
7 2 3 2.72 0.04
7 2 4 8.34 0.07
7 2 5 0.87 0.03
7 2 6 0.95 0.03
7 2 7 2.6 0.04
7 2 8 2.94 0.05
7 2 9 0.28 0.01
7 2 10 0.39 0.01
7 2 11 0.22 0.01
7 3 0 1.38 0.03
7 3 1 10.72 0.08
7 3 2 1.45 0.03
7 3 3 14.03 0.11
7 3 4 1.84 0.03
7 3 5 0.65 0.03
7 3 6 1.36 0.03
7 3 7 0.32 0.01
7 3 8 0.18 0.01
7 3 9 0.58 0.03
7 3 10 0.27 0.01
7 3 11 1.63 0.03
7 4 0 1 0.03
7 4 1 1.35 0.03
7 4 2 1.82 0.03
7 4 3 1.7 0.03
7 4 4 11.59 0.1
7 4 5 0.34 0.01
7 4 6 1.47 0.03
7 4 7 0.45 0.02
7 4 8 3.05 0.05
7 4 9 0.55 0.03
7 4 10 0.78 0.03
7 4 11 0.14 0.01
7 5 0 5.83 0.06
7 5 1 3.18 0.04
7 5 2 0.1 0.03
7 5 3 2.86 0.04
7 5 4 1.43 0.03
7 5 5 0.08 0.02
7 5 6 0.01 0.2
7 5 7 0.01 0.29
7 5 8 0.09 0.02
7 5 9 0.04 0.28
7 5 10 0.16 0.01
7 5 11 0.48 0.02
7 6 0 0.52 0.02
7 6 1 2.21 0.04
7 6 2 1.1 0.03
7 6 3 2.15 0.04
7 6 4 0.36 0.01
7 6 5 1.87 0.04
7 6 6 0.32 0.01
7 6 7 3.56 0.05
7 6 8 0.71 0.03
7 6 9 -0.01 0.29
7 6 10 -0.03 0.27
7 7 1 1.29 0.05
7 7 2 1.39 0.05
7 7 3 0 0.39
7 7 4 1.93 0.06
7 7 5 1.11 0.05
7 7 6 0.88 0.05
7 7 7 0.29 0.02
7 7 8 0.7 0.04
7 7 9 0.17 0.02
7 7 10 0.21 0.02
8 0 0 17.21 0.14
8 0 1 2.28 0.04
8 0 2 0.82 0.03
8 0 3 0.8 0.03
8 0 4 2.74 0.05
8 0 5 0.9 0.03
8 0 6 0.51 0.02
8 0 7 0.06 0.33
8 0 8 0.66 0.03
8 0 9 0.01 0.33
8 0 10 0.25 0.01
8 0 11 0.29 0.01
8 1 0 1.5 0.03
8 1 1 0.97 0.03
8 1 2 0.62 0.02
8 1 3 3.18 0.04
8 1 4 2.92 0.04
8 1 5 1.98 0.04
8 1 6 0.78 0.03
8 1 7 3.53 0.05
8 1 8 1.66 0.04
8 1 9 0.22 0.01
8 1 10 0.02 0.28
8 1 11 0.28 0.01
8 2 0 4.68 0.05
8 2 1 6.56 0.06
8 2 2 1.56 0.03
8 2 3 5.14 0.05
8 2 4 3.07 0.04
8 2 5 0.56 0.02
8 2 6 0.26 0.01
8 2 7 0.83 0.03
8 2 8 0.12 0.01
8 2 9 0.19 0.01
8 2 10 0.39 0.02
8 2 11 0.79 0.03
8 3 0 1.13 0.03
8 3 1 0.39 0.01
8 3 2 0.87 0.03
8 3 3 1.84 0.03
8 3 4 7.04 0.07
8 3 5 0.52 0.02
8 3 6 1.1 0.03
8 3 7 0.81 0.03
8 3 8 2.09 0.04
8 3 9 0.37 0.02
8 3 10 0.4 0.02
8 3 11 0.14 0.01
8 4 0 4.16 0.05
8 4 1 2.93 0.04
8 4 2 0.03 0.26
8 4 3 2.95 0.04
8 4 4 1.13 0.03
8 4 5 0.02 0.28
8 4 6 0.09 0.03
8 4 7 0.03 0.16
8 4 8 0.05 0.02
8 4 9 0.05 0.2
8 4 10 0.17 0.01
8 5 0 0.99 0.03
8 5 1 1.35 0.03
8 5 2 0.72 0.03
8 5 3 2.21 0.04
8 5 4 0.79 0.03
8 5 5 1.34 0.03
8 5 6 0.6 0.03
8 5 7 2.36 0.04
8 5 8 0.88 0.03
8 5 9 0.09 0.02
8 5 10 0.02 0.26
8 6 0 8.42 0.09
8 6 1 1.5 0.04
8 6 2 1.2 0.03
8 6 3 0.02 0.28
8 6 4 1.98 0.04
8 6 5 1.02 0.03
8 6 6 0.59 0.03
8 6 7 0.31 0.02
8 6 8 0.56 0.02
8 6 9 0.13 0.01
8 6 10 0.24 0.02
8 7 0 0.14 0.02
8 7 1 0.56 0.03
8 7 2 0.22 0.01
8 7 3 0.78 0.03
8 7 4 0.35 0.02
8 7 5 0.65 0.03
8 7 6 0.15 0.02
8 7 7 1.26 0.04
8 7 8 0.36 0.01
8 7 9 0 0.27
8 8 0 0.89 0.05
8 8 1 0.87 0.04
8 8 2 0.16 0.02
8 8 3 0.96 0.05
8 8 4 0.35 0.02
8 8 5 0.01 0.41
8 8 6 0 0.41
8 8 7 0.03 0.41
8 8 8 0.01 0.39
9 0 1 -0.02 0.3
9 0 2 0.09 0.02
9 0 3 1.02 0.04
9 0 4 3.88 0.06
9 0 5 0.35 0.02
9 0 6 0.45 0.02
9 0 7 1.15 0.04
9 0 8 1.34 0.04
9 0 9 0.12 0.02
9 0 10 0.19 0.01
9 1 0 3.6 0.04
9 1 1 3.63 0.04
9 1 2 0.64 0.02
9 1 3 3.13 0.04
9 1 4 1.67 0.04
9 1 5 0.26 0.01
9 1 6 0.05 0.2
9 1 7 0.32 0.01
9 1 8 0.03 0.29
9 1 9 0.07 0.01
9 1 10 0.2 0.01
9 2 0 1.4 0.03
9 2 1 0.23 0.01
9 2 2 0.41 0.01
9 2 3 1.91 0.04
9 2 4 3.13 0.04
9 2 5 0.79 0.03
9 2 6 0.83 0.03
9 2 7 1.19 0.03
9 2 8 1.25 0.04
9 2 9 0.22 0.01
9 2 10 0.11 0.01
9 3 0 5.27 0.06
9 3 1 1.63 0.03
9 3 2 0.19 0.01
9 3 3 1.14 0.03
9 3 4 1.06 0.03
9 3 5 0.12 0.01
9 3 6 0.04 0.2
9 3 7 0.03 0.2
9 3 8 0.13 0.01
9 3 9 0.02 0.28
9 3 10 0.09 0.02
9 4 0 0.42 0.02
9 4 1 1.07 0.03
9 4 2 0.48 0.02
9 4 3 1.4 0.03
9 4 4 0.54 0.02
9 4 5 1.04 0.03
9 4 6 0.29 0.01
9 4 7 2.04 0.04
9 4 8 0.62 0.03
9 4 9 0.05 0.28
9 4 10 -0.03 0.27
9 5 0 6.29 0.07
9 5 1 1.36 0.03
9 5 2 0.98 0.03
9 5 3 0.06 0.02
9 5 4 1.6 0.04
9 5 5 0.65 0.03
9 5 6 0.38 0.01
9 5 7 0.28 0.01
9 5 8 0.38 0.02
9 5 9 0.05 0.2
9 6 0 0.18 0.01
9 6 1 0.42 0.02
9 6 2 0.15 0.01
9 6 3 0.77 0.03
9 6 4 0.5 0.02
9 6 5 0.45 0.02
9 6 6 0.16 0.01
9 6 7 0.94 0.03
9 6 8 0.4 0.01
9 6 9 0.03 0.27
9 7 0 0.81 0.03
9 7 1 0.9 0.03
9 7 2 0.05 0.2
9 7 3 0.99 0.03
9 7 4 0.3 0.01
9 7 5 -0.04 0.29
9 7 6 0.04 0.28
9 7 7 0.03 0.28
9 7 8 0.01 0.27
9 8 0 0.58 0.02
9 8 1 0.17 0.01
9 8 2 0.4 0.02
9 8 3 0.38 0.02
9 8 4 1.42 0.04
9 8 5 0.2 0.01
9 8 6 0.29 0.01
9 8 7 0.03 0.2
9 8 8 0.37 0.02
9 9 0 0.11 0.02
9 9 1 0.66 0.04
9 9 2 0.16 0.02
9 9 3 0.79 0.04
9 9 4 0.22 0.02
9 9 5 0.06 0.4
9 9 6 0.06 0.22
9 9 7 0.07 0.38
10 0 0 0.93 0.04
10 0 1 2.26 0.04
10 0 2 0.05 0.32
10 0 3 3.13 0.05
10 0 4 0.47 0.02
10 0 5 0.07 0.33
10 0 6 0.19 0.01
10 0 7 0 0.33
10 0 8 0.04 0.32
10 0 9 0.1 0.02
10 0 10 0.09 0.51
10 1 0 0.1 0.01
10 1 1 0.02 0.27
10 1 2 0.2 0.01
10 1 3 0.61 0.02
10 1 4 2.71 0.04
10 1 5 0.13 0.01
10 1 6 0.33 0.01
10 1 7 0.5 0.02
10 1 8 0.89 0.03
10 1 9 0.07 0.02
10 1 10 0.18 0.02
10 2 0 3.37 0.05
10 2 1 1.07 0.03
10 2 2 0.09 0.03
10 2 3 0.85 0.03
10 2 4 0.77 0.03
10 2 5 0.06 0.02
10 2 6 0.01 0.28
10 2 7 0.02 0.28
10 2 8 0.09 0.01
10 2 9 -0.02 0.28
10 2 10 0.04 0.37
10 3 0 0.07 0.02
10 3 1 0.87 0.03
10 3 2 0.32 0.01
10 3 3 0.85 0.03
10 3 4 0.31 0.01
10 3 5 0.78 0.03
10 3 6 0.11 0.02
10 3 7 1.55 0.04
10 3 8 0.29 0.01
10 3 9 0.05 0.27
10 4 0 5.09 0.07
10 4 1 0.61 0.02
10 4 2 0.5 0.02
10 4 3 0.03 0.28
10 4 4 1.01 0.03
10 4 5 0.4 0.02
10 4 6 0.31 0.01
10 4 7 0.08 0.02
10 4 8 0.26 0.01
10 4 9 -0.02 0.19
10 5 0 0.06 0.02
10 5 1 0.34 0.01
10 5 2 0.1 0.02
10 5 3 0.48 0.02
10 5 4 0.38 0.02
10 5 5 0.36 0.02
10 5 6 0.09 0.02
10 5 7 0.78 0.03
10 5 8 0.27 0.01
10 5 9 0 0.26
10 6 0 0.59 0.02
10 6 1 0.7 0.03
10 6 2 0.03 0.2
10 6 3 0.86 0.03
10 6 4 0.23 0.01
10 6 5 -0.01 0.29
10 6 6 0 0.29
10 6 7 0.03 0.2
10 6 8 0 0.27
10 7 0 0.37 0.02
10 7 1 0.13 0.02
10 7 2 0.32 0.01
10 7 3 0.32 0.01
10 7 4 1.28 0.04
10 7 5 0.14 0.01
10 7 6 0.19 0.01
10 7 7 0.02 0.2
10 7 8 0.34 0.01
10 8 0 0.1 0.02
10 8 1 0.51 0.02
10 8 2 0.16 0.01
10 8 3 0.74 0.03
10 8 4 0.17 0.01
10 8 5 0.03 0.2
10 8 6 0.05 0.19
10 8 7 0.05 0.01
10 9 0 0.01 0.2
10 9 1 0.04 0.28
10 9 2 0 0.28
10 9 3 0.07 0.02
10 9 4 0.18 0.01
10 9 5 0.02 0.28
10 9 6 0.03 0.19
10 10 0 0.59 0.04
10 10 1 0.12 0.02
10 10 2 0.07 0.4
10 10 3 -0.02 0.4
10 10 4 0.13 0.02
10 10 5 0.06 0.38
11 0 1 0 0.33
11 0 2 0.08 0.02
11 0 3 0.33 0.02
11 0 4 1.55 0.04
11 0 5 0.02 0.33
11 0 6 0.14 0.02
11 0 7 0.27 0.01
11 0 8 0.5 0.03
11 0 9 -0.01 0.31
11 1 0 1.33 0.03
11 1 1 0.92 0.03
11 1 2 0.03 0.2
11 1 3 0.96 0.03
11 1 4 0.38 0.01
11 1 5 0.02 0.28
11 1 6 0.03 0.28
11 1 7 0.04 0.28
11 1 8 0.04 0.28
11 1 9 0.05 0.26
11 2 0 0.12 0.02
11 2 1 0.24 0.01
11 2 2 0.03 0.2
11 2 3 0.51 0.02
11 2 4 0.42 0.02
11 2 5 0.37 0.01
11 2 6 0.1 0.02
11 2 7 0.74 0.03
11 2 8 0.28 0.01
11 2 9 0.04 0.26
11 3 0 2.79 0.05
11 3 1 0.44 0.02
11 3 2 0.23 0.01
11 3 3 0.09 0.02
11 3 4 0.54 0.03
11 3 5 0.18 0.01
11 3 6 0.15 0.01
11 3 7 0.03 0.28
11 3 8 0.12 0.01
11 4 0 0.02 0.28
11 4 1 0.23 0.01
11 4 2 0.04 0.17
11 4 3 0.32 0.01
11 4 4 0.27 0.01
11 4 5 0.26 0.01
11 4 6 0.05 0.2
11 4 7 0.54 0.03
11 4 8 0.15 0.01
11 5 0 0.63 0.03
11 5 1 0.52 0.02
11 5 2 0.08 0.28
11 5 3 0.52 0.02
11 5 4 0.22 0.01
11 5 5 -0.01 0.29
11 5 6 0.04 0.28
11 5 7 0.05 0.27
11 5 8 -0.02 0.26
11 6 0 0.25 0.01
11 6 1 0.09 0.01
11 6 2 0.21 0.01
11 6 3 0.24 0.01
11 6 4 0.88 0.03
11 6 5 0.1 0.02
11 6 6 0.16 0.01
11 6 7 0.04 0.19
11 7 0 0.12 0.02
11 7 1 0.41 0.02
11 7 2 0.09 0.01
11 7 3 0.52 0.03
11 7 4 0.13 0.01
11 7 5 0.08 0.02
11 7 6 0.06 0.27
11 7 7 0.06 0.26
11 8 0 0 0.28
11 8 1 -0.01 0.29
11 8 2 -0.02 0.29
11 8 3 0.07 0.02
11 8 4 0.16 0.01
11 8 5 0.06 0.19
11 8 6 0.03 0.26
11 9 0 0.53 0.02
11 9 1 0.1 0.01
11 9 2 0.06 0.02
11 9 3 -0.02 0.28
11 9 4 0.13 0.02
11 9 5 0.05 0.19
11 10 0 0.05 0.28
11 10 1 0.11 0.01
11 10 2 0.06 0.02
11 10 3 0.08 0.02
12 0 0 1 0.04
12 0 1 0.37 0.02
12 0 2 0 0.22
12 0 3 0.34 0.02
12 0 4 0.2 0.01
12 0 5 0.01 0.33
12 0 6 0.04 0.32
12 0 7 0.03 0.31
12 0 8 0.05 0.31
12 1 0 0.05 0.29
12 1 1 0.08 0.02
12 1 2 0.05 0.28
12 1 3 0.28 0.01
12 1 4 0.37 0.02
12 1 5 0.16 0.01
12 1 6 0.01 0.29
12 1 7 0.36 0.02
12 1 8 0.19 0.01
12 2 0 1.17 0.03
12 2 1 0.36 0.01
12 2 2 0.12 0.02
12 2 3 0.17 0.01
12 2 4 0.29 0.01
12 2 5 0.01 0.29
12 2 6 0 0.28
12 2 7 0.05 0.28
12 2 8 0.06 0.01
12 3 0 0.03 0.28
12 3 1 0.09 0.01
12 3 2 0.03 0.2
12 3 3 0.18 0.01
12 3 4 0.27 0.01
12 3 5 0.14 0.02
12 3 6 0.07 0.02
12 3 7 0.29 0.01
12 4 0 0.47 0.02
12 4 1 0.29 0.01
12 4 2 0.01 0.29
12 4 3 0.32 0.01
12 4 4 0.14 0.01
12 4 5 0 0.28
12 4 6 -0.01 0.28
12 4 7 0.03 0.27
12 5 0 0.12 0.02
12 5 1 0.02 0.29
12 5 2 0.1 0.02
12 5 3 0.13 0.01
12 5 4 0.55 0.02
12 5 5 0.06 0.28
12 5 6 0.08 0.28
12 5 7 0.03 0.26
12 6 0 0.15 0.01
12 6 1 0.27 0.01
12 6 2 0.05 0.21
12 6 3 0.38 0.02
12 6 4 0.08 0.02
12 6 5 0.03 0.2
12 6 6 0.01 0.27
12 7 0 -0.01 0.28
12 7 1 0.01 0.2
12 7 2 0 0.28
12 7 3 0.06 0.01
12 7 4 0.13 0.01
12 7 5 0 0.19
12 8 0 0.43 0.02
12 8 1 0.06 0.02
12 8 2 0.09 0.02
12 8 3 0 0.27
12 8 4 0.1 0.02
12 9 0 0.05 0.28
12 9 1 0.06 0.02
12 9 2 0 0.28
12 9 3 0.07 0.02
13 0 1 0.08 0.02
13 0 2 0.03 0.21
13 0 3 0.12 0.02
13 0 4 0.11 0.01
13 0 5 0.09 0.02
13 0 6 0 0.32
13 0 7 0.2 0.01
13 1 0 0.67 0.03
13 1 1 0.15 0.01
13 1 2 0 0.29
13 1 3 0.1 0.01
13 1 4 0.13 0.01
13 1 5 0.01 0.2
13 1 6 0.01 0.19
13 1 7 0.03 0.26
13 2 0 0.01 0.28
13 2 1 0.02 0.28
13 2 2 0 0.28
13 2 3 0.09 0.02
13 2 4 0.16 0.01
13 2 5 0.02 0.29
13 2 6 0.05 0.27
13 3 0 0.24 0.01
13 3 1 0.19 0.01
13 3 2 0 0.29
13 3 3 0.22 0.01
13 3 4 0.05 0.29
13 3 5 0.01 0.28
13 3 6 0.01 0.27
13 4 0 0.02 0.2
13 4 1 0.03 0.28
13 4 2 0.04 0.28
13 4 3 0.07 0.02
13 4 4 0.3 0.01
13 4 5 -0.03 0.32
13 4 6 0.05 0.19
13 5 0 0.13 0.01
13 5 1 0.17 0.01
13 5 2 -0.01 0.28
13 5 3 0.18 0.01
13 5 4 0 0.28
13 5 5 0.04 0.26
13 6 0 0.01 0.28
13 6 1 0.01 0.28
13 6 2 0 0.28
13 6 3 0.06 0.27
13 6 4 0.08 0.02
13 6 5 -0.01 0.27
13 7 0 0.26 0.01
13 7 1 0.05 0.02
13 7 2 0.02 0.16
13 7 3 0 0.19
13 7 4 0.04 0.27
13 8 0 0.01 0.27
13 8 1 0.06 0.02
13 8 2 0.05 0.26
14 0 0 0.33 0.02
14 0 1 0.01 0.33
14 0 2 0.01 0.21
14 0 3 -0.01 0.33
14 0 4 0.08 0.02
14 0 5 0 0.31
14 1 0 0.01 0.28
14 1 1 0.03 0.28
14 1 2 -0.05 0.29
14 1 3 0.02 0.28
14 1 4 0.06 0.28
14 1 5 0.02 0.27
14 2 0 0.17 0.01
14 2 1 0.1 0.02
14 2 2 -0.01 0.28
14 2 3 0.09 0.02
14 2 4 0.04 0.27
14 2 5 -0.02 0.27
14 3 0 0.01 0.28
14 3 1 0 0.28
14 3 2 0.02 0.28
14 3 3 0.04 0.28
14 3 4 0.11 0.02
14 3 5 -0.02 0.26
14 4 0 0.07 0.01
14 4 1 0.07 0.02
14 4 2 -0.01 0.28
14 4 3 0.11 0.02
14 4 4 -0.01 0.19
14 5 0 -0.03 0.28
14 5 1 -0.02 0.2
14 5 2 0 0.27
14 5 3 0.04 0.27
14 6 0 0.17 0.01
14 6 1 -0.01 0.19
14 6 2 0 0.27
15 0 1 -0.01 0.32
15 0 2 -0.04 0.32
15 0 3 0.04 0.3
15 1 0 0.08 0.28
15 1 1 0.03 0.19
15 1 2 0.03 0.26
15 1 3 0.03 0.19
15 2 0 0.02 0.27
15 2 1 0 0.27
15 2 2 -0.01 0.27
15 3 0 0.06 0.27
15 3 1 -0.02 0.27
15 3 2 0.01 0.26
15 4 0 0.01 0.19
loop_
_geom_angle_atom_site_label_1
_geom_angle_atom_site_label_2
_geom_angle_atom_site_label_3
_geom_angle
_geom_angle_site_symmetry_1
_geom_angle_site_symmetry_3
_geom_angle_publ_flag
H2 N H1 122.2(3) . . ?
C N H1 117.16(17) 6_565 . ?
C N H2 120.6(2) 6_565 . ?
N C O 121.533(12) . . ?
N C O 121.533(12) 6_565 . ?
N C N 116.93(2) 6_565 . ?
loop_
_geom_bond_atom_site_label_1
_geom_bond_atom_site_label_2
_geom_bond_distance
_geom_bond_site_symmetry_2
_geom_bond_publ_flag
O C 1.2562(3) . ?
N H1 1.012(3) . ?
N H2 0.992(4) . ?
N C 1.3408(3) 6_565 ?
