#------------------------------------------------------------------------------
#$Date: 2023-03-04 20:23:28 +0200 (Sat, 04 Mar 2023) $
#$Revision: 281467 $
#$URL: file:///home/coder/svn-repositories/cod/cif/1/56/72/1567250.cif $
#------------------------------------------------------------------------------
#
# This file is available in the Crystallography Open Database (COD),
# http://www.crystallography.net/
#
# All data on this site have been placed in the public domain by the
# contributors.
#
data_1567250
loop_
_publ_author_name
'Zuffa, Caterina'
'Cappuccino, Chiara'
'Marchini, Marianna'
'Contini, Laura'
'Farinella, Francesco'
'Maini, Lucia'
_publ_section_title
;
 AgX-based hybrid coordination polymers: mechanochemical synthesis,
 structure and luminescence property characterization.
;
_journal_issue                   0
_journal_name_full               'Faraday discussions'
_journal_page_first              448
_journal_page_last               465
_journal_paper_doi               10.1039/d2fd00093h
_journal_volume                  241
_journal_year                    2023
_chemical_formula_moiety         'Br, C6 H9 N2'
_chemical_formula_sum            'C6 H9 Br N2'
_chemical_formula_weight         189.06
_space_group_crystal_system      monoclinic
_space_group_IT_number           14
_space_group_name_Hall           '-P 2ybc'
_space_group_name_H-M_alt        'P 1 21/c 1'
_atom_sites_solution_hydrogens   geom
_audit_creation_date             2022-05-02
_audit_creation_method
;
Olex2 1.5
(compiled 2022.04.07 svn.rca3783a0 for OlexSys, GUI svn.r6498)
;
_cell_angle_alpha                90
_cell_angle_beta                 103.640(9)
_cell_angle_gamma                90
_cell_formula_units_Z            4
_cell_length_a                   7.8259(5)
_cell_length_b                   13.3434(7)
_cell_length_c                   7.8729(8)
_cell_measurement_reflns_used    712
_cell_measurement_temperature    293(2)
_cell_measurement_theta_max      25.5180
_cell_measurement_theta_min      4.0430
_cell_volume                     798.93(11)
_computing_cell_refinement       'CrysAlisPro 1.171.38.43 (Rigaku OD, 2015)'
_computing_data_collection       'CrysAlisPro 1.171.38.43 (Rigaku OD, 2015)'
_computing_data_reduction        'CrysAlisPro 1.171.38.43 (Rigaku OD, 2015)'
_computing_molecular_graphics    'Olex2 1.5 (Dolomanov et al., 2009)'
_computing_publication_material  'Olex2 1.5 (Dolomanov et al., 2009)'
_computing_structure_refinement  'SHELXL 2018/3 (Sheldrick, 2015)'
_computing_structure_solution    'SHELXT 2018/2 (Sheldrick, 2018)'
_diffrn_ambient_temperature      293(2)
_diffrn_detector_area_resol_mean 16.1340
_diffrn_detector_type            Sapphire3
_diffrn_measured_fraction_theta_full 0.998
_diffrn_measured_fraction_theta_max 0.672
_diffrn_measurement_details
;
List of Runs (angles in degrees, time in seconds):

  # Type    Start    End  Width  t~exp~   \w     \q     \k     \f   Frames
--------------------------------------------------------------------------
  1  \w    -16.00  19.00   1.00   25.00    --  -16.52 -99.00-120.00   35
  2  \w    -18.00  11.00   1.00   25.00    --  -16.52 -99.00  90.00   29
  3  \w    -66.00   2.00   1.00   25.00    --  -16.52 -19.00 -30.00   68
;
_diffrn_measurement_device       'four-circle diffractometer'
_diffrn_measurement_device_type  'Xcalibur, Sapphire3'
_diffrn_measurement_method       '\w scans'
_diffrn_radiation_type           MoK\a
_diffrn_radiation_wavelength     0.71073
_diffrn_reflns_av_R_equivalents  0.0293
_diffrn_reflns_av_unetI/netI     0.0478
_diffrn_reflns_Laue_measured_fraction_full 0.998
_diffrn_reflns_Laue_measured_fraction_max 0.672
_diffrn_reflns_limit_h_max       4
_diffrn_reflns_limit_h_min       -10
_diffrn_reflns_limit_k_max       16
_diffrn_reflns_limit_k_min       -17
_diffrn_reflns_limit_l_max       10
_diffrn_reflns_limit_l_min       -7
_diffrn_reflns_number            2231
_diffrn_reflns_point_group_measured_fraction_full 0.998
_diffrn_reflns_point_group_measured_fraction_max 0.672
_diffrn_reflns_theta_full        25.000
_diffrn_reflns_theta_max         28.967
_diffrn_reflns_theta_min         3.638
_exptl_absorpt_coefficient_mu    5.064
_exptl_absorpt_correction_T_max  1.00000
_exptl_absorpt_correction_T_min  0.65876
_exptl_absorpt_correction_type   multi-scan
_exptl_absorpt_process_details
;
CrysAlisPro 1.171.38.43 (Rigaku Oxford Diffraction, 2015)
Empirical absorption correction using spherical harmonics,
 implemented in SCALE3 ABSPACK scaling algorithm.
;
_exptl_crystal_colour            colourless
_exptl_crystal_colour_primary    colourless
_exptl_crystal_density_diffrn    1.572
_exptl_crystal_density_method    'not measured'
_exptl_crystal_description       prism
_exptl_crystal_F_000             376
_exptl_crystal_size_max          0.475
_exptl_crystal_size_mid          0.364
_exptl_crystal_size_min          0.021
_refine_diff_density_max         0.378
_refine_diff_density_min         -0.301
_refine_diff_density_rms         0.067
_refine_ls_extinction_method     none
_refine_ls_goodness_of_fit_ref   1.069
_refine_ls_hydrogen_treatment    constr
_refine_ls_matrix_type           full
_refine_ls_number_parameters     83
_refine_ls_number_reflns         1427
_refine_ls_number_restraints     0
_refine_ls_restrained_S_all      1.069
_refine_ls_R_factor_all          0.0669
_refine_ls_R_factor_gt           0.0428
_refine_ls_shift/su_max          0.000
_refine_ls_shift/su_mean         0.000
_refine_ls_structure_factor_coef Fsqd
_refine_ls_weighting_details
'w=1/[\s^2^(Fo^2^)+(0.0321P)^2^+0.0378P] where P=(Fo^2^+2Fc^2^)/3'
_refine_ls_weighting_scheme      calc
_refine_ls_wR_factor_gt          0.0816
_refine_ls_wR_factor_ref         0.0913
_reflns_Friedel_coverage         0.000
_reflns_number_gt                1052
_reflns_number_total             1427
_reflns_threshold_expression     'I > 2\s(I)'
_cod_data_source_file            d2fd00093h2.cif
_cod_data_source_block           4picabromoidrata
_cod_depositor_comments
'Adding full bibliography for 1567249--1567254.cif.'
_cod_database_code               1567250
_shelx_shelxl_version_number     2018/3
_shelx_space_group_comment
;
The symmetry employed for this shelxl refinement is uniquely defined
by the following loop, which should always be used as a source of
symmetry information in preference to the above space-group names.
They are only intended as comments.
;
_olex2_refinement_description
;
1. Fixed Uiso
 At 1.2 times of:
  All C(H) groups, All C(H,H) groups, All N(H,H,H) groups
2.a Secondary CH2 refined with riding coordinates:
 C005(H00D,H00E)
2.b Aromatic/amide H refined with riding coordinates:
 C006(H006), C007(H007), C008(H008), C009(H009)
2.c Idealised Me refined as rotating group:
 N002(H00A,H00B,H00C)
;
_shelx_res_file
;
TITL agbr_4pica_b_a.res in P2(1)/c
    agbr_4pica_b.res
    created by SHELXL-2018/3 at 20:28:17 on 02-May-2022
REM Old TITL AgBr_4pica_b in P2(1)/c
REM SHELXT solution in P2(1)/c: R1 0.159, Rweak 0.365, Alpha 0.043
REM <I/s> 0.778 for 58 systematic absences, Orientation as input
REM Formula found by SHELXT: C7 N Br
CELL 0.71073 7.8259 13.3434 7.8729 90 103.64 90
ZERR 4 0.0005 0.0007 0.0008 0 0.009 0
LATT 1
SYMM -X,0.5+Y,0.5-Z
SFAC C H Br N
UNIT 24 36 4 8

L.S. 4 0 0
PLAN  4
CONF
list 4
MORE -1
BOND $H
fmap 2 53
acta 30
REM <olex2.extras>
REM <HklSrc "%.\\agbr_4pica_b.hkl">
REM </olex2.extras>

WGHT    0.032100    0.037800
FVAR       0.67537
BR01  3    0.952150    0.123258    0.660462    11.00000    0.07708    0.04893 =
         0.05628    0.00273    0.03117    0.00367
N002  4    0.971158    0.362286    0.745547    11.00000    0.02663    0.05229 =
         0.05202   -0.00237    0.01756   -0.00122
AFIX 137
H00A  2    1.076825    0.378993    0.730838    11.00000   -1.20000
H00B  2    0.961052    0.295845    0.745069    11.00000   -1.20000
H00C  2    0.958209    0.386283    0.847243    11.00000   -1.20000
AFIX   0
N003  4    0.318323    0.382117    0.697611    11.00000    0.02682    0.07934 =
         0.06433    0.00099    0.01384    0.00415
C004  1    0.654795    0.395148    0.639021    11.00000    0.02356    0.05274 =
         0.04033    0.00406    0.00637    0.00211
C005  1    0.835017    0.404699    0.602983    11.00000    0.03353    0.05879 =
         0.04455    0.00186    0.01628   -0.00114
AFIX  23
H00D  2    0.836610    0.370218    0.494901    11.00000   -1.20000
H00E  2    0.860446    0.474893    0.588375    11.00000   -1.20000
AFIX   0
C006  1    0.593252    0.466194    0.735595    11.00000    0.03456    0.05639 =
         0.04977   -0.00641    0.01178   -0.00002
AFIX  43
H006  2    0.663898    0.519990    0.783520    11.00000   -1.20000
AFIX   0
C007  1    0.425973    0.457006    0.760767    11.00000    0.03353    0.07633 =
         0.05400   -0.00729    0.01609    0.01160
AFIX  43
H007  2    0.386052    0.506128    0.825811    11.00000   -1.20000
AFIX   0
C008  1    0.544744    0.316563    0.571678    11.00000    0.03575    0.06266 =
         0.07190   -0.01504    0.01385    0.00089
AFIX  43
H008  2    0.580782    0.267112    0.504512    11.00000   -1.20000
AFIX   0
C009  1    0.379681    0.313128    0.606465    11.00000    0.03182    0.07398 =
         0.10252   -0.01052    0.01539   -0.01167
AFIX  43
H009  2    0.307352    0.259108    0.563251    11.00000   -1.20000
AFIX   0
HKLF 4




REM  agbr_4pica_b_a.res in P2(1)/c
REM wR2 = 0.0913, GooF = S = 1.069, Restrained GooF = 1.069 for all data
REM R1 = 0.0428 for 1052 Fo > 4sig(Fo) and 0.0669 for all 1427 data
REM 83 parameters refined using 0 restraints

END

WGHT      0.0321      0.0378

REM Highest difference peak  0.378,  deepest hole -0.301,  1-sigma level  0.067
Q1    1   1.0228  0.1573  0.5996  11.00000  0.05    0.38
Q2    1   0.8457  0.1549  0.6096  11.00000  0.05    0.32
Q3    1   1.0000  0.5000  1.0000  10.50000  0.05    0.24
Q4    1   0.5396  0.4424  0.8283  11.00000  0.05    0.23
;
_shelx_res_checksum              79711
_shelx_hkl_file
;
   0   0   3    0.04    1.64
   0  -1   2 8284.69  192.13
   0  -1   3 1028.56   31.02
   0   2  -1   46.04    2.86
   0  -2   1   51.91    3.12
   0   2  -1   45.07    3.22
   0  -2   2  706.27   21.06
   0   2  -2  712.61   20.96
   0   2   3  118.90    4.61
   0  -2   3   86.55    6.62
   0   3   0    2.17    1.58
   0  -3   0   -0.70    1.49
   0   3  -1    6.74    1.91
   0   3  -1    6.63    1.24
   0  -3   1    6.04    1.41
   0  -3   1    6.25    1.90
   0  -3   2 3894.85   89.64
   0   3  -2 3649.68   90.25
   0  -3   3 1007.46   29.96
   0   3  -3  949.06   29.20
   0   3   5   88.25    4.30
   0   3   6   48.07    3.47
   0  -4   0 9999.00  231.23
   0   4  -1   77.82    5.49
   0   4  -1   68.46    3.84
   0  -4   1   64.74    5.34
   0   4  -2 1223.15   33.96
   0   4  -2 1214.22   31.65
   0  -4   3  171.30    9.44
   0   4  -3  151.40    8.60
   0  -5   0    3.39    2.35
   0   5  -1  607.00   17.70
   0  -5   1  555.77   20.09
   0   5  -1  585.12   20.19
   0   5  -2 1647.16   43.76
   0   5  -2 1679.91   46.72
   0  -5   2 1717.97   44.74
   0   5  -3  677.39   22.28
   0  -5   3  664.44   23.01
   0  -5  -3  661.55   17.39
   0  -6   0    5.86    2.65
   0  -6  -1 1982.31   52.47
   0   6  -1 1924.05   49.17
   0  -6   1 1948.22   53.57
   0   6  -2    2.06    1.66
   0   6  -3   44.72    4.77
   0  -6   3   48.62    5.32
   0   6  -4   71.89    6.60
   0  -7   0    0.27    2.03
   0   7  -1  435.46   15.17
   0  -7  -1  451.23   18.22
   0  -7   1  460.68   19.00
   0   7  -2 1241.26   34.77
   0   7  -3  669.87   23.08
   0  -7   3  685.40   24.37
   0   7  -4  555.85   21.24
   0  -8   0 2336.57   64.74
   0   8  -1   33.87    3.64
   0  -8  -1   36.59    5.30
   0  -8   1   36.51    5.51
   0  -8  -2  611.55   23.55
   0   8  -2  634.68   20.84
   0   8  -3   81.14    6.41
   0   8  -4  253.50   13.16
   0  -8  -4  251.73    8.61
   0  -9   0    5.19    3.81
   0   9  -1  168.78    8.91
   0  -9   1  163.52   12.02
   0  -9  -1  169.30   11.25
   0   9  -2  221.11   10.59
   0  -9  -2  208.81   12.94
   0   9  -3  327.37   14.41
   0  -9  -3  337.25   16.75
   0   9  -4  319.50   15.09
   0 -10   0   40.24    6.60
   0 -10  -1  427.58   20.57
   0  10  -1  429.58   16.46
   0 -10   1  423.48   21.35
   0 -10  -2   12.34    4.26
   0  10  -2   17.92    3.08
   0  10  -3  115.06    8.01
   0 -10  -3  119.53   10.10
   0  10  -4  115.43    8.57
   0 -10  -4  115.36    9.97
   0 -11   0    3.65    4.18
   0 -11  -1  199.90   13.90
   0  11  -1  210.20   10.75
   0 -11   1  187.21   14.82
   0  11  -2  581.04   20.64
   0 -11  -2  545.22   24.53
   0 -11  -3  219.42   14.68
   0  11  -3  232.05   11.88
   0 -11  -4  192.23   13.24
   0  11  -4  176.19   10.80
   0 -11  -5    6.71    3.81
   0 -12   0  790.81   33.20
   0  12  -1    1.94    1.67
   0 -12   1   -4.24    3.67
   0 -12  -2  234.17   15.86
   0  12  -2  233.77   11.69
   0 -12  -3   17.58    4.92
   0 -12  -4   55.65    7.73
   0 -12  -5    6.70    4.36
   0 -13   0    5.07    5.53
   0 -13  -1   34.33    6.62
   0 -13   1   32.12    6.69
   0 -13  -2   32.98    6.53
   0 -13  -3  110.04   11.12
   0 -13  -4   47.48    7.44
   0 -14   0   49.45    8.38
   0 -14  -1  149.26   13.73
   0 -14   1  141.77   14.44
   0 -14  -2   -0.74    3.99
   0 -14  -3    3.66    3.71
   0 -14  -4    7.11    3.91
   0 -15   0    0.91    4.91
   0 -15  -1   19.78    6.59
   0 -15  -2  113.31   12.21
   0 -15  -3   49.34    8.52
   0 -15  -4   37.34    7.64
   0 -16   0  114.64   14.14
   0 -16  -1    2.22    3.85
   0 -16  -2    9.43    4.95
   0 -16  -3   -0.27    4.61
   0 -17  -1   11.56    6.81
   0 -17  -2   12.44    6.98
   0 -17  -3   38.17    8.20
   1   0  -2 2951.20   68.50
  -1   0   1    5.50    1.62
  -1   0  -1    0.71    1.47
   1   0   1   -0.04    1.32
   1   0   2    4.56    2.67
  -1   0  -2    1.14    2.49
   1   0   3    1.21    1.44
   1   1  -3 1503.27   38.55
  -1   1   2  883.38   23.86
   1   1  -2  826.75   22.55
   1  -1  -1  803.07   22.04
   1  -1   1 2179.45   54.02
  -1   1  -1 2161.17   53.93
   1   1   1 2103.57   53.27
   1   1   1 2088.15   51.81
  -1  -1  -1 2100.36   53.30
  -1  -1  -2  610.67   20.04
   1   1   2  575.46   20.04
   1  -1   2  588.54   20.14
  -1   1  -2  624.22   20.38
   1  -1   3 2375.02   62.40
   1   1   3 2279.31   62.11
  -1   1  -3 2284.20   61.88
  -1   2   7  446.21   18.82
  -1   2   6   18.25    3.58
  -1   2   5  891.82   27.56
   1   2  -4  190.61    9.48
  -1   2   4  204.86    9.39
  -1  -2   4  199.56   10.81
   1   2  -3   10.96    2.24
  -1   2   3    8.47    1.95
   1   2  -2  280.15   10.29
  -1  -2   2  285.01   10.33
   1  -2  -2  277.40    9.94
  -1   2   1 5476.49  128.22
  -1  -2   1 5959.67  130.96
  -1  -2   0   39.33    2.24
   1   2   0   45.06    2.32
  -1  -2  -1 4435.59   98.79
   1   2   1 4327.95  100.84
   1  -2   1 4380.59  102.28
   1  -2   2 1361.33   38.28
  -1   2  -2 1354.00   37.93
   1   2   2 1264.89   32.84
   1   2   2 1367.49   37.73
  -1   2  -3  990.47   31.48
   1  -2   3  988.01   31.69
  -1   2  -4  144.97   10.29
  -1   3   6    0.22    1.40
  -1   3   5  134.04    7.67
  -1  -3   4 1364.17   39.45
   1   3  -4 1317.66   38.31
   1   3  -3 1703.31   45.31
  -1  -3   3 1669.63   44.58
   1   3  -2 2517.36   62.11
  -1  -3   2 2354.86   59.25
  -1  -3   2 2440.30   62.32
  -1   3   1  691.97   18.67
  -1  -3   1  621.07   20.17
   1  -3  -1  683.38   18.40
   1   3   0  937.30   23.14
  -1   3   0  939.37   25.65
   1   3   1 3699.01   86.56
  -1   3  -1 3518.15   87.62
   1  -3   1 3626.37   88.61
   1  -3   2 1513.22   42.46
  -1   3  -2 1496.84   42.19
   1   3   2 1562.62   41.79
   1  -3   3 1457.29   43.31
  -1   3  -3 1479.53   43.18
  -1   3  -4    3.43    3.13
  -1  -4   4  160.30    9.48
   1  -4  -3  293.76   10.70
  -1  -4   3  292.77   11.78
   1   4  -3  300.48   13.17
  -1  -4   2 3832.72   95.35
  -1  -4   2 4051.77   99.95
   1   4  -2 4131.24  100.20
   1  -4  -2 4120.12   96.28
  -1   4   1    5.48    1.93
   1  -4  -1    6.72    1.99
  -1  -4   1    7.97    2.66
  -1   4   0 7613.58  177.69
  -1   4  -1  411.51   15.54
  -1   4  -1  413.40   15.05
   1  -4   2  307.00   13.55
  -1  -4  -2  293.47    9.01
  -1   4  -2  313.39   13.46
   1  -4   3  554.22   21.65
  -1   4  -3  549.77   21.02
  -1   4  -4  277.19   14.97
  -1  -5   4  758.51   25.82
  -1  -5   3  806.55   24.92
   1  -5  -3  849.11   24.66
  -1  -5   2  639.45   23.48
   1  -5  -2  655.15   20.60
   1   5  -2  677.26   23.41
  -1  -5   2  734.56   19.31
   1  -5  -1   30.59    3.29
  -1  -5   1   32.73    4.19
  -1   5   0   69.99    5.42
  -1   5  -1  517.39   18.79
  -1   5  -1  496.87   17.58
   1  -5   2  734.13   25.23
  -1   5  -2  731.97   24.36
   1  -5   3 1822.25   53.02
  -1   5  -3 1842.19   51.85
  -1   5  -4  266.40   14.72
  -1   5  -5   46.22    6.78
  -1  -6   4   38.46    4.67
   1  -6  -4   45.50    3.69
  -1  -6   3    4.98    1.74
   1  -6  -3    8.26    2.09
  -1  -6   3    8.96    3.78
  -1  -6   2   10.58    3.67
   1   6  -2    8.61    1.29
   1  -6  -2   11.17    2.64
   1  -6  -1 1110.50   28.92
  -1  -6   1 1103.83   31.09
  -1   6   0   71.34    5.95
  -1  -6   0   73.87    6.65
   1  -6   0   62.25    5.71
  -1   6  -1  433.87   16.48
  -1   6  -2  167.17    9.69
  -1   6  -3  567.87   19.59
  -1  -6  -3  321.93   10.23
  -1   6  -4   16.57    4.53
  -1   6  -5 1322.65   44.16
  -1  -7   4  565.51   21.77
   1  -7  -4  658.01   19.99
  -1  -7   3  810.55   30.79
   1  -7  -3  838.16   26.66
  -1  -7   3  838.60   25.33
  -1  -7   2 1213.53   38.07
   1   7  -2 1141.02   29.15
   1  -7  -2 1150.27   34.19
  -1  -7   1   26.49    4.30
   1   7  -1   21.64    2.08
   1  -7  -1   37.04    4.64
   1  -7   0  262.45   13.29
  -1  -7   0  269.86   13.85
  -1   7  -1  547.69   20.01
  -1   7  -2  943.38   30.38
  -1   7  -3  412.69   18.33
  -1   7  -4    6.79    3.02
  -1   7  -5    1.12    3.11
  -1  -8   4  136.72    8.96
   1  -8  -4  128.65    8.65
   1  -8  -4  130.17    7.80
  -1  -8   3    9.41    4.71
   1  -8  -3    4.81    2.30
   1   8  -2  995.12   25.87
   1  -8  -2  988.94   32.02
  -1  -8   2 1034.61   35.44
   1  -8  -1    8.21    2.80
   1   8  -1    6.31    1.36
  -1  -8   1    5.86    3.14
   1  -8   0 2812.23   74.49
  -1  -8   0 2700.12   75.37
  -1   8  -1    7.91    2.56
  -1   8  -2   41.15    4.97
  -1   8  -3    1.02    2.17
  -1   8  -4  308.24   16.59
  -1   8  -5   55.64    7.51
   1  -9  -5  111.64    8.50
   1  -9  -4  160.45   10.43
  -1  -9   3  554.15   25.56
   1  -9  -3  526.55   20.85
   1  -9  -2  371.69   16.99
  -1  -9   2  388.26   19.51
   1   9  -2  352.25   11.37
  -1  -9   1   56.70    7.25
   1  -9  -1   62.25    6.87
   1   9  -1   43.74    3.36
  -1  -9   0   21.72    5.22
   1  -9   0   27.45    5.20
  -1  -9  -1  345.02   17.87
  -1   9  -1  360.14   16.05
  -1   9  -2  519.12   20.78
  -1   9  -3  616.64   24.31
  -1   9  -4   90.49    8.85
  -1   9  -5    5.50    3.45
   1 -10  -5  263.44   14.45
   1 -10  -4   -0.11    2.02
  -1 -10   3   66.20    9.21
   1 -10  -3   57.61    6.65
   1  10  -2   25.80    2.40
  -1 -10   2   27.59    5.84
   1 -10  -2   31.19    5.17
  -1 -10   1  964.07   34.74
   1 -10  -1  952.20   32.44
  -1 -10   0   -0.72    2.80
   1 -10   0    4.66    3.66
  -1 -10  -1  418.91   20.70
  -1  10  -1  379.43   17.27
  -1  10  -2   11.05    3.16
  -1 -10  -2    7.57    3.60
  -1  10  -3   67.88    7.25
  -1  10  -4   -0.63    2.09
  -1  10  -5  288.62   17.30
   1 -11  -5   52.93    6.48
   1 -11  -4  206.44   13.14
   1 -11  -3  248.42   14.78
  -1 -11   3  250.86   17.75
  -1 -11   2  171.03   14.57
   1  11  -2  175.06    7.03
   1 -11  -2  211.45   13.65
   1  11  -1    0.80    1.02
  -1 -11   1    3.76    4.48
   1 -11  -1   -0.23    3.27
   1 -11   0   66.14    8.57
  -1 -11   0   58.38    7.68
  -1  11  -1  122.29    9.10
  -1 -11  -1  112.97   10.78
  -1  11  -2  235.66   13.70
  -1 -11  -2  256.09   16.32
  -1  11  -3   94.29    8.61
  -1 -11  -3   98.73   10.27
  -1  11  -4   23.06    4.77
  -1  11  -5   -3.87    2.95
   1 -12  -4   36.27    6.06
   1 -12  -3    3.76    3.72
   1 -12  -2  163.50   12.73
  -1 -12   2  147.08   13.28
   1 -12  -1   36.02    6.96
  -1 -12   1   28.79    6.38
  -1 -12   0  432.30   23.15
  -1 -12  -1   47.28    7.82
  -1  12  -1   58.56    6.77
  -1 -12  -2   12.17    4.90
  -1  12  -2    5.62    3.27
  -1 -12  -3    4.14    4.14
  -1  12  -3   -1.42    2.60
  -1 -12  -4  144.30   13.10
   1 -13  -4   38.44    6.50
   1 -13  -3  210.75   14.89
  -1 -13   2   83.11   10.86
   1 -13  -2  100.72   10.30
   1 -13  -1   34.26    6.92
  -1 -13   1   28.93    6.93
  -1 -13   0    2.22    3.99
  -1  13   0    3.74    2.85
  -1 -13  -1  195.94   15.50
  -1  13  -1  180.64   12.25
  -1 -13  -2  108.03   11.65
  -1 -13  -3  139.14   13.28
  -1 -13  -4   44.17    8.20
  -1 -13  -5    9.05    4.71
   1 -14  -4   14.35    4.88
   1 -14  -3    8.45    4.70
   1 -14  -2    3.10    3.70
  -1 -14   2    1.47    4.39
  -1 -14   1  266.26   19.50
   1 -14  -1  281.46   19.28
  -1 -14   0   -2.60    4.69
  -1 -14  -1   88.63   11.11
  -1 -14  -2   13.29    5.58
  -1 -14  -3   40.43    7.41
  -1 -14  -4    5.84    4.26
  -1 -14  -5   71.09   10.26
   1 -15  -3   43.27    7.76
   1 -15  -2   39.78    7.96
  -1 -15   2   54.91    9.94
  -1 -15   1   10.63    6.21
  -1 -15   0    3.26    4.37
  -1 -15  -1   38.89    8.12
  -1 -15  -2   60.44    9.75
  -1 -15  -3   18.99    6.11
  -1 -15  -4   12.67    5.93
   1 -16  -3    6.53    5.23
   1 -16  -2   51.31    9.10
  -1 -16   1   24.22    8.22
  -1 -16   0  100.76   12.86
  -1 -16  -1   13.37    6.05
  -1 -16  -2    9.47    4.99
  -1 -16  -3   -0.04    4.68
  -1 -16  -4   13.44    5.23
  -1 -17   0   -4.14    5.62
  -1 -17  -1   52.45   10.44
  -1 -17  -2    6.34    6.33
  -1 -17  -3   16.77    6.50
   2   0  -6  482.14   16.74
   2   0  -5    0.49    1.06
   2   0  -4   70.88    4.03
  -2   0   2 7291.42  172.59
   2   0  -1    1.62    1.68
  -2   0   1    0.73    2.00
   2   0   0 5929.41  145.20
  -2   0   0 6261.70  143.82
   2   0   1    3.57    2.04
  -2   0  -1    0.17    2.26
   2   0   2   18.43    3.68
  -2   0  -2   24.40    4.40
  -2   0  -3   -2.11    2.15
  -2   0  -4  407.52   19.77
  -2   1   7   20.26    5.08
  -2   1   6   64.24    7.02
   2  -1  -6   43.18    3.76
   2   1  -6   50.09    4.70
  -2   1   5  745.43   25.69
   2  -1  -5  641.88   18.85
   2   1  -5  678.61   21.25
   2  -1  -4  887.78   22.71
   2   1  -4  900.84   25.19
  -2   1   4  921.88   29.52
  -2  -1   3 2172.74   53.21
  -2   1   3 2110.73   57.20
  -2   1   2  232.03   11.27
   2  -1  -2  236.67   10.88
  -2  -1   1  204.45    9.64
   2  -1  -1  193.43    9.69
  -2  -1   0 2189.93   56.06
   2   1   0 2162.87   54.82
   2   1   0 2132.92   56.35
  -2   1   0 2185.50   56.13
  -2  -1   0 2286.99   54.73
   2  -1   1 1648.20   45.07
   2   1   1 1605.39   43.80
  -2   1  -1 1613.90   44.75
   2   1   1 1678.73   44.05
  -2  -1  -1 1655.09   44.14
  -2   1  -2 1703.86   50.00
   2   1   2 1865.71   49.98
  -2  -1  -2 1783.98   49.79
   2  -1   2 1816.13   50.38
  -2  -1  -3  913.31   31.30
  -2   1  -3  923.05   31.87
  -2   1  -4   12.06    3.71
  -2   2   7  827.40   31.15
   2  -2  -6    2.99    1.46
  -2   2   6   -1.18    1.85
  -2   2   5 1024.25   34.59
   2   2  -5 1127.84   31.48
   2  -2  -5 1039.92   27.21
   2   2  -4    0.56    1.61
  -2   2   4    0.50    2.09
  -2  -2   3  255.74   10.37
  -2   2   3  266.44   12.74
   2  -2  -2   18.93    3.49
  -2  -2   2   22.10    2.91
  -2  -2   0   11.74    2.20
   2   2   0   12.74    1.86
  -2  -2   0   12.98    2.61
  -2   2   0   13.15    2.99
   2   2   1  558.28   18.26
  -2   2  -1  536.22   19.58
  -2  -2  -1  546.91   18.47
   2   2   1  559.18   18.58
  -2  -2  -1  550.36   17.83
   2  -2   1  587.12   20.31
  -2  -2  -2   87.29    6.94
   2   2   2   91.40    5.85
  -2   2  -2   94.03    7.63
   2   2   2   90.13    6.82
   2  -2   2   78.99    6.71
   2   2   3 1235.16   34.46
  -2   2  -3 1259.80   39.81
  -2   2  -4   45.20    6.24
  -2   2  -5  959.21   36.79
  -2   3   7    5.73    2.79
  -2   3   6   31.05    4.90
  -2   3   5  676.95   25.14
   2   3  -4  904.47   28.17
  -2  -3   3 2036.65   53.68
   2  -3  -3 2053.89   54.24
  -2   3   2   91.52    3.87
  -2  -3   2   85.88    5.97
   2  -3  -2   88.34    6.52
  -2  -3   1   46.74    2.76
  -2  -3   0 1341.48   35.04
   2   3   0 1407.34   35.09
   2  -3   1  630.24   22.57
  -2  -3  -1  603.29   19.85
  -2   3  -1  590.14   21.43
   2   3   1  624.46   19.98
  -2  -3  -1  650.31   19.48
  -2   3  -2  823.98   27.43
   2   3   2  746.76   25.38
   2  -3   2  769.81   27.31
  -2   3  -3  472.71   20.56
  -2   3  -4   78.32    8.43
   2   3   4   56.38    3.93
   2   3   5   10.88    1.78
  -2   3  -5   27.21    5.75
   2  -4  -4   17.95    1.48
  -2  -4   4   21.51    3.23
  -2  -4   3    9.35    2.78
   2  -4  -3    9.43    2.49
  -2  -4   2 3061.12   77.89
  -2   4   2 3160.15   73.24
  -2   4   1   55.48    4.14
   2   4   0 1883.08   46.47
  -2   4  -1   12.16    3.22
   2   4   1   10.71    2.19
  -2  -4  -2   80.56    5.05
   2   4   2   77.09    6.45
  -2   4  -2   86.69    7.55
  -2   4  -3  154.60   11.21
  -2   4  -4  755.66   30.31
  -2   4  -5    9.22    4.40
  -2  -5   5  548.57   21.63
   2  -5  -5  553.67   16.07
   2  -5  -4  543.95   19.01
  -2  -5   4  506.87   18.12
   2  -5  -4  469.71   14.35
  -2  -5   3 1832.45   45.38
  -2  -5   3 1719.10   50.72
   2  -5  -3 1801.43   44.51
   2  -5  -3 1793.20   50.41
  -2  -5   2  228.34   11.97
  -2   5   1  194.18    9.19
  -2   5   0  701.42   22.94
   2   5   0  673.97   19.06
  -2   5  -1 1755.70   49.96
   2   5   1 1787.92   46.61
  -2   5  -2 1127.13   36.50
   2   5   2 1102.15   34.72
  -2  -5  -2 1181.70   31.28
  -2   5  -3  437.95   20.04
  -2   5  -4   31.31    5.97
  -2   5  -5  113.46   10.99
  -2   5  -6   37.23    7.17
   2  -6  -6   10.86    1.96
   2  -6  -5  580.23   17.26
  -2  -6   5  528.08   21.36
   2  -6  -4    6.31    2.37
  -2  -6   4    8.22    3.42
   2  -6  -4    2.16    1.15
  -2  -6   4    4.06    1.93
   2  -6  -3  313.52   11.81
  -2  -6   3  343.59   16.35
  -2  -6   3  339.03   11.26
  -2  -6   2    1.36    2.35
  -2   6   1 3326.76   82.35
  -2  -6   1 3242.99   85.67
  -2   6   0  138.37    8.95
   2   6   0  144.81    6.10
   2   6   1  613.15   20.18
  -2   6  -1  642.10   23.34
  -2   6  -2    6.72    3.38
   2   6   2    8.17    2.59
  -2   6  -3  575.38   24.06
  -2   6  -4    5.37    2.91
  -2   6  -5  287.68   18.21
  -2   6  -6   10.63    5.28
  -2  -7   5  254.38   13.32
   2  -7  -5  229.96    9.81
   2  -7  -4  573.62   21.33
  -2  -7   4  534.84   18.89
   2  -7  -4  584.53   18.57
  -2  -7   4  531.08   24.69
  -2  -7   3  688.80   25.48
   2  -7  -3  660.91   19.57
  -2  -7   2   36.93    5.19
  -2  -7   1    0.30    2.81
  -2   7   1    2.96    2.31
   2   7   0  431.67   13.36
   2   7   1  558.15   18.76
  -2   7  -1  544.75   22.00
  -2   7  -2  430.64   19.42
  -2   7  -3  173.04   12.10
  -2  -7  -3  153.81    7.20
  -2   7  -4   80.35    8.83
  -2   7  -5   10.88    4.97
  -2   7  -6   33.02    7.21
   2  -8  -5    2.53    1.77
  -2  -8   4    5.09    3.63
   2  -8  -4    3.48    2.04
  -2  -8   4    5.50    1.91
   2  -8  -4    4.45    1.55
   2  -8  -3   16.02    3.32
  -2  -8   3   12.99    4.34
  -2  -8   2 1179.69   40.09
   2  -8  -2 1217.85   36.28
  -2  -8   1  140.55   10.90
   2   8   0  670.57   19.06
   2   8   1   92.29    6.21
  -2   8  -1   93.41    8.24
  -2   8  -2    3.60    3.29
  -2  -8  -3    0.07    1.32
  -2   8  -3    1.58    2.65
  -2   8  -4  353.04   19.40
  -2   8  -5    2.08    3.67
  -2   8  -6  108.20   11.68
   2  -9  -5  225.77   11.28
  -2  -9   4  273.74   18.68
   2  -9  -4  279.90   13.22
  -2  -9   3  554.93   25.58
   2  -9  -3  554.78   21.04
  -2  -9   2   87.90    9.23
  -2  -9   1   10.29    3.95
   2   9   0  111.20    5.53
  -2  -9   0  110.37   10.48
  -2   9  -1  660.17   25.79
   2   9   1  652.54   21.59
  -2   9  -2  318.79   16.84
  -2  -9  -3  198.25    9.82
  -2   9  -3  193.54   13.32
  -2   9  -4   36.43    6.39
  -2   9  -5   31.61    6.69
  -2   9  -6   36.19    7.09
  -2 -10   4    5.03    4.65
   2 -10  -4    8.98    3.15
   2 -10  -3   79.88    7.48
  -2 -10   3   85.21    9.33
  -2 -10   2    3.33    4.44
  -2 -10   1  824.56   32.67
   2  10   0    8.12    1.63
  -2 -10   0   13.53    4.42
   2  10   1   64.68    5.39
  -2  10  -1   69.55    7.31
  -2  10  -2   38.94    5.85
  -2  10  -3  309.89   17.60
  -2  10  -4    5.80    3.19
  -2  10  -5  151.27   13.49
  -2  10  -6    7.19    4.58
   2 -11  -4  231.55   13.47
  -2 -11   4  268.70   19.37
   2 -11  -3  202.15   12.86
  -2 -11   3  192.55   15.37
  -2 -11   2  103.11   11.06
  -2 -11   1   -0.81    2.98
  -2 -11   0  124.43   11.95
  -2 -11  -1  171.80   14.05
  -2  11  -1  162.63   11.86
  -2  11  -2  200.81   13.62
  -2  11  -3   30.50    5.71
  -2  11  -4    6.37    3.84
  -2  11  -5    0.05    2.98
   2 -12  -4   -1.11    2.30
  -2 -12   3   15.58    5.55
   2 -12  -3   15.48    4.59
  -2 -12   2  394.70   23.27
  -2 -12   1   19.34    6.52
  -2  12   0  392.84   20.18
  -2 -12   0  380.14   22.12
  -2  12  -1    8.10    3.23
  -2 -12  -1    7.37    4.13
  -2  12  -2    0.43    2.60
  -2 -12  -2    4.42    4.62
  -2  12  -3   -2.31    3.11
  -2  12  -4  101.42   10.88
  -2 -13   3  162.41   16.05
  -2 -13   2   23.84    6.38
  -2 -13   1    2.65    4.95
  -2 -13   0   49.94    8.39
  -2  13   0   49.67    7.34
  -2  13  -1  157.73   12.31
  -2 -13  -1  160.91   14.63
  -2 -13  -2  118.78   12.78
  -2  13  -2  114.93   10.74
  -2 -13  -3   61.35    9.23
  -2 -14   3   31.23    8.00
  -2 -14   2   10.77    6.43
  -2 -14   1  202.91   17.30
  -2  14   0   12.31    4.68
  -2 -14   0    0.86    4.57
  -2 -14  -1   21.67    6.36
  -2 -14  -2   16.51    7.13
  -2 -14  -3   18.56    6.23
  -2 -14  -4    3.89    4.37
  -2 -14  -5   41.68    8.79
  -2 -15   3   41.81    8.91
  -2 -15   2   26.88    8.45
  -2 -15   1    2.74    3.33
  -2 -15   0   34.30    7.62
  -2 -15  -1   14.74    5.47
  -2 -15  -2   72.61   10.76
  -2 -15  -3    5.69    5.74
  -2 -15  -4    8.23    6.30
  -2 -16   2   78.25   13.11
  -2 -16   1   10.37    6.45
  -2 -16   0   80.19   12.06
  -2 -16  -1    4.55    5.21
  -2 -16  -2    4.21    4.87
  -2 -16  -3    6.28    4.07
  -3   0   8  195.30   16.00
  -3   0   7    2.59    3.76
  -3   0   6  553.07   24.90
  -3   0   5    6.31    3.92
  -3   0   4  432.86   19.64
  -3   0   3    3.09    2.95
  -3   0   3    1.27    1.20
  -3   0   2 8423.35  201.51
   3   0  -1   -0.08    2.43
  -3   0   1    0.39    2.80
   3   0   0 3694.70   93.58
  -3   0   0 3616.32   91.52
  -3   0  -1    1.53    2.61
   3   0   1    2.52    2.28
  -3   0  -2   13.89    3.75
  -3   0  -3    1.25    2.73
  -3   0  -4  650.91   28.46
  -3   0  -5    5.42    4.57
  -3  -1   8   42.26    7.68
  -3   1   8   39.90    6.92
  -3   1   7   12.32    4.46
  -3   1   6  190.52   13.12
  -3   1   5  559.68   23.73
  -3   1   4 1405.82   43.91
  -3   1   3  447.33   19.76
  -3   1   3  456.11   12.42
  -3  -1   3  495.57   15.41
  -3  -1   3  467.67   19.92
   3  -1  -2  203.19   11.87
  -3   1   2  195.98   11.71
  -3  -1   2  185.09   11.32
  -3  -1   1   40.28    4.83
   3  -1  -1   35.95    5.18
  -3  -1   0 1815.33   50.68
  -3   1   0 1795.26   49.84
  -3  -1   0 1835.11   48.34
   3   1   0 1716.83   50.33
   3   1   1  996.77   33.03
  -3  -1  -1 1077.63   33.45
   3  -1   1 1079.49   34.09
  -3   1  -1 1023.53   33.31
   3   1   1 1065.78   33.18
  -3  -1  -2 1050.61   35.44
   3   1   2 1126.88   35.14
  -3   1  -2 1102.56   36.28
  -3   1  -3   15.94    4.35
  -3  -1  -3   32.49    5.75
  -3  -1  -4   71.72    8.47
  -3   1  -4   61.29    8.09
  -3   1  -5  129.83   12.26
  -3   2   7  649.44   28.89
  -3   2   6    4.06    2.39
  -3   2   5  241.43   14.72
  -3  -2   4   36.71    3.83
  -3   2   4   32.65    5.14
  -3  -2   3  450.21   16.22
   3  -2  -3  489.97   20.01
  -3  -2   2   51.23    5.70
   3  -2  -2   46.04    5.69
   3  -2  -1  872.70   31.07
  -3  -2   1  935.24   30.09
  -3  -2   1  935.14   27.09
   3   2   0    2.10    1.76
  -3  -2   0    5.95    2.39
  -3   2   0    3.48    2.44
  -3  -2   0    4.69    2.16
  -3  -2  -1  106.51    7.80
   3   2   1  111.23    8.09
   3   2   1  114.07    7.65
  -3   2  -1  112.78    8.88
   3   2   2   15.44    3.14
  -3   2  -2   15.02    4.16
  -3  -2  -2   17.71    3.97
  -3   2  -3 1330.52   44.42
   3   2   3 1381.35   40.75
  -3  -2  -3 1340.61   43.90
   3   2   4   12.94    3.20
  -3   2  -4   14.42    4.98
  -3   2  -5  179.32   14.67
  -3  -3   4 1609.87   44.72
   3  -3  -3  358.00   16.60
  -3  -3   3  374.38   14.96
   3  -3  -2   54.52    6.12
  -3  -3   1   75.71    6.56
  -3  -3   1   64.51    5.11
   3   3   0 1203.91   34.72
  -3   3   0 1297.62   38.70
  -3  -3   0 1250.33   37.38
  -3  -3   0 1255.79   35.24
   3   3   1  676.41   22.86
  -3  -3  -1  658.08   22.86
  -3  -3  -1  617.67   22.52
  -3   3  -1  686.74   24.76
  -3  -3  -2 1008.52   33.16
  -3   3  -2  995.22   34.89
  -3   3  -3   21.46    4.86
   3   3   3   19.99    3.29
  -3  -3  -3   22.06    4.51
   3   3   4   13.30    3.03
  -3   3  -4   21.76    5.19
  -3   3  -5  108.01   11.60
  -3   3  -6   46.51    8.21
  -3  -4   4  163.64   10.08
   3  -4  -4  162.86   10.74
  -3  -4   3    8.33    2.83
   3  -4  -3   14.96    3.55
  -3   4   2 4382.73  103.71
  -3  -4   1   20.16    2.38
  -3  -4   0 1982.36   51.06
   3   4   0 1988.11   50.90
  -3   4   0 2139.39   56.50
  -3   4  -1    6.03    3.20
   3   4   1    5.76    2.13
  -3  -4  -1    8.98    2.71
  -3  -4  -1    9.14    2.75
  -3   4  -2   24.76    5.20
  -3  -4  -2   30.49    4.87
  -3   4  -3   10.23    4.19
  -3   4  -4  470.52   23.57
  -3   4  -5   -1.70    3.64
  -3   4  -6   29.80    7.02
  -3  -5   5  242.82   12.49
  -3  -5   4  646.95   24.66
  -3  -5   3  323.74   15.30
  -3   5   2   46.21    4.00
  -3  -5   2   35.58    2.62
  -3  -5   1  117.64    5.26
  -3  -5   0  762.56   22.53
  -3   5   0  830.05   28.60
   3   5   0  720.89   22.50
  -3   5  -1  678.82   26.30
  -3  -5  -1  694.50   24.11
   3   5   1  675.49   22.99
  -3  -5  -2  711.88   23.44
  -3   5  -2  659.10   27.27
  -3   5  -3   40.16    6.45
  -3   5  -4   11.08    4.34
  -3   5  -5   60.76    8.77
  -3   5  -6   49.76    8.89
  -3  -6   5   97.65    7.35
  -3  -6   4    0.49    2.47
  -3  -6   4    2.15    1.69
  -3  -6   3  431.96   12.52
  -3  -6   3  441.68   19.36
  -3   6   2    3.80    1.60
  -3  -6   2    3.63    2.35
  -3   6   1  812.52   26.50
  -3   6   0    1.42    2.33
   3   6   0   -0.63    0.93
  -3   6  -1   52.01    6.99
  -3  -6  -1   53.11    5.87
   3   6   1   51.55    4.96
  -3  -6  -2    9.41    2.54
  -3   6  -2   10.60    3.84
  -3   6  -3  613.15   27.14
  -3   6  -4    9.51    4.61
  -3   6  -5  210.07   16.44
  -3   6  -6    2.19    3.21
  -3  -7   4  861.47   30.55
  -3  -7   4  691.39   21.72
  -3  -7   3  314.97   16.56
  -3   7   2   64.18    5.65
  -3  -7   2   69.08    7.61
  -3   7   0  591.38   24.91
   3   7   0  582.37   17.95
  -3   7  -1  227.65   14.29
   3   7   1  241.61   11.57
  -3   7  -2  502.88   23.63
  -3  -7  -2  553.91   20.24
  -3   7  -3   30.02    6.03
  -3   7  -4    0.17    3.36
  -3   7  -5   28.42    6.58
  -3   7  -6   46.96    8.55
  -3  -8   5    6.14    4.21
  -3  -8   4   90.74    9.42
  -3  -8   3    7.08    3.23
  -3  -8   2 1636.82   51.95
   3   8   0  970.26   26.18
  -3   8   0  845.45   33.48
  -3   8  -1    1.64    2.32
   3   8   1    2.35    1.76
  -3   8  -2   65.85    8.04
  -3  -8  -2   59.86    6.28
  -3   8  -3   13.16    4.87
  -3  -8  -3    9.00    2.47
  -3   8  -4  265.38   17.98
  -3   8  -5   -2.29    3.72
  -3   8  -6    5.44    4.86
  -3  -9   5  204.76   15.86
  -3  -9   4  195.30   14.42
  -3  -9   3  224.60   15.39
  -3  -9   2   18.85    4.84
  -3  -9   1   56.48    7.74
  -3   9   0  310.15   18.13
   3   9   0  366.70   12.10
  -3   9  -1  278.37   16.82
   3   9   1  289.66   12.94
  -3  -9  -2  332.00   15.76
  -3   9  -2  280.51   17.18
  -3   9  -3   11.81    4.56
  -3  -9  -3    7.30    2.94
  -3   9  -4    3.88    4.18
  -3   9  -5   39.62    8.47
  -3   9  -6   15.15    5.74
  -3   9  -7    8.35    4.60
  -3 -10   4    0.03    3.79
  -3 -10   3  197.35   14.94
  -3 -10   2   12.56    4.96
  -3 -10   1  407.87   22.23
  -3  10   0    0.60    2.58
  -3  10  -1    3.23    3.47
  -3  10  -2   11.26    4.32
  -3  10  -3  173.74   13.94
  -3  10  -4   -1.19    2.84
  -3  10  -5   50.38    8.74
  -3  10  -6   -0.10    3.21
  -3  10  -7    1.15    4.49
  -3 -11   4  243.70   18.15
  -3 -11   3  120.55   12.33
  -3 -11   2   19.50    6.16
  -3 -11   1   13.79    5.00
  -3 -11   0  216.47   16.45
  -3  11   0  232.15   15.63
  -3  11  -1   85.44    9.51
  -3  11  -2  208.79   15.17
  -3  11  -3   21.46    6.06
  -3  11  -4    2.29    3.21
  -3  11  -5    9.48    5.46
  -3  11  -6   16.17    5.99
  -3 -12   4   22.69    6.14
  -3 -12   3   12.35    6.61
  -3 -12   2  426.20   24.69
  -3 -12   1    9.15    5.34
  -3 -12   0  211.41   16.93
  -3  12   0  188.99   14.80
  -3  12  -1    1.74    3.18
  -3 -12  -1   -0.55    3.95
  -3  12  -2   22.45    5.33
  -3  12  -3    4.80    4.19
  -3  12  -4   96.97   11.70
  -3  12  -5   -1.41    3.22
  -3 -13   4   48.42    8.75
  -3 -13   3   50.98    9.96
  -3 -13   2    7.72    6.66
  -3 -13   1   25.00    7.59
  -3  13   0   31.67    7.03
  -3 -13   0   50.62    9.41
  -3  13  -1   99.41   10.78
  -3 -13  -1  101.51   12.36
  -3  13  -2   56.78    8.72
  -3 -13  -2   45.42    9.60
  -3  13  -3    2.61    3.62
  -3 -14   4    1.51    5.57
  -3 -14   3   61.99    9.95
  -3 -14   2    8.81    5.70
  -3 -14   1  121.75   13.97
  -3 -14   0   -0.51    4.95
  -3  14   0    2.94    3.77
  -3  14  -1    3.12    3.67
  -3 -14  -1    4.23    5.83
  -3 -14  -2    4.76    5.03
  -3 -14  -3   40.30    9.07
  -3 -15   3   24.34    8.18
  -3 -15   2   10.31    6.05
  -3  15   1    2.76    3.92
  -3 -15   1    8.65    5.32
  -3 -15   0   45.27    8.79
  -3 -15  -1   31.43    8.39
  -3 -15  -2   29.49    7.75
  -3 -15  -3   14.81    6.88
  -3 -16   0   47.98   10.09
  -4   0   8  618.44   30.50
  -4   0   7   -2.16    3.63
  -4   0   6  490.16   24.76
  -4   0   5    0.31    3.17
  -4   0   4  818.44   32.54
  -4   0   4  861.25   23.57
  -4   0   3    2.52    3.54
  -4   0   2 1269.02   42.17
  -4   0   1    5.03    3.07
  -4   0   0    3.07    3.04
  -4   0  -1    2.83    3.09
  -4   0  -2  191.39   13.27
  -4   0  -3   -0.47    3.09
  -4   0  -4  178.88   14.80
  -4   0  -5    2.25    4.24
  -4  -1   9   13.16    6.24
  -4  -1   8   23.60    6.68
  -4   1   8   14.74    5.03
  -4  -1   7   61.87    9.40
  -4   1   7   54.94    8.56
  -4   1   6  414.09   23.24
  -4  -1   6  459.68   23.94
  -4  -1   5  535.52   25.60
  -4   1   5  558.51   26.02
  -4   1   4  510.28   23.15
  -4  -1   4  502.45   15.51
  -4  -1   4  500.37   22.89
  -4   1   3  747.20   29.51
  -4  -1   3  706.15   28.20
  -4  -1   2  349.42   17.80
  -4  -1   1  189.70   12.34
  -4  -1   1  180.96   10.67
  -4   1   0  442.83   19.54
  -4  -1   0  434.05   18.57
  -4  -1  -1 1078.23   36.74
  -4   1  -1 1148.60   37.96
  -4  -1  -2  205.76   13.40
  -4   1  -2  195.70   13.60
  -4   1  -3   28.77    5.98
  -4  -1  -3   26.84    5.84
  -4   1  -4    8.56    4.20
  -4  -1  -4    4.15    3.37
  -4   1  -5   68.76    9.74
  -4  -1  -5   68.06    9.94
  -4   1  -6   24.08    6.38
  -4  -2   9   91.57   12.66
  -4  -2   8   24.37    6.99
  -4   2   8   15.33    5.13
  -4   2   7  269.49   18.73
  -4  -2   7  264.13   19.21
  -4  -2   6   23.03    6.04
  -4   2   6   23.43    5.72
  -4  -2   5   16.73    4.93
  -4  -2   5   26.87    3.70
  -4   2   5   35.74    6.57
  -4  -2   4   68.74    8.71
  -4   2   4   62.23    7.72
  -4  -2   4   63.39    5.33
  -4  -2   3 1239.70   41.83
  -4  -2   2   58.83    6.95
  -4  -2   1 2596.02   71.58
  -4  -2   1 2540.41   67.52
  -4  -2   0   65.87    7.18
  -4   2   0   66.88    7.18
  -4  -2   0   64.14    6.26
  -4  -2  -1  118.29    9.27
  -4   2  -1   91.67    8.90
  -4   2  -2   32.06    5.86
  -4  -2  -2   34.81    5.73
  -4   2  -3  926.89   36.56
  -4  -2  -3  944.24   35.99
  -4  -2  -4   12.47    5.11
  -4   2  -4    3.82    4.36
  -4   2  -5  170.68   15.22
  -4   2  -6    1.58    3.84
  -4  -3   9    2.75    3.77
  -4  -3   5  364.11   16.24
  -4  -3   4  526.87   19.57
  -4  -3   3  491.27   22.88
  -4  -3   2   98.06    9.09
  -4  -3   1  235.36   11.51
  -4  -3   1  202.78   12.90
  -4  -3   0  732.32   27.01
   4   3   0  765.01   25.71
  -4   3   0  692.35   27.43
  -4  -3   0  661.37   24.85
  -4  -3  -1  800.76   28.73
  -4   3  -1  798.14   30.08
  -4  -3  -2  114.02    9.82
   4   3   2   81.13    8.14
  -4   3  -2  110.73   10.29
   4   3   3   12.29    3.52
  -4   3  -3   15.11    4.82
  -4  -3  -3   16.90    4.58
   4   3   4   17.56    3.92
  -4   3  -4   21.23    6.14
  -4   3  -5   55.34    8.79
  -4   3  -6   32.67    8.12
  -4  -4   5   26.48    4.18
  -4  -4   4  692.51   24.72
  -4   4   3   82.11    4.43
  -4  -4   2 2126.69   55.47
  -4  -4   1   43.23    5.83
  -4  -4   1   38.98    4.50
  -4  -4   0  263.05   14.54
  -4  -4   0  273.23   13.27
  -4   4   0  271.90   15.42
   4   4   0  265.06   12.91
  -4   4  -1   35.23    6.18
  -4  -4  -1   32.76    5.06
  -4  -4  -1   41.65    5.42
  -4  -4  -2  140.00   10.87
  -4   4  -2  139.42   11.80
  -4   4  -3    9.60    4.47
  -4  -4  -3   -1.59    3.05
  -4   4  -4  126.94   12.31
  -4   4  -5    9.08    5.19
  -4   4  -6    2.35    4.24
  -4  -5   5  462.41   20.11
  -4  -5   4  390.06   17.91
  -4   5   3  165.73    7.24
  -4  -5   3  157.49   10.99
  -4  -5   2   12.14    2.28
  -4  -5   1  264.01   11.54
  -4  -5   1  279.71   15.83
  -4  -5   0  420.62   16.93
   4   5   0  410.96   16.71
  -4   5   0  466.71   21.47
  -4  -5   0  436.33   20.23
  -4  -5  -1  701.04   26.58
  -4  -5  -1  759.97   26.46
  -4   5  -1  688.53   29.07
  -4  -5  -2  176.76   12.12
  -4   5  -2  167.65   13.18
  -4   5  -3   36.36    6.61
  -4   5  -4    4.63    3.74
  -4   5  -5   72.62   10.47
  -4   5  -6   28.20    8.03
  -4   5  -7   33.37    8.53
  -4  -6   5   12.28    4.15
  -4  -6   4    4.05    3.59
  -4   6   3  643.02   19.78
  -4  -6   3  610.34   18.74
  -4  -6   3  650.99   25.82
  -4  -6   2    4.83    1.31
  -4   6   2    5.34    2.38
  -4  -6   1  471.16   15.85
  -4   6   0   12.70    3.95
  -4  -6   0   24.99    5.32
  -4  -6   0   18.59    3.43
   4   6   0   15.99    2.91
  -4  -6  -1  101.38    8.71
  -4   6  -1   89.90    9.44
  -4   6  -2   15.83    5.14
  -4  -6  -2    9.12    3.19
  -4   6  -3  517.37   26.22
  -4   6  -4   -2.47    3.42
  -4   6  -5  104.46   12.77
  -4   6  -6    3.67    4.69
  -4   6  -7    4.60    4.39
  -4  -7   5  317.59   17.94
  -4  -7   4  427.70   21.10
  -4   7   3   62.33    5.14
  -4  -7   3   67.65    8.28
  -4   7   2    2.11    1.97
  -4   7   0  390.10   20.41
  -4  -7   0  461.52   20.56
  -4   7  -1  224.98   15.39
  -4  -7  -1  225.03   13.85
  -4  -7  -2   60.82    6.62
  -4   7  -2   62.17    8.20
  -4   7  -3   20.00    5.77
  -4   7  -4   28.39    6.85
  -4   7  -5   19.22    7.04
  -4   7  -6   17.70    6.28
  -4   7  -7   12.00    6.05
  -4  -8   5   14.50    4.66
  -4  -8   4  146.95   12.28
  -4  -8   3   -3.36    3.90
  -4  -8   2  962.63   36.46
   4   8   0  114.85    7.12
  -4   8   0  137.76   11.69
  -4  -8  -1    1.97    2.93
  -4   8  -1    3.54    3.44
   4   8   1    1.63    1.67
  -4  -8  -2  124.87   10.01
  -4   8  -2  130.05   12.11
  -4   8  -3   12.43    5.18
  -4   8  -4   62.32    9.36
  -4   8  -5   -2.77    3.39
  -4   8  -6    5.25    5.18
  -4   8  -7    9.12    6.75
  -4  -9   5  175.69   14.41
  -4  -9   4  127.29   12.39
  -4  -9   3   56.72    8.11
  -4  -9   2    7.37    4.10
  -4   9   0  224.69   15.97
  -4   9  -1  347.00   20.40
  -4  -9  -1  348.20   18.44
  -4  -9  -2  113.04    9.31
  -4   9  -2   95.66   10.72
  -4   9  -3   27.54    6.60
  -4   9  -4    3.25    4.17
  -4   9  -5   32.34    7.98
  -4   9  -6    3.57    5.50
  -4 -10   5   11.92    5.50
  -4 -10   4   29.09    6.18
  -4 -10   3  409.36   22.70
  -4 -10   2    3.79    4.21
  -4 -10   1  251.31   17.88
  -4  10   0   14.98    5.11
  -4  10  -1    8.33    4.19
  -4 -10  -2    6.68    4.11
  -4  10  -2    6.58    4.11
  -4  10  -3  151.26   14.27
  -4  10  -4   -6.58    4.28
  -4  10  -5   34.28    8.40
  -4  10  -6   -0.29    4.90
  -4 -11   5  178.36   15.72
  -4 -11   4  142.06   14.11
  -4 -11   3   14.98    5.50
  -4 -11   2   11.82    5.53
  -4 -11   1   23.18    6.14
  -4  11   0  141.73   13.38
  -4  11  -1   37.60    7.26
  -4  11  -2    9.75    4.81
  -4  11  -3    1.08    4.32
  -4  11  -4   12.72    5.20
  -4  11  -5    9.74    5.27
  -4  11  -6   15.38    6.27
  -4 -12   5    9.16    6.35
  -4 -12   4   32.83    7.42
  -4 -12   3   -0.93    4.25
  -4 -12   2  240.22   18.49
  -4 -12   1   36.13    8.05
  -4  12   0   29.95    6.70
  -4 -12   0   25.36    6.67
  -4  12  -1    6.57    3.89
  -4  12  -2   59.63    9.18
  -4  12  -3    8.03    3.82
  -4  12  -4   37.39    8.15
  -4  12  -5   -3.94    4.33
  -4 -13   5   48.13    9.92
  -4 -13   4   40.79    9.04
  -4 -13   3   30.41    7.98
  -4 -13   2    3.26    4.10
  -4  13   1   47.65    8.53
  -4 -13   1   38.98    8.30
  -4  13   0   75.56   10.42
  -4 -13   0   44.90    9.42
  -4 -13  -1  117.75   14.13
  -4  13  -1  113.01   12.47
  -4  13  -2   30.33    6.87
  -4  13  -3   17.26    6.43
  -4  13  -4   -3.86    4.55
  -4 -14   4    8.11    5.47
  -4 -14   3   86.79   13.10
  -4 -14   2   -7.53    4.87
  -4 -14   1   62.94   10.73
  -4  14   1   68.47    9.99
  -4  14   0   14.25    5.12
  -4 -14   0   16.87    6.73
  -4  14  -1   10.03    5.35
  -4 -14  -1   10.05    6.43
  -4  14  -2    8.75    4.64
  -4 -14  -2   12.40    6.74
  -4 -15   2    0.78    5.44
  -4 -15   1   10.05    4.89
  -4  15   1   -1.78    4.29
  -4 -15   0   41.78    9.16
  -4  15   0   44.43    8.69
  -4 -15  -1   13.60    7.56
  -5   0   9   -2.96    4.14
  -5   0   8  105.03   13.80
  -5   0   7    3.46    4.37
  -5   0   6   65.77    9.45
  -5   0   5    1.21    3.63
  -5   0   5    0.36    1.16
  -5   0   4  887.50   36.33
  -5   0   3    4.64    4.06
  -5   0   1    2.13    3.01
  -5   0   0  181.52   12.18
  -5   0  -1    5.82    3.79
  -5   0  -2  199.73   14.85
  -5   0  -3   -2.45    3.03
  -5   0  -4   45.41    8.51
  -5   0  -5    2.82    4.43
  -5  -1   9   25.84    7.80
  -5  -1   8    7.15    4.74
  -5   1   8   13.01    5.82
  -5  -1   7   68.98   10.14
  -5   1   7   63.38   10.02
  -5  -1   6  159.10   14.12
  -5   1   6  130.34   13.26
  -5  -1   5  754.11   32.57
  -5   1   5  779.72   34.03
  -5  -1   5  694.99   22.31
  -5  -1   4   64.59    8.96
  -5   1   4   57.97    8.38
  -5  -1   3  128.21   11.65
  -5  -1   2  110.48   10.88
  -5   1   1  431.62   21.03
  -5  -1   1  487.50   20.95
  -5   1   0  849.76   32.18
  -5  -1   0  809.27   31.09
  -5   1  -1  280.13   17.16
  -5  -1  -1  284.23   16.91
  -5  -1  -2  124.90   11.54
  -5   1  -2  105.67   10.63
  -5   1  -3    0.23    3.31
  -5  -1  -3    2.02    3.59
  -5   1  -4   13.65    5.71
  -5  -1  -4   16.96    5.96
  -5  -1  -5   49.04    8.79
  -5   1  -5   48.02    9.11
  -5   1  -6   20.72    7.59
  -5  -2   9  183.00   17.76
  -5  -2   8    4.25    4.84
  -5   2   8   -5.39    5.79
  -5   2   7  638.55   32.93
  -5  -2   7  668.48   33.53
  -5  -2   6   28.17    6.90
  -5   2   6   40.18    8.00
  -5  -2   5    3.78    4.78
  -5  -2   5    4.11    2.68
  -5  -2   4  103.01   10.97
  -5  -2   4  112.69    7.77
  -5  -2   3 1111.58   40.98
  -5  -2   2    9.97    4.30
  -5  -2   2   -2.20    2.13
  -5  -2   1  260.17   16.60
  -5  -2   1  256.64   14.74
  -5   2   1  274.92   16.10
  -5   2   0   14.96    4.36
  -5  -2   0   12.72    4.08
  -5  -2  -1  310.50   17.37
  -5   2  -1  295.68   17.73
  -5   2  -2   75.40    9.51
  -5  -2  -2   63.72    8.47
  -5   2  -3  362.80   22.03
  -5  -2  -3  370.04   21.92
  -5   2  -4   10.09    5.49
  -5  -2  -4    9.68    4.88
  -5   2  -5   19.34    6.42
  -5  -2  -5   14.80    6.15
  -5   2  -6    3.77    5.90
  -5  -3   9   28.84    8.75
  -5  -3   8   21.99    7.55
  -5  -3   7  147.35   15.15
  -5  -3   6  310.76   21.50
  -5  -3   5  773.68   26.92
  -5  -3   5  818.93   35.33
  -5  -3   4   27.10    6.31
  -5  -3   4   20.41    3.69
  -5  -3   3   77.27    9.34
  -5  -3   2  270.60   16.57
  -5  -3   2  243.97   13.39
  -5  -3   1   87.26    9.21
  -5   3   1   85.98    9.28
  -5  -3   1  101.43    8.38
  -5  -3   0  204.47   14.12
  -5   3   0  213.93   14.62
  -5  -3   0  215.35   13.20
  -5   3  -1   41.48    7.19
  -5  -3  -1   50.49    7.28
  -5  -3  -2   74.71    9.06
  -5   3  -2   79.50    9.49
  -5   3  -3    5.03    3.54
  -5  -3  -3    2.20    3.48
  -5   3  -4    5.89    4.57
  -5  -3  -4    7.29    5.03
  -5   3  -5   56.14   10.44
  -5   3  -6   30.05    8.26
  -5  -4  10   39.67   10.61
  -5  -4   9    2.03    4.85
  -5  -4   8  209.43   19.67
  -5  -4   7   34.80    8.49
  -5  -4   6    4.72    4.41
  -5  -4   6    2.18    2.39
  -5  -4   5   67.08    6.81
  -5  -4   5   71.18   10.45
  -5  -4   4  432.18   19.48
  -5  -4   4  488.66   25.27
  -5  -4   3    4.18    4.46
  -5  -4   2  389.45   17.48
  -5  -4   2  462.55   23.06
  -5   4   1   43.29    7.54
  -5  -4   1   45.03    5.62
  -5  -4   1   50.10    6.88
  -5  -4   0    7.96    3.27
  -5  -4   0   -0.07    3.25
  -5  -4  -1  111.09   10.08
  -5   4  -1  124.07   11.62
  -5  -4  -2  299.55   17.72
  -5   4  -2  276.03   18.34
  -5   4  -3   22.97    6.21
  -5  -4  -3   27.72    6.13
  -5   4  -4  133.48   14.03
  -5   4  -5    7.34    6.04
  -5   4  -6   -1.40    5.81
  -5  -5   9   19.17    7.84
  -5  -5   6   62.19    7.76
  -5  -5   5  528.56   22.75
  -5  -5   4   56.45    6.86
  -5   5   3  328.74   13.18
  -5  -5   3  337.73   14.97
  -5  -5   3  330.78   20.09
  -5  -5   2  162.73    9.66
  -5  -5   2  154.60   12.93
  -5  -5   1  380.48   17.04
  -5  -5   1  392.80   20.88
  -5  -5   0  643.06   24.92
  -5  -5   0  668.05   27.73
  -5   5   0  598.87   28.12
  -5  -5  -1  349.66   17.98
  -5  -5  -1  324.84   18.66
  -5   5  -1  360.70   20.35
  -5  -5  -2   92.78    9.58
  -5   5  -2   83.16   10.21
  -5   5  -3   38.42    7.79
  -5   5  -4   13.51    6.66
  -5   5  -5   41.82    8.73
  -5   5  -6    5.53    4.86
  -5  -6   6    5.18    3.41
  -5  -6   5   12.73    4.29
  -5  -6   4   15.58    4.24
  -5   6   3 1015.64   30.24
  -5  -6   3 1005.76   30.64
  -5  -6   2   83.33    9.94
  -5  -6   2   66.76    5.69
  -5  -6   1  709.80   24.58
  -5  -6   1  714.87   31.03
  -5   6   0   15.18    4.87
  -5  -6   0   16.84    4.55
  -5  -6   0    8.72    3.19
  -5   6  -1   70.38    9.43
  -5  -6  -1   64.05    7.84
  -5  -6  -1   61.31    7.14
  -5   6  -2    7.30    4.83
  -5   6  -3  147.56   14.38
  -5   6  -4    4.64    4.72
  -5   6  -5   -9.25    6.04
  -5   6  -6    5.57    4.76
  -5  -7   6  138.62   13.25
  -5  -7   5  191.86   13.96
  -5  -7   4    7.93    3.88
  -5  -7   3   50.56    7.70
  -5  -7   3   48.39    3.77
  -5  -7   2  220.92    9.35
  -5  -7   1   44.51    7.45
  -5  -7   1   32.75    4.06
  -5  -7   0  115.50    8.49
  -5   7   0  115.30   11.85
  -5  -7   0  142.30   11.94
  -5  -7  -1   75.56    8.34
  -5   7  -1   70.61    9.39
  -5   7  -2   53.86    8.66
  -5   7  -3    7.99    5.09
  -5   7  -4    1.48    4.15
  -5   7  -5   31.56    8.28
  -5   7  -6   22.90    6.54
  -5  -8   6    4.96    4.16
  -5  -8   5    1.03    3.52
  -5  -8   4  377.14   20.91
  -5  -8   3  117.83   11.43
  -5  -8   1  102.07   11.15
  -5   8   0   13.83    5.21
  -5  -8   0    5.34    4.32
  -5   8  -1    6.98    4.85
  -5  -8  -1    5.79    3.90
  -5  -8  -2   88.73    9.27
  -5   8  -2   74.82   10.26
  -5   8  -3    3.81    4.10
  -5   8  -4   61.90   10.27
  -5   8  -5   12.60    5.50
  -5   8  -6    1.19    4.09
  -5  -9   6   82.21   10.35
  -5  -9   5  221.53   16.60
  -5  -9   4   61.95    8.72
  -5  -9   3   79.84    9.84
  -5   9   1  179.97   15.59
  -5   9   0  123.62   12.42
  -5  -9   0  133.27   12.59
  -5  -9  -1  161.59   13.00
  -5   9  -1  156.71   14.08
  -5   9  -2   32.91    7.83
  -5  -9  -2   23.87    5.14
  -5   9  -3    8.53    5.86
  -5   9  -4   -1.81    4.76
  -5   9  -5   25.79    7.82
  -5 -10   6    3.06    4.44
  -5 -10   5    5.83    5.00
  -5 -10   4    6.48    4.85
  -5 -10   3  173.32   15.02
  -5 -10   2   13.25    5.64
  -5  10   1  110.97   12.57
  -5 -10   0   12.07    5.28
  -5  10   0    3.89    4.37
  -5  10  -1   64.70    9.60
  -5 -10  -1   77.02    9.42
  -5  10  -2    6.64    5.09
  -5  10  -3   90.94   11.91
  -5  10  -4    2.94    5.56
  -5  10  -5    5.68    6.04
  -5 -11   6   77.82   11.53
  -5 -11   5   46.27    8.65
  -5 -11   4   36.89    7.75
  -5 -11   3   17.44    5.74
  -5 -11   2   21.72    6.20
  -5  11   1   10.51    4.88
  -5 -11   0   85.12   10.84
  -5  11   0   88.02   11.30
  -5  11  -1   19.11    6.24
  -5 -11  -1   32.22    7.43
  -5  11  -2    2.52    4.53
  -5  11  -3   -9.73    5.18
  -5  11  -4   10.66    6.29
  -5  11  -5   -4.52    6.03
  -5 -12   6    4.88    5.19
  -5 -12   5    5.46    5.34
  -5 -12   4  120.67   13.87
  -5 -12   3   24.26    7.11
  -5 -12   2  203.37   17.87
  -5  12   1    1.14    3.95
  -5 -12   1    3.74    5.38
  -5  12   0    4.94    3.54
  -5  12  -1    5.28    3.53
  -5  12  -2   24.02    6.69
  -5  12  -3    8.83    5.44
  -5  12  -4    6.43    4.26
  -5 -13   5   69.75   11.51
  -5 -13   4   23.76    7.32
  -5 -13   3   10.80    6.00
  -5 -13   2   18.20    6.69
  -5  13   1   51.61    9.19
  -5 -13   1   53.54   10.25
  -5  13   0   39.42    7.70
  -5 -13   0   36.66    7.97
  -5  13  -1   36.95    7.80
  -5  13  -2   16.13    5.57
  -5  13  -3   -1.14    4.18
  -5  13  -4    3.56    5.43
  -5 -14   3   61.18   10.97
  -5 -14   2   10.27    6.43
  -5  14   1   13.67    5.40
  -5 -14   1    5.27    6.49
  -5  14   0    3.97    5.29
  -5 -14   0    2.16    4.77
  -5  14  -1    0.94    4.32
  -5  14  -2   -1.27    3.71
  -5  14  -3   15.92    6.60
  -5  15   2   10.42    5.43
  -5  15   1   -2.44    4.35
  -5  15   0   32.01    8.14
  -5  15  -1    0.15    4.57
  -5  16   2   23.81    7.54
  -5  16   1   -2.81    4.56
  -6   0   9    1.39    4.63
  -6   0   8  179.03   18.13
  -6   0   7   -0.22    3.65
  -6   0   6   -0.39    4.20
  -6   0   5    2.75    1.69
  -6   0   5    0.31    4.11
  -6   0   4  501.42   27.47
  -6   0   2  254.18   16.06
  -6   0   1   -4.47    3.31
  -6   0   0    8.60    3.58
  -6   0  -1    0.27    3.54
  -6   0  -2  190.57   15.68
  -6   0  -3    2.93    4.63
  -6   0  -4  186.37   17.32
  -6   0  -5    7.84    6.49
  -6   0  -6    5.02    5.60
  -6  -1   9    0.53    5.60
  -6  -1   8   19.58    7.46
  -6   1   8   19.31    6.60
  -6  -1   7  166.59   17.10
  -6   1   7  179.59   17.46
  -6  -1   6  214.81   18.27
  -6   1   6  223.87   19.02
  -6  -1   5  334.32   22.27
  -6   1   5  321.17   21.98
  -6  -1   5  319.39   13.56
  -6  -1   4   14.01    5.11
  -6  -1   3    3.10    3.63
  -6   1   2  229.85   16.08
  -6  -1   2  211.48   14.86
  -6   1   1  219.79   15.36
  -6  -1   1  225.33   15.10
  -6   1   0  212.24   15.06
  -6  -1   0  227.25   15.70
  -6   1  -1    4.81    3.89
  -6  -1  -1    4.23    3.66
  -6   1  -2  142.35   13.62
  -6  -1  -2  151.31   14.20
  -6  -1  -3  127.93   13.31
  -6   1  -3   98.55   11.73
  -6   1  -4    7.25    4.73
  -6  -1  -4    3.10    4.65
  -6   1  -5   19.65    8.26
  -6  -1  -5   26.08    7.14
  -6   1  -6   13.10    6.23
  -6  -2   9   95.86   14.18
  -6  -2   8    2.22    5.25
  -6  -2   7   84.40   12.18
  -6  -2   6   14.07    6.33
  -6  -2   5  141.57   14.31
  -6  -2   5  150.56    9.44
  -6  -2   4   52.99    9.32
  -6  -2   3  630.25   30.49
  -6  -2   2    3.29    2.96
  -6  -2   2    5.54    4.53
  -6   2   1   13.78    4.61
  -6  -2   1   12.82    4.00
  -6   2   0    8.19    4.02
  -6  -2   0   12.41    4.52
  -6  -2  -1  421.41   22.72
  -6   2  -1  413.38   23.35
  -6   2  -2   68.99   10.17
  -6  -2  -2   55.99    8.28
  -6   2  -3   50.37    8.86
  -6  -2  -3   45.23    8.45
  -6   2  -4    6.80    4.74
  -6  -2  -4    7.70    4.93
  -6   2  -5   12.68    7.23
  -6  -2  -5   14.77    7.05
  -6   2  -6   12.83    7.60
  -6  -3   9    5.03    6.51
  -6  -3   8   29.79    8.53
  -6  -3   7   89.37   12.41
  -6  -3   6  125.48   14.05
  -6  -3   5  112.72   12.73
  -6  -3   5  113.27    8.90
  -6  -3   4   50.53    9.06
  -6  -3   3    8.12    3.78
  -6  -3   3    6.19    4.73
  -6  -3   2   61.72    7.13
  -6  -3   2   66.41    9.22
  -6  -3   1  225.83   16.60
  -6   3   1  250.06   16.84
  -6  -3   1  227.59   14.86
  -6   3   0  468.02   25.03
  -6  -3   0  522.87   24.33
  -6   3  -1   40.86    7.55
  -6  -3  -1   44.07    7.46
  -6  -3  -2  129.62   12.75
  -6   3  -2  136.34   13.73
  -6   3  -3   61.14    9.67
  -6  -3  -3   73.55   10.27
  -6   3  -4   10.53    4.45
  -6  -3  -4   29.27    8.06
  -6   3  -5   23.84    7.73
  -6  -4   9   -1.86    5.55
  -6  -4   8   85.89   13.17
  -6  -4   7   14.76    6.90
  -6  -4   6   15.52    7.00
  -6  -4   6   11.06    3.92
  -6  -4   5   81.48   11.44
  -6  -4   5   78.42    7.75
  -6  -4   4  582.16   30.06
  -6  -4   3   70.60    9.46
  -6  -4   3   82.61    8.02
  -6  -4   2  700.37   32.72
  -6  -4   2  779.84   28.60
  -6   4   1   12.81    5.03
  -6  -4   1    7.69    3.33
  -6  -4   1   18.53    5.18
  -6  -4   0   83.75    8.83
  -6   4   0   85.33   10.25
  -6   4  -1   28.80    6.97
  -6  -4  -1   18.62    5.08
  -6  -4  -2   94.37   11.00
  -6   4  -2   85.35   11.37
  -6   4  -3   36.45    8.07
  -6  -4  -3   33.17    8.36
  -6   4  -4   29.66    7.96
  -6  -4  -4   42.06    8.63
  -6   4  -5    0.07    4.97
  -6  -5   9   16.02    7.97
  -6  -5   8    9.16    6.41
  -6  -5   7  100.28   13.79
  -6  -5   6  121.58   10.64
  -6  -5   6  164.65   16.89
  -6  -5   5  174.76   16.67
  -6  -5   5  176.46   12.35
  -6  -5   4   46.38    6.03
  -6  -5   4   39.81    8.44
  -6  -5   4   42.67    6.52
  -6  -5   3  127.07    9.85
  -6  -5   3  163.21   14.94
  -6  -5   2  131.70   12.88
  -6  -5   2  135.28   10.17
  -6  -5   1  238.21   17.35
  -6   5   1  258.40   18.38
  -6  -5   1  267.03   15.31
  -6  -5   0  131.45   11.13
  -6  -5   0  140.43   13.04
  -6   5   0  162.05   14.20
  -6   5  -1    7.59    3.97
  -6  -5  -1    5.58    4.08
  -6   5  -2   37.69    7.56
  -6  -5  -2   20.96    5.46
  -6   5  -3   16.71    6.54
  -6  -5  -3   15.23    5.47
  -6   5  -4    4.73    4.78
  -6   5  -5    2.88    5.00
  -6  -6   8   11.46    7.20
  -6  -6   7  111.59   14.78
  -6  -6   6    3.76    4.51
  -6  -6   6    6.52    4.27
  -6  -6   5   73.10    8.54
  -6  -6   5   85.61   12.43
  -6  -6   4   27.67    7.51
  -6  -6   4   19.04    5.33
  -6  -6   3  215.31   12.04
  -6  -6   3  179.30   17.20
  -6  -6   2   21.98    6.56
  -6  -6   2   21.33    4.23
  -6  -6   1   67.22    7.19
  -6   6   1   77.02   10.27
  -6  -6   1   78.26   10.29
  -6   6   0   13.00    5.41
  -6  -6   0    4.53    3.67
  -6  -6   0   11.97    3.92
  -6  -6  -1  251.86   16.38
  -6   6  -1  241.75   18.23
  -6   6  -2   18.46    6.42
  -6  -6  -2   18.34    5.59
  -6   6  -3   93.09   12.21
  -6   6  -4    4.84    6.24
  -6   6  -5    4.90    5.50
  -6  -7   8   36.10    9.91
  -6  -7   6   87.97   10.00
  -6  -7   5   97.53   10.41
  -6  -7   5   99.91   13.82
  -6  -7   4   99.82   13.01
  -6  -7   4  116.60   11.68
  -6  -7   3    8.63    5.17
  -6  -7   2    5.37    4.89
  -6   7   1   18.83    5.94
  -6  -7   1   32.13    6.42
  -6  -7   1   32.86    5.05
  -6  -7   0  265.08   18.38
  -6  -7   0  300.49   16.28
  -6   7   0  281.26   19.54
  -6   7  -1   12.98    5.74
  -6  -7  -1   11.51    4.65
  -6  -7  -1   14.84    4.54
  -6   7  -2   30.42    8.40
  -6   7  -3   16.41    6.89
  -6   7  -4   22.01    7.05
  -6   7  -5   24.72    8.88
  -6  -8   6   10.72    4.93
  -6  -8   5   11.17    5.62
  -6  -8   4  231.79   16.92
  -6  -8   3    2.30    4.09
  -6  -8   3    0.65    3.42
  -6  -8   2  446.13   26.47
  -6   8   1   52.48    9.14
  -6  -8   1   45.33    8.11
  -6   8   0   13.87    6.51
  -6  -8   0    6.47    4.85
  -6   8  -1   35.97    7.96
  -6  -8  -1   31.61    6.63
  -6   8  -2  112.22   13.32
  -6   8  -3    8.84    7.12
  -6   8  -4   12.39    5.66
  -6  -9   6   23.62    6.99
  -6  -9   5   94.02   11.26
  -6  -9   4    2.90    3.99
  -6  -9   3   31.45    8.28
  -6  -9   3   26.66    6.64
  -6  -9   2   84.29   11.80
  -6   9   1  128.50   13.92
  -6  -9   1  133.47   13.80
  -6  -9   0  230.58   17.32
  -6   9   0  162.80   15.64
  -6   9  -1    9.84    5.91
  -6  -9  -1    8.42    5.20
  -6   9  -2    0.85    3.06
  -6   9  -3   24.66    7.68
  -6   9  -4   12.90    7.11
  -6 -10   6   -5.63    5.52
  -6 -10   5   45.24    8.61
  -6 -10   4    7.65    4.86
  -6 -10   3  145.57   14.52
  -6 -10   2    0.21    4.31
  -6  10   1    3.73    4.64
  -6 -10   1   15.31    6.69
  -6  10   0   12.06    5.78
  -6 -10   0    7.06    4.40
  -6  10  -1   13.81    5.55
  -6 -10  -1   23.09    6.17
  -6  10  -2   -3.35    3.65
  -6  10  -3   13.93    6.59
  -6  10  -4   20.45    8.01
  -6 -11   6   56.14    9.60
  -6 -11   5   40.14    8.72
  -6 -11   4    7.86    4.73
  -6 -11   3    2.58    4.50
  -6 -11   2   38.19    8.17
  -6 -11   2   32.21    7.66
  -6  11   1   11.18    5.34
  -6 -11   1    8.32    5.42
  -6  11   0   63.24   10.21
  -6 -11   0   83.62   11.57
  -6  11  -1    4.68    5.53
  -6  11  -2   -4.79    5.46
  -6  11  -3   -0.35    4.67
  -6 -12   6    7.74    5.54
  -6 -12   5    5.05    5.15
  -6 -12   4   55.71    9.63
  -6 -12   3    3.21    4.73
  -6  12   2   54.23   10.88
  -6 -12   2   54.35    9.98
  -6  12   1   -4.10    3.91
  -6 -12   1   18.96    7.03
  -6  12   0    5.10    4.77
  -6 -12   0   18.77    7.06
  -6  12  -1   16.65    6.69
  -6  12  -2   23.84    7.20
  -6  12  -3    9.94    5.56
  -6 -13   4    7.19    5.64
  -6 -13   3    5.69    6.62
  -6  13   2   16.29    7.12
  -6 -13   2   16.46    7.96
  -6 -13   1   66.35   11.70
  -6  13   1   40.54    8.56
  -6 -13   1   40.51    9.19
  -6  13   0   15.04    5.97
  -6  13  -1   17.31    7.08
  -6  13  -2   -2.37    5.14
  -6  14   2    3.32    4.30
  -6 -14   1   12.09    6.29
  -6  14   1   18.02    7.70
  -6  14   0    4.19    6.58
  -6  14  -1   18.63    7.02
  -7   0   9   -1.52    5.07
  -7   0   8   56.27   10.97
  -7   0   7   10.54    6.64
  -7   0   6   29.40    8.51
  -7   0   5    3.45    4.95
  -7   0   3    3.16    4.22
  -7   0   2  323.81   19.81
  -7   0   1    8.67    4.84
  -7   0   0    8.72    4.40
  -7   0  -1    1.31    4.84
  -7   0  -2  105.00   12.93
  -7   0  -3    2.47    4.65
  -7   0  -4   38.91    9.34
  -7   0  -5    3.92    4.31
  -7  -1   9    2.02    5.85
  -7  -1   8   33.12    9.06
  -7  -1   7  126.49   15.32
  -7  -1   6   85.17   12.94
  -7  -1   5   59.43   10.54
  -7  -1   4   -1.17    4.66
  -7  -1   3   75.60    9.84
  -7  -1   2   92.69   10.24
  -7   1   2  103.88   11.32
  -7   1   1   98.49   11.05
  -7  -1   1  103.80   10.73
  -7   1   0  209.72   17.13
  -7  -1   0  245.99   17.48
  -7   1  -1   16.13    6.00
  -7  -1  -1   16.95    6.00
  -7   1  -2   15.57    5.84
  -7  -1  -2   13.77    5.64
  -7   1  -3    6.07    5.86
  -7  -1  -3   -0.47    4.57
  -7   1  -4   31.89    8.33
  -7  -1  -4   34.06    8.83
  -7   1  -5    5.47    6.62
  -7  -1  -5   22.63    7.72
  -7  -2   9   82.45   13.94
  -7  -2   8    0.44    4.96
  -7  -2   7   14.09    7.06
  -7  -2   6   -1.27    3.66
  -7  -2   5  218.49   19.14
  -7  -2   4   15.79    7.19
  -7  -2   3  217.07   18.39
  -7  -2   3  196.10   15.07
  -7   2   2    1.17    3.81
  -7  -2   2    2.72    3.56
  -7   2   1   22.45    5.71
  -7  -2   1   34.75    7.01
  -7   2   0   10.90    4.87
  -7  -2   0   14.09    5.34
  -7   2  -1   63.09   10.02
  -7  -2  -1   57.70    9.13
  -7   2  -2   19.74    5.88
  -7  -2  -2   12.41    5.39
  -7   2  -3   58.62   10.65
  -7  -2  -3   60.31   10.56
  -7   2  -4    2.85    4.83
  -7  -2  -4   -0.62    5.15
  -7  -2  -5   21.61    8.24
  -7  -3   8   17.22    7.88
  -7  -3   7  122.51   15.90
  -7  -3   6   79.77   12.62
  -7  -3   5   92.01   13.16
  -7  -3   5  100.36    9.03
  -7  -3   4    4.62    5.68
  -7  -3   3   21.92    5.17
  -7  -3   3   21.04    6.97
  -7   3   2  106.15   11.94
  -7  -3   2  106.65   12.72
  -7  -3   2  106.47   10.65
  -7   3   1   19.92    6.21
  -7  -3   1   13.84    5.26
  -7   3   0   79.81   10.29
  -7  -3   0   64.85    8.99
  -7   3  -1    4.00    5.19
  -7  -3  -1   -3.64    3.68
  -7   3  -2    5.73    4.53
  -7  -3  -2   12.42    5.66
  -7   3  -3    0.24    3.32
  -7  -3  -3   13.51    6.53
  -7   3  -4   27.28    8.37
  -7  -3  -4   43.50    9.18
  -7  -4   8   67.56   12.35
  -7  -4   7   16.77    7.89
  -7  -4   6   15.88    6.40
  -7  -4   5   -0.61    4.67
  -7  -4   5    0.50    2.82
  -7  -4   4  212.82   18.66
  -7  -4   4  219.05   15.06
  -7  -4   3    3.79    3.74
  -7  -4   3   14.28    6.75
  -7  -4   2   71.69    8.49
  -7  -4   2   60.38    9.40
  -7   4   1    0.57    4.18
  -7  -4   1    7.06    4.07
  -7   4   0   77.57   11.25
  -7  -4   0   97.46   10.53
  -7   4  -1   33.89    7.52
  -7  -4  -1   21.53    6.48
  -7   4  -2  122.66   14.13
  -7  -4  -2  107.13   12.55
  -7   4  -3    8.17    6.40
  -7  -4  -3    1.97    4.04
  -7   4  -4   -1.31    5.65
  -7  -4  -4    4.92    6.11
  -7  -5   8    5.62    6.00
  -7  -5   7  102.01   14.46
  -7  -5   6   44.67    9.97
  -7  -5   5   67.75   11.17
  -7  -5   5   74.99    8.79
  -7  -5   4   -5.57    5.24
  -7  -5   3   11.31    3.92
  -7  -5   3    5.30    4.66
  -7  -5   2  114.71   13.36
  -7   5   2  108.50   12.52
  -7  -5   2  123.11   11.09
  -7  -5   1  111.59   10.57
  -7  -5   1  102.56   12.21
  -7   5   1   90.79   11.89
  -7  -5   0  123.62   12.37
  -7   5   0  118.49   13.46
  -7   5  -1   17.65    5.54
  -7  -5  -1   13.76    6.10
  -7   5  -2    5.70    5.07
  -7  -5  -2    6.78    5.29
  -7   5  -3   16.61    7.24
  -7  -5  -3    6.36    4.44
  -7   5  -4    8.04    5.94
  -7  -6   7   12.20    6.80
  -7  -6   6    1.02    4.89
  -7  -6   5  125.67   11.63
  -7  -6   5  122.17   15.35
  -7  -6   4    3.23    4.72
  -7  -6   4    3.41    3.71
  -7  -6   3  272.66   21.05
  -7   6   2    3.35    4.38
  -7  -6   2    1.35    4.80
  -7   6   1   21.97    6.18
  -7  -6   1   20.40    5.28
  -7  -6   1   27.09    6.70
  -7   6   0   16.05    7.09
  -7  -6   0    1.31    3.97
  -7   6  -1   45.99    8.52
  -7  -6  -1   53.10    8.61
  -7   6  -2    7.71    5.93
  -7  -6  -2    0.89    3.38
  -7   6  -3   24.98    7.92
  -7   6  -4   -0.76    4.87
  -7  -7   7   36.30   10.35
  -7  -7   6   67.29   12.51
  -7  -7   5   40.31    7.14
  -7  -7   5   42.73    9.81
  -7  -7   4    8.35    5.17
  -7  -7   4    7.15    5.05
  -7  -7   3   10.29    5.92
  -7  -7   2  115.63   13.76
  -7   7   2  133.57   14.78
  -7   7   1   62.81   10.59
  -7  -7   1   55.31    9.07
  -7   7   0   27.32    7.13
  -7  -7   0   33.87    7.39
  -7   7  -1   13.09    6.38
  -7  -7  -1   22.91    6.17
  -7   7  -2    5.53    6.80
  -7   7  -3   14.79    7.43
  -7  -8   6   -0.69    3.76
  -7  -8   6    7.05    6.97
  -7  -8   5   30.96    9.26
  -7  -8   5   23.44    6.44
  -7  -8   4  134.21   13.55
  -7  -8   4  148.50   16.61
  -7  -8   3   11.30    5.84
  -7   8   2   22.00    6.93
  -7  -8   2   14.86    5.78
  -7   8   1    2.51    5.18
  -7  -8   1   13.75    6.47
  -7   8   0   25.45    7.48
  -7  -8   0   37.09    7.94
  -7   8  -1    3.88    4.22
  -7   8  -2   26.35    7.32
  -7   8  -3   12.06    6.08
  -7  -9   6   34.33    7.52
  -7  -9   5   13.67    6.78
  -7  -9   5   19.29    6.15
  -7  -9   4    9.44    6.49
  -7  -9   4   -0.25    3.70
  -7  -9   3   18.33    6.82
  -7  -9   3   19.64    6.35
  -7   9   2   35.49    8.77
  -7  -9   2   41.11    8.67
  -7   9   1   65.74   10.44
  -7  -9   1   70.98   11.07
  -7   9   0   10.83    5.66
  -7  -9   0   -4.31    4.93
  -7   9  -1   12.46    5.35
  -7   9  -2    4.23    4.56
  -7 -10   6    3.75    4.27
  -7 -10   5   37.64    9.92
  -7 -10   5   38.34    8.30
  -7 -10   4   -2.59    3.74
  -7 -10   4   -2.81    5.42
  -7 -10   3   68.94   12.25
  -7 -10   3   55.90    9.75
  -7  10   2    6.54    6.01
  -7 -10   2    8.23    6.40
  -7  10   1   -2.72    4.91
  -7 -10   1    3.45    4.17
  -7  10   0    9.57    5.84
  -7 -10   0   11.72    5.89
  -7  10  -1   56.19   10.16
  -7  10  -2   25.34    7.11
  -7 -11   6   26.90    6.96
  -7 -11   5    5.72    4.63
  -7 -11   4   20.16    7.29
  -7 -11   4    9.11    5.31
  -7 -11   3    4.44    5.44
  -7 -11   3    0.08    4.52
  -7  11   2   30.81    8.93
  -7 -11   2   18.40    7.56
  -7  11   1   26.17    7.63
  -7 -11   1   43.56    9.38
  -7  11   0   15.40    6.54
  -7 -11   0   15.10    5.95
  -7  11  -1   -1.70    5.52
  -7 -12   4   52.16   10.04
  -7 -12   3    4.16    5.88
  -7 -12   3    0.42    5.63
  -7  12   2   30.73    8.97
  -7 -12   2   23.02    8.08
  -7 -12   2   16.59    6.89
  -7  12   1    4.01    5.44
  -7 -12   1   11.44    7.49
  -7 -13   2   25.64    9.24
  -7 -13   1   44.24   10.62
  -8   0   3    5.97    4.47
  -8   0   2   11.03    5.04
  -8   0   1    1.83    4.28
  -8   0   0  104.74   12.60
  -8   0  -1    5.99    4.41
  -8   0  -2   44.42    9.45
  -8   0  -3    2.78    4.46
  -8  -1   8   26.73    9.72
  -8  -1   7  102.69   15.06
  -8  -1   6   22.60    8.51
  -8  -1   4   30.39    7.26
  -8   1   3   11.90    5.94
  -8  -1   3   12.81    5.01
  -8   1   2  124.31   13.36
  -8  -1   2  124.83   13.54
  -8   1   1   12.37    5.51
  -8  -1   1   11.64    5.23
  -8   1   0   32.25    8.11
  -8  -1   0   16.24    6.96
  -8   1  -1    6.66    5.79
  -8  -1  -1    4.08    4.66
  -8   1  -2   11.99    6.99
  -8  -1  -2    3.53    4.99
  -8   1  -3   17.43    6.91
  -8  -1  -3   16.32    7.64
  -8  -1  -4    9.71    7.04
  -8  -2   7    1.91    6.11
  -8  -2   6    3.88    4.62
  -8  -2   5  125.68   15.65
  -8  -2   4    6.61    3.94
  -8  -2   4   -1.94    3.89
  -8   2   3  118.42   13.67
  -8  -2   3  108.14   11.80
  -8   2   2    4.06    4.96
  -8  -2   2    2.68    3.95
  -8   2   1    1.16    4.45
  -8  -2   1   15.92    6.35
  -8   2   0   11.00    5.81
  -8  -2   0    3.81    4.46
  -8   2  -1   46.29    9.63
  -8  -2  -1   29.47    7.60
  -8   2  -2   11.71    6.81
  -8  -2  -2    5.96    4.26
  -8   2  -3   12.50    6.40
  -8  -2  -3    9.42    5.81
  -8  -2  -4   -8.47    7.01
  -8  -3   7   96.18   14.83
  -8  -3   6    8.18    6.10
  -8  -3   5   47.08   10.28
  -8  -3   4   25.26    6.20
  -8  -3   4   16.32    6.57
  -8   3   3    4.96    5.48
  -8  -3   3    7.42    3.75
  -8  -3   3    2.52    3.70
  -8   3   2  119.63   13.59
  -8  -3   2  126.34   12.80
  -8   3   1   32.16    8.11
  -8  -3   1   21.23    6.27
  -8   3   0   37.74    8.51
  -8  -3   0   53.25    8.96
  -8   3  -1    2.97    4.59
  -8  -3  -1    2.46    4.19
  -8   3  -2    4.00    4.02
  -8  -3  -2    1.11    4.11
  -8   3  -3   10.43    7.15
  -8  -3  -3   18.59    7.16
  -8  -3  -4   17.93    7.52
  -8  -4   7   -9.64    5.90
  -8  -4   6   47.46   10.51
  -8  -4   5    2.48    4.19
  -8  -4   4  115.52   14.90
  -8   4   3    0.07    4.74
  -8  -4   3    3.71    3.45
  -8  -4   3    4.53    4.71
  -8   4   2   18.50    6.52
  -8  -4   2    5.72    3.78
  -8   4   1   -0.10    3.79
  -8  -4   1    4.22    4.36
  -8   4   0   66.85   10.72
  -8  -4   0   48.56    9.03
  -8   4  -1   -0.41    4.41
  -8  -4  -1    5.45    4.43
  -8   4  -2   28.74    8.70
  -8  -4  -2   34.91    8.90
  -8   4  -3   11.55    6.25
  -8  -4  -3   -3.43    5.87
  -8  -4  -4    5.02    6.15
  -8  -5   6    4.32    6.54
  -8  -5   5   33.85    9.69
  -8  -5   4   35.66    9.09
  -8   5   3   29.71    7.48
  -8  -5   3    8.80    6.42
  -8   5   2   72.37   11.55
  -8  -5   2   79.91   11.63
  -8   5   1   18.14    6.50
  -8  -5   1   17.73    5.50
  -8   5   0   16.28    5.75
  -8  -5   0   26.20    6.63
  -8   5  -1   -0.98    4.60
  -8  -5  -1   13.26    5.88
  -8   5  -2   11.53    6.89
  -8  -5  -2    4.58    5.47
  -8  -5  -3    0.92    4.76
  -8  -6   6    8.24    5.52
  -8  -6   5   56.03   11.63
  -8  -6   4    2.63    5.81
  -8   6   3   63.05   11.23
  -8  -6   3   45.72    9.65
  -8   6   2    4.82    5.62
  -8  -6   2    0.93    3.89
  -8   6   1   -0.85    5.07
  -8   6   0    8.34    6.10
  -8   6  -1   26.47    7.37
  -8   6  -2    2.00    5.46
  -8  -6  -2    5.03    4.75
  -8  -7   5   31.12    8.55
  -8  -7   5   37.53    7.82
  -8  -7   4   12.89    6.95
  -8  -7   4   17.34    6.54
  -8   7   3    5.66    7.07
  -8  -7   3    1.37    3.67
  -8   7   2   60.07   10.50
  -8  -7   2   54.29   10.12
  -8   7   1   -3.50    4.30
  -8  -7   1   -0.69    4.84
  -8   7   0   24.75    6.91
  -8   7  -1    4.63    6.11
  -8  -8   5    8.59    5.50
  -8  -8   5   18.77    9.03
  -8  -8   4   63.00   11.98
  -8  -8   4   60.54   10.18
  -8   8   3   -0.37    4.37
  -8  -8   3   11.15    6.35
  -8   8   2   16.75    7.12
  -8  -8   2    0.05    4.63
  -8   8   1   -4.22    4.07
  -8  -8   1    4.67    4.79
  -8   8   0   18.84    6.84
  -8   8  -1    8.44    5.04
  -8  -9   5   32.21    7.97
  -8  -9   4   18.73    7.83
  -8  -9   4   15.15    6.05
  -8   9   3   18.07    8.28
  -8  -9   3    7.12    6.41
  -8   9   2   29.14    7.94
  -8  -9   2   35.15    9.09
  -8   9   1   19.10    7.37
  -8  -9   1    5.17    5.75
  -8   9   0   13.58    6.72
  -8 -10   5   27.79    7.23
  -8 -10   4    4.14    5.32
  -8 -10   3   44.29    9.67
  -8 -10   3   33.80    8.21
  -8 -10   2    3.66    5.67
  -8 -10   1    3.01    4.74
  -8 -11   2   28.19    9.15
  -8 -11   1  -10.52    6.88
  -9   0   5    5.38    5.23
  -9   0   4  104.44   13.25
  -9   0   3    6.27    5.18
  -9   0   2   16.68    6.00
  -9   0   1    3.34    5.60
  -9   0   0   18.35    6.56
  -9   0  -1  -13.27    7.08
  -9   0  -2   25.79    8.98
  -9  -1   5    2.20    4.20
  -9   1   4   13.05    6.69
  -9  -1   4   21.78    6.59
  -9   1   3   30.43    8.47
  -9  -1   3    7.37    5.30
  -9   1   2   70.35   11.14
  -9  -1   2   51.96    9.73
  -9   1   1    6.57    5.85
  -9  -1   1    4.45    5.41
  -9   1   0   37.34    8.59
  -9  -1   0   28.98    7.87
  -9   1  -1   14.25    7.15
  -9  -1  -1    7.80    5.29
  -9   1  -2   11.04    7.52
  -9  -1  -2   -3.67    5.12
  -9   2   4    5.91    5.11
  -9  -2   4   -6.76    4.24
  -9   2   3    5.60    5.17
  -9  -2   3    1.00    4.91
  -9   2   2    3.77    4.86
  -9  -2   2    7.44    5.22
  -9   2   1   35.15    8.43
  -9  -2   1   36.01    8.10
  -9   2   0    8.53    6.53
  -9  -2   0    1.63    4.55
  -9   2  -1   13.40    5.92
  -9  -2  -1   22.88    7.76
  -9  -2  -2    5.89    6.50
  -9  -3   5    1.59    5.20
  -9   3   4    8.97    5.75
  -9   3   3    2.92    4.49
  -9  -3   3   10.98    4.03
  -9   3   2   70.34   11.52
  -9  -3   2   56.23    9.49
  -9   3   1    4.38    4.70
  -9  -3   1   -1.18    4.73
  -9   3   0   28.17    7.93
  -9  -3   0   46.88    9.44
  -9   3  -1   22.83    7.40
  -9  -3  -1   12.09    5.53
  -9  -3  -2    3.96    6.16
  -9  -4   5   18.09    9.16
  -9   4   4   87.76   13.55
  -9  -4   4   89.86   14.49
  -9   4   3    4.54    5.06
  -9   4   2   30.93    8.53
  -9   4   1    3.10    5.03
  -9  -4   1   14.47    6.35
  -9   4   0   22.55    7.92
  -9  -4   0   10.42    6.48
  -9   4  -1    6.47    5.52
  -9  -4  -1   -7.29    6.16
  -9  -4  -2    3.01    4.91
  -9   5   4   15.80    6.84
  -9  -5   4    8.05    6.33
  -9   5   3   23.61    8.39
  -9   5   2   49.22   10.11
  -9   5   1   -1.00    4.85
  -9   5   0   15.91    7.00
  -9   6   4   23.59    9.61
  -9  -6   4    4.61    5.32
  -9   6   3    1.95    4.54
  -9  -6   3   12.43    5.92
  -9   6   2    4.33    6.15
  -9   6   1   27.73    8.97
  -9  -7   3    8.83    6.41
  -9  -7   2    9.95    6.33
  -9  -8   4   36.38    9.23
  -9  -8   2   10.12    5.83
  -9  -9   4   12.72    6.56
 -10   0   5   -2.06    4.81
 -10   0   4   63.73   10.80
 -10   0   3    3.60    4.85
 -10   0   2    1.36    4.81
 -10   0   1   -3.16    5.86
 -10   0   0   33.35    9.73
 -10   1   5   12.38    6.32
 -10   1   4    2.30    5.89
 -10  -1   4    2.35    5.23
 -10   1   3   10.05    5.21
 -10  -1   3   25.39    7.70
 -10   1   2   24.25    7.22
 -10  -1   2   24.95    7.61
 -10   1   1   -1.13    4.88
 -10  -1   1    4.67    4.59
 -10  -1   0    0.12    4.52
 -10   2   4   10.09    6.35
 -10   2   3   16.67    7.46
 -10   2   2   -1.12    4.33
 -10  -2   2    8.37    5.33
 -10  -2   1    3.84    5.64
 -10  -2   0    5.47    6.29
   0   0   0    0.00    0.00


TITL AgBr_4pica_b in P2(1)/c
REM P2(1)/c (#14 in standard setting)
CELL 0.71073   7.825930  13.343372   7.872920  90.0000 103.6399  90.0000
ZERR    3.00   0.000538   0.000693   0.000824   0.0000   0.0087   0.0000
LATT  1
SYMM -x, y+1/2,-z+1/2
SFAC C H N O
UNIT 33.00 30.00 3.00 3.00
TREF
HKLF 4
END
_computing_structure_solution     'SHELXT 2018/2 (Sheldrick, 2018)'
;
_shelx_hkl_checksum              18928
_olex2_submission_special_instructions 'No special instructions were received'
_oxdiff_exptl_absorpt_empirical_details
;
Empirical correction (ABSPACK) includes:
- Absorption correction using spherical harmonics
- Frame scaling
;
loop_
_space_group_symop_operation_xyz
'x, y, z'
'-x, y+1/2, -z+1/2'
'-x, -y, -z'
'x, -y-1/2, z-1/2'
loop_
_atom_site_label
_atom_site_type_symbol
_atom_site_fract_x
_atom_site_fract_y
_atom_site_fract_z
_atom_site_U_iso_or_equiv
_atom_site_adp_type
_atom_site_occupancy
_atom_site_site_symmetry_order
_atom_site_calc_flag
_atom_site_refinement_flags_posn
_atom_site_refinement_flags_adp
_atom_site_refinement_flags_occupancy
_atom_site_disorder_assembly
_atom_site_disorder_group
Br01 Br 0.95215(6) 0.12326(3) 0.66046(6) 0.0582(2) Uani 1 1 d . . . . .
N002 N 0.9712(4) 0.3623(2) 0.7455(5) 0.0423(9) Uani 1 1 d . . . . .
H00A H 1.076825 0.378993 0.730838 0.051 Uiso 1 1 calc R U . . .
H00B H 0.961052 0.295845 0.745069 0.051 Uiso 1 1 calc R U . . .
H00C H 0.958209 0.386283 0.847243 0.051 Uiso 1 1 calc R U . . .
N003 N 0.3183(4) 0.3821(3) 0.6976(6) 0.0563(10) Uani 1 1 d . . . . .
C004 C 0.6548(4) 0.3951(3) 0.6390(6) 0.0391(10) Uani 1 1 d . . . . .
C005 C 0.8350(4) 0.4047(3) 0.6030(6) 0.0444(11) Uani 1 1 d . . . . .
H00D H 0.836610 0.370218 0.494901 0.053 Uiso 1 1 calc R U . . .
H00E H 0.860446 0.474893 0.588375 0.053 Uiso 1 1 calc R U . . .
C006 C 0.5933(5) 0.4662(3) 0.7356(6) 0.0466(11) Uani 1 1 d . . . . .
H006 H 0.663898 0.519990 0.783520 0.056 Uiso 1 1 calc R U . . .
C007 C 0.4260(5) 0.4570(3) 0.7608(6) 0.0537(12) Uani 1 1 d . . . . .
H007 H 0.386052 0.506128 0.825811 0.064 Uiso 1 1 calc R U . . .
C008 C 0.5447(5) 0.3166(3) 0.5717(6) 0.0566(13) Uani 1 1 d . . . . .
H008 H 0.580782 0.267112 0.504512 0.068 Uiso 1 1 calc R U . . .
C009 C 0.3797(5) 0.3131(4) 0.6065(7) 0.0695(16) Uani 1 1 d . . . . .
H009 H 0.307352 0.259108 0.563251 0.083 Uiso 1 1 calc R U . . .
loop_
_atom_site_aniso_label
_atom_site_aniso_U_11
_atom_site_aniso_U_22
_atom_site_aniso_U_33
_atom_site_aniso_U_23
_atom_site_aniso_U_13
_atom_site_aniso_U_12
Br01 0.0771(3) 0.0489(3) 0.0563(5) 0.0027(2) 0.0312(3) 0.0037(2)
N002 0.0266(15) 0.052(2) 0.052(3) -0.0024(18) 0.0176(16) -0.0012(13)
N003 0.0268(16) 0.079(3) 0.064(3) 0.001(2) 0.0138(17) 0.0041(17)
C004 0.0236(17) 0.053(2) 0.040(3) 0.004(2) 0.0064(17) 0.0021(15)
C005 0.034(2) 0.059(2) 0.045(3) 0.002(2) 0.0163(19) -0.0011(17)
C006 0.035(2) 0.056(2) 0.050(4) -0.006(2) 0.012(2) 0.0000(17)
C007 0.034(2) 0.076(3) 0.054(4) -0.007(2) 0.016(2) 0.012(2)
C008 0.036(2) 0.063(3) 0.072(4) -0.015(2) 0.014(2) 0.0009(19)
C009 0.032(2) 0.074(3) 0.103(5) -0.011(3) 0.015(2) -0.012(2)
loop_
_atom_type_symbol
_atom_type_description
_atom_type_scat_dispersion_real
_atom_type_scat_dispersion_imag
_atom_type_scat_source
C C 0.0033 0.0016 'International Tables Vol C Tables 4.2.6.8 and 6.1.1.4'
H H 0.0000 0.0000 'International Tables Vol C Tables 4.2.6.8 and 6.1.1.4'
Br Br -0.2901 2.4595 'International Tables Vol C Tables 4.2.6.8 and 6.1.1.4'
N N 0.0061 0.0033 'International Tables Vol C Tables 4.2.6.8 and 6.1.1.4'
loop_
_geom_angle_atom_site_label_1
_geom_angle_atom_site_label_2
_geom_angle_atom_site_label_3
_geom_angle
_geom_angle_site_symmetry_1
_geom_angle_site_symmetry_3
_geom_angle_publ_flag
H00A N002 H00B 109.5 . . ?
H00A N002 H00C 109.5 . . ?
H00B N002 H00C 109.5 . . ?
C005 N002 H00A 109.5 . . ?
C005 N002 H00B 109.5 . . ?
C005 N002 H00C 109.5 . . ?
C009 N003 C007 116.6(4) . . ?
C006 C004 C005 120.8(3) . . ?
C006 C004 C008 118.0(3) . . ?
C008 C004 C005 121.2(4) . . ?
N002 C005 C004 111.5(3) . . ?
N002 C005 H00D 109.3 . . ?
N002 C005 H00E 109.3 . . ?
C004 C005 H00D 109.3 . . ?
C004 C005 H00E 109.3 . . ?
H00D C005 H00E 108.0 . . ?
C004 C006 H006 120.4 . . ?
C004 C006 C007 119.3(4) . . ?
C007 C006 H006 120.4 . . ?
N003 C007 C006 123.7(4) . . ?
N003 C007 H007 118.1 . . ?
C006 C007 H007 118.1 . . ?
C004 C008 H008 120.8 . . ?
C004 C008 C009 118.4(4) . . ?
C009 C008 H008 120.8 . . ?
N003 C009 C008 124.0(4) . . ?
N003 C009 H009 118.0 . . ?
C008 C009 H009 118.0 . . ?
loop_
_geom_bond_atom_site_label_1
_geom_bond_atom_site_label_2
_geom_bond_distance
_geom_bond_site_symmetry_2
_geom_bond_publ_flag
N002 H00A 0.8900 . ?
N002 H00B 0.8900 . ?
N002 H00C 0.8900 . ?
N002 C005 1.467(5) . ?
N003 C007 1.326(5) . ?
N003 C009 1.325(6) . ?
C004 C005 1.508(5) . ?
C004 C006 1.372(5) . ?
C004 C008 1.381(5) . ?
C005 H00D 0.9700 . ?
C005 H00E 0.9700 . ?
C006 H006 0.9300 . ?
C006 C007 1.375(5) . ?
C007 H007 0.9300 . ?
C008 H008 0.9300 . ?
C008 C009 1.383(5) . ?
C009 H009 0.9300 . ?
loop_
_geom_torsion_atom_site_label_1
_geom_torsion_atom_site_label_2
_geom_torsion_atom_site_label_3
_geom_torsion_atom_site_label_4
_geom_torsion
_geom_torsion_site_symmetry_1
_geom_torsion_site_symmetry_2
_geom_torsion_site_symmetry_3
_geom_torsion_site_symmetry_4
_geom_torsion_publ_flag
C004 C006 C007 N003 0.5(7) . . . . ?
C004 C008 C009 N003 1.6(7) . . . . ?
C005 C004 C006 C007 177.7(4) . . . . ?
C005 C004 C008 C009 -178.7(4) . . . . ?
C006 C004 C005 N002 85.8(5) . . . . ?
C006 C004 C008 C009 -0.6(6) . . . . ?
C007 N003 C009 C008 -1.5(7) . . . . ?
C008 C004 C005 N002 -96.2(5) . . . . ?
C008 C004 C006 C007 -0.3(6) . . . . ?
C009 N003 C007 C006 0.4(7) . . . . ?
