#------------------------------------------------------------------------------
#$Date: 2016-02-14 16:26:36 +0200 (Sun, 14 Feb 2016) $
#$Revision: 176435 $
#$URL: svn://www.crystallography.net/cod/cif/2/00/06/2000661.cif $
#------------------------------------------------------------------------------
#
# This file is available in the Crystallography Open Database (COD),
# http://www.crystallography.net/. The original data for this entry
# were provided by IUCr Journals, http://journals.iucr.org/.
#
# The file may be used within the scientific community so long as
# proper attribution is given to the journal article from which the
# data were obtained.
#
data_2000661
loop_
_publ_author_name
'Kalsbeek, N.'
_publ_section_title
;
 Structures of partially deuterated sodium hydrogen succinate at 295
 and 120 K and rubidium hydrogen succinate at 120 K
;
_journal_issue                   8
_journal_name_full               'Acta Crystallographica Section C'
_journal_page_first              1389
_journal_page_last               1394
_journal_paper_doi               10.1107/S0108270191014865
_journal_volume                  48
_journal_year                    1992
_chemical_formula_moiety         'C4 H4 O4,Na1'
_chemical_formula_sum            'C4 H4 Na O4'
_chemical_formula_weight         140.07
_symmetry_cell_setting           monoclinic
_symmetry_space_group_name_H-M   'C 1 2/c 1'
_cell_angle_alpha                90
_cell_angle_beta                 117.33(2)
_cell_angle_gamma                90
_cell_formula_units_Z            4
_cell_length_a                   8.844(2)
_cell_length_b                   10.284(3)
_cell_length_c                   7.349(2)
_cell_volume                     593.8(3)
_diffrn_radiation_type           Mo
_diffrn_radiation_wavelength     0.71073
_exptl_absorpt_coefficient_mu    0.1886
_exptl_crystal_density_diffrn    1.567
_exptl_crystal_F_000             288
_cod_data_source_file            ab0263.cif
_cod_data_source_block           ab0263b
_cod_original_cell_volume        593.8(6)
_cod_original_sg_symbol_H-M      'C 2/c'
_cod_original_formula_sum        'C4 H4 Na1 O4'
_cod_database_code               2000661
loop_
_atom_site_label
_atom_site_fract_x
_atom_site_fract_y
_atom_site_fract_z
_atom_site_U_iso_or_equiv
Na .00000 .42873(3) .75000 .00926(5)
O(1) .20671(5) .26562(4) .81892(5) .02016(8)
O(2) .36504(4) .08953(3) .85843(5) .01083(6)
C(1) .26872(5) .17590(4) .74959(6) .01021(6)
C(2) .21785(6) .18603(5) .52352(6) .01188(8)
H(1) .225(4) .248(3) .949(4) .033(6)
H(2) .0930(10) .1820(10) .449(2) .027(3)
H(3) .2680(10) .1160(10) .4850(10) .018(3)
loop_
_geom_bond_atom_site_label_1
_geom_bond_atom_site_label_2
_geom_bond_distance
C(1) O(1) 1.2917(7)
C(1) O(2) 1.2365(5)
C(1) C(2) 1.5124(6)
