#------------------------------------------------------------------------------
#$Date: 2016-02-19 16:29:56 +0200 (Fri, 19 Feb 2016) $
#$Revision: 176759 $
#$URL: svn://www.crystallography.net/cod/cif/2/00/19/2001926.cif $
#------------------------------------------------------------------------------
#
# This file is available in the Crystallography Open Database (COD),
# http://www.crystallography.net/. The original data for this entry
# were provided by IUCr Journals, http://journals.iucr.org/.
#
# The file may be used within the scientific community so long as
# proper attribution is given to the journal article from which the
# data were obtained.
#
data_2001926
loop_
_publ_author_name
'Streltsova, N. R.'
'Bel'sky, V. K.'
'Voloshin, Y. Z.'
_publ_section_title
;
 Structures of three alicyclic \a-dioximes with a ring size of six to
 eight
;
_journal_issue                   3
_journal_name_full               'Acta Crystallographica Section C'
_journal_page_first              635
_journal_page_last               639
_journal_paper_doi               10.1107/S0108270192011144
_journal_volume                  49
_journal_year                    1993
_chemical_formula_sum            'C6 H10 N2 O2'
_chemical_formula_weight         142.16
_symmetry_cell_setting           orthorhombic
_symmetry_space_group_name_Hall  'P 2c -2b'
_symmetry_space_group_name_H-M   'P b c 21'
_atom_type_scat_source           IntTabIV
_cell_angle_alpha                90.
_cell_angle_beta                 90.
_cell_angle_gamma                90.
_cell_formula_units_Z            4
_cell_length_a                   7.902(2)
_cell_length_b                   12.009(3)
_cell_length_c                   7.474(2)
_cell_measurement_reflns_used    16
_cell_measurement_temperature    298
_cell_measurement_theta_max      28
_cell_measurement_theta_min      23
_cell_volume                     709.2(3)
_diffrn_measurement_device       'Syntex P-1'
_diffrn_measurement_method       \q/2\q
_diffrn_radiation_type           MoK\a
_diffrn_radiation_wavelength     0.71069
_diffrn_reflns_limit_h_max       11
_diffrn_reflns_limit_h_min       0
_diffrn_reflns_limit_k_max       15
_diffrn_reflns_limit_k_min       0
_diffrn_reflns_limit_l_max       10
_diffrn_reflns_limit_l_min       0
_diffrn_reflns_number            726
_diffrn_reflns_theta_max         25
_diffrn_standards_decay_%        .0
_diffrn_standards_interval_count 100
_diffrn_standards_number         3
_exptl_absorpt_coefficient_mu    0.0948
_exptl_absorpt_correction_type   none
_exptl_crystal_colour            Colorless
_exptl_crystal_density_diffrn    1.331
_exptl_crystal_size_max          0.15
_exptl_crystal_size_mid          0.15
_exptl_crystal_size_min          0.15
_refine_diff_density_max         0.21
_refine_ls_extinction_method     none
_refine_ls_goodness_of_fit_obs   1.13
_refine_ls_hydrogen_treatment    refall
_refine_ls_number_parameters     131
_refine_ls_number_reflns         603
_refine_ls_R_factor_obs          0.024
_refine_ls_shift/esd_max         0.382
_refine_ls_structure_factor_coef Fsqd
_refine_ls_weighting_details     'w = 1/[\s^2^(F)+0.00066F^2^]'
_refine_ls_weighting_scheme      calc
_refine_ls_wR_factor_obs         0.027
_reflns_number_observed          603
_reflns_number_total             726
_reflns_observed_criterion       I>=3\s(I)
_cod_data_source_file            vs0102.cif
_cod_data_source_block           vs0102_structure_1_of_3
_cod_depositor_comments
;
The following automatic conversions were performed:

'_refine_ls_weighting_scheme' value '1/[\s^2^(F)+0.00066F^2^]' was
changed to 'calc'. New tag '_refine_ls_weighting_details' was
created. The value of the new tag was set to 'w =
1/[\s^2^(F)+0.00066F^2^]'.

Automatic conversion script
Id: cif_fix_values 3143 2015-03-26 13:38:13Z robertas 
;
_cod_database_code               2001926
loop_
_atom_site_label
_atom_site_fract_x
_atom_site_fract_y
_atom_site_fract_z
_atom_site_U_iso_or_equiv
O(1) .3218(2) .05250(10) -.0239(3) .0480(10)
O(2) .2260(2) .17900(10) .6694(3) .0440(10)
N(1) .2827(2) .09490(10) .1459(3) .0370(10)
N(2) .2723(2) .15530(10) .4912(3) .0350(10)
C(1) .2846(2) .0189(2) .2651(3) .0310(10)
C(2) .2426(2) .0535(2) .4512(3) .0320(10)
C(3) .1683(4) -.0314(2) .5762(4) .0470(10)
C(4) .1330(3) -.1422(2) .4861(4) .0450(10)
C(5) .2874(3) -.1791(2) .3834(4) .0460(10)
C(6) .3158(3) -.1020(2) .2238(4) .0440(10)
H(10) .299(4) .106(3) -.087(6) .090(10)
H(20) .242(3) .254(4) .670(6) .070(10)
H(31) .068(3) .003(2) .629(4) .070(10)
H(32) .240(4) -.038(3) .678(5) .080(10)
H(41) .095(3) -.196(2) .583(4) .060(10)
H(51) .386(4) -.177(2) .467(5) .070(10)
H(61) .433(3) -.111(2) .184(4) .060(10)
H(52) .265(3) -.247(4) .344(5) .070(10)
H(62) .225(4) -.121(3) .139(6) .080(10)
H(42) .034(4) -.134(2) .403(4) .060(10)
loop_
_geom_angle_atom_site_label_1
_geom_angle_atom_site_label_2
_geom_angle_atom_site_label_3
_geom_angle
_geom_angle_publ_flag
O(1) N(1) C(1) 111.8(2) yes
N(1) C(1) C(2) 116.8(2) yes
C(2) C(1) C(6) 119.8(2) yes
N(2) C(2) C(3) 125.1(2) yes
C(2) C(3) C(4) 113.0(2) yes
C(4) C(5) C(6) 109.8(2) yes
O(2) N(2) C(2) 111.4(2) yes
N(1) C(1) C(6) 123.2(2) yes
N(2) C(2) C(1) 116.3(2) yes
C(1) C(2) C(3) 118.6(2) yes
C(3) C(4) C(5) 109.6(2) yes
C(1) C(6) C(5) 113.6(2) yes
loop_
_geom_bond_atom_site_label_1
_geom_bond_atom_site_label_2
_geom_bond_distance
_geom_bond_publ_flag
O(1) N(1) 1.401(3) yes
N(1) C(1) 1.275(3) yes
C(1) C(2) 1.489(3) yes
C(2) C(3) 1.503(3) yes
C(4) C(5) 1.508(4) yes
O(2) N(2) 1.410(3) yes
N(2) C(2) 1.281(2) yes
C(1) C(6) 1.505(3) yes
C(3) C(4) 1.517(3) yes
C(5) C(6) 1.526(4) yes
