#------------------------------------------------------------------------------
#$Date: 2022-10-03 17:40:12 +0300 (Mon, 03 Oct 2022) $
#$Revision: 278324 $
#$URL: file:///home/coder/svn-repositories/cod/cif/2/00/10/2001020.cif $
#------------------------------------------------------------------------------
#
# This file is available in the Crystallography Open Database (COD),
# http://www.crystallography.net/. The original data for this entry
# were provided by IUCr Journals, http://journals.iucr.org/.
#
# The file may be used within the scientific community so long as
# proper attribution is given to the journal article from which the
# data were obtained.
#
data_2001020
loop_
_publ_author_name
'Yamaguchi, K.'
'Matsumura, G.'
'Haga, N.'
'Shudo, K.'
_publ_section_title
;
 Structure of <i>N</i>,<i>N</i>-bis(2,3,4,5,6-pentafluorophenyl)oxamide
;
_journal_issue                   3
_journal_name_full               'Acta Crystallographica Section C'
_journal_page_first              558
_journal_page_last               559
_journal_paper_doi               10.1107/S0108270191009757
_journal_volume                  48
_journal_year                    1992
_chemical_formula_sum            'C14 H2 F10 N2 O2'
_chemical_formula_weight         420.16
_space_group_IT_number           14
_space_group_name_Hall           '-P 2yn'
_space_group_name_H-M_alt        'P 1 21/n 1'
_symmetry_cell_setting           monoclinic
_symmetry_space_group_name_Hall  '-P 2yn'
_symmetry_space_group_name_H-M   'P 1 21/n 1'
_cell_angle_alpha                90
_cell_angle_beta                 111.680(10)
_cell_angle_gamma                90
_cell_formula_units_Z            2
_cell_length_a                   14.2060(10)
_cell_length_b                   4.9900(10)
_cell_length_c                   10.964(3)
_cell_volume                     722.2(3)
_diffrn_radiation_type           Cu
_diffrn_radiation_wavelength     1.54050
_exptl_absorpt_coefficient_mu    1.974
_exptl_crystal_density_diffrn    1.932
_exptl_crystal_F_000             412
_cod_data_source_file            as0521.cif
_cod_data_source_block           as0521a
_cod_original_cell_volume        722.30(10)
_cod_database_code               2001020
loop_
_space_group_symop_id
_space_group_symop_operation_xyz
1 x,y,z
2 -x+1/2,y+1/2,-z+1/2
3 -x,-y,-z
4 x+1/2,-y+1/2,z+1/2
loop_
_atom_site_label
_atom_site_fract_x
_atom_site_fract_y
_atom_site_fract_z
N(1) .95030(10) .3442(3) .34230(10)
C(2) .97360(10) .5469(3) .42890(10)
O(3) .95610(10) .7815(2) .40180(10)
C(4) .90030(10) .3854(3) .20650(10)
C(5) .93280(10) .5723(4) .13750(10)
C(6) .88040(10) .6168(4) .00580(10)
C(7) .79620(10) .4688(4) -.06120(10)
C(8) .76520(10) .2749(4) .00350(10)
C(9) .81570(10) .2373(3) .13620(10)
F(10) 1.01840(10) .7110(2) .19660(10)
F(11) .91310(10) .8025(3) -.05760(10)
F(12) .74540(10) .5122(3) -.18870(10)
F(13) .68480(10) .1209(3) -.06180(10)
F(14) .78160(10) .0533(2) .19770(10)
H(1) .9610(10) .180(5) .373(2)
loop_
_geom_bond_atom_site_label_1
_geom_bond_atom_site_label_2
_geom_bond_distance
N(1) C(2) 1.342(2)
C(2) O(3) 1.211(2)
C(5) F(10) 1.339(2)
C(6) F(11) 1.340(2)
C(7) F(12) 1.333(2)
C(8) F(13) 1.343(2)
C(9) F(14) 1.333(2)
N(1) C(4) 1.408(2)
C(4) C(5) 1.383(3)
C(5) C(6) 1.376(2)
C(6) C(7) 1.366(2)
C(7) C(8) 1.365(3)
C(8) C(9) 1.377(2)
C(9) C(4) 1.378(2)
