#------------------------------------------------------------------------------
#$Date: 2018-06-14 04:32:00 +0300 (Thu, 14 Jun 2018) $
#$Revision: 208360 $
#$URL: file:///home/coder/svn-repositories/cod/cif/2/00/19/2001949.cif $
#------------------------------------------------------------------------------
#
# This file is available in the Crystallography Open Database (COD),
# http://www.crystallography.net/. The original data for this entry
# were provided by IUCr Journals, http://journals.iucr.org/.
#
# The file may be used within the scientific community so long as
# proper attribution is given to the journal article from which the
# data were obtained.
#
data_2001949
loop_
_publ_author_name
'Barrio, C.'
'Garc\'ia-Granda, S.'
'G\'omez-Beltr\'an, F.'
_publ_section_title
;
 Structures of 1,2,3,4-benzenetetracarboxylic acid and
 1,2,3,5-benzenetetracarboxylic acid dihydrate
;
_journal_issue                   2
_journal_name_full               'Acta Crystallographica Section C'
_journal_page_first              253
_journal_page_last               257
_journal_paper_doi               10.1107/S0108270192006097
_journal_volume                  49
_journal_year                    1993
_chemical_formula_moiety         'C10 H6 O8,2(H2 O1)'
_chemical_formula_sum            'C10 H10 O10'
_chemical_formula_weight         290.2
_space_group_crystal_system      triclinic
_space_group_IT_number           2
_space_group_name_Hall           '-P 1'
_space_group_name_H-M_alt        'P -1'
_cell_angle_alpha                94.80(10)
_cell_angle_beta                 100.60(10)
_cell_angle_gamma                93.63(9)
_cell_formula_units_Z            2
_cell_length_a                   5.845(4)
_cell_length_b                   7.828(6)
_cell_length_c                   13.310(10)
_cell_volume                     594.6(8)
_diffrn_radiation_type           'Mo K\a'
_diffrn_radiation_wavelength     0.71073
_exptl_absorpt_coefficient_mu    0.141
_exptl_crystal_density_diffrn    1.62
_exptl_crystal_F_000             300
_cod_data_source_file            hu1002.cif
_cod_data_source_block           hu1002_structure_2_of_2
_cod_depositor_comments
;
 Updating space group information and adding the symmetry operation list.

 Antanas Vaitkus,
 2018-06-14
;
_cod_original_cell_volume        594.6(9)
_cod_database_code               2001949
loop_
_space_group_symop_id
_space_group_symop_operation_xyz
1 x,y,z
2 -x,-y,-z
loop_
_atom_site_label
_atom_site_fract_x
_atom_site_fract_y
_atom_site_fract_z
_atom_site_U_iso_or_equiv
C(1) .3983(4) .796(3) .1929(2) .0213(6)
C(2) .5709(3) .7619(3) .2756(2) .0212(6)
C(3) .5525(4) .6031(3) .3169(2) .0236(6)
C(4) .3594(4) .4856(3) .2804(2) .026(7)
C(5) .1853(4) .5242(3) .2007(2) .0228(6)
C(6) .2080(4) .6769(3) .1561(2) .0235(6)
C(11) .4122(4) .9626(3) .1467(2) .0252(7)
C(21) .7655(4) .8973(3) .3247(2) .0235(6)
C(31) .7433(4) .5570(3) .3993(2) .0293(7)
C(51) -.0307(4) .4072(3) .1648(2) .0283(7)
O(11) .2486(3) .9728(2) .06560(10) .0399(6)
O(12) .5606(3) 1.0786(3) .1806(2) .0446(6)
O(21) .9476(3) .8986(3) .2817(2) .0351(6)
O(22) .7442(3) .9946(2) .39830(10) .0332(6)
O(31) .7069(4) .4073(3) .4311(2) .0647(9)
O(32) .9175(4) .6513(3) .4320(3) .0610(8)
O(51) -.0288(4) .2644(3) .2090(2) .0586(8)
O(52) -.1940(3) .4416(2) .1008(2) .0400(6)
O(7) .3460(4) .2770(3) .0078(2) .0430(7)
O(8) .2822(3) .0990(3) .3960(2) .0401(7)
H(4) .344(3) .381(4) .306(2) ?
H(6) .087(6) .696(4) .099(3) ?
H(11) .296(8) 1.091(6) .041(3) ?
H(21) 1.067(8) .976(6) .321(3) ?
H(31) .8412(4) .4035(3) .4503(2) ?
H(51) -.192(7) .214(5) .191(3) ?
H(71) .289(6) .363(5) -.036(3) ?
H(72) .490(10) .309(7) .035(4) ?
H(81) .440(8) .087(6) .397(3) ?
H(82) .261(8) .066(6) .458(4) ?
loop_
_geom_angle_atom_site_label_1
_geom_angle_atom_site_label_2
_geom_angle_atom_site_label_3
_geom_angle
C(1) C(2) C(3) 118.9(2)
C(1) C(6) C(5) 120.7(2)
C(2) C(1) C(6) 120.0(2)
C(2) C(3) C(4) 120.6(2)
C(3) C(4) C(5) 119.8(2)
C(4) C(5) C(6) 119.9(2)
C(1) C(2) C(21) 121.0(2)
C(2) C(1) C(11) 120.5(2)
C(2) C(3) C(31) 120.2(2)
C(3) C(2) C(21) 120.0(2)
C(4) C(3) C(31) 119.3(2)
C(4) C(5) C(51) 121.1(2)
C(6) C(1) C(11) 119.5(2)
C(1) C(6) H(6) 122(2)
C(3) C(4) H(4) 121(2)
C(5) C(4) H(4) 119(2)
C(5) C(6) H(6) 117(2)
C(11) O(11) H(11) 103(3)
C(6) C(5) C(51) 118.9(2)
C(1) C(11) O(11) 114.1(2)
C(1) C(11) O(12) 123.2(2)
C(2) C(21) O(21) 114.5(2)
C(2) C(21) O(22) 120.6(2)
C(3) C(31) O(31) 114.5(2)
C(3) C(31) O(32) 122.3(2)
C(5) C(51) O(51) 113.6(2)
C(5) C(51) O(52) 123.3(2)
O(11) C(11) O(12) 122.8(2)
O(21) C(21) O(22) 125.0(2)
O(31) C(31) O(32) 123.2(2)
O(51) C(51) O(52) 123.1(2)
C(21) O(21) H(21) 110(3)
C(31) O(31) H(31) 98(3)
C(51) O(51) H(51) 104(2)
H(71) O(7) H(72) 107(4)
H(81) O(8) H(82) 103(4)
loop_
_geom_bond_atom_site_label_1
_geom_bond_atom_site_label_2
_geom_bond_distance
C(4) H(4) 0.92(3)
C(6) H(6) 0.96(4)
O(11) H(11) 1.03(5)
O(21) H(21) 0.92(5)
C(1) C(2) 1.405(3)
C(1) C(6) 1.393(3)
C(2) C(3) 1.407(3)
C(3) C(4) 1.395(3)
C(4) C(5) 1.395(3)
C(5) C(6) 1.388(3)
O(31) H(31) 0.78(4)
O(51) H(51) 0.98(4)
O(7) H(72) 0.83(6)
C(1) C(11) 1.491(3)
C(2) C(21) 1.517(3)
C(3) C(31) 1.498(3)
C(5) C(51) 1.489(3)
C(11) O(11) 1.315(3)
C(11) O(12) 1.211(3)
O(7) H(71) 0.97(4)
O(8) H(81) 0.92(5)
O(8) H(82) 0.90(6)
C(21) O(21) 1.298(3)
C(21) O(22) 1.219(3)
C(31) O(31) 1.297(3)
C(31) O(32) 1.208(3)
C(51) O(51) 1.306(3)
C(51) O(52) 1.217(3)
