#------------------------------------------------------------------------------
#$Date: 2016-02-14 16:26:36 +0200 (Sun, 14 Feb 2016) $
#$Revision: 176435 $
#$URL: svn://www.crystallography.net/cod/cif/2/00/20/2002034.cif $
#------------------------------------------------------------------------------
#
# This file is available in the Crystallography Open Database (COD),
# http://www.crystallography.net/. The original data for this entry
# were provided by IUCr Journals, http://journals.iucr.org/.
#
# The file may be used within the scientific community so long as
# proper attribution is given to the journal article from which the
# data were obtained.
#
data_2002034
loop_
_publ_author_name
'Caira, M. R.'
'Nassimbeni, L. R.'
'Stephen, A. M.'
'Van Schalkwyk, T. G. D.'
_publ_section_title
;
 Geometry of the iminium moiety. III. Structures of a chiral form of
 bis[4,5-dihydro-3,5,5-trimethyl-1-(3'-methylcyclopentylidene)pyrazolium]
 hexachlorostannate and the racemate
;
_journal_issue                   1
_journal_name_full               'Acta Crystallographica Section C'
_journal_page_first              22
_journal_page_last               26
_journal_paper_doi               10.1107/S0108270192005158
_journal_volume                  49
_journal_year                    1993
_chemical_formula_moiety         'C24 H42 N4,Cl6 Sn1'
_chemical_formula_sum            'C24 H42 Cl6 N4 Sn'
_chemical_formula_weight         718.0
_symmetry_cell_setting           monoclinic
_symmetry_space_group_name_H-M   'P 1 21 1'
_cell_angle_alpha                90
_cell_angle_beta                 102.03(2)
_cell_angle_gamma                90
_cell_formula_units_Z            2
_cell_length_a                   9.998(2)
_cell_length_b                   10.6490(10)
_cell_length_c                   15.637(4)
_cell_volume                     1628.3(6)
_diffrn_radiation_type           Mo
_diffrn_radiation_wavelength     0.71069
_exptl_absorpt_coefficient_mu    1.30
_exptl_crystal_density_diffrn    1.465
_exptl_crystal_density_meas      1.480(10)
_exptl_crystal_F_000             732
_cod_data_source_file            ge0308.cif
_cod_data_source_block           ge0308_structure_2_of_2
_cod_original_cell_volume        1628.3(3)
_cod_original_sg_symbol_H-M      'P 21'
_cod_original_formula_sum        'C24 H42 Cl6 N4 Sn1'
_cod_database_code               2002034
loop_
_atom_site_label
_atom_site_fract_x
_atom_site_fract_y
_atom_site_fract_z
_atom_site_U_iso_or_equiv
Sn(1) .2439 0 .24820(10) .0360(10)
Cl(1) .4777(2) .0300(5) .3283(2) .060(2)
Cl(2) .1608(3) .1355(5) .3503(3) .0650(10)
Cl(3) .2223(3) -.1835(6) .3355(2) .0670(10)
Cl(4) .0122(2) -.0326(5) .1669(2) .0560(10)
Cl(5) .3305(3) -.1327(6) .1438(3) .072(2)
Cl(6) .2687(3) .1838(5) .1594(2) .0600(10)
N(1) .7443(8) -.1046(10) .4727(6) .047(4)
N(2) .7218(9) -.2029(10) .4112(5) .051(4)
N(15) -.2524(8) .1115(9) .0231(5) .040(4)
N(16) -.2394(9) .2136(10) .0820(6) .059(4)
C(3) .8020(18) -.1829(16) .3594(11) .099(8)
C(4) .8915(19) -.0728(16) .3754(11) .119(9)
C(5) .8633(9) -.0214(13) .4605(7) .056(5)
C(6) .794(3) -.266(2) .2812(12) .179(15)
C(7) .8240(14) .1163(14) .4498(11) .084(7)
C(8) .9775(13) -.036(3) .5384(13) .164(13)
C(9) .6621(9) -.0959(11) .5266(7) .050(4)
C(10) .5475(9) -.1856(12) .5268(7) .051(4)
C(11) .4796(10) -.1377(13) .5995(8) .062(4)
C(12) .551(3) -.023(3) .637(2) .245(18)
C(13) .6721(11) .0017(16) .5985(7) .069(5)
C(14A) .358(2) -.055(3) .5691(19) .088(11)
C(14B) .518(3) .063(3) .7056(17) .114(16)
C(17) -.3239(11) .1932(11) .1317(7) .053(4)
C(18) -.4022(14) .0785(16) .1131(10) .095(8)
C(19) -.3762(9) .0294(11) .0275(8) .058(5)
C(20) -.3396(15) .2823(15) .2015(9) .077(6)
C(21) -.3402(13) -.1080(12) .0325(10) .069(5)
C(22) -.4920(12) .0610(15) -.0468(9) .088(6)
C(23) -.1653(8) .1018(10) -.0254(5) .037(4)
C(24) -.0460(9) .1859(12) -.0184(7) .054(4)
C(25) .0424(10) .1249(13) -.0781(8) .061(5)
C(26) -.0622(11) .0582(12) -.1447(6) .056(4)
C(27) -.1596(9) .0021(14) -.0908(7) .061(4)
C(28) -.0013(13) -.0449(11) -.1902(8) .064(5)
loop_
_geom_angle_atom_site_label_1
_geom_angle_atom_site_label_2
_geom_angle_atom_site_label_3
_geom_angle
N(1) C(5) C(4) 101.1(10)
C(4) C(5) C(8) 115.3(11)
C(4) C(5) C(7) 110.0(11)
N(1) C(5) C(8) 108.8(11)
N(1) C(5) C(7) 112.6(9)
C(7) C(5) C(8) 108.9(13)
N(1) C(9) C(13) 125.3(10)
N(1) C(9) C(10) 123.6(10)
C(10) C(9) C(13) 111.6(9)
C(9) C(10) C(11) 104.4(9)
C(10) C(11) C(14A) 114.7(14)
C(10) C(11) C(12) 108.6(14)
C(12) C(11) C(14A) 86.0(17)
C(11) C(12) C(14B) 129.(2)
C(11) C(12) C(13) 110.9(19)
C(13) C(12) C(14B) 120.(2)
C(9) C(13) C(12) 104.1(14)
Cl(5) Sn(1) Cl(6) 89.5(2)
Cl(4) Sn(1) Cl(6) 90.90(10)
Cl(4) Sn(1) Cl(5) 90.00(10)
Cl(3) Sn(1) Cl(6) 179.10(10)
Cl(3) Sn(1) Cl(5) 89.7(2)
Cl(3) Sn(1) Cl(4) 89.50(10)
Cl(2) Sn(1) Cl(6) 89.2(2)
Cl(2) Sn(1) Cl(5) 178.7(2)
Cl(2) Sn(1) Cl(4) 90.60(10)
Cl(2) Sn(1) Cl(3) 91.50(10)
Cl(1) Sn(1) Cl(6) 89.10(10)
Cl(1) Sn(1) Cl(4) 179.00(10)
Cl(1) Sn(1) Cl(3) 90.30(10)
Cl(1) Sn(1) Cl(2) 90.40(10)
C(5) N(1) C(9) 130.9(10)
N(2) N(1) C(9) 117.8(9)
N(2) N(1) C(5) 111.3(8)
N(1) N(2) C(3) 106.2(11)
N(2) C(3) C(6) 119.3(17)
N(2) C(3) C(4) 118.0(15)
C(4) C(3) C(6) 122.6(16)
C(3) C(4) C(5) 102.7(13)
C(19) N(15) C(23) 129.9(9)
N(16) N(15) C(23) 118.6(9)
N(16) N(15) C(19) 112.1(8)
N(15) N(16) C(17) 106.4(9)
N(16) C(17) C(20) 121.6(11)
N(16) C(17) C(18) 114.8(11)
C(18) C(17) C(20) 123.6(11)
C(17) C(18) C(19) 106.6(12)
N(15) C(19) C(18) 97.8(9)
C(18) C(19) C(22) 111.2(12)
C(18) C(19) C(21) 112.0(11)
N(15) C(19) C(22) 109.8(9)
N(15) C(19) C(21) 111.8(9)
C(21) C(19) C(22) 113.4(11)
N(15) C(23) C(27) 126.7(9)
N(15) C(23) C(24) 123.4(9)
C(24) C(23) C(27) 109.5(8)
C(23) C(24) C(25) 104.7(9)
C(24) C(25) C(26) 102.4(9)
C(25) C(26) C(28) 112.6(9)
C(25) C(26) C(27) 103.6(8)
C(27) C(26) C(28) 110.0(10)
C(23) C(27) C(26) 102.8(10)
loop_
_geom_bond_atom_site_label_1
_geom_bond_atom_site_label_2
_geom_bond_distance
Sn(1) Cl(1) 2.433(2)
Sn(1) Cl(2) 2.424(5)
Sn(1) Cl(3) 2.422(6)
Sn(1) Cl(4) 2.423(2)
Sn(1) Cl(5) 2.450(5)
Sn(1) Cl(6) 2.442(5)
N(1) N(2) 1.408(14)
N(1) C(5) 1.527(15)
N(1) C(9) 1.329(15)
N(2) C(3) 1.27(2)
C(3) C(4) 1.47(3)
C(3) C(6) 1.50(3)
C(4) C(5) 1.52(2)
C(5) C(7) 1.52(2)
C(5) C(8) 1.494(18)
C(9) C(10) 1.493(15)
C(9) C(13) 1.520(18)
C(10) C(11) 1.528(17)
C(11) C(12) 1.47(3)
C(12) C(13) 1.49(4)
C(11) C(14A) 1.50(3)
C(12) C(14B) 1.51(5)
N(15) N(16) 1.413(14)
N(15) C(19) 1.529(14)
N(15) C(23) 1.273(12)
N(16) C(17) 1.280(16)
C(17) C(18) 1.45(2)
C(17) C(20) 1.479(19)
C(18) C(19) 1.51(2)
C(19) C(21) 1.505(17)
C(19) C(22) 1.495(15)
C(23) C(24) 1.477(14)
C(23) C(27) 1.484(16)
C(24) C(25) 1.555(17)
C(25) C(26) 1.493(15)
C(26) C(27) 1.536(16)
C(26) C(28) 1.504(18)
