#------------------------------------------------------------------------------
#$Date: 2022-09-28 18:08:17 +0300 (Wed, 28 Sep 2022) $
#$Revision: 278247 $
#$URL: file:///home/coder/svn-repositories/cod/cif/2/00/20/2002095.cif $
#------------------------------------------------------------------------------
#
# This file is available in the Crystallography Open Database (COD),
# http://www.crystallography.net/. The original data for this entry
# were provided by IUCr Journals, http://journals.iucr.org/.
#
# The file may be used within the scientific community so long as
# proper attribution is given to the journal article from which the
# data were obtained.
#
data_2002095
loop_
_publ_author_name
'Rizvi, S. K.'
'Hossain, M. B.'
'van der Helm, D.'
_publ_section_title
;
 Structures of perfragilin A and B
;
_journal_issue                   1
_journal_name_full               'Acta Crystallographica Section C'
_journal_page_first              151
_journal_page_last               154
_journal_paper_doi               10.1107/S0108270192008709
_journal_volume                  49
_journal_year                    1993
_chemical_formula_sum            'C12 H11 N O3 S2'
_chemical_formula_weight         281.3
_space_group_IT_number           2
_space_group_name_Hall           '-P 1'
_space_group_name_H-M_alt        'P -1'
_symmetry_cell_setting           triclinic
_symmetry_space_group_name_Hall  '-P 1'
_symmetry_space_group_name_H-M   'P -1'
_atom_type_scat_source           SHELX76
_cell_angle_alpha                111.22(2)
_cell_angle_beta                 99.70(2)
_cell_angle_gamma                102.24(2)
_cell_formula_units_Z            2
_cell_length_a                   6.915(2)
_cell_length_b                   9.860(3)
_cell_length_c                   9.924(3)
_cell_measurement_reflns_used    48
_cell_measurement_temperature    163
_cell_measurement_theta_max      42
_cell_measurement_theta_min      22
_cell_volume                     593.7(3)
_diffrn_measurement_device       CAD-4
_diffrn_measurement_method       \w-2\q
_diffrn_radiation_type           CuK\a
_diffrn_radiation_wavelength     1.54178
_diffrn_reflns_limit_h_max       8
_diffrn_reflns_limit_h_min       0
_diffrn_reflns_limit_k_max       12
_diffrn_reflns_limit_k_min       -12
_diffrn_reflns_limit_l_max       12
_diffrn_reflns_limit_l_min       -12
_diffrn_reflns_number            2408
_diffrn_reflns_theta_max         75
_diffrn_standards_decay_%        3.6
_diffrn_standards_interval_time  120
_diffrn_standards_number         3
_exptl_absorpt_coefficient_mu    3.94
_exptl_crystal_colour            Pink
_exptl_crystal_density_diffrn    1.573
_exptl_crystal_description       'Thick plate'
_exptl_crystal_size_max          0.22
_exptl_crystal_size_mid          0.16
_exptl_crystal_size_min          0.10
_refine_diff_density_max         0.49
_refine_diff_density_min         0.42
_refine_ls_goodness_of_fit_obs   2.41
_refine_ls_hydrogen_treatment    refall
_refine_ls_number_parameters     207
_refine_ls_number_reflns         2267
_refine_ls_R_factor_obs          0.039
_refine_ls_shift/esd_max         0.06
_refine_ls_structure_factor_coef F
_refine_ls_weighting_details     'w = 1/\s^2^(F~o~)'
_refine_ls_weighting_scheme      calc
_refine_ls_wR_factor_obs         0.055
_reflns_number_observed          2267
_reflns_number_total             2408
_reflns_observed_criterion       I>=2\s(I)
_cod_data_source_file            st1006.cif
_cod_data_source_block           st1006_structure_2_of_2
_cod_depositor_comments
;
The following automatic conversions were performed:

'_refine_ls_weighting_scheme' value '1/\s^2^(F~o~)' was changed to
'calc'. New tag '_refine_ls_weighting_details' was created. The value
of the new tag was set to 'w = 1/\s^2^(F~o~)'.

Automatic conversion script
Id: cif_fix_values 3143 2015-03-26 13:38:13Z robertas 
;
_cod_original_cell_volume        593.7
_cod_original_formula_sum        'C12 H11 N1 O3 S2'
_cod_database_code               2002095
loop_
_space_group_symop_id
_space_group_symop_operation_xyz
1 x,y,z
2 -x,-y,-z
loop_
_atom_site_label
_atom_site_fract_x
_atom_site_fract_y
_atom_site_fract_z
_atom_site_U_iso_or_equiv
S(14) -.00899(7) .71594(6) .65302(6) .0351(2)
S(16) .38491(6) .91518(5) .64515(5) .0266(2)
O(12) .6592(2) .59720(10) 1.27630(10) .0282(5)
O(13) .0603(2) .63030(10) .92550(10) .0284(5)
O(17) .7441(2) .97540(10) .89160(10) .0272(5)
N(2) .8051(2) .75630(10) 1.17730(10) .0220(5)
C(1) .7895(3) .8252(2) 1.0817(2) .0214(6)
C(3) .6332(3) .6604(2) 1.1907(2) .0225(6)
C(4) .4376(3) .6440(2) 1.0984(2) .0218(6)
C(5) .2175(2) .6903(2) .9042(2) .0207(6)
C(6) .2170(2) .7463(2) .7826(2) .0210(6)
C(7) .3938(2) .8353(2) .7773(2) .0207(6)
C(8) .5946(2) .8799(2) .8880(2) .0198(6)
C(9) .6045(2) .8052(2) .9913(2) .0192(5)
C(10) .4237(2) .7124(2) 1.0007(2) .0189(6)
C(11) 1.0075(3) .7764(2) 1.2694(2) .0317(7)
C(15) -.1971(3) .5511(3) .6365(3) .0397(8)
C(18) .5628(4) .8416(2) .5468(2) .0332(8)
H1 .908(4) .890(3) 1.086(3) .031(6)
H4 .313(4) .577(3) 1.104(3) .034(6)
H11A 1.112(5) .839(3) 1.254(3) .052(8)
H11B 1.029(4) .676(3) 1.243(3) .049(7)
H11C 1.005(4) .832(3) 1.381(3) .059(8)
H15B -.299(4) .525(3) .535(3) .045(7)
H15C -.257(5) .569(3) .718(4) .062(9)
H15A -.145(4) .469(3) .620(3) .045(7)
H18A .701(4) .898(3) .616(3) .054(8)
H18B .515(5) .726(4) .496(5) .090(10)
H18C .557(5) .872(3) .472(4) .061(8)
loop_
_geom_angle_atom_site_label_1
_geom_angle_atom_site_label_2
_geom_angle_atom_site_label_3
_geom_angle
C(4) C(10) C(9) 120.00(10)
C(5) C(6) C(7) 120.70(10)
C(5) C(10) C(9) 120.05(8)
C(6) S(14) C(15) 108.90(7)
C(6) C(5) C(10) 116.80(10)
C(6) C(5) O(13) 122.40(10)
C(6) C(7) C(8) 122.82(9)
C(6) C(7) S(16) 119.80(10)
C(7) C(8) C(9) 116.90(10)
C(7) C(8) O(17) 120.90(9)
C(8) C(7) S(16) 117.20(10)
C(8) C(9) C(10) 121.30(10)
C(9) C(8) O(17) 122.20(10)
C(10) C(5) O(13) 120.85(9)
C(7) S(16) C(18) 101.13(6)
S(14) C(6) C(5) 122.00(10)
S(14) C(6) C(7) 117.10(8)
C(1) N(2) C(3) 122.80(10)
C(1) N(2) C(11) 120.10(10)
C(1) C(9) C(8) 119.80(10)
C(1) C(9) C(10) 118.89(9)
N(2) C(3) C(4) 115.25(8)
N(2) C(3) O(12) 119.40(10)
C(3) N(2) C(11) 117.12(9)
C(3) C(4) C(10) 121.50(10)
C(4) C(3) O(12) 125.40(10)
C(4) C(10) C(5) 120.00(10)
loop_
_geom_bond_atom_site_label_1
_geom_bond_atom_site_label_2
_geom_bond_distance
S(16) C(7) 1.7570(10)
S(16) C(18) 1.806(2)
S(14) C(6) 1.741(2)
S(14) C(15) 1.789(2)
C(1) N(2) 1.3550(10)
C(1) C(9) 1.363(2)
N(2) C(3) 1.412(2)
C(3) C(4) 1.441(2)
C(3) O(12) 1.2340(10)
C(4) C(10) 1.3690(10)
C(5) C(6) 1.4970(10)
C(5) C(10) 1.501(2)
C(5) O(13) 1.213(2)
C(6) C(7) 1.367(2)
C(7) C(8) 1.485(2)
C(8) C(9) 1.4640(10)
C(8) O(17) 1.228(2)
C(9) C(10) 1.423(2)
N(2) C(11) 1.467(2)
