#------------------------------------------------------------------------------
#$Date: 2018-06-14 04:32:00 +0300 (Thu, 14 Jun 2018) $
#$Revision: 208360 $
#$URL: file:///home/coder/svn-repositories/cod/cif/2/00/20/2002000.cif $
#------------------------------------------------------------------------------
#
# This file is available in the Crystallography Open Database (COD),
# http://www.crystallography.net/. The original data for this entry
# were provided by IUCr Journals, http://journals.iucr.org/.
#
# The file may be used within the scientific community so long as
# proper attribution is given to the journal article from which the
# data were obtained.
#
data_2002000
loop_
_publ_author_name
'Fl\"orke, U.'
'Haupt, H.-J.'
_publ_section_title
;
 Dimanganese octacarbonyl compounds with bridging cyclohexylphosphanes
;
_journal_issue                   2
_journal_name_full               'Acta Crystallographica Section C'
_journal_page_first              374
_journal_page_last               376
_journal_paper_doi               10.1107/S0108270192010631
_journal_volume                  49
_journal_year                    1993
_chemical_formula_sum            'C20 H24 Mn2 O8 P2'
_chemical_formula_weight         564.2
_chemical_name_systematic
;
Bis(mu-cyclohexylphosphanido)-octacarbonyl-dimanganese
;
_space_group_crystal_system      triclinic
_space_group_IT_number           2
_space_group_name_Hall           '-P 1'
_space_group_name_H-M_alt        'P -1'
_cell_angle_alpha                103.120(10)
_cell_angle_beta                 115.150(10)
_cell_angle_gamma                102.190(10)
_cell_formula_units_Z            1
_cell_length_a                   8.5550(10)
_cell_length_b                   8.6040(10)
_cell_length_c                   9.8690(10)
_cell_measurement_reflns_used    30
_cell_measurement_temperature    293
_cell_measurement_theta_max      17
_cell_measurement_theta_min      7
_cell_volume                     600.14(15)
_diffrn_measurement_device       'Siemens R3m/V diffractometer'
_diffrn_measurement_method       \w-2\q
_diffrn_radiation_monochromator  graphite
_diffrn_radiation_type           'Molybdenum K\a'
_diffrn_radiation_wavelength     0.71073
_diffrn_reflns_av_R_equivalents  0.013
_diffrn_reflns_limit_h_max       11
_diffrn_reflns_limit_h_min       0
_diffrn_reflns_limit_k_max       11
_diffrn_reflns_limit_k_min       -11
_diffrn_reflns_limit_l_max       12
_diffrn_reflns_limit_l_min       -12
_diffrn_reflns_number            4273
_diffrn_reflns_theta_max         27.5
_diffrn_standards_decay_%        0
_diffrn_standards_interval_count 400
_diffrn_standards_number         3
_exptl_absorpt_coefficient_mu    1.18
_exptl_absorpt_correction_T_max  0.94
_exptl_absorpt_correction_T_min  0.80
_exptl_absorpt_correction_type   'empirical via \y-scans'
_exptl_crystal_colour            yellow
_exptl_crystal_density_diffrn    1.561
_exptl_crystal_description       prism
_exptl_crystal_F_000             288
_exptl_crystal_size_max          0.33
_exptl_crystal_size_mid          0.27
_exptl_crystal_size_min          0.15
_refine_diff_density_max         0.23
_refine_diff_density_min         -0.22
_refine_ls_goodness_of_fit_obs   1.520
_refine_ls_matrix_type           full
_refine_ls_number_parameters     148
_refine_ls_number_reflns         2366
_refine_ls_R_factor_obs          0.024
_refine_ls_shift/esd_max         0.001
_refine_ls_structure_factor_coef F
_refine_ls_weighting_details     'w = 1/[\S^2^(F)+0.0001F^2^]'
_refine_ls_weighting_scheme      calc
_refine_ls_wR_factor_obs         0.028
_reflns_number_observed          2366
_reflns_number_total             2765
_reflns_observed_criterion       F>4\s(F)
_cod_data_source_file            na1017.cif
_cod_data_source_block           PHCyc
_cod_depositor_comments
;
 Updating space group information and adding the symmetry operation list.

 Antanas Vaitkus,
 2018-06-14

The following automatic conversions were performed:

'_refine_ls_weighting_scheme' value 'calc w =
1/[\S^2^(F)+0.0001F^2^]' was changed to 'calc'. New tag
'_refine_ls_weighting_details' was created. The value of the new tag
was set to 'w = 1/[\S^2^(F)+0.0001F^2^]'.

Automatic conversion script
Id: cif_fix_values 3143 2015-03-26 13:38:13Z robertas 
;
_cod_original_cell_volume        600.1(2)
_cod_database_code               2002000
loop_
_space_group_symop_id
_space_group_symop_operation_xyz
1 x,y,z
2 -x,-y,-z
loop_
_atom_site_aniso_label
_atom_site_aniso_U_11
_atom_site_aniso_U_22
_atom_site_aniso_U_33
_atom_site_aniso_U_12
_atom_site_aniso_U_13
_atom_site_aniso_U_23
_atom_site_aniso_type_symbol
Mn1 0.0300(10) 0.0320(10) 0.0330(10) 0.0170(10) 0.0160(10) 0.0150(10) Mn
P1 0.0280(10) 0.0290(10) 0.0320(10) 0.0130(10) 0.0150(10) 0.0120(10) P
C1 0.0420(10) 0.0440(10) 0.0440(10) 0.0220(10) 0.0200(10) 0.0210(10) C
O1 0.0650(10) 0.0770(10) 0.0380(10) 0.0220(10) 0.0150(10) 0.0310(10) O
C2 0.0340(10) 0.0430(10) 0.0400(10) 0.0200(10) 0.0170(10) 0.0180(10) C
O2 0.0610(10) 0.0440(10) 0.0700(10) 0.0330(10) 0.0320(10) 0.0230(10) O
C3 0.0370(10) 0.0380(10) 0.0470(10) 0.0200(10) 0.0180(10) 0.0160(10) C
O3 0.0600(10) 0.0730(10) 0.0860(10) 0.0310(10) 0.0500(10) 0.0370(10) O
C4 0.0410(10) 0.0390(10) 0.0440(10) 0.0210(10) 0.0230(10) 0.0160(10) C
O4 0.0670(10) 0.0710(10) 0.0860(10) 0.0310(10) 0.0560(10) 0.0360(10) O
C11 0.0280(10) 0.0370(10) 0.0350(10) 0.0120(10) 0.0150(10) 0.0110(10) C
C12 0.0330(10) 0.0500(10) 0.0470(10) 0.0230(10) 0.0120(10) 0.0140(10) C
C13 0.0320(10) 0.0650(10) 0.0560(10) 0.0210(10) 0.0120(10) 0.0170(10) C
C14 0.0310(10) 0.0560(10) 0.0460(10) 0.0100(10) 0.0130(10) 0.0050(10) C
C15 0.0400(10) 0.0540(10) 0.0530(10) 0.0240(10) 0.0150(10) 0.0010(10) C
C16 0.0330(10) 0.0430(10) 0.0480(10) 0.0230(10) 0.0110(10) 0.0080(10) C
loop_
_atom_site_label
_atom_site_fract_x
_atom_site_fract_y
_atom_site_fract_z
_atom_site_U_iso_or_equiv
_atom_site_thermal_displace_type
_atom_site_type_symbol
Mn1 0.07900(10) 0.90460(10) 0.15670(10) 0.0320(10) Uani Mn
P1 0.14100(10) 1.16710(10) 0.11660(10) 0.0300(10) Uani P
C1 0.2469(3) 0.9904(2) 0.3707(2) 0.0430(10) Uani C
O1 0.3427(2) 1.0406(2) 0.5062(2) 0.0570(10) Uani O
C2 0.0171(2) 0.6905(2) 0.1621(2) 0.0390(10) Uani C
O2 -0.0128(2) 0.5589(2) 0.1708(2) 0.0570(10) Uani O
C3 0.2430(3) 0.8615(2) 0.0911(2) 0.0400(10) Uani C
O3 0.3429(2) 0.8342(2) 0.0493(2) 0.0720(10) Uani O
C4 -0.0904(3) 0.9630(2) 0.2056(2) 0.0410(10) Uani C
O4 -0.1919(2) 1.0031(2) 0.2389(2) 0.0740(10) Uani O
C11 0.3840(2) 1.2880(2) 0.1787(2) 0.0330(10) Uani C
C12 0.5272(3) 1.2872(3) 0.3376(2) 0.0430(10) Uani C
C13 0.7230(3) 1.3903(3) 0.3834(3) 0.0490(10) Uani C
C14 0.7425(3) 1.5706(3) 0.3891(2) 0.0430(10) Uani C
C15 0.6028(3) 1.5715(3) 0.2315(3) 0.0490(10) Uani C
C16 0.4067(3) 1.4719(2) 0.1874(2) 0.0410(10) Uani C
H1 0.116(3) 1.280(3) 0.216(3) 0.080 Uiso H
H11 0.4069 1.2298 0.0976 0.080 Uiso H
H12A 0.5019 1.3356 0.4204 0.080 Uiso H
H12B 0.5188 1.1717 0.3279 0.080 Uiso H
H13A 0.7521 1.3358 0.3055 0.080 Uiso H
H13B 0.8075 1.3934 0.4870 0.080 Uiso H
H14A 0.8642 1.6284 0.4106 0.080 Uiso H
H14B 0.7234 1.6286 0.4729 0.080 Uiso H
H15A 0.6133 1.6871 0.2399 0.080 Uiso H
H15B 0.6272 1.5203 0.1489 0.080 Uiso H
H16A 0.3217 1.4712 0.0850 0.080 Uiso H
H16B 0.3803 1.5267 0.2673 0.080 Uiso H
loop_
_geom_angle_atom_site_label_1
_geom_angle_atom_site_label_2
_geom_angle_atom_site_label_3
_geom_angle
_geom_angle_publ_flag
P1 Mn1 P1A 77.00(10) yes
P1 Mn1 C1 95.60(10) no
P1 Mn1 C2 173.30(10) no
P1 Mn1 C3 87.20(10) no
P1 Mn1 C4 86.60(10) no
P1 Mn1 C1 171.80(10) no
P1 Mn1 C2 96.60(10) no
P1 Mn1 C3 88.20(10) no
P1 Mn1 C4 87.00(10) no
C1 Mn1 C2 90.90(10) no
C1 Mn1 C3 95.30(10) no
C1 Mn1 C4 88.80(10) no
C2 Mn1 C3 90.60(10) no
C2 Mn1 C4 95.20(10) no
C3 Mn1 C4 172.90(10) no
Mn1 P1 Mn1A 103.00(10) yes
Mn1 P1 C11 118.20(10) no
Mn1 P1 C11 115.70(10) no
Mn1 C1 O1 175.60(10) no
Mn1 C2 O2 176.60(10) no
Mn1 C3 O3 180.0(2) no
Mn1 C4 O4 178.2(2) no
P1 C11 C12 113.90(10) no
P1 C11 C16 110.40(10) no
C12 C11 C16 109.60(10) no
C11 C12 C13 111.50(10) no
C12 C13 C14 111.80(10) no
C13 C14 C15 110.6(2) no
C14 C15 C16 111.00(10) no
C11 C16 C15 111.40(10) no
loop_
_geom_bond_atom_site_label_1
_geom_bond_atom_site_label_2
_geom_bond_distance
_geom_bond_publ_flag
Mn1 P1 2.3700(10) yes
Mn1 P1A 2.3740(10) yes
Mn1 C1 1.826(2) no
Mn1 C2 1.8260(10) no
Mn1 C3 1.8460(10) no
Mn1 C4 1.8380(10) no
P1 C11 1.8700(10) no
C1 O1 1.142(2) no
C2 O2 1.138(2) no
C3 O3 1.1390(10) no
C4 O4 1.1400(10) no
C11 C12 1.529(2) no
C11 C16 1.530(2) no
C12 C13 1.5310(10) no
C13 C14 1.510(2) no
C14 C15 1.509(3) no
C15 C16 1.5310(10) no
