#------------------------------------------------------------------------------
#$Date: 2016-02-14 06:40:26 +0200 (Sun, 14 Feb 2016) $
#$Revision: 176432 $
#$URL: svn://www.crystallography.net/cod/cif/2/00/20/2002090.cif $
#------------------------------------------------------------------------------
#
# This file is available in the Crystallography Open Database (COD),
# http://www.crystallography.net/. The original data for this entry
# were provided by IUCr Journals, http://journals.iucr.org/.
#
# The file may be used within the scientific community so long as
# proper attribution is given to the journal article from which the
# data were obtained.
#
data_2002090
loop_
_publ_author_name
'Fujita, T.'
'Ohba, S.'
'Tokii, T.'
'Kato, M.'
_publ_section_title
;
 Dimeric copper(II) 2,2-dimethylpropanoate adducts with 3- or
 4-picoline
;
_journal_issue                   1
_journal_name_full               'Acta Crystallographica Section C'
_journal_page_first              144
_journal_page_last               147
_journal_paper_doi               10.1107/S0108270192009107
_journal_volume                  49
_journal_year                    1993
_chemical_formula_moiety         'C32 H50 Cu2 N2 O8, C6 H6'
_chemical_formula_sum            'C38 H56 Cu2 N2 O8'
_chemical_formula_weight         795.64
_space_group_IT_number           6
_symmetry_cell_setting           trigonal
_symmetry_space_group_name_Hall  'P -2'
_symmetry_space_group_name_H-M   'P 1 1 m'
_atom_type_scat_source           IntTabIV
_cell_angle_alpha                90.0
_cell_angle_beta                 90.0
_cell_angle_gamma                120.0
_cell_formula_units_Z            3
_cell_length_a                   18.246(2)
_cell_length_b                   18.246(2)
_cell_length_c                   11.303(2)
_cell_measurement_reflns_used    20
_cell_measurement_temperature    300(2)
_cell_measurement_theta_max      15
_cell_measurement_theta_min      10
_cell_volume                     3258.8(8)
_diffrn_measurement_device       'Rigaku AFC-5 four-circle'
_diffrn_measurement_method       \q-2\q
_diffrn_radiation_type           MoK\a
_diffrn_radiation_wavelength     0.71073
_diffrn_reflns_av_R_equivalents  0.017
_diffrn_reflns_limit_h_max       25
_diffrn_reflns_limit_h_min       0
_diffrn_reflns_limit_k_max       25
_diffrn_reflns_limit_k_min       0
_diffrn_reflns_limit_l_max       13
_diffrn_reflns_limit_l_min       0
_diffrn_reflns_number            2816
_diffrn_reflns_theta_max         27.5
_diffrn_standards_decay_%        0.972-1.020
_diffrn_standards_interval_count 100
_diffrn_standards_number         5
_exptl_absorpt_coefficient_mu    1.02
_exptl_absorpt_correction_T_max  0.779
_exptl_absorpt_correction_T_min  0.711
_exptl_absorpt_correction_type   integration
_exptl_crystal_colour            Green
_exptl_crystal_density_diffrn    1.22
_exptl_crystal_density_meas      1.22(2)
_exptl_crystal_description       Prism
_exptl_crystal_size_max          0.45
_exptl_crystal_size_mid          0.40
_exptl_crystal_size_min          0.25
_refine_diff_density_max         0.73
_refine_diff_density_min         -0.43
_refine_ls_goodness_of_fit_obs   3.50
_refine_ls_hydrogen_treatment    noref
_refine_ls_number_parameters     200
_refine_ls_number_reflns         1420
_refine_ls_R_factor_obs          0.077
_refine_ls_shift/esd_max         0.36
_refine_ls_structure_factor_coef F
_refine_ls_weighting_details     'w = [\s^2^(|F~o~|)+(0.015|F~o~|)^2^]^-1^'
_refine_ls_weighting_scheme      calc
_refine_ls_wR_factor_obs         0.105
_reflns_number_observed          1420
_reflns_number_total             2685
_reflns_observed_criterion       |F~o~|>3\s(|F~o~|)
_cod_data_source_file            as1018.cif
_cod_data_source_block           as1018_structure_1_of_2
_cod_depositor_comments
;
The following automatic conversions were performed:

'_refine_ls_weighting_scheme' value
'[\s^2^(|F~o~|)+(0.015|F~o~|)^2^]^-1^' was changed to 'calc'. New tag
'_refine_ls_weighting_details' was created. The value of the new tag
was set to 'w = [\s^2^(|F~o~|)+(0.015|F~o~|)^2^]^-1^'.

Automatic conversion script
Id: cif_fix_values 3143 2015-03-26 13:38:13Z robertas 
;
_cod_original_cell_volume        3258.7(7)
_cod_original_sg_symbol_Hall     'P 31 2"'
_cod_original_sg_symbol_H-M      'P 31 2 1 (or P 32 2 1)'
_cod_database_code               2002090
loop_
_symmetry_equiv_pos_as_xyz
x,y,z
x,y,-z
loop_
_atom_site_label
_atom_site_fract_x
_atom_site_fract_y
_atom_site_fract_z
Cu .45550(10) .53860(10) .0179(2)
O(1) .3795(7) .4571(7) -.1007(10)
O(2) .5239(7) .6168(8) -.1104(10)
O(3) .5537(7) .6054(7) .1293(10)
O(4) .3966(7) .4556(7) .1383(10)
N .3906(9) .6091(9) .0527(10)
C(1) .3952(11) .4084(11) -.1528(13)
C(2) .3197(15) .3398(17) -.2374(19)
C(3) .340(2) .266(2) -.267(3)
C(4) .343(3) .414(4) -.358(2)
C(5) .2289(15) .317(2) -.194(3)
C(6) .5859(11) .6128(10) -.1492(14)
C(7) .6493(12) .6855(13) -.2330(16)
C(8) .7283(13) .6785(15) -.262(2)
C(9) .6652(17) .7670(12) -.179(2)
C(10) .5977(19) .6761(19) -.3490(17)
C(11) .4333(11) .6906(10) .0732(14)
C(12) .3932(13) .7376(11) .0915(15)
C(13) .3122(12) .7033(13) .0914(15)
C(14) .2633(10) .6127(12) .0695(14)
C(15) .3036(10) .5681(11) .0513(14)
C(16) .1706(13) .5662(14) .0604(19)
loop_
_geom_angle_atom_site_label_1
_geom_angle_atom_site_label_2
_geom_angle_atom_site_label_3
_geom_angle
_geom_angle_publ_flag
N Cu O(1) 101.(7) yes
N Cu O(2) 92.3(6) yes
N Cu O(3) 96.4(6) yes
N Cu O(4) 94.8(6) yes
O(1) Cu O(2) 89.9(4) yes
O(1) Cu O(3) 163.0(4) yes
O(1) Cu O(4) 89.0(4) yes
O(2) Cu O(3) 88.4(4) yes
O(2) Cu O(4) 173.0(5) yes
O(3) Cu O(4) 90.7(4) yes
O(1) C(1) O(4i) 128.4(16) yes
O(2) C(6) O(3i) 127.8(15) yes
Cu O(1) C(1) 123.3(13) yes
Cu O(2) C(6) 118.6(14) yes
Cu O(3) C(6i) 122.9(12) yes
Cu O(4) C(1i) 121.4(13) yes
loop_
_geom_bond_atom_site_label_1
_geom_bond_atom_site_label_2
_geom_bond_site_symmetry_2
_geom_bond_distance
_geom_bond_publ_flag
Cu Cu 2 2.657(3) yes
Cu O(1) . 1.967(10) yes
Cu O(2) . 1.979(11) yes
Cu O(3) . 2.024(11) yes
Cu O(4) . 1.916(11) yes
Cu N . 2.18(2) yes
O(1) C(1) . 1.21(3) yes
O(2) C(6) . 1.25(3) yes
N C(11) . 1.31(2) no
N C(15) . 1.38(2) no
C(1) C(2) . 1.63(3) no
C(2) C(3) . 1.59(6) no
C(2) C(4) . 1.82(5) no
C(2) C(5) . 1.57(4) no
C(6) C(7) . 1.57(2) no
C(7) C(8) . 1.55(4) no
C(7) C(9) . 1.50(3) no
C(7) C(10) . 1.57(3) no
C(11) C(12) . 1.39(4) no
C(12) C(13) . 1.29(3) no
C(13) C(14) . 1.45(3) no
C(14) C(15) . 1.36(3) no
C(14) C(16) . 1.47(3) no
C(1) O(4) 2 1.24(3) yes
C(6) O(3) 2 1.31(3) yes
