#------------------------------------------------------------------------------
#$Date: 2016-02-19 16:29:56 +0200 (Fri, 19 Feb 2016) $
#$Revision: 176759 $
#$URL: svn://www.crystallography.net/cod/cif/2/00/40/2004040.cif $
#------------------------------------------------------------------------------
#
# This file is available in the Crystallography Open Database (COD),
# http://www.crystallography.net/. The original data for this entry
# were provided by IUCr Journals, http://journals.iucr.org/.
#
# The file may be used within the scientific community so long as
# proper attribution is given to the journal article from which the
# data were obtained.
#
data_2004040
loop_
_publ_author_name
'Laknifli, A.'
'Pierrot, M.'
'Chanon, F.'
'Chanon, M.'
_publ_section_title
;
 Five-, Six- and Seven-Membered-Ring Substituted Thiazolidine-2-thione
;
_journal_issue                   10
_journal_name_full               'Acta Crystallographica Section C'
_journal_page_first              2113
_journal_page_last               2116
_journal_paper_doi               10.1107/S010827019500432X
_journal_volume                  51
_journal_year                    1995
_chemical_formula_sum            'C6 H9 N S2'
_chemical_formula_weight         159.27
_space_group_IT_number           14
_symmetry_cell_setting           monoclinic
_symmetry_space_group_name_Hall  '-P 2yn'
_symmetry_space_group_name_H-M   'P 1 21/n 1'
_atom_type_scat_source           IntTabIV
_cell_angle_alpha                90
_cell_angle_beta                 97.26(5)
_cell_angle_gamma                90
_cell_formula_units_Z            4
_cell_length_a                   6.139(3)
_cell_length_b                   9.231(5)
_cell_length_c                   13.273(4)
_cell_measurement_reflns_used    25
_cell_measurement_temperature    293
_cell_measurement_theta_max      14
_cell_measurement_theta_min      12
_cell_volume                     746.1(6)
_diffrn_measurement_device       'Enraf-Nonius CAD-4'
_diffrn_measurement_method       \w/2\q
_diffrn_radiation_type           MoK\a
_diffrn_radiation_wavelength     0.71073
_diffrn_reflns_av_R_equivalents  0.027
_diffrn_reflns_limit_h_max       6
_diffrn_reflns_limit_h_min       -6
_diffrn_reflns_limit_k_max       11
_diffrn_reflns_limit_k_min       0
_diffrn_reflns_limit_l_max       19
_diffrn_reflns_limit_l_min       0
_diffrn_reflns_number            1464
_diffrn_reflns_theta_max         25
_diffrn_standards_decay_%        1
_diffrn_standards_interval_time  60
_diffrn_standards_number         2
_exptl_absorpt_coefficient_mu    0.597
_exptl_absorpt_correction_type   none
_exptl_crystal_colour            colourless
_exptl_crystal_density_diffrn    1.418
_exptl_crystal_description       'rectangular prism'
_exptl_crystal_size_max          0.6
_exptl_crystal_size_mid          0.4
_exptl_crystal_size_min          0.2
_refine_diff_density_max         0.546
_refine_diff_density_min         0.513
_refine_ls_extinction_method     none
_refine_ls_goodness_of_fit_obs   1.356
_refine_ls_hydrogen_treatment    noref
_refine_ls_number_parameters     82
_refine_ls_number_reflns         868
_refine_ls_R_factor_obs          0.036
_refine_ls_shift/esd_max         0.01
_refine_ls_structure_factor_coef F
_refine_ls_weighting_details     w=1/\s^2^(F)
_refine_ls_weighting_scheme      calc
_refine_ls_wR_factor_obs         0.044
_reflns_number_observed          868
_reflns_number_total             1404
_reflns_observed_criterion       I>3\s(I)
_cod_data_source_file            na1157.cif
_cod_data_source_block           na1157a
_cod_depositor_comments
;
The following automatic conversions were performed:

'_refine_ls_weighting_scheme' value ' w=1/\s^2^(F)' was changed to
'calc'. New tag '_refine_ls_weighting_details' was created. The value
of the new tag was set to 'w=1/\s^2^(F)'.

Automatic conversion script
Id: cif_fix_values 3143 2015-03-26 13:38:13Z robertas 
;
_cod_original_cell_volume        746.2(8)
_cod_original_sg_symbol_H-M      'P 21/n'
_cod_database_code               2004040
loop_
_symmetry_equiv_pos_as_xyz
x,y,z
1/2+x,1/2-y,1/2+z
-x,-y,-z
1/2-x,1/2+y,1/2-z
loop_
_atom_site_label
_atom_site_fract_x
_atom_site_fract_y
_atom_site_fract_z
_atom_site_B_iso_or_equiv
S1 0.6401(1) 0.0984(1) 0.40165(7) 3.93(2)
S2 0.7957(1) 0.3555(1) 0.52468(7) 4.13(2)
N3 0.3891(4) 0.3054(3) 0.4347(2) 3.35(6)
C5 0.3599(5) 0.0801(4) 0.3394(3) 3.41(7)
C4 0.2326(5) 0.2139(4) 0.3724(2) 3.58(7)
C2 0.5947(5) 0.2645(4) 0.4559(2) 3.00(7)
C6 0.3441(6) 0.0887(4) 0.2240(3) 3.92(8)
C7 0.2981(6) 0.2466(4) 0.2001(3) 3.96(8)
C8 0.1431(6) 0.2886(4) 0.2738(3) 4.51(8)
H31 0.3422 0.3959 0.4599 4.4
H61 0.2309 0.0287 0.1927 5.1
H62 0.4810 0.0601 0.2026 5.1
H71 0.2309 0.2578 0.1320 5.2
H72 0.4290 0.3025 0.2102 5.2
H81 0.1436 0.3926 0.2834 5.8
H82 -0.0026 0.2593 0.2513 5.8
H41 0.1159 0.1899 0.4101 4.6
H51 0.2916 -0.0081 0.3589 4.4
loop_
_geom_angle_atom_site_label_1
_geom_angle_atom_site_label_2
_geom_angle_atom_site_label_3
_geom_angle
_geom_angle_publ_flag
C2 S1 C5 94.50(10) no
S1 C2 S2 121.8(2) no
S2 C2 N3 126.7(3) no
C2 N3 C4 120.2(3) no
N3 C4 C5 107.6(2) no
C4 C5 S1 106.2(2) no
S1 C5 C6 112.8(2) no
C4 C5 C6 105.7(3) no
N3 C4 C8 111.6(3) no
C5 C4 C8 104.9(3) no
S1 C2 N3 111.5(2) no
C5 C6 C7 104.4(3) no
C6 C7 C8 103.2(3) no
C4 C8 C7 104.8(3) no
loop_
_geom_bond_atom_site_label_1
_geom_bond_atom_site_label_2
_geom_bond_distance
_geom_bond_publ_flag
S1 C2 1.732(4) no
S1 C5 1.819(3) no
S2 C2 1.666(3) no
N3 C2 1.313(4) no
N3 C4 1.456(4) no
C4 C5 1.554(5) no
C5 C6 1.525(5) no
C4 C8 1.520(5) no
C6 C7 1.511(5) no
C7 C8 1.499(5) no
loop_
_geom_torsion_atom_site_label_1
_geom_torsion_atom_site_label_2
_geom_torsion_atom_site_label_3
_geom_torsion_atom_site_label_4
_geom_torsion
_geom_torsion_publ_flag
S1 C5 C4 N3 3.4(3) no
