#------------------------------------------------------------------------------
#$Date: 2016-02-14 16:26:36 +0200 (Sun, 14 Feb 2016) $
#$Revision: 176435 $
#$URL: svn://www.crystallography.net/cod/cif/2/00/41/2004197.cif $
#------------------------------------------------------------------------------
#
# This file is available in the Crystallography Open Database (COD),
# http://www.crystallography.net/. The original data for this entry
# were provided by IUCr Journals, http://journals.iucr.org/.
#
# The file may be used within the scientific community so long as
# proper attribution is given to the journal article from which the
# data were obtained.
#
data_2004197
loop_
_publ_author_name
'Laknifli, A.'
'Pierrot, M.'
'Chanon, F.'
'Chanon, M.'
_publ_section_title
;
 Six Substituted Thiazolidine-2-thiones
;
_journal_issue                   12
_journal_name_full               'Acta Crystallographica Section C'
_journal_page_first              2661
_journal_page_last               2665
_journal_paper_doi               10.1107/S0108270195007955
_journal_volume                  51
_journal_year                    1995
_chemical_formula_sum            'C6 H11 N S2'
_chemical_formula_weight         161.29
_space_group_IT_number           14
_symmetry_cell_setting           monoclinic
_symmetry_space_group_name_Hall  '-P 2ybc'
_symmetry_space_group_name_H-M   'P 1 21/c 1'
_atom_type_scat_source           IntTabIV
_cell_angle_alpha                90
_cell_angle_beta                 93.15(5)
_cell_angle_gamma                90
_cell_formula_units_Z            4
_cell_length_a                   9.465(3)
_cell_length_b                   7.036(2)
_cell_length_c                   12.236(4)
_cell_measurement_reflns_used    25
_cell_measurement_temperature    293
_cell_measurement_theta_max      16
_cell_measurement_theta_min      14
_cell_volume                     813.6(4)
_diffrn_measurement_device       'Enraf-Nonius CAD-4'
_diffrn_measurement_method       \w/2\q
_diffrn_radiation_type           MoK\a
_diffrn_radiation_wavelength     0.71073
_diffrn_reflns_av_R_equivalents  0.035
_diffrn_reflns_limit_h_max       11
_diffrn_reflns_limit_h_min       -11
_diffrn_reflns_limit_k_max       8
_diffrn_reflns_limit_k_min       0
_diffrn_reflns_limit_l_max       14
_diffrn_reflns_limit_l_min       0
_diffrn_reflns_number            1637
_diffrn_reflns_theta_max         25
_diffrn_standards_decay_%        0.018
_diffrn_standards_interval_time  60
_diffrn_standards_number         3
_exptl_absorpt_coefficient_mu    0.548
_exptl_absorpt_correction_type   none
_exptl_crystal_colour            colourless
_exptl_crystal_density_diffrn    1.317
_exptl_crystal_description       cubic
_exptl_crystal_size_max          0.6
_exptl_crystal_size_mid          0.6
_exptl_crystal_size_min          0.5
_refine_diff_density_max         0.56
_refine_diff_density_min         -0.58
_refine_ls_extinction_method     none
_refine_ls_goodness_of_fit_obs   1.42
_refine_ls_hydrogen_treatment    noref
_refine_ls_number_parameters     163
_refine_ls_number_reflns         972
_refine_ls_R_factor_obs          0.062
_refine_ls_shift/esd_max         0.05
_refine_ls_structure_factor_coef F
_refine_ls_weighting_details     'w = 1/[\s^2^(F)/4F^2^ + 0.0016F^2^]'
_refine_ls_weighting_scheme      calc
_refine_ls_wR_factor_obs         0.074
_reflns_number_observed          972
_reflns_number_total             1453
_reflns_observed_criterion       I>3\s(I)
_cod_data_source_file            ab1269.cif
_cod_data_source_block           3
_cod_depositor_comments
;
The following automatic conversions were performed:

'_refine_ls_weighting_scheme' value ' w = 1/[\s^2^(F)/4F^2^ +
0.0016F^2^]' was changed to 'calc'. New tag
'_refine_ls_weighting_details' was created. The value of the new tag
was set to 'w = 1/[\s^2^(F)/4F^2^ + 0.0016F^2^]'.

Automatic conversion script
Id: cif_fix_values 3143 2015-03-26 13:38:13Z robertas 
;
_cod_original_cell_volume        813.6(7)
_cod_original_sg_symbol_H-M      'P 21/c'
_cod_original_formula_sum        'C6 H11 N1 S2'
_cod_database_code               2004197
loop_
_symmetry_equiv_pos_as_xyz
x,y,z
x,1/2-y,1/2+z
-x,-y,-z
-x,1/2+y,1/2-z
loop_
_atom_site_label
_atom_site_fract_x
_atom_site_fract_y
_atom_site_fract_z
_atom_site_B_iso_or_equiv
S2 .8258(2) .1307(3) .6622(2) 4.38(2)
S1 .6836(3) .0973(2) .4402(2) 5.69(3)
C5 .7361(3) -.0875(4) .3467(3) 3.67(8)
N3 .8436(1) -.1612(3) .5230(2) 3.33(7)
C2 .7940(2) .0082(2) .5472(3) 3.69(8)
C4 .7817(3) -.2511(2) .4217(3) 3.40(8)
C31 .9394(4) -.2662(3) .5971(5) 4.70(1)
C51 .6205(4) -.1295(3) .2599(4) 5.10(2)
C41 .6650(5) -.3855(4) .4490(4) 4.70(2)
H41 .8511 -.3346 .3825 4
H51 .8177 -.0508 .2998 4
H311 .9708 -.1816 .6616 6
H312 .8889 -.3832 .6250 6
H313 1.0257 -.3075 .5568 6
H411 .7053 -.4900 .4994 6
H412 .5889 -.3127 .4875 6
H413 .6219 -.4447 .3788 6
H511 .5989 -.0098 .2149 6
H512 .6529 -.2348 .2098 6
H513 .5314 -.1720 .2964 6
loop_
_geom_angle_atom_site_label_1
_geom_angle_atom_site_label_2
_geom_angle_atom_site_label_3
_geom_angle
_geom_angle_publ_flag
C5 S1 C2 92.39(6) yes
S1 C5 C4 103.89(4) yes
S1 C5 C51 111.63(4) yes
C4 C5 C51 116.52(4) yes
C2 N3 C4 116.31(4) yes
C2 N3 C31 122.55(4) yes
C4 N3 C31 120.66(5) yes
S2 C2 S1 121.43(5) yes
S2 C2 N3 127.36(5) yes
S1 C2 N3 111.20(5) yes
C5 C4 N3 105.48(5) yes
C5 C4 C41 114.99(6) yes
N3 C4 C41 110.05(5) yes
loop_
_geom_bond_atom_site_label_1
_geom_bond_atom_site_label_2
_geom_bond_distance
_geom_bond_publ_flag
S2 C2 1.664(3) yes
S1 C5 1.819(3) yes
S1 C2 1.746(3) yes
C5 C4 1.520(2) yes
C5 C51 1.512(4) yes
N3 C2 1.321(4) yes
N3 C4 1.483(2) yes
N3 C31 1.448(3) yes
C4 C41 1.505(5) yes
