#------------------------------------------------------------------------------
#$Date: 2016-02-19 16:29:56 +0200 (Fri, 19 Feb 2016) $
#$Revision: 176759 $
#$URL: svn://www.crystallography.net/cod/cif/2/00/41/2004196.cif $
#------------------------------------------------------------------------------
#
# This file is available in the Crystallography Open Database (COD),
# http://www.crystallography.net/. The original data for this entry
# were provided by IUCr Journals, http://journals.iucr.org/.
#
# The file may be used within the scientific community so long as
# proper attribution is given to the journal article from which the
# data were obtained.
#
data_2004196
loop_
_publ_author_name
'Laknifli, A.'
'Pierrot, M.'
'Chanon, F.'
'Chanon, M.'
_publ_section_title
;
 Six Substituted Thiazolidine-2-thiones
;
_journal_issue                   12
_journal_name_full               'Acta Crystallographica Section C'
_journal_page_first              2661
_journal_page_last               2665
_journal_paper_doi               10.1107/S0108270195007955
_journal_volume                  51
_journal_year                    1995
_chemical_formula_sum            'C5 H9 N S2'
_chemical_formula_weight         147.26
_space_group_IT_number           14
_symmetry_cell_setting           monoclinic
_symmetry_space_group_name_Hall  '-P 2ybc'
_symmetry_space_group_name_H-M   'P 1 21/c 1'
_atom_type_scat_source           IntTabIV
_cell_angle_alpha                90
_cell_angle_beta                 105.39(5)
_cell_angle_gamma                90
_cell_formula_units_Z            4
_cell_length_a                   6.312(2)
_cell_length_b                   10.036(3)
_cell_length_c                   11.887(4)
_cell_measurement_reflns_used    25
_cell_measurement_temperature    293
_cell_measurement_theta_max      16
_cell_measurement_theta_min      14
_cell_volume                     726.0(4)
_diffrn_measurement_device       'Enraf-Nonius CAD-4'
_diffrn_measurement_method       '\w/2\q scans'
_diffrn_radiation_type           MoK\a
_diffrn_radiation_wavelength     0.71073
_diffrn_reflns_av_R_equivalents  0.022
_diffrn_reflns_limit_h_max       7
_diffrn_reflns_limit_h_min       -7
_diffrn_reflns_limit_k_max       12
_diffrn_reflns_limit_k_min       0
_diffrn_reflns_limit_l_max       14
_diffrn_reflns_limit_l_min       0
_diffrn_reflns_number            1598
_diffrn_reflns_theta_max         26
_diffrn_standards_decay_%        0.018
_diffrn_standards_interval_time  60
_diffrn_standards_number         3
_exptl_absorpt_coefficient_mu    0.607
_exptl_absorpt_correction_type   none
_exptl_crystal_colour            colourless
_exptl_crystal_density_diffrn    1.347
_exptl_crystal_description       prismatic
_exptl_crystal_size_max          0.5
_exptl_crystal_size_mid          0.3
_exptl_crystal_size_min          0.2
_refine_diff_density_max         0.632
_refine_diff_density_min         -0.62
_refine_ls_extinction_method     none
_refine_ls_goodness_of_fit_obs   1.59
_refine_ls_hydrogen_treatment    noref
_refine_ls_number_parameters     73
_refine_ls_number_reflns         789
_refine_ls_R_factor_obs          0.063
_refine_ls_shift/esd_max         0.03
_refine_ls_structure_factor_coef F
_refine_ls_weighting_details     'w = 1/[\s^2^(F)/4F^2^ + 0.0016F^2^]'
_refine_ls_weighting_scheme      calc
_refine_ls_wR_factor_obs         0.072
_reflns_number_observed          789
_reflns_number_total             1428
_reflns_observed_criterion       I>3\s(I)
_cod_data_source_file            ab1269.cif
_cod_data_source_block           2
_cod_depositor_comments
;
The following automatic conversions were performed:

'_refine_ls_weighting_scheme' value ' w = 1/[\s^2^(F)/4F^2^ +
0.0016F^2^]' was changed to 'calc'. New tag
'_refine_ls_weighting_details' was created. The value of the new tag
was set to 'w = 1/[\s^2^(F)/4F^2^ + 0.0016F^2^]'.

Automatic conversion script
Id: cif_fix_values 3143 2015-03-26 13:38:13Z robertas 
;
_cod_original_cell_volume        726.0(6)
_cod_original_sg_symbol_H-M      'P 21/c'
_cod_database_code               2004196
loop_
_symmetry_equiv_pos_as_xyz
x,y,z
x,1/2-y,1/2+z
-x,-y,-z
-x,1/2+y,1/2-z
loop_
_atom_site_label
_atom_site_fract_x
_atom_site_fract_y
_atom_site_fract_z
_atom_site_B_iso_or_equiv
S1 .0457(5) .2832(3) .7621(3) 5.15(7)
S2 .2691(4) .1216(3) .9694(3) 4.93(7)
N3 -.150(1) .1006(8) .8431(7) 3.7(2)
C2 .046(2) .157(1) .8638(8) 3.7(2)
C4 -.334(2) .164(1) .7525(9) 3.9(2)
C5 -.221(2) .229(1) .6664(9) 4.5(3)
C41 -.504(2) .058(1) .701(1) 4.9(3)
C51 -.181(2) .140(1) .571(1) 5.6(3)
H31 -.1747 .0181 .8865 6
H41 -.4193 .2346 .7823 4
H51 -.3192 .3011 .6211 4
H411 -.5682 .0216 .7640 5
H412 -.6249 .0985 .6368 5
H413 -.4318 -.0166 .6678 5
H511 -.1065 .1930 .5201 5
H512 -.0838 .0629 .6073 5
H513 -.3260 .1047 .5219 5
loop_
_geom_angle_atom_site_label_1
_geom_angle_atom_site_label_2
_geom_angle_atom_site_label_3
_geom_angle
_geom_angle_publ_flag
C2 S1 C5 92.6(5) yes
C2 N3 C4 117.4(8) yes
S1 C2 S2 121.5(6) yes
S1 C2 N3 110.6(6) yes
S2 C2 N3 127.9(8) yes
N3 C4 C5 104.5(8) yes
N3 C4 C41 108.8(8) yes
C5 C4 C41 115.5(9) yes
S1 C5 C4 102.9(7) yes
S1 C5 C51 109.2(7) yes
C4 C5 C51 116.5(9) yes
loop_
_geom_bond_atom_site_label_1
_geom_bond_atom_site_label_2
_geom_bond_distance
_geom_bond_publ_flag
S1 C2 1.751(11) yes
S1 C5 1.846(10) yes
S2 C2 1.657(9) yes
N3 C2 1.323(12) yes
N3 C4 1.500(11) yes
C4 C5 1.54(2) yes
C4 C41 1.519(14) yes
C5 C51 1.52(2) yes
