#------------------------------------------------------------------------------
#$Date: 2017-10-13 03:08:28 +0300 (Fri, 13 Oct 2017) $
#$Revision: 201955 $
#$URL: file:///home/coder/svn-repositories/cod/cif/2/00/41/2004181.cif $
#------------------------------------------------------------------------------
#
# This file is available in the Crystallography Open Database (COD),
# http://www.crystallography.net/. The original data for this entry
# were provided by IUCr Journals, http://journals.iucr.org/.
#
# The file may be used within the scientific community so long as
# proper attribution is given to the journal article from which the
# data were obtained.
#
data_2004181
loop_
_publ_author_name
'Dupont, L.'
'de Tullio, P.'
'Pirotte, B.'
'Masereel, B.'
'Delarge, J.'
_publ_section_title
;7-Methyl-3-methylthio-4<i>H</i>-pyrido[4,3-<i>e</i>]-1,2,4-thiadiazin-7-ium-4-ide
 1,1-Dioxide Zwitterion
;
_journal_issue                   11
_journal_name_full               'Acta Crystallographica Section C'
_journal_page_first              2416
_journal_page_last               2417
_journal_paper_doi               10.1107/S0108270195008031
_journal_volume                  51
_journal_year                    1995
_chemical_formula_sum            'C8 H9 N3 O2 S2'
_chemical_formula_weight         243.30
_chemical_name_systematic
;
7-Methyl-3-methylsulfanyl-4H-pyrido[4,3-e]-1,2,4-thiadiazine 1,1-Dioxide
Inner Salt
;
_space_group_IT_number           2
_symmetry_cell_setting           triclinic
_symmetry_space_group_name_Hall  '-P 1'
_symmetry_space_group_name_H-M   'P -1'
_audit_creation_method           SHELXL
_cell_angle_alpha                82.557(9)
_cell_angle_beta                 83.195(7)
_cell_angle_gamma                84.162(5)
_cell_formula_units_Z            2
_cell_length_a                   7.3767(7)
_cell_length_b                   8.1696(7)
_cell_length_c                   8.5483(7)
_cell_measurement_reflns_used    41
_cell_measurement_temperature    293(2)
_cell_measurement_theta_max      37.31
_cell_measurement_theta_min      27.85
_cell_volume                     505.27(8)
_computing_cell_refinement       DIF4
_computing_data_collection       'DIF4 (Stoe & Cie, 1987a)'
_computing_data_reduction        'REDU4 (Stoe & Cie, 1987b)'
_computing_molecular_graphics    'ORTEPII (Johnson, 1976)'
_computing_publication_material  SHELXL93
_computing_structure_refinement  'SHELXL93 (Sheldrick, 1993)'
_computing_structure_solution    'SHELXS86 (Sheldrick, 1990)'
_diffrn_ambient_temperature      293(2)
_diffrn_measurement_device       'Stoe-Siemens AED 4-circle'
_diffrn_measurement_method       \w-scan
_diffrn_radiation_monochromator  graphite
_diffrn_radiation_source         'fine-focus sealed tube'
_diffrn_radiation_type           CuK\a
_diffrn_radiation_wavelength     1.54180
_diffrn_reflns_av_sigmaI/netI    0.0130
_diffrn_reflns_limit_h_max       8
_diffrn_reflns_limit_h_min       0
_diffrn_reflns_limit_k_max       8
_diffrn_reflns_limit_k_min       -8
_diffrn_reflns_limit_l_max       9
_diffrn_reflns_limit_l_min       -9
_diffrn_reflns_number            1378
_diffrn_reflns_theta_max         57.44
_diffrn_reflns_theta_min         5.25
_diffrn_standards_decay_%        2.4
_diffrn_standards_interval_time  60
_diffrn_standards_number         2
_exptl_absorpt_coefficient_mu    4.668
_exptl_absorpt_correction_T_max  0.3561
_exptl_absorpt_correction_T_min  0.2437
_exptl_absorpt_correction_type
'semi-empirical via \y scan (Stoe & Cie, 1987c)'
_exptl_crystal_colour            colourless
_exptl_crystal_density_diffrn    1.599
_exptl_crystal_density_meas      ?
_exptl_crystal_description       prism
_exptl_crystal_F_000             252
_exptl_crystal_size_max          0.61
_exptl_crystal_size_mid          0.30
_exptl_crystal_size_min          0.27
_refine_diff_density_max         0.259
_refine_diff_density_min         -0.375
_refine_ls_extinction_coef       0.102(6)
_refine_ls_extinction_method     'SHELXL93 (Sheldrick, 1993)'
_refine_ls_goodness_of_fit_all   1.051
_refine_ls_goodness_of_fit_obs   1.084
_refine_ls_hydrogen_treatment
;
H atoms were restrained (included as riding atoms)
;
_refine_ls_matrix_type           full
_refine_ls_number_parameters     139
_refine_ls_number_reflns         1376
_refine_ls_number_restraints     0
_refine_ls_restrained_S_all      1.179
_refine_ls_restrained_S_obs      1.084
_refine_ls_R_factor_all          0.0447
_refine_ls_R_factor_obs          0.0420
_refine_ls_shift/esd_max         0.000
_refine_ls_shift/esd_mean        0.000
_refine_ls_structure_factor_coef Fsqd
_refine_ls_weighting_scheme
;
calc w = 1/[\s^2^(F~o~^2^) + (0.0739P)^2^ + 0.3378P]
where P = (F~o~^2^ + 2F~c~^2^)/3
;
_refine_ls_wR_factor_all         0.1297
_refine_ls_wR_factor_obs         0.1145
_reflns_number_observed          1276
_reflns_number_total             1378
_reflns_observed_criterion       >2sigma(I)
_cod_data_source_file            pa1194.cif
_cod_data_source_block           sm0124
_cod_depositor_comments
;
The following automatic conversions were performed:

'_exptl_crystal_density_meas' value 'not measured' was changed to '?'
- the value is perceived as not measured.

Automatic conversion script
Id: cif_fix_values 3008 2015-01-20 13:52:24Z robertas 
;
_cod_database_code               2004181
loop_
_symmetry_equiv_pos_as_xyz
'x, y, z'
'-x, -y, -z'
loop_
_atom_site_aniso_label
_atom_site_aniso_U_11
_atom_site_aniso_U_22
_atom_site_aniso_U_33
_atom_site_aniso_U_12
_atom_site_aniso_U_13
_atom_site_aniso_U_23
S1 0.0701(6) 0.0402(5) 0.0348(5) -0.0015(3) -0.0112(3) 0.0030(3)
N2 0.089(2) 0.041(2) 0.0383(14) -0.0037(13) -0.0160(13) 0.0012(11)
C3 0.059(2) 0.040(2) 0.037(2) 0.0015(13) -0.0032(13) 0.0016(12)
N4 0.080(2) 0.0422(15) 0.0380(14) -0.0037(13) -0.0084(12) 0.0021(11)
C5 0.061(2) 0.045(2) 0.034(2) 0.0007(13) -0.0037(13) 0.0005(13)
C6 0.081(2) 0.054(2) 0.036(2) 0.000(2) -0.0078(15) 0.0038(14)
C7 0.071(2) 0.062(2) 0.034(2) 0.003(2) -0.0067(14) -0.0045(15)
N8 0.060(2) 0.051(2) 0.045(2) 0.0023(12) -0.0060(11) -0.0107(12)
C9 0.065(2) 0.045(2) 0.041(2) 0.0008(14) -0.0073(14) -0.0002(13)
C10 0.058(2) 0.040(2) 0.036(2) 0.0006(13) -0.0055(13) -0.0008(12)
C11 0.096(3) 0.054(2) 0.050(2) -0.002(2) -0.009(2) -0.009(2)
C12 0.081(2) 0.061(2) 0.058(2) 0.002(2) -0.009(2) -0.023(2)
S2 0.0762(6) 0.0397(5) 0.0450(5) -0.0010(4) -0.0072(4) -0.0022(3)
O1 0.087(2) 0.082(2) 0.0422(13) -0.0264(14) 0.0010(11) 0.0043(11)
O2 0.093(2) 0.0544(14) 0.066(2) 0.0191(12) -0.0336(13) -0.0062(11)
loop_
_atom_site_label
_atom_site_occupancy
_atom_site_fract_x
_atom_site_fract_y
_atom_site_fract_z
_atom_site_U_iso_or_equiv
_atom_site_thermal_displace_type
_atom_site_calc_flag
_atom_site_refinement_flags
_atom_site_type_symbol
S1 1 .26777(11) .27588(9) .75221(8) .0488(4) Uani d . S
N2 1 .3043(4) .4556(3) .7859(3) .0561(7) Uani d . N
C3 1 .2920(4) .5866(4) .6780(3) .0464(7) Uani d . C
N4 1 .2559(4) .6006(3) .5271(3) .0538(7) Uani d . N
C5 1 .2336(4) .4615(4) .4666(3) .0476(7) Uani d . C
C6 1 .2012(5) .4711(4) .3049(4) .0580(9) Uani d . C
H6 1 .1944(5) .5740(4) .2440(4) .070 Uiso calc R H
C7 1 .1803(5) .3355(4) .2380(4) .0561(8) Uani d . C
H7 1 .1587(5) .3468(4) .1319(4) .067 Uiso calc R H
N8 1 .1898(4) .1815(3) .3217(3) .0519(7) Uani d . N
C9 1 .2186(4) .1656(4) .4754(4) .0511(8) Uani d . C
H9 1 .2257(4) .0606(4) .5324(4) .061 Uiso calc R H
C10 1 .2378(4) .3003(4) .5500(3) .0451(7) Uani d . C
C11 1 .3437(6) .7443(4) .9369(4) .0666(10) Uani d . C
H111 1 .392(3) .8377(13) .9702(6) .087 Uiso calc R H
H112 1 .424(3) .6465(17) .9602(5) .087 Uiso calc R H
H113 1 .2244(7) .730(3) .9924(4) .087 Uiso calc R H
C12 1 .1744(5) .0335(5) .2434(4) .0658(10) Uani d . C
H121 1 .2754(19) .0215(18) .163(2) .086 Uiso calc R H
H122 1 .0614(17) .0457(14) .196(3) .086 Uiso calc R H
H123 1 .177(3) -.0630(6) .3206(7) .086 Uiso calc R H
S2 1 .32680(12) .78010(9) .72877(9) .0541(4) Uani d . S
O1 1 .0998(4) .2308(3) .8423(3) .0706(7) Uani d . O
O2 1 .4245(4) .1621(3) .7796(3) .0708(7) Uani d . O
loop_
_atom_type_symbol
_atom_type_description
_atom_type_scat_dispersion_real
_atom_type_scat_dispersion_imag
_atom_type_scat_source
C C 0.0181 0.0091 'International Tables Vol C Tables 4.2.6.8 and 6.1.1.4'
H H 0.0000 0.0000 'International Tables Vol C Tables 4.2.6.8 and 6.1.1.4'
N N 0.0311 0.0180 'International Tables Vol C Tables 4.2.6.8 and 6.1.1.4'
O O 0.0492 0.0322 'International Tables Vol C Tables 4.2.6.8 and 6.1.1.4'
S S 0.3331 0.5567 'International Tables Vol C Tables 4.2.6.8 and 6.1.1.4'
loop_
_geom_angle_atom_site_label_1
_geom_angle_atom_site_label_2
_geom_angle_atom_site_label_3
_geom_angle
_geom_angle_publ_flag
O2 S1 O1 115.1(2) yes
O2 S1 N2 110.2(2) yes
O1 S1 N2 108.8(2) yes
O2 S1 C10 109.34(14) yes
O1 S1 C10 108.87(14) yes
N2 S1 C10 104.05(14) yes
C3 N2 S1 122.6(2) yes
N2 C3 N4 130.9(3) yes
N2 C3 S2 119.1(2) yes
N4 C3 S2 110.0(2) yes
C3 N4 C5 117.8(2) yes
N4 C5 C10 125.8(3) yes
N4 C5 C6 119.3(3) yes
C10 C5 C6 114.9(3) yes
C7 C6 C5 121.7(3) yes
C7 C6 H6 119.1(2) ?
C5 C6 H6 119.1(2) ?
C6 C7 N8 121.6(3) yes
C6 C7 H7 119.2(2) ?
N8 C7 H7 119.2(2) ?
C9 N8 C7 119.2(3) yes
C9 N8 C12 120.3(3) yes
C7 N8 C12 120.5(3) yes
N8 C9 C10 121.6(3) yes
N8 C9 H9 119.2(2) ?
C10 C9 H9 119.2(2) ?
C9 C10 C5 121.1(3) yes
C9 C10 S1 120.4(2) yes
C5 C10 S1 118.6(2) yes
S2 C11 H111 109.47(12) ?
S2 C11 H112 109.47(12) ?
H111 C11 H112 109.5 ?
S2 C11 H113 109.47(13) ?
H111 C11 H113 109.5 ?
H112 C11 H113 109.5 ?
N8 C12 H121 109.5(2) ?
N8 C12 H122 109.5(2) ?
H121 C12 H122 109.5 ?
N8 C12 H123 109.5(2) ?
H121 C12 H123 109.5 ?
H122 C12 H123 109.5 ?
C3 S2 C11 104.2(2) yes
loop_
_geom_bond_atom_site_label_1
_geom_bond_atom_site_label_2
_geom_bond_distance
_geom_bond_publ_flag
S1 O2 1.430(2) yes
S1 O1 1.434(2) yes
S1 N2 1.587(3) yes
S1 C10 1.752(3) yes
N2 C3 1.322(4) yes
C3 N4 1.336(4) yes
C3 S2 1.743(3) yes
N4 C5 1.340(4) yes
C5 C10 1.413(4) yes
C5 C6 1.421(4) yes
C6 C7 1.341(5) yes
C6 H6 0.93 ?
C7 N8 1.365(4) yes
C7 H7 0.93 ?
N8 C9 1.343(4) yes
N8 C12 1.476(4) yes
C9 C10 1.369(4) yes
C9 H9 0.93 ?
C11 S2 1.782(3) yes
C11 H111 0.96 ?
C11 H112 0.96 ?
C11 H113 0.96 ?
C12 H121 0.96 ?
C12 H122 0.96 ?
C12 H123 0.96 ?
loop_
_geom_torsion_atom_site_label_1
_geom_torsion_atom_site_label_2
_geom_torsion_atom_site_label_3
_geom_torsion_atom_site_label_4
_geom_torsion
_geom_torsion_publ_flag
O2 S1 N2 C3 123.0(3) yes
O1 S1 N2 C3 -110.0(3) yes
C10 S1 N2 C3 5.9(3) yes
S1 N2 C3 N4 -2.4(6) yes
S1 N2 C3 S2 177.8(2) yes
N2 C3 N4 C5 -2.8(5) yes
S2 C3 N4 C5 177.1(2) yes
C3 N4 C5 C10 2.6(5) yes
C3 N4 C5 C6 -177.9(3) yes
N4 C5 C6 C7 179.2(3) ?
C10 C5 C6 C7 -1.3(5) ?
C5 C6 C7 N8 -0.3(5) ?
C6 C7 N8 C9 0.8(5) ?
C6 C7 N8 C12 -177.3(3) yes
C7 N8 C9 C10 0.3(5) ?
C12 N8 C9 C10 178.4(3) ?
N8 C9 C10 C5 -2.0(5) ?
N8 C9 C10 S1 177.9(2) yes
N4 C5 C10 C9 -178.1(3) ?
C6 C5 C10 C9 2.4(5) ?
N4 C5 C10 S1 2.0(5) yes
C6 C5 C10 S1 -177.5(2) yes
O2 S1 C10 C9 56.8(3) ?
O1 S1 C10 C9 -69.7(3) ?
N2 S1 C10 C9 174.4(3) yes
O2 S1 C10 C5 -123.4(3) yes
O1 S1 C10 C5 110.1(3) yes
N2 S1 C10 C5 -5.7(3) yes
N2 C3 S2 C11 -7.2(3) yes
N4 C3 S2 C11 172.9(2) ?
loop_
_cod_related_entry_id
_cod_related_entry_database
_cod_related_entry_code
1 ChemSpider 21138665
