#------------------------------------------------------------------------------
#$Date: 2017-10-13 03:08:28 +0300 (Fri, 13 Oct 2017) $
#$Revision: 201955 $
#$URL: file:///home/coder/svn-repositories/cod/cif/2/00/43/2004339.cif $
#------------------------------------------------------------------------------
#
# This file is available in the Crystallography Open Database (COD),
# http://www.crystallography.net/. The original data for this entry
# were provided by IUCr Journals, http://journals.iucr.org/.
#
# The file may be used within the scientific community so long as
# proper attribution is given to the journal article from which the
# data were obtained.
#
data_2004339
loop_
_publ_author_name
'Low, J. N.'
'Ferguson, G.'
'Cobo, J.'
'Melguizo, M.'
'Nogueras, M.'
'S\'anchez, A.'
_publ_section_title
;
 2-Amino-6-methoxy-4,5-di(methoxycarbonyl)pyridine and
 2-Amino-4,5-di(methoxycarbonyl)-6-methylthiopyridine
;
_journal_issue                   1
_journal_name_full               'Acta Crystallographica Section C'
_journal_page_first              143
_journal_page_last               145
_journal_paper_doi               10.1107/S0108270195012601
_journal_volume                  52
_journal_year                    1996
_chemical_formula_moiety         'C10 H12 N2 O4 S'
_chemical_formula_sum            'C10 H12 N2 O4 S'
_chemical_formula_weight         256.28
_chemical_name_systematic
;
2-amino-4,5-dicarbomethoxy-6-methylthiopyridine
;
_space_group_IT_number           2
_symmetry_cell_setting           triclinic
_symmetry_space_group_name_Hall  '-P 1'
_symmetry_space_group_name_H-M   'P -1'
_cell_angle_alpha                94.35(2)
_cell_angle_beta                 111.133(13)
_cell_angle_gamma                91.703(13)
_cell_formula_units_Z            2
_cell_length_a                   8.0720(10)
_cell_length_b                   8.6448(14)
_cell_length_c                   8.990(2)
_cell_measurement_reflns_used    25
_cell_measurement_temperature    294.0(10)
_cell_measurement_theta_max      18.0
_cell_measurement_theta_min      10.0
_cell_volume                     582.35(18)
_computing_cell_refinement
'Enraf-Nonius SET4 (de Boer & Duisenberg, 1984) and CELDIM'
_computing_data_collection       'CAD-4/PC Software (Enraf-Nonius, 1992)'
_computing_data_reduction
'DATRD2 in NRCVAX94 (Gabe, Le Page, Charland, Lee & White, 1989)'
_computing_molecular_graphics    'NRCVAX94, PLATON and PLUTON'
_computing_publication_material  'NRCVAX94, SHELXL93  and WordPerfect'
_computing_structure_refinement  'NRCVAX94 and SHELXL93 (Sheldrick, 1993)'
_computing_structure_solution    'SOLVER in NRCVAX'
_diffrn_ambient_temperature      294.0(10)
_diffrn_measurement_device       'Enraf-Nonius CAD-4'
_diffrn_measurement_method       \q/2\q
_diffrn_radiation_monochromator  graphite
_diffrn_radiation_source         'X-ray tube'
_diffrn_radiation_type           MoK\a
_diffrn_radiation_wavelength     0.7107
_diffrn_reflns_av_R_equivalents  0.000
_diffrn_reflns_av_sigmaI/netI    0.0169
_diffrn_reflns_limit_h_max       10
_diffrn_reflns_limit_h_min       -10
_diffrn_reflns_limit_k_max       11
_diffrn_reflns_limit_k_min       0
_diffrn_reflns_limit_l_max       11
_diffrn_reflns_limit_l_min       -11
_diffrn_reflns_number            2530
_diffrn_reflns_theta_max         26.89
_diffrn_reflns_theta_min         2.36
_diffrn_standards_decay_%        'no decay, variation 0.6'
_diffrn_standards_interval_time  120
_diffrn_standards_number         3
_exptl_absorpt_coefficient_mu    0.283
_exptl_absorpt_correction_type   none
_exptl_crystal_colour            yellow
_exptl_crystal_density_diffrn    1.461
_exptl_crystal_density_meas      ?
_exptl_crystal_description       prism
_exptl_crystal_F_000             268
_exptl_crystal_size_max          0.38
_exptl_crystal_size_mid          0.35
_exptl_crystal_size_min          0.29
_refine_diff_density_max         0.21
_refine_diff_density_min         -0.27
_refine_ls_extinction_method     none
_refine_ls_goodness_of_fit_all   1.033
_refine_ls_goodness_of_fit_obs   1.091
_refine_ls_hydrogen_treatment
'H atoms riding (SHELXL93 defaults, C---H 0.93--0.96, N---H 0.86\%A)'
_refine_ls_matrix_type           full
_refine_ls_number_parameters     154
_refine_ls_number_reflns         2530
_refine_ls_number_restraints     0
_refine_ls_restrained_S_all      1.033
_refine_ls_restrained_S_obs      1.091
_refine_ls_R_factor_all          0.0424
_refine_ls_R_factor_obs          0.0347
_refine_ls_shift/esd_max         0.000
_refine_ls_shift/esd_mean        0.000
_refine_ls_structure_factor_coef Fsqd
_refine_ls_weighting_scheme
;
calc w = 1/[\s^2^(F~o~^2^) + (0.0556P)^2^ + 0.1212P]
where P = (F~o~^2^ + 2F~c~^2^)/3
;
_refine_ls_wR_factor_all         0.0959
_refine_ls_wR_factor_obs         0.0922
_reflns_number_observed          2126
_reflns_number_total             2530
_reflns_observed_criterion       >2\s(I)
_cod_data_source_file            ab1308.cif
_cod_data_source_block           II
_cod_depositor_comments
;
The following automatic conversions were performed:

'_exptl_crystal_density_meas' value 'not measured' was changed to '?'
- the value is perceived as not measured.

Automatic conversion script
Id: cif_fix_values 3008 2015-01-20 13:52:24Z robertas 
;
_cod_original_cell_volume        582.4(2)
_cod_database_code               2004339
loop_
_symmetry_equiv_pos_as_xyz
'x, y, z'
'-x, -y, -z'
loop_
_atom_site_aniso_label
_atom_site_aniso_U_11
_atom_site_aniso_U_22
_atom_site_aniso_U_33
_atom_site_aniso_U_12
_atom_site_aniso_U_13
_atom_site_aniso_U_23
N1 0.0422(7) 0.0350(6) 0.0285(6) -0.0038(5) 0.0160(5) 0.0009(5)
C2 0.0406(8) 0.0403(8) 0.0284(7) -0.0047(6) 0.0158(6) -0.0010(6)
N2 0.0773(10) 0.0473(8) 0.0305(7) -0.0198(7) 0.0275(7) -0.0054(6)
C3 0.0487(9) 0.0332(8) 0.0322(7) -0.0071(6) 0.0186(7) -0.0031(6)
C4 0.0345(7) 0.0335(7) 0.0293(7) -0.0010(6) 0.0138(6) 0.0028(5)
C41 0.0443(8) 0.0291(7) 0.0297(7) -0.0020(6) 0.0181(6) -0.0014(5)
O41 0.0496(7) 0.0462(7) 0.0410(6) -0.0129(5) 0.0164(5) 0.0062(5)
O42 0.0436(6) 0.0406(6) 0.0425(6) 0.0032(5) 0.0165(5) 0.0133(5)
C42 0.0625(11) 0.0430(9) 0.0404(8) 0.0075(8) 0.0212(8) 0.0144(7)
C5 0.0344(7) 0.0316(7) 0.0259(6) 0.0001(5) 0.0121(5) 0.0006(5)
C51 0.0377(7) 0.0309(7) 0.0272(7) 0.0037(6) 0.0132(6) 0.0036(5)
O51 0.0597(7) 0.0425(6) 0.0347(6) -0.0067(5) 0.0271(5) -0.0005(5)
O52 0.0630(7) 0.0380(6) 0.0274(5) -0.0096(5) 0.0197(5) -0.0038(4)
C52 0.0595(10) 0.0420(9) 0.0264(7) -0.0007(7) 0.0153(7) -0.0032(6)
C6 0.0342(7) 0.0316(7) 0.0289(7) -0.0013(5) 0.0118(6) 0.0015(5)
S61 0.0632(3) 0.0328(2) 0.0338(2) -0.0111(2) 0.0210(2) -0.00114(14)
C61 0.0706(12) 0.0447(10) 0.0412(9) -0.0130(8) 0.0249(8) 0.0066(7)
loop_
_atom_site_label
_atom_site_occupancy
_atom_site_fract_x
_atom_site_fract_y
_atom_site_fract_z
_atom_site_U_iso_or_equiv
_atom_site_thermal_displace_type
_atom_site_calc_flag
_atom_site_refinement_flags
_atom_site_type_symbol
N1 1 .7275(2) .47172(15) .99964(14) .0346(3) Uani d . N
C2 1 .6639(2) .3258(2) .9417(2) .0359(3) Uani d . C
N2 1 .6334(2) .2839(2) .7863(2) .0505(4) Uani d . N
C3 1 .6323(2) .2167(2) 1.0382(2) .0375(3) Uani d . C
C4 1 .6584(2) .2645(2) 1.1937(2) .0319(3) Uani d . C
C41 1 .6328(2) .1418(2) 1.2946(2) .0334(3) Uani d . C
O41 1 .4930(2) .07147(14) 1.27038(13) .0458(3) Uani d . O
O42 1 .78704(15) .11255(13) 1.40408(13) .0415(3) Uani d . O
C42 1 .7789(3) .0030(2) 1.5151(2) .0473(4) Uani d . C
C5 1 .7168(2) .4191(2) 1.2568(2) .0305(3) Uani d . C
C51 1 .7241(2) .4630(2) 1.4214(2) .0314(3) Uani d . C
O51 1 .6490(2) .38546(13) 1.48672(13) .0433(3) Uani d . O
O52 1 .8200(2) .59449(13) 1.49093(12) .0425(3) Uani d . O
C52 1 .8275(2) .6399(2) 1.6519(2) .0432(4) Uani d . C
C6 1 .7545(2) .5173(2) 1.1528(2) .0316(3) Uani d . C
S61 1 .84473(6) .70968(5) 1.21952(5) .04283(14) Uani d . S
C61 1 .8692(3) .7755(2) 1.0434(2) .0511(4) Uani d . C
H2A 1 .6548 .3500 .7277 .061 Uiso calc R H
H2B 1 .5926 .1910 .7457 .061 Uiso calc R H
H3 1 .5946 .1144 .9971 .045 Uiso calc R H
H42A 1 .8968 -0.0099 1.5890 .071 Uiso calc R H
H42B 1 .7275 -0.0953 1.4571 .071 Uiso calc R H
H42C 1 .7069 .0413 1.5730 .071 Uiso calc R H
H52A 1 .8992 .7354 1.6922 .065 Uiso calc R H
H52B 1 .8789 .5601 1.7200 .065 Uiso calc R H
H52C 1 .7094 .6544 1.6501 .065 Uiso calc R H
H61A 1 .9182 .8810 1.0660 .077 Uiso calc R H
H61B 1 .7550 .7701 .9582 .077 Uiso calc R H
H61C 1 .9476 .7107 1.0118 .077 Uiso calc R H
loop_
_atom_type_symbol
_atom_type_description
_atom_type_scat_dispersion_real
_atom_type_scat_dispersion_imag
_atom_type_scat_source
C C 0.0033 0.0016 'International Tables Vol C Tables 4.2.6.8 and 6.1.1.4'
H H 0.0000 0.0000 'International Tables Vol C Tables 4.2.6.8 and 6.1.1.4'
N N 0.0061 0.0033 'International Tables Vol C Tables 4.2.6.8 and 6.1.1.4'
O O 0.0106 0.0060 'International Tables Vol C Tables 4.2.6.8 and 6.1.1.4'
S S 0.1246 0.1234 'International Tables Vol C Tables 4.2.6.8 and 6.1.1.4'
loop_
_diffrn_standard_refln_index_h
_diffrn_standard_refln_index_k
_diffrn_standard_refln_index_l
1 0 4
-4 -1 0
-2 6 2
loop_
_geom_angle_atom_site_label_1
_geom_angle_atom_site_label_2
_geom_angle_atom_site_label_3
_geom_angle
_geom_angle_publ_flag
C2 N1 C6 118.94(12) ?
N1 C2 N2 117.87(14) ?
N1 C2 C3 122.17(13) ?
N2 C2 C3 119.94(14) ?
C2 C3 C4 118.45(14) ?
C3 C4 C5 120.97(13) ?
C3 C4 C41 116.49(13) ?
C5 C4 C41 122.43(12) ?
O41 C41 O42 124.82(14) ?
O41 C41 C4 124.23(14) ?
O42 C41 C4 110.71(12) ?
C41 O42 C42 116.03(12) ?
C4 C5 C6 116.18(12) ?
C4 C5 C51 116.69(12) ?
C6 C5 C51 127.07(13) yes
O51 C51 O52 122.99(13) ?
O51 C51 C5 122.45(13) ?
O52 C51 C5 114.56(12) ?
C51 O52 C52 115.32(12) ?
N1 C6 C5 123.11(13) yes
N1 C6 S61 115.54(11) ?
S61 C6 C5 121.34(11) ?
C6 S61 C61 102.12(8) ?
loop_
_geom_bond_atom_site_label_1
_geom_bond_atom_site_label_2
_geom_bond_distance
_geom_bond_publ_flag
N1 C2 1.340(2) yes
N1 C6 1.340(2) yes
N2 C2 1.347(2) yes
C2 C3 1.406(2) yes
C3 C4 1.365(2) yes
C4 C5 1.409(2) yes
C4 C41 1.502(2) yes
O41 C41 1.205(2) yes
O42 C41 1.325(2) yes
O42 C42 1.443(2) yes
C5 C6 1.413(2) yes
C5 C51 1.479(2) yes
O51 C51 1.206(2) yes
O52 C51 1.332(2) yes
O52 C52 1.450(2) yes
S61 C6 1.766(2) yes
S61 C61 1.796(2) yes
loop_
_geom_torsion_atom_site_label_1
_geom_torsion_atom_site_label_2
_geom_torsion_atom_site_label_3
_geom_torsion_atom_site_label_4
_geom_torsion
_geom_torsion_publ_flag
C6 N1 C2 N2 178.27(14) ?
C6 N1 C2 C3 -3.1(2) ?
N1 C2 C3 C4 3.7(2) ?
N2 C2 C3 C4 -177.6(2) ?
C2 C3 C4 C5 -0.5(2) ?
C2 C3 C4 C41 -176.72(13) ?
C3 C4 C41 O41 -64.2(2) yes
C5 C4 C41 O41 119.7(2) yes
C3 C4 C41 O42 110.4(2) yes
C5 C4 C41 O42 -65.8(2) yes
O41 C41 O42 C42 -9.0(2) ?
C4 C41 O42 C42 176.45(12) ?
C3 C4 C5 C6 -3.1(2) ?
C41 C4 C5 C6 172.96(13) ?
C3 C4 C5 C51 174.23(14) ?
C41 C4 C5 C51 -9.8(2) ?
C4 C5 C51 O51 -16.1(2) ?
C6 C5 C51 O51 160.88(15) ?
C4 C5 C51 O52 163.93(13) ?
C6 C5 C51 O52 -19.1(2) ?
O51 C51 O52 C52 -0.5(2) ?
C5 C51 O52 C52 179.53(13) ?
C2 N1 C6 C5 -0.9(2) ?
C2 N1 C6 S61 178.20(11) ?
C4 C5 C6 N1 3.8(2) ?
C51 C5 C6 N1 -173.12(13) ?
C4 C5 C6 S61 -175.16(11) ?
C51 C5 C6 S61 7.9(2) ?
N1 C6 S61 C61 -0.40(14) yes
C5 C6 S61 C61 178.67(13) yes
loop_
_cod_related_entry_id
_cod_related_entry_database
_cod_related_entry_code
1 ChemSpider 10319322
