#------------------------------------------------------------------------------
#$Date: 2016-02-13 14:50:18 +0200 (Sat, 13 Feb 2016) $
#$Revision: 176428 $
#$URL: svn://www.crystallography.net/cod/cif/2/00/42/2004281.cif $
#------------------------------------------------------------------------------
#
# This file is available in the Crystallography Open Database (COD),
# http://www.crystallography.net/. The original data for this entry
# were provided by IUCr Journals, http://journals.iucr.org/.
#
# The file may be used within the scientific community so long as
# proper attribution is given to the journal article from which the
# data were obtained.
#
data_2004281
loop_
_publ_author_name
'Kakuda, H.'
'Takahashi, Y.'
'Hirokami, S.-i.'
_publ_section_title
;
 (<i>E</i>)- and (<i>Z</i>)-Enamine Dewar Pyrimidinones
;
_journal_issue                   12
_journal_name_full               'Acta Crystallographica Section C'
_journal_page_first              2647
_journal_page_last               2650
_journal_paper_doi               10.1107/S0108270195005841
_journal_volume                  51
_journal_year                    1995
_chemical_formula_moiety         'C9 H12 N2 O3'
_chemical_formula_sum            'C9 H12 N2 O3'
_chemical_formula_weight         196.21
_chemical_melting_point          400
_chemical_name_systematic
;
(E)-3-[(Methoxycarbonyl)methylene]-1,6-dimethyl-2,6-diazabicyclo
[2.2.0]hexan-5-one
;
_space_group_IT_number           7
_symmetry_cell_setting           monoclinic
_symmetry_space_group_name_Hall  'P -2yc'
_symmetry_space_group_name_H-M   'P 1 c 1'
_cell_angle_alpha                90
_cell_angle_beta                 92.610(10)
_cell_angle_gamma                90
_cell_formula_units_Z            2
_cell_length_a                   5.5580(10)
_cell_length_b                   5.7557(8)
_cell_length_c                   15.656(2)
_cell_measurement_reflns_used    25
_cell_measurement_temperature    295
_cell_measurement_theta_max      36.40
_cell_measurement_theta_min      26.97
_cell_volume                     500.32(13)
_computing_cell_refinement       'MSC/AFC Diffractometer Control'
_computing_data_collection
'MSC/AFC Diffractometer Control (Molecular Structure Corporation, 1992)'
_computing_data_reduction
'TEXSAN: PROCESS (Molecular Structure Corporation, 1985)'
_computing_molecular_graphics    'ORTEPII (Johnson, 1976)'
_computing_publication_material  'TEXSAN: FINISH'
_computing_structure_refinement  'TEXSAN: LS'
_computing_structure_solution
'SHELXS86 (Sheldrick, 1985), DIRDIF92 (Beurskens et al., 1992)'
_diffrn_ambient_temperature      295
_diffrn_measurement_device       AFC7R
_diffrn_measurement_method       '\w/2\q scans'
_diffrn_radiation_monochromator  graphite
_diffrn_radiation_source         'X-ray tube'
_diffrn_radiation_type           'Mo K\a'
_diffrn_radiation_wavelength     0.7107
_diffrn_reflns_av_R_equivalents  0.0514
_diffrn_reflns_limit_h_max       7
_diffrn_reflns_limit_h_min       0
_diffrn_reflns_limit_k_max       7
_diffrn_reflns_limit_k_min       0
_diffrn_reflns_limit_l_max       20
_diffrn_reflns_limit_l_min       -20
_diffrn_reflns_number            1407
_diffrn_reflns_theta_max         27.4953
_diffrn_standards_decay_%        0.34
_diffrn_standards_interval_count 150
_diffrn_standards_number         3
_exptl_absorpt_coefficient_mu    0.0990
_exptl_absorpt_correction_T_max  1.000
_exptl_absorpt_correction_T_min  0.492
_exptl_absorpt_correction_type   refdelf
_exptl_crystal_colour            colourless
_exptl_crystal_density_diffrn    1.302
_exptl_crystal_description       prism
_exptl_crystal_F_000             208
_exptl_crystal_size_max          0.34
_exptl_crystal_size_mid          0.31
_exptl_crystal_size_min          0.12
_refine_diff_density_max         0.11180
_refine_diff_density_min         -0.14820
_refine_ls_extinction_method     none
_refine_ls_goodness_of_fit_obs   1.200
_refine_ls_hydrogen_treatment    refall
_refine_ls_matrix_type           full
_refine_ls_number_parameters     173
_refine_ls_number_reflns         776
_refine_ls_R_factor_obs          0.0350
_refine_ls_shift/esd_max         0.0000
_refine_ls_structure_factor_coef F
_refine_ls_weighting_details     'w = 1/[\s^2^(F) + 0.0009F^2^]'
_refine_ls_weighting_scheme      calc
_refine_ls_wR_factor_obs         0.0490
_reflns_number_observed          776
_reflns_number_total             1283
_reflns_observed_criterion       ref_observed_if_I_>_3.00_\s(I)
_cod_data_source_file            kh1034.cif
_cod_data_source_block           E-3
_cod_depositor_comments
;
The following automatic conversions were performed:

'_refine_ls_weighting_scheme' value 'calc w = 1/[\s^2^(F) +
0.0009F^2^]' was changed to 'calc'. New tag
'_refine_ls_weighting_details' was created. The value of the new tag
was set to 'w = 1/[\s^2^(F) + 0.0009F^2^]'.

Automatic conversion script
Id: cif_fix_values 3143 2015-03-26 13:38:13Z robertas 
;
_cod_original_cell_volume        500.30(10)
_cod_original_sg_symbol_H-M      'P c'
_cod_database_code               2004281
loop_
_symmetry_equiv_pos_as_xyz
+x,+y,+z
+x,-y,1/2+z
loop_
_atom_site_aniso_label
_atom_site_aniso_U_11
_atom_site_aniso_U_22
_atom_site_aniso_U_33
_atom_site_aniso_U_12
_atom_site_aniso_U_13
_atom_site_aniso_U_23
_atom_site_aniso_type_symbol
O1 0.090(2) 0.056(2) 0.059(2) 0.009(2) 0.003(2) -0.0030(10) O
O2 0.078(2) 0.055(2) 0.083(2) -0.012(2) -0.026(2) 0.006(2) O
O3 0.067(2) 0.063(2) 0.067(2) -0.004(2) -0.019(2) 0.004(2) O
N1 0.048(2) 0.048(2) 0.063(2) 0.003(2) 0.007(2) -0.002(2) N
N2 0.051(2) 0.051(2) 0.041(2) -0.0030(10) 0.0070(10) 0.0050(10) N
C1 0.037(2) 0.060(2) 0.052(2) -0.001(2) 0.010(2) 0.007(2) C
C2 0.042(2) 0.046(2) 0.050(2) 0.001(2) 0.015(2) -0.002(2) C
C3 0.047(2) 0.045(2) 0.049(2) -0.007(2) 0.006(2) 0.009(2) C
C4 0.049(2) 0.047(2) 0.050(2) -0.008(2) 0.002(2) 0.006(2) C
C5 0.040(3) 0.097(4) 0.091(4) 0.008(3) 0.009(2) 0.024(3) C
C6 0.051(2) 0.051(2) 0.047(2) -0.004(2) 0.006(2) -0.004(2) C
C7 0.056(3) 0.059(2) 0.044(2) -0.007(2) -0.001(2) 0.000(2) C
C8 0.078(4) 0.075(3) 0.100(5) -0.003(3) -0.028(3) 0.020(3) C
C9 0.063(3) 0.065(2) 0.046(2) -0.007(2) 0.004(2) 0.010(2) C
loop_
_atom_site_label
_atom_site_fract_x
_atom_site_fract_y
_atom_site_fract_z
_atom_site_U_iso_or_equiv
_atom_site_thermal_displace_type
_atom_site_refinement_flags
_atom_site_type_symbol
O1 .6175 .0186(6) .3561 .0685(10) Uani yes O
O2 .7320(9) -.0180(5) .5793(3) .0730(10) Uani yes O
O3 1.0206(9) .1775(5) .6537(3) .0664(10) Uani yes O
N1 .4843(10) .6185(6) .4718(3) .0528(10) Uani yes N
N2 .4406(10) .3861(6) .3387(3) .0475(8) Uani yes N
C1 .3221(10) .4899(7) .4121(3) .0493(10) Uani yes C
C2 .5718(10) .4248(6) .5123(3) .0455(10) Uani yes C
C3 .3980(10) .2671(7) .4628(3) .0471(10) Uani yes C
C4 .5080(10) .1875(7) .3796(4) .0484(10) Uani yes C
C5 .0780(10) .5930(10) .3927(5) .0760(10) Uani yes C
C6 .7520(10) .3930(8) .5709(4) .0496(10) Uani yes C
C7 .8250(10) .1653(7) .5993(3) .0528(11) Uani yes C
C8 1.118(2) -.0400(10) .6840(5) .085(3) Uani yes C
C9 .5060(10) .4837(9) .2571(3) .0578(13) Uani yes C
H1 .570(7) .751(7) .465(2) .038(9) Uiso ? H
H3 .291(7) .160(7) .488(2) .041(9) Uiso ? H
H5 -.020(10) .470(10) .374(5) .096(10) Uiso ? H
H5' .100(10) .730(10) .359(4) .080(10) Uiso ? H
H5" .020(10) .690(10) .453(6) .130(8) Uiso ? H
H6 .853(9) .517(8) .588(3) .057(10) Uiso ? H
H8 1.000(10) -0.100(10) .715(4) .072(10) Uiso ? H
H8' 1.29(2) -.020(10) .692(6) .120(10) Uiso ? H
H8" 1.16(2) -0.14(2) .632(6) .138(6) Uiso ? H
H9 .614(9) .621(8) .270(3) .058(10) Uiso ? H
H9' .580(10) .360(10) .223(4) .100(10) Uiso ? H
H9" .350(10) .514(10) .225(4) .095(10) Uiso ? H
loop_
_atom_type_symbol
_atom_type_scat_dispersion_real
_atom_type_scat_dispersion_imag
_atom_type_scat_source
C 0.003 0.002 'International Tables for X-ray Crystallography (1974, Vol. IV)'
H 0.000 0.000 'International Tables for X-ray Crystallography (1974, Vol. IV)'
N 0.006 0.003 'International Tables for X-ray Crystallography (1974, Vol. IV)'
O 0.011 0.006 'International Tables for X-ray Crystallography (1974, Vol. IV)'
loop_
_diffrn_standard_refln_index_h
_diffrn_standard_refln_index_k
_diffrn_standard_refln_index_l
0 -1 -1
-1 -1 0
-1 -1 1
loop_
_geom_angle_atom_site_label_1
_geom_angle_atom_site_label_2
_geom_angle_atom_site_label_3
_geom_angle
_geom_angle_publ_flag
C7 O3 C8 116.3(4) yes
C1 N1 C2 94.5(3) yes
C1 N2 C4 95.6(3) yes
C1 N2 C9 131.7(3) yes
C4 N2 C9 131.6(4) yes
N1 C1 N2 114.6(3) yes
N1 C1 C3 87.0(3) yes
N1 C1 C5 117.0(4) yes
N2 C1 C3 86.7(3) yes
N2 C1 C5 115.7(4) yes
C3 C1 C5 130.7(4) yes
N1 C2 C3 92.7(3) yes
N1 C2 C6 132.1(4) yes
C3 C2 C6 135.2(4) yes
C1 C3 C2 85.3(3) yes
C1 C3 C4 85.6(3) yes
C2 C3 C4 110.2(3) yes
O1 C4 N2 131.7(4) yes
O1 C4 C3 136.2(4) yes
N2 C4 C3 92.1(3) yes
C2 C6 C7 121.8(4) yes
O2 C7 O3 122.0(4) yes
O2 C7 C6 127.3(3) yes
O3 C7 C6 110.7(3) yes
C1 N1 H1 131(2) ?
C2 N1 H1 124(2) ?
C1 C3 H3 125(2) ?
C2 C3 H3 124(2) ?
C4 C3 H3 116(2) ?
C1 C5 H5 105(4) ?
C1 C5 H5' 105(3) ?
C1 C5 H5'' 108(3) ?
H5 C5 H5' 123(5) ?
H5 C5 H5'' 116(6) ?
H5' C5 H5'' 95(4) ?
C2 C6 H6 121(2) ?
C7 C6 H6 116(2) ?
O3 C8 H8 105(3) ?
O3 C8 H8' 105(4) ?
O3 C8 H8'' 108(4) ?
H8 C8 H8' 134(6) ?
H8 C8 H8'' 113(6) ?
H8' C8 H8'' 86(6) ?
N2 C9 H9 107(2) ?
N2 C9 H9' 108(3) ?
N2 C9 H9'' 105(3) ?
H9 C9 H9' 114(4) ?
H9 C9 H9'' 117(4) ?
H9' C9 H9'' 103(4) ?
loop_
_geom_bond_atom_site_label_1
_geom_bond_atom_site_label_2
_geom_bond_distance
_geom_bond_publ_flag
O1 C4 1.213(5) yes
O2 C7 1.209(5) yes
O3 C7 1.353(4) yes
O3 C8 1.438(7) yes
N1 C1 1.469(6) yes
N1 C2 1.362(5) yes
N2 C1 1.476(6) yes
N2 C4 1.354(5) yes
N2 C9 1.458(5) yes
C1 C3 1.556(5) yes
C1 C5 1.500(6) yes
C2 C3 1.513(5) yes
C2 C6 1.340(6) yes
C3 C4 1.533(6) yes
C6 C7 1.436(6) yes
C3 H3 0.96(4) ?
C5 H5 0.93(8) ?
C5 H5' 0.97(6) ?
C5 H5" 1.17(9) ?
N1 H1 0.91(4) ?
C6 H6 0.94(5) ?
C8 H8 0.89(7) ?
C8 H8' 0.90(10) ?
C8 H8" 1.02(9) ?
C9 H9 1.01(5) ?
C9 H9' 1.02(7) ?
C9 H9" 0.99(7) ?
loop_
_geom_contact_atom_site_label_1
_geom_contact_atom_site_label_2
_geom_contact_distance
_geom_contact_site_symmetry_2
_geom_contact_publ_flag
O1 N1 3.042(5) 1_545 no
O1 C9 3.489(6) 1_545 no
O1 C5 3.568(6) 1_645 no
O1 C1 3.586(5) 1_545 no
O2 N1 2.983(5) 1_545 no
O2 C6 3.395(6) 1_545 no
O2 C2 3.478(5) 1_545 no
C8 C9 3.499(8) 2_655 no
N1 C5 3.579(7) 1_655 no
N1 C4 3.584(5) 1_565 no
N2 C8 3.556(7) 2_454 no
C2 C5 3.584(7) 1_655 no
C5 C6 3.584(8) 1_455 no
C6 C9 3.351(6) 2_565 no
loop_
_geom_torsion_atom_site_label_1
_geom_torsion_atom_site_label_2
_geom_torsion_atom_site_label_3
_geom_torsion_atom_site_label_4
_geom_torsion
O1 C4 N2 C1 -179.7(5)
O1 C4 N2 C9 -11.0(7)
O1 C4 C3 C1 179.6(5)
O1 C4 C3 C2 96.2(6)
O2 C7 O3 C8 2.4(7)
O2 C7 C6 C2 -3.9(7)
O3 C7 C6 C2 175.7(4)
N1 C1 N2 C4 86.0(4)
N1 C1 N2 C9 -82.8(5)
N1 C1 C3 C2 -4.8(3)
N1 C1 C3 C4 -115.6(3)
N1 C2 C3 C1 5.2(3)
N1 C2 C3 C4 88.7(4)
N1 C2 C6 C7 -174.5(4)
N2 C1 N1 C2 -79.6(4)
N2 C1 C3 C2 110.0(3)
N2 C1 C3 C4 -0.7(3)
N2 C4 C3 C1 0.8(3)
N2 C4 C3 C2 -82.6(3)
C1 N1 C2 C3 -5.5(3)
C1 N1 C2 C6 171.7(5)
C1 N2 C4 C3 -0.8(3)
C1 C3 C2 C6 -171.8(5)
C2 N1 C1 C3 5.4(3)
C2 N1 C1 C5 140.2(4)
C2 C3 C1 C5 -128.4(6)
C3 C1 N2 C4 0.8(3)
C3 C1 N2 C9 -167.9(4)
C3 C2 C6 C7 1.5(8)
C3 C4 N2 C9 167.9(4)
C4 N2 C1 C5 -133.4(4)
C4 C3 C1 C5 120.9(6)
C4 C3 C2 C6 -88.3(6)
C5 C1 N2 C9 57.9(6)
C6 C7 O3 C8 -177.3(5)
