#------------------------------------------------------------------------------
#$Date: 2016-02-19 16:29:56 +0200 (Fri, 19 Feb 2016) $
#$Revision: 176759 $
#$URL: svn://www.crystallography.net/cod/cif/2/00/46/2004687.cif $
#------------------------------------------------------------------------------
#
# This file is available in the Crystallography Open Database (COD),
# http://www.crystallography.net/. The original data for this entry
# were provided by IUCr Journals, http://journals.iucr.org/.
#
# The file may be used within the scientific community so long as
# proper attribution is given to the journal article from which the
# data were obtained.
#
data_2004687
loop_
_publ_author_name
'Martin, A.'
'Pinkerton, A. A.'
_publ_section_title
;
 Two Energetic Ionic Materials: the Biguanidium Perchlorates
;
_journal_issue                   4
_journal_name_full               'Acta Crystallographica Section C'
_journal_page_first              1048
_journal_page_last               1052
_journal_paper_doi               10.1107/S0108270195014624
_journal_volume                  52
_journal_year                    1996
_chemical_formula_iupac          'C2 H9 N5 2+, 2Cl O4 1-'
_chemical_formula_sum            'C2 H9 Cl2 N5 O8'
_chemical_formula_weight         302.03
_chemical_name_systematic        ' ?'
_space_group_IT_number           2
_symmetry_cell_setting           triclinic
_symmetry_space_group_name_Hall  '-P 1'
_symmetry_space_group_name_H-M   'P -1'
_atom_type_scat_source           IntTabIV
_cell_angle_alpha                82.020(10)
_cell_angle_beta                 83.200(10)
_cell_angle_gamma                69.920(10)
_cell_formula_units_Z            2
_cell_length_a                   7.4090(10)
_cell_length_b                   7.6190(10)
_cell_length_c                   9.8430(10)
_cell_measurement_reflns_used    25
_cell_measurement_temperature    100
_cell_measurement_theta_max      17
_cell_measurement_theta_min      8
_cell_volume                     515.30(12)
_computing_cell_refinement       CAD4_(Enraf-Nonius,_1977)
_computing_data_collection       CAD4_(Enraf-Nonius,_1977)
_computing_data_reduction        PROCESS_MolEN_(Fair,_1990)
_computing_molecular_graphics    CaChe_Worksystem_(1994)
_computing_publication_material  CIF_VAX_MolEN_(Fair,_1990)
_computing_structure_refinement  LSFM_MolEN_(Fair,_1990)
_computing_structure_solution    Direct_methods_(SIR,_Burla_et_al.,_1989)
_diffrn_ambient_temperature      100
_diffrn_measurement_device       Enraf_Nonius_CAD4
_diffrn_measurement_method       \q/2\q
_diffrn_radiation_type           MoK\a
_diffrn_radiation_wavelength     0.71073
_diffrn_reflns_av_R_equivalents  0.022
_diffrn_reflns_limit_h_max       9
_diffrn_reflns_limit_h_min       0
_diffrn_reflns_limit_k_max       9
_diffrn_reflns_limit_k_min       -8
_diffrn_reflns_limit_l_max       12
_diffrn_reflns_limit_l_min       -12
_diffrn_reflns_number            2188
_diffrn_reflns_theta_max         25.97
_diffrn_reflns_theta_min         2.10
_diffrn_standards_decay_%        3.20
_diffrn_standards_interval_time  50
_diffrn_standards_number         3
_exptl_absorpt_coefficient_mu    0.673
_exptl_absorpt_correction_T_max  1.000
_exptl_absorpt_correction_T_min  0.855
_exptl_absorpt_correction_type   'DIFABS (Walker & Stuart, 1983)'
_exptl_crystal_colour            colorless
_exptl_crystal_density_diffrn    1.95
_exptl_crystal_description       parallelepiped
_exptl_crystal_F_000             308
_exptl_crystal_size_max          0.30
_exptl_crystal_size_mid          0.28
_exptl_crystal_size_min          0.18
_refine_diff_density_max         0.37
_refine_diff_density_min         -0.43
_refine_ls_abs_structure_details
;
?
;
_refine_ls_extinction_coef       0.18E-5
_refine_ls_extinction_method     isotropic_(Zachariasen,_1963)
_refine_ls_goodness_of_fit_obs   3.205
_refine_ls_hydrogen_treatment    refall
_refine_ls_matrix_type           full
_refine_ls_number_parameters     191
_refine_ls_number_reflns         1803
_refine_ls_number_restraints     0
_refine_ls_R_factor_all          0.042
_refine_ls_R_factor_obs          0.030
_refine_ls_shift/esd_max         <0.001
_refine_ls_structure_factor_coef F
_refine_ls_weighting_details     'w = 1/\s^2^(F)'
_refine_ls_weighting_scheme      calc
_refine_ls_wR_factor_obs         0.035
_reflns_number_observed          1803
_reflns_number_total             2020
_reflns_observed_criterion       >3.0\s(I)
_cod_data_source_file            bk1092.cif
_cod_data_source_block           1
_cod_depositor_comments
;
The following automatic conversions were performed:

'_refine_ls_weighting_scheme' value '1/\s^2^(F)' was changed to
'calc'. New tag '_refine_ls_weighting_details' was created. The value
of the new tag was set to 'w = 1/\s^2^(F)'.

Automatic conversion script
Id: cif_fix_values 3143 2015-03-26 13:38:13Z robertas 
;
_cod_original_cell_volume        515.3(2)
_cod_database_code               2004687
loop_
_symmetry_equiv_pos_as_xyz
x,y,z
-x,-y,-z
loop_
_atom_site_aniso_label
_atom_site_aniso_U_11
_atom_site_aniso_U_22
_atom_site_aniso_U_33
_atom_site_aniso_U_12
_atom_site_aniso_U_13
_atom_site_aniso_U_23
Cl1 0.0104(2) 0.0125(2) 0.0114(3) -0.0040(2) -0.0001(2) -0.0024(2)
Cl2 0.0097(2) 0.0085(2) 0.0108(3) -0.0033(2) -0.0013(2) -0.0004(2)
O1 0.0208(8) 0.0371(9) 0.0250(10) -0.0198(7) 0.0050(8) -0.0028(8)
O2 0.0264(9) 0.0194(8) 0.0191(9) -0.0058(7) -0.0076(8) -0.0073(7)
O3 0.0190(9) 0.0149(8) 0.0174(9) 0.0029(7) -0.0002(8) -0.0035(7)
O4 0.0168(8) 0.0147(8) 0.0140(8) -0.0003(6) -0.0017(7) -0.0008(7)
O5 0.0103(8) 0.0172(8) 0.0280(10) -0.0008(6) -0.0023(8) 0.0009(8)
O6 0.0157(8) 0.0234(8) 0.0186(9) -0.0127(6) -0.0006(7) 0.0014(7)
O7 0.0235(9) 0.0125(7) 0.0216(9) -0.0047(6) -0.0033(8) -0.0064(7)
O8 0.0291(9) 0.0221(8) 0.0114(9) -0.0113(7) -0.0025(8) 0.0007(7)
N1 0.0132(9) 0.0122(9) 0.0110(10) -0.0048(7) 0.0026(8) -0.0010(8)
N2 0.0260(10) 0.0099(9) 0.0110(10) -0.0055(8) 0.0041(9) 0.0001(8)
N3 0.0124(9) 0.0087(8) 0.0110(10) -0.0014(7) 0.0003(8) -0.0016(8)
N4 0.0141(9) 0.0160(9) 0.0120(10) -0.0047(7) -0.0005(8) -0.0011(8)
N5 0.0116(9) 0.0173(9) 0.0120(10) -0.0036(7) -0.0013(8) 0.0014(8)
C1 0.0100(10) 0.0130(10) 0.0110(10) -0.0041(8) -0.0037(9) -0.0017(9)
C2 0.0150(10) 0.0119(9) 0.0090(10) -0.0083(7) -0.0016(9) -0.0035(8)
loop_
_atom_site_label
_atom_site_fract_x
_atom_site_fract_y
_atom_site_fract_z
_atom_site_U_iso_or_equiv
_atom_site_thermal_displace_type
Cl1 .03513(8) .29809(8) .20887(6) .01130(10) Uani
Cl2 -0.34878(8) -.00828(8) .26851(6) .00960(10) Uani
O1 .1937(3) .3628(3) .1649(2) .0255(5) Uani
O2 -.0076(3) .2133(2) .1022(2) .0210(5) Uani
O3 -0.1328(3) .4559(2) .2452(2) .0193(5) Uani
O4 .0799(2) .1667(2) .3311(2) .0165(5) Uani
O5 -0.1571(2) -0.1295(2) .2936(2) .0198(5) Uani
O6 -0.4835(2) -.0935(2) .3376(2) .0180(5) Uani
O7 -0.3822(3) .1686(2) .3209(2) .0190(5) Uani
O8 -0.3726(3) .0235(2) .1231(2) .0203(5) Uani
N1 .2037(3) .7550(3) .4354(2) .0123(5) Uani
N2 .2784(3) .4354(3) .4772(2) .0163(6) Uani
N3 .4085(3) .5585(3) .2801(2) .0113(5) Uani
N4 .5480(3) .6551(3) .0783(2) .0143(6) Uani
N5 .2291(3) .8132(3) .1367(2) .0141(6) Uani
C1 .2922(3) .5856(3) .3995(2) .0109(6) Uani
C2 .3929(3) .6809(3) .1631(2) .0108(6) Uani
H1 .234(4) .843(4) .391(3) .021(8) Uiso
H2 .120(4) .773(4) .506(3) .023(8) Uiso
H3 .227(3) .443(3) .552(3) .011(7) Uiso
H4 .326(4) .331(4) .454(3) .040(10) Uiso
H5 .482(3) .451(3) .275(3) .012(7) Uiso
H6 .649(3) .596(3) .108(3) .013(7) Uiso
H7 .540(4) .736(4) -.004(3) .033(9) Uiso
H8 .236(4) .881(4) .059(3) .021(8) Uiso
H9 .131(4) .816(4) .183(3) .015(7) Uiso
loop_
_geom_angle_atom_site_label_1
_geom_angle_atom_site_label_2
_geom_angle_atom_site_label_3
_geom_angle
_geom_angle_publ_flag
O1 Cl1 O2 110.60(10) y
O1 Cl1 O3 109.30(10) y
O1 Cl1 O4 109.30(10) y
O2 Cl1 O3 109.20(10) y
O2 Cl1 O4 110.90(10) y
O3 Cl1 O4 107.60(10) y
O5 Cl2 O6 109.20(10) y
O5 Cl2 O7 109.00(10) y
O5 Cl2 O8 110.10(10) y
O6 Cl2 O7 109.40(10) y
O6 Cl2 O8 109.70(10) y
O7 Cl2 O8 109.40(10) y
C1 N3 C2 127.0(2) y
N1 C1 N2 122.0(2) y
N1 C1 N3 120.6(2) y
N2 C1 N3 117.3(2) y
N3 C2 N4 116.5(2) y
N3 C2 N5 121.1(2) y
N4 C2 N5 122.4(2) y
loop_
_geom_bond_atom_site_label_1
_geom_bond_atom_site_label_2
_geom_bond_distance
_geom_bond_publ_flag
Cl1 O1 1.424(2) y
Cl1 O2 1.424(2) y
Cl1 O3 1.452(2) y
Cl1 O4 1.446(2) y
Cl2 O5 1.431(2) y
Cl2 O6 1.429(2) y
Cl2 O7 1.441(2) y
Cl2 O8 1.439(2) y
N1 C1 1.308(3) y
N2 C1 1.313(3) y
N3 C1 1.369(3) y
N3 C2 1.367(3) y
N4 C2 1.311(3) y
N5 C2 1.311(3) y
