#------------------------------------------------------------------------------
#$Date: 2016-02-14 16:26:36 +0200 (Sun, 14 Feb 2016) $
#$Revision: 176435 $
#$URL: svn://www.crystallography.net/cod/cif/2/00/54/2005417.cif $
#------------------------------------------------------------------------------
#
# This file is available in the Crystallography Open Database (COD),
# http://www.crystallography.net/. The original data for this entry
# were provided by IUCr Journals, http://journals.iucr.org/.
#
# The file may be used within the scientific community so long as
# proper attribution is given to the journal article from which the
# data were obtained.
#
data_2005417
loop_
_publ_author_name
'Raju, K. V. N.'
'Krishnaiah, M.'
'Chen, Y.-S.'
'Rao, S. N.'
'Holt, E. M.'
_publ_section_title
;
 (<i>E</i>)-6-Chloro-3-[2-(4-chlorophenylsulfonyl)ethenyl]-4-chromanone,
 (<i>E</i>)-6-Bromo-3-[2-(4-bromophenylsulfonyl)ethenyl]-4-chromanone
 and
 (<i>E</i>)-3-[2-(4-Chlorophenylsulfonyl)ethenyl]-6-methoxy-4-chromanone
;
_journal_issue                   9
_journal_name_full               'Acta Crystallographica Section C'
_journal_page_first              2212
_journal_page_last               2215
_journal_paper_doi               10.1107/S0108270196003563
_journal_volume                  52
_journal_year                    1996
_chemical_formula_moiety         'C17 H10 Cl2 O4 S1'
_chemical_formula_sum            'C17 H10 Cl2 O4 S'
_chemical_formula_weight         381.2
_chemical_melting_point          .23E-228
_chemical_name_systematic
;
(E)-3-[2-(4-chlorophenylsulfonyl) Ethenyl]-6-chloro-4H-1-benzopyran-4-one
;
_space_group_IT_number           2
_symmetry_cell_setting           triclinic
_symmetry_space_group_name_Hall  '-P 1'
_symmetry_space_group_name_H-M   'P -1'
_cell_angle_alpha                91.34(1)
_cell_angle_beta                 98.88(1)
_cell_angle_gamma                97.51(1)
_cell_formula_units_Z            2
_cell_length_a                   6.778(1)
_cell_length_b                   10.451(1)
_cell_length_c                   11.618(1)
_cell_measurement_reflns_used    65
_cell_measurement_temperature    298
_cell_measurement_theta_max      12.505
_cell_measurement_theta_min      5.721
_cell_volume                     805.35(16)
_computing_cell_refinement       XSCANS
_computing_data_collection       'XSCANS (Siemens, 1991)'
_computing_data_reduction        XSCANS
_computing_molecular_graphics    'XP (Siemens, 1990)'
_computing_structure_refinement  SHELXS86
_computing_structure_solution    'SHELXS86 (Sheldrick, 1990)'
_diffrn_ambient_temperature      298
_diffrn_measurement_device       'Syntex P4 four-circle'
_diffrn_measurement_method       \q/2\q
_diffrn_radiation_monochromator  'highly oriented graphite crystal'
_diffrn_radiation_source         'fine-focus sealed tube'
_diffrn_radiation_type           MoK\a
_diffrn_radiation_wavelength     0.71073
_diffrn_reflns_av_R_equivalents  0.018
_diffrn_reflns_limit_h_max       6
_diffrn_reflns_limit_h_min       -6
_diffrn_reflns_limit_k_max       10
_diffrn_reflns_limit_k_min       -10
_diffrn_reflns_limit_l_max       11
_diffrn_reflns_limit_l_min       0
_diffrn_reflns_number            2006
_diffrn_reflns_theta_max         25.0
_diffrn_reflns_theta_min         1.75
_diffrn_standards_decay_%        0.0001
_diffrn_standards_interval_time  97
_diffrn_standards_number         3
_exptl_absorpt_coefficient_mu    0.551
_exptl_absorpt_correction_type   none
_exptl_crystal_colour            colorless
_exptl_crystal_density_diffrn    1.572
_exptl_crystal_description       needle
_exptl_crystal_F_000             388
_exptl_crystal_size_max          0.3
_exptl_crystal_size_mid          0.2
_exptl_crystal_size_min          0.2
_refine_diff_density_max         0.22
_refine_diff_density_min         -0.20
_refine_ls_extinction_method     none
_refine_ls_goodness_of_fit_obs   1.14
_refine_ls_hydrogen_treatment
;H atoms positioned by idealized geometry. Riding model with fixed
isotropic displacement parameters.
;
_refine_ls_matrix_type           full
_refine_ls_number_parameters     218
_refine_ls_number_reflns         1499
_refine_ls_R_factor_obs          .0308
_refine_ls_shift/esd_max         0.001
_refine_ls_shift/esd_mean        0.000
_refine_ls_structure_factor_coef F
_refine_ls_weighting_details     'w =1/[\s^2^(F) + 0.0008F^2^]'
_refine_ls_weighting_scheme      calc
_refine_ls_wR_factor_obs         .0429
_reflns_number_observed          1292
_reflns_number_total             1499
_reflns_observed_criterion       F>4.0\s(F)
_cod_data_source_file            pa1224.cif
_cod_data_source_block           I
_cod_depositor_comments
;
The following automatic conversions were performed:

'_refine_ls_weighting_scheme' value 'w =1/[\s^2^(F) + 0.0008F^2^]'
was changed to 'calc'. New tag '_refine_ls_weighting_details' was
created. The value of the new tag was set to 'w =1/[\s^2^(F) +
0.0008F^2^]'.

Automatic conversion script
Id: cif_fix_values 3143 2015-03-26 13:38:13Z robertas 
;
_cod_original_cell_volume        805.3(2)
_cod_original_formula_sum        'C17 H10 Cl2 O4 S1'
_cod_database_code               2005417
loop_
_symmetry_equiv_pos_as_xyz
x,y,z
-x,-y,-z
loop_
_atom_site_aniso_label
_atom_site_aniso_U_11
_atom_site_aniso_U_22
_atom_site_aniso_U_33
_atom_site_aniso_U_12
_atom_site_aniso_U_13
_atom_site_aniso_U_23
S(11) .0390(10) .0420(10) .0380(10) .0020(10) .0050(10) .0000(10)
Cl(1) .0660(10) .0520(10) .1030(10) .0130(10) .0350(10) -.0050(10)
Cl(2) .0820(10) .0820(10) .0510(10) -.0150(10) .0240(10) .0060(10)
O(1) .054(2) .0480(10) .0400(10) .0070(10) .0010(10) -.0060(10)
O(2) .055(2) .075(2) .045(2) .0220(10) -.0050(10) -.0090(10)
O(3) .054(2) .0460(10) .0510(10) .0130(10) .0090(10) .0080(10)
O(4) .044(2) .063(2) .0520(10) -.0160(10) .0050(10) -.0070(10)
C(2) .047(2) .045(2) .045(2) .008(2) .006(2) .002(2)
C(3) .040(2) .041(2) .035(2) .003(2) .004(2) .004(2)
C(4) .039(2) .041(2) .041(2) .001(2) .009(2) .002(2)
C(4') .043(2) .035(2) .039(2) -.002(2) .011(2) .004(2)
C(5) .046(2) .041(2) .051(2) .004(2) .014(2) -.004(2)
C(6) .051(2) .038(2) .068(3) .000(2) .027(2) .007(2)
C(7) .075(3) .043(2) .059(3) -.006(2) .028(3) -.009(2)
C(8) .060(3) .051(2) .049(2) -.003(2) .012(2) -.006(2)
C(8') .049(2) .035(2) .045(2) .002(2) .016(2) .000(2)
C(9) .043(2) .043(2) .039(2) .004(2) .007(2) .002(2)
C(10) .037(2) .047(2) .039(2) .007(2) .010(2) .004(2)
C(12) .035(2) .037(2) .032(2) .003(2) .005(2) -.005(2)
C(13) .037(2) .064(2) .047(2) .005(2) .004(2) .014(2)
C(14) .033(2) .069(2) .060(3) .002(2) .004(2) .012(2)
C(15) .053(3) .046(2) .037(2) -.006(2) .016(2) -.005(2)
C(16) .059(3) .065(2) .033(2) -.006(2) -.005(2) .007(2)
C(17) .041(2) .060(2) .041(2) -.002(2) -.004(2) .000(2)
loop_
_atom_site_label
_atom_site_fract_x
_atom_site_fract_y
_atom_site_fract_z
_atom_site_U_iso_or_equiv
_atom_site_thermal_displace_type
_atom_site_calc_flag
_atom_site_calc_attached_atom
S(11) .3009(1) .5195(1) .2219(1) .040(1) Uani d .
Cl(1) .9485(2) -.1030(1) -.1887(1) .071(1) Uani d .
Cl(2) -.1968(2) .2150(1) .5612(1) .072(1) Uani d .
O(1) .2376(3) .1646(2) -.2373(2) .048(1) Uani d .
O(2) .6347(4) .2273(2) .0671(2) .058(1) Uani d .
O(3) .1664(3) .5901(2) .1490(2) .050(1) Uani d .
O(4) .4792(3) .5880(2) .2907(2) .055(1) Uani d .
C(2) .2124(5) .2463(3) -.1523(3) .046(1) Uani d .
H(2A) .0943 .2890 -.1657 .080 Uiso calc R
C(3) .3358(5) .2734(3) -.0488(3) .039(1) Uani d .
C(4) .5158(5) .2112(3) -.0246(3) .041(1) Uani d .
C(4') .5458(5) .1226(3) -.1192(3) .040(1) Uani d .
C(5) .7147(5) .0583(3) -.1108(3) .046(1) Uani d .
H(5A) .8146 .0711 -.0419 .080 Uiso calc R
C(6) .7380(5) -.0227(3) -.1993(3) .051(1) Uani d .
C(7) .5926(7) -.0432(3) -.3003(3) .059(2) Uani d .
H(7A) .6104 -.1018 -.3616 .080 Uiso calc R
C(8) .4277(6) .0195(3) -.3106(3) .054(2) Uani d .
H(8A) .3264 .0063 -.3789 .080 Uiso calc R
C(8') .4053(5) .1028(3) -.2203(3) .043(1) Uani d .
C(9) .2809(5) .3670(3) .0306(3) .042(1) Uani d .
H(9A) .1642 .4080 .0045 .080 Uiso calc R
C(10) .3772(5) .4024(3) .1364(3) .041(1) Uani d .
H(10A) .4924 .3615 .1661 .080 Uiso calc R
C(12) .1603(5) .4325(3) .3179(3) .035(1) Uani d .
C(13) -.0444(5) .4016(3) .2873(3) .050(1) Uani d .
H(13A) -.1095 .4282 .2141 .080 Uiso calc R
C(14) -.1539(5) .3339(3) .3620(3) .055(1) Uani d .
H(14A) -.2970 .3106 .3418 .080 Uiso calc R
C(15) -.0575(6) .2986(3) .4660(3) .046(1) Uani d .
C(16) .1475(6) .3261(4) .4970(3) .055(2) Uani d .
H(16A) .2130 .2980 .5694 .080 Uiso calc R
C(17) .2573(5) .3939(3) .4220(3) .049(1) Uani d .
H(17A) .4009 .4155 .4415 .080 Uiso calc R
loop_
_atom_type_symbol
_atom_type_scat_dispersion_real
_atom_type_scat_dispersion_imag
_atom_type_scat_source
C 0.0 0.0 'International Tables Vol C Tables 4.2.6.8 and 6.1.1.4'
H 0.0 0.0 'International Tables Vol C Tables 4.2.6.8 and 6.1.1.4'
O 0.0 0.0 'International Tables Vol C Tables 4.2.6.8 and 6.1.1.4'
S 0.110 0.124 'International Tables Vol C Tables 4.2.6.8 and 6.1.1.4'
Cl 0.132 0.159 'International Tables Vol C Tables 4.2.6.8 and 6.1.1.4'
loop_
_geom_angle_atom_site_label_1
_geom_angle_atom_site_label_2
_geom_angle_atom_site_label_3
_geom_angle
_geom_angle_publ_flag
O(3) S(11) O(4) 119.40(10) no
O(3) S(11) C(10) 108.90(10) no
O(4) S(11) C(10) 107.20(10) no
O(3) S(11) C(12) 107.60(10) no
O(4) S(11) C(12) 107.70(10) no
C(10) S(11) C(12) 105.2(2) no
C(2) O(1) C(8') 117.6(2) no
O(1) C(2) C(3) 126.3(3) no
C(2) C(3) C(4) 119.1(3) no
C(2) C(3) C(9) 117.2(3) no
C(4) C(3) C(9) 123.7(3) no
C(3) C(4) C(4') 114.6(3) no
C(3) C(4) O(2) 124.1(3) no
C(4') C(4) O(2) 121.3(3) no
C(4) C(4') C(5) 121.6(3) no
C(4) C(4') C(8') 120.0(3) no
C(5) C(4') C(8') 118.3(3) no
C(4') C(5) C(6) 120.3(3) no
Cl(1) C(6) C(5) 120.3(3) no
Cl(1) C(6) C(7) 119.1(3) no
C(5) C(6) C(7) 120.6(4) no
C(6) C(7) C(8) 119.9(4) no
C(7) C(8) C(8') 119.2(3) no
O(1) C(8') C(4') 122.2(3) no
O(1) C(8') C(8) 116.1(3) no
C(4') C(8') C(8) 121.6(3) no
C(3) C(9) C(10) 126.2(3) no
S(11) C(10) C(9) 121.9(3) no
S(11) C(12) C(13) 119.7(2) no
S(11) C(12) C(17) 119.9(3) no
C(13) C(12) C(17) 120.4(3) no
C(12) C(13) C(14) 119.7(3) no
C(13) C(14) C(15) 119.6(3) no
Cl(2) C(15) C(14) 119.5(3) no
Cl(2) C(15) C(16) 119.0(3) no
C(14) C(15) C(16) 121.5(3) no
C(15) C(16) C(17) 118.8(3) no
C(12) C(17) C(16) 119.9(3) no
loop_
_geom_bond_atom_site_label_1
_geom_bond_atom_site_label_2
_geom_bond_distance
_geom_bond_publ_flag
S(11) O(3) 1.435(2) yes
S(11) O(4) 1.436(2) yes
S(11) C(10) 1.737(4) yes
S(11) C(12) 1.769(3) yes
Cl(1) C(6) 1.737(4) yes
Cl(2) C(15) 1.741(4) yes
O(1) C(2) 1.336(4) yes
O(1) C(8') 1.370(4) yes
C(2) C(3) 1.355(4) yes
C(3) C(4) 1.450(5) yes
C(3) C(9) 1.451(5) yes
C(4) C(4') 1.477(5) yes
C(4) O(2) 1.226(4) yes
C(4') C(5) 1.393(5) yes
C(4') C(8') 1.385(4) yes
C(5) C(6) 1.358(5) yes
C(6) C(7) 1.404(5) yes
C(7) C(8) 1.359(6) yes
C(8) C(8') 1.387(5) yes
C(9) C(10) 1.320(4) yes
C(12) C(13) 1.371(5) yes
C(12) C(17) 1.379(4) yes
C(13) C(14) 1.377(5) yes
C(14) C(15) 1.365(5) yes
C(15) C(16) 1.371(5) yes
C(16) C(17) 1.381(5) yes
