#------------------------------------------------------------------------------
#$Date: 2016-02-19 16:29:56 +0200 (Fri, 19 Feb 2016) $
#$Revision: 176759 $
#$URL: svn://www.crystallography.net/cod/cif/2/00/53/2005389.cif $
#------------------------------------------------------------------------------
#
# This file is available in the Crystallography Open Database (COD),
# http://www.crystallography.net/. The original data for this entry
# were provided by IUCr Journals, http://journals.iucr.org/.
#
# The file may be used within the scientific community so long as
# proper attribution is given to the journal article from which the
# data were obtained.
#
data_2005389
loop_
_publ_author_name
'Fun, H.-K.'
'Sivakumar, K.'
'Chua, S.-O.'
'Ooi, M.-F.'
'Anwair, M. A. S.'
'Gan, E.-K.'
'Jackson, W. R.'
_publ_section_title
;
 Substituted Imidazonaphthyridine Derivatives. I. C~19~H~14~F~3~N~3~,
 C~18~H~10~F~5~N~3~, C~18~H~11~ClF~3~N~3~ and C~18~H~11~BrF~3~N~3~
;
_journal_issue                   9
_journal_name_full               'Acta Crystallographica Section C'
_journal_page_first              2231
_journal_page_last               2236
_journal_paper_doi               10.1107/S010827019600371X
_journal_volume                  52
_journal_year                    1996
_chemical_formula_sum            'C18 H11 Cl F3 N3'
_chemical_formula_weight         361.75
_chemical_name_systematic
;
2-(4-chlorophenyl)-6-methyl-8-trifluoromethylimidazo[1,2-a][1,8]
naphthyridine.
;
_space_group_IT_number           2
_symmetry_cell_setting           triclinic
_symmetry_space_group_name_Hall  '-P 1'
_symmetry_space_group_name_H-M   'P -1'
_audit_creation_method           SHELXL
_cell_angle_alpha                70.43(2)
_cell_angle_beta                 89.09(2)
_cell_angle_gamma                62.25(1)
_cell_formula_units_Z            2
_cell_length_a                   8.422(2)
_cell_length_b                   9.042(1)
_cell_length_c                   12.859(3)
_cell_measurement_reflns_used    35
_cell_measurement_temperature    293(2)
_cell_measurement_theta_max      25
_cell_measurement_theta_min      9
_cell_volume                     804.9(3)
_computing_cell_refinement       XSCANS
_computing_data_collection       'XSCANS (Siemens, 1994)'
_computing_data_reduction        XSCANS
_computing_molecular_graphics    SHELXTL/PC
_computing_publication_material  'SHELXL93, PARST (Nardelli, 1983)'
_computing_structure_refinement  'SHELXL93 (Sheldrick, 1993)'
_computing_structure_solution
'SHELXTL/PC (Sheldrick, 1990) (direct methods)'
_diffrn_ambient_temperature      293(2)
_diffrn_measurement_device       'Siemens P4 diffractometer'
_diffrn_measurement_method       '\q/2\q scans'
_diffrn_radiation_monochromator  graphite
_diffrn_radiation_source         'fine-focus sealed tube'
_diffrn_radiation_type           MoK\a
_diffrn_radiation_wavelength     0.71073
_diffrn_reflns_av_R_equivalents  0.0242
_diffrn_reflns_av_sigmaI/netI    0.0340
_diffrn_reflns_limit_h_max       9
_diffrn_reflns_limit_h_min       -1
_diffrn_reflns_limit_k_max       9
_diffrn_reflns_limit_k_min       -9
_diffrn_reflns_limit_l_max       15
_diffrn_reflns_limit_l_min       -15
_diffrn_reflns_number            3352
_diffrn_reflns_theta_max         25.00
_diffrn_reflns_theta_min         1.70
_diffrn_standards_decay_%        <4
_diffrn_standards_interval_count 97
_diffrn_standards_number         3
_exptl_absorpt_coefficient_mu    0.275
_exptl_absorpt_correction_type   none
_exptl_crystal_colour            Yellow
_exptl_crystal_density_diffrn    1.493
_exptl_crystal_density_meas      ?
_exptl_crystal_description       Needle
_exptl_crystal_F_000             368
_exptl_crystal_size_max          0.60
_exptl_crystal_size_mid          0.32
_exptl_crystal_size_min          0.24
_refine_diff_density_max         0.17
_refine_diff_density_min         -0.23
_refine_ls_extinction_method     none
_refine_ls_goodness_of_fit_all   1.019
_refine_ls_goodness_of_fit_obs   1.133
_refine_ls_hydrogen_treatment    refall
_refine_ls_matrix_type           full
_refine_ls_number_parameters     297
_refine_ls_number_reflns         2742
_refine_ls_number_restraints     0
_refine_ls_restrained_S_all      1.019
_refine_ls_restrained_S_obs      1.133
_refine_ls_R_factor_all          0.0546
_refine_ls_R_factor_obs          0.0416
_refine_ls_shift/esd_max         0.000
_refine_ls_shift/esd_mean        0.000
_refine_ls_structure_factor_coef Fsqd
_refine_ls_weighting_details
'w = 1/[\s^2^(Fo^2^)+(0.0781P)^2^] where P=(Fo^2^+2Fc^2^)/3'
_refine_ls_weighting_scheme      calc
_refine_ls_wR_factor_all         0.1191
_refine_ls_wR_factor_obs         0.1134
_reflns_number_observed          2084
_reflns_number_total             2742
_reflns_observed_criterion       >2sigma(I)
_cod_data_source_file            mu1237.cif
_cod_data_source_block           III
_cod_depositor_comments
;
The following automatic conversions were performed:
'_symmetry_cell_setting' value 'Triclinic' changed to 'triclinic'
according to '/home/saulius/struct/CIF-dictionaries/cif_core.dic'
dictionary named 'cif_core.dic' version 2.4.1 from 2010-06-29.

Automatic conversion script
Id: cif_fix_enum 1527 2010-12-29 10:47:43Z saulius 

The following automatic conversions were performed:

'_symmetry_cell_setting' value 'Triclinic' changed to 'triclinic'
according to /home/saulius/struct/CIF-dictionaries/cif_core.dic
dictionary named 'cif_core.dic' version 2.4.1 from
2010-06-29.

'_exptl_absorpt_correction_type' value 'None' changed to
'none' according to
/home/saulius/struct/CIF-dictionaries/cif_core.dic dictionary named
'cif_core.dic' version 2.4.1 from 2010-06-29.

Automatic conversion script
Id: cif_fix_values 1715 2011-07-08 13:25:40Z adriana 

The following automatic conversions were performed:

'_exptl_crystal_density_meas' value 'not measured' was changed to '?'
- the value is perceived as not measured.

Automatic conversion script
Id: cif_fix_values 3008 2015-01-20 13:52:24Z robertas 

The following automatic conversions were performed:

'_refine_ls_weighting_scheme' value 'calc w =
1/[\s^2^(Fo^2^)+(0.0781P)^2^] where P=(Fo^2^+2Fc^2^)/3' was changed
to 'calc'. New tag '_refine_ls_weighting_details' was created. The
value of the new tag was set to 'w = 1/[\s^2^(Fo^2^)+(0.0781P)^2^]
where P=(Fo^2^+2Fc^2^)/3'.

Automatic conversion script
Id: cif_fix_values 3143 2015-03-26 13:38:13Z robertas 
;
_cod_database_code               2005389
loop_
_symmetry_equiv_pos_as_xyz
'x, y, z'
'-x, -y, -z'
loop_
_atom_site_aniso_label
_atom_site_aniso_U_11
_atom_site_aniso_U_22
_atom_site_aniso_U_33
_atom_site_aniso_U_12
_atom_site_aniso_U_13
_atom_site_aniso_U_23
Cl 0.0647(4) 0.0737(4) 0.0511(3) -0.0224(3) -0.0100(2) -0.0208(3)
N1 0.0578(10) 0.0401(9) 0.0457(9) -0.0183(8) 0.0011(7) -0.0211(7)
N2 0.0560(9) 0.0435(9) 0.0487(9) -0.0260(8) 0.0051(7) -0.0222(7)
N3 0.0482(8) 0.0361(8) 0.0368(8) -0.0199(7) 0.0033(6) -0.0155(6)
C1 0.0546(11) 0.0376(10) 0.0445(10) -0.0201(9) 0.0052(8) -0.0199(8)
C2 0.0628(13) 0.0384(11) 0.0550(12) -0.0141(10) -0.0026(10) -0.0202(9)
C3 0.0554(12) 0.0408(10) 0.0514(11) -0.0151(10) -0.0033(10) -0.0158(9)
C4 0.0480(10) 0.0462(11) 0.0411(10) -0.0257(9) 0.0065(8) -0.0151(8)
C5 0.0497(11) 0.0564(12) 0.0420(10) -0.0310(10) 0.0050(8) -0.0167(9)
C6 0.0622(13) 0.0661(14) 0.0488(11) -0.0366(11) 0.0043(10) -0.0293(10)
C7 0.0614(12) 0.0552(12) 0.0546(12) -0.0322(11) 0.0063(10) -0.0302(10)
C8 0.0474(10) 0.0404(10) 0.0402(9) -0.0253(8) 0.0086(8) -0.0184(8)
C9 0.0485(10) 0.0358(10) 0.0414(10) -0.0189(9) 0.0039(8) -0.0158(8)
C10 0.0494(10) 0.0376(9) 0.0402(9) -0.0215(8) 0.0065(8) -0.0161(8)
C11 0.0491(10) 0.0401(10) 0.0403(9) -0.0245(9) 0.0075(8) -0.0169(8)
C12 0.0540(11) 0.0419(10) 0.0501(11) -0.0200(9) 0.0063(9) -0.0230(9)
C13 0.0501(12) 0.0438(11) 0.0521(12) -0.0146(10) 0.0027(9) -0.0177(9)
C14 0.0496(11) 0.0507(11) 0.0412(10) -0.0240(9) 0.0018(8) -0.0144(8)
C15 0.0629(13) 0.0530(12) 0.0482(11) -0.0226(11) -0.0008(9) -0.0250(10)
C16 0.0587(12) 0.0409(11) 0.0472(11) -0.0150(10) -0.0017(9) -0.0196(9)
C17 0.0629(14) 0.070(2) 0.0545(13) -0.0274(13) -0.0078(11) -0.0201(12)
C18 0.078(2) 0.068(2) 0.084(2) -0.0302(15) 0.000(2) -0.0472(15)
F1 0.107(4) 0.106(5) 0.204(8) 0.026(3) -0.071(5) -0.119(6)
F2 0.209(8) 0.109(4) 0.111(4) -0.051(5) 0.055(5) -0.084(4)
F3 0.170(8) 0.111(5) 0.263(12) -0.107(6) 0.125(9) -0.122(7)
F1' 0.125(6) 0.093(5) 0.216(8) -0.053(4) 0.094(6) -0.101(6)
F2' 0.146(7) 0.072(3) 0.181(7) -0.015(4) -0.093(6) -0.070(4)
F3' 0.158(5) 0.041(2) 0.084(2) -0.021(3) -0.005(3) -0.026(2)
loop_
_atom_site_label
_atom_site_occupancy
_atom_site_fract_x
_atom_site_fract_y
_atom_site_fract_z
_atom_site_U_iso_or_equiv
_atom_site_thermal_displace_type
_atom_site_calc_flag
_atom_site_refinement_flags
_atom_site_type_symbol
Cl 1 -0.34166(8) 0.75144(8) -0.01306(5) 0.0685(2) Uani d . Cl
N1 1 0.3238(2) 0.2834(2) 0.44463(13) 0.0487(4) Uani d . N
N2 1 0.3258(2) 0.6042(2) 0.64892(13) 0.0471(4) Uani d . N
N3 1 0.3433(2) 0.4250(2) 0.55210(12) 0.0400(4) Uani d . N
C1 1 0.4172(3) 0.2655(2) 0.5328(2) 0.0452(4) Uani d . C
C2 1 0.5747(3) 0.1132(3) 0.6085(2) 0.0556(5) Uani d . C
C3 1 0.6459(3) 0.1254(3) 0.6955(2) 0.0531(5) Uani d . C
C4 1 0.5673(3) 0.2906(3) 0.7163(2) 0.0443(4) Uani d . C
C5 1 0.6329(3) 0.3123(3) 0.8071(2) 0.0476(5) Uani d . C
C6 1 0.5431(3) 0.4795(3) 0.8152(2) 0.0544(5) Uani d . C
C7 1 0.3934(3) 0.6185(3) 0.7355(2) 0.0525(5) Uani d . C
C8 1 0.4138(2) 0.4424(2) 0.64193(15) 0.0400(4) Uani d . C
C9 1 0.1944(3) 0.5483(3) 0.46980(15) 0.0421(4) Uani d . C
C10 1 0.1847(3) 0.4595(2) 0.40473(15) 0.0418(4) Uani d . C
C11 1 0.0528(2) 0.5299(2) 0.30425(15) 0.0414(4) Uani d . C
C12 1 -0.0981(3) 0.7025(3) 0.2691(2) 0.0484(5) Uani d . C
C13 1 -0.2195(3) 0.7707(3) 0.1729(2) 0.0522(5) Uani d . C
C14 1 -0.1907(3) 0.6656(3) 0.1099(2) 0.0481(5) Uani d . C
C15 1 -0.0451(3) 0.4939(3) 0.1433(2) 0.0552(5) Uani d . C
C16 1 0.0759(3) 0.4276(3) 0.2392(2) 0.0518(5) Uani d . C
C17 1 0.7943(4) 0.1594(4) 0.8938(2) 0.0650(6) Uani d . C
C18 1 0.2926(4) 0.8016(4) 0.7428(2) 0.0736(7) Uani d . C
F1 0.50 0.1358(11) 0.9039(11) 0.6855(11) 0.153(4) Uani d P F
F2 0.50 0.2582(17) 0.7788(9) 0.8514(5) 0.142(3) Uani d P F
F3 0.50 0.3907(13) 0.8735(13) 0.7368(11) 0.151(5) Uani d P F
F1' 0.50 0.1482(12) 0.8385(9) 0.7786(12) 0.133(2) Uani d P F
F2' 0.50 0.3879(12) 0.8421(10) 0.7903(9) 0.141(5) Uani d P F
F3' 0.50 0.2468(12) 0.9348(5) 0.6369(4) 0.105(2) Uani d P F
H2 1 0.6294(35) 0.0102(36) 0.5953(21) 0.075(7) Uiso d . H
H3 1 0.7463(30) 0.0294(31) 0.7435(19) 0.060(6) Uiso d . H
H6 1 0.5792(29) 0.5033(29) 0.8733(19) 0.057(6) Uiso d . H
H9 1 0.1227(28) 0.6657(31) 0.4675(17) 0.054(6) Uiso d . H
H12 1 -0.1188(30) 0.7749(32) 0.3121(20) 0.063(6) Uiso d . H
H13 1 -0.3191(28) 0.8843(30) 0.1509(16) 0.047(5) Uiso d . H
H15 1 -0.0239(29) 0.4181(31) 0.1016(19) 0.061(6) Uiso d . H
H16 1 0.1767(30) 0.3120(32) 0.2617(18) 0.058(6) Uiso d . H
H17A 1 0.7699(42) 0.0549(48) 0.9320(27) 0.115(11) Uiso d . H
H17B 1 0.8317(48) 0.1966(49) 0.9402(32) 0.123(12) Uiso d . H
H17C 1 0.9001(45) 0.1102(44) 0.8581(27) 0.106(10) Uiso d . H
loop_
_atom_type_symbol
_atom_type_description
_atom_type_scat_dispersion_real
_atom_type_scat_dispersion_imag
_atom_type_scat_source
C C 0.0033 0.0016 'International Tables Vol C Tables 4.2.6.8 and 6.1.1.4'
H H 0.0000 0.0000 'International Tables Vol C Tables 4.2.6.8 and 6.1.1.4'
N N 0.0061 0.0033 'International Tables Vol C Tables 4.2.6.8 and 6.1.1.4'
F F 0.0171 0.0103 'International Tables Vol C Tables 4.2.6.8 and 6.1.1.4'
Cl Cl 0.1484 0.1585 'International Tables Vol C Tables 4.2.6.8 and 6.1.1.4'
loop_
_geom_angle_atom_site_label_1
_geom_angle_atom_site_label_2
_geom_angle_atom_site_label_3
_geom_angle
C1 N1 C10 105.54(15)
C7 N2 C8 115.0(2)
C9 N3 C1 106.74(15)
C9 N3 C8 130.1(2)
C1 N3 C8 123.2(2)
N1 C1 N3 111.2(2)
N1 C1 C2 130.8(2)
N3 C1 C2 117.9(2)
C3 C2 C1 120.4(2)
C2 C3 C4 121.6(2)
C8 C4 C5 116.6(2)
C8 C4 C3 118.8(2)
C5 C4 C3 124.7(2)
C6 C5 C4 117.8(2)
C6 C5 C17 120.4(2)
C4 C5 C17 121.8(2)
C5 C6 C7 119.8(2)
N2 C7 C6 124.6(2)
N2 C7 C18 114.5(2)
C6 C7 C18 120.8(2)
N2 C8 N3 115.6(2)
N2 C8 C4 126.3(2)
N3 C8 C4 118.1(2)
C10 C9 N3 105.8(2)
C9 C10 N1 110.7(2)
C9 C10 C11 128.2(2)
N1 C10 C11 121.0(2)
C16 C11 C12 117.7(2)
C16 C11 C10 120.8(2)
C12 C11 C10 121.5(2)
C13 C12 C11 121.5(2)
C12 C13 C14 119.1(2)
C15 C14 C13 120.9(2)
C15 C14 Cl 119.6(2)
C13 C14 Cl 119.5(2)
C16 C15 C14 119.5(2)
C15 C16 C11 121.3(2)
F3 C18 F1 115.1(7)
F1' C18 F2' 110.2(6)
F3 C18 F2 100.6(5)
F1 C18 F2 102.5(6)
F1' C18 F3' 104.9(5)
F2' C18 F3' 98.4(5)
F1' C18 C7 116.2(3)
F3 C18 C7 112.7(4)
F1 C18 C7 116.0(3)
F2' C18 C7 114.9(4)
F2 C18 C7 107.9(3)
F3' C18 C7 110.2(3)
loop_
_geom_bond_atom_site_label_1
_geom_bond_atom_site_label_2
_geom_bond_distance
Cl C14 1.744(2)
N1 C1 1.311(2)
N1 C10 1.381(2)
N2 C7 1.329(2)
N2 C8 1.332(2)
N3 C9 1.373(2)
N3 C1 1.388(2)
N3 C8 1.394(2)
C1 C2 1.430(3)
C2 C3 1.338(3)
C3 C4 1.443(3)
C4 C8 1.406(3)
C4 C5 1.408(3)
C5 C6 1.381(3)
C5 C17 1.506(3)
C6 C7 1.387(3)
C7 C18 1.505(3)
C9 C10 1.365(3)
C10 C11 1.464(3)
C11 C16 1.393(3)
C11 C12 1.398(3)
C12 C13 1.377(3)
C13 C14 1.383(3)
C14 C15 1.377(3)
C15 C16 1.376(3)
C18 F1' 1.229(5)
C18 F3 1.255(7)
C18 F1 1.257(5)
C18 F2' 1.261(6)
C18 F2 1.389(6)
C18 F3' 1.392(5)
