#------------------------------------------------------------------------------
#$Date: 2016-02-14 16:26:36 +0200 (Sun, 14 Feb 2016) $
#$Revision: 176435 $
#$URL: svn://www.crystallography.net/cod/cif/2/00/71/2007153.cif $
#------------------------------------------------------------------------------
#
# This file is available in the Crystallography Open Database (COD),
# http://www.crystallography.net/. The original data for this entry
# were provided by IUCr Journals, http://journals.iucr.org/.
#
# The file may be used within the scientific community so long as
# proper attribution is given to the journal article from which the
# data were obtained.
#
data_2007153
loop_
_publ_author_name
'Kennedy, Alan R.'
'Okoth, Maurice O.'
'Sheen, David B.'
'Sherwood, John N.'
'Vrcelj, Ranko M.'
_publ_section_title
;
 Two New Structures of 5-Nitrouracil
;
_journal_issue                   4
_journal_name_full               'Acta Crystallographica Section C'
_journal_page_first              547
_journal_page_last               550
_journal_paper_doi               10.1107/S0108270197016521
_journal_volume                  54
_journal_year                    1998
_chemical_formula_moiety         'C4 H3 N3 O4 '
_chemical_formula_sum            'C4 H3 N3 O4'
_chemical_formula_weight         157.09
_space_group_IT_number           14
_symmetry_cell_setting           monoclinic
_symmetry_space_group_name_Hall  '-P 2yn'
_symmetry_space_group_name_H-M   'P 1 21/n 1'
_cell_angle_alpha                90
_cell_angle_beta                 104.070(10)
_cell_angle_gamma                90
_cell_formula_units_Z            4
_cell_length_a                   5.8730(10)
_cell_length_b                   9.6930(10)
_cell_length_c                   10.4561(9)
_cell_measurement_reflns_used    25
_cell_measurement_temperature    295
_cell_measurement_theta_max      24.9
_cell_measurement_theta_min      22.3
_cell_volume                     577.38(13)
_diffrn_ambient_temperature      295
_diffrn_measurement_device_type  'Rigaku AFC7S'
_diffrn_measurement_method       \w/2\q
_diffrn_radiation_monochromator  graphite
_diffrn_radiation_source         'X-ray tube'
_diffrn_radiation_type           MoK\a
_diffrn_radiation_wavelength     0.71069
_diffrn_reflns_av_R_equivalents  0.0123
_diffrn_reflns_limit_h_max       8
_diffrn_reflns_limit_h_min       0
_diffrn_reflns_limit_k_max       13
_diffrn_reflns_limit_k_min       0
_diffrn_reflns_limit_l_max       13
_diffrn_reflns_limit_l_min       -14
_diffrn_reflns_number            1770
_diffrn_reflns_theta_max         29.00
_diffrn_reflns_theta_min         2.5
_diffrn_standards_decay_%        none
_diffrn_standards_interval_count 150
_diffrn_standards_number         3
_exptl_absorpt_coefficient_mu    0.164
_exptl_absorpt_correction_type   none
_exptl_crystal_colour            colourless
_exptl_crystal_density_diffrn    1.807
_exptl_crystal_density_meas      ?
_exptl_crystal_description       'cut needle'
_exptl_crystal_F_000             320.00
_exptl_crystal_size_max          0.60
_exptl_crystal_size_mid          0.40
_exptl_crystal_size_min          0.10
_refine_diff_density_max         0.31
_refine_diff_density_min         -0.19
_refine_ls_extinction_coef       '1.00(14) x 10^-5^'
_refine_ls_extinction_method
;
Zachariasen (1968) type 2, Gaussian isotropic
;
_refine_ls_goodness_of_fit_obs   1.950
_refine_ls_hydrogen_treatment    refall
_refine_ls_matrix_type           full
_refine_ls_number_constraints    0
_refine_ls_number_parameters     113
_refine_ls_number_reflns         1154
_refine_ls_number_restraints     0
_refine_ls_R_factor_all          0.0558
_refine_ls_R_factor_obs          .0363
_refine_ls_shift/esd_max         0.0002
_refine_ls_structure_factor_coef F
_refine_ls_weighting_details     'w = 1/\s^2^(F)'
_refine_ls_weighting_scheme      sigma
_refine_ls_wR_factor_all         0.0534
_refine_ls_wR_factor_obs         .0506
_reflns_number_observed          1154
_reflns_number_total             1627
_reflns_observed_criterion       I>2\s(I)
_cod_data_source_file            cf1206.cif
_cod_data_source_block           III
_cod_depositor_comments
;
The following automatic conversions were performed:

'_exptl_crystal_density_meas' value 'none' was changed to '?' - the
value is perceived as not measured.

Automatic conversion script
Id: cif_fix_values 3008 2015-01-20 13:52:24Z robertas 
;
_cod_original_cell_volume        577.40(10)
_cod_original_sg_symbol_H-M      'P 21/n'
_cod_original_formula_sum        'C4 H3 N3 O4 '
_cod_database_code               2007153
loop_
_symmetry_equiv_pos_as_xyz
'  +x,  +y,  +z'
1/2-x,1/2+y,1/2-z
'  -x,  -y,  -z'
1/2+x,1/2-y,1/2+z
loop_
_atom_site_aniso_label
_atom_site_aniso_U_11
_atom_site_aniso_U_22
_atom_site_aniso_U_33
_atom_site_aniso_U_12
_atom_site_aniso_U_13
_atom_site_aniso_U_23
O1 .0418(6) .0563(7) .0266(5) -.0166(6) -.0054(4) .0076(5)
O2 .0396(6) .0484(7) .0301(5) -.0086(5) .0071(5) .0044(4)
O3 .0423(7) .0685(8) .0324(6) -.0080(6) .0043(5) .0129(5)
O4 .0474(7) .0753(10) .0490(7) -.0313(7) .0029(6) .0042(6)
N1 .0295(6) .0375(7) .0267(6) -.0081(5) -.0008(5) .0019(5)
N2 .0359(7) .0437(7) .0218(5) -.0091(5) .0006(5) -.0018(5)
N3 .0310(6) .0364(7) .0341(6) -.0029(5) .0033(5) .0057(5)
C1 .0298(7) .0301(7) .0265(6) -.0028(5) .0001(5) .0028(5)
C2 .0307(7) .0321(7) .0255(6) .0000(5) .0032(5) -.0007(5)
C3 .0298(7) .0333(7) .0292(7) -.0045(6) .0008(5) -.0032(5)
C4 .0275(7) .0289(7) .0268(7) -.0020(5) .0017(5) .0019(5)
loop_
_atom_site_label
_atom_site_fract_x
_atom_site_fract_y
_atom_site_fract_z
_atom_site_U_iso_or_equiv
_atom_site_thermal_displace_type
_atom_site_calc_flag
_atom_site_calc_attached_atom
O1 .7137(2) .09600(10) -.03325(10) .0439(5) Uani ? ?
O2 .7134(2) -.04280(10) .38079(10) .0396(5) Uani ? ?
O3 1.1109(2) .22760(10) -.05520(10) .0486(6) Uani ? ?
O4 1.3560(2) .2892(2) .12330(10) .0588(8) Uani ? ?
N1 .7180(2) .03240(10) .17530(10) .0325(5) Uani ? ?
N2 1.0188(2) .08960(10) .35390(10) .0349(6) Uani ? ?
N3 1.1750(2) .23170(10) .06500(10) .0346(6) Uani ? ?
C1 .8159(2) .09790(10) .08330(10) .0300(6) Uani ? ?
C2 .8087(2) .02180(10) .30850(10) .0301(6) Uani ? ?
C3 1.1290(3) .15610(10) .27470(10) .0319(6) Uani ? ?
C4 1.0389(2) .16210(10) .14280(10) .0286(6) Uani ? ?
H1 .581(4) -.009(2) .141(2) .045(5) Uiso ? ?
H2 1.083(4) .083(2) .439(2) .054(5) Uiso ? ?
H3 1.270(3) .200(2) .317(2) .037(4) Uiso ? ?
loop_
_atom_type_symbol
_atom_type_scat_dispersion_real
_atom_type_scat_dispersion_imag
_atom_type_scat_source
C 0.003 0.002 'International Tables'
H 0.000 0.000 'International Tables'
N 0.006 0.003 'International Tables'
O 0.011 0.006 'International Tables'
loop_
_diffrn_standard_refln_index_h
_diffrn_standard_refln_index_k
_diffrn_standard_refln_index_l
1 -4 -4
-3 -2 0
-2 -3 3
loop_
_geom_angle_atom_site_label_1
_geom_angle_atom_site_label_2
_geom_angle_atom_site_label_3
_geom_angle
_geom_angle_publ_flag
C1 N1 C2 127.90(10) yes
C2 N2 C3 123.00(10) yes
O3 N3 O4 122.70(10) yes
O3 N3 C4 119.40(10) yes
O4 N3 C4 117.80(10) yes
O1 C1 N1 119.90(10) yes
O1 C1 C4 127.60(10) yes
N1 C1 C4 112.50(10) yes
O2 C2 N1 123.10(10) yes
O2 C2 N2 122.70(10) yes
N1 C2 N2 114.20(10) yes
N2 C3 C4 121.70(10) yes
N3 C4 C1 121.90(10) yes
N3 C4 C3 117.50(10) yes
C1 C4 C3 120.60(10) yes
loop_
_geom_bond_atom_site_label_1
_geom_bond_atom_site_label_2
_geom_bond_site_symmetry_1
_geom_bond_site_symmetry_2
_geom_bond_distance
_geom_bond_publ_flag
O1 C1 ? ? 1.221(2) yes
O2 C2 ? ? 1.218(2) yes
O3 N3 ? ? 1.222(2) yes
O4 N3 ? ? 1.224(2) yes
N1 C1 ? ? 1.389(2) yes
N1 C2 ? ? 1.368(2) yes
N2 C2 ? ? 1.377(2) yes
N2 C3 ? ? 1.335(2) yes
N3 C4 ? ? 1.439(2) yes
C1 C4 ? ? 1.447(2) yes
C3 C4 ? ? 1.353(2) yes
loop_
_geom_torsion_atom_site_label_1
_geom_torsion_atom_site_label_2
_geom_torsion_atom_site_label_3
_geom_torsion_atom_site_label_4
_geom_torsion
_geom_torsion_publ_flag
O3 N3 C4 C3 172.80(10) yes
O4 N3 C4 C3 -4.9(2) yes
