#------------------------------------------------------------------------------
#$Date: 2016-02-14 16:26:36 +0200 (Sun, 14 Feb 2016) $
#$Revision: 176435 $
#$URL: svn://www.crystallography.net/cod/cif/2/00/86/2008673.cif $
#------------------------------------------------------------------------------
#
# This file is available in the Crystallography Open Database (COD),
# http://www.crystallography.net/. The original data for this entry
# were provided by IUCr Journals, http://journals.iucr.org/.
#
# The file may be used within the scientific community so long as
# proper attribution is given to the journal article from which the
# data were obtained.
#
data_2008673
loop_
_publ_author_name
'Dobson, Allison J.'
'Gerkin, Roger E.'
_publ_section_title
;
 Hydrogen bonding in quinolinium-4-carboxylate trihydrate
;
_journal_issue                   7
_journal_name_full               'Acta Crystallographica Section C'
_journal_page_first              1192
_journal_page_last               1195
_journal_paper_doi               10.1107/S0108270199004849
_journal_volume                  55
_journal_year                    1999
_chemical_formula_moiety         'C10 H13 N1 O5'
_chemical_formula_sum            'C10 H13 N O5'
_chemical_formula_weight         227.22
_chemical_name_common            'quinolinium-4-carboxylate trihydrate '
_chemical_name_systematic        ' ?'
_space_group_IT_number           2
_symmetry_cell_setting           triclinic
_symmetry_space_group_name_Hall  '-P 1'
_symmetry_space_group_name_H-M   'P -1'
_cell_angle_alpha                77.780(10)
_cell_angle_beta                 86.620(10)
_cell_angle_gamma                65.460(10)
_cell_formula_units_Z            2
_cell_length_a                   7.547(2)
_cell_length_b                   8.0350(10)
_cell_length_c                   10.2400(10)
_cell_measurement_reflns_used    25
_cell_measurement_temperature    296
_cell_measurement_theta_max      17.4
_cell_measurement_theta_min      15.0
_cell_volume                     551.77(18)
_computing_cell_refinement       'MSC/AFC Diffractometer Control Software'
_computing_data_collection
;
MSC/AFC Diffractometer Control Software (Molecular Structure Corporation,
1988)
;
_computing_data_reduction
'TEXSAN (Molecular Structure Corporation, 1995)'
_computing_molecular_graphics    'ORTEPII (Johnson, 1976)'
_computing_publication_material  'TEXSAN and PLATON (Spek, 1990)'
_computing_structure_refinement  TEXSAN
_computing_structure_solution    'SHELXS86 (Sheldrick, 1985)'
_diffrn_ambient_temperature      296
_diffrn_measurement_device       AFC-5S
_diffrn_measurement_method       \w/2\q
_diffrn_radiation_monochromator  graphite
_diffrn_radiation_source         'X-ray tube'
_diffrn_radiation_type           MoK\a
_diffrn_radiation_wavelength     0.71073
_diffrn_reflns_av_R_equivalents  0.024
_diffrn_reflns_limit_h_max       9
_diffrn_reflns_limit_h_min       0
_diffrn_reflns_limit_k_max       10
_diffrn_reflns_limit_k_min       -9
_diffrn_reflns_limit_l_max       13
_diffrn_reflns_limit_l_min       -13
_diffrn_reflns_number            2736
_diffrn_reflns_theta_max         27.56
_diffrn_reflns_theta_min         2.00
_diffrn_standards_decay_%        1.33
_diffrn_standards_interval_count 150
_diffrn_standards_number         6
_exptl_absorpt_coefficient_mu    0.11
_exptl_absorpt_correction_type   none
_exptl_crystal_colour            colorless
_exptl_crystal_density_diffrn    1.367
_exptl_crystal_density_method    'not measured'
_exptl_crystal_description       plate
_exptl_crystal_F_000             240
_exptl_crystal_size_max          0.54
_exptl_crystal_size_mid          0.27
_exptl_crystal_size_min          0.12
_refine_diff_density_max         0.43
_refine_diff_density_min         -0.45
_refine_ls_extinction_method     none
_refine_ls_goodness_of_fit_ref   1.27
_refine_ls_hydrogen_treatment    mixed
_refine_ls_matrix_type           full
_refine_ls_number_parameters     173
_refine_ls_number_reflns         2539
_refine_ls_R_factor_gt           0.049
_refine_ls_shift/su_max          0.0002
_refine_ls_structure_factor_coef Fsqd
_refine_ls_weighting_details     'w = 1/[\s^2^~cs~ + (0.003I)^2^]'
_refine_ls_weighting_scheme      calc
_refine_ls_wR_factor_ref         0.078
_reflns_number_gt                1270
_reflns_number_total             2542
_reflns_threshold_expression     I>2\s~I~
_cod_data_source_file            fr1203.cif
_cod_data_source_block           one
_cod_depositor_comments
;
The following automatic conversions were performed:
'_symmetry_cell_setting' value 'Triclinic' changed to 'triclinic'
according to '/home/saulius/struct/CIF-dictionaries/cif_core.dic'
dictionary named 'cif_core.dic' version 2.4.1 from 2010-06-29.

Automatic conversion script
Id: cif_fix_enum 1527 2010-12-29 10:47:43Z saulius 

The following automatic conversions were performed:

'_atom_site_thermal_displace_type' tag value 'Uij' was replaced with
'Uani' value 16 times.

Automatic conversion script
Id: cif_fix_values 1646 2011-03-28 12:23:43Z adriana 

The following automatic conversions were performed:

'_symmetry_cell_setting' value 'Triclinic' changed to 'triclinic'
according to /home/saulius/struct/CIF-dictionaries/cif_core.dic
dictionary named 'cif_core.dic' version 2.4.1 from 2010-06-29.

Automatic conversion script
Id: cif_fix_values 1715 2011-07-08 13:25:40Z adriana 

The following automatic conversions were performed:

'_refine_ls_weighting_scheme' value 'w = 1/[\s^2^~cs~ + (0.003I)^2^]'
was changed to 'calc'. New tag '_refine_ls_weighting_details' was
created. The value of the new tag was set to 'w = 1/[\s^2^~cs~ +
(0.003I)^2^]'.

Automatic conversion script
Id: cif_fix_values 3143 2015-03-26 13:38:13Z robertas 
;
_cod_original_cell_volume        551.8(2)
_cod_original_formula_sum        'C10 H13 N1 O5'
_cod_database_code               2008673
loop_
_symmetry_equiv_pos_as_xyz
x,y,z
'-x, -y, -z'
loop_
_atom_site_aniso_label
_atom_site_aniso_U_11
_atom_site_aniso_U_22
_atom_site_aniso_U_33
_atom_site_aniso_U_12
_atom_site_aniso_U_13
_atom_site_aniso_U_23
O1 0.0378(10) 0.0820(10) 0.0440(10) -0.0312(10) -0.0073(8) -0.0078(9)
O2 0.0274(9) 0.0800(10) 0.0520(10) -0.0305(9) 0.0095(8) -0.0218(9)
O3 0.0590(10) 0.0720(10) 0.0740(10) -0.0310(10) 0.0070(10) -0.0270(10)
O4 0.0590(10) 0.063(2) 0.085(2) -0.0270(10) -0.0180(10) 0.0010(10)
O5 0.062(2) 0.082(2) 0.0670(10) -0.0280(10) 0.0070(10) 0.0020(10)
N1 0.0215(10) 0.0480(10) 0.0450(10) -0.0196(9) 0.0023(9) -0.0086(9)
C2 0.0340(10) 0.055(2) 0.0420(10) -0.0280(10) 0.0040(10) -0.0010(10)
C3 0.0310(10) 0.0470(10) 0.0400(10) -0.0200(10) -0.0040(10) -0.0010(10)
C4 0.0220(10) 0.0340(10) 0.0410(10) -0.0120(10) 0.0021(10) -0.0090(10)
C5 0.0350(10) 0.049(2) 0.047(2) -0.0230(10) 0.0040(10) -0.0060(10)
C6 0.055(2) 0.056(2) 0.0410(10) -0.0270(10) 0.0020(10) 0.0030(10)
C7 0.050(2) 0.057(2) 0.042(2) -0.0160(10) -0.0110(10) -0.0040(10)
C8 0.0310(10) 0.052(2) 0.048(2) -0.0150(10) -0.0070(10) -0.0080(10)
C9 0.0250(10) 0.0340(10) 0.0400(10) -0.0120(10) 0.0023(10) -0.0100(10)
C10 0.0230(10) 0.0340(10) 0.0350(10) -0.0130(10) 0.0028(10) -0.0080(10)
C11 0.0220(10) 0.0360(10) 0.0500(10) -0.0140(10) -0.0020(10) -0.0060(10)
loop_
_atom_site_label
_atom_site_fract_x
_atom_site_fract_y
_atom_site_fract_z
_atom_site_U_iso_or_equiv
_atom_site_thermal_displace_type
_atom_site_calc_flag
_atom_site_calc_attached_atom
O1 0.6449(2) 0.6552(2) 0.7578(2) 0.0530(6) Uani ? ?
O2 0.7082(2) 0.6604(2) 0.5429(2) 0.0492(5) Uani ? ?
O3 0.4141(3) 0.7957(3) 0.9611(2) 0.0649(7) Uani ? ?
O4 0.2532(3) 1.1858(3) 0.9188(2) 0.0704(8) Uani ? ?
O5 0.1463(3) 0.6359(4) 1.0250(2) 0.0738(8) Uani ? ?
N1 0.0424(2) 0.6680(3) 0.5833(2) 0.0365(6) Uani ? ?
C2 0.1430(3) 0.5795(3) 0.6959(2) 0.0420(7) Uani ? ?
C3 0.3252(3) 0.5778(3) 0.7143(2) 0.0391(7) Uani ? ?
C4 0.4002(3) 0.6708(3) 0.6147(2) 0.0319(6) Uani ? ?
C5 0.3504(3) 0.8728(3) 0.3835(2) 0.0426(7) Uani ? ?
C6 0.2351(4) 0.9595(3) 0.2703(2) 0.0516(8) Uani ? ?
C7 0.0563(4) 0.9478(3) 0.2586(2) 0.0519(8) Uani ? ?
C8 -0.0074(3) 0.8519(3) 0.3614(2) 0.0443(7) Uani ? ?
C9 0.1079(3) 0.7630(3) 0.4790(2) 0.0328(6) Uani ? ?
C10 0.2913(3) 0.7683(3) 0.4927(2) 0.0299(6) Uani ? ?
C11 0.6013(3) 0.6626(3) 0.6409(2) 0.0357(7) Uani ? ?
H1 -0.092(3) 0.665(3) 0.576(2) 0.074(8) Uiso ? ?
H2 0.0895 0.5139 0.7678 0.0503 Uiso calc C2
H3 0.3998 0.5101 0.7985 0.0469 Uiso calc C3
H5 0.4747 0.8827 0.3893 0.0512 Uiso calc C5
H6 0.2778 1.0315 0.1957 0.0620 Uiso calc C6
H7 -0.0229 1.0093 0.1756 0.0623 Uiso calc C7
H8 -0.1328 0.8449 0.3535 0.0532 Uiso calc C8
H9 0.482(5) 0.748(5) 0.884(3) 0.140(10) Uiso ? ?
H10 0.342(6) 0.755(6) 0.971(4) 0.160(10) Uiso ? ?
H11 0.336(4) 1.219(4) 0.948(3) 0.100(10) Uiso ? ?
H12 0.293(5) 1.072(5) 0.918(3) 0.130(10) Uiso ? ?
H13 0.202(5) 0.547(5) 1.101(3) 0.140(10) Uiso ? ?
H14 0.039(5) 0.687(5) 1.035(4) 0.130(10) Uiso ? ?
loop_
_atom_type_symbol
_atom_type_scat_dispersion_real
_atom_type_scat_dispersion_imag
_atom_type_scat_source
H 0 0 'Stewart, Davidson and Simpson (1965)'
C .003 .002 'Creagh & McAuley (1992)'
N .006 .003 'Creagh & McAuley (1992)'
O .011 .006 'Creagh & McAuley (1992)'
loop_
_geom_angle_atom_site_label_1
_geom_angle_atom_site_label_2
_geom_angle_atom_site_label_3
_geom_angle
_geom_angle_publ_flag
H9 O3 H10 101(3) yes
H11 O4 H12 116(3) yes
H13 O5 H14 109(3) yes
C2 N1 C9 122.8(2) yes
C2 N1 H1 117.0(10) no
C9 N1 H1 120.0(10) no
N1 C2 C3 120.6(2) no
N1 C2 H2 119.7 no
C3 C2 H2 119.7 no
C2 C3 C4 120.1(2) no
C2 C3 H3 120.0 no
C4 C3 H3 120.0 no
C3 C4 C10 119.6(2) no
C3 C4 C11 117.5(2) no
C10 C4 C11 122.9(2) no
C6 C5 C10 120.3(2) no
C6 C5 H5 119.9 no
C10 C5 H5 119.9 no
C5 C6 C7 121.3(2) no
C5 C6 H6 119.3 no
C7 C6 H6 119.4 no
C6 C7 C8 120.4(2) no
C6 C7 H7 119.8 no
C8 C7 H7 119.8 no
C7 C8 C9 119.3(2) no
C7 C8 H8 120.4 no
C9 C8 H8 120.4 no
N1 C9 C8 119.2(2) no
N1 C9 C10 119.1(2) no
C8 C9 C10 121.7(2) no
C4 C10 C5 125.1(2) no
C4 C10 C9 117.8(2) no
C5 C10 C9 117.0(2) no
O1 C11 O2 126.0(2) yes
O1 C11 C4 117.3(2) yes
O2 C11 C4 116.8(2) yes
loop_
_geom_bond_atom_site_label_1
_geom_bond_atom_site_label_2
_geom_bond_site_symmetry_1
_geom_bond_site_symmetry_2
_geom_bond_distance
_geom_bond_publ_flag
O1 C11 ? ? 1.242(2) yes
O2 C11 ? ? 1.248(2) yes
O3 H9 ? ? 0.97(3) no
O3 H10 ? ? 0.74(4) no
O4 H11 ? ? 0.87(3) no
O4 H12 ? ? 0.84(3) no
O5 H13 ? ? 0.92(3) no
O5 H14 ? ? 0.75(3) no
N1 C2 ? ? 1.311(3) yes
N1 C9 ? ? 1.369(2) yes
N1 H1 ? ? 1.03(2) no
C2 C3 ? ? 1.393(3) no
C2 H2 ? ? 0.980 no
C3 C4 ? ? 1.371(3) no
C3 H3 ? ? 0.980 no
C4 C10 ? ? 1.422(2) no
C4 C11 ? ? 1.529(3) no
C5 C6 ? ? 1.363(3) no
C5 C10 ? ? 1.418(3) no
C5 H5 ? ? 0.980 no
C6 C7 ? ? 1.405(3) no
C6 H6 ? ? 0.980 no
C7 C8 ? ? 1.356(3) no
C7 H7 ? ? 0.980 no
C8 C9 ? ? 1.400(3) no
C8 H8 ? ? 0.980 no
C9 C10 ? ? 1.418(3) no
H1 N1 ? ? 1.03(2) no
loop_
_geom_hbond_atom_site_label_D
_geom_hbond_atom_site_label_H
_geom_hbond_atom_site_label_A
_geom_hbond_site_symmetry_A
_geom_hbond_distance_DH
_geom_hbond_distance_HA
_geom_hbond_distance_DA
_geom_hbond_angle_DHA
_geom_hbond_publ_flag
N1 H1 O2 1_455 1.03(2) 1.58(2) 2.607(2) 172(2) yes
O3 H9 O1 ? 0.97(3) 1.79(3) 2.753(3) 170(3) yes
O3 H10 O5 ? 0.74(4) 2.06(4) 2.794(3) 172(4) yes
O4 H11 O3 2_677 0.87(3) 2.10(3) 2.931(3) 161(3) yes
O4 H12 O3 ? 0.84(3) 1.97(3) 2.796(3) 165(3) yes
O5 H13 O1 2_667 0.92(3) 1.92(3) 2.837(3) 170(3) yes
O5 H14 O4 2_577 0.75(3) 2.09(3) 2.834(3) 174(4) yes
C2 H2 O4 1_545 0.98 2.58 3.300(3) 131 yes
C8 H8 O2 1_455 0.98 2.72 3.390(3) 126 yes
