#------------------------------------------------------------------------------
#$Date: 2016-02-19 16:29:56 +0200 (Fri, 19 Feb 2016) $
#$Revision: 176759 $
#$URL: svn://www.crystallography.net/cod/cif/2/00/89/2008911.cif $
#------------------------------------------------------------------------------
#
# This file is available in the Crystallography Open Database (COD),
# http://www.crystallography.net/. The original data for this entry
# were provided by IUCr Journals, http://journals.iucr.org/.
#
# The file may be used within the scientific community so long as
# proper attribution is given to the journal article from which the
# data were obtained.
#
data_2008911
loop_
_publ_author_name
'Bujak, Maciej'
'Osadczuk, Przemys\/law'
'Zaleski, Jacek'
_publ_section_title
;
 <i>N</i>,<i>N</i>,<i>N</i>',<i>N</i>'-Tetramethylguanidinium
 tetrachloroantimonate(III) at 295 and 92K
;
_journal_issue                   9
_journal_name_full               'Acta Crystallographica Section C'
_journal_page_first              1443
_journal_page_last               1447
_journal_paper_doi               10.1107/S0108270199008264
_journal_volume                  55
_journal_year                    1999
_chemical_formula_iupac          '(C5 H14 N3) [Sb Cl4]'
_chemical_formula_sum            'C5 H14 Cl4 N3 Sb'
_chemical_formula_weight         379.74
_chemical_name_systematic
;
1,1,3,3--Tetramethylguanidinum tetrachloroantimonate(III)
;
_space_group_IT_number           2
_symmetry_cell_setting           triclinic
_symmetry_space_group_name_Hall  '-P 1'
_symmetry_space_group_name_H-M   'P -1'
_audit_creation_method           SHELXL-97
_cell_angle_alpha                101.18(3)
_cell_angle_beta                 104.81(3)
_cell_angle_gamma                103.72(3)
_cell_formula_units_Z            2
_cell_length_a                   7.818(2)
_cell_length_b                   8.849(2)
_cell_length_c                   10.333(2)
_cell_measurement_reflns_used    34
_cell_measurement_temperature    92(2)
_cell_measurement_theta_max      21
_cell_measurement_theta_min      7
_cell_volume                     646.3(3)
_computing_cell_refinement       'KM-4 Software'
_computing_data_collection       'KM-4 Software (Kuma Diffraction, 1996)'
_computing_data_reduction        'KM-4 Software'
_computing_molecular_graphics    'SHELXTL (Sheldrick, 1990)'
_computing_publication_material  SHELX97
_computing_structure_refinement  SHELX97
_computing_structure_solution    'SHELX97 (Sheldrick, 1997)'
_diffrn_ambient_temperature      295(2)
_diffrn_measured_fraction_theta_full 0.986
_diffrn_measured_fraction_theta_max 0.986
_diffrn_measurement_device_type  'Kuma KM-4'
_diffrn_measurement_method       \w-\q
_diffrn_radiation_monochromator  graphite
_diffrn_radiation_source         'fine-focus sealed tube'
_diffrn_radiation_type           MoK\a
_diffrn_radiation_wavelength     0.71073
_diffrn_reflns_av_R_equivalents  0.010
_diffrn_reflns_av_sigmaI/netI    0.0151
_diffrn_reflns_limit_h_max       0
_diffrn_reflns_limit_h_min       -9
_diffrn_reflns_limit_k_max       11
_diffrn_reflns_limit_k_min       -10
_diffrn_reflns_limit_l_max       12
_diffrn_reflns_limit_l_min       -11
_diffrn_reflns_number            2985
_diffrn_reflns_theta_full        27.06
_diffrn_reflns_theta_max         27.06
_diffrn_reflns_theta_min         2.12
_diffrn_standards_decay_%        1.46
_diffrn_standards_interval_count 50
_diffrn_standards_number         2
_exptl_absorpt_coefficient_mu    2.927
_exptl_absorpt_correction_T_max  0.557
_exptl_absorpt_correction_T_min  0.462
_exptl_absorpt_correction_type   'empirical via \y scans (Sheldick, 1990)'
_exptl_crystal_colour            colourless
_exptl_crystal_density_diffrn    1.951
_exptl_crystal_density_method    'not measured'
_exptl_crystal_description       irregular
_exptl_crystal_F_000             368
_exptl_crystal_size_max          0.28
_exptl_crystal_size_mid          0.25
_exptl_crystal_size_min          0.20
_refine_diff_density_max         0.545
_refine_diff_density_min         -0.466
_refine_ls_extinction_method     none
_refine_ls_goodness_of_fit_ref   1.110
_refine_ls_hydrogen_treatment    constr
_refine_ls_matrix_type           full
_refine_ls_number_parameters     120
_refine_ls_number_reflns         2789
_refine_ls_number_restraints     0
_refine_ls_restrained_S_all      1.110
_refine_ls_R_factor_all          0.023
_refine_ls_R_factor_gt           0.020
_refine_ls_shift/su_max          0.001
_refine_ls_shift/su_mean         0.000
_refine_ls_structure_factor_coef Fsqd
_refine_ls_weighting_details
'w = 1/[\s^2^(Fo^2^)+(0.0266P)^2^+0.8892P] where P = (Fo^2^+2Fc^2^)/3'
_refine_ls_weighting_scheme      calc
_refine_ls_wR_factor_ref         0.052
_reflns_number_gt                2587
_reflns_number_total             2789
_reflns_threshold_expression     I>2\s(I)
_cod_data_source_file            gd1040.cif
_cod_data_source_block           2
_cod_depositor_comments
;
The following automatic conversions were performed:

'_refine_ls_weighting_scheme' value 'calc w =
1/[\s^2^(Fo^2^)+(0.0266P)^2^+0.8892P] where P = (Fo^2^+2Fc^2^)/3' was
changed to 'calc'. New tag '_refine_ls_weighting_details' was
created. The value of the new tag was set to 'w =
1/[\s^2^(Fo^2^)+(0.0266P)^2^+0.8892P] where P = (Fo^2^+2Fc^2^)/3'.

Automatic conversion script
Id: cif_fix_values 3143 2015-03-26 13:38:13Z robertas 
;
_cod_database_code               2008911
loop_
_symmetry_equiv_pos_as_xyz
'x, y, z'
'-x, -y, -z'
loop_
_atom_site_label
_atom_site_fract_x
_atom_site_fract_y
_atom_site_fract_z
_atom_site_U_iso_or_equiv
_atom_site_adp_type
_atom_site_calc_flag
_atom_site_refinement_flags
_atom_site_occupancy
_atom_site_disorder_assembly
_atom_site_disorder_group
_atom_site_type_symbol
Sb1 0.68783(2) 0.905313(18) 0.935029(16) 0.01038(6) Uani d . 1 . . Sb
Cl1 0.95230(8) 0.81140(8) 1.04674(7) 0.01730(13) Uani d . 1 . . Cl
Cl2 0.35412(9) 0.95052(8) 0.79647(6) 0.01933(13) Uani d . 1 . . Cl
Cl3 0.69730(9) 0.77445(8) 0.70619(6) 0.01825(13) Uani d . 1 . . Cl
Cl4 0.49148(9) 0.66543(7) 0.95093(7) 0.01711(13) Uani d . 1 . . Cl
N1 0.9651(3) 0.4210(3) 1.2281(3) 0.0225(5) Uani d . 1 . . N
H1A 0.8583 0.3574 1.2284 0.066(11) Uiso d R 1 . . H
H1B 1.0329 0.3811 1.1806 0.066(11) Uiso d R 1 . . H
N2 1.1790(3) 0.6730(3) 1.3009(2) 0.0177(4) Uani d . 1 . . N
N3 0.9119(3) 0.6290(3) 1.3679(2) 0.0198(5) Uani d . 1 . . N
C1 1.0186(4) 0.5756(3) 1.2984(3) 0.0159(5) Uani d . 1 . . C
C2 1.2688(4) 0.6291(4) 1.1977(3) 0.0230(6) Uani d . 1 . . C
H2A 1.1863 0.5374 1.1257 0.061(4) Uiso d R 1 . . H
H2B 1.3005 0.7164 1.1592 0.061(4) Uiso d R 1 . . H
H2C 1.3783 0.6050 1.2405 0.061(4) Uiso d R 1 . . H
C3 1.2914(5) 0.8145(4) 1.4165(3) 0.0317(7) Uani d . 1 . . C
H3A 1.2232 0.8349 1.4792 0.061(4) Uiso d R 1 . . H
H3B 1.4014 0.7941 1.4638 0.061(4) Uiso d R 1 . . H
H3C 1.3235 0.9055 1.3826 0.061(4) Uiso d R 1 . . H
C4 0.7725(4) 0.5188(4) 1.4034(3) 0.0222(6) Uani d . 1 . . C
H4A 0.7801 0.4129 1.3745 0.061(4) Uiso d R 1 . . H
H4B 0.7956 0.5488 1.5015 0.061(4) Uiso d R 1 . . H
H4C 0.6519 0.5221 1.3578 0.061(4) Uiso d R 1 . . H
C5 0.8920(6) 0.7910(4) 1.3809(4) 0.0413(9) Uani d . 1 . . C
H5A 0.9865 0.8568 1.3560 0.061(4) Uiso d R 1 . . H
H5B 0.7738 0.7801 1.3191 0.061(4) Uiso d R 1 . . H
H5C 0.8984 0.8393 1.4736 0.061(4) Uiso d R 1 . . H
loop_
_atom_site_aniso_label
_atom_site_aniso_U_11
_atom_site_aniso_U_22
_atom_site_aniso_U_33
_atom_site_aniso_U_12
_atom_site_aniso_U_13
_atom_site_aniso_U_23
Sb1 0.01078(9) 0.01144(9) 0.01120(9) 0.00542(6) 0.00533(6) 0.00318(6)
Cl1 0.0155(3) 0.0192(3) 0.0188(3) 0.0080(2) 0.0039(2) 0.0071(2)
Cl2 0.0243(3) 0.0198(3) 0.0133(3) 0.0093(2) 0.0036(2) 0.0032(2)
Cl3 0.0231(3) 0.0235(3) 0.0129(3) 0.0130(3) 0.0092(2) 0.0037(2)
Cl4 0.0186(3) 0.0151(3) 0.0195(3) 0.0040(2) 0.0080(2) 0.0074(2)
N1 0.0139(11) 0.0186(11) 0.0279(13) 0.0031(9) 0.0070(9) -0.0079(10)
N2 0.0227(11) 0.0150(10) 0.0137(10) 0.0063(9) 0.0040(9) 0.0020(8)
N3 0.0288(12) 0.0200(11) 0.0167(11) 0.0148(10) 0.0105(9) 0.0051(9)
C1 0.0192(12) 0.0190(12) 0.0097(11) 0.0110(10) 0.0009(9) 0.0030(9)
C2 0.0192(13) 0.0267(14) 0.0246(14) 0.0095(11) 0.0082(11) 0.0049(11)
C3 0.0433(19) 0.0199(14) 0.0195(15) -0.0067(13) 0.0064(13) 0.0019(12)
C4 0.0225(14) 0.0263(14) 0.0177(13) 0.0098(11) 0.0080(11) 0.0006(11)
C5 0.079(3) 0.0325(18) 0.046(2) 0.0401(19) 0.046(2) 0.0209(16)
loop_
_atom_type_symbol
_atom_type_description
_atom_type_scat_dispersion_real
_atom_type_scat_dispersion_imag
_atom_type_scat_source
C C 0.0033 0.0016 'International Tables Vol C Tables 4.2.6.8 and 6.1.1.4'
H H 0.0000 0.0000 'International Tables Vol C Tables 4.2.6.8 and 6.1.1.4'
N N 0.0061 0.0033 'International Tables Vol C Tables 4.2.6.8 and 6.1.1.4'
Cl Cl 0.1484 0.1585 'International Tables Vol C Tables 4.2.6.8 and 6.1.1.4'
Sb Sb -0.5866 1.5461 'International Tables Vol C Tables 4.2.6.8 and 6.1.1.4'
loop_
_geom_angle_atom_site_label_1
_geom_angle_atom_site_label_2
_geom_angle_atom_site_label_3
_geom_angle_site_symmetry_1
_geom_angle_site_symmetry_3
_geom_angle
_geom_angle_publ_flag
Cl1 Sb1 Cl1 . 2_777 77.02(3) y
Cl1 Sb1 Cl2 . . 169.48(2) y
Cl1 Sb1 Cl2 . 2_677 93.37(3) y
Cl1 Sb1 Cl3 . . 89.30(3) y
Cl1 Sb1 Cl4 . . 86.27(4) y
Cl2 Sb1 Cl1 . 2_777 112.69(3) y
Cl2 Sb1 Cl2 . 2_677 89.42(3) y
Cl2 Sb1 Cl1 2_677 2_777 97.42(4) y
Cl3 Sb1 Cl1 . 2_777 86.54(4) y
Cl3 Sb1 Cl2 . . 87.34(4) y
Cl3 Sb1 Cl2 . 2_677 175.63(2) y
Cl4 Sb1 Cl1 . 2_777 163.28(2) y
Cl4 Sb1 Cl2 . . 83.95(4) y
Cl4 Sb1 Cl2 . 2_677 83.81(4) y
Cl4 Sb1 Cl3 . . 92.92(4) y
Sb1 Cl1 Sb1 . 2_777 102.98(3) ?
Sb1 Cl2 Sb1 . 2_677 90.58(3) ?
C1 N1 H1A . . 118.2 ?
C1 N1 H1B . . 121.5 ?
H1A N1 H1B . . 120.3 ?
C1 N2 C2 . . 121.1(2) ?
C1 N2 C3 . . 123.2(2) ?
C1 N3 C4 . . 121.6(2) ?
C1 N3 C5 . . 122.4(3) ?
C3 N2 C2 . . 114.9(2) ?
C4 N3 C5 . . 114.1(2) ?
N1 C1 N2 . . 119.3(2) ?
N1 C1 N3 . . 119.1(3) ?
N2 C1 N3 . . 121.6(2) ?
N2 C2 H2A . . 109.6 ?
N2 C2 H2B . . 109.5 ?
H2A C2 H2B . . 109.1 ?
N2 C2 H2C . . 109.8 ?
H2A C2 H2C . . 109.5 ?
H2B C2 H2C . . 109.3 ?
N2 C3 H3A . . 109.7 ?
N2 C3 H3B . . 108.8 ?
H3A C3 H3B . . 109.6 ?
N2 C3 H3C . . 109.8 ?
H3A C3 H3C . . 109.6 ?
H3B C3 H3C . . 109.3 ?
N3 C4 H4A . . 108.3 ?
N3 C4 H4B . . 109.6 ?
H4A C4 H4B . . 109.8 ?
N3 C4 H4C . . 110.4 ?
H4A C4 H4C . . 109.6 ?
H4B C4 H4C . . 109.2 ?
N3 C5 H5A . . 110.0 ?
N3 C5 H5B . . 107.4 ?
H5A C5 H5B . . 109.6 ?
N3 C5 H5C . . 110.6 ?
H5A C5 H5C . . 109.8 ?
H5B C5 H5C . . 109.3 ?
loop_
_geom_bond_atom_site_label_1
_geom_bond_atom_site_label_2
_geom_bond_site_symmetry_2
_geom_bond_distance
_geom_bond_publ_flag
Sb1 Cl1 . 2.5030(10) y
Sb1 Cl1 2_777 3.2300(10) y
Sb1 Cl2 . 2.7970(10) y
Sb1 Cl2 2_677 2.9540(10) y
Sb1 Cl3 . 2.4510(10) y
Sb1 Cl4 . 2.3680(10) y
N1 C1 . 1.327(4) ?
N2 C1 . 1.334(4) ?
N2 C2 . 1.460(4) ?
N2 C3 . 1.459(4) ?
N3 C1 . 1.340(3) ?
N3 C4 . 1.454(4) ?
N3 C5 . 1.463(4) ?
N1 H1A . 0.8900 ?
N1 H1B . 0.8957 ?
C2 H2A . 0.9491 ?
C2 H2B . 0.9455 ?
C2 H2C . 0.9503 ?
C3 H3A . 0.9556 ?
C3 H3B . 0.9502 ?
C3 H3C . 0.9452 ?
C4 H4A . 0.9481 ?
C4 H4B . 0.9534 ?
C4 H4C . 0.9508 ?
C5 H5A . 0.9493 ?
C5 H5B . 0.9503 ?
C5 H5C . 0.9543 ?
loop_
_geom_hbond_atom_site_label_D
_geom_hbond_atom_site_label_H
_geom_hbond_atom_site_label_A
_geom_hbond_site_symmetry_A
_geom_hbond_distance_DH
_geom_hbond_distance_HA
_geom_hbond_distance_DA
_geom_hbond_angle_DHA
N1 H1B Cl1 2_767 0.90 2.67 3.466(3) 149
N1 H1B Cl3 2_767 0.90 2.91 3.482(3) 124
N1 H1A Cl2 2_667 0.90 2.76 3.544(3) 148
N1 H1A Cl4 2_667 0.90 2.82 3.395(3) 124
loop_
_geom_torsion_atom_site_label_1
_geom_torsion_atom_site_label_2
_geom_torsion_atom_site_label_3
_geom_torsion_atom_site_label_4
_geom_torsion_site_symmetry_1
_geom_torsion_site_symmetry_4
_geom_torsion
Cl4 Sb1 Cl1 Sb1 . 2_777 179.59(2)
Cl3 Sb1 Cl1 Sb1 . 2_777 86.61(4)
Cl2 Sb1 Cl1 Sb1 . 2_777 158.01(10)
Cl2 Sb1 Cl1 Sb1 2_677 2_777 -96.85(4)
Cl1 Sb1 Cl1 Sb1 2_777 2_777 0.0
Cl4 Sb1 Cl2 Sb1 . 2_677 83.83(4)
Cl3 Sb1 Cl2 Sb1 . 2_677 177.06(2)
Cl1 Sb1 Cl2 Sb1 . 2_677 105.49(11)
Cl2 Sb1 Cl2 Sb1 2_677 2_677 0.0
Cl1 Sb1 Cl2 Sb1 2_777 2_677 -97.81(4)
C2 N2 C1 N1 . . 18.6(4)
C2 N2 C1 N3 . . -163.0(2)
C3 N2 C1 N1 . . -151.0(3)
C3 N2 C1 N3 . . 27.4(4)
C4 N3 C1 N1 . . 18.6(4)
C4 N3 C1 N2 . . -159.8(2)
C5 N3 C1 N1 . . -145.0(3)
C5 N3 C1 N2 . . 36.6(4)
