#------------------------------------------------------------------------------
#$Date: 2016-02-14 16:26:36 +0200 (Sun, 14 Feb 2016) $
#$Revision: 176435 $
#$URL: svn://www.crystallography.net/cod/cif/2/00/89/2008904.cif $
#------------------------------------------------------------------------------
#
# This file is available in the Crystallography Open Database (COD),
# http://www.crystallography.net/. The original data for this entry
# were provided by IUCr Journals, http://journals.iucr.org/.
#
# The file may be used within the scientific community so long as
# proper attribution is given to the journal article from which the
# data were obtained.
#
data_2008904
loop_
_publ_author_name
'Dobson, Allison J.'
'Gerkin, Roger E.'
_publ_section_title
;
 Hydrogen bonding and C---H&#x00B7;&#x00B7;&#x00B7;<i>X</i>
 interactions in two triclinic phases of 4-carboxyquinolinium chloride
 monohydrate
;
_journal_issue                   9
_journal_name_full               'Acta Crystallographica Section C'
_journal_page_first              1499
_journal_page_last               1503
_journal_paper_doi               10.1107/S0108270199006885
_journal_volume                  55
_journal_year                    1999
_chemical_formula_moiety         'C10 H8 N1 O2 + , Cl - , H2 O '
_chemical_formula_sum            'C10 H10 Cl N O3'
_chemical_formula_weight         227.65
_chemical_name_common
'quinolinium-4-carboxylic acid chloride monohydrate '
_chemical_name_systematic        ' ?'
_space_group_IT_number           2
_symmetry_cell_setting           triclinic
_symmetry_space_group_name_Hall  '-P 1'
_symmetry_space_group_name_H-M   'P -1'
_cell_angle_alpha                85.000(10)
_cell_angle_beta                 82.990(10)
_cell_angle_gamma                89.480(10)
_cell_formula_units_Z            2
_cell_length_a                   4.2969(6)
_cell_length_b                   10.785(2)
_cell_length_c                   11.3600(10)
_cell_measurement_reflns_used    25
_cell_measurement_temperature    296
_cell_measurement_theta_max      17.5
_cell_measurement_theta_min      15.0
_cell_volume                     520.52(13)
_computing_cell_refinement       'MSC/AFC Diffractometer Control Software'
_computing_data_collection
;MSC/AFC Diffractometer Control Software (Molecular Structure Corporation,
 1988)
;
_computing_data_reduction
'TEXSAN (Molecular Structure Corporation, 1995)'
_computing_molecular_graphics    'ORTEPII (Johnson, 1976)'
_computing_publication_material  'TEXSAN and PLATON (Spek, 1990)'
_computing_structure_refinement  TEXSAN
_computing_structure_solution    'SHELXS86 (Sheldrick, 1985)'
_diffrn_ambient_temperature      296
_diffrn_measurement_device       'Rigaku AFC-5S'
_diffrn_measurement_method       '\w/2\q scans '
_diffrn_radiation_monochromator  graphite
_diffrn_radiation_source         'X-ray tube'
_diffrn_radiation_type           MoK\a
_diffrn_radiation_wavelength     0.71073
_diffrn_reflns_av_R_equivalents  0.012
_diffrn_reflns_limit_h_max       5
_diffrn_reflns_limit_h_min       -5
_diffrn_reflns_limit_k_max       0
_diffrn_reflns_limit_k_min       -14
_diffrn_reflns_limit_l_max       14
_diffrn_reflns_limit_l_min       -14
_diffrn_reflns_number            2541
_diffrn_reflns_theta_max         27.56
_diffrn_reflns_theta_min         2.00
_diffrn_standards_decay_%        '+- 1.3 (average maximum relative intensity)'
_diffrn_standards_interval_count 150
_diffrn_standards_number         6
_exptl_absorpt_coefficient_mu    0.35
_exptl_absorpt_correction_type   none
_exptl_crystal_colour            colorless
_exptl_crystal_density_diffrn    1.452
_exptl_crystal_density_meas      ?
_exptl_crystal_description       prism
_exptl_crystal_F_000             236
_exptl_crystal_size_max          0.35
_exptl_crystal_size_mid          0.35
_exptl_crystal_size_min          0.31
_refine_diff_density_max         0.39
_refine_diff_density_min         -0.32
_refine_ls_extinction_coef       '1(5) \\times 10^-7^'
_refine_ls_extinction_method     'Zachariasen (1963, 1968) '
_refine_ls_goodness_of_fit_ref   1.95
_refine_ls_hydrogen_treatment    mixed
_refine_ls_matrix_type           full
_refine_ls_number_parameters     153
_refine_ls_number_reflns         2413
_refine_ls_R_factor_gt           0.040
_refine_ls_shift/su_max          <0.001
_refine_ls_structure_factor_coef Fsqd
_refine_ls_weighting_details     'w = 1/[\s^2^~cs~ + (0.003 I)^2^]'
_refine_ls_weighting_scheme      calc
_refine_ls_wR_factor_ref         0.090
_reflns_number_gt                1860
_reflns_number_total             2413
_reflns_threshold_expression     I>2\s(I)
_cod_data_source_file            fr1208.cif
_cod_data_source_block           Ib
_cod_depositor_comments
;
The following automatic conversions were performed:
'_symmetry_cell_setting' value 'Triclinic' changed to 'triclinic'
according to '/home/saulius/struct/CIF-dictionaries/cif_core.dic'
dictionary named 'cif_core.dic' version 2.4.1 from 2010-06-29.

Automatic conversion script
Id: cif_fix_enum 1527 2010-12-29 10:47:43Z saulius 

The following automatic conversions were performed:

'_atom_site_thermal_displace_type' tag value 'Uij' was replaced with
'Uani' value 15 times.

Automatic conversion script
Id: cif_fix_values 1646 2011-03-28 12:23:43Z adriana 

The following automatic conversions were performed:

'_symmetry_cell_setting' value 'Triclinic' changed to 'triclinic'
according to /home/saulius/struct/CIF-dictionaries/cif_core.dic
dictionary named 'cif_core.dic' version 2.4.1 from 2010-06-29.

Automatic conversion script
Id: cif_fix_values 1715 2011-07-08 13:25:40Z adriana 

The following automatic conversions were performed:

'_exptl_crystal_density_meas' value 'none' was changed to '?' - the
value is perceived as not measured.

Automatic conversion script
Id: cif_fix_values 3008 2015-01-20 13:52:24Z robertas 

The following automatic conversions were performed:

'_refine_ls_weighting_scheme' value '1/[\s^2^~cs~ + (0.003 I)^2^] '
was changed to 'calc'. New tag '_refine_ls_weighting_details' was
created. The value of the new tag was set to 'w = 1/[\s^2^~cs~ +
(0.003 I)^2^]'.

Automatic conversion script
Id: cif_fix_values 3143 2015-03-26 13:38:13Z robertas 
;
_cod_original_cell_volume        520.50(10)
_cod_original_formula_sum        'C10 H10 Cl1 N1 O3'
_cod_database_code               2008904
loop_
_symmetry_equiv_pos_as_xyz
x,y,z
'-x, -y, -z'
loop_
_atom_site_aniso_label
_atom_site_aniso_U_11
_atom_site_aniso_U_22
_atom_site_aniso_U_33
_atom_site_aniso_U_12
_atom_site_aniso_U_13
_atom_site_aniso_U_23
Cl1 0.0533(3) 0.0624(3) 0.0420(3) -0.0063(2) 0.0078(2) -0.0167(2)
O1 0.0810(10) 0.0860(10) 0.0413(8) -0.0375(9) 0.0115(8) -0.0116(8)
O2 0.0960(10) 0.1110(10) 0.0442(8) -0.0470(10) 0.0180(8) -0.0332(9)
O3 0.0525(9) 0.0730(10) 0.0450(8) -0.0104(8) 0.0075(7) -0.0152(7)
N1 0.0507(9) 0.0454(9) 0.0295(7) 0.0037(7) -0.0008(7) -0.0109(6)
C2 0.0580(10) 0.0411(10) 0.0407(10) -0.0014(9) -0.0063(8) -0.0147(8)
C3 0.0510(10) 0.0405(10) 0.0382(9) -0.0058(8) -0.0027(8) -0.0072(8)
C4 0.0374(9) 0.0405(9) 0.0313(8) 0.0026(7) -0.0041(7) -0.0065(7)
C5 0.0600(10) 0.0440(10) 0.0440(10) -0.0008(9) -0.0026(9) -0.0166(8)
C6 0.0700(10) 0.0420(10) 0.0620(10) -0.0089(10) -0.0040(10) -0.0164(10)
C7 0.0640(10) 0.0450(10) 0.0610(10) -0.0101(10) -0.0010(10) -0.0003(9)
C8 0.0530(10) 0.0460(10) 0.0404(10) -0.0002(9) 0.0028(8) -0.0008(8)
C9 0.0393(9) 0.0376(9) 0.0342(8) 0.0055(7) -0.0045(7) -0.0065(7)
C10 0.0374(9) 0.0363(9) 0.0331(8) 0.0041(7) -0.0044(7) -0.0085(7)
C11 0.0440(10) 0.0520(10) 0.0344(9) -0.0020(9) 0.0007(8) -0.0088(8)
loop_
_atom_site_label
_atom_site_fract_x
_atom_site_fract_y
_atom_site_fract_z
_atom_site_U_iso_or_equiv
_atom_site_thermal_displace_type
_atom_site_calc_flag
_atom_site_calc_attached_atom
Cl1 0.14910(10) -0.19106(5) 0.09538(4) 0.05290(10) Uani ? ?
O1 1.3115(4) -0.1415(2) -0.49610(10) 0.0703(5) Uani ? ?
O2 1.0002(4) -0.2800(2) -0.55130(10) 0.0842(6) Uani ? ?
O3 0.5701(4) -0.1249(2) 0.28520(10) 0.0572(5) Uani ? ?
N1 0.6185(4) -0.21730(10) -0.12440(10) 0.0418(4) Uani ? ?
C2 0.8072(4) -0.1250(2) -0.1699(2) 0.0459(5) Uani ? ?
C3 0.9646(4) -0.1281(2) -0.2840(2) 0.0432(5) Uani ? ?
C4 0.9205(4) -0.2256(2) -0.35010(10) 0.0363(4) Uani ? ?
C5 0.6632(5) -0.4348(2) -0.3572(2) 0.0486(5) Uani ? ?
C6 0.4704(5) -0.5257(2) -0.2997(2) 0.0573(6) Uani ? ?
C7 0.3208(5) -0.5158(2) -0.1847(2) 0.0573(6) Uani ? ?
C8 0.3669(4) -0.4139(2) -0.1265(2) 0.0474(5) Uani ? ?
C9 0.5684(4) -0.3192(2) -0.18360(10) 0.0369(4) Uani ? ?
C10 0.7209(4) -0.3262(2) -0.30060(10) 0.0353(4) Uani ? ?
C11 1.0819(4) -0.2207(2) -0.4767(2) 0.0433(5) Uani ? ?
H1 0.504(5) -0.211(2) -0.052(2) 0.066(6) Uiso ? ?
H2 0.8364 -0.0545 -0.1234 0.0551 Uiso calc C2
H3 1.1078 -0.0603 -0.3174 0.0519 Uiso calc C3
H5 0.7632 -0.4441 -0.4382 0.0584 Uiso calc C5
H6 0.4353 -0.6001 -0.3400 0.0688 Uiso calc C6
H7 0.1817 -0.5826 -0.1457 0.0688 Uiso calc C7
H8 0.2614 -0.4066 -0.0459 0.0569 Uiso calc C8
H9 1.409(7) -0.137(2) -0.576(3) 0.111(10) Uiso ? ?
H10 0.456(6) -0.148(2) 0.245(2) 0.075(9) Uiso ? ?
H11 0.759(6) -0.156(2) 0.262(2) 0.093(9) Uiso ? ?
loop_
_atom_type_symbol
_atom_type_scat_dispersion_real
_atom_type_scat_dispersion_imag
_atom_type_scat_source
H 0 0 'Stewart et al. (1965)'
C .003 .002 'Creagh & McAuley (1992)'
N .006 .003 'Creagh & McAuley (1992)'
O .011 .006 'Creagh & McAuley (1992)'
Cl .148 .159 'Creagh & McAuley (1992)'
loop_
_geom_angle_atom_site_label_1
_geom_angle_atom_site_label_2
_geom_angle_atom_site_label_3
_geom_angle
_geom_angle_publ_flag
C11 O1 H9 112.0(10) no
H10 O3 H11 107(2) yes
C2 N1 C9 123.40(10) yes
C2 N1 H1 118.0(10) no
C9 N1 H1 117.0(10) no
N1 C2 C3 119.7(2) no
N1 C2 H2 120.1 no
C3 C2 H2 120.1 no
C2 C3 C4 120.4(2) no
C2 C3 H3 119.8 no
C4 C3 H3 119.8 no
C3 C4 C10 120.00(10) no
C3 C4 C11 118.3(2) yes
C10 C4 C11 121.70(10) yes
C6 C5 C10 120.4(2) no
C6 C5 H5 119.8 no
C10 C5 H5 119.8 no
C5 C6 C7 121.7(2) no
C5 C6 H6 119.1 no
C7 C6 H6 119.1 no
C6 C7 C8 120.4(2) no
C6 C7 H7 119.8 no
C8 C7 H7 119.8 no
C7 C8 C9 119.0(2) no
C7 C8 H8 120.5 no
C9 C8 H8 120.5 no
N1 C9 C8 119.1(2) no
N1 C9 C10 119.0(2) no
C8 C9 C10 121.9(2) no
C4 C10 C5 125.9(2) no
C4 C10 C9 117.40(10) no
C5 C10 C9 116.6(2) no
O1 C11 O2 123.7(2) yes
O1 C11 C4 112.5(2) yes
O2 C11 C4 123.7(2) yes
loop_
_geom_bond_atom_site_label_1
_geom_bond_atom_site_label_2
_geom_bond_site_symmetry_1
_geom_bond_site_symmetry_2
_geom_bond_distance
_geom_bond_publ_flag
O1 C11 ? ? 1.296(2) yes
O1 H9 ? ? 0.95(3) no
O2 C11 ? ? 1.192(2) yes
O3 H10 ? ? 0.77(3) no
O3 H11 ? ? 0.89(3) no
N1 C2 ? ? 1.318(2) yes
N1 C9 ? ? 1.370(2) yes
N1 H1 ? ? 0.91(2) no
C2 C3 ? ? 1.391(2) no
C2 H2 ? ? 0.980 no
C3 C4 ? ? 1.372(2) no
C3 H3 ? ? 0.980 no
C4 C10 ? ? 1.423(2) no
C4 C11 ? ? 1.515(2) no
C5 C6 ? ? 1.358(3) no
C5 C10 ? ? 1.422(2) no
C5 H5 ? ? 0.980 no
C6 C7 ? ? 1.397(3) no
C6 H6 ? ? 0.980 no
C7 C8 ? ? 1.359(3) no
C7 H7 ? ? 0.980 no
C8 C9 ? ? 1.406(2) no
C8 H8 ? ? 0.980 no
C9 C10 ? ? 1.416(2) no
loop_
_geom_hbond_atom_site_label_D
_geom_hbond_atom_site_label_H
_geom_hbond_atom_site_label_A
_geom_hbond_site_symmetry_A
_geom_hbond_distance_DH
_geom_hbond_distance_HA
_geom_hbond_distance_DA
_geom_hbond_angle_DHA
_geom_hbond_publ_flag
N1 H1 Cl1 ? 0.91(2) 2.15(2) 3.044(2) 167(2) yes
O1 H9 O3 1_654 0.95(3) 1.63(3) 2.586(2) 178(3) yes
O3 H10 Cl1 ? 0.77(3) 2.35(3) 3.111(2) 170(2) yes
O3 H11 Cl1 1_655 0.89(3) 2.42(3) 3.206(2) 146(2) yes
O3 H11 O2 1_556 0.89(3) 2.72(3) 3.147(3) 111(2) yes
C2 H2 Cl1 2_655 0.98 2.70 3.595(2) 153 yes
C3 H3 O3 2_755 0.98 2.52 3.395(2) 149 yes
C6 H6 O2 2_644 0.98 2.75 3.589(2) 143 yes
C7 H7 Cl1 2_545 0.98 2.82 3.763(2) 163 yes
C8 H8 Cl1 ? 0.98 2.94 3.667(2) 132 yes
