#------------------------------------------------------------------------------
#$Date: 2017-10-13 03:08:28 +0300 (Fri, 13 Oct 2017) $
#$Revision: 201955 $
#$URL: file:///home/coder/svn-repositories/cod/cif/2/00/80/2008032.cif $
#------------------------------------------------------------------------------
#
# This file is available in the Crystallography Open Database (COD),
# http://www.crystallography.net/. The original data for this entry
# were provided by IUCr Journals, http://journals.iucr.org/.
#
# The file may be used within the scientific community so long as
# proper attribution is given to the journal article from which the
# data were obtained.
#
data_2008032
loop_
_publ_author_name
'Ferguson, George'
'Low, John N.'
'Penner, Glenn H.'
'Wardell, James L.'
_publ_section_title
;
 2,4,6-Halogeno-Aniline Derivatives
;
_journal_issue                   12
_journal_name_full               'Acta Crystallographica Section C'
_journal_page_first              1974
_journal_page_last               1977
_journal_paper_doi               10.1107/S0108270198009354
_journal_volume                  54
_journal_year                    1998
_chemical_formula_moiety         'C7 H4 Br F2 N O'
_chemical_formula_sum            'C7 H4 Br F2 N O'
_chemical_formula_weight         236.02
_chemical_name_systematic
;
N-formyl 4-bromo-2,6-difluoroaniline
;
_space_group_IT_number           19
_symmetry_cell_setting           orthorhombic
_symmetry_space_group_name_Hall  'P 2ac 2ab'
_symmetry_space_group_name_H-M   'P 21 21 21'
_cell_angle_alpha                90.00
_cell_angle_beta                 90.00
_cell_angle_gamma                90.00
_cell_formula_units_Z            4
_cell_length_a                   4.5575(5)
_cell_length_b                   11.4987(12)
_cell_length_c                   15.026(2)
_cell_measurement_reflns_used    25
_cell_measurement_temperature    294.0(10)
_cell_measurement_theta_max      17.00
_cell_measurement_theta_min      8.83
_cell_volume                     787.44(16)
_computing_cell_refinement       'SET4 and CELDIM in CAD-4-PC'
_computing_data_collection       'CAD-4-PC (Enraf-Nonius, 1992)'
_computing_data_reduction        'DATRD2 in NRCVAX96 (Gabe et al., 1989)'
_computing_molecular_graphics
'NRCVAX96, ORTEPII (Johnson, 1976) and PLATON (Spek, 1998)'
_computing_publication_material
'NRCVAX96, SHELXL97 and PRPCIF97 (Ferguson, 1997)'
_computing_structure_refinement  'NRCVAX96 and SHELXL97 (Sheldrick, 1997)'
_computing_structure_solution    NRCVAX96
_diffrn_ambient_temperature      294.0(10)
_diffrn_measured_fraction_theta_full 0.999
_diffrn_measured_fraction_theta_max 0.999
_diffrn_measurement_device       'Enraf-Nonius CAD-4'
_diffrn_measurement_method       \q/2\q
_diffrn_radiation_monochromator  graphite
_diffrn_radiation_source         'X-ray tube'
_diffrn_radiation_type           'Molybdenum K\a'
_diffrn_radiation_wavelength     0.7107
_diffrn_reflns_av_R_equivalents  0.033
_diffrn_reflns_av_sigmaI/netI    0.054
_diffrn_reflns_limit_h_max       5
_diffrn_reflns_limit_h_min       -5
_diffrn_reflns_limit_k_max       14
_diffrn_reflns_limit_k_min       -14
_diffrn_reflns_limit_l_max       19
_diffrn_reflns_limit_l_min       -19
_diffrn_reflns_number            2080
_diffrn_reflns_theta_full        27.41
_diffrn_reflns_theta_max         27.41
_diffrn_reflns_theta_min         2.23
_diffrn_standards_decay_%        2.3
_diffrn_standards_interval_time  120
_diffrn_standards_number         3
_exptl_absorpt_coefficient_mu    5.201
_exptl_absorpt_correction_T_max  0.632
_exptl_absorpt_correction_T_min  0.399
_exptl_absorpt_correction_type   gaussian
_exptl_absorpt_process_details   'ABSO in NRCVAX (Gabe et al., 1989)'
_exptl_crystal_colour            colourless
_exptl_crystal_density_diffrn    1.991
_exptl_crystal_density_meas      ?
_exptl_crystal_description       lath
_exptl_crystal_F_000             456
_exptl_crystal_size_max          0.40
_exptl_crystal_size_mid          0.17
_exptl_crystal_size_min          0.10
_refine_diff_density_max         0.583
_refine_diff_density_min         -0.820
_refine_ls_abs_structure_details 'Flack (1983),  714 Friedel pairs'
_refine_ls_abs_structure_Flack   -0.02(2)
_refine_ls_extinction_coef       not_required
_refine_ls_extinction_method     none
_refine_ls_goodness_of_fit_ref   0.975
_refine_ls_hydrogen_treatment    constr
_refine_ls_matrix_type           full
_refine_ls_number_parameters     109
_refine_ls_number_reflns         1792
_refine_ls_number_restraints     0
_refine_ls_restrained_S_all      0.975
_refine_ls_R_factor_all          0.089
_refine_ls_R_factor_gt           0.054
_refine_ls_shift/su_max          0.000
_refine_ls_shift/su_mean         0.000
_refine_ls_structure_factor_coef Fsqd
_refine_ls_weighting_details
'w = 1/[\s^2^(Fo^2^)+(0.0846P)^2^] where P=(Fo^2^+2Fc^2^)/3'
_refine_ls_weighting_scheme      calc
_refine_ls_wR_factor_ref         0.137
_reflns_number_gt                1204
_reflns_number_total             1792
_reflns_threshold_expression     I>2\s(I)
_cod_data_source_file            sk1221.cif
_cod_data_source_block           9779g
_cod_depositor_comments
;
The following automatic conversions were performed:

'_exptl_crystal_density_meas' value 'not measured' was changed to '?'
- the value is perceived as not measured.

Automatic conversion script
Id: cif_fix_values 3008 2015-01-20 13:52:24Z robertas 

The following automatic conversions were performed:

'_refine_ls_weighting_scheme' value 'calc w =
1/[\s^2^(Fo^2^)+(0.0846P)^2^] where P=(Fo^2^+2Fc^2^)/3' was changed
to 'calc'. New tag '_refine_ls_weighting_details' was created. The
value of the new tag was set to 'w = 1/[\s^2^(Fo^2^)+(0.0846P)^2^]
where P=(Fo^2^+2Fc^2^)/3'.

Automatic conversion script
Id: cif_fix_values 3143 2015-03-26 13:38:13Z robertas 
;
_cod_original_cell_volume        787.42(16)
_cod_database_code               2008032
_cod_database_fobs_code          2008032
loop_
_symmetry_equiv_pos_as_xyz
'x, y, z'
'x+1/2, -y+1/2, -z'
'-x, y+1/2, -z+1/2'
'-x+1/2, -y, z+1/2'
loop_
_atom_site_label
_atom_site_fract_x
_atom_site_fract_y
_atom_site_fract_z
_atom_site_U_iso_or_equiv
_atom_site_adp_type
_atom_site_calc_flag
_atom_site_refinement_flags
_atom_site_occupancy
_atom_site_disorder_assembly
_atom_site_disorder_group
_atom_site_type_symbol
Br4 0.1005(2) 0.03467(7) 0.03239(4) 0.0653(4) Uani d . 1 . . Br
F2 0.0476(10) 0.3418(3) -0.2178(2) 0.0572(11) Uani d . 1 . . F
F6 -0.5436(9) 0.0122(3) -0.2489(3) 0.0583(10) Uani d . 1 . . F
O1 0.0793(11) 0.2348(4) -0.3927(3) 0.0520(12) Uani d . 1 . . O
N1 -0.3556(11) 0.2175(4) -0.3206(3) 0.0393(12) Uani d . 1 . . N
C1 -0.2452(13) 0.1771(5) -0.2381(4) 0.0339(13) Uani d . 1 . . C
C2 -0.0449(15) 0.2372(5) -0.1877(4) 0.0388(14) Uani d . 1 . . C
C3 0.0644(17) 0.1986(5) -0.1078(4) 0.0430(15) Uani d . 1 . . C
C4 -0.0389(16) 0.0928(5) -0.0779(4) 0.0434(16) Uani d . 1 . . C
C5 -0.2424(15) 0.0284(6) -0.1232(4) 0.0434(14) Uani d . 1 . . C
C6 -0.3409(14) 0.0730(5) -0.2039(4) 0.0395(14) Uani d . 1 . . C
C7 -0.1893(14) 0.2407(6) -0.3907(4) 0.0406(16) Uani d . 1 . . C
H1 -0.5419 0.2275 -0.3255 0.047 Uiso calc R 1 . . H
H3 0.2007 0.2416 -0.0755 0.052 Uiso calc R 1 . . H
H5 -0.3116 -0.0420 -0.1011 0.052 Uiso calc R 1 . . H
H7 -0.2841 0.2635 -0.4427 0.049 Uiso calc R 1 . . H
loop_
_atom_site_aniso_label
_atom_site_aniso_U_11
_atom_site_aniso_U_22
_atom_site_aniso_U_33
_atom_site_aniso_U_12
_atom_site_aniso_U_13
_atom_site_aniso_U_23
Br4 0.0903(7) 0.0640(5) 0.0416(4) 0.0053(5) -0.0104(4) 0.0146(3)
F2 0.074(3) 0.0402(18) 0.057(2) -0.022(2) -0.011(2) 0.0113(16)
F6 0.058(2) 0.048(2) 0.068(2) -0.020(2) -0.011(2) -0.0023(17)
O1 0.037(3) 0.079(3) 0.040(2) 0.000(3) 0.000(2) 0.008(2)
N1 0.031(3) 0.049(3) 0.038(2) -0.001(3) 0.000(2) 0.002(2)
C1 0.031(3) 0.034(3) 0.037(3) -0.001(3) 0.004(3) -0.003(2)
C2 0.046(4) 0.032(3) 0.038(3) -0.005(3) 0.005(3) 0.003(2)
C3 0.050(4) 0.047(3) 0.032(3) -0.013(4) -0.007(3) -0.005(2)
C4 0.058(4) 0.040(3) 0.033(3) 0.011(3) 0.004(3) 0.006(2)
C5 0.051(4) 0.032(3) 0.047(3) -0.002(3) 0.005(3) 0.007(3)
C6 0.035(4) 0.040(3) 0.043(3) -0.001(3) -0.001(3) -0.011(3)
C7 0.039(4) 0.048(4) 0.035(3) 0.005(3) -0.008(3) 0.003(3)
loop_
_atom_type_symbol
_atom_type_description
_atom_type_scat_dispersion_real
_atom_type_scat_dispersion_imag
_atom_type_scat_source
C C 0.0033 0.0016 'International Tables Vol C Tables 4.2.6.8 and 6.1.1.4'
H H 0.0000 0.0000 'International Tables Vol C Tables 4.2.6.8 and 6.1.1.4'
Br Br -0.2901 2.4595 'International Tables Vol C Tables 4.2.6.8 and 6.1.1.4'
F F 0.0171 0.0103 'International Tables Vol C Tables 4.2.6.8 and 6.1.1.4'
N N 0.0061 0.0033 'International Tables Vol C Tables 4.2.6.8 and 6.1.1.4'
O O 0.0106 0.0060 'International Tables Vol C Tables 4.2.6.8 and 6.1.1.4'
loop_
_diffrn_standard_refln_index_h
_diffrn_standard_refln_index_k
_diffrn_standard_refln_index_l
0 5 3
0 5 -3
1 0 7
loop_
_geom_angle_atom_site_label_1
_geom_angle_atom_site_label_2
_geom_angle_atom_site_label_3
_geom_angle
_geom_angle_publ_flag
C7 N1 C1 124.0(5) no
C2 C1 C6 116.3(6) no
C2 C1 N1 123.7(5) no
C6 C1 N1 120.0(6) no
F2 C2 C1 118.1(5) no
F2 C2 C3 117.8(6) no
C1 C2 C3 124.1(6) no
C2 C3 C4 116.4(6) no
C5 C4 C3 123.2(6) no
C5 C4 Br4 118.1(5) no
C3 C4 Br4 118.7(5) no
C4 C5 C6 116.9(6) no
F6 C6 C1 118.9(6) no
F6 C6 C5 118.1(6) no
C1 C6 C5 123.0(6) no
O1 C7 N1 125.4(6) no
loop_
_geom_bond_atom_site_label_1
_geom_bond_atom_site_label_2
_geom_bond_site_symmetry_2
_geom_bond_distance
_geom_bond_publ_flag
Br4 C4 . 1.897(6) no
F2 C2 . 1.352(7) no
F6 C6 . 1.342(7) no
O1 C7 . 1.226(8) no
N1 C7 . 1.326(8) no
N1 C1 . 1.415(8) no
C1 C2 . 1.372(9) no
C1 C6 . 1.374(8) no
C2 C3 . 1.374(8) no
C3 C4 . 1.379(9) no
C4 C5 . 1.368(10) no
C5 C6 . 1.390(8) no
loop_
_geom_hbond_atom_site_label_D
_geom_hbond_atom_site_label_H
_geom_hbond_atom_site_label_A
_geom_hbond_site_symmetry_A
_geom_hbond_distance_DH
_geom_hbond_distance_HA
_geom_hbond_distance_DA
_geom_hbond_angle_DHA
_geom_hbond_publ_flag
N1 H1 O1 1_455 0.86 2.00 2.802(3) 154 no
loop_
_geom_torsion_atom_site_label_1
_geom_torsion_atom_site_label_2
_geom_torsion_atom_site_label_3
_geom_torsion_atom_site_label_4
_geom_torsion
_geom_torsion_publ_flag
C7 N1 C1 C2 59.2(9) no
C7 N1 C1 C6 -121.5(7) no
C6 C1 C2 F2 -178.0(6) no
N1 C1 C2 F2 1.4(9) no
C6 C1 C2 C3 0.9(10) no
N1 C1 C2 C3 -179.7(6) no
F2 C2 C3 C4 178.7(6) no
C1 C2 C3 C4 -0.3(10) no
C2 C3 C4 C5 -0.9(10) no
C2 C3 C4 Br4 -179.6(5) no
C3 C4 C5 C6 1.4(10) no
Br4 C4 C5 C6 180.0(4) no
C2 C1 C6 F6 178.0(5) no
N1 C1 C6 F6 -1.4(9) no
C2 C1 C6 C5 -0.4(9) no
N1 C1 C6 C5 -179.8(6) no
C4 C5 C6 F6 -179.1(6) no
C4 C5 C6 C1 -0.6(10) no
C1 N1 C7 O1 -2.8(11) no
loop_
_cod_related_entry_id
_cod_related_entry_database
_cod_related_entry_code
1 ChemSpider 21136660
