#------------------------------------------------------------------------------
#$Date: 2016-02-14 16:26:36 +0200 (Sun, 14 Feb 2016) $
#$Revision: 176435 $
#$URL: svn://www.crystallography.net/cod/cif/2/00/99/2009954.cif $
#------------------------------------------------------------------------------
#
# This file is available in the Crystallography Open Database (COD),
# http://www.crystallography.net/. The original data for this entry
# were provided by IUCr Journals, http://journals.iucr.org/.
#
# The file may be used within the scientific community so long as
# proper attribution is given to the journal article from which the
# data were obtained.
#
data_2009954
loop_
_publ_author_name
'Low, John N.'
'Scrimgeour, Sheelagh N.'
'Egglishaw, Clare'
'Howie, R. Alan'
'Moreno-Carretero, Miguel N.'
'Hueso-Ure\~na, Francisco'
_publ_section_title
;
 4-Amino-2-methylthio-6-oxo-1,6-dihydropyrimidine and its 1-methyl
 derivative and 4-amino-2-methoxy-1-methyl-6-oxo-1,6-dihydropyrimidine
 and its 5-nitroso derivative
;
_journal_issue                   8
_journal_name_full               'Acta Crystallographica Section C'
_journal_page_first              1329
_journal_page_last               1333
_journal_paper_doi               10.1107/S0108270194000946
_journal_volume                  50
_journal_year                    1994
_chemical_formula_moiety         'C6 H8 N4 O3, (H2 O)'
_chemical_formula_sum            'C6 H10 N4 O4'
_chemical_formula_weight         202.17
_chemical_name_systematic
;
4-amino-1,6-dihydro-1-methyl-2-methoxy-5-nitroso-6-oxopyrimidine
monohydrate
;
_space_group_IT_number           2
_symmetry_cell_setting           triclinic
_symmetry_space_group_name_Hall  '-P 1'
_symmetry_space_group_name_H-M   'P -1'
_cell_angle_alpha                92.24(3)
_cell_angle_beta                 92.55(3)
_cell_angle_gamma                69.21(3)
_cell_formula_units_Z            2
_cell_length_a                   7.415(2)
_cell_length_b                   7.419(3)
_cell_length_c                   8.759(3)
_cell_measurement_reflns_used    14
_cell_measurement_temperature    293
_cell_measurement_theta_max      12.00
_cell_measurement_theta_min      10.00
_cell_volume                     449.9(3)
_computing_cell_refinement       'Nicolet P3 software'
_computing_data_collection       'Nicolet P3 software'
_computing_data_reduction        'NRCVAX DATRD2'
_computing_molecular_graphics    PLUTON-92
_computing_publication_material  'NRCVAX TABLES'
_computing_structure_refinement  'NRCVAX LSTSQ'
_computing_structure_solution    SHELX86
_diffrn_ambient_temperature      293
_diffrn_measurement_device       'Nicolet P3 four circle diffractometer'
_diffrn_measurement_method       '\w scan b/P/b        '
_diffrn_radiation_monochromator  graphite
_diffrn_radiation_source         'xray tube'
_diffrn_radiation_type           MoK\a
_diffrn_radiation_wavelength     0.7107
_diffrn_reflns_av_R_equivalents  0.004
_diffrn_reflns_limit_h_max       8
_diffrn_reflns_limit_h_min       -8
_diffrn_reflns_limit_k_max       8
_diffrn_reflns_limit_k_min       0
_diffrn_reflns_limit_l_max       10
_diffrn_reflns_limit_l_min       -10
_diffrn_reflns_number            1580
_diffrn_reflns_theta_max         24.95
_diffrn_reflns_theta_min         0.00
_diffrn_standards_decay_%        3.0
_diffrn_standards_interval_count 50
_diffrn_standards_number         2
_exptl_absorpt_coefficient_mu    0.10
_exptl_absorpt_correction_T_max  1.0000
_exptl_absorpt_correction_T_min  1.0000
_exptl_absorpt_correction_type   none
_exptl_crystal_colour            violet
_exptl_crystal_density_diffrn    1.492
_exptl_crystal_description       prism
_exptl_crystal_F_000             212
_exptl_crystal_size_max          0.50
_exptl_crystal_size_mid          0.50
_exptl_crystal_size_min          0.50
_refine_diff_density_max         0.25
_refine_diff_density_min         -0.17
_refine_ls_goodness_of_fit_obs   3.92
_refine_ls_hydrogen_treatment    refall
_refine_ls_matrix_type           full
_refine_ls_number_parameters     127
_refine_ls_number_reflns         1310
_refine_ls_R_factor_all          0.083
_refine_ls_R_factor_obs          0.041
_refine_ls_shift/esd_max         '< 0.001'
_refine_ls_structure_factor_coef F
_refine_ls_weighting_details     'w = 1/\s^2^(F)'
_refine_ls_weighting_scheme      calc
_refine_ls_wR_factor_all         0.048
_refine_ls_wR_factor_obs         0.047
_reflns_number_observed          1310
_reflns_number_total             1579
_reflns_observed_criterion       Inet>2.5\s(Inet)
_cod_data_source_file            ha1089.cif
_cod_data_source_block           AMEMONO
_cod_depositor_comments
;
The following automatic conversions were performed:
'_symmetry_cell_setting' value 'Triclinic' changed to 'triclinic'
according to '/home/saulius/struct/CIF-dictionaries/cif_core.dic'
dictionary named 'cif_core.dic' version 2.4.1 from 2010-06-29.

Automatic conversion script
Id: cif_fix_enum 1527 2010-12-29 10:47:43Z saulius 

The following automatic conversions were performed:

'_symmetry_cell_setting' value 'Triclinic' changed to 'triclinic'
according to /home/saulius/struct/CIF-dictionaries/cif_core.dic
dictionary named 'cif_core.dic' version 2.4.1 from 2010-06-29.

Automatic conversion script
Id: cif_fix_values 1715 2011-07-08 13:25:40Z adriana 

The following automatic conversions were performed:

'_refine_ls_weighting_scheme' value '1/\s^2^(F)' was changed to
'calc'. New tag '_refine_ls_weighting_details' was created. The value
of the new tag was set to 'w = 1/\s^2^(F)'.

Automatic conversion script
Id: cif_fix_values 3143 2015-03-26 13:38:13Z robertas 
;
_cod_original_formula_sum        'C6 H10 N4 O4 '
_cod_database_code               2009954
loop_
_symmetry_equiv_pos_as_xyz
x,y,z
-x,-y,-z
loop_
_atom_site_aniso_label
_atom_site_aniso_U_11
_atom_site_aniso_U_22
_atom_site_aniso_U_33
_atom_site_aniso_U_12
_atom_site_aniso_U_13
_atom_site_aniso_U_23
_atom_site_aniso_type_symbol
N1 0.0445(10) 0.0310(9) 0.0397(9) -0.0332(15) 0.0079(15) 0.0057(14) N
C1 0.0649(15) 0.0425(13) 0.0532(13) -0.048(2) 0.019(2) 0.022(2) C
C2 0.0324(11) 0.0352(10) 0.0330(10) -0.0262(17) 0.0061(16) -0.0026(16) C
O2 0.0598(9) 0.0463(8) 0.0333(7) -0.0534(15) 0.0250(13) -0.0091(12) O
C21 0.0785(17) 0.0538(13) 0.0380(11) -0.071(3) 0.028(2) -0.030(2) C
N3 0.0393(10) 0.0309(9) 0.0335(9) -0.0285(14) 0.0120(14) -0.0068(14) N
C4 0.0299(10) 0.0293(10) 0.0327(10) -0.0199(16) 0.0033(15) 0.0001(16) C
N4 0.0480(11) 0.0339(9) 0.0385(9) -0.0347(16) 0.0137(15) 0.0008(14) N
C5 0.0378(11) 0.0320(10) 0.0342(10) -0.0190(17) 0.0098(17) -0.0121(17) C
N5 0.0557(11) 0.0399(10) 0.0406(10) -0.0304(17) 0.0217(16) -0.0149(15) N
O5 0.0742(11) 0.0527(9) 0.0382(8) -0.0433(16) 0.0367(15) -0.0124(14) O
C6 0.0442(12) 0.0299(11) 0.0434(12) -0.0273(18) 0.0049(19) -0.0097(18) C
O6 0.0927(13) 0.0348(9) 0.0652(10) -0.0588(16) 0.0270(18) -0.0206(15) O
O1W 0.1216(16) 0.0664(11) 0.0560(10) -0.109(2) 0.084(2) -0.0433(17) O
loop_
_atom_site_label
_atom_site_fract_x
_atom_site_fract_y
_atom_site_fract_z
_atom_site_U_iso_or_equiv
_atom_site_thermal_displace_type
_atom_site_calc_flag
_atom_site_refinement_flags
_atom_site_type_symbol
N1 0.3032(2) 0.2899(2) 0.36718(18) 0.0374(9) Uani d . N
C1 0.3439(3) 0.4186(3) 0.2594(3) 0.0517(14) Uani d . C
C2 0.3167(3) 0.1075(3) 0.3238(2) 0.0332(10) Uani d . C
O2 0.3721(2) 0.06273(19) 0.18203(14) 0.0441(9) Uani d . O
C21 0.3656(4) -0.1192(3) 0.1172(2) 0.0536(14) Uani d . C
N3 0.2848(2) -0.0178(2) 0.40813(17) 0.0340(9) Uani d . N
C4 0.2262(3) 0.0379(3) 0.5526(2) 0.0308(10) Uani d . C
N4 0.1933(2) -0.0910(2) 0.63486(18) 0.0392(10) Uani d . N
C5 0.2032(3) 0.2275(3) 0.6116(2) 0.0355(10) Uani d . C
N5 0.1429(3) 0.3005(2) 0.75182(19) 0.0458(10) Uani d . N
O5 0.1037(2) 0.1921(2) 0.84278(16) 0.0549(10) Uani d . O
C6 0.2457(3) 0.3593(3) 0.5144(2) 0.0391(12) Uani d . C
O6 0.2321(3) 0.5243(2) 0.55220(18) 0.0624(11) Uani d . O
O1W 0.0973(3) 0.7065(2) 0.87500(18) 0.0751(13) Uani d . O
H111 0.308 0.559 0.315 0.1016 Uiso d R H
H112 0.255 0.430 0.156 0.1016 Uiso d R H
H113 0.494 0.365 0.230 0.1016 Uiso d R H
H211 0.394 -0.120 -0.003 0.1028 Uiso d R H
H212 0.223 -0.125 0.129 0.1028 Uiso d R H
H213 0.472 -0.243 0.170 0.1028 Uiso d R H
H41 0.217 -0.237 0.582 0.1011 Uiso d R H
H42 0.136 -0.046 0.745 0.1011 Uiso d R H
H1W 0.119 0.583 0.824 0.1063 Uiso d R H
H2W 0.024 0.724 0.956 0.1063 Uiso d R H
loop_
_atom_type_symbol
_atom_type_scat_dispersion_real
_atom_type_scat_dispersion_imag
_atom_type_scat_source
C 0.002 0.002 'International Tables Vol. IV Table 2.2B'
H 0.000 0.000 'International Tables Vol. IV Table 2.2B'
N 0.004 0.003 'International Tables Vol. IV Table 2.2B'
O 0.008 0.006 'International Tables Vol. IV Table 2.2B'
loop_
_diffrn_standard_refln_index_h
_diffrn_standard_refln_index_k
_diffrn_standard_refln_index_l
4 2 -2
3 2 2
loop_
_geom_angle_atom_site_label_1
_geom_angle_atom_site_label_2
_geom_angle_atom_site_label_3
_geom_angle
_geom_angle_publ_flag
C1 N1 C2 121.08(16) yes
C1 N1 C6 119.14(15) yes
C2 N1 C6 119.76(15) yes
N1 C1 H111 107.61(18) no
N1 C1 H112 109.69(17) no
N1 C1 H113 111.19(18) no
H111 C1 H112 109.44(19) no
H111 C1 H113 109.46(19) no
H112 C1 H113 109.42(19) no
N1 C2 O2 112.82(16) yes
N1 C2 N3 126.47(17) yes
O2 C2 N3 120.70(16) yes
C2 O2 C21 117.18(15) yes
O2 C21 H211 106.14(17) no
O2 C21 H212 109.59(18) no
O2 C21 H213 112.68(18) no
H211 C21 H212 109.5(2) no
H211 C21 H213 109.4(2) no
H212 C21 H213 109.43(19) no
C2 N3 C4 117.84(15) yes
N3 C4 N4 116.57(15) yes
N3 C4 C5 121.18(16) yes
N4 C4 C5 122.24(16) yes
C4 N4 H41 118.40(15) no
C4 N4 H42 117.42(15) no
H41 N4 H42 124.04(14) no
C4 C5 N5 126.66(17) yes
C4 C5 C6 118.68(16) yes
N5 C5 C6 114.66(16) yes
C5 N5 O5 117.80(16) yes
N1 C6 C5 116.03(15) yes
N1 C6 O6 119.41(18) yes
C5 C6 O6 124.55(18) yes
H1W O1W H2W 112.25(16) no
O1W H1W H2W 32.48(9) no
O1W H2W H1W 35.27(10) no
loop_
_geom_bond_atom_site_label_1
_geom_bond_atom_site_label_2
_geom_bond_site_symmetry_1
_geom_bond_site_symmetry_2
_geom_bond_distance
_geom_bond_publ_flag
N1 C1 ? ? 1.482(3) yes
N1 C2 ? ? 1.361(2) yes
N1 C6 ? ? 1.397(3) yes
C1 H111 ? ? 1.080(2) no
C1 H112 ? ? 1.081(2) no
C1 H113 ? ? 1.080(2) no
C2 O2 ? ? 1.318(2) yes
C2 N3 ? ? 1.300(2) yes
O2 C21 ? ? 1.459(3) yes
C21 H211 ? ? 1.080(2) no
C21 H212 ? ? 1.080(2) no
C21 H213 ? ? 1.080(3) no
N3 C4 ? ? 1.357(2) yes
C4 N4 ? ? 1.314(2) yes
C4 C5 ? ? 1.434(3) yes
N4 H41 ? ? 1.1164(16) no
N4 H42 ? ? 1.0662(16) no
C5 N5 ? ? 1.352(2) yes
C5 C6 ? ? 1.444(3) yes
N5 O5 ? ? 1.266(2) yes
C6 O6 ? ? 1.226(2) yes
O1W H1W ? ? 0.9624(16) no
O1W H2W ? ? 0.8949(16) no
loop_
_geom_contact_atom_site_label_1
_geom_contact_atom_site_label_2
_geom_contact_distance
_geom_contact_site_symmetry_2
_geom_contact_publ_flag
N4 O6 2.834(2) 1_545 yes
N4 O5 2.643(2) . yes
OW1 N5 3.067(3) . yes
OW1 O5 2.878(2) 2_567 yes
loop_
_geom_torsion_atom_site_label_1
_geom_torsion_atom_site_label_2
_geom_torsion_atom_site_label_3
_geom_torsion_atom_site_label_4
_geom_torsion
_geom_torsion_publ_flag
C1 N1 C2 O2 1.30(10) no
C1 N1 C2 N3 179.9(3) no
C6 N1 C2 O2 179.8(3) no
C6 N1 C2 N3 -1.60(10) no
C1 N1 C6 C5 178.3(2) no
C1 N1 C6 O6 -0.80(10) no
C2 N1 C6 C5 -0.20(10) no
C2 N1 C6 O6 -179.3(3) no
N1 C2 O2 C21 -171.8(2) no
N3 C2 O2 C21 9.50(10) no
N1 C2 N3 C4 2.20(10) no
O2 C2 N3 C4 -179.3(2) no
C2 N3 C4 N4 179.4(3) no
C2 N3 C4 C5 -1.00(10) no
N3 C4 C5 N5 178.8(3) no
N3 C4 C5 C6 -0.60(10) no
N4 C4 C5 N5 -1.70(10) no
N4 C4 C5 C6 178.9(3) no
C4 C5 N5 O5 0.70(10) no
C6 C5 N5 O5 -179.9(3) no
C4 C5 C6 N1 1.20(10) no
C4 C5 C6 O6 -179.7(3) no
N5 C5 C6 N1 -178.3(3) no
N5 C5 C6 O6 0.80(10) no
