#------------------------------------------------------------------------------
#$Date: 2016-02-19 16:29:56 +0200 (Fri, 19 Feb 2016) $
#$Revision: 176759 $
#$URL: svn://www.crystallography.net/cod/cif/2/00/92/2009242.cif $
#------------------------------------------------------------------------------
#
# This file is available in the Crystallography Open Database (COD),
# http://www.crystallography.net/. The original data for this entry
# were provided by IUCr Journals, http://journals.iucr.org/.
#
# The file may be used within the scientific community so long as
# proper attribution is given to the journal article from which the
# data were obtained.
#
data_2009242
loop_
_publ_author_name
'Ghosh, Sutapa'
'Zheng, Yaguo'
'Uckun, Fatih M.'
_publ_section_title
;
 Five analogs of the active metabolite of leflunomide
;
_journal_issue                   12
_journal_name_full               'Acta Crystallographica Section C'
_journal_page_first              2117
_journal_page_last               2122
_journal_paper_doi               10.1107/S0108270199011142
_journal_volume                  55
_journal_year                    1999
_chemical_formula_moiety         'C11 H9 Cl N2 O2'
_chemical_formula_sum            'C11 H9 Cl N2 O2'
_chemical_formula_weight         236.65
_chemical_name_systematic
;
 \a-cyano-\b-hydroxy-\b-methyl-N-(3-chlorophenyl)propenamide
;
_space_group_IT_number           2
_symmetry_cell_setting           triclinic
_symmetry_space_group_name_Hall  '-P 1'
_symmetry_space_group_name_H-M   'P -1'
_audit_creation_method           'manual editing of form.cif'
_cell_angle_alpha                103.951(2)
_cell_angle_beta                 102.5160(10)
_cell_angle_gamma                105.121(2)
_cell_formula_units_Z            2
_cell_length_a                   5.2955(4)
_cell_length_b                   10.0638(7)
_cell_length_c                   11.2503(8)
_cell_measurement_reflns_used    2236
_cell_measurement_temperature    173(2)
_cell_measurement_theta_max      25.02
_cell_measurement_theta_min      1.95
_cell_volume                     536.13(7)
_computing_cell_refinement       'SAINT (Siemens, 1996b)'
_computing_data_collection       'SMART (Siemens, 1996a)'
_computing_data_reduction        SAINT
_computing_molecular_graphics    SHELXTL-Plus
_computing_publication_material  SHELXTL-Plus
_computing_structure_refinement  SHELXTL-Plus
_computing_structure_solution    'SHELXTL-Plus (Sheldrick, 1996b)'
_diffrn_ambient_temperature      173(2)
_diffrn_measurement_device_type  'Siemens SMART  CCD area detector'
_diffrn_measurement_method       '\w scans'
_diffrn_radiation_type           MoK\a
_diffrn_radiation_wavelength     0.71073
_diffrn_reflns_av_R_equivalents  0.0305
_diffrn_reflns_limit_h_max       6
_diffrn_reflns_limit_h_min       -6
_diffrn_reflns_limit_k_max       11
_diffrn_reflns_limit_k_min       -11
_diffrn_reflns_limit_l_max       13
_diffrn_reflns_limit_l_min       0
_diffrn_reflns_number            3410
_diffrn_reflns_theta_max         25.02
_diffrn_reflns_theta_min         1.95
_exptl_absorpt_coefficient_mu    0.341
_exptl_absorpt_correction_T_max  0.987
_exptl_absorpt_correction_T_min  0.862
_exptl_absorpt_correction_type   empirical
_exptl_absorpt_process_details   '(SADABS; Sheldrick, 1996a)'
_exptl_crystal_colour            colorless
_exptl_crystal_density_diffrn    1.466
_exptl_crystal_density_method    'not measured'
_exptl_crystal_description       needle
_exptl_crystal_F_000             244
_exptl_crystal_size_max          0.45
_exptl_crystal_size_mid          0.06
_exptl_crystal_size_min          0.04
_refine_diff_density_max         0.265
_refine_diff_density_min         -0.334
_refine_ls_extinction_method     none
_refine_ls_goodness_of_fit_ref   1.024
_refine_ls_hydrogen_treatment    mixed
_refine_ls_matrix_type           full
_refine_ls_number_parameters     154
_refine_ls_number_reflns         1829
_refine_ls_number_restraints     0
_refine_ls_restrained_S_all      1.024
_refine_ls_R_factor_all          0.0683
_refine_ls_R_factor_gt           0.0508
_refine_ls_shift/su_max          0.003
_refine_ls_structure_factor_coef Fsqd
_refine_ls_weighting_details
'calc w = 1/[\s^2^(Fo^2^)+(0.0809P)^2^] where P=(Fo^2^+2Fc^2^)/3'
_refine_ls_weighting_scheme      calc
_refine_ls_wR_factor_ref         0.1357
_reflns_number_gt                1415
_reflns_number_total             1829
_reflns_threshold_expression     I>2\s(I)
_cod_data_source_file            da1089.cif
_cod_data_source_block           LFM_A10
_cod_depositor_comments
;
The following automatic conversions were performed:
'_symmetry_cell_setting' value 'Triclinic' changed to 'triclinic'
according to '/home/saulius/struct/CIF-dictionaries/cif_core.dic'
dictionary named 'cif_core.dic' version 2.4.1 from 2010-06-29.

Automatic conversion script
Id: cif_fix_enum 1527 2010-12-29 10:47:43Z saulius 

The following automatic conversions were performed:

'_symmetry_cell_setting' value 'Triclinic' changed to 'triclinic'
according to /home/saulius/struct/CIF-dictionaries/cif_core.dic
dictionary named 'cif_core.dic' version 2.4.1 from 2010-06-29.

Automatic conversion script
Id: cif_fix_values 1715 2011-07-08 13:25:40Z adriana 
;
_cod_database_code               2009242
loop_
_symmetry_equiv_pos_as_xyz
'x, y, z'
'-x, -y, -z'
loop_
_atom_site_label
_atom_site_fract_x
_atom_site_fract_y
_atom_site_fract_z
_atom_site_U_iso_or_equiv
_atom_site_adp_type
_atom_site_type_symbol
Cl3 0.20751(16) 0.17142(7) 0.02070(7) 0.0461(3) Uani Cl
O9 0.7680(4) 1.04457(19) 0.6553(2) 0.0372(5) Uani O
O7 0.7666(4) 0.85459(18) 0.46546(17) 0.0322(5) Uani O
N1 0.4529(5) 0.6267(2) 0.3960(2) 0.0275(5) Uani N
N11 0.0220(5) 0.6315(2) 0.5990(2) 0.0345(6) Uani N
C1 0.5330(5) 0.5592(3) 0.2909(2) 0.0254(6) Uani C
C2 0.3634(5) 0.4189(3) 0.2167(2) 0.0277(6) Uani C
C3 0.4293(6) 0.3453(3) 0.1137(3) 0.0307(6) Uani C
C4 0.6609(6) 0.4063(3) 0.0819(3) 0.0337(7) Uani C
C5 0.8246(5) 0.5456(3) 0.1561(3) 0.0320(6) Uani C
C6 0.7657(5) 0.6230(3) 0.2600(3) 0.0297(6) Uani C
C7 0.5666(5) 0.7648(3) 0.4765(2) 0.0260(6) Uani C
C8 0.4460(5) 0.8092(3) 0.5789(2) 0.0253(6) Uani C
C9 0.5544(5) 0.9488(3) 0.6637(3) 0.0292(6) Uani C
C10 0.4446(6) 1.0049(3) 0.7686(3) 0.0371(7) Uani C
C11 0.2117(6) 0.7113(3) 0.5911(2) 0.0272(6) Uani C
H1 0.309(6) 0.567(3) 0.404(3) 0.034(8) Uiso H
H2 0.2037 0.3742 0.2369 0.033 Uiso H
H4 0.7054 0.3542 0.0115 0.040 Uiso H
H5 0.9834 0.5900 0.1352 0.038 Uiso H
H6 0.8830 0.7186 0.3096 0.036 Uiso H
H9 0.813(8) 0.996(4) 0.589(4) 0.074(13) Uiso H
H10A 0.3050 0.9246 0.7765 0.056 Uiso H
H10B 0.3625 1.0768 0.7491 0.056 Uiso H
H10C 0.5939 1.0504 0.8494 0.056 Uiso H
loop_
_atom_site_aniso_label
_atom_site_aniso_U_11
_atom_site_aniso_U_22
_atom_site_aniso_U_33
_atom_site_aniso_U_12
_atom_site_aniso_U_13
_atom_site_aniso_U_23
_atom_site_aniso_type_symbol
Cl3 0.0498(5) 0.0293(4) 0.0457(5) 0.0036(3) 0.0155(4) -0.0029(3) Cl
O9 0.0340(11) 0.0237(10) 0.0448(13) 0.0001(9) 0.0155(10) 0.0017(9) O
O7 0.0281(10) 0.0248(9) 0.0418(12) 0.0025(8) 0.0163(9) 0.0088(8) O
N1 0.0220(12) 0.0226(11) 0.0345(13) 0.0023(10) 0.0111(10) 0.0060(10) N
N11 0.0340(14) 0.0330(12) 0.0365(14) 0.0056(11) 0.0183(11) 0.0101(11) N
C1 0.0246(14) 0.0249(13) 0.0291(14) 0.0110(11) 0.0080(11) 0.0094(11) C
C2 0.0272(14) 0.0244(13) 0.0309(15) 0.0074(11) 0.0087(12) 0.0091(12) C
C3 0.0322(15) 0.0235(13) 0.0332(15) 0.0090(11) 0.0055(12) 0.0073(12) C
C4 0.0362(16) 0.0384(16) 0.0325(16) 0.0178(13) 0.0151(13) 0.0116(13) C
C5 0.0248(14) 0.0380(15) 0.0402(16) 0.0123(12) 0.0159(13) 0.0169(13) C
C6 0.0256(14) 0.0268(13) 0.0351(15) 0.0064(11) 0.0088(12) 0.0098(12) C
C7 0.0243(14) 0.0252(13) 0.0281(14) 0.0073(11) 0.0071(11) 0.0095(11) C
C8 0.0216(13) 0.0248(13) 0.0281(14) 0.0053(11) 0.0085(11) 0.0076(11) C
C9 0.0265(14) 0.0281(14) 0.0345(16) 0.0097(12) 0.0101(12) 0.0111(12) C
C10 0.0421(17) 0.0298(14) 0.0336(16) 0.0089(13) 0.0119(14) 0.0026(12) C
C11 0.0304(15) 0.0267(14) 0.0239(14) 0.0095(12) 0.0085(12) 0.0065(11) C
loop_
_atom_type_symbol
_atom_type_description
_atom_type_scat_dispersion_real
_atom_type_scat_dispersion_imag
_atom_type_scat_source
C C 0.0033 0.0016 'International Tables Vol C Tables 4.2.6.8 and 6.1.1.4'
H H 0.0000 0.0000 'International Tables Vol C Tables 4.2.6.8 and 6.1.1.4'
N N 0.0061 0.0033 'International Tables Vol C Tables 4.2.6.8 and 6.1.1.4'
O O 0.0106 0.0060 'International Tables Vol C Tables 4.2.6.8 and 6.1.1.4'
Cl Cl 0.1484 0.1585 'International Tables Vol C Tables 4.2.6.8 and 6.1.1.4'
loop_
_geom_angle_atom_site_label_1
_geom_angle_atom_site_label_2
_geom_angle_atom_site_label_3
_geom_angle
_geom_angle_publ_flag
C7 N1 C1 128.2(2) yes
C6 C1 C2 119.5(2) no
C6 C1 N1 124.5(2) yes
C2 C1 N1 116.0(2) yes
C3 C2 C1 119.5(2) no
C2 C3 C4 122.0(2) no
C2 C3 Cl3 118.2(2) yes
C4 C3 Cl3 119.8(2) yes
C5 C4 C3 117.5(3) no
C4 C5 C6 122.3(2) no
C5 C6 C1 119.2(2) no
O7 C7 N1 122.4(2) yes
O7 C7 C8 119.6(2) yes
N1 C7 C8 118.0(2) yes
C9 C8 C11 118.6(2) yes
C9 C8 C7 120.3(2) yes
C11 C8 C7 121.1(2) yes
O9 C9 C8 121.2(2) yes
O9 C9 C10 114.4(2) yes
C8 C9 C10 124.4(2) yes
N11 C11 C8 179.0(3) yes
loop_
_geom_bond_atom_site_label_1
_geom_bond_atom_site_label_2
_geom_bond_site_symmetry_1
_geom_bond_site_symmetry_2
_geom_bond_distance
_geom_bond_publ_flag
Cl3 C3 . . 1.746(3) yes
O9 C9 . . 1.318(3) yes
O7 C7 . . 1.251(3) yes
N1 C7 . . 1.355(3) yes
N1 C1 . . 1.421(3) yes
N11 C11 . . 1.146(3) yes
C1 C6 . . 1.390(4) no
C1 C2 . . 1.393(4) no
C2 C3 . . 1.382(4) no
C3 C4 . . 1.383(4) no
C4 C5 . . 1.379(4) no
C5 C6 . . 1.384(4) no
C7 C8 . . 1.468(3) yes
C8 C9 . . 1.382(4) yes
C8 C11 . . 1.425(4) yes
C9 C10 . . 1.482(4) yes
loop_
_geom_hbond_atom_site_label_D
_geom_hbond_atom_site_label_H
_geom_hbond_atom_site_label_A
_geom_hbond_site_symmetry_A
_geom_hbond_distance_DH
_geom_hbond_distance_HA
_geom_hbond_distance_DA
_geom_hbond_angle_DHA
_geom_hbond_publ_flag
O9 H9 O7 . 0.90(4) 1.65(4) 2.497(3) 155(4) yes
N1 H1 N11 2_566 0.88(3) 2.27(3) 3.131(3) 166(2) yes
