#------------------------------------------------------------------------------
#$Date: 2018-01-30 16:30:45 +0200 (Tue, 30 Jan 2018) $
#$Revision: 205898 $
#$URL: file:///home/coder/svn-repositories/cod/cif/2/00/97/2009750.cif $
#------------------------------------------------------------------------------
#
# This file is available in the Crystallography Open Database (COD),
# http://www.crystallography.net/. The original data for this entry
# were provided by IUCr Journals, http://journals.iucr.org/.
#
# The file may be used within the scientific community so long as
# proper attribution is given to the journal article from which the
# data were obtained.
#
data_2009750
loop_
_publ_author_name
'S\/otofte, I.'
_publ_section_title
;
 2,6-Dimesyl-<small>D</small>-<i>manno</i>-hexono- (III),
 2,6-dimesyl-<small>D</small>-<i>allo</i>-hexono- (IV) and
 2,6-dimesyl-<small>D</small>-<i>gulo</i>-hexono-1,4-lactone (V)
;
_journal_issue                   6
_journal_name_full               'Acta Crystallographica Section C'
_journal_page_first              941
_journal_page_last               945
_journal_paper_doi               10.1107/S0108270193010224
_journal_volume                  50
_journal_year                    1994
_chemical_formula_moiety         'C8 H14 O10 S2'
_chemical_formula_sum            'C8 H14 O10 S2'
_chemical_formula_weight         334.31
_space_group_crystal_system      monoclinic
_space_group_IT_number           4
_space_group_name_Hall           'P 2yb'
_space_group_name_H-M_alt        'P 1 21 1'
_atom_type_scat_source           IntTabIV
_cell_angle_alpha                90.
_cell_angle_beta                 93.36(2)
_cell_angle_gamma                90.
_cell_formula_units_Z            2
_cell_length_a                   10.277(2)
_cell_length_b                   5.260(2)
_cell_length_c                   12.070(3)
_cell_measurement_reflns_used    25
_cell_measurement_temperature    120
_cell_measurement_theta_max      16
_cell_measurement_theta_min      10
_cell_volume                     651.3(3)
_diffrn_measurement_device       'Enraf-Nonius CAD-4F'
_diffrn_measurement_method       \w
_diffrn_radiation_type           MoK\a
_diffrn_radiation_wavelength     0.71073
_diffrn_reflns_av_R_equivalents  0.022
_diffrn_reflns_limit_h_max       14
_diffrn_reflns_limit_h_min       0
_diffrn_reflns_limit_k_max       7
_diffrn_reflns_limit_k_min       -7
_diffrn_reflns_limit_l_max       17
_diffrn_reflns_limit_l_min       -17
_diffrn_reflns_number            4097
_diffrn_reflns_theta_max         30
_diffrn_standards_decay_%        none
_diffrn_standards_interval_time  240
_diffrn_standards_number         2
_exptl_absorpt_coefficient_mu    0.44
_exptl_absorpt_correction_type   none
_exptl_crystal_colour            colourless
_exptl_crystal_density_diffrn    1.705
_exptl_crystal_description       needle
_exptl_crystal_size_max          0.32
_exptl_crystal_size_mid          0.06
_exptl_crystal_size_min          0.05
_refine_diff_density_max         0.73
_refine_diff_density_min         -0.72
_refine_ls_goodness_of_fit_obs   1.21
_refine_ls_hydrogen_treatment    refall
_refine_ls_number_parameters     236
_refine_ls_number_reflns         2815
_refine_ls_R_factor_obs          0.040
_refine_ls_shift/esd_max         0.027
_refine_ls_structure_factor_coef F
_refine_ls_weighting_details     'w = [\s^2^(F) + 0.0004|F|^2^]^-1^'
_refine_ls_weighting_scheme      calc
_refine_ls_wR_factor_obs         0.041
_reflns_number_observed          2829
_reflns_number_total             3796
_reflns_observed_criterion       I>=3.0\s(I)
_cod_data_source_file            ab1094.cif
_cod_data_source_block           ab1094_structure_2_of_3
_cod_depositor_comments
;
The following automatic conversions were performed:

'_refine_ls_weighting_scheme' value '[\s^2^(F) + 0.0004|F|^2^]^-1^'
was changed to 'calc'. New tag '_refine_ls_weighting_details' was
created. The value of the new tag was set to 'w = [\s^2^(F) +
0.0004|F|^2^]^-1^'.

Automatic conversion script
Id: cif_fix_values 3143 2015-03-26 13:38:13Z robertas 
;
_cod_original_sg_symbol_H-M      'P 21'
_cod_database_code               2009750
loop_
_space_group_symop_id
_space_group_symop_operation_xyz
1 x,y,z
2 -x,y+1/2,-z
loop_
_atom_site_label
_atom_site_fract_x
_atom_site_fract_y
_atom_site_fract_z
_atom_site_U_iso_or_equiv
S(1) .06164(8) .08510 .84382(6) .0161(2)
S(2) .44793(8) -.0301(2) .16958(6) .0135(2)
O(1) .4541(2) .4304(5) .4171(2) .0190(7)
O(2) .3472(2) .1144(5) .2429(2) .0142(6)
O(3) .1113(2) .1587(5) .3232(2) .0212(7)
O(4) .3036(2) .2599(4) .5207(2) .0129(6)
O(5) .1208(2) -.3263(5) .5704(2) .0192(7)
O(6) .1212(2) .0943(5) .7272(2) .0183(6)
O(11) -.0561(2) .2312(5) .8304(2) .0237(8)
O(12) .0526(3) -.1730(5) .8798(2) .0261(8)
O(21) .4475(2) .1203(5) .0709(2) .0207(7)
O(22) .5677(2) -.0656(6) .2334(2) .0277(8)
C(1) .3757(3) .2679(7) .4323(2) .0145(8)
C(2) .3380(3) .0424(6) .3576(2) .0125(8)
C(3) .1972(3) -.0084(7) .3849(2) .0138(8)
C(4) .1991(3) .0703(7) .5065(2) .0130(7)
C(5) .2232(3) -.1474(7) .5880(3) .0148(9)
C(6) .2379(3) -.0567(7) .7065(3) .0172(9)
C(7) .1747(4) .2485(9) .9316(3) .0237(10)
C(8) .3723(5) -.3206(8) .1420(4) .0284(13)
H(2) .390(4) -.095(8) .376(3) .023(11)
H(3) .170(4) -.159(8) .375(3) .014(10)
H(4) .125(4) .169(7) .521(3) .017(9)
H(5) .310(4) -.215(8) .579(3) .021(10)
H(03) .101(4) .071(8) .269(4) .026(11)
H(05) .060(5) -.281(9) .608(4) .048(15)
H(61) .299(3) .041(6) .723(3) .004(8)
H(62) .238(4) -.214(9) .757(3) .022(10)
H(71) .179(4) .432(10) .906(4) .037(12)
H(72) .150(5) .263(10) 1.004(4) .049(14)
H(73) .248(5) .183(9) .934(4) .040(13)
H(81) .299(5) -.297(10) .119(4) .051(18)
H(82) .432(4) -.410(10) .091(4) .037(11)
H(83) .358(4) -.394(10) .208(4) .039(12)
loop_
_geom_angle_atom_site_label_1
_geom_angle_atom_site_label_2
_geom_angle_atom_site_label_3
_geom_angle
_geom_angle_publ_flag
O(6) S(1) O(11) 104.70(10) yes
O(6) S(1) O(12) 109.7(2) yes
O(6) S(1) C(7) 104.4(2) yes
O(11) S(1) O(12) 118.2(2) yes
O(11) S(1) C(7) 109.3(2) yes
O(12) S(1) C(7) 109.6(2) yes
O(2) S(2) O(21) 103.20(10) yes
O(2) S(2) O(22) 109.30(10) yes
O(2) S(2) C(8) 103.2(2) yes
O(21) S(2) O(22) 118.9(2) yes
O(21) S(2) C(8) 110.3(2) yes
O(22) S(2) C(8) 110.5(2) yes
S(2) O(2) C(2) 119.2(2) yes
C(1) O(4) C(4) 111.4(2) yes
S(1) O(6) C(6) 120.0(2) yes
O(1) C(1) O(4) 123.7(3) yes
O(1) C(1) C(2) 127.9(3) yes
O(4) C(1) C(2) 108.3(3) yes
O(2) C(2) C(1) 109.5(2) yes
O(2) C(2) C(3) 111.7(2) yes
C(1) C(2) C(3) 102.7(2) yes
O(3) C(3) C(2) 110.2(2) yes
O(3) C(3) C(4) 108.0(3) yes
C(2) C(3) C(4) 101.6(2) yes
O(4) C(4) C(3) 105.3(2) yes
O(4) C(4) C(5) 110.2(2) yes
C(3) C(4) C(5) 114.3(3) yes
O(5) C(5) C(4) 108.1(3) yes
O(5) C(5) C(6) 112.6(3) yes
C(4) C(5) C(6) 112.3(3) yes
O(6) C(6) C(5) 107.1(3) yes
loop_
_geom_bond_atom_site_label_1
_geom_bond_atom_site_label_2
_geom_bond_distance
_geom_bond_publ_flag
S(1) O(6) 1.569(2) yes
S(1) O(11) 1.435(2) yes
S(1) O(12) 1.430(3) yes
S(1) C(7) 1.751(4) yes
S(2) O(2) 1.594(2) yes
S(2) O(21) 1.430(2) yes
S(2) O(22) 1.426(2) yes
S(2) C(8) 1.738(5) yes
O(1) C(1) 1.196(4) yes
O(2) C(2) 1.444(3) yes
O(3) C(3) 1.425(4) yes
O(4) C(1) 1.334(3) yes
O(4) C(4) 1.468(4) yes
O(5) C(5) 1.418(4) yes
O(6) C(6) 1.472(4) yes
C(1) C(2) 1.526(4) yes
C(2) C(3) 1.526(4) yes
C(3) C(4) 1.524(4) yes
C(4) C(5) 1.520(5) yes
C(5) C(6) 1.507(5) yes
O(3) H(03) 0.80(5) no
O(5) H(05) 0.83(5) no
C(2) H(2) 0.92(4) no
C(3) H(3) 0.85(4) no
C(4) H(4) 0.95(4) no
C(5) H(5) 0.97(4) no
C(6) H(61) 0.83(3) no
C(6) H(62) 1.03(4) no
C(7) H(71) 1.02(5) no
C(7) H(72) 0.93(5) no
C(7) H(73) 0.83(5) no
C(8) H(81) 0.80(5) no
C(8) H(82) 1.01(5) no
C(8) H(83) 0.90(5) no
loop_
_geom_torsion_atom_site_label_1
_geom_torsion_atom_site_label_2
_geom_torsion_atom_site_label_3
_geom_torsion_atom_site_label_4
_geom_torsion
_geom_torsion_publ_flag
O(1) C(1) O(4) C(4) 168.8(3) yes
O(1) C(1) C(2) O(2) -33.2(4) yes
O(4) C(1) C(2) O(2) 145.8(2) yes
C(1) C(2) O(2) S(2) 117.9(2) yes
O(2) C(2) C(3) O(3) -34.7(3) yes
O(3) C(3) C(4) O(4) -89.2(3) yes
C(5) C(4) O(4) C(1) 112.7(3) yes
O(4) C(4) C(5) O(5) -179.4(2) yes
O(4) C(4) C(5) C(6) 55.7(3) yes
C(3) C(4) C(5) O(5) -61.0(3) yes
C(3) C(4) C(5) C(6) 174.1(3) yes
O(5) C(5) C(6) O(6) -67.7(4) yes
C(4) C(5) C(6) O(6) 54.6(3) yes
C(5) C(6) O(6) S(1) 144.3(2) yes
