#------------------------------------------------------------------------------
#$Date: 2017-10-13 03:08:28 +0300 (Fri, 13 Oct 2017) $
#$Revision: 201955 $
#$URL: file:///home/coder/svn-repositories/cod/cif/2/00/98/2009868.cif $
#------------------------------------------------------------------------------
#
# This file is available in the Crystallography Open Database (COD),
# http://www.crystallography.net/. The original data for this entry
# were provided by IUCr Journals, http://journals.iucr.org/.
#
# The file may be used within the scientific community so long as
# proper attribution is given to the journal article from which the
# data were obtained.
#
data_2009868
loop_
_publ_author_name
'Feeder, N.'
'Jones, W.'
_publ_section_title
;
 Four <i>N</i>-saccharinaliphatic acids
;
_journal_issue                   7
_journal_name_full               'Acta Crystallographica Section C'
_journal_page_first              1118
_journal_page_last               1122
_journal_paper_doi               10.1107/S010827019301323X
_journal_volume                  50
_journal_year                    1994
_chemical_formula_moiety         'C12 H13 N O5 S'
_chemical_formula_sum            'C12 H13 N O5 S'
_chemical_formula_weight         283.29
_chemical_name_common            'N-saccharinpentanoic acid'
_chemical_name_systematic
;
3-oxo-1,2-benzisothiazole-2(3H)-pentanoic acid 1,1 dioxide
;
_space_group_IT_number           2
_symmetry_cell_setting           triclinic
_symmetry_space_group_name_Hall  '-P 1'
_symmetry_space_group_name_H-M   'P -1'
_audit_creation_method           SHELXL
_cell_angle_alpha                87.67(3)
_cell_angle_beta                 74.07(3)
_cell_angle_gamma                67.64(3)
_cell_formula_units_Z            2
_cell_length_a                   8.247(2)
_cell_length_b                   8.332(2)
_cell_length_c                   10.536(2)
_cell_measurement_reflns_used    25
_cell_measurement_temperature    295(2)
_cell_measurement_theta_max      15
_cell_measurement_theta_min      8
_cell_volume                     642.2(3)
_computing_cell_refinement       'Enraf-Nonius CAD-4 software (SETANG)'
_computing_data_collection       'Enraf-Nonius CAD-4 software'
_computing_data_reduction        'Enraf-Nonius CAD-4 software'
_computing_molecular_graphics    'PLUTO (Motherwell and Clegg, 1978)'
_computing_publication_material  SHELXL93
_computing_structure_refinement  'SHELXL93 (Sheldrick, 1994)'
_computing_structure_solution    'SHELXS86 (Sheldrick, 1990)'
_diffrn_ambient_temperature      295(2)
_diffrn_measurement_device       'Enraf-Nonius CAD-4'
_diffrn_measurement_method       \w/2\q
_diffrn_radiation_monochromator  graphite
_diffrn_radiation_source         'fine-focus sealed tube'
_diffrn_radiation_type           MoK\a
_diffrn_radiation_wavelength     0.71073
_diffrn_reflns_av_R_equivalents  0.0291
_diffrn_reflns_av_sigmaI/netI    0.2190
_diffrn_reflns_limit_h_max       9
_diffrn_reflns_limit_h_min       -9
_diffrn_reflns_limit_k_max       9
_diffrn_reflns_limit_k_min       -9
_diffrn_reflns_limit_l_max       12
_diffrn_reflns_limit_l_min       0
_diffrn_reflns_number            2391
_diffrn_reflns_theta_max         24.97
_diffrn_reflns_theta_min         2.02
_diffrn_standards_decay_%        0
_diffrn_standards_interval_count 100
_diffrn_standards_number         2
_exptl_absorpt_coefficient_mu    0.268
_exptl_absorpt_correction_type   none
_exptl_crystal_colour            white
_exptl_crystal_density_diffrn    1.465
_exptl_crystal_description       cuboid
_exptl_crystal_F_000             296
_exptl_crystal_size_max          0.40
_exptl_crystal_size_mid          0.30
_exptl_crystal_size_min          0.20
_refine_diff_density_max         0.229
_refine_diff_density_min         -0.237
_refine_ls_extinction_method     none
_refine_ls_goodness_of_fit_all   0.844
_refine_ls_goodness_of_fit_obs   1.026
_refine_ls_hydrogen_treatment    refU
_refine_ls_matrix_type           full
_refine_ls_number_parameters     177
_refine_ls_number_reflns         2256
_refine_ls_number_restraints     0
_refine_ls_restrained_S_all      0.844
_refine_ls_restrained_S_obs      1.026
_refine_ls_R_factor_all          0.1012
_refine_ls_R_factor_obs          0.0453
_refine_ls_shift/esd_max         0.060
_refine_ls_shift/esd_mean        0.005
_refine_ls_structure_factor_coef Fsqd
_refine_ls_weighting_scheme
;calc w=1/[\s^2^(F~o~^2^)+(0.0964P)^2^ +0.0000P] where
P=(F~o~^2^+2F~c~^2^)/3
;
_refine_ls_wR_factor_all         0.1374
_refine_ls_wR_factor_obs         0.1242
_reflns_number_observed          1323
_reflns_number_total             2256
_reflns_observed_criterion       >2sigma(I)
_cod_data_source_file            ha1083.cif
_cod_data_source_block           III
_cod_database_code               2009868
loop_
_symmetry_equiv_pos_as_xyz
'x, y, z'
'-x, -y, -z'
loop_
_atom_site_aniso_label
_atom_site_aniso_U_11
_atom_site_aniso_U_22
_atom_site_aniso_U_33
_atom_site_aniso_U_12
_atom_site_aniso_U_13
_atom_site_aniso_U_23
S1 0.0420(5) 0.0535(5) 0.0678(6) -0.0229(4) -0.0164(4) 0.0169(4)
O120 0.0525(15) 0.065(2) 0.065(2) -0.0206(12) -0.0199(12) 0.0104(12)
O7 0.0472(15) 0.096(2) 0.082(2) -0.0382(14) -0.0112(13) 0.0208(15)
O1 0.060(2) 0.069(2) 0.059(2) -0.0229(13) -0.0050(12) 0.0105(13)
O2 0.071(2) 0.056(2) 0.093(2) -0.0344(13) -0.0297(14) 0.0267(14)
C6 0.039(2) 0.046(2) 0.059(2) -0.0158(14) -0.012(2) 0.003(2)
N1 0.0349(14) 0.056(2) 0.064(2) -0.0186(12) -0.0172(13) 0.0119(14)
O121 0.061(2) 0.089(2) 0.061(2) -0.0077(14) -0.0228(14) -0.0084(15)
C5 0.068(2) 0.069(2) 0.060(2) -0.028(2) -0.019(2) 0.012(2)
C10 0.040(2) 0.060(2) 0.064(2) -0.018(2) -0.017(2) 0.006(2)
C12 0.056(2) 0.051(2) 0.064(3) -0.019(2) -0.028(2) 0.007(2)
C1 0.043(2) 0.048(2) 0.064(2) -0.0205(15) -0.015(2) 0.010(2)
C8 0.043(2) 0.061(2) 0.069(2) -0.020(2) -0.024(2) 0.010(2)
C7 0.042(2) 0.053(2) 0.059(2) -0.017(2) -0.012(2) 0.005(2)
C2 0.047(2) 0.071(2) 0.090(3) -0.029(2) -0.028(2) 0.022(2)
C11 0.055(2) 0.063(2) 0.065(2) -0.012(2) -0.029(2) 0.000(2)
C9 0.040(2) 0.061(2) 0.058(2) -0.016(2) -0.016(2) 0.006(2)
C3 0.062(3) 0.073(3) 0.101(3) -0.023(2) -0.049(2) 0.016(2)
C4 0.080(3) 0.075(3) 0.068(3) -0.030(2) -0.035(2) 0.016(2)
loop_
_atom_site_label
_atom_site_fract_x
_atom_site_fract_y
_atom_site_fract_z
_atom_site_U_iso_or_equiv
_atom_site_thermal_displace_type
_atom_site_calc_flag
_atom_site_refinement_flags
_atom_site_occupancy
_atom_site_type_symbol
S1 0.43336(11) 0.58402(11) 0.80608(9) 0.0532(3) Uani d . 1 S
O120 1.4753(3) 0.0022(3) 0.8419(2) 0.0608(7) Uani d . 1 O
O7 0.7957(3) 0.6972(4) 0.5721(3) 0.0739(8) Uani d . 1 O
O1 0.3382(3) 0.6986(3) 0.9226(2) 0.0663(7) Uani d . 1 O
O2 0.4457(3) 0.4099(3) 0.8169(3) 0.0694(7) Uani d . 1 O
C6 0.4926(4) 0.7202(4) 0.5831(3) 0.0488(8) Uani d . 1 C
N1 0.6382(3) 0.5897(3) 0.7431(3) 0.0509(7) Uani d . 1 N
O121 1.2656(3) 0.0868(4) 1.0368(3) 0.0752(8) Uani d . 1 O
C5 0.4599(5) 0.7993(5) 0.4708(4) 0.0651(10) Uani d . 1 C
H5 0.5485(5) 0.8290(5) 0.4109(4) 0.083(6) Uiso calc R 1 H
C10 1.0467(4) 0.3033(4) 0.8626(4) 0.0548(9) Uani d . 1 C
H101 1.1246(4) 0.3680(4) 0.8327(4) 0.088(9) Uiso calc R 1 H
H102 0.9853(4) 0.3360(4) 0.9559(4) 0.088(9) Uiso calc R 1 H
C12 1.3121(5) 0.0640(4) 0.9112(4) 0.0551(9) Uani d . 1 C
C1 0.3592(4) 0.6764(4) 0.6704(3) 0.0508(8) Uani d . 1 C
C8 0.7728(4) 0.5380(4) 0.8193(4) 0.0562(9) Uani d . 1 C
H81 0.7092(4) 0.5540(4) 0.9130(4) 0.072(8) Uiso calc R 1 H
H82 0.8407(4) 0.6133(4) 0.8016(4) 0.072(8) Uiso calc R 1 H
C7 0.6605(4) 0.6722(4) 0.6262(3) 0.0520(8) Uani d . 1 C
C2 0.1926(5) 0.7096(5) 0.6485(4) 0.0660(10) Uani d . 1 C
H2 0.1042(5) 0.6789(5) 0.7076(4) 0.083(6) Uiso calc R 1 H
C11 1.1626(5) 0.1115(5) 0.8443(4) 0.0615(10) Uani d . 1 C
H111 1.0856(5) 0.0474(5) 0.8801(4) 0.086(9) Uiso calc R 1 H
H112 1.2164(5) 0.0774(5) 0.7505(4) 0.086(9) Uiso calc R 1 H
C9 0.9049(4) 0.3514(4) 0.7860(3) 0.0536(9) Uani d . 1 C
H91 0.9661(4) 0.3340(4) 0.6918(3) 0.051(6) Uiso calc R 1 H
H92 0.8380(4) 0.2755(4) 0.8068(3) 0.051(6) Uiso calc R 1 H
C3 0.1622(5) 0.7896(5) 0.5359(4) 0.0742(11) Uani d . 1 C
H3 0.0508(5) 0.8140(5) 0.5187(4) 0.083(6) Uiso calc R 1 H
C4 0.2927(6) 0.8341(5) 0.4484(4) 0.0714(11) Uani d . 1 C
H4 0.2684(6) 0.8885(5) 0.3731(4) 0.083(6) Uiso calc R 1 H
loop_
_atom_type_symbol
_atom_type_description
_atom_type_scat_dispersion_real
_atom_type_scat_dispersion_imag
_atom_type_scat_source
C C 0.0033 0.0016 'International Tables Vol C Tables 4.2.6.8 and 6.1.1.4'
H H 0.0000 0.0000 'International Tables Vol C Tables 4.2.6.8 and 6.1.1.4'
N N 0.0061 0.0033 'International Tables Vol C Tables 4.2.6.8 and 6.1.1.4'
O O 0.0106 0.0060 'International Tables Vol C Tables 4.2.6.8 and 6.1.1.4'
S S 0.1246 0.1234 'International Tables Vol C Tables 4.2.6.8 and 6.1.1.4'
loop_
_geom_angle_atom_site_label_1
_geom_angle_atom_site_label_2
_geom_angle_atom_site_label_3
_geom_angle
_geom_angle_publ_flag
O2 S1 O1 116.9(2) yes
O2 S1 N1 110.71(15) yes
O1 S1 N1 110.0(2) yes
O2 S1 C1 112.5(2) yes
O1 S1 C1 111.4(2) yes
N1 S1 C1 92.77(14) yes
C5 C6 C1 119.6(3) yes
C5 C6 C7 127.5(3) yes
C1 C6 C7 112.8(3) yes
C7 N1 C8 123.0(3) yes
C7 N1 S1 115.3(2) yes
C8 N1 S1 120.9(2) yes
C6 C5 C4 118.7(4) yes
C6 C5 H5 120.6(2) no
C4 C5 H5 120.6(2) no
C11 C10 C9 111.7(3) yes
C11 C10 H101 109.3(2) no
C9 C10 H101 109.3(2) no
C11 C10 H102 109.3(2) no
C9 C10 H102 109.3(2) no
H101 C10 H102 107.9 no
O121 C12 O120 123.3(3) yes
O121 C12 C11 117.7(3) yes
O120 C12 C11 119.0(3) yes
C2 C1 C6 122.0(3) yes
C2 C1 S1 127.8(3) yes
C6 C1 S1 110.2(2) yes
N1 C8 C9 112.6(3) yes
N1 C8 H81 109.1(2) no
C9 C8 H81 109.1(2) no
N1 C8 H82 109.1(2) no
C9 C8 H82 109.1(2) no
H81 C8 H82 107.8 no
O7 C7 N1 123.8(3) yes
O7 C7 C6 127.5(3) yes
N1 C7 C6 108.7(3) yes
C1 C2 C3 117.5(3) yes
C1 C2 H2 121.3(2) no
C3 C2 H2 121.3(2) no
C12 C11 C10 112.3(3) yes
C12 C11 H111 109.1(2) no
C10 C11 H111 109.1(2) no
C12 C11 H112 109.1(2) no
C10 C11 H112 109.1(2) no
H111 C11 H112 107.9 no
C8 C9 C10 111.5(3) yes
C8 C9 H91 109.3(2) no
C10 C9 H91 109.3(2) no
C8 C9 H92 109.3(2) no
C10 C9 H92 109.3(2) no
H91 C9 H92 108.0 no
C4 C3 C2 121.3(3) yes
C4 C3 H3 119.3(2) no
C2 C3 H3 119.3(2) no
C3 C4 C5 120.8(4) yes
C3 C4 H4 119.6(2) no
C5 C4 H4 119.6(2) no
loop_
_geom_bond_atom_site_label_1
_geom_bond_atom_site_label_2
_geom_bond_distance
_geom_bond_publ_flag
S1 O2 1.418(2) yes
S1 O1 1.425(3) yes
S1 N1 1.655(3) yes
S1 C1 1.744(3) yes
O120 C12 1.254(4) yes
O7 C7 1.195(4) yes
C6 C5 1.372(5) yes
C6 C1 1.383(4) yes
C6 C7 1.481(5) yes
N1 C7 1.388(4) yes
N1 C8 1.470(4) yes
O121 C12 1.272(4) yes
C5 C4 1.382(5) yes
C5 H5 0.93 no
C10 C11 1.505(5) yes
C10 C9 1.521(4) yes
C10 H101 0.97 no
C10 H102 0.97 no
C12 C11 1.503(5) yes
C1 C2 1.377(4) yes
C8 C9 1.508(5) yes
C8 H81 0.97 no
C8 H82 0.97 no
C2 C3 1.373(5) yes
C2 H2 0.93 no
C11 H111 0.97 no
C11 H112 0.97 no
C9 H91 0.97 no
C9 H92 0.97 no
C3 C4 1.370(6) yes
C3 H3 0.93 no
C4 H4 0.93 no
loop_
_geom_torsion_atom_site_label_1
_geom_torsion_atom_site_label_2
_geom_torsion_atom_site_label_3
_geom_torsion_atom_site_label_4
_geom_torsion
_geom_torsion_publ_flag
O2 S1 N1 C7 120.7(2) no
O1 S1 N1 C7 -108.6(2) no
C1 S1 N1 C7 5.4(3) no
O2 S1 N1 C8 -69.5(3) no
O1 S1 N1 C8 61.2(3) no
C1 S1 N1 C8 175.2(3) no
C1 C6 C5 C4 0.3(5) no
C7 C6 C5 C4 -179.7(3) no
C5 C6 C1 C2 0.1(5) no
C7 C6 C1 C2 -179.9(3) no
C5 C6 C1 S1 -178.3(3) no
C7 C6 C1 S1 1.8(4) no
O2 S1 C1 C2 64.0(4) no
O1 S1 C1 C2 -69.5(3) no
N1 S1 C1 C2 177.8(3) no
O2 S1 C1 C6 -117.8(3) no
O1 S1 C1 C6 108.8(3) no
N1 S1 C1 C6 -4.0(3) no
C7 N1 C8 C9 -95.0(4) no
S1 N1 C8 C9 96.0(3) no
C8 N1 C7 O7 5.6(5) no
S1 N1 C7 O7 175.2(3) no
C8 N1 C7 C6 -174.6(3) no
S1 N1 C7 C6 -5.1(3) no
C5 C6 C7 O7 1.7(6) no
C1 C6 C7 O7 -178.4(3) no
C5 C6 C7 N1 -178.1(3) no
C1 C6 C7 N1 1.9(4) no
C6 C1 C2 C3 -0.4(5) no
S1 C1 C2 C3 177.6(3) no
O121 C12 C11 C10 64.3(4) no
O120 C12 C11 C10 -116.6(4) no
C9 C10 C11 C12 175.8(3) no
N1 C8 C9 C10 178.0(3) no
C11 C10 C9 C8 172.1(3) no
C1 C2 C3 C4 0.3(6) no
C2 C3 C4 C5 0.2(6) no
C6 C5 C4 C3 -0.5(6) no
loop_
_cod_related_entry_id
_cod_related_entry_database
_cod_related_entry_code
1 ChemSpider 21587676
