#------------------------------------------------------------------------------
#$Date: 2022-09-28 18:08:17 +0300 (Wed, 28 Sep 2022) $
#$Revision: 278247 $
#$URL: file:///home/coder/svn-repositories/cod/cif/2/00/99/2009903.cif $
#------------------------------------------------------------------------------
#
# This file is available in the Crystallography Open Database (COD),
# http://www.crystallography.net/. The original data for this entry
# were provided by IUCr Journals, http://journals.iucr.org/.
#
# The file may be used within the scientific community so long as
# proper attribution is given to the journal article from which the
# data were obtained.
#
data_2009903
loop_
_publ_author_name
'Irngartinger, H.'
'Lichenth\"aler, J.'
_publ_section_title
;
 Three tetramethylketals of 2,5-distyryl-[1,4]benzoquinones
;
_journal_issue                   7
_journal_name_full               'Acta Crystallographica Section C'
_journal_page_first              1154
_journal_page_last               1156
_journal_paper_doi               10.1107/S0108270193011503
_journal_volume                  50
_journal_year                    1994
_chemical_formula_sum            'C26 H28 O4'
_chemical_formula_weight         404.4
_space_group_IT_number           2
_space_group_name_Hall           '-P 1'
_space_group_name_H-M_alt        'P -1'
_symmetry_cell_setting           triclinic
_symmetry_space_group_name_Hall  '-P 1'
_symmetry_space_group_name_H-M   'P -1'
_atom_type_scat_source           IntTabIV
_cell_angle_alpha                95.080(10)
_cell_angle_beta                 101.03(2)
_cell_angle_gamma                98.180(10)
_cell_formula_units_Z            1
_cell_length_a                   7.6570(10)
_cell_length_b                   11.535(2)
_cell_length_c                   6.4600(10)
_cell_measurement_reflns_used    75
_cell_measurement_temperature    293
_cell_measurement_theta_max      20.07
_cell_measurement_theta_min      9.99
_cell_volume                     550.38(15)
_diffrn_measurement_device       'Enraf-Nonius CAD-4'
_diffrn_measurement_method       \w/2\q
_diffrn_radiation_type           MoK\a
_diffrn_radiation_wavelength     0.7107
_diffrn_reflns_av_R_equivalents  0.017
_diffrn_reflns_limit_h_max       10
_diffrn_reflns_limit_h_min       -10
_diffrn_reflns_limit_k_max       15
_diffrn_reflns_limit_k_min       -15
_diffrn_reflns_limit_l_max       8
_diffrn_reflns_limit_l_min       0
_diffrn_reflns_number            2964
_diffrn_reflns_theta_max         28
_diffrn_standards_decay_%        1.7
_diffrn_standards_interval_time  60
_diffrn_standards_number         3
_exptl_absorpt_coefficient_mu    0.076
_exptl_absorpt_correction_type   none
_exptl_crystal_colour            colourless
_exptl_crystal_density_diffrn    1.22
_exptl_crystal_description       platelets
_exptl_crystal_size_max          0.5
_exptl_crystal_size_mid          0.45
_exptl_crystal_size_min          0.15
_refine_diff_density_max         0.14
_refine_diff_density_min         -0.23
_refine_ls_extinction_method     none
_refine_ls_goodness_of_fit_obs   2.11
_refine_ls_hydrogen_treatment    refall
_refine_ls_number_parameters     192
_refine_ls_number_reflns         1743
_refine_ls_R_factor_obs          0.039
_refine_ls_shift/esd_max         0.01
_refine_ls_structure_factor_coef Fsqd
_refine_ls_weighting_details     'w = 1/[\s(F~o~)^2^]'
_refine_ls_weighting_scheme      calc
_refine_ls_wR_factor_obs         0.050
_reflns_number_observed          1743
_reflns_number_total             2637
_reflns_observed_criterion       I>2.5\s(I)
_cod_data_source_file            se1044.cif
_cod_data_source_block           se1044_structure_1_of_3
_cod_depositor_comments
;
The following automatic conversions were performed:

'_refine_ls_weighting_scheme' value '1/[\s(F~o~)^2^]' was changed to
'calc'. New tag '_refine_ls_weighting_details' was created. The value
of the new tag was set to 'w = 1/[\s(F~o~)^2^]'.

Automatic conversion script
Id: cif_fix_values 3143 2015-03-26 13:38:13Z robertas 
;
_cod_original_cell_volume        550.3(3)
_cod_database_code               2009903
loop_
_space_group_symop_id
_space_group_symop_operation_xyz
1 x,y,z
2 -x,-y,-z
loop_
_atom_site_label
_atom_site_fract_x
_atom_site_fract_y
_atom_site_fract_z
_atom_site_U_iso_or_equiv
O1 .41810(10) -.14930(10) -.35340(10) .0436(4)
O2 .23880(10) -.01990(10) -.34410(10) .0460(4)
C1 .6516(2) .09380(10) .0093(2) .0353(5)
C2 .5501(2) .04400(10) -.1777(2) .0391(5)
C3 .3909(2) -.05350(10) -.2140(2) .0372(5)
C4 .8025(2) .18880(10) .0145(2) .0402(5)
C5 .9131(2) .25020(10) .1855(2) .0426(5)
C6 1.0584(2) .34850(10) .1857(2) .0405(5)
C7 1.1205(2) .37680(10) .0048(2) .0487(6)
C8 1.2530(2) .4731(2) .0142(3) .0573(7)
C9 1.3258(2) .54320(10) .2035(3) .0611(7)
C10 1.2673(2) .5166(2) .3843(3) .0634(8)
C11 1.1361(2) .41940(10) .3758(2) .0526(6)
C12 .5679(2) -.20390(10) -.2794(3) .0641(7)
C13 .1666(2) .0734(2) -.2545(3) .0692(8)
H2 .577(2) .0700(10) -.307(2) .0045(4)
H4 .818(2) .2080(10) -.128(2) .005(5)
H5 .894(2) .2320(10) .326(2) .049(4)
H7 1.066(2) .327(2) -.131(3) .070(5)
H8 1.289(2) .4900(10) -.118(3) .0064(5)
H9 1.417(2) .608(2) .210(3) .0075(5)
H10 1.320(3) .566(2) .508(3) .0084(6)
H11 1.090(2) .4000(10) .507(2) .0063(5)
H12a .558(3) -.243(2) -.145(3) .0109(7)
H12c .679(3) -.150(2) -.242(3) .0085(6)
H12b .575(2) -.2650(10) -.387(3) .0067(5)
H13b .254(3) .147(2) -.211(3) .0099(7)
H13c .125(3) .058(2) -.118(4) .0119(8)
H13a .070(2) .0930(10) -.366(3) .0068(5)
loop_
_geom_bond_atom_site_label_1
_geom_bond_atom_site_label_2
_geom_bond_distance
_geom_bond_publ_flag
C1 C2 1.336(2) yes
C1 C3' 1.517(2) yes
C2 C3 1.503(2) yes
C1 C4 1.468(2) yes
C4 C5 1.331(2) yes
C5 C6 1.471(2) yes
O1 C3 1.427(2) yes
O2 C3 1.423(2) yes
O1 C12 1.411(2) yes
O2 C13 1.408(2) yes
C6 C7 1.391(2) no
C6 C11 1.391(2) no
C7 C8 1.383(2) no
C8 C9 1.377(2) no
C9 C10 1.372(3) no
C10 C11 1.384(2) no
C2 H2 0.96(2) no
C4 H4 0.99(2) no
C5 H5 0.98(2) no
C7 H7 0.99(2) no
C8 H8 0.98(2) no
C9 H9 0.94(2) no
C10 H10 0.92(2) no
C11 H11 1.01(2) no
C12 H12a 1.03(2) no
C12 H12c 0.96(2) no
C12 H12b 0.96(2) no
C13 H13b 0.99(2) no
C13 H13c 1.01(2) no
C13 H13a 0.99(2) no
