#------------------------------------------------------------------------------
#$Date: 2016-02-19 16:29:56 +0200 (Fri, 19 Feb 2016) $
#$Revision: 176759 $
#$URL: svn://www.crystallography.net/cod/cif/2/00/97/2009794.cif $
#------------------------------------------------------------------------------
#
# This file is available in the Crystallography Open Database (COD),
# http://www.crystallography.net/. The original data for this entry
# were provided by IUCr Journals, http://journals.iucr.org/.
#
# The file may be used within the scientific community so long as
# proper attribution is given to the journal article from which the
# data were obtained.
#
data_2009794
loop_
_publ_author_name
'Adovasio, Victor'
'Lina, Fausto'
'Nardelli, Mario'
'Pelizzi, Giancarlo'
_publ_section_title
;
 Lithium bis(tetramethyllammonium) hexanitrocobaltate(III) at 113 and
 293 K
;
_journal_issue                   6
_journal_name_full               'Acta Crystallographica Section C'
_journal_page_first              871
_journal_page_last               874
_journal_paper_doi               10.1107/S0108270193011588
_journal_volume                  50
_journal_year                    1994
_chemical_formula_analytical     'Li 1+,2C4 H12 N1 1+, [Co1 (N1 O2)6] 3-'
_chemical_formula_moiety         'Li 1+,2(C4 H12 N1 1+), Co1 N6 O12 3-'
_chemical_formula_sum            'C8 H24 Co Li N8 O12'
_chemical_formula_weight         490.20
_chemical_name_systematic
;
Litium bis(tetramethylammonium) hexanitrocobaltate(III)
;
_symmetry_cell_setting           trigonal
_symmetry_space_group_name_H-M   'P -3 m 1'
_cell_angle_alpha                90
_cell_angle_beta                 90
_cell_angle_gamma                120
_cell_formula_units_Z            1
_cell_length_a                   8.8560(10)
_cell_length_b                   8.8560(10)
_cell_length_c                   7.017(2)
_cell_measurement_reflns_used    23
_cell_measurement_temperature    113.0(10)
_cell_measurement_theta_max      17.39
_cell_measurement_theta_min      11.23
_cell_volume                     476.60(16)
_computing_cell_refinement       'LQPARM (Nardelli & Mangia, 1984)'
_computing_data_collection       'local programs'
_computing_data_reduction        'local programs'
_computing_molecular_graphics
;
 ORTEP (Johnson, 1965), PLUTO (Motherwell & Clegg, 1976)
;
_computing_publication_material
;
 PARST (Nardelli, 1983), PARSTCIF (Nardelli, 1992)
;
_computing_structure_refinement  'SHELXL92 (Sheldrick, 1992)'
_computing_structure_solution    'SHELXS86 (Sheldrick, 1985)'
_diffrn_ambient_temperature      113.0(10)
_diffrn_measurement_device       'ENRAF-NONIUS CAD4 diffractometer'
_diffrn_measurement_method       '\q-2\q scan'
_diffrn_radiation_monochromator  graphite
_diffrn_radiation_source         'fine focus X-ray sealed tube'
_diffrn_radiation_type           'Mo K\a mean'
_diffrn_radiation_wavelength     .71069
_diffrn_reflns_av_R_equivalents  .0356
_diffrn_reflns_av_sigmaI/netI    .0329
_diffrn_reflns_limit_h_max       20
_diffrn_reflns_limit_h_min       -24
_diffrn_reflns_limit_k_max       24
_diffrn_reflns_limit_k_min       0
_diffrn_reflns_limit_l_max       0
_diffrn_reflns_limit_l_min       -19
_diffrn_reflns_number            11116
_diffrn_reflns_reduction_process
;
;
_diffrn_reflns_theta_max         75.23
_diffrn_reflns_theta_min         3.94
_diffrn_standards_decay_%        'within statistical fluctuation'
_diffrn_standards_interval_time  160
_diffrn_standards_number         1
_exptl_absorpt_coefficient_mu    .979
_exptl_absorpt_correction_T_max  .744
_exptl_absorpt_correction_T_min  .732
_exptl_absorpt_correction_type   sphere
_exptl_crystal_colour            'red brown'
_exptl_crystal_density_diffrn    1.708
_exptl_crystal_description
;
 small pseudo octahedra
;
_exptl_crystal_F_000             254
_exptl_crystal_size_max          .55
_exptl_crystal_size_mid          .40
_exptl_crystal_size_min          .39
_refine_diff_density_max         1.86
_refine_diff_density_min         -1.03
_refine_ls_goodness_of_fit_obs   1.082
_refine_ls_hydrogen_treatment    refall
_refine_ls_matrix_type           full
_refine_ls_number_parameters     45
_refine_ls_number_reflns         3653
_refine_ls_number_restraints     0
_refine_ls_restrained_S_all      1.103
_refine_ls_restrained_S_obs      1.082
_refine_ls_R_factor_obs          .0292
_refine_ls_shift/esd_max         <0.001
_refine_ls_shift/esd_mean        .000
_refine_ls_structure_factor_coef Fsqd
_refine_ls_weighting_scheme
;
 calc w = 1/[\s^2^(F~o~^2^) + (0.0291P)^2^ + 0.0822P] where
   P = (F~o~^2^+2F~c~^2^)/3
;
_refine_ls_wR_factor_obs         .0765
_reflns_number_observed          3391
_reflns_number_total             3662
_reflns_observed_criterion       I>2\s(I)
_cod_data_source_file            mu1078.cif
_cod_data_source_block           113K
_cod_original_cell_volume        476.6(2)
_cod_database_code               2009794
loop_
_atom_site_aniso_label
_atom_site_aniso_U_11
_atom_site_aniso_U_22
_atom_site_aniso_U_33
_atom_site_aniso_U_12
_atom_site_aniso_U_13
_atom_site_aniso_U_23
Co .0081 .0081 .0058 .0040 .0000 .0000
Li .0083(4) .0083(4) .0085(6) .0041(2) .0000 .0000
O1 .02100(10) .02100(10) .00800(10) .01530(10) -.0003 .0003
O2 .0305(2) .0305(2) .01220(10) .0257(2) .0012 -.00120(10)
N1 .01300(10) .01300(10) .00820(10) .00850(10) .0000 .0000
N2 .01020(10) .01020(10) .01090(10) .0051 .0000 .0000
C1 .01730(10) .01730(10) .0188(2) .01120(10) -.00170(10) .00170(10)
C2 .0176(2) .0176(2) .0112(2) .00880(10) .0000 .0000
loop_
_atom_site_label
_atom_site_fract_x
_atom_site_fract_y
_atom_site_fract_z
_atom_site_U_iso_or_equiv
_atom_site_thermal_displace_type
_atom_site_calc_flag
_atom_site_calc_attached_atom
_atom_site_type_symbol
Co .00000 .00000 .00000 .0076 aniso calc . Co
Li .00000 .00000 .50000 .0084(3) aniso calc . Li
O1 .10685(2) -.10685(2) .32944(4) .01450(10) aniso . . O
O2 .17751(2) -.17751(2) .06848(5) .01980(10) aniso . . O
N1 .10738(2) -.10738(2) .15243(4) .01060(10) aniso . . N
N2 .33333 .66667 .64143(8) .01040(10) aniso . . N
C1 .42522(3) .57478(3) .71239(8) .01670(10) aniso . . C
C2 .33333 .66667 .42819(11) .01540(10) aniso . . C
H11 .3704(14) .4668(16) .6630(12) .029(3) iso . C1 H
H12 .4260(10) .5740(10) .8554(19) .028(4) iso . C1 H
H21 .2782(10) .7218(10) .3942(17) .023(3) iso . C2 H
loop_
_atom_type_symbol
_atom_type_description
_atom_type_scat_dispersion_real
_atom_type_scat_dispersion_imag
_atom_type_scat_source
Co ? ? ? ?
Li ? ? ? ?
O Oxygen .008 .006 IntTabIV
N Nitrogen .004 .003 IntTabIV
C Carbon .002 .002 IntTabIV
H Hydrogen .000 .000 IntTabIV
loop_
_diffrn_standard_refln_index_h
_diffrn_standard_refln_index_k
_diffrn_standard_refln_index_l
1 3 2
loop_
_geom_angle_atom_site_label_1
_geom_angle_atom_site_label_2
_geom_angle_atom_site_label_3
_geom_angle
_geom_angle_publ_flag
Li O1 N1 126.51(2) yes
O1 N1 O2 119.08(3) yes
Co N1 O2 118.30(2) yes
Co N1 O1 122.62(2) yes
C1 N2 C2 109.46(2) yes
N2 C1 H12 110.2(6) no
N2 C1 H11 107.5(8) no
H11 C1 H12 112.4(7) no
N2 C2 H21 105.8(8) no
loop_
_geom_bond_atom_site_label_1
_geom_bond_atom_site_label_2
_geom_bond_distance
_geom_bond_publ_flag
Co N1 1.9639(3) yes
Li O1 2.0294(3) yes
O1 N1 1.2421(5) yes
O2 N1 1.2265(4) yes
N2 C1 1.4949(4) yes
N2 C2 1.4960(10) yes
C1 H11 .898(11) no
C1 H12 1.003(14) no
C2 H21 .879(11) no
loop_
_geom_contact_atom_site_label_1
_geom_contact_atom_site_label_2
_geom_contact_distance
_geom_contact_site_symmetry_2
_geom_contact_publ_flag
Co O1 2.8330(10) . no
Co O2 2.765 . no
Li N1 2.9430(10) . no
O1 H21 2.688(13) 1_545 no
O2 H21 2.768(13) 1_545 no
C2 H11 2.557(15) 4_665 no
C2 H12 2.587(12) . no
Li O1 2.0294(3) . yes
O2 N2 3.8331(9) 1_544 yes
N1 N1 2.8529(4) 7 yes
N1 N1 2.6998(6) 2 yes
O1 O1 2.8388(4) 7 yes
O1 O1 2.9010(7) 3_556 yes
C1 O2 3.2510(10) 8_556 yes
H12 O2 2.55(2) 8_556 yes
loop_
_geom_torsion_atom_site_label_1
_geom_torsion_atom_site_label_2
_geom_torsion_atom_site_label_3
_geom_torsion_atom_site_label_4
_geom_torsion
Li O1 N1 Co -.02(5)
Li O1 N1 O2 179.92(3)
