#------------------------------------------------------------------------------
#$Date: 2017-10-13 03:48:21 +0300 (Fri, 13 Oct 2017) $
#$Revision: 201957 $
#$URL: file:///home/coder/svn-repositories/cod/cif/2/01/09/2010967.cif $
#------------------------------------------------------------------------------
#
# This file is available in the Crystallography Open Database (COD),
# http://www.crystallography.net/. The original data for this entry
# were provided by IUCr Journals, http://journals.iucr.org/.
#
# The file may be used within the scientific community so long as
# proper attribution is given to the journal article from which the
# data were obtained.
#
data_2010967
loop_
_publ_author_name
'Ishida, Hiroyuki'
'Kashino, Setsuo'
_publ_section_title
;
 Ethylammonium and diethylammonium salts of chloranilic acid
;
_journal_issue                   5
_journal_name_full               'Acta Crystallographica Section C'
_journal_page_first              e202
_journal_page_last               e204
_journal_paper_doi               10.1107/S0108270100004480
_journal_volume                  56
_journal_year                    2000
_chemical_formula_moiety         'C4 H12 N 1+, C6 H O4 Cl2 1-'
_chemical_formula_sum            'C10 H13 Cl2 N O4'
_chemical_formula_weight         282.12
_space_group_IT_number           2
_symmetry_cell_setting           triclinic
_symmetry_space_group_name_Hall  '-P 1'
_symmetry_space_group_name_H-M   'P -1'
_cell_angle_alpha                108.17(2)
_cell_angle_beta                 111.27(3)
_cell_angle_gamma                103.78(2)
_cell_formula_units_Z            2
_cell_length_a                   9.159(3)
_cell_length_b                   9.617(2)
_cell_length_c                   8.979(3)
_cell_measurement_reflns_used    25
_cell_measurement_temperature    302
_cell_measurement_theta_max      12.4
_cell_measurement_theta_min      10.7
_cell_volume                     642.8(4)
_computing_cell_refinement
;
MSC/AFC Diffractometer Control Software
;
_computing_data_collection
;
MSC/AFC Diffractometer Control Software
(Molecular Structure Corporation,1990)
;
_computing_data_reduction
;
TEXSAN (Molecular Structure Corporation, 1997)
;
_computing_publication_material  TEXSAN
_computing_structure_refinement  TEXSAN
_computing_structure_solution
;
SIR92 (Altomare, et. al. 1993)
;
_diffrn_ambient_temperature      302
_diffrn_measurement_device       'Rigaku AFC-5R'
_diffrn_measurement_method       \w-2\q
_diffrn_radiation_monochromator  graphite
_diffrn_radiation_source         'Rigaku rotating anode'
_diffrn_radiation_type           'Mo K\a'
_diffrn_radiation_wavelength     .71073
_diffrn_reflns_av_R_equivalents  .016
_diffrn_reflns_av_sigmaI/netI    .054
_diffrn_reflns_limit_h_max       11
_diffrn_reflns_limit_h_min       0
_diffrn_reflns_limit_k_max       12
_diffrn_reflns_limit_k_min       -12
_diffrn_reflns_limit_l_max       10
_diffrn_reflns_limit_l_min       -11
_diffrn_reflns_number            3144
_diffrn_reflns_reduction_process 'Lp corrections applied'
_diffrn_reflns_theta_max         27.50
_diffrn_reflns_theta_min         2.43
_diffrn_standards_decay_%        none
_diffrn_standards_interval_count 97
_diffrn_standards_number         3
_exptl_absorpt_coefficient_mu    .506
_exptl_absorpt_correction_T_max  .859
_exptl_absorpt_correction_T_min  .839
_exptl_absorpt_correction_type   \y
_exptl_absorpt_process_details   '(North et al., 1968)'
_exptl_crystal_colour            'dark purple'
_exptl_crystal_density_diffrn    1.458
_exptl_crystal_density_meas      ?
_exptl_crystal_description       prismatic
_exptl_crystal_F_000             292.00
_exptl_crystal_size_max          .40
_exptl_crystal_size_mid          .30
_exptl_crystal_size_min          .30
_refine_diff_density_max         .55
_refine_diff_density_min         -.61
_refine_ls_extinction_method     none
_refine_ls_goodness_of_fit_all   1.64
_refine_ls_goodness_of_fit_ref   1.64
_refine_ls_hydrogen_treatment    refall
_refine_ls_matrix_type           full
_refine_ls_number_constraints    0
_refine_ls_number_parameters     206
_refine_ls_number_reflns         2956
_refine_ls_number_restraints     0
_refine_ls_R_factor_all          .062
_refine_ls_R_factor_gt           .053
_refine_ls_shift/su_max          .01
_refine_ls_shift/su_mean         .0006
_refine_ls_structure_factor_coef Fsqd
_refine_ls_weighting_details     'w = 1/[\s^2^(Fo) + 0.00012|Fo|^2^]'
_refine_ls_weighting_scheme      sigma
_refine_ls_wR_factor_all         .099
_refine_ls_wR_factor_ref         .091
_reflns_number_gt                1793
_reflns_number_total             2958
_reflns_threshold_expression     I>2\s(I)
_cod_data_source_file            qb0198.cif
_cod_data_source_block           II
_cod_depositor_comments
;
The following automatic conversions were performed:

'_exptl_crystal_density_meas' value 'not measured' was changed to '?'
- the value is perceived as not measured.

Automatic conversion script
Id: cif_fix_values 3008 2015-01-20 13:52:24Z robertas 
;
_cod_original_cell_volume        642.8(5)
_cod_original_formula_sum        'C10 H13 Cl2 N O4 '
_cod_database_code               2010967
loop_
_symmetry_equiv_pos_as_xyz
'  +x,  +y,  +z'
'  -x,  -y,  -z'
loop_
_atom_site_label
_atom_site_fract_x
_atom_site_fract_y
_atom_site_fract_z
_atom_site_U_iso_or_equiv
_atom_site_adp_type
_atom_site_calc_flag
_atom_site_calc_attached_atom
_atom_site_refinement_flags
_atom_site_occupancy
Cl1 .43126(7) -.21089(7) .75740(10) .0984(2) Uani d ? . 1.000
Cl2 .47197(6) .40876(7) .63997(9) .0813(2) Uani d ? . 1.000
O1 .7413(2) .0652(2) .8661(2) .0771(5) Uani d ? . 1.000
O2 .1471(2) -.1291(2) .5868(2) .0597(4) Uani d ? . 1.000
O3 .16590(10) .1276(2) .5307(2) .0632(4) Uani d ? . 1.000
O4 .76570(10) .32960(10) .8233(2) .0520(4) Uani d ? . 1.000
N 1.0613(2) .3561(2) 1.1187(2) .0437(5) Uani d ? . 1.000
C1 .6087(2) .0761(2) .7867(3) .0487(6) Uani d ? . 1.000
C2 .4415(2) -.0449(2) .7209(3) .0508(6) Uani d ? . 1.000
C3 .3001(2) -.0229(2) .6412(3) .0436(5) Uani d ? . 1.000
C4 .3048(2) .1216(2) .6086(3) .0439(5) Uani d ? . 1.000
C5 .4661(2) .2397(2) .6710(3) .0452(5) Uani d ? . 1.000
C6 .6183(2) .2272(2) .7595(2) .0403(5) Uani d ? . 1.000
C7 1.0199(3) .3931(3) 1.2683(3) .0658(9) Uani d ? . 1.000
C8 .9265(4) .5006(3) 1.2643(4) .0731(9) Uani d ? . 1.000
C9 1.1389(3) .2358(2) 1.1026(3) .0549(7) Uani d ? . 1.000
C10 1.1648(4) .1956(4) .9427(4) .0780(10) Uani d ? . 1.000
H1 .069(3) -.104(3) .540(3) .094(8) Uiso d ? . 1.000
H2 .961(3) .316(2) 1.006(3) .070(6) Uiso d ? . 1.000
H3 1.133(2) .448(2) 1.128(3) .064(6) Uiso d ? . 1.000
H4 .957(3) .289(3) 1.256(3) .078(7) Uiso d ? . 1.000
H5 1.132(3) .448(3) 1.380(3) .101(9) Uiso d ? . 1.000
H6 .811(4) .459(3) 1.148(4) .120(10) Uiso d ? . 1.000
H7 .987(3) .608(3) 1.272(3) .112(9) Uiso d ? . 1.000
H8 .905(3) .528(3) 1.362(4) .106(9) Uiso d ? . 1.000
H9 1.061(2) .143(2) 1.104(2) .058(6) Uiso d ? . 1.000
H10 1.245(2) .276(2) 1.209(3) .054(5) Uiso d ? . 1.000
H11 1.059(3) .164(3) .826(4) .113(9) Uiso d ? . 1.000
H12 1.234(3) .292(3) .935(3) .097(9) Uiso d ? . 1.000
H13 1.205(3) .111(3) .927(3) .100(8) Uiso d ? . 1.000
loop_
_atom_site_aniso_label
_atom_site_aniso_U_11
_atom_site_aniso_U_22
_atom_site_aniso_U_33
_atom_site_aniso_U_12
_atom_site_aniso_U_13
_atom_site_aniso_U_23
Cl1 .0413(3) .0561(3) .1895(8) .0179(3) .0306(4) .0740(5)
Cl2 .0412(3) .0720(4) .1236(6) .0104(3) .0145(3) .0727(4)
O1 .0278(7) .0560(9) .1290(10) .0125(6) .0137(8) .0500(10)
O2 .0241(6) .0460(8) .0960(10) .0067(6) .0162(7) .0366(8)
O3 .0250(6) .0680(9) .0920(10) .0130(6) .0137(7) .0511(9)
O4 .0244(6) .0482(8) .0680(10) .0020(5) .0102(6) .0313(7)
N .0318(8) .0410(9) .0500(10) .0079(7) .0129(8) .0231(9)
C1 .0268(9) .0380(10) .0720(10) .0105(8) .0170(10) .0230(10)
C2 .0305(9) .0330(10) .079(2) .0088(8) .0180(10) .0260(10)
C3 .0256(9) .0354(9) .0590(10) .0070(7) .0157(9) .0170(10)
C4 .0279(9) .0470(10) .0510(10) .0093(8) .0139(9) .0250(10)
C5 .0284(9) .0450(10) .0560(10) .0072(8) .0115(9) .0310(10)
C6 .0260(8) .0400(10) .0450(10) .0052(7) .0118(8) .0190(9)
C7 .063(2) .081(2) .063(2) .0240(10) .0340(10) .042(2)
C8 .082(2) .068(2) .076(2) .0260(10) .050(2) .026(2)
C9 .0390(10) .0470(10) .070(2) .0155(9) .0130(10) .0310(10)
C10 .075(2) .083(2) .087(2) .048(2) .037(2) .038(2)
loop_
_atom_type_symbol
_atom_type_scat_dispersion_real
_atom_type_scat_dispersion_imag
_atom_type_scat_source
C .002 .002
;International Tables for Crystallography
(1992, Vol. C)
;
H .000 .000
;International Tables for Crystallography
(1992, Vol. C)
;
N .004 .003
;International Tables for Crystallography
(1992, Vol. C)
;
O .008 .006
;International Tables for Crystallography
(1992, Vol. C)
;
Cl .132 .159
;International Tables for Crystallography
(1992, Vol. C)
;
loop_
_diffrn_standard_refln_index_h
_diffrn_standard_refln_index_k
_diffrn_standard_refln_index_l
2 0 1
3 -2 0
1 -3 2
loop_
_geom_angle_atom_site_label_1
_geom_angle_atom_site_label_2
_geom_angle_atom_site_label_3
_geom_angle
_geom_angle_publ_flag
C3 O2 H1 113(2) no
C7 N C9 114.1(2) no
C7 N H2 111(2) no
C7 N H3 111(2) no
C9 N H2 107(2) no
C9 N H3 109(2) no
H2 N H3 104(2) no
O1 C1 C2 123.1(2) no
O1 C1 C6 118.3(2) no
C2 C1 C6 118.5(2) no
CL1 C2 C1 118.4(2) no
CL1 C2 C3 121.2(2) no
C1 C2 C3 120.3(2) no
O2 C3 C2 121.1(2) no
O2 C3 C4 116.4(2) no
C2 C3 C4 122.5(2) no
O3 C4 C3 116.8(2) no
O3 C4 C5 125.4(2) no
C3 C4 C5 117.8(2) no
CL2 C5 C4 117.9(2) no
CL2 C5 C6 119.3(2) no
C4 C5 C6 122.9(2) no
O4 C6 C1 115.8(2) no
O4 C6 C5 126.2(2) no
C1 C6 C5 118.0(2) no
N C7 C8 110.9(3) yes
N C7 H4 105(2) no
N C7 H5 106(2) no
C8 C7 H4 115(2) no
C8 C7 H5 110(2) no
H4 C7 H5 110(2) no
C7 C8 H6 117(2) no
C7 C8 H7 117(2) no
C7 C8 H8 111(2) no
H6 C8 H7 100(3) no
H6 C8 H8 108(3) no
H7 C8 H8 104(3) no
N C9 C10 111.2(2) yes
N C9 H9 105.0(10) no
N C9 H10 110.0(10) no
C10 C9 H9 115.0(10) no
C10 C9 H10 111.0(10) no
H9 C9 H10 105(2) no
C9 C10 H11 115(2) no
C9 C10 H12 115(2) no
C9 C10 H13 111(2) no
H11 C10 H12 93(2) no
H11 C10 H13 109(3) no
H12 C10 H13 114(3) no
loop_
_geom_bond_atom_site_label_1
_geom_bond_atom_site_label_2
_geom_bond_site_symmetry_1
_geom_bond_site_symmetry_2
_geom_bond_distance
_geom_bond_publ_flag
CL1 C2 . . 1.715(2) yes
CL2 C5 . . 1.725(2) yes
O1 C1 . . 1.215(2) yes
O2 C3 . . 1.325(2) yes
O2 H1 . . .82(3) no
O3 C4 . . 1.235(2) yes
O4 C6 . . 1.255(2) yes
C1 C2 . . 1.454(3) yes
C1 C6 . . 1.534(3) yes
C2 C3 . . 1.336(3) yes
C3 C4 . . 1.501(3) yes
C4 C5 . . 1.411(3) yes
C5 C6 . . 1.387(3) yes
N C7 . . 1.488(4) yes
N C9 . . 1.492(3) yes
C7 C8 . . 1.492(5) yes
C9 C10 . . 1.487(5) yes
N H2 . . .97(3) no
N H3 . . .93(2) no
C7 H4 . . .97(3) no
C7 H5 . . 1.00(3) no
C8 H6 . . 1.05(4) no
C8 H7 . . 1.01(3) no
C8 H8 . . .94(4) no
C9 H9 . . 1.01(2) no
C9 H10 . . .96(2) no
C10 H11 . . 1.03(3) no
C10 H12 . . 1.03(3) no
C10 H13 . . .97(3) no
loop_
_geom_contact_atom_site_label_1
_geom_contact_atom_site_label_2
_geom_contact_distance
_geom_contact_site_symmetry_2
_geom_contact_publ_flag
O1 N 2.979(3) . no
O2 O3 2.677(2) 2_556 no
O4 N 2.838(3) 2_767 no
O4 N 2.910(3) . no
loop_
_geom_hbond_atom_site_label_D
_geom_hbond_atom_site_label_H
_geom_hbond_atom_site_label_A
_geom_hbond_site_symmetry_A
_geom_hbond_distance_DH
_geom_hbond_distance_HA
_geom_hbond_distance_DA
_geom_hbond_angle_DHA
_geom_hbond_publ_flag
O2 H1 O3 2_556 .82(3) 1.94(3) 2.677(2) 148(3) yes
O2 H1 O3 . .82(3) 2.23(3) 2.649(2) 112(3) yes
N H2 O4 . .97(3) 2.00(3) 2.910(3) 155(2) yes
N H2 O1 . .97(3) 2.33(3) 2.979(3) 124(2) yes
N H3 O4 2_767 .93(2) 1.95(3) 2.838(3) 160(2) yes
loop_
_geom_torsion_atom_site_label_1
_geom_torsion_atom_site_label_2
_geom_torsion_atom_site_label_3
_geom_torsion_atom_site_label_4
_geom_torsion
_geom_torsion_publ_flag
CL1 C2 C1 O1 .1(4) no
CL1 C2 C1 C6 -178.1(2) no
CL1 C2 C3 O2 -.4(4) no
CL1 C2 C3 C4 179.6(2) no
CL2 C5 C4 O3 1.1(4) no
CL2 C5 C4 C3 -177.9(2) no
CL2 C5 C6 O4 .6(4) no
CL2 C5 C6 C1 179.3(2) no
O1 C1 C2 C3 177.1(3) no
O1 C1 C6 O4 -.2(4) no
O1 C1 C6 C5 -179.1(3) no
O2 C3 C2 C1 -177.3(2) no
O2 C3 C4 O3 -1.4(4) no
O2 C3 C4 C5 177.7(2) no
O3 C4 C3 C2 178.6(3) no
O3 C4 C5 C6 179.3(3) no
O4 C6 C1 C2 178.1(2) no
O4 C6 C5 C4 -177.6(2) no
C1 C2 C3 C4 2.6(4) no
C1 C6 C5 C4 1.2(4) no
C2 C1 C6 C5 -.8(4) no
C2 C3 C4 C5 -2.2(4) no
C3 C2 C1 C6 -1.1(4) no
C3 C4 C5 C6 .2(4) no
C7 N C9 C10 175.7(3) no
C8 C7 N C9 -174.0(3) no
loop_
_cod_related_entry_id
_cod_related_entry_database
_cod_related_entry_code
1 ChemSpider 30652286
