#------------------------------------------------------------------------------
#$Date: 2017-10-13 03:48:21 +0300 (Fri, 13 Oct 2017) $
#$Revision: 201957 $
#$URL: file:///home/coder/svn-repositories/cod/cif/2/01/07/2010701.cif $
#------------------------------------------------------------------------------
#
# This file is available in the Crystallography Open Database (COD),
# http://www.crystallography.net/. The original data for this entry
# were provided by IUCr Journals, http://journals.iucr.org/.
#
# The file may be used within the scientific community so long as
# proper attribution is given to the journal article from which the
# data were obtained.
#
data_2010701
loop_
_publ_author_name
'Clark, Ronald D.'
'Romero, Angela'
'Borbulevych, Oleg Ya.'
'Antipin, Mikhail Yu.'
'Nesterov, Vladimir N.'
'Timofeeva, Tatiana V.'
_publ_section_title
;
 2-Amino derivatives of 5-nitrophenylacetamide
;
_journal_issue                   3
_journal_name_full               'Acta Crystallographica Section C'
_journal_page_first              336
_journal_page_last               338
_journal_paper_doi               10.1107/S0108270199014985
_journal_volume                  56
_journal_year                    2000
_chemical_formula_sum            'C10 H13 N3 O3'
_chemical_formula_weight         223.23
_chemical_name_systematic
;
 N-[2-(dimethylamino)-5-nitrophenyl]acetamide
;
_space_group_IT_number           4
_symmetry_cell_setting           monoclinic
_symmetry_space_group_name_Hall  'P 2yb'
_symmetry_space_group_name_H-M   'P 1 21 1'
_audit_creation_method           SHELXL
_cell_angle_alpha                90.00
_cell_angle_beta                 94.38(3)
_cell_angle_gamma                90.00
_cell_formula_units_Z            2
_cell_length_a                   4.7860(10)
_cell_length_b                   13.030(3)
_cell_length_c                   8.727(2)
_cell_measurement_reflns_used    24
_cell_measurement_temperature    293(2)
_cell_measurement_theta_max      11
_cell_measurement_theta_min      10
_cell_volume                     542.6(2)
_computing_cell_refinement       P3
_computing_data_collection       'P3 (Siemens, 1989)'
_computing_data_reduction        'XDISK (Siemens, 1991)'
_computing_molecular_graphics    SHELXTL/PC
_computing_publication_material  SHELXTL/PC
_computing_structure_refinement  SHELXTL/PC
_computing_structure_solution    'SHELXTL/PC (Sheldrick, 1994)'
_diffrn_ambient_temperature      293(2)
_diffrn_measurement_device       'Siemens P3'
_diffrn_measurement_method       '\q/2\q scans'
_diffrn_radiation_monochromator  graphite
_diffrn_radiation_source         'fine-focus sealed tube'
_diffrn_radiation_type           MoK\a
_diffrn_radiation_wavelength     .71073
_diffrn_reflns_av_R_equivalents  .033
_diffrn_reflns_av_sigmaI/netI    .026
_diffrn_reflns_limit_h_max       5
_diffrn_reflns_limit_h_min       0
_diffrn_reflns_limit_k_max       15
_diffrn_reflns_limit_k_min       -15
_diffrn_reflns_limit_l_max       10
_diffrn_reflns_limit_l_min       -10
_diffrn_reflns_number            2053
_diffrn_reflns_theta_max         25.07
_diffrn_reflns_theta_min         2.34
_diffrn_standards_decay_%        4.8
_diffrn_standards_interval_count 98
_diffrn_standards_number         2
_exptl_absorpt_coefficient_mu    .103
_exptl_absorpt_correction_type   none
_exptl_crystal_colour            yellow
_exptl_crystal_density_diffrn    1.366
_exptl_crystal_density_method    'not measured'
_exptl_crystal_description       needles
_exptl_crystal_F_000             236
_exptl_crystal_size_max          .4
_exptl_crystal_size_mid          .1
_exptl_crystal_size_min          .1
_refine_diff_density_max         .11
_refine_diff_density_min         -.12
_refine_ls_abs_structure_details 'Flack (1983)'
_refine_ls_abs_structure_Flack   'not reliably determined'
_refine_ls_extinction_method     none
_refine_ls_goodness_of_fit_all   1.041
_refine_ls_goodness_of_fit_ref   1.061
_refine_ls_hydrogen_treatment    refall
_refine_ls_matrix_type           full
_refine_ls_number_parameters     193
_refine_ls_number_reflns         1754
_refine_ls_number_restraints     1
_refine_ls_restrained_S_all      1.260
_refine_ls_restrained_S_obs      1.061
_refine_ls_R_factor_all          .052
_refine_ls_R_factor_gt           .034
_refine_ls_shift/esd_mean        .001
_refine_ls_shift/su_max          -.012
_refine_ls_structure_factor_coef Fsqd
_refine_ls_weighting_details
'w = 1/[\s^2^(Fo^2^)+(0.0645P)^2^+0.0191P] where P=(Fo^2^+2Fc^2^)/3'
_refine_ls_weighting_scheme      calc
_refine_ls_wR_factor_all         .110
_refine_ls_wR_factor_ref         .085
_reflns_number_gt                1486
_reflns_number_total             1817
_reflns_threshold_expression     I>2\s(I)
_cod_data_source_file            bm1387.cif
_cod_data_source_block           III
_cod_depositor_comments
;
The following automatic conversions were performed:
'_symmetry_cell_setting' value 'Monoclinic' changed to 'monoclinic'
according to '/home/saulius/struct/CIF-dictionaries/cif_core.dic'
dictionary named 'cif_core.dic' version 2.4.1 from 2010-06-29.

Automatic conversion script
Id: cif_fix_enum 1527 2010-12-29 10:47:43Z saulius 

The following automatic conversions were performed:

'_symmetry_cell_setting' value 'Monoclinic' changed to 'monoclinic'
according to /home/saulius/struct/CIF-dictionaries/cif_core.dic
dictionary named 'cif_core.dic' version 2.4.1 from 2010-06-29.

Automatic conversion script
Id: cif_fix_values 1715 2011-07-08 13:25:40Z adriana 

The following automatic conversions were performed:

'_refine_ls_weighting_scheme' value 'calc w =
1/[\s^2^(Fo^2^)+(0.0645P)^2^+0.0191P] where P=(Fo^2^+2Fc^2^)/3' was
changed to 'calc'. New tag '_refine_ls_weighting_details' was
created. The value of the new tag was set to 'w =
1/[\s^2^(Fo^2^)+(0.0645P)^2^+0.0191P] where P=(Fo^2^+2Fc^2^)/3'.

Automatic conversion script
Id: cif_fix_values 3143 2015-03-26 13:38:13Z robertas 
;
_cod_original_sg_symbol_H-M      'P 21'
_cod_database_code               2010701
loop_
_symmetry_equiv_pos_as_xyz
'x, y, z'
'-x, y+1/2, -z'
loop_
_atom_site_aniso_label
_atom_site_aniso_U_11
_atom_site_aniso_U_22
_atom_site_aniso_U_33
_atom_site_aniso_U_12
_atom_site_aniso_U_13
_atom_site_aniso_U_23
N1 .0228(8) .0462(9) .0544(9) -.0014(7) .0099(6) .0119(8)
N2 .0346(10) .0441(9) .0579(10) .0028(7) .0055(7) -.0006(8)
N3 .0509(12) .0704(13) .0462(10) -.0069(10) .0097(8) -.0036(10)
O1 .0222(9) .0820(10) .0750(10) .0048(7) .0074(6) .0234(9)
O2 .0970(15) .1035(14) .0497(10) -.0010(12) .0266(9) .0111(10)
O3 .0786(14) .0907(14) .0671(11) .0254(11) .0237(9) -.0013(9)
C1 .0269(9) .0383(9) .0421(10) -.0052(8) .0009(7) .0045(8)
C2 .0251(10) .0390(10) .0500(11) -.0060(7) -.0020(8) .0025(8)
C3 .0387(12) .0453(11) .0544(12) -.0012(9) -.0052(9) .0087(9)
C4 .0454(13) .0573(13) .0427(11) -.0056(10) -.0017(9) .0100(10)
C5 .0347(11) .0528(12) .0398(11) -.0091(8) .0000(8) .0007(8)
C6 .0308(11) .0411(10) .0483(11) -.0038(8) .0015(8) -.0008(8)
C7 .0291(12) .0393(9) .0489(10) -.0012(8) .0022(7) .0035(8)
C8 .0423(14) .0601(15) .0529(13) .0035(11) .0083(11) .0146(11)
C9 .0433(15) .0532(14) .086(2) .0066(11) .0003(13) -.0095(12)
C10 .060(2) .073(2) .0544(14) .003(2) .0082(11) -.0004(13)
loop_
_atom_site_label
_atom_site_fract_x
_atom_site_fract_y
_atom_site_fract_z
_atom_site_U_iso_or_equiv
_atom_site_thermal_displace_type
_atom_site_calc_flag
_atom_site_refinement_flags
_atom_site_occupancy
_atom_site_disorder_group
_atom_site_type_symbol
N1 .2912(4) .54479(12) .3017(2) .0407(4) Uani d . 1 . N
H1 .4621 .54938 .2783 .049 Uiso calc R 1 . H
N2 .5269(3) .34733(13) .3217(2) .0454(4) Uani d . 1 . N
N3 -.1198(4) .4893(2) .7870(2) .0555(5) Uani d . 1 . N
O1 -.1482(3) .60305(14) .2415(2) .0596(5) Uani d . 1 . O
O2 -.1281(5) .4387(2) .9037(2) .0823(6) Uani d . 1 . O
O3 -.2532(5) .5688(2) .7653(2) .0778(6) Uani d . 1 . O
C1 .2389(4) .48048(14) .4263(2) .0358(4) Uani d . 1 . C
C2 .3801(4) .38400(14) .4391(2) .0383(5) Uani d . 1 . C
C3 .3663(5) .3309(2) .5785(2) .0466(5) Uani d . 1 . C
H3 .466(5) .270(2) .587(3) .047(6) Uiso d . 1 . H
C4 .2093(5) .3650(2) .6919(2) .0487(5) Uani d . 1 . C
H4 .202(5) .3304(19) .786(3) .057(7) Uiso d . 1 . H
C5 .0549(4) .45426(15) .6696(2) .0426(5) Uani d . 1 . C
C6 .0735(4) .5128(2) .5380(2) .0401(5) Uani d . 1 . C
H6 -.013(5) .580(2) .533(2) .047(6) Uiso d . 1 . H
C7 .0984(4) .59990(15) .2154(2) .0392(4) Uani d . 1 . C
C8 .2085(5) .6595(2) .0866(3) .0515(6) Uani d . 1 . C
H8A .242(8) .723(4) .121(4) .107(13) Uiso d . 1 . H
H8B .075(6) .659(2) -.003(3) .068(7) Uiso d . 1 . H
H8C .328(7) .626(3) .049(3) .078(10) Uiso d . 1 . H
C9 .7156(6) .2615(2) .3529(4) .0611(6) Uani d . 1 . C
H9A .634(7) .202(3) .361(3) .074(8) Uiso d . 1 . H
H9B .834(7) .254(2) .270(4) .074(8) Uiso d . 1 . H
H9C .824(6) .272(2) .448(3) .063(7) Uiso d . 1 . H
C10 .4021(7) .3476(3) .1648(3) .0623(6) Uani d . 1 . C
H10A .253(6) .384(2) .149(3) .062(8) Uiso d . 1 . H
H10B .378(8) .281(3) .132(4) .099(11) Uiso d . 1 . H
H10C .486(9) .387(3) .105(5) .100(12) Uiso d . 1 . H
loop_
_atom_type_symbol
_atom_type_description
_atom_type_scat_dispersion_real
_atom_type_scat_dispersion_imag
_atom_type_scat_source
C C .0033 .0016 'International Tables Vol C Tables 4.2.6.8 and 6.1.1.4'
H H .0000 .0000 'International Tables Vol C Tables 4.2.6.8 and 6.1.1.4'
N N .0061 .0033 'International Tables Vol C Tables 4.2.6.8 and 6.1.1.4'
O O .0106 .0060 'International Tables Vol C Tables 4.2.6.8 and 6.1.1.4'
loop_
_geom_angle_atom_site_label_1
_geom_angle_atom_site_label_2
_geom_angle_atom_site_label_3
_geom_angle
_geom_angle_publ_flag
C7 N1 C1 126.2(2) no
C2 N2 C9 118.4(2) no
C2 N2 C10 120.5(2) no
C9 N2 C10 112.6(2) no
O2 N3 O3 122.6(2) no
O2 N3 C5 118.7(2) no
O3 N3 C5 118.8(2) no
C6 C1 N1 120.9(2) no
C6 C1 C2 120.7(2) no
N1 C1 C2 118.2(2) no
N2 C2 C3 122.4(2) no
N2 C2 C1 120.9(2) no
C3 C2 C1 116.6(2) no
C4 C3 C2 122.2(2) no
C3 C4 C5 119.4(2) no
C4 C5 C6 120.7(2) no
C4 C5 N3 119.9(2) no
C6 C5 N3 119.4(2) no
C1 C6 C5 119.9(2) no
O1 C7 N1 122.9(2) no
O1 C7 C8 121.6(2) no
N1 C7 C8 115.5(2) no
loop_
_geom_bond_atom_site_label_1
_geom_bond_atom_site_label_2
_geom_bond_site_symmetry_1
_geom_bond_site_symmetry_2
_geom_bond_distance
_geom_bond_publ_flag
N1 C7 . . 1.352(3) no
N1 C1 . . 1.410(2) no
N2 C2 . . 1.372(3) no
N2 C9 . . 1.450(3) no
N2 C10 . . 1.451(3) no
N3 O2 . . 1.217(3) no
N3 O3 . . 1.224(3) no
N3 C5 . . 1.445(3) no
O1 C7 . . 1.219(3) no
C1 C6 . . 1.368(3) no
C1 C2 . . 1.428(3) no
C2 C3 . . 1.405(3) no
C3 C4 . . 1.362(3) no
C4 C5 . . 1.383(3) no
C5 C6 . . 1.387(3) no
C7 C8 . . 1.495(3) no
loop_
_geom_hbond_atom_site_label_D
_geom_hbond_atom_site_label_H
_geom_hbond_atom_site_label_A
_geom_hbond_site_symmetry_A
_geom_hbond_distance_DH
_geom_hbond_distance_HA
_geom_hbond_distance_DA
_geom_hbond_angle_DHA
_geom_hbond_publ_flag
N1 H1 O1 1_655 .86 2.04 2.875(2) 163 yes
loop_
_geom_torsion_atom_site_label_1
_geom_torsion_atom_site_label_2
_geom_torsion_atom_site_label_3
_geom_torsion_atom_site_label_4
_geom_torsion
_geom_torsion_publ_flag
C7 N1 C1 C6 -46.4(3) no
C7 N1 C1 C2 138.3(2) no
C9 N2 C2 C3 -11.8(3) no
C10 N2 C2 C3 133.7(2) no
C9 N2 C2 C1 166.5(2) no
C10 N2 C2 C1 -48.0(3) no
C6 C1 C2 N2 174.5(2) no
N1 C1 C2 N2 -10.2(3) no
C6 C1 C2 C3 -7.2(3) no
N1 C1 C2 C3 168.1(2) no
N2 C2 C3 C4 -176.7(2) no
C1 C2 C3 C4 4.9(3) no
C2 C3 C4 C5 .7(3) no
C3 C4 C5 C6 -4.5(3) no
C3 C4 C5 N3 177.9(2) no
O2 N3 C5 C4 -.4(3) no
O3 N3 C5 C4 179.5(2) no
O2 N3 C5 C6 -178.0(2) no
O3 N3 C5 C6 1.9(3) no
N1 C1 C6 C5 -171.4(2) no
C2 C1 C6 C5 3.8(3) no
C4 C5 C6 C1 2.2(3) no
N3 C5 C6 C1 179.8(2) no
C1 N1 C7 O1 3.2(3) no
C1 N1 C7 C8 -178.1(2) no
loop_
_cod_related_entry_id
_cod_related_entry_database
_cod_related_entry_code
1 ChemSpider 533686
