#------------------------------------------------------------------------------
#$Date: 2017-10-13 03:48:21 +0300 (Fri, 13 Oct 2017) $
#$Revision: 201957 $
#$URL: file:///home/coder/svn-repositories/cod/cif/2/01/12/2011291.cif $
#------------------------------------------------------------------------------
#
# This file is available in the Crystallography Open Database (COD),
# http://www.crystallography.net/. The original data for this entry
# were provided by IUCr Journals, http://journals.iucr.org/.
#
# The file may be used within the scientific community so long as
# proper attribution is given to the journal article from which the
# data were obtained.
#
data_2011291
loop_
_publ_author_name
'Bats, Jan W.'
'Parsch, Uwe'
'Engels, Joachim W.'
_publ_section_title
;
 Solid-state transformation of
 4,2'-anhydro-5-(\b-<small>D</small>-arabinofuranosyl)uracil dihydrate
 to 4,2'-anhydro-5-(\b-<small>D</small>-arabinofuranosyl)uracil
 monohydrate
;
_journal_issue                   9
_journal_name_full               'Acta Crystallographica Section C'
_journal_page_first              1129
_journal_page_last               1131
_journal_paper_doi               10.1107/S0108270100007794
_journal_volume                  56
_journal_year                    2000
_chemical_formula_iupac          'C9 H10 N2 O5, 2H2 O'
_chemical_formula_moiety         'C9 H10 N2 O5, 2H2 O'
_chemical_formula_sum            'C9 H14 N2 O7'
_chemical_formula_weight         262.22
_chemical_name_systematic
;
4,2'-Anhydro-5-(\b-D-arabinofuranosyl)-uracil dihydrate
;
_space_group_IT_number           4
_symmetry_cell_setting           monoclinic
_symmetry_space_group_name_Hall  'P 2yb'
_symmetry_space_group_name_H-M   'P 1 21 1'
_cell_angle_alpha                90.00
_cell_angle_beta                 91.921(9)
_cell_angle_gamma                90.00
_cell_formula_units_Z            2
_cell_length_a                   6.0315(7)
_cell_length_b                   7.2490(8)
_cell_length_c                   12.8693(19)
_cell_measurement_reflns_used    207
_cell_measurement_temperature    135(2)
_cell_measurement_theta_max      23
_cell_measurement_theta_min      3
_cell_volume                     562.36(12)
_computing_cell_refinement       SMART
_computing_data_collection       'SMART (Siemens, 1995)'
_computing_data_reduction        'SAINT (Siemens, 1995)'
_computing_molecular_graphics    'XP in SHELXTL'
_computing_publication_material  'CIF in SHELXL97'
_computing_structure_refinement  'SHELXL97 (Sheldrick, 1997)'
_computing_structure_solution    'SHELXTL (Sheldrick, 1996)'
_diffrn_ambient_temperature      135(2)
_diffrn_measured_fraction_theta_full .990
_diffrn_measured_fraction_theta_max .924
_diffrn_measurement_device_type  Siemens_SMART
_diffrn_measurement_method       \w
_diffrn_radiation_monochromator  graphite
_diffrn_radiation_source         'normal-focus sealed tube'
_diffrn_radiation_type           MoK\a
_diffrn_radiation_wavelength     .71073
_diffrn_reflns_av_R_equivalents  .039
_diffrn_reflns_av_sigmaI/netI    .0202
_diffrn_reflns_limit_h_max       8
_diffrn_reflns_limit_h_min       -8
_diffrn_reflns_limit_k_max       10
_diffrn_reflns_limit_k_min       -9
_diffrn_reflns_limit_l_max       19
_diffrn_reflns_limit_l_min       -17
_diffrn_reflns_number            10536
_diffrn_reflns_theta_full        30.00
_diffrn_reflns_theta_max         32.29
_diffrn_reflns_theta_min         1.58
_diffrn_standards_decay_%        .0
_diffrn_standards_interval_time  600
_diffrn_standards_number         210
_exptl_absorpt_coefficient_mu    .135
_exptl_absorpt_correction_T_max  .961
_exptl_absorpt_correction_T_min  .916
_exptl_absorpt_correction_type   'numerical (SHELXTL; Sheldrick, 1996)'
_exptl_crystal_colour            colorless
_exptl_crystal_density_diffrn    1.549
_exptl_crystal_density_method    'not measured'
_exptl_crystal_description       block
_exptl_crystal_F_000             276
_exptl_crystal_size_max          .60
_exptl_crystal_size_mid          .54
_exptl_crystal_size_min          .34
_refine_diff_density_max         .312
_refine_diff_density_min         -.272
_refine_ls_extinction_coef       .31(2)
_refine_ls_extinction_method     SHELXL97
_refine_ls_goodness_of_fit_ref   1.377
_refine_ls_hydrogen_treatment    refall
_refine_ls_matrix_type           full
_refine_ls_number_parameters     220
_refine_ls_number_reflns         1970
_refine_ls_number_restraints     1
_refine_ls_restrained_S_all      1.377
_refine_ls_R_factor_all          .026
_refine_ls_R_factor_gt           .025
_refine_ls_shift/su_max          <0.001
_refine_ls_shift/su_mean         .000
_refine_ls_structure_factor_coef Fsqd
_refine_ls_weighting_details
'calc w = 1/[\s^2^(Fo^2^)+(0.05P)^2^] where P = (Fo^2^+2Fc^2^)/3'
_refine_ls_weighting_scheme      calc
_refine_ls_wR_factor_ref         .076
_reflns_number_gt                1942
_reflns_number_total             1970
_reflns_threshold_expression     I>2\s(I)
_cod_data_source_file            av1044.cif
_cod_data_source_block           Ia
_cod_original_sg_symbol_H-M      'P 21'
_cod_database_code               2011291
_cod_database_fobs_code          2011291
loop_
_symmetry_equiv_pos_as_xyz
'x, y, z'
'-x, y+1/2, -z'
loop_
_atom_site_label
_atom_site_fract_x
_atom_site_fract_y
_atom_site_fract_z
_atom_site_U_iso_or_equiv
_atom_site_adp_type
_atom_site_calc_flag
_atom_site_refinement_flags
_atom_site_occupancy
_atom_site_disorder_assembly
_atom_site_disorder_group
_atom_site_type_symbol
O4 .51583(11) .04216(15) .12081(5) .01925(17) Uani d . 1 . . O
O3' .54763(12) .07751(11) .38795(6) .01560(16) Uani d . 1 . . O
O2 .32296(12) .08300(12) -.22573(6) .01750(17) Uani d . 1 . . O
O4' .07803(12) .20057(12) .22666(6) .01488(16) Uani d . 1 . . O
O5' .24383(11) .55290(11) .26988(6) .01481(15) Uani d . 1 . . O
O7 .73319(15) .33605(14) .50065(7) .0237(2) Uani d . 1 . . O
O8 .87328(15) -.19923(15) .38915(8) .0269(2) Uani d . 1 . . O
N3 .43995(13) .06573(16) -.05461(6) .01728(19) Uani d . 1 . . N
N1 .05786(12) .05147(15) -.10669(6) .01471(17) Uani d . 1 . . N
C5 .14705(14) .03136(15) .07033(7) .01359(18) Uani d . 1 . . C
C1' .14462(15) .02506(15) .18590(7) .01374(18) Uani d . 1 . . C
C2' .39391(16) .00618(14) .21572(7) .01415(18) Uani d . 1 . . C
C4 .36934(14) .04718(16) .03989(7) .01440(18) Uani d . 1 . . C
C3' .44064(15) .15504(14) .29785(7) .01272(17) Uani d . 1 . . C
C2 .27836(15) .06767(15) -.13220(7) .01375(18) Uani d . 1 . . C
C4' .20713(15) .22824(14) .32095(7) .01268(17) Uani d . 1 . . C
C5' .19396(17) .42956(15) .35201(7) .01447(18) Uani d . 1 . . C
C6 -.00968(16) .03286(17) -.00785(8) .01563(19) Uani d . 1 . . C
H1' .068(3) -.071(3) .2142(15) .024(4) Uiso d . 1 . . H
H2' .434(3) -.120(3) .2418(13) .015(4) Uiso d . 1 . . H
H3' .534(2) .251(3) .2706(12) .012(3) Uiso d . 1 . . H
H03' .607(3) .166(4) .4247(14) .035(5) Uiso d . 1 . . H
H4' .149(3) .152(3) .3787(15) .028(5) Uiso d . 1 . . H
H01 -.035(2) .049(3) -.1579(12) .015(3) Uiso d . 1 . . H
H5'B .045(3) .460(3) .3735(13) .018(4) Uiso d . 1 . . H
H5'A .290(2) .452(2) .4128(12) .010(3) Uiso d . 1 . . H
H05' .394(3) .548(4) .2608(14) .028(4) Uiso d . 1 . . H
H6 -.156(3) .023(3) -.0006(13) .020(4) Uiso d . 1 . . H
H07B .655(4) .403(4) .5295(17) .041(6) Uiso d . 1 . . H
H07A .845(5) .329(5) .530(2) .060(7) Uiso d . 1 . . H
H08A .785(4) -.112(4) .3901(15) .033(5) Uiso d . 1 . . H
H08B .839(3) -.275(3) .3434(16) .027(5) Uiso d . 1 . . H
loop_
_atom_site_aniso_label
_atom_site_aniso_U_11
_atom_site_aniso_U_22
_atom_site_aniso_U_33
_atom_site_aniso_U_12
_atom_site_aniso_U_13
_atom_site_aniso_U_23
O4 .0105(3) .0353(4) .0118(3) .0043(3) -.0006(2) -.0022(3)
O3' .0172(3) .0148(4) .0144(3) .0023(3) -.0051(2) -.0010(3)
O2 .0154(3) .0248(4) .0123(3) -.0006(3) .0006(2) .0004(3)
O4' .0133(3) .0167(3) .0144(3) .0036(3) -.0021(2) -.0034(3)
O5' .0133(3) .0154(3) .0156(3) .0013(3) -.0008(2) .0035(3)
O7 .0205(4) .0246(4) .0255(4) .0018(3) -.0065(3) -.0094(4)
O8 .0211(4) .0255(5) .0333(4) .0097(3) -.0091(3) -.0103(4)
N3 .0109(3) .0286(5) .0123(3) .0004(3) -.0003(2) -.0008(4)
N1 .0109(3) .0195(4) .0136(3) -.0006(3) -.0015(2) -.0026(3)
C5 .0115(3) .0169(4) .0124(3) -.0017(3) .0005(3) -.0022(3)
C1' .0139(3) .0146(4) .0127(3) -.0008(3) .0007(3) -.0015(3)
C2' .0149(4) .0155(4) .0120(3) .0033(3) .0002(3) -.0008(3)
C4 .0101(3) .0193(4) .0137(4) .0021(3) -.0011(3) -.0021(4)
C3' .0131(4) .0120(4) .0129(3) .0019(3) -.0009(3) -.0002(3)
C2 .0114(3) .0161(5) .0137(4) .0005(3) -.0005(3) -.0015(4)
C4' .0123(3) .0140(4) .0117(4) .0022(3) -.0006(3) -.0004(3)
C5' .0175(4) .0136(4) .0124(4) .0032(3) .0008(3) -.0001(3)
C6 .0107(3) .0207(5) .0155(4) -.0022(4) .0009(3) -.0035(4)
loop_
_atom_type_symbol
_atom_type_description
_atom_type_scat_dispersion_real
_atom_type_scat_dispersion_imag
_atom_type_scat_source
C C .0033 .0016 'International Tables Vol C Tables 4.2.6.8 and 6.1.1.4'
H H .0000 .0000 'International Tables Vol C Tables 4.2.6.8 and 6.1.1.4'
N N .0061 .0033 'International Tables Vol C Tables 4.2.6.8 and 6.1.1.4'
O O .0106 .0060 'International Tables Vol C Tables 4.2.6.8 and 6.1.1.4'
loop_
_geom_angle_atom_site_label_1
_geom_angle_atom_site_label_2
_geom_angle_atom_site_label_3
_geom_angle
C4 O4 C2' 108.33(7)
C4' O4' C1' 106.38(7)
C4 N3 C2 115.60(8)
C6 N1 C2 123.50(8)
C6 C5 C4 115.93(8)
C6 C5 C1' 135.31(8)
C4 C5 C1' 108.69(8)
O4' C1' C5 110.45(8)
O4' C1' C2' 105.61(8)
C5 C1' C2' 102.04(7)
O4 C2' C3' 111.29(8)
O4 C2' C1' 106.72(7)
C3' C2' C1' 105.32(8)
N3 C4 O4 119.80(8)
N3 C4 C5 127.36(8)
O4 C4 C5 112.84(8)
O3' C3' C2' 110.62(8)
O3' C3' C4' 111.75(8)
C2' C3' C4' 103.15(8)
O2 C2 N3 122.17(8)
O2 C2 N1 118.43(8)
N3 C2 N1 119.40(8)
O4' C4' C5' 109.03(8)
O4' C4' C3' 105.19(7)
C5' C4' C3' 115.98(8)
O5' C5' C4' 113.23(8)
N1 C6 C5 118.21(8)
loop_
_geom_bond_atom_site_label_1
_geom_bond_atom_site_label_2
_geom_bond_site_symmetry_2
_geom_bond_distance
_geom_bond_publ_flag
O4 C4 . 1.3434(11) ?
O4 C2' . 1.4699(11) ?
O3' C3' . 1.4237(11) ?
O2 C2 . 1.2470(11) ?
O4' C4' . 1.4338(11) ?
O4' C1' . 1.4384(13) ?
O5' C5' . 1.4243(12) ?
N3 C4 . 1.3089(12) ?
N3 C2 . 1.3719(11) ?
N1 C6 . 1.3554(12) ?
N1 C2 . 1.3855(11) ?
C5 C6 . 1.3573(12) ?
C5 C4 . 1.4140(12) ?
C5 C1' . 1.4886(13) ?
C1' C2' . 1.5453(14) ?
C2' C3' . 1.5301(14) ?
C3' C4' . 1.5433(13) ?
C4' C5' . 1.5159(14) ?
loop_
_geom_hbond_atom_site_label_D
_geom_hbond_atom_site_label_H
_geom_hbond_atom_site_label_A
_geom_hbond_site_symmetry_A
_geom_hbond_distance_DH
_geom_hbond_distance_HA
_geom_hbond_distance_DA
_geom_hbond_angle_DHA
_geom_hbond_publ_flag
O3' H03' O7 1_555 .87(2) 1.73(2) 2.6000(10) 178(2) yes
O5' H05' O2 2_655 .92(2) 1.80(2) 2.7010(10) 167(2) yes
N1 H01 O5' 2_545 .85(2) 1.88(2) 2.7320(10) 178(2) yes
O7 H07A O8 2_756 .76(3) 1.97(3) 2.7360(10) 177(3) yes
O7 H07B O3' 2_656 .78(3) 2.08(3) 2.8550(10) 178(2) yes
O8 H08A O3' 1_555 .83(3) 1.98(3) 2.8070(10) 174(3) yes
O8 H08B O2 2_645 .83(2) 2.05(2) 2.8550(10) 164(2) yes
C2' H2' O2 2_645 1.00(2) 2.62(2) 3.5110(10) 149(2) yes
C3' H3' O2 2_655 .97(2) 2.63(2) 3.5510(10) 159(2) yes
C6 H6 O4 1_455 .89(2) 2.57(2) 3.3550(10) 148(2) yes
C6 H6 N3 1_455 .89(2) 2.53(2) 3.3620(10) 155(2) yes
loop_
_geom_torsion_atom_site_label_1
_geom_torsion_atom_site_label_2
_geom_torsion_atom_site_label_3
_geom_torsion_atom_site_label_4
_geom_torsion
C4' O4' C1' C5 -143.17(8)
C4' O4' C1' C2' -33.57(10)
C6 C5 C1' O4' -74.03(16)
C4 C5 C1' O4' 102.78(10)
C6 C5 C1' C2' 174.06(13)
C4 C5 C1' C2' -9.14(11)
C4 O4 C2' C3' -124.69(9)
C4 O4 C2' C1' -10.29(12)
O4' C1' C2' O4 -103.94(9)
C5 C1' C2' O4 11.57(11)
O4' C1' C2' C3' 14.45(10)
C5 C1' C2' C3' 129.95(8)
C2 N3 C4 O4 179.41(10)
C2 N3 C4 C5 -.82(19)
C2' O4 C4 N3 -175.65(11)
C2' O4 C4 C5 4.55(13)
C6 C5 C4 N3 1.09(19)
C1' C5 C4 N3 -176.41(12)
C6 C5 C4 O4 -179.13(10)
C1' C5 C4 O4 3.37(13)
O4 C2' C3' O3' -116.80(8)
C1' C2' C3' O3' 127.93(8)
O4 C2' C3' C4' 123.57(8)
C1' C2' C3' C4' 8.30(9)
C4 N3 C2 O2 -179.41(11)
C4 N3 C2 N1 .34(16)
C6 N1 C2 O2 179.55(11)
C6 N1 C2 N3 -.21(17)
C1' O4' C4' C5' 164.36(8)
C1' O4' C4' C3' 39.35(9)
O3' C3' C4' O4' -147.44(8)
C2' C3' C4' O4' -28.59(9)
O3' C3' C4' C5' 92.01(10)
C2' C3' C4' C5' -149.14(8)
O4' C4' C5' O5' -51.00(10)
C3' C4' C5' O5' 67.46(10)
C2 N1 C6 C5 .49(18)
C4 C5 C6 N1 -.84(16)
C1' C5 C6 N1 175.80(12)
loop_
_cod_related_entry_id
_cod_related_entry_database
_cod_related_entry_code
1 ChemSpider 21182393
