#------------------------------------------------------------------------------
#$Date: 2016-02-14 16:26:36 +0200 (Sun, 14 Feb 2016) $
#$Revision: 176435 $
#$URL: svn://www.crystallography.net/cod/cif/2/01/19/2011935.cif $
#------------------------------------------------------------------------------
#
# This file is available in the Crystallography Open Database (COD),
# http://www.crystallography.net/. The original data for this entry
# were provided by IUCr Journals, http://journals.iucr.org/.
#
# The file may be used within the scientific community so long as
# proper attribution is given to the journal article from which the
# data were obtained.
#
data_2011935
loop_
_publ_author_name
' Kashino, Setsuo '
' Taka, Jun-ichiro '
' Fukunaga, Takeo'
' Ishida, Hiroyuki'
_publ_section_title
;
 Potassium hydrogen <i>trans</i>-glutaconate monohydrate at 295, 245
 and 40K, and its rubidium analogue at 298K
;
_journal_issue                   5
_journal_name_full               'Acta Crystallographica Section C'
_journal_page_first              549
_journal_page_last               552
_journal_paper_doi               10.1107/S0108270101003237
_journal_volume                  57
_journal_year                    2001
_chemical_formula_iupac          'Rb(C5 H5 O4 ) , H2 O '
_chemical_formula_moiety         'Rb + C5 H5 O4 -, H2 O'
_chemical_formula_sum            'C5 H7 O5 Rb'
_chemical_formula_weight         232.58
_space_group_IT_number           2
_symmetry_cell_setting           triclinic
_symmetry_space_group_name_Hall  '-P 1'
_symmetry_space_group_name_H-M   'P -1'
_atom_type_scat_source           IntTabC
_cell_angle_alpha                101.50(3)
_cell_angle_beta                 104.41(3)
_cell_angle_gamma                97.29(3)
_cell_formula_units_Z            2
_cell_length_a                   10.015(5)
_cell_length_b                   9.988(4)
_cell_length_c                   4.2432(15)
_cell_measurement_reflns_used    25
_cell_measurement_temperature    298
_cell_measurement_theta_max      11.4
_cell_measurement_theta_min      10.9
_cell_volume                     395.8(3)
_computing_cell_refinement       'MSC/AFC Diffractometer Control Software'
_computing_data_collection
;MSC/AFC Diffractometer Control Software (Molecular Structure Corporation,
 1990)
;
_computing_data_reduction
'TEXSAN for Windows (Molecular Structure Corporation, 1997-1999)'
_computing_publication_material  'TEXSAN for Windows'
_computing_structure_refinement  'TEXSAN for Windows'
_computing_structure_solution    'DIRDIF92 PATTY (Beurskens, 1992)'
_diffrn_ambient_temperature      298
_diffrn_measurement_device       'Rigaku AFC5R'
_diffrn_measurement_method       \w-2\q
_diffrn_radiation_monochromator  graphite
_diffrn_radiation_source         'Rigaku rotating anode'
_diffrn_radiation_type           'Mo K\a'
_diffrn_radiation_wavelength     .71073
_diffrn_reflns_av_R_equivalents  .030
_diffrn_reflns_av_sigmaI/netI    .036
_diffrn_reflns_limit_h_max       12
_diffrn_reflns_limit_h_min       -5
_diffrn_reflns_limit_k_max       12
_diffrn_reflns_limit_k_min       -12
_diffrn_reflns_limit_l_max       5
_diffrn_reflns_limit_l_min       -5
_diffrn_reflns_number            1927
_diffrn_reflns_reduction_process 'Lp corrections applied'
_diffrn_reflns_theta_max         27.5
_diffrn_reflns_theta_min         2.12
_diffrn_standards_decay_%        none
_diffrn_standards_interval_count 97
_diffrn_standards_number         3
_exptl_absorpt_coefficient_mu    6.215
_exptl_absorpt_correction_T_max  .211
_exptl_absorpt_correction_T_min  .115
_exptl_absorpt_correction_type   '\y scans'
_exptl_absorpt_process_details   '(North et al., 1968)'
_exptl_crystal_colour            colorless
_exptl_crystal_density_diffrn    1.951
_exptl_crystal_density_meas      ?
_exptl_crystal_description       prismatic
_exptl_crystal_F_000             228
_exptl_crystal_size_max          .50
_exptl_crystal_size_mid          .30
_exptl_crystal_size_min          .25
_refine_diff_density_max         .62
_refine_diff_density_min         -.91
_refine_ls_extinction_method     none
_refine_ls_goodness_of_fit_all   1.567
_refine_ls_goodness_of_fit_ref   1.590
_refine_ls_hydrogen_treatment    mixed
_refine_ls_matrix_type           full
_refine_ls_number_constraints    4
_refine_ls_number_parameters     108
_refine_ls_number_reflns         1710
_refine_ls_number_restraints     0
_refine_ls_R_factor_all          .057
_refine_ls_R_factor_gt           .054
_refine_ls_shift/su_max          .03
_refine_ls_shift/su_mean         .002
_refine_ls_structure_factor_coef Fsqd
_refine_ls_weighting_details     'w = 1/[\s^2^(Fo) + 0.00002|Fo|^2^]'
_refine_ls_weighting_scheme      sigma
_refine_ls_wR_factor_all         .052
_refine_ls_wR_factor_ref         .052
_reflns_number_gt                1710
_reflns_number_total             1821
_reflns_threshold_expression     I>0.1\s(I)
_cod_data_source_file            bj1024.cif
_cod_data_source_block           II
_cod_depositor_comments
;
The following automatic conversions were performed:

'_exptl_crystal_density_meas' value 'not measured' was changed to '?'
- the value is perceived as not measured.

Automatic conversion script
Id: cif_fix_values 3008 2015-01-20 13:52:24Z robertas 
;
_cod_original_formula_sum        'C5 H7 O5 Rb '
_cod_database_code               2011935
loop_
_symmetry_equiv_pos_as_xyz
+x,+y,+z
-x,-y,-z
loop_
_atom_site_label
_atom_site_fract_x
_atom_site_fract_y
_atom_site_fract_z
_atom_site_U_iso_or_equiv
_atom_site_adp_type
_atom_site_calc_flag
_atom_site_calc_attached_atom
_atom_site_refinement_flags
_atom_site_occupancy
Rb1 .84409(3) .17393(3) .54479(8) .03743(9) Uani d ? . 1.0000
O1 .43422(18) .0880(2) .9104(5) .0456(7) Uani d ? . 1.0000
O2 .64277(18) .1956(2) .9215(5) .0461(7) Uani d ? . 1.0000
O3 .06299(18) .29397(19) .2205(5) .0372(6) Uani d ? . 1.0000
O4 .10164(17) .52079(17) .2397(5) .0391(6) Uani d ? . 1.0000
O5 .1621(2) .0377(3) .0478(6) .0465(8) Uani d ? . 1.0000
C1 .4529(3) .3028(3) .7541(7) .0364(9) Uani d ? . 1.0000
C2 .3233(3) .3207(3) .7201(7) .0314(8) Uani d ? . 1.0000
C3 .2676(3) .4426(3) .6214(7) .0355(9) Uani d ? . 1.0000
C4 .5152(3) .1880(3) .8671(7) .0332(9) Uani d ? . 1.0000
C5 .1334(3) .4113(3) .3399(7) .0280(8) Uani d ? . 1.0000
H1 .513 .371 .695 .044 Uiso c ? . 1.0000
H2 .258 .250 .758 .037 Uiso c ? . 1.0000
H3 .339 .497 .560 .043 Uiso c ? . 1.0000
H4 .252 .500 .817 .043 Uiso c ? . 1.0000
H7 .142(3) .102(3) .099(7) .010(8) Uiso d ? . 1.0000
H8 .272(4) .072(4) .073(9) .102(11) Uiso d ? . 1.0000
loop_
_atom_site_aniso_label
_atom_site_aniso_U_11
_atom_site_aniso_U_22
_atom_site_aniso_U_33
_atom_site_aniso_U_12
_atom_site_aniso_U_13
_atom_site_aniso_U_23
Rb1 .04161(18) .03534(17) .03623(17) .00800(12) .01146(13) .00950(12)
O1 .0275(11) .0380(13) .0809(16) .0123(9) .0156(11) .0318(12)
O2 .0274(12) .0521(14) .0647(15) .0140(10) .0127(11) .0234(12)
O3 .0359(12) .0242(12) .0481(13) .0071(9) .0028(10) .0114(10)
O4 .0441(12) .0236(11) .0478(13) .0129(9) .0009(10) .0156(10)
O5 .0437(15) .0315(15) .0663(17) .0124(12) .0203(12) .0066(13)
C1 .0287(17) .0358(18) .049(2) .0077(14) .0079(14) .0221(15)
C2 .0321(17) .0258(16) .0362(18) .0054(13) .0038(14) .0145(14)
C3 .0339(17) .0292(16) .0430(19) .0088(13) .0030(14) .0162(15)
C4 .0283(18) .0384(19) .0340(18) .0132(15) .0085(14) .0075(15)
C5 .0283(16) .0300(17) .0312(17) .0128(14) .0118(13) .0110(14)
loop_
_geom_angle_atom_site_label_1
_geom_angle_atom_site_label_2
_geom_angle_atom_site_label_3
_geom_angle_site_symmetry_1
_geom_angle_site_symmetry_3
_geom_angle
_geom_angle_publ_flag
O2 Rb1 O2 . 1_554 93.26(8) yes
O2 Rb1 O3 . 1_655 153.86(7) yes
O2 Rb1 O3 . 1_656 85.22(8) yes
O2 Rb1 O4 . 2_666 83.04(7) yes
O2 Rb1 O5 . 2_655 129.51(8) yes
O2 Rb1 O5 . 2_656 66.80(8) yes
O2 Rb1 O3 1_554 1_655 82.70(7) no
O2 Rb1 O3 1_554 1_656 153.72(7) no
O2 Rb1 O4 1_554 2_666 88.06(8) no
O2 Rb1 O5 1_554 2_655 66.43(8) no
O2 Rb1 O5 1_554 2_656 130.92(8) no
O3 Rb1 O3 1_655 1_656 87.20(7) no
O3 Rb1 O4 1_655 2_666 71.06(7) no
O3 Rb1 O5 1_655 2_655 72.31(8) no
O3 Rb1 O5 1_655 2_656 133.69(8) no
O3 Rb1 O4 1_656 2_666 65.70(7) no
O3 Rb1 O5 1_656 2_655 132.74(8) no
O3 Rb1 O5 1_656 2_656 72.25(8) no
O4 Rb1 O5 2_666 2_655 137.46(8) no
O4 Rb1 O5 2_666 2_656 129.68(8) no
O5 Rb1 O5 2_655 2_656 91.64(9) no
Rb1 O2 Rb1 . 1_556 93.26(8) yes
Rb1 O3 Rb1 1_454 1_455 87.20(7) yes
Rb1 O5 Rb1 2_655 2_656 91.64(9) yes
C2 C1 C4 . . 126.8(3) yes
C2 C1 H1 . . 116 no
C4 C1 H1 . . 117 no
C1 C2 C3 . . 124.6(3) yes
C1 C2 H2 . . 119 no
C3 C2 H2 . . 117 no
C2 C3 C5 . . 116.7(3) yes
C2 C3 H3 . . 108 no
C2 C3 H4 . . 108 no
C5 C3 H3 . . 109 no
C5 C3 H4 . . 108 no
O1 C4 O2 . . 123.6(3) yes
O1 C4 C1 . . 118.2(3) yes
O2 C4 C1 . . 118.2(3) yes
O3 C5 O4 . . 124.2(3) yes
O3 C5 C3 . . 122.8(3) yes
O4 C5 C3 . . 113.0(3) yes
H7 O5 H8 . . 101(3) no
loop_
_geom_bond_atom_site_label_1
_geom_bond_atom_site_label_2
_geom_bond_site_symmetry_1
_geom_bond_site_symmetry_2
_geom_bond_distance
_geom_bond_publ_flag
Rb1 O2 . . 2.871(3) yes
Rb1 O5 . 2_655 2.927(3) yes
Rb1 O4 . 2_666 2.941(3) yes
Rb1 O2 . 1_554 2.965(3) yes
Rb1 O5 . 2_656 2.990(3) yes
Rb1 O3 . 1_656 3.049(3) yes
Rb1 O3 . 1_655 3.103(3) yes
Rb1 O1 . 2_656 3.435(3) no
O1 C4 . . 1.277(4) yes
O2 C4 . . 1.230(4) yes
O3 C5 . . 1.226(4) yes
O4 C5 . . 1.297(4) yes
C1 C2 . . 1.308(4) yes
C1 C4 . . 1.479(5) yes
C2 C3 . . 1.493(4) yes
C3 C5 . . 1.509(4) yes
O5 H7 . . .71(3) no
O5 H8 . . 1.08(4) no
C1 H1 . . .96 no
C2 H2 . . .97 no
C3 H3 . . .96 no
C3 H4 . . .97 no
loop_
_geom_contact_atom_site_label_1
_geom_contact_atom_site_label_2
_geom_contact_distance
_geom_contact_site_symmetry_2
_geom_contact_publ_flag
O1 O1 2.455(5) 2_657 no
O1 O5 2.929(4) 1_556 no
O1 C4 3.147(5) 2_657 no
O1 H8 1.92(4) 1_556 no
O3 H7 2.18(3) . no
O3 O5 2.887(4) . no
O4 O4 2.417(4) 2_565 no
O4 C5 3.200(4) 2_565 no
O4 C5 3.346(4) 2_566 no
O5 C2 3.474(5) . no
loop_
_geom_hbond_atom_site_label_D
_geom_hbond_atom_site_label_H
_geom_hbond_atom_site_label_A
_geom_hbond_site_symmetry_A
_geom_hbond_distance_DH
_geom_hbond_distance_HA
_geom_hbond_distance_DA
_geom_hbond_angle_DHA
_geom_hbond_publ_flag
O5 H7 O3 . .71(3) 2.18(3) 2.886(4) 175(4) yes
O5 H8 O1 1_554 1.08(4) 1.92(4) 2.929(4) 154(3) yes
loop_
_geom_torsion_atom_site_label_1
_geom_torsion_atom_site_label_2
_geom_torsion_atom_site_label_3
_geom_torsion_atom_site_label_4
_geom_torsion
_geom_torsion_publ_flag
O1 C4 C1 C2 6.6(6) no
O2 C4 C1 C2 -171.8(4) no
O3 C5 C3 C2 8.3(5) no
O4 C5 C3 C2 -171.6(3) no
C1 C2 C3 C5 130.1(4) no
C3 C2 C1 C4 176.7(4) no
