#------------------------------------------------------------------------------
#$Date: 2016-02-20 00:18:51 +0200 (Sat, 20 Feb 2016) $
#$Revision: 176760 $
#$URL: svn://www.crystallography.net/cod/cif/2/01/19/2011933.cif $
#------------------------------------------------------------------------------
#
# This file is available in the Crystallography Open Database (COD),
# http://www.crystallography.net/. The original data for this entry
# were provided by IUCr Journals, http://journals.iucr.org/.
#
# The file may be used within the scientific community so long as
# proper attribution is given to the journal article from which the
# data were obtained.
#
data_2011933
loop_
_publ_author_name
' Kashino, Setsuo '
' Taka, Jun-ichiro '
' Fukunaga, Takeo'
' Ishida, Hiroyuki'
_publ_section_title
;
 Potassium hydrogen <i>trans</i>-glutaconate monohydrate at 295, 245
 and 40K, and its rubidium analogue at 298K
;
_journal_issue                   5
_journal_name_full               'Acta Crystallographica Section C'
_journal_page_first              549
_journal_page_last               552
_journal_paper_doi               10.1107/S0108270101003237
_journal_volume                  57
_journal_year                    2001
_chemical_formula_iupac          'K(C5 H5 O4 ) , H2 O '
_chemical_formula_moiety         'K + C5 H5 O4 -, H2 O'
_chemical_formula_sum            'C5 H7 K O5'
_chemical_formula_weight         186.21
_space_group_IT_number           2
_symmetry_cell_setting           triclinic
_symmetry_space_group_name_Hall  '-P 1'
_symmetry_space_group_name_H-M   'P -1'
_atom_type_scat_source           IntTabC
_cell_angle_alpha                103.22(2)
_cell_angle_beta                 103.08(2)
_cell_angle_gamma                98.44(2)
_cell_formula_units_Z            2
_cell_length_a                   9.944(2)
_cell_length_b                   9.885(2)
_cell_length_c                   4.0314(8)
_cell_measurement_reflns_used    24
_cell_measurement_temperature    245
_cell_measurement_theta_max      11.5
_cell_measurement_theta_min      10.5
_cell_volume                     367.43(14)
_computing_cell_refinement       'MSC/AFC Diffractometer Control Software'
_computing_data_collection
;MSC/AFC Diffractometer Control Software (Molecular Structure Corporation,
 1990)
;
_computing_data_reduction
'TEXSAN (Molecular Structure Corporation, 1997-1999)'
_computing_publication_material  TEXSAN
_computing_structure_refinement  TEXSAN
_computing_structure_solution    'SIR92 (Altomare et al., 1994)'
_diffrn_ambient_temperature      245
_diffrn_measurement_device       'Huber offcenter four circle'
_diffrn_measurement_method       \w-2\q
_diffrn_radiation_monochromator  graphite
_diffrn_radiation_source         'Rigaku rotating anode'
_diffrn_radiation_type           'Mo K\a'
_diffrn_radiation_wavelength     .71073
_diffrn_reflns_av_R_equivalents  .041
_diffrn_reflns_limit_h_max       16
_diffrn_reflns_limit_h_min       -16
_diffrn_reflns_limit_k_max       15
_diffrn_reflns_limit_k_min       -15
_diffrn_reflns_limit_l_max       6
_diffrn_reflns_limit_l_min       0
_diffrn_reflns_number            3039
_diffrn_reflns_reduction_process 'Lp corrections applied'
_diffrn_reflns_theta_max         33.0
_diffrn_reflns_theta_min         2.0
_diffrn_standards_decay_%        none
_diffrn_standards_interval_count 97
_diffrn_standards_number         3
_exptl_absorpt_coefficient_mu    .694
_exptl_absorpt_correction_type   none
_exptl_crystal_colour            colorless
_exptl_crystal_density_diffrn    1.683
_exptl_crystal_density_meas      ?
_exptl_crystal_description       prismatic
_exptl_crystal_F_000             192
_exptl_crystal_size_max          .49
_exptl_crystal_size_mid          .18
_exptl_crystal_size_min          .13
_refine_diff_density_max         .95
_refine_diff_density_min         -.90
_refine_ls_extinction_method     none
_refine_ls_goodness_of_fit_ref   2.14
_refine_ls_hydrogen_treatment    refall
_refine_ls_matrix_type           full
_refine_ls_number_constraints    0
_refine_ls_number_parameters     132
_refine_ls_number_reflns         2455
_refine_ls_number_restraints     0
_refine_ls_R_factor_gt           .094
_refine_ls_shift/su_max          .03
_refine_ls_structure_factor_coef Fsqd
_refine_ls_weighting_details     'w = 1/[\s^2^(Fo)]'
_refine_ls_weighting_scheme      sigma
_refine_ls_wR_factor_ref         .107
_reflns_number_gt                2455
_reflns_number_total             2709
_reflns_threshold_expression     I>0.1\s(I)
_cod_data_source_file            bj1024.cif
_cod_data_source_block           I245K
_cod_depositor_comments
;
The following automatic conversions were performed:

'_exptl_crystal_density_meas' value 'not measured' was changed to '?'
- the value is perceived as not measured.

Automatic conversion script
Id: cif_fix_values 3008 2015-01-20 13:52:24Z robertas 
;
_cod_original_cell_volume        367.4(3)
_cod_database_code               2011933
loop_
_symmetry_equiv_pos_as_xyz
+x,+y,+z
-x,-y,-z
loop_
_atom_site_label
_atom_site_fract_x
_atom_site_fract_y
_atom_site_fract_z
_atom_site_U_iso_or_equiv
_atom_site_adp_type
_atom_site_calc_flag
_atom_site_calc_attached_atom
_atom_site_refinement_flags
_atom_site_occupancy
K1 .83871(6) .18053(6) .53780(16) .0250(3) Uani d ? . 1.0
O1 .4327(2) .0863(2) .9065(6) .0300(9) Uani d ? . 1.0
O2 .64555(18) .1988(2) .9215(5) .0288(8) Uani d ? . 1.0
O3 .05710(8) .28852(18) .2069(5) .0250(8) Uani d ? . 1.0
O4 .1041(2) .5212(2) .2489(5) .0256(8) Uani d ? . 1.0
O5 .1587(2) .0233(2) .0649(6) .0281(8) Uani d ? . 1.0
C1 .4527(3) .3020(3) .7436(7) .0228(10) Uani d ? . 1.0
C2 .3221(3) .3174(3) .7174(7) .0195(9) Uani d ? . 1.0
C3 .2695(3) .4409(3) .6218(7) .0219(10) Uani d ? . 1.0
C4 .5165(3) .1889(3) .8648(7) .0207(9) Uani d ? . 1.0
C5 .1323(3) .4089(3) .3367(6) .0189(9) Uani d ? . 1.0
H1 .520(3) .375(3) .710(8) .028(8) Uiso d ? . 1.0
H2 .262(3) .256(3) .772(8) .034(9) Uiso d ? . 1.0
H3 .345(3) .503(3) .568(7) .029(8) Uiso d ? . 1.0
H4 .260(3) .512(3) .815(9) .044(9) Uiso d ? . 1.0
H5 .474(5) .025(5) .939(13) .003(12) Uiso d ? S .5
H6 .035(8) .507(9) .106(19) .05(2) Uiso d ? S .5
H7 .132(3) .091(3) .104(8) .022(8) Uiso d ? . 1.0
H8 .255(4) .061(3) .093(9) .050(10) Uiso d ? . 1.0
loop_
_atom_site_aniso_label
_atom_site_aniso_U_11
_atom_site_aniso_U_22
_atom_site_aniso_U_33
_atom_site_aniso_U_12
_atom_site_aniso_U_13
_atom_site_aniso_U_23
K1 .0261(3) .0279(3) .0228(3) .0094(2) .0064(2) .0085(2)
O1 .0190(10) .0273(10) .0521(13) .0121(8) .0099(9) .0223(10)
O2 .0170(9) .0359(11) .0387(12) .0113(8) .0077(8) .0167(9)
O3 .0232(9) .0205(9) .0306(10) .0074(8) .0020(8) .0089(8)
O4 .0260(11) .0199(9) .0312(11) .0087(8) .0000(9) .0126(8)
O5 .0226(11) .0227(10) .0394(12) .0087(9) .0089(9) .0062(9)
C1 .0181(12) .0232(13) .0297(14) .0049(10) .0059(10) .0122(11)
C2 .0200(12) .0196(12) .0205(12) .0061(10) .0047(10) .0085(10)
C3 .0218(13) .0190(12) .0268(13) .0059(10) .0043(10) .0109(11)
C4 .0158(11) .0266(13) .0213(12) .0078(10) .0049(9) .0077(10)
C5 .0190(12) .0207(12) .0228(12) .0107(10) .0093(10) .0096(10)
loop_
_geom_angle_atom_site_label_1
_geom_angle_atom_site_label_2
_geom_angle_atom_site_label_3
_geom_angle_site_symmetry_1
_geom_angle_site_symmetry_3
_geom_angle
_geom_angle_publ_flag
O2 K1 O2 . 1_554 92.88(6) yes
O2 K1 O3 . 1_655 156.41(6) yes
O2 K1 O3 . 1_656 87.40(6) yes
O2 K1 O4 . 2_666 84.89(6) yes
O2 K1 O5 . 2_655 131.07(6) yes
O2 K1 O5 . 2_656 68.61(6) yes
O2 K1 O3 1_554 1_655 84.02(5) no
O2 K1 O3 1_554 1_656 156.05(6) no
O2 K1 O4 1_554 2_666 86.74(6) no
O2 K1 O5 1_554 2_655 67.93(6) no
O2 K1 O5 1_554 2_656 132.60(6) no
O3 K1 O3 1_655 1_656 86.21(5) no
O3 K1 O4 1_655 2_666 71.60(6) no
O3 K1 O5 1_655 2_655 69.13(6) no
O3 K1 O5 1_655 2_656 129.27(6) no
O3 K1 O4 1_656 2_666 69.42(6) no
O3 K1 O5 1_656 2_655 127.99(6) no
O3 K1 O5 1_656 2_656 69.42(6) no
O4 K1 O5 2_666 2_655 134.81(6) no
O4 K1 O5 2_666 2_656 131.42(6) no
O5 K1 O5 2_655 2_656 91.41(6) no
K1 O2 K1 . 1_556 92.88(6) yes
K1 O3 K1 1_454 1_455 86.21(5) yes
K1 O5 K1 2_655 2_656 91.41(6) yes
C4 O1 H5 . . 110(4) no
C2 C1 C4 . . 126.4(2) yes
C2 C1 H1 . . 120(2) no
C4 C1 H1 . . 114(2) no
C1 C2 C3 . . 123.0(2) yes
C1 C2 H2 . . 120(2) no
C3 C2 H2 . . 117(2) no
C2 C3 C5 . . 117.2(2) yes
C2 C3 H3 . . 110(2) no
C2 C3 H4 . . 115(2) no
C5 C3 H3 . . 111(2) no
C5 C3 H4 . . 106(2) no
H3 C3 H4 . . 96(2) no
C5 O4 H6 . . 113(7) no
O1 C4 O2 . . 123.9(2) yes
O1 C4 C1 . . 117.1(2) yes
O2 C4 C1 . . 119.0(2) yes
O3 C5 O4 . . 124.8(2) yes
O3 C5 C3 . . 123.1(2) yes
O4 C5 C3 . . 112.1(2) yes
H7 O5 H8 . . 100(3) no
loop_
_geom_bond_atom_site_label_1
_geom_bond_atom_site_label_2
_geom_bond_site_symmetry_1
_geom_bond_site_symmetry_2
_geom_bond_distance
_geom_bond_publ_flag
K1 O2 . . 2.726(2) yes
K1 O5 . 2_655 2.787(2) yes
K1 O4 . 2_666 2.808(2) yes
K1 O2 . 1_554 2.836(2) yes
K1 O5 . 2_656 2.845(2) yes
K1 O3 . 1_656 2.913(2) yes
K1 O3 . 1_655 2.986(2) yes
K1 O1 . 2_656 3.319(2) no
O1 C4 . . 1.282(3) yes
O1 H5 . . .80(4) no
O2 C4 . . 1.236(3) yes
O3 C5 . . 1.236(3) yes
O4 C5 . . 1.289(3) yes
O4 H6 . . .76(7) no
O5 H7 . . .75(3) no
O5 H8 . . .94(3) no
C1 C2 . . 1.313(3) yes
C1 C4 . . 1.486(3) yes
C1 H1 . . .96(3) no
C2 C3 . . 1.491(3) yes
C2 H2 . . .88(3) no
C3 C5 . . 1.510(4) yes
C3 H3 . . .99(3) no
C3 H4 . . .95(3) no
loop_
_geom_contact_atom_site_label_1
_geom_contact_atom_site_label_2
_geom_contact_distance
_geom_contact_site_symmetry_2
_geom_contact_publ_flag
O1 H8 2.08(3) 1_556 no
O1 O1 2.465(4) 2_657 no
O1 O5 2.948(3) 1_556 no
O1 C4 3.139(3) 2_657 no
O1 H5 1.68(4) 2_657 no
O3 H7 2.18(3) . no
O3 O5 2.929(3) . no
O4 H6 1.69(6) 2_565 no
O4 O4 2.443(4) 2_565 no
O4 C5 3.207(3) 2_565 no
O4 C5 3.244(3) 2_566 no
O5 C2 3.346(3) . no
C4 H5 2.43(4) 2_657 no
C5 H6 2.53(7) 2_565 no
loop_
_geom_hbond_atom_site_label_D
_geom_hbond_atom_site_label_H
_geom_hbond_atom_site_label_A
_geom_hbond_site_symmetry_A
_geom_hbond_distance_DH
_geom_hbond_distance_HA
_geom_hbond_distance_DA
_geom_hbond_angle_DHA
_geom_hbond_publ_flag
O5 H7 O3 . .75(3) 2.18(3) 2.929(3) 178(3) yes
O5 H8 O1 1_554 .94(3) 2.08(3) 2.948(3) 153(3) yes
O1 H5 O1 2_657 .80(4) 1.68(4) 2.465(4) 169(5) yes
O4 H6 O4 2_565 .76(7) 1.69(6) 2.443(4) 172(9) yes
loop_
_geom_torsion_atom_site_label_1
_geom_torsion_atom_site_label_2
_geom_torsion_atom_site_label_3
_geom_torsion_atom_site_label_4
_geom_torsion
_geom_torsion_publ_flag
O1 C4 C1 C2 9.3(4) no
O2 C4 C1 C2 -170.3(3) no
O3 C5 C3 C2 7.0(4) no
O4 C5 C3 C2 -173.3(2) no
C1 C2 C3 C5 131.7(3) no
C3 C2 C1 C4 174.8(2) no
