#------------------------------------------------------------------------------
#$Date: 2017-10-13 03:48:21 +0300 (Fri, 13 Oct 2017) $
#$Revision: 201957 $
#$URL: file:///home/coder/svn-repositories/cod/cif/2/01/26/2012655.cif $
#------------------------------------------------------------------------------
#
# This file is available in the Crystallography Open Database (COD),
# http://www.crystallography.net/. The original data for this entry
# were provided by IUCr Journals, http://journals.iucr.org/.
#
# The file may be used within the scientific community so long as
# proper attribution is given to the journal article from which the
# data were obtained.
#
data_2012655
loop_
_publ_author_name
'Glidewell, Christopher'
'Low, John N.'
'Skakle, Janet M. S.'
'Wardell, James L.'
_publ_section_title
;
 Hydrogen-bonded molecular ladders in
 <i>S</i>-(4-nitrophenyl)thioglycolic acid
;
_journal_issue                   4
_journal_name_full               'Acta Crystallographica Section C'
_journal_page_first              o201
_journal_page_last               o203
_journal_paper_doi               10.1107/S0108270102001786
_journal_volume                  58
_journal_year                    2002
_chemical_formula_moiety         'C8 H7 N O4 S'
_chemical_formula_sum            'C8 H7 N O4 S'
_chemical_formula_weight         213.21
_chemical_name_common            'S-(4-Nitrophenyl)thioglycolic acid'
_chemical_name_systematic
;
[(4-nitrophenyl)sulfanyl]acetic acid
;
_space_group_IT_number           2
_symmetry_cell_setting           triclinic
_symmetry_space_group_name_Hall  '-P 1'
_symmetry_space_group_name_H-M   'P -1'
_atom_sites_solution_hydrogens   geom
_atom_sites_solution_primary     direct
_atom_sites_solution_secondary   difmap
_cell_angle_alpha                73.8820(16)
_cell_angle_beta                 85.7214(13)
_cell_angle_gamma                80.9841(15)
_cell_formula_units_Z            2
_cell_length_a                   7.1540(3)
_cell_length_b                   7.8750(2)
_cell_length_c                   8.0352(3)
_cell_measurement_reflns_used    1902
_cell_measurement_temperature    150(2)
_cell_measurement_theta_max      27.5
_cell_measurement_theta_min      3.2
_cell_volume                     429.29(3)
_computing_cell_refinement       'DENZO-SMN (Otwinowski & Minor, 1997)'
_computing_data_collection       'KappaCCD Server Software (Nonius, 1997)'
_computing_data_reduction        DENZO-SMN
_computing_molecular_graphics    'PLATON (Spek, 2002)'
_computing_publication_material  'SHELXL97 and PRPKAPPA (Ferguson, 1999)'
_computing_structure_refinement  'SHELXL97 (Sheldrick, 1997)'
_computing_structure_solution    'SHELXS97 (Sheldrick, 1997)'
_diffrn_ambient_temperature      150(2)
_diffrn_measured_fraction_theta_full 0.957
_diffrn_measured_fraction_theta_max 0.957
_diffrn_measurement_device_type  'Nonius KappaCCD area-detector'
_diffrn_measurement_method       '\f scans, and \w scans with \k offsets'
_diffrn_radiation_monochromator  graphite
_diffrn_radiation_source         'fine-focus sealed X-ray tube'
_diffrn_radiation_type           'Mo K\a'
_diffrn_radiation_wavelength     0.71073
_diffrn_reflns_av_R_equivalents  0.039
_diffrn_reflns_av_sigmaI/netI    0.039
_diffrn_reflns_limit_h_max       9
_diffrn_reflns_limit_h_min       -9
_diffrn_reflns_limit_k_max       9
_diffrn_reflns_limit_k_min       -10
_diffrn_reflns_limit_l_max       10
_diffrn_reflns_limit_l_min       -10
_diffrn_reflns_number            5562
_diffrn_reflns_theta_full        27.52
_diffrn_reflns_theta_max         27.52
_diffrn_reflns_theta_min         3.24
_diffrn_standards_decay_%        negligible
_exptl_absorpt_coefficient_mu    0.362
_exptl_absorpt_correction_T_max  0.965
_exptl_absorpt_correction_T_min  0.869
_exptl_absorpt_correction_type   multi-scan
_exptl_absorpt_process_details   '(DENZO-SMN; Otwinowski & Minor, 1997)'
_exptl_crystal_colour            yellow
_exptl_crystal_density_diffrn    1.649
_exptl_crystal_density_meas      ?
_exptl_crystal_density_method    'not measured'
_exptl_crystal_description       block
_exptl_crystal_F_000             220
_exptl_crystal_size_max          0.4
_exptl_crystal_size_mid          0.2
_exptl_crystal_size_min          0.1
_refine_diff_density_max         0.39
_refine_diff_density_min         -0.28
_refine_ls_extinction_method     none
_refine_ls_goodness_of_fit_ref   1.076
_refine_ls_hydrogen_treatment    constr
_refine_ls_matrix_type           full
_refine_ls_number_parameters     128
_refine_ls_number_reflns         1902
_refine_ls_number_restraints     0
_refine_ls_restrained_S_all      1.076
_refine_ls_R_factor_all          0.038
_refine_ls_R_factor_gt           0.032
_refine_ls_shift/su_max          <0.001
_refine_ls_shift/su_mean         0.000
_refine_ls_structure_factor_coef Fsqd
_refine_ls_weighting_details
'w = 1/[\s^2^(Fo^2^)+(0.0409P)^2^+0.1827P] where P=(Fo^2^+2Fc^2^)/3'
_refine_ls_weighting_scheme      calc
_refine_ls_wR_factor_gt          0.086
_refine_ls_wR_factor_ref         0.089
_reflns_number_gt                1701
_reflns_number_total             1902
_reflns_threshold_expression     I>2\s(I)
_cod_data_source_file            sk1535.cif
_cod_data_source_block           I
_cod_depositor_comments
;
The following automatic conversions were performed:

'_exptl_crystal_density_meas' value 'not measured' was changed to '?'
- the value is perceived as not measured.

Automatic conversion script
Id: cif_fix_values 3008 2015-01-20 13:52:24Z robertas 
;
_cod_original_sg_symbol_H-M      P-1
_cod_database_code               2012655
_cod_database_fobs_code          2012655
loop_
_symmetry_equiv_pos_as_xyz
'x, y, z'
'-x, -y, -z'
loop_
_atom_site_label
_atom_site_fract_x
_atom_site_fract_y
_atom_site_fract_z
_atom_site_U_iso_or_equiv
_atom_site_adp_type
_atom_site_calc_flag
_atom_site_refinement_flags
_atom_site_occupancy
_atom_site_disorder_assembly
_atom_site_disorder_group
_atom_site_type_symbol
N1 0.13044(18) 1.73074(17) -0.28790(16) 0.0179(3) Uani d . 1 . . N
O1 0.03559(18) 1.76769(16) -0.41747(15) 0.0299(3) Uani d . 1 . . O
O2 0.19580(17) 1.84244(15) -0.23817(15) 0.0262(3) Uani d . 1 . . O
C1 0.16934(19) 1.54351(19) -0.18877(18) 0.0142(3) Uani d . 1 . . C
C2 0.1146(2) 1.4153(2) -0.25550(18) 0.0170(3) Uani d . 1 . . C
C3 0.15042(19) 1.23875(19) -0.16335(18) 0.0154(3) Uani d . 1 . . C
C4 0.23779(19) 1.19053(19) -0.00328(18) 0.0138(3) Uani d . 1 . . C
C5 0.2920(2) 1.3224(2) 0.06133(18) 0.0156(3) Uani d . 1 . . C
C6 0.25774(19) 1.5002(2) -0.03215(18) 0.0155(3) Uani d . 1 . . C
S1 0.26817(5) 0.96108(5) 0.09835(4) 0.01653(13) Uani d . 1 . . S
C7 0.3844(2) 0.9426(2) 0.29483(19) 0.0168(3) Uani d . 1 . . C
C8 0.4329(2) 0.7472(2) 0.38365(18) 0.0161(3) Uani d . 1 . . C
O3 0.38774(15) 0.62904(14) 0.33039(14) 0.0206(3) Uani d . 1 . . O
O4 0.52844(16) 0.71778(14) 0.52481(13) 0.0210(3) Uani d . 1 . . O
H2 0.0533 1.4487 -0.3630 0.020 Uiso calc R 1 . . H
H3 0.1158 1.1490 -0.2085 0.018 Uiso calc R 1 . . H
H5 0.3522 1.2901 0.1693 0.019 Uiso calc R 1 . . H
H6 0.2944 1.5907 0.0106 0.019 Uiso calc R 1 . . H
H7A 0.5009 0.9997 0.2678 0.020 Uiso calc R 1 . . H
H7B 0.2996 1.0026 0.3708 0.020 Uiso calc R 1 . . H
H4 0.5523 0.6073 0.5702 0.031 Uiso calc R 1 . . H
loop_
_atom_site_aniso_label
_atom_site_aniso_U_11
_atom_site_aniso_U_22
_atom_site_aniso_U_33
_atom_site_aniso_U_12
_atom_site_aniso_U_13
_atom_site_aniso_U_23
N1 0.0212(6) 0.0130(6) 0.0174(6) -0.0001(5) 0.0022(5) -0.0026(5)
O1 0.0417(7) 0.0181(6) 0.0260(6) 0.0001(5) -0.0149(5) 0.0016(5)
O2 0.0394(7) 0.0116(6) 0.0289(6) -0.0050(5) -0.0032(5) -0.0065(5)
C1 0.0146(7) 0.0100(7) 0.0161(7) 0.0004(5) 0.0006(5) -0.0018(5)
C2 0.0180(7) 0.0176(8) 0.0157(7) -0.0019(6) -0.0042(5) -0.0041(6)
C3 0.0164(7) 0.0125(7) 0.0188(7) -0.0024(5) -0.0033(5) -0.0056(6)
C4 0.0115(6) 0.0114(7) 0.0166(7) -0.0011(5) 0.0007(5) -0.0012(5)
C5 0.0165(7) 0.0157(8) 0.0152(7) -0.0012(5) -0.0033(5) -0.0050(6)
C6 0.0148(7) 0.0141(7) 0.0184(7) -0.0026(5) 0.0004(5) -0.0058(6)
S1 0.0205(2) 0.0100(2) 0.0182(2) -0.00275(14) -0.00484(14) -0.00086(14)
C7 0.0211(7) 0.0121(7) 0.0161(7) -0.0009(5) -0.0032(5) -0.0022(5)
C8 0.0174(7) 0.0149(8) 0.0144(7) 0.0000(6) 0.0015(5) -0.0030(6)
O3 0.0277(6) 0.0121(6) 0.0212(6) -0.0020(4) -0.0071(4) -0.0023(4)
O4 0.0329(6) 0.0124(6) 0.0162(5) 0.0009(4) -0.0079(4) -0.0020(4)
loop_
_atom_type_symbol
_atom_type_description
_atom_type_scat_dispersion_real
_atom_type_scat_dispersion_imag
_atom_type_scat_source
C C 0.0033 0.0016 'International Tables Vol C Tables 4.2.6.8 and 6.1.1.4'
H H 0.0000 0.0000 'International Tables Vol C Tables 4.2.6.8 and 6.1.1.4'
N N 0.0061 0.0033 'International Tables Vol C Tables 4.2.6.8 and 6.1.1.4'
O O 0.0106 0.0060 'International Tables Vol C Tables 4.2.6.8 and 6.1.1.4'
S S 0.1246 0.1234 'International Tables Vol C Tables 4.2.6.8 and 6.1.1.4'
loop_
_geom_angle_atom_site_label_1
_geom_angle_atom_site_label_2
_geom_angle_atom_site_label_3
_geom_angle
_geom_angle_publ_flag
C6 C1 C2 122.23(13) no
C6 C1 N1 119.43(13) no
C2 C1 N1 118.33(13) no
C3 C2 C1 118.84(13) no
C3 C2 H2 120.6 no
C1 C2 H2 120.6 no
C2 C3 C4 120.35(13) no
C2 C3 H3 119.8 no
C4 C3 H3 119.8 no
C5 C4 C3 119.75(13) no
S1 C4 C3 114.32(11) y
S1 C4 C5 125.93(11) y
C6 C5 C4 119.99(13) no
C6 C5 H5 120.0 no
C4 C5 H5 120.0 no
C1 C6 C5 118.83(13) no
C1 C6 H6 120.6 no
C5 C6 H6 120.6 no
C4 S1 C7 103.67(7) y
C8 C7 S1 107.51(10) no
C8 C7 H7A 110.2 no
S1 C7 H7A 110.2 no
C8 C7 H7B 110.2 no
S1 C7 H7B 110.2 no
H7A C7 H7B 108.5 no
O3 C8 O4 123.84(13) y
O3 C8 C7 123.49(13) no
O4 C8 C7 112.66(12) no
C8 O4 H4 109.5 no
O1 N1 O2 123.40(13) y
O2 N1 C1 118.34(12) no
O1 N1 C1 118.26(12) no
loop_
_geom_bond_atom_site_label_1
_geom_bond_atom_site_label_2
_geom_bond_site_symmetry_2
_geom_bond_distance
_geom_bond_publ_flag
N1 O2 . 1.2264(17) no
N1 O1 . 1.2265(17) no
N1 C1 . 1.4623(18) no
C1 C6 . 1.383(2) no
C1 C2 . 1.384(2) no
C2 C3 . 1.376(2) no
C2 H2 . 0.9500 no
C3 C4 . 1.4013(19) no
C3 H3 . 0.9500 no
C4 C5 . 1.397(2) no
S1 C4 . 1.7502(14) y
C5 C6 . 1.386(2) no
C5 H5 . 0.9500 no
C6 H6 . 0.9500 no
S1 C7 . 1.7987(15) y
C7 C8 . 1.502(2) no
C7 H7A . 0.9900 no
C7 H7B . 0.9900 no
C8 O3 . 1.2203(18) y
C8 O4 . 1.3144(17) y
O4 H4 . 0.8400 no
loop_
_geom_hbond_atom_site_label_D
_geom_hbond_atom_site_label_H
_geom_hbond_atom_site_label_A
_geom_hbond_site_symmetry_A
_geom_hbond_distance_DH
_geom_hbond_distance_HA
_geom_hbond_distance_DA
_geom_hbond_angle_DHA
_geom_hbond_publ_flag
O4 H4 O3 2_666 0.84 1.81 2.6456(15) 178 y
C3 H3 O2 1_545 0.95 2.47 3.3018(19) 147 y
loop_
_geom_torsion_atom_site_label_1
_geom_torsion_atom_site_label_2
_geom_torsion_atom_site_label_3
_geom_torsion_atom_site_label_4
_geom_torsion
_geom_torsion_publ_flag
O1 N1 C1 C2 6.7(2) y
O1 N1 C1 C6 -172.92(13) no
O2 N1 C1 C2 -172.65(13) no
O2 N1 C1 C6 7.8(2) y
C3 C4 S1 C7 179.23(11) y
C4 S1 C7 C8 -174.84(10) y
S1 C7 C8 O3 -3.79(18) y
S1 C7 C8 O4 176.42(10) y
loop_
_cod_related_entry_id
_cod_related_entry_database
_cod_related_entry_code
1 ChemSpider 53712
