#------------------------------------------------------------------------------
#$Date: 2017-10-13 03:48:21 +0300 (Fri, 13 Oct 2017) $
#$Revision: 201957 $
#$URL: file:///home/coder/svn-repositories/cod/cif/2/01/28/2012862.cif $
#------------------------------------------------------------------------------
#
# This file is available in the Crystallography Open Database (COD),
# http://www.crystallography.net/. The original data for this entry
# were provided by IUCr Journals, http://journals.iucr.org/.
#
# The file may be used within the scientific community so long as
# proper attribution is given to the journal article from which the
# data were obtained.
#
data_2012862
loop_
_publ_author_name
'Boitsov, Stepan'
'Songstad, Jon'
'T\"ornroos, Karl W.'
_publ_section_title
;
 (<i>n</i>-Nitrophenyl)acetonitrile, with <i>n</i> = 2, 3 and 4
;
_journal_issue                   8
_journal_name_full               'Acta Crystallographica Section C'
_journal_page_first              o528
_journal_page_last               o532
_journal_paper_doi               10.1107/S0108270102011514
_journal_volume                  58
_journal_year                    2002
_chemical_formula_moiety         'C8 H6 N2 O2'
_chemical_formula_sum            'C8 H6 N2 O2'
_chemical_formula_weight         162.15
_chemical_melting_point          .335E-305
_chemical_name_common            3-nitrophenylacetonitrile
_chemical_name_systematic
;
(3-nitrophenyl)acetonitrile
;
_space_group_IT_number           14
_symmetry_cell_setting           monoclinic
_symmetry_space_group_name_Hall  '-P 2yn'
_symmetry_space_group_name_H-M   'P 1 21/n 1'
_atom_sites_solution_hydrogens   geom
_atom_sites_solution_primary     direct
_atom_sites_solution_secondary   difmap
_audit_creation_method           SHELXL97
_cell_angle_alpha                90
_cell_angle_beta                 100.369(2)
_cell_angle_gamma                90
_cell_formula_units_Z            4
_cell_length_a                   5.3641(4)
_cell_length_b                   11.5157(9)
_cell_length_c                   12.1981(10)
_cell_measurement_reflns_used    6347
_cell_measurement_temperature    123(2)
_cell_measurement_theta_max      31.55
_cell_measurement_theta_min      2.45
_cell_volume                     741.19(10)
_computing_cell_refinement       'SAINT (Bruker, 2001)'
_computing_data_collection       'SMART (Bruker, 1999)'
_computing_data_reduction        SAINT
_computing_molecular_graphics    'SHELXTL/PC (Sheldrick, 2001a)'
_computing_publication_material  'SHELXTL/PC and PLATON (Spek, 2001)'
_computing_structure_refinement  'SHELXL97 (Sheldrick, 2001b)'
_computing_structure_solution    'SHELXS97 (Sheldrick, 1990)'
_diffrn_ambient_temperature      123(2)
_diffrn_measured_fraction_theta_full 0.998
_diffrn_measured_fraction_theta_max 0.998
_diffrn_measurement_device_type  'Bruker SMART 2K CCD area-detector'
_diffrn_measurement_method       \w
_diffrn_radiation_monochromator  graphite
_diffrn_radiation_source         'normal-focus sealed tube'
_diffrn_radiation_type           MoK\a
_diffrn_radiation_wavelength     0.71073
_diffrn_reflns_av_R_equivalents  0.022
_diffrn_reflns_av_sigmaI/netI    0.019
_diffrn_reflns_limit_h_max       7
_diffrn_reflns_limit_h_min       -7
_diffrn_reflns_limit_k_max       16
_diffrn_reflns_limit_k_min       -16
_diffrn_reflns_limit_l_max       17
_diffrn_reflns_limit_l_min       -17
_diffrn_reflns_number            12917
_diffrn_reflns_theta_full        31.55
_diffrn_reflns_theta_max         31.55
_diffrn_reflns_theta_min         2.45
_diffrn_standards_decay_%        0
_diffrn_standards_interval_time  0
_diffrn_standards_number         155
_exptl_absorpt_coefficient_mu    0.108
_exptl_absorpt_correction_T_max  0.992
_exptl_absorpt_correction_T_min  0.958
_exptl_absorpt_correction_type   numerical
_exptl_absorpt_process_details   '(SHELXTL/PC; Sheldrick, 2001a)'
_exptl_crystal_colour            colourless
_exptl_crystal_density_diffrn    1.453
_exptl_crystal_density_meas      ?
_exptl_crystal_density_method    'not measured'
_exptl_crystal_description       'irregular prism'
_exptl_crystal_F_000             336
_exptl_crystal_size_max          0.50
_exptl_crystal_size_mid          0.30
_exptl_crystal_size_min          0.08
_refine_diff_density_max         0.41
_refine_diff_density_min         -0.21
_refine_ls_extinction_method     none
_refine_ls_goodness_of_fit_ref   1.094
_refine_ls_hydrogen_treatment    constr
_refine_ls_matrix_type           full
_refine_ls_number_parameters     109
_refine_ls_number_reflns         2463
_refine_ls_number_restraints     0
_refine_ls_restrained_S_all      1.094
_refine_ls_R_factor_all          0.047
_refine_ls_R_factor_gt           0.039
_refine_ls_shift/su_max          <0.001
_refine_ls_shift/su_mean         0.000
_refine_ls_structure_factor_coef Fsqd
_refine_ls_weighting_details
'calc w = 1/[\s^2^(Fo^2^)+(0.0699P)^2^+0.0827P] where P=(Fo^2^+2Fc^2^)/3'
_refine_ls_weighting_scheme      calc
_refine_ls_wR_factor_gt          0.115
_refine_ls_wR_factor_ref         0.118
_reflns_number_gt                2005
_reflns_number_total             2463
_reflns_threshold_expression     I>2\s(I)
_cod_data_source_file            fg1652.cif
_cod_data_source_block           II
_cod_depositor_comments
;
The following automatic conversions were performed:

'_exptl_crystal_density_meas' value 'not measured' was changed to '?'
- the value is perceived as not measured.

Automatic conversion script
Id: cif_fix_values 3008 2015-01-20 13:52:24Z robertas 
;
_cod_original_sg_symbol_H-M      'P 21/n'
_cod_database_code               2012862
_cod_database_fobs_code          2012862
loop_
_symmetry_equiv_pos_as_xyz
'x, y, z'
'-x+1/2, y+1/2, -z+1/2'
'-x, -y, -z'
'x-1/2, -y-1/2, z-1/2'
loop_
_atom_site_label
_atom_site_fract_x
_atom_site_fract_y
_atom_site_fract_z
_atom_site_U_iso_or_equiv
_atom_site_adp_type
_atom_site_calc_flag
_atom_site_refinement_flags
_atom_site_occupancy
_atom_site_disorder_assembly
_atom_site_disorder_group
_atom_site_type_symbol
C1 0.31273(16) 0.06697(8) 0.27428(7) 0.01862(18) Uani d . 1 . . C
N1 0.33325(19) -0.10745(8) 0.03996(8) 0.0323(2) Uani d . 1 . . N
O1 0.20019(14) 0.11412(7) 0.59595(6) 0.02684(18) Uani d . 1 . . O
O2 0.55242(14) 0.20912(7) 0.63996(6) 0.02891(19) Uani d . 1 . . O
C2 0.27305(16) 0.07688(7) 0.38389(7) 0.01771(18) Uani d . 1 . . C
H2 0.1358 0.0380 0.4075 0.021 Uiso calc R 1 . . H
N2 0.39360(15) 0.15698(7) 0.57222(6) 0.01958(17) Uani d . 1 . . N
C3 0.43914(16) 0.14500(7) 0.45747(7) 0.01726(18) Uani d . 1 . . C
C4 0.64376(17) 0.20269(8) 0.42789(8) 0.02000(19) Uani d . 1 . . C
H4 0.7562 0.2472 0.4808 0.024 Uiso calc R 1 . . H
C5 0.67872(18) 0.19320(8) 0.31799(8) 0.02201(19) Uani d . 1 . . C
H5 0.8157 0.2327 0.2947 0.026 Uiso calc R 1 . . H
C6 0.51416(17) 0.12620(8) 0.24186(7) 0.02123(19) Uani d . 1 . . C
H6 0.5396 0.1208 0.1669 0.025 Uiso calc R 1 . . H
C7 0.12750(18) -0.00451(9) 0.19274(8) 0.0248(2) Uani d . 1 . . C
H7A 0.0500 -0.0640 0.2346 0.030 Uiso calc R 1 . . H
H7B -0.0099 0.0468 0.1553 0.030 Uiso calc R 1 . . H
C8 0.24486(19) -0.06250(9) 0.10756(8) 0.0235(2) Uani d . 1 . . C
loop_
_atom_site_aniso_label
_atom_site_aniso_U_11
_atom_site_aniso_U_22
_atom_site_aniso_U_33
_atom_site_aniso_U_12
_atom_site_aniso_U_13
_atom_site_aniso_U_23
C1 0.0186(4) 0.0212(4) 0.0160(4) 0.0033(3) 0.0028(3) 0.0003(3)
N1 0.0403(5) 0.0296(5) 0.0296(5) -0.0068(4) 0.0137(4) -0.0077(4)
O1 0.0266(3) 0.0344(4) 0.0222(3) -0.0071(3) 0.0115(3) -0.0027(3)
O2 0.0291(4) 0.0366(4) 0.0211(3) -0.0077(3) 0.0048(3) -0.0095(3)
C2 0.0171(4) 0.0190(4) 0.0178(4) 0.0006(3) 0.0050(3) 0.0008(3)
N2 0.0215(4) 0.0206(3) 0.0174(3) 0.0002(3) 0.0058(3) -0.0014(3)
C3 0.0190(4) 0.0187(4) 0.0149(4) 0.0021(3) 0.0053(3) 0.0008(3)
C4 0.0192(4) 0.0205(4) 0.0208(4) -0.0002(3) 0.0047(3) 0.0002(3)
C5 0.0206(4) 0.0244(4) 0.0227(4) 0.0008(3) 0.0085(3) 0.0033(3)
C6 0.0216(4) 0.0260(4) 0.0173(4) 0.0045(3) 0.0069(3) 0.0034(3)
C7 0.0217(4) 0.0343(5) 0.0182(4) 0.0000(4) 0.0033(3) -0.0049(4)
C8 0.0275(5) 0.0238(4) 0.0193(4) -0.0030(3) 0.0042(3) -0.0007(3)
loop_
_atom_type_symbol
_atom_type_description
_atom_type_scat_dispersion_real
_atom_type_scat_dispersion_imag
_atom_type_scat_source
C C 0.0033 0.0016 'International Tables Vol C Tables 4.2.6.8 and 6.1.1.4'
H H 0.0000 0.0000 'International Tables Vol C Tables 4.2.6.8 and 6.1.1.4'
N N 0.0061 0.0033 'International Tables Vol C Tables 4.2.6.8 and 6.1.1.4'
O O 0.0106 0.0060 'International Tables Vol C Tables 4.2.6.8 and 6.1.1.4'
loop_
_geom_angle_atom_site_label_1
_geom_angle_atom_site_label_2
_geom_angle_atom_site_label_3
_geom_angle
_geom_angle_publ_flag
C2 C1 C6 119.44(8) yes
C2 C1 C7 118.55(8) yes
C6 C1 C7 121.97(8) yes
C1 C2 C3 118.34(8) yes
C3 C2 H2 120.8 ?
C1 C2 H2 120.8 ?
O1 N2 O2 123.30(8) yes
O1 N2 C3 118.58(7) yes
O2 N2 C3 118.12(7) yes
C2 C3 C4 123.31(8) yes
C2 C3 N2 118.12(8) yes
C4 C3 N2 118.57(8) yes
C3 C4 C5 117.64(8) yes
C3 C4 H4 121.2 ?
C5 C4 H4 121.2 ?
C4 C5 C6 120.44(8) yes
C4 C5 H5 119.8 ?
C6 C5 H5 119.8 ?
C1 C6 C5 120.81(8) yes
C5 C6 H6 119.6 ?
C1 C6 H6 119.6 ?
C1 C7 C8 113.41(8) yes
C8 C7 H7A 108.9 ?
C1 C7 H7A 108.9 ?
C8 C7 H7B 108.9 ?
C1 C7 H7B 108.9 ?
H7A C7 H7B 107.7 ?
N1 C8 C7 178.98(11) yes
loop_
_geom_bond_atom_site_label_1
_geom_bond_atom_site_label_2
_geom_bond_site_symmetry_2
_geom_bond_distance
_geom_bond_publ_flag
C1 C2 . 1.3959(12) yes
C1 C6 . 1.3939(12) yes
C1 C7 . 1.5161(13) yes
N1 C8 . 1.1460(13) yes
O1 N2 . 1.2296(10) yes
O2 N2 . 1.2311(10) yes
C2 C3 . 1.3881(12) yes
C2 H2 . 0.9500 ?
N2 C3 . 1.4701(11) yes
C3 C4 . 1.3852(12) yes
C4 C5 . 1.3910(13) yes
C4 H4 . 0.9500 ?
C5 C6 . 1.3935(13) yes
C5 H5 . 0.9500 ?
C6 H6 . 0.9500 ?
C7 C8 . 1.4687(13) yes
C7 H7A . 0.9900 ?
C7 H7B . 0.9900 ?
loop_
_geom_hbond_atom_site_label_D
_geom_hbond_atom_site_label_H
_geom_hbond_atom_site_label_A
_geom_hbond_site_symmetry_A
_geom_hbond_distance_DH
_geom_hbond_distance_HA
_geom_hbond_distance_DA
_geom_hbond_angle_DHA
C2 H2 O1 3_556 0.95 2.51 3.4010(11) 157
C5 H5 O2 4_665 0.95 2.55 3.4009(11) 150
C6 H6 N1 3_655 0.95 2.73 3.6806(13) 174
loop_
_geom_torsion_atom_site_label_1
_geom_torsion_atom_site_label_2
_geom_torsion_atom_site_label_3
_geom_torsion_atom_site_label_4
_geom_torsion
_geom_torsion_publ_flag
C6 C1 C2 C3 -0.72(13) ?
C7 C1 C2 C3 -178.27(8) ?
C1 C2 C3 C4 -0.67(13) ?
C1 C2 C3 N2 178.83(7) ?
O1 N2 C3 C4 173.83(8) ?
O2 N2 C3 C4 -6.53(12) ?
O1 N2 C3 C2 -5.69(12) ?
O2 N2 C3 C2 173.95(8) ?
C2 C3 C4 C5 1.51(13) ?
N2 C3 C4 C5 -177.99(8) ?
C3 C4 C5 C6 -0.96(13) ?
C4 C5 C6 C1 -0.38(14) ?
C2 C1 C6 C5 1.24(13) ?
C7 C1 C6 C5 178.70(8) ?
C6 C1 C7 C8 34.53(13) ?
C2 C3 N2 O1 -5.69(12) yes
C2 C1 C7 C8 -147.99(9) yes
loop_
_cod_related_entry_id
_cod_related_entry_database
_cod_related_entry_code
1 ChemSpider 11627
