#------------------------------------------------------------------------------
#$Date: 2016-02-20 00:18:51 +0200 (Sat, 20 Feb 2016) $
#$Revision: 176760 $
#$URL: svn://www.crystallography.net/cod/cif/2/01/20/2012060.cif $
#------------------------------------------------------------------------------
#
# This file is available in the Crystallography Open Database (COD),
# http://www.crystallography.net/. The original data for this entry
# were provided by IUCr Journals, http://journals.iucr.org/.
#
# The file may be used within the scientific community so long as
# proper attribution is given to the journal article from which the
# data were obtained.
#
data_2012060
loop_
_publ_author_name
'Naumov, Dmitry Yu.'
'Yufit, Dmitrii S.'
'Boldyreva, Elena V.'
'Howard, Judith A. K.'
_publ_section_title
;
 A urea complex of copper(II) hypophosphite at 293, 100 and 15K
;
_journal_issue                   7
_journal_name_full               'Acta Crystallographica Section C'
_journal_page_first              790
_journal_page_last               792
_journal_paper_doi               10.1107/S0108270101004711
_journal_volume                  57
_journal_year                    2001
_chemical_formula_iupac          '[Cu (H2 P O2)2 (C H4 N2 O)]'
_chemical_formula_moiety         'C H8 Cu N2 O5 P2'
_chemical_formula_sum            'C H8 Cu N2 O5 P2'
_chemical_formula_weight         253.57
_chemical_name_systematic
;
poly[copper(II)-di-\m-hypophosphito-\m-urea]
;
_space_group_IT_number           15
_symmetry_cell_setting           monoclinic
_symmetry_space_group_name_Hall  '-C 2yc'
_symmetry_space_group_name_H-M   'C 1 2/c 1'
_audit_creation_method           SHELXL97
_cell_angle_alpha                90
_cell_angle_beta                 99.8369(14)
_cell_angle_gamma                90
_cell_formula_units_Z            4
_cell_length_a                   12.3589(3)
_cell_length_b                   7.4464(2)
_cell_length_c                   8.2199(2)
_cell_measurement_reflns_used    2798
_cell_measurement_temperature    100(2)
_cell_measurement_theta_max      29.09
_cell_measurement_theta_min      3.21
_cell_volume                     745.35(3)
_computing_cell_refinement       'SAINT (Siemens, 1994)'
_computing_data_collection       'SMART (Siemens, 1994)'
_computing_data_reduction        SAINT
_computing_molecular_graphics    'SHELXTL (Siemens, 1994)'
_computing_publication_material  SHELXL97
_computing_structure_refinement  'SHELXL97 (Sheldrick, 1997)'
_computing_structure_solution    'SHELXS97 (Sheldrick, 1997)'
_diffrn_ambient_temperature      100(2)
_diffrn_detector_area_resol_mean 8.192
_diffrn_measured_fraction_theta_full .996
_diffrn_measured_fraction_theta_max .996
_diffrn_measurement_device       'Siemens SMART CCD area-detector'
_diffrn_measurement_method       '\w scans'
_diffrn_radiation_monochromator  graphite
_diffrn_radiation_source         'fine-focus sealed tube'
_diffrn_radiation_type           MoK\a
_diffrn_radiation_wavelength     .71073
_diffrn_reflns_av_R_equivalents  .020
_diffrn_reflns_av_sigmaI/netI    .023
_diffrn_reflns_limit_h_max       16
_diffrn_reflns_limit_h_min       -16
_diffrn_reflns_limit_k_max       10
_diffrn_reflns_limit_k_min       -10
_diffrn_reflns_limit_l_max       11
_diffrn_reflns_limit_l_min       -10
_diffrn_reflns_number            2849
_diffrn_reflns_theta_full        29.09
_diffrn_reflns_theta_max         29.09
_diffrn_reflns_theta_min         3.21
_diffrn_standards_decay_%        0
_exptl_absorpt_coefficient_mu    3.337
_exptl_absorpt_correction_T_max  .480
_exptl_absorpt_correction_T_min  .297
_exptl_absorpt_correction_type   multi-scan
_exptl_absorpt_process_details   '(SADABS; Sheldrick, 1996)'
_exptl_crystal_colour            blue
_exptl_crystal_density_diffrn    2.260
_exptl_crystal_density_method    'not measured'
_exptl_crystal_description       irregular
_exptl_crystal_F_000             508
_exptl_crystal_size_max          .54
_exptl_crystal_size_mid          .30
_exptl_crystal_size_min          .22
_refine_diff_density_max         .57
_refine_diff_density_min         -.39
_refine_ls_extinction_coef       .0104(9)
_refine_ls_extinction_method     'SHELXL97 (Sheldrick, 1997)'
_refine_ls_goodness_of_fit_ref   1.120
_refine_ls_hydrogen_treatment    refall
_refine_ls_matrix_type           full
_refine_ls_number_parameters     70
_refine_ls_number_reflns         996
_refine_ls_number_restraints     0
_refine_ls_restrained_S_all      1.120
_refine_ls_R_factor_all          .023
_refine_ls_R_factor_gt           .022
_refine_ls_shift/su_max          <0.001
_refine_ls_shift/su_mean         .000
_refine_ls_structure_factor_coef Fsqd
_refine_ls_weighting_details
'calc w = 1/[\s^2^(Fo^2^)+(0.0296P)^2^+0.9238P] where P=(Fo^2^+2Fc^2^)/3'
_refine_ls_weighting_scheme      calc
_refine_ls_wR_factor_ref         .057
_reflns_number_gt                935
_reflns_number_total             996
_reflns_threshold_expression     I>2\s(I)
_cod_data_source_file            av1072.cif
_cod_data_source_block           Iat100K
_cod_depositor_comments
;
The following automatic conversions were performed:
'_symmetry_cell_setting' value 'Monoclinic' changed to 'monoclinic'
according to '/home/saulius/struct/CIF-dictionaries/cif_core.dic'
dictionary named 'cif_core.dic' version 2.4.1 from
2010-06-29.

'_geom_bond_publ_flag' value 'Yes' changed to 'yes' according
to '/home/saulius/struct/CIF-dictionaries/cif_core.dic' dictionary named
'cif_core.dic' version 2.4.1 from 2010-06-29 (10 times).

Automatic conversion script
Id: cif_fix_enum 1527 2010-12-29 10:47:43Z saulius 

The following automatic conversions were performed:

'_symmetry_cell_setting' value 'Monoclinic' changed to 'monoclinic'
according to /home/saulius/struct/CIF-dictionaries/cif_core.dic
dictionary named 'cif_core.dic' version 2.4.1 from
2010-06-29.

'_geom_bond_publ_flag' value 'Yes' changed to 'yes'
according to /home/saulius/struct/CIF-dictionaries/cif_core.dic
dictionary named 'cif_core.dic' version 2.4.1 from 2010-06-29 (10
times).

'_geom_angle_publ_flag' value 'Yes' changed to 'yes'
according to /home/saulius/struct/CIF-dictionaries/cif_core.dic
dictionary named 'cif_core.dic' version 2.4.1 from 2010-06-29 (15
times).

'_geom_torsion_publ_flag' value 'Yes' changed to 'yes'
according to /home/saulius/struct/CIF-dictionaries/cif_core.dic
dictionary named 'cif_core.dic' version 2.4.1 from
2010-06-29.

'_geom_hbond_publ_flag' value 'Yes' changed to 'yes'
according to /home/saulius/struct/CIF-dictionaries/cif_core.dic
dictionary named 'cif_core.dic' version 2.4.1 from 2010-06-29 (2
times).

'_geom_hbond_publ_flag' value 'No' changed to 'no' according
to /home/saulius/struct/CIF-dictionaries/cif_core.dic dictionary
named 'cif_core.dic' version 2.4.1 from 2010-06-29 (3 times).

Automatic conversion script
Id: cif_fix_values 1715 2011-07-08 13:25:40Z adriana 
;
_cod_original_sg_symbol_H-M      'C 2/c'
_cod_database_code               2012060
loop_
_symmetry_equiv_pos_as_xyz
'x, y, z'
'-x, y, -z+1/2'
'x+1/2, y+1/2, z'
'-x+1/2, y+1/2, -z+1/2'
'-x, -y, -z'
'x, -y, z-1/2'
'-x+1/2, -y+1/2, -z'
'x+1/2, -y+1/2, z-1/2'
loop_
_atom_site_label
_atom_site_fract_x
_atom_site_fract_y
_atom_site_fract_z
_atom_site_U_iso_or_equiv
_atom_site_adp_type
_atom_site_calc_flag
_atom_site_refinement_flags
_atom_site_occupancy
_atom_site_disorder_assembly
_atom_site_disorder_group
_atom_site_type_symbol
Cu1 0 0 0.5 .00715(12) Uani d S 1 . . Cu
P1 .17446(3) -.12486(6) 0.29780(5) .00878(13) Uani d . 1 . . P
H1 .263(2) -.227(4) 0.334(3) .015(6) Uiso d . 1 . . H
H2 .2168(19) .043(3) 0.338(3) .010(5) Uiso d . 1 . . H
O1 .09674(10) -.17611(16) 0.41549(15) .0098(2) Uani d . 1 . . O
O2 .13054(10) -.13429(16) 0.11367(15) .0107(2) Uani d . 1 . . O
O3 0 .1643(2) 0.25 .0102(3) Uani d S 1 . . O
C1 0 .3341(3) 0.25 .0097(4) Uani d S 1 . . C
N1 .07099(13) .4268(2) 0.3624(2) .0138(3) Uani d . 1 . . N
H3 .069(2) .530(4) 0.378(3) .016(6) Uiso d . 1 . . H
H4 .107(2) .367(3) 0.441(3) .014(6) Uiso d . 1 . . H
loop_
_atom_site_aniso_label
_atom_site_aniso_U_11
_atom_site_aniso_U_22
_atom_site_aniso_U_33
_atom_site_aniso_U_12
_atom_site_aniso_U_13
_atom_site_aniso_U_23
Cu1 .00992(17) .00583(16) .00567(16) -.00081(9) .00120(10) -.00116(9)
P1 .0104(2) .0090(2) .0066(2) .00057(14) .00073(14) .00043(14)
O1 .0140(5) .0073(5) .0084(5) .0006(4) .0028(4) .0008(4)
O2 .0132(5) .0115(5) .0072(5) .0030(4) .0014(4) .0008(4)
O3 .0172(8) .0050(7) .0084(7) 0 .0024(6) 0
C1 .0132(10) .0080(10) .0090(10) 0 .0054(8) 0
N1 .0208(7) .0065(7) .0134(7) -.0022(6) .0010(6) -.0018(5)
loop_
_atom_type_symbol
_atom_type_description
_atom_type_scat_dispersion_real
_atom_type_scat_dispersion_imag
_atom_type_scat_source
C C .0033 .0016 'International Tables Vol C Tables 4.2.6.8 and 6.1.1.4'
H H .0000 .0000 'International Tables Vol C Tables 4.2.6.8 and 6.1.1.4'
N N .0061 .0033 'International Tables Vol C Tables 4.2.6.8 and 6.1.1.4'
O O .0106 .0060 'International Tables Vol C Tables 4.2.6.8 and 6.1.1.4'
P P .1023 .0942 'International Tables Vol C Tables 4.2.6.8 and 6.1.1.4'
Cu Cu .3201 1.2651 'International Tables Vol C Tables 4.2.6.8 and 6.1.1.4'
loop_
_geom_angle_atom_site_label_1
_geom_angle_atom_site_label_2
_geom_angle_atom_site_label_3
_geom_angle_site_symmetry_1
_geom_angle_site_symmetry_3
_geom_angle
_geom_angle_publ_flag
O1 Cu1 O1 . 5_556 180.0 ?
O1 Cu1 O2 . 2 89.55(5) ?
O1 Cu1 O2 5_556 2 90.45(5) ?
O1 Cu1 O2 . 6_556 90.45(5) yes
O1 Cu1 O2 5_556 6_556 89.55(5) ?
O2 Cu1 O2 2 6_556 180.00(9) ?
O1 Cu1 O3 . 5_556 92.94(4) ?
O1 Cu1 O3 5_556 5_556 87.06(4) ?
O2 Cu1 O3 2 5_556 91.56(4) ?
O2 Cu1 O3 6_556 5_556 88.44(4) ?
O1 Cu1 O3 . . 87.06(4) yes
O1 Cu1 O3 5_556 . 92.94(4) ?
O2 Cu1 O3 2 . 88.44(4) ?
O2 Cu1 O3 6_556 . 91.56(4) yes
O3 Cu1 O3 5_556 . 180.0 ?
O1 Cu1 Cu1 . 2 62.98(3) ?
O1 Cu1 Cu1 5_556 2 117.02(3) ?
O2 Cu1 Cu1 2 2 70.67(3) ?
O2 Cu1 Cu1 6_556 2 109.33(3) ?
O3 Cu1 Cu1 5_556 2 149.23(3) ?
O3 Cu1 Cu1 . 2 30.77(3) ?
O1 P1 O2 . . 117.66(7) yes
O1 P1 H1 . . 107.5(11) yes
O2 P1 H1 . . 109.7(11) yes
O1 P1 H2 . . 109.4(10) yes
O2 P1 H2 . . 109.6(10) yes
H1 P1 H2 . . 101.7(15) yes
P1 O1 Cu1 . . 122.76(7) yes
P1 O2 Cu1 . 2 124.56(7) yes
C1 O3 Cu1 . 2 120.77(3) ?
C1 O3 Cu1 . . 120.77(3) yes
Cu1 O3 Cu1 2 . 118.46(7) yes
O3 C1 N1 . . 120.74(11) yes
O3 C1 N1 . 2 120.74(11) ?
N1 C1 N1 . 2 118.5(2) yes
C1 N1 H3 . . 126(2) ?
C1 N1 H4 . . 116.9(17) ?
H3 N1 H4 . . 114(3) ?
loop_
_geom_bond_atom_site_label_1
_geom_bond_atom_site_label_2
_geom_bond_site_symmetry_2
_geom_bond_distance
_geom_bond_publ_flag
Cu1 O1 . 1.9788(12) yes
Cu1 O1 5_556 1.9788(12) ?
Cu1 O2 2 1.9901(12) ?
Cu1 O2 6_556 1.9901(12) yes
Cu1 O3 5_556 2.3917(8) ?
Cu1 O3 . 2.3917(8) yes
Cu1 Cu1 2 4.11000(10) yes
P1 O1 . 1.5236(12) yes
P1 O2 . 1.5198(13) yes
P1 H1 . 1.32(2) yes
P1 H2 . 1.38(3) yes
O2 Cu1 2 1.9901(12) ?
O3 C1 . 1.264(3) yes
O3 Cu1 2 2.3917(8) ?
C1 N1 . 1.3502(19) yes
C1 N1 2 1.3502(19) ?
N1 H3 . .78(3) ?
N1 H4 . .85(3) ?
loop_
_geom_hbond_atom_site_label_D
_geom_hbond_atom_site_label_H
_geom_hbond_atom_site_label_A
_geom_hbond_site_symmetry_A
_geom_hbond_distance_DH
_geom_hbond_distance_HA
_geom_hbond_distance_DA
_geom_hbond_angle_DHA
_geom_hbond_publ_flag
N1 H4 O2 6_556 .85(3) 2.23(3) 3.005(2) 153(2) yes
P1 H2 O3 . 1.38(3) 2.80(2) 3.0250(12) 85.6(10) no
P1 H2 O2 6_556 1.38(3) 2.75(2) 3.3527(13) 103.6(12) no
N1 H3 O1 1_565 .78(3) 2.23(3) 2.998(2) 169(3) yes
P1 H1 O1 7_546 1.32(2) 2.56(3) 3.6701(13) 139.7(16) no
loop_
_geom_torsion_atom_site_label_1
_geom_torsion_atom_site_label_2
_geom_torsion_atom_site_label_3
_geom_torsion_atom_site_label_4
_geom_torsion
_geom_torsion_publ_flag
N1 C1 O3 Cu1 48.15(8) yes
