#------------------------------------------------------------------------------
#$Date: 2017-10-13 03:48:21 +0300 (Fri, 13 Oct 2017) $
#$Revision: 201957 $
#$URL: file:///home/coder/svn-repositories/cod/cif/2/01/30/2013023.cif $
#------------------------------------------------------------------------------
#
# This file is available in the Crystallography Open Database (COD),
# http://www.crystallography.net/. The original data for this entry
# were provided by IUCr Journals, http://journals.iucr.org/.
#
# The file may be used within the scientific community so long as
# proper attribution is given to the journal article from which the
# data were obtained.
#
data_2013023
loop_
_publ_author_name
'Britton, Doyle'
_publ_section_title
;
 <i>o</i>- and <i>m</i>-Benzenedicarbaldehyde
;
_journal_issue                   11
_journal_name_full               'Acta Crystallographica Section C'
_journal_page_first              o637
_journal_page_last               o639
_journal_paper_doi               10.1107/S0108270102015597
_journal_volume                  58
_journal_year                    2002
_chemical_formula_moiety         'C8 H6 O2'
_chemical_formula_sum            'C8 H6 O2'
_chemical_formula_weight         134.13
_chemical_melting_point          362.0(10)
_chemical_name_common            isophthalaldehyde
_chemical_name_systematic
;
benzene-1,3-dicarbaldehyde, polymorph B
;
_space_group_IT_number           14
_symmetry_cell_setting           monoclinic
_symmetry_space_group_name_Hall  '-P 2yn'
_symmetry_space_group_name_H-M   'P 1 21/n 1'
_atom_sites_solution_hydrogens   geom
_atom_sites_solution_primary     direct
_atom_sites_solution_secondary   difmap
_audit_creation_method           'SHELXTL plus manual additions'
_cell_angle_alpha                90
_cell_angle_beta                 110.419(10)
_cell_angle_gamma                90
_cell_formula_units_Z            4
_cell_length_a                   11.374(3)
_cell_length_b                   3.8110(10)
_cell_length_c                   15.721(4)
_cell_measurement_reflns_used    3560
_cell_measurement_temperature    173(2)
_cell_measurement_theta_max      27.4
_cell_measurement_theta_min      2.7
_cell_volume                     638.6(3)
_computing_cell_refinement       'SAINT (Siemens, 1995)'
_computing_data_collection       'SMART (Siemens, 1995)'
_computing_data_reduction        SAINT
_computing_molecular_graphics    SHELXTL
_computing_publication_material  SHELXTL
_computing_structure_refinement  SHELXTL
_computing_structure_solution    'SHELXTL (Sheldrick, 1997)'
_diffrn_ambient_temperature      173(2)
_diffrn_measured_fraction_theta_full 0.998
_diffrn_measured_fraction_theta_max 0.998
_diffrn_measurement_device_type  'Siemens SMART area-detector'
_diffrn_measurement_method       \w
_diffrn_radiation_monochromator  graphite
_diffrn_radiation_source         'fine-focus sealed tube'
_diffrn_radiation_type           MoK\a
_diffrn_radiation_wavelength     0.71073
_diffrn_reflns_av_R_equivalents  0.022
_diffrn_reflns_av_sigmaI/netI    0.023
_diffrn_reflns_limit_h_max       14
_diffrn_reflns_limit_h_min       -14
_diffrn_reflns_limit_k_max       4
_diffrn_reflns_limit_k_min       -4
_diffrn_reflns_limit_l_max       20
_diffrn_reflns_limit_l_min       -20
_diffrn_reflns_number            6965
_diffrn_reflns_theta_full        27.49
_diffrn_reflns_theta_max         27.49
_diffrn_reflns_theta_min         1.93
_diffrn_standards_decay_%        <1
_diffrn_standards_number         0
_exptl_absorpt_coefficient_mu    0.101
_exptl_absorpt_correction_T_max  0.99
_exptl_absorpt_correction_T_min  0.98
_exptl_absorpt_correction_type   multi-scan
_exptl_absorpt_process_details   '(SADABS; Sheldrick, 1996; Blessing, 1995)'
_exptl_crystal_colour            colorless
_exptl_crystal_density_diffrn    1.395
_exptl_crystal_density_meas      ?
_exptl_crystal_density_method    'not measured'
_exptl_crystal_description       needle
_exptl_crystal_F_000             280
_exptl_crystal_size_max          0.45
_exptl_crystal_size_mid          0.20
_exptl_crystal_size_min          0.10
_refine_diff_density_max         0.23
_refine_diff_density_min         -0.14
_refine_ls_extinction_expression Fc^*^=kFc[1+0.001xFc^2^\l^3^/sin(2\q)]^-1/4^
_refine_ls_extinction_method     none
_refine_ls_goodness_of_fit_ref   1.08
_refine_ls_hydrogen_treatment    constr
_refine_ls_matrix_type           full
_refine_ls_number_parameters     91
_refine_ls_number_reflns         1452
_refine_ls_number_restraints     0
_refine_ls_restrained_S_all      1.08
_refine_ls_R_factor_all          0.049
_refine_ls_R_factor_gt           0.042
_refine_ls_shift/su_max          0.001
_refine_ls_shift/su_mean         0.000
_refine_ls_structure_factor_coef Fsqd
_refine_ls_weighting_details
'calc w = 1/[\s^2^(Fo^2^)+(0.063P)^2^+0.146P] where P=(Fo^2^+2Fc^2^)/3'
_refine_ls_weighting_scheme      calc
_refine_ls_wR_factor_gt          0.117
_refine_ls_wR_factor_ref         0.118
_reflns_number_gt                1237
_reflns_number_total             1452
_reflns_threshold_expression     I>2\s(I)
_cod_data_source_file            fr1394.cif
_cod_data_source_block           IIB
_cod_depositor_comments
;
The following automatic conversions were performed:

'_chemical_melting_point' value '361-363 K' was changed to
'362.0(10)' - the average value was taken and precision was
estimated.

Automatic conversion script
Id: cif_fix_values 1646 2011-03-28 12:23:43Z adriana 

The following automatic conversions were performed:

'_chemical_melting_point' value '361-363 K' was changed to
'362.0(10)' - the average value was taken and precision was
estimated.

Automatic conversion script
Id: cif_fix_values 1715 2011-07-08 13:25:40Z adriana 

The following automatic conversions were performed:

'_exptl_crystal_density_meas' value 'not measured' was changed to '?'
- the value is perceived as not measured.

Automatic conversion script
Id: cif_fix_values 3008 2015-01-20 13:52:24Z robertas 
;
_cod_original_sg_symbol_H-M      'P 21/n'
_cod_database_code               2013023
_cod_database_fobs_code          2013023
loop_
_symmetry_equiv_pos_as_xyz
'x, y, z'
'-x+1/2, y+1/2, -z+1/2'
'-x, -y, -z'
'x-1/2, -y-1/2, z-1/2'
loop_
_atom_site_label
_atom_site_fract_x
_atom_site_fract_y
_atom_site_fract_z
_atom_site_U_iso_or_equiv
_atom_site_adp_type
_atom_site_calc_flag
_atom_site_refinement_flags
_atom_site_occupancy
_atom_site_disorder_assembly
_atom_site_disorder_group
_atom_site_type_symbol
C1 0.35851(11) 0.5573(3) 0.62691(8) 0.0277(3) Uani d . 1 . . C
C2 0.36368(11) 0.6242(3) 0.54146(8) 0.0276(3) Uani d . 1 . . C
H2 0.4346 0.7393 0.5356 0.033 Uiso calc R 1 . . H
C3 0.26449(11) 0.5219(3) 0.46424(8) 0.0283(3) Uani d . 1 . . C
C4 0.16007(12) 0.3563(3) 0.47298(9) 0.0312(3) Uani d . 1 . . C
H4 0.0929 0.2845 0.4203 0.037 Uiso calc R 1 . . H
C5 0.15386(12) 0.2957(3) 0.55856(9) 0.0327(3) Uani d . 1 . . C
H5 0.0818 0.1876 0.5644 0.039 Uiso calc R 1 . . H
C6 0.25272(12) 0.3931(3) 0.63500(9) 0.0304(3) Uani d . 1 . . C
H6 0.2490 0.3485 0.6935 0.036 Uiso calc R 1 . . H
C7 0.46497(12) 0.6640(4) 0.70790(9) 0.0338(3) Uani d . 1 . . C
H1 0.5316 0.7898 0.6986 0.041 Uiso calc R 1 . . H
C8 0.26791(13) 0.5905(4) 0.37271(9) 0.0348(3) Uani d . 1 . . C
H3 0.2050 0.4858 0.3224 0.042 Uiso calc R 1 . . H
O1 0.47326(10) 0.6023(3) 0.78532(6) 0.0459(3) Uani d . 1 . . O
O3 0.34604(10) 0.7722(3) 0.35779(7) 0.0467(3) Uani d . 1 . . O
loop_
_atom_site_aniso_label
_atom_site_aniso_U_11
_atom_site_aniso_U_22
_atom_site_aniso_U_33
_atom_site_aniso_U_12
_atom_site_aniso_U_13
_atom_site_aniso_U_23
C1 0.0301(6) 0.0258(6) 0.0274(6) 0.0036(5) 0.0102(5) 0.0002(5)
C2 0.0281(6) 0.0272(6) 0.0291(6) 0.0020(5) 0.0121(5) 0.0012(5)
C3 0.0309(6) 0.0272(6) 0.0272(6) 0.0056(5) 0.0108(5) 0.0016(5)
C4 0.0286(6) 0.0308(7) 0.0316(6) 0.0016(5) 0.0072(5) -0.0032(5)
C5 0.0308(6) 0.0300(7) 0.0401(7) -0.0014(5) 0.0160(5) -0.0008(5)
C6 0.0365(7) 0.0289(7) 0.0298(6) 0.0030(5) 0.0166(5) 0.0022(5)
C7 0.0343(7) 0.0372(7) 0.0295(6) 0.0020(5) 0.0109(5) -0.0020(5)
C8 0.0368(7) 0.0395(8) 0.0273(6) 0.0081(6) 0.0101(5) 0.0023(5)
O1 0.0472(6) 0.0622(7) 0.0262(5) 0.0001(5) 0.0101(4) -0.0001(5)
O3 0.0534(7) 0.0560(7) 0.0358(6) -0.0003(5) 0.0219(5) 0.0087(5)
loop_
_atom_type_symbol
_atom_type_description
_atom_type_scat_dispersion_real
_atom_type_scat_dispersion_imag
_atom_type_scat_source
C C 0.0033 0.0016 'International Tables Vol C Tables 4.2.6.8 and 6.1.1.4'
H H 0.0000 0.0000 'International Tables Vol C Tables 4.2.6.8 and 6.1.1.4'
O O 0.0106 0.0060 'International Tables Vol C Tables 4.2.6.8 and 6.1.1.4'
loop_
_geom_angle_atom_site_label_1
_geom_angle_atom_site_label_2
_geom_angle_atom_site_label_3
_geom_angle
C2 C1 C6 119.83(11)
C2 C1 C7 119.03(11)
C6 C1 C7 121.14(11)
C1 C2 C3 119.78(11)
C1 C2 H2 120.1
C3 C2 H2 120.1
C4 C3 C2 119.98(11)
C4 C3 C8 119.30(11)
C2 C3 C8 120.72(11)
C5 C4 C3 120.21(11)
C5 C4 H4 119.9
C3 C4 H4 119.9
C6 C5 C4 119.80(12)
C6 C5 H5 120.1
C4 C5 H5 120.1
C5 C6 C1 120.39(11)
C5 C6 H6 119.8
C1 C6 H6 119.8
O1 C7 C1 124.52(13)
O1 C7 H1 117.7
C1 C7 H1 117.7
O3 C8 C3 124.06(12)
O3 C8 H3 118.0
C3 C8 H3 118.0
loop_
_geom_bond_atom_site_label_1
_geom_bond_atom_site_label_2
_geom_bond_site_symmetry_2
_geom_bond_distance
_geom_bond_publ_flag
C1 C2 . 1.3886(17) ?
C1 C6 . 1.4009(18) ?
C1 C7 . 1.4754(18) ?
C2 C3 . 1.3938(18) ?
C2 H2 . 0.9500 ?
C3 C4 . 1.3934(18) ?
C3 C8 . 1.4764(17) ?
C4 C5 . 1.3910(18) ?
C4 H4 . 0.9500 ?
C5 C6 . 1.3797(19) ?
C5 H5 . 0.9500 ?
C6 H6 . 0.9500 ?
C7 O1 . 1.2106(16) ?
C7 H1 . 0.9500 ?
C8 O3 . 1.2122(18) ?
C8 H3 . 0.9500 ?
loop_
_geom_torsion_atom_site_label_1
_geom_torsion_atom_site_label_2
_geom_torsion_atom_site_label_3
_geom_torsion_atom_site_label_4
_geom_torsion
C6 C1 C2 C3 -1.13(18)
C7 C1 C2 C3 179.34(11)
C1 C2 C3 C4 0.64(18)
C1 C2 C3 C8 179.96(11)
C2 C3 C4 C5 0.65(19)
C8 C3 C4 C5 -178.68(12)
C3 C4 C5 C6 -1.45(19)
C4 C5 C6 C1 0.95(19)
C2 C1 C6 C5 0.34(18)
C7 C1 C6 C5 179.86(12)
C2 C1 C7 O1 -175.92(13)
C6 C1 C7 O1 4.6(2)
C4 C3 C8 O3 169.90(13)
C2 C3 C8 O3 -9.4(2)
loop_
_cod_related_entry_id
_cod_related_entry_database
_cod_related_entry_code
1 ChemSpider 32002
