#------------------------------------------------------------------------------
#$Date: 2017-10-13 03:48:21 +0300 (Fri, 13 Oct 2017) $
#$Revision: 201957 $
#$URL: file:///home/coder/svn-repositories/cod/cif/2/01/38/2013891.cif $
#------------------------------------------------------------------------------
#
# This file is available in the Crystallography Open Database (COD),
# http://www.crystallography.net/. The original data for this entry
# were provided by IUCr Journals, http://journals.iucr.org/.
#
# The file may be used within the scientific community so long as
# proper attribution is given to the journal article from which the
# data were obtained.
#
data_2013891
loop_
_publ_author_name
'Seela, Frank'
'Peng, Xiaohua'
'Eickmeier, Henning'
'Reuter, Hans'
_publ_section_title
;
 Regioisomeric 4-nitroindazole <i>N</i>^1^- and
 <i>N</i>^2^-(\b-<small>D</small>-ribonucleosides)
;
_journal_issue                   1
_journal_name_full               'Acta Crystallographica Section C'
_journal_page_first              o94
_journal_page_last               o97
_journal_paper_doi               10.1107/S0108270103026556
_journal_volume                  60
_journal_year                    2004
_chemical_formula_iupac          'C12 H13 N3 O6'
_chemical_formula_moiety         'C12 H13 N3 O6'
_chemical_formula_sum            'C12 H13 N3 O6'
_chemical_formula_weight         295.25
_chemical_name_systematic
;
4-nitro-1-(\b-D-ribofuranosyl)-1H-indazole
;
_space_group_IT_number           4
_symmetry_cell_setting           monoclinic
_symmetry_space_group_name_Hall  'P 2yb'
_symmetry_space_group_name_H-M   'P 1 21 1'
_atom_sites_solution_hydrogens   geom
_atom_sites_solution_primary     direct
_atom_sites_solution_secondary   difmap
_audit_creation_method           SHELXL97
_cell_angle_alpha                90
_cell_angle_beta                 102.821(15)
_cell_angle_gamma                90
_cell_formula_units_Z            2
_cell_length_a                   5.8912(11)
_cell_length_b                   10.0825(12)
_cell_length_c                   11.0998(17)
_cell_measurement_reflns_used    30
_cell_measurement_temperature    293(2)
_cell_measurement_theta_max      12.50
_cell_measurement_theta_min      6.07
_cell_volume                     642.87(18)
_computing_cell_refinement       XSCANS
_computing_data_collection       'XSCANS (Siemens, 1996)'
_computing_data_reduction        'SHELXTL (Sheldrick, 1997)'
_computing_molecular_graphics    SHELXTL
_computing_publication_material  'SHELXTL and PLATON (Spek, 1999)'
_computing_structure_refinement  SHELXTL
_computing_structure_solution    SHELXTL
_diffrn_ambient_temperature      293(2)
_diffrn_measured_fraction_theta_full 0.990
_diffrn_measured_fraction_theta_max 0.990
_diffrn_measurement_device_type  'Bruker P4'
_diffrn_measurement_method       2\q/\w
_diffrn_radiation_monochromator  graphite
_diffrn_radiation_source         'fine-focus sealed tube'
_diffrn_radiation_type           MoK\a
_diffrn_radiation_wavelength     0.71073
_diffrn_reflns_av_R_equivalents  0.043
_diffrn_reflns_av_sigmaI/netI    0.047
_diffrn_reflns_limit_h_max       1
_diffrn_reflns_limit_h_min       -8
_diffrn_reflns_limit_k_max       14
_diffrn_reflns_limit_k_min       -1
_diffrn_reflns_limit_l_max       15
_diffrn_reflns_limit_l_min       -15
_diffrn_reflns_number            2712
_diffrn_reflns_theta_full        29.99
_diffrn_reflns_theta_max         29.99
_diffrn_reflns_theta_min         1.88
_diffrn_standards_decay_%        0
_diffrn_standards_interval_count 97
_diffrn_standards_number         3
_exptl_absorpt_coefficient_mu    0.124
_exptl_absorpt_correction_type   none
_exptl_crystal_colour            yellow
_exptl_crystal_density_diffrn    1.525
_exptl_crystal_density_meas      ?
_exptl_crystal_density_method    'not measured'
_exptl_crystal_description       block
_exptl_crystal_F_000             308
_exptl_crystal_size_max          0.6
_exptl_crystal_size_mid          0.4
_exptl_crystal_size_min          0.3
_refine_diff_density_max         0.30
_refine_diff_density_min         -0.28
_refine_ls_extinction_method     none
_refine_ls_goodness_of_fit_ref   1.046
_refine_ls_hydrogen_treatment    mixed
_refine_ls_matrix_type           full
_refine_ls_number_parameters     199
_refine_ls_number_reflns         1960
_refine_ls_number_restraints     4
_refine_ls_restrained_S_all      2.182
_refine_ls_R_factor_all          0.061
_refine_ls_R_factor_gt           0.047
_refine_ls_shift/su_max          0.000
_refine_ls_shift/su_mean         0.000
_refine_ls_structure_factor_coef Fsqd
_refine_ls_weighting_details
'calc w = 1/[\s^2^(Fo^2^)+(0.0654P)^2^+0.0968P] where P=(Fo^2^+2Fc^2^)/3'
_refine_ls_weighting_scheme      calc
_refine_ls_wR_factor_gt          0.116
_refine_ls_wR_factor_ref         0.126
_reflns_number_gt                1659
_reflns_number_total             1960
_reflns_threshold_expression     I>2\s(I)
_cod_data_source_file            sx1127.cif
_cod_data_source_block           I
_cod_depositor_comments
;
The following automatic conversions were performed:
'_symmetry_cell_setting' value 'Monoclinic' changed to 'monoclinic'
according to '/home/saulius/struct/CIF-dictionaries/cif_core.dic'
dictionary named 'cif_core.dic' version 2.4.1 from 2010-06-29.

Automatic conversion script
Id: cif_fix_enum 1527 2010-12-29 10:47:43Z saulius 

The following automatic conversions were performed:

'_symmetry_cell_setting' value 'Monoclinic' changed to 'monoclinic'
according to /home/saulius/struct/CIF-dictionaries/cif_core.dic
dictionary named 'cif_core.dic' version 2.4.1 from 2010-06-29.

Automatic conversion script
Id: cif_fix_values 1715 2011-07-08 13:25:40Z adriana 

The following automatic conversions were performed:

'_exptl_crystal_density_meas' value 'not measured' was changed to '?'
- the value is perceived as not measured.

Automatic conversion script
Id: cif_fix_values 3008 2015-01-20 13:52:24Z robertas 
;
_cod_original_cell_volume        642.87(17)
_cod_original_sg_symbol_H-M      'P 21'
_cod_database_code               2013891
_cod_database_fobs_code          2013891
loop_
_symmetry_equiv_pos_as_xyz
'x, y, z'
'-x, y+1/2, -z'
loop_
_atom_site_label
_atom_site_fract_x
_atom_site_fract_y
_atom_site_fract_z
_atom_site_U_iso_or_equiv
_atom_site_adp_type
_atom_site_calc_flag
_atom_site_refinement_flags
_atom_site_occupancy
_atom_site_disorder_assembly
_atom_site_disorder_group
_atom_site_type_symbol
N1 0.6080(8) 0.6039(5) 0.2903(4) 0.0346(10) Uani d . 1 . . N
N2 0.4098(9) 0.6777(6) 0.2767(5) 0.0397(11) Uani d . 1 . . N
C3 0.2652(10) 0.6334(7) 0.1758(5) 0.0392(12) Uani d . 1 . . C
H3A 0.1166 0.6668 0.1448 0.047 Uiso calc R 1 . . H
C3a 0.3671(10) 0.5285(6) 0.1216(5) 0.0356(11) Uani d . 1 . . C
N4 0.0918(12) 0.4695(7) -0.0746(5) 0.0539(16) Uani d . 1 . . N
C4 0.3107(12) 0.4470(7) 0.0163(6) 0.0444(14) Uani d . 1 . . C
C5 0.4584(15) 0.3499(9) -0.0048(8) 0.060(2) Uani d . 1 . . C
H5A 0.4169 0.2953 -0.0737 0.072 Uiso calc R 1 . . H
C6 0.6748(15) 0.3329(9) 0.0791(7) 0.062(2) Uani d . 1 . . C
H6A 0.7738 0.2660 0.0643 0.074 Uiso calc R 1 . . H
C7 0.7440(13) 0.4113(7) 0.1813(6) 0.0455(15) Uani d . 1 . . C
H7A 0.8872 0.3995 0.2358 0.055 Uiso calc R 1 . . H
C7a 0.5883(10) 0.5102(6) 0.1997(5) 0.0334(11) Uani d . 1 . . C
O41 0.0459(12) 0.3977(8) -0.1664(5) 0.081(2) Uani d . 1 . . O
O42 -0.0332(11) 0.5603(8) -0.0565(5) 0.0720(17) Uani d . 1 . . O
C1' 0.8022(9) 0.6260(5) 0.3942(5) 0.0301(10) Uani d . 1 . . C
H1'A 0.9456 0.5946 0.3727 0.036 Uiso calc R 1 . . H
O2' 1.0679(7) 0.7948(4) 0.4819(5) 0.0402(10) Uani d D 1 . . O
H2'A 1.105(15) 0.875(12) 0.488(9) 0.060 Uiso d . 1 . . H
C2' 0.8311(9) 0.7726(5) 0.4315(5) 0.0302(10) Uani d . 1 . . C
H2'B 0.7707 0.8316 0.3617 0.036 Uiso calc RD 1 . . H
O3' 0.7413(8) 0.8866(4) 0.6129(4) 0.0410(10) Uani d D 1 . . O
H3'A 0.703(17) 0.953(12) 0.575(8) 0.061 Uiso d . 1 . . H
C3' 0.6872(9) 0.7813(5) 0.5308(5) 0.0286(10) Uani d . 1 . . C
H3'B 0.5214 0.7847 0.4907 0.034 Uiso calc RD 1 . . H
O4' 0.7690(7) 0.5565(4) 0.5004(3) 0.0349(9) Uani d . 1 . . O
C4' 0.7416(9) 0.6481(6) 0.5973(5) 0.0306(10) Uani d . 1 . . C
H4'A 0.8900 0.6553 0.6578 0.037 Uiso calc R 1 . . H
O5' 0.3376(8) 0.5771(5) 0.5793(5) 0.0491(11) Uani d D 1 . . O
H5'A 0.274(16) 0.648(6) 0.556(9) 0.074 Uiso d D 1 . . H
C5' 0.5591(11) 0.5946(7) 0.6609(5) 0.0415(13) Uani d . 1 . . C
H5'B 0.6115 0.5101 0.6988 0.050 Uiso calc R 1 . . H
H5'C 0.5426 0.6552 0.7263 0.050 Uiso calc R 1 . . H
loop_
_atom_site_aniso_label
_atom_site_aniso_U_11
_atom_site_aniso_U_22
_atom_site_aniso_U_33
_atom_site_aniso_U_12
_atom_site_aniso_U_13
_atom_site_aniso_U_23
N1 0.035(2) 0.034(2) 0.033(2) 0.005(2) 0.0036(17) -0.0066(19)
N2 0.035(2) 0.042(3) 0.038(2) 0.009(2) 0.0006(18) -0.004(2)
C3 0.035(3) 0.042(3) 0.038(3) 0.002(3) 0.002(2) 0.002(2)
C3a 0.039(3) 0.035(3) 0.031(2) -0.005(2) 0.005(2) 0.001(2)
N4 0.061(4) 0.050(3) 0.043(3) -0.020(3) -0.006(3) -0.001(3)
C4 0.050(3) 0.041(3) 0.038(3) -0.011(3) 0.000(2) -0.005(3)
C5 0.073(5) 0.050(4) 0.050(3) -0.004(4) 0.001(3) -0.022(3)
C6 0.071(5) 0.049(4) 0.063(4) 0.014(4) 0.008(4) -0.020(4)
C7 0.049(3) 0.040(3) 0.045(3) 0.006(3) 0.005(3) -0.007(3)
C7a 0.039(3) 0.029(2) 0.032(2) -0.003(2) 0.007(2) -0.003(2)
O41 0.091(4) 0.084(5) 0.054(3) -0.017(4) -0.015(3) -0.023(3)
O42 0.060(3) 0.070(4) 0.071(3) 0.002(3) -0.019(3) -0.012(3)
C1' 0.029(2) 0.027(2) 0.033(2) 0.001(2) 0.0041(18) -0.003(2)
O2' 0.031(2) 0.027(2) 0.061(3) -0.0036(16) 0.0071(17) -0.0017(19)
C2' 0.031(2) 0.023(2) 0.035(2) 0.001(2) 0.0042(19) 0.000(2)
O3' 0.049(2) 0.0283(19) 0.041(2) 0.0023(19) 0.0009(19) -0.0101(17)
C3' 0.028(2) 0.025(2) 0.029(2) 0.001(2) 0.0003(17) -0.0035(19)
O4' 0.045(2) 0.0225(17) 0.0359(18) 0.0030(17) 0.0057(16) 0.0002(15)
C4' 0.030(2) 0.027(2) 0.031(2) 0.001(2) -0.0006(18) -0.0018(19)
O5' 0.034(2) 0.035(2) 0.073(3) -0.0031(19) 0.004(2) 0.004(2)
C5' 0.042(3) 0.042(3) 0.038(3) -0.005(3) 0.005(2) 0.004(2)
loop_
_atom_type_symbol
_atom_type_description
_atom_type_scat_dispersion_real
_atom_type_scat_dispersion_imag
_atom_type_scat_source
C C 0.0033 0.0000 'International Tables Vol C Tables 4.2.6.8 and 6.1.1.4'
H H 0.0000 0.0000 'International Tables Vol C Tables 4.2.6.8 and 6.1.1.4'
N N 0.0061 0.0000 'International Tables Vol C Tables 4.2.6.8 and 6.1.1.4'
O O 0.0106 0.0000 'International Tables Vol C Tables 4.2.6.8 and 6.1.1.4'
loop_
_geom_angle_atom_site_label_1
_geom_angle_atom_site_label_2
_geom_angle_atom_site_label_3
_geom_angle
_geom_angle_publ_flag
N2 N1 C7a 111.4(5) no
N2 N1 C1' 120.6(4) yes
C7a N1 C1' 127.9(5) yes
C3 N2 N1 106.5(5) no
N2 C3 C3a 110.9(5) no
N2 C3 H3A 124.5 no
C3a C3 H3A 124.5 no
C4 C3a C7a 116.8(6) no
C4 C3a C3 138.2(6) no
C7a C3a C3 105.0(5) no
O42 N4 O41 123.3(7) no
O42 N4 C4 118.2(6) no
O41 N4 C4 118.5(7) no
C5 C4 C3a 121.3(6) no
C5 C4 N4 119.3(6) no
C3a C4 N4 119.4(6) no
C4 C5 C6 119.4(6) no
C4 C5 H5A 120.3 no
C6 C5 H5A 120.3 no
C7 C6 C5 122.4(7) no
C7 C6 H6A 118.8 no
C5 C6 H6A 118.8 no
C6 C7 C7a 116.6(6) no
C6 C7 H7A 121.7 no
C7a C7 H7A 121.7 no
N1 C7a C7 130.4(5) no
N1 C7a C3a 106.2(5) no
C7 C7a C3a 123.4(5) no
O4' C1' N1 110.8(4) no
O4' C1' C2' 106.1(4) no
N1 C1' C2' 112.5(4) no
O4' C1' H1'A 109.1 no
N1 C1' H1'A 109.1 no
C2' C1' H1'A 109.1 no
C2' O2' H2'A 114(6) no
O2' C2' C3' 111.4(4) no
O2' C2' C1' 107.6(4) no
C3' C2' C1' 101.7(4) no
O2' C2' H2'B 111.9 no
C3' C2' H2'B 111.9 no
C1' C2' H2'B 111.9 no
C3' O3' H3'A 108(7) no
O3' C3' C4' 111.1(4) no
O3' C3' C2' 115.6(4) no
C4' C3' C2' 101.9(4) no
O3' C3' H3'B 109.3 no
C4' C3' H3'B 109.3 no
C2' C3' H3'B 109.3 no
C1' O4' C4' 111.0(4) no
O4' C4' C5' 109.1(5) no
O4' C4' C3' 104.3(4) no
C5' C4' C3' 116.3(5) no
O4' C4' H4'A 109.0 no
C5' C4' H4'A 109.0 no
C3' C4' H4'A 109.0 no
C5' O5' H5'A 112(7) no
O5' C5' C4' 113.1(5) no
O5' C5' H5'B 108.9 no
C4' C5' H5'B 108.9 no
O5' C5' H5'C 108.9 no
C4' C5' H5'C 108.9 no
H5'B C5' H5'C 107.8 no
loop_
_geom_bond_atom_site_label_1
_geom_bond_atom_site_label_2
_geom_bond_site_symmetry_2
_geom_bond_distance
_geom_bond_publ_flag
N1 N2 . 1.364(7) no
N1 C7a . 1.366(7) no
N1 C1' . 1.450(6) yes
N2 C3 . 1.325(7) no
C3 C3a . 1.415(9) no
C3 H3A . 0.9300 no
C3a C4 . 1.407(8) no
C3a C7a . 1.408(8) no
N4 O42 . 1.220(10) no
N4 O41 . 1.230(8) no
N4 C4 . 1.468(9) no
C4 C5 . 1.364(11) no
C5 C6 . 1.412(12) no
C5 H5A . 0.9300 no
C6 C7 . 1.369(10) no
C6 H6A . 0.9300 no
C7 C7a . 1.400(9) no
C7 H7A . 0.9300 no
C1' O4' . 1.422(6) no
C1' C2' . 1.534(8) no
C1' H1'A . 0.9800 no
O2' C2' . 1.401(7) no
O2' H2'A . 0.84(12) no
C2' C3' . 1.534(7) no
C2' H2'B . 0.9800 no
O3' C3' . 1.390(6) no
O3' H3'A . 0.80(12) no
C3' C4' . 1.532(8) no
C3' H3'B . 0.9800 no
O4' C4' . 1.453(7) no
C4' C5' . 1.511(9) no
C4' H4'A . 0.9800 no
O5' C5' . 1.425(7) no
O5' H5'A . 0.82(4) no
C5' H5'B . 0.9700 no
C5' H5'C . 0.9700 no
loop_
_geom_hbond_atom_site_label_D
_geom_hbond_atom_site_label_H
_geom_hbond_atom_site_label_A
_geom_hbond_site_symmetry_A
_geom_hbond_distance_DH
_geom_hbond_distance_HA
_geom_hbond_distance_DA
_geom_hbond_angle_DHA
O2' H2'A O4' 2_756 0.84(12) 1.96(12) 2.800(6) 173(9)
O3' H3'A O5' 2_656 0.80(12) 2.09(11) 2.832(7) 154(10)
O5' H5'A O2' 1_455 0.82(4) 1.97(5) 2.784(7) 168(10)
loop_
_geom_torsion_atom_site_label_1
_geom_torsion_atom_site_label_2
_geom_torsion_atom_site_label_3
_geom_torsion_atom_site_label_4
_geom_torsion
_geom_torsion_publ_flag
C7a N1 N2 C3 -1.4(7) no
C1' N1 N2 C3 -179.0(5) yes
N1 N2 C3 C3a 0.3(7) no
N2 C3 C3a C4 -177.0(7) no
N2 C3 C3a C7a 0.9(7) no
C7a C3a C4 C5 3.7(10) no
C3 C3a C4 C5 -178.5(8) no
C7a C3a C4 N4 -174.4(6) no
C3 C3a C4 N4 3.3(12) no
O42 N4 C4 C5 -177.1(8) no
O41 N4 C4 C5 1.5(10) no
O42 N4 C4 C3a 1.1(10) no
O41 N4 C4 C3a 179.7(7) no
C3a C4 C5 C6 -1.6(12) no
N4 C4 C5 C6 176.5(8) no
C4 C5 C6 C7 -0.5(14) no
C5 C6 C7 C7a 0.3(13) no
N2 N1 C7a C7 -177.2(7) no
C1' N1 C7a C7 0.1(10) no
N2 N1 C7a C3a 2.0(6) no
C1' N1 C7a C3a 179.3(5) no
C6 C7 C7a N1 -178.9(7) no
C6 C7 C7a C3a 2.1(10) no
C4 C3a C7a N1 176.7(5) no
C3 C3a C7a N1 -1.7(6) no
C4 C3a C7a C7 -4.0(9) no
C3 C3a C7a C7 177.5(6) no
N2 N1 C1' O4' 83.5(6) yes
C7a N1 C1' O4' -93.6(6) yes
N2 N1 C1' C2' -35.2(7) no
C7a N1 C1' C2' 147.7(5) yes
O4' C1' C2' O2' 88.2(5) no
N1 C1' C2' O2' -150.4(4) no
O4' C1' C2' C3' -28.9(5) yes
N1 C1' C2' C3' 92.4(5) yes
O2' C2' C3' O3' 44.0(6) no
C1' C2' C3' O3' 158.4(4) yes
O2' C2' C3' C4' -76.6(5) no
C1' C2' C3' C4' 37.8(5) yes
N1 C1' O4' C4' -114.4(5) yes
C2' C1' O4' C4' 8.0(5) no
C1' O4' C4' C5' 141.4(5) yes
C1' O4' C4' C3' 16.5(5) yes
O3' C3' C4' O4' -157.5(4) no
C2' C3' C4' O4' -33.8(5) yes
O3' C3' C4' C5' 82.4(6) yes
C2' C3' C4' C5' -153.9(5) no
O4' C4' C5' O5' -59.5(7) yes
C3' C4' C5' O5' 58.0(7) yes
loop_
_cod_related_entry_id
_cod_related_entry_database
_cod_related_entry_code
1 ChemSpider 8192949
