#------------------------------------------------------------------------------
#$Date: 2017-10-13 03:48:21 +0300 (Fri, 13 Oct 2017) $
#$Revision: 201957 $
#$URL: file:///home/coder/svn-repositories/cod/cif/2/01/47/2014786.cif $
#------------------------------------------------------------------------------
#
# This file is available in the Crystallography Open Database (COD),
# http://www.crystallography.net/. The original data for this entry
# were provided by IUCr Journals, http://journals.iucr.org/.
#
# The file may be used within the scientific community so long as
# proper attribution is given to the journal article from which the
# data were obtained.
#
data_2014786
loop_
_publ_author_name
'Domasevitch, Konstantin V.'
'Boldog, Ishtvan'
_publ_section_title
;
 Polar hydrogen-bonded organic chains in 4,4'-bipyrazolium bromide and
 perchlorate monohydrates
;
_journal_issue                   6
_journal_name_full               'Acta Crystallographica Section C'
_journal_page_first              o373
_journal_page_last               o376
_journal_paper_doi               10.1107/S0108270105010887
_journal_volume                  61
_journal_year                    2005
_chemical_formula_iupac          'C6 H7 N4 + , Cl O4 - , H2 O'
_chemical_formula_moiety         'C6 H7 N4 + , Cl O4 - , H2 O'
_chemical_formula_sum            'C6 H9 Cl N4 O5'
_chemical_formula_weight         252.62
_chemical_name_common
;
4,4'-Bipyrazolium perchlorate monohydrate
;
_chemical_name_systematic
;
4-(1H-pyrazol-4-yl)pyrazolium perchlorate monohydrate
;
_space_group_IT_number           2
_symmetry_cell_setting           triclinic
_symmetry_space_group_name_Hall  '-P 1'
_symmetry_space_group_name_H-M   'P -1'
_atom_sites_solution_hydrogens   difmap
_atom_sites_solution_primary     direct
_atom_sites_solution_secondary   difmap
_cell_angle_alpha                69.941(18)
_cell_angle_beta                 70.380(10)
_cell_angle_gamma                65.393(8)
_cell_formula_units_Z            2
_cell_length_a                   7.7691(7)
_cell_length_b                   7.9578(11)
_cell_length_c                   9.826(2)
_cell_measurement_reflns_used    23
_cell_measurement_temperature    223(2)
_cell_measurement_theta_max      14.5
_cell_measurement_theta_min      7.0
_cell_volume                     505.40(14)
_computing_cell_refinement       'CAD-4 EXPRESS'
_computing_data_collection       'CAD-4 EXPRESS (Enraf--Nonius, 1994)'
_computing_data_reduction        'XCAD4 (Harms & Wocadlo, 1995)'
_computing_molecular_graphics    'DIAMOND (Brandenburg, 1999)'
_computing_publication_material  SHELXL97
_computing_structure_refinement  'SHELXL97 (Sheldrick, 1997)'
_computing_structure_solution    'SHELXS97 (Sheldrick, 1997)'
_diffrn_ambient_temperature      223(2)
_diffrn_measured_fraction_theta_full 0.995
_diffrn_measured_fraction_theta_max 0.995
_diffrn_measurement_device_type  'Enraf--Nonius CAD-4'
_diffrn_measurement_method       'non-profiled \w-2\q'
_diffrn_radiation_monochromator  graphite
_diffrn_radiation_source         'fine-focus sealed tube'
_diffrn_radiation_type           MoK\a
_diffrn_radiation_wavelength     0.71073
_diffrn_reflns_av_R_equivalents  0.0192
_diffrn_reflns_av_sigmaI/netI    0.0259
_diffrn_reflns_limit_h_max       10
_diffrn_reflns_limit_h_min       -9
_diffrn_reflns_limit_k_max       10
_diffrn_reflns_limit_k_min       0
_diffrn_reflns_limit_l_max       12
_diffrn_reflns_limit_l_min       -12
_diffrn_reflns_number            2565
_diffrn_reflns_theta_full        27.87
_diffrn_reflns_theta_max         27.87
_diffrn_reflns_theta_min         4.08
_diffrn_standards_decay_%        0
_diffrn_standards_interval_time  120
_diffrn_standards_number         3
_exptl_absorpt_coefficient_mu    0.393
_exptl_absorpt_correction_T_max  0.9255
_exptl_absorpt_correction_T_min  0.8615
_exptl_absorpt_correction_type   psi-scan
_exptl_absorpt_process_details   '(North <i>et al.</i>, 1968)'
_exptl_crystal_colour            colourless
_exptl_crystal_density_diffrn    1.660
_exptl_crystal_description       prism
_exptl_crystal_F_000             260
_exptl_crystal_size_max          0.22
_exptl_crystal_size_mid          0.20
_exptl_crystal_size_min          0.20
_refine_diff_density_max         0.309
_refine_diff_density_min         -0.378
_refine_ls_extinction_method     none
_refine_ls_goodness_of_fit_ref   1.046
_refine_ls_hydrogen_treatment    constr
_refine_ls_matrix_type           full
_refine_ls_number_parameters     145
_refine_ls_number_reflns         2397
_refine_ls_number_restraints     0
_refine_ls_restrained_S_all      1.046
_refine_ls_R_factor_all          0.0589
_refine_ls_R_factor_gt           0.0372
_refine_ls_shift/su_max          0.000
_refine_ls_shift/su_mean         0.000
_refine_ls_structure_factor_coef Fsqd
_refine_ls_weighting_details
'w = 1/[\s^2^(Fo^2^)+(0.0593P)^2^+0.2131P] where P=(Fo^2^+2Fc^2^)/3'
_refine_ls_weighting_scheme      calc
_refine_ls_wR_factor_gt          0.1020
_refine_ls_wR_factor_ref         0.1128
_reflns_number_gt                1830
_reflns_number_total             2397
_reflns_threshold_expression     I>2\s(I)
_cod_data_source_file            dn1085.cif
_cod_data_source_block           II
_cod_depositor_comments
;
The following automatic conversions were performed:
'_symmetry_cell_setting' value 'Triclinic' changed to 'triclinic'
according to '/home/saulius/struct/CIF-dictionaries/cif_core.dic'
dictionary named 'cif_core.dic' version 2.4.1 from 2010-06-29.

Automatic conversion script
Id: cif_fix_enum 1527 2010-12-29 10:47:43Z saulius 

The following automatic conversions were performed:

'_symmetry_cell_setting' value 'Triclinic' changed to 'triclinic'
according to /home/saulius/struct/CIF-dictionaries/cif_core.dic
dictionary named 'cif_core.dic' version 2.4.1 from 2010-06-29.

Automatic conversion script
Id: cif_fix_values 1715 2011-07-08 13:25:40Z adriana 
;
_cod_original_cell_volume        505.43(14)
_cod_database_code               2014786
_cod_database_fobs_code          2014786
loop_
_symmetry_equiv_pos_as_xyz
'x, y, z'
'-x, -y, -z'
loop_
_atom_site_label
_atom_site_fract_x
_atom_site_fract_y
_atom_site_fract_z
_atom_site_U_iso_or_equiv
_atom_site_adp_type
_atom_site_calc_flag
_atom_site_refinement_flags
_atom_site_occupancy
_atom_site_disorder_assembly
_atom_site_disorder_group
_atom_site_type_symbol
Cl1 0.76133(7) -0.19004(7) 0.06074(5) 0.04157(17) Uani d . 1 . . Cl
O1 0.7079(3) 0.2998(3) 0.0908(2) 0.0766(6) Uani d . 1 . . O
H2W 0.8163 0.3155 0.0448 0.092 Uiso d R 1 . . H
H1W 0.7105 0.1989 0.0772 0.092 Uiso d R 1 . . H
O2 0.6339(3) -0.1156(3) 0.1843(2) 0.0837(7) Uani d . 1 . . O
O3 0.6617(4) -0.2516(4) 0.0005(3) 0.0911(7) Uani d . 1 . . O
O4 0.9228(3) -0.3443(3) 0.1090(2) 0.0777(7) Uani d . 1 . . O
O5 0.8271(3) -0.0493(3) -0.0517(2) 0.0877(7) Uani d . 1 . . O
N1 0.4313(2) 0.4759(2) 0.29416(19) 0.0416(4) Uani d . 1 . . N
H1 0.5238 0.4457 0.2132 0.050 Uiso d R 1 . . H
N2 0.4261(2) 0.3676(2) 0.43137(18) 0.0344(3) Uani d . 1 . . N
H2 0.5136 0.2525 0.4590 0.041 Uiso d R 1 . . H
N3 -0.2705(2) 0.9238(2) 0.63927(18) 0.0370(4) Uani d . 1 . . N
H3 -0.3585 0.9549 0.7218 0.044 Uiso d R 1 . . H
N4 -0.2875(2) 1.0257(2) 0.50031(19) 0.0358(4) Uani d . 1 . . N
C1 0.2784(3) 0.6363(3) 0.2950(2) 0.0401(4) Uani d . 1 . . C
H1A 0.2482 0.7383 0.2098 0.048 Uiso d R 1 . . H
C2 0.1698(2) 0.6311(2) 0.43908(18) 0.0265(3) Uani d . 1 . . C
C3 0.2703(2) 0.4576(2) 0.5216(2) 0.0315(4) Uani d . 1 . . C
H3A 0.2324 0.4105 0.6271 0.038 Uiso d R 1 . . H
C4 -0.1084(3) 0.7715(2) 0.6405(2) 0.0343(4) Uani d . 1 . . C
H4A -0.0662 0.6794 0.7266 0.041 Uiso d R 1 . . H
C5 -0.0118(2) 0.7712(2) 0.49424(18) 0.0270(3) Uani d . 1 . . C
C6 -0.1306(2) 0.9337(2) 0.4119(2) 0.0319(4) Uani d . 1 . . C
H6A -0.1019 0.9735 0.3053 0.038 Uiso d R 1 . . H
loop_
_atom_site_aniso_label
_atom_site_aniso_U_11
_atom_site_aniso_U_22
_atom_site_aniso_U_33
_atom_site_aniso_U_12
_atom_site_aniso_U_13
_atom_site_aniso_U_23
Cl1 0.0377(3) 0.0370(3) 0.0285(2) 0.00035(18) -0.00157(17) -0.00460(17)
O1 0.0591(11) 0.0738(13) 0.0799(13) -0.0150(10) 0.0231(10) -0.0459(11)
O2 0.0624(11) 0.0949(15) 0.0467(10) 0.0280(10) -0.0077(8) -0.0348(10)
O3 0.0981(17) 0.1006(17) 0.0937(17) -0.0416(15) -0.0250(14) -0.0326(14)
O4 0.0542(10) 0.0645(11) 0.0510(10) 0.0216(9) -0.0044(8) 0.0011(8)
O5 0.0844(15) 0.0650(12) 0.0780(14) -0.0304(12) -0.0079(12) 0.0210(11)
N1 0.0338(8) 0.0344(8) 0.0388(8) -0.0002(6) 0.0047(6) -0.0144(7)
N2 0.0258(7) 0.0233(7) 0.0447(9) 0.0013(5) -0.0083(6) -0.0086(6)
N3 0.0275(7) 0.0332(8) 0.0402(8) -0.0009(6) 0.0008(6) -0.0169(7)
N4 0.0256(7) 0.0265(7) 0.0472(9) 0.0005(6) -0.0078(6) -0.0115(6)
C1 0.0402(10) 0.0285(8) 0.0322(9) 0.0001(7) -0.0018(8) -0.0055(7)
C2 0.0237(7) 0.0215(7) 0.0287(8) -0.0020(6) -0.0056(6) -0.0068(6)
C3 0.0274(8) 0.0258(8) 0.0325(8) -0.0011(6) -0.0067(7) -0.0064(6)
C4 0.0297(8) 0.0303(8) 0.0331(9) -0.0015(7) -0.0041(7) -0.0100(7)
C5 0.0231(7) 0.0209(7) 0.0319(8) -0.0019(6) -0.0049(6) -0.0085(6)
C6 0.0276(8) 0.0242(8) 0.0357(9) -0.0011(6) -0.0075(7) -0.0068(6)
loop_
_atom_type_symbol
_atom_type_description
_atom_type_scat_dispersion_real
_atom_type_scat_dispersion_imag
_atom_type_scat_source
C C 0.0033 0.0016 'International Tables Vol C Tables 4.2.6.8 and 6.1.1.4'
H H 0.0000 0.0000 'International Tables Vol C Tables 4.2.6.8 and 6.1.1.4'
N N 0.0061 0.0033 'International Tables Vol C Tables 4.2.6.8 and 6.1.1.4'
O O 0.0106 0.0060 'International Tables Vol C Tables 4.2.6.8 and 6.1.1.4'
Cl Cl 0.1484 0.1585 'International Tables Vol C Tables 4.2.6.8 and 6.1.1.4'
loop_
_geom_angle_atom_site_label_1
_geom_angle_atom_site_label_2
_geom_angle_atom_site_label_3
_geom_angle
_geom_angle_publ_flag
O5 Cl1 O2 110.63(15) no
O5 Cl1 O3 107.79(15) no
O2 Cl1 O3 109.65(16) no
O5 Cl1 O4 109.55(14) no
O2 Cl1 O4 108.53(11) no
O3 Cl1 O4 110.70(15) no
H2W O1 H1W 108.2 no
N2 N1 C1 109.35(15) y
N2 N1 H1 125.2 no
C1 N1 H1 125.4 no
C3 N2 N1 108.55(14) y
C3 N2 H2 125.6 no
N1 N2 H2 125.9 no
C4 N3 N4 112.22(15) y
C4 N3 H3 124.0 no
N4 N3 H3 123.8 no
C6 N4 N3 105.09(14) y
N1 C1 C2 108.57(16) y
N1 C1 H1A 125.9 no
C2 C1 H1A 125.5 no
C1 C2 C3 104.40(15) y
C1 C2 C5 128.63(15) y
C3 C2 C5 126.95(15) y
N2 C3 C2 109.13(15) y
N2 C3 H3A 125.6 no
C2 C3 H3A 125.3 no
N3 C4 C5 107.16(16) y
N3 C4 H4A 126.7 no
C5 C4 H4A 126.2 no
C4 C5 C6 104.26(15) y
C4 C5 C2 127.51(15) y
C6 C5 C2 128.22(15) y
N4 C6 C5 111.27(16) y
N4 C6 H6A 124.3 no
C5 C6 H6A 124.4 no
loop_
_geom_bond_atom_site_label_1
_geom_bond_atom_site_label_2
_geom_bond_site_symmetry_2
_geom_bond_distance
_geom_bond_publ_flag
Cl1 O5 . 1.4087(19) no
Cl1 O2 . 1.4154(17) no
Cl1 O3 . 1.419(2) no
Cl1 O4 . 1.4224(17) no
O1 H2W . 0.8500 no
O1 H1W . 0.8500 no
N1 N2 . 1.326(2) y
N1 C1 . 1.334(2) y
N1 H1 . 0.9000 no
N2 C3 . 1.325(2) y
N2 H2 . 0.9000 no
N3 C4 . 1.336(2) y
N3 N4 . 1.346(2) y
N3 H3 . 0.9000 no
N4 C6 . 1.326(2) y
C1 C2 . 1.380(2) y
C1 H1A . 0.9600 no
C2 C3 . 1.391(2) y
C2 C5 . 1.455(2) y
C3 H3A . 0.9600 no
C4 C5 . 1.380(2) y
C4 H4A . 0.9600 no
C5 C6 . 1.403(2) y
C6 H6A . 0.9600 no
loop_
_geom_hbond_atom_site_label_D
_geom_hbond_atom_site_label_H
_geom_hbond_atom_site_label_A
_geom_hbond_site_symmetry_A
_geom_hbond_distance_DH
_geom_hbond_distance_HA
_geom_hbond_distance_DA
_geom_hbond_angle_DHA
_geom_hbond_publ_flag
N1 H1 O1 . 0.90 1.81 2.665(2) 159 yes
N2 H2 N4 1_645 0.90 1.85 2.742(2) 174 yes
N3 H3 O2 2_566 0.90 2.07 2.871(2) 148 yes
O1 H1W O5 . 0.85 2.40 3.193(3) 155 yes
O1 H2W O4 2_755 0.85 2.13 2.966(3) 168 yes
C1 H1A O5 2_665 0.96 2.38 3.297(3) 160 yes
C3 H3A O2 2_656 0.96 2.51 3.267(3) 136 yes
C3 H3A O4 2_656 0.96 2.44 3.386(3) 169 yes
loop_
_geom_torsion_atom_site_label_1
_geom_torsion_atom_site_label_2
_geom_torsion_atom_site_label_3
_geom_torsion_atom_site_label_4
_geom_torsion
_geom_torsion_publ_flag
C1 N1 N2 C3 -0.2(2) no
C4 N3 N4 C6 0.0(2) no
N2 N1 C1 C2 -0.1(2) no
N1 C1 C2 C3 0.2(2) no
N1 C1 C2 C5 -178.22(17) no
N1 N2 C3 C2 0.3(2) no
C1 C2 C3 N2 -0.3(2) no
C5 C2 C3 N2 178.15(17) no
N4 N3 C4 C5 -0.2(2) no
N3 C4 C5 C6 0.3(2) no
N3 C4 C5 C2 -178.57(16) no
C1 C2 C5 C4 -173.36(19) y
C3 C2 C5 C4 8.5(3) no
C1 C2 C5 C6 8.1(3) no
C3 C2 C5 C6 -170.04(18) no
N3 N4 C6 C5 0.2(2) no
C4 C5 C6 N4 -0.3(2) no
C2 C5 C6 N4 178.56(16) no
loop_
_cod_related_entry_id
_cod_related_entry_database
_cod_related_entry_code
1 ChemSpider 21133842
