#------------------------------------------------------------------------------
#$Date: 2017-10-13 03:48:21 +0300 (Fri, 13 Oct 2017) $
#$Revision: 201957 $
#$URL: file:///home/coder/svn-repositories/cod/cif/2/01/41/2014177.cif $
#------------------------------------------------------------------------------
#
# This file is available in the Crystallography Open Database (COD),
# http://www.crystallography.net/. The original data for this entry
# were provided by IUCr Journals, http://journals.iucr.org/.
#
# The file may be used within the scientific community so long as
# proper attribution is given to the journal article from which the
# data were obtained.
#
data_2014177
loop_
_publ_author_name
'Wiedenfeld, David J.'
'Nesterov, Vladimir N.'
'Minton, Mark A.'
'Montoya, Crystal L.'
_publ_section_title
;
 1-Chloro-3,6-dimethoxy-2,5-dimethylbenzene and
 1-chloro-3,6-dimethoxy-2,4-dimethylbenzene
;
_journal_issue                   7
_journal_name_full               'Acta Crystallographica Section C'
_journal_page_first              o536
_journal_page_last               o538
_journal_paper_doi               10.1107/S0108270104013551
_journal_volume                  60
_journal_year                    2004
_chemical_formula_iupac          'C10 H13 Cl O2'
_chemical_formula_moiety         'C10 H13 Cl O2'
_chemical_formula_sum            'C10 H13 Cl O2'
_chemical_formula_weight         200.65
_chemical_melting_point          323
_chemical_name_systematic
;
1-chloro-3,6-dimethoxy-2,4-dimethylbenzene
;
_space_group_IT_number           4
_symmetry_cell_setting           monoclinic
_symmetry_space_group_name_Hall  'P 2yb'
_symmetry_space_group_name_H-M   'P 1 21 1'
_atom_sites_solution_hydrogens   geom
_atom_sites_solution_primary     direct
_atom_sites_solution_secondary   difmap
_audit_creation_method           SHELXL97
_cell_angle_alpha                90
_cell_angle_beta                 103.11(3)
_cell_angle_gamma                90
_cell_formula_units_Z            2
_cell_length_a                   6.0740(12)
_cell_length_b                   9.1250(18)
_cell_length_c                   9.4450(19)
_cell_measurement_reflns_used    24
_cell_measurement_temperature    295(2)
_cell_measurement_theta_max      12
_cell_measurement_theta_min      11
_cell_volume                     509.85(19)
_computing_cell_refinement       'CAD-4 Software'
_computing_data_collection       'CAD-4 Software (Enraf-Nonuis, 1989)'
_computing_data_reduction        'SHELXTL-Plus (Sheldrick, 1994)'
_computing_molecular_graphics    SHELXTL-Plus
_computing_publication_material  SHELXL97
_computing_structure_refinement  'SHELXL97 (Sheldrick, 1997)'
_computing_structure_solution    'SHELXS97 (Sheldrick, 1990)'
_diffrn_ambient_temperature      295(2)
_diffrn_measured_fraction_theta_full 0.994
_diffrn_measured_fraction_theta_max 0.994
_diffrn_measurement_device_type  'Enraf-Nonius CAD-4'
_diffrn_measurement_method       \q/2\q
_diffrn_radiation_monochromator  graphite
_diffrn_radiation_source         'fine-focus sealed tube'
_diffrn_radiation_type           MoK\a
_diffrn_radiation_wavelength     0.71073
_diffrn_reflns_av_R_equivalents  0.0563
_diffrn_reflns_av_sigmaI/netI    0.0370
_diffrn_reflns_limit_h_max       8
_diffrn_reflns_limit_h_min       0
_diffrn_reflns_limit_k_max       12
_diffrn_reflns_limit_k_min       0
_diffrn_reflns_limit_l_max       12
_diffrn_reflns_limit_l_min       -13
_diffrn_reflns_number            1688
_diffrn_reflns_theta_full        29.96
_diffrn_reflns_theta_max         29.96
_diffrn_reflns_theta_min         2.21
_diffrn_standards_decay_%        3
_diffrn_standards_interval_count 97
_diffrn_standards_number         3
_exptl_absorpt_coefficient_mu    0.340
_exptl_absorpt_correction_type   none
_exptl_crystal_colour            colourless
_exptl_crystal_density_diffrn    1.307
_exptl_crystal_density_meas      ?
_exptl_crystal_density_method    'not measured'
_exptl_crystal_description       prism
_exptl_crystal_F_000             212
_exptl_crystal_size_max          0.45
_exptl_crystal_size_mid          0.35
_exptl_crystal_size_min          0.25
_refine_diff_density_max         0.309
_refine_diff_density_min         -0.203
_refine_ls_abs_structure_details 'Flack (1983), with xx Friedel pairs'
_refine_ls_abs_structure_Flack   0.02(13)
_refine_ls_extinction_method     none
_refine_ls_goodness_of_fit_ref   1.073
_refine_ls_hydrogen_treatment    constr
_refine_ls_matrix_type           full
_refine_ls_number_parameters     122
_refine_ls_number_reflns         1559
_refine_ls_number_restraints     1
_refine_ls_restrained_S_all      1.072
_refine_ls_R_factor_all          0.1030
_refine_ls_R_factor_gt           0.0514
_refine_ls_shift/su_max          0.000
_refine_ls_shift/su_mean         0.000
_refine_ls_structure_factor_coef Fsqd
_refine_ls_weighting_details
'calc w = 1/[\s^2^(Fo^2^)+(0.09P)^2^+0.04P] where P=(Fo^2^+2Fc^2^)/3'
_refine_ls_weighting_scheme      calc
_refine_ls_wR_factor_gt          0.1342
_refine_ls_wR_factor_ref         0.1550
_reflns_number_gt                999
_reflns_number_total             1559
_reflns_threshold_expression     I>2\s(I)
_cod_data_source_file            gg1216.cif
_cod_data_source_block           IIIb
_cod_depositor_comments
;
The following automatic conversions were performed:
'_symmetry_cell_setting' value 'Monoclinic' changed to 'monoclinic'
according to '/home/saulius/struct/CIF-dictionaries/cif_core.dic'
dictionary named 'cif_core.dic' version 2.4.1 from 2010-06-29.

Automatic conversion script
Id: cif_fix_enum 1527 2010-12-29 10:47:43Z saulius 

The following automatic conversions were performed:

'_symmetry_cell_setting' value 'Monoclinic' changed to 'monoclinic'
according to /home/saulius/struct/CIF-dictionaries/cif_core.dic
dictionary named 'cif_core.dic' version 2.4.1 from 2010-06-29.

Automatic conversion script
Id: cif_fix_values 1715 2011-07-08 13:25:40Z adriana 

The following automatic conversions were performed:

'_exptl_crystal_density_meas' value 'not measured' was changed to '?'
- the value is perceived as not measured.

Automatic conversion script
Id: cif_fix_values 3008 2015-01-20 13:52:24Z robertas 
;
_cod_original_cell_volume        509.85(18)
_cod_original_sg_symbol_H-M      'P 21'
_cod_database_code               2014177
_cod_database_fobs_code          2014177
loop_
_symmetry_equiv_pos_as_xyz
'x, y, z'
'-x, y+1/2, -z'
loop_
_atom_site_label
_atom_site_fract_x
_atom_site_fract_y
_atom_site_fract_z
_atom_site_U_iso_or_equiv
_atom_site_adp_type
_atom_site_calc_flag
_atom_site_refinement_flags
_atom_site_occupancy
_atom_site_disorder_assembly
_atom_site_disorder_group
_atom_site_type_symbol
Cl1 0.01454(17) 0.57590(14) 0.55551(10) 0.0737(4) Uani d . 1 . . Cl
O1 0.4088(5) 0.3990(3) 0.6443(3) 0.0661(7) Uani d . 1 . . O
O2 0.0608(5) 0.3965(4) 0.0534(3) 0.0696(8) Uani d . 1 . . O
C1 0.1424(6) 0.4760(4) 0.4399(4) 0.0519(8) Uani d . 1 . . C
C2 0.0481(6) 0.4804(4) 0.2909(4) 0.0523(8) Uani d . 1 . . C
C3 0.1549(6) 0.3989(4) 0.2006(3) 0.0539(8) Uani d . 1 . . C
C4 0.3471(7) 0.3168(4) 0.2552(4) 0.0544(9) Uani d . 1 . . C
C5 0.4346(7) 0.3163(4) 0.4042(4) 0.0548(8) Uani d . 1 . . C
H5A 0.5632 0.2612 0.4423 0.066 Uiso calc R 1 . . H
C6 0.3348(6) 0.3958(4) 0.4975(3) 0.0496(7) Uani d . 1 . . C
C7 0.6065(8) 0.3182(6) 0.7079(4) 0.0725(12) Uani d . 1 . . C
H7A 0.6264 0.3175 0.8116 0.109 Uiso calc R 1 . . H
H7B 0.7355 0.3632 0.6829 0.109 Uiso calc R 1 . . H
H7C 0.5913 0.2195 0.6720 0.109 Uiso calc R 1 . . H
C8 0.4604(9) 0.2278(6) 0.1589(5) 0.0772(12) Uani d . 1 . . C
H8A 0.3507 0.1989 0.0734 0.116 Uiso calc R 1 . . H
H8B 0.5270 0.1421 0.2102 0.116 Uiso calc R 1 . . H
H8D 0.5760 0.2855 0.1312 0.116 Uiso calc R 1 . . H
C9 0.1529(10) 0.5040(7) -0.0264(4) 0.0819(13) Uani d . 1 . . C
H9A 0.0944 0.4890 -0.1286 0.123 Uiso calc R 1 . . H
H9D 0.3146 0.4953 -0.0044 0.123 Uiso calc R 1 . . H
H9B 0.1116 0.6000 0.0001 0.123 Uiso calc R 1 . . H
C10 -0.1605(7) 0.5689(8) 0.2295(5) 0.0798(12) Uani d . 1 . . C
H10D -0.2763 0.5448 0.2799 0.120 Uiso calc R 1 . . H
H10A -0.2130 0.5469 0.1280 0.120 Uiso calc R 1 . . H
H10B -0.1256 0.6714 0.2412 0.120 Uiso calc R 1 . . H
loop_
_atom_site_aniso_label
_atom_site_aniso_U_11
_atom_site_aniso_U_22
_atom_site_aniso_U_33
_atom_site_aniso_U_12
_atom_site_aniso_U_13
_atom_site_aniso_U_23
Cl1 0.0816(6) 0.0788(6) 0.0690(5) 0.0149(6) 0.0344(4) 0.0000(6)
O1 0.0833(18) 0.0704(17) 0.0438(11) 0.0164(15) 0.0126(11) -0.0011(13)
O2 0.0820(18) 0.0775(19) 0.0449(11) -0.0243(16) 0.0051(11) 0.0045(13)
C1 0.0601(19) 0.0448(16) 0.0567(18) -0.0053(15) 0.0257(15) 0.0018(14)
C2 0.0535(17) 0.0522(17) 0.0527(16) -0.0067(15) 0.0151(13) 0.0107(15)
C3 0.0621(19) 0.0520(17) 0.0479(16) -0.0153(17) 0.0133(14) 0.0044(15)
C4 0.070(2) 0.0464(17) 0.0500(17) -0.0043(18) 0.0197(16) -0.0037(16)
C5 0.064(2) 0.0494(18) 0.0523(16) 0.0062(16) 0.0152(15) 0.0046(15)
C6 0.0601(19) 0.0443(16) 0.0449(14) -0.0027(15) 0.0132(14) 0.0036(14)
C7 0.069(3) 0.091(3) 0.0546(18) 0.007(3) 0.0082(19) 0.013(2)
C8 0.108(3) 0.074(3) 0.055(2) 0.012(3) 0.028(2) -0.011(2)
C9 0.099(3) 0.092(3) 0.0530(19) -0.019(3) 0.014(2) 0.017(2)
C10 0.063(2) 0.093(3) 0.082(3) 0.009(3) 0.0127(19) 0.018(3)
loop_
_atom_type_symbol
_atom_type_description
_atom_type_scat_dispersion_real
_atom_type_scat_dispersion_imag
_atom_type_scat_source
C C 0.0033 0.0016 'International Tables Vol C Tables 4.2.6.8 and 6.1.1.4'
H H 0.0000 0.0000 'International Tables Vol C Tables 4.2.6.8 and 6.1.1.4'
O O 0.0106 0.0060 'International Tables Vol C Tables 4.2.6.8 and 6.1.1.4'
Cl Cl 0.1484 0.1585 'International Tables Vol C Tables 4.2.6.8 and 6.1.1.4'
loop_
_geom_angle_atom_site_label_1
_geom_angle_atom_site_label_2
_geom_angle_atom_site_label_3
_geom_angle
_geom_angle_publ_flag
C6 O1 C7 118.2(3) yes
C3 O2 C9 113.6(3) yes
C6 C1 C2 122.0(3) no
C6 C1 Cl1 119.3(2) no
C2 C1 Cl1 118.7(3) no
C1 C2 C3 117.3(3) no
C1 C2 C10 121.5(4) no
C3 C2 C10 121.1(3) no
O2 C3 C4 119.3(3) no
O2 C3 C2 118.7(3) no
C4 C3 C2 122.0(3) no
C3 C4 C5 118.5(3) no
C3 C4 C8 122.1(3) no
C5 C4 C8 119.5(4) no
C6 C5 C4 121.5(3) no
C6 C5 H5A 119.3 no
C4 C5 H5A 119.3 no
O1 C6 C1 116.5(3) no
O1 C6 C5 124.8(3) no
C1 C6 C5 118.8(3) no
O1 C7 H7A 109.5 no
O1 C7 H7B 109.5 no
H7A C7 H7B 109.5 no
O1 C7 H7C 109.5 no
H7A C7 H7C 109.5 no
H7B C7 H7C 109.5 no
C4 C8 H8A 109.5 no
C4 C8 H8B 109.5 no
H8A C8 H8B 109.5 no
C4 C8 H8D 109.5 no
H8A C8 H8D 109.5 no
H8B C8 H8D 109.5 no
O2 C9 H9A 109.5 no
O2 C9 H9D 109.5 no
H9A C9 H9D 109.5 no
O2 C9 H9B 109.5 no
H9A C9 H9B 109.5 no
H9D C9 H9B 109.5 no
C2 C10 H10D 109.5 no
C2 C10 H10A 109.5 no
H10D C10 H10A 109.5 no
C2 C10 H10B 109.5 no
H10D C10 H10B 109.5 no
H10A C10 H10B 109.5 no
loop_
_geom_bond_atom_site_label_1
_geom_bond_atom_site_label_2
_geom_bond_site_symmetry_1
_geom_bond_site_symmetry_2
_geom_bond_distance
_geom_bond_publ_flag
Cl1 C1 . . 1.735(4) yes
O1 C6 . . 1.358(4) yes
O1 C7 . . 1.421(5) yes
O2 C3 . . 1.378(4) yes
O2 C9 . . 1.426(5) yes
C1 C6 . . 1.381(5) no
C1 C2 . . 1.394(5) no
C2 C3 . . 1.398(5) no
C2 C10 . . 1.503(6) no
C3 C4 . . 1.385(6) no
C4 C5 . . 1.387(5) no
C4 C8 . . 1.498(5) no
C5 C6 . . 1.383(5) no
C5 H5A . . 0.9300 no
C7 H7A . . 0.9600 no
C7 H7B . . 0.9600 no
C7 H7C . . 0.9600 no
C8 H8A . . 0.9600 no
C8 H8B . . 0.9600 no
C8 H8D . . 0.9600 no
C9 H9A . . 0.9600 no
C9 H9D . . 0.9600 no
C9 H9B . . 0.9600 no
C10 H10D . . 0.9600 no
C10 H10A . . 0.9600 no
C10 H10B . . 0.9600 no
loop_
_geom_torsion_atom_site_label_1
_geom_torsion_atom_site_label_2
_geom_torsion_atom_site_label_3
_geom_torsion_atom_site_label_4
_geom_torsion
_geom_torsion_publ_flag
C6 C1 C2 C3 0.6(5) no
Cl1 C1 C2 C3 180.0(3) no
C6 C1 C2 C10 -179.6(4) no
Cl1 C1 C2 C10 -0.2(5) no
C9 O2 C3 C4 -88.2(5) no
C9 O2 C3 C2 94.0(4) yes
C1 C2 C3 O2 177.5(3) no
C10 C2 C3 O2 -2.3(6) no
C1 C2 C3 C4 -0.2(5) no
C10 C2 C3 C4 -180.0(4) no
O2 C3 C4 C5 -177.7(3) no
C2 C3 C4 C5 0.0(5) no
O2 C3 C4 C8 1.6(5) no
C2 C3 C4 C8 179.2(4) no
C3 C4 C5 C6 -0.3(6) no
C8 C4 C5 C6 -179.5(4) no
C7 O1 C6 C1 -179.9(4) yes
C7 O1 C6 C5 1.7(5) no
C2 C1 C6 O1 -179.3(3) no
Cl1 C1 C6 O1 1.3(4) no
C2 C1 C6 C5 -0.9(5) no
Cl1 C1 C6 C5 179.8(3) no
C4 C5 C6 O1 179.0(4) no
C4 C5 C6 C1 0.7(5) no
loop_
_cod_related_entry_id
_cod_related_entry_database
_cod_related_entry_code
1 ChemSpider 21107601
