#------------------------------------------------------------------------------
#$Date: 2017-10-13 03:48:21 +0300 (Fri, 13 Oct 2017) $
#$Revision: 201957 $
#$URL: file:///home/coder/svn-repositories/cod/cif/2/01/42/2014233.cif $
#------------------------------------------------------------------------------
#
# This file is available in the Crystallography Open Database (COD),
# http://www.crystallography.net/. The original data for this entry
# were provided by IUCr Journals, http://journals.iucr.org/.
#
# The file may be used within the scientific community so long as
# proper attribution is given to the journal article from which the
# data were obtained.
#
data_2014233
loop_
_publ_author_name
'Glidewell, Christopher'
'Low, John N.'
'Skakle, Janet M. S.'
'Wardell, James L.'
_publ_section_title
;
 <i>N</i>-(4-Fluorophenyl)-4-nitrophthalimide: tripartite
 hydrogen-bonded sheets
;
_journal_issue                   7
_journal_name_full               'Acta Crystallographica Section C'
_journal_page_first              o511
_journal_page_last               o513
_journal_paper_doi               10.1107/S0108270104013575
_journal_volume                  60
_journal_year                    2004
_chemical_formula_iupac          'C14 H7 F N2 O4'
_chemical_formula_moiety         'C14 H7 F N2 O4'
_chemical_formula_sum            'C14 H7 F N2 O4'
_chemical_formula_weight         286.22
_chemical_name_systematic
;
N-(4-Fluorophenyl)-4-nitrophthalimide
;
_space_group_IT_number           4
_symmetry_cell_setting           monoclinic
_symmetry_space_group_name_Hall  'P 2yb'
_symmetry_space_group_name_H-M   'P 1 21 1'
_atom_sites_solution_hydrogens   geom
_atom_sites_solution_primary     direct
_atom_sites_solution_secondary   difmap
_cell_angle_alpha                90.00
_cell_angle_beta                 90.118(11)
_cell_angle_gamma                90.00
_cell_formula_units_Z            2
_cell_length_a                   3.7492(13)
_cell_length_b                   6.9376(14)
_cell_length_c                   23.099(8)
_cell_measurement_reflns_used    1099
_cell_measurement_temperature    120(2)
_cell_measurement_theta_max      25.00
_cell_measurement_theta_min      3.53
_cell_volume                     600.8(3)
_computing_cell_refinement
'DENZO (Otwinowski & Minor, 1997) and COLLECT'
_computing_data_collection       'COLLECT (Hooft, 1999)'
_computing_data_reduction        'DENZO and COLLECT'
_computing_molecular_graphics    'PLATON (Spek, 2003)'
_computing_publication_material  'SHELXL97 and PRPKAPPA (Ferguson, 1999)'
_computing_structure_refinement  'OSCAIL and SHELXL97 (Sheldrick, 1997)'
_computing_structure_solution
'OSCAIL (McArdle, 2003) and SHELXS97 (Sheldrick, 1997)'
_diffrn_ambient_temperature      120(2)
_diffrn_detector_area_resol_mean 9.091
_diffrn_measured_fraction_theta_full 0.944
_diffrn_measured_fraction_theta_max 0.944
_diffrn_measurement_device_type
'Bruker-Nonius 95mm CCD camera on \k-goniostat'
_diffrn_measurement_method       '\f and \w'
_diffrn_radiation_monochromator  graphite
_diffrn_radiation_source         'Bruker-Nonius FR591 rotating anode'
_diffrn_radiation_type           'Mo K\a'
_diffrn_radiation_wavelength     0.71073
_diffrn_reflns_av_R_equivalents  0.1136
_diffrn_reflns_av_sigmaI/netI    0.1096
_diffrn_reflns_limit_h_max       4
_diffrn_reflns_limit_h_min       -4
_diffrn_reflns_limit_k_max       7
_diffrn_reflns_limit_k_min       -7
_diffrn_reflns_limit_l_max       27
_diffrn_reflns_limit_l_min       -27
_diffrn_reflns_number            4455
_diffrn_reflns_theta_full        25.00
_diffrn_reflns_theta_max         25.00
_diffrn_reflns_theta_min         3.53
_diffrn_standards_decay_%        negligible
_exptl_absorpt_coefficient_mu    0.129
_exptl_absorpt_correction_T_max  0.997
_exptl_absorpt_correction_T_min  0.976
_exptl_absorpt_correction_type   multi-scan
_exptl_absorpt_process_details   '(SADABS; Sheldrick, 2003)'
_exptl_crystal_colour            yellow
_exptl_crystal_density_diffrn    1.582
_exptl_crystal_density_meas      ?
_exptl_crystal_density_method    'not measured'
_exptl_crystal_description       plate
_exptl_crystal_F_000             292
_exptl_crystal_size_max          0.15
_exptl_crystal_size_mid          0.08
_exptl_crystal_size_min          0.02
_refine_diff_density_max         0.263
_refine_diff_density_min         -0.237
_refine_ls_extinction_method     none
_refine_ls_goodness_of_fit_ref   1.056
_refine_ls_hydrogen_treatment    constr
_refine_ls_matrix_type           full
_refine_ls_number_parameters     190
_refine_ls_number_reflns         1099
_refine_ls_number_restraints     1
_refine_ls_restrained_S_all      1.055
_refine_ls_R_factor_all          0.1188
_refine_ls_R_factor_gt           0.0701
_refine_ls_shift/su_max          0.000
_refine_ls_shift/su_mean         0.000
_refine_ls_structure_factor_coef Fsqd
_refine_ls_weighting_details
'w = 1/[\s^2^(Fo^2^)+(0.0761P)^2^] where P=(Fo^2^+2Fc^2^)/3'
_refine_ls_weighting_scheme      calc
_refine_ls_wR_factor_gt          0.1343
_refine_ls_wR_factor_ref         0.1539
_reflns_number_gt                757
_reflns_number_total             1099
_reflns_threshold_expression     I>2\s(I)
_cod_data_source_file            sk1736.cif
_cod_data_source_block           I
_cod_depositor_comments
;
The following automatic conversions were performed:

'_exptl_crystal_density_meas' value 'not measured' was changed to '?'
- the value is perceived as not measured.

Automatic conversion script
Id: cif_fix_values 3008 2015-01-20 13:52:24Z robertas 
;
_cod_original_sg_symbol_H-M      'P 21'
_cod_database_code               2014233
_cod_database_fobs_code          2014233
loop_
_symmetry_equiv_pos_as_xyz
'x, y, z'
'-x, y+1/2, -z'
loop_
_atom_site_label
_atom_site_fract_x
_atom_site_fract_y
_atom_site_fract_z
_atom_site_U_iso_or_equiv
_atom_site_adp_type
_atom_site_calc_flag
_atom_site_refinement_flags
_atom_site_occupancy
_atom_site_disorder_assembly
_atom_site_disorder_group
_atom_site_type_symbol
N1 0.8373(15) 0.5621(8) 0.2351(2) 0.0324(14) Uani d . 1 . . N
C1 0.693(2) 0.6393(11) 0.2848(3) 0.0344(17) Uani d . 1 . . C
O1 0.5499(14) 0.7969(7) 0.2890(2) 0.0426(13) Uani d . 1 . . O
C2 0.9774(19) 0.3779(12) 0.2444(3) 0.0366(19) Uani d . 1 . . C
O2 1.1382(14) 0.2786(7) 0.2098(2) 0.0411(13) Uani d . 1 . . O
C3 0.901(2) 0.3314(10) 0.3067(3) 0.0381(19) Uani d . 1 . . C
C4 0.974(2) 0.1666(11) 0.3377(3) 0.0356(18) Uani d . 1 . . C
C5 0.862(2) 0.1736(11) 0.3950(3) 0.0354(18) Uani d . 1 . . C
N5 0.9341(16) 0.0010(9) 0.4310(3) 0.0413(16) Uani d . 1 . . N
O51 0.7959(16) -0.0063(9) 0.4793(2) 0.0536(15) Uani d . 1 . . O
O52 1.1204(16) -0.1251(7) 0.4115(2) 0.0524(15) Uani d . 1 . . O
C6 0.703(2) 0.3298(11) 0.4214(3) 0.040(2) Uani d . 1 . . C
C7 0.633(2) 0.4936(12) 0.3887(3) 0.0397(18) Uani d . 1 . . C
C8 0.733(2) 0.4914(11) 0.3306(3) 0.0400(19) Uani d . 1 . . C
C11 0.836(2) 0.6548(11) 0.1781(3) 0.0364(18) Uani d . 1 . . C
C12 0.712(2) 0.5539(11) 0.1311(3) 0.0379(18) Uani d . 1 . . C
C13 0.708(2) 0.6435(12) 0.0778(3) 0.044(2) Uani d . 1 . . C
C14 0.833(2) 0.8282(12) 0.0739(3) 0.043(2) Uani d . 1 . . C
F14 0.8358(13) 0.9151(6) 0.02062(18) 0.0593(14) Uani d . 1 . . F
C15 0.958(2) 0.9307(11) 0.1198(3) 0.046(2) Uani d . 1 . . C
C16 0.965(2) 0.8390(10) 0.1744(3) 0.042(2) Uani d . 1 . . C
H1 1.0388 1.0597 0.1153 0.055 Uiso calc R 1 . . H
H4 1.0912 0.0579 0.3214 0.043 Uiso calc R 1 . . H
H6 0.6415 0.3254 0.4612 0.049 Uiso calc R 1 . . H
H7 0.5217 0.6034 0.4053 0.048 Uiso calc R 1 . . H
H12 0.6303 0.4249 0.1351 0.046 Uiso calc R 1 . . H
H13 0.6212 0.5783 0.0445 0.053 Uiso calc R 1 . . H
H16 1.0557 0.9033 0.2076 0.050 Uiso calc R 1 . . H
loop_
_atom_site_aniso_label
_atom_site_aniso_U_11
_atom_site_aniso_U_22
_atom_site_aniso_U_33
_atom_site_aniso_U_12
_atom_site_aniso_U_13
_atom_site_aniso_U_23
N1 0.025(3) 0.039(4) 0.033(3) -0.002(3) 0.001(3) 0.005(3)
C1 0.034(4) 0.029(4) 0.041(4) -0.004(3) -0.001(3) -0.007(3)
O1 0.050(4) 0.036(3) 0.042(3) 0.002(3) 0.000(2) -0.004(2)
C2 0.025(4) 0.045(5) 0.040(4) -0.007(4) 0.001(3) 0.000(4)
O2 0.047(3) 0.035(3) 0.042(3) -0.003(3) 0.007(3) -0.004(2)
C3 0.048(5) 0.028(5) 0.038(4) -0.003(3) 0.006(4) -0.002(3)
C4 0.030(5) 0.036(4) 0.041(5) -0.004(3) 0.003(3) -0.003(4)
C5 0.025(4) 0.038(4) 0.044(5) -0.003(3) 0.003(3) 0.001(4)
N5 0.039(4) 0.040(4) 0.045(4) -0.007(3) 0.000(3) 0.002(3)
O51 0.063(4) 0.057(4) 0.042(3) 0.007(3) 0.014(3) 0.012(3)
O52 0.061(4) 0.040(3) 0.056(4) 0.013(3) 0.010(3) 0.002(3)
C6 0.045(5) 0.047(5) 0.029(4) 0.007(4) 0.000(3) -0.004(3)
C7 0.037(5) 0.048(5) 0.035(4) 0.007(4) 0.004(3) -0.007(4)
C8 0.042(5) 0.039(4) 0.039(4) -0.004(4) -0.008(4) 0.003(4)
C11 0.034(5) 0.042(5) 0.033(4) -0.001(4) 0.003(3) 0.004(3)
C12 0.041(5) 0.034(4) 0.039(4) 0.001(3) 0.000(3) -0.003(3)
C13 0.044(5) 0.044(5) 0.045(5) 0.001(4) 0.004(4) -0.003(4)
C14 0.048(5) 0.050(6) 0.030(4) 0.009(4) -0.003(4) 0.003(4)
F14 0.073(4) 0.066(3) 0.039(3) -0.002(3) 0.003(2) 0.011(2)
C15 0.057(6) 0.035(5) 0.046(5) 0.001(4) -0.001(4) 0.011(3)
C16 0.049(6) 0.034(5) 0.042(4) 0.004(3) -0.004(4) 0.003(3)
loop_
_atom_type_symbol
_atom_type_description
_atom_type_scat_dispersion_real
_atom_type_scat_dispersion_imag
_atom_type_scat_source
C C 0.0033 0.0016 'International Tables Vol C Tables 4.2.6.8 and 6.1.1.4'
H H 0.0000 0.0000 'International Tables Vol C Tables 4.2.6.8 and 6.1.1.4'
F F 0.0171 0.0103 'International Tables Vol C Tables 4.2.6.8 and 6.1.1.4'
N N 0.0061 0.0033 'International Tables Vol C Tables 4.2.6.8 and 6.1.1.4'
O O 0.0106 0.0060 'International Tables Vol C Tables 4.2.6.8 and 6.1.1.4'
loop_
_geom_angle_atom_site_label_1
_geom_angle_atom_site_label_2
_geom_angle_atom_site_label_3
_geom_angle
_geom_angle_publ_flag
C1 N1 C2 112.1(6) no
C1 N1 C11 125.2(6) no
C2 N1 C11 122.7(6) no
O1 C1 N1 125.9(7) no
O1 C1 C8 127.4(7) no
N1 C1 C8 106.6(6) no
O2 C2 N1 127.1(7) no
O2 C2 C3 127.1(7) no
N1 C2 C3 105.7(6) no
C4 C3 C8 123.0(7) no
C4 C3 C2 129.7(7) no
C8 C3 C2 107.3(6) no
C3 C4 C5 113.9(7) no
C3 C4 H4 123.0 no
C5 C4 H4 123.0 no
C6 C5 C4 125.5(7) no
C6 C5 N5 117.7(6) no
C4 C5 N5 116.7(7) no
O52 N5 O51 123.6(6) no
O52 N5 C5 118.8(6) no
O51 N5 C5 117.7(6) no
C5 C6 C7 118.9(7) no
C5 C6 H6 120.6 no
C7 C6 H6 120.6 no
C6 C7 C8 117.6(7) no
C6 C7 H7 121.2 no
C8 C7 H7 121.2 no
C7 C8 C3 121.0(7) no
C7 C8 C1 130.8(7) no
C3 C8 C1 108.2(6) no
C16 C11 C12 123.0(7) no
C16 C11 N1 117.7(7) no
C12 C11 N1 119.2(7) no
C11 C12 C13 118.6(7) no
C11 C12 H12 120.7 no
C13 C12 H12 120.7 no
C14 C13 C12 118.6(7) no
C14 C13 H13 120.7 no
C12 C13 H13 120.7 no
C15 C14 C13 123.9(7) no
C15 C14 F14 117.8(7) no
C13 C14 F14 118.3(7) no
C14 C15 C16 117.7(7) no
C14 C15 H1 121.1 no
C16 C15 H1 121.1 no
C11 C16 C15 118.1(7) no
C11 C16 H16 120.9 no
C15 C16 H16 120.9 no
loop_
_geom_bond_atom_site_label_1
_geom_bond_atom_site_label_2
_geom_bond_site_symmetry_2
_geom_bond_distance
_geom_bond_publ_flag
N1 C1 . 1.378(9) no
N1 C2 . 1.398(10) no
N1 C11 . 1.465(9) no
C1 O1 . 1.221(9) no
C1 C8 . 1.482(10) no
C2 O2 . 1.216(9) no
C2 C3 . 1.502(10) no
C3 C4 . 1.377(10) no
C3 C8 . 1.392(10) no
C4 C5 . 1.391(9) no
C4 H4 . 0.95 no
C5 C6 . 1.379(10) no
C5 N5 . 1.483(10) no
N5 O52 . 1.208(8) no
N5 O51 . 1.233(7) no
C6 C7 . 1.389(11) no
C6 H6 . 0.95 no
C7 C8 . 1.392(10) no
C7 H7 . 0.95 no
C11 C16 . 1.369(11) no
C11 C12 . 1.373(10) no
C12 C13 . 1.379(10) no
C12 H12 . 0.95 no
C13 C14 . 1.366(12) no
C13 H13 . 0.95 no
C14 C15 . 1.360(10) no
C14 F14 . 1.372(8) no
C15 C16 . 1.412(10) no
C15 H1 . 0.95 no
C16 H16 . 0.95 no
loop_
_geom_hbond_atom_site_label_D
_geom_hbond_atom_site_label_H
_geom_hbond_atom_site_label_A
_geom_hbond_site_symmetry_A
_geom_hbond_distance_DH
_geom_hbond_distance_HA
_geom_hbond_distance_DA
_geom_hbond_angle_DHA
_geom_hbond_publ_flag
C6 H6 O51 2_656 0.95 2.44 3.173(9) 134 y
C7 H7 O52 1_465 0.95 2.42 3.313(10) 157 y
C13 H13 F14 2_645 0.95 2.54 3.438(9) 157 y
loop_
_geom_torsion_atom_site_label_1
_geom_torsion_atom_site_label_2
_geom_torsion_atom_site_label_3
_geom_torsion_atom_site_label_4
_geom_torsion
_geom_torsion_publ_flag
C2 N1 C1 O1 -179.3(7) no
C11 N1 C1 O1 -1.6(11) no
C2 N1 C1 C8 -1.5(7) no
C11 N1 C1 C8 176.2(6) no
C1 N1 C2 O2 -175.7(7) no
C11 N1 C2 O2 6.6(11) no
C1 N1 C2 C3 2.1(7) no
C11 N1 C2 C3 -175.6(6) no
O2 C2 C3 C4 -3.9(13) no
N1 C2 C3 C4 178.3(7) no
O2 C2 C3 C8 175.9(7) no
N1 C2 C3 C8 -1.9(7) no
C8 C3 C4 C5 0.7(10) no
C2 C3 C4 C5 -179.5(7) no
C3 C4 C5 C6 -2.5(10) no
C3 C4 C5 N5 -179.6(7) no
C6 C5 N5 O52 -168.8(7) no
C4 C5 N5 O52 8.6(9) no
C6 C5 N5 O51 12.0(10) no
C4 C5 N5 O51 -170.6(6) no
C4 C5 C6 C7 2.6(11) no
N5 C5 C6 C7 179.7(7) no
C5 C6 C7 C8 -0.7(11) no
C6 C7 C8 C3 -1.0(10) no
C6 C7 C8 C1 179.2(7) no
C4 C3 C8 C7 1.0(11) no
C2 C3 C8 C7 -178.9(7) no
C4 C3 C8 C1 -179.1(7) no
C2 C3 C8 C1 1.0(8) no
O1 C1 C8 C7 -2.2(13) no
N1 C1 C8 C7 -179.9(7) no
O1 C1 C8 C3 177.9(7) no
N1 C1 C8 C3 0.2(8) no
C1 N1 C11 C16 52.6(10) no
C2 N1 C11 C16 -130.0(7) no
C1 N1 C11 C12 -128.4(8) no
C2 N1 C11 C12 49.0(10) no
C16 C11 C12 C13 -1.7(12) no
N1 C11 C12 C13 179.3(7) no
C11 C12 C13 C14 0.9(11) no
C12 C13 C14 C15 -0.6(13) no
C12 C13 C14 F14 178.6(7) no
C13 C14 C15 C16 1.0(13) no
F14 C14 C15 C16 -178.2(7) no
C12 C11 C16 C15 2.1(12) no
N1 C11 C16 C15 -178.9(7) no
C14 C15 C16 C11 -1.7(12) no
loop_
_cod_related_entry_id
_cod_related_entry_database
_cod_related_entry_code
1 ChemSpider 729647
