#------------------------------------------------------------------------------
#$Date: 2016-02-20 00:18:51 +0200 (Sat, 20 Feb 2016) $
#$Revision: 176760 $
#$URL: svn://www.crystallography.net/cod/cif/2/01/42/2014259.cif $
#------------------------------------------------------------------------------
#
# This file is available in the Crystallography Open Database (COD),
# http://www.crystallography.net/. The original data for this entry
# were provided by IUCr Journals, http://journals.iucr.org/.
#
# The file may be used within the scientific community so long as
# proper attribution is given to the journal article from which the
# data were obtained.
#
data_2014259
loop_
_publ_author_name
'Nesterova, Svitlana V.'
'Wiedenfeld, David J.'
'Nesterov, Vladimir N.'
_publ_section_title
;
 5-Acetyl-2-amino-6-methyl-4-(1-naphthyl)-4<i>H</i>-pyran-3-carbonitrile,
 methyl
 6-amino-5-cyano-2-methyl-4-(1-naphthyl)-4<i>H</i>-pyran-3-carboxylate
 and <i>tert</i>-butyl
 6-amino-5-cyano-2-methyl-4-(1-naphthyl)-4<i>H</i>-pyran-3-carboxylate
;
_journal_issue                   8
_journal_name_full               'Acta Crystallographica Section C'
_journal_page_first              o559
_journal_page_last               o563
_journal_paper_doi               10.1107/S0108270104013812
_journal_volume                  60
_journal_year                    2004
_chemical_formula_iupac          'C19 H16 N2 O3'
_chemical_formula_moiety         'C19 H16 N2 O3'
_chemical_formula_sum            'C19 H16 N2 O3'
_chemical_formula_weight         320.34
_chemical_name_systematic
;
methyl 6-amino-5-cyano-2-methyl-4-(1-naphthyl)-4H-pyran-3-carboxylate
;
_space_group_IT_number           2
_symmetry_cell_setting           triclinic
_symmetry_space_group_name_Hall  '-P 1'
_symmetry_space_group_name_H-M   'P -1'
_atom_sites_solution_hydrogens   geom
_atom_sites_solution_primary     direct
_atom_sites_solution_secondary   difmap
_audit_creation_method           SHELXL97
_cell_angle_alpha                112.38(3)
_cell_angle_beta                 96.66(3)
_cell_angle_gamma                103.83(3)
_cell_formula_units_Z            2
_cell_length_a                   8.3150(17)
_cell_length_b                   10.283(2)
_cell_length_c                   10.793(2)
_cell_measurement_reflns_used    24
_cell_measurement_temperature    295(2)
_cell_measurement_theta_max      12
_cell_measurement_theta_min      11
_cell_volume                     806.3(4)
_computing_cell_refinement       'CAD-4 Software'
_computing_data_collection       'CAD-4 Software (Enraf-Nonuis, 1989)'
_computing_data_reduction        'SHELXTL-Plus (Sheldrick, 1994)'
_computing_molecular_graphics    SHELXTL-Plus
_computing_publication_material  SHELXL97
_computing_structure_refinement  'SHELXL97 (Sheldrick, 1997)'
_computing_structure_solution    'SHELXS97 (Sheldrick, 1990)'
_diffrn_ambient_temperature      295(2)
_diffrn_measured_fraction_theta_full 0.990
_diffrn_measured_fraction_theta_max 0.990
_diffrn_measurement_device_type  'Enraf-Nonius CAD-4'
_diffrn_measurement_method       \q/2\q
_diffrn_radiation_monochromator  graphite
_diffrn_radiation_source         'fine-focus sealed tube'
_diffrn_radiation_type           MoK\a
_diffrn_radiation_wavelength     0.71073
_diffrn_reflns_av_R_equivalents  0.0457
_diffrn_reflns_av_sigmaI/netI    0.0662
_diffrn_reflns_limit_h_max       10
_diffrn_reflns_limit_h_min       0
_diffrn_reflns_limit_k_max       13
_diffrn_reflns_limit_k_min       -13
_diffrn_reflns_limit_l_max       14
_diffrn_reflns_limit_l_min       -14
_diffrn_reflns_number            4108
_diffrn_reflns_theta_full        27.97
_diffrn_reflns_theta_max         27.97
_diffrn_reflns_theta_min         2.10
_diffrn_standards_decay_%        3
_diffrn_standards_interval_count 97
_diffrn_standards_number         3
_exptl_absorpt_coefficient_mu    0.091
_exptl_absorpt_correction_type   none
_exptl_crystal_colour            colourless
_exptl_crystal_density_diffrn    1.319
_exptl_crystal_density_meas      ?
_exptl_crystal_density_method    'not measured'
_exptl_crystal_description       prism
_exptl_crystal_F_000             336
_exptl_crystal_size_max          0.45
_exptl_crystal_size_mid          0.40
_exptl_crystal_size_min          0.25
_refine_diff_density_max         0.204
_refine_diff_density_min         -0.181
_refine_ls_extinction_method     none
_refine_ls_goodness_of_fit_ref   1.018
_refine_ls_hydrogen_treatment    constr
_refine_ls_matrix_type           full
_refine_ls_number_parameters     219
_refine_ls_number_reflns         3841
_refine_ls_number_restraints     0
_refine_ls_restrained_S_all      1.018
_refine_ls_R_factor_all          0.1447
_refine_ls_R_factor_gt           0.0549
_refine_ls_shift/su_max          0.000
_refine_ls_shift/su_mean         0.000
_refine_ls_structure_factor_coef Fsqd
_refine_ls_weighting_details
'calc w = 1/[\s^2^(Fo^2^)+(0.08P)^2^+0.1P] where P=(Fo^2^+2Fc^2^)/3'
_refine_ls_weighting_scheme      calc
_refine_ls_wR_factor_gt          0.1371
_refine_ls_wR_factor_ref         0.1718
_reflns_number_gt                1923
_reflns_number_total             3841
_reflns_threshold_expression     I>2\s(I)
_cod_data_source_file            sq1162.cif
_cod_data_source_block           IIIb
_cod_depositor_comments
;
The following automatic conversions were performed:
'_symmetry_cell_setting' value 'Triclinic' changed to 'triclinic'
according to '/home/saulius/struct/CIF-dictionaries/cif_core.dic'
dictionary named 'cif_core.dic' version 2.4.1 from 2010-06-29.

Automatic conversion script
Id: cif_fix_enum 1527 2010-12-29 10:47:43Z saulius 

The following automatic conversions were performed:

'_symmetry_cell_setting' value 'Triclinic' changed to 'triclinic'
according to /home/saulius/struct/CIF-dictionaries/cif_core.dic
dictionary named 'cif_core.dic' version 2.4.1 from 2010-06-29.

Automatic conversion script
Id: cif_fix_values 1715 2011-07-08 13:25:40Z adriana 

The following automatic conversions were performed:

'_exptl_crystal_density_meas' value 'not measured' was changed to '?'
- the value is perceived as not measured.

Automatic conversion script
Id: cif_fix_values 3008 2015-01-20 13:52:24Z robertas 
;
_cod_original_sg_symbol_H-M      P-1
_cod_database_code               2014259
_cod_database_fobs_code          2014259
loop_
_symmetry_equiv_pos_as_xyz
'x, y, z'
'-x, -y, -z'
loop_
_atom_site_label
_atom_site_fract_x
_atom_site_fract_y
_atom_site_fract_z
_atom_site_U_iso_or_equiv
_atom_site_adp_type
_atom_site_calc_flag
_atom_site_refinement_flags
_atom_site_occupancy
_atom_site_disorder_assembly
_atom_site_disorder_group
_atom_site_type_symbol
O1 0.9099(2) 0.2278(2) 0.46612(17) 0.0539(5) Uani d . 1 . . O
O2 0.3788(2) 0.3042(2) 0.51011(19) 0.0635(6) Uani d . 1 . . O
O3 0.4910(3) 0.2187(2) 0.6480(2) 0.0704(6) Uani d . 1 . . O
N1 1.0744(3) 0.2997(3) 0.3417(2) 0.0624(7) Uani d . 1 . . N
H1A 1.0995 0.3368 0.2846 0.075 Uiso calc R 1 . . H
H1B 1.1450 0.2658 0.3751 0.075 Uiso calc R 1 . . H
N2 0.8599(4) 0.4766(3) 0.1825(3) 0.0884(9) Uani d . 1 . . N
C1 0.8332(3) 0.4164(3) 0.2508(3) 0.0526(6) Uani d . 1 . . C
C2 0.9254(3) 0.2946(3) 0.3787(2) 0.0437(6) Uani d . 1 . . C
C3 0.8017(3) 0.3424(3) 0.3365(2) 0.0402(5) Uani d . 1 . . C
C4 0.6288(3) 0.3089(2) 0.3695(2) 0.0369(5) Uani d . 1 . . C
H4A 0.5965 0.3998 0.3998 0.044 Uiso calc R 1 . . H
C5 0.6411(3) 0.2633(2) 0.4869(2) 0.0387(5) Uani d . 1 . . C
C6 0.7738(3) 0.2256(3) 0.5283(2) 0.0438(6) Uani d . 1 . . C
C7 0.4930(3) 0.1905(2) 0.2419(2) 0.0363(5) Uani d . 1 . . C
C8 0.4765(3) 0.0452(3) 0.2074(2) 0.0467(6) Uani d . 1 . . C
H8A 0.5469 0.0206 0.2625 0.056 Uiso calc R 1 . . H
C9 0.3565(3) -0.0688(3) 0.0910(3) 0.0563(7) Uani d . 1 . . C
H9A 0.3491 -0.1670 0.0691 0.068 Uiso calc R 1 . . H
C10 0.2520(3) -0.0344(3) 0.0111(3) 0.0554(7) Uani d . 1 . . C
H10A 0.1717 -0.1100 -0.0651 0.066 Uiso calc R 1 . . H
C11 0.2624(3) 0.1132(3) 0.0410(2) 0.0466(6) Uani d . 1 . . C
C12 0.1510(3) 0.1502(4) -0.0400(3) 0.0608(8) Uani d . 1 . . C
H12A 0.0693 0.0749 -0.1154 0.073 Uiso calc R 1 . . H
C13 0.1605(4) 0.2921(4) -0.0104(3) 0.0679(8) Uani d . 1 . . C
H13A 0.0849 0.3137 -0.0644 0.082 Uiso calc R 1 . . H
C14 0.2846(4) 0.4066(4) 0.1019(3) 0.0625(7) Uani d . 1 . . C
H14A 0.2927 0.5044 0.1208 0.075 Uiso calc R 1 . . H
C15 0.3936(3) 0.3763(3) 0.1838(3) 0.0484(6) Uani d . 1 . . C
H15A 0.4747 0.4540 0.2581 0.058 Uiso calc R 1 . . H
C16 0.3861(3) 0.2294(3) 0.1584(2) 0.0392(5) Uani d . 1 . . C
C17 0.8077(4) 0.1729(4) 0.6371(3) 0.0663(8) Uani d . 1 . . C
H17A 0.7023 0.1337 0.6573 0.100 Uiso calc R 1 . . H
H17B 0.8816 0.2540 0.7190 0.100 Uiso calc R 1 . . H
H17C 0.8612 0.0970 0.6049 0.100 Uiso calc R 1 . . H
C18 0.4921(3) 0.2634(3) 0.5476(2) 0.0447(6) Uani d . 1 . . C
C19 0.3464(5) 0.2224(4) 0.7114(4) 0.0893(12) Uani d . 1 . . C
H19A 0.3664 0.2024 0.7907 0.134 Uiso calc R 1 . . H
H19B 0.2457 0.1489 0.6464 0.134 Uiso calc R 1 . . H
H19C 0.3314 0.3184 0.7388 0.134 Uiso calc R 1 . . H
loop_
_atom_site_aniso_label
_atom_site_aniso_U_11
_atom_site_aniso_U_22
_atom_site_aniso_U_33
_atom_site_aniso_U_12
_atom_site_aniso_U_13
_atom_site_aniso_U_23
O1 0.0389(9) 0.0852(13) 0.0548(11) 0.0298(9) 0.0146(8) 0.0402(10)
O2 0.0434(10) 0.0957(15) 0.0593(11) 0.0355(10) 0.0144(8) 0.0318(11)
O3 0.0772(14) 0.0916(15) 0.0920(15) 0.0536(12) 0.0568(12) 0.0633(13)
N1 0.0379(12) 0.0996(19) 0.0656(15) 0.0278(12) 0.0177(11) 0.0462(14)
N2 0.080(2) 0.102(2) 0.129(3) 0.0355(17) 0.0434(18) 0.087(2)
C1 0.0421(14) 0.0539(15) 0.0693(17) 0.0151(12) 0.0145(12) 0.0333(14)
C2 0.0318(12) 0.0540(15) 0.0419(13) 0.0121(11) 0.0061(10) 0.0180(12)
C3 0.0320(11) 0.0448(13) 0.0424(13) 0.0095(10) 0.0062(10) 0.0190(11)
C4 0.0334(11) 0.0384(12) 0.0369(12) 0.0131(9) 0.0039(9) 0.0137(10)
C5 0.0346(11) 0.0421(13) 0.0369(12) 0.0118(10) 0.0067(9) 0.0146(10)
C6 0.0377(13) 0.0571(15) 0.0375(12) 0.0163(11) 0.0094(10) 0.0198(11)
C7 0.0298(11) 0.0413(13) 0.0338(11) 0.0106(9) 0.0077(9) 0.0118(10)
C8 0.0428(13) 0.0457(14) 0.0463(14) 0.0119(11) 0.0067(11) 0.0161(12)
C9 0.0567(16) 0.0422(15) 0.0558(16) 0.0056(12) 0.0153(13) 0.0112(13)
C10 0.0408(14) 0.0573(17) 0.0413(14) -0.0049(12) 0.0076(11) 0.0057(12)
C11 0.0298(11) 0.0680(17) 0.0372(13) 0.0090(11) 0.0103(10) 0.0203(12)
C12 0.0377(14) 0.094(2) 0.0429(15) 0.0084(14) 0.0025(11) 0.0303(15)
C13 0.0511(17) 0.107(3) 0.0589(18) 0.0284(17) 0.0069(13) 0.0485(19)
C14 0.0600(17) 0.076(2) 0.0634(18) 0.0278(15) 0.0097(14) 0.0396(16)
C15 0.0447(14) 0.0554(16) 0.0461(14) 0.0178(12) 0.0069(11) 0.0221(12)
C16 0.0297(11) 0.0527(14) 0.0343(12) 0.0112(10) 0.0094(9) 0.0178(11)
C17 0.0547(17) 0.100(2) 0.0652(18) 0.0324(16) 0.0146(14) 0.0514(18)
C18 0.0380(13) 0.0451(14) 0.0453(13) 0.0139(11) 0.0097(10) 0.0126(11)
C19 0.097(3) 0.106(3) 0.128(3) 0.064(2) 0.084(2) 0.080(3)
loop_
_atom_type_symbol
_atom_type_description
_atom_type_scat_dispersion_real
_atom_type_scat_dispersion_imag
_atom_type_scat_source
C C 0.0033 0.0016 'International Tables Vol C Tables 4.2.6.8 and 6.1.1.4'
H H 0.0000 0.0000 'International Tables Vol C Tables 4.2.6.8 and 6.1.1.4'
N N 0.0061 0.0033 'International Tables Vol C Tables 4.2.6.8 and 6.1.1.4'
O O 0.0106 0.0060 'International Tables Vol C Tables 4.2.6.8 and 6.1.1.4'
loop_
_geom_angle_atom_site_label_1
_geom_angle_atom_site_label_2
_geom_angle_atom_site_label_3
_geom_angle
_geom_angle_publ_flag
C2 O1 C6 119.44(18) no
C18 O3 C19 116.4(2) no
C2 N1 H1A 120.0 no
C2 N1 H1B 120.0 no
H1A N1 H1B 120.0 no
N2 C1 C3 179.5(3) no
N1 C2 C3 127.5(2) yes
N1 C2 O1 110.2(2) no
C3 C2 O1 122.2(2) yes
C2 C3 C1 117.9(2) yes
C2 C3 C4 121.8(2) yes
C1 C3 C4 120.21(19) yes
C5 C4 C3 109.19(17) yes
C5 C4 C7 111.85(18) yes
C3 C4 C7 111.26(18) yes
C5 C4 H4A 108.1 no
C3 C4 H4A 108.1 no
C7 C4 H4A 108.1 no
C6 C5 C18 124.5(2) no
C6 C5 C4 122.8(2) yes
C18 C5 C4 112.69(19) no
C5 C6 O1 121.4(2) no
C5 C6 C17 131.2(2) yes
O1 C6 C17 107.37(19) no
C8 C7 C16 119.5(2) no
C8 C7 C4 119.08(19) no
C16 C7 C4 121.45(19) no
C7 C8 C9 122.1(2) no
C7 C8 H8A 118.9 no
C9 C8 H8A 118.9 no
C10 C9 C8 119.4(2) no
C10 C9 H9A 120.3 no
C8 C9 H9A 120.3 no
C9 C10 C11 121.3(2) no
C9 C10 H10A 119.3 no
C11 C10 H10A 119.3 no
C10 C11 C12 121.8(2) no
C10 C11 C16 119.3(2) no
C12 C11 C16 119.0(3) no
C13 C12 C11 121.6(3) no
C13 C12 H12A 119.2 no
C11 C12 H12A 119.2 no
C12 C13 C14 119.8(3) no
C12 C13 H13A 120.1 no
C14 C13 H13A 120.1 no
C15 C14 C13 120.7(3) no
C15 C14 H14A 119.7 no
C13 C14 H14A 119.7 no
C14 C15 C16 121.5(2) no
C14 C15 H15A 119.3 no
C16 C15 H15A 119.3 no
C15 C16 C7 124.2(2) no
C15 C16 C11 117.4(2) no
C7 C16 C11 118.4(2) no
C6 C17 H17A 109.5 no
C6 C17 H17B 109.5 no
H17A C17 H17B 109.5 no
C6 C17 H17C 109.5 no
H17A C17 H17C 109.5 no
H17B C17 H17C 109.5 no
O2 C18 O3 122.1(2) no
O2 C18 C5 121.9(2) no
O3 C18 C5 116.0(2) no
O3 C19 H19A 109.5 no
O3 C19 H19B 109.5 no
H19A C19 H19B 109.5 no
O3 C19 H19C 109.5 no
H19A C19 H19C 109.5 no
H19B C19 H19C 109.5 no
loop_
_geom_bond_atom_site_label_1
_geom_bond_atom_site_label_2
_geom_bond_site_symmetry_1
_geom_bond_site_symmetry_2
_geom_bond_distance
_geom_bond_publ_flag
O1 C2 . . 1.363(3) no
O1 C6 . . 1.381(3) no
O2 C18 . . 1.207(3) yes
O3 C18 . . 1.328(3) no
O3 C19 . . 1.452(3) no
N1 C2 . . 1.341(3) yes
N1 H1A . . 0.8600 no
N1 H1B . . 0.8600 no
N2 C1 . . 1.138(3) yes
C1 C3 . . 1.414(3) yes
C2 C3 . . 1.345(3) yes
C3 C4 . . 1.512(3) yes
C4 C5 . . 1.510(3) yes
C4 C7 . . 1.536(3) yes
C4 H4A . . 0.9800 no
C5 C6 . . 1.337(3) yes
C5 C18 . . 1.468(3) yes
C6 C17 . . 1.495(3) no
C7 C8 . . 1.363(3) no
C7 C16 . . 1.422(3) no
C8 C9 . . 1.406(4) no
C8 H8A . . 0.9300 no
C9 C10 . . 1.352(4) no
C9 H9A . . 0.9300 no
C10 C11 . . 1.405(4) no
C10 H10A . . 0.9300 no
C11 C12 . . 1.414(3) no
C11 C16 . . 1.431(3) no
C12 C13 . . 1.350(4) no
C12 H12A . . 0.9300 no
C13 C14 . . 1.401(4) no
C13 H13A . . 0.9300 no
C14 C15 . . 1.364(3) no
C14 H14A . . 0.9300 no
C15 C16 . . 1.413(3) no
C15 H15A . . 0.9300 no
C17 H17A . . 0.9600 no
C17 H17B . . 0.9600 no
C17 H17C . . 0.9600 no
C19 H19A . . 0.9600 no
C19 H19B . . 0.9600 no
C19 H19C . . 0.9600 no
loop_
_geom_hbond_atom_site_label_D
_geom_hbond_atom_site_label_H
_geom_hbond_atom_site_label_A
_geom_hbond_site_symmetry_A
_geom_hbond_distance_DH
_geom_hbond_distance_HA
_geom_hbond_distance_DA
_geom_hbond_angle_DHA
N1 H1B O2 1_655 0.86 2.14 2.919(3) 150
loop_
_geom_torsion_atom_site_label_1
_geom_torsion_atom_site_label_2
_geom_torsion_atom_site_label_3
_geom_torsion_atom_site_label_4
_geom_torsion
_geom_torsion_publ_flag
C6 O1 C2 N1 173.0(2) no
C6 O1 C2 C3 -8.7(3) no
N1 C2 C3 C1 -4.9(4) no
O1 C2 C3 C1 177.1(2) no
N1 C2 C3 C4 170.5(2) no
O1 C2 C3 C4 -7.5(4) no
C2 C3 C4 C5 17.9(3) no
C1 C3 C4 C5 -166.8(2) no
C2 C3 C4 C7 -106.0(2) yes
C1 C3 C4 C7 69.2(3) no
C3 C4 C5 C6 -14.6(3) no
C7 C4 C5 C6 108.9(2) no
C3 C4 C5 C18 166.16(19) no
C7 C4 C5 C18 -70.3(2) no
C18 C5 C6 O1 179.9(2) no
C4 C5 C6 O1 0.8(4) no
C18 C5 C6 C17 1.5(4) no
C4 C5 C6 C17 -177.6(3) no
C2 O1 C6 C5 12.1(3) no
C2 O1 C6 C17 -169.2(2) no
C5 C4 C7 C8 -39.6(3) no
C3 C4 C7 C8 82.8(2) yes
C5 C4 C7 C16 141.2(2) no
C3 C4 C7 C16 -96.4(2) no
C16 C7 C8 C9 0.0(3) no
C4 C7 C8 C9 -179.2(2) no
C7 C8 C9 C10 -0.9(4) no
C8 C9 C10 C11 0.8(4) no
C9 C10 C11 C12 -178.5(2) no
C9 C10 C11 C16 0.0(4) no
C10 C11 C12 C13 179.5(3) no
C16 C11 C12 C13 1.0(4) no
C11 C12 C13 C14 0.9(4) no
C12 C13 C14 C15 -1.5(4) no
C13 C14 C15 C16 0.3(4) no
C14 C15 C16 C7 -178.3(2) no
C14 C15 C16 C11 1.6(3) no
C8 C7 C16 C15 -179.3(2) no
C4 C7 C16 C15 -0.1(3) no
C8 C7 C16 C11 0.8(3) no
C4 C7 C16 C11 179.96(19) no
C10 C11 C16 C15 179.2(2) no
C12 C11 C16 C15 -2.2(3) no
C10 C11 C16 C7 -0.8(3) no
C12 C11 C16 C7 177.7(2) no
C19 O3 C18 O2 -0.4(4) no
C19 O3 C18 C5 178.3(2) yes
C6 C5 C18 O2 176.9(2) yes
C4 C5 C18 O2 -3.9(3) no
C6 C5 C18 O3 -1.8(3) yes
C4 C5 C18 O3 177.4(2) no
