#------------------------------------------------------------------------------
#$Date: 2017-10-13 03:48:21 +0300 (Fri, 13 Oct 2017) $
#$Revision: 201957 $
#$URL: file:///home/coder/svn-repositories/cod/cif/2/01/49/2014906.cif $
#------------------------------------------------------------------------------
#
# This file is available in the Crystallography Open Database (COD),
# http://www.crystallography.net/. The original data for this entry
# were provided by IUCr Journals, http://journals.iucr.org/.
#
# The file may be used within the scientific community so long as
# proper attribution is given to the journal article from which the
# data were obtained.
#
data_2014906
loop_
_publ_author_name
'Rezende, Marcos C.'
'Dominguez, Mois\'es'
'Wardell, James L.'
'Skakle, Janet M. S.'
'Low, John N.'
'Glidewell, Christopher'
_publ_section_title
;Supramolecular structures of five
 5-(arylmethylene)-1,3-dimethylpyrimidine-2,4,6(1<i>H</i>,3<i>H</i>,5<i>H</i>)-triones:
 isolated molecules, hydrogen-bonded chains and chains of fused
 hydrogen-bonded rings
;
_journal_issue                   5
_journal_name_full               'Acta Crystallographica Section C'
_journal_page_first              o306
_journal_page_last               o311
_journal_paper_doi               10.1107/S0108270105008498
_journal_volume                  61
_journal_year                    2005
_chemical_formula_iupac          'C15 H17 N3 O3'
_chemical_formula_moiety         'C15 H17 N3 O3'
_chemical_formula_sum            'C15 H17 N3 O3'
_chemical_formula_weight         287.32
_chemical_name_systematic
5-[4-(dimethylamino)benzylidene]-1,3-dimethylpyrimidine-2,4,6(1H,3H,5H)-trione
_space_group_IT_number           2
_symmetry_cell_setting           triclinic
_symmetry_space_group_name_Hall  '-P 1'
_symmetry_space_group_name_H-M   'P -1'
_atom_sites_solution_hydrogens   geom
_atom_sites_solution_primary     direct
_atom_sites_solution_secondary   difmap
_cell_angle_alpha                82.2980(18)
_cell_angle_beta                 84.465(2)
_cell_angle_gamma                82.365(2)
_cell_formula_units_Z            2
_cell_length_a                   8.6187(2)
_cell_length_b                   8.8451(3)
_cell_length_c                   9.0566(3)
_cell_measurement_reflns_used    3073
_cell_measurement_temperature    120(2)
_cell_measurement_theta_max      27.54
_cell_measurement_theta_min      3.14
_cell_volume                     675.94(4)
_computing_cell_refinement
'DENZO (Otwinowski & Minor, 1997) and COLLECT'
_computing_data_collection       'COLLECT (Nonius, 1998)'
_computing_data_reduction        'DENZO and COLLECT'
_computing_molecular_graphics    'PLATON (Spek, 2003)'
_computing_publication_material  'SHELXL97 and PRPKAPPA (Ferguson, 1999)'
_computing_structure_refinement  'OSCAIL and SHELXL97 (Sheldrick, 1997)'
_computing_structure_solution
'OSCAIL (McArdle, 2003) and SHELXS97 (Sheldrick, 1997)'
_diffrn_ambient_temperature      120(2)
_diffrn_detector_area_resol_mean 9.091
_diffrn_measured_fraction_theta_full 0.997
_diffrn_measured_fraction_theta_max 0.987
_diffrn_measurement_device_type  'Bruker-Nonius KappaCCD area-detector'
_diffrn_measurement_method       '\f and \w'
_diffrn_radiation_monochromator  graphite
_diffrn_radiation_source         'Bruker-Nonius FR91 rotating anode'
_diffrn_radiation_type           'Mo K\a'
_diffrn_radiation_wavelength     0.71073
_diffrn_reflns_av_R_equivalents  0.0268
_diffrn_reflns_av_sigmaI/netI    0.0227
_diffrn_reflns_limit_h_max       11
_diffrn_reflns_limit_h_min       -11
_diffrn_reflns_limit_k_max       11
_diffrn_reflns_limit_k_min       -11
_diffrn_reflns_limit_l_max       11
_diffrn_reflns_limit_l_min       -11
_diffrn_reflns_number            13410
_diffrn_reflns_theta_full        26.50
_diffrn_reflns_theta_max         27.54
_diffrn_reflns_theta_min         3.14
_diffrn_standards_decay_%        none
_exptl_absorpt_coefficient_mu    0.100
_exptl_absorpt_correction_T_max  0.980
_exptl_absorpt_correction_T_min  0.955
_exptl_absorpt_correction_type   multi-scan
_exptl_absorpt_process_details   '(SADABS; Sheldrick, 2003)'
_exptl_crystal_colour            orange
_exptl_crystal_density_diffrn    1.412
_exptl_crystal_density_meas      ?
_exptl_crystal_density_method    'not measured'
_exptl_crystal_description       block
_exptl_crystal_F_000             304
_exptl_crystal_size_max          0.40
_exptl_crystal_size_mid          0.30
_exptl_crystal_size_min          0.20
_refine_diff_density_max         0.284
_refine_diff_density_min         -0.269
_refine_ls_extinction_method     none
_refine_ls_goodness_of_fit_ref   1.049
_refine_ls_hydrogen_treatment    constr
_refine_ls_matrix_type           full
_refine_ls_number_parameters     194
_refine_ls_number_reflns         3073
_refine_ls_number_restraints     0
_refine_ls_restrained_S_all      1.049
_refine_ls_R_factor_all          0.0456
_refine_ls_R_factor_gt           0.0393
_refine_ls_shift/su_max          0.009
_refine_ls_shift/su_mean         0.000
_refine_ls_structure_factor_coef Fsqd
_refine_ls_weighting_details
'w = 1/[\s^2^(Fo^2^)+(0.0577P)^2^+0.2209P] where P=(Fo^2^+2Fc^2^)/3'
_refine_ls_weighting_scheme      calc
_refine_ls_wR_factor_gt          0.1041
_refine_ls_wR_factor_ref         0.1084
_reflns_number_gt                2698
_reflns_number_total             3073
_reflns_threshold_expression     I>2\s(I)
_cod_data_source_file            sk1828.cif
_cod_data_source_block           IV
_cod_depositor_comments
;
The following automatic conversions were performed:

'_exptl_crystal_density_meas' value 'not measured' was changed to '?'
- the value is perceived as not measured.

Automatic conversion script
Id: cif_fix_values 3008 2015-01-20 13:52:24Z robertas 
;
_cod_database_code               2014906
_cod_database_fobs_code          2014906
loop_
_symmetry_equiv_pos_as_xyz
'x, y, z'
'-x, -y, -z'
loop_
_atom_site_label
_atom_site_fract_x
_atom_site_fract_y
_atom_site_fract_z
_atom_site_U_iso_or_equiv
_atom_site_adp_type
_atom_site_calc_flag
_atom_site_refinement_flags
_atom_site_occupancy
_atom_site_disorder_assembly
_atom_site_disorder_group
_atom_site_type_symbol
O2 0.20702(10) 1.01028(10) 0.69826(10) 0.0262(2) Uani d . 1 . . O
O4 0.65055(10) 0.67888(10) 0.76453(9) 0.0254(2) Uani d . 1 . . O
O6 0.42780(11) 0.78374(11) 0.29651(10) 0.0294(2) Uani d . 1 . . O
N1 0.32498(11) 0.90026(11) 0.49595(10) 0.0185(2) Uani d . 1 . . N
N3 0.43121(11) 0.84618(11) 0.72988(10) 0.0197(2) Uani d . 1 . . N
N54 0.95303(12) 0.28701(11) 0.00057(11) 0.0209(2) Uani d . 1 . . N
C1 0.20256(14) 0.98431(14) 0.40472(14) 0.0243(3) Uani d . 1 . . C
C2 0.31355(13) 0.92388(13) 0.64509(13) 0.0188(2) Uani d . 1 . . C
C3 0.42493(16) 0.87893(16) 0.88508(13) 0.0276(3) Uani d . 1 . . C
C4 0.55241(13) 0.74064(13) 0.67884(12) 0.0184(2) Uani d . 1 . . C
C5 0.55605(13) 0.71125(13) 0.52207(12) 0.0170(2) Uani d . 1 . . C
C6 0.43704(13) 0.79591(13) 0.42844(12) 0.0183(2) Uani d . 1 . . C
C51 0.73387(13) 0.52767(13) 0.35161(12) 0.0176(2) Uani d . 1 . . C
C52 0.67780(14) 0.55360(13) 0.20713(13) 0.0208(2) Uani d . 1 . . C
C53 0.74808(14) 0.47471(13) 0.09256(13) 0.0208(2) Uani d . 1 . . C
C54 0.88152(13) 0.36372(12) 0.11323(12) 0.0180(2) Uani d . 1 . . C
C55 0.93787(13) 0.33510(13) 0.25798(13) 0.0203(2) Uani d . 1 . . C
C56 0.86589(13) 0.41446(13) 0.37098(13) 0.0192(2) Uani d . 1 . . C
C57 0.67536(13) 0.60081(13) 0.48077(12) 0.0178(2) Uani d . 1 . . C
C541 1.08832(15) 0.17140(14) 0.02688(14) 0.0260(3) Uani d . 1 . . C
C542 0.89585(15) 0.31354(15) -0.14836(13) 0.0242(3) Uani d . 1 . . C
H1A 0.2475 1.0098 0.3022 0.036 Uiso calc R 1 . . H
H1B 0.1600 1.0792 0.4468 0.036 Uiso calc R 1 . . H
H1C 0.1182 0.9202 0.4041 0.036 Uiso calc R 1 . . H
H3A 0.4534 0.9823 0.8866 0.041 Uiso calc R 1 . . H
H3B 0.4989 0.8034 0.9401 0.041 Uiso calc R 1 . . H
H3C 0.3183 0.8730 0.9322 0.041 Uiso calc R 1 . . H
H52 0.5891 0.6276 0.1889 0.025 Uiso calc R 1 . . H
H53 0.7064 0.4949 -0.0024 0.025 Uiso calc R 1 . . H
H54A 1.1703 0.2179 0.0662 0.039 Uiso calc R 1 . . H
H54B 1.1291 0.1323 -0.0673 0.039 Uiso calc R 1 . . H
H54C 1.0563 0.0865 0.0994 0.039 Uiso calc R 1 . . H
H54D 0.7986 0.2668 -0.1464 0.036 Uiso calc R 1 . . H
H54E 0.9753 0.2673 -0.2193 0.036 Uiso calc R 1 . . H
H54F 0.8752 0.4243 -0.1793 0.036 Uiso calc R 1 . . H
H55 1.0260 0.2605 0.2766 0.024 Uiso calc R 1 . . H
H56 0.9061 0.3927 0.4666 0.023 Uiso calc R 1 . . H
H57 0.7367 0.5620 0.5624 0.021 Uiso calc R 1 . . H
loop_
_atom_site_aniso_label
_atom_site_aniso_U_11
_atom_site_aniso_U_22
_atom_site_aniso_U_33
_atom_site_aniso_U_12
_atom_site_aniso_U_13
_atom_site_aniso_U_23
O2 0.0253(4) 0.0280(5) 0.0243(4) 0.0047(4) -0.0009(3) -0.0077(3)
O4 0.0251(4) 0.0327(5) 0.0180(4) 0.0042(4) -0.0079(3) -0.0044(3)
O6 0.0292(5) 0.0384(5) 0.0192(4) 0.0116(4) -0.0099(4) -0.0092(4)
N1 0.0177(5) 0.0197(5) 0.0174(5) 0.0012(4) -0.0032(4) -0.0021(4)
N3 0.0212(5) 0.0233(5) 0.0148(5) -0.0002(4) -0.0023(4) -0.0048(4)
N54 0.0207(5) 0.0234(5) 0.0184(5) 0.0020(4) -0.0028(4) -0.0057(4)
C1 0.0211(6) 0.0263(6) 0.0240(6) 0.0061(5) -0.0064(5) -0.0029(5)
C2 0.0192(5) 0.0185(5) 0.0189(5) -0.0029(4) -0.0008(4) -0.0032(4)
C3 0.0315(7) 0.0351(7) 0.0169(6) 0.0001(5) -0.0025(5) -0.0091(5)
C4 0.0183(5) 0.0205(5) 0.0167(5) -0.0029(4) -0.0024(4) -0.0018(4)
C5 0.0166(5) 0.0197(5) 0.0150(5) -0.0026(4) -0.0023(4) -0.0021(4)
C6 0.0170(5) 0.0198(5) 0.0179(5) -0.0008(4) -0.0024(4) -0.0027(4)
C51 0.0163(5) 0.0186(5) 0.0177(5) -0.0019(4) -0.0023(4) -0.0010(4)
C52 0.0205(5) 0.0228(6) 0.0179(5) 0.0022(4) -0.0042(4) -0.0014(4)
C53 0.0216(6) 0.0230(6) 0.0169(5) 0.0013(5) -0.0047(4) -0.0009(4)
C54 0.0185(5) 0.0179(5) 0.0179(5) -0.0029(4) -0.0016(4) -0.0022(4)
C55 0.0199(5) 0.0206(5) 0.0200(6) 0.0022(4) -0.0059(4) -0.0026(4)
C56 0.0195(5) 0.0200(5) 0.0177(5) 0.0004(4) -0.0058(4) -0.0010(4)
C57 0.0173(5) 0.0204(5) 0.0157(5) -0.0028(4) -0.0037(4) 0.0000(4)
C541 0.0251(6) 0.0263(6) 0.0265(6) 0.0060(5) -0.0045(5) -0.0100(5)
C542 0.0267(6) 0.0285(6) 0.0173(5) -0.0007(5) -0.0025(5) -0.0050(4)
loop_
_atom_type_symbol
_atom_type_description
_atom_type_scat_dispersion_real
_atom_type_scat_dispersion_imag
_atom_type_scat_source
C C 0.0033 0.0016 'International Tables Vol C Tables 4.2.6.8 and 6.1.1.4'
H H 0.0000 0.0000 'International Tables Vol C Tables 4.2.6.8 and 6.1.1.4'
N N 0.0061 0.0033 'International Tables Vol C Tables 4.2.6.8 and 6.1.1.4'
O O 0.0106 0.0060 'International Tables Vol C Tables 4.2.6.8 and 6.1.1.4'
loop_
_geom_angle_atom_site_label_1
_geom_angle_atom_site_label_2
_geom_angle_atom_site_label_3
_geom_angle
_geom_angle_publ_flag
C2 N1 C6 125.52(10) no
C2 N1 C1 116.76(9) no
C6 N1 C1 117.58(9) no
N1 C1 H1A 109.5 no
N1 C1 H1B 109.5 no
H1A C1 H1B 109.5 no
N1 C1 H1C 109.5 no
H1A C1 H1C 109.5 no
H1B C1 H1C 109.5 no
O2 C2 N3 121.71(11) no
O2 C2 N1 121.89(11) no
N3 C2 N1 116.40(10) no
N3 C3 H3A 109.5 no
N3 C3 H3B 109.5 no
H3A C3 H3B 109.5 no
N3 C3 H3C 109.5 no
H3A C3 H3C 109.5 no
H3B C3 H3C 109.5 no
C2 N3 C4 124.94(10) no
C2 N3 C3 116.42(10) no
C4 N3 C3 118.65(10) no
O4 C4 N3 119.10(10) no
O4 C4 C5 123.61(11) no
N3 C4 C5 117.29(10) no
C57 C5 C6 126.83(10) no
C57 C5 C4 114.20(10) no
C6 C5 C4 118.96(10) no
C5 C57 C51 138.79(10) no
C5 C57 H57 110.6 no
C51 C57 H57 110.6 no
C52 C51 C56 115.94(10) no
C52 C51 C57 128.58(10) no
C56 C51 C57 115.48(10) no
C53 C52 C51 121.91(11) no
C53 C52 H52 119.0 no
C51 C52 H52 119.0 no
C52 C53 C54 121.40(10) no
C52 C53 H53 119.3 no
C54 C53 H53 119.3 no
N54 C54 C53 121.88(10) no
N54 C54 C55 120.80(10) no
C53 C54 C55 117.33(10) no
C54 N54 C542 121.60(10) no
C54 N54 C541 120.30(10) no
C542 N54 C541 118.08(9) no
N54 C541 H54A 109.5 no
N54 C541 H54B 109.5 no
H54A C541 H54B 109.5 no
N54 C541 H54C 109.5 no
H54A C541 H54C 109.5 no
H54B C541 H54C 109.5 no
N54 C542 H54D 109.5 no
N54 C542 H54E 109.5 no
H54D C542 H54E 109.5 no
N54 C542 H54F 109.5 no
H54D C542 H54F 109.5 no
H54E C542 H54F 109.5 no
C56 C55 C54 120.43(11) no
C56 C55 H55 119.8 no
C54 C55 H55 119.8 no
C55 C56 C51 122.98(10) no
C55 C56 H56 118.5 no
C51 C56 H56 118.5 no
O6 C6 N1 117.78(10) no
O6 C6 C5 125.54(10) no
N1 C6 C5 116.69(10) no
loop_
_geom_bond_atom_site_label_1
_geom_bond_atom_site_label_2
_geom_bond_site_symmetry_2
_geom_bond_distance
_geom_bond_publ_flag
N1 C2 . 1.3864(14) no
N1 C6 . 1.3996(14) no
N1 C1 . 1.4641(14) no
C1 H1A . 0.98 no
C1 H1B . 0.98 no
C1 H1C . 0.98 no
C2 O2 . 1.2189(14) no
C2 N3 . 1.3835(15) no
C3 N3 . 1.4673(14) no
C3 H3A . 0.98 no
C3 H3B . 0.98 no
C3 H3C . 0.98 no
N3 C4 . 1.3927(15) no
C4 O4 . 1.2273(14) no
C4 C5 . 1.4739(15) no
C5 C57 . 1.3814(16) no
C5 C6 . 1.4579(15) no
C57 C51 . 1.4295(15) no
C57 H57 . 0.95 no
C51 C52 . 1.4179(15) no
C51 C56 . 1.4202(16) no
C52 C53 . 1.3751(16) no
C52 H52 . 0.95 no
C53 C54 . 1.4191(16) no
C53 H53 . 0.95 no
C54 N54 . 1.3545(14) no
C54 C55 . 1.4211(15) no
N54 C542 . 1.4594(15) no
N54 C541 . 1.4607(15) no
C541 H54A . 0.98 no
C541 H54B . 0.98 no
C541 H54C . 0.98 no
C542 H54D . 0.98 no
C542 H54E . 0.98 no
C542 H54F . 0.98 no
C55 C56 . 1.3709(16) no
C55 H55 . 0.95 no
C56 H56 . 0.95 no
C6 O6 . 1.2250(14) no
loop_
_geom_hbond_atom_site_label_D
_geom_hbond_atom_site_label_H
_geom_hbond_atom_site_label_A
_geom_hbond_site_symmetry_A
_geom_hbond_distance_DH
_geom_hbond_distance_HA
_geom_hbond_distance_DA
_geom_hbond_angle_DHA
_geom_hbond_publ_flag
C52 H52 O6 . 0.95 2.09 2.895(2) 141 no
C53 H53 O4 1_554 0.95 2.53 3.381(2) 149 no
C57 H57 O4 . 0.95 2.24 2.731(2) 111 no
loop_
_geom_torsion_atom_site_label_1
_geom_torsion_atom_site_label_2
_geom_torsion_atom_site_label_3
_geom_torsion_atom_site_label_4
_geom_torsion
_geom_torsion_publ_flag
C6 N1 C2 O2 -175.54(10) no
C1 N1 C2 O2 0.01(16) no
C6 N1 C2 N3 5.57(17) no
C1 N1 C2 N3 -178.88(10) no
O2 C2 N3 C4 176.96(11) no
N1 C2 N3 C4 -4.16(16) no
O2 C2 N3 C3 -2.79(17) no
N1 C2 N3 C3 176.10(10) no
C2 N3 C4 O4 179.89(10) no
C3 N3 C4 O4 -0.37(16) no
C2 N3 C4 C5 0.73(16) no
C3 N3 C4 C5 -179.53(10) no
O4 C4 C5 C57 3.43(16) no
N3 C4 C5 C57 -177.45(10) no
O4 C4 C5 C6 -177.46(11) no
N3 C4 C5 C6 1.67(15) no
C6 C5 C57 C51 0.7(2) no
C4 C5 C57 C51 179.69(13) no
C5 C57 C51 C52 0.9(2) no
C5 C57 C51 C56 -179.29(13) no
C56 C51 C52 C53 -0.55(17) no
C57 C51 C52 C53 179.25(11) no
C51 C52 C53 C54 -0.46(18) no
C52 C53 C54 N54 -179.01(11) no
C52 C53 C54 C55 1.21(17) no
C53 C54 N54 C542 -0.48(17) no
C55 C54 N54 C542 179.30(10) no
C53 C54 N54 C541 -178.81(11) no
C55 C54 N54 C541 0.96(17) no
N54 C54 C55 C56 179.27(10) no
C53 C54 C55 C56 -0.94(17) no
C54 C55 C56 C51 -0.07(18) no
C52 C51 C56 C55 0.82(17) no
C57 C51 C56 C55 -179.01(10) no
C2 N1 C6 O6 177.03(11) no
C1 N1 C6 O6 1.52(16) no
C2 N1 C6 C5 -3.32(17) no
C1 N1 C6 C5 -178.84(9) no
C57 C5 C6 O6 -1.9(2) no
C4 C5 C6 O6 179.14(11) no
C57 C5 C6 N1 178.51(10) no
C4 C5 C6 N1 -0.48(15) no
loop_
_cod_related_entry_id
_cod_related_entry_database
_cod_related_entry_code
1 ChemSpider 84509
