#------------------------------------------------------------------------------
#$Date: 2016-02-20 00:18:51 +0200 (Sat, 20 Feb 2016) $
#$Revision: 176760 $
#$URL: svn://www.crystallography.net/cod/cif/2/01/42/2014245.cif $
#------------------------------------------------------------------------------
#
# This file is available in the Crystallography Open Database (COD),
# http://www.crystallography.net/. The original data for this entry
# were provided by IUCr Journals, http://journals.iucr.org/.
#
# The file may be used within the scientific community so long as
# proper attribution is given to the journal article from which the
# data were obtained.
#
data_2014245
loop_
_publ_author_name
'Turkington, David E.'
'Ferguson, George'
'Lough, Alan J.'
'Glidewell, Christopher'
_publ_section_title
;
 Supramolecular structures of three configurational isomers of
 1-phenylethanaminium malate(1--)
;
_journal_issue                   8
_journal_name_full               'Acta Crystallographica Section C'
_journal_page_first              o617
_journal_page_last               o622
_journal_paper_doi               10.1107/S0108270104015793
_journal_volume                  60
_journal_year                    2004
_chemical_formula_iupac          'C8 H12 N + , C4 H5 O5 -'
_chemical_formula_moiety         'C8 H12 N + , C4 H5 O5 -'
_chemical_formula_sum            'C12 H17 N O5'
_chemical_formula_weight         255.27
_chemical_name_systematic
;
(R)-1-phenylethanaminium (S)-malate(1-)
;
_space_group_IT_number           4
_symmetry_cell_setting           monoclinic
_symmetry_space_group_name_Hall  'P 2yb'
_symmetry_space_group_name_H-M   'P 1 21 1'
_atom_sites_solution_hydrogens   geom
_atom_sites_solution_primary     direct
_atom_sites_solution_secondary   difmap
_cell_angle_alpha                90.00
_cell_angle_beta                 107.907(2)
_cell_angle_gamma                90.00
_cell_formula_units_Z            2
_cell_length_a                   6.3350(2)
_cell_length_b                   13.7876(6)
_cell_length_c                   7.5572(2)
_cell_measurement_reflns_used    1504
_cell_measurement_temperature    150.0(10)
_cell_measurement_theta_max      27.50
_cell_measurement_theta_min      2.83
_cell_volume                     628.10(4)
_computing_cell_refinement       'DENZO-SMN (Otwinowski & Minor, 1997)'
_computing_data_collection       'KappaCCD Server Software (Nonius, 1997)'
_computing_data_reduction        DENZO-SMN
_computing_molecular_graphics    'PLATON (Spek, 2003)'
_computing_publication_material  'SHELXL97 and PRPKAPPA (Ferguson, 1999)'
_computing_structure_refinement  'SHELXL97 (Sheldrick, 1997)'
_computing_structure_solution    'SHELXS97 (Sheldrick, 1997)'
_diffrn_ambient_temperature      150.0(10)
_diffrn_measured_fraction_theta_full 0.995
_diffrn_measured_fraction_theta_max 0.995
_diffrn_measurement_device_type  'Nonius KappaCCD'
_diffrn_measurement_method       '\f scans, and \w scans with \k offsets'
_diffrn_radiation_monochromator  graphite
_diffrn_radiation_source         'fine-focus sealed X-ray tube'
_diffrn_radiation_type           'Mo K\a'
_diffrn_radiation_wavelength     0.71073
_diffrn_reflns_av_R_equivalents  0.066
_diffrn_reflns_av_sigmaI/netI    0.0354
_diffrn_reflns_limit_h_max       7
_diffrn_reflns_limit_h_min       -8
_diffrn_reflns_limit_k_max       16
_diffrn_reflns_limit_k_min       -17
_diffrn_reflns_limit_l_max       9
_diffrn_reflns_limit_l_min       -9
_diffrn_reflns_number            5348
_diffrn_reflns_theta_full        27.50
_diffrn_reflns_theta_max         27.50
_diffrn_reflns_theta_min         2.83
_diffrn_standards_decay_%        0
_exptl_absorpt_coefficient_mu    0.105
_exptl_absorpt_correction_type   none
_exptl_crystal_colour            colourless
_exptl_crystal_density_diffrn    1.350
_exptl_crystal_density_meas      ?
_exptl_crystal_density_method    'not measured'
_exptl_crystal_description       block
_exptl_crystal_F_000             272
_exptl_crystal_size_max          0.26
_exptl_crystal_size_mid          0.20
_exptl_crystal_size_min          0.18
_refine_diff_density_max         0.267
_refine_diff_density_min         -0.185
_refine_ls_extinction_coef       0.042(12)
_refine_ls_extinction_expression Fc^*^=kFc[1+0.001xFc^2^\l^3^/sin(2\q)]^-1/4^
_refine_ls_extinction_method     'SHELXL97 (Sheldrick, 1997)'
_refine_ls_goodness_of_fit_ref   1.059
_refine_ls_hydrogen_treatment    constr
_refine_ls_matrix_type           full
_refine_ls_number_parameters     170
_refine_ls_number_reflns         1504
_refine_ls_number_restraints     1
_refine_ls_restrained_S_all      1.058
_refine_ls_R_factor_all          0.0360
_refine_ls_R_factor_gt           0.0322
_refine_ls_shift/su_max          0.000
_refine_ls_shift/su_mean         0.000
_refine_ls_structure_factor_coef Fsqd
_refine_ls_weighting_details
'w = 1/[\s^2^(Fo^2^)+(0.0405P)^2^+0.0897P] where P=(Fo^2^+2Fc^2^)/3'
_refine_ls_weighting_scheme      calc
_refine_ls_wR_factor_gt          0.0753
_refine_ls_wR_factor_ref         0.0781
_reflns_number_gt                1398
_reflns_number_total             1504
_reflns_threshold_expression     I>2\s(I)
_cod_data_source_file            sk1743.cif
_cod_data_source_block           III
_cod_depositor_comments
;
The following automatic conversions were performed:

'_exptl_crystal_density_meas' value 'not measured' was changed to '?'
- the value is perceived as not measured.

Automatic conversion script
Id: cif_fix_values 3008 2015-01-20 13:52:24Z robertas 
;
_cod_original_sg_symbol_H-M      'P 21'
_cod_database_code               2014245
_cod_database_fobs_code          2014245
loop_
_symmetry_equiv_pos_as_xyz
'x, y, z'
'-x, y+1/2, -z'
loop_
_atom_site_label
_atom_site_fract_x
_atom_site_fract_y
_atom_site_fract_z
_atom_site_U_iso_or_equiv
_atom_site_adp_type
_atom_site_calc_flag
_atom_site_refinement_flags
_atom_site_occupancy
_atom_site_disorder_assembly
_atom_site_disorder_group
_atom_site_type_symbol
O1 0.2791(2) 0.56560(12) 0.41885(18) 0.0266(3) Uani d . 1 . . O
O2 -0.0872(2) 0.56439(11) 0.28078(18) 0.0257(3) Uani d . 1 . . O
O3 0.1887(2) 0.61312(11) -0.28668(19) 0.0269(3) Uani d . 1 . . O
O4 0.4823(2) 0.52158(11) -0.14464(19) 0.0278(3) Uani d . 1 . . O
O5 -0.0580(2) 0.51704(12) -0.04784(17) 0.0263(3) Uani d . 1 . . O
C1 0.1074(3) 0.55516(14) 0.2801(2) 0.0201(4) Uani d . 1 . . C
C2 0.1460(3) 0.52752(14) 0.0962(2) 0.0199(4) Uani d . 1 . . C
C3 0.2915(3) 0.60348(15) 0.0421(3) 0.0233(4) Uani d . 1 . . C
C4 0.3327(3) 0.57550(14) -0.1385(2) 0.0208(4) Uani d . 1 . . C
N1 0.7292(2) 0.50000(12) 0.5580(2) 0.0219(4) Uani d . 1 . . N
C11 0.5824(3) 0.34513(14) 0.3985(3) 0.0231(4) Uani d . 1 . . C
C12 0.6161(3) 0.35574(15) 0.2261(3) 0.0259(4) Uani d . 1 . . C
C13 0.4729(4) 0.31159(15) 0.0691(3) 0.0292(5) Uani d . 1 . . C
C14 0.2978(4) 0.25585(16) 0.0841(3) 0.0330(5) Uani d . 1 . . C
C15 0.2612(4) 0.24555(16) 0.2542(3) 0.0343(5) Uani d . 1 . . C
C16 0.4042(3) 0.28966(16) 0.4105(3) 0.0298(4) Uani d . 1 . . C
C17 0.7371(3) 0.39112(16) 0.5722(3) 0.0253(4) Uani d . 1 . . C
C18 0.9765(4) 0.35799(17) 0.6121(3) 0.0344(5) Uani d . 1 . . C
H1 0.2420 0.5707 0.5160 0.040 Uiso calc PR 0.13(4) . . H
H3 0.2243 0.5984 -0.3815 0.040 Uiso calc PR 0.87(4) . . H
H5 -0.1637 0.5250 -0.0041 0.039 Uiso calc R 1 . . H
H2 0.2255 0.4639 0.1135 0.024 Uiso calc R 1 . . H
H3A 0.2173 0.6675 0.0276 0.028 Uiso calc R 1 . . H
H3B 0.4350 0.6089 0.1420 0.028 Uiso calc R 1 . . H
H1A 0.5857 0.5203 0.5276 0.033 Uiso calc R 1 . . H
H1B 0.7889 0.5194 0.4686 0.033 Uiso calc R 1 . . H
H1C 0.8081 0.5262 0.6692 0.033 Uiso calc R 1 . . H
H12 0.7373 0.3933 0.2154 0.031 Uiso calc R 1 . . H
H13 0.4956 0.3198 -0.0485 0.035 Uiso calc R 1 . . H
H14 0.2024 0.2246 -0.0228 0.040 Uiso calc R 1 . . H
H15 0.1389 0.2085 0.2641 0.041 Uiso calc R 1 . . H
H16 0.3798 0.2818 0.5275 0.036 Uiso calc R 1 . . H
H17 0.6862 0.3719 0.6800 0.030 Uiso calc R 1 . . H
H18A 1.0308 0.3772 0.5090 0.052 Uiso calc R 1 . . H
H18B 0.9841 0.2873 0.6255 0.052 Uiso calc R 1 . . H
H18C 1.0686 0.3881 0.7274 0.052 Uiso calc R 1 . . H
loop_
_atom_site_aniso_label
_atom_site_aniso_U_11
_atom_site_aniso_U_22
_atom_site_aniso_U_33
_atom_site_aniso_U_12
_atom_site_aniso_U_13
_atom_site_aniso_U_23
O1 0.0210(6) 0.0418(8) 0.0163(6) 0.0019(6) 0.0047(5) -0.0015(6)
O2 0.0199(6) 0.0371(8) 0.0210(6) 0.0003(6) 0.0078(5) -0.0001(6)
O3 0.0247(7) 0.0393(8) 0.0171(6) 0.0071(6) 0.0070(5) 0.0014(6)
O4 0.0229(7) 0.0353(8) 0.0262(7) 0.0057(6) 0.0091(5) 0.0023(6)
O5 0.0174(6) 0.0427(8) 0.0183(6) -0.0034(6) 0.0046(5) -0.0053(6)
C1 0.0216(8) 0.0209(9) 0.0182(8) 0.0005(7) 0.0067(6) 0.0016(7)
C2 0.0184(8) 0.0240(9) 0.0170(8) -0.0005(7) 0.0050(6) 0.0001(7)
C3 0.0219(9) 0.0290(10) 0.0192(9) -0.0061(8) 0.0068(7) -0.0026(8)
C4 0.0166(8) 0.0281(10) 0.0183(8) -0.0042(7) 0.0060(6) -0.0005(7)
N1 0.0188(7) 0.0273(9) 0.0197(7) -0.0003(6) 0.0060(6) -0.0030(6)
C11 0.0205(9) 0.0222(9) 0.0253(9) 0.0020(7) 0.0051(7) -0.0008(8)
C12 0.0260(10) 0.0248(10) 0.0261(10) -0.0014(8) 0.0069(8) -0.0018(8)
C13 0.0359(11) 0.0242(10) 0.0262(10) 0.0041(9) 0.0074(8) -0.0021(8)
C14 0.0319(11) 0.0234(10) 0.0361(12) 0.0008(8) -0.0005(9) -0.0045(8)
C15 0.0282(11) 0.0270(11) 0.0442(13) -0.0049(9) 0.0058(9) 0.0010(9)
C16 0.0264(10) 0.0302(11) 0.0346(11) -0.0001(9) 0.0121(8) 0.0015(9)
C17 0.0265(10) 0.0253(9) 0.0236(10) -0.0008(8) 0.0068(8) 0.0017(8)
C18 0.0285(11) 0.0355(12) 0.0332(11) 0.0068(9) 0.0006(9) -0.0015(9)
loop_
_atom_type_symbol
_atom_type_description
_atom_type_scat_dispersion_real
_atom_type_scat_dispersion_imag
_atom_type_scat_source
C C 0.0033 0.0000 'International Tables Vol C Tables 4.2.6.8 and 6.1.1.4'
H H 0.0000 0.0000 'International Tables Vol C Tables 4.2.6.8 and 6.1.1.4'
O O 0.0106 0.0000 'International Tables Vol C Tables 4.2.6.8 and 6.1.1.4'
N N 0.0061 0.0000 'International Tables Vol C Tables 4.2.6.8 and 6.1.1.4'
loop_
_geom_angle_atom_site_label_1
_geom_angle_atom_site_label_2
_geom_angle_atom_site_label_3
_geom_angle
_geom_angle_publ_flag
C1 O1 H1 109.5 no
C4 O3 H3 109.5 no
C2 O5 H5 109.5 no
O2 C1 O1 125.94(17) no
O2 C1 C2 117.73(15) no
O1 C1 C2 116.33(15) no
O5 C2 C1 111.08(14) no
O5 C2 C3 110.23(15) no
C1 C2 C3 110.45(15) no
O5 C2 H2 108.3 no
C1 C2 H2 108.3 no
C3 C2 H2 108.3 no
C4 C3 C2 110.53(16) no
C4 C3 H3A 109.5 no
C2 C3 H3A 109.5 no
C4 C3 H3B 109.5 no
C2 C3 H3B 109.5 no
H3A C3 H3B 108.1 no
O4 C4 O3 123.60(17) no
O4 C4 C3 122.79(17) no
O3 C4 C3 113.59(16) no
C17 N1 H1A 109.5 no
C17 N1 H1B 109.5 no
H1A N1 H1B 109.5 no
C17 N1 H1C 109.5 no
H1A N1 H1C 109.5 no
H1B N1 H1C 109.5 no
C16 C11 C12 118.73(18) no
C16 C11 C17 119.74(18) no
C12 C11 C17 121.52(18) no
C11 C12 C13 120.30(19) no
C11 C12 H12 119.9 no
C13 C12 H12 119.9 no
C14 C13 C12 120.2(2) no
C14 C13 H13 119.9 no
C12 C13 H13 119.9 no
C15 C14 C13 120.1(2) no
C15 C14 H14 120.0 no
C13 C14 H14 120.0 no
C14 C15 C16 119.6(2) no
C14 C15 H15 120.2 no
C16 C15 H15 120.2 no
C15 C16 C11 121.1(2) no
C15 C16 H16 119.5 no
C11 C16 H16 119.5 no
N1 C17 C11 110.94(16) no
N1 C17 C18 108.84(17) no
C11 C17 C18 112.69(17) no
N1 C17 H17 108.1 no
C11 C17 H17 108.1 no
C18 C17 H17 108.1 no
C17 C18 H18A 109.5 no
C17 C18 H18B 109.5 no
H18A C18 H18B 109.5 no
C17 C18 H18C 109.5 no
H18A C18 H18C 109.5 no
H18B C18 H18C 109.5 no
loop_
_geom_bond_atom_site_label_1
_geom_bond_atom_site_label_2
_geom_bond_site_symmetry_2
_geom_bond_distance
_geom_bond_publ_flag
O1 C1 . 1.266(2) no
O1 H1 . 0.84 no
O2 C1 . 1.241(2) no
O3 C4 . 1.314(2) no
O3 H3 . 0.84 no
O4 C4 . 1.217(2) no
O5 C2 . 1.418(2) no
O5 H5 . 0.84 no
C1 C2 . 1.531(2) no
C2 C3 . 1.532(3) no
C2 H2 . 1.00 no
C3 C4 . 1.516(3) no
C3 H3A . 0.99 no
C3 H3B . 0.99 no
N1 C17 . 1.505(3) no
N1 H1A . 0.91 no
N1 H1B . 0.91 no
N1 H1C . 0.91 no
C11 C16 . 1.389(3) no
C11 C12 . 1.391(3) no
C11 C17 . 1.515(3) no
C12 C13 . 1.392(3) no
C12 H12 . 0.95 no
C13 C14 . 1.382(3) no
C13 H13 . 0.95 no
C14 C15 . 1.382(3) no
C14 H14 . 0.95 no
C15 C16 . 1.388(3) no
C15 H15 . 0.95 no
C16 H16 . 0.95 no
C17 C18 . 1.522(3) no
C17 H17 . 1.00 no
C18 H18A . 0.98 no
C18 H18B . 0.98 no
C18 H18C . 0.98 no
loop_
_geom_hbond_atom_site_label_D
_geom_hbond_atom_site_label_H
_geom_hbond_atom_site_label_A
_geom_hbond_site_symmetry_A
_geom_hbond_distance_DH
_geom_hbond_distance_HA
_geom_hbond_distance_DA
_geom_hbond_angle_DHA
_geom_hbond_publ_flag
O1 H1 O3 1_556 0.84 1.73 2.548(2) 164 y
O3 H3 O1 1_554 0.84 1.71 2.548(2) 176 y
O5 H5 O2 . 0.84 2.13 2.629(2) 118 y
O5 H5 O4 1_455 0.84 2.17 2.777(2) 129 y
N1 H1A O1 . 0.91 1.96 2.865(2) 170 y
N1 H1B O2 1_655 0.91 1.92 2.834(2) 178 y
N1 H1C O5 1_656 0.91 2.05 2.877(2) 151 y
loop_
_geom_torsion_atom_site_label_1
_geom_torsion_atom_site_label_2
_geom_torsion_atom_site_label_3
_geom_torsion_atom_site_label_4
_geom_torsion
_geom_torsion_publ_flag
O2 C1 C2 O5 0.1(2) no
O1 C1 C2 O5 179.44(17) no
O2 C1 C2 C3 122.75(18) no
O1 C1 C2 C3 -57.9(2) no
O5 C2 C3 C4 -57.7(2) no
C1 C2 C3 C4 179.19(15) no
C2 C3 C4 O4 -85.8(2) no
C2 C3 C4 O3 92.7(2) no
C16 C11 C12 C13 0.2(3) no
C17 C11 C12 C13 179.14(19) no
C11 C12 C13 C14 -0.8(3) no
C12 C13 C14 C15 1.5(3) no
C13 C14 C15 C16 -1.5(3) no
C14 C15 C16 C11 0.8(3) no
C12 C11 C16 C15 -0.2(3) no
C17 C11 C16 C15 -179.15(19) no
C16 C11 C17 N1 -116.9(2) no
C12 C11 C17 N1 64.2(2) no
C16 C11 C17 C18 120.8(2) no
C12 C11 C17 C18 -58.2(3) no
