#------------------------------------------------------------------------------
#$Date: 2017-10-13 03:48:21 +0300 (Fri, 13 Oct 2017) $
#$Revision: 201957 $
#$URL: file:///home/coder/svn-repositories/cod/cif/2/01/48/2014828.cif $
#------------------------------------------------------------------------------
#
# This file is available in the Crystallography Open Database (COD),
# http://www.crystallography.net/. The original data for this entry
# were provided by IUCr Journals, http://journals.iucr.org/.
#
# The file may be used within the scientific community so long as
# proper attribution is given to the journal article from which the
# data were obtained.
#
data_2014828
loop_
_publ_author_name
'Boechat, Nubia'
'Maciel, Lindalva C.'
'Wardell, Solange M. S. V.'
'Skakle, Janet M. S.'
'Howie, R. Alan'
_publ_section_title
;
 2-(2-Acetylamino-5-chlorophenyl)-2,2-difluoroethanoic acid and
 2-(2-acetylamino-5-methylphenyl)-2,2-difluoroethanoic acid, and
 2-(2-acetylaminophenyl)-2,2-difluoro-<i>N</i>-phenylacetamide and
 2-(2-acetylaminophenyl)-<i>N</i>-(4-chlorophenyl)-2,2-difluoroacetamide:
 examples of variation in molecular packing and hydrogen-bonding motif
 induced by substituent change
;
_journal_issue                   5
_journal_name_full               'Acta Crystallographica Section C'
_journal_page_first              o270
_journal_page_last               o275
_journal_paper_doi               10.1107/S0108270105007547
_journal_volume                  61
_journal_year                    2005
_chemical_formula_iupac          'C16 H14 F2 N2 O2'
_chemical_formula_moiety         'C16 H14 F2 N2 O2'
_chemical_formula_sum            'C16 H14 F2 N2 O2'
_chemical_formula_weight         304.29
_chemical_melting_point          .441E-305
_chemical_name_systematic
;
2-(2-acetylaminophenyl)-2,2-difluoro-N-phenylacetamide
;
_space_group_IT_number           2
_symmetry_cell_setting           triclinic
_symmetry_space_group_name_Hall  '-P 1'
_symmetry_space_group_name_H-M   'P -1'
_atom_sites_solution_hydrogens   geom
_atom_sites_solution_primary     direct
_atom_sites_solution_secondary   difmap
_cell_angle_alpha                87.304(4)
_cell_angle_beta                 89.327(5)
_cell_angle_gamma                78.588(5)
_cell_formula_units_Z            2
_cell_length_a                   5.0075(3)
_cell_length_b                   11.5863(11)
_cell_length_c                   12.2219(11)
_cell_measurement_reflns_used    6753
_cell_measurement_temperature    120(2)
_cell_measurement_theta_max      27.48
_cell_measurement_theta_min      2.91
_cell_volume                     694.30(10)
_computing_cell_refinement
'DENZO (Otwinowski & Minor, 1997) and COLLECT'
_computing_data_collection       'COLLECT (Nonius, 1998)'
_computing_data_reduction        'DENZO and COLLECT'
_computing_molecular_graphics    'ORTEP-3 for Windows (Farrugia, 1997)'
_computing_publication_material  'SHELXL97 and PLATON (Spek, 2003)'
_computing_structure_refinement  'SHELXL97 (Sheldrick, 1997)'
_computing_structure_solution    'SHELXS97 (Sheldrick, 1997)'
_diffrn_ambient_temperature      120(2)
_diffrn_detector_area_resol_mean 9.091
_diffrn_measured_fraction_theta_full 0.980
_diffrn_measured_fraction_theta_max 0.980
_diffrn_measurement_device_type  'Enraf-Nonius KappaCCD area-detector'
_diffrn_measurement_method       '\f and \w'
_diffrn_radiation_monochromator  graphite
_diffrn_radiation_source         'Enraf Nonius FR591 rotating anode'
_diffrn_radiation_type           MoK\a
_diffrn_radiation_wavelength     0.71073
_diffrn_reflns_av_R_equivalents  0.0712
_diffrn_reflns_av_sigmaI/netI    0.1264
_diffrn_reflns_limit_h_max       6
_diffrn_reflns_limit_h_min       -6
_diffrn_reflns_limit_k_max       14
_diffrn_reflns_limit_k_min       -15
_diffrn_reflns_limit_l_max       15
_diffrn_reflns_limit_l_min       -15
_diffrn_reflns_number            5877
_diffrn_reflns_theta_full        27.62
_diffrn_reflns_theta_max         27.62
_diffrn_reflns_theta_min         3.34
_diffrn_standards_decay_%        0
_diffrn_standards_number         0
_exptl_absorpt_coefficient_mu    0.115
_exptl_absorpt_correction_T_max  1.0000
_exptl_absorpt_correction_T_min  0.9236
_exptl_absorpt_correction_type   multi-scan
_exptl_absorpt_process_details   '(SORTAV; Blessing, 1995, 1997)'
_exptl_crystal_colour            colourless
_exptl_crystal_density_diffrn    1.456
_exptl_crystal_density_meas      ?
_exptl_crystal_density_method    'not measured'
_exptl_crystal_description       lath
_exptl_crystal_F_000             316
_exptl_crystal_size_max          0.20
_exptl_crystal_size_mid          0.13
_exptl_crystal_size_min          0.08
_refine_diff_density_max         0.263
_refine_diff_density_min         -0.280
_refine_ls_extinction_method     none
_refine_ls_goodness_of_fit_ref   0.941
_refine_ls_hydrogen_treatment    mixed
_refine_ls_matrix_type           full
_refine_ls_number_parameters     206
_refine_ls_number_reflns         3177
_refine_ls_number_restraints     2
_refine_ls_restrained_S_all      0.941
_refine_ls_R_factor_all          0.1368
_refine_ls_R_factor_gt           0.0525
_refine_ls_shift/su_max          0.000
_refine_ls_shift/su_mean         0.000
_refine_ls_structure_factor_coef Fsqd
_refine_ls_weighting_details
'calc w = 1/[\s^2^(Fo^2^)+(0.0443P)^2^] where P=(Fo^2^+2Fc^2^)/3'
_refine_ls_weighting_scheme      calc
_refine_ls_wR_factor_gt          0.0961
_refine_ls_wR_factor_ref         0.1178
_reflns_number_gt                1631
_reflns_number_total             3177
_reflns_threshold_expression     I>2\s(I)
_cod_data_source_file            gd1371.cif
_cod_data_source_block           III
_cod_depositor_comments
;
The following automatic conversions were performed:

'_exptl_crystal_density_meas' value 'not measured' was changed to '?'
- the value is perceived as not measured.

Automatic conversion script
Id: cif_fix_values 3008 2015-01-20 13:52:24Z robertas 
;
_cod_database_code               2014828
_cod_database_fobs_code          2014828
loop_
_symmetry_equiv_pos_as_xyz
'x, y, z'
'-x, -y, -z'
loop_
_atom_site_label
_atom_site_fract_x
_atom_site_fract_y
_atom_site_fract_z
_atom_site_U_iso_or_equiv
_atom_site_adp_type
_atom_site_calc_flag
_atom_site_refinement_flags
_atom_site_occupancy
_atom_site_disorder_assembly
_atom_site_disorder_group
_atom_site_type_symbol
C1 0.8719(4) 0.2949(2) 0.93715(18) 0.0205(5) Uani d . 1 . . C
C2 0.9868(4) 0.1773(2) 0.91997(18) 0.0221(6) Uani d . 1 . . C
C3 1.1706(4) 0.1134(2) 0.99494(19) 0.0268(6) Uani d . 1 . . C
H3 1.2509 0.0337 0.9824 0.032 Uiso calc R 1 . . H
C4 1.2377(4) 0.1651(2) 1.08811(19) 0.0294(6) Uani d . 1 . . C
H4 1.3649 0.1214 1.1391 0.035 Uiso calc R 1 . . H
C5 1.1180(4) 0.2811(2) 1.10632(19) 0.0284(6) Uani d . 1 . . C
H5 1.1612 0.3166 1.1706 0.034 Uiso calc R 1 . . H
C6 0.9364(4) 0.3452(2) 1.03162(19) 0.0254(6) Uani d . 1 . . C
H6 0.8547 0.4245 1.0450 0.030 Uiso calc R 1 . . H
C7 0.6777(4) 0.3652(2) 0.85571(19) 0.0239(6) Uani d . 1 . . C
F1 0.4237(2) 0.33966(12) 0.87128(10) 0.0339(4) Uani d . 1 . . F
F2 0.6438(2) 0.48327(12) 0.87449(11) 0.0365(4) Uani d . 1 . . F
C8 0.7583(4) 0.3548(2) 0.73459(18) 0.0224(6) Uani d . 1 . . C
O1 0.9882(3) 0.36692(14) 0.70680(12) 0.0306(4) Uani d . 1 . . O
N2 0.5648(3) 0.33492(16) 0.66723(15) 0.0229(5) Uani d D 1 . . N
H2 0.407(3) 0.3278(19) 0.6934(17) 0.028 Uiso d D 1 . . H
C11 0.5910(4) 0.3236(2) 0.55235(19) 0.0227(5) Uani d . 1 . . C
C12 0.4431(4) 0.2515(2) 0.5036(2) 0.0284(6) Uani d . 1 . . C
H12 0.3319 0.2098 0.5472 0.034 Uiso calc R 1 . . H
C13 0.4564(4) 0.2399(2) 0.3916(2) 0.0338(6) Uani d . 1 . . C
H13 0.3549 0.1899 0.3584 0.041 Uiso calc R 1 . . H
C14 0.6159(4) 0.3004(2) 0.3276(2) 0.0305(6) Uani d . 1 . . C
H14 0.6258 0.2920 0.2506 0.037 Uiso calc R 1 . . H
C15 0.7612(4) 0.3734(2) 0.3764(2) 0.0317(6) Uani d . 1 . . C
H15 0.8704 0.4159 0.3326 0.038 Uiso calc R 1 . . H
C16 0.7495(4) 0.3854(2) 0.48812(19) 0.0283(6) Uani d . 1 . . C
H16 0.8500 0.4360 0.5210 0.034 Uiso calc R 1 . . H
N1 0.9183(3) 0.12263(16) 0.82493(15) 0.0244(5) Uani d D 1 . . N
H1 0.745(3) 0.1188(19) 0.8147(17) 0.029 Uiso d D 1 . . H
C9 1.1074(4) 0.0754(2) 0.74964(19) 0.0249(6) Uani d . 1 . . C
O2 1.3506(3) 0.07682(14) 0.75924(13) 0.0321(4) Uani d . 1 . . O
C10 0.9962(4) 0.0241(2) 0.6546(2) 0.0340(6) Uani d . 1 . . C
H10A 1.0268 0.0689 0.5871 0.051 Uiso calc R 1 . . H
H10B 0.8004 0.0281 0.6650 0.051 Uiso calc R 1 . . H
H10C 1.0885 -0.0583 0.6491 0.051 Uiso calc R 1 . . H
loop_
_atom_site_aniso_label
_atom_site_aniso_U_11
_atom_site_aniso_U_22
_atom_site_aniso_U_33
_atom_site_aniso_U_12
_atom_site_aniso_U_13
_atom_site_aniso_U_23
C1 0.0138(11) 0.0267(15) 0.0220(14) -0.0070(10) 0.0009(9) 0.0007(11)
C2 0.0181(11) 0.0280(16) 0.0214(14) -0.0083(10) 0.0018(10) 0.0014(11)
C3 0.0242(12) 0.0245(15) 0.0313(16) -0.0043(11) -0.0012(11) 0.0012(12)
C4 0.0247(13) 0.0351(17) 0.0278(16) -0.0059(11) -0.0033(11) 0.0045(12)
C5 0.0249(12) 0.0422(18) 0.0204(14) -0.0123(12) -0.0008(10) -0.0010(12)
C6 0.0204(12) 0.0290(16) 0.0265(15) -0.0043(10) 0.0036(10) -0.0005(12)
C7 0.0180(12) 0.0245(16) 0.0303(15) -0.0060(10) 0.0013(10) -0.0042(12)
F1 0.0164(7) 0.0565(10) 0.0299(8) -0.0100(6) 0.0032(5) -0.0008(7)
F2 0.0415(8) 0.0289(9) 0.0362(9) 0.0010(6) -0.0075(6) -0.0042(7)
C8 0.0177(12) 0.0237(15) 0.0258(14) -0.0049(10) -0.0010(10) 0.0015(11)
O1 0.0179(8) 0.0460(12) 0.0291(10) -0.0101(7) 0.0008(7) 0.0038(8)
N2 0.0165(10) 0.0327(13) 0.0210(12) -0.0087(9) 0.0012(8) 0.0012(9)
C11 0.0146(11) 0.0270(15) 0.0253(14) -0.0015(10) -0.0005(10) -0.0008(11)
C12 0.0234(12) 0.0357(17) 0.0274(16) -0.0094(11) 0.0003(10) -0.0006(12)
C13 0.0305(14) 0.0434(18) 0.0297(16) -0.0115(12) -0.0011(11) -0.0056(13)
C14 0.0250(13) 0.0430(17) 0.0213(14) -0.0021(12) -0.0009(10) 0.0001(12)
C15 0.0267(13) 0.0402(17) 0.0280(16) -0.0073(12) 0.0025(11) 0.0040(13)
C16 0.0223(12) 0.0328(16) 0.0309(16) -0.0085(11) -0.0015(11) 0.0003(12)
N1 0.0173(10) 0.0274(13) 0.0299(13) -0.0077(9) -0.0002(9) -0.0033(10)
C9 0.0224(13) 0.0258(15) 0.0275(15) -0.0070(10) 0.0026(10) -0.0010(11)
O2 0.0212(9) 0.0405(12) 0.0351(11) -0.0065(7) 0.0018(7) -0.0042(8)
C10 0.0308(14) 0.0369(17) 0.0357(17) -0.0084(12) 0.0009(11) -0.0086(13)
loop_
_atom_type_symbol
_atom_type_description
_atom_type_scat_dispersion_real
_atom_type_scat_dispersion_imag
_atom_type_scat_source
C C 0.0033 0.0016 'International Tables Vol C Tables 4.2.6.8 and 6.1.1.4'
H H 0.0000 0.0000 'International Tables Vol C Tables 4.2.6.8 and 6.1.1.4'
F F 0.0171 0.0103 'International Tables Vol C Tables 4.2.6.8 and 6.1.1.4'
N N 0.0061 0.0033 'International Tables Vol C Tables 4.2.6.8 and 6.1.1.4'
O O 0.0106 0.0060 'International Tables Vol C Tables 4.2.6.8 and 6.1.1.4'
loop_
_geom_angle_atom_site_label_1
_geom_angle_atom_site_label_2
_geom_angle_atom_site_label_3
_geom_angle
C6 C1 C2 119.2(2)
C6 C1 C7 120.4(2)
C2 C1 C7 120.3(2)
C3 C2 C1 120.0(2)
C3 C2 N1 119.7(2)
C1 C2 N1 120.3(2)
C2 C3 C4 120.3(2)
C2 C3 H3 119.8
C4 C3 H3 119.8
C5 C4 C3 119.5(2)
C5 C4 H4 120.2
C3 C4 H4 120.2
C6 C5 C4 120.3(2)
C6 C5 H5 119.8
C4 C5 H5 119.8
C5 C6 C1 120.6(2)
C5 C6 H6 119.7
C1 C6 H6 119.7
F1 C7 F2 104.57(16)
F1 C7 C1 109.79(18)
F2 C7 C1 110.02(18)
F1 C7 C8 109.75(18)
F2 C7 C8 105.17(18)
C1 C7 C8 116.77(18)
O1 C8 N2 125.5(2)
O1 C8 C7 118.69(19)
N2 C8 C7 115.77(18)
C8 N2 C11 125.84(18)
C8 N2 H2 119.8(14)
C11 N2 H2 114.4(14)
C12 C11 C16 119.6(2)
C12 C11 N2 117.9(2)
C16 C11 N2 122.5(2)
C11 C12 C13 120.1(2)
C11 C12 H12 120.0
C13 C12 H12 120.0
C14 C13 C12 120.4(2)
C14 C13 H13 119.8
C12 C13 H13 119.8
C13 C14 C15 119.3(2)
C13 C14 H14 120.3
C15 C14 H14 120.3
C16 C15 C14 120.7(2)
C16 C15 H15 119.7
C14 C15 H15 119.7
C15 C16 C11 119.9(2)
C15 C16 H16 120.0
C11 C16 H16 120.0
C9 N1 C2 122.86(17)
C9 N1 H1 118.8(14)
C2 N1 H1 118.4(14)
O2 C9 N1 122.2(2)
O2 C9 C10 122.7(2)
N1 C9 C10 115.10(19)
C9 C10 H10A 109.5
C9 C10 H10B 109.5
H10A C10 H10B 109.5
C9 C10 H10C 109.5
H10A C10 H10C 109.5
H10B C10 H10C 109.5
loop_
_geom_bond_atom_site_label_1
_geom_bond_atom_site_label_2
_geom_bond_site_symmetry_2
_geom_bond_distance
_geom_bond_publ_flag
C1 C6 . 1.387(3) ?
C1 C2 . 1.395(3) ?
C1 C7 . 1.494(3) ?
C2 C3 . 1.386(3) ?
C2 N1 . 1.426(3) ?
C3 C4 . 1.386(3) ?
C3 H3 . 0.9500 ?
C4 C5 . 1.386(3) ?
C4 H4 . 0.9500 ?
C5 C6 . 1.379(3) ?
C5 H5 . 0.9500 ?
C6 H6 . 0.9500 ?
C7 F1 . 1.371(2) ?
C7 F2 . 1.375(2) ?
C7 C8 . 1.534(3) ?
C8 O1 . 1.229(2) ?
C8 N2 . 1.340(3) ?
N2 C11 . 1.418(3) ?
N2 H2 . 0.865(15) ?
C11 C12 . 1.380(3) ?
C11 C16 . 1.384(3) ?
C12 C13 . 1.382(3) ?
C12 H12 . 0.9500 ?
C13 C14 . 1.377(3) ?
C13 H13 . 0.9500 ?
C14 C15 . 1.379(3) ?
C14 H14 . 0.9500 ?
C15 C16 . 1.378(3) ?
C15 H15 . 0.9500 ?
C16 H16 . 0.9500 ?
N1 C9 . 1.366(3) ?
N1 H1 . 0.890(15) ?
C9 O2 . 1.228(2) ?
C9 C10 . 1.492(3) ?
C10 H10A . 0.9800 ?
C10 H10B . 0.9800 ?
C10 H10C . 0.9800 ?
loop_
_geom_hbond_atom_site_label_D
_geom_hbond_atom_site_label_H
_geom_hbond_atom_site_label_A
_geom_hbond_site_symmetry_A
_geom_hbond_distance_DH
_geom_hbond_distance_HA
_geom_hbond_distance_DA
_geom_hbond_angle_DHA
_geom_hbond_publ_flag
N1 H1 O2 1_455 0.890(15) 2.243(16) 3.114(2) 166.1(19) y
N2 H2 O1 1_455 0.865(15) 2.063(16) 2.875(2) 156(2) y
loop_
_geom_torsion_atom_site_label_1
_geom_torsion_atom_site_label_2
_geom_torsion_atom_site_label_3
_geom_torsion_atom_site_label_4
_geom_torsion
C1 C2 N1 C9 120.4(2)
C3 C2 N1 C9 -59.0(3)
C2 N1 C9 O2 0.2(3)
C2 N1 C9 C10 -178.9(2)
C7 C1 C2 N1 -0.5(3)
C7 C1 C2 C3 178.86(19)
C7 C1 C6 C5 -179.2(2)
C2 C1 C7 F1 80.3(2)
C2 C1 C7 F2 -165.17(17)
C2 C1 C7 C8 -45.4(3)
C6 C1 C7 F1 -98.6(2)
C6 C1 C7 F2 16.0(3)
C6 C1 C7 C8 135.7(2)
C1 C7 C8 O1 -49.4(3)
C1 C7 C8 N2 131.7(2)
F1 C7 C8 O1 -175.18(19)
F1 C7 C8 N2 6.0(3)
F2 C7 C8 O1 72.8(2)
F2 C7 C8 N2 -106.0(2)
C7 C8 N2 C11 179.2(2)
O1 C8 N2 C11 0.5(4)
C8 N2 C11 C12 149.5(2)
C8 N2 C11 C16 -33.2(3)
loop_
_cod_related_entry_id
_cod_related_entry_database
_cod_related_entry_code
1 ChemSpider 9220078
