#------------------------------------------------------------------------------
#$Date: 2017-10-13 03:48:21 +0300 (Fri, 13 Oct 2017) $
#$Revision: 201957 $
#$URL: file:///home/coder/svn-repositories/cod/cif/2/01/47/2014732.cif $
#------------------------------------------------------------------------------
#
# This file is available in the Crystallography Open Database (COD),
# http://www.crystallography.net/. The original data for this entry
# were provided by IUCr Journals, http://journals.iucr.org/.
#
# The file may be used within the scientific community so long as
# proper attribution is given to the journal article from which the
# data were obtained.
#
data_2014732
loop_
_publ_author_name
'da Silva, Emerson T.'
'Ribiero, Rodrigo S.'
'Lima, Edson L. S.'
'Wardell, James L.'
'Skakle, Janet M. S.'
'Low, John N.'
'Glidewell, Christopher'
_publ_section_title
;5-(1-Hydroxyethylidene)-1,3-dimethylpyrimidine-2,4,6(1<i>H</i>,3<i>H</i>,5<i>H</i>)-trione
 and four amino derivatives
;
_journal_issue                   1
_journal_name_full               'Acta Crystallographica Section C'
_journal_page_first              o15
_journal_page_last               o20
_journal_paper_doi               10.1107/S0108270104028859
_journal_volume                  61
_journal_year                    2005
_chemical_formula_iupac          'C11 H17 N3 O3'
_chemical_formula_moiety         'C11 H17 N3 O3'
_chemical_formula_sum            'C11 H17 N3 O3'
_chemical_formula_weight         239.28
_chemical_name_systematic
;
1,3-dimethyl-5-(1-propylaminoethylidene)pyrimidine-2,4,6(1H,3H,5H)-trione
;
_space_group_IT_number           7
_symmetry_cell_setting           monoclinic
_symmetry_space_group_name_Hall  'P -2yac'
_symmetry_space_group_name_H-M   'P 1 n 1'
_atom_sites_solution_hydrogens   geom
_atom_sites_solution_primary     direct
_atom_sites_solution_secondary   difmap
_cell_angle_alpha                90.00
_cell_angle_beta                 94.721(2)
_cell_angle_gamma                90.00
_cell_formula_units_Z            2
_cell_length_a                   4.1085(3)
_cell_length_b                   8.4497(5)
_cell_length_c                   17.1272(11)
_cell_measurement_reflns_used    2129
_cell_measurement_temperature    291(2)
_cell_measurement_theta_max      32.48
_cell_measurement_theta_min      2.39
_cell_volume                     592.56(7)
_computing_cell_refinement       'SAINT (Bruker, 2000)'
_computing_data_collection       'SMART (Bruker, 2000)'
_computing_data_reduction        SAINT
_computing_molecular_graphics    'PLATON (Spek, 2003)'
_computing_publication_material  'SHELXL97 and PRPKAPPA (Ferguson, 1999)'
_computing_structure_refinement  'SHELXL97 (Sheldrick, 1997)'
_computing_structure_solution    'SHELXS97 (Sheldrick, 1997)'
_diffrn_ambient_temperature      291(2)
_diffrn_measured_fraction_theta_full 0.997
_diffrn_measured_fraction_theta_max 0.987
_diffrn_measurement_device_type  'Bruker SMART 1000 CCD area detector'
_diffrn_measurement_method       \f-\w
_diffrn_radiation_monochromator  graphite
_diffrn_radiation_source         'fine-focus sealed X-ray tube'
_diffrn_radiation_type           'Mo K\a'
_diffrn_radiation_wavelength     0.71073
_diffrn_reflns_av_R_equivalents  0.0215
_diffrn_reflns_av_sigmaI/netI    0.0176
_diffrn_reflns_limit_h_max       6
_diffrn_reflns_limit_h_min       -6
_diffrn_reflns_limit_k_max       12
_diffrn_reflns_limit_k_min       -12
_diffrn_reflns_limit_l_max       25
_diffrn_reflns_limit_l_min       -17
_diffrn_reflns_number            5869
_diffrn_reflns_theta_full        30.50
_diffrn_reflns_theta_max         32.48
_diffrn_reflns_theta_min         2.39
_diffrn_standards_decay_%        nil
_exptl_absorpt_coefficient_mu    0.099
_exptl_absorpt_correction_T_max  0.988
_exptl_absorpt_correction_T_min  0.931
_exptl_absorpt_correction_type   multi-scan
_exptl_absorpt_process_details   '(SADABS; Bruker, 2000)'
_exptl_crystal_colour            colourless
_exptl_crystal_density_diffrn    1.341
_exptl_crystal_density_method    'not measured'
_exptl_crystal_description       lath
_exptl_crystal_F_000             256
_exptl_crystal_size_max          0.49
_exptl_crystal_size_mid          0.40
_exptl_crystal_size_min          0.12
_refine_diff_density_max         0.188
_refine_diff_density_min         -0.268
_refine_ls_extinction_method     none
_refine_ls_goodness_of_fit_ref   1.013
_refine_ls_hydrogen_treatment    constr
_refine_ls_matrix_type           full
_refine_ls_number_parameters     158
_refine_ls_number_reflns         2129
_refine_ls_number_restraints     2
_refine_ls_restrained_S_all      1.013
_refine_ls_R_factor_all          0.0596
_refine_ls_R_factor_gt           0.0459
_refine_ls_shift/su_max          0.000
_refine_ls_shift/su_mean         0.000
_refine_ls_structure_factor_coef Fsqd
_refine_ls_weighting_details
'w=1/[\s^2^(Fo^2^)+(0.0836P)^2^] where P=(Fo^2^+2Fc^2^)/3'
_refine_ls_weighting_scheme      calc
_refine_ls_wR_factor_gt          0.1160
_refine_ls_wR_factor_ref         0.1261
_reflns_number_gt                1671
_reflns_number_total             2129
_reflns_threshold_expression     I>2\s(I)
_cod_data_source_file            sk1792.cif
_cod_data_source_block           II
_cod_depositor_comments
;
The following automatic conversions were performed:

'_exptl_absorpt_correction_type' value 'Multi-scan' changed to
'multi-scan' according to
/home/saulius/struct/CIF-dictionaries/cif_core.dic dictionary named
'cif_core.dic' version 2.4.1 from 2010-06-29.

Automatic conversion script
Id: cif_fix_values 1715 2011-07-08 13:25:40Z adriana 
;
_cod_original_sg_symbol_H-M      'P n'
_cod_database_code               2014732
_cod_database_fobs_code          2014732
loop_
_symmetry_equiv_pos_as_xyz
'x, y, z'
'x+1/2, -y, z+1/2'
loop_
_atom_site_label
_atom_site_fract_x
_atom_site_fract_y
_atom_site_fract_z
_atom_site_U_iso_or_equiv
_atom_site_adp_type
_atom_site_calc_flag
_atom_site_refinement_flags
_atom_site_occupancy
_atom_site_disorder_assembly
_atom_site_disorder_group
_atom_site_type_symbol
O2 -0.1487(6) 0.6297(2) 0.17114(12) 0.0757(5) Uani d . 1 . . O
O4 0.3625(4) 0.24030(15) 0.31415(9) 0.0539(4) Uani d . 1 . . O
O6 0.4409(5) 0.77604(17) 0.39406(12) 0.0691(5) Uani d . 1 . . O
N1 0.1514(5) 0.70039(19) 0.28271(11) 0.0493(4) Uani d . 1 . . N
N3 0.1034(4) 0.43561(19) 0.24510(9) 0.0442(3) Uani d . 1 . . N
N51 0.7094(4) 0.30194(18) 0.44180(10) 0.0442(3) Uani d . 1 . . N
C1 0.0685(8) 0.8679(3) 0.26797(17) 0.0705(7) Uani d . 1 . . C
C2 0.0236(5) 0.5912(2) 0.22940(12) 0.0497(4) Uani d . 1 . . C
C3 -0.0342(6) 0.3140(3) 0.19047(13) 0.0560(5) Uani d . 1 . . C
C4 0.3062(4) 0.3832(2) 0.30920(10) 0.0404(3) Uani d . 1 . . C
C5 0.4315(4) 0.50075(19) 0.36465(10) 0.0381(3) Uani d . 1 . . C
C6 0.3515(5) 0.6659(2) 0.35116(11) 0.0447(4) Uani d . 1 . . C
C51 0.6311(4) 0.4518(2) 0.43250(10) 0.0395(3) Uani d . 1 . . C
C52 0.7544(6) 0.5641(3) 0.49526(13) 0.0553(5) Uani d . 1 . . C
C53 0.8946(5) 0.2300(2) 0.50958(11) 0.0467(4) Uani d . 1 . . C
C54 0.9653(6) 0.0585(2) 0.49084(13) 0.0519(4) Uani d . 1 . . C
C55 1.1227(6) -0.0276(3) 0.56190(16) 0.0629(6) Uani d . 1 . . C
H1A 0.0733 0.8902 0.2131 0.106 Uiso calc R 1 . . H
H1B 0.2243 0.9339 0.2974 0.106 Uiso calc R 1 . . H
H1C -0.1462 0.8888 0.2838 0.106 Uiso calc R 1 . . H
H31 -0.2070 0.3594 0.1565 0.084 Uiso calc R 1 . . H
H32 -0.1192 0.2284 0.2195 0.084 Uiso calc R 1 . . H
H33 0.1336 0.2749 0.1597 0.084 Uiso calc R 1 . . H
H51 0.6452 0.2392 0.4041 0.053 Uiso calc R 1 . . H
H52A 0.8360 0.5056 0.5408 0.083 Uiso calc R 1 . . H
H52B 0.5797 0.6318 0.5085 0.083 Uiso calc R 1 . . H
H52C 0.9270 0.6271 0.4769 0.083 Uiso calc R 1 . . H
H53A 0.7692 0.2356 0.5551 0.056 Uiso calc R 1 . . H
H53B 1.0978 0.2868 0.5213 0.056 Uiso calc R 1 . . H
H54A 0.7630 0.0058 0.4729 0.062 Uiso calc R 1 . . H
H54B 1.1096 0.0543 0.4488 0.062 Uiso calc R 1 . . H
H55A 1.3038 0.0333 0.5846 0.094 Uiso calc R 1 . . H
H55B 1.1988 -0.1293 0.5463 0.094 Uiso calc R 1 . . H
H55C 0.9653 -0.0412 0.5998 0.094 Uiso calc R 1 . . H
loop_
_atom_site_aniso_label
_atom_site_aniso_U_11
_atom_site_aniso_U_22
_atom_site_aniso_U_33
_atom_site_aniso_U_12
_atom_site_aniso_U_13
_atom_site_aniso_U_23
O2 0.0973(14) 0.0687(10) 0.0557(9) 0.0106(10) -0.0264(9) 0.0048(8)
O4 0.0752(9) 0.0374(6) 0.0465(7) -0.0018(6) -0.0104(7) -0.0063(6)
O6 0.0995(13) 0.0378(6) 0.0661(10) 0.0002(7) -0.0177(9) -0.0089(7)
N1 0.0659(10) 0.0376(7) 0.0436(8) 0.0027(6) 0.0003(7) 0.0023(6)
N3 0.0546(9) 0.0446(7) 0.0324(7) -0.0011(6) -0.0037(6) -0.0037(5)
N51 0.0538(9) 0.0413(7) 0.0359(7) -0.0004(6) -0.0056(6) -0.0009(6)
C1 0.0965(19) 0.0411(10) 0.0715(16) 0.0122(10) -0.0069(14) 0.0109(10)
C2 0.0570(11) 0.0520(10) 0.0394(9) 0.0032(8) -0.0010(8) 0.0014(7)
C3 0.0695(12) 0.0555(10) 0.0407(9) -0.0065(9) -0.0091(8) -0.0098(8)
C4 0.0489(9) 0.0404(7) 0.0313(7) -0.0024(7) 0.0005(6) -0.0037(6)
C5 0.0471(9) 0.0339(6) 0.0329(7) -0.0024(6) 0.0017(6) -0.0019(5)
C6 0.0550(10) 0.0381(7) 0.0410(9) -0.0009(7) 0.0031(7) -0.0012(7)
C51 0.0431(9) 0.0419(8) 0.0333(7) -0.0034(6) 0.0028(6) -0.0030(6)
C52 0.0680(13) 0.0511(10) 0.0443(10) 0.0017(9) -0.0098(9) -0.0139(8)
C53 0.0512(10) 0.0492(10) 0.0381(9) 0.0006(7) -0.0065(7) 0.0022(7)
C54 0.0567(11) 0.0488(9) 0.0486(10) 0.0036(8) -0.0054(8) 0.0004(8)
C55 0.0680(13) 0.0561(12) 0.0616(13) 0.0076(10) -0.0127(10) 0.0096(10)
loop_
_atom_type_symbol
_atom_type_description
_atom_type_scat_dispersion_real
_atom_type_scat_dispersion_imag
_atom_type_scat_source
C C 0.0033 0.0016 'International Tables Vol C Tables 4.2.6.8 and 6.1.1.4'
H H 0.0000 0.0000 'International Tables Vol C Tables 4.2.6.8 and 6.1.1.4'
N N 0.0061 0.0033 'International Tables Vol C Tables 4.2.6.8 and 6.1.1.4'
O O 0.0106 0.0060 'International Tables Vol C Tables 4.2.6.8 and 6.1.1.4'
loop_
_geom_angle_atom_site_label_1
_geom_angle_atom_site_label_2
_geom_angle_atom_site_label_3
_geom_angle
_geom_angle_publ_flag
C2 N1 C6 125.53(16) no
C2 N1 C1 117.50(19) no
C6 N1 C1 116.96(18) no
N1 C1 H1A 109.5 no
N1 C1 H1B 109.5 no
H1A C1 H1B 109.5 no
N1 C1 H1C 109.5 no
H1A C1 H1C 109.5 no
H1B C1 H1C 109.5 no
O2 C2 N1 121.99(19) no
O2 C2 N3 121.9(2) no
N1 C2 N3 116.13(16) no
C2 N3 C4 125.05(15) no
C2 N3 C3 118.03(17) no
C4 N3 C3 116.91(16) no
N3 C3 H31 109.5 no
N3 C3 H32 109.5 no
H31 C3 H32 109.5 no
N3 C3 H33 109.5 no
H31 C3 H33 109.5 no
H32 C3 H33 109.5 no
O4 C4 N3 117.53(14) no
O4 C4 C5 125.17(15) no
N3 C4 C5 117.30(15) no
C51 C5 C4 119.18(15) no
C51 C5 C6 121.14(15) no
C4 C5 C6 119.68(15) no
N51 C51 C5 119.80(15) no
N51 C51 C52 117.45(17) no
C5 C51 C52 122.74(16) no
C51 N51 C53 127.00(16) no
C51 N51 H51 116.5 no
C53 N51 H51 116.5 no
C51 C52 H52A 109.5 no
C51 C52 H52B 109.5 no
H52A C52 H52B 109.5 no
C51 C52 H52C 109.5 no
H52A C52 H52C 109.5 no
H52B C52 H52C 109.5 no
N51 C53 C54 108.92(16) no
N51 C53 H53A 109.9 no
C54 C53 H53A 109.9 no
N51 C53 H53B 109.9 no
C54 C53 H53B 109.9 no
H53A C53 H53B 108.3 no
C55 C54 C53 111.39(18) no
C55 C54 H54A 109.3 no
C53 C54 H54A 109.3 no
C55 C54 H54B 109.3 no
C53 C54 H54B 109.3 no
H54A C54 H54B 108.0 no
C54 C55 H55A 109.5 no
C54 C55 H55B 109.5 no
H55A C55 H55B 109.5 no
C54 C55 H55C 109.5 no
H55A C55 H55C 109.5 no
H55B C55 H55C 109.5 no
O6 C6 N1 117.97(16) no
O6 C6 C5 125.76(18) no
N1 C6 C5 116.26(15) no
loop_
_geom_bond_atom_site_label_1
_geom_bond_atom_site_label_2
_geom_bond_site_symmetry_2
_geom_bond_distance
_geom_bond_publ_flag
N1 C2 . 1.372(3) no
N1 C6 . 1.406(3) no
N1 C1 . 1.473(2) no
C1 H1A . 0.96 no
C1 H1B . 0.96 no
C1 H1C . 0.96 no
C2 O2 . 1.219(3) no
C2 N3 . 1.376(3) no
N3 C4 . 1.394(2) no
N3 C3 . 1.471(2) no
C3 H31 . 0.96 no
C3 H32 . 0.96 no
C3 H33 . 0.96 no
C4 O4 . 1.232(2) no
C4 C5 . 1.440(2) no
C5 C51 . 1.427(2) no
C5 C6 . 1.448(2) no
C51 N51 . 1.313(2) no
C51 C52 . 1.491(2) no
N51 C53 . 1.467(2) no
N51 H51 . 0.86 no
C52 H52A . 0.96 no
C52 H52B . 0.96 no
C52 H52C . 0.96 no
C53 C54 . 1.517(3) no
C53 H53A . 0.97 no
C53 H53B . 0.97 no
C54 C55 . 1.516(3) no
C54 H54A . 0.97 no
C54 H54B . 0.97 no
C55 H55A . 0.96 no
C55 H55B . 0.96 no
C55 H55C . 0.96 no
C6 O6 . 1.223(2) no
loop_
_geom_hbond_atom_site_label_D
_geom_hbond_atom_site_label_H
_geom_hbond_atom_site_label_A
_geom_hbond_distance_DH
_geom_hbond_distance_HA
_geom_hbond_distance_DA
_geom_hbond_angle_DHA
_geom_hbond_publ_flag
N51 H51 O4 0.86 1.85 2.563(2) 139 no
loop_
_cod_related_entry_id
_cod_related_entry_database
_cod_related_entry_code
1 ChemSpider 21133983
