#------------------------------------------------------------------------------
#$Date: 2017-10-13 03:48:21 +0300 (Fri, 13 Oct 2017) $
#$Revision: 201957 $
#$URL: file:///home/coder/svn-repositories/cod/cif/2/01/47/2014734.cif $
#------------------------------------------------------------------------------
#
# This file is available in the Crystallography Open Database (COD),
# http://www.crystallography.net/. The original data for this entry
# were provided by IUCr Journals, http://journals.iucr.org/.
#
# The file may be used within the scientific community so long as
# proper attribution is given to the journal article from which the
# data were obtained.
#
data_2014734
loop_
_publ_author_name
'da Silva, Emerson T.'
'Ribiero, Rodrigo S.'
'Lima, Edson L. S.'
'Wardell, James L.'
'Skakle, Janet M. S.'
'Low, John N.'
'Glidewell, Christopher'
_publ_section_title
;5-(1-Hydroxyethylidene)-1,3-dimethylpyrimidine-2,4,6(1<i>H</i>,3<i>H</i>,5<i>H</i>)-trione
 and four amino derivatives
;
_journal_issue                   1
_journal_name_full               'Acta Crystallographica Section C'
_journal_page_first              o15
_journal_page_last               o20
_journal_paper_doi               10.1107/S0108270104028859
_journal_volume                  61
_journal_year                    2005
_chemical_formula_iupac          'C15 H17 N3 O3'
_chemical_formula_moiety         'C15 H17 N3 O3'
_chemical_formula_sum            'C15 H17 N3 O3'
_chemical_formula_weight         287.32
_chemical_name_systematic
;
5-[1-(benzylamino)ethylidene]-1,3-dimethylpyrimidine-2,4,6(1H,3H,5H)-trione
;
_space_group_IT_number           2
_symmetry_cell_setting           triclinic
_symmetry_space_group_name_Hall  '-P 1'
_symmetry_space_group_name_H-M   'P -1'
_atom_sites_solution_hydrogens   geom
_atom_sites_solution_primary     direct
_atom_sites_solution_secondary   difmap
_cell_angle_alpha                70.995(2)
_cell_angle_beta                 82.084(2)
_cell_angle_gamma                84.729(2)
_cell_formula_units_Z            2
_cell_length_a                   7.0696(5)
_cell_length_b                   9.0734(7)
_cell_length_c                   11.9214(8)
_cell_measurement_reflns_used    3241
_cell_measurement_temperature    291(2)
_cell_measurement_theta_max      27.50
_cell_measurement_theta_min      2.38
_cell_volume                     715.23(9)
_computing_cell_refinement       'SAINT (Bruker, 2000)'
_computing_data_collection       'SMART (Bruker, 2000)'
_computing_data_reduction        SAINT
_computing_molecular_graphics    'PLATON (Spek, 2003)'
_computing_publication_material  'SHELXL97 and PRPKAPPA (Ferguson, 1999)'
_computing_structure_refinement  'SHELXL97 (Sheldrick, 1997)'
_computing_structure_solution    'SHELXS97 (Sheldrick, 1997)'
_diffrn_ambient_temperature      291(2)
_diffrn_measured_fraction_theta_full 0.993
_diffrn_measured_fraction_theta_max 0.988
_diffrn_measurement_device_type  'Bruker SMART 1000 CCD area detector'
_diffrn_measurement_method       \f-\w
_diffrn_radiation_monochromator  graphite
_diffrn_radiation_source         'fine-focus sealed X-ray tube'
_diffrn_radiation_type           'Mo K\a'
_diffrn_radiation_wavelength     0.71073
_diffrn_reflns_av_R_equivalents  0.0220
_diffrn_reflns_av_sigmaI/netI    0.0308
_diffrn_reflns_limit_h_max       8
_diffrn_reflns_limit_h_min       -9
_diffrn_reflns_limit_k_max       11
_diffrn_reflns_limit_k_min       -11
_diffrn_reflns_limit_l_max       14
_diffrn_reflns_limit_l_min       -15
_diffrn_reflns_number            6134
_diffrn_reflns_theta_full        26.00
_diffrn_reflns_theta_max         27.50
_diffrn_reflns_theta_min         2.38
_diffrn_standards_decay_%        nil
_exptl_absorpt_coefficient_mu    0.095
_exptl_absorpt_correction_T_max  0.994
_exptl_absorpt_correction_T_min  0.959
_exptl_absorpt_correction_type   multi-scan
_exptl_absorpt_process_details   '(SADABS; Bruker, 2000)'
_exptl_crystal_colour            colourless
_exptl_crystal_density_diffrn    1.334
_exptl_crystal_density_method    'not measured'
_exptl_crystal_description       plate
_exptl_crystal_F_000             304
_exptl_crystal_size_max          0.40
_exptl_crystal_size_mid          0.34
_exptl_crystal_size_min          0.06
_refine_diff_density_max         0.169
_refine_diff_density_min         -0.185
_refine_ls_extinction_method     none
_refine_ls_goodness_of_fit_ref   1.016
_refine_ls_hydrogen_treatment    constr
_refine_ls_matrix_type           full
_refine_ls_number_parameters     193
_refine_ls_number_reflns         3241
_refine_ls_number_restraints     0
_refine_ls_restrained_S_all      1.016
_refine_ls_R_factor_all          0.0891
_refine_ls_R_factor_gt           0.0537
_refine_ls_shift/su_max          0.001
_refine_ls_shift/su_mean         0.000
_refine_ls_structure_factor_coef Fsqd
_refine_ls_weighting_details
'w=1/[\s^2^(Fo^2^)+(0.0910P)^2^+0.0203P] where P=(Fo^2^+2Fc^2^)/3'
_refine_ls_weighting_scheme      calc
_refine_ls_wR_factor_gt          0.1462
_refine_ls_wR_factor_ref         0.1666
_reflns_number_gt                1951
_reflns_number_total             3241
_reflns_threshold_expression     I>2\s(I)
_cod_data_source_file            sk1792.cif
_cod_data_source_block           IV
_cod_depositor_comments
;
The following automatic conversions were performed:

'_exptl_absorpt_correction_type' value 'Multi-scan' changed to
'multi-scan' according to
/home/saulius/struct/CIF-dictionaries/cif_core.dic dictionary named
'cif_core.dic' version 2.4.1 from 2010-06-29.

Automatic conversion script
Id: cif_fix_values 1715 2011-07-08 13:25:40Z adriana 
;
_cod_database_code               2014734
_cod_database_fobs_code          2014734
loop_
_symmetry_equiv_pos_as_xyz
'x, y, z'
'-x, -y, -z'
loop_
_atom_site_label
_atom_site_fract_x
_atom_site_fract_y
_atom_site_fract_z
_atom_site_U_iso_or_equiv
_atom_site_adp_type
_atom_site_calc_flag
_atom_site_refinement_flags
_atom_site_occupancy
_atom_site_disorder_assembly
_atom_site_disorder_group
_atom_site_type_symbol
O2 0.8283(2) 0.77351(17) -0.24671(13) 0.0730(4) Uani d . 1 . . O
O4 0.63770(18) 0.53917(14) 0.14349(11) 0.0585(4) Uani d . 1 . . O
O6 0.8917(2) 0.24754(18) -0.11249(13) 0.0806(5) Uani d . 1 . . O
N1 0.86528(19) 0.50943(18) -0.17581(13) 0.0518(4) Uani d . 1 . . N
N3 0.72782(19) 0.65292(16) -0.05138(13) 0.0476(4) Uani d . 1 . . N
N51 0.6979(2) 0.24520(17) 0.24030(13) 0.0521(4) Uani d . 1 . . N
C1 0.9526(3) 0.5053(3) -0.29394(17) 0.0709(6) Uani d . 1 . . C
C2 0.8089(2) 0.6526(2) -0.16369(16) 0.0511(4) Uani d . 1 . . C
C3 0.6678(3) 0.8033(2) -0.03372(19) 0.0619(5) Uani d . 1 . . C
C4 0.7087(2) 0.5200(2) 0.04795(15) 0.0439(4) Uani d . 1 . . C
C5 0.7713(2) 0.37156(19) 0.03285(15) 0.0434(4) Uani d . 1 . . C
C6 0.8448(2) 0.3650(2) -0.08449(16) 0.0519(5) Uani d . 1 . . C
C51 0.7615(2) 0.2346(2) 0.13415(16) 0.0461(4) Uani d . 1 . . C
C52 0.8242(3) 0.0738(2) 0.12950(19) 0.0637(5) Uani d . 1 . . C
C53 0.6938(3) 0.1173(2) 0.35324(18) 0.0682(6) Uani d . 1 . . C
C511 0.6304(3) 0.1765(2) 0.45713(16) 0.0556(5) Uani d . 1 . . C
C512 0.4584(3) 0.2565(3) 0.4644(2) 0.0773(7) Uani d . 1 . . C
C513 0.3990(5) 0.3072(3) 0.5603(2) 0.1066(10) Uani d . 1 . . C
C514 0.5105(6) 0.2763(3) 0.6516(2) 0.1050(11) Uani d . 1 . . C
C515 0.6786(5) 0.1941(3) 0.6460(2) 0.1036(9) Uani d . 1 . . C
C516 0.7404(4) 0.1456(3) 0.5486(2) 0.0815(7) Uani d . 1 . . C
H1A 0.8602 0.4749 -0.3331 0.106 Uiso calc R 1 . . H
H1B 1.0601 0.4313 -0.2849 0.106 Uiso calc R 1 . . H
H1C 0.9946 0.6069 -0.3411 0.106 Uiso calc R 1 . . H
H3A 0.7571 0.8294 0.0098 0.093 Uiso calc R 1 . . H
H3B 0.5430 0.7966 0.0106 0.093 Uiso calc R 1 . . H
H3C 0.6638 0.8826 -0.1099 0.093 Uiso calc R 1 . . H
H51 0.6547 0.3356 0.2436 0.063 Uiso calc R 1 . . H
H52A 0.9400 0.0401 0.1663 0.096 Uiso calc R 1 . . H
H52B 0.8465 0.0757 0.0478 0.096 Uiso calc R 1 . . H
H52C 0.7262 0.0029 0.1715 0.096 Uiso calc R 1 . . H
H53A 0.8204 0.0665 0.3614 0.082 Uiso calc R 1 . . H
H53B 0.6068 0.0406 0.3532 0.082 Uiso calc R 1 . . H
H512 0.3809 0.2769 0.4035 0.093 Uiso calc R 1 . . H
H513 0.2823 0.3629 0.5637 0.128 Uiso calc R 1 . . H
H514 0.4707 0.3114 0.7166 0.126 Uiso calc R 1 . . H
H515 0.7534 0.1701 0.7086 0.124 Uiso calc R 1 . . H
H516 0.8580 0.0913 0.5449 0.098 Uiso calc R 1 . . H
loop_
_atom_site_aniso_label
_atom_site_aniso_U_11
_atom_site_aniso_U_22
_atom_site_aniso_U_33
_atom_site_aniso_U_12
_atom_site_aniso_U_13
_atom_site_aniso_U_23
O2 0.0895(10) 0.0666(9) 0.0558(9) -0.0082(7) -0.0048(7) -0.0099(8)
O4 0.0739(9) 0.0535(7) 0.0511(8) 0.0048(6) 0.0021(6) -0.0266(6)
O6 0.1209(12) 0.0690(9) 0.0574(9) 0.0218(9) -0.0046(8) -0.0370(8)
N1 0.0508(8) 0.0632(9) 0.0445(8) -0.0015(7) -0.0022(6) -0.0232(7)
N3 0.0460(8) 0.0468(8) 0.0523(9) -0.0013(6) -0.0044(6) -0.0195(7)
N51 0.0638(9) 0.0452(8) 0.0472(9) 0.0005(6) 0.0014(7) -0.0186(7)
C1 0.0775(13) 0.0909(15) 0.0446(11) -0.0001(11) 0.0026(9) -0.0269(11)
C2 0.0468(10) 0.0603(11) 0.0488(11) -0.0064(8) -0.0071(8) -0.0190(9)
C3 0.0681(12) 0.0488(10) 0.0708(13) 0.0008(9) -0.0053(10) -0.0237(10)
C4 0.0385(8) 0.0502(10) 0.0473(10) -0.0018(7) -0.0048(7) -0.0214(8)
C5 0.0389(8) 0.0491(9) 0.0476(10) 0.0002(7) -0.0045(7) -0.0236(8)
C6 0.0505(10) 0.0621(11) 0.0492(10) 0.0055(8) -0.0071(8) -0.0276(9)
C51 0.0422(9) 0.0508(9) 0.0513(10) -0.0026(7) -0.0029(7) -0.0253(8)
C52 0.0780(13) 0.0493(11) 0.0647(13) 0.0002(9) 0.0046(10) -0.0253(10)
C53 0.0942(15) 0.0506(11) 0.0534(12) 0.0007(10) 0.0070(10) -0.0148(9)
C511 0.0737(12) 0.0431(9) 0.0454(10) -0.0057(8) 0.0010(9) -0.0101(8)
C512 0.0902(16) 0.0839(16) 0.0578(13) 0.0197(12) -0.0098(11) -0.0285(12)
C513 0.156(3) 0.0869(18) 0.0659(16) 0.0353(17) 0.0115(17) -0.0301(14)
C514 0.208(3) 0.0581(14) 0.0511(14) -0.0167(18) 0.0160(18) -0.0295(12)
C515 0.171(3) 0.0832(19) 0.0654(17) -0.0254(19) -0.0359(18) -0.0219(15)
C516 0.0927(16) 0.0799(16) 0.0713(15) -0.0004(12) -0.0211(13) -0.0194(13)
loop_
_atom_type_symbol
_atom_type_description
_atom_type_scat_dispersion_real
_atom_type_scat_dispersion_imag
_atom_type_scat_source
C C 0.0033 0.0016 'International Tables Vol C Tables 4.2.6.8 and 6.1.1.4'
H H 0.0000 0.0000 'International Tables Vol C Tables 4.2.6.8 and 6.1.1.4'
N N 0.0061 0.0033 'International Tables Vol C Tables 4.2.6.8 and 6.1.1.4'
O O 0.0106 0.0060 'International Tables Vol C Tables 4.2.6.8 and 6.1.1.4'
loop_
_geom_angle_atom_site_label_1
_geom_angle_atom_site_label_2
_geom_angle_atom_site_label_3
_geom_angle
_geom_angle_publ_flag
C2 N1 C6 125.47(15) no
C2 N1 C1 117.56(17) no
C6 N1 C1 116.97(16) no
N1 C1 H1A 109.5 no
N1 C1 H1B 109.5 no
H1A C1 H1B 109.5 no
N1 C1 H1C 109.5 no
H1A C1 H1C 109.5 no
H1B C1 H1C 109.5 no
O2 C2 N1 122.34(17) no
O2 C2 N3 121.41(18) no
N1 C2 N3 116.25(16) no
C2 N3 C4 124.21(15) no
C2 N3 C3 118.22(15) no
C4 N3 C3 117.47(14) no
N3 C3 H3A 109.5 no
N3 C3 H3B 109.5 no
H3A C3 H3B 109.5 no
N3 C3 H3C 109.5 no
H3A C3 H3C 109.5 no
H3B C3 H3C 109.5 no
O4 C4 N3 116.84(15) no
O4 C4 C5 124.92(16) no
N3 C4 C5 118.24(14) no
C51 C5 C4 119.34(15) no
C51 C5 C6 121.38(15) no
C4 C5 C6 119.28(16) no
N51 C51 C5 119.82(16) no
N51 C51 C52 116.09(17) no
C5 C51 C52 124.08(16) no
C51 C52 H52A 109.5 no
C51 C52 H52B 109.5 no
H52A C52 H52B 109.5 no
C51 C52 H52C 109.5 no
H52A C52 H52C 109.5 no
H52B C52 H52C 109.5 no
C51 N51 C53 125.94(15) no
C51 N51 H51 117.0 no
C53 N51 H51 117.0 no
N51 C53 C511 110.86(15) no
N51 C53 H53A 109.5 no
C511 C53 H53A 109.5 no
N51 C53 H53B 109.5 no
C511 C53 H53B 109.5 no
H53A C53 H53B 108.1 no
C512 C511 C516 118.6(2) no
C512 C511 C53 120.74(19) no
C516 C511 C53 120.6(2) no
C511 C512 C513 120.7(2) no
C511 C512 H512 119.7 no
C513 C512 H512 119.7 no
C512 C513 C514 120.4(3) no
C512 C513 H513 119.8 no
C514 C513 H513 119.8 no
C515 C514 C513 119.1(2) no
C515 C514 H514 120.4 no
C513 C514 H514 120.4 no
C514 C515 C516 120.6(3) no
C514 C515 H515 119.7 no
C516 C515 H515 119.7 no
C511 C516 C515 120.6(2) no
C511 C516 H516 119.7 no
C515 C516 H516 119.7 no
O6 C6 N1 116.95(16) no
O6 C6 C5 126.76(18) no
N1 C6 C5 116.29(15) no
loop_
_geom_bond_atom_site_label_1
_geom_bond_atom_site_label_2
_geom_bond_site_symmetry_2
_geom_bond_distance
_geom_bond_publ_flag
N1 C2 . 1.371(2) no
N1 C6 . 1.409(2) no
N1 C1 . 1.469(2) no
C1 H1A . 0.96 no
C1 H1B . 0.96 no
C1 H1C . 0.96 no
C2 O2 . 1.218(2) no
C2 N3 . 1.383(2) no
N3 C4 . 1.389(2) no
N3 C3 . 1.464(2) no
C3 H3A . 0.96 no
C3 H3B . 0.96 no
C3 H3C . 0.96 no
C4 O4 . 1.239(2) no
C4 C5 . 1.439(2) no
C5 C51 . 1.422(2) no
C5 C6 . 1.442(2) no
C51 N51 . 1.314(2) no
C51 C52 . 1.501(2) no
C52 H52A . 0.96 no
C52 H52B . 0.96 no
C52 H52C . 0.96 no
N51 C53 . 1.462(2) no
N51 H51 . 0.86 no
C53 C511 . 1.503(3) no
C53 H53A . 0.97 no
C53 H53B . 0.97 no
C511 C512 . 1.365(3) no
C511 C516 . 1.366(3) no
C512 C513 . 1.367(3) no
C512 H512 . 0.93 no
C513 C514 . 1.372(4) no
C513 H513 . 0.93 no
C514 C515 . 1.349(4) no
C514 H514 . 0.93 no
C515 C516 . 1.375(4) no
C515 H515 . 0.93 no
C516 H516 . 0.93 no
C6 O6 . 1.222(2) no
loop_
_geom_hbond_atom_site_label_D
_geom_hbond_atom_site_label_H
_geom_hbond_atom_site_label_A
_geom_hbond_site_symmetry_A
_geom_hbond_distance_DH
_geom_hbond_distance_HA
_geom_hbond_distance_DA
_geom_hbond_angle_DHA
_geom_hbond_publ_flag
N51 H51 O4 . 0.86 1.85 2.559(2) 139 no
C514 H514 O4 2_666 0.93 2.48 3.392(3) 168 no
C53 H53B Cg 2_656 0.97 2.66 3.557(2) 154 no
loop_
_geom_torsion_atom_site_label_1
_geom_torsion_atom_site_label_2
_geom_torsion_atom_site_label_3
_geom_torsion_atom_site_label_4
_geom_torsion
_geom_torsion_publ_flag
C6 N1 C2 O2 -178.99(16) no
C1 N1 C2 O2 0.3(3) no
C6 N1 C2 N3 0.9(2) no
C1 N1 C2 N3 -179.77(14) no
O2 C2 N3 C4 -177.32(16) no
N1 C2 N3 C4 2.8(2) no
O2 C2 N3 C3 -0.9(2) no
N1 C2 N3 C3 179.20(15) no
C2 N3 C4 O4 178.08(14) no
C3 N3 C4 O4 1.7(2) no
C2 N3 C4 C5 -2.1(2) no
C3 N3 C4 C5 -178.50(14) no
O4 C4 C5 C51 -3.1(3) no
N3 C4 C5 C51 177.09(14) no
O4 C4 C5 C6 177.62(16) no
N3 C4 C5 C6 -2.2(2) no
C4 C5 C51 N51 -0.9(2) no
C6 C5 C51 N51 178.43(15) no
C4 C5 C51 C52 -179.47(16) no
C6 C5 C51 C52 -0.2(3) no
C5 C51 N51 C53 -174.85(17) no
C52 C51 N51 C53 3.9(3) no
C51 N51 C53 C511 174.11(16) no
N51 C53 C511 C512 57.3(3) no
N51 C53 C511 C516 -125.4(2) no
C516 C511 C512 C513 1.1(4) no
C53 C511 C512 C513 178.5(2) no
C511 C512 C513 C514 -0.9(4) no
C512 C513 C514 C515 -0.6(4) no
C513 C514 C515 C516 1.8(4) no
C512 C511 C516 C515 0.1(4) no
C53 C511 C516 C515 -177.3(2) no
C514 C515 C516 C511 -1.6(4) no
C2 N1 C6 O6 175.44(17) no
C1 N1 C6 O6 -3.9(3) no
C2 N1 C6 C5 -4.9(3) no
C1 N1 C6 C5 175.78(15) no
C51 C5 C6 O6 5.7(3) no
C4 C5 C6 O6 -175.00(18) no
C51 C5 C6 N1 -173.94(14) no
C4 C5 C6 N1 5.4(2) no
loop_
_cod_related_entry_id
_cod_related_entry_database
_cod_related_entry_code
1 ChemSpider 4599674
