#------------------------------------------------------------------------------
#$Date: 2018-10-05 15:19:55 +0300 (Fri, 05 Oct 2018) $
#$Revision: 211332 $
#$URL: file:///home/coder/svn-repositories/cod/cif/2/01/48/2014827.cif $
#------------------------------------------------------------------------------
#
# This file is available in the Crystallography Open Database (COD),
# http://www.crystallography.net/. The original data for this entry
# were provided by IUCr Journals, http://journals.iucr.org/.
#
# The file may be used within the scientific community so long as
# proper attribution is given to the journal article from which the
# data were obtained.
#
data_2014827
loop_
_publ_author_name
'Boechat, Nubia'
'Maciel, Lindalva C.'
'Wardell, Solange M. S. V.'
'Skakle, Janet M. S.'
'Howie, R. Alan'
_publ_section_title
;
 2-(2-Acetylamino-5-chlorophenyl)-2,2-difluoroethanoic acid and
 2-(2-acetylamino-5-methylphenyl)-2,2-difluoroethanoic acid, and
 2-(2-acetylaminophenyl)-2,2-difluoro-<i>N</i>-phenylacetamide and
 2-(2-acetylaminophenyl)-<i>N</i>-(4-chlorophenyl)-2,2-difluoroacetamide:
 examples of variation in molecular packing and hydrogen-bonding motif
 induced by substituent change
;
_journal_issue                   5
_journal_name_full               'Acta Crystallographica Section C'
_journal_page_first              o270
_journal_page_last               o275
_journal_paper_doi               10.1107/S0108270105007547
_journal_volume                  61
_journal_year                    2005
_chemical_formula_iupac          'C11 H11 F2 N O3'
_chemical_formula_moiety         'C11 H11 F2 N O3'
_chemical_formula_sum            'C11 H11 F2 N O3'
_chemical_formula_weight         243.21
_chemical_melting_point          .437E-305
_chemical_name_systematic
;
2-(2-acetylamino-5-methylphenyl)-2,2-difluoroethanoic acid
;
_space_group_IT_number           4
_symmetry_cell_setting           monoclinic
_symmetry_space_group_name_Hall  'P 2yb'
_symmetry_space_group_name_H-M   'P 1 21 1'
_atom_sites_solution_hydrogens   mixed
_atom_sites_solution_primary     direct
_atom_sites_solution_secondary   difmap
_cell_angle_alpha                90.00
_cell_angle_beta                 91.208(2)
_cell_angle_gamma                90.00
_cell_formula_units_Z            2
_cell_length_a                   4.9174(3)
_cell_length_b                   8.3976(3)
_cell_length_c                   13.5487(7)
_cell_measurement_reflns_used    1294
_cell_measurement_temperature    120(2)
_cell_measurement_theta_max      27.48
_cell_measurement_theta_min      2.91
_cell_volume                     559.36(5)
_computing_cell_refinement
'DENZO (Otwinowski & Minor, 1997) and COLLECT'
_computing_data_collection       'COLLECT (Nonius, 1998)'
_computing_data_reduction        'DENZO and COLLECT'
_computing_molecular_graphics    'ORTEP-3 for Windows (Farrugia, 1997)'
_computing_publication_material  'SHELXL97 and PLATON (Spek, 2003)'
_computing_structure_refinement  'SHELXL97 (Sheldrick, 1997)'
_computing_structure_solution    'SHELXS97 (Sheldrick, 1997)'
_diffrn_ambient_temperature      120(2)
_diffrn_detector_area_resol_mean 9.091
_diffrn_measured_fraction_theta_full 0.995
_diffrn_measured_fraction_theta_max 0.995
_diffrn_measurement_device_type  'Bruker-Nonius KappaCCD area-detector'
_diffrn_measurement_method       '\f and \w'
_diffrn_radiation_monochromator  graphite
_diffrn_radiation_source         'Bruker-Nonius FR591 rotating anode'
_diffrn_radiation_type           MoK\a
_diffrn_radiation_wavelength     0.71073
_diffrn_reflns_av_R_equivalents  0.0316
_diffrn_reflns_av_sigmaI/netI    0.0323
_diffrn_reflns_limit_h_max       6
_diffrn_reflns_limit_h_min       -6
_diffrn_reflns_limit_k_max       10
_diffrn_reflns_limit_k_min       -10
_diffrn_reflns_limit_l_max       17
_diffrn_reflns_limit_l_min       -17
_diffrn_reflns_number            5630
_diffrn_reflns_theta_full        27.54
_diffrn_reflns_theta_max         27.54
_diffrn_reflns_theta_min         3.01
_diffrn_standards_decay_%        0
_diffrn_standards_number         0
_exptl_absorpt_coefficient_mu    0.126
_exptl_absorpt_correction_T_max  1.0000
_exptl_absorpt_correction_T_min  0.8130
_exptl_absorpt_correction_type   multi-scan
_exptl_absorpt_process_details   '(SADABS; Sheldrick, 2003)'
_exptl_crystal_colour            colourless
_exptl_crystal_density_diffrn    1.444
_exptl_crystal_density_meas      ?
_exptl_crystal_density_method    'not measured'
_exptl_crystal_description       block
_exptl_crystal_F_000             252
_exptl_crystal_size_max          0.30
_exptl_crystal_size_mid          0.08
_exptl_crystal_size_min          0.03
_refine_diff_density_max         0.179
_refine_diff_density_min         -0.232
_refine_ls_extinction_method     none
_refine_ls_goodness_of_fit_ref   1.078
_refine_ls_hydrogen_treatment    mixed
_refine_ls_matrix_type           full
_refine_ls_number_parameters     160
_refine_ls_number_reflns         1373
_refine_ls_number_restraints     1
_refine_ls_restrained_S_all      1.077
_refine_ls_R_factor_all          0.0425
_refine_ls_R_factor_gt           0.0358
_refine_ls_shift/su_max          0.000
_refine_ls_shift/su_mean         0.000
_refine_ls_structure_factor_coef Fsqd
_refine_ls_weighting_details
'calc w = 1/[\s^2^(Fo^2^)+(0.0465P)^2^+0.1105P] where P=(Fo^2^+2Fc^2^)/3'
_refine_ls_weighting_scheme      calc
_refine_ls_wR_factor_gt          0.0828
_refine_ls_wR_factor_ref         0.0862
_reflns_number_gt                1240
_reflns_number_total             1373
_reflns_threshold_expression     I>2\s(I)
_cod_data_source_file            gd1371.cif
_cod_data_source_block           II
_cod_depositor_comments
;
The following automatic conversions were performed:

'_exptl_crystal_density_meas' value 'not measured' was changed to '?'
- the value is perceived as not measured.

Automatic conversion script
Id: cif_fix_values 3008 2015-01-20 13:52:24Z robertas 

The following automatic conversions were performed:

'_atom_sites_solution_hydrogens' value 'geom and difmap' was changed
to 'mixed'.

Automatic conversion script
Id: cif_fix_values 6452 2018-10-05 10:23:21Z andrius 
;
_cod_original_sg_symbol_H-M      'P 21'
_cod_database_code               2014827
_cod_database_fobs_code          2014827
loop_
_symmetry_equiv_pos_as_xyz
'x, y, z'
'-x, y+1/2, -z'
loop_
_atom_site_label
_atom_site_fract_x
_atom_site_fract_y
_atom_site_fract_z
_atom_site_U_iso_or_equiv
_atom_site_adp_type
_atom_site_calc_flag
_atom_site_refinement_flags
_atom_site_occupancy
_atom_site_disorder_assembly
_atom_site_disorder_group
_atom_site_type_symbol
N1 0.2079(4) 0.7209(2) 0.64474(13) 0.0177(4) Uani d . 1 . . N
H1 0.057(6) 0.785(4) 0.6580(19) 0.021 Uiso d . 1 . . H
F1 0.6191(3) 0.99701(17) 0.85799(10) 0.0247(3) Uani d . 1 . . F
F2 0.2010(3) 0.96433(18) 0.80550(9) 0.0240(3) Uani d . 1 . . F
O1 0.7595(3) 0.9417(2) 0.65157(12) 0.0233(4) Uani d . 1 . . O
O2 0.3876(3) 1.0957(2) 0.64915(12) 0.0217(4) Uani d . 1 . . O
H2 0.4399 1.1205 0.5926 0.026 Uiso calc R 1 . . H
O3 0.4948(3) 0.6412(2) 0.52737(11) 0.0221(4) Uani d . 1 . . O
C1 0.4956(5) 0.7441(3) 0.79353(16) 0.0181(5) Uani d . 1 . . C
C2 0.3650(5) 0.6482(3) 0.72304(16) 0.0186(5) Uani d . 1 . . C
C3 0.3980(5) 0.4854(3) 0.72678(17) 0.0242(5) Uani d . 1 . . C
H3 0.3064 0.4196 0.6797 0.029 Uiso calc R 1 . . H
C4 0.5642(6) 0.4172(3) 0.79890(18) 0.0271(6) Uani d . 1 . . C
H4 0.5862 0.3049 0.8003 0.033 Uiso calc R 1 . . H
C5 0.6997(5) 0.5104(3) 0.86941(17) 0.0246(6) Uani d . 1 . . C
C6 0.6606(5) 0.6744(3) 0.86602(17) 0.0225(5) Uani d . 1 . . C
H6 0.7484 0.7399 0.9141 0.027 Uiso calc R 1 . . H
C7 0.4635(5) 0.9216(3) 0.78698(16) 0.0179(5) Uani d . 1 . . C
C8 0.5505(5) 0.9895(3) 0.68712(16) 0.0177(5) Uani d . 1 . . C
C9 0.2843(5) 0.7131(3) 0.55001(16) 0.0176(5) Uani d . 1 . . C
C10 0.1112(5) 0.7969(3) 0.47439(17) 0.0209(5) Uani d . 1 . . C
H10A -0.0541 0.8367 0.5052 0.031 Uiso calc R 1 . . H
H10B 0.0613 0.7226 0.4213 0.031 Uiso calc R 1 . . H
H10C 0.2127 0.8866 0.4471 0.031 Uiso calc R 1 . . H
C11 0.8875(6) 0.4355(4) 0.9455(2) 0.0363(7) Uani d . 1 . . C
H11A 0.9044 0.5058 1.0030 0.054 Uiso calc R 1 . . H
H11B 1.0670 0.4194 0.9171 0.054 Uiso calc R 1 . . H
H11C 0.8131 0.3326 0.9659 0.054 Uiso calc R 1 . . H
loop_
_atom_site_aniso_label
_atom_site_aniso_U_11
_atom_site_aniso_U_22
_atom_site_aniso_U_33
_atom_site_aniso_U_12
_atom_site_aniso_U_13
_atom_site_aniso_U_23
N1 0.0166(9) 0.0208(9) 0.0156(9) 0.0029(8) -0.0020(7) 0.0000(8)
F1 0.0316(8) 0.0225(7) 0.0197(6) -0.0018(6) -0.0055(6) -0.0047(6)
F2 0.0225(7) 0.0267(8) 0.0231(6) 0.0052(6) 0.0063(5) 0.0002(6)
O1 0.0192(9) 0.0255(9) 0.0253(8) 0.0032(7) 0.0034(6) 0.0026(7)
O2 0.0222(9) 0.0235(9) 0.0196(8) 0.0047(7) 0.0017(7) 0.0043(7)
O3 0.0194(9) 0.0261(9) 0.0208(8) 0.0052(7) -0.0009(7) -0.0041(7)
C1 0.0183(11) 0.0190(12) 0.0171(11) 0.0006(9) 0.0021(9) 0.0006(9)
C2 0.0181(12) 0.0218(12) 0.0159(11) 0.0017(9) 0.0004(8) 0.0020(9)
C3 0.0297(13) 0.0212(12) 0.0215(11) 0.0001(10) -0.0016(9) -0.0034(10)
C4 0.0379(16) 0.0180(12) 0.0253(13) 0.0032(11) -0.0001(11) 0.0015(10)
C5 0.0287(14) 0.0244(13) 0.0205(11) 0.0058(10) -0.0012(10) 0.0047(10)
C6 0.0240(12) 0.0253(13) 0.0179(11) 0.0008(10) -0.0033(9) 0.0001(9)
C7 0.0169(11) 0.0200(12) 0.0170(10) -0.0003(9) 0.0005(9) -0.0027(9)
C8 0.0195(11) 0.0154(11) 0.0180(10) 0.0007(9) -0.0027(8) -0.0027(9)
C9 0.0180(11) 0.0160(10) 0.0188(10) -0.0030(9) -0.0008(8) -0.0008(9)
C10 0.0191(12) 0.0249(13) 0.0186(11) 0.0017(9) -0.0019(9) 0.0015(9)
C11 0.0467(18) 0.0341(16) 0.0278(13) 0.0115(14) -0.0074(12) 0.0073(12)
loop_
_atom_type_symbol
_atom_type_description
_atom_type_scat_dispersion_real
_atom_type_scat_dispersion_imag
_atom_type_scat_source
C C 0.0033 0.0016 'International Tables Vol C Tables 4.2.6.8 and 6.1.1.4'
H H 0.0000 0.0000 'International Tables Vol C Tables 4.2.6.8 and 6.1.1.4'
F F 0.0171 0.0103 'International Tables Vol C Tables 4.2.6.8 and 6.1.1.4'
N N 0.0061 0.0033 'International Tables Vol C Tables 4.2.6.8 and 6.1.1.4'
O O 0.0106 0.0060 'International Tables Vol C Tables 4.2.6.8 and 6.1.1.4'
loop_
_geom_angle_atom_site_label_1
_geom_angle_atom_site_label_2
_geom_angle_atom_site_label_3
_geom_angle
C9 N1 C2 121.82(19)
C9 N1 H1 116.6(16)
C2 N1 H1 121.3(16)
C8 O2 H2 109.5
C6 C1 C2 119.6(2)
C6 C1 C7 121.3(2)
C2 C1 C7 119.1(2)
C3 C2 C1 119.7(2)
C3 C2 N1 120.7(2)
C1 C2 N1 119.6(2)
C2 C3 C4 120.2(2)
C2 C3 H3 119.9
C4 C3 H3 119.9
C3 C4 C5 121.2(2)
C3 C4 H4 119.4
C5 C4 H4 119.4
C6 C5 C4 118.0(2)
C6 C5 C11 121.2(2)
C4 C5 C11 120.8(2)
C1 C6 C5 121.2(2)
C1 C6 H6 119.4
C5 C6 H6 119.4
F2 C7 F1 105.35(17)
F2 C7 C1 110.36(19)
F1 C7 C1 111.15(19)
F2 C7 C8 110.19(18)
F1 C7 C8 106.54(18)
C1 C7 C8 112.92(19)
O1 C8 O2 126.2(2)
O1 C8 C7 118.7(2)
O2 C8 C7 115.0(2)
O3 C9 N1 120.6(2)
O3 C9 C10 121.67(19)
N1 C9 C10 117.7(2)
C9 C10 H10A 109.5
C9 C10 H10B 109.5
H10A C10 H10B 109.5
C9 C10 H10C 109.5
H10A C10 H10C 109.5
H10B C10 H10C 109.5
C5 C11 H11A 109.5
C5 C11 H11B 109.5
H11A C11 H11B 109.5
C5 C11 H11C 109.5
H11A C11 H11C 109.5
H11B C11 H11C 109.5
loop_
_geom_bond_atom_site_label_1
_geom_bond_atom_site_label_2
_geom_bond_site_symmetry_2
_geom_bond_distance
_geom_bond_publ_flag
N1 C9 . 1.346(3) ?
N1 C2 . 1.435(3) ?
N1 H1 . 0.94(3) ?
F1 C7 . 1.372(3) ?
F2 C7 . 1.369(3) ?
O1 C8 . 1.213(3) ?
O2 C8 . 1.298(3) ?
O2 H2 . 0.8400 ?
O3 C9 . 1.242(3) ?
C1 C6 . 1.390(3) ?
C1 C2 . 1.395(3) ?
C1 C7 . 1.501(3) ?
C2 C3 . 1.378(4) ?
C3 C4 . 1.384(4) ?
C3 H3 . 0.9500 ?
C4 C5 . 1.393(4) ?
C4 H4 . 0.9500 ?
C5 C6 . 1.391(4) ?
C5 C11 . 1.507(3) ?
C6 H6 . 0.9500 ?
C7 C8 . 1.537(3) ?
C9 C10 . 1.495(3) ?
C10 H10A . 0.9800 ?
C10 H10B . 0.9800 ?
C10 H10C . 0.9800 ?
C11 H11A . 0.9800 ?
C11 H11B . 0.9800 ?
C11 H11C . 0.9800 ?
loop_
_geom_hbond_atom_site_label_D
_geom_hbond_atom_site_label_H
_geom_hbond_atom_site_label_A
_geom_hbond_site_symmetry_A
_geom_hbond_distance_DH
_geom_hbond_distance_HA
_geom_hbond_distance_DA
_geom_hbond_angle_DHA
_geom_hbond_publ_flag
N1 H1 O1 1_455 0.94(3) 1.97(3) 2.884(3) 165(2) y
O2 H2 O3 2_656 0.84 1.67 2.502(2) 169 y
loop_
_geom_torsion_atom_site_label_1
_geom_torsion_atom_site_label_2
_geom_torsion_atom_site_label_3
_geom_torsion_atom_site_label_4
_geom_torsion
C6 C1 C2 C3 0.9(3)
C7 C1 C2 C3 178.4(2)
C6 C1 C2 N1 -176.3(2)
C7 C1 C2 N1 1.3(3)
C9 N1 C2 C3 -64.3(3)
C9 N1 C2 C1 112.8(2)
C1 C2 C3 C4 -1.3(4)
N1 C2 C3 C4 175.8(2)
C2 C3 C4 C5 0.5(4)
C3 C4 C5 C6 0.7(4)
C3 C4 C5 C11 -177.9(2)
C2 C1 C6 C5 0.4(4)
C7 C1 C6 C5 -177.2(2)
C4 C5 C6 C1 -1.2(4)
C11 C5 C6 C1 177.5(2)
C6 C1 C7 F2 -115.1(2)
C2 C1 C7 F2 67.4(3)
C6 C1 C7 F1 1.5(3)
C2 C1 C7 F1 -176.09(18)
C6 C1 C7 C8 121.1(2)
C2 C1 C7 C8 -56.4(3)
F2 C7 C8 O1 -167.90(19)
F1 C7 C8 O1 78.3(3)
C1 C7 C8 O1 -44.0(3)
F2 C7 C8 O2 12.5(3)
F1 C7 C8 O2 -101.3(2)
C1 C7 C8 O2 136.4(2)
C2 N1 C9 O3 0.3(3)
C2 N1 C9 C10 -178.1(2)
loop_
_cod_related_entry_id
_cod_related_entry_database
_cod_related_entry_code
1 ChemSpider 21133875
