#------------------------------------------------------------------------------
#$Date: 2017-10-13 03:48:21 +0300 (Fri, 13 Oct 2017) $
#$Revision: 201957 $
#$URL: file:///home/coder/svn-repositories/cod/cif/2/01/42/2014255.cif $
#------------------------------------------------------------------------------
#
# This file is available in the Crystallography Open Database (COD),
# http://www.crystallography.net/. The original data for this entry
# were provided by IUCr Journals, http://journals.iucr.org/.
#
# The file may be used within the scientific community so long as
# proper attribution is given to the journal article from which the
# data were obtained.
#
data_2014255
loop_
_publ_author_name
'Britton, Doyle'
'Brennessel, William W.'
_publ_section_title
;
 <i>p</i>-Chloro-, <i>p</i>-bromo- and two polymorphs of
 <i>p</i>-iodoacetophenone
;
_journal_issue                   8
_journal_name_full               'Acta Crystallographica Section C'
_journal_page_first              o552
_journal_page_last               o556
_journal_paper_doi               10.1107/S0108270104013824
_journal_volume                  60
_journal_year                    2004
_chemical_formula_moiety         'C8 H7 I O'
_chemical_formula_sum            'C8 H7 I O'
_chemical_formula_weight         246.04
_chemical_melting_point          358.5(5)
_chemical_name_systematic
;
  p-iodoacetophenone polymorph A
;
_space_group_IT_number           9
_symmetry_cell_setting           monoclinic
_symmetry_space_group_name_Hall  'C -2yc'
_symmetry_space_group_name_H-M   'C 1 c 1'
_atom_sites_solution_hydrogens   geom
_atom_sites_solution_primary     direct
_atom_sites_solution_secondary   difmap
_audit_creation_method           'SHELXTL plus manual additions'
_cell_angle_alpha                90.00
_cell_angle_beta                 94.410(10)
_cell_angle_gamma                90.00
_cell_formula_units_Z            4
_cell_length_a                   19.425(5)
_cell_length_b                   7.049(2)
_cell_length_c                   5.8769(15)
_cell_measurement_reflns_used    3302
_cell_measurement_temperature    173(2)
_cell_measurement_theta_max      27.5
_cell_measurement_theta_min      3.1
_cell_volume                     802.3(4)
_computing_cell_refinement       'SAINT (Siemens, 1995)'
_computing_data_collection       'SMART (Siemens, 1995)'
_computing_data_reduction        SAINT
_computing_molecular_graphics    SHELXTL
_computing_publication_material  SHELXTL
_computing_structure_refinement  SHELXTL
_computing_structure_solution    'SHELXTL (Sheldrick, 1997)'
_diffrn_ambient_temperature      173(2)
_diffrn_measured_fraction_theta_full 0.998
_diffrn_measured_fraction_theta_max 0.998
_diffrn_measurement_device_type
;
Siemens SMART area-detector diffractometer
;
_diffrn_measurement_method       '\w scans'
_diffrn_radiation_monochromator  graphite
_diffrn_radiation_source         'fine-focus sealed tube'
_diffrn_radiation_type           MoK\a
_diffrn_radiation_wavelength     0.71073
_diffrn_reflns_av_R_equivalents  0.031
_diffrn_reflns_av_sigmaI/netI    0.037
_diffrn_reflns_limit_h_max       25
_diffrn_reflns_limit_h_min       -25
_diffrn_reflns_limit_k_max       9
_diffrn_reflns_limit_k_min       -9
_diffrn_reflns_limit_l_max       7
_diffrn_reflns_limit_l_min       -7
_diffrn_reflns_number            4483
_diffrn_reflns_theta_full        27.50
_diffrn_reflns_theta_max         27.50
_diffrn_reflns_theta_min         2.10
_diffrn_standards_decay_%        ' less than 1 '
_diffrn_standards_number         0
_exptl_absorpt_coefficient_mu    3.918
_exptl_absorpt_correction_T_max  0.68
_exptl_absorpt_correction_T_min  0.38
_exptl_absorpt_correction_type   multi-scan
_exptl_absorpt_process_details
;
(SADABS; Sheldrick, 1996; Blessing, 1995)
;
_exptl_crystal_colour            'pale yellow'
_exptl_crystal_density_diffrn    2.037
_exptl_crystal_density_meas      ?
_exptl_crystal_density_method    'not measured'
_exptl_crystal_description       plate
_exptl_crystal_F_000             464
_exptl_crystal_size_max          0.25
_exptl_crystal_size_mid          0.20
_exptl_crystal_size_min          0.10
_refine_diff_density_max         0.63
_refine_diff_density_min         -0.31
_refine_ls_abs_structure_details 'Flack (1983)'
_refine_ls_abs_structure_Flack   -0.01(3)
_refine_ls_extinction_method     none
_refine_ls_goodness_of_fit_ref   1.05
_refine_ls_hydrogen_treatment    constr
_refine_ls_matrix_type           full
_refine_ls_number_parameters     91
_refine_ls_number_reflns         1821
_refine_ls_number_restraints     2
_refine_ls_restrained_S_all      1.05
_refine_ls_R_factor_all          0.024
_refine_ls_R_factor_gt           0.023
_refine_ls_shift/su_max          0.001
_refine_ls_shift/su_mean         0.000
_refine_ls_structure_factor_coef Fsqd
_refine_ls_weighting_details
;
calc w=1/[\s^2^(Fo^2^)+(0.032P)^2^+0.031P] where
P=(Fo^2^+2Fc^2^)/3
;
_refine_ls_weighting_scheme      calc
_refine_ls_wR_factor_gt          0.059
_refine_ls_wR_factor_ref         0.060
_reflns_number_gt                1768
_reflns_number_total             1821
_reflns_threshold_expression     'I>2\s(I) '
_cod_data_source_file            sq1158.cif
_cod_data_source_block           IM-A
_cod_depositor_comments
;
The following automatic conversions were performed:

'_chemical_melting_point' value '358-359 K' was changed to '358.5(5)'
- the average value was taken and precision was estimated.

Automatic conversion script
Id: cif_fix_values 1646 2011-03-28 12:23:43Z adriana 

The following automatic conversions were performed:

'_chemical_melting_point' value '358-359 K' was changed to '358.5(5)'
- the average value was taken and precision was estimated.

Automatic conversion script
Id: cif_fix_values 1715 2011-07-08 13:25:40Z adriana 

The following automatic conversions were performed:

'_exptl_crystal_density_meas' value 'not measured' was changed to '?'
- the value is perceived as not measured.

Automatic conversion script
Id: cif_fix_values 3008 2015-01-20 13:52:24Z robertas 
;
_cod_original_sg_symbol_H-M      'C c'
_cod_database_code               2014255
_cod_database_fobs_code          2014255
loop_
_symmetry_equiv_pos_as_xyz
'x, y, z'
'x, -y, z+1/2'
'x+1/2, y+1/2, z'
'x+1/2, -y+1/2, z+1/2'
loop_
_atom_site_label
_atom_site_fract_x
_atom_site_fract_y
_atom_site_fract_z
_atom_site_U_iso_or_equiv
_atom_site_adp_type
_atom_site_calc_flag
_atom_site_refinement_flags
_atom_site_occupancy
_atom_site_disorder_assembly
_atom_site_disorder_group
_atom_site_type_symbol
I1 0.5000 0.26811(3) 0.5000 0.03998(9) Uani d . 1 . . I
O1 0.8311(2) 0.2031(5) 0.0940(7) 0.0532(8) Uani d . 1 . . O
C1 0.7426(2) 0.2402(4) 0.3415(7) 0.0278(7) Uani d . 1 . . C
C2 0.6910(2) 0.1829(6) 0.1788(7) 0.0297(8) Uani d . 1 . . C
H2 0.7034 0.1383 0.0351 0.036 Uiso calc R 1 . . H
C3 0.6220(2) 0.1895(5) 0.2210(6) 0.0307(6) Uani d . 1 . . C
H3 0.5876 0.1475 0.1088 0.037 Uiso calc R 1 . . H
C4 0.6037(2) 0.2580(4) 0.4291(7) 0.0285(8) Uani d . 1 . . C
C5 0.6537(2) 0.3188(5) 0.5961(6) 0.0300(6) Uani d . 1 . . C
H5 0.6405 0.3664 0.7376 0.036 Uiso calc R 1 . . H
C6 0.7228(2) 0.3088(5) 0.5534(6) 0.0303(6) Uani d . 1 . . C
H6 0.7572 0.3484 0.6673 0.036 Uiso calc R 1 . . H
C7 0.8164(3) 0.2347(6) 0.2888(9) 0.0337(9) Uani d . 1 . . C
C8 0.8714(3) 0.2684(6) 0.4777(10) 0.0475(11) Uani d . 1 . . C
H8A 0.9169 0.2613 0.4169 0.071 Uiso calc R 1 . . H
H8B 0.8681 0.1716 0.5960 0.071 Uiso calc R 1 . . H
H8C 0.8651 0.3944 0.5436 0.071 Uiso calc R 1 . . H
loop_
_atom_site_aniso_label
_atom_site_aniso_U_11
_atom_site_aniso_U_22
_atom_site_aniso_U_33
_atom_site_aniso_U_12
_atom_site_aniso_U_13
_atom_site_aniso_U_23
I1 0.03069(13) 0.04697(13) 0.04280(14) 0.0027(3) 0.00627(9) 0.0040(3)
O1 0.0398(19) 0.083(2) 0.0382(16) -0.0006(17) 0.0135(14) -0.0091(16)
C1 0.032(2) 0.0273(15) 0.0250(16) 0.0004(11) 0.0064(14) 0.0007(10)
C2 0.0402(19) 0.0263(18) 0.0228(16) 0.0007(16) 0.0034(13) -0.0010(14)
C3 0.0349(18) 0.0292(15) 0.0272(15) -0.0011(14) -0.0025(13) -0.0034(12)
C4 0.030(2) 0.0259(15) 0.0300(19) 0.0006(11) 0.0023(16) 0.0040(10)
C5 0.0403(18) 0.0267(14) 0.0230(14) 0.0008(13) 0.0030(12) -0.0007(11)
C6 0.0367(17) 0.0278(15) 0.0261(15) -0.0025(13) 0.0013(12) -0.0033(12)
C7 0.034(2) 0.029(2) 0.038(2) 0.0011(16) 0.0074(18) 0.0002(15)
C8 0.033(2) 0.068(3) 0.042(3) -0.0055(17) 0.0051(19) -0.0008(17)
loop_
_atom_type_symbol
_atom_type_description
_atom_type_scat_dispersion_real
_atom_type_scat_dispersion_imag
_atom_type_scat_source
C C 0.0033 0.0016 'International Tables Vol C Tables 4.2.6.8 and 6.1.1.4'
H H 0.0000 0.0000 'International Tables Vol C Tables 4.2.6.8 and 6.1.1.4'
O O 0.0106 0.0060 'International Tables Vol C Tables 4.2.6.8 and 6.1.1.4'
I I -0.4742 1.8119 'International Tables Vol C Tables 4.2.6.8 and 6.1.1.4'
loop_
_geom_angle_atom_site_label_1
_geom_angle_atom_site_label_2
_geom_angle_atom_site_label_3
_geom_angle
C2 C1 C6 118.3(4)
C2 C1 C7 120.2(4)
C6 C1 C7 121.5(4)
C3 C2 C1 121.6(4)
C3 C2 H2 119.2
C1 C2 H2 119.2
C4 C3 C2 119.2(4)
C4 C3 H3 120.4
C2 C3 H3 120.4
C3 C4 C5 121.1(4)
C3 C4 I1 120.3(3)
C5 C4 I1 118.6(3)
C6 C5 C4 119.3(3)
C6 C5 H5 120.4
C4 C5 H5 120.4
C5 C6 C1 120.5(3)
C5 C6 H6 119.7
C1 C6 H6 119.7
O1 C7 C1 119.8(5)
O1 C7 C8 121.2(5)
C1 C7 C8 118.9(5)
C7 C8 H8A 109.5
C7 C8 H8B 109.5
H8A C8 H8B 109.5
C7 C8 H8C 109.5
H8A C8 H8C 109.5
H8B C8 H8C 109.5
loop_
_geom_bond_atom_site_label_1
_geom_bond_atom_site_label_2
_geom_bond_site_symmetry_2
_geom_bond_distance
_geom_bond_publ_flag
I1 C4 . 2.090(5) ?
O1 C7 . 1.221(7) ?
C1 C2 . 1.391(6) ?
C1 C6 . 1.416(5) ?
C1 C7 . 1.491(7) ?
C2 C3 . 1.381(6) ?
C2 H2 . 0.9500 ?
C3 C4 . 1.387(6) ?
C3 H3 . 0.9500 ?
C4 C5 . 1.393(6) ?
C5 C6 . 1.387(5) ?
C5 H5 . 0.9500 ?
C6 H6 . 0.9500 ?
C7 C8 . 1.499(8) ?
C8 H8A . 0.9800 ?
C8 H8B . 0.9800 ?
C8 H8C . 0.9800 ?
loop_
_cod_related_entry_id
_cod_related_entry_database
_cod_related_entry_code
1 ChemSpider 65701
