#------------------------------------------------------------------------------
#$Date: 2017-10-13 03:48:21 +0300 (Fri, 13 Oct 2017) $
#$Revision: 201957 $
#$URL: file:///home/coder/svn-repositories/cod/cif/2/01/58/2015842.cif $
#------------------------------------------------------------------------------
#
# This file is available in the Crystallography Open Database (COD),
# http://www.crystallography.net/. The original data for this entry
# were provided by IUCr Journals, http://journals.iucr.org/.
#
# The file may be used within the scientific community so long as
# proper attribution is given to the journal article from which the
# data were obtained.
#
data_2015842
loop_
_publ_author_name
'\"Ozek, Arzu'
'Albayrak, \,Ci\(gdem'
'Odaba\,so\(glu, Mustafa'
'B\"uy\"ukg\"ung\"or, Orhan'
_publ_section_title
;
 Three (<i>E</i>)-2-[(bromophenyl)iminomethyl]-4-methoxyphenols
;
_journal_coeditor_code           DN3025
_journal_issue                   3
_journal_name_full               'Acta Crystallographica Section C'
_journal_page_first              o177
_journal_page_last               o180
_journal_paper_doi               10.1107/S0108270107003241
_journal_volume                  63
_journal_year                    2007
_chemical_formula_iupac          'C14 H12 Br N O2'
_chemical_formula_moiety         'C14 H12 Br N O2'
_chemical_formula_sum            'C14 H12 Br N O2'
_chemical_formula_weight         306.16
_chemical_name_systematic
;
(E)-2-[(3-bromophenyl)iminomethyl]-4-methoxyphenol
;
_space_group_IT_number           7
_symmetry_cell_setting           monoclinic
_symmetry_space_group_name_Hall  'P -2yc'
_symmetry_space_group_name_H-M   'P 1 c 1'
_atom_sites_solution_hydrogens   geom
_atom_sites_solution_primary     direct
_atom_sites_solution_secondary   difmap
_audit_creation_method           SHELXL97
_cell_angle_alpha                90.00
_cell_angle_beta                 113.915(11)
_cell_angle_gamma                90.00
_cell_formula_units_Z            2
_cell_length_a                   12.6852(19)
_cell_length_b                   4.5157(4)
_cell_length_c                   12.1383(18)
_cell_measurement_reflns_used    8350
_cell_measurement_temperature    296
_cell_measurement_theta_max      27.93
_cell_measurement_theta_min      3.01
_cell_volume                     635.62(16)
_computing_cell_refinement       X-AREA
_computing_data_collection       'X-AREA (Stoe & Cie, 2002)'
_computing_data_reduction        'X-RED (Stoe & Cie, 2002)'
_computing_molecular_graphics    'ORTEP-3 for Windows (Farrugia, 1997)'
_computing_publication_material  'WinGX (Farrugia, 1998)'
_computing_structure_refinement  'SHELXL97 (Sheldrick, 1997)'
_computing_structure_solution    'SHELXS97 (Sheldrick, 1997)'
_diffrn_ambient_temperature      296
_diffrn_detector_area_resol_mean 6.67
_diffrn_measured_fraction_theta_full 0.999
_diffrn_measured_fraction_theta_max 0.999
_diffrn_measurement_device_type  'Stoe IPDS 2'
_diffrn_measurement_method       \w
_diffrn_radiation_monochromator  graphite
_diffrn_radiation_source         'fine-focus sealed tube'
_diffrn_radiation_type           MoK\a
_diffrn_radiation_wavelength     0.71073
_diffrn_reflns_av_R_equivalents  0.0861
_diffrn_reflns_av_sigmaI/netI    0.0416
_diffrn_reflns_limit_h_max       15
_diffrn_reflns_limit_h_min       -15
_diffrn_reflns_limit_k_max       5
_diffrn_reflns_limit_k_min       -5
_diffrn_reflns_limit_l_max       14
_diffrn_reflns_limit_l_min       -14
_diffrn_reflns_number            8350
_diffrn_reflns_theta_full        26.00
_diffrn_reflns_theta_max         26.00
_diffrn_reflns_theta_min         3.37
_diffrn_standards_decay_%        <2
_diffrn_standards_number         0
_exptl_absorpt_coefficient_mu    3.226
_exptl_absorpt_correction_T_max  0.7228
_exptl_absorpt_correction_T_min  0.2791
_exptl_absorpt_correction_type   integration
_exptl_absorpt_process_details   '(X-RED; Stoe & Cie, 2002)'
_exptl_crystal_colour            red
_exptl_crystal_density_diffrn    1.600
_exptl_crystal_density_method    'not measured'
_exptl_crystal_description       prism
_exptl_crystal_F_000             308
_exptl_crystal_size_max          0.75
_exptl_crystal_size_mid          0.33
_exptl_crystal_size_min          0.11
_refine_diff_density_max         0.333
_refine_diff_density_min         -0.352
_refine_ls_abs_structure_details 'Flack (1983), with how many Friedel pairs?'
_refine_ls_abs_structure_Flack   0.467(16)
_refine_ls_extinction_method     none
_refine_ls_goodness_of_fit_ref   1.371
_refine_ls_hydrogen_treatment    constr
_refine_ls_matrix_type           full
_refine_ls_number_parameters     164
_refine_ls_number_reflns         2504
_refine_ls_number_restraints     2
_refine_ls_restrained_S_all      1.370
_refine_ls_R_factor_all          0.0669
_refine_ls_R_factor_gt           0.0509
_refine_ls_shift/su_max          0.000
_refine_ls_shift/su_mean         0.000
_refine_ls_structure_factor_coef Fsqd
_refine_ls_weighting_details
'calc w = 1/[\s^2^(Fo^2^)+(0.0243P)^2^+0.2013P] where P=(Fo^2^+2Fc^2^)/3'
_refine_ls_weighting_scheme      calc
_refine_ls_wR_factor_gt          0.0974
_refine_ls_wR_factor_ref         0.1008
_reflns_number_gt                1105
_reflns_number_total             1259
_reflns_threshold_expression     I>2\s(I)
_cod_data_source_file            dn3025.cif
_cod_data_source_block           II
_cod_depositor_comments
;
The following automatic conversions were performed:
'_symmetry_cell_setting' value 'Monoclinic' changed to 'monoclinic'
according to '/home/saulius/struct/CIF-dictionaries/cif_core.dic'
dictionary named 'cif_core.dic' version 2.4.1 from 2010-06-29.

Automatic conversion script
Id: cif_fix_enum 1527 2010-12-29 10:47:43Z saulius 

The following automatic conversions were performed:

'_symmetry_cell_setting' value 'Monoclinic' changed to 'monoclinic'
according to /home/saulius/struct/CIF-dictionaries/cif_core.dic
dictionary named 'cif_core.dic' version 2.4.1 from 2010-06-29.

Automatic conversion script
Id: cif_fix_values 1715 2011-07-08 13:25:40Z adriana 
;
_cod_original_cell_volume        635.62(15)
_cod_original_sg_symbol_H-M      'P c'
_cod_database_code               2015842
_cod_database_fobs_code          2015842
loop_
_symmetry_equiv_pos_as_xyz
'x, y, z'
'x, -y, z+1/2'
loop_
_atom_site_type_symbol
_atom_site_label
_atom_site_fract_x
_atom_site_fract_y
_atom_site_fract_z
_atom_site_U_iso_or_equiv
_atom_site_adp_type
_atom_site_calc_flag
_atom_site_refinement_flags
_atom_site_occupancy
C C1 0.4760(5) -0.0273(12) 0.3835(5) 0.0418(13) Uani d . 1
C C2 0.3939(5) -0.1410(13) 0.4206(5) 0.0523(15) Uani d . 1
H H2 0.3968 -0.0860 0.4956 0.063 Uiso calc R 1
C C3 0.3091(6) -0.3309(17) 0.3509(6) 0.0519(19) Uani d . 1
C C4 0.3068(5) -0.4181(15) 0.2397(5) 0.0581(16) Uani d . 1
H H4 0.2495 -0.5459 0.1907 0.070 Uiso calc R 1
C C5 0.3888(6) -0.3158(14) 0.2024(5) 0.0572(16) Uani d . 1
H H5 0.3870 -0.3792 0.1287 0.069 Uiso calc R 1
C C6 0.4741(7) -0.1214(14) 0.2713(7) 0.050(2) Uani d . 1
C C7 0.1382(6) -0.6010(19) 0.3252(7) 0.081(2) Uani d . 1
H H7A 0.0765 -0.5806 0.3514 0.122 Uiso calc R 1
H H7B 0.1624 -0.8041 0.3327 0.122 Uiso calc R 1
H H7C 0.1118 -0.5405 0.2426 0.122 Uiso calc R 1
C C8 0.5611(5) 0.1791(12) 0.4600(5) 0.0458(14) Uani d . 1
H H8 0.5607 0.2265 0.5343 0.055 Uiso calc R 1
C C9 0.7163(5) 0.5078(11) 0.5079(5) 0.0430(14) Uani d . 1
C C10 0.8037(5) 0.6000(14) 0.4748(5) 0.0463(13) Uani d . 1
H H10 0.8076 0.5284 0.4048 0.056 Uiso calc R 1
C C11 0.8843(5) 0.7977(13) 0.5466(5) 0.0472(14) Uani d . 1
C C12 0.8812(5) 0.9152(15) 0.6492(5) 0.0505(14) Uani d . 1
H H12 0.9361 1.0520 0.6954 0.061 Uiso calc R 1
C C13 0.7942(5) 0.8243(14) 0.6816(5) 0.0529(15) Uani d . 1
H H13 0.7901 0.9013 0.7508 0.064 Uiso calc R 1
C C14 0.7121(6) 0.6184(17) 0.6123(6) 0.0490(17) Uani d . 1
H H14 0.6548 0.5558 0.6362 0.059 Uiso calc R 1
Br Br1 1.00608(6) 0.91668(16) 0.50129(6) 0.0731(3) Uani d . 1
N N1 0.6371(4) 0.2999(10) 0.4304(4) 0.0443(11) Uani d . 1
O O1 0.5527(5) -0.0196(13) 0.2316(4) 0.0656(15) Uani d . 1
H H1 0.5976 0.0927 0.2820 0.098 Uiso calc R 1
O O2 0.2323(5) -0.4205(13) 0.3977(5) 0.0819(16) Uani d . 1
loop_
_atom_site_aniso_label
_atom_site_aniso_U_11
_atom_site_aniso_U_22
_atom_site_aniso_U_33
_atom_site_aniso_U_12
_atom_site_aniso_U_13
_atom_site_aniso_U_23
C1 0.054(3) 0.035(3) 0.033(3) -0.002(3) 0.014(2) -0.002(2)
C2 0.067(4) 0.055(4) 0.040(3) -0.006(3) 0.027(3) -0.002(3)
C3 0.065(4) 0.044(4) 0.050(5) -0.009(3) 0.027(4) 0.002(3)
C4 0.064(4) 0.056(4) 0.046(3) -0.012(4) 0.013(3) -0.007(3)
C5 0.074(4) 0.057(4) 0.042(3) -0.007(3) 0.025(3) -0.008(3)
C6 0.063(4) 0.050(5) 0.042(4) 0.003(3) 0.026(3) 0.005(3)
C7 0.072(4) 0.077(5) 0.099(6) -0.025(4) 0.039(4) -0.009(5)
C8 0.061(3) 0.040(3) 0.038(3) 0.000(3) 0.022(3) 0.002(3)
C9 0.050(3) 0.039(4) 0.036(3) 0.001(2) 0.013(3) 0.000(3)
C10 0.050(3) 0.048(3) 0.043(3) 0.000(3) 0.020(3) 0.000(3)
C11 0.052(3) 0.050(4) 0.041(3) -0.005(3) 0.019(3) 0.014(3)
C12 0.050(3) 0.046(3) 0.048(3) -0.011(3) 0.013(3) -0.001(3)
C13 0.066(4) 0.050(4) 0.043(3) -0.006(3) 0.023(3) -0.005(3)
C14 0.049(4) 0.052(4) 0.045(4) -0.006(3) 0.018(3) -0.008(3)
Br1 0.0668(4) 0.0881(5) 0.0680(4) -0.0187(6) 0.0312(3) 0.0094(6)
N1 0.052(3) 0.039(3) 0.042(3) -0.002(2) 0.020(2) -0.002(2)
O1 0.074(3) 0.086(4) 0.046(3) -0.025(3) 0.034(3) -0.018(3)
O2 0.084(4) 0.094(4) 0.081(4) -0.038(3) 0.046(3) -0.021(3)
loop_
_atom_type_symbol
_atom_type_description
_atom_type_scat_dispersion_real
_atom_type_scat_dispersion_imag
_atom_type_scat_source
C C 0.0033 0.0016 'International Tables Vol C Tables 4.2.6.8 and 6.1.1.4'
H H 0.0000 0.0000 'International Tables Vol C Tables 4.2.6.8 and 6.1.1.4'
Br Br -0.2901 2.4595 'International Tables Vol C Tables 4.2.6.8 and 6.1.1.4'
N N 0.0061 0.0033 'International Tables Vol C Tables 4.2.6.8 and 6.1.1.4'
O O 0.0106 0.0060 'International Tables Vol C Tables 4.2.6.8 and 6.1.1.4'
loop_
_geom_angle_atom_site_label_1
_geom_angle_atom_site_label_2
_geom_angle_atom_site_label_3
_geom_angle
C2 C1 C6 118.5(6)
C2 C1 C8 119.5(5)
C6 C1 C8 121.9(6)
C3 C2 C1 122.4(5)
C3 C2 H2 118.8
C1 C2 H2 118.8
C2 C3 O2 116.1(6)
C2 C3 C4 118.6(6)
O2 C3 C4 125.3(7)
C5 C4 C3 120.3(6)
C5 C4 H4 119.9
C3 C4 H4 119.9
C4 C5 C6 121.7(6)
C4 C5 H5 119.1
C6 C5 H5 119.1
O1 C6 C5 120.7(6)
O1 C6 C1 120.8(6)
C5 C6 C1 118.5(7)
O2 C7 H7A 109.5
O2 C7 H7B 109.5
H7A C7 H7B 109.5
O2 C7 H7C 109.5
H7A C7 H7C 109.5
H7B C7 H7C 109.5
N1 C8 C1 123.2(5)
N1 C8 H8 118.4
C1 C8 H8 118.4
C14 C9 C10 119.2(6)
C14 C9 N1 124.5(5)
C10 C9 N1 116.2(5)
C11 C10 C9 119.3(5)
C11 C10 H10 120.4
C9 C10 H10 120.4
C12 C11 C10 122.8(5)
C12 C11 Br1 118.5(4)
C10 C11 Br1 118.7(4)
C11 C12 C13 117.8(6)
C11 C12 H12 121.1
C13 C12 H12 121.1
C12 C13 C14 121.0(6)
C12 C13 H13 119.5
C14 C13 H13 119.5
C9 C14 C13 119.8(6)
C9 C14 H14 120.1
C13 C14 H14 120.1
C8 N1 C9 120.6(4)
C6 O1 H1 109.5
C3 O2 C7 118.2(6)
loop_
_geom_bond_atom_site_label_1
_geom_bond_atom_site_label_2
_geom_bond_distance
C1 C2 1.390(8)
C1 C6 1.417(9)
C1 C8 1.444(8)
C2 C3 1.369(9)
C2 H2 0.9300
C3 O2 1.373(8)
C3 C4 1.394(9)
C4 C5 1.373(9)
C4 H4 0.9300
C5 C6 1.381(10)
C5 H5 0.9300
C6 O1 1.352(7)
C7 O2 1.418(8)
C7 H7A 0.9600
C7 H7B 0.9600
C7 H7C 0.9600
C8 N1 1.278(6)
C8 H8 0.9300
C9 C14 1.383(9)
C9 C10 1.387(7)
C9 N1 1.417(7)
C10 C11 1.371(8)
C10 H10 0.9300
C11 C12 1.368(8)
C11 Br1 1.915(5)
C12 C13 1.376(8)
C12 H12 0.9300
C13 C14 1.395(9)
C13 H13 0.9300
C14 H14 0.9300
O1 H1 0.8200
loop_
_geom_hbond_atom_site_label_D
_geom_hbond_atom_site_label_H
_geom_hbond_atom_site_label_A
_geom_hbond_distance_DH
_geom_hbond_distance_HA
_geom_hbond_distance_DA
_geom_hbond_angle_DHA
O1 H1 N1 0.82 1.91 2.638(7) 147.6
loop_
_geom_torsion_atom_site_label_1
_geom_torsion_atom_site_label_2
_geom_torsion_atom_site_label_3
_geom_torsion_atom_site_label_4
_geom_torsion
C6 C1 C2 C3 -2.6(9)
C8 C1 C2 C3 178.1(6)
C1 C2 C3 O2 -178.6(6)
C1 C2 C3 C4 1.5(10)
C2 C3 C4 C5 0.4(11)
O2 C3 C4 C5 -179.5(7)
C3 C4 C5 C6 -1.2(11)
C4 C5 C6 O1 -178.8(6)
C4 C5 C6 C1 0.1(10)
C2 C1 C6 O1 -179.3(6)
C8 C1 C6 O1 -0.1(10)
C2 C1 C6 C5 1.7(9)
C8 C1 C6 C5 -179.0(6)
C2 C1 C8 N1 -177.8(5)
C6 C1 C8 N1 2.9(9)
C14 C9 C10 C11 0.3(8)
N1 C9 C10 C11 -179.1(5)
C9 C10 C11 C12 -1.5(9)
C9 C10 C11 Br1 178.8(4)
C10 C11 C12 C13 1.3(9)
Br1 C11 C12 C13 -179.0(5)
C11 C12 C13 C14 0.2(10)
C10 C9 C14 C13 1.1(10)
N1 C9 C14 C13 -179.6(6)
C12 C13 C14 C9 -1.4(11)
C1 C8 N1 C9 178.1(5)
C14 C9 N1 C8 -6.6(9)
C10 C9 N1 C8 172.7(5)
C2 C3 O2 C7 175.7(7)
C4 C3 O2 C7 -4.3(12)
loop_
_cod_related_entry_id
_cod_related_entry_database
_cod_related_entry_code
1 ChemSpider 30654054
