#------------------------------------------------------------------------------
#$Date: 2017-10-13 03:48:21 +0300 (Fri, 13 Oct 2017) $
#$Revision: 201957 $
#$URL: file:///home/coder/svn-repositories/cod/cif/2/01/59/2015971.cif $
#------------------------------------------------------------------------------
#
# This file is available in the Crystallography Open Database (COD),
# http://www.crystallography.net/. The original data for this entry
# were provided by IUCr Journals, http://journals.iucr.org/.
#
# The file may be used within the scientific community so long as
# proper attribution is given to the journal article from which the
# data were obtained.
#
data_2015971
loop_
_publ_author_name
'Bendeif, El-eulmi'
'Jelsch, Christian'
_publ_section_title
;
The experimental library multipolar atom model refinement of <i>L</i>-aspartic
acid
;
_journal_coeditor_code           AV3087
_journal_issue                   6
_journal_name_full               'Acta Crystallographica, Section C'
_journal_page_first              o361
_journal_page_last               o364
_journal_paper_doi               10.1107/S0108270107021671
_journal_volume                  63
_journal_year                    2007
_chemical_formula_iupac          'C4 H7 N O4'
_chemical_formula_moiety         'C4 H7 N O4'
_chemical_formula_structural     'C4 H7 N O4'
_chemical_formula_sum            'C4 H7 N O4'
_chemical_formula_weight         133.11
_chemical_name_common            'L-Aspartic acid'
_chemical_name_systematic        'L-Aspartic acid'
_space_group_IT_number           4
_symmetry_cell_setting           monoclinic
_symmetry_space_group_name_Hall  'P 2yb'
_symmetry_space_group_name_H-M   'P 1 21 1'
_cell_angle_alpha                90.000
_cell_angle_beta                 100.662(4)
_cell_angle_gamma                90.000
_cell_formula_units_Z            2
_cell_length_a                   5.1135(2)
_cell_length_b                   6.9059(3)
_cell_length_c                   7.5925(3)
_cell_measurement_reflns_used    7129
_cell_measurement_temperature    100(2)
_cell_measurement_theta_max      32.86
_cell_measurement_theta_min      2.73
_cell_volume                     263.48(3)
_computing_cell_refinement       'CrysAlis RED (Oxford Diffraction, 2006)'
_computing_data_collection       'CrysAlis CCD (Oxford Diffraction, 2006)'
_computing_data_reduction        'CrysAlis RED'
_computing_molecular_graphics    'ORTEPIII (Burnett & Johnson, 1996)'
_computing_publication_material  'enCIFer (Allen <i>et al.</i>, 2004)'
_computing_structure_refinement  'MOPRO6 (Jelsch <i>et al.</i>,  2005)'
_computing_structure_solution    'SHELXS97 (Sheldrick, 1997)'
_diffrn_ambient_temperature      100(2)
_diffrn_detector_area_resol_mean 16.0009
_diffrn_measured_fraction_theta_full 1.0000
_diffrn_measured_fraction_theta_max 0.9440
_diffrn_measurement_device       'Oxford Diffraction Xcalibur-Sapphire2'
_diffrn_measurement_method       \w
_diffrn_radiation_monochromator  graphite
_diffrn_radiation_source         'Enhance (Mo) X-ray Source'
_diffrn_radiation_type           MoK\a
_diffrn_radiation_wavelength     0.71073
_diffrn_reflns_av_R_equivalents  0.0446
_diffrn_reflns_av_sigmaI/netI    0.0600
_diffrn_reflns_limit_h_max       7
_diffrn_reflns_limit_h_min       -7
_diffrn_reflns_limit_k_max       10
_diffrn_reflns_limit_k_min       0
_diffrn_reflns_limit_l_max       11
_diffrn_reflns_limit_l_min       0
_diffrn_reflns_number            7129
_diffrn_reflns_theta_full        30.00
_diffrn_reflns_theta_max         32.86
_diffrn_reflns_theta_min         2.73
_diffrn_standards_interval_count 0
_diffrn_standards_interval_time  0
_diffrn_standards_number         0
_exptl_absorpt_coefficient_mu    0.152
_exptl_absorpt_correction_T_max  0.982
_exptl_absorpt_correction_T_min  0.971
_exptl_absorpt_correction_type   integration
_exptl_absorpt_process_details   '(ABSORB; DeTitta, 1985)'
_exptl_crystal_colour            colourless
_exptl_crystal_density_diffrn    1.678
_exptl_crystal_density_method    'not measured'
_exptl_crystal_description       prism
_exptl_crystal_F_000             140
_exptl_crystal_size_max          0.2
_exptl_crystal_size_mid          0.15
_exptl_crystal_size_min          0.1
_refine_diff_density_max         0.301
_refine_diff_density_min         -0.195
_refine_ls_extinction_method     none
_refine_ls_goodness_of_fit_ref   1.467
_refine_ls_hydrogen_treatment    mixed
_refine_ls_matrix_type           full
_refine_ls_number_parameters     110
_refine_ls_number_reflns         968
_refine_ls_number_restraints     7
_refine_ls_restrained_S_all      1.467
_refine_ls_R_factor_all          0.0451
_refine_ls_R_factor_gt           0.0428
_refine_ls_shift/su_max          0.000
_refine_ls_shift/su_mean         0.000
_refine_ls_structure_factor_coef F
_refine_ls_weighting_details     'calc w = 1/[\s^2^(Fo)]'
_refine_ls_weighting_scheme      calc
_refine_ls_wR_factor_gt          0.0402
_refine_ls_wR_factor_ref         0.0190
_reflns_number_gt                968
_reflns_number_total             995
_reflns_threshold_expression     I>0\s(I)
_cod_data_source_file            av3087.cif
_cod_original_sg_symbol_H-M      'P 21'
_cod_database_code               2015971
loop_
_symmetry_equiv_pos_as_xyz
'x, y, z'
'-x, y+1/2, -z'
loop_
_atom_site_type_symbol
_atom_site_label
_atom_site_fract_x
_atom_site_fract_y
_atom_site_fract_z
_atom_site_U_iso_or_equiv
_atom_site_adp_type
_atom_site_calc_flag
_atom_site_refinement_flags
_atom_site_occupancy
N NT 0.8583(3) 0.978(9) 0.3162(2) 0.0102(3) Uani d R 1
H H1 1.029(5) 0.914(10) 0.388(3) 0.0121(2) Uiso d R 1
H H2 0.810(4) 1.100(10) 0.389(3) 0.0121(2) Uiso d R 1
H H3 0.900(4) 1.022(10) 0.188(3) 0.0121(2) Uiso d R 1
C CA 0.6348(3) 0.836(9) 0.2952(2) 0.0083(4) Uani d R 1
C CT 0.5605(3) 0.796(9) 0.4786(2) 0.0088(4) Uani d R 1
C CB 0.7156(3) 0.644(9) 0.2198(2) 0.0116(4) Uani d R 1
C CG 0.7930(3) 0.659(9) 0.0378(2) 0.0097(4) Uani d R 1
O OT1 0.7497(2) 0.784(9) 0.60950(10) 0.0123(3) Uani d R 1
O OT2 0.3184(2) 0.771(9) 0.48170(10) 0.0124(3) Uani d R 1
O OD1 1.0020(2) 0.593(9) 0.00850(10) 0.0199(3) Uani d R 1
O OD2 0.6125(2) 0.744(9) -0.08390(10) 0.0125(3) Uani d R 1
H HA 0.468(3) 0.898(10) 0.207(2) 0.00990(10) Uiso d R 1
H HB1 0.881(4) 0.578(10) 0.313(3) 0.0139(2) Uiso d R 1
H HB2 0.541(3) 0.556(10) 0.207(2) 0.0139(2) Uiso d R 1
H HD 0.679(4) 0.750(10) -0.203(3) 0.0149(2) Uiso d R 1
loop_
_atom_site_aniso_label
_atom_site_aniso_U_11
_atom_site_aniso_U_22
_atom_site_aniso_U_33
_atom_site_aniso_U_12
_atom_site_aniso_U_13
_atom_site_aniso_U_23
NT 0.0102(6) 0.0105(7) 0.0096(6) -0.0037(6) 0.0025(5) -0.0016(6)
CA 0.0088(7) 0.0083(7) 0.0077(7) -0.0018(6) 0.0033(5) 0.0006(5)
CT 0.0103(7) 0.0102(7) 0.0059(6) 0.0017(6) 0.0029(5) 0.0018(6)
CB 0.0179(8) 0.0092(7) 0.0076(7) -0.0002(6) 0.0051(6) -0.0016(6)
CG 0.0153(7) 0.0083(7) 0.0055(7) 0.0013(6) 0.0045(6) 0.0001(6)
OT1 0.0103(5) 0.0191(6) 0.0071(5) 0.0008(5) 0.0008(4) 0.0013(5)
OT2 0.0091(5) 0.0157(5) 0.0124(5) -0.0011(5) 0.0035(4) 0.0021(5)
OD1 0.0205(6) 0.0273(7) 0.0119(5) 0.0124(6) 0.0064(5) 0.0020(5)
OD2 0.0126(6) 0.0166(6) 0.0082(5) 0.0015(5) 0.0024(4) 0.0022(5)
loop_
_atom_type_symbol
_atom_type_description
_atom_type_scat_dispersion_real
_atom_type_scat_dispersion_imag
_atom_type_scat_source
C C 0.0033 0.0016 'International Tables Vol C Tables 4.2.6.8 and 6.1.1.4'
H H 0 0 'International Tables Vol C Tables 4.2.6.8 and 6.1.1.4'
N N 0.0061 0.0033 'International Tables Vol C Tables 4.2.6.8 and 6.1.1.4'
O O 0.0106 0.006 'International Tables Vol C Tables 4.2.6.8 and 6.1.1.4'
loop_
_geom_angle_atom_site_label_1
_geom_angle_atom_site_label_2
_geom_angle_atom_site_label_3
_geom_angle
_geom_angle_publ_flag
NT CA CT 109.7(3) yes
NT CA CB 110.7(4) yes
NT CA HA 108.(2) yes
H1 NT H2 109.(5) yes
H1 NT H3 108.(5) yes
H1 NT CA 109.(2) yes
H2 NT H3 111.(5) yes
H2 NT CA 109.(2) yes
H3 NT CA 111.(2) yes
CA CT OT1 116.5(3) yes
CA CT OT2 116.9(3) yes
CA CB CG 114.6(4) yes
CA CB HB1 110.(3) yes
CA CB HB2 104.(2) yes
CT CA CB 108.0(4) yes
CT CA HA 110.(3) yes
CB CA HA 111.(3) yes
CB CG OD1 121.8(5) yes
CB CG OD2 113.9(4) yes
CG CB HB1 109.(3) yes
CG CB HB2 108.(2) yes
CG OD2 HD 110.(3) yes
OT1 CT OT2 126.5(4) yes
OD1 CG OD2 124.2(5) yes
HB1 CB HB2 111.(4) yes
loop_
_geom_bond_atom_site_label_1
_geom_bond_atom_site_label_2
_geom_bond_distance
_geom_bond_publ_flag
NT H1 1.04(4) yes
NT H2 1.07(3) yes
NT H3 1.08(3) yes
NT CA 1.492(3) yes
CA CT 1.535(2) yes
CA CB 1.532(3) yes
CA HA 1.07(3) yes
CT OT1 1.255(2) yes
CT OT2 1.2540(10) yes
CB CG 1.510(2) yes
CB HB1 1.09(3) yes
CB HB2 1.07(2) yes
CG OD1 1.220(2) yes
CG OD2 1.317(3) yes
OD2 HD 1.03(2) yes
loop_
_geom_hbond_atom_site_label_D
_geom_hbond_atom_site_label_H
_geom_hbond_atom_site_label_A
_geom_hbond_site_symmetry_A
_geom_hbond_distance_DH
_geom_hbond_distance_HA
_geom_hbond_distance_DA
_geom_hbond_angle_DHA
OD2 HD OT1 1_554 1.027 1.546 2.5670(10) 171
NT H2 OT2 2_656 1.066 1.738 2.792(2) 169
NT H3 OD1 2_755 1.077 1.731 2.806(2) 175
NT H1 OT2 1_655 1.037 1.811 2.838(3) 170
loop_
_geom_torsion_atom_site_label_1
_geom_torsion_atom_site_label_2
_geom_torsion_atom_site_label_3
_geom_torsion_atom_site_label_4
_geom_torsion
_geom_torsion_publ_flag
NT CA CT OT1 -39.0(4) ?
NT CA CT OT2 143.3(4) ?
NT CA CB CG -60.3(6) ?
H1 NT CA CT 67.(4) ?
H1 NT CA CB -52.(5) ?
H2 NT CA CT -51.(4) ?
H2 NT CA CB -170.0(10) ?
H3 NT CA CT -174.0(10) ?
H3 NT CA CB 67.(3) ?
CA CB CG OD1 128.3(8) ?
CA CB CG OD2 -53.5(7) ?
CT CA CB CG 179.6(2) yes
CB CA CT OT1 81.8(5) ?
CB CA CT OT2 -95.9(4) ?
loop_
_cod_related_entry_id
_cod_related_entry_database
_cod_related_entry_code
1 ChemSpider 5745
