#------------------------------------------------------------------------------
#$Date: 2016-02-20 00:18:51 +0200 (Sat, 20 Feb 2016) $
#$Revision: 176760 $
#$URL: svn://www.crystallography.net/cod/cif/2/01/52/2015265.cif $
#------------------------------------------------------------------------------
#
# This file is available in the Crystallography Open Database (COD),
# http://www.crystallography.net/. The original data for this entry
# were provided by IUCr Journals, http://journals.iucr.org/.
#
# The file may be used within the scientific community so long as
# proper attribution is given to the journal article from which the
# data were obtained.
#
data_2015265
loop_
_publ_author_name
' Odoko, Mamiko'
' Okabe, Nobuo'
_publ_section_title
;Dichloro(propane-1,3-diamine-\k^2^<i>N</i>,<i>N</i>')platinum(II),
 dichloro(propane-1,3-diamine-\k^2^<i>N</i>,<i>N</i>')palladium(II) and
 \m-4,9-diazadodecane-1,12-diamine-\k^2^<i>N</i>^1^,<i>N</i>^4^:\k^2^<i>N</i>^9^,<i>N</i>^12^-bis[dichloroplatinum(II)]
;
_journal_coeditor_code           OB1247
_journal_issue                   4
_journal_name_full               'Acta Crystallographica Section C'
_journal_page_first              m136
_journal_page_last               m139
_journal_paper_doi               10.1107/S010827010600610X
_journal_volume                  62
_journal_year                    2006
_chemical_formula_iupac          '[Pd Cl2 (C3 H10 N2)]'
_chemical_formula_moiety         'C3 H10 Cl2 N2 Pd'
_chemical_formula_sum            'C3 H10 Cl2 N2 Pd'
_chemical_formula_weight         251.45
_chemical_name_systematic
;
dichloro(propane-1,3-diamine-\k^2^N,N')palladium(II)
;
_space_group_IT_number           57
_symmetry_cell_setting           orthorhombic
_symmetry_space_group_name_Hall  '-P 2c 2b'
_symmetry_space_group_name_H-M   'P b c m'
_cell_angle_alpha                90
_cell_angle_beta                 90
_cell_angle_gamma                90
_cell_formula_units_Z            4
_cell_length_a                   8.386(7)
_cell_length_b                   7.167(5)
_cell_length_c                   12.880(10)
_cell_measurement_reflns_used    5562
_cell_measurement_temperature    296
_cell_measurement_theta_max      27.4
_cell_measurement_theta_min      3.2
_cell_volume                     774.1(10)
_computing_cell_refinement       RAPID-AUTO
_computing_data_collection       'RAPID-AUTO (Rigaku Corporation, 1998)'
_computing_data_reduction
'CrystalStructure (Rigaku/MSC, 2005) and CRYSTALS (Watkin <i>et al.</i>, 1996)'
_computing_molecular_graphics    'ORTEPII (Johnson, 1976)'
_computing_publication_material  CrystalStructure
_computing_structure_refinement  'SHELXL97 (Sheldrick, 1997)'
_computing_structure_solution    'SIR97 (Altomare <i>et al.</i>,  1999)'
_diffrn_detector_area_resol_mean 10.00
_diffrn_measured_fraction_theta_full 0.9962
_diffrn_measured_fraction_theta_max 0.9962
_diffrn_measurement_device_type  'Rigaku R-AXIS RAPID'
_diffrn_measurement_method       \w
_diffrn_radiation_type           'Mo K\a'
_diffrn_radiation_wavelength     0.7107
_diffrn_reflns_av_R_equivalents  0.022
_diffrn_reflns_limit_h_max       10
_diffrn_reflns_limit_h_min       -10
_diffrn_reflns_limit_k_max       8
_diffrn_reflns_limit_k_min       -9
_diffrn_reflns_limit_l_max       16
_diffrn_reflns_limit_l_min       -16
_diffrn_reflns_number            7656
_diffrn_reflns_theta_full        27.45
_diffrn_reflns_theta_max         27.45
_diffrn_standards_number         0
_exptl_absorpt_coefficient_mu    2.995
_exptl_absorpt_correction_T_max  0.861
_exptl_absorpt_correction_T_min  0.645
_exptl_absorpt_correction_type   multi-scan
_exptl_absorpt_process_details   '(ABSCOR; Higashi, 1995)'
_exptl_crystal_colour            brown
_exptl_crystal_density_diffrn    2.158
_exptl_crystal_density_method    'not measured'
_exptl_crystal_description       needle
_exptl_crystal_F_000             488.00
_exptl_crystal_size_max          0.15
_exptl_crystal_size_mid          0.05
_exptl_crystal_size_min          0.05
_refine_diff_density_max         0.26
_refine_diff_density_min         -0.60
_refine_ls_extinction_method     none
_refine_ls_goodness_of_fit_ref   1.024
_refine_ls_hydrogen_treatment    constr
_refine_ls_number_parameters     41
_refine_ls_number_reflns         923
_refine_ls_R_factor_gt           0.0170
_refine_ls_shift/su_max          0.0000
_refine_ls_structure_factor_coef Fsqd
_refine_ls_weighting_details
'w = 1/[\s^2^(Fo^2^)+(0.0243P)^2^] where P=(Fo^2^+2Fc^2^)/3'
_refine_ls_weighting_scheme      calc
_refine_ls_wR_factor_ref         0.0430
_reflns_number_gt                650
_reflns_number_total             923
_reflns_threshold_expression     F^2^>2.0\s(F^2^)
_cod_data_source_file            ob1247.cif
_cod_data_source_block           II
_cod_database_code               2015265
_cod_database_fobs_code          2015265
loop_
_symmetry_equiv_pos_site_id
_symmetry_equiv_pos_as_xyz
1 +X,+Y,+Z
2 -X,1/2+Y,+Z
3 +X,1/2-Y,1/2+Z
4 -X,-Y,1/2+Z
5 -X,-Y,-Z
6 +X,1/2-Y,-Z
7 -X,1/2+Y,1/2-Z
8 +X,+Y,1/2-Z
loop_
_atom_site_type_symbol
_atom_site_label
_atom_site_fract_x
_atom_site_fract_y
_atom_site_fract_z
_atom_site_U_iso_or_equiv
_atom_site_adp_type
_atom_site_calc_flag
_atom_site_refinement_flags
_atom_site_occupancy
Pd Pd1 0.00708(3) 0.04926(3) 0.2500 0.02881(9) Uani d S 1
Cl Cl1 -0.18302(7) 0.03777(8) 0.11832(5) 0.04133(15) Uani d . 1
N N1 0.1721(2) 0.0737(2) 0.13486(15) 0.0408(4) Uani d . 1
H H1A 0.1365 0.0060 0.0808 0.049 Uiso calc R 1
H H1B 0.1717 0.1938 0.1144 0.049 Uiso calc R 1
C C1 0.3417(3) 0.0204(3) 0.1518(2) 0.0449(6) Uani d . 1
H H1C 0.4049 0.0617 0.0931 0.054 Uiso calc R 1
H H1D 0.3497 -0.1145 0.1558 0.054 Uiso calc R 1
C C2 0.4087(3) 0.1044(5) 0.2500 0.0397(7) Uani d S 1
H H2A 0.3869 0.2373 0.2500 0.048 Uiso calc SR 1
H H2B 0.5235 0.0884 0.2500 0.048 Uiso calc SR 1
loop_
_atom_site_aniso_label
_atom_site_aniso_U_11
_atom_site_aniso_U_22
_atom_site_aniso_U_33
_atom_site_aniso_U_12
_atom_site_aniso_U_13
_atom_site_aniso_U_23
Pd1 0.02779(13) 0.03443(14) 0.02421(13) 0.00006(11) 0.000 0.000
Cl1 0.0348(3) 0.0578(3) 0.0314(3) 0.0039(3) -0.0055(2) -0.0022(2)
N1 0.0366(10) 0.0547(11) 0.0313(11) -0.0047(9) 0.0041(8) -0.0030(8)
C1 0.0341(11) 0.0548(13) 0.0458(14) 0.0018(11) 0.0075(11) -0.0061(11)
C2 0.0250(15) 0.0446(17) 0.049(2) -0.0032(14) 0.000 0.000
loop_
_atom_type_symbol
_atom_type_description
_atom_type_scat_dispersion_real
_atom_type_scat_dispersion_imag
_atom_type_scat_source
C C 0.003 0.002
;
International Tables for Crystallography
(1992, Vol. C, Tables 4.2.6.8 and 6.1.1.4)
;
H H 0.000 0.000
;
International Tables for Crystallography
(1992, Vol. C, Table 6.1.1.4)
;
N N 0.006 0.003
;
International Tables for Crystallography
(1992, Vol. C, Tables 4.2.6.8 and 6.1.1.4)
;
Pd Pd -0.999 1.007
;
International Tables for Crystallography
(1992, Vol. C, Tables 4.2.6.8 and 6.1.1.4)
;
Cl Cl 0.148 0.159
;
International Tables for Crystallography
(1992, Vol. C, Tables 4.2.6.8 and 6.1.1.4)
;
loop_
_geom_angle_atom_site_label_1
_geom_angle_atom_site_label_2
_geom_angle_atom_site_label_3
_geom_angle_site_symmetry_1
_geom_angle_site_symmetry_3
_geom_angle
_geom_angle_publ_flag
N1 Pd1 N1 . 8_555 93.52(13) yes
N1 Pd1 Cl1 . . 86.42(9) yes
N1 Pd1 Cl1 8_555 . 177.09(5) ?
N1 Pd1 Cl1 . 8_555 177.09(5) yes
N1 Pd1 Cl1 8_555 8_555 86.42(9) ?
Cl1 Pd1 Cl1 . 8_555 93.49(8) yes
C1 N1 Pd1 . . 121.34(16) ?
C1 N1 H1A . . 107.0 ?
Pd1 N1 H1A . . 107.0 ?
C1 N1 H1B . . 107.0 ?
Pd1 N1 H1B . . 107.0 ?
H1A N1 H1B . . 106.7 ?
N1 C1 C2 . . 112.1(2) ?
N1 C1 H1C . . 109.2 ?
C2 C1 H1C . . 109.2 ?
N1 C1 H1D . . 109.2 ?
C2 C1 H1D . . 109.2 ?
H1C C1 H1D . . 107.9 ?
C1 C2 C1 . 8_555 113.9(3) ?
C1 C2 H2A . . 108.8 ?
C1 C2 H2A 8_555 . 108.8 ?
C1 C2 H2B . . 108.8 ?
C1 C2 H2B 8_555 . 108.8 ?
H2A C2 H2B . . 107.7 ?
loop_
_geom_bond_atom_site_label_1
_geom_bond_atom_site_label_2
_geom_bond_distance
_geom_bond_publ_flag
Pd1 N1 2.036(2) yes
Pd1 Cl1 2.3296(15) yes
N1 C1 1.489(3) ?
N1 H1A 0.9000 ?
N1 H1B 0.9000 ?
C1 C2 1.509(3) ?
C1 H1C 0.9700 ?
C1 H1D 0.9700 ?
C2 H2A 0.9700 ?
C2 H2B 0.9700 ?
loop_
_geom_hbond_atom_site_label_D
_geom_hbond_atom_site_label_H
_geom_hbond_atom_site_label_A
_geom_hbond_site_symmetry_A
_geom_hbond_distance_DH
_geom_hbond_distance_HA
_geom_hbond_distance_DA
_geom_hbond_angle_DHA
_geom_hbond_publ_flag
N1 H1A Cl1 5_555 0.90 2.61 3.359(3) 141 yes
N1 H1B Cl1 2_555 0.90 2.47 3.334(3) 162 yes
loop_
_geom_torsion_atom_site_label_1
_geom_torsion_atom_site_label_2
_geom_torsion_atom_site_label_3
_geom_torsion_atom_site_label_4
_geom_torsion_site_symmetry_1
_geom_torsion_site_symmetry_4
_geom_torsion
_geom_torsion_publ_flag
N1 Pd1 N1 C1 8_555 . 26.0(2) yes
Cl1 Pd1 N1 C1 . . -156.92(16) ?
Pd1 N1 C1 C2 . . -49.0(2) yes
N1 C1 C2 C1 . 8_555 70.6(3) ?
