#------------------------------------------------------------------------------
#$Date: 2017-10-13 03:48:21 +0300 (Fri, 13 Oct 2017) $
#$Revision: 201957 $
#$URL: file:///home/coder/svn-repositories/cod/cif/2/01/57/2015741.cif $
#------------------------------------------------------------------------------
#
# This file is available in the Crystallography Open Database (COD),
# http://www.crystallography.net/. The original data for this entry
# were provided by IUCr Journals, http://journals.iucr.org/.
#
# The file may be used within the scientific community so long as
# proper attribution is given to the journal article from which the
# data were obtained.
#
data_2015741
loop_
_publ_author_name
'Portilla, Jaime'
'Mata, Ernesto G.'
'Nogueras, Manuel'
'Cobo, Justo'
'Low, John N.'
'Glidewell, Christopher'
_publ_section_title
;
 Three substituted 4-pyrazolylbenzoates: hydrogen-bonded supramolecular
 structures in one, two and three dimensions
;
_journal_coeditor_code           GG3055
_journal_issue                   1
_journal_name_full               'Acta Crystallographica Section C'
_journal_page_first              o21
_journal_page_last               o25
_journal_paper_doi               10.1107/S0108270106050360
_journal_volume                  63
_journal_year                    2007
_chemical_formula_iupac          'C13 H15 N3 O2'
_chemical_formula_moiety         'C13 H15 N3 O2'
_chemical_formula_sum            'C13 H15 N3 O2'
_chemical_formula_weight         245.28
_chemical_melting_point          430
_chemical_name_systematic
;
Ethyl 4-(5-amino-3-methyl-1H-pyrazol-1-yl)benzoate
;
_space_group_IT_number           2
_symmetry_cell_setting           triclinic
_symmetry_space_group_name_Hall  '-P 1'
_symmetry_space_group_name_H-M   'P -1'
_atom_sites_solution_hydrogens   geom
_atom_sites_solution_primary     direct
_atom_sites_solution_secondary   difmap
_cell_angle_alpha                98.234(3)
_cell_angle_beta                 107.609(2)
_cell_angle_gamma                97.907(3)
_cell_formula_units_Z            2
_cell_length_a                   7.2228(4)
_cell_length_b                   8.4433(3)
_cell_length_c                   10.5938(5)
_cell_measurement_reflns_used    2748
_cell_measurement_temperature    120(2)
_cell_measurement_theta_max      27.59
_cell_measurement_theta_min      2.06
_cell_volume                     598.13(5)
_computing_cell_refinement
'DENZO (Otwinowski & Minor, 1997) and COLLECT'
_computing_data_collection       'COLLECT (Hooft, 1999)'
_computing_data_reduction        'DENZO and COLLECT'
_computing_molecular_graphics    'PLATON (Spek, 2003)'
_computing_publication_material  'SHELXL97 and PRPKAPPA (Ferguson, 1999)'
_computing_structure_refinement  'OSCAIL and SHELXL97 (Sheldrick, 1997)'
_computing_structure_solution
'OSCAIL (McArdle, 2003) and SHELXS97 (Sheldrick, 1997)'
_diffrn_ambient_temperature      120(2)
_diffrn_detector_area_resol_mean 9.091
_diffrn_measured_fraction_theta_full 0.992
_diffrn_measured_fraction_theta_max 0.992
_diffrn_measurement_device_type  'Bruker--Nonius KappaCCD'
_diffrn_measurement_method       '\f and \w scans'
_diffrn_radiation_monochromator  graphite
_diffrn_radiation_source         'Bruker-Nonius FR591 rotating anode'
_diffrn_radiation_type           'Mo K\a'
_diffrn_radiation_wavelength     0.71073
_diffrn_reflns_av_R_equivalents  0.0515
_diffrn_reflns_av_sigmaI/netI    0.0524
_diffrn_reflns_limit_h_max       9
_diffrn_reflns_limit_h_min       -9
_diffrn_reflns_limit_k_max       10
_diffrn_reflns_limit_k_min       -10
_diffrn_reflns_limit_l_max       13
_diffrn_reflns_limit_l_min       -13
_diffrn_reflns_number            12140
_diffrn_reflns_theta_full        27.59
_diffrn_reflns_theta_max         27.59
_diffrn_reflns_theta_min         2.06
_diffrn_standards_decay_%        0
_exptl_absorpt_coefficient_mu    0.095
_exptl_absorpt_correction_T_max  0.994
_exptl_absorpt_correction_T_min  0.979
_exptl_absorpt_correction_type   multi-scan
_exptl_absorpt_process_details   '(SADABS; Sheldrick, 2003)'
_exptl_crystal_colour            colourless
_exptl_crystal_density_diffrn    1.362
_exptl_crystal_density_method    'not measured'
_exptl_crystal_description       plate
_exptl_crystal_F_000             260
_exptl_crystal_size_max          0.28
_exptl_crystal_size_mid          0.14
_exptl_crystal_size_min          0.06
_refine_diff_density_max         0.23
_refine_diff_density_min         -0.32
_refine_ls_extinction_method     none
_refine_ls_goodness_of_fit_ref   1.084
_refine_ls_hydrogen_treatment    constr
_refine_ls_matrix_type           full
_refine_ls_number_parameters     165
_refine_ls_number_reflns         2748
_refine_ls_number_restraints     0
_refine_ls_restrained_S_all      1.084
_refine_ls_R_factor_all          0.0841
_refine_ls_R_factor_gt           0.0493
_refine_ls_shift/su_max          0.001
_refine_ls_shift/su_mean         0.000
_refine_ls_structure_factor_coef Fsqd
_refine_ls_weighting_details
'w=1/[\s^2^(Fo^2^)+(0.0676P)^2^+0.0939P] where P=(Fo^2^+2Fc^2^)/3'
_refine_ls_weighting_scheme      calc
_refine_ls_wR_factor_gt          0.1200
_refine_ls_wR_factor_ref         0.1355
_reflns_number_gt                1904
_reflns_number_total             2748
_reflns_threshold_expression     I>2\s(I)
_cod_data_source_file            gg3055.cif
_cod_data_source_block           I
_cod_original_cell_volume        598.12(5)
_cod_database_code               2015741
_cod_database_fobs_code          2015741
loop_
_symmetry_equiv_pos_as_xyz
'x, y, z'
'-x, -y, -z'
loop_
_atom_site_type_symbol
_atom_site_label
_atom_site_fract_x
_atom_site_fract_y
_atom_site_fract_z
_atom_site_U_iso_or_equiv
_atom_site_adp_type
_atom_site_calc_flag
_atom_site_refinement_flags
_atom_site_occupancy
C C1 0.2358(2) 0.48950(19) 0.47329(16) 0.0203(4) Uani d . 1
C C2 0.3291(2) 0.5776(2) 0.60484(16) 0.0223(4) Uani d . 1
C C11 0.2299(2) 0.56079(19) 0.35266(17) 0.0211(4) Uani d . 1
O O11 0.15727(17) 0.48372(14) 0.23714(11) 0.0273(3) Uani d . 1
O O12 0.30959(18) 0.71974(14) 0.38273(11) 0.0249(3) Uani d . 1
C C12 0.3015(3) 0.7981(2) 0.26690(17) 0.0265(4) Uani d . 1
C C121 0.3781(3) 0.9772(2) 0.3201(2) 0.0393(5) Uani d . 1
C C3 0.3304(2) 0.50584(19) 0.71474(17) 0.0218(4) Uani d . 1
C C4 0.2337(2) 0.34459(19) 0.69318(16) 0.0202(4) Uani d . 1
C C5 0.1408(3) 0.2555(2) 0.56222(17) 0.0235(4) Uani d . 1
C C6 0.1434(2) 0.3274(2) 0.45321(17) 0.0229(4) Uani d . 1
N N41 0.2326(2) 0.26682(16) 0.80299(13) 0.0211(3) Uani d . 1
N N42 0.2263(2) 0.09975(16) 0.78477(14) 0.0238(3) Uani d . 1
C C43 0.2324(2) 0.0635(2) 0.90363(17) 0.0230(4) Uani d . 1
C C431 0.2345(3) -0.1079(2) 0.92392(19) 0.0286(4) Uani d . 1
C C44 0.2385(2) 0.20233(19) 0.99792(17) 0.0226(4) Uani d . 1
C C45 0.2370(2) 0.32944(19) 0.93107(16) 0.0211(4) Uani d . 1
N N45 0.2409(2) 0.49295(16) 0.97490(14) 0.0248(4) Uani d . 1
H H2 0.3926 0.6880 0.6192 0.027 Uiso calc R 1
H H12A 0.1636 0.7789 0.2048 0.032 Uiso calc R 1
H H12B 0.3839 0.7526 0.2167 0.032 Uiso calc R 1
H H12C 0.2945 1.0211 0.3686 0.059 Uiso calc R 1
H H12D 0.3756 1.0328 0.2447 0.059 Uiso calc R 1
H H12E 0.5143 0.9947 0.3818 0.059 Uiso calc R 1
H H3 0.3966 0.5659 0.8040 0.026 Uiso calc R 1
H H5 0.0756 0.1456 0.5478 0.028 Uiso calc R 1
H H6 0.0819 0.2658 0.3640 0.028 Uiso calc R 1
H H43A 0.2237 -0.1780 0.8389 0.043 Uiso calc R 1
H H43B 0.1225 -0.1464 0.9529 0.043 Uiso calc R 1
H H43C 0.3586 -0.1118 0.9933 0.043 Uiso calc R 1
H H44 0.2428 0.2065 1.0889 0.027 Uiso calc R 1
H H45A 0.1572 0.5388 0.9094 0.030 Uiso d R 1
H H45B 0.2059 0.5069 1.0538 0.030 Uiso d R 1
loop_
_atom_site_aniso_label
_atom_site_aniso_U_11
_atom_site_aniso_U_22
_atom_site_aniso_U_33
_atom_site_aniso_U_12
_atom_site_aniso_U_13
_atom_site_aniso_U_23
C1 0.0213(9) 0.0239(8) 0.0187(9) 0.0078(7) 0.0083(7) 0.0061(7)
C2 0.0246(9) 0.0215(8) 0.0217(9) 0.0035(7) 0.0091(7) 0.0046(7)
C11 0.0218(9) 0.0230(9) 0.0209(9) 0.0061(7) 0.0094(7) 0.0049(7)
O11 0.0326(7) 0.0313(7) 0.0181(7) 0.0054(5) 0.0087(5) 0.0049(5)
O12 0.0320(7) 0.0252(6) 0.0195(6) 0.0043(5) 0.0097(5) 0.0091(5)
C12 0.0324(10) 0.0302(9) 0.0193(9) 0.0060(7) 0.0094(8) 0.0104(7)
C121 0.0644(15) 0.0283(10) 0.0283(11) 0.0103(9) 0.0169(10) 0.0108(8)
C3 0.0259(9) 0.0223(8) 0.0173(8) 0.0049(7) 0.0074(7) 0.0028(6)
C4 0.0238(9) 0.0219(8) 0.0191(9) 0.0086(7) 0.0098(7) 0.0074(7)
C5 0.0288(10) 0.0203(8) 0.0215(9) 0.0040(7) 0.0088(7) 0.0039(7)
C6 0.0268(9) 0.0244(9) 0.0175(8) 0.0058(7) 0.0077(7) 0.0020(7)
N41 0.0281(8) 0.0191(7) 0.0180(7) 0.0054(6) 0.0092(6) 0.0052(5)
N42 0.0294(8) 0.0194(7) 0.0239(8) 0.0055(6) 0.0094(6) 0.0059(6)
C43 0.0210(9) 0.0256(9) 0.0221(9) 0.0038(7) 0.0058(7) 0.0072(7)
C431 0.0313(10) 0.0251(9) 0.0303(10) 0.0042(7) 0.0100(8) 0.0096(7)
C44 0.0238(9) 0.0259(9) 0.0179(9) 0.0039(7) 0.0060(7) 0.0066(7)
C45 0.0222(9) 0.0245(8) 0.0168(8) 0.0051(7) 0.0062(7) 0.0049(6)
N45 0.0336(9) 0.0248(7) 0.0186(8) 0.0080(6) 0.0110(6) 0.0043(6)
loop_
_atom_type_symbol
_atom_type_description
_atom_type_scat_dispersion_real
_atom_type_scat_dispersion_imag
_atom_type_scat_source
C C 0.0033 0.0016 'International Tables Vol C Tables 4.2.6.8 and 6.1.1.4'
H H 0.0000 0.0000 'International Tables Vol C Tables 4.2.6.8 and 6.1.1.4'
N N 0.0061 0.0033 'International Tables Vol C Tables 4.2.6.8 and 6.1.1.4'
O O 0.0106 0.0060 'International Tables Vol C Tables 4.2.6.8 and 6.1.1.4'
loop_
_geom_angle_atom_site_label_1
_geom_angle_atom_site_label_2
_geom_angle_atom_site_label_3
_geom_angle
_geom_angle_publ_flag
C6 C1 C2 119.19(15) no
C6 C1 C11 118.02(15) no
C2 C1 C11 122.79(15) no
C3 C2 C1 120.77(15) no
C3 C2 H2 119.6 no
C1 C2 H2 119.6 no
O11 C11 O12 123.03(15) no
O11 C11 C1 123.72(15) no
O12 C11 C1 113.24(14) no
C11 O12 C12 115.61(13) no
O12 C12 C121 107.65(14) no
O12 C12 H12A 110.2 no
C121 C12 H12A 110.2 no
O12 C12 H12B 110.2 no
C121 C12 H12B 110.2 no
H12A C12 H12B 108.5 no
C12 C121 H12C 109.5 no
C12 C121 H12D 109.5 no
H12C C121 H12D 109.5 no
C12 C121 H12E 109.5 no
H12C C121 H12E 109.5 no
H12D C121 H12E 109.5 no
C2 C3 C4 119.43(15) no
C2 C3 H3 120.3 no
C4 C3 H3 120.3 no
C5 C4 C3 120.17(15) no
C5 C4 N41 118.75(14) no
C3 C4 N41 121.06(14) no
C6 C5 C4 119.93(15) no
C6 C5 H5 120.0 no
C4 C5 H5 120.0 no
C5 C6 C1 120.48(15) no
C5 C6 H6 119.8 no
C1 C6 H6 119.8 no
C45 N41 N42 111.23(13) no
C45 N41 C4 130.60(13) no
N42 N41 C4 118.17(13) no
C43 N42 N41 104.42(13) no
N42 C43 C44 111.84(14) no
N42 C43 C431 119.79(15) no
C44 C43 C431 128.37(15) no
C43 C431 H43A 109.5 no
C43 C431 H43B 109.5 no
H43A C431 H43B 109.5 no
C43 C431 H43C 109.5 no
H43A C431 H43C 109.5 no
H43B C431 H43C 109.5 no
C45 C44 C43 105.73(15) no
C45 C44 H44 127.1 no
C43 C44 H44 127.1 no
C44 C45 N41 106.75(14) no
C44 C45 N45 130.35(15) no
N41 C45 N45 122.89(14) no
C45 N45 H45A 113.1 no
C45 N45 H45B 110.1 no
H45A N45 H45B 109.4 no
loop_
_geom_bond_atom_site_label_1
_geom_bond_atom_site_label_2
_geom_bond_distance
_geom_bond_publ_flag
C1 C6 1.394(2) no
C1 C2 1.395(2) no
C1 C11 1.480(2) no
C2 C3 1.385(2) no
C2 H2 0.95 no
C11 O11 1.2190(19) no
C11 O12 1.3371(19) no
O12 C12 1.465(2) no
C12 C121 1.499(2) no
C12 H12A 0.99 no
C12 H12B 0.99 no
C121 H12C 0.98 no
C121 H12D 0.98 no
C121 H12E 0.98 no
C3 C4 1.395(2) no
C3 H3 0.95 no
C4 C5 1.393(2) no
C4 N41 1.417(2) no
C5 C6 1.383(2) no
C5 H5 0.95 no
C6 H6 0.95 no
N41 C45 1.373(2) no
N41 N42 1.3887(18) no
N42 C43 1.327(2) no
C43 C44 1.413(2) no
C43 C431 1.495(2) no
C431 H43A 0.98 no
C431 H43B 0.98 no
C431 H43C 0.98 no
C44 C45 1.367(2) no
C44 H44 0.95 no
C45 N45 1.386(2) no
N45 H45A 0.94 no
N45 H45B 0.94 no
loop_
_geom_hbond_atom_site_label_D
_geom_hbond_atom_site_label_H
_geom_hbond_atom_site_label_A
_geom_hbond_site_symmetry_A
_geom_hbond_distance_DH
_geom_hbond_distance_HA
_geom_hbond_distance_DA
_geom_hbond_angle_DHA
_geom_hbond_publ_flag
N45 H45A O11 2_566 0.94 2.30 3.1190(19) 146 y
N45 H45B O11 1_556 0.94 2.11 3.0252(18) 165 y
loop_
_geom_torsion_atom_site_label_1
_geom_torsion_atom_site_label_2
_geom_torsion_atom_site_label_3
_geom_torsion_atom_site_label_4
_geom_torsion
_geom_torsion_publ_flag
C6 C1 C2 C3 -0.1(2) no
C11 C1 C2 C3 179.84(14) no
C6 C1 C11 O11 -3.6(2) no
C2 C1 C11 O11 176.42(16) no
C6 C1 C11 O12 175.30(14) no
C2 C1 C11 O12 -4.7(2) no
O11 C11 O12 C12 1.0(2) no
C1 C11 O12 C12 -177.91(13) no
C11 O12 C12 C121 174.31(15) no
C1 C2 C3 C4 -1.3(2) no
C2 C3 C4 C5 1.5(2) no
C2 C3 C4 N41 179.67(14) no
C3 C4 C5 C6 -0.4(2) no
N41 C4 C5 C6 -178.55(15) no
C4 C5 C6 C1 -1.1(3) no
C2 C1 C6 C5 1.3(2) no
C11 C1 C6 C5 -178.66(15) no
C5 C4 N41 C45 -150.74(17) no
C3 C4 N41 C45 31.1(3) no
C5 C4 N41 N42 29.3(2) no
C3 C4 N41 N42 -148.87(15) no
C45 N41 N42 C43 -1.64(17) no
C4 N41 N42 C43 178.34(14) no
N41 N42 C43 C44 1.16(18) no
N41 N42 C43 C431 -178.13(15) no
N42 C43 C44 C45 -0.30(19) no
C431 C43 C44 C45 178.91(17) no
C43 C44 C45 N41 -0.71(18) no
C43 C44 C45 N45 179.94(16) no
N42 N41 C45 C44 1.49(18) no
C4 N41 C45 C44 -178.49(16) no
N42 N41 C45 N45 -179.10(14) no
C4 N41 C45 N45 0.9(3) no
loop_
_cod_related_entry_id
_cod_related_entry_database
_cod_related_entry_code
1 ChemSpider 21133325
