#------------------------------------------------------------------------------
#$Date: 2016-02-20 00:18:51 +0200 (Sat, 20 Feb 2016) $
#$Revision: 176760 $
#$URL: svn://www.crystallography.net/cod/cif/2/01/65/2016592.cif $
#------------------------------------------------------------------------------
#
# This file is available in the Crystallography Open Database (COD),
# http://www.crystallography.net/. The original data for this entry
# were provided by IUCr Journals, http://journals.iucr.org/.
#
# The file may be used within the scientific community so long as
# proper attribution is given to the journal article from which the
# data were obtained.
#
data_2016592
loop_
_publ_author_name
'Thomas, Lynne H.'
'Cole, Jacqueline M.'
'Wilson, Chick C.'
_publ_section_title
;
 Orientational disorder in 4-chloronitrobenzene
;
_journal_coeditor_code           HJ3058
_journal_issue                   5
_journal_name_full               'Acta Crystallographica Section C'
_journal_page_first              o296
_journal_page_last               o302
_journal_paper_doi               10.1107/S0108270108008998
_journal_volume                  64
_journal_year                    2008
_chemical_formula_iupac          'C6 H4 Cl N O2'
_chemical_formula_moiety         'C6 H4 Cl N O2'
_chemical_formula_sum            'C6 H4 Cl N O2'
_chemical_formula_weight         157.55
_chemical_name_common            1-chloro-4-nitrobenzene
_chemical_name_systematic
;
4-chloronitrobenzene
;
_space_group_IT_number           14
_symmetry_cell_setting           monoclinic
_symmetry_space_group_name_Hall  '-P 2ybc'
_symmetry_space_group_name_H-M   'P 1 21/c 1'
_atom_sites_solution_hydrogens   difmap
_atom_sites_solution_primary     direct
_atom_sites_solution_secondary   difmap
_audit_creation_method           SHELXL-97
_cell_angle_alpha                90.00
_cell_angle_beta                 96.13(3)
_cell_angle_gamma                90.00
_cell_formula_units_Z            2
_cell_length_a                   3.7635(3)
_cell_length_b                   6.7201(6)
_cell_length_c                   13.3762(14)
_cell_measurement_reflns_used    1399
_cell_measurement_temperature    200(2)
_cell_measurement_theta_max      27.48
_cell_measurement_theta_min      1.02
_cell_volume                     336.36(6)
_computing_cell_refinement       'HKL Scalepack (Otwinowski & Minor, 1997)'
_computing_data_collection
;
COLLECT (Nonius, 1998)
;
_computing_data_reduction
;
HKL Denzo and Scalepack (Otwinowski & Minor, 1997)
;
_computing_molecular_graphics    'SHELXTL-Plus (Sheldrick, 2008)'
_computing_publication_material  'SHELXL97 (Sheldrick, 2008)'
_computing_structure_refinement  'SHELXL97 (Sheldrick, 2008)'
_computing_structure_solution    'SHELXS97 (Sheldrick, 2008)'
_diffrn_ambient_temperature      200(2)
_diffrn_measured_fraction_theta_full 0.967
_diffrn_measured_fraction_theta_max 0.967
_diffrn_measurement_device_type  'Nonius KappaCCD'
_diffrn_measurement_method       CCD
_diffrn_radiation_monochromator  graphite
_diffrn_radiation_source         'fine-focus sealed tube'
_diffrn_radiation_type           MoK\a
_diffrn_radiation_wavelength     0.71073
_diffrn_reflns_av_R_equivalents  0.0458
_diffrn_reflns_av_sigmaI/netI    0.0563
_diffrn_reflns_limit_h_max       4
_diffrn_reflns_limit_h_min       -4
_diffrn_reflns_limit_k_max       8
_diffrn_reflns_limit_k_min       -8
_diffrn_reflns_limit_l_max       17
_diffrn_reflns_limit_l_min       -17
_diffrn_reflns_number            2051
_diffrn_reflns_theta_full        27.36
_diffrn_reflns_theta_max         27.36
_diffrn_reflns_theta_min         3.06
_exptl_absorpt_coefficient_mu    0.496
_exptl_absorpt_correction_T_max  0.946
_exptl_absorpt_correction_T_min  0.838
_exptl_absorpt_correction_type   multi-scan
_exptl_absorpt_process_details
;
multi-scan from symmetry-related measurements
(SORTAV; Blessing, 1995)
;
_exptl_crystal_colour            white
_exptl_crystal_density_diffrn    1.556
_exptl_crystal_density_method    'not measured'
_exptl_crystal_description       needle
_exptl_crystal_F_000             160
_exptl_crystal_size_max          0.4
_exptl_crystal_size_mid          0.16
_exptl_crystal_size_min          0.1
_refine_diff_density_max         0.150
_refine_diff_density_min         -0.261
_refine_ls_extinction_method     none
_refine_ls_goodness_of_fit_ref   1.067
_refine_ls_hydrogen_treatment    refall
_refine_ls_matrix_type           full
_refine_ls_number_parameters     72
_refine_ls_number_reflns         736
_refine_ls_number_restraints     0
_refine_ls_restrained_S_all      1.067
_refine_ls_R_factor_all          0.0994
_refine_ls_R_factor_gt           0.0471
_refine_ls_shift/su_max          0.004
_refine_ls_shift/su_mean         0.001
_refine_ls_structure_factor_coef Fsqd
_refine_ls_weighting_details
'calc w=1/[\s^2^(Fo^2^)+(0.0446P)^2^+0.0385P] where P=(Fo^2^+2Fc^2^)/3'
_refine_ls_weighting_scheme      calc
_refine_ls_wR_factor_gt          0.0977
_refine_ls_wR_factor_ref         0.1194
_reflns_number_gt                448
_reflns_number_total             736
_reflns_threshold_expression     >2sigma(I)
_cod_data_source_file            hj3058.cif
_cod_data_source_block           I_200
_cod_original_cell_volume        336.37(5)
_cod_original_sg_symbol_H-M      P21/c
_cod_database_code               2016592
loop_
_symmetry_equiv_pos_as_xyz
'x, y, z'
'-x, y+1/2, -z+1/2'
'-x, -y, -z'
'x, -y-1/2, z-1/2'
loop_
_atom_site_type_symbol
_atom_site_label
_atom_site_fract_x
_atom_site_fract_y
_atom_site_fract_z
_atom_site_U_iso_or_equiv
_atom_site_adp_type
_atom_site_calc_flag
_atom_site_refinement_flags
_atom_site_occupancy
Cl Cl1 0.1506(8) 0.3339(5) 0.3462(2) 0.0800(9) Uani d P 0.50
C C1 0.3508(5) 0.1338(4) 0.43350(15) 0.0586(6) Uani d . 1
C C3 0.3939(5) 0.1847(4) 0.53332(17) 0.0639(7) Uani d . 1
C C2 0.4536(5) -0.0484(4) 0.39946(19) 0.0657(7) Uani d . 1
O O2 0.1452(10) 0.2104(6) 0.2780(3) 0.0837(11) Uani d P 0.50
O O1 0.1124(13) 0.4226(7) 0.3973(5) 0.1081(19) Uani d P 0.50
N N1 0.196(2) 0.2515(12) 0.3625(8) 0.080(3) Uani d P 0.50
H H1 0.420(6) -0.076(3) 0.3337(18) 0.073(7) Uiso d . 1
H H2 0.323(6) 0.312(4) 0.5546(15) 0.074(7) Uiso d . 1
loop_
_atom_site_aniso_label
_atom_site_aniso_U_11
_atom_site_aniso_U_22
_atom_site_aniso_U_33
_atom_site_aniso_U_12
_atom_site_aniso_U_13
_atom_site_aniso_U_23
Cl1 0.0625(10) 0.099(3) 0.0771(12) -0.0048(17) 0.0003(7) 0.0296(17)
C1 0.0396(11) 0.0776(16) 0.0593(13) -0.0102(10) 0.0089(9) -0.0004(13)
C3 0.0519(12) 0.0769(17) 0.0642(15) -0.0093(11) 0.0118(10) -0.0189(13)
C2 0.0543(12) 0.0953(19) 0.0482(13) -0.0141(11) 0.0093(9) -0.0194(13)
O2 0.098(3) 0.085(3) 0.065(2) 0.0046(19) -0.0047(19) 0.019(2)
O1 0.102(3) 0.063(3) 0.159(5) 0.020(2) 0.013(3) 0.002(3)
N1 0.052(4) 0.052(5) 0.140(9) -0.007(3) 0.024(5) 0.011(4)
loop_
_atom_type_symbol
_atom_type_description
_atom_type_scat_dispersion_real
_atom_type_scat_dispersion_imag
_atom_type_scat_source
C C 0.0033 0.0016 'International Tables Vol C Tables 4.2.6.8 and 6.1.1.4'
H H 0.0000 0.0000 'International Tables Vol C Tables 4.2.6.8 and 6.1.1.4'
N N 0.0061 0.0033 'International Tables Vol C Tables 4.2.6.8 and 6.1.1.4'
O O 0.0106 0.0060 'International Tables Vol C Tables 4.2.6.8 and 6.1.1.4'
Cl Cl 0.1484 0.1585 'International Tables Vol C Tables 4.2.6.8 and 6.1.1.4'
loop_
_geom_angle_atom_site_label_1
_geom_angle_atom_site_label_2
_geom_angle_atom_site_label_3
_geom_angle_site_symmetry_1
_geom_angle
N1 C1 C3 . 123.2(5)
N1 C1 C2 . 114.4(5)
C3 C1 C2 . 122.4(2)
C3 C1 Cl1 . 115.1(2)
C2 C1 Cl1 . 122.5(2)
C2 C3 C1 3_656 118.1(2)
C2 C3 H2 3_656 121.3(13)
C1 C3 H2 . 120.6(13)
C3 C2 C1 3_656 119.5(2)
C3 C2 H1 3_656 120.8(14)
C1 C2 H1 . 119.7(14)
O2 N1 O1 . 122.8(8)
O2 N1 C1 . 124.8(8)
O1 N1 C1 . 112.3(9)
loop_
_geom_bond_atom_site_label_1
_geom_bond_atom_site_label_2
_geom_bond_site_symmetry_2
_geom_bond_distance
Cl1 C1 . 1.885(3)
C1 N1 . 1.323(8)
C1 C3 . 1.371(3)
C1 C2 . 1.376(3)
C3 C2 3_656 1.366(3)
C3 H2 . 0.95(2)
C2 C3 3_656 1.366(3)
C2 H1 . 0.89(2)
O2 N1 . 1.159(11)
O1 N1 . 1.291(10)
loop_
_geom_hbond_atom_site_label_D
_geom_hbond_atom_site_label_H
_geom_hbond_atom_site_label_A
_geom_hbond_site_symmetry_A
_geom_hbond_distance_DH
_geom_hbond_distance_HA
_geom_hbond_distance_DA
_geom_hbond_angle_DHA
C3 H2 O1 3_566 0.95(2) 2.55(2) 3.440(6) 156.0(18)
C2 H1 O2 2_645 0.89(2) 2.74(2) 3.363(5) 128.1(16)
