#------------------------------------------------------------------------------
#$Date: 2016-02-14 16:26:36 +0200 (Sun, 14 Feb 2016) $
#$Revision: 176435 $
#$URL: svn://www.crystallography.net/cod/cif/2/01/64/2016468.cif $
#------------------------------------------------------------------------------
#
# This file is available in the Crystallography Open Database (COD),
# http://www.crystallography.net/. The original data for this entry
# were provided by IUCr Journals, http://journals.iucr.org/.
#
# The file may be used within the scientific community so long as
# proper attribution is given to the journal article from which the
# data were obtained.
#
data_2016468
loop_
_publ_author_name
'Ojala, Charles R.'
'Ojala, William H.'
'Britton, Doyle'
_publ_section_title
;
 4-(4-Chlorobenzylidenehydrazonomethyl)benzonitrile and the bromo and
 iodo analogs
;
_journal_coeditor_code           TR3028
_journal_issue                   2
_journal_name_full               'Acta Crystallographica Section C'
_journal_page_first              o37
_journal_page_last               o40
_journal_paper_doi               10.1107/S0108270107065171
_journal_volume                  64
_journal_year                    2008
_chemical_formula_iupac          'C15 H10 Br1 N3'
_chemical_formula_moiety         'C15 H10 Br1 N3'
_chemical_formula_sum            'C15 H10 Br N3'
_chemical_formula_weight         312.18
_chemical_name_systematic
;
4-(4-Bromobenzylidenehydrazono)benzonitrile
;
_space_group_IT_number           1
_symmetry_cell_setting           triclinic
_symmetry_space_group_name_Hall  'P 1'
_symmetry_space_group_name_H-M   'P 1'
_atom_sites_solution_hydrogens   geom
_atom_sites_solution_primary     direct
_atom_sites_solution_secondary   difmap
_audit_creation_method           SHELXTL
_cell_angle_alpha                99.493(10)
_cell_angle_beta                 93.767(10)
_cell_angle_gamma                96.629(9)
_cell_formula_units_Z            1
_cell_length_a                   4.6963(12)
_cell_length_b                   6.0023(15)
_cell_length_c                   11.585(3)
_cell_measurement_reflns_used    3155
_cell_measurement_temperature    174(2)
_cell_measurement_theta_max      25.1
_cell_measurement_theta_min      3.4
_cell_volume                     318.74(14)
_computing_cell_refinement       'SAINT (Bruker, 2002)'
_computing_data_collection       'SMART (Bruker, 2002)'
_computing_data_reduction        'SAINT (Bruker, 2002)'
_computing_molecular_graphics    'SHELXTL (Sheldrick, 1997)'
_computing_publication_material  'SHELXTL (Sheldrick, 1997)'
_computing_structure_refinement  'SHELXTL (Sheldrick, 1997)'
_computing_structure_solution    'SHELXTL (Sheldrick, 1997)'
_diffrn_ambient_temperature      174(2)
_diffrn_measured_fraction_theta_full 0.994
_diffrn_measured_fraction_theta_max 0.994
_diffrn_measurement_device_type
;
Bruker SMART 1K CCD area-detecctor diffractometer
;
_diffrn_measurement_method       '\w scans'
_diffrn_radiation_monochromator  graphite
_diffrn_radiation_source         'fine-focus sealed tube'
_diffrn_radiation_type           MoK\a
_diffrn_radiation_wavelength     0.71073
_diffrn_reflns_av_R_equivalents  0.021
_diffrn_reflns_av_sigmaI/netI    0.042
_diffrn_reflns_limit_h_max       5
_diffrn_reflns_limit_h_min       -5
_diffrn_reflns_limit_k_max       7
_diffrn_reflns_limit_k_min       -7
_diffrn_reflns_limit_l_max       13
_diffrn_reflns_limit_l_min       -13
_diffrn_reflns_number            3142
_diffrn_reflns_theta_full        25.08
_diffrn_reflns_theta_max         25.08
_diffrn_reflns_theta_min         1.79
_diffrn_standards_decay_%        'less than 1'
_diffrn_standards_number         0
_exptl_absorpt_coefficient_mu    3.212
_exptl_absorpt_correction_T_max  0.45
_exptl_absorpt_correction_T_min  0.25
_exptl_absorpt_correction_type   multi-scan
_exptl_absorpt_process_details
;
(SADABS; Sheldrick, 2003; Blessing, 1995)
;
_exptl_crystal_colour            yellow
_exptl_crystal_density_diffrn    1.626
_exptl_crystal_density_method    'not measured'
_exptl_crystal_description       prism
_exptl_crystal_F_000             156
_exptl_crystal_size_max          0.45
_exptl_crystal_size_mid          0.40
_exptl_crystal_size_min          0.25
_refine_diff_density_max         0.38
_refine_diff_density_min         -0.78
_refine_ls_abs_structure_details 'Flack (1983), 1049 Friedel pairs'
_refine_ls_abs_structure_Flack   0.236(10)
_refine_ls_extinction_coef       0.023(5)
_refine_ls_extinction_expression Fc^*^=kFc[1+0.001xFc^2^\l^3^/sin(2\q)]^-1/4^
_refine_ls_extinction_method     SHELXL97
_refine_ls_goodness_of_fit_ref   1.047
_refine_ls_hydrogen_treatment    constr
_refine_ls_matrix_type           full
_refine_ls_number_parameters     124
_refine_ls_number_reflns         2189
_refine_ls_number_restraints     11
_refine_ls_restrained_S_all      1.073
_refine_ls_R_factor_all          0.025
_refine_ls_R_factor_gt           0.025
_refine_ls_shift/su_max          0.019
_refine_ls_shift/su_mean         0.001
_refine_ls_structure_factor_coef Fsqd
_refine_ls_weighting_details
;
 calc w=1/[\s^2^(Fo^2^)+(0.031P)^2^+0.073P]
 where P=(Fo^2^+2Fc^2^)/3
;
_refine_ls_weighting_scheme      calc
_refine_ls_wR_factor_gt          0.064
_refine_ls_wR_factor_ref         0.064
_reflns_number_gt                2188
_reflns_number_total             2189
_reflns_threshold_expression     '>2\s(I) '
_cod_data_source_file            tr3028.cif
_cod_data_source_block           Br
_cod_depositor_comments
;
The following automatic conversions were performed:
'_exptl_absorpt_correction_type' value 'multi-scan ' changed to
'multi-scan' according to
'/home/saulius/struct/CIF-dictionaries/cif_core.dic' dictionary named
'cif_core.dic' version 2.4.1 from 2010-06-29.

Automatic conversion script
Id: cif_fix_enum 1527 2010-12-29 10:47:43Z saulius 

The following automatic conversions were performed:

'_exptl_absorpt_correction_type' value 'multi-scan ' changed to
'multi-scan' according to
/home/saulius/struct/CIF-dictionaries/cif_core.dic dictionary named
'cif_core.dic' version 2.4.1 from 2010-06-29.

Automatic conversion script
Id: cif_fix_values 1715 2011-07-08 13:25:40Z adriana 
;
_cod_original_formula_sum        'C15 H10 Br1 N3'
_cod_database_code               2016468
_cod_database_fobs_code          2016468
loop_
_symmetry_equiv_pos_as_xyz
'x, y, z'
loop_
_atom_site_type_symbol
_atom_site_label
_atom_site_fract_x
_atom_site_fract_y
_atom_site_fract_z
_atom_site_U_iso_or_equiv
_atom_site_adp_type
_atom_site_calc_flag
_atom_site_refinement_flags
_atom_site_occupancy
Br Br1 1.3803(3) -0.2389(3) 0.1074(2) 0.02616(11) Uani d PD 0.8145(8)
Br Br2 -0.3822(5) 1.2454(4) 0.8915(3) 0.02616(11) Uani d PD 0.1855(8)
N N1 0.4173(6) 0.5835(5) 0.5219(3) 0.0268(4) Uani d . 1
N N2 0.5868(6) 0.4134(5) 0.4812(3) 0.0268(4) Uani d . 1
N N3 -0.47780(19) 1.3157(2) 0.91348(19) 0.02616(11) Uani d PD 0.8145(8)
N N4 1.4780(2) -0.3075(7) 0.0837(5) 0.02616(11) Uani d PD 0.1855(8)
C C1 -0.1740(2) 1.0299(4) 0.8033(3) 0.0218(4) Uani d D 1
C C2 -0.0769(7) 1.0648(6) 0.6947(3) 0.0253(4) Uani d . 1
H H2 -0.1297 1.1890 0.6605 0.030 Uiso calc R 1
C C3 0.0953(7) 0.9180(6) 0.6380(3) 0.0247(4) Uani d . 1
H H3 0.1641 0.9437 0.5654 0.030 Uiso calc R 1
C C4 0.1693(7) 0.7326(6) 0.6861(3) 0.0221(4) Uani d . 1
C C5 0.0711(7) 0.6979(6) 0.7936(3) 0.0248(4) Uani d . 1
H H5 0.1222 0.5722 0.8271 0.030 Uiso calc R 1
C C6 -0.0995(7) 0.8441(6) 0.8521(3) 0.0245(4) Uani d . 1
H H6 -0.1659 0.8186 0.9251 0.029 Uiso calc R 1
C C7 0.3471(7) 0.5725(6) 0.6261(3) 0.0236(4) Uani d . 1
H H7 0.4118 0.4581 0.6652 0.028 Uiso calc R 1
C C8 -0.3480(3) 1.1870(4) 0.8641(3) 0.02616(11) Uani d PD 0.8145(8)
C C11 1.1694(2) -0.0269(4) 0.1949(3) 0.0218(4) Uani d D 1
C C12 1.0766(7) -0.0665(6) 0.3028(3) 0.0253(4) Uani d . 1
H H12 1.1303 -0.1923 0.3355 0.030 Uiso calc R 1
C C13 0.9070(7) 0.0786(6) 0.3611(3) 0.0247(4) Uani d . 1
H H13 0.8415 0.0511 0.4339 0.030 Uiso calc R 1
C C14 0.8290(7) 0.2667(6) 0.3148(3) 0.0221(4) Uani d . 1
C C15 0.9257(7) 0.3042(6) 0.2074(3) 0.0248(4) Uani d . 1
H H15 0.8741 0.4310 0.1752 0.030 Uiso calc R 1
C C16 1.0962(7) 0.1590(6) 0.1471(3) 0.0245(4) Uani d . 1
H H16 1.1621 0.1860 0.0742 0.029 Uiso calc R 1
C C17 0.6531(7) 0.4253(6) 0.3766(3) 0.0236(4) Uani d . 1
H H17 0.5861 0.5401 0.3383 0.028 Uiso calc R 1
C C18 1.3436(5) -0.1824(11) 0.1330(9) 0.02616(11) Uani d PD 0.1855(8)
loop_
_atom_site_aniso_label
_atom_site_aniso_U_11
_atom_site_aniso_U_22
_atom_site_aniso_U_33
_atom_site_aniso_U_12
_atom_site_aniso_U_13
_atom_site_aniso_U_23
Br1 0.02745(16) 0.02742(18) 0.02495(18) 0.01007(10) 0.00973(10) 0.00095(11)
Br2 0.02745(16) 0.02742(18) 0.02495(18) 0.01007(10) 0.00973(10) 0.00095(11)
N1 0.0286(8) 0.0289(9) 0.0240(9) 0.0114(7) 0.0073(7) 0.0006(7)
N2 0.0286(8) 0.0289(9) 0.0240(9) 0.0114(7) 0.0073(7) 0.0006(7)
N3 0.02745(16) 0.02742(18) 0.02495(18) 0.01007(10) 0.00973(10) 0.00095(11)
N4 0.02745(16) 0.02742(18) 0.02495(18) 0.01007(10) 0.00973(10) 0.00095(11)
C1 0.0188(9) 0.0232(9) 0.0214(9) 0.0042(7) 0.0032(7) -0.0033(7)
C2 0.0262(10) 0.0281(10) 0.0226(10) 0.0074(8) 0.0027(8) 0.0048(8)
C3 0.0258(9) 0.0309(10) 0.0182(9) 0.0069(8) 0.0044(7) 0.0034(8)
C4 0.0198(9) 0.0245(10) 0.0201(9) 0.0027(7) 0.0013(7) -0.0018(7)
C5 0.0270(9) 0.0237(10) 0.0243(10) 0.0046(7) 0.0039(8) 0.0047(8)
C6 0.0261(10) 0.0260(10) 0.0216(10) 0.0037(8) 0.0066(8) 0.0029(8)
C7 0.0226(9) 0.0245(10) 0.0239(10) 0.0054(7) 0.0028(8) 0.0026(8)
C8 0.02745(16) 0.02742(18) 0.02495(18) 0.01007(10) 0.00973(10) 0.00095(11)
C11 0.0188(9) 0.0232(9) 0.0214(9) 0.0042(7) 0.0032(7) -0.0033(7)
C12 0.0262(10) 0.0281(10) 0.0226(10) 0.0074(8) 0.0027(8) 0.0048(8)
C13 0.0258(9) 0.0309(10) 0.0182(9) 0.0069(8) 0.0044(7) 0.0034(8)
C14 0.0198(9) 0.0245(10) 0.0201(9) 0.0027(7) 0.0013(7) -0.0018(7)
C15 0.0270(9) 0.0237(10) 0.0243(10) 0.0046(7) 0.0039(8) 0.0047(8)
C16 0.0261(10) 0.0260(10) 0.0216(10) 0.0037(8) 0.0066(8) 0.0029(8)
C17 0.0226(9) 0.0245(10) 0.0239(10) 0.0054(7) 0.0028(8) 0.0026(8)
C18 0.02745(16) 0.02742(18) 0.02495(18) 0.01007(10) 0.00973(10) 0.00095(11)
loop_
_atom_type_symbol
_atom_type_description
_atom_type_scat_dispersion_real
_atom_type_scat_dispersion_imag
_atom_type_scat_source
C C 0.0033 0.0016 'International Tables Vol C Tables 4.2.6.8 and 6.1.1.4'
H H 0.0000 0.0000 'International Tables Vol C Tables 4.2.6.8 and 6.1.1.4'
N N 0.0061 0.0033 'International Tables Vol C Tables 4.2.6.8 and 6.1.1.4'
Br Br -0.2901 2.4595 'International Tables Vol C Tables 4.2.6.8 and 6.1.1.4'
loop_
_geom_angle_atom_site_label_1
_geom_angle_atom_site_label_2
_geom_angle_atom_site_label_3
_geom_angle
C7 N1 N2 111.9(2)
C17 N2 N1 111.1(2)
C6 C1 C2 119.7(2)
C6 C1 C8 120.5(3)
C2 C1 C8 119.8(3)
C6 C1 Br2 119.2(2)
C2 C1 Br2 120.9(2)
C3 C2 C1 119.8(3)
C3 C2 H2 120.1
C1 C2 H2 120.1
C2 C3 C4 120.6(3)
C2 C3 H3 119.7
C4 C3 H3 119.7
C3 C4 C5 119.3(3)
C3 C4 C7 121.4(3)
C5 C4 C7 119.3(3)
C6 C5 C4 120.8(3)
C6 C5 H5 119.6
C4 C5 H5 119.6
C5 C6 C1 119.7(3)
C5 C6 H6 120.1
C1 C6 H6 120.1
N1 C7 C4 121.5(3)
N1 C7 H7 119.3
C4 C7 H7 119.3
N3 C8 C1 177.85(17)
C16 C11 C12 120.95(18)
C16 C11 C18 120.1(6)
C12 C11 C18 119.0(6)
C16 C11 Br1 119.23(19)
C12 C11 Br1 119.73(19)
C13 C12 C11 119.2(3)
C13 C12 H12 120.4
C11 C12 H12 120.4
C12 C13 C14 121.0(3)
C12 C13 H13 119.5
C14 C13 H13 119.5
C15 C14 C13 118.8(3)
C15 C14 C17 119.4(3)
C13 C14 C17 121.8(3)
C16 C15 C14 121.0(3)
C16 C15 H15 119.5
C14 C15 H15 119.5
C15 C16 C11 119.0(2)
C15 C16 H16 120.5
C11 C16 H16 120.5
N2 C17 C14 121.6(3)
N2 C17 H17 119.2
C14 C17 H17 119.2
N4 C18 C11 179.0(4)
loop_
_geom_bond_atom_site_label_1
_geom_bond_atom_site_label_2
_geom_bond_distance
Br1 C11 1.9039(10)
Br2 C1 1.9136(10)
N1 C7 1.282(4)
N1 N2 1.406(3)
N2 C17 1.282(4)
N3 C8 1.1421(2)
N4 C18 1.1420(2)
C1 C6 1.399(4)
C1 C2 1.405(4)
C1 C8 1.4451(3)
C2 C3 1.381(4)
C2 H2 0.9500
C3 C4 1.392(4)
C3 H3 0.9500
C4 C5 1.395(4)
C4 C7 1.465(4)
C5 C6 1.381(4)
C5 H5 0.9500
C6 H6 0.9500
C7 H7 0.9500
C11 C16 1.392(4)
C11 C12 1.399(4)
C11 C18 1.4450(3)
C12 C13 1.373(4)
C12 H12 0.9500
C13 C14 1.402(4)
C13 H13 0.9500
C14 C15 1.395(4)
C14 C17 1.462(4)
C15 C16 1.387(4)
C15 H15 0.9500
C16 H16 0.9500
C17 H17 0.9500
loop_
_geom_torsion_atom_site_label_1
_geom_torsion_atom_site_label_2
_geom_torsion_atom_site_label_3
_geom_torsion_atom_site_label_4
_geom_torsion
C7 N1 N2 C17 179.4(3)
C6 C1 C2 C3 -1.1(4)
C8 C1 C2 C3 178.4(2)
Br2 C1 C2 C3 174.0(2)
C1 C2 C3 C4 1.3(4)
C2 C3 C4 C5 -1.0(4)
C2 C3 C4 C7 178.8(3)
C3 C4 C5 C6 0.4(5)
C7 C4 C5 C6 -179.3(3)
C4 C5 C6 C1 -0.3(4)
C2 C1 C6 C5 0.6(4)
C8 C1 C6 C5 -178.9(2)
Br2 C1 C6 C5 -174.7(2)
N2 N1 C7 C4 -179.7(2)
C3 C4 C7 N1 -7.1(4)
C5 C4 C7 N1 172.7(3)
C16 C11 C12 C13 1.1(4)
C18 C11 C12 C13 -178.9(3)
Br1 C11 C12 C13 -175.3(2)
C11 C12 C13 C14 -0.8(4)
C12 C13 C14 C15 0.3(4)
C12 C13 C14 C17 -178.8(3)
C13 C14 C15 C16 0.0(4)
C17 C14 C15 C16 179.1(3)
C14 C15 C16 C11 0.3(4)
C12 C11 C16 C15 -0.8(4)
C18 C11 C16 C15 179.2(3)
Br1 C11 C16 C15 175.6(2)
N1 N2 C17 C14 179.9(2)
C15 C14 C17 N2 -171.9(3)
C13 C14 C17 N2 7.3(4)
