#------------------------------------------------------------------------------
#$Date: 2017-10-13 03:48:21 +0300 (Fri, 13 Oct 2017) $
#$Revision: 201957 $
#$URL: file:///home/coder/svn-repositories/cod/cif/2/01/64/2016403.cif $
#------------------------------------------------------------------------------
#
# This file is available in the Crystallography Open Database (COD),
# http://www.crystallography.net/. The original data for this entry
# were provided by IUCr Journals, http://journals.iucr.org/.
#
# The file may be used within the scientific community so long as
# proper attribution is given to the journal article from which the
# data were obtained.
#
data_2016403
loop_
_publ_author_name
'Burley, Jonathan C.'
'Gilmour, Ryan'
'Prior, Timothy J.'
'Day, Graeme M.'
_publ_section_title
;
 Structural diversity in imidazolidinone organocatalysts: a synchrotron
 and computational study
;
_journal_coeditor_code           SF3055
_journal_issue                   1
_journal_name_full               'Acta Crystallographica Section C'
_journal_page_first              o10
_journal_page_last               o14
_journal_paper_doi               10.1107/S0108270107051396
_journal_volume                  64
_journal_year                    2008
_chemical_formula_iupac          'C13 H19 N2 O +, Cl -, H2 O'
_chemical_formula_moiety         'C13 H19 N2 O +, Cl -, H2 O'
_chemical_formula_sum            'C13 H21 Cl N2 O2'
_chemical_formula_weight         272.77
_chemical_name_common            'R enantiomer'
_chemical_name_systematic
;
(R)-5-benzyl-2,2,3-trimethyl-4-oxoimidazolidin-1-ium chloride monohydrate
;
_space_group_IT_number           4
_symmetry_cell_setting           monoclinic
_symmetry_space_group_name_Hall  'P 2yb'
_symmetry_space_group_name_H-M   'P 1 21 1'
_atom_sites_solution_hydrogens   geom
_atom_sites_solution_primary     direct
_atom_sites_solution_secondary   difmap
_audit_creation_method           SHELXL-97
_cell_angle_alpha                90.00
_cell_angle_beta                 105.82(3)
_cell_angle_gamma                90.00
_cell_formula_units_Z            2
_cell_length_a                   9.6320(19)
_cell_length_b                   7.0446(14)
_cell_length_c                   11.093(2)
_cell_measurement_reflns_used    1277
_cell_measurement_temperature    150(2)
_cell_measurement_theta_max      25.55
_cell_measurement_theta_min      3.68
_cell_volume                     724.2(3)
_computing_cell_refinement       'APEX2 (Bruker, 2004)'
_computing_data_collection       'APEX2 (Bruker, 2004)'
_computing_data_reduction        'APEX2 (Bruker, 2004)'
_computing_molecular_graphics    'WinGX (Version 1.64; Farrugia, 1999)'
_computing_publication_material  'SHELXL97 (Sheldrick, 1997)'
_computing_structure_refinement  'SHELXL97 (Sheldrick, 1997)'
_computing_structure_solution    'SHELXS97 (Sheldrick, 1997)'
_diffrn_ambient_temperature      150(2)
_diffrn_measured_fraction_theta_full 0.992
_diffrn_measured_fraction_theta_max 0.992
_diffrn_measurement_device_type  'Bruker D8 diffractometer'
_diffrn_measurement_method       '\w rotation with narrow frame'
_diffrn_radiation_monochromator  'silicon 111'
_diffrn_radiation_source         'Daresbury SRS, Station 16.2SMX'
_diffrn_radiation_type           synchrotron
_diffrn_radiation_wavelength     0.79770
_diffrn_reflns_av_R_equivalents  0.0487
_diffrn_reflns_av_sigmaI/netI    0.0995
_diffrn_reflns_limit_h_max       12
_diffrn_reflns_limit_h_min       -12
_diffrn_reflns_limit_k_max       9
_diffrn_reflns_limit_k_min       -9
_diffrn_reflns_limit_l_max       14
_diffrn_reflns_limit_l_min       -13
_diffrn_reflns_number            6282
_diffrn_reflns_theta_full        32.12
_diffrn_reflns_theta_max         32.12
_diffrn_reflns_theta_min         3.68
_diffrn_standards_decay_%        0
_diffrn_standards_interval_count 0
_diffrn_standards_interval_time  0
_diffrn_standards_number         0
_exptl_absorpt_coefficient_mu    0.261
_exptl_absorpt_correction_T_max  1
_exptl_absorpt_correction_T_min  0.979
_exptl_absorpt_correction_type   multi-scan
_exptl_absorpt_process_details   '(SADABS; Sheldrick, 2003)'
_exptl_crystal_colour            colourless
_exptl_crystal_density_diffrn    1.251
_exptl_crystal_density_method    'not measured'
_exptl_crystal_description       block
_exptl_crystal_F_000             292
_exptl_crystal_size_max          0.08
_exptl_crystal_size_mid          0.025
_exptl_crystal_size_min          0.005
_refine_diff_density_max         0.303
_refine_diff_density_min         -0.386
_refine_ls_abs_structure_details 'Flack (1983), 1545 Friedel pairs'
_refine_ls_abs_structure_Flack   -0.15(9)
_refine_ls_extinction_method     none
_refine_ls_goodness_of_fit_ref   0.960
_refine_ls_hydrogen_treatment    mixed
_refine_ls_matrix_type           full
_refine_ls_number_parameters     182
_refine_ls_number_reflns         3480
_refine_ls_number_restraints     5
_refine_ls_restrained_S_all      0.960
_refine_ls_R_factor_all          0.0873
_refine_ls_R_factor_gt           0.0560
_refine_ls_shift/su_max          0.000
_refine_ls_shift/su_mean         0.000
_refine_ls_structure_factor_coef Fsqd
_refine_ls_weighting_details
'calc w=1/[\s^2^(Fo^2^)+(0.0587P)^2^+0.0000P] where P=(Fo^2^+2Fc^2^)/3'
_refine_ls_weighting_scheme      calc
_refine_ls_wR_factor_gt          0.1149
_refine_ls_wR_factor_ref         0.1298
_reflns_number_gt                2485
_reflns_number_total             3480
_reflns_threshold_expression     >2sigma(I)
_cod_data_source_file            sf3055.cif
_cod_data_source_block           R4
_cod_original_sg_symbol_H-M      P2(1)
_cod_database_code               2016403
loop_
_symmetry_equiv_pos_as_xyz
'x, y, z'
'-x, y+1/2, -z'
loop_
_atom_site_type_symbol
_atom_site_label
_atom_site_fract_x
_atom_site_fract_y
_atom_site_fract_z
_atom_site_U_iso_or_equiv
_atom_site_adp_type
_atom_site_calc_flag
_atom_site_refinement_flags
_atom_site_occupancy
O O1W 0.5949(3) 0.5880(4) 0.5927(2) 0.0357(6) Uani d D 1
Cl Cl1 0.73236(8) -0.01536(10) 0.53347(8) 0.0319(2) Uani d . 1
C C1 0.6492(3) 0.0160(4) 0.9371(3) 0.0275(8) Uani d . 1
H H1 0.7328 0.0349 1.0049 0.033 Uiso calc R 1
C C2 0.5814(4) -0.1589(5) 0.9230(3) 0.0316(8) Uani d . 1
H H2 0.6168 -0.2581 0.9813 0.038 Uiso calc R 1
C C3 0.4610(4) -0.1874(5) 0.8225(4) 0.0366(9) Uani d . 1
H H3 0.4141 -0.3073 0.8111 0.044 Uiso calc R 1
C C4 0.4093(4) -0.0425(6) 0.7392(4) 0.0420(10) Uani d . 1
H H4 0.3270 -0.0633 0.6705 0.050 Uiso calc R 1
C C5 0.4760(4) 0.1329(5) 0.7547(3) 0.0337(8) Uani d . 1
H H5 0.4387 0.2323 0.6970 0.040 Uiso calc R 1
C C6 0.5980(3) 0.1646(4) 0.8548(3) 0.0229(7) Uani d . 1
C C7 0.6727(3) 0.3548(5) 0.8741(3) 0.0248(7) Uani d . 1
H H7A 0.6875 0.3946 0.9622 0.030 Uiso calc R 1
H H7B 0.6097 0.4500 0.8199 0.030 Uiso calc R 1
C C8 0.8174(3) 0.3514(4) 0.8443(3) 0.0221(7) Uani d . 1
H H8 0.8758 0.2427 0.8894 0.027 Uiso calc R 1
C C9 0.9036(3) 0.5347(4) 0.8786(3) 0.0222(7) Uani d . 1
O O10 0.9149(2) 0.6252(3) 0.9741(2) 0.0328(6) Uani d . 1
N N11 0.9619(3) 0.5769(4) 0.7829(2) 0.0222(6) Uani d . 1
C C12 1.0484(4) 0.7448(5) 0.7802(4) 0.0319(8) Uani d . 1
H H12A 1.0464 0.8278 0.8506 0.048 Uiso calc R 1
H H12B 1.0092 0.8129 0.7012 0.048 Uiso calc R 1
H H12C 1.1482 0.7069 0.7870 0.048 Uiso calc R 1
C C13 0.9429(3) 0.4239(4) 0.6898(3) 0.0207(7) Uani d . 1
C C14 1.0675(4) 0.2802(5) 0.7256(3) 0.0286(8) Uani d . 1
H H14A 1.1573 0.3418 0.7213 0.043 Uiso calc R 1
H H14B 1.0468 0.1728 0.6673 0.043 Uiso calc R 1
H H14C 1.0780 0.2344 0.8111 0.043 Uiso calc R 1
C C15 0.9194(3) 0.4956(5) 0.5573(3) 0.0264(7) Uani d . 1
H H15A 0.8461 0.5958 0.5406 0.040 Uiso calc R 1
H H15B 0.8868 0.3908 0.4983 0.040 Uiso calc R 1
H H15C 1.0102 0.5466 0.5471 0.040 Uiso calc R 1
N N16 0.8062(3) 0.3367(4) 0.7071(2) 0.0217(6) Uani d D 1
H H1B 0.500(3) 0.554(7) 0.555(4) 0.091(19) Uiso d D 1
H H1A 0.617(5) 0.711(4) 0.578(5) 0.085(18) Uiso d D 1
H H16B 0.729(3) 0.400(4) 0.667(3) 0.021(9) Uiso d D 1
H H16A 0.795(4) 0.229(4) 0.666(3) 0.041(11) Uiso d D 1
loop_
_atom_site_aniso_label
_atom_site_aniso_U_11
_atom_site_aniso_U_22
_atom_site_aniso_U_33
_atom_site_aniso_U_12
_atom_site_aniso_U_13
_atom_site_aniso_U_23
O1W 0.0283(14) 0.0269(14) 0.0457(16) 0.0008(11) 0.0000(12) 0.0063(11)
Cl1 0.0281(4) 0.0207(4) 0.0442(5) -0.0007(4) 0.0055(3) -0.0096(4)
C1 0.0294(17) 0.022(2) 0.0291(17) -0.0003(14) 0.0048(14) 0.0016(14)
C2 0.0321(19) 0.0202(17) 0.042(2) 0.0029(15) 0.0095(16) 0.0036(16)
C3 0.032(2) 0.026(2) 0.055(3) -0.0051(15) 0.0166(19) -0.0030(17)
C4 0.0298(19) 0.041(3) 0.046(2) -0.0100(18) -0.0045(17) -0.0030(19)
C5 0.0286(19) 0.0303(19) 0.038(2) -0.0013(15) 0.0020(16) 0.0058(16)
C6 0.0236(17) 0.0196(16) 0.0265(17) -0.0011(13) 0.0084(14) -0.0012(13)
C7 0.0270(17) 0.0197(16) 0.0289(17) 0.0014(13) 0.0093(14) 0.0010(14)
C8 0.0258(17) 0.0150(14) 0.0257(17) 0.0025(13) 0.0074(14) 0.0035(13)
C9 0.0221(16) 0.0168(16) 0.0254(16) 0.0023(11) 0.0027(13) 0.0011(12)
O10 0.0336(14) 0.0347(14) 0.0283(13) -0.0061(11) 0.0055(11) -0.0105(11)
N11 0.0259(14) 0.0141(12) 0.0242(14) -0.0034(11) 0.0029(11) 0.0004(10)
C12 0.031(2) 0.0214(17) 0.042(2) -0.0088(14) 0.0071(17) 0.0043(15)
C13 0.0216(16) 0.0161(15) 0.0239(17) -0.0007(11) 0.0051(13) 0.0002(12)
C14 0.0279(18) 0.0227(17) 0.036(2) 0.0042(14) 0.0101(16) 0.0061(14)
C15 0.0307(16) 0.0235(16) 0.0255(16) 0.0023(17) 0.0083(13) 0.0038(15)
N16 0.0228(14) 0.0180(13) 0.0228(15) -0.0017(11) 0.0040(12) -0.0033(11)
loop_
_atom_type_symbol
_atom_type_description
_atom_type_scat_dispersion_real
_atom_type_scat_dispersion_imag
_atom_type_scat_source
C C 0.0033 0.0016 'International Tables Vol C Tables 4.2.6.8 and 6.1.1.4'
H H 0.0000 0.0000 'International Tables Vol C Tables 4.2.6.8 and 6.1.1.4'
N N 0.0061 0.0033 'International Tables Vol C Tables 4.2.6.8 and 6.1.1.4'
O O 0.0106 0.0060 'International Tables Vol C Tables 4.2.6.8 and 6.1.1.4'
Cl Cl 0.1484 0.1585 'International Tables Vol C Tables 4.2.6.8 and 6.1.1.4'
loop_
_geom_angle_atom_site_label_1
_geom_angle_atom_site_label_2
_geom_angle_atom_site_label_3
_geom_angle
H1B O1W H1A 114(5)
C2 C1 C6 121.7(3)
C2 C1 H1 119.1
C6 C1 H1 119.1
C1 C2 C3 119.0(3)
C1 C2 H2 120.5
C3 C2 H2 120.5
C4 C3 C2 120.2(3)
C4 C3 H3 119.9
C2 C3 H3 119.9
C3 C4 C5 120.6(3)
C3 C4 H4 119.7
C5 C4 H4 119.7
C4 C5 C6 120.2(3)
C4 C5 H5 119.9
C6 C5 H5 119.9
C1 C6 C5 118.2(3)
C1 C6 C7 120.5(3)
C5 C6 C7 121.3(3)
C6 C7 C8 112.7(3)
C6 C7 H7A 109.0
C8 C7 H7A 109.0
C6 C7 H7B 109.0
C8 C7 H7B 109.0
H7A C7 H7B 107.8
N16 C8 C7 113.9(3)
N16 C8 C9 101.3(2)
C7 C8 C9 113.7(3)
N16 C8 H8 109.2
C7 C8 H8 109.2
C9 C8 H8 109.2
O10 C9 N11 127.3(3)
O10 C9 C8 125.1(3)
N11 C9 C8 107.6(3)
C9 N11 C12 123.7(3)
C9 N11 C13 112.9(2)
C12 N11 C13 123.0(3)
N11 C12 H12A 109.5
N11 C12 H12B 109.5
H12A C12 H12B 109.5
N11 C12 H12C 109.5
H12A C12 H12C 109.5
H12B C12 H12C 109.5
N11 C13 C15 113.3(2)
N11 C13 N16 98.9(2)
C15 C13 N16 110.8(2)
N11 C13 C14 111.2(3)
C15 C13 C14 111.7(3)
N16 C13 C14 110.2(3)
C13 C14 H14A 109.5
C13 C14 H14B 109.5
H14A C14 H14B 109.5
C13 C14 H14C 109.5
H14A C14 H14C 109.5
H14B C14 H14C 109.5
C13 C15 H15A 109.5
C13 C15 H15B 109.5
H15A C15 H15B 109.5
C13 C15 H15C 109.5
H15A C15 H15C 109.5
H15B C15 H15C 109.5
C8 N16 C13 106.1(2)
C8 N16 H16B 108(2)
C13 N16 H16B 112(2)
C8 N16 H16A 123(3)
C13 N16 H16A 106(2)
H16B N16 H16A 102(3)
loop_
_geom_bond_atom_site_label_1
_geom_bond_atom_site_label_2
_geom_bond_distance
O1W H1B 0.93(2)
O1W H1A 0.92(2)
C1 C2 1.383(5)
C1 C6 1.388(4)
C1 H1 0.9500
C2 C3 1.387(5)
C2 H2 0.9500
C3 C4 1.375(5)
C3 H3 0.9500
C4 C5 1.382(5)
C4 H4 0.9500
C5 C6 1.398(5)
C5 H5 0.9500
C6 C7 1.508(5)
C7 C8 1.517(4)
C7 H7A 0.9900
C7 H7B 0.9900
C8 N16 1.500(4)
C8 C9 1.526(4)
C8 H8 1.0000
C9 O10 1.215(4)
C9 N11 1.362(4)
N11 C12 1.452(4)
N11 C13 1.470(4)
C12 H12A 0.9800
C12 H12B 0.9800
C12 H12C 0.9800
C13 C15 1.512(4)
C13 N16 1.512(4)
C13 C14 1.538(4)
C14 H14A 0.9800
C14 H14B 0.9800
C14 H14C 0.9800
C15 H15A 0.9800
C15 H15B 0.9800
C15 H15C 0.9800
N16 H16B 0.877(18)
N16 H16A 0.877(19)
loop_
_cod_related_entry_id
_cod_related_entry_database
_cod_related_entry_code
1 ChemSpider 21196516
