#------------------------------------------------------------------------------
#$Date: 2017-10-13 03:48:21 +0300 (Fri, 13 Oct 2017) $
#$Revision: 201957 $
#$URL: file:///home/coder/svn-repositories/cod/cif/2/01/61/2016191.cif $
#------------------------------------------------------------------------------
#
# This file is available in the Crystallography Open Database (COD),
# http://www.crystallography.net/. The original data for this entry
# were provided by IUCr Journals, http://journals.iucr.org/.
#
# The file may be used within the scientific community so long as
# proper attribution is given to the journal article from which the
# data were obtained.
#
data_2016191
loop_
_publ_author_name
'Zhen-Feng Zhang'
'Jian-Ge Wang'
'Si-Qian Wang'
'Gui-Rong Qu'
_publ_section_title
;
 Two substituted 2-pyrrolin-5-ones: chains built from a single
 N---H&#x00B7;&#x00B7;&#x00B7;O hydrogen bond
;
_journal_coeditor_code           GD3127
_journal_issue                   10
_journal_name_full               'Acta Crystallographica Section C'
_journal_page_first              o565
_journal_page_last               o567
_journal_paper_doi               10.1107/S0108270107038632
_journal_volume                  63
_journal_year                    2007
_chemical_formula_iupac          'C7 H9 N O2'
_chemical_formula_moiety         'C7 H9 N O2'
_chemical_formula_sum            'C7 H9 N O2'
_chemical_formula_weight         139.15
_chemical_name_systematic        3-acetyl-2-methyl-2-pyrrolin-5-one
_space_group_IT_number           14
_symmetry_cell_setting           monoclinic
_symmetry_space_group_name_Hall  '-P 2ybc'
_symmetry_space_group_name_H-M   'P 1 21/c 1'
_atom_sites_solution_hydrogens   geom
_atom_sites_solution_primary     direct
_atom_sites_solution_secondary   difmap
_audit_creation_method           SHELXL97
_cell_angle_alpha                90.00
_cell_angle_beta                 106.740(2)
_cell_angle_gamma                90.00
_cell_formula_units_Z            4
_cell_length_a                   12.1211(18)
_cell_length_b                   7.5078(11)
_cell_length_c                   7.9542(12)
_cell_measurement_reflns_used    2403
_cell_measurement_temperature    291(2)
_cell_measurement_theta_max      27.88
_cell_measurement_theta_min      3.23
_cell_volume                     693.18(18)
_computing_cell_refinement       SMART
_computing_data_collection       'SMART (Bruker, 1997)'
_computing_data_reduction        'SAINT (Bruker, 1997)'
_computing_molecular_graphics    'SHELXTL (Sheldrick, 1997b)'
_computing_publication_material  SHELXTL
_computing_structure_refinement  'SHELXL97 (Sheldrick, 1997a)'
_computing_structure_solution    'SHELXS97 (Sheldrick, 1997a)'
_diffrn_ambient_temperature      291(2)
_diffrn_measured_fraction_theta_full 0.998
_diffrn_measured_fraction_theta_max 0.998
_diffrn_measurement_device_type  'Bruker SMART CCD area-detector'
_diffrn_measurement_method       '\f and \w'
_diffrn_radiation_monochromator  graphite
_diffrn_radiation_source         'fine-focus sealed tube'
_diffrn_radiation_type           MoK\a
_diffrn_radiation_wavelength     0.71073
_diffrn_reflns_av_R_equivalents  0.0132
_diffrn_reflns_av_sigmaI/netI    0.0125
_diffrn_reflns_limit_h_max       14
_diffrn_reflns_limit_h_min       -14
_diffrn_reflns_limit_k_max       9
_diffrn_reflns_limit_k_min       -9
_diffrn_reflns_limit_l_max       9
_diffrn_reflns_limit_l_min       -9
_diffrn_reflns_number            4420
_diffrn_reflns_theta_full        25.49
_diffrn_reflns_theta_max         25.49
_diffrn_reflns_theta_min         3.23
_diffrn_standards_number         0
_exptl_absorpt_coefficient_mu    0.099
_exptl_absorpt_correction_T_max  0.9771
_exptl_absorpt_correction_T_min  0.9536
_exptl_absorpt_correction_type   multi-scan
_exptl_absorpt_process_details   '(SADABS; Sheldrick, 1996)'
_exptl_crystal_colour            red
_exptl_crystal_density_diffrn    1.333
_exptl_crystal_density_method    'not measured'
_exptl_crystal_description       block
_exptl_crystal_F_000             296
_exptl_crystal_size_max          0.47
_exptl_crystal_size_mid          0.29
_exptl_crystal_size_min          0.24
_refine_diff_density_max         0.228
_refine_diff_density_min         -0.173
_refine_ls_extinction_coef       0.028(6)
_refine_ls_extinction_expression Fc^*^=kFc[1+0.001xFc^2^\l^3^/sin(2\q)]^-1/4^
_refine_ls_extinction_method     'SHELXL97 (Sheldrick, 1997a)'
_refine_ls_goodness_of_fit_ref   1.079
_refine_ls_hydrogen_treatment    constr
_refine_ls_matrix_type           full
_refine_ls_number_parameters     94
_refine_ls_number_reflns         1289
_refine_ls_number_restraints     0
_refine_ls_restrained_S_all      1.079
_refine_ls_R_factor_all          0.0429
_refine_ls_R_factor_gt           0.0390
_refine_ls_shift/su_max          0.002
_refine_ls_shift/su_mean         0.000
_refine_ls_structure_factor_coef Fsqd
_refine_ls_weighting_details
'calc w = 1/[\s^2^(Fo^2^)+(0.0671P)^2^+0.1884P] where P=(Fo^2^+2Fc^2^)/3'
_refine_ls_weighting_scheme      calc
_refine_ls_wR_factor_gt          0.1199
_refine_ls_wR_factor_ref         0.1243
_reflns_number_gt                1150
_reflns_number_total             1289
_reflns_threshold_expression     I>2\s(I)
_cod_data_source_file            gd3127.cif
_cod_data_source_block           II
_cod_original_sg_symbol_H-M      'P 21/c'
_cod_database_code               2016191
_cod_database_fobs_code          2016191
loop_
_symmetry_equiv_pos_as_xyz
'x, y, z'
'-x, y+1/2, -z+1/2'
'-x, -y, -z'
'x, -y-1/2, z-1/2'
loop_
_atom_site_type_symbol
_atom_site_label
_atom_site_fract_x
_atom_site_fract_y
_atom_site_fract_z
_atom_site_U_iso_or_equiv
_atom_site_adp_type
_atom_site_calc_flag
_atom_site_refinement_flags
_atom_site_occupancy
O O1 -0.02438(10) 0.26227(16) 0.71716(18) 0.0592(4) Uani d . 1
O O2 0.35189(12) 0.50023(17) 0.5789(2) 0.0665(4) Uani d . 1
N N1 0.11219(10) 0.07418(16) 0.67140(17) 0.0413(4) Uani d . 1
H H1 0.0802 -0.0242 0.6873 0.050 Uiso calc R 1
C C2 0.21757(12) 0.08393(19) 0.63349(18) 0.0367(4) Uani d . 1
C C3 0.24331(12) 0.25712(18) 0.61258(18) 0.0360(4) Uani d . 1
C C4 0.14733(13) 0.3716(2) 0.63916(19) 0.0396(4) Uani d . 1
H H4A 0.1099 0.4384 0.5337 0.048 Uiso calc R 1
H H4B 0.1759 0.4541 0.7358 0.048 Uiso calc R 1
C C5 0.06589(13) 0.2374(2) 0.6804(2) 0.0412(4) Uani d . 1
C C1 0.27636(16) -0.0892(2) 0.6268(3) 0.0529(5) Uani d . 1
H H1A 0.3499 -0.0675 0.6079 0.079 Uiso calc R 1
H H1B 0.2299 -0.1601 0.5323 0.079 Uiso calc R 1
H H1C 0.2871 -0.1513 0.7358 0.079 Uiso calc R 1
C C6 0.34462(13) 0.3380(2) 0.57991(19) 0.0423(4) Uani d . 1
C C7 0.44042(14) 0.2258(3) 0.5512(2) 0.0519(5) Uani d . 1
H H7A 0.4945 0.3008 0.5175 0.078 Uiso calc R 1
H H7B 0.4091 0.1405 0.4600 0.078 Uiso calc R 1
H H7C 0.4788 0.1643 0.6579 0.078 Uiso calc R 1
loop_
_atom_site_aniso_label
_atom_site_aniso_U_11
_atom_site_aniso_U_22
_atom_site_aniso_U_33
_atom_site_aniso_U_12
_atom_site_aniso_U_13
_atom_site_aniso_U_23
O1 0.0502(7) 0.0478(7) 0.0911(10) 0.0036(5) 0.0388(7) -0.0059(6)
O2 0.0699(9) 0.0400(8) 0.1009(11) -0.0114(6) 0.0427(8) 0.0001(6)
N1 0.0415(7) 0.0302(7) 0.0561(8) -0.0016(5) 0.0203(6) -0.0013(5)
C2 0.0359(7) 0.0346(8) 0.0399(7) 0.0025(6) 0.0112(6) -0.0013(6)
C3 0.0361(8) 0.0335(8) 0.0389(8) 0.0020(6) 0.0117(6) -0.0003(5)
C4 0.0451(8) 0.0303(7) 0.0455(8) 0.0036(6) 0.0164(7) 0.0003(6)
C5 0.0399(8) 0.0366(8) 0.0491(8) 0.0030(6) 0.0162(6) -0.0033(6)
C1 0.0532(10) 0.0368(9) 0.0721(11) 0.0095(7) 0.0236(8) 0.0013(7)
C6 0.0433(8) 0.0418(9) 0.0426(8) -0.0033(7) 0.0137(6) 0.0002(6)
C7 0.0403(9) 0.0604(11) 0.0589(10) -0.0007(7) 0.0204(7) 0.0018(8)
loop_
_atom_type_symbol
_atom_type_description
_atom_type_scat_dispersion_real
_atom_type_scat_dispersion_imag
_atom_type_scat_source
C C 0.0033 0.0016 'International Tables Vol C Tables 4.2.6.8 and 6.1.1.4'
H H 0.0000 0.0000 'International Tables Vol C Tables 4.2.6.8 and 6.1.1.4'
N N 0.0061 0.0033 'International Tables Vol C Tables 4.2.6.8 and 6.1.1.4'
O O 0.0106 0.0060 'International Tables Vol C Tables 4.2.6.8 and 6.1.1.4'
loop_
_geom_angle_atom_site_label_1
_geom_angle_atom_site_label_2
_geom_angle_atom_site_label_3
_geom_angle
_geom_angle_publ_flag
C5 N1 C2 112.43(12) yes
C5 N1 H1 123.8 no
C2 N1 H1 123.8 no
C3 C2 N1 109.47(12) no
C3 C2 C1 134.51(14) yes
N1 C2 C1 116.02(13) yes
C2 C3 C6 130.91(14) yes
C2 C3 C4 108.33(12) no
C6 C3 C4 120.68(13) yes
C3 C4 C5 103.21(12) yes
C3 C4 H4A 111.1 no
C5 C4 H4A 111.1 no
C3 C4 H4B 111.1 no
C5 C4 H4B 111.1 no
H4A C4 H4B 109.1 no
O1 C5 N1 124.12(14) yes
O1 C5 C4 129.35(14) yes
N1 C5 C4 106.53(12) no
C2 C1 H1A 109.5 no
C2 C1 H1B 109.5 no
H1A C1 H1B 109.5 no
C2 C1 H1C 109.5 no
H1A C1 H1C 109.5 no
H1B C1 H1C 109.5 no
O2 C6 C3 118.83(15) no
O2 C6 C7 119.82(14) no
C3 C6 C7 121.35(14) no
C6 C7 H7A 109.5 no
C6 C7 H7B 109.5 no
H7A C7 H7B 109.5 no
C6 C7 H7C 109.5 no
H7A C7 H7C 109.5 no
H7B C7 H7C 109.5 no
loop_
_geom_bond_atom_site_label_1
_geom_bond_atom_site_label_2
_geom_bond_distance
_geom_bond_publ_flag
O1 C5 1.2255(18) yes
O2 C6 1.222(2) no
N1 C5 1.3583(19) no
N1 C2 1.3963(19) no
N1 H1 0.8600 no
C2 C3 1.359(2) no
C2 C1 1.490(2) no
C3 C6 1.459(2) no
C3 C4 1.5097(19) no
C3 C4 1.511(2) no
C4 H4A 0.9700 no
C4 H4B 0.9700 no
C1 H1A 0.9600 no
C1 H1B 0.9600 no
C1 H1C 0.9600 no
C6 C7 1.504(2) no
C7 H7A 0.9600 no
C7 H7B 0.9600 no
C7 H7C 0.9600 no
loop_
_geom_hbond_atom_site_label_D
_geom_hbond_atom_site_label_H
_geom_hbond_atom_site_label_A
_geom_hbond_site_symmetry_A
_geom_hbond_distance_DH
_geom_hbond_distance_HA
_geom_hbond_distance_DA
_geom_hbond_angle_DHA
N1 H1 O1 2_546 0.86 1.98 2.819(2) 166.4
loop_
_geom_torsion_atom_site_label_1
_geom_torsion_atom_site_label_2
_geom_torsion_atom_site_label_3
_geom_torsion_atom_site_label_4
_geom_torsion
_geom_torsion_publ_flag
C5 N1 C2 C3 -1.20(18) yes
C5 N1 C2 C1 178.13(13) yes
N1 C2 C3 C6 176.86(14) yes
C1 C2 C3 C6 -2.3(3) no
N1 C2 C3 C4 0.13(16) yes
C1 C2 C3 C4 -179.03(17) yes
C2 C3 C4 C5 0.82(15) yes
C6 C3 C4 C5 -176.30(13) no
C2 N1 C5 O1 -177.71(14) no
C2 N1 C5 C4 1.70(17) no
C3 C4 C5 O1 177.87(16) yes
C3 C4 C5 N1 -1.49(15) yes
C2 C3 C6 O2 -174.52(17) yes
C4 C3 C6 O2 1.9(2) no
C2 C3 C6 C7 4.3(2) no
C4 C3 C6 C7 -179.34(13) yes
loop_
_cod_related_entry_id
_cod_related_entry_database
_cod_related_entry_code
1 ChemSpider 21133086
