#------------------------------------------------------------------------------
#$Date: 2017-10-13 03:48:21 +0300 (Fri, 13 Oct 2017) $
#$Revision: 201957 $
#$URL: file:///home/coder/svn-repositories/cod/cif/2/01/68/2016804.cif $
#------------------------------------------------------------------------------
#
# This file is available in the Crystallography Open Database (COD),
# http://www.crystallography.net/. The original data for this entry
# were provided by IUCr Journals, http://journals.iucr.org/.
#
# The file may be used within the scientific community so long as
# proper attribution is given to the journal article from which the
# data were obtained.
#
data_2016804
loop_
_publ_author_name
'Cin\<ci\'c, Dominik'
'Kaitner, Branko'
_publ_section_title
;
 3-Acetylanilinium bromide, nitrate and dihydrogen phosphate:
 hydrogen-bonding motifs in one, two and three dimensions
;
_journal_coeditor_code           GD3241
_journal_issue                   10
_journal_name_full               'Acta Crystallographica Section C'
_journal_page_first              o561
_journal_page_last               o565
_journal_paper_doi               10.1107/S0108270108028771
_journal_volume                  64
_journal_year                    2008
_chemical_formula_iupac          'C8 H10 N O + , Br -'
_chemical_formula_moiety         'C8 H10 N O + , Br -'
_chemical_formula_sum            'C8 H10 Br N O'
_chemical_formula_weight         216.08
_chemical_name_systematic
;
3-acetylanilinium bromide
;
_space_group_IT_number           2
_symmetry_cell_setting           triclinic
_symmetry_space_group_name_Hall  '-P 1'
_symmetry_space_group_name_H-M   'P -1'
_atom_sites_solution_hydrogens   geom
_atom_sites_solution_primary     direct
_atom_sites_solution_secondary   difmap
_audit_creation_method           SHELXL97
_cell_angle_alpha                75.239(8)
_cell_angle_beta                 89.253(9)
_cell_angle_gamma                75.757(10)
_cell_formula_units_Z            2
_cell_length_a                   5.0530(4)
_cell_length_b                   9.4145(9)
_cell_length_c                   9.5169(9)
_cell_measurement_reflns_used    5234
_cell_measurement_temperature    295
_cell_measurement_theta_max      32
_cell_measurement_theta_min      5
_cell_volume                     423.74(7)
_computing_cell_refinement       'CrysAlisRED (Oxford Diffraction, 2003)'
_computing_data_collection       'CrysAlisCCD (Oxford Diffraction, 2003)'
_computing_data_reduction        'CrysAlisRED (Oxford Diffraction, 2003)'
_computing_molecular_graphics    'ORTEP-3 (Farrugia, 1997)'
_computing_publication_material
;
WinGX (Farrugia, 1999), PARST97 (Nardelli, 1995),
Mercury (Version 1.4; Macrae <i>et al.</i>, 2006) and POVRay
(Persistence of
Vision Team, 2004)
;
_computing_structure_refinement  'SHELXL97 (Sheldrick, 2008)'
_computing_structure_solution    'SHELXS97 (Sheldrick, 2008)'
_diffrn_ambient_temperature      295
_diffrn_measured_fraction_theta_full 0.997
_diffrn_measured_fraction_theta_max 0.979
_diffrn_measurement_device_type  'Oxford Diffraction Xcalibur CCD'
_diffrn_measurement_method       \w
_diffrn_radiation_monochromator  graphite
_diffrn_radiation_source         'fine-focus sealed tube'
_diffrn_radiation_type           MoK\a
_diffrn_radiation_wavelength     0.71073
_diffrn_reflns_av_R_equivalents  0.0114
_diffrn_reflns_av_sigmaI/netI    0.0095
_diffrn_reflns_limit_h_max       6
_diffrn_reflns_limit_h_min       -6
_diffrn_reflns_limit_k_max       12
_diffrn_reflns_limit_k_min       -12
_diffrn_reflns_limit_l_max       12
_diffrn_reflns_limit_l_min       -12
_diffrn_reflns_number            5468
_diffrn_reflns_theta_full        25.00
_diffrn_reflns_theta_max         27.00
_diffrn_reflns_theta_min         4.17
_exptl_absorpt_coefficient_mu    4.791
_exptl_absorpt_correction_T_max  0.63100
_exptl_absorpt_correction_T_min  0.15527
_exptl_absorpt_correction_type   analytical
_exptl_absorpt_process_details   '(Alcock, 1970)'
_exptl_crystal_colour            colourless
_exptl_crystal_density_diffrn    1.694
_exptl_crystal_density_method    'not measured'
_exptl_crystal_description       prism
_exptl_crystal_F_000             216
_exptl_crystal_size_max          0.47
_exptl_crystal_size_mid          0.36
_exptl_crystal_size_min          0.10
_refine_diff_density_max         0.330
_refine_diff_density_min         -0.401
_refine_ls_extinction_coef       0.094(4)
_refine_ls_extinction_expression Fc^*^=kFc[1+0.001xFc^2^\l^3^/sin(2\q)]^-1/4^
_refine_ls_extinction_method     'SHELXL97 (Sheldrick, 2008)'
_refine_ls_goodness_of_fit_ref   1.120
_refine_ls_hydrogen_treatment    mixed
_refine_ls_matrix_type           full
_refine_ls_number_parameters     114
_refine_ls_number_reflns         1809
_refine_ls_number_restraints     0
_refine_ls_restrained_S_all      1.120
_refine_ls_R_factor_all          0.0208
_refine_ls_R_factor_gt           0.0182
_refine_ls_shift/su_max          0.001
_refine_ls_shift/su_mean         0.000
_refine_ls_structure_factor_coef Fsqd
_refine_ls_weighting_details
'calc w = 1/[\s^2^(Fo^2^)+(0.0269P)^2^+0.1584P] where P=(Fo^2^+2Fc^2^)/3'
_refine_ls_weighting_scheme      calc
_refine_ls_wR_factor_gt          0.0466
_refine_ls_wR_factor_ref         0.0487
_reflns_number_gt                1668
_reflns_number_total             1809
_reflns_threshold_expression     I>2\s(I)
_cod_data_source_file            gd3241.cif
_cod_data_source_block           I
_cod_database_code               2016804
_cod_database_fobs_code          2016804
loop_
_symmetry_equiv_pos_as_xyz
'x, y, z'
'-x, -y, -z'
loop_
_atom_site_type_symbol
_atom_site_label
_atom_site_fract_x
_atom_site_fract_y
_atom_site_fract_z
_atom_site_U_iso_or_equiv
_atom_site_adp_type
_atom_site_calc_flag
_atom_site_refinement_flags
_atom_site_occupancy
H H1A 0.084(5) 0.909(3) 0.698(3) 0.049(6) Uiso d . 1
H H1C 0.349(5) 0.812(3) 0.764(3) 0.046(6) Uiso d . 1
H H1B 0.308(5) 0.852(3) 0.610(3) 0.050(6) Uiso d . 1
Br Br1 0.34300(3) 0.906927(19) 0.346035(17) 0.03578(9) Uani d . 1
O O1 0.4280(3) 0.28602(16) 1.02641(15) 0.0454(3) Uani d . 1
N N1 0.2260(3) 0.82336(17) 0.69825(17) 0.0311(3) Uani d . 1
C C1 0.1253(3) 0.43018(18) 0.82662(17) 0.0270(3) Uani d . 1
C C2 0.2270(3) 0.55732(18) 0.81775(17) 0.0276(3) Uani d . 1
H H2 0.3646 0.5535 0.8836 0.033 Uiso calc R 1
C C3 0.1212(3) 0.68851(18) 0.71044(17) 0.0268(3) Uani d . 1
C C4 -0.0842(3) 0.6972(2) 0.61118(18) 0.0315(3) Uani d . 1
H H4 -0.1528 0.7863 0.5390 0.038 Uiso calc R 1
C C5 -0.1852(4) 0.5718(2) 0.62093(19) 0.0345(4) Uani d . 1
H H5 -0.3239 0.5769 0.5551 0.041 Uiso calc R 1
C C6 -0.0824(4) 0.4378(2) 0.72788(19) 0.0323(3) Uani d . 1
H H6 -0.1518 0.3538 0.7335 0.039 Uiso calc R 1
C C7 0.2458(3) 0.28805(19) 0.94281(17) 0.0291(3) Uani d . 1
C C8 0.1405(4) 0.1514(2) 0.9535(2) 0.0399(4) Uani d . 1
H H8A 0.2265 0.0727 1.0371 0.060 Uiso calc R 1
H H8B 0.1809 0.1164 0.8673 0.060 Uiso calc R 1
H H8C -0.0538 0.1769 0.9627 0.060 Uiso calc R 1
loop_
_atom_site_aniso_label
_atom_site_aniso_U_11
_atom_site_aniso_U_22
_atom_site_aniso_U_33
_atom_site_aniso_U_12
_atom_site_aniso_U_13
_atom_site_aniso_U_23
Br1 0.03690(12) 0.03572(12) 0.02944(12) -0.00475(7) -0.00523(7) -0.00294(7)
O1 0.0527(8) 0.0350(7) 0.0431(7) -0.0169(6) -0.0230(6) 0.0061(6)
N1 0.0324(7) 0.0259(7) 0.0309(7) -0.0080(6) -0.0048(6) 0.0007(6)
C1 0.0277(7) 0.0266(8) 0.0245(7) -0.0068(6) 0.0001(6) -0.0029(6)
C2 0.0273(7) 0.0288(8) 0.0247(7) -0.0077(6) -0.0045(6) -0.0024(6)
C3 0.0269(7) 0.0261(8) 0.0253(7) -0.0069(6) 0.0014(6) -0.0026(6)
C4 0.0299(8) 0.0318(8) 0.0259(8) -0.0029(7) -0.0054(6) 0.0002(6)
C5 0.0313(8) 0.0385(9) 0.0311(8) -0.0075(7) -0.0100(7) -0.0054(7)
C6 0.0328(8) 0.0325(9) 0.0325(8) -0.0118(7) -0.0034(7) -0.0064(7)
C7 0.0307(8) 0.0270(8) 0.0273(7) -0.0079(6) -0.0010(6) -0.0021(6)
C8 0.0480(10) 0.0312(9) 0.0392(9) -0.0169(8) -0.0068(8) 0.0006(7)
loop_
_atom_type_symbol
_atom_type_description
_atom_type_scat_dispersion_real
_atom_type_scat_dispersion_imag
_atom_type_scat_source
C C 0.0033 0.0016 'International Tables Vol C Tables 4.2.6.8 and 6.1.1.4'
H H 0.0000 0.0000 'International Tables Vol C Tables 4.2.6.8 and 6.1.1.4'
N N 0.0061 0.0033 'International Tables Vol C Tables 4.2.6.8 and 6.1.1.4'
O O 0.0106 0.0060 'International Tables Vol C Tables 4.2.6.8 and 6.1.1.4'
Br Br -0.2901 2.4595 'International Tables Vol C Tables 4.2.6.8 and 6.1.1.4'
loop_
_geom_angle_atom_site_label_1
_geom_angle_atom_site_label_2
_geom_angle_atom_site_label_3
_geom_angle
C3 N1 H1A 111.1(15)
C3 N1 H1C 113.8(17)
H1A N1 H1C 110(2)
C3 N1 H1B 112.9(15)
H1A N1 H1B 104(2)
H1C N1 H1B 105(2)
C6 C1 C2 119.75(15)
C6 C1 C7 121.74(15)
C2 C1 C7 118.51(14)
C3 C2 C1 119.35(14)
C3 C2 H2 120.3
C1 C2 H2 120.3
C2 C3 C4 121.43(15)
C2 C3 N1 120.36(14)
C4 C3 N1 118.21(14)
C5 C4 C3 119.05(15)
C5 C4 H4 120.5
C3 C4 H4 120.5
C4 C5 C6 120.84(15)
C4 C5 H5 119.6
C6 C5 H5 119.6
C5 C6 C1 119.59(16)
C5 C6 H6 120.2
C1 C6 H6 120.2
O1 C7 C8 121.19(15)
O1 C7 C1 119.62(15)
C8 C7 C1 119.19(15)
C7 C8 H8A 109.5
C7 C8 H8B 109.5
H8A C8 H8B 109.5
C7 C8 H8C 109.5
H8A C8 H8C 109.5
H8B C8 H8C 109.5
loop_
_geom_bond_atom_site_label_1
_geom_bond_atom_site_label_2
_geom_bond_distance
O1 C7 1.218(2)
N1 C3 1.470(2)
N1 H1A 0.94(3)
N1 H1C 0.86(3)
N1 H1B 0.94(3)
C1 C6 1.394(2)
C1 C2 1.398(2)
C1 C7 1.499(2)
C2 C3 1.379(2)
C2 H2 0.9300
C3 C4 1.386(2)
C4 C5 1.380(3)
C4 H4 0.9300
C5 C6 1.391(2)
C5 H5 0.9300
C6 H6 0.9300
C7 C8 1.489(2)
C8 H8A 0.9600
C8 H8B 0.9600
C8 H8C 0.9600
loop_
_geom_hbond_atom_site_label_D
_geom_hbond_atom_site_label_H
_geom_hbond_atom_site_label_A
_geom_hbond_site_symmetry_A
_geom_hbond_distance_DH
_geom_hbond_distance_HA
_geom_hbond_distance_DA
_geom_hbond_angle_DHA
_geom_hbond_publ_flag
N1 H1B Br1 . 0.94(3) 2.45(3) 3.322(2) 156(2) yes
N1 H1C O1 2_667 0.86(3) 2.17(3) 2.974(2) 157(2) yes
N1 H1A Br1 2_576 0.94(3) 2.38(2) 3.2840(10) 163(2) yes
loop_
_cod_related_entry_id
_cod_related_entry_database
_cod_related_entry_code
1 ChemSpider 30654130
