#------------------------------------------------------------------------------
#$Date: 2016-02-14 16:26:36 +0200 (Sun, 14 Feb 2016) $
#$Revision: 176435 $
#$URL: svn://www.crystallography.net/cod/cif/2/01/64/2016467.cif $
#------------------------------------------------------------------------------
#
# This file is available in the Crystallography Open Database (COD),
# http://www.crystallography.net/. The original data for this entry
# were provided by IUCr Journals, http://journals.iucr.org/.
#
# The file may be used within the scientific community so long as
# proper attribution is given to the journal article from which the
# data were obtained.
#
data_2016467
loop_
_publ_author_name
'Ojala, Charles R.'
'Ojala, William H.'
'Britton, Doyle'
_publ_section_title
;
 4-(4-Chlorobenzylidenehydrazonomethyl)benzonitrile and the bromo and
 iodo analogs
;
_journal_coeditor_code           TR3028
_journal_issue                   2
_journal_name_full               'Acta Crystallographica Section C'
_journal_page_first              o37
_journal_page_last               o40
_journal_paper_doi               10.1107/S0108270107065171
_journal_volume                  64
_journal_year                    2008
_chemical_formula_iupac          'C15 H10 Cl1 N3'
_chemical_formula_moiety         'C15 H10 Cl1 N3'
_chemical_formula_sum            'C15 H10 Cl N3'
_chemical_formula_weight         267.72
_chemical_name_systematic
;
4-(4-Chlorobenzylidenehydrazono)benzonitrile
;
_space_group_IT_number           1
_symmetry_cell_setting           triclinic
_symmetry_space_group_name_Hall  'P 1'
_symmetry_space_group_name_H-M   'P 1'
_atom_sites_solution_hydrogens   geom
_atom_sites_solution_primary     direct
_atom_sites_solution_secondary   difmap
_audit_creation_method           SHELXTL
_cell_angle_alpha                98.361(2)
_cell_angle_beta                 93.317(2)
_cell_angle_gamma                96.8230(10)
_cell_formula_units_Z            1
_cell_length_a                   4.6904(7)
_cell_length_b                   5.9498(7)
_cell_length_c                   11.4426(16)
_cell_measurement_reflns_used    2451
_cell_measurement_temperature    174(2)
_cell_measurement_theta_max      25.0
_cell_measurement_theta_min      3.2
_cell_volume                     312.78(7)
_computing_cell_refinement       'SAINT (Bruker, 2002)'
_computing_data_collection       'SMART (Bruker, 2002)'
_computing_data_reduction        'SAINT (Bruker, 2002)'
_computing_molecular_graphics    'SHELXTL (Sheldrick, 1997)'
_computing_publication_material  'SHELXTL (Sheldrick, 1997)'
_computing_structure_refinement  'SHELXTL (Sheldrick, 1997)'
_computing_structure_solution    'SHELXTL (Sheldrick, 1997)'
_diffrn_ambient_temperature      174(2)
_diffrn_measured_fraction_theta_full 1.000
_diffrn_measured_fraction_theta_max 1.000
_diffrn_measurement_device_type
;
Bruker SMART 1K CCD area-detector diffractometer
;
_diffrn_measurement_method       '\w scans'
_diffrn_radiation_monochromator  graphite
_diffrn_radiation_source         'fine-focus sealed tube'
_diffrn_radiation_type           MoK\a
_diffrn_radiation_wavelength     0.71073
_diffrn_reflns_av_R_equivalents  0.015
_diffrn_reflns_av_sigmaI/netI    0.026
_diffrn_reflns_limit_h_max       5
_diffrn_reflns_limit_h_min       -5
_diffrn_reflns_limit_k_max       7
_diffrn_reflns_limit_k_min       -7
_diffrn_reflns_limit_l_max       13
_diffrn_reflns_limit_l_min       -13
_diffrn_reflns_number            3127
_diffrn_reflns_theta_full        25.03
_diffrn_reflns_theta_max         25.03
_diffrn_reflns_theta_min         1.80
_diffrn_standards_decay_%        'less than 1'
_diffrn_standards_number         0
_exptl_absorpt_coefficient_mu    0.293
_exptl_absorpt_correction_T_max  0.99
_exptl_absorpt_correction_T_min  0.87
_exptl_absorpt_correction_type   multi-scan
_exptl_absorpt_process_details
;
(SADABS; Sheldrick, 2003; Blessing, 1995)
;
_exptl_crystal_colour            yellow
_exptl_crystal_density_diffrn    1.421
_exptl_crystal_density_method    'not measured'
_exptl_crystal_description       plate
_exptl_crystal_F_000             138
_exptl_crystal_size_max          0.50
_exptl_crystal_size_mid          0.40
_exptl_crystal_size_min          0.05
_refine_diff_density_max         0.31
_refine_diff_density_min         -0.60
_refine_ls_abs_structure_details 'Flack (1983), 1082 Friedel pairs'
_refine_ls_abs_structure_Flack   0.42(12)
_refine_ls_extinction_method     none
_refine_ls_goodness_of_fit_ref   1.091
_refine_ls_hydrogen_treatment    constr
_refine_ls_matrix_type           full
_refine_ls_number_parameters     124
_refine_ls_number_reflns         2191
_refine_ls_number_restraints     11
_refine_ls_restrained_S_all      1.105
_refine_ls_R_factor_all          0.046
_refine_ls_R_factor_gt           0.045
_refine_ls_shift/su_max          0.001
_refine_ls_shift/su_mean         0.000
_refine_ls_structure_factor_coef Fsqd
_refine_ls_weighting_details
;
 calc w=1/[\s^2^(Fo^2^)+(0.047P)^2^+0.222P]
 where P=(Fo^2^+2Fc^2^)/3
;
_refine_ls_weighting_scheme      calc
_refine_ls_wR_factor_all         0.117
_refine_ls_wR_factor_ref         0.116
_reflns_number_gt                2131
_reflns_number_total             2191
_reflns_threshold_expression     '>2\s(I) '
_cod_data_source_file            tr3028.cif
_cod_data_source_block           Cl-B
_cod_original_formula_sum        'C15 H10 Cl1 N3'
_cod_database_code               2016467
_cod_database_fobs_code          2016467
loop_
_symmetry_equiv_pos_as_xyz
'x, y, z'
loop_
_atom_site_type_symbol
_atom_site_label
_atom_site_fract_x
_atom_site_fract_y
_atom_site_fract_z
_atom_site_U_iso_or_equiv
_atom_site_adp_type
_atom_site_calc_flag
_atom_site_refinement_flags
_atom_site_occupancy
Cl Cl1 1.3754(7) -0.2194(6) 0.1138(4) 0.0337(2) Uani d PD 0.672(2)
Cl Cl2 -0.3854(9) 1.2139(7) 0.8804(5) 0.0337(2) Uani d PD 0.328(2)
N N1 0.4135(9) 0.5810(7) 0.5209(4) 0.0318(3) Uani d . 1
N N2 0.5836(9) 0.4109(7) 0.4794(4) 0.0318(3) Uani d . 1
N N3 -0.4756(5) 1.3128(4) 0.9158(3) 0.0337(2) Uani d PD 0.672(2)
N N4 1.5140(7) -0.2903(7) 0.0883(5) 0.0337(2) Uani d PD 0.328(2)
C C1 -0.1767(6) 1.0234(5) 0.8045(4) 0.0274(4) Uani d D 1
C C2 -0.0784(9) 1.0635(7) 0.6958(4) 0.0298(4) Uani d . 1
H H2 -0.1305 1.1903 0.6614 0.036 Uiso calc R 1
C C3 0.0949(9) 0.9184(7) 0.6384(4) 0.0296(4) Uani d . 1
H H3 0.1636 0.9468 0.5648 0.036 Uiso calc R 1
C C4 0.1711(9) 0.7288(7) 0.6877(4) 0.0275(4) Uani d . 1
C C5 0.0719(9) 0.6932(7) 0.7973(4) 0.0297(4) Uani d . 1
H H5 0.1243 0.5675 0.8326 0.036 Uiso calc R 1
C C6 -0.1015(10) 0.8390(7) 0.8549(4) 0.0303(4) Uani d . 1
H H6 -0.1690 0.8124 0.9290 0.036 Uiso calc R 1
C C7 0.3474(9) 0.5702(7) 0.6267(4) 0.0292(4) Uani d . 1
H H7 0.4151 0.4555 0.6668 0.035 Uiso calc R 1
C C8 -0.3460(10) 1.1832(7) 0.8666(7) 0.0337(2) Uani d PD 0.672(2)
C C11 1.1716(6) -0.0278(5) 0.1915(4) 0.0274(4) Uani d D 1
C C12 1.0738(9) -0.0686(7) 0.3017(4) 0.0298(4) Uani d . 1
H H12 1.1271 -0.1950 0.3361 0.036 Uiso calc R 1
C C13 0.9008(9) 0.0761(7) 0.3591(4) 0.0296(4) Uani d . 1
H H13 0.8323 0.0469 0.4326 0.036 Uiso calc R 1
C C14 0.8243(9) 0.2648(7) 0.3110(4) 0.0275(4) Uani d . 1
C C15 0.9234(9) 0.3066(7) 0.2031(4) 0.0297(4) Uani d . 1
H H15 0.8716 0.4350 0.1701 0.036 Uiso calc R 1
C C16 1.0971(9) 0.1631(7) 0.1431(4) 0.0303(4) Uani d . 1
H H16 1.1652 0.1937 0.0697 0.036 Uiso calc R 1
C C17 0.6468(9) 0.4235(7) 0.3728(4) 0.0292(4) Uani d . 1
H H17 0.5772 0.5380 0.3331 0.035 Uiso calc R 1
C C18 1.3618(18) -0.1757(12) 0.1341(13) 0.0337(2) Uani d PD 0.328(2)
loop_
_atom_site_aniso_label
_atom_site_aniso_U_11
_atom_site_aniso_U_22
_atom_site_aniso_U_33
_atom_site_aniso_U_12
_atom_site_aniso_U_13
_atom_site_aniso_U_23
Cl1 0.0323(4) 0.0367(5) 0.0334(6) 0.0093(3) 0.0091(3) 0.0038(4)
Cl2 0.0323(4) 0.0367(5) 0.0334(6) 0.0093(3) 0.0091(3) 0.0038(4)
N1 0.0331(7) 0.0320(7) 0.0311(8) 0.0100(6) 0.0045(6) 0.0020(6)
N2 0.0331(7) 0.0320(7) 0.0311(8) 0.0100(6) 0.0045(6) 0.0020(6)
N3 0.0323(4) 0.0367(5) 0.0334(6) 0.0093(3) 0.0091(3) 0.0038(4)
N4 0.0323(4) 0.0367(5) 0.0334(6) 0.0093(3) 0.0091(3) 0.0038(4)
C1 0.0215(7) 0.0306(8) 0.0286(8) 0.0036(6) 0.0027(6) -0.0009(6)
C2 0.0310(8) 0.0311(8) 0.0282(8) 0.0069(6) 0.0011(6) 0.0057(6)
C3 0.0300(8) 0.0351(9) 0.0245(8) 0.0061(6) 0.0032(6) 0.0048(6)
C4 0.0225(7) 0.0297(8) 0.0286(8) 0.0016(6) -0.0002(6) 0.0014(6)
C5 0.0311(8) 0.0278(8) 0.0301(8) 0.0037(6) 0.0028(6) 0.0049(6)
C6 0.0307(8) 0.0333(9) 0.0267(8) 0.0022(6) 0.0059(6) 0.0042(6)
C7 0.0272(8) 0.0299(8) 0.0302(9) 0.0044(6) 0.0014(6) 0.0035(7)
C8 0.0323(4) 0.0367(5) 0.0334(6) 0.0093(3) 0.0091(3) 0.0038(4)
C11 0.0215(7) 0.0306(8) 0.0286(8) 0.0036(6) 0.0027(6) -0.0009(6)
C12 0.0310(8) 0.0311(8) 0.0282(8) 0.0069(6) 0.0011(6) 0.0057(6)
C13 0.0300(8) 0.0351(9) 0.0245(8) 0.0061(6) 0.0032(6) 0.0048(6)
C14 0.0225(7) 0.0297(8) 0.0286(8) 0.0016(6) -0.0002(6) 0.0014(6)
C15 0.0311(8) 0.0278(8) 0.0301(8) 0.0037(6) 0.0028(6) 0.0049(6)
C16 0.0307(8) 0.0333(9) 0.0267(8) 0.0022(6) 0.0059(6) 0.0042(6)
C17 0.0272(8) 0.0299(8) 0.0302(9) 0.0044(6) 0.0014(6) 0.0035(7)
C18 0.0323(4) 0.0367(5) 0.0334(6) 0.0093(3) 0.0091(3) 0.0038(4)
loop_
_atom_type_symbol
_atom_type_description
_atom_type_scat_dispersion_real
_atom_type_scat_dispersion_imag
_atom_type_scat_source
C C 0.0033 0.0016 'International Tables Vol C Tables 4.2.6.8 and 6.1.1.4'
H H 0.0000 0.0000 'International Tables Vol C Tables 4.2.6.8 and 6.1.1.4'
N N 0.0061 0.0033 'International Tables Vol C Tables 4.2.6.8 and 6.1.1.4'
Cl Cl 0.1484 0.1585 'International Tables Vol C Tables 4.2.6.8 and 6.1.1.4'
loop_
_geom_angle_atom_site_label_1
_geom_angle_atom_site_label_2
_geom_angle_atom_site_label_3
_geom_angle
C7 N1 N2 112.2(2)
C17 N2 N1 111.4(2)
C6 C1 C2 120.3(2)
C6 C1 C8 120.4(4)
C2 C1 C8 119.2(4)
C6 C1 Cl2 119.8(3)
C2 C1 Cl2 119.8(3)
C3 C2 C1 119.7(3)
C3 C2 H2 120.1
C1 C2 H2 120.1
C2 C3 C4 120.7(3)
C2 C3 H3 119.7
C4 C3 H3 119.7
C5 C4 C3 118.6(3)
C5 C4 C7 120.0(3)
C3 C4 C7 121.4(3)
C6 C5 C4 120.7(3)
C6 C5 H5 119.6
C4 C5 H5 119.6
C5 C6 C1 120.0(3)
C5 C6 H6 120.0
C1 C6 H6 120.0
N1 C7 C4 121.8(3)
N1 C7 H7 119.1
C4 C7 H7 119.1
N3 C8 C1 178.7(5)
C16 C11 C12 119.6(2)
C16 C11 C18 121.2(7)
C12 C11 C18 119.1(7)
C16 C11 Cl1 120.4(2)
C12 C11 Cl1 120.0(2)
C13 C12 C11 119.5(3)
C13 C12 H12 120.2
C11 C12 H12 120.2
C12 C13 C14 121.1(3)
C12 C13 H13 119.5
C14 C13 H13 119.5
C15 C14 C13 119.4(3)
C15 C14 C17 119.0(3)
C13 C14 C17 121.6(3)
C16 C15 C14 120.7(3)
C16 C15 H15 119.6
C14 C15 H15 119.6
C15 C16 C11 119.6(3)
C15 C16 H16 120.2
C11 C16 H16 120.2
N2 C17 C14 121.3(3)
N2 C17 H17 119.3
C14 C17 H17 119.3
N4 C18 C11 179.2(10)
loop_
_geom_bond_atom_site_label_1
_geom_bond_atom_site_label_2
_geom_bond_distance
Cl1 C11 1.7513(10)
Cl2 C1 1.7525(10)
N1 C7 1.275(4)
N1 N2 1.408(3)
N2 C17 1.282(4)
N3 C8 1.14204(13)
N4 C18 1.14202(14)
C1 C6 1.383(4)
C1 C2 1.394(4)
C1 C8 1.44505(15)
C2 C3 1.379(4)
C2 H2 0.9500
C3 C4 1.406(5)
C3 H3 0.9500
C4 C5 1.398(5)
C4 C7 1.457(4)
C5 C6 1.382(4)
C5 H5 0.9500
C6 H6 0.9500
C7 H7 0.9500
C11 C16 1.405(4)
C11 C12 1.410(4)
C11 C18 1.44502(16)
C12 C13 1.376(5)
C12 H12 0.9500
C13 C14 1.395(5)
C13 H13 0.9500
C14 C15 1.389(5)
C14 C17 1.464(4)
C15 C16 1.387(4)
C15 H15 0.9500
C16 H16 0.9500
C17 H17 0.9500
loop_
_geom_torsion_atom_site_label_1
_geom_torsion_atom_site_label_2
_geom_torsion_atom_site_label_3
_geom_torsion_atom_site_label_4
_geom_torsion
C7 N1 N2 C17 179.7(4)
C6 C1 C2 C3 0.0(5)
C8 C1 C2 C3 176.9(4)
Cl2 C1 C2 C3 177.5(3)
C1 C2 C3 C4 0.7(5)
C2 C3 C4 C5 -1.2(5)
C2 C3 C4 C7 178.3(3)
C3 C4 C5 C6 1.1(5)
C7 C4 C5 C6 -178.4(3)
C4 C5 C6 C1 -0.5(5)
C2 C1 C6 C5 0.0(5)
C8 C1 C6 C5 -176.9(4)
Cl2 C1 C6 C5 -177.6(3)
N2 N1 C7 C4 -179.7(3)
C5 C4 C7 N1 171.6(3)
C3 C4 C7 N1 -7.9(5)
Cl2 N3 C8 C1 -17E1(5)
C16 C11 C12 C13 1.6(5)
C18 C11 C12 C13 177.8(6)
Cl1 C11 C12 C13 -176.5(3)
C11 C12 C13 C14 -1.1(5)
C12 C13 C14 C15 0.3(5)
C12 C13 C14 C17 -178.3(3)
C13 C14 C15 C16 0.0(5)
C17 C14 C15 C16 178.6(3)
C14 C15 C16 C11 0.5(5)
C12 C11 C16 C15 -1.3(5)
C18 C11 C16 C15 -177.4(7)
Cl1 C11 C16 C15 176.8(3)
N1 N2 C17 C14 179.6(3)
C15 C14 C17 N2 -170.2(3)
C13 C14 C17 N2 8.4(5)
