#------------------------------------------------------------------------------
#$Date: 2016-02-20 00:18:51 +0200 (Sat, 20 Feb 2016) $
#$Revision: 176760 $
#$URL: svn://www.crystallography.net/cod/cif/2/01/65/2016591.cif $
#------------------------------------------------------------------------------
#
# This file is available in the Crystallography Open Database (COD),
# http://www.crystallography.net/. The original data for this entry
# were provided by IUCr Journals, http://journals.iucr.org/.
#
# The file may be used within the scientific community so long as
# proper attribution is given to the journal article from which the
# data were obtained.
#
data_2016591
loop_
_publ_author_name
'Thomas, Lynne H.'
'Cole, Jacqueline M.'
'Wilson, Chick C.'
_publ_section_title
;
 Orientational disorder in 4-chloronitrobenzene
;
_journal_coeditor_code           HJ3058
_journal_issue                   5
_journal_name_full               'Acta Crystallographica Section C'
_journal_page_first              o296
_journal_page_last               o302
_journal_paper_doi               10.1107/S0108270108008998
_journal_volume                  64
_journal_year                    2008
_chemical_formula_iupac          'C6 H4 Cl N O2'
_chemical_formula_moiety         'C6 H4 Cl N O2'
_chemical_formula_sum            'C6 H4 Cl N O2'
_chemical_formula_weight         157.55
_chemical_name_common            1-chloro-4-nitrobenzene
_chemical_name_systematic
;
4-chloronitrobenzene
;
_space_group_IT_number           14
_symmetry_cell_setting           monoclinic
_symmetry_space_group_name_Hall  '-P 2ybc'
_symmetry_space_group_name_H-M   'P 1 21/c 1'
_atom_sites_solution_hydrogens   difmap
_atom_sites_solution_primary     direct
_atom_sites_solution_secondary   difmap
_audit_creation_method           SHELXL-97
_cell_angle_alpha                90.00
_cell_angle_beta                 96.34(3)
_cell_angle_gamma                90.00
_cell_formula_units_Z            2
_cell_length_a                   3.7801(3)
_cell_length_b                   6.7338(6)
_cell_length_c                   13.3758(15)
_cell_measurement_reflns_used    1212
_cell_measurement_temperature    230(2)
_cell_measurement_theta_max      27.48
_cell_measurement_theta_min      1.02
_cell_volume                     338.39(6)
_computing_cell_refinement       'HKL Scalepack (Otwinowski & Minor, 1997)'
_computing_data_collection
;
COLLECT (Nonius, 1998)
;
_computing_data_reduction
;
HKL Denzo and Scalepack (Otwinowski & Minor, 1997)
;
_computing_molecular_graphics    'SHELXTL-Plus (Sheldrick, 2008)'
_computing_publication_material  'SHELXL97 (Sheldrick, 2008)'
_computing_structure_refinement  'SHELXL97 (Sheldrick, 2008)'
_computing_structure_solution    'SHELXS97 (Sheldrick, 2008)'
_diffrn_ambient_temperature      230(2)
_diffrn_measured_fraction_theta_full 0.947
_diffrn_measured_fraction_theta_max 0.947
_diffrn_measurement_device_type  'Nonius KappaCCD'
_diffrn_measurement_method       CCD
_diffrn_radiation_monochromator  graphite
_diffrn_radiation_source         'fine-focus sealed tube'
_diffrn_radiation_type           MoK\a
_diffrn_radiation_wavelength     0.71073
_diffrn_reflns_av_R_equivalents  0.0486
_diffrn_reflns_av_sigmaI/netI    0.0651
_diffrn_reflns_limit_h_max       4
_diffrn_reflns_limit_h_min       -4
_diffrn_reflns_limit_k_max       8
_diffrn_reflns_limit_k_min       -8
_diffrn_reflns_limit_l_max       17
_diffrn_reflns_limit_l_min       -17
_diffrn_reflns_number            1934
_diffrn_reflns_theta_full        27.29
_diffrn_reflns_theta_max         27.29
_diffrn_reflns_theta_min         3.39
_exptl_absorpt_coefficient_mu    0.493
_exptl_absorpt_correction_T_max  0.943
_exptl_absorpt_correction_T_min  0.857
_exptl_absorpt_correction_type   multi-scan
_exptl_absorpt_process_details
;
multi-scan from symmetry-related measurements
(SORTAV; Blessing, 1995)
;
_exptl_crystal_colour            white
_exptl_crystal_density_diffrn    1.546
_exptl_crystal_density_method    'not measured'
_exptl_crystal_description       needle
_exptl_crystal_F_000             160
_exptl_crystal_size_max          0.4
_exptl_crystal_size_mid          0.16
_exptl_crystal_size_min          0.1
_refine_diff_density_max         0.206
_refine_diff_density_min         -0.250
_refine_ls_extinction_method     none
_refine_ls_goodness_of_fit_ref   1.059
_refine_ls_hydrogen_treatment    refall
_refine_ls_matrix_type           full
_refine_ls_number_parameters     72
_refine_ls_number_reflns         719
_refine_ls_number_restraints     0
_refine_ls_restrained_S_all      1.059
_refine_ls_R_factor_all          0.1085
_refine_ls_R_factor_gt           0.0486
_refine_ls_shift/su_max          0.003
_refine_ls_shift/su_mean         0.001
_refine_ls_structure_factor_coef Fsqd
_refine_ls_weighting_details
'calc w=1/[\s^2^(Fo^2^)+(0.0475P)^2^+0.0323P] where P=(Fo^2^+2Fc^2^)/3'
_refine_ls_weighting_scheme      calc
_refine_ls_wR_factor_gt          0.1017
_refine_ls_wR_factor_ref         0.1261
_reflns_number_gt                396
_reflns_number_total             719
_reflns_threshold_expression     >2sigma(I)
_cod_data_source_file            hj3058.cif
_cod_data_source_block           I_230
_cod_original_sg_symbol_H-M      P21/c
_cod_database_code               2016591
_cod_database_fobs_code          2016591
loop_
_symmetry_equiv_pos_as_xyz
'x, y, z'
'-x, y+1/2, -z+1/2'
'-x, -y, -z'
'x, -y-1/2, z-1/2'
loop_
_atom_site_type_symbol
_atom_site_label
_atom_site_fract_x
_atom_site_fract_y
_atom_site_fract_z
_atom_site_U_iso_or_equiv
_atom_site_adp_type
_atom_site_calc_flag
_atom_site_refinement_flags
_atom_site_occupancy
Cl Cl1 0.1500(8) 0.3347(6) 0.3472(3) 0.0886(11) Uani d P 0.50
C C1 0.3513(5) 0.1336(4) 0.43346(17) 0.0635(7) Uani d . 1
C C3 0.3942(6) 0.1839(5) 0.5331(2) 0.0707(7) Uani d . 1
C C2 0.4544(6) -0.0479(5) 0.3997(2) 0.0735(8) Uani d . 1
O O2 0.1468(12) 0.2115(7) 0.2784(4) 0.0964(15) Uani d P 0.50
O O1 0.1123(16) 0.4216(8) 0.3987(6) 0.120(2) Uani d P 0.50
N N1 0.198(3) 0.2499(13) 0.3612(10) 0.089(3) Uani d P 0.50
H H1 0.420(6) -0.072(3) 0.3351(19) 0.079(7) Uiso d . 1
H H2 0.314(7) 0.314(4) 0.5534(18) 0.094(8) Uiso d . 1
loop_
_atom_site_aniso_label
_atom_site_aniso_U_11
_atom_site_aniso_U_22
_atom_site_aniso_U_33
_atom_site_aniso_U_12
_atom_site_aniso_U_13
_atom_site_aniso_U_23
Cl1 0.0711(12) 0.107(3) 0.0858(16) -0.0033(19) 0.0012(9) 0.031(2)
C1 0.0442(12) 0.0849(18) 0.0622(15) -0.0119(11) 0.0091(9) 0.0000(14)
C3 0.0590(13) 0.0835(19) 0.0704(17) -0.0108(12) 0.0109(11) -0.0148(14)
C2 0.0609(14) 0.105(2) 0.0554(16) -0.0157(13) 0.0113(11) -0.0222(16)
O2 0.113(3) 0.099(3) 0.074(3) 0.007(2) -0.007(2) 0.021(3)
O1 0.119(4) 0.069(3) 0.169(6) 0.018(2) 0.013(4) 0.002(4)
N1 0.059(4) 0.051(5) 0.159(10) -0.001(3) 0.023(5) 0.010(5)
loop_
_atom_type_symbol
_atom_type_description
_atom_type_scat_dispersion_real
_atom_type_scat_dispersion_imag
_atom_type_scat_source
C C 0.0033 0.0016 'International Tables Vol C Tables 4.2.6.8 and 6.1.1.4'
H H 0.0000 0.0000 'International Tables Vol C Tables 4.2.6.8 and 6.1.1.4'
N N 0.0061 0.0033 'International Tables Vol C Tables 4.2.6.8 and 6.1.1.4'
O O 0.0106 0.0060 'International Tables Vol C Tables 4.2.6.8 and 6.1.1.4'
Cl Cl 0.1484 0.1585 'International Tables Vol C Tables 4.2.6.8 and 6.1.1.4'
loop_
_geom_angle_atom_site_label_1
_geom_angle_atom_site_label_2
_geom_angle_atom_site_label_3
_geom_angle_site_symmetry_1
_geom_angle
N1 C1 C3 . 124.0(6)
N1 C1 C2 . 113.7(6)
C3 C1 C2 . 122.2(3)
C3 C1 Cl1 . 114.6(3)
C2 C1 Cl1 . 123.2(2)
C2 C3 C1 3_656 118.2(3)
C2 C3 H2 3_656 122.8(15)
C1 C3 H2 . 119.0(15)
C3 C2 C1 3_656 119.6(2)
C3 C2 H1 3_656 122.1(15)
C1 C2 H1 . 118.2(15)
O2 N1 O1 . 123.4(9)
O2 N1 C1 . 126.2(8)
O1 N1 C1 . 110.4(9)
loop_
_geom_bond_atom_site_label_1
_geom_bond_atom_site_label_2
_geom_bond_site_symmetry_2
_geom_bond_distance
Cl1 C1 . 1.884(4)
C1 N1 . 1.326(9)
C1 C3 . 1.368(3)
C1 C2 . 1.374(4)
C3 C2 3_656 1.364(4)
C3 H2 . 0.98(3)
C2 C3 3_656 1.364(4)
C2 H1 . 0.87(2)
O2 N1 . 1.133(13)
O1 N1 . 1.315(12)
loop_
_geom_hbond_atom_site_label_D
_geom_hbond_atom_site_label_H
_geom_hbond_atom_site_label_A
_geom_hbond_site_symmetry_A
_geom_hbond_distance_DH
_geom_hbond_distance_HA
_geom_hbond_distance_DA
_geom_hbond_angle_DHA
C3 H2 O1 3_566 0.98(3) 2.53(3) 3.455(7) 158(2)
C2 H1 O2 2_645 0.87(2) 2.77(2) 3.372(5) 127.4(18)
