#------------------------------------------------------------------------------
#$Date: 2016-02-20 00:18:51 +0200 (Sat, 20 Feb 2016) $
#$Revision: 176760 $
#$URL: svn://www.crystallography.net/cod/cif/2/01/65/2016588.cif $
#------------------------------------------------------------------------------
#
# This file is available in the Crystallography Open Database (COD),
# http://www.crystallography.net/. The original data for this entry
# were provided by IUCr Journals, http://journals.iucr.org/.
#
# The file may be used within the scientific community so long as
# proper attribution is given to the journal article from which the
# data were obtained.
#
data_2016588
loop_
_publ_author_name
'Thomas, Lynne H.'
'Cole, Jacqueline M.'
'Wilson, Chick C.'
_publ_section_title
;
 Orientational disorder in 4-chloronitrobenzene
;
_journal_coeditor_code           HJ3058
_journal_issue                   5
_journal_name_full               'Acta Crystallographica Section C'
_journal_page_first              o296
_journal_page_last               o302
_journal_paper_doi               10.1107/S0108270108008998
_journal_volume                  64
_journal_year                    2008
_chemical_formula_iupac          'C6 H4 Cl N O2'
_chemical_formula_moiety         'C6 H4 Cl N O2'
_chemical_formula_sum            'C6 H4 Cl N O2'
_chemical_formula_weight         157.55
_chemical_name_common            1-chloro-4-nitrobenzene
_chemical_name_systematic
;
4-chloronitrobenzene
;
_space_group_IT_number           14
_symmetry_cell_setting           monoclinic
_symmetry_space_group_name_Hall  '-P 2ybc'
_symmetry_space_group_name_H-M   'P 1 21/c 1'
_atom_sites_solution_hydrogens   difmap
_atom_sites_solution_primary     direct
_atom_sites_solution_secondary   difmap
_audit_creation_method           SHELXL-97
_cell_angle_alpha                90.00
_cell_angle_beta                 96.82(3)
_cell_angle_gamma                90.00
_cell_formula_units_Z            2
_cell_length_a                   3.8011(8)
_cell_length_b                   6.7639(14)
_cell_length_c                   13.364(3)
_cell_measurement_reflns_used    1163
_cell_measurement_temperature    260(2)
_cell_measurement_theta_max      27.48
_cell_measurement_theta_min      1.02
_cell_volume                     341.16(13)
_computing_cell_refinement       'HKL Scalepack (Otwinowski & Minor, 1997)'
_computing_data_collection
;
COLLECT (Nonius, 1998)
;
_computing_data_reduction
;
HKL Denzo and Scalepack (Otwinowski & Minor, 1997)
;
_computing_molecular_graphics    'SHELXTL-Plus (Sheldrick, 2008)'
_computing_publication_material  'SHELXL97 (Sheldrick, 2008)'
_computing_structure_refinement  'SHELXL97 (Sheldrick, 2008)'
_computing_structure_solution    'SHELXS97 (Sheldrick, 2008)'
_diffrn_ambient_temperature      260(2)
_diffrn_measured_fraction_theta_full 0.964
_diffrn_measured_fraction_theta_max 0.964
_diffrn_measurement_device_type  'Nonius KappaCCD'
_diffrn_measurement_method       CCD
_diffrn_radiation_monochromator  graphite
_diffrn_radiation_source         'fine-focus sealed tube'
_diffrn_radiation_type           MoK\a
_diffrn_radiation_wavelength     0.71073
_diffrn_reflns_av_R_equivalents  0.0399
_diffrn_reflns_av_sigmaI/netI    0.0548
_diffrn_reflns_limit_h_max       4
_diffrn_reflns_limit_h_min       -4
_diffrn_reflns_limit_k_max       8
_diffrn_reflns_limit_k_min       -8
_diffrn_reflns_limit_l_max       17
_diffrn_reflns_limit_l_min       -16
_diffrn_reflns_number            2014
_diffrn_reflns_theta_full        27.21
_diffrn_reflns_theta_max         27.21
_diffrn_reflns_theta_min         3.38
_exptl_absorpt_coefficient_mu    0.489
_exptl_absorpt_correction_T_max  0.952
_exptl_absorpt_correction_T_min  0.842
_exptl_absorpt_correction_type   multi-scan
_exptl_absorpt_process_details
;
multi-scan from symmetry-related measurements
(SORTAV; Blessing, 1995)
;
_exptl_crystal_colour            white
_exptl_crystal_density_diffrn    1.534
_exptl_crystal_density_method    'not measured'
_exptl_crystal_description       needle
_exptl_crystal_F_000             160
_exptl_crystal_size_max          0.4
_exptl_crystal_size_mid          0.16
_exptl_crystal_size_min          0.1
_refine_diff_density_max         0.174
_refine_diff_density_min         -0.197
_refine_ls_extinction_method     none
_refine_ls_goodness_of_fit_ref   1.040
_refine_ls_hydrogen_treatment    refall
_refine_ls_matrix_type           full
_refine_ls_number_parameters     72
_refine_ls_number_reflns         730
_refine_ls_number_restraints     0
_refine_ls_restrained_S_all      1.040
_refine_ls_R_factor_all          0.1195
_refine_ls_R_factor_gt           0.0456
_refine_ls_shift/su_max          0.000
_refine_ls_shift/su_mean         0.000
_refine_ls_structure_factor_coef Fsqd
_refine_ls_weighting_details
'calc w=1/[\s^2^(Fo^2^)+(0.0562P)^2^+0.0122P] where P=(Fo^2^+2Fc^2^)/3'
_refine_ls_weighting_scheme      calc
_refine_ls_wR_factor_gt          0.1000
_refine_ls_wR_factor_ref         0.1337
_reflns_number_gt                365
_reflns_number_total             730
_reflns_threshold_expression     >2sigma(I)
_cod_data_source_file            hj3058.cif
_cod_data_source_block           I_260
_cod_original_cell_volume        341.17(12)
_cod_original_sg_symbol_H-M      P21/c
_cod_database_code               2016588
_cod_database_fobs_code          2016588
loop_
_symmetry_equiv_pos_as_xyz
'x, y, z'
'-x, y+1/2, -z+1/2'
'-x, -y, -z'
'x, -y-1/2, z-1/2'
loop_
_atom_site_type_symbol
_atom_site_label
_atom_site_fract_x
_atom_site_fract_y
_atom_site_fract_z
_atom_site_U_iso_or_equiv
_atom_site_adp_type
_atom_site_calc_flag
_atom_site_refinement_flags
_atom_site_occupancy
Cl Cl1 0.1529(11) 0.3364(8) 0.3476(4) 0.1081(16) Uani d P 0.50
C C1 0.3526(6) 0.1339(5) 0.4342(2) 0.0752(8) Uani d . 1
C C3 0.3945(6) 0.1828(5) 0.5336(2) 0.0808(8) Uani d . 1
C C2 0.4554(6) -0.0456(5) 0.3993(2) 0.0848(8) Uani d . 1
O O2 0.1509(13) 0.2141(8) 0.2787(4) 0.1142(17) Uani d P 0.50
O O1 0.1142(19) 0.4178(10) 0.4009(8) 0.149(3) Uani d P 0.50
N N1 0.196(3) 0.2529(16) 0.3630(12) 0.105(4) Uani d P 0.50
H H1 0.418(6) -0.064(4) 0.335(2) 0.093(8) Uiso d . 1
H H2 0.321(7) 0.311(4) 0.5560(19) 0.110(9) Uiso d . 1
loop_
_atom_site_aniso_label
_atom_site_aniso_U_11
_atom_site_aniso_U_22
_atom_site_aniso_U_33
_atom_site_aniso_U_12
_atom_site_aniso_U_13
_atom_site_aniso_U_23
Cl1 0.0848(13) 0.132(5) 0.1042(19) -0.008(2) -0.0009(11) 0.040(3)
C1 0.0548(13) 0.094(2) 0.0775(17) -0.0127(12) 0.0123(11) -0.0012(17)
C3 0.0710(14) 0.091(2) 0.0811(19) -0.0116(13) 0.0132(11) -0.0176(17)
C2 0.0771(14) 0.115(2) 0.0632(17) -0.0191(14) 0.0125(11) -0.0222(17)
O2 0.134(4) 0.118(4) 0.087(3) 0.010(3) -0.002(3) 0.021(3)
O1 0.151(5) 0.087(4) 0.208(7) 0.028(3) 0.016(5) 0.015(5)
N1 0.075(5) 0.069(6) 0.177(13) -0.005(4) 0.039(7) 0.012(6)
loop_
_atom_type_symbol
_atom_type_description
_atom_type_scat_dispersion_real
_atom_type_scat_dispersion_imag
_atom_type_scat_source
C C 0.0033 0.0016 'International Tables Vol C Tables 4.2.6.8 and 6.1.1.4'
H H 0.0000 0.0000 'International Tables Vol C Tables 4.2.6.8 and 6.1.1.4'
N N 0.0061 0.0033 'International Tables Vol C Tables 4.2.6.8 and 6.1.1.4'
O O 0.0106 0.0060 'International Tables Vol C Tables 4.2.6.8 and 6.1.1.4'
Cl Cl 0.1484 0.1585 'International Tables Vol C Tables 4.2.6.8 and 6.1.1.4'
loop_
_geom_angle_atom_site_label_1
_geom_angle_atom_site_label_2
_geom_angle_atom_site_label_3
_geom_angle_site_symmetry_1
_geom_angle_site_symmetry_3
_geom_angle
N1 C1 C3 . . 122.8(7)
N1 C1 C2 . . 114.4(7)
C3 C1 C2 . . 122.8(3)
C3 C1 Cl1 . . 114.4(3)
C2 C1 Cl1 . . 122.8(3)
C1 C3 C2 . 3_656 117.8(3)
C1 C3 H2 . . 120.9(15)
C2 C3 H2 3_656 . 121.2(15)
C3 C2 C1 3_656 . 119.4(3)
C3 C2 H1 3_656 . 124.2(16)
C1 C2 H1 . . 116.4(16)
O2 N1 O1 . . 125.0(11)
O2 N1 C1 . . 124.3(10)
O1 N1 C1 . . 110.6(12)
loop_
_geom_bond_atom_site_label_1
_geom_bond_atom_site_label_2
_geom_bond_site_symmetry_2
_geom_bond_distance
Cl1 C1 . 1.892(4)
C1 N1 . 1.332(11)
C1 C3 . 1.360(3)
C1 C2 . 1.374(4)
C3 C2 3_656 1.367(4)
C3 H2 . 0.97(3)
C2 C3 3_656 1.367(4)
C2 H1 . 0.87(3)
O2 N1 . 1.149(17)
O1 N1 . 1.279(17)
loop_
_geom_hbond_atom_site_label_D
_geom_hbond_atom_site_label_H
_geom_hbond_atom_site_label_A
_geom_hbond_site_symmetry_A
_geom_hbond_distance_DH
_geom_hbond_distance_HA
_geom_hbond_distance_DA
_geom_hbond_angle_DHA
C3 H2 O1 3_566 0.97(3) 2.58(3) 3.493(8) 157(2)
C2 H1 O2 2_645 0.87(3) 2.80(2) 3.374(6) 125.3(19)
