#------------------------------------------------------------------------------
#$Date: 2017-10-13 03:48:21 +0300 (Fri, 13 Oct 2017) $
#$Revision: 201957 $
#$URL: file:///home/coder/svn-repositories/cod/cif/2/01/67/2016760.cif $
#------------------------------------------------------------------------------
#
# This file is available in the Crystallography Open Database (COD),
# http://www.crystallography.net/. The original data for this entry
# were provided by IUCr Journals, http://journals.iucr.org/.
#
# The file may be used within the scientific community so long as
# proper attribution is given to the journal article from which the
# data were obtained.
#
data_2016760
loop_
_publ_author_name
'Acosta, Lina M.'
'Bahsas, Ali'
'Palma, Alirio'
'Cobo, Justo'
'Low, John N.'
'Glidewell, Christopher'
_publ_section_title
;
 Three styryl-substituted tetrahydro-1,4-epoxy-1-benzazepines:
 configurations, conformations and hydrogen-bonded chains
;
_journal_coeditor_code           GG3177
_journal_issue                   9
_journal_name_full               'Acta Crystallographica Section C'
_journal_page_first              o514
_journal_page_last               o518
_journal_paper_doi               10.1107/S0108270108025638
_journal_volume                  64
_journal_year                    2008
_chemical_formula_iupac          'C18 H16 Cl N O'
_chemical_formula_moiety         'C18 H16 Cl N O'
_chemical_formula_sum            'C18 H16 Cl N O'
_chemical_formula_weight         297.77
_chemical_name_systematic
;
(2SR,4RS)-7-Chloro-2-<i>exo</i>-[(<i>E</i>)-styryl]-2,3,4,5-tetrahydro-
1,4-epoxy-1H-1-benzazepine
;
_space_group_IT_number           4
_symmetry_cell_setting           monoclinic
_symmetry_space_group_name_Hall  'P 2yb'
_symmetry_space_group_name_H-M   'P 1 21 1'
_atom_sites_solution_hydrogens   geom
_atom_sites_solution_primary     direct
_atom_sites_solution_secondary   difmap
_cell_angle_alpha                90.00
_cell_angle_beta                 90.204(12)
_cell_angle_gamma                90.00
_cell_formula_units_Z            2
_cell_length_a                   10.5798(8)
_cell_length_b                   5.3448(10)
_cell_length_c                   12.873(3)
_cell_measurement_reflns_used    3305
_cell_measurement_temperature    120(2)
_cell_measurement_theta_max      27.50
_cell_measurement_theta_min      5.12
_cell_volume                     727.9(2)
_computing_cell_refinement       'DIRAX/LSQ (Duisenberg <i>et al.</i>,  2000)'
_computing_data_collection       'COLLECT (Nonius, 1999)'
_computing_data_reduction        'EVALCCD (Duisenberg <i>et al.</i>,  2003)'
_computing_molecular_graphics    'PLATON (Spek, 2003)'
_computing_publication_material
'SHELXL97 (Sheldrick, 2008) and PRPKAPPA (Ferguson, 1999)'
_computing_structure_refinement
'OSCAIL (McArdle, 2003) and SHELXL97 (Sheldrick, 2008)'
_computing_structure_solution    'SIR2004 (Burla <i>et al.</i>,  2005)'
_diffrn_ambient_temperature      120(2)
_diffrn_detector_area_resol_mean 9.091
_diffrn_measured_fraction_theta_full 0.990
_diffrn_measured_fraction_theta_max 0.990
_diffrn_measurement_device_type  'Bruker Nonius KappaCCD area-detector'
_diffrn_measurement_method       '\f and \w scans'
_diffrn_radiation_monochromator  graphite
_diffrn_radiation_source         'Bruker Nonius FR591 rotating anode'
_diffrn_radiation_type           'Mo K\a'
_diffrn_radiation_wavelength     0.71073
_diffrn_reflns_av_R_equivalents  0.0830
_diffrn_reflns_av_sigmaI/netI    0.0871
_diffrn_reflns_limit_h_max       13
_diffrn_reflns_limit_h_min       -13
_diffrn_reflns_limit_k_max       6
_diffrn_reflns_limit_k_min       -6
_diffrn_reflns_limit_l_max       16
_diffrn_reflns_limit_l_min       -16
_diffrn_reflns_number            17564
_diffrn_reflns_theta_full        27.50
_diffrn_reflns_theta_max         27.50
_diffrn_reflns_theta_min         5.12
_diffrn_standards_decay_%        0
_diffrn_standards_number         0
_exptl_absorpt_coefficient_mu    0.260
_exptl_absorpt_correction_T_max  0.979
_exptl_absorpt_correction_T_min  0.924
_exptl_absorpt_correction_type   multi-scan
_exptl_absorpt_process_details   '(SADABS; Sheldrick, 2003)'
_exptl_crystal_colour            colourless
_exptl_crystal_density_diffrn    1.359
_exptl_crystal_density_method    'not measured'
_exptl_crystal_description       lath
_exptl_crystal_F_000             312
_exptl_crystal_size_max          0.45
_exptl_crystal_size_mid          0.15
_exptl_crystal_size_min          0.08
_refine_diff_density_max         0.312
_refine_diff_density_min         -0.328
_refine_ls_abs_structure_details 'Flack (1983), with 1460 Friedel pairs'
_refine_ls_abs_structure_Flack   0.32(9)
_refine_ls_extinction_method     none
_refine_ls_goodness_of_fit_ref   1.045
_refine_ls_hydrogen_treatment    constr
_refine_ls_matrix_type           full
_refine_ls_number_parameters     191
_refine_ls_number_reflns         3305
_refine_ls_number_restraints     1
_refine_ls_restrained_S_all      1.044
_refine_ls_R_factor_all          0.1158
_refine_ls_R_factor_gt           0.0504
_refine_ls_shift/su_max          0.000
_refine_ls_shift/su_mean         0.000
_refine_ls_structure_factor_coef Fsqd
_refine_ls_weighting_details
'w = 1/[\s^2^(Fo^2^)+(0.0480P)^2^+0.1730P] where P=(Fo^2^+2Fc^2^)/3'
_refine_ls_weighting_scheme      calc
_refine_ls_wR_factor_gt          0.0960
_refine_ls_wR_factor_ref         0.1204
_reflns_number_gt                2033
_reflns_number_total             3305
_reflns_threshold_expression     I>2\s(I)
_cod_data_source_file            gg3177.cif
_cod_data_source_block           I
_cod_original_sg_symbol_H-M      'P 21'
_cod_database_code               2016760
_cod_database_fobs_code          2016760
loop_
_symmetry_equiv_pos_as_xyz
'x, y, z'
'-x, y+1/2, -z'
loop_
_atom_site_type_symbol
_atom_site_label
_atom_site_fract_x
_atom_site_fract_y
_atom_site_fract_z
_atom_site_U_iso_or_equiv
_atom_site_adp_type
_atom_site_calc_flag
_atom_site_refinement_flags
_atom_site_occupancy
Cl Cl7 1.20480(7) 0.6898(2) 0.65479(7) 0.0577(3) Uani d . 1
O O14 0.62139(18) 0.3471(4) 0.57943(17) 0.0416(6) Uani d . 1
N N1 0.6811(2) 0.3167(5) 0.67945(19) 0.0321(6) Uani d . 1
C C2 0.6050(3) 0.4855(6) 0.7457(3) 0.0359(8) Uani d . 1
C C3 0.5667(3) 0.7010(7) 0.6734(3) 0.0493(9) Uani d . 1
C C4 0.6093(3) 0.6136(6) 0.5665(3) 0.0469(9) Uani d . 1
C C5 0.7361(3) 0.7137(7) 0.5354(2) 0.0425(8) Uani d . 1
C C5a 0.8373(3) 0.6060(5) 0.6031(2) 0.0309(7) Uani d . 1
C C6 0.9611(3) 0.6886(7) 0.5988(2) 0.0355(7) Uani d . 1
C C7 1.0508(3) 0.5803(6) 0.6613(2) 0.0361(8) Uani d . 1
C C8 1.0234(3) 0.3899(7) 0.7272(2) 0.0382(8) Uani d . 1
C C9 0.8999(3) 0.3028(6) 0.7310(2) 0.0354(8) Uani d . 1
C C9a 0.8085(2) 0.4117(5) 0.6701(2) 0.0287(7) Uani d . 1
C C21 0.4925(2) 0.3474(6) 0.7873(3) 0.0363(8) Uani d . 1
C C22 0.4526(3) 0.3671(6) 0.8840(3) 0.0368(8) Uani d . 1
C C221 0.3400(3) 0.2490(5) 0.9274(2) 0.0317(7) Uani d . 1
C C222 0.2866(3) 0.0386(6) 0.8834(2) 0.0375(8) Uani d . 1
C C223 0.1788(3) -0.0674(6) 0.9246(2) 0.0379(8) Uani d . 1
C C224 0.1238(3) 0.0329(6) 1.0107(2) 0.0373(8) Uani d . 1
C C225 0.1763(3) 0.2392(6) 1.0569(2) 0.0400(8) Uani d . 1
C C226 0.2837(3) 0.3460(6) 1.0163(2) 0.0367(8) Uani d . 1
H H2 0.6578 0.5505 0.8043 0.043 Uiso calc R 1
H H3A 0.4742 0.7285 0.6748 0.059 Uiso calc R 1
H H3B 0.6100 0.8581 0.6934 0.059 Uiso calc R 1
H H4 0.5440 0.6539 0.5127 0.056 Uiso calc R 1
H H5A 0.7530 0.6701 0.4620 0.051 Uiso calc R 1
H H5B 0.7363 0.8983 0.5415 0.051 Uiso calc R 1
H H6 0.9838 0.8199 0.5528 0.043 Uiso calc R 1
H H8 1.0873 0.3179 0.7698 0.046 Uiso calc R 1
H H9 0.8786 0.1679 0.7757 0.043 Uiso calc R 1
H H21 0.4476 0.2397 0.7415 0.044 Uiso calc R 1
H H22 0.5017 0.4676 0.9297 0.044 Uiso calc R 1
H H222 0.3244 -0.0343 0.8238 0.045 Uiso calc R 1
H H223 0.1428 -0.2112 0.8928 0.046 Uiso calc R 1
H H224 0.0494 -0.0401 1.0385 0.045 Uiso calc R 1
H H225 0.1385 0.3087 1.1172 0.048 Uiso calc R 1
H H226 0.3199 0.4880 1.0493 0.044 Uiso calc R 1
loop_
_atom_site_aniso_label
_atom_site_aniso_U_11
_atom_site_aniso_U_22
_atom_site_aniso_U_33
_atom_site_aniso_U_12
_atom_site_aniso_U_13
_atom_site_aniso_U_23
Cl7 0.0311(4) 0.0791(7) 0.0629(6) -0.0168(5) 0.0110(4) -0.0268(5)
O14 0.0376(12) 0.0313(13) 0.0558(14) -0.0017(10) -0.0188(10) -0.0034(11)
N1 0.0254(13) 0.0295(14) 0.0413(15) -0.0004(10) -0.0063(11) -0.0017(12)
C2 0.0250(15) 0.0312(18) 0.051(2) -0.0015(14) -0.0014(14) -0.0104(15)
C3 0.0222(15) 0.0321(18) 0.094(3) 0.0023(16) 0.0015(16) -0.002(2)
C4 0.0400(19) 0.037(2) 0.064(2) 0.0040(15) -0.0237(17) 0.0095(17)
C5 0.0489(19) 0.0340(19) 0.0444(19) 0.0012(18) -0.0105(15) 0.0070(17)
C5a 0.0347(17) 0.0266(17) 0.0315(17) 0.0013(13) -0.0045(13) -0.0019(13)
C6 0.0373(16) 0.0330(17) 0.0362(17) -0.0094(17) 0.0052(13) -0.0010(17)
C7 0.0305(17) 0.043(2) 0.0347(18) -0.0054(14) 0.0051(14) -0.0149(16)
C8 0.0230(15) 0.053(2) 0.0383(18) 0.0081(15) -0.0061(13) 0.0016(17)
C9 0.0316(17) 0.0364(19) 0.0382(18) 0.0052(14) 0.0003(14) 0.0028(15)
C9a 0.0268(15) 0.0261(17) 0.0331(17) 0.0021(13) -0.0026(13) -0.0043(13)
C21 0.0207(14) 0.0341(18) 0.054(2) -0.0026(14) -0.0040(14) -0.0071(16)
C22 0.0267(16) 0.0343(19) 0.049(2) 0.0000(14) -0.0065(14) -0.0070(17)
C221 0.0261(15) 0.034(2) 0.0350(17) 0.0026(14) -0.0077(13) 0.0018(14)
C222 0.0340(17) 0.037(2) 0.0417(19) 0.0011(14) -0.0006(15) -0.0028(16)
C223 0.0366(17) 0.034(2) 0.0429(19) -0.0046(15) -0.0026(15) -0.0029(15)
C224 0.0310(17) 0.039(2) 0.0417(19) -0.0018(14) -0.0036(15) 0.0022(17)
C225 0.0366(17) 0.047(2) 0.0365(18) 0.0071(17) 0.0004(14) -0.0036(16)
C226 0.0362(17) 0.0325(19) 0.0414(19) 0.0009(15) -0.0102(14) -0.0025(16)
loop_
_atom_type_symbol
_atom_type_description
_atom_type_scat_dispersion_real
_atom_type_scat_dispersion_imag
_atom_type_scat_source
C C 0.0033 0.0016 'International Tables Vol C Tables 4.2.6.8 and 6.1.1.4'
H H 0.0000 0.0000 'International Tables Vol C Tables 4.2.6.8 and 6.1.1.4'
Cl Cl 0.1484 0.1585 'International Tables Vol C Tables 4.2.6.8 and 6.1.1.4'
N N 0.0061 0.0033 'International Tables Vol C Tables 4.2.6.8 and 6.1.1.4'
O O 0.0106 0.0060 'International Tables Vol C Tables 4.2.6.8 and 6.1.1.4'
loop_
_geom_angle_atom_site_label_1
_geom_angle_atom_site_label_2
_geom_angle_atom_site_label_3
_geom_angle
_geom_angle_publ_flag
C4 O14 N1 104.7(2) no
O14 N1 C9a 107.0(2) no
O14 N1 C2 102.0(2) no
C9a N1 C2 110.0(2) no
N1 C2 C21 109.8(2) no
N1 C2 C3 104.5(3) no
C21 C2 C3 112.3(2) no
N1 C2 H2 110.0 no
C21 C2 H2 110.0 no
C3 C2 H2 110.0 no
C4 C3 C2 103.9(3) no
C4 C3 H3A 111.0 no
C2 C3 H3A 111.0 no
C4 C3 H3B 111.0 no
C2 C3 H3B 111.0 no
H3A C3 H3B 109.0 no
O14 C4 C5 107.7(3) no
O14 C4 C3 103.1(3) no
C5 C4 C3 113.6(3) no
O14 C4 H4 110.7 no
C5 C4 H4 110.7 no
C3 C4 H4 110.7 no
C5a C5 C4 110.2(3) no
C5a C5 H5A 109.6 no
C4 C5 H5A 109.6 no
C5a C5 H5B 109.6 no
C4 C5 H5B 109.6 no
H5A C5 H5B 108.1 no
C6 C5a C9a 118.3(3) no
C6 C5a C5 122.0(3) no
C9a C5a C5 119.6(3) no
C7 C6 C5a 119.7(3) no
C7 C6 H6 120.1 no
C5a C6 H6 120.1 no
C8 C7 C6 122.3(3) no
C8 C7 Cl7 119.1(3) no
C6 C7 Cl7 118.6(3) no
C7 C8 C9 118.5(3) no
C7 C8 H8 120.8 no
C9 C8 H8 120.8 no
C9a C9 C8 119.9(3) no
C9a C9 H9 120.0 no
C8 C9 H9 120.0 no
C9 C9a C5a 121.2(3) no
C9 C9a N1 117.3(3) no
C5a C9a N1 121.5(2) no
C22 C21 C2 123.7(3) no
C22 C21 H21 118.2 no
C2 C21 H21 118.2 no
C21 C22 C221 126.2(3) no
C21 C22 H22 116.9 no
C221 C22 H22 116.9 no
C222 C221 C226 117.8(3) no
C222 C221 C22 121.9(3) no
C226 C221 C22 120.3(3) no
C221 C222 C223 121.0(3) no
C221 C222 H222 119.5 no
C223 C222 H222 119.5 no
C224 C223 C222 120.4(3) no
C224 C223 H223 119.8 no
C222 C223 H223 119.8 no
C223 C224 C225 119.8(3) no
C223 C224 H224 120.1 no
C225 C224 H224 120.1 no
C224 C225 C226 120.2(3) no
C224 C225 H225 119.9 no
C226 C225 H225 119.9 no
C225 C226 C221 120.9(3) no
C225 C226 H226 119.5 no
C221 C226 H226 119.5 no
loop_
_geom_bond_atom_site_label_1
_geom_bond_atom_site_label_2
_geom_bond_distance
_geom_bond_publ_flag
Cl7 C7 1.733(3) no
O14 C4 1.439(4) no
O14 N1 1.441(3) no
N1 C9a 1.446(4) no
N1 C2 1.481(4) no
C2 C21 1.500(4) no
C2 C3 1.534(5) no
C2 H2 1.00 no
C3 C4 1.522(5) no
C3 H3A 0.99 no
C3 H3B 0.99 no
C4 C5 1.501(4) no
C4 H4 1.00 no
C5 C5a 1.494(4) no
C5 H5A 0.99 no
C5 H5B 0.99 no
C5a C6 1.384(4) no
C5a C9a 1.384(4) no
C6 C7 1.370(4) no
C6 H6 0.95 no
C7 C8 1.357(5) no
C8 C9 1.389(4) no
C8 H8 0.95 no
C9 C9a 1.372(4) no
C9 H9 0.95 no
C21 C22 1.321(4) no
C21 H21 0.95 no
C22 C221 1.461(4) no
C22 H22 0.95 no
C221 C222 1.379(4) no
C221 C226 1.391(4) no
C222 C223 1.381(4) no
C222 H222 0.95 no
C223 C224 1.363(4) no
C223 H223 0.95 no
C224 C225 1.370(4) no
C224 H224 0.95 no
C225 C226 1.377(4) no
C225 H225 0.95 no
C226 H226 0.95 no
loop_
_geom_hbond_atom_site_label_D
_geom_hbond_atom_site_label_H
_geom_hbond_atom_site_label_A
_geom_hbond_site_symmetry_A
_geom_hbond_distance_DH
_geom_hbond_distance_HA
_geom_hbond_distance_DA
_geom_hbond_angle_DHA
_geom_hbond_publ_flag
C3 H3B N1 1_565 0.99 2.57 3.507(5) 158 no
C4 H4 O14 2_656 1.00 2.35 3.318(4) 163 no
loop_
_geom_torsion_atom_site_label_1
_geom_torsion_atom_site_label_2
_geom_torsion_atom_site_label_3
_geom_torsion_atom_site_label_4
_geom_torsion
_geom_torsion_publ_flag
C4 O14 N1 C9a -67.9(3) no
C4 O14 N1 C2 47.6(3) no
O14 N1 C2 C21 87.4(3) no
C9a N1 C2 C21 -159.3(2) no
O14 N1 C2 C3 -33.2(3) no
C9a N1 C2 C3 80.1(3) no
N1 C2 C3 C4 8.2(3) no
C21 C2 C3 C4 -110.7(3) no
N1 O14 C4 C5 78.3(3) no
N1 O14 C4 C3 -42.0(3) no
C2 C3 C4 O14 19.8(3) no
C2 C3 C4 C5 -96.5(3) no
O14 C4 C5 C5a -46.3(4) no
C3 C4 C5 C5a 67.1(4) no
C4 C5 C5a C6 -172.5(3) no
C4 C5 C5a C9a 9.8(4) no
C9a C5a C6 C7 -1.0(4) no
C5 C5a C6 C7 -178.8(3) no
C5a C6 C7 C8 1.0(5) no
C5a C6 C7 Cl7 -179.5(2) no
C6 C7 C8 C9 0.0(5) no
Cl7 C7 C8 C9 -179.5(2) no
C7 C8 C9 C9a -1.0(5) no
C8 C9 C9a C5a 1.0(4) no
C8 C9 C9a N1 -178.5(3) no
C6 C5a C9a C9 0.0(4) no
C5 C5a C9a C9 177.8(3) no
C6 C5a C9a N1 179.5(3) no
C5 C5a C9a N1 -2.7(4) no
O14 N1 C9a C9 -149.2(2) no
C2 N1 C9a C9 100.8(3) no
O14 N1 C9a C5a 31.3(3) no
C2 N1 C9a C5a -78.7(3) no
N1 C2 C21 C22 137.8(3) no
C3 C2 C21 C22 -106.4(4) no
C2 C21 C22 C221 176.3(3) no
C21 C22 C221 C222 22.7(5) no
C21 C22 C221 C226 -158.0(3) no
C226 C221 C222 C223 1.8(4) no
C22 C221 C222 C223 -178.8(3) no
C221 C222 C223 C224 -0.7(5) no
C222 C223 C224 C225 -0.4(5) no
C223 C224 C225 C226 0.5(4) no
C224 C225 C226 C221 0.7(4) no
C222 C221 C226 C225 -1.8(4) no
C22 C221 C226 C225 178.9(3) no
loop_
_cod_related_entry_id
_cod_related_entry_database
_cod_related_entry_code
1 ChemSpider 24726286
