#------------------------------------------------------------------------------
#$Date: 2016-02-20 00:18:51 +0200 (Sat, 20 Feb 2016) $
#$Revision: 176760 $
#$URL: svn://www.crystallography.net/cod/cif/2/01/78/2017821.cif $
#------------------------------------------------------------------------------
#
# This file is available in the Crystallography Open Database (COD),
# http://www.crystallography.net/
#
# All data on this site have been placed in the public domain by the
# contributors.
#
data_2017821
loop_
_publ_author_name
'Schmitt, Laurette'
'Labat, Ga\"el'
'Stoeckli-Evans, Helen'
_publ_section_title
;
 Crystal-to-crystal transformation upon dehydration of a copper(II)
 2,2':6',2''-terpyridine complex
;
_journal_coeditor_code           GA3158
_journal_issue                   11
_journal_name_full               'Acta Crystallographica Section C'
_journal_page_first              m343
_journal_page_last               m347
_journal_paper_doi               10.1107/S0108270110041090
_journal_volume                  66
_journal_year                    2010
_chemical_formula_iupac          '[Cu2 (C15 H11 N3)2 (Cl)2 (S2 O6)] , H2 O'
_chemical_formula_moiety         'C30 H22 Cl2 Cu2 N6 O6 S2, (H2 O)'
_chemical_formula_sum            'C30 H24 Cl2 Cu2 N6 O7 S2'
_chemical_formula_weight         842.65
_chemical_name_systematic
;
(\m-dithionato-1:2\k^2^O:O')-bis[2,2':6',2''-terpyridyl-\k^3^N,N',N'')\
copper(II)] monohydrate
;
_space_group_IT_number           2
_symmetry_cell_setting           triclinic
_symmetry_space_group_name_Hall  '-P 1'
_symmetry_space_group_name_H-M   'P -1'
_atom_sites_solution_hydrogens   geom
_atom_sites_solution_primary     direct
_atom_sites_solution_secondary   difmap
_audit_creation_method           SHELXL97
_cell_angle_alpha                107.927(13)
_cell_angle_beta                 99.171(13)
_cell_angle_gamma                105.244(13)
_cell_formula_units_Z            1
_cell_length_a                   8.1961(13)
_cell_length_b                   8.6029(15)
_cell_length_c                   12.2566(19)
_cell_measurement_reflns_used    6211
_cell_measurement_temperature    173(2)
_cell_measurement_theta_max      25.52
_cell_measurement_theta_min      1.81
_cell_volume                     765.7(2)
_computing_cell_refinement       'X-AREA (Stoe & Cie, 2006)'
_computing_data_collection       'X-AREA (Stoe & Cie, 2006)'
_computing_data_reduction        'X-RED32 (Stoe & Cie, 2006)'
_computing_molecular_graphics
;
PLATON (Spek, 2009) and Mercury (Macrae <i>et al.</i>, 2006)
;
_computing_publication_material
;
SHELXL97 (Sheldrick, 2008), PLATON (Spek, 2009) and publCIF
(Westrip, 2010)
;
_computing_structure_refinement  'SHELXL97 (Sheldrick, 2008)'
_computing_structure_solution    'SHELXS97 (Sheldrick, 2008)'
_diffrn_ambient_temperature      173(2)
_diffrn_measured_fraction_theta_full 0.995
_diffrn_measured_fraction_theta_max 0.995
_diffrn_measurement_device_type  'Stoe IPDS II'
_diffrn_measurement_method       '\f and \w scans'
_diffrn_radiation_monochromator  graphite
_diffrn_radiation_source         'fine-focus sealed tube'
_diffrn_radiation_type           MoK\a
_diffrn_radiation_wavelength     0.71073
_diffrn_reflns_av_R_equivalents  0.0551
_diffrn_reflns_av_sigmaI/netI    0.0581
_diffrn_reflns_limit_h_max       9
_diffrn_reflns_limit_h_min       -9
_diffrn_reflns_limit_k_max       10
_diffrn_reflns_limit_k_min       -10
_diffrn_reflns_limit_l_max       14
_diffrn_reflns_limit_l_min       -14
_diffrn_reflns_number            8262
_diffrn_reflns_theta_full        25.15
_diffrn_reflns_theta_max         25.15
_diffrn_reflns_theta_min         1.81
_diffrn_standards_decay_%        0
_diffrn_standards_number         0
_exptl_absorpt_coefficient_mu    1.761
_exptl_absorpt_correction_T_max  1.00
_exptl_absorpt_correction_T_min  0.8455
_exptl_absorpt_correction_type   multi-scan
_exptl_absorpt_process_details   '(MULABS in PLATON; Spek, 2009)'
_exptl_crystal_colour            pale-green
_exptl_crystal_density_diffrn    1.828
_exptl_crystal_density_method    'not measured'
_exptl_crystal_description       plate
_exptl_crystal_F_000             426
_exptl_crystal_size_max          0.21
_exptl_crystal_size_mid          0.13
_exptl_crystal_size_min          0.11
_refine_diff_density_max         0.277
_refine_diff_density_min         -0.478
_refine_ls_extinction_method     none
_refine_ls_goodness_of_fit_ref   0.888
_refine_ls_hydrogen_treatment    mixed
_refine_ls_matrix_type           full
_refine_ls_number_parameters     232
_refine_ls_number_reflns         2724
_refine_ls_number_restraints     2
_refine_ls_restrained_S_all      0.887
_refine_ls_R_factor_all          0.0520
_refine_ls_R_factor_gt           0.0340
_refine_ls_shift/su_max          0.003
_refine_ls_shift/su_mean         0.001
_refine_ls_structure_factor_coef Fsqd
_refine_ls_weighting_details
'calc w = 1/[\s^2^(Fo^2^)+(0.0451P)^2^] where P=(Fo^2^+2Fc^2^)/3'
_refine_ls_weighting_scheme      calc
_refine_ls_wR_factor_gt          0.0754
_refine_ls_wR_factor_ref         0.0792
_reflns_number_gt                2001
_reflns_number_total             2724
_reflns_threshold_expression     I>2\s(I)
_iucr_refine_instructions_details
;
TITL LS70TG    IPDS2  -100DEGC IN P -1
CELL  0.71073  8.19610  8.60290 12.25660 107.92700 99.17100 105.24400
ZERR 1  0.00130  0.00150  0.00190  0.01300  0.01300  0.01300
LATT 1
SFAC C H CL CU N O S
UNIT 30 24 2 2 6 7 2
TEMP -100
PLAN 99
FMAP 2
L.S. 15
DFIX 0.88 .02 O1W H1WA O1W H1WB
BOND $H
HTAB
CONF
ACTA
WGHT    0.045100
FVAR       0.37793
CU1   4    0.621476    0.643012    0.162823    11.00000    0.03521    0.03229 =
         0.03259    0.01191    0.01360    0.01350
CL1   3    0.732813    0.696472    0.019104    11.00000    0.04292    0.04448 =
         0.03459    0.01601    0.01703    0.01726
S1    7    0.896317    0.879442    0.449943    11.00000    0.03318    0.03140 =
         0.03167    0.00820    0.01088    0.00957
O1    6    0.851192    0.881683    0.330232    11.00000    0.03943    0.03599 =
         0.02689    0.00841    0.00443    0.00715
O2    6    0.758784    0.885447    0.509814    11.00000    0.03513    0.04186 =
         0.04312    0.01222    0.01862    0.01028
O3    6    0.973454    0.747652    0.456525    11.00000    0.04781    0.03209 =
         0.04808    0.01473    0.01875    0.01698
N1    5    0.452028    0.778167    0.167683    11.00000    0.03477    0.02935 =
         0.03437    0.00949    0.01316    0.01033
N2    5    0.489143    0.560902    0.262967    11.00000    0.03173    0.02645 =
         0.02786    0.00578    0.00524    0.00947
N3    5    0.727623    0.460310    0.182055    11.00000    0.03313    0.02936 =
         0.03118    0.00651    0.00708    0.00806
C1    1    0.438555    0.889282    0.113202    11.00000    0.04219    0.02871 =
         0.03874    0.01013    0.01257    0.01138
AFIX  43
H1    2    0.519396    0.914086    0.068250    11.00000   -1.20000
AFIX   0
C2    1    0.313624    0.969075    0.119151    11.00000    0.04298    0.03414 =
         0.04148    0.01350    0.00950    0.01604
AFIX  43
H2    2    0.309597    1.047767    0.079634    11.00000   -1.20000
AFIX   0
C3    1    0.194886    0.933882    0.182726    11.00000    0.04147    0.03123 =
         0.04773    0.00611    0.00968    0.01557
AFIX  43
H3    2    0.106003    0.985876    0.186838    11.00000   -1.20000
AFIX   0
C4    1    0.207371    0.819842    0.241388    11.00000    0.03532    0.03189 =
         0.04223    0.00794    0.01604    0.01287
AFIX  43
H4    2    0.127195    0.793173    0.286370    11.00000   -1.20000
AFIX   0
C5    1    0.336764    0.747307    0.233004    11.00000    0.03507    0.02473 =
         0.03012    0.00309    0.00899    0.00717
C6    1    0.360231    0.621429    0.288978    11.00000    0.03546    0.02723 =
         0.02929    0.00536    0.00719    0.00782
C7    1    0.258950    0.562052    0.357572    11.00000    0.03685    0.04052 =
         0.03150    0.00761    0.01231    0.00879
AFIX  43
H7    2    0.171688    0.609643    0.380068    11.00000   -1.20000
AFIX   0
C8    1    0.289104    0.430777    0.392363    11.00000    0.03588    0.03931 =
         0.02920    0.01165    0.00955    0.00498
AFIX  43
H8    2    0.219542    0.385514    0.437678    11.00000   -1.20000
AFIX   0
C9    1    0.419051    0.365397    0.361799    11.00000    0.03978    0.03701 =
         0.03214    0.01532    0.00838    0.00733
AFIX  43
H9    2    0.438093    0.273938    0.384181    11.00000   -1.20000
AFIX   0
C10   1    0.521673    0.436223    0.297487    11.00000    0.03483    0.03033 =
         0.02726    0.00598    0.00554    0.00723
C11   1    0.664369    0.383047    0.255565    11.00000    0.03086    0.02949 =
         0.03060    0.00434    0.00356    0.00373
C12   1    0.730599    0.264889    0.284857    11.00000    0.03738    0.03182 =
         0.04092    0.01269    0.00327    0.01020
AFIX  43
H12   2    0.688196    0.215882    0.338754    11.00000   -1.20000
AFIX   0
C13   1    0.858584    0.218557    0.235390    11.00000    0.04025    0.03498 =
         0.04949    0.01136    0.00550    0.01348
AFIX  43
H13   2    0.904090    0.136230    0.253840    11.00000   -1.20000
AFIX   0
C14   1    0.919741    0.293737    0.158493    11.00000    0.03603    0.03998 =
         0.04346    0.00734    0.00762    0.01643
AFIX  43
H14   2    1.006863    0.262986    0.122491    11.00000   -1.20000
AFIX   0
C15   1    0.851811    0.414159    0.135112    11.00000    0.03456    0.03510 =
         0.03378    0.00524    0.00963    0.00968
AFIX  43
H15   2    0.895387    0.466772    0.083174    11.00000   -1.20000
AFIX   0
O1W   6    0.555143    0.069864    0.447924    10.50000    0.04773    0.04688 =
         0.05670    0.01904    0.01544    0.01577
H1WA  2    0.472358    0.065450    0.486085    10.50000   -1.50000
H1WB  2    0.637702    0.044440    0.486736    10.50000   -1.50000
HKLF 4
REM  LS70TG    IPDS2  -100DEGC IN P -1
REM R1 =  0.0340 for   2001 Fo > 4sig(Fo)  and  0.0520 for all   2724 data
REM    232 parameters refined using      2 restraints
END
WGHT      0.0451      0.0000
REM Highest difference peak  0.277,  deepest hole -0.478,  1-sigma level  0.069
Q1    1   0.4632  0.8355  0.1635  11.00000  0.05    0.28
Q2    1   0.7999  0.6493  0.1655  11.00000  0.05    0.27
Q3    1   0.3570  0.6870  0.2617  11.00000  0.05    0.26
Q4    1   0.5726  0.4113  0.2691  11.00000  0.05    0.24
Q5    1   1.1363  0.8416  0.5391  11.00000  0.05    0.24
Q6    1   0.6905  0.7658  0.1008  11.00000  0.05    0.24
Q7    1   0.4919  0.4922  0.2826  11.00000  0.05    0.24
Q8    1   0.4254  0.5811  0.2754  11.00000  0.05    0.23
Q9    1   0.7810  0.4374  0.1634  11.00000  0.05    0.23
Q10   1   0.8368  0.9574  0.4232  11.00000  0.05    0.23
Q11   1   0.4084  0.7810  0.2186  11.00000  0.05    0.23
Q12   1   0.4803  0.5219  0.1997  11.00000  0.05    0.23
Q13   1   0.4508  0.6115  0.0945  11.00000  0.05    0.22
Q14   1   0.8278  0.6823  0.1995  11.00000  0.05    0.22
Q15   1   0.7484  0.7041  0.2750  11.00000  0.05    0.22
Q16   1   0.7507  0.9274  0.3226  11.00000  0.05    0.21
Q17   1   0.7548  0.8811  0.3596  11.00000  0.05    0.21
Q18   1   0.4470  0.6525 -0.0170  11.00000  0.05    0.21
Q19   1   0.8972  0.6787  0.0528  11.00000  0.05    0.21
Q20   1   0.4202  0.5870  0.1200  11.00000  0.05    0.21
Q21   1   0.7746  0.2396  0.2448  11.00000  0.05    0.21
Q22   1   0.2699  0.7810  0.2162  11.00000  0.05    0.20
Q23   1   0.5272  0.7564  0.1711  11.00000  0.05    0.20
Q24   1   0.8846  0.3362  0.1352  11.00000  0.05    0.20
Q25   1   0.9417  0.9388  0.3620  11.00000  0.05    0.19
Q26   1   0.6213  0.7341  0.2791  11.00000  0.05    0.19
Q27   1   0.5350  0.4456  0.0985  11.00000  0.05    0.19
Q28   1   0.2787  0.6716  0.1865  11.00000  0.05    0.19
Q29   1   0.2669  0.5159  0.5390  11.00000  0.05    0.19
Q30   1   0.3107  1.0134  0.0988  11.00000  0.05    0.18
Q31   1   0.3864  0.4200  0.4111  11.00000  0.05    0.18
Q32   1   0.3128  0.4779  0.4623  11.00000  0.05    0.18
Q33   1   0.1428  0.3117  0.4535  11.00000  0.05    0.18
Q34   1   0.7042  0.5196  0.1628  11.00000  0.05    0.18
Q35   1   0.6937  0.4183  0.2221  11.00000  0.05    0.18
Q36   1   0.5199  0.3324  0.1221  11.00000  0.05    0.18
Q37   1   0.5908  0.7559  0.0147  11.00000  0.05    0.18
Q38   1   0.4775  0.4045  0.3334  11.00000  0.05    0.18
Q39   1   0.3067  0.5827  0.3139  11.00000  0.05    0.17
Q40   1   0.2733  0.9736  0.1640  11.00000  0.05    0.17
Q41   1   0.6822  0.8393  0.2369  11.00000  0.05    0.17
Q42   1   0.1697  1.1681  0.1518  11.00000  0.05    0.17
Q43   1   0.6693  0.3015  0.2436  11.00000  0.05    0.17
Q44   1   0.1370  0.5836  0.2774  11.00000  0.05    0.17
Q45   1   0.4254  0.7354  0.1180  11.00000  0.05    0.17
Q46   1   1.0261  0.2996  0.0815  11.00000  0.05    0.17
Q47   1   0.8884  0.8764  0.5670  11.00000  0.05    0.17
Q48   1   0.3362  0.4789  0.1763  11.00000  0.05    0.17
Q49   1   0.6254  0.7349 -0.0807  11.00000  0.05    0.17
Q50   1   0.5251  0.5449  0.0328  11.00000  0.05    0.17
Q51   1   0.3347  0.7614  0.2789  11.00000  0.05    0.17
Q52   1   0.2829  0.7800  0.3039  11.00000  0.05    0.16
Q53   1   0.1642  0.8816  0.0030  11.00000  0.05    0.16
Q54   1   0.1102  0.7362  0.0696  11.00000  0.05    0.16
Q55   1   0.7279  0.1913  0.1563  11.00000  0.05    0.16
Q56   1   0.9107  0.5430  0.0430  11.00000  0.05    0.16
Q57   1   0.8623  0.2256  0.1771  11.00000  0.05    0.16
Q58   1   0.6330  0.5147 -0.0334  11.00000  0.05    0.16
Q59   1   0.4905  0.5978  0.2436  11.00000  0.05    0.15
Q60   1   0.3085  0.3186  0.1787  11.00000  0.05    0.15
Q61   1   1.0500  0.1842  0.3821  11.00000  0.05    0.15
Q62   1   0.8553  0.1809  0.2420  11.00000  0.05    0.15
Q63   1   0.9764  0.8032  0.5221  11.00000  0.05    0.15
Q64   1   0.7680  0.8187  0.3403  11.00000  0.05    0.15
Q65   1   0.1307  0.6043  0.3616  11.00000  0.05    0.15
Q66   1   0.8805  0.8177  0.3409  11.00000  0.05    0.15
Q67   1   0.3545  1.0986  0.0625  11.00000  0.05    0.15
Q68   1   0.5075  0.7843  0.3202  11.00000  0.05    0.15
Q69   1   1.1658  0.3013  0.0816  11.00000  0.05    0.15
Q70   1   0.3154  0.5823  0.2630  11.00000  0.05    0.15
Q71   1   0.1084  0.4071  0.3403  11.00000  0.05    0.15
Q72   1   0.6119  0.6392  0.2846  11.00000  0.05    0.15
Q73   1   0.1429  0.7331  0.4706  11.00000  0.05    0.15
Q74   1   0.3582  0.9201  0.1220  11.00000  0.05    0.15
Q75   1   0.7917  0.5040  0.0759  11.00000  0.05    0.15
Q76   1   0.5922  0.2156  0.3567  11.00000  0.05    0.15
Q77   1   0.5578  0.1833  0.3410  11.00000  0.05    0.15
Q78   1   0.2223  0.9016  0.2209  11.00000  0.05    0.15
Q79   1   0.9131  1.0429  0.4551  11.00000  0.05    0.15
Q80   1   0.7198  0.5273 -0.0742  11.00000  0.05    0.15
Q81   1   0.6617  0.6999  0.4639  11.00000  0.05    0.15
Q82   1   0.9870  0.6035  0.5204  11.00000  0.05    0.15
Q83   1   0.2934  0.5066  0.3770  11.00000  0.05    0.14
Q84   1   0.6245  0.5206  0.0368  11.00000  0.05    0.14
Q85   1   0.2030  0.8922  0.3578  11.00000  0.05    0.14
Q86   1   0.7611  0.1930  0.4735  11.00000  0.05    0.14
Q87   1   0.7117  0.6719  0.0610  11.00000  0.05    0.14
Q88   1   0.1608  0.7481  0.3413  11.00000  0.05    0.14
Q89   1   0.5570  0.4638  0.3374  11.00000  0.05    0.14
Q90   1   0.6655  0.8509  0.0597  11.00000  0.05    0.14
Q91   1   0.1887  0.5490  0.4416  11.00000  0.05    0.14
Q92   1   0.1671  0.8290  0.2560  11.00000  0.05    0.14
Q93   1   0.0325  0.7536  0.2981  11.00000  0.05    0.14
Q94   1   0.7556  0.3352  0.3111  11.00000  0.05    0.14
Q95   1   1.0553  0.7550  0.5274  11.00000  0.05    0.14
Q96   1   0.6456  0.5618  0.0558  11.00000  0.05    0.14
Q97   1   0.7655  0.9478  0.5945  11.00000  0.05    0.14
Q98   1   0.9198  0.7922  0.2864  11.00000  0.05    0.14
Q99   1   0.5318  0.8796  0.0274  11.00000  0.05    0.14
;
_cod_data_source_file            ga3158.cif
_cod_data_source_block           II
_cod_database_code               2017821
_cod_database_fobs_code          2017821
loop_
_symmetry_equiv_pos_site_id
_symmetry_equiv_pos_as_xyz
1 x,y,z
2 -x,-y,-z
loop_
_atom_site_aniso_label
_atom_site_aniso_U_11
_atom_site_aniso_U_22
_atom_site_aniso_U_33
_atom_site_aniso_U_12
_atom_site_aniso_U_13
_atom_site_aniso_U_23
Cu1 0.0352(3) 0.0323(3) 0.0326(3) 0.0135(2) 0.0136(2) 0.0119(2)
Cl1 0.0429(5) 0.0445(5) 0.0346(5) 0.0173(4) 0.0170(4) 0.0160(4)
S1 0.0332(5) 0.0314(5) 0.0317(5) 0.0096(4) 0.0109(4) 0.0082(4)
O1 0.0394(14) 0.0360(13) 0.0269(13) 0.0071(11) 0.0044(11) 0.0084(11)
O2 0.0351(14) 0.0419(15) 0.0431(15) 0.0103(12) 0.0186(12) 0.0122(12)
O3 0.0478(16) 0.0321(14) 0.0481(15) 0.0170(12) 0.0188(13) 0.0147(12)
N1 0.0348(16) 0.0294(15) 0.0344(16) 0.0103(13) 0.0132(13) 0.0095(13)
N2 0.0317(16) 0.0265(15) 0.0279(15) 0.0095(12) 0.0052(12) 0.0058(12)
N3 0.0331(16) 0.0294(15) 0.0312(16) 0.0081(13) 0.0071(13) 0.0065(12)
C1 0.042(2) 0.0287(19) 0.039(2) 0.0114(16) 0.0126(17) 0.0101(16)
C2 0.043(2) 0.034(2) 0.041(2) 0.0160(17) 0.0095(18) 0.0135(17)
C3 0.041(2) 0.031(2) 0.048(2) 0.0156(17) 0.0097(18) 0.0061(17)
C4 0.035(2) 0.0319(19) 0.042(2) 0.0129(16) 0.0160(17) 0.0079(16)
C5 0.0351(19) 0.0247(17) 0.0301(18) 0.0072(15) 0.0090(16) 0.0031(14)
C6 0.0355(19) 0.0272(18) 0.0293(18) 0.0078(15) 0.0072(15) 0.0054(14)
C7 0.037(2) 0.041(2) 0.0315(19) 0.0088(17) 0.0123(16) 0.0076(16)
C8 0.036(2) 0.039(2) 0.0292(18) 0.0050(16) 0.0095(16) 0.0116(16)
C9 0.040(2) 0.037(2) 0.032(2) 0.0073(17) 0.0084(17) 0.0153(16)
C10 0.0348(19) 0.0303(19) 0.0273(18) 0.0072(15) 0.0055(15) 0.0060(14)
C11 0.0309(19) 0.0295(18) 0.0306(18) 0.0037(15) 0.0036(15) 0.0043(15)
C12 0.037(2) 0.0318(19) 0.041(2) 0.0102(16) 0.0033(17) 0.0127(16)
C13 0.040(2) 0.035(2) 0.049(2) 0.0135(17) 0.0055(19) 0.0114(18)
C14 0.036(2) 0.040(2) 0.043(2) 0.0164(17) 0.0076(17) 0.0073(17)
C15 0.035(2) 0.035(2) 0.034(2) 0.0097(16) 0.0096(16) 0.0052(16)
O1W 0.048(4) 0.047(3) 0.057(4) 0.016(3) 0.015(3) 0.019(3)
loop_
_atom_site_type_symbol
_atom_site_label
_atom_site_fract_x
_atom_site_fract_y
_atom_site_fract_z
_atom_site_U_iso_or_equiv
_atom_site_thermal_displace_type
_atom_site_calc_flag
_atom_site_refinement_flags
_atom_site_occupancy
Cu Cu1 0.62148(6) 0.64301(5) 0.16282(4) 0.0323(2) Uani . . 1.000
Cl Cl1 0.73281(12) 0.69647(12) 0.01910(8) 0.0389(3) Uani . . 1.000
S S1 0.89632(11) 0.87944(11) 0.44994(7) 0.0329(3) Uani . . 1.000
O O1 0.8512(3) 0.8817(3) 0.33023(19) 0.0366(8) Uani . . 1.000
O O2 0.7588(3) 0.8854(3) 0.5098(2) 0.0404(8) Uani . . 1.000
O O3 0.9735(3) 0.7477(3) 0.4565(2) 0.0411(9) Uani . . 1.000
N N1 0.4520(4) 0.7782(3) 0.1677(2) 0.0330(9) Uani . . 1.000
N N2 0.4891(4) 0.5609(3) 0.2630(2) 0.0301(9) Uani . . 1.000
N N3 0.7276(4) 0.4603(3) 0.1821(2) 0.0330(9) Uani . . 1.000
C C1 0.4386(5) 0.8893(4) 0.1132(3) 0.0370(11) Uani . . 1.000
C C2 0.3136(5) 0.9691(5) 0.1192(3) 0.0389(12) Uani . . 1.000
C C3 0.1949(5) 0.9339(4) 0.1827(3) 0.0416(12) Uani . . 1.000
C C4 0.2074(5) 0.8198(4) 0.2414(3) 0.0366(11) Uani . . 1.000
C C5 0.3368(4) 0.7473(4) 0.2330(3) 0.0322(10) Uani . . 1.000
C C6 0.3602(4) 0.6214(4) 0.2890(3) 0.0326(11) Uani . . 1.000
C C7 0.2589(5) 0.5621(5) 0.3576(3) 0.0384(11) Uani . . 1.000
C C8 0.2891(5) 0.4308(5) 0.3924(3) 0.0364(11) Uani . . 1.000
C C9 0.4191(5) 0.3654(5) 0.3618(3) 0.0370(12) Uani . . 1.000
C C10 0.5217(4) 0.4362(4) 0.2975(3) 0.0330(11) Uani . . 1.000
C C11 0.6644(4) 0.3830(4) 0.2556(3) 0.0339(11) Uani . . 1.000
C C12 0.7306(5) 0.2649(4) 0.2849(3) 0.0379(11) Uani . . 1.000
C C13 0.8586(5) 0.2186(5) 0.2354(3) 0.0429(12) Uani . . 1.000
C C14 0.9197(5) 0.2937(5) 0.1585(3) 0.0412(12) Uani . . 1.000
C C15 0.8518(5) 0.4142(4) 0.1351(3) 0.0369(12) Uani . . 1.000
O O1W 0.5551(7) 0.0699(7) 0.4479(5) 0.051(2) Uani . . 0.500
H H1 0.51940 0.91410 0.06820 0.0440 Uiso calc R 1.000
H H2 0.30960 1.04780 0.07960 0.0470 Uiso calc R 1.000
H H3 0.10600 0.98590 0.18680 0.0500 Uiso calc R 1.000
H H4 0.12720 0.79320 0.28640 0.0440 Uiso calc R 1.000
H H7 0.17170 0.60960 0.38010 0.0460 Uiso calc R 1.000
H H8 0.21950 0.38550 0.43770 0.0440 Uiso calc R 1.000
H H9 0.43810 0.27390 0.38420 0.0440 Uiso calc R 1.000
H H12 0.68820 0.21590 0.33880 0.0460 Uiso calc R 1.000
H H13 0.90410 0.13620 0.25380 0.0520 Uiso calc R 1.000
H H14 1.00690 0.26300 0.12250 0.0500 Uiso calc R 1.000
H H15 0.89540 0.46680 0.08320 0.0440 Uiso calc R 1.000
H H1WA 0.472(9) 0.065(13) 0.486(8) 0.0750 Uiso . . 0.500
H H1WB 0.638(9) 0.044(13) 0.487(8) 0.0750 Uiso . . 0.500
loop_
_atom_type_symbol
_atom_type_description
_atom_type_scat_dispersion_real
_atom_type_scat_dispersion_imag
_atom_type_scat_source
C C 0.0033 0.0016 'International Tables Vol C Tables 4.2.6.8 and 6.1.1.4'
H H 0.0000 0.0000 'International Tables Vol C Tables 4.2.6.8 and 6.1.1.4'
Cl Cl 0.1484 0.1585 'International Tables Vol C Tables 4.2.6.8 and 6.1.1.4'
Cu Cu 0.3201 1.2651 'International Tables Vol C Tables 4.2.6.8 and 6.1.1.4'
N N 0.0061 0.0033 'International Tables Vol C Tables 4.2.6.8 and 6.1.1.4'
O O 0.0106 0.0060 'International Tables Vol C Tables 4.2.6.8 and 6.1.1.4'
S S 0.1246 0.1234 'International Tables Vol C Tables 4.2.6.8 and 6.1.1.4'
loop_
_geom_angle_atom_site_label_1
_geom_angle_atom_site_label_2
_geom_angle_atom_site_label_3
_geom_angle_site_symmetry_1
_geom_angle_site_symmetry_2
_geom_angle_site_symmetry_3
_geom_angle
_geom_angle_publ_flag
Cl1 Cu1 O1 . . . 96.47(7) no
Cl1 Cu1 N1 . . . 99.26(8) no
Cl1 Cu1 N2 . . . 168.94(8) no
Cl1 Cu1 N3 . . . 99.51(9) no
O1 Cu1 N1 . . . 93.04(10) no
O1 Cu1 N2 . . . 94.58(10) no
O1 Cu1 N3 . . . 93.51(10) no
N1 Cu1 N2 . . . 79.90(12) no
N1 Cu1 N3 . . . 159.27(12) no
N2 Cu1 N3 . . . 79.99(12) no
O1 S1 O2 . . . 113.74(15) no
O1 S1 O3 . . . 113.51(15) no
S1 S1 O1 2_776 . . 104.69(12) no
O2 S1 O3 . . . 114.28(16) no
S1 S1 O2 2_776 . . 104.64(11) no
S1 S1 O3 2_776 . . 104.57(11) no
Cu1 O1 S1 . . . 123.60(15) no
H1WA O1W H1WB . . . 107(8) no
Cu1 N1 C1 . . . 128.2(3) no
C1 N1 C5 . . . 117.2(3) no
Cu1 N1 C5 . . . 114.6(2) no
Cu1 N2 C6 . . . 119.1(2) no
Cu1 N2 C10 . . . 118.8(3) no
C6 N2 C10 . . . 121.9(3) no
Cu1 N3 C11 . . . 113.8(2) no
Cu1 N3 C15 . . . 127.9(2) no
C11 N3 C15 . . . 118.2(3) no
N1 C1 C2 . . . 123.2(4) no
C1 C2 C3 . . . 119.3(4) no
C2 C3 C4 . . . 118.6(4) no
C3 C4 C5 . . . 118.9(4) no
N1 C5 C6 . . . 113.5(3) no
C4 C5 C6 . . . 123.7(3) no
N1 C5 C4 . . . 122.8(3) no
N2 C6 C7 . . . 120.9(3) no
C5 C6 C7 . . . 126.1(3) no
N2 C6 C5 . . . 112.9(3) no
C6 C7 C8 . . . 117.8(4) no
C7 C8 C9 . . . 120.7(4) no
C8 C9 C10 . . . 118.6(4) no
N2 C10 C9 . . . 119.9(3) no
C9 C10 C11 . . . 126.7(3) no
N2 C10 C11 . . . 113.3(3) no
N3 C11 C12 . . . 121.4(3) no
C10 C11 C12 . . . 124.8(3) no
N3 C11 C10 . . . 113.8(3) no
C11 C12 C13 . . . 119.6(3) no
C12 C13 C14 . . . 119.0(4) no
C13 C14 C15 . . . 118.7(4) no
N3 C15 C14 . . . 123.0(3) no
C2 C1 H1 . . . 118.00 no
N1 C1 H1 . . . 118.00 no
C1 C2 H2 . . . 120.00 no
C3 C2 H2 . . . 120.00 no
C4 C3 H3 . . . 121.00 no
C2 C3 H3 . . . 121.00 no
C3 C4 H4 . . . 120.00 no
C5 C4 H4 . . . 121.00 no
C8 C7 H7 . . . 121.00 no
C6 C7 H7 . . . 121.00 no
C7 C8 H8 . . . 120.00 no
C9 C8 H8 . . . 120.00 no
C10 C9 H9 . . . 121.00 no
C8 C9 H9 . . . 121.00 no
C11 C12 H12 . . . 120.00 no
C13 C12 H12 . . . 120.00 no
C14 C13 H13 . . . 120.00 no
C12 C13 H13 . . . 120.00 no
C13 C14 H14 . . . 121.00 no
C15 C14 H14 . . . 121.00 no
N3 C15 H15 . . . 119.00 no
C14 C15 H15 . . . 118.00 no
loop_
_geom_bond_atom_site_label_1
_geom_bond_atom_site_label_2
_geom_bond_site_symmetry_1
_geom_bond_site_symmetry_2
_geom_bond_distance
_geom_bond_publ_flag
Cu1 Cl1 . . 2.2220(11) yes
Cu1 O1 . . 2.473(2) yes
Cu1 N1 . . 2.030(3) yes
Cu1 N2 . . 1.934(3) yes
Cu1 N3 . . 2.041(3) yes
S1 O1 . . 1.462(2) no
S1 O2 . . 1.443(3) no
S1 O3 . . 1.452(3) no
S1 S1 . 2_776 2.1474(13) no
O1W H1WA . . 0.88(8) no
O1W H1WB . . 0.89(9) no
N1 C5 . . 1.357(5) no
N1 C1 . . 1.340(4) no
N2 C6 . . 1.335(5) no
N2 C10 . . 1.340(4) no
N3 C15 . . 1.336(5) no
N3 C11 . . 1.363(4) no
C1 C2 . . 1.375(6) no
C2 C3 . . 1.370(6) no
C3 C4 . . 1.399(5) no
C4 C5 . . 1.367(5) no
C5 C6 . . 1.485(5) no
C6 C7 . . 1.386(5) no
C7 C8 . . 1.389(6) no
C8 C9 . . 1.380(6) no
C9 C10 . . 1.392(5) no
C10 C11 . . 1.473(5) no
C11 C12 . . 1.381(5) no
C12 C13 . . 1.379(6) no
C13 C14 . . 1.383(6) no
C14 C15 . . 1.379(6) no
C1 H1 . . 0.9500 no
C2 H2 . . 0.9500 no
C3 H3 . . 0.9500 no
C4 H4 . . 0.9500 no
C7 H7 . . 0.9500 no
C8 H8 . . 0.9500 no
C9 H9 . . 0.9500 no
C12 H12 . . 0.9500 no
C13 H13 . . 0.9500 no
C14 H14 . . 0.9500 no
C15 H15 . . 0.9500 no
loop_
_geom_contact_atom_site_label_1
_geom_contact_atom_site_label_2
_geom_contact_distance
_geom_contact_site_symmetry_1
_geom_contact_site_symmetry_2
_geom_contact_publ_flag
Cu1 Cl1 3.3765(12) . 2_665 yes
loop_
_geom_hbond_atom_site_label_D
_geom_hbond_atom_site_label_H
_geom_hbond_atom_site_label_A
_geom_hbond_site_symmetry_A
_geom_hbond_distance_DH
_geom_hbond_distance_HA
_geom_hbond_distance_DA
_geom_hbond_angle_DHA
_geom_hbond_publ_flag
O1W H1WA O2 2_666 0.88(8) 2.05(8) 2.803(7) 142(8) yes
O1W H1WB O2 1_545 0.89(9) 1.94(10) 2.759(7) 153(10) yes
C7 H7 O3 1_455 0.95 2.40 3.342(5) 174 yes
C8 H8 O3 2_666 0.95 2.47 3.421(5) 176 yes
C9 H9 O1W . 0.95 2.47 3.404(7) 168 yes
C12 H12 O1W . 0.95 2.31 3.253(7) 172 yes
C13 H13 O1 1_545 0.95 2.60 3.429(5) 146 yes
loop_
_geom_torsion_atom_site_label_1
_geom_torsion_atom_site_label_2
_geom_torsion_atom_site_label_3
_geom_torsion_atom_site_label_4
_geom_torsion_site_symmetry_1
_geom_torsion_site_symmetry_2
_geom_torsion_site_symmetry_3
_geom_torsion_site_symmetry_4
_geom_torsion
_geom_torsion_publ_flag
Cl1 Cu1 O1 S1 . . . . -154.20(16) no
N1 Cu1 O1 S1 . . . . 106.12(18) no
N2 Cu1 O1 S1 . . . . 26.02(19) no
N3 Cu1 O1 S1 . . . . -54.21(19) no
Cl1 Cu1 N1 C1 . . . . -10.0(3) no
Cl1 Cu1 N1 C5 . . . . 168.5(2) no
O1 Cu1 N1 C1 . . . . 87.0(3) no
O1 Cu1 N1 C5 . . . . -94.4(2) no
N2 Cu1 N1 C1 . . . . -178.9(3) no
N2 Cu1 N1 C5 . . . . -0.3(2) no
N3 Cu1 N1 C1 . . . . -164.7(3) no
N3 Cu1 N1 C5 . . . . 13.8(4) no
O1 Cu1 N2 C6 . . . . 92.1(2) no
O1 Cu1 N2 C10 . . . . -92.4(2) no
N1 Cu1 N2 C6 . . . . -0.2(2) no
N1 Cu1 N2 C10 . . . . 175.3(3) no
N3 Cu1 N2 C6 . . . . -175.1(3) no
N3 Cu1 N2 C10 . . . . 0.4(2) no
Cl1 Cu1 N3 C11 . . . . -171.9(2) no
Cl1 Cu1 N3 C15 . . . . 10.4(3) no
O1 Cu1 N3 C11 . . . . 90.9(2) no
O1 Cu1 N3 C15 . . . . -86.8(3) no
N1 Cu1 N3 C11 . . . . -17.3(4) no
N1 Cu1 N3 C15 . . . . 165.0(3) no
N2 Cu1 N3 C11 . . . . -3.1(2) no
N2 Cu1 N3 C15 . . . . 179.2(3) no
O2 S1 O1 Cu1 . . . . -66.8(2) no
O3 S1 O1 Cu1 . . . . 66.1(2) no
S1 S1 O1 Cu1 2_776 . . . 179.55(12) no
O1 S1 S1 O1 . . 2_776 2_776 -180.00(15) no
O1 S1 S1 O2 . . 2_776 2_776 -60.09(16) no
O1 S1 S1 O3 . . 2_776 2_776 60.38(16) no
O2 S1 S1 O1 . . 2_776 2_776 60.09(16) no
O2 S1 S1 O2 . . 2_776 2_776 180.00(16) no
O2 S1 S1 O3 . . 2_776 2_776 -59.54(16) no
O3 S1 S1 O1 . . 2_776 2_776 -60.38(16) no
O3 S1 S1 O2 . . 2_776 2_776 59.54(16) no
O3 S1 S1 O3 . . 2_776 2_776 -180.00(15) no
Cu1 N1 C1 C2 . . . . 177.4(3) no
C5 N1 C1 C2 . . . . -1.1(5) no
Cu1 N1 C5 C4 . . . . -176.6(3) no
Cu1 N1 C5 C6 . . . . 0.7(4) no
C1 N1 C5 C4 . . . . 2.2(5) no
C1 N1 C5 C6 . . . . 179.4(3) no
Cu1 N2 C6 C5 . . . . 0.6(4) no
Cu1 N2 C6 C7 . . . . 178.1(3) no
C10 N2 C6 C5 . . . . -174.8(3) no
C10 N2 C6 C7 . . . . 2.8(5) no
Cu1 N2 C10 C9 . . . . -175.0(3) no
Cu1 N2 C10 C11 . . . . 2.3(4) no
C6 N2 C10 C9 . . . . 0.4(5) no
C6 N2 C10 C11 . . . . 177.6(3) no
Cu1 N3 C11 C10 . . . . 5.1(4) no
Cu1 N3 C11 C12 . . . . -175.6(3) no
C15 N3 C11 C10 . . . . -177.0(3) no
C15 N3 C11 C12 . . . . 2.4(5) no
Cu1 N3 C15 C14 . . . . 177.0(3) no
C11 N3 C15 C14 . . . . -0.7(5) no
N1 C1 C2 C3 . . . . -0.6(6) no
C1 C2 C3 C4 . . . . 1.2(5) no
C2 C3 C4 C5 . . . . -0.2(5) no
C3 C4 C5 N1 . . . . -1.5(5) no
C3 C4 C5 C6 . . . . -178.5(3) no
N1 C5 C6 N2 . . . . -0.8(4) no
N1 C5 C6 C7 . . . . -178.2(3) no
C4 C5 C6 N2 . . . . 176.4(3) no
C4 C5 C6 C7 . . . . -1.0(6) no
N2 C6 C7 C8 . . . . -3.7(5) no
C5 C6 C7 C8 . . . . 173.5(3) no
C6 C7 C8 C9 . . . . 1.6(5) no
C7 C8 C9 C10 . . . . 1.3(5) no
C8 C9 C10 N2 . . . . -2.4(5) no
C8 C9 C10 C11 . . . . -179.2(3) no
N2 C10 C11 N3 . . . . -4.8(4) no
N2 C10 C11 C12 . . . . 175.8(3) no
C9 C10 C11 N3 . . . . 172.2(3) no
C9 C10 C11 C12 . . . . -7.1(6) no
N3 C11 C12 C13 . . . . -2.6(5) no
C10 C11 C12 C13 . . . . 176.7(3) no
C11 C12 C13 C14 . . . . 0.9(5) no
C12 C13 C14 C15 . . . . 0.8(6) no
C13 C14 C15 N3 . . . . -0.9(6) no
