#------------------------------------------------------------------------------
#$Date: 2017-10-13 03:48:21 +0300 (Fri, 13 Oct 2017) $
#$Revision: 201957 $
#$URL: file:///home/coder/svn-repositories/cod/cif/2/01/85/2018528.cif $
#------------------------------------------------------------------------------
#
# This file is available in the Crystallography Open Database (COD),
# http://www.crystallography.net/. The original data for this entry
# were provided by IUCr Journals, http://journals.iucr.org/.
#
# The file may be used within the scientific community so long as
# proper attribution is given to the journal article from which the
# data were obtained.
#
data_2018528
loop_
_publ_author_name
'Smith, Graham'
'Wermuth, Urs D.'
_publ_section_title
;
 Cyclic imides and an open-chain amide carboxylic acid from the facile
 reaction of <i>cis</i>-cyclohexane-1,2-carboxylic anhydride with the
 isomeric monofluoroanilines
;
_journal_coeditor_code           FG3250
_journal_issue                   7
_journal_name_full               'Acta Crystallographica Section C'
_journal_page_first              o253
_journal_page_last               o256
_journal_paper_doi               10.1107/S010827011202447X
_journal_volume                  68
_journal_year                    2012
_chemical_formula_iupac          'C14 H14 F N O2'
_chemical_formula_moiety         'C14 H14 F N O2'
_chemical_formula_sum            'C14 H14 F N O2'
_chemical_formula_weight         247.26
_chemical_name_common            2-(2-fluorophenyl)-perhydroisoindole-1,3-dione
_chemical_name_systematic
;
<i>cis</i>-2-(2-fluorophenyl)-3a,4,5,6,7,7a-hexahydroisoindole-1,3-dione
;
_space_group_IT_number           2
_symmetry_cell_setting           triclinic
_symmetry_space_group_name_Hall  '-P 1'
_symmetry_space_group_name_H-M   'P -1'
_atom_sites_solution_hydrogens   geom
_atom_sites_solution_primary     direct
_atom_sites_solution_secondary   difmap
_audit_creation_method           SHELXL97
_cell_angle_alpha                98.595(4)
_cell_angle_beta                 93.324(4)
_cell_angle_gamma                97.260(4)
_cell_formula_units_Z            2
_cell_length_a                   8.0316(4)
_cell_length_b                   8.1702(4)
_cell_length_c                   9.2085(5)
_cell_measurement_reflns_used    3763
_cell_measurement_temperature    200(2)
_cell_measurement_theta_max      28.76
_cell_measurement_theta_min      3.266
_cell_volume                     590.86(5)
_computing_cell_refinement       'CrysAlis PRO (Oxford Diffraction, 2010)'
_computing_data_collection       'CrysAlis PRO (Oxford Diffraction, 2010)'
_computing_data_reduction        'CrysAlis PRO (Oxford Diffraction, 2010)'
_computing_molecular_graphics    'PLATON (Spek, 2009)'
_computing_publication_material  'PLATON (Spek, 2009)'
_computing_structure_refinement
;
SHELXL97 (Sheldrick, 2008) within WinGX (Farrugia, 1999)
;
_computing_structure_solution    'SIR92 (Altomare <i>et al.</i>, 1994)'
_diffrn_ambient_temperature      200(2)
_diffrn_detector_area_resol_mean 16.077
_diffrn_measured_fraction_theta_full 0.997
_diffrn_measured_fraction_theta_max 0.997
_diffrn_measurement_device_type  'Oxford Gemini-S CCD area-detector'
_diffrn_measurement_method       \w
_diffrn_radiation_monochromator  graphite
_diffrn_radiation_source         'Enhance (Mo) X-ray source'
_diffrn_radiation_type           MoK\a
_diffrn_radiation_wavelength     0.71073
_diffrn_reflns_av_R_equivalents  0.0223
_diffrn_reflns_av_sigmaI/netI    0.0277
_diffrn_reflns_limit_h_max       9
_diffrn_reflns_limit_h_min       -9
_diffrn_reflns_limit_k_max       10
_diffrn_reflns_limit_k_min       -10
_diffrn_reflns_limit_l_max       11
_diffrn_reflns_limit_l_min       -11
_diffrn_reflns_number            7051
_diffrn_reflns_theta_full        25.99
_diffrn_reflns_theta_max         25.99
_diffrn_reflns_theta_min         3.27
_diffrn_standards_number         0
_exptl_absorpt_coefficient_mu    0.104
_exptl_absorpt_correction_T_max  0.989
_exptl_absorpt_correction_T_min  0.969
_exptl_absorpt_correction_type   multi-scan
_exptl_absorpt_process_details   '(CrysAlis PRO; Oxford Diffraction, 2010)'
_exptl_crystal_colour            colourless
_exptl_crystal_density_diffrn    1.390
_exptl_crystal_density_method    'not measured'
_exptl_crystal_description       block
_exptl_crystal_F_000             260
_exptl_crystal_size_max          0.40
_exptl_crystal_size_mid          0.30
_exptl_crystal_size_min          0.25
_refine_diff_density_max         0.235
_refine_diff_density_min         -0.201
_refine_ls_extinction_method     none
_refine_ls_goodness_of_fit_ref   1.076
_refine_ls_hydrogen_treatment    constr
_refine_ls_matrix_type           full
_refine_ls_number_parameters     163
_refine_ls_number_reflns         2305
_refine_ls_number_restraints     0
_refine_ls_restrained_S_all      1.076
_refine_ls_R_factor_all          0.0494
_refine_ls_R_factor_gt           0.0354
_refine_ls_shift/su_max          0.000
_refine_ls_shift/su_mean         0.000
_refine_ls_structure_factor_coef Fsqd
_refine_ls_weighting_details
'calc w = 1/[\s^2^(Fo^2^)+(0.0572P)^2^] where P=(Fo^2^+2Fc^2^)/3'
_refine_ls_weighting_scheme      calc
_refine_ls_wR_factor_gt          0.0939
_refine_ls_wR_factor_ref         0.0979
_reflns_number_gt                1783
_reflns_number_total             2305
_reflns_threshold_expression     I>2\s(I)
_iucr_refine_instructions_details
;
TITL (I)
CELL  0.71073   8.0316   8.1702   9.2085   98.595   93.324   97.260
ZERR     2.00   0.0004   0.0004   0.0005    0.004    0.004    0.004
LATT   1
SFAC  C    H    N    O    F
UNIT  28   28   2    4    2
MERG   2
OMIT  -4 52
FMAP   2
PLAN   10
ACTA
BOND  $H
L.S.   8
WGHT    0.057200
FVAR      17.70524
F21   5    0.743863    0.594099    0.944575    11.00000    0.04313    0.04791 =
         0.03969    0.00469   -0.00947    0.00322
O3    4    0.870982    0.556710    0.642126    11.00000    0.02973    0.02330 =
         0.04580    0.01003    0.00513    0.00122
O1    4    0.460400    0.138764    0.706374    11.00000    0.02839    0.02891 =
         0.04042    0.00277    0.00560   -0.00464
C8    1    0.730699    0.119639    0.597600    11.00000    0.03109    0.02409 =
         0.02461    0.00147    0.00113    0.00349
AFIX  13
H8    2    0.699678    0.101549    0.491349    11.00000   -1.20000
AFIX   0
N2    3    0.643534    0.376249    0.690264    11.00000    0.02282    0.02059 =
         0.02997    0.00344    0.00243    0.00253
C9    1    0.885151    0.256400    0.627758    11.00000    0.02691    0.02537 =
         0.03062    0.00755    0.00746    0.00470
AFIX  13
H9    2    0.954528    0.252116    0.543517    11.00000   -1.20000
AFIX   0
C21   1    0.596673    0.610081    0.872380    11.00000    0.02774    0.02818 =
         0.02744    0.00645    0.00032   -0.00054
C7    1    0.753064   -0.051035    0.639973    11.00000    0.03647    0.01984 =
         0.03628    0.00097    0.00403    0.00250
AFIX  23
H7A   2    0.643011   -0.112236    0.647230    11.00000   -1.20000
H7B   2    0.806560   -0.114026    0.562436    11.00000   -1.20000
AFIX   0
C3    1    0.807821    0.415734    0.650006    11.00000    0.02262    0.02634 =
         0.02611    0.00576    0.00063    0.00154
C31   1    0.505532    0.733517    0.927800    11.00000    0.04925    0.02772 =
         0.03248   -0.00058    0.01133    0.00139
AFIX  43
H31   2    0.545435    0.807822    1.012903    11.00000   -1.20000
AFIX   0
C11   1    0.542298    0.499390    0.744668    11.00000    0.02451    0.02130 =
         0.02860    0.00574    0.00616    0.00257
C4    1    0.992116    0.250732    0.771531    11.00000    0.02781    0.02841 =
         0.04394    0.00988   -0.00494   -0.00104
AFIX  23
H4A   2    1.099105    0.321164    0.773064    11.00000   -1.20000
H4B   2    0.934369    0.295302    0.855149    11.00000   -1.20000
AFIX   0
C51   1    0.294731    0.633914    0.728137    11.00000    0.02775    0.03738 =
         0.04643    0.01566    0.00791    0.00921
AFIX  43
H51   2    0.191448    0.641180    0.680121    11.00000   -1.20000
AFIX   0
C5    1    1.024243    0.073916    0.786475    11.00000    0.03544    0.03526 =
         0.04266    0.01237   -0.00324    0.00846
AFIX  23
H5A   2    1.086955    0.030532    0.705810    11.00000   -1.20000
H5B   2    1.090981    0.075554    0.878045    11.00000   -1.20000
AFIX   0
C61   1    0.389397    0.512046    0.673046    11.00000    0.02573    0.03074 =
         0.03054    0.00623    0.00200    0.00203
AFIX  43
H61   2    0.350078    0.438289    0.587474    11.00000   -1.20000
AFIX   0
C6    1    0.857887   -0.038544    0.784675    11.00000    0.04482    0.02329 =
         0.03667    0.00909    0.00409    0.00672
AFIX  23
H6A   2    0.795315    0.005711    0.865107    11.00000   -1.20000
H6B   2    0.879713   -0.149222    0.799429    11.00000   -1.20000
AFIX   0
C1    1    0.593218    0.202706    0.672224    11.00000    0.02759    0.02230 =
         0.02310    0.00253   -0.00175    0.00050
C41   1    0.353314    0.744947    0.854430    11.00000    0.04335    0.03160 =
         0.04699    0.00870    0.01938    0.01369
AFIX  43
H41   2    0.290021    0.827781    0.890248    11.00000   -1.20000
HKLF    4
REM  (I)_gs11gs11_CHDCOFLAN
REM R1 =  0.0354 for   1783 Fo > 4sig(Fo)  and  0.0494 for all   2305 data
REM    163 parameters refined using      0 restraints
END
WGHT      0.0477      0.0324
REM Highest difference peak  0.235,  deepest hole -0.201,  1-sigma level  0.034
Q1    1   0.3494  0.3979  0.5637  11.00000  0.05    0.24
Q2    1   0.7603  0.0501  0.6270  11.00000  0.05    0.20
Q3    1   0.8057  0.1834  0.6181  11.00000  0.05    0.19
Q4    1   0.5490  0.5168  0.8317  11.00000  0.05    0.18
Q5    1   0.6167  0.3006  0.6726  11.00000  0.05    0.17
Q6    1   0.5866  0.5833  0.7774  11.00000  0.05    0.17
Q7    1   0.9355  0.2423  0.6934  11.00000  0.05    0.16
Q8    1   0.6737  0.1511  0.6430  11.00000  0.05    0.15
Q9    1   0.8566  0.3313  0.6460  11.00000  0.05    0.14
Q10   1   0.5891  0.4335  0.7216  11.00000  0.05    0.14
;
_cod_data_source_file            fg3250.cif
_cod_data_source_block           I
_cod_database_code               2018528
_cod_database_fobs_code          2018528
loop_
_symmetry_equiv_pos_as_xyz
'x, y, z'
'-x, -y, -z'
loop_
_atom_site_aniso_label
_atom_site_aniso_U_11
_atom_site_aniso_U_22
_atom_site_aniso_U_33
_atom_site_aniso_U_12
_atom_site_aniso_U_13
_atom_site_aniso_U_23
F21 0.0431(6) 0.0479(6) 0.0397(5) 0.0032(4) -0.0095(4) 0.0047(4)
O1 0.0284(5) 0.0289(6) 0.0404(6) -0.0046(4) 0.0056(4) 0.0028(5)
O3 0.0297(5) 0.0233(5) 0.0458(6) 0.0012(4) 0.0051(4) 0.0100(5)
N2 0.0228(6) 0.0206(6) 0.0300(6) 0.0025(5) 0.0024(5) 0.0034(5)
C1 0.0276(7) 0.0223(7) 0.0231(7) 0.0005(6) -0.0018(6) 0.0025(5)
C3 0.0226(7) 0.0263(8) 0.0261(7) 0.0015(6) 0.0006(5) 0.0058(6)
C4 0.0278(8) 0.0284(8) 0.0439(9) -0.0010(6) -0.0049(6) 0.0099(7)
C5 0.0354(8) 0.0353(9) 0.0427(9) 0.0085(7) -0.0032(7) 0.0124(7)
C6 0.0448(9) 0.0233(8) 0.0367(9) 0.0067(7) 0.0041(7) 0.0091(6)
C7 0.0365(8) 0.0198(7) 0.0363(8) 0.0025(6) 0.0040(6) 0.0010(6)
C8 0.0311(8) 0.0241(7) 0.0246(7) 0.0035(6) 0.0011(6) 0.0015(6)
C9 0.0269(7) 0.0254(7) 0.0306(8) 0.0047(6) 0.0075(6) 0.0076(6)
C11 0.0245(7) 0.0213(7) 0.0286(8) 0.0026(6) 0.0062(6) 0.0057(6)
C21 0.0277(7) 0.0282(8) 0.0274(8) -0.0005(6) 0.0003(6) 0.0064(6)
C31 0.0493(10) 0.0277(8) 0.0325(9) 0.0014(7) 0.0113(7) -0.0006(7)
C41 0.0433(9) 0.0316(8) 0.0470(10) 0.0137(7) 0.0194(7) 0.0087(7)
C51 0.0277(8) 0.0374(9) 0.0464(10) 0.0092(7) 0.0079(7) 0.0157(7)
C61 0.0257(7) 0.0307(8) 0.0305(8) 0.0020(6) 0.0020(6) 0.0062(6)
loop_
_atom_site_type_symbol
_atom_site_label
_atom_site_fract_x
_atom_site_fract_y
_atom_site_fract_z
_atom_site_U_iso_or_equiv
_atom_site_thermal_displace_type
_atom_site_calc_flag
_atom_site_refinement_flags
_atom_site_occupancy
F F21 0.74386(11) 0.59410(12) 0.94457(10) 0.0446(3) Uani . . 1.000
O O1 0.46040(12) 0.13876(12) 0.70637(11) 0.0335(3) Uani . . 1.000
O O3 0.87098(12) 0.55671(12) 0.64213(11) 0.0326(3) Uani . . 1.000
N N2 0.64353(13) 0.37625(13) 0.69026(12) 0.0246(3) Uani . . 1.000
C C1 0.59322(17) 0.20271(16) 0.67222(15) 0.0249(4) Uani . . 1.000
C C3 0.80782(17) 0.41573(17) 0.65001(15) 0.0250(4) Uani . . 1.000
C C4 0.99212(18) 0.25073(18) 0.77153(17) 0.0337(5) Uani . . 1.000
C C5 1.02424(19) 0.07392(19) 0.78648(18) 0.0371(5) Uani . . 1.000
C C6 0.85789(19) -0.03854(18) 0.78468(17) 0.0343(5) Uani . . 1.000
C C7 0.75306(18) -0.05104(17) 0.63997(16) 0.0313(4) Uani . . 1.000
C C8 0.73070(17) 0.11964(17) 0.59760(15) 0.0269(4) Uani . . 1.000
C C9 0.88515(17) 0.25640(17) 0.62776(16) 0.0270(4) Uani . . 1.000
C C11 0.54230(16) 0.49939(16) 0.74467(15) 0.0245(4) Uani . . 1.000
C C21 0.59667(17) 0.61008(18) 0.87238(15) 0.0280(4) Uani . . 1.000
C C31 0.5055(2) 0.73352(18) 0.92780(17) 0.0371(5) Uani . . 1.000
C C41 0.3533(2) 0.74495(19) 0.85443(18) 0.0390(5) Uani . . 1.000
C C51 0.29473(19) 0.63391(19) 0.72814(18) 0.0356(5) Uani . . 1.000
C C61 0.38940(17) 0.51205(18) 0.67305(16) 0.0290(4) Uani . . 1.000
H H4A 1.09910 0.32120 0.77310 0.0400 Uiso calc R 1.000
H H4B 0.93440 0.29530 0.85510 0.0400 Uiso calc R 1.000
H H5A 1.08700 0.03050 0.70580 0.0440 Uiso calc R 1.000
H H5B 1.09100 0.07560 0.87800 0.0440 Uiso calc R 1.000
H H6A 0.79530 0.00570 0.86510 0.0410 Uiso calc R 1.000
H H6B 0.87970 -0.14920 0.79940 0.0410 Uiso calc R 1.000
H H7A 0.64300 -0.11220 0.64720 0.0380 Uiso calc R 1.000
H H7B 0.80660 -0.11400 0.56240 0.0380 Uiso calc R 1.000
H H8 0.69970 0.10150 0.49130 0.0320 Uiso calc R 1.000
H H9 0.95450 0.25210 0.54350 0.0320 Uiso calc R 1.000
H H31 0.54540 0.80780 1.01290 0.0440 Uiso calc R 1.000
H H41 0.29000 0.82780 0.89020 0.0470 Uiso calc R 1.000
H H51 0.19140 0.64120 0.68010 0.0430 Uiso calc R 1.000
H H61 0.35010 0.43830 0.58750 0.0350 Uiso calc R 1.000
loop_
_atom_type_symbol
_atom_type_description
_atom_type_scat_dispersion_real
_atom_type_scat_dispersion_imag
_atom_type_scat_source
C C 0.0033 0.0016 'International Tables Vol C Tables 4.2.6.8 and 6.1.1.4'
H H 0.0000 0.0000 'International Tables Vol C Tables 4.2.6.8 and 6.1.1.4'
N N 0.0061 0.0033 'International Tables Vol C Tables 4.2.6.8 and 6.1.1.4'
O O 0.0106 0.0060 'International Tables Vol C Tables 4.2.6.8 and 6.1.1.4'
F F 0.0171 0.0103 'International Tables Vol C Tables 4.2.6.8 and 6.1.1.4'
loop_
_geom_angle_atom_site_label_1
_geom_angle_atom_site_label_2
_geom_angle_atom_site_label_3
_geom_angle
_geom_angle_publ_flag
C1 N2 C3 112.11(11) no
C1 N2 C11 124.71(11) no
C3 N2 C11 123.17(11) no
O1 C1 N2 124.13(12) no
O1 C1 C8 128.71(12) no
N2 C1 C8 107.09(11) no
O3 C3 N2 123.50(13) no
O3 C3 C9 128.95(13) no
N2 C3 C9 107.49(11) no
C5 C4 C9 112.18(12) no
C4 C5 C6 110.01(12) no
C5 C6 C7 111.31(13) no
C6 C7 C8 113.14(12) no
C1 C8 C7 114.60(11) no
C1 C8 C9 103.51(11) no
C7 C8 C9 116.97(12) no
C3 C9 C4 107.17(12) no
C3 C9 C8 103.24(11) no
C4 C9 C8 113.19(12) no
N2 C11 C21 119.82(12) no
N2 C11 C61 121.70(12) no
C21 C11 C61 118.48(13) no
F21 C21 C11 118.31(12) no
F21 C21 C31 119.57(13) no
C11 C21 C31 122.12(13) no
C21 C31 C41 118.65(14) no
C31 C41 C51 120.34(15) no
C41 C51 C61 120.13(14) no
C11 C61 C51 120.27(14) no
C5 C4 H4A 109.00 no
C5 C4 H4B 109.00 no
C9 C4 H4A 109.00 no
C9 C4 H4B 109.00 no
H4A C4 H4B 108.00 no
C4 C5 H5A 110.00 no
C4 C5 H5B 110.00 no
C6 C5 H5A 110.00 no
C6 C5 H5B 110.00 no
H5A C5 H5B 108.00 no
C5 C6 H6A 109.00 no
C5 C6 H6B 109.00 no
C7 C6 H6A 109.00 no
C7 C6 H6B 109.00 no
H6A C6 H6B 108.00 no
C6 C7 H7A 109.00 no
C6 C7 H7B 109.00 no
C8 C7 H7A 109.00 no
C8 C7 H7B 109.00 no
H7A C7 H7B 108.00 no
C1 C8 H8 107.00 no
C7 C8 H8 107.00 no
C9 C8 H8 107.00 no
C3 C9 H9 111.00 no
C4 C9 H9 111.00 no
C8 C9 H9 111.00 no
C21 C31 H31 121.00 no
C41 C31 H31 121.00 no
C31 C41 H41 120.00 no
C51 C41 H41 120.00 no
C41 C51 H51 120.00 no
C61 C51 H51 120.00 no
C11 C61 H61 120.00 no
C51 C61 H61 120.00 no
loop_
_geom_bond_atom_site_label_1
_geom_bond_atom_site_label_2
_geom_bond_distance
_geom_bond_publ_flag
F21 C21 1.3529(16) no
O1 C1 1.2071(17) no
O3 C3 1.2128(17) no
N2 C1 1.4065(17) no
N2 C3 1.4026(17) no
N2 C11 1.4239(17) no
C1 C8 1.5133(19) no
C3 C9 1.504(2) no
C4 C5 1.524(2) no
C4 C9 1.546(2) no
C5 C6 1.521(2) no
C6 C7 1.517(2) no
C7 C8 1.532(2) no
C8 C9 1.543(2) no
C11 C21 1.3836(19) no
C11 C61 1.3829(19) no
C21 C31 1.375(2) no
C31 C41 1.383(2) no
C41 C51 1.382(2) no
C51 C61 1.383(2) no
C4 H4A 0.9700 no
C4 H4B 0.9700 no
C5 H5A 0.9700 no
C5 H5B 0.9700 no
C6 H6A 0.9700 no
C6 H6B 0.9700 no
C7 H7A 0.9700 no
C7 H7B 0.9700 no
C8 H8 0.9800 no
C9 H9 0.9800 no
C31 H31 0.9300 no
C41 H41 0.9300 no
C51 H51 0.9300 no
C61 H61 0.9300 no
loop_
_geom_hbond_atom_site_label_D
_geom_hbond_atom_site_label_H
_geom_hbond_atom_site_label_A
_geom_hbond_site_symmetry_A
_geom_hbond_distance_DH
_geom_hbond_distance_HA
_geom_hbond_distance_DA
_geom_hbond_angle_DHA
_geom_hbond_publ_flag
C31 H31 O1 2_667 0.93 2.56 3.3589(18) 144 yes
C51 H51 O3 1_455 0.93 2.57 3.4064(18) 150 yes
loop_
_geom_torsion_atom_site_label_1
_geom_torsion_atom_site_label_2
_geom_torsion_atom_site_label_3
_geom_torsion_atom_site_label_4
_geom_torsion
_geom_torsion_publ_flag
C3 N2 C1 O1 176.24(13) no
C11 N2 C1 O1 -3.0(2) no
C3 N2 C1 C8 -6.50(15) no
C11 N2 C1 C8 174.29(12) no
C11 N2 C3 C9 168.84(12) no
C1 N2 C11 C21 119.11(15) no
C3 N2 C11 C21 -60.02(18) no
C1 N2 C11 C61 -60.88(19) no
C1 N2 C3 O3 172.17(13) no
C11 N2 C3 O3 -8.6(2) no
C1 N2 C3 C9 -10.39(15) no
C3 N2 C11 C61 119.99(15) no
O1 C1 C8 C7 -34.4(2) no
N2 C1 C8 C7 148.47(12) no
N2 C1 C8 C9 19.94(14) no
O1 C1 C8 C9 -162.98(14) no
N2 C3 C9 C8 22.21(14) no
O3 C3 C9 C4 79.72(18) no
O3 C3 C9 C8 -160.53(14) no
N2 C3 C9 C4 -97.54(13) no
C5 C4 C9 C3 159.07(12) no
C5 C4 C9 C8 45.91(16) no
C9 C4 C5 C6 -58.99(16) no
C4 C5 C6 C7 62.01(16) no
C5 C6 C7 C8 -51.82(16) no
C6 C7 C8 C1 -81.64(15) no
C6 C7 C8 C9 39.78(17) no
C1 C8 C9 C4 90.39(13) no
C7 C8 C9 C3 -152.18(12) no
C7 C8 C9 C4 -36.67(17) no
C1 C8 C9 C3 -25.12(13) no
N2 C11 C21 F21 -1.96(19) no
N2 C11 C21 C31 178.57(13) no
C61 C11 C21 F21 178.03(12) no
C61 C11 C21 C31 -1.4(2) no
N2 C11 C61 C51 -179.48(13) no
C21 C11 C61 C51 0.5(2) no
F21 C21 C31 C41 -178.34(13) no
C11 C21 C31 C41 1.1(2) no
C21 C31 C41 C51 0.1(2) no
C31 C41 C51 C61 -1.0(2) no
C41 C51 C61 C11 0.7(2) no
loop_
_cod_related_entry_id
_cod_related_entry_database
_cod_related_entry_code
1 ChemSpider 2759652
