#------------------------------------------------------------------------------
#$Date: 2017-10-13 03:48:21 +0300 (Fri, 13 Oct 2017) $
#$Revision: 201957 $
#$URL: file:///home/coder/svn-repositories/cod/cif/2/01/82/2018277.cif $
#------------------------------------------------------------------------------
#
# This file is available in the Crystallography Open Database (COD),
# http://www.crystallography.net/. The original data for this entry
# were provided by IUCr Journals, http://journals.iucr.org/.
#
# The file may be used within the scientific community so long as
# proper attribution is given to the journal article from which the
# data were obtained.
#
data_2018277
loop_
_publ_author_name
'Matczak-Jon, Ewa'
'\'Slepokura, Katarzyna'
_publ_section_title
;
 Conformations and resulting hydrogen-bonded networks of hydrogen
 {phosphono[(pyridin-1-ium-3-yl)amino]methyl}phosphonate and related
 2-chloro and 6-chloro derivatives
;
_journal_coeditor_code           FG3227
_journal_issue                   11
_journal_name_full               'Acta Crystallographica Section C'
_journal_page_first              o450
_journal_page_last               o456
_journal_paper_doi               10.1107/S0108270111040650
_journal_volume                  67
_journal_year                    2011
_chemical_formula_iupac          'C6 H9 Cl N2 O6 P2'
_chemical_formula_moiety         'C6 H9 Cl N2 O6 P2'
_chemical_formula_sum            'C6 H9 Cl N2 O6 P2'
_chemical_formula_weight         302.54
_chemical_name_systematic
;
hydrogen {phosphono[(2-chloropyridin-1-ium-3-yl)amino]methyl}phosphonate
;
_space_group_IT_number           2
_symmetry_cell_setting           triclinic
_symmetry_space_group_name_Hall  '-P 1'
_symmetry_space_group_name_H-M   'P -1'
_atom_sites_solution_hydrogens   difmap
_atom_sites_solution_primary     direct
_atom_sites_solution_secondary   difmap
_cell_angle_alpha                109.41(3)
_cell_angle_beta                 105.31(3)
_cell_angle_gamma                92.39(3)
_cell_formula_units_Z            2
_cell_length_a                   7.667(2)
_cell_length_b                   8.364(2)
_cell_length_c                   9.283(3)
_cell_measurement_reflns_used    5273
_cell_measurement_temperature    100(2)
_cell_measurement_theta_max      37.50
_cell_measurement_theta_min      3.10
_cell_volume                     536.0(3)
_computing_cell_refinement       'CrysAlis RED (Oxford Diffraction, 2009)'
_computing_data_collection       'CrysAlis CCD (Oxford Diffraction, 2009)'
_computing_data_reduction        'CrysAlis RED (Oxford Diffraction, 2009)'
_computing_molecular_graphics
;
XP (Bruker, 1998) and DIAMOND (Brandenburg, 2005)
;
_computing_publication_material  'SHELXL97 (Sheldrick, 2008)'
_computing_structure_refinement  'SHELXL97 (Sheldrick, 2008)'
_computing_structure_solution    'SHELXS97 (Sheldrick, 2008)'
_diffrn_ambient_temperature      100(2)
_diffrn_measured_fraction_theta_full 0.998
_diffrn_measured_fraction_theta_max 0.874
_diffrn_measurement_device_type
'Kuma KM-4-CCD \k-geometry diffractometer with Sapphire CCD camera'
_diffrn_measurement_method       \w
_diffrn_radiation_monochromator  graphite
_diffrn_radiation_source         'Enhance (Mo) X-ray Source'
_diffrn_radiation_type           MoK\a
_diffrn_radiation_wavelength     0.71073
_diffrn_reflns_av_R_equivalents  0.0155
_diffrn_reflns_av_sigmaI/netI    0.0175
_diffrn_reflns_limit_h_max       10
_diffrn_reflns_limit_h_min       -9
_diffrn_reflns_limit_k_max       11
_diffrn_reflns_limit_k_min       -10
_diffrn_reflns_limit_l_max       12
_diffrn_reflns_limit_l_min       -13
_diffrn_reflns_number            6017
_diffrn_reflns_theta_full        26.00
_diffrn_reflns_theta_max         29.99
_diffrn_reflns_theta_min         3.11
_exptl_absorpt_coefficient_mu    0.674
_exptl_absorpt_correction_T_max  1.000
_exptl_absorpt_correction_T_min  0.920
_exptl_absorpt_correction_type   multi-scan
_exptl_absorpt_process_details   '(CrysAlis RED; Oxford Diffraction, 2009)'
_exptl_crystal_colour            colourless
_exptl_crystal_density_diffrn    1.874
_exptl_crystal_density_method    'not measured'
_exptl_crystal_description       plate
_exptl_crystal_F_000             308
_exptl_crystal_size_max          0.47
_exptl_crystal_size_mid          0.18
_exptl_crystal_size_min          0.06
_refine_diff_density_max         0.436
_refine_diff_density_min         -0.636
_refine_ls_extinction_method     none
_refine_ls_goodness_of_fit_ref   1.060
_refine_ls_hydrogen_treatment    constr
_refine_ls_matrix_type           full
_refine_ls_number_parameters     157
_refine_ls_number_reflns         2735
_refine_ls_number_restraints     0
_refine_ls_restrained_S_all      1.060
_refine_ls_R_factor_all          0.0303
_refine_ls_R_factor_gt           0.0273
_refine_ls_shift/su_max          0.001
_refine_ls_shift/su_mean         0.000
_refine_ls_structure_factor_coef Fsqd
_refine_ls_weighting_details
'calc w = 1/[\s^2^(Fo^2^)+(0.0406P)^2^+0.3896P] where P=(Fo^2^+2Fc^2^)/3'
_refine_ls_weighting_scheme      calc
_refine_ls_wR_factor_gt          0.0735
_refine_ls_wR_factor_ref         0.0747
_reflns_number_gt                2503
_reflns_number_total             2735
_reflns_threshold_expression     I>2\s(I)
_iucr_refine_instructions_details
;
TITL ejs5dc in P-1
CELL 0.71073   7.667    8.364    9.283  109.41  105.31   92.39
ZERR    2.00   0.002    0.002    0.003    0.03    0.03    0.03
LATT  1
SFAC C H N O P CL
UNIT 12 18 4 12 4 2
L.S. 10
BOND $h
htab 2.1
FMAP 2
PLAN 19
size 0.47 0.18 0.06
conf
omit 0 60
acta 52
temp -173
eqiv $1 x+1, y, z
eqiv $2 -x+1, -y+2, -z+1
eqiv $3 -x+1, -y+1, -z+1
eqiv $4 -x+1, -y+1, -z+2
eqiv $5 -x+2, -y+2, -z+2
eqiv $6 x+1, y, z+1
htab o3 o4_$1
htab o5 o1_$2
htab o6 o2_$3
htab n1 Cl1
htab n1 o2_$3
htab n2 o4_$4
htab c4 o3
htab c5 o1_$5
htab c6 o6_$6
WGHT    0.040600    0.389600
FVAR       7.60750
CL1   6    0.567544    0.286250    0.824570    11.00000    0.01508    0.00852 =
         0.01122    0.00295    0.00157   -0.00042
P1    5    0.721144    0.806518    0.636144    11.00000    0.00845    0.00895 =
         0.00909    0.00431    0.00279    0.00152
P2    5    0.324145    0.792244    0.657833    11.00000    0.00772    0.01010 =
         0.00947    0.00503    0.00236    0.00151
O1    4    0.684687    0.959672    0.588517    11.00000    0.01798    0.01137 =
         0.01413    0.00764    0.00696    0.00341
O2    4    0.705406    0.639993    0.500663    11.00000    0.01807    0.01045 =
         0.01096    0.00299    0.00576    0.00313
O3    4    0.906166    0.846362    0.771204    11.00000    0.00764    0.02295 =
         0.01256    0.00465    0.00256    0.00325
AFIX 147
H3    2    0.987467    0.803370    0.731503    11.00000   -1.50000
AFIX   0
O4    4    0.221886    0.766939    0.769173    11.00000    0.01071    0.01784 =
         0.01724    0.01244    0.00637    0.00419
O5    4    0.305621    0.965896    0.640551    11.00000    0.01393    0.01105 =
         0.01110    0.00601    0.00512    0.00346
AFIX 147
H5    2    0.319231    0.961803    0.552584    11.00000   -1.50000
AFIX   0
O6    4    0.265064    0.649080    0.491380    11.00000    0.01416    0.01084 =
         0.01209    0.00311   -0.00061    0.00105
AFIX 147
H6    2    0.276046    0.553670    0.501755    11.00000   -1.50000
AFIX   0
N1    3    0.583155    0.629952    0.788855    11.00000    0.01117    0.00795 =
         0.00886    0.00387   -0.00017   -0.00054
AFIX  43
H1N   2    0.515371    0.533866    0.719645    11.00000   -1.20000
AFIX   0
N2    3    0.793888    0.469164    1.100645    11.00000    0.01123    0.01209 =
         0.01211    0.00694    0.00261    0.00185
AFIX  43
H2N   2    0.783041    0.373252    1.119253    11.00000   -1.20000
AFIX   0
C1    1    0.564730    0.785244    0.749667    11.00000    0.00899    0.00824 =
         0.00867    0.00439    0.00234    0.00105
AFIX  13
H1    2    0.605051    0.884273    0.853381    11.00000   -1.20000
AFIX   0
C2    1    0.696552    0.473089    0.959339    11.00000    0.00946    0.00969 =
         0.00949    0.00351    0.00214    0.00067
C3    1    0.699646    0.625604    0.926829    11.00000    0.00876    0.01027 =
         0.00895    0.00450    0.00325    0.00211
C4    1    0.822161    0.766713    1.044686    11.00000    0.01170    0.01142 =
         0.01206    0.00479    0.00276    0.00052
AFIX  43
H41   2    0.834188    0.871257    1.026355    11.00000   -1.20000
AFIX   0
C5    1    0.925641    0.755531    1.187210    11.00000    0.01380    0.01396 =
         0.01040    0.00386    0.00111   -0.00153
AFIX  43
H51   2    1.008900    0.851433    1.265237    11.00000   -1.20000
AFIX   0
C6    1    0.907315    0.604879    1.215291    11.00000    0.01238    0.01670 =
         0.01124    0.00620   -0.00060   -0.00025
AFIX  43
H61   2    0.973872    0.597133    1.314200    11.00000   -1.20000
HKLF 4
REM  ejs5dc in P-1
REM R1 =  0.0273 for   2503 Fo > 4sig(Fo)  and  0.0303 for all   2735 data
REM    157 parameters refined using      0 restraints
END
WGHT      0.0406      0.3896
REM Highest difference peak  0.436,  deepest hole -0.636,  1-sigma level  0.072
Q1    1   0.6951  0.5500  0.9398  11.00000  0.05    0.44
Q2    1   0.9059  0.6787  1.2019  11.00000  0.05    0.40
Q3    1   0.8659  0.7617  1.1114  11.00000  0.05    0.39
Q4    1   0.4519  0.7712  0.7096  11.00000  0.05    0.36
Q5    1   0.7172  0.5536  0.5032  11.00000  0.05    0.35
Q6    1   0.7691  0.6865  0.9789  11.00000  0.05    0.34
Q7    1   0.6985  0.8924  0.6076  11.00000  0.05    0.32
Q8    1   0.6339  0.7915  0.7005  11.00000  0.05    0.31
Q9    1   0.6477  0.6369  0.8580  11.00000  0.05    0.31
Q10   1   0.8508  0.5459  1.1530  11.00000  0.05    0.30
Q11   1   0.7309  0.7146  0.5566  11.00000  0.05    0.30
Q12   1   0.7422  0.4774  1.0329  11.00000  0.05    0.29
Q13   1   0.5766  0.7182  0.7763  11.00000  0.05    0.29
Q14   1   0.3232  0.8876  0.6563  11.00000  0.05    0.29
Q15   1   0.2765  0.7935  0.7452  11.00000  0.05    0.28
Q16   1   0.3129  1.0243  0.5019  11.00000  0.05    0.25
Q17   1   0.6097  0.9212  0.5540  11.00000  0.05    0.23
Q18   1   0.6361  0.6172  0.4691  11.00000  0.05    0.22
Q19   1   0.2591  0.6843  0.4551  11.00000  0.05    0.22
;
_cod_data_source_file            fg3227.cif
_cod_data_source_block           II
_cod_database_code               2018277
_cod_database_fobs_code          2018277
loop_
_symmetry_equiv_pos_as_xyz
'x, y, z'
'-x, -y, -z'
loop_
_atom_site_type_symbol
_atom_site_label
_atom_site_fract_x
_atom_site_fract_y
_atom_site_fract_z
_atom_site_U_iso_or_equiv
_atom_site_adp_type
_atom_site_calc_flag
_atom_site_refinement_flags
_atom_site_occupancy
_atom_site_symmetry_multiplicity
Cl Cl1 0.56754(5) 0.28625(4) 0.82457(4) 0.01229(9) Uani d . 1 1
P P1 0.72114(5) 0.80652(5) 0.63614(4) 0.00849(9) Uani d . 1 1
P P2 0.32414(5) 0.79224(5) 0.65783(4) 0.00872(9) Uani d . 1 1
O O1 0.68469(16) 0.95967(14) 0.58852(13) 0.0132(2) Uani d . 1 1
O O2 0.70541(15) 0.63999(13) 0.50066(13) 0.0130(2) Uani d . 1 1
O O3 0.90617(15) 0.84636(15) 0.77120(13) 0.0149(2) Uani d . 1 1
H H3 0.9875 0.8034 0.7315 0.022 Uiso calc R 1 1
O O4 0.22189(15) 0.76694(14) 0.76917(13) 0.0131(2) Uani d . 1 1
O O5 0.30562(15) 0.96590(13) 0.64055(13) 0.0111(2) Uani d . 1 1
H H5 0.3192 0.9618 0.5526 0.017 Uiso calc R 1 1
O O6 0.26506(15) 0.64908(14) 0.49138(13) 0.0136(2) Uani d . 1 1
H H6 0.2760 0.5537 0.5018 0.020 Uiso calc R 1 1
N N1 0.58316(17) 0.62995(15) 0.78885(15) 0.0098(2) Uani d . 1 1
H H1N 0.5154 0.5339 0.7196 0.012 Uiso calc R 1 1
N N2 0.79389(17) 0.46916(16) 1.10065(15) 0.0113(2) Uani d . 1 1
H H2N 0.7830 0.3733 1.1193 0.014 Uiso calc R 1 1
C C1 0.56473(19) 0.78524(17) 0.74967(17) 0.0083(3) Uani d . 1 1
H H1 0.6051 0.8843 0.8534 0.010 Uiso calc R 1 1
C C2 0.69655(19) 0.47309(18) 0.95934(17) 0.0097(3) Uani d . 1 1
C C3 0.69965(19) 0.62560(18) 0.92683(17) 0.0089(3) Uani d . 1 1
C C4 0.8222(2) 0.76671(19) 1.04469(18) 0.0118(3) Uani d . 1 1
H H41 0.8342 0.8713 1.0264 0.014 Uiso calc R 1 1
C C5 0.9256(2) 0.7555(2) 1.18721(18) 0.0135(3) Uani d . 1 1
H H51 1.0089 0.8514 1.2652 0.016 Uiso calc R 1 1
C C6 0.9073(2) 0.6049(2) 1.21529(18) 0.0140(3) Uani d . 1 1
H H61 0.9739 0.5971 1.3142 0.017 Uiso calc R 1 1
loop_
_atom_site_aniso_label
_atom_site_aniso_U_11
_atom_site_aniso_U_22
_atom_site_aniso_U_33
_atom_site_aniso_U_12
_atom_site_aniso_U_13
_atom_site_aniso_U_23
Cl1 0.01508(18) 0.00852(16) 0.01122(17) -0.00042(12) 0.00157(13) 0.00295(13)
P1 0.00845(18) 0.00895(17) 0.00909(18) 0.00152(12) 0.00279(13) 0.00431(14)
P2 0.00772(18) 0.01010(17) 0.00947(18) 0.00151(12) 0.00236(13) 0.00503(14)
O1 0.0180(6) 0.0114(5) 0.0141(5) 0.0034(4) 0.0070(4) 0.0076(4)
O2 0.0181(6) 0.0105(5) 0.0110(5) 0.0031(4) 0.0058(4) 0.0030(4)
O3 0.0076(5) 0.0230(6) 0.0126(5) 0.0033(4) 0.0026(4) 0.0046(4)
O4 0.0107(5) 0.0178(5) 0.0172(5) 0.0042(4) 0.0064(4) 0.0124(4)
O5 0.0139(5) 0.0111(5) 0.0111(5) 0.0035(4) 0.0051(4) 0.0060(4)
O6 0.0142(5) 0.0108(5) 0.0121(5) 0.0010(4) -0.0006(4) 0.0031(4)
N1 0.0112(6) 0.0080(5) 0.0089(5) -0.0005(4) -0.0002(4) 0.0039(4)
N2 0.0112(6) 0.0121(6) 0.0121(6) 0.0018(4) 0.0026(5) 0.0069(5)
C1 0.0090(6) 0.0082(6) 0.0087(6) 0.0010(5) 0.0023(5) 0.0044(5)
C2 0.0095(7) 0.0097(6) 0.0095(6) 0.0007(5) 0.0021(5) 0.0035(5)
C3 0.0088(6) 0.0103(6) 0.0089(6) 0.0021(5) 0.0033(5) 0.0045(5)
C4 0.0117(7) 0.0114(7) 0.0121(7) 0.0005(5) 0.0028(5) 0.0048(5)
C5 0.0138(7) 0.0140(7) 0.0104(7) -0.0015(5) 0.0011(6) 0.0039(5)
C6 0.0124(7) 0.0167(7) 0.0112(7) -0.0003(5) -0.0006(6) 0.0062(6)
loop_
_atom_type_symbol
_atom_type_description
_atom_type_scat_dispersion_real
_atom_type_scat_dispersion_imag
_atom_type_scat_source
C C 0.0033 0.0016 'International Tables Vol C Tables 4.2.6.8 and 6.1.1.4'
H H 0.0000 0.0000 'International Tables Vol C Tables 4.2.6.8 and 6.1.1.4'
N N 0.0061 0.0033 'International Tables Vol C Tables 4.2.6.8 and 6.1.1.4'
O O 0.0106 0.0060 'International Tables Vol C Tables 4.2.6.8 and 6.1.1.4'
P P 0.1023 0.0942 'International Tables Vol C Tables 4.2.6.8 and 6.1.1.4'
Cl Cl 0.1484 0.1585 'International Tables Vol C Tables 4.2.6.8 and 6.1.1.4'
loop_
_geom_angle_atom_site_label_1
_geom_angle_atom_site_label_2
_geom_angle_atom_site_label_3
_geom_angle
_geom_angle_publ_flag
O1 P1 O2 115.63(7) yes
O1 P1 O3 110.53(7) yes
O2 P1 O3 112.38(7) yes
O1 P1 C1 107.64(7) yes
O2 P1 C1 110.20(7) yes
O3 P1 C1 99.10(7) yes
O4 P2 O5 110.88(7) yes
O4 P2 O6 113.35(7) yes
O5 P2 O6 109.96(7) yes
O4 P2 C1 106.49(7) yes
O5 P2 C1 108.88(7) yes
O6 P2 C1 107.06(7) yes
P1 O3 H3 109.5 ?
P2 O5 H5 109.5 ?
P2 O6 H6 109.5 ?
C1 N1 C3 123.75(12) yes
C3 N1 H1N 118.1 ?
C1 N1 H1N 118.1 ?
C2 N2 C6 123.01(13) ?
C2 N2 H2N 118.5 ?
C6 N2 H2N 118.5 ?
P1 C1 P2 115.93(7) yes
P1 C1 N1 110.38(10) yes
P2 C1 N1 109.95(10) yes
N1 C1 H1 106.7 ?
P2 C1 H1 106.7 ?
P1 C1 H1 106.7 ?
N2 C2 C3 120.95(14) ?
N2 C2 Cl1 116.67(11) ?
C3 C2 Cl1 122.37(11) ?
N1 C3 C2 119.38(13) ?
N1 C3 C4 124.52(13) ?
C2 C3 C4 116.07(13) ?
C5 C4 C3 121.00(13) ?
C5 C4 H41 119.5 ?
C3 C4 H41 119.5 ?
C6 C5 C4 119.78(14) ?
C6 C5 H51 120.1 ?
C4 C5 H51 120.1 ?
N2 C6 C5 118.96(14) ?
N2 C6 H61 120.5 ?
C5 C6 H61 120.5 ?
loop_
_geom_bond_atom_site_label_1
_geom_bond_atom_site_label_2
_geom_bond_distance
_geom_bond_publ_flag
Cl1 C2 1.7040(17) ?
P1 O1 1.5018(11) yes
P1 O2 1.5092(13) yes
P1 O3 1.5617(13) yes
P1 C1 1.8315(15) yes
P2 O4 1.5124(12) yes
P2 O5 1.5217(11) yes
P2 O6 1.5434(14) yes
P2 C1 1.8288(16) yes
O3 H3 0.84 ?
O5 H5 0.84 ?
O6 H6 0.84 ?
N1 C1 1.4634(17) yes
N1 C3 1.3671(18) yes
N1 H1N 0.88 ?
N2 C2 1.3388(19) ?
N2 C6 1.343(2) ?
N2 H2N 0.88 ?
C1 H1 1.00 ?
C2 C3 1.4057(18) ?
C3 C4 1.407(2) ?
C4 C5 1.387(2) ?
C4 H41 0.95 ?
C5 C6 1.378(2) ?
C5 H51 0.95 ?
C6 H61 0.95 ?
loop_
_geom_hbond_atom_site_label_D
_geom_hbond_atom_site_label_H
_geom_hbond_atom_site_label_A
_geom_hbond_site_symmetry_A
_geom_hbond_distance_DH
_geom_hbond_distance_HA
_geom_hbond_distance_DA
_geom_hbond_angle_DHA
O3 H3 O4 1_655 0.84 1.80 2.540(2) 146
O5 H5 O1 2_676 0.84 1.64 2.424(2) 153
O6 H6 O2 2_666 0.84 1.63 2.461(2) 173
N1 H1N Cl1 . 0.88 2.57 3.002(2) 111
N1 H1N O2 2_666 0.88 2.27 3.103(2) 158
N2 H2N O4 2_667 0.88 1.81 2.649(2) 159
C4 H41 O3 . 0.95 2.52 3.042(2) 115
C5 H51 O1 2_777 0.95 2.54 3.429(3) 156
C6 H61 O6 1_656 0.95 2.32 3.131(2) 143
loop_
_geom_torsion_atom_site_label_1
_geom_torsion_atom_site_label_2
_geom_torsion_atom_site_label_3
_geom_torsion_atom_site_label_4
_geom_torsion
_geom_torsion_publ_flag
O1 P1 C1 P2 49.65(10) ?
O2 P1 C1 P2 -77.27(10) ?
O3 P1 C1 P2 164.71(8) yes
O4 P2 C1 P1 178.28(7) yes
O5 P2 C1 P1 -62.11(10) ?
O6 P2 C1 P1 56.73(9) ?
O1 P1 C1 N1 175.48(9) ?
O2 P1 C1 N1 48.56(11) ?
O3 P1 C1 N1 -69.46(11) ?
O4 P2 C1 N1 52.23(11) ?
O5 P2 C1 N1 171.84(9) ?
O6 P2 C1 N1 -69.32(11) ?
C3 N1 C1 P1 91.50(15) yes
C3 N1 C1 P2 -139.37(13) yes
C6 N2 C2 C3 -4.0(2) ?
C6 N2 C2 Cl1 177.08(12) ?
C1 N1 C3 C2 174.83(13) yes
C1 N1 C3 C4 -3.1(2) ?
N2 C2 C3 N1 -172.61(14) ?
Cl1 C2 C3 N1 6.2(2) ?
N2 C2 C3 C4 5.5(2) ?
Cl1 C2 C3 C4 -175.66(11) ?
N1 C3 C4 C5 174.85(15) ?
C2 C3 C4 C5 -3.2(2) ?
C3 C4 C5 C6 -0.7(2) ?
C2 N2 C6 C5 -0.2(2) ?
C4 C5 C6 N2 2.5(2) ?
loop_
_cod_related_entry_id
_cod_related_entry_database
_cod_related_entry_code
1 ChemSpider 359401
