#------------------------------------------------------------------------------
#$Date: 2016-02-20 00:18:51 +0200 (Sat, 20 Feb 2016) $
#$Revision: 176760 $
#$URL: svn://www.crystallography.net/cod/cif/2/01/83/2018353.cif $
#------------------------------------------------------------------------------
#
# This file is available in the Crystallography Open Database (COD),
# http://www.crystallography.net/. The original data for this entry
# were provided by IUCr Journals, http://journals.iucr.org/.
#
# The file may be used within the scientific community so long as
# proper attribution is given to the journal article from which the
# data were obtained.
#
data_2018353
loop_
_publ_author_name
'Khan, Saeed I.'
'Knobler, Carolyn B.'
'Maverick, Emily F.'
_publ_section_title
;
 Benz[<i>cd</i>]indol-2(1<i>H</i>)-one at 298 and 100K
;
_journal_coeditor_code           QS3004
_journal_issue                   1
_journal_name_full               'Acta Crystallographica Section C'
_journal_page_first              o1
_journal_page_last               o6
_journal_paper_doi               10.1107/S0108270111050281
_journal_volume                  68
_journal_year                    2012
_chemical_formula_iupac          'C11 H7 N O'
_chemical_formula_moiety         'C11 H7 N O'
_chemical_formula_sum            'C11 H7 N O'
_chemical_formula_weight         169.18
_chemical_melting_point_gt       448
_chemical_melting_point_lt       450
_chemical_name_common            naphtholactam
_chemical_name_systematic
;
Benz[<i>cd</i>]indol-2(1<i>H</i>)-one
;
_space_group_IT_number           14
_symmetry_cell_setting           monoclinic
_symmetry_space_group_name_Hall  '-P 2yn'
_symmetry_space_group_name_H-M   'P 1 21/n 1'
_atom_sites_solution_hydrogens   geom
_atom_sites_solution_primary     direct
_atom_sites_solution_secondary   difmap
_audit_creation_method           SHELXL97
_cell_angle_alpha                90.00
_cell_angle_beta                 92.600(2)
_cell_angle_gamma                90.00
_cell_formula_units_Z            4
_cell_length_a                   9.0551(19)
_cell_length_b                   6.7287(14)
_cell_length_c                   13.120(3)
_cell_measurement_reflns_used    6093
_cell_measurement_temperature    100(2)
_cell_measurement_theta_max      28.33
_cell_measurement_theta_min      4.04
_cell_volume                     798.6(3)
_computing_cell_refinement       'SAINT (Bruker, 2005)'
_computing_data_collection       'APEX2 (Bruker, 2005)'
_computing_data_reduction        'SAINT (Bruker, 2005)'
_computing_molecular_graphics    'SHELXTL (Sheldrick, 2008)'
_computing_publication_material  'SHELXTL (Sheldrick, 2008)'
_computing_structure_refinement  'SHELXL97 (Sheldrick, 2008)'
_computing_structure_solution    'SHELXS97 (Sheldrick, 2008)'
_diffrn_ambient_temperature      100(2)
_diffrn_measured_fraction_theta_full 0.991
_diffrn_measured_fraction_theta_max 0.991
_diffrn_measurement_device_type  'Bruker APEXII CCD area-detector'
_diffrn_measurement_method       '\f and \w scans'
_diffrn_radiation_monochromator  graphite
_diffrn_radiation_source         'fine-focus sealed tube'
_diffrn_radiation_type           MoK\a
_diffrn_radiation_wavelength     0.71073
_diffrn_reflns_av_R_equivalents  0.0785
_diffrn_reflns_av_sigmaI/netI    0.0616
_diffrn_reflns_limit_h_max       11
_diffrn_reflns_limit_h_min       -12
_diffrn_reflns_limit_k_max       8
_diffrn_reflns_limit_k_min       -8
_diffrn_reflns_limit_l_max       17
_diffrn_reflns_limit_l_min       -17
_diffrn_reflns_number            9032
_diffrn_reflns_theta_full        28.33
_diffrn_reflns_theta_max         28.33
_diffrn_reflns_theta_min         3.77
_exptl_absorpt_coefficient_mu    0.092
_exptl_absorpt_correction_T_max  0.9954
_exptl_absorpt_correction_T_min  0.9819
_exptl_absorpt_correction_type   multi-scan
_exptl_absorpt_process_details   '(SADABS; Bruker, 2005)'
_exptl_crystal_colour            yellow
_exptl_crystal_density_diffrn    1.407
_exptl_crystal_density_method    'not measured'
_exptl_crystal_description       platelet
_exptl_crystal_F_000             352
_exptl_crystal_size_max          0.20
_exptl_crystal_size_mid          0.10
_exptl_crystal_size_min          0.05
_refine_diff_density_max         0.447
_refine_diff_density_min         -0.265
_refine_ls_extinction_method     none
_refine_ls_goodness_of_fit_ref   1.093
_refine_ls_hydrogen_treatment    constr
_refine_ls_matrix_type           full
_refine_ls_number_parameters     138
_refine_ls_number_reflns         1969
_refine_ls_number_restraints     0
_refine_ls_restrained_S_all      1.093
_refine_ls_R_factor_all          0.0635
_refine_ls_R_factor_gt           0.0580
_refine_ls_shift/su_max          0.002
_refine_ls_shift/su_mean         0.000
_refine_ls_structure_factor_coef Fsqd
_refine_ls_weighting_details
'calc w = 1/[\s^2^(Fo^2^)+(0.1076P)^2^+0.0449P] where P=(Fo^2^+2Fc^2^)/3'
_refine_ls_weighting_scheme      calc
_refine_ls_wR_factor_gt          0.1578
_refine_ls_wR_factor_ref         0.1640
_reflns_number_gt                1700
_reflns_number_total             1969
_reflns_threshold_expression     I>2\s(I)
_iucr_refine_instructions_details
;
TITL mav110s in P2(1)/n
CELL 0.71073   9.0551   6.7287  13.1196  90.000  92.600  90.000
ZERR    4.00   0.0019   0.0014   0.0027   0.000   0.002   0.000
LATT 1
SYMM 0.5-X, 0.5+Y, 0.5-Z
SFAC C  H  N  O
UNIT 44 28 4 4
L.S. 6
BOND $H
ACTA
FMAP 2
PLAN -10
size .2 .1 .05
htab
conf
TEMP -173
mpla 10 C2 C3 C4 C5 C6 C7 C8 C9 C10 C11 C1 O1 N1 N1A O1A
mpla 10 C2_$1 C3_$1 C4_$1 C5_$1 C6_$1 C7_$1 C8_$1 C9_$1 C10_$1 C11_$1
mpla 10 C2_$2 C3_$2 C4_$2 C5_$2 C6_$2 C7_$2 C8_$2 C9_$2 C10_$2 C11_$2
EQIV $1 -x, -y, 1.0-z
EQIV $2 -0.5-x, 0.5+y, 0.5-z
WGHT    0.107600    0.044900
FVAR       0.21443   0.91232
PART 1
SAME O1A > H11A
O1    4    0.166586    0.130838    0.556953    21.00000    0.02446    0.02432 =
         0.02342    0.00374    0.00144    0.00063
C1    1    0.129315    0.241814    0.486034    21.00000    0.01783    0.02148 =
         0.01833   -0.00106    0.00399    0.00041
N1    3    0.014909    0.207207    0.414818    21.00000    0.01879    0.02257 =
         0.02063    0.00339    0.00138   -0.00161
AFIX  43
H1N   2   -0.041248    0.100418    0.413470    21.00000   -1.20000
AFIX   0
C2    1    0.000090    0.364899    0.344899    21.00000    0.01775    0.02399 =
         0.02054    0.00079    0.00788    0.00183
C3    1    0.111747    0.504015    0.372399    21.00000    0.01596    0.02233 =
         0.02028   -0.00108    0.00799    0.00167
C4    1    0.194712    0.435617    0.457323    21.00000    0.01859    0.02030 =
         0.01802   -0.00014    0.00796    0.00194
C5    1    0.310643    0.548550    0.496428    21.00000    0.02226    0.02621 =
         0.01878   -0.00217    0.00491   -0.00042
AFIX  43
H5    2    0.368910    0.507032    0.554608    21.00000   -1.20000
AFIX   0
C6    1    0.339067    0.730143    0.445686    21.00000    0.02531    0.02498 =
         0.02304   -0.00224    0.00802   -0.00632
AFIX  43
H6    2    0.419723    0.809633    0.470319    21.00000   -1.20000
AFIX   0
C7    1    0.254123    0.796719    0.361594    21.00000    0.02608    0.02367 =
         0.02048    0.00156    0.00881   -0.00081
AFIX  43
H7    2    0.276656    0.920401    0.331024    21.00000   -1.20000
AFIX   0
C8    1    0.134649    0.682118    0.321221    21.00000    0.01910    0.02257 =
         0.01771    0.00127    0.00952    0.00239
C9    1    0.035985    0.723250    0.235692    21.00000    0.02287    0.02617 =
         0.02022    0.00577    0.00805    0.00514
AFIX  43
H9    2    0.044763    0.843021    0.198107    21.00000   -1.20000
AFIX   0
C10   1   -0.072560    0.585867    0.208469    21.00000    0.02083    0.03238 =
         0.02171    0.00519    0.00556    0.00433
AFIX  43
H10   2   -0.136554    0.614122    0.150909    21.00000   -1.20000
AFIX   0
C11   1   -0.093898    0.402910    0.262370    21.00000    0.01883    0.02991 =
         0.02321    0.00279    0.00550   -0.00109
AFIX  43
H11   2   -0.169882    0.312217    0.241686    21.00000   -1.20000
AFIX   6
PART 2
O1A   4   -0.110071    0.061226    0.381873   -21.00000    0.03298
C1A   1   -0.026792    0.209380    0.390770   -21.00000    0.02604
N1A   3    0.086578    0.219848    0.458884   -21.00000    0.01486
H1NA  2    0.110934    0.123892    0.502013   -21.00000   -1.20000
C2A   1    0.162032    0.398961    0.454257   -21.00000    0.04407
C3A   1    0.093463    0.500440    0.369393   -21.00000    0.02547
C4A   1   -0.021211    0.385330    0.323092   -21.00000    0.03411
C5A   1   -0.097606    0.465285    0.241629   -21.00000    0.03467
H5A   2   -0.177049    0.396835    0.207353   -21.00000   -1.20000
C6A   1   -0.052564    0.654767    0.210933   -21.00000    0.04454
H6A   2   -0.109690    0.718447    0.157907   -21.00000   -1.20000
C7A   1    0.065308    0.752327    0.251087   -21.00000    0.08768
H7A   2    0.091486    0.875991    0.221990   -21.00000   -1.20000
C8A   1    0.151053    0.679640    0.333836   -21.00000    0.04922
C9A   1    0.274296    0.774083    0.387620   -21.00000    0.01765
H9A   2    0.311122    0.900949    0.369669   -21.00000   -1.20000
C10A  1    0.332764    0.664500    0.466388   -21.00000    0.02245
H10A  2    0.416530    0.718172    0.502921   -21.00000   -1.20000
C11A  1    0.281481    0.480370    0.498818   -21.00000    0.04103
H11A  2    0.332708    0.412894    0.553320   -21.00000   -1.20000
HKLF 4
REM  mav110s in P2(1)/n
REM R1 =  0.0580 for   1700 Fo > 4sig(Fo)  and  0.0635 for all   1969 data
REM    138 parameters refined using      0 restraints
END
WGHT      0.1079      0.0447
REM Highest difference peak  0.447,  deepest hole -0.265,  1-sigma level  0.077
Q1    1   0.0365  0.4672  0.3591  11.00000  0.05    0.45
Q2    1   0.1628  0.4917  0.4152  11.00000  0.05    0.41
Q3    1   0.1165  0.5961  0.3550  11.00000  0.05    0.37
Q4    1   0.0819  0.6991  0.2783  11.00000  0.05    0.35
Q5    1   0.1773  0.7634  0.3460  11.00000  0.05    0.34
Q6    1   0.0072  0.6068  0.2541  11.00000  0.05    0.32
Q7    1   0.0000  0.0000  0.5000  10.50000  0.05    0.29
Q8    1   0.1952  0.3198  0.4878  11.00000  0.05    0.28
Q9    1   0.2743  0.4567  0.4647  11.00000  0.05    0.26
Q10   1   0.1080  0.0359  0.5203  11.00000  0.05    0.25
;
_cod_data_source_file            qs3004.cif
_cod_data_source_block           Ic100K
_cod_original_cell_volume        798.5(3)
_cod_original_sg_symbol_H-M      'P 21/n'
_cod_database_code               2018353
_cod_database_fobs_code          2018353
loop_
_symmetry_equiv_pos_as_xyz
'x, y, z'
'-x+1/2, y+1/2, -z+1/2'
'-x, -y, -z'
'x-1/2, -y-1/2, z-1/2'
loop_
_atom_site_type_symbol
_atom_site_label
_atom_site_fract_x
_atom_site_fract_y
_atom_site_fract_z
_atom_site_U_iso_or_equiv
_atom_site_adp_type
_atom_site_calc_flag
_atom_site_refinement_flags
_atom_site_occupancy
_atom_site_symmetry_multiplicity
_atom_site_disorder_assembly
_atom_site_disorder_group
O O1 0.16659(11) 0.13084(14) 0.55695(7) 0.0241(3) Uani d P 0.912(3) 1 A 1
C C1 0.12932(18) 0.2418(2) 0.48603(11) 0.0191(3) Uani d P 0.912(3) 1 A 1
N N1 0.01491(17) 0.20721(17) 0.41482(10) 0.0206(3) Uani d P 0.912(3) 1 A 1
H H1N -0.0412 0.1004 0.4135 0.025 Uiso calc PR 0.912(3) 1 A 1
C C2 0.0001(2) 0.3649(2) 0.34490(18) 0.0205(4) Uani d P 0.912(3) 1 A 1
C C3 0.1117(4) 0.5040(2) 0.37240(12) 0.0193(9) Uani d P 0.912(3) 1 A 1
C C4 0.1947(2) 0.4356(3) 0.45732(10) 0.0188(3) Uani d P 0.912(3) 1 A 1
C C5 0.31064(16) 0.5485(3) 0.49643(10) 0.0223(3) Uani d P 0.912(3) 1 A 1
H H5 0.3689 0.5070 0.5546 0.027 Uiso calc PR 0.912(3) 1 A 1
C C6 0.33907(17) 0.7301(3) 0.44569(11) 0.0242(4) Uani d P 0.912(3) 1 A 1
H H6 0.4197 0.8096 0.4703 0.029 Uiso calc PR 0.912(3) 1 A 1
C C7 0.2541(2) 0.7967(2) 0.36159(16) 0.0232(4) Uani d P 0.912(3) 1 A 1
H H7 0.2767 0.9204 0.3310 0.028 Uiso calc PR 0.912(3) 1 A 1
C C8 0.1346(3) 0.6821(2) 0.32122(18) 0.0195(6) Uani d P 0.912(3) 1 A 1
C C9 0.0360(2) 0.7232(3) 0.23569(13) 0.0229(4) Uani d P 0.912(3) 1 A 1
H H9 0.0448 0.8430 0.1981 0.027 Uiso calc PR 0.912(3) 1 A 1
C C10 -0.07256(17) 0.5859(3) 0.20847(10) 0.0248(4) Uani d P 0.912(3) 1 A 1
H H10 -0.1366 0.6141 0.1509 0.030 Uiso calc PR 0.912(3) 1 A 1
C C11 -0.09390(16) 0.4029(3) 0.26237(12) 0.0238(3) Uani d P 0.912(3) 1 A 1
H H11 -0.1699 0.3122 0.2417 0.029 Uiso calc PR 0.912(3) 1 A 1
O O1A -0.1101(10) 0.0612(11) 0.3819(7) 0.033(3) Uiso d PG 0.088(3) 1 A 2
C C1A -0.0268(8) 0.2094(10) 0.3908(6) 0.026(5) Uiso d PG 0.088(3) 1 A 2
N N1A 0.0866(9) 0.2198(11) 0.4589(6) 0.015(3) Uiso d PG 0.088(3) 1 A 2
H H1NA 0.1109 0.1239 0.5020 0.018 Uiso d PG 0.088(3) 1 A 2
C C2A 0.1620(8) 0.3990(11) 0.4543(6) 0.044(11) Uiso d PG 0.088(3) 1 A 2
C C3A 0.0935(9) 0.5004(10) 0.3694(6) 0.025(12) Uiso d PG 0.088(3) 1 A 2
C C4A -0.0212(9) 0.3853(11) 0.3231(6) 0.034(9) Uiso d PG 0.088(3) 1 A 2
C C5A -0.0976(13) 0.4653(15) 0.2416(8) 0.035(6) Uiso d PG 0.088(3) 1 A 2
H H5A -0.1770 0.3968 0.2074 0.042 Uiso d PG 0.088(3) 1 A 2
C C6A -0.0526(16) 0.6548(17) 0.2109(9) 0.045(8) Uiso d PG 0.088(3) 1 A 2
H H6A -0.1097 0.7184 0.1579 0.053 Uiso d PG 0.088(3) 1 A 2
C C7A 0.0653(16) 0.7523(14) 0.2511(9) 0.088(18) Uiso d PG 0.088(3) 1 A 2
H H7A 0.0915 0.8760 0.2220 0.105 Uiso d PG 0.088(3) 1 A 2
C C8A 0.1511(12) 0.6796(11) 0.3338(8) 0.049(15) Uiso d PG 0.088(3) 1 A 2
C C9A 0.2743(13) 0.7741(13) 0.3876(10) 0.018(5) Uiso d PG 0.088(3) 1 A 2
H H9A 0.3111 0.9009 0.3697 0.021 Uiso d PG 0.088(3) 1 A 2
C C10A 0.3328(11) 0.6645(16) 0.4664(9) 0.022(4) Uiso d PG 0.088(3) 1 A 2
H H10A 0.4165 0.7182 0.5029 0.027 Uiso d PG 0.088(3) 1 A 2
C C11A 0.2815(10) 0.4804(15) 0.4988(8) 0.041(6) Uiso d PG 0.088(3) 1 A 2
H H11A 0.3327 0.4129 0.5533 0.049 Uiso d PG 0.088(3) 1 A 2
loop_
_atom_site_aniso_label
_atom_site_aniso_U_11
_atom_site_aniso_U_22
_atom_site_aniso_U_33
_atom_site_aniso_U_12
_atom_site_aniso_U_13
_atom_site_aniso_U_23
O1 0.0245(6) 0.0243(5) 0.0234(5) 0.0006(4) 0.0014(4) 0.0037(4)
C1 0.0178(8) 0.0215(7) 0.0183(6) 0.0004(5) 0.0040(6) -0.0011(5)
N1 0.0188(7) 0.0226(6) 0.0206(6) -0.0016(4) 0.0014(6) 0.0034(4)
C2 0.0178(7) 0.0240(8) 0.0205(7) 0.0018(5) 0.0079(6) 0.0008(6)
C3 0.0160(8) 0.0223(13) 0.0203(11) 0.0017(4) 0.0080(5) -0.0011(5)
C4 0.0186(7) 0.0203(6) 0.0180(7) 0.0019(7) 0.0080(5) -0.0001(5)
C5 0.0223(7) 0.0262(8) 0.0188(6) -0.0004(6) 0.0049(5) -0.0022(5)
C6 0.0253(8) 0.0250(8) 0.0230(7) -0.0063(5) 0.0080(6) -0.0022(6)
C7 0.0261(9) 0.0237(8) 0.0205(8) -0.0008(6) 0.0088(7) 0.0016(6)
C8 0.0191(8) 0.0226(10) 0.0177(6) 0.0024(5) 0.0095(5) 0.0013(5)
C9 0.0229(8) 0.0262(7) 0.0202(6) 0.0051(6) 0.0081(6) 0.0058(5)
C10 0.0208(8) 0.0324(10) 0.0217(7) 0.0043(6) 0.0056(5) 0.0052(6)
C11 0.0188(7) 0.0299(8) 0.0232(7) -0.0011(5) 0.0055(5) 0.0028(7)
loop_
_atom_type_symbol
_atom_type_description
_atom_type_scat_dispersion_real
_atom_type_scat_dispersion_imag
_atom_type_scat_source
C C 0.0033 0.0016 'International Tables Vol C Tables 4.2.6.8 and 6.1.1.4'
H H 0.0000 0.0000 'International Tables Vol C Tables 4.2.6.8 and 6.1.1.4'
N N 0.0061 0.0033 'International Tables Vol C Tables 4.2.6.8 and 6.1.1.4'
O O 0.0106 0.0060 'International Tables Vol C Tables 4.2.6.8 and 6.1.1.4'
loop_
_geom_angle_atom_site_label_1
_geom_angle_atom_site_label_2
_geom_angle_atom_site_label_3
_geom_angle
_geom_angle_publ_flag
O1 C1 N1 125.53(14) no
O1 C1 C4 128.74(16) no
N1 C1 C4 105.73(12) no
C1 N1 C2 111.12(13) no
C1 N1 H1N 124.4 no
C2 N1 H1N 124.4 no
C11 C2 N1 133.96(15) no
C11 C2 C3 119.32(18) no
N1 C2 C3 106.7(2) no
C4 C3 C8 125.6(3) no
C4 C3 C2 109.82(18) no
C8 C3 C2 124.5(3) no
C5 C4 C3 119.35(18) no
C5 C4 C1 134.05(13) no
C3 C4 C1 106.59(19) no
C4 C5 C6 116.85(13) no
C4 C5 H5 121.6 no
C6 C5 H5 121.6 no
C7 C6 C5 122.93(13) no
C7 C6 H6 118.5 no
C5 C6 H6 118.5 no
C6 C7 C8 120.58(17) no
C6 C7 H7 119.7 no
C8 C7 H7 119.7 no
C3 C8 C7 114.7(3) no
C3 C8 C9 116.3(2) no
C7 C8 C9 129.03(17) no
C10 C9 C8 118.98(13) no
C10 C9 H9 120.5 no
C8 C9 H9 120.5 no
C9 C10 C11 123.70(13) no
C9 C10 H10 118.2 no
C11 C10 H10 118.2 no
C2 C11 C10 117.13(14) no
C2 C11 H11 121.4 no
C10 C11 H11 121.4 no
O1A C1A N1A 123.2 no
O1A C1A C4A 128.1 no
N1A C1A C4A 108.3 no
C1A N1A C2A 112.5 no
C1A N1A H1NA 123.8 no
C2A N1A H1NA 123.8 no
C11A C2A N1A 137.2 no
C11A C2A C3A 117.7 no
N1A C2A C3A 104.6 no
C8A C3A C4A 127.3 no
C8A C3A C2A 121.1 no
C4A C3A C2A 111.1 no
C5A C4A C3A 117.4 no
C5A C4A C1A 139.3 no
C3A C4A C1A 103.0 no
C4A C5A C6A 116.2 no
C4A C5A H5A 121.9 no
C6A C5A H5A 121.9 no
C7A C6A C5A 124.7 no
C7A C6A H6A 117.7 no
C5A C6A H6A 117.7 no
C6A C7A C8A 122.7 no
C6A C7A H7A 118.7 no
C8A C7A H7A 118.7 no
C7A C8A C3A 111.0 no
C7A C8A C9A 128.2 no
C3A C8A C9A 120.5 no
C10A C9A C8A 113.6 no
C10A C9A H9A 123.2 no
C8A C9A H9A 123.2 no
C9A C10A C11A 126.2 no
C9A C10A H10A 116.9 no
C11A C10A H10A 116.9 no
C2A C11A C10A 120.6 no
C2A C11A H11A 119.7 no
C10A C11A H11A 119.7 no
loop_
_geom_bond_atom_site_label_1
_geom_bond_atom_site_label_2
_geom_bond_distance
_geom_bond_publ_flag
O1 C1 1.2283(17) yes
C1 N1 1.383(2) yes
C1 C4 1.488(3) yes
N1 C2 1.405(3) yes
N1 H1N 0.8800 no
C2 C11 1.371(3) no
C2 C3 1.413(3) yes
C3 C4 1.393(3) yes
C3 C8 1.394(2) no
C4 C5 1.376(3) no
C5 C6 1.421(2) no
C5 H5 0.9500 no
C6 C7 1.390(3) no
C6 H6 0.9500 no
C7 C8 1.412(3) no
C7 H7 0.9500 no
C8 C9 1.429(3) no
C9 C10 1.384(3) no
C9 H9 0.9500 no
C10 C11 1.437(2) no
C10 H10 0.9500 no
C11 H11 0.9500 no
O1A C1A 1.25 yes
C1A N1A 1.33 yes
C1A C4A 1.48 yes
N1A C2A 1.39 yes
N1A H1NA 0.8800 no
C2A C11A 1.32 no
C2A C3A 1.42 yes
C3A C8A 1.40 no
C3A C4A 1.41 yes
C4A C5A 1.36 no
C5A C6A 1.40 no
C5A H5A 0.9500 no
C6A C7A 1.34 no
C6A H6A 0.9500 no
C7A C8A 1.39 no
C7A H7A 0.9500 no
C8A C9A 1.44 no
C9A C10A 1.36 no
C9A H9A 0.9500 no
C10A C11A 1.40 no
C10A H10A 0.9500 no
C11A H11A 0.9500 no
loop_
_geom_torsion_atom_site_label_1
_geom_torsion_atom_site_label_2
_geom_torsion_atom_site_label_3
_geom_torsion_atom_site_label_4
_geom_torsion
_geom_torsion_publ_flag
O1 C1 N1 C2 179.08(12) no
C4 C1 N1 C2 -1.40(14) no
C1 N1 C2 C11 -179.60(14) no
C1 N1 C2 C3 0.89(15) no
C11 C2 C3 C4 -179.55(12) no
N1 C2 C3 C4 0.05(16) no
C11 C2 C3 C8 0.2(2) no
N1 C2 C3 C8 179.77(14) no
C8 C3 C4 C5 -0.2(2) no
C2 C3 C4 C5 179.50(12) no
C8 C3 C4 C1 179.40(14) no
C2 C3 C4 C1 -0.88(16) no
O1 C1 C4 C5 0.4(2) no
N1 C1 C4 C5 -179.07(13) no
O1 C1 C4 C3 -179.12(14) no
N1 C1 C4 C3 1.38(14) no
C3 C4 C5 C6 -0.60(19) no
C1 C4 C5 C6 179.90(13) no
C4 C5 C6 C7 1.2(2) no
C5 C6 C7 C8 -1.0(2) no
C4 C3 C8 C7 0.4(2) no
C2 C3 C8 C7 -179.24(13) no
C4 C3 C8 C9 -179.91(14) no
C2 C3 C8 C9 0.4(2) no
C6 C7 C8 C3 0.19(19) no
C6 C7 C8 C9 -179.40(13) no
C3 C8 C9 C10 -0.89(19) no
C7 C8 C9 C10 178.70(13) no
C8 C9 C10 C11 0.9(2) no
N1 C2 C11 C10 -179.72(13) no
C3 C2 C11 C10 -0.26(19) no
C9 C10 C11 C2 -0.3(2) no
O1A C1A N1A C2A -179.8 no
C4A C1A N1A C2A 7.5 no
C1A N1A C2A C11A -176.1 no
C1A N1A C2A C3A -4.7 no
C11A C2A C3A C8A 0.4 no
N1A C2A C3A C8A -172.9 no
C11A C2A C3A C4A 173.2 no
N1A C2A C3A C4A -0.1 no
C8A C3A C4A C5A -8.5 no
C2A C3A C4A C5A 179.2 no
C8A C3A C4A C1A 176.5 no
C2A C3A C4A C1A 4.2 no
O1A C1A C4A C5A 7.6 no
N1A C1A C4A C5A 179.8 no
O1A C1A C4A C3A -179.2 no
N1A C1A C4A C3A -7.0 no
C3A C4A C5A C6A 0.9 no
C1A C4A C5A C6A 173.4 no
C4A C5A C6A C7A 5.3 no
C5A C6A C7A C8A -4.6 no
C6A C7A C8A C3A -2.3 no
C6A C7A C8A C9A -176.1 no
C4A C3A C8A C7A 9.0 no
C2A C3A C8A C7A -179.5 no
C4A C3A C8A C9A -176.7 no
C2A C3A C8A C9A -5.1 no
C7A C8A C9A C10A 178.9 no
C3A C8A C9A C10A 5.7 no
C8A C9A C10A C11A -2.1 no
N1A C2A C11A C10A 173.8 no
C3A C2A C11A C10A 3.3 no
C9A C10A C11A C2A -2.5 no
