#------------------------------------------------------------------------------
#$Date: 2017-10-13 03:48:21 +0300 (Fri, 13 Oct 2017) $
#$Revision: 201957 $
#$URL: file:///home/coder/svn-repositories/cod/cif/2/01/86/2018672.cif $
#------------------------------------------------------------------------------
#
# This file is available in the Crystallography Open Database (COD),
# http://www.crystallography.net/. The original data for this entry
# were provided by IUCr Journals, http://journals.iucr.org/.
#
# The file may be used within the scientific community so long as
# proper attribution is given to the journal article from which the
# data were obtained.
#
data_2018672
loop_
_publ_author_name
'Igawa, Kosuke'
'Yoshinari, Nobuto'
'Konno, Takumi'
_publ_section_title
;
 An optically resolved crystal of thiomalate:
 (<i>S</i>)-1-phenylethanaminium (<i>R</i>)-thiomalate
;
_journal_coeditor_code           UK3047
_journal_issue                   9
_journal_name_full               'Acta Crystallographica Section C'
_journal_page_first              o332
_journal_page_last               o334
_journal_paper_doi               10.1107/S0108270112032933
_journal_volume                  68
_journal_year                    2012
_chemical_formula_iupac          'C8 H12 N +, C4 H5 O4 S -'
_chemical_formula_moiety         'C8 H12 N +, C4 H5 O4 S -'
_chemical_formula_sum            'C12 H17 N O4 S'
_chemical_formula_weight         271.33
_chemical_name_common
'(<i>S</i>)-1-phenylethanaminium (<i>R</i>)-thiomalate'
_chemical_name_systematic
'(<i>S</i>)-1-phenylethanaminium (<i>R</i>)-3-carboxy-2-sulfanylpropanoate'
_space_group_IT_number           4
_symmetry_cell_setting           monoclinic
_symmetry_space_group_name_Hall  'P 2yb'
_symmetry_space_group_name_H-M   'P 1 21 1'
_atom_sites_solution_hydrogens   geom
_atom_sites_solution_primary     direct
_atom_sites_solution_secondary   difmap
_audit_creation_method           SHELXL-97
_cell_angle_alpha                90.00
_cell_angle_beta                 92.760(2)
_cell_angle_gamma                90.00
_cell_formula_units_Z            2
_cell_length_a                   9.0547(7)
_cell_length_b                   8.2304(5)
_cell_length_c                   9.3016(7)
_cell_measurement_reflns_used    4466
_cell_measurement_temperature    200(2)
_cell_measurement_theta_max      27.46
_cell_measurement_theta_min      3.06
_cell_volume                     692.39(9)
_computing_cell_refinement       'RAPID-AUTO (Rigaku, 2000)'
_computing_data_collection       'RAPID-AUTO (Rigaku, 2000)'
_computing_data_reduction        'RAPID-AUTO (Rigaku, 2000)'
_computing_molecular_graphics
'Yadokari-XG 2009 (Kabuto <i>et al.</i>, 2009)'
_computing_publication_material
'Yadokari-XG 2009 (Kabuto <i>et al.</i>, 2009)'
_computing_structure_refinement  'SHELXL97 (Sheldrick, 2008)'
_computing_structure_solution    'SIR92 (Altomare <i>et al.</i>, 1994)'
_diffrn_ambient_temperature      200(2)
_diffrn_detector_area_resol_mean 10.000
_diffrn_measured_fraction_theta_full 0.998
_diffrn_measured_fraction_theta_max 0.998
_diffrn_measurement_device_type  'Rigaku R-AXIS RAPID'
_diffrn_measurement_method       \w
_diffrn_radiation_source         'rotating-anode X-ray tube'
_diffrn_radiation_type           MoK\a
_diffrn_radiation_wavelength     0.71075
_diffrn_reflns_av_R_equivalents  0.0342
_diffrn_reflns_av_sigmaI/netI    0.0445
_diffrn_reflns_limit_h_max       11
_diffrn_reflns_limit_h_min       -11
_diffrn_reflns_limit_k_max       10
_diffrn_reflns_limit_k_min       -10
_diffrn_reflns_limit_l_max       12
_diffrn_reflns_limit_l_min       -12
_diffrn_reflns_number            6800
_diffrn_reflns_theta_full        27.46
_diffrn_reflns_theta_max         27.46
_diffrn_reflns_theta_min         3.07
_exptl_absorpt_coefficient_mu    0.240
_exptl_absorpt_correction_T_max  0.988
_exptl_absorpt_correction_T_min  0.788
_exptl_absorpt_correction_type   multi-scan
_exptl_absorpt_process_details   '(ABSCOR; Rigaku, 1995)'
_exptl_crystal_colour            colourless
_exptl_crystal_density_diffrn    1.301
_exptl_crystal_density_method    'not measured'
_exptl_crystal_description       platelet
_exptl_crystal_F_000             288
_exptl_crystal_size_max          0.30
_exptl_crystal_size_mid          0.15
_exptl_crystal_size_min          0.05
_refine_diff_density_max         0.398
_refine_diff_density_min         -0.257
_refine_ls_abs_structure_details 'Flack (1983), 1408 Friedel pairs'
_refine_ls_abs_structure_Flack   0.07(8)
_refine_ls_extinction_coef       0
_refine_ls_extinction_method     none
_refine_ls_goodness_of_fit_ref   1.117
_refine_ls_hydrogen_treatment    mixed
_refine_ls_matrix_type           full
_refine_ls_number_constraints    0
_refine_ls_number_parameters     179
_refine_ls_number_reflns         3100
_refine_ls_number_restraints     4
_refine_ls_restrained_S_all      1.118
_refine_ls_R_factor_all          0.0510
_refine_ls_R_factor_gt           0.0414
_refine_ls_shift/su_max          0.000
_refine_ls_shift/su_mean         0.000
_refine_ls_structure_factor_coef Fsqd
_refine_ls_weighting_details
'calc w=1/[\s^2^(Fo^2^)+(0.0561P)^2^+0.0510P] where P=(Fo^2^+2Fc^2^)/3'
_refine_ls_weighting_scheme      calc
_refine_ls_wR_factor_gt          0.0942
_refine_ls_wR_factor_ref         0.1066
_reflns_number_gt                2723
_reflns_number_total             3100
_reflns_threshold_expression     I>2\s(I)
_iucr_refine_instructions_details
;
TITL
REM  Yadorkari-X generated
CELL 0.71075 9.0547 8.2304 9.3016 90.0000 92.7600 90.0000
ZERR 2.0 0.0007 0.0005 0.0007 0.0000 0.0020 0.0000
LATT -1
SYMM -X, 1/2+Y, -Z
REM  SPGR P21 monoclinic
SFAC S N O C H
UNIT 2 2 8 24 34
SIZE 0.30 0.15 0.05
TEMP -73.0
L.S. 15
FMAP 2
PLAN -100
ACTA
CONF
HTAB
WPDB -1
BOND $H
EQIV $1 1-X, 1/2+Y, 1-Z
EQIV $2 -X, -1/2+Y, 1-Z
EQIV $3 -X, 1/2+Y, 1-Z
EQIV $4 +X, 1+Y, +Z
EQIV $5 -X, -1/2+Y, -Z
HTAB S1 O2_$1
HTAB O1 O3_$2
HTAB O1 O4_$2
HTAB N1 O4
HTAB N1 O3_$3
HTAB N1 O2_$4
DFIX 0.89 0.02 N1 H1B N1 H1C N1 H1D
MPLA 6 C7 C8 C9 C10 C11 C12 C1_$3 H1E_$3 C6_$5 H6_$5
SHEL 99999.000000 0.000000
LIST 4
WGHT    0.056100    0.051000
FVAR       2.33523
S1    1    0.423049    0.383129    0.795598    11.00000    0.03597    0.06266 =
         0.03668   -0.00247   -0.00651   -0.00650
H1    5    0.497947    0.440268    0.699887    11.00000   -1.20000
O1    3    0.107768    0.149746    0.467213    11.00000    0.03120    0.03948 =
         0.04470   -0.00839   -0.00278    0.00061
H1A   5    0.041136    0.075822    0.417752    11.00000   -1.20000
O2    3    0.287258    0.013884    0.367376    11.00000    0.03845    0.07692 =
         0.09222   -0.05039    0.01514   -0.00912
O3    3    0.065539    0.462489    0.669083    11.00000    0.03224    0.03497 =
         0.04016    0.00117    0.00289    0.00343
O4    3    0.232753    0.523866    0.508887    11.00000    0.04013    0.04448 =
         0.04197    0.00792    0.00402    0.00040
N1    2    0.142634    0.720097    0.281869    11.00000    0.03798    0.03394 =
         0.03675   -0.00383    0.00422   -0.00405
H1B   5    0.154062    0.657746    0.366734    11.00000   -1.50000
H1C   5    0.055888    0.777258    0.283835    11.00000   -1.50000
H1D   5    0.220283    0.785620    0.286936    11.00000   -1.50000
C1    4    0.284478    0.301359    0.667531    11.00000    0.02734    0.03615 =
         0.03222   -0.00010   -0.00105   -0.00320
AFIX  13
H1E   5    0.220166    0.225514    0.720587    11.00000   -1.20000
AFIX   0
C2    4    0.354686    0.205593    0.549247    11.00000    0.02672    0.04016 =
         0.04509   -0.00310   -0.00026    0.00090
AFIX  23
H2    5    0.410753    0.281468    0.489839    11.00000   -1.20000
H2A   5    0.426091    0.127341    0.593987    11.00000   -1.20000
AFIX   0
C3    4    0.245691    0.113835    0.452365    11.00000    0.03243    0.03568 =
         0.04100   -0.00447    0.00546   -0.00286
C4    4    0.187543    0.440973    0.608571    11.00000    0.03036    0.03192 =
         0.03022   -0.00379   -0.00392   -0.00354
C5    4    0.260876    0.504197    0.146628    11.00000    0.04359    0.07402 =
         0.07455   -0.03541    0.02064   -0.00665
AFIX 137
H5    5    0.255694    0.429940    0.228591    11.00000   -1.50000
H5A   5    0.353749    0.565384    0.154780    11.00000   -1.50000
H5B   5    0.256764    0.441592    0.056904    11.00000   -1.50000
AFIX   0
C6    4    0.131311    0.621505    0.146024    11.00000    0.04944    0.04506 =
         0.03315   -0.00582    0.01168   -0.01232
AFIX  13
H6    5    0.139421    0.697066    0.062584    11.00000   -1.20000
AFIX   0
C7    4   -0.018895    0.541250    0.133737    11.00000    0.04209    0.03029 =
         0.02944   -0.00438    0.00357    0.00031
C8    4   -0.117896    0.581104    0.020889    11.00000    0.06157    0.03885 =
         0.03219   -0.00015   -0.00333   -0.00035
AFIX  43
H8    5   -0.089232    0.655515   -0.050701    11.00000   -1.20000
AFIX   0
C9    4   -0.258860    0.513235    0.011373    11.00000    0.05665    0.05436 =
         0.04493   -0.00597   -0.01771    0.00845
AFIX  43
H9    5   -0.326289    0.542576   -0.065670    11.00000   -1.20000
AFIX   0
C10   4   -0.300656    0.403349    0.113836    11.00000    0.03785    0.04698 =
         0.05588   -0.00984   -0.00208   -0.00155
AFIX  43
H10   5   -0.396985    0.357365    0.107689    11.00000   -1.20000
AFIX   0
C11   4   -0.202081    0.360338    0.225414    11.00000    0.04371    0.03693 =
         0.04571   -0.00066    0.00716   -0.00232
AFIX  43
H11   5   -0.230832    0.284420    0.295740    11.00000   -1.20000
AFIX   0
C12   4   -0.061619    0.427268    0.235302    11.00000    0.03823    0.03406 =
         0.03388    0.00137    0.00075    0.00315
AFIX  43
H12   5    0.006037    0.395631    0.311411    11.00000   -1.20000
HKLF 4 1 1 0 0 0 1 0 0 0 1
REM
REM R1 =  0.0414 for   2723 Fo > 4sig(Fo)  and  0.0510 for all   3100 data
REM    179 parameters refined using      4 restraints
END
WGHT      0.0561      0.0509
REM Highest difference peak  0.398,  deepest hole -0.257,  1-sigma level  0.084
Q1    1   0.3479  0.3111  0.7792  11.00000  0.05    0.40
Q2    1   0.3491  0.3688  0.7213  11.00000  0.05    0.40
Q3    1   0.0563  0.5754  0.1356  11.00000  0.05    0.39
Q4    1   0.4998  0.3856  0.7387  11.00000  0.05    0.37
Q5    1  -0.2070  0.5590  0.0372  11.00000  0.05    0.32
Q6    1   0.2402  0.3781  0.6366  11.00000  0.05    0.31
Q7    1  -0.0994 -0.0294  0.4009  11.00000  0.05    0.30
Q8    1   0.3133  0.2476  0.6080  11.00000  0.05    0.30
Q9    1  -0.2970  0.4464  0.0811  11.00000  0.05    0.29
Q10   1   0.2463  0.0503  0.3466  11.00000  0.05    0.28
Q11   1   0.1717  0.5118  0.5234  11.00000  0.05    0.28
Q12   1   0.1204  0.4424  0.6408  11.00000  0.05    0.28
Q13   1  -0.1218  0.3834  0.1874  11.00000  0.05    0.27
Q14   1   0.2838 -0.0104  0.4431  11.00000  0.05    0.27
Q15   1   0.3428  0.4526  0.7893  11.00000  0.05    0.27
Q16   1  -0.2463  0.3780  0.1607  11.00000  0.05    0.26
Q17   1   0.0012  0.5085  0.1270  11.00000  0.05    0.26
Q18   1   0.4150  0.4548  0.6961  11.00000  0.05    0.24
Q19   1   0.3645  0.3874  0.8708  11.00000  0.05    0.24
Q20   1  -0.0665  0.5778  0.0911  11.00000  0.05    0.23
Q21   1   0.1753  0.5812  0.1173  11.00000  0.05    0.23
Q22   1   0.2323 -0.0143  0.3427  11.00000  0.05    0.23
Q23   1  -0.3716  0.5252  0.0814  11.00000  0.05    0.22
Q24   1   0.1267  0.6635  0.2040  11.00000  0.05    0.22
Q25   1   0.2044  0.5799  0.4586  11.00000  0.05    0.22
Q26   1   0.2903  0.1622  0.5223  11.00000  0.05    0.22
Q27   1   0.1972  0.4978  0.1012  11.00000  0.05    0.22
Q28   1  -0.0372  0.4470  0.1997  11.00000  0.05    0.22
Q29   1   0.4078  0.4400  0.9010  11.00000  0.05    0.21
Q30   1   0.2271  0.4804  0.4640  11.00000  0.05    0.21
Q31   1  -0.3601  0.4421  0.0290  11.00000  0.05    0.20
Q32   1   0.1784  0.0971  0.4916  11.00000  0.05    0.20
Q33   1   0.0051  0.5414  0.0472  11.00000  0.05    0.19
Q34   1   0.5118  0.3816  0.8544  11.00000  0.05    0.18
Q35   1  -0.0161  0.0053  0.3592  11.00000  0.05    0.18
Q36   1   0.2548  0.2619  0.7437  11.00000  0.05    0.18
Q37   1   0.1710  0.1616  0.4357  11.00000  0.05    0.17
Q38   1   0.1589  0.1140  0.3928  11.00000  0.05    0.16
Q39   1  -0.3936  0.5916 -0.0096  11.00000  0.05    0.16
Q40   1  -0.3886  0.5447 -0.0400  11.00000  0.05    0.16
Q41   1   0.2722  0.4782  0.0586  11.00000  0.05    0.16
Q42   1  -0.0068  0.6350  0.0354  11.00000  0.05    0.16
Q43   1   0.3188  0.5233  0.5964  11.00000  0.05    0.15
Q44   1   0.3871  0.1790  0.5670  11.00000  0.05    0.15
Q45   1   0.2205  0.7374  0.2490  11.00000  0.05    0.15
Q46   1   0.4402  0.3248  0.9074  11.00000  0.05    0.15
Q47   1   0.6020  0.5462  0.6089  11.00000  0.05    0.14
Q48   1   0.1209  0.7923  0.2601  11.00000  0.05    0.13
Q49   1   0.4713  0.1682  0.5454  11.00000  0.05    0.13
Q50   1   0.2722  0.3927  0.0971  11.00000  0.05    0.12
Q51   1   0.2620  0.6726  0.3410  11.00000  0.05    0.11
Q52   1  -0.0749  0.0978  0.3653  11.00000  0.05    0.11
Q53   1   0.3503  0.5568  0.1970  11.00000  0.05    0.11
Q54   1  -0.1032  0.7140 -0.0328  11.00000  0.05    0.11
Q55   1   0.0799  0.7505  0.3186  11.00000  0.05    0.11
Q56   1   0.1740  0.2727  0.1224  11.00000  0.05    0.10
Q57   1   0.5528  0.4895  0.8914  11.00000  0.05    0.10
Q58   1  -0.0034  0.4656  0.8154  11.00000  0.05    0.10
Q59   1   0.2591  0.4073  0.2571  11.00000  0.05    0.10
Q60   1   0.5156  0.2016  0.9355  11.00000  0.05    0.10
Q61   1   0.1132  0.2506  0.2835  11.00000  0.05    0.10
Q62   1   0.2457  0.6755  0.1383  11.00000  0.05    0.10
Q63   1   0.4187  0.6497  0.4447  11.00000  0.05    0.10
Q64   1   0.4655  0.5250  0.6007  11.00000  0.05    0.10
Q65   1   0.2169  0.2444  0.5018  11.00000  0.05    0.09
Q66   1   0.4062  0.2541  0.8583  11.00000  0.05    0.09
Q67   1   0.1231  0.0325  0.5710  11.00000  0.05    0.09
Q68   1   0.1111  0.0261  0.3340  11.00000  0.05    0.09
Q69   1   0.2064 -0.1390  0.1976  11.00000  0.05    0.09
Q70   1   0.2387  0.3360  0.1867  11.00000  0.05    0.09
Q71   1  -0.1557  0.4888  0.3384  11.00000  0.05    0.09
Q72   1   0.0330 -0.0313  0.2724  11.00000  0.05    0.09
Q73   1   0.5074  0.0927  0.4567  11.00000  0.05    0.09
Q74   1  -0.0423  0.3380  0.3313  11.00000  0.05    0.09
Q75   1   0.5019  0.0886  0.6273  11.00000  0.05    0.09
Q76   1   0.3298  0.3830  0.9789  11.00000  0.05    0.09
Q77   1   0.3512  0.5917  0.0910  11.00000  0.05    0.09
Q78   1   0.3330  0.7221  0.0612  11.00000  0.05    0.09
Q79   1  -0.4235  0.2736  0.0150  11.00000  0.05    0.09
Q80   1   0.1992  0.7218 -0.0527  11.00000  0.05    0.09
Q81   1   0.1232  0.7996  0.3803  11.00000  0.05    0.08
Q82   1   0.3020 -0.1334  0.4612  11.00000  0.05    0.08
Q83   1   0.4858  0.4775  0.2307  11.00000  0.05    0.08
Q84   1   0.4370  0.4173  0.3422  11.00000  0.05    0.08
Q85   1   0.0492  0.1002  0.5244  11.00000  0.05    0.08
Q86   1   0.5448  0.4640  0.6403  11.00000  0.05    0.08
Q87   1   0.0300  0.2656  0.4414  11.00000  0.05    0.08
Q88   1  -0.2466  0.2224  0.2349  11.00000  0.05    0.08
Q89   1   0.4366  0.2709  0.5658  11.00000  0.05    0.08
Q90   1  -0.1168  0.7254  0.0664  11.00000  0.05    0.08
Q91   1  -0.1515  0.6757 -0.0771  11.00000  0.05    0.08
Q92   1   0.2248  0.0300  0.5619  11.00000  0.05    0.08
Q93   1   0.3049  0.7603  0.4374  11.00000  0.05    0.08
Q94   1   0.4646  0.0082  0.6951  11.00000  0.05    0.08
Q95   1  -0.0459  0.6540 -0.0834  11.00000  0.05    0.07
Q96   1   0.4559  0.2403  0.5944  11.00000  0.05    0.07
Q97   1   0.1732  0.6397 -0.0510  11.00000  0.05    0.07
Q98   1   0.0549  0.2967  0.3205  11.00000  0.05    0.07
Q99   1   0.3199  0.4654  0.9183  11.00000  0.05    0.07
Q100  1  -0.0386  0.4514  0.3337  11.00000  0.05    0.07
;
_cod_data_source_file            uk3047.cif
_cod_data_source_block           I
_cod_original_sg_symbol_H-M      'P 21'
_cod_database_code               2018672
_cod_database_fobs_code          2018672
loop_
_symmetry_equiv_pos_as_xyz
'x, y, z'
'-x, y+1/2, -z'
loop_
_atom_site_type_symbol
_atom_site_label
_atom_site_fract_x
_atom_site_fract_y
_atom_site_fract_z
_atom_site_U_iso_or_equiv
_atom_site_adp_type
_atom_site_calc_flag
_atom_site_refinement_flags
_atom_site_occupancy
_atom_site_symmetry_multiplicity
S S1 0.42305(6) 0.38313(8) 0.79560(6) 0.04537(17) Uani d . 1 1
H H1 0.498(3) 0.440(3) 0.700(3) 0.054 Uiso d . 1 1
O O1 0.10777(16) 0.1497(2) 0.46721(18) 0.0386(4) Uani d . 1 1
H H1A 0.041(3) 0.076(4) 0.418(3) 0.046 Uiso d . 1 1
O O2 0.28726(19) 0.0139(3) 0.3674(3) 0.0688(7) Uani d . 1 1
O O3 0.06554(15) 0.46249(17) 0.66908(16) 0.0358(3) Uani d . 1 1
O O4 0.23275(17) 0.5239(2) 0.50889(17) 0.0421(4) Uani d . 1 1
N N1 0.1426(2) 0.7201(2) 0.2819(2) 0.0361(4) Uani d D 1 1
H H1B 0.154(3) 0.658(3) 0.367(2) 0.054 Uiso d D 1 1
H H1C 0.056(2) 0.777(3) 0.284(3) 0.054 Uiso d D 1 1
H H1D 0.220(2) 0.786(3) 0.287(3) 0.054 Uiso d D 1 1
C C1 0.2845(2) 0.3014(3) 0.6675(2) 0.0320(4) Uani d . 1 1
H H1E 0.2202 0.2255 0.7206 0.038 Uiso calc R 1 1
C C2 0.3547(2) 0.2056(3) 0.5492(3) 0.0374(5) Uani d . 1 1
H H2 0.4108 0.2815 0.4898 0.045 Uiso calc R 1 1
H H2A 0.4261 0.1273 0.5940 0.045 Uiso calc R 1 1
C C3 0.2457(2) 0.1138(3) 0.4524(2) 0.0363(5) Uani d . 1 1
C C4 0.1875(2) 0.4410(2) 0.6086(2) 0.0310(4) Uani d . 1 1
C C5 0.2609(3) 0.5042(4) 0.1466(4) 0.0635(8) Uani d . 1 1
H H5 0.2557 0.4299 0.2286 0.095 Uiso calc R 1 1
H H5A 0.3537 0.5654 0.1548 0.095 Uiso calc R 1 1
H H5B 0.2568 0.4416 0.0569 0.095 Uiso calc R 1 1
C C6 0.1313(3) 0.6215(3) 0.1460(2) 0.0422(5) Uani d . 1 1
H H6 0.1394 0.6971 0.0626 0.051 Uiso calc R 1 1
C C7 -0.0189(2) 0.5413(2) 0.1337(2) 0.0339(4) Uani d . 1 1
C C8 -0.1179(3) 0.5811(3) 0.0209(3) 0.0444(5) Uani d . 1 1
H H8 -0.0892 0.6555 -0.0507 0.053 Uiso calc R 1 1
C C9 -0.2589(3) 0.5132(4) 0.0114(3) 0.0526(6) Uani d . 1 1
H H9 -0.3263 0.5426 -0.0657 0.063 Uiso calc R 1 1
C C10 -0.3007(2) 0.4033(3) 0.1138(3) 0.0470(6) Uani d . 1 1
H H10 -0.3970 0.3574 0.1077 0.056 Uiso calc R 1 1
C C11 -0.2021(2) 0.3603(3) 0.2254(3) 0.0420(5) Uani d . 1 1
H H11 -0.2308 0.2844 0.2957 0.050 Uiso calc R 1 1
C C12 -0.0616(2) 0.4273(2) 0.2353(2) 0.0354(5) Uani d . 1 1
H H12 0.0060 0.3956 0.3114 0.043 Uiso calc R 1 1
loop_
_atom_site_aniso_label
_atom_site_aniso_U_11
_atom_site_aniso_U_22
_atom_site_aniso_U_33
_atom_site_aniso_U_12
_atom_site_aniso_U_13
_atom_site_aniso_U_23
S1 0.0360(3) 0.0627(4) 0.0367(3) -0.0065(3) -0.0065(2) -0.0025(3)
O1 0.0312(7) 0.0395(8) 0.0447(9) 0.0006(6) -0.0028(6) -0.0084(7)
O2 0.0384(9) 0.0769(14) 0.0922(16) -0.0091(10) 0.0151(9) -0.0504(13)
O3 0.0322(7) 0.0350(7) 0.0402(8) 0.0034(6) 0.0029(6) 0.0012(7)
O4 0.0401(8) 0.0445(8) 0.0420(9) 0.0004(7) 0.0040(7) 0.0079(7)
N1 0.0380(10) 0.0339(9) 0.0367(10) -0.0040(8) 0.0042(8) -0.0038(8)
C1 0.0273(9) 0.0361(10) 0.0322(10) -0.0032(8) -0.0010(8) -0.0001(9)
C2 0.0267(9) 0.0402(11) 0.0451(12) 0.0009(8) -0.0003(9) -0.0031(10)
C3 0.0324(10) 0.0357(11) 0.0410(12) -0.0029(8) 0.0055(9) -0.0045(9)
C4 0.0304(9) 0.0319(9) 0.0302(10) -0.0035(8) -0.0039(8) -0.0038(8)
C5 0.0436(13) 0.0740(19) 0.0746(19) -0.0067(14) 0.0206(13) -0.0354(17)
C6 0.0494(13) 0.0451(13) 0.0331(11) -0.0123(11) 0.0117(9) -0.0058(10)
C7 0.0421(11) 0.0303(10) 0.0294(10) 0.0003(9) 0.0036(8) -0.0044(8)
C8 0.0616(14) 0.0388(12) 0.0322(11) -0.0003(11) -0.0033(10) -0.0002(9)
C9 0.0566(15) 0.0544(14) 0.0449(13) 0.0085(12) -0.0177(11) -0.0060(13)
C10 0.0379(11) 0.0470(14) 0.0559(13) -0.0016(11) -0.0021(9) -0.0098(13)
C11 0.0437(11) 0.0369(11) 0.0457(12) -0.0023(10) 0.0072(9) -0.0007(11)
C12 0.0382(10) 0.0341(11) 0.0339(10) 0.0032(8) 0.0008(8) 0.0014(8)
loop_
_atom_type_symbol
_atom_type_description
_atom_type_scat_dispersion_real
_atom_type_scat_dispersion_imag
_atom_type_scat_source
S S 0.1246 0.1234 'International Tables Vol C Tables 4.2.6.8 and 6.1.1.4'
N N 0.0061 0.0033 'International Tables Vol C Tables 4.2.6.8 and 6.1.1.4'
O O 0.0106 0.0060 'International Tables Vol C Tables 4.2.6.8 and 6.1.1.4'
C C 0.0033 0.0016 'International Tables Vol C Tables 4.2.6.8 and 6.1.1.4'
H H 0.0000 0.0000 'International Tables Vol C Tables 4.2.6.8 and 6.1.1.4'
loop_
_geom_angle_atom_site_label_1
_geom_angle_atom_site_label_2
_geom_angle_atom_site_label_3
_geom_angle
C1 S1 H1 93.1(13)
C3 O1 H1A 113.0(16)
C6 N1 H1B 114.3(18)
C6 N1 H1C 105.7(18)
H1B N1 H1C 109(2)
C6 N1 H1D 113.3(19)
H1B N1 H1D 103(2)
H1C N1 H1D 111(3)
C2 C1 C4 112.52(18)
C2 C1 S1 111.56(14)
C4 C1 S1 108.82(14)
C2 C1 H1E 107.9
C4 C1 H1E 107.9
S1 C1 H1E 107.9
C3 C2 C1 114.12(17)
C3 C2 H2 108.7
C1 C2 H2 108.7
C3 C2 H2A 108.7
C1 C2 H2A 108.7
H2 C2 H2A 107.6
O2 C3 O1 123.7(2)
O2 C3 C2 121.0(2)
O1 C3 C2 115.36(19)
O4 C4 O3 125.38(19)
O4 C4 C1 118.54(18)
O3 C4 C1 116.08(18)
C6 C5 H5 109.5
C6 C5 H5A 109.5
H5 C5 H5A 109.5
C6 C5 H5B 109.5
H5 C5 H5B 109.5
H5A C5 H5B 109.5
N1 C6 C7 108.94(18)
N1 C6 C5 108.6(2)
C7 C6 C5 114.5(2)
N1 C6 H6 108.2
C7 C6 H6 108.2
C5 C6 H6 108.2
C8 C7 C12 118.7(2)
C8 C7 C6 120.0(2)
C12 C7 C6 121.3(2)
C7 C8 C9 120.7(2)
C7 C8 H8 119.6
C9 C8 H8 119.6
C10 C9 C8 120.0(2)
C10 C9 H9 120.0
C8 C9 H9 120.0
C9 C10 C11 119.9(2)
C9 C10 H10 120.1
C11 C10 H10 120.1
C10 C11 C12 120.4(2)
C10 C11 H11 119.8
C12 C11 H11 119.8
C11 C12 C7 120.3(2)
C11 C12 H12 119.8
C7 C12 H12 119.8
loop_
_geom_bond_atom_site_label_1
_geom_bond_atom_site_label_2
_geom_bond_distance
_geom_bond_publ_flag
S1 C1 1.817(2) y
S1 H1 1.24(3) ?
O1 C3 1.297(3) y
O1 H1A 0.96(3) ?
O2 C3 1.213(3) y
O3 C4 1.276(2) y
O4 C4 1.237(3) y
N1 C6 1.501(3) ?
N1 H1B 0.943(17) ?
N1 H1C 0.917(17) ?
N1 H1D 0.886(17) ?
C1 C2 1.518(3) ?
C1 C4 1.531(3) ?
C1 H1E 1.0000 ?
C2 C3 1.507(3) ?
C2 H2 0.9900 ?
C2 H2A 0.9900 ?
C5 C6 1.519(4) ?
C5 H5 0.9800 ?
C5 H5A 0.9800 ?
C5 H5B 0.9800 ?
C6 C7 1.511(3) ?
C6 H6 1.0000 ?
C7 C8 1.386(3) ?
C7 C12 1.399(3) ?
C8 C9 1.392(4) ?
C8 H8 0.9500 ?
C9 C10 1.380(4) ?
C9 H9 0.9500 ?
C10 C11 1.382(3) ?
C10 H10 0.9500 ?
C11 C12 1.385(3) ?
C11 H11 0.9500 ?
C12 H12 0.9500 ?
loop_
_geom_hbond_atom_site_label_D
_geom_hbond_atom_site_label_H
_geom_hbond_atom_site_label_A
_geom_hbond_site_symmetry_A
_geom_hbond_distance_DH
_geom_hbond_distance_HA
_geom_hbond_distance_DA
_geom_hbond_angle_DHA
S1 H1 O2 2_656 1.24(3) 2.16(3) 3.2741(19) 148.0(19)
O1 H1A O3 2_546 0.96(3) 1.54(3) 2.501(2) 177(3)
N1 H1B O4 . 0.943(17) 1.838(19) 2.751(3) 162(3)
N1 H1C O3 2_556 0.917(17) 1.94(2) 2.797(2) 154(3)
N1 H1D O2 1_565 0.886(17) 2.10(2) 2.845(3) 141(3)
C1 H1E Cg 2_546 1.00 2.62 3.56 156
C6 H6 Cg 2_555 1.00 2.85 3.83 166
loop_
_geom_torsion_atom_site_label_1
_geom_torsion_atom_site_label_2
_geom_torsion_atom_site_label_3
_geom_torsion_atom_site_label_4
_geom_torsion
C4 C1 C2 C3 -66.1(2)
S1 C1 C2 C3 171.31(16)
C1 C2 C3 O2 -169.0(2)
C1 C2 C3 O1 11.0(3)
C2 C1 C4 O4 -41.8(2)
S1 C1 C4 O4 82.4(2)
C2 C1 C4 O3 138.90(18)
S1 C1 C4 O3 -96.94(18)
N1 C6 C7 C8 116.3(2)
C5 C6 C7 C8 -121.9(3)
N1 C6 C7 C12 -63.2(3)
C5 C6 C7 C12 58.6(3)
C12 C7 C8 C9 2.1(3)
C6 C7 C8 C9 -177.3(2)
C7 C8 C9 C10 -0.9(4)
C8 C9 C10 C11 -0.3(4)
C9 C10 C11 C12 0.2(4)
C10 C11 C12 C7 1.1(3)
C8 C7 C12 C11 -2.2(3)
C6 C7 C12 C11 177.2(2)
loop_
_cod_related_entry_id
_cod_related_entry_database
_cod_related_entry_code
1 ChemSpider 30654401
