#------------------------------------------------------------------------------
#$Date: 2017-10-13 03:48:21 +0300 (Fri, 13 Oct 2017) $
#$Revision: 201957 $
#$URL: file:///home/coder/svn-repositories/cod/cif/2/01/86/2018640.cif $
#------------------------------------------------------------------------------
#
# This file is available in the Crystallography Open Database (COD),
# http://www.crystallography.net/. The original data for this entry
# were provided by IUCr Journals, http://journals.iucr.org/.
#
# The file may be used within the scientific community so long as
# proper attribution is given to the journal article from which the
# data were obtained.
#
data_2018640
loop_
_publ_author_name
'Ohba, Shigeru'
'Gomi, Noriaki'
'Ohgiya, Tadaaki'
'Shibuya, Kimiyuki'
_publ_section_title
;
 Three derivatives of 4-fluoro-5-sulfonylisoquinoline
;
_journal_coeditor_code           KY3019
_journal_issue                   10
_journal_name_full               'Acta Crystallographica Section C'
_journal_page_first              o427
_journal_page_last               o430
_journal_paper_doi               10.1107/S0108270112039388
_journal_volume                  68
_journal_year                    2012
_chemical_formula_iupac          'C9 H5 Cl F N O2 S'
_chemical_formula_moiety         'C9 H5 Cl F N O2 S'
_chemical_formula_sum            'C9 H5 Cl F N O2 S'
_chemical_formula_weight         245.66
_chemical_name_systematic
;
4-Fluoroisoquinoline-5-sulfonyl chloride
;
_space_group_IT_number           14
_symmetry_cell_setting           monoclinic
_symmetry_space_group_name_Hall  '-P 2yn'
_symmetry_space_group_name_H-M   'P 1 21/n 1'
_atom_sites_solution_hydrogens   geom
_atom_sites_solution_primary     direct
_atom_sites_solution_secondary   difmap
_cell_angle_alpha                90.0000
_cell_angle_beta                 96.08(3)
_cell_angle_gamma                90.0000
_cell_formula_units_Z            4
_cell_length_a                   8.070(3)
_cell_length_b                   15.353(3)
_cell_length_c                   7.789(2)
_cell_measurement_reflns_used    25
_cell_measurement_temperature    293
_cell_measurement_theta_max      12.54
_cell_measurement_theta_min      9.98
_cell_volume                     959.6(5)
_computing_cell_refinement
'WinAFC Diffractometer Control Software (Rigaku, 1999)'
_computing_data_collection
'WinAFC Diffractometer Control Software (Rigaku, 1999)'
_computing_data_reduction        'CrystalStructure (Rigaku, 2010)'
_computing_molecular_graphics    'ORTEPII (Johnson, 1976)'
_computing_publication_material  'CrystalStructure (Rigaku, 2010)'
_computing_structure_refinement  'SHELXL97 (Sheldrick, 2008)'
_computing_structure_solution    'SIR92 (Altomare <i>et al.</i>, 1994)'
_diffrn_ambient_temperature      293
_diffrn_measured_fraction_theta_full 0.999
_diffrn_measured_fraction_theta_max 0.999
_diffrn_measurement_device_type  'Rigaku AFC-7R'
_diffrn_measurement_method       \w/2\q
_diffrn_radiation_monochromator  'graphite plate'
_diffrn_radiation_source         'Rigaku rotating Mo anode'
_diffrn_radiation_type           'Mo K\a'
_diffrn_radiation_wavelength     0.71069
_diffrn_reflns_av_R_equivalents  0.0398
_diffrn_reflns_limit_h_max       3
_diffrn_reflns_limit_h_min       -10
_diffrn_reflns_limit_k_max       19
_diffrn_reflns_limit_k_min       0
_diffrn_reflns_limit_l_max       10
_diffrn_reflns_limit_l_min       -10
_diffrn_reflns_number            2444
_diffrn_reflns_theta_full        27.49
_diffrn_reflns_theta_max         27.49
_diffrn_standards_decay_%        0
_diffrn_standards_interval_count 150
_diffrn_standards_number         3
_exptl_absorpt_coefficient_mu    0.605
_exptl_absorpt_correction_T_max  0.834
_exptl_absorpt_correction_T_min  0.730
_exptl_absorpt_correction_type   psi-scan
_exptl_absorpt_process_details   '(North <i>et al.</i>, 1968)'
_exptl_crystal_colour            colourless
_exptl_crystal_density_diffrn    1.700
_exptl_crystal_density_method    'not measured'
_exptl_crystal_description       plate
_exptl_crystal_F_000             496.00
_exptl_crystal_size_max          0.55
_exptl_crystal_size_mid          0.50
_exptl_crystal_size_min          0.30
_refine_diff_density_max         0.260
_refine_diff_density_min         -0.700
_refine_ls_extinction_method     none
_refine_ls_goodness_of_fit_ref   1.054
_refine_ls_hydrogen_treatment    constr
_refine_ls_matrix_type           full
_refine_ls_number_parameters     136
_refine_ls_number_reflns         2202
_refine_ls_number_restraints     0
_refine_ls_R_factor_gt           0.0587
_refine_ls_shift/su_max          0.000
_refine_ls_structure_factor_coef Fsqd
_refine_ls_weighting_details
'w = 1/[\s^2^(Fo^2^)+(0.1016P)^2^+0.2981P] where P=(Fo^2^+2Fc^2^)/3'
_refine_ls_weighting_scheme      calc
_refine_ls_wR_factor_ref         0.1641
_reflns_number_gt                1621
_reflns_number_total             2202
_reflns_threshold_expression     F^2^>2\s(F^2^)
_iucr_refine_instructions_details
;
TITL CSI (C9 H5 Cl F N O2 S)
CELL  0.71069 8.07000 15.35300 7.78900 90.000 96.080 90.000
ZERR  4 0.00300 0.00300 0.00200 0.000 0.030 0.000
LATT 1
SYMM .50-X, .50+Y, .50-Z
SFAC C H CL F N O S
UNIT 36 20 4 4 4 8 4
SHEL 99999.000000 0.000000
L.S. 5
FMAP 2
PLAN -25
WPDB -2
HTAB
BOND $H
CONF
LIST 4
TEMP 20.0
ACTA
SIZE 0.550 0.500 0.300
WGHT    0.101600    0.298100
FVAR       2.18263
C1    1    0.277192   -0.023190   -0.159390    11.00000    0.06102    0.04813 =
         0.05990   -0.00925   -0.00393    0.00136
AFIX  43
H1    2    0.222139   -0.076243   -0.155248    11.00000   -1.20000
AFIX   0
N2    5    0.350411   -0.005758   -0.298275    11.00000    0.06912    0.05902 =
         0.05174   -0.01295   -0.00315    0.00396
C3    1    0.428441    0.072569   -0.302268    11.00000    0.05783    0.06300 =
         0.04348   -0.00506    0.00413    0.00599
AFIX  43
H3    2    0.480546    0.086823   -0.399434    11.00000   -1.20000
AFIX   0
C4    1    0.433789    0.131160   -0.170358    11.00000    0.04976    0.04795 =
         0.04424    0.00110    0.00579    0.00139
C5    1    0.360405    0.167521    0.135881    11.00000    0.04871    0.03934 =
         0.04206    0.00379    0.00746    0.00700
C6    1    0.272746    0.141931    0.270203    11.00000    0.06054    0.04468 =
         0.04676    0.00208    0.01435    0.00886
AFIX  43
H6    2    0.269804    0.178207    0.365452    11.00000   -1.20000
AFIX   0
C7    1    0.188108    0.062083    0.265160    11.00000    0.06075    0.05380 =
         0.06295    0.01206    0.02164    0.00233
AFIX  43
H7    2    0.129355    0.045939    0.356588    11.00000   -1.20000
AFIX   0
C8    1    0.191564    0.008276    0.127463    11.00000    0.05287    0.04081 =
         0.06668    0.00674    0.00742   -0.00308
AFIX  43
H8    2    0.138007   -0.045380    0.126719    11.00000   -1.20000
AFIX   0
C9    1    0.276258    0.033194   -0.015506    11.00000    0.04362    0.03933 =
         0.05252    0.00118   -0.00018    0.00396
C10   1    0.360727    0.114634   -0.016339    11.00000    0.04111    0.04009 =
         0.04170   -0.00068    0.00352    0.00350
F11   4    0.509730    0.207759   -0.192928    11.00000    0.07862    0.06142 =
         0.05451   -0.00022    0.02019   -0.01653
S12   7    0.479320    0.263320    0.176627    11.00000    0.06062    0.04200 =
         0.04538   -0.00291    0.00271   -0.00273
O13   6    0.462233    0.293405    0.346585    11.00000    0.09448    0.05755 =
         0.04532   -0.01262    0.00383   -0.00415
O14   6    0.641285    0.253477    0.122707    11.00000    0.05056    0.06853 =
         0.06894   -0.00317    0.00488   -0.00761
CL15  3    0.352009    0.351687    0.017707    11.00000    0.08572    0.04409 =
         0.06136    0.00833    0.00687    0.00545
HKLF 4
REM  CSI (C9 H5 Cl F N O2 S)
REM R1 =  0.0587 for   1621 Fo > 4sig(Fo)  and  0.0806 for all   2202 data
REM    136 parameters refined using      0 restraints
END
WGHT      0.1016      0.2981
REM Highest difference peak  0.264,  deepest hole -0.699,  1-sigma level  0.128
Q1    1   0.0733 -0.1023 -0.0296  11.00000  0.05    0.26
Q2    1   0.6490  0.3609  0.0792  11.00000  0.05    0.26
Q3    1   0.3510  0.0187 -0.4774  11.00000  0.05    0.26
Q4    1   0.7430  0.1986  0.0161  11.00000  0.05    0.25
Q5    1   0.0742 -0.0574  0.0621  11.00000  0.05    0.25
Q6    1   0.1828  0.2557  0.1341  11.00000  0.05    0.25
Q7    1   0.0932  0.0318 -0.0562  11.00000  0.05    0.25
Q8    1   0.0000  0.0000  0.0000  10.50000  0.05    0.24
Q9    1   0.5446  0.2363 -0.3706  11.00000  0.05    0.24
Q10   1   0.7618  0.2769  0.2398  11.00000  0.05    0.24
;
_cod_data_source_file            ky3019.cif
_cod_data_source_block           I
_cod_original_sg_symbol_H-M      'P 21/n'
_cod_database_code               2018640
_cod_database_fobs_code          2018640
loop_
_symmetry_equiv_pos_site_id
_symmetry_equiv_pos_as_xyz
1 +x,+y,+z
2 1/2-x,1/2+y,1/2-z
3 -x,-y,-z
4 1/2+x,1/2-y,1/2+z
loop_
_atom_site_type_symbol
_atom_site_label
_atom_site_fract_x
_atom_site_fract_y
_atom_site_fract_z
_atom_site_U_iso_or_equiv
_atom_site_adp_type
_atom_site_calc_flag
_atom_site_refinement_flags
_atom_site_occupancy
_atom_site_symmetry_multiplicity
C C1 0.2772(4) -0.0232(2) -0.1594(5) 0.0571(8) Uani d . 1.0 4
N N2 0.3504(4) -0.00576(19) -0.2983(4) 0.0606(7) Uani d . 1.0 4
C C3 0.4284(4) 0.0726(3) -0.3023(4) 0.0549(7) Uani d . 1.0 4
C C4 0.4338(4) 0.13116(19) -0.1704(4) 0.0473(7) Uani d . 1.0 4
C C5 0.3604(4) 0.16752(17) 0.1359(4) 0.0432(6) Uani d . 1.0 4
C C6 0.2727(4) 0.14193(19) 0.2702(4) 0.0500(7) Uani d . 1.0 4
C C7 0.1881(4) 0.0621(2) 0.2652(5) 0.0581(8) Uani d . 1.0 4
C C8 0.1916(4) 0.0083(2) 0.1275(5) 0.0534(7) Uani d . 1.0 4
C C9 0.2763(4) 0.03319(17) -0.0155(4) 0.0455(6) Uani d . 1.0 4
C C10 0.3607(3) 0.11463(17) -0.0163(4) 0.0410(6) Uani d . 1.0 4
F F11 0.5097(3) 0.20776(13) -0.1929(3) 0.0639(6) Uani d . 1.0 4
S S12 0.47932(10) 0.26332(5) 0.17663(9) 0.0495(3) Uani d . 1.0 4
O O13 0.4622(4) 0.29341(16) 0.3466(3) 0.0660(7) Uani d . 1.0 4
O O14 0.6413(3) 0.25348(16) 0.1227(4) 0.0628(6) Uani d . 1.0 4
Cl Cl15 0.35201(12) 0.35169(5) 0.01771(11) 0.0638(3) Uani d . 1.0 4
H H1 0.2221 -0.0762 -0.1553 0.0685 Uiso calc R 1.0 4
H H3 0.4805 0.0868 -0.3994 0.0658 Uiso calc R 1.0 4
H H6 0.2698 0.1782 0.3655 0.0600 Uiso calc R 1.0 4
H H7 0.1293 0.0459 0.3566 0.0697 Uiso calc R 1.0 4
H H8 0.1380 -0.0454 0.1267 0.0640 Uiso calc R 1.0 4
loop_
_atom_site_aniso_label
_atom_site_aniso_U_11
_atom_site_aniso_U_22
_atom_site_aniso_U_33
_atom_site_aniso_U_12
_atom_site_aniso_U_13
_atom_site_aniso_U_23
C1 0.0610(18) 0.0481(17) 0.0599(19) 0.0014(13) -0.0039(14) -0.0092(14)
N2 0.0691(17) 0.0590(16) 0.0517(15) 0.0040(13) -0.0032(13) -0.0130(12)
C3 0.0578(17) 0.0630(19) 0.0435(15) 0.0060(14) 0.0041(13) -0.0051(13)
C4 0.0498(15) 0.0480(15) 0.0442(14) 0.0014(12) 0.0058(12) 0.0011(12)
C5 0.0487(14) 0.0393(13) 0.0421(14) 0.0070(11) 0.0075(11) 0.0038(11)
C6 0.0605(17) 0.0447(15) 0.0468(15) 0.0089(12) 0.0144(13) 0.0021(12)
C7 0.0607(18) 0.0538(17) 0.0630(18) 0.0023(14) 0.0216(15) 0.0121(15)
C8 0.0529(16) 0.0408(14) 0.0667(19) -0.0031(12) 0.0074(14) 0.0067(13)
C9 0.0436(13) 0.0393(13) 0.0525(16) 0.0040(11) -0.0002(11) 0.0012(12)
C10 0.0411(13) 0.0401(13) 0.0417(13) 0.0035(10) 0.0035(11) -0.0007(10)
F11 0.0786(13) 0.0614(12) 0.0545(11) -0.0165(9) 0.0202(9) -0.0002(9)
S12 0.0606(5) 0.0420(4) 0.0454(4) -0.0027(3) 0.0027(3) -0.0029(3)
O13 0.0945(18) 0.0575(14) 0.0453(12) -0.0042(12) 0.0038(11) -0.0126(10)
O14 0.0506(12) 0.0685(15) 0.0689(15) -0.0076(10) 0.0049(11) -0.0032(12)
Cl15 0.0857(6) 0.0441(5) 0.0614(5) 0.0055(4) 0.0069(4) 0.0083(3)
loop_
_atom_type_symbol
_atom_type_description
_atom_type_scat_dispersion_real
_atom_type_scat_dispersion_imag
_atom_type_scat_source
C C 0.0033 0.0016
;
International Tables for Crystallography
(1992, Vol. C, Tables 4.2.6.8 and 6.1.1.4)
;
H H 0.0000 0.0000
;
International Tables for Crystallography
(1992, Vol. C, Table 6.1.1.4)
;
Cl Cl 0.1484 0.1585
;
International Tables for Crystallography
(1992, Vol. C, Tables 4.2.6.8 and 6.1.1.4)
;
F F 0.0171 0.0103
;
International Tables for Crystallography
(1992, Vol. C, Tables 4.2.6.8 and 6.1.1.4)
;
N N 0.0061 0.0033
;
International Tables for Crystallography
(1992, Vol. C, Tables 4.2.6.8 and 6.1.1.4)
;
O O 0.0106 0.0060
;
International Tables for Crystallography
(1992, Vol. C, Tables 4.2.6.8 and 6.1.1.4)
;
S S 0.1246 0.1234
;
International Tables for Crystallography
(1992, Vol. C, Tables 4.2.6.8 and 6.1.1.4)
;
loop_
_geom_angle_atom_site_label_1
_geom_angle_atom_site_label_2
_geom_angle_atom_site_label_3
_geom_angle
_geom_angle_publ_flag
N2 C1 C9 124.6(3) no
C1 N2 C3 116.7(3) no
N2 C3 C4 123.0(3) no
C3 C4 C10 122.6(3) no
C3 C4 F11 117.2(3) no
C10 C4 F11 120.3(3) no
C6 C5 C10 120.7(3) no
C6 C5 S12 114.4(2) no
C10 C5 S12 124.8(2) no
C5 C6 C7 121.0(3) no
C6 C7 C8 120.3(4) no
C7 C8 C9 120.5(3) no
C1 C9 C8 120.0(3) no
C1 C9 C10 119.3(3) no
C8 C9 C10 120.7(3) no
C4 C10 C5 129.5(3) no
C4 C10 C9 113.8(3) no
C5 C10 C9 116.7(3) no
C5 S12 O13 109.46(15) no
C5 S12 O14 110.93(15) no
C5 S12 Cl15 102.46(10) no
O13 S12 O14 119.46(16) no
O13 S12 Cl15 104.86(12) no
O14 S12 Cl15 108.12(12) no
N2 C1 H1 117.715 no
C9 C1 H1 117.718 no
N2 C3 H3 118.507 no
C4 C3 H3 118.508 no
C5 C6 H6 119.507 no
C7 C6 H6 119.505 no
C6 C7 H7 119.866 no
C8 C7 H7 119.873 no
C7 C8 H8 119.729 no
C9 C8 H8 119.726 no
loop_
_geom_bond_atom_site_label_1
_geom_bond_atom_site_label_2
_geom_bond_distance
_geom_bond_publ_flag
C1 N2 1.314(5) no
C1 C9 1.417(5) no
N2 C3 1.359(5) no
C3 C4 1.363(5) no
C4 C10 1.415(4) no
C4 F11 1.346(4) no
C5 C6 1.381(5) no
C5 C10 1.437(4) no
C5 S12 1.766(3) no
C6 C7 1.402(5) no
C7 C8 1.356(5) no
C8 C9 1.419(5) no
C9 C10 1.424(4) no
S12 O13 1.423(3) no
S12 O14 1.423(3) no
S12 Cl15 2.0394(12) no
C1 H1 0.930 no
C3 H3 0.930 no
C6 H6 0.930 no
C7 H7 0.930 no
C8 H8 0.930 no
loop_
_geom_torsion_atom_site_label_1
_geom_torsion_atom_site_label_2
_geom_torsion_atom_site_label_3
_geom_torsion_atom_site_label_4
_geom_torsion
_geom_torsion_publ_flag
N2 C1 C9 C8 179.3(3) no
N2 C1 C9 C10 -0.6(5) no
C9 C1 N2 C3 -0.7(5) no
C1 N2 C3 C4 0.5(5) no
N2 C3 C4 C10 1.1(5) no
N2 C3 C4 F11 -177.6(3) no
C3 C4 C10 C5 177.5(3) no
C3 C4 C10 C9 -2.4(4) no
F11 C4 C10 C5 -3.8(4) no
F11 C4 C10 C9 176.3(2) no
C6 C5 C10 C4 176.1(3) no
C6 C5 C10 C9 -4.0(4) no
C10 C5 C6 C7 2.9(4) no
C6 C5 S12 O13 1.6(3) no
C6 C5 S12 O14 135.5(2) no
C6 C5 S12 Cl15 -109.3(2) no
S12 C5 C6 C7 -172.64(18) no
C10 C5 S12 O13 -173.8(2) no
C10 C5 S12 O14 -39.8(3) no
C10 C5 S12 Cl15 75.3(3) no
S12 C5 C10 C4 -8.8(4) no
S12 C5 C10 C9 171.04(16) no
C5 C6 C7 C8 0.2(5) no
C6 C7 C8 C9 -2.0(5) no
C7 C8 C9 C1 -179.2(3) no
C7 C8 C9 C10 0.7(5) no
C1 C9 C10 C4 2.1(4) no
C1 C9 C10 C5 -177.8(3) no
C8 C9 C10 C4 -177.9(3) no
C8 C9 C10 C5 2.2(4) no
loop_
_cod_related_entry_id
_cod_related_entry_database
_cod_related_entry_code
1 ChemSpider 10031018
