#------------------------------------------------------------------------------
#$Date: 2016-02-20 00:18:51 +0200 (Sat, 20 Feb 2016) $
#$Revision: 176760 $
#$URL: svn://www.crystallography.net/cod/cif/2/01/80/2018012.cif $
#------------------------------------------------------------------------------
#
# This file is available in the Crystallography Open Database (COD),
# http://www.crystallography.net/. The original data for this entry
# were provided by IUCr Journals, http://journals.iucr.org/.
#
# The file may be used within the scientific community so long as
# proper attribution is given to the journal article from which the
# data were obtained.
#
data_2018012
loop_
_publ_author_name
'Maniam, Palanikumar'
'Stock, Norbert'
_publ_section_title
;
 A three-dimensional tin(II) phosphonatobenzenesulfonate with
 Sn~4~O~12~ clusters
;
_journal_coeditor_code           JZ3200
_journal_issue                   3
_journal_name_full               'Acta Crystallographica Section C'
_journal_page_first              m73
_journal_page_last               m76
_journal_paper_doi               10.1107/S0108270111005105
_journal_volume                  67
_journal_year                    2011
_chemical_formula_iupac          '[Sn2 (C6 H4 O6 P S) (O H)]'
_chemical_formula_moiety         'C6 H5 O7 P S Sn2'
_chemical_formula_sum            'C6 H5 O7 P S Sn2'
_chemical_formula_weight         489.56
_chemical_name_systematic
;
poly[\m-hydroxido-\m~7~-(4-phosphonatobenzenesulfonato)-ditin(II)]
;
_space_group_IT_number           2
_symmetry_cell_setting           triclinic
_symmetry_space_group_name_Hall  '-P 1'
_symmetry_space_group_name_H-M   'P -1'
_atom_sites_solution_hydrogens   geom
_atom_sites_solution_primary     direct
_atom_sites_solution_secondary   difmap
_cell_angle_alpha                81.10(2)
_cell_angle_beta                 86.17(2)
_cell_angle_gamma                75.25(3)
_cell_formula_units_Z            2
_cell_length_a                   7.0045(14)
_cell_length_b                   8.487(2)
_cell_length_c                   10.0570(17)
_cell_measurement_reflns_used    1556
_cell_measurement_temperature    293(2)
_cell_measurement_theta_max      28.15
_cell_measurement_theta_min      1.90
_cell_volume                     571.0(2)
_computing_cell_refinement       'X-AREA (Stoe & Cie, 2008)'
_computing_data_collection       'X-AREA (Stoe & Cie, 2008)'
_computing_data_reduction        'X-AREA (Stoe & Cie, 2008)'
_computing_molecular_graphics    'DIAMOND (Brandenburg, 2010)'
_computing_publication_material  'XCIF in SHELXTL (Sheldrick, 2008)'
_computing_structure_refinement  'SHELXL97 (Sheldrick, 2008)'
_computing_structure_solution    'SHELXS97 (Sheldrick, 2008)'
_diffrn_ambient_temperature      293(2)
_diffrn_measured_fraction_theta_full 0.939
_diffrn_measured_fraction_theta_max 0.921
_diffrn_measurement_device_type  'Stoe IPDS-1'
_diffrn_measurement_method       \f
_diffrn_radiation_monochromator  graphite
_diffrn_radiation_source         'fine-focus sealed tube'
_diffrn_radiation_type           MoK\a
_diffrn_radiation_wavelength     0.71073
_diffrn_reflns_av_R_equivalents  0.0478
_diffrn_reflns_av_sigmaI/netI    0.0400
_diffrn_reflns_limit_h_max       9
_diffrn_reflns_limit_h_min       -9
_diffrn_reflns_limit_k_max       11
_diffrn_reflns_limit_k_min       -11
_diffrn_reflns_limit_l_max       13
_diffrn_reflns_limit_l_min       -13
_diffrn_reflns_number            6691
_diffrn_reflns_theta_full        25.00
_diffrn_reflns_theta_max         28.06
_diffrn_reflns_theta_min         2.51
_diffrn_standards_decay_%        0
_diffrn_standards_interval_time  0
_diffrn_standards_number         0
_exptl_absorpt_coefficient_mu    4.715
_exptl_absorpt_correction_T_max  0.5814
_exptl_absorpt_correction_T_min  0.3800
_exptl_absorpt_correction_type   numerical
_exptl_absorpt_process_details   '(XRED and X-SHAPE; Stoe & Cie, 2008)'
_exptl_crystal_colour            colourless
_exptl_crystal_density_diffrn    2.847
_exptl_crystal_density_method    'not measured'
_exptl_crystal_description       plate
_exptl_crystal_F_000             456
_exptl_crystal_size_max          0.14
_exptl_crystal_size_mid          0.10
_exptl_crystal_size_min          0.07
_refine_diff_density_max         0.819
_refine_diff_density_min         -1.097
_refine_ls_extinction_coef       0.0123(10)
_refine_ls_extinction_expression Fc^*^=kFc[1+0.001xFc^2^\l^3^/sin(2\q)]^-1/4^
_refine_ls_extinction_method     'SHELXL97 (Sheldrick, 1997)'
_refine_ls_goodness_of_fit_ref   1.025
_refine_ls_hydrogen_treatment    constr
_refine_ls_matrix_type           full
_refine_ls_number_parameters     155
_refine_ls_number_reflns         2550
_refine_ls_number_restraints     0
_refine_ls_restrained_S_all      1.025
_refine_ls_R_factor_all          0.0322
_refine_ls_R_factor_gt           0.0258
_refine_ls_shift/su_max          0.001
_refine_ls_shift/su_mean         0.000
_refine_ls_structure_factor_coef Fsqd
_refine_ls_weighting_details
'calc w=1/[\s^2^(Fo^2^)+(0.0432P)^2^+0.0000P] where P=(Fo^2^+2Fc^2^)/3'
_refine_ls_weighting_scheme      calc
_refine_ls_wR_factor_gt          0.0683
_refine_ls_wR_factor_ref         0.0705
_reflns_number_gt                2146
_reflns_number_total             2550
_reflns_threshold_expression     I>2\s(I)
_iucr_refine_instructions_details
;
TITL PMSnPS IN P-1
CELL  0.71073  7.00450  8.48750 10.05700 81.10000 86.17000 75.25000
ZERR 2  0.00140  0.00200  0.00170  0.02400  0.02200  0.02500
LATT 1
SFAC C H O P S SN
UNIT 6 5 7 1 1 2
PLAN 30
FMAP 2
L.S. 15
BOND $H
CONF
ACTA  50
WGHT    0.043200
EXTI    0.012301
FVAR       0.51892
SN1   6   -0.186133    0.836656    0.579353    11.00000    0.02093    0.01540 =
         0.01949   -0.00118   -0.00124   -0.00647
SN2   6   -0.353593    0.617416    0.352820    11.00000    0.01849    0.02489 =
         0.01553   -0.00788   -0.00037   -0.00268
P1    5    0.129736    0.575454    0.346586    11.00000    0.01531    0.01749 =
         0.01050    0.00031    0.00248   -0.00370
S1    4    0.371729    0.936290   -0.216304    11.00000    0.01775    0.02055 =
         0.00682    0.00254    0.00447   -0.00236
O1    3   -0.071357    0.675136    0.397672    11.00000    0.01222    0.01928 =
         0.01241   -0.00202    0.00371   -0.00311
O2    3    0.107986    0.408488    0.318943    11.00000    0.02502    0.01389 =
         0.01359    0.00112   -0.00195   -0.00485
O3    3    0.289587    0.566193    0.446401    11.00000    0.01508    0.02268 =
         0.01365    0.00165   -0.00198   -0.00521
O4    3    0.257350    0.906651   -0.321880    11.00000    0.03149    0.05011 =
         0.01552    0.00103    0.00028   -0.01259
O5    3    0.581813    0.854007   -0.231991    11.00000    0.02262    0.03654 =
         0.01666   -0.00288    0.00593    0.00012
O6    3    0.341570    1.109382   -0.201358    11.00000    0.03845    0.02339 =
         0.01859    0.00446    0.00814   -0.00153
O7    3   -0.433277    0.791781    0.487825    11.00000    0.01081    0.02155 =
         0.01608   -0.00465    0.00320   -0.00145
AFIX   3
H7    2   -0.551067    0.839591    0.504495    11.00000   -1.50000
AFIX   0
C1    1    0.189047    0.680062    0.185656    11.00000    0.01696    0.01919 =
         0.00977    0.00038    0.00265   -0.00486
C2    1    0.237144    0.596636    0.075393    11.00000    0.10282    0.02196 =
         0.02215   -0.00732    0.02661   -0.02390
AFIX  43
H2    2    0.236002    0.486195    0.083952    11.00000   -1.20000
AFIX   0
C3    1    0.286700    0.676420   -0.046972    11.00000    0.12800    0.02720 =
         0.02049   -0.00951    0.03178   -0.02565
AFIX  43
H3    2    0.315520    0.620560   -0.121289    11.00000   -1.20000
AFIX   0
C4    1    0.293666    0.839923   -0.059479    11.00000    0.02329    0.02695 =
         0.01110    0.00154    0.00565   -0.00573
C5    1    0.242768    0.925973    0.047818    11.00000    0.04073    0.02243 =
         0.01392   -0.00305    0.00862   -0.01292
AFIX  43
H5    2    0.245205    1.036152    0.038995    11.00000   -1.20000
AFIX   0
C6    1    0.187448    0.845594    0.170046    11.00000    0.04581    0.02159 =
         0.01191   -0.00478    0.01029   -0.01317
AFIX  43
H6    2    0.148780    0.903888    0.242427    11.00000   -1.20000
HKLF 4
REM  PM1-NEW IN P1               NEW: P-1
REM R1 =  0.0258 for   2146 Fo > 4sig(Fo)  and  0.0322 for all   2550 data
REM    155 parameters refined using      0 restraints
END
WGHT      0.0432      0.0000
REM Highest difference peak  0.819,  deepest hole -1.097,  1-sigma level  0.152
Q1    1   0.5097  0.6057 -0.1145  11.00000  0.05    0.82
Q2    1   0.1354  1.0866  0.2447  11.00000  0.05    0.77
Q3    1   0.1374  0.3201  0.3622  11.00000  0.05    0.62
Q4    1  -0.5585  0.7974  0.6054  11.00000  0.05    0.59
Q5    1   0.3497  0.9072 -0.2270  11.00000  0.05    0.56
Q6    1   0.1687  0.9116  0.1045  11.00000  0.05    0.55
Q7    1   0.3123  0.8528 -0.1324  11.00000  0.05    0.53
Q8    1  -0.3493  0.8336  0.4973  11.00000  0.05    0.52
Q9    1   0.3263  0.8494 -0.4065  11.00000  0.05    0.51
Q10   1  -0.2290  0.8282  0.5781  11.00000  0.05    0.48
Q11   1  -0.3182  0.7347  0.2579  11.00000  0.05    0.48
Q12   1  -0.1467  0.9481  0.4802  11.00000  0.05    0.47
Q13   1  -0.2554  0.7101  0.3193  11.00000  0.05    0.46
Q14   1   0.0353  0.6345 -0.1070  11.00000  0.05    0.45
Q15   1   0.4293  1.0775 -0.2019  11.00000  0.05    0.45
Q16   1   0.3401  0.4917  0.5460  11.00000  0.05    0.45
Q17   1   0.1932  0.9231 -0.4499  11.00000  0.05    0.44
Q18   1   0.1581  0.6646  0.2549  11.00000  0.05    0.44
Q19   1   0.1051  0.9166 -0.3846  11.00000  0.05    0.44
Q20   1  -0.1625  0.9604  0.6112  11.00000  0.05    0.44
Q21   1   0.3171  0.5926  0.4935  11.00000  0.05    0.43
Q22   1   0.2786  0.8184 -0.3009  11.00000  0.05    0.43
Q23   1   0.0303  0.9412  0.1865  11.00000  0.05    0.43
Q24   1  -0.3471  0.6575  0.2986  11.00000  0.05    0.42
Q25   1   0.1235  0.8541 -0.4876  11.00000  0.05    0.42
Q26   1  -0.0977  0.8336  0.6969  11.00000  0.05    0.42
Q27   1   0.6785  0.8635 -0.3222  11.00000  0.05    0.41
Q28   1   0.5897  0.8757 -0.2627  11.00000  0.05    0.41
Q29   1  -0.3628  0.7255  0.2814  11.00000  0.05    0.41
Q30   1   0.1891  0.8237 -0.3044  11.00000  0.05    0.41
;
_cod_data_source_file            jz3200.cif
_cod_data_source_block           I
_cod_database_code               2018012
_cod_database_fobs_code          2018012
loop_
_symmetry_equiv_pos_as_xyz
'x, y, z'
'-x, -y, -z'
loop_
_atom_site_type_symbol
_atom_site_label
_atom_site_fract_x
_atom_site_fract_y
_atom_site_fract_z
_atom_site_U_iso_or_equiv
_atom_site_adp_type
_atom_site_calc_flag
_atom_site_refinement_flags
_atom_site_occupancy
_atom_site_disorder_assembly
_atom_site_disorder_group
Sn Sn1 -0.18613(4) 0.83666(3) 0.57935(3) 0.01836(11) Uani d . 1 . .
Sn Sn2 -0.35359(4) 0.61742(3) 0.35282(2) 0.01959(11) Uani d . 1 . .
S P1 0.12974(15) 0.57545(11) 0.34659(8) 0.0149(2) Uani d . 1 . .
P S1 0.37173(16) 0.93629(12) -0.21630(9) 0.0162(2) Uani d . 1 . .
O O1 -0.0714(4) 0.6751(3) 0.3977(2) 0.0150(5) Uani d . 1 . .
O O2 0.1080(4) 0.4085(3) 0.3189(2) 0.0178(6) Uani d . 1 . .
O O3 0.2896(4) 0.5662(4) 0.4464(3) 0.0174(6) Uani d . 1 . .
O O4 0.2573(5) 0.9067(5) -0.3219(3) 0.0326(8) Uani d . 1 . .
O O5 0.5818(5) 0.8540(4) -0.2320(3) 0.0270(7) Uani d . 1 . .
O O6 0.3416(5) 1.1094(4) -0.2014(3) 0.0292(7) Uani d . 1 . .
O O7 -0.4333(4) 0.7918(3) 0.4878(3) 0.0166(5) Uani d . 1 . .
H H7 -0.5511 0.8396 0.5045 0.025 Uiso d R 1 . .
C C1 0.1890(6) 0.6801(5) 0.1857(3) 0.0156(7) Uani d . 1 . .
C C2 0.2371(11) 0.5966(6) 0.0754(5) 0.0483(17) Uani d . 1 . .
H H2 0.2360 0.4862 0.0840 0.058 Uiso calc R 1 . .
C C3 0.2867(12) 0.6764(7) -0.0470(5) 0.058(2) Uani d . 1 . .
H H3 0.3155 0.6206 -0.1213 0.070 Uiso calc R 1 . .
C C4 0.2937(7) 0.8399(5) -0.0595(4) 0.0213(8) Uani d . 1 . .
C C5 0.2428(8) 0.9260(6) 0.0478(4) 0.0251(9) Uani d . 1 . .
H H5 0.2452 1.0362 0.0390 0.030 Uiso calc R 1 . .
C C6 0.1874(8) 0.8456(5) 0.1700(4) 0.0258(10) Uani d . 1 . .
H H6 0.1488 0.9039 0.2424 0.031 Uiso calc R 1 . .
loop_
_atom_site_aniso_label
_atom_site_aniso_U_11
_atom_site_aniso_U_22
_atom_site_aniso_U_33
_atom_site_aniso_U_12
_atom_site_aniso_U_13
_atom_site_aniso_U_23
Sn1 0.02093(19) 0.01540(15) 0.01949(15) -0.00647(12) -0.00124(10) -0.00118(10)
Sn2 0.01849(19) 0.02489(17) 0.01553(15) -0.00268(12) -0.00037(10) -0.00788(10)
P1 0.0153(5) 0.0175(4) 0.0105(4) -0.0037(4) 0.0025(3) 0.0003(3)
S1 0.0178(6) 0.0206(5) 0.0068(4) -0.0024(4) 0.0045(3) 0.0025(3)
O1 0.0122(15) 0.0193(13) 0.0124(11) -0.0031(11) 0.0037(9) -0.0020(10)
O2 0.0250(17) 0.0139(12) 0.0136(12) -0.0048(12) -0.0019(10) 0.0011(9)
O3 0.0151(16) 0.0227(13) 0.0137(12) -0.0052(12) -0.0020(10) 0.0016(10)
O4 0.031(2) 0.050(2) 0.0155(13) -0.0126(17) 0.0003(12) 0.0010(13)
O5 0.0226(18) 0.0365(18) 0.0167(13) 0.0001(14) 0.0059(11) -0.0029(12)
O6 0.038(2) 0.0234(15) 0.0186(14) -0.0015(14) 0.0081(13) 0.0045(11)
O7 0.0108(15) 0.0216(13) 0.0161(12) -0.0015(11) 0.0032(10) -0.0047(10)
C1 0.017(2) 0.0192(18) 0.0098(15) -0.0049(16) 0.0027(13) 0.0004(13)
C2 0.103(5) 0.022(2) 0.022(2) -0.024(3) 0.027(3) -0.0073(18)
C3 0.128(7) 0.027(2) 0.020(2) -0.026(3) 0.032(3) -0.0095(19)
C4 0.023(2) 0.027(2) 0.0111(16) -0.0057(18) 0.0057(14) 0.0015(14)
C5 0.041(3) 0.0224(19) 0.0139(17) -0.0129(19) 0.0086(16) -0.0031(15)
C6 0.046(3) 0.022(2) 0.0119(17) -0.013(2) 0.0103(17) -0.0048(15)
loop_
_atom_type_symbol
_atom_type_description
_atom_type_scat_dispersion_real
_atom_type_scat_dispersion_imag
_atom_type_scat_source
C C 0.0033 0.0016 'International Tables Vol C Tables 4.2.6.8 and 6.1.1.4'
H H 0.0000 0.0000 'International Tables Vol C Tables 4.2.6.8 and 6.1.1.4'
O O 0.0106 0.0060 'International Tables Vol C Tables 4.2.6.8 and 6.1.1.4'
P P 0.1023 0.0942 'International Tables Vol C Tables 4.2.6.8 and 6.1.1.4'
S S 0.1246 0.1234 'International Tables Vol C Tables 4.2.6.8 and 6.1.1.4'
Sn Sn -0.6537 1.4246 'International Tables Vol C Tables 4.2.6.8 and 6.1.1.4'
loop_
_geom_angle_atom_site_label_1
_geom_angle_atom_site_label_2
_geom_angle_atom_site_label_3
_geom_angle_site_symmetry_1
_geom_angle_site_symmetry_3
_geom_angle
_geom_angle_publ_flag
O2 Sn1 O7 2_566 . 91.86(11) y
O2 Sn1 O5 2_566 1_456 78.78(11) y
O7 Sn1 O5 . 1_456 80.57(11) y
O2 Sn1 O1 2_566 . 76.92(10) y
O7 Sn1 O1 . . 69.82(10) y
O5 Sn1 O1 1_456 . 140.63(10) y
O1 Sn2 O3 . 2_566 83.12(9) y
O3 Sn2 O3 2_566 1_455 74.32(10) y
O3 Sn2 O6 1_455 2_575 119.16(10) y
O6 Sn2 O1 2_575 . 73.59(10) y
O7 Sn2 O1 . . 74.32(10) y
O6 Sn2 O3 2_575 2_566 152.13(10) y
O1 Sn2 O3 . 1_455 147.69(10) y
O2 P1 O3 . . 114.86(16) ?
O2 P1 O1 . . 109.21(16) ?
O3 P1 O1 . . 109.44(16) ?
O2 P1 C1 . . 105.38(16) ?
O3 P1 C1 . . 109.51(17) ?
O1 P1 C1 . . 108.20(17) ?
O4 S1 O6 . . 114.6(2) ?
O4 S1 O5 . . 110.8(2) ?
O6 S1 O5 . . 112.1(2) ?
O4 S1 C4 . . 108.0(2) ?
O6 S1 C4 . . 105.58(19) ?
O5 S1 C4 . . 105.10(19) ?
P1 O1 Sn2 . . 120.56(15) ?
P1 O1 Sn1 . . 136.33(16) ?
Sn2 O1 Sn1 . . 100.03(10) ?
P1 O2 Sn1 . 2_566 135.20(16) ?
P1 O3 Sn2 . 2_566 126.01(15) ?
S1 O5 Sn1 . 1_654 133.86(17) ?
Sn2 O7 Sn1 . . 114.14(13) ?
Sn2 O7 H7 . . 122.9 ?
Sn1 O7 H7 . . 122.9 ?
C2 C1 C6 . . 118.9(3) ?
C2 C1 P1 . . 120.5(3) ?
C6 C1 P1 . . 120.5(3) ?
C3 C2 C1 . . 120.3(4) ?
C3 C2 H2 . . 119.8 ?
C1 C2 H2 . . 119.8 ?
C2 C3 C4 . . 120.1(4) ?
C2 C3 H3 . . 120.0 ?
C4 C3 H3 . . 120.0 ?
C5 C4 C3 . . 120.5(4) ?
C5 C4 S1 . . 120.4(3) ?
C3 C4 S1 . . 119.1(3) ?
C4 C5 C6 . . 118.9(4) ?
C4 C5 H5 . . 120.5 ?
C6 C5 H5 . . 120.5 ?
C1 C6 C5 . . 121.1(4) ?
C1 C6 H6 . . 119.5 ?
C5 C6 H6 . . 119.5 ?
loop_
_geom_bond_atom_site_label_1
_geom_bond_atom_site_label_2
_geom_bond_site_symmetry_2
_geom_bond_distance
_geom_bond_publ_flag
Sn1 O1 . 2.425(3) y
Sn1 O2 2_566 2.124(3) y
Sn1 O5 1_456 2.412(3) y
Sn1 O7 . 2.156(3) y
Sn2 O1 . 2.243(3) y
Sn2 O3 2_566 2.345(3) y
Sn2 O3 1_455 2.726(3) y
Sn2 O6 2_575 2.587(3) y
Sn2 O7 . 2.108(3) y
P1 O1 . 1.548(3) y
P1 O2 . 1.532(3) y
P1 O3 . 1.532(3) y
P1 C1 . 1.798(3) y
S1 O4 . 1.460(3) y
S1 O5 . 1.469(4) y
S1 O6 . 1.460(3) y
S1 C4 . 1.780(4) y
O2 Sn1 2_566 2.124(3) ?
O3 Sn2 2_566 2.345(3) ?
O5 Sn1 1_654 2.412(3) ?
O7 H7 . 0.8400 ?
C1 C2 . 1.384(6) ?
C1 C6 . 1.387(5) ?
C2 C3 . 1.378(6) ?
C2 H2 . 0.9300 ?
C3 C4 . 1.387(7) ?
C3 H3 . 0.9300 ?
C4 C5 . 1.373(6) ?
C5 C6 . 1.392(5) ?
C5 H5 . 0.9300 ?
C6 H6 . 0.9300 ?
loop_
_geom_hbond_atom_site_label_D
_geom_hbond_atom_site_label_H
_geom_hbond_atom_site_label_A
_geom_hbond_site_symmetry_A
_geom_hbond_distance_DH
_geom_hbond_distance_HA
_geom_hbond_distance_DA
_geom_hbond_angle_DHA
_geom_hbond_publ_flag
O7 H7 O4 1_456 0.84 2.19 2.874(4) 139 y
loop_
_geom_torsion_atom_site_label_1
_geom_torsion_atom_site_label_2
_geom_torsion_atom_site_label_3
_geom_torsion_atom_site_label_4
_geom_torsion_site_symmetry_1
_geom_torsion_site_symmetry_2
_geom_torsion_site_symmetry_3
_geom_torsion_site_symmetry_4
_geom_torsion
_geom_torsion_publ_flag
O2 P1 O1 Sn2 . . . . -22.09(19) ?
O3 P1 O1 Sn2 . . . . -148.61(15) ?
C1 P1 O1 Sn2 . . . . 92.13(19) ?
O2 P1 O1 Sn1 . . . . 133.60(19) ?
O3 P1 O1 Sn1 . . . . 7.1(2) ?
C1 P1 O1 Sn1 . . . . -112.2(2) ?
O7 Sn2 O1 P1 . . . . 172.43(18) ?
O3 Sn2 O1 P1 2_566 . . . 88.70(16) ?
O7 Sn2 O1 Sn1 . . . . 9.21(9) ?
O3 Sn2 O1 Sn1 2_566 . . . -74.52(10) ?
O2 Sn1 O1 P1 2_566 . . . -71.2(2) ?
O7 Sn1 O1 P1 . . . . -168.1(2) ?
O5 Sn1 O1 P1 1_456 . . . -124.5(2) ?
O2 Sn1 O1 Sn2 2_566 . . . 87.70(11) ?
O7 Sn1 O1 Sn2 . . . . -9.24(9) ?
O5 Sn1 O1 Sn2 1_456 . . . 34.4(2) ?
O3 P1 O2 Sn1 . . . 2_566 20.6(3) ?
O1 P1 O2 Sn1 . . . 2_566 -102.8(2) ?
C1 P1 O2 Sn1 . . . 2_566 141.2(2) ?
O2 P1 O3 Sn2 . . . 2_566 -41.9(2) ?
O1 P1 O3 Sn2 . . . 2_566 81.3(2) ?
C1 P1 O3 Sn2 . . . 2_566 -160.25(19) ?
O4 S1 O5 Sn1 . . . 1_654 46.7(3) ?
O6 S1 O5 Sn1 . . . 1_654 -82.7(3) ?
C4 S1 O5 Sn1 . . . 1_654 163.1(3) ?
O1 Sn2 O7 Sn1 . . . . -11.20(11) ?
O3 Sn2 O7 Sn1 2_566 . . . 73.82(13) ?
O2 Sn1 O7 Sn2 2_566 . . . -64.71(13) ?
O5 Sn1 O7 Sn2 1_456 . . . -143.01(14) ?
O1 Sn1 O7 Sn2 . . . . 10.62(10) ?
O2 P1 C1 C2 . . . . -10.6(5) ?
O3 P1 C1 C2 . . . . 113.5(5) ?
O1 P1 C1 C2 . . . . -127.3(5) ?
O2 P1 C1 C6 . . . . 169.4(4) ?
O3 P1 C1 C6 . . . . -66.5(4) ?
O1 P1 C1 C6 . . . . 52.7(4) ?
C6 C1 C2 C3 . . . . 1.4(9) ?
P1 C1 C2 C3 . . . . -178.6(6) ?
C1 C2 C3 C4 . . . . 1.7(11) ?
C2 C3 C4 C5 . . . . -3.0(10) ?
C2 C3 C4 S1 . . . . 176.5(6) ?
O4 S1 C4 C5 . . . . -129.8(4) ?
O6 S1 C4 C5 . . . . -6.8(5) ?
O5 S1 C4 C5 . . . . 111.9(4) ?
O4 S1 C4 C3 . . . . 50.8(6) ?
O6 S1 C4 C3 . . . . 173.8(5) ?
O5 S1 C4 C3 . . . . -67.5(5) ?
C3 C4 C5 C6 . . . . 1.1(8) ?
S1 C4 C5 C6 . . . . -178.3(4) ?
C2 C1 C6 C5 . . . . -3.3(8) ?
P1 C1 C6 C5 . . . . 176.7(4) ?
C4 C5 C6 C1 . . . . 2.0(8) ?
