#------------------------------------------------------------------------------
#$Date: 2016-02-20 00:18:51 +0200 (Sat, 20 Feb 2016) $
#$Revision: 176760 $
#$URL: svn://www.crystallography.net/cod/cif/2/01/84/2018434.cif $
#------------------------------------------------------------------------------
#
# This file is available in the Crystallography Open Database (COD),
# http://www.crystallography.net/. The original data for this entry
# were provided by IUCr Journals, http://journals.iucr.org/.
#
# The file may be used within the scientific community so long as
# proper attribution is given to the journal article from which the
# data were obtained.
#
data_2018434
loop_
_publ_author_name
'Blanco, Maria C.'
'Palma, Alirio'
'Cobo, Justo'
'Glidewell, Christopher'
_publ_section_title
;
 Nine closely related tetrahydro-1,4-epoxy-1-benzazepines carrying pendant
 heterocyclic substituents: hydrogen-bonded supramolecular assembly in
 zero, one and two dimensions
;
_journal_coeditor_code           SK3430
_journal_issue                   3
_journal_name_full               'Acta Crystallographica Section C'
_journal_page_first              o131
_journal_page_last               o140
_journal_paper_doi               10.1107/S010827011200707X
_journal_volume                  68
_journal_year                    2012
_chemical_formula_iupac          'C16 H14 F3 N O3'
_chemical_formula_moiety         'C16 H14 F3 N O3'
_chemical_formula_sum            'C16 H14 F3 N O3'
_chemical_formula_weight         325.28
_chemical_name_systematic
;
2-<i>exo</i>-(5-methylfuran-2-yl)-7-trifluoromethoxy-2,3,4,5-tetrahydro-
1,4-epoxy-1<i>H</i>-1-benzazepine
;
_space_group_IT_number           2
_symmetry_cell_setting           triclinic
_symmetry_space_group_name_Hall  '-P 1'
_symmetry_space_group_name_H-M   'P -1'
_atom_sites_solution_hydrogens   geom
_atom_sites_solution_primary     direct
_atom_sites_solution_secondary   difmap
_cell_angle_alpha                110.011(10)
_cell_angle_beta                 98.797(10)
_cell_angle_gamma                92.271(12)
_cell_formula_units_Z            2
_cell_length_a                   5.5088(6)
_cell_length_b                   10.7619(17)
_cell_length_c                   13.1398(19)
_cell_measurement_reflns_used    3299
_cell_measurement_temperature    120(2)
_cell_measurement_theta_max      27.50
_cell_measurement_theta_min      3.05
_cell_volume                     719.80(18)
_computing_cell_refinement       'DIRAX/LSQ (Duisenberg <i>et al.</i>, 2000)'
_computing_data_collection       'COLLECT (Nonius, 1999)'
_computing_data_reduction        'EVALCCD (Duisenberg <i>et al.</i>, 2003)'
_computing_molecular_graphics    'PLATON (Spek, 2009)'
_computing_publication_material
;
SHELXL97 (Sheldrick, 2008) and PLATON (Spek, 2009)
;
_computing_structure_refinement  'SHELXL97 (Sheldrick, 2008)'
_computing_structure_solution    'SIR2004 (Burla <i>et al.</i>, 2005)'
_diffrn_ambient_temperature      120(2)
_diffrn_detector_area_resol_mean 9.091
_diffrn_measured_fraction_theta_full 0.999
_diffrn_measured_fraction_theta_max 0.999
_diffrn_measurement_device_type  'Bruker Nonius KappaCCD area-detector'
_diffrn_measurement_method       '\f and \w'
_diffrn_radiation_monochromator  graphite
_diffrn_radiation_source         'Bruker Nonius FR591 rotating anode'
_diffrn_radiation_type           'Mo K\a'
_diffrn_radiation_wavelength     0.71073
_diffrn_reflns_av_R_equivalents  0.1110
_diffrn_reflns_av_sigmaI/netI    0.0891
_diffrn_reflns_limit_h_max       7
_diffrn_reflns_limit_h_min       -6
_diffrn_reflns_limit_k_max       13
_diffrn_reflns_limit_k_min       -13
_diffrn_reflns_limit_l_max       17
_diffrn_reflns_limit_l_min       -17
_diffrn_reflns_number            21281
_diffrn_reflns_theta_full        27.50
_diffrn_reflns_theta_max         27.50
_diffrn_reflns_theta_min         3.05
_diffrn_standards_decay_%        0
_diffrn_standards_interval_count 0
_diffrn_standards_interval_time  0
_diffrn_standards_number         0
_exptl_absorpt_coefficient_mu    0.129
_exptl_absorpt_correction_T_max  0.990
_exptl_absorpt_correction_T_min  0.949
_exptl_absorpt_correction_type   multi-scan
_exptl_absorpt_process_details   '(SADABS; Sheldrick, 2003)'
_exptl_crystal_colour            colourless
_exptl_crystal_density_diffrn    1.501
_exptl_crystal_density_method    'not measured'
_exptl_crystal_description       needle
_exptl_crystal_F_000             336
_exptl_crystal_size_max          0.41
_exptl_crystal_size_mid          0.19
_exptl_crystal_size_min          0.08
_refine_diff_density_max         0.258
_refine_diff_density_min         -0.306
_refine_ls_extinction_method     none
_refine_ls_goodness_of_fit_ref   1.011
_refine_ls_hydrogen_treatment    constr
_refine_ls_matrix_type           full
_refine_ls_number_parameters     209
_refine_ls_number_reflns         3299
_refine_ls_number_restraints     0
_refine_ls_restrained_S_all      1.011
_refine_ls_R_factor_all          0.1440
_refine_ls_R_factor_gt           0.0557
_refine_ls_shift/su_max          0.001
_refine_ls_shift/su_mean         0.000
_refine_ls_structure_factor_coef Fsqd
_refine_ls_weighting_details
'w = 1/[\s^2^(Fo^2^)+(0.0626P)^2^+0.2269P] where P=(Fo^2^+2Fc^2^)/3'
_refine_ls_weighting_scheme      calc
_refine_ls_wR_factor_gt          0.1141
_refine_ls_wR_factor_ref         0.1470
_reflns_number_gt                1690
_reflns_number_total             3299
_reflns_threshold_expression     I>2\s(I)
_iucr_refine_instructions_details
;
TITL CAB-153
CELL  0.71073   5.5088  10.7619  13.1398  110.011   98.797   92.271
ZERR     2.00   0.0006   0.0017   0.0019    0.010    0.010    0.012
LATT   1
SFAC  C    H    N    O    F
UNIT  32   28   2    6    6
MERG   2
OMIT    -2.00 180.00
FMAP   2
PLAN   20
SIZE     0.08   0.19   0.41
ACTA
BOND   $H
CONF
HTAB
LIST   4
L.S.   8
TEMP  -153.00
WGHT    0.062600    0.226900
FVAR       0.98686
N1    3    0.426462    0.166586    0.371271    11.00000    0.02312    0.02077 =
         0.02709    0.00748    0.00463    0.00190
C2    1    0.602835    0.262476    0.466831    11.00000    0.02516    0.02171 =
         0.02504    0.00505    0.00591   -0.00055
AFIX  13
H2    2    0.660587    0.338569    0.446390    11.00000   -1.20000
AFIX   0
C3    1    0.823011    0.182063    0.483349    11.00000    0.02435    0.03113 =
         0.02960    0.00634    0.00589    0.00313
AFIX  23
H3A   2    0.968961    0.212355    0.459293    11.00000   -1.20000
H3B   2    0.868299    0.190398    0.561440    11.00000   -1.20000
AFIX   0
C4    1    0.725850    0.039298    0.410839    11.00000    0.01963    0.02859 =
         0.03104    0.01142    0.00495    0.00520
AFIX  13
H4    2    0.771750   -0.023378    0.450271    11.00000   -1.20000
AFIX   0
C5    1    0.810574   -0.003839    0.300463    11.00000    0.02413    0.02557 =
         0.03247    0.00940    0.00878    0.00602
AFIX  23
H5A   2    0.992931    0.009679    0.311956    11.00000   -1.20000
H5B   2    0.758826   -0.099559    0.260154    11.00000   -1.20000
AFIX   0
C5a   1    0.699711    0.076069    0.233748    11.00000    0.01897    0.02059 =
         0.02848    0.00535    0.00266   -0.00053
C6    1    0.780300    0.075842    0.138737    11.00000    0.02433    0.02554 =
         0.02883    0.00629    0.00860    0.00283
AFIX  43
H6    2    0.907815    0.023212    0.112881    11.00000   -1.20000
AFIX   0
C7    1    0.673755    0.152843    0.081690    11.00000    0.03256    0.03210 =
         0.01981    0.00588    0.00894    0.00197
C8    1    0.482882    0.227984    0.114261    11.00000    0.03145    0.03337 =
         0.02491    0.01154    0.00376    0.00669
AFIX  43
H8    2    0.407717    0.277386    0.072519    11.00000   -1.20000
AFIX   0
C9    1    0.404865    0.228812    0.209889    11.00000    0.02501    0.02992 =
         0.02905    0.00690    0.00469    0.00685
AFIX  43
H9    2    0.275599    0.280670    0.234650    11.00000   -1.20000
AFIX   0
C9a   1    0.511653    0.155642    0.269741    11.00000    0.02297    0.02150 =
         0.02468    0.00580    0.00590    0.00164
O14   4    0.458957    0.042326    0.390164    11.00000    0.02426    0.02236 =
         0.03229    0.01093    0.00674    0.00200
O71   4    0.767528    0.143491   -0.015336    11.00000    0.04854    0.03502 =
         0.03023    0.01167    0.01788    0.00951
C71   1    0.799354    0.251650   -0.039795    11.00000    0.04353    0.04426 =
         0.02789    0.01573    0.01306    0.01465
F1    5    0.933905    0.225732   -0.119111    11.00000    0.06606    0.06269 =
         0.04218    0.02817    0.03124    0.02360
F2    5    0.916326    0.354426    0.044474    11.00000    0.08770    0.04558 =
         0.04705    0.00952    0.02589   -0.01271
F3    5    0.590029    0.290461   -0.077173    11.00000    0.06666    0.12693 =
         0.06314    0.06908    0.02819    0.05275
O21   4    0.318162    0.406338    0.562324    11.00000    0.02881    0.02218 =
         0.02160    0.00667    0.00608    0.00408
C22   1    0.484024    0.313973    0.565455    11.00000    0.02338    0.01927 =
         0.02823    0.00867    0.00518    0.00372
C23   1    0.497669    0.292478    0.661647    11.00000    0.03568    0.02465 =
         0.02728    0.01062    0.00504    0.00487
AFIX  43
H23   2    0.599078    0.234423    0.684953    11.00000   -1.20000
AFIX   0
C24   1    0.330817    0.373543    0.721605    11.00000    0.03685    0.03064 =
         0.02287    0.00996    0.00899    0.00651
AFIX  43
H24   2    0.299728    0.379448    0.792182    11.00000   -1.20000
AFIX   0
C25   1    0.225960    0.440043    0.658834    11.00000    0.02730    0.01984 =
         0.02099    0.00330    0.00778   -0.00062
C251  1    0.037596    0.537542    0.673144    11.00000    0.03018    0.02614 =
         0.02767    0.00755    0.00695    0.00428
AFIX 137
H25A  2    0.119950    0.627504    0.695095    11.00000   -1.50000
H25B  2   -0.053529    0.532128    0.730212    11.00000   -1.50000
H25C  2   -0.077414    0.517065    0.603530    11.00000   -1.50000
HKLF    4
REM  CAB-153
REM R1 =  0.0557 for   1690 Fo > 4sig(Fo)  and  0.1440 for all   3299 data
REM    209 parameters refined using      0 restraints
END
WGHT      0.0626      0.2269
REM Highest difference peak  0.258,  deepest hole -0.306,  1-sigma level  0.066
Q1    1   0.6453 -0.0738  0.5116  11.00000  0.05    0.26
Q2    1   0.4287  0.1253  0.2242  11.00000  0.05    0.24
Q3    1   0.6493  0.4379  0.7188  11.00000  0.05    0.24
Q4    1   0.6132  0.1183  0.2548  11.00000  0.05    0.24
Q5    1   0.2358  0.3489  0.0195  11.00000  0.05    0.22
Q6    1   1.0874 -0.1000  0.2923  11.00000  0.05    0.21
Q7    1   1.0327  0.0937  0.1454  11.00000  0.05    0.21
Q8    1   0.2127  0.2075  0.3393  11.00000  0.05    0.21
Q9    1   0.9962  0.3031  0.6390  11.00000  0.05    0.20
Q10   1   0.0650  0.3235  0.8195  11.00000  0.05    0.20
Q11   1   0.3597  0.0556  0.1258  11.00000  0.05    0.20
Q12   1   0.2101  0.3099  0.3726  11.00000  0.05    0.20
Q13   1   0.9400 -0.0877  0.1596  11.00000  0.05    0.20
Q14   1   0.8846  0.1550  0.6611  11.00000  0.05    0.20
Q15   1   0.3038  0.3769  0.1004  11.00000  0.05    0.19
Q16   1   1.1081  0.4775  0.1349  11.00000  0.05    0.19
Q17   1   0.5122  0.0005  0.3022  11.00000  0.05    0.19
Q18   1   0.3234  0.4770  0.5460  11.00000  0.05    0.19
Q19   1   0.8772 -0.0771  0.2459  11.00000  0.05    0.19
Q20   1   0.8947 -0.1249  0.0028  11.00000  0.05    0.19
;
_cod_data_source_file            sk3430.cif
_cod_data_source_block           VII
_cod_database_code               2018434
_cod_database_fobs_code          2018434
loop_
_symmetry_equiv_pos_as_xyz
'x, y, z'
'-x, -y, -z'
loop_
_atom_site_type_symbol
_atom_site_label
_atom_site_fract_x
_atom_site_fract_y
_atom_site_fract_z
_atom_site_U_iso_or_equiv
_atom_site_adp_type
_atom_site_calc_flag
_atom_site_refinement_flags
_atom_site_occupancy
_atom_site_symmetry_multiplicity
F F1 0.9339(3) 0.22573(19) -0.11911(14) 0.0515(5) Uani d . 1 1
F F2 0.9163(4) 0.35443(18) 0.04447(15) 0.0609(6) Uani d . 1 1
F F3 0.5900(4) 0.2905(3) -0.07717(17) 0.0731(7) Uani d . 1 1
O O14 0.4590(3) 0.04233(17) 0.39016(14) 0.0258(4) Uani d . 1 1
O O21 0.3182(3) 0.40634(16) 0.56232(13) 0.0243(4) Uani d . 1 1
O O71 0.7675(4) 0.14349(19) -0.01534(15) 0.0365(5) Uani d . 1 1
N N1 0.4265(4) 0.1666(2) 0.37127(17) 0.0239(5) Uani d . 1 1
C C2 0.6028(5) 0.2625(3) 0.4668(2) 0.0247(6) Uani d . 1 1
H H2 0.6606 0.3386 0.4464 0.030 Uiso calc R 1 1
C C3 0.8230(5) 0.1821(3) 0.4833(2) 0.0294(6) Uani d . 1 1
H H3A 0.9690 0.2124 0.4593 0.035 Uiso calc R 1 1
H H3B 0.8683 0.1904 0.5614 0.035 Uiso calc R 1 1
C C4 0.7259(4) 0.0393(3) 0.4108(2) 0.0261(6) Uani d . 1 1
H H4 0.7717 -0.0234 0.4503 0.031 Uiso calc R 1 1
C C5 0.8106(5) -0.0038(3) 0.3005(2) 0.0271(6) Uani d . 1 1
H H5A 0.9929 0.0097 0.3120 0.033 Uiso calc R 1 1
H H5B 0.7588 -0.0996 0.2602 0.033 Uiso calc R 1 1
C C5a 0.6997(4) 0.0761(2) 0.2337(2) 0.0238(6) Uani d . 1 1
C C6 0.7803(5) 0.0758(3) 0.1387(2) 0.0267(6) Uani d . 1 1
H H6 0.9078 0.0232 0.1129 0.032 Uiso calc R 1 1
C C7 0.6738(5) 0.1528(3) 0.0817(2) 0.0286(6) Uani d . 1 1
C C8 0.4829(5) 0.2280(3) 0.1143(2) 0.0296(6) Uani d . 1 1
H H8 0.4077 0.2774 0.0725 0.036 Uiso calc R 1 1
C C9 0.4049(5) 0.2288(3) 0.2099(2) 0.0288(6) Uani d . 1 1
H H9 0.2756 0.2807 0.2347 0.035 Uiso calc R 1 1
C C9a 0.5117(4) 0.1556(2) 0.2697(2) 0.0235(6) Uani d . 1 1
C C22 0.4840(5) 0.3140(2) 0.5655(2) 0.0234(6) Uani d . 1 1
C C23 0.4977(5) 0.2925(3) 0.6616(2) 0.0288(6) Uani d . 1 1
H H23 0.5991 0.2344 0.6850 0.035 Uiso calc R 1 1
C C24 0.3308(5) 0.3735(3) 0.7216(2) 0.0295(6) Uani d . 1 1
H H24 0.2997 0.3794 0.7922 0.035 Uiso calc R 1 1
C C25 0.2260(5) 0.4400(2) 0.6588(2) 0.0234(6) Uani d . 1 1
C C71 0.7994(6) 0.2516(3) -0.0398(2) 0.0367(7) Uani d . 1 1
C C251 0.0376(5) 0.5375(3) 0.6731(2) 0.0283(6) Uani d . 1 1
H H25A 0.1200 0.6275 0.6951 0.042 Uiso calc R 1 1
H H25B -0.0535 0.5321 0.7302 0.042 Uiso calc R 1 1
H H25C -0.0774 0.5171 0.6035 0.042 Uiso calc R 1 1
loop_
_atom_site_aniso_label
_atom_site_aniso_U_11
_atom_site_aniso_U_22
_atom_site_aniso_U_33
_atom_site_aniso_U_12
_atom_site_aniso_U_13
_atom_site_aniso_U_23
N1 0.0231(12) 0.0208(12) 0.0271(12) 0.0019(9) 0.0046(9) 0.0075(10)
C2 0.0252(14) 0.0217(14) 0.0250(14) -0.0005(11) 0.0059(11) 0.0051(11)
C3 0.0244(14) 0.0311(16) 0.0296(15) 0.0031(12) 0.0059(12) 0.0063(13)
C4 0.0196(14) 0.0286(15) 0.0310(15) 0.0052(11) 0.0050(11) 0.0114(13)
C5 0.0241(14) 0.0256(15) 0.0325(16) 0.0060(11) 0.0088(12) 0.0094(13)
C5a 0.0190(13) 0.0206(14) 0.0285(15) -0.0005(11) 0.0027(11) 0.0054(12)
C6 0.0243(14) 0.0255(15) 0.0288(15) 0.0028(11) 0.0086(12) 0.0063(12)
C7 0.0326(16) 0.0321(16) 0.0198(14) 0.0020(12) 0.0089(12) 0.0059(12)
C8 0.0315(16) 0.0334(16) 0.0249(15) 0.0067(12) 0.0038(12) 0.0115(13)
C9 0.0250(14) 0.0299(16) 0.0290(15) 0.0068(12) 0.0047(12) 0.0069(13)
C9a 0.0230(14) 0.0215(14) 0.0247(14) 0.0016(11) 0.0059(11) 0.0058(11)
O14 0.0243(10) 0.0224(10) 0.0323(11) 0.0020(8) 0.0067(8) 0.0109(8)
O71 0.0485(13) 0.0350(12) 0.0302(11) 0.0095(10) 0.0179(9) 0.0117(10)
C71 0.0435(19) 0.044(2) 0.0279(16) 0.0147(15) 0.0131(14) 0.0157(15)
F1 0.0661(13) 0.0627(13) 0.0422(11) 0.0236(10) 0.0312(10) 0.0282(10)
F2 0.0877(15) 0.0456(12) 0.0470(12) -0.0127(11) 0.0259(11) 0.0095(10)
F3 0.0667(14) 0.127(2) 0.0631(14) 0.0527(13) 0.0282(11) 0.0691(14)
O21 0.0288(10) 0.0222(10) 0.0216(10) 0.0041(8) 0.0061(8) 0.0067(8)
C22 0.0234(14) 0.0193(14) 0.0282(15) 0.0037(11) 0.0052(11) 0.0087(12)
C23 0.0357(16) 0.0247(15) 0.0273(15) 0.0049(12) 0.0050(12) 0.0106(12)
C24 0.0369(16) 0.0306(16) 0.0229(14) 0.0065(12) 0.0090(12) 0.0100(12)
C25 0.0273(14) 0.0198(14) 0.0210(13) -0.0006(11) 0.0078(11) 0.0033(11)
C251 0.0302(15) 0.0261(15) 0.0277(15) 0.0043(12) 0.0070(12) 0.0075(12)
loop_
_atom_type_symbol
_atom_type_description
_atom_type_scat_dispersion_real
_atom_type_scat_dispersion_imag
_atom_type_scat_source
C C 0.0033 0.0016 'International Tables Vol C Tables 4.2.6.8 and 6.1.1.4'
H H 0.0000 0.0000 'International Tables Vol C Tables 4.2.6.8 and 6.1.1.4'
F F 0.0171 0.0103 'International Tables Vol C Tables 4.2.6.8 and 6.1.1.4'
N N 0.0061 0.0033 'International Tables Vol C Tables 4.2.6.8 and 6.1.1.4'
O O 0.0106 0.0060 'International Tables Vol C Tables 4.2.6.8 and 6.1.1.4'
loop_
_geom_angle_atom_site_label_1
_geom_angle_atom_site_label_2
_geom_angle_atom_site_label_3
_geom_angle
C9a N1 O14 107.84(18)
C9a N1 C2 109.50(19)
O14 N1 C2 101.50(18)
C22 C2 N1 111.2(2)
C22 C2 C3 113.5(2)
N1 C2 C3 104.3(2)
C22 C2 H2 109.3
N1 C2 H2 109.3
C3 C2 H2 109.3
C4 C3 C2 103.6(2)
C4 C3 H3A 111.0
C2 C3 H3A 111.0
C4 C3 H3B 111.0
C2 C3 H3B 111.0
H3A C3 H3B 109.0
O14 C4 C5 107.6(2)
O14 C4 C3 103.99(19)
C5 C4 C3 112.8(2)
O14 C4 H4 110.7
C5 C4 H4 110.7
C3 C4 H4 110.7
C5a C5 C4 109.8(2)
C5a C5 H5A 109.7
C4 C5 H5A 109.7
C5a C5 H5B 109.7
C4 C5 H5B 109.7
H5A C5 H5B 108.2
C6 C5a C9a 118.6(2)
C6 C5a C5 122.2(2)
C9a C5a C5 119.2(2)
C7 C6 C5a 119.6(2)
C7 C6 H6 120.2
C5a C6 H6 120.2
C8 C7 C6 122.3(2)
C8 C7 O71 122.7(2)
C6 C7 O71 114.9(2)
C7 C8 C9 117.7(2)
C7 C8 H8 121.1
C9 C8 H8 121.1
C9a C9 C8 121.2(2)
C9a C9 H9 119.4
C8 C9 H9 119.4
C9 C9a C5a 120.5(2)
C9 C9a N1 117.6(2)
C5a C9a N1 121.8(2)
N1 O14 C4 104.10(17)
C71 O71 C7 119.2(2)
O71 C71 F3 113.3(3)
O71 C71 F2 113.2(2)
F3 C71 F2 107.1(3)
O71 C71 F1 108.5(2)
F3 C71 F1 106.9(2)
F2 C71 F1 107.6(3)
C25 O21 C22 106.90(19)
C23 C22 O21 109.3(2)
C23 C22 C2 135.2(2)
O21 C22 C2 115.5(2)
C22 C23 C24 107.1(2)
C22 C23 H23 126.5
C24 C23 H23 126.5
C25 C24 C23 106.9(2)
C25 C24 H24 126.6
C23 C24 H24 126.6
C24 C25 O21 109.9(2)
C24 C25 C251 133.5(2)
O21 C25 C251 116.6(2)
C25 C251 H25A 109.5
C25 C251 H25B 109.5
H25A C251 H25B 109.5
C25 C251 H25C 109.5
H25A C251 H25C 109.5
H25B C251 H25C 109.5
loop_
_geom_bond_atom_site_label_1
_geom_bond_atom_site_label_2
_geom_bond_distance
N1 C9a 1.450(3)
N1 O14 1.454(3)
N1 C2 1.499(3)
C2 C22 1.487(3)
C2 C3 1.549(4)
C2 H2 1.0000
C3 C4 1.527(4)
C3 H3A 0.9900
C3 H3B 0.9900
C4 O14 1.457(3)
C4 C5 1.517(4)
C4 H4 1.0000
C5 C5a 1.508(4)
C5 H5A 0.9900
C5 H5B 0.9900
C5a C6 1.387(4)
C5a C9a 1.405(3)
C6 C7 1.386(4)
C6 H6 0.9500
C7 C8 1.382(4)
C7 O71 1.421(3)
C8 C9 1.386(4)
C8 H8 0.9500
C9 C9a 1.380(4)
C9 H9 0.9500
O71 C71 1.321(3)
C71 F3 1.323(3)
C71 F2 1.324(3)
C71 F1 1.329(3)
O21 C25 1.376(3)
O21 C22 1.383(3)
C22 C23 1.352(4)
C23 C24 1.429(4)
C23 H23 0.9500
C24 C25 1.348(4)
C24 H24 0.9500
C25 C251 1.491(3)
C251 H25A 0.9800
C251 H25B 0.9800
C251 H25C 0.9800
loop_
_geom_hbond_atom_site_label_D
_geom_hbond_atom_site_label_H
_geom_hbond_atom_site_label_A
_geom_hbond_site_symmetry_A
_geom_hbond_distance_DH
_geom_hbond_distance_HA
_geom_hbond_distance_DA
_geom_hbond_angle_DHA
_geom_hbond_publ_flag
C5 H5A O14 1_655 0.99 2.58 3.545(3) 165 no
loop_
_geom_torsion_atom_site_label_1
_geom_torsion_atom_site_label_2
_geom_torsion_atom_site_label_3
_geom_torsion_atom_site_label_4
_geom_torsion
C9a N1 C2 C22 159.6(2)
O14 N1 C2 C22 -86.6(2)
C9a N1 C2 C3 -77.8(2)
O14 N1 C2 C3 36.0(2)
C22 C2 C3 C4 109.6(2)
N1 C2 C3 C4 -11.6(3)
C2 C3 C4 O14 -17.1(3)
C2 C3 C4 C5 99.2(2)
O14 C4 C5 C5a 48.5(3)
C3 C4 C5 C5a -65.7(3)
C4 C5 C5a C6 167.7(2)
C4 C5 C5a C9a -11.1(3)
C9a C5a C6 C7 -0.3(4)
C5 C5a C6 C7 -179.1(2)
C5a C6 C7 C8 -1.9(4)
C5a C6 C7 O71 -179.0(2)
C6 C7 C8 C9 2.5(4)
O71 C7 C8 C9 179.4(2)
C7 C8 C9 C9a -0.9(4)
C8 C9 C9a C5a -1.3(4)
C8 C9 C9a N1 177.4(2)
C6 C5a C9a C9 1.9(4)
C5 C5a C9a C9 -179.3(2)
C6 C5a C9a N1 -176.7(2)
C5 C5a C9a N1 2.1(4)
O14 N1 C9a C9 151.6(2)
C2 N1 C9a C9 -98.8(3)
O14 N1 C9a C5a -29.8(3)
C2 N1 C9a C5a 79.9(3)
C9a N1 O14 C4 66.7(2)
C2 N1 O14 C4 -48.4(2)
C5 C4 O14 N1 -78.9(2)
C3 C4 O14 N1 41.0(2)
C8 C7 O71 C71 41.8(4)
C6 C7 O71 C71 -141.1(3)
C7 O71 C71 F3 -74.3(3)
C7 O71 C71 F2 47.8(3)
C7 O71 C71 F1 167.2(2)
C25 O21 C22 C23 -1.0(3)
C25 O21 C22 C2 179.1(2)
N1 C2 C22 C23 105.6(3)
C3 C2 C22 C23 -11.6(4)
N1 C2 C22 O21 -74.4(3)
C3 C2 C22 O21 168.4(2)
O21 C22 C23 C24 0.7(3)
C2 C22 C23 C24 -179.3(3)
C22 C23 C24 C25 -0.2(3)
C23 C24 C25 O21 -0.4(3)
C23 C24 C25 C251 179.2(3)
C22 O21 C25 C24 0.8(3)
C22 O21 C25 C251 -178.8(2)
