#------------------------------------------------------------------------------
#$Date: 2016-02-20 00:18:51 +0200 (Sat, 20 Feb 2016) $
#$Revision: 176760 $
#$URL: svn://www.crystallography.net/cod/cif/2/01/83/2018389.cif $
#------------------------------------------------------------------------------
#
# This file is available in the Crystallography Open Database (COD),
# http://www.crystallography.net/. The original data for this entry
# were provided by IUCr Journals, http://journals.iucr.org/.
#
# The file may be used within the scientific community so long as
# proper attribution is given to the journal article from which the
# data were obtained.
#
data_2018389
loop_
_publ_author_name
'Gerhardt, Valeska'
'Tutughamiarso, Maya'
'Bolte, Michael'
_publ_section_title
;
 Conformational studies of hydantoin-5-acetic acid and orotic acid
;
_journal_coeditor_code           SK3419
_journal_issue                   2
_journal_name_full               'Acta Crystallographica Section C'
_journal_page_first              o92
_journal_page_last               o98
_journal_paper_doi               10.1107/S0108270112001151
_journal_volume                  68
_journal_year                    2012
_chemical_formula_iupac          'C2 H8 N + , C5 H3 N2 O4 - , C5 H4 N2 O4'
_chemical_formula_moiety         'C2 H8 N +, C5 H3 N2 O4 -, C5 H4 N2 O4'
_chemical_formula_sum            'C12 H15 N5 O8'
_chemical_formula_weight         357.29
_chemical_name_common
;
dimethylammonium orotate--orotic acid (1/1)
;
_chemical_name_systematic
;
dimethylammonium 2,6-dioxo-1,2,3,6-tetrahydropyrimidine-4-carboxylate
2,6-dioxo-1,2,3,6-tetrahydropyrimidine-4-carboxylic acid
;
_space_group_IT_number           2
_symmetry_cell_setting           triclinic
_symmetry_space_group_name_Hall  '-P 1'
_symmetry_space_group_name_H-M   'P -1'
_atom_sites_solution_hydrogens   geom
_atom_sites_solution_primary     direct
_atom_sites_solution_secondary   difmap
_audit_creation_method           SHELXL97
_cell_angle_alpha                112.366(3)
_cell_angle_beta                 97.263(2)
_cell_angle_gamma                104.621(2)
_cell_formula_units_Z            2
_cell_length_a                   8.1110(10)
_cell_length_b                   8.9503(11)
_cell_length_c                   11.6804(15)
_cell_measurement_reflns_used    1108
_cell_measurement_temperature    173(2)
_cell_measurement_theta_max      25.0
_cell_measurement_theta_min      3.0
_cell_volume                     734.94(16)
_computing_cell_refinement       'SAINT (Siemens, 1994)'
_computing_data_collection       'SMART (Siemens, 1994)'
_computing_data_reduction        'SAINT (Siemens, 1994)'
_computing_molecular_graphics
;
Mercury (Macrae <i>et al.</i>, 2008) and XP (Sheldrick, 2008)
;
_computing_publication_material  'publCIF (Westrip, 2010)'
_computing_structure_refinement  'SHELXL97 (Sheldrick, 2008)'
_computing_structure_solution    'SHELXS97 (Sheldrick, 2008)'
_diffrn_ambient_temperature      173(2)
_diffrn_measured_fraction_theta_full 0.983
_diffrn_measured_fraction_theta_max 0.983
_diffrn_measurement_device_type  'Siemens SMART three-circle'
_diffrn_measurement_method       \w
_diffrn_radiation_monochromator  graphite
_diffrn_radiation_source         'fine-focus sealed tube'
_diffrn_radiation_type           MoK\a
_diffrn_radiation_wavelength     0.71073
_diffrn_reflns_av_R_equivalents  0.0721
_diffrn_reflns_av_sigmaI/netI    0.1552
_diffrn_reflns_limit_h_max       9
_diffrn_reflns_limit_h_min       -9
_diffrn_reflns_limit_k_max       9
_diffrn_reflns_limit_k_min       -10
_diffrn_reflns_limit_l_max       13
_diffrn_reflns_limit_l_min       0
_diffrn_reflns_number            4208
_diffrn_reflns_theta_full        25.00
_diffrn_reflns_theta_max         25.03
_diffrn_reflns_theta_min         1.95
_diffrn_standards_number         0
_exptl_absorpt_coefficient_mu    0.138
_exptl_absorpt_correction_type   none
_exptl_crystal_colour            colourless
_exptl_crystal_density_diffrn    1.615
_exptl_crystal_density_method    'not measured'
_exptl_crystal_description       block
_exptl_crystal_F_000             372
_exptl_crystal_size_max          0.20
_exptl_crystal_size_mid          0.20
_exptl_crystal_size_min          0.10
_refine_diff_density_max         0.245
_refine_diff_density_min         -0.301
_refine_ls_extinction_method     none
_refine_ls_goodness_of_fit_ref   0.860
_refine_ls_hydrogen_treatment    mixed
_refine_ls_matrix_type           full
_refine_ls_number_parameters     254
_refine_ls_number_reflns         2555
_refine_ls_number_restraints     0
_refine_ls_restrained_S_all      0.860
_refine_ls_R_factor_all          0.1418
_refine_ls_R_factor_gt           0.0608
_refine_ls_shift/su_max          0.001
_refine_ls_shift/su_mean         0.000
_refine_ls_structure_factor_coef Fsqd
_refine_ls_weighting_details
'calc w = 1/[\s^2^(Fo^2^)+(0.0314P)^2^] where P=(Fo^2^+2Fc^2^)/3'
_refine_ls_weighting_scheme      calc
_refine_ls_wR_factor_gt          0.0859
_refine_ls_wR_factor_ref         0.1041
_reflns_number_gt                1341
_reflns_number_total             2555
_reflns_threshold_expression     I>2\s(I)
_iucr_refine_instructions_details
;
TITL vg4-a in P-1
CELL 0.71073  8.1110   8.9503  11.6804 112.366  97.263 104.621
ZERR    2.00  0.0010   0.0011   0.0015   0.003   0.002   0.002
LATT  1
SFAC C H N O
UNIT 24 30 10 16
SIZE 0.08 0.1 0.15
REM farbloser Block
ACTA 50
L.S. 20
CONF
BOND $H
FMAP 2
PLAN 20
TEMP -100
HTAB N1A O21B_$1
HTAB N5A O61B_$2
HTAB N1B O21A_$3
HTAB O43B O43A
HTAB N5B O61A_$4
HTAB N2X O61B
HTAB N2X O43A_$5
EQIV_$1 x-1, y, z+1
EQIV_$2 x, y+1, z+1
EQIV_$3 x+1, y, z-1
EQIV_$4 x, y-1, z-1
EQIV_$5 -x+1, -y, -z
mpla N1A C2A O21A C3A C4A C41A O42A O43A N5A C6A O61A
mpla N1B C2B O21B C3B C4B C41B O42B O43B N5B C6B O61B
mpla N1A C2A O21A C3A C4A C41A O42A O43A N5A C6A O61A N1B C2B O21B C3B C4B C41B
mpla C1X N2X C3X
mpla N1A C2A O21A C3A C4A N5A C6A O61A
mpla C41A O42A O43A
mpla N1B C2B O21B C3B C4B N5B C6B O61B
mpla C41B O42B O43B
mpla N1A C2A O21A C3A C4A N5A C6A O61A N1B C2B O21B C3B C4B N5B C6B O61B
WGHT    0.0314
FVAR       0.99977
N1A   3   0.30685   0.50655   0.94636  11.00000   0.01475   0.01322 =
       0.01460   0.00314   0.00789   0.00071
H1A   2   0.24648   0.51777   1.01014  11.00000   0.05058
C2A   1   0.26371   0.34567   0.84749  11.00000   0.00945   0.01649 =
       0.01988   0.00782   0.00740   0.00388
O21A  4   0.14832   0.22261   0.84695  11.00000   0.02074   0.01835 =
       0.02392   0.00641   0.01483   0.00208
C3A   1   0.35800   0.33303   0.75103  11.00000   0.02233   0.01537 =
       0.01583   0.00828   0.01457   0.00391
AFIX  43
H3A   2   0.33859   0.22531   0.68216  11.00000  -1.20000
AFIX   0
C4A   1   0.47427   0.47460   0.75851  11.00000   0.01827   0.01951 =
       0.01037   0.00233   0.00120   0.00651
C41A  1   0.57813   0.48219   0.65871  11.00000   0.01552   0.02347 =
       0.01484   0.00726   0.00202   0.00536
O42A  4   0.66854   0.62388   0.67428  11.00000   0.02967   0.01800 =
       0.02891   0.00942   0.01577  -0.00024
O43A  4   0.55928   0.33664   0.56879  11.00000   0.02314   0.02004 =
       0.01881   0.00326   0.01242   0.00480
N5A   3   0.50787   0.63182   0.85886  11.00000   0.01494   0.01453 =
       0.01761   0.00587   0.00801  -0.00017
H5A   2   0.58562   0.71758   0.85973  11.00000   0.01673
C6A   1   0.42868   0.65406   0.95841  11.00000   0.01325   0.01790 =
       0.01466   0.00825   0.00385   0.00344
O61A  4   0.46050   0.79149   1.04902  11.00000   0.02405   0.01616 =
       0.01803   0.00202   0.01002   0.00210
N1B   3   0.95552   0.23435   0.03164  11.00000   0.02226   0.01827 =
       0.01171   0.00465   0.01073   0.00380
H1B   2   1.00049   0.22701  -0.03648  11.00000   0.03030
C2B   1   1.01747   0.38422   0.14034  11.00000   0.01896   0.01705 =
       0.01485   0.00477   0.00390   0.00746
O21B  4   1.13105   0.50861   0.14176  11.00000   0.02501   0.01828 =
       0.01704   0.00490   0.00854  -0.00018
C3B   1   0.94077   0.38611   0.24440  11.00000   0.02460   0.01844 =
       0.00939  -0.00039   0.00703   0.00701
AFIX  43
H3B   2   0.97699   0.48657   0.32258  11.00000  -1.20000
AFIX   0
C4B   1   0.81777   0.24515   0.23043  11.00000   0.01764   0.01704 =
       0.00990   0.00261   0.00406   0.00714
C41B  1   0.72772   0.23215   0.33283  11.00000   0.01545   0.02280 =
       0.01923   0.00633   0.01142   0.00553
O42B  4   0.63378   0.09448   0.32106  11.00000   0.05174   0.02515 =
       0.03435   0.00558   0.03187  -0.00328
O43B  4   0.75666   0.37732   0.42949  11.00000   0.02881   0.02639 =
       0.02640   0.00347   0.01853  -0.00322
H43   2   0.64757   0.36047   0.48109  11.00000   0.07075
N5B   3   0.76465   0.09627   0.11954  11.00000   0.02082   0.01621 =
       0.02116   0.00791   0.01139  -0.00041
H5B   2   0.68262   0.00981   0.11060  11.00000   0.05335
C6B   1   0.82803   0.08623   0.01559  11.00000   0.01845   0.01375 =
       0.01853   0.00896   0.01126   0.00422
O61B  4   0.77989  -0.04410  -0.08616  11.00000   0.02632   0.01442 =
       0.01600  -0.00174   0.01229  -0.00130
C1X   1   0.73672   0.09392  -0.33966  11.00000   0.03472   0.02256 =
       0.06960   0.02148   0.01328   0.00831
AFIX  33
H1X1  2   0.63893   0.11809  -0.30309  11.00000  -1.50000
H1X2  2   0.72030   0.09382  -0.42427  11.00000  -1.50000
H1X3  2   0.84770   0.18205  -0.28365  11.00000  -1.50000
AFIX   0
N2X   3   0.74158  -0.07536  -0.35171  11.00000   0.02616   0.02533 =
       0.02911   0.01361   0.00578   0.00007
H2X1  2   0.74590  -0.07736  -0.26271  11.00000   0.07957
H2X2  2   0.63022  -0.15454  -0.40299  11.00000   0.03664
C3X   1   0.88594  -0.12295  -0.40622  11.00000   0.02645   0.03555 =
       0.03942   0.01410   0.01633   0.00532
AFIX  33
H3X1  2   0.88258  -0.23559  -0.41137  11.00000  -1.50000
H3X2  2   0.99913  -0.03785  -0.35136  11.00000  -1.50000
H3X3  2   0.87167  -0.12691  -0.49201  11.00000  -1.50000
AFIX   0
HKLF 4
END
;
_cod_data_source_file            sk3419.cif
_cod_data_source_block           IIb
_cod_database_code               2018389
_cod_database_fobs_code          2018389
loop_
_symmetry_equiv_pos_as_xyz
'x, y, z'
'-x, -y, -z'
loop_
_atom_site_type_symbol
_atom_site_label
_atom_site_fract_x
_atom_site_fract_y
_atom_site_fract_z
_atom_site_U_iso_or_equiv
_atom_site_adp_type
_atom_site_calc_flag
_atom_site_refinement_flags
_atom_site_occupancy
_atom_site_symmetry_multiplicity
N N1A 0.3067(3) 0.5065(3) 0.9463(2) 0.0156(5) Uani d . 1 1
H H1A 0.246(5) 0.516(4) 1.011(3) 0.051(12) Uiso d . 1 1
C C2A 0.2633(3) 0.3452(3) 0.8476(2) 0.0157(5) Uani d . 1 1
O O21A 0.1483(3) 0.2228(2) 0.84705(18) 0.0226(5) Uani d . 1 1
C C3A 0.3581(4) 0.3324(4) 0.7507(3) 0.0173(5) Uani d . 1 1
H H3A 0.3389 0.2247 0.6820 0.021 Uiso calc R 1 1
C C4A 0.4745(4) 0.4744(3) 0.7582(3) 0.0183(6) Uani d . 1 1
C C41A 0.5780(4) 0.4822(3) 0.6587(2) 0.0187(6) Uani d . 1 1
O O42A 0.6688(3) 0.6239(2) 0.6744(2) 0.0270(5) Uani d . 1 1
O O43A 0.5591(2) 0.3367(2) 0.56875(19) 0.0216(4) Uani d . 1 1
N N5A 0.5078(3) 0.6319(3) 0.8588(2) 0.0167(5) Uani d . 1 1
H H5A 0.585(4) 0.716(4) 0.859(3) 0.022(8) Uiso d . 1 1
C C6A 0.4281(3) 0.6537(3) 0.9579(2) 0.0151(5) Uani d . 1 1
O O61A 0.4608(2) 0.7915(2) 1.04936(17) 0.0218(5) Uani d . 1 1
N N1B 0.9550(3) 0.2335(3) 0.0314(2) 0.0189(5) Uani d . 1 1
H H1B 1.003(4) 0.230(4) -0.033(3) 0.034(10) Uiso d . 1 1
C C2B 1.0178(3) 0.3844(3) 0.1408(2) 0.0172(6) Uani d . 1 1
O O21B 1.1311(2) 0.5086(2) 0.14177(16) 0.0216(4) Uani d . 1 1
C C3B 0.9408(4) 0.3862(3) 0.2447(2) 0.0192(6) Uani d . 1 1
H H3B 0.9767 0.4867 0.3228 0.023 Uiso calc R 1 1
C C4B 0.8181(3) 0.2451(3) 0.2306(2) 0.0161(5) Uani d . 1 1
C C41B 0.7279(3) 0.2328(3) 0.3331(3) 0.0193(6) Uani d . 1 1
O O42B 0.6337(3) 0.0945(3) 0.3206(2) 0.0401(6) Uani d . 1 1
O O43B 0.7568(3) 0.3775(2) 0.4296(2) 0.0317(5) Uani d . 1 1
H H43 0.654(6) 0.361(5) 0.485(4) 0.075(14) Uiso d . 1 1
N N5B 0.7646(3) 0.0966(3) 0.1194(2) 0.0200(5) Uani d . 1 1
H H5B 0.684(5) 0.010(4) 0.109(3) 0.041(10) Uiso d . 1 1
C C6B 0.8285(3) 0.0856(3) 0.0153(2) 0.0164(6) Uani d . 1 1
O O61B 0.7798(2) -0.0441(2) -0.08620(17) 0.0226(4) Uani d . 1 1
C C1X 0.7368(4) 0.0946(4) -0.3393(3) 0.0408(9) Uani d . 1 1
H H1X1 0.6390 0.1187 -0.3027 0.061 Uiso calc R 1 1
H H1X2 0.7205 0.0947 -0.4238 0.061 Uiso calc R 1 1
H H1X3 0.8478 0.1826 -0.2832 0.061 Uiso calc R 1 1
N N2X 0.7416(3) -0.0753(3) -0.3516(3) 0.0283(6) Uani d . 1 1
H H2X1 0.749(6) -0.073(6) -0.260(5) 0.105(18) Uiso d . 1 1
H H2X2 0.633(5) -0.152(4) -0.402(3) 0.041(10) Uiso d . 1 1
C C3X 0.8856(4) -0.1228(4) -0.4060(3) 0.0344(7) Uani d . 1 1
H H3X1 0.8823 -0.2354 -0.4111 0.052 Uiso calc R 1 1
H H3X2 0.9988 -0.0377 -0.3511 0.052 Uiso calc R 1 1
H H3X3 0.8714 -0.1267 -0.4918 0.052 Uiso calc R 1 1
loop_
_atom_site_aniso_label
_atom_site_aniso_U_11
_atom_site_aniso_U_22
_atom_site_aniso_U_33
_atom_site_aniso_U_12
_atom_site_aniso_U_13
_atom_site_aniso_U_23
N1A 0.0139(12) 0.0143(12) 0.0151(13) -0.0001(9) 0.0087(10) 0.0040(11)
C2A 0.0110(12) 0.0172(12) 0.0199(13) 0.0045(8) 0.0087(10) 0.0075(11)
O21A 0.0230(11) 0.0191(9) 0.0241(11) 0.0024(7) 0.0153(9) 0.0074(8)
C3A 0.0213(12) 0.0164(11) 0.0178(13) 0.0039(8) 0.0130(10) 0.0102(11)
C4A 0.0203(14) 0.0201(12) 0.0108(12) 0.0073(10) 0.0025(10) 0.0029(9)
C41A 0.0147(11) 0.0252(13) 0.0146(14) 0.0055(8) 0.0021(10) 0.0082(11)
O42A 0.0303(12) 0.0188(9) 0.0290(11) 0.0009(8) 0.0166(9) 0.0090(9)
O43A 0.0231(10) 0.0197(8) 0.0177(11) 0.0043(6) 0.0127(8) 0.0029(8)
N5A 0.0145(11) 0.0151(11) 0.0178(12) -0.0009(8) 0.0089(9) 0.0062(9)
C6A 0.0120(13) 0.0184(12) 0.0148(13) 0.0035(9) 0.0027(10) 0.0080(10)
O61A 0.0243(10) 0.0161(10) 0.0197(10) 0.0030(7) 0.0104(8) 0.0029(8)
N1B 0.0222(13) 0.0189(11) 0.0136(12) 0.0053(9) 0.0102(11) 0.0041(9)
C2B 0.0192(14) 0.0171(12) 0.0149(12) 0.0073(11) 0.0049(11) 0.0054(9)
O21B 0.0242(11) 0.0185(9) 0.0166(10) -0.0009(7) 0.0084(8) 0.0058(9)
C3B 0.0220(14) 0.0188(14) 0.0098(14) 0.0063(10) 0.0052(11) -0.0013(12)
C4B 0.0178(12) 0.0161(11) 0.0105(13) 0.0057(9) 0.0034(9) 0.0019(9)
C41B 0.0149(14) 0.0245(12) 0.0175(15) 0.0056(9) 0.0108(11) 0.0064(12)
O42B 0.0513(16) 0.0246(11) 0.0344(13) -0.0036(9) 0.0303(11) 0.0066(9)
O43B 0.0286(11) 0.0259(11) 0.0273(12) -0.0045(8) 0.0187(9) 0.0026(9)
N5B 0.0199(14) 0.0160(10) 0.0197(13) -0.0009(9) 0.0090(11) 0.0062(9)
C6B 0.0188(15) 0.0150(11) 0.0192(15) 0.0045(10) 0.0125(13) 0.0094(11)
O61B 0.0252(11) 0.0147(9) 0.0178(11) -0.0009(7) 0.0116(8) -0.0008(9)
C1X 0.0339(17) 0.0243(14) 0.066(3) 0.0073(11) 0.0125(18) 0.0230(17)
N2X 0.0256(14) 0.0259(11) 0.0305(16) 0.0010(9) 0.0079(12) 0.0137(11)
C3X 0.0266(18) 0.0341(15) 0.039(2) 0.0054(11) 0.0147(15) 0.0129(15)
loop_
_atom_type_symbol
_atom_type_description
_atom_type_scat_dispersion_real
_atom_type_scat_dispersion_imag
_atom_type_scat_source
C C 0.0033 0.0016 'International Tables Vol C Tables 4.2.6.8 and 6.1.1.4'
H H 0.0000 0.0000 'International Tables Vol C Tables 4.2.6.8 and 6.1.1.4'
N N 0.0061 0.0033 'International Tables Vol C Tables 4.2.6.8 and 6.1.1.4'
O O 0.0106 0.0060 'International Tables Vol C Tables 4.2.6.8 and 6.1.1.4'
loop_
_geom_angle_atom_site_label_1
_geom_angle_atom_site_label_2
_geom_angle_atom_site_label_3
_geom_angle
C6A N1A C2A 126.2(2)
C6A N1A H1A 117(2)
C2A N1A H1A 116(2)
O21A C2A N1A 120.0(2)
O21A C2A C3A 124.3(3)
N1A C2A C3A 115.7(2)
C4A C3A C2A 119.3(3)
C4A C3A H3A 120.4
C2A C3A H3A 120.4
C3A C4A N5A 121.4(3)
C3A C4A C41A 125.2(2)
N5A C4A C41A 113.4(2)
O42A C41A O43A 128.0(3)
O42A C41A C4A 117.2(2)
O43A C41A C4A 114.8(2)
C41A O43A H43 109.2(16)
C6A N5A C4A 122.8(2)
C6A N5A H5A 120(2)
C4A N5A H5A 117(2)
O61A C6A N5A 123.3(2)
O61A C6A N1A 122.2(3)
N5A C6A N1A 114.4(2)
C2B N1B C6B 125.8(2)
C2B N1B H1B 117(2)
C6B N1B H1B 117(2)
O21B C2B N1B 119.1(2)
O21B C2B C3B 125.1(2)
N1B C2B C3B 115.8(2)
C4B C3B C2B 119.2(2)
C4B C3B H3B 120.4
C2B C3B H3B 120.4
C3B C4B N5B 122.0(2)
C3B C4B C41B 123.7(2)
N5B C4B C41B 114.3(2)
O42B C41B O43B 125.1(3)
O42B C41B C4B 120.4(2)
O43B C41B C4B 114.5(2)
C41B O43B H43 109(2)
C6B N5B C4B 122.4(2)
C6B N5B H5B 115(2)
C4B N5B H5B 122(3)
O61B C6B N5B 123.7(2)
O61B C6B N1B 121.5(2)
N5B C6B N1B 114.8(2)
N2X C1X H1X1 109.5
N2X C1X H1X2 109.5
H1X1 C1X H1X2 109.5
N2X C1X H1X3 109.5
H1X1 C1X H1X3 109.5
H1X2 C1X H1X3 109.5
C1X N2X C3X 113.4(2)
C1X N2X H2X1 107(2)
C3X N2X H2X1 112(3)
C1X N2X H2X2 105.6(19)
C3X N2X H2X2 111(2)
H2X1 N2X H2X2 107(3)
N2X C3X H3X1 109.5
N2X C3X H3X2 109.5
H3X1 C3X H3X2 109.5
N2X C3X H3X3 109.5
H3X1 C3X H3X3 109.5
H3X2 C3X H3X3 109.5
loop_
_geom_bond_atom_site_label_1
_geom_bond_atom_site_label_2
_geom_bond_distance
N1A C6A 1.378(3)
N1A C2A 1.383(3)
N1A H1A 0.95(4)
C2A O21A 1.244(3)
C2A C3A 1.432(4)
C3A C4A 1.343(3)
C3A H3A 0.9500
C4A N5A 1.381(3)
C4A C41A 1.529(4)
C41A O42A 1.226(3)
C41A O43A 1.281(3)
N5A C6A 1.370(4)
N5A H5A 0.84(3)
C6A O61A 1.222(3)
N1B C2B 1.375(3)
N1B C6B 1.384(3)
N1B H1B 0.88(3)
C2B O21B 1.246(3)
C2B C3B 1.430(4)
C3B C4B 1.334(3)
C3B H3B 0.9500
C4B N5B 1.376(3)
C4B C41B 1.504(4)
C41B O42B 1.222(3)
C41B O43B 1.293(3)
O43B H43 1.13(4)
N5B C6B 1.360(4)
N5B H5B 0.83(3)
C6B O61B 1.230(3)
C1X N2X 1.482(3)
C1X H1X1 0.9800
C1X H1X2 0.9800
C1X H1X3 0.9800
N2X C3X 1.478(4)
N2X H2X1 1.06(5)
N2X H2X2 0.92(3)
C3X H3X1 0.9800
C3X H3X2 0.9800
C3X H3X3 0.9800
loop_
_geom_hbond_atom_site_label_D
_geom_hbond_atom_site_label_H
_geom_hbond_atom_site_label_A
_geom_hbond_site_symmetry_A
_geom_hbond_distance_DH
_geom_hbond_distance_HA
_geom_hbond_distance_DA
_geom_hbond_angle_DHA
N1A H1A O21B 1_456 0.95(4) 1.90(4) 2.836(3) 172(3)
N5A H5A O61B 1_566 0.84(3) 2.12(3) 2.947(3) 165(3)
N1B H1B O21A 1_654 0.88(3) 1.94(3) 2.807(3) 169(3)
O43B H43 O43A . 1.13(4) 1.37(4) 2.482(3) 167(4)
N5B H5B O61A 1_544 0.83(3) 2.11(3) 2.931(3) 169(3)
N2X H2X1 O61B . 1.06(5) 1.92(5) 2.973(3) 174(4)
N2X H2X2 O43A 2_655 0.92(3) 2.11(3) 2.982(3) 159(3)
loop_
_geom_torsion_atom_site_label_1
_geom_torsion_atom_site_label_2
_geom_torsion_atom_site_label_3
_geom_torsion_atom_site_label_4
_geom_torsion
C6A N1A C2A O21A -178.5(2)
C6A N1A C2A C3A 1.6(4)
O21A C2A C3A C4A 177.3(2)
N1A C2A C3A C4A -2.8(4)
C2A C3A C4A N5A 1.5(4)
C2A C3A C4A C41A -176.6(2)
C3A C4A C41A O42A 174.4(3)
N5A C4A C41A O42A -3.9(3)
C3A C4A C41A O43A -6.3(4)
N5A C4A C41A O43A 175.5(2)
C3A C4A N5A C6A 1.2(3)
C41A C4A N5A C6A 179.6(2)
C4A N5A C6A O61A 177.6(2)
C4A N5A C6A N1A -2.4(3)
C2A N1A C6A O61A -179.0(2)
C2A N1A C6A N5A 1.0(3)
C6B N1B C2B O21B -179.4(2)
C6B N1B C2B C3B -1.3(3)
O21B C2B C3B C4B 178.8(2)
N1B C2B C3B C4B 0.9(3)
C2B C3B C4B N5B 0.8(4)
C2B C3B C4B C41B -179.68(19)
C3B C4B C41B O42B -170.5(3)
N5B C4B C41B O42B 9.0(3)
C3B C4B C41B O43B 10.7(3)
N5B C4B C41B O43B -169.8(2)
C3B C4B N5B C6B -2.3(4)
C41B C4B N5B C6B 178.1(2)
C4B N5B C6B O61B -178.2(2)
C4B N5B C6B N1B 1.8(4)
C2B N1B C6B O61B 180.0(2)
C2B N1B C6B N5B 0.0(4)
