#------------------------------------------------------------------------------
#$Date: 2017-10-13 03:48:21 +0300 (Fri, 13 Oct 2017) $
#$Revision: 201957 $
#$URL: file:///home/coder/svn-repositories/cod/cif/2/01/83/2018362.cif $
#------------------------------------------------------------------------------
#
# This file is available in the Crystallography Open Database (COD),
# http://www.crystallography.net/. The original data for this entry
# were provided by IUCr Journals, http://journals.iucr.org/.
#
# The file may be used within the scientific community so long as
# proper attribution is given to the journal article from which the
# data were obtained.
#
data_2018362
loop_
_publ_author_name
'Quiroga, Jairo'
'D\'iaz, Yurina'
'Cobo, Justo'
'Glidewell, Christopher'
_publ_section_title
;
 Hydrogen-bonded assembly in six closely related
 pyrazolo[3,4-<i>b</i>]pyridine derivatives; a simple chain, three types
 of chains of rings and a complex sheet structure
;
_journal_coeditor_code           YF3009
_journal_issue                   1
_journal_name_full               'Acta Crystallographica Section C'
_journal_page_first              o12
_journal_page_last               o18
_journal_paper_doi               10.1107/S0108270111050207
_journal_volume                  68
_journal_year                    2012
_chemical_formula_iupac          'C20 H13 Br Cl N3 O'
_chemical_formula_moiety         'C20 H13 Br Cl N3 O'
_chemical_formula_sum            'C20 H13 Br Cl N3 O'
_chemical_formula_weight         426.68
_chemical_name_systematic
;
4-(4-bromophenyl)-6-chloro-3-methyl-1-
phenylpyrazolo[3,4-<i>b</i>]pyridine-5-carbaldehyde
;
_space_group_IT_number           2
_symmetry_cell_setting           triclinic
_symmetry_space_group_name_Hall  '-P 1'
_symmetry_space_group_name_H-M   'P -1'
_atom_sites_solution_hydrogens   geom
_atom_sites_solution_primary     direct
_atom_sites_solution_secondary   difmap
_cell_angle_alpha                108.077(10)
_cell_angle_beta                 99.353(9)
_cell_angle_gamma                90.911(10)
_cell_formula_units_Z            2
_cell_length_a                   9.3826(11)
_cell_length_b                   9.7781(12)
_cell_length_c                   10.1072(6)
_cell_measurement_reflns_used    3981
_cell_measurement_temperature    120(2)
_cell_measurement_theta_max      27.50
_cell_measurement_theta_min      2.80
_cell_volume                     867.61(17)
_computing_cell_refinement       'DIRAX/LSQ (Duisenberg <i>et al.</i>, 2000)'
_computing_data_collection       'COLLECT (Nonius, 1999)'
_computing_data_reduction        'EVALCCD (Duisenberg <i>et al.</i>, 2003)'
_computing_molecular_graphics    'PLATON (Spek, 2009)'
_computing_publication_material
;
SHELXL97 (Sheldrick, 2008) and PLATON (Spek, 2009)
;
_computing_structure_refinement  'SHELXL97 (Sheldrick, 2008)'
_computing_structure_solution    'SIR2004 (Burla <i>et al.</i>, 2005)'
_diffrn_ambient_temperature      120(2)
_diffrn_detector_area_resol_mean 9.091
_diffrn_measured_fraction_theta_full 0.999
_diffrn_measured_fraction_theta_max 0.999
_diffrn_measurement_device_type  'Bruker Nonius KappaCCD area-detector'
_diffrn_measurement_method       '\f and \w scans'
_diffrn_radiation_monochromator  graphite
_diffrn_radiation_source         'Bruker Nonius FR591 rotating anode'
_diffrn_radiation_type           'Mo K\a'
_diffrn_radiation_wavelength     0.71073
_diffrn_reflns_av_R_equivalents  0.0484
_diffrn_reflns_av_sigmaI/netI    0.0400
_diffrn_reflns_limit_h_max       12
_diffrn_reflns_limit_h_min       -12
_diffrn_reflns_limit_k_max       12
_diffrn_reflns_limit_k_min       -12
_diffrn_reflns_limit_l_max       13
_diffrn_reflns_limit_l_min       -13
_diffrn_reflns_number            23897
_diffrn_reflns_theta_full        27.50
_diffrn_reflns_theta_max         27.50
_diffrn_reflns_theta_min         2.80
_diffrn_standards_decay_%        0
_diffrn_standards_interval_count 0
_diffrn_standards_interval_time  0
_diffrn_standards_number         0
_exptl_absorpt_coefficient_mu    2.537
_exptl_absorpt_correction_T_max  0.604
_exptl_absorpt_correction_T_min  0.440
_exptl_absorpt_correction_type   multi-scan
_exptl_absorpt_process_details   '(SADABS; Sheldrick, 2003)'
_exptl_crystal_colour            yellow
_exptl_crystal_density_diffrn    1.633
_exptl_crystal_density_method    'not measured'
_exptl_crystal_description       block
_exptl_crystal_F_000             428
_exptl_crystal_size_max          0.36
_exptl_crystal_size_mid          0.27
_exptl_crystal_size_min          0.20
_refine_diff_density_max         0.626
_refine_diff_density_min         -0.420
_refine_ls_extinction_method     none
_refine_ls_goodness_of_fit_ref   1.048
_refine_ls_hydrogen_treatment    constr
_refine_ls_matrix_type           full
_refine_ls_number_parameters     236
_refine_ls_number_reflns         3981
_refine_ls_number_restraints     0
_refine_ls_restrained_S_all      1.048
_refine_ls_R_factor_all          0.0579
_refine_ls_R_factor_gt           0.0360
_refine_ls_shift/su_max          0.001
_refine_ls_shift/su_mean         0.000
_refine_ls_structure_factor_coef Fsqd
_refine_ls_weighting_details
'w = 1/[\s^2^(Fo^2^)+(0.0282P)^2^+0.7864P] where P=(Fo^2^+2Fc^2^)/3'
_refine_ls_weighting_scheme      calc
_refine_ls_wR_factor_gt          0.0701
_refine_ls_wR_factor_ref         0.0774
_reflns_number_gt                3098
_reflns_number_total             3981
_reflns_threshold_expression     I>2\s(I)
_iucr_refine_instructions_details
;
TITL YD44
CELL  0.71073   9.3826   9.7781  10.1072  108.077   99.353   90.911
ZERR     2.00   0.0011   0.0012   0.0006    0.010    0.009    0.010
LATT   1
SFAC  C    H    N    CL   BR   O
UNIT  40   26   6    2    2    2
MERG   2
OMIT    -2.00  56.00
FMAP   2
PLAN   20
SIZE     0.20   0.27   0.36
ACTA
BOND   $H
CONF
HTAB
LIST   4
L.S.   8
TEMP  -153.00
WGHT    0.028200    0.786400
FVAR       0.42917
N1    3    0.559063    0.564213    0.241413    11.00000    0.02027    0.02213 =
         0.02411    0.00964    0.00209   -0.00021
N2    3    0.442364    0.596336    0.156183    11.00000    0.02505    0.02590 =
         0.02554    0.01156    0.00536    0.00531
C3    1    0.333730    0.504973    0.145713    11.00000    0.02081    0.02267 =
         0.02082    0.00746    0.00753    0.00235
C3A   1    0.375774    0.407775    0.223382    11.00000    0.01672    0.01884 =
         0.01959    0.00423    0.00297    0.00056
C4    1    0.311068    0.294765    0.255231    11.00000    0.01637    0.02081 =
         0.01495    0.00161    0.00384    0.00021
C5    1    0.397749    0.232224    0.346022    11.00000    0.01837    0.02097 =
         0.01779    0.00427    0.00398   -0.00073
C6    1    0.542056    0.292207    0.401052    11.00000    0.01672    0.01950 =
         0.01607    0.00362    0.00272    0.00265
N7    3    0.606570    0.399490    0.375997    11.00000    0.01703    0.02122 =
         0.01886    0.00604    0.00191   -0.00027
C7A   1    0.522351    0.452830    0.285318    11.00000    0.01822    0.01948 =
         0.01981    0.00579    0.00673    0.00014
C11   1    0.691537    0.651311    0.274987    11.00000    0.02589    0.02251 =
         0.01962    0.00462    0.00775   -0.00595
C12   1    0.822177    0.596755    0.312412    11.00000    0.02318    0.03070 =
         0.02115    0.00738    0.00492   -0.00499
AFIX  43
H12   2    0.824325    0.501126    0.316757    11.00000   -1.20000
AFIX   0
C13   1    0.950417    0.683768    0.343615    11.00000    0.02505    0.04352 =
         0.02099    0.00961    0.00408   -0.01143
AFIX  43
H13   2    1.040191    0.646998    0.369271    11.00000   -1.20000
AFIX   0
C14   1    0.947853    0.822182    0.337522    11.00000    0.04499    0.04063 =
         0.02309    0.00373    0.00766   -0.02153
AFIX  43
H14   2    1.035337    0.881279    0.359782    11.00000   -1.20000
AFIX   0
C15   1    0.816575    0.875163    0.298620    11.00000    0.05568    0.02715 =
         0.03601    0.00712    0.01672   -0.01407
AFIX  43
H15   2    0.815216    0.970637    0.293795    11.00000   -1.20000
AFIX   0
C16   1    0.687477    0.791176    0.266703    11.00000    0.04081    0.02422 =
         0.03221    0.00959    0.01333   -0.00129
AFIX  43
H16   2    0.598147    0.827997    0.239769    11.00000   -1.20000
AFIX   0
C31   1    0.189579    0.517048    0.062370    11.00000    0.02353    0.03134 =
         0.02956    0.01669    0.00198    0.00229
AFIX 137
H31A  2    0.193657    0.603031    0.032442    11.00000   -1.50000
H31B  2    0.114967    0.524852    0.121353    11.00000   -1.50000
H31C  2    0.165919    0.431151   -0.021143    11.00000   -1.50000
AFIX   0
C41   1    0.154225    0.250802    0.201550    11.00000    0.01383    0.02054 =
         0.02303    0.00952    0.00004   -0.00204
C42   1    0.059854    0.268104    0.298361    11.00000    0.01906    0.02931 =
         0.01935    0.00674    0.00174   -0.00171
AFIX  43
H42   2    0.096694    0.306097    0.396821    11.00000   -1.20000
AFIX   0
C43   1   -0.086916    0.230344    0.252010    11.00000    0.01857    0.02390 =
         0.02844    0.00929    0.00712    0.00122
AFIX  43
H43   2   -0.150994    0.241745    0.317826    11.00000   -1.20000
AFIX   0
C44   1   -0.138665    0.175606    0.107842    11.00000    0.01560    0.01650 =
         0.03241    0.00870    0.00134    0.00033
BR44  5   -0.340423    0.121294    0.045102    11.00000    0.01564    0.03375 =
         0.04062    0.00958   -0.00055   -0.00322
C45   1   -0.048365    0.158177    0.009907    11.00000    0.02216    0.01961 =
         0.02066    0.00551   -0.00209    0.00066
AFIX  43
H45   2   -0.085767    0.120498   -0.088459    11.00000   -1.20000
AFIX   0
C46   1    0.098676    0.196907    0.058093    11.00000    0.01990    0.02089 =
         0.01912    0.00656    0.00350    0.00137
AFIX  43
H46   2    0.162025    0.186278   -0.008285    11.00000   -1.20000
AFIX   0
C51   1    0.346607    0.103468    0.377573    11.00000    0.02206    0.02689 =
         0.02446    0.01124    0.00106    0.00016
AFIX  43
H51   2    0.401889    0.081368    0.454856    11.00000   -1.20000
AFIX   0
O51   6    0.241532    0.024635    0.314139    11.00000    0.02723    0.03131 =
         0.03313    0.01544   -0.00383   -0.00980
CL61  4    0.652196    0.221302    0.517393    11.00000    0.01833    0.03090 =
         0.02743    0.01506   -0.00174   -0.00044
HKLF    4
REM  YD44
REM R1 =  0.0360 for   3098 Fo > 4sig(Fo)  and  0.0579 for all   3981 data
REM    236 parameters refined using      0 restraints
END
WGHT      0.0282      0.7864
REM Highest difference peak  0.626,  deepest hole -0.420,  1-sigma level  0.081
Q1    1   1.0271  0.5313  0.3862  11.00000  0.05    0.63
Q2    1  -0.0192  0.3784  0.1339  11.00000  0.05    0.48
Q3    1   0.3345 -0.0232  0.4247  11.00000  0.05    0.46
Q4    1   0.5819  0.6705  0.2288  11.00000  0.05    0.37
Q5    1   0.8868  0.6433  0.3331  11.00000  0.05    0.34
Q6    1   0.3338  0.3760  0.2633  11.00000  0.05    0.34
Q7    1  -0.4282  0.2166  0.0493  11.00000  0.05    0.34
Q8    1  -0.2533  0.2423  0.0466  11.00000  0.05    0.33
Q9    1   0.5782  0.9960  0.1661  11.00000  0.05    0.32
Q10   1   0.4493  0.4152  0.2448  11.00000  0.05    0.31
Q11   1   0.2631  0.5436  0.1190  11.00000  0.05    0.30
Q12   1   0.5405  0.7802  0.3606  11.00000  0.05    0.30
Q13   1  -0.1077  0.1271  0.0609  11.00000  0.05    0.29
Q14   1  -0.4820  0.0600 -0.0023  11.00000  0.05    0.29
Q15   1  -0.1996  0.1448  0.0877  11.00000  0.05    0.28
Q16   1  -0.0206  0.2951  0.2691  11.00000  0.05    0.28
Q17   1  -0.3340  0.1587  0.0575  11.00000  0.05    0.28
Q18   1   0.7548  0.8115  0.2477  11.00000  0.05    0.28
Q19   1  -0.2693 -0.0217 -0.0451  11.00000  0.05    0.28
Q20   1   0.3471  0.4608  0.2067  11.00000  0.05    0.27
;
_cod_data_source_file            yf3009.cif
_cod_data_source_block           IV
_cod_original_cell_volume        867.61(16)
_cod_database_code               2018362
_cod_database_fobs_code          2018362
loop_
_symmetry_equiv_pos_as_xyz
'x, y, z'
'-x, -y, -z'
loop_
_atom_site_type_symbol
_atom_site_label
_atom_site_fract_x
_atom_site_fract_y
_atom_site_fract_z
_atom_site_U_iso_or_equiv
_atom_site_adp_type
_atom_site_calc_flag
_atom_site_refinement_flags
_atom_site_occupancy
_atom_site_symmetry_multiplicity
N N1 0.5591(2) 0.5642(2) 0.2414(2) 0.0219(5) Uani d . 1 1
N N2 0.4424(2) 0.5963(2) 0.1562(2) 0.0246(5) Uani d . 1 1
C C3 0.3337(3) 0.5050(3) 0.1457(3) 0.0208(5) Uani d . 1 1
C C3A 0.3758(3) 0.4078(3) 0.2234(2) 0.0189(5) Uani d . 1 1
C C4 0.3111(3) 0.2948(3) 0.2552(2) 0.0182(5) Uani d . 1 1
C C5 0.3977(3) 0.2322(3) 0.3460(2) 0.0194(5) Uani d . 1 1
C C6 0.5421(2) 0.2922(3) 0.4011(2) 0.0179(5) Uani d . 1 1
N N7 0.6066(2) 0.3995(2) 0.3760(2) 0.0193(4) Uani d . 1 1
C C7A 0.5224(3) 0.4528(3) 0.2853(2) 0.0189(5) Uani d . 1 1
C C11 0.6915(3) 0.6513(3) 0.2750(3) 0.0228(5) Uani d . 1 1
C C12 0.8222(3) 0.5968(3) 0.3124(3) 0.0252(6) Uani d . 1 1
H H12 0.8243 0.5011 0.3168 0.030 Uiso calc R 1 1
C C13 0.9504(3) 0.6838(3) 0.3436(3) 0.0302(6) Uani d . 1 1
H H13 1.0402 0.6470 0.3693 0.036 Uiso calc R 1 1
C C14 0.9479(3) 0.8222(3) 0.3375(3) 0.0378(7) Uani d . 1 1
H H14 1.0353 0.8813 0.3598 0.045 Uiso calc R 1 1
C C15 0.8166(4) 0.8752(3) 0.2986(3) 0.0395(8) Uani d . 1 1
H H15 0.8152 0.9706 0.2938 0.047 Uiso calc R 1 1
C C16 0.6875(3) 0.7912(3) 0.2667(3) 0.0315(6) Uani d . 1 1
H H16 0.5981 0.8280 0.2398 0.038 Uiso calc R 1 1
C C31 0.1896(3) 0.5170(3) 0.0624(3) 0.0268(6) Uani d . 1 1
H H31A 0.1937 0.6030 0.0324 0.040 Uiso calc R 1 1
H H31B 0.1150 0.5249 0.1214 0.040 Uiso calc R 1 1
H H31C 0.1659 0.4312 -0.0211 0.040 Uiso calc R 1 1
C C41 0.1542(2) 0.2508(3) 0.2015(2) 0.0189(5) Uani d . 1 1
C C42 0.0599(3) 0.2681(3) 0.2984(3) 0.0230(5) Uani d . 1 1
H H42 0.0967 0.3061 0.3968 0.028 Uiso calc R 1 1
C C43 -0.0869(3) 0.2303(3) 0.2520(3) 0.0231(5) Uani d . 1 1
H H43 -0.1510 0.2417 0.3178 0.028 Uiso calc R 1 1
C C44 -0.1387(3) 0.1756(3) 0.1078(3) 0.0216(5) Uani d . 1 1
Br Br44 -0.34042(3) 0.12129(3) 0.04510(3) 0.03122(10) Uani d . 1 1
C C45 -0.0484(3) 0.1582(3) 0.0099(3) 0.0217(5) Uani d . 1 1
H H45 -0.0858 0.1205 -0.0885 0.026 Uiso calc R 1 1
C C46 0.0987(3) 0.1969(3) 0.0581(2) 0.0199(5) Uani d . 1 1
H H46 0.1620 0.1863 -0.0083 0.024 Uiso calc R 1 1
C C51 0.3466(3) 0.1035(3) 0.3776(3) 0.0241(6) Uani d . 1 1
H H51 0.4019 0.0814 0.4549 0.029 Uiso calc R 1 1
O O51 0.24153(19) 0.0246(2) 0.31414(19) 0.0306(4) Uani d . 1 1
Cl Cl61 0.65220(6) 0.22130(7) 0.51739(6) 0.02490(15) Uani d . 1 1
loop_
_atom_site_aniso_label
_atom_site_aniso_U_11
_atom_site_aniso_U_22
_atom_site_aniso_U_33
_atom_site_aniso_U_12
_atom_site_aniso_U_13
_atom_site_aniso_U_23
N1 0.0203(11) 0.0221(11) 0.0241(11) -0.0002(9) 0.0021(9) 0.0096(9)
N2 0.0251(11) 0.0259(12) 0.0255(12) 0.0053(9) 0.0054(9) 0.0116(10)
C3 0.0208(12) 0.0227(13) 0.0208(13) 0.0023(10) 0.0075(10) 0.0075(10)
C3A 0.0167(12) 0.0188(12) 0.0196(12) 0.0006(10) 0.0030(10) 0.0042(10)
C4 0.0164(11) 0.0208(12) 0.0149(12) 0.0002(10) 0.0038(9) 0.0016(10)
C5 0.0184(12) 0.0210(13) 0.0178(12) -0.0007(10) 0.0040(10) 0.0043(10)
C6 0.0167(12) 0.0195(12) 0.0161(12) 0.0027(10) 0.0027(9) 0.0036(10)
N7 0.0170(10) 0.0212(11) 0.0189(10) -0.0003(8) 0.0019(8) 0.0060(9)
C7A 0.0182(12) 0.0195(12) 0.0198(13) 0.0001(10) 0.0067(10) 0.0058(10)
C11 0.0259(13) 0.0225(13) 0.0196(12) -0.0060(11) 0.0078(10) 0.0046(10)
C12 0.0232(13) 0.0307(15) 0.0211(13) -0.0050(11) 0.0049(11) 0.0074(11)
C13 0.0250(14) 0.0435(17) 0.0210(14) -0.0114(12) 0.0041(11) 0.0096(12)
C14 0.0450(18) 0.0406(18) 0.0231(14) -0.0215(14) 0.0077(13) 0.0037(13)
C15 0.056(2) 0.0272(15) 0.0360(17) -0.0141(14) 0.0167(15) 0.0071(13)
C16 0.0408(17) 0.0242(14) 0.0322(15) -0.0013(12) 0.0133(13) 0.0096(12)
C31 0.0235(13) 0.0313(15) 0.0296(14) 0.0023(11) 0.0020(11) 0.0167(12)
C41 0.0138(11) 0.0205(12) 0.0230(13) -0.0020(10) 0.0000(10) 0.0095(10)
C42 0.0191(12) 0.0293(14) 0.0193(13) -0.0017(10) 0.0017(10) 0.0067(11)
C43 0.0186(12) 0.0239(13) 0.0284(14) 0.0012(10) 0.0071(11) 0.0093(11)
C44 0.0156(12) 0.0165(12) 0.0324(14) 0.0003(10) 0.0013(10) 0.0087(11)
Br44 0.01564(13) 0.03375(17) 0.04062(18) -0.00322(10) -0.00055(11) 0.00958(13)
C45 0.0222(13) 0.0196(12) 0.0207(13) 0.0007(10) -0.0021(10) 0.0055(10)
C46 0.0199(12) 0.0209(13) 0.0191(12) 0.0014(10) 0.0035(10) 0.0066(10)
C51 0.0221(13) 0.0269(14) 0.0245(13) 0.0002(11) 0.0011(11) 0.0112(11)
O51 0.0272(10) 0.0313(10) 0.0331(11) -0.0098(8) -0.0038(8) 0.0154(9)
Cl61 0.0183(3) 0.0309(3) 0.0274(3) -0.0004(2) -0.0017(2) 0.0151(3)
loop_
_atom_type_symbol
_atom_type_description
_atom_type_scat_dispersion_real
_atom_type_scat_dispersion_imag
_atom_type_scat_source
C C 0.0033 0.0016 'International Tables Vol C Tables 4.2.6.8 and 6.1.1.4'
H H 0.0000 0.0000 'International Tables Vol C Tables 4.2.6.8 and 6.1.1.4'
Br Br -0.2901 2.4595 'International Tables Vol C Tables 4.2.6.8 and 6.1.1.4'
Cl Cl 0.1484 0.1585 'International Tables Vol C Tables 4.2.6.8 and 6.1.1.4'
N N 0.0061 0.0033 'International Tables Vol C Tables 4.2.6.8 and 6.1.1.4'
O O 0.0106 0.0060 'International Tables Vol C Tables 4.2.6.8 and 6.1.1.4'
loop_
_geom_angle_atom_site_label_1
_geom_angle_atom_site_label_2
_geom_angle_atom_site_label_3
_geom_angle
C7A N1 N2 110.9(2)
C7A N1 C11 130.3(2)
N2 N1 C11 118.7(2)
C3 N2 N1 106.8(2)
N2 C3 C3A 111.1(2)
N2 C3 C31 118.9(2)
C3A C3 C31 130.0(2)
C4 C3A C7A 118.0(2)
C4 C3A C3 137.7(2)
C7A C3A C3 104.1(2)
C3A C4 C5 117.4(2)
C3A C4 C41 120.1(2)
C5 C4 C41 122.4(2)
C4 C5 C6 117.3(2)
C4 C5 C51 122.7(2)
C6 C5 C51 119.8(2)
N7 C6 C5 127.4(2)
N7 C6 Cl61 113.59(17)
C5 C6 Cl61 119.02(18)
C6 N7 C7A 113.5(2)
N7 C7A N1 126.6(2)
N7 C7A C3A 126.3(2)
N1 C7A C3A 107.0(2)
C12 C11 C16 120.7(2)
C12 C11 N1 120.5(2)
C16 C11 N1 118.8(2)
C11 C12 C13 119.4(3)
C11 C12 H12 120.3
C13 C12 H12 120.3
C14 C13 C12 120.5(3)
C14 C13 H13 119.7
C12 C13 H13 119.7
C13 C14 C15 119.6(3)
C13 C14 H14 120.2
C15 C14 H14 120.2
C16 C15 C14 121.2(3)
C16 C15 H15 119.4
C14 C15 H15 119.4
C15 C16 C11 118.6(3)
C15 C16 H16 120.7
C11 C16 H16 120.7
C3 C31 H31A 109.5
C3 C31 H31B 109.5
H31A C31 H31B 109.5
C3 C31 H31C 109.5
H31A C31 H31C 109.5
H31B C31 H31C 109.5
C46 C41 C42 119.1(2)
C46 C41 C4 121.8(2)
C42 C41 C4 119.1(2)
C43 C42 C41 120.6(2)
C43 C42 H42 119.7
C41 C42 H42 119.7
C42 C43 C44 118.8(2)
C42 C43 H43 120.6
C44 C43 H43 120.6
C45 C44 C43 121.9(2)
C45 C44 Br44 119.59(19)
C43 C44 Br44 118.54(19)
C44 C45 C46 118.6(2)
C44 C45 H45 120.7
C46 C45 H45 120.7
C41 C46 C45 121.0(2)
C41 C46 H46 119.5
C45 C46 H46 119.5
O51 C51 C5 125.8(2)
O51 C51 H51 117.1
C5 C51 H51 117.1
loop_
_geom_bond_atom_site_label_1
_geom_bond_atom_site_label_2
_geom_bond_distance
N1 C7A 1.356(3)
N1 N2 1.383(3)
N1 C11 1.427(3)
N2 C3 1.314(3)
C3 C3A 1.432(3)
C3 C31 1.500(3)
C3A C4 1.399(3)
C3A C7A 1.417(3)
C4 C5 1.414(3)
C4 C41 1.490(3)
C5 C6 1.419(3)
C5 C51 1.482(3)
C6 N7 1.314(3)
C6 Cl61 1.751(2)
N7 C7A 1.346(3)
C11 C12 1.388(4)
C11 C16 1.397(4)
C12 C13 1.396(3)
C12 H12 0.9500
C13 C14 1.374(4)
C13 H13 0.9500
C14 C15 1.389(5)
C14 H14 0.9500
C15 C16 1.387(4)
C15 H15 0.9500
C16 H16 0.9500
C31 H31A 0.9800
C31 H31B 0.9800
C31 H31C 0.9800
C41 C46 1.387(3)
C41 C42 1.398(3)
C42 C43 1.385(3)
C42 H42 0.9500
C43 C44 1.387(4)
C43 H43 0.9500
C44 C45 1.378(4)
C44 Br44 1.907(2)
C45 C46 1.391(3)
C45 H45 0.9500
C46 H46 0.9500
C51 O51 1.200(3)
C51 H51 0.9500
loop_
_geom_hbond_atom_site_label_D
_geom_hbond_atom_site_label_H
_geom_hbond_atom_site_label_A
_geom_hbond_site_symmetry_A
_geom_hbond_distance_DH
_geom_hbond_distance_HA
_geom_hbond_distance_DA
_geom_hbond_angle_DHA
_geom_hbond_publ_flag
C14 H14 O51 1_665 0.95 2.55 3.448(4) 157 no
C45 H45 O51 2_555 0.95 2.49 3.397(3) 160 no
loop_
_geom_torsion_atom_site_label_1
_geom_torsion_atom_site_label_2
_geom_torsion_atom_site_label_3
_geom_torsion_atom_site_label_4
_geom_torsion
C7A N1 N2 C3 -0.5(3)
C11 N1 N2 C3 -177.7(2)
N1 N2 C3 C3A -0.5(3)
N1 N2 C3 C31 178.1(2)
N2 C3 C3A C4 177.6(3)
C31 C3 C3A C4 -0.8(5)
N2 C3 C3A C7A 1.3(3)
C31 C3 C3A C7A -177.1(2)
C7A C3A C4 C5 -0.8(3)
C3 C3A C4 C5 -176.7(3)
C7A C3A C4 C41 175.4(2)
C3 C3A C4 C41 -0.5(4)
C3A C4 C5 C6 1.9(3)
C41 C4 C5 C6 -174.1(2)
C3A C4 C5 C51 -174.3(2)
C41 C4 C5 C51 9.7(4)
C4 C5 C6 N7 -1.0(4)
C51 C5 C6 N7 175.4(2)
C4 C5 C6 Cl61 178.45(17)
C51 C5 C6 Cl61 -5.2(3)
C5 C6 N7 C7A -1.3(4)
Cl61 C6 N7 C7A 179.29(17)
C6 N7 C7A N1 179.1(2)
C6 N7 C7A C3A 2.7(3)
N2 N1 C7A N7 -175.7(2)
C11 N1 C7A N7 1.1(4)
N2 N1 C7A C3A 1.4(3)
C11 N1 C7A C3A 178.1(2)
C4 C3A C7A N7 -1.7(4)
C3 C3A C7A N7 175.5(2)
C4 C3A C7A N1 -178.7(2)
C3 C3A C7A N1 -1.6(3)
C7A N1 C11 C12 27.5(4)
N2 N1 C11 C12 -155.9(2)
C7A N1 C11 C16 -153.7(3)
N2 N1 C11 C16 22.8(3)
C16 C11 C12 C13 0.8(4)
N1 C11 C12 C13 179.5(2)
C11 C12 C13 C14 0.0(4)
C12 C13 C14 C15 -0.6(4)
C13 C14 C15 C16 0.5(4)
C14 C15 C16 C11 0.3(4)
C12 C11 C16 C15 -0.9(4)
N1 C11 C16 C15 -179.6(2)
C3A C4 C41 C46 62.7(3)
C5 C4 C41 C46 -121.4(3)
C3A C4 C41 C42 -115.5(3)
C5 C4 C41 C42 60.5(3)
C46 C41 C42 C43 0.8(4)
C4 C41 C42 C43 179.0(2)
C41 C42 C43 C44 -0.3(4)
C42 C43 C44 C45 -0.2(4)
C42 C43 C44 Br44 179.10(18)
C43 C44 C45 C46 0.0(4)
Br44 C44 C45 C46 -179.24(17)
C42 C41 C46 C45 -1.0(4)
C4 C41 C46 C45 -179.2(2)
C44 C45 C46 C41 0.6(4)
C4 C5 C51 O51 13.8(4)
C6 C5 C51 O51 -162.3(3)
loop_
_cod_related_entry_id
_cod_related_entry_database
_cod_related_entry_code
1 ChemSpider 30654351
