#------------------------------------------------------------------------------
#$Date: 2016-02-20 00:18:51 +0200 (Sat, 20 Feb 2016) $
#$Revision: 176760 $
#$URL: svn://www.crystallography.net/cod/cif/2/01/92/2019205.cif $
#------------------------------------------------------------------------------
#
# This file is available in the Crystallography Open Database (COD),
# http://www.crystallography.net/. The original data for this entry
# were provided by IUCr Journals, http://journals.iucr.org/.
#
# The file may be used within the scientific community so long as
# proper attribution is given to the journal article from which the
# data were obtained.
#
data_2019205
loop_
_publ_author_name
'Wade, Colin B.'
'Mohanty, Dillip K.'
'Squattrito, Philip J.'
'Amato, Nicholas J.'
'Kirschbaum, Kristin'
_publ_section_title
;
 A series of <i>N</i>-(2-phenylethyl)nitroaniline derivatives as
 precursors for slow and sustained nitric oxide release agents
;
_journal_coeditor_code           CU3041
_journal_issue                   11
_journal_name_full               'Acta Crystallographica Section C'
_journal_page_first              1383
_journal_page_last               1389
_journal_paper_doi               10.1107/S0108270113025869
_journal_volume                  69
_journal_year                    2013
_chemical_formula_iupac          'C14 H13 N3 O4'
_chemical_formula_moiety         'C14 H13 N3 O4'
_chemical_formula_sum            'C14 H13 N3 O4'
_chemical_formula_weight         287.27
_chemical_melting_point          425
_chemical_name_systematic
;
2,4-Dinitro-<i>N</i>-(2-phenylethyl)aniline
;
_space_group_IT_number           2
_symmetry_cell_setting           triclinic
_symmetry_space_group_name_Hall  '-P 1'
_symmetry_space_group_name_H-M   'P -1'
_atom_sites_solution_hydrogens   difmap
_atom_sites_solution_primary     direct
_atom_sites_solution_secondary   difmap
_audit_creation_method           SHELXL97
_cell_angle_alpha                88.714(5)
_cell_angle_beta                 85.131(5)
_cell_angle_gamma                67.239(5)
_cell_formula_units_Z            2
_cell_length_a                   7.235(2)
_cell_length_b                   7.282(2)
_cell_length_c                   13.512(4)
_cell_measurement_reflns_used    11611
_cell_measurement_temperature    100(2)
_cell_measurement_theta_max      32.13
_cell_measurement_theta_min      3.020
_cell_volume                     654.0(3)
_computing_cell_refinement       'APEX2 (Bruker, 2005)'
_computing_data_collection       'APEX2 (Bruker, 2005)'
_computing_data_reduction        'APEX2 (Bruker, 2005)'
_computing_molecular_graphics    'CrystalMaker (Palmer, 2013)'
_computing_publication_material  'APEX2 (Bruker, 2005)'
_computing_structure_refinement  'SHELXL97 (Sheldrick, 2008)'
_computing_structure_solution    'SHELXS97 (Sheldrick, 2008)'
_diffrn_ambient_temperature      100(2)
_diffrn_measured_fraction_theta_full 1.000
_diffrn_measured_fraction_theta_max 0.999
_diffrn_measurement_device_type  'Bruker APEX DUO CCD area-detector'
_diffrn_measurement_method       \w
_diffrn_radiation_monochromator  graphite
_diffrn_radiation_source         'sealed tube'
_diffrn_radiation_type           MoK\a
_diffrn_radiation_wavelength     0.71073
_diffrn_reflns_av_R_equivalents  0.0271
_diffrn_reflns_av_sigmaI/netI    0.0349
_diffrn_reflns_limit_h_max       9
_diffrn_reflns_limit_h_min       -9
_diffrn_reflns_limit_k_max       9
_diffrn_reflns_limit_k_min       -9
_diffrn_reflns_limit_l_max       17
_diffrn_reflns_limit_l_min       -17
_diffrn_reflns_number            9039
_diffrn_reflns_theta_full        26.00
_diffrn_reflns_theta_max         28.00
_diffrn_reflns_theta_min         3.03
_exptl_absorpt_coefficient_mu    0.109
_exptl_absorpt_correction_T_max  0.9978
_exptl_absorpt_correction_T_min  0.9784
_exptl_absorpt_correction_type   multi-scan
_exptl_absorpt_process_details   '(SADABS; Sheldrick, 1996)'
_exptl_crystal_colour            orange
_exptl_crystal_density_diffrn    1.459
_exptl_crystal_density_method    'not measured'
_exptl_crystal_description       plate
_exptl_crystal_F_000             300
_exptl_crystal_size_max          0.20
_exptl_crystal_size_mid          0.10
_exptl_crystal_size_min          0.02
_refine_diff_density_max         0.285
_refine_diff_density_min         -0.255
_refine_ls_extinction_method     none
_refine_ls_goodness_of_fit_ref   1.027
_refine_ls_hydrogen_treatment    refall
_refine_ls_matrix_type           full
_refine_ls_number_parameters     242
_refine_ls_number_reflns         3158
_refine_ls_number_restraints     0
_refine_ls_restrained_S_all      1.027
_refine_ls_R_factor_all          0.0647
_refine_ls_R_factor_gt           0.0400
_refine_ls_shift/su_max          0.000
_refine_ls_shift/su_mean         0.000
_refine_ls_structure_factor_coef Fsqd
_refine_ls_weighting_details
'calc w = 1/[\s^2^(Fo^2^)+(0.0523P)^2^+0.1059P] where P=(Fo^2^+2Fc^2^)/3'
_refine_ls_weighting_scheme      calc
_refine_ls_wR_factor_gt          0.0929
_refine_ls_wR_factor_ref         0.1037
_reflns_number_gt                2288
_reflns_number_total             3158
_reflns_threshold_expression     I>2\s(I)
_iucr_refine_instructions_details
;
TITL MO_12_Pbar1 in P-1
CELL 0.71073   7.2347   7.2818  13.5125  88.714  85.131  67.239
ZERR    2.00   0.0023   0.0024   0.0044   0.005   0.005   0.005
LATT  1
SFAC C H N O
UNIT 28 26 6 8
TEMP -173.150
SIZE 0.02 0.10 0.20
L.S. 4
BOND $H
FMAP 2
PLAN 20
HTAB N1 O21
OMIT -3 56
ACTA 52
WGHT    0.052300    0.105900
FVAR       0.25724
O21   4   0.47421   0.19492   0.46231  11.00000   0.03168   0.01588 =
       0.01566   0.00244  -0.00264  -0.00429
O22   4   0.30058   0.48827   0.40811  11.00000   0.02340   0.01240 =
       0.02237  -0.00484   0.00116   0.00066
O41   4   0.35861   0.39571  -0.04202  11.00000   0.04410   0.03027 =
       0.01438   0.00246  -0.00628  -0.01613
O42   4   0.17704   0.61028   0.07262  11.00000   0.03460   0.01961 =
       0.02822   0.00429  -0.00690  -0.00017
N1    3   0.69604  -0.09321   0.33654  11.00000   0.01682   0.01010 =
       0.01898  -0.00076  -0.00141  -0.00230
H1    2   0.65369  -0.06158   0.39819  11.00000   0.03185
N2    3   0.41095   0.31155   0.39280  11.00000   0.01544   0.01306 =
       0.01542  -0.00089  -0.00036  -0.00457
N4    3   0.31213   0.44960   0.04614  11.00000   0.02818   0.01948 =
       0.01800   0.00361  -0.00520  -0.01090
C1    1   0.61056   0.04072   0.26771  11.00000   0.01127   0.01216 =
       0.01908  -0.00120  -0.00078  -0.00614
C2    1   0.46755   0.23875   0.29173  11.00000   0.01398   0.01116 =
       0.01430  -0.00275   0.00098  -0.00496
C3    1   0.37404   0.37119   0.21903  11.00000   0.01290   0.01079 =
       0.01860  -0.00141   0.00022  -0.00471
H3    2   0.28013   0.49653   0.23915  11.00000   0.01779
C4    1   0.42127   0.31487   0.12088  11.00000   0.01818   0.01505 =
       0.01799   0.00200  -0.00209  -0.00795
C5    1   0.56813   0.12657   0.09314  11.00000   0.02175   0.01828 =
       0.01546  -0.00454   0.00286  -0.01038
H5    2   0.59891   0.09170   0.02566  11.00000   0.02058
C6    1   0.65823  -0.00591   0.16413  11.00000   0.01516   0.01265 =
       0.02138  -0.00468   0.00284  -0.00493
H6    2   0.75611  -0.13315   0.14494  11.00000   0.02695
C7    1   0.84097  -0.29706   0.31717  11.00000   0.01355   0.01077 =
       0.02630  -0.00025  -0.00421  -0.00115
H7A   2   0.93203  -0.29879   0.25797  11.00000   0.01756
H7B   2   0.92020  -0.33577   0.37536  11.00000   0.02081
C8    1   0.73941  -0.44359   0.30299  11.00000   0.01304   0.01214 =
       0.02348  -0.00138  -0.00180  -0.00239
H8B   2   0.64099  -0.42913   0.35915  11.00000   0.01520
H8A   2   0.66248  -0.41065   0.24534  11.00000   0.01419
C9    1   0.89306  -0.65607   0.29444  11.00000   0.01193   0.01261 =
       0.02135  -0.00165  -0.00015  -0.00552
C10   1   0.96891  -0.76105   0.37972  11.00000   0.01884   0.01674 =
       0.02032   0.00104  -0.00026  -0.00774
H10   2   0.91711  -0.69926   0.44535  11.00000   0.02506
C11   1   1.11335  -0.95519   0.37235  11.00000   0.01901   0.01558 =
       0.03258   0.00622  -0.00524  -0.00735
H11   2   1.16085  -1.02489   0.43261  11.00000   0.03378
C12   1   1.18247  -1.04605   0.27972  11.00000   0.01380   0.01102 =
       0.04506  -0.00324   0.00088  -0.00398
H12   2   1.27721  -1.17784   0.27696  11.00000   0.02600
C13   1   1.10688  -0.94421   0.19510  11.00000   0.01725   0.01958 =
       0.03110  -0.01202   0.00682  -0.00882
H13   2   1.15452  -1.01373   0.13100  11.00000   0.03056
C14   1   0.96354  -0.74957   0.20191  11.00000   0.01773   0.01882 =
       0.02000  -0.00210  -0.00066  -0.00910
H14   2   0.91363  -0.68186   0.14248  11.00000   0.02482
HKLF 4
END
;
_cod_data_source_file            cu3041.cif
_cod_data_source_block           C14H13N3O4
_cod_original_cell_volume        654.0(4)
_cod_database_code               2019205
loop_
_symmetry_equiv_pos_as_xyz
'x, y, z'
'-x, -y, -z'
loop_
_atom_site_type_symbol
_atom_site_label
_atom_site_fract_x
_atom_site_fract_y
_atom_site_fract_z
_atom_site_U_iso_or_equiv
_atom_site_adp_type
_atom_site_calc_flag
_atom_site_occupancy
_atom_site_symmetry_multiplicity
O O21 0.47421(16) 0.19492(14) 0.46231(7) 0.0226(3) Uani d 1 1
O O22 0.30058(15) 0.48827(14) 0.40811(8) 0.0218(2) Uani d 1 1
O O41 0.35861(18) 0.39571(17) -0.04202(8) 0.0288(3) Uani d 1 1
O O42 0.17704(17) 0.61028(16) 0.07262(8) 0.0304(3) Uani d 1 1
N N1 0.69604(18) -0.09321(17) 0.33654(9) 0.0162(3) Uani d 1 1
H H1 0.654(3) -0.062(3) 0.3982(14) 0.032(5) Uiso d 1 1
N N2 0.41095(17) 0.31155(16) 0.39279(8) 0.0150(3) Uani d 1 1
N N4 0.31213(19) 0.44961(18) 0.04614(9) 0.0212(3) Uani d 1 1
C C1 0.61056(19) 0.04072(19) 0.26771(10) 0.0137(3) Uani d 1 1
C C2 0.46755(19) 0.23875(19) 0.29173(10) 0.0132(3) Uani d 1 1
C C3 0.3740(2) 0.3712(2) 0.21903(10) 0.0141(3) Uani d 1 1
H H3 0.280(2) 0.497(2) 0.2391(11) 0.018(4) Uiso d 1 1
C C4 0.4213(2) 0.3149(2) 0.12088(10) 0.0166(3) Uani d 1 1
C C5 0.5681(2) 0.1266(2) 0.09314(11) 0.0179(3) Uani d 1 1
H H5 0.599(2) 0.092(2) 0.0257(13) 0.021(4) Uiso d 1 1
C C6 0.6582(2) -0.0059(2) 0.16413(11) 0.0167(3) Uani d 1 1
H H6 0.756(3) -0.133(3) 0.1449(13) 0.027(4) Uiso d 1 1
C C7 0.8410(2) -0.2971(2) 0.31717(12) 0.0178(3) Uani d 1 1
H H7A 0.932(2) -0.299(2) 0.2580(12) 0.018(4) Uiso d 1 1
H H7B 0.920(2) -0.336(2) 0.3754(12) 0.021(4) Uiso d 1 1
C C8 0.7394(2) -0.4436(2) 0.30299(12) 0.0169(3) Uani d 1 1
H H8B 0.641(2) -0.429(2) 0.3592(12) 0.015(4) Uiso d 1 1
H H8A 0.662(2) -0.411(2) 0.2453(12) 0.014(4) Uiso d 1 1
C C9 0.8931(2) -0.65607(19) 0.29443(10) 0.0151(3) Uani d 1 1
C C10 0.9689(2) -0.7611(2) 0.37972(11) 0.0185(3) Uani d 1 1
H H10 0.917(2) -0.699(2) 0.4453(13) 0.025(4) Uiso d 1 1
C C11 1.1134(2) -0.9552(2) 0.37235(13) 0.0221(3) Uani d 1 1
H H11 1.161(3) -1.025(3) 0.4326(14) 0.034(5) Uiso d 1 1
C C12 1.1825(2) -1.0461(2) 0.27972(13) 0.0237(3) Uani d 1 1
H H12 1.277(3) -1.178(3) 0.2770(12) 0.026(4) Uiso d 1 1
C C13 1.1069(2) -0.9442(2) 0.19510(12) 0.0225(3) Uani d 1 1
H H13 1.155(3) -1.014(3) 0.1310(14) 0.031(5) Uiso d 1 1
C C14 0.9635(2) -0.7496(2) 0.20191(11) 0.0182(3) Uani d 1 1
H H14 0.914(2) -0.682(2) 0.1425(13) 0.025(4) Uiso d 1 1
loop_
_atom_site_aniso_label
_atom_site_aniso_U_11
_atom_site_aniso_U_22
_atom_site_aniso_U_33
_atom_site_aniso_U_12
_atom_site_aniso_U_13
_atom_site_aniso_U_23
O21 0.0317(6) 0.0159(5) 0.0157(5) -0.0043(4) -0.0026(4) 0.0024(4)
O22 0.0234(6) 0.0124(5) 0.0224(5) 0.0007(4) 0.0012(4) -0.0048(4)
O41 0.0441(7) 0.0303(6) 0.0144(5) -0.0161(5) -0.0063(5) 0.0025(4)
O42 0.0346(7) 0.0196(6) 0.0282(6) -0.0002(5) -0.0069(5) 0.0043(5)
N1 0.0168(6) 0.0101(6) 0.0190(6) -0.0023(5) -0.0014(5) -0.0008(5)
N2 0.0154(6) 0.0131(6) 0.0154(6) -0.0046(5) -0.0004(5) -0.0009(5)
N4 0.0282(7) 0.0195(7) 0.0180(6) -0.0109(6) -0.0052(5) 0.0036(5)
C1 0.0113(6) 0.0122(6) 0.0191(7) -0.0061(5) -0.0008(5) -0.0012(5)
C2 0.0140(7) 0.0112(6) 0.0143(7) -0.0050(5) 0.0010(5) -0.0027(5)
C3 0.0129(6) 0.0108(6) 0.0186(7) -0.0047(5) 0.0002(5) -0.0014(5)
C4 0.0182(7) 0.0151(7) 0.0180(7) -0.0080(6) -0.0021(6) 0.0020(5)
C5 0.0217(7) 0.0183(7) 0.0155(7) -0.0104(6) 0.0029(6) -0.0045(6)
C6 0.0152(7) 0.0127(7) 0.0214(7) -0.0049(6) 0.0028(6) -0.0047(5)
C7 0.0135(7) 0.0108(7) 0.0263(8) -0.0011(5) -0.0042(6) -0.0003(6)
C8 0.0130(7) 0.0121(7) 0.0235(8) -0.0024(5) -0.0018(6) -0.0014(5)
C9 0.0119(6) 0.0126(7) 0.0214(7) -0.0055(5) -0.0002(5) -0.0017(5)
C10 0.0188(7) 0.0167(7) 0.0203(8) -0.0077(6) -0.0003(6) 0.0010(6)
C11 0.0190(8) 0.0156(7) 0.0326(9) -0.0073(6) -0.0052(6) 0.0062(6)
C12 0.0138(7) 0.0110(7) 0.0451(10) -0.0040(6) 0.0009(6) -0.0032(6)
C13 0.0172(7) 0.0196(7) 0.0311(9) -0.0088(6) 0.0068(6) -0.0120(6)
C14 0.0177(7) 0.0188(7) 0.0200(7) -0.0091(6) -0.0007(6) -0.0021(6)
loop_
_atom_type_symbol
_atom_type_description
_atom_type_scat_dispersion_real
_atom_type_scat_dispersion_imag
_atom_type_scat_source
C C 0.0033 0.0016 'International Tables Vol C Tables 4.2.6.8 and 6.1.1.4'
H H 0.0000 0.0000 'International Tables Vol C Tables 4.2.6.8 and 6.1.1.4'
N N 0.0061 0.0033 'International Tables Vol C Tables 4.2.6.8 and 6.1.1.4'
O O 0.0106 0.0060 'International Tables Vol C Tables 4.2.6.8 and 6.1.1.4'
loop_
_geom_angle_atom_site_label_1
_geom_angle_atom_site_label_2
_geom_angle_atom_site_label_3
_geom_angle
C1 N1 C7 125.87(13)
C1 N1 H1 117.6(12)
C7 N1 H1 116.2(12)
O22 N2 O21 121.63(11)
O22 N2 C2 119.07(11)
O21 N2 C2 119.30(11)
O42 N4 O41 123.20(12)
O42 N4 C4 119.13(12)
O41 N4 C4 117.66(12)
N1 C1 C6 121.24(12)
N1 C1 C2 123.14(12)
C6 C1 C2 115.62(12)
C3 C2 C1 121.89(12)
C3 C2 N2 115.84(11)
C1 C2 N2 122.28(12)
C4 C3 C2 119.61(12)
C4 C3 H3 122.3(9)
C2 C3 H3 118.1(9)
C3 C4 C5 120.74(13)
C3 C4 N4 118.95(12)
C5 C4 N4 120.27(12)
C6 C5 C4 120.01(13)
C6 C5 H5 120.6(10)
C4 C5 H5 119.3(10)
C5 C6 C1 122.00(13)
C5 C6 H6 119.6(10)
C1 C6 H6 118.4(10)
N1 C7 C8 112.67(12)
N1 C7 H7A 109.2(9)
C8 C7 H7A 110.3(9)
N1 C7 H7B 106.3(9)
C8 C7 H7B 109.5(9)
H7A C7 H7B 108.7(13)
C9 C8 C7 111.05(11)
C9 C8 H8B 110.6(9)
C7 C8 H8B 108.5(9)
C9 C8 H8A 110.1(9)
C7 C8 H8A 111.3(9)
H8B C8 H8A 105.1(12)
C14 C9 C10 118.80(13)
C14 C9 C8 120.97(13)
C10 C9 C8 120.23(13)
C11 C10 C9 120.58(14)
C11 C10 H10 119.7(10)
C9 C10 H10 119.7(10)
C12 C11 C10 119.96(15)
C12 C11 H11 121.3(11)
C10 C11 H11 118.7(11)
C13 C12 C11 119.87(14)
C13 C12 H12 121.9(11)
C11 C12 H12 118.2(11)
C12 C13 C14 120.46(14)
C12 C13 H13 118.1(10)
C14 C13 H13 121.4(10)
C13 C14 C9 120.33(14)
C13 C14 H14 119.1(10)
C9 C14 H14 120.6(10)
loop_
_geom_bond_atom_site_label_1
_geom_bond_atom_site_label_2
_geom_bond_distance
O21 N2 1.2448(15)
O22 N2 1.2350(14)
O41 N4 1.2398(16)
O42 N4 1.2356(16)
N1 C1 1.3374(18)
N1 C7 1.4622(17)
N1 H1 0.867(19)
N2 C2 1.4433(17)
N4 C4 1.4482(18)
C1 C6 1.429(2)
C1 C2 1.4369(18)
C2 C3 1.3850(19)
C3 C4 1.372(2)
C3 H3 0.932(16)
C4 C5 1.406(2)
C5 C6 1.362(2)
C5 H5 0.937(17)
C6 H6 0.948(17)
C7 C8 1.534(2)
C7 H7A 0.989(16)
C7 H7B 0.984(16)
C8 C9 1.5161(19)
C8 H8B 0.974(16)
C8 H8A 0.967(16)
C9 C14 1.396(2)
C9 C10 1.399(2)
C10 C11 1.395(2)
C10 H10 0.980(17)
C11 C12 1.389(2)
C11 H11 0.966(19)
C12 C13 1.382(2)
C12 H12 0.938(17)
C13 C14 1.395(2)
C13 H13 0.979(18)
C14 H14 0.955(17)
loop_
_geom_hbond_atom_site_label_D
_geom_hbond_atom_site_label_H
_geom_hbond_atom_site_label_A
_geom_hbond_site_symmetry_A
_geom_hbond_distance_DH
_geom_hbond_distance_HA
_geom_hbond_distance_DA
_geom_hbond_angle_DHA
N1 H1 O21 . 0.867(19) 1.983(19) 2.6377(16) 131.5(16)
N1 H1 O21 2_656 0.867(19) 2.381(19) 3.0823(18) 138.3(16)
loop_
_geom_torsion_atom_site_label_1
_geom_torsion_atom_site_label_2
_geom_torsion_atom_site_label_3
_geom_torsion_atom_site_label_4
_geom_torsion
C7 N1 C1 C6 -0.9(2)
C7 N1 C1 C2 179.47(12)
N1 C1 C2 C3 -176.80(13)
C6 C1 C2 C3 3.52(19)
N1 C1 C2 N2 2.6(2)
C6 C1 C2 N2 -177.05(12)
O22 N2 C2 C3 -6.70(18)
O21 N2 C2 C3 173.22(12)
O22 N2 C2 C1 173.85(12)
O21 N2 C2 C1 -6.24(18)
C1 C2 C3 C4 -1.4(2)
N2 C2 C3 C4 179.12(12)
C2 C3 C4 C5 -2.0(2)
C2 C3 C4 N4 175.69(12)
O42 N4 C4 C3 -1.2(2)
O41 N4 C4 C3 179.53(13)
O42 N4 C4 C5 176.52(13)
O41 N4 C4 C5 -2.7(2)
C3 C4 C5 C6 3.2(2)
N4 C4 C5 C6 -174.48(13)
C4 C5 C6 C1 -0.9(2)
N1 C1 C6 C5 177.98(13)
C2 C1 C6 C5 -2.33(19)
C1 N1 C7 C8 -85.52(17)
N1 C7 C8 C9 -173.75(12)
C7 C8 C9 C14 -99.44(16)
C7 C8 C9 C10 79.65(16)
C14 C9 C10 C11 0.4(2)
C8 C9 C10 C11 -178.69(13)
C9 C10 C11 C12 -0.2(2)
C10 C11 C12 C13 -0.4(2)
C11 C12 C13 C14 0.9(2)
C12 C13 C14 C9 -0.7(2)
C10 C9 C14 C13 0.0(2)
C8 C9 C14 C13 179.15(13)
