#------------------------------------------------------------------------------
#$Date: 2016-02-20 00:18:51 +0200 (Sat, 20 Feb 2016) $
#$Revision: 176760 $
#$URL: svn://www.crystallography.net/cod/cif/2/01/93/2019333.cif $
#------------------------------------------------------------------------------
#
# This file is available in the Crystallography Open Database (COD),
# http://www.crystallography.net/. The original data for this entry
# were provided the Crystal Eye server at
# http://wwmm.ch.cam.ac.uk/crystaleye/, created by Nick Day at the
# Peter Murray-Rust laboratory.
#
# The file may be used within the scientific community so long as
# proper attribution is given to the journal article from which the
# data were obtained.
#
data_2019333
loop_
_publ_author_name
'Dittrich, B.'
'H\"ubschle, C. B.'
'Messerschmidt, M.'
'Kalinowski, R.'
'Girnt, D.'
'Luger, P.'
_publ_section_title
;
 The invariom model and its application: refinement ofD,L-serine at
 different temperatures and resolution
;
_journal_issue                   3
_journal_name_full
'Acta Crystallographica Section A Foundations of Crystallography'
_journal_page_first              314
_journal_page_last               320
_journal_paper_doi               10.1107/S0108767305005039
_journal_volume                  61
_journal_year                    2005
_chemical_formula_analytical     'C3 H7 N O3'
_chemical_formula_moiety         'C3 H7 N O3'
_chemical_formula_sum            'C3 H7 N O3'
_chemical_formula_weight         105.10
_chemical_melting_point          235
_chemical_name_common            D,L-Serine
_chemical_name_systematic        '(+-) 2-Amino-3-hydroxypropionic acid'
_space_group_IT_number           14
_symmetry_cell_setting           monoclinic
_symmetry_space_group_name_Hall  '-P 2yab'
_symmetry_space_group_name_H-M   'P 1 21/a 1'
_atom_type_scat_source
'Invariomic aspherical-atom scattering factors'
_audit_conform_dict_name         cif_core.dic
_audit_conform_dict_version      2.2
_audit_creation_method           'XD routine XDCIF'
_cell_angle_alpha                90
_cell_angle_beta                 106.76(2)
_cell_angle_gamma                90
_cell_formula_units_Z            4
_cell_length_a                   10.7621(10)
_cell_length_b                   9.1771(9)
_cell_length_c                   4.7883(5)
_cell_measurement_reflns_used    9829
_cell_measurement_temperature    100
_cell_measurement_theta_max      40.226
_cell_measurement_theta_min      16.162
_cell_volume                     452.83(9)
_computing_molecular_graphics
'Koritsanszky et al, (2003), Platon (Spek, 2003)'
_computing_publication_material  'Koritsanszky et al, (2003), EnCIFer 1.1'
_computing_structure_refinement  'Koritsanszky et al, (2003)'
_diffrn_ambient_temperature      100
_diffrn_measured_fraction_theta_full 0.98
_diffrn_measured_fraction_theta_max 0.79
_diffrn_measurement_device       'four-circle diffractometer'
_diffrn_measurement_device_type
'Bruker APEX on a Huber Type 512 diffractometer'
_diffrn_measurement_method       \w-scans
_diffrn_radiation_monochromator  graphite
_diffrn_radiation_type           'Mo K\a'
_diffrn_radiation_wavelength     0.71073
_diffrn_reflns_av_R_equivalents  0.0289
_diffrn_reflns_limit_h_max       8
_diffrn_reflns_limit_h_min       -4
_diffrn_reflns_limit_k_max       21
_diffrn_reflns_limit_k_min       -21
_diffrn_reflns_limit_l_max       24
_diffrn_reflns_limit_l_min       -24
_diffrn_reflns_number            38455
_diffrn_reflns_reduction_process 'Integration: SAINT, merging: SORTAV'
_diffrn_reflns_theta_full        40.31
_diffrn_reflns_theta_max         57.57
_diffrn_standards_interval_count 0
_diffrn_standards_interval_time  0
_diffrn_standards_number         0
_exptl_absorpt_coefficient_mu    0.138
_exptl_absorpt_correction_type   none
_exptl_crystal_colour            colorless
_exptl_crystal_density_diffrn    1.5416
_exptl_crystal_density_meas      ?
_exptl_crystal_description       rectangular
_exptl_crystal_F_000             224.0
_exptl_crystal_size_max          0.5
_exptl_crystal_size_mid          0.45
_exptl_crystal_size_min          0.35
_refine_diff_density_max         0.231
_refine_diff_density_min         -0.221
_refine_ls_extinction_method     none
_refine_ls_goodness_of_fit_ref   1.2422
_refine_ls_hydrogen_treatment    refall
_refine_ls_matrix_type           full
_refine_ls_number_parameters     93
_refine_ls_number_reflns         4109
_refine_ls_number_restraints     0
_refine_ls_R_factor_all          0.0347
_refine_ls_R_factor_gt           0.0228
_refine_ls_shift/su_max          0.000
_refine_ls_structure_factor_coef F
_refine_ls_weighting_details
;
     calc w1 = 1/[s^2^(Fo)]
;
_refine_ls_weighting_scheme      calc
_refine_ls_wR_factor_ref         0.0237
_reflns_number_gt                4109
_reflns_number_total             5146
_reflns_threshold_expression     'I > 2\s I'
_cod_data_source_file            cn5001sup1.cif
_cod_data_source_block           100K
_cod_depositor_comments
;
The following automatic conversions were performed:

'_exptl_crystal_density_meas' value 'not measured' was changed to '?'
- the value is perceived as not measured.

Automatic conversion script
Id: cif_fix_values 3008 2015-01-20 13:52:24Z robertas 
;
_cod_original_sg_symbol_H-M      P21/a
_cod_database_code               2019333
loop_
_symmetry_equiv_pos_as_xyz
+X,+Y,+Z
1/2-X,1/2+Y,-Z
-X,-Y,-Z
1/2+X,1/2-Y,+Z
loop_
_atom_site_aniso_label
_atom_site_aniso_U_11
_atom_site_aniso_U_22
_atom_site_aniso_U_33
_atom_site_aniso_U_12
_atom_site_aniso_U_13
_atom_site_aniso_U_23
O(1) 0.01460(6) 0.01086(6) 0.00987(7) -0.00053(5) 0.00144(5) 0.00166(5)
O(2) 0.01635(7) 0.01052(6) 0.01157(8) -0.00359(5) 0.00396(6) -0.00086(5)
O(3) 0.01123(6) 0.01288(6) 0.01697(9) -0.00212(5) 0.00720(6) -0.00381(6)
N(1) 0.00949(5) 0.00947(6) 0.01064(8) 0.00049(4) 0.00363(5) 0.00128(5)
C(1) 0.01157(7) 0.00838(6) 0.00847(8) -0.00019(5) 0.00359(5) -0.00024(5)
C(2) 0.01012(6) 0.00950(6) 0.00812(8) 0.00061(5) 0.00350(5) 0.00035(5)
C(3) 0.00958(6) 0.01267(7) 0.01108(9) 0.00070(6) 0.00229(6) 0.00030(6)
loop_
_atom_site_label
_atom_site_fract_x
_atom_site_fract_y
_atom_site_fract_z
_atom_site_U_iso_or_equiv
_atom_site_occupancy
O(1) 0.65971(2) 0.40588(2) 0.42808(5) 0.012 1
O(2) 0.82960(2) 0.50982(2) 0.75169(5) 0.013 1
O(3) 0.92941(2) 0.17379(2) 0.72353(5) 0.014 1
N(1) 0.65294(2) 0.17254(2) 0.74409(5) 0.01 1
C(1) 0.74714(2) 0.40934(2) 0.66646(5) 0.01 1
C(2) 0.75448(2) 0.28247(3) 0.87869(5) 0.009 1
C(3) 0.88934(2) 0.21473(3) 0.97025(6) 0.011 1
H(2) 0.7325(7) 0.3234(8) 1.0664(16) 0.020(2) 1
H(11) 0.5643(9) 0.2289(10) 0.6837(17) 0.030(2) 1
H(12) 0.6531(9) 0.0944(11) 0.904(2) 0.037(2) 1
H(13) 0.6664(9) 0.1217(10) 0.561(2) 0.035(2) 1
H(31) 0.9566(8) 0.2970(9) 1.0920(16) 0.025(2) 1
H(32) 0.8894(8) 0.1195(10) 1.1160(16) 0.027(2) 1
H(4) 0.9019(8) 0.0771(10) 0.6736(17) 0.025(2) 1
loop_
_geom_angle_atom_site_label_1
_geom_angle_atom_site_label_2
_geom_angle_atom_site_label_3
_geom_angle_site_symmetry_1
_geom_angle_site_symmetry_2
_geom_angle_site_symmetry_3
_geom_angle
_geom_angle_publ_flag
C(3) O(3) H(4) 1_555 1_555 1_555 108.1(5) yes
H(11) N(1) H(12) 1_555 1_555 1_555 110.4(6) yes
H(11) N(1) H(13) 1_555 1_555 1_555 109.0(6) yes
H(12) N(1) H(13) 1_555 1_555 1_555 109.7(7) yes
O(1) C(1) O(2) 1_555 1_555 1_555 125.86(2) yes
O(1) C(1) C(2) 1_555 1_555 1_555 117.81(2) yes
O(2) C(1) C(2) 1_555 1_555 1_555 116.32(2) yes
C(1) C(2) C(3) 1_555 1_555 1_555 111.329(19) yes
C(1) C(2) H(2) 1_555 1_555 1_555 108.1(4) yes
C(3) C(2) H(2) 1_555 1_555 1_555 109.1(4) yes
O(3) C(3) C(2) 1_555 1_555 1_555 111.19(2) yes
O(3) C(3) H(31) 1_555 1_555 1_555 108.3(4) yes
O(3) C(3) H(32) 1_555 1_555 1_555 111.5(4) yes
C(2) C(3) H(31) 1_555 1_555 1_555 107.5(4) yes
C(2) C(3) H(32) 1_555 1_555 1_555 109.1(4) yes
H(31) C(3) H(32) 1_555 1_555 1_555 109.1(5) yes
loop_
_geom_bond_atom_site_label_1
_geom_bond_atom_site_label_2
_geom_bond_site_symmetry_1
_geom_bond_site_symmetry_2
_geom_bond_distance
_geom_bond_publ_flag
O(1) C(1) 1_555 1_555 1.2529(3) yes
O(2) C(1) 1_555 1_555 1.2632(3) yes
O(3) C(3) 1_555 1_555 1.4201(3) yes
O(3) H(4) 1_555 1_555 0.944(10) yes
N(1) H(11) 1_555 1_555 1.050(9) yes
N(1) H(12) 1_555 1_555 1.048(10) yes
N(1) H(13) 1_555 1_555 1.039(10) yes
C(1) C(2) 1_555 1_555 1.5323(3) yes
C(2) C(3) 1_555 1_555 1.5226(3) yes
C(2) H(2) 1_555 1_555 1.062(7) yes
C(3) H(31) 1_555 1_555 1.091(8) yes
C(3) H(32) 1_555 1_555 1.118(9) yes
