#------------------------------------------------------------------------------
#$Date: 2016-02-20 00:18:51 +0200 (Sat, 20 Feb 2016) $
#$Revision: 176760 $
#$URL: svn://www.crystallography.net/cod/cif/2/01/92/2019244.cif $
#------------------------------------------------------------------------------
#
# This file is available in the Crystallography Open Database (COD),
# http://www.crystallography.net/. The original data for this entry
# were provided by IUCr Journals, http://journals.iucr.org/.
#
# The file may be used within the scientific community so long as
# proper attribution is given to the journal article from which the
# data were obtained.
#
data_2019244
loop_
_publ_author_name
'Rajalakshmi, P.'
'Srinivasan, N.'
'Krishnakumar, R. V.'
'Razak, Ibrahim Abdul'
'Rosli, Mohd Mustaqim'
_publ_section_title
;
 Supramolecular architectures of <i>N</i>-acetyl-<small>L</small>-proline
 monohydrate and <i>N</i>-benzyl-<small>L</small>-proline
;
_journal_coeditor_code           MX3104
_journal_issue                   11
_journal_name_full               'Acta Crystallographica Section C'
_journal_page_first              1390
_journal_page_last               1396
_journal_paper_doi               10.1107/S010827011302581X
_journal_volume                  69
_journal_year                    2013
_chemical_formula_iupac          'C7 H11 N O3 , H2 O'
_chemical_formula_moiety         'C7 H11 N O3, H2 O'
_chemical_formula_sum            'C7 H13 N O4'
_chemical_formula_weight         175.18
_chemical_name_common
;
1-Acetylpyrrolidine-2-carboxylic acid monohydrate
;
_chemical_name_systematic
;
<i>N</i>-Acetyl-<i>L</i>-proline monohydrate
;
_space_group_IT_number           4
_symmetry_cell_setting           monoclinic
_symmetry_space_group_name_Hall  'P 2yb'
_symmetry_space_group_name_H-M   'P 1 21 1'
_atom_sites_solution_hydrogens   geom
_atom_sites_solution_primary     direct
_atom_sites_solution_secondary   difmap
_audit_creation_method           SHELXL97
_cell_angle_alpha                90.00
_cell_angle_beta                 111.1430(10)
_cell_angle_gamma                90.00
_cell_formula_units_Z            2
_cell_length_a                   6.2876(3)
_cell_length_b                   10.7132(5)
_cell_length_c                   6.7764(3)
_cell_measurement_reflns_used    3028
_cell_measurement_temperature    100(2)
_cell_measurement_theta_max      32.58
_cell_measurement_theta_min      3.22
_cell_volume                     425.73(3)
_computing_cell_refinement       'SAINT (Bruker, 2009)'
_computing_data_collection       'APEX2 (Bruker, 2009)'
_computing_data_reduction        'SAINT (Bruker, 2009)'
_computing_molecular_graphics    'PLATON (Spek, 2009)'
_computing_publication_material  'SHELXL97 (Sheldrick, 2008)'
_computing_structure_refinement  'SHELXL97 (Sheldrick, 2008)'
_computing_structure_solution    'SHELXS97 (Sheldrick, 2008)'
_diffrn_ambient_temperature      100(2)
_diffrn_measured_fraction_theta_full 0.988
_diffrn_measured_fraction_theta_max 0.988
_diffrn_measurement_device_type  'Bruker Kappa APEXII area-detector'
_diffrn_measurement_method       '\f and \w scans'
_diffrn_radiation_monochromator  graphite
_diffrn_radiation_source         'fine-focus sealed tube'
_diffrn_radiation_type           MoK\a
_diffrn_radiation_wavelength     0.71073
_diffrn_reflns_av_R_equivalents  0.0345
_diffrn_reflns_av_sigmaI/netI    0.0223
_diffrn_reflns_limit_h_max       9
_diffrn_reflns_limit_h_min       -7
_diffrn_reflns_limit_k_max       15
_diffrn_reflns_limit_k_min       -16
_diffrn_reflns_limit_l_max       10
_diffrn_reflns_limit_l_min       -10
_diffrn_reflns_number            10935
_diffrn_reflns_theta_full        32.58
_diffrn_reflns_theta_max         32.58
_diffrn_reflns_theta_min         3.22
_diffrn_standards_decay_%        0
_diffrn_standards_interval_count 0
_diffrn_standards_interval_time  0
_diffrn_standards_number         0
_exptl_absorpt_coefficient_mu    0.112
_exptl_absorpt_correction_T_max  0.9780
_exptl_absorpt_correction_T_min  0.9640
_exptl_absorpt_correction_type   multi-scan
_exptl_absorpt_process_details   '(SADABS; Sheldrick, 2008)'
_exptl_crystal_colour            colourless
_exptl_crystal_density_diffrn    1.367
_exptl_crystal_density_method    'not measured'
_exptl_crystal_description       block
_exptl_crystal_F_000             188
_exptl_crystal_size_max          0.33
_exptl_crystal_size_mid          0.29
_exptl_crystal_size_min          0.20
_refine_diff_density_max         0.338
_refine_diff_density_min         -0.343
_refine_ls_extinction_method     none
_refine_ls_goodness_of_fit_ref   1.089
_refine_ls_hydrogen_treatment    mixed
_refine_ls_matrix_type           full
_refine_ls_number_parameters     119
_refine_ls_number_reflns         1605
_refine_ls_number_restraints     2
_refine_ls_restrained_S_all      1.088
_refine_ls_R_factor_all          0.0320
_refine_ls_R_factor_gt           0.0249
_refine_ls_shift/su_max          0.000
_refine_ls_shift/su_mean         0.000
_refine_ls_structure_factor_coef Fsqd
_refine_ls_weighting_details
'calc w = 1/[\s^2^(Fo^2^)+(0.0487P)^2^+0.0228P] where P=(Fo^2^+2Fc^2^)/3'
_refine_ls_weighting_scheme      calc
_refine_ls_wR_factor_gt          0.0667
_refine_ls_wR_factor_ref         0.0690
_reflns_number_gt                1577
_reflns_number_total             1605
_reflns_threshold_expression     I>2\s(I)
_iucr_refine_instructions_details
;
TITL mo_prl21_0m in P2(1) (100K)
CELL  0.71073   6.2876  10.7132   6.7764   90.000  111.143   90.000
ZERR     2.00   0.0003   0.0005   0.0003    0.000    0.001    0.000
LATT  -1
SYMM  - X, 1/2 + Y, - Z
SFAC  C    H    N    O
UNIT  14   26   2    8
FMAP   2    1   60
MERG   3
EQIV $1 -x, y-1/2, -z+1
EQIV $2 1-x, 1/2+y, -z
EQIV $3 1-x, 1/2+y, 1-z
EQIV $4 -x+1,+y-1/2,-z+1
HTAB O1W O3_$1
HTAB O1W O2_$4
HTAB O1 O1W
HTAB  C4 O1_$2
HTAB C7 O2_$3
MPLA 3 C2 C5 N1 C3 C4
CONF  O1 C1 C2 N1
CONF  O2 C1 C2 N1
CONF  N1 C2 C3 C4
CONF  C2 C3 C4 C5
CONF  C3 C4 C5 N1
CONF  C4 C5 N1 C2
CONF  C5 N1 C2 C3
rem torsion angle
CONF C2 N1 C6 O3
CONF C2 N1 C6 C7
REM ANGLE BETWEEN CARBOXYLIC AND n-ACE
MPLA 4 C2 C1 O1 O2
MPLA 4 N1 C6 O3 C7
REM ANGLE BETWEEN X1 AND X2
MPLA 4 C2 N1 C5 C4
MPLA 4 C3 C2 N1 C5
REM ANGLE BETWEEN CARBOXYLIC AND C3 C2 N1 C5
MPLA 4 C2 C1 O1 O2
MPLA 4  C3 C2 N1 C5
PLAN   20
SIZE     0.20   0.29   0.33
ACTA
BOND   $H
CONF
L.S.  25
OMIT   1  -1   0
OMIT  -2  -1   2
OMIT  -4  -4   1
OMIT   4  -3   0
OMIT   4   4   0
OMIT   4  -2   0
OMIT  -3  -4   4
OMIT  -2   2   2
OMIT  -2   1   5
OMIT  -2  -3   2
OMIT   2   1   0
Omit  -2   1   2
OMIT  4   3   0
SADI 0.02 O1W H2W1 O1W H1W1
TEMP  -173.00
WGHT      0.0487      0.0228
FVAR       1.51876
O1W   4    0.257795    0.104983    0.383410    11.00000    0.02015    0.01607 =
         0.02025    0.00341    0.01046    0.00315
O1    4    0.166533    0.309981    0.172830    11.00000    0.02049    0.01235 =
         0.01767   -0.00034    0.00672   -0.00157
AFIX 147
H1    2    0.213533    0.251749    0.260921    11.00000   -1.50000
AFIX   0
O2    4    0.386109    0.426928    0.445321    11.00000    0.01877    0.01665 =
         0.01626    0.00185    0.00435   -0.00127
O3    4   -0.055724    0.584984    0.328942    11.00000    0.01847    0.01822 =
         0.02285   -0.00135    0.01190   -0.00334
N1    3    0.209666    0.643591    0.197992    11.00000    0.01495    0.01243 =
         0.01569    0.00066    0.00734   -0.00132
C1    1    0.259348    0.416459    0.261451    11.00000    0.01258    0.01291 =
         0.01643    0.00051    0.00759   -0.00003
C2    1    0.201210    0.521380    0.100769    11.00000    0.01462    0.01310 =
         0.01392    0.00003    0.00675   -0.00086
AFIX  13
H2A   2    0.047077    0.507162   -0.009805    11.00000   -1.20000
AFIX   0
C3    1    0.382262    0.530811   -0.003255    11.00000    0.01993    0.01903 =
         0.01857    0.00020    0.01209   -0.00080
AFIX  23
H3A   2    0.533713    0.503386    0.095240    11.00000   -1.20000
H3B   2    0.338844    0.479961   -0.133844    11.00000   -1.20000
AFIX   0
C4    1    0.382419    0.670187   -0.053141    11.00000    0.02372    0.02256 =
         0.01939    0.00345    0.01272   -0.00248
AFIX  23
H4A   2    0.527985    0.695177   -0.066982    11.00000   -1.20000
H4B   2    0.254976    0.691368   -0.185563    11.00000   -1.20000
AFIX   0
C5    1    0.352806    0.733385    0.137358    11.00000    0.01700    0.01546 =
         0.01938    0.00275    0.00893   -0.00229
AFIX  23
H5A   2    0.501560    0.745658    0.253440    11.00000   -1.20000
H5B   2    0.275469    0.815086    0.098030    11.00000   -1.20000
AFIX   0
C6    1    0.071113    0.668370    0.304620    11.00000    0.01416    0.01422 =
         0.01446    0.00081    0.00577    0.00071
C7    1    0.076900    0.797968    0.390112    11.00000    0.02233    0.01382 =
         0.01925   -0.00017    0.00934    0.00017
AFIX 137
H7A   2   -0.025449    0.802853    0.469919    11.00000   -1.50000
H7B   2    0.027219    0.857596    0.272592    11.00000   -1.50000
H7C   2    0.232712    0.818135    0.483688    11.00000   -1.50000
AFIX   0
H1W1  2    0.198235    0.092606    0.467534    11.00000    0.03298
H2W1  2    0.372121    0.063069    0.424378    11.00000    0.02615
HKLF 4  1.0 -1.00  0.00  0.00  0.00  0.00 -1.00  0.00 -1.00  0.00
REM  mo_prl21_0m in P2(1) (100K)
REM R1 =  0.0254 for   1577 Fo > 4sig(Fo)  and  0.0325 for all   1605 data
REM    119 parameters refined using      2 restraints
END
WGHT      0.0487      0.0228
REM Highest difference peak  0.337,  deepest hole -0.340,  1-sigma level  0.105
Q1    1   0.7006  0.4403  0.2353  11.00000  0.05    0.34
Q2    1   0.7171  0.5800 -0.1155  11.00000  0.05    0.34
Q3    1   0.5938  0.5499  0.3055  11.00000  0.05    0.33
Q4    1   0.1121  0.0953  0.3240  11.00000  0.05    0.30
Q5    1   0.1610  0.0775  0.5818  11.00000  0.05    0.30
Q6    1   0.0626  0.7387  0.3427  11.00000  0.05    0.29
Q7    1   0.3015  0.8445  0.4035  11.00000  0.05    0.29
Q8    1  -0.1800  0.5735  0.1982  11.00000  0.05    0.28
Q9    1   0.5097  0.4353  0.5778  11.00000  0.05    0.28
Q10   1   0.2563 -0.0406  0.4979  11.00000  0.05    0.28
Q11   1   0.3644  0.0208  0.5934  11.00000  0.05    0.28
Q12   1   0.3804  0.7018  0.0543  11.00000  0.05    0.27
Q13   1   0.2180  0.8349 -0.1348  11.00000  0.05    0.27
Q14   1   0.6393  0.4721 -0.0640  11.00000  0.05    0.26
Q15   1  -0.1693  0.5244  0.1155  11.00000  0.05    0.26
Q16   1   0.6407  0.6802 -0.0251  11.00000  0.05    0.26
Q17   1   0.2138  0.1620  0.3079  11.00000  0.05    0.26
Q18   1   0.0499  0.3128  0.0518  11.00000  0.05    0.25
Q19   1   0.1885  0.9298  0.2151  11.00000  0.05    0.24
Q20   1   0.1616  0.1695  0.1951  11.00000  0.05    0.24
;
_cod_data_source_file            mx3104.cif
_cod_data_source_block           prl021
_cod_original_sg_symbol_H-M      'P 21'
_cod_database_code               2019244
loop_
_symmetry_equiv_pos_as_xyz
'x, y, z'
'-x, y+1/2, -z'
loop_
_atom_site_type_symbol
_atom_site_label
_atom_site_fract_x
_atom_site_fract_y
_atom_site_fract_z
_atom_site_U_iso_or_equiv
_atom_site_adp_type
_atom_site_calc_flag
_atom_site_refinement_flags
_atom_site_occupancy
_atom_site_symmetry_multiplicity
O O1W 0.25777(12) 0.10499(7) 0.38337(11) 0.01809(14) Uani d D 1 1
O O1 0.16647(12) 0.30996(6) 0.17278(11) 0.01696(13) Uani d . 1 1
H H1 0.2142 0.2516 0.2606 0.025 Uiso calc R 1 1
O O2 0.38606(12) 0.42695(7) 0.44520(10) 0.01787(14) Uani d . 1 1
O O3 -0.05574(12) 0.58499(7) 0.32887(12) 0.01871(14) Uani d . 1 1
N N1 0.20972(13) 0.64355(7) 0.19803(12) 0.01394(14) Uani d . 1 1
C C1 0.25938(14) 0.41643(8) 0.26143(13) 0.01349(15) Uani d . 1 1
C C2 0.20118(14) 0.52137(8) 0.10077(13) 0.01355(14) Uani d . 1 1
H H2A 0.0470 0.5072 -0.0098 0.016 Uiso calc R 1 1
C C3 0.38220(17) 0.53084(9) -0.00327(15) 0.01792(16) Uani d . 1 1
H H3A 0.5336 0.5034 0.0952 0.022 Uiso calc R 1 1
H H3B 0.3387 0.4800 -0.1339 0.022 Uiso calc R 1 1
C C4 0.38250(18) 0.67017(10) -0.05307(14) 0.02064(18) Uani d . 1 1
H H4A 0.5281 0.6951 -0.0668 0.025 Uiso calc R 1 1
H H4B 0.2552 0.6914 -0.1856 0.025 Uiso calc R 1 1
C C5 0.35274(16) 0.73344(9) 0.13729(14) 0.01673(16) Uani d . 1 1
H H5A 0.5015 0.7458 0.2534 0.020 Uiso calc R 1 1
H H5B 0.2752 0.8151 0.0978 0.020 Uiso calc R 1 1
C C6 0.07107(14) 0.66836(8) 0.30458(13) 0.01427(15) Uani d . 1 1
C C7 0.07690(17) 0.79800(9) 0.39021(15) 0.01805(16) Uani d . 1 1
H H7A -0.0239 0.8026 0.4716 0.027 Uiso calc R 1 1
H H7B 0.0253 0.8575 0.2726 0.027 Uiso calc R 1 1
H H7C 0.2331 0.8186 0.4823 0.027 Uiso calc R 1 1
H H1W1 0.198(3) 0.095(2) 0.467(3) 0.034(5) Uiso d D 1 1
H H2W1 0.373(3) 0.0642(19) 0.427(3) 0.027(4) Uiso d D 1 1
loop_
_atom_site_aniso_label
_atom_site_aniso_U_11
_atom_site_aniso_U_22
_atom_site_aniso_U_33
_atom_site_aniso_U_12
_atom_site_aniso_U_13
_atom_site_aniso_U_23
O1W 0.0204(3) 0.0162(3) 0.0203(3) 0.0031(2) 0.0105(2) 0.0035(2)
O1 0.0205(3) 0.0125(3) 0.0177(3) -0.0015(2) 0.0068(2) -0.0003(2)
O2 0.0188(3) 0.0167(3) 0.0165(3) -0.0013(2) 0.0043(2) 0.0018(2)
O3 0.0187(3) 0.0184(3) 0.0229(3) -0.0033(2) 0.0121(2) -0.0015(2)
N1 0.0150(3) 0.0125(3) 0.0159(3) -0.0013(2) 0.0074(2) 0.0007(2)
C1 0.0128(3) 0.0129(3) 0.0167(3) 0.0001(3) 0.0077(3) 0.0007(3)
C2 0.0146(3) 0.0132(3) 0.0140(3) -0.0008(3) 0.0067(3) 0.0000(3)
C3 0.0202(4) 0.0191(4) 0.0188(4) -0.0007(3) 0.0122(3) 0.0003(3)
C4 0.0238(4) 0.0228(4) 0.0195(3) -0.0023(3) 0.0128(3) 0.0037(3)
C5 0.0172(3) 0.0156(4) 0.0194(3) -0.0024(3) 0.0090(3) 0.0028(3)
C6 0.0141(3) 0.0148(3) 0.0144(3) 0.0008(3) 0.0057(2) 0.0008(3)
C7 0.0227(4) 0.0138(3) 0.0192(3) 0.0003(3) 0.0095(3) -0.0003(3)
loop_
_atom_type_symbol
_atom_type_description
_atom_type_scat_dispersion_real
_atom_type_scat_dispersion_imag
_atom_type_scat_source
C C 0.0033 0.0016 'International Tables Vol C Tables 4.2.6.8 and 6.1.1.4'
H H 0.0000 0.0000 'International Tables Vol C Tables 4.2.6.8 and 6.1.1.4'
N N 0.0061 0.0033 'International Tables Vol C Tables 4.2.6.8 and 6.1.1.4'
O O 0.0106 0.0060 'International Tables Vol C Tables 4.2.6.8 and 6.1.1.4'
loop_
_geom_angle_atom_site_label_1
_geom_angle_atom_site_label_2
_geom_angle_atom_site_label_3
_geom_angle
H1W1 O1W H2W1 105(2)
C1 O1 H1 109.5
C6 N1 C2 119.68(7)
C6 N1 C5 126.88(8)
C2 N1 C5 112.78(7)
O2 C1 O1 124.26(8)
O2 C1 C2 124.45(8)
O1 C1 C2 111.15(7)
N1 C2 C1 112.42(7)
N1 C2 C3 103.56(7)
C1 C2 C3 110.50(7)
N1 C2 H2A 110.1
C1 C2 H2A 110.1
C3 C2 H2A 110.1
C4 C3 C2 102.98(8)
C4 C3 H3A 111.2
C2 C3 H3A 111.2
C4 C3 H3B 111.2
C2 C3 H3B 111.2
H3A C3 H3B 109.1
C5 C4 C3 103.67(7)
C5 C4 H4A 111.0
C3 C4 H4A 111.0
C5 C4 H4B 111.0
C3 C4 H4B 111.0
H4A C4 H4B 109.0
N1 C5 C4 102.64(8)
N1 C5 H5A 111.2
C4 C5 H5A 111.2
N1 C5 H5B 111.2
C4 C5 H5B 111.2
H5A C5 H5B 109.2
O3 C6 N1 119.93(8)
O3 C6 C7 122.64(8)
N1 C6 C7 117.43(8)
C6 C7 H7A 109.5
C6 C7 H7B 109.5
H7A C7 H7B 109.5
C6 C7 H7C 109.5
H7A C7 H7C 109.5
H7B C7 H7C 109.5
loop_
_geom_bond_atom_site_label_1
_geom_bond_atom_site_label_2
_geom_bond_distance
_geom_bond_publ_flag
O1W H1W1 0.797(17) ?
O1W H2W1 0.804(17) ?
O1 C1 1.3230(10) y
O1 H1 0.8400 ?
O2 C1 1.2175(10) y
O3 C6 1.2470(11) ?
N1 C6 1.3439(11) ?
N1 C2 1.4578(11) ?
N1 C5 1.4739(12) ?
C1 C2 1.5151(12) y
C2 C3 1.5433(13) ?
C2 H2A 1.0000 ?
C3 C4 1.5305(15) ?
C3 H3A 0.9900 ?
C3 H3B 0.9900 ?
C4 C5 1.5272(14) ?
C4 H4A 0.9900 ?
C4 H4B 0.9900 ?
C5 H5A 0.9900 ?
C5 H5B 0.9900 ?
C6 C7 1.5006(13) ?
C7 H7A 0.9800 ?
C7 H7B 0.9800 ?
C7 H7C 0.9800 ?
loop_
_geom_hbond_atom_site_label_D
_geom_hbond_atom_site_label_H
_geom_hbond_atom_site_label_A
_geom_hbond_site_symmetry_A
_geom_hbond_distance_DH
_geom_hbond_distance_HA
_geom_hbond_distance_DA
_geom_hbond_angle_DHA
O1W H1W1 O3 2_546 0.797(17) 1.897(18) 2.6923(10) 175(3)
O1W H2W1 O2 2_646 0.804(17) 2.065(18) 2.8507(10) 166(2)
O1 H1 O1W . 0.84 1.75 2.5684(10) 163
C4 H4A O1 2_655 0.99 2.59 3.5501(12) 163
C7 H7C O2 2_656 0.98 2.54 3.4406(12) 152
loop_
_geom_torsion_atom_site_label_1
_geom_torsion_atom_site_label_2
_geom_torsion_atom_site_label_3
_geom_torsion_atom_site_label_4
_geom_torsion
_geom_torsion_publ_flag
C6 N1 C2 C1 -60.72(10) ?
C5 N1 C2 C1 127.95(8) ?
C6 N1 C2 C3 179.99(7) ?
C5 N1 C2 C3 8.66(9) ?
O2 C1 C2 N1 -29.25(12) y
O1 C1 C2 N1 154.81(7) y
O2 C1 C2 C3 85.91(10) ?
O1 C1 C2 C3 -90.03(9) ?
N1 C2 C3 C4 -28.62(9) y
C1 C2 C3 C4 -149.23(8) ?
C2 C3 C4 C5 38.11(9) y
C6 N1 C5 C4 -155.65(8) ?
C2 N1 C5 C4 14.93(9) ?
C3 C4 C5 N1 -32.47(9) y
C2 N1 C6 O3 3.61(12) ?
C5 N1 C6 O3 173.60(8) ?
C2 N1 C6 C7 -176.38(7) ?
C5 N1 C6 C7 -6.39(12) ?
O1 C1 C2 N1 154.81(7) ?
O2 C1 C2 N1 -29.25(12) ?
N1 C2 C3 C4 -28.62(9) ?
C2 C3 C4 C5 38.11(9) ?
C3 C4 C5 N1 -32.47(9) ?
C4 C5 N1 C2 14.93(9) y
C5 N1 C2 C3 8.66(9) y
C2 N1 C6 O3 3.61(12) ?
C2 N1 C6 C7 -176.38(7) ?
