#------------------------------------------------------------------------------
#$Date: 2016-02-20 00:18:51 +0200 (Sat, 20 Feb 2016) $
#$Revision: 176760 $
#$URL: svn://www.crystallography.net/cod/cif/2/01/95/2019571.cif $
#------------------------------------------------------------------------------
#
# This file is available in the Crystallography Open Database (COD),
# http://www.crystallography.net/. The original data for this entry
# were provided by IUCr Journals, http://journals.iucr.org/.
#
# The file may be used within the scientific community so long as
# proper attribution is given to the journal article from which the
# data were obtained.
#
data_2019571
loop_
_publ_author_name
'Neis, Christian'
'Kradolfer, Thomas'
'Hegetschweiler, Kaspar'
_publ_section_title
;
 Formation of lithium, sodium and potassium complexes with
 1,3,5-triamino-1,3,5-trideoxy-<i>cis</i>-inositol (taci)
;
_journal_coeditor_code           CU3054
_journal_issue                   6
_journal_name_full               'Acta Crystallographica Section C'
_journal_page_first              632
_journal_page_last               637
_journal_paper_doi               10.1107/S2053229614011036
_journal_volume                  70
_journal_year                    2014
_chemical_formula_iupac
'[Li (C6 H16 N3 O3) (C6 H15 N3 O3)] I2 , 2H2 O'
_chemical_formula_moiety         'C12 H31 Li N6 O6 2+, 2(I -), 2(H2 O)'
_chemical_formula_sum            'C12 H35 I2 Li N6 O8'
_chemical_formula_weight         652.20
_chemical_name_systematic
;(1,3-Diamino-5-azaniumyl-1,3,5-trideoxy-<i>cis</i>-inositol-\k^3^<i>O</i>^2^,<i>O</i>^4^,<i>O</i>^6^)(1,3,5-triamino-1,3,5-trideoxy-<i>cis</i>-inositol-\k^3^<i>O</i>^2^,<i>O</i>^4^,<i>O</i>^6^)lithium(I)
diiodide dihydrate
;
_space_group_IT_number           2
_symmetry_cell_setting           triclinic
_symmetry_space_group_name_Hall  '-P 1'
_symmetry_space_group_name_H-M   'P -1'
_atom_sites_solution_hydrogens   geom
_atom_sites_solution_primary     direct
_atom_sites_solution_secondary   difmap
_cell_angle_alpha                68.739(8)
_cell_angle_beta                 76.082(10)
_cell_angle_gamma                77.494(8)
_cell_formula_units_Z            1
_cell_length_a                   7.1327(18)
_cell_length_b                   9.309(2)
_cell_length_c                   9.378(2)
_cell_measurement_reflns_used    9029
_cell_measurement_temperature    123(2)
_cell_measurement_theta_max      36.68
_cell_measurement_theta_min      2.37
_cell_volume                     557.5(2)
_computing_cell_refinement       'SAINT (Bruker, 2010)'
_computing_data_collection       'APEX2 (Bruker, 2010)'
_computing_data_reduction        'SAINT (Bruker, 2010)'
_computing_molecular_graphics    'DIAMOND (Brandenburg, 2012)'
_computing_publication_material
;
SHELXL97 (Sheldrick, 2008) and PLATON (Spek, 2009)
;
_computing_structure_refinement  'SHELXL97 (Sheldrick, 2008)'
_computing_structure_solution    'SHELXS97 (Sheldrick, 2008)'
_diffrn_ambient_temperature      123(2)
_diffrn_measured_fraction_theta_full 1.000
_diffrn_measured_fraction_theta_max 1.000
_diffrn_measurement_device_type
'Bruker Nonius X8 APEX diffractometer with KappaCCD area detector'
_diffrn_measurement_method       '\f and \w scans'
_diffrn_radiation_monochromator  graphite
_diffrn_radiation_source         'fine-focus sealed tube'
_diffrn_radiation_type           MoK\a
_diffrn_radiation_wavelength     0.71073
_diffrn_reflns_av_R_equivalents  0.0336
_diffrn_reflns_av_sigmaI/netI    0.0204
_diffrn_reflns_limit_h_max       9
_diffrn_reflns_limit_h_min       -9
_diffrn_reflns_limit_k_max       11
_diffrn_reflns_limit_k_min       -11
_diffrn_reflns_limit_l_max       11
_diffrn_reflns_limit_l_min       -11
_diffrn_reflns_number            12643
_diffrn_reflns_theta_full        27.00
_diffrn_reflns_theta_max         27.00
_diffrn_reflns_theta_min         2.37
_diffrn_standards_number         0
_exptl_absorpt_coefficient_mu    2.870
_exptl_absorpt_correction_T_max  0.5112
_exptl_absorpt_correction_T_min  0.3063
_exptl_absorpt_correction_type   multi-scan
_exptl_absorpt_process_details   '(SADABS; Bruker, 2010)'
_exptl_crystal_colour            colourless
_exptl_crystal_density_diffrn    1.943
_exptl_crystal_density_method    'not measured'
_exptl_crystal_description       cuboid
_exptl_crystal_F_000             322
_exptl_crystal_size_max          0.54
_exptl_crystal_size_mid          0.34
_exptl_crystal_size_min          0.27
_refine_diff_density_max         0.465
_refine_diff_density_min         -0.874
_refine_ls_extinction_method     none
_refine_ls_goodness_of_fit_ref   1.210
_refine_ls_hydrogen_treatment    mixed
_refine_ls_matrix_type           full
_refine_ls_number_parameters     169
_refine_ls_number_reflns         2430
_refine_ls_number_restraints     12
_refine_ls_restrained_S_all      1.209
_refine_ls_R_factor_all          0.0159
_refine_ls_R_factor_gt           0.0158
_refine_ls_shift/su_max          0.002
_refine_ls_shift/su_mean         0.000
_refine_ls_structure_factor_coef Fsqd
_refine_ls_weighting_details
'calc w=1/[\s^2^(Fo^2^)+(0.0124P)^2^+0.5599P] where P=(Fo^2^+2Fc^2^)/3'
_refine_ls_weighting_scheme      calc
_refine_ls_wR_factor_gt          0.0420
_refine_ls_wR_factor_ref         0.0421
_reflns_number_gt                2424
_reflns_number_total             2430
_reflns_threshold_expression     I>2\s(I)
_iucr_refine_instructions_details
;
REM Solution 1  R1  0.046,  Alpha = 0.0771  in P-1
REM C8 Li0.5 N O4 I
TITL sh3367 in P-1
CELL  0.71073   7.1327   9.3090   9.3780   68.739   76.082   77.494
ZERR    1.00   0.0018   0.0023   0.0024   0.008   0.010   0.008
LATT  1
SFAC C H LI N O I
UNIT 12 35 1 6 8 2
TEMP -150
SIZE 0.27 0.34 0.54
L.S. 10
BOND
BOND $H
LIST 4
FMAP 2
PLAN 5
omit -3 54
CONF
HTAB
acta
DFIX 0.88 N6 H6a N6 H6b
DFIX 0.88 N2 H2a N2 H2b
DFIX 0.88 N4 H4a N4 H4b N4 H4C
DFIX 0.84 H1W O1W H2W O1W
DFIX 0.84 O1 H1O
DFIX 0.84 O3 H3O
DFIX 0.84 O5 H5O
EQIV $1 -x+1, -y, -z
EQIV $2 -x, -y, -z+1
EQIV $3 x-1, y, z
EQIV $4 -x, -y, -z
EQIV $5 x-1, y-1, z
EQIV $6 x, y+1, z
HTAB O1 I1_$1
HTAB N2 O1W_$1
HTAB O3 O1W
HTAB N4 I1_$2
HTAB N4 N4_$2
HTAB N4 I1_$3
HTAB N6 O1W_$4
HTAB N6 I1_$5
HTAB O5 N2_$3
HTAB O1W I1
HTAB O1W N6_$6
WGHT    0.012400    0.561000
FVAR       0.73163
I1    6    0.559573    0.288541    0.335254    11.00000    0.01009    0.01493 =
         0.01306   -0.00537   -0.00234    0.00060
LI1   3    0.000000    0.000000    0.000000    10.50000    0.01049    0.01017 =
         0.01011   -0.00336   -0.00336   -0.00270
O1    5    0.167417   -0.212539    0.001954    11.00000    0.00977    0.01008 =
         0.00587   -0.00343   -0.00098    0.00033
H1O   2    0.240235   -0.234612   -0.071108    11.00000   -1.50000
C1    1    0.223017   -0.326228    0.142558    11.00000    0.00744    0.00712 =
         0.00772   -0.00294   -0.00180   -0.00050
AFIX  13
H1    2    0.310267   -0.415944    0.115738    11.00000   -1.20000
AFIX   0
C2    1    0.333796   -0.259066    0.218826    11.00000    0.00584    0.00800 =
         0.00937   -0.00331   -0.00240   -0.00034
AFIX  13
H2    2    0.377929   -0.345813    0.309924    11.00000   -1.20000
AFIX   0
N2    4    0.508094   -0.198320    0.113816    11.00000    0.00617    0.01507 =
         0.01394   -0.00578   -0.00099   -0.00226
H2A   2    0.469744   -0.119343    0.038075    11.00000   -1.20000
H2B   2    0.579969   -0.264967    0.070978    11.00000   -1.20000
O3    5    0.159233    0.000695    0.150243    11.00000    0.01501    0.00483 =
         0.01003   -0.00159   -0.00669   -0.00203
H3O   2    0.157724    0.080189    0.168082    11.00000   -1.50000
C3    1    0.207699   -0.132834    0.279087    11.00000    0.00847    0.00761 =
         0.00762   -0.00271   -0.00384   -0.00109
AFIX  13
H3    2    0.283347   -0.102806    0.338323    11.00000   -1.20000
AFIX   0
N4    4   -0.099306   -0.069017    0.441882    11.00000    0.01460    0.01269 =
         0.01028   -0.00693   -0.00034    0.00147
H4C   2   -0.205115   -0.104773    0.510058    11.00000   -1.50000
H4B   2   -0.044830   -0.020301    0.482836    10.50000   -1.50000
H4A   2   -0.153842    0.003309    0.366252    11.00000   -1.50000
C4    1    0.024216   -0.193900    0.388515    11.00000    0.00859    0.00790 =
         0.00770   -0.00432   -0.00132    0.00065
AFIX  13
H4    2    0.065842   -0.279380    0.481438    11.00000   -1.20000
AFIX   0
C6    1    0.041700   -0.385605    0.254922    11.00000    0.00810    0.00591 =
         0.00933   -0.00275   -0.00182   -0.00193
AFIX  13
H6    2    0.087031   -0.470386    0.346787    11.00000   -1.20000
AFIX   0
N6    4   -0.054710   -0.456308    0.181452    11.00000    0.01019    0.01049 =
         0.01591   -0.00663   -0.00226   -0.00389
H6B   2   -0.078264   -0.388311    0.089406    11.00000   -1.50000
H6A   2   -0.165320   -0.484489    0.240821    11.00000   -1.50000
C5    1   -0.091773   -0.260227    0.315129    11.00000    0.00789    0.00708 =
         0.00740   -0.00186   -0.00051   -0.00191
AFIX  13
H5    2   -0.199960   -0.308641    0.396651    11.00000   -1.20000
AFIX   0
O5    5   -0.174612   -0.134516    0.195802    11.00000    0.00618    0.00930 =
         0.01140   -0.00332   -0.00383   -0.00123
H5O   2   -0.274065   -0.154441    0.183274    11.00000   -1.50000
O1W   5    0.183355    0.274433    0.167051    11.00000    0.02031    0.01183 =
         0.03736   -0.01571   -0.01410    0.00350
H1W   2    0.283169    0.278889    0.196241    11.00000   -1.50000
H2W   2    0.106382    0.354879    0.165956    11.00000   -1.50000
HKLF 4
REM  sh3367 in P-1
REM R1 =  0.0158 for   2424 Fo > 4sig(Fo)  and  0.0159 for all   2430 data
REM    169 parameters refined using     12 restraints
END
WGHT      0.0124      0.5610
REM Highest difference peak  0.466,  deepest hole -0.873,  1-sigma level  0.097
Q1    1   0.1145 -0.1619  0.3248  11.00000  0.05    0.47
Q2    1   0.2697 -0.2003  0.2524  11.00000  0.05    0.46
Q3    1   0.1223 -0.3497  0.1984  11.00000  0.05    0.41
Q4    1   0.2723 -0.2828  0.1822  11.00000  0.05    0.41
Q5    1  -0.0373 -0.2280  0.3513  11.00000  0.05    0.35
END
;
_cod_data_source_file            cu3054sup1.cif
_cod_data_source_block           I
_cod_depositor_comments
'Adding full bibliography for 2019570--2019572.cif.'
_cod_database_code               2019571
_cod_database_fobs_code          2019571
loop_
_symmetry_equiv_pos_as_xyz
'x, y, z'
'-x, -y, -z'
loop_
_atom_site_type_symbol
_atom_site_label
_atom_site_fract_x
_atom_site_fract_y
_atom_site_fract_z
_atom_site_U_iso_or_equiv
_atom_site_adp_type
_atom_site_calc_flag
_atom_site_refinement_flags
_atom_site_occupancy
_atom_site_symmetry_multiplicity
I I1 0.559573(16) 0.288541(14) 0.335254(13) 0.01281(5) Uani d . 1 1
Li Li1 0.0000 0.0000 0.0000 0.0098(8) Uani d S 1 2
O O1 0.16742(19) -0.21254(15) 0.00196(15) 0.0087(2) Uani d D 1 1
H H1O 0.240(3) -0.235(3) -0.071(2) 0.013 Uiso d D 1 1
C C1 0.2230(3) -0.3262(2) 0.1426(2) 0.0073(3) Uani d . 1 1
H H1 0.3103 -0.4159 0.1157 0.009 Uiso calc R 1 1
C C2 0.3338(2) -0.2591(2) 0.2188(2) 0.0075(3) Uani d . 1 1
H H2 0.3779 -0.3458 0.3099 0.009 Uiso calc R 1 1
N N2 0.5081(2) -0.1983(2) 0.1138(2) 0.0115(3) Uani d D 1 1
H H2A 0.470(4) -0.119(2) 0.038(3) 0.017 Uiso d D 1 1
H H2B 0.580(3) -0.265(3) 0.071(3) 0.017 Uiso d D 1 1
O O3 0.15923(19) 0.00070(15) 0.15024(15) 0.0093(2) Uani d D 1 1
H H3O 0.158(4) 0.080(2) 0.168(3) 0.014 Uiso d D 1 1
C C3 0.2077(3) -0.1328(2) 0.2791(2) 0.0074(3) Uani d . 1 1
H H3 0.2833 -0.1028 0.3383 0.009 Uiso calc R 1 1
N N4 -0.0993(2) -0.0690(2) 0.4419(2) 0.0125(3) Uani d D 1 1
H H4C -0.205(3) -0.105(3) 0.510(3) 0.019 Uiso d D 1 1
H H4B -0.045(7) -0.020(6) 0.483(6) 0.019 Uiso d PD 0.50 1
H H4A -0.154(4) 0.003(3) 0.366(3) 0.019 Uiso d D 1 1
C C4 0.0242(3) -0.1939(2) 0.3885(2) 0.0079(3) Uani d . 1 1
H H4 0.0658 -0.2794 0.4814 0.009 Uiso calc R 1 1
C C6 0.0417(3) -0.3856(2) 0.2549(2) 0.0075(3) Uani d . 1 1
H H6 0.0870 -0.4704 0.3468 0.009 Uiso calc R 1 1
N N6 -0.0547(2) -0.45631(19) 0.1815(2) 0.0112(3) Uani d D 1 1
H H6B -0.078(4) -0.388(3) 0.089(2) 0.017 Uiso d D 1 1
H H6A -0.165(3) -0.484(3) 0.241(3) 0.017 Uiso d D 1 1
C C5 -0.0918(3) -0.2602(2) 0.3151(2) 0.0076(3) Uani d . 1 1
H H5 -0.2000 -0.3086 0.3967 0.009 Uiso calc R 1 1
O O5 -0.17461(18) -0.13452(15) 0.19580(15) 0.0085(2) Uani d D 1 1
H H5O -0.274(3) -0.154(3) 0.183(3) 0.013 Uiso d D 1 1
O O1W 0.1834(2) 0.27443(18) 0.1671(2) 0.0203(3) Uani d D 1 1
H H1W 0.283(3) 0.279(4) 0.196(3) 0.030 Uiso d D 1 1
H H2W 0.106(4) 0.355(3) 0.166(4) 0.030 Uiso d D 1 1
loop_
_atom_site_aniso_label
_atom_site_aniso_U_11
_atom_site_aniso_U_22
_atom_site_aniso_U_33
_atom_site_aniso_U_12
_atom_site_aniso_U_13
_atom_site_aniso_U_23
I1 0.01009(7) 0.01493(8) 0.01306(8) 0.00060(5) -0.00234(5) -0.00537(5)
Li1 0.011(2) 0.010(2) 0.010(2) -0.0027(16) -0.0034(16) -0.0034(17)
O1 0.0098(6) 0.0101(6) 0.0059(6) 0.0003(5) -0.0010(5) -0.0034(5)
C1 0.0074(8) 0.0071(8) 0.0077(8) -0.0005(6) -0.0018(6) -0.0029(6)
C2 0.0058(7) 0.0080(8) 0.0094(8) -0.0004(6) -0.0024(6) -0.0033(7)
N2 0.0062(7) 0.0151(8) 0.0140(8) -0.0023(6) -0.0010(6) -0.0058(6)
O3 0.0150(6) 0.0048(6) 0.0100(6) -0.0020(5) -0.0067(5) -0.0016(5)
C3 0.0085(8) 0.0076(8) 0.0076(8) -0.0011(6) -0.0038(6) -0.0027(6)
N4 0.0146(8) 0.0127(8) 0.0103(8) 0.0015(6) -0.0003(6) -0.0069(6)
C4 0.0086(8) 0.0079(8) 0.0077(8) 0.0007(6) -0.0013(6) -0.0043(7)
C6 0.0081(8) 0.0059(8) 0.0093(8) -0.0019(6) -0.0018(6) -0.0027(6)
N6 0.0102(7) 0.0105(8) 0.0159(8) -0.0039(6) -0.0022(6) -0.0066(6)
C5 0.0079(8) 0.0071(8) 0.0074(8) -0.0019(6) -0.0005(6) -0.0019(7)
O5 0.0062(6) 0.0093(6) 0.0114(6) -0.0012(5) -0.0038(5) -0.0033(5)
O1W 0.0203(8) 0.0118(7) 0.0374(9) 0.0035(6) -0.0141(7) -0.0157(7)
loop_
_atom_type_symbol
_atom_type_description
_atom_type_scat_dispersion_real
_atom_type_scat_dispersion_imag
_atom_type_scat_source
C C 0.0033 0.0016 'International Tables Vol C Tables 4.2.6.8 and 6.1.1.4'
H H 0.0000 0.0000 'International Tables Vol C Tables 4.2.6.8 and 6.1.1.4'
Li Li -0.0003 0.0001 'International Tables Vol C Tables 4.2.6.8 and 6.1.1.4'
N N 0.0061 0.0033 'International Tables Vol C Tables 4.2.6.8 and 6.1.1.4'
O O 0.0106 0.0060 'International Tables Vol C Tables 4.2.6.8 and 6.1.1.4'
I I -0.4742 1.8119 'International Tables Vol C Tables 4.2.6.8 and 6.1.1.4'
loop_
_geom_angle_atom_site_label_1
_geom_angle_atom_site_label_2
_geom_angle_atom_site_label_3
_geom_angle_site_symmetry_3
_geom_angle
_geom_angle_publ_flag
O3 Li1 O3 2 180.0 y
O3 Li1 O1 . 86.11(5) y
O3 Li1 O1 2 93.89(5) y
O1 Li1 O1 2 180.0 y
O3 Li1 O5 . 85.94(5) y
O1 Li1 O5 . 84.33(5) y
O1 Li1 O5 2 95.67(5) y
O3 Li1 O5 2 94.06(5) y
O5 Li1 O5 2 180.0 y
C1 O1 Li1 . 121.84(11) y
C1 O1 H1O . 107.4(18) ?
Li1 O1 H1O . 127.7(18) ?
O1 C1 C6 . 109.50(14) ?
O1 C1 C2 . 111.60(14) ?
C6 C1 C2 . 110.36(14) ?
O1 C1 H1 . 108.4 ?
C6 C1 H1 . 108.4 ?
C2 C1 H1 . 108.4 ?
N2 C2 C3 . 109.12(15) ?
N2 C2 C1 . 112.21(15) ?
C3 C2 C1 . 112.72(14) ?
N2 C2 H2 . 107.5 ?
C3 C2 H2 . 107.5 ?
C1 C2 H2 . 107.5 ?
C2 N2 H2A . 107.6(17) ?
C2 N2 H2B . 112.0(18) ?
H2A N2 H2B . 106(2) ?
C3 O3 Li1 . 123.63(10) y
C3 O3 H3O . 110.3(19) ?
Li1 O3 H3O . 120.5(19) ?
O3 C3 C2 . 109.21(14) ?
O3 C3 C4 . 111.34(14) ?
C2 C3 C4 . 109.89(14) ?
O3 C3 H3 . 108.8 ?
C2 C3 H3 . 108.8 ?
C4 C3 H3 . 108.8 ?
C4 N4 H4C . 110.1(18) ?
C4 N4 H4B . 118(4) ?
H4C N4 H4B . 108(4) ?
C4 N4 H4A . 111.3(18) ?
H4C N4 H4A . 101(2) ?
H4B N4 H4A . 107(4) ?
N4 C4 C3 . 109.26(15) ?
N4 C4 C5 . 110.36(15) ?
C3 C4 C5 . 113.36(14) ?
N4 C4 H4 . 107.9 ?
C3 C4 H4 . 107.9 ?
C5 C4 H4 . 107.9 ?
N6 C6 C1 . 108.89(15) ?
N6 C6 C5 . 113.91(15) ?
C1 C6 C5 . 112.37(14) ?
N6 C6 H6 . 107.1 ?
C1 C6 H6 . 107.1 ?
C5 C6 H6 . 107.1 ?
C6 N6 H6B . 109.7(17) ?
C6 N6 H6A . 110.7(17) ?
H6B N6 H6A . 109(2) ?
O5 C5 C6 . 112.91(14) ?
O5 C5 C4 . 108.26(14) ?
C6 C5 C4 . 109.41(14) ?
O5 C5 H5 . 108.7 ?
C6 C5 H5 . 108.7 ?
C4 C5 H5 . 108.7 ?
C5 O5 Li1 . 121.79(10) y
C5 O5 H5O . 110.7(18) ?
Li1 O5 H5O . 117.7(18) ?
H1W O1W H2W . 108(3) ?
loop_
_geom_bond_atom_site_label_1
_geom_bond_atom_site_label_2
_geom_bond_distance
_geom_bond_publ_flag
Li1 O1 2.0741(14) y
Li1 O3 2.0137(13) y
Li1 O5 2.0973(14) y
O1 C1 1.440(2) ?
O1 H1O 0.816(17) ?
C1 C6 1.523(2) ?
C1 C2 1.529(2) ?
C1 H1 1.0000 ?
C2 N2 1.465(2) ?
C2 C3 1.513(2) ?
C2 H2 1.0000 ?
N2 H2A 0.865(17) ?
N2 H2B 0.868(17) ?
O3 C3 1.432(2) ?
O3 H3O 0.813(17) ?
C3 C4 1.530(2) ?
C3 H3 1.0000 ?
N4 C4 1.464(2) ?
N4 H4C 0.901(17) ?
N4 H4B 0.882(19) ?
N4 H4A 0.884(17) ?
C4 C5 1.531(2) ?
C4 H4 1.0000 ?
C6 N6 1.461(2) ?
C6 C5 1.525(2) ?
C6 H6 1.0000 ?
N6 H6B 0.895(17) ?
N6 H6A 0.880(17) ?
C5 O5 1.428(2) ?
C5 H5 1.0000 ?
O5 H5O 0.815(16) ?
O1W H1W 0.836(18) ?
O1W H2W 0.825(18) ?
loop_
_geom_hbond_atom_site_label_D
_geom_hbond_atom_site_label_H
_geom_hbond_atom_site_label_A
_geom_hbond_site_symmetry_A
_geom_hbond_distance_DH
_geom_hbond_distance_HA
_geom_hbond_distance_DA
_geom_hbond_angle_DHA
O1 H1O I1 2_655 0.816(17) 2.705(17) 3.5152(15) 172(2)
N2 H2B O1W 2_655 0.868(17) 2.47(2) 3.189(2) 141(2)
O3 H3O O1W . 0.813(17) 1.853(18) 2.654(2) 168(3)
N4 H4C I1 2_556 0.901(17) 3.120(18) 3.9786(19) 160(2)
N4 H4B N4 2_556 0.882(19) 1.84(2) 2.719(3) 173(5)
N4 H4A I1 1_455 0.884(17) 2.95(2) 3.6398(19) 137(2)
N6 H6B O1W 2 0.895(17) 2.479(18) 3.339(3) 161(2)
N6 H6A I1 1_445 0.880(17) 2.95(2) 3.7051(18) 145(2)
O5 H5O N2 1_455 0.815(16) 1.990(17) 2.796(2) 170(2)
O1W H1W I1 . 0.836(18) 2.644(18) 3.4707(16) 170(3)
O1W H2W N6 1_565 0.825(18) 1.913(18) 2.734(2) 173(3)
loop_
_geom_torsion_atom_site_label_1
_geom_torsion_atom_site_label_2
_geom_torsion_atom_site_label_3
_geom_torsion_atom_site_label_4
_geom_torsion_site_symmetry_1
_geom_torsion
O3 Li1 O1 C1 2 -140.44(12)
O3 Li1 O1 C1 . 39.56(12)
O1 Li1 O1 C1 2 78(10)
O5 Li1 O1 C1 . -46.74(12)
O5 Li1 O1 C1 2 133.26(12)
Li1 O1 C1 C6 . 65.75(16)
Li1 O1 C1 C2 . -56.75(17)
O1 C1 C2 N2 . -57.14(19)
C6 C1 C2 N2 . -179.14(15)
O1 C1 C2 C3 . 66.53(19)
C6 C1 C2 C3 . -55.47(19)
O3 Li1 O3 C3 2 15E1(10)
O1 Li1 O3 C3 . -43.60(13)
O1 Li1 O3 C3 2 136.40(13)
O5 Li1 O3 C3 . 40.98(13)
O5 Li1 O3 C3 2 -139.02(13)
Li1 O3 C3 C2 . 63.29(17)
Li1 O3 C3 C4 . -58.24(18)
N2 C2 C3 O3 . 57.33(18)
C1 C2 C3 O3 . -68.04(18)
N2 C2 C3 C4 . 179.73(14)
C1 C2 C3 C4 . 54.36(19)
O3 C3 C4 N4 . -57.04(19)
C2 C3 C4 N4 . -178.18(14)
O3 C3 C4 C5 . 66.48(19)
C2 C3 C4 C5 . -54.65(19)
O1 C1 C6 N6 . 59.75(18)
C2 C1 C6 N6 . -177.01(14)
O1 C1 C6 C5 . -67.40(18)
C2 C1 C6 C5 . 55.83(19)
N6 C6 C5 O5 . -59.0(2)
C1 C6 C5 O5 . 65.40(19)
N6 C6 C5 C4 . -179.67(15)
C1 C6 C5 C4 . -55.24(19)
N4 C4 C5 O5 . 54.42(18)
C3 C4 C5 O5 . -68.50(18)
N4 C4 C5 C6 . 177.85(14)
C3 C4 C5 C6 . 54.93(19)
C6 C5 O5 Li1 . -58.95(17)
C4 C5 O5 Li1 . 62.34(16)
O3 Li1 O5 C5 2 136.09(12)
O3 Li1 O5 C5 . -43.91(12)
O1 Li1 O5 C5 . 42.58(12)
O1 Li1 O5 C5 2 -137.42(12)
O5 Li1 O5 C5 2 -13E1(10)
loop_
_refln_index_h
_refln_index_k
_refln_index_l
_refln_observed_status
_refln_F_squared_meas
_refln_F_squared_calc
1 0 0 o 354.59 323.41
2 0 0 o 3243.93 3174.77
3 0 0 o 5193.58 5267.92
4 0 0 o 15.45 12.15
5 0 0 o 744.97 707.72
6 0 0 o 238.21 236.07
7 0 0 o 887.72 859.06
8 0 0 o 2102.57 2120.61
-8 1 0 o 219.04 211.58
-7 1 0 o 906.04 891.44
-6 1 0 o 2419.62 2366.55
-5 1 0 o 3416.05 3338.19
-4 1 0 o 2581.40 2570.81
-3 1 0 o 5784.17 5940.22
-2 1 0 o 1996.52 1976.12
-1 1 0 o 194.67 174.08
0 1 0 o 13.47 21.97
1 1 0 o 4160.84 4305.79
2 1 0 o 10314.88 11732.33
3 1 0 o 1142.06 1252.50
4 1 0 o 4822.97 4835.51
5 1 0 o 3222.30 3186.19
6 1 0 o 152.39 133.50
7 1 0 o 556.51 545.81
8 1 0 o 69.18 69.71
-8 2 0 o 834.18 841.69
-7 2 0 o 310.71 310.79
-6 2 0 o 3.79 1.34
-5 2 0 o 39.25 36.75
-4 2 0 o 1533.59 1539.31
-3 2 0 o 5009.57 4962.64
-2 2 0 o 3949.68 4063.85
-1 2 0 o 10696.97 12247.76
0 2 0 o 11952.28 13929.60
1 2 0 o 4467.75 4547.17
2 2 0 o 352.78 335.59
3 2 0 o 26.37 18.92
4 2 0 o 364.11 364.63
5 2 0 o 1871.87 1869.45
6 2 0 o 1624.95 1589.52
7 2 0 o 1370.17 1337.09
8 2 0 o 1336.54 1372.70
-8 3 0 o 526.93 536.54
-7 3 0 o 1825.48 1846.98
-6 3 0 o 2874.69 2871.36
-5 3 0 o 1725.90 1758.52
-4 3 0 o 2021.96 1995.38
-3 3 0 o 1337.95 1270.04
-2 3 0 o 32.53 21.03
-1 3 0 o 211.38 194.64
0 3 0 o 2503.91 2429.97
1 3 0 o 6062.60 6146.12
2 3 0 o 3502.60 3532.75
3 3 0 o 4800.68 4857.84
4 3 0 o 1360.49 1363.44
5 3 0 o 468.41 456.96
6 3 0 o 12.94 8.00
7 3 0 o 60.42 58.38
8 3 0 o 404.51 406.34
-7 4 0 o 44.66 44.81
-6 4 0 o 305.23 316.53
-5 4 0 o 1735.86 1736.14
-4 4 0 o 1460.03 1400.85
-3 4 0 o 3478.96 3529.75
-2 4 0 o 6871.62 6783.17
-1 4 0 o 2005.84 2004.50
0 4 0 o 3773.41 3702.34
1 4 0 o 449.14 438.10
2 4 0 o 626.82 598.12
3 4 0 o 555.46 534.70
4 4 0 o 2975.09 2875.08
5 4 0 o 2629.59 2593.47
6 4 0 o 1431.45 1433.82
7 4 0 o 1448.00 1441.54
8 4 0 o 775.26 742.38
-7 5 0 o 1093.53 1095.47
-6 5 0 o 2564.37 2603.88
-5 5 0 o 280.68 264.38
-4 5 0 o 538.53 521.61
-3 5 0 o 187.78 174.65
-2 5 0 o 15.85 5.50
-1 5 0 o 3262.20 3330.98
0 5 0 o 2853.08 3058.10
1 5 0 o 3945.87 3844.97
2 5 0 o 3193.88 3125.09
3 5 0 o 1230.37 1186.20
4 5 0 o 560.18 538.82
5 5 0 o 147.27 131.84
6 5 0 o 347.52 340.92
7 5 0 o 133.19 141.19
8 5 0 o 1394.32 1435.30
-6 6 0 o 749.32 789.34
-5 6 0 o 2294.23 2326.91
-4 6 0 o 1359.95 1330.99
-3 6 0 o 1272.34 1271.96
-2 6 0 o 3693.36 3460.64
-1 6 0 o 219.74 218.00
0 6 0 o 43.13 45.60
1 6 0 o 12.78 11.02
2 6 0 o 2175.47 2206.39
3 6 0 o 2337.76 2300.32
4 6 0 o 3068.55 3024.64
5 6 0 o 1207.63 1143.50
6 6 0 o 2274.36 2288.67
7 6 0 o 37.23 32.63
8 6 0 o 603.33 604.36
-5 7 0 o 229.24 228.35
-4 7 0 o 175.52 162.42
-3 7 0 o 692.22 681.73
-2 7 0 o 480.35 480.77
-1 7 0 o 2188.98 2213.23
0 7 0 o 3467.57 3469.36
1 7 0 o 1469.75 1462.39
2 7 0 o 676.54 676.96
3 7 0 o 594.69 600.27
4 7 0 o 221.61 214.34
5 7 0 o 512.23 501.78
6 7 0 o 520.50 518.95
7 7 0 o 541.13 564.53
-5 8 0 o 1130.58 1164.44
-4 8 0 o 292.45 281.42
-3 8 0 o 1188.98 1209.48
-2 8 0 o 190.26 185.72
-1 8 0 o 138.27 130.42
0 8 0 o 75.59 61.79
1 8 0 o 742.40 725.73
2 8 0 o 3002.59 3049.54
3 8 0 o 1876.54 1823.70
4 8 0 o 1143.31 1132.97
5 8 0 o 1504.55 1529.27
6 8 0 o 103.21 98.21
-4 9 0 o 379.88 387.21
-3 9 0 o 628.41 648.88
-2 9 0 o 1063.02 1105.17
-1 9 0 o 1605.26 1604.25
0 9 0 o 768.17 775.77
1 9 0 o 364.34 369.77
2 9 0 o 437.29 455.45
3 9 0 o 280.58 275.36
4 9 0 o 441.26 429.11
5 9 0 o 387.89 389.12
6 9 0 o 812.73 844.06
-2 10 0 o 1.94 0.06
-1 10 0 o 493.34 491.53
0 10 0 o 743.43 743.48
1 10 0 o 558.09 537.20
2 10 0 o 1922.86 1964.56
3 10 0 o 1142.60 1213.58
4 10 0 o 425.46 432.02
1 11 0 o 14.07 10.21
2 11 0 o 75.12 80.26
-4 -10 1 o 4.41 2.58
-3 -10 1 o 81.67 92.91
-2 -10 1 o 20.04 18.15
-1 -10 1 o 943.46 954.94
0 -10 1 o 748.52 754.77
1 -10 1 o 722.54 736.88
2 -10 1 o 815.62 792.52
-5 -9 1 o 693.94 681.38
-4 -9 1 o 928.32 920.00
-3 -9 1 o 722.73 676.72
-2 -9 1 o 610.27 562.68
-1 -9 1 o 234.41 221.86
0 -9 1 o 2.08 0.03
1 -9 1 o 31.92 32.85
2 -9 1 o 833.17 846.07
3 -9 1 o 940.19 947.55
-6 -8 1 o 130.52 127.59
-5 -8 1 o 115.27 112.99
-4 -8 1 o 299.58 296.17
-3 -8 1 o 348.88 334.89
-2 -8 1 o 907.12 959.70
-1 -8 1 o 1422.55 1371.98
0 -8 1 o 2273.70 2277.96
1 -8 1 o 733.06 734.15
2 -8 1 o 948.62 970.00
3 -8 1 o 231.88 220.68
4 -8 1 o 143.76 141.83
-7 -7 1 o 511.80 511.35
-6 -7 1 o 998.53 1010.09
-5 -7 1 o 2037.86 2046.10
-4 -7 1 o 325.13 313.96
-3 -7 1 o 980.60 942.71
-2 -7 1 o 305.57 281.71
-1 -7 1 o 272.33 254.46
0 -7 1 o 203.03 196.61
1 -7 1 o 1180.51 1156.06
2 -7 1 o 1887.23 1910.07
3 -7 1 o 3295.12 3296.10
4 -7 1 o 1213.06 1214.06
5 -7 1 o 928.60 971.28
-7 -6 1 o 442.42 432.81
-6 -6 1 o 9.49 5.80
-5 -6 1 o 151.27 147.08
-4 -6 1 o 1836.37 1850.35
-3 -6 1 o 1581.76 1582.33
-2 -6 1 o 1786.25 1874.32
-1 -6 1 o 5348.08 5236.94
0 -6 1 o 1090.48 1034.30
1 -6 1 o 634.73 603.25
2 -6 1 o 1155.64 1147.95
3 -6 1 o 428.02 431.06
4 -6 1 o 678.49 647.90
5 -6 1 o 1021.67 1061.34
6 -6 1 o 918.87 944.19
-8 -5 1 o 341.40 353.33
-7 -5 1 o 1606.84 1620.51
-6 -5 1 o 998.58 998.46
-5 -5 1 o 1885.88 1900.37
-4 -5 1 o 456.49 419.69
-3 -5 1 o 8.67 0.86
-2 -5 1 o 109.91 97.97
-1 -5 1 o 550.98 591.27
0 -5 1 o 4590.56 4476.34
1 -5 1 o 3633.54 3852.45
2 -5 1 o 1157.78 1120.47
3 -5 1 o 7803.72 7417.93
4 -5 1 o 841.37 865.77
5 -5 1 o 20.26 18.58
6 -5 1 o 135.81 132.96
7 -5 1 o 154.46 147.60
-8 -4 1 o 144.49 148.49
-7 -4 1 o 9.24 5.78
-6 -4 1 o 863.42 856.92
-5 -4 1 o 1594.63 1588.38
-4 -4 1 o 2996.06 2918.56
-3 -4 1 o 5019.99 4943.44
-2 -4 1 o 5046.46 5104.60
-1 -4 1 o 865.49 893.06
0 -4 1 o 3432.95 3375.65
1 -4 1 o 39.79 28.01
2 -4 1 o 414.95 391.96
3 -4 1 o 940.41 870.67
4 -4 1 o 1738.80 1751.49
5 -4 1 o 3753.45 3830.67
6 -4 1 o 765.63 735.00
7 -4 1 o 801.57 797.29
-8 -3 1 o 1840.56 1872.74
-7 -3 1 o 962.85 983.78
-6 -3 1 o 1223.83 1233.49
-5 -3 1 o 827.85 790.64
-4 -3 1 o 13.23 10.33
-3 -3 1 o 1560.42 1430.90
-2 -3 1 o 999.50 970.48
-1 -3 1 o 5213.23 5252.03
0 -3 1 o 8835.17 9253.55
1 -3 1 o 2307.77 2402.14
2 -3 1 o 5154.29 5027.54
3 -3 1 o 2652.64 2558.68
4 -3 1 o 120.01 121.76
5 -3 1 o 72.36 67.49
6 -3 1 o 405.34 395.89
7 -3 1 o 1029.92 1043.63
8 -3 1 o 1437.98 1474.16
-8 -2 1 o 25.82 24.86
-7 -2 1 o 344.68 311.84
-6 -2 1 o 3632.54 3772.58
-5 -2 1 o 2290.04 2214.35
-4 -2 1 o 3883.66 3954.57
-3 -2 1 o 11927.04 12891.92
-2 -2 1 o 194.78 205.75
-1 -2 1 o 1145.88 1076.88
0 -2 1 o 589.09 574.81
1 -2 1 o 125.31 153.11
2 -2 1 o 4531.68 4538.89
3 -2 1 o 1846.03 1874.08
4 -2 1 o 4520.51 4576.85
5 -2 1 o 2516.11 2552.51
6 -2 1 o 1362.70 1368.10
7 -2 1 o 100.74 86.17
8 -2 1 o 13.94 9.80
-8 -1 1 o 1094.73 1078.37
-7 -1 1 o 1499.41 1504.79
-6 -1 1 o 193.89 190.20
-5 -1 1 o 7.00 5.08
-4 -1 1 o 261.10 264.05
-3 -1 1 o 4382.91 4129.77
-2 -1 1 o 5428.53 5876.00
-1 -1 1 o 9175.33 10691.63
0 -1 1 o 761.01 720.18
1 -1 1 o 10646.51 11898.56
2 -1 1 o 328.51 330.15
3 -1 1 o 656.27 591.58
4 -1 1 o 319.42 299.88
5 -1 1 o 2061.10 2004.24
6 -1 1 o 1170.73 1130.62
7 -1 1 o 3444.62 3463.92
8 -1 1 o 1171.68 1161.74
-8 0 1 o 465.81 456.31
-7 0 1 o 924.77 905.76
-6 0 1 o 5329.62 5287.27
-5 0 1 o 2684.74 2669.20
-4 0 1 o 2662.30 2587.96
-3 0 1 o 7074.82 7117.98
-2 0 1 o 19.41 14.78
-1 0 1 o 1153.07 1037.96
0 0 1 o 206.86 192.82
1 0 1 o 1392.35 1268.40
2 0 1 o 9168.56 9656.54
3 0 1 o 4382.73 4446.29
4 0 1 o 2605.41 2606.73
5 0 1 o 2906.42 2849.27
6 0 1 o 145.58 142.12
7 0 1 o 72.30 66.09
8 0 1 o 112.20 115.17
-8 1 1 o 623.19 627.26
-7 1 1 o 118.87 113.87
-6 1 1 o 88.79 84.44
-5 1 1 o 1125.86 1077.45
-4 1 1 o 1894.80 1831.09
-3 1 1 o 4466.87 4568.70
-2 1 1 o 6507.29 6856.61
-1 1 1 o 6171.13 6177.57
0 1 1 o 174.69 159.64
1 1 1 o 2657.46 2579.33
2 1 1 o 12.36 10.14
3 1 1 o 1439.51 1397.03
4 1 1 o 2369.01 2317.09
5 1 1 o 3249.97 3252.69
6 1 1 o 3678.40 3709.00
7 1 1 o 2775.51 2786.22
8 1 1 o 708.90 705.72
-8 2 1 o 1002.79 999.23
-7 2 1 o 1864.37 1817.53
-6 2 1 o 2120.87 2094.14
-5 2 1 o 2290.01 2225.66
-4 2 1 o 1275.78 1231.16
-3 2 1 o 4.50 0.42
-2 2 1 o 314.89 288.35
-1 2 1 o 3699.21 3625.07
0 2 1 o 5679.79 5702.93
1 2 1 o 4706.20 4886.10
2 2 1 o 7308.08 7742.30
3 2 1 o 3677.10 3591.50
4 2 1 o 2548.92 2487.60
5 2 1 o 78.10 71.81
6 2 1 o 29.76 28.56
7 2 1 o 901.71 913.03
8 2 1 o 926.64 951.05
-7 3 1 o 9.88 7.43
-6 3 1 o 873.59 823.41
-5 3 1 o 1152.85 1122.36
-4 3 1 o 2891.50 2969.39
-3 3 1 o 4986.89 4990.74
-2 3 1 o 4779.44 4978.87
-1 3 1 o 46.84 19.37
0 3 1 o 1854.82 1792.21
1 3 1 o 35.51 31.04
2 3 1 o 4746.47 4702.17
3 3 1 o 2983.15 3017.27
4 3 1 o 1929.95 1862.65
5 3 1 o 7364.47 7382.33
6 3 1 o 2780.86 2772.39
7 3 1 o 594.07 593.27
8 3 1 o 801.93 805.62
-7 4 1 o 549.41 545.20
-6 4 1 o 587.57 564.22
-5 4 1 o 1647.09 1646.63
-4 4 1 o 694.78 657.33
-3 4 1 o 35.67 36.31
-2 4 1 o 4234.02 3936.57
-1 4 1 o 5203.79 5232.73
0 4 1 o 5994.01 6289.58
1 4 1 o 3103.34 3280.12
2 4 1 o 5136.63 5256.89
3 4 1 o 1989.56 1901.88
4 4 1 o 63.96 54.41
5 4 1 o 418.22 394.55
6 4 1 o 1259.52 1226.86
7 4 1 o 1757.56 1773.63
8 4 1 o 705.26 745.26
-7 5 1 o 684.03 673.21
-6 5 1 o 1136.23 1111.87
-5 5 1 o 924.70 922.78
-4 5 1 o 3193.17 3266.27
-3 5 1 o 3007.93 3060.43
-2 5 1 o 235.34 239.80
-1 5 1 o 102.45 101.47
0 5 1 o 407.62 381.84
1 5 1 o 961.85 881.43
2 5 1 o 4185.54 4182.35
3 5 1 o 4040.70 3938.63
4 5 1 o 1618.17 1593.85
5 5 1 o 5094.28 5070.25
6 5 1 o 589.28 564.96
7 5 1 o 369.59 367.47
8 5 1 o 72.63 68.13
-6 6 1 o 121.59 111.69
-5 6 1 o 5.66 1.90
-4 6 1 o 813.05 798.69
-3 6 1 o 1511.62 1486.72
-2 6 1 o 3752.53 3667.58
-1 6 1 o 4240.42 4373.90
0 6 1 o 3459.27 3490.81
1 6 1 o 1033.66 1038.25
2 6 1 o 1312.77 1315.96
3 6 1 o 65.61 58.75
4 6 1 o 368.55 339.88
5 6 1 o 246.93 241.82
6 6 1 o 1218.25 1216.31
7 6 1 o 2214.26 2232.22
8 6 1 o 334.91 340.28
-6 7 1 o 863.36 925.56
-5 7 1 o 1124.40 1161.34
-4 7 1 o 1191.92 1193.13
-3 7 1 o 376.63 386.11
-2 7 1 o 66.22 54.51
-1 7 1 o 701.46 638.26
0 7 1 o 781.29 763.02
1 7 1 o 2545.35 2529.51
2 7 1 o 2414.89 2358.48
3 7 1 o 2205.95 2240.71
4 7 1 o 1223.55 1195.18
5 7 1 o 975.84 978.14
6 7 1 o 67.54 66.01
7 7 1 o 23.86 21.06
-5 8 1 o 204.78 207.50
-4 8 1 o 1632.58 1735.79
-3 8 1 o 1820.27 1852.00
-2 8 1 o 1322.78 1353.17
-1 8 1 o 3288.14 3228.78
0 8 1 o 729.96 742.04
1 8 1 o 65.08 58.95
2 8 1 o 11.18 8.77
3 8 1 o 201.92 178.36
4 8 1 o 832.64 831.99
5 8 1 o 819.96 828.96
6 8 1 o 1115.94 1153.73
7 8 1 o 798.07 818.79
-4 9 1 o 602.22 602.45
-3 9 1 o 86.79 71.72
-2 9 1 o 265.79 256.06
-1 9 1 o 177.82 157.68
0 9 1 o 2876.53 2956.80
1 9 1 o 1253.02 1271.28
2 9 1 o 746.40 727.01
3 9 1 o 957.37 953.02
4 9 1 o 383.66 382.20
5 9 1 o 13.15 8.55
6 9 1 o 6.56 3.74
-2 10 1 o 559.82 574.79
-1 10 1 o 345.22 378.36
0 10 1 o 163.87 163.95
1 10 1 o 18.00 13.00
2 10 1 o 1485.79 1555.79
3 10 1 o 8.77 5.15
4 10 1 o 1346.57 1346.29
5 10 1 o 1076.36 1099.19
0 11 1 o 873.40 856.83
1 11 1 o 555.95 567.64
2 11 1 o 259.05 278.93
3 11 1 o 73.38 70.54
-2 -10 2 o 98.19 95.08
-1 -10 2 o 37.34 27.86
0 -10 2 o 42.55 42.21
-4 -9 2 o 194.68 189.04
-3 -9 2 o 812.40 801.94
-2 -9 2 o 1286.28 1267.16
-1 -9 2 o 1409.38 1435.22
0 -9 2 o 1130.87 1103.04
1 -9 2 o 655.51 642.06
2 -9 2 o 67.73 60.69
3 -9 2 o 13.04 10.32
-5 -8 2 o 892.67 869.03
-4 -8 2 o 1085.30 1075.46
-3 -8 2 o 98.95 90.48
-2 -8 2 o 40.25 32.63
-1 -8 2 o 47.18 44.79
0 -8 2 o 1195.84 1217.98
1 -8 2 o 953.84 967.86
2 -8 2 o 1301.79 1309.52
3 -8 2 o 923.30 930.92
4 -8 2 o 539.89 535.64
-6 -7 2 o 34.85 31.32
-5 -7 2 o 437.54 442.42
-4 -7 2 o 697.46 678.30
-3 -7 2 o 3715.29 3641.03
-2 -7 2 o 1233.63 1225.21
-1 -7 2 o 1220.55 1212.09
0 -7 2 o 2499.77 2472.35
1 -7 2 o 3.80 0.54
2 -7 2 o 237.81 228.79
3 -7 2 o 26.79 24.51
4 -7 2 o 783.55 803.70
5 -7 2 o 1146.05 1159.47
-7 -6 2 o 867.94 893.83
-6 -6 2 o 915.14 933.13
-5 -6 2 o 421.11 394.82
-4 -6 2 o 654.61 677.35
-3 -6 2 o 3.86 0.56
-2 -6 2 o 561.36 531.00
-1 -6 2 o 846.15 805.76
0 -6 2 o 2659.19 2657.60
1 -6 2 o 2008.90 1933.70
2 -6 2 o 3190.62 3181.79
3 -6 2 o 50.61 46.82
4 -6 2 o 928.68 945.27
5 -6 2 o 12.92 8.54
6 -6 2 o 90.92 86.59
-7 -5 2 o 187.16 159.66
-6 -5 2 o 1117.74 1133.80
-5 -5 2 o 1178.10 1146.01
-4 -5 2 o 1661.42 1641.30
-3 -5 2 o 4620.50 4629.66
-2 -5 2 o 1445.80 1399.38
-1 -5 2 o 420.57 401.51
0 -5 2 o 780.52 762.21
1 -5 2 o 316.42 309.12
2 -5 2 o 2943.73 2917.64
3 -5 2 o 703.96 674.87
4 -5 2 o 1938.72 1993.46
5 -5 2 o 2475.57 2413.73
6 -5 2 o 901.36 921.73
7 -5 2 o 356.36 378.74
-7 -4 2 o 803.11 810.73
-6 -4 2 o 706.55 693.80
-5 -4 2 o 209.29 223.34
-4 -4 2 o 227.77 216.98
-3 -4 2 o 115.33 120.36
-2 -4 2 o 1690.98 1643.48
-1 -4 2 o 5947.18 5859.66
0 -4 2 o 2214.01 2225.25
1 -4 2 o 2858.60 3056.74
2 -4 2 o 1846.39 1846.06
3 -4 2 o 97.42 95.04
4 -4 2 o 161.23 162.16
5 -4 2 o 96.50 85.53
6 -4 2 o 1138.36 1151.06
7 -4 2 o 1530.05 1544.19
-8 -3 2 o 153.12 139.71
-7 -3 2 o 1146.91 1173.36
-6 -3 2 o 1669.21 1573.45
-5 -3 2 o 1869.84 1871.26
-4 -3 2 o 2924.93 2887.78
-3 -3 2 o 1726.09 1740.41
-2 -3 2 o 565.35 494.87
-1 -3 2 o 57.94 53.96
0 -3 2 o 237.37 221.56
1 -3 2 o 6042.96 5890.09
2 -3 2 o 3527.91 3732.96
3 -3 2 o 3203.99 3232.80
4 -3 2 o 4046.70 3995.27
5 -3 2 o 1876.72 1893.05
6 -3 2 o 306.56 294.78
7 -3 2 o 341.19 352.62
8 -3 2 o 18.02 15.18
-8 -2 2 o 135.62 133.03
-7 -2 2 o 445.54 445.59
-6 -2 2 o 285.12 263.69
-5 -2 2 o 662.53 619.04
-4 -2 2 o 874.54 868.40
-3 -2 2 o 1121.09 1176.91
-2 -2 2 o 4989.13 5156.98
-1 -2 2 o 4637.21 4864.29
0 -2 2 o 5545.37 5521.15
1 -2 2 o 1404.55 1333.09
2 -2 2 o 162.07 174.12
3 -2 2 o 706.64 656.34
4 -2 2 o 490.73 501.91
5 -2 2 o 2225.45 2185.57
6 -2 2 o 2694.12 2680.30
7 -2 2 o 822.14 820.69
8 -2 2 o 1924.40 1979.96
-8 -1 2 o 1274.54 1259.99
-7 -1 2 o 1293.14 1292.77
-6 -1 2 o 1262.54 1172.29
-5 -1 2 o 3136.98 3113.70
-4 -1 2 o 790.09 770.87
-3 -1 2 o 211.09 133.26
-2 -1 2 o 2529.39 2272.93
-1 -1 2 o 7689.96 8459.24
0 -1 2 o 2154.08 2099.07
1 -1 2 o 10890.31 12052.98
2 -1 2 o 9144.59 10011.02
3 -1 2 o 4702.89 4652.61
4 -1 2 o 2070.01 2049.20
5 -1 2 o 1160.88 1129.75
6 -1 2 o 37.01 32.78
7 -1 2 o 168.51 162.21
8 -1 2 o 184.19 179.64
-8 0 2 o 188.80 186.47
-7 0 2 o 7.47 4.69
-6 0 2 o 621.92 606.20
-5 0 2 o 585.55 556.52
-4 0 2 o 4310.99 4335.04
-3 0 2 o 3974.26 4175.03
-2 0 2 o 2439.13 2456.82
-1 0 2 o 6102.14 6353.47
0 0 2 o 6138.93 6734.49
1 0 2 o 852.37 814.06
2 0 2 o 278.22 255.72
3 0 2 o 1783.36 1810.29
4 0 2 o 4326.16 4457.74
5 0 2 o 2726.26 2639.47
6 0 2 o 2918.60 2906.38
7 0 2 o 627.75 609.05
8 0 2 o 1451.27 1465.75
-8 1 2 o 1310.61 1324.47
-7 1 2 o 1000.82 981.03
-6 1 2 o 1493.65 1498.97
-5 1 2 o 632.14 616.30
-4 1 2 o 188.69 159.73
-3 1 2 o 31.42 26.86
-2 1 2 o 2939.64 2934.61
-1 1 2 o 7852.56 8365.29
0 1 2 o 9459.11 10955.50
1 1 2 o 8847.35 9868.90
2 1 2 o 11397.53 12112.96
3 1 2 o 3686.26 3703.71
4 1 2 o 115.40 126.61
5 1 2 o 178.05 151.16
6 1 2 o 472.03 459.07
7 1 2 o 915.31 906.42
8 1 2 o 860.12 853.14
9 1 2 o 793.37 795.77
-8 2 2 o 15.77 10.61
-7 2 2 o 733.71 707.46
-6 2 2 o 1145.95 1119.66
-5 2 2 o 3400.41 3279.17
-4 2 2 o 3272.09 3241.73
-3 2 2 o 3932.31 3966.78
-2 2 2 o 2370.85 2340.28
-1 2 2 o 4022.74 3823.37
0 2 2 o 2.74 5.30
1 2 2 o 396.65 367.60
2 2 2 o 3638.65 3555.67
3 2 2 o 3704.28 3807.47
4 2 2 o 5260.45 5205.35
5 2 2 o 2672.45 2696.32
6 2 2 o 775.60 769.51
7 2 2 o 750.48 730.44
8 2 2 o 17.65 14.66
9 2 2 o 45.49 43.26
-7 3 2 o 572.15 583.42
-6 3 2 o 585.53 586.65
-5 3 2 o 45.21 44.84
-4 3 2 o 709.73 666.53
-3 3 2 o 2340.46 2235.21
-2 3 2 o 402.48 484.74
-1 3 2 o 17890.67 21384.21
0 3 2 o 5018.48 5307.24
1 3 2 o 1639.69 1591.35
2 3 2 o 10928.76 11178.23
3 3 2 o 128.44 148.26
4 3 2 o 758.19 720.26
5 3 2 o 488.25 491.21
6 3 2 o 889.23 872.36
7 3 2 o 2447.11 2499.89
8 3 2 o 836.42 849.71
9 3 2 o 919.90 917.97
-7 4 2 o 1665.38 1702.06
-6 4 2 o 1579.80 1570.33
-5 4 2 o 3047.40 3077.45
-4 4 2 o 2072.11 2024.69
-3 4 2 o 2031.21 1994.93
-2 4 2 o 5.70 7.93
-1 4 2 o 1398.79 1180.00
0 4 2 o 643.63 631.86
1 4 2 o 6830.83 7240.51
2 4 2 o 962.01 1026.31
3 4 2 o 4495.37 4424.67
4 4 2 o 6780.04 6792.19
5 4 2 o 7.86 5.44
6 4 2 o 463.90 458.05
7 4 2 o 21.79 18.82
8 4 2 o 211.11 217.00
-7 5 2 o 151.80 145.35
-6 5 2 o 4.93 0.21
-5 5 2 o 673.55 686.42
-4 5 2 o 1419.91 1389.90
-3 5 2 o 2498.52 2404.58
-2 5 2 o 2802.42 2809.72
-1 5 2 o 5100.86 4968.83
0 5 2 o 2941.55 2877.65
1 5 2 o 1071.11 1015.89
2 5 2 o 227.82 214.66
3 5 2 o 585.96 547.27
4 5 2 o 830.60 841.59
5 5 2 o 4616.48 4575.30
6 5 2 o 712.62 695.67
7 5 2 o 1630.75 1634.51
8 5 2 o 1306.43 1337.86
-6 6 2 o 1595.44 1689.21
-5 6 2 o 1054.37 1083.40
-4 6 2 o 780.75 762.84
-3 6 2 o 37.35 39.16
-2 6 2 o 32.86 28.97
-1 6 2 o 408.59 421.21
0 6 2 o 2792.06 2791.13
1 6 2 o 2192.15 2245.74
2 6 2 o 4258.19 4142.26
3 6 2 o 2296.31 2261.88
4 6 2 o 949.87 929.30
5 6 2 o 15.70 12.79
6 6 2 o 14.56 12.73
7 6 2 o 477.40 468.90
8 6 2 o 391.61 399.77
-5 7 2 o 445.76 450.20
-4 7 2 o 1609.47 1597.23
-3 7 2 o 2523.75 2576.70
-2 7 2 o 1075.07 1108.93
-1 7 2 o 968.78 939.14
0 7 2 o 1097.87 1074.57
1 7 2 o 103.55 99.98
2 7 2 o 655.90 615.89
3 7 2 o 597.30 574.15
4 7 2 o 4191.31 4137.60
5 7 2 o 1801.77 1789.01
6 7 2 o 1100.95 1104.84
7 7 2 o 929.17 932.73
8 7 2 o 365.52 376.28
-5 8 2 o 166.41 163.76
-4 8 2 o 28.79 18.42
-3 8 2 o 27.70 14.93
-2 8 2 o 1203.55 1201.32
-1 8 2 o 2107.13 2171.08
0 8 2 o 568.93 532.63
1 8 2 o 3384.46 3371.36
2 8 2 o 1675.55 1657.93
3 8 2 o 456.97 461.49
4 8 2 o 20.81 21.08
5 8 2 o 28.98 26.69
6 8 2 o 589.41 596.35
7 8 2 o 524.33 553.00
-4 9 2 o 710.08 740.22
-3 9 2 o 937.25 999.85
-2 9 2 o 348.90 346.47
-1 9 2 o 12.92 6.17
0 9 2 o 5.94 3.75
1 9 2 o 799.06 775.65
2 9 2 o 513.42 531.33
3 9 2 o 2806.70 2861.69
4 9 2 o 1155.96 1118.26
5 9 2 o 1665.95 1698.75
6 9 2 o 287.68 288.73
-3 10 2 o 131.80 140.99
-2 10 2 o 1111.78 1156.76
-1 10 2 o 1821.86 1881.10
0 10 2 o 272.60 279.46
1 10 2 o 1068.33 1112.89
2 10 2 o 560.09 584.91
3 10 2 o 6.73 5.55
4 10 2 o 213.58 218.93
5 10 2 o 211.87 204.74
-1 11 2 o 54.03 51.58
0 11 2 o 271.29 253.29
1 11 2 o 912.12 925.43
2 11 2 o 692.37 705.34
3 11 2 o 1275.36 1286.20
4 11 2 o 890.51 950.30
-3 -9 3 o 35.05 28.95
-2 -9 3 o 15.60 14.23
-1 -9 3 o 606.05 591.78
0 -9 3 o 261.43 248.79
1 -9 3 o 723.22 737.99
2 -9 3 o 1185.08 1182.44
-5 -8 3 o 206.20 199.15
-4 -8 3 o 1047.17 1057.20
-3 -8 3 o 971.36 936.31
-2 -8 3 o 563.37 562.79
-1 -8 3 o 573.23 546.21
0 -8 3 o 32.18 28.12
1 -8 3 o 1.90 2.00
2 -8 3 o 298.29 312.04
3 -8 3 o 378.38 333.51
4 -8 3 o 1841.57 1884.98
-5 -7 3 o 36.24 32.65
-4 -7 3 o 110.93 122.65
-3 -7 3 o 39.10 34.34
-2 -7 3 o 1419.04 1350.58
-1 -7 3 o 2163.36 2129.40
0 -7 3 o 443.92 401.97
1 -7 3 o 2356.91 2363.69
2 -7 3 o 1048.85 1056.89
3 -7 3 o 722.44 696.24
4 -7 3 o 7.49 6.48
5 -7 3 o 3.37 1.45
-6 -6 3 o 502.96 513.07
-5 -6 3 o 1374.09 1371.82
-4 -6 3 o 1797.30 1825.25
-3 -6 3 o 312.23 298.63
-2 -6 3 o 877.34 866.50
-1 -6 3 o 95.29 86.14
0 -6 3 o 502.53 501.94
1 -6 3 o 299.53 284.63
2 -6 3 o 1060.60 1124.23
3 -6 3 o 2537.48 2541.12
4 -6 3 o 2038.04 2026.82
5 -6 3 o 1302.93 1294.23
6 -6 3 o 492.22 498.85
-7 -5 3 o 361.55 376.08
-6 -5 3 o 200.48 205.50
-5 -5 3 o 81.33 82.60
-4 -5 3 o 362.03 349.00
-3 -5 3 o 1757.43 1697.93
-2 -5 3 o 2185.22 2195.18
-1 -5 3 o 3537.92 3544.86
0 -5 3 o 1870.63 1970.89
1 -5 3 o 1608.84 1621.00
2 -5 3 o 870.86 847.71
3 -5 3 o 93.19 82.47
4 -5 3 o 308.17 298.62
5 -5 3 o 510.77 480.43
6 -5 3 o 1084.22 1164.96
-7 -4 3 o 750.72 765.24
-6 -4 3 o 1202.50 1244.56
-5 -4 3 o 1738.87 1712.50
-4 -4 3 o 911.93 900.38
-3 -4 3 o 845.97 802.04
-2 -4 3 o 25.57 18.78
-1 -4 3 o 673.98 652.68
0 -4 3 o 1051.87 1059.50
1 -4 3 o 2176.06 2228.14
2 -4 3 o 3907.46 3935.22
3 -4 3 o 3146.23 3002.14
4 -4 3 o 1929.78 2012.37
5 -4 3 o 928.44 942.47
6 -4 3 o 194.91 189.38
7 -4 3 o 129.42 132.29
-7 -3 3 o 6.96 5.48
-6 -3 3 o 82.87 73.88
-5 -3 3 o 358.39 396.91
-4 -3 3 o 3530.09 3445.96
-3 -3 3 o 2415.58 2369.90
-2 -3 3 o 6102.69 6309.68
-1 -3 3 o 3420.31 3409.07
0 -3 3 o 1292.09 1288.50
1 -3 3 o 869.74 830.08
2 -3 3 o 264.05 215.31
3 -3 3 o 875.30 867.45
4 -3 3 o 1012.88 1009.37
5 -3 3 o 1989.85 1928.77
6 -3 3 o 1722.56 1722.31
7 -3 3 o 1708.36 1739.54
-7 -2 3 o 1199.09 1142.02
-6 -2 3 o 1608.42 1703.85
-5 -2 3 o 969.93 953.77
-4 -2 3 o 277.03 275.55
-3 -2 3 o 198.03 167.63
-2 -2 3 o 2452.07 2342.42
-1 -2 3 o 2090.32 2152.34
0 -2 3 o 7020.71 7275.01
1 -2 3 o 463.62 609.49
2 -2 3 o 9626.66 9353.70
3 -2 3 o 3094.90 3183.76
4 -2 3 o 65.99 59.00
5 -2 3 o 695.32 689.45
6 -2 3 o 179.19 180.02
7 -2 3 o 1117.18 1160.10
8 -2 3 o 939.37 971.93
-8 -1 3 o 89.48 93.24
-7 -1 3 o 509.00 496.14
-6 -1 3 o 721.41 713.32
-5 -1 3 o 1792.28 1836.49
-4 -1 3 o 4943.34 4866.04
-3 -1 3 o 6016.97 5981.53
-2 -1 3 o 2530.56 2430.51
-1 -1 3 o 4198.55 4241.16
0 -1 3 o 345.70 351.31
1 -1 3 o 626.53 617.81
2 -1 3 o 145.30 167.36
3 -1 3 o 1131.89 1145.81
4 -1 3 o 7116.99 6888.32
5 -1 3 o 1648.93 1671.13
6 -1 3 o 1176.50 1148.30
7 -1 3 o 2615.23 2714.51
8 -1 3 o 136.20 139.31
-8 0 3 o 571.03 554.14
-7 0 3 o 1396.36 1424.83
-6 0 3 o 958.00 970.89
-5 0 3 o 126.97 130.00
-4 0 3 o 1.75 1.32
-3 0 3 o 505.62 467.27
-2 0 3 o 5060.79 5125.47
-1 0 3 o 6822.11 7336.04
0 0 3 o 2372.50 2446.19
1 0 3 o 5594.36 5962.95
2 0 3 o 3964.16 4040.57
3 0 3 o 49.98 52.78
4 0 3 o 124.52 111.45
5 0 3 o 413.68 399.02
6 0 3 o 1704.86 1689.79
7 0 3 o 1837.96 1923.37
8 0 3 o 1625.18 1632.54
-7 1 3 o 1231.51 1233.52
-6 1 3 o 1289.36 1302.65
-5 1 3 o 2269.62 2246.70
-4 1 3 o 7154.80 7273.16
-3 1 3 o 1627.91 1582.65
-2 1 3 o 998.28 975.95
-1 1 3 o 1383.31 1350.77
0 1 3 o 685.98 686.85
1 1 3 o 5544.10 5785.92
2 1 3 o 456.78 440.65
3 1 3 o 6814.38 6757.32
4 1 3 o 4252.77 4182.84
5 1 3 o 1809.20 1784.77
6 1 3 o 1174.03 1151.08
7 1 3 o 211.16 213.72
8 1 3 o 186.39 187.54
9 1 3 o 333.90 322.32
-7 2 3 o 429.98 434.51
-6 2 3 o 41.32 37.95
-5 2 3 o 24.85 20.85
-4 2 3 o 190.85 184.97
-3 2 3 o 4778.38 4760.89
-2 2 3 o 5681.04 5692.85
-1 2 3 o 1784.42 1858.31
0 2 3 o 6032.41 6459.29
1 2 3 o 2637.34 2677.30
2 2 3 o 586.22 511.04
3 2 3 o 99.63 71.34
4 2 3 o 1256.69 1198.49
5 2 3 o 2425.43 2380.25
6 2 3 o 2924.58 2925.18
7 2 3 o 2580.72 2554.16
8 2 3 o 1733.87 1734.96
9 2 3 o 568.71 561.20
-7 3 3 o 1223.89 1193.05
-6 3 3 o 2532.11 2583.10
-5 3 3 o 591.72 575.27
-4 3 3 o 4188.78 4033.62
-3 3 3 o 365.77 359.86
-2 3 3 o 23.70 16.45
-1 3 3 o 2290.85 2135.58
0 3 3 o 1050.37 1118.06
1 3 3 o 6248.45 6370.86
2 3 3 o 9376.96 9783.20
3 3 3 o 559.21 641.48
4 3 3 o 4789.43 4568.51
5 3 3 o 1566.13 1521.20
6 3 3 o 7.49 3.36
7 3 3 o 80.44 79.17
8 3 3 o 439.97 428.44
9 3 3 o 912.63 917.69
-7 4 3 o 39.51 34.01
-6 4 3 o 158.53 155.89
-5 4 3 o 457.88 448.06
-4 4 3 o 1745.64 1763.51
-3 4 3 o 3136.28 3141.80
-2 4 3 o 5704.12 5618.44
-1 4 3 o 1023.75 1085.19
0 4 3 o 1432.69 1506.20
1 4 3 o 73.44 47.37
2 4 3 o 2019.34 1814.33
3 4 3 o 495.15 535.08
4 4 3 o 4062.96 3901.10
5 4 3 o 1697.21 1681.66
6 4 3 o 5367.42 5338.71
7 4 3 o 1149.83 1161.90
8 4 3 o 859.62 831.90
9 4 3 o 144.49 135.96
-6 5 3 o 955.32 953.30
-5 5 3 o 511.38 476.07
-4 5 3 o 204.46 190.13
-3 5 3 o 1.74 0.45
-2 5 3 o 1716.19 1626.35
-1 5 3 o 4648.40 4625.07
0 5 3 o 2015.83 2111.43
1 5 3 o 7434.30 7603.54
2 5 3 o 3839.52 3898.54
3 5 3 o 1250.57 1234.95
4 5 3 o 606.61 598.04
5 5 3 o 665.05 644.49
6 5 3 o 582.84 562.84
7 5 3 o 532.42 555.65
8 5 3 o 868.83 862.65
-6 6 3 o 225.59 226.98
-5 6 3 o 1470.74 1462.21
-4 6 3 o 1857.11 1841.36
-3 6 3 o 2597.15 2503.91
-2 6 3 o 846.55 921.42
-1 6 3 o 1406.66 1410.72
0 6 3 o 18.71 16.23
1 6 3 o 1077.85 1044.39
2 6 3 o 1139.48 1147.17
3 6 3 o 2096.62 2110.29
4 6 3 o 3302.51 3244.68
5 6 3 o 2220.83 2233.72
6 6 3 o 1236.22 1247.98
7 6 3 o 1068.14 1062.79
8 6 3 o 33.37 30.39
-5 7 3 o 19.81 17.46
-4 7 3 o 70.44 82.65
-3 7 3 o 416.36 389.47
-2 7 3 o 3328.05 3409.20
-1 7 3 o 2652.16 2615.91
0 7 3 o 2696.80 2771.18
1 7 3 o 3364.96 3402.89
2 7 3 o 1607.25 1610.34
3 7 3 o 34.30 27.19
4 7 3 o 445.48 452.45
5 7 3 o 251.96 237.61
6 7 3 o 1287.70 1285.53
7 7 3 o 567.85 578.11
8 7 3 o 593.33 611.49
-5 8 3 o 1758.78 1798.25
-4 8 3 o 1484.61 1536.86
-3 8 3 o 187.14 162.41
-2 8 3 o 600.31 658.37
-1 8 3 o 13.10 11.60
0 8 3 o 824.29 800.98
1 8 3 o 1157.69 1153.94
2 8 3 o 1797.60 1819.63
3 8 3 o 1726.51 1739.57
4 8 3 o 1552.94 1589.27
5 8 3 o 776.73 786.46
6 8 3 o 414.78 432.34
7 8 3 o 12.39 8.16
-4 9 3 o 274.35 308.75
-3 9 3 o 1585.99 1614.53
-2 9 3 o 1595.57 1653.15
-1 9 3 o 1346.76 1332.72
0 9 3 o 2539.81 2575.26
1 9 3 o 184.55 180.84
2 9 3 o 195.89 185.32
3 9 3 o 230.91 219.95
4 9 3 o 74.45 69.43
5 9 3 o 696.16 710.73
6 9 3 o 1110.76 1154.36
7 9 3 o 487.59 484.96
-3 10 3 o 210.98 207.72
-2 10 3 o 37.62 30.92
-1 10 3 o 171.75 160.64
0 10 3 o 905.78 912.13
1 10 3 o 1219.99 1230.99
2 10 3 o 1655.15 1638.54
3 10 3 o 333.82 330.35
4 10 3 o 618.67 646.01
5 10 3 o 106.61 110.92
6 10 3 o 2.89 1.15
-1 11 3 o 1158.92 1199.00
0 11 3 o 57.86 59.22
1 11 3 o 9.78 7.47
2 11 3 o 41.70 39.00
3 11 3 o 547.51 579.90
4 11 3 o 529.21 540.84
-3 -8 4 o 441.61 438.29
-2 -8 4 o 714.60 709.47
-1 -8 4 o 1342.21 1327.33
0 -8 4 o 1040.30 1322.88
1 -8 4 o 952.94 971.82
2 -8 4 o 592.62 598.71
3 -8 4 o 35.76 34.32
-5 -7 4 o 884.47 916.94
-4 -7 4 o 925.09 900.18
-3 -7 4 o 440.12 435.91
-2 -7 4 o 204.72 194.65
-1 -7 4 o 6.16 0.88
0 -7 4 o 147.26 131.89
1 -7 4 o 1383.82 1435.06
2 -7 4 o 603.63 567.59
3 -7 4 o 1853.78 1948.48
4 -7 4 o 316.08 315.76
-5 -6 4 o 93.16 82.06
-4 -6 4 o 684.23 693.03
-3 -6 4 o 1424.25 1405.99
-2 -6 4 o 1624.91 1632.87
-1 -6 4 o 1821.01 1805.00
0 -6 4 o 2013.42 2010.63
1 -6 4 o 248.98 253.05
2 -6 4 o 55.62 49.94
3 -6 4 o 102.94 103.83
4 -6 4 o 504.88 498.74
5 -6 4 o 663.01 682.33
-6 -5 4 o 1212.98 1257.79
-5 -5 4 o 783.53 781.31
-4 -5 4 o 433.33 442.23
-3 -5 4 o 213.28 209.28
-2 -5 4 o 24.74 20.54
-1 -5 4 o 379.47 374.17
0 -5 4 o 1473.88 1410.82
1 -5 4 o 2088.66 2069.86
2 -5 4 o 2587.86 2715.06
3 -5 4 o 696.34 705.68
4 -5 4 o 785.75 761.70
5 -5 4 o 113.05 106.09
6 -5 4 o 61.49 65.35
-6 -4 4 o 197.33 203.43
-5 -4 4 o 959.30 885.81
-4 -4 4 o 2358.66 2402.67
-3 -4 4 o 1797.53 1765.54
-2 -4 4 o 945.27 955.07
-1 -4 4 o 4690.48 4744.90
0 -4 4 o 139.67 130.59
1 -4 4 o 155.98 140.10
2 -4 4 o 69.44 56.86
3 -4 4 o 1271.54 1322.99
4 -4 4 o 3232.72 3190.58
5 -4 4 o 812.09 803.81
6 -4 4 o 1443.07 1488.19
7 -4 4 o 970.18 1015.33
-7 -3 4 o 1403.68 1434.04
-6 -3 4 o 582.35 580.07
-5 -3 4 o 310.78 325.14
-4 -3 4 o 296.69 298.53
-3 -3 4 o 686.81 660.44
-2 -3 4 o 480.12 492.77
-1 -3 4 o 1388.36 1328.84
0 -3 4 o 2811.86 2890.86
1 -3 4 o 8385.55 8371.11
2 -3 4 o 72.58 108.84
3 -3 4 o 1379.96 1247.96
4 -3 4 o 487.32 481.22
5 -3 4 o 872.66 877.49
6 -3 4 o 302.28 274.48
7 -3 4 o 557.25 552.37
-7 -2 4 o 270.17 264.94
-6 -2 4 o 1058.71 1099.38
-5 -2 4 o 2170.52 2057.70
-4 -2 4 o 1826.14 1871.68
-3 -2 4 o 2412.29 2394.00
-2 -2 4 o 445.87 460.53
-1 -2 4 o 1438.56 1402.60
0 -2 4 o 111.21 121.21
1 -2 4 o 1894.91 1776.89
2 -2 4 o 2950.25 2787.43
3 -2 4 o 3162.15 3259.41
4 -2 4 o 3962.82 3973.20
5 -2 4 o 2315.77 2350.49
6 -2 4 o 871.18 893.53
7 -2 4 o 201.86 206.64
8 -2 4 o 314.15 327.82
-7 -1 4 o 677.55 670.21
-6 -1 4 o 247.60 242.42
-5 -1 4 o 28.99 26.90
-4 -1 4 o 200.44 194.61
-3 -1 4 o 1291.97 1287.78
-2 -1 4 o 3466.89 3456.86
-1 -1 4 o 2556.08 2609.18
0 -1 4 o 4128.40 4168.76
1 -1 4 o 5693.67 5442.35
2 -1 4 o 176.25 203.62
3 -1 4 o 2.74 1.71
4 -1 4 o 10.61 7.75
5 -1 4 o 1970.43 1994.72
6 -1 4 o 1514.91 1548.50
7 -1 4 o 1236.15 1239.20
8 -1 4 o 976.52 991.16
-7 0 4 o 932.11 900.48
-6 0 4 o 2032.83 2033.88
-5 0 4 o 1524.82 1543.69
-4 0 4 o 1442.05 1449.83
-3 0 4 o 494.90 474.62
-2 0 4 o 159.56 151.99
-1 0 4 o 354.23 320.60
0 0 4 o 2145.44 2110.96
1 0 4 o 4717.83 4848.84
2 0 4 o 6393.69 6679.83
3 0 4 o 5137.73 5223.15
4 0 4 o 4220.93 4202.43
5 0 4 o 1200.64 1156.47
6 0 4 o 344.17 339.84
7 0 4 o 5.23 1.44
8 0 4 o 49.78 46.73
-7 1 4 o 469.70 459.51
-6 1 4 o 181.61 166.99
-5 1 4 o 823.30 804.38
-4 1 4 o 1719.51 1719.97
-3 1 4 o 2116.96 2112.59
-2 1 4 o 5756.46 5688.12
-1 1 4 o 3275.15 3319.68
0 1 4 o 3029.16 2928.25
1 1 4 o 1113.79 1069.24
2 1 4 o 4.15 3.81
3 1 4 o 627.43 608.74
4 1 4 o 2148.41 2060.29
5 1 4 o 2868.46 2854.38
6 1 4 o 2031.17 2033.28
7 1 4 o 1298.72 1334.92
8 1 4 o 1186.48 1190.40
-7 2 4 o 1025.06 1021.81
-6 2 4 o 1635.74 1587.63
-5 2 4 o 1926.28 1911.46
-4 2 4 o 286.84 272.42
-3 2 4 o 951.42 905.23
-2 2 4 o 1956.46 1864.93
-1 2 4 o 2561.92 2506.87
0 2 4 o 2904.63 2977.83
1 2 4 o 9483.03 10652.02
2 2 4 o 5894.85 6226.32
3 2 4 o 4924.90 4827.98
4 2 4 o 1588.92 1561.85
5 2 4 o 469.21 450.52
6 2 4 o 481.52 479.52
7 2 4 o 85.63 82.01
8 2 4 o 578.09 570.25
9 2 4 o 1381.98 1414.81
-7 3 4 o 95.63 95.07
-6 3 4 o 363.28 359.37
-5 3 4 o 2430.77 2421.50
-4 3 4 o 4594.38 4552.32
-3 3 4 o 897.74 918.48
-2 3 4 o 4100.70 4093.52
-1 3 4 o 5594.66 5571.15
0 3 4 o 165.74 136.96
1 3 4 o 62.59 44.41
2 3 4 o 208.30 130.82
3 3 4 o 8731.74 8458.47
4 3 4 o 1800.20 1779.94
5 3 4 o 3313.59 3264.40
6 3 4 o 1192.34 1156.61
7 3 4 o 1382.98 1392.20
8 3 4 o 12.18 9.81
9 3 4 o 28.01 26.12
-6 4 4 o 685.31 686.44
-5 4 4 o 39.95 38.17
-4 4 4 o 12.14 2.21
-3 4 4 o 958.89 945.17
-2 4 4 o 2784.07 2755.83
-1 4 4 o 1679.39 1771.53
0 4 4 o 6018.76 5988.98
1 4 4 o 7014.89 7370.89
2 4 4 o 1992.02 1989.70
3 4 4 o 2323.20 2151.20
4 4 4 o 139.30 136.03
5 4 4 o 617.25 586.19
6 4 4 o 1027.69 1035.84
7 4 4 o 692.61 671.90
8 4 4 o 1276.83 1287.39
9 4 4 o 1273.10 1316.02
-6 5 4 o 1173.35 1156.85
-5 5 4 o 3002.36 3034.63
-4 5 4 o 2022.84 2054.74
-3 5 4 o 1042.48 1028.35
-2 5 4 o 2497.77 2451.30
-1 5 4 o 49.89 42.45
0 5 4 o 114.26 122.93
1 5 4 o 257.48 261.90
2 5 4 o 2094.20 2049.10
3 5 4 o 4757.46 4737.44
4 5 4 o 2546.14 2459.71
5 5 4 o 1482.02 1450.67
6 5 4 o 841.43 818.14
7 5 4 o 8.75 9.21
8 5 4 o 33.85 26.32
-6 6 4 o 28.72 23.45
-5 6 4 o 54.83 46.60
-4 6 4 o 607.80 603.51
-3 6 4 o 1447.98 1445.51
-2 6 4 o 2342.65 2367.41
-1 6 4 o 3259.52 3327.52
0 6 4 o 1679.48 1732.13
1 6 4 o 2034.10 2000.42
2 6 4 o 1238.52 1160.67
3 6 4 o 114.90 103.07
4 6 4 o 450.80 463.58
5 6 4 o 1138.56 1107.43
6 6 4 o 1978.13 2014.63
7 6 4 o 1512.29 1564.89
8 6 4 o 837.67 862.94
-5 7 4 o 851.21 864.98
-4 7 4 o 1239.89 1265.58
-3 7 4 o 232.85 248.76
-2 7 4 o 46.14 24.88
-1 7 4 o 22.63 19.35
0 7 4 o 2157.89 2224.76
1 7 4 o 676.67 683.61
2 7 4 o 2230.85 2253.59
3 7 4 o 4265.75 4317.79
4 7 4 o 948.36 941.31
5 7 4 o 176.10 167.63
6 7 4 o 274.21 268.42
7 7 4 o 253.39 251.20
8 7 4 o 485.37 488.03
-4 8 4 o 965.65 970.70
-3 8 4 o 1292.61 1363.80
-2 8 4 o 1466.09 1563.27
-1 8 4 o 1648.05 1707.93
0 8 4 o 96.88 94.54
1 8 4 o 685.78 699.97
2 8 4 o 296.86 294.11
3 8 4 o 63.13 58.87
4 8 4 o 3256.38 3420.64
5 8 4 o 1000.20 986.80
6 8 4 o 1214.82 1247.91
7 8 4 o 1935.64 1998.16
-4 9 4 o 226.66 243.32
-3 9 4 o 31.67 22.23
-2 9 4 o 264.07 279.94
-1 9 4 o 703.54 723.60
0 9 4 o 1264.57 1263.73
1 9 4 o 1614.10 1589.70
2 9 4 o 1358.42 1389.47
3 9 4 o 1232.25 1276.18
4 9 4 o 352.15 346.02
5 9 4 o 2.06 0.06
6 9 4 o 181.31 180.88
7 9 4 o 274.09 271.34
-3 10 4 o 584.63 635.92
-2 10 4 o 520.57 558.62
-1 10 4 o 294.66 282.51
0 10 4 o 7.70 5.51
1 10 4 o 134.22 132.41
2 10 4 o 115.65 106.50
3 10 4 o 1594.12 1626.71
4 10 4 o 1635.37 1622.55
5 10 4 o 728.90 744.32
6 10 4 o 1054.68 1113.91
-1 11 4 o 214.92 187.70
0 11 4 o 1286.08 1309.46
1 11 4 o 1255.07 1267.27
2 11 4 o 142.81 141.33
3 11 4 o 247.44 271.22
4 11 4 o 91.93 95.80
5 11 4 o 425.86 445.95
-2 -8 5 o 13.13 12.28
-1 -8 5 o 7.61 7.64
0 -8 5 o 795.39 746.73
1 -8 5 o 338.46 341.70
-3 -7 5 o 981.77 917.64
-2 -7 5 o 918.39 890.09
-1 -7 5 o 678.96 644.35
0 -7 5 o 133.38 111.10
1 -7 5 o 55.10 51.46
2 -7 5 o 41.53 39.78
3 -7 5 o 187.45 188.59
-5 -6 5 o 409.11 403.37
-4 -6 5 o 173.28 166.46
-3 -6 5 o 34.27 31.62
-2 -6 5 o 600.69 565.38
-1 -6 5 o 634.65 619.02
0 -6 5 o 1204.31 1235.13
1 -6 5 o 1888.12 1921.96
2 -6 5 o 820.99 795.65
3 -6 5 o 784.50 801.77
4 -6 5 o 507.45 518.27
5 -6 5 o 5.89 2.87
-5 -5 5 o 570.09 600.47
-4 -5 5 o 1269.69 1229.98
-3 -5 5 o 1117.63 1125.88
-2 -5 5 o 1391.61 1375.42
-1 -5 5 o 10.38 8.14
0 -5 5 o 13.65 11.66
1 -5 5 o 148.99 149.67
2 -5 5 o 554.44 600.08
3 -5 5 o 1770.19 1796.28
4 -5 5 o 1167.88 1164.59
5 -5 5 o 1666.68 1657.01
6 -5 5 o 1078.19 1092.26
-6 -4 5 o 223.11 234.64
-5 -4 5 o 27.25 27.09
-4 -4 5 o 53.24 48.15
-3 -4 5 o 901.17 880.04
-2 -4 5 o 3080.86 3110.41
-1 -4 5 o 1366.41 1342.33
0 -4 5 o 2576.86 2509.00
1 -4 5 o 2418.08 2479.82
2 -4 5 o 877.53 813.35
3 -4 5 o 325.78 302.74
4 -4 5 o 23.63 17.44
5 -4 5 o 144.82 122.59
6 -4 5 o 1022.89 1011.32
-6 -3 5 o 1029.40 1041.52
-5 -3 5 o 1465.88 1576.40
-4 -3 5 o 912.70 885.11
-3 -3 5 o 879.35 897.73
-2 -3 5 o 1515.40 1482.46
-1 -3 5 o 1646.34 1572.84
0 -3 5 o 76.52 76.89
1 -3 5 o 863.42 867.04
2 -3 5 o 3342.12 3492.10
3 -3 5 o 2441.22 2311.97
4 -3 5 o 1612.69 1672.96
5 -3 5 o 1498.56 1520.11
6 -3 5 o 738.40 724.89
7 -3 5 o 2.41 0.20
-6 -2 5 o 4.57 1.06
-5 -2 5 o 95.54 90.58
-4 -2 5 o 1333.47 1400.79
-3 -2 5 o 1661.87 1689.90
-2 -2 5 o 4270.60 4237.39
-1 -2 5 o 4208.03 4207.82
0 -2 5 o 1979.55 1945.15
1 -2 5 o 642.63 692.06
2 -2 5 o 1438.58 1299.78
3 -2 5 o 292.03 270.80
4 -2 5 o 605.00 597.89
5 -2 5 o 354.69 326.25
6 -2 5 o 2693.77 2769.56
7 -2 5 o 1078.34 1095.40
-7 -1 5 o 813.79 815.36
-6 -1 5 o 1161.54 1182.94
-5 -1 5 o 1209.76 1279.28
-4 -1 5 o 916.36 919.25
-3 -1 5 o 333.42 333.65
-2 -1 5 o 327.35 318.95
-1 -1 5 o 604.16 582.04
0 -1 5 o 2437.38 2434.28
1 -1 5 o 4478.65 4586.13
2 -1 5 o 2404.42 2424.57
3 -1 5 o 3031.56 3094.26
4 -1 5 o 1473.34 1436.68
5 -1 5 o 434.70 429.15
6 -1 5 o 5.98 3.70
7 -1 5 o 61.27 55.28
8 -1 5 o 1089.90 1192.04
-7 0 5 o 175.98 166.86
-6 0 5 o 15.77 7.95
-5 0 5 o 2075.53 2053.68
-4 0 5 o 1739.44 1747.63
-3 0 5 o 3480.27 3517.99
-2 0 5 o 5107.33 5196.58
-1 0 5 o 3017.49 2945.65
0 0 5 o 111.20 121.88
1 0 5 o 1520.48 1437.49
2 0 5 o 603.55 589.70
3 0 5 o 1899.30 1828.58
4 0 5 o 916.36 916.46
5 0 5 o 2342.33 2330.05
6 0 5 o 3126.84 3134.60
7 0 5 o 874.50 894.34
8 0 5 o 192.11 198.75
-7 1 5 o 1116.18 1130.14
-6 1 5 o 400.75 413.56
-5 1 5 o 798.54 754.04
-4 1 5 o 740.87 749.34
-3 1 5 o 1036.85 1017.12
-2 1 5 o 482.09 482.49
-1 1 5 o 2580.60 2503.74
0 1 5 o 5545.86 5952.42
1 1 5 o 3107.33 3256.31
2 1 5 o 3833.45 3903.44
3 1 5 o 408.54 412.98
4 1 5 o 583.93 540.68
5 1 5 o 83.15 74.14
6 1 5 o 346.68 341.69
7 1 5 o 1725.70 1726.50
8 1 5 o 1173.12 1190.42
-7 2 5 o 658.40 654.81
-6 2 5 o 529.76 534.26
-5 2 5 o 2317.54 2311.80
-4 2 5 o 2004.81 1951.96
-3 2 5 o 4052.87 4079.33
-2 2 5 o 2211.75 2191.76
-1 2 5 o 554.05 535.33
0 2 5 o 4.02 1.38
1 2 5 o 777.62 742.87
2 2 5 o 1388.90 1357.40
3 2 5 o 4560.71 4731.26
4 2 5 o 2337.15 2330.97
5 2 5 o 1474.39 1431.10
6 2 5 o 3993.60 3997.36
7 2 5 o 102.36 98.33
8 2 5 o 5.36 2.85
-6 3 5 o 105.67 101.64
-5 3 5 o 94.38 83.35
-4 3 5 o 12.64 1.02
-3 3 5 o 2028.21 1973.20
-2 3 5 o 2096.94 2027.12
-1 3 5 o 3220.98 3281.24
0 3 5 o 4877.17 5047.93
1 3 5 o 2297.81 2309.96
2 3 5 o 544.83 516.62
3 3 5 o 21.46 13.60
4 3 5 o 3.24 3.20
5 3 5 o 1864.99 1801.56
6 3 5 o 992.99 961.85
7 3 5 o 2631.55 2720.36
8 3 5 o 2001.55 2044.53
-6 4 5 o 1176.94 1208.94
-5 4 5 o 1701.46 1651.94
-4 4 5 o 1426.47 1425.48
-3 4 5 o 1259.69 1235.83
-2 4 5 o 255.00 250.07
-1 4 5 o 19.64 19.77
0 4 5 o 2653.88 2601.13
1 4 5 o 1506.61 1475.32
2 4 5 o 5332.94 5378.63
3 4 5 o 3562.91 3528.55
4 4 5 o 2181.39 2197.36
5 4 5 o 1322.78 1310.90
6 4 5 o 954.03 958.95
7 4 5 o 12.23 8.57
8 4 5 o 110.62 107.16
-6 5 5 o 37.57 36.63
-5 5 5 o 8.52 1.79
-4 5 5 o 1351.55 1332.27
-3 5 5 o 1941.91 1913.51
-2 5 5 o 2110.44 2080.11
-1 5 5 o 3019.18 3055.12
0 5 5 o 2854.43 2759.57
1 5 5 o 69.17 62.78
2 5 5 o 21.35 18.99
3 5 5 o 173.04 163.42
4 5 5 o 2420.02 2323.12
5 5 5 o 1448.12 1474.15
6 5 5 o 2111.94 2087.53
7 5 5 o 2292.47 2318.57
8 5 5 o 829.38 821.17
-5 6 5 o 968.87 927.32
-4 6 5 o 734.30 714.98
-3 6 5 o 6.01 4.20
-2 6 5 o 292.97 252.89
-1 6 5 o 739.70 754.10
0 6 5 o 2193.30 2134.23
1 6 5 o 8762.15 8935.71
2 6 5 o 704.84 733.86
3 6 5 o 3131.95 3089.57
4 6 5 o 2015.66 1971.32
5 6 5 o 48.47 56.38
6 6 5 o 23.95 23.00
7 6 5 o 10.46 6.99
8 6 5 o 1002.68 1035.18
-5 7 5 o 666.70 688.57
-4 7 5 o 864.38 829.86
-3 7 5 o 2271.07 2158.40
-2 7 5 o 1839.75 1781.51
-1 7 5 o 597.81 587.19
0 7 5 o 845.92 836.02
1 7 5 o 139.87 136.53
2 7 5 o 567.08 564.58
3 7 5 o 2138.04 2141.88
4 7 5 o 570.85 529.69
5 7 5 o 3103.01 3232.48
6 7 5 o 1695.86 1665.74
7 7 5 o 166.75 171.69
8 7 5 o 872.50 880.38
-4 8 5 o 1.96 0.11
-3 8 5 o 315.00 364.98
-2 8 5 o 874.97 818.37
-1 8 5 o 1437.12 1416.37
0 8 5 o 2845.49 2966.68
1 8 5 o 3820.72 3838.03
2 8 5 o 651.72 645.48
3 8 5 o 685.51 686.18
4 8 5 o 290.45 281.78
5 8 5 o 141.19 129.33
6 8 5 o 193.00 190.03
7 8 5 o 372.82 394.47
-3 9 5 o 820.84 864.47
-2 9 5 o 817.09 827.40
-1 9 5 o 18.66 15.95
0 9 5 o 4.52 0.15
1 9 5 o 426.69 428.75
2 9 5 o 1475.04 1463.04
3 9 5 o 1526.01 1529.65
4 9 5 o 680.84 684.01
5 9 5 o 1212.82 1297.42
6 9 5 o 524.96 527.33
7 9 5 o 17.28 15.77
-2 10 5 o 1043.58 1067.30
-1 10 5 o 1259.12 1223.59
0 10 5 o 1810.48 1798.75
1 10 5 o 979.27 986.80
2 10 5 o 88.57 87.16
3 10 5 o 44.83 42.75
4 10 5 o 87.74 84.11
5 10 5 o 455.35 456.61
6 10 5 o 461.17 487.36
-1 11 5 o 42.42 43.35
0 11 5 o 478.27 488.61
1 11 5 o 381.96 351.14
2 11 5 o 1457.11 1488.16
3 11 5 o 670.91 672.30
4 11 5 o 438.76 452.29
5 11 5 o 217.98 228.90
-2 -7 6 o 244.65 254.84
-1 -7 6 o 893.28 873.23
0 -7 6 o 1427.14 1394.21
1 -7 6 o 879.35 882.91
2 -7 6 o 704.87 722.13
-3 -6 6 o 765.08 746.22
-2 -6 6 o 385.44 367.19
-1 -6 6 o 79.27 79.49
0 -6 6 o 3.49 0.21
1 -6 6 o 395.16 390.14
2 -6 6 o 876.45 844.32
3 -6 6 o 875.68 909.70
4 -6 6 o 848.87 868.88
-4 -5 6 o 965.43 964.37
-3 -5 6 o 211.35 206.28
-2 -5 6 o 1293.58 1288.20
-1 -5 6 o 1668.12 1781.42
0 -5 6 o 1448.57 1403.73
1 -5 6 o 949.19 958.25
2 -5 6 o 289.98 301.92
3 -5 6 o 19.78 18.58
4 -5 6 o 74.55 68.70
5 -5 6 o 723.06 721.64
-5 -4 6 o 1469.45 1504.00
-4 -4 6 o 525.96 546.28
-3 -4 6 o 248.34 250.92
-2 -4 6 o 3.93 0.48
-1 -4 6 o 249.49 242.30
0 -4 6 o 2099.70 2132.99
1 -4 6 o 600.01 584.21
2 -4 6 o 2028.68 1929.53
3 -4 6 o 1809.98 1875.12
4 -4 6 o 586.81 582.21
5 -4 6 o 451.13 445.29
6 -4 6 o 6.01 4.44
-5 -3 6 o 410.92 420.19
-4 -3 6 o 1327.61 1297.89
-3 -3 6 o 1347.64 1371.05
-2 -3 6 o 1457.71 1524.30
-1 -3 6 o 1626.32 1654.47
0 -3 6 o 1195.70 1164.51
1 -3 6 o 219.67 203.63
2 -3 6 o 95.45 69.17
3 -3 6 o 549.16 526.79
4 -3 6 o 1105.83 1127.67
5 -3 6 o 2047.07 2066.69
6 -3 6 o 926.13 900.01
-6 -2 6 o 813.47 812.00
-5 -2 6 o 682.95 677.43
-4 -2 6 o 331.66 345.14
-3 -2 6 o 103.06 97.91
-2 -2 6 o 64.59 60.86
-1 -2 6 o 671.94 674.82
0 -2 6 o 2788.67 2702.70
1 -2 6 o 2707.45 2702.72
2 -2 6 o 1756.89 1709.96
3 -2 6 o 1768.81 1826.50
4 -2 6 o 401.46 395.81
5 -2 6 o 38.34 34.11
6 -2 6 o 126.35 116.35
7 -2 6 o 378.57 364.01
-6 -1 6 o 717.69 674.06
-5 -1 6 o 1307.56 1317.13
-4 -1 6 o 1466.92 1501.51
-3 -1 6 o 1343.27 1372.76
-2 -1 6 o 2057.31 2124.89
-1 -1 6 o 472.26 459.04
0 -1 6 o 21.72 17.67
1 -1 6 o 32.24 22.92
2 -1 6 o 1218.92 1184.86
3 -1 6 o 3534.97 3497.13
4 -1 6 o 2118.39 2115.39
5 -1 6 o 2624.41 2638.70
6 -1 6 o 1693.96 1739.66
7 -1 6 o 267.48 275.41
-6 0 6 o 527.33 540.06
-5 0 6 o 199.18 206.28
-4 0 6 o 157.35 164.92
-3 0 6 o 814.02 815.24
-2 0 6 o 594.98 586.19
-1 0 6 o 2622.64 2670.42
0 0 6 o 5910.93 5999.83
1 0 6 o 1076.25 1048.68
2 0 6 o 1318.44 1316.79
3 0 6 o 2520.36 2489.37
4 0 6 o 615.76 571.76
5 0 6 o 568.37 576.35
6 0 6 o 250.87 250.99
7 0 6 o 1691.97 1746.14
8 0 6 o 1233.89 1269.40
-6 1 6 o 2347.81 2388.34
-5 1 6 o 561.51 570.47
-4 1 6 o 2543.80 2564.29
-3 1 6 o 557.38 530.91
-2 1 6 o 385.87 380.27
-1 1 6 o 2.12 0.86
0 1 6 o 343.58 326.95
1 1 6 o 2074.50 2039.10
2 1 6 o 3651.74 3776.30
3 1 6 o 2821.66 2847.32
4 1 6 o 5800.85 5917.97
5 1 6 o 1588.16 1626.03
6 1 6 o 190.64 187.92
7 1 6 o 469.78 472.89
8 1 6 o 18.34 15.05
-6 2 6 o 103.49 93.63
-5 2 6 o 236.15 237.65
-4 2 6 o 994.11 1009.71
-3 2 6 o 1582.23 1635.60
-2 2 6 o 2948.93 2977.34
-1 2 6 o 2798.55 2912.05
0 2 6 o 2932.58 2880.70
1 2 6 o 1923.98 1909.48
2 2 6 o 33.40 31.95
3 2 6 o 456.31 417.18
4 2 6 o 2047.68 1991.04
5 2 6 o 1166.80 1176.37
6 2 6 o 2380.92 2374.62
7 2 6 o 621.55 597.55
8 2 6 o 1488.39 1533.52
-6 3 6 o 887.28 907.33
-5 3 6 o 1279.70 1291.91
-4 3 6 o 707.37 697.83
-3 3 6 o 35.46 29.98
-2 3 6 o 44.92 43.21
-1 3 6 o 698.19 679.08
0 3 6 o 2243.46 2233.85
1 3 6 o 3965.63 3945.17
2 3 6 o 3435.41 3440.59
3 3 6 o 5006.94 4861.86
4 3 6 o 2597.11 2575.37
5 3 6 o 459.60 451.05
6 3 6 o 4.46 1.28
7 3 6 o 25.48 21.35
8 3 6 o 482.57 490.49
-6 4 6 o 288.62 286.62
-5 4 6 o 1242.44 1242.77
-4 4 6 o 938.23 949.60
-3 4 6 o 3716.20 3794.85
-2 4 6 o 2901.91 2975.25
-1 4 6 o 1094.94 1064.50
0 4 6 o 1607.51 1548.76
1 4 6 o 423.70 402.70
2 4 6 o 182.87 157.26
3 4 6 o 846.92 838.32
4 4 6 o 1146.13 1120.92
5 4 6 o 3883.70 3778.75
6 4 6 o 1348.33 1365.36
7 4 6 o 757.56 743.54
8 4 6 o 424.14 431.12
-5 5 6 o 136.53 127.87
-4 5 6 o 40.86 36.85
-3 5 6 o 19.59 15.79
-2 5 6 o 1229.15 1268.48
-1 5 6 o 1730.79 1670.27
0 5 6 o 3126.36 3190.32
1 5 6 o 2504.03 2464.09
2 5 6 o 3781.78 3710.38
3 5 6 o 1639.73 1653.11
4 5 6 o 515.93 501.03
5 5 6 o 20.10 24.94
6 5 6 o 172.79 164.94
7 5 6 o 850.90 837.11
8 5 6 o 1176.98 1221.00
-5 6 6 o 2342.65 2278.17
-4 6 6 o 938.78 948.83
-3 6 6 o 1940.84 1954.24
-2 6 6 o 2855.77 2850.95
-1 6 6 o 7.77 3.41
0 6 6 o 19.33 17.07
1 6 6 o 214.50 192.41
2 6 6 o 2396.47 2413.00
3 6 6 o 1570.00 1514.35
4 6 6 o 1442.33 1494.72
5 6 6 o 2574.19 2493.61
6 6 6 o 1052.41 1039.45
7 6 6 o 135.01 126.55
8 6 6 o 6.53 6.23
-4 7 6 o 243.77 249.57
-3 7 6 o 556.77 532.45
-2 7 6 o 1100.79 1159.58
-1 7 6 o 2137.37 2117.59
0 7 6 o 3468.30 3405.45
1 7 6 o 50.48 46.97
2 7 6 o 3154.61 3136.36
3 7 6 o 115.47 114.74
4 7 6 o 300.26 280.88
5 7 6 o 289.64 321.62
6 7 6 o 770.78 763.39
7 7 6 o 1774.41 1791.00
8 7 6 o 1184.49 1205.85
-4 8 6 o 625.29 638.20
-3 8 6 o 1186.09 1173.52
-2 8 6 o 106.50 103.04
-1 8 6 o 52.75 54.30
0 8 6 o 163.58 163.35
1 8 6 o 624.03 623.65
2 8 6 o 1780.63 1791.09
3 8 6 o 1359.93 1370.05
4 8 6 o 1859.89 1883.83
5 8 6 o 911.74 884.38
6 8 6 o 76.34 77.06
7 8 6 o 50.83 47.46
-3 9 6 o 797.51 815.26
-2 9 6 o 1144.06 1141.30
-1 9 6 o 1565.32 1594.04
0 9 6 o 241.61 239.81
1 9 6 o 570.78 543.81
2 9 6 o 34.10 26.78
3 9 6 o 182.53 180.51
4 9 6 o 385.22 381.82
5 9 6 o 1082.20 1128.49
6 9 6 o 1519.77 1560.92
7 9 6 o 1011.51 1028.67
-2 10 6 o 2.34 1.28
-1 10 6 o 582.65 582.24
0 10 6 o 716.50 719.29
1 10 6 o 747.95 780.38
2 10 6 o 1207.87 1219.98
3 10 6 o 1439.26 1499.27
4 10 6 o 199.72 202.63
5 10 6 o 258.91 269.22
6 10 6 o 28.87 27.55
0 11 6 o 388.16 383.02
1 11 6 o 30.15 31.43
2 11 6 o 149.31 150.39
3 11 6 o 417.29 388.32
4 11 6 o 937.39 925.12
5 11 6 o 589.93 611.87
-1 -6 7 o 991.33 1007.00
0 -6 7 o 105.14 104.07
1 -6 7 o 295.57 280.89
2 -6 7 o 4.99 0.45
-3 -5 7 o 2.04 0.34
-2 -5 7 o 3.41 0.34
-1 -5 7 o 909.23 924.82
0 -5 7 o 834.95 828.77
1 -5 7 o 944.51 982.32
2 -5 7 o 834.61 922.24
3 -5 7 o 1455.60 1395.46
4 -5 7 o 328.74 332.67
-4 -4 7 o 319.84 330.73
-3 -4 7 o 2135.23 2217.44
-2 -4 7 o 639.52 654.66
-1 -4 7 o 409.29 400.08
0 -4 7 o 166.33 164.44
1 -4 7 o 38.77 29.26
2 -4 7 o 340.23 356.59
3 -4 7 o 557.15 531.05
4 -4 7 o 1154.04 1085.53
5 -4 7 o 1219.56 1278.31
-4 -3 7 o 1.97 0.08
-3 -3 7 o 110.63 111.90
-2 -3 7 o 661.79 673.79
-1 -3 7 o 2337.47 2440.99
0 -3 7 o 1711.19 1681.91
1 -3 7 o 1642.39 1667.19
2 -3 7 o 1335.39 1368.23
3 -3 7 o 724.85 679.70
4 -3 7 o 57.97 61.93
5 -3 7 o 19.71 15.70
6 -3 7 o 46.32 36.21
-5 -2 7 o 472.70 489.43
-4 -2 7 o 1462.63 1543.69
-3 -2 7 o 1405.94 1460.25
-2 -2 7 o 289.83 293.12
-1 -2 7 o 138.07 132.00
0 -2 7 o 28.35 23.32
1 -2 7 o 886.28 864.32
2 -2 7 o 1509.90 1542.42
3 -2 7 o 1031.49 1007.16
4 -2 7 o 2311.85 2304.39
5 -2 7 o 1202.33 1141.97
6 -2 7 o 740.74 737.79
-5 -1 7 o 18.99 11.01
-4 -1 7 o 229.20 224.32
-3 -1 7 o 1135.91 1198.66
-2 -1 7 o 2825.66 2875.39
-1 -1 7 o 1654.64 1673.34
0 -1 7 o 3430.25 3492.24
1 -1 7 o 1599.50 1591.01
2 -1 7 o 411.01 379.34
3 -1 7 o 27.37 22.95
4 -1 7 o 8.03 3.18
5 -1 7 o 604.11 605.36
6 -1 7 o 905.84 936.18
7 -1 7 o 913.24 922.38
-5 0 7 o 1245.32 1310.14
-4 0 7 o 424.00 441.03
-3 0 7 o 1809.27 1894.29
-2 0 7 o 27.60 27.81
-1 0 7 o 294.19 282.39
0 0 7 o 191.37 191.30
1 0 7 o 3443.33 3531.36
2 0 7 o 2392.53 2404.14
3 0 7 o 1920.22 1942.86
4 0 7 o 782.33 809.19
5 0 7 o 1698.42 1722.64
6 0 7 o 17.50 17.23
7 0 7 o 10.92 7.00
-5 1 7 o 308.70 325.80
-4 1 7 o 883.29 872.84
-3 1 7 o 2172.03 2191.81
-2 1 7 o 3535.89 3548.17
-1 1 7 o 2239.98 2227.25
0 1 7 o 1085.71 1085.09
1 1 7 o 1330.66 1288.30
2 1 7 o 51.03 48.73
3 1 7 o 1320.11 1316.64
4 1 7 o 19.17 12.51
5 1 7 o 2637.56 2779.16
6 1 7 o 1504.24 1543.91
7 1 7 o 1117.89 1161.81
8 1 7 o 573.62 626.93
-5 2 7 o 744.70 741.78
-4 2 7 o 237.70 230.98
-3 2 7 o 104.01 97.38
-2 2 7 o 131.66 130.61
-1 2 7 o 1280.33 1277.88
0 2 7 o 2964.20 2972.07
1 2 7 o 2071.23 2066.52
2 2 7 o 3119.08 3129.79
3 2 7 o 1817.57 1864.28
4 2 7 o 47.71 44.02
5 2 7 o 219.94 213.40
6 2 7 o 24.38 0.31
7 2 7 o 1241.37 1283.55
8 2 7 o 760.70 770.19
-5 3 7 o 836.43 846.91
-4 3 7 o 1505.41 1497.00
-3 3 7 o 2170.61 2221.24
-2 3 7 o 2391.47 2417.43
-1 3 7 o 434.44 433.56
0 3 7 o 902.71 912.80
1 3 7 o 124.09 122.67
2 3 7 o 1742.98 1722.39
3 3 7 o 992.69 945.62
4 3 7 o 1930.35 1881.82
5 3 7 o 3038.08 3088.62
6 3 7 o 969.04 976.98
7 3 7 o 782.33 810.77
8 3 7 o 436.16 451.11
-5 4 7 o 349.52 343.12
-4 4 7 o 106.08 103.61
-3 4 7 o 137.27 138.95
-2 4 7 o 311.44 286.22
-1 4 7 o 4246.26 4270.64
0 4 7 o 2066.45 2033.40
1 4 7 o 1830.17 1836.86
2 4 7 o 2330.86 2254.14
3 4 7 o 112.45 103.00
4 4 7 o 66.73 53.15
5 4 7 o 26.39 19.94
6 4 7 o 1170.75 1179.63
7 4 7 o 1327.91 1359.81
8 4 7 o 1004.01 997.61
-5 5 7 o 675.31 684.74
-4 5 7 o 1913.51 1885.39
-3 5 7 o 1041.04 1035.66
-2 5 7 o 78.43 69.92
-1 5 7 o 805.80 804.83
0 5 7 o 648.68 628.06
1 5 7 o 1179.22 1179.19
2 5 7 o 2428.63 2480.77
3 5 7 o 2419.16 2328.27
4 5 7 o 2601.95 2476.45
5 5 7 o 1474.96 1522.08
6 5 7 o 825.50 844.63
7 5 7 o 39.97 34.16
8 5 7 o 68.20 66.50
-4 6 7 o 428.84 420.68
-3 6 7 o 944.12 963.85
-2 6 7 o 946.89 879.69
-1 6 7 o 2718.48 2816.31
0 6 7 o 1464.33 1431.12
1 6 7 o 1964.13 1951.61
2 6 7 o 47.85 46.76
3 6 7 o 48.45 41.59
4 6 7 o 730.55 733.46
5 6 7 o 1179.09 1087.72
6 6 7 o 995.28 1049.90
7 6 7 o 1890.88 1902.02
8 6 7 o 458.64 457.36
-4 7 7 o 747.03 724.36
-3 7 7 o 57.77 49.59
-2 7 7 o 9.36 4.33
-1 7 7 o 221.94 209.27
0 7 7 o 1157.80 1109.40
1 7 7 o 2498.38 2526.40
2 7 7 o 2808.85 2851.78
3 7 7 o 2147.12 2117.89
4 7 7 o 954.01 894.65
5 7 7 o 776.07 803.75
6 7 7 o 67.15 64.39
7 7 7 o 82.28 74.64
-3 8 7 o 1036.85 1033.23
-2 8 7 o 1041.25 1006.17
-1 8 7 o 1266.40 1300.60
0 8 7 o 879.46 889.79
1 8 7 o 24.10 21.86
2 8 7 o 55.76 53.51
3 8 7 o 527.49 512.65
4 8 7 o 1261.44 1265.28
5 8 7 o 1046.50 1019.22
6 8 7 o 1123.38 1161.55
7 8 7 o 661.22 661.75
-2 9 7 o 167.49 169.98
-1 9 7 o 621.05 605.29
0 9 7 o 2560.67 2584.17
1 9 7 o 1192.02 1189.84
2 9 7 o 1647.61 1685.43
3 9 7 o 1326.84 1294.29
4 9 7 o 132.45 132.24
5 9 7 o 14.81 10.56
6 9 7 o 15.77 13.97
-1 10 7 o 465.27 435.80
0 10 7 o 215.74 214.43
1 10 7 o 339.77 340.30
2 10 7 o 455.70 444.82
3 10 7 o 358.66 343.50
4 10 7 o 1459.93 1481.82
5 10 7 o 1351.36 1389.15
6 10 7 o 5.44 4.26
0 11 7 o 1520.95 1524.99
1 11 7 o 633.87 646.62
2 11 7 o 498.41 497.63
3 11 7 o 235.55 210.73
4 11 7 o 68.36 60.61
-1 -5 8 o 32.58 28.05
0 -5 8 o 443.81 430.59
1 -5 8 o 255.82 238.76
2 -5 8 o 484.73 490.22
-2 -4 8 o 750.64 738.15
-1 -4 8 o 948.50 967.65
0 -4 8 o 959.58 996.06
1 -4 8 o 1210.58 1150.58
2 -4 8 o 636.33 609.23
3 -4 8 o 27.61 28.73
4 -4 8 o 13.55 10.27
-3 -3 8 o 536.36 564.67
-2 -3 8 o 97.06 93.94
-1 -3 8 o 25.38 22.48
0 -3 8 o 144.41 138.62
1 -3 8 o 565.01 551.24
2 -3 8 o 976.03 936.68
3 -3 8 o 1500.37 1474.80
4 -3 8 o 979.79 956.84
5 -3 8 o 522.15 542.68
-4 -2 8 o 241.18 241.19
-3 -2 8 o 855.69 885.81
-2 -2 8 o 1388.54 1408.91
-1 -2 8 o 1165.99 1202.08
0 -2 8 o 782.84 772.53
1 -2 8 o 743.31 733.70
2 -2 8 o 12.37 11.20
3 -2 8 o 65.55 62.84
4 -2 8 o 458.58 448.04
5 -2 8 o 1629.36 1623.45
6 -2 8 o 829.90 795.60
-4 -1 8 o 190.28 194.18
-3 -1 8 o 5.73 2.93
-2 -1 8 o 198.76 203.99
-1 -1 8 o 1095.51 1118.39
0 -1 8 o 1123.51 1113.56
1 -1 8 o 398.86 378.22
2 -1 8 o 3604.93 3676.78
3 -1 8 o 1183.02 1146.67
4 -1 8 o 700.15 665.86
5 -1 8 o 165.02 168.28
6 -1 8 o 11.59 4.78
-4 0 8 o 1072.55 1092.94
-3 0 8 o 1369.66 1359.57
-2 0 8 o 643.03 642.82
-1 0 8 o 1496.49 1533.63
0 0 8 o 298.95 289.75
1 0 8 o 158.89 144.46
2 0 8 o 16.19 9.31
3 0 8 o 700.40 705.04
4 0 8 o 3861.83 3783.08
5 0 8 o 1093.03 1122.76
6 0 8 o 1507.35 1561.25
7 0 8 o 796.08 842.21
-5 1 8 o 346.84 369.80
-4 1 8 o 1.82 0.51
-3 1 8 o 116.59 125.69
-2 1 8 o 433.26 424.56
-1 1 8 o 1781.35 1838.84
0 1 8 o 2043.67 2036.26
1 1 8 o 1373.18 1365.47
2 1 8 o 2835.56 2872.45
3 1 8 o 478.08 486.17
4 1 8 o 512.58 499.84
5 1 8 o 235.89 226.59
6 1 8 o 262.17 262.85
7 1 8 o 826.79 840.96
-5 2 8 o 842.36 873.27
-4 2 8 o 1596.13 1567.17
-3 2 8 o 970.79 969.00
-2 2 8 o 324.78 332.50
-1 2 8 o 317.97 301.97
0 2 8 o 96.33 89.94
1 2 8 o 577.74 559.57
2 2 8 o 1176.51 1176.28
3 2 8 o 2114.96 2167.01
4 2 8 o 3454.53 3441.37
5 2 8 o 1818.15 1855.29
6 2 8 o 860.98 862.81
7 2 8 o 336.68 334.71
-5 3 8 o 3.44 2.54
-4 3 8 o 301.28 302.06
-3 3 8 o 735.96 748.58
-2 3 8 o 1710.14 1743.92
-1 3 8 o 2700.86 2776.10
0 3 8 o 1620.86 1600.73
1 3 8 o 1469.08 1446.43
2 3 8 o 1230.90 1220.71
3 3 8 o 176.29 154.55
4 3 8 o 378.23 364.74
5 3 8 o 157.59 155.46
6 3 8 o 1511.44 1442.97
7 3 8 o 1476.40 1455.87
-4 4 8 o 927.16 969.15
-3 4 8 o 236.94 215.49
-2 4 8 o 102.46 99.44
-1 4 8 o 274.67 291.57
0 4 8 o 566.46 559.14
1 4 8 o 2199.99 2196.84
2 4 8 o 1255.57 1234.35
3 4 8 o 3946.83 4062.42
4 4 8 o 2066.32 2045.54
5 4 8 o 563.29 540.81
6 4 8 o 474.68 466.57
7 4 8 o 12.01 8.76
8 4 8 o 573.01 583.81
-4 5 8 o 587.14 576.15
-3 5 8 o 1959.93 1941.94
-2 5 8 o 2379.98 2395.69
-1 5 8 o 1241.95 1222.57
0 5 8 o 1983.67 1963.89
1 5 8 o 67.57 55.50
2 5 8 o 390.90 381.29
3 5 8 o 201.85 214.00
4 5 8 o 766.43 758.44
5 5 8 o 1452.88 1527.24
6 5 8 o 946.68 934.91
7 5 8 o 1114.51 1121.89
8 5 8 o 1141.65 1134.18
-4 6 8 o 98.23 98.89
-3 6 8 o 48.90 41.74
-2 6 8 o 88.26 89.80
-1 6 8 o 1758.19 1803.49
0 6 8 o 758.40 735.55
1 6 8 o 2015.10 2122.71
2 6 8 o 1989.03 1921.66
3 6 8 o 1720.37 1717.73
4 6 8 o 610.95 613.90
5 6 8 o 165.10 156.98
6 6 8 o 17.88 21.75
7 6 8 o 366.90 352.68
-3 7 8 o 1712.73 1771.98
-2 7 8 o 797.80 788.86
-1 7 8 o 1012.99 1010.39
0 7 8 o 277.13 253.00
1 7 8 o 104.32 107.33
2 7 8 o 65.24 56.21
3 7 8 o 373.03 382.45
4 7 8 o 2259.43 2218.33
5 7 8 o 1050.49 1079.69
6 7 8 o 787.85 759.79
7 7 8 o 764.32 773.63
-3 8 8 o 60.17 54.93
-2 8 8 o 1395.48 1424.05
-1 8 8 o 829.77 845.13
0 8 8 o 927.56 927.58
1 8 8 o 1694.91 1762.64
2 8 8 o 808.12 757.78
3 8 8 o 137.41 135.24
4 8 8 o 142.16 129.04
5 8 8 o 30.44 33.37
6 8 8 o 837.46 841.64
7 8 8 o 619.06 613.91
-2 9 8 o 159.53 149.98
-1 9 8 o 26.05 19.99
0 9 8 o 10.73 6.19
1 9 8 o 261.21 260.94
2 9 8 o 1069.89 1076.01
3 9 8 o 651.09 653.95
4 9 8 o 1088.24 1107.67
5 9 8 o 1046.76 1071.32
6 9 8 o 369.58 371.64
-1 10 8 o 1689.95 1681.62
0 10 8 o 56.78 52.80
1 10 8 o 953.51 919.47
2 10 8 o 260.53 259.56
3 10 8 o 293.66 298.85
4 10 8 o 3.04 1.40
5 10 8 o 388.49 390.16
2 11 8 o 884.08 826.21
3 11 8 o 755.87 773.86
0 -4 9 o 501.92 505.30
1 -4 9 o 682.79 653.08
-2 -3 9 o 801.73 819.07
-1 -3 9 o 758.47 788.49
0 -3 9 o 319.55 326.35
1 -3 9 o 4.17 1.89
2 -3 9 o 17.97 15.62
3 -3 9 o 401.53 397.22
-2 -2 9 o 293.10 303.76
-1 -2 9 o 829.77 794.36
0 -2 9 o 1004.43 1048.80
1 -2 9 o 1991.44 2087.96
2 -2 9 o 1117.44 1088.99
3 -2 9 o 721.54 726.69
4 -2 9 o 80.82 82.96
5 -2 9 o 248.95 242.88
-3 -1 9 o 688.13 714.02
-2 -1 9 o 542.61 538.86
-1 -1 9 o 655.13 663.16
0 -1 9 o 4.64 2.28
1 -1 9 o 123.20 120.40
2 -1 9 o 728.10 743.96
3 -1 9 o 820.18 750.42
4 -1 9 o 1548.69 1584.04
5 -1 9 o 539.50 540.22
-3 0 9 o 282.28 280.99
-2 0 9 o 1733.54 1762.35
-1 0 9 o 1050.42 1053.55
0 0 9 o 1729.34 1754.57
1 0 9 o 2869.39 2905.95
2 0 9 o 291.06 280.48
3 0 9 o 330.96 330.27
4 0 9 o 39.31 33.27
5 0 9 o 8.08 1.14
6 0 9 o 750.69 741.73
-4 1 9 o 923.01 935.81
-3 1 9 o 445.48 457.07
-2 1 9 o 505.89 509.69
-1 1 9 o 8.73 1.36
0 1 9 o 177.70 174.44
1 1 9 o 915.43 931.08
2 1 9 o 1364.07 1363.55
3 1 9 o 1967.03 1981.85
4 1 9 o 848.02 859.02
5 1 9 o 727.78 757.78
6 1 9 o 349.61 342.20
-4 2 9 o 297.29 288.29
-3 2 9 o 1584.08 1624.22
-2 2 9 o 1012.23 1006.56
-1 2 9 o 1886.91 1884.48
0 2 9 o 2364.02 2396.48
1 2 9 o 451.74 438.87
2 2 9 o 72.88 69.92
3 2 9 o 7.53 3.75
4 2 9 o 502.98 492.82
5 2 9 o 910.18 925.15
6 2 9 o 592.70 590.81
7 2 9 o 1221.48 1253.28
-4 3 9 o 494.35 500.53
-3 3 9 o 382.87 392.23
-2 3 9 o 180.01 182.65
-1 3 9 o 12.09 9.81
0 3 9 o 930.32 940.81
1 3 9 o 2323.83 2365.86
2 3 9 o 2105.66 2156.81
3 3 9 o 491.32 467.92
4 3 9 o 1585.10 1622.24
5 3 9 o 133.91 129.07
6 3 9 o 71.47 66.08
7 3 9 o 39.51 38.84
-4 4 9 o 1171.59 1169.42
-3 4 9 o 882.77 907.66
-2 4 9 o 1585.59 1564.84
-1 4 9 o 880.21 886.03
0 4 9 o 811.98 820.67
1 4 9 o 58.54 45.05
2 4 9 o 492.28 492.87
3 4 9 o 442.95 432.28
4 4 9 o 1208.09 1182.08
5 4 9 o 2002.06 1938.51
6 4 9 o 845.85 869.56
7 4 9 o 947.85 931.54
-3 5 9 o 2.03 1.24
-2 5 9 o 650.81 675.55
-1 5 9 o 320.09 312.90
0 5 9 o 1842.35 1831.24
1 5 9 o 1788.11 1788.09
2 5 9 o 2247.62 2264.17
3 5 9 o 52.56 42.82
4 5 9 o 273.41 270.43
5 5 9 o 23.69 22.99
6 5 9 o 1222.07 1147.37
7 5 9 o 263.63 262.91
-3 6 9 o 844.99 845.20
-2 6 9 o 480.09 460.08
-1 6 9 o 360.19 349.83
0 6 9 o 9.44 0.01
1 6 9 o 286.76 278.85
2 6 9 o 1085.29 1082.57
3 6 9 o 1592.74 1564.04
4 6 9 o 2003.98 1995.58
5 6 9 o 1104.88 1029.51
6 6 9 o 761.73 782.59
7 6 9 o 519.19 523.38
-2 7 9 o 873.20 879.10
-1 7 9 o 1253.43 1263.92
0 7 9 o 789.13 795.92
1 7 9 o 1880.25 1889.98
2 7 9 o 430.57 413.93
3 7 9 o 10.86 9.48
4 7 9 o 5.50 1.21
5 7 9 o 632.96 632.50
6 7 9 o 865.63 859.34
7 7 9 o 565.69 570.84
-2 8 9 o 567.99 541.06
-1 8 9 o 73.08 75.42
0 8 9 o 481.02 487.84
1 8 9 o 702.24 703.67
2 8 9 o 1257.14 1308.16
3 8 9 o 2469.63 2517.46
4 8 9 o 827.95 816.01
5 8 9 o 672.06 691.40
6 8 9 o 211.87 217.44
-1 9 9 o 922.07 941.13
0 9 9 o 1163.12 1110.05
1 9 9 o 53.53 49.47
2 9 9 o 55.75 55.70
3 9 9 o 9.38 0.44
4 9 9 o 1396.48 1359.10
5 9 9 o 292.22 291.77
1 10 9 o 1342.38 1338.01
2 10 9 o 1116.80 1129.48
3 10 9 o 598.35 617.39
4 10 9 o 922.32 926.04
0 -2 10 o 6.93 6.64
1 -2 10 o 448.03 458.10
2 -2 10 o 136.52 125.12
3 -2 10 o 1032.57 1007.40
-1 -1 10 o 959.24 990.59
0 -1 10 o 792.23 787.11
1 -1 10 o 358.25 343.75
2 -1 10 o 306.76 322.93
3 -1 10 o 10.01 7.88
4 -1 10 o 3.66 0.60
-2 0 10 o 3.83 0.08
-1 0 10 o 60.53 58.14
0 0 10 o 305.09 305.18
1 0 10 o 961.25 960.12
2 0 10 o 755.71 763.91
3 0 10 o 1311.45 1321.25
4 0 10 o 898.99 914.76
5 0 10 o 510.79 502.92
-2 1 10 o 1229.30 1267.57
-1 1 10 o 599.83 609.95
0 1 10 o 304.84 293.45
1 1 10 o 142.39 131.02
2 1 10 o 16.02 13.06
3 1 10 o 223.35 229.12
4 1 10 o 883.99 891.54
5 1 10 o 1117.71 1157.19
-3 2 10 o 41.51 42.85
-2 2 10 o 299.77 313.99
-1 2 10 o 1052.53 1095.18
0 2 10 o 462.65 460.33
1 2 10 o 1684.99 1709.93
2 2 10 o 1682.79 1708.89
3 2 10 o 508.18 509.10
4 2 10 o 715.70 728.42
5 2 10 o 53.34 51.84
6 2 10 o 188.49 178.37
-3 3 10 o 717.69 724.36
-2 3 10 o 976.45 967.09
-1 3 10 o 532.09 537.34
0 3 10 o 312.63 311.30
1 3 10 o 48.41 41.30
2 3 10 o 243.37 239.31
3 3 10 o 2335.62 2330.95
4 3 10 o 977.02 994.94
5 3 10 o 948.87 929.82
6 3 10 o 2248.90 2233.26
-2 4 10 o 521.20 526.33
-1 4 10 o 2262.18 2307.18
0 4 10 o 857.44 843.65
1 4 10 o 1825.38 1796.33
2 4 10 o 337.53 333.62
3 4 10 o 1088.90 1128.15
4 4 10 o 14.52 15.32
5 4 10 o 189.13 183.91
6 4 10 o 84.39 80.39
-2 5 10 o 347.18 340.34
-1 5 10 o 3.36 0.61
0 5 10 o 460.81 465.29
1 5 10 o 311.09 310.62
2 5 10 o 1040.44 1036.59
3 5 10 o 1762.41 1792.57
4 5 10 o 1279.05 1307.55
5 5 10 o 925.79 901.53
6 5 10 o 665.54 639.52
-2 6 10 o 1331.78 1357.49
-1 6 10 o 1432.33 1483.47
0 6 10 o 1129.65 1128.95
1 6 10 o 351.71 347.43
2 6 10 o 367.41 352.27
3 6 10 o 3.86 3.03
4 6 10 o 167.25 163.25
5 6 10 o 343.89 346.31
6 6 10 o 953.73 970.81
-1 7 10 o 109.33 106.88
0 7 10 o 822.39 842.49
1 7 10 o 998.57 992.21
2 7 10 o 1062.76 1039.87
3 7 10 o 1191.22 1188.44
4 7 10 o 670.10 662.08
5 7 10 o 247.71 241.23
6 7 10 o 84.66 79.11
-1 8 10 o 722.82 751.07
0 8 10 o 263.70 269.49
1 8 10 o 87.67 75.53
2 8 10 o 9.71 6.70
3 8 10 o 408.83 414.49
4 8 10 o 351.83 371.91
5 8 10 o 652.11 647.20
1 9 10 o 1151.84 1129.04
2 9 10 o 409.30 421.12
3 9 10 o 497.42 491.13
4 9 10 o 62.76 59.14
1 0 11 o 76.36 70.02
2 0 11 o 266.97 263.24
3 0 11 o 699.35 671.15
0 1 11 o 1642.14 1667.62
1 1 11 o 1025.55 1052.31
2 1 11 o 780.06 791.36
3 1 11 o 558.86 585.50
4 1 11 o 9.91 5.93
-1 2 11 o 68.97 72.66
0 2 11 o 70.68 65.41
1 2 11 o 596.83 608.27
2 2 11 o 372.60 369.55
3 2 11 o 1180.94 1219.94
4 2 11 o 765.10 790.91
-1 3 11 o 657.93 636.17
0 3 11 o 2394.56 2368.72
1 3 11 o 464.39 456.36
2 3 11 o 346.45 339.69
3 3 11 o 14.49 8.29
4 3 11 o 59.30 54.17
5 3 11 o 361.07 369.65
-1 4 11 o 21.04 17.40
0 4 11 o 43.43 37.71
1 4 11 o 1311.90 1327.01
2 4 11 o 1006.21 1032.58
3 4 11 o 890.49 873.89
4 4 11 o 918.62 921.67
5 4 11 o 274.40 261.83
-1 5 11 o 948.09 930.65
0 5 11 o 585.32 562.84
1 5 11 o 199.20 194.17
2 5 11 o 14.44 6.61
3 5 11 o 349.60 364.20
4 5 11 o 571.66 552.13
5 5 11 o 745.80 726.32
0 6 11 o 1054.80 1058.76
1 6 11 o 1221.93 1262.96
2 6 11 o 455.47 454.77
3 6 11 o 1289.24 1299.21
4 6 11 o 337.05 322.38
5 6 11 o 51.29 45.16
0 7 11 o 101.24 91.73
1 7 11 o 4.94 0.38
2 7 11 o 586.11 597.69
3 7 11 o 409.79 396.08
4 7 11 o 1210.15 1200.08
2 8 11 o 589.01 572.46
3 8 11 o 127.85 122.91
