#------------------------------------------------------------------------------
#$Date: 2016-02-20 00:18:51 +0200 (Sat, 20 Feb 2016) $
#$Revision: 176760 $
#$URL: svn://www.crystallography.net/cod/cif/2/01/98/2019816.cif $
#------------------------------------------------------------------------------
#
# This file is available in the Crystallography Open Database (COD),
# http://www.crystallography.net/. The original data for this entry
# were provided by IUCr Journals, http://journals.iucr.org/.
#
# The file may be used within the scientific community so long as
# proper attribution is given to the journal article from which the
# data were obtained.
#
data_2019816
loop_
_publ_author_name
'Wang, Jiang-Yun'
_publ_section_title
;
 Structural and spectropscopic studies of a three-dimensional
 hydrogen-bonded copper(II) complex:
 aqua[bis(pyridin-2-ylcarbonyl)amidato]cyanidocopper(II)
;
_journal_coeditor_code           LG3154
_journal_issue                   2
_journal_name_full
'Acta Crystallographica Section C Structural Chemistry'
_journal_page_first              165
_journal_paper_doi               10.1107/S2053229615001692
_journal_volume                  71
_journal_year                    2015
_chemical_formula_iupac          '[Cu (C12 H8 N3 O2) (C N) (H2 O1)]'
_chemical_formula_moiety         'C13 H10 Cu N4 O3'
_chemical_formula_sum            'C13 H10 Cu N4 O3'
_chemical_formula_weight         333.79
_chemical_name_systematic
;
Aqua[bis(pyridin-2-ylcarbonyl)amidato]cyanidocopper(II)
;
_space_group_crystal_system      triclinic
_space_group_IT_number           2
_space_group_name_Hall           '-P 1'
_space_group_name_H-M_alt        'P -1'
_symmetry_space_group_name_Hall  '-P 1'
_symmetry_space_group_name_H-M   'P -1'
_atom_sites_solution_hydrogens   other
_atom_sites_solution_primary     direct
_cell_angle_alpha                68.401(3)
_cell_angle_beta                 84.964(3)
_cell_angle_gamma                70.617(3)
_cell_formula_units_Z            2
_cell_length_a                   7.3171(13)
_cell_length_b                   9.8692(18)
_cell_length_c                   10.2416(18)
_cell_measurement_reflns_used    1997
_cell_measurement_temperature    294(2)
_cell_measurement_theta_max      26.36
_cell_measurement_theta_min      2.35
_cell_volume                     648.2(2)
_computing_cell_refinement
;
SMART (Bruker, 2000)
;
_computing_data_collection
;
SMART (Bruker, 2000)
;
_computing_data_reduction
;
SMART (Bruker, 2000)
;
_computing_molecular_graphics
;
OLEX2 (Dolomanov <i>et al.</i>,  2009)
;
_computing_publication_material
;
OLEX2 (Dolomanov <i>et al.</i>,  2009)
;
_computing_structure_refinement
;
SHELXL97 (Sheldrick, 2008)
;
_computing_structure_solution
;
SIR2004 (Burla <i>et al.</i>,  2007)
;
_diffrn_ambient_temperature      294.15
_diffrn_measured_fraction_theta_full 0.993
_diffrn_measured_fraction_theta_max 0.982
_diffrn_measurement_device_type  'Bruker APEXII CCD area-detector'
_diffrn_measurement_method       '\f and \w'
_diffrn_radiation_monochromator  graphite
_diffrn_radiation_type           MoK\a
_diffrn_radiation_wavelength     0.71073
_diffrn_reflns_av_R_equivalents  0.0174
_diffrn_reflns_limit_h_max       9
_diffrn_reflns_limit_h_min       -7
_diffrn_reflns_limit_k_max       12
_diffrn_reflns_limit_k_min       -11
_diffrn_reflns_limit_l_max       12
_diffrn_reflns_limit_l_min       -8
_diffrn_reflns_number            3682
_diffrn_reflns_theta_full        25.242
_diffrn_reflns_theta_max         26.373
_diffrn_reflns_theta_min         2.140
_exptl_absorpt_coefficient_mu    1.701
_exptl_absorpt_correction_T_max  1.00000
_exptl_absorpt_correction_T_min  0.581697
_exptl_absorpt_correction_type   multi-scan
_exptl_absorpt_process_details
;
(SADABS; Bruker, 2000)
;
_exptl_crystal_colour            blue
_exptl_crystal_density_diffrn    1.710
_exptl_crystal_description       prism
_exptl_crystal_F_000             338
_exptl_crystal_size_max          0.3
_exptl_crystal_size_mid          0.18
_exptl_crystal_size_min          0.16
_refine_diff_density_max         0.305
_refine_diff_density_min         -0.288
_refine_ls_extinction_method     none
_refine_ls_goodness_of_fit_ref   1.044
_refine_ls_hydrogen_treatment    mixed
_refine_ls_matrix_type           full
_refine_ls_number_parameters     196
_refine_ls_number_reflns         2605
_refine_ls_number_restraints     3
_refine_ls_restrained_S_all      1.044
_refine_ls_R_factor_all          0.0411
_refine_ls_R_factor_gt           0.0320
_refine_ls_shift/su_max          0.001
_refine_ls_shift/su_mean         0.000
_refine_ls_structure_factor_coef Fsqd
_refine_ls_weighting_details
'w = 1/[\s^2^(Fo^2^)+(0.0405P)^2^+0.2346P] where P=(Fo^2^+2Fc^2^)/3'
_refine_ls_weighting_scheme      calc
_refine_ls_wR_factor_gt          0.0762
_refine_ls_wR_factor_ref         0.0811
_reflns_number_gt                2231
_reflns_number_total             2605
_reflns_threshold_expression     I>2\s(I)
_iucr_refine_instructions_details
;
TITL 050914C in P-1
CELL 0.71073 7.3171 9.8692 10.2416 68.401 84.964 70.617
ZERR 2 0.0013 0.0018 0.0018 0.003 0.003 0.003
LATT 1
SFAC C H Cu N O
UNIT 26 20 2 8 6
DFIX 0.85 0.01 H3b O3
DFIX 0.85 0.01 O3 H3a
DFIX 1.39 0.01 H3b H3a
L.S. 20
PLAN  20
TEMP 21
BOND $H
CONF
HTAB
MORE -1
fmap 2
acta
REM <olex2.extras>
REM <HklSrc "%.\\050914C.hkl">
REM </olex2.extras>
WGHT    0.040500    0.234600
FVAR       0.49325
CU1   3    0.603708    0.769081    0.590140    11.00000    0.03311    0.03864 =
         0.02796   -0.01537    0.00155   -0.02132
O1    5    0.372493    0.681009    0.297532    11.00000    0.04972    0.06348 =
         0.02789   -0.02201    0.00674   -0.03765
O2    5    0.190150    0.591661    0.556056    11.00000    0.03732    0.05742 =
         0.03182   -0.02070    0.00833   -0.03217
O3    5    0.844780    0.523061    0.674048    11.00000    0.03363    0.04390 =
         0.03855   -0.02052    0.00597   -0.02296
H3A   2    0.949029    0.532627    0.636479    11.00000   -1.50000
H3B   2    0.813517    0.458156    0.653463    11.00000   -1.50000
C13   1    0.733261    0.869528    0.667503    11.00000    0.03971    0.04133 =
         0.04868   -0.02066   -0.00201   -0.01838
N1    4    0.705091    0.821492    0.392913    11.00000    0.03206    0.03611 =
         0.03159   -0.01024    0.00085   -0.01915
N2    4    0.434927    0.703409    0.506202    11.00000    0.02993    0.03947 =
         0.02173   -0.01214    0.00378   -0.02114
N3    4    0.431033    0.714523    0.753444    11.00000    0.03426    0.03975 =
         0.02516   -0.01507    0.00064   -0.01677
N4    4    0.802208    0.923239    0.721983    11.00000    0.06712    0.06421 =
         0.09497   -0.04275   -0.01864   -0.02731
C1    1    0.848563    0.881626    0.342546    11.00000    0.03658    0.03885 =
         0.04431   -0.00765   -0.00061   -0.02362
AFIX  43
H1    2    0.910455    0.906639    0.401658    11.00000   -1.20000
AFIX   0
C2    1    0.906711    0.907329    0.206282    11.00000    0.04273    0.04891 =
         0.04848   -0.00659    0.00944   -0.02824
AFIX  43
H2    2    1.008124    0.946927    0.174861    11.00000   -1.20000
AFIX   0
C3    1    0.813718    0.873990    0.117846    11.00000    0.05387    0.05801 =
         0.03869   -0.01500    0.01844   -0.03261
AFIX  43
H3    2    0.849723    0.892060    0.025162    11.00000   -1.20000
AFIX   0
C4    1    0.664667    0.812740    0.168265    11.00000    0.05093    0.05219 =
         0.03112   -0.01690    0.01032   -0.03008
AFIX  43
H4    2    0.599340    0.789323    0.109866    11.00000   -1.20000
AFIX   0
C5    1    0.615354    0.787333    0.305746    11.00000    0.03079    0.03329 =
         0.02724   -0.00957    0.00263   -0.01694
C6    1    0.457781    0.717898    0.368212    11.00000    0.03248    0.03668 =
         0.02466   -0.01198    0.00157   -0.01874
C7    1    0.302324    0.644205    0.587639    11.00000    0.02640    0.03605 =
         0.02491   -0.01402    0.00186   -0.01403
C8    1    0.305357    0.650464    0.732416    11.00000    0.02786    0.03514 =
         0.02497   -0.01281    0.00067   -0.01190
C9    1    0.185083    0.597073    0.834221    11.00000    0.03809    0.05718 =
         0.03076   -0.01634    0.00640   -0.02641
AFIX  43
H9    2    0.099808    0.553101    0.816911    11.00000   -1.20000
AFIX   0
C10   1    0.193738    0.610283    0.963915    11.00000    0.04849    0.07031 =
         0.02838   -0.01999    0.01301   -0.02667
AFIX  43
H10   2    0.114561    0.574271    1.035071    11.00000   -1.20000
AFIX   0
C11   1    0.319004    0.676354    0.986206    11.00000    0.05348    0.06338 =
         0.02845   -0.02315    0.00199   -0.01927
AFIX  43
H11   2    0.325078    0.687249    1.071986    11.00000   -1.20000
AFIX   0
C12   1    0.436395    0.726680    0.879434    11.00000    0.04603    0.05610 =
         0.03473   -0.02801    0.00285   -0.02242
AFIX  43
H12   2    0.522648    0.770750    0.895141    11.00000   -1.20000
AFIX   0
HKLF 4
REM  050914C in P-1
REM R1 =  0.0320 for    2231 Fo > 4sig(Fo)  and  0.0411 for all    2605 data
REM    196 parameters refined using      3 restraints
END
WGHT      0.0405      0.2346
REM Instructions for potential hydrogen bonds
EQIV $1 x+1, y, z
HTAB O3 O2_$1
EQIV $2 -x+1, -y+1, -z+1
HTAB O3 O1_$2
HTAB O3 O2_$2
EQIV $3 -x+2, -y+2, -z+1
HTAB C2 N4_$3
EQIV $4 x-1, y, z
HTAB C9 O3_$4
EQIV $5 x, y, z+1
HTAB C11 O1_$5
REM Highest difference peak  0.305,  deepest hole -0.288,  1-sigma level  0.068
Q1    1   0.5551  0.7419  0.3392  11.00000  0.05    0.30
Q2    1   0.5291  0.8748  0.5302  11.00000  0.05    0.30
Q3    1   0.7623  0.8476  0.3771  11.00000  0.05    0.28
Q4    1   0.2820  0.6797  0.6594  11.00000  0.05    0.27
Q5    1   0.7588  0.6653  0.6248  11.00000  0.05    0.26
Q6    1   0.7461  0.7176  0.6079  11.00000  0.05    0.26
Q7    1   0.6778  0.6387  0.6527  11.00000  0.05    0.25
Q8    1   0.7500  0.8362  0.1454  11.00000  0.05    0.24
Q9    1   0.2715  0.6401  0.9636  11.00000  0.05    0.24
Q10   1   0.4644  0.7529  0.5139  11.00000  0.05    0.21
Q11   1   0.9276  0.8387  0.5192  11.00000  0.05    0.21
Q12   1   0.6605  0.7805  0.2429  11.00000  0.05    0.21
Q13   1   0.2449  0.8054  0.3344  11.00000  0.05    0.20
Q14   1   0.7598  0.7347  0.4524  11.00000  0.05    0.20
Q15   1   0.2818  0.5378  0.5947  11.00000  0.05    0.20
Q16   1   0.7277  0.5976  0.6089  11.00000  0.05    0.19
Q17   1   0.7096  0.9697  0.6869  11.00000  0.05    0.19
Q18   1   0.5596  1.0061  0.4238  11.00000  0.05    0.18
Q19   1   0.2986  0.5753  0.7947  11.00000  0.05    0.18
Q20   1   0.3043  0.7056  0.2890  11.00000  0.05    0.18
REM The information below was added by Olex2.
REM
REM R1 = 0.0320 for 2231 Fo > 4sig(Fo) and 0.0411 for all 3682 data
REM n/a parameters refined using n/a restraints
REM Highest difference peak 0.30, deepest hole -0.29
REM Mean Shift 0, Max Shift -0.001.
REM +++ Tabular Listing of Refinement Information +++
REM R1_all = 0.0411
REM R1_gt = 0.0320
REM wR_ref = 0.0811
REM GOOF = 1.044
REM Shift_max = -0.001
REM Shift_mean = 0
REM Reflections_all = 3682
REM Reflections_gt = 2231
REM Parameters = n/a
REM Hole = -0.29
REM Peak = 0.30
REM Flack = n/a
;
_cod_data_source_file            lg3154sup1.cf
_cod_data_source_block           I
_cod_database_code               2019816
_cod_database_fobs_code          2019816
#BEGIN Tags that were not found in dictionaries:
_shelx_space_group_comment
;
The symmetry employed for this shelxl refinement is uniquely defined
by the following loop, which should always be used as a source of
symmetry information in preference to the above space-group names.
They are only intended as comments.
;
#END Tags that were not found in dictionaries
loop_
_space_group_symop_operation_xyz
'x, y, z'
'-x, -y, -z'
loop_
_atom_site_type_symbol
_atom_site_label
_atom_site_fract_x
_atom_site_fract_y
_atom_site_fract_z
_atom_site_U_iso_or_equiv
_atom_site_adp_type
_atom_site_calc_flag
_atom_site_occupancy
Cu Cu1 0.60371(4) 0.76908(4) 0.59014(3) 0.02966(12) Uani d 1
O O1 0.3725(3) 0.6810(2) 0.29753(19) 0.0406(5) Uani d 1
O O2 0.1901(3) 0.5917(2) 0.55606(19) 0.0368(4) Uani d 1
O O3 0.8448(3) 0.5231(2) 0.6740(2) 0.0345(4) Uani d 1
H H3A 0.949(3) 0.533(4) 0.636(3) 0.052 Uiso d 1
H H3B 0.814(4) 0.458(3) 0.653(3) 0.052 Uiso d 1
C C13 0.7333(4) 0.8695(3) 0.6675(3) 0.0403(7) Uani d 1
N N1 0.7051(3) 0.8215(3) 0.3929(2) 0.0317(5) Uani d 1
N N2 0.4349(3) 0.7034(2) 0.5062(2) 0.0276(5) Uani d 1
N N3 0.4310(3) 0.7145(3) 0.7534(2) 0.0307(5) Uani d 1
N N4 0.8022(5) 0.9232(4) 0.7220(4) 0.0681(9) Uani d 1
C C1 0.8486(4) 0.8816(3) 0.3425(3) 0.0389(6) Uani d 1
H H1 0.9105 0.9066 0.4017 0.047 Uiso calc 1
C C2 0.9067(4) 0.9073(4) 0.2063(3) 0.0469(7) Uani d 1
H H2 1.0081 0.9469 0.1749 0.056 Uiso calc 1
C C3 0.8137(5) 0.8740(4) 0.1178(3) 0.0482(8) Uani d 1
H H3 0.8497 0.8921 0.0252 0.058 Uiso calc 1
C C4 0.6647(4) 0.8127(4) 0.1683(3) 0.0412(7) Uani d 1
H H4 0.5993 0.7893 0.1099 0.049 Uiso calc 1
C C5 0.6154(4) 0.7873(3) 0.3057(3) 0.0292(5) Uani d 1
C C6 0.4578(4) 0.7179(3) 0.3682(3) 0.0290(5) Uani d 1
C C7 0.3023(3) 0.6442(3) 0.5876(2) 0.0272(5) Uani d 1
C C8 0.3054(3) 0.6505(3) 0.7324(3) 0.0282(5) Uani d 1
C C9 0.1851(4) 0.5971(4) 0.8342(3) 0.0393(7) Uani d 1
H H9 0.0998 0.5531 0.8169 0.047 Uiso calc 1
C C10 0.1937(5) 0.6103(4) 0.9639(3) 0.0472(8) Uani d 1
H H10 0.1146 0.5743 1.0351 0.057 Uiso calc 1
C C11 0.3190(5) 0.6764(4) 0.9862(3) 0.0464(7) Uani d 1
H H11 0.3251 0.6872 1.0720 0.056 Uiso calc 1
C C12 0.4364(4) 0.7267(4) 0.8794(3) 0.0406(7) Uani d 1
H H12 0.5226 0.7708 0.8951 0.049 Uiso calc 1
loop_
_atom_site_aniso_label
_atom_site_aniso_U_11
_atom_site_aniso_U_22
_atom_site_aniso_U_33
_atom_site_aniso_U_12
_atom_site_aniso_U_13
_atom_site_aniso_U_23
Cu1 0.03311(19) 0.0386(2) 0.02796(18) -0.02132(14) 0.00155(12) -0.01537(14)
O1 0.0497(12) 0.0635(14) 0.0279(9) -0.0377(11) 0.0067(8) -0.0220(9)
O2 0.0373(10) 0.0574(13) 0.0318(10) -0.0322(9) 0.0083(8) -0.0207(9)
O3 0.0336(10) 0.0439(11) 0.0385(10) -0.0230(9) 0.0060(8) -0.0205(9)
C13 0.0397(15) 0.0413(17) 0.0487(17) -0.0184(13) -0.0020(13) -0.0207(14)
N1 0.0321(11) 0.0361(12) 0.0316(11) -0.0191(10) 0.0009(9) -0.0102(10)
N2 0.0299(11) 0.0395(13) 0.0217(10) -0.0211(10) 0.0038(8) -0.0121(9)
N3 0.0343(11) 0.0398(13) 0.0252(10) -0.0168(10) 0.0006(9) -0.0151(10)
N4 0.0671(19) 0.064(2) 0.095(2) -0.0273(16) -0.0186(17) -0.0428(19)
C1 0.0366(15) 0.0388(16) 0.0443(16) -0.0236(13) -0.0006(12) -0.0076(13)
C2 0.0427(17) 0.0489(19) 0.0485(18) -0.0282(15) 0.0094(14) -0.0066(15)
C3 0.0539(19) 0.058(2) 0.0387(16) -0.0326(16) 0.0184(14) -0.0150(15)
C4 0.0509(17) 0.0522(18) 0.0311(14) -0.0301(15) 0.0103(13) -0.0169(13)
C5 0.0308(13) 0.0333(14) 0.0272(12) -0.0169(11) 0.0026(10) -0.0096(11)
C6 0.0325(13) 0.0367(14) 0.0247(12) -0.0187(11) 0.0016(10) -0.0120(11)
C7 0.0264(12) 0.0361(14) 0.0249(12) -0.0140(11) 0.0019(10) -0.0140(11)
C8 0.0279(12) 0.0351(14) 0.0250(12) -0.0119(11) 0.0007(10) -0.0128(11)
C9 0.0381(15) 0.0572(19) 0.0308(14) -0.0264(14) 0.0064(11) -0.0163(13)
C10 0.0485(18) 0.070(2) 0.0284(14) -0.0267(16) 0.0130(13) -0.0200(15)
C11 0.0535(18) 0.063(2) 0.0285(14) -0.0193(16) 0.0020(13) -0.0232(14)
C12 0.0460(16) 0.0561(19) 0.0347(14) -0.0224(14) 0.0028(12) -0.0280(14)
loop_
_atom_type_symbol
_atom_type_description
_atom_type_scat_dispersion_real
_atom_type_scat_dispersion_imag
_atom_type_scat_source
C C 0.0033 0.0016 'International Tables Vol C Tables 4.2.6.8 and 6.1.1.4'
H H 0.0000 0.0000 'International Tables Vol C Tables 4.2.6.8 and 6.1.1.4'
Cu Cu 0.3201 1.2651 'International Tables Vol C Tables 4.2.6.8 and 6.1.1.4'
N N 0.0061 0.0033 'International Tables Vol C Tables 4.2.6.8 and 6.1.1.4'
O O 0.0106 0.0060 'International Tables Vol C Tables 4.2.6.8 and 6.1.1.4'
loop_
_geom_angle_atom_site_label_1
_geom_angle_atom_site_label_2
_geom_angle_atom_site_label_3
_geom_angle
_geom_angle_publ_flag
C13 Cu1 O3 95.40(10) y
C13 Cu1 N1 99.84(11) y
C13 Cu1 N3 97.04(10) y
N1 Cu1 O3 93.16(8) y
N2 Cu1 O3 94.84(8) y
N2 Cu1 C13 169.60(11) y
N2 Cu1 N1 81.37(8) y
N2 Cu1 N3 80.55(8) y
N3 Cu1 O3 93.37(8) y
N3 Cu1 N1 161.22(8) y
Cu1 O3 H3A 107(2) ?
Cu1 O3 H3B 111(2) ?
H3A O3 H3B 110.3(16) ?
N4 C13 Cu1 174.7(3) ?
C1 N1 Cu1 128.32(19) ?
C5 N1 Cu1 113.39(16) ?
C5 N1 C1 118.3(2) ?
C6 N2 Cu1 117.99(16) ?
C7 N2 Cu1 118.71(15) ?
C7 N2 C6 123.3(2) ?
C8 N3 Cu1 114.11(15) ?
C12 N3 Cu1 127.77(19) ?
C12 N3 C8 118.0(2) ?
N1 C1 H1 118.9 ?
N1 C1 C2 122.2(3) ?
C2 C1 H1 118.9 ?
C1 C2 H2 120.4 ?
C3 C2 C1 119.3(3) ?
C3 C2 H2 120.4 ?
C2 C3 H3 120.4 ?
C2 C3 C4 119.1(3) ?
C4 C3 H3 120.4 ?
C3 C4 H4 120.5 ?
C5 C4 C3 118.9(3) ?
C5 C4 H4 120.5 ?
N1 C5 C4 122.2(2) ?
N1 C5 C6 116.1(2) ?
C4 C5 C6 121.7(2) ?
O1 C6 N2 128.6(2) ?
O1 C6 C5 120.2(2) ?
N2 C6 C5 111.1(2) ?
O2 C7 N2 128.3(2) ?
O2 C7 C8 120.9(2) ?
N2 C7 C8 110.8(2) ?
N3 C8 C7 115.4(2) ?
N3 C8 C9 122.6(2) ?
C9 C8 C7 122.0(2) ?
C8 C9 H9 120.8 ?
C8 C9 C10 118.4(3) ?
C10 C9 H9 120.8 ?
C9 C10 H10 120.2 ?
C11 C10 C9 119.6(3) ?
C11 C10 H10 120.2 ?
C10 C11 H11 120.6 ?
C10 C11 C12 118.9(3) ?
C12 C11 H11 120.6 ?
N3 C12 C11 122.5(3) ?
N3 C12 H12 118.7 ?
C11 C12 H12 118.7 ?
loop_
_geom_bond_atom_site_label_1
_geom_bond_atom_site_label_2
_geom_bond_distance
_geom_bond_publ_flag
Cu1 O3 2.373(2) y
Cu1 C13 1.960(3) y
Cu1 N1 2.030(2) y
Cu1 N2 1.9525(19) y
Cu1 N3 2.025(2) y
O1 C6 1.212(3) ?
O2 C7 1.225(3) ?
O3 H3A 0.842(10) ?
O3 H3B 0.844(10) ?
C13 N4 1.136(4) ?
N1 C1 1.347(3) ?
N1 C5 1.347(3) ?
N2 C6 1.368(3) ?
N2 C7 1.362(3) ?
N3 C8 1.346(3) ?
N3 C12 1.344(3) ?
C1 H1 0.9300 ?
C1 C2 1.378(4) ?
C2 H2 0.9300 ?
C2 C3 1.367(4) ?
C3 H3 0.9300 ?
C3 C4 1.389(4) ?
C4 H4 0.9300 ?
C4 C5 1.374(4) ?
C5 C6 1.510(3) ?
C7 C8 1.509(3) ?
C8 C9 1.372(4) ?
C9 H9 0.9300 ?
C9 C10 1.390(4) ?
C10 H10 0.9300 ?
C10 C11 1.364(4) ?
C11 H11 0.9300 ?
C11 C12 1.378(4) ?
C12 H12 0.9300 ?
loop_
_geom_hbond_atom_site_label_D
_geom_hbond_atom_site_label_H
_geom_hbond_atom_site_label_A
_geom_hbond_site_symmetry_D
_geom_hbond_site_symmetry_H
_geom_hbond_site_symmetry_A
_geom_hbond_distance_DH
_geom_hbond_distance_HA
_geom_hbond_distance_DA
_geom_hbond_angle_DHA
_geom_hbond_publ_flag
O3 H3B O1 1_555 1_555 2_666 0.85(3) 2.15(3) 2.878(3) 144(3) y
O3 H3B O2 1_555 1_555 2_666 0.85(3) 2.37(3) 3.027(3) 135(3) y
O3 H3A O2 1_555 1_555 1_655 0.84(3) 2.05(3) 2.881(3) 169(3) y
loop_
_geom_torsion_atom_site_label_1
_geom_torsion_atom_site_label_2
_geom_torsion_atom_site_label_3
_geom_torsion_atom_site_label_4
_geom_torsion
Cu1 N1 C1 C2 178.0(2)
Cu1 N1 C5 C4 -179.3(2)
Cu1 N1 C5 C6 0.2(3)
Cu1 N2 C6 O1 178.0(2)
Cu1 N2 C6 C5 -0.8(3)
Cu1 N2 C7 O2 -176.8(2)
Cu1 N2 C7 C8 3.5(3)
Cu1 N3 C8 C7 -5.4(3)
Cu1 N3 C8 C9 175.8(2)
Cu1 N3 C12 C11 -175.7(2)
O2 C7 C8 N3 -178.2(2)
O2 C7 C8 C9 0.5(4)
N1 C1 C2 C3 1.4(5)
N1 C5 C6 O1 -178.5(2)
N1 C5 C6 N2 0.4(3)
N2 C7 C8 N3 1.4(3)
N2 C7 C8 C9 -179.8(2)
N3 C8 C9 C10 0.1(4)
C1 N1 C5 C4 -0.4(4)
C1 N1 C5 C6 179.1(2)
C1 C2 C3 C4 -1.0(5)
C2 C3 C4 C5 -0.1(5)
C3 C4 C5 N1 0.8(5)
C3 C4 C5 C6 -178.7(3)
C4 C5 C6 O1 1.0(4)
C4 C5 C6 N2 179.9(3)
C5 N1 C1 C2 -0.7(4)
C6 N2 C7 O2 2.4(4)
C6 N2 C7 C8 -177.2(2)
C7 N2 C6 O1 -1.3(4)
C7 N2 C6 C5 179.9(2)
C7 C8 C9 C10 -178.5(3)
C8 N3 C12 C11 0.0(4)
C8 C9 C10 C11 0.5(5)
C9 C10 C11 C12 -0.9(5)
C10 C11 C12 N3 0.6(5)
C12 N3 C8 C7 178.3(2)
C12 N3 C8 C9 -0.4(4)
loop_
_refln_index_h
_refln_index_k
_refln_index_l
_refln_F_squared_meas
-1 0 0 1557.38
-2 0 0 319.83
-3 0 0 3.37
3 0 0 2.96
4 0 0 433.92
-4 0 0 422.65
-5 0 0 242.74
5 0 0 246.57
6 0 0 11.88
7 0 0 25.25
7 0 0 23.64
8 0 0 6.97
8 -1 0 39.85
7 -1 0 94.2
6 -1 0 18.28
6 -1 0 19.41
-5 1 0 36.46
-4 1 0 0.21
-3 1 0 181.16
-2 1 0 6.06
-1 1 0 157.46
0 -1 0 84.98
-1 -1 0 48.37
-2 -1 0 95.5
2 1 0 92.44
-3 -1 0 12.9
3 1 0 14.23
-4 -1 0 -0.22
4 1 0 0.1
-5 -1 0 20.6
5 1 0 21.56
6 1 0 192.33
6 1 0 190.61
7 1 0 125.01
7 1 0 118.55
8 1 0 10.77
7 -2 0 0.01
6 -2 0 59.17
6 -2 0 52.9
5 -2 0 87.78
4 -2 0 45.56
3 -2 0 219.86
2 -2 0 458.93
1 -2 0 9997.76
0 2 0 1962.39
0 -2 0 2071.91
-1 -2 0 29.17
1 2 0 26.95
1 2 0 27.73
-2 -2 0 83.46
2 2 0 82.19
2 2 0 80.27
3 2 0 746.65
3 2 0 741.42
-3 -2 0 768.91
4 2 0 501.82
4 2 0 508.29
-4 -2 0 531.78
5 2 0 87.07
5 2 0 88.95
-5 -2 0 89.49
6 2 0 126.07
6 2 0 122.15
7 2 0 43.11
8 2 0 12.27
9 2 0 45.33
7 -3 0 14.67
7 -3 0 14.95
6 -3 0 36.05
5 -3 0 3.62
4 -3 0 39.77
3 -3 0 10.69
2 -3 0 343.87
1 -3 0 260.06
0 -3 0 11.23
0 3 0 13.31
1 3 0 2.54
1 3 0 1.86
-1 -3 0 2.93
2 3 0 203.31
2 3 0 206.57
-2 -3 0 204.34
3 3 0 60.98
-3 -3 0 61.85
3 3 0 65.15
-4 -3 0 14.94
4 3 0 15.44
4 3 0 14.94
5 3 0 107.85
5 3 0 110.92
6 3 0 215.3
6 3 0 220.19
7 3 0 62.2
8 3 0 1.79
9 3 0 0.56
7 -4 0 5.29
6 -4 0 17.17
5 -4 0 48.13
4 -4 0 69.72
3 -4 0 41.81
2 -4 0 1489.37
1 -4 0 1249.31
0 -4 0 33.51
0 4 0 32.52
1 4 0 76.1
1 4 0 76.93
-1 -4 0 76.23
2 4 0 169.02
-2 -4 0 177.36
2 4 0 171.6
-3 -4 0 614.22
3 4 0 645.71
3 4 0 627.52
4 4 0 191.55
4 4 0 200.24
-4 -4 0 195.96
5 4 0 212.98
5 4 0 200.92
6 4 0 196.66
6 4 0 198.43
7 4 0 0.04
8 4 0 102.42
9 4 0 9.9
6 -5 0 5.48
5 -5 0 1.08
4 -5 0 6.65
3 -5 0 122.5
2 -5 0 167.45
1 -5 0 27.87
0 5 0 1.22
0 -5 0 0.89
1 5 0 213.65
-1 -5 0 217.64
1 5 0 212.43
2 5 0 83.94
-2 -5 0 87.12
2 5 0 78.02
3 5 0 5.86
-3 -5 0 7.33
3 5 0 9.94
4 5 0 4.36
-4 -5 0 4.26
4 5 0 4.19
5 5 0 216.22
5 5 0 218.6
6 5 0 74.78
7 5 0 21.17
8 5 0 15.54
9 5 0 5.98
5 -6 0 17.45
4 -6 0 1.16
3 -6 0 145.74
2 -6 0 334.96
1 -6 0 27.47
0 -6 0 67.77
-1 -6 0 -0.18
1 6 0 1.21
2 6 0 328.58
-2 -6 0 319.56
2 6 0 326.92
3 6 0 115.15
-3 -6 0 112.52
3 6 0 113.39
4 6 0 197.57
4 6 0 181.76
-4 -6 0 190.93
5 6 0 421.73
5 6 0 419.94
6 6 0 10.41
7 6 0 86.72
8 6 0 6.68
5 -7 0 2.54
4 -7 0 17.31
3 -7 0 73.53
2 -7 0 38.94
1 -7 0 -0.33
0 -7 0 38.11
-1 -7 0 48.64
1 7 0 52.08
2 7 0 67.67
-2 -7 0 66.41
2 7 0 64.75
3 7 0 -0.07
3 7 0 3.04
-3 -7 0 1.22
4 7 0 78.44
4 7 0 76.42
5 7 0 16.96
5 7 0 17.41
6 7 0 43.66
7 7 0 59.23
8 7 0 2.34
4 -8 0 11.96
3 -8 0 46.86
2 -8 0 9.49
1 -8 0 39.61
0 -8 0 14.1
-1 -8 0 45.01
1 8 0 46.82
2 8 0 19.15
-2 -8 0 22.57
2 8 0 22.1
3 8 0 129.79
-3 -8 0 121.04
3 8 0 128.98
4 8 0 329.86
4 8 0 331.68
5 8 0 25.11
6 8 0 12.32
7 8 0 2.3
8 8 0 30.4
2 -9 0 1.24
1 -9 0 -1.46
0 -9 0 18.9
-1 -9 0 37.44
2 9 0 1.93
-2 -9 0 1.32
3 9 0 2.96
-3 -9 0 0.63
4 9 0 -0.09
4 9 0 -1.61
5 9 0 34.93
6 9 0 54.27
7 9 0 -0.54
1 -10 0 7.13
0 -10 0 -1.82
-1 -10 0 0.69
-2 -10 0 45.86
3 10 0 99.13
4 10 0 36.68
5 10 0 1.37
6 10 0 0.07
-1 -11 0 4.16
-2 -11 0 3.64
3 11 0 0.44
-2 -11 1 43.55
6 10 -1 11.99
5 10 -1 -2.06
-2 -10 1 21.56
-1 -10 1 3.73
0 -10 1 1.15
7 9 -1 21.24
6 9 -1 45.59
5 9 -1 43.28
4 9 -1 8.77
3 9 -1 79.93
-3 -9 1 76.3
3 9 -1 80.9
-2 -9 1 70.52
-1 -9 1 16.22
0 -9 1 -1.53
1 -9 1 2.69
2 -9 1 2.2
7 8 -1 0.96
6 8 -1 6.35
5 8 -1 2.3
4 8 -1 147.7
-3 -8 1 116.92
3 8 -1 114.33
3 8 -1 118.73
2 8 -1 0.54
-2 -8 1 3.64
-1 -8 1 4.35
0 -8 1 27.12
1 -8 1 25.92
2 -8 1 0.16
3 -8 1 -1.42
8 7 -1 18.56
7 7 -1 71.44
6 7 -1 70.65
5 7 -1 3.27
4 7 -1 80.58
-4 -7 1 79.34
4 7 -1 85.67
3 7 -1 182.08
-3 -7 1 190.72
3 7 -1 189.29
2 7 -1 61.27
2 7 -1 63.07
-1 -7 1 6.45
0 -7 1 1.06
1 -7 1 21.98
2 -7 1 15.04
3 -7 1 31.1
4 -7 1 44.86
8 6 -1 2.52
7 6 -1 28.01
6 6 -1 3.47
5 6 -1 164.45
4 6 -1 378.47
-4 -6 1 383.81
4 6 -1 405.75
-3 -6 1 108.71
3 6 -1 116.07
3 6 -1 117.14
2 6 -1 7.86
-2 -6 1 9.62
2 6 -1 4.92
-1 -6 1 23.2
0 -6 1 79.16
1 -6 1 35.8
2 -6 1 0.42
3 -6 1 10.95
4 -6 1 0.93
5 -6 1 10.33
8 5 -1 37.43
7 5 -1 78.31
6 5 -1 39.46
5 5 -1 50.37
4 5 -1 138.08
4 5 -1 140.68
-4 -5 1 139.46
3 5 -1 118.56
-3 -5 1 114.91
3 5 -1 117.51
-2 -5 1 65.46
2 5 -1 62.99
2 5 -1 64.23
-1 -5 1 2.72
1 5 -1 1.96
0 -5 1 23.09
1 -5 1 1.67
2 -5 1 121.87
3 -5 1 226.47
4 -5 1 3.06
5 -5 1 1.23
6 -5 1 3.42
9 4 -1 19.6
8 4 -1 25.58
7 4 -1 39.21
6 4 -1 69.57
5 4 -1 647.39
5 4 -1 663.68
-4 -4 1 302.12
4 4 -1 312.54
4 4 -1 309.4
-3 -4 1 0.05
3 4 -1 0.2
3 4 -1 -0.42
2 4 -1 4.48
-2 -4 1 5.54
2 4 -1 4.85
1 4 -1 166.83
-1 -4 1 163.82
1 4 -1 163.52
0 -4 1 243.27
1 -4 1 2.65
2 -4 1 214.54
3 -4 1 15.12
4 -4 1 74.3
5 -4 1 15.23
6 -4 1 4.33
9 3 -1 10.89
8 3 -1 54.04
7 3 -1 36.64
6 3 -1 2.16
5 3 -1 6.48
-5 -3 1 4.77
5 3 -1 4.92
4 3 -1 166.33
-4 -3 1 169.12
4 3 -1 158.28
3 3 -1 91.36
-3 -3 1 91.73
3 3 -1 93.18
2 3 -1 30.15
2 3 -1 31.95
-2 -3 1 29.79
-1 -3 1 31.14
1 3 -1 31.81
1 3 -1 32.91
0 -3 1 35.29
1 -3 1 297.75
2 -3 1 599.22
3 -3 1 60.96
4 -3 1 1.69
5 -3 1 1.53
6 -3 1 28.09
7 -3 1 19.3
8 2 -1 63.69
7 2 -1 14.21
6 2 -1 404.25
5 2 -1 263.98
-5 -2 1 271.71
5 2 -1 272.54
4 2 -1 58.77
-4 -2 1 58.94
4 2 -1 59.97
3 2 -1 52.24
3 2 -1 56.57
-3 -2 1 53.76
2 2 -1 163.3
-2 -2 1 155.59
1 2 -1 326.41
1 2 -1 351.47
-1 -2 1 344.75
0 -2 1 8.76
1 -2 1 1240.4
2 -2 1 195.68
3 -2 1 145.05
4 -2 1 42.26
5 -2 1 69.33
6 -2 1 13.69
6 -2 1 16.35
7 -2 1 5.64
8 1 -1 10.63
7 1 -1 14.53
6 1 -1 13.43
6 1 -1 12.7
5 1 -1 82.35
5 1 -1 82.51
-5 -1 1 80.19
-4 -1 1 19.63
4 1 -1 22.18
4 1 -1 19.85
3 1 -1 25.62
3 1 -1 24.98
-3 -1 1 25.75
-2 -1 1 486.39
2 1 -1 450.04
-1 -1 1 96.31
1 1 -1 98.75
0 -1 1 165.71
1 -1 1 537.17
2 -1 1 444.59
3 -1 1 54.03
4 -1 1 11.94
5 -1 1 25.64
5 -1 1 25.89
6 -1 1 73.98
6 -1 1 75.09
7 -1 1 62.67
8 -1 1 35.57
8 0 -1 0.68
7 0 -1 95.14
6 0 -1 136.24
6 0 -1 136.85
-6 0 1 140.13
5 0 -1 105.67
-5 0 1 101.57
5 0 -1 96.75
-4 0 1 19.45
4 0 -1 18.69
4 0 -1 19.99
3 0 -1 0.31
-3 0 1 0.81
-2 0 1 108.49
2 0 -1 105.28
-1 0 1 246.94
0 0 1 1408.07
1 0 1 1030.88
1 0 1 1030.67
2 0 1 12.36
2 0 1 11.56
3 0 1 102.63
3 0 1 102.78
4 0 1 291.89
4 0 1 295.62
5 0 1 75.15
5 0 1 78.63
6 0 1 -0.96
6 0 1 0.01
7 0 1 2.4
8 0 1 11.84
7 -1 -1 15.19
7 -1 -1 13.15
6 -1 -1 1.31
-6 1 1 -0.04
6 -1 -1 1.27
-5 1 1 0.03
-4 1 1 7.1
-3 1 1 365.3
-2 1 1 127.12
-1 1 1 5.55
0 1 1 102.41
2 1 1 110.78
-3 -1 -1 337.13
3 1 1 347.35
4 1 1 0.18
-4 -1 -1 0.58
-5 -1 -1 211.26
5 1 1 210.01
6 1 1 133.96
7 1 1 130.85
8 1 1 29.65
8 1 1 31.88
7 -2 -1 42.6
7 -2 -1 42.67
-6 2 1 37.09
-5 2 1 10.65
-4 2 1 51.6
-3 2 1 23.38
-2 2 1 315.44
-1 2 1 277.33
-1 2 1 278.04
0 2 1 1763.24
0 2 1 1810.56
-1 -2 -1 144.76
1 2 1 146.67
2 2 1 232.02
-2 -2 -1 235.43
3 2 1 257.53
-3 -2 -1 253.72
4 2 1 263.03
-4 -2 -1 257.82
5 2 1 80.45
6 2 1 -0.96
7 2 1 12.56
7 2 1 10.02
8 2 1 4.1
7 -3 -1 5.33
7 -3 -1 6.38
6 -3 -1 -0.43
5 -3 -1 7.97
-4 3 1 88.87
-3 3 1 155.5
-2 3 1 45.02
-1 3 1 0.73
-1 3 1 0.03
0 -3 -1 102.91
0 3 1 101.79
1 3 1 288.83
1 3 1 288.24
-1 -3 -1 279.29
-2 -3 -1 1097.04
2 3 1 1152.22
2 3 1 1139.63
-3 -3 -1 42.28
3 3 1 42.7
3 3 1 44.61
4 3 1 160.46
4 3 1 166.49
-4 -3 -1 165.14
5 3 1 166.49
5 3 1 160.17
6 3 1 428.26
6 3 1 432.93
7 3 1 113.15
7 3 1 114.08
8 3 1 2.62
9 3 1 7.4
7 -4 -1 3.41
6 -4 -1 8.87
5 -4 -1 41.84
4 -4 -1 -0.49
3 -4 -1 45.76
2 -4 -1 56.25
1 -4 -1 941.68
-1 4 1 901.38
0 -4 -1 196.01
0 4 1 211.72
1 4 1 63.15
-1 -4 -1 60.93
1 4 1 62.33
-2 -4 -1 33.12
2 4 1 32.7
2 4 1 33.13
-3 -4 -1 501
3 4 1 492.52
3 4 1 496.4
4 4 1 215.21
4 4 1 221.3
-4 -4 -1 218.57
5 4 1 16.15
5 4 1 20.01
6 4 1 6.87
6 4 1 6.44
7 4 1 7.68
7 4 1 8.56
8 4 1 53.16
9 4 1 20.42
6 -5 -1 -0.16
5 -5 -1 15.21
4 -5 -1 77.3
3 -5 -1 21.1
2 -5 -1 31.31
1 -5 -1 9.55
0 5 1 293.56
0 -5 -1 293.67
1 5 1 630
-1 -5 -1 633.85
1 5 1 646.03
2 5 1 120.81
2 5 1 123.09
-2 -5 -1 115.23
3 5 1 0.39
-3 -5 -1 -0.53
3 5 1 -0.74
4 5 1 124.18
4 5 1 122.19
5 5 1 554.09
5 5 1 544.8
6 5 1 165.17
6 5 1 170.05
7 5 1 2.39
8 5 1 0.92
9 5 1 25.58
5 -6 -1 5.03
4 -6 -1 0.21
3 -6 -1 18.42
2 -6 -1 198.81
1 -6 -1 125.59
0 -6 -1 9.38
0 6 1 9.42
-1 -6 -1 1.22
1 6 1 1.87
1 6 1 1.51
2 6 1 280.38
-2 -6 -1 288.66
2 6 1 266.98
3 6 1 176.65
-3 -6 -1 181.25
3 6 1 172.97
4 6 1 115.22
4 6 1 114.03
5 6 1 85.63
5 6 1 81.63
6 6 1 3.08
6 6 1 4.05
7 6 1 38.94
8 6 1 52.91
5 -7 -1 15.88
4 -7 -1 1.5
3 -7 -1 36.97
2 -7 -1 22.87
1 -7 -1 74.9
0 7 1 123.09
0 -7 -1 127.51
-1 -7 -1 170.33
1 7 1 158.07
-2 -7 -1 57.7
2 7 1 64.8
2 7 1 55.56
3 7 1 70.7
-3 -7 -1 66.57
3 7 1 59.63
4 7 1 239.32
4 7 1 228.02
5 7 1 134.2
5 7 1 133.65
6 7 1 40.68
6 7 1 41.49
7 7 1 11.28
8 7 1 11.97
4 -8 -1 -0.22
3 -8 -1 17.54
2 -8 -1 50.02
1 -8 -1 22.43
0 -8 -1 0.12
1 8 1 28.65
-1 -8 -1 29.63
2 8 1 91.04
-2 -8 -1 93.7
-3 -8 -1 150.63
3 8 1 150.67
3 8 1 152.82
4 8 1 94.97
4 8 1 93.58
5 8 1 2.82
5 8 1 2.83
6 8 1 4.61
7 8 1 75.32
8 8 1 61.56
3 -9 -1 10.57
2 -9 -1 1.4
1 -9 -1 18.54
0 -9 -1 77.37
1 9 1 49.38
-1 -9 -1 47.14
2 9 1 4.14
-2 -9 -1 2.89
3 9 1 30.86
4 9 1 56.74
4 9 1 58.49
5 9 1 44.78
5 9 1 38.95
6 9 1 25.71
7 9 1 -0.4
1 -10 -1 4.92
0 -10 -1 0.05
-1 -10 -1 27.69
2 10 1 58.36
-2 -10 -1 59.98
3 10 1 55.16
4 10 1 28.79
5 10 1 1.03
6 10 1 56.9
7 10 1 54.95
0 -11 -1 13.89
-1 -11 -1 -0.82
2 11 1 -0.41
3 11 1 10.29
4 11 1 11.9
5 10 -2 8.54
-3 -10 2 5.12
-2 -10 2 5.31
-1 -10 2 10.61
0 -10 2 13.52
6 9 -2 30.37
5 9 -2 0.68
4 9 -2 4.72
-3 -9 2 37.67
-2 -9 2 64.25
-1 -9 2 5.3
0 -9 2 7.8
1 -9 2 6.72
7 8 -2 7.56
6 8 -2 19.71
5 8 -2 33.7
4 8 -2 32.03
-4 -8 2 32.14
-3 -8 2 -0.46
3 8 -2 -0.78
-2 -8 2 4.65
-1 -8 2 67.99
0 -8 2 77.98
1 -8 2 5.44
2 -8 2 0.8
3 -8 2 4.52
8 7 -2 30.02
7 7 -2 58.8
6 7 -2 4.42
5 7 -2 -0.94
4 7 -2 41
-4 -7 2 42.81
-3 -7 2 141.84
3 7 -2 147.38
3 7 -2 151.19
-2 -7 2 58.39
-1 -7 2 0.53
0 -7 2 19.91
1 -7 2 11.42
2 -7 2 12.45
3 -7 2 6.24
4 -7 2 2.65
8 6 -2 -0.85
7 6 -2 15.67
6 6 -2 39.74
5 6 -2 58.98
4 6 -2 61.43
-4 -6 2 64.84
3 6 -2 -0.02
-3 -6 2 0.7
3 6 -2 1.37
-2 -6 2 158.98
2 6 -2 163.15
-1 -6 2 218.44
0 -6 2 93.61
1 -6 2 33.85
2 -6 2 3.87
3 -6 2 25.54
4 -6 2 21.58
5 -6 2 11.99
8 5 -2 61.64
7 5 -2 32.47
6 5 -2 7.53
-5 -5 2 14.67
5 5 -2 12.91
-4 -5 2 112.74
4 5 -2 111.12
3 5 -2 233.37
3 5 -2 230.17
-3 -5 2 228.09
-2 -5 2 39.98
2 5 -2 41.57
2 5 -2 40.96
-1 -5 2 33.61
0 -5 2 0.32
1 -5 2 23.54
2 -5 2 90.62
3 -5 2 3
4 -5 2 0.35
5 -5 2 8.33
6 -5 2 10.44
8 4 -2 2.56
7 4 -2 10.1
6 4 -2 84.82
5 4 -2 179.18
-5 -4 2 187.18
4 4 -2 18.75
-4 -4 2 22.14
3 4 -2 83.35
3 4 -2 80.48
-3 -4 2 85.4
-2 -4 2 488.93
2 4 -2 483.14
2 4 -2 466.97
-1 -4 2 561.48
1 -4 2 3.38
2 -4 2 22.69
3 -4 2 103.24
4 -4 2 73.95
5 -4 2 5.89
6 -4 2 0.11
8 3 -2 42.76
7 3 -2 7.55
6 3 -2 8.29
5 3 -2 27.07
-5 -3 2 27.19
4 3 -2 398.22
-4 -3 2 401.74
4 3 -2 400.38
-3 -3 2 92.01
3 3 -2 87.82
3 3 -2 87.09
2 3 -2 2.86
-2 -3 2 2.93
2 3 -2 3.26
-1 -3 2 250.18
1 3 -2 245.74
0 -3 2 40.54
2 -3 2 4.01
3 -3 2 6.33
4 -3 2 8.4
5 -3 2 38.41
6 -3 2 21.69
6 -3 2 18.83
7 -3 2 8.05
8 2 -2 1.66
7 2 -2 60.23
6 2 -2 120.25
5 2 -2 67.89
-5 -2 2 71.41
4 2 -2 2.67
4 2 -2 2.31
-4 -2 2 1.2
-3 -2 2 646.22
3 2 -2 649.89
2 2 -2 1025.83
-2 -2 2 1065.11
-1 -2 2 232.94
1 2 -2 236.48
1 -2 2 12.34
2 -2 2 316.68
3 -2 2 176.79
4 -2 2 77.51
5 -2 2 49.68
6 -2 2 -2.44
6 -2 2 -0.68
7 -2 2 22.75
8 1 -2 9.9
7 1 -2 41.34
6 1 -2 2.57
-6 -1 2 2.42
5 1 -2 169.89
5 1 -2 160.21
-5 -1 2 164.05
4 1 -2 60.74
4 1 -2 61.84
-4 -1 2 59.11
-3 -1 2 133.95
3 1 -2 135.26
2 1 -2 782.27
-2 -1 2 809.61
1 1 -2 27.9
-1 -1 2 25.82
0 -1 2 586.7
1 -1 2 2.61
2 -1 2 97.61
3 -1 2 1.2
4 -1 2 54.81
4 -1 2 56.1
5 -1 2 39.63
5 -1 2 40.04
6 -1 2 55.38
6 -1 2 57.29
7 -1 2 6.57
8 -1 2 -0.01
8 0 -2 10.89
7 0 -2 29.85
-6 0 2 83.1
6 0 -2 85.88
-5 0 2 33.63
5 0 -2 31.58
5 0 -2 32.9
-4 0 2 278.52
4 0 -2 268.74
4 0 -2 268.06
-3 0 2 472.08
3 0 -2 478.04
2 0 -2 319.79
-2 0 2 324.15
1 0 -2 1010.07
-1 0 2 1139.38
0 0 2 42.88
1 0 2 303.84
1 0 2 304.12
2 0 2 182.91
2 0 2 189.02
3 0 2 488
3 0 2 495.68
4 0 2 208.18
4 0 2 212.47
5 0 2 22.26
5 0 2 16.29
6 0 2 19.96
7 0 2 25.38
8 0 2 3.96
7 -1 -2 -0.17
-6 1 2 6.54
6 -1 -2 10.52
6 -1 -2 12.88
-5 1 2 34.25
5 -1 -2 34.74
4 -1 -2 242.16
-4 1 2 254.96
-3 1 2 484.55
3 -1 -2 487.34
2 -1 -2 35.52
-2 1 2 36.71
-1 1 2 287.13
0 1 2 21.42
1 1 2 40.2
1 1 2 41.08
2 1 2 101.65
2 1 2 105.66
3 1 2 -0.36
3 1 2 0.24
4 1 2 80.67
4 1 2 80.02
5 1 2 141.95
5 1 2 135.32
6 1 2 43.67
7 1 2 13.34
8 1 2 1.46
-7 2 2 35.49
6 -2 -2 18.02
-6 2 2 13.13
5 -2 -2 15.05
-5 2 2 16.86
-4 2 2 77.68
4 -2 -2 84.1
-3 2 2 226.58
3 -2 -2 230.09
-2 2 2 453.89
2 -2 -2 440.68
-1 2 2 0.94
-1 2 2 0.68
0 2 2 0.56
0 2 2 0.33
1 2 2 153.24
1 2 2 152.75
2 2 2 985.36
3 2 2 341.69
3 2 2 362.35
4 2 2 237.41
4 2 2 251.63
5 2 2 2.4
6 2 2 60.06
7 2 2 0.75
8 2 2 7.02
7 -3 -2 0.86
-6 3 2 7.4
-5 3 2 88.41
-4 3 2 195.24
-3 3 2 125.52
-2 3 2 58.54
-1 3 2 30.85
-1 3 2 30.12
0 3 2 3.85
0 3 2 2.58
1 3 2 610.04
1 3 2 603.41
-2 -3 -2 36.58
2 3 2 41.88
3 3 2 85.08
4 3 2 57.74
5 3 2 173.67
6 3 2 107.06
7 3 2 -0.42
8 3 2 27.07
8 3 2 24.73
9 3 2 20.68
7 -4 -2 6.6
6 -4 -2 1.31
-5 4 2 8.04
-4 4 2 42.56
-3 4 2 62.47
-2 4 2 78.64
-1 4 2 44.2
-1 4 2 45.68
0 4 2 37.14
0 4 2 41.98
-1 -4 -2 322.04
1 4 2 336.1
1 4 2 325.51
2 4 2 420.81
-2 -4 -2 413.3
2 4 2 403.04
3 4 2 729.71
3 4 2 694.44
-3 -4 -2 717.54
4 4 2 7.36
5 4 2 42.69
6 4 2 7.25
6 4 2 7.36
7 4 2 23.55
7 4 2 26.27
8 4 2 48.49
8 4 2 47.21
9 4 2 11.98
6 -5 -2 13.78
5 -5 -2 69.48
4 -5 -2 56.49
3 -5 -2 2.09
-3 5 2 2.57
2 -5 -2 -1.04
-2 5 2 0.65
1 -5 -2 0.33
-1 5 2 0.59
0 -5 -2 506.75
0 5 2 501.31
-1 -5 -2 41.75
1 5 2 42.28
1 5 2 41.32
-2 -5 -2 0.46
2 5 2 -0.23
2 5 2 0.12
3 5 2 2.86
-3 -5 -2 2.31
3 5 2 2.98
4 5 2 340.08
4 5 2 349.42
5 5 2 169.35
5 5 2 178.71
6 5 2 0.56
6 5 2 2.44
7 5 2 1.17
7 5 2 0.75
8 5 2 26.34
9 5 2 58.61
6 -6 -2 -0.39
5 -6 -2 1.12
4 -6 -2 5.57
3 -6 -2 47.22
2 -6 -2 21.5
1 -6 -2 5.27
-1 6 2 3.32
0 -6 -2 15.42
0 6 2 15.15
1 6 2 274.97
1 6 2 273.35
-1 -6 -2 277.53
2 6 2 461.65
2 6 2 450.39
-2 -6 -2 450.29
3 6 2 68.73
-3 -6 -2 67.75
3 6 2 71.14
4 6 2 0.91
4 6 2 1.8
5 6 2 15
5 6 2 14.76
6 6 2 17.61
6 6 2 13.84
7 6 2 77.4
7 6 2 73.45
8 6 2 76.3
9 6 2 35.67
5 -7 -2 8.05
4 -7 -2 0.78
3 -7 -2 8.01
2 -7 -2 -0.45
1 -7 -2 96.75
0 7 2 43.14
0 -7 -2 36.9
1 7 2 66.19
-1 -7 -2 70.07
2 7 2 21.64
-2 -7 -2 24.14
2 7 2 22.1
3 7 2 186.54
-3 -7 -2 190.07
3 7 2 192.53
4 7 2 95.33
4 7 2 91.71
5 7 2 18.12
5 7 2 15.32
6 7 2 9.24
6 7 2 11.91
7 7 2 19.12
7 7 2 20.16
8 7 2 40.44
4 -8 -2 6.03
3 -8 -2 5.35
2 -8 -2 20.53
1 -8 -2 0.94
0 8 2 68.64
0 -8 -2 63.23
1 8 2 108.2
-1 -8 -2 109.27
2 8 2 106.54
-2 -8 -2 114.2
3 8 2 20.74
3 8 2 21.36
4 8 2 11.41
4 8 2 10.72
5 8 2 3.19
5 8 2 2.01
6 8 2 74.23
6 8 2 73.88
7 8 2 145.19
8 8 2 67.02
3 -9 -2 -0.8
2 -9 -2 5.5
1 -9 -2 30.88
0 9 2 41.98
0 -9 -2 45.12
1 9 2 18.28
-1 -9 -2 19.99
-2 -9 -2 20.41
2 9 2 19.33
3 9 2 27.46
4 9 2 18.14
5 9 2 20.22
5 9 2 20.78
6 9 2 0.28
6 9 2 -0.86
7 9 2 9.63
8 9 2 45.59
2 -10 -2 0.32
1 -10 -2 3.18
0 -10 -2 13.08
1 10 2 51.55
-1 -10 -2 46.79
2 10 2 16.83
-2 -10 -2 15.57
3 10 2 15.98
4 10 2 24.13
5 10 2 48.27
6 10 2 117.45
7 10 2 61.91
0 -11 -2 11.04
1 11 2 0.59
-1 -11 -2 1.48
2 11 2 7.13
3 11 2 2.02
4 11 2 17.42
5 11 2 11.79
3 12 2 16.07
-3 -10 3 -0.36
-2 -10 3 5.29
6 9 -3 -1.14
5 9 -3 9.32
4 9 -3 33.94
-3 -9 3 30.44
-2 -9 3 16.77
-1 -9 3 2.18
0 -9 3 10.68
1 -9 3 20.03
7 8 -3 17.63
6 8 -3 64.45
5 8 -3 30.26
4 8 -3 11.11
-4 -8 3 10.63
-3 -8 3 -1.71
-2 -8 3 63.58
-1 -8 3 56.02
0 -8 3 17.51
1 -8 3 5.85
2 -8 3 0.64
7 7 -3 6.93
6 7 -3 -0.11
5 7 -3 60.67
4 7 -3 87.32
-4 -7 3 86.48
3 7 -3 42.02
-3 -7 3 45.35
-2 -7 3 6.95
-1 -7 3 7.84
0 -7 3 81.54
1 -7 3 29.83
2 -7 3 2.66
3 -7 3 4.32
8 6 -3 12.98
7 6 -3 83.14
6 6 -3 55.88
5 6 -3 60.4
-4 -6 3 41.57
4 6 -3 43.03
-3 -6 3 104.95
3 6 -3 113
-2 -6 3 143.5
-1 -6 3 61.76
0 -6 3 127.34
1 -6 3 0.86
2 -6 3 57.65
3 -6 3 22.97
4 -6 3 6.59
8 5 -3 26.23
7 5 -3 25.88
6 5 -3 55.62
-5 -5 3 71.03
5 5 -3 73.43
4 5 -3 65.21
-4 -5 3 66.89
3 5 -3 98.83
-3 -5 3 107.58
2 5 -3 0.66
-2 -5 3 3.34
-1 -5 3 126.34
0 -5 3 50.17
1 -5 3 52.07
2 -5 3 53.35
3 -5 3 1.03
4 -5 3 7.87
5 -5 3 14.9
8 4 -3 31.94
7 4 -3 49.56
6 4 -3 144.28
5 4 -3 107.94
-5 -4 3 111.11
-4 -4 3 67.21
4 4 -3 67.01
3 4 -3 111.11
-3 -4 3 112.6
2 4 -3 176.2
-2 -4 3 183.04
-1 -4 3 724.58
0 -4 3 37.21
1 -4 3 101.64
2 -4 3 84.26
3 -4 3 48.78
4 -4 3 24.05
5 -4 3 1.62
6 -4 3 2.64
6 -4 3 1.55
8 3 -3 37.04
7 3 -3 16.34
6 3 -3 11.96
5 3 -3 69.19
-5 -3 3 70.32
4 3 -3 248.3
-4 -3 3 239.33
-3 -3 3 1.82
3 3 -3 0.73
2 3 -3 35.39
-2 -3 3 33.92
-1 -3 3 20.12
0 -3 3 253.78
1 -3 3 210.49
2 -3 3 8.06
3 -3 3 -0.36
4 -3 3 33.42
5 -3 3 98.7
6 -3 3 34.26
6 -3 3 35.53
8 2 -3 30.6
7 2 -3 114.98
6 2 -3 90.6
-6 -2 3 94.81
5 2 -3 -0.3
-5 -2 3 -0.65
-4 -2 3 31.55
4 2 -3 32.9
3 2 -3 249.53
-3 -2 3 246.91
2 2 -3 1320.39
-2 -2 3 1281.12
-1 -2 3 400.68
1 2 -3 394.67
0 -2 3 75.49
1 -2 3 235.8
2 -2 3 78.42
3 -2 3 72.68
4 -2 3 70.52
5 -2 3 0.89
5 -2 3 2.35
6 -2 3 2.7
6 -2 3 1.4
7 -2 3 10.87
8 1 -3 -1.08
7 1 -3 2.1
-6 -1 3 33.52
6 1 -3 35.61
5 1 -3 148.82
-5 -1 3 140.15
4 1 -3 43.22
-4 -1 3 44.27
3 1 -3 31.99
-3 -1 3 31.32
2 1 -3 3.7
-2 -1 3 2.07
1 1 -3 343.14
-1 -1 3 355.62
0 -1 3 314.39
1 -1 3 264.39
2 -1 3 33.3
3 -1 3 22.17
3 -1 3 22.87
4 -1 3 239.9
4 -1 3 230.35
5 -1 3 201.51
5 -1 3 215.4
6 -1 3 56.33
7 -1 3 1.29
8 0 -3 34.04
7 0 -3 51.24
6 0 -3 35.03
-6 0 3 30.33
-5 0 3 1.54
5 0 -3 3.2
4 0 -3 63.05
-4 0 3 62.8
4 0 -3 61.38
3 0 -3 874.71
-3 0 3 898.67
2 0 -3 1227.38
-2 0 3 1227.18
-1 0 3 49.84
1 0 -3 49.82
0 0 3 305.06
0 0 3 290.74
1 0 3 1.78
1 0 3 0.75
2 0 3 216.54
2 0 3 225.59
3 0 3 438.48
3 0 3 431.23
4 0 3 0.4
4 0 3 0.12
5 0 3 3.45
5 0 3 3.89
6 0 3 7.95
7 0 3 91.62
8 0 3 2.21
-7 1 3 1.11
7 -1 -3 2.81
-6 1 3 41.26
6 -1 -3 36.09
5 -1 -3 90.41
-5 1 3 84.23
4 -1 -3 75.76
-4 1 3 73.32
3 -1 -3 12.17
-3 1 3 8.18
2 -1 -3 56.22
-2 1 3 55.17
-1 1 3 421.31
1 -1 -3 409.95
0 1 3 696.44
0 1 3 707.1
1 1 3 90.75
1 1 3 90.03
2 1 3 83.53
2 1 3 84.15
3 1 3 320.37
3 1 3 327.74
4 1 3 852.71
4 1 3 895
5 1 3 170.8
5 1 3 184.62
6 1 3 8.64
7 1 3 21.13
8 1 3 51.19
-7 2 3 24.44
-6 2 3 2.49
-5 2 3 -1.1
5 -2 -3 0.65
4 -2 -3 316.64
-4 2 3 322.01
-3 2 3 832.06
3 -2 -3 812.43
-2 2 3 6.22
2 -2 -3 8.46
-2 2 3 5.5
-1 2 3 9.25
1 -2 -3 8.52
-1 2 3 10.5
0 2 3 96.96
0 2 3 96.75
1 2 3 428.25
1 2 3 431.87
2 2 3 650.82
2 2 3 647.23
3 2 3 52.03
3 2 3 49.25
4 2 3 193.79
4 2 3 191.35
5 2 3 0.01
6 2 3 232.86
7 2 3 19.96
8 2 3 2.3
-7 3 3 3.88
-6 3 3 37.64
-5 3 3 32.83
-4 3 3 59.73
4 -3 -3 54.04
-3 3 3 -0.2
3 -3 -3 0.3
-2 3 3 262.68
-2 3 3 267.42
2 -3 -3 262.36
-1 3 3 282.06
-1 3 3 274.79
0 3 3 180.55
0 3 3 181.88
1 3 3 637.13
1 3 3 643.55
2 3 3 259.18
2 3 3 262.98
3 3 3 1376.63
4 3 3 299.25
5 3 3 143.69
6 3 3 6.91
7 3 3 119.3
8 3 3 29.27
7 -4 -3 12.61
-7 4 3 11.08
-6 4 3 2.86
-5 4 3 62.82
-4 4 3 174.57
-3 4 3 14.52
-2 4 3 57.83
-2 4 3 53.82
-1 4 3 29.12
-1 4 3 28.51
0 4 3 169.06
0 4 3 164.47
1 4 3 257.96
1 4 3 269.41
2 4 3 378.33
2 4 3 375.58
3 4 3 527.41
4 4 3 47.38
5 4 3 191.08
6 4 3 85.99
7 4 3 8.54
8 4 3 20.19
9 4 3 -1.57
6 -5 -3 10.17
-5 5 3 42.9
-4 5 3 3.53
-3 5 3 34.88
-2 5 3 38.12
-1 5 3 185.13
-1 5 3 200.82
0 5 3 401.08
0 5 3 419.29
1 5 3 21.32
1 5 3 19.87
1 5 3 21.09
-2 -5 -3 477.7
2 5 3 474.99
2 5 3 472.33
3 5 3 296
-3 -5 -3 313.13
4 5 3 348.02
5 5 3 2.65
6 5 3 138.02
7 5 3 30.17
7 5 3 28.87
8 5 3 58.78
8 5 3 52.09
9 5 3 35.41
6 -6 -3 3.32
5 -6 -3 21.19
4 -6 -3 19.62
-3 6 3 34.23
-2 6 3 11.47
-1 6 3 1.56
-1 6 3 1.63
0 -6 -3 69.06
0 6 3 67.64
-1 -6 -3 400.25
1 6 3 415.77
1 6 3 408.1
2 6 3 413.84
-2 -6 -3 416.61
2 6 3 416.45
-3 -6 -3 194.26
3 6 3 195.01
3 6 3 194.23
4 6 3 48.41
4 6 3 43.72
5 6 3 180.43
5 6 3 177.14
6 6 3 19.05
6 6 3 18.5
7 6 3 74.09
7 6 3 72.49
8 6 3 28.89
8 6 3 24.26
5 -7 -3 3.82
4 -7 -3 0.71
3 -7 -3 4.49
2 -7 -3 61.88
-1 7 3 106.85
1 -7 -3 105.36
0 -7 -3 29.3
0 7 3 30.81
-1 -7 -3 39.54
1 7 3 35.45
2 7 3 165.46
-2 -7 -3 175.97
3 7 3 190.72
3 7 3 188.78
4 7 3 34.83
4 7 3 32.97
5 7 3 29.04
5 7 3 28.38
6 7 3 22.04
6 7 3 27.58
7 7 3 34.76
7 7 3 37.84
8 7 3 54.66
4 -8 -3 5.39
3 -8 -3 10.36
2 -8 -3 4.94
-1 8 3 12.95
1 -8 -3 9.25
0 8 3 103.18
0 -8 -3 106.85
-1 -8 -3 199.52
1 8 3 191.01
2 8 3 188.36
-2 -8 -3 189.33
3 8 3 1.81
4 8 3 90.01
4 8 3 87.65
5 8 3 20.67
5 8 3 20.17
6 8 3 133.69
6 8 3 135.32
7 8 3 75.03
7 8 3 73.22
8 8 3 0.46
3 -9 -3 5.42
2 -9 -3 26.6
1 -9 -3 42.52
0 9 3 -1.51
0 -9 -3 -0.48
-1 -9 -3 23.62
1 9 3 29.39
-2 -9 -3 28
2 9 3 28.86
3 9 3 61.05
4 9 3 0.17
5 9 3 10.42
5 9 3 8.55
6 9 3 0.49
6 9 3 3.01
7 9 3 41.48
7 9 3 43.9
8 9 3 37.63
2 -10 -3 -1.21
1 -10 -3 15.44
0 10 3 66.77
0 -10 -3 66.81
1 10 3 60.87
-1 -10 -3 61.12
2 10 3 2.78
3 10 3 4.55
4 10 3 22.4
5 10 3 113.19
6 10 3 64.17
7 10 3 0.84
1 -11 -3 0.36
0 -11 -3 -1.96
-1 -11 -3 0.45
1 11 3 1.05
2 11 3 29.28
3 11 3 2.18
4 11 3 1.65
5 11 3 5.57
6 11 3 16.86
2 12 3 2.33
3 12 3 11.41
4 12 3 33.06
-3 -9 4 10.29
-2 -9 4 2.96
-1 -9 4 0.24
6 8 -4 32.01
5 8 -4 8.92
-4 -8 4 10.11
4 8 -4 9.74
-3 -8 4 -0.9
-2 -8 4 31.88
-1 -8 4 33.99
0 -8 4 -0.13
1 -8 4 0.06
7 7 -4 4.56
6 7 -4 0.67
5 7 -4 74.16
4 7 -4 42.01
-4 -7 4 46.76
-3 -7 4 15.49
-2 -7 4 15.64
-1 -7 4 10.12
0 -7 4 44.82
1 -7 4 35.97
2 -7 4 16.9
3 -7 4 -2.97
7 6 -4 38.95
6 6 -4 25.74
5 6 -4 1.58
-5 -6 4 4.66
-4 -6 4 0.18
4 6 -4 0.65
-3 -6 4 58.85
3 6 -4 63.56
-2 -6 4 111
-1 -6 4 5.75
0 -6 4 0.38
1 -6 4 21.03
2 -6 4 70.92
3 -6 4 15.62
4 -6 4 4.26
8 5 -4 0.35
7 5 -4 1.32
6 5 -4 74.93
5 5 -4 60.4
-5 -5 4 57.73
-4 -5 4 48.98
4 5 -4 47.23
-3 -5 4 133.71
3 5 -4 132.51
-2 -5 4 1.43
-1 -5 4 75.94
0 -5 4 136.41
1 -5 4 168.75
2 -5 4 3.92
3 -5 4 16.99
4 -5 4 18.25
5 -5 4 6.86
8 4 -4 20.66
7 4 -4 46.55
6 4 -4 33.76
5 4 -4 1.49
-5 -4 4 1.06
-4 -4 4 27.87
4 4 -4 22.48
-3 -4 4 170.07
3 4 -4 152.21
2 4 -4 96.14
-2 -4 4 95
-1 -4 4 20.33
0 -4 4 6.53
1 -4 4 170.69
2 -4 4 103.57
3 -4 4 7.5
4 -4 4 1.74
5 -4 4 -0.95
5 -4 4 -0.69
8 3 -4 3.26
7 3 -4 25.25
6 3 -4 46.97
-6 -3 4 46.07
5 3 -4 69.23
-5 -3 4 71.73
4 3 -4 217.98
-4 -3 4 218.99
3 3 -4 45.02
-3 -3 4 46.01
2 3 -4 29.8
-2 -3 4 30.41
-1 -3 4 376.2
0 -3 4 751.21
1 -3 4 85.72
2 -3 4 4.51
3 -3 4 47.21
4 -3 4 46.48
5 -3 4 28.21
5 -3 4 24.81
6 -3 4 13.29
8 2 -4 41.81
7 2 -4 44.34
6 2 -4 5.46
-6 -2 4 2.67
-5 -2 4 2.05
5 2 -4 1.95
-4 -2 4 139.81
4 2 -4 139.24
-3 -2 4 209.49
3 2 -4 207.98
-2 -2 4 56.5
2 2 -4 55.02
-1 -2 4 52.24
0 -2 4 294.92
1 -2 4 305.16
2 -2 4 6.29
3 -2 4 29.81
4 -2 4 26.69
4 -2 4 27.41
5 -2 4 13.84
5 -2 4 13.98
6 -2 4 24.9
7 -2 4 8.34
8 1 -4 1.05
7 1 -4 29.93
-6 -1 4 30.37
6 1 -4 32.42
5 1 -4 157.1
-5 -1 4 156.58
4 1 -4 283.03
-4 -1 4 268.89
-3 -1 4 -0.17
3 1 -4 0.63
2 1 -4 526.64
-1 -1 4 1039.35
-1 -1 4 1082.67
0 -1 4 653.77
1 -1 4 45.52
1 -1 4 47.18
2 -1 4 188.32
2 -1 4 185.2
3 -1 4 88.97
3 -1 4 93.53
4 -1 4 72.33
4 -1 4 71.29
5 -1 4 135.93
5 -1 4 124.63
6 -1 4 5.79
7 -1 4 5.59
7 0 -4 24.04
-6 0 4 15.27
6 0 -4 13.48
-5 0 4 32.39
5 0 -4 32.65
4 0 -4 100.82
-4 0 4 94.08
-3 0 4 161.2
3 0 -4 176.06
2 0 -4 303.27
-2 0 4 301.37
-1 0 4 269.14
0 0 4 211.64
0 0 4 223.81
1 0 4 3.16
1 0 4 3.91
2 0 4 287.18
2 0 4 281.13
3 0 4 133.01
3 0 4 133.94
4 0 4 -0.29
4 0 4 0.4
5 0 4 16.52
5 0 4 15.73
6 0 4 37.52
7 0 4 60.98
8 0 4 -0.49
-7 1 4 1.68
6 -1 -4 58.98
-6 1 4 62.82
-5 1 4 285.71
5 -1 -4 289.63
4 -1 -4 4.76
-4 1 4 4.57
-3 1 4 139.47
3 -1 -4 132.84
2 -1 -4 550.97
-2 1 4 553.69
-2 1 4 552.87
-1 1 4 1631.26
-1 1 4 1679.85
0 1 4 178.74
0 1 4 180.15
1 1 4 318.15
1 1 4 320.05
2 1 4 41.53
2 1 4 44.12
3 1 4 158.45
3 1 4 157.17
4 1 4 494.98
4 1 4 486.29
5 1 4 45.1
6 1 4 -1.13
7 1 4 13.58
8 1 4 70.54
-7 2 4 10.42
-6 2 4 -0.33
-5 2 4 19.18
5 -2 -4 18.89
-4 2 4 183.1
4 -2 -4 189.71
3 -2 -4 204.43
-3 2 4 198.89
-2 2 4 12.22
-2 2 4 12.86
2 -2 -4 11.57
-1 2 4 0.48
-1 2 4 -0.44
0 2 4 1.08
0 2 4 0.63
1 2 4 675.08
1 2 4 651.38
2 2 4 183.4
2 2 4 175.26
3 2 4 158.37
4 2 4 4.28
4 2 4 6.52
5 2 4 104.41
6 2 4 128.86
7 2 4 30.61
8 2 4 -0.33
-7 3 4 8.6
-6 3 4 97.93
-5 3 4 18.19
-4 3 4 -0.08
3 -3 -4 151.59
-3 3 4 154.28
-2 3 4 1003.16
-2 3 4 968.64
2 -3 -4 987.34
-1 3 4 174.54
-1 3 4 182.46
0 3 4 43.82
0 3 4 43.79
1 3 4 9.26
1 3 4 9.52
2 3 4 153.42
2 3 4 162.58
3 3 4 647.39
3 3 4 639.03
4 3 4 258.56
5 3 4 26.61
6 3 4 3.32
7 3 4 118.89
8 3 4 84.69
-7 4 4 6.31
-6 4 4 0.99
-5 4 4 52.39
-4 4 4 49.57
-3 4 4 44.17
-2 4 4 47.63
-2 4 4 44.22
-1 4 4 7.49
-1 4 4 8.02
0 4 4 293.59
0 4 4 301.53
1 4 4 241.27
1 4 4 242.16
2 4 4 685.32
2 4 4 665.74
3 4 4 102.76
3 4 4 104.12
4 4 4 74.66
5 4 4 157.58
6 4 4 184.5
8 4 4 0.33
-6 5 4 20.29
-5 5 4 5.55
-4 5 4 17.75
-3 5 4 178.33
-2 5 4 122.45
-2 5 4 131.52
-1 5 4 15.21
-1 5 4 17.12
0 5 4 1.89
0 5 4 2.24
1 5 4 5.88
1 5 4 5.36
2 5 4 272.73
2 5 4 273.49
3 5 4 547.45
4 5 4 55.69
5 5 4 5.52
6 5 4 53.2
7 5 4 239.2
8 5 4 89.78
6 -6 -4 4.96
-5 6 4 9.35
-4 6 4 46.05
-3 6 4 31.93
-2 6 4 1.11
-2 6 4 0.89
-1 6 4 48.47
-1 6 4 50.23
0 6 4 216.6
0 6 4 216.65
1 6 4 428.27
1 6 4 444.46
-2 -6 -4 221.98
2 6 4 222.98
2 6 4 231.95
3 6 4 -0.7
3 6 4 0.58
4 6 4 134.07
5 6 4 252.51
6 6 4 90.23
7 6 4 34.13
7 6 4 39.49
8 6 4 -0.86
8 6 4 -0.85
5 -7 -4 0.12
4 -7 -4 16.93
-3 7 4 47.1
-2 7 4 17.57
-1 7 4 3.95
-1 7 4 3.25
0 7 4 23.68
0 7 4 27.54
-1 -7 -4 70.66
1 7 4 68.92
2 7 4 320.5
-2 -7 -4 330.23
3 7 4 32.08
3 7 4 32.14
4 7 4 92.81
4 7 4 89.2
5 7 4 0.8
5 7 4 0.7
6 7 4 306.52
6 7 4 297.2
7 7 4 105.26
7 7 4 104.11
8 7 4 25.73
8 7 4 17.93
4 -8 -4 12.16
3 -8 -4 9.61
2 -8 -4 4.55
-1 8 4 64.7
1 -8 -4 67.88
0 8 4 121.65
0 -8 -4 123.19
-1 -8 -4 204.38
1 8 4 208.2
-2 -8 -4 19.71
2 8 4 18.3
3 8 4 51.81
4 8 4 101.45
4 8 4 93.51
5 8 4 184.84
5 8 4 177.78
6 8 4 141.81
6 8 4 136.42
7 8 4 3.06
7 8 4 3.42
8 8 4 36.86
8 8 4 43.9
3 -9 -4 1.53
2 -9 -4 8.05
1 -9 -4 24.98
-1 9 4 27.57
0 9 4 5.82
0 -9 -4 4.46
-1 -9 -4 48.64
1 9 4 54.22
2 9 4 21.03
3 9 4 124.86
4 9 4 22.37
5 9 4 147.47
6 9 4 74.29
6 9 4 75.53
7 9 4 41.47
7 9 4 41.01
8 9 4 21.51
8 9 4 25.41
2 -10 -4 4.2
1 -10 -4 22.91
0 10 4 84.52
0 -10 -4 86.22
-1 -10 -4 14.37
1 10 4 13.77
2 10 4 1.12
3 10 4 8.06
4 10 4 171
5 10 4 140.37
6 10 4 14.92
7 10 4 0.09
7 10 4 5.08
1 -11 -4 -0.02
0 -11 -4 0.24
0 11 4 1.9
1 11 4 8.67
-1 -11 -4 7.47
2 11 4 51.97
3 11 4 31.02
4 11 4 19.69
5 11 4 37.84
6 11 4 27.37
2 12 4 1.47
3 12 4 64.54
4 12 4 68.33
5 8 -5 12.61
-4 -8 5 32.75
-3 -8 5 22.53
-2 -8 5 1.5
-1 -8 5 -1.04
0 -8 5 0.75
6 7 -5 13.52
5 7 -5 66.43
-4 -7 5 37.94
-3 -7 5 9.11
-2 -7 5 1.03
-1 -7 5 6.47
0 -7 5 27.76
1 -7 5 3.65
2 -7 5 0.11
7 6 -5 9.03
6 6 -5 3.6
5 6 -5 12.82
-5 -6 5 17.54
4 6 -5 57.04
-4 -6 5 56.43
-3 -6 5 0.05
-2 -6 5 1.28
-1 -6 5 5.3
0 -6 5 15.4
1 -6 5 29.53
2 -6 5 38.27
3 -6 5 8.38
7 5 -5 17.38
6 5 -5 77.05
5 5 -5 101.97
-5 -5 5 101.39
4 5 -5 0.64
-4 -5 5 -0.42
3 5 -5 -1.04
-3 -5 5 2.31
-2 -5 5 3.87
-1 -5 5 88.01
0 -5 5 68.31
1 -5 5 17.29
2 -5 5 -1
3 -5 5 4.64
4 -5 5 11.39
7 4 -5 0.14
6 4 -5 4.02
-6 -4 5 0.54
-5 -4 5 49.02
5 4 -5 47.4
4 4 -5 -2.2
-4 -4 5 0.97
3 4 -5 -0.94
-3 -4 5 0.2
-2 -4 5 41.54
-1 -4 5 6.94
0 -4 5 36.74
1 -4 5 97.21
2 -4 5 85.89
3 -4 5 0.67
4 -4 5 18.82
4 -4 5 16.45
5 -4 5 4.71
5 -4 5 5.59
7 3 -5 34.56
6 3 -5 161.98
-6 -3 5 157.32
-5 -3 5 15.56
5 3 -5 19.55
4 3 -5 2.87
-4 -3 5 3.55
-3 -3 5 8.88
3 3 -5 10.72
-2 -3 5 191.82
-1 -3 5 368.74
0 -3 5 63.97
1 -3 5 28.54
2 -3 5 1.34
3 -3 5 76.5
4 -3 5 71.97
4 -3 5 67.3
5 -3 5 4.28
5 -3 5 2.8
6 -3 5 -1.41
8 2 -5 4.7
7 2 -5 0.84
-6 -2 5 1.84
6 2 -5 0.94
-5 -2 5 0.21
5 2 -5 0.65
-4 -2 5 1.35
4 2 -5 1.72
-3 -2 5 58.89
3 2 -5 59.5
2 2 -5 15.79
-2 -2 5 17.38
-1 -2 5 1.32
-1 -2 5 1.73
0 -2 5 160.91
0 -2 5 165.33
1 -2 5 233.61
1 -2 5 232.19
2 -2 5 -0.37
2 -2 5 -1.36
3 -2 5 2.51
3 -2 5 2.82
4 -2 5 19.12
4 -2 5 16.65
5 -2 5 25.64
5 -2 5 24.82
6 -2 5 10.23
8 1 -5 10.95
7 1 -5 109.9
6 1 -5 22.86
-6 -1 5 22.11
5 1 -5 0.79
-5 -1 5 0.21
4 1 -5 63
-4 -1 5 65.17
-3 -1 5 189.2
3 1 -5 201.58
2 1 -5 633.43
-2 -1 5 643.04
-1 -1 5 99.36
-1 -1 5 95.6
0 -1 5 358.72
0 -1 5 361.82
1 -1 5 89.85
1 -1 5 84.09
2 -1 5 243.13
2 -1 5 247.63
3 -1 5 245.21
3 -1 5 242.97
4 -1 5 43.28
4 -1 5 47.81
5 -1 5 19.07
6 -1 5 3.42
7 -1 5 21.83
7 0 -5 7.85
-7 0 5 7.26
6 0 -5 0.24
-6 0 5 0.23
-5 0 5 0.09
5 0 -5 0.18
4 0 -5 34.86
-4 0 5 30.83
3 0 -5 184.82
-3 0 5 179.02
-2 0 5 12.35
2 0 -5 13.31
-1 0 5 96.21
-1 0 5 95.12
0 0 5 160.72
0 0 5 154.61
1 0 5 19.63
1 0 5 18.17
2 0 5 19.45
2 0 5 19.02
3 0 5 20.88
3 0 5 17.77
4 0 5 25.86
4 0 5 26.63
5 0 5 28.59
6 0 5 54.36
7 0 5 9.9
-7 1 5 15.34
-6 1 5 2.95
6 -1 -5 5.14
-5 1 5 36.8
5 -1 -5 35.13
4 -1 -5 54.79
-4 1 5 56.8
-3 1 5 312.57
3 -1 -5 325.98
2 -1 -5 145.6
-2 1 5 149.83
-2 1 5 144.16
-1 1 5 801.9
-1 1 5 804.97
0 1 5 343.54
0 1 5 343.3
1 1 5 202.67
1 1 5 203.18
2 1 5 555.53
2 1 5 561.51
3 1 5 231.99
3 1 5 231.47
4 1 5 67.85
4 1 5 68.89
5 1 5 3.27
6 1 5 30.45
7 1 5 13.7
8 1 5 4.9
-7 2 5 0.73
-6 2 5 2.13
-5 2 5 15.37
-4 2 5 183.41
4 -2 -5 188.2
3 -2 -5 24.63
-3 2 5 23.78
2 -2 -5 -0.45
-2 2 5 0.86
-2 2 5 -0.49
-1 2 5 20.85
-1 2 5 23.5
0 2 5 130.9
0 2 5 127.94
1 2 5 52.34
1 2 5 50.7
2 2 5 1.2
2 2 5 0.65
3 2 5 0
3 2 5 -0.35
4 2 5 57.62
4 2 5 57.97
5 2 5 149.18
6 2 5 38.52
7 2 5 14.17
8 2 5 4.12
-7 3 5 1.76
-6 3 5 5.79
-5 3 5 -0.41
-4 3 5 72.33
3 -3 -5 113.05
-3 3 5 119.11
-2 3 5 422.11
2 -3 -5 447.91
-2 3 5 424.29
-1 3 5 520.16
-1 3 5 501.85
0 3 5 6.97
0 3 5 4.03
1 3 5 769.17
1 3 5 758.3
2 3 5 384.57
2 3 5 380.87
3 3 5 134.68
3 3 5 135.07
4 3 5 117.12
5 3 5 22.27
6 3 5 24.6
7 3 5 4.24
8 3 5 41.21
-6 4 5 3.33
-5 4 5 55.74
-4 4 5 30.63
-3 4 5 32.64
-2 4 5 1.03
-2 4 5 0.93
-1 4 5 75.1
-1 4 5 83.55
0 4 5 41.9
0 4 5 41.44
1 4 5 155.69
1 4 5 152.16
2 4 5 12.81
2 4 5 12.66
3 4 5 46.59
3 4 5 44.72
4 4 5 123.75
5 4 5 145.77
6 4 5 88.23
7 4 5 -0.65
8 4 5 38.63
-6 5 5 4.44
-5 5 5 6.5
-4 5 5 25.58
-3 5 5 93.06
-2 5 5 373.53
-2 5 5 379.06
-1 5 5 19.9
-1 5 5 19.47
0 5 5 300.6
0 5 5 296.31
1 5 5 168.41
1 5 5 148.55
2 5 5 199.29
2 5 5 189.57
3 5 5 294.9
3 5 5 297.43
4 5 5 9.46
5 5 5 3.99
6 5 5 0.85
7 5 5 146.74
8 5 5 58.33
-5 6 5 17.61
-4 6 5 19.83
-3 6 5 3.72
-2 6 5 1.8
-2 6 5 0.83
-1 6 5 43.85
-1 6 5 42.49
0 6 5 206.3
0 6 5 206.55
1 6 5 20.34
1 6 5 20.64
2 6 5 -0.06
2 6 5 0.43
3 6 5 36.1
4 6 5 226
5 6 5 123.18
6 6 5 20.43
7 6 5 8.2
8 6 5 37.09
-5 7 5 -0.47
-4 7 5 18.49
-3 7 5 114.93
-2 7 5 24.89
-2 7 5 25.53
-1 7 5 20.05
-1 7 5 18.08
0 7 5 28.58
0 7 5 29.83
1 7 5 158.69
1 7 5 149.92
2 7 5 169.13
2 7 5 172.25
3 7 5 5.04
3 7 5 5.92
4 7 5 32.13
4 7 5 28
5 7 5 6.58
6 7 5 168.12
7 7 5 117.43
7 7 5 112.63
8 7 5 10.8
8 7 5 7.64
4 -8 -5 8.41
-3 8 5 3.67
3 -8 -5 3.21
-2 8 5 15.11
-1 8 5 70.61
-1 8 5 72.72
0 8 5 23.74
0 8 5 25.67
1 8 5 11.84
-1 -8 -5 15.87
2 8 5 8.23
-2 -8 -5 5.28
3 8 5 113.36
4 8 5 86.55
5 8 5 93.18
5 8 5 96.54
6 8 5 2.23
6 8 5 0.6
7 8 5 42.41
7 8 5 47.09
8 8 5 27.91
8 8 5 28.98
3 -9 -5 11.28
2 -9 -5 1.53
1 -9 -5 4.43
-1 9 5 3.76
0 -9 -5 35.55
0 9 5 37.29
-1 -9 -5 33.86
1 9 5 37.2
2 9 5 56.36
3 9 5 68.32
4 9 5 18.89
5 9 5 62.1
6 9 5 143.62
6 9 5 152.43
7 9 5 34.67
7 9 5 37.65
2 -10 -5 10.89
-1 10 5 21.6
1 -10 -5 15.75
0 -10 -5 13.22
0 10 5 10.95
1 10 5 -0.36
-1 -10 -5 -0.07
2 10 5 10.14
3 10 5 31.86
4 10 5 90.95
5 10 5 13.69
6 10 5 6.53
7 10 5 13.43
1 -11 -5 2.45
0 11 5 3.34
0 -11 -5 8.4
1 11 5 38.74
2 11 5 37.23
3 11 5 23.58
4 11 5 6.45
5 11 5 94.22
6 11 5 35.56
1 12 5 -1.31
2 12 5 9.73
3 12 5 28.26
4 12 5 17.06
-2 -8 6 -1.38
5 7 -6 14.7
-5 -7 6 18.03
-4 -7 6 3.81
-3 -7 6 4.25
-2 -7 6 34.31
-1 -7 6 23.47
0 -7 6 15.52
1 -7 6 1.18
6 6 -6 11.58
5 6 -6 38.13
-5 -6 6 41.62
-4 -6 6 66.3
-3 -6 6 6.02
-2 -6 6 33.92
-1 -6 6 24.66
0 -6 6 38.15
1 -6 6 27.17
2 -6 6 1.69
6 5 -6 32.54
-5 -5 6 29.83
5 5 -6 28.01
-4 -5 6 2.37
4 5 -6 3.33
-3 -5 6 84.68
-2 -5 6 64.89
-1 -5 6 62.91
0 -5 6 27.76
1 -5 6 12.95
2 -5 6 18.88
3 -5 6 9.67
7 4 -6 -1.8
-6 -4 6 38.49
-5 -4 6 52.67
5 4 -6 56.24
4 4 -6 50.27
-4 -4 6 49.19
-3 -4 6 3.6
-2 -4 6 38.74
-1 -4 6 48.05
0 -4 6 62.56
1 -4 6 28.73
2 -4 6 15.9
3 -4 6 1.61
3 -4 6 2.53
4 -4 6 18.53
4 -4 6 17.23
7 3 -6 38.67
6 3 -6 67.68
-6 -3 6 66.46
5 3 -6 25.1
-5 -3 6 24.29
4 3 -6 67.39
-4 -3 6 63.21
-3 -3 6 106.31
3 3 -6 110.45
-2 -3 6 217.21
-1 -3 6 146.18
0 -3 6 15.36
0 -3 6 14.69
1 -3 6 12.49
1 -3 6 13.84
2 -3 6 23.6
2 -3 6 22.78
3 -3 6 32.72
3 -3 6 34.69
4 -3 6 -0.32
4 -3 6 1.49
5 -3 6 1.61
5 -3 6 2.75
7 2 -6 11.5
6 2 -6 13.87
-6 -2 6 7.81
-5 -2 6 85.75
5 2 -6 87.12
4 2 -6 6.89
-4 -2 6 8.21
3 2 -6 42.51
-3 -2 6 40.02
-2 -2 6 8.03
-1 -2 6 92.16
0 -2 6 126.5
0 -2 6 125.06
1 -2 6 45.71
1 -2 6 43
2 -2 6 6.89
2 -2 6 8.45
3 -2 6 14.89
3 -2 6 17.61
4 -2 6 76.21
4 -2 6 81.14
5 -2 6 37.4
5 -2 6 40.04
6 -2 6 4.11
-7 -1 6 51.68
7 1 -6 46.67
6 1 -6 39.22
-6 -1 6 39.99
-5 -1 6 4.98
5 1 -6 3.35
4 1 -6 130.74
-4 -1 6 128.45
3 1 -6 344.2
-3 -1 6 330.42
-2 -1 6 247.41
-1 -1 6 1.18
0 -1 6 0.2
0 -1 6 0.93
1 -1 6 44.27
1 -1 6 48.61
2 -1 6 109.27
2 -1 6 108.49
3 -1 6 18.24
3 -1 6 17.05
4 -1 6 8.82
4 -1 6 12.49
5 -1 6 5.96
6 -1 6 33.31
7 0 -6 0.91
-7 0 6 0.41
-6 0 6 55.64
6 0 -6 52.96
5 0 -6 19.58
-5 0 6 13.51
4 0 -6 3
-4 0 6 1.32
-3 0 6 12.63
3 0 -6 12.95
-2 0 6 74.1
-1 0 6 175.57
-1 0 6 176.7
0 0 6 73.39
0 0 6 70.58
1 0 6 156.02
1 0 6 157.7
2 0 6 1.42
2 0 6 1.37
3 0 6 129.11
3 0 6 123.41
4 0 6 103.06
4 0 6 103.97
5 0 6 59.93
6 0 6 23.09
7 0 6 0.9
-7 1 6 37.92
-6 1 6 7.57
5 -1 -6 91.59
-5 1 6 81.3
-4 1 6 170.74
4 -1 -6 176.1
-3 1 6 142.76
3 -1 -6 145.65
-2 1 6 90.65
-1 1 6 21.41
-1 1 6 21.2
0 1 6 20.91
0 1 6 21.4
1 1 6 101.71
1 1 6 101.1
2 1 6 90.62
2 1 6 98.15
3 1 6 83.49
3 1 6 90.84
4 1 6 2.34
4 1 6 2.21
5 1 6 49.53
6 1 6 26.45
7 1 6 5.37
-7 2 6 8.42
-6 2 6 17.63
-5 2 6 6.66
-4 2 6 23.71
4 -2 -6 22.65
-3 2 6 10.72
3 -2 -6 12.51
-2 2 6 64.31
-1 2 6 116.18
-1 2 6 116.91
0 2 6 380.97
0 2 6 384.96
1 2 6 6.59
1 2 6 10.42
2 2 6 32.49
2 2 6 32.17
3 2 6 164.14
3 2 6 155.79
4 2 6 234.13
5 2 6 85.99
6 2 6 21.58
7 2 6 -0.85
-6 3 6 26.01
-5 3 6 36.96
-4 3 6 52.46
-3 3 6 102.49
-2 3 6 32.6
-2 3 6 30.36
-1 3 6 17.58
-1 3 6 16.54
0 3 6 38.45
0 3 6 35.96
1 3 6 195.02
1 3 6 209.37
2 3 6 166.23
2 3 6 161.85
3 3 6 21.29
3 3 6 19.73
4 3 6 26.93
5 3 6 54.19
6 3 6 5
7 3 6 0.6
8 3 6 9.53
-6 4 6 11.27
-5 4 6 12.44
-4 4 6 6.82
-3 4 6 9.43
-2 4 6 92.93
-2 4 6 91.54
-1 4 6 180.61
-1 4 6 185.66
0 4 6 94.84
0 4 6 97.57
1 4 6 19.71
1 4 6 18.83
2 4 6 177.78
2 4 6 179.39
3 4 6 355.47
3 4 6 369.02
4 4 6 163.58
5 4 6 156.69
6 4 6 9.06
7 4 6 27.36
8 4 6 58.9
-6 5 6 2.36
-5 5 6 9.39
-4 5 6 21.96
-3 5 6 40.65
-2 5 6 67.04
-2 5 6 66.29
-1 5 6 2.8
-1 5 6 1.83
0 5 6 85.19
0 5 6 85.61
1 5 6 132.12
1 5 6 135.91
2 5 6 175.52
2 5 6 179.31
3 5 6 11.61
4 5 6 43.66
5 5 6 1.63
6 5 6 16.28
7 5 6 61.2
8 5 6 -0.42
-5 6 6 11.7
-4 6 6 1.3
-3 6 6 14.11
-2 6 6 33.97
-2 6 6 32.81
-1 6 6 138.82
-1 6 6 134.56
0 6 6 50.89
0 6 6 52.32
1 6 6 44.67
1 6 6 43.79
2 6 6 141.36
2 6 6 136.88
3 6 6 211.37
4 6 6 310.62
5 6 6 40.05
6 6 6 7.49
7 6 6 74.44
8 6 6 99.4
-4 7 6 20.41
-3 7 6 35.08
-2 7 6 0.17
-2 7 6 3.55
-1 7 6 2.05
-1 7 6 3.51
0 7 6 86.31
0 7 6 89.25
1 7 6 162.46
1 7 6 170.91
2 7 6 2.66
2 7 6 3.08
3 7 6 -1.07
4 7 6 25.08
5 7 6 35.18
6 7 6 91.38
7 7 6 16.99
8 7 6 -0.03
-4 8 6 -0.98
-3 8 6 3.49
-2 8 6 51.99
-2 8 6 44.23
-1 8 6 29.87
-1 8 6 24.83
0 8 6 0.45
0 8 6 1.22
1 8 6 18.01
1 8 6 16.21
2 8 6 136.54
2 8 6 137
3 8 6 206.31
4 8 6 92.88
5 8 6 2.32
5 8 6 2.49
6 8 6 52.13
6 8 6 55.07
7 8 6 100.72
7 8 6 95.1
8 8 6 12.92
8 8 6 8.03
3 -9 -6 8.91
-2 9 6 1.16
-1 9 6 28.59
-1 9 6 33.65
0 -9 -6 50.08
0 9 6 49.17
0 9 6 54.64
-1 -9 -6 1.97
1 9 6 0.95
2 9 6 23.62
3 9 6 35.98
4 9 6 8.56
5 9 6 63.61
6 9 6 64.37
7 9 6 5.29
7 9 6 4.65
2 -10 -6 7.81
1 -10 -6 8.79
-1 10 6 6.94
0 -10 -6 0.76
0 10 6 -0.53
1 10 6 24.63
2 10 6 62.43
3 10 6 98.49
4 10 6 14.63
5 10 6 14.66
6 10 6 34.88
7 10 6 26.68
1 -11 -6 5.96
-1 11 6 3.84
0 -11 -6 4.28
0 11 6 3.96
1 11 6 12.47
2 11 6 24.35
3 11 6 0.22
4 11 6 25.03
5 11 6 59.58
6 11 6 13.94
2 12 6 47.4
3 12 6 4.41
4 12 6 -0.51
-3 -7 7 14.2
-2 -7 7 35.6
-5 -6 7 30.38
-4 -6 7 6.84
-3 -6 7 1.38
-2 -6 7 2.22
-1 -6 7 44.51
0 -6 7 19.35
1 -6 7 -3.05
-6 -5 7 9.01
6 5 -7 13.24
5 5 -7 -1.91
-5 -5 7 -0.19
-4 -5 7 25.1
-3 -5 7 72.04
-2 -5 7 58.24
-1 -5 7 49.53
0 -5 7 1.42
1 -5 7 55.46
2 -5 7 32.21
2 -5 7 33.51
3 -5 7 2.84
3 -5 7 4.98
-6 -4 7 26.02
6 4 -7 26.82
-5 -4 7 0.9
5 4 -7 3
-4 -4 7 27.27
-3 -4 7 16.16
-2 -4 7 68.5
-1 -4 7 25.56
0 -4 7 4.14
1 -4 7 16.77
1 -4 7 17.63
2 -4 7 -0.65
2 -4 7 -0.43
3 -4 7 7.08
3 -4 7 10.13
4 -4 7 21.75
4 -4 7 23.21
6 3 -7 11.41
-6 -3 7 7.2
-5 -3 7 20.96
5 3 -7 26.69
4 3 -7 58.42
-4 -3 7 60.66
-3 -3 7 134.01
-2 -3 7 219.5
-1 -3 7 18.04
0 -3 7 101.35
1 -3 7 79.31
1 -3 7 72.06
2 -3 7 35.12
2 -3 7 35.5
3 -3 7 44.06
3 -3 7 47.13
4 -3 7 -2.26
4 -3 7 -0.36
7 2 -7 6
6 2 -7 3.11
-6 -2 7 2.61
-5 -2 7 57.78
5 2 -7 55.94
4 2 -7 62.88
-4 -2 7 60.67
-3 -2 7 30.99
-2 -2 7 12.08
-1 -2 7 7.12
0 -2 7 96.14
1 -2 7 20.02
1 -2 7 23.22
2 -2 7 1.23
2 -2 7 0.38
3 -2 7 61.53
3 -2 7 60.57
4 -2 7 97.36
4 -2 7 93.36
5 -2 7 28.17
7 1 -7 19.45
-7 -1 7 17.7
6 1 -7 2.97
-6 -1 7 3.56
-5 -1 7 13.65
5 1 -7 18.92
-4 -1 7 178.59
4 1 -7 178.64
-3 -1 7 394.87
-2 -1 7 61.15
-1 -1 7 57.87
0 -1 7 144.11
0 -1 7 148.13
1 -1 7 94.37
1 -1 7 93.07
2 -1 7 131.45
2 -1 7 135.95
3 -1 7 31.03
3 -1 7 29.94
4 -1 7 5.24
4 -1 7 3.43
5 -1 7 8.29
6 -1 7 16.32
-7 0 7 4.31
-6 0 7 45.17
6 0 -7 40.33
-5 0 7 76.08
5 0 -7 78.23
-4 0 7 1.53
4 0 -7 3.73
3 0 -7 0.68
-3 0 7 0.67
-2 0 7 1.35
-1 0 7 164.82
0 0 7 190.51
0 0 7 178.39
1 0 7 16.87
1 0 7 16.68
2 0 7 82.47
2 0 7 76.81
3 0 7 185.53
3 0 7 181.8
4 0 7 130.52
4 0 7 123.83
5 0 7 10.56
6 0 7 30.12
-7 1 7 1.58
-6 1 7 -1.14
-5 1 7 96.54
5 -1 -7 86.2
4 -1 -7 273.57
-4 1 7 289.03
-3 1 7 130.42
3 -1 -7 125.16
-2 1 7 8.13
-1 1 7 162.9
0 1 7 77.1
0 1 7 77.95
1 1 7 262.16
1 1 7 256.51
2 1 7 260.89
2 1 7 274.18
3 1 7 -0.74
3 1 7 -1.28
4 1 7 2.23
5 1 7 21.11
6 1 7 90.85
7 1 7 14.95
-6 2 7 60.82
-5 2 7 25.43
-4 2 7 2.22
-3 2 7 19.56
-2 2 7 119.02
-1 2 7 456.79
0 2 7 55.12
0 2 7 54.69
1 2 7 14.8
1 2 7 16.78
2 2 7 153.56
2 2 7 149.77
3 2 7 389.67
3 2 7 387.34
4 2 7 64.28
5 2 7 40.4
6 2 7 4.17
7 2 7 1.31
-6 3 7 10.09
-5 3 7 127.74
-4 3 7 124.03
-3 3 7 1.48
-2 3 7 47.01
-1 3 7 7.38
-1 3 7 6.72
0 3 7 292.1
0 3 7 283.81
1 3 7 581.59
1 3 7 611.38
2 3 7 26.23
2 3 7 25.68
3 3 7 25.15
3 3 7 25.76
4 3 7 16.62
5 3 7 201.61
6 3 7 51.65
7 3 7 0.13
-6 4 7 17.59
-5 4 7 11.84
-4 4 7 49.53
-3 4 7 49.83
-2 4 7 325.21
-1 4 7 61.12
-1 4 7 56.44
0 4 7 41.43
0 4 7 42.34
1 4 7 60.6
1 4 7 59.86
2 4 7 585.66
2 4 7 623.16
3 4 7 97.7
4 4 7 11.72
5 4 7 -0.32
6 4 7 2.46
7 4 7 59.27
-5 5 7 52.38
-4 5 7 0.3
-3 5 7 -0.03
-2 5 7 0.09
-2 5 7 0.54
-1 5 7 125.96
-1 5 7 122.5
0 5 7 353.67
0 5 7 357.13
1 5 7 140.95
1 5 7 139.24
2 5 7 136.98
2 5 7 137.88
3 5 7 1.63
4 5 7 243.55
5 5 7 120.77
6 5 7 38.47
7 5 7 15.51
8 5 7 0.48
-5 6 7 26.08
-4 6 7 4.89
-3 6 7 82.5
-2 6 7 51.29
-2 6 7 57.58
-1 6 7 92.55
-1 6 7 100.72
0 6 7 7.49
0 6 7 5.1
1 6 7 265.02
1 6 7 273.89
2 6 7 53.59
2 6 7 54.74
3 6 7 0.47
4 6 7 12.64
5 6 7 0.54
6 6 7 58.84
7 6 7 75.38
8 6 7 32.01
-4 7 7 2.74
-3 7 7 2.51
-2 7 7 10.49
-2 7 7 11.98
-1 7 7 114.55
-1 7 7 108.06
0 7 7 176.85
0 7 7 172.57
1 7 7 121.18
1 7 7 122.07
2 7 7 10.23
2 7 7 13.89
3 7 7 72.95
4 7 7 198.06
5 7 7 89.08
6 7 7 39.96
7 7 7 15.84
-3 8 7 27.7
-2 8 7 41.88
-2 8 7 44.72
-1 8 7 3.55
-1 8 7 1.83
0 8 7 30.09
0 8 7 35.15
1 8 7 18.68
1 8 7 17.62
2 8 7 2.77
3 8 7 28.54
4 8 7 36.47
5 8 7 26.63
6 8 7 76.85
7 8 7 25.53
-3 9 7 -1.54
-2 9 7 24.15
-2 9 7 26.27
-1 9 7 80.22
-1 9 7 78.79
0 9 7 54.43
0 9 7 52.94
1 9 7 42.56
1 9 7 44.93
2 9 7 11.5
3 9 7 124.57
4 9 7 62.59
5 9 7 63.54
6 9 7 63.04
7 9 7 0.66
7 9 7 0.92
2 -10 -7 7.76
-1 10 7 1.6
1 -10 -7 2.71
0 -10 -7 2.37
0 10 7 0.98
1 10 7 1.8
2 10 7 36.74
3 10 7 54.51
4 10 7 8.85
5 10 7 25.51
6 10 7 12.14
0 -11 -7 34.29
0 11 7 28.9
1 11 7 2.28
2 11 7 35.38
3 11 7 20.25
4 11 7 55.44
5 11 7 58.49
2 12 7 28.42
3 12 7 -0.59
-2 -6 8 5.51
-4 -5 8 42.67
-3 -5 8 52.9
-2 -5 8 8.27
-1 -5 8 0.83
0 -5 8 -0.61
1 -5 8 -2.65
-5 -4 8 3.8
-4 -4 8 2.79
-3 -4 8 2.4
-2 -4 8 56.99
-1 -4 8 57.65
0 -4 8 -0.11
1 -4 8 13.88
2 -4 8 21.2
3 -4 8 7.36
3 -4 8 5.17
-6 -3 8 0.76
6 3 -8 2.57
5 3 -8 32.21
-5 -3 8 31.53
-4 -3 8 80.79
-3 -3 8 51.85
-2 -3 8 5.12
-1 -3 8 3.64
0 -3 8 0.39
1 -3 8 50.03
2 -3 8 23.14
2 -3 8 21.33
3 -3 8 -1.98
3 -3 8 1.91
4 -3 8 2.48
4 -3 8 4.23
6 2 -8 16.48
-6 -2 8 16.02
5 2 -8 16.85
-5 -2 8 10.24
-4 -2 8 -0.7
-3 -2 8 38.25
-2 -2 8 113.65
-1 -2 8 9.8
0 -2 8 15.33
1 -2 8 17.23
2 -2 8 13.89
2 -2 8 20.15
3 -2 8 52.54
3 -2 8 51.81
4 -2 8 68.89
4 -2 8 71.9
6 1 -8 1.24
-6 -1 8 4.74
-5 -1 8 72.22
5 1 -8 72.09
-4 -1 8 92.63
-3 -1 8 18.92
-2 -1 8 40.44
-1 -1 8 10.03
0 -1 8 127.91
1 -1 8 70.5
1 -1 8 68.65
2 -1 8 5.04
2 -1 8 7.11
3 -1 8 44.93
3 -1 8 42.5
4 -1 8 1.58
4 -1 8 1.82
5 -1 8 20.17
6 0 -8 15.31
-6 0 8 13.29
-5 0 8 7.5
5 0 -8 9.67
-4 0 8 5.16
4 0 -8 3.31
-3 0 8 119.14
-2 0 8 19.21
-1 0 8 7.03
0 0 8 0.7
1 0 8 25.12
1 0 8 25.2
2 0 8 103.51
2 0 8 107.05
3 0 8 151.5
3 0 8 147.39
4 0 8 105.23
5 0 8 1.9
6 0 8 31.24
-6 1 8 39.16
-5 1 8 60.55
4 -1 -8 30.68
-4 1 8 33.51
-3 1 8 120.41
-2 1 8 29.37
-1 1 8 128.48
0 1 8 96.11
1 1 8 53.08
1 1 8 51.97
2 1 8 190.78
2 1 8 184.52
3 1 8 1.41
3 1 8 3.1
4 1 8 26.6
5 1 8 1.02
6 1 8 4.84
-6 2 8 16.62
-5 2 8 -0.15
-4 2 8 60.76
-3 2 8 5.62
-2 2 8 0.5
-1 2 8 29.36
0 2 8 24.78
0 2 8 22.79
1 2 8 69.32
1 2 8 69.61
2 2 8 206.83
2 2 8 212.71
3 2 8 367.45
3 2 8 360.44
4 2 8 23.18
5 2 8 35.79
6 2 8 87.02
-6 3 8 11.25
-5 3 8 32.78
-4 3 8 116.83
-3 3 8 34.33
-2 3 8 23.56
-1 3 8 79.37
0 3 8 126.74
0 3 8 129.8
1 3 8 327.14
1 3 8 311.52
2 3 8 86.19
2 3 8 93.25
3 3 8 3.72
3 3 8 5.5
4 3 8 1.25
5 3 8 22.72
6 3 8 43.92
7 3 8 3.66
-5 4 8 3.07
-4 4 8 1.24
-3 4 8 2.86
-2 4 8 27.25
-1 4 8 -1.08
0 4 8 5.43
0 4 8 6.26
1 4 8 188.14
1 4 8 181.32
2 4 8 491.37
2 4 8 489.4
3 4 8 79.17
4 4 8 6.21
5 4 8 105.43
6 4 8 147.85
7 4 8 66.52
-5 5 8 41.53
-4 5 8 33.04
-3 5 8 -1.66
-2 5 8 42.22
-1 5 8 85.22
-1 5 8 84.58
0 5 8 239.97
0 5 8 239.2
1 5 8 312.77
1 5 8 304.67
2 5 8 9.87
2 5 8 9.88
3 5 8 0.66
4 5 8 19.33
5 5 8 199.98
6 5 8 42.2
7 5 8 9.17
-4 6 8 1.03
-3 6 8 9.83
-2 6 8 23.62
-1 6 8 0.54
-1 6 8 -2.42
0 6 8 51.86
0 6 8 52.97
1 6 8 229.01
1 6 8 244.03
2 6 8 147.38
2 6 8 144.04
3 6 8 5.34
4 6 8 64.86
5 6 8 137.88
6 6 8 117.92
7 6 8 70.88
-4 7 8 2.96
-3 7 8 6.81
-2 7 8 17.89
-1 7 8 121.72
-1 7 8 110.63
0 7 8 263.13
0 7 8 262.16
1 7 8 38.12
1 7 8 39.64
2 7 8 15.47
3 7 8 13.46
4 7 8 341.65
5 7 8 95.13
6 7 8 2.27
7 7 8 -0.14
-3 8 8 19.85
-2 8 8 1.13
-2 8 8 0.05
-1 8 8 -0.17
-1 8 8 1.15
0 8 8 46.55
0 8 8 41.59
1 8 8 111.47
1 8 8 116.46
2 8 8 13.75
3 8 8 5.09
4 8 8 40.42
5 8 8 153.91
6 8 8 84.9
7 8 8 12.95
-2 9 8 26.87
-2 9 8 35.86
-1 9 8 82.84
-1 9 8 81.81
0 9 8 59
0 9 8 57.11
1 9 8 41.81
1 9 8 34.28
2 9 8 8.52
3 9 8 219.73
4 9 8 100.73
5 9 8 12.85
6 9 8 5.16
-1 10 8 4.73
-1 10 8 0.78
0 10 8 23
0 10 8 28.26
1 10 8 4.33
2 10 8 6.4
3 10 8 3.13
4 10 8 73.11
5 10 8 53.21
6 10 8 29.39
0 11 8 23.82
1 11 8 0.65
2 11 8 56.22
3 11 8 82.38
4 11 8 31.2
5 11 8 8.99
-4 -4 9 -0.87
-3 -4 9 16.56
-2 -4 9 46.99
-1 -4 9 28.9
0 -4 9 0.97
1 -4 9 7.31
-5 -3 9 12.4
-4 -3 9 13.12
-3 -3 9 6.35
-2 -3 9 9.29
-1 -3 9 47.42
0 -3 9 6.93
1 -3 9 0.77
2 -3 9 -2
-5 -2 9 4.09
-4 -2 9 7.61
-3 -2 9 62.45
-2 -2 9 102.96
-1 -2 9 21.06
0 -2 9 6.77
1 -2 9 29.84
2 -2 9 72.16
3 -2 9 17.36
3 -2 9 20.54
-5 -1 9 11.05
-4 -1 9 12.8
-3 -1 9 -0.12
-2 -1 9 23.78
-1 -1 9 30.55
0 -1 9 14.08
1 -1 9 2.37
2 -1 9 1.74
2 -1 9 0.03
3 -1 9 3.11
3 -1 9 5.16
4 -1 9 6.3
-5 0 9 1.65
-4 0 9 52.33
-2 0 9 50.32
-1 0 9 5.41
0 0 9 14.25
1 0 9 147.92
2 0 9 68.71
2 0 9 63.2
3 0 9 7.71
3 0 9 3.95
4 0 9 10.48
5 0 9 2.56
-5 1 9 12.74
-4 1 9 11.28
-3 1 9 -0.04
-2 1 9 50.7
-1 1 9 16.11
0 1 9 19.17
1 1 9 14.11
2 1 9 5.99
2 1 9 4.77
3 1 9 5.88
3 1 9 8.88
4 1 9 3.95
5 1 9 7.9
-5 2 9 23.94
-4 2 9 70.89
-3 2 9 62.63
-2 2 9 45.1
-1 2 9 1.61
0 2 9 134.47
1 2 9 118.21
1 2 9 117.03
2 2 9 39
2 2 9 40.51
3 2 9 43.29
3 2 9 50.69
4 2 9 1.83
5 2 9 19.71
6 2 9 15.57
-5 3 9 26.62
-4 3 9 2.62
-3 3 9 17.9
-2 3 9 8.2
-1 3 9 50.84
0 3 9 68.47
1 3 9 1.17
1 3 9 0.63
2 3 9 0.78
2 3 9 0.6
3 3 9 3
4 3 9 40.35
5 3 9 17.4
6 3 9 4.57
-5 4 9 10.27
-4 4 9 41.5
-3 4 9 45.13
-2 4 9 1.04
-1 4 9 27.45
0 4 9 99.75
1 4 9 75.44
1 4 9 73.23
2 4 9 41.48
2 4 9 40.59
3 4 9 7.95
4 4 9 5.35
5 4 9 39.26
6 4 9 64.9
-4 5 9 -0.44
-3 5 9 0.77
-2 5 9 36.37
-1 5 9 71.06
0 5 9 6.92
0 5 9 6.57
1 5 9 4.16
1 5 9 4.69
2 5 9 0.4
2 5 9 -0.32
3 5 9 34.29
4 5 9 73.31
5 5 9 64.93
6 5 9 2.61
7 5 9 39.9
-4 6 9 13.54
-3 6 9 10.21
-2 6 9 -1.43
-1 6 9 45.8
0 6 9 33.56
0 6 9 33.12
1 6 9 26.5
1 6 9 21.97
2 6 9 66.33
3 6 9 0.6
4 6 9 26.8
5 6 9 48.58
6 6 9 60.02
7 6 9 10.58
-3 7 9 7.6
-2 7 9 34.91
-1 7 9 19.65
-1 7 9 20.32
0 7 9 2.56
0 7 9 0.45
1 7 9 6.98
1 7 9 5.52
2 7 9 2.35
3 7 9 149.27
4 7 9 140.84
5 7 9 0.84
6 7 9 10.14
-3 8 9 4.85
-2 8 9 7.3
-1 8 9 2.41
-1 8 9 3.8
0 8 9 12.2
0 8 9 13.87
1 8 9 59.44
1 8 9 59.66
2 8 9 2.52
3 8 9 0.66
4 8 9 22.97
5 8 9 86.71
6 8 9 24.04
-2 9 9 9.23
-1 9 9 1.81
-1 9 9 0.2
0 9 9 22.84
0 9 9 27.78
1 9 9 0.25
2 9 9 113.95
3 9 9 115.13
4 9 9 25.31
5 9 9 -0.03
6 9 9 28.88
-1 10 9 2.77
-1 10 9 3.36
0 10 9 13.35
0 10 9 21.59
1 10 9 12.23
2 10 9 4.25
3 10 9 4.69
4 10 9 36.27
5 10 9 27.37
1 11 9 28.38
2 11 9 43.16
3 11 9 44.13
4 11 9 7.39
-2 -3 10 25.5
-1 -3 10 7.47
0 -3 10 23.92
1 -3 10 11.03
-4 -2 10 3.65
-3 -2 10 12.76
-2 -2 10 34.91
-1 -2 10 1.2
0 -2 10 43.96
1 -2 10 24.45
2 -2 10 32.12
-4 -1 10 4.55
-3 -1 10 15.89
-2 -1 10 0.97
-1 -1 10 70.3
0 -1 10 62.19
1 -1 10 -0.04
2 -1 10 1.7
3 -1 10 17.23
3 -1 10 22.96
-4 0 10 21.43
-2 0 10 -0.26
-1 0 10 21.68
0 0 10 47.02
1 0 10 68.33
2 0 10 27.68
3 0 10 12.41
3 0 10 7.88
4 0 10 23.7
-4 1 10 1.93
-3 1 10 1.32
-2 1 10 72.09
-1 1 10 120.07
0 1 10 28.24
1 1 10 4.21
2 1 10 34.38
3 1 10 58.98
4 1 10 19.29
-4 2 10 41.66
-3 2 10 15.8
-2 2 10 0.82
-1 2 10 43.3
0 2 10 74.44
1 2 10 70.02
2 2 10 -2.87
2 2 10 1.23
3 2 10 36.97
4 2 10 8.61
5 2 10 27.37
-4 3 10 -0.34
-3 3 10 21.78
-2 3 10 127.06
-1 3 10 96.88
0 3 10 25.88
1 3 10 5.43
2 3 10 98.2
2 3 10 91.77
3 3 10 74.74
4 3 10 23.89
5 3 10 2.45
-4 4 10 23.53
-3 4 10 0.48
-2 4 10 6.87
-1 4 10 35.07
0 4 10 103.54
1 4 10 8.04
1 4 10 9.09
2 4 10 27.73
2 4 10 24.78
3 4 10 -0.05
4 4 10 41.4
5 4 10 91.73
6 4 10 8.95
-4 5 10 3.43
-3 5 10 81.78
-2 5 10 86.09
-1 5 10 46.07
0 5 10 10.9
1 5 10 83.32
1 5 10 82.39
2 5 10 136.46
3 5 10 44.51
4 5 10 37.73
5 5 10 1.75
6 5 10 29.33
-3 6 10 1.01
-2 6 10 7.29
-1 6 10 59.45
0 6 10 10.27
1 6 10 0.71
1 6 10 2.15
2 6 10 6.25
3 6 10 33.01
4 6 10 101.48
5 6 10 27.23
6 6 10 21.35
-3 7 10 33.41
-2 7 10 41
-1 7 10 22.33
0 7 10 31.05
0 7 10 28.36
1 7 10 66.56
1 7 10 65.42
2 7 10 55.23
3 7 10 104.18
4 7 10 9.41
5 7 10 12.23
6 7 10 16.37
-2 8 10 11.94
-1 8 10 3.52
0 8 10 4.48
0 8 10 5.74
1 8 10 4.67
2 8 10 3.46
3 8 10 39.87
4 8 10 43.63
5 8 10 36.25
-1 9 10 3.57
0 9 10 17.41
0 9 10 12.14
1 9 10 35.03
2 9 10 90.61
3 9 10 21.72
4 9 10 1.02
5 9 10 6.99
0 10 10 2.27
1 10 10 0.59
2 10 10 7.32
3 10 10 24.85
4 10 10 29.48
-2 -1 11 17.83
-1 -1 11 16.26
0 -1 11 9.4
1 -1 11 1.43
-3 0 11 2.18
-2 0 11 4.62
-1 0 11 20.82
0 0 11 45.7
1 0 11 30.36
2 0 11 3.67
-3 1 11 27.37
-2 1 11 23.57
-1 1 11 33.29
0 1 11 2.91
1 1 11 31.59
2 1 11 43.81
-3 2 11 1.05
-2 2 11 14.03
-1 2 11 37.05
0 2 11 44.94
1 2 11 30.03
2 2 11 -1.77
3 2 11 27.46
4 2 11 11.77
-3 3 11 19.62
-2 3 11 73.66
-1 3 11 30.86
0 3 11 20.58
1 3 11 32.1
2 3 11 40.64
3 3 11 33.6
4 3 11 2.1
-3 4 11 3.6
-2 4 11 6.67
-1 4 11 44.33
0 4 11 69.59
1 4 11 4.52
2 4 11 3.25
3 4 11 8.08
4 4 11 72.17
5 4 11 65.91
-3 5 11 59.02
-2 5 11 32.28
-1 5 11 0.61
0 5 11 13.9
1 5 11 52.53
2 5 11 66.24
3 5 11 12.09
4 5 11 4.08
5 5 11 6.26
-2 6 11 23.91
-1 6 11 52.94
0 6 11 15.84
1 6 11 8.58
2 6 11 0.4
3 6 11 74.63
4 6 11 84.28
5 6 11 10.26
-2 7 11 7.7
-1 7 11 1.11
0 7 11 22.98
1 7 11 44.21
2 7 11 39.33
3 7 11 32.06
4 7 11 0.58
5 7 11 23.7
-1 8 11 21.93
0 8 11 23.01
1 8 11 0.53
2 8 11 28.41
3 8 11 80.55
4 8 11 39.99
1 9 11 45.02
2 9 11 32.34
3 9 11 4.42
4 9 11 6.93
-1 1 12 2.79
0 1 12 0.54
1 1 12 38.24
-2 2 12 45.81
-1 2 12 38.89
0 2 12 5.18
1 2 12 6.6
-2 3 12 21.68
-1 3 12 0.7
0 3 12 24.53
1 3 12 52.56
-2 4 12 29.2
-1 4 12 18.33
0 4 12 18.22
1 4 12 2.31
-2 5 12 4.36
-1 5 12 3.8
0 5 12 41.12
3 5 12 3.1
-1 6 12 17.35
0 6 12 7.89
3 6 12 34.02
0 7 12 44.78
3 7 12 21.83
2 8 12 16.56
