#------------------------------------------------------------------------------
#$Date: 2016-02-14 16:26:36 +0200 (Sun, 14 Feb 2016) $
#$Revision: 176435 $
#$URL: svn://www.crystallography.net/cod/cif/2/01/96/2019655.cif $
#------------------------------------------------------------------------------
#
# This file is available in the Crystallography Open Database (COD),
# http://www.crystallography.net/. The original data for this entry
# were provided by IUCr Journals, http://journals.iucr.org/.
#
# The file may be used within the scientific community so long as
# proper attribution is given to the journal article from which the
# data were obtained.
#
data_2019655
loop_
_publ_author_name
'Matulkov\'a, Irena'
'C\'isa\<rov\'a, Ivana'
'N\<emec, Ivan'
'F\'abry, Jan'
_publ_section_title
;
 Comparison of the hydrogen-bond patterns in 2-amino-1,3,4-thiadiazolium
 hydrogen oxalate, 2-amino-1,3,4-thiadiazole--succinic acid (1/2),
 2-amino-1,3,4-thiadiazole--glutaric acid (1/1) and
 2-amino-1,3,4-thiadiazole--adipic acid (1/1)
;
_journal_coeditor_code           FM3021
_journal_issue                   10
_journal_name_full               'Acta Crystallographica Section C'
_journal_page_first              927
_journal_page_last               933
_journal_paper_doi               10.1107/S2053229614018269
_journal_volume                  70
_journal_year                    2014
_chemical_formula_iupac          'C2 H4 N3 S1 + , C2 H1 O4 -'
_chemical_formula_moiety         'C2 H4 N3 S1+, C2 H1 O4-'
_chemical_formula_sum            'C4 H5 N3 O4 S'
_chemical_formula_weight         191.2
_chemical_name_systematic
;
2-amino-1,3,4-thiadiazolium hydrogen oxalate
;
_space_group_IT_number           14
_symmetry_cell_setting           monoclinic
_symmetry_space_group_name_Hall  '-P 2ybc'
_symmetry_space_group_name_H-M   'P 1 21/c 1'
_cell_angle_alpha                90
_cell_angle_beta                 94.9820(10)
_cell_angle_gamma                90
_cell_formula_units_Z            4
_cell_length_a                   3.68480(10)
_cell_length_b                   10.0617(2)
_cell_length_c                   18.9595(4)
_cell_measurement_reflns_used    4550
_cell_measurement_temperature    150(2)
_cell_measurement_theta_max      30.03
_cell_measurement_theta_min      2.96
_cell_volume                     700.27(3)
_computing_cell_refinement       'SAINT (Bruker, 2013)'
_computing_data_collection       'APEX2 (Bruker, 2013)'
_computing_data_reduction        'SAINT (Bruker, 2013)'
_computing_molecular_graphics
;
DIAMOND (Brandenburg & Putz, 2005), PLATON (Spek, 2009) and
JANA2006 (Pet\<r\'i\<cek <i>et al.</i>, 2014)
;
_computing_publication_material
'JANA2006 (Pet\<r\'i\<cek <i>et al.</i>, 2014)'
_computing_structure_refinement
'JANA2006 (Pet\<r\'i\<cek <i>et al.</i>, 2014)'
_computing_structure_solution    'SIR97 (Altomare <i>et al.</i>, 1999)'
_diffrn_ambient_temperature      150(2)
_diffrn_measured_fraction_theta_full 0.99
_diffrn_measured_fraction_theta_max 0.99
_diffrn_measurement_device_type  'Bruker APEXII CCD area-detector'
_diffrn_measurement_method       '\f and \w'
_diffrn_radiation_monochromator  graphite
_diffrn_radiation_source         'X-ray tube'
_diffrn_radiation_type           'Mo K\a'
_diffrn_radiation_wavelength     0.71073
_diffrn_reflns_av_R_equivalents  0.0188
_diffrn_reflns_av_sigmaI/netI    0.0139
_diffrn_reflns_limit_h_max       4
_diffrn_reflns_limit_h_min       -5
_diffrn_reflns_limit_k_max       13
_diffrn_reflns_limit_k_min       -14
_diffrn_reflns_limit_l_max       26
_diffrn_reflns_limit_l_min       -25
_diffrn_reflns_number            6984
_diffrn_reflns_theta_full        30.03
_diffrn_reflns_theta_max         30.03
_diffrn_reflns_theta_min         2.16
_diffrn_standards_number         0
_exptl_absorpt_coefficient_mu    0.44
_exptl_absorpt_correction_T_max  0.9110
_exptl_absorpt_correction_T_min  0.7898
_exptl_absorpt_correction_type   multi-scan
_exptl_absorpt_process_details   '(SADABS; Bruker, 2013)'
_exptl_crystal_colour            colourless
_exptl_crystal_density_diffrn    1.8126
_exptl_crystal_description       prism
_exptl_crystal_F_000             392
_exptl_crystal_size_max          0.56
_exptl_crystal_size_mid          0.35
_exptl_crystal_size_min          0.22
_refine_diff_density_max         0.35
_refine_diff_density_min         -0.19
_refine_ls_extinction_coef       28E2(5)
_refine_ls_extinction_method
'B-C type 1 Lorentzian isotropic (Becker & Coppens, 1974)'
_refine_ls_goodness_of_fit_ref   2.13
_refine_ls_hydrogen_treatment    mixed
_refine_ls_number_constraints    5
_refine_ls_number_parameters     125
_refine_ls_number_reflns         2031
_refine_ls_number_restraints     2
_refine_ls_R_factor_all          0.0257
_refine_ls_R_factor_gt           0.0228
_refine_ls_shift/su_max          0.0258
_refine_ls_shift/su_mean         0.0016
_refine_ls_structure_factor_coef Fsqd
_refine_ls_weighting_details     'w = 1/(\s^2^(I)+0.0004I^2^)'
_refine_ls_weighting_scheme      sigma
_refine_ls_wR_factor_gt          0.0660
_refine_ls_wR_factor_ref         0.0673
_reflns_number_gt                1856
_reflns_number_total             2031
_reflns_threshold_expression     I>3\s(I)
_iucr_refine_instructions_details
;
   19    0    0    0
 0.890694 0.000000 0.000000 0.000000 0.000000 0.000000      100000
 0.000000 0.000000                                          00
 0.000000 0.000000 0.000000 0.000000 0.000000 0.000000      000000
 0.280698 0.000000 0.000000 0.000000 0.000000 0.000000      100000
S1        5  2     1.000000 0.794839 0.029215 0.329515
 0.016123 0.010603 0.012547 0.002961 0.003173-0.000730      0111111111
C1        1  2     1.000000 0.705128 0.013619 0.417612
 0.019946 0.013842 0.013095 0.001681 0.003037 0.001399      0111111111
H1C1      2  1     1.000000 0.744964-0.067245 0.442048
 0.018641 0.000000 0.000000 0.000000 0.000000 0.000000      0111000000
N1        3  2     1.000000 0.572988 0.117177 0.445872
 0.022124 0.014031 0.013670 0.002111 0.004191 0.001713      0111111111
N2        3  2     1.000000 0.539236 0.218360 0.396960
 0.019869 0.010817 0.013321 0.002522 0.004944 0.000206      0111111111
H1N2      2  1     1.000000 0.431177 0.295779 0.408600
 0.017358 0.000000 0.000000 0.000000 0.000000 0.000000      0111000000
C2        1  2     1.000000 0.639902 0.191241 0.332607
 0.013116 0.011514 0.013751 0.001014 0.002380-0.001042      0111111111
N3        3  2     1.000000 0.625223 0.277294 0.280340
 0.031525 0.013846 0.014805 0.007335 0.007886 0.002121      0111111111
H1N3      2  1     1.000000 0.676968 0.254749 0.238379
 0.023659 0.000000 0.000000 0.000000 0.000000 0.000000      0111000000
H2N3      2  1     1.000000 0.551258 0.359118 0.288780
 0.023659 0.000000 0.000000 0.000000 0.000000 0.000000      0111000000
O1        4  2     1.000000 0.387480 0.528361 0.327091
 0.026712 0.015662 0.014694 0.004152 0.008701 0.000210      0111111111
O1b       4  2     0.000000 1.612173 0.028270 0.172868
 0.026865 0.015174 0.014603-0.004073 0.008741-0.000248      0000000000
O2        4  2     1.000000 0.200951 0.452029 0.429401
 0.026853 0.012489 0.015469 0.005377 0.007966 0.002526      0111111111
C3        1  2     1.000000 0.233121 0.538369 0.382312
 0.015523 0.011086 0.013354 0.001331 0.002248-0.001140      0111111111
C4        1  2     1.000000 0.061982 0.675818 0.395688
 0.017295 0.012168 0.012575 0.001752 0.003392-0.000817      0111111111
O3        4  2     1.000000 0.080907 0.767802 0.355151
 0.032187 0.013012 0.018791 0.005799 0.010318 0.004239      0111111111
O3b       4  2     0.000000 1.080887-0.232150 0.355179
 0.031720 0.012874 0.018919 0.005915 0.010415 0.004726      0000000000
O4        4  2     1.000000-0.107037 0.688236 0.453972
 0.028603 0.012207 0.015238 0.005588 0.009791 0.002689      0111111111
H1O4      2  1     1.000000-0.097779 0.620604 0.476783
 0.027334 0.000000 0.000000 0.000000 0.000000 0.000000      0111000000
----------------------------   s.u. block   ----------------------------
 0.001685 0.000000 0.000000 0.000000 0.000000 0.000000
 0.000000 0.000000
 0.000000 0.000000 0.000000 0.000000 0.000000 0.000000
 0.048913 0.000000 0.000000 0.000000 0.000000 0.000000
S1                 0.000000 0.000060 0.000021 0.000012
 0.000135 0.000128 0.000126 0.000076 0.000085 0.000073
C1                 0.000000 0.000268 0.000097 0.000051
 0.000473 0.000429 0.000418 0.000348 0.000345 0.000333
H1C1               0.000000 0.003258 0.001282 0.000679
 0.000000 0.000000 0.000000 0.000000 0.000000 0.000000
N1                 0.000000 0.000217 0.000081 0.000042
 0.000404 0.000380 0.000374 0.000315 0.000302 0.000288
N2                 0.000000 0.000229 0.000079 0.000042
 0.000396 0.000366 0.000368 0.000296 0.000294 0.000285
H1N2               0.000000 0.003245 0.001338 0.000663
 0.000000 0.000000 0.000000 0.000000 0.000000 0.000000
C2                 0.000000 0.000244 0.000089 0.000048
 0.000410 0.000391 0.000407 0.000314 0.000312 0.000315
N3                 0.000000 0.000257 0.000087 0.000045
 0.000487 0.000404 0.000398 0.000342 0.000342 0.000305
H1N3               0.000000 0.003448 0.001315 0.000495
 0.000000 0.000000 0.000000 0.000000 0.000000 0.000000
H2N3               0.000000 0.003173 0.000916 0.000664
 0.000000 0.000000 0.000000 0.000000 0.000000 0.000000
O1                 0.000000 0.000214 0.000067 0.000038
 0.000377 0.000367 0.000341 0.000269 0.000276 0.000244
O1b                0.000000 0.000000 0.000000 0.000000
 0.000000 0.000000 0.000000 0.000000 0.000000 0.000000
O2                 0.000000 0.000201 0.000066 0.000038
 0.000379 0.000320 0.000330 0.000261 0.000282 0.000244
C3                 0.000000 0.000254 0.000087 0.000050
 0.000427 0.000413 0.000418 0.000313 0.000329 0.000303
C4                 0.000000 0.000255 0.000091 0.000048
 0.000429 0.000405 0.000409 0.000326 0.000324 0.000318
O3                 0.000000 0.000209 0.000069 0.000040
 0.000416 0.000345 0.000341 0.000285 0.000292 0.000264
O3b                0.000000 0.000000 0.000000 0.000000
 0.000000 0.000000 0.000000 0.000000 0.000000 0.000000
O4                 0.000000 0.000205 0.000073 0.000037
 0.000389 0.000330 0.000333 0.000275 0.000277 0.000255
H1O4               0.000000 0.003382 0.001435 0.000742
 0.000000 0.000000 0.000000 0.000000 0.000000 0.000000
--------------------------   Saved points   ----------------------------
    0
--------------------------   Fourier maxima   --------------------------
    1    1    1
max1      1  1     1.000000 0.302800 0.415104 0.433514      000  0  0  0
     0.14     0.10
max2      1  1     1.000000 0.113598 0.449567 0.424940      000  0  0  0
     0.13     0.10
max3      1  1     1.000000 0.166990 0.609180 0.392285      000  0  0  0
     0.35     0.09
max4      1  1     1.000000 0.247304 0.626318 0.171266      000  0  0  0
     0.23     0.09
max5      1  1     1.000000 0.287270 0.576904 0.068862      000  0  0  0
     0.22     0.08
max6      1  1     1.000000 0.419466 0.608738 0.019241      000  0  0  0
     0.14     0.08
max7      1  1     1.000000 0.281751 0.533914 0.310249      000  0  0  0
     0.14     0.08
max8      1  1     1.000000 0.469870 0.577266 0.322589      000  0  0  0
     0.13     0.08
max9      1  1     1.000000 0.364318 0.732682 0.190449      000  0  0  0
     0.18     0.07
max10     1  1     1.000000-0.006365 0.259719 0.163704      000  0  0  0
     0.13     0.07
max11     1  1     1.000000 0.470586 0.533596 0.331599      000  0  0  0
     0.12     0.07
max12     1  1     1.000000 0.200675 0.471667 0.464748      000  0  0  0
     0.14     0.07
max13     1  1     1.000000 0.075212 0.700811 0.860509      000  0  0  0
     0.15     0.07
max14     1  1     1.000000 0.178677 0.485945 0.403944      000  0  0  0
     0.14     0.06
max15     1  1     1.000000 0.235538 0.739043 0.827067      000  0  0  0
     0.12     0.06
max16     1  1     1.000000 0.408978 0.711516 0.137188      000  0  0  0
     0.22     0.06
max17     1  1     1.000000 0.331945 0.526086 0.357347      000  0  0  0
     0.15     0.06
max18     1  1     1.000000 0.240092 0.521789 0.120454      000  0  0  0
     0.20     0.05
max19     1  1     1.000000 0.033214 0.441402 0.831310      000  0  0  0
     0.10     0.05
max20     1  1     1.000000 0.479333 0.337599 0.544221      000  0  0  0
     0.08     0.05
max21     1  1     1.000000 0.479885 0.243017 0.400885      000  0  0  0
     0.18     0.05
max22     1  1     1.000000 0.421763 0.306124 0.566234      000  0  0  0
     0.08     0.05
max23     1  1     1.000000 0.151756 0.722646 0.383544      000  0  0  0
     0.13     0.05
max24     1  1     1.000000 0.114932 0.280701 0.536162      000  0  0  0
     0.11     0.05
max25     1  1     1.000000 0.442540 0.668950 0.080584      000  0  0  0
     0.21     0.05
max26     1  1     1.000000 0.421976 0.375804 0.659040      000  0  0  0
     0.13     0.05
max27     1  1     1.000000 0.345370 0.634335 0.524155      000  0  0  0
     0.07     0.05
max28     1  1     1.000000 0.158973 0.421123 0.728630      000  0  0  0
     0.07     0.04
max29     1  1     1.000000-0.025622 0.592549 0.543148      000  0  0  0
     0.08     0.04
max30     1  1     1.000000 0.222428 0.301704 0.222208      000  0  0  0
     0.07     0.04
max31     1  1     1.000000 0.166322 0.590758 0.555981      000  0  0  0
     0.07     0.04
max32     1  1     1.000000 0.436515 0.576922 0.514232      000  0  0  0
     0.07     0.04
max33     1  1     1.000000 0.135411 0.437435 0.969856      000  0  0  0
     0.08     0.04
max34     1  1     1.000000 0.416292 0.267283 0.265108      000  0  0  0
     0.09     0.04
max35     1  1     1.000000 0.407395 0.500203 0.189404      000  0  0  0
     0.12     0.04
max36     1  1     1.000000 0.002295 0.684570 0.425360      000  0  0  0
     0.19     0.04
max37     1  1     1.000000 0.397068 0.685692 0.715313      000  0  0  0
     0.14     0.04
max38     1  1     1.000000 0.382311 0.632293 0.507834      000  0  0  0
     0.07     0.04
max39     1  1     1.000000 0.384291 0.447276 0.316851      000  0  0  0
     0.09     0.04
max40     1  1     1.000000 0.366834 0.499114 0.825576      000  0  0  0
     0.08     0.04
max41     1  1     1.000000 0.361677 0.300842 0.522448      000  0  0  0
     0.09     0.04
max42     1  1     1.000000 0.126923 0.497510 0.954713      000  0  0  0
     0.07     0.04
max43     1  1     1.000000 0.363486 0.371927 0.466575      000  0  0  0
     0.08     0.04
max44     1  1     1.000000 0.047091 0.505936 0.198036      000  0  0  0
     0.11     0.04
max45     1  1     1.000000-0.015020 0.491182 0.450898      000  0  0  0
     0.09     0.04
max46     1  1     1.000000 0.092695 0.606387 0.686886      000  0  0  0
     0.06     0.03
max47     1  1     1.000000 0.260532 0.462449 0.199928      000  0  0  0
     0.08     0.03
max48     1  1     1.000000 0.235117 0.648192 0.889902      000  0  0  0
     0.06     0.03
max49     1  1     1.000000 0.086996 0.492483 0.278288      000  0  0  0
     0.10     0.03
max50     1  1     1.000000 0.212919 0.405895 0.276675      000  0  0  0
     0.06     0.03
--------------------------   Fourier minima   --------------------------
    1    1    1
min1      1  1     1.000000 0.484592 0.739443 0.658412      000  0  0  0
     0.17     0.10
min2      1  1     1.000000 0.049279 0.629476 0.418305      000  0  0  0
     0.19     0.09
miN3      1  1     1.000000 0.120698 0.739831 0.420361      000  0  0  0
     0.19     0.09
min4      1  1     1.000000 0.334026 0.657190 0.109258      000  0  0  0
     0.17     0.09
min5      1  1     1.000000 0.186895 0.557643 0.205265      000  0  0  0
     0.15     0.08
------------------------------------------------------------------------
Version Jana2006
title
cell 3.6848 10.0617 18.9595 90 94.982 90
esdcell 0.0001 0.0002 0.0004 0 0.001 0
spgroup P21/c 14 22
lattice P
symmetry x y z
symmetry -x y+1/2 -z+1/2
symmetry -x -y -z
symmetry x -y+1/2 z+1/2
unitsnumb 4
chemform C4 H5 N3 O4 S
formtab -62
atom C atradius 0.77 color 128073041
atom H atradius 0.46 color 255204204
atom N atradius 0.74 color 176185230
atom O atradius 0.74 color 254003000
atom S atradius 1.04 color 255250000
roundmethod 1
end
*******************************************************************************
contour
  plane Plane#1
    pntplane 1 O1
    pntplane 1 C3
    pntplane 1 O2
    dltplane 0.1
    scpplane 14 14 0
    shfplane 7 4 0
  xtpcurve 1
pntcurve 3.6858 4.59
    drawatom O1 Red 2
    drawatom N3 Blue 2
    drawatom N1 Blue 2
    drawatom C3 Gray 2
    drawatom C2 Gray 2
    drawatom C1 Gray 2
    drawatom O2 Red 2
    drawatom N2 Blue 2
    drawatom O3 Red 2
    drawatom O4 Red 2
    drawatom C4 Gray 2
    drawatom H1N2 WhiteGray 2
    drawatom H2N3 WhiteGray 2
    drawatom S1 Yellow 2
    drawatom O1b Red 2
    drawatom O3b Red 2
  endplane
end contour
dist
  angles 1 lsttype 1 dmax 3.5 hamax 2.6
  selfirst S1 C1 H1C1 N1 N2 H1N2 C2 N3 H1N3 H2N3 O1 O2 C3 C4 O3 O4 H1O4
  selsecnd S1 C1 H1C1 N1 N2 H1N2 C2 N3 H1N3 H2N3 O1 O2 C3 C4 O3 O4 H1O4
  torsion C3 C4 O4 H1O4
  plane N1 C1 S1 C2 N2
  plane N3 H1N3 H2N3
end dist
fourier
  maptype 6 positive 50 negative 5
end fourier
refine
  cycles 100 fsquare 1 skipbad 1 sinlim 1 badref 15 snlmn 0.073637
  iext 1 itypex 1 idistr 2 radius 0.01
  distfix 0.88 0.01 N3 H1N3; N3 H2N3;
  keep ADP riding N3 1.2 H1N3 H2N3
  keep ADP riding O4 1.5 H1O4
  keep ADP riding N2 1.2 H1N2
  keep ADP riding C1 1.2 H1C1
end refine
;
_cod_data_source_file            fm3021sup1.cif
_cod_data_source_block           I
_cod_depositor_comments
'Adding full bibliography for 2019655--2019658.cif.'
_cod_original_formula_sum        'C4 H5 N3 O4 S1'
_cod_database_code               2019655
_cod_database_fobs_code          2019655
loop_
_symmetry_equiv_pos_site_id
_symmetry_equiv_pos_as_xyz
1 x,y,z
2 -x,y+1/2,-z+1/2
3 -x,-y,-z
4 x,-y+1/2,z+1/2
loop_
_atom_site_type_symbol
_atom_site_label
_atom_site_fract_x
_atom_site_fract_y
_atom_site_fract_z
_atom_site_U_iso_or_equiv
_atom_site_adp_type
_atom_site_calc_flag
_atom_site_occupancy
_atom_site_symmetry_multiplicity
S S1 0.79484(6) 0.02922(2) 0.329515(12) 0.01298(8) Uani d 1 4
C C1 0.7051(3) 0.01362(10) 0.41761(5) 0.0155(3) Uani d 1 4
H H1C1 0.745(3) -0.0672(13) 0.4420(7) 0.0186 Uiso d 1 4
N N1 0.5730(2) 0.11718(8) 0.44587(4) 0.0165(2) Uani d 1 4
N N2 0.5392(2) 0.21836(8) 0.39696(4) 0.0145(2) Uani d 1 4
H H1N2 0.431(3) 0.2958(13) 0.4086(7) 0.0174 Uiso d 1 4
C C2 0.6399(2) 0.19124(9) 0.33261(5) 0.0127(2) Uani d 1 4
N N3 0.6252(3) 0.27729(9) 0.28034(5) 0.0197(3) Uani d 1 4
H H1N3 0.677(3) 0.2547(13) 0.2384(5) 0.0237 Uiso d 1 4
H H2N3 0.551(3) 0.3591(9) 0.2888(7) 0.0237 Uiso d 1 4
O O1 0.3875(2) 0.52836(7) 0.32709(4) 0.0186(2) Uani d 1 4
O O2 0.2010(2) 0.45203(7) 0.42940(4) 0.0179(2) Uani d 1 4
C C3 0.2331(3) 0.53837(9) 0.38231(5) 0.0133(2) Uani d 1 4
C C4 0.0620(3) 0.67582(9) 0.39569(5) 0.0139(2) Uani d 1 4
O O3 0.0809(2) 0.76780(7) 0.35515(4) 0.0209(2) Uani d 1 4
O O4 -0.1070(2) 0.68824(7) 0.45397(4) 0.0182(2) Uani d 1 4
H H1O4 -0.098(3) 0.6206(14) 0.4768(7) 0.0273 Uiso d 1 4
loop_
_atom_site_aniso_label
_atom_site_aniso_U_11
_atom_site_aniso_U_22
_atom_site_aniso_U_33
_atom_site_aniso_U_12
_atom_site_aniso_U_13
_atom_site_aniso_U_23
_atom_site_aniso_type_symbol
S1 0.01612(13) 0.01060(13) 0.01255(13) 0.00296(8) 0.00317(9) -0.00073(7) S
C1 0.0199(5) 0.0138(4) 0.0131(4) 0.0017(3) 0.0030(3) 0.0014(3) C
N1 0.0221(4) 0.0140(4) 0.0137(4) 0.0021(3) 0.0042(3) 0.0017(3) N
N2 0.0199(4) 0.0108(4) 0.0133(4) 0.0025(3) 0.0049(3) 0.0002(3) N
C2 0.0131(4) 0.0115(4) 0.0138(4) 0.0010(3) 0.0024(3) -0.0010(3) C
N3 0.0315(5) 0.0138(4) 0.0148(4) 0.0073(3) 0.0079(3) 0.0021(3) N
O1 0.0267(4) 0.0157(4) 0.0147(3) 0.0042(3) 0.0087(3) 0.0002(2) O
O2 0.0269(4) 0.0125(3) 0.0155(3) 0.0054(3) 0.0080(3) 0.0025(2) O
C3 0.0155(4) 0.0111(4) 0.0134(4) 0.0013(3) 0.0022(3) -0.0011(3) C
C4 0.0173(4) 0.0122(4) 0.0126(4) 0.0018(3) 0.0034(3) -0.0008(3) C
O3 0.0322(4) 0.0130(3) 0.0188(3) 0.0058(3) 0.0103(3) 0.0042(3) O
O4 0.0286(4) 0.0122(3) 0.0152(3) 0.0056(3) 0.0098(3) 0.0027(3) O
loop_
_atom_type_symbol
_atom_type_scat_dispersion_real
_atom_type_scat_dispersion_imag
_atom_type_scat_source
C 0.003 0.002 'International Tables Vol C tables 4.2.6.8 and 6.1.1.1'
H 0.000 0.000 'International Tables Vol C tables 4.2.6.8 and 6.1.1.1'
N 0.006 0.003 'International Tables Vol C tables 4.2.6.8 and 6.1.1.1'
O 0.011 0.006 'International Tables Vol C tables 4.2.6.8 and 6.1.1.1'
S 0.125 0.123 'International Tables Vol C tables 4.2.6.8 and 6.1.1.1'
loop_
_geom_angle_atom_site_label_1
_geom_angle_atom_site_label_2
_geom_angle_atom_site_label_3
_geom_angle
_geom_angle_publ_flag
S1 C1 H1C1 121.1(8) no
S1 C1 N1 115.95(7) no
H1C1 C1 N1 122.9(8) no
C1 N1 N2 109.51(8) no
N1 N2 H1N2 119.0(8) no
N1 N2 C2 116.69(8) no
H1N2 N2 C2 124.0(8) no
S1 C2 N2 110.03(7) no
S1 C2 N3 125.99(8) no
N2 C2 N3 123.97(9) no
C2 N3 H1N3 121.6(9) no
C2 N3 H2N3 118.0(8) no
H1N3 N3 H2N3 120.4(12) no
O1 C3 O2 128.47(9) no
O1 C3 C4 115.73(8) no
O2 C3 C4 115.79(8) no
C3 C4 O3 122.16(9) no
C3 C4 O4 116.71(8) no
O3 C4 O4 121.13(9) no
O3 C4 H1O4 146.0(5) no
C4 O4 H1O4 111.6(10) no
loop_
_geom_bond_atom_site_label_1
_geom_bond_atom_site_label_2
_geom_bond_site_symmetry_2
_geom_bond_distance
_geom_bond_publ_flag
S1 C1 . 1.7377(10) no
S1 C2 . 1.7300(9) no
C1 H1C1 . 0.941(13) no
C1 N1 . 1.2865(13) no
N1 N2 . 1.3755(11) no
N2 H1N2 . 0.911(13) no
N2 C2 . 1.3339(12) no
C2 N3 . 1.3135(12) no
N3 H1N3 . 0.864(10) no
N3 H2N3 . 0.886(10) no
H1N3 H2N3 . 1.519(16) no
O1 C3 . 1.2382(12) no
O2 C3 . 1.2586(12) no
C3 C4 . 1.5500(13) no
C4 O3 . 1.2089(12) no
C4 O4 . 1.3207(12) no
O4 H1O4 . 0.805(14) no
S1 O1 2_645 2.9868(8) no
S1 O3 1_645 2.8595(7) no
loop_
_geom_hbond_atom_site_label_D
_geom_hbond_atom_site_label_H
_geom_hbond_atom_site_label_A
_geom_hbond_site_symmetry_A
_geom_hbond_distance_DH
_geom_hbond_distance_HA
_geom_hbond_distance_DA
_geom_hbond_angle_DHA
_geom_hbond_publ_flag
O4 H1O4 O2 . 0.809(14) 2.245(14) 2.6914(10) 115.2(12) no
O4 H1O4 O2 3_566 0.809(14) 1.990(14) 2.6709(10) 141.4(14) yes
N2 H1N2 O2 . 0.923(13) 1.833(13) 2.7553(11) 177.7(11) yes
N3 H1N3 O1 2_645 0.867(10) 2.594(13) 3.2260(11) 130.6(11) no
N3 H1N3 O3 2_645 0.867(10) 2.055(11) 2.8745(12) 157.4(12) yes
N3 H2N3 O1 . 0.888(10) 1.966(10) 2.8407(11) 168.4(12) yes
C1 H1C1 O4 1_645 0.946(13) 2.520(13) 3.4044(12) 155.6(11) yes
C1 H1C1 N1 3_656 0.946(13) 2.563(13) 3.1531(13) 120.7(10) yes
loop_
_geom_torsion_atom_site_label_1
_geom_torsion_atom_site_label_2
_geom_torsion_atom_site_label_3
_geom_torsion_atom_site_label_4
_geom_torsion
_geom_torsion_publ_flag
C3 C4 O4 H1O4 0.9(10) no
