#------------------------------------------------------------------------------
#$Date: 2016-02-20 00:18:51 +0200 (Sat, 20 Feb 2016) $
#$Revision: 176760 $
#$URL: svn://www.crystallography.net/cod/cif/2/01/94/2019402.cif $
#------------------------------------------------------------------------------
#
# This file is available in the Crystallography Open Database (COD),
# http://www.crystallography.net/
#
# All data on this site have been placed in the public domain by the
# contributors.
#
data_2019402
loop_
_publ_author_name
'Gholizadeh, Mostafa'
'Pourayoubi, Mehrdad'
'Farimaneh, Masoumeh'
'Tarahhomi, Atekeh'
'Du\<sek, Michal'
'Eigner, V\'aclav'
_publ_section_title
;
 Hirshfeld surface analysis of the 1,1'-(ethane-1,2-diyl)dipyridinium
 dication in two new salts: perchlorate and peroxodisulfate
;
_journal_coeditor_code           LG3130
_journal_issue                   2
_journal_name_full               'Acta Crystallographica Section C'
_journal_page_first              230
_journal_page_last               235
_journal_paper_doi               10.1107/S2053229614000576
_journal_volume                  70
_journal_year                    2014
_chemical_formula_iupac          'C12 H14 N2 2+ , 2Cl O4 -'
_chemical_formula_moiety         'C12 H14 N2 2+, 2(Cl O4 -)'
_chemical_formula_sum            'C12 H14 Cl2 N2 O8'
_chemical_formula_weight         385.15
_chemical_name_systematic
;
1,1'-(Ethane-1,2-diyl)dipyridinium bis(perchlorate)
;
_space_group_IT_number           2
_symmetry_cell_setting           triclinic
_symmetry_space_group_name_Hall  '-P 1'
_symmetry_space_group_name_H-M   'P -1'
_cell_angle_alpha                97.858(4)
_cell_angle_beta                 95.503(4)
_cell_angle_gamma                100.655(4)
_cell_formula_units_Z            1
_cell_length_a                   6.0687(3)
_cell_length_b                   6.7263(4)
_cell_length_c                   9.8005(3)
_cell_measurement_reflns_used    4357
_cell_measurement_temperature    120.00(10)
_cell_measurement_theta_max      29.26
_cell_measurement_theta_min      3.11
_cell_volume                     386.44(3)
_computing_cell_refinement       '<i>CrysAlis PRO</i> (Agilent, 2010)'
_computing_data_collection       '<i>CrysAlis PRO</i> (Agilent, 2010)'
_computing_data_reduction        '<i>CrysAlis PRO</i> (Agilent, 2010)'
_computing_molecular_graphics    '<i>DIAMOND</i> (Brandenburg & Putz, 2005)'
_computing_publication_material
;
<i>JANA2006</i> (Pet\<r\'i\<cek <i>et al.</i>, 2006), enCIFer (Allen,
<i>et al.</i>, 2004) and <i>PLATON</i> (Spek, 2009)
;
_computing_structure_refinement
'<i>JANA2006</i> (Pet\<r\'i\<cek <i>et al.</i>, 2006)'
_computing_structure_solution    '<i>SIR2002</i> (Burla <i>et al.</i>, 2003)'
_diffrn_ambient_temperature      120
_diffrn_detector_area_resol_mean 10.3784
_diffrn_measured_fraction_theta_full 0.98
_diffrn_measured_fraction_theta_max 0.89
_diffrn_measurement_device       'four-cycle diffractometer'
_diffrn_measurement_device_type
'Agilent Xcalibur Gemini Ultra diffractometer with Atlas detector'
_diffrn_measurement_method       \w
_diffrn_radiation_monochromator  graphite
_diffrn_radiation_source         'Enhance (Mo) X-ray Source'
_diffrn_radiation_type           'Mo K\a'
_diffrn_radiation_wavelength     0.7107
_diffrn_reflns_av_R_equivalents  0.0188
_diffrn_reflns_av_sigmaI/netI    0.0186
_diffrn_reflns_limit_h_max       7
_diffrn_reflns_limit_h_min       -8
_diffrn_reflns_limit_k_max       9
_diffrn_reflns_limit_k_min       -8
_diffrn_reflns_limit_l_max       13
_diffrn_reflns_limit_l_min       -12
_diffrn_reflns_number            6178
_diffrn_reflns_theta_full        27.9
_diffrn_reflns_theta_max         29.32
_diffrn_reflns_theta_min         3.12
_exptl_absorpt_coefficient_mu    0.466
_exptl_absorpt_correction_T_max  0.946
_exptl_absorpt_correction_T_min  0.88
_exptl_absorpt_correction_type   analytical
_exptl_absorpt_process_details   '(CrysAlis PRO; Agilent, 2010)'
_exptl_crystal_colour            colourless
_exptl_crystal_density_diffrn    1.6545
_exptl_crystal_description       prism
_exptl_crystal_F_000             198
_exptl_crystal_size_max          0.569
_exptl_crystal_size_mid          0.314
_exptl_crystal_size_min          0.172
_refine_diff_density_max         0.29
_refine_diff_density_min         -0.33
_refine_ls_extinction_coef       16E2(4)
_refine_ls_extinction_method
;
B--C type 1 Gaussian isotropic (Becker & Coppens, 1974)
Becker, P. J. & Coppens, P. (1974). <i>Acta Cryst.</i> A<b>30</b>,
129--147.
;
_refine_ls_goodness_of_fit_ref   1.79
_refine_ls_hydrogen_treatment    constr
_refine_ls_number_constraints    28
_refine_ls_number_parameters     110
_refine_ls_number_reflns         1904
_refine_ls_number_restraints     0
_refine_ls_R_factor_all          0.0336
_refine_ls_R_factor_gt           0.0296
_refine_ls_shift/su_max          0.0104
_refine_ls_shift/su_mean         0.0005
_refine_ls_structure_factor_coef Fsqd
_refine_ls_weighting_details     'w = 1/(\s^2^(I)+0.0016I^2^)'
_refine_ls_weighting_scheme      sigma
_refine_ls_wR_factor_gt          0.1006
_refine_ls_wR_factor_ref         0.1039
_reflns_number_gt                1717
_reflns_number_total             1904
_reflns_threshold_expression     I>3\s(I)
_iucr_refine_instructions_details
;
Jana2006 M40 file
   19    0    0    1
 13.01147 0.000000 0.000000 0.000000 0.000000 0.000000      100000
 0.000000 0.000000                                          00
 0.000000 0.000000 0.000000 0.000000 0.000000 0.000000      000000
 0.163083 0.000000 0.000000 0.000000 0.000000 0.000000      100000
Cl1       5  2     1.000000 0.512048 0.205694 0.215289
 0.013001 0.015711 0.013744 0.002781 0.001562 0.003661      0111111111
O1        4  2     1.000000 0.753744 0.233445 0.242739
 0.012349 0.026766 0.024950 0.004531-0.000051 0.008196      0111111111
O2        4  2     1.000000 0.456274 0.328952 0.111473
 0.021770 0.023556 0.016012 0.009239 0.002246 0.007093      0111111111
O3        4  2     1.000000 0.422963 0.272247 0.340546
 0.028094 0.051132 0.016009 0.018817 0.009339 0.008705      0111111111
O4        4  2     1.000000 0.416329-0.005998 0.165261
 0.032331 0.016367 0.043871-0.006358-0.003461 0.005265      0111111111
N2        3  2     1.000000 0.011970 0.665135 0.171938
 0.013787 0.011125 0.009888-0.000250 0.001677 0.000923      0111111111
C6        1  2     1.000000-0.201264 0.787410 0.341532
 0.017705 0.015382 0.018893 0.004880 0.006298 0.001199      0111111111
C4        1  2     1.000000 0.137993 0.673710 0.408540
 0.019464 0.014461 0.012894 0.000440-0.002591 0.002555      0111111111
C5        1  2     1.000000-0.047729 0.751429 0.444439
 0.022262 0.013687 0.012235-0.000660 0.003587-0.000023      0111111111
C1        1  2     1.000000 0.047349 0.613453 0.024634
 0.016814 0.014923 0.009815 0.000887 0.003296 0.000979      0111111111
C3        1  2     1.000000 0.164474 0.629900 0.270222
 0.013526 0.013225 0.016535 0.002355 0.001493 0.002658      0111111111
C7        1  2     1.000000-0.167557 0.743608 0.204069
 0.013156 0.015003 0.015562 0.002619-0.000334 0.001719      0111111111
H1C6      2  1     1.000000-0.330164 0.842353 0.365405
 0.020399 0.000000 0.000000 0.000000 0.000000 0.000000      0000000000
H1C4      2  1     1.000000 0.247221 0.650526 0.479091
 0.019514 0.000000 0.000000 0.000000 0.000000 0.000000      0000000000
H1C5      2  1     1.000000-0.070031 0.780266 0.540231
 0.020063 0.000000 0.000000 0.000000 0.000000 0.000000      0000000000
H1C1      2  1     1.000000 0.206125 0.642718 0.016718
 0.016960 0.000000 0.000000 0.000000 0.000000 0.000000      0000000000
H2C1      2  1     1.000000-0.029750 0.692644-0.030912
 0.016960 0.000000 0.000000 0.000000 0.000000 0.000000      0000000000
H1C3      2  1     1.000000 0.291729 0.574231 0.243952
 0.017361 0.000000 0.000000 0.000000 0.000000 0.000000      0000000000
H1C7      2  1     1.000000-0.272253 0.769263 0.131890
 0.017770 0.000000 0.000000 0.000000 0.000000 0.000000      0000000000
----------------------------   s.u. block   ----------------------------
 0.038645 0.000000 0.000000 0.000000 0.000000 0.000000
 0.000000 0.000000
 0.000000 0.000000 0.000000 0.000000 0.000000 0.000000
 0.038210 0.000000 0.000000 0.000000 0.000000 0.000000
Cl1                0.000000 0.000057 0.000055 0.000033
 0.000234 0.000233 0.000226 0.000148 0.000138 0.000143
O1                 0.000000 0.000184 0.000185 0.000118
 0.000620 0.000683 0.000618 0.000483 0.000441 0.000494
O2                 0.000000 0.000191 0.000181 0.000109
 0.000643 0.000652 0.000566 0.000501 0.000436 0.000455
O3                 0.000000 0.000214 0.000227 0.000118
 0.000740 0.000919 0.000627 0.000643 0.000495 0.000559
O4                 0.000000 0.000232 0.000199 0.000139
 0.000787 0.000668 0.000800 0.000551 0.000592 0.000554
N2                 0.000000 0.000212 0.000193 0.000122
 0.000641 0.000615 0.000590 0.000477 0.000433 0.000453
C6                 0.000000 0.000267 0.000235 0.000156
 0.000811 0.000778 0.000778 0.000620 0.000586 0.000589
C4                 0.000000 0.000267 0.000237 0.000153
 0.000825 0.000766 0.000731 0.000606 0.000564 0.000556
C5                 0.000000 0.000273 0.000240 0.000154
 0.000851 0.000754 0.000731 0.000614 0.000572 0.000557
C1                 0.000000 0.000245 0.000223 0.000140
 0.000792 0.000808 0.000699 0.000613 0.000545 0.000564
C3                 0.000000 0.000256 0.000230 0.000149
 0.000754 0.000742 0.000748 0.000581 0.000551 0.000562
C7                 0.000000 0.000256 0.000237 0.000150
 0.000750 0.000759 0.000759 0.000580 0.000545 0.000568
H1C6               0.000000-0.100000-0.100000-0.100000
 0.000000 0.000000 0.000000 0.000000 0.000000 0.000000
H1C4               0.000000-0.100000-0.100000-0.100000
 0.000000 0.000000 0.000000 0.000000 0.000000 0.000000
H1C5               0.000000-0.100000-0.100000-0.100000
 0.000000 0.000000 0.000000 0.000000 0.000000 0.000000
H1C1               0.000000-0.100000-0.100000-0.100000
 0.000000 0.000000 0.000000 0.000000 0.000000 0.000000
H2C1               0.000000-0.100000-0.100000-0.100000
 0.000000 0.000000 0.000000 0.000000 0.000000 0.000000
H1C3               0.000000-0.100000-0.100000-0.100000
 0.000000 0.000000 0.000000 0.000000 0.000000 0.000000
H1C7               0.000000-0.100000-0.100000-0.100000
 0.000000 0.000000 0.000000 0.000000 0.000000 0.000000
--------------------------   Saved points   ----------------------------
    0
--------------------------   Fourier maxima   --------------------------
    1    1    1
max1      1  1     1.000000 0.183647 0.248609 0.727923      000  0  0  0
     0.27     0.13
max2      1  1     1.000000 0.317513 0.032658 0.142301      000  0  0  0
     0.22     0.13
max3      1  1     1.000000 0.273881 0.820329 0.761316      000  0  0  0
     0.16     0.12
max4      1  1     1.000000 0.397238 0.317129 0.129028      000  0  0  0
     0.18     0.11
max5      1  1     1.000000 0.455265 0.332795 0.344916      000  0  0  0
     0.16     0.11
max6      1  1     1.000000 0.117074 0.639805 0.337836      000  0  0  0
     0.23     0.11
max7      1  1     1.000000 0.425481-0.007567 0.157039      000  0  0  0
     0.16     0.11
max8      1  1     1.000000 0.227811 0.733805 0.745864      000  0  0  0
     0.14     0.10
max9      1  1     1.000000 0.116947 0.231251 0.602590      000  0  0  0
     0.22     0.10
max10     1  1     1.000000-0.012620 0.323686 0.582698      000  0  0  0
     0.19     0.09
--------------------------   Fourier minima   --------------------------
    1    1    1
min1      1  1     1.000000 0.467097 0.848002 0.747671      000  0  0  0
     0.33     0.21
min2      1  1     1.000000 0.463920 0.831314 0.836307      000  0  0  0
     0.31     0.20
min3      1  1     1.000000 0.424747 0.191120 0.212995      000  0  0  0
     0.30     0.18
min4      1  1     1.000000 0.437658 0.702721 0.776607      000  0  0  0
     0.30     0.16
min5      1  1     1.000000 0.047033 0.272369 0.692506      000  0  0  0
     0.16     0.14
min6      1  1     1.000000 0.329050 0.613636 0.363099      000  0  0  0
     0.14     0.10
min7      1  1     1.000000 0.157702 0.492963 0.070430      000  0  0  0
     0.15     0.09
min8      1  1     1.000000 0.048442 0.763842 0.257495      000  0  0  0
     0.13     0.09
min9      1  1     1.000000-0.014461 0.843564 0.338533      000  0  0  0
     0.15     0.09
min10     1  1     1.000000 0.086836 0.481691 0.139947      000  0  0  0
     0.12     0.09
------------------------------------------------------------------------
Jana2006 M50 file
Version Jana2006
title
cell 6.0687 6.7263 9.8005 97.858 95.503 100.655
esdcell 0.0003 0.0004 0.0003 0.004 0.004 0.004
spgroup P-1 2 1
lattice P
symmetry x y z
symmetry -x -y -z
unitsnumb 2
chemform C6 H7 N O4 Cl
formtab -62
atom C atradius 0.77 color 128073041
atom H atradius 0.46 color 255204204
atom N atradius 0.74 color 176185230
atom O atradius 0.74 color 254003000
atom Cl atradius 0.99 color 49252002
roundmethod 1
end
*******************************************************************************
contour
end contour
dist
  angles 1
end dist
fourier
  maptype 6
end fourier
refine
  fsquare 1 unstab 0.02
  iext 1 itypex 1 idistr 1 radius 0.01
  keep hydro triang C6 2 1 C7 C5 0.96 H1C6
  keep ADP riding C6 1.2 H1C6
  keep hydro triang C4 2 1 C3 C5 0.96 H1C4
  keep ADP riding C4 1.2 H1C4
  keep hydro triang C5 2 1 C4 C6 0.96 H1C5
  keep ADP riding C5 1.2 H1C5
  keep hydro tetrahed C1 2 2 N2 C1#s2t0,1,0 0.96 H1C1 H2C1
  keep ADP riding C1 1.2 H1C1 H2C1
  keep hydro triang C3 2 1 N2 C4 0.96 H1C3
  keep ADP riding C3 1.2 H1C3
  keep hydro triang C7 2 1 N2 C6 0.96 H1C7
  keep ADP riding C7 1.2 H1C7
end refine
;
_cod_data_source_file            lg3130sup1.cif
_cod_data_source_block           I
_cod_database_code               2019402
loop_
_symmetry_equiv_pos_site_id
_symmetry_equiv_pos_as_xyz
1 x,y,z
2 -x,-y,-z
loop_
_atom_site_type_symbol
_atom_site_label
_atom_site_fract_x
_atom_site_fract_y
_atom_site_fract_z
_atom_site_U_iso_or_equiv
_atom_site_adp_type
_atom_site_calc_flag
_atom_site_occupancy
_atom_site_symmetry_multiplicity
Cl Cl1 0.51205(6) 0.20569(6) 0.21529(3) 0.01404(14) Uani d 1 2
O O1 0.75374(18) 0.23345(19) 0.24274(12) 0.0210(4) Uani d 1 2
O O2 0.45627(19) 0.32895(18) 0.11147(11) 0.0195(4) Uani d 1 2
O O3 0.4230(2) 0.2722(2) 0.34055(12) 0.0296(5) Uani d 1 2
O O4 0.4163(2) -0.0060(2) 0.16526(14) 0.0328(5) Uani d 1 2
N N2 0.0120(2) 0.66514(19) 0.17194(12) 0.0120(4) Uani d 1 2
C C6 -0.2013(3) 0.7874(2) 0.34153(16) 0.0170(5) Uani d 1 2
C C4 0.1380(3) 0.6737(2) 0.40854(15) 0.0163(5) Uani d 1 2
C C5 -0.0477(3) 0.7514(2) 0.44444(15) 0.0167(5) Uani d 1 2
C C1 0.0473(2) 0.6135(2) 0.02463(14) 0.0141(5) Uani d 1 2
C C3 0.1645(3) 0.6299(2) 0.27022(15) 0.0145(5) Uani d 1 2
C C7 -0.1676(3) 0.7436(2) 0.20407(15) 0.0148(5) Uani d 1 2
H H1C6 -0.330164 0.842353 0.365405 0.0204 Uiso d 1 2
H H1C4 0.247221 0.650526 0.479091 0.0195 Uiso d 1 2
H H1C5 -0.070031 0.780266 0.540231 0.0201 Uiso d 1 2
H H1C1 0.206125 0.642718 0.016718 0.017 Uiso d 1 2
H H2C1 -0.02975 0.692644 -0.030912 0.017 Uiso d 1 2
H H1C3 0.291729 0.574231 0.243952 0.0174 Uiso d 1 2
H H1C7 -0.272253 0.769263 0.13189 0.0178 Uiso d 1 2
loop_
_atom_site_aniso_label
_atom_site_aniso_U_11
_atom_site_aniso_U_22
_atom_site_aniso_U_33
_atom_site_aniso_U_12
_atom_site_aniso_U_13
_atom_site_aniso_U_23
_atom_site_aniso_type_symbol
Cl1 0.0130(2) 0.0157(2) 0.0137(2) 0.00278(15) 0.00156(14) 0.00366(14) Cl
O1 0.0123(6) 0.0268(7) 0.0249(6) 0.0045(5) -0.0001(4) 0.0082(5) O
O2 0.0218(6) 0.0236(7) 0.0160(6) 0.0092(5) 0.0022(4) 0.0071(5) O
O3 0.0281(7) 0.0511(9) 0.0160(6) 0.0188(6) 0.0093(5) 0.0087(6) O
O4 0.0323(8) 0.0164(7) 0.0439(8) -0.0064(6) -0.0035(6) 0.0053(6) O
N2 0.0138(6) 0.0111(6) 0.0099(6) -0.0003(5) 0.0017(4) 0.0009(5) N
C6 0.0177(8) 0.0154(8) 0.0189(8) 0.0049(6) 0.0063(6) 0.0012(6) C
C4 0.0195(8) 0.0145(8) 0.0129(7) 0.0004(6) -0.0026(6) 0.0026(6) C
C5 0.0223(9) 0.0137(8) 0.0122(7) -0.0007(6) 0.0036(6) 0.0000(6) C
C1 0.0168(8) 0.0149(8) 0.0098(7) 0.0009(6) 0.0033(5) 0.0010(6) C
C3 0.0135(8) 0.0132(7) 0.0165(7) 0.0024(6) 0.0015(6) 0.0027(6) C
C7 0.0132(8) 0.0150(8) 0.0156(8) 0.0026(6) -0.0003(5) 0.0017(6) C
loop_
_atom_type_symbol
_atom_type_scat_dispersion_real
_atom_type_scat_dispersion_imag
_atom_type_scat_source
C 0.0033 0.0016 'International Tables Vol C tables 4.2.6.8 and 6.1.1.1'
H 0.0000 0.0000 'International Tables Vol C tables 4.2.6.8 and 6.1.1.1'
Cl 0.1484 0.1585 'International Tables Vol C tables 4.2.6.8 and 6.1.1.1'
N 0.0061 0.0033 'International Tables Vol C tables 4.2.6.8 and 6.1.1.1'
O 0.0106 0.0060 'International Tables Vol C tables 4.2.6.8 and 6.1.1.1'
loop_
_geom_angle_atom_site_label_1
_geom_angle_atom_site_label_2
_geom_angle_atom_site_label_3
_geom_angle_site_symmetry_1
_geom_angle_site_symmetry_3
_geom_angle
_geom_angle_publ_flag
O1 Cl1 O2 . . 109.06(7) yes
O1 Cl1 O3 . . 109.45(7) yes
O1 Cl1 O4 . . 109.70(8) yes
O2 Cl1 O3 . . 108.85(8) yes
O2 Cl1 O4 . . 109.68(7) yes
O3 Cl1 O4 . . 110.09(8) yes
C1 N2 C3 . . 117.85(13) yes
C1 N2 C7 . . 120.22(12) yes
C3 N2 C7 . . 121.93(13) yes
C5 C6 C7 . . 119.46(16) ?
C5 C6 H1C6 . . 120.27 ?
C7 C6 H1C6 . . 120.27 ?
C5 C4 C3 . . 119.21(15) ?
C5 C4 H1C4 . . 120.4 ?
C3 C4 H1C4 . . 120.4 ?
C6 C5 C4 . . 119.62(14) ?
C6 C5 H1C5 . . 120.19 ?
C4 C5 H1C5 . . 120.19 ?
N2 C1 C1 . 2_565 108.98(12) ?
N2 C1 H1C1 . . 109.47 ?
N2 C1 H2C1 . . 109.47 ?
C1 C1 H1C1 2_565 . 109.47 ?
C1 C1 H2C1 2_565 . 109.47 ?
H1C1 C1 H2C1 . . 109.95 ?
N2 C3 C4 . . 120.04(15) ?
N2 C3 H1C3 . . 119.98 ?
C4 C3 H1C3 . . 119.98 ?
N2 C7 C6 . . 119.73(14) ?
N2 C7 H1C7 . . 120.14 ?
C6 C7 H1C7 . . 120.14 ?
loop_
_geom_bond_atom_site_label_1
_geom_bond_atom_site_label_2
_geom_bond_site_symmetry_2
_geom_bond_distance
_geom_bond_publ_flag
Cl1 O1 . 1.4381(12) yes
Cl1 O2 . 1.4510(13) yes
Cl1 O3 . 1.4374(13) yes
Cl1 O4 . 1.4332(13) yes
N2 C1 . 1.4835(18) yes
N2 C3 . 1.347(2) yes
N2 C7 . 1.341(2) yes
C6 C5 . 1.383(2) ?
C6 C7 . 1.382(2) ?
C6 H1C6 . 0.96 ?
C4 C5 . 1.382(2) ?
C4 C3 . 1.379(2) ?
C4 H1C4 . 0.96 ?
C5 H1C5 . 0.96 ?
C1 C1 2_565 1.5211(19) ?
C1 H1C1 . 0.96 ?
C1 H2C1 . 0.96 ?
C3 H1C3 . 0.96 ?
C7 H1C7 . 0.96 ?
loop_
_geom_hbond_atom_site_label_D
_geom_hbond_atom_site_label_H
_geom_hbond_atom_site_label_A
_geom_hbond_site_symmetry_A
_geom_hbond_distance_DH
_geom_hbond_distance_HA
_geom_hbond_distance_DA
_geom_hbond_angle_DHA
_geom_hbond_publ_flag
C3 H1C3 O2 . 0.96 2.38 3.263(2) 152 yes
C7 H1C7 O2 2_565 0.96 2.48 3.3322(18) 148 yes
C1 H2C1 O2 2_565 0.96 2.60 3.326(2) 132 yes
C3 H1C3 O3 . 0.96 2.58 3.220(2) 125 yes
C4 H1C4 O3 2_666 0.96 2.47 3.3792(19) 159 yes
C1 H1C1 O2 2_665 0.96 2.50 3.3888(19) 155 yes
C3 . O4 1_565 . . 3.000(2) . yes
N2 . O4 1_565 . . 2.997(2) . yes
C1 H1C1 O4 1_565 0.96 2.63 3.129(2) 113 yes
C5 . C5 1_576 . . 3.297(2) . yes
C5 H1C5 O3 2_566 0.96 2.53 3.245(2) 132 yes
C5 . C4 2_566 . . 3.354(2) . yes
loop_
_geom_torsion_atom_site_label_1
_geom_torsion_atom_site_label_2
_geom_torsion_atom_site_label_3
_geom_torsion_atom_site_label_4
_geom_torsion_site_symmetry_4
_geom_torsion
_geom_torsion_publ_flag
C3 N2 C1 C1 2_565 83.48(15) yes
C7 N2 C1 C1 2_565 -96.28(15) yes
C4 C3 N2 C1 . -179.44(13) yes
C6 C7 N2 C1 . 178.73(13) yes
