#------------------------------------------------------------------------------
#$Date: 2016-02-20 00:18:51 +0200 (Sat, 20 Feb 2016) $
#$Revision: 176760 $
#$URL: svn://www.crystallography.net/cod/cif/2/01/96/2019666.cif $
#------------------------------------------------------------------------------
#
# This file is available in the Crystallography Open Database (COD),
# http://www.crystallography.net/. The original data for this entry
# were provided by IUCr Journals, http://journals.iucr.org/.
#
# The file may be used within the scientific community so long as
# proper attribution is given to the journal article from which the
# data were obtained.
#
data_2019666
loop_
_publ_author_name
'Capelli, Silvia C.'
'B\"urgi, Hans-Beat'
'Mason, Sax A.'
'Jayatilaka, Dylan'
_publ_section_title
;
 Glycyl-<small>L</small>-alanine: a multi-temperature neutron study
;
_journal_issue                   10
_journal_name_full               'Acta Crystallographica Section C'
_journal_page_first              949
_journal_page_last               952
_journal_paper_doi               10.1107/S2053229614019809
_journal_volume                  70
_journal_year                    2014
_chemical_formula_iupac          'C5 H10 N2 O3'
_chemical_formula_moiety         'C5 H10 N2 O3'
_chemical_formula_sum            'C5 H10 N2 O3'
_chemical_formula_weight         146.15
_chemical_name_common            Gly-L-Ala
_chemical_name_systematic
;
Glycyl-<i>L</i>-alanine
;
_space_group_IT_number           19
_symmetry_cell_setting           orthorhombic
_symmetry_space_group_name_Hall  'P 2ac 2ab'
_symmetry_space_group_name_H-M   'P 21 21 21'
_atom_sites_solution_hydrogens   difmap
_atom_sites_solution_primary     direct
_atom_sites_solution_secondary   difmap
_audit_creation_method           SHELXL-97
_cell_angle_alpha                90.00
_cell_angle_beta                 90.00
_cell_angle_gamma                90.00
_cell_formula_units_Z            4
_cell_length_a                   7.5302(11)
_cell_length_b                   9.5115(16)
_cell_length_c                   9.6855(14)
_cell_measurement_reflns_used    344
_cell_measurement_temperature    295(2)
_cell_measurement_theta_max      32.10
_cell_measurement_theta_min      4.08
_cell_volume                     693.71(18)
_computing_cell_refinement       'ILL-RAFD9 software'
_computing_data_collection       'ILL-MAD software'
_computing_data_reduction        'RACER (Wilkinson <i>et al.</i>, 1988)'
_computing_molecular_graphics    'Mercury (Macrae <i>et al.</i>, 2008)'
_computing_structure_refinement  'SHELXL97 (Sheldrick, 2008)'
_computing_structure_solution    'SHELXS97 (Sheldrick, 2008)'
_diffrn_ambient_temperature      295(2)
_diffrn_detector_area_resol_mean 0.5
_diffrn_measured_fraction_theta_full 0.986
_diffrn_measured_fraction_theta_max 0.986
_diffrn_measurement_device_type  '4-circle Eulerian cradle'
_diffrn_measurement_method       'omega-X-theta scans'
_diffrn_radiation_monochromator  Cu(220)
_diffrn_radiation_source         'nuclear reactor'
_diffrn_radiation_wavelength     0.83130
_diffrn_reflns_av_R_equivalents  0.0254
_diffrn_reflns_av_sigmaI/netI    0.0958
_diffrn_reflns_limit_h_max       6
_diffrn_reflns_limit_h_min       -11
_diffrn_reflns_limit_k_max       14
_diffrn_reflns_limit_k_min       0
_diffrn_reflns_limit_l_max       10
_diffrn_reflns_limit_l_min       -14
_diffrn_reflns_number            1446
_diffrn_reflns_theta_full        38.06
_diffrn_reflns_theta_max         38.06
_diffrn_reflns_theta_min         3.51
_diffrn_standards_number         0
_exptl_absorpt_coefficient_mu    2.15
_exptl_absorpt_correction_T_max  0.8081
_exptl_absorpt_correction_T_min  0.7263
_exptl_absorpt_correction_type   gaussian
_exptl_absorpt_process_details   'ILL-DATAP software'
_exptl_crystal_colour            coulourless
_exptl_crystal_density_diffrn    1.399
_exptl_crystal_density_method    'not measured'
_exptl_crystal_description       prismatic
_exptl_crystal_F_000             128
_exptl_crystal_size_max          3
_exptl_crystal_size_mid          3
_exptl_crystal_size_min          1.5
_refine_diff_density_max         0.811
_refine_diff_density_min         -0.839
_refine_ls_abs_structure_details 'Flack (1983), <b>???? Friedel pairs</b>'
_refine_ls_abs_structure_Flack   10(10)
_refine_ls_extinction_coef       0.0147(18)
_refine_ls_extinction_expression Fc^*^=kFc[1+0.001xFc^2^\l^3^/sin(2\q)]^-1/4^
_refine_ls_extinction_method     'SHELXL97 (Sheldrick, 2008)'
_refine_ls_goodness_of_fit_ref   1.102
_refine_ls_hydrogen_treatment    refall
_refine_ls_matrix_type           full
_refine_ls_number_parameters     182
_refine_ls_number_reflns         1354
_refine_ls_number_restraints     0
_refine_ls_restrained_S_all      1.102
_refine_ls_R_factor_all          0.0901
_refine_ls_R_factor_gt           0.0610
_refine_ls_shift/su_max          0.003
_refine_ls_shift/su_mean         0.001
_refine_ls_structure_factor_coef Fsqd
_refine_ls_weighting_details
'calc w=1/[\s^2^(Fo^2^)+(0.0000P)^2^+3.1711P] where P=(Fo^2^+2Fc^2^)/3'
_refine_ls_weighting_scheme      calc
_refine_ls_wR_factor_gt          0.0913
_refine_ls_wR_factor_ref         0.1019
_reflns_number_gt                1048
_reflns_number_total             1354
_reflns_threshold_expression     I>2sigma(I)
_iucr_refine_instructions_details
;
TITL Gly-Ala in P2(1)2(1)2(1) d9 data at 295K
CELL 0.8313  7.5302    9.5115    9.6855      90.000  90.000  90.000
ZERR    4.00   0.0011   0.0016   0.0014   0.000   0.000   0.000
LATT -1
SYMM 0.5-X, -Y, 0.5+Z
SYMM -X, 0.5+Y, 0.5-Z
SYMM 0.5+X, 0.5-Y, -Z
SFAC C  0 0 0 0 0 0 0 0  6.6484   0 0 0 0.77  12.011
SFAC H  0 0 0 0 0 0 0 0 -3.7409   0 0 0 0.32  1.008
SFAC N  0 0 0 0 0 0 0 0  9.3600   0 0 0 1.5  14.0067
SFAC O  0 0 0 0 0 0 0 0  5.805    0 0 0 0.66  16
rem above coherent b values all from
rem reference A. Rauch & W. Waschkowski, Neutron Data Booklet
rem (July 2003, eds A.J. Dianoux & G. Lander)
rem copy of NDB available from ILL
rem various Rauch et al  tables also available on Web:-
rem   see http://www.ati.ac.at/~neutropt/scattering/table.html
UNIT 20 40 8 12
Temp 22
L.S.  2
BOND
bond $H
HTAB
PLAN 10
ACTA
WGHT    0.000000    3.171100
EXTI    0.014747
FVAR       0.75656
O1    4    0.269707    0.963459    0.776122    11.00000    0.04451    0.03382 =
         0.02394   -0.00939    0.01127   -0.01311
O2    4    0.430435    1.124616    0.882870    11.00000    0.03197    0.04006 =
         0.02007   -0.00587    0.00090   -0.00403
O3    4    0.709997    0.949805    0.599302    11.00000    0.03215    0.03435 =
         0.02497   -0.00501   -0.00808    0.00699
N1    3    0.445517    1.035126    0.524848    11.00000    0.02372    0.02824 =
         0.01721   -0.00317    0.00069    0.00162
H1N1  2    0.356686    1.037440    0.444867    11.00000    0.02981    0.04241 =
         0.03148   -0.00599   -0.00755    0.00682
N2    3    0.734595    0.756041    0.400559    11.00000    0.02771    0.02440 =
         0.01967   -0.00273    0.00478    0.00183
H1N2  2    0.861397    0.799672    0.404091    11.00000    0.03384    0.04219 =
         0.04897   -0.00029    0.00194    0.00560
H2N2  2    0.737023    0.679286    0.323634    11.00000    0.04933    0.03365 =
         0.03429   -0.00691    0.00626    0.00422
H3N2  2    0.704525    0.703050    0.492671    11.00000    0.05032    0.04085 =
         0.03248    0.00743    0.00448    0.01708
C1    1    0.374065    1.065427    0.776446    11.00000    0.02237    0.02178 =
         0.01541   -0.00308    0.00169    0.00094
C2    1    0.428028    1.132973    0.638423    11.00000    0.02872    0.01926 =
         0.01938   -0.00100    0.00180    0.00198
H2    2    0.557290    1.183582    0.655083    11.00000    0.04229    0.05736 =
         0.03179   -0.00413    0.00394   -0.02172
C3    1    0.289545    1.244160    0.601377    11.00000    0.07070    0.03575 =
         0.03180    0.00125   -0.00211    0.03054
H3A   2    0.165208    1.193188    0.579275    11.00000    0.05862    0.10488 =
         0.08736   -0.01130   -0.02227    0.03983
H3B   2    0.326185    1.299503    0.509221    11.00000    0.13005    0.07567 =
         0.05548    0.03048    0.01358    0.04299
H3C   2    0.271027    1.315398    0.687563    11.00000    0.15676    0.06455 =
         0.05315   -0.02138   -0.00758    0.06683
C4    1    0.590784    0.954778    0.513559    11.00000    0.02288    0.02130 =
         0.01708    0.00111    0.00185   -0.00016
C5    1    0.601214    0.866604    0.381316    11.00000    0.03020    0.02545 =
         0.01629   -0.00248    0.00023    0.00456
H5A   2    0.473281    0.819623    0.356556    11.00000    0.03576    0.06111 =
         0.05387   -0.03041   -0.00981    0.00292
H5B   2    0.641187    0.933583    0.295069    11.00000    0.09229    0.04714 =
         0.02487    0.00516    0.00874    0.01619
HKLF 4
END
;
_cod_data_source_file            yf3069sup1.cif
_cod_data_source_block           ga295k
_cod_depositor_comments
'Adding full bibliography for 2019663--2019666.cif.'
_cod_database_code               2019666
_cod_database_fobs_code          2019666
loop_
_symmetry_equiv_pos_as_xyz
'x, y, z'
'-x+1/2, -y, z+1/2'
'-x, y+1/2, -z+1/2'
'x+1/2, -y+1/2, -z'
loop_
_atom_site_type_symbol
_atom_site_label
_atom_site_fract_x
_atom_site_fract_y
_atom_site_fract_z
_atom_site_U_iso_or_equiv
_atom_site_adp_type
_atom_site_calc_flag
_atom_site_occupancy
_atom_site_symmetry_multiplicity
O O1 0.2697(5) 0.9635(4) 0.7761(3) 0.0341(8) Uani d 1 1
O O2 0.4304(5) 1.1246(4) 0.8829(3) 0.0307(7) Uani d 1 1
O O3 0.7100(5) 0.9498(4) 0.5993(3) 0.0305(7) Uani d 1 1
N N1 0.4455(3) 1.0351(2) 0.52485(19) 0.0231(4) Uani d 1 1
N N2 0.7346(3) 0.7560(2) 0.4006(2) 0.0239(4) Uani d 1 1
C C1 0.3741(4) 1.0654(3) 0.7764(3) 0.0199(5) Uani d 1 1
C C2 0.4280(4) 1.1330(3) 0.6384(3) 0.0225(5) Uani d 1 1
C C3 0.2895(7) 1.2442(4) 0.6014(4) 0.0461(10) Uani d 1 1
C C4 0.5908(3) 0.9548(3) 0.5136(2) 0.0204(5) Uani d 1 1
C C5 0.6012(4) 0.8666(3) 0.3813(3) 0.0240(6) Uani d 1 1
H H1N1 0.3567(8) 1.0374(7) 0.4449(6) 0.0346(12) Uani d 1 1
H H1N2 0.8614(9) 0.7997(8) 0.4041(8) 0.0417(15) Uani d 1 1
H H2N2 0.7370(10) 0.6793(7) 0.3236(7) 0.0391(15) Uani d 1 1
H H3N2 0.7045(10) 0.7030(7) 0.4927(7) 0.0412(15) Uani d 1 1
H H2 0.5573(10) 1.1836(8) 0.6551(7) 0.0438(16) Uani d 1 1
H H3A 0.1652(15) 1.1932(14) 0.5793(13) 0.084(4) Uani d 1 1
H H3B 0.326(2) 1.2995(12) 0.5092(10) 0.087(4) Uani d 1 1
H H3C 0.271(2) 1.3154(11) 0.6876(10) 0.091(4) Uani d 1 1
H H5A 0.4733(10) 0.8196(9) 0.3566(8) 0.0502(19) Uani d 1 1
H H5B 0.6412(13) 0.9336(9) 0.2951(7) 0.055(2) Uani d 1 1
loop_
_atom_site_aniso_label
_atom_site_aniso_U_11
_atom_site_aniso_U_22
_atom_site_aniso_U_33
_atom_site_aniso_U_12
_atom_site_aniso_U_13
_atom_site_aniso_U_23
O1 0.045(2) 0.0338(17) 0.0239(13) -0.0131(19) 0.0113(15) -0.0094(14)
O2 0.0320(16) 0.0401(18) 0.0201(13) -0.0040(16) 0.0009(13) -0.0059(13)
O3 0.0321(16) 0.0343(17) 0.0250(13) 0.0070(15) -0.0081(13) -0.0050(15)
N1 0.0237(9) 0.0282(9) 0.0172(7) 0.0016(8) 0.0007(7) -0.0032(7)
N2 0.0277(10) 0.0244(9) 0.0197(8) 0.0018(9) 0.0048(8) -0.0027(8)
C1 0.0224(11) 0.0218(12) 0.0154(10) 0.0009(10) 0.0017(9) -0.0031(9)
C2 0.0287(13) 0.0193(12) 0.0194(10) 0.0020(12) 0.0018(11) -0.0010(9)
C3 0.071(3) 0.0358(17) 0.0318(16) 0.031(2) -0.0021(19) 0.0012(15)
C4 0.0229(11) 0.0213(12) 0.0171(9) -0.0002(10) 0.0018(9) 0.0011(9)
C5 0.0302(14) 0.0255(13) 0.0163(10) 0.0046(12) 0.0002(10) -0.0025(10)
H1N1 0.030(3) 0.042(3) 0.031(2) 0.007(3) -0.008(2) -0.006(3)
H1N2 0.034(3) 0.042(3) 0.049(4) 0.006(3) 0.002(3) 0.000(3)
H2N2 0.049(4) 0.034(3) 0.034(3) 0.004(3) 0.006(3) -0.007(2)
H3N2 0.050(4) 0.041(3) 0.032(3) 0.017(3) 0.004(3) 0.007(3)
H2 0.042(4) 0.057(4) 0.032(3) -0.022(3) 0.004(3) -0.004(3)
H3A 0.059(5) 0.105(9) 0.087(7) 0.040(6) -0.022(6) -0.011(7)
H3B 0.130(10) 0.076(7) 0.055(5) 0.043(7) 0.014(6) 0.030(5)
H3C 0.157(12) 0.065(6) 0.053(5) 0.067(7) -0.008(6) -0.021(4)
H5A 0.036(3) 0.061(5) 0.054(4) 0.003(3) -0.010(3) -0.030(4)
H5B 0.092(6) 0.047(4) 0.025(2) 0.016(4) 0.009(3) 0.005(3)
loop_
_atom_type_symbol
_atom_type_description
_atom_type_scat_length_neutron
_atom_type_scat_dispersion_real
_atom_type_scat_dispersion_imag
_atom_type_scat_source
C C 6.6484 0.0000 0.0000 'Neutron Data Booklet Table 1.1-8'
H H -3.7409 0.0000 0.0000 'Neutron Data Booklet Table 1.1-8'
N N 9.36 0.0000 0.0000 'Neutron Data Booklet Table 1.1-8'
O O 5.805 0.0000 0.0000 'Neutron Data Booklet Table 1.1-8'
loop_
_geom_angle_atom_site_label_1
_geom_angle_atom_site_label_2
_geom_angle_atom_site_label_3
_geom_angle
C4 O3 N1 29.12(16)
C4 N1 C2 120.2(2)
C4 N1 O3 26.41(15)
C2 N1 O3 93.92(18)
C4 N1 C5 34.97(14)
C2 N1 C5 154.87(19)
O3 N1 C5 61.39(12)
C4 N1 C3 152.7(2)
C2 N1 C3 36.51(16)
O3 N1 C3 128.41(17)
C5 N1 C3 162.09(15)
C4 N1 C1 108.64(17)
C2 N1 C1 33.82(14)
O3 N1 C1 85.45(12)
C5 N1 C1 137.37(13)
C3 N1 C1 60.38(12)
C4 N1 H1N1 119.0(4)
C2 N1 H1N1 120.1(4)
O3 N1 H1N1 145.3(4)
C5 N1 H1N1 84.0(4)
C3 N1 H1N1 84.1(4)
C1 N1 H1N1 126.3(4)
C4 N1 H2 96.1(3)
C2 N1 H2 30.2(2)
O3 N1 H2 72.2(3)
C5 N1 H2 127.1(3)
C3 N1 H2 56.8(3)
C1 N1 H2 54.4(2)
H1N1 N1 H2 135.4(5)
C5 N2 C4 36.55(13)
C5 N2 H1N2 110.3(4)
C4 N2 H1N2 94.8(4)
C5 N2 H2N2 115.0(5)
C4 N2 H2N2 150.6(4)
H1N2 N2 H2N2 106.6(6)
C5 N2 H3N2 107.7(4)
C4 N2 H3N2 84.0(4)
H1N2 N2 H3N2 111.2(6)
H2N2 N2 H3N2 106.0(6)
C5 N2 H5A 29.1(3)
C4 N2 H5A 56.8(2)
H1N2 N2 H5A 138.6(5)
H2N2 N2 H5A 94.2(5)
H3N2 N2 H5A 96.2(5)
C5 N2 H5B 29.5(3)
C4 N2 H5B 56.3(2)
H1N2 N2 H5B 90.2(5)
H2N2 N2 H5B 102.8(5)
H3N2 N2 H5B 136.8(5)
H5A N2 H5B 49.8(4)
O1 C1 O2 124.5(3)
O1 C1 C2 119.3(3)
O2 C1 C2 116.1(3)
O1 C1 N1 92.5(2)
O2 C1 N1 141.2(2)
C2 C1 N1 31.58(13)
N1 C2 C3 109.2(2)
N1 C2 C1 114.6(2)
C3 C2 C1 108.2(3)
N1 C2 H2 108.2(4)
C3 C2 H2 109.6(5)
C1 C2 H2 106.8(4)
C2 C3 N1 34.29(13)
C2 C3 H3A 109.2(7)
N1 C3 H3A 89.5(6)
C2 C3 H3B 111.1(7)
N1 C3 H3B 91.3(6)
H3A C3 H3B 106.2(11)
C2 C3 H3C 109.8(7)
N1 C3 H3C 144.1(6)
H3A C3 H3C 108.8(11)
H3B C3 H3C 111.5(9)
O3 C4 N1 124.5(3)
O3 C4 C5 120.5(3)
N1 C4 C5 115.0(2)
O3 C4 N2 87.1(2)
N1 C4 N2 147.4(2)
C5 C4 N2 34.71(13)
N2 C5 C4 108.7(2)
N2 C5 N1 137.11(18)
C4 C5 N1 30.04(13)
N2 C5 H5A 109.9(5)
C4 C5 H5A 111.3(4)
N1 C5 H5A 88.3(4)
N2 C5 H5B 109.1(5)
C4 C5 H5B 109.5(5)
N1 C5 H5B 100.7(5)
H5A C5 H5B 108.3(7)
loop_
_geom_bond_atom_site_label_1
_geom_bond_atom_site_label_2
_geom_bond_distance
O1 C1 1.248(5)
O2 C1 1.249(4)
O3 C4 1.224(4)
N1 C4 1.339(3)
N1 C2 1.447(3)
N1 H1N1 1.024(6)
N2 C5 1.466(4)
N2 H1N2 1.042(8)
N2 H2N2 1.043(7)
N2 H3N2 1.049(7)
C1 C2 1.538(4)
C2 C3 1.528(5)
C2 H2 1.098(8)
C3 H3A 1.076(15)
C3 H3B 1.072(11)
C3 H3C 1.084(9)
C4 C5 1.533(4)
C5 H5A 1.089(8)
C5 H5B 1.093(8)
