#------------------------------------------------------------------------------
#$Date: 2016-02-20 00:18:51 +0200 (Sat, 20 Feb 2016) $
#$Revision: 176760 $
#$URL: svn://www.crystallography.net/cod/cif/2/01/90/2019076.cif $
#------------------------------------------------------------------------------
#
# This file is available in the Crystallography Open Database (COD),
# http://www.crystallography.net/. The original data for this entry
# were provided by IUCr Journals, http://journals.iucr.org/.
#
# The file may be used within the scientific community so long as
# proper attribution is given to the journal article from which the
# data were obtained.
#
data_2019076
loop_
_publ_author_name
'Grinev, Vyacheslav S.'
'Egorova, Alevtina Yu.'
_publ_section_title
;
 3a-Phenyl-2,3,3a,4-tetrahydro-1<i>H</i>-benzo[<i>d</i>]pyrrolo[1,2-<i>a</i>]imidazol-1-one,
 a potential plant-growth regulator
;
_journal_coeditor_code           EG3127
_journal_issue                   8
_journal_name_full               'Acta Crystallographica Section C'
_journal_page_first              880
_journal_page_last               883
_journal_paper_doi               10.1107/S0108270113016119
_journal_volume                  69
_journal_year                    2013
_chemical_formula_iupac          'C16 H14 N2 O'
_chemical_formula_moiety         'C16 H14 N2 O'
_chemical_formula_sum            'C16 H14 N2 O'
_chemical_formula_weight         250.29
_chemical_name_systematic
;
3a-Phenyl-2,3,3a,4-tetrahydro-1<i>H</i>-benzo[<i>d</i>]pyrrolo[1,2-<i>a</i>]\
imidazol-1-one
;
_space_group_IT_number           2
_symmetry_cell_setting           triclinic
_symmetry_space_group_name_Hall  '-P 1'
_symmetry_space_group_name_H-M   'P -1'
_atom_sites_solution_hydrogens   geom
_atom_sites_solution_primary     direct
_atom_sites_solution_secondary   difmap
_audit_creation_method           SHELXL97
_cell_angle_alpha                66.8030(10)
_cell_angle_beta                 88.947(2)
_cell_angle_gamma                82.509(2)
_cell_formula_units_Z            2
_cell_length_a                   7.2966(9)
_cell_length_b                   9.1081(11)
_cell_length_c                   10.3723(12)
_cell_measurement_reflns_used    354
_cell_measurement_temperature    100(2)
_cell_measurement_theta_max      29
_cell_measurement_theta_min      3
_cell_volume                     627.78(13)
_computing_cell_refinement       'SAINT-Plus (Bruker, 1998)'
_computing_data_collection       'SMART (Bruker, 1998)'
_computing_data_reduction        'SAINT-Plus (Bruker, 1998)'
_computing_molecular_graphics    'SHELXTL (Sheldrick, 2008)'
_computing_publication_material  'SHELXTL (Sheldrick, 2008)'
_computing_structure_refinement  'SHELXTL (Sheldrick, 2008)'
_computing_structure_solution    'SHELXTL (Sheldrick, 2008)'
_diffrn_ambient_temperature      100(2)
_diffrn_measured_fraction_theta_full 0.991
_diffrn_measured_fraction_theta_max 0.991
_diffrn_measurement_device_type  'Bruker SMART 1000 CCD area-detector'
_diffrn_measurement_method       '\f and \w'
_diffrn_radiation_monochromator  graphite
_diffrn_radiation_source         'fine-focus sealed tube'
_diffrn_radiation_type           MoK\a
_diffrn_radiation_wavelength     0.71073
_diffrn_reflns_av_R_equivalents  0.0162
_diffrn_reflns_av_sigmaI/netI    0.0195
_diffrn_reflns_limit_h_max       10
_diffrn_reflns_limit_h_min       -10
_diffrn_reflns_limit_k_max       12
_diffrn_reflns_limit_k_min       -12
_diffrn_reflns_limit_l_max       14
_diffrn_reflns_limit_l_min       -14
_diffrn_reflns_number            7155
_diffrn_reflns_theta_full        29.57
_diffrn_reflns_theta_max         29.57
_diffrn_reflns_theta_min         2.14
_exptl_absorpt_coefficient_mu    0.084
_exptl_absorpt_correction_T_max  0.984
_exptl_absorpt_correction_T_min  0.981
_exptl_absorpt_correction_type   multi-scan
_exptl_absorpt_process_details   '(SADABS; Sheldrick, 1998)'
_exptl_crystal_colour            colourless
_exptl_crystal_density_diffrn    1.324
_exptl_crystal_density_method    'not measured'
_exptl_crystal_description       prism
_exptl_crystal_F_000             264
_exptl_crystal_size_max          0.23
_exptl_crystal_size_mid          0.20
_exptl_crystal_size_min          0.19
_refine_diff_density_max         0.477
_refine_diff_density_min         -0.409
_refine_ls_extinction_method     none
_refine_ls_goodness_of_fit_ref   1.005
_refine_ls_hydrogen_treatment    mixed
_refine_ls_matrix_type           full
_refine_ls_number_parameters     176
_refine_ls_number_reflns         3492
_refine_ls_number_restraints     0
_refine_ls_restrained_S_all      1.005
_refine_ls_R_factor_all          0.0476
_refine_ls_R_factor_gt           0.0456
_refine_ls_shift/su_max          0.000
_refine_ls_shift/su_mean         0.000
_refine_ls_structure_factor_coef Fsqd
_refine_ls_weighting_details
'calc w = 1/[\s^2^(Fo^2^)+(0.0792P)^2^+0.2300P] where P=(Fo^2^+2Fc^2^)/3'
_refine_ls_weighting_scheme      calc
_refine_ls_wR_factor_gt          0.1222
_refine_ls_wR_factor_ref         0.1246
_reflns_number_gt                3259
_reflns_number_total             3492
_reflns_threshold_expression     I>2\s(I)
_iucr_refine_instructions_details
;
TITL a in P-1
CELL 0.71073   7.2966   9.1081  10.3723  66.803  88.947  82.509
ZERR    2.00   0.0009   0.0011   0.0012   0.001   0.002   0.002
LATT  1
SFAC C H N O
UNIT 32 28 4 2
TEMP -173
ACTA
L.S. 8
BOND $h
conf
htab
size 0.23 0.20 0.19
FMAP 2
PLAN 40
shel 1000 0.72
EQIV $1  x-1, y, z
HTAB N1 O1_$1
WGHT    0.079200    0.230000
FVAR       1.26826
N1    3    0.618286    0.025635    0.611709    11.00000    0.01063    0.01379 =
         0.01756   -0.00683   -0.00153   -0.00091
H1N   2    0.493486    0.043529    0.620697    11.00000    0.02978
N2    3    0.904023    0.016879    0.706918    11.00000    0.00956    0.01294 =
         0.01659   -0.00532   -0.00012   -0.00054
O1    4    1.217119    0.012864    0.677189    11.00000    0.01061    0.02301 =
         0.02448   -0.00776    0.00064   -0.00147
C1    1    1.060874    0.086087    0.656633    11.00000    0.01259    0.01760 =
         0.01601   -0.00727    0.00090   -0.00343
C2    1    0.998974    0.264060    0.572279    11.00000    0.01369    0.01653 =
         0.02005   -0.00570    0.00137   -0.00386
AFIX  23
H2A   2    1.077661    0.307650    0.490706    11.00000   -1.20000
H2B   2    1.002005    0.327015    0.631054    11.00000   -1.20000
AFIX   0
C3    1    0.799795    0.266421    0.524899    11.00000    0.01281    0.01577 =
         0.01541   -0.00378    0.00122   -0.00156
AFIX  23
H3A   2    0.797578    0.246750    0.437663    11.00000   -1.20000
H3B   2    0.723739    0.370655    0.509232    11.00000   -1.20000
AFIX   0
C4    1    0.730731    0.127088    0.649707    11.00000    0.00956    0.01357 =
         0.01372   -0.00502   -0.00008   -0.00076
C5    1    0.696239   -0.134860    0.682068    11.00000    0.01262    0.01396 =
         0.01286   -0.00537    0.00114   -0.00084
C6    1    0.626674   -0.275026    0.697296    11.00000    0.01509    0.01687 =
         0.01716   -0.00690    0.00079   -0.00393
AFIX  43
H6A   2    0.507195   -0.271335    0.660349    11.00000   -1.20000
AFIX   0
C7    1    0.737897   -0.422498    0.768873    11.00000    0.02005    0.01462 =
         0.01784   -0.00654    0.00357   -0.00363
AFIX  43
H7A   2    0.692926   -0.519945    0.780019    11.00000   -1.20000
AFIX   0
C8    1    0.912885   -0.429178    0.823977    11.00000    0.01760    0.01412 =
         0.01690   -0.00440    0.00323    0.00006
AFIX  43
H8A   2    0.985243   -0.530800    0.871965    11.00000   -1.20000
AFIX   0
C9    1    0.983654   -0.287511    0.809458    11.00000    0.01297    0.01670 =
         0.01595   -0.00491    0.00138   -0.00019
AFIX  43
H9A   2    1.102730   -0.290815    0.846837    11.00000   -1.20000
AFIX   0
C10   1    0.872834   -0.143338    0.738583    11.00000    0.01177    0.01368 =
         0.01400   -0.00542    0.00160   -0.00192
C11   1    0.631836    0.183618    0.756007    11.00000    0.01232    0.01356 =
         0.01525   -0.00628    0.00201   -0.00273
C12   1    0.466624    0.288683    0.711286    11.00000    0.01405    0.02006 =
         0.01846   -0.00891    0.00021    0.00029
AFIX  43
H12A  2    0.423110    0.325368    0.616588    11.00000   -1.20000
AFIX   0
C13   1    0.365501    0.339894    0.804413    11.00000    0.01577    0.02399 =
         0.02630   -0.01314    0.00397   -0.00022
AFIX  43
H13A  2    0.253718    0.411778    0.773033    11.00000   -1.20000
AFIX   0
C14   1    0.427892    0.285922    0.943740    11.00000    0.02195    0.02387 =
         0.02269   -0.01286    0.00887   -0.00601
AFIX  43
H14A  2    0.358606    0.320626    1.007432    11.00000   -1.20000
AFIX   0
C15   1    0.591260    0.181515    0.988994    11.00000    0.02483    0.02153 =
         0.01588   -0.00745    0.00356   -0.00639
AFIX  43
H15A  2    0.633853    0.144528    1.083939    11.00000   -1.20000
AFIX   0
C16   1    0.694026    0.130195    0.895232    11.00000    0.01753    0.01611 =
         0.01598   -0.00528    0.00061   -0.00252
AFIX  43
H16A  2    0.806210    0.058899    0.926692    11.00000   -1.20000
HKLF 4
REM  a in P-1
REM R1 =  0.0456 for   3259 Fo > 4sig(Fo)  and  0.0476 for all   3492 data
REM    176 parameters refined using      0 restraints
END
WGHT      0.0785      0.1939
REM Highest difference peak  0.477,  deepest hole -0.409,  1-sigma level  0.085
Q1    1   0.6596  0.1533  0.8179  11.00000  0.05    0.48
Q2    1   0.5377  0.2225  0.7388  11.00000  0.05    0.41
Q3    1   0.6848  0.1616  0.7076  11.00000  0.05    0.40
Q4    1   0.5683  0.2570  0.7250  11.00000  0.05    0.36
Q5    1   0.4244  0.3141  0.7572  11.00000  0.05    0.33
Q6    1   0.7762 -0.1404  0.7189  11.00000  0.05    0.30
Q7    1   0.9424 -0.3595  0.8116  11.00000  0.05    0.30
Q8    1   0.3919  0.3039  0.8814  11.00000  0.05    0.29
Q9    1   1.0359  0.1765  0.6087  11.00000  0.05    0.28
Q10   1   0.8309 -0.4205  0.7842  11.00000  0.05    0.28
Q11   1   0.6777 -0.3457  0.7307  11.00000  0.05    0.27
Q12   1   0.9246 -0.2181  0.7726  11.00000  0.05    0.26
Q13   1   0.7605  0.2018  0.5854  11.00000  0.05    0.24
Q14   1   0.5234  0.2540  0.9569  11.00000  0.05    0.24
Q15   1   0.6560 -0.0506  0.6478  11.00000  0.05    0.24
Q16   1   0.6676 -0.2033  0.6757  11.00000  0.05    0.23
Q17   1   0.6664  0.0830  0.6241  11.00000  0.05    0.22
Q18   1   0.9050  0.2686  0.5459  11.00000  0.05    0.22
Q19   1   0.6423  0.1642  0.9336  11.00000  0.05    0.21
Q20   1   0.8275  0.2027  0.4543  11.00000  0.05    0.20
Q21   1   0.4329  0.5189  0.9790  11.00000  0.05    0.20
Q22   1   0.5000  0.5000  1.0000  10.50000  0.05    0.19
Q23   1   0.4216  0.3163  1.0385  11.00000  0.05    0.18
Q24   1   0.3895  0.3895  1.0335  11.00000  0.05    0.17
Q25   1   0.7285 -0.3352  0.5865  11.00000  0.05    0.17
Q26   1   0.8841 -0.4556  0.6611  11.00000  0.05    0.17
Q27   1   0.3818  0.4573  0.4578  11.00000  0.05    0.17
Q28   1   0.5709  0.3308  1.0766  11.00000  0.05    0.17
Q29   1   1.2369  0.4015  0.4000  11.00000  0.05    0.16
Q30   1   0.9827 -0.4692  0.6920  11.00000  0.05    0.16
Q31   1   0.7725 -0.5234  0.6430  11.00000  0.05    0.16
Q32   1   1.2922  0.0542  0.6213  11.00000  0.05    0.16
Q33   1   1.2425  0.2223  0.4466  11.00000  0.05    0.16
Q34   1   0.9978 -0.0778  0.5600  11.00000  0.05    0.16
Q35   1   0.6970 -0.4494  0.6006  11.00000  0.05    0.16
Q36   1   1.2452  0.2931  0.4527  11.00000  0.05    0.16
Q37   1   0.3296  0.2464  0.5444  11.00000  0.05    0.15
Q38   1   0.7221  0.4419  0.6173  11.00000  0.05    0.15
Q39   1   1.1578  0.2765  0.4529  11.00000  0.05    0.15
Q40   1   0.6584 -0.2144  0.5185  11.00000  0.05    0.15
;
_cod_data_source_file            eg3127.cif
_cod_data_source_block           I
_cod_database_code               2019076
_cod_database_fobs_code          2019076
loop_
_symmetry_equiv_pos_as_xyz
'x, y, z'
'-x, -y, -z'
loop_
_atom_site_type_symbol
_atom_site_label
_atom_site_fract_x
_atom_site_fract_y
_atom_site_fract_z
_atom_site_U_iso_or_equiv
_atom_site_adp_type
_atom_site_calc_flag
_atom_site_refinement_flags
_atom_site_occupancy
_atom_site_symmetry_multiplicity
N N1 0.61829(11) 0.02564(9) 0.61171(8) 0.01383(17) Uani d . 1 1
H H1N 0.493(2) 0.0435(19) 0.6207(17) 0.030(4) Uiso d . 1 1
N N2 0.90402(10) 0.01688(9) 0.70692(8) 0.01328(16) Uani d . 1 1
O O1 1.21712(9) 0.01286(9) 0.67719(8) 0.01995(17) Uani d . 1 1
C C1 1.06087(12) 0.08609(11) 0.65663(9) 0.01507(18) Uani d . 1 1
C C2 0.99897(13) 0.26406(11) 0.57228(10) 0.01707(19) Uani d . 1 1
H H2A 1.0777 0.3076 0.4907 0.020 Uiso calc R 1 1
H H2B 1.0020 0.3270 0.6311 0.020 Uiso calc R 1 1
C C3 0.79979(12) 0.26642(11) 0.52490(10) 0.01545(18) Uani d . 1 1
H H3A 0.7976 0.2467 0.4377 0.019 Uiso calc R 1 1
H H3B 0.7237 0.3707 0.5092 0.019 Uiso calc R 1 1
C C4 0.73073(12) 0.12709(10) 0.64971(9) 0.01247(17) Uani d . 1 1
C C5 0.69624(12) -0.13486(10) 0.68207(9) 0.01322(18) Uani d . 1 1
C C6 0.62667(13) -0.27503(11) 0.69730(10) 0.01614(19) Uani d . 1 1
H H6A 0.5072 -0.2713 0.6603 0.019 Uiso calc R 1 1
C C7 0.73790(13) -0.42250(11) 0.76887(10) 0.01738(19) Uani d . 1 1
H H7A 0.6929 -0.5199 0.7800 0.021 Uiso calc R 1 1
C C8 0.91289(13) -0.42918(11) 0.82398(10) 0.01699(19) Uani d . 1 1
H H8A 0.9852 -0.5308 0.8720 0.020 Uiso calc R 1 1
C C9 0.98365(12) -0.28751(11) 0.80946(10) 0.01587(19) Uani d . 1 1
H H9A 1.1027 -0.2908 0.8468 0.019 Uiso calc R 1 1
C C10 0.87283(12) -0.14334(10) 0.73858(9) 0.01316(18) Uani d . 1 1
C C11 0.63184(12) 0.18362(10) 0.75601(9) 0.01345(18) Uani d . 1 1
C C12 0.46662(13) 0.28868(12) 0.71129(10) 0.01736(19) Uani d . 1 1
H H12A 0.4231 0.3254 0.6166 0.021 Uiso calc R 1 1
C C13 0.36550(14) 0.33989(13) 0.80441(11) 0.0213(2) Uani d . 1 1
H H13A 0.2537 0.4118 0.7730 0.026 Uiso calc R 1 1
C C14 0.42789(15) 0.28592(13) 0.94374(11) 0.0215(2) Uani d . 1 1
H H14A 0.3586 0.3206 1.0074 0.026 Uiso calc R 1 1
C C15 0.59126(15) 0.18152(12) 0.98899(10) 0.0204(2) Uani d . 1 1
H H15A 0.6339 0.1445 1.0839 0.025 Uiso calc R 1 1
C C16 0.69403(13) 0.13019(11) 0.89523(10) 0.01684(19) Uani d . 1 1
H H16A 0.8062 0.0589 0.9267 0.020 Uiso calc R 1 1
loop_
_atom_site_aniso_label
_atom_site_aniso_U_11
_atom_site_aniso_U_22
_atom_site_aniso_U_33
_atom_site_aniso_U_12
_atom_site_aniso_U_13
_atom_site_aniso_U_23
N1 0.0106(3) 0.0138(3) 0.0176(4) -0.0009(3) -0.0015(3) -0.0068(3)
N2 0.0096(3) 0.0129(3) 0.0166(3) -0.0005(3) -0.0001(3) -0.0053(3)
O1 0.0106(3) 0.0230(4) 0.0245(4) -0.0015(3) 0.0006(3) -0.0078(3)
C1 0.0126(4) 0.0176(4) 0.0160(4) -0.0034(3) 0.0009(3) -0.0073(3)
C2 0.0137(4) 0.0165(4) 0.0201(4) -0.0039(3) 0.0014(3) -0.0057(3)
C3 0.0128(4) 0.0158(4) 0.0154(4) -0.0016(3) 0.0012(3) -0.0038(3)
C4 0.0096(4) 0.0136(4) 0.0137(4) -0.0008(3) -0.0001(3) -0.0050(3)
C5 0.0126(4) 0.0140(4) 0.0129(4) -0.0008(3) 0.0011(3) -0.0054(3)
C6 0.0151(4) 0.0169(4) 0.0172(4) -0.0039(3) 0.0008(3) -0.0069(3)
C7 0.0200(4) 0.0146(4) 0.0178(4) -0.0036(3) 0.0036(3) -0.0065(3)
C8 0.0176(4) 0.0141(4) 0.0169(4) 0.0001(3) 0.0032(3) -0.0044(3)
C9 0.0130(4) 0.0167(4) 0.0159(4) -0.0002(3) 0.0014(3) -0.0049(3)
C10 0.0118(4) 0.0137(4) 0.0140(4) -0.0019(3) 0.0016(3) -0.0054(3)
C11 0.0123(4) 0.0136(4) 0.0153(4) -0.0027(3) 0.0020(3) -0.0063(3)
C12 0.0141(4) 0.0201(4) 0.0185(4) 0.0003(3) 0.0002(3) -0.0089(3)
C13 0.0158(4) 0.0240(5) 0.0263(5) -0.0002(3) 0.0040(3) -0.0131(4)
C14 0.0220(5) 0.0239(5) 0.0227(5) -0.0060(4) 0.0089(4) -0.0129(4)
C15 0.0248(5) 0.0215(4) 0.0159(4) -0.0064(4) 0.0036(3) -0.0074(4)
C16 0.0175(4) 0.0161(4) 0.0160(4) -0.0025(3) 0.0006(3) -0.0053(3)
loop_
_atom_type_symbol
_atom_type_description
_atom_type_scat_dispersion_real
_atom_type_scat_dispersion_imag
_atom_type_scat_source
C C 0.0033 0.0016 'International Tables Vol C Tables 4.2.6.8 and 6.1.1.4'
H H 0.0000 0.0000 'International Tables Vol C Tables 4.2.6.8 and 6.1.1.4'
N N 0.0061 0.0033 'International Tables Vol C Tables 4.2.6.8 and 6.1.1.4'
O O 0.0106 0.0060 'International Tables Vol C Tables 4.2.6.8 and 6.1.1.4'
loop_
_geom_angle_atom_site_label_1
_geom_angle_atom_site_label_2
_geom_angle_atom_site_label_3
_geom_angle
C5 N1 C4 107.81(7)
C5 N1 H1N 114.1(10)
C4 N1 H1N 116.3(10)
C1 N2 C10 128.12(8)
C1 N2 C4 113.60(7)
C10 N2 C4 109.45(7)
O1 C1 N2 124.57(9)
O1 C1 C2 128.65(8)
N2 C1 C2 106.78(7)
C1 C2 C3 102.85(7)
C1 C2 H2A 111.2
C3 C2 H2A 111.2
C1 C2 H2B 111.2
C3 C2 H2B 111.2
H2A C2 H2B 109.1
C2 C3 C4 103.00(7)
C2 C3 H3A 111.2
C4 C3 H3A 111.2
C2 C3 H3B 111.2
C4 C3 H3B 111.2
H3A C3 H3B 109.1
N1 C4 N2 102.36(7)
N1 C4 C11 110.26(7)
N2 C4 C11 113.36(7)
N1 C4 C3 115.50(7)
N2 C4 C3 102.07(7)
C11 C4 C3 112.65(7)
C6 C5 N1 129.53(8)
C6 C5 C10 119.99(8)
N1 C5 C10 110.45(8)
C5 C6 C7 118.01(8)
C5 C6 H6A 121.0
C7 C6 H6A 121.0
C8 C7 C6 121.42(9)
C8 C7 H7A 119.3
C6 C7 H7A 119.3
C7 C8 C9 120.80(8)
C7 C8 H8A 119.6
C9 C8 H8A 119.6
C10 C9 C8 117.14(8)
C10 C9 H9A 121.4
C8 C9 H9A 121.4
C9 C10 C5 122.64(8)
C9 C10 N2 130.60(8)
C5 C10 N2 106.76(7)
C16 C11 C12 119.26(8)
C16 C11 C4 123.18(8)
C12 C11 C4 117.49(8)
C13 C12 C11 120.48(9)
C13 C12 H12A 119.8
C11 C12 H12A 119.8
C12 C13 C14 120.11(9)
C12 C13 H13A 119.9
C14 C13 H13A 119.9
C15 C14 C13 119.78(9)
C15 C14 H14A 120.1
C13 C14 H14A 120.1
C14 C15 C16 120.27(9)
C14 C15 H15A 119.9
C16 C15 H15A 119.9
C11 C16 C15 120.09(9)
C11 C16 H16A 120.0
C15 C16 H16A 120.0
loop_
_geom_bond_atom_site_label_1
_geom_bond_atom_site_label_2
_geom_bond_distance
N1 C5 1.3968(11)
N1 C4 1.4761(11)
N1 H1N 0.914(16)
N2 C1 1.3735(11)
N2 C10 1.4126(11)
N2 C4 1.4785(11)
O1 C1 1.2201(11)
C1 C2 1.5177(13)
C2 C3 1.5375(13)
C2 H2A 0.9900
C2 H2B 0.9900
C3 C4 1.5456(12)
C3 H3A 0.9900
C3 H3B 0.9900
C4 C11 1.5240(12)
C5 C6 1.3855(12)
C5 C10 1.4057(12)
C6 C7 1.4022(13)
C6 H6A 0.9500
C7 C8 1.3928(13)
C7 H7A 0.9500
C8 C9 1.4043(13)
C8 H8A 0.9500
C9 C10 1.3795(12)
C9 H9A 0.9500
C11 C16 1.3932(13)
C11 C12 1.3979(12)
C12 C13 1.3907(13)
C12 H12A 0.9500
C13 C14 1.3941(15)
C13 H13A 0.9500
C14 C15 1.3853(15)
C14 H14A 0.9500
C15 C16 1.4023(13)
C15 H15A 0.9500
C16 H16A 0.9500
loop_
_geom_hbond_atom_site_label_D
_geom_hbond_atom_site_label_H
_geom_hbond_atom_site_label_A
_geom_hbond_site_symmetry_A
_geom_hbond_distance_DH
_geom_hbond_distance_HA
_geom_hbond_distance_DA
_geom_hbond_angle_DHA
N1 H1N O1 1_455 0.914(16) 2.112(17) 2.9994(11) 163.4(14)
loop_
_geom_torsion_atom_site_label_1
_geom_torsion_atom_site_label_2
_geom_torsion_atom_site_label_3
_geom_torsion_atom_site_label_4
_geom_torsion
C10 N2 C1 O1 -27.81(15)
C4 N2 C1 O1 -171.39(9)
C10 N2 C1 C2 151.31(9)
C4 N2 C1 C2 7.74(10)
O1 C1 C2 C3 152.84(9)
N2 C1 C2 C3 -26.24(9)
C1 C2 C3 C4 33.88(9)
C5 N1 C4 N2 17.45(9)
C5 N1 C4 C11 -103.45(8)
C5 N1 C4 C3 127.43(8)
C1 N2 C4 N1 133.80(8)
C10 N2 C4 N1 -16.51(9)
C1 N2 C4 C11 -107.46(8)
C10 N2 C4 C11 102.23(8)
C1 N2 C4 C3 13.96(9)
C10 N2 C4 C3 -136.34(7)
C2 C3 C4 N1 -139.28(8)
C2 C3 C4 N2 -29.13(8)
C2 C3 C4 C11 92.78(8)
C4 N1 C5 C6 169.27(9)
C4 N1 C5 C10 -12.80(10)
N1 C5 C6 C7 177.26(9)
C10 C5 C6 C7 -0.50(13)
C5 C6 C7 C8 0.30(14)
C6 C7 C8 C9 0.02(14)
C7 C8 C9 C10 -0.13(14)
C8 C9 C10 C5 -0.07(14)
C8 C9 C10 N2 -179.87(9)
C6 C5 C10 C9 0.40(14)
N1 C5 C10 C9 -177.76(8)
C6 C5 C10 N2 -179.76(8)
N1 C5 C10 N2 2.08(10)
C1 N2 C10 C9 44.60(15)
C4 N2 C10 C9 -170.65(9)
C1 N2 C10 C5 -135.22(9)
C4 N2 C10 C5 9.53(9)
N1 C4 C11 C16 111.04(9)
N2 C4 C11 C16 -3.03(12)
C3 C4 C11 C16 -118.31(9)
N1 C4 C11 C12 -66.08(10)
N2 C4 C11 C12 179.85(8)
C3 C4 C11 C12 64.57(10)
C16 C11 C12 C13 0.20(14)
C4 C11 C12 C13 177.44(8)
C11 C12 C13 C14 -0.35(15)
C12 C13 C14 C15 0.21(16)
C13 C14 C15 C16 0.08(15)
C12 C11 C16 C15 0.09(14)
C4 C11 C16 C15 -176.98(8)
C14 C15 C16 C11 -0.23(15)
