#------------------------------------------------------------------------------
#$Date: 2016-02-20 00:18:51 +0200 (Sat, 20 Feb 2016) $
#$Revision: 176760 $
#$URL: svn://www.crystallography.net/cod/cif/2/01/95/2019538.cif $
#------------------------------------------------------------------------------
#
# This file is available in the Crystallography Open Database (COD),
# http://www.crystallography.net/. The original data for this entry
# were provided by IUCr Journals, http://journals.iucr.org/.
#
# The file may be used within the scientific community so long as
# proper attribution is given to the journal article from which the
# data were obtained.
#
data_2019538
loop_
_publ_author_name
'Yang, Wei'
'Fu, Qiang'
'Zhao, Jing'
'Cheng, Huan-Ren'
'Shi, Yao-Cheng'
_publ_section_title
;
 Two Fe~3~(\m~3~-S)~2~(CO)~8~ clusters with terminal N-heterocyclic
 carbenes
;
_journal_coeditor_code           WQ3060
_journal_issue                   6
_journal_name_full               'Acta Crystallographica Section C'
_journal_page_first              528
_journal_page_last               532
_journal_paper_doi               10.1107/S2053229614009310
_journal_volume                  70
_journal_year                    2014
_chemical_formula_iupac          '[Fe3 (C3 H6 N2) S2 (C O)8]'
_chemical_formula_moiety         'C11 H6 Fe3 N2 O8 S2'
_chemical_formula_sum            'C11 H6 Fe3 N2 O8 S2'
_chemical_formula_weight         525.87
_chemical_name_systematic
;
Octacarbonyl(imidazolidinyl-\k<i>C</i>^2^)di-\m~3~-sulfido-triiron(II)(2
<i>Fe</i>---<i>Fe</i>)
;
_space_group_IT_number           2
_space_group_name_Hall           '-P 1'
_symmetry_cell_setting           triclinic
_symmetry_space_group_name_Hall  '-P 1'
_symmetry_space_group_name_H-M   'P -1'
_atom_sites_solution_hydrogens   geom
_atom_sites_solution_primary     direct
_atom_sites_solution_secondary   difmap
_audit_creation_method           SHELXL97
_cell_angle_alpha                78.4565(14)
_cell_angle_beta                 72.7596(13)
_cell_angle_gamma                67.3315(14)
_cell_formula_units_Z            2
_cell_length_a                   8.7679(3)
_cell_length_b                   10.0811(3)
_cell_length_c                   11.8549(15)
_cell_measurement_reflns_used    4141
_cell_measurement_temperature    296
_cell_measurement_theta_max      27.51
_cell_measurement_theta_min      1.81
_cell_volume                     919.07(12)
_computing_cell_refinement       'SAINT-Plus (Bruker, 2003)'
_computing_data_collection       'SMART (Bruker, 2002)'
_computing_data_reduction        'SAINT-Plus (Bruker, 2003)'
_computing_molecular_graphics
;
PLATON (Spek, 2009) and WinGX (Farrugia, 2012)
;
_computing_publication_material  'publCIF (Westrip, 2010)'
_computing_structure_refinement  'SHELXTL (Sheldrick, 2008<i>b</i>)'
_computing_structure_solution    'SIR2004 (Burla <i>et al.</i>, 2005)'
_diffrn_ambient_temperature      296
_diffrn_measured_fraction_theta_full 0.978
_diffrn_measured_fraction_theta_max 0.978
_diffrn_measurement_device_type  'Bruker APEXII CCD area-detector'
_diffrn_measurement_method       '\f and \w'
_diffrn_radiation_monochromator  graphite
_diffrn_radiation_source         'fine-focus sealed tube'
_diffrn_radiation_type           MoK\a
_diffrn_radiation_wavelength     0.71073
_diffrn_reflns_av_R_equivalents  0.0324
_diffrn_reflns_av_sigmaI/netI    0.0406
_diffrn_reflns_limit_h_max       11
_diffrn_reflns_limit_h_min       -10
_diffrn_reflns_limit_k_max       13
_diffrn_reflns_limit_k_min       -13
_diffrn_reflns_limit_l_max       15
_diffrn_reflns_limit_l_min       -15
_diffrn_reflns_number            7989
_diffrn_reflns_theta_full        27.51
_diffrn_reflns_theta_max         27.51
_diffrn_reflns_theta_min         1.81
_exptl_absorpt_coefficient_mu    2.603
_exptl_absorpt_correction_T_max  0.708
_exptl_absorpt_correction_T_min  0.651
_exptl_absorpt_correction_type   multi-scan
_exptl_absorpt_process_details   '(SADABS; Sheldrick, 2008<i>a</i>)'
_exptl_crystal_colour            red
_exptl_crystal_density_diffrn    1.900
_exptl_crystal_density_method    'not measured'
_exptl_crystal_description       block
_exptl_crystal_F_000             520
_exptl_crystal_size_max          0.18
_exptl_crystal_size_mid          0.13
_exptl_crystal_size_min          0.13
_refine_diff_density_max         0.467
_refine_diff_density_min         -0.297
_refine_ls_extinction_coef       0.042(2)
_refine_ls_extinction_expression Fc^*^=kFc[1+0.001xFc^2^\l^3^/sin(2\q)]^-1/4^
_refine_ls_extinction_method     'SHELXTL (Sheldrick, 2008b)'
_refine_ls_goodness_of_fit_ref   1.071
_refine_ls_hydrogen_treatment    mixed
_refine_ls_matrix_type           full
_refine_ls_number_parameters     244
_refine_ls_number_reflns         4141
_refine_ls_number_restraints     0
_refine_ls_restrained_S_all      1.071
_refine_ls_R_factor_all          0.0305
_refine_ls_R_factor_gt           0.0267
_refine_ls_shift/su_max          0.001
_refine_ls_shift/su_mean         0.000
_refine_ls_structure_factor_coef Fsqd
_refine_ls_weighting_details
'calc w = 1/[\s^2^(Fo^2^)+(0.0423P)^2^+0.1300P] where P=(Fo^2^+2Fc^2^)/3'
_refine_ls_weighting_scheme      calc
_refine_ls_wR_factor_gt          0.0769
_refine_ls_wR_factor_ref         0.0800
_reflns_number_gt                3710
_reflns_number_total             4141
_reflns_threshold_expression     I>2\s(I)
_iucr_refine_instructions_details
;
TITL  1 in P-1
CELL   0.71073  8.7679   10.0811   11.8549   78.4565   72.7596  67.3315
ZERR   2     0.0003    0.0003    0.0015    0.0014    0.0013    0.0014
LATT 1
SFAC C  H  N  O  S  Fe
UNIT 22 12 4 16 4 6
OMIT 0   0   2
OMIT 1   6   3
OMIT -1   9   3
OMIT 2   4   8
L.S. 20
EXTI  0.04220
ACTA
BOND $H
FMAP 2
PLAN 25
EQIV $1 1-X, 1-Y, 1-Z
EQIV $2 1-X, 1-Y, 2-Z
EQIV $3 -1+X, Y, Z
HTAB N2 S1_$2
HTAB N1 S2_$1
HTAB C11 O6_$3
SIZE 0.18 0.13 0.13
WGHT  0.042300  0.130000
FVAR  0.829740
TEMP 23
C1     1   0.646047  0.680198  0.792872 11.000000  0.047150  0.041960 =
           0.050770 -0.007900 -0.010840 -0.017770
C2     1   0.636160  0.678533  0.575173 11.000000  0.041240  0.039490 =
           0.046620 -0.000420 -0.009700 -0.014470
C3     1   0.353811  0.295013  0.839061 11.000000  0.049270  0.050550 =
           0.059870  0.005730 -0.014590 -0.024540
C4     1   0.639824  0.096045  0.907073 11.000000  0.047110  0.046100 =
           0.059420  0.009020 -0.016910 -0.021380
C5     1   0.600684  0.096412  0.696353 11.000000  0.067770  0.041660 =
           0.067120 -0.002550 -0.024500 -0.017720
C6     1   0.949069  0.439904  0.660383 11.000000  0.044920  0.044910 =
           0.046180 -0.007580 -0.005910 -0.016930
C7     1   0.958191  0.207449  0.576924 11.000000  0.048380  0.048770 =
           0.049600 -0.011610 -0.011920 -0.011190
C8     1   0.974462  0.185892  0.795913 11.000000  0.047970  0.046570 =
           0.055480 -0.005540 -0.018990 -0.011270
C9     1   0.364776  0.659259  0.756314 11.000000  0.041190  0.034630 =
           0.032970 -0.003440 -0.009100 -0.013950
C10    1   0.088361  0.742703  0.875071 11.000000  0.042990  0.076280 =
           0.051890 -0.011440 -0.001070 -0.007510
AFIX 23
H10A   2   0.033302  0.831254  0.913772 11.000000 -1.200000
H10B   2   0.036286  0.672350  0.918539 11.000000 -1.200000
AFIX 0
C11    1   0.080078  0.770048  0.745407 11.000000  0.040970  0.071890 =
           0.062510 -0.019220 -0.013270 -0.008990
AFIX 23
H11A   2   0.009359  0.724119  0.731269 11.000000 -1.200000
H11B   2   0.037382  0.872561  0.720421 11.000000 -1.200000
AFIX 0
Fe1    6   0.608469  0.566862  0.712920 11.000000  0.036420  0.031130 =
           0.032800 -0.002040 -0.008790 -0.012070
Fe2    6   0.580590  0.230673  0.786204 11.000000  0.040310  0.034770 =
           0.040560  0.002660 -0.011020 -0.016310
Fe3    6   0.843950  0.309673  0.702015 11.000000  0.034390  0.033440 =
           0.033000 -0.003150 -0.008610 -0.011150
H1N    2   0.288915  0.693836  0.611395 11.000000  0.058760
H2N    2   0.316462  0.655316  0.921925 11.000000  0.065030
N1     3   0.259651  0.702784  0.685385 11.000000  0.039430  0.089810 =
           0.038020 -0.013560 -0.010960 -0.011650
N2     3   0.270559  0.687093  0.864652 11.000000  0.045170  0.075280 =
           0.033310 -0.010980 -0.009640 -0.003250
O1     4   0.670658  0.748452  0.846364 11.000000  0.085000  0.077070 =
           0.085870 -0.029050 -0.021960 -0.038670
O2     4   0.654501  0.749655  0.488295 11.000000  0.074580  0.061970 =
           0.056420  0.018700 -0.014790 -0.028420
O3     4   0.209079  0.342152  0.872685 11.000000  0.044100  0.092540 =
           0.106210  0.001230 -0.009530 -0.025440
O4     4   0.680983  0.013053  0.982232 11.000000  0.077310  0.073390 =
           0.084110  0.039090 -0.038970 -0.033440
O5     4   0.610190  0.013565  0.640481 11.000000  0.126910  0.059460 =
           0.112750 -0.028860 -0.044190 -0.025010
O6     4   1.035227  0.507592  0.632033 11.000000  0.057480  0.060980 =
           0.088690 -0.008570 -0.004480 -0.035550
O7     4   1.029646  0.142139  0.497919 11.000000  0.086760  0.087960 =
           0.068300 -0.042600 -0.009730 -0.006270
O8     4   1.056414  0.105398  0.855104 11.000000  0.089110  0.069120 =
           0.089570  0.007630 -0.059090 -0.007710
S1     5   0.632081  0.391286  0.863252 11.000000  0.042390  0.039360 =
           0.027790 -0.001360 -0.009690 -0.012690
S2     5   0.612403  0.387810  0.624981 11.000000  0.042170  0.035760 =
           0.031130 -0.001660 -0.012770 -0.013770
HKLF 4
Q1     1   0.882500  0.243300  0.637300 11.000000  0.050000      0.47
Q2     1   0.635400  0.161000  0.717700 11.000000  0.050000      0.44
Q3     1   0.569900  0.627300  0.776700 11.000000  0.050000      0.35
Q4     1   0.637500  0.074100  0.602600 11.000000  0.050000      0.31
Q5     1   0.615200  0.095300  0.654100 11.000000  0.050000      0.31
Q6     1   0.597800  0.072300  0.681700 11.000000  0.050000      0.30
Q7     1   0.555100  0.447300  0.676200 11.000000  0.050000      0.30
Q8     1   0.510500  0.139800  0.747600 11.000000  0.050000      0.29
Q9     1   0.652800  0.511300  0.651900 11.000000  0.050000      0.29
Q10    1   0.530500  0.042600  0.683300 11.000000  0.050000      0.29
Q11    1   0.584000  0.257500  0.842400 11.000000  0.050000      0.28
Q12    1   0.588400  0.753900  0.853900 11.000000  0.050000      0.28
Q13    1   0.658500  0.683600  0.465000 11.000000  0.050000      0.28
Q14    1   0.877900  0.357600  0.733600 11.000000  0.050000      0.28
Q15    1   1.039600  0.192700  0.490600 11.000000  0.050000      0.27
Q16    1   0.492600  0.286700  0.825400 11.000000  0.050000      0.27
Q17    1   0.845200  0.358600  0.759400 11.000000  0.050000      0.27
Q18    1   0.659800 -0.015500  0.654000 11.000000  0.050000      0.25
Q19    1   1.071800  0.062900  0.806400 11.000000  0.050000      0.25
Q20    1   0.636200  0.049600  0.147100 11.000000  0.050000      0.24
Q21    1   0.934100  0.153500  0.540200 11.000000  0.050000      0.24
Q22    1   0.115000  0.354100  0.972600 11.000000  0.050000      0.24
Q23    1   1.111900  0.102000  0.794100 11.000000  0.050000      0.24
Q24    1   0.679800  0.332900  0.817400 11.000000  0.050000      0.24
Q25    1   0.703100  0.744100  0.797500 11.000000  0.050000      0.24
END
;
_cod_data_source_file            wq3060sup1.cif
_cod_data_source_block           1
_cod_depositor_comments
'Adding full bibliography for 2019538--2019539.cif.'
_cod_database_code               2019538
_cod_database_fobs_code          2019538
loop_
_symmetry_equiv_pos_as_xyz
'x, y, z'
'-x, -y, -z'
loop_
_atom_site_type_symbol
_atom_site_label
_atom_site_fract_x
_atom_site_fract_y
_atom_site_fract_z
_atom_site_U_iso_or_equiv
_atom_site_adp_type
_atom_site_calc_flag
_atom_site_refinement_flags
_atom_site_occupancy
_atom_site_symmetry_multiplicity
C C1 0.6460(3) 0.6802(2) 0.7929(2) 0.0456(5) Uani d . 1 1
C C2 0.6362(3) 0.6785(2) 0.5752(2) 0.0431(5) Uani d . 1 1
C C3 0.3538(3) 0.2950(3) 0.8391(2) 0.0524(5) Uani d . 1 1
C C4 0.6398(3) 0.0960(3) 0.9071(2) 0.0505(5) Uani d . 1 1
C C5 0.6007(4) 0.0964(3) 0.6964(2) 0.0578(6) Uani d . 1 1
C C6 0.9491(3) 0.4399(2) 0.6604(2) 0.0457(5) Uani d . 1 1
C C7 0.9582(3) 0.2074(3) 0.5769(2) 0.0497(5) Uani d . 1 1
C C8 0.9745(3) 0.1859(3) 0.7959(2) 0.0501(5) Uani d . 1 1
C C9 0.3648(3) 0.6593(2) 0.75631(17) 0.0360(4) Uani d . 1 1
C C10 0.0884(3) 0.7427(3) 0.8751(2) 0.0628(7) Uani d . 1 1
H H10A 0.0333 0.8313 0.9138 0.075 Uiso calc R 1 1
H H10B 0.0363 0.6723 0.9185 0.075 Uiso calc R 1 1
C C11 0.0801(3) 0.7700(3) 0.7454(2) 0.0597(6) Uani d . 1 1
H H11A 0.0094 0.7241 0.7313 0.072 Uiso calc R 1 1
H H11B 0.0374 0.8726 0.7204 0.072 Uiso calc R 1 1
Fe Fe1 0.60847(3) 0.56686(3) 0.71292(2) 0.03342(10) Uani d . 1 1
Fe Fe2 0.58059(4) 0.23067(3) 0.78620(3) 0.03822(10) Uani d . 1 1
Fe Fe3 0.84395(3) 0.30967(3) 0.70201(2) 0.03373(10) Uani d . 1 1
H H1N 0.289(4) 0.694(3) 0.611(3) 0.059(8) Uiso d . 1 1
H H2N 0.316(4) 0.655(3) 0.922(3) 0.065(9) Uiso d . 1 1
N N1 0.2597(2) 0.7028(3) 0.68538(18) 0.0577(6) Uani d . 1 1
N N2 0.2706(3) 0.6871(3) 0.86465(17) 0.0559(5) Uani d . 1 1
O O1 0.6707(3) 0.7485(2) 0.8464(2) 0.0759(6) Uani d . 1 1
O O2 0.6545(3) 0.7497(2) 0.48830(17) 0.0669(5) Uani d . 1 1
O O3 0.2091(3) 0.3422(3) 0.8727(2) 0.0841(7) Uani d . 1 1
O O4 0.6810(3) 0.0131(2) 0.9822(2) 0.0787(6) Uani d . 1 1
O O5 0.6102(4) 0.0136(2) 0.6405(3) 0.0954(8) Uani d . 1 1
O O6 1.0352(2) 0.5076(2) 0.63203(19) 0.0673(5) Uani d . 1 1
O O7 1.0296(3) 0.1421(3) 0.4979(2) 0.0853(7) Uani d . 1 1
O O8 1.0564(3) 0.1054(2) 0.8551(2) 0.0825(6) Uani d . 1 1
S S1 0.63208(6) 0.39129(5) 0.86325(4) 0.03702(13) Uani d . 1 1
S S2 0.61240(6) 0.38781(5) 0.62498(4) 0.03564(12) Uani d . 1 1
loop_
_atom_site_aniso_label
_atom_site_aniso_U_11
_atom_site_aniso_U_22
_atom_site_aniso_U_33
_atom_site_aniso_U_12
_atom_site_aniso_U_13
_atom_site_aniso_U_23
C1 0.0472(12) 0.0420(11) 0.0508(12) -0.0178(9) -0.0108(9) -0.0079(10)
C2 0.0412(10) 0.0395(11) 0.0466(11) -0.0145(9) -0.0097(9) -0.0004(9)
C3 0.0493(13) 0.0506(13) 0.0599(14) -0.0245(11) -0.0146(11) 0.0057(11)
C4 0.0471(12) 0.0461(12) 0.0594(14) -0.0214(10) -0.0169(10) 0.0090(11)
C5 0.0678(16) 0.0417(12) 0.0671(16) -0.0177(11) -0.0245(13) -0.0025(11)
C6 0.0449(11) 0.0449(12) 0.0462(12) -0.0169(9) -0.0059(9) -0.0076(9)
C7 0.0484(12) 0.0488(13) 0.0496(12) -0.0112(10) -0.0119(10) -0.0116(10)
C8 0.0480(12) 0.0466(12) 0.0555(13) -0.0113(10) -0.0190(10) -0.0055(10)
C9 0.0412(10) 0.0346(9) 0.0330(9) -0.0140(8) -0.0091(7) -0.0034(7)
C10 0.0430(12) 0.0763(18) 0.0519(14) -0.0075(12) -0.0011(10) -0.0114(13)
C11 0.0410(12) 0.0719(17) 0.0625(15) -0.0090(11) -0.0133(11) -0.0192(13)
Fe1 0.03642(16) 0.03113(16) 0.03280(16) -0.01207(11) -0.00879(11) -0.00204(11)
Fe2 0.04031(17) 0.03477(17) 0.04056(18) -0.01631(12) -0.01102(12) 0.00266(12)
Fe3 0.03439(16) 0.03344(16) 0.03300(16) -0.01115(11) -0.00861(11) -0.00315(11)
N1 0.0394(10) 0.0898(16) 0.0380(10) -0.0116(10) -0.0110(8) -0.0136(10)
N2 0.0452(10) 0.0753(14) 0.0333(9) -0.0032(10) -0.0096(8) -0.0110(9)
O1 0.0850(14) 0.0771(13) 0.0859(14) -0.0387(11) -0.0220(11) -0.0291(11)
O2 0.0746(12) 0.0620(11) 0.0564(11) -0.0284(10) -0.0148(9) 0.0187(9)
O3 0.0441(10) 0.0925(16) 0.1062(17) -0.0254(10) -0.0095(10) 0.0012(13)
O4 0.0773(13) 0.0734(13) 0.0841(14) -0.0334(11) -0.0390(11) 0.0391(12)
O5 0.127(2) 0.0595(13) 0.1128(19) -0.0250(13) -0.0442(16) -0.0289(13)
O6 0.0575(11) 0.0610(11) 0.0887(14) -0.0355(9) -0.0045(10) -0.0086(10)
O7 0.0868(15) 0.0880(15) 0.0683(13) -0.0063(12) -0.0097(11) -0.0426(12)
O8 0.0891(15) 0.0691(13) 0.0896(16) -0.0077(11) -0.0591(13) 0.0076(11)
S1 0.0424(3) 0.0394(3) 0.0278(2) -0.0127(2) -0.00969(18) -0.00136(19)
S2 0.0422(3) 0.0358(2) 0.0311(2) -0.01377(19) -0.01277(19) -0.00166(18)
loop_
_atom_type_symbol
_atom_type_description
_atom_type_scat_dispersion_real
_atom_type_scat_dispersion_imag
_atom_type_scat_source
C C 0.0033 0.0016 'International Tables Vol C Tables 4.2.6.8 and 6.1.1.4'
H H 0.0000 0.0000 'International Tables Vol C Tables 4.2.6.8 and 6.1.1.4'
N N 0.0061 0.0033 'International Tables Vol C Tables 4.2.6.8 and 6.1.1.4'
O O 0.0106 0.0060 'International Tables Vol C Tables 4.2.6.8 and 6.1.1.4'
S S 0.1246 0.1234 'International Tables Vol C Tables 4.2.6.8 and 6.1.1.4'
Fe Fe 0.3463 0.8444 'International Tables Vol C Tables 4.2.6.8 and 6.1.1.4'
loop_
_geom_angle_atom_site_label_1
_geom_angle_atom_site_label_2
_geom_angle_atom_site_label_3
_geom_angle
_geom_angle_publ_flag
O1 C1 Fe1 177.8(2) ?
O2 C2 Fe1 179.4(2) ?
O3 C3 Fe2 176.9(2) ?
O4 C4 Fe2 177.9(2) ?
O5 C5 Fe2 178.8(3) ?
O6 C6 Fe3 171.1(2) y
O7 C7 Fe3 179.5(3) y
O8 C8 Fe3 178.7(2) ?
N2 C9 N1 107.11(19) y
N2 C9 Fe1 125.81(16) y
N1 C9 Fe1 127.06(15) y
N2 C10 C11 101.87(19) ?
N2 C10 H10A 111.4 ?
C11 C10 H10A 111.4 ?
N2 C10 H10B 111.4 ?
C11 C10 H10B 111.4 ?
H10A C10 H10B 109.3 ?
N1 C11 C10 101.51(19) ?
N1 C11 H11A 111.5 ?
C10 C11 H11A 111.5 ?
N1 C11 H11B 111.5 ?
C10 C11 H11B 111.5 ?
H11A C11 H11B 109.3 ?
C1 Fe1 C2 93.25(11) ?
C1 Fe1 C9 93.83(9) ?
C2 Fe1 C9 94.43(9) ?
C1 Fe1 S1 91.35(8) ?
C2 Fe1 S1 166.56(7) ?
C9 Fe1 S1 97.85(6) ?
C1 Fe1 S2 167.25(8) ?
C2 Fe1 S2 93.01(7) ?
C9 Fe1 S2 96.75(6) ?
S1 Fe1 S2 80.19(2) ?
C1 Fe1 Fe3 112.25(7) ?
C2 Fe1 Fe3 111.75(7) ?
C9 Fe1 Fe3 140.93(6) ?
S1 Fe1 Fe3 54.894(15) ?
S2 Fe1 Fe3 55.044(15) ?
C3 Fe2 C5 98.20(12) ?
C3 Fe2 C4 100.26(11) ?
C5 Fe2 C4 92.60(12) ?
C3 Fe2 S2 100.61(8) ?
C5 Fe2 S2 91.48(9) ?
C4 Fe2 S2 157.92(8) ?
C3 Fe2 S1 97.66(8) ?
C5 Fe2 S1 163.11(9) ?
C4 Fe2 S1 90.25(8) ?
S2 Fe2 S1 79.92(2) ?
C3 Fe2 Fe3 144.06(8) ?
C5 Fe2 Fe3 107.88(9) ?
C4 Fe2 Fe3 102.73(7) ?
S2 Fe2 Fe3 55.470(15) ?
S1 Fe2 Fe3 55.298(15) ?
C7 Fe3 C8 93.34(11) ?
C7 Fe3 C6 97.10(11) ?
C8 Fe3 C6 97.96(11) ?
C7 Fe3 S1 157.49(8) ?
C8 Fe3 S1 90.38(8) ?
C6 Fe3 S1 104.36(7) ?
C7 Fe3 S2 87.25(8) ?
C8 Fe3 S2 151.60(8) ?
C6 Fe3 S2 110.16(8) ?
S1 Fe3 S2 79.13(2) ?
C7 Fe3 Fe2 102.74(8) ?
C8 Fe3 Fe2 97.80(8) ?
C6 Fe3 Fe2 153.80(7) ?
S1 Fe3 Fe2 54.748(16) ?
S2 Fe3 Fe2 54.655(16) ?
C7 Fe3 Fe1 129.23(8) ?
C8 Fe3 Fe1 136.70(8) ?
C6 Fe3 Fe1 72.29(7) ?
S1 Fe3 Fe1 54.085(15) ?
S2 Fe3 Fe1 54.060(15) ?
Fe2 Fe3 Fe1 81.885(12) y
C9 N1 C11 114.0(2) ?
C9 N1 H1N 125(2) ?
C11 N1 H1N 120.6(19) ?
C9 N2 C10 114.58(19) ?
C9 N2 H2N 119(2) ?
C10 N2 H2N 125(2) ?
Fe1 S1 Fe2 98.84(2) y
Fe1 S1 Fe3 71.021(18) ?
Fe2 S1 Fe3 69.954(17) ?
Fe1 S2 Fe2 98.85(2) y
Fe1 S2 Fe3 70.896(17) ?
Fe2 S2 Fe3 69.875(18) ?
loop_
_geom_bond_atom_site_label_1
_geom_bond_atom_site_label_2
_geom_bond_distance
_geom_bond_publ_flag
C1 O1 1.137(3) ?
C1 Fe1 1.795(2) ?
C2 O2 1.138(3) ?
C2 Fe1 1.798(2) ?
C3 O3 1.143(3) ?
C3 Fe2 1.788(2) ?
C4 O4 1.133(3) ?
C4 Fe2 1.812(2) ?
C5 O5 1.131(3) ?
C5 Fe2 1.811(3) ?
C6 O6 1.142(3) ?
C6 Fe1 2.686(3) y
C6 Fe3 1.795(2) ?
C7 O7 1.133(3) ?
C7 Fe3 1.789(2) ?
C8 O8 1.135(3) ?
C8 Fe3 1.790(2) ?
C9 N2 1.322(3) y
C9 N1 1.323(3) y
C9 Fe1 1.925(2) y
C10 N2 1.450(3) ?
C10 C11 1.525(4) ?
C10 H10A 0.9700 ?
C10 H10B 0.9700 ?
C11 N1 1.467(3) ?
C11 H11A 0.9700 ?
C11 H11B 0.9700 ?
Fe1 S1 2.2418(6) y
Fe1 S2 2.2428(5) y
Fe1 Fe2 3.4111(6) y
Fe1 Fe3 2.6176(4) y
Fe2 S2 2.2479(6) y
Fe2 S1 2.2494(6) y
Fe2 Fe3 2.5876(4) y
Fe3 S1 2.2645(5) y
Fe3 S2 2.2704(6) y
N1 H1N 0.85(3) ?
N2 H2N 0.84(3) ?
loop_
_geom_hbond_atom_site_label_D
_geom_hbond_atom_site_label_H
_geom_hbond_atom_site_label_A
_geom_hbond_site_symmetry_A
_geom_hbond_distance_DH
_geom_hbond_distance_HA
_geom_hbond_distance_DA
_geom_hbond_angle_DHA
_geom_hbond_publ_flag
C11 H11A O6 1_455 0.97 2.59 3.391(3) 140.5 y
N1 H1N S2 2_666 0.85(3) 2.87(3) 3.707(2) 170(2) y
N2 H2N S1 2_667 0.84(3) 2.64(3) 3.442(2) 162(3) y
