#------------------------------------------------------------------------------
#$Date: 2016-02-20 00:18:51 +0200 (Sat, 20 Feb 2016) $
#$Revision: 176760 $
#$URL: svn://www.crystallography.net/cod/cif/2/01/96/2019664.cif $
#------------------------------------------------------------------------------
#
# This file is available in the Crystallography Open Database (COD),
# http://www.crystallography.net/. The original data for this entry
# were provided by IUCr Journals, http://journals.iucr.org/.
#
# The file may be used within the scientific community so long as
# proper attribution is given to the journal article from which the
# data were obtained.
#
data_2019664
loop_
_publ_author_name
'Capelli, Silvia C.'
'B\"urgi, Hans-Beat'
'Mason, Sax A.'
'Jayatilaka, Dylan'
_publ_section_title
;
 Glycyl-<small>L</small>-alanine: a multi-temperature neutron study
;
_journal_issue                   10
_journal_name_full               'Acta Crystallographica Section C'
_journal_page_first              949
_journal_page_last               952
_journal_paper_doi               10.1107/S2053229614019809
_journal_volume                  70
_journal_year                    2014
_chemical_formula_iupac          'C5 H10 N2 O3'
_chemical_formula_moiety         'C5 H10 N2 O3'
_chemical_formula_sum            'C5 H10 N2 O3'
_chemical_formula_weight         146.15
_chemical_name_common            Gly-L-Ala
_chemical_name_systematic
;
Glycyl-<i>L</i>-alanine
;
_space_group_IT_number           19
_symmetry_cell_setting           orthorhombic
_symmetry_space_group_name_Hall  'P 2ac 2ab'
_symmetry_space_group_name_H-M   'P 21 21 21'
_atom_sites_solution_hydrogens   difmap
_atom_sites_solution_primary     direct
_atom_sites_solution_secondary   difmap
_audit_creation_method           SHELXL-97
_cell_angle_alpha                90.00
_cell_angle_beta                 90.00
_cell_angle_gamma                90.00
_cell_formula_units_Z            4
_cell_length_a                   7.4587(7)
_cell_length_b                   9.4928(9)
_cell_length_c                   9.7250(9)
_cell_measurement_reflns_used    553
_cell_measurement_temperature    50(2)
_cell_measurement_theta_max      37.87
_cell_measurement_theta_min      4.02
_cell_volume                     688.57(11)
_computing_cell_refinement       'ILL-RAFD9 software'
_computing_data_collection       'ILL-MAD software'
_computing_data_reduction        'RACER (Wilkinson <i>et al.</i>, 1988)'
_computing_molecular_graphics    'Mercury (Macrae <i>et al.</i>, 2008)'
_computing_structure_refinement  'SHELXL97 (Sheldrick, 2008)'
_computing_structure_solution    'SHELXS97 (Sheldrick, 2008)'
_diffrn_ambient_temperature      50(2)
_diffrn_detector_area_resol_mean 0.5
_diffrn_measured_fraction_theta_full 0.996
_diffrn_measured_fraction_theta_max 0.996
_diffrn_measurement_device_type  '4-circle Eulerian cradle'
_diffrn_measurement_method       'omega-X-theta scans'
_diffrn_radiation_monochromator  Cu(220)
_diffrn_radiation_source         'nuclear reactor'
_diffrn_radiation_wavelength     0.83130
_diffrn_reflns_av_R_equivalents  0.0240
_diffrn_reflns_av_sigmaI/netI    0.0611
_diffrn_reflns_limit_h_max       6
_diffrn_reflns_limit_h_min       -11
_diffrn_reflns_limit_k_max       14
_diffrn_reflns_limit_k_min       0
_diffrn_reflns_limit_l_max       10
_diffrn_reflns_limit_l_min       -14
_diffrn_reflns_number            1467
_diffrn_reflns_theta_full        37.99
_diffrn_reflns_theta_max         37.99
_diffrn_reflns_theta_min         3.51
_diffrn_standards_number         0
_exptl_absorpt_coefficient_mu    2.15
_exptl_absorpt_correction_T_max  0.8081
_exptl_absorpt_correction_T_min  0.7263
_exptl_absorpt_correction_type   gaussian
_exptl_absorpt_process_details   'ILL-DATAP software'
_exptl_crystal_colour            coulourless
_exptl_crystal_density_diffrn    1.410
_exptl_crystal_density_method    'not measured'
_exptl_crystal_description       prismatic
_exptl_crystal_F_000             128
_exptl_crystal_size_max          3
_exptl_crystal_size_mid          3
_exptl_crystal_size_min          1.5
_refine_diff_density_max         1.026
_refine_diff_density_min         -0.877
_refine_ls_abs_structure_details 'Flack (1983), <b>???? Friedel pairs</b>'
_refine_ls_abs_structure_Flack   -10(10)
_refine_ls_extinction_coef       0.0144(15)
_refine_ls_extinction_expression Fc^*^=kFc[1+0.001xFc^2^\l^3^/sin(2\q)]^-1/4^
_refine_ls_extinction_method     'SHELXL97 (Sheldrick, 2008)'
_refine_ls_goodness_of_fit_ref   1.067
_refine_ls_hydrogen_treatment    refall
_refine_ls_matrix_type           full
_refine_ls_number_parameters     182
_refine_ls_number_reflns         1354
_refine_ls_number_restraints     0
_refine_ls_restrained_S_all      1.067
_refine_ls_R_factor_all          0.0519
_refine_ls_R_factor_gt           0.0416
_refine_ls_shift/su_max          0.003
_refine_ls_shift/su_mean         0.001
_refine_ls_structure_factor_coef Fsqd
_refine_ls_weighting_details
'calc w=1/[\s^2^(Fo^2^)+(0.0199P)^2^+3.9417P] where P=(Fo^2^+2Fc^2^)/3'
_refine_ls_weighting_scheme      calc
_refine_ls_wR_factor_gt          0.0798
_refine_ls_wR_factor_ref         0.0841
_reflns_number_gt                1205
_reflns_number_total             1354
_reflns_threshold_expression     I>2sigma(I)
_iucr_refine_instructions_details
;
TITL Gly-Ala in P2(1)2(1)2(1) d9 data at 50K -
CELL 0.8313  7.4587    9.4928    9.7250    90.000  90.000  90.000
ZERR    4.00   0.0007   0.0009   0.0009   0.000   0.000   0.000
LATT -1
SYMM 0.5-X, -Y, 0.5+Z
SYMM -X, 0.5+Y, 0.5-Z
SYMM 0.5+X, 0.5-Y, -Z
SFAC C  0 0 0 0 0 0 0 0  6.6484   0 0 0 0.77  12.011
SFAC H  0 0 0 0 0 0 0 0 -3.7409   0 0 0 0.32  1.008
SFAC N  0 0 0 0 0 0 0 0  9.3600   0 0 0 1.5  14.0067
SFAC O  0 0 0 0 0 0 0 0  5.805    0 0 0 0.66  16
rem above coherent b values all from
rem reference A. Rauch & W. Waschkowski, Neutron Data Booklet
rem (July 2003, eds A.J. Dianoux & G. Lander)
rem copy of NDB available from ILL
rem various Rauch et al  tables also available on Web:-
rem   see http://www.ati.ac.at/~neutropt/scattering/table.html
UNIT 20 40 8 12
TEMP -173
L.S.  2
BOND
HTAB
bond $H
PLAN 10
ACTA
WGHT    0.019900    3.941700
EXTI    0.014368
FVAR       0.76646
O1    4    0.267461    0.962695    0.778155    11.00000    0.01007    0.00982 =
         0.00681   -0.00309    0.00233   -0.00417
O2    4    0.430292    1.125226    0.883565    11.00000    0.00942    0.01083 =
         0.00509   -0.00199   -0.00051   -0.00220
O3    4    0.708450    0.948713    0.600205    11.00000    0.00794    0.01072 =
         0.00687   -0.00083   -0.00300    0.00127
N1    3    0.442364    1.036646    0.525536    11.00000    0.00717    0.00845 =
         0.00476   -0.00101   -0.00040    0.00071
H1N1  2    0.353789    1.039796    0.445921    11.00000    0.01705    0.02426 =
         0.01210   -0.00216   -0.00495    0.00237
N2    3    0.734128    0.755807    0.401006    11.00000    0.00741    0.00844 =
         0.00589   -0.00067    0.00073    0.00073
H1N2  2    0.861888    0.800901    0.404301    11.00000    0.01500    0.02280 =
         0.02408    0.00057    0.00038   -0.00072
H2N2  2    0.735110    0.679464    0.324067    11.00000    0.01972    0.02074 =
         0.01728   -0.00542   -0.00051    0.00103
H3N2  2    0.704050    0.701834    0.491427    11.00000    0.02061    0.02413 =
         0.01665    0.00428    0.00502    0.00670
C1    1    0.373126    1.064767    0.776952    11.00000    0.00603    0.00744 =
         0.00375   -0.00067    0.00088    0.00023
C2    1    0.425919    1.135118    0.639015    11.00000    0.00736    0.00764 =
         0.00454   -0.00140   -0.00003    0.00089
H2    2    0.555847    1.186359    0.655699    11.00000    0.01470    0.02549 =
         0.01695    0.00110    0.00141   -0.00616
C3    1    0.283386    1.245009    0.604311    11.00000    0.01692    0.01078 =
         0.00735   -0.00026   -0.00039    0.00690
H3A   2    0.155912    1.194394    0.585430    11.00000    0.02116    0.03933 =
         0.03407    0.00057   -0.00493    0.00697
H3B   2    0.323195    1.304481    0.513008    11.00000    0.04187    0.03492 =
         0.02196    0.01065    0.00517    0.01023
H3C   2    0.268359    1.318370    0.689971    11.00000    0.04877    0.02721 =
         0.02146   -0.00830   -0.00166    0.01379
C4    1    0.588885    0.954897    0.513961    11.00000    0.00634    0.00711 =
         0.00387   -0.00027    0.00110    0.00132
C5    1    0.597604    0.867059    0.382129    11.00000    0.00766    0.00959 =
         0.00392    0.00011   -0.00076    0.00240
H5A   2    0.468460    0.818874    0.359054    11.00000    0.01752    0.02918 =
         0.02780   -0.01114   -0.00850    0.00256
H5B   2    0.636652    0.935332    0.295024    11.00000    0.03196    0.02487 =
         0.01347    0.00343    0.00388    0.00593
HKLF 4
END
;
_cod_data_source_file            yf3069sup1.cif
_cod_data_source_block           ga50k
_cod_depositor_comments
'Adding full bibliography for 2019663--2019666.cif.'
_cod_database_code               2019664
_cod_database_fobs_code          2019664
loop_
_symmetry_equiv_pos_as_xyz
'x, y, z'
'-x+1/2, -y, z+1/2'
'-x, y+1/2, -z+1/2'
'x+1/2, -y+1/2, -z'
loop_
_atom_site_type_symbol
_atom_site_label
_atom_site_fract_x
_atom_site_fract_y
_atom_site_fract_z
_atom_site_U_iso_or_equiv
_atom_site_adp_type
_atom_site_calc_flag
_atom_site_occupancy
_atom_site_symmetry_multiplicity
O O1 0.2675(3) 0.9627(2) 0.7782(2) 0.0089(4) Uani d 1 1
O O2 0.4303(3) 1.1252(2) 0.8836(2) 0.0084(4) Uani d 1 1
O O3 0.7085(3) 0.9487(2) 0.6002(2) 0.0085(3) Uani d 1 1
N N1 0.44236(17) 1.03665(14) 0.52554(12) 0.0068(2) Uani d 1 1
N N2 0.73413(17) 0.75581(15) 0.40101(13) 0.0072(2) Uani d 1 1
C C1 0.3731(2) 1.06477(19) 0.77695(17) 0.0057(3) Uani d 1 1
C C2 0.4259(3) 1.1351(2) 0.63902(17) 0.0065(3) Uani d 1 1
C C3 0.2834(3) 1.2450(2) 0.6043(2) 0.0117(3) Uani d 1 1
C C4 0.5889(2) 0.9549(2) 0.51396(17) 0.0058(3) Uani d 1 1
C C5 0.5976(2) 0.8671(2) 0.38213(17) 0.0071(3) Uani d 1 1
H H1N1 0.3538(5) 1.0398(5) 0.4459(4) 0.0178(7) Uani d 1 1
H H1N2 0.8619(6) 0.8009(5) 0.4043(5) 0.0206(8) Uani d 1 1
H H2N2 0.7351(6) 0.6795(5) 0.3241(4) 0.0192(8) Uani d 1 1
H H3N2 0.7041(6) 0.7018(5) 0.4914(4) 0.0205(8) Uani d 1 1
H H2 0.5558(6) 1.1864(5) 0.6557(4) 0.0190(7) Uani d 1 1
H H3A 0.1559(7) 1.1944(6) 0.5854(6) 0.0315(11) Uani d 1 1
H H3B 0.3232(8) 1.3045(6) 0.5130(5) 0.0329(11) Uani d 1 1
H H3C 0.2684(9) 1.3184(6) 0.6900(5) 0.0325(12) Uani d 1 1
H H5A 0.4685(6) 0.8189(6) 0.3591(5) 0.0248(9) Uani d 1 1
H H5B 0.6367(7) 0.9353(5) 0.2950(4) 0.0234(9) Uani d 1 1
loop_
_atom_site_aniso_label
_atom_site_aniso_U_11
_atom_site_aniso_U_22
_atom_site_aniso_U_33
_atom_site_aniso_U_12
_atom_site_aniso_U_13
_atom_site_aniso_U_23
O1 0.0101(8) 0.0098(8) 0.0068(7) -0.0042(8) 0.0023(7) -0.0031(7)
O2 0.0094(8) 0.0108(8) 0.0051(7) -0.0022(7) -0.0005(7) -0.0020(7)
O3 0.0079(8) 0.0107(8) 0.0069(7) 0.0013(7) -0.0030(7) -0.0008(7)
N1 0.0072(5) 0.0085(5) 0.0048(4) 0.0007(4) -0.0004(4) -0.0010(4)
N2 0.0074(5) 0.0084(5) 0.0059(5) 0.0007(4) 0.0007(4) -0.0007(4)
C1 0.0060(7) 0.0074(7) 0.0037(6) 0.0002(6) 0.0009(5) -0.0007(6)
C2 0.0074(7) 0.0076(7) 0.0045(6) 0.0009(6) 0.0000(6) -0.0014(5)
C3 0.0169(8) 0.0108(7) 0.0074(7) 0.0069(7) -0.0004(7) -0.0003(7)
C4 0.0063(7) 0.0071(7) 0.0039(6) 0.0013(6) 0.0011(5) -0.0003(5)
C5 0.0077(7) 0.0096(7) 0.0039(6) 0.0024(6) -0.0008(6) 0.0001(6)
H1N1 0.0170(16) 0.0243(18) 0.0121(14) 0.0024(16) -0.0050(12) -0.0022(14)
H1N2 0.0150(17) 0.0228(18) 0.0241(19) -0.0007(15) 0.0004(16) 0.0006(17)
H2N2 0.0197(19) 0.0207(18) 0.0173(16) 0.0010(16) -0.0005(15) -0.0054(14)
H3N2 0.0206(18) 0.0241(19) 0.0166(16) 0.0067(16) 0.0050(15) 0.0043(14)
H2 0.0147(17) 0.0255(19) 0.0169(15) -0.0062(16) 0.0014(14) 0.0011(15)
H3A 0.021(2) 0.039(3) 0.034(2) 0.007(2) -0.005(2) 0.001(2)
H3B 0.042(3) 0.035(3) 0.0220(19) 0.010(2) 0.005(2) 0.0106(19)
H3C 0.049(3) 0.027(2) 0.021(2) 0.014(2) -0.002(2) -0.0083(18)
H5A 0.0175(19) 0.029(2) 0.028(2) 0.0026(17) -0.0085(16) -0.0111(18)
H5B 0.032(2) 0.025(2) 0.0135(15) 0.0059(18) 0.0039(15) 0.0034(15)
loop_
_atom_type_symbol
_atom_type_description
_atom_type_scat_length_neutron
_atom_type_scat_dispersion_real
_atom_type_scat_dispersion_imag
_atom_type_scat_source
C C 6.6484 0.0000 0.0000 'Neutron Data Booklet Table 1.1-8'
H H -3.7409 0.0000 0.0000 'Neutron Data Booklet Table 1.1-8'
N N 9.36 0.0000 0.0000 'Neutron Data Booklet Table 1.1-8'
O O 5.805 0.0000 0.0000 'Neutron Data Booklet Table 1.1-8'
loop_
_geom_angle_atom_site_label_1
_geom_angle_atom_site_label_2
_geom_angle_atom_site_label_3
_geom_angle
C4 N1 C2 120.26(14)
C4 N1 H1N1 118.7(3)
C2 N1 H1N1 120.3(3)
C5 N2 H1N2 109.8(3)
C5 N2 H2N2 114.4(3)
C5 N2 H3N2 107.9(3)
H1N2 N2 H2N2 107.5(4)
H1N2 N2 H3N2 111.8(4)
H2N2 N2 H3N2 105.4(4)
O1 C1 O2 124.0(2)
O1 C1 C2 120.19(17)
O2 C1 C2 115.49(17)
N1 C2 C3 109.31(14)
N1 C2 C1 113.71(15)
C3 C2 C1 107.99(15)
N1 C2 H2 108.9(3)
C3 C2 H2 110.2(3)
C1 C2 H2 106.7(3)
C2 C3 H3A 110.3(4)
C2 C3 H3B 110.1(3)
C2 C3 H3C 109.8(3)
H3A C3 H3B 109.3(5)
H3A C3 H3C 108.8(5)
H3B C3 H3C 108.6(5)
O3 C4 N1 124.16(18)
O3 C4 C5 121.07(17)
N1 C4 C5 114.76(15)
N2 C5 C4 108.32(13)
N2 C5 H5A 109.5(3)
C4 C5 H5A 111.3(3)
N2 C5 H5B 109.4(3)
C4 C5 H5B 109.5(3)
H5A C5 H5B 108.7(4)
loop_
_geom_bond_atom_site_label_1
_geom_bond_atom_site_label_2
_geom_bond_distance
O1 C1 1.249(3)
O2 C1 1.259(3)
O3 C4 1.226(3)
N1 C4 1.345(2)
N1 C2 1.451(2)
N1 H1N1 1.018(4)
N2 C5 1.478(2)
N2 H1N2 1.045(4)
N2 H2N2 1.042(4)
N2 H3N2 1.042(4)
C1 C2 1.549(2)
C2 C3 1.527(3)
C2 H2 1.096(5)
C3 H3A 1.081(6)
C3 H3B 1.093(6)
C3 H3C 1.092(5)
C4 C5 1.531(3)
C5 H5A 1.090(5)
C5 H5B 1.106(5)
