#------------------------------------------------------------------------------
#$Date: 2016-02-20 00:18:51 +0200 (Sat, 20 Feb 2016) $
#$Revision: 176760 $
#$URL: svn://www.crystallography.net/cod/cif/2/01/95/2019537.cif $
#------------------------------------------------------------------------------
#
# This file is available in the Crystallography Open Database (COD),
# http://www.crystallography.net/. The original data for this entry
# were provided by IUCr Journals, http://journals.iucr.org/.
#
# The file may be used within the scientific community so long as
# proper attribution is given to the journal article from which the
# data were obtained.
#
data_2019537
loop_
_publ_author_name
'Cheung, Eugene Y.'
'Pennington, Lewis D.'
'Bartberger, Michael D.'
'Staples, Richard J.'
_publ_section_title
;
 2,2'-Bi[benzo[<i>b</i>]thiophene]: an unexpected isolation of the
 benzo[<i>b</i>]thiophene dimer
;
_journal_coeditor_code           UK3096
_journal_issue                   6
_journal_name_full               'Acta Crystallographica Section C'
_journal_page_first              547
_journal_page_last               549
_journal_paper_doi               10.1107/S2053229614009401
_journal_volume                  70
_journal_year                    2014
_chemical_formula_iupac          'C16 H10 S2'
_chemical_formula_moiety         'C16 H10 S2'
_chemical_formula_sum            'C16 H10 S2'
_chemical_formula_weight         266.36
_chemical_name_systematic
;
2,2'-Bi[benzo[<i>b</i>]thiophene]
;
_space_group_IT_number           2
_symmetry_cell_setting           triclinic
_symmetry_space_group_name_Hall  '-P 1'
_symmetry_space_group_name_H-M   'P -1'
_atom_sites_solution_hydrogens   geom
_atom_sites_solution_primary     direct
_atom_sites_solution_secondary   difmap
_audit_creation_method           SHELXL97
_cell_angle_alpha                76.2860(10)
_cell_angle_beta                 81.1180(10)
_cell_angle_gamma                88.6990(10)
_cell_formula_units_Z            2
_cell_length_a                   5.84150(10)
_cell_length_b                   7.61970(10)
_cell_length_c                   14.2782(2)
_cell_measurement_reflns_used    5762
_cell_measurement_temperature    173(2)
_cell_measurement_theta_max      72.22
_cell_measurement_theta_min      3.22
_cell_volume                     609.944(16)
_computing_cell_refinement       'APEX2 (Bruker, 2010)'
_computing_data_collection       'COSMO (Bruker, 2009)'
_computing_data_reduction        'SAINT (Bruker, 2010)'
_computing_molecular_graphics    'SHELXTL (Sheldrick, 2008)'
_computing_publication_material  'SHELXTL (Sheldrick, 2008)'
_computing_structure_refinement  'SHELXL97 (Sheldrick, 2008)'
_computing_structure_solution    'SHELXS97 (Sheldrick, 2008)'
_diffrn_ambient_temperature      173(2)
_diffrn_detector_area_resol_mean 836.6
_diffrn_measured_fraction_theta_full 0.963
_diffrn_measured_fraction_theta_max 0.963
_diffrn_measurement_device_type  'Bruker APEXII CCD area-detector'
_diffrn_measurement_method       '\w and/f 0.5\%'
_diffrn_radiation_monochromator  graphite
_diffrn_radiation_type           CuK\a
_diffrn_radiation_wavelength     1.54178
_diffrn_reflns_av_R_equivalents  0.0363
_diffrn_reflns_av_sigmaI/netI    0.0356
_diffrn_reflns_limit_h_max       7
_diffrn_reflns_limit_h_min       -5
_diffrn_reflns_limit_k_max       9
_diffrn_reflns_limit_k_min       -9
_diffrn_reflns_limit_l_max       17
_diffrn_reflns_limit_l_min       -16
_diffrn_reflns_number            8960
_diffrn_reflns_theta_full        72.22
_diffrn_reflns_theta_max         72.22
_diffrn_reflns_theta_min         3.22
_exptl_absorpt_coefficient_mu    3.733
_exptl_absorpt_correction_T_max  0.8530
_exptl_absorpt_correction_T_min  0.3483
_exptl_absorpt_correction_type   multi-scan
_exptl_absorpt_process_details   '(SADABS; Sheldrick, 1996)'
_exptl_crystal_colour            colourless
_exptl_crystal_density_diffrn    1.450
_exptl_crystal_density_method    'not measured'
_exptl_crystal_description       plate
_exptl_crystal_F_000             276
_exptl_crystal_size_max          0.36
_exptl_crystal_size_mid          0.32
_exptl_crystal_size_min          0.04
_refine_diff_density_max         0.293
_refine_diff_density_min         -0.226
_refine_ls_extinction_method     none
_refine_ls_goodness_of_fit_ref   0.927
_refine_ls_hydrogen_treatment    constr
_refine_ls_matrix_type           full
_refine_ls_number_parameters     177
_refine_ls_number_reflns         2313
_refine_ls_number_restraints     0
_refine_ls_restrained_S_all      0.927
_refine_ls_R_factor_all          0.0390
_refine_ls_R_factor_gt           0.0356
_refine_ls_shift/su_max          0.000
_refine_ls_shift/su_mean         0.000
_refine_ls_structure_factor_coef Fsqd
_refine_ls_weighting_details
'calc w = 1/[\s^2^(Fo^2^)+(0.0700P)^2^+0.3344P] where P=(Fo^2^+2Fc^2^)/3'
_refine_ls_weighting_scheme      calc
_refine_ls_wR_factor_gt          0.1043
_refine_ls_wR_factor_ref         0.1118
_reflns_number_gt                2129
_reflns_number_total             2313
_reflns_threshold_expression     I>2\s(I)
_iucr_refine_instructions_details
;
TITL I in P-1
CELL 1.54178 5.8415 7.6197 14.2782 76.286 81.118 88.699
ZERR 2.00 0.0001 0.0001 0.0002 0.001 0.001 0.001
LATT 1
SFAC C  H   S
UNIT 32 20  4
L.S. 12
ACTA
BOND $H
FMAP 2
PLAN 5
SIZE 0.044 0.323 0.358
HTAB
eadp c7b c7bb
eadp s1b s1bb
eadp c7a c7ab
eadp s1a s1ab
CONF
TEMP -100.150
WGHT    0.070000    0.334400
FVAR       0.31205   0.61310   0.72340
PART   1
S1A   3   -0.214348    0.369007    0.637737    21.00000    0.01928    0.02740 =
         0.03037   -0.00385   -0.00134   -0.00376
C7A   1    0.179024    0.535999    0.594022    21.00000    0.01737    0.02457 =
         0.03991   -0.00562   -0.00003   -0.00063
AFIX  43
H7AB  2    0.313407    0.599756    0.556594    21.00000   -1.20000
AFIX   0
PART   2
S1AB  3    0.258508    0.570725    0.580091   -21.00000    0.01928    0.02740 =
         0.03037   -0.00385   -0.00134   -0.00376
C7AB  1   -0.132116    0.402283    0.630567   -21.00000    0.01737    0.02457 =
         0.03991   -0.00562   -0.00003   -0.00063
AFIX  43
H7AA  2   -0.271735    0.346602    0.625083   -21.00000   -1.20000
AFIX   0
PART   0
C1A   1   -0.068581    0.398192    0.728418    11.00000    0.02649    0.02319 =
         0.04033   -0.00837   -0.00768    0.00483
C2A   1   -0.158172    0.336406    0.827157    11.00000    0.02655    0.02904 =
         0.04499   -0.00327    0.00298    0.00080
AFIX  43
H2AA  2   -0.303712    0.274969    0.846518    11.00000   -1.20000
AFIX   0
C3A   1   -0.031926    0.366079    0.895923    11.00000    0.04383    0.03505 =
         0.03270   -0.00460    0.00187    0.00822
AFIX  43
H3AA  2   -0.092124    0.325882    0.963251    11.00000   -1.20000
AFIX   0
C4A   1    0.182983    0.454275    0.868147    11.00000    0.04319    0.03447 =
         0.04017   -0.01440   -0.01498    0.00845
AFIX  43
H4AA  2    0.268080    0.472210    0.916774    11.00000   -1.20000
AFIX   0
C5A   1    0.273378    0.515666    0.771187    11.00000    0.02637    0.02645 =
         0.04897   -0.00940   -0.00538    0.00060
AFIX  43
H5AA  2    0.420075    0.575478    0.752798    11.00000   -1.20000
AFIX   0
C6A   1    0.147166    0.489115    0.700078    11.00000    0.02705    0.02049 =
         0.03545   -0.00433    0.00034    0.00487
C8A   1    0.010592    0.485457    0.551087    11.00000    0.01859    0.01738 =
         0.03387   -0.00475   -0.00116    0.00197
PART   1
S1B   3    0.246753    0.116765    0.405288    31.00000    0.02147    0.02825 =
         0.03246   -0.00775   -0.00493    0.00691
C7B   1    0.642292   -0.034777    0.376907    31.00000    0.02103    0.02540 =
         0.04025   -0.00965   -0.00762    0.00671
AFIX  43
H7BA  2    0.783016   -0.094901    0.388595    31.00000   -1.20000
AFIX   0
PART   2
S1BB  3    0.717585   -0.059482    0.373451   -31.00000    0.02147    0.02825 =
         0.03246   -0.00775   -0.00493    0.00691
C7BB  1    0.321684    0.084633    0.399697   -31.00000    0.02103    0.02540 =
         0.04025   -0.00965   -0.00762    0.00671
AFIX  43
H7BB  2    0.184420    0.126882    0.431893   -31.00000   -1.20000
AFIX   0
PART   0
C1B   1    0.355613    0.097697    0.290210    11.00000    0.02459    0.02096 =
         0.03738   -0.00751   -0.00337   -0.00133
C2B   1    0.246738    0.164095    0.209046    11.00000    0.03272    0.02721 =
         0.05440   -0.00720   -0.01809    0.00446
AFIX  43
H2BA  2    0.099904    0.219882    0.215501    11.00000   -1.20000
AFIX   0
C3B   1    0.356859    0.147037    0.119126    11.00000    0.06217    0.03365 =
         0.04050   -0.00002   -0.02529   -0.00738
AFIX  43
H3BA  2    0.285270    0.192580    0.063002    11.00000   -1.20000
AFIX   0
C4B   1    0.571193    0.064215    0.109128    11.00000    0.05416    0.04480 =
         0.03188   -0.01251    0.00181   -0.01692
AFIX  43
H4BA  2    0.643712    0.054224    0.046344    11.00000   -1.20000
AFIX   0
C5B   1    0.679439   -0.003374    0.188943    11.00000    0.03049    0.03459 =
         0.04532   -0.01756    0.00173   -0.00349
AFIX  43
H5BA  2    0.824758   -0.061137    0.181708    11.00000   -1.20000
AFIX   0
C6B   1    0.572935    0.014068    0.280602    11.00000    0.02463    0.02109 =
         0.03752   -0.00659   -0.00629   -0.00163
C8B   1    0.490737    0.012034    0.448879    11.00000    0.02023    0.02018 =
         0.03307   -0.00651   -0.00461    0.00040
HKLF 4 1 1 0 0 0 1 0 0 0 1
REM  I in P-1
REM R1 =  0.0356 for   2129 Fo > 4sig(Fo)  and  0.0390 for all   2313 data
REM    177 parameters refined using      0 restraints
END
WGHT      0.0512      0.2098
REM Highest difference peak  0.293,  deepest hole -0.226,  1-sigma level  0.048
Q1    1   0.2918  0.1152  0.3409  11.00000  0.05    0.29
Q2    1   0.0000  0.5000  0.5000  10.50000  0.05    0.23
Q3    1  -0.0860  0.3228  0.7723  11.00000  0.05    0.22
Q4    1   0.1946  0.5188  0.8233  11.00000  0.05    0.21
Q5    1  -0.1440  0.3811  0.6863  11.00000  0.05    0.21
;
_cod_data_source_file            uk3096sup1.cf
_cod_data_source_block           I
_cod_depositor_comments          'Adding full bibliography for 2019537.cif.'
_cod_database_code               2019537
_cod_database_fobs_code          2019537
loop_
_symmetry_equiv_pos_as_xyz
'x, y, z'
'-x, -y, -z'
loop_
_atom_site_type_symbol
_atom_site_label
_atom_site_fract_x
_atom_site_fract_y
_atom_site_fract_z
_atom_site_U_iso_or_equiv
_atom_site_adp_type
_atom_site_calc_flag
_atom_site_refinement_flags
_atom_site_occupancy
_atom_site_symmetry_multiplicity
_atom_site_disorder_assembly
_atom_site_disorder_group
S S1A -0.21435(15) 0.36901(11) 0.63774(6) 0.0264(2) Uani d P 0.6131(12) 1 A 1
C C7A 0.1790(7) 0.5360(5) 0.5940(3) 0.0281(8) Uani d P 0.6131(12) 1 A 1
H H7AB 0.3134 0.5998 0.5566 0.034 Uiso calc PR 0.6131(12) 1 A 1
S S1AB 0.2585(3) 0.5707(2) 0.58009(12) 0.0264(2) Uani d P 0.3869(12) 1 A 2
C C7AB -0.1321(10) 0.4023(8) 0.6306(5) 0.0281(8) Uani d P 0.3869(12) 1 A 2
H H7AA -0.2717 0.3466 0.6251 0.034 Uiso calc PR 0.3869(12) 1 A 2
C C1A -0.0686(3) 0.3982(2) 0.72842(13) 0.0297(4) Uani d . 1 1 . .
C C2A -0.1582(3) 0.3364(2) 0.82716(14) 0.0354(4) Uani d . 1 1 A .
H H2AA -0.3037 0.2750 0.8465 0.042 Uiso calc R 1 1 . .
C C3A -0.0319(3) 0.3661(3) 0.89592(14) 0.0387(4) Uani d . 1 1 . .
H H3AA -0.0921 0.3259 0.9633 0.046 Uiso calc R 1 1 A .
C C4A 0.1830(3) 0.4543(2) 0.86815(14) 0.0375(4) Uani d . 1 1 A .
H H4AA 0.2681 0.4722 0.9168 0.045 Uiso calc R 1 1 . .
C C5A 0.2734(3) 0.5157(2) 0.77119(14) 0.0339(4) Uani d . 1 1 . .
H H5AA 0.4201 0.5755 0.7528 0.041 Uiso calc R 1 1 A .
C C6A 0.1472(3) 0.4891(2) 0.70008(13) 0.0287(4) Uani d . 1 1 A .
C C8A 0.0106(3) 0.4855(2) 0.55109(12) 0.0238(3) Uani d . 1 1 . .
S S1B 0.24675(11) 0.11677(9) 0.40529(5) 0.0273(2) Uani d P 0.7234(16) 1 B 1
C C7B 0.6423(7) -0.0348(4) 0.3769(2) 0.0284(7) Uani d P 0.7234(16) 1 B 1
H H7BA 0.7830 -0.0949 0.3886 0.034 Uiso calc PR 0.7234(16) 1 B 1
S S1BB 0.7176(4) -0.0595(3) 0.37345(17) 0.0273(2) Uani d P 0.2766(16) 1 B 2
C C7BB 0.3217(14) 0.0846(11) 0.3997(7) 0.0284(7) Uani d P 0.2766(16) 1 B 2
H H7BB 0.1844 0.1269 0.4319 0.034 Uiso calc PR 0.2766(16) 1 B 2
C C1B 0.3556(3) 0.0977(2) 0.29021(13) 0.0277(4) Uani d . 1 1 . .
C C2B 0.2467(3) 0.1641(2) 0.20905(15) 0.0374(4) Uani d . 1 1 B .
H H2BA 0.0999 0.2199 0.2155 0.045 Uiso calc R 1 1 . .
C C3B 0.3569(4) 0.1470(3) 0.11913(15) 0.0449(5) Uani d . 1 1 . .
H H3BA 0.2853 0.1926 0.0630 0.054 Uiso calc R 1 1 B .
C C4B 0.5712(4) 0.0642(3) 0.10913(14) 0.0437(5) Uani d . 1 1 B .
H H4BA 0.6437 0.0542 0.0463 0.052 Uiso calc R 1 1 . .
C C5B 0.6794(3) -0.0034(2) 0.18894(14) 0.0362(4) Uani d . 1 1 . .
H H5BA 0.8248 -0.0611 0.1817 0.043 Uiso calc R 1 1 B .
C C6B 0.5729(3) 0.0141(2) 0.28060(13) 0.0276(4) Uani d . 1 1 B .
C C8B 0.4907(3) 0.0120(2) 0.44888(12) 0.0244(3) Uani d . 1 1 . .
loop_
_atom_site_aniso_label
_atom_site_aniso_U_11
_atom_site_aniso_U_22
_atom_site_aniso_U_33
_atom_site_aniso_U_12
_atom_site_aniso_U_13
_atom_site_aniso_U_23
S1A 0.0193(4) 0.0274(4) 0.0304(4) -0.0038(3) -0.0013(3) -0.0039(3)
C7A 0.0174(16) 0.0246(16) 0.0399(17) -0.0006(13) 0.0000(15) -0.0056(12)
S1AB 0.0193(4) 0.0274(4) 0.0304(4) -0.0038(3) -0.0013(3) -0.0039(3)
C7AB 0.0174(16) 0.0246(16) 0.0399(17) -0.0006(13) 0.0000(15) -0.0056(12)
C1A 0.0265(8) 0.0232(8) 0.0403(10) 0.0048(7) -0.0077(7) -0.0084(7)
C2A 0.0266(8) 0.0290(9) 0.0450(10) 0.0008(7) 0.0030(7) -0.0033(8)
C3A 0.0438(10) 0.0350(9) 0.0327(9) 0.0082(8) 0.0019(8) -0.0046(8)
C4A 0.0432(10) 0.0345(9) 0.0402(10) 0.0085(8) -0.0150(8) -0.0144(8)
C5A 0.0264(8) 0.0264(8) 0.0490(11) 0.0006(7) -0.0054(7) -0.0094(8)
C6A 0.0271(8) 0.0205(7) 0.0354(9) 0.0049(6) 0.0003(7) -0.0043(7)
C8A 0.0186(7) 0.0174(7) 0.0339(9) 0.0020(6) -0.0012(6) -0.0047(6)
S1B 0.0215(4) 0.0283(4) 0.0325(3) 0.0069(2) -0.0049(3) -0.0078(2)
C7B 0.0210(14) 0.0254(14) 0.0402(15) 0.0067(12) -0.0076(13) -0.0096(10)
S1BB 0.0215(4) 0.0283(4) 0.0325(3) 0.0069(2) -0.0049(3) -0.0078(2)
C7BB 0.0210(14) 0.0254(14) 0.0402(15) 0.0067(12) -0.0076(13) -0.0096(10)
C1B 0.0246(8) 0.0210(7) 0.0374(9) -0.0013(6) -0.0034(7) -0.0075(6)
C2B 0.0327(9) 0.0272(9) 0.0544(12) 0.0045(7) -0.0181(8) -0.0072(8)
C3B 0.0622(13) 0.0337(10) 0.0405(11) -0.0074(9) -0.0253(10) 0.0000(8)
C4B 0.0542(12) 0.0448(11) 0.0319(9) -0.0169(10) 0.0018(8) -0.0125(8)
C5B 0.0305(9) 0.0346(9) 0.0453(11) -0.0035(7) 0.0017(7) -0.0176(8)
C6B 0.0246(8) 0.0211(7) 0.0375(9) -0.0016(6) -0.0063(7) -0.0066(7)
C8B 0.0202(7) 0.0202(7) 0.0331(9) 0.0004(6) -0.0046(6) -0.0065(6)
loop_
_atom_type_symbol
_atom_type_description
_atom_type_scat_dispersion_real
_atom_type_scat_dispersion_imag
_atom_type_scat_source
C C 0.0181 0.0091 'International Tables Vol C Tables 4.2.6.8 and 6.1.1.4'
H H 0.0000 0.0000 'International Tables Vol C Tables 4.2.6.8 and 6.1.1.4'
S S 0.3331 0.5567 'International Tables Vol C Tables 4.2.6.8 and 6.1.1.4'
loop_
_geom_angle_atom_site_label_1
_geom_angle_atom_site_label_2
_geom_angle_atom_site_label_3
_geom_angle_site_symmetry_1
_geom_angle_site_symmetry_3
_geom_angle
C1A S1A C8A . . 89.14(9)
C8A C7A C6A . . 117.3(3)
C8A C7A H7AB . . 121.3
C6A C7A H7AB . . 121.3
C6A S1AB C8A . . 87.65(10)
C8A C7AB C1A . . 118.8(5)
C8A C7AB H7AA . . 120.6
C1A C7AB H7AA . . 120.6
C2A C1A C6A . . 120.37(17)
C2A C1A C7AB . . 139.6(3)
C6A C1A C7AB . . 100.1(3)
C2A C1A S1A . . 122.15(14)
C6A C1A S1A . . 117.48(14)
C7AB C1A S1A . . 17.4(2)
C3A C2A C1A . . 118.86(17)
C3A C2A H2AA . . 120.6
C1A C2A H2AA . . 120.6
C2A C3A C4A . . 120.93(18)
C2A C3A H3AA . . 119.5
C4A C3A H3AA . . 119.5
C5A C4A C3A . . 120.82(18)
C5A C4A H4AA . . 119.6
C3A C4A H4AA . . 119.6
C4A C5A C6A . . 119.29(17)
C4A C5A H5AA . . 120.4
C6A C5A H5AA . . 120.4
C5A C6A C1A . . 119.72(17)
C5A C6A C7A . . 135.6(2)
C1A C6A C7A . . 104.7(2)
C5A C6A S1AB . . 118.74(14)
C1A C6A S1AB . . 121.54(15)
C7A C6A S1AB . . 16.86(16)
C7AB C8A C7A . . 99.2(3)
C7AB C8A C8A . 2_566 130.4(3)
C7A C8A C8A . 2_566 130.4(2)
C7AB C8A S1AB . . 111.9(3)
C7A C8A S1AB . . 12.79(19)
C8A C8A S1AB 2_566 . 117.62(16)
C7AB C8A S1A . . 12.2(3)
C7A C8A S1A . . 111.4(2)
C8A C8A S1A 2_566 . 118.19(16)
S1AB C8A S1A . . 124.18(11)
C1B S1B C8B . . 90.53(8)
C8B C7B C6B . . 115.0(3)
C8B C7B H7BA . . 122.5
C6B C7B H7BA . . 122.5
C6B S1BB C8B . . 88.56(13)
C8B C7BB C1B . . 117.9(6)
C8B C7BB H7BB . . 121.0
C1B C7BB H7BB . . 121.0
C2B C1B C6B . . 120.70(17)
C2B C1B C7BB . . 140.6(3)
C6B C1B C7BB . . 98.7(3)
C2B C1B S1B . . 123.93(14)
C6B C1B S1B . . 115.33(14)
C7BB C1B S1B . . 16.7(3)
C3B C2B C1B . . 118.48(18)
C3B C2B H2BA . . 120.8
C1B C2B H2BA . . 120.8
C2B C3B C4B . . 121.13(18)
C2B C3B H3BA . . 119.4
C4B C3B H3BA . . 119.4
C5B C4B C3B . . 120.90(19)
C5B C4B H4BA . . 119.6
C3B C4B H4BA . . 119.6
C4B C5B C6B . . 119.10(18)
C4B C5B H5BA . . 120.5
C6B C5B H5BA . . 120.4
C5B C6B C1B . . 119.68(17)
C5B C6B C7B . . 132.9(2)
C1B C6B C7B . . 107.4(2)
C5B C6B S1BB . . 117.14(16)
C1B C6B S1BB . . 123.13(16)
C7B C6B S1BB . . 15.81(15)
C7BB C8B C7B . . 101.0(4)
C7BB C8B C8B . 2_656 129.9(4)
C7B C8B C8B . 2_656 129.1(2)
C7BB C8B S1BB . . 111.6(4)
C7B C8B S1BB . . 10.69(17)
C8B C8B S1BB 2_656 . 118.41(17)
C7BB C8B S1B . . 10.9(4)
C7B C8B S1B . . 111.80(18)
C8B C8B S1B 2_656 . 119.13(16)
S1BB C8B S1B . . 122.44(12)
loop_
_geom_bond_atom_site_label_1
_geom_bond_atom_site_label_2
_geom_bond_site_symmetry_2
_geom_bond_distance
S1A C1A . 1.7136(19)
S1A C8A . 1.7536(18)
C7A C8A . 1.344(4)
C7A C6A . 1.454(4)
C7A H7AB . 0.9500
S1AB C6A . 1.707(2)
S1AB C8A . 1.745(2)
C7AB C8A . 1.332(6)
C7AB C1A . 1.493(7)
C7AB H7AA . 0.9500
C1A C2A . 1.397(3)
C1A C6A . 1.408(2)
C2A C3A . 1.377(3)
C2A H2AA . 0.9500
C3A C4A . 1.394(3)
C3A H3AA . 0.9500
C4A C5A . 1.376(3)
C4A H4AA . 0.9500
C5A C6A . 1.397(3)
C5A H5AA . 0.9500
C8A C8A 2_566 1.447(3)
S1B C1B . 1.7064(18)
S1B C8B . 1.7442(17)
C7B C8B . 1.359(4)
C7B C6B . 1.455(4)
C7B H7BA . 0.9500
S1BB C6B . 1.661(3)
S1BB C8B . 1.737(3)
C7BB C8B . 1.334(9)
C7BB C1B . 1.525(9)
C7BB H7BB . 0.9500
C1B C2B . 1.392(3)
C1B C6B . 1.410(2)
C2B C3B . 1.378(3)
C2B H2BA . 0.9500
C3B C4B . 1.392(3)
C3B H3BA . 0.9500
C4B C5B . 1.376(3)
C4B H4BA . 0.9500
C5B C6B . 1.395(3)
C5B H5BA . 0.9500
C8B C8B 2_656 1.448(3)
loop_
_geom_torsion_atom_site_label_1
_geom_torsion_atom_site_label_2
_geom_torsion_atom_site_label_3
_geom_torsion_atom_site_label_4
_geom_torsion_site_symmetry_4
_geom_torsion
C8A C7AB C1A C2A . 177.7(2)
C8A C7AB C1A C6A . -1.8(5)
C8A C7AB C1A S1A . 178.0(12)
C8A S1A C1A C2A . 178.43(15)
C8A S1A C1A C6A . -1.08(14)
C8A S1A C1A C7AB . -1.3(8)
C6A C1A C2A C3A . 0.0(3)
C7AB C1A C2A C3A . -179.4(4)
S1A C1A C2A C3A . -179.48(14)
C1A C2A C3A C4A . -0.7(3)
C2A C3A C4A C5A . 0.7(3)
C3A C4A C5A C6A . 0.1(3)
C4A C5A C6A C1A . -0.8(3)
C4A C5A C6A C7A . 178.2(2)
C4A C5A C6A S1AB . 178.48(14)
C2A C1A C6A C5A . 0.8(2)
C7AB C1A C6A C5A . -179.6(3)
S1A C1A C6A C5A . -179.72(13)
C2A C1A C6A C7A . -178.54(19)
C7AB C1A C6A C7A . 1.1(3)
S1A C1A C6A C7A . 1.0(2)
C2A C1A C6A S1AB . -178.52(14)
C7AB C1A C6A S1AB . 1.1(3)
S1A C1A C6A S1AB . 1.0(2)
C8A C7A C6A C5A . -179.4(2)
C8A C7A C6A C1A . -0.3(3)
C8A C7A C6A S1AB . 179.8(8)
C8A S1AB C6A C5A . -179.53(14)
C8A S1AB C6A C1A . -0.24(16)
C8A S1AB C6A C7A . -0.2(6)
C1A C7AB C8A C7A . 1.6(4)
C1A C7AB C8A C8A 2_566 -177.8(3)
C1A C7AB C8A S1AB . 1.8(5)
C1A C7AB C8A S1A . -177.2(16)
C6A C7A C8A C7AB . -0.7(3)
C6A C7A C8A C8A 2_566 178.7(2)
C6A C7A C8A S1AB . -179.7(10)
C6A C7A C8A S1A . -0.4(3)
C6A S1AB C8A C7AB . -0.9(3)
C6A S1AB C8A C7A . 0.2(8)
C6A S1AB C8A C8A 2_566 178.82(17)
C6A S1AB C8A S1A . -0.61(13)
C1A S1A C8A C7AB . 2.1(12)
C1A S1A C8A C7A . 0.8(2)
C1A S1A C8A C8A 2_566 -178.41(17)
C1A S1A C8A S1AB . 1.02(12)
C8B C7BB C1B C2B . -176.4(3)
C8B C7BB C1B C6B . 2.0(6)
C8B C7BB C1B S1B . -174.9(17)
C8B S1B C1B C2B . -177.67(16)
C8B S1B C1B C6B . 0.09(13)
C8B S1B C1B C7BB . 3.4(11)
C6B C1B C2B C3B . -0.3(3)
C7BB C1B C2B C3B . 177.8(5)
S1B C1B C2B C3B . 177.30(13)
C1B C2B C3B C4B . 0.5(3)
C2B C3B C4B C5B . 0.1(3)
C3B C4B C5B C6B . -0.8(3)
C4B C5B C6B C1B . 1.0(3)
C4B C5B C6B C7B . -177.3(2)
C4B C5B C6B S1BB . -176.67(16)
C2B C1B C6B C5B . -0.4(3)
C7BB C1B C6B C5B . -179.2(3)
S1B C1B C6B C5B . -178.24(12)
C2B C1B C6B C7B . 178.28(18)
C7BB C1B C6B C7B . -0.5(4)
S1B C1B C6B C7B . 0.4(2)
C2B C1B C6B S1BB . 177.11(16)
C7BB C1B C6B S1BB . -1.7(3)
S1B C1B C6B S1BB . -0.7(2)
C8B C7B C6B C5B . 177.48(18)
C8B C7B C6B C1B . -1.0(3)
C8B C7B C6B S1BB . 175.4(8)
C8B S1BB C6B C5B . 178.44(14)
C8B S1BB C6B C1B . 0.88(19)
C8B S1BB C6B C7B . -3.2(6)
C1B C7BB C8B C7B . -2.5(6)
C1B C7BB C8B C8B 2_656 177.8(3)
C1B C7BB C8B S1BB . -1.7(7)
C1B C7BB C8B S1B . 172(3)
C6B C7B C8B C7BB . 2.1(4)
C6B C7B C8B C8B 2_656 -178.2(2)
C6B C7B C8B S1BB . -173.6(11)
C6B C7B C8B S1B . 1.1(3)
C6B S1BB C8B C7BB . 0.5(4)
C6B S1BB C8B C7B . 5.1(9)
C6B S1BB C8B C8B 2_656 -179.00(18)
C6B S1BB C8B S1B . -0.81(16)
C1B S1B C8B C7BB . -6(2)
C1B S1B C8B C7B . -0.65(18)
C1B S1B C8B C8B 2_656 178.71(17)
C1B S1B C8B S1BB . 0.53(13)
loop_
_refln_index_h
_refln_index_k
_refln_index_l
_refln_observed_status
_refln_F_squared_meas
_refln_F_squared_calc
1 0 0 o -0.15 0.03
2 0 0 o 2512.55 2668.34
3 0 0 o 2.67 1.35
4 0 0 o 427.03 449.68
5 0 0 o 37.17 32.92
6 0 0 o 18.67 19.55
7 0 0 o 1.82 0.34
-7 1 0 o 52.58 55.40
-6 1 0 o 37.00 33.98
-5 1 0 o 85.89 84.87
-4 1 0 o 9.19 9.79
-3 1 0 o 49.50 46.98
-2 1 0 o 336.43 344.64
-1 1 0 o 6141.13 5955.45
0 1 0 o -0.22 0.03
1 1 0 o 8366.44 8308.98
2 1 0 o 693.58 631.74
3 1 0 o 759.34 713.84
4 1 0 o 108.81 106.48
5 1 0 o 70.67 72.99
6 1 0 o 0.59 0.39
7 1 0 o 2.89 1.13
-6 2 0 o 96.09 94.64
-5 2 0 o 127.72 123.64
-4 2 0 o 118.11 114.38
-3 2 0 o 410.03 425.94
-2 2 0 o 4.72 0.75
-1 2 0 o 4180.08 4163.39
0 2 0 o 7196.44 7210.09
1 2 0 o 8610.98 8594.54
2 2 0 o 121.11 126.27
3 2 0 o 628.86 683.04
4 2 0 o 2.52 4.50
5 2 0 o 159.59 182.87
6 2 0 o 23.18 20.89
-6 3 0 o 4.36 6.20
-5 3 0 o 38.90 43.31
-4 3 0 o 4.86 2.73
-3 3 0 o 188.08 184.06
-2 3 0 o 49.96 45.27
-1 3 0 o 0.00 44.07
0 3 0 o 0.31 0.74
1 3 0 o 315.39 323.50
2 3 0 o 846.49 813.62
3 3 0 o 7.87 3.07
4 3 0 o 124.06 118.16
5 3 0 o 36.26 40.16
6 3 0 o 16.66 16.50
-6 4 0 o 72.36 81.93
-5 4 0 o 6.14 4.71
-4 4 0 o 7.01 5.78
-3 4 0 o 64.35 62.58
-2 4 0 o 168.43 164.07
-1 4 0 o 31.77 24.32
0 4 0 o 149.09 172.96
1 4 0 o 268.06 271.15
2 4 0 o 599.24 618.17
3 4 0 o 88.77 97.91
4 4 0 o 294.96 306.16
5 4 0 o 82.64 87.36
6 4 0 o 154.68 132.69
-5 5 0 o 90.52 93.80
-4 5 0 o 5.66 4.46
-3 5 0 o 0.31 0.45
-2 5 0 o 439.30 421.67
-1 5 0 o 19.61 15.08
0 5 0 o 1.87 2.26
1 5 0 o 21.21 21.85
2 5 0 o 9.83 9.47
3 5 0 o 31.97 30.51
4 5 0 o 3.68 3.47
5 5 0 o 16.71 16.64
-5 6 0 o 11.70 11.33
-4 6 0 o 41.43 40.08
-3 6 0 o 9.34 5.86
-2 6 0 o 4.86 4.83
-1 6 0 o 188.26 181.12
0 6 0 o 81.84 74.79
1 6 0 o 214.23 208.74
2 6 0 o 80.99 83.91
3 6 0 o 26.00 22.79
4 6 0 o 39.86 39.77
5 6 0 o 51.35 52.54
-4 7 0 o 17.88 14.83
-3 7 0 o 14.19 13.20
-2 7 0 o 18.28 15.97
-1 7 0 o 104.46 104.72
0 7 0 o 4.49 4.20
1 7 0 o 55.55 59.96
2 7 0 o 29.45 27.23
3 7 0 o 2.57 1.58
4 7 0 o 0.11 0.91
-3 8 0 o 17.53 15.29
-2 8 0 o 2.44 0.72
-1 8 0 o 5.34 4.69
0 8 0 o 173.36 165.40
1 8 0 o 5.56 3.96
2 8 0 o 1.94 0.12
3 8 0 o 3.68 4.28
0 9 0 o 2.36 1.37
0 -9 1 o 17.97 21.02
-3 -8 1 o 12.40 11.66
-2 -8 1 o 4.57 2.26
-1 -8 1 o 8.40 5.58
0 -8 1 o 35.51 31.36
1 -8 1 o 6.00 5.14
2 -8 1 o 0.52 0.68
3 -8 1 o 21.41 24.25
-4 -7 1 o 8.36 7.25
-3 -7 1 o 25.49 24.79
-2 -7 1 o 2.68 1.66
-1 -7 1 o 0.63 0.06
0 -7 1 o 2.01 1.82
1 -7 1 o 79.28 70.67
2 -7 1 o 3.97 2.68
3 -7 1 o 13.33 7.59
4 -7 1 o 22.20 21.12
-4 -6 1 o 47.95 47.10
-3 -6 1 o 5.34 3.47
-2 -6 1 o 2.23 1.15
-1 -6 1 o 48.08 42.28
0 -6 1 o 135.31 131.09
1 -6 1 o 13.35 11.42
2 -6 1 o 1.65 1.46
3 -6 1 o 1.00 0.37
4 -6 1 o 27.93 24.54
5 -6 1 o 0.51 0.13
-5 -5 1 o 34.13 36.49
-4 -5 1 o 2.19 2.71
-3 -5 1 o 27.77 29.05
-2 -5 1 o 43.27 40.02
-1 -5 1 o 63.51 59.99
0 -5 1 o 24.30 21.84
1 -5 1 o 89.96 91.64
2 -5 1 o 40.71 33.64
3 -5 1 o 3.98 2.97
4 -5 1 o 9.84 8.17
5 -5 1 o 44.21 39.92
-6 -4 1 o 173.72 165.74
-5 -4 1 o 6.57 6.48
-4 -4 1 o 4.88 3.60
-3 -4 1 o 19.72 19.57
-2 -4 1 o 245.52 241.40
-1 -4 1 o 353.59 337.32
0 -4 1 o 11.22 10.77
1 -4 1 o 275.06 261.48
2 -4 1 o 57.86 54.82
3 -4 1 o 24.05 24.53
4 -4 1 o 4.53 3.00
5 -4 1 o 24.61 20.13
6 -4 1 o 14.41 12.05
-6 -3 1 o 4.61 5.75
-5 -3 1 o 3.54 3.74
-4 -3 1 o 1.85 1.33
-3 -3 1 o 122.10 124.10
-2 -3 1 o 275.89 249.59
-1 -3 1 o 1.75 0.92
0 -3 1 o 10.58 9.46
1 -3 1 o 10.37 31.72
2 -3 1 o 436.94 388.24
3 -3 1 o 137.16 122.12
4 -3 1 o 35.36 31.92
5 -3 1 o 4.23 4.83
6 -3 1 o 16.01 12.80
-6 -2 1 o 0.62 0.60
-5 -2 1 o 310.45 327.47
-4 -2 1 o 52.98 58.46
-3 -2 1 o 449.65 470.78
-2 -2 1 o 100.78 81.86
-1 -2 1 o 25.78 18.99
0 -2 1 o 939.67 899.01
1 -2 1 o 446.83 409.12
2 -2 1 o 333.76 300.01
3 -2 1 o 105.23 97.33
4 -2 1 o 10.20 5.48
5 -2 1 o 1.61 0.59
6 -2 1 o 104.25 108.78
7 -2 1 o 1.44 0.40
-6 -1 1 o 47.40 49.84
-5 -1 1 o 34.68 30.82
-4 -1 1 o 12.22 12.02
-3 -1 1 o 6.37 6.36
-2 -1 1 o 6.60 4.99
-1 -1 1 o 3.20 2.94
0 -1 1 o 1.10 0.21
1 -1 1 o 645.86 617.90
2 -1 1 o 127.24 111.83
3 -1 1 o 782.21 703.53
4 -1 1 o 11.42 11.80
5 -1 1 o 7.95 7.81
6 -1 1 o 1.22 0.09
7 -1 1 o 59.42 61.73
-7 0 1 o 0.00 0.08
-6 0 1 o 258.53 266.67
-5 0 1 o 10.41 10.16
-4 0 1 o 374.78 400.35
-3 0 1 o 2.05 0.28
-2 0 1 o 1451.84 1551.52
-1 0 1 o 26.04 19.79
0 0 1 o 1600.73 1907.44
1 0 1 o 46.40 37.83
2 0 1 o 6.78 8.58
3 0 1 o 103.21 102.55
4 0 1 o 586.22 548.80
5 0 1 o 28.13 24.91
6 0 1 o 40.89 42.08
7 0 1 o 24.98 27.84
-7 1 1 o 1.13 2.42
-6 1 1 o 27.33 27.85
-5 1 1 o 35.94 36.36
-4 1 1 o 107.89 99.91
-3 1 1 o 699.57 634.67
-2 1 1 o 225.43 215.85
-1 1 1 o 2752.23 2676.21
0 1 1 o -0.05 0.21
1 1 1 o 680.37 678.09
2 1 1 o 5.67 4.79
3 1 1 o 200.87 172.50
4 1 1 o 6.39 5.35
5 1 1 o 146.28 160.32
6 1 1 o 12.10 12.33
7 1 1 o 20.33 22.14
-6 2 1 o 5.37 6.02
-5 2 1 o 267.07 274.68
-4 2 1 o 1.51 3.12
-3 2 1 o 720.79 772.36
-2 2 1 o 160.93 163.93
-1 2 1 o 9775.67 9688.38
0 2 1 o 10269.63 10247.96
1 2 1 o 5100.00 5017.14
2 2 1 o 9.35 10.38
3 2 1 o 472.40 488.02
4 2 1 o 376.18 375.82
5 2 1 o 27.37 26.90
6 2 1 o 10.39 7.76
7 2 1 o -0.31 0.08
-6 3 1 o 24.86 25.55
-5 3 1 o 9.11 10.91
-4 3 1 o 127.59 125.22
-3 3 1 o 2.27 1.67
-2 3 1 o 2214.70 2133.51
0 3 1 o 8.22 5.71
1 3 1 o 1718.38 1634.84
2 3 1 o 1097.55 1034.24
3 3 1 o 34.98 34.54
4 3 1 o 118.70 124.06
5 3 1 o 49.47 50.77
6 3 1 o 3.35 1.87
-6 4 1 o 173.23 171.85
-5 4 1 o 52.05 48.30
-4 4 1 o 154.94 158.35
-3 4 1 o 66.97 76.47
-2 4 1 o 1489.24 1475.01
-1 4 1 o 4356.72 4267.61
0 4 1 o 65.21 87.09
1 4 1 o 4452.58 4383.37
2 4 1 o 1661.84 1741.10
3 4 1 o 127.80 134.25
4 4 1 o 92.31 94.21
5 4 1 o 30.33 27.15
6 4 1 o 56.67 58.30
-5 5 1 o 9.86 11.13
-4 5 1 o 2.13 2.41
-3 5 1 o 128.18 120.74
-2 5 1 o 246.83 222.10
-1 5 1 o 43.29 37.36
0 5 1 o 0.04 0.12
1 5 1 o 39.71 37.35
2 5 1 o 944.82 902.13
3 5 1 o 302.98 312.17
4 5 1 o 4.64 4.26
5 5 1 o 37.00 37.72
-5 6 1 o 25.96 22.26
-4 6 1 o 1.91 2.09
-3 6 1 o 27.79 24.20
-2 6 1 o 366.94 363.23
-1 6 1 o 16.96 16.55
0 6 1 o 474.20 482.98
1 6 1 o 8.66 5.40
2 6 1 o 985.11 1003.95
3 6 1 o 396.56 404.24
4 6 1 o 147.52 143.22
5 6 1 o 70.93 72.95
-4 7 1 o 11.50 13.75
-3 7 1 o 2.83 3.33
-2 7 1 o 26.60 32.30
-1 7 1 o 20.37 20.81
0 7 1 o -0.33 0.02
1 7 1 o 0.72 0.02
2 7 1 o 37.07 37.29
3 7 1 o 78.10 82.40
4 7 1 o 62.44 64.86
-3 8 1 o 23.33 26.67
-2 8 1 o 2.79 2.17
-1 8 1 o 62.92 55.60
0 8 1 o 64.58 61.13
1 8 1 o 93.38 93.61
2 8 1 o 1.88 1.68
3 8 1 o 211.75 235.34
-1 9 1 o 56.08 56.08
0 9 1 o 0.08 0.05
1 9 1 o 16.76 19.20
-2 -8 2 o 0.37 0.05
-1 -8 2 o 74.98 69.40
0 -8 2 o 14.08 12.34
1 -8 2 o 142.99 133.40
2 -8 2 o 3.83 3.73
3 -8 2 o 21.97 20.37
-4 -7 2 o 0.39 0.10
-3 -7 2 o 0.51 0.61
-2 -7 2 o 50.43 48.83
-1 -7 2 o 3.13 3.55
0 -7 2 o 46.67 44.78
1 -7 2 o 81.26 75.43
2 -7 2 o 89.95 95.12
3 -7 2 o 92.19 86.73
4 -7 2 o 70.99 65.30
-4 -6 2 o 18.22 16.13
-3 -6 2 o 3.30 2.48
-2 -6 2 o 47.66 42.46
-1 -6 2 o 11.89 12.17
0 -6 2 o 156.04 151.40
1 -6 2 o 2.56 1.99
2 -6 2 o 80.92 88.56
3 -6 2 o 20.03 19.58
4 -6 2 o 39.54 48.99
5 -6 2 o 22.12 22.31
-5 -5 2 o 10.53 8.67
-4 -5 2 o 13.60 12.57
-3 -5 2 o 11.47 10.29
-2 -5 2 o 1.03 0.27
-1 -5 2 o 14.98 16.82
0 -5 2 o 29.31 28.23
1 -5 2 o 127.90 126.75
2 -5 2 o 89.77 90.79
3 -5 2 o 126.61 130.09
4 -5 2 o 18.29 17.77
5 -5 2 o 171.32 164.48
-6 -4 2 o 53.76 58.06
-5 -4 2 o 35.76 32.21
-4 -4 2 o 1.32 1.58
-3 -4 2 o 29.49 23.88
-2 -4 2 o 29.45 26.93
-1 -4 2 o 98.81 98.34
0 -4 2 o 7.75 7.33
1 -4 2 o 111.17 123.17
2 -4 2 o 0.95 0.56
3 -4 2 o 8.57 8.61
4 -4 2 o 43.22 41.23
5 -4 2 o 5.78 4.61
6 -4 2 o 12.12 12.79
-6 -3 2 o 0.52 0.31
-5 -3 2 o 44.42 52.24
-4 -3 2 o 4.32 6.15
-3 -3 2 o 27.02 26.91
-2 -3 2 o 1.38 0.20
-1 -3 2 o 143.10 139.94
0 -3 2 o 52.49 53.86
1 -3 2 o 27.03 27.15
2 -3 2 o 131.36 135.02
3 -3 2 o 10.64 10.26
4 -3 2 o 84.04 93.63
5 -3 2 o 8.06 6.62
6 -3 2 o 45.81 42.23
-6 -2 2 o 90.65 88.97
-5 -2 2 o 20.82 19.50
-4 -2 2 o 10.07 8.01
-3 -2 2 o 78.20 76.34
-2 -2 2 o 541.72 506.56
-1 -2 2 o 20.95 16.78
0 -2 2 o 4.01 0.45
1 -2 2 o 0.21 0.43
2 -2 2 o 317.34 295.68
3 -2 2 o 1.00 0.90
4 -2 2 o 6.81 4.80
5 -2 2 o 1.21 0.68
6 -2 2 o 38.70 35.54
7 -2 2 o 12.63 18.05
-6 -1 2 o 8.66 6.86
-5 -1 2 o 68.66 70.51
-4 -1 2 o 7.40 8.44
-3 -1 2 o 331.46 277.42
-2 -1 2 o 79.12 62.18
-1 -1 2 o 116.77 122.35
0 -1 2 o 1.37 0.27
1 -1 2 o 4.16 5.39
2 -1 2 o 18.07 17.82
3 -1 2 o 210.28 202.16
4 -1 2 o 2.50 2.63
5 -1 2 o 3.63 4.23
6 -1 2 o 11.85 10.41
7 -1 2 o 39.66 38.69
-6 0 2 o 21.89 23.11
-5 0 2 o 37.69 33.79
-4 0 2 o 599.04 592.99
-3 0 2 o 178.84 165.25
-2 0 2 o 171.15 137.75
-1 0 2 o 119.09 111.33
0 0 2 o 1199.21 1170.59
1 0 2 o 154.00 146.78
2 0 2 o 316.70 304.80
3 0 2 o 173.76 169.19
4 0 2 o 12.42 8.40
5 0 2 o 75.95 72.77
6 0 2 o 54.77 54.65
7 0 2 o 9.68 8.80
-6 1 2 o 1.30 1.24
-5 1 2 o 125.62 123.05
-4 1 2 o 1.77 1.94
-3 1 2 o 219.29 184.67
-2 1 2 o 8.90 7.07
-1 1 2 o 127.88 110.62
0 1 2 o 28.09 28.91
1 1 2 o 492.46 487.93
2 1 2 o 79.46 73.18
3 1 2 o 296.28 257.83
4 1 2 o 81.36 76.61
5 1 2 o 30.76 28.31
6 1 2 o 33.10 30.13
7 1 2 o 1.42 0.83
-6 2 2 o 31.66 30.38
-5 2 2 o 114.07 120.75
-4 2 2 o 286.11 268.97
-3 2 2 o 419.07 420.26
-2 2 2 o 26.39 28.61
-1 2 2 o 27.01 21.25
0 2 2 o 273.89 256.13
1 2 2 o 693.51 624.98
2 2 2 o 37.76 39.63
3 2 2 o 6.78 6.93
4 2 2 o 394.76 375.90
5 2 2 o 2.41 2.15
6 2 2 o 0.66 0.03
7 2 2 o 35.03 35.31
-6 3 2 o 15.66 16.35
-5 3 2 o 2.88 3.91
-4 3 2 o 173.04 170.77
-3 3 2 o 17.40 15.45
-2 3 2 o 32.20 30.71
-1 3 2 o 7.85 8.76
0 3 2 o 7.80 5.94
1 3 2 o 48.58 49.70
2 3 2 o 446.49 397.17
3 3 2 o 73.68 62.60
4 3 2 o 29.04 23.38
5 3 2 o 181.36 186.05
6 3 2 o 0.70 0.79
-6 4 2 o 97.82 96.85
-5 4 2 o 68.84 67.78
-4 4 2 o 218.79 250.86
-3 4 2 o 260.75 272.37
-2 4 2 o 817.79 829.77
-1 4 2 o 1068.02 1072.12
0 4 2 o 52.23 57.90
1 4 2 o 133.43 139.40
2 4 2 o 77.27 75.04
3 4 2 o 279.49 295.50
4 4 2 o 91.98 94.38
5 4 2 o 53.96 55.32
6 4 2 o 14.82 16.74
-5 5 2 o 102.54 101.98
-4 5 2 o 6.35 5.25
-3 5 2 o 277.22 273.59
-2 5 2 o 600.67 582.26
-1 5 2 o 37.59 37.68
0 5 2 o 3.34 2.14
1 5 2 o 45.32 41.02
2 5 2 o 1.08 0.04
3 5 2 o 67.01 68.92
4 5 2 o 17.81 18.07
5 5 2 o 60.16 65.60
-5 6 2 o 83.75 78.68
-4 6 2 o 156.39 166.76
-3 6 2 o 391.94 414.62
-2 6 2 o 1421.31 1491.75
-1 6 2 o 66.58 66.41
0 6 2 o 734.58 748.51
1 6 2 o 4.93 3.73
2 6 2 o 887.48 893.08
3 6 2 o 12.27 13.52
4 6 2 o 11.12 9.52
5 6 2 o 1.13 1.29
-4 7 2 o 62.44 63.41
-3 7 2 o 196.01 202.19
-2 7 2 o 126.36 132.94
-1 7 2 o 5.38 3.66
0 7 2 o 1.63 1.65
1 7 2 o 2.44 2.15
2 7 2 o 43.94 46.75
3 7 2 o 214.54 215.27
4 7 2 o 12.28 11.15
-3 8 2 o 355.14 347.02
-2 8 2 o 48.59 53.22
-1 8 2 o 195.81 181.87
0 8 2 o 94.47 95.99
1 8 2 o 221.82 212.14
2 8 2 o 78.61 78.81
3 8 2 o 448.18 456.99
-1 9 2 o 0.30 0.03
0 9 2 o 0.92 0.15
1 9 2 o 9.50 9.74
-2 -8 3 o 6.92 6.76
-1 -8 3 o 343.65 386.42
0 -8 3 o 38.73 33.12
1 -8 3 o 193.83 198.82
2 -8 3 o 0.05 0.02
-3 -7 3 o 13.43 14.95
-2 -7 3 o 1.83 1.80
-1 -7 3 o 11.40 10.37
0 -7 3 o 191.41 184.01
1 -7 3 o 20.47 19.69
2 -7 3 o 515.90 483.32
3 -7 3 o 31.31 30.10
4 -7 3 o 51.53 52.71
-4 -6 3 o 77.57 75.69
-3 -6 3 o 22.80 21.44
-2 -6 3 o 154.95 152.68
-1 -6 3 o 130.49 133.17
0 -6 3 o 469.58 460.89
1 -6 3 o 166.56 162.80
2 -6 3 o 237.02 236.90
3 -6 3 o 12.90 14.19
4 -6 3 o 54.22 56.93
5 -6 3 o 15.35 17.74
-5 -5 3 o 0.71 0.77
-4 -5 3 o 0.68 0.60
-3 -5 3 o 48.30 45.75
-2 -5 3 o 11.17 9.53
-1 -5 3 o 64.89 66.30
0 -5 3 o 0.81 0.33
1 -5 3 o 540.07 538.09
2 -5 3 o 9.65 10.04
3 -5 3 o 519.09 549.03
4 -5 3 o 75.43 86.57
5 -5 3 o 257.51 238.54
-5 -4 3 o 2.43 1.64
-4 -4 3 o 31.83 32.32
-3 -4 3 o 16.55 16.32
-2 -4 3 o 58.28 60.75
-1 -4 3 o 434.69 431.69
0 -4 3 o 264.72 270.89
1 -4 3 o 355.26 375.01
2 -4 3 o 216.06 217.24
3 -4 3 o 279.74 298.35
4 -4 3 o 78.35 79.65
5 -4 3 o 13.27 9.72
6 -4 3 o 65.41 70.51
-6 -3 3 o 34.06 38.00
-5 -3 3 o 34.04 32.23
-4 -3 3 o 8.84 7.76
-3 -3 3 o 7.69 7.10
-2 -3 3 o 3.86 3.90
-1 -3 3 o 6.22 6.79
0 -3 3 o 249.98 281.18
1 -3 3 o 1.47 0.33
2 -3 3 o 814.22 818.44
3 -3 3 o 3.78 4.32
4 -3 3 o 659.71 725.15
5 -3 3 o 4.32 2.83
6 -3 3 o 414.85 425.42
-6 -2 3 o 136.60 146.54
-5 -2 3 o 9.88 9.23
-4 -2 3 o 5.96 2.87
-3 -2 3 o 3.49 2.69
-2 -2 3 o 88.28 84.65
-1 -2 3 o 261.31 256.36
0 -2 3 o 436.56 462.39
1 -2 3 o 177.97 376.96
2 -2 3 o 83.40 77.22
3 -2 3 o 157.07 158.22
4 -2 3 o 0.89 1.31
5 -2 3 o 88.76 88.98
6 -2 3 o 28.90 29.20
-6 -1 3 o 1.72 1.92
-5 -1 3 o 87.46 91.08
-4 -1 3 o 3.36 0.85
-3 -1 3 o 2.30 0.64
-2 -1 3 o 22.63 17.14
-1 -1 3 o 53.50 53.33
0 -1 3 o 8.93 7.85
1 -1 3 o 405.66 428.44
2 -1 3 o 231.06 219.39
3 -1 3 o 487.63 513.42
4 -1 3 o 80.43 83.60
5 -1 3 o 182.85 196.80
6 -1 3 o 103.88 104.67
7 -1 3 o 51.03 54.30
-6 0 3 o 40.12 39.25
-5 0 3 o 73.42 69.97
-4 0 3 o 46.21 46.28
-3 0 3 o 125.89 113.00
-2 0 3 o 137.33 122.61
-1 0 3 o 74.76 62.11
0 0 3 o 30.88 30.83
1 0 3 o 63.76 58.14
2 0 3 o 76.26 80.76
3 0 3 o 24.96 19.47
4 0 3 o 7.67 6.88
5 0 3 o 4.42 3.26
6 0 3 o 30.60 31.13
7 0 3 o 3.53 2.62
-6 1 3 o 0.21 0.28
-5 1 3 o 99.91 102.13
-4 1 3 o 0.96 0.09
-3 1 3 o 101.84 81.42
-2 1 3 o 37.97 41.78
-1 1 3 o 184.13 168.59
0 1 3 o 23.65 22.77
1 1 3 o 46.63 45.56
2 1 3 o 31.06 28.56
3 1 3 o 193.27 186.04
4 1 3 o 18.15 17.70
5 1 3 o 2.22 0.63
6 1 3 o 64.45 68.06
7 1 3 o 22.39 22.04
-6 2 3 o 1.65 0.48
-5 2 3 o 6.89 6.60
-4 2 3 o 432.39 442.24
-3 2 3 o 13.61 9.15
-2 2 3 o 9.69 0.92
-1 2 3 o 97.66 95.94
0 2 3 o 313.63 341.35
1 2 3 o 43.54 41.83
2 2 3 o 7.56 1.33
3 2 3 o 55.25 52.03
4 2 3 o 138.63 124.52
5 2 3 o 121.75 123.67
6 2 3 o 2.47 1.87
7 2 3 o 21.62 21.33
-6 3 3 o 14.06 11.56
-5 3 3 o 107.17 107.77
-4 3 3 o -0.18 0.75
-3 3 3 o 161.03 150.35
-2 3 3 o 44.47 31.91
-1 3 3 o 1.19 1.11
0 3 3 o 10.99 12.24
1 3 3 o 22.90 25.13
2 3 3 o 35.63 30.67
3 3 3 o 16.94 12.37
4 3 3 o 2.58 1.05
5 3 3 o 96.00 88.57
6 3 3 o 7.32 6.92
-6 4 3 o 58.89 59.43
-5 4 3 o 87.22 82.27
-4 4 3 o 44.47 42.79
-3 4 3 o 216.73 221.05
-2 4 3 o 13.29 10.38
-1 4 3 o 53.85 38.09
0 4 3 o 68.32 68.82
1 4 3 o 36.14 25.57
2 4 3 o 65.08 68.19
3 4 3 o 39.88 35.29
4 4 3 o 203.45 212.40
5 4 3 o 4.19 4.35
6 4 3 o 25.65 25.52
-5 5 3 o 1.18 0.62
-4 5 3 o 18.71 16.44
-3 5 3 o 80.17 78.57
-2 5 3 o 114.52 113.77
-1 5 3 o 1.58 0.87
0 5 3 o 2.22 1.51
1 5 3 o 8.82 7.61
2 5 3 o 168.31 160.64
3 5 3 o 8.00 5.35
4 5 3 o 5.92 5.04
5 5 3 o 56.53 55.18
-5 6 3 o 24.15 28.21
-4 6 3 o 76.49 79.75
-3 6 3 o 0.21 0.01
-2 6 3 o 323.48 327.24
-1 6 3 o 33.33 34.12
0 6 3 o 8.64 7.69
1 6 3 o 18.56 15.87
2 6 3 o 5.88 5.41
3 6 3 o 184.82 186.06
4 6 3 o 1.77 1.11
-4 7 3 o 32.77 32.40
-3 7 3 o 126.12 124.23
-2 7 3 o 2.19 1.10
-1 7 3 o 10.52 9.72
0 7 3 o 0.23 0.21
1 7 3 o 31.76 32.05
2 7 3 o 52.93 54.47
3 7 3 o 2.91 3.51
4 7 3 o 35.95 36.22
-3 8 3 o 430.82 448.66
-2 8 3 o 83.61 89.03
-1 8 3 o 179.45 167.25
0 8 3 o 3.02 1.73
1 8 3 o 140.14 135.13
2 8 3 o 44.68 43.50
3 8 3 o 1.87 1.67
-1 9 3 o -0.53 0.00
0 9 3 o 1.06 1.17
1 9 3 o 4.10 3.69
2 9 3 o 6.01 5.57
-1 -8 4 o 21.68 16.25
0 -8 4 o 6.29 5.58
1 -8 4 o 4.18 3.43
2 -8 4 o 11.14 11.32
-3 -7 4 o 5.54 5.54
-2 -7 4 o 0.19 0.58
-1 -7 4 o 34.96 37.45
0 -7 4 o 51.84 50.39
1 -7 4 o 0.37 0.76
2 -7 4 o 7.32 7.80
3 -7 4 o 8.72 8.10
-4 -6 4 o 197.56 194.19
-3 -6 4 o 7.17 5.08
-2 -6 4 o 279.26 283.14
-1 -6 4 o 332.89 328.98
0 -6 4 o 84.50 81.76
1 -6 4 o 84.95 84.93
2 -6 4 o 33.00 33.42
3 -6 4 o 79.43 95.00
4 -6 4 o 0.82 0.93
5 -6 4 o 2.16 1.86
-5 -5 4 o 11.91 13.17
-4 -5 4 o 11.05 12.15
-3 -5 4 o 71.65 72.01
-2 -5 4 o 166.43 161.85
-1 -5 4 o 186.22 184.64
0 -5 4 o 19.79 17.20
1 -5 4 o 386.89 373.26
2 -5 4 o 61.30 57.44
3 -5 4 o 161.15 166.90
4 -5 4 o 51.23 52.47
5 -5 4 o 1.18 1.02
-5 -4 4 o 58.06 57.31
-4 -4 4 o 224.03 228.37
-3 -4 4 o 435.07 457.12
-2 -4 4 o 372.69 378.55
-1 -4 4 o 45.31 48.15
0 -4 4 o 1317.85 1293.61
1 -4 4 o 54.49 56.17
2 -4 4 o 233.26 246.73
3 -4 4 o 188.09 197.95
4 -4 4 o 21.95 19.76
5 -4 4 o 6.33 3.72
6 -4 4 o 6.83 8.52
-6 -3 4 o 8.04 7.89
-5 -3 4 o 3.82 3.96
-4 -3 4 o 9.23 10.44
-3 -3 4 o 61.05 62.35
-2 -3 4 o 336.74 329.62
-1 -3 4 o 1.40 0.36
0 -3 4 o 451.74 470.42
1 -3 4 o 760.30 749.14
2 -3 4 o 282.65 292.81
3 -3 4 o 158.05 164.12
4 -3 4 o 623.01 653.96
5 -3 4 o 29.62 25.24
6 -3 4 o 46.46 37.20
-6 -2 4 o 30.86 26.69
-5 -2 4 o 35.92 39.51
-4 -2 4 o 2.00 0.24
-3 -2 4 o 319.63 351.52
-2 -2 4 o 257.18 273.01
-1 -2 4 o 1241.03 1218.86
0 -2 4 o 10.99 9.05
1 -2 4 o 1730.84 1692.64
2 -2 4 o 287.14 270.73
3 -2 4 o 1255.26 1231.06
4 -2 4 o 79.54 95.38
5 -2 4 o 48.61 44.67
6 -2 4 o 13.57 13.78
-6 -1 4 o 27.12 29.37
-5 -1 4 o 85.57 80.68
-4 -1 4 o 8.76 7.81
-3 -1 4 o 22.08 21.82
-2 -1 4 o 9.05 9.28
-1 -1 4 o 207.96 207.13
0 -1 4 o 338.80 370.00
1 -1 4 o 348.14 367.28
2 -1 4 o 462.46 432.88
3 -1 4 o 835.18 840.34
4 -1 4 o 605.86 610.41
5 -1 4 o 795.09 822.98
6 -1 4 o 296.16 290.07
7 -1 4 o 19.87 16.62
-6 0 4 o 49.12 51.05
-5 0 4 o 85.03 76.48
-4 0 4 o 9.00 7.14
-3 0 4 o 16.71 14.91
-2 0 4 o 638.07 618.03
-1 0 4 o 1.64 0.12
0 0 4 o 2724.02 2558.58
1 0 4 o 16.12 13.41
2 0 4 o 1781.85 1734.24
3 0 4 o 41.08 37.43
4 0 4 o 502.62 509.27
5 0 4 o 46.86 46.14
6 0 4 o 18.75 18.81
7 0 4 o -0.16 0.08
-6 1 4 o 1.23 1.34
-5 1 4 o 124.98 119.50
-4 1 4 o 49.53 50.36
-3 1 4 o 40.87 39.54
-2 1 4 o 2.42 2.14
-1 1 4 o 8.73 7.90
0 1 4 o 97.77 93.91
1 1 4 o 1165.60 1133.84
2 1 4 o 341.03 338.82
3 1 4 o 902.49 816.17
4 1 4 o 263.19 266.78
5 1 4 o 836.00 871.85
6 1 4 o 27.86 26.78
7 1 4 o 131.64 131.42
-6 2 4 o 7.48 5.24
-5 2 4 o 48.98 45.20
-4 2 4 o 239.93 226.14
-3 2 4 o 17.97 17.44
-2 2 4 o 2.05 0.34
-1 2 4 o 227.37 225.37
0 2 4 o 153.12 148.87
1 2 4 o 288.37 306.71
2 2 4 o 39.63 32.91
3 2 4 o 180.54 161.75
4 2 4 o 31.10 29.40
5 2 4 o 12.36 12.78
6 2 4 o 0.75 0.93
7 2 4 o 0.00 0.33
-6 3 4 o 20.45 19.80
-5 3 4 o 29.22 28.71
-4 3 4 o 34.25 36.20
-3 3 4 o 94.08 94.58
-2 3 4 o 3.36 3.17
-1 3 4 o 3.47 2.13
0 3 4 o 43.54 43.58
1 3 4 o 1.64 1.92
2 3 4 o 258.20 262.33
3 3 4 o 1.85 0.88
4 3 4 o 148.75 162.49
5 3 4 o 15.49 14.71
6 3 4 o 146.36 145.57
-6 4 4 o 0.37 0.01
-5 4 4 o 36.70 36.72
-4 4 4 o 180.07 178.37
-3 4 4 o 46.22 48.78
-2 4 4 o 3.49 1.83
-1 4 4 o 15.97 16.81
0 4 4 o 100.01 106.38
1 4 4 o 3.45 1.17
2 4 4 o 5.69 5.05
3 4 4 o 5.67 3.69
-5 5 4 o 19.31 18.20
-4 5 4 o 0.94 1.04
-3 5 4 o 79.53 84.56
-2 5 4 o 8.11 9.47
-1 5 4 o 6.93 4.31
0 5 4 o 0.90 0.02
1 5 4 o 54.35 53.77
2 5 4 o 0.28 0.01
3 5 4 o 14.43 12.54
-5 6 4 o 26.91 24.39
-3 6 4 o 78.63 82.96
-2 6 4 o 41.15 44.25
-1 6 4 o 12.25 10.39
0 6 4 o 14.31 13.67
1 6 4 o 34.55 34.02
2 6 4 o 15.19 14.14
3 6 4 o 107.52 99.26
4 6 4 o 46.12 52.00
-4 7 4 o 0.21 0.08
-3 7 4 o 17.06 15.34
-2 7 4 o 57.04 67.05
-1 7 4 o 25.24 26.44
0 7 4 o 0.45 0.13
1 7 4 o 21.39 19.88
2 7 4 o 5.83 4.82
3 7 4 o 12.71 12.16
4 7 4 o 10.31 10.37
-3 8 4 o 0.45 0.42
-2 8 4 o 49.49 43.75
-1 8 4 o 37.06 36.47
0 8 4 o 13.20 13.84
1 8 4 o 1.01 0.86
2 8 4 o 35.68 32.33
3 8 4 o 39.76 42.62
-1 9 4 o 38.00 41.47
0 9 4 o 0.42 0.10
1 9 4 o 27.25 29.93
2 9 4 o 5.24 3.96
0 -8 5 o 3.40 3.52
1 -8 5 o 16.64 18.14
-2 -7 5 o 95.29 87.02
-1 -7 5 o 32.74 30.07
0 -7 5 o 34.77 38.19
1 -7 5 o 39.97 36.71
2 -7 5 o 145.35 150.65
3 -7 5 o 24.58 21.46
-4 -6 5 o 3.18 1.48
-3 -6 5 o 75.16 70.17
-2 -6 5 o 9.36 7.80
-1 -6 5 o 43.48 48.31
0 -6 5 o 24.40 22.00
1 -6 5 o 16.01 16.63
2 -6 5 o 1.30 1.08
3 -6 5 o 120.29 128.58
4 -6 5 o 8.14 10.03
-4 -5 5 o 0.75 0.48
-3 -5 5 o 2.70 2.05
-2 -5 5 o 34.00 30.40
-1 -5 5 o 78.23 81.24
0 -5 5 o 1.25 0.41
1 -5 5 o 86.20 75.05
2 -5 5 o 66.43 59.41
3 -5 5 o 55.16 53.12
4 -5 5 o 221.34 212.05
5 -5 5 o 123.04 121.17
-5 -4 5 o 88.77 77.84
-4 -4 5 o 157.27 147.38
-3 -4 5 o 164.75 169.10
-2 -4 5 o 419.27 435.03
-1 -4 5 o 36.51 36.41
0 -4 5 o 5.01 6.22
1 -4 5 o 6.36 7.33
2 -4 5 o 106.78 105.18
3 -4 5 o 303.50 310.67
4 -4 5 o 16.61 18.05
5 -4 5 o 4.27 4.03
6 -4 5 o 21.67 23.53
-5 -3 5 o 39.19 38.10
-4 -3 5 o 5.34 4.96
-3 -3 5 o 7.69 7.14
-2 -3 5 o 463.65 475.18
-1 -3 5 o 90.33 88.62
0 -3 5 o 241.66 238.73
1 -3 5 o 3.98 5.18
2 -3 5 o 111.89 113.24
3 -3 5 o 94.52 98.28
4 -3 5 o 250.41 247.87
5 -3 5 o 72.89 77.06
6 -3 5 o 142.53 149.54
-6 -2 5 o 7.94 9.38
-5 -2 5 o 545.14 561.39
-4 -2 5 o 146.20 156.37
-3 -2 5 o 1416.41 1585.79
-2 -2 5 o 26.08 20.62
-1 -2 5 o 764.35 807.99
0 -2 5 o 104.96 91.91
1 -2 5 o 465.90 530.97
2 -2 5 o 35.07 29.93
3 -2 5 o 17.40 17.74
4 -2 5 o 13.00 11.70
5 -2 5 o 20.43 20.70
6 -2 5 o 26.49 24.22
-6 -1 5 o 2.33 1.10
-5 -1 5 o 33.71 34.83
-4 -1 5 o 34.33 34.73
-3 -1 5 o 129.40 149.84
-2 -1 5 o 602.01 642.45
-1 -1 5 o 1200.52 1436.38
0 -1 5 o 729.45 851.50
1 -1 5 o 14.99 15.56
2 -1 5 o 459.09 476.19
3 -1 5 o 42.35 43.34
4 -1 5 o 197.72 202.77
5 -1 5 o 24.79 21.62
6 -1 5 o 1.33 0.94
7 -1 5 o 14.89 14.86
-6 0 5 o 81.06 84.32
-5 0 5 o 39.33 39.79
-4 0 5 o 700.04 755.93
-3 0 5 o 30.49 26.27
-2 0 5 o 2360.53 2290.48
-1 0 5 o 71.07 66.71
0 0 5 o 438.00 437.28
1 0 5 o 206.42 201.34
2 0 5 o 2488.30 2286.25
3 0 5 o 111.35 96.55
4 0 5 o 249.96 248.27
5 0 5 o 4.16 3.74
6 0 5 o 30.70 28.72
7 0 5 o 1.49 1.57
-6 1 5 o 0.86 0.34
-5 1 5 o 25.31 26.10
-4 1 5 o 16.27 15.65
-3 1 5 o 34.30 35.98
-2 1 5 o 24.34 31.43
-1 1 5 o 1757.44 1993.40
0 1 5 o 224.29 216.43
1 1 5 o 181.36 186.72
2 1 5 o 137.98 129.98
3 1 5 o 1217.26 1111.78
4 1 5 o 28.87 28.99
5 1 5 o 653.30 693.51
6 1 5 o 9.17 8.43
7 1 5 o 24.53 23.61
-6 2 5 o 1.38 1.53
-5 2 5 o 51.23 51.16
-4 2 5 o 6.84 3.50
-3 2 5 o 457.61 442.38
-2 2 5 o 363.69 342.87
-1 2 5 o 1394.00 1348.45
0 2 5 o 161.75 173.59
1 2 5 o 1555.85 1664.29
2 2 5 o 1300.96 1278.29
3 2 5 o 725.45 694.99
4 2 5 o 386.83 405.31
5 2 5 o 26.99 24.84
6 2 5 o 14.09 16.69
7 2 5 o 1.54 1.83
-6 3 5 o 40.57 42.70
-5 3 5 o 26.35 29.98
-4 3 5 o 21.77 19.27
-3 3 5 o 43.92 42.67
-2 3 5 o 6.88 5.78
-1 3 5 o 0.26 0.20
0 3 5 o 532.88 544.32
1 3 5 o 54.69 45.37
2 3 5 o 892.76 928.64
5 3 5 o 149.22 150.68
6 3 5 o 355.06 338.83
-6 4 5 o 29.47 23.85
-5 4 5 o 10.64 11.32
-4 4 5 o 230.64 202.63
-3 4 5 o 8.76 7.07
-2 4 5 o 89.24 92.83
-1 4 5 o 396.03 399.31
0 4 5 o 159.24 158.83
1 4 5 o 566.64 556.62
2 4 5 o 142.49 155.14
3 4 5 o 447.55 442.44
-5 5 5 o 3.08 2.75
-4 5 5 o 6.47 5.86
-3 5 5 o 86.17 81.09
-2 5 5 o 42.10 40.24
-1 5 5 o 28.80 28.75
0 5 5 o 21.47 20.76
1 5 5 o 146.11 142.52
2 5 5 o 70.98 67.47
3 5 5 o 325.96 329.86
-5 6 5 o 63.16 67.54
-4 6 5 o 5.13 3.56
-3 6 5 o 111.31 106.50
-2 6 5 o 12.31 9.56
-1 6 5 o 4.88 4.66
0 6 5 o 52.49 49.62
1 6 5 o 4.70 4.94
2 6 5 o 44.15 45.88
3 6 5 o 25.20 24.65
-4 7 5 o 6.06 6.84
-3 7 5 o 26.69 28.14
-2 7 5 o 32.95 29.60
-1 7 5 o 3.61 3.43
0 7 5 o 4.51 4.28
1 7 5 o 22.65 21.53
2 7 5 o 1.38 0.42
3 7 5 o 2.10 1.62
4 7 5 o 36.77 38.04
-3 8 5 o 2.92 3.54
-2 8 5 o 78.50 78.63
-1 8 5 o 0.65 0.73
0 8 5 o 3.69 2.17
1 8 5 o 0.67 0.88
2 8 5 o 65.89 70.78
3 8 5 o 41.93 41.48
-1 9 5 o 22.37 24.86
0 9 5 o 0.78 0.02
1 9 5 o 10.29 10.36
2 9 5 o 10.79 9.76
-2 -7 6 o 1.54 1.43
-1 -7 6 o 15.36 12.23
0 -7 6 o 21.33 19.28
1 -7 6 o 125.85 115.26
2 -7 6 o 12.77 12.35
3 -7 6 o 9.47 6.42
-3 -6 6 o 10.20 9.35
-2 -6 6 o 41.12 38.36
-1 -6 6 o 18.67 18.95
0 -6 6 o 41.45 47.03
1 -6 6 o 0.75 0.04
2 -6 6 o 3.61 3.45
3 -6 6 o 15.56 16.60
4 -6 6 o -0.05 1.09
-4 -5 6 o 15.36 13.23
-3 -5 6 o 1.79 0.88
-2 -5 6 o 243.51 242.17
-1 -5 6 o 38.61 41.85
0 -5 6 o 14.75 14.99
1 -5 6 o 247.62 238.84
2 -5 6 o 27.21 25.73
3 -5 6 o 67.02 66.29
4 -5 6 o 2.67 0.05
5 -5 6 o 89.17 101.93
-5 -4 6 o 43.58 38.43
-4 -4 6 o 16.41 15.03
-3 -4 6 o 185.78 179.32
-2 -4 6 o 5.98 5.43
-1 -4 6 o 23.81 22.39
0 -4 6 o 157.20 140.78
1 -4 6 o 3.17 1.96
2 -4 6 o 16.36 11.77
3 -4 6 o 14.76 13.75
4 -4 6 o -0.56 1.08
5 -4 6 o 0.92 0.06
-5 -3 6 o 0.94 0.13
-4 -3 6 o 3.38 2.47
-3 -3 6 o 34.76 34.97
-2 -3 6 o 222.32 222.43
-1 -3 6 o 145.87 141.18
0 -3 6 o 33.66 33.98
1 -3 6 o 280.64 254.53
2 -3 6 o 59.19 57.02
3 -3 6 o 3.91 3.19
4 -3 6 o 306.06 311.61
5 -3 6 o 6.94 6.77
6 -3 6 o 43.08 43.46
-5 -2 6 o 122.79 113.60
-4 -2 6 o 7.07 4.10
-3 -2 6 o 75.73 80.91
-2 -2 6 o 76.97 68.97
-1 -2 6 o 148.14 174.16
0 -2 6 o 362.93 415.55
1 -2 6 o 1.07 0.15
2 -2 6 o 418.51 363.53
3 -2 6 o 132.02 126.56
4 -2 6 o 44.21 43.63
5 -2 6 o 42.07 40.90
6 -2 6 o 17.66 18.58
-6 -1 6 o 3.18 2.54
-5 -1 6 o 6.41 7.51
-4 -1 6 o 0.84 0.16
-3 -1 6 o 64.17 72.33
-2 -1 6 o 40.62 40.59
-1 -1 6 o 105.06 97.43
0 -1 6 o 67.88 65.12
1 -1 6 o 669.13 635.68
2 -1 6 o 28.87 30.33
3 -1 6 o 315.43 297.29
4 -1 6 o 147.76 135.66
5 -1 6 o 386.88 373.29
6 -1 6 o 2.97 0.85
-6 0 6 o 124.47 134.82
-5 0 6 o 59.37 55.72
-4 0 6 o 1114.75 1183.99
-3 0 6 o 217.61 216.97
-2 0 6 o 481.15 490.45
-1 0 6 o 191.53 194.60
0 0 6 o 1070.10 1000.27
1 0 6 o 52.34 50.62
2 0 6 o 432.90 403.49
3 0 6 o 0.82 0.20
4 0 6 o 47.78 49.23
5 0 6 o 42.72 44.18
6 0 6 o 73.78 71.76
7 0 6 o 5.69 5.27
-6 1 6 o 0.95 0.33
-5 1 6 o 76.80 76.77
-4 1 6 o 2.75 1.29
-3 1 6 o 432.56 434.74
-2 1 6 o 35.50 34.70
-1 1 6 o 1049.71 1007.76
0 1 6 o 18.07 15.44
1 1 6 o 976.64 971.78
2 1 6 o 5.96 6.30
3 1 6 o 4.84 4.57
4 1 6 o 76.44 79.16
5 1 6 o 211.15 206.00
6 1 6 o 82.45 80.98
7 1 6 o 7.64 7.14
-6 2 6 o 55.46 53.89
-5 2 6 o 219.84 224.18
-4 2 6 o 943.88 930.44
-3 2 6 o 964.01 957.43
-2 2 6 o 833.17 820.37
-1 2 6 o 575.40 557.14
0 2 6 o 108.93 116.59
1 2 6 o 322.47 315.70
2 2 6 o 126.02 138.64
3 2 6 o 12.84 10.21
4 2 6 o 0.70 0.16
5 2 6 o 34.99 34.53
6 2 6 o 71.74 67.48
-6 3 6 o 0.10 0.04
-5 3 6 o 2.75 2.54
-4 3 6 o 2.77 3.30
-3 3 6 o 68.21 74.76
-2 3 6 o 795.90 808.42
-1 3 6 o 286.08 270.76
0 3 6 o 878.36 866.70
1 3 6 o 99.03 90.04
2 3 6 o 388.26 424.85
3 3 6 o 54.84 62.07
5 3 6 o 5.36 4.50
6 3 6 o 1.20 1.29
-5 4 6 o 64.86 63.81
-4 4 6 o 78.90 74.87
-3 4 6 o 914.63 926.74
-2 4 6 o 185.47 203.40
-1 4 6 o 521.33 533.43
0 4 6 o 1026.24 1009.70
1 4 6 o 572.89 592.76
2 4 6 o 10.98 11.97
3 4 6 o 467.78 478.35
-5 5 6 o 1.25 0.63
-4 5 6 o 0.88 0.67
-3 5 6 o 11.33 10.74
-2 5 6 o 94.99 92.15
-1 5 6 o 83.53 94.15
0 5 6 o 42.85 40.74
1 5 6 o 877.56 884.25
2 5 6 o 16.93 17.17
3 5 6 o 399.93 419.70
-4 6 6 o 77.54 69.84
-3 6 6 o 21.57 27.99
-2 6 6 o 287.86 294.83
-1 6 6 o 20.84 22.22
0 6 6 o 741.56 719.01
1 6 6 o 13.91 14.20
2 6 6 o 381.44 377.55
3 6 6 o 111.84 111.42
-4 7 6 o 4.42 3.89
-3 7 6 o 3.44 3.54
-2 7 6 o 41.22 42.24
-1 7 6 o 13.42 12.96
0 7 6 o 54.51 53.75
1 7 6 o 125.15 128.08
2 7 6 o 218.65 213.31
3 7 6 o 275.53 295.66
-3 8 6 o 36.08 35.48
-2 8 6 o 9.38 7.93
-1 8 6 o 31.50 30.01
0 8 6 o 17.26 14.31
1 8 6 o 100.24 101.46
2 8 6 o 18.67 18.20
3 8 6 o 19.31 19.52
-1 9 6 o 21.75 15.34
0 9 6 o 8.70 7.91
1 9 6 o -0.15 0.24
2 9 6 o 29.86 26.89
-1 -7 7 o 4.97 6.29
0 -7 7 o 50.90 52.00
1 -7 7 o 107.34 107.85
2 -7 7 o 89.02 96.76
-3 -6 7 o 0.41 0.83
-2 -6 7 o 5.55 6.52
-1 -6 7 o 13.22 12.80
0 -6 7 o 84.52 87.73
1 -6 7 o 0.34 0.03
2 -6 7 o 15.19 15.06
3 -6 7 o 8.50 6.80
4 -6 7 o 0.00 0.16
-4 -5 7 o 11.40 8.42
-3 -5 7 o 69.67 73.29
-2 -5 7 o 0.96 0.40
-1 -5 7 o 11.08 12.33
0 -5 7 o 26.59 27.95
1 -5 7 o 263.33 314.27
2 -5 7 o 38.64 36.77
3 -5 7 o 71.85 86.92
4 -5 7 o 3.55 2.95
5 -5 7 o 190.58 188.20
-4 -4 7 o 12.80 13.03
-3 -4 7 o 37.86 33.04
-2 -4 7 o 0.35 0.05
-1 -4 7 o 61.08 63.30
0 -4 7 o 24.82 29.77
1 -4 7 o 22.58 27.63
2 -4 7 o 10.60 12.86
3 -4 7 o 35.57 34.60
4 -4 7 o 24.65 23.58
5 -4 7 o 7.30 7.72
-5 -3 7 o 18.37 16.64
-4 -3 7 o 10.21 10.48
-3 -3 7 o 28.84 25.50
-2 -3 7 o 147.25 143.50
-1 -3 7 o 17.63 17.98
0 -3 7 o 198.93 259.76
1 -3 7 o 2.43 1.78
2 -3 7 o 423.46 432.13
3 -3 7 o 13.87 11.10
4 -3 7 o 58.17 64.33
5 -3 7 o 96.50 97.47
6 -3 7 o 30.02 32.77
-5 -2 7 o 22.87 20.08
-4 -2 7 o 133.36 134.51
-3 -2 7 o 162.20 157.74
-2 -2 7 o 24.09 21.08
-1 -2 7 o 32.55 32.13
0 -2 7 o 4.67 1.91
1 -2 7 o 14.77 16.22
2 -2 7 o 28.19 28.96
3 -2 7 o 37.59 36.08
4 -2 7 o 61.50 66.30
5 -2 7 o 0.46 0.00
6 -2 7 o 13.33 17.14
-5 -1 7 o 12.69 13.25
-4 -1 7 o 27.42 25.34
-3 -1 7 o 209.98 218.94
-2 -1 7 o 71.37 61.64
-1 -1 7 o 618.85 541.01
0 -1 7 o 67.89 65.14
1 -1 7 o 29.11 48.63
2 -1 7 o 92.16 95.51
3 -1 7 o 324.69 354.56
4 -1 7 o 23.12 21.96
5 -1 7 o 2.21 1.41
6 -1 7 o 10.39 10.51
-5 0 7 o 19.57 17.36
-4 0 7 o 78.88 75.74
-3 0 7 o 5.36 5.58
-2 0 7 o 55.50 35.25
-1 0 7 o 16.06 17.01
0 0 7 o 345.10 265.18
1 0 7 o 2.52 2.65
2 0 7 o 305.52 261.65
3 0 7 o 15.00 18.20
4 0 7 o 23.02 22.16
5 0 7 o 19.63 18.55
6 0 7 o 31.29 36.06
-6 1 7 o 0.62 0.59
-5 1 7 o 9.39 8.74
-4 1 7 o 4.37 3.92
-3 1 7 o 12.41 12.38
-2 1 7 o 33.89 32.14
-1 1 7 o 667.86 596.61
0 1 7 o 54.54 53.41
1 1 7 o 287.21 278.00
2 1 7 o 35.34 38.42
3 1 7 o 378.13 362.05
4 1 7 o 62.04 61.35
5 1 7 o 37.11 33.97
6 1 7 o 105.99 104.74
-6 2 7 o 49.91 44.95
-5 2 7 o 127.71 123.40
-4 2 7 o 167.76 172.87
-3 2 7 o 12.80 11.66
-2 2 7 o 65.33 79.02
-1 2 7 o 44.66 48.99
0 2 7 o 1206.42 1124.47
1 2 7 o 9.38 9.17
2 2 7 o 397.91 373.68
3 2 7 o 140.40 128.41
4 2 7 o 8.20 8.36
5 2 7 o 29.15 28.46
6 2 7 o 14.07 12.58
-5 3 7 o 42.35 45.76
-4 3 7 o 40.20 33.90
-3 3 7 o 10.75 10.44
-2 3 7 o 40.46 40.42
-1 3 7 o 21.43 14.06
0 3 7 o 54.82 52.40
1 3 7 o 797.56 770.56
2 3 7 o 20.11 24.45
3 3 7 o 10.43 6.33
4 3 7 o 257.97 229.44
5 3 7 o 3.15 0.18
6 3 7 o 152.30 159.01
-5 4 7 o 447.77 419.36
-4 4 7 o 1.58 0.14
-3 4 7 o 730.03 751.62
-2 4 7 o 31.98 35.53
-1 4 7 o 348.86 376.53
0 4 7 o 17.17 16.70
1 4 7 o 91.40 103.34
2 4 7 o 64.44 55.77
3 4 7 o 105.69 97.69
-5 5 7 o 10.37 12.10
-4 5 7 o 0.20 0.33
-3 5 7 o 8.60 7.29
-2 5 7 o 293.50 311.62
-1 5 7 o 97.44 100.67
0 5 7 o 91.80 99.91
1 5 7 o 55.72 55.51
2 5 7 o 133.80 138.08
3 5 7 o 1.60 1.66
-4 6 7 o 311.48 300.78
-3 6 7 o 107.73 115.35
-2 6 7 o 620.40 601.31
-1 6 7 o 67.71 66.21
0 6 7 o 480.25 481.77
1 6 7 o 1.86 1.57
2 6 7 o 72.53 75.57
3 6 7 o 8.67 6.44
-4 7 7 o 9.14 9.46
-3 7 7 o 15.47 17.38
-2 7 7 o 52.35 51.28
-1 7 7 o 110.09 106.81
0 7 7 o 120.64 118.50
1 7 7 o 193.97 200.87
2 7 7 o 118.84 128.83
3 7 7 o 63.83 74.58
-3 8 7 o 77.54 75.01
-2 8 7 o 42.78 42.22
-1 8 7 o 518.97 549.04
0 8 7 o 32.18 31.79
1 8 7 o 247.99 258.56
2 8 7 o 35.91 34.98
3 8 7 o 3.82 2.24
-1 9 7 o 0.35 0.21
0 9 7 o 115.09 115.91
1 9 7 o 23.41 21.49
2 9 7 o 267.09 303.22
0 -7 8 o 109.99 113.01
1 -7 8 o 66.34 75.15
-2 -6 8 o 11.45 10.70
-1 -6 8 o 0.43 0.24
0 -6 8 o 60.23 63.14
1 -6 8 o 2.22 2.59
2 -6 8 o 25.16 21.48
3 -6 8 o 37.69 32.98
-3 -5 8 o 138.17 138.46
-2 -5 8 o 21.26 21.31
-1 -5 8 o 124.38 119.34
0 -5 8 o 1.04 0.27
1 -5 8 o 621.59 616.39
2 -5 8 o 1.96 0.74
3 -5 8 o 194.30 215.84
4 -5 8 o 88.73 72.75
-4 -4 8 o 19.75 23.76
-3 -4 8 o 3.15 2.84
-2 -4 8 o 7.10 7.16
-1 -4 8 o 53.38 57.05
0 -4 8 o 99.55 105.93
1 -4 8 o 6.36 6.17
2 -4 8 o 8.40 7.74
3 -4 8 o 33.21 37.51
4 -4 8 o 3.56 2.95
5 -4 8 o 1.93 1.29
-4 -3 8 o 36.29 39.92
-3 -3 8 o 93.08 104.12
-2 -3 8 o 39.21 40.87
-1 -3 8 o 5.04 4.83
0 -3 8 o 344.05 355.96
1 -3 8 o 180.48 185.55
2 -3 8 o 551.96 575.82
3 -3 8 o 31.85 30.69
4 -3 8 o 213.02 226.07
5 -3 8 o 233.58 228.73
6 -3 8 o 56.59 54.53
-5 -2 8 o 3.80 6.13
-4 -2 8 o 1.45 1.47
-3 -2 8 o 2.43 2.46
-2 -2 8 o 128.31 131.80
-1 -2 8 o 81.62 84.40
0 -2 8 o -0.06 0.26
1 -2 8 o 32.29 28.50
2 -2 8 o 34.61 35.34
3 -2 8 o 9.49 12.37
4 -2 8 o 79.93 82.31
5 -2 8 o 16.01 19.11
6 -2 8 o 18.14 16.23
-5 -1 8 o 46.68 49.85
-4 -1 8 o 0.96 0.22
-3 -1 8 o 8.89 9.10
-2 -1 8 o 5.28 2.76
-1 -1 8 o 244.20 250.68
0 -1 8 o 69.61 62.99
1 -1 8 o 269.24 247.28
2 -1 8 o 232.73 228.23
3 -1 8 o 443.43 530.35
4 -1 8 o 126.93 134.55
5 -1 8 o 4.92 5.59
6 -1 8 o 95.27 101.68
-5 0 8 o 27.81 25.31
-4 0 8 o 58.59 55.98
-3 0 8 o 0.36 1.23
-2 0 8 o 143.32 144.79
-1 0 8 o 0.71 0.15
0 0 8 o 67.27 65.05
1 0 8 o 5.53 6.38
2 0 8 o 4.93 5.22
3 0 8 o 5.13 5.70
4 0 8 o 127.43 148.09
5 0 8 o 11.71 12.50
6 0 8 o 6.24 6.61
-5 1 8 o 12.10 12.48
-4 1 8 o 95.92 96.86
-3 1 8 o 51.08 41.91
-2 1 8 o 93.24 85.04
-1 1 8 o 207.53 196.01
0 1 8 o 98.33 99.23
1 1 8 o 191.02 221.45
2 1 8 o 118.80 129.43
3 1 8 o 356.11 370.45
4 1 8 o 83.28 92.61
5 1 8 o 1.09 1.80
6 1 8 o 2.18 1.40
-5 2 8 o 73.26 72.81
-4 2 8 o 52.02 45.25
-3 2 8 o 51.50 48.32
-2 2 8 o 16.31 12.53
-1 2 8 o 20.03 23.00
0 2 8 o 43.55 33.41
1 2 8 o 30.30 33.31
2 2 8 o 1.22 1.11
3 2 8 o 0.73 0.07
4 2 8 o 102.45 106.43
5 2 8 o 6.40 4.78
6 2 8 o 47.81 56.59
-5 3 8 o 29.99 26.85
-4 3 8 o 7.56 5.84
-3 3 8 o 5.77 4.59
-2 3 8 o 221.41 232.05
-1 3 8 o 52.48 44.62
0 3 8 o 146.46 140.93
1 3 8 o 141.00 126.49
2 3 8 o 147.56 162.59
3 3 8 o 7.35 2.44
4 3 8 o 83.29 88.99
5 3 8 o 139.04 142.91
6 3 8 o 14.93 19.04
-5 4 8 o 11.71 9.41
-4 4 8 o 5.13 3.75
-3 4 8 o 13.66 11.78
-2 4 8 o 0.37 1.66
-1 4 8 o 102.71 105.53
0 4 8 o 363.44 358.85
1 4 8 o 5.62 5.93
2 4 8 o 9.36 6.52
3 4 8 o 3.98 3.28
-5 5 8 o 6.93 8.51
-4 5 8 o 2.67 2.35
-3 5 8 o 2.85 2.92
-2 5 8 o 88.18 93.10
-1 5 8 o 12.02 10.68
0 5 8 o 27.15 29.30
1 5 8 o 344.30 354.45
2 5 8 o 49.34 55.36
3 5 8 o 7.64 7.49
-4 6 8 o 86.92 85.57
-3 6 8 o 1.90 1.39
-2 6 8 o 84.38 85.37
-1 6 8 o 145.55 151.12
0 6 8 o 10.76 10.35
1 6 8 o 47.99 53.52
2 6 8 o 29.04 30.00
3 6 8 o 48.71 51.80
-3 7 8 o 10.95 9.60
-2 7 8 o 7.07 5.76
-1 7 8 o 45.25 48.36
0 7 8 o 9.73 9.67
1 7 8 o 1.46 0.49
2 7 8 o 129.72 136.17
3 7 8 o 2.38 2.63
-2 8 8 o 53.44 61.38
-1 8 8 o 92.67 93.18
0 8 8 o 13.06 12.49
1 8 8 o 4.84 5.31
2 8 8 o 1.25 1.55
3 8 8 o 68.23 74.37
0 9 8 o 68.58 67.91
1 9 8 o 0.87 0.32
-1 -6 9 o 1.44 1.71
0 -6 9 o 29.90 26.97
1 -6 9 o 2.65 0.97
2 -6 9 o 1.73 2.87
-3 -5 9 o 159.38 147.32
-2 -5 9 o 115.54 105.32
-1 -5 9 o 159.91 157.23
0 -5 9 o 1.79 1.06
1 -5 9 o 230.93 234.48
2 -5 9 o 3.49 5.83
3 -5 9 o 1.54 1.12
4 -5 9 o 12.23 10.93
-4 -4 9 o 107.21 110.42
-3 -4 9 o 2.38 2.94
-2 -4 9 o 58.90 57.72
-1 -4 9 o 130.45 126.82
0 -4 9 o 49.20 49.36
1 -4 9 o 1.10 0.98
2 -4 9 o 1.68 1.32
3 -4 9 o 30.89 30.01
4 -4 9 o 17.87 17.54
5 -4 9 o 6.06 6.16
-4 -3 9 o 28.21 26.26
-3 -3 9 o 152.23 161.99
-2 -3 9 o 109.79 109.77
-1 -3 9 o 152.78 149.34
0 -3 9 o 666.86 682.69
1 -3 9 o 257.02 265.25
2 -3 9 o 555.39 580.17
3 -3 9 o 100.80 104.28
4 -3 9 o 20.64 19.67
5 -3 9 o 169.20 176.19
-4 -2 9 o 12.29 12.21
-3 -2 9 o 74.84 76.97
-2 -2 9 o 45.55 46.64
-1 -2 9 o 245.22 255.53
0 -2 9 o 2.04 1.07
1 -2 9 o 36.68 37.79
2 -2 9 o 4.74 3.01
3 -2 9 o 51.20 65.48
4 -2 9 o 39.68 43.02
5 -2 9 o 5.67 5.31
6 -2 9 o 52.81 54.26
-5 -1 9 o 29.44 31.82
-4 -1 9 o 55.27 64.21
-3 -1 9 o 1.36 1.48
-2 -1 9 o 153.71 148.03
-1 -1 9 o 376.23 380.43
0 -1 9 o 714.48 694.22
1 -1 9 o 270.08 269.96
2 -1 9 o 1058.01 988.11
3 -1 9 o 301.60 327.62
4 -1 9 o 318.26 329.90
5 -1 9 o 6.66 5.53
6 -1 9 o 98.77 99.87
-5 0 9 o 0.01 0.51
-4 0 9 o 2.44 3.17
-3 0 9 o 5.80 7.24
-2 0 9 o 328.05 332.39
-1 0 9 o 4.65 5.70
0 0 9 o 20.03 20.79
1 0 9 o 9.13 9.54
2 0 9 o 50.73 41.37
3 0 9 o 0.31 0.57
4 0 9 o 131.38 151.76
5 0 9 o 9.17 11.96
6 0 9 o 8.51 7.30
-5 1 9 o 52.04 57.95
-4 1 9 o 4.88 5.36
-3 1 9 o 2.01 1.15
-2 1 9 o 35.40 36.51
-1 1 9 o 414.53 424.98
0 1 9 o 62.44 66.36
1 1 9 o 438.46 427.36
2 1 9 o 54.29 55.19
3 1 9 o 1161.84 1136.06
4 1 9 o 11.74 11.51
5 1 9 o 109.43 105.77
6 1 9 o 4.52 3.73
-5 2 9 o 22.61 22.31
-4 2 9 o 36.84 40.91
-3 2 9 o 46.51 44.61
-2 2 9 o 57.03 58.52
-1 2 9 o 104.73 110.04
0 2 9 o 2.10 0.48
1 2 9 o 32.12 31.17
2 2 9 o 35.62 38.68
3 2 9 o 3.89 5.44
4 2 9 o 66.70 72.16
5 2 9 o 17.16 19.30
6 2 9 o 12.44 13.10
-5 3 9 o 11.99 10.50
-4 3 9 o 43.27 47.88
-3 3 9 o 71.08 82.59
-2 3 9 o 49.48 50.78
-1 3 9 o 0.10 0.14
0 3 9 o 198.88 209.39
1 3 9 o 3.48 3.53
2 3 9 o 378.60 485.23
3 3 9 o 20.15 21.67
4 3 9 o 278.57 275.63
5 3 9 o 20.20 22.25
6 3 9 o 79.76 85.59
-5 4 9 o 19.54 19.76
-4 4 9 o 30.45 27.66
-3 4 9 o 3.44 2.18
-2 4 9 o 1.39 2.24
-1 4 9 o 27.29 25.81
0 4 9 o 33.09 37.19
1 4 9 o 14.09 13.04
2 4 9 o 2.20 1.51
3 4 9 o 20.15 20.84
4 4 9 o 12.63 15.10
-4 5 9 o 0.62 0.35
-3 5 9 o 64.79 63.37
-2 5 9 o 10.56 7.58
-1 5 9 o 26.57 31.51
0 5 9 o 10.27 8.56
1 5 9 o 125.51 140.14
2 5 9 o 42.57 40.29
3 5 9 o 69.94 78.80
-4 6 9 o 2.59 2.93
-3 6 9 o 2.73 3.00
-2 6 9 o 0.33 0.10
-1 6 9 o 47.94 53.19
0 6 9 o 33.14 32.61
1 6 9 o 18.47 18.10
2 6 9 o 1.53 1.49
3 6 9 o 46.75 48.04
-3 7 9 o 16.41 15.84
-2 7 9 o 24.29 29.34
-1 7 9 o 1.30 0.83
0 7 9 o 51.24 50.61
1 7 9 o 49.21 45.74
2 7 9 o 46.13 48.56
3 7 9 o 0.89 1.22
-2 8 9 o 19.34 21.99
-1 8 9 o 66.86 76.03
0 8 9 o 7.13 6.24
1 8 9 o 12.25 14.04
2 8 9 o 29.40 31.91
3 8 9 o 0.51 0.02
0 -6 10 o 0.19 0.01
1 -6 10 o 0.62 0.39
2 -6 10 o 10.17 9.77
-2 -5 10 o 1.55 2.21
-1 -5 10 o 37.40 37.98
0 -5 10 o 69.44 73.84
1 -5 10 o 25.30 24.43
2 -5 10 o 118.31 104.63
3 -5 10 o 157.74 156.28
-3 -4 10 o 5.28 4.59
-2 -4 10 o 6.16 5.80
-1 -4 10 o 3.83 4.02
0 -4 10 o 41.97 38.26
1 -4 10 o 0.64 0.24
2 -4 10 o 8.29 7.69
3 -4 10 o 204.29 197.35
4 -4 10 o 71.67 66.67
-4 -3 10 o 35.49 34.98
-3 -3 10 o 236.88 222.74
-2 -3 10 o 15.09 14.38
-1 -3 10 o 30.20 30.65
0 -3 10 o 23.65 21.95
1 -3 10 o 131.45 139.77
2 -3 10 o 46.05 42.11
3 -3 10 o 13.19 8.98
4 -3 10 o 0.51 0.11
5 -3 10 o -0.21 0.03
-4 -2 10 o 98.66 95.68
-3 -2 10 o 76.18 82.55
-2 -2 10 o 16.22 16.30
-1 -2 10 o 166.25 181.98
0 -2 10 o 1.12 1.46
1 -2 10 o 7.72 7.38
2 -2 10 o 15.31 17.97
3 -2 10 o 23.60 25.23
4 -2 10 o 4.22 2.27
5 -2 10 o 25.78 25.68
-4 -1 10 o 67.54 68.19
-3 -1 10 o 3.19 3.95
-2 -1 10 o 240.30 234.60
-1 -1 10 o 110.57 115.48
0 -1 10 o 766.05 804.86
1 -1 10 o 158.13 145.38
2 -1 10 o 374.74 379.79
3 -1 10 o 29.76 28.12
4 -1 10 o 42.53 46.49
5 -1 10 o 17.27 15.50
6 -1 10 o 21.96 25.85
-5 0 10 o 2.35 3.37
-4 0 10 o 9.17 9.92
-3 0 10 o 51.56 54.79
-2 0 10 o 363.63 386.16
-1 0 10 o 81.35 91.21
0 0 10 o 179.55 181.99
1 0 10 o 11.33 11.50
2 0 10 o 8.92 7.09
3 0 10 o 4.33 5.65
4 0 10 o 44.52 44.10
5 0 10 o -0.51 0.12
6 0 10 o 9.94 11.77
-5 1 10 o 90.53 100.28
-4 1 10 o 0.35 1.24
-3 1 10 o 57.40 54.09
-2 1 10 o 2.44 1.97
-1 1 10 o 1053.29 1033.29
0 1 10 o 4.11 1.30
1 1 10 o 1857.65 1851.68
2 1 10 o 0.38 0.93
3 1 10 o 687.89 756.19
4 1 10 o 5.00 5.76
5 1 10 o 13.35 15.45
6 1 10 o 15.82 16.35
-5 2 10 o 8.80 8.34
-4 2 10 o 0.85 1.40
-3 2 10 o 66.17 68.70
-2 2 10 o 267.44 268.76
-1 2 10 o 91.62 96.12
0 2 10 o 56.09 61.94
1 2 10 o 11.73 11.42
2 2 10 o 1.51 0.84
3 2 10 o 8.44 8.95
4 2 10 o 138.29 145.84
5 2 10 o 0.63 0.39
6 2 10 o 3.98 4.87
-5 3 10 o 8.74 10.59
-4 3 10 o 23.57 24.14
-3 3 10 o 23.35 25.89
-2 3 10 o 199.95 189.00
-1 3 10 o 114.08 115.07
0 3 10 o 704.08 738.36
1 3 10 o 41.27 51.11
2 3 10 o 874.24 896.14
3 3 10 o 215.08 236.37
4 3 10 o 281.57 253.38
5 3 10 o 4.47 2.76
6 3 10 o 89.76 98.56
-4 4 10 o 74.54 83.09
-3 4 10 o 16.82 16.22
-2 4 10 o 1.74 0.31
-1 4 10 o 82.40 92.66
0 4 10 o 63.63 69.39
1 4 10 o 34.15 35.07
2 4 10 o 14.81 16.33
3 4 10 o 10.79 12.12
4 4 10 o 39.22 39.25
5 4 10 o 4.33 5.99
-4 5 10 o 3.49 2.89
-3 5 10 o 118.52 129.55
-2 5 10 o 1.52 0.88
-1 5 10 o 27.82 32.77
0 5 10 o 66.53 66.87
1 5 10 o 337.10 365.94
2 5 10 o 167.38 174.83
3 5 10 o 97.63 100.43
4 5 10 o 77.12 76.52
-3 6 10 o 16.83 20.02
-2 6 10 o 0.78 0.59
-1 6 10 o 0.50 1.03
0 6 10 o 73.47 73.80
1 6 10 o 0.19 0.23
2 6 10 o 0.92 0.64
3 6 10 o 3.95 4.93
-3 7 10 o 15.21 15.88
-2 7 10 o 52.43 57.62
-1 7 10 o 0.47 0.41
0 7 10 o 18.79 17.38
1 7 10 o 82.57 87.39
2 7 10 o 16.50 15.17
3 7 10 o 32.82 35.01
-2 8 10 o 16.33 15.73
-1 8 10 o 1.83 1.02
0 8 10 o 4.76 4.69
1 8 10 o 6.79 5.35
2 8 10 o 8.18 9.99
-1 -5 11 o 87.39 94.32
0 -5 11 o 16.24 20.36
1 -5 11 o 91.12 97.10
2 -5 11 o 2.16 0.40
3 -5 11 o 85.34 86.59
-2 -4 11 o 17.28 18.68
-1 -4 11 o 114.05 113.44
0 -4 11 o 10.09 8.53
1 -4 11 o 2.03 2.85
2 -4 11 o -0.41 3.09
3 -4 11 o 29.68 24.86
4 -4 11 o 44.66 40.96
-3 -3 11 o 15.77 16.27
-2 -3 11 o 4.61 3.10
-1 -3 11 o 35.76 33.08
0 -3 11 o 372.98 400.39
1 -3 11 o 18.63 17.29
2 -3 11 o 410.22 411.92
3 -3 11 o 47.49 38.21
4 -3 11 o 50.81 47.38
5 -3 11 o 1.39 0.94
-4 -2 11 o 27.23 23.72
-3 -2 11 o 0.52 0.06
-2 -2 11 o 4.96 4.26
-1 -2 11 o 95.98 105.48
0 -2 11 o 161.03 153.76
1 -2 11 o 4.90 4.99
2 -2 11 o 152.90 139.36
3 -2 11 o 298.95 293.69
4 -2 11 o 1.87 2.50
5 -2 11 o 42.63 40.38
-4 -1 11 o 90.36 89.38
-3 -1 11 o 22.59 21.81
-2 -1 11 o 56.65 58.93
-1 -1 11 o 20.29 15.18
0 -1 11 o 25.94 28.75
1 -1 11 o 603.32 642.97
2 -1 11 o 164.11 171.81
3 -1 11 o 12.94 16.34
4 -1 11 o 1.12 0.09
5 -1 11 o 12.82 10.17
-4 0 11 o 4.84 4.73
-3 0 11 o 12.84 14.42
-2 0 11 o 105.16 105.43
-1 0 11 o 2.99 3.12
0 0 11 o 53.34 60.76
1 0 11 o 0.69 1.46
2 0 11 o 297.51 300.57
3 0 11 o 43.41 42.22
4 0 11 o 82.63 91.64
5 0 11 o 4.38 4.49
6 0 11 o 6.11 7.61
-4 1 11 o 1.83 0.47
-3 1 11 o 17.12 13.46
-2 1 11 o 6.65 4.43
-1 1 11 o 382.39 401.94
0 1 11 o 7.12 7.11
1 1 11 o 7.89 5.84
2 1 11 o 9.38 11.19
3 1 11 o 27.78 24.01
4 1 11 o 22.97 21.37
5 1 11 o 4.94 6.36
6 1 11 o 25.34 28.15
-4 2 11 o 0.91 2.15
-3 2 11 o 22.08 22.10
-2 2 11 o 313.85 339.91
-1 2 11 o 49.20 46.89
0 2 11 o 59.98 59.46
1 2 11 o 1.48 2.52
2 2 11 o 15.93 16.46
3 2 11 o 1.82 1.27
4 2 11 o 1.14 2.12
5 2 11 o 0.80 0.38
6 2 11 o -0.23 0.26
-4 3 11 o 108.83 105.62
-3 3 11 o 8.19 7.16
-2 3 11 o 206.23 192.95
-1 3 11 o 148.21 163.49
0 3 11 o 736.54 731.50
1 3 11 o 254.66 266.40
2 3 11 o 353.65 346.98
3 3 11 o 98.52 109.83
4 3 11 o 35.63 33.25
5 3 11 o 17.79 18.23
-4 4 11 o 62.83 61.15
-3 4 11 o 94.26 99.26
-2 4 11 o 18.95 20.15
-1 4 11 o 275.67 306.04
0 4 11 o 2.39 2.00
1 4 11 o 11.42 14.62
2 4 11 o 2.48 2.79
3 4 11 o 42.08 42.26
4 4 11 o 20.55 21.10
5 4 11 o 3.98 4.83
-4 5 11 o 14.07 11.78
-3 5 11 o 179.00 168.97
-2 5 11 o 62.22 60.63
-1 5 11 o 108.63 111.39
0 5 11 o 435.44 493.81
1 5 11 o 242.34 260.07
2 5 11 o 422.26 491.84
3 5 11 o 61.99 53.95
4 5 11 o 47.26 48.15
-3 6 11 o 0.36 0.10
-2 6 11 o 18.68 16.27
-1 6 11 o 26.69 23.86
0 6 11 o 89.05 100.54
1 6 11 o 0.33 0.72
2 6 11 o 6.56 6.79
3 6 11 o 48.07 48.82
-2 7 11 o 38.01 36.12
-1 7 11 o 32.42 32.24
0 7 11 o 16.76 17.06
1 7 11 o 349.50 376.04
2 7 11 o 7.01 7.37
3 7 11 o 92.74 91.93
-1 8 11 o 4.92 4.29
0 8 11 o 41.14 42.26
1 8 11 o 5.17 5.81
2 8 11 o 10.84 10.68
0 -5 12 o 16.43 19.08
1 -5 12 o 22.80 25.88
-2 -4 12 o 0.21 0.06
-1 -4 12 o 21.54 22.29
0 -4 12 o 12.92 13.88
1 -4 12 o 9.45 2.99
2 -4 12 o 16.33 16.19
3 -4 12 o 11.08 13.32
-3 -3 12 o 3.59 5.01
-2 -3 12 o 57.58 57.50
-1 -3 12 o 16.49 13.78
0 -3 12 o 66.55 73.27
1 -3 12 o 29.83 26.16
2 -3 12 o 27.77 26.93
3 -3 12 o 15.61 18.36
4 -3 12 o 139.09 132.66
-3 -2 12 o 1.27 0.02
-2 -2 12 o 1.80 2.05
-1 -2 12 o 7.18 10.67
0 -2 12 o 1.38 1.14
1 -2 12 o 15.90 16.64
2 -2 12 o 1.75 0.62
3 -2 12 o 3.08 2.35
4 -2 12 o 6.30 6.07
5 -2 12 o 75.06 62.35
-4 -1 12 o -0.31 0.99
-3 -1 12 o 4.40 2.54
-2 -1 12 o 0.48 0.24
-1 -1 12 o 51.64 56.57
0 -1 12 o 169.66 185.03
1 -1 12 o 260.30 294.15
2 -1 12 o 113.07 107.76
3 -1 12 o 81.58 75.34
4 -1 12 o 82.35 79.60
5 -1 12 o 97.06 105.38
-4 0 12 o 2.83 1.67
-3 0 12 o -0.43 0.05
-2 0 12 o 22.10 29.56
-1 0 12 o 21.58 25.61
0 0 12 o 146.01 153.13
1 0 12 o 3.65 3.26
2 0 12 o 181.48 187.98
3 0 12 o 17.46 18.42
4 0 12 o 39.39 39.98
5 0 12 o 4.34 1.94
-4 1 12 o 32.51 29.95
-3 1 12 o 13.02 16.22
-2 1 12 o 24.24 23.40
-1 1 12 o 1.11 0.86
0 1 12 o 15.43 17.93
1 1 12 o 1191.59 1285.76
2 1 12 o 32.67 34.14
3 1 12 o 77.05 81.22
4 1 12 o 47.09 46.80
5 1 12 o 74.45 65.10
-4 2 12 o 3.37 2.14
-3 2 12 o 4.39 4.19
-2 2 12 o 3.83 3.14
-1 2 12 o 4.83 5.50
0 2 12 o 239.80 241.23
1 2 12 o 1.16 0.78
2 2 12 o 456.96 447.41
3 2 12 o 46.29 48.56
4 2 12 o 66.99 69.87
5 2 12 o 49.11 46.99
-4 3 12 o 14.10 13.66
-3 3 12 o 2.42 2.26
-2 3 12 o 39.33 36.02
-1 3 12 o 93.97 99.35
0 3 12 o 16.83 19.99
1 3 12 o 252.46 238.51
2 3 12 o 171.30 178.10
3 3 12 o 46.94 43.54
4 3 12 o 31.48 24.00
5 3 12 o 34.33 38.41
-4 4 12 o 37.60 36.99
-3 4 12 o 55.96 56.07
-2 4 12 o 17.42 19.36
-1 4 12 o 23.24 25.72
0 4 12 o 42.91 39.51
1 4 12 o 4.95 4.73
2 4 12 o 96.71 91.83
3 4 12 o 133.92 130.51
4 4 12 o 0.53 0.61
5 4 12 o 15.86 14.66
-3 5 12 o 154.69 143.72
-2 5 12 o 42.36 41.31
-1 5 12 o 23.85 22.29
0 5 12 o 139.26 150.59
1 5 12 o 68.05 62.79
2 5 12 o 11.22 11.47
3 5 12 o 17.38 15.99
4 5 12 o 44.79 47.19
-3 6 12 o 0.41 1.01
-2 6 12 o 25.37 25.43
-1 6 12 o 96.73 98.21
0 6 12 o 36.88 34.89
1 6 12 o 0.45 0.31
2 6 12 o 3.14 3.24
3 6 12 o 1.23 1.25
4 6 12 o 1.95 1.85
-2 7 12 o 75.55 67.21
-1 7 12 o 171.22 154.87
0 7 12 o 2.95 3.09
1 7 12 o 297.54 297.00
2 7 12 o 0.96 1.44
3 7 12 o 43.41 42.62
0 8 12 o 47.75 44.23
1 8 12 o 2.83 2.44
2 8 12 o 20.07 20.57
-1 -4 13 o 2.46 4.52
0 -4 13 o 26.22 29.43
1 -4 13 o 1.54 1.39
2 -4 13 o 32.86 32.93
-2 -3 13 o 91.53 95.54
-1 -3 13 o 69.38 73.35
0 -3 13 o 44.94 39.73
1 -3 13 o 50.42 40.60
2 -3 13 o 54.99 52.56
3 -3 13 o 53.59 59.23
4 -3 13 o 17.77 18.19
-2 -2 13 o 12.57 12.34
-1 -2 13 o 58.49 62.78
0 -2 13 o -0.44 0.00
1 -2 13 o 33.72 31.39
2 -2 13 o 1.98 0.53
3 -2 13 o 42.07 37.70
4 -2 13 o 2.43 2.82
-3 -1 13 o 85.75 84.97
-2 -1 13 o 90.01 88.44
-1 -1 13 o 37.90 37.00
0 -1 13 o 32.82 31.10
1 -1 13 o 4.02 5.74
2 -1 13 o 43.66 43.15
3 -1 13 o 23.67 16.74
4 -1 13 o 103.56 108.35
5 -1 13 o 11.04 10.25
-3 0 13 o 2.31 2.15
-2 0 13 o 5.09 5.61
-1 0 13 o 5.24 6.52
0 0 13 o 55.15 46.88
1 0 13 o 4.01 2.36
2 0 13 o -0.05 0.44
3 0 13 o -0.18 0.10
4 0 13 o 15.56 9.26
5 0 13 o 27.53 25.30
-3 1 13 o 29.32 25.78
-2 1 13 o 34.24 35.64
-1 1 13 o 121.66 122.49
0 1 13 o 31.31 34.37
1 1 13 o 49.44 52.61
2 1 13 o 21.79 22.82
3 1 13 o 138.60 116.13
4 1 13 o 0.66 0.91
5 1 13 o 162.35 166.76
-3 2 13 o 6.25 6.60
-2 2 13 o 4.61 8.80
-1 2 13 o 1.41 1.79
0 2 13 o 1.14 2.93
1 2 13 o 5.15 5.66
2 2 13 o 3.85 6.41
3 2 13 o 12.14 12.14
4 2 13 o 1.74 0.24
5 2 13 o 17.84 18.39
-3 3 13 o 48.58 51.74
-2 3 13 o 29.18 27.95
-1 3 13 o 14.14 11.17
0 3 13 o 277.89 288.39
1 3 13 o 64.57 65.47
2 3 13 o 225.62 228.20
3 3 13 o 3.22 3.51
4 3 13 o 140.84 140.00
5 3 13 o 20.10 19.13
-3 4 13 o 3.88 1.87
-2 4 13 o 0.70 0.56
-1 4 13 o 73.79 80.16
0 4 13 o 97.83 92.53
1 4 13 o 8.07 8.12
2 4 13 o 57.62 52.94
3 4 13 o 80.69 78.81
4 4 13 o 18.68 17.68
5 4 13 o 42.55 42.83
-3 5 13 o 3.70 3.53
-2 5 13 o 50.99 51.01
-1 5 13 o 93.88 88.87
0 5 13 o 130.00 125.84
1 5 13 o 2.77 1.62
2 5 13 o 141.97 138.64
3 5 13 o 215.16 207.07
4 5 13 o 0.64 0.03
-2 6 13 o 0.50 0.17
-1 6 13 o 51.35 49.17
0 6 13 o 51.64 45.16
1 6 13 o 2.33 2.14
2 6 13 o 11.67 10.68
3 6 13 o 142.49 139.83
-1 7 13 o 1.42 0.60
0 7 13 o 7.11 7.59
1 7 13 o 6.64 6.38
2 7 13 o 9.92 10.61
3 7 13 o 38.31 42.70
-1 -3 14 o 55.37 62.28
0 -3 14 o 46.70 46.93
1 -3 14 o 111.57 99.53
2 -3 14 o 16.98 15.44
3 -3 14 o 21.87 22.46
-2 -2 14 o 1.17 0.21
-1 -2 14 o 2.88 3.95
0 -2 14 o 2.76 3.10
1 -2 14 o 32.38 34.16
2 -2 14 o 6.69 6.80
3 -2 14 o 41.51 45.05
-2 -1 14 o 143.67 138.59
-1 -1 14 o 10.44 9.59
0 -1 14 o 195.45 202.46
1 -1 14 o 34.62 32.60
2 -1 14 o 187.29 184.55
3 -1 14 o 7.69 5.35
4 -1 14 o 66.09 59.47
-3 0 14 o 2.16 0.31
-2 0 14 o 17.58 23.14
-1 0 14 o 7.35 9.26
0 0 14 o 12.00 7.80
1 0 14 o 15.75 16.33
2 0 14 o 77.74 76.80
3 0 14 o 37.59 34.72
4 0 14 o 81.55 75.07
-3 1 14 o 181.81 191.07
-2 1 14 o 0.70 0.24
-1 1 14 o 104.92 99.16
0 1 14 o 1.68 1.49
1 1 14 o 156.39 154.52
2 1 14 o 0.69 0.71
3 1 14 o 136.57 119.31
4 1 14 o 7.29 7.52
5 1 14 o 29.24 27.96
-3 2 14 o 1.95 0.02
-2 2 14 o 36.14 42.85
-1 2 14 o 4.56 4.65
0 2 14 o 44.61 36.39
1 2 14 o 16.08 14.08
2 2 14 o 9.42 9.84
3 2 14 o 26.10 22.92
4 2 14 o 48.46 40.48
5 2 14 o 16.92 11.33
-3 3 14 o 7.92 6.25
-2 3 14 o 117.75 126.00
-1 3 14 o 0.77 0.37
0 3 14 o 86.67 79.62
1 3 14 o 19.42 17.62
2 3 14 o 63.72 56.06
3 3 14 o 22.04 16.64
4 3 14 o 58.96 56.31
5 3 14 o 28.24 28.18
-3 4 14 o 0.31 0.49
-2 4 14 o 5.05 6.29
-1 4 14 o 16.58 13.56
0 4 14 o 2.83 2.57
1 4 14 o 15.39 13.53
2 4 14 o 37.91 33.93
3 4 14 o -0.26 0.33
4 4 14 o 9.68 13.15
-2 5 14 o 2.89 1.85
-1 5 14 o 112.13 110.00
0 5 14 o 12.27 12.16
1 5 14 o 120.81 110.56
2 5 14 o 1.00 1.03
3 5 14 o 46.76 46.78
4 5 14 o 55.15 53.23
-1 6 14 o 16.98 18.01
0 6 14 o 8.85 8.76
1 6 14 o 1.07 1.05
2 6 14 o 5.71 5.13
3 6 14 o 7.44 10.50
0 7 14 o 0.41 0.16
1 7 14 o 26.60 25.95
2 7 14 o 16.10 17.20
-1 -2 15 o 9.05 9.53
0 -2 15 o 0.49 0.27
1 -2 15 o -0.21 0.11
2 -2 15 o 7.73 9.57
3 -2 15 o 9.86 11.83
-1 -1 15 o 10.68 7.16
0 -1 15 o 74.52 69.04
1 -1 15 o 17.06 16.00
2 -1 15 o 21.10 19.93
3 -1 15 o -0.46 0.45
-2 0 15 o 1.34 1.10
-1 0 15 o 6.27 6.04
0 0 15 o 24.42 21.72
1 0 15 o 15.26 16.13
2 0 15 o 1.04 0.11
3 0 15 o 8.56 9.58
4 0 15 o -0.05 0.01
-2 1 15 o 8.34 8.44
-1 1 15 o 240.15 226.87
0 1 15 o 9.02 11.50
1 1 15 o 171.38 163.93
2 1 15 o 11.95 11.79
3 1 15 o 105.39 93.96
4 1 15 o 8.10 6.83
-2 2 15 o 1.34 0.99
-1 2 15 o 0.03 0.02
0 2 15 o 16.68 12.92
1 2 15 o 5.93 6.11
2 2 15 o 67.76 64.04
3 2 15 o 13.69 10.10
4 2 15 o 68.07 66.34
-2 3 15 o 90.78 84.72
-1 3 15 o 33.96 31.45
0 3 15 o 172.04 161.89
1 3 15 o 94.60 97.94
2 3 15 o 154.88 136.09
3 3 15 o 55.30 49.01
4 3 15 o 33.24 30.26
-2 4 15 o 5.66 8.23
-1 4 15 o 9.45 10.27
0 4 15 o -0.37 0.50
1 4 15 o 37.83 33.89
2 4 15 o -0.06 0.03
3 4 15 o 95.48 89.96
4 4 15 o 0.41 0.10
-1 5 15 o 63.77 65.98
0 5 15 o 27.89 22.31
1 5 15 o 58.92 51.24
2 5 15 o 54.24 48.21
3 5 15 o 19.44 17.99
0 6 15 o 7.39 6.79
1 6 15 o 0.68 0.23
2 6 15 o 30.32 27.78
0 -1 16 o 0.13 0.54
1 -1 16 o 0.43 0.95
2 -1 16 o 9.22 8.73
-1 0 16 o -0.22 0.91
0 0 16 o 3.93 2.36
1 0 16 o 0.47 0.04
2 0 16 o 7.24 9.54
3 0 16 o 2.05 1.44
0 1 16 o 9.22 11.67
1 1 16 o 0.92 1.84
2 1 16 o 6.22 8.61
3 1 16 o 9.63 8.54
-1 2 16 o 0.19 0.17
0 2 16 o 30.08 29.51
1 2 16 o 0.72 0.47
2 2 16 o 3.32 1.83
3 2 16 o 10.17 11.57
4 2 16 o 5.55 3.04
-1 3 16 o 92.41 86.13
0 3 16 o 50.13 44.66
1 3 16 o 7.66 9.44
2 3 16 o 9.00 7.92
3 3 16 o 28.56 24.52
-1 4 16 o 4.21 2.77
0 4 16 o 7.71 5.62
1 4 16 o 22.38 20.47
2 4 16 o 0.65 0.33
3 4 16 o 10.70 9.45
0 5 16 o 156.92 141.26
1 5 16 o 36.31 30.66
2 5 16 o 89.02 87.65
1 0 17 o 11.30 12.58
0 1 17 o 3.61 4.75
1 1 17 o 3.59 3.50
2 1 17 o 1.03 1.23
0 2 17 o 40.57 31.24
1 2 17 o 14.31 12.99
2 2 17 o 3.70 3.13
0 3 17 o 8.11 9.34
1 3 17 o 8.63 8.32
2 3 17 o 20.01 21.86
1 4 17 o 2.77 2.54
