#------------------------------------------------------------------------------
#$Date: 2016-02-20 00:18:51 +0200 (Sat, 20 Feb 2016) $
#$Revision: 176760 $
#$URL: svn://www.crystallography.net/cod/cif/2/01/95/2019539.cif $
#------------------------------------------------------------------------------
#
# This file is available in the Crystallography Open Database (COD),
# http://www.crystallography.net/. The original data for this entry
# were provided by IUCr Journals, http://journals.iucr.org/.
#
# The file may be used within the scientific community so long as
# proper attribution is given to the journal article from which the
# data were obtained.
#
data_2019539
loop_
_publ_author_name
'Yang, Wei'
'Fu, Qiang'
'Zhao, Jing'
'Cheng, Huan-Ren'
'Shi, Yao-Cheng'
_publ_section_title
;
 Two Fe~3~(\m~3~-S)~2~(CO)~8~ clusters with terminal N-heterocyclic
 carbenes
;
_journal_coeditor_code           WQ3060
_journal_issue                   6
_journal_name_full               'Acta Crystallographica Section C'
_journal_page_first              528
_journal_page_last               532
_journal_paper_doi               10.1107/S2053229614009310
_journal_volume                  70
_journal_year                    2014
_chemical_formula_iupac          '[Fe3 (C8 H8 N2) S2 (C O)8]'
_chemical_formula_moiety         'C16 H8 Fe3 N2 O8 S2'
_chemical_formula_sum            'C16 H8 Fe3 N2 O8 S2'
_chemical_formula_weight         587.93
_chemical_name_systematic
'Octacarbonyl(1-methylimidazo[1,5-<i>a</i>]pyridin-3-yl-\k<i>C</i>^3^)di-\m~3~-sulfido-triiron(II)(2 <i>Fe</i>---<i>Fe</i>)'
_space_group_IT_number           2
_space_group_name_Hall           '-P 1'
_symmetry_cell_setting           triclinic
_symmetry_space_group_name_Hall  '-P 1'
_symmetry_space_group_name_H-M   'P -1'
_atom_sites_solution_hydrogens   geom
_atom_sites_solution_primary     direct
_atom_sites_solution_secondary   difmap
_audit_creation_method           SHELXL97
_cell_angle_alpha                108.477(5)
_cell_angle_beta                 107.608(2)
_cell_angle_gamma                96.455(8)
_cell_formula_units_Z            2
_cell_length_a                   8.9723(12)
_cell_length_b                   11.1249(11)
_cell_length_c                   12.0611(16)
_cell_measurement_reflns_used    4073
_cell_measurement_temperature    296
_cell_measurement_theta_max      27.53
_cell_measurement_theta_min      1.91
_cell_volume                     1059.1(2)
_computing_cell_refinement       'SAINT-Plus (Bruker, 2003)'
_computing_data_collection       'SMART (Bruker, 2002)'
_computing_data_reduction        'SAINT-Plus (Bruker, 2003)'
_computing_molecular_graphics
;
PLATON (Spek, 2009) and WinGX (Farrugia, 2012)
;
_computing_publication_material  'publCIF (Westrip, 2010)'
_computing_structure_refinement  'SHELXTL (Sheldrick, 2008<i>b</i>)'
_computing_structure_solution    'SIR2004 (Burla <i>et al.</i>, 2005)'
_diffrn_ambient_temperature      296
_diffrn_measured_fraction_theta_full 0.978
_diffrn_measured_fraction_theta_max 0.978
_diffrn_measurement_device_type  'Bruker APEXII CCD area-detector'
_diffrn_measurement_method       '\f and \w'
_diffrn_radiation_monochromator  graphite
_diffrn_radiation_source         'fine-focus sealed tube'
_diffrn_radiation_type           MoK\a
_diffrn_radiation_wavelength     0.71073
_diffrn_reflns_av_R_equivalents  0.0321
_diffrn_reflns_av_sigmaI/netI    0.0417
_diffrn_reflns_limit_h_max       11
_diffrn_reflns_limit_h_min       -11
_diffrn_reflns_limit_k_max       14
_diffrn_reflns_limit_k_min       -14
_diffrn_reflns_limit_l_max       15
_diffrn_reflns_limit_l_min       -14
_diffrn_reflns_number            9290
_diffrn_reflns_theta_full        27.53
_diffrn_reflns_theta_max         27.53
_diffrn_reflns_theta_min         1.91
_exptl_absorpt_coefficient_mu    2.270
_exptl_absorpt_correction_T_max  0.741
_exptl_absorpt_correction_T_min  0.697
_exptl_absorpt_correction_type   multi-scan
_exptl_absorpt_process_details   '(SADABS; Sheldrick, 2008<i>a</i>)'
_exptl_crystal_colour            red-purple
_exptl_crystal_density_diffrn    1.844
_exptl_crystal_density_method    'not measured'
_exptl_crystal_description       block
_exptl_crystal_F_000             584
_exptl_crystal_size_max          0.17
_exptl_crystal_size_mid          0.13
_exptl_crystal_size_min          0.13
_refine_diff_density_max         0.317
_refine_diff_density_min         -0.292
_refine_ls_extinction_method     none
_refine_ls_goodness_of_fit_ref   1.062
_refine_ls_hydrogen_treatment    mixed
_refine_ls_matrix_type           full
_refine_ls_number_parameters     285
_refine_ls_number_reflns         4784
_refine_ls_number_restraints     0
_refine_ls_restrained_S_all      1.062
_refine_ls_R_factor_all          0.0348
_refine_ls_R_factor_gt           0.0284
_refine_ls_shift/su_max          0.001
_refine_ls_shift/su_mean         0.000
_refine_ls_structure_factor_coef Fsqd
_refine_ls_weighting_details
'calc w = 1/[\s^2^(Fo^2^)+(0.0392P)^2^+0.0391P] where P=(Fo^2^+2Fc^2^)/3'
_refine_ls_weighting_scheme      calc
_refine_ls_wR_factor_gt          0.0766
_refine_ls_wR_factor_ref         0.0807
_reflns_number_gt                4073
_reflns_number_total             4784
_reflns_threshold_expression     I>2\s(I)
_iucr_refine_instructions_details
;
TITL  in P-1
CELL  0.71073    8.9723   11.1249   12.0611   108.477   107.608    96.455
ZERR  2           0.0012    0.0011    0.0016     0.005     0.002     0.008
LATT 1
SFAC C  H  Fe N  O  S
UNIT 32 16 6 4 16 4
OMIT -7   9   3
OMIT  2  -1   1
OMIT 5  -1   2
OMIT -4   4   2
L.S. 20
ACTA
BOND $H
FMAP 2
PLAN 1
SIZE 0.17 0.13 0.13
HTAB C16 O5_$2
HTAB N1 S1_$1
EQIV $2 2-X, 2-Y, 2-Z
EQIV $1 1-X, 1-Y, 1-Z
WGHT  0.039200  0.039100
FVAR  0.530340
TEMP 23
C1     1   0.357350  0.654958  0.634399 11.000000  0.043930  0.065140 =
           0.057510  0.025410  0.025060  0.014270
C2     1   0.472068  0.891071  0.794450 11.000000  0.048050  0.065170 =
           0.054540  0.026340  0.023410  0.021020
C3     1   0.965326  0.742083  0.671894 11.000000  0.054300  0.068250 =
           0.074640  0.037050  0.040900  0.024490
C4     1   0.992493  0.543648  0.758826 11.000000  0.043590  0.045830 =
           0.060410  0.016080  0.021920  0.009620
C5     1   1.114164  0.781797  0.919739 11.000000  0.047350  0.047110 =
           0.064230  0.011160  0.024680  0.016850
C6     1   0.522725  0.653967  0.902088 11.000000  0.050990  0.068290 =
           0.061050  0.027890  0.031110  0.020680
C7     1   0.813091  0.793797  1.061519 11.000000  0.054030  0.087310 =
           0.051440  0.025950  0.023720  0.015890
C8     1   0.782232  0.544144  0.927994 11.000000  0.054560  0.070730 =
           0.061870  0.037610  0.029820  0.021700
C9     1   0.583492  0.807645  0.590909 11.000000  0.041890  0.043520 =
           0.048960  0.020790  0.019280  0.013290
C10    1   0.610739  0.710324  0.275400 11.000000  0.112920  0.072810 =
           0.056590  0.014150  0.044130 -0.001170
AFIX 137
H10A   2   0.684085  0.653875  0.278310 11.000000 -1.500000
H10B   2   0.640356  0.771220  0.240101 11.000000 -1.500000
H10C   2   0.503642  0.659360  0.224517 11.000000 -1.500000
AFIX 0
C11    1   0.617112  0.782048  0.403791 11.000000  0.057290  0.051900 =
           0.046840  0.020630  0.021720  0.008590
C12    1   0.679623  0.910689  0.479964 11.000000  0.046910  0.050180 =
           0.049910  0.024340  0.018830  0.011400
C13    1   0.759301  1.021113  0.468050 11.000000  0.063190  0.060080 =
           0.064260  0.034860  0.024260  0.008160
AFIX 43
H13    2   0.779685  1.013146  0.395197 11.000000 -1.200000
AFIX 0
C14    1   0.804911  1.137015  0.562786 11.000000  0.074290  0.052260 =
           0.072770  0.031530  0.025000  0.003440
AFIX 43
H14    2   0.856438  1.209815  0.555327 11.000000 -1.200000
AFIX 0
C15    1   0.774671  1.149070  0.675039 11.000000  0.072570  0.042070 =
           0.070610  0.017800  0.023110  0.008520
AFIX 43
H15    2   0.804608  1.230516  0.738979 11.000000 -1.200000
AFIX 0
C16    1   0.704275  1.045968  0.690442 11.000000  0.058740  0.045730 =
           0.052330  0.015170  0.019580  0.013660
AFIX 43
H16    2   0.688070  1.055353  0.765055 11.000000 -1.200000
AFIX 0
Fe1    3   0.554204  0.758648  0.725264 11.000000  0.038860  0.046840 =
           0.045990  0.021750  0.020650  0.013860
Fe2    3   0.926832  0.694946  0.791058 11.000000  0.038110  0.038230 =
           0.047850  0.016070  0.022110  0.010340
Fe3    3   0.722094  0.683883  0.901122 11.000000  0.040960  0.051900 =
           0.045070  0.023560  0.022670  0.014550
H1N    2   0.511636  0.644383  0.443232 11.000000  0.062560
N1     4   0.562368  0.725243  0.474471 11.000000  0.055340  0.039810 =
           0.048120  0.016200  0.021630  0.005640
N2     4   0.655511  0.924384  0.593461 11.000000  0.044860  0.043720 =
           0.046340  0.020130  0.018250  0.011800
O1     5   0.234393  0.588127  0.577558 11.000000  0.047950  0.097860 =
           0.089640  0.022780  0.019210  0.000270
O2     5   0.416134  0.970745  0.838336 11.000000  0.080560  0.082500 =
           0.083690  0.023900  0.044190  0.046610
O3     5   0.986000  0.774429  0.596578 11.000000  0.107540  0.139520 =
           0.119240  0.090550  0.079310  0.052010
O4     5   1.031525  0.448205  0.737538 11.000000  0.071270  0.048210 =
           0.112940  0.018520  0.034350  0.024310
O5     5   1.230654  0.835163  1.001652 11.000000  0.056150  0.075660 =
           0.082780 -0.007020  0.008530  0.013800
O6     5   0.400662  0.626322  0.910808 11.000000  0.056840  0.109820 =
           0.102380  0.045270  0.050400  0.022260
O7     5   0.868985  0.865890  1.162512 11.000000  0.088180  0.128840 =
           0.049340  0.011680  0.020190  0.011380
O8     5   0.815439  0.452609  0.942053 11.000000  0.093370  0.085110 =
           0.106080  0.064380  0.045900  0.041400
S1     6   0.667795  0.587247  0.692273 11.000000  0.041640  0.038630 =
           0.045840  0.016300  0.019340  0.007110
S2     6   0.806928  0.855702  0.857430 11.000000  0.043560  0.038000 =
           0.049760  0.014890  0.020220  0.012350
HKLF 4
Q1     1   0.572400  0.757200  0.423300 11.000000  0.050000      0.32
END
;
_cod_data_source_file            wq3060sup1.cif
_cod_data_source_block           2
_cod_depositor_comments
'Adding full bibliography for 2019538--2019539.cif.'
_cod_database_code               2019539
_cod_database_fobs_code          2019539
loop_
_symmetry_equiv_pos_as_xyz
'x, y, z'
'-x, -y, -z'
loop_
_atom_site_type_symbol
_atom_site_label
_atom_site_fract_x
_atom_site_fract_y
_atom_site_fract_z
_atom_site_U_iso_or_equiv
_atom_site_adp_type
_atom_site_calc_flag
_atom_site_refinement_flags
_atom_site_occupancy
_atom_site_symmetry_multiplicity
C C1 0.3574(3) 0.6550(2) 0.6344(2) 0.0530(5) Uani d . 1 1
C C2 0.4721(3) 0.8911(2) 0.7945(2) 0.0529(5) Uani d . 1 1
C C3 0.9653(3) 0.7421(2) 0.6719(3) 0.0577(6) Uani d . 1 1
C C4 0.9925(3) 0.5436(2) 0.7588(2) 0.0501(5) Uani d . 1 1
C C5 1.1142(3) 0.7818(2) 0.9197(2) 0.0537(6) Uani d . 1 1
C C6 0.5227(3) 0.6540(2) 0.9021(2) 0.0558(6) Uani d . 1 1
C C7 0.8131(3) 0.7938(3) 1.0615(2) 0.0631(6) Uani d . 1 1
C C8 0.7822(3) 0.5441(2) 0.9280(2) 0.0562(6) Uani d . 1 1
C C9 0.5835(2) 0.80764(19) 0.5909(2) 0.0428(4) Uani d . 1 1
C C10 0.6107(4) 0.7103(3) 0.2754(3) 0.0819(9) Uani d . 1 1
H H10A 0.6841 0.6539 0.2783 0.123 Uiso calc R 1 1
H H10B 0.6404 0.7712 0.2401 0.123 Uiso calc R 1 1
H H10C 0.5036 0.6594 0.2245 0.123 Uiso calc R 1 1
C C11 0.6171(3) 0.7820(2) 0.4038(2) 0.0510(5) Uani d . 1 1
C C12 0.6796(3) 0.9107(2) 0.4800(2) 0.0471(5) Uani d . 1 1
C C13 0.7593(3) 1.0211(2) 0.4681(2) 0.0596(6) Uani d . 1 1
H H13 0.7797 1.0131 0.3952 0.072 Uiso calc R 1 1
C C14 0.8049(3) 1.1370(2) 0.5628(3) 0.0656(7) Uani d . 1 1
H H14 0.8564 1.2098 0.5553 0.079 Uiso calc R 1 1
C C15 0.7747(3) 1.1491(2) 0.6750(3) 0.0636(7) Uani d . 1 1
H H15 0.8046 1.2305 0.7390 0.076 Uiso calc R 1 1
C C16 0.7043(3) 1.0460(2) 0.6904(2) 0.0530(5) Uani d . 1 1
H H16 0.6881 1.0554 0.7651 0.064 Uiso calc R 1 1
Fe Fe1 0.55420(3) 0.75865(3) 0.72526(3) 0.04104(9) Uani d . 1 1
Fe Fe2 0.92683(3) 0.69495(3) 0.79106(3) 0.03959(9) Uani d . 1 1
Fe Fe3 0.72209(4) 0.68388(3) 0.90112(3) 0.04242(9) Uani d . 1 1
H H1N 0.512(3) 0.644(3) 0.443(2) 0.063(7) Uiso d . 1 1
N N1 0.5624(2) 0.72524(17) 0.47447(18) 0.0475(4) Uani d . 1 1
N N2 0.6555(2) 0.92438(16) 0.59346(16) 0.0435(4) Uani d . 1 1
O O1 0.2344(2) 0.5881(2) 0.5776(2) 0.0844(6) Uani d . 1 1
O O2 0.4161(3) 0.9707(2) 0.83834(19) 0.0780(6) Uani d . 1 1
O O3 0.9860(3) 0.7744(3) 0.5966(2) 0.0995(8) Uani d . 1 1
O O4 1.0315(2) 0.44821(17) 0.7375(2) 0.0792(6) Uani d . 1 1
O O5 1.2307(2) 0.8352(2) 1.0017(2) 0.0851(6) Uani d . 1 1
O O6 0.4007(2) 0.6263(2) 0.9108(2) 0.0825(6) Uani d . 1 1
O O7 0.8690(3) 0.8659(3) 1.16251(19) 0.0966(7) Uani d . 1 1
O O8 0.8154(3) 0.4526(2) 0.9421(2) 0.0831(6) Uani d . 1 1
S S1 0.66779(6) 0.58725(5) 0.69227(5) 0.04116(12) Uani d . 1 1
S S2 0.80693(6) 0.85570(5) 0.85743(5) 0.04302(13) Uani d . 1 1
loop_
_atom_site_aniso_label
_atom_site_aniso_U_11
_atom_site_aniso_U_22
_atom_site_aniso_U_33
_atom_site_aniso_U_12
_atom_site_aniso_U_13
_atom_site_aniso_U_23
C1 0.0439(13) 0.0651(14) 0.0575(14) 0.0143(11) 0.0251(11) 0.0254(12)
C2 0.0481(13) 0.0652(14) 0.0545(14) 0.0210(11) 0.0234(11) 0.0263(11)
C3 0.0543(14) 0.0683(14) 0.0746(17) 0.0245(11) 0.0409(13) 0.0371(13)
C4 0.0436(12) 0.0458(11) 0.0604(14) 0.0096(9) 0.0219(11) 0.0161(10)
C5 0.0474(13) 0.0471(11) 0.0642(15) 0.0168(10) 0.0247(12) 0.0112(11)
C6 0.0510(14) 0.0683(14) 0.0610(15) 0.0207(11) 0.0311(12) 0.0279(12)
C7 0.0540(15) 0.0873(18) 0.0514(15) 0.0159(13) 0.0237(12) 0.0260(13)
C8 0.0546(14) 0.0707(15) 0.0619(15) 0.0217(12) 0.0298(12) 0.0376(13)
C9 0.0419(11) 0.0435(10) 0.0490(12) 0.0133(8) 0.0193(9) 0.0208(9)
C10 0.113(3) 0.0728(17) 0.0566(16) -0.0012(16) 0.0441(17) 0.0141(13)
C11 0.0573(14) 0.0519(12) 0.0468(12) 0.0086(10) 0.0217(11) 0.0206(10)
C12 0.0469(12) 0.0502(11) 0.0499(12) 0.0114(9) 0.0188(10) 0.0243(10)
C13 0.0632(15) 0.0601(14) 0.0643(16) 0.0082(11) 0.0243(12) 0.0349(13)
C14 0.0743(17) 0.0523(13) 0.0728(17) 0.0034(12) 0.0250(14) 0.0315(13)
C15 0.0726(17) 0.0421(11) 0.0706(17) 0.0085(11) 0.0231(14) 0.0178(11)
C16 0.0587(14) 0.0457(11) 0.0523(13) 0.0137(10) 0.0196(11) 0.0152(10)
Fe1 0.03886(17) 0.04684(16) 0.04599(18) 0.01386(12) 0.02065(14) 0.02175(13)
Fe2 0.03811(17) 0.03823(15) 0.04785(18) 0.01034(12) 0.02211(13) 0.01607(13)
Fe3 0.04096(18) 0.05190(17) 0.04507(18) 0.01455(13) 0.02267(14) 0.02356(14)
N1 0.0553(11) 0.0398(9) 0.0481(10) 0.0056(8) 0.0216(9) 0.0162(8)
N2 0.0449(10) 0.0437(9) 0.0463(10) 0.0118(7) 0.0182(8) 0.0201(8)
O1 0.0480(11) 0.0979(15) 0.0896(15) 0.0003(10) 0.0192(11) 0.0228(12)
O2 0.0806(13) 0.0825(13) 0.0837(14) 0.0466(11) 0.0442(12) 0.0239(11)
O3 0.1075(18) 0.140(2) 0.1192(19) 0.0520(16) 0.0793(16) 0.0906(18)
O4 0.0713(13) 0.0482(10) 0.1129(17) 0.0243(9) 0.0344(12) 0.0185(10)
O5 0.0562(12) 0.0757(12) 0.0828(14) 0.0138(10) 0.0085(11) -0.0070(11)
O6 0.0568(11) 0.1098(16) 0.1024(16) 0.0223(10) 0.0504(11) 0.0453(13)
O7 0.0882(16) 0.1288(19) 0.0493(12) 0.0114(14) 0.0202(11) 0.0117(12)
O8 0.0934(15) 0.0851(13) 0.1061(17) 0.0414(11) 0.0459(13) 0.0644(13)
S1 0.0416(3) 0.0386(2) 0.0458(3) 0.0071(2) 0.0193(2) 0.0163(2)
S2 0.0436(3) 0.0380(2) 0.0498(3) 0.0124(2) 0.0202(2) 0.0149(2)
loop_
_atom_type_symbol
_atom_type_description
_atom_type_scat_dispersion_real
_atom_type_scat_dispersion_imag
_atom_type_scat_source
C C 0.0033 0.0016 'International Tables Vol C Tables 4.2.6.8 and 6.1.1.4'
H H 0.0000 0.0000 'International Tables Vol C Tables 4.2.6.8 and 6.1.1.4'
Fe Fe 0.3463 0.8444 'International Tables Vol C Tables 4.2.6.8 and 6.1.1.4'
N N 0.0061 0.0033 'International Tables Vol C Tables 4.2.6.8 and 6.1.1.4'
O O 0.0106 0.0060 'International Tables Vol C Tables 4.2.6.8 and 6.1.1.4'
S S 0.1246 0.1234 'International Tables Vol C Tables 4.2.6.8 and 6.1.1.4'
loop_
_geom_angle_atom_site_label_1
_geom_angle_atom_site_label_2
_geom_angle_atom_site_label_3
_geom_angle
_geom_angle_publ_flag
O1 C1 Fe1 178.9(2) ?
O2 C2 Fe1 177.2(2) ?
O3 C3 Fe2 177.7(2) ?
O4 C4 Fe2 179.1(2) ?
O5 C5 Fe2 178.8(3) ?
O6 C6 Fe3 172.1(2) y
O7 C7 Fe3 178.3(3) y
O8 C8 Fe3 177.6(2) ?
N1 C9 N2 102.41(17) y
N1 C9 Fe1 126.24(14) y
N2 C9 Fe1 130.37(16) y
C11 C10 H10A 109.5 ?
C11 C10 H10B 109.5 ?
H10A C10 H10B 109.5 ?
C11 C10 H10C 109.5 ?
H10A C10 H10C 109.5 ?
H10B C10 H10C 109.5 ?
C12 C11 N1 105.01(19) ?
C12 C11 C10 130.7(2) ?
N1 C11 C10 124.2(2) ?
C11 C12 N2 106.24(17) ?
C11 C12 C13 134.6(2) ?
N2 C12 C13 119.2(2) ?
C14 C13 C12 119.4(2) ?
C14 C13 H13 120.3 ?
C12 C13 H13 120.3 ?
C13 C14 C15 120.3(2) ?
C13 C14 H14 119.9 ?
C15 C14 H14 119.9 ?
C16 C15 C14 121.6(2) ?
C16 C15 H15 119.2 ?
C14 C15 H15 119.2 ?
C15 C16 N2 119.3(2) ?
C15 C16 H16 120.3 ?
N2 C16 H16 120.3 ?
C1 Fe1 C2 91.72(11) ?
C1 Fe1 C9 95.87(10) ?
C2 Fe1 C9 99.14(10) ?
C1 Fe1 S2 167.63(8) ?
C2 Fe1 S2 94.02(8) ?
C9 Fe1 S2 94.02(7) ?
C1 Fe1 S1 91.33(8) ?
C2 Fe1 S1 163.43(8) ?
C9 Fe1 S1 96.75(6) ?
S2 Fe1 S1 80.14(2) ?
C1 Fe1 Fe3 113.41(8) ?
C2 Fe1 Fe3 109.23(8) ?
C9 Fe1 Fe3 137.75(6) ?
S2 Fe1 Fe3 54.301(16) ?
S1 Fe1 Fe3 54.850(17) ?
C3 Fe2 C5 99.42(12) ?
C3 Fe2 C4 98.80(11) ?
C5 Fe2 C4 92.05(10) ?
C3 Fe2 S2 96.58(8) ?
C5 Fe2 S2 91.21(7) ?
C4 Fe2 S2 163.53(7) ?
C3 Fe2 S1 101.03(9) ?
C5 Fe2 S1 158.50(8) ?
C4 Fe2 S1 91.32(7) ?
S2 Fe2 S1 79.95(2) ?
C3 Fe2 Fe3 143.35(8) ?
C5 Fe2 Fe3 103.38(8) ?
C4 Fe2 Fe3 108.57(7) ?
S2 Fe2 Fe3 55.001(17) ?
S1 Fe2 Fe3 55.565(18) ?
C6 Fe3 C8 99.40(11) ?
C6 Fe3 C7 95.81(12) ?
C8 Fe3 C7 95.94(12) ?
C6 Fe3 S2 118.87(8) ?
C8 Fe3 S2 141.52(8) ?
C7 Fe3 S2 84.66(9) ?
C6 Fe3 S1 99.32(8) ?
C8 Fe3 S1 91.40(8) ?
C7 Fe3 S1 161.87(9) ?
S2 Fe3 S1 79.33(2) ?
C6 Fe3 Fe2 153.00(8) ?
C8 Fe3 Fe2 89.34(7) ?
C7 Fe3 Fe2 108.72(8) ?
S2 Fe3 Fe2 54.822(16) ?
S1 Fe3 Fe2 54.672(17) ?
C6 Fe3 Fe1 76.04(8) ?
C8 Fe3 Fe1 142.49(9) ?
C7 Fe3 Fe1 121.48(9) ?
S2 Fe3 Fe1 53.950(18) ?
S1 Fe3 Fe1 53.854(17) ?
Fe2 Fe3 Fe1 81.492(15) y
C9 N1 C11 114.84(18) ?
C9 N1 H1N 123.7(17) ?
C11 N1 H1N 121.3(17) ?
C9 N2 C16 128.35(19) ?
C9 N2 C12 111.49(17) ?
C16 N2 C12 120.16(18) ?
Fe1 S1 Fe2 98.60(2) y
Fe1 S1 Fe3 71.297(19) ?
Fe2 S1 Fe3 69.763(19) ?
Fe1 S2 Fe2 98.75(2) y
Fe1 S2 Fe3 71.75(2) ?
Fe2 S2 Fe3 70.177(19) ?
loop_
_geom_bond_atom_site_label_1
_geom_bond_atom_site_label_2
_geom_bond_distance
_geom_bond_publ_flag
C1 O1 1.129(3) ?
C1 Fe1 1.795(2) ?
C2 O2 1.132(3) ?
C2 Fe1 1.802(2) ?
C3 O3 1.133(3) ?
C3 Fe2 1.788(2) ?
C4 O4 1.132(3) ?
C4 Fe2 1.811(2) ?
C5 O5 1.134(3) ?
C5 Fe2 1.809(3) ?
C6 O6 1.149(3) ?
C6 Fe1 2.802(2) y
C6 Fe3 1.787(2) ?
C7 O7 1.140(3) ?
C7 Fe3 1.796(3) ?
C8 O8 1.141(3) ?
C8 Fe3 1.793(2) ?
C9 N1 1.354(3) y
C9 N2 1.371(2) y
C9 Fe1 1.944(2) y
C10 C11 1.480(3) ?
C10 H10A 0.9600 ?
C10 H10B 0.9600 ?
C10 H10C 0.9600 ?
C11 C12 1.372(3) ?
C11 N1 1.376(3) ?
C12 N2 1.414(3) ?
C12 C13 1.420(3) ?
C13 C14 1.342(4) ?
C13 H13 0.9300 ?
C14 C15 1.428(4) ?
C14 H14 0.9300 ?
C15 C16 1.339(3) ?
C15 H15 0.9300 ?
C16 N2 1.394(3) ?
C16 H16 0.9300 ?
Fe1 S2 2.2406(7) y
Fe1 S1 2.2437(6) y
Fe1 Fe2 3.4050(6) y
Fe1 Fe3 2.6319(5) y
Fe2 S2 2.2456(6) y
Fe2 S1 2.2473(7) y
Fe2 Fe3 2.5846(5) y
Fe3 S2 2.2505(6) y
Fe3 S1 2.2719(7) y
N1 H1N 0.86(3) ?
loop_
_geom_hbond_atom_site_label_D
_geom_hbond_atom_site_label_H
_geom_hbond_atom_site_label_A
_geom_hbond_site_symmetry_A
_geom_hbond_distance_DH
_geom_hbond_distance_HA
_geom_hbond_distance_DA
_geom_hbond_angle_DHA
_geom_hbond_publ_flag
N1 H1N S1 2_666 0.86(3) 2.59(3) 3.4404(19) 168(2) y
C16 H16 O5 2_777 0.93 2.51 3.359(3) 151.2 y
