#------------------------------------------------------------------------------
#$Date: 2015-05-13 22:41:00 +0300 (Wed, 13 May 2015) $
#$Revision: 136366 $
#$URL: svn://www.crystallography.net/cod/cif/2/01/99/2019946.cif $
#------------------------------------------------------------------------------
#
# This file is available in the Crystallography Open Database (COD),
# http://www.crystallography.net/. The original data for this entry
# were provided by IUCr Journals, http://journals.iucr.org/.
#
# The file may be used within the scientific community so long as
# proper attribution is given to the journal article from which the
# data were obtained.
#
data_2019946
loop_
_publ_author_name
'Jones, Ray'
_publ_section_title
;
 The structure of the first stable monosubstituted sulfur diimide
;
_journal_coeditor_code           QS3045
_journal_issue                   6
_journal_name_full               'Acta Crystallographica Section C'
_journal_page_first
;
;
_journal_paper_doi               10.1107/S2053229615008645
_journal_volume                  71
_journal_year                    2015
_chemical_formula_iupac          'C7 H8 N2 S2'
_chemical_formula_moiety         'C7 H8 N2 S2'
_chemical_formula_sum            'C7 H8 N2 S2'
_chemical_formula_weight         184.27
_chemical_name_common
;
(Imino-\l^4^-sulfanylidene)[(4-methylphenyl)sulfanyl]amine
;
_chemical_name_systematic
;
4-(4-Methylphenyl)-1,3-diaza-2,4-dithiabuta-1,2-diene
;
_space_group_crystal_system      orthorhombic
_space_group_IT_number           19
_space_group_name_Hall           'P 2ac 2ab'
_space_group_name_H-M_alt        'P 21 21 21'
_symmetry_space_group_name_Hall  'P 2ac 2ab'
_symmetry_space_group_name_H-M   'P 21 21 21'
_atom_sites_solution_hydrogens   mixed
_audit_creation_method           SHELXL2013
_cell_angle_alpha                90
_cell_angle_beta                 90
_cell_angle_gamma                90
_cell_formula_units_Z            4
_cell_length_a                   6.2230(10)
_cell_length_b                   7.178(2)
_cell_length_c                   19.732(5)
_cell_measurement_temperature    293(2)
_cell_volume                     881.4(4)
_computing_cell_refinement       'Nicolet software'
_computing_data_collection       'Nicolet software'
_computing_data_reduction        'Nicolet software'
_computing_molecular_graphics
'Mercury (Macrae et al., 2008) and OLEX2 (Dolomanov et al., 2009)'
_computing_publication_material  'SHELXL2013 (Sheldrick, 2015)'
_computing_structure_refinement
'SHELXTL83 (Sheldrick, 1983) and SHELXL2013 (Sheldrick, 2015)'
_computing_structure_solution
'SHELXTL83 (Sheldrick, 1983) and SHELXLE (H\"ubschle et al., 2011)'
_diffrn_ambient_temperature      293(2)
_diffrn_measured_fraction_theta_full 0.670
_diffrn_measured_fraction_theta_max 0.886
_diffrn_measurement_device_type  'scintillation diffractometer'
_diffrn_radiation_type           CuK\a
_diffrn_radiation_wavelength     1.54178
_diffrn_reflns_limit_h_max       6
_diffrn_reflns_limit_h_min       0
_diffrn_reflns_limit_k_max       7
_diffrn_reflns_limit_k_min       0
_diffrn_reflns_limit_l_max       21
_diffrn_reflns_limit_l_min       0
_diffrn_reflns_theta_full        67.679
_diffrn_reflns_theta_max         56.994
_diffrn_reflns_theta_min         4.481
_exptl_absorpt_coefficient_mu    4.956
_exptl_absorpt_correction_T_max  0.78
_exptl_absorpt_correction_T_min  0.55
_exptl_absorpt_correction_type   empirical
_exptl_absorpt_process_details   'psi scans'
_exptl_crystal_density_diffrn    1.389
_exptl_crystal_F_000             384
_exptl_crystal_size_max          0.350
_exptl_crystal_size_mid          0.100
_exptl_crystal_size_min          0.050
_refine_diff_density_max         0.130
_refine_diff_density_min         -0.147
_refine_ls_abs_structure_details
;
No quotients, so Flack parameter determined by classical intensity fit.
;
_refine_ls_abs_structure_Flack   0.20(8)
_refine_ls_extinction_method     none
_refine_ls_goodness_of_fit_ref   0.996
_refine_ls_hydrogen_treatment    mixed
_refine_ls_matrix_type           full
_refine_ls_number_parameters     105
_refine_ls_number_reflns         647
_refine_ls_number_restraints     1
_refine_ls_restrained_S_all      0.995
_refine_ls_R_factor_all          0.0407
_refine_ls_R_factor_gt           0.0373
_refine_ls_shift/su_max          0.000
_refine_ls_shift/su_mean         0.000
_refine_ls_structure_factor_coef Fsqd
_refine_ls_weighting_details
'w = 1/[\s^2^(Fo^2^)+(0.0110P)^2^+1.0000sin\q] where P=(Fo^2^+2Fc^2^)/3'
_refine_ls_weighting_scheme      calc
_refine_ls_wR_factor_gt          0.0626
_refine_ls_wR_factor_ref         0.0651
_reflns_number_gt                603
_reflns_number_total             647
_reflns_threshold_expression     I>2\s(I)
_cod_data_source_file            qs3045sup1.cif
_cod_data_source_block           I
_cod_database_code               2019946
_shelx_space_group_comment
;
The symmetry employed for this shelxl refinement is uniquely defined
by the following loop, which should always be used as a source of
symmetry information in preference to the above space-group names.
They are only intended as comments.
;
_shelx_estimated_absorpt_t_min   0.276
_shelx_estimated_absorpt_t_max   0.790
_shelx_hkl_file
;
 002 000 00000015.6000000.54
 004 000 00000015.4000000.54
 006 000 00000006.5000000.67
 001 001 00000018.2000000.52
 002 001 00000010.4000000.60
 003 001 00000008.1000000.64
 004 001 00000020.5000000.50
 005 001 00000002.5000000.70
 000 002 00000211.9000001.32
 001 002 00000041.1000000.50
 002 002 00000018.1000000.52
 003 002 00000004.3000000.70
 004 002 00000010.3000000.60
 005 002 00000003.0000000.70
 006 002 00000003.4000000.70
 001 003 00000034.2000000.48
 002 003 00000008.7000000.63
 003 003 00000015.5000000.54
 004 003 00000011.0000000.59
 005 003 00000002.4000000.69
 006 003 00000003.0000000.70
 000 004 00000039.4000000.49
 001 004 00000020.4000000.50
 002 004 00000010.0000000.61
 003 004 00000002.3000000.69
 004 004 00000003.0000000.70
 001 005 00000024.6000000.49
 002 005 00000004.4000000.70
 003 005 00000013.0000000.57
 004 005 00000003.6000000.70
 000 006 00000007.3000000.65
 001 006 00000003.0000000.70
 002 006 00000002.9000000.70
 001 007 00000008.8000000.63
 002 007 00000003.8000000.70
 003 007 00000006.0000000.67
 001 000 00100005.7000000.68
 002 000 00100034.3000000.48
 003 000 00100056.5000000.56
 004 000 00100002.4000000.69
 005 000 00100014.8000000.55
 006 000 00100002.8000000.70
 000 001 00100053.5000000.55
 001 001 00100055.3000000.56
 002 001 00100039.5000000.49
 003 001 00100019.4000000.51
 004 001 00100004.7000000.69
 005 001 00100003.8000000.70
 006 001 00100004.7000000.69
 000 002 00100015.2000000.54
 001 002 00100044.2000000.51
 002 002 00100019.7000000.51
 003 002 00100034.1000000.48
 004 002 00100008.4000000.63
 005 002 00100010.8000000.60
 006 002 00100002.9000000.70
 000 003 00100023.7000000.49
 001 003 00100025.2000000.49
 002 003 00100022.0000000.50
 003 003 00100007.8000000.64
 004 003 00100009.4000000.62
 005 003 00100002.8000000.70
 006 003 00100005.8000000.68
 000 004 00100006.5000000.67
 001 004 00100034.8000000.48
 003 004 00100009.2000000.62
 004 004 00100006.2000000.67
 005 004 00100003.4000000.70
 001 005 00100004.7000000.69
 002 005 00100009.1000000.62
 003 005 00100002.8000000.70
 004 005 00100006.2000000.67
 000 006 00100002.9000000.70
 001 006 00100015.7000000.54
 002 006 00100005.4000000.68
 003 006 00100008.3000000.64
 000 007 00100006.1000000.67
 000 000 00200043.1000000.51
 001 000 00200032.2000000.48
 002 000 00200009.7000000.61
 003 000 00200016.4000000.53
 004 000 00200008.5000000.63
 005 000 00200003.0000000.70
 006 000 00200002.7000000.70
 000 001 00200002.2000000.69
 001 001 00200089.3000000.74
 002 001 00200039.9000000.50
 003 001 00200020.9000000.50
 004 001 00200011.4000000.59
 005 001 00200018.1000000.52
 000 002 00200018.1000000.52
 001 002 00200037.1000000.49
 002 002 00200033.0000000.48
 003 002 00200020.5000000.50
 004 002 00200021.5000000.50
 005 002 00200004.3000000.70
 006 002 00200005.9000000.68
 000 003 00200002.9000000.70
 001 003 00200034.8000000.48
 002 003 00200022.6000000.49
 003 003 00200009.1000000.62
 004 003 00200004.4000000.70
 005 003 00200009.2000000.62
 000 004 00200004.7000000.69
 001 004 00200016.2000000.53
 002 004 00200029.7000000.48
 003 004 00200012.9000000.57
 004 004 00200022.4000000.49
 005 004 00200004.9000000.69
 000 005 00200004.4000000.70
 001 005 00200003.9000000.70
 002 005 00200009.5000000.62
 003 005 00200002.8000000.70
 005 005 00200003.9000000.70
 000 006 00200006.0000000.67
 001 006 00200002.4000000.69
 002 006 00200014.4000000.55
 003 006 00200005.0000000.69
 004 006 00200010.7000000.60
 000 007 00200003.5000000.70
 002 007 00200005.3000000.68
 001 000 00300028.0000000.48
 002 000 00300010.6000000.60
 003 000 00300027.1000000.48
 004 000 00300014.3000000.55
 005 000 00300019.7000000.51
 006 000 00300002.7000000.70
 000 001 00300008.2000000.64
 001 001 00300051.2000000.54
 002 001 00300029.1000000.48
 003 001 00300012.0000000.58
 004 001 00300009.3000000.62
 005 001 00300004.9000000.69
 006 001 00300006.8000000.66
 000 002 00300045.8000000.52
 001 002 00300045.2000000.51
 002 002 00300010.6000000.60
 003 002 00300019.8000000.51
 004 002 00300012.0000000.58
 005 002 00300014.3000000.55
 006 002 00300002.5000000.70
 000 003 00300005.9000000.68
 001 003 00300024.5000000.49
 002 003 00300026.4000000.48
 003 003 00300017.7000000.52
 004 003 00300013.4000000.56
 005 003 00300009.6000000.62
 006 003 00300006.0000000.67
 000 004 00300026.9000000.48
 001 004 00300038.4000000.49
 002 004 00300009.6000000.62
 003 004 00300008.7000000.63
 004 004 00300008.5000000.63
 005 004 00300003.7000000.70
 000 005 00300003.1000000.70
 001 005 00300006.2000000.67
 002 005 00300014.6000000.55
 003 005 00300013.7000000.56
 004 005 00300010.2000000.61
 005 005 00300007.1000000.66
 000 006 00300007.3000000.65
 001 006 00300020.0000000.51
 002 006 00300007.7000000.65
 003 006 00300002.6000000.70
 004 006 00300005.9000000.68
 000 007 00300002.9000000.70
 002 007 00300004.9000000.69
 000 000 00400055.8000000.56
 001 000 00400053.0000000.55
 002 000 00400043.6000000.51
 003 000 00400015.8000000.54
 004 000 00400002.6000000.70
 006 000 00400005.3000000.68
 000 001 00400013.8000000.56
 001 001 00400020.6000000.50
 002 001 00400022.2000000.49
 003 001 00400010.4000000.60
 004 001 00400010.6000000.60
 005 001 00400004.0000000.70
 006 001 00400007.4000000.65
 000 002 00400040.6000000.50
 001 002 00400032.9000000.48
 002 002 00400021.3000000.50
 003 002 00400012.9000000.57
 004 002 00400003.1000000.70
 005 002 00400003.0000000.70
 006 002 00400003.7000000.70
 000 003 00400025.9000000.48
 001 003 00400023.3000000.49
 002 003 00400036.2000000.49
 003 003 00400003.0000000.70
 004 003 00400009.1000000.62
 005 003 00400006.8000000.66
 006 003 00400005.3000000.68
 000 004 00400013.3000000.56
 001 004 00400005.6000000.68
 002 004 00400004.2000000.70
 003 004 00400007.8000000.64
 004 004 00400003.3000000.70
 005 004 00400002.4000000.69
 000 005 00400018.5000000.51
 001 005 00400016.3000000.53
 002 005 00400023.5000000.49
 003 005 00400003.7000000.70
 004 005 00400004.1000000.70
 005 005 00400004.0000000.70
 001 006 00400004.8000000.69
 002 006 00400009.3000000.62
 003 006 00400005.3000000.68
 004 006 00400002.5000000.70
 000 007 00400006.6000000.66
 001 007 00400005.5000000.68
 002 007 00400007.2000000.65
 001 000 00500031.2000000.48
 002 000 00500006.1000000.67
 003 000 00500009.0000000.62
 004 000 00500022.6000000.49
 005 000 00500022.2000000.49
 006 000 00500005.5000000.68
 000 001 00500028.1000000.48
 001 001 00500050.4000000.53
 002 001 00500022.1000000.50
 003 001 00500015.4000000.54
 004 001 00500003.6000000.70
 005 001 00500008.6000000.63
 006 001 00500007.6000000.65
 000 002 00500007.6000000.65
 001 002 00500017.1000000.53
 002 002 00500018.0000000.52
 003 002 00500009.3000000.62
 004 002 00500016.9000000.53
 005 002 00500015.7000000.54
 006 002 00500005.7000000.68
 000 003 00500005.6000000.68
 001 003 00500028.8000000.48
 002 003 00500021.0000000.50
 003 003 00500011.5000000.59
 005 003 00500005.9000000.68
 006 003 00500006.3000000.67
 000 004 00500011.0000000.59
 001 004 00500009.0000000.62
 002 004 00500014.4000000.55
 003 004 00500007.7000000.65
 004 004 00500006.1000000.67
 005 004 00500004.3000000.70
 000 005 00500009.8000000.61
 001 005 00500010.7000000.60
 002 005 00500013.0000000.57
 003 005 00500010.7000000.60
 004 005 00500003.3000000.70
 000 006 00500006.0000000.67
 001 006 00500005.4000000.68
 002 006 00500005.6000000.68
 003 006 00500002.9000000.70
 004 006 00500003.7000000.70
 000 007 00500006.3000000.67
 001 007 00500006.2000000.67
 002 007 00500005.1000000.69
 000 000 00600010.3000000.60
 002 000 00600006.2000000.67
 003 000 00600003.1000000.70
 004 000 00600003.8000000.70
 005 000 00600010.6000000.60
 006 000 00600002.6000000.70
 000 001 00600002.3000000.69
 001 001 00600010.4000000.60
 002 001 00600031.6000000.48
 003 001 00600026.0000000.48
 004 001 00600034.1000000.48
 005 001 00600003.2000000.70
 006 001 00600014.5000000.55
 000 002 00600009.2000000.62
 001 002 00600012.2000000.58
 002 002 00600013.3000000.56
 003 002 00600019.1000000.51
 004 002 00600006.6000000.66
 005 002 00600013.0000000.57
 006 002 00600005.7000000.68
 001 003 00600013.7000000.56
 002 003 00600010.2000000.61
 003 003 00600013.5000000.56
 004 003 00600019.3000000.51
 005 003 00600003.2000000.70
 000 004 00600004.4000000.70
 001 004 00600008.4000000.63
 002 004 00600011.6000000.59
 003 004 00600021.7000000.50
 004 004 00600006.9000000.66
 005 004 00600011.6000000.59
 001 005 00600006.4000000.67
 002 005 00600007.7000000.65
 003 005 00600003.1000000.70
 004 005 00600004.7000000.69
 001 006 00600003.7000000.70
 002 006 00600005.5000000.68
 003 006 00600011.6000000.59
 000 007 00600003.5000000.70
 001 007 00600002.9000000.70
 002 007 00600006.9000000.66
 001 000 00700011.8000000.58
 002 000 00700039.7000000.50
 003 000 00700005.7000000.68
 004 000 00700026.5000000.48
 006 000 00700004.4000000.70
 000 001 00700027.2000000.48
 001 001 00700010.1000000.61
 002 001 00700018.6000000.51
 003 001 00700029.3000000.48
 004 001 00700004.6000000.69
 005 001 00700012.6000000.57
 006 001 00700006.1000000.67
 000 002 00700017.2000000.52
 001 002 00700012.8000000.57
 002 002 00700030.2000000.48
 003 002 00700005.3000000.68
 004 002 00700019.6000000.51
 005 002 00700002.9000000.70
 006 002 00700004.0000000.70
 000 003 00700011.9000000.58
 001 003 00700007.1000000.66
 002 003 00700007.1000000.66
 003 003 00700024.7000000.49
 004 003 00700007.7000000.65
 005 003 00700012.3000000.58
 000 004 00700014.7000000.55
 001 004 00700007.6000000.65
 002 004 00700011.9000000.58
 003 004 00700004.7000000.69
 004 004 00700005.8000000.68
 005 004 00700003.1000000.70
 001 005 00700006.5000000.67
 003 005 00700013.7000000.56
 004 005 00700003.7000000.70
 000 006 00700005.2000000.69
 001 006 00700003.9000000.70
 002 006 00700004.8000000.69
 000 007 00700003.5000000.70
 001 007 00700005.1000000.69
 000 000 00800018.4000000.52
 001 000 00800043.2000000.51
 002 000 00800010.2000000.61
 003 000 00800019.6000000.51
 005 000 00800013.7000000.56
 000 001 00800015.4000000.54
 001 001 00800038.2000000.49
 002 001 00800017.4000000.52
 003 001 00800004.1000000.70
 004 001 00800014.2000000.55
 005 001 00800003.0000000.70
 006 001 00800003.2000000.70
 000 002 00800013.0000000.57
 001 002 00800026.4000000.48
 002 002 00800009.8000000.61
 003 002 00800017.0000000.53
 004 002 00800003.6000000.70
 005 002 00800010.0000000.61
 006 002 00800004.1000000.70
 000 003 00800029.6000000.48
 001 003 00800017.8000000.52
 002 003 00800026.9000000.48
 003 003 00800005.2000000.69
 004 003 00800007.0000000.66
 005 003 00800004.2000000.70
 000 004 00800005.3000000.68
 001 004 00800004.4000000.70
 002 004 00800006.3000000.67
 003 004 00800009.0000000.62
 004 004 00800004.2000000.70
 005 004 00800004.1000000.70
 000 005 00800018.7000000.51
 001 005 00800006.7000000.66
 002 005 00800017.9000000.52
 004 005 00800003.7000000.70
 000 006 00800003.7000000.70
 001 006 00800006.9000000.66
 000 007 00800004.3000000.70
 001 007 00800002.7000000.70
 001 000 00900005.5000000.68
 002 000 00900010.4000000.60
 003 000 00900004.1000000.70
 004 000 00900021.4000000.50
 006 000 00900002.7000000.70
 000 001 00900005.5000000.68
 001 001 00900054.7000000.55
 002 001 00900004.7000000.69
 003 001 00900019.2000000.51
 004 001 00900008.1000000.64
 005 001 00900004.1000000.70
 000 002 00900025.7000000.48
 001 002 00900007.6000000.65
 002 002 00900013.8000000.56
 003 002 00900003.0000000.70
 004 002 00900015.2000000.54
 005 002 00900002.6000000.70
 000 003 00900004.1000000.70
 001 003 00900024.1000000.49
 002 003 00900005.4000000.68
 003 003 00900017.8000000.52
 004 003 00900006.4000000.67
 005 003 00900007.2000000.65
 000 004 00900025.0000000.49
 001 004 00900005.8000000.68
 002 004 00900013.9000000.56
 004 004 00900005.1000000.69
 003 005 00900009.2000000.62
 004 005 00900003.0000000.70
 000 006 00900012.0000000.58
 002 006 00900009.6000000.62
 000 000 01000045.3000000.51
 001 000 01000002.9000000.70
 002 000 01000003.1000000.70
 003 000 01000018.5000000.51
 004 000 01000010.1000000.61
 005 000 01000004.8000000.69
 000 001 01000013.2000000.56
 001 001 01000007.7000000.65
 002 001 01000012.1000000.58
 003 001 01000010.3000000.60
 004 001 01000029.1000000.48
 005 001 01000007.6000000.65
 000 002 01000029.5000000.48
 001 002 01000004.3000000.70
 002 002 01000004.4000000.70
 003 002 01000021.5000000.50
 004 002 01000008.3000000.64
 005 002 01000005.9000000.68
 000 003 01000019.3000000.51
 001 003 01000006.6000000.66
 002 003 01000005.9000000.68
 003 003 01000006.3000000.67
 004 003 01000012.9000000.57
 005 003 01000005.2000000.69
 000 004 01000008.8000000.63
 001 004 01000006.0000000.67
 002 004 01000003.5000000.70
 003 004 01000018.2000000.52
 004 004 01000005.0000000.69
 000 005 01000011.4000000.59
 001 005 01000007.1000000.66
 002 005 01000003.5000000.70
 003 005 01000002.8000000.70
 004 005 01000002.3000000.69
 001 006 01000003.9000000.70
 001 000 01100004.2000000.70
 002 000 01100021.0000000.50
 003 000 01100016.5000000.53
 004 000 01100011.6000000.59
 005 000 01100006.8000000.66
 000 001 01100012.8000000.57
 001 001 01100019.8000000.51
 002 001 01100006.3000000.67
 003 001 01100016.3000000.53
 004 001 01100003.7000000.70
 005 001 01100004.0000000.70
 000 002 01100011.7000000.58
 002 002 01100016.4000000.53
 003 002 01100011.7000000.58
 004 002 01100009.0000000.62
 005 002 01100004.8000000.69
 000 003 01100005.1000000.69
 001 003 01100010.2000000.61
 002 003 01100010.5000000.60
 003 003 01100017.5000000.52
 004 003 01100006.3000000.67
 005 003 01100005.8000000.68
 000 004 01100010.8000000.60
 002 004 01100009.5000000.62
 004 004 01100003.7000000.70
 001 005 01100003.3000000.70
 002 005 01100009.2000000.62
 003 005 01100011.9000000.58
 000 006 01100005.2000000.69
 001 006 01100002.4000000.69
 002 006 01100007.5000000.65
 000 000 01200026.2000000.48
 001 000 01200025.4000000.48
 002 000 01200017.7000000.52
 003 000 01200012.7000000.57
 004 000 01200009.3000000.62
 005 000 01200003.2000000.70
 000 001 01200012.5000000.57
 001 001 01200011.5000000.59
 002 001 01200010.3000000.60
 003 001 01200002.6000000.70
 004 001 01200006.2000000.67
 005 001 01200004.1000000.70
 000 002 01200015.6000000.54
 001 002 01200021.0000000.50
 002 002 01200015.9000000.54
 003 002 01200009.7000000.61
 004 002 01200007.5000000.65
 000 003 01200023.4000000.49
 001 003 01200019.9000000.51
 002 003 01200016.4000000.53
 003 003 01200002.7000000.70
 004 003 01200004.4000000.70
 001 004 01200009.5000000.62
 002 004 01200011.5000000.59
 003 004 01200003.8000000.70
 004 004 01200004.2000000.70
 000 005 01200015.3000000.54
 001 005 01200013.3000000.56
 002 005 01200012.8000000.57
 003 005 01200004.4000000.70
 000 006 01200006.1000000.67
 002 006 01200004.4000000.70
 001 000 01300003.9000000.70
 002 000 01300002.6000000.70
 004 000 01300004.9000000.69
 000 001 01300031.3000000.48
 001 001 01300024.0000000.49
 002 001 01300015.1000000.54
 003 001 01300004.1000000.70
 004 001 01300003.6000000.70
 005 001 01300002.4000000.69
 000 002 01300004.0000000.70
 001 002 01300017.6000000.52
 002 002 01300009.1000000.62
 003 002 01300006.2000000.67
 004 002 01300005.6000000.68
 005 002 01300002.3000000.69
 000 003 01300013.9000000.56
 001 003 01300012.3000000.58
 002 003 01300010.6000000.60
 003 003 01300007.3000000.65
 004 003 01300004.6000000.69
 000 004 01300003.0000000.70
 001 004 01300019.5000000.51
 002 004 01300008.2000000.64
 003 004 01300008.3000000.64
 004 004 01300002.9000000.70
 002 005 01300004.9000000.69
 003 005 01300006.0000000.67
 001 006 01300009.3000000.62
 000 000 01400014.8000000.55
 001 000 01400002.7000000.70
 002 000 01400013.1000000.57
 003 000 01400005.1000000.69
 004 000 01400005.2000000.69
 005 000 01400002.3000000.69
 001 001 01400007.3000000.65
 002 001 01400012.8000000.57
 003 001 01400014.4000000.55
 004 001 01400010.8000000.60
 005 001 01400008.1000000.64
 000 002 01400012.8000000.57
 001 002 01400003.6000000.70
 002 002 01400012.4000000.57
 003 002 01400003.9000000.70
 004 002 01400007.4000000.65
 001 003 01400004.0000000.70
 002 003 01400007.9000000.64
 003 003 01400007.0000000.66
 004 003 01400006.0000000.67
 000 004 01400007.5000000.65
 001 004 01400003.4000000.70
 002 004 01400008.9000000.63
 003 004 01400003.1000000.70
 002 005 01400003.7000000.70
 001 000 01500028.5000000.48
 002 000 01500009.2000000.62
 003 000 01500015.7000000.54
 000 001 01500022.6000000.49
 001 001 01500007.4000000.65
 002 001 01500007.4000000.65
 003 001 01500005.9000000.68
 004 001 01500005.9000000.68
 000 002 01500006.4000000.67
 001 002 01500019.0000000.51
 002 002 01500008.0000000.64
 003 002 01500012.1000000.58
 000 003 01500013.0000000.57
 001 003 01500003.2000000.70
 002 003 01500007.2000000.65
 003 003 01500003.2000000.70
 004 003 01500007.6000000.65
 000 004 01500003.4000000.70
 001 004 01500007.0000000.66
 002 004 01500004.9000000.69
 003 004 01500005.6000000.68
 000 005 01500004.4000000.70
 002 005 01500005.2000000.69
 000 000 01600023.6000000.49
 001 000 01600006.8000000.66
 002 000 01600019.0000000.51
 001 001 01600005.8000000.68
 002 001 01600004.0000000.70
 003 001 01600007.9000000.64
 004 001 01600005.9000000.68
 000 002 01600016.4000000.53
 001 002 01600005.0000000.69
 002 002 01600014.2000000.55
 003 002 01600002.5000000.70
 004 002 01600003.1000000.70
 000 003 01600003.0000000.70
 001 003 01600010.1000000.61
 003 003 01600004.8000000.69
 000 004 01600005.2000000.69
 002 004 01600006.0000000.67
 000 005 01600003.3000000.70
 001 005 01600006.6000000.66
 001 000 01700010.0000000.61
 002 000 01700002.5000000.70
 003 000 01700003.5000000.70
 004 000 01700003.1000000.70
 000 001 01700021.5000000.50
 001 001 01700002.3000000.69
 003 001 01700003.5000000.70
 000 002 01700002.7000000.70
 001 002 01700011.4000000.59
 002 002 01700004.9000000.69
 003 002 01700004.3000000.70
 000 003 01700010.1000000.61
 003 003 01700004.0000000.70
 000 004 01700003.1000000.70
 001 004 01700009.7000000.61
 002 004 01700003.2000000.70
 000 000 01800012.6000000.57
 002 000 01800002.8000000.70
 001 001 01800002.3000000.69
 002 001 01800005.4000000.68
 003 001 01800008.7000000.63
 000 002 01800008.6000000.63
 001 002 01800002.4000000.69
 002 002 01800007.8000000.64
 003 002 01800002.3000000.69
 000 003 01800004.7000000.69
 001 003 01800003.5000000.70
 002 003 01800002.9000000.70
 000 004 01800002.1000000.69
 001 000 01900006.3000000.67
 002 000 01900002.7000000.70
 003 000 01900008.8000000.63
 001 001 01900003.2000000.70
 002 001 01900002.8000000.70
 003 001 01900003.2000000.70
 001 002 01900005.5000000.68
 000 000 02000010.2000000.61
 001 000 02000003.8000000.70
 002 000 02000006.8000000.66
 000 001 02000003.2000000.70
 001 001 02000003.7000000.70
 002 001 02000004.7000000.69
 000 002 02000006.8000000.66
 001 002 02000002.7000000.70
 000 001 02100006.4000000.67
 001 001 02100007.5000000.65
 000 000 00000000.0000000.00
;
_shelx_hkl_checksum              39029
_shelx_res_file
;
TITL (1) 4-(4-methylphenyl)-1,3-diaza-2,4-dithiabuta-1,2-diene
CELL 1.54178 6.223 7.178 19.732 90 90 90
ZERR 4 0.001 0.002 0.005 0 0 0
LATT -1
SYMM 0.5-X,-Y,0.5+Z
SYMM -X,0.5+Y,0.5-Z
SYMM 0.5+X,0.5-Y,-Z
SFAC C H N S
UNIT 28 32 8 8
DEFS 0.002 0.2 0.01 0.05 1
L.S. 10
PLAN  20
SIZE 0.35 0.1 0.05
TEMP 20
LIST 4
MORE 3
DFIX 0.86 N1 H1N
CONF
HTAB
BOND $H
FMAP
ACTA
MPLA C1 C2 C3 C4 C5 C6
MPLA N1 S2 N3 S4
WPDB
WGHT    0.011000    0.000000    0.000000    0.000000    1.000000
FVAR       0.99910
N1    3    1.067463    0.729023    0.472227    11.00000    0.08260    0.11556 =
         0.06423   -0.00718   -0.00010   -0.00291
H1N   2    1.167836    0.713960    0.501672    11.00000    0.10655
S2    4    1.189500    0.802306    0.410432    11.00000    0.08187    0.08661 =
         0.08512    0.00026   -0.01084   -0.02108
N3    3    1.051706    0.790213    0.345590    11.00000    0.07349    0.07304 =
         0.08009    0.01683   -0.01035   -0.02480
S4    4    0.808529    0.701445    0.348865    11.00000    0.06061    0.07357 =
         0.06082    0.01053    0.01027    0.00304
C1    1    0.732196    0.722596    0.262951    11.00000    0.05476    0.04253 =
         0.05607    0.00193    0.01109    0.00283
C2    1    0.862768    0.791719    0.212909    11.00000    0.05395    0.05416 =
         0.06703    0.00581    0.00693    0.00101
AFIX  43
H2    2    1.002319    0.828761    0.223050    11.00000   -1.20000
AFIX   0
C3    1    0.786771    0.806036    0.147812    11.00000    0.06350    0.05737 =
         0.06554    0.00150    0.01079    0.00663
AFIX  43
H3    2    0.875991    0.853936    0.114256    11.00000   -1.20000
AFIX   0
C4    1    0.581107    0.751030    0.130990    11.00000    0.06911    0.05606 =
         0.06509   -0.00901    0.00283    0.00900
C5    1    0.454107    0.677055    0.181315    11.00000    0.05320    0.06423 =
         0.08719   -0.01921    0.00450   -0.00693
AFIX  43
H5    2    0.316101    0.636585    0.170811    11.00000   -1.20000
AFIX   0
C6    1    0.527630    0.661691    0.247215    11.00000    0.05576    0.05451 =
         0.07033   -0.00770    0.01425   -0.00861
AFIX  43
H6    2    0.440129    0.610809    0.280640    11.00000   -1.20000
AFIX   0
C7    1    0.494741    0.768332    0.058820    11.00000    0.09679    0.10385 =
         0.07117   -0.00923   -0.01212    0.00525
AFIX 137
H7A   2    0.475795    0.646319    0.039813    11.00000   -1.50000
H7B   2    0.594965    0.837437    0.031692    11.00000   -1.50000
H7C   2    0.359170    0.832115    0.059589    11.00000   -1.50000
AFIX   0
HKLF 3
REM  (1) 4-(4-methylphenyl)-1,3-diaza-2,4-dithiabuta-1,2-diene
REM R1 =  0.0373 for     603 Fo > 4sig(Fo)  and  0.0407 for all     647 data
REM    105 parameters refined using      1 restraints
END
WGHT      0.0110      0.0000
REM No hydrogen bonds found for HTAB generation
REM Highest difference peak  0.130,  deepest hole -0.147,  1-sigma level  0.032
Q1    1   1.4600  0.7212  0.4045  11.00000  0.05    0.13
Q2    1   1.0415  0.7240  0.2415  11.00000  0.05    0.12
Q3    1   0.9099  0.8046  0.3599  11.00000  0.05    0.11
Q4    1   0.6835  0.7246  0.3835  11.00000  0.05    0.10
Q5    1   0.9580  0.8091  0.5074  11.00000  0.05    0.10
Q6    1   0.4217  0.6835  0.3114  11.00000  0.05    0.10
Q7    1   0.1940  0.7225  0.2081  11.00000  0.05    0.09
Q8    1   1.0919  0.7182  0.4400  11.00000  0.05    0.09
Q9    1   0.8297  0.6058  0.4187  11.00000  0.05    0.09
Q10   1   1.0389  0.8038  0.4428  11.00000  0.05    0.09
Q11   1   0.8209  0.8560  0.3992  11.00000  0.05    0.09
Q12   1   0.3708  0.6428  0.3585  11.00000  0.05    0.09
Q13   1   1.0748  0.8870  0.4358  11.00000  0.05    0.09
Q14   1   0.9675  0.9466  0.3411  11.00000  0.05    0.09
Q15   1   0.3609  0.5830 -0.0230  11.00000  0.05    0.08
Q16   1   0.1955  0.5564  0.2596  11.00000  0.05    0.08
Q17   1   0.6229  0.6912  0.0299  11.00000  0.05    0.08
Q18   1   0.8192  0.6859  0.0842  11.00000  0.05    0.08
Q19   1   1.0047  0.6989  0.3163  11.00000  0.05    0.08
Q20   1   1.2134  0.5941  0.3337  11.00000  0.05    0.08
;
_shelx_res_checksum              1475
_shelxl_version_number           2.013
loop_
_space_group_symop_operation_xyz
'x, y, z'
'-x+1/2, -y, z+1/2'
'-x, y+1/2, -z+1/2'
'x+1/2, -y+1/2, -z'
loop_
_atom_site_type_symbol
_atom_site_label
_atom_site_fract_x
_atom_site_fract_y
_atom_site_fract_z
_atom_site_U_iso_or_equiv
_atom_site_adp_type
_atom_site_calc_flag
_atom_site_occupancy
N N1 1.0675(9) 0.7290(10) 0.4722(2) 0.0875(18) Uani d 1
H H1N 1.168(6) 0.714(11) 0.502(2) 0.11(2) Uiso d 1
S S2 1.1895(3) 0.8023(3) 0.41043(8) 0.0845(5) Uani d 1
N N3 1.0517(7) 0.7902(7) 0.3456(2) 0.0755(14) Uani d 1
S S4 0.8085(2) 0.7014(2) 0.34886(7) 0.0650(4) Uani d 1
C C1 0.7322(8) 0.7226(8) 0.2630(2) 0.0511(13) Uani d 1
C C2 0.8628(8) 0.7917(8) 0.2129(2) 0.0584(14) Uani d 1
H H2 1.0023 0.8288 0.2231 0.070 Uiso calc 1
C C3 0.7868(9) 0.8060(8) 0.1478(3) 0.0621(14) Uani d 1
H H3 0.8760 0.8539 0.1143 0.075 Uiso calc 1
C C4 0.5811(9) 0.7510(9) 0.1310(3) 0.0634(17) Uani d 1
C C5 0.4541(9) 0.6771(9) 0.1813(3) 0.0682(17) Uani d 1
H H5 0.3161 0.6366 0.1708 0.082 Uiso calc 1
C C6 0.5276(9) 0.6617(8) 0.2472(3) 0.0602(15) Uani d 1
H H6 0.4401 0.6108 0.2806 0.072 Uiso calc 1
C C7 0.4947(10) 0.7683(10) 0.0588(2) 0.091(2) Uani d 1
H H7A 0.4758 0.6463 0.0398 0.136 Uiso calc 1
H H7B 0.5950 0.8374 0.0317 0.136 Uiso calc 1
H H7C 0.3592 0.8321 0.0596 0.136 Uiso calc 1
loop_
_atom_site_aniso_label
_atom_site_aniso_U_11
_atom_site_aniso_U_22
_atom_site_aniso_U_33
_atom_site_aniso_U_12
_atom_site_aniso_U_13
_atom_site_aniso_U_23
N1 0.083(3) 0.116(5) 0.064(3) -0.003(5) 0.000(3) -0.007(4)
S2 0.0819(10) 0.0866(11) 0.0851(10) -0.0211(13) -0.0108(10) 0.0003(11)
N3 0.073(3) 0.073(3) 0.080(3) -0.025(3) -0.010(3) 0.017(3)
S4 0.0606(8) 0.0736(9) 0.0608(8) 0.0030(10) 0.0103(8) 0.0105(9)
C1 0.055(3) 0.043(3) 0.056(3) 0.003(3) 0.011(3) 0.002(3)
C2 0.054(3) 0.054(3) 0.067(3) 0.001(3) 0.007(3) 0.006(3)
C3 0.064(3) 0.057(3) 0.066(3) 0.007(4) 0.011(3) 0.001(4)
C4 0.069(4) 0.056(5) 0.065(3) 0.009(4) 0.003(3) -0.009(3)
C5 0.053(3) 0.064(4) 0.087(4) -0.007(4) 0.004(3) -0.019(4)
C6 0.056(3) 0.055(4) 0.070(3) -0.009(3) 0.014(3) -0.008(3)
C7 0.097(5) 0.104(6) 0.071(4) 0.005(5) -0.012(4) -0.009(4)
loop_
_atom_type_symbol
_atom_type_description
_atom_type_scat_dispersion_real
_atom_type_scat_dispersion_imag
_atom_type_scat_source
C C 0.0181 0.0091 'International Tables Vol C Tables 4.2.6.8 and 6.1.1.4'
H H 0.0000 0.0000 'International Tables Vol C Tables 4.2.6.8 and 6.1.1.4'
N N 0.0311 0.0180 'International Tables Vol C Tables 4.2.6.8 and 6.1.1.4'
S S 0.3331 0.5567 'International Tables Vol C Tables 4.2.6.8 and 6.1.1.4'
loop_
_geom_angle_atom_site_label_1
_geom_angle_atom_site_label_2
_geom_angle_atom_site_label_3
_geom_angle
S2 N1 H1N 103(4)
N1 S2 N3 111.5(3)
S2 N3 S4 120.1(3)
N3 S4 C1 100.2(3)
C2 C1 C6 119.9(5)
C2 C1 S4 124.2(4)
C6 C1 S4 115.9(4)
C1 C2 C3 119.8(5)
C1 C2 H2 120.1
C3 C2 H2 120.1
C2 C3 C4 121.6(5)
C2 C3 H3 119.2
C4 C3 H3 119.2
C5 C4 C3 118.0(5)
C5 C4 C7 120.2(6)
C3 C4 C7 121.8(6)
C4 C5 C6 121.3(5)
C4 C5 H5 119.4
C6 C5 H5 119.4
C1 C6 C5 119.4(5)
C1 C6 H6 120.3
C5 C6 H6 120.3
C4 C7 H7A 109.5
C4 C7 H7B 109.5
H7A C7 H7B 109.5
C4 C7 H7C 109.5
H7A C7 H7C 109.5
H7B C7 H7C 109.5
loop_
_geom_bond_atom_site_label_1
_geom_bond_atom_site_label_2
_geom_bond_distance
N1 S2 1.530(5)
N1 H1N 0.860(2)
S2 N3 1.543(5)
N3 S4 1.643(4)
S4 C1 1.767(5)
C1 C2 1.372(6)
C1 C6 1.381(7)
C2 C3 1.373(6)
C2 H2 0.9300
C3 C4 1.380(7)
C3 H3 0.9300
C4 C5 1.376(7)
C4 C7 1.527(6)
C5 C6 1.383(7)
C5 H5 0.9300
C6 H6 0.9300
C7 H7A 0.9600
C7 H7B 0.9600
C7 H7C 0.9600
loop_
_geom_torsion_atom_site_label_1
_geom_torsion_atom_site_label_2
_geom_torsion_atom_site_label_3
_geom_torsion_atom_site_label_4
_geom_torsion
N1 S2 N3 S4 -1.5(5)
S2 N3 S4 C1 -179.8(4)
N3 S4 C1 C2 1.9(5)
N3 S4 C1 C6 -179.0(5)
C6 C1 C2 C3 2.3(9)
S4 C1 C2 C3 -178.7(5)
C1 C2 C3 C4 -0.5(9)
C2 C3 C4 C5 -1.3(9)
C2 C3 C4 C7 179.4(6)
C3 C4 C5 C6 1.4(9)
C7 C4 C5 C6 -179.3(6)
C2 C1 C6 C5 -2.2(8)
S4 C1 C6 C5 178.7(4)
C4 C5 C6 C1 0.3(9)

_cod_database_fobs_code 2019946
