#------------------------------------------------------------------------------
#$Date: 2016-02-20 00:18:51 +0200 (Sat, 20 Feb 2016) $
#$Revision: 176760 $
#$URL: svn://www.crystallography.net/cod/cif/2/01/96/2019665.cif $
#------------------------------------------------------------------------------
#
# This file is available in the Crystallography Open Database (COD),
# http://www.crystallography.net/. The original data for this entry
# were provided by IUCr Journals, http://journals.iucr.org/.
#
# The file may be used within the scientific community so long as
# proper attribution is given to the journal article from which the
# data were obtained.
#
data_2019665
loop_
_publ_author_name
'Capelli, Silvia C.'
'B\"urgi, Hans-Beat'
'Mason, Sax A.'
'Jayatilaka, Dylan'
_publ_section_title
;
 Glycyl-<small>L</small>-alanine: a multi-temperature neutron study
;
_journal_issue                   10
_journal_name_full               'Acta Crystallographica Section C'
_journal_page_first              949
_journal_page_last               952
_journal_paper_doi               10.1107/S2053229614019809
_journal_volume                  70
_journal_year                    2014
_chemical_formula_iupac          'C5 H10 N2 O3'
_chemical_formula_moiety         'C5 H10 N2 O3'
_chemical_formula_sum            'C5 H10 N2 O3'
_chemical_formula_weight         146.15
_chemical_name_common            Gly-L-Ala
_chemical_name_systematic
;
Glycyl-<i>L</i>-alanine
;
_space_group_IT_number           19
_symmetry_cell_setting           orthorhombic
_symmetry_space_group_name_Hall  'P 2ac 2ab'
_symmetry_space_group_name_H-M   'P 21 21 21'
_atom_sites_solution_hydrogens   difmap
_atom_sites_solution_primary     direct
_atom_sites_solution_secondary   difmap
_audit_creation_method           SHELXL-97
_cell_angle_alpha                90.00
_cell_angle_beta                 90.00
_cell_angle_gamma                90.00
_cell_formula_units_Z            4
_cell_length_a                   7.4871(16)
_cell_length_b                   9.4966(19)
_cell_length_c                   9.7078(19)
_cell_measurement_reflns_used    483
_cell_measurement_temperature    150(2)
_cell_measurement_theta_max      37.87
_cell_measurement_theta_min      2.54
_cell_volume                     690.2(2)
_computing_cell_refinement       'ILL-RAFD9 software'
_computing_data_collection       'ILL-MAD software'
_computing_data_reduction        'RACER (Wilkinson <i>et al.</i>, 1988)'
_computing_molecular_graphics    'Mercury (Macrae <i>et al.</i>, 2008)'
_computing_structure_refinement  'SHELXL97 (Sheldrick, 2008)'
_computing_structure_solution    'SHELXS97 (Sheldrick, 2008)'
_diffrn_ambient_temperature      150(2)
_diffrn_detector_area_resol_mean 0.5
_diffrn_measured_fraction_theta_full 0.996
_diffrn_measured_fraction_theta_max 0.996
_diffrn_measurement_device_type  '4-circle Eulerian cradle'
_diffrn_measurement_method       'omega-X-theta scans'
_diffrn_radiation_monochromator  Cu(220)
_diffrn_radiation_source         'nuclear reactor'
_diffrn_radiation_wavelength     0.83130
_diffrn_reflns_av_R_equivalents  0.0240
_diffrn_reflns_av_sigmaI/netI    0.0686
_diffrn_reflns_limit_h_max       6
_diffrn_reflns_limit_h_min       -11
_diffrn_reflns_limit_k_max       14
_diffrn_reflns_limit_k_min       0
_diffrn_reflns_limit_l_max       10
_diffrn_reflns_limit_l_min       -14
_diffrn_reflns_number            1481
_diffrn_reflns_theta_full        37.98
_diffrn_reflns_theta_max         37.98
_diffrn_reflns_theta_min         3.51
_diffrn_standards_number         0
_exptl_absorpt_coefficient_mu    2.15
_exptl_absorpt_correction_T_max  0.8081
_exptl_absorpt_correction_T_min  0.7263
_exptl_absorpt_correction_type   gaussian
_exptl_absorpt_process_details   'ILL-DATAP software'
_exptl_crystal_colour            coulourless
_exptl_crystal_density_diffrn    1.406
_exptl_crystal_density_method    'not measured'
_exptl_crystal_description       prismatic
_exptl_crystal_F_000             128
_exptl_crystal_size_max          3
_exptl_crystal_size_mid          3
_exptl_crystal_size_min          1.5
_refine_diff_density_max         0.824
_refine_diff_density_min         -0.897
_refine_ls_abs_structure_details 'Flack (1983), <b>???? Friedel pairs</b>'
_refine_ls_abs_structure_Flack   10(10)
_refine_ls_extinction_coef       0.0143(13)
_refine_ls_extinction_expression Fc^*^=kFc[1+0.001xFc^2^\l^3^/sin(2\q)]^-1/4^
_refine_ls_extinction_method     'SHELXL97 (Sheldrick, 2008)'
_refine_ls_goodness_of_fit_ref   1.071
_refine_ls_hydrogen_treatment    refall
_refine_ls_matrix_type           full
_refine_ls_number_parameters     182
_refine_ls_number_reflns         1354
_refine_ls_number_restraints     0
_refine_ls_restrained_S_all      1.071
_refine_ls_R_factor_all          0.0591
_refine_ls_R_factor_gt           0.0446
_refine_ls_shift/su_max          0.002
_refine_ls_shift/su_mean         0.000
_refine_ls_structure_factor_coef Fsqd
_refine_ls_weighting_details
'calc w=1/[\s^2^(Fo^2^)+(0.0000P)^2^+3.3733P] where P=(Fo^2^+2Fc^2^)/3'
_refine_ls_weighting_scheme      calc
_refine_ls_wR_factor_gt          0.0754
_refine_ls_wR_factor_ref         0.0807
_reflns_number_gt                1165
_reflns_number_total             1354
_reflns_threshold_expression     I>2sigma(I)
_iucr_refine_instructions_details
;
TITL Gly-Ala in P2(1)2(1)2(1) d9 data at 150K
CELL 0.8313 7.4871    9.4966    9.7078      90.000  90.000  90.000
ZERR    4.00   0.0016   0.0019   0.0019   0.000   0.000   0.000
LATT -1
SYMM 0.5-X, -Y, 0.5+Z
SYMM -X, 0.5+Y, 0.5-Z
SYMM 0.5+X, 0.5-Y, -Z
SFAC C  0 0 0 0 0 0 0 0  6.6484   0 0 0 0.77  12.011
SFAC H  0 0 0 0 0 0 0 0 -3.7409   0 0 0 0.32  1.008
SFAC N  0 0 0 0 0 0 0 0  9.3600   0 0 0 1.5  14.0067
SFAC O  0 0 0 0 0 0 0 0  5.805    0 0 0 0.66  16
rem above coherent b values all from
rem reference A. Rauch & W. Waschkowski, Neutron Data Booklet
rem (July 2003, eds A.J. Dianoux & G. Lander)
rem copy of NDB available from ILL
rem various Rauch et al  tables also available on Web:-
rem   see http://www.ati.ac.at/~neutropt/scattering/table.html
UNIT 20 40 8 12
TEMP -123
L.S.  2
BOND
bond $H
HTAB
PLAN 10
acta
WGHT    0.000000    3.373300
EXTI    0.014330
FVAR       0.76379
O1    4    0.268496    0.963159    0.777768    11.00000    0.02261    0.02084 =
         0.01351   -0.00496    0.00416   -0.00721
O2    4    0.430720    1.125816    0.883308    11.00000    0.01620    0.02161 =
         0.01042   -0.00301    0.00084   -0.00355
O3    4    0.709352    0.948726    0.599847    11.00000    0.01758    0.01856 =
         0.01459   -0.00227   -0.00667    0.00267
N1    3    0.443434    1.035657    0.525303    11.00000    0.01363    0.01584 =
         0.00924   -0.00209    0.00055    0.00274
H1N1  2    0.354113    1.039799    0.445407    11.00000    0.02498    0.02816 =
         0.02071   -0.00140   -0.00463   -0.00093
N2    3    0.734326    0.755651    0.400719    11.00000    0.01546    0.01508 =
         0.01140   -0.00099    0.00129    0.00219
H1N2  2    0.861233    0.800246    0.404208    11.00000    0.02011    0.02817 =
         0.03265    0.00068   -0.00143   -0.00059
H2N2  2    0.735842    0.678918    0.322545    11.00000    0.03103    0.02681 =
         0.02428   -0.00400    0.00276   -0.00329
H3N2  2    0.704109    0.701811    0.491066    11.00000    0.03136    0.02671 =
         0.02293    0.00731    0.00314    0.00598
C1    1    0.373718    1.065270    0.776654    11.00000    0.01312    0.01201 =
         0.00908   -0.00215    0.00072    0.00063
C2    1    0.426805    1.134161    0.638816    11.00000    0.01541    0.01345 =
         0.00938   -0.00067   -0.00027    0.00144
H2    2    0.556463    1.186522    0.654972    11.00000    0.03341    0.03248 =
         0.02334   -0.00281    0.00484   -0.00865
C3    1    0.286380    1.244617    0.603104    11.00000    0.03716    0.02042 =
         0.01589    0.00006   -0.00270    0.01447
H3A   2    0.159205    1.194055    0.581135    11.00000    0.03346    0.06571 =
         0.04747   -0.00220   -0.01224    0.01465
H3B   2    0.325016    1.302949    0.513021    11.00000    0.08273    0.04563 =
         0.03351    0.01486    0.00486    0.01631
H3C   2    0.271984    1.318720    0.688111    11.00000    0.07910    0.04214 =
         0.03532   -0.01185   -0.00523    0.03189
C4    1    0.589459    0.954917    0.513659    11.00000    0.01336    0.01092 =
         0.00887   -0.00043   -0.00120    0.00066
C5    1    0.599305    0.866410    0.381580    11.00000    0.01729    0.01524 =
         0.00991   -0.00065   -0.00031    0.00388
H5A   2    0.470573    0.820201    0.356070    11.00000    0.02556    0.04065 =
         0.03789   -0.01333   -0.00586    0.00059
H5B   2    0.636160    0.934046    0.293979    11.00000    0.05573    0.02913 =
         0.01921    0.00442    0.00516    0.01168
HKLF 4
END
;
_cod_data_source_file            yf3069sup1.cif
_cod_data_source_block           ga150k
_cod_depositor_comments
'Adding full bibliography for 2019663--2019666.cif.'
_cod_database_code               2019665
_cod_database_fobs_code          2019665
loop_
_symmetry_equiv_pos_as_xyz
'x, y, z'
'-x+1/2, -y, z+1/2'
'-x, y+1/2, -z+1/2'
'x+1/2, -y+1/2, -z'
loop_
_atom_site_type_symbol
_atom_site_label
_atom_site_fract_x
_atom_site_fract_y
_atom_site_fract_z
_atom_site_U_iso_or_equiv
_atom_site_adp_type
_atom_site_calc_flag
_atom_site_occupancy
_atom_site_symmetry_multiplicity
O O1 0.2685(3) 0.9632(3) 0.7778(2) 0.0190(4) Uani d 1 1
O O2 0.4307(3) 1.1258(3) 0.8833(2) 0.0161(4) Uani d 1 1
O O3 0.7094(3) 0.9487(3) 0.5998(2) 0.0169(4) Uani d 1 1
N N1 0.44343(18) 1.03566(15) 0.52530(13) 0.0129(2) Uani d 1 1
N N2 0.73433(19) 0.75565(16) 0.40072(14) 0.0140(3) Uani d 1 1
C C1 0.3737(3) 1.0653(2) 0.77665(19) 0.0114(3) Uani d 1 1
C C2 0.4268(3) 1.1342(2) 0.63882(18) 0.0127(3) Uani d 1 1
C C3 0.2864(4) 1.2446(3) 0.6031(2) 0.0245(5) Uani d 1 1
C C4 0.5895(2) 0.9549(2) 0.51366(18) 0.0110(3) Uani d 1 1
C C5 0.5993(3) 0.8664(2) 0.38158(19) 0.0141(4) Uani d 1 1
H H1N1 0.3541(6) 1.0398(5) 0.4454(4) 0.0246(8) Uani d 1 1
H H1N2 0.8612(6) 0.8002(5) 0.4042(5) 0.0270(9) Uani d 1 1
H H2N2 0.7358(7) 0.6789(5) 0.3225(5) 0.0274(9) Uani d 1 1
H H3N2 0.7041(7) 0.7018(5) 0.4911(5) 0.0270(9) Uani d 1 1
H H2 0.5565(7) 1.1865(6) 0.6550(5) 0.0297(10) Uani d 1 1
H H3A 0.1592(9) 1.1941(8) 0.5811(7) 0.0489(16) Uani d 1 1
H H3B 0.3250(12) 1.3029(8) 0.5130(7) 0.0540(18) Uani d 1 1
H H3C 0.2720(12) 1.3187(7) 0.6881(6) 0.0522(18) Uani d 1 1
H H5A 0.4706(7) 0.8202(6) 0.3561(6) 0.0347(11) Uani d 1 1
H H5B 0.6362(8) 0.9340(6) 0.2940(5) 0.0347(11) Uani d 1 1
loop_
_atom_site_aniso_label
_atom_site_aniso_U_11
_atom_site_aniso_U_22
_atom_site_aniso_U_33
_atom_site_aniso_U_12
_atom_site_aniso_U_13
_atom_site_aniso_U_23
O1 0.0226(11) 0.0208(10) 0.0135(8) -0.0072(10) 0.0042(8) -0.0050(9)
O2 0.0162(9) 0.0216(10) 0.0104(9) -0.0036(9) 0.0008(8) -0.0030(8)
O3 0.0176(9) 0.0186(10) 0.0146(8) 0.0027(9) -0.0067(8) -0.0023(9)
N1 0.0136(6) 0.0158(6) 0.0092(5) 0.0027(5) 0.0006(5) -0.0021(5)
N2 0.0155(6) 0.0151(6) 0.0114(5) 0.0022(5) 0.0013(5) -0.0010(5)
C1 0.0131(8) 0.0120(8) 0.0091(7) 0.0006(6) 0.0007(6) -0.0021(6)
C2 0.0154(8) 0.0134(8) 0.0094(7) 0.0014(7) -0.0003(7) -0.0007(6)
C3 0.0372(13) 0.0204(9) 0.0159(9) 0.0145(10) -0.0027(9) 0.0001(8)
C4 0.0134(7) 0.0109(7) 0.0089(6) 0.0007(6) -0.0012(6) -0.0004(6)
C5 0.0173(9) 0.0152(8) 0.0099(7) 0.0039(7) -0.0003(7) -0.0007(7)
H1N1 0.0250(18) 0.0282(19) 0.0207(16) -0.0009(19) -0.0046(14) -0.0014(16)
H1N2 0.0201(19) 0.028(2) 0.033(2) -0.0006(17) -0.0014(18) 0.0007(19)
H2N2 0.031(2) 0.027(2) 0.0243(19) -0.0033(19) 0.0028(18) -0.0040(17)
H3N2 0.031(2) 0.027(2) 0.0229(18) 0.0060(18) 0.0031(17) 0.0073(16)
H2 0.033(2) 0.032(2) 0.0233(18) -0.009(2) 0.0048(19) -0.0028(17)
H3A 0.033(3) 0.066(4) 0.047(3) 0.015(3) -0.012(3) -0.002(3)
H3B 0.083(5) 0.046(3) 0.034(3) 0.016(4) 0.005(3) 0.015(3)
H3C 0.079(5) 0.042(3) 0.035(3) 0.032(4) -0.005(3) -0.012(2)
H5A 0.026(2) 0.041(3) 0.038(3) 0.001(2) -0.006(2) -0.013(2)
H5B 0.056(3) 0.029(2) 0.0192(17) 0.012(2) 0.005(2) 0.0044(17)
loop_
_atom_type_symbol
_atom_type_description
_atom_type_scat_length_neutron
_atom_type_scat_dispersion_real
_atom_type_scat_dispersion_imag
_atom_type_scat_source
C C 6.6484 0.0000 0.0000 'Neutron Data Booklet Table 1.1-8'
H H -3.7409 0.0000 0.0000 'Neutron Data Booklet Table 1.1-8'
N N 9.36 0.0000 0.0000 'Neutron Data Booklet Table 1.1-8'
O O 5.805 0.0000 0.0000 'Neutron Data Booklet Table 1.1-8'
loop_
_geom_angle_atom_site_label_1
_geom_angle_atom_site_label_2
_geom_angle_atom_site_label_3
_geom_angle
C4 N1 C2 120.20(15)
C4 N1 H1N1 119.4(3)
C2 N1 H1N1 119.6(3)
C5 N2 H1N2 109.9(3)
C5 N2 H2N2 114.3(3)
C5 N2 H3N2 108.0(3)
H1N2 N2 H2N2 107.2(4)
H1N2 N2 H3N2 111.8(4)
H2N2 N2 H3N2 105.7(4)
O1 C1 O2 124.1(2)
O1 C1 C2 119.96(19)
O2 C1 C2 115.64(19)
N1 C2 C3 109.27(16)
N1 C2 C1 114.07(16)
C3 C2 C1 108.15(17)
N1 C2 H2 108.9(3)
C3 C2 H2 109.2(4)
C1 C2 H2 107.2(3)
C2 C3 H3A 110.2(4)
C2 C3 H3B 110.7(5)
C2 C3 H3C 109.9(4)
H3A C3 H3B 107.7(6)
H3A C3 H3C 110.3(7)
H3B C3 H3C 108.1(6)
O3 C4 N1 124.47(19)
O3 C4 C5 120.51(19)
N1 C4 C5 115.02(16)
N2 C5 C4 108.61(15)
N2 C5 H5A 110.4(4)
C4 C5 H5A 111.6(3)
N2 C5 H5B 110.0(3)
C4 C5 H5B 109.7(3)
H5A C5 H5B 106.4(5)
loop_
_geom_bond_atom_site_label_1
_geom_bond_atom_site_label_2
_geom_bond_distance
O1 C1 1.249(3)
O2 C1 1.259(3)
O3 C4 1.229(3)
N1 C4 1.340(2)
N1 C2 1.451(2)
N1 H1N1 1.025(4)
N2 C5 1.471(2)
N2 H1N2 1.041(5)
N2 H2N2 1.052(5)
N2 H3N2 1.040(5)
C1 C2 1.542(3)
C2 C3 1.525(3)
C2 H2 1.102(6)
C3 H3A 1.088(8)
C3 H3B 1.075(7)
C3 H3C 1.090(6)
C4 C5 1.535(3)
C5 H5A 1.088(6)
C5 H5B 1.101(5)
