#------------------------------------------------------------------------------
#$Date: 2016-02-14 06:40:26 +0200 (Sun, 14 Feb 2016) $
#$Revision: 176432 $
#$URL: svn://www.crystallography.net/cod/cif/2/01/94/2019403.cif $
#------------------------------------------------------------------------------
#
# This file is available in the Crystallography Open Database (COD),
# http://www.crystallography.net/
#
# All data on this site have been placed in the public domain by the
# contributors.
#
data_2019403
loop_
_publ_author_name
'Gholizadeh, Mostafa'
'Pourayoubi, Mehrdad'
'Farimaneh, Masoumeh'
'Tarahhomi, Atekeh'
'Du\<sek, Michal'
'Eigner, V\'aclav'
_publ_section_title
;
 Hirshfeld surface analysis of the 1,1'-(ethane-1,2-diyl)dipyridinium
 dication in two new salts: perchlorate and peroxodisulfate
;
_journal_coeditor_code           LG3130
_journal_issue                   2
_journal_name_full               'Acta Crystallographica Section C'
_journal_page_first              230
_journal_page_last               235
_journal_paper_doi               10.1107/S2053229614000576
_journal_volume                  70
_journal_year                    2014
_chemical_formula_iupac          'C12 H14 N2 2+ , S2 O8 2-'
_chemical_formula_moiety         'C12 H14 N2 2+, S2 O8 2-'
_chemical_formula_sum            'C12 H14 N2 O8 S2'
_chemical_formula_weight         378.4
_chemical_name_common
;
1,1'-(Ethane-1,2-diyl)dipyridinium peroxodisulfate
;
_chemical_name_systematic
;
1,1'-(Ethane-1,2-diyl)dipyridinium hexaoxo-\m-peroxo-disulfate(2-)
;
_space_group_IT_number           14
_symmetry_cell_setting           monoclinic
_symmetry_space_group_name_Hall  '-P 2ybc'
_symmetry_space_group_name_H-M   'P 1 21/c 1'
_cell_angle_alpha                90
_cell_angle_beta                 98.359(4)
_cell_angle_gamma                90
_cell_formula_units_Z            2
_cell_length_a                   8.2189(5)
_cell_length_b                   9.6676(6)
_cell_length_c                   9.8361(4)
_cell_measurement_reflns_used    3143
_cell_measurement_temperature    120
_cell_measurement_theta_max      29.27
_cell_measurement_theta_min      2.96
_cell_volume                     773.24(7)
_computing_cell_refinement       '<i>CrysAlis PRO</i> (Agilent, 2010)'
_computing_data_collection       '<i>CrysAlis PRO</i> (Agilent, 2010)'
_computing_data_reduction        '<i>CrysAlis PRO</i> (Agilent, 2010)'
_computing_molecular_graphics    '<i>DIAMOND</i> (Brandenburg & Putz, 2005)'
_computing_publication_material
;
<i>JANA2006</i> (Pet\<r\'i\<cek <i>et al.</i>, 2006), enCIFer (Allen,
<i>et al.</i>, 2004) and <i>PLATON</i> (Spek, 2009)
;
_computing_structure_refinement
'<i>JANA2006</i> (Pet\<r\'i\<cek <i>et al.</i>, 2006)'
_computing_structure_solution    '<i>SIR2002</i> (Burla <i>et al.</i>, 2003)'
_diffrn_ambient_temperature      120
_diffrn_detector_area_resol_mean 10.3784
_diffrn_measured_fraction_theta_full 0.98
_diffrn_measured_fraction_theta_max 0.87
_diffrn_measurement_device       'four-cycle diffractometer'
_diffrn_measurement_device_type
'Agilent Xcalibur Gemini Ultra diffractometer with Atlas detector'
_diffrn_measurement_method       \w
_diffrn_radiation_monochromator  graphite
_diffrn_radiation_source         'Enhance (Mo) X-ray Source'
_diffrn_radiation_type           'Mo K\a'
_diffrn_radiation_wavelength     0.7107
_diffrn_reflns_av_R_equivalents  0.0165
_diffrn_reflns_av_sigmaI/netI    0.0154
_diffrn_reflns_limit_h_max       11
_diffrn_reflns_limit_h_min       -11
_diffrn_reflns_limit_k_max       13
_diffrn_reflns_limit_k_min       -10
_diffrn_reflns_limit_l_max       12
_diffrn_reflns_limit_l_min       -13
_diffrn_reflns_number            5426
_diffrn_reflns_theta_full        27.26
_diffrn_reflns_theta_max         29.34
_diffrn_reflns_theta_min         2.97
_exptl_absorpt_coefficient_mu    0.39
_exptl_absorpt_correction_T_max  0.845
_exptl_absorpt_correction_T_min  0.801
_exptl_absorpt_correction_type   analytical
_exptl_absorpt_process_details   '(CrysAlis PRO; Agilent, 2010)'
_exptl_crystal_colour            colourless
_exptl_crystal_density_diffrn    1.6246
_exptl_crystal_description       prism
_exptl_crystal_F_000             392
_exptl_crystal_size_max          0.757
_exptl_crystal_size_mid          0.632
_exptl_crystal_size_min          0.535
_refine_diff_density_max         0.31
_refine_diff_density_min         -0.27
_refine_ls_extinction_coef       344E2(16)
_refine_ls_extinction_method
'B--C type 1 Gaussian isotropic (Becker & Coppens, 1974)'
_refine_ls_goodness_of_fit_ref   1.71
_refine_ls_hydrogen_treatment    constr
_refine_ls_number_constraints    28
_refine_ls_number_parameters     110
_refine_ls_number_reflns         1848
_refine_ls_number_restraints     0
_refine_ls_R_factor_all          0.0309
_refine_ls_R_factor_gt           0.0283
_refine_ls_shift/su_max          0.0070
_refine_ls_shift/su_mean         0.0015
_refine_ls_structure_factor_coef Fsqd
_refine_ls_weighting_details     'w = 1/(\s^2^(I)+0.0016I^2^)'
_refine_ls_weighting_scheme      sigma
_refine_ls_wR_factor_gt          0.0907
_refine_ls_wR_factor_ref         0.0923
_reflns_number_gt                1687
_reflns_number_total             1848
_reflns_threshold_expression     I>3\s(I)
_iucr_refine_instructions_details
;
Jana2006 M40 file
   19    0    0    1
 12.97684 0.000000 0.000000 0.000000 0.000000 0.000000      100000
 0.000000 0.000000                                          00
 0.000000 0.000000 0.000000 0.000000 0.000000 0.000000      000000
 3.442939 0.000000 0.000000 0.000000 0.000000 0.000000      100000
S1        5  2     1.000000 0.337246 0.118846 0.076493
 0.010782 0.012571 0.013812 0.002772 0.003324-0.000727      0111111111
O1        4  2     1.000000 0.273321 0.182070-0.052525
 0.019442 0.022584 0.017259 0.006423-0.001200 0.002176      0111111111
O2        4  2     1.000000 0.460149 0.201231 0.159078
 0.017949 0.018324 0.016196-0.002424 0.000988-0.002446      0111111111
O3        4  2     1.000000 0.217867 0.053606 0.148848
 0.016068 0.024402 0.025188-0.001028 0.011418-0.001782      0111111111
O4        4  2     1.000000 0.433188-0.023053 0.037992
 0.016476 0.011265 0.030639 0.000719 0.015954 0.001304      0111111111
N2        3  2     1.000000 0.338076 0.569667 0.096764
 0.010430 0.013599 0.012717-0.000354 0.002896-0.002091      0111111111
C6        1  2     1.000000 0.108581 0.719053 0.056224
 0.017987 0.017718 0.025834 0.005803 0.005839 0.006446      0111111111
C5        1  2     1.000000 0.031873 0.642279 0.148918
 0.014003 0.023406 0.022423 0.003716 0.006797 0.002265      0111111111
C7        1  2     1.000000 0.263604 0.680399 0.032454
 0.017914 0.014465 0.019806 0.000492 0.006443 0.002936      0111111111
C4        1  2     1.000000 0.111517 0.529574 0.213901
 0.017305 0.021352 0.017933 0.000617 0.008012 0.003610      0111111111
C3        1  2     1.000000 0.266291 0.494070 0.186798
 0.014910 0.016020 0.013112 0.002067 0.002141 0.001657      0111111111
C1        1  2     1.000000 0.505303 0.533151 0.071172
 0.009572 0.017105 0.014124 0.001196 0.002138-0.002568      0111111111
H1C6      2  1     1.000000 0.054444 0.797422 0.009780
 0.024300 0.000000 0.000000 0.000000 0.000000 0.000000      0000000000
H1C5      2  1     1.000000-0.075686 0.667742 0.167356
 0.023440 0.000000 0.000000 0.000000 0.000000 0.000000      0000000000
H1C7      2  1     1.000000 0.318515 0.732784-0.030259
 0.020434 0.000000 0.000000 0.000000 0.000000 0.000000      0000000000
H1C4      2  1     1.000000 0.059549 0.476065 0.277688
 0.021989 0.000000 0.000000 0.000000 0.000000 0.000000      0000000000
H1C3      2  1     1.000000 0.322568 0.415913 0.231844
 0.017605 0.000000 0.000000 0.000000 0.000000 0.000000      0000000000
H1C1      2  1     1.000000 0.553291 0.468653 0.139716
 0.016271 0.000000 0.000000 0.000000 0.000000 0.000000      0000000000
H2C1      2  1     1.000000 0.571429 0.615268 0.074414
 0.016271 0.000000 0.000000 0.000000 0.000000 0.000000      0000000000
----------------------------   s.u. block   ----------------------------
 0.039292 0.000000 0.000000 0.000000 0.000000 0.000000
 0.000000 0.000000
 0.000000 0.000000 0.000000 0.000000 0.000000 0.000000
 0.159425 0.000000 0.000000 0.000000 0.000000 0.000000
S1                 0.000000 0.000035 0.000033 0.000028
 0.000206 0.000220 0.000202 0.000111 0.000135 0.000107
O1                 0.000000 0.000117 0.000110 0.000094
 0.000478 0.000555 0.000468 0.000420 0.000370 0.000384
O2                 0.000000 0.000112 0.000102 0.000088
 0.000472 0.000525 0.000447 0.000397 0.000363 0.000364
O3                 0.000000 0.000116 0.000109 0.000096
 0.000483 0.000581 0.000479 0.000412 0.000381 0.000420
O4                 0.000000 0.000105 0.000095 0.000091
 0.000481 0.000490 0.000521 0.000396 0.000402 0.000394
N2                 0.000000 0.000121 0.000124 0.000099
 0.000506 0.000590 0.000456 0.000409 0.000386 0.000416
C6                 0.000000 0.000163 0.000153 0.000134
 0.000654 0.000719 0.000678 0.000573 0.000540 0.000569
C5                 0.000000 0.000168 0.000151 0.000137
 0.000623 0.000760 0.000661 0.000547 0.000524 0.000562
C7                 0.000000 0.000160 0.000143 0.000130
 0.000631 0.000658 0.000622 0.000540 0.000511 0.000506
C4                 0.000000 0.000165 0.000152 0.000131
 0.000612 0.000733 0.000584 0.000561 0.000474 0.000521
C3                 0.000000 0.000152 0.000145 0.000121
 0.000592 0.000647 0.000532 0.000538 0.000445 0.000478
C1                 0.000000 0.000146 0.000134 0.000115
 0.000544 0.000657 0.000545 0.000499 0.000433 0.000483
H1C6               0.000000-0.100000-0.100000-0.100000
 0.000000 0.000000 0.000000 0.000000 0.000000 0.000000
H1C5               0.000000-0.100000-0.100000-0.100000
 0.000000 0.000000 0.000000 0.000000 0.000000 0.000000
H1C7               0.000000-0.100000-0.100000-0.100000
 0.000000 0.000000 0.000000 0.000000 0.000000 0.000000
H1C4               0.000000-0.100000-0.100000-0.100000
 0.000000 0.000000 0.000000 0.000000 0.000000 0.000000
H1C3               0.000000-0.100000-0.100000-0.100000
 0.000000 0.000000 0.000000 0.000000 0.000000 0.000000
H1C1               0.000000-0.100000-0.100000-0.100000
 0.000000 0.000000 0.000000 0.000000 0.000000 0.000000
H2C1               0.000000-0.100000-0.100000-0.100000
 0.000000 0.000000 0.000000 0.000000 0.000000 0.000000
--------------------------   Saved points   ----------------------------
    0
--------------------------   Fourier maxima   --------------------------
    1    1    1
max1      1  1     1.000000 0.267583 0.072630 0.119756      000  0  0  0
     0.31     0.21
max2      1  1     1.000000 0.501732 0.500000-0.001242      000  0  0  0
     0.31     0.20
max3      1  1     1.000000 0.176587 0.512302 0.182909      000  0  0  0
     0.31     0.18
max4      1  1     1.000000 0.691341 0.800744 0.074222      000  0  0  0
     0.18     0.18
max5      1  1     1.000000 0.189916 0.699769 0.050644      000  0  0  0
     0.31     0.17
max6      1  1     1.000000 0.195072 0.080095 0.167232      000  0  0  0
     0.21     0.17
max7      1  1     1.000000 0.072706 0.674525 0.097016      000  0  0  0
     0.28     0.17
max8      1  1     1.000000 0.299819 0.537500 0.133144      000  0  0  0
     0.30     0.16
max9      1  1     1.000000 0.667980 0.847116 0.027181      000  0  0  0
     0.19     0.15
max10     1  1     1.000000 0.785418 0.798880 0.023184      000  0  0  0
     0.16     0.15
--------------------------   Fourier minima   --------------------------
    1    1    1
min1      1  1     1.000000 0.307298 0.177131 0.093361      000  0  0  0
     0.27     0.17
min2      1  1     1.000000 0.470460 0.541189 0.214065      000  0  0  0
     0.16     0.16
min3      1  1     1.000000 0.372545 0.089729 0.133903      000  0  0  0
     0.26     0.13
min4      1  1     1.000000 0.352375 0.715425 0.100165      000  0  0  0
     0.15     0.12
min5      1  1     1.000000 0.690421 0.984785 0.215986      000  0  0  0
     0.16     0.12
min6      1  1     1.000000 0.378297 0.157753 0.052694      000  0  0  0
     0.23     0.12
min7      1  1     1.000000 0.446664 0.074672 0.195535      000  0  0  0
     0.14     0.11
min8      1  1     1.000000 0.329755 0.825081 0.094800      000  0  0  0
     0.12     0.11
min9      1  1     1.000000 0.744682 0.018062 0.170180      000  0  0  0
     0.11     0.11
min10     1  1     1.000000 0.236038 0.284648 0.115151      000  0  0  0
     0.13     0.11
------------------------------------------------------------------------
Jana2006 M50 file
Version Jana2006
title
cell 8.2189 9.6676 9.8361 90 98.359 90
esdcell 0.0005 0.0006 0.0004 0 0.004 0
spgroup P21/c 14 22
lattice P
symmetry x y z
symmetry -x y+1/2 -z+1/2
symmetry -x -y -z
symmetry x -y+1/2 z+1/2
unitsnumb 2
chemform C12 H14 N2 O8 S2
formtab -62
atom C atradius 0.77 color 128073041
atom H atradius 0.46 color 255204204
atom N atradius 0.74 color 176185230
atom O atradius 0.74 color 254003000
atom S atradius 1.04 color 255250000
roundmethod 1
end
*******************************************************************************
contour
  plane Plane#1
    pntplane 1 C3
    pntplane 1 C5
    pntplane 1 C7
    dltplane 0.1
    scpplane 10 10 1
    shfplane 5 5 0.5
    drawatom N2 Default 2
    drawatom C7 Default 2
    drawatom C3 Default 2
    drawatom C1 Default 2
    drawatom C5 Default 2
    drawatom C4 Default 2
    drawatom C6 Default 2
    drawatom H1C7 Default 2
    drawatom H1C6 Default 2
    drawatom H1C5 Default 2
    drawatom H1C4 Default 2
    drawatom H1C3 Default 2
  endplane
end contour
dist
  angles 1
end dist
fourier
  addbord 0 maptype 6
end fourier
refine
  fsquare 1 unstab 0.02
  iext 1 itypex 1 idistr 1 radius 0.01
  keep hydro triang C6 2 1 C7 C5 0.96 H1C6
  keep ADP riding C6 1.2 H1C6
  keep hydro triang C5 2 1 C4 C6 0.96 H1C5
  keep ADP riding C5 1.2 H1C5
  keep hydro triang C7 2 1 N2 C6 0.96 H1C7
  keep ADP riding C7 1.2 H1C7
  keep hydro triang C4 2 1 C3 C5 0.96 H1C4
  keep ADP riding C4 1.2 H1C4
  keep hydro triang C3 2 1 N2 C4 0.96 H1C3
  keep ADP riding C3 1.2 H1C3
  keep hydro tetrahed C1 2 2 N2 C1#s3t1,1,0 0.96 H1C1 H2C1
  keep ADP riding C1 1.2 H1C1 H2C1
end refine
;
_cod_data_source_file            lg3130sup1.cif
_cod_data_source_block           II
_cod_original_sg_symbol_Hall     '-P 2ycb'
_cod_original_sg_symbol_H-M      'P 21/c'
_cod_database_code               2019403
_cod_database_fobs_code          2019403
loop_
_symmetry_equiv_pos_site_id
_symmetry_equiv_pos_as_xyz
1 x,y,z
2 -x,y+1/2,-z+1/2
3 -x,-y,-z
4 x,-y+1/2,z+1/2
loop_
_atom_site_type_symbol
_atom_site_label
_atom_site_fract_x
_atom_site_fract_y
_atom_site_fract_z
_atom_site_U_iso_or_equiv
_atom_site_adp_type
_atom_site_calc_flag
_atom_site_occupancy
_atom_site_symmetry_multiplicity
S S1 0.33725(4) 0.11885(3) 0.07649(3) 0.01224(12) Uani d 1 4
O O1 0.27332(12) 0.18207(11) -0.05252(9) 0.0201(3) Uani d 1 4
O O2 0.46015(11) 0.20123(10) 0.15908(9) 0.0176(3) Uani d 1 4
O O3 0.21787(12) 0.05361(11) 0.14885(10) 0.0211(3) Uani d 1 4
O O4 0.43319(11) -0.02305(10) 0.03799(9) 0.0182(3) Uani d 1 4
N N2 0.33808(12) 0.56967(12) 0.09676(10) 0.0121(3) Uani d 1 4
C C6 0.10858(16) 0.71905(15) 0.05622(13) 0.0203(4) Uani d 1 4
C C5 0.03187(17) 0.64228(15) 0.14892(14) 0.0195(4) Uani d 1 4
C C7 0.26360(16) 0.68040(14) 0.03245(13) 0.0170(4) Uani d 1 4
C C4 0.11152(17) 0.52957(15) 0.21390(13) 0.0183(4) Uani d 1 4
C C3 0.26629(15) 0.49407(15) 0.18680(12) 0.0147(3) Uani d 1 4
C C1 0.50530(15) 0.53315(13) 0.07117(12) 0.0136(3) Uani d 1 4
H H1C6 0.054444 0.797422 0.00978 0.0243 Uiso d 1 4
H H1C5 -0.075686 0.667742 0.167356 0.0234 Uiso d 1 4
H H1C7 0.318515 0.732784 -0.030259 0.0204 Uiso d 1 4
H H1C4 0.059549 0.476065 0.277688 0.022 Uiso d 1 4
H H1C3 0.322568 0.415913 0.231844 0.0176 Uiso d 1 4
H H1C1 0.553291 0.468653 0.139716 0.0163 Uiso d 1 4
H H2C1 0.571429 0.615268 0.074414 0.0163 Uiso d 1 4
loop_
_atom_site_aniso_label
_atom_site_aniso_U_11
_atom_site_aniso_U_22
_atom_site_aniso_U_33
_atom_site_aniso_U_12
_atom_site_aniso_U_13
_atom_site_aniso_U_23
_atom_site_aniso_type_symbol
S1 0.0108(2) 0.0126(2) 0.0138(2) 0.00277(11) 0.00332(13) -0.00073(11) S
O1 0.0194(5) 0.0226(6) 0.0173(5) 0.0064(4) -0.0012(4) 0.0022(4) O
O2 0.0179(5) 0.0183(5) 0.0162(4) -0.0024(4) 0.0010(4) -0.0024(4) O
O3 0.0161(5) 0.0244(6) 0.0252(5) -0.0010(4) 0.0114(4) -0.0018(4) O
O4 0.0165(5) 0.0113(5) 0.0306(5) 0.0007(4) 0.0160(4) 0.0013(4) O
N2 0.0104(5) 0.0136(6) 0.0127(5) -0.0004(4) 0.0029(4) -0.0021(4) N
C6 0.0180(7) 0.0177(7) 0.0258(7) 0.0058(6) 0.0058(5) 0.0064(6) C
C5 0.0140(6) 0.0234(8) 0.0224(7) 0.0037(5) 0.0068(5) 0.0023(6) C
C7 0.0179(6) 0.0145(7) 0.0198(6) 0.0005(5) 0.0064(5) 0.0029(5) C
C4 0.0173(6) 0.0214(7) 0.0179(6) 0.0006(6) 0.0080(5) 0.0036(5) C
C3 0.0149(6) 0.0160(6) 0.0131(5) 0.0021(5) 0.0021(4) 0.0017(5) C
C1 0.0096(5) 0.0171(7) 0.0141(5) 0.0012(5) 0.0021(4) -0.0026(5) C
loop_
_atom_type_symbol
_atom_type_scat_dispersion_real
_atom_type_scat_dispersion_imag
_atom_type_scat_source
C 0.0033 0.0016 'International Tables Vol C tables 4.2.6.8 and 6.1.1.1'
H 0.0000 0.0000 'International Tables Vol C tables 4.2.6.8 and 6.1.1.1'
N 0.0061 0.0033 'International Tables Vol C tables 4.2.6.8 and 6.1.1.1'
O 0.0106 0.0060 'International Tables Vol C tables 4.2.6.8 and 6.1.1.1'
S 0.1246 0.1234 'International Tables Vol C tables 4.2.6.8 and 6.1.1.1'
loop_
_geom_angle_atom_site_label_1
_geom_angle_atom_site_label_2
_geom_angle_atom_site_label_3
_geom_angle_site_symmetry_1
_geom_angle_site_symmetry_3
_geom_angle
_geom_angle_publ_flag
O1 S1 O2 . . 113.52(6) yes
O1 S1 O3 . . 115.79(6) yes
O2 S1 O3 . . 115.85(6) yes
C7 N2 C3 . . 121.85(11) yes
C7 N2 C1 . . 118.80(11) yes
C3 N2 C1 . . 119.32(11) yes
C5 C6 C7 . . 118.86(13) ?
C5 C6 H1C6 . . 120.57 ?
C7 C6 H1C6 . . 120.57 ?
C6 C5 C4 . . 119.60(13) ?
C6 C5 H1C5 . . 120.2 ?
C4 C5 H1C5 . . 120.2 ?
N2 C7 C6 . . 120.28(13) ?
N2 C7 H1C7 . . 119.86 ?
C6 C7 H1C7 . . 119.86 ?
C5 C4 C3 . . 119.70(13) ?
C5 C4 H1C4 . . 120.15 ?
C3 C4 H1C4 . . 120.15 ?
N2 C3 C4 . . 119.70(12) ?
N2 C3 H1C3 . . 120.15 ?
C4 C3 H1C3 . . 120.15 ?
N2 C1 C1 . 3_665 109.00(9) ?
N2 C1 H1C1 . . 109.47 ?
N2 C1 H2C1 . . 109.47 ?
C1 C1 H1C1 3_665 . 109.47 ?
C1 C1 H2C1 3_665 . 109.47 ?
H1C1 C1 H2C1 . . 109.94 ?
loop_
_geom_bond_atom_site_label_1
_geom_bond_atom_site_label_2
_geom_bond_site_symmetry_2
_geom_bond_distance
_geom_bond_publ_flag
S1 O1 . 1.4374(10) yes
S1 O2 . 1.4408(9) yes
S1 O3 . 1.4388(11) yes
O4 O4 3_655 1.4839(13) yes
N2 C7 . 1.3447(17) yes
N2 C3 . 1.3485(17) yes
N2 C1 . 1.4757(16) yes
C6 C5 . 1.395(2) ?
C6 C7 . 1.3800(19) ?
C6 H1C6 . 0.96 ?
C5 C4 . 1.379(2) ?
C5 H1C5 . 0.96 ?
C7 H1C7 . 0.96 ?
C4 C3 . 1.3805(19) ?
C4 H1C4 . 0.96 ?
C3 H1C3 . 0.96 ?
C1 C1 3_665 1.5308(16) ?
C1 H1C1 . 0.96 ?
C1 H2C1 . 0.96 ?
loop_
_geom_hbond_atom_site_label_D
_geom_hbond_atom_site_label_H
_geom_hbond_atom_site_label_A
_geom_hbond_site_symmetry_A
_geom_hbond_distance_DH
_geom_hbond_distance_HA
_geom_hbond_distance_DA
_geom_hbond_angle_DHA
_geom_hbond_publ_flag
C1 H2C1 O1 3_665 0.96 2.36 3.3198(17) 173 yes
C7 H1C7 O2 3_665 0.96 2.45 3.3552(17) 158 yes
C3 H1C3 O2 . 0.96 2.52 3.279(2) 136 yes
C3 H1C3 O1 4_555 0.96 2.41 3.0715(16) 126 yes
C7 H1C7 O4 1_565 0.96 2.59 3.185(2) 120 yes
C1 H1C1 O2 . 0.96 2.71 3.358(2) 125 yes
N2 . O2 2_655 . . 2.9960(10) . yes
C5 H1C5 O1 3_565 0.96 2.34 3.063(2) 131 yes
C5 H1C5 O3 2_555 0.96 2.54 3.177(2) 124 yes
C4 H1C4 O3 2_555 0.96 2.60 3.204(2) 121 yes
loop_
_geom_torsion_atom_site_label_1
_geom_torsion_atom_site_label_2
_geom_torsion_atom_site_label_3
_geom_torsion_atom_site_label_4
_geom_torsion_site_symmetry_4
_geom_torsion
_geom_torsion_publ_flag
C3 N2 C1 C1 3_665 107.08(12) yes
C7 N2 C1 C1 3_665 -74.94(14) yes
C4 C3 N2 C1 . 178.41(12) yes
C6 C7 N2 C1 . -178.69(12) yes
O1 S1 O4 O4 3_655 61.05(8) yes
O2 S1 O4 O4 3_655 -59.71(8) yes
O3 S1 O4 O4 3_655 -179.30(7) yes
