#------------------------------------------------------------------------------
#$Date: 2016-02-20 00:18:51 +0200 (Sat, 20 Feb 2016) $
#$Revision: 176760 $
#$URL: svn://www.crystallography.net/cod/cif/2/01/90/2019090.cif $
#------------------------------------------------------------------------------
#
# This file is available in the Crystallography Open Database (COD),
# http://www.crystallography.net/. The original data for this entry
# were provided by IUCr Journals, http://journals.iucr.org/.
#
# The file may be used within the scientific community so long as
# proper attribution is given to the journal article from which the
# data were obtained.
#
data_2019090
loop_
_publ_author_name
'Gomes, Ligia Rebelo'
'Low, John Nicolson'
'Rodrigues, Ana S. M. C.'
'Wardell, James L.'
'de Souza, Marcus V. N.'
'Noguiera, Thais C. M.'
'Pinheiro, Alessandra C.'
_publ_section_title
;
 Comparison of the structure of
 (<i>E</i>)-2-(2-benzylidenehydrazinylidene)quinoxaline with those of its
 chloro- and bromobenzylidene analogues
;
_journal_issue                   8
_journal_name_full               'Acta Crystallographica Section C'
_journal_page_first              920
_journal_page_last               926
_journal_paper_doi               10.1107/S0108270113015370
_journal_volume                  69
_journal_year                    2013
_chemical_formula_moiety         'C15 H11 Cl N4'
_chemical_formula_sum            'C15 H11 Cl N4'
_chemical_formula_weight         282.73
_chemical_name_systematic
;
(<i>E</i>)-2-(2-(2-chlorobenzylidene)hydrazinyl)quinoxaline
;
_space_group_IT_number           2
_symmetry_cell_setting           triclinic
_symmetry_space_group_name_Hall  '-P 1'
_symmetry_space_group_name_H-M   'P -1'
_atom_sites_solution_hydrogens   geom
_atom_sites_solution_primary     direct
_atom_sites_solution_secondary   difmap
_audit_creation_method           SHELXL-97
_cell_angle_alpha                77.957(6)
_cell_angle_beta                 77.357(6)
_cell_angle_gamma                75.560(5)
_cell_formula_units_Z            2
_cell_length_a                   6.6870(7)
_cell_length_b                   7.2591(8)
_cell_length_c                   13.8150(16)
_cell_measurement_reflns_used    7742
_cell_measurement_temperature    100(2)
_cell_measurement_theta_max      27.5
_cell_measurement_theta_min      3.1
_cell_volume                     625.19(12)
_computing_cell_refinement
;
CrystalClear-SM Expert 2.0 r13 (Rigaku, 2011)
;
_computing_data_collection
;
CrystalClear-SM Expert 2.0 r13 (Rigaku, 2011)
;
_computing_data_reduction
;
CrystalClear-SM Expert 2.0 r13 (Rigaku, 2011)
;
_computing_molecular_graphics    'MERCURY  (Macrae, 2006)'
_computing_publication_material
;
Oscail (McArdle et al., 2004),
SHELXL-97 (Sheldrick, 2008),
PLATON (Spek, 2009)
;
_computing_structure_refinement
;
Oscail (McArdle et al., 2004),
SHELXL-97 (Sheldrick, 2008)
;
_computing_structure_solution    'SHELXS (Sheldrick, 2008)'
_diffrn_ambient_temperature      100
_diffrn_detector_area_resol_mean 28.5714
_diffrn_measured_fraction_theta_full 0.994
_diffrn_measured_fraction_theta_max 0.993
_diffrn_measurement_device
;
AFC12 (Right): Kappa 3 circle
;
_diffrn_measurement_device_type
;
Rigaku Saturn724+ (2x2 bin mode)
;
_diffrn_measurement_method       'profile data from \w-scans'
_diffrn_radiation_monochromator  Confocal
_diffrn_radiation_type           'Mo K\a'
_diffrn_radiation_wavelength     0.71075
_diffrn_reflns_av_R_equivalents  0.0000
_diffrn_reflns_av_sigmaI/netI    0.0704
_diffrn_reflns_limit_h_max       8
_diffrn_reflns_limit_h_min       -8
_diffrn_reflns_limit_k_max       9
_diffrn_reflns_limit_k_min       -9
_diffrn_reflns_limit_l_max       17
_diffrn_reflns_limit_l_min       -17
_diffrn_reflns_number            2854
_diffrn_reflns_theta_full        25.00
_diffrn_reflns_theta_max         27.48
_diffrn_reflns_theta_min         3.08
_exptl_absorpt_coefficient_mu    0.299
_exptl_absorpt_correction_T_max  0.9823
_exptl_absorpt_correction_T_min  0.9025
_exptl_absorpt_correction_type   multi-scan
_exptl_absorpt_process_details
;
CrystalClear-SM Expert 2.0 r11 (Rigaku, 2011)
;
_exptl_crystal_colour            yellow
_exptl_crystal_density_diffrn    1.502
_exptl_crystal_density_method    'not measured'
_exptl_crystal_description       block
_exptl_crystal_F_000             292
_exptl_crystal_size_max          0.35
_exptl_crystal_size_mid          0.12
_exptl_crystal_size_min          0.06
_refine_diff_density_max         0.853
_refine_diff_density_min         -1.159
_refine_ls_extinction_method     none
_refine_ls_goodness_of_fit_ref   1.179
_refine_ls_hydrogen_treatment    constr
_refine_ls_matrix_type           full
_refine_ls_number_parameters     183
_refine_ls_number_reflns         2854
_refine_ls_number_restraints     0
_refine_ls_restrained_S_all      1.179
_refine_ls_R_factor_all          0.1123
_refine_ls_R_factor_gt           0.1076
_refine_ls_shift/su_max          0.000
_refine_ls_shift/su_mean         0.000
_refine_ls_structure_factor_coef Fsqd
_refine_ls_weighting_details
'calc w=1/[\s^2^(Fo^2^)+(0.0000P)^2^+7.6397P] where P=(Fo^2^+2Fc^2^)/3'
_refine_ls_weighting_scheme      calc
_refine_ls_wR_factor_gt          0.3071
_refine_ls_wR_factor_ref         0.3089
_reflns_number_gt                2639
_reflns_number_total             2854
_reflns_threshold_expression     >2sigma(I)
_iucr_refine_instructions_details
;
TITL process1
CELL 0.71073 6.687 7.2591 13.815 77.957 77.357 75.56
ZERR 2 0.0007 0.0008 0.0016 0.006 0.006 0.005
LATT 1
SFAC C H Cl N
UNIT 30 22 2 8
L.S. 10
PLAN  20
shel 7.0 .77
SIZE 0.35 0.12 0.06
TEMP -173
FMAP 2
acta 50
bond $h
conf
eqiv_$1 x-1,y,z
eqiv_$2 x+1,y,z
htab N1 n14_$1
htab C15 N11_$2
mpla 6 c31 c32 c33 c34 c35 c36
mpla 10 n11 c12 c13 n14 c14a c15 c16 c17 c18 c18a
mpla 3 n1 n2 c3
mpla 6 c31 c32 c33 c34 c35 c36
MERG 0
OMIT 0 0 2
REM <HKL>C:\crystals\ligia\jlw\quinoxaline\2012ncs0888\888_t.hkl</HKL>
WGHT    0.000000    7.639700
BASF   0.26418   0.05369
FVAR      37.33849
CL32  3   -0.384919    0.807362    0.090596    11.00000    0.01126    0.01980 =
         0.01671   -0.00144   -0.00268    0.00018
N1    4    0.125221    0.481393    0.324211    11.00000    0.01290    0.02346 =
         0.01172    0.00216   -0.00296   -0.00564
AFIX  43
H1    2   -0.005152    0.480533    0.354062    11.00000   -1.20000
AFIX   0
N2    4    0.168098    0.552733    0.224731    11.00000    0.01602    0.01746 =
         0.00963   -0.00136   -0.00235   -0.00285
N11   4    0.237306    0.317679    0.469818    11.00000    0.01370    0.01401 =
         0.01329   -0.00332   -0.00084   -0.00391
N14   4    0.650964    0.368304    0.385993    11.00000    0.01299    0.01454 =
         0.01248   -0.00360   -0.00017   -0.00464
C3    1    0.007921    0.614139    0.179815    11.00000    0.01411    0.01830 =
         0.01205   -0.00552   -0.00079   -0.00177
AFIX  43
H3    2   -0.129462    0.614390    0.217191    11.00000   -1.20000
AFIX   0
C12   1    0.286369    0.410278    0.378391    11.00000    0.01189    0.01330 =
         0.01018   -0.00525   -0.00185   -0.00115
C13   1    0.495921    0.439226    0.336129    11.00000    0.01776    0.01545 =
         0.01200   -0.00442   -0.00128   -0.00535
AFIX  43
H13   2    0.521814    0.511422    0.270616    11.00000   -1.20000
AFIX   0
C14A  1    0.605685    0.262991    0.480949    11.00000    0.01270    0.01149 =
         0.01306   -0.00291   -0.00257   -0.00108
C15   1    0.767077    0.182565    0.536879    11.00000    0.01352    0.01410 =
         0.02014   -0.00345   -0.00188   -0.00503
AFIX  43
H15   2    0.905922    0.199441    0.509810    11.00000   -1.20000
AFIX   0
C16   1    0.722253    0.079183    0.631169    11.00000    0.01763    0.02145 =
         0.01774   -0.00403   -0.00627   -0.00572
AFIX  43
H16   2    0.831631    0.023837    0.668989    11.00000   -1.20000
AFIX   0
C17   1    0.517561    0.053598    0.672880    11.00000    0.02487    0.01680 =
         0.01221    0.00041   -0.00666   -0.00544
AFIX  43
H17   2    0.490165   -0.019406    0.738069    11.00000   -1.20000
AFIX   0
C18   1    0.356396    0.134206    0.619409    11.00000    0.01497    0.01669 =
         0.01193   -0.00445    0.00032   -0.00508
AFIX  43
H18   2    0.218053    0.117297    0.647819    11.00000   -1.20000
AFIX   0
C18A  1    0.397664    0.242031    0.522232    11.00000    0.01329    0.00909 =
         0.01030   -0.00267   -0.00071   -0.00040
C31   1    0.038029    0.683394    0.071263    11.00000    0.01548    0.01691 =
         0.01098   -0.00361   -0.00017   -0.00783
C32   1   -0.132004    0.772403    0.022410    11.00000    0.01462    0.01111 =
         0.01455   -0.00258   -0.00144   -0.00336
C33   1   -0.103434    0.833434   -0.081415    11.00000    0.01550    0.01352 =
         0.01829   -0.00073   -0.00580    0.00030
AFIX  43
H33   2   -0.220847    0.894767   -0.113201    11.00000   -1.20000
AFIX   0
C34   1    0.096033    0.804307   -0.137672    11.00000    0.02467    0.01648 =
         0.01342    0.00104    0.00120   -0.00589
AFIX  43
H34   2    0.116206    0.844200   -0.208481    11.00000   -1.20000
AFIX   0
C35   1    0.266726    0.716921   -0.090867    11.00000    0.01426    0.01776 =
         0.01743   -0.00223   -0.00012   -0.00403
AFIX  43
H35   2    0.404124    0.698504   -0.129677    11.00000   -1.20000
AFIX   0
C36   1    0.238728    0.656105    0.012156    11.00000    0.01694    0.01753 =
         0.01324   -0.00150   -0.00209   -0.00454
AFIX  43
H36   2    0.357261    0.595039    0.043169    11.00000   -1.20000
HKLF 5
REM  process1
REM R1 =  0.1076 for   2639 Fo > 4sig(Fo)  and  0.1123 for all   2854 data
REM    183 parameters refined using      0 restraints
END
WGHT      0.0000      7.5691
REM Highest difference peak  0.853,  deepest hole -1.159,  1-sigma level  0.165
Q1    1   0.3467  0.4400  0.0962  11.00000  0.05    0.85
Q2    1   0.1290  0.8286 -0.0857  11.00000  0.05    0.78
Q3    1   0.3216  0.7207 -0.1839  11.00000  0.05    0.72
Q4    1   0.6040  0.1232  0.7565  11.00000  0.05    0.66
Q5    1  -0.3118  1.0690 -0.0580  11.00000  0.05    0.66
Q6    1   0.7566 -0.0780  0.7192  11.00000  0.05    0.64
Q7    1   0.7556  0.1803  0.4218  11.00000  0.05    0.57
Q8    1  -0.2616  0.7264  0.2600  11.00000  0.05    0.57
Q9    1  -0.2669  0.8473 -0.0952  11.00000  0.05    0.55
Q10   1   0.5104  0.6266  0.0043  11.00000  0.05    0.54
Q11   1   0.0318  0.4894  0.0996  11.00000  0.05    0.54
Q12   1  -0.1485  0.7472 -0.0654  11.00000  0.05    0.53
Q13   1  -0.0711  0.9989 -0.1457  11.00000  0.05    0.53
Q14   1  -0.0989  0.8378 -0.0201  11.00000  0.05    0.53
Q15   1  -0.0323  0.9698 -0.0065  11.00000  0.05    0.52
Q16   1   0.6914  0.2044  0.5033  11.00000  0.05    0.52
Q17   1   0.7963  0.0743  0.6812  11.00000  0.05    0.52
Q18   1  -0.0009  0.7369 -0.0658  11.00000  0.05    0.52
Q19   1   0.5017  0.3373  0.2437  11.00000  0.05    0.51
Q20   1   0.5365  0.5742 -0.1002  11.00000  0.05    0.50
;
_cod_data_source_file            sk3488.cif
_cod_data_source_block           2a
_cod_database_code               2019090
_cod_database_fobs_code          2019090
loop_
_symmetry_equiv_pos_as_xyz
'x, y, z'
'-x, -y, -z'
loop_
_atom_site_type_symbol
_atom_site_label
_atom_site_fract_x
_atom_site_fract_y
_atom_site_fract_z
_atom_site_U_iso_or_equiv
_atom_site_adp_type
_atom_site_calc_flag
_atom_site_refinement_flags
_atom_site_occupancy
_atom_site_symmetry_multiplicity
Cl Cl32 -0.3849(2) 0.8074(2) 0.09060(12) 0.0168(4) Uani d . 1 1
N N1 0.1252(9) 0.4814(8) 0.3242(4) 0.0163(12) Uani d . 1 1
H H1 -0.0052 0.4805 0.3541 0.020 Uiso calc R 1 1
N N2 0.1681(9) 0.5527(8) 0.2247(4) 0.0146(11) Uani d . 1 1
N N11 0.2373(8) 0.3177(8) 0.4698(4) 0.0136(11) Uani d . 1 1
N N14 0.6510(8) 0.3683(8) 0.3860(4) 0.0131(11) Uani d . 1 1
C C3 0.0079(10) 0.6141(9) 0.1798(5) 0.0149(13) Uani d . 1 1
H H3 -0.1295 0.6144 0.2172 0.018 Uiso calc R 1 1
C C12 0.2864(10) 0.4103(9) 0.3784(5) 0.0116(12) Uani d . 1 1
C C13 0.4959(10) 0.4392(9) 0.3361(5) 0.0146(12) Uani d . 1 1
H H13 0.5218 0.5114 0.2706 0.018 Uiso calc R 1 1
C C14A 0.6057(10) 0.2630(9) 0.4809(5) 0.0125(12) Uani d . 1 1
C C15 0.7671(10) 0.1826(9) 0.5369(5) 0.0156(13) Uani d . 1 1
H H15 0.9059 0.1994 0.5098 0.019 Uiso calc R 1 1
C C16 0.7223(11) 0.0792(10) 0.6312(5) 0.0180(13) Uani d . 1 1
H H16 0.8316 0.0238 0.6690 0.022 Uiso calc R 1 1
C C17 0.5176(11) 0.0536(10) 0.6729(5) 0.0177(13) Uani d . 1 1
H H17 0.4902 -0.0194 0.7381 0.021 Uiso calc R 1 1
C C18 0.3564(10) 0.1342(9) 0.6194(5) 0.0143(12) Uani d . 1 1
H H18 0.2181 0.1173 0.6478 0.017 Uiso calc R 1 1
C C18A 0.3977(10) 0.2420(9) 0.5222(4) 0.0113(12) Uani d . 1 1
C C31 0.0380(10) 0.6834(9) 0.0713(5) 0.0138(12) Uani d . 1 1
C C32 -0.1320(10) 0.7724(9) 0.0224(5) 0.0134(12) Uani d . 1 1
C C33 -0.1034(10) 0.8334(9) -0.0814(5) 0.0162(13) Uani d . 1 1
H H33 -0.2208 0.8948 -0.1132 0.019 Uiso calc R 1 1
C C34 0.0960(11) 0.8043(10) -0.1377(5) 0.0192(14) Uani d . 1 1
H H34 0.1162 0.8442 -0.2085 0.023 Uiso calc R 1 1
C C35 0.2667(10) 0.7169(10) -0.0909(5) 0.0169(13) Uani d . 1 1
H H35 0.4041 0.6985 -0.1297 0.020 Uiso calc R 1 1
C C36 0.2387(11) 0.6561(10) 0.0122(5) 0.0160(13) Uani d . 1 1
H H36 0.3573 0.5950 0.0432 0.019 Uiso calc R 1 1
loop_
_atom_site_aniso_label
_atom_site_aniso_U_11
_atom_site_aniso_U_22
_atom_site_aniso_U_33
_atom_site_aniso_U_12
_atom_site_aniso_U_13
_atom_site_aniso_U_23
Cl32 0.0113(7) 0.0198(8) 0.0167(7) 0.0002(5) -0.0027(5) -0.0014(6)
N1 0.013(3) 0.023(3) 0.012(3) -0.006(2) -0.003(2) 0.002(2)
N2 0.016(3) 0.017(3) 0.010(2) -0.003(2) -0.002(2) -0.001(2)
N11 0.014(3) 0.014(3) 0.013(2) -0.004(2) -0.001(2) -0.003(2)
N14 0.013(2) 0.015(3) 0.012(2) -0.005(2) 0.000(2) -0.004(2)
C3 0.014(3) 0.018(3) 0.012(3) -0.002(2) -0.001(2) -0.006(2)
C12 0.012(3) 0.013(3) 0.010(3) -0.001(2) -0.002(2) -0.005(2)
C13 0.018(3) 0.015(3) 0.012(3) -0.005(2) -0.001(2) -0.004(2)
C14A 0.013(3) 0.011(3) 0.013(3) -0.001(2) -0.003(2) -0.003(2)
C15 0.014(3) 0.014(3) 0.020(3) -0.005(2) -0.002(2) -0.003(2)
C16 0.018(3) 0.021(3) 0.018(3) -0.006(3) -0.006(3) -0.004(3)
C17 0.025(3) 0.017(3) 0.012(3) -0.005(3) -0.007(3) 0.000(2)
C18 0.015(3) 0.017(3) 0.012(3) -0.005(2) 0.000(2) -0.004(2)
C18A 0.013(3) 0.009(3) 0.010(3) 0.000(2) -0.001(2) -0.003(2)
C31 0.015(3) 0.017(3) 0.011(3) -0.008(2) 0.000(2) -0.004(2)
C32 0.015(3) 0.011(3) 0.015(3) -0.003(2) -0.001(2) -0.003(2)
C33 0.015(3) 0.014(3) 0.018(3) 0.000(2) -0.006(3) -0.001(2)
C34 0.025(3) 0.016(3) 0.013(3) -0.006(3) 0.001(3) 0.001(2)
C35 0.014(3) 0.018(3) 0.017(3) -0.004(2) 0.000(2) -0.002(3)
C36 0.017(3) 0.018(3) 0.013(3) -0.005(3) -0.002(2) -0.001(2)
loop_
_atom_type_symbol
_atom_type_description
_atom_type_scat_dispersion_real
_atom_type_scat_dispersion_imag
_atom_type_scat_source
C C 0.0033 0.0016 'International Tables Vol C Tables 4.2.6.8 and 6.1.1.4'
H H 0.0000 0.0000 'International Tables Vol C Tables 4.2.6.8 and 6.1.1.4'
Cl Cl 0.1484 0.1585 'International Tables Vol C Tables 4.2.6.8 and 6.1.1.4'
N N 0.0061 0.0033 'International Tables Vol C Tables 4.2.6.8 and 6.1.1.4'
loop_
_geom_angle_atom_site_label_1
_geom_angle_atom_site_label_2
_geom_angle_atom_site_label_3
_geom_angle
N2 N1 C12 119.9(5)
N2 N1 H1 120.1
C12 N1 H1 120.1
C3 N2 N1 115.6(6)
C12 N11 C18A 116.4(5)
C13 N14 C14A 117.1(5)
N2 C3 C31 120.0(6)
N2 C3 H3 120.0
C31 C3 H3 120.0
N11 C12 N1 116.3(6)
N11 C12 C13 122.6(6)
N1 C12 C13 121.1(6)
N14 C13 C12 121.5(6)
N14 C13 H13 119.2
C12 C13 H13 119.2
N14 C14A C15 119.2(6)
N14 C14A C18A 120.4(6)
C15 C14A C18A 120.4(6)
C16 C15 C14A 119.3(6)
C16 C15 H15 120.4
C14A C15 H15 120.4
C15 C16 C17 121.3(6)
C15 C16 H16 119.4
C17 C16 H16 119.4
C18 C17 C16 120.2(6)
C18 C17 H17 119.9
C16 C17 H17 119.9
C17 C18 C18A 119.8(6)
C17 C18 H18 120.1
C18A C18 H18 120.1
N11 C18A C18 119.0(6)
N11 C18A C14A 121.9(6)
C18 C18A C14A 119.0(6)
C32 C31 C36 117.6(6)
C32 C31 C3 121.5(6)
C36 C31 C3 120.9(6)
C33 C32 C31 121.4(6)
C33 C32 Cl32 118.5(5)
C31 C32 Cl32 120.1(5)
C34 C33 C32 119.7(6)
C34 C33 H33 120.2
C32 C33 H33 120.2
C33 C34 C35 119.9(6)
C33 C34 H34 120.0
C35 C34 H34 120.0
C34 C35 C36 120.5(6)
C34 C35 H35 119.8
C36 C35 H35 119.8
C35 C36 C31 120.9(6)
C35 C36 H36 119.5
C31 C36 H36 119.5
loop_
_geom_bond_atom_site_label_1
_geom_bond_atom_site_label_2
_geom_bond_distance
Cl32 C32 1.732(6)
N1 N2 1.358(7)
N1 C12 1.379(8)
N1 H1 0.8800
N2 C3 1.292(8)
N11 C12 1.315(8)
N11 C18A 1.362(8)
N14 C13 1.309(8)
N14 C14A 1.386(8)
C3 C31 1.465(9)
C3 H3 0.9500
C12 C13 1.444(9)
C13 H13 0.9500
C14A C15 1.402(9)
C14A C18A 1.416(9)
C15 C16 1.372(9)
C15 H15 0.9500
C16 C17 1.406(10)
C16 H16 0.9500
C17 C18 1.380(9)
C17 H17 0.9500
C18 C18A 1.414(8)
C18 H18 0.9500
C31 C32 1.398(9)
C31 C36 1.401(9)
C32 C33 1.395(9)
C33 C34 1.379(9)
C33 H33 0.9500
C34 C35 1.384(10)
C34 H34 0.9500
C35 C36 1.385(9)
C35 H35 0.9500
C36 H36 0.9500
loop_
_geom_hbond_atom_site_label_D
_geom_hbond_atom_site_label_H
_geom_hbond_atom_site_label_A
_geom_hbond_site_symmetry_A
_geom_hbond_distance_DH
_geom_hbond_distance_HA
_geom_hbond_distance_DA
_geom_hbond_angle_DHA
N1 H1 N14 1_455 0.88 2.55 3.359(8) 154
C15 H15 N11 1_655 0.95 2.48 3.405(9) 163
loop_
_geom_torsion_atom_site_label_1
_geom_torsion_atom_site_label_2
_geom_torsion_atom_site_label_3
_geom_torsion_atom_site_label_4
_geom_torsion
C12 N1 N2 C3 179.2(6)
N1 N2 C3 C31 -176.4(6)
C18A N11 C12 N1 178.0(5)
C18A N11 C12 C13 -2.7(9)
N2 N1 C12 N11 -170.1(6)
N2 N1 C12 C13 10.6(9)
C14A N14 C13 C12 0.4(9)
N11 C12 C13 N14 2.4(10)
N1 C12 C13 N14 -178.3(6)
C13 N14 C14A C15 179.4(6)
C13 N14 C14A C18A -2.6(9)
N14 C14A C15 C16 179.6(6)
C18A C14A C15 C16 1.6(9)
C14A C15 C16 C17 -0.4(10)
C15 C16 C17 C18 -0.5(10)
C16 C17 C18 C18A 0.3(10)
C12 N11 C18A C18 -177.5(6)
C12 N11 C18A C14A 0.4(9)
C17 C18 C18A N11 178.8(6)
C17 C18 C18A C14A 0.9(9)
N14 C14A C18A N11 2.3(9)
C15 C14A C18A N11 -179.7(6)
N14 C14A C18A C18 -179.8(5)
C15 C14A C18A C18 -1.8(9)
N2 C3 C31 C32 -172.1(6)
N2 C3 C31 C36 10.3(10)
C36 C31 C32 C33 -0.5(9)
C3 C31 C32 C33 -178.2(6)
C36 C31 C32 Cl32 179.0(5)
C3 C31 C32 Cl32 1.3(8)
C31 C32 C33 C34 0.6(10)
Cl32 C32 C33 C34 -178.9(5)
C32 C33 C34 C35 -0.7(10)
C33 C34 C35 C36 0.8(10)
C34 C35 C36 C31 -0.7(10)
C32 C31 C36 C35 0.5(9)
C3 C31 C36 C35 178.2(6)
