#------------------------------------------------------------------------------
#$Date: 2016-08-05 09:33:56 +0300 (Fri, 05 Aug 2016) $
#$Revision: 185017 $
#$URL: file:///home/coder/svn-repositories/cod/cif/2/02/05/2020522.cif $
#------------------------------------------------------------------------------
#
# This file is available in the Crystallography Open Database (COD),
# http://www.crystallography.net/. The original data for this entry
# were provided by IUCr Journals, http://journals.iucr.org/.
#
# The file may be used within the scientific community so long as
# proper attribution is given to the journal article from which the
# data were obtained.
#
data_2020522
loop_
_publ_author_name
'Donkeng Dazie, Joel'
'Li\<ska, Alan'
'Ludv\'ik, Ji\<r\'i'
'F\'abry, Jan'
'Du\<sek, Michal'
_publ_section_title
;
 A study of the planarity of the pyrrolone fragment in
 2-isopropyl-2,3-dihydro-1<i>H</i>-isoindol-1-one
;
_journal_coeditor_code           LG3188
_journal_issue                   7
_journal_name_full               'Acta Crystallographica Section C'
_journal_page_first              518
_journal_page_last               524
_journal_paper_doi               10.1107/S2053229616008767
_journal_volume                  72
_journal_year                    2016
_chemical_formula_iupac          'C11 H13 N O'
_chemical_formula_moiety         'C11 H13 N O'
_chemical_formula_structural     'C11 H13 N O'
_chemical_formula_sum            'C11 H13 N O'
_chemical_formula_weight         175.2
_chemical_name_systematic
;
2-Isopropyl-2,3-dihydro-1<i>H</i>-isoindol-1-one
;
_space_group_IT_number           4
_symmetry_cell_setting           monoclinic
_symmetry_space_group_name_Hall  'P 2yb'
_symmetry_space_group_name_H-M   'P 1 21 1'
_cell_angle_alpha                90
_cell_angle_beta                 106.140(3)
_cell_angle_gamma                90
_cell_formula_units_Z            2
_cell_length_a                   6.2155(2)
_cell_length_b                   8.7681(3)
_cell_length_c                   8.9686(3)
_cell_measurement_reflns_used    6393
_cell_measurement_temperature    121.0(10)
_cell_measurement_theta_max      66.92
_cell_measurement_theta_min      5.1
_cell_volume                     469.51(3)
_computing_cell_refinement
;
CrysAlis PRO (Rigaku Oxford Diffraction, 2015)
;
_computing_data_collection
;
CrysAlis PRO (Rigaku Oxford Diffraction, 2015)
;
_computing_data_reduction
;
CrysAlis PRO (Rigaku Oxford Diffraction, 2015)
;
_computing_molecular_graphics
;
<i>JANA2006</i> (Pet\<r\'i\<cek <i>et al.</i>,  2014),
<i>Origin6.1</i> (OriginLab Corporation, 2000) and
<i>PLATON</i> (Spek, 2009)
;
_computing_publication_material
;
<i>JANA2006</i> (Pet\<r\'i\<cek <i>et al.</i>,  2014)
;
_computing_structure_refinement
;
<i>JANA2006</i> (Pet\<r\'i\<cek <i>et al.</i>,  2014)
;
_computing_structure_solution
;
<i>SIR97</i> (Altomare <i>et al.</i>, 1999)
;
_diffrn_ambient_temperature      121
_diffrn_detector_area_resol_mean 5.1783
_diffrn_measured_fraction_theta_full 0.99
_diffrn_measured_fraction_theta_max 0.99
_diffrn_measurement_device       'four-circle diffractometer'
_diffrn_measurement_device_type
'Rigaku Oxford Diffraction Xcalibur (Atlas2, Gemini ultra)'
_diffrn_measurement_method       '\w scans'
_diffrn_radiation_monochromator  mirror
_diffrn_radiation_type           'Cu K\a'
_diffrn_radiation_wavelength     1.54184
_diffrn_reflns_av_R_equivalents  0.0272
_diffrn_reflns_limit_h_max       7
_diffrn_reflns_limit_h_min       -7
_diffrn_reflns_limit_k_max       10
_diffrn_reflns_limit_k_min       -10
_diffrn_reflns_limit_l_max       10
_diffrn_reflns_limit_l_min       -10
_diffrn_reflns_number            7682
_diffrn_reflns_theta_full        67.02
_diffrn_reflns_theta_max         67.02
_diffrn_reflns_theta_min         5.13
_exptl_absorpt_coefficient_mu    0.628
_exptl_absorpt_correction_T_max  0.915
_exptl_absorpt_correction_T_min  0.86
_exptl_absorpt_correction_type   analytical
_exptl_absorpt_process_details
;
(CrysAlis PRO; Rigaku Oxford Diffraction, 2015)
;
_exptl_crystal_colour            orange
_exptl_crystal_density_diffrn    1.2395
_exptl_crystal_description       prism
_exptl_crystal_F_000             188
_exptl_crystal_size_max          0.329
_exptl_crystal_size_mid          0.225
_exptl_crystal_size_min          0.185
_refine_diff_density_max         0.11
_refine_diff_density_min         -0.09
_refine_ls_abs_structure_details
;
775 of Friedel pairs used in the refinement
;
_refine_ls_abs_structure_Flack   0.1(2)
_refine_ls_extinction_coef       85E1(14)
_refine_ls_extinction_method
;
B-C type 1 Lorentzian isotropic (Becker & Coppens, 1974)
;
_refine_ls_goodness_of_fit_ref   2.16
_refine_ls_hydrogen_treatment    mixed
_refine_ls_number_constraints    44
_refine_ls_number_parameters     129
_refine_ls_number_reflns         1677
_refine_ls_number_restraints     1
_refine_ls_R_factor_all          0.0256
_refine_ls_R_factor_gt           0.0252
_refine_ls_shift/su_max          0.0086
_refine_ls_shift/su_mean         0.0021
_refine_ls_structure_factor_coef Fsqd
_refine_ls_weighting_details     w=1/(\s^2^(I)+0.0004I^2^)
_refine_ls_weighting_scheme      sigma
_refine_ls_wR_factor_gt          0.0675
_refine_ls_wR_factor_ref         0.0678
_reflns_number_gt                1654
_reflns_number_total             1677
_reflns_threshold_expression     I>3\s(I)
_iucr_refine_instructions_details
;
   26    0    0    1
 5.887487 0.000000 0.000000 0.000000 0.000000 0.119272      100001
 0.000000 0.000000                                          00
 0.000000 0.000000 0.000000 0.000000 0.000000 0.000000      000000
 0.084735 0.000000 0.000000 0.000000 0.000000 0.000000      100000
C1        1  2     1.000000 0.317130 0.586824 0.177241
 0.024499 0.019393 0.019283-0.002410 0.006255 0.003493      0111111111
C2        1  2     1.000000 0.131532 0.563202 0.050389
 0.025664 0.025989 0.023782-0.001822 0.003099 0.002699      0111111111
H2        2  1     1.000000-0.007960 0.610940 0.043979
 0.031083 0.000000 0.000000 0.000000 0.000000 0.000000      0000000000
C3        1  2     1.000000 0.157999 0.467237-0.066407
 0.035597 0.028359 0.022157-0.004201 0.000689 0.000837      0111111111
H3        2  1     1.000000 0.034313 0.447504-0.154017
 0.036213 0.000000 0.000000 0.000000 0.000000 0.000000      0000000000
C4        1  2     1.000000 0.364198 0.399752-0.056159
 0.045037 0.025088 0.023217-0.004217 0.009348-0.003130      0111111111
H4        2  1     1.000000 0.379095 0.335359-0.137898
 0.037370 0.000000 0.000000 0.000000 0.000000 0.000000      0000000000
C5        1  2     1.000000 0.549145 0.424195 0.070787
 0.032960 0.023246 0.025966 0.001169 0.010352-0.000479      0111111111
H5        2  1     1.000000 0.689288 0.377556 0.076880
 0.032348 0.000000 0.000000 0.000000 0.000000 0.000000      0000000000
C6        1  2     1.000000 0.522134 0.518932 0.188177
 0.025183 0.019959 0.021406-0.002143 0.007895 0.002352      0111111111
C7        1  2     1.000000 0.686448 0.565492 0.338493
 0.021179 0.023136 0.021963 0.001742 0.006571-0.001281      0111111111
H7a       2  1     1.000000 0.737242 0.475361 0.404327
 0.026373 0.000000 0.000000 0.000000 0.000000 0.000000      0111000000
H7b       2  1     1.000000 0.819289 0.619930 0.325561
 0.026373 0.000000 0.000000 0.000000 0.000000 0.000000      0111000000
N1        3  2     1.000000 0.551943 0.667688 0.405552
 0.021382 0.023522 0.019094 0.001075 0.005707-0.002325      0111111111
C8        1  2     1.000000 0.335192 0.679371 0.318368
 0.022142 0.019854 0.021055-0.001064 0.006282 0.002774      0111111111
O1        4  2     1.000000 0.187213 0.752384 0.353267
 0.023111 0.029509 0.027494 0.003963 0.008201-0.000163      0111111111
C9        1  2     1.000000 0.627911 0.730059 0.563265
 0.024924 0.025266 0.020203 0.001343 0.004359-0.004764      0111111111
H9        2  1     1.000000 0.538976 0.822165 0.560528
 0.028618 0.000000 0.000000 0.000000 0.000000 0.000000      0111000000
C10       1  2     1.000000 0.573717 0.619598 0.678494
 0.039522 0.035716 0.020833 0.003552 0.008138 0.001555      0111111111
H10a      2  1     1.000000 0.629202 0.661002 0.783720
 0.048111 0.000000 0.000000 0.000000 0.000000 0.000000      0000000000
H10b      2  1     1.000000 0.411173 0.605373 0.653313
 0.048111 0.000000 0.000000 0.000000 0.000000 0.000000      0000000000
H10c      2  1     1.000000 0.645855 0.521245 0.672698
 0.048111 0.000000 0.000000 0.000000 0.000000 0.000000      0000000000
C11       1  2     1.000000 0.874216 0.771865 0.604734
 0.030325 0.054079 0.032800-0.009887 0.006508-0.016231      0111111111
H11a      2  1     1.000000 0.918082 0.820251 0.707257
 0.059284 0.000000 0.000000 0.000000 0.000000 0.000000      0000000000
H11b      2  1     1.000000 0.963623 0.679459 0.606601
 0.059284 0.000000 0.000000 0.000000 0.000000 0.000000      0000000000
H11c      2  1     1.000000 0.900108 0.842903 0.527142
 0.059284 0.000000 0.000000 0.000000 0.000000 0.000000      0000000000
----------------------------   s.u. block   ----------------------------
 0.013547 0.000000 0.000000 0.000000 0.000000 0.217491
 0.000000 0.000000
 0.000000 0.000000 0.000000 0.000000 0.000000 0.000000
 0.014400 0.000000 0.000000 0.000000 0.000000 0.000000
C1                 0.000000 0.000183 0.000131 0.000129
 0.000576 0.000596 0.000528 0.000465 0.000448 0.000473
C2                 0.000000 0.000202 0.000139 0.000134
 0.000583 0.000667 0.000606 0.000503 0.000460 0.000515
H2                 0.000000-0.100000-0.100000-0.100000
 0.000000 0.000000 0.000000 0.000000 0.000000 0.000000
C3                 0.000000 0.000212 0.000143 0.000143
 0.000670 0.000736 0.000581 0.000562 0.000488 0.000523
H3                 0.000000-0.100000-0.100000-0.100000
 0.000000 0.000000 0.000000 0.000000 0.000000 0.000000
C4                 0.000000 0.000248 0.000152 0.000149
 0.000749 0.000667 0.000595 0.000545 0.000519 0.000526
H4                 0.000000-0.100000-0.100000-0.100000
 0.000000 0.000000 0.000000 0.000000 0.000000 0.000000
C5                 0.000000 0.000222 0.000144 0.000143
 0.000674 0.000652 0.000583 0.000505 0.000490 0.000509
H5                 0.000000-0.100000-0.100000-0.100000
 0.000000 0.000000 0.000000 0.000000 0.000000 0.000000
C6                 0.000000 0.000188 0.000133 0.000132
 0.000548 0.000594 0.000569 0.000464 0.000436 0.000481
C7                 0.000000 0.000181 0.000143 0.000132
 0.000558 0.000607 0.000552 0.000463 0.000450 0.000482
H7a                0.000000 0.002270 0.001529 0.001581
 0.000000 0.000000 0.000000 0.000000 0.000000 0.000000
H7b                0.000000 0.002093 0.001609 0.001565
 0.000000 0.000000 0.000000 0.000000 0.000000 0.000000
N1                 0.000000 0.000152 0.000112 0.000108
 0.000466 0.000520 0.000462 0.000400 0.000376 0.000408
C8                 0.000000 0.000180 0.000132 0.000134
 0.000544 0.000580 0.000557 0.000452 0.000444 0.000454
O1                 0.000000 0.000128 0.000103 0.000095
 0.000405 0.000489 0.000447 0.000361 0.000331 0.000371
C9                 0.000000 0.000186 0.000142 0.000130
 0.000572 0.000637 0.000553 0.000505 0.000451 0.000491
H9                 0.000000 0.002508 0.001948 0.001665
 0.000000 0.000000 0.000000 0.000000 0.000000 0.000000
C10                0.000000 0.000230 0.000156 0.000142
 0.000734 0.000771 0.000586 0.000574 0.000525 0.000548
H10a               0.000000-0.100000-0.100000-0.100000
 0.000000 0.000000 0.000000 0.000000 0.000000 0.000000
H10b               0.000000-0.100000-0.100000-0.100000
 0.000000 0.000000 0.000000 0.000000 0.000000 0.000000
H10c               0.000000-0.100000-0.100000-0.100000
 0.000000 0.000000 0.000000 0.000000 0.000000 0.000000
C11                0.000000 0.000222 0.000188 0.000161
 0.000662 0.001012 0.000717 0.000661 0.000525 0.000684
H11a               0.000000-0.100000-0.100000-0.100000
 0.000000 0.000000 0.000000 0.000000 0.000000 0.000000
H11b               0.000000-0.100000-0.100000-0.100000
 0.000000 0.000000 0.000000 0.000000 0.000000 0.000000
H11c               0.000000-0.100000-0.100000-0.100000
 0.000000 0.000000 0.000000 0.000000 0.000000 0.000000
--------------------------   Saved points   ----------------------------
    0
--------------------------   Fourier maxima   --------------------------
    1    1    1
max1      1  1     1.000000 0.542884 0.430579 0.151569      000  0  0  0
     0.11     0.05
max2      1  1     1.000000 0.450628-0.000748 0.862011      000  0  0  0
     0.08     0.05
max3      1  1     1.000000 0.459487 0.415003 0.020447      000  0  0  0
     0.09     0.04
max4      1  1     1.000000 0.371720 0.058624 0.754383      000  0  0  0
     0.09     0.04
max5      1  1     1.000000 0.555809 0.114181 0.830337      000  0  0  0
     0.09     0.04
max6      1  1     1.000000 0.588556 0.014449 0.799525      000  0  0  0
     0.07     0.04
max7      1  1     1.000000 0.693465 0.092909 0.755982      000  0  0  0
     0.09     0.04
max8      1  1     1.000000 0.520937 0.236391 0.653282      000  0  0  0
     0.10     0.04
max9      1  1     1.000000 0.259380 0.270040 0.414594      000  0  0  0
     0.10     0.04
max10     1  1     1.000000 0.763539 0.081649 0.877957      000  0  0  0
     0.08     0.04
--------------------------   Fourier minima   --------------------------
    1    1    1
min1      1  1     1.000000 0.899754 0.112971 0.183893      000  0  0  0
     0.06     0.04
min2      1  1     1.000000 0.648591 0.052446-0.002488      000  0  0  0
     0.09     0.04
min3      1  1     1.000000 0.669962 0.030368 0.890538      000  0  0  0
     0.08     0.04
min4      1  1     1.000000 0.445753 0.060659 0.423416      000  0  0  0
     0.05     0.04
min5      1  1     1.000000 0.728399 0.240410 0.767100      000  0  0  0
     0.06     0.04
min6      1  1     1.000000 0.371630 0.054132 0.497060      000  0  0  0
     0.05     0.03
min7      1  1     1.000000 0.812728 0.089194 0.789722      000  0  0  0
     0.08     0.03
min8      1  1     1.000000 0.838329 0.039030 0.114387      000  0  0  0
     0.05     0.03
min9      1  1     1.000000 0.528676 0.084332 0.504399      000  0  0  0
     0.05     0.03
min10     1  1     1.000000 0.015838 0.083807 0.009476      000  0  0  0
     0.07     0.03
------------------------------------------------------------------------
Version Jana2006
title C11H13N1O1
cell 6.2155 8.7681 8.9686 90 106.14 90
esdcell 0.0002 0.0003 0.0003 0 0.003 0
spgroup P21 4 22
lattice P
symmetry x y z
symmetry -x y+1/2 -z
unitsnumb 2
chemform C11 H13 N O
formtab -62
atom C atradius 0.77 color 128073041
atom H atradius 0.46 color 255204204
atom N atradius 0.74 color 176185230
atom O atradius 0.74 color 254003000
twin 2
    -1.0000     0.0000     0.0000
     0.0000    -1.0000     0.0000
     0.0000     0.0000    -1.0000
roundmethod 1
end
*******************************************************************************
contour
end contour
dist
  angles 1 lsttype 1 dmax 1.7
  !plane C1 C2 C3 C4 C5 C6 C7 C8 N1
  plane N1 C1 C6 C7 C8
end dist
fourier
  maptype 6
end fourier
refine
  fsquare 1
  iext 1 itypex 1 idistr 2 radius 0.01
  distfix = 0.01 C7 H7a; C7 H7b;
  keep hydro triang C2 2 1 C3 C1 0.95 H2
  keep ADP riding C2 1.2 H2
  keep hydro triang C3 2 1 C4 C2 0.95 H3
  keep ADP riding C3 1.2 H3
  keep hydro triang C4 2 1 C5 C3 0.95 H4
  keep ADP riding C4 1.2 H4
  keep hydro triang C5 2 1 C4 C6 0.95 H5
  keep ADP riding C5 1.2 H5
  keep ADP riding C7 1.2 H7a H7b
  keep ADP riding C9 1.2 H9
  keep hydro tetrahed C10 1 3 C9 0.98 H10a H10b H10c
  keep ADP riding C10 1.5 H10a H10b H10c
  keep hydro tetrahed C11 1 3 C9 0.98 H11a H11b H11c
  keep ADP riding C11 1.5 H11a H11b H11c
end refine
  keep hydro triang C2 2 1 C5 C1 0.95 H1c2
  keep ADP riding C2 1.2 H1c2
  keep hydro triang C4 2 1 C8 C5 0.95 H1c4
  keep ADP riding C4 1.2 H1c4
  keep hydro triang C5 2 1 C4 C2 0.95 H1c5
  keep ADP riding C5 1.2 H1c5
  keep hydro triang C8 2 1 C4 C7 0.95 H1c8
  keep ADP riding C8 1.2 H1c8
  keep hydro tetrahed C6 2 2 N2 C7 0.99 H1c6 H1c6a
  keep ADP riding C6 1.2 H1c6 H1c6a
  keep hydro tetrahed C3 3 1 N2 C9 C10 1 H1c3
  keep ADP riding C3 1.2 H1c3
  keep hydro tetrahed C9 1 3 C3 0.98 H3c9 H2c9 H1c9
  keep ADP riding C9 1.5 H3c9 H2c9 H1c9
  keep hydro tetrahed C10 1 3 C3 0.98 H1c10 H3c10 H2c10
  keep ADP riding C10 1.5 H1c10 H3c10 H2c10
;
_cod_data_source_file            lg3188sup1.cif
_cod_data_source_block           I
_cod_depositor_comments          'Adding full bibliography for 2020522.cif.'
_cod_original_sg_symbol_H-M      'P 21'
_cod_database_code               2020522
_cod_database_fobs_code          2020522
loop_
_space_group_symop_id
_space_group_symop_operation_xyz
1 x,y,z
2 -x,y+1/2,-z
loop_
_atom_site_type_symbol
_atom_site_label
_atom_site_fract_x
_atom_site_fract_y
_atom_site_fract_z
_atom_site_U_iso_or_equiv
_atom_site_adp_type
_atom_site_calc_flag
_atom_site_occupancy
C C1 0.31713(18) 0.58682(13) 0.17724(13) 0.0210(4) Uani d 1
C C2 0.1315(2) 0.56320(14) 0.05039(13) 0.0259(4) Uani d 1
H H2 -0.00796 0.61094 0.043979 0.0311 Uiso d 1
C C3 0.1580(2) 0.46724(14) -0.06641(14) 0.0302(4) Uani d 1
H H3 0.034313 0.447504 -0.154017 0.0362 Uiso d 1
C C4 0.3642(2) 0.39975(15) -0.05616(15) 0.0311(4) Uani d 1
H H4 0.379095 0.335359 -0.137898 0.0374 Uiso d 1
C C5 0.5491(2) 0.42419(14) 0.07079(14) 0.0270(4) Uani d 1
H H5 0.689288 0.377556 0.07688 0.0323 Uiso d 1
C C6 0.52213(19) 0.51893(13) 0.18818(13) 0.0219(4) Uani d 1
C C7 0.68645(18) 0.56549(14) 0.33849(13) 0.0220(4) Uani d 1
H H7a 0.737(2) 0.4754(15) 0.4043(16) 0.0264 Uiso d 1
H H7b 0.819(2) 0.6199(16) 0.3256(16) 0.0264 Uiso d 1
N N1 0.55194(15) 0.66769(11) 0.40555(11) 0.0213(3) Uani d 1
C C8 0.33519(18) 0.67937(13) 0.31837(13) 0.0210(4) Uani d 1
O O1 0.18721(13) 0.75238(10) 0.35327(10) 0.0265(3) Uani d 1
C C9 0.62791(19) 0.73006(14) 0.56327(13) 0.0238(4) Uani d 1
H H9 0.539(3) 0.8222(19) 0.5605(17) 0.0286 Uiso d 1
C C10 0.5737(2) 0.61960(16) 0.67849(14) 0.0321(4) Uani d 1
H H10a 0.629202 0.661002 0.78372 0.0481 Uiso d 1
H H10b 0.411173 0.605373 0.653313 0.0481 Uiso d 1
H H10c 0.645855 0.521245 0.672698 0.0481 Uiso d 1
C C11 0.8742(2) 0.77187(19) 0.60473(16) 0.0395(5) Uani d 1
H H11a 0.918082 0.820251 0.707257 0.0593 Uiso d 1
H H11b 0.963623 0.679459 0.606601 0.0593 Uiso d 1
H H11c 0.900108 0.842903 0.527142 0.0593 Uiso d 1
loop_
_atom_site_aniso_label
_atom_site_aniso_U_11
_atom_site_aniso_U_22
_atom_site_aniso_U_33
_atom_site_aniso_U_12
_atom_site_aniso_U_13
_atom_site_aniso_U_23
_atom_site_aniso_type_symbol
C1 0.0245(6) 0.0194(6) 0.0193(5) -0.0024(5) 0.0063(4) 0.0035(5) C
C2 0.0257(6) 0.0260(7) 0.0238(6) -0.0018(5) 0.0031(5) 0.0027(5) C
C3 0.0356(7) 0.0284(7) 0.0222(6) -0.0042(6) 0.0007(5) 0.0008(5) C
C4 0.0450(7) 0.0251(7) 0.0232(6) -0.0042(5) 0.0093(5) -0.0031(5) C
C5 0.0330(7) 0.0232(7) 0.0260(6) 0.0012(5) 0.0104(5) -0.0005(5) C
C6 0.0252(5) 0.0200(6) 0.0214(6) -0.0021(5) 0.0079(4) 0.0024(5) C
C7 0.0212(6) 0.0231(6) 0.0220(6) 0.0017(5) 0.0066(5) -0.0013(5) C
N1 0.0214(5) 0.0235(5) 0.0191(5) 0.0011(4) 0.0057(4) -0.0023(4) N
C8 0.0221(5) 0.0199(6) 0.0211(6) -0.0011(5) 0.0063(4) 0.0028(5) C
O1 0.0231(4) 0.0295(5) 0.0275(4) 0.0040(4) 0.0082(3) -0.0002(4) O
C9 0.0249(6) 0.0253(6) 0.0202(6) 0.0013(5) 0.0044(5) -0.0048(5) C
C10 0.0395(7) 0.0357(8) 0.0208(6) 0.0036(6) 0.0081(5) 0.0016(5) C
C11 0.0303(7) 0.0541(10) 0.0328(7) -0.0099(7) 0.0065(5) -0.0162(7) C
loop_
_atom_type_symbol
_atom_type_scat_dispersion_real
_atom_type_scat_dispersion_imag
_atom_type_scat_source
C 0.0181 0.0091 'International Tables Vol C tables 4.2.6.8 and 6.1.1.1'
H 0.0000 0.0000 'International Tables Vol C tables 4.2.6.8 and 6.1.1.1'
N 0.0311 0.0180 'International Tables Vol C tables 4.2.6.8 and 6.1.1.1'
O 0.0492 0.0322 'International Tables Vol C tables 4.2.6.8 and 6.1.1.1'
loop_
_exptl_crystal_face_index_h
_exptl_crystal_face_index_k
_exptl_crystal_face_index_l
_exptl_crystal_face_perp_dist
1 5 -3 0.1098
3 -3 -4 0.1508
-3 3 4 0.1508
4 0 0 0.0820
-4 0 0 0.1033
0 -5 4 0.1101
0 5 -4 0.1002
-2 -3 -3 0.1493
3 2 3 0.0459
0 -4 4 0.1133
0 -4 -4 0.1526
-1 -5 3 0.1197
1 1 -6 0.1544
loop_
_geom_angle_atom_site_label_1
_geom_angle_atom_site_label_2
_geom_angle_atom_site_label_3
_geom_angle
C2 C1 C6 122.07(11)
C2 C1 C8 128.94(11)
C6 C1 C8 108.98(9)
C1 C2 H2 121.26
C1 C2 C3 117.49(11)
H2 C2 C3 121.26
C2 C3 H3 119.73
C2 C3 C4 120.53(11)
H3 C3 C4 119.73
C3 C4 H4 119.17
C3 C4 C5 121.66(13)
H4 C4 C5 119.17
C4 C5 H5 121.1
C4 C5 C6 117.80(12)
H5 C5 C6 121.1
C1 C6 C5 120.44(10)
C1 C6 C7 109.21(10)
C5 C6 C7 130.35(11)
C6 C7 H7a 110.1(7)
C6 C7 H7b 114.0(8)
C6 C7 N1 102.20(9)
H7a C7 H7b 108.6(11)
H7a C7 N1 111.7(9)
H7b C7 N1 110.1(8)
C7 N1 C8 113.41(9)
C7 N1 C9 123.84(8)
C8 N1 C9 121.87(10)
C1 C8 N1 106.11(10)
C1 C8 O1 128.17(9)
N1 C8 O1 125.72(11)
N1 C9 H9 104.8(8)
N1 C9 C10 110.19(10)
N1 C9 C11 111.04(11)
H9 C9 C10 108.3(10)
H9 C9 C11 109.4(9)
C10 C9 C11 112.73(10)
C9 C10 H10a 109.47
C9 C10 H10b 109.47
C9 C10 H10c 109.47
H10a C10 H10b 109.47
H10a C10 H10c 109.47
H10b C10 H10c 109.47
C9 C11 H11a 109.47
C9 C11 H11b 109.47
C9 C11 H11c 109.47
H11a C11 H11b 109.47
H11a C11 H11c 109.47
H11b C11 H11c 109.47
loop_
_geom_bond_atom_site_label_1
_geom_bond_atom_site_label_2
_geom_bond_distance
C1 C2 1.3922(14)
C1 C6 1.3850(17)
C1 C8 1.4812(17)
C2 H2 0.95
C2 C3 1.3886(18)
C3 H3 0.95
C3 C4 1.391(2)
C4 H4 0.95
C4 C5 1.3914(17)
C5 H5 0.95
C5 C6 1.3874(18)
C6 C7 1.5039(15)
C7 H7a 0.984(13)
C7 H7b 0.988(14)
C7 N1 1.4639(17)
N1 C8 1.3606(13)
N1 C9 1.4668(15)
C8 O1 1.2304(15)
C9 H9 0.975(17)
C9 C10 1.5209(19)
C9 C11 1.5165(18)
C10 H10a 0.98
C10 H10b 0.98
C10 H10c 0.98
C11 H11a 0.98
C11 H11b 0.98
C11 H11c 0.98
loop_
_geom_hbond_atom_site_label_D
_geom_hbond_atom_site_label_H
_geom_hbond_atom_site_label_A
_geom_hbond_site_symmetry_A
_geom_hbond_distance_DH
_geom_hbond_distance_HA
_geom_hbond_distance_DA
_geom_hbond_angle_DHA
_geom_hbond_publ_flag
C3 H3 O1 1_545 0.95 2.58 3.4209(15) 148 yes
C7 H7b O1 1_655 0.986(13) 2.517(13) 3.4873(15) 168.0(11) yes
C9 H9 O1 . 0.975(17) 2.520(17) 2.8671(15) 100.8(11) yes
C4 H4 <i>Cg</i>1 2_645 0.95 2.69 3.6014(14) 160 yes
C9 H9 <i>Cg</i>1 2_656 0.975(17) 2.850(16) 3.6821(13) 143.9(12) yes
loop_
_refln_index_h
_refln_index_k
_refln_index_l
_refln_observed_status
_refln_F_squared_meas
_refln_F_squared_calc
1 0 0 o 1789.16 1822.88
2 0 0 o 1.38 0.87
3 0 0 o 52.10 51.36
4 0 0 o 185.09 199.13
5 0 0 o 4.87 5.54
6 0 0 o 77.10 83.47
7 0 0 o 9.47 6.22
1 1 0 o 140.03 146.74
1 -1 0 o 135.29 148.05
2 1 0 o 592.94 592.63
2 -1 0 o 581.41 594.68
3 1 0 o 391.52 383.34
3 -1 0 o 393.15 382.79
4 1 0 o 56.89 59.17
4 -1 0 o 57.42 58.70
5 1 0 o 180.61 184.33
5 -1 0 o 185.06 185.02
6 1 0 o 12.19 14.06
6 -1 0 o 12.70 14.28
7 1 0 o 28.95 24.09
7 -1 0 o 32.31 24.02
0 2 0 o 846.72 881.64
0 -2 0 o 863.93 885.26
1 2 0 o 288.05 298.76
1 -2 0 o 290.67 298.70
2 2 0 o 29.51 32.54
2 -2 0 o 31.51 32.72
3 2 0 o 44.05 40.00
3 -2 0 o 43.24 39.46
4 2 0 o 28.92 30.49
4 -2 0 o 27.92 30.51
5 2 0 o 75.64 77.21
5 -2 0 o 74.11 77.00
6 2 0 o 7.12 7.02
6 -2 0 o 7.45 7.10
1 3 0 o 31.58 34.80
1 -3 0 o 32.80 35.07
2 3 0 o 33.89 33.65
2 -3 0 o 34.60 33.34
3 3 0 o 80.94 84.59
3 -3 0 o 81.31 84.51
4 3 0 o 110.27 106.23
4 -3 0 o 104.92 105.66
5 3 0 o 7.79 7.79
5 -3 0 o 8.46 7.87
6 3 0 o 25.28 23.34
6 -3 0 o 24.74 23.23
0 4 0 o 25.20 25.60
0 -4 0 o 29.23 25.90
1 4 0 o 344.06 346.94
1 -4 0 o 365.03 346.87
2 4 0 o 97.35 92.92
2 -4 0 o 99.07 92.65
3 4 0 o 167.62 161.64
3 -4 0 o 167.29 161.36
4 4 0 o 1.62 1.33
4 -4 0 o 1.04 1.33
5 4 0 o 48.04 44.96
5 -4 0 o 47.42 45.44
6 4 0 o 16.39 16.53
6 -4 0 o 17.00 16.47
1 5 0 o 4.00 4.76
1 -5 0 o 5.05 4.70
2 5 0 o 52.77 48.58
2 -5 0 o 55.99 48.82
3 5 0 o 10.96 8.70
3 -5 0 o 9.95 8.73
4 5 0 o 119.53 111.22
4 -5 0 o 117.93 111.58
5 5 0 o 36.84 32.24
5 -5 0 o 33.93 32.34
6 5 0 o 4.58 4.64
6 -5 0 o 4.93 4.61
0 6 0 o 147.58 159.55
0 -6 0 o 158.43 159.60
1 6 0 o 40.53 42.50
1 -6 0 o 44.23 42.18
2 6 0 o 75.44 76.37
2 -6 0 o 78.30 76.56
3 6 0 o 48.75 47.13
3 -6 0 o 47.50 46.80
4 6 0 o 33.71 33.17
4 -6 0 o 32.61 33.18
5 6 0 o 8.83 9.13
5 -6 0 o 8.13 8.97
1 7 0 o 7.18 8.69
1 -7 0 o 8.78 8.87
2 7 0 o 47.71 48.15
2 -7 0 o 49.27 48.36
3 7 0 o 12.17 12.87
3 -7 0 o 12.70 12.88
4 7 0 o 39.60 36.99
4 -7 0 o 38.45 37.05
5 7 0 o 13.55 12.73
5 -7 0 o 13.19 12.71
0 8 0 o 14.24 13.27
0 -8 0 o 14.77 13.03
1 8 0 o 27.82 28.40
1 -8 0 o 29.08 28.59
2 8 0 o 33.46 33.22
2 -8 0 o 34.68 33.54
3 8 0 o 33.58 29.79
3 -8 0 o 31.77 29.67
4 8 0 o 5.96 5.25
4 -8 0 o 5.47 5.27
1 9 0 o 9.94 9.60
1 -9 0 o 8.40 9.56
2 9 0 o 11.83 10.03
2 -9 0 o 9.37 10.01
3 9 0 o 18.74 16.79
3 -9 0 o 16.48 16.92
0 10 0 o 23.83 16.20
0 -10 0 o 14.35 15.99
1 10 0 o 43.75 26.56
1 -10 0 o 24.24 26.45
2 10 0 o 53.60 34.09
2 -10 0 o 32.44 33.90
-7 0 1 < 0.11 0.01
-6 0 1 o 32.56 32.03
-5 0 1 o 138.40 138.43
-4 0 1 o 10.07 7.44
-3 0 1 o 7.67 4.46
-2 0 1 o 77.99 82.87
-1 0 1 o 741.43 782.74
0 0 1 o 61.06 63.63
1 0 1 o 170.71 157.57
2 0 1 o 8.59 6.15
3 0 1 o 2.42 2.46
4 0 1 o 4.38 3.85
5 0 1 o 19.01 21.49
6 0 1 o 2.89 3.64
-7 1 1 o 0.50 0.02
-7 -1 1 < 0.08 0.02
-6 1 1 o 170.58 172.87
-6 -1 1 o 168.64 173.23
-5 1 1 o 15.18 14.07
-5 -1 1 o 14.63 14.01
-4 1 1 o 19.61 19.57
-4 -1 1 o 20.60 19.47
-3 1 1 o 186.70 194.20
-3 -1 1 o 196.00 194.29
-2 1 1 o 73.76 83.99
-2 -1 1 o 68.78 84.12
-1 1 1 o 1719.07 1765.51
-1 -1 1 o 1765.34 1762.83
0 1 1 o 989.07 963.80
0 -1 1 o 1010.72 966.33
1 1 1 o 149.05 165.17
1 -1 1 o 156.09 164.70
2 1 1 o 351.57 351.98
2 -1 1 o 355.44 352.15
3 1 1 o 187.01 186.80
3 -1 1 o 190.39 186.31
4 1 1 o 20.03 22.75
4 -1 1 o 20.55 22.90
5 1 1 o 198.82 203.58
5 -1 1 o 196.79 202.24
6 1 1 o 9.89 10.72
6 -1 1 o 10.32 10.68
-7 2 1 o 6.38 6.79
-7 -2 1 o 6.25 6.87
-6 2 1 o 12.44 12.57
-6 -2 1 o 12.29 12.65
-5 2 1 o 70.46 69.24
-5 -2 1 o 67.59 69.75
-4 2 1 o 38.19 38.77
-4 -2 1 o 37.58 38.59
-3 2 1 o 226.54 218.00
-3 -2 1 o 239.14 217.86
-2 2 1 o 335.11 331.88
-2 -2 1 o 316.89 330.06
-1 2 1 o 2329.43 2398.75
-1 -2 1 o 2380.35 2401.16
0 2 1 o 3691.08 3526.49
0 -2 1 o 3571.01 3527.07
1 2 1 o 595.90 638.19
1 -2 1 o 631.14 637.90
2 2 1 o 59.11 59.64
2 -2 1 o 61.20 59.28
3 2 1 o 146.76 150.68
3 -2 1 o 152.83 149.78
4 2 1 o 115.21 121.33
4 -2 1 o 116.28 121.45
5 2 1 o 3.58 3.64
5 -2 1 o 3.09 3.61
6 2 1 o 9.73 12.89
6 -2 1 o 10.77 12.92
-6 3 1 o 61.79 60.27
-6 -3 1 o 60.57 60.45
-5 3 1 o 187.81 178.06
-5 -3 1 o 180.68 178.08
-4 3 1 o 4.42 4.32
-4 -3 1 o 4.34 4.21
-3 3 1 o 208.69 199.18
-3 -3 1 o 213.23 199.09
-2 3 1 o 131.26 122.96
-2 -3 1 o 135.97 122.67
-1 3 1 o 166.82 177.07
-1 -3 1 o 175.40 178.58
0 3 1 o 82.44 84.02
0 -3 1 o 87.53 84.20
1 3 1 o 38.29 39.99
1 -3 1 o 41.00 39.95
2 3 1 o 314.79 289.16
2 -3 1 o 322.98 290.56
3 3 1 o 78.89 74.75
3 -3 1 o 78.12 74.52
4 3 1 o 90.05 88.18
4 -3 1 o 90.05 87.95
5 3 1 o 54.34 53.11
5 -3 1 o 54.68 53.40
6 3 1 o 5.44 4.08
6 -3 1 o 5.29 4.13
-6 4 1 o 10.63 8.82
-6 -4 1 o 10.85 8.80
-5 4 1 o 31.19 26.73
-5 -4 1 o 30.11 26.77
-4 4 1 o 52.26 50.41
-4 -4 1 o 50.58 49.96
-3 4 1 o 80.40 75.21
-3 -4 1 o 79.13 75.07
-2 4 1 o 272.57 263.43
-2 -4 1 o 278.98 262.86
-1 4 1 o 14.36 17.07
-1 -4 1 o 15.46 16.99
0 4 1 o 105.18 109.21
0 -4 1 o 112.19 108.92
1 4 1 o 40.13 42.65
1 -4 1 o 44.25 42.67
2 4 1 o 19.04 17.43
2 -4 1 o 19.99 17.39
3 4 1 o 16.94 17.49
3 -4 1 o 17.14 17.76
4 4 1 o 67.42 69.95
4 -4 1 o 67.72 69.78
5 4 1 o 9.65 10.39
5 -4 1 o 9.39 10.29
6 4 1 o 18.16 16.53
6 -4 1 o 19.07 16.63
-6 5 1 o 18.23 20.42
-6 -5 1 o 19.50 20.32
-5 5 1 o 28.13 27.51
-5 -5 1 o 27.94 27.41
-4 5 1 o 58.73 59.22
-4 -5 1 o 58.81 58.93
-3 5 1 o 60.40 57.52
-3 -5 1 o 59.06 57.71
-2 5 1 o 39.20 39.30
-2 -5 1 o 39.99 38.95
-1 5 1 o 5.27 5.14
-1 -5 1 o 5.51 4.99
0 5 1 o 84.61 90.98
0 -5 1 o 90.88 91.08
1 5 1 o 114.40 120.76
1 -5 1 o 120.43 120.91
2 5 1 o 134.59 136.96
2 -5 1 o 136.03 136.42
3 5 1 o 10.44 9.50
3 -5 1 o 10.48 9.67
4 5 1 o 84.06 80.26
4 -5 1 o 81.34 80.17
5 5 1 o 30.43 29.15
5 -5 1 o 29.57 29.40
6 5 1 o 2.45 2.57
6 -5 1 o 2.86 2.58
-5 6 1 o 10.23 10.59
-5 -6 1 o 10.32 10.72
-4 6 1 o 31.56 31.04
-4 -6 1 o 31.71 31.07
-3 6 1 o 25.24 25.44
-3 -6 1 o 25.49 25.32
-2 6 1 o 123.34 122.72
-2 -6 1 o 127.95 123.07
-1 6 1 o 6.01 5.64
-1 -6 1 o 6.74 5.62
0 6 1 o 23.26 24.34
0 -6 1 o 26.17 24.32
1 6 1 o 108.78 109.68
1 -6 1 o 113.04 109.78
2 6 1 o 2.02 1.89
2 -6 1 o 2.04 1.87
3 6 1 o 1.93 1.98
3 -6 1 o 1.90 1.94
4 6 1 o 37.85 34.88
4 -6 1 o 37.08 34.81
5 6 1 o 10.14 9.15
5 -6 1 o 9.79 9.14
-5 7 1 o 18.33 18.47
-5 -7 1 o 18.31 18.55
-4 7 1 o 50.79 49.33
-4 -7 1 o 49.38 49.76
-3 7 1 o 20.88 22.56
-3 -7 1 o 20.67 22.33
-2 7 1 o 39.05 38.79
-2 -7 1 o 40.53 38.83
-1 7 1 o 44.11 49.64
-1 -7 1 o 49.54 49.28
0 7 1 o 48.16 52.78
0 -7 1 o 52.94 52.88
1 7 1 o 60.09 63.07
1 -7 1 o 63.80 62.91
2 7 1 o 45.79 46.20
2 -7 1 o 46.92 46.52
3 7 1 o 2.01 2.01
3 -7 1 o 1.80 1.96
4 7 1 o 13.42 11.68
4 -7 1 o 12.60 11.78
5 7 1 o 41.90 39.25
5 -7 1 o 39.46 39.01
-4 8 1 o 2.05 1.38
-4 -8 1 o 1.55 1.41
-3 8 1 o 29.17 26.40
-3 -8 1 o 27.44 26.38
-2 8 1 o 46.51 44.47
-2 -8 1 o 47.45 44.01
-1 8 1 o 28.91 30.87
-1 -8 1 o 30.01 31.04
0 8 1 o 14.96 14.97
0 -8 1 o 14.42 15.07
1 8 1 o 32.81 34.95
1 -8 1 o 36.58 34.56
2 8 1 o 11.82 11.26
2 -8 1 o 11.37 11.27
3 8 1 o 46.01 39.46
3 -8 1 o 43.49 39.37
4 8 1 o 34.90 31.51
4 -8 1 o 30.32 31.48
-3 9 1 o 80.46 66.37
-3 -9 1 o 66.13 66.77
-2 9 1 o 74.57 65.78
-2 -9 1 o 65.42 65.83
-1 9 1 o 36.97 34.56
-1 -9 1 o 34.14 34.72
0 9 1 o 35.54 31.91
0 -9 1 o 30.60 31.61
1 9 1 o 22.83 17.98
1 -9 1 o 17.85 17.94
2 9 1 o 23.54 20.47
2 -9 1 o 19.83 20.76
3 9 1 o 65.42 59.08
3 -9 1 o 58.54 59.08
-2 10 1 o 17.39 13.29
-2 -10 1 o 13.13 13.40
-1 10 1 o 31.53 24.75
-1 -10 1 o 22.17 24.65
0 10 1 o 14.01 11.66
0 -10 1 o 10.69 11.70
1 10 1 o 19.56 15.05
1 -10 1 o 14.19 15.19
-7 0 2 o 3.98 3.90
-6 0 2 o 69.47 67.69
-5 0 2 o 70.31 70.20
-4 0 2 o 12.42 13.35
-3 0 2 o 395.37 395.23
-2 0 2 < 0.24 0.75
-1 0 2 o 210.15 219.43
0 0 2 o 56.95 61.94
1 0 2 o 899.76 896.67
2 0 2 o 92.23 93.93
3 0 2 o 4.52 6.47
4 0 2 o 233.31 256.35
5 0 2 o 0.95 1.63
6 0 2 o 4.45 6.05
-7 1 2 o 3.83 4.37
-7 -1 2 o 4.32 4.41
-6 1 2 < 0.42 0.37
-6 -1 2 o 0.73 0.39
-5 1 2 o 61.48 62.25
-5 -1 2 o 59.41 62.05
-4 1 2 o 98.22 95.01
-4 -1 2 o 100.89 94.70
-3 1 2 o 203.49 194.63
-3 -1 2 o 202.40 193.65
-2 1 2 o 20.35 22.56
-2 -1 2 o 20.88 22.68
-1 1 2 o 839.02 865.32
-1 -1 2 o 836.90 864.21
0 1 2 o 2.00 1.64
0 -1 2 o 1.43 1.56
1 1 2 o 41.17 42.80
1 -1 2 o 39.63 42.86
2 1 2 o 415.20 388.51
2 -1 2 o 400.17 388.85
3 1 2 o 21.46 21.13
3 -1 2 o 21.61 21.14
4 1 2 o 67.59 69.96
4 -1 2 o 67.23 70.05
5 1 2 o 17.46 19.59
5 -1 2 o 18.98 19.87
6 1 2 o 27.33 26.45
6 -1 2 o 27.58 26.61
-7 2 2 o 13.39 15.48
-7 -2 2 o 13.99 15.35
-6 2 2 o 78.40 72.29
-6 -2 2 o 76.57 72.87
-5 2 2 o 62.42 58.95
-5 -2 2 o 62.28 58.77
-4 2 2 o 6.66 6.16
-4 -2 2 o 6.55 6.17
-3 2 2 o 120.55 108.25
-3 -2 2 o 123.51 108.20
-2 2 2 o 0.46 0.69
-2 -2 2 o 0.42 0.66
-1 2 2 o 2779.48 2744.53
-1 -2 2 o 2863.09 2740.39
0 2 2 o 535.89 528.66
0 -2 2 o 543.22 529.21
1 2 2 o 83.14 85.77
1 -2 2 o 91.47 85.91
2 2 2 o 154.10 153.73
2 -2 2 o 158.31 154.20
3 2 2 o 81.28 80.70
3 -2 2 o 84.90 80.92
4 2 2 o 62.39 61.94
4 -2 2 o 61.41 61.65
5 2 2 o 89.76 97.22
5 -2 2 o 95.47 96.86
6 2 2 o 6.59 6.74
6 -2 2 o 6.58 6.81
-7 3 2 o 9.01 10.21
-7 -3 2 o 10.43 10.34
-6 3 2 o 41.94 42.12
-6 -3 2 o 43.24 42.24
-5 3 2 o 13.36 13.94
-5 -3 2 o 12.97 13.90
-4 3 2 o 21.35 21.05
-4 -3 2 o 21.49 20.89
-3 3 2 o 165.91 163.11
-3 -3 2 o 167.26 163.39
-2 3 2 o 154.09 143.82
-2 -3 2 o 161.39 143.19
-1 3 2 o 433.42 428.95
-1 -3 2 o 435.12 428.52
0 3 2 o 302.30 304.52
0 -3 2 o 321.04 305.20
1 3 2 o 112.39 113.79
1 -3 2 o 121.83 113.66
2 3 2 o 60.52 59.77
2 -3 2 o 62.91 59.57
3 3 2 o 3.80 2.83
3 -3 2 o 4.03 2.98
4 3 2 o 19.01 18.85
4 -3 2 o 18.99 18.84
5 3 2 o 38.68 36.96
5 -3 2 o 38.51 36.68
6 3 2 o 2.32 1.47
6 -3 2 o 2.27 1.43
-6 4 2 < 0.44 0.73
-6 -4 2 o 0.59 0.70
-5 4 2 o 75.92 76.08
-5 -4 2 o 73.17 75.88
-4 4 2 o 31.70 31.81
-4 -4 2 o 30.05 31.34
-3 4 2 o 18.69 17.96
-3 -4 2 o 19.64 18.04
-2 4 2 o 253.60 259.75
-2 -4 2 o 263.97 259.63
-1 4 2 o 774.65 758.85
-1 -4 2 o 791.61 760.76
0 4 2 o 98.61 98.30
0 -4 2 o 102.45 98.04
1 4 2 o 189.04 190.50
1 -4 2 o 205.63 190.93
2 4 2 o 28.70 31.45
2 -4 2 o 29.81 31.16
3 4 2 o 8.99 9.62
3 -4 2 o 8.88 9.69
4 4 2 o 134.73 135.42
4 -4 2 o 135.31 134.96
5 4 2 o 38.57 40.78
5 -4 2 o 39.10 40.90
6 4 2 o 2.25 1.80
6 -4 2 o 2.45 1.82
-6 5 2 o 26.30 28.45
-6 -5 2 o 27.76 28.38
-5 5 2 o 32.23 37.39
-5 -5 2 o 34.75 37.52
-4 5 2 o 39.68 40.09
-4 -5 2 o 39.64 40.06
-3 5 2 o 30.04 28.32
-3 -5 2 o 31.31 28.55
-2 5 2 o 66.93 68.61
-2 -5 2 o 67.13 68.11
-1 5 2 o 21.90 21.42
-1 -5 2 o 22.48 21.23
0 5 2 o 121.33 124.03
0 -5 2 o 125.68 124.59
1 5 2 o 6.97 6.67
1 -5 2 o 7.07 6.81
2 5 2 o 19.67 20.47
2 -5 2 o 21.43 20.68
3 5 2 o 1.94 1.47
3 -5 2 o 1.72 1.49
4 5 2 o 9.00 9.28
4 -5 2 o 9.12 9.30
5 5 2 o 16.10 14.17
5 -5 2 o 15.72 14.01
-6 6 2 o 34.57 29.89
-6 -6 2 o 35.18 30.05
-5 6 2 o 21.14 19.23
-5 -6 2 o 19.73 19.21
-4 6 2 o 100.10 94.56
-4 -6 2 o 100.78 94.01
-3 6 2 o 33.25 33.64
-3 -6 2 o 33.29 33.66
-2 6 2 o 32.46 36.00
-2 -6 2 o 34.82 35.85
-1 6 2 o 26.18 28.68
-1 -6 2 o 28.41 28.60
0 6 2 o 19.70 20.67
0 -6 2 o 21.27 20.66
1 6 2 o 17.88 18.65
1 -6 2 o 18.08 18.28
2 6 2 o 52.42 51.23
2 -6 2 o 54.52 51.01
3 6 2 o 23.31 24.00
3 -6 2 o 23.11 23.98
4 6 2 o 146.60 133.49
4 -6 2 o 138.75 133.62
5 6 2 o 17.16 15.25
5 -6 2 o 15.18 15.21
-5 7 2 o 25.21 25.15
-5 -7 2 o 25.66 24.90
-4 7 2 o 7.85 8.53
-4 -7 2 o 8.00 8.57
-3 7 2 o 78.52 80.76
-3 -7 2 o 81.02 80.91
-2 7 2 o 13.53 13.86
-2 -7 2 o 14.64 13.53
-1 7 2 o 41.10 45.72
-1 -7 2 o 43.58 45.68
0 7 2 o 16.31 17.61
0 -7 2 o 16.74 17.47
1 7 2 o 80.57 86.83
1 -7 2 o 83.53 86.89
2 7 2 o 36.82 37.63
2 -7 2 o 36.36 37.85
3 7 2 o 90.17 80.16
3 -7 2 o 83.46 80.05
4 7 2 o 18.20 19.43
4 -7 2 o 18.07 19.45
-4 8 2 o 10.68 11.58
-4 -8 2 o 9.74 11.81
-3 8 2 o 49.65 44.22
-3 -8 2 o 45.60 44.25
-2 8 2 o 21.91 18.39
-2 -8 2 o 22.42 18.46
-1 8 2 o 63.06 60.30
-1 -8 2 o 59.26 60.07
0 8 2 o 6.75 4.27
0 -8 2 o 4.46 4.25
1 8 2 o 39.69 38.58
1 -8 2 o 38.69 38.46
2 8 2 o 12.52 11.24
2 -8 2 o 11.61 11.23
3 8 2 o 82.55 71.26
3 -8 2 o 73.20 71.05
4 8 2 o 21.52 18.23
4 -8 2 o 20.25 18.42
-3 9 2 < 0.65 0.34
-3 -9 2 o 0.62 0.36
-2 9 2 o 66.42 65.39
-2 -9 2 o 64.92 65.45
-1 9 2 o 46.10 44.28
-1 -9 2 o 43.60 44.22
0 9 2 o 38.50 37.74
0 -9 2 o 36.66 37.35
1 9 2 o 47.72 45.79
1 -9 2 o 45.98 45.98
2 9 2 o 4.78 5.31
2 -9 2 o 5.21 5.24
3 -9 2 o 12.48 13.82
-1 10 2 o 17.43 16.34
-1 -10 2 o 14.08 16.57
0 10 2 o 2.71 2.56
0 -10 2 o 2.56 2.57
1 10 2 < 0.66 0.41
1 -10 2 < 0.24 0.43
-7 0 3 o 6.19 5.84
-6 0 3 o 27.64 24.82
-5 0 3 o 3.57 4.24
-4 0 3 o 30.90 26.74
-3 0 3 o 79.28 74.23
-2 0 3 o 100.64 99.97
-1 0 3 o 1.50 2.58
0 0 3 o 1152.84 1169.40
1 0 3 o 61.99 52.42
2 0 3 o 597.54 593.23
3 0 3 o 0.97 1.11
4 0 3 o 90.58 95.46
5 0 3 o 56.08 60.24
6 0 3 o 0.38 0.13
-7 1 3 o 27.12 28.82
-7 -1 3 o 26.31 28.55
-6 1 3 o 50.05 48.41
-6 -1 3 o 48.73 48.58
-5 1 3 o 47.69 47.95
-5 -1 3 o 48.29 47.92
-4 1 3 o 113.27 107.97
-4 -1 3 o 117.43 108.69
-3 1 3 o 86.28 72.72
-3 -1 3 o 88.40 72.72
-2 1 3 o 27.17 28.88
-2 -1 3 o 29.51 29.23
-1 1 3 o 71.12 77.82
-1 -1 3 o 73.10 77.40
0 1 3 o 13.90 12.00
0 -1 3 o 13.04 12.26
1 1 3 o 88.01 89.89
1 -1 3 o 84.26 89.40
2 1 3 o 238.74 224.89
2 -1 3 o 234.84 225.81
3 1 3 o 52.26 51.45
3 -1 3 o 50.81 51.46
4 1 3 o 3.18 3.14
4 -1 3 o 3.10 3.23
5 1 3 o 7.12 8.17
5 -1 3 o 7.33 8.20
6 1 3 o 14.74 13.42
6 -1 3 o 14.01 13.32
-7 2 3 o 9.00 9.08
-7 -2 3 o 9.85 9.04
-6 2 3 o 36.26 37.17
-6 -2 3 o 37.33 37.14
-5 2 3 o 30.66 32.90
-5 -2 3 o 30.87 32.61
-4 2 3 o 8.77 7.25
-4 -2 3 o 8.94 7.24
-3 2 3 o 49.98 45.60
-3 -2 3 o 48.42 45.30
-2 2 3 o 34.64 33.51
-2 -2 3 o 36.32 33.32
-1 2 3 o 243.17 240.14
-1 -2 3 o 246.38 240.71
0 2 3 o 226.57 228.77
0 -2 3 o 228.09 230.21
1 2 3 o 227.51 206.07
1 -2 3 o 225.49 206.19
2 2 3 o 5.44 6.53
2 -2 3 o 5.18 6.51
3 2 3 o 53.30 57.88
3 -2 3 o 53.96 58.02
4 2 3 o 23.77 24.09
4 -2 3 o 24.54 24.16
5 2 3 o 28.89 30.07
5 -2 3 o 28.98 30.27
6 2 3 o 4.77 3.33
6 -2 3 o 3.94 3.32
-7 3 3 o 32.74 33.24
-7 -3 3 o 35.77 33.20
-6 3 3 o 19.81 20.13
-6 -3 3 o 20.47 20.16
-5 3 3 o 42.68 44.82
-5 -3 3 o 43.24 45.03
-4 3 3 o 145.51 145.01
-4 -3 3 o 142.24 144.50
-3 3 3 o 37.05 36.84
-3 -3 3 o 37.28 36.88
-2 3 3 o 326.29 335.12
-2 -3 3 o 359.77 334.20
-1 3 3 o 766.47 716.79
-1 -3 3 o 748.56 716.80
0 3 3 o 202.20 198.25
0 -3 3 o 204.47 198.85
1 3 3 o 164.41 157.34
1 -3 3 o 168.68 157.54
2 3 3 o 50.92 51.30
2 -3 3 o 54.09 51.57
3 3 3 o 153.05 154.32
3 -3 3 o 158.12 154.77
4 3 3 o 176.76 180.18
4 -3 3 o 177.95 179.50
5 3 3 o 29.50 28.83
5 -3 3 o 29.40 28.79
-6 4 3 o 73.07 71.66
-6 -4 3 o 74.09 72.07
-5 4 3 o 3.38 3.20
-5 -4 3 o 2.86 3.08
-4 4 3 o 86.52 84.43
-4 -4 3 o 88.93 84.16
-3 4 3 o 53.39 60.18
-3 -4 3 o 55.45 60.77
-2 4 3 o 409.89 431.32
-2 -4 3 o 427.24 431.81
-1 4 3 o 860.17 893.28
-1 -4 3 o 881.07 892.12
0 4 3 o 26.30 23.42
0 -4 3 o 27.08 23.80
1 4 3 o 14.22 15.42
1 -4 3 o 14.59 15.43
2 4 3 o 13.29 13.46
2 -4 3 o 12.99 13.26
3 4 3 o 143.08 142.08
3 -4 3 o 145.24 141.73
4 4 3 o 28.21 27.87
4 -4 3 o 28.62 27.67
5 4 3 o 0.85 0.55
5 -4 3 o 0.61 0.52
-6 5 3 o 9.70 9.69
-6 -5 3 o 10.19 9.65
-5 5 3 o 8.36 8.89
-5 -5 3 o 8.89 8.94
-4 5 3 o 90.93 92.14
-4 -5 3 o 88.36 91.99
-3 5 3 o 24.20 25.25
-3 -5 3 o 24.01 25.23
-2 5 3 o 231.69 235.10
-2 -5 3 o 237.47 235.12
-1 5 3 o 184.82 188.01
-1 -5 3 o 186.72 188.34
0 5 3 o 20.94 22.15
0 -5 3 o 21.80 22.20
1 5 3 o 170.11 180.90
1 -5 3 o 180.34 181.79
2 5 3 o 62.84 60.22
2 -5 3 o 63.22 60.29
3 5 3 o 9.87 9.29
3 -5 3 o 10.20 9.21
4 5 3 o 99.45 94.45
4 -5 3 o 96.25 94.42
5 5 3 o 6.39 6.86
5 -5 3 o 5.86 6.87
-6 6 3 o 1.58 1.60
-6 -6 3 o 2.12 1.64
-5 6 3 o 11.05 9.71
-5 -6 3 o 10.58 9.48
-4 6 3 o 20.06 20.74
-4 -6 3 o 19.91 20.99
-3 6 3 o 117.38 109.54
-3 -6 3 o 116.30 109.19
-2 6 3 o 41.80 42.12
-2 -6 3 o 42.87 42.31
-1 6 3 o 60.12 64.53
-1 -6 3 o 63.63 64.92
0 6 3 o 35.84 36.37
0 -6 3 o 35.13 36.30
1 6 3 o 9.27 9.15
1 -6 3 o 10.47 9.15
2 6 3 o 35.30 35.10
2 -6 3 o 35.76 35.43
3 6 3 o 103.66 101.21
3 -6 3 o 102.57 100.98
4 6 3 o 9.58 8.56
4 -6 3 o 8.51 8.62
-5 7 3 o 4.68 3.87
-5 -7 3 o 4.14 3.80
-4 7 3 o 40.75 39.90
-4 -7 3 o 39.00 40.13
-3 7 3 o 111.27 106.41
-3 -7 3 o 115.36 106.29
-2 7 3 o 65.75 64.70
-2 -7 3 o 65.52 64.84
-1 7 3 o 26.62 26.95
-1 -7 3 o 26.58 26.75
0 7 3 o 16.39 15.93
0 -7 3 o 15.47 15.89
1 7 3 o 5.45 4.62
1 -7 3 o 5.14 4.68
2 7 3 o 39.42 39.38
2 -7 3 o 40.98 39.46
3 7 3 o 5.42 4.35
3 -7 3 o 4.79 4.40
4 7 3 o 13.65 10.94
4 -7 3 o 11.46 11.15
-4 8 3 o 8.81 7.68
-4 -8 3 o 7.47 7.56
-3 8 3 o 6.06 5.79
-3 -8 3 o 5.98 5.91
-2 8 3 o 35.28 31.29
-2 -8 3 o 32.14 31.44
-1 8 3 o 24.00 24.35
-1 -8 3 o 23.95 24.41
0 8 3 o 12.19 11.64
0 -8 3 o 11.33 11.47
1 8 3 o 0.98 0.37
1 -8 3 o 0.54 0.37
2 8 3 o 112.54 105.96
2 -8 3 o 108.16 105.41
3 8 3 o 73.24 67.54
3 -8 3 o 67.25 67.87
-3 9 3 < 0.53 0.22
-3 -9 3 o 0.20 0.23
-2 9 3 o 0.94 0.97
-2 -9 3 o 0.92 1.02
-1 9 3 o 32.31 32.70
-1 -9 3 o 30.69 32.56
0 9 3 o 32.76 33.70
0 -9 3 o 32.96 33.62
1 9 3 o 29.45 28.27
1 -9 3 o 28.43 28.48
2 9 3 o 15.39 15.20
2 -9 3 o 15.32 15.10
-1 10 3 o 14.37 14.57
-1 -10 3 o 13.34 14.64
0 -10 3 o 27.96 28.57
-7 0 4 o 0.45 0.52
-6 0 4 o 21.94 20.50
-5 0 4 o 40.75 41.34
-4 0 4 o 75.42 73.21
-3 0 4 o 66.93 62.73
-2 0 4 o 151.73 152.10
-1 0 4 o 20.33 19.77
0 0 4 o 716.78 708.52
1 0 4 o 146.37 124.83
2 0 4 o 14.67 11.59
3 0 4 o 5.78 5.62
4 0 4 o 44.77 50.76
5 0 4 o 30.82 28.63
-7 1 4 o 4.13 4.02
-7 -1 4 o 4.18 3.99
-6 1 4 o 126.08 120.80
-6 -1 4 o 125.19 120.86
-5 1 4 o 7.56 7.97
-5 -1 4 o 7.86 8.00
-4 1 4 o 140.57 137.16
-4 -1 4 o 142.57 137.25
-3 1 4 o 12.46 13.47
-3 -1 4 o 12.36 13.26
-2 1 4 o 108.73 109.18
-2 -1 4 o 107.54 109.18
-1 1 4 o 162.95 157.38
-1 -1 4 o 162.22 158.07
0 1 4 o 277.95 259.70
0 -1 4 o 269.26 259.77
1 1 4 o 204.44 187.29
1 -1 4 o 187.91 187.00
2 1 4 o 153.14 150.15
2 -1 4 o 148.43 150.43
3 1 4 o 99.30 97.72
3 -1 4 o 97.86 97.67
4 1 4 o 39.17 44.99
4 -1 4 o 40.81 44.81
5 1 4 o 4.53 5.18
5 -1 4 o 4.32 5.14
-7 2 4 o 29.45 30.91
-7 -2 4 o 27.39 30.92
-6 2 4 o 11.13 12.26
-6 -2 4 o 11.27 12.33
-5 2 4 o 25.46 26.69
-5 -2 4 o 24.95 26.58
-4 2 4 o 132.53 132.99
-4 -2 4 o 134.61 133.68
-3 2 4 o 156.00 162.54
-3 -2 4 o 163.33 163.22
-2 2 4 o 36.85 37.69
-2 -2 4 o 38.05 37.27
-1 2 4 o 261.49 257.62
-1 -2 4 o 260.72 258.07
0 2 4 o 167.46 151.30
0 -2 4 o 158.70 151.76
1 2 4 o 128.79 136.25
1 -2 4 o 129.59 136.49
2 2 4 o 11.01 10.31
2 -2 4 o 11.68 10.38
3 2 4 o 254.55 268.78
3 -2 4 o 261.87 268.09
4 2 4 o 52.49 55.08
4 -2 4 o 54.69 55.36
5 2 4 o 0.35 0.61
5 -2 4 o 0.55 0.62
-7 3 4 o 22.40 24.35
-7 -3 4 o 25.80 24.21
-6 3 4 o 34.06 34.59
-6 -3 4 o 33.64 34.96
-5 3 4 o 29.36 30.74
-5 -3 4 o 29.78 30.68
-4 3 4 o 13.71 14.87
-4 -3 4 o 13.08 14.63
-3 3 4 o 28.89 28.66
-3 -3 4 o 29.19 28.65
-2 3 4 o 65.35 62.49
-2 -3 4 o 66.74 62.24
-1 3 4 o 62.34 57.57
-1 -3 4 o 62.37 57.78
0 3 4 o 123.14 111.55
0 -3 4 o 124.22 112.10
1 3 4 o 226.80 234.36
1 -3 4 o 229.68 234.84
2 3 4 o 27.26 24.79
2 -3 4 o 27.98 25.21
3 3 4 o 16.78 17.36
3 -3 4 o 16.87 17.26
4 3 4 o 18.78 20.96
4 -3 4 o 18.10 20.91
5 3 4 o 7.43 6.51
5 -3 4 o 7.03 6.55
-6 4 4 o 5.11 4.66
-6 -4 4 o 5.01 4.64
-5 4 4 o 4.68 4.50
-5 -4 4 o 4.62 4.68
-4 4 4 o 76.62 75.09
-4 -4 4 o 73.72 74.92
-3 4 4 o 5.46 5.80
-3 -4 4 o 5.51 5.75
-2 4 4 o 194.56 192.52
-2 -4 4 o 194.05 191.35
-1 4 4 o 31.41 33.67
-1 -4 4 o 31.61 33.86
0 4 4 o 26.78 28.80
0 -4 4 o 28.06 28.83
1 4 4 o 48.06 54.42
1 -4 4 o 50.87 54.64
2 4 4 o 21.17 20.16
2 -4 4 o 22.12 20.19
3 4 4 o 112.87 113.34
3 -4 4 o 116.23 114.01
4 4 4 o 56.34 55.80
4 -4 4 o 53.94 55.56
5 4 4 o 4.45 4.45
5 -4 4 o 4.11 4.45
-6 5 4 o 3.86 3.17
-6 -5 4 o 3.61 3.15
-5 5 4 o 31.39 31.36
-5 -5 4 o 31.17 31.46
-4 5 4 o 192.62 185.88
-4 -5 4 o 183.02 186.47
-3 5 4 o 222.93 226.65
-3 -5 4 o 223.68 225.91
-2 5 4 o 52.13 52.33
-2 -5 4 o 52.66 52.16
-1 5 4 o 31.98 31.71
-1 -5 4 o 30.98 31.53
0 5 4 o 101.35 98.97
0 -5 4 o 99.63 99.02
1 5 4 o 30.63 30.57
1 -5 4 o 30.34 30.87
2 5 4 o 32.86 37.11
2 -5 4 o 33.79 37.32
3 5 4 o 126.01 119.18
3 -5 4 o 122.01 118.81
4 5 4 o 23.07 21.44
4 -5 4 o 20.78 21.09
-5 6 4 o 0.92 0.80
-5 -6 4 o 0.76 0.86
-4 6 4 o 20.49 18.01
-4 -6 4 o 20.06 18.08
-3 6 4 o 19.99 22.95
-3 -6 4 o 21.28 22.92
-2 6 4 o 508.92 524.69
-2 -6 4 o 513.31 525.74
-1 6 4 o 128.66 130.54
-1 -6 4 o 127.86 130.50
0 6 4 o 17.34 17.56
0 -6 4 o 17.72 17.49
1 6 4 o 16.66 17.62
1 -6 4 o 17.67 17.58
2 6 4 o 157.37 150.38
2 -6 4 o 149.06 150.19
3 6 4 o 23.77 22.06
3 -6 4 o 21.66 21.91
4 6 4 o 16.34 14.57
4 -6 4 o 13.82 14.59
-5 7 4 o 9.52 7.59
-5 -7 4 o 8.14 7.58
-4 7 4 o 3.59 3.62
-4 -7 4 o 3.79 3.71
-3 7 4 o 12.80 11.76
-3 -7 4 o 12.02 11.92
-2 7 4 o 40.05 44.54
-2 -7 4 o 39.84 44.66
-1 7 4 o 35.78 36.88
-1 -7 4 o 34.22 36.60
0 7 4 o 71.65 72.68
0 -7 4 o 71.90 73.15
1 7 4 o 52.57 52.08
1 -7 4 o 52.49 52.37
2 7 4 o 30.39 27.55
2 -7 4 o 26.47 27.32
3 7 4 o 20.34 17.46
3 -7 4 o 16.16 17.56
-4 8 4 o 3.84 4.50
-4 -8 4 o 3.99 4.56
-3 8 4 o 12.52 12.65
-3 -8 4 o 12.15 12.67
-2 8 4 o 9.32 10.13
-2 -8 4 o 9.98 10.38
-1 8 4 o 29.03 29.74
-1 -8 4 o 28.92 29.67
0 8 4 o 1.83 1.56
0 -8 4 o 1.47 1.51
1 8 4 o 25.06 25.20
1 -8 4 o 25.32 24.94
2 8 4 o 4.34 4.24
2 -8 4 o 3.82 4.25
-3 9 4 o 5.59 6.71
-3 -9 4 o 5.69 6.74
-2 9 4 o 1.65 1.59
-2 -9 4 o 1.92 1.60
-1 9 4 o 16.61 16.46
-1 -9 4 o 15.79 16.68
0 9 4 o 34.83 35.32
0 -9 4 o 32.81 35.13
1 9 4 < 0.48 0.45
1 -9 4 o 0.51 0.47
-7 0 5 o 19.06 21.54
-6 0 5 o 2.25 2.17
-5 0 5 o 11.58 11.05
-4 0 5 o 136.61 134.29
-3 0 5 o 40.79 37.90
-2 0 5 o 52.40 49.02
-1 0 5 o 165.69 146.56
0 0 5 o 31.95 26.64
1 0 5 o 40.20 45.91
2 0 5 o 13.59 12.23
3 0 5 o 18.11 17.22
4 0 5 o 13.68 13.34
5 0 5 o 5.38 4.35
-7 1 5 o 17.87 20.63
-7 -1 5 o 21.17 20.70
-6 1 5 o 82.27 81.56
-6 -1 5 o 81.81 81.90
-5 1 5 o 12.68 13.99
-5 -1 5 o 13.39 13.86
-4 1 5 o 4.90 4.53
-4 -1 5 o 4.85 4.54
-3 1 5 o 73.96 72.62
-3 -1 5 o 74.72 72.01
-2 1 5 o 192.64 191.33
-2 -1 5 o 198.57 192.10
-1 1 5 o 59.36 54.13
-1 -1 5 o 59.38 54.03
0 1 5 o 146.26 141.80
0 -1 5 o 141.44 141.86
1 1 5 o 12.36 10.84
1 -1 5 o 11.91 10.70
2 1 5 o 76.73 75.38
2 -1 5 o 74.70 75.72
3 1 5 o 77.00 84.78
3 -1 5 o 79.92 84.38
4 1 5 o 10.46 11.41
4 -1 5 o 10.52 11.45
5 1 5 o 3.22 2.69
5 -1 5 o 3.01 2.57
-7 2 5 < 0.15 0.02
-7 -2 5 < 0.04 0.01
-6 2 5 o 0.44 0.68
-6 -2 5 o 0.71 0.71
-5 2 5 o 26.93 26.01
-5 -2 5 o 28.89 25.86
-4 2 5 o 16.35 17.05
-4 -2 5 o 17.02 17.27
-3 2 5 o 1.75 1.01
-3 -2 5 o 1.60 1.02
-2 2 5 o 109.18 108.29
-2 -2 5 o 112.78 108.21
-1 2 5 o 2.09 2.34
-1 -2 5 o 1.47 2.20
0 2 5 o 63.65 59.90
0 -2 5 o 62.78 59.95
1 2 5 o 109.18 111.70
1 -2 5 o 108.94 111.23
2 2 5 o 43.10 44.04
2 -2 5 o 43.78 44.07
3 2 5 o 43.73 47.06
3 -2 5 o 45.34 47.09
4 2 5 o 21.46 24.02
4 -2 5 o 23.39 23.86
5 2 5 o 6.67 5.39
5 -2 5 o 5.96 5.35
-6 3 5 o 4.60 3.96
-6 -3 5 o 4.40 3.87
-5 3 5 o 183.41 182.75
-5 -3 5 o 185.69 183.29
-4 3 5 o 177.07 178.88
-4 -3 5 o 178.73 179.32
-3 3 5 o 70.01 75.60
-3 -3 5 o 69.88 75.28
-2 3 5 o 19.18 19.70
-2 -3 5 o 19.65 19.48
-1 3 5 o 30.30 28.07
-1 -3 5 o 29.76 27.97
0 3 5 o 118.41 111.50
0 -3 5 o 118.90 111.31
1 3 5 o 125.92 125.09
1 -3 5 o 126.55 125.01
2 3 5 o 62.74 63.52
2 -3 5 o 66.42 63.92
3 3 5 o 34.67 32.70
3 -3 5 o 35.11 32.47
4 3 5 o 10.42 11.65
4 -3 5 o 10.90 11.54
5 3 5 o 4.65 4.21
-6 4 5 o 0.75 0.54
-6 -4 5 o 0.71 0.52
-5 4 5 o 27.21 27.93
-5 -4 5 o 26.42 28.13
-4 4 5 o 13.51 12.99
-4 -4 5 o 14.72 13.15
-3 4 5 o 30.81 31.16
-3 -4 5 o 30.39 31.05
-2 4 5 o 128.04 129.38
-2 -4 5 o 127.25 129.45
-1 4 5 o 88.00 86.77
-1 -4 5 o 87.68 87.10
0 4 5 o 64.21 67.15
0 -4 5 o 65.13 67.12
1 4 5 o 54.13 55.32
1 -4 5 o 55.03 55.80
2 4 5 o 186.61 199.72
2 -4 5 o 190.04 199.58
3 4 5 o 47.29 45.85
3 -4 5 o 47.35 45.71
4 4 5 o 12.84 12.23
4 -4 5 o 12.66 12.22
-6 5 5 o 5.94 5.24
-6 -5 5 o 6.19 5.29
-5 5 5 o 4.04 3.75
-5 -5 5 o 4.00 3.67
-4 5 5 o 20.65 18.14
-4 -5 5 o 19.95 18.06
-3 5 5 o 72.17 74.39
-3 -5 5 o 74.29 74.85
-2 5 5 o 176.96 180.61
-2 -5 5 o 174.78 179.92
-1 5 5 o 65.88 70.24
-1 -5 5 o 64.54 70.04
0 5 5 o 47.51 50.83
0 -5 5 o 49.07 51.10
1 5 5 o 95.93 106.08
1 -5 5 o 98.32 106.08
2 5 5 o 12.14 13.21
2 -5 5 o 11.76 13.36
3 5 5 o 20.61 20.72
3 -5 5 o 19.73 20.80
4 5 5 o 3.57 3.04
4 -5 5 o 3.40 3.02
-5 6 5 o 10.68 11.14
-5 -6 5 o 11.11 11.19
-4 6 5 o 1.31 1.98
-4 -6 5 o 1.48 1.90
-3 6 5 o 38.95 40.34
-3 -6 5 o 41.37 40.28
-2 6 5 o 85.70 85.55
-2 -6 5 o 83.93 85.09
-1 6 5 o 21.76 22.26
-1 -6 5 o 20.88 22.18
0 6 5 o 8.30 7.47
0 -6 5 o 7.80 7.43
1 6 5 o 96.94 99.96
1 -6 5 o 94.07 99.38
2 6 5 o 43.02 40.92
2 -6 5 o 39.81 40.95
3 6 5 o 40.03 36.51
3 -6 5 o 34.28 36.57
-5 -7 5 o 19.53 17.51
-4 7 5 o 4.89 4.77
-4 -7 5 o 4.63 4.80
-3 7 5 o 100.98 91.89
-3 -7 5 o 83.48 91.53
-2 7 5 o 103.99 110.31
-2 -7 5 o 106.98 110.54
-1 7 5 o 45.00 47.43
-1 -7 5 o 42.63 47.42
0 7 5 o 6.94 6.11
0 -7 5 o 6.63 6.24
1 7 5 o 34.88 31.11
1 -7 5 o 31.58 31.10
2 7 5 o 16.30 15.41
2 -7 5 o 14.77 15.42
3 7 5 o 73.07 60.17
3 -7 5 o 56.97 59.76
-4 8 5 o 2.89 3.24
-4 -8 5 o 2.99 3.17
-3 8 5 o 74.94 73.01
-3 -8 5 o 72.52 73.23
-2 8 5 o 89.56 88.08
-2 -8 5 o 85.24 88.50
-1 8 5 o 14.82 15.21
-1 -8 5 o 15.38 15.28
0 8 5 o 8.39 8.31
0 -8 5 o 8.50 8.37
1 8 5 o 11.61 10.67
1 -8 5 o 10.03 10.56
2 8 5 o 9.70 8.56
2 -8 5 o 8.70 8.62
-2 9 5 o 2.63 2.66
-2 -9 5 o 2.72 2.61
-1 9 5 o 3.47 3.64
-1 -9 5 o 3.26 3.67
0 9 5 o 5.46 6.40
0 -9 5 o 6.15 6.51
-7 0 6 o 15.39 17.91
-6 0 6 o 24.26 26.16
-5 0 6 o 40.02 40.44
-4 0 6 o 22.03 23.65
-3 0 6 o 2.20 1.81
-2 0 6 o 61.25 61.48
-1 0 6 o 11.78 10.72
0 0 6 o 3.37 3.89
1 0 6 < 0.09 0.07
2 0 6 o 316.17 348.69
3 0 6 o 90.89 102.01
4 0 6 o 7.35 5.47
-7 1 6 o 9.74 10.41
-7 -1 6 o 10.50 10.30
-6 1 6 o 0.48 0.60
-6 -1 6 o 1.00 0.60
-5 1 6 o 123.62 125.90
-5 -1 6 o 132.98 125.65
-4 1 6 o 2.26 1.55
-4 -1 6 o 1.91 1.65
-3 1 6 o 31.80 30.90
-3 -1 6 o 31.77 30.99
-2 1 6 o 85.68 85.59
-2 -1 6 o 87.57 84.96
-1 1 6 o 175.30 181.12
-1 -1 6 o 177.86 181.05
0 1 6 o 109.86 112.46
0 -1 6 o 107.95 112.82
1 1 6 o 67.62 66.74
1 -1 6 o 66.67 66.40
2 1 6 o 2.97 2.83
2 -1 6 o 3.19 2.83
3 1 6 o 9.46 12.16
3 -1 6 o 10.77 12.33
4 1 6 o 8.55 8.71
4 -1 6 o 7.97 8.51
-6 2 6 o 12.66 12.82
-6 -2 6 o 12.79 13.12
-5 2 6 o 64.62 66.50
-5 -2 6 o 66.43 66.43
-4 2 6 o 38.24 36.04
-4 -2 6 o 39.25 36.13
-3 2 6 o 81.43 79.79
-3 -2 6 o 81.31 79.44
-2 2 6 o 2.48 2.26
-2 -2 6 o 2.66 2.25
-1 2 6 o 115.26 114.96
-1 -2 6 o 116.81 114.42
0 2 6 o 146.23 153.78
0 -2 6 o 149.21 154.31
1 2 6 o 68.72 67.52
1 -2 6 o 66.72 67.46
2 2 6 o 94.59 94.85
2 -2 6 o 97.00 95.22
3 2 6 o 21.43 23.03
3 -2 6 o 22.38 23.04
4 2 6 o 12.98 12.20
4 -2 6 o 13.22 12.17
-6 3 6 o 1.02 0.41
-6 -3 6 o 0.57 0.39
-5 3 6 o 26.40 26.55
-5 -3 6 o 27.94 26.92
-4 3 6 o 90.67 90.11
-4 -3 6 o 92.03 89.76
-3 3 6 o 45.55 45.79
-3 -3 6 o 44.63 45.73
-2 3 6 o 16.15 17.66
-2 -3 6 o 17.06 17.34
-1 3 6 o 94.11 91.94
-1 -3 6 o 91.67 91.90
0 3 6 o 31.51 29.93
0 -3 6 o 31.98 29.96
1 3 6 o 60.94 58.43
1 -3 6 o 60.68 58.86
2 3 6 o 10.14 11.58
2 -3 6 o 10.84 11.57
3 3 6 o 9.62 10.39
3 -3 6 o 8.90 10.31
4 3 6 o 0.90 0.74
4 -3 6 o 0.87 0.78
-6 4 6 o 3.84 3.55
-6 -4 6 o 4.17 3.57
-5 4 6 o 22.34 20.45
-5 -4 6 o 21.17 20.62
-4 4 6 o 6.19 5.75
-4 -4 6 o 5.57 5.79
-3 4 6 o 29.16 30.28
-3 -4 6 o 29.07 30.62
-2 4 6 o 15.04 16.69
-2 -4 6 o 15.17 16.76
-1 4 6 o 7.18 6.92
-1 -4 6 o 7.29 7.00
0 4 6 o 123.20 121.92
0 -4 6 o 119.07 121.11
1 4 6 o 211.04 220.74
1 -4 6 o 208.45 220.27
2 4 6 o 2.79 3.00
2 -4 6 o 3.00 3.10
3 4 6 o 27.81 26.93
3 -4 6 o 27.81 26.91
4 4 6 o 30.22 29.04
4 -4 6 o 31.21 29.04
-5 5 6 o 26.88 26.26
-5 -5 6 o 25.67 26.50
-4 5 6 < 1.66 1.48
-4 -5 6 o 1.08 1.45
-3 5 6 o 5.56 4.86
-3 -5 6 o 4.79 4.88
-2 5 6 o 143.56 154.00
-2 -5 6 o 145.11 153.66
-1 5 6 o 20.72 19.22
-1 -5 6 o 20.65 19.25
0 5 6 o 39.04 37.42
0 -5 6 o 37.00 37.37
1 5 6 o 11.05 9.44
1 -5 6 o 10.62 9.37
2 5 6 o 10.34 9.12
2 -5 6 o 9.88 9.09
3 5 6 o 4.23 4.88
3 -5 6 o 4.02 4.81
-5 6 6 o 9.82 10.51
-5 -6 6 o 9.54 10.39
-4 6 6 o 1.68 1.30
-4 -6 6 o 1.64 1.36
-3 6 6 o 2.80 2.95
-3 -6 6 o 3.33 3.07
-2 6 6 o 9.89 10.17
-2 -6 6 o 9.10 10.19
-1 6 6 o 23.51 27.63
-1 -6 6 o 24.05 27.67
0 6 6 o 7.03 5.99
0 -6 6 o 7.23 6.14
1 6 6 o 8.71 9.62
1 -6 6 o 8.54 9.51
2 6 6 o 86.26 77.28
2 -6 6 o 79.19 77.48
3 6 6 o 5.99 3.31
3 -6 6 o 4.52 3.39
-4 7 6 o 23.02 21.49
-4 -7 6 o 23.81 21.37
-3 7 6 o 68.06 71.25
-3 -7 6 o 67.48 71.16
-2 7 6 o 23.01 24.69
-2 -7 6 o 23.32 24.48
-1 7 6 o 10.86 10.16
-1 -7 6 o 10.11 10.17
0 7 6 o 10.40 11.42
0 -7 6 o 9.77 11.52
1 7 6 o 3.23 3.21
1 -7 6 o 3.30 3.29
2 7 6 o 21.61 21.03
2 -7 6 o 19.36 21.00
-3 8 6 o 100.80 103.29
-3 -8 6 o 98.57 103.22
-2 8 6 o 31.15 31.84
-2 -8 6 o 30.78 31.76
-1 8 6 o 3.85 3.11
-1 -8 6 o 3.91 3.02
0 8 6 o 7.64 7.28
0 -8 6 o 6.82 7.37
1 8 6 o 9.43 7.88
1 -8 6 o 8.32 7.94
-6 0 7 o 25.92 27.50
-5 0 7 < 0.10 0.11
-4 0 7 o 0.28 0.37
-3 0 7 o 115.64 112.38
-2 0 7 o 9.03 8.43
-1 0 7 o 11.91 10.83
0 0 7 o 132.52 126.03
1 0 7 o 37.29 39.48
2 0 7 o 71.20 67.94
3 0 7 o 8.77 10.52
4 0 7 o 1.38 1.45
-6 1 7 o 97.04 95.32
-6 -1 7 o 94.50 95.73
-5 1 7 o 147.76 143.66
-5 -1 7 o 152.15 143.78
-4 1 7 o 109.25 109.02
-4 -1 7 o 110.13 108.97
-3 1 7 o 50.15 51.06
-3 -1 7 o 50.10 50.83
-2 1 7 o 39.53 39.22
-2 -1 7 o 39.99 39.11
-1 1 7 o 111.20 115.83
-1 -1 7 o 116.25 115.95
0 1 7 o 43.94 43.63
0 -1 7 o 45.45 43.64
1 1 7 o 2.41 2.48
1 -1 7 o 2.77 2.56
2 1 7 o 64.78 68.76
2 -1 7 o 68.23 69.14
3 1 7 < 0.21 0.23
3 -1 7 < 0.08 0.23
4 1 7 o 4.96 5.09
4 -1 7 o 5.49 5.21
-6 2 7 o 9.31 9.99
-6 -2 7 o 9.92 10.18
-5 2 7 o 2.76 2.47
-5 -2 7 o 2.65 2.44
-4 2 7 o 29.71 30.20
-4 -2 7 o 28.01 30.14
-3 2 7 o 33.49 35.99
-3 -2 7 o 34.29 36.36
-2 2 7 o 26.15 26.03
-2 -2 7 o 27.36 25.83
-1 2 7 o 25.39 25.69
-1 -2 7 o 25.50 25.65
0 2 7 o 78.54 83.75
0 -2 7 o 81.22 83.24
1 2 7 o 161.71 168.69
1 -2 7 o 163.53 169.08
2 2 7 o 104.85 110.51
2 -2 7 o 111.24 110.64
3 2 7 o 23.96 23.21
3 -2 7 o 24.62 22.98
-6 3 7 o 2.40 2.48
-6 -3 7 o 2.76 2.56
-5 3 7 o 16.04 14.60
-5 -3 7 o 16.05 14.58
-4 3 7 o 4.98 4.28
-4 -3 7 o 5.09 4.43
-3 3 7 o 118.61 122.74
-3 -3 7 o 118.04 122.66
-2 3 7 o 137.88 151.68
-2 -3 7 o 140.27 151.26
-1 3 7 o 121.43 123.04
-1 -3 7 o 120.65 123.11
0 3 7 o 51.88 58.04
0 -3 7 o 51.17 57.74
1 3 7 o 55.29 51.48
1 -3 7 o 57.51 51.25
2 3 7 o 17.29 17.63
2 -3 7 o 17.58 17.66
3 3 7 o 16.34 15.04
3 -3 7 o 16.06 15.08
-6 4 7 o 9.67 9.15
-6 -4 7 o 9.10 9.24
-5 4 7 o 9.61 10.37
-5 -4 7 o 9.70 10.46
-4 4 7 < 0.36 0.26
-4 -4 7 o 0.34 0.26
-3 4 7 o 21.74 23.75
-3 -4 7 o 21.68 23.88
-2 4 7 o 27.28 31.66
-2 -4 7 o 27.91 31.37
-1 4 7 o 35.80 36.48
-1 -4 7 o 33.50 36.41
0 4 7 o 3.18 4.09
0 -4 7 o 3.37 4.06
1 4 7 o 2.44 3.14
1 -4 7 o 2.46 3.16
2 4 7 o 8.58 8.13
2 -4 7 o 7.92 8.18
3 4 7 o 69.86 65.85
3 -4 7 o 70.87 66.17
-5 5 7 o 27.86 24.08
-5 -5 7 o 26.57 24.02
-4 5 7 o 8.72 9.24
-4 -5 7 o 8.24 9.25
-3 5 7 o 14.35 14.99
-3 -5 7 o 15.10 15.05
-2 5 7 o 11.14 11.97
-2 -5 7 o 11.17 12.16
-1 5 7 o 11.25 11.10
-1 -5 7 o 10.40 10.95
0 5 7 o 66.10 65.14
0 -5 7 o 64.70 65.24
1 5 7 o 24.33 22.95
1 -5 7 o 23.45 23.30
2 5 7 o 14.95 13.21
2 -5 7 o 13.30 13.07
-4 6 7 < 1.38 0.37
-4 -6 7 o 0.20 0.37
-3 6 7 o 4.59 3.63
-3 -6 7 o 4.54 3.58
-2 6 7 o 19.97 23.35
-2 -6 7 o 20.33 23.61
-1 6 7 o 1.27 1.17
-1 -6 7 o 0.87 1.16
0 6 7 o 45.07 45.54
0 -6 7 o 42.29 45.57
1 6 7 o 4.43 4.44
1 -6 7 o 4.29 4.43
2 6 7 o 19.84 19.64
2 -6 7 o 17.04 19.59
-3 7 7 o 11.38 10.48
-3 -7 7 o 11.82 10.32
-2 7 7 o 2.11 4.85
-2 -7 7 o 4.26 4.74
-1 7 7 o 22.09 21.64
-1 -7 7 o 21.58 21.69
0 7 7 o 11.99 10.68
0 -7 7 o 11.36 10.78
1 7 7 o 2.98 3.08
1 -7 7 o 2.61 3.12
-6 0 8 o 63.72 67.40
-5 0 8 o 1.20 1.14
-4 0 8 o 155.90 154.31
-3 0 8 o 22.51 22.12
-2 0 8 < 0.42 0.04
-1 0 8 o 143.41 147.62
0 0 8 o 365.24 357.68
1 0 8 o 74.53 74.36
2 0 8 o 10.47 10.18
3 0 8 o 2.33 1.34
-6 1 8 o 50.33 55.27
-6 -1 8 o 54.65 55.22
-5 1 8 o 51.52 51.37
-5 -1 8 o 53.05 51.67
-4 1 8 o 50.53 48.33
-4 -1 8 o 49.26 48.46
-3 1 8 o 34.53 35.03
-3 -1 8 o 34.62 34.70
-2 1 8 o 86.40 87.54
-2 -1 8 o 88.45 87.67
-1 1 8 o 76.56 77.25
-1 -1 8 o 77.50 76.78
0 1 8 o 3.40 2.96
0 -1 8 o 3.56 2.91
1 1 8 o 29.84 28.71
1 -1 8 o 30.49 28.71
2 1 8 o 9.69 9.13
2 -1 8 o 10.00 8.95
3 1 8 o 5.74 5.10
3 -1 8 o 5.73 5.08
-6 2 8 o 9.11 9.90
-6 -2 8 o 8.67 9.83
-5 2 8 o 6.10 6.70
-5 -2 8 o 5.88 6.59
-4 2 8 o 62.51 63.32
-4 -2 8 o 60.46 63.79
-3 2 8 o 108.90 110.03
-3 -2 8 o 107.26 109.96
-2 2 8 o 13.86 13.53
-2 -2 8 o 14.14 13.34
-1 2 8 o 27.08 26.92
-1 -2 8 o 27.97 26.74
0 2 8 o 77.86 79.27
0 -2 8 o 79.74 79.13
1 2 8 o 32.50 32.86
1 -2 8 o 34.72 32.79
2 2 8 o 0.72 0.65
2 -2 8 o 0.35 0.66
3 -2 8 o 50.02 47.33
-5 3 8 o 3.66 3.74
-5 -3 8 o 3.16 3.71
-4 3 8 o 23.60 22.31
-4 -3 8 o 23.40 22.42
-3 3 8 o 31.60 31.55
-3 -3 8 o 32.19 31.44
-2 3 8 o 1.00 1.36
-2 -3 8 o 1.18 1.33
-1 3 8 o 13.39 15.73
-1 -3 8 o 14.31 15.82
0 3 8 o 53.60 49.73
0 -3 8 o 53.18 49.80
1 3 8 o 5.70 5.67
1 -3 8 o 6.35 5.67
2 3 8 o 30.19 29.90
2 -3 8 o 31.64 30.25
-5 4 8 o 6.52 5.80
-5 -4 8 o 6.00 5.75
-4 4 8 o 2.60 2.84
-4 -4 8 o 2.75 2.88
-3 4 8 o 38.52 43.31
-3 -4 8 o 39.27 43.44
-2 4 8 o 20.28 19.44
-2 -4 8 o 21.05 19.33
-1 4 8 o 8.73 9.54
-1 -4 8 o 9.48 9.64
0 4 8 o 12.20 13.48
0 -4 8 o 11.74 13.42
1 4 8 o 43.64 43.55
1 -4 8 o 44.54 43.90
2 4 8 o 1.53 1.65
2 -4 8 o 1.68 1.61
-4 5 8 o 6.26 5.74
-4 -5 8 o 5.30 5.69
-3 5 8 o 19.65 19.20
-3 -5 8 o 19.20 19.11
-2 5 8 o 8.21 9.32
-2 -5 8 o 8.35 9.29
-1 5 8 o 2.25 3.07
-1 -5 8 o 2.44 3.10
0 5 8 o 31.23 29.58
0 -5 8 o 31.54 29.52
1 5 8 o 10.72 11.55
1 -5 8 o 11.10 11.61
-3 6 8 o 10.23 8.26
-3 -6 8 o 8.78 8.21
-2 6 8 o 15.03 13.17
-2 -6 8 o 15.16 13.26
-1 6 8 o 28.81 27.15
-1 -6 8 o 28.75 27.08
0 6 8 o 9.11 8.24
0 -6 8 o 9.77 8.19
-5 0 9 o 53.98 55.79
-4 0 9 o 64.09 64.05
-3 0 9 o 56.86 54.41
-2 0 9 o 5.12 4.40
-1 0 9 o 3.42 3.34
0 0 9 o 20.20 18.40
1 0 9 o 5.32 5.49
2 0 9 o 41.65 34.61
-5 1 9 o 25.23 25.93
-5 -1 9 o 25.93 25.80
-4 1 9 < 0.06 0.05
-4 -1 9 < 0.25 0.04
-3 1 9 o 9.50 9.74
-3 -1 9 o 9.63 9.67
-2 1 9 o 32.82 31.89
-2 -1 9 o 33.02 32.09
-1 1 9 o 140.22 139.57
-1 -1 9 o 140.74 139.68
0 1 9 o 11.01 11.24
0 -1 9 o 11.40 11.15
1 1 9 o 9.05 8.67
1 -1 9 o 8.35 8.50
2 1 9 o 11.62 9.55
2 -1 9 o 10.92 9.69
-5 2 9 o 16.77 16.11
-5 -2 9 o 16.66 16.12
-4 2 9 o 29.76 29.44
-4 -2 9 o 29.27 29.72
-3 2 9 o 21.74 22.06
-3 -2 9 o 21.18 22.06
-2 2 9 o 9.13 9.86
-2 -2 9 o 9.23 9.88
-1 2 9 o 49.84 48.66
-1 -2 9 o 49.92 48.15
0 2 9 o 52.35 50.71
0 -2 9 o 53.09 50.89
1 2 9 o 0.79 0.77
1 -2 9 o 1.13 0.79
-5 -3 9 o 2.22 2.56
-4 3 9 o 3.08 3.28
-4 -3 9 o 3.30 3.33
-3 3 9 o 3.82 2.46
-3 -3 9 o 3.33 2.48
-2 3 9 o 27.04 26.74
-2 -3 9 o 27.59 26.63
-1 3 9 o 15.75 13.84
-1 -3 9 o 16.14 13.88
0 3 9 o 10.74 10.11
0 -3 9 o 10.37 10.02
1 3 9 o 28.80 28.30
1 -3 9 o 28.67 28.20
-4 4 9 o 35.97 31.56
-4 -4 9 o 33.43 31.71
-3 4 9 o 18.48 16.83
-3 -4 9 o 17.43 16.58
-2 4 9 o 5.40 4.85
-2 -4 9 o 5.18 4.76
-1 4 9 o 17.87 16.65
-1 -4 9 o 19.05 16.84
0 4 9 o 2.15 1.71
0 -4 9 o 2.31 1.71
-3 5 9 o 1.04 1.29
-3 -5 9 o 0.92 1.25
-2 5 9 o 51.42 46.73
-2 -5 9 o 50.50 46.61
-1 5 9 o 8.14 6.51
-1 -5 9 o 7.98 6.53
0 5 9 o 15.09 15.73
0 -5 9 o 15.28 15.64
-4 0 10 < 0.20 0.16
-3 0 10 o 14.29 13.72
-2 0 10 o 4.62 4.60
-1 0 10 o 0.49 0.82
0 0 10 o 11.53 10.23
-4 1 10 o 52.82 51.84
-4 -1 10 o 54.28 52.25
-3 1 10 o 23.75 22.51
-3 -1 10 o 24.12 22.51
-2 1 10 o 37.13 36.23
-2 -1 10 o 35.80 36.14
-1 1 10 o 36.84 34.45
-1 -1 10 o 35.83 34.74
0 1 10 o 3.39 3.17
0 -1 10 o 3.37 3.18
-4 2 10 o 7.53 7.21
-4 -2 10 o 7.71 7.16
-3 2 10 o 1.49 2.21
-3 -2 10 o 1.60 2.25
-2 2 10 o 21.49 20.18
-2 -2 10 o 21.17 20.37
-1 2 10 o 47.44 45.47
-1 -2 10 o 43.45 45.84
0 2 10 o 10.41 10.17
0 -2 10 o 10.35 10.01
-3 3 10 o 5.15 3.41
-3 -3 10 o 5.02 3.42
-2 3 10 o 3.02 2.29
-2 -3 10 o 2.69 2.22
-1 3 10 o 21.54 21.49
-1 -3 10 o 19.55 21.35
