#------------------------------------------------------------------------------
#$Date: 2016-06-17 04:52:18 +0300 (Fri, 17 Jun 2016) $
#$Revision: 183641 $
#$URL: file:///home/coder/svn-repositories/cod/cif/2/02/04/2020465.cif $
#------------------------------------------------------------------------------
#
# This file is available in the Crystallography Open Database (COD),
# http://www.crystallography.net/. The original data for this entry
# were provided by IUCr Journals, http://journals.iucr.org/.
#
# The file may be used within the scientific community so long as
# proper attribution is given to the journal article from which the
# data were obtained.
#
data_2020465
loop_
_publ_author_name
'Seiler, Vanessa Kristina'
'H\"utzler, Wilhelm Maximilian'
'Bolte, Michael'
_publ_section_title
;
 Eight new crystal structures of 5-(hydroxymethyl)uracil, 5-carboxyuracil
 and 5-carboxy-2-thiouracil: insights into the hydrogen-bonded networks
 and the predominant conformations of the C5-bound residues
;
_journal_issue                   5
_journal_name_full               'Acta Crystallographica Section C'
_journal_page_first              379
_journal_page_last               388
_journal_paper_doi               10.1107/S2053229616004861
_journal_volume                  72
_journal_year                    2016
_chemical_formula_iupac          'C5 H6 N2 O3'
_chemical_formula_moiety         'C5 H6 N2 O3'
_chemical_formula_sum            'C5 H6 N2 O3'
_chemical_formula_weight         142.12
_chemical_name_systematic
;
5-(Hydroxymethyl)uracil
;
_space_group_crystal_system      triclinic
_space_group_IT_number           2
_space_group_name_Hall           '-P 1'
_space_group_name_H-M_alt        'P -1'
_symmetry_space_group_name_Hall  '-P 1'
_symmetry_space_group_name_H-M   'P -1'
_atom_sites_solution_hydrogens   mixed
_audit_creation_method           SHELXL-2014/7
_cell_angle_alpha                66.97(2)
_cell_angle_beta                 88.09(2)
_cell_angle_gamma                87.07(2)
_cell_formula_units_Z            2
_cell_length_a                   4.874(3)
_cell_length_b                   7.663(2)
_cell_length_c                   8.325(3)
_cell_measurement_reflns_used    3734
_cell_measurement_temperature    173(2)
_cell_measurement_theta_max      26.11
_cell_measurement_theta_min      4.19
_cell_volume                     285.7(2)
_computing_cell_refinement
;
X-AREA (Stoe & Cie, 2001)
;
_computing_data_collection
;
X-AREA (Stoe & Cie, 2001)
;
_computing_data_reduction
;
X-AREA (Stoe & Cie, 2001)
;
_computing_molecular_graphics
;
Mercury (Macrae <i>et al.</i>,  2008) and XP in SHELXTL-Plus (Sheldrick,
2008)
;
_computing_publication_material
;
publCIF (Westrip, 2010)
;
_computing_structure_refinement
;
SHELXL2014 (Sheldrick, 2015)
;
_computing_structure_solution
;
SHELXS97 (Sheldrick, 2008)
;
_diffrn_ambient_temperature      173(2)
_diffrn_measured_fraction_theta_full 0.995
_diffrn_measured_fraction_theta_max 0.993
_diffrn_measurement_device_type  'Stoe IPDS II two-circle'
_diffrn_measurement_method       \w
_diffrn_radiation_type           MoK\a
_diffrn_radiation_wavelength     0.71073
_diffrn_reflns_av_R_equivalents  0.0455
_diffrn_reflns_limit_h_max       5
_diffrn_reflns_limit_h_min       -5
_diffrn_reflns_limit_k_max       8
_diffrn_reflns_limit_k_min       -9
_diffrn_reflns_limit_l_max       10
_diffrn_reflns_limit_l_min       -10
_diffrn_reflns_number            2369
_diffrn_reflns_theta_full        25.000
_diffrn_reflns_theta_max         25.825
_diffrn_reflns_theta_min         4.187
_exptl_absorpt_coefficient_mu    0.139
_exptl_absorpt_correction_T_max  1.000
_exptl_absorpt_correction_T_min  0.221
_exptl_absorpt_correction_type   multi-scan
_exptl_absorpt_process_details
;
(X-AREA; Stoe & Cie, 2001)
;
_exptl_crystal_colour            colourless
_exptl_crystal_density_diffrn    1.652
_exptl_crystal_description       block
_exptl_crystal_F_000             148
_exptl_crystal_size_max          0.300
_exptl_crystal_size_mid          0.300
_exptl_crystal_size_min          0.100
_refine_diff_density_max         0.424
_refine_diff_density_min         -0.300
_refine_ls_extinction_method     none
_refine_ls_goodness_of_fit_ref   1.053
_refine_ls_hydrogen_treatment    mixed
_refine_ls_matrix_type           full
_refine_ls_number_parameters     100
_refine_ls_number_reflns         1091
_refine_ls_number_restraints     3
_refine_ls_restrained_S_all      2.090
_refine_ls_R_factor_all          0.0774
_refine_ls_R_factor_gt           0.0554
_refine_ls_shift/su_max          0.000
_refine_ls_shift/su_mean         0.000
_refine_ls_structure_factor_coef Fsqd
_refine_ls_weighting_details
'w=1/[\s^2^(Fo^2^)+(0.0885P)^2^] where P=(Fo^2^+2Fc^2^)/3'
_refine_ls_weighting_scheme      calc
_refine_ls_wR_factor_gt          0.1316
_refine_ls_wR_factor_ref         0.1452
_reflns_number_gt                807
_reflns_number_total             1091
_reflns_threshold_expression     'I > 2\s(I)'
_cod_data_source_file            eg3200sup1.cif
_cod_data_source_block           I
_cod_depositor_comments
'Adding full bibliography for 2020465--2020472.cif.'
_cod_database_code               2020465
_cod_database_fobs_code          2020465
_shelx_space_group_comment
;
The symmetry employed for this shelxl refinement is uniquely defined
by the following loop, which should always be used as a source of
symmetry information in preference to the above space-group names.
They are only intended as comments.
;
_shelx_estimated_absorpt_t_min   0.960
_shelx_estimated_absorpt_t_max   0.986
_shelx_hkl_file
;
  -3  -6  -1    7.10    6.77   0
  -3  -4  -1  634.19   14.40   0
  -3  -1   0   11.13   14.23   0
  -3   1   1  224.57    9.93   0
  -2   3   2  290.03    8.11   0
   0  -7  -1  104.45    7.28   0
   0   6   5   29.60    6.00   0
   0   8   8   27.73    7.01   0
   1  -8   0   59.08    6.21   0
   2  -6   0   16.83    6.64   0
   3  -5   1   17.11    6.07   0
   3   3   4  139.56   12.67   0
  -2   4   3   14.27    5.08   0
  -2   5   4 4186.53   23.15   0
  -1  -8  -1    5.77    6.11   0
  -1   6   5   39.28    6.00   0
   0   3   2 1854.21   17.37   0
   1  -5  -1  261.28    8.32   0
   1   7   7    8.66    6.87   0
   2   3   3  289.72   11.21   0
   2   5   5   37.15    7.24   0
   3  -6   1  117.85    8.10   0
   3  -2   1   23.68    7.37   0
   3   4   5   68.38    9.50   0
   5   0   5    6.23   13.76   0
  -3  -7  -1   24.03    7.14   0
  -3   6   6  111.14    7.48   0
  -2  -8  -1    4.20    5.44   0
  -2   7   7   97.59    7.01   0
  -1   3   2   47.79    7.23   0
  -1   5   4   35.69    6.71   0
   0  -8  -1   11.82    6.38   0
   0   4   3 2447.35   18.85   0
   0   5   4  449.25    8.74   0
   1  -6  -1    4.37    5.38   0
   1  -4  -1 2189.26   17.38   0
   2  -7   0   16.92    5.98   0
   2   4   4  100.18    8.48   0
   2   7   8   60.73    6.97   0
   4  -4   2   79.37    8.69   0
  -1  -2  -1  987.69   17.78   0
  -1   4   3    4.73    5.58   0
   0   7   7   12.69    6.70   0
   1  -7  -1  154.85    7.17   0
   2  -2   0   10.51    7.13   0
   3   6   8   24.10    8.49   0
   4  -5   2   10.66    6.89   0
   4  -3   2   88.80    7.96   0
   4   0   3    1.90   11.62   0
  -5   1   3  109.45    9.33   0
  -4   5   6    5.20    6.32   0
  -3   5   5   57.30    6.27   0
  -1   7   7   56.82    6.30   0
   1   6   6  183.44    8.46   0
   4   4   7    4.20   10.71   0
  -5   2   4   57.93    8.30   0
  -5   3   5    6.43    6.61   0
  -4   1   2    6.80    7.31   0
  -3   2   2  359.36    9.12   0
  -3   4   4  330.54    9.01   0
  -2   6   6  183.14    7.56   0
   1  -8  -1   17.92    5.50   0
   1  -3  -1 5019.65   25.08   0
   2   6   7  107.89    8.61   0
   4  -2   2   21.42    7.76   0
  -4   4   5   12.36    6.21   0
  -3   3   3  211.34    7.67   0
  -3   6   7    8.37    6.45   0
  -2   7   8   43.26    6.48   0
  -1  -6  -2  419.72    9.17   0
   0  -2  -1   16.36    8.73   0
   1   7   8   15.62    6.43   0
  -4   2   3  347.30    9.69   0
  -4   3   4   -0.13    6.30   0
  -3  -3  -1  187.98   12.96   0
  -1  -7  -2  438.00    8.68   0
  -1  -5  -2   67.01    6.05   0
  -1   6   6 1969.43   17.47   0
   0  -6  -2   56.06    6.13   0
   0   6   6   35.88    5.47   0
   1   1   1   36.26   14.20   0
   1   5   5  533.75   10.96   0
   2  -6  -1   27.95    6.23   0
   2  -5  -1  199.51    7.41   0
   3  -6   0    2.70    6.52   0
   3  -5   0  185.28    7.30   0
  -4  -6  -1  126.05    9.74   0
  -2  -7  -2 1249.38   15.29   0
  -2  -6  -2   47.40    6.26   0
  -2  -2  -1  930.96   22.48   0
  -2   5   5   60.19    5.80   0
  -1  -8  -2   19.05    5.33   0
  -1   7   8   85.57    6.75   0
   0  -7  -2  366.39    8.39   0
   0  -5  -2   -3.90    5.52   0
   0   7   8  697.21   12.76   0
   2  -7  -1  134.13    6.96   0
   3  -7   0    0.56    6.65   0
   3  -4   0  181.01    7.85   0
   3   5   7    4.85    7.32   0
   5  -1   4   21.83   11.54   0
  -3   5   6    3.39    5.89   0
  -2  -8  -2   89.21    7.11   0
  -2  -5  -2   74.57    6.84   0
  -1  -9  -2   41.20    6.82   0
  -1   0   0 2000.19   40.11   0
   0  -8  -2   -0.06    5.06   0
   2  -8  -1    4.20    6.07   0
   2  -4  -1  194.30    6.96   0
   3  -1   1   19.17    8.11   0
   4  -5   1   21.51    6.57   0
   4   3   6   72.04   12.27   0
  -5  -5   0   19.50   13.24   0
  -5  -1   2    2.95    9.88   0
  -4  -5  -1   23.03    9.42   0
  -2   4   4   47.90    6.06   0
  -2   6   7   14.82    5.40   0
  -1  -4  -2    4.63    6.23   0
  -1   5   5    1.85    5.50   0
   0  -9  -2   38.03    6.34   0
   0   5   5   -0.34    5.95   0
   1  -7  -2   11.45    5.69   0
   1  -6  -2   81.96    6.68   0
   1   4   4  472.92    9.67   0
   1   6   7    5.21    6.40   0
   2   5   6  103.19    7.33   0
   4  -4   1    0.35    6.26   0
  -4   4   6   28.15    6.59   0
  -2   1   1 5869.81   33.25   0
   0  -4  -2    3.88    6.32   0
   0   7   9   -4.46    5.89   0
   1  -8  -2   25.45    5.64   0
   2   6   8    3.17    6.43   0
   3  -3   0   24.03    6.25   0
  -5   2   5   -1.54    7.03   0
  -3  -8  -2    8.24    6.82   0
  -3  -7  -2   23.81    6.01   0
  -3  -6  -2   40.60    7.36   0
  -3   4   5  166.10    7.30   0
  -2   3   3    6.43    5.70   0
  -1   6   7   19.11    5.45   0
   0   6   7    8.51    5.25   0
   1  -5  -2  316.34    7.47   0
   4  -3   1   84.54    7.83   0
   4  -1   2   86.16   10.12   0
  -2   2   2  172.23    8.27   0
  -2   6   8    0.02    6.34   0
  -1   4   4  169.64    6.75   0
   0   4   4   65.41    6.59   0
   1  -2  -1  435.49   11.51   0
   1   3   3    5.42    7.10   0
   2  -3  -1    6.37    6.29   0
   3   4   6   48.69    8.85   0
  -5   0   3    6.87    7.84   0
  -5   1   4    3.31    6.99   0
  -4   3   5  122.48    7.25   0
  -3   5   7    6.90    5.51   0
  -2  -4  -2   19.38    6.84   0
  -2   5   6  206.80    7.65   0
   1   2   2  912.65   16.98   0
   2  -7  -2    9.43    5.73   0
   2  -1   0   68.92    7.99   0
   2   4   5    7.97    7.33   0
   2   6   9   -2.95    7.66   0
   3  -7  -1   23.70    6.01   0
   3  -6  -1   35.27    5.81   0
   3   5   8    4.44    7.74   0
   5  -2   3   61.47    9.30   0
  -5  -3   1    9.12   14.00   0
  -4  -1   1   25.63    9.10   0
  -4   4   7    9.89    6.52   0
  -3   3   4   22.24    5.66   0
  -1  -8  -3   56.96    6.38   0
  -1  -7  -3   59.04    6.16   0
   1  -4  -2  560.74    9.02   0
   1   5   6   12.39    5.86   0
   1   6   8   13.72    5.88   0
   2  -8  -2   13.29    5.13   0
   2  -6  -2  263.03    7.77   0
   3  -5  -1    6.58    4.84   0
   4  -6   0    8.35    6.71   0
  -4   2   4   24.41    6.08   0
  -3  -5  -2    5.77    6.91   0
  -1  -9  -3    8.02    5.26   0
  -1   3   3  167.19    6.80   0
  -1   5   6   61.07    5.73   0
  -1   6   8   90.58    6.84   0
   0  -9  -3    4.99    5.70   0
   0  -8  -3  114.02    6.04   0
   0  -7  -3    7.82    4.94   0
   0   6   8   42.56    6.59   0
   2   5   7    4.86    7.04   0
   4  -5   0   61.30    7.16   0
   4   2   5    6.64   12.35   0
  -3   0   1 1793.69   22.49   0
  -3   2   3  185.26    7.52   0
  -3   5   8   22.47    5.75   0
  -2  -8  -3   53.35    6.28   0
  -2  -7  -3    5.23    6.48   0
  -2   4   5  123.25    6.60   0
  -1  -6  -3   80.08    6.18   0
   0  -6  -3   98.15    6.18   0
   0   3   3  113.47    7.27   0
   0   5   6   51.71    5.58   0
   2  -5  -2  246.41    6.99   0
   3  -2   0  228.56    8.81   0
  -4  -4  -1   23.16   12.24   0
  -4   0   2   57.02    7.78   0
  -4   1   3    3.67    6.34   0
  -3   1   2   16.47    6.84   0
  -3   4   6    2.67    5.20   0
  -2   5   7  111.92    6.40   0
  -1   2   2   21.16    7.39   0
  -1   6   9   37.35    6.65   0
   0  -3  -2 1816.92   16.28   0
   1  -9  -3   -3.97    5.28   0
   1  -8  -3   87.27    6.14   0
   1  -7  -3   54.03    5.55   0
   1   6   9   10.47    6.90   0
   3  -4  -1  114.45    6.21   0
   4  -4   0  254.86    8.51   0
   4  -2   1  112.37    8.21   0
   5  -3   2  127.34   10.21   0
  -4   3   6   83.54    7.01   0
  -2  -6  -3   18.26    6.46   0
  -1  -3  -2  728.26   12.47   0
  -1   1   1  734.95   15.77   0
   0   6   9   12.65    6.49   0
   1  -6  -3  137.57    6.76   0
   2   3   4  171.65   10.79   0
   3   3   5    5.67    8.34   0
  -5   1   5    2.02    6.86   0
  -4  -7  -2   54.32    8.42   0
   0  -5  -3 1034.15   11.57   0
   0   2   2   -0.97    7.53   0
   1   4   5    9.66    5.52   0
   3  -7  -2    3.43    5.07   0
  -3  -8  -3   -3.39    6.62   0
  -2   3   4  428.88    8.62   0
  -2   5   8    7.42    5.27   0
  -1  -5  -3 1139.34   12.12   0
  -1   4   5   19.08    4.89   0
  -1   5   7   22.01    5.35   0
   1   5   7    9.14    5.23   0
   2  -8  -3   34.46    5.67   0
   2  -4  -2   39.10    4.88   0
   2   5   8    9.90    6.09   0
   3  -6  -2  100.44    6.25   0
   3   4   7   90.36    8.68   0
   4  -6  -1    4.05    5.97   0
  -5   0   4   26.64    7.94   0
  -3   3   5  290.99    8.09   0
  -3   4   7   57.54    6.65   0
   0   4   5   17.87    4.76   0
   0   5   7   16.05    4.94   0
   1  -5  -3  109.57    6.40   0
   1  -3  -2   49.68    5.64   0
   2  -7  -3   36.92    5.41   0
   2  -2  -1  137.60    8.16   0
   4   3   7    5.05    8.92   0
   5  -4   1    8.47    7.42   0
   5  -1   3   58.82   12.95   0
  -4   2   5   86.90    7.04   0
  -4   3   7    3.62    5.58   0
  -3  -7  -3    2.66    5.77   0
  -2   4   6    8.56    5.28   0
  -2   5   9   42.65    6.73   0
  -1  -9  -4   13.84    5.17   0
  -1  -8  -4  114.17    6.86   0
   0  -9  -4   12.12    4.90   0
   0  -8  -4    4.07    4.68   0
   2  -6  -3   17.12    5.79   0
   2   4   6    8.06    6.03   0
   3  -5  -2  267.39    8.16   0
   3  -3  -1   89.00    6.64   0
   4  -5  -1    9.19    5.71   0
   4  -3   0 2091.43   20.43   0
  -5  -2   2   52.67    9.91   0
  -5  -1   3   16.05    7.99   0
  -4  -6  -2   14.83    7.87   0
  -3   4   8   65.44    7.27   0
  -2  -5  -3  244.30    8.75   0
  -1   5   8   -2.29    5.27   0
   0  -7  -4   29.25    5.86   0
   1  -9  -4   14.13    5.13   0
   1   5   8    2.12    6.07   0
   2   5   9   68.13    7.15   0
   5  -2   2  818.05   19.12   0
  -3  -4  -2    6.06    7.68   0
  -2   2   3  104.18    6.87   0
  -1  -7  -4   41.83    5.13   0
   0   5   8   49.22    5.61   0
   1  -8  -4   -5.22    4.82   0
  -4   1   4  102.72    7.75   0
  -3  -6  -3    3.27    6.03   0
  -3   2   4    1.36    5.50   0
  -3   3   6   20.59    5.55   0
  -2  -8  -4  136.07    6.84   0
  -2  -3  -2  662.90   13.89   0
  -2   4   7  136.65    7.42   0
  -1   3   4  104.71    5.88   0
  -1   4   6  198.94    7.22   0
  -1   5   9   39.41    6.10   0
   0  -4  -3 2454.61   16.92   0
   1  -7  -4  191.43    6.71   0
   3  -7  -3    2.77    5.82   0
   3   4   8   30.06    7.26   0
  -4   2   6   24.72    5.94   0
  -1  -4  -3   66.82    6.36   0
   0  -6  -4  173.77    6.62   0
   0   5   9    4.83    6.00   0
   1   3   4   20.46    5.38   0
   1   4   6    7.74    5.57   0
   1   5   9    0.02    5.66   0
   2  -8  -4    8.73    5.74   0
   2  -5  -3  102.00    5.60   0
   2   2   3   20.04    7.84   0
   4  -4  -1   15.46    6.76   0
   5  -3   1    3.46    7.61   0
  -2  -7  -4  177.14    7.98   0
  -2   3   5  120.31    5.95   0
  -1  -6  -4    1.71    5.05   0
   0   3   4    2.95    5.25   0
   0   4   6   20.28    5.11   0
   1  -4  -3    0.08    4.94   0
   2  -3  -2  256.81    7.18   0
   2   4   7   39.33    6.28   0
   3  -4  -2 4130.52   22.67   0
   4  -6  -2   82.11    6.77   0
  -3   3   7   56.11    6.45   0
  -2   4   8    3.64    5.12   0
   0  -9  -5   49.53    6.04   0
   0   5  10    2.04    5.67   0
   1  -6  -4  168.75    6.51   0
   2  -7  -4   88.97    5.77   0
   3  -6  -3    9.57    4.89   0
   3   2   4  217.25   11.63   0
   3   3   6 1529.89   19.49   0
  -4   0   3   16.16    6.18   0
  -4   2   7    6.58    6.13   0
  -3   1   3   72.21    6.93   0
  -2   1   2  105.64    8.30   0
  -2   4   9   41.82    6.32   0
  -1  -9  -5   39.84    5.83   0
  -1   4   7   23.56    4.98   0
   1  -9  -5   23.13    6.18   0
   5  -4   0    4.55    6.90   0
  -3  -8  -4  372.94   10.84   0
  -3   3   8   12.18    6.47   0
  -1  -8  -5    7.97    5.67   0
   0  -8  -5   43.23    5.18   0
   1   4   7  407.18    9.68   0
   2   3   5  408.23   10.18   0
   2   4   8   35.59    6.67   0
   3  -1   0   96.17    9.22   0
   4  -5  -2    5.72    5.81   0
   4  -1   1    0.40    8.56   0
  -5  -1   4  116.33    8.43   0
  -4  -5  -2    3.04    9.96   0
  -4   1   5    3.78    5.67   0
  -3   2   5    7.56    4.91   0
  -2  -6  -4    8.56    5.44   0
  -2   3   6    8.58    5.68   0
  -1   2   3 6396.77   28.00   0
  -1   3   5   53.31    6.14   0
  -1   4   8   16.09    5.79   0
   0  -5  -4  441.42    7.66   0
   0   4   7   17.05    5.27   0
   1  -8  -5   21.58    5.26   0
   2  -6  -4  178.96    7.05   0
   2  -4  -3   10.46    5.10   0
   3  -5  -3   44.45    5.88   0
   4  -2   0   28.24    7.52   0
   4   2   6    3.89    9.59   0
  -4  -7  -3    9.12    8.06   0
  -3  -5  -3   42.80    7.91   0
  -2  -4  -3    2.07    6.28   0
  -1  -5  -4   14.55    5.29   0
   0  -7  -5   35.14    4.87   0
   0  -2  -2    5.92    8.39   0
   1  -5  -4   34.71    5.16   0
   1  -1  -1  724.40   15.44   0
   2   4   9   36.32    6.79   0
   3  -7  -4  105.31    7.20   0
   3  -2  -1    2.16    5.67   0
   4   1   4    2.14   13.29   0
  -4  -1   2   67.98    8.39   0
  -3  -7  -4   28.04    6.74   0
  -2  -8  -5    6.33    5.60   0
  -2   2   4   20.22    4.90   0
  -1  -7  -5   20.68    5.49   0
  -1   4   9   12.32    5.39   0
   0   4   8   19.69    5.01   0
   1  -7  -5   20.79    4.82   0
   1   4   8    8.15    5.25   0
   2  -8  -5    2.83    4.98   0
   3   0   1 1895.53   34.70   0
   3   3   7   14.28    6.87   0
   4  -3  -1   57.57    6.83   0
  -4   1   6   40.96    6.31   0
  -3   2   6   95.11    6.45   0
  -2   3   7   15.83    5.21   0
   0   3   5 2006.68   15.96   0
   0   4   9   10.02    5.91   0
   1  -2  -2   18.82    6.24   0
   1   2   3 1338.04   16.82   0
   1   3   5  202.17    7.27   0
   1   4   9   83.89    7.42   0
   3  -3  -2   35.30    6.24   0
   4  -6  -3   -0.67    6.03   0
  -5  -2   3    4.76    7.26   0
  -3   0   2  783.03   13.08   0
   0  -9  -6    2.03    5.59   0
   0  -3  -3  137.66    7.48   0
   0   2   3  622.87   10.92   0
   0   4  10    0.27    5.32   0
   1   4  10   22.32    5.98   0
   2  -7  -5   12.68    5.51   0
   2  -5  -4 3773.79   20.74   0
   3  -6  -4   20.18    5.64   0
   4  -4  -2  206.53    9.50   0
  -4   0   4   18.48    5.57   0
  -4   1   7  199.96    8.50   0
  -3   2   7    2.51    5.80   0
  -2   0   1 1054.63   16.93   0
  -2   3   8   40.04    5.50   0
  -2   3   9   -3.61    5.92   0
  -1  -9  -6   -0.49    6.04   0
  -1   3   6   35.57    5.51   0
   0  -6  -5   28.73    4.82   0
   1  -3  -3  164.15    6.43   0
   1   0   0 2195.55   40.29   0
   2   3   6  115.15    7.41   0
   3   3   8   56.01    8.66   0
   4   2   7    2.34    9.21   0
   5  -3   0  165.40   10.05   0
   5  -2   1   30.48    9.06   0
  -3   1   4   71.34    6.23   0
  -3   2   8   35.46    6.81   0
  -2  -7  -5   19.57    5.81   0
  -1  -2  -2  774.92   14.57   0
   0  -8  -6   97.58    6.75   0
   1  -6  -5   44.33    5.13   0
   3  -4  -3   80.33    6.40   0
   5  -4  -1   53.08    7.64   0
  -5  -3   2   15.98    9.28   0
  -4  -2   1   77.26    9.60   0
  -2  -5  -4    2.66    5.75   0
  -2   2   5   52.95    5.57   0
  -1  -6  -5  245.13    7.06   0
  -1   3   7   23.29    5.71   0
   0   3   6   14.85    5.85   0
   1  -8  -6   27.75    5.44   0
   2  -2  -2  142.77    7.85   0
   4  -5  -3  102.31    7.30   0
  -4  -6  -3    0.42    8.80   0
  -3  -8  -5    5.74    6.49   0
  -3  -6  -4   23.94    6.36   0
  -1  -8  -6   14.86    5.19   0
  -1  -3  -3    4.44    6.58   0
  -1   2   4   53.61    6.43   0
   0  -4  -4   65.56    5.44   0
   1  -4  -4  166.64    6.34   0
   1   3   6  244.60    7.26   0
   2  -6  -5   48.35    5.41   0
   2  -1  -1 6294.17   34.85   0
   2   3   7   13.36    6.05   0
   3  -7  -5   12.21    5.87   0
   3   2   5    3.81    8.15   0
  -4   0   5   20.09    5.86   0
  -1   1   2 4419.73   27.44   0
  -1   3   8    4.37    4.99   0
  -1   3   9    4.64    5.19   0
   2  -8  -6   77.57    5.90   0
   2  -3  -3    5.55    4.74   0
   3  -5  -4  277.90    7.93   0
   5  -1   2   24.70   13.04   0
  -3   1   5   17.07    5.05   0
  -2   1   3 3326.04   22.31   0
  -2   2   6   30.99    5.20   0
  -1  -1  -1   37.78   13.44   0
   0  -7  -6   56.73    5.43   0
   0   3   7  387.88    8.98   0
   1  -7  -6   92.81    6.13   0
   1   3   7  139.79    7.28   0
   2   2   4 9650.91   45.05   0
   2   3   8    3.17    6.29   0
   2   3   9    1.99    6.27   0
   4  -6  -4  -11.65    6.32   0
  -5  -4   1    7.17   10.21   0
  -4  -1   3  128.52    7.61   0
  -4   0   6  103.13    7.07   0
  -3  -1   1  287.78   11.76   0
  -2  -8  -6   15.42    5.78   0
  -2  -6  -5  210.66    8.42   0
  -1  -7  -6   50.79    6.06   0
  -1  -4  -4  475.47    8.44   0
   0  -5  -5   -3.98    4.74   0
   0   3   8  151.19    7.16   0
   0   3   9   14.79    6.21   0
   0   3  10    6.60    5.62   0
   1  -5  -5    4.91    5.05   0
   1   3   8   11.47    5.49   0
   1   3  10   27.27    6.93   0
   2  -4  -4   47.72    5.22   0
  -3   1   6   21.68    5.90   0
  -2   2   7   15.92    5.12   0
  -2   2   8   12.22    5.13   0
  -2   2   9   14.16    5.13   0
   1   3   9    5.49    5.47   0
   2  -7  -6    2.47    5.04   0
   3  -6  -5  134.62    7.00   0
   4  -3  -2  134.54    8.69   0
  -4  -3   0  218.59   15.58   0
  -3  -7  -5    3.51    6.35   0
  -3   0   3  101.94    6.82   0
  -3   1   7   14.20    5.30   0
  -3   1   8   54.13    6.22   0
  -1   2   5 1681.38   15.41   0
   0   2   4 1356.48   13.56   0
   2  -5  -5   56.62    6.19   0
   2   1   2  679.00   20.48   0
   4  -4  -3   58.23    6.96   0
   4  -2  -1   87.68    7.69   0
  -4  -7  -4    7.28    8.93   0
  -1  -5  -5  559.15    9.34   0
   0  -8  -7   17.56    5.19   0
   0  -6  -6   32.74    5.68   0
   1  -8  -7   19.18    5.03   0
   1  -6  -6 2196.62   16.21   0
   1   2   4  371.65   10.00   0
   3  -3  -3  172.55    7.45   0
   3   2   6  140.70    8.43   0
   5  -3  -1   43.72    8.32   0
  -4  -1   4   73.02    7.24   0
  -2   1   4 1019.61   12.08   0
  -1   2   6  597.37   10.35   0
   3  -7  -6   -0.68    5.98   0
   3  -4  -4  231.98    8.43   0
   3  -2  -2  311.06    8.87   0
   3   2   7    8.80    6.90   0
   4  -5  -4  148.10    7.58   0
   5  -4  -2   98.95    8.17   0
  -2  -7  -6    7.93    5.38   0
  -1  -8  -7    6.40    5.18   0
  -1   2   7   40.65    5.89   0
  -1   2   9  107.59    6.74   0
   2  -6  -6  171.23    6.69   0
   2   2   5   17.39    6.98   0
   3   1   3   77.34   11.88   0
   3   2   8   10.26    6.78   0
   4   1   5    1.03    9.47   0
   5   0   5    2.52   12.97   0
  -4  -1   5    7.37    5.49   0
  -3  -4  -3  536.94   15.20   0
  -3   0   4   51.24    6.14   0
  -1  -6  -6  175.29    6.67   0
  -1   2   8   23.93    5.35   0
   0   2   5  480.48    9.03   0
   3  -5  -5   58.39    5.55   0
   4  -6  -5  136.69    8.01   0
   4  -1   0   79.83   10.18   0
   5  -2   0   61.83   10.29   0
  -4  -2   2 2481.65   24.71   0
  -4  -1   6    2.63    6.08   0
  -3  -5  -4    8.71    7.67   0
  -2  -4  -4  102.36    7.54   0
  -2   1   5  108.09    6.13   0
  -2   1   9    1.34    5.46   0
   0  -7  -7   14.81    4.97   0
   0   1   2 1830.88   20.40   0
   0   2   9    2.46    6.11   0
   1  -7  -7   56.26    5.48   0
   1  -3  -4  101.59    5.90   0
   2   0   0 3668.46   39.30   0
   2   2   9   13.08    6.34   0
   3  -1  -1  210.19   10.17   0
  -3   0   5  279.14    8.22   0
  -3   0   8    4.24    5.41   0
  -2  -3  -3  307.69   10.85   0
  -2   1   6   33.47    6.25   0
  -2   1   8   54.80    5.88   0
  -1   1   3 1408.77   15.31   0
   0  -4  -5   22.83    5.46   0
   0  -3  -4    1.94    5.31   0
   0   2   6    3.87    4.89   0
   0   2   8   91.24    7.15   0
   1  -4  -5   18.87    4.82   0
   1  -2  -3 6638.77   28.11   0
   1   2   5   36.14    5.34   0
   1   2   9    2.89    6.57   0
   2  -7  -7   76.10    5.93   0
   2   2   6  278.13    8.95   0
   3  -6  -6   96.84    7.18   0
   4   1   6   24.12    9.69   0
  -3   0   6   74.19    6.75   0
  -3   0   7   10.37    5.61   0
  -2  -8  -7    3.76    5.93   0
  -2  -5  -5   38.45    6.23   0
  -2   0   2   16.29    7.33   0
  -2   1   7  222.42    7.80   0
  -1  -7  -7    7.26    5.65   0
   0   2   7   21.54    5.48   0
   1  -5  -6   62.46    5.59   0
   1   2   8    7.32    6.12   0
   2  -4  -5  129.52    6.57   0
   2  -3  -4  428.08    8.22   0
   2   2   7   86.19    7.45   0
   2   2   8   22.61    5.76   0
   4   1   7   -2.91    7.69   0
  -3  -6  -5   27.66    7.16   0
   0  -8  -8   42.14    6.80   0
   0  -5  -6   62.39    5.30   0
   0  -2  -3  722.25   11.25   0
   1   2   6    6.17    4.78   0
   1   2   7   10.70    5.81   0
   2  -5  -6  212.86    7.92   0
   2  -2  -3   93.63    7.46   0
   4  -4  -4    6.52    6.01   0
  -4  -2   3   19.15    7.44   0
  -3  -1   2  839.17   13.96   0
  -2  -6  -6   24.78    5.94   0
  -1   1   9    5.92    5.41   0
   1  -6  -7   20.86    5.99   0
   4  -5  -5    6.40    6.18   0
   4  -3  -3  113.03    7.55   0
   5  -4  -3   -3.87    7.47   0
  -2  -1   0  225.71   14.17   0
  -1  -8  -8   16.79    6.34   0
  -1  -4  -5    7.39    5.47   0
   0  -6  -7    5.83    4.90   0
   2  -6  -7   25.64    6.24   0
   5  -3  -2    0.18    7.24   0
  -4  -2   4   43.00    7.13   0
  -4  -2   5   95.85    7.77   0
  -3  -7  -6    3.27    6.74   0
  -1  -5  -6   15.32    5.72   0
  -1  -3  -4   23.34    6.35   0
  -1   1   4   11.08    5.70   0
  -1   1   8 1209.35   13.93   0
   1  -1  -2 4778.48   28.59   0
   3  -4  -5  163.62    7.06   0
   3  -3  -4   18.65    5.82   0
   4  -2  -2   19.01    7.12   0
  -2  -7  -7   44.62    6.75   0
  -2   0   8   44.72    5.98   0
  -1   1   5  155.53    7.62   0
  -1   1   7   22.49    5.40   0
   0  -7  -8  613.11   12.47   0
   0   1   9    9.13    6.21   0
   1  -7  -8   70.10    6.34   0
   3  -5  -6    7.32    5.24   0
   3   1   8    6.17    6.69   0
  -4  -6  -4   -1.28    8.93   0
  -3  -2   0    7.72    9.88   0
  -3  -1   7   98.66    6.92   0
  -2   0   3  394.95    9.43   0
  -1  -6  -7    5.74    5.03   0
  -1   1   6  332.53    8.13   0
   1   1   9    7.04    6.99   0
   2  -7  -8   28.19    5.85   0
   2  -1  -2  107.78    8.18   0
   2   1   9   31.32    6.49   0
   3  -6  -7   14.02    5.52   0
   3  -2  -3  161.92    7.84   0
   3   1   4    3.78    8.35   0
   5  -1   1   25.15   14.02   0
  -4  -7  -5    3.63    9.05   0
  -3  -1   3   74.44    7.02   0
  -3  -1   6   53.25    6.56   0
  -2   0   7   -2.13    4.95   0
  -1   0   1    1.39   10.51   0
  -1   0   9   -1.36    6.67   0
   0   1   3   33.20    6.89   0
   0   1   8  188.71    7.04   0
   3   1   7    5.51    7.26   0
   5  -2  -1   35.50    9.06   0
  -4  -3   1   63.43    9.41   0
  -3  -1   4 3320.68   22.29   0
  -3  -1   5   17.93    5.93   0
  -2  -2  -2  861.49   22.85   0
  -2   0   4  803.55   11.01   0
  -2   0   6 2289.11   17.35   0
  -1  -7  -8   25.99    6.44   0
   1  -5  -7   22.03    5.83   0
   1  -4  -6  192.14    7.00   0
   1  -3  -5   46.97    6.19   0
   1   1   8  272.75    8.94   0
   2   1   8   31.04    6.66   0
   3   1   5   16.17    8.02   0
   3   1   6   66.07    7.51   0
  -2   0   5   44.17    5.56   0
  -1  -2  -3 1408.05   16.57   0
   0  -5  -7   19.08    5.53   0
   0  -4  -6   23.47    5.09   0
   0  -1  -2 1899.76   20.54   0
   0   1   7    5.53    5.17   0
   2  -5  -7  111.63    6.27   0
   2  -4  -6    5.53    5.24   0
   2  -3  -5  119.18    6.74   0
   2   1   3  105.49    9.63   0
   4  -5  -6   11.52    6.41   0
   4  -4  -5   19.81    6.09   0
   5  -4  -4   10.97    6.62   0
  -4  -3   5   38.94    7.64   0
  -2  -5  -6  111.13    7.20   0
  -2  -1   8   24.18    6.24   0
  -1   0   8  107.89    6.55   0
   0  -3  -5 2184.25   15.76   0
   0   0   9   25.25    6.62   0
   0   1   4   26.08    5.81   0
   0   1   5   36.07    6.38   0
   0   1   6   -0.56    5.18   0
   1  -6  -8  102.68    6.32   0
   2  -6  -8    4.83    5.91   0
   2   1   7   76.94    7.09   0
   4  -3  -4   -0.06    6.23   0
   4  -1  -1   65.47    9.29   0
  -4  -4  -1   25.36   12.97   0
  -4  -3   2  121.30    8.94   0
  -2  -6  -7  111.76    7.20   0
  -2  -4  -5    3.95    6.80   0
   0  -6  -8   47.10    5.55   0
   1  -2  -4   54.55    5.84   0
   1   1   3   -1.73    7.54   0
   1   1   7   55.22    5.55   0
   3  -5  -7    9.69    6.12   0
   3  -4  -6   -0.40    6.01   0
   3  -1  -2   14.64    7.03   0
   4   0   7   51.57    9.29   0
   5  -3  -3   11.71    7.62   0
  -4  -3   3   18.05    6.50   0
  -4  -3   4   49.07    6.83   0
  -3  -6  -6    5.96    6.49   0
  -3  -5  -5   -0.43    6.90   0
  -1   0   7   15.37    6.13   0
   0  -7  -9    1.25    5.92   0
   1   0   9   -6.87    5.74   0
   1   1   6   76.99    6.28   0
   2  -2  -4   25.74    5.16   0
   2   1   6   86.93    6.92   0
   3  -3  -5  262.95    8.63   0
  -3  -7  -7   37.64    7.38   0
  -3  -2   6   35.79    6.51   0
  -2  -7  -8   39.11    6.51   0
  -2  -1   7    5.15    5.18   0
  -1  -5  -7    0.46    4.93   0
  -1  -4  -6   12.86    5.37   0
   0   0   8   11.99    6.35   0
   1   1   4 1112.83   15.89   0
   1   1   5  685.15   10.96   0
   2   1   4  611.15   12.69   0
   2   1   5   18.28    6.36   0
   3   0   0   67.79   11.24   0
   3   0   8    5.84    6.77   0
   4  -2  -3  304.44    9.25   0
   4   0   6   10.77    8.54   0
  -1  -6  -8    9.93    5.22   0
  -1   0   6  372.53    8.70   0
   0  -2  -4 1386.93   13.76   0
  -3  -4  -4  184.87   11.65   0
  -3  -2   5   13.42    6.27   0
  -2  -3  -4  202.93    9.63   0
  -2  -1   6  206.20    7.47   0
  -1  -7  -9   -3.57    6.23   0
  -1  -3  -5  220.87    7.41   0
  -1  -1   8   72.81    7.00   0
   1   0   8   -1.79    6.35   0
   2   0   8    0.57    6.40   0
   3  -2  -4    4.26    5.64   0
   4  -4  -6   25.88    6.80   0
   5  -2  -2   10.39    8.31   0
  -3  -2   1   -1.07    7.56   0
  -1   0   2   95.85    8.99   0
  -1   0   5   24.47    6.23   0
   0   0   7    2.95    6.31   0
   1  -6  -9   36.43    6.37   0
   1  -5  -8   -2.72    5.27   0
   1  -4  -7   27.33    5.08   0
   2  -5  -8   17.77    5.27   0
   2  -4  -7  162.42    6.85   0
   3   0   7   11.14    7.43   0
   4   0   5  170.14   11.98   0
  -4  -4   4   10.39    7.31   0
  -3  -2   4  181.40    7.57   0
  -2  -1   5   41.86    6.12   0
  -1   0   4    1.12    6.29   0
   0  -5  -8   54.72    5.62   0
   0  -4  -7   18.02    6.01   0
   1  -3  -6   33.46    5.72   0
   1  -1  -3 1334.34   15.40   0
   2  -3  -6    8.47    5.19   0
   2  -1  -3 2735.99   22.99   0
   4  -3  -5   83.48    7.64   0
   5  -3  -4    6.15    7.91   0
  -3  -3   6   10.73    5.79   0
  -3  -2   2  387.84   10.61   0
  -3  -2   3   63.18    6.82   0
  -2  -2   7    7.93    5.80   0
  -2  -1   1   53.80    7.76   0
  -1  -1   7   82.03    6.75   0
  -1   0   3  170.20    7.31   0
   0  -6  -9   -3.16    5.11   0
   3  -5  -8   18.68    5.63   0
   3  -4  -7   42.07    6.76   0
   4   0   3    7.00   11.60   0
   4   0   4   12.31    9.61   0
   5  -1   0   14.51   12.08   0
  -4  -6  -5    9.81   11.24   0
  -4  -4   3   12.06    7.42   0
  -2  -6  -8   -0.96    5.94   0
  -2  -5  -7    9.96    6.59   0
  -2  -1   4  457.19    8.85   0
  -1  -2   8   32.18    6.99   0
   0  -3  -6   23.03    5.26   0
   0  -1   8   28.44    5.78   0
   0   0   6  921.81   11.31   0
   1   0   7  148.55    6.54   0
   2   0   7   60.37    6.41   0
   3  -3  -6   13.35    6.22   0
  -4  -4   0    4.28    9.35   0
  -2  -1   3   28.37    6.11   0
   1  -2  -5 1748.54   15.82   0
   2  -2  -5   52.11    5.33   0
   2   0  -1  983.65   19.33   0
   3  -1  -3   71.98    7.68   0
   3   0   6   18.74    6.64   0
   4  -2  -4   28.99    6.77   0
   4  -1  -2    1.78    7.18   0
  -4  -4   2   77.41    8.01   0
  -3  -6  -7    4.87    7.15   0
  -3  -3   5    1.65    5.30   0
  -2  -4  -6   12.13    6.86   0
  -2  -2   6  105.03    6.36   0
  -2  -1   2    5.65    6.48   0
  -1  -6  -9   10.23    6.29   0
  -1  -5  -8    5.06    5.31   0
  -1  -4  -7  501.77   10.06   0
  -1  -2  -4  392.22   10.07   0
   1  -1   8   61.30    6.62   0
   2  -1   8   17.57    7.22   0
   5  -1   4   16.96   12.10   0
  -4  -4   1   27.20    7.83   0
  -3  -5  -6    8.16    7.87   0
  -2  -3   7   29.85    5.88   0
  -1  -1   6    1.97    5.56   0
   0  -1  -3   31.52    8.16   0
   0  -1   7   22.24    6.49   0
   0   0   5  189.63    6.98   0
   1  -5  -9   29.40    6.05   0
   1  -4  -8   12.29    6.04   0
   1   0  -1    0.57   11.29   0
   1   0   6   31.35    5.17   0
   2  -5  -9   12.75    6.82   0
   2  -4  -8    7.67    5.99   0
   2   0   6    2.84    6.44   0
   3  -2  -5   -0.67    6.13   0
   5  -2  -3  107.23    9.37   0
  -1  -2   7    4.94    5.66   0
   0  -2  -5  459.77    9.04   0
   0  -2   8    6.09    5.56   0
   3   0   5    9.34    7.32   0
   4  -3  -6   59.46    7.51   0
   4  -1   6    0.67    8.82   0
  -3  -3   4  125.64    7.64   0
  -2  -2   5   92.01    6.69   0
  -1  -3  -6  253.93    8.07   0
   0  -5  -9   -0.34    5.07   0
   0  -4  -8   18.21    6.13   0
   1  -3  -7   21.54    5.29   0
   2  -3  -7   15.78    5.70   0
   3  -4  -8   43.87    7.61   0
   3  -1   7   -1.12    7.06   0
  -3  -4   5   31.92    7.11   0
  -2  -3   6   43.92    7.46   0
  -1  -1   5   27.06    5.76   0
   0   0   4  277.29    8.34   0
   1  -2   8   23.38    6.50   0
   1  -1   7   -1.36    5.39   0
   1   0   5  529.48   10.13   0
   2  -1  -4 1017.12   12.53   0
   2  -1   7   14.31    6.78   0
   3  -3  -7   56.95    7.16   0
   3   0  -1 1704.46   24.62   0
   5  -1   3   68.86   14.47   0
  -2  -3  -5  432.07   10.89   0
   0  -3  -7  433.02    9.72   0
   0  -1   6    9.77    6.58   0
   1  -1  -4    9.34    5.96   0
   2   0   5    2.23    6.68   0
   4  -2  -5   89.16    7.86   0
   5  -1  -1  190.41   13.48   0
  -4  -5   2   10.24    8.05   0
  -3  -4  -5   63.71    9.26   0
  -3  -3   3   64.45    6.96   0
  -2  -6  -9    2.37    6.45   0
  -2  -5  -8   14.18    6.19   0
  -1  -5  -9   14.42    6.65   0
  -1  -3   7  108.24    7.08   0
  -1  -2   6   64.16    7.10   0
   0  -2   7  174.53    8.04   0
   0   0   3 2235.80   19.11   0
   1  -2  -6  611.04    9.94   0
   2  -2  -6   28.73    5.75   0
   3  -1  -4   61.53    7.08   0
   3   0   4  104.35    9.53   0
   4  -1  -3    0.56    6.54   0
  -2  -2  -3   25.73    8.33   0
  -2  -2   4   11.20    5.48   0
  -1  -1   4 2046.53   16.41   0
   2  -4  -9   25.37    6.80   0
   3  -2  -6   76.53    6.89   0
   3  -1   6   19.20    7.92   0
   5  -2  -4   44.19    8.12   0
  -3  -6  -8   24.80    7.31   0
  -3  -4   4   27.90    5.86   0
  -3  -3   2   -1.87    7.35   0
  -2  -4  -7   35.90    6.29   0
  -2  -4   6   24.40    6.38   0
  -2  -3   5    7.57    6.35   0
  -1  -4  -8   16.05    5.53   0
   1  -4  -9   20.40    5.83   0
   1  -1   6   12.50    6.92   0
   1   0   4  447.59   10.60   0
   2   0  -2   13.77    8.40   0
   3  -2   7   18.12    7.91   0
   4  -3  -7    9.82    5.73   0
   4  -1   5  180.78   10.14   0
  -4  -6  -6   -1.15   10.39   0
  -4  -5   1    8.44    6.97   0
  -3  -3  -3  120.66   15.62   0
  -1  -2  -5   35.17    5.40   0
   0  -5 -10    3.00    5.69   0
   0  -2  -6    7.56    5.33   0
   0   0   2 3717.93   30.38   0
   1  -3  -8    9.05    5.34   0
   1  -2   7    9.98    5.90   0
   2  -3  -8   42.06    5.93   0
   2  -2   7  126.40    8.27   0
   2  -1   6    5.60    6.56   0
  -3  -5  -7   -6.65    6.84   0
  -2  -2   3   95.97    6.69   0
  -1  -3  -7  166.04    7.44   0
  -1  -3   6    2.90    6.48   0
   0  -4  -9   -3.30    5.49   0
   0  -3   7  298.52    8.31   0
   0  -1  -4   22.31    5.92   0
   0  -1   5  580.01   10.07   0
   2   0   4  386.12   10.22   0
   3  -3  -8   12.30    5.55   0
   4   0   0   11.00   14.62   0
   5  -1  -2   16.04   10.02   0
   5  -1   2   27.54   14.61   0
  -3  -5   4   30.67    7.20   0
  -3  -3   1   51.59    8.55   0
  -1  -2   5   91.89    6.40   0
  -1  -1   3  355.91    9.72   0
   0  -2   6  110.30    6.38   0
   1   0  -2  103.63    8.60   0
   2  -2  -7   15.45    6.30   0
   2  -1  -5  118.02    6.36   0
   3   0  -2  778.03   14.32   0
   3   0   3   13.23    9.10   0
   4  -2  -6   12.38    6.77   0
   4  -1  -4  112.00    7.96   0
  -4  -5   0   60.83    9.59   0
  -3  -4   3   -1.50    6.48   0
  -2  -4   5  175.02    8.34   0
  -2  -3  -6  111.19    8.49   0
   0  -3  -8  169.28    7.26   0
   1  -3   7   34.90    5.76   0
   1  -2  -7   44.64    5.63   0
   1  -1  -5  156.09    7.02   0
   3  -1  -5    7.54    6.43   0
   5  -2  -5   -0.96    6.99   0
  -2  -5  -9   78.91    6.27   0
  -2  -3   4  102.86    6.60   0
  -1  -4   6    2.11    6.88   0
  -1  -1  -3    3.97    7.93   0
   1  -1   5  198.25    7.84   0
   1   0   3  210.18    9.58   0
   2  -3   7   48.78    6.73   0
   3  -2  -7   11.34    5.47   0
   3  -2   6   37.72    7.38   0
   3  -1   5  241.82    9.55   0
  -4  -6   1  109.17    9.53   0
  -4  -5  -1   25.08   10.25   0
  -3  -4  -6   57.04    8.87   0
  -3  -3   0  749.61   15.82   0
  -2  -5   5    3.81    7.08   0
  -2  -2   2 2183.35   18.41   0
  -1  -4  -9   99.77    6.71   0
   1  -2   6   57.62    6.26   0
   2  -3  -9    4.58    5.59   0
   2   0  -3  402.06   10.33   0
   4  -1   4   31.87    8.60   0
   4   0  -1   50.58   11.46   0
   5  -1  -3  133.59   10.86   0
  -2  -4  -8   33.20    6.83   0
  -2  -2  -4 9999.99   43.74   0
  -1  -3   5  365.63    9.16   0
  -1  -2  -6    0.98    5.70   0
   0  -4 -10   16.44    6.43   0
   0  -3   6   69.37    6.66   0
   0  -2  -7   19.01    5.70   0
   0  -1  -5   34.48    6.95   0
   0  -1   4    3.37    6.09   0
   1  -3  -9    7.76    5.57   0
   2  -2   6   34.61    6.40   0
   2  -1   5  113.66    6.82   0
   2   0   3   59.03    8.78   0
  -4  -5  -2    0.34   11.75   0
  -3  -5  -8    2.94    7.80   0
  -3  -5   3  185.76    8.15   0
  -3  -4   2  118.13    7.40   0
  -1  -3  -8   -7.82    6.15   0
  -1  -2   4   80.11    6.17   0
  -1  -1   2  581.13   12.52   0
   0  -2   5    5.60    6.01   0
   1   0  -3  179.36    8.61   0
   2  -1  -6   34.06    6.07   0
   3   0  -3  107.33    7.77   0
   4  -2  -7    1.11    6.03   0
   4  -2   5   24.11    7.68   0
   4  -1  -5    7.75    6.68   0
  -4  -5  -5  103.40   15.92   0
  -3  -3  -1  193.43   14.08   0
  -2  -4   4   11.77    6.93   0
   0  -4   6   10.29    7.12   0
   0  -3  -9   17.73    5.70   0
   1  -2  -8   22.46    6.52   0
   1  -1  -6  332.87    8.84   0
   2  -2  -8    6.12    5.55   0
   3  -3   6  175.14    9.04   0
   3  -1  -6   20.20    6.78   0
   4   0  -2   65.88    9.71   0
  -4  -6   0   23.50    8.74   0
  -3  -6   3   -3.26    7.04   0
  -3  -3  -4  128.47   12.75   0
  -2  -3  -7   16.62    6.20   0
  -2  -3   3  125.12    6.59   0
  -1  -4   5  491.85    9.72   0
   1  -3   6   29.79    6.02   0
   2  -3   6  772.37   12.67   0
   3  -2  -8   31.86    6.80   0
   5  -1  -4    6.07    7.84   0
  -2  -2   1  359.13   11.03   0
  -1  -4 -10   25.60    7.05   0
  -1  -1  -4 1105.17   15.39   0
   1  -1   4   11.18    6.58   0
   1   0   2 1514.71   21.08   0
   2   0  -4  765.82   10.95   0
   3  -1   4    2.41    8.01   0
   3   0   2   14.66   10.47   0
  -3  -5   2   14.60    7.54   0
  -3  -4  -7  101.26    8.49   0
  -3  -3  -2   22.26   18.76   0
  -2  -5   4   -0.71    6.10   0
  -2  -4  -9   37.44    6.83   0
  -2  -2  -5   13.44    7.44   0
  -1  -5   5   12.34    7.09   0
  -1  -2  -7   10.71    6.07   0
   0  -3   5    1.84    6.37   0
   0  -2  -8   92.88    6.55   0
   0  -1  -6   -2.05    6.44   0
   0   0  -2 3461.56   32.94   0
   1  -4   6   22.42    6.47   0
   1  -2   5   11.45    5.63   0
   1   0  -4    2.41    6.65   0
   2  -1  -7  238.16    8.63   0
   3  -2   5   -4.18    7.17   0
   3   0  -4   44.95    6.90   0
   4  -1  -6   38.78    7.35   0
  -3  -4   1   89.65    8.27   0
  -1  -3  -9    9.90    6.64   0
  -1  -3   4   88.39    6.41   0
  -1  -2   3 1377.98   14.45   0
   0  -1   3 2105.81   17.11   0
   1  -1  -7   14.78    6.49   0
   2  -4   6  139.97    7.61   0
   2  -2  -9   17.47    6.45   0
   2  -2   5   19.76    5.82   0
   2  -1   4   43.84    7.01   0
   3  -1  -7    9.71    6.82   0
   4  -1   3    8.57    9.61   0
   4   0  -3   21.09    7.43   0
   5  -2   3   65.78   11.16   0
  -2  -4   3  397.18    9.53   0
   0  -3 -10   18.59    5.86   0
   0  -2   4    3.04    6.05   0
   1  -2  -9  112.49    7.33   0
   4  -2   4    7.08    8.35   0
   5  -1  -5   12.26    7.26   0
  -4  -6  -1  125.07   10.30   0
  -3  -6   2   -1.05    6.72   0
  -3  -3  -5    6.87    9.15   0
  -2  -3  -8    0.98    6.55   0
  -1  -1  -5  692.41   10.89   0
  -1  -1   1 2429.23   25.18   0
   0  -4   5   65.51    6.38   0
   0   0  -3 2132.47   18.19   0
   2   0  -5   50.81    6.08   0
   2   0   2    2.17    8.73   0
   3   0  -5  284.15    9.17   0
  -4  -5  -6   37.58   12.13   0
  -2  -3   2   76.14    6.35   0
  -1  -4   4   97.90    7.70   0
   1  -3   5  231.35    8.28   0
   1   0  -5   19.23    5.72   0
   3  -3   5   24.33    7.22   0
   4  -1  -7  264.15    9.64   0
   4   0  -4   20.13    6.82   0
   5  -1   1   31.44   15.85   0
  -3  -4  -8   42.46    8.27   0
  -2  -5   3  470.71   10.12   0
  -2  -2  -6  277.30    9.31   0
  -1  -2  -8    4.18    5.34   0
   0  -5   5   47.13    6.50   0
   0  -2  -9    0.64    5.78   0
   0  -1  -7    0.86    5.53   0
   2  -3   5   20.59    6.50   0
   2  -1  -8   54.25    6.36   0
   3  -1  -8   52.71    7.79   0
  -3  -5   1  274.72    9.43   0
  -2  -6   3   13.42    7.26   0
  -1  -5   4    3.82    6.56   0
  -1  -3 -10   21.04    7.10   0
   0   0  -4  280.54    8.53   0
   1  -4   5   65.72    6.55   0
   1  -2   4   13.19    6.51   0
   1  -1  -8 1066.90   13.41   0
   2   0  -6 2494.15   18.28   0
   3  -4   5    9.87    7.86   0
  -3  -4   0    7.76    7.72   0
  -3  -3  -6 1714.85   20.82   0
  -2  -2   0  150.06   10.86   0
  -1  -6   4   49.45    6.64   0
  -1  -3   3   -0.70    6.08   0
  -1  -1  -6   78.36    5.84   0
   0  -3   4  201.78    7.85   0
   1  -5   5   21.14    7.25   0
   1  -1   3   16.03    7.90   0
   2  -4   5   15.23    7.57   0
   3  -2   4    3.04    6.97   0
   3   0  -6   84.12    7.52   0
   4   0  -5   15.41    7.20   0
  -4  -6  -2   15.71   10.46   0
  -2  -3  -9   -0.20    6.27   0
   0   0  -5  179.97    7.80   0
   1   0  -6  387.09    9.01   0
   2  -5   5    7.01    7.66   0
   2  -2   4  105.22    7.47   0
   3  -1   3  705.62   14.73   0
   4  -3   4   35.19    8.09   0
  -4  -5  -7   14.85   10.61   0
  -3  -6   1  307.56    9.45   0
  -2  -4   2   67.19    6.96   0
  -2  -2  -7  100.74    7.09   0
  -1  -2  -9    0.33    6.89   0
  -1  -2   2   50.50    7.20   0
   0  -2   3  507.80   10.23   0
   0  -1  -8  183.22    7.19   0
   0  -1   2 2017.88   20.44   0
   2  -1  -9   13.56    6.08   0
   2  -1   3    7.49    7.65   0
   5   0  -3    5.52    9.08   0
   5   0  -2   79.70   12.21   0
  -3  -7   1    6.49    7.36   0
  -1  -1  -7   61.14    6.62   0
   0  -4   4   32.06    6.01   0
   1  -1  -9    9.90    5.76   0
   2   0  -7    9.21    5.52   0
   3   0  -7   15.92    6.65   0
   4   0  -6  123.73    7.84   0
   5   0  -4   38.93    9.52   0
  -3  -3  -7   18.55    7.16   0
  -2  -3   1 1307.51   15.32   0
  -1  -4   3    6.67    5.50   0
   0  -6   4  127.65    7.85   0
   0  -5   4   28.38    6.60   0
   0   0  -6  923.91   11.69   0
   1  -3   4   39.27    6.10   0
   1   0  -7   12.14    5.69   0
   2   1  -3   25.81    6.75   0
   2   1  -2    0.50    7.39   0
   3  -3   4    7.61    7.53   0
   4  -2   3   47.11    8.60   0
   5  -2   2  903.24   20.35   0
   5   0  -1   10.41   15.77   0
  -4  -7  -2   59.27   10.83   0
  -2  -5   2  106.69    6.78   0
  -2  -2  -8   19.48    6.63   0
   0  -1  -9    6.44    6.83   0
   2  -3   4  102.44    7.98   0
   2   1  -4  411.59    9.01   0
   3   1  -3   73.89    7.93   0
   3   1  -2  771.92   14.17   0
   4  -1   2   77.58   10.87   0
  -3  -5   0   46.07    7.94   0
  -2  -7   2   40.14    6.99   0
  -2  -6   2   12.57    5.96   0
  -1  -7   3    3.41    6.38   0
  -1  -6   3   56.25    7.31   0
  -1  -5   3   87.22    6.57   0
   1  -4   4 1596.10   15.02   0
   2   0  -8   35.73    6.49   0
   2   1  -1   46.49    9.31   0
   3  -4   4  210.75    9.41   0
   3   1  -4 3219.43   21.97   0
  -3  -3  -8   72.07    8.71   0
  -2  -1  -4  555.82   12.70   0
  -1  -1  -8  226.56    7.75   0
   0  -3   3    4.22    7.05   0
   0   0  -7    8.27    5.75   0
   1  -6   4   52.09    6.96   0
   1  -5   4  239.41    8.01   0
   1   0  -8   95.27    7.08   0
   1   0   1  461.81   19.58   0
   1   1  -4 2076.01   16.80   0
   1   1  -3  336.28    9.15   0
   2  -4   4  437.11   10.20   0
   2   1  -5   28.65    5.91   0
   3  -5   4   13.26    7.84   0
   3   1  -5   17.05    6.70   0
   3   1  -1  304.10   13.99   0
  -3  -6   0  108.32    8.61   0
  -3  -4  -1  582.31   14.96   0
  -2  -1  -5   17.46    6.79   0
  -2  -1  -3  102.12    9.70   0
  -1  -3   2    2.73    6.65   0
  -1   0  -4  436.32   10.34   0
  -1   0  -3  210.92    9.78   0
   1  -2   3  611.77   10.42   0
   1   1  -2  543.13   11.79   0
   2  -5   4    0.87    6.54   0
  -4  -6  -3    0.10   10.61   0
  -3  -7   0   34.83    6.87   0
  -2  -4   1    0.08    7.56   0
  -2  -2  -9   18.40    7.07   0
  -2  -1  -6   87.40    7.63   0
  -1   0  -5  538.50    9.55   0
   1   1  -5   21.46    6.18   0
   2   1  -6  175.61    7.19   0
   3  -2   3  592.94   12.47   0
   4  -3   3   34.81    7.47   0
   4   1  -4   81.33    8.58   0
   4   1  -3  134.81    9.07   0
  -1  -1  -9    8.38    6.11   0
  -1   0  -6   30.28    6.47   0
   0  -7   3   37.86    6.96   0
   0  -4   3  329.48    8.55   0
   0   0  -8   10.76    5.78   0
   1   0  -9    4.70    6.10   0
   2  -2   3 1085.35   14.56   0
   3   1  -6   44.96    6.51   0
   4   1  -5    4.25    7.64   0
   4   1  -2   71.88   10.36   0
  -2  -1  -7   77.70    7.12   0
  -1  -1   0 3136.46   40.39   0
   0  -6   3    9.51    6.31   0
   0  -5   3   63.74    6.55   0
   1  -1   2 1421.80   17.07   0
   1   1  -6    2.97    5.89   0
   2   1  -7    6.19    6.48   0
   3   0   1 1931.02   36.95   0
   4  -4   3   -7.11    8.32   0
   5  -3   2  155.33   11.33   0
  -4  -7  -3    8.58   10.19   0
  -4  -4  -6   29.17   12.05   0
  -3  -2  -5    4.35    8.19   0
  -2  -7   1   47.58    7.66   0
  -2  -5   1    1.93    6.66   0
  -1  -7   2  137.22    8.98   0
  -1  -4   2  282.08    7.69   0
  -1  -2   1 3264.36   24.89   0
  -1   0  -7  139.98    7.25   0
  -1   0  -2 1435.52   20.42   0
   0  -2   2  124.10    7.50   0
   1  -3   3   64.26    5.99   0
   3  -3   3   58.13    7.67   0
   3  -1   2    2.70    9.01   0
   3   1  -7  107.08    7.61   0
   4   1  -6    4.91    7.37   0
  -4  -4  -7    2.79   10.30   0
  -3  -2  -6  163.09    8.81   0
  -2  -6   1   58.57    6.59   0
  -1  -6   2   22.10    6.00   0
  -1  -5   2   23.12    6.13   0
   0   0  -9   36.91    5.81   0
   0   1  -5  603.58    9.82   0
   0   1  -4   -0.42    6.07   0
   0   1  -3 2167.99   18.04   0
   1  -7   3   13.71    7.12   0
   1   1  -7   78.54    6.30   0
   1   1  -1 2278.03   25.63   0
   2  -3   3   36.60    6.97   0
  -3  -5  -1   -3.58    8.02   0
  -3  -2  -7    2.61    7.38   0
  -3  -2  -4  218.88   13.51   0
  -2  -3   0   28.12    8.23   0
  -2  -1  -8   34.75    5.87   0
   0   1  -6   15.96    6.68   0
   1  -6   3   13.60    6.42   0
   1  -5   3   57.07    6.54   0
   1  -4   3   24.83    6.24   0
   2  -1   2  609.94   13.60   0
   2   1  -8   38.41    6.09   0
   3  -5   3   79.07    8.50   0
   3  -4   3   12.44    7.37   0
   4  -2   2   30.21    8.74   0
  -1   0  -8    5.36    5.73   0
   1   1  -8   49.14    6.53   0
   2  -6   3   26.86    7.10   0
   2  -5   3   46.62    7.72   0
   2  -4   3  104.14    7.70   0
  -3  -7  -1   19.30    7.52   0
  -3  -6  -1    2.61    7.45   0
  -3  -2  -8   15.02    7.22   0
  -2  -1  -9   31.94    7.05   0
   0   1  -7    8.54    5.86   0
   2   0   1  387.69   17.87   0
   4   1  -1   35.97   12.27   0
   5  -2   1   41.06   11.67   0
   5   1  -4  144.53   10.40   0
  -2  -1  -2  613.60   21.87   0
  -1  -8   1   23.25    7.77   0
  -1   0  -9    9.57    7.18   0
   0  -7   2   86.89    7.05   0
   0  -3   2   47.38    6.51   0
   0  -1   1 1123.52   19.44   0
   0   1  -2 2051.49   19.38   0
   2   2  -5   90.40    7.14   0
   2   2  -4    2.18    6.23   0
   5   1  -3   19.52    9.76   0
  -2  -8   0  105.29    7.06   0
  -2  -2  -1  828.21   23.33   0
   0  -6   2  327.89    8.65   0
   0   1  -8   13.13    5.90   0
   2   2  -6  105.46    7.25   0
   2   2  -3   79.34    6.89   0
   3   2  -5    4.78    7.06   0
   3   2  -4  188.59    8.34   0
   4  -3   2   92.00    8.75   0
  -4  -6  -4   -2.02   11.19   0
  -2  -7   0   22.92    7.28   0
  -2  -4   0   13.09    7.91   0
  -2   0  -6   -0.00    6.49   0
  -1  -7   1   11.61    7.03   0
  -1  -3   1  484.64   10.37   0
   0  -5   2 2543.54   17.84   0
   0  -4   2   37.80    6.31   0
   1  -7   2   56.21    7.86   0
   1  -2   2   40.23    7.26   0
   1   2  -5   79.52    6.31   0
   1   2  -4   62.14    6.87   0
   3   2  -6   44.66    6.85   0
   3   2  -3   62.64    7.39   0
   4  -5   2    8.40    7.89   0
  -2  -6   0   23.44    6.89   0
  -2   0  -7   51.21    7.28   0
  -2   0  -5    6.68    6.72   0
  -1   1  -6   -1.10    5.77   0
  -1   1  -5  198.37    7.16   0
   1   2  -6   65.24    6.19   0
   2  -7   2   76.51    8.03   0
   2   2  -7    4.01    5.74   0
   3  -2   2  121.17    9.01   0
   4  -4   2   93.47    8.59   0
   4   2  -5  115.99    8.75   0
  -4  -7  -4   11.10   10.47   0
  -3  -8  -2   -4.67    8.10   0
  -3  -4  -2   -0.69   10.05   0
  -2  -5   0  123.70    7.89   0
  -2   0  -4  365.46   10.55   0
  -1  -6   1   32.00    5.85   0
  -1  -5   1  225.83    8.20   0
  -1  -4   1    0.38    5.61   0
  -1   1  -7    5.40    5.34   0
  -1   1  -4    7.98    5.69   0
   0  -8   1   11.25    7.21   0
   1  -6   2   14.62    6.34   0
   1   2  -7    7.64    6.01   0
   1   2  -3 1193.57   13.79   0
   2  -2   2   -2.54    6.83   0
   2   1   0  203.47   15.76   0
   2   2  -2 1983.09   18.20   0
   3  -6   2    6.23    8.44   0
   4  -1   1    2.47   10.56   0
   4   2  -4   64.76    7.51   0
   5  -3   1    6.65    9.30   0
   5   1  -2   13.41   11.73   0
  -2   0  -8    7.93    5.66   0
  -1   1  -8   49.32    7.20   0
   1  -5   2  700.63   10.63   0
   1  -3   2  198.43    7.56   0
   2  -6   2    3.96    6.21   0
   3  -5   2   49.63    7.78   0
   3  -3   2   49.88    7.63   0
   3   2  -2  386.75   10.69   0
   4   2  -3   21.00    8.23   0
   5  -1   0    8.45   14.29   0
  -4  -3  -7    6.80    9.44   0
  -3  -7  -2    7.17    8.00   0
  -3  -1  -7    6.55    7.46   0
  -3  -1  -6   63.77    7.60   0
   0   2  -6   85.14    6.38   0
   0   2  -5    4.70    5.86   0
   1  -4   2  271.71    8.17   0
   1   2  -8   25.76    6.20   0
   2  -5   2  465.27   10.30   0
   2  -3   2    4.17    6.23   0
   3  -4   2   66.88    7.46   0
   3   1   0    8.88   16.66   0
  -3  -1  -8    3.59    6.89   0
  -2  -8  -1    2.89    6.87   0
  -1  -8   0   63.39    7.54   0
  -1   1  -3   13.22    6.74   0
   0  -7   1   21.35    6.32   0
   0   2  -7  190.30    7.17   0
   0   2  -4    3.03    6.08   0
   1  -8   1   69.68    7.69   0
   1   2  -2   45.07    8.32   0
   2  -4   2   40.19    7.16   0
  -4  -3  -6   70.65   12.37   0
  -3  -6  -2   35.81    7.86   0
  -3  -5  -2    4.81    7.63   0
  -3  -1  -5   24.43    7.98   0
   0   2  -8    6.07    6.84   0
   0  -6   1  118.51    7.07   0
   0  -2   1  153.33    9.05   0
   0   2  -3  535.53    9.76   0
   4   2  -2 2715.59   26.16   0
  -2  -7  -1   11.79    7.34   0
  -2   0  -3   56.74    7.71   0
  -1  -7   0  249.98    8.91   0
   0   1  -1 1080.77   19.01   0
   1  -7   1   22.75    6.75   0
   2  -7   1   10.97    7.30   0
   2   3  -7   27.80    7.35   0
   2   3  -6   40.07    6.65   0
   2   3  -5   -1.28    5.73   0
   2   3  -4  115.01    7.87   0
   3   3  -6    6.25    7.56   0
   3   3  -5   10.31    6.83   0
   4  -2   1  128.88    9.93   0
  -2   1  -7   13.53    6.62   0
  -2   1  -6    0.05    6.56   0
  -1   2  -6   50.90    6.91   0
   0  -8   0   64.76    7.58   0
   0  -5   1   21.26    6.49   0
   0  -3   1 1190.95   14.01   0
   1   3  -6    8.62    5.80   0
   1   3  -5  321.60    8.37   0
   2   2  -1  370.92   11.60   0
   3   3  -4  130.23    8.40   0
   4  -5   1   25.41    7.65   0
  -3  -8  -3   10.25    7.48   0
  -2  -6  -1   52.24    7.24   0
  -2   1  -8    1.59    7.33   0
  -2   1  -5  109.75    7.34   0
  -1  -6   0 2439.68   18.64   0
  -1  -2   0 2166.06   23.86   0
  -1   0  -1  451.92   19.32   0
  -1   2  -7   13.12    5.69   0
  -1   2  -5    2.21    5.48   0
   0  -4   1  104.12    6.94   0
   1  -6   1  101.64    6.55   0
   1  -1   1   10.12   10.21   0
   1   3  -7  139.95    7.09   0
   1   3  -4   95.03    6.47   0
   2   3  -3  129.56    7.55   0
   3  -6   1  158.23    8.22   0
   3   2  -1    5.60    8.75   0
   4  -4   1    5.17    7.18   0
   4  -3   1   91.55    8.95   0
   4   3  -5   58.90    8.90   0
   5   2  -3    7.28   10.81   0
  -4  -7  -5    4.16   10.94   0
  -3  -1  -4    3.86    8.71   0
  -2  -3  -1 1810.82   21.96   0
  -1   1  -2 1310.67   16.84   0
  -1   2  -8   23.88    6.26   0
   2  -6   1  147.50    7.32   0
   3  -1   1   16.82    9.45   0
   3   3  -3   71.21    7.46   0
   4   3  -4   56.49    9.18   0
  -3   0  -8    9.92    6.76   0
  -3   0  -7   13.15    6.69   0
  -2  -8  -2   86.96    8.35   0
  -2  -5  -1    8.31    7.13   0
  -1  -8  -1    8.24    6.25   0
  -1  -5   0   33.67    5.57   0
  -1   2  -4   12.15    5.31   0
   0  -7   0   25.93    7.04   0
   0   2  -2  115.52    7.41   0
   0   3  -7  282.99    8.73   0
   0   3  -6   41.47    6.49   0
   0   3  -5   -1.76    6.30   0
   1  -8   0   46.90    6.87   0
   1  -5   1  184.85    7.43   0
   1   3  -3    4.75    6.25   0
   3  -5   1   19.89    7.78   0
   5  -2   0   86.41   13.01   0
  -4  -6  -5   14.89   11.84   0
  -4  -5  -5   97.65   15.47   0
  -4  -2  -7    5.24    8.98   0
  -3  -7  -3   -0.03    7.90   0
  -3   0  -6   15.16    6.65   0
  -2  -4  -1  161.97    8.82   0
  -2   1  -4   36.42    6.83   0
  -1  -4   0   97.45    7.66   0
  -1  -3   0  106.56    9.28   0
   1   2  -1 3003.15   24.44   0
   2  -5   1    7.23    6.64   0
   5  -4   0   12.60    8.77   0
   0   3  -4  179.02    7.51   0
   1  -4   1  142.57    6.98   0
   1  -2   1   14.82    8.49   0
   2  -1   1  108.34    9.98   0
   2   3  -2   74.29    7.20   0
   3  -4   1  129.91    8.30   0
   4   3  -3   13.40    8.14   0
   5  -3   0  188.57   11.19   0
  -3   0  -5    5.43    7.30   0
  -1  -9  -2   58.18    8.03   0
  -1   2  -3  607.47   10.57   0
   0  -6   0  656.17   11.30   0
   1  -7   0    3.67    6.07   0
   1  -3   1 3090.70   20.90   0
   1   1   0 3293.32   42.31   0
   2  -4   1  171.41    7.91   0
   2   4  -6   27.84    6.98   0
   3  -7   0   14.74    6.96   0
   3  -3   1  110.37    8.25   0
   3  -2   1   23.36    7.22   0
   3   3  -2    5.30    8.00   0
   4  -6   0    0.70    7.76   0
   4   0   0   11.52   15.37   0
  -4  -2  -6   -3.33   10.65   0
  -3  -6  -3    5.75    7.78   0
  -2  -7  -2 1205.60   16.33   0
  -2   2  -7  109.93    7.95   0
  -1  -7  -1   86.69    6.86   0
   0  -8  -1   14.83    7.43   0
   2  -7   0   28.07    6.73   0
   2  -3   1 1589.03   15.86   0
   2   4  -5  151.08    7.60   0
   3   4  -5   32.91    7.35   0
  -3  -8  -4  354.78   13.58   0
  -2   2  -6   38.43    6.15   0
  -1   3  -7   30.36    6.07   0
  -1   3  -6   28.82    5.80   0
   0   3  -3    0.37    6.21   0
   1   3  -2   -0.61    5.83   0
   1   4  -6   -3.92    6.22   0
   1   4  -5  445.36    9.02   0
   2  -2   1 2652.37   21.32   0
   2   4  -4    1.99    5.80   0
   4   2  -1   75.27   12.23   0
  -2   2  -5   24.10    6.54   0
  -1   3  -5  238.30    7.94   0
   0  -5   0  469.55    9.49   0
   1  -6   0  609.94   10.63   0
   1   4  -4   99.78    7.73   0
   3  -6   0    2.09    7.49   0
   3   4  -4   33.66    6.18   0
   4  -5   0   85.88    8.52   0
   5   2  -2   71.69   12.51   0
  -3  -5  -3   41.39    8.91   0
  -3   1  -7    5.99    6.71   0
  -2   1  -3    3.97    6.63   0
  -1  -8  -2   14.72    7.21   0
  -1  -6  -1   15.83    6.47   0
   0  -9  -2   25.79    6.85   0
   0   4  -6    7.23    6.70   0
   1  -8  -1    7.08    6.61   0
   2  -8  -1    3.14    7.20   0
   2  -6   0   33.96    7.08   0
   2   4  -3  424.76    9.65   0
   4   3  -2  141.38   10.35   0
  -4  -1  -7   10.19    8.29   0
  -3   1  -6   23.87    6.60   0
  -2  -8  -3   50.11    7.99   0
  -2  -6  -2   43.96    7.07   0
  -2   0  -2    1.12    8.86   0
  -1   3  -4   35.42    5.76   0
   0  -7  -1   97.87    7.96   0
   0   4  -5   51.96    6.40   0
   3   4  -3   -3.11    7.07   0
   4  -4   0  298.01    9.59   0
   4   4  -4    8.87    8.60   0
  -3  -4  -3  485.58   16.23   0
  -3  -3  -3  110.35   16.20   0
  -3   0  -4   94.44    8.48   0
  -2   2  -4  115.72    7.19   0
   0  -4   0  150.12    8.13   0
   1   4  -3    9.26    5.43   0
   3  -5   0  215.88    8.74   0
  -3  -7  -4   39.86    8.28   0
  -2  -9  -4   10.73    7.58   0
  -1  -9  -3    4.76    6.86   0
  -1   2  -2   42.71    6.74   0
   0   2  -1  144.20    8.93   0
   0   3  -2   44.88    6.18   0
   0   4  -4   26.57    5.72   0
   1  -5   0   55.18    6.28   0
   2   3  -1 1294.51   15.22   0
   3  -7  -1   41.62    7.90   0
   4  -3   0 2615.78   22.77   0
  -4  -1  -6   13.29    8.90   0
  -3   1  -5  214.41    8.78   0
  -2   3  -7   40.74    6.33   0
  -2   3  -6  639.93   11.24   0
  -1  -5  -1   66.03    5.77   0
  -1   4  -6   31.79    6.91   0
   1  -7  -1  149.90    7.26   0
   2  -7  -1  187.87    8.62   0
   2  -5   0   85.13    6.55   0
   2   5  -5    1.19    6.22   0
   3   3  -1   56.54    8.82   0
   4  -6  -1   12.91    7.63   0
   4   4  -3    9.04    8.43   0
   5  -4  -1   80.28    9.16   0
  -2  -5  -2   61.60    7.53   0
  -1  -7  -2  409.16   10.36   0
  -1   3  -3   58.70    5.79   0
   0  -8  -2   -3.07    5.86   0
   0  -3   0    0.12    7.42   0
   1   3  -1  517.11   10.87   0
   1   5  -5   21.65    5.92   0
   2   4  -2   83.86    6.07   0
   2   5  -4   -3.20    7.20   0
   3   4  -2  125.49    8.21   0
   4  -2   0   32.62    8.92   0
   4  -1   0   83.06   11.81   0
  -4  -2  -5    7.06   11.89   0
  -3  -8  -5    5.17    7.99   0
  -3   2  -7    9.81    6.99   0
  -2  -7  -3    3.68    6.97   0
  -2   3  -5   17.52    5.86   0
  -1   4  -5   64.19    6.11   0
   0  -6  -1  141.37    7.22   0
   0   4  -3  314.69    7.91   0
   1   4  -2  278.96    8.15   0
   1   5  -4    2.07    6.51   0
   3  -4   0  188.76    7.57   0
   3   5  -4   23.26    7.44   0
  -4   0  -7   47.36    8.01   0
  -3  -1  -3   64.09   12.08   0
  -3   2  -6   31.61    6.99   0
  -2   2  -3  903.86   13.61   0
  -1   1  -1    6.42    9.63   0
   0  -9  -3   17.37    6.29   0
   1  -8  -2   21.72    6.47   0
   1  -4   0    9.11    5.91   0
   2  -8  -2    5.36    7.36   0
   2   2   0  151.90   11.57   0
   3  -6  -1   58.02    7.57   0
   5  -3  -1   53.27   10.24   0
  -3  -6  -4   19.83    8.31   0
  -1  -8  -3   53.91    6.65   0
  -1  -4  -1  852.73   12.87   0
  -1   4  -4 1501.84   14.17   0
   0  -2   0 2052.76   22.77   0
   0   5  -5   41.12    6.06   0
   2  -4   0  204.65    7.05   0
   2   5  -3  479.54   10.11   0
   4  -5  -1   11.71    7.17   0
  -4  -6  -6    2.59   10.73   0
  -3   1  -4    2.45    6.50   0
  -2  -8  -4  138.24    8.59   0
  -2   3  -4  107.97    6.49   0
  -1  -9  -4   12.89    7.52   0
   0   5  -4   28.18    6.71   0
   1  -9  -3   19.11    6.33   0
   1  -6  -1   12.25    5.90   0
   1   5  -3   73.55    6.75   0
   2  -6  -1   45.70    6.33   0
   3  -3   0   22.66    6.95   0
   3   5  -3  171.56    8.19   0
   5  -2  -1   52.16   11.19   0
  -4   0  -6   -7.14    7.40   0
  -3   2  -5   10.81    6.53   0
  -2  -4  -2   12.54    8.11   0
  -2   1  -2  544.10   12.34   0
  -2   4  -6  112.00    7.49   0
  -1  -6  -2  374.97    9.44   0
  -1   3  -2  187.64    7.56   0
   0  -7  -2  312.29    8.77   0
   0   4  -2   38.50    5.79   0
   4   3  -1   67.25   11.34   0
   4   4  -2   77.79    8.69   0
   5  -1  -1  216.78   14.48   0
   5   3  -2   31.27   11.35   0
  -4  -1  -5    2.88    9.61   0
  -1   4  -3   18.55    5.53   0
   0  -5  -1  186.67    7.12   0
   0   3  -1 1053.00   12.23   0
   1  -3   0    2.59    6.12   0
   2   4  -1    4.30    6.22   0
   3  -7  -2    7.18    6.24   0
  -3  -7  -5    8.79    8.16   0
  -3   3  -6  142.18    8.06   0
  -2  -6  -3   21.36    6.58   0
  -2   4  -5    5.15    6.01   0
  -1   5  -5   12.05    5.70   0
   0  -8  -3   81.83    6.81   0
   0   5  -3   60.59    5.72   0
   1  -7  -2   16.55    5.65   0
   1   2   0 2145.61   23.36   0
   2  -7  -2    6.88    6.84   0
   2  -3   0  319.30    8.45   0
   2   5  -2  117.51    7.22   0
   2   6  -4   41.62    7.35   0
   3  -5  -1   -2.09    6.95   0
   3  -2   0  225.99    9.65   0
   4  -6  -2   94.69    7.91   0
   4  -4  -1   26.94    7.23   0
  -3   0  -3   13.35    7.82   0
  -2   3  -3   27.84    6.04   0
  -1  -3  -1   46.43    8.15   0
   0  -9  -4   13.07    6.03   0
   1   4  -1    5.04    5.26   0
   1   5  -2    9.20    6.28   0
   1   6  -4   66.38    6.08   0
   3   4  -1   94.10    8.22   0
   3   5  -2   15.45    6.80   0
  -4   1  -6   -1.53    7.45   0
  -3   2  -4    2.67    6.06   0
  -2   4  -4  377.12    9.02   0
  -1  -7  -3   40.92    5.94   0
  -1   2  -1   10.21    7.59   0
  -1   5  -4  255.05    7.30   0
   1  -8  -3   75.28    7.16   0
   1  -5  -1  260.01    7.73   0
   2  -8  -3   36.56    6.48   0
   2  -5  -1  213.23    7.19   0
   5  -4  -2  156.13   10.38   0
  -3   3  -5   25.79    6.36   0
  -2  -7  -4  195.13    9.03   0
  -2   2  -2    5.66    6.02   0
  -1  -8  -4  110.75    7.83   0
   0  -6  -2   59.72    6.71   0
   0   6  -4  111.58    7.15   0
   1  -9  -4    9.89    6.10   0
   1   6  -3   62.02    6.96   0
   2   6  -3   18.72    6.01   0
  -2  -8  -5   11.31    6.71   0
  -1  -9  -5   33.65    6.80   0
  -1  -5  -2   73.40    6.33   0
  -1   4  -2  296.63    7.41   0
   0  -4  -1 3724.02   22.04   0
   0   5  -2 2831.80   17.21   0
   1  -2   0 2277.40   20.17   0
   3  -6  -2  156.94    7.89   0
   3   6  -3    7.70    6.16   0
  -1   5  -3   49.26    5.98   0
   0   4  -1   88.82    6.11   0
  -4  -6  -5   15.91    6.76   0
  -3  -3  -3  119.92    6.50   0
  -3  -2  -4  195.60    7.89   0
  -2  -7  -1   14.88    7.28   0
   0   2  -8    3.40   11.53   0
   5  -2   1   30.59    7.38   0
   5   0   0   12.01    7.17   0
   5   1  -1   11.95    6.39   0
  -4  -4  -7   -0.30    6.07   0
  -3  -8  -3    0.63    6.32   0
  -2  -3  -1 1796.21   15.66   0
  -1  -7   0  230.31   10.02   0
   0  -6   1   98.11    9.10   0
   0  -2   1  136.38   12.51   0
   2  -2   2    4.08   12.13   0
   2   2  -1  331.95    8.53   0
   2   3  -6   41.05    7.89   0
   2   3  -5    1.61    6.62   0
   2   3  -4  129.49    8.00   0
   3  -2   2  111.33    9.83   0
   3   2  -1   -0.24    5.65   0
   3   3  -6   22.69    7.12   0
   3   3  -5   -1.63    6.41   0
   3   3  -4  133.04    7.63   0
   4   1   0  240.14    7.42   0
   5   2  -3   14.09    5.87   0
  -4  -5  -6   19.19    6.83   0
  -2  -6  -1   47.36    6.93   0
  -1  -2   0 2239.38   21.99   0
   0   2  -3  556.26   16.32   0
   2   3  -7   17.10    7.90   0
   4   0   1  130.42    7.70   0
   4   2  -1   76.47    7.07   0
   4   3  -5   57.10    7.26   0
   5  -1   1   30.31    7.37   0
  -4  -6  -6   -3.19    6.52   0
  -4  -5  -7   -1.00    6.49   0
  -3  -7  -3   -6.80    6.40   0
  -3  -6  -3   -5.94    6.68   0
  -3  -5  -3   43.57    7.11   0
  -3  -4  -3  489.17    9.47   0
  -3  -2  -5    5.15    6.84   0
  -2  -5  -1    2.78    6.57   0
  -2  -4  -1  171.95    7.21   0
  -2   0  -8    3.91   11.12   0
  -2   0  -5    1.84    9.55   0
  -1   1  -8    1.19    5.01   0
   1   1   0 3408.66   30.43   0
   3   3  -3   60.71    5.86   0
   4  -4   2   73.77   12.18   0
   4  -3   2   84.15   10.60   0
   4   3  -4   64.79    6.12   0
   5   2  -2   65.72    6.52   0
  -3  -3  -4  131.47    7.94   0
  -2   0  -7   70.85   13.31   0
  -1  -6   0 2451.89   20.14   0
   0  -5   1   22.35    8.48   0
   0   1  -1 1206.09   27.59   0
   1  -7   1   17.59   10.13   0
   2   3  -3  137.28    6.76   0
   4  -2   2   22.77    8.58   0
   4   3  -3   23.17    5.32   0
   5   1   0   27.03    7.05   0
  -3  -8  -4  423.73   10.72   0
  -3  -2  -8   15.61    9.01   0
  -3  -2  -6  155.35    8.38   0
  -2  -8  -2  112.53    7.92   0
  -2  -2  -2  824.00   14.39   0
  -2   0  -6    1.95   10.58   0
   0  -8   0   65.75    8.77   0
   1   3  -6    6.26    7.65   0
   1   3  -5  334.13   10.37   0
   3  -1   2    1.53    8.60   0
   3   3  -2    4.05    5.47   0
   5   2  -1   46.80    7.10   0
  -3  -2  -7    3.07    7.86   0
  -2  -1  -3  106.61    8.59   0
  -1  -8  -1    7.76    7.26   0
  -1  -5   0   47.20    6.16   0
  -1  -3   0  115.91    8.42   0
   0  -4   1   91.92    9.20   0
   0  -3   1 1164.50   18.01   0
   1   2  -1 3280.99   24.34   0
   1   3  -4   90.52    8.10   0
   3   1   1  211.42    7.69   0
   3   2   0    3.00    5.61   0
   4   3  -2  119.54    6.63   0
   5   0   1   16.37    6.14   0
   5   3  -3   67.24    7.17   0
  -3  -7  -4   30.19    6.71   0
  -3  -4  -4  162.18    7.50   0
  -2  -7  -2 1261.31   14.86   0
  -1  -4   0  104.77    7.03   0
   1   3  -7  126.06    9.39   0
   2   3  -2   68.84    5.82   0
   4  -1   2   86.55    8.42   0
   4   1   1  403.55    9.13   0
   4   2   0  361.31    8.80   0
  -3  -6  -4   23.78    6.24   0
  -3  -5  -4   -0.06    5.93   0
  -3  -3  -5    3.13    5.77   0
   1   0   1  458.67   17.93   0
   1   3  -3    0.23    7.32   0
   2   1   1    5.60    8.23   0
   2   2   0  147.68    7.27   0
   3   3  -1   49.51    7.05   0
   5  -3   2  161.46   12.26   0
   5   3  -2   29.11    6.03   0
  -3  -8  -5    4.36    6.72   0
  -2  -6  -2   41.31    6.55   0
  -2  -3  -2  592.28   10.67   0
  -1  -9  -2   50.45    8.70   0
   2  -1   2  628.66   17.65   0
   4   3  -1   62.55    6.17   0
   5  -2   2  837.35   17.06   0
   5   1   1   18.38    7.35   0
   5   2   0   72.04    6.47   0
  -3  -7  -5   -6.33    7.21   0
  -3  -4  -5   57.47    6.99   0
  -3  -3  -6 1583.21   18.16   0
  -2  -8  -3   66.04    7.36   0
  -2  -5  -2   63.23    6.71   0
  -2  -4  -2   16.57    7.11   0
  -1  -7  -1   84.67    7.26   0
   0  -7   0   25.69    7.42   0
   1  -6   1   84.94   10.22   0
   2  -7   1   14.72   11.61   0
   3   0   2   12.07    7.98   0
   3   4  -5   42.20    6.03   0
   3   4  -4   37.11    6.76   0
   4   0   2   48.20    7.93   0
   4   4  -4   15.52    6.23   0
   5  -1   2   33.20    8.49   0
   5   3  -1    8.32    6.97   0
  -3  -6  -5   19.96    6.15   0
  -3  -5  -5    1.99    6.54   0
  -3  -3  -7   21.90    8.17   0
  -1  -1  -1   34.05   10.38   0
   2   3  -1 1267.58   13.07   0
   3   4  -3    7.00    6.56   0
   4   4  -3   -0.69    5.96   0
  -3  -3  -8   74.45    8.52   0
  -2  -1  -4  562.42   13.88   0
   1  -8   0   83.45    9.60   0
   2   4  -6   27.42    8.09   0
   2   4  -5  172.95    8.39   0
   2   4  -4    5.51    6.98   0
   3   2   1   -1.03    6.55   0
   4   2   1   85.97    6.67   0
   4   3   0  210.22    8.15   0
  -3  -7  -6   -1.17    6.47   0
  -3  -4  -6   44.59    6.75   0
  -2  -7  -3    2.86    6.22   0
  -2  -2  -3   28.79    7.90   0
  -1  -8  -2   20.65    7.43   0
  -1  -6  -1    9.17    5.94   0
   1   3  -2    2.88    6.32   0
   3   3   0  687.45   10.54   0
   3   4  -2  123.08    6.52   0
   4   4  -2   86.59    6.38   0
   5   0   2   25.31    7.48   0
   5   2   1    8.99    6.90   0
  -3  -6  -6    6.71    5.99   0
  -3  -5  -6   11.15    5.94   0
  -3  -4  -7  103.59    8.49   0
   0  -8  -1   20.46    7.78   0
   0  -6   0  748.48   13.77   0
   0   2  -2  117.69   10.91   0
   2   4  -3  390.86    9.55   0
   4   1   2   58.67    7.53   0
   5   3   0 1132.82   12.74   0
  -3  -7  -7   26.96    7.11   0
  -3  -4  -8   39.09    7.94   0
  -2  -8  -4  153.92    8.47   0
  -2  -6  -3   21.60    6.23   0
  -1  -9  -3   24.54    8.35   0
  -1  -5  -1   57.69    7.07   0
  -1   0  -2 1501.89   29.80   0
   4   4  -1   25.10    5.92   0
  -3  -6  -7   11.05    6.90   0
  -3  -5  -7    0.64    5.87   0
  -2  -5  -3  243.66    8.41   0
  -2  -3  -3  264.07    8.56   0
   2   4  -2   66.36    7.03   0
   3   1   2 1288.28   15.12   0
   3   4  -1   81.97    6.53   0
   5   1   2    6.92    7.08   0
   5   4  -1   15.38    6.15   0
  -3  -6  -8    9.59    7.96   0
  -3  -5  -8    9.04    6.90   0
  -2  -7  -4  191.37    8.30   0
  -2  -4  -3    2.77    6.09   0
  -2  -1  -9   35.32   12.10   0
  -2  -1  -5   19.93    8.80   0
  -1  -7  -2  440.54   11.14   0
  -1  -4  -1  929.17   13.33   0
  -1  -2  -1 1012.28   15.63   0
   0  -9  -2   30.05    8.69   0
   0   3  -6   50.47   12.29   0
   0   3  -5    0.65   10.49   0
   1  -5   1  199.93   11.66   0
   1   2   0 2293.68   22.19   0
   2   0   2    5.55    8.48   0
   2   2   1  946.57   12.95   0
   2   3   0   28.97    6.39   0
   4   3   1    9.89    6.10   0
  -2  -8  -5   14.95    7.88   0
  -1  -3  -1   48.40    8.37   0
   0  -5   0  487.78   11.89   0
   1   4  -5  490.31   13.18   0
   2  -8   0  100.71   12.50   0
   3   5  -4   34.15    7.56   0
   4   2   2   20.86    7.03   0
   4   4   0   -0.74    5.73   0
   5   3   1   37.54    6.55   0
  -2  -6  -4    6.68    7.00   0
  -2  -2  -4 9185.58   38.72   0
  -1  -8  -3   67.38    8.25   0
   0  -7  -1  105.36    8.98   0
   1  -7   0    0.27    8.11   0
   1   3  -1  511.33   11.72   0
   1   4  -6    0.35    8.82   0
   1   4  -4   96.14    8.62   0
   3   3   1  189.25    7.65   0
   3   5  -3  182.27    8.41   0
   4   5  -2   16.05    6.41   0
   5   2   2   45.22    7.51   0
   5   4   0   47.30    6.75   0
  -2  -1  -8   30.00   10.75   0
  -2  -1  -6   83.05    9.81   0
  -1  -9  -4   -8.56    7.03   0
  -1  -6  -2  410.71   10.06   0
   0   3  -7  337.65   17.01   0
   0   3  -4  219.34   12.01   0
   2   4  -1    5.49    5.30   0
   3   4   0    6.45    5.97   0
  -2  -8  -6   21.18    7.67   0
  -2  -7  -5   25.74    6.98   0
  -2  -5  -4    0.64    6.29   0
  -2  -3  -4  177.83    8.76   0
  -2  -1  -7   88.89   10.82   0
   1   4  -3    1.76    8.00   0
   2  -6   1  146.39   13.05   0
   3   2   2  102.65    6.84   0
   3   5  -2   18.93    6.39   0
   4  -2   3   51.87   12.17   0
   4  -1   3   12.55    8.82   0
   4   5  -1   10.04    6.09   0
   5  -1   3   78.19   10.27   0
  -2  -4  -4   97.52    6.57   0
   0  -8  -2    5.38    7.52   0
   1  -8  -1   17.78    9.49   0
   1   1   1   29.24   12.31   0
   2   5  -5    5.50    7.12   0
   2   5  -4   -6.09    6.99   0
   4   0   3    0.82    7.18   0
   4   4   1   20.66    6.29   0
   5  -2   3   71.58   10.77   0
   5   0   3    4.61    7.30   0
   5   4   1   55.74    6.47   0
  -2  -6  -5  204.47    9.27   0
  -2  -2  -5   14.42    7.29   0
  -1  -7  -3   58.66    7.54   0
   0  -9  -3   11.73    8.12   0
   0  -4   0  153.86    9.11   0
   2   1   2  677.10   13.83   0
   2   5  -3  518.07   11.18   0
   3   5  -1  278.29    8.04   0
   4   3   2    8.24    5.85   0
   5   1   3   66.15    8.85   0
   5   3   2  158.09    8.23   0
  -2  -8  -7    0.02    6.85   0
  -2  -7  -6    6.77    6.36   0
  -1  -9  -5   26.71    7.39   0
  -1  -8  -4   97.30    8.78   0
  -1  -5  -2   71.75    6.62   0
   0   3  -3   -0.05    9.37   0
   1  -4   1  145.17   11.78   0
   1   4  -2  302.58   10.04   0
   2   3   1 2017.73   16.42   0
   3   4   1  605.44   11.24   0
   4   1   3  386.55   10.76   0
   4   5   0   71.87    6.81   0
  -2  -5  -5   36.41    6.63   0
  -2  -3  -5  448.13   11.17   0
  -2  -2  -9   13.35    9.83   0
   0  -6  -1  167.38    8.57   0
   2   4   0   11.95    5.70   0
   2   5  -2  120.14    7.74   0
   3  -1   3  748.17   17.93   0
   3   3   2   23.23    6.77   0
  -2  -7  -7   28.35    7.46   0
  -2  -6  -6   20.23    6.49   0
  -2  -4  -5    2.00    5.65   0
  -2  -2  -6  282.86   10.73   0
  -1  -4  -2    6.30    7.54   0
   1  -6   0  634.52   14.25   0
   3   0   3   17.06    8.64   0
   3   5   0   39.17    6.62   0
   4  -3   3   40.20   17.64   0
   4   2   3   69.12    8.07   0
   5   2   3   71.32    8.20   0
   5   4   2   75.17    7.99   0
  -2  -2  -8   25.73    8.85   0
  -2  -2  -7  109.71    9.23   0
  -1  -9  -6   14.51    8.49   0
  -1  -6  -3   87.68    6.95   0
  -1   1  -8   56.13   17.30   0
  -1   1  -4   11.76   16.80   0
   0  -3   0    4.57    9.15   0
   1   3   0  116.53    9.72   0
   3   6  -3    5.32    6.35   0
   4   4   2  165.07    7.59   0
   4   5   1   12.42    7.36   0
   4   6  -1  143.21    7.25   0
   5   5   1    7.86    6.56   0
  -2  -7  -8   58.65    8.00   0
  -2  -6  -7  109.91    9.08   0
  -2  -5  -6  111.78    7.21   0
  -2  -4  -6   14.08    7.36   0
  -2  -3  -6  116.30    8.50   0
  -1  -8  -5   17.70    8.15   0
  -1  -7  -4   50.06    8.22   0
   0  -9  -4   19.95    9.15   0
   0  -7  -2  431.53    9.91   0
   2  -7   0   30.99   10.99   0
   2   2   2  862.22   13.93   0
   2   5  -1   11.29    5.85   0
   3   1   3   79.77    8.18   0
   3   6  -2    5.92    6.70   0
   5   3   3   34.71    8.12   0
  -2  -6  -8    3.03    8.15   0
  -2  -5  -7   12.91    7.26   0
  -2  -3  -9    0.58    9.15   0
  -2  -3  -7   18.16    8.10   0
  -1  -3  -2  731.65   12.20   0
  -1  -2  -2  599.70   16.68   0
   0  -8  -3  134.74    8.53   0
   1   4  -1   -0.34    6.67   0
   3  -2   3  697.26   24.59   0
   4   3   3    0.26    7.05   0
   4   6   0   24.52    7.77   0
  -2  -6  -9    2.11    7.30   0
  -2  -5  -9   82.50    8.85   0
  -2  -5  -8   10.53    7.40   0
  -2  -4  -9   40.65    9.14   0
  -2  -4  -7   44.14    7.54   0
  -2  -3  -8    8.88    7.61   0
  -1  -5  -3 1055.29   14.06   0
   0  -5  -1  203.13    9.10   0
   0   2  -1  168.07   12.38   0
   1  -7  -1  177.33   10.21   0
   2  -8  -1   13.86    9.60   0
   2   4   1  179.28    8.37   0
   3   2   3    2.29    6.82   0
   3   4   2    2.42    7.26   0
   3   5   1   12.43    6.41   0
   3   6  -1  331.75    9.20   0
   5   5   2   -8.78    7.53   0
  -2  -4  -8   47.41    8.02   0
  -1  -8  -6   24.63    8.08   0
   0  -2   0 2093.57   26.33   0
   1  -9  -3   -6.72    8.51   0
   1  -8  -2   22.69    8.29   0
   1   2   1 1005.51   16.07   0
   1   5  -5   18.25    8.33   0
   1   5  -4    7.72    8.25   0
   2   6  -4   35.83    8.83   0
   4   5   2   -8.63    7.39   0
   5   4   3    2.10    7.42   0
  -1  -7  -5   13.14    6.49   0
  -1  -6  -4    2.03    6.59   0
   0   3  -2   53.09    9.73   0
   1   5  -3   89.60    8.84   0
   2   5   0  137.64    6.86   0
   2   6  -3   20.09    7.50   0
   3  -6   1  179.98   13.99   0
   3   6   0   97.25    7.55   0
   4   6   1  131.36    8.42   0
   0  -9  -5   34.13    7.96   0
   0  -6  -2   64.21    7.70   0
   1  -3   1 3159.79   36.60   0
   2  -5   1   11.16   10.43   0
   2   3   2  698.98   11.19   0
   2   6  -2   22.91    7.09   0
   3   3   3  129.78    7.66   0
   4   4   3   73.72    6.53   0
   5   0   4   15.02    9.56   0
   5   1   4    9.99    8.14   0
  -1  -8  -7    0.73    6.68   0
  -1  -4  -3   74.78    7.21   0
  -1   0  -3  208.02   13.81   0
   0  -8  -4    6.96    6.65   0
   0  -7  -3    5.07    7.19   0
   1  -5   0   52.72    8.89   0
   1   5  -2   20.31    7.87   0
   5   2   4   44.10    8.17   0
  -1  -8  -8   19.55    7.23   0
  -1  -7  -6   61.32    7.02   0
   1   4   0  108.40    8.07   0
   2   6  -1   58.63    7.65   0
   3   5   2   13.64    5.91   0
   4   0   4   17.08    9.35   0
   4   1   4    4.30    8.26   0
   5  -1   4   17.32   11.84   0
   5   3   4   11.92    7.62   0
   5   5   3   16.40    6.64   0
  -1  -6  -5  242.31    8.98   0
  -1  -5  -4    4.82    6.70   0
  -1   1  -7    1.00   13.32   0
   0  -9  -6    3.37    6.95   0
   0  -4  -1 3217.87   25.82   0
   0   4  -5   85.24   11.89   0
   1  -9  -4   14.18    8.50   0
   2   5   1    4.77    6.71   0
   3  -7   0   10.04   11.75   0
   3   6   1    3.80    5.68   0
   3   7  -1   11.15    7.68   0
   4   2   4  351.96   10.33   0
   4   5   3  175.62    8.53   0
   4   6   2   23.82    6.47   0
  -1  -7  -7   11.01    6.59   0
  -1  -3  -3    1.21    6.57   0
   0   4  -4   26.31    9.28   0
   1  -6  -1    3.64    8.33   0
   1   3   1   50.72    7.24   0
   2   4   2   19.40    7.30   0
   3   4   3  516.07    9.55   0
   4   3   4   18.92    7.27   0
   5   4   4   -4.81    8.10   0
  -1  -7  -8   22.60    7.55   0
  -1   0  -9   -0.75   12.05   0
   0  -8  -5   54.72    7.16   0
   0   4  -6   -2.89   12.22   0
   1  -8  -3  148.70    8.34   0
   1  -7  -2   10.47    7.51   0
   1   5  -1  233.13    8.55   0
   2  -6   0   16.79    9.24   0
   2   6   0   25.12    6.63   0
   3   7   0   31.24    7.40   0
  -1  -7  -9   10.67    6.66   0
  -1  -6  -6  209.13    7.95   0
  -1  -4  -4  495.44   10.73   0
  -1  -2  -3 1234.74   16.52   0
  -1  -1  -3    1.89    9.50   0
  -1   1  -5  232.09   16.74   0
   0  -7  -4   37.82    7.50   0
   0  -5  -2    3.88    6.80   0
   2  -8  -2   12.39    9.31   0
   2   1   3  113.83   10.03   0
   4  -1   4   34.07   12.09   0
   4   4   4    6.95    6.83   0
  -1  -6  -7    9.53    6.84   0
  -1  -5  -5  517.69   10.43   0
  -1   1  -6    4.67   12.62   0
   0  -6  -3  100.34    6.88   0
   0   4  -3  364.17   12.33   0
   1  -9  -5   23.94    8.50   0
   2  -7  -1  201.40    9.56   0
   2   2   3   19.34    8.25   0
   3  -4   2   69.23   16.51   0
   3   5   3   56.64    7.19   0
   3   6   2   37.73    6.19   0
   4   6   3    5.74    6.05   0
   4   7   2   63.37    7.84   0
   5   5   4   34.46    7.07   0
  -1  -6  -8   16.96    7.46   0
   0  -8  -6   91.69    8.15   0
   0   3  -1 1110.38   16.81   0
   1   6  -4   64.81    9.20   0
   2   0   3   55.97    9.89   0
   2   7  -2   52.42    7.50   0
   3   2   4  234.90    9.89   0
   3   7   1   29.70    6.02   0
  -1  -6  -9   11.50    6.98   0
  -1  -5  -6    2.97    7.06   0
  -1  -3  -4   19.89    7.57   0
   1   4   1  887.40   12.44   0
   1   5   0   43.29    6.82   0
   1   6  -3   62.78    7.66   0
   2   3   3  285.40    9.27   0
   2   5   2   71.83    6.59   0
   2   6   1   52.41    6.31   0
   2   7  -1   39.12    6.95   0
   3   1   4   10.14    8.36   0
   3   3   4  147.65    8.20   0
   4   5   4    7.68    5.73   0
  -1  -4  -5   19.86    5.68   0
   0  -8  -7   24.15    6.72   0
   0  -7  -5   34.93    6.81   0
   0  -3  -1   41.80    7.97   0
   1  -8  -4    5.27    6.61   0
   1   6  -2   32.34    6.73   0
   5   2   5   39.91    8.69   0
   5   3   5   47.51    8.12   0
  -1  -5  -9    9.41    6.55   0
  -1  -5  -8   -0.55    7.37   0
  -1  -5  -7   -2.30    5.66   0
  -1  -4 -10   31.61    7.94   0
  -1  -3 -10   27.44    8.64   0
  -1  -1  -9    2.08    8.92   0
  -1   0  -8    1.66   10.49   0
   0  -8  -8   30.70    7.55   0
   0   4  -2   42.87    8.35   0
   1  -4   0    3.00    8.67   0
   2   7   0   24.58    7.04   0
   3   4   4  190.06    8.29   0
   3   6   3   13.02    5.86   0
   3   7   2   20.03    6.99   0
   4   7   3    3.17    6.20   0
   5   1   5    9.39    9.10   0
   5   4   5   -1.45    7.63   0
  -1  -4  -6   12.14    6.56   0
  -1  -2  -4  364.12   11.06   0
  -1   0  -4  389.78   14.23   0
   0  -6  -4  207.61    7.82   0
   1  -7  -3   73.87    7.10   0
   1   2   2  758.49   15.28   0
   1   6  -1   40.18    7.09   0
   2   4   3    3.07    6.18   0
   3   0   4  117.74   10.30   0
   4   6   4   12.89    6.37   0
  -1  -4  -9  102.26    7.71   0
  -1  -4  -8   18.09    7.47   0
  -1  -4  -7  485.18   10.96   0
  -1  -3  -9    8.67    8.18   0
  -1  -3  -5  200.59    7.72   0
  -1  -2  -9    1.47    8.27   0
  -1  -1  -4 1105.17   17.23   0
   0  -7  -6   78.33    7.04   0
   0  -5  -3  952.26   13.13   0
   0  -4  -2    4.10    7.12   0
   1  -6  -2   95.50    7.72   0
   1  -5  -1  272.43   10.20   0
   2  -8  -3   59.86    8.14   0
   2   6   2   47.30    7.27   0
   4   2   5    7.12    8.08   0
   4   3   5    0.94    7.55   0
  -1   0  -7  172.14   12.09   0
   0  -7  -7    4.73    7.83   0
   1  -8  -5   32.38    7.30   0
   1   3   2  707.59   11.31   0
   1   5   1   72.57    6.75   0
   2   7   1   22.80    6.77   0
   3   5   4    6.30    6.19   0
   4   4   5    8.24    6.15   0
   5   0   5    2.20   11.18   0
  -1  -3  -8    1.77    6.95   0
  -1  -3  -7  171.13    8.38   0
  -1  -3  -6  261.57    9.15   0
  -1  -2  -8    0.32    7.62   0
  -1  -2  -5   30.11    6.92   0
  -1  -1  -8  293.74   11.86   0
  -1   0  -5  589.41   15.61   0
   0  -7  -8  660.77   13.51   0
   0  -6  -5   27.06    7.18   0
   0   2   0 2068.34   24.52   0
   1   6   0 2550.59   18.68   0
   2  -7  -2    2.38    7.39   0
   2  -4   1  181.27   11.30   0
   2   5   3  260.19    8.12   0
   3  -7  -1   45.02    9.14   0
   3   7   3   12.64    6.04   0
   4   1   5   -1.85    8.19   0
   4   5   5  120.99    8.01   0
   4   7   4   10.02    6.33   0
  -1   0  -6   31.87    9.15   0
   0  -7  -9   11.75    6.45   0
   0   4  -1   90.64    8.80   0
   1  -8  -6   33.16    7.72   0
   1   0   2 1471.86   28.26   0
   3  -6   0    8.19    9.36   0
   3   6   4   29.68    6.66   0
   3   8   2   10.04    6.06   0
  -1  -2  -7    7.21    6.79   0
  -1  -2  -6    3.81    6.99   0
  -1  -1  -7   57.08    8.07   0
  -1  -1  -6   77.68    8.98   0
  -1  -1  -5  678.82   13.68   0
   1  -7  -4  261.38    8.21   0
   1   4   2    3.24    5.86   0
   1   7  -3    9.67    7.42   0
   2  -6  -1   48.02    7.32   0
   2  -5   0  100.01    9.90   0
   2   8   0   95.19    7.62   0
   4   6   5   19.81    7.55   0
   0  -6  -6   42.45    5.99   0
   0  -5  -4  482.04    9.46   0
   0  -2  -1    8.76   10.92   0
   1  -8  -7    5.14    6.34   0
   1   7  -2  122.49    8.33   0
   2  -8  -4   18.12    6.40   0
   2   6   3   21.11    5.71   0
   2   7   2 1405.68   13.24   0
   0  -6  -9    6.32    7.02   0
   0  -6  -8   54.72    7.14   0
   0  -6  -7    0.44    5.59   0
   0   3   0    2.06    7.65   0
   1  -6  -3  142.54    7.56   0
   1   6   1    5.44    5.85   0
   1   7  -1    2.14    6.46   0
   2   3   4  230.06    8.42   0
   2   8   1    7.04    6.66   0
   3   3   5    7.38    6.63   0
   3   4   5   55.93    7.28   0
   3   7   4   36.89    7.00   0
   3   8   3   17.11    5.66   0
   0  -4  -3 2192.81   16.88   0
   1  -7  -5   18.62    6.04   0
   1   5   2   71.54    5.71   0
   2   4   4   96.52    5.78   0
;
_shelx_hkl_checksum              6716
_shelx_res_file
;
    vs9_3.res created by SHELXL-2014/7
TITL vs9_3 in P-1
CELL 0.71073   4.874   7.663   8.325  66.97  88.09  87.07
ZERR    2.00   0.003   0.002   0.003   0.02   0.02   0.02
LATT  1
SFAC C H N O
UNIT 10 12 4 6
SIZE 0.30 0.30 0.10
REM colorless block
ACTA 50
L.S. 10
BOND $H
CONF
FMAP 2
PLAN 10
HTAB
HTAB N1A O21A_$1
HTAB N3A O41A_$2
HTAB O51A O21A_$3
EQIV $1 -x+1, -y+2, -z
EQIV $2 -x, -y+1, -z+1
EQIV $3 x+1, y-1, z
DFIX 0.88 0.02 N1A H1A
DFIX 0.88 0.02 N3A H3A
DFIX 0.84 0.02 O51A H51A
MPLA N1A C2A O21A N3A C4A O41A C5A C51A O51A C6A
TEMP -100
WGHT    0.088500
FVAR       2.16654
N1A   3    0.566039    0.741074    0.109816    11.00000    0.03532    0.02879 =
         0.03584   -0.00473    0.00570   -0.00184
H1A   2    0.642045    0.839377    0.031205    11.00000   -1.20000
C2A   1    0.341492    0.775414    0.196017    11.00000    0.03100    0.02992 =
         0.03199   -0.00689   -0.00009    0.00055
O21A  4    0.241567    0.936561    0.163926    11.00000    0.04119    0.02901 =
         0.04380   -0.00506    0.00971    0.00228
N3A   3    0.232402    0.618632    0.322234    11.00000    0.02954    0.03052 =
         0.03722   -0.00800    0.00392   -0.00125
H3A   2    0.085491    0.637660    0.382442    11.00000   -1.20000
C4A   1    0.331130    0.432640    0.371377    11.00000    0.03019    0.03152 =
         0.03323   -0.00959   -0.00177   -0.00228
O41A  4    0.221780    0.304246    0.494048    11.00000    0.03305    0.03094 =
         0.03652   -0.00565    0.00581   -0.00292
C5A   1    0.565960    0.405257    0.270751    11.00000    0.02889    0.03317 =
         0.03618   -0.01090   -0.00026   -0.00160
C51A  1    0.679135    0.207210    0.308322    11.00000    0.03658    0.03097 =
         0.03983   -0.00969    0.00646   -0.00075
AFIX  23
H51A  2    0.754094    0.150516    0.427703    11.00000   -1.20000
H51B  2    0.531602    0.126930    0.300382    11.00000   -1.20000
AFIX   0
O51A  4    0.887768    0.216740    0.185240    11.00000    0.05001    0.03600 =
         0.05502   -0.01202    0.01470    0.00571
H51C  2    0.955584    0.106893    0.205158    11.00000   -1.20000
C6A   1    0.670143    0.560712    0.143902    11.00000    0.03135    0.03302 =
         0.03450   -0.01039    0.00022    0.00120
AFIX  43
H6A   2    0.821624    0.544089    0.075725    11.00000   -1.20000
AFIX   0
HKLF 4
REM  vs9_3 in P-1
REM R1 =  0.0554 for     807 Fo > 4sig(Fo)  and  0.0774 for all    1091 data
REM    100 parameters refined using      3 restraints
END
WGHT      0.0885      0.0000
REM Instructions for potential hydrogen bonds
HTAB N1A O21A_$1
HTAB N3A O41A_$2
EQIV $4 x, y-1, z
HTAB C51A O21A_$4
HTAB O51A O21A_$3
EQIV $5 -x+2, -y+1, -z
HTAB C6A O51A_$5
REM Highest difference peak  0.424,  deepest hole -0.300,  1-sigma level  0.078
Q1    1   0.5870  0.4588  0.2172  11.00000  0.05    0.42
Q2    1   0.6201  0.1591  0.3661  11.00000  0.05    0.42
Q3    1   0.9168 -0.0884  0.3200  11.00000  0.05    0.41
Q4    1   0.9586  0.6116 -0.0445  11.00000  0.05    0.36
Q5    1   0.2838  1.0462  0.0897  11.00000  0.05    0.34
Q6    1   0.2759  0.7019  0.2640  11.00000  0.05    0.33
Q7    1   0.9299  0.2348  0.1506  11.00000  0.05    0.32
Q8    1   0.1230  0.5051  0.4396  11.00000  0.05    0.29
Q9    1   0.2532  0.3367  0.4557  11.00000  0.05    0.25
Q10   1   0.5050  0.3439  0.3381  11.00000  0.05    0.21
;
_shelx_res_checksum              51085
loop_
_space_group_symop_operation_xyz
'x, y, z'
'-x, -y, -z'
loop_
_atom_site_type_symbol
_atom_site_label
_atom_site_fract_x
_atom_site_fract_y
_atom_site_fract_z
_atom_site_U_iso_or_equiv
_atom_site_adp_type
_atom_site_calc_flag
_atom_site_occupancy
N N1A 0.5660(4) 0.7411(3) 0.1098(2) 0.0359(5) Uani d 1
H H1A 0.642(6) 0.839(3) 0.031(3) 0.043 Uiso d 1
C C2A 0.3415(5) 0.7754(3) 0.1960(3) 0.0326(5) Uani d 1
O O21A 0.2416(4) 0.9366(2) 0.1639(2) 0.0412(5) Uani d 1
N N3A 0.2324(4) 0.6186(3) 0.3222(2) 0.0341(5) Uani d 1
H H3A 0.085(5) 0.638(4) 0.382(3) 0.041 Uiso d 1
C C4A 0.3311(5) 0.4326(3) 0.3714(3) 0.0325(6) Uani d 1
O O41A 0.2218(3) 0.3042(2) 0.49405(19) 0.0359(5) Uani d 1
C C5A 0.5660(5) 0.4053(3) 0.2708(3) 0.0336(6) Uani d 1
C C51A 0.6791(5) 0.2072(3) 0.3083(3) 0.0373(6) Uani d 1
H H51A 0.7541 0.1505 0.4277 0.045 Uiso calc 1
H H51B 0.5316 0.1269 0.3004 0.045 Uiso calc 1
O O51A 0.8878(4) 0.2167(3) 0.1852(2) 0.0494(6) Uani d 1
H H51C 0.956(7) 0.107(5) 0.205(4) 0.059 Uiso d 1
C C6A 0.6701(5) 0.5607(3) 0.1439(3) 0.0339(5) Uani d 1
H H6A 0.8216 0.5441 0.0757 0.041 Uiso calc 1
loop_
_atom_site_aniso_label
_atom_site_aniso_U_11
_atom_site_aniso_U_22
_atom_site_aniso_U_33
_atom_site_aniso_U_12
_atom_site_aniso_U_13
_atom_site_aniso_U_23
N1A 0.0353(12) 0.0288(10) 0.0358(11) -0.0018(8) 0.0057(8) -0.0047(8)
C2A 0.0310(13) 0.0299(11) 0.0320(11) 0.0005(9) -0.0001(9) -0.0069(9)
O21A 0.0412(10) 0.0290(8) 0.0438(10) 0.0023(7) 0.0097(7) -0.0051(7)
N3A 0.0295(11) 0.0305(10) 0.0372(11) -0.0013(8) 0.0039(8) -0.0080(8)
C4A 0.0302(13) 0.0315(11) 0.0332(12) -0.0023(9) -0.0018(9) -0.0096(9)
O41A 0.0331(10) 0.0309(9) 0.0365(9) -0.0029(7) 0.0058(7) -0.0056(7)
C5A 0.0289(13) 0.0332(12) 0.0362(12) -0.0016(9) -0.0003(9) -0.0109(10)
C51A 0.0366(13) 0.0310(11) 0.0398(13) -0.0008(9) 0.0065(10) -0.0097(9)
O51A 0.0500(12) 0.0360(9) 0.0550(11) 0.0057(8) 0.0147(9) -0.0120(8)
C6A 0.0314(13) 0.0330(11) 0.0345(12) 0.0012(9) 0.0002(9) -0.0104(9)
loop_
_atom_type_symbol
_atom_type_description
_atom_type_scat_dispersion_real
_atom_type_scat_dispersion_imag
_atom_type_scat_source
C C 0.0033 0.0016 'International Tables Vol C Tables 4.2.6.8 and 6.1.1.4'
H H 0.0000 0.0000 'International Tables Vol C Tables 4.2.6.8 and 6.1.1.4'
N N 0.0061 0.0033 'International Tables Vol C Tables 4.2.6.8 and 6.1.1.4'
O O 0.0106 0.0060 'International Tables Vol C Tables 4.2.6.8 and 6.1.1.4'
loop_
_geom_angle_atom_site_label_1
_geom_angle_atom_site_label_2
_geom_angle_atom_site_label_3
_geom_angle
C2A N1A C6A 122.0(2)
C2A N1A H1A 117.0(19)
C6A N1A H1A 121.0(19)
O21A C2A N1A 122.8(2)
O21A C2A N3A 121.8(2)
N1A C2A N3A 115.5(2)
C2A N3A C4A 126.5(2)
C2A N3A H3A 117.2(18)
C4A N3A H3A 116.2(18)
O41A C4A N3A 120.2(2)
O41A C4A C5A 124.6(2)
N3A C4A C5A 115.17(19)
C6A C5A C4A 118.0(2)
C6A C5A C51A 122.9(2)
C4A C5A C51A 119.12(19)
O51A C51A C5A 108.29(19)
O51A C51A H51A 110.0
C5A C51A H51A 110.0
O51A C51A H51B 110.0
C5A C51A H51B 110.0
H51A C51A H51B 108.4
C51A O51A H51C 110(2)
C5A C6A N1A 122.7(2)
C5A C6A H6A 118.6
N1A C6A H6A 118.6
loop_
_geom_bond_atom_site_label_1
_geom_bond_atom_site_label_2
_geom_bond_distance
N1A C2A 1.359(3)
N1A C6A 1.371(3)
N1A H1A 0.872(17)
C2A O21A 1.234(3)
C2A N3A 1.368(3)
N3A C4A 1.385(3)
N3A H3A 0.899(17)
C4A O41A 1.235(3)
C4A C5A 1.451(3)
C5A C6A 1.354(3)
C5A C51A 1.503(3)
C51A O51A 1.403(3)
C51A H51A 0.9900
C51A H51B 0.9900
O51A H51C 0.84(4)
C6A H6A 0.9500
loop_
_geom_hbond_atom_site_label_D
_geom_hbond_atom_site_label_H
_geom_hbond_atom_site_label_A
_geom_hbond_site_symmetry_A
_geom_hbond_distance_DH
_geom_hbond_distance_HA
_geom_hbond_distance_DA
_geom_hbond_angle_DHA
N1A H1A O21A 2_675 0.872(17) 1.940(18) 2.804(3) 171(3)
N3A H3A O41A 2_566 0.899(17) 1.920(18) 2.817(3) 176(3)
O51A H51C O21A 1_645 0.84(4) 1.97(4) 2.741(3) 151(3)
loop_
_geom_torsion_atom_site_label_1
_geom_torsion_atom_site_label_2
_geom_torsion_atom_site_label_3
_geom_torsion_atom_site_label_4
_geom_torsion
C6A N1A C2A O21A -178.2(2)
C6A N1A C2A N3A 1.9(3)
O21A C2A N3A C4A -178.5(2)
N1A C2A N3A C4A 1.4(3)
C2A N3A C4A O41A 176.2(2)
C2A N3A C4A C5A -3.1(3)
O41A C4A C5A C6A -177.6(2)
N3A C4A C5A C6A 1.7(3)
O41A C4A C5A C51A 3.7(4)
N3A C4A C5A C51A -177.0(2)
C6A C5A C51A O51A -3.7(3)
C4A C5A C51A O51A 175.0(2)
C4A C5A C6A N1A 1.2(4)
C51A C5A C6A N1A 179.9(2)
C2A N1A C6A C5A -3.3(4)
