#------------------------------------------------------------------------------
#$Date: 2016-01-16 04:08:49 +0200 (Sat, 16 Jan 2016) $
#$Revision: 174508 $
#$URL: svn://www.crystallography.net/cod/cif/2/02/03/2020389.cif $
#------------------------------------------------------------------------------
#
# This file is available in the Crystallography Open Database (COD),
# http://www.crystallography.net/. The original data for this entry
# were provided by IUCr Journals, http://journals.iucr.org/.
#
# The file may be used within the scientific community so long as
# proper attribution is given to the journal article from which the
# data were obtained.
#
data_2020389
loop_
_publ_author_name
'Rukiah, Mwaffak'
'Al-Ktaifani, Mahmoud M.'
'Sabra, Mohammad K.'
_publ_section_title
;
 Reaction-path calculations and crystal structures of
 1,1'-(ethylene-1,2-diyl)dipyridinium dichloride dihydrate and
 1,1'-(ethylene-1,2-diyl)dipyridinium dibromide
;
_journal_issue                   2
_journal_name_full               'Acta Crystallographica Section C'
_journal_page_first
;
;
_journal_paper_doi               10.1107/S2053229615024833
_journal_volume                  72
_journal_year                    2016
_chemical_formula_iupac          'C12 H14 N2 2+, 2Br -'
_chemical_formula_moiety         'C12 H14 N2 2+, 2(Br -)'
_chemical_formula_sum            'C12 H14 Br2 N2'
_chemical_formula_weight         346.05
_chemical_name_systematic
;
1,1'-(Ethylene-1,2-diyl)dipyridinium dibromide
;
_space_group_IT_number           2
_symmetry_cell_setting           triclinic
_symmetry_space_group_name_Hall  '-P 1'
_symmetry_space_group_name_H-M   'P -1'
_audit_creation_method           'from EXP file using GSAS2CIF'
_cell_angle_alpha                80.7074(11)
_cell_angle_beta                 81.2351(10)
_cell_angle_gamma                70.8554(5)
_cell_formula_units_Z            1
_cell_length_a                   5.7608(3)
_cell_length_b                   6.4257(3)
_cell_length_c                   9.6848(5)
_cell_measurement_temperature    298
_cell_volume                     332.33(3)
_computing_data_collection
;
WinXPOW (Stoe & Cie, 1999)
;
_computing_data_reduction
;
WinXPOW (Stoe & Cie, 1999)
;
_computing_molecular_graphics
;
ORTEP-3 for Windows (Farrugia, 2012)
;
_computing_structure_refinement
;
GSAS (Larson & Von Dreele, 2004)
;
_computing_structure_solution
;
EXPO2014 (Altomare <i>et al.</i>,  2013)
;
_diffrn_ambient_temperature      298
_diffrn_measurement_device_type  'Stoe transmission STADI-P'
_diffrn_radiation_monochromator  'Ge 111'
_diffrn_radiation_type           'Cu K\a~1~'
_diffrn_radiation_wavelength     1.5406
_exptl_absorpt_coefficient_mu    7.533
_exptl_absorpt_correction_T_max  0.07225
_exptl_absorpt_correction_T_min  0.03230
_exptl_absorpt_process_details
;   GSAS Absorption/surface roughness correction: function number 4
 Flat plate transmission absorption correction
Terms =      1.7000         0.0000
Correction is not refined.
;
_exptl_crystal_density_diffrn    1.729
_exptl_crystal_F_000             170
_pd_block_id
2014-05-12T09:47|BIPYRETHBR2|Mwaffak_Rukiah|stadip
_pd_calc_method                  'Rietveld Refinement'
_pd_char_colour                  light_brown
_pd_char_particle_morphology     'fine powder'
_pd_instr_dist_mono/spec         130
_pd_instr_dist_spec/detc         173
_pd_instr_dist_src/mono          260
_pd_meas_2theta_range_inc        0.02
_pd_meas_2theta_range_max        79.98
_pd_meas_2theta_range_min        6.0
_pd_meas_number_of_points        3700
_pd_meas_scan_method             step
_pd_phase_name                   BiPyrEthBr2
_pd_proc_2theta_range_inc        0.02
_pd_proc_2theta_range_max        79.98
_pd_proc_2theta_range_min        6.0
_pd_proc_info_datetime           2014-05-12T09:47:20
_pd_proc_ls_background_function
;   GSAS Background function number 1 with 20 terms.
 Shifted Chebyshev function of 1st kind
      1:    586.651     2:   -304.259     3:   -7.34098     4:    54.3369
      5:   -21.2246     6:   -22.1608     7:    53.9900     8:   -29.1153
      9:   -21.3555    10:    36.6434    11:   -11.5829    12:   -8.12441
     13:    9.00680    14:   -7.25715    15:    6.53796    16:    4.23813
     17:   -5.01710    18:   0.343807    19:    3.94090    20:   -2.41293
;
_pd_proc_ls_peak_cutoff          0.00100
_pd_proc_ls_profile_function
;
CW Profile function number 4 with  27 terms
Pseudovoigt profile coefficients as parameterized in Thompson <i>et al.</i>
(1987.
Asymmetry correction of Finger <i>et al.</i> (1994).
Microstrain broadening by Stephens (1999).
Peak tails are ignored  where the intensity is below 0.0010 times the peak
Aniso. broadening axis   0.0   0.0   1.0
;
_pd_proc_ls_prof_R_factor        0.0289
_pd_proc_ls_prof_wR_expected     0.0291
_pd_proc_ls_prof_wR_factor       0.0373
_pd_proc_number_of_points        3700
_pd_spec_mounting                'Powder loaded into two Mylar foils'
_pd_spec_mount_mode              transmission
_pd_spec_shape                   flat_sheet
_pd_spec_size_axial              8
_pd_spec_size_equat              8
_refine_ls_goodness_of_fit_all   1.30
_refine_ls_hydrogen_treatment    noref
_refine_ls_matrix_type           full
_refine_ls_number_parameters     109
_refine_ls_number_restraints     0
_refine_ls_shift/su_max          0.04
_refine_ls_shift/su_mean         0.01
_refine_ls_weighting_scheme      sigma
_reflns_number_total             404
_iucr_refine_instructions_details
;
     VERSION   6
      DESCR   BiPyrEthBr2
    HSTRY  1 EXPGUI 1251 1251 (1 changes) -- 12/04/15 14:14:42
    HSTRY  2 EXPEDT  Win32  Dec 04 14:15:46 2015             L S  P
    HSTRY  3 POWPREF Win32  Dec 04 14:15:53 2015
  DSGL CDAT1  DRAD ARAD NOFO
  FOUR CDAT1  DELF Z    1 NOPR   0.00      999.99
  FOUR CDAT2  FOBS Z    1 NOPR   0.00      999.99
  GNLS  RUN on Dec 04 14:15:58 2015    Total cycles run 382       6094.3
  GNLS CDAT1  MXCY   0MARQ1.00
  GNLS SHFTS      0.02      0.00
 AFAC  C     2.310020.8439 1.020010.2075 1.5886  .5687  .865051.6512  .2156 RHF
 AFAC  C_    12.011 .6646       .0035
 AFAC  C_SIZ      1.12      0.92 1.60    3
 AFAC  C_XAB  288.3 170.4 84.13 10.67 7.054 52.30 141.0
 AFAC  C_XF1  0.036 0.027 0.018 0.003 0.002 0.049 0.024-0.001-0.001-0.001
 AFAC  C_XF2  0.021 0.015 0.009 0.002 0.001 0.031 0.012 0.000 0.000 0.000
 AFAC  H    .49300210.5109.32291226.1257.1401913.14236.04081057.7997.003038 SDS
 AFAC  H_     1.008-.3739  20.6  19.2
 AFAC  H_SIZ      0.98      0.78 1.20  118
 AFAC  H_XAB  .6888 .6700 .6548 .6238 .6131 .7240 .6640
 AFAC  H_XF1     0.    0.    0.    0.    0.    0.    0.    0.    0.    0.
 AFAC  H_XF2     0.    0.    0.    0.    0.    0.    0.    0.    0.    0.
 AFAC  N    12.2126  .0057 3.1322 9.8933 2.012528.9975 1.1663  .5826-11.529 RHF
 AFAC  N_    14.007  .936        1.90
 AFAC  N_SIZ      1.08      0.88 1.50    4 1.30
 AFAC  N_XAB  568.1 337.1 166.1 18.37 11.06 1000. 272.0
 AFAC  N_XF1  0.061 0.046 0.031 0.006 0.003 0.081 0.040-0.002-0.002-0.002
 AFAC  N_XF2  0.042 0.029 0.018 0.003 0.002 0.061 0.025 0.000 0.000 0.000
 AFAC BR    17.1789 2.1723 5.235816.5796 5.6377  .2609 3.985141.4328 2.9557 RHF
 AFAC BR-1  17.1718 2.2059 6.333819.3345 5.5754  .2871 3.727258.1535 3.1776 RHF
 AFAC BR_    79.904 .6795        6.9
 AFAC BR_SIZ      1.80      1.60 1.95   70
 AFAC BR_XAB  35320 22380 11980  9910  5362 56100 17700
 AFAC BR_XF1 -0.110-0.324-0.676-0.290 0.181 0.059-0.436 0.111 0.103 0.061
 AFAC BR_XF2  2.558 1.914 1.280 2.460 1.645 3.490 1.667 0.286 0.268 0.201
 EXPR  HTYP1  PXC  RSN  FLT  ANG
 EXPR  NATYP    4
 EXPR  NHST     4
 EXPR ATYP 1  BR-1        1      1.80      1.60 1.95   70
 EXPR ATYP 2  C           6      1.129.200E-001 1.60    3
 EXPR ATYP 3  H           79.800E-0017.800E-001 1.20  118
 EXPR ATYP 4  N           1      1.088.800E-001 1.50    4 1.30
 EXPR DELFRL      1087
 EXPR FOBSRL      1087
 EXPR NPHAS     1    0    0    0    0    0    0    0    0
 REFN GDNFT  Reduced CHI**2 =  1.698     for  109 variables
 REFN RESTR      28  28.721
 REFN RPOWD     0.0373    0.0289   3699  6094.3        0.0000    0.0000     0
 REFN STATS  Cycle 382 There were  3699 observations. Total CHI**2 = 6.0943E+03
CIF AUTHOR    Mwaffak Rukiah
CRS1    PNAM  BiPyrEthBr2
CRS1   NATOM   15
CRS1  ABC     5.760826  6.425650  9.684793    Y    0
CRS1  ABCSIG  0.000278  0.000302  0.000466
CRS1  ANGLES   80.7074   81.2351   70.8554
CRS1  ANGSIG    0.0011    0.0010    0.0005
CRS1  AT  1A  BR-1      0.164339  0.225563  0.301885  1.000000Br1        2 000
CRS1  AT  1B  0.031154  0.029610  0.018101 -0.020427  0.001425 -0.008762  A XU
CRS1  AT  2A  C         0.579512  0.383605  0.532797  1.000000C1         2 000
CRS1  AT  2B  0.015124                                                    I XU
CRS1  AT  3A  H         0.739987  0.378755  0.550905  1.000000H1A        2 000
CRS1  AT  3B  0.035000                                                    I
CRS1  AT  4A  H         0.593144  0.273166  0.467575  1.000000H1B        2 000
CRS1  AT  4B  0.035000                                                    I
CRS1  AT  5A  N         0.434983  0.327407  0.667418  1.000000N1         2 000
CRS1  AT  5B  0.011038                                                    I XU
CRS1  AT  6A  C         0.468201  0.381620  0.787782  1.000000C2         2 000
CRS1  AT  6B  0.020878                                                    I XU
CRS1  AT  7A  H         0.573847  0.471445  0.785645  1.000000H2         2 000
CRS1  AT  7B  0.035000                                                    I
CRS1  AT  8A  C         0.347457  0.325741  0.916489  1.000000C3         2 000
CRS1  AT  8B  0.027902                                                    I XU
CRS1  AT  9A  H         0.374165  0.360247  0.998855  1.000000H3         2 000
CRS1  AT  9B  0.035000                                                    I
CRS1  AT 10A  C         0.191377  0.199072  0.912489  1.000000C4         2 000
CRS1  AT 10B  0.028019                                                    I XU
CRS1  AT 11A  H         0.110332  0.152398  0.997474  1.000000H4         2 000
CRS1  AT 11B  0.035000                                                    I
CRS1  AT 12A  C         0.157779  0.145884  0.789306  1.000000C5         2 000
CRS1  AT 12B  0.015390                                                    I XU
CRS1  AT 13A  H         0.054020  0.058967  0.788501  1.000000H5         2 000
CRS1  AT 13B  0.035000                                                    I
CRS1  AT 14A  C         0.282511  0.204229  0.667115  1.000000C6         2 000
CRS1  AT 14B  0.020408                                                    I XU
CRS1  AT 15A  H         0.256435  0.171509  0.581817  1.000000H6         2 000
CRS1  AT 15B  0.035000                                                    I
CRS1  CELVOL        332.324          0.044
CRS1  CHMF 1  BR-1          1.00
CRS1  CHMF 2  C             6.00
CRS1  CHMF 3  H             7.00
CRS1  CHMF 4  N             1.00
CRS1  FMHST1  1
CRS1  FMPCTL   30   34   50    0    0    0   30   34   50
CRS1  OD        6   27    0    Y
CRS1  OD  1A   2  0 -2   2  0 -1   2  0  0   2  0  1   2  0  2   4  0 -4
CRS1  OD  1B   -0.0113    0.0095   -0.6467    0.0120    0.0903    0.0055
CRS1  OD  1C0.1048E-010.1090E-010.8392E-020.5463E-020.8759E-020.9038E-02
CRS1  OD  2A   4  0 -3   4  0 -2   4  0 -1   4  0  0   4  0  1   4  0  2
CRS1  OD  2B   -0.0055    0.0290   -0.0320    0.1678   -0.0023   -0.0390
CRS1  OD  2C0.1024E-010.6233E-020.1290E-010.1070E-010.5485E-020.5627E-02
CRS1  OD  3A   4  0  3   4  0  4   6  0 -6   6  0 -5   6  0 -4   6  0 -3
CRS1  OD  3B   -0.0305   -0.0269    0.0400    0.0262    0.0050    0.0110
CRS1  OD  3C0.8339E-020.9071E-020.1062E-010.8681E-020.8509E-020.6750E-02
CRS1  OD  4A   6  0 -2   6  0 -1   6  0  0   6  0  1   6  0  2   6  0  3
CRS1  OD  4B   -0.0238    0.0097   -0.0320   -0.0043    0.0087    0.0111
CRS1  OD  4C0.7500E-020.1168E-010.1113E-010.6202E-020.7107E-020.1182E-01
CRS1  OD  5A   6  0  4   6  0  5   6  0  6
CRS1  OD  5B    0.0358    0.0258   -0.0421
CRS1  OD  5C0.8353E-020.1154E-010.1204E-01
CRS1  OD  6C0.2942E-010.3404E-010.3715E-010.2664E-010.2763E-010.3135E-01
CRS1  OD  7C0.1825E-010.1957E-010.3134E-010.3558E-010.3762E-010.3456E-01
CRS1  OD  8C0.3298E-010.3524E-010.4310E-010.3572E-010.3043E-010.3806E-01
CRS1  OD  9C0.3028E-010.3946E-010.3576E-010.3125E-010.2950E-010.4700E-01
CRS1  OD 10C0.3215E-010.2175E-010.2899E-010.4646E-010.3970E-010.4183E-01
CRS1  OD 11C0.3858E-010.3295E-010.3694E-010.3998E-010.3547E-010.3096E-01
CRS1  OD 12C0.2792E-010.3965E-010.2540E-010.3866E-010.2599E-010.3573E-01
CRS1  OD 13C0.3205E-010.3497E-010.2846E-010.2774E-010.4353E-010.3511E-01
CRS1  OD 14C0.2416E-010.2588E-010.4292E-010.3451E-010.4110E-010.3820E-01
CRS1  OD 15C0.5655E-010.4219E-010.3747E-010.3480E-010.3678E-010.3976E-01
CRS1  SG SYM  P -1
CRS1  SPAXIS    0    0    1
HAP1 1 ZONE     0    0    0    0
HAP1 1EXTPOW    0.00000E+00    N    0
HAP1 1NAXIS     1
HAP1 1PHSFR      1.0000        N    0
HAP1 1PRCF      4   27   0.00100      NY Y YN    YYYYYYYYYYYYYYY
HAP1 1PRCF 1   0.000000E+00   0.000000E+00   0.158486E+02   0.000000E+00
HAP1 1PRCF 2   0.724431E+00   0.000000E+00   0.313022E+01   0.000000E+00
HAP1 1PRCF 3   0.000000E+00   0.240000E-01   0.240000E-01   0.600000E+00
HAP1 1PRCF 4   0.991524E+00   0.368123E+00   0.117867E-01  -0.262445E-01
HAP1 1PRCF 5   0.380404E+00   0.256750E+00  -0.293440E+00  -0.848781E-02
HAP1 1PRCF 6   0.925262E-01  -0.119186E+00   0.330944E+00   0.434215E-02
HAP1 1PRCF 7  -0.238814E+00  -0.172449E-01  -0.418463E+00
HAP1 1PREFO1  1.000000  1.000000  0.000000  0.000000  1.000000   NN    0    0
HAP1 1RADDAM    0.00000E+00    N    0      0.00
HST  1  HFIL  BisPyrEthBr2.gsa
HST  1  HNAM  This file has no Title
HST  1  IFIL  STADIP.PRM
HST  1 BANK     1
HST  1 BIGFO   0.540306E+06
HST  1 CHANS         0         1      3699  23374848      3700    0    0
HST  1 EPHAS    0    0    0    0    0    0    0    0    0    Y
HST  1 ICONR    1.5406    0.0000    0.0000               0.790    1     0.
HST  1 ICONS    1.5406    0.0000    0.0000               0.790    1     0.
HST  1 INAME  stadip
HST  1 IRAD     3
HST  1 MAXRF  105
HST  1 NEXC     2
HST  1 NFOBS  410    0    0    0    0    0    0    0    0
HST  1 NPHAS    1    0    0    0    0    0    0    0    0
HST  1 NREF   410    1.1986    Y    Y
HST  1 R-FAC  410   0.01787   8.521966E+05
HST  1 RPOWD    0.0373    0.0289   3699  6094.3        0.0000    0.0000    0
HST  1 TRNGE   6.00000  79.96000
HST  1 WREXP    0.0291
HST  1ABSCOR      1.7000000   0.0000000       N    0    4
HST  1BAKGD     1   20    Y    0    Y
HST  1BAKGD1   0.586650E+03  -0.304258E+03  -0.733938E+01   0.543366E+02
HST  1BAKGD2  -0.212252E+02  -0.221597E+02   0.539902E+02  -0.291162E+02
HST  1BAKGD3  -0.213547E+02   0.366443E+02  -0.115825E+02  -0.812419E+01
HST  1BAKGD4   0.900544E+01  -0.725836E+01   0.653852E+01   0.423879E+01
HST  1BAKGD5  -0.501849E+01   0.341927E+00   0.393971E+01  -0.241330E+01
HST  1CHI       0.0000
HST  1DETAZM    0.0000
HST  1EXC  1     0.000     0.000
HST  1EXC  2    79.980  1000.000
HST  1EXMNMX   1.00000   1.00000
HST  1HSCALE     2551.3        Y    0
HST  1I HEAD  STOE STADI P Transmission Diffractometer
HST  1I ITYP    0    0.0000  180.0000         1
HST  1INAME   stadip
HST  1MNREF     0    1.1986
HST  1ODMNMX   0.48910   1.62193
HST  1OMEGA     0.0000    Y
HST  1PHI       0.0000
HST  1PRCF1     4   12   0.00100
HST  1PRCF11  0.000000E+000      10.000000       5.000000  0.000000E+000
HST  1PRCF12       1.000000  0.000000E+000  0.000000E+000  0.000000E+000
HST  1PRCF13  0.000000E+000       0.022000       0.022000       0.600000
HST  1RSP    0.0290 0.0304 0.0273 0.0222 0.0305 0.0293 0.0326 0.0340 0.0418
HST  1RSPA   0.0316 0.0306 0.0248 0.0194 0.0297 0.0283 0.0314 0.0320 0.0418
HST  1RSPTT   6.00 14.20 22.42 30.64 38.86 47.08 55.30 63.52 71.74 79.96
HST  1RSPW   0.0370 0.0385 0.0356 0.0295 0.0390 0.0365 0.0413 0.0432 0.0514
HST  1RSPWA  0.0316 0.0368 0.0295 0.0237 0.0381 0.0342 0.0388 0.0385 0.0517
HST  1TRMNMX   0.03232   0.07225
HST  2  HNAM  Bond distance restraints
HST  2 FACTR    1.00000
HST  2 NBNDS    0
HST  2 RMSD     7    0.0078    4.25118
HST  3  HNAM  Planar group restraints
HST  3 FACTR    1.00000
HST  3 NPLNS    0
HST  3 RMSD     8    0.0116    14.6824
HST  4  HNAM  Bond angle restraints
HST  4 FACTR    1.00000
HST  4 NANGS    0
HST  4 RMSD    13    0.4338    9.78763
ZZZZZZZZZZZZ  Last EXP file record
    HSTRY  4 GENLES  Win32  Dec 04 14:15:58 2015
;
_cod_data_source_file            fa3378sup1.cif
_cod_data_source_block           II
_cod_original_cell_volume        332.32(4)
_cod_database_code               2020389
loop_
_symmetry_equiv_pos_site_id
_symmetry_equiv_pos_as_xyz
1 +x,+y,+z
-1 -x,-y,-z
loop_
_atom_site_aniso_label
_atom_site_aniso_U_11
_atom_site_aniso_U_22
_atom_site_aniso_U_33
_atom_site_aniso_U_12
_atom_site_aniso_U_13
_atom_site_aniso_U_23
Br1 0.0312(16) 0.0296(14) 0.0181(17) -0.0204(12) 0.0014(14) -0.0088(16)
loop_
_atom_site_type_symbol
_atom_site_label
_atom_site_fract_x
_atom_site_fract_y
_atom_site_fract_z
_atom_site_U_iso_or_equiv
_atom_site_thermal_displace_type
_atom_site_occupancy
_atom_site_symmetry_multiplicity
Br Br1 0.1643(2) 0.2256(2) 0.30189(14) 0.02332 Uani 1.0 2
C C1 0.5795(18) 0.3836(13) 0.5328(13) 0.015(4) Uiso 1.0 2
H H1A 0.73999 0.37876 0.5509 0.035 Uiso 1.0 2
H H1B 0.59314 0.27317 0.46758 0.035 Uiso 1.0 2
N N1 0.4350(14) 0.3274(11) 0.6674(9) 0.011(3) Uiso 1.0 2
C C2 0.4682(18) 0.3816(16) 0.7878(14) 0.021(4) Uiso 1.0 2
H H2 0.57385 0.47144 0.78565 0.035 Uiso 1.0 2
C C3 0.3475(17) 0.3257(14) 0.9165(12) 0.028(4) Uiso 1.0 2
H H3 0.37416 0.36025 0.99885 0.035 Uiso 1.0 2
C C4 0.1914(17) 0.1991(16) 0.9125(12) 0.028(4) Uiso 1.0 2
H H4 0.11033 0.1524 0.99747 0.035 Uiso 1.0 2
C C5 0.1578(17) 0.1459(13) 0.7893(14) 0.015(4) Uiso 1.0 2
H H5 0.05402 0.05897 0.7885 0.035 Uiso 1.0 2
C C6 0.283(2) 0.2042(15) 0.6671(11) 0.020(4) Uiso 1.0 2
H H6 0.25644 0.17151 0.58182 0.035 Uiso 1.0 2
loop_
_atom_type_symbol
_atom_type_number_in_cell
_atom_type_scat_Cromer_Mann_a1
_atom_type_scat_Cromer_Mann_a2
_atom_type_scat_Cromer_Mann_a3
_atom_type_scat_Cromer_Mann_a4
_atom_type_scat_Cromer_Mann_b1
_atom_type_scat_Cromer_Mann_b2
_atom_type_scat_Cromer_Mann_b3
_atom_type_scat_Cromer_Mann_b4
_atom_type_scat_Cromer_Mann_c
_atom_type_scat_dispersion_real
_atom_type_scat_dispersion_imag
_atom_type_scat_source
Br 2.0 17.1718 2.20590 6.33380 19.3345 5.57540 0.28710 3.72720 58.1535 3.17760
0.000 0.000 International_Tables_Vol_C
C 12.0 2.31000 20.8439 1.02000 10.2075 1.58860 0.56870 0.86500 51.6512 0.21560
0.000 0.000 International_Tables_Vol_C
H 14.0 0.49300 10.5109 0.32291 26.1257 0.14019 3.14236 0.04081 57.7997 0.00304
0.000 0.000 International_Tables_Vol_C
N 2.0 12.2126 0.00570 3.13220 9.89330 2.01250 28.9975 1.16630 0.58260 -11.529
0.000 0.000 International_Tables_Vol_C
loop_
_geom_angle_atom_site_label_1
_geom_angle_atom_site_label_2
_geom_angle_atom_site_label_3
_geom_angle_site_symmetry_1
_geom_angle_site_symmetry_3
_geom_angle
_geom_angle_publ_flag
C1 C1 H1A -1_666 1_555 114.0 n
C1 C1 H1B -1_666 1_555 107.8 n
C1 C1 N1 -1_666 1_555 106.2(10) y
H1A C1 H1B 1_555 1_555 110.5 n
H1A C1 N1 1_555 1_555 109.9 n
H1B C1 N1 1_555 1_555 108.1 n
C1 N1 C2 1_555 1_555 120.7(10) y
C1 N1 C6 1_555 1_555 119.2(10) y
C2 N1 C6 1_555 1_555 120.0(11) y
N1 C2 H2 1_555 1_555 118.7 n
N1 C2 C3 1_555 1_555 123.3(10) y
H2 C2 C3 1_555 1_555 117.9 n
C2 C3 H3 1_555 1_555 122.8 n
C2 C3 C4 1_555 1_555 115.3(11) y
H3 C3 C4 1_555 1_555 121.8 n
C3 C4 H4 1_555 1_555 118.5 n
C3 C4 C5 1_555 1_555 120.9(12) y
H4 C4 C5 1_555 1_555 120.6 n
C4 C5 H5 1_555 1_555 119.9 n
C4 C5 C6 1_555 1_555 120.9(9) y
H5 C5 C6 1_555 1_555 119.1 n
N1 C6 C5 1_555 1_555 119.6(11) y
N1 C6 H6 1_555 1_555 119.1 n
C5 C6 H6 1_555 1_555 121.1 n
loop_
_geom_bond_atom_site_label_1
_geom_bond_atom_site_label_2
_geom_bond_site_symmetry_2
_geom_bond_distance
_geom_bond_publ_flag
C1 C1 -1_666 1.566(17) y
C1 H1A 1_555 0.957 n
C1 H1B 1_555 1.001 n
C1 N1 1_555 1.496(10) y
N1 C2 1_555 1.327(13) y
C2 H2 1_555 0.963 n
C2 C3 1_555 1.386(12) y
C3 H3 1_555 0.909 n
C3 C4 1_555 1.405(11) y
C4 H4 1_555 0.938 n
C4 C5 1_555 1.350(13) y
C5 H5 1_555 0.944 n
C5 C6 1_555 1.353(14) y
C6 N1 1_555 1.362(9) y
C6 H6 1_555 0.929 n
loop_
_geom_hbond_atom_site_label_D
_geom_hbond_atom_site_label_H
_geom_hbond_atom_site_label_A
_geom_hbond_site_symmetry_A
_geom_hbond_distance_DH
_geom_hbond_distance_HA
_geom_hbond_distance_DA
_geom_hbond_angle_DHA
_geom_hbond_publ_flag
C2 H2 Br1 -1_666 0.96 2.79 3.721(11) 163 y
C5 H5 Br1 -1_556 0.94 2.84 3.743(10) 161 y
C6 H6 Br1 . 0.93 2.79 3.676(11) 160 y
loop_
_geom_torsion_atom_site_label_1
_geom_torsion_atom_site_label_2
_geom_torsion_atom_site_label_3
_geom_torsion_atom_site_label_4
_geom_torsion_site_symmetry_3
_geom_torsion_site_symmetry_4
_geom_torsion
_geom_torsion_publ_flag
C2 N1 C1 C1 . -1_666 -91.5(10) y
C6 N1 C1 C1 . -1_666 93.7(9) y
C1 N1 C6 C5 . . 177.7(8) n
C1 N1 C2 C3 . . -177.2(9) n
C6 N1 C2 C3 . . -2.4(14) n
C2 N1 C6 C5 . . 2.9(14) n
N1 C1 C1 N1 -1_666 -1_666 -180.0(7) y
N1 C2 C3 C4 . . 2.2(14) n
C2 C3 C4 C5 . . -2.5(14) n
C3 C4 C5 C6 . . 3.2(15) n
C4 C5 C6 N1 . . -3.3(15) n

_cod_database_fobs_code 2020389
