#------------------------------------------------------------------------------
#$Date: 2016-01-16 04:08:49 +0200 (Sat, 16 Jan 2016) $
#$Revision: 174508 $
#$URL: svn://www.crystallography.net/cod/cif/2/02/03/2020388.cif $
#------------------------------------------------------------------------------
#
# This file is available in the Crystallography Open Database (COD),
# http://www.crystallography.net/. The original data for this entry
# were provided by IUCr Journals, http://journals.iucr.org/.
#
# The file may be used within the scientific community so long as
# proper attribution is given to the journal article from which the
# data were obtained.
#
data_2020388
loop_
_publ_author_name
'Rukiah, Mwaffak'
'Al-Ktaifani, Mahmoud M.'
'Sabra, Mohammad K.'
_publ_section_title
;
 Reaction-path calculations and crystal structures of
 1,1'-(ethylene-1,2-diyl)dipyridinium dichloride dihydrate and
 1,1'-(ethylene-1,2-diyl)dipyridinium dibromide
;
_journal_coeditor_code           FA3378
_journal_issue                   2
_journal_name_full               'Acta Crystallographica Section C'
_journal_page_first
;
;
_journal_paper_doi               10.1107/S2053229615024833
_journal_volume                  72
_journal_year                    2016
_chemical_formula_iupac          'C12 H14 N2 2+, 2Cl -, 2H2 O'
_chemical_formula_moiety         'C12 H14 N2 2+, 2(Cl -), 2(H2 O)'
_chemical_formula_sum            'C12 H18 Cl2 N2 O2'
_chemical_formula_weight         293.18
_chemical_name_systematic
;
1,1'-(Ethylene-1,2-diyl)dipyridinium dichloride dihydrate
;
_space_group_IT_number           2
_symmetry_cell_setting           triclinic
_symmetry_space_group_name_Hall  '-P 1'
_symmetry_space_group_name_H-M   'P -1'
_audit_creation_method           'from EXP file using GSAS2CIF'
_cell_angle_alpha                104.3951(10)
_cell_angle_beta                 102.2340(10)
_cell_angle_gamma                97.2263(8)
_cell_formula_units_Z            1
_cell_length_a                   5.3844(5)
_cell_length_b                   7.3682(7)
_cell_length_c                   9.7405(9)
_cell_measurement_temperature    298
_cell_volume                     359.25(6)
_computing_data_collection
;
WinXPOW (Stoe & Cie, 1999)
;
_computing_data_reduction
;
WinXPOW (Stoe & Cie, 1999)
;
_computing_molecular_graphics
;
ORTEP-3 for Windows (Farrugia, 2012)
;
_computing_structure_refinement
;
GSAS (Larson & Von Dreele, 2004)
;
_computing_structure_solution
;
EXPO2014 (Altomare <i>et al.</i>,  2013)
;
_diffrn_ambient_temperature      298
_diffrn_measurement_device_type  'Stoe transmission STADI-P'
_diffrn_radiation_monochromator  'Ge 111'
_diffrn_radiation_type           'Cu K\a~1~'
_diffrn_radiation_wavelength     1.5406
_exptl_absorpt_coefficient_mu    4.043
_exptl_absorpt_correction_T_max  0.42070
_exptl_absorpt_correction_T_min  0.32345
_exptl_absorpt_process_details
;   GSAS Absorption/surface roughness correction: function number 4
 Flat plate transmission absorption correction
Terms =     0.56000         0.0000
Correction is not refined.
;
_exptl_crystal_density_diffrn    1.355
_exptl_crystal_F_000             154
_pd_block_id
2014-05-08T13:19|BIPYRETHCL2|Mwaffak_RUKIAH|stadip
_pd_calc_method                  'Rietveld Refinement'
_pd_char_colour                  light_brown
_pd_char_particle_morphology     'fine powder'
_pd_instr_dist_mono/spec         130
_pd_instr_dist_spec/detc         173
_pd_instr_dist_src/mono          260
_pd_meas_2theta_range_inc        0.02
_pd_meas_2theta_range_max        79.98
_pd_meas_2theta_range_min        6.0
_pd_meas_number_of_points        3700
_pd_meas_scan_method             step
_pd_phase_name                   BiPyrEthCl2
_pd_proc_2theta_range_inc        0.02
_pd_proc_2theta_range_max        79.98
_pd_proc_2theta_range_min        6.0
_pd_proc_info_datetime           2014-05-08T13:19:22
_pd_proc_ls_background_function
;   GSAS Background function number 1 with 20 terms.
 Shifted Chebyshev function of 1st kind
      1:    746.182     2:   -728.274     3:    262.549     4:   -17.4620
      5:   -27.4982     6:    2.25918     7:    23.4441     8:   -11.7577
      9:   -13.7218    10:    22.1644    11:   -8.15113    12:   -3.07390
     13:    6.41738    14:   -4.25520    15:    1.06054    16:    2.97031
     17:   0.782776    18:   -1.31641    19:   0.399884    20:   0.350968
;
_pd_proc_ls_peak_cutoff          0.00100
_pd_proc_ls_profile_function
;
CW Profile function number 4 with  27 terms
Pseudovoigt profile coefficients as parameterized in Thompson <i>et al.</i>
(1987.
Asymmetry correction of Finger <i>et al.</i> (1994).
Microstrain broadening by Stephens (1999).
Peak tails are ignored  where the intensity is below 0.0010 times the peak
Aniso. broadening axis   0.0   0.0   1.0
;
_pd_proc_ls_prof_R_factor        0.0296
_pd_proc_ls_prof_wR_expected     0.0332
_pd_proc_ls_prof_wR_factor       0.0395
_pd_proc_number_of_points        3700
_pd_spec_mounting                'Powder loaded into two Mylar foils'
_pd_spec_mount_mode              transmission
_pd_spec_shape                   flat_sheet
_pd_spec_size_axial              8
_pd_spec_size_equat              8
_refine_ls_goodness_of_fit_all   1.20
_refine_ls_hydrogen_treatment    noref
_refine_ls_matrix_type           full
_refine_ls_number_parameters     96
_refine_ls_number_restraints     0
_refine_ls_shift/su_max          0.02
_refine_ls_shift/su_mean         0.00
_refine_ls_weighting_scheme      sigma
_reflns_number_total             437
_iucr_refine_instructions_details
;
        VERSION   6
      DESCR   BiPyrEthCl2
    HSTRY  1 EXPGUI 1251 1251 (1 changes) -- 12/04/15 14:07:21
    HSTRY  2 POWPREF Win32  Dec 04 14:07:21 2015
  DSGL CDAT1  DRAD ARAD NOFO
  FOUR CDAT1  DELF Z    1 NOPR   0.00      999.99
  FOUR CDAT2  FOBS Z    1 NOPR   0.00      999.99
  GNLS  RUN on Dec 04 14:07:23 2015    Total cycles run 786       5229.8
  GNLS CDAT1  MXCY   0MARQ1.00
  GNLS SHFTS      0.02      0.00
 AFAC  C     2.310020.8439 1.020010.2075 1.5886  .5687  .865051.6512  .2156 RHF
 AFAC  C_    12.011 .6646       .0035
 AFAC  C_SIZ      1.12      0.92 1.60    3
 AFAC  C_XAB  288.3 170.4 84.13 10.67 7.054 52.30 141.0
 AFAC  C_XF1  0.036 0.027 0.018 0.003 0.002 0.049 0.024-0.001-0.001-0.001
 AFAC  C_XF2  0.021 0.015 0.009 0.002 0.001 0.031 0.012 0.000 0.000 0.000
 AFAC  H    .49300210.5109.32291226.1257.1401913.14236.04081057.7997.003038 SDS
 AFAC  H_     1.008-.3739  20.6  19.2
 AFAC  H_SIZ      0.98      0.78 1.20  118
 AFAC  H_XAB  .6888 .6700 .6548 .6238 .6131 .7240 .6640
 AFAC  H_XF1     0.    0.    0.    0.    0.    0.    0.    0.    0.    0.
 AFAC  H_XF2     0.    0.    0.    0.    0.    0.    0.    0.    0.    0.
 AFAC  N    12.2126  .0057 3.1322 9.8933 2.012528.9975 1.1663  .5826-11.529 RHF
 AFAC  N_    14.007  .936        1.90
 AFAC  N_SIZ      1.08      0.88 1.50    4 1.30
 AFAC  N_XAB  568.1 337.1 166.1 18.37 11.06 1000. 272.0
 AFAC  N_XF1  0.061 0.046 0.031 0.006 0.003 0.081 0.040-0.002-0.002-0.002
 AFAC  N_XF2  0.042 0.029 0.018 0.003 0.002 0.061 0.025 0.000 0.000 0.000
 AFAC  O     3.048513.2771 2.2868 5.7011 1.5463  .3239  .867032.9089  .2508 RHF
 AFAC  O_    15.999 .5803      .00019
 AFAC  O_SIZ      1.09      0.89 1.40   96 1.40
 AFAC  O_XAB  988.0 590.6 293.1 30.48 17.21 1730. 478.0
 AFAC  O_XF1  0.093 0.072 0.049 0.011 0.006 0.121 0.063-0.002-0.003-0.003
 AFAC  O_XF2  0.073 0.052 0.032 0.006 0.004 0.106 0.044 0.000 0.000 0.000
 AFAC CL-1  18.2915  .0066 7.2084 1.1717 6.533719.5424 2.338660.4486-16.378 RHF
 AFAC CL_    35.453 .9577        33.5
 AFAC CL_SIZ      1.70      1.50 1.80   57
 AFAC CL_XAB  18930 12050  6429 685.3 341.6 30100 9460.
 AFAC CL_XF1  0.351 0.392 0.364 0.148 0.100 0.183 0.389 0.003 0.002-0.004
 AFAC CL_XF2  1.422 1.060 0.702 0.158 0.098 1.938 0.920 0.013 0.012 0.009
 EXPR  HTYP1  PXC  RSN  ANG  FLT
 EXPR  NATYP    5
 EXPR  NHST     4
 EXPR ATYP 1  CL-1        1      1.70      1.50 1.80   57
 EXPR ATYP 2  C           6      1.129.200E-001 1.60    3
 EXPR ATYP 3  H           99.800E-0017.800E-001 1.20  118
 EXPR ATYP 4  N           1      1.088.800E-001 1.50    4 1.30
 EXPR ATYP 5  O           1      1.098.900E-001 1.40   96 1.40
 EXPR DELFRL      1133
 EXPR FOBSRL      1133
 EXPR NPHAS     1    0    0    0    0    0    0    0    0
 REFN GDNFT  Reduced CHI**2 =  1.452     for   96 variables
 REFN RESTR      31  13.244
 REFN RPOWD     0.0395    0.0296   3699  5229.8        0.0000    0.0000     0
 REFN STATS  Cycle 786 There were  3699 observations. Total CHI**2 = 5.2298E+03
CIF AUTHOR    Mwaffak RUKIAH
CRS1    PNAM  BiPyrEthCl2
CRS1   NATOM   18
CRS1  ABC     5.384359  7.368231  9.740511    Y    0
CRS1  ABCSIG  0.000509  0.000710  0.000919
CRS1  ANGLES  104.3951  102.2340   97.2263
CRS1  ANGSIG    0.0010    0.0010    0.0008
CRS1  AT  1A  CL-1      0.954397  0.725651  0.326845  1.000000CL1        2 000
CRS1  AT  1B  0.030570  0.037901  0.036317  0.007972  0.015379  0.016603  A XU
CRS1  AT  2A  C         0.515725  0.405234  0.451952  1.000000C1         2 000
CRS1  AT  2B  0.026748                                                    I XU
CRS1  AT  3A  H         0.493083  0.311098  0.507243  1.000000H1A        2 000
CRS1  AT  3B  0.035000                                                    I
CRS1  AT  4A  H         0.686949  0.412062  0.432096  1.000000H1B        2 000
CRS1  AT  4B  0.035000                                                    I
CRS1  AT  5A  N         0.315612  0.341846  0.311751  1.000000N1         2 000
CRS1  AT  5B  0.016821                                                    I XU
CRS1  AT  6A  C         0.092673  0.234163  0.304447  1.000000C2         2 000
CRS1  AT  6B  0.012312                                                    I XU
CRS1  AT  7A  H         0.065850  0.197882  0.386779  1.000000H2         2 000
CRS1  AT  7B  0.035000                                                    I
CRS1  AT  8A  C        -0.099124  0.174799  0.173559  1.000000C3         2 000
CRS1  AT  8B  0.022692                                                    I XU
CRS1  AT  9A  H        -0.252612  0.095908  0.166008  1.000000H3         2 000
CRS1  AT  9B  0.035000                                                    I
CRS1  AT 10A  C        -0.049956  0.227146  0.054861  1.000000C4         2 000
CRS1  AT 10B  0.023949                                                    I XU
CRS1  AT 11A  H        -0.177751  0.187913 -0.034425  1.000000H4         2 000
CRS1  AT 11B  0.035000                                                    I
CRS1  AT 12A  C         0.180518  0.337593  0.067026  1.000000C5         2 000
CRS1  AT 12B  0.027668                                                    I XU
CRS1  AT 13A  H         0.213994  0.376501 -0.013884  1.000000H5         2 000
CRS1  AT 13B  0.035000                                                    I
CRS1  AT 14A  C         0.365861  0.398585  0.197613  1.000000C6         2 000
CRS1  AT 14B  0.028886                                                    I XU
CRS1  AT 15A  H         0.521970  0.474061  0.205468  1.000000H6         2 000
CRS1  AT 15B  0.035000                                                    I
CRS1  AT 16A  O         0.469321  0.940858  0.282475  1.000000O1w        2 000
CRS1  AT 16B  0.026020  0.051423  0.075260  0.019791  0.027974  0.045441  A XU
CRS1  AT 17A  H         0.599452  0.895324  0.284361  1.000000H1w        2 000
CRS1  AT 17B  0.075000                                                    I
CRS1  AT 18A  H         0.421672  0.923463  0.352582  1.000000H2w        2 000
CRS1  AT 18B  0.075000                                                    I
CRS1  CELVOL        359.244          0.096
CRS1  CHMF 1  CL-1          1.00
CRS1  CHMF 2  C             6.00
CRS1  CHMF 3  H             9.00
CRS1  CHMF 4  N             1.00
CRS1  CHMF 5  O             1.00
CRS1  FMHST1  1
CRS1  FMPCTL   28   38   50    0    0    0   28   38   50
CRS1  OD        2    5    0    Y
CRS1  OD  1A   2  0 -2   2  0 -1   2  0  0   2  0  1   2  0  2
CRS1  OD  1B    0.0373    0.0004   -0.0409    0.0263    0.0460
CRS1  OD  1C0.6550E-020.8007E-020.8689E-020.9491E-020.5687E-02
CRS1  OD  2C0.8076E-020.1067E-010.1178E-010.1142E-010.1059E-010.1096E-01
CRS1  OD  3C0.8750E-020.1227E-01
CRS1  OD  4C0.1219E-010.1390E-010.1488E-010.1797E-010.1157E-010.1288E-01
CRS1  OD  5C0.1235E-010.1235E-010.1655E-01
CRS1  SG SYM  P -1
CRS1  SPAXIS    0    0    1
HAP1 1 ZONE     0    0    0    0
HAP1 1EXTPOW    0.00000E+00    N    0
HAP1 1NAXIS     1
HAP1 1PHSFR      1.0000        N    0
HAP1 1PRCF      4   27   0.00100     NNYNNNYYNNNNYYYYYYYYYYYYYYY
HAP1 1PRCF 1   0.000000E+00   0.000000E+00   0.107525E+02   0.000000E+00
HAP1 1PRCF 2   0.000000E+00   0.000000E+00   0.190243E+02  -0.170047E+01
HAP1 1PRCF 3   0.000000E+00   0.240000E-01   0.240000E-01   0.600000E+00
HAP1 1PRCF 4   0.360982E+00   0.171873E+00   0.264511E-01   0.110374E+00
HAP1 1PRCF 5   0.138150E+00   0.869360E-01   0.780636E-01   0.174630E-01
HAP1 1PRCF 6   0.960489E-01   0.962495E-01   0.146353E+00   0.502494E-01
HAP1 1PRCF 7   0.107411E+00   0.801053E-01   0.472917E-01
HAP1 1PREFO1  1.000000  1.000000  0.000000  0.000000  1.000000   NN    0    0
HAP1 1RADDAM    0.00000E+00    N    0      0.00
HST  1  HFIL  BiPyrEthCl2.gsa
HST  1  HNAM  BiPyrEthCl2
HST  1  IFIL  STADIP.PRM
HST  1 BANK     1
HST  1 BIGFO   0.242701E+06
HST  1 CHANS         0         1      3699  61466624      3700    0    0
HST  1 EPHAS    0    0    0    0    0    0    0    0    0    Y
HST  1 ICONR    1.5406    0.0000    0.0000               0.790    1     0.
HST  1 ICONS    1.5406    0.0000    0.0000               0.790    1     0.
HST  1 INAME  stadip
HST  1 IRAD     3
HST  1 MAXRF   67
HST  1 NEXC     2
HST  1 NFOBS  442    0    0    0    0    0    0    0    0
HST  1 NPHAS    1    0    0    0    0    0    0    0    0
HST  1 NREF   442    1.1986    Y    Y
HST  1 R-FAC  442   0.03816   7.502799E+05
HST  1 RPOWD    0.0395    0.0296   3699  5229.8        0.0000    0.0000    0
HST  1 TRNGE   6.00000  79.96000
HST  1 WREXP    0.0332
HST  1ABSCOR      0.5600000   0.0000000       N    0    4
HST  1BAKGD     1   20    Y    0    Y
HST  1BAKGD1   0.746182E+03  -0.728274E+03   0.262549E+03  -0.174620E+02
HST  1BAKGD2  -0.274982E+02   0.225918E+01   0.234441E+02  -0.117577E+02
HST  1BAKGD3  -0.137218E+02   0.221644E+02  -0.815113E+01  -0.307390E+01
HST  1BAKGD4   0.641738E+01  -0.425520E+01   0.106054E+01   0.297031E+01
HST  1BAKGD5   0.782776E+00  -0.131641E+01   0.399884E+00   0.350968E+00
HST  1CHI       0.0000
HST  1DETAZM    0.0000
HST  1EXC  1     0.000     0.000
HST  1EXC  2    79.980  1000.000
HST  1EXMNMX   1.00000   1.00000
HST  1HSCALE     498.43        Y    0
HST  1I HEAD  STOE STADI P Transmissiom Diffractometer
HST  1I ITYP    0    0.0000  180.0000         1
HST  1INAME   stadip
HST  1MNREF     0    1.1986
HST  1ODMNMX   0.93064   1.09610
HST  1OMEGA     0.0000    Y
HST  1PHI       0.0000
HST  1PRCF1     3   19   0.00100
HST  1PRCF11  0.000000E+000  0.000000E+000       4.000000  0.000000E+000
HST  1PRCF12       1.000000       0.500000       0.024000       0.024000
HST  1PRCF13  0.000000E+000  0.000000E+000  0.000000E+000  0.000000E+000
HST  1PRCF14  0.000000E+000  0.000000E+000  0.000000E+000  0.000000E+000
HST  1PRCF15  0.000000E+000  0.000000E+000  0.000000E+000
HST  1RSP    0.0227 0.0239 0.0233 0.0331 0.0387 0.0394 0.0441 0.0490 0.0503
HST  1RSPA   0.0239 0.0177 0.0198 0.0338 0.0387 0.0392 0.0420 0.0504 0.0514
HST  1RSPTT   6.00 14.20 22.42 30.64 38.86 47.08 55.30 63.52 71.74 79.96
HST  1RSPW   0.0284 0.0321 0.0319 0.0414 0.0485 0.0503 0.0551 0.0604 0.0629
HST  1RSPWA  0.0252 0.0189 0.0248 0.0408 0.0486 0.0474 0.0511 0.0632 0.0650
HST  1TRMNMX   0.32345   0.42070
HST  2  HNAM  Bond distance restraints
HST  2 FACTR       1.000000
HST  2 NBNDS    0
HST  2 RMSD     9    0.0067    4.08281
HST  3  HNAM  Bond angle restraints
HST  3 FACTR    1.00000
HST  3 NANGS    0
HST  3 RMSD    14    0.3039    5.17195
HST  4  HNAM  Planar group restraints
HST  4 FACTR    1.00000
HST  4 NPLNS    0
HST  4 RMSD     8    0.0060    3.98877
LNCN   1   1  1  2UISO  1.00001  3UISO  1.20001  4UISO  1.2000
LNCN   2   1  1  6UISO  1.00001  7UISO  1.2000
LNCN   3   1  1  8UISO  1.00001  9UISO  1.2000
LNCN   4   1  1 10UISO  1.00001 11UISO  1.2000
LNCN   5   1  1 12UISO  1.00001 13UISO  1.2000
LNCN   6   1  1 14UISO  1.00001 15UISO  1.2000
ORT1   NATOM    0
ZZZZZZZZZZZZ  Last EXP file record
    HSTRY  3 GENLES  Win32  Dec 04 14:07:23 2015
;
_cod_data_source_file            fa3378sup1.cif
_cod_data_source_block           I
_cod_original_cell_volume        359.24(10)
_cod_database_code               2020388
loop_
_symmetry_equiv_pos_site_id
_symmetry_equiv_pos_as_xyz
1 +x,+y,+z
-1 -x,-y,-z
loop_
_atom_site_aniso_label
_atom_site_aniso_U_11
_atom_site_aniso_U_22
_atom_site_aniso_U_33
_atom_site_aniso_U_12
_atom_site_aniso_U_13
_atom_site_aniso_U_23
CL1 0.031(3) 0.038(3) 0.036(3) 0.008(2) 0.015(2) 0.017(2)
O1w 0.026(5) 0.051(5) 0.075(6) 0.020(4) 0.028(5) 0.045(4)
loop_
_atom_site_type_symbol
_atom_site_label
_atom_site_fract_x
_atom_site_fract_y
_atom_site_fract_z
_atom_site_U_iso_or_equiv
_atom_site_thermal_displace_type
_atom_site_occupancy
_atom_site_symmetry_multiplicity
Cl CL1 0.9544(4) 0.7257(3) 0.3268(2) 0.03258 Uani 1.0 2
C C1 0.5157(16) 0.4052(9) 0.4520(8) 0.027(3) Uiso 1.0 2
H H1A 0.49308 0.3111 0.50724 0.035 Uiso 1.0 2
H H1B 0.68695 0.41206 0.4321 0.035 Uiso 1.0 2
N N1 0.3156(13) 0.3418(9) 0.3118(7) 0.017(3) Uiso 1.0 2
C C2 0.0927(19) 0.2342(11) 0.3044(8) 0.012(3) Uiso 1.0 2
H H2 0.06585 0.19788 0.38678 0.035 Uiso 1.0 2
C C3 -0.0991(15) 0.1748(11) 0.1736(11) 0.023(3) Uiso 1.0 2
H H3 -0.25261 0.09591 0.16601 0.035 Uiso 1.0 2
C C4 -0.0500(17) 0.2271(11) 0.0549(11) 0.024(4) Uiso 1.0 2
H H4 -0.17775 0.18791 -0.03443 0.035 Uiso 1.0 2
C C5 0.1805(19) 0.3376(12) 0.0670(10) 0.028(4) Uiso 1.0 2
H H5 0.21399 0.3765 -0.01388 0.035 Uiso 1.0 2
C C6 0.3659(15) 0.3986(11) 0.1976(10) 0.029(4) Uiso 1.0 2
H H6 0.52197 0.47406 0.20547 0.035 Uiso 1.0 2
O O1w 0.4693(9) 0.9409(7) 0.2825(5) 0.04227 Uani 1.0 2
H H1w 0.59945 0.89532 0.28436 0.075 Uiso 1.0 2
H H2w 0.42167 0.92346 0.35258 0.075 Uiso 1.0 2
loop_
_atom_type_symbol
_atom_type_number_in_cell
_atom_type_scat_Cromer_Mann_a1
_atom_type_scat_Cromer_Mann_a2
_atom_type_scat_Cromer_Mann_a3
_atom_type_scat_Cromer_Mann_a4
_atom_type_scat_Cromer_Mann_b1
_atom_type_scat_Cromer_Mann_b2
_atom_type_scat_Cromer_Mann_b3
_atom_type_scat_Cromer_Mann_b4
_atom_type_scat_Cromer_Mann_c
_atom_type_scat_dispersion_real
_atom_type_scat_dispersion_imag
_atom_type_scat_source
Cl-1 2.0 18.2915 0.00660 7.20840 1.17170 6.53370 19.5424 2.33860 60.4486
-16.378 0.000 0.000 International_Tables_Vol_C
C 12.0 2.31000 20.8439 1.02000 10.2075 1.58860 0.56870 0.86500 51.6512 0.21560
0.000 0.000 International_Tables_Vol_C
H 18.0 0.49300 10.5109 0.32291 26.1257 0.14019 3.14236 0.04081 57.7997 0.00304
0.000 0.000 International_Tables_Vol_C
N 2.0 12.2126 0.00570 3.13220 9.89330 2.01250 28.9975 1.16630 0.58260 -11.529
0.000 0.000 International_Tables_Vol_C
O 2.0 3.04850 13.2771 2.28680 5.70110 1.54630 0.32390 0.86700 32.9089 0.25080
0.000 0.000 International_Tables_Vol_C
loop_
_geom_angle_atom_site_label_1
_geom_angle_atom_site_label_2
_geom_angle_atom_site_label_3
_geom_angle_site_symmetry_1
_geom_angle_site_symmetry_3
_geom_angle
_geom_angle_publ_flag
C1 C1 H1A -1_666 1_555 106.1 n
C1 C1 H1B -1_666 1_555 112.1 n
C1 C1 N1 -1_666 1_555 111.4(8) y
H1A C1 H1B 1_555 1_555 109.3 n
H1A C1 N1 1_555 1_555 108.6 n
H1B C1 N1 1_555 1_555 109.2 n
C1 N1 C2 1_555 1_555 118.7(9) y
C1 N1 C6 1_555 1_555 118.3(8) y
C2 N1 C6 1_555 1_555 123.1(7) y
N1 C2 H2 1_555 1_555 120.2 n
N1 C2 C3 1_555 1_555 119.4(8) y
H2 C2 C3 1_555 1_555 120.4 n
C2 C3 H3 1_555 1_555 120.2 n
C2 C3 C4 1_555 1_555 118.5(8) y
H3 C3 C4 1_555 1_555 121.1 n
C3 C4 H4 1_555 1_555 119.5 n
C3 C4 C5 1_555 1_555 120.2(9) y
H4 C4 C5 1_555 1_555 120.3 n
C4 C5 H5 1_555 1_555 120.5 n
C4 C5 C6 1_555 1_555 120.7(10) y
H5 C5 C6 1_555 1_555 118.8 n
N1 C6 C5 1_555 1_555 118.1(8) y
N1 C6 H6 1_555 1_555 121.5 n
C5 C6 H6 1_555 1_555 120.4 n
H1w O1w H2w 1_555 1_555 104.6 n
loop_
_geom_bond_atom_site_label_1
_geom_bond_atom_site_label_2
_geom_bond_site_symmetry_2
_geom_bond_distance
_geom_bond_publ_flag
C1 C1 -1_666 1.527(11) y
C1 H1A 1_555 0.989 n
C1 H1B 1_555 0.979 n
C1 N1 1_555 1.475(8) y
N1 C2 1_555 1.331(7) y
C2 H2 1_555 0.939 n
C2 C3 1_555 1.391(9) y
C3 H3 1_555 0.927 n
C3 C4 1_555 1.372(8) y
C4 H4 1_555 0.941 n
C4 C5 1_555 1.361(10) y
C5 H5 1_555 0.946 n
C5 C6 1_555 1.371(10) y
C6 H6 1_555 0.925 n
C6 N1 1_555 1.347(8) y
O1w H1w 1_555 0.813 n
O1w H2w 1_555 0.811 n
loop_
_geom_hbond_atom_site_label_D
_geom_hbond_atom_site_label_H
_geom_hbond_atom_site_label_A
_geom_hbond_site_symmetry_A
_geom_hbond_distance_DH
_geom_hbond_distance_HA
_geom_hbond_distance_DA
_geom_hbond_angle_DHA
_geom_hbond_publ_flag
O1W H1W Cl1 . 0.81 2.43 3.229(6) 167 y
O1W H2W Cl1 1_455 0.81 2.67 3.183(6) 122 y
C2 H2 Cl1 -1_666 0.94 2.73 3.596(8) 153 y
C3 H3 O1W 1_445 0.93 2.40 3.231(10) 149 y
C4 H4 O1W -1_565 0.94 2.47 3.400(11) 172 y
C5 H5 Cl1 -1_665 0.95 2.88 3.648(8) 141 y
C6 H6 Cl1 . 0.92 2.63 3.509(9) 159 y
loop_
_geom_torsion_atom_site_label_1
_geom_torsion_atom_site_label_2
_geom_torsion_atom_site_label_3
_geom_torsion_atom_site_label_4
_geom_torsion_site_symmetry_3
_geom_torsion_site_symmetry_4
_geom_torsion
_geom_torsion_publ_flag
C2 N1 C1 C1 . -1_666 -89.2(9) y
C6 N1 C1 C1 . -1_666 89.6(9) y
C1 N1 C6 C5 . . 179.3(8) n
C1 N1 C2 C3 . . 179.3(7) n
C6 N1 C2 C3 . . 0.5(13) n
C2 N1 C6 C5 . . -1.9(13) n
N1 C1 C1 N1 -1_666 -1_666 -180.0(6) y
N1 C2 C3 C4 . . 1.0(13) n
C2 C3 C4 C5 . . -1.1(13) n
C3 C4 C5 C6 . . -0.2(14) n
C4 C5 C6 N1 . . 1.7(13) n

_cod_database_fobs_code 2020388
