#------------------------------------------------------------------------------
#$Date: 2017-09-28 10:58:00 +0300 (Thu, 28 Sep 2017) $
#$Revision: 201402 $
#$URL: file:///home/coder/svn-repositories/cod/cif/2/02/05/2020537.cif $
#------------------------------------------------------------------------------
#
# This file is available in the Crystallography Open Database (COD),
# http://www.crystallography.net/. The original data for this entry
# were provided by IUCr Journals, http://journals.iucr.org/.
#
# The file may be used within the scientific community so long as
# proper attribution is given to the journal article from which the
# data were obtained.
#
data_2020537
loop_
_publ_author_name
'Qin, Ying Lian'
'Yang, Bin Wu'
'Wang, Gao Feng'
'Sun, Hong'
_publ_section_title
;
 A cyanide-bridged heterometallic coordination polymer constructed from
 square-planar [Ni(CN)4](2-): synthesis, crystal structure, thermal
 decomposition, electron paramagnetic resonance (EPR) spectrum and
 magnetic properties.
;
_journal_coden_ASTM              ACSCGG
_journal_coeditor_code           OV3074
_journal_issue                   7
_journal_name_full
;
 Acta Crystallographica, Section C: Structural Chemistry
;
_journal_page_first              555
_journal_page_last               560
_journal_paper_doi               10.1107/S2053229616009372
_journal_volume                  72
_journal_year                    2016
_chemical_formula_iupac          '[Cu Ni (C N)4 (H2 O)2], H2 O'
_chemical_formula_moiety         'C4 H6 Cu N4 Ni O3'
_chemical_formula_sum            'C4 H6 Cu N4 Ni O3'
_chemical_formula_weight         280.38
_chemical_name_systematic
;
Poly[[diaquatetra-\m~2~-cyanido-\k^8^<i>C</i>:<i>N</i>-copper(II)nickel(II)]
monohydrate]
;
_space_group_crystal_system      orthorhombic
_space_group_IT_number           74
_space_group_name_Hall           '-I 2b 2'
_space_group_name_H-M_alt        'I m m a'
_symmetry_space_group_name_Hall  '-I 2b 2'
_symmetry_space_group_name_H-M   'I m m a'
_atom_sites_solution_hydrogens   difmap
_atom_sites_solution_primary     direct
_atom_sites_solution_secondary   difmap
_audit_creation_method           SHELXL-2014/7
_cell_angle_alpha                90
_cell_angle_beta                 90
_cell_angle_gamma                90
_cell_formula_units_Z            4
_cell_length_a                   14.1746(7)
_cell_length_b                   7.0724(4)
_cell_length_c                   8.8940(13)
_cell_measurement_reflns_used    1022
_cell_measurement_temperature    293(2)
_cell_measurement_theta_max      25.87
_cell_measurement_theta_min      2.70
_cell_volume                     891.61(15)
_computing_cell_refinement
;
SMART (Bruker, 2002)
;
_computing_data_collection
;
SMART (Bruker, 2002)
;
_computing_data_reduction
;
SAINT (Bruker, 2002)
;
_computing_molecular_graphics
;
DIAMOND (Brandenburg,2005)
;
_computing_publication_material
;
publCIF (Westrip, 2010) and PLATON (Spek, 2009)
;
_computing_structure_refinement
;
SHELXL2014 (Sheldrick, 2015b)
;
_computing_structure_solution
;
SHELXT (Sheldrick, 2015a)
;
_diffrn_ambient_temperature      293(2)
_diffrn_measured_fraction_theta_full 1.000
_diffrn_measured_fraction_theta_max 1.000
_diffrn_measurement_device_type  'Bruker APEX CCD'
_diffrn_measurement_method       '\f and \w'
_diffrn_radiation_type           MoK\a
_diffrn_radiation_wavelength     0.71073
_diffrn_reflns_av_R_equivalents  0.0197
_diffrn_reflns_limit_h_max       9
_diffrn_reflns_limit_h_min       -17
_diffrn_reflns_limit_k_max       8
_diffrn_reflns_limit_k_min       -5
_diffrn_reflns_limit_l_max       5
_diffrn_reflns_limit_l_min       -11
_diffrn_reflns_number            1152
_diffrn_reflns_theta_full        25.242
_diffrn_reflns_theta_max         26.363
_diffrn_reflns_theta_min         2.704
_exptl_absorpt_coefficient_mu    4.475
_exptl_absorpt_correction_T_max  0.2131
_exptl_absorpt_correction_T_min  0.1241
_exptl_absorpt_correction_type   multi-scan
_exptl_absorpt_process_details
;
(SADABS; Krause <i>et al.</i>, 2015)
;
_exptl_crystal_colour            blue
_exptl_crystal_density_diffrn    2.089
_exptl_crystal_description       block
_exptl_crystal_F_000             556
_exptl_crystal_size_max          0.280
_exptl_crystal_size_mid          0.270
_exptl_crystal_size_min          0.250
_refine_diff_density_max         0.765
_refine_diff_density_min         -0.457
_refine_ls_extinction_method     none
_refine_ls_goodness_of_fit_ref   1.022
_refine_ls_hydrogen_treatment    constr
_refine_ls_matrix_type           full
_refine_ls_number_parameters     40
_refine_ls_number_reflns         520
_refine_ls_number_restraints     0
_refine_ls_restrained_S_all      1.022
_refine_ls_R_factor_all          0.0413
_refine_ls_R_factor_gt           0.0340
_refine_ls_shift/su_max          0.000
_refine_ls_shift/su_mean         0.000
_refine_ls_structure_factor_coef Fsqd
_refine_ls_weighting_details
'w=1/[\s^2^(Fo^2^)+(0.0609P)^2^+3.4486P] where P=(Fo^2^+2Fc^2^)/3'
_refine_ls_weighting_scheme      calc
_refine_ls_wR_factor_gt          0.0962
_refine_ls_wR_factor_ref         0.1021
_reflns_number_gt                451
_reflns_number_total             520
_reflns_threshold_expression     'I > 2\s(I)'
_cod_data_source_file            ov3074sup1.cif
_cod_data_source_block           I
_cod_depositor_comments          'Adding full bibliography for 2020537.cif.'
_cod_database_code               2020537
_cod_database_fobs_code          2020537
#BEGIN Tags that were not found in dictionaries:
_shelx_space_group_comment
;
The symmetry employed for this shelxl refinement is uniquely defined
by the following loop, which should always be used as a source of
symmetry information in preference to the above space-group names.
They are only intended as comments.
;
_shelx_estimated_absorpt_t_min   0.367
_shelx_estimated_absorpt_t_max   0.401
_shelx_hkl_file
;
   0   0  -2  695.52    9.48
   0   0  -4  336.75    5.45
   0   0  -6    5.15    0.58
   0   0  -8    2.49    0.53
   0   0 -10    0.29    0.37
   0   1  -1    3.92    0.22
   0  -1  -1    3.59    0.24
   0   1  -3   13.47    0.65
   0   1   3   14.14    0.65
   0  -1  -3   14.44    0.67
   0  -1  -5  166.54    3.45
   0   1  -5  168.16    3.45
   0  -1  -7   49.84    1.97
   0   1  -7   56.20    2.05
   0   1  -9   39.66    1.98
   0   1 -11    1.55    0.60
   0   2   0  274.17    3.88
   0  -2   2    2.17    0.29
   0  -2  -2    1.07    0.24
   0   2   2    1.08    0.18
   0   2  -2    1.78    0.30
   0   2  -4   78.05    1.92
   0  -2  -4   70.99    1.65
   0   2  -6    1.26    0.35
   0   2  -8    5.83    0.72
   0   2 -10    1.85    0.61
   0  -3   1    3.00    0.29
   0   3  -1    3.23    0.28
   0   3  -3    6.85    0.48
   0   3   3    6.49    0.46
   0   3  -5   72.81    2.06
   0   3  -7   26.84    1.43
   0   3  -9   21.90    1.51
   0   4   0  415.54    6.07
   0   4   2  129.26    2.86
   0  -4   2  135.85    2.71
   0   4  -2  131.96    2.51
   0   4  -4   65.62    1.82
   0   4  -6    0.92    0.37
   0   4  -8   -0.13    0.34
   0   4 -10   -0.31    0.45
   0   5  -1    2.90    0.31
   0   5  -1    3.81    0.50
   0   5   1    3.42    0.49
   0   5   1    2.93    0.33
   0   5  -3   17.03    0.82
   0   5  -3   17.71    1.04
   0   5  -5   54.65    1.83
   0   5  -7   35.65    1.71
   0   5  -9   17.30    1.37
   0   6   0  218.06    4.63
   0   6   0  220.58    3.68
   0   6   2  102.23    2.86
   0   6  -2   99.99    2.84
   0   6   2   99.00    2.18
   0   6  -2  101.55    2.21
   0   6  -4   25.27    1.13
   0   6  -4   26.86    1.40
   0   6  -6    0.22    0.32
   0   6  -6   -0.31    0.38
   0   6  -8    0.46    0.37
   0   7  -1    1.96    0.52
   0   7   1    1.06    0.41
   0   7  -3    2.68    0.59
   0   7  -5   17.28    1.24
   0   7  -7   19.15    1.34
   0   8   0   21.99    1.46
   0   8  -2   14.55    1.21
   0   8  -4    6.30    0.86
   0   8  -6    1.36    0.54
  -1   0  -1   12.42    0.38
   1   0  -3  494.80    7.30
  -1   0  -3  497.66    7.24
   1   0  -5  112.15    2.66
  -1   0  -5  111.69    2.61
   1   0  -7   20.72    1.23
  -1   0  -7   21.42    1.23
  -1   0  -9    1.04    0.45
  -1   0 -11    1.88    0.68
   1  -1   0    0.18    0.10
  -1   1   0    0.08    0.09
   1   1   2  113.77    1.96
  -1   1  -2  110.40    2.05
  -1  -1  -2  113.46    1.96
  -1  -1  -2  109.79    1.78
   1   1  -2  108.99    1.99
  -1  -1  -4   55.60    1.55
   1   1  -4   54.16    1.56
  -1   1  -4   51.84    1.52
  -1   1  -6   28.43    1.32
   1   1  -6   27.12    1.29
  -1  -1  -6   26.73    1.27
  -1  -1  -8    1.02    0.46
   1   1  -8    0.87    0.40
  -1   1  -8    0.78    0.43
  -1   1 -10    1.59    0.53
   1   1 -10    1.56    0.53
   1   2   1    6.34    0.25
   1   2   1    6.39    0.39
  -1  -2   1    6.09    0.29
   1   2  -1    5.79    0.27
   1  -2   1    5.53    0.37
   1  -2  -1    5.98    0.42
  -1   2  -1    6.62    0.38
   1   2  -3   30.78    1.01
  -1  -2  -3   32.21    0.97
  -1  -2   3   30.52    1.01
   1   2   3   32.51    0.98
  -1   2   3   30.91    1.04
  -1   2  -3   29.65    1.03
  -1  -2  -5    1.47    0.28
  -1   2  -5    0.99    0.31
  -1  -2  -5    1.54    0.35
   1   2  -5    1.26    0.30
  -1  -2  -7    0.05    0.30
   1   2  -7    0.16    0.32
  -1   2  -7   -0.12    0.29
  -1   2  -9    2.14    0.57
   1   2  -9    1.92    0.57
   1   3   0    0.33    0.11
  -1   3   0    0.39    0.18
   1   3  -2   31.02    0.90
   1   3   2   31.90    1.07
  -1  -3   2   34.61    1.00
  -1   3  -2   34.59    1.06
   1   3   2   34.44    0.88
  -1   3  -2   33.09    1.10
   1  -3   2   34.96    1.13
  -1   3  -4   23.25    1.02
   1   3  -4   23.24    0.99
   1   3  -6   12.05    0.89
  -1   3  -6   12.24    0.90
  -1   3  -8   -0.14    0.35
   1   3  -8   -0.10    0.34
  -1   3 -10    0.67    0.48
   1   3 -10    1.02    0.50
  -1   4  -1    4.35    0.38
  -1  -4   1    3.67    0.31
   1   4  -1    4.16    0.28
   1  -4   1    3.33    0.39
   1   4   1    3.12    0.26
   1   4   1    4.15    0.44
  -1   4   1    3.57    0.35
  -1   4  -3   56.44    1.60
   1   4   3   54.61    1.67
   1   4  -3   55.65    1.47
  -1   4  -3   56.28    1.71
   1   4   3   56.72    1.40
  -1   4  -5   20.89    1.09
   1   4  -5   20.91    1.05
   1   4  -7    2.53    0.50
  -1   4  -7    1.69    0.49
   1   4  -9   -0.13    0.41
  -1   4  -9    1.46    0.51
  -1   5   0    0.04    0.24
  -1   5   0    0.22    0.18
   1   5   0    0.00    0.12
  -1   5   2   23.87    1.00
   1   5   2   25.58    1.20
   1   5  -2   25.09    0.86
   1   5   2   23.49    0.82
   1   5   2   26.32    0.80
  -1   5  -2   25.14    1.19
  -1   5  -2   25.86    1.01
  -1  -5   2   25.48    1.04
  -1   5  -4   26.61    1.17
   1   5  -4   27.12    1.13
  -1   5  -4   27.42    1.27
  -1   5  -6    8.57    0.80
   1   5  -6    7.63    0.75
  -1   5  -6    8.24    0.76
   1   5  -8   -0.18    0.34
  -1   5  -8    0.53    0.41
   1   5 -10    1.47    0.58
  -1   6  -1    6.42    0.50
   1   6   1    5.38    0.66
   1   6   1    6.11    0.36
  -1   6   1    6.34    0.51
   1   6  -1    6.23    0.38
  -1   6   1    6.12    0.71
   1   6  -1    6.43    0.69
  -1   6  -1    6.50    0.70
   1   6  -3   34.62    1.21
  -1   6  -3   36.28    1.61
  -1   6  -3   37.14    1.33
  -1   6   3   36.50    1.42
   1   6  -3   34.70    1.61
   1   6   3   32.87    1.16
  -1   6  -5   21.09    1.16
   1   6  -5   20.24    1.09
  -1   6  -5   22.90    1.31
   1   6  -7    1.64    0.48
  -1   6  -7    1.87    0.49
  -1   6  -7    2.86    0.54
   1   6  -9   -0.28    0.42
  -1   6  -9    0.20    0.42
   1   7   0   -0.01    0.37
  -1   7   0   -0.15    0.35
   1   7   2   10.87    1.01
   1   7  -2   11.91    1.01
  -1   7  -2   12.06    1.01
   1   7  -4   16.41    1.21
  -1   7  -4   16.60    1.20
   1   7  -6    4.78    0.74
  -1   7  -6    4.37    0.68
   1   8   1    0.61    0.45
   1   8  -1    0.68    0.48
  -1   8  -1    1.00    0.52
  -1   8  -3    2.99    0.69
   1   8  -3    2.21    0.60
   1   8  -5    2.11    0.53
  -1   8  -5    2.18    0.59
  -2   0   0   10.85    0.37
  -2   0  -2    1.14    0.21
  -2   0  -4  123.14    2.57
  -2   0  -6   81.38    2.35
  -2   0  -8   58.93    2.26
  -2   0 -10    9.70    1.15
  -2  -1  -1  632.44    8.36
   2   1   1  632.18    8.37
   2  -1   1  632.74    8.49
  -2   1  -1  633.07    8.72
  -2  -1   1  634.59    8.45
  -2  -1   3  197.12    3.49
   2   1   3  205.02    3.39
  -2   1  -3  203.64    3.52
  -2  -1  -3  203.40    3.40
   2   1  -3  200.03    3.49
  -2  -1  -5   21.16    0.60
  -2   1  -5   19.79    1.00
   2   1  -5   20.70    1.02
  -2  -1  -5   19.19    0.96
  -2   1  -7   -0.08    0.27
  -2  -1  -7   -0.40    0.31
   2   1  -7    0.17    0.29
  -2  -1  -9    0.38    0.48
  -2   1  -9   -0.02    0.40
  -2  -1 -11   -0.35    0.44
  -2   1 -11    0.53    0.58
  -2   2   0    3.43    0.32
   2  -2   0    2.69    0.31
  -2   2  -2    0.12    0.17
  -2  -2  -2    0.05    0.11
   2   2  -2    0.09    0.14
   2  -2   2    0.18    0.17
   2   2   2    0.15    0.12
  -2   2  -2    0.14    0.17
  -2  -2   2    0.22    0.15
   2   2   2    0.30    0.18
   2   2  -4   78.70    1.96
  -2   2  -4   75.71    2.00
  -2  -2  -4   78.25    1.88
  -2   2  -6   62.59    2.05
  -2  -2  -6   60.28    1.97
   2   2  -6   62.86    2.03
  -2   2  -8   45.61    2.00
   2   2  -8   47.27    2.04
  -2  -2  -8   41.95    1.93
  -2   2 -10    8.30    1.05
   2   3   1  184.45    2.56
  -2  -3   1  178.43    2.83
  -2   3  -1  193.26    3.30
   2  -3   1  192.47    3.35
   2   3  -1  185.76    2.73
  -2  -3   3   75.13    1.77
   2   3  -3   76.56    1.75
   2   3   3   78.22    1.65
  -2   3  -3   77.59    1.95
   2   3   3   77.12    1.81
  -2   3  -3   78.19    1.84
  -2   3  -5   15.14    0.93
   2   3  -5   15.58    0.90
  -2   3  -7    0.07    0.29
   2   3  -7    0.01    0.30
   2   3  -9    1.46    0.56
  -2   3  -9    0.93    0.43
   2   4   0    4.35    0.17
  -2   4   0    5.51    0.44
  -2   4  -2    2.99    0.36
   2   4  -2    2.32    0.25
   2   4   2    2.54    0.20
   2   4   2    2.77    0.39
  -2   4  -2    2.10    0.35
  -2  -4   2    2.88    0.31
  -2   4  -4   48.31    1.61
   2   4  -4   49.31    1.50
  -2   4  -4   48.90    1.56
  -2   4  -6   43.99    1.77
  -2   4  -6   45.40    1.52
   2   4  -6   41.14    1.65
  -2   4  -8   29.03    1.69
   2   4  -8   29.95    1.63
  -2   4 -10    6.69    1.00
   2   4 -10    6.07    0.91
  -2   5   1  211.63    3.69
  -2   5  -1  215.13    4.06
   2   5  -1  210.89    2.96
   2   5   1  216.24    4.11
  -2   5  -1  219.42    3.70
   2   5   1  210.45    2.74
   2   5   3   77.66    1.63
  -2   5  -3   75.15    2.06
   2   5  -3   72.28    1.78
  -2   5  -3   74.56    2.19
   2   5   3   77.55    2.22
  -2   5  -5    8.49    0.74
  -2   5  -5    8.07    0.73
   2   5  -5    8.27    0.67
  -2   5  -7   -0.33    0.33
   2   5  -7   -0.38    0.37
  -2   5  -7    0.62    0.36
  -2   5  -9    0.22    0.46
   2   5  -9    0.66    0.49
  -2   6   0    0.23    0.23
  -2   6   0   -0.69    0.41
   2   6   0   -0.25    0.30
   2   6  -2    0.41    0.16
   2   6   2    0.68    0.35
  -2   6   2   -0.01    0.23
  -2   6  -2    0.37    0.37
  -2   6  -2    0.57    0.31
  -2   6  -4   21.01    1.12
  -2   6  -4   22.57    1.27
   2   6  -4   21.33    0.98
  -2   6  -6   26.47    1.44
   2   6  -6   25.72    1.34
  -2   6  -6   30.24    1.49
  -2   6  -8   21.06    1.45
   2   6  -8   20.63    1.40
  -2   7  -1   63.85    1.89
  -2   7  -1   64.25    2.36
   2   7  -1   61.46    2.32
   2   7   1   60.16    2.28
  -2   7  -3   23.10    1.15
  -2   7  -3   23.84    1.40
   2   7  -3   23.22    1.44
   2   7   3   24.09    1.41
   2   7  -5    4.37    0.75
  -2   7  -5    3.04    0.53
  -2   7  -5    4.28    0.68
   2   8   0   -0.27    0.43
   2   8  -2    1.16    0.50
   2   8   2    1.79    0.56
  -2   8  -2    1.51    0.54
  -2   8  -4    8.69    0.95
   2   8  -4    9.36    1.02
   2   8  -6   12.07    1.16
  -2   8  -6   14.46    1.24
  -3   0  -1    8.19    0.40
  -3   0  -3    1.75    0.29
  -3   0  -5    6.55    0.58
  -3   0  -7    1.10    0.40
  -3   0  -9    1.10    0.44
  -3   0 -11    1.21    0.58
  -3  -1   0    0.46    0.13
  -3   1   0    0.25    0.19
   3   1   2   76.24    1.51
  -3   1  -2   73.68    1.67
  -3  -1  -2   71.75    1.46
  -3  -1   2   71.38    1.54
   3  -1   2   72.83    1.32
  -3   1  -4   82.75    1.40
  -3   1  -4   78.72    2.01
  -3  -1  -4   81.50    1.98
  -3  -1  -6   14.98    0.96
  -3   1  -6   17.34    1.03
  -3   1  -6   13.66    0.42
  -3   1  -8   -0.22    0.30
  -3  -1  -8    0.24    0.38
  -3  -1 -10    2.33    0.65
  -3   1 -10    2.55    0.68
  -3  -2   1   57.02    1.03
  -3   2  -1   53.32    1.41
   3   2   1   51.47    0.94
  -3  -2  -1   53.60    0.91
   3  -2   1   56.14    1.35
  -3  -2  -3  121.24    2.25
   3   2  -3  120.10    2.36
   3   2   3  116.58    2.23
  -3   2  -3  118.67    2.58
   3   2   3  117.30    2.12
  -3   2  -3  118.70    2.16
  -3  -2   3  114.38    2.32
  -3  -2  -5   93.37    2.35
   3   2  -5   94.48    2.43
  -3   2  -5   97.40    1.86
  -3   2  -5   94.14    2.49
  -3  -2  -7    6.39    0.71
  -3   2  -7    7.15    0.79
   3   2  -7    6.37    0.74
  -3   2  -7    6.47    0.40
  -3  -2  -9   -0.17    0.37
  -3   2  -9    0.05    0.41
  -3   3   0    0.66    0.23
  -3   3  -2   15.94    0.74
   3   3   2   16.84    0.50
   3   3  -2   17.40    0.61
  -3   3  -2   15.72    0.80
  -3  -3   2   17.35    0.62
  -3   3  -4   23.25    1.09
  -3  -3  -4   22.04    0.90
  -3   3  -4   21.51    0.86
   3   3  -4   22.01    0.96
   3   3  -6    2.26    0.46
  -3   3  -6    2.64    0.48
  -3  -3  -6    1.61    0.38
  -3   3  -6    1.99    0.31
  -3   3  -8    1.03    0.45
   3   3  -8    0.48    0.36
  -3   3 -10    2.77    0.68
  -3   4   1    9.30    0.63
  -3   4  -1   10.77    0.66
  -3   4  -1   11.52    0.71
  -3   4  -3   16.84    0.92
   3   4   3   16.91    0.61
  -3   4  -3   17.62    0.89
   3   4   3   16.48    0.87
  -3  -4   3   16.93    0.77
   3   4  -3   15.55    0.72
  -3   4  -5   16.61    0.87
  -3   4  -5   15.89    1.00
   3   4  -5   15.91    0.91
  -3   4  -7   -0.51    0.37
   3   4  -7    0.26    0.32
  -3   4  -7   -0.48    0.28
   3   4  -9    0.65    0.46
  -3   4  -9    0.42    0.39
  -3   5   0   -0.32    0.27
  -3   5  -2   31.97    1.25
  -3  -5   2   25.61    0.92
  -3   5  -2   30.27    1.29
   3   5   2   29.78    1.30
  -3   5   2   29.40    1.26
   3   5  -2   27.91    0.83
  -3   5  -4   45.27    1.67
   3   5   4   44.74    1.65
   3   5  -4   45.77    1.45
  -3   5  -4   45.81    1.66
  -3   5  -6   13.63    1.01
  -3   5  -6   12.94    0.88
   3   5  -6   12.17    0.90
   3   5  -8    0.39    0.37
  -3   5  -8    0.68    0.41
  -3   6   1    5.59    0.58
  -3   6  -1    4.51    0.51
   3   6   1    4.71    0.58
  -3   6  -1    4.83    0.61
  -3   6  -3   11.99    0.84
  -3   6  -3   10.90    0.87
   3   6   3   10.96    0.87
  -3   6   3   11.76    0.89
  -3   6  -5    8.95    0.82
  -3   6  -5   10.06    0.85
  -3   6  -7    1.17    0.46
  -3   6  -9   -0.21    0.40
  -3   7   0   -0.04    0.25
   3   7   0   -0.42    0.36
   3   7  -2    4.30    0.69
  -3   7   2    4.10    0.57
   3   7   2    4.11    0.60
  -3   7  -2    5.13    0.72
  -3   7  -2    4.09    0.51
  -3   7  -4    5.65    0.65
  -3   7  -4    6.17    0.80
  -3   7  -6    0.75    0.46
  -3   7  -6    0.48    0.35
   3   8  -1    3.61    0.69
   3   8   1    4.14    0.68
   3   8   3   16.18    1.27
  -3   8  -3   16.62    1.30
   3   8  -3   16.02    1.30
  -3   8  -5   13.24    1.18
   3   8  -5   13.52    1.22
  -4   0   0  268.82    4.21
   4   0   2    9.02    0.52
  -4   0  -2    9.03    0.50
  -4   0  -4   62.18    1.72
  -4   0  -6    1.87    0.41
  -4   0  -8    3.40    0.60
  -4   0 -10    2.94    0.71
  -4  -1  -1    2.58    0.24
   4   1   1    2.19    0.23
  -4   1  -1    2.97    0.35
  -4  -1  -3   13.81    0.65
  -4   1  -3   13.55    0.73
   4   1   3   13.44    0.66
  -4  -1  -5   93.38    2.40
  -4   1  -5  101.55    2.53
  -4  -1  -7   42.42    1.82
  -4   1  -7   46.83    1.88
  -4   1  -9   26.65    1.66
  -4  -1  -9   28.82    1.68
  -4  -1 -11    1.47    0.66
  -4  -2   0  995.92   13.06
  -4   2   0 1000.00   13.85
  -4  -2  -2  327.29    4.80
   4   2   2  335.09    4.82
  -4   2  -2  323.74    5.39
   4  -2   2  327.88    5.08
  -4  -2   2  329.43    4.94
  -4  -2  -4  115.83    2.46
  -4   2  -4  116.67    2.73
   4   2   4  115.94    2.05
  -4   2  -6   -0.03    0.25
  -4  -2  -6    0.47    0.28
  -4  -2  -8    0.59    0.40
  -4   2  -8    0.83    0.45
  -4  -2 -10   -0.01    0.41
  -4   2 -10    0.83    0.49
  -4  -3   1    2.99    0.19
  -4   3   1    3.01    0.39
  -4   3  -1    3.39    0.40
   4   3   3   22.86    0.77
  -4  -3   3   19.79    0.80
  -4   3  -3   19.24    1.02
   4   3   3   21.24    0.86
  -4  -3  -3   22.55    0.77
  -4   3  -5   83.03    2.42
  -4   3  -5   87.31    1.96
  -4  -3  -5   81.39    2.15
  -4   3  -7   50.19    2.02
  -4  -3  -7   46.26    1.88
  -4   3  -9   24.20    1.63
  -4   4   0  208.42    3.93
  -4  -4   2   92.51    1.56
  -4   4  -2   94.37    2.15
  -4   4  -4   35.57    1.28
  -4   4  -4   31.92    1.41
   4   4   4   35.00    1.28
  -4   4  -6    0.92    0.37
   4   4  -6    0.72    0.33
  -4   4  -6    0.77    0.32
  -4   4  -8   -0.39    0.33
  -4   5  -1   -0.13    0.25
  -4   5   1    0.39    0.26
   4   5   3    6.89    0.64
  -4   5  -3    4.86    0.55
  -4   5  -3    5.58    0.58
  -4   5  -5   30.14    1.47
  -4   5  -5   30.69    1.33
   4   5  -5   30.86    1.29
  -4   5  -7   23.17    1.46
  -4   5  -9   10.45    1.19
  -4   6   0   88.03    2.45
  -4   6   2   45.32    1.75
   4   6   2   46.03    1.81
  -4   6  -2   47.67    1.71
  -4   6  -4   13.95    1.00
   4   6   4   15.66    1.05
  -4   6  -4   15.97    1.05
  -4   6  -6    0.62    0.39
  -4   6  -6    1.63    0.44
  -4   6  -8    0.65    0.48
   4   7  -1    1.22    0.49
  -4   7   1    1.32    0.38
   4   7   1    2.22    0.48
  -4   7  -1    1.34    0.38
  -4   7  -3    9.95    0.84
   4   7   3    8.55    0.86
  -4   7   3    7.53    0.81
  -4   7  -5   19.80    1.31
  -4   7  -5   21.09    1.34
  -4   7  -7   14.91    1.23
   4   8   0   88.99    3.04
   4   8  -2   59.10    2.49
   4   8   2   55.35    2.35
   4   8  -4   11.42    1.16
  -5   0  -1   39.49    1.14
   5   0   1   39.04    1.14
  -5   0  -3   88.51    2.08
  -5   0  -5    0.26    0.24
  -5   0  -7    1.28    0.38
  -5   0  -9    1.01    0.46
  -5  -1   0    0.47    0.18
  -5   1   0    0.51    0.23
   5   1   2   55.67    1.40
  -5  -1  -2   52.69    1.33
  -5   1  -2   51.21    1.48
  -5  -1  -4   12.15    0.71
  -5   1  -4   12.45    0.77
  -5  -1  -6   18.15    1.08
  -5   1  -6   21.73    1.18
  -5  -1  -8    1.68    0.46
  -5   1  -8    1.98    0.52
  -5  -1 -10    0.51    0.50
  -5   1 -10   -0.58    0.49
  -5  -2  -1    0.59    0.15
   5   2   1    0.80    0.16
  -5   2  -1    0.06    0.27
   5  -2   3  173.48    3.12
  -5  -2  -3  181.21    3.14
  -5   2  -3  179.03    3.57
   5   2   3  176.15    3.16
  -5  -2  -5   24.77    1.13
  -5   2  -5   25.40    1.25
  -5  -2  -7    7.03    0.77
  -5   2  -7    7.51    0.82
  -5  -2  -9    1.31    0.52
  -5   2  -9    1.91    0.59
  -5  -2 -11    1.57    0.60
  -5   3   0    0.45    0.29
  -5  -3   2   77.09    1.60
  -5   3  -2   80.27    2.15
  -5  -3  -2   78.64    1.46
   5   3   2   78.10    1.47
  -5   3  -4   60.41    1.98
   5   3   4   61.68    1.57
  -5  -3  -4   62.43    1.64
  -5   3  -6   30.50    1.50
  -5  -3  -6   33.11    1.41
  -5  -3  -8    0.32    0.33
  -5   3  -8    0.06    0.36
  -5   3 -10    0.56    0.55
  -5   4  -1    0.45    0.23
  -5   4   1    0.74    0.30
  -5  -4   3   49.20    1.38
   5   4   3   53.86    1.63
  -5   4  -3   54.04    1.81
   5   4   3   49.86    1.15
  -5   4  -5   11.92    0.94
  -5   4  -7    2.16    0.55
  -5   4  -9    1.54    0.53
  -5   5   0    0.32    0.25
  -5   5  -2    7.78    0.69
  -5   5   2    7.98    0.76
   5   5   4    4.75    0.56
  -5   5  -4    5.53    0.64
  -5   5  -6    2.56    0.55
  -5   5  -8    0.57    0.45
  -5   6   1    0.44    0.28
  -5   6  -1    0.14    0.26
  -5   6  -3    9.65    0.83
   5   6   3    9.51    0.83
  -5   6   3    9.68    0.94
  -5   6  -5    2.61    0.54
  -5   6  -7    0.24    0.36
   5   7   0    0.12    0.43
  -5   7   0    0.51    0.32
  -5   7   2   10.98    0.93
  -5   7  -2   11.00    0.89
   5   7   2   11.98    1.02
  -5   7  -4   13.68    1.06
   5   7   4   14.33    1.10
  -5   7   4   15.70    1.26
  -5   7  -6    3.57    0.65
   5   8  -1    3.57    0.76
   5   8   1    3.22    0.62
   5   8   3   17.58    1.32
  -6   0   0   11.27    0.65
  -6   0  -2   11.37    0.64
  -6   0  -4   27.96    1.17
  -6   0  -6   58.08    2.01
  -6   0  -8   29.32    1.63
  -6   0 -10    5.14    0.88
  -6  -1  -1  205.86    3.49
  -6   1  -1  205.33    3.80
   6   1   1  203.52    3.56
  -6  -1  -3  109.47    2.36
  -6   1  -3  107.84    2.53
   6  -1   3  108.54    1.98
  -6  -1  -5    7.72    0.66
  -6   1  -5    8.60    0.73
  -6  -1  -7    1.60    0.47
  -6   1  -7    2.06    0.49
  -6  -1  -9    0.49    0.40
  -6   1  -9    0.65    0.47
  -6   2   0    0.74    0.30
  -6  -2   0    0.35    0.19
  -6  -2  -2   23.85    0.81
  -6   2  -2   24.38    1.11
   6   2   2   23.55    0.84
  -6  -2  -4   50.14    1.52
  -6   2  -4   52.36    1.81
  -6  -2  -6   73.21    2.28
  -6   2  -6   72.64    2.37
  -6  -2  -8   36.24    1.80
  -6   2  -8   34.54    1.84
  -6  -2 -10    8.32    1.07
  -6   2 -10    8.78    1.06
  -6  -3  -1  448.63    6.13
  -6   3  -1  444.00    7.33
  -6  -3   1  450.69    6.29
  -6   3   1  438.04    7.38
  -6  -3  -3  172.29    3.00
  -6   3  -3  161.01    3.67
   6   3   3  170.89    3.03
  -6  -3  -5    6.84    0.61
   6   3   5    6.80    0.48
  -6   3  -5    6.99    0.72
  -6  -3  -7    0.01    0.31
  -6   3  -7    0.89    0.49
  -6  -3  -9    1.22    0.53
  -6   3  -9    1.10    0.52
  -6   4   0    3.62    0.50
  -6  -4   2    2.26    0.31
  -6   4   2    1.85    0.40
  -6   4  -2    0.86    0.28
  -6   4  -4   20.74    1.24
  -6  -4  -4   20.97    0.86
   6   4   4   22.31    1.01
  -6   4  -6   42.80    1.93
  -6  -4  -6   43.27    1.64
  -6   4  -8   26.98    1.69
  -6   5   1   42.22    1.73
  -6   5  -1   45.79    1.74
  -6   5  -3   22.54    1.23
   6   5   3   20.34    1.10
   6   5   5    5.07    0.57
  -6   5  -5    4.74    0.70
  -6   5  -7    1.53    0.51
  -6   6   0    0.87    0.32
  -6   6   2    3.89    0.62
  -6   6  -2    3.59    0.55
   6   6   2    5.35    0.66
  -6   6  -4   15.87    1.13
   6   6   4   17.93    1.14
  -6   6  -6   17.50    1.29
  -6   6  -8    9.51    1.13
  -6   7  -1   94.87    2.85
   6   7   1   94.48    3.04
  -6   7   1   97.18    2.95
  -6   7  -3   37.11    1.77
   6   7   3   35.82    1.75
  -6   7   3   36.37    1.84
  -6   7  -5    1.82    0.53
  -6   7   5    3.47    0.69
  -6   7  -7    0.07    0.41
   6   8   0   -0.01    0.46
   6   8   2   -0.41    0.41
   6   8   4    7.27    0.89
  -7   0  -1   36.72    1.26
  -7   0  -3   46.02    1.51
  -7   0  -5   52.06    1.81
  -7   0  -7    2.66    0.52
  -7   0  -9   -0.04    0.38
  -7  -1   0    0.13    0.18
  -7   1   0    0.09    0.23
  -7  -1  -2   18.70    0.84
  -7   1  -2   17.48    0.92
  -7  -1  -4   28.30    1.18
  -7   1  -4   26.12    1.26
   7  -1   4   27.04    0.76
  -7  -1  -6    1.83    0.45
  -7   1  -6    2.50    0.46
  -7  -1  -8    0.71    0.45
  -7   1  -8    0.41    0.40
  -7  -1 -10    2.34    0.67
  -7   1 -10    1.82    0.61
  -7  -2  -1   17.92    0.72
  -7   2  -1   17.98    0.97
  -7   2   1   18.22    1.00
  -7  -2  -3   16.68    0.79
  -7   2  -3   16.50    0.98
  -7  -2  -5   21.87    1.11
  -7   2  -5   22.01    1.22
   7   2   5   19.82    0.63
  -7  -2  -7   -0.18    0.30
  -7   2  -7    0.47    0.37
  -7  -2  -9    0.44    0.41
  -7   2  -9    0.16    0.38
  -7  -3   0    0.22    0.14
  -7   3   0   -0.05    0.26
  -7  -3  -2   61.08    1.36
  -7   3  -2   54.50    1.90
   7   3   2   59.98    1.38
  -7  -3   2   52.89    1.42
  -7  -3  -4   89.39    2.14
  -7   3  -4   85.99    2.60
  -7  -3  -6   20.23    1.14
  -7   3  -6   20.50    1.29
  -7  -3  -8    1.58    0.52
  -7   3  -8    0.88    0.47
  -7  -3 -10    1.79    0.63
  -7  -4   1   12.81    0.42
  -7   4  -1   15.59    1.00
  -7   4   1   14.12    0.94
  -7   4  -3   25.92    1.35
  -7  -4  -3   24.67    0.80
  -7   4  -5   26.91    1.50
   7   4   5   28.27    1.14
  -7  -4  -5   27.90    1.19
  -7   4  -7    1.88    0.55
  -7   4  -9    0.22    0.44
  -7   5   0    0.47    0.33
  -7   5   2    2.62    0.52
  -7   5  -2    2.41    0.46
   7   5   4    3.23    0.49
  -7   5  -4    2.58    0.53
  -7   5  -6    0.39    0.36
  -7   5  -8    1.25    0.51
  -7   6   1    4.41    0.63
  -7   6  -1    3.56    0.55
  -7   6  -3    8.33    0.82
  -7   6   3    8.18    0.90
   7   6   3    8.66    0.82
  -7   6  -5    7.79    0.88
   7   6   5    8.62    0.80
  -7   6  -7    0.01    0.42
  -7   7   0    0.09    0.34
  -7   7  -2   13.62    1.08
   7   7   2   10.83    0.99
  -7   7   2   11.74    1.04
  -7   7  -4   20.29    1.36
   7   7   4   18.29    1.24
  -7   7   4   19.86    1.48
  -7   7  -6    7.25    0.90
   7   8   1    1.27    0.43
   7   8   3    5.66    0.82
  -8   0   0  333.15    5.67
  -8   0  -2  208.77    4.05
  -8   0  -4   44.72    1.63
  -8   0  -6    1.88    0.41
  -8   0  -8    0.68    0.34
  -8   0 -10    0.90    0.57
  -8   1  -1    1.66    0.35
  -8  -1  -1    1.27    0.30
  -8   1   1    1.18    0.32
  -8  -1  -3   21.94    1.03
  -8   1  -3   21.64    1.11
  -8  -1  -5   52.43    1.83
  -8   1  -5   51.45    1.93
  -8  -1  -7   47.12    1.98
  -8   1  -7   47.17    2.02
  -8  -1  -9   14.95    1.30
  -8   1  -9   15.10    1.36
  -8  -2   0  212.48    3.70
  -8   2   0  207.64    4.32
  -8  -2  -2  141.62    2.80
  -8   2  -2  140.65    3.33
  -8  -2  -4   26.80    1.16
  -8   2  -4   28.02    1.38
  -8  -2  -6    1.67    0.46
  -8   2  -6    2.67    0.52
  -8  -2  -8    0.21    0.36
  -8   2  -8   -0.40    0.39
  -8  -2 -10    1.43    0.63
  -8  -3  -1    0.05    0.15
  -8   3   1   -0.13    0.28
  -8  -3   1    0.24    0.15
  -8   3  -1    0.22    0.27
  -8  -3  -3   12.08    0.66
  -8   3  -3   10.37    0.87
  -8  -3  -5   39.62    1.52
  -8   3  -5   39.38    1.78
   8   3   5   37.13    1.16
  -8  -3  -7   39.06    1.81
  -8   3  -7   36.03    1.87
  -8   3  -9   14.54    1.35
  -8  -3  -9   13.83    1.34
  -8  -4   0  134.21    2.10
  -8   4   0  151.64    3.53
  -8  -4  -2   99.61    1.78
  -8   4  -2  110.41    3.02
  -8   4   2  106.97    3.04
  -8   4  -4   21.33    1.29
  -8   4  -6    1.79    0.56
  -8   4  -8   -0.30    0.38
  -8   5  -1    0.58    0.35
  -8   5   1    0.29    0.35
  -8   5  -3   11.48    0.97
  -8   5   3   11.85    1.07
  -8   5  -5   24.66    1.54
   8   5   5   25.37    1.22
  -8   5  -7   21.16    1.53
  -8   6   0   80.93    2.71
  -8   6  -2   58.53    2.25
  -8   6   2   57.66    2.35
  -8   6  -4   11.26    1.03
  -8   6   4   11.11    1.10
   8   6   4    9.48    0.84
  -8   6  -6    0.45    0.46
  -8   7  -1    0.23    0.36
  -8   7   1   -0.26    0.38
  -8   7  -3    3.44    0.63
   8   7   3    4.29    0.71
  -8   7   3    2.63    0.62
  -8   7  -5   11.65    1.12
  -8   7   5   14.87    1.39
   8   8   0   35.32    2.10
  -8   8   0   38.24    1.97
  -8   8  -2   24.03    1.53
   8   8   2   23.29    1.61
   8   8   4    3.66    0.69
  -8   8  -4    3.87    0.67
  -9   0   1    0.54    0.35
  -9   0  -1    0.36    0.31
  -9   0  -3   66.63    2.06
  -9   0  -5    7.27    0.73
  -9   0  -7    1.41    0.43
  -9   0  -9    1.75    0.57
  -9   1   0    0.45    0.35
  -9  -1   0    0.29    0.26
  -9  -1  -2   43.26    1.46
  -9   1  -2   43.56    1.66
  -9  -1  -4   34.07    1.41
  -9   1  -4   33.39    1.52
   9  -1   4   32.74    1.01
  -9  -1  -6   17.74    1.16
  -9   1  -6   17.61    1.19
  -9  -1  -8   -0.06    0.37
  -9   1  -8    0.60    0.44
  -9  -1 -10    0.42    0.47
  -9   2  -1    0.21    0.27
  -9  -2  -1    0.24    0.21
  -9   2   1   -0.17    0.29
  -9  -2   1    0.37    0.25
  -9  -2  -3   60.43    1.80
  -9   2  -3   59.66    2.08
  -9  -2  -5   15.12    1.01
  -9   2  -5   13.95    1.08
  -9  -2  -7    2.88    0.53
  -9   2  -7    2.43    0.57
  -9  -2  -9    0.51    0.43
  -9   2  -9    0.17    0.40
  -9   3   0    0.18    0.29
  -9  -3   0    0.31    0.17
  -9  -3  -2   10.65    0.62
  -9   3  -2    9.25    0.83
  -9   3   2    9.26    0.86
  -9   3  -4    4.27    0.63
  -9  -3  -4    5.32    0.55
  -9  -3  -6    2.24    0.53
  -9   3  -6    1.99    0.56
  -9  -3  -8    1.31    0.47
  -9   3  -8    0.52    0.40
  -9   4   1    1.27    0.40
  -9   4  -1    0.52    0.35
  -9   4  -3   20.60    1.29
  -9   4  -5    5.60    0.77
  -9   4  -7    0.68    0.43
  -9   5   0    0.25    0.38
  -9   5  -2   24.02    1.43
  -9   5   2   21.78    1.38
  -9   5  -4   27.86    1.62
   9   5   4   32.03    1.42
  -9   5  -6   12.05    1.16
  -9   6   1    1.93    0.54
  -9   6  -1    2.30    0.55
  -9   6  -3   17.98    1.29
   9   6   3   20.61    1.29
  -9   6   3   17.83    1.36
  -9   6   5    9.47    1.12
  -9   6  -5    7.91    0.96
  -9   7   0    1.39    0.52
  -9   7  -2    3.20    0.62
  -9   7   2    3.56    0.71
   9   7   2    4.77    0.78
  -9   7   4    2.29    0.63
   9   7   4    3.38    0.62
  -9   7  -4    3.55    0.70
  -9   8  -1    1.26    0.52
   9   8   1    1.24    0.56
  -9   8   1    0.07    0.43
  -9   8  -3    4.92    0.82
   9   8   3    6.15    0.89
 -10   0   0    4.36    0.56
 -10   0  -2   30.73    1.36
 -10   0  -4   24.52    1.30
 -10   0  -6   71.39    2.47
 -10   0  -8   26.13    1.64
 -10  -1  -1  229.90    4.43
 -10   1  -1  225.38    4.72
 -10   1   1  232.02    4.82
 -10  -1   1  229.27    4.49
 -10  -1  -3  107.24    2.72
 -10   1  -3  108.13    2.95
 -10  -1  -5    2.82    0.53
 -10   1  -5    2.85    0.52
 -10  -1  -7    0.86    0.44
 -10   1  -7    0.62    0.40
 -10  -1  -9    1.26    0.58
 -10   1  -9   -0.25    0.41
 -10  -2   0   10.17    0.67
 -10   2   0   10.94    0.90
 -10  -2  -2    7.63    0.62
 -10   2  -2    6.75    0.72
 -10   2   2    8.83    0.86
 -10   2  -4    8.55    0.83
 -10  -2  -4    9.94    0.78
 -10  -2  -6   43.48    1.90
 -10   2  -6   43.84    2.01
 -10  -2  -8   20.26    1.46
 -10   2  -8   16.90    1.37
 -10  -2 -10    5.80    0.94
 -10  -3  -1   50.21    1.47
 -10   3  -1   45.91    1.92
 -10  -3   1   46.78    1.44
 -10   3   1   46.02    1.92
 -10  -3  -3   33.72    1.31
 -10   3  -3   31.94    1.61
 -10  -3  -5    3.54    0.54
 -10   3  -5    2.64    0.58
 -10   3  -7    3.70    0.69
 -10   4   0    0.08    0.33
 -10   4  -2    9.78    0.95
 -10   4   2    9.87    0.95
 -10   4  -4   15.85    1.22
 -10   4  -6   31.05    1.83
 -10   5  -1  158.16    4.15
 -10   5   1  156.89    4.14
 -10   5  -3   61.64    2.45
 -10   5   3   62.72    2.57
 -10   5  -5    1.38    0.53
 -10   5  -7   -0.31    0.40
 -10   6   0    2.11    0.50
 -10   6  -2    0.28    0.34
 -10   6   2    0.49    0.46
 -10   6  -4    9.86    1.05
 -10   6   4    9.30    1.13
 -10   7  -1   19.82    1.44
 -10   7   1   21.74    1.54
 -10   7  -3    9.00    0.98
 -10   7   3    8.42    1.06
  10   7   3   10.57    1.05
 -10   7   5    1.22    0.61
 -10   8   0    1.20    0.57
 -10   8  -2    1.87    0.59
 -10   8   2    0.60    0.50
 -11   0  -1    8.16    0.74
 -11   0   1    8.88    0.76
 -11   0  -3   43.39    1.75
 -11   0  -5   25.18    1.40
 -11   0  -7    1.09    0.49
 -11   0  -9    0.03    0.42
 -11  -1   0   -0.14    0.26
 -11   1   0   -0.30    0.33
 -11  -1  -2   29.42    1.33
 -11   1  -2   27.20    1.42
 -11   1   2   29.61    1.52
 -11  -1  -4   34.07    1.54
 -11   1  -4   34.51    1.65
 -11  -1  -6   11.26    0.98
 -11   1  -6   10.77    1.00
 -11  -1  -8   -0.03    0.40
 -11   1  -8   -0.06    0.37
 -11  -2   1    3.35    0.45
 -11  -2  -1    3.09    0.42
 -11   2   1    3.68    0.58
 -11   2  -1    3.71    0.58
 -11  -2  -3   18.55    1.07
 -11   2  -3   18.69    1.24
 -11  -2  -5   12.01    0.98
 -11   2  -5   11.77    1.07
 -11  -2  -7    0.67    0.42
 -11   2  -7    0.40    0.37
 -11  -2  -9    0.77    0.47
 -11   3   0   -0.42    0.36
 -11  -3   0    0.18    0.22
 -11  -3   2    3.78    0.47
 -11   3  -2    3.68    0.60
 -11   3   2    3.55    0.62
 -11  -3  -2    3.65    0.44
 -11   3  -4    5.24    0.71
 -11  -3  -4    3.29    0.53
 -11   3  -6    0.13    0.43
 -11   3  -8    1.70    0.63
 -11   4  -1    3.75    0.66
 -11   4   1    3.77    0.67
 -11   4  -3   12.29    1.08
 -11   4   3   14.04    1.21
 -11   4  -5    9.54    1.09
 -11   4  -7   -0.29    0.41
 -11   5   0   -0.15    0.36
 -11   5  -2   19.34    1.39
 -11   5   2   19.74    1.41
 -11   5  -4   30.26    1.78
 -11   5   4   31.52    1.92
 -11   5  -6    8.94    1.12
 -11   6   1    4.99    0.80
 -11   6  -1    3.15    0.66
 -11   6  -3   13.03    1.18
 -11   6   3   12.47    1.22
 -11   6   5   10.07    1.24
 -11   6  -5    9.74    1.13
 -11   7   0   -0.01    0.45
 -11   7   2    2.56    0.64
 -11   7  -2    3.21    0.73
 -12   0   0  207.02    4.54
 -12   0  -2  163.51    3.90
 -12   0   2  162.56    4.01
 -12   0  -4   19.99    1.26
 -12   0  -6   -0.09    0.35
 -12   0  -8    1.51    0.56
 -12  -1   1   -0.02    0.29
 -12   1   1    0.76    0.43
 -12  -1  -1   -0.07    0.30
 -12   1  -1    0.10    0.39
 -12  -1  -3   10.76    0.87
 -12   1  -3    8.92    0.88
 -12  -1  -5   27.53    1.49
 -12   1  -5   25.86    1.56
 -12  -1  -7   38.59    1.94
 -12   1  -7   33.68    1.89
 -12  -1  -9    9.13    1.14
 -12  -2   0   67.65    2.05
 -12   2   0   64.84    2.40
 -12  -2  -2   65.98    2.07
 -12   2  -2   68.35    2.49
 -12   2   2   67.15    2.52
 -12  -2   2   64.31    2.14
 -12  -2  -4    9.75    0.85
 -12   2  -4    9.64    0.98
 -12  -2  -6    3.75    0.68
 -12   2  -6    2.78    0.62
 -12  -2  -8    0.16    0.43
 -12   2  -8    0.92    0.53
 -12  -3  -1    0.84    0.31
 -12  -3   1    0.99    0.29
 -12   3  -1    1.45    0.51
 -12   3   1    0.73    0.42
 -12   3  -3   11.96    1.09
 -12   3   3   10.93    1.08
 -12   3  -5   20.33    1.51
 -12   3  -7   21.68    1.61
 -12   4   0   82.60    2.92
 -12   4  -2   65.07    2.59
 -12   4   2   67.28    2.63
 -12   4  -4   10.04    1.06
 -12   4   4   12.78    1.24
 -12   4  -6    0.71    0.41
 -12   5   1    0.74    0.42
 -12   5  -1   -0.43    0.42
 -12   5  -3    4.44    0.75
 -12   5   3    4.58    0.79
 -12   5  -5   16.51    1.43
 -12   5   5   17.02    1.54
 -12   6   0   56.73    2.54
 -12   6  -2   43.16    2.18
 -12   6   2   43.98    2.28
 -12   6  -4    4.91    0.83
 -12   6   4    6.14    0.94
 -12   7  -1   -0.23    0.45
 -12   7   1   -0.33    0.48
 -13   0   1    6.91    0.76
 -13   0  -1    6.59    0.76
 -13   0  -3   41.95    1.87
 -13   0  -5   30.88    1.66
 -13   0  -7    5.72    0.84
 -13  -1   0   -0.03    0.30
 -13   1   0    0.07    0.32
 -13  -1  -2   12.08    0.94
 -13   1  -2   12.88    1.06
 -13   1   2   11.52    1.05
 -13  -1   2   13.32    1.02
 -13  -1  -4   16.62    1.18
 -13   1  -4   15.88    1.19
 -13  -1  -6    3.73    0.65
 -13   1  -6    4.61    0.76
 -13  -1  -8   -0.18    0.43
 -13   1  -8   -0.51    0.45
 -13   2   1    2.30    0.58
 -13  -2  -1    1.61    0.41
 -13  -2   1    1.86    0.40
 -13   2  -1    2.15    0.53
 -13   2  -3    6.79    0.85
 -13   2   3    7.54    0.90
 -13  -2  -3    7.05    0.74
 -13  -2  -5    3.01    0.57
 -13   2  -5    1.85    0.52
 -13   2  -7   -0.07    0.45
 -13   3   0    0.58    0.41
 -13   3  -2   14.92    1.24
 -13   3   2   13.62    1.19
 -13   3   4   22.18    1.62
 -13   3  -4   19.14    1.44
 -13   3  -6    5.34    0.87
 -13   4   1    4.57    0.75
 -13   4  -1    3.23    0.66
 -13   4  -3   15.20    1.32
 -13   4   3   16.82    1.38
 -13   4  -5   10.85    1.19
 -13   5   0   -0.50    0.46
 -13   5  -2    4.70    0.79
 -13   5   2    4.74    0.84
 -13   5  -4    4.56    0.79
 -13   5   4    3.66    0.77
 -13   6   1    1.25    0.58
 -13   6  -1    2.64    0.69
 -14   0   0    6.77    0.78
 -14   0  -2    2.82    0.53
 -14   0   2    3.00    0.60
 -14   0  -4    6.60    0.79
 -14   0  -6   26.26    1.64
 -14  -1  -1   69.86    2.43
 -14   1  -1   73.00    2.69
 -14  -1   1   70.70    2.46
 -14   1   1   71.82    2.70
 -14  -1  -3   36.53    1.73
 -14   1  -3   36.71    1.86
 -14   1   3   35.20    1.90
 -14  -1   3   37.16    1.83
 -14  -1  -5    2.00    0.52
 -14   1  -5    2.04    0.55
 -14  -1  -7    0.58    0.49
 -14   1  -7    0.68    0.53
 -14   2   0    0.22    0.34
 -14  -2   0   -0.01    0.31
 -14   2  -2    9.12    1.01
 -14  -2  -2   10.17    0.88
 -14   2   2    8.46    0.96
 -14  -2   2    9.64    0.87
 -14   2   4   12.50    1.24
 -14  -2  -4   11.46    1.01
 -14   2  -4   11.83    1.16
 -14   2  -6   30.11    1.89
 -14   3  -1  105.07    3.54
 -14   3   1  102.65    3.47
 -14   3  -3   44.21    2.26
 -14   3   3   46.58    2.32
 -14   3  -5    2.35    0.67
 -14   4   0    1.27    0.53
 -14   4  -2    0.96    0.48
 -14   4   2    1.16    0.58
 -14   4  -4    6.20    0.88
 -14   4   4    6.37    0.97
 -14   5  -1   25.04    1.73
 -14   5   1   29.01    1.85
 -14   5   3   12.95    1.31
 -14   5  -3   12.79    1.29
 -15   0   1    1.09    0.47
 -15   0  -1   -0.24    0.35
 -15   0  -3    8.82    0.93
 -15   0   3    9.08    0.98
 -15   0  -5    1.40    0.51
 -15   0  -7    0.47    0.42
 -15   1   0    0.50    0.42
 -15  -1   0    1.88    0.55
 -15  -1   2    7.72    0.83
 -15  -1  -2    7.58    0.81
 -15   1   2    8.26    0.95
 -15   1  -2    8.96    0.99
 -15   1  -4    5.89    0.81
 -15   1   4    6.85    0.97
 -15  -1  -4    6.43    0.82
 -15  -1  -6    2.88    0.65
 -15   1  -6    2.12    0.68
 -15  -2   1    1.49    0.42
 -15  -2  -1    2.17    0.50
 -15   2   1    2.61    0.68
 -15   2  -1    2.28    0.62
 -15   2  -3   29.37    1.82
 -15  -2   3   28.08    1.57
 -15   2   3   27.36    1.82
 -15   2  -5    9.75    1.14
 -15   3   0   -1.25    0.61
 -15   3  -2   14.65    1.33
 -15   3   2   15.04    1.32
 -15   3  -4   16.24    1.46
 -15   3   4   18.65    1.59
 -15   4   1    0.75    0.42
 -15   4  -1    0.35    0.44
 -15   4  -3    9.33    1.10
 -15   4   3   11.80    1.24
 -16   0   0   22.20    1.45
 -16   0  -2   17.22    1.28
 -16   0   2   16.83    1.31
 -16   0  -4    5.84    0.81
 -16   0   4    4.93    0.80
 -16   0  -6    1.96    0.60
 -16  -1   1   -0.25    0.39
 -16  -1  -1    0.13    0.35
 -16   1   1   -0.27    0.41
 -16   1  -1    0.75    0.44
 -16  -1  -3    3.91    0.63
 -16   1  -3    3.92    0.71
 -16  -1   3    4.54    0.69
 -16   1   3    4.92    0.83
 -16  -1  -5   12.87    1.20
 -16   1  -5   15.24    1.41
 -16   1   5   15.99    1.52
 -16   2   0  113.06    3.77
 -16   2  -2   72.31    2.98
 -16   2   2   72.53    3.04
 -16   2   4   13.49    1.37
 -16   2  -4   11.62    1.25
 -16   3   1   -0.40    0.44
 -16   3  -1    0.07    0.47
 -16   3  -3    3.54    0.79
 -16   3   3    3.42    0.79
 -17   0   1    0.86    0.42
 -17   0  -1    0.73    0.48
 -17   0  -3    0.46    0.42
 -17   0   3    0.59    0.46
 -17   0   5    0.73    0.53
 -17   0  -5    0.39    0.42
 -17  -1   0   -0.14    0.42
 -17   1   0   -0.20    0.45
 -17  -1  -2    6.31    0.81
 -17   1  -2    4.26    0.75
 -17  -1   2    5.78    0.83
 -17   1   2    5.10    0.86
 -17   1  -4    8.62    1.07
 -17  -1   4    9.13    1.05
 -17   1   4    9.57    1.14
 -17   2   1    5.81    0.86
 -17   2  -1    4.40    0.79
 -17   2  -3   14.92    1.40
 -17   2   3   17.32    1.48
 -18   0   0    0.65    0.52
 -18   0  -2    2.79    0.65
 -18   0   2    3.99    0.79
 -18   0  -4    8.35    1.06
 -18   1  -1   37.26    2.14
 -18  -1   1   39.35    2.04
 -18   1   1   40.12    2.20
 -18   1  -3   15.73    1.42
 -18  -1   3   16.99    1.42
 -19   0  -1    1.81    0.66
 -19   0   1    1.38    0.56
   0   0   0    0.00    0.00
;
_shelx_hkl_checksum              72117
_shelx_res_file
;
    i.res created by SHELXL-2014/7
TITL I in Imma
CELL 0.71073 14.1746 7.0724 8.894 90 90 90
ZERR 4 0.0007 0.0004 0.0013 0 0 0
LATT 2
SYMM -X,0.5-Y,+Z
SYMM +X,-Y,-Z
SYMM -X,0.5+Y,-Z
SFAC C H Cu N Ni O
UNIT 16 24 4 16 4 12
L.S. 20
ACTA
bond $h
FMAP 2
PLAN 9
HTAB O1W N1_$1
EQIV $1 -x+1/2, y+1/2, z+1/2
HTAB O2W O1W_$2
EQIV $2 -x+1, -y+3/2, z
SIZE 0.28 0.27 0.25
dfix O1W cu1 2.5
SHEL 999 0.8
TEMP 20(2)
WGHT    0.060900    3.448600
FVAR       0.11218
NI1   5    0.500000    0.250000    0.686928    10.25000    0.00888    0.01422 =
         0.04179    0.00000    0.00000    0.00000
CU1   3    0.250000    0.750000    0.750000    10.25000    0.01307    0.01805 =
         0.04296    0.00000    0.00097    0.00000
C1    1    0.406425    0.435302    0.693505    11.00000    0.01729    0.01981 =
         0.04214    0.00111    0.00262   -0.00124
N1    4    0.348412    0.545801    0.707558    11.00000    0.01863    0.02331 =
         0.05602    0.00067    0.00238    0.00418
O1W   6    0.293097    0.750000    0.982147    10.50000    0.03115    0.08331 =
         0.04138    0.00000   -0.00250    0.00000
AFIX   3
H1WA  2    0.255977    0.840330    1.036827    11.00000   -1.50000
AFIX   6
O2W   6    0.500000    0.750000    0.969960    10.25000    0.03809    0.19961 =
         0.05459    0.00000    0.00000    0.00000
AFIX   3
H2WA  2    0.544740    0.750000    0.906330    10.50000   -1.50000
AFIX   0
HKLF 4
REM  I in Imma
REM R1 =  0.0355 for     451 Fo > 4sig(Fo)  and  0.0428 for all     520 data
REM     40 parameters refined using      1 restraints
END
WGHT      0.0469      3.8156
REM Highest difference peak  0.769,  deepest hole -0.526,  1-sigma level  0.126
Q1    1   0.5000  0.1402  0.6967  10.50000  0.05    0.77
Q2    1   0.2999  0.6000  0.7359  11.00000  0.05    0.46
Q3    1   0.2862  0.8129  0.9456  11.00000  0.05    0.45
Q4    1   0.5000  0.2500  0.7951  10.25000  0.05    0.40
Q5    1   0.5000  0.6462  1.0293  10.50000  0.05    0.39
Q6    1   0.5000  0.4294  0.8509  10.50000  0.05    0.37
Q7    1   0.3672  0.5698  0.6845  11.00000  0.05    0.37
Q8    1   0.3604  0.7500  0.9946  10.50000  0.05    0.35
Q9    1   0.5486  0.7500  0.9905  10.50000  0.05    0.33
;
_shelx_res_checksum              23271
#END Tags that were not found in dictionaries
loop_
_space_group_symop_operation_xyz
'x, y, z'
'-x, -y+1/2, z'
'x, -y, -z'
'-x, y+1/2, -z'
'x+1/2, y+1/2, z+1/2'
'-x+1/2, -y+1, z+1/2'
'x+1/2, -y+1/2, -z+1/2'
'-x+1/2, y+1, -z+1/2'
'-x, -y, -z'
'x, y-1/2, -z'
'-x, y, z'
'x, -y-1/2, z'
'-x+1/2, -y+1/2, -z+1/2'
'x+1/2, y, -z+1/2'
'-x+1/2, y+1/2, z+1/2'
'x+1/2, -y, z+1/2'
loop_
_atom_site_type_symbol
_atom_site_label
_atom_site_fract_x
_atom_site_fract_y
_atom_site_fract_z
_atom_site_U_iso_or_equiv
_atom_site_adp_type
_atom_site_calc_flag
_atom_site_occupancy
Ni Ni1 0.5000 0.2500 0.68692(12) 0.0217(3) Uani d 1
Cu Cu1 0.2500 0.7500 0.7500 0.0247(3) Uani d 1
C C1 0.4065(3) 0.4353(5) 0.6935(5) 0.0265(8) Uani d 1
N N1 0.3484(2) 0.5458(5) 0.7075(4) 0.0328(8) Uani d 1
O O1W 0.2928(3) 0.7500 0.9799(6) 0.0517(13) Uani d 1
H H1WA 0.2557 0.8403 1.0346 0.078 Uiso d 1
O O2W 0.5000 0.7500 0.9706(10) 0.098(4) Uani d 1
H H2WA 0.5447 0.7500 0.9070 0.147 Uiso d 1
loop_
_atom_site_aniso_label
_atom_site_aniso_U_11
_atom_site_aniso_U_22
_atom_site_aniso_U_33
_atom_site_aniso_U_12
_atom_site_aniso_U_13
_atom_site_aniso_U_23
Ni1 0.0089(5) 0.0142(5) 0.0418(7) 0.000 0.000 0.000
Cu1 0.0131(5) 0.0181(5) 0.0430(7) 0.000 0.0009(4) 0.000
C1 0.0174(16) 0.0199(17) 0.042(2) -0.0013(15) 0.0025(15) 0.0013(17)
N1 0.0186(15) 0.0232(16) 0.057(2) 0.0043(14) 0.0025(15) 0.0006(17)
O1W 0.031(2) 0.084(4) 0.040(3) 0.000 -0.003(2) 0.000
O2W 0.038(4) 0.200(12) 0.056(6) 0.000 0.000 0.000
loop_
_atom_type_symbol
_atom_type_description
_atom_type_scat_dispersion_real
_atom_type_scat_dispersion_imag
_atom_type_scat_source
C C 0.0033 0.0016 'International Tables Vol C Tables 4.2.6.8 and 6.1.1.4'
H H 0.0000 0.0000 'International Tables Vol C Tables 4.2.6.8 and 6.1.1.4'
Cu Cu 0.3201 1.2651 'International Tables Vol C Tables 4.2.6.8 and 6.1.1.4'
N N 0.0061 0.0033 'International Tables Vol C Tables 4.2.6.8 and 6.1.1.4'
Ni Ni 0.3393 1.1124 'International Tables Vol C Tables 4.2.6.8 and 6.1.1.4'
O O 0.0106 0.0060 'International Tables Vol C Tables 4.2.6.8 and 6.1.1.4'
loop_
_geom_angle_atom_site_label_1
_geom_angle_atom_site_label_2
_geom_angle_atom_site_label_3
_geom_angle_site_symmetry_1
_geom_angle_site_symmetry_3
_geom_angle
C1 Ni1 C1 11_655 12_565 176.4(3)
C1 Ni1 C1 11_655 2_655 89.3(2)
C1 Ni1 C1 12_565 2_655 90.6(2)
C1 Ni1 C1 11_655 . 90.6(2)
C1 Ni1 C1 12_565 . 89.3(2)
C1 Ni1 C1 2_655 . 176.4(3)
N1 Cu1 N1 . 12_575 89.98(19)
N1 Cu1 N1 . 8_546 90.02(19)
N1 Cu1 N1 12_575 8_546 180.0
N1 Cu1 N1 . 13_566 180.00(19)
N1 Cu1 N1 12_575 13_566 90.02(19)
N1 Cu1 N1 8_546 13_566 89.98(19)
N1 Cu1 O1W . . 89.04(14)
N1 Cu1 O1W 12_575 . 89.04(14)
N1 Cu1 O1W 8_546 . 90.96(14)
N1 Cu1 O1W 13_566 . 90.96(14)
N1 Cu1 O1W . 13_566 90.96(14)
N1 Cu1 O1W 12_575 13_566 90.96(14)
N1 Cu1 O1W 8_546 13_566 89.04(14)
N1 Cu1 O1W 13_566 13_566 89.04(14)
O1W Cu1 O1W . 13_566 180.0
N1 C1 Ni1 . . 175.4(4)
C1 N1 Cu1 . . 174.9(4)
Cu1 O1W H1WA . . 109.2
loop_
_geom_bond_atom_site_label_1
_geom_bond_atom_site_label_2
_geom_bond_site_symmetry_2
_geom_bond_distance
Ni1 C1 11_655 1.865(4)
Ni1 C1 12_565 1.865(4)
Ni1 C1 2_655 1.865(4)
Ni1 C1 . 1.865(4)
Cu1 N1 . 2.043(3)
Cu1 N1 12_575 2.043(3)
Cu1 N1 8_546 2.043(3)
Cu1 N1 13_566 2.043(3)
Cu1 O1W . 2.133(5)
Cu1 O1W 13_566 2.133(5)
C1 N1 . 1.142(6)
O1W H1WA . 0.9599
O2W H2WA . 0.8500
loop_
_geom_hbond_atom_site_label_D
_geom_hbond_atom_site_label_H
_geom_hbond_atom_site_label_A
_geom_hbond_site_symmetry_A
_geom_hbond_distance_DH
_geom_hbond_distance_HA
_geom_hbond_distance_DA
_geom_hbond_angle_DHA
O2W H2WA O1W 2_665 0.85 2.39 2.938(4) 122.5
O1W H1WA N1 15 0.96 2.58 3.532(5) 172.1
