#------------------------------------------------------------------------------
#$Date: 2019-12-25 21:33:43 +0200 (Wed, 25 Dec 2019) $
#$Revision: 245750 $
#$URL: file:///home/coder/svn-repositories/cod/cif/2/02/18/2021863.cif $
#------------------------------------------------------------------------------
#
# This file is available in the Crystallography Open Database (COD),
# http://www.crystallography.net/. The original data for this entry
# were provided by IUCr Journals, http://journals.iucr.org/.
#
# The file may be used within the scientific community so long as
# proper attribution is given to the journal article from which the
# data were obtained.
#
data_2021863
loop_
_publ_author_name
'Arakcheeva, Alla'
'Svitlyk, Volodymyr'
'Polini, Eleonora'
'Henry, Laura'
'Chernyshov, Dmitry'
'Sienkiewicz, Andrzej'
'Giriat, Ga\'etan'
'Glushkova, Anastasiia'
'Kollar, Marton'
'N\'afr\'adi, B\'alint'
'Forro, Laszlo'
'Horv\'ath, Endre'
_publ_section_title
;
 Pressure-induced transformation of CH3NH3PbI3: the role of the noble-gas
 pressure transmitting media
;
_journal_coeditor_code           DK5077SUP1
_journal_issue                   3
_journal_name_full
'Acta Crystallographica Section B Structural Science, Crystal Engineering and Materials'
_journal_page_first              361
_journal_paper_doi               10.1107/S2052520619004554
_journal_volume                  75
_journal_year                    2019
_chemical_formula_moiety         'I3 Pb1, (C N), 1.337(Ar)'
_chemical_formula_sum            'C H6 Ar1.337 I3 N Pb'
_chemical_formula_weight         673.4
_chemical_name_common            Ar-MAPbI3
_chemical_name_systematic        ' argon methylammonium lead iodide'
_chemical_properties_physical    Pressure-sensitive
_space_group_IT_number           106
_space_group_name_Hall           'P 4c -2ab'
_space_group_name_H-M_alt        'P 42 b c'
_symmetry_cell_setting           tetragonal
_symmetry_Int_Tables_number      106
_symmetry_space_group_name_Hall  'P 4c -2ab'
_symmetry_space_group_name_H-M   'P 42 b c'
_cell_angle_alpha                90
_cell_angle_beta                 90
_cell_angle_gamma                90
_cell_formula_units_Z            4
_cell_length_a                   8.7222(15)
_cell_length_b                   8.7222(15)
_cell_length_c                   11.9979(15)
_cell_measurement_pressure       '0.98 GPa'
_cell_measurement_reflns_used    1260
_cell_measurement_temperature    293
_cell_measurement_theta_max      13.42
_cell_measurement_theta_min      2.75
_cell_volume                     912.8(2)
_diffrn_ambient_temperature      293
_diffrn_detector                 'Mar165 CCD'
_diffrn_measured_fraction_theta_full 0.60
_diffrn_measured_fraction_theta_max 0.55
_diffrn_measurement_device_type  'abstract diffractometer'
_diffrn_radiation_probe          synchrotron
_diffrn_radiation_source         synchrotron
_diffrn_radiation_type           synchrotron
_diffrn_radiation_wavelength     0.3738
_diffrn_reflns_av_R_equivalents  0.0759
_diffrn_reflns_av_unetI/netI     0.0566
_diffrn_reflns_limit_h_max       10
_diffrn_reflns_limit_h_min       -10
_diffrn_reflns_limit_k_max       10
_diffrn_reflns_limit_k_min       -10
_diffrn_reflns_limit_l_max       14
_diffrn_reflns_limit_l_min       -15
_diffrn_reflns_number            1260
_diffrn_reflns_theta_full        10.84
_diffrn_reflns_theta_max         13.42
_diffrn_reflns_theta_min         2.75
_diffrn_source                   synchrotron
_exptl_absorpt_coefficient_mu    5.351
_exptl_absorpt_correction_type   empirical
_exptl_absorpt_process_details
;
CrysAlisPro, Agilent Technologies,
Version 1.171.37.35 (release 13-08-2014 CrysAlis171 .NET)
(compiled Aug 13 2014,18:06:01)
Empirical absorption correction using spherical harmonics,
 implemented in SCALE3 ABSPACK scaling algorithm.
;
_exptl_crystal_density_diffrn    4.9002
_exptl_crystal_description       irregular
_exptl_crystal_F_000             1112
_exptl_crystal_recrystallization_method
'Reaction under pressure of 0.98 GPa between Ar-PTM and MAPbI3'
_refine_diff_density_max         2.43
_refine_diff_density_min         -2.03
_refine_ls_abs_structure_details
'  189 of Friedel pairs used in the refinement'
_refine_ls_abs_structure_Flack   0.001(14)
_refine_ls_extinction_method     none
_refine_ls_goodness_of_fit_gt    2.45
_refine_ls_goodness_of_fit_ref   1.82
_refine_ls_hydrogen_treatment    constr
_refine_ls_number_constraints    2
_refine_ls_number_parameters     28
_refine_ls_number_reflns         247
_refine_ls_number_restraints     1
_refine_ls_R_factor_all          0.1968
_refine_ls_R_factor_gt           0.0787
_refine_ls_shift/su_max          0.0500
_refine_ls_shift/su_mean         0.0172
_refine_ls_structure_factor_coef F
_refine_ls_weighting_details     w=1/(\s^2^(F)+0.0001F^2^)
_refine_ls_weighting_scheme      sigma
_refine_ls_wR_factor_gt          0.0789
_refine_ls_wR_factor_ref         0.1149
_reflns_number_gt                84
_reflns_number_total             247
_reflns_threshold_expression     I>3\s(I)
_cod_data_source_file            dk5077sup1.cif
_cod_data_source_block           XI
_cod_original_cell_volume        912.8(3)
_cod_original_formula_sum        'C1 H6 Ar1.337 I3 N1 Pb1'
_cod_database_code               2021863
_diffrn_pressure                 0.98
loop_
_space_group_symop_id
_space_group_symop_operation_xyz
1 x,y,z
2 -x,-y,z
3 -y,x,z+1/2
4 y,-x,z+1/2
5 x+1/2,-y+1/2,z
6 -x+1/2,y+1/2,z
7 -y+1/2,-x+1/2,z+1/2
8 y+1/2,x+1/2,z+1/2
loop_
_atom_site_label
_atom_site_type_symbol
_atom_site_fract_x
_atom_site_fract_y
_atom_site_fract_z
_atom_site_adp_type
_atom_site_U_iso_or_equiv
_atom_site_site_symmetry_multiplicity
_atom_site_occupancy
_atom_site_calc_flag
Pb1 Pb 0.5 0 -0.0002(11) Uani 0.125(6) 4 1 d
I2 I 0.765(6) 0.247(5) -0.049(4) Uani 0.188(19) 8 1 d
I1 I 0 0.5 0.747(4) Uani 0.32(9) 4 1 d
C1 C 0.5 0.5 0.293(6) Uiso 0.01(3) 4 1 d
N1 N 0.5 0.5 0.393(6) Uiso 0.01(3) 4 1 d
Ar Ar 0.861(7) 0.288(7) 0.204(5) Uiso 0.09(2) 8 0.67(2) d
loop_
_atom_site_aniso_label
_atom_site_aniso_type_symbol
_atom_site_aniso_U_11
_atom_site_aniso_U_22
_atom_site_aniso_U_33
_atom_site_aniso_U_12
_atom_site_aniso_U_13
_atom_site_aniso_U_23
Pb1 Pb 0.283(17) 0.040(5) 0.052(5) -0.103(6) 0 0
I2 I 0.23(5) 0.16(3) 0.165(19) -0.12(3) 0.14(3) -0.10(3)
I1 I 0.25(9) 0.70(11) 0.025(13) -0.04(5) 0 0
loop_
_atom_type_symbol
_atom_type_scat_dispersion_real
_atom_type_scat_dispersion_imag
_atom_type_scat_source
C -0.0003 0.0004 'International Tables Vol C tables 4.2.6.8 and 6.1.1.1'
H 0.0000 0.0000 'International Tables Vol C tables 4.2.6.8 and 6.1.1.1'
Ar 0.0541 0.0551 'International Tables Vol C tables 4.2.6.8 and 6.1.1.1'
I -8.1659 3.0881 'International Tables Vol C tables 4.2.6.8 and 6.1.1.1'
N 0.0001 0.0008 'International Tables Vol C tables 4.2.6.8 and 6.1.1.1'
Pb -0.6363 3.6002 'International Tables Vol C tables 4.2.6.8 and 6.1.1.1'
loop_
_geom_angle_atom_site_label_1
_geom_angle_atom_site_label_2
_geom_angle_atom_site_label_3
_geom_angle_site_symmetry_1
_geom_angle_site_symmetry_3
_geom_angle
I2 Pb1 I2 . 2_655 158.8(9)
I2 Pb1 I2 . 5_455 87.9(9)
I2 Pb1 I2 . 6_645 88.1(9)
I2 Pb1 I1 . 3_654 100.6(6)
I2 Pb1 I1 . 5_554 79.4(6)
I2 Pb1 Ar . 5_455 91.5(11)
I2 Pb1 Ar . 6_645 104.1(11)
I2 Pb1 I2 2_655 5_455 88.1(9)
I2 Pb1 I2 2_655 6_645 87.9(9)
I2 Pb1 I1 2_655 3_654 100.6(6)
I2 Pb1 I1 2_655 5_554 79.4(6)
I2 Pb1 Ar 2_655 5_455 104.1(11)
I2 Pb1 Ar 2_655 6_645 91.5(11)
I2 Pb1 I2 5_455 6_645 157.8(9)
I2 Pb1 I1 5_455 3_654 101.1(6)
I2 Pb1 I1 5_455 5_554 78.9(6)
I2 Pb1 Ar 5_455 5_455 58.8(11)
I2 Pb1 Ar 5_455 6_645 143.2(11)
I2 Pb1 I1 6_645 3_654 101.1(6)
I2 Pb1 I1 6_645 5_554 78.9(6)
I2 Pb1 Ar 6_645 5_455 143.2(11)
I2 Pb1 Ar 6_645 6_645 58.8(11)
I1 Pb1 I1 3_654 5_554 180.0(5)
I1 Pb1 Ar 3_654 5_455 42.9(9)
I1 Pb1 Ar 3_654 6_645 42.9(9)
I1 Pb1 Ar 5_554 5_455 137.1(9)
I1 Pb1 Ar 5_554 6_645 137.1(9)
Ar Pb1 Ar 5_455 6_645 85.8(13)
Pb1 I2 Pb1 . 5_555 157.8(12)
Pb1 I2 N1 . 3_654 88.9(9)
Pb1 I2 N1 . 7_654 93.1(9)
Pb1 I2 Ar . . 94.3(13)
Pb1 I2 Ar . 8_544 114.8(14)
Pb1 I2 N1 5_555 3_654 91.3(9)
Pb1 I2 N1 5_555 7_654 95.9(10)
Pb1 I2 Ar 5_555 . 64.5(12)
Pb1 I2 Ar 5_555 8_544 85.8(13)
N1 I2 N1 3_654 7_654 155.2(18)
N1 I2 Ar 3_654 . 107.8(16)
N1 I2 Ar 3_654 8_544 68.4(15)
N1 I2 Ar 7_654 . 96.7(17)
N1 I2 Ar 7_654 8_544 88.4(16)
Ar I2 Ar . 8_544 150.2(18)
Pb1 I1 Pb1 3_555 5_456 180.0(5)
Pb1 I1 Ar 3_555 7_565 76.8(15)
Pb1 I1 Ar 3_555 8_445 76.8(15)
Pb1 I1 Ar 5_456 7_565 103.2(15)
Pb1 I1 Ar 5_456 8_445 103.2(15)
Ar I1 Ar 7_565 8_445 154(2)
N1 C1 Ar . 5_455 111.5(14)
N1 C1 Ar . 6_655 111.5(14)
Ar C1 Ar 5_455 6_655 137(2)
I2 N1 I2 3_655 4_565 156(2)
I2 N1 I2 3_655 7_565 87.5(10)
I2 N1 I2 3_655 8_545 87.3(10)
I2 N1 C1 3_655 . 101.9(11)
I2 N1 I2 4_565 7_565 87.3(10)
I2 N1 I2 4_565 8_545 87.5(10)
I2 N1 C1 4_565 . 101.9(11)
I2 N1 I2 7_565 8_545 154(2)
I2 N1 C1 7_565 . 102.8(12)
I2 N1 C1 8_545 . 102.8(12)
Pb1 Ar I2 5_555 . 56.7(11)
Pb1 Ar I2 5_555 8_545 147(2)
Pb1 Ar I1 5_555 7_654 60.3(14)
Pb1 Ar C1 5_555 5_555 125.6(18)
I2 Ar I2 . 8_545 146(2)
I2 Ar I1 . 7_654 116(2)
I2 Ar C1 . 5_555 112(2)
I2 Ar I1 8_545 7_654 89.5(19)
I2 Ar C1 8_545 5_555 74.8(17)
I1 Ar C1 7_654 5_555 111(2)
loop_
_geom_bond_atom_site_label_1
_geom_bond_atom_site_label_2
_geom_bond_site_symmetry_2
_geom_bond_distance
Pb1 I2 . 3.21(3)
Pb1 I2 2_655 3.21(3)
Pb1 I2 5_455 3.07(3)
Pb1 I2 6_645 3.07(3)
Pb1 I1 3_654 2.96(3)
Pb1 I1 5_554 3.04(3)
Pb1 Ar 5_455 3.32(5)
Pb1 Ar 6_645 3.32(5)
I2 N1 3_654 3.27(4)
I2 N1 7_654 3.04(4)
I2 Ar . 3.15(6)
I2 Ar 8_544 3.13(6)
I1 Ar 7_565 2.27(5)
I1 Ar 8_445 2.27(5)
C1 N1 . 1.21(8)
C1 Ar 5_455 2.98(6)
C1 Ar 6_655 2.98(6)
loop_
_twin_individual_id
_twin_individual_mass_fraction_refined
_twin_individual_twin_matrix_11
_twin_individual_twin_matrix_12
_twin_individual_twin_matrix_13
_twin_individual_twin_matrix_21
_twin_individual_twin_matrix_22
_twin_individual_twin_matrix_23
_twin_individual_twin_matrix_31
_twin_individual_twin_matrix_32
_twin_individual_twin_matrix_33
1 0.281(14) 1 0 0 0 1 0 0 0 1
2 0.371(14) 0.5 0.5 1 0.5 0.5 -1 -0.5 0.5 0
3 0.349(14) 0.5 -0.5 1 -0.5 0.5 1 -0.5 -0.5 0
4 0.001(14) -1 0 0 0 -1 0 0 0 -1
loop_
_restr_distance_atom_site_label_1
_restr_distance_atom_site_label_2
_restr_distance_target
_restr_distance_target_weight_param
N1 C1 1.17 0.03
