#------------------------------------------------------------------------------
#$Date: 2020-01-01 09:41:38 +0200 (Wed, 01 Jan 2020) $
#$Revision: 246407 $
#$URL: file:///home/coder/svn-repositories/cod/cif/2/02/19/2021936.cif $
#------------------------------------------------------------------------------
#
# This file is available in the Crystallography Open Database (COD),
# http://www.crystallography.net/. The original data for this entry
# were provided by IUCr Journals, http://journals.iucr.org/.
#
# The file may be used within the scientific community so long as
# proper attribution is given to the journal article from which the
# data were obtained.
#
data_2021936
loop_
_publ_author_name
'Tan, Xue-Jie'
'Liu, Shuai'
'Hei, Xiao-Ming'
'Yang, Feng-Cun'
'He, Peng-Bing'
'Guo, Feng'
'Xing, Dian-Xiang'
_publ_section_title
;
 Structural and theoretical study of four novel norcantharidine
 derivatives: two new cases of conditional isomorphism
;
_journal_coeditor_code           YO3069
_journal_issue                   1
_journal_name_full               'Acta Crystallographica Section C'
_journal_page_first              75
_journal_page_last               86
_journal_paper_doi               10.1107/S2053229619016164
_journal_volume                  76
_journal_year                    2020
_chemical_absolute_configuration syn
_chemical_formula_iupac          'C10 H13 N O4'
_chemical_formula_moiety         'C10 H13 N O4'
_chemical_formula_sum            'C10 H13 N O4'
_chemical_formula_weight         211.21
_chemical_name_common
;
norcantharidine - 2-aminoethanol
;
_chemical_name_systematic
(3a<i>R</i>,4<i>S</i>,7<i>R</i>,7a<i>S</i>)-2-(2-Hydroxyethyl)-3a,4,5,6,7,7a-hexahydro-1<i>H</i>-4,7-epoxyisoindole-1,3(2<i>H</i>)-dione
_space_group_crystal_system      orthorhombic
_space_group_IT_number           31
_space_group_name_Hall           'P 2ac -2'
_space_group_name_H-M_alt        'P m n 21'
_atom_sites_solution_hydrogens   mixed
_audit_creation_method           SHELXL-2016/6
_cell_angle_alpha                90
_cell_angle_beta                 90
_cell_angle_gamma                90
_cell_formula_units_Z            2
_cell_length_a                   10.0350(17)
_cell_length_b                   5.5937(13)
_cell_length_c                   8.9634(17)
_cell_measurement_reflns_used    380
_cell_measurement_temperature    293(2)
_cell_measurement_theta_max      26.00
_cell_measurement_theta_min      2.45
_cell_volume                     503.14(17)
_computing_cell_refinement
;
SMART (Bruker, 2000)
;
_computing_data_collection
;
SMART (Bruker, 2000)
;
_computing_data_reduction
;
SAINT (Bruker, 2000)
;
_computing_molecular_graphics
;
SHELXTL (Bruker, 2000), PLATON (Spek, 2009), WinGX2014
(Farrugia, 2012),
DIAMOND (Brandenburg & Putz, 1999) and Mercury (Macrae <i>et al.</i>,
2008)
;
_computing_publication_material
;
SHELXL2016 (Sheldrick, 2015b)
;
_computing_structure_refinement
;
SHELXL2016 (Sheldrick, 2015b)
;
_computing_structure_solution
;
SHELXT (Sheldrick, 2015a)
;
_diffrn_ambient_temperature      293(2)
_diffrn_detector_area_resol_mean 10.12
_diffrn_measured_fraction_theta_full 0.996
_diffrn_measured_fraction_theta_max 0.971
_diffrn_measurement_device_type  'Bruker SMART CCD area detector'
_diffrn_measurement_method       'phi and omega scans'
_diffrn_radiation_type           CuK\a
_diffrn_radiation_wavelength     1.54184
_diffrn_reflns_av_R_equivalents  0.0273
_diffrn_reflns_av_unetI/netI     0.0381
_diffrn_reflns_limit_h_max       8
_diffrn_reflns_limit_h_min       -12
_diffrn_reflns_limit_k_max       6
_diffrn_reflns_limit_k_min       -6
_diffrn_reflns_limit_l_max       11
_diffrn_reflns_limit_l_min       -10
_diffrn_reflns_number            1569
_diffrn_reflns_theta_full        67.684
_diffrn_reflns_theta_max         71.658
_diffrn_reflns_theta_min         6.622
_diffrn_source                   'fine-focus sealed tube'
_exptl_absorpt_coefficient_mu    0.913
_exptl_absorpt_correction_T_max  0.885
_exptl_absorpt_correction_T_min  0.719
_exptl_absorpt_correction_type   multi-scan
_exptl_absorpt_process_details
;
(SADABS; Bruker, 2000)
;
_exptl_crystal_colour            colorless
_exptl_crystal_density_diffrn    1.394
_exptl_crystal_density_method    'not measured'
_exptl_crystal_description       plate
_exptl_crystal_F_000             224
_exptl_crystal_size_max          0.38
_exptl_crystal_size_mid          0.35
_exptl_crystal_size_min          0.12
_refine_diff_density_max         0.140
_refine_diff_density_min         -0.122
_refine_ls_abs_structure_details
;
Flack <i>x</i> determined using 120 quotients [(I+)-(I-)]/[(I+)+(I-)]
(Parsons <i>et al.</i>,  2013)
;
_refine_ls_abs_structure_Flack   0.6(6)
_refine_ls_extinction_coef       0.0122(19)
_refine_ls_extinction_expression Fc^*^=kFc[1+0.001xFc^2^\l^3^/sin(2\q)]^-1/4^
_refine_ls_extinction_method
;
SHELXL2016 (Sheldrick, 2015b)
;
_refine_ls_goodness_of_fit_ref   1.067
_refine_ls_hydrogen_treatment    refU
_refine_ls_matrix_type           full
_refine_ls_number_parameters     113
_refine_ls_number_reflns         731
_refine_ls_number_restraints     4
_refine_ls_restrained_S_all      1.064
_refine_ls_R_factor_all          0.0588
_refine_ls_R_factor_gt           0.0448
_refine_ls_shift/su_max          0.000
_refine_ls_shift/su_mean         0.000
_refine_ls_structure_factor_coef Fsqd
_refine_ls_weighting_details
'w=1/[\s^2^(Fo^2^)+(0.0317P)^2^+0.0793P] where P=(Fo^2^+2Fc^2^)/3'
_refine_ls_weighting_scheme      calc
_refine_ls_wR_factor_gt          0.0899
_refine_ls_wR_factor_ref         0.0990
_reflns_number_gt                594
_reflns_number_total             731
_reflns_threshold_expression     'I > 2\s(I)'
_cod_data_source_file            yo3069sup1.cif
_cod_data_source_block           NCA-AE
_cod_database_code               2021936
_shelx_space_group_comment
;
The symmetry employed for this shelxl refinement is uniquely defined
by the following loop, which should always be used as a source of
symmetry information in preference to the above space-group names.
They are only intended as comments.
;
_shelx_estimated_absorpt_t_min   0.89
_shelx_estimated_absorpt_t_max   0.97
_shelx_hkl_file
;
   0   0  -9 80.2407 347.212  16
   0   0  -8 2530.89 625.349  16
   0   0  -7-5.33293 206.079  16
   0   0  -6 24004.7 1431.65   6
   0   0  -5-47.6511 152.094   2
   0   0  -4 178273. 3168.14   2
   0   0  -3 70.3152 143.448   1
   0   0  -2 42369.6 1008.15   1
   0   0  -1 70.1143 42.3850   1
   0   0  10 631.367 337.924  12
   0   0  11 175.536 147.599  12
   0   1  -9 1001.77 502.338  16
   0   1  -8 7886.70 1104.15  16
   0  -1  -7 2160.82 544.514  16
   0  -1  -6 14114.1 1068.32   2
   0  -1  -5 21707.1 1213.82   2
   0  -1  -5 21832.1 1240.71   1
   0   1  -4 339559. 4196.22   6
   0  -1  -4 331621. 4940.58   2
   0  -1  -4 332543. 4818.42   1
   0   1  -3 66062.4 1045.01   2
   0  -1  -3 69376.9 1687.41   1
   0  -1  -2 444296. 4097.49   8
   0  -1  -2 449467. 4260.73   9
   0   1  -2 446161. 3971.84   6
   0  -1  -1 404314. 4092.85   3
   0  -1   0 26286.4 582.131   2
   0   1  -1 422894. 3512.49   3
   0   1   9 573.058 289.909  12
   0   1  10 879.066 301.888  12
   0   2 -10 317.864 262.205  16
   0   2  -9 2087.54 682.558  16
   0  -2  -6 11633.8 1105.83   5
   0  -2  -5 15082.8 1181.30   5
   0  -2  -5 14797.8 1057.14   1
   0  -2  -5 15058.9 1128.35   2
   0  -2  -4 899.667 281.265   1
   0  -2  -4 448.714 180.578   2
   0  -2  -4 592.041 267.630   5
   0  -2  -3 509.454 221.182   5
   0  -2  -3 972.382 292.162   2
   0  -2  -2 64628.6 1912.31   5
   0  -2  -2 69524.3 1909.96   2
   0  -2  -1 330866. 4582.91   5
   0  -2  -1 327535. 4174.79   2
   0  -2  -1 328415. 4520.81   3
   0  -2   0 957283. 9881.95   5
   0  -2   0 957999. 8667.23   2
   0  -2   1 331292. 3250.32   4
   0  -2   7 6462.10 858.029  17
   0   2   7 6742.91 850.503  12
   0  -2   8 661.314 291.123  17
   0   2   8 1252.24 391.768  12
   0   2   9 2072.58 461.987  12
   0   3  -9 1393.88 476.030  16
   0   3  -5 33706.4 2361.31  10
   0  -3  -4 84792.0 2772.72   2
   0  -3  -4 84558.4 2978.84   5
   0  -3  -3 61222.7 2198.48   2
   0  -3  -3 70564.7 2528.88   5
   0  -3  -2 42820.9 1913.65   5
   0  -3  -2 44467.2 1683.26   2
   0  -3  -1 108909. 2850.21   3
   0  -3  -1 107624. 3014.53   5
   0  -3   0 712.994 288.733   3
   0  -3   0-95.1979 208.450   5
   0   3  -1 98921. 2850.21   3
   0   3  -1 97653. 3014.53   5
   0  -3   5 28629.1 1763.75  17
   0  -3   6 10823.5 1135.03  17
   0  -3   7 5618.51 849.053  17
   0  -3   8-634.688 328.461  17
   0  -3   9 801.326 285.612  17
   0   4  -5 1809.77 672.993  10
   0  -4  -4 7906.52 959.277  13
   0   4  -4 7520.22 1132.50  10
   0  -4  -3 10711.4 1168.46  13
   0  -4  -2 9043.18 1057.63   5
   0  -4  -1 69914.4 2689.40   3
   0  -4   0 1619.69 395.189   3
   0  -4   1 65886.7 2500.48   3
   0  -4   4 8158.80 991.088  17
   0  -4   5 1808.24 521.709  17
   0  -4   6 6775.03 900.366  17
   0  -4   7 6489.60 866.561  17
   0  -4   8 5187.10 688.426  17
   0   5  -5-144.836 324.979  10
   0  -5  -5 504.848 321.462  13
   0   5  -4 1603.92 617.735  10
   0  -5  -4 2543.28 567.313  13
   0  -5  -3 28871.2 1908.54  13
   0   5  -3 25428.4 2022.96  10
   0  -5  -2 2673.77 634.967  13
   0  -5  -1 945.333 399.576  13
   0  -5   0-178.504 187.755  13
   0  -5   1 563.505 273.375  13
   0  -5   3 34560.7 1934.42  17
   0  -5   4 1812.03 456.856  17
   0  -5   5 182.594 238.380  17
   0  -5   6 118.826 313.746  17
   0  -5   7 1015.25 315.514  17
   0  -6  -4 2271.05 434.258  13
   0   6  -4 2633.12 563.239  10
   0   6  -3 174.422 233.129  10
   0  -6  -3 475.675 282.237  13
   0  -6  -2-92.2007 201.289  13
   0   6  -2 439.0906 172.854  10
   0  -6  -1 6064.83 826.143  13
   0  -6   0 711.638 319.528  13
   0  -6   1 5069.96 683.516  13
   1   0  -9 1693.03 536.510  16
  -1   0  -8 170.375 275.018  16
   1   0  -8 5.70511 215.147  16
  -1   0  -7 12723.8 1269.98  16
   1   0  -7 12881.8 1262.08  16
  -1   0  -6-55.5096 232.663   8
  -1   0  -6 373.524 264.610   6
  -1   0  -5 219028. 4165.19   6
  -1   0  -4-75.2625 164.639   6
  -1   0  -4-391.517 157.889   2
  -1   0  -3 122289. 2302.67   6
  -1   0  -3 127167. 2056.76   2
   1   0  -3 123444. 2226.32   1
  -1   0  -2 23.3850 63.8922   7
   1   0  -2 217.938 127.562   1
  -1   0  -2 36.2094 90.5081   2
  -1   0  -2 129.533 136.203   1
  -1   0  -1 469523. 4107.73   1
   1   0  -1 472983. 3978.14   1
  -1   0  -1 463192. 4367.25   7
  -1   0   0 688.342 87.1255   9
  -1   0   1 469837. 3926.84   7
  -1   0   9 1572.54 448.216  12
   1   0  10-142.699 281.058  12
  -1   0  10 54.8057 206.004  12
  -1   0  11 4015.64 465.499  12
  -1   1  -9 1494.39 564.237  16
   1   1  -9 1149.48 449.365  16
   1   1  -8 2590.46 650.834  16
  -1   1  -8 3950.27 818.268  16
  -1   1  -7 14830.9 1398.77  16
   1  -1  -7 12728.8 1265.10  16
  -1  -1  -6 20143.1 1437.79   6
   1  -1  -6 17751.3 1225.31   2
  -1  -1  -5 230.043 198.699   1
  -1  -1  -5 467.014 223.320   2
   1  -1  -5 316.636 197.829   1
  -1  -1  -4 57581.9 1736.53   8
  -1  -1  -4 59926.2 1822.81   1
  -1  -1  -4 57965.1 1829.56   2
   1  -1  -4 54845.4 1705.69   1
  -1   1  -4 59348.5 1614.43   6
   1  -1  -3 103034. 2116.54   1
  -1  -1  -3 111839. 2222.14   1
  -1  -1  -3 112423. 2124.24   8
  -1  -1  -3 106634. 2288.58   2
  -1  -1  -2 30766.8 867.876   8
  -1   1  -2 31435.6 814.176   6
  -1  -1  -2 30032.4 995.663   2
  -1  -1  -1 280858. 3145.62   3
   1  -1  -1 280532. 3201.57   3
  -1   1   0 71736.7 1067.46   8
  -1  -1   0 69316.3 1073.90   6
  -1  -1   0 69625.0 1269.81   4
   1  -1   0 68396.2 1233.68   5
   1   1  -4 53195.9 1659.85   1
  -1  -1   7 14052.5 1212.88  17
  -1   1   8 2621.64 593.739  12
   1   1   9 1235.88 385.379  12
  -1   1   9 783.555 352.178  12
   1   1  10 817.529 286.345  12
  -1   1  10 777.180 284.115  12
  -1  -1  10 834.313 342.207  12
  -1   2 -10 862.676 347.431  16
   1   2 -10 195.055 221.129  16
  -1   2  -9 6589.38 1005.65  16
   1   2  -9 7106.98 1073.35  16
  -1   2  -8 4197.35 822.154  16
   1  -2  -6 14271.4 1271.39   5
  -1  -2  -6 15892.9 1270.65   5
  -1  -2  -5 19008.6 1291.21   2
  -1  -2  -5 21450.8 1455.57   6
   1  -2  -5 22768.9 1421.01   2
  -1  -2  -5 21682.3 1365.23   5
  -1  -2  -5 18861.5 1198.72   1
   1  -2  -5 19114.3 1212.33   1
   1  -2  -5 20658.6 1436.67   5
   1  -2  -4 457.759 258.878   2
  -1  -2  -4 107.629 184.013   5
   1  -2  -4-98.4277 216.085   1
   1  -2  -4 334.941 247.399   5
  -1  -2  -4 123.260 162.939   1
  -1  -2  -4 15.0412 170.960   2
  -1  -2  -3 4202.49 453.717   9
  -1  -2  -3 4288.46 516.347   5
   1  -2  -3 3638.31 509.106   5
  -1  -2  -3 4020.10 507.634   2
   1  -2  -2 10838.0 783.672   5
  -1  -2  -2 11314.4 790.522   5
  -1  -2  -2 11732.2 788.745   2
  -1  -2  -2 9843.30 703.585   9
  -1  -2  -1 101936. 2190.77   3
  -1  -2  -1 102751. 2374.30   5
   1  -2  -1 106402. 2341.46   3
   1  -2  -1 101566. 2275.77   5
  -1  -2   0 128568. 1812.59   6
   1  -2   0 132664. 2547.38   5
  -1  -2   0 128516. 2685.72   5
  -1  -2   6 14468.5 1235.17  17
  -1  -2   7 9601.47 1065.17  17
  -1   2   7 9425.22 1027.82  12
   1  -2   7 9268.95 992.220  17
  -1  -2   8 5335.07 807.513  17
  -1   2   8 5535.61 840.969  12
  -1  -2   9 6536.18 771.311  17
  -1   2   9 6335.27 813.986  12
  -1   2  10 642.197 252.926  12
  -1  -2  10 716.271 282.027  12
  -1   3  -9 1759.67 526.013  16
   1   3  -9 1344.61 452.458  16
  -1   3  -5 4048.78 811.108  10
   1   3  -5 4281.89 834.168  10
  -1  -3  -4 33361.3 1849.41   5
  -1  -3  -4 31103.4 1727.50   6
   1  -3  -4 30980.4 1832.13   5
   1  -3  -4 32707.7 1717.91   2
   1  -3  -3 16191.1 1213.82   5
   1  -3  -3 17875.3 1173.19   2
  -1  -3  -3 17099.6 1165.35   6
  -1  -3  -3 18185.7 1301.34   5
   1  -3  -2 2531.83 415.074   2
   1  -3  -2 1926.35 423.753   5
  -1  -3  -2 3530.42 520.440   9
  -1  -3  -2 2260.79 389.372   6
  -1  -3  -2 2639.46 507.461   5
   1  -3  -2 2821.78 513.734   3
   1  -3  -1 73115.1 2331.96   3
   1  -3  -1 74598.7 2446.04   5
  -1  -3  -1 74728.7 2275.16   3
   1  -3  -1 79354.2 2059.40   2
  -1  -3  -1 70661.3 2482.03   5
   1  -3   0 83620.5 2560.24   5
  -1  -3   0 84282.0 2356.39   3
  -1  -3   5 5025.46 751.093  17
   1  -3   6 17036.7 1441.20  17
  -1  -3   6 18644.7 1478.76  17
  -1  -3   7 3342.03 679.795  17
   1  -3   7 2100.05 534.331  17
  -1  -3   8 167.079 221.571  17
   1  -3   8 164.812 293.515  17
   1  -3   9 1989.70 419.241  17
  -1  -3   9 2319.33 440.852  17
  -1   4  -5 12542.3 1488.61  10
   1   4  -5 9519.65 1379.11  10
  -1  -4  -4 2394.93 585.396  13
   1   4  -4 1794.94 602.906  10
  -1   4  -4 1683.60 568.196  10
   1  -4  -4 2219.76 538.396  13
  -1   4  -3 10744.8 1209.31  10
  -1  -4  -3 9236.57 1031.82  13
  -1  -4  -2 19964.6 1523.13  13
  -1  -4  -2 18080.9 1494.89   5
   1  -4  -2 18797.0 1512.31   5
   1  -4  -1 6937.23 845.120   3
  -1  -4  -1 7255.31 844.129   3
   1  -4  -1 8229.55 982.530   5
  -1  -4   0 1168.49 353.685   3
   1  -4   0 1643.32 408.065   3
   1  -4   1 6510.01 788.855   3
  -1  -4   1 7913.77 850.724   3
  -1  -4   3 10815.8 1074.95  17
  -1  -4   4 1253.81 406.468  17
   1  -4   5 10855.8 1187.09  17
  -1  -4   5 11200.5 1143.62  17
   1  -4   6 4465.52 795.819  17
  -1  -4   6 4693.78 794.040  17
  -1  -4   7 1137.50 456.201  17
   1  -4   7 924.655 418.072  17
   1  -4   8 263.953 224.468  17
  -1  -4   8 319.018 222.552  17
   1  -5  -5 1233.16 377.865  13
  -1   5  -5 1718.57 562.504  10
   1   5  -5 1155.75 515.322  10
  -1  -5  -5 2530.75 529.955  13
  -1  -5  -4 262.254 241.851  13
  -1   5  -4 470.439 315.531  10
   1  -5  -4 250.448 201.890  13
   1   5  -4 430.064 411.677  10
   1   5  -3 2151.74 656.027  10
  -1  -5  -3 1997.11 539.316  13
   1  -5  -3 2819.97 635.074  13
  -1   5  -3 3160.23 710.581  10
   1  -5  -2 17646.6 1580.19  13
  -1  -5  -2 15459.8 1393.54  13
   1  -5  -1 1502.85 554.534  13
  -1  -5  -1 1444.90 479.343  13
   1  -5   0 162.842 317.165  13
  -1  -5   0 142.910 250.187  13
  -1  -5   1 1350.46 420.435  13
   1  -5   1 1781.07 521.346  13
  -1   5   1 880.980 396.984  11
  -1  -5   4 75.9223 233.755  17
   1  -5   4-531.826 322.581  17
  -1  -5   5 1269.45 424.636  17
   1  -5   5 921.958 400.635  17
  -1  -5   6 2959.87 557.642  17
   1  -5   6 3020.78 573.526  17
  -1  -5   7 2353.06 427.757  17
   1  -5   7 1864.37 380.791  17
   1   6  -4 956.949 376.102  10
   1  -6  -4 359.423 200.079  13
  -1  -6  -4 478.192 266.893  13
   1  -6  -3-87.5002 281.345  13
  -1  -6  -3 587.530 277.775  13
  -1   6  -3 545.853 279.422  10
   1   6  -3 228.794 285.282  10
  -1  -6  -2 1078.17 399.353  13
  -1   6  -2 287.699 300.725  10
   1  -6  -2 496.036 351.165  13
   1   6  -2 835.725 466.872  10
  -1   6  -1 276.911 275.299  10
   1  -6  -1-85.6908 283.845  13
  -1  -6  -1 328.348 299.014  13
  -1  -6   0 501.014 290.505  13
   1  -6   0 340.886 281.769  13
  -1  -6   1 494.324 286.425  13
   1  -6   1-149.671 185.181  13
   1  -6   4 472.224 221.918  17
  -2   0  -8 6314.25 975.302  16
   2   0  -8 7571.43 1007.12  16
   2   0  -7 159.684 197.340  16
  -2   0  -7-53.9075 250.943  16
  -2   0  -6 2872.63 576.011   8
  -2   0  -6 2841.88 533.828   6
  -2   0  -5 32.9850 172.689   8
  -2   0  -5 92.2742 186.360   6
  -2   0  -4 48968.8 1812.73   8
  -2   0  -4 46713.8 1670.17   6
  -2   0  -3 623.077 247.762   8
  -2   0  -3-8.09514 166.132   6
  -2   0  -2 360761. 3235.75   5
  -2   0  -2 348482. 4479.67   8
   2   0  -2 354642. 3818.43   1
  -2   0  -2 361689. 4325.66   6
  -2   0  -2 368451. 4140.55   7
  -2   0  -1-30.2097 122.106   7
   2   0  -1 88.7224 55.7675   1
  -2   0   0 634513. 6152.55   4
  -2   0   0 636344. 5650.82   9
  -2   0   1-32.0921 94.6129   7
  -2   0   1 125.260 75.3111   9
  -2   0   9-225.570 379.185  12
  -2   0  10 160.634 282.497  12
   2   0  10 473.337 253.297  12
  -2   1  -9 468.631 328.137  16
   2   1  -9 680.615 429.271  16
  -2   1  -8 12016.3 1347.41  16
   2   1  -8 12301.5 1343.62  16
  -2   1  -7 806.593 351.404  16
  -2  -1  -6 7826.62 936.191   6
  -2   1  -6 10276.2 1110.72   8
  -2  -1  -5 1270.13 289.045   8
   2  -1  -5 1238.20 329.611   1
  -2  -1  -5 1551.83 356.759   1
  -2   1  -5 1173.26 386.630   8
  -2  -1  -5 1684.20 396.975   6
  -2  -1  -4 8586.41 791.801   6
  -2  -1  -4 8641.05 649.732   5
  -2   1  -4 8811.43 675.785   6
  -2  -1  -4 8218.73 698.254   1
   2  -1  -4 8627.39 677.590   1
  -2  -1  -4 8374.37 695.752   8
  -2  -1  -3 10112.0 685.522   8
   2  -1  -3 9335.17 604.227   1
  -2   1  -3 10957.5 704.847   7
  -2  -1  -3 9725.00 640.390   1
  -2   1  -3 10481.6 660.313   6
  -2  -1  -3 9168.62 617.944   5
  -2  -1  -3 9088.62 709.564   6
  -2  -1  -2 36707.0 1164.96   8
  -2   1  -2 37569.0 1314.85   8
  -2  -1  -2 38073.0 1250.47   6
  -2  -1  -2 35554.8 1231.84   9
   2  -1  -1 90965.1 1567.53   3
  -2  -1  -1 90287.6 1795.35   6
  -2   1   0 155130. 2132.17   8
   2  -1   0 153877. 2021.01   5
  -2   1   0 153591. 1821.52   4
  -2  -1   0 157398. 1870.72   3
  -2  -1   7 1022.79 392.276  17
  -2   1   7 211.554 163.168  12
  -2   1   8 11174.6 1181.49  12
  -2  -1   8 12322.2 1166.95  17
   2   1   9 380.049 205.444  12
  -2  -1   9 736.113 321.388  12
  -2   1   9 206.035 253.339  12
  -2  -1  10 12.3295 175.722  12
  -2   1  10 2.42208 238.819  12
   2   2 -10 395.370 223.855  16
   2   2  -9 345.506 290.302  16
  -2   2  -9 621.743 374.591  16
  -2   2  -8 1658.70 528.672  16
  -2  -2  -5 32.1808 194.686   6
   2  -2  -5 22.6831 125.641   1
  -2  -2  -5 199.789 137.762   1
  -2  -2  -4 47752.9 1877.52   5
  -2  -2  -4 45339.6 1709.01   1
  -2  -2  -4 43441.4 1940.68   6
   2  -2  -4 42745.4 1670.18   1
   2  -2  -3 37545.5 1662.91   5
  -2  -2  -3 36908.5 1556.18   5
  -2  -2  -3 36072.8 1576.79   6
  -2  -2  -3 38916.2 1500.16   9
  -2  -2  -2 21454.1 1093.90   9
  -2  -2  -2 23744.0 1101.35   6
   2  -2  -2 22124.8 1136.56   5
  -2  -2  -2 22858.0 1135.10   5
   2  -2  -1 3342.07 414.660   3
  -2  -2  -1 3172.99 435.339   5
  -2  -2  -1 2678.33 342.109   6
  -2  -2  -1 3566.22 384.294   3
   2  -2  -1 3713.50 423.668   5
   2  -2   0 42952.4 1351.91   5
  -2  -2   0 42199.8 1250.90   3
  -2   2   0 44302.8 1055.96   8
  -2  -2   0 40899.3 1377.86   4
  -2  -2   1 3587.99 433.279   4
  -2  -2   2 21571.7 1101.30   4
   2  -2   6 1569.20 412.780  17
  -2   2   6 2396.45 510.252  12
  -2  -2   6 2070.91 496.944  17
  -2  -2   7 3232.64 658.359  17
  -2   2   7 3155.64 635.832  12
  -2   2   8 1449.43 433.694  12
  -2  -2   8 1276.37 435.856  17
  -2   2   9 506.359 268.927  12
  -2  -2   9-61.9280 252.590  12
  -2  -2   9-61.1149 174.086  17
  -2   2  10-612.893 246.185  12
  -2  -2  10 399.720 209.086  12
   2   3  -9 1148.77 368.553  16
  -2   3  -9 1001.40 323.486  16
  -2   3  -8 1636.56 476.847  16
   2   3  -5 234.080 211.410  10
  -2   3  -5-191.902 274.512  10
  -2   3  -4 10077.7 1031.87   8
  -2  -3  -4 9937.08 996.709   6
   2  -3  -4 8793.16 941.795   2
  -2  -3  -4 10090.3 1015.48   5
  -2  -3  -4 9211.05 873.274   1
   2  -3  -4 8646.57 993.779   5
   2  -3  -3 635.348 305.522   5
  -2  -3  -3 915.803 315.416   9
   2  -3  -3 428.711 227.888   2
  -2  -3  -3 876.246 334.397   5
  -2   3  -3 942.633 314.092   8
  -2  -3  -3 941.227 305.819   6
  -2  -3  -2 15876.7 1131.21   9
   2  -3  -2 14196.9 1096.89   5
   2  -3  -2 15357.4 1127.91   3
   2  -3  -2 16131.7 1068.32   2
  -2  -3  -2 13850.0 1151.52   5
   2  -3  -1 19240.7 1046.17   2
   2  -3  -1 17294.7 1114.35   3
  -2  -3  -1 17071.7 1050.27   3
   2  -3  -1 19116.4 1206.29   5
  -2  -3   0 20483.5 1099.16   3
   2  -3   0 20292.8 1199.61   5
   2  -3   0 18760.5 1143.11   3
  -2   3   5 311.598 253.706  12
  -2  -3   5 415.928 304.332  17
  -2   3   6 14937.1 1358.94  12
  -2  -3   6 13093.0 1264.88  17
   2  -3   6 14732.2 1361.12  17
  -2   3   7 5555.75 844.741  12
  -2  -3   7 3580.75 723.381  17
   2  -3   7 4701.92 753.239  17
  -2   3   8 1477.26 458.835  12
   2  -3   8 2427.08 525.109  17
  -2  -3   8 1618.89 533.668  17
  -2  -3   9 586.231 271.087  17
  -2   3   9 870.862 266.521  12
  -2   4  -8 741.051 298.540  16
  -2   4  -5 6624.47 1005.60  10
   2   4  -5 4947.83 982.275  10
  -2  -4  -4 1950.83 504.664  13
  -2   4  -4 2082.13 601.417  10
   2   4  -4 2108.44 633.348  10
  -2  -4  -3 2211.38 487.462  13
  -2   4  -3 3285.48 684.942  10
  -2  -4  -2 1416.12 416.068  13
  -2   4  -2 1271.75 445.410  11
   2  -4  -1 1360.47 415.878   5
   2  -4   0 3868.42 616.213   3
  -2  -4   0 3971.59 623.223   3
  -2  -4   1 1928.58 430.454   3
  -2   4   2 916.691 336.788  11
  -2  -4   3 3913.50 636.830  17
  -2  -4   4 2493.46 507.772  17
  -2  -4   5 5089.67 802.082  17
  -2  -4   6 4281.17 754.853  17
   2  -4   6 4271.53 743.011  17
   2  -4   7 668.774 330.706  17
  -2  -4   7 104.188 265.226  17
   2  -4   8 722.673 235.046  17
  -2  -4   8 472.792 256.200  17
   2  -5  -5 161.169 178.574  13
  -2  -5  -5 319.714 248.818  13
   2   5  -5 712.350 421.112  10
  -2  -5  -4 262.519 276.173  13
   2   5   4 261.381 209.114  13
   2  -5  -4 326.558 262.834  13
  -2   5  -4 185.3501 202.591  10
   2   5  -4 189.248 244.612  10
  -2  -5  -3 3865.80 726.516  13
   2  -5  -3 5119.96 893.370  13
  -2   5  -3 5412.42 899.352  10
   2   5  -3 3963.77 844.201  10
  -2  -5  -2 1818.66 551.390  13
  -2   5  -2 1159.13 403.112  10
  -2  -5  -1 2105.31 553.283  13
  -2   5   0 1109.54 443.992  11
  -2  -5   0 746.965 355.735  13
  -2  -5   1 3097.87 616.669  13
  -2   5   1 3104.64 678.307  11
  -2   5   2 1923.72 500.601  11
  -2  -5   4-105.963 261.715  17
   2  -5   5 911.697 398.148  17
  -2  -5   5 553.775 251.951  17
  -2  -5   6 519.768 231.623  17
   2  -5   6 523.003 279.137  17
  -2  -5   7 1114.41 300.381  17
   2  -5   7 869.454 275.165  17
   2  -6  -4 470.815 225.531  13
  -2  -6  -4 251.650 183.973  13
   2   6  -4 50.8460 220.874  10
   2  -6  -3 85.3276 184.845  13
   2   6  -3 56.5448 234.167  10
  -2  -6  -3-113.701 271.322  13
   2  -6  -2 67.2222 248.169  13
  -2  -6  -2 6.61589 205.359  13
   2   6  -2 93.3658 240.649  10
   2  -6  -1 1638.51 505.341  13
  -2  -6  -1 1126.46 372.605  13
   2  -6   0 465.049 286.943  13
  -2  -6   0 481.585 234.168  13
  -2  -6   1 1153.16 323.395  13
   2  -6   1 73.2757 202.444  13
   2  -6   3 791.024 276.761  17
   2  -6   4 207.633 160.344  17
   3   0  -8-213.876 190.448  16
   3   0  -7 1515.87 451.868  16
  -3   0  -7 2626.23 617.414  16
  -3   0  -6 81.4932 254.361   8
  -3   0  -6 814.109 332.947   6
  -3   0  -5 53769.2 2223.65   8
  -3   0  -5 52635.2 2104.60   6
  -3   0  -4-81.4946 183.783   8
  -3   0  -4 142.095 199.936   6
  -3   0  -3 77507.0 2223.11   8
  -3   0  -3 77597.4 2115.22   6
  -3   0  -2-32.0370 172.812   8
  -3   0  -2 72.8341 149.515   7
  -3   0  -2-26.3865 164.985   6
  -3   0  -1 68833.0 1705.83   8
  -3   0  -1 69211.7 1778.65   7
  -3   0   0 223.241 186.776   7
  -3   0   0 178.825 167.171   4
  -3   0   1 64436.0 1257.93   9
  -3   0   1 62265.5 1556.69   7
  -3   0   2-1.97336 54.2431   9
  -3   0   7 2130.94 477.929  17
  -3   0   7 1895.83 515.765  12
  -3   0   8 108.052 288.233  12
  -3   0   9-114.985 376.080  12
  -3   0  10 235.105 209.943  12
   3   0  10-5.13050 123.366  12
   3   1  -9 911.063 347.692  16
   3   1  -8 607.436 252.537  16
  -3   1  -8 1484.61 491.668  16
  -3   1  -7 13063.9 1310.27  16
   3   1  -7 12956.5 1285.26  16
  -3  -1  -6 271.327 223.869   6
  -3   1  -6 591.430 309.916   8
  -3  -1  -5 40.1442 178.658   8
   3  -1  -5 603.454 222.152   1
  -3   1  -5 254.365 308.012   8
  -3  -1  -5 381.230 240.478   6
  -3  -1  -4 7093.86 657.207   1
  -3  -1  -4 8029.68 733.888   8
  -3   1  -4 8851.44 882.379   8
   3  -1  -4 8199.71 669.613   1
  -3  -1  -4 7860.31 782.862   6
  -3   1  -4 7129.60 654.379   7
  -3  -1  -3 24548.8 1163.32   8
  -3   1  -3 28396.9 1415.83   8
  -3  -1  -3 26555.3 1068.30   1
  -3   1  -3 24759.9 1179.81   7
  -3  -1  -3 26385.4 1285.68   6
   3  -1  -3 25933.7 1043.50   1
  -3   1  -2 4353.66 506.806   8
  -3  -1  -2 5378.73 546.316   6
  -3  -1  -2 5482.22 402.226   1
  -3   1  -2 4763.31 544.658   7
  -3  -1  -2 4733.74 511.800   9
  -3  -1  -1 35082.4 1339.39   9
  -3   1  -1 35761.9 1239.59   8
   3  -1  -1 37921.4 979.875   3
  -3   1  -1 35834.4 1396.71   7
  -3  -1  -1 36873.3 1273.89   6
  -3  -1   0 53322.0 1599.26   9
   3  -1   0 56833.8 1145.33   5
  -3  -1   0 55518.8 1672.51   4
  -3   1   0 57964.2 1244.42   4
  -3  -1   1 37549.9 1407.22   4
  -3   1   2 4829.59 478.223   7
  -3   1   7 14305.0 1322.73  12
  -3  -1   7 12584.1 1236.55  17
  -3  -1   8 495.176 297.615  17
  -3   1   8 508.956 389.231  12
  -3  -1   8 504.835 264.308  12
  -3  -1   9 896.335 308.162  17
  -3  -1   9 988.363 375.054  12
  -3  -1  10 400.742 241.517  12
  -3   1  10-101.931 239.034  12
  -3   2  -9 1053.73 314.564  16
   3   2  -9 1366.62 431.449  16
  -3   2  -8 1024.45 385.385  16
   3   2  -8 1063.09 400.813  16
  -3   2  -7 6155.14 898.584  16
   3  -2  -5 9934.33 886.488   1
  -3   2  -5 13031.2 1243.93   8
  -3  -2  -5 11148.3 968.841   1
  -3  -2  -5 9379.47 1034.29   6
  -3   2  -4 6576.90 742.278   7
  -3   2  -4 5992.93 781.250   8
   3  -2  -4 7028.47 675.041   1
  -3  -2  -4 6461.16 777.842   6
  -3  -2  -4 6108.28 648.241   1
  -3   2  -3 18759.6 1218.91   8
  -3  -2  -3 18320.2 990.614   1
  -3  -2  -3 16285.1 1112.44   6
  -3  -2  -3 20285.3 1168.53   5
  -3  -2  -2 25110.5 1276.87   9
   3  -2  -2 27548.1 1325.14   5
  -3   2  -2 26855.1 1282.90   8
  -3  -2  -2 26247.2 1250.61   6
  -3  -2  -2 27118.9 1299.88   5
  -3  -2  -1 1537.07 378.021   9
  -3   2  -1 1607.82 285.230   8
   3  -2  -1 1234.24 270.333   5
   3  -2  -1 1753.60 311.315   3
  -3  -2  -1 1577.70 303.871   6
   3  -2   0 2606.78 332.047   5
  -3  -2   0 3331.34 338.016   3
  -3  -2   0 2870.95 414.206   4
  -3  -2   1 1473.38 333.770   4
  -3  -2   2 27824.6 1368.51   4
  -3  -2   3 17846.6 1192.22   4
  -3   2   6 431.129 279.027  12
  -3  -2   6 195.958 231.998  17
  -3  -2   7 4122.94 736.230  17
  -3   2   7 4238.03 765.210  12
  -3   2   8 599.052 422.528  12
  -3  -2   8 751.538 358.594  17
  -3  -2   9 1052.66 303.001  17
  -3   2   9 1598.71 442.342  12
  -3   2  10 396.850 168.465  12
   3   3  -9 34.9470 240.587  16
  -3   3  -8 117.315 208.174  16
   3   3  -5 178.003 241.495  10
  -3  -3  -4 1755.30 394.728   1
   3  -3  -4 1729.11 489.430   5
  -3   3  -4 2045.72 534.482   8
  -3  -3  -4 2784.05 589.063   6
  -3  -3  -3 2499.91 501.917   9
  -3  -3  -3 3403.99 597.795   5
   3  -3  -3 2180.29 489.929   5
  -3  -3  -3 1583.46 397.919   6
  -3  -3  -2 2690.38 494.451   9
   3  -3  -2 3371.50 560.035   5
   3  -3  -1 23712.8 1361.56   5
  -3  -3  -1 23361.3 1423.70   9
   3  -3  -1 26029.1 1370.01   3
   3  -3   0 15397.3 1052.48   3
  -3  -3   0 18681.8 1039.62   3
   3  -3   0 17624.7 1088.78   5
  -3  -3   5 659.853 330.447  17
  -3   3   5 555.130 302.687  12
  -3  -3   6 2519.06 621.932  17
  -3   3   6 2608.81 604.667  12
  -3   3   7 3380.76 656.280  12
  -3  -3   7 3982.65 736.177  17
   3  -3   7 3082.14 600.426  17
  -3   3   8 59.7051 241.843  12
  -3  -3   8-418.899 283.419  17
  -3  -3   9 233.072 190.971  17
  -3   3   9-344.166 194.895  12
   3   4  -8 450.971 244.267  16
  -3  -4  -5 2830.70 579.066  13
   3   4  -5 2878.54 725.677  10
  -3  -4  -4 5343.58 814.290  13
   3   4  -4 6646.80 1038.33  10
  -3  -4  -3 173.13 220.976  13
   3   4   3  987.25 219.738  13
  -3  -4  -2 837.980 357.763  13
  -3   4  -2 624.954 361.134  11
  -3  -4  -1 2135.99 505.388  13
  -3   4  -1 3386.88 683.960  11
  -3  -4   0-693.025 310.825  13
  -3   4   0 24.7094 200.647  11
  -3  -4   1 3151.42 584.744  13
  -3   4   1 2540.07 535.836  12
  -3   4   1 2426.52 523.935  11
  -3   4   2 1105.23 359.849  12
  -3   4   3 295.445 149.098  12
  -3  -4   3 289.382 138.716  12
   3   4  -3 2612.531 127.497  12
  -3   4   4 6710.31 869.134  12
  -3  -4   4 6645.03 886.416  17
  -3  -4   5 2727.51 601.494  17
  -3   4   5 2861.89 564.805  12
  -3  -4   6 102.998 269.987  17
   3  -4   6 312.854 337.297  17
  -3   4   6 127.520 185.887  12
  -3  -4   7 372.288 318.181  17
   3  -4   7 271.789 219.737  17
  -3  -4   8 543.048 232.499  17
   3  -4   8 1118.14 268.010  17
   3   5  -5 42.2926 266.460  10
  -3  -5  -5-773.436 322.692  13
  -3  -5  -4 1098.10 403.509  13
   3  -5  -4 1768.56 490.524  13
   3   5  -4 421.500 346.097  10
  -3  -5  -3 1219.60 420.757  13
   3   5  -3 1502.40 518.446  10
  -3  -5  -2 2472.12 587.157  13
  -3  -5  -1 2738.01 623.813  13
  -3  -5   0 2130.71 553.971  13
  -3   5   0 3015.47 683.547  11
  -3  -5   1 2446.08 539.753  13
  -3   5   1 2767.27 686.231  11
  -3   5   2 2588.35 597.404  11
  -3   5   3 1387.53 440.470  11
  -3  -5   5-196.442 186.660  17
   3  -5   5 365.787 317.308  17
   3  -5   6 526.966 253.930  17
  -3  -5   6 943.944 305.813  17
   3  -5   7-84.2852 156.829  17
  -3  -6  -4 849.589 255.970  13
   3  -6  -4 833.769 232.597  13
   3   6  -4 868.076 300.651  10
  -3  -6  -3 123.363 186.845  13
   3  -6  -3 375.318 245.495  13
   3   6  -3-45.5337 237.721  10
  -3  -6  -2-33.4863 203.835  13
   3  -6  -2-125.833 240.425  13
   3   6  -2-152.441 326.412  10
  -3  -6  -1 1059.82 389.225  13
   3  -6  -1 1275.55 433.297  13
  -3  -6   0-37.2394 203.171  13
   3  -6   0-684.094 319.495  13
  -3  -6   1 1717.72 414.638  13
   3  -6   1 1488.57 381.528  13
   3  -6   2 129.883 167.816  17
   3  -6   3 256.138 229.422  17
   3  -6   4 763.609 237.459  17
  -4   0  -5 146.071 181.933   8
  -4   0  -5 115.619 290.663   6
  -4   0  -4 3658.81 574.676   8
  -4   0  -3-68.7594 180.570   8
  -4   0  -2 43432.8 1640.17   8
  -4   0  -2 41555.2 1548.17   7
  -4   0  -1 131.446 214.886   7
  -4   0   0 2334.21 363.169   7
  -4   0   0 2771.94 407.223   4
  -4   0   1-43.5708 159.585   7
  -4   0   1-2.16382 167.482   4
  -4   0   6 88494.6 3088.54  12
  -4   0   6 87881.5 3122.22  17
  -4   0   7-434.577 269.853  12
  -4   0   7-290.707 238.539  17
  -4   0   8 802.417 389.655  12
  -4   0   8 291.651 219.926  17
  -4   0   8 636.987 333.874  14
  -4   0   9 4.47063 235.534  12
  -4   0   9-628.818 260.032  14
  -4   0  10 2613.98 466.450  12
  -4  -1  -5 7049.24 809.712   8
  -4   1  -5 6023.08 844.714   8
  -4  -1  -5 5713.49 785.703   6
  -4  -1  -4 36882.7 1708.67   8
  -4   1  -4 35326.1 1839.78   8
  -4   1  -4 34796.3 1551.01   7
  -4  -1  -4 35808.7 1781.93   6
  -4   1  -3 9311.54 875.521   8
  -4   1  -3 9446.37 803.916   7
  -4  -1  -3 10136.9 866.932   6
  -4   1  -2 111983. 2759.81   8
  -4   1  -2 113776. 2829.22   7
  -4   1  -1 17240.2 964.311   8
  -4   1  -1 15886.3 1010.79   7
  -4  -1  -1 16168.9 954.609   9
  -4  -1   0 64679.2 1883.02   9
   4  -1   0 63635.5 1223.11   3
  -4  -1   0 62074.3 1961.78   4
  -4   1   0 60805.2 1958.50   7
  -4   1   0 63464.5 1554.81   4
  -4  -1   1 16863.8 930.694   9
  -4   1   1 15902.1 972.607   7
  -4  -1   1 16722.2 1037.44   4
  -4   1   1 16399.5 849.110   4
  -4  -1   2 110015. 2925.05   4
  -4   1   2 117537. 2614.73   7
  -4  -1   6 1952.34 488.104  17
  -4   1   6 2923.28 587.057  12
  -4   1   6 3736.47 625.998  14
  -4   1   7 3079.77 643.365  12
  -4  -1   7 3714.78 655.891  12
  -4  -1   7 3650.52 702.787  17
  -4   1   7 4504.65 736.555  14
  -4   1   8 11474.4 1247.47  12
  -4  -1   8 10904.8 1080.71  12
  -4  -1   8 11949.9 1197.37  17
  -4   1   8 10783.1 1080.49  14
  -4  -1   9 785.653 311.556  17
  -4   1   9 549.566 372.465  12
  -4  -1   9 191.062 255.050  12
  -4  -1   9 287.325 240.884  14
  -4  -1  10 1363.35 332.994  12
  -4   1  10 2722.24 472.711  12
   4   2  -8 457.914 285.739  16
  -4   2  -4 9910.98 1028.42   8
  -4   2  -4 10995.2 1010.29   7
  -4  -2  -4 9176.72 975.479   6
  -4   2  -3 15283.4 1137.89   8
  -4   2  -3 14931.7 1182.26   7
  -4  -2  -3 14539.0 1126.33   6
  -4   2  -2 13366.5 956.966   8
   4  -2  -2 14277.2 990.043   5
  -4   2  -2 15415.2 1188.52   7
  -4  -2  -2 13743.5 991.495   6
  -4  -2  -2 12438.2 982.735   9
  -4  -2  -1 3400.94 551.349   9
   4  -2  -1 3995.60 461.264   5
  -4   2  -1 4706.63 533.658   8
   4  -2  -1 4076.61 443.130   3
  -4  -2   0 18556.9 1190.81   9
  -4  -2   0 22285.1 1265.64   4
   4  -2   0 19602.8 951.567   3
  -4  -2   1 3763.58 534.721   4
  -4   2   2 14594.8 1111.15   7
  -4  -2   2 13551.2 1055.11   4
  -4  -2   3 15681.0 1208.72   4
  -4  -2   4 11138.9 1105.40   4
  -4   2   5 4608.48 734.283  12
  -4  -2   5 5214.10 754.096  17
  -4   2   5 5788.82 788.867  14
  -4  -2   5 4939.95 827.689   4
  -4   2   6 27164.2 1899.64  12
  -4   2   6 26031.6 1739.39  14
  -4  -2   6 25847.3 1771.21  17
  -4   2   7 6510.01 992.991  12
  -4  -2   7 6057.14 913.541  17
  -4   2   7 6987.39 881.484  14
  -4   2   8 91.9200 262.462  12
  -4  -2   8-14.1397 280.287  17
  -4   2   9 1030.56 333.557  12
  -4  -2   9 949.437 322.690  17
   4   3  -8 170.371 197.074  16
   4   3  -5 11295.8 1301.58  10
  -4  -3  -4 5592.43 824.581  13
   4   3  -4 3519.10 684.218  10
  -4  -3  -3 3418.18 627.947   9
   4  -3  -3 5286.14 736.912   5
  -4   3  -3 5882.74 866.983   7
  -4  -3  -2 11393.4 1052.60   9
   4  -3  -2 10926.6 1009.04   5
  -4  -3  -1 27583.2 1655.74   9
   4  -3  -1 31505.4 1541.22   3
   4  -3   0 4284.57 561.193   3
  -4  -3   0 4805.06 712.955   9
  -4  -3   1 31036.1 1593.73   4
  -4   3   4 4107.63 717.343  12
  -4  -3   4 3492.67 610.089  17
  -4   3   5 8970.47 1071.00  12
  -4  -3   5 11129.0 1154.03  17
  -4   3   6 1078.87 440.024  12
  -4  -3   6 1085.22 375.037  17
  -4  -3   7 2910.87 661.066  17
   4  -3   7 2221.11 511.525  17
  -4   3   7 3387.81 686.139  12
  -4   3   8 229.100 241.421  12
  -4  -3   8 350.440 298.896  17
  -4   3   9 2553.84 395.284  12
  -4  -3   9 1272.23 318.863  17
   4   4  -5 6736.41 1016.18  10
  -4  -4  -5 8604.36 1034.33  13
  -4  -4  -4 4422.04 786.229  13
   4   4  -4 4287.66 807.602  10
  -4  -4  -3 6079.96 900.328  13
   4   4  -3 6190.95 934.961  10
  -4  -4  -2 2081.52 574.777  13
  -4   4  -2 2120.04 638.475  11
  -4  -4  -1 4185.43 729.807  13
  -4   4  -1 4403.41 733.803  11
  -4   4   0 29215.6 1949.78  11
  -4  -4   0 28718.9 1854.88  13
  -4  -4   1 5981.27 829.044  13
  -4   4   1 4370.37 736.043  12
  -4   4   1 6277.60 914.286  11
  -4   4   2 1412.24 444.704  12
  -4   4   3 5697.86 832.895  12
  -4  -4   4 5008.30 768.439  17
  -4   4   4 3227.19 588.754  12
  -4  -4   5 7416.29 924.204  17
  -4   4   5 5150.21 766.859  12
   4  -4   6-38.7792 263.816  17
  -4   4   6 339.746 185.669  12
  -4  -4   7 2784.25 531.910  17
   4  -4   7 2545.84 454.186  17
  -4   4   7 2317.62 453.318  12
  -4  -4   8 252.892 154.779  17
  -4  -5  -5 1011.44 335.056  13
  -4  -5  -4 1416.60 466.052  13
   4  -5  -4 2600.31 557.311  13
   4   5  -4 1161.45 413.925  10
  -4  -5  -3 4136.81 755.424  13
   4   5  -3 3500.87 735.602  10
  -4  -5  -2 4965.69 867.207  13
  -4  -5  -1 510.600 350.865  13
  -4   5  -1 681.339 352.082  11
  -4  -5   0-61.6701 337.892  13
  -4   5   0-197.465 409.036  11
  -4  -5   1 755.015 311.132  13
  -4   5   1 385.519 394.758  11
  -4   5   2 4229.00 765.304  11
  -4   5   3 3734.73 689.248  11
  -4   5   4 2353.72 531.894  11
   4  -5   5 80.7618 266.954  17
  -4  -5   6 207.573 191.093  17
   4  -5   6 410.787 182.686  17
  -4  -6  -3-384.746 233.262  13
   4  -6  -3 50.8811 162.005  13
   4   6  -3 165.622 173.723  10
  -4  -6  -2 145.851 212.042  13
   4  -6  -2-68.5232 241.440  13
   4   6  -2 218.505 249.284  10
  -4  -6  -1 968.198 329.448  13
   4  -6  -1 240.218 252.269  13
   4   6  -1 308.370 280.072  10
  -4  -6   0 4094.68 610.362  13
   4  -6   0 4071.30 630.541  13
   4  -6   1 841.504 301.358  13
   4  -6   3-20.5831 157.647  17
  -5   0  -5 72471.6 2866.01   8
  -5   0  -4-26.2753 190.208   8
  -5   0  -3 7681.24 819.982   8
  -5   0   0-73.1324 186.397   4
  -5   0   1 132932. 3108.97   4
  -5   0   2 19.3266 198.385   4
  -5   0   6 152.605 200.157  17
  -5   0   6 448.680 287.658  12
  -5   0   7 7036.41 938.123  12
  -5   0   7 6660.54 899.839  17
  -5   0   8 160.393 285.530  12
  -5   0   8-30.7556 166.893  14
  -5   0   9-108.245 238.654  12
  -5   0   9 72.9167 124.316  14
  -5   1  -4 3340.00 624.869   8
  -5   1  -4 3794.12 579.634   7
  -5   1  -3 25302.3 1503.55   8
  -5   1  -3 26112.7 1444.18   7
  -5   1  -2 31772.5 1554.47   8
  -5   1  -2 33386.1 1617.89   7
  -5   1  -1 15590.8 1099.36   7
  -5   1   0 34412.8 1295.71   4
  -5   1   0 35010.2 1603.68   7
  -5  -1   0 32900.4 1559.47   4
  -5  -1   0 34802.9 1459.43   9
  -5  -1   1 17428.6 990.015   9
  -5   1   1 16341.3 1091.21   7
  -5  -1   1 16355.3 1116.20   4
  -5   1   1 16749.8 965.763   4
  -5  -1   2 33634.1 1370.03   9
  -5   1   2 34093.8 1496.78   7
  -5  -1   2 32768.2 1707.33   4
  -5   1   2 32323.9 1523.46   4
  -5  -1   3 27195.4 1656.83   4
  -5  -1   4 2712.60 561.310   4
  -5   1   5 12379.7 1201.50  12
  -5  -1   5 11759.6 1131.65  17
  -5   1   5 14910.0 1272.60  14
  -5  -1   6 7356.21 942.047  17
  -5   1   6 5972.38 886.255  12
  -5   1   6 6158.12 885.231  14
  -5   1   7 30810.4 2042.09  12
  -5  -1   7 28117.3 1882.63  17
  -5   1   7 29780.1 1929.47  14
  -5  -1   8 525.265 332.120  17
  -5   1   8 604.933 364.259  12
  -5   1   8 134.153 188.346  14
  -5   1   9 950.739 382.534  12
  -5  -1   9 873.136 302.494  14
  -5   2  -4 10136.3 1068.40   8
  -5   2  -4 10402.9 1060.10   7
   5  -2  -3 5534.36 683.923   5
  -5   2  -3 5082.67 720.574   8
  -5   2  -3 5471.19 775.942   7
  -5  -2  -2 4665.19 656.083   9
  -5   2  -2 4281.39 600.809   8
  -5   2  -2 4441.43 687.309   7
  -5  -2  -1 24551.2 1452.97   9
  -5   2  -1 25714.5 1616.38   7
  -5  -2   0 711.254 279.006   9
  -5   2   0 975.250 356.974   7
  -5  -2   0 1056.43 357.216   4
  -5  -2   1 22761.4 1416.70   9
  -5  -2   1 22270.3 1390.58   4
  -5   2   1 26565.2 1591.44   7
  -5  -2   2 4024.96 587.956   9
  -5   2   2 4592.75 675.785   7
  -5  -2   2 3738.89 619.015   4
  -5  -2   3 7464.19 908.677   4
  -5   2   4 10125.2 1119.83  12
  -5  -2   4 12035.1 1204.17   4
  -5   2   4 9952.69 1009.55  14
  -5   2   5 11465.3 1232.10  12
  -5  -2   5 15106.5 1313.35  17
  -5   2   5 12967.5 1234.47  14
  -5  -2   6 6956.59 943.945  17
  -5   2   6 7250.05 1020.39  12
  -5   2   6 7874.34 996.842  14
  -5  -2   7 1969.09 558.404  17
  -5   2   7 2292.07 605.683  12
  -5   2   8 4127.39 749.607  12
  -5  -2   8 3397.66 629.529  17
  -5   2   9-158.731 259.503  12
  -5  -2   9 384.403 273.382  17
  -5  -3  -4 285.401 237.917  13
  -5  -3  -3 1369.15 459.113  13
  -5   3  -2 14356.6 1290.39  18
  -5  -3  -2 14450.3 1333.64  13
  -5  -3  -1 1766.75 437.680   9
  -5   3  -1 1326.00 418.567   7
  -5  -3   0 12235.1 1173.15   9
  -5   3   0 12061.9 1265.59   7
  -5  -3   1 1881.44 470.668   9
  -5   3   1 1464.58 472.235   7
  -5  -3   1 2290.41 492.452   4
  -5   3   2 16876.4 1419.86  12
  -5   3   2 16010.3 1393.42   7
  -5  -3   2 14594.4 1232.50   4
  -5   3   3 1272.86 441.729  12
  -5   3   4 203.042 256.084  12
  -5  -3   4 633.062 311.407  17
  -5   3   5 8978.10 1099.42  12
  -5  -3   5 12153.6 1202.22  17
  -5   3   6 8980.31 1121.55  12
  -5  -3   6 14357.6 1318.56  17
  -5   3   7 2837.73 618.800  12
  -5  -3   7 2167.86 536.923  17
  -5  -3   8 1318.01 392.501  17
  -5   3   8 1382.95 393.358  12
  -5  -4  -5 5641.65 803.912  13
   5   4  -4 14812.1 1386.78  10
  -5  -4  -4 19399.0 1625.32  13
  -5  -4  -3 4403.87 835.914  13
   5   4  -3 3283.96 680.553  10
  -5  -4  -2 122.681 214.078  13
  -5   4  -2 789.555 339.689  11
  -5   4  -1 8370.47 1046.24  11
  -5  -4  -1 9374.51 1152.21  13
  -5  -4   0 3555.10 694.324  13
  -5   4   0 3647.22 760.969  11
  -5   4   1 9932.86 1146.69  12
  -5   4   1 11284.1 1175.40  18
  -5  -4   1 10858.3 1180.89  13
  -5   4   2 324.199 227.340  12
  -5   4   3 4595.51 779.178  12
  -5   4   4 13389.7 1254.59  12
  -5  -4   5 4071.09 656.555  17
  -5   4   5 3972.67 663.191  12
  -5  -4   6-498.808 265.707  17
   5  -4   6-59.7831 169.043  17
  -5   4   6-27.4992 236.135  12
  -5   4   7 163.364 154.092  12
  -5  -4   7 94.6001 172.642  17
   5  -4   7 573.525 205.490  17
  -5  -5  -5 516.156 263.015  13
  -5  -5  -4 2760.83 567.602  13
   5  -5  -4 3284.41 598.607  13
   5   5  -4 2260.87 517.995  10
  -5  -5  -3 3513.83 703.221  13
   5   5  -3 3180.56 634.834  10
  -5  -5  -2 63.4746 298.506  13
   5   5  -2 117.444 233.778  10
  -5  -5  -1 1276.17 439.599  13
  -5   5  -1 1022.78 504.094  11
  -5  -5   0-65.0462 245.703  13
  -5   5   0-67.0177 324.689  11
  -5  -5   1 518.878 335.670  13
  -5   5   1 791.848 416.598  11
  -5   5   2-173.414 323.838  11
  -5   5   3 2640.03 561.252  11
  -5   5   4 1844.60 430.516  11
   5  -5   5 3.98715 171.820  17
  -5   5   5 119.768 159.959  11
   5  -5   6 826.993 208.798  17
  -5  -6  -2-256.874 250.781  13
   5  -6  -2-252.474 217.274  13
  -5  -6  -1 1533.56 359.803  13
   5  -6  -1 1215.02 343.469  13
   5   6  -1 792.706 275.618  10
  -5  -6   0 755.870 243.073  13
   5   6   0 343.033 219.480  10
   5  -6   1 476.881 201.452  13
  -6   0   0 72942.1 2394.42   4
  -6   0   1-112.613 245.833   4
  -6   0   2 1192.64 383.537   4
  -6   0   3 107.111 204.704   4
  -6   0   4 4249.70 743.130   4
  -6   0   5 264.487 282.858  17
  -6   0   6 45400.4 2378.54  12
  -6   0   6 37898.2 2181.56  17
  -6   0   7 131.003 189.956  12
  -6   0   7 368.171 347.606  14
  -6   0   8 957.958 349.411  12
  -6   0   8 522.243 288.919  14
  -6   0   9-446.754 219.043  12
  -6   0   9-155.921 207.639  14
  -6   1  -3 1172.89 396.919   8
  -6   1  -3 1066.50 357.390   7
  -6   1  -2 69840.4 2546.74   7
  -6   1  -1 15883.6 1179.99   7
  -6   1   0 13.1091 205.037   7
  -6  -1   0 29.3108 195.407   4
  -6   1   1 16351.2 1179.20   7
  -6  -1   1 16430.8 1193.55   4
  -6  -1   1 15888.1 1026.57   9
  -6   1   2 73435.6 2471.34   7
  -6  -1   2 68491.7 2635.69   4
  -6   1   2 69104.6 2407.72   4
  -6  -1   3 692.117 328.566   4
  -6   1   3 1198.76 326.297   4
  -6  -1   4 4046.29 649.030  17
  -6   1   4 3706.78 683.989  12
  -6   1   4 3434.63 622.908  14
  -6   1   4 3788.87 669.006   4
  -6   1   5 7750.26 1031.64  12
  -6  -1   5 7825.95 969.089  17
  -6   1   5 6902.96 916.323  14
  -6   1   6 7418.36 1040.73  12
  -6  -1   6 7651.92 983.064  17
  -6   1   6 9006.66 1101.69  14
  -6   1   7 1542.54 498.423  12
  -6  -1   7 1597.79 495.069  17
  -6   1   7 1312.95 460.490  14
  -6   1   8 1273.83 395.449  12
  -6   1   8 1646.09 448.170  14
  -6  -1   8 1156.20 427.888  14
  -6   1   9 279.110 224.557  12
  -6  -1   9 400.374 206.195  14
  -6  -2  -4 4600.55 759.292  13
  -6  -2  -3 1231.76 429.282  13
  -6   2  -3 1270.44 342.839   8
  -6   2  -3 1847.84 482.353  18
  -6   2  -2 7598.54 944.726   7
  -6   2  -1 9696.91 1040.02   7
  -6  -2  -1 9657.29 976.442   9
  -6  -2   0 3227.80 575.080   9
  -6   2   0 3557.71 651.902   7
  -6  -2   0 3304.22 604.904   4
  -6  -2   1 10295.4 995.091   9
  -6  -2   1 9289.20 998.193   4
  -6   2   1 10338.7 1071.16   7
  -6  -2   2 7847.31 880.682   9
  -6  -2   2 8742.04 974.619   4
  -6   2   2 8974.98 971.034   7
  -6   2   3 1750.59 500.145  12
  -6   2   3 1629.65 428.391  14
  -6   2   4 4254.97 725.157  18
  -6   2   4 4197.16 749.846  12
  -6  -2   4 3995.72 683.321  17
  -6   2   4 3371.08 624.292  14
  -6   2   5 2187.18 579.521  12
  -6  -2   5 3369.84 666.858  17
  -6   2   5 3125.89 669.913  14
  -6   2   6 8106.45 1083.32  12
  -6  -2   6 9342.79 1062.50  17
  -6   2   7 1957.26 532.669  12
  -6  -2   7 3042.82 616.011  17
  -6   2   8 2553.10 564.543  12
  -6  -2   8 2726.09 549.347  17
  -6   2   9 834.678 247.850  12
  -6  -2   9 533.986 210.262  14
  -6  -3  -4 2314.24 566.763  13
  -6  -3  -3 24.5214 256.049  13
  -6   3  -2 6697.83 924.504  18
  -6  -3  -2 7651.52 1052.72  13
  -6   3  -1 18510.6 1517.54  18
  -6   3  -1 17347.3 1394.24  11
  -6  -3  -1 17624.3 1523.22  13
  -6  -3   0 4348.35 739.465  13
  -6   3   0 3086.51 607.536  12
  -6   3   0 4111.82 722.359  18
  -6  -3   0 4151.34 710.627  15
  -6   3   1 18379.2 1485.97  12
  -6   3   1 16691.1 1418.83  18
  -6  -3   1 17607.0 1469.08  13
  -6   3   2 5169.68 820.408  12
  -6   3   2 6492.78 873.932  18
  -6   3   3 411.371 283.495  12
  -6  -3   4 1956.57 492.953  17
  -6   3   4 1161.62 391.356  12
  -6   3   5 5603.81 868.988  12
  -6  -3   5 6625.87 877.078  17
  -6   3   6 325.245 361.143  12
  -6  -3   6 736.948 387.247  17
  -6   3   7 63.5210 194.755  12
  -6  -3   7 78.9607 247.321  17
  -6   3   8 1619.95 350.996  12
  -6  -3   8 1824.77 357.236  17
  -6  -4  -5 1684.78 435.730  13
  -6  -4  -4 3673.68 698.950  13
  -6  -4  -3 830.322 409.976  13
  -6  -4  -2 7307.98 1095.93  13
  -6   4  -2 6070.76 848.993  11
  -6   4  -1 9863.29 1128.07  11
  -6  -4  -1 10578.6 1288.51  13
  -6   4   0 9795.10 1213.51  11
  -6  -4   0 8496.58 1101.89  13
  -6   4   1 9890.40 1201.06  11
  -6  -4   1 12979.4 1279.70  15
  -6   4   1 10165.7 1098.26  18
  -6  -4   1 8643.72 1072.87  13
  -6   4   2 5531.01 876.614  12
  -6   4   3 616.902 377.948  12
  -6   4   4 2334.76 546.704  12
  -6   4   5 1780.38 442.013  12
   6  -4   6 9.02305 139.323  17
  -6   4   6 54.7223 186.743  12
  -6   4   7 642.624 212.578  12
   6  -5  -4 350.175 224.437  13
  -6  -5  -4-157.726 261.592  13
  -6  -5  -3 4450.44 718.518  13
  -6  -5  -2 1171.05 457.526  13
  -6  -5  -1 770.983 401.649  13
  -6  -5   0 85.8843 230.781  13
  -6   5   0 22.6770 206.681  11
  -6   5   1 950.731 423.708  11
  -6  -5   1 196.792 216.746  13
  -6   5   2 1346.35 474.087  11
  -6   5   3 3950.13 656.422  11
  -6  -5   3 4066.41 625.250  15
  -6   5   4 290.180 196.312  11
  -6  -5   4-202.963 251.697  15
   6  -5   5 213.672 185.618  17
  -6  -5   5 290.734 202.027  15
  -7   0   0 156.001 188.385   4
  -7   0   1 5156.92 699.168   4
  -7   0   2 234.811 189.236   4
  -7   0   3 2488.02 511.967  14
  -7   0   4 58.3511 274.273  14
  -7   0   5 16306.8 1444.51  14
  -7   0   6-125.660 288.126  14
  -7   0   7 391.932 334.699  14
  -7   0   8-38.6400 211.476  14
  -7  -1  -3 3437.35 637.728  15
  -7   1  -2 1610.50 456.412   7
  -7   1  -1 12402.0 1151.46   7
  -7   1   0 7752.43 898.124   7
  -7  -1   0 7980.04 910.996   4
  -7   1   1 14189.2 1199.77   7
  -7  -1   1 14552.2 1229.06   4
  -7  -1   2 2022.38 480.153   4
  -7   1   3 2827.42 580.720  12
  -7  -1   3 3943.13 669.542  17
  -7  -1   3 2157.61 533.410  15
  -7   1   3 3366.79 605.070  14
  -7   1   4 4521.40 786.296  12
  -7  -1   4 5408.77 814.162  17
  -7   1   4 4686.07 745.864  14
  -7   1   5 2580.79 622.276  12
  -7  -1   5 2738.43 607.421  17
  -7   1   5 1700.69 489.453  14
  -7   1   6 585.312 277.440  18
  -7   1   6 292.848 216.079  12
  -7  -1   6-48.9879 258.794  17
  -7   1   6 848.775 387.092  14
  -7   1   7 4042.38 690.081  12
  -7   1   7 5282.11 822.567  14
  -7  -1   7 4312.57 754.368  14
  -7   1   8 142.120 177.089  12
  -7  -1   8 55.8657 226.310  14
  -7   2  -3 4423.86 746.635  18
  -7  -2  -3 5623.84 869.595  15
  -7  -2  -3 4798.69 803.839  13
  -7   2  -2 2272.73 555.906  18
  -7  -2  -2 2755.15 605.852  15
  -7  -2  -2 2334.52 591.630  13
  -7   2  -1 1617.99 496.232  18
  -7  -2  -1 1891.18 505.921  15
  -7  -2  -1 2106.58 524.532  13
  -7   2   0 5449.38 804.882  12
  -7   2   0 6056.22 877.422  18
  -7  -2   0 6205.24 857.590  15
  -7  -2   0 5761.84 873.151  13
  -7   2   1 1765.92 473.439  12
  -7   2   1 1382.60 443.859  18
  -7  -2   1 2141.31 573.674  15
  -7   2   2 2613.13 590.901  12
  -7   2   2 2378.70 543.188  18
  -7   2   3 5198.34 829.210  12
  -7   2   3 4748.48 768.974  18
  -7   2   4 3697.03 685.113  18
  -7   2   4 2293.87 562.576  12
  -7  -2   4 3617.31 650.117  17
  -7   2   5 2695.01 639.718  12
  -7  -2   5 1585.09 453.457  17
  -7   2   6 2554.72 617.368  12
  -7  -2   6 2507.96 552.051  17
  -7   2   7 1040.48 384.424  12
  -7  -2   7 1228.00 402.249  17
  -7  -2   7 1122.24 361.666  15
  -7   2   8 2523.85 435.839  12
  -7  -2   8 2673.95 467.924  14
  -7  -3  -4 5187.58 859.615  13
  -7  -3  -3 2013.66 560.819  13
  -7   3  -2-106.553 343.941  18
  -7  -3  -2 55.9634 243.840  13
  -7  -3  -1 659.685 318.649  13
  -7   3  -1 562.659 377.994  18
  -7   3  -1 549.894 264.662  11
  -7  -3  -1 1052.94 408.811  15
  -7   3   0 2603.30 624.888  18
  -7  -3   0 1893.74 516.476  15
  -7  -3   0 2084.73 550.418  13
  -7   3   1 740.021 406.957  12
  -7   3   1 515.107 320.682  18
  -7  -3   1 918.580 471.123  15
  -7  -3   1 1160.92 400.255  13
  -7   3   2 316.273 268.578  12
  -7   3   2-328.955 259.644  18
  -7  -3   2 428.612 296.163  15
  -7   3   3 1113.37 450.877  12
  -7   3   3 1956.96 488.780  18
  -7   3   4 3492.20 711.430  12
  -7   3   5 2726.61 618.007  12
  -7  -3   5 3973.37 656.624  17
  -7   3   6 15.2633 284.027  12
  -7  -3   6 18.4520 248.184  17
  -7   3   7 3471.33 542.702  12
  -7  -3   7 3816.87 552.470  15
  -7  -4  -4 3096.48 601.998  13
  -7  -4  -3 4091.96 803.382  13
  -7  -4  -2 553.768 390.424  13
  -7   4  -2 194.947 239.864  11
  -7  -4  -1 1917.50 521.003  13
  -7   4  -1 1995.42 513.722  11
  -7   4   0 1127.13 476.602  11
  -7  -4   0 1705.54 519.568  13
  -7   4   1 1873.06 500.926  18
  -7   4   1 2262.43 613.417  11
  -7  -4   1 2269.73 551.058  15
  -7  -4   1 2525.22 604.685  13
  -7   4   2 460.275 239.385  18
  -7  -4   2 351.079 295.854  15
  -7   4   3 3899.07 690.093  12
  -7  -4   3 3152.96 705.291  15
  -7   4   4 2400.79 507.622  12
  -7  -4   4 2414.34 631.361  15
  -7   4   5 954.932 329.445  12
  -7  -4   5 1575.83 481.427  15
  -7   4   6 1184.32 324.612  12
  -7  -4   6 1372.29 358.721  15
  -7  -5  -2 95.1923 253.344  13
  -7  -5  -1-87.3345 222.235  13
  -7   5   0-262.989 335.366  11
  -7  -5   0 125.213 177.448  13
  -7   5   1-62.9868 258.778  11
  -7   5   2 226.766 200.838  11
  -7   5   3 335.000 184.939  11
  -7  -5   3 330.578 202.163  15
  -7   5   4-111.860 153.705  11
   8   0   6 429.261 299.935  14
   8   0   5-15.3981 124.284  14
  -8   0  -2 10305.7 1136.34  15
  -8   0  -1-330.099 263.693  15
  -8   0   0 14877.2 1339.76  18
  -8   0   0 14261.8 1317.02  15
  -8   0   1-57.9810 187.132  18
  -8   0   1 25.3035 187.857  15
  -8   0   2 9888.95 1055.73  15
  -8   0   3 316.009 273.563  14
  -8   0   4 11660.4 1177.80  14
  -8   0   5-77.5067 226.438  14
  -8   0   6 397.113 329.298  14
  -8   0   7 103.379 163.006  18
  -8   0   7 152.357 238.246  14
  -8   0   8 426.605 196.917  14
  -8  -1  -3 1009.65 430.463  15
  -8   1  -2 23470.2 1657.91  18
  -8  -1  -2 24763.3 1752.81  15
  -8   1  -1 1213.67 395.321  18
  -8  -1  -1 1045.51 412.252  15
  -8   1   0 8877.60 1089.45  18
  -8   1   0 9948.26 1060.20  15
  -8  -1   0 8708.43 1054.53  15
  -8   1   1 783.251 386.636  18
  -8  -1   1 324.584 300.982  15
  -8   1   2 22838.0 1717.20  18
  -8  -1   2 22852.6 1733.10  15
  -8   1   3 910.939 406.335  18
  -8  -1   3 1061.21 371.060  15
  -8   1   4 8509.57 1073.94  18
  -8  -1   4 7334.14 979.454  15
  -8   1   4 6639.70 929.187  14
  -8  -1   4 7044.16 916.991  14
  -8   1   5 2095.19 513.122  12
  -8   1   5 1674.64 514.610  18
  -8   1   5 1298.19 436.759  14
  -8  -1   5 1793.67 506.738  14
  -8   1   6-378.268 354.360  12
  -8   1   6 107.075 230.356  18
  -8   1   6 75.2179 313.401  14
  -8  -1   6-52.5125 233.993  14
  -8   1   7 296.490 208.684  12
  -8  -1   7 34.3961 201.702  14
  -8  -1   8 526.990 242.289  14
  -8   2  -3 12824.8 1262.94  18
  -8  -2  -3 15289.7 1378.07  15
  -8   2  -2 4546.90 792.909  18
  -8  -2  -2 5482.36 849.262  15
  -8   2  -1 1847.27 568.527  18
  -8  -2  -1 598.177 384.614  15
  -8  -2   0 9316.32 1145.10  15
  -8   2   0 8299.92 1087.00  18
  -8   2   1 1633.44 502.152  12
  -8   2   1 1631.80 491.229  18
  -8  -2   1 1511.17 524.136  15
  -8   2   2 4911.04 809.409  18
  -8   2   2 5307.15 844.415  12
  -8  -2   2 5427.96 898.054  15
  -8   2   3 14907.6 1375.17  12
  -8   2   3 12806.1 1258.07  18
  -8  -2   3 13388.1 1406.73  15
  -8   2   4 2656.15 620.326  12
  -8   2   4 2383.76 577.862  18
  -8  -2   4 3375.47 735.735  15
  -8   2   5 495.504 308.209  12
  -8   2   5 637.670 312.491  18
  -8  -2   5 136.293 225.791  15
  -8   2   6 893.680 332.291  12
  -8  -2   6 714.863 290.627  15
  -8  -2   6 890.372 324.003  14
  -8   2   7 1524.26 344.370  12
  -8  -2   7 1276.68 340.066  14
  -8   3  -2 834.450 379.826  18
  -8  -3  -2 296.008 279.037  15
  -8   3  -1 5790.45 897.307  18
  -8  -3  -1 6235.50 885.617  15
  -8   3   0 13864.6 1265.50  11
  -8  -3   0 10687.0 1204.48  15
  -8   3   0 10644.1 1215.91  18
  -8   3   1 5158.42 830.173  18
  -8  -3   1 5245.63 887.693  15
  -8   3   2 242.376 285.656  12
  -8   3   2 114.226 229.855  18
  -8  -3   2 339.612 326.353  15
  -8   3   3 1244.63 450.296  12
  -8   3   3 1871.17 473.711  18
  -8  -3   3 2301.98 617.275  15
  -8   3   4 1085.48 429.543  12
  -8  -3   4 1270.68 486.330  15
  -8   3   5 1500.15 416.014  12
  -8  -3   5 1423.12 492.755  15
  -8   3   6 524.130 250.430  12
  -8  -3   6 320.344 233.340  15
  -8   4  -1 3830.58 620.574  11
  -8   4   0 261.861 241.989  11
  -8  -4   0 1394.11 413.503  15
  -8   4   1 2375.31 517.914  11
  -8  -4   1 3668.50 677.699  15
  -8   4   2 308.934 302.402  11
  -8  -4   2 165.889 269.511  15
  -8   4   3 2055.16 490.350  11
  -8  -4   3 2534.81 554.944  15
  -8   4   4 231.063 198.745  11
  -8  -4   4 242.128 242.329  15
  -8   4   5 453.742 215.305  11
  -8  -4   5 425.785 241.055  15
  -8   5   1 1955.03 359.146  11
  -8   5   2 671.473 213.257  11
  -9   0  -1 24234.3 1803.52  15
  -9   0   0-604.688 337.700  18
  -9   0   0-10.8608 279.710  15
  -9   0   1 27252.2 1937.41  18
  -9   0   1 25282.9 1772.26  15
  -9   0   2-28.4413 238.890  18
  -9   0   2 75.7044 222.616  15
  -9   0   3 5333.01 912.897  18
  -9   0   4-183.420 259.466  14
  -9   0   5 1917.15 532.875  18
  -9   0   5 1984.18 501.626  14
  -9   0   6-48.1665 279.755  18
  -9   0   6-53.7692 228.751  14
  -9   0   7 440.128 218.708  18
  -9   1  -2 477.858 278.104  18
  -9  -1  -2 934.033 452.389  15
  -9   1  -1 14333.1 1362.50  18
  -9  -1  -1 15468.6 1467.46  15
  -9   1   0 3172.51 696.453  18
  -9  -1   0 2390.92 568.328  15
  -9   1   1 17366.3 1543.98  18
  -9  -1   1 19312.6 1600.91  18
  -9  -1   1 15903.2 1503.14  15
  -9   1   2 516.282 306.965  18
  -9  -1   2 743.663 421.087  15
  -9   1   3 13103.8 1334.25  18
  -9  -1   3 13933.9 1346.76  15
  -9   1   4 1659.94 518.011  18
  -9  -1   4 1326.13 420.729  15
  -9   1   5 1315.83 407.830  18
  -9  -1   5 1831.54 445.405  14
  -9   1   6-274.906 201.776  18
  -9  -1   6-345.911 239.383  14
  -9  -1   7 582.488 263.001  18
  -9  -1   7 752.258 234.348  14
  -9   2  -2 12931.7 1275.58  18
  -9  -2  -2 12501.5 1275.10  15
  -9   2  -1 10661.0 1221.01  18
  -9  -2  -1 10149.7 1177.04  15
  -9   2   0 168.158 239.846  18
  -9  -2   0 209.355 301.779  15
  -9   2   1 10777.9 1192.60  18
  -9  -2   1 9742.20 1193.80  15
  -9   2   2 11480.9 1173.28  12
  -9   2   2 10850.8 1166.27  18
  -9  -2   2 12328.7 1393.27  15
  -9   2   3 1095.19 408.511  12
  -9   2   3 1336.84 479.114  18
  -9  -2   3 1337.98 520.947  15
  -9   2   4 448.619 349.514  12
  -9   2   4 504.328 325.810  18
  -9  -2   4 627.659 372.814  15
  -9   2   5 1375.68 383.710  12
  -9   2   5 1226.36 359.651  18
  -9  -2   5 1528.82 417.847  15
  -9   2   6 336.946 188.207  12
  -9  -2   6 391.498 212.868  15
  -9  -2   6 959.463 290.049  14
  -9  -3  -2 1738.27 500.123  15
  -9   3  -1 743.591 447.722  18
  -9  -3  -1 1362.39 393.770  15
  -9   3   0 7405.33 973.853  18
  -9  -3   0 7269.26 964.234  15
  -9   3   1 1205.57 457.769  18
  -9  -3   1 1285.39 503.782  15
  -9   3   2 1784.00 490.900  18
  -9  -3   2 938.621 413.566  15
  -9   3   3 475.165 266.359  18
  -9  -3   3 827.111 440.833  15
  -9   3   4 3477.02 591.792  12
  -9   3   4 3541.16 536.823  18
  -9  -3   4 2599.36 580.770  15
  -9   3   5 1674.30 355.693  12
  -9  -3   5 1801.14 410.721  15
  -9   4   0 1891.26 384.506  11
  -9  -4   0 1486.96 414.788  15
  -9   4   1 741.663 221.662  11
  -9  -4   1 588.452 284.986  15
  -9   4   2 4229.40 585.044  11
  -9  -4   2 5269.58 676.858  15
  -9   4   3-131.177 214.783  11
  -9  -4   3-9.17661 181.456  15
 -10   0   0 12221.9 1231.44  18
 -10   0   0 9388.99 1099.07  15
 -10   0   1 560.957 338.696  18
 -10   0   1-216.196 234.792  15
 -10   0   2 143.794 254.171  18
 -10   0   2-370.608 221.409  15
 -10   0   3 630.858 397.138  18
 -10   0   4 855.360 431.697  18
 -10   0   5 73.8184 195.858  18
 -10   0   6 235.646 158.203  18
 -10   1  -2 1621.78 500.042  18
 -10   1  -1 684.777 341.388  18
 -10  -1  -1 1074.58 471.876  15
 -10   1   0 157.755 281.064  18
 -10  -1   0-5.40466 288.605  15
 -10   1   1 398.938 283.396  18
 -10  -1   1 279.332 224.707  18
 -10  -1   1 944.109 447.539  15
 -10   1   2 2575.52 588.756  18
 -10  -1   2 2297.88 563.777  18
 -10  -1   2 1897.24 499.966  15
 -10   1   3 98.7067 291.321  18
 -10  -1   3 478.549 368.356  18
 -10  -1   3-135.441 247.063  15
 -10   1   4 266.624 341.035  18
 -10  -1   4 60.9596 260.878  18
 -10  -1   4 236.950 146.815  15
 -10   1   5-132.484 228.105  18
 -10  -1   5 269.856 232.955  18
 -10  -1   6 423.499 223.888  18
 -10   2  -2 245.137 253.537  18
 -10   2  -1 810.532 398.445  18
 -10  -2  -1 846.962 315.809  15
 -10   2   0 2090.52 566.364  18
 -10  -2   0 2207.23 581.606  15
 -10   2   1 547.855 377.755  18
 -10  -2   1 863.974 428.678  15
 -10   2   2-105.604 303.324  18
 -10  -2   2 21.1776 239.282  15
 -10   2   3 536.032 309.840  18
 -10  -2   3 248.315 231.357  18
 -10  -2   3 645.145 294.808  15
 -10   2   4 341.312 182.612  18
 -10  -2   4 311.749 225.273  18
 -10  -2   4 45.0562 209.943  15
 -10   2   5 22.7355 157.270  18
 -10  -2   5 380.125 179.220  15
 -10  -3  -1 1285.56 379.453  15
 -10   3   0 4.91173 226.105  18
 -10  -3   0-192.890 230.653  15
 -10   3   1 742.679 304.175  18
 -10  -3   1 1969.42 486.939  15
 -10   3   2 308.413 196.968  18
 -10   3   2 139.957 130.008  11
 -10  -3   2-10.3042 260.136  15
 -10  -3   3 484.022 259.967  15
 -10   3   3 311.399 197.186  11
 -10  -3   4 148.315 226.319  15
 -10   3   4-26.8833 155.700  11
 -11   0   0-93.6397 200.602  18
 -11   0   1 2505.73 518.680  18
 -11   0   2 283.056 313.713  18
 -11   0   3 2967.50 565.876  18
 -11   0   4-3.16075 211.284  18
 -11   1  -1 318.343 250.566  18
 -11   1   0 699.821 338.942  18
 -11  -1   0 451.240 304.263  15
 -11   1   1 339.477 242.422  18
 -11  -1   1 705.960 327.249  15
 -11   1   2 795.286 296.746  18
 -11  -1   2 765.437 293.119  18
 -11  -1   2 1159.04 346.545  15
 -11   1   3 1306.69 376.749  18
 -11  -1   3 1295.97 356.389  18
 -11  -1   3 865.828 287.070  15
 -11   1   4 416.622 228.446  18
 -11  -1   4 710.673 247.100  18
 -11   2  -1 289.039 233.362  18
 -11   2   0 58.8001 209.733  18
 -11  -2   0 53.8448 215.000  15
 -11   2   1 365.637 248.825  18
 -11  -2   1 492.563 287.616  15
 -11   2   2 426.610 212.965  18
 -11  -2   2 652.357 328.064  15
 -11   2   3 505.407 211.478  18
 -11  -2   3 105.613 170.393  15
 -11  -3   1 1141.86 313.443  15
 -12   1   1 544.054 233.585  18
   0   0   0    0.00    0.00   0
TITL exp_9947 in Pmn2(1)
REM Pmn2(1) (#31, found as Pn2(1)m in cab setting)
CELL 1.54184  10.035040   5.593661   8.963399  90.0000  90.0000  90.0000
ZERR    1.00   0.001739   0.001261   0.001719   0.0000   0.0000   0.0000
LATT -1
SYMM -x+1/2,-y, z+1/2
SYMM  x+1/2,-y, z+1/2
SYMM -x, y, z
SFAC C H N O
UNIT 10.00 11.00 1.00 2.00
TREF
HKLF 4
END
;
_shelx_hkl_checksum              41557
_shelx_res_file
;
TITL exp_9947 in Pmn21 #31
    shelx.res
    created by SHELXL-2016/6 at 11:32:55 on 06-Nov-2019
CELL  1.54184  10.0350   5.5937   8.9634   90.000   90.000   90.000
ZERR     2.00   0.0017   0.0013   0.0017    0.000    0.000    0.000
LATT  -1
SYMM  1/2 - X, - Y, 1/2 + Z
SYMM  - X,   Y,   Z
SYMM  1/2 + X, - Y, 1/2 + Z
SFAC  C    H    N    O
UNIT  20 26 2 8
MERG   2
DFIX 0.96 0.01 C6 H6A  C6 H6B
DANG 1.57 0.02 H6A H6B
EQIV $1 x,1+y,z
EQIV $2 1/2-x,1-y,-1/2+z
HTAB O3 O1_$1
HTAB C1 O2_$2
HTAB O3 N1
FMAP   2
PLAN    1
ACTA
BOND   $H
L.S.  40
WGHT    0.031700    0.079300
EXTI    0.012182
FVAR      15.27061
C1    1    0.076219    0.541880    0.389308    11.00000    0.08333    0.05726 =
         0.05009   -0.01580    0.01086    0.00488
C2    1    0.107196    0.594649    0.551305    11.00000    0.05804    0.05439 =
         0.05082   -0.00535    0.00052    0.01064
C3    1    0.076324    0.859312    0.583867    11.00000    0.04408    0.04576 =
         0.04640   -0.00350    0.00370   -0.00338
C4    1    0.114295    0.930766    0.739444    11.00000    0.05143    0.04600 =
         0.05183   -0.00770   -0.00677    0.00055
C5    1    0.000000    1.023690    0.981085    10.50000    0.09248    0.06689 =
         0.04234   -0.00560    0.00000    0.00000
C6    1   -0.028430    1.288577    1.003933    10.50000    0.10503    0.09497 =
         0.04101   -0.03061    0.00794   -0.01527
N1    3    0.000000    0.964164    0.821293    10.50000    0.05916    0.04436 =
         0.03991   -0.00617    0.00000    0.00000
O1    4    0.000000    0.475844    0.629426    10.50000    0.08523    0.04376 =
         0.04746    0.00096    0.00000    0.00000
O2    4    0.227077    0.951199    0.787220    11.00000    0.05314    0.10820 =
         0.09114   -0.03774   -0.02228    0.01252
O3    4    0.071714    1.432845    0.942442    10.50000    0.09743    0.05970 =
         0.06961    0.00303   -0.00823   -0.00875
AFIX 147
H7    2    0.096057    1.384427    0.860506    10.50000    0.29295
AFIX   0
H1A   2    0.113404    0.393476    0.360362    11.00000    0.08143
H1B   2    0.120982    0.655186    0.316077    11.00000    0.07026
H2    2    0.197864    0.538106    0.591032    11.00000    0.08427
H3    2    0.121395    0.960350    0.520267    11.00000    0.05513
H5    2    0.086322    0.951393    1.036530    11.00000    0.12139
H6A   2   -0.014017    1.306632    1.109864    10.50000    0.08198
H6B   2   -0.122916    1.290176    0.985626    10.50000    0.07928
HKLF 4
REM  exp_9947 in Pmn21 #31
REM R1 =  0.0448 for     594 Fo > 4sig(Fo)  and  0.0588 for all     731 data
REM    113 parameters refined using      4 restraints
END
WGHT      0.0314      0.0818
REM Highest difference peak  0.140,  deepest hole -0.122,  1-sigma level  0.032
Q1    1   0.0000  1.5082  0.8604  10.50000  0.05    0.14
;
_shelx_res_checksum              5652
loop_
_space_group_symop_operation_xyz
'x, y, z'
'-x+1/2, -y, z+1/2'
'-x, y, z'
'x+1/2, -y, z+1/2'
loop_
_atom_site_type_symbol
_atom_site_label
_atom_site_fract_x
_atom_site_fract_y
_atom_site_fract_z
_atom_site_U_iso_or_equiv
_atom_site_adp_type
_atom_site_calc_flag
_atom_site_occupancy
C C1 0.0762(5) 0.5419(9) 0.3893(5) 0.0636(13) Uani d 1
C C2 0.1072(4) 0.5946(8) 0.5513(5) 0.0544(12) Uani d 1
C C3 0.0763(3) 0.8593(7) 0.5839(4) 0.0454(10) Uani d 1
C C4 0.1143(4) 0.9308(7) 0.7394(5) 0.0498(10) Uani d 1
C C5 0.000000 1.0237(13) 0.9811(8) 0.067(2) Uani d 1
C C6 -0.028(3) 1.289(2) 1.0039(12) 0.080(10) Uani d 0.5
N N1 0.000000 0.9642(8) 0.8213(5) 0.0478(12) Uani d 1
O O1 0.000000 0.4758(7) 0.6294(5) 0.0588(12) Uani d 1
O O2 0.2271(3) 0.9512(6) 0.7872(5) 0.0842(13) Uani d 1
O O3 0.0717(9) 1.4328(12) 0.9424(10) 0.076(2) Uani d 0.5
H H7 0.096057 1.384427 0.860506 0.29(16) Uiso calc 0.5
H H1A 0.113(5) 0.393(10) 0.360(6) 0.081(16) Uiso d 1
H H1B 0.121(4) 0.655(8) 0.316(6) 0.070(13) Uiso d 1
H H2 0.198(5) 0.538(8) 0.591(6) 0.084(16) Uiso d 1
H H3 0.121(4) 0.960(7) 0.520(6) 0.055(12) Uiso d 1
H H5 0.086(5) 0.951(11) 1.037(8) 0.12(2) Uiso d 1
H H6A -0.014(11) 1.307(13) 1.110(3) 0.08(3) Uiso d 0.5
H H6B -0.123(4) 1.29(2) 0.986(12) 0.08(4) Uiso d 0.5
loop_
_atom_site_aniso_label
_atom_site_aniso_U_11
_atom_site_aniso_U_22
_atom_site_aniso_U_33
_atom_site_aniso_U_12
_atom_site_aniso_U_13
_atom_site_aniso_U_23
C1 0.083(3) 0.057(3) 0.050(3) 0.005(2) 0.011(3) -0.016(3)
C2 0.058(3) 0.054(2) 0.051(3) 0.011(2) 0.001(2) -0.005(2)
C3 0.0441(19) 0.046(2) 0.046(2) -0.0034(16) 0.0037(19) -0.003(2)
C4 0.051(2) 0.046(2) 0.052(2) 0.0005(16) -0.007(2) -0.0077(19)
C5 0.092(5) 0.067(5) 0.042(4) 0.000 0.000 -0.006(3)
C6 0.11(3) 0.095(7) 0.041(4) -0.015(10) 0.008(7) -0.031(5)
N1 0.059(3) 0.044(3) 0.040(3) 0.000 0.000 -0.006(2)
O1 0.085(3) 0.044(2) 0.047(2) 0.000 0.000 0.001(2)
O2 0.0531(19) 0.108(3) 0.091(3) 0.0125(15) -0.0223(19) -0.038(2)
O3 0.097(5) 0.060(4) 0.070(5) -0.009(4) -0.008(4) 0.003(4)
loop_
_atom_type_symbol
_atom_type_description
_atom_type_scat_dispersion_real
_atom_type_scat_dispersion_imag
_atom_type_scat_source
C C 0.0181 0.0091 'International Tables Vol C Tables 4.2.6.8 and 6.1.1.4'
H H 0.0000 0.0000 'International Tables Vol C Tables 4.2.6.8 and 6.1.1.4'
N N 0.0311 0.0180 'International Tables Vol C Tables 4.2.6.8 and 6.1.1.4'
O O 0.0492 0.0322 'International Tables Vol C Tables 4.2.6.8 and 6.1.1.4'
loop_
_geom_angle_atom_site_label_1
_geom_angle_atom_site_label_2
_geom_angle_atom_site_label_3
_geom_angle_site_symmetry_1
_geom_angle_site_symmetry_3
_geom_angle
C2 C1 C1 . 3 101.8(3)
C2 C1 H1A . . 111(3)
C1 C1 H1A 3 . 113(3)
C2 C1 H1B . . 114(3)
C1 C1 H1B 3 . 116(3)
H1A C1 H1B . . 101(4)
O1 C2 C1 . . 102.8(4)
O1 C2 C3 . . 101.6(3)
C1 C2 C3 . . 109.1(4)
O1 C2 H2 . . 110(3)
C1 C2 H2 . . 117(3)
C3 C2 H2 . . 114(3)
C4 C3 C3 . 3 104.7(2)
C4 C3 C2 . . 112.4(3)
C3 C3 C2 3 . 101.6(2)
C4 C3 H3 . . 107(3)
C3 C3 H3 3 . 119(3)
C2 C3 H3 . . 112(3)
O2 C4 N1 . . 125.2(4)
O2 C4 C3 . . 126.1(4)
N1 C4 C3 . . 108.7(3)
N1 C5 C6 . 3 110.6(7)
N1 C5 C6 . . 110.6(7)
C6 C5 C6 3 . 22(2)
N1 C5 H5 . . 111(4)
C6 C5 H5 3 . 99(4)
C6 C5 H5 . . 117(4)
C6 C6 O3 3 3 114.0(14)
C6 C6 O3 3 . 44.2(10)
O3 C6 O3 3 . 69.8(12)
C6 C6 C5 3 . 79.2(10)
O3 C6 C5 3 . 137.8(11)
O3 C6 C5 . . 111.9(16)
C6 C6 H6A 3 . 81(7)
O3 C6 H6A 3 . 119(5)
O3 C6 H6A . . 103(6)
C5 C6 H6A . . 102(5)
C6 C6 H6B 3 . 170(7)
O3 C6 H6B 3 . 60(7)
O3 C6 H6B . . 129(8)
C5 C6 H6B . . 100(7)
H6A C6 H6B . . 108(3)
C4 N1 C4 . 3 113.1(5)
C4 N1 C5 . . 123.4(2)
C4 N1 C5 3 . 123.4(2)
C2 O1 C2 . 3 96.2(5)
C6 O3 C6 3 . 22(2)
C6 O3 O3 3 3 66.0(14)
C6 O3 O3 . 3 44.2(10)
C6 O3 H7 3 . 109.5
C6 O3 H7 . . 112.1
O3 O3 H7 3 . 107.3
loop_
_geom_bond_atom_site_label_1
_geom_bond_atom_site_label_2
_geom_bond_site_symmetry_2
_geom_bond_distance
C1 C2 . 1.514(7)
C1 C1 3 1.530(10)
C1 H1A . 0.95(6)
C1 H1B . 1.02(5)
C2 O1 . 1.445(5)
C2 C3 . 1.540(5)
C2 H2 . 1.03(5)
C3 C4 . 1.500(6)
C3 C3 3 1.532(7)
C3 H3 . 0.92(5)
C4 O2 . 1.215(5)
C4 N1 . 1.374(5)
C5 N1 . 1.470(8)
C5 C6 3 1.523(15)
C5 C6 . 1.523(15)
C5 H5 . 1.08(5)
C6 C6 3 0.57(6)
C6 O3 3 1.069(16)
C6 O3 . 1.40(2)
C6 H6A . 0.966(13)
C6 H6B . 0.962(13)
O3 O3 3 1.439(18)
O3 H7 . 0.8200
loop_
_geom_hbond_atom_site_label_D
_geom_hbond_atom_site_label_H
_geom_hbond_atom_site_label_A
_geom_hbond_site_symmetry_A
_geom_hbond_distance_DH
_geom_hbond_distance_HA
_geom_hbond_distance_DA
_geom_hbond_angle_DHA
O3 H7 O1 1_565 0.82 2.34 2.906(10) 126.7
C1 H1A O2 2_564 0.95(6) 2.59(6) 3.513(6) 165(4)
O3 H7 N1 . 0.82 2.56 2.927(8) 108.3

_cod_database_fobs_code 2021936
