#------------------------------------------------------------------------------
#$Date: 2020-02-08 08:04:51 +0200 (Sat, 08 Feb 2020) $
#$Revision: 247978 $
#$URL: file:///home/coder/svn-repositories/cod/cif/2/02/19/2021972.cif $
#------------------------------------------------------------------------------
#
# This file is available in the Crystallography Open Database (COD),
# http://www.crystallography.net/. The original data for this entry
# were provided by IUCr Journals, http://journals.iucr.org/.
#
# The file may be used within the scientific community so long as
# proper attribution is given to the journal article from which the
# data were obtained.
#
data_2021972
loop_
_publ_author_name
'Bernhardt, Eduard'
'Herbst-Irmer, Regine'
_publ_section_title
;
 Phase transition and structures of the twinned low-temperature phases of
 (Et~4~N)[ReS~4~]
;
_journal_coeditor_code           EF3002
_journal_issue                   3
_journal_name_full               'Acta Crystallographica Section C'
_journal_page_first
;
;
_journal_paper_doi               10.1107/S205322961901725X
_journal_volume                  76
_journal_year                    2020
_chemical_formula_iupac          '(C8 H20 N) [Re S4]'
_chemical_formula_moiety         'C8 H20 N +, Re S4 -'
_chemical_formula_sum            'C8 H20 N Re S4'
_chemical_formula_weight         444.69
_chemical_name_systematic
;
Tetraethylammonium tetrathiorhenate
;
_space_group_crystal_system      hexagonal
_space_group_IT_number           186
_space_group_name_Hall           'P 6c -2c'
_space_group_name_H-M_alt        'P 63 m c'
_atom_sites_solution_hydrogens   geom
_audit_creation_method           SHELXL-2013
_cell_angle_alpha                90
_cell_angle_beta                 90
_cell_angle_gamma                120
_cell_formula_units_Z            2
_cell_length_a                   8.150(2)
_cell_length_b                   8.150(3)
_cell_length_c                   13.092(3)
_cell_measurement_reflns_used    687
_cell_measurement_temperature    297(2)
_cell_measurement_theta_max      24.8930
_cell_measurement_theta_min      2.8550
_cell_volume                     753.1(4)
_computing_cell_refinement
;
CrysAlis PRO (Oxford Diffraction, 2016)
;
_computing_data_collection
;
CrysAlis PRO (Oxford Diffraction, 2016)
;
_computing_data_reduction
;
CrysAlis PRO (Oxford Diffraction, 2016)
;
_computing_molecular_graphics
;
DIAMOND (Brandenburg, 2001)
;
_computing_publication_material
;
SHELXL2018 (Sheldrick, 2015)
;
_computing_structure_refinement
;
SHELXL2018 (Sheldrick, 2015)
;
_computing_structure_solution
;
SHELXS97 (Sheldrick, 2008)
;
_diffrn_ambient_temperature      297(2)
_diffrn_detector_area_resol_mean 16.2705
_diffrn_measured_fraction_theta_full 0.997
_diffrn_measured_fraction_theta_max 1.003
_diffrn_measurement_device_type
'Oxford Diffraction Gemini E Ultra diffractometer with an EOS CCD camera'
_diffrn_measurement_method       '\w scans'
_diffrn_radiation_monochromator  graphite
_diffrn_radiation_source         'fine-focus sealed tube Enhanced (Mo)'
_diffrn_radiation_type           MoK\a
_diffrn_radiation_wavelength     0.71073
_diffrn_reflns_av_R_equivalents  0.0285
_diffrn_reflns_av_unetI/netI     0.0244
_diffrn_reflns_limit_h_max       5
_diffrn_reflns_limit_h_min       -10
_diffrn_reflns_limit_k_max       10
_diffrn_reflns_limit_k_min       -7
_diffrn_reflns_limit_l_max       16
_diffrn_reflns_limit_l_min       -8
_diffrn_reflns_number            1804
_diffrn_reflns_theta_full        26.400
_diffrn_reflns_theta_max         26.702
_diffrn_reflns_theta_min         2.886
_exptl_absorpt_coefficient_mu    8.592
_exptl_absorpt_correction_T_max  0.829
_exptl_absorpt_correction_T_min  0.599
_exptl_absorpt_correction_type   analytical
_exptl_absorpt_process_details
;
[CrysAlis PRO (Agilent, 2013), based on expressions derived by
Clark & Reid (1995)]
;
_exptl_crystal_colour            black
_exptl_crystal_density_diffrn    1.961
_exptl_crystal_description       prism
_exptl_crystal_F_000             428
_exptl_crystal_size_max          0.3177
_exptl_crystal_size_mid          0.0331
_exptl_crystal_size_min          0.0256
_refine_diff_density_max         0.261
_refine_diff_density_min         -0.424
_refine_ls_abs_structure_details
;
 Refined as an inversion twin.
;
_refine_ls_abs_structure_Flack   0.14(4)
_refine_ls_extinction_method     none
_refine_ls_goodness_of_fit_ref   1.084
_refine_ls_hydrogen_treatment    constr
_refine_ls_matrix_type           full
_refine_ls_number_parameters     44
_refine_ls_number_reflns         513
_refine_ls_number_restraints     34
_refine_ls_restrained_S_all      1.071
_refine_ls_R_factor_all          0.0333
_refine_ls_R_factor_gt           0.0208
_refine_ls_shift/su_max          0.000
_refine_ls_shift/su_mean         0.000
_refine_ls_structure_factor_coef Fsqd
_refine_ls_weighting_details
'w=1/[\s^2^(Fo^2^)+(0.0180P)^2^] where P=(Fo^2^+2Fc^2^)/3'
_refine_ls_weighting_scheme      calc
_refine_ls_wR_factor_gt          0.0429
_refine_ls_wR_factor_ref         0.0475
_reflns_number_gt                392
_reflns_number_total             513
_reflns_threshold_expression     'I > 2\s(I)'
_cod_data_source_file            ef3002sup1.cif
_cod_data_source_block           Ia
_cod_database_code               2021972
_shelx_space_group_comment
;
The symmetry employed for this shelxl refinement is uniquely defined
by the following loop, which should always be used as a source of
symmetry information in preference to the above space-group names.
They are only intended as comments.
;
_shelx_hkl_file
;
   0   0  -4 135998. 2410.17   1
   0   0  -3-28.3821 26.6302   1
   0   0  -2 75096.1 1291.79   1
   0   0   4 129698. 2262.41   1
   0   0   5 23.7639 40.4507   1
   0   0   6 43547.5 929.926   1
   0   0   7-2.93252 42.5624   1
   0   0   8 9555.54 376.414   1
   0   0   9 37.1558 54.6643   1
   0   0  10 2026.39 184.479   1
   0   0  11-16.1578 50.7891   1
   0   0  12 8094.12 405.213   1
   0   0  13-61.5659 64.6441   1
   0   0  14 2798.21 272.622   1
   0   0  15 7.16932 59.7713   1
   0   0  16 1124.39 182.823   1
  -1   0  -7 38.1811 37.6551   1
  -1   0  -6 50297.1 997.960   1
   0  -1  -6 51866.8 1037.53   1
   0  -1  -5 175.528 41.3057   1
   1  -1  -5 151.552 43.4202   1
  -1   0  -5 228.107 46.8729   1
   1  -1  -4 52281.6 999.838   1
   0  -1  -4 50903.5 999.688   1
  -1   0  -4 49118.9 957.023   1
   0  -1  -3 1066.81 83.1523   1
  -1   0  -3 686.761 73.9382   1
   1  -1  -3 1005.10 80.2931   1
   0  -1  -2 109152. 1873.74   2
  -1   1  -2 110033. 1856.84   2
   1  -1  -2 115411. 1917.60   1
   0  -1  -1 5230.51 145.618   2
   1  -1  -1 5428.80 145.991   1
   1  -1   0 105483. 1748.85   2
   0  -1   0 102047. 1758.58   2
   1  -1   1 5229.04 128.384   2
   0  -1   1 5494.69 158.918   2
   0   1   2 110387. 1853.18   2
   1  -1   2 109552. 1830.73   2
   1  -1   3 1096.77 60.7052   1
   1  -1   3 1002.47 53.1909   2
   0   1   3 1083.39 64.4929   2
   0   1   4 46547.5 864.506   2
   1  -1   4 46610.5 877.487   1
   1   0   4 45270.4 908.599   1
   1   0   4 47660.7 802.932   2
   1   0   5 116.643 39.7772   1
   1  -1   5 129.720 31.9547   1
   0   1   5 122.860 31.8891   2
   0   1   5 175.729 61.0577   1
   0  -1   6 47294.4 997.061   1
   1  -1   6 46698.3 948.531   1
   0   1   6 47501.0 1007.93   1
   1   0   6 43963.3 979.278   1
   0   1   7 159.624 71.6583   1
  -1   0   7 85.6379 53.2021   1
   1  -1   7 137.554 48.0311   1
   1   0   7 82.3198 48.3109   1
   0  -1   7 56.0713 45.3654   1
  -1   1   8 16084.6 524.414   1
   1   0   8 15825.7 502.271   1
  -1   0   8 16284.6 521.613   1
   0  -1   8 15708.2 500.921   1
   1  -1   8 15590.4 473.436   1
   0   1   8 15061.6 527.939   1
  -1   1   9 222.043 67.6657   1
   0  -1   9 231.235 76.5325   1
  -1   0   9 282.951 82.2630   1
   1  -1   9 241.710 63.8738   1
   1   0   9 368.440 83.9557   1
   0   1   9 277.785 82.3061   1
  -1   0  10 8863.82 407.794   1
   0  -1  10 9866.94 420.354   1
  -1   1  10 9207.05 411.343   1
   1  -1  10 9138.50 381.927   1
   1   0  10 9317.00 401.755   1
   0   1  10 8716.81 420.691   1
  -1   1  11 73.4227 53.0052   1
   0   1  11 115.707 79.9146   1
  -1   0  11-0.35267 59.7492   1
   1  -1  11 154.080 59.5653   1
   0  -1  11 90.1485 54.5972   1
   1   0  11 97.9520 67.5142   1
   0   1  12 6161.53 394.523   1
   1   0  12 6736.43 371.945   1
  -1   1  12 6569.14 388.546   1
   1  -1  12 6237.70 333.096   1
   0  -1  12 6541.44 362.136   1
   0   1  12 6927.90 305.041   2
  -1   0  12 6624.96 381.604   1
   0  -1  13 59.1234 54.9662   1
  -1   1  13 18.8484 62.0943   1
  -1   0  13 132.172 82.1728   1
   0   1  13 85.4001 69.0181   1
   1  -1  13-37.3440 66.7070   1
   1   0  13 64.0077 35.6729   2
   0   1  13-9.62560 40.5799   2
   1   0  13 14.8394 62.1575   1
   0  -1  14 3242.89 279.033   1
  -1   0  14 3005.84 285.342   1
   0   1  14 2913.37 274.075   1
   1  -1  14 2788.65 247.272   1
  -1   1  14 3205.16 289.821   1
   0   1  14 2987.79 208.688   2
   1   0  14 2749.89 267.688   1
   0  -1  15 81.0901 87.3193   1
  -1   0  15-84.0070 71.1547   1
   0   1  15 180.847 103.540   1
   1  -1  15 76.5618 78.6141   1
  -1   1  15-7.12618 67.8937   1
   1   0  15-20.2112 52.4200   1
  -1   1  16 780.872 174.396   1
  -1   0  16 1097.03 178.728   1
   0  -1  16 885.356 167.499   1
   1  -1  16 903.148 159.934   1
  -2   1  -7-23.7222 27.9801   1
  -1  -1  -6 43679.9 926.887   1
  -2   1  -6 41160.9 865.497   1
   1  -2  -5-0.39145 29.9170   1
  -1  -1  -5-15.7606 30.1060   1
  -2   1  -5 9.26979 22.2448   1
  -1  -1  -4 40079.0 839.951   1
   1  -2  -4 40336.6 843.211   1
  -2   1  -4 39825.7 751.717   1
  -1  -1  -4 39304.2 736.291   2
  -1  -1  -3 25.6182 21.0390   2
  -1   2  -3 17.8307 37.5177   2
   1  -2  -3 44.1794 35.5772   1
  -2   1  -3 4.28744 15.8628   1
  -2   1  -2 41456.6 738.711   2
  -1   2  -2 43156.8 835.221   2
   1  -2  -2 43171.5 833.174   1
  -1  -1  -2 42502.6 792.141   2
   1  -2  -2 42112.8 829.550   2
  -1  -1  -1 32.5841 28.1409   2
   1  -2  -1 4.77216 21.7324   2
  -1  -1   0 92935.2 1696.68   2
   1  -2   0 101082. 1707.18   2
   1  -2   1-15.6377 23.9826   2
   1   1   2 44287.1 812.324   2
   1  -2   2 43800.5 838.771   2
   1   1   3 9.13313 21.0091   2
  -1   2   3 9.33200 31.6154   2
   1  -2   3 23.2724 18.5599   2
  -1   2   4 40124.1 807.497   2
   1   1   4 39977.9 734.048   2
   1  -2   4 38324.7 793.552   2
   2  -1   5 69.1484 37.3443   1
   1  -2   5 57.8420 33.8129   2
   1   1   5 8.44964 19.5372   2
  -1   2   5 13.8492 34.1149   2
   1  -2   6 43565.3 905.161   2
   1   1   6 44998.1 825.822   2
  -1   2   6 43684.0 916.011   2
   2  -1   6 42963.2 763.205   2
   2  -1   6 44888.0 906.357   1
   1   1   7 4.20517 20.7872   2
   1  -2   7-62.5455 61.1982   1
  -1   2   7 15.4427 35.5495   2
   2  -1   7 4.59582 11.9293   2
   1  -2   7-48.2204 36.8112   2
   2  -1   7 34.4341 41.3641   1
  -2   1   8 25802.7 733.644   1
   2  -1   8 26141.0 661.532   1
   1   1   8 25505.5 559.175   2
   2  -1   8 25711.3 517.195   2
  -1   2   8 24884.5 733.806   1
  -1   2   8 25165.8 643.607   2
   1  -2   8 24980.0 651.544   1
  -1   2   9 18.6555 55.6215   1
   1  -2   9 7.75915 40.1260   1
   2  -1   9 9.65933 17.7876   2
  -1  -1   9 7.87936 50.3151   1
  -2   1   9-10.1918 50.4226   1
   1   1   9-1.37492 22.2263   2
   2  -1   9-23.5314 44.1527   1
  -1   2   9-80.5251 46.9782   2
   1   1  10 8017.26 267.930   2
  -1   2  10 7512.54 406.861   1
  -1   2  10 7717.62 329.584   2
  -2   1  10 7608.81 376.250   1
   1  -2  10 7740.35 351.203   1
   2  -1  10 6355.54 339.469   1
  -1  -1  10 8126.45 386.775   1
   2  -1  11 35.5262 49.1478   1
   2  -1  11 15.9380 20.6805   2
   1   1  11 22.4171 29.6842   2
  -1   2  11 7.31968 59.8306   1
  -2   1  11-35.9878 52.9220   1
  -1  -1  11 34.5903 53.8380   1
  -1   2  11-1.25613 40.0162   2
   1  -2  11 15.4648 43.4860   1
  -2   1  12 7587.43 418.455   1
   2  -1  12 7102.06 385.446   1
   1  -2  12 7382.53 372.954   1
   1   1  12 8072.40 283.184   2
  -1   2  12 7901.16 357.427   2
  -1   2  12 8194.96 438.921   1
  -1  -1  12 7748.62 417.838   1
   1  -2  13 48.8476 50.6839   1
  -1   2  13-10.9279 67.1705   1
  -2   1  13-34.9954 59.8786   1
   2  -1  13 60.6942 57.7333   1
  -1  -1  13-53.9462 73.0390   1
  -1   2  13 138.400 48.4146   2
  -1   2  14 2274.15 196.734   2
   2  -1  14 2003.96 207.223   1
  -1  -1  14 2090.48 230.460   1
  -2   1  14 1939.70 225.829   1
  -1   2  14 2368.52 262.018   1
   1  -2  14 2377.37 229.175   1
  -1   2  15 90.5928 102.159   1
  -1  -1  15 20.3603 76.7090   1
   1  -2  15 5.26800 52.3553   1
  -2   1  15-59.2924 76.5637   1
  -1  -1  16 602.621 145.911   1
   1  -2  16 650.687 143.249   1
  -2   1  16 699.799 155.189   1
  -2   0  -7 2195.54 149.605   1
  -2   0  -6 50335.8 1031.80   1
  -2   0  -5 6151.92 237.989   1
   2  -2  -5 6177.92 256.783   1
   0  -2  -5 6460.63 272.516   1
  -2   2  -4 34050.6 680.220   2
   0  -2  -4 34125.8 709.087   2
   0  -2  -4 33852.7 783.082   1
  -2   0  -4 35354.1 718.441   1
   2  -2  -4 35138.4 761.456   1
  -2   2  -3 9735.34 250.738   2
   0  -2  -3 9720.10 270.620   2
  -2   0  -3 9018.46 197.204   2
   2  -2  -3 8747.28 291.656   1
  -2   2  -2 29537.2 603.196   2
   0  -2  -2 29872.9 629.333   2
   2  -2  -2 29852.2 628.553   1
   0  -2  -1 18267.5 425.245   2
   2  -2  -1 17299.9 387.303   1
  -2   2  -1 17550.2 392.708   2
   2  -2   0 74732.6 1251.62   1
  -2   2   0 72939.1 1312.21   2
   2  -2   0 73442.4 1315.83   2
   0  -2   0 72819.4 1341.07   2
   2  -2   1 16342.9 368.192   2
   0   2   1 16290.3 395.410   2
  -2   2   1 16618.9 363.105   1
   0  -2   1 16300.7 405.381   2
   0  -2   2 36272.3 745.944   2
  -2   2   2 35645.2 713.119   1
   2  -2   2 36201.2 677.032   2
   0   2   2 35733.6 719.671   2
   0  -2   3 9060.46 291.258   2
   0   2   3 9278.50 265.420   2
   2  -2   3 9622.96 202.749   1
  -2   2   3 9227.78 290.326   1
   2  -2   3 8439.71 229.056   2
   2  -2   4 33773.6 636.030   1
   0   2   4 33210.0 695.839   2
   2  -2   4 33901.9 655.400   2
  -2   2   4 31744.7 744.890   1
   2  -2   5 6127.99 188.295   2
   2  -2   5 6681.66 206.610   1
   0   2   5 6482.47 222.344   2
   0   2   6 53086.9 1043.55   2
   2  -2   6 54121.8 1000.67   2
   2  -2   6 52393.0 1023.51   1
   0   2   7 2402.76 141.468   2
   2  -2   7 2359.85 142.165   1
   2   0   7 2238.71 73.4965   2
   2  -2   7 2538.00 123.708   2
   2  -2   8 22619.3 523.861   2
   2   0   8 22304.0 431.903   2
   0   2   8 23473.8 571.923   2
  -2   0   8 22179.7 669.546   1
  -2   2   8 22882.3 671.541   1
   2  -2   8 22408.3 576.776   1
   0  -2   9 1075.25 151.755   1
   2  -2   9 923.628 84.7417   2
   0   2   9 1123.37 106.306   2
   2  -2   9 1175.60 116.089   1
  -2   0   9 913.075 128.225   1
   2   0   9 1027.17 59.0175   2
  -2   2   9 1205.03 139.028   1
   2  -2  10 10821.8 342.079   2
   2   0  10 11602.4 275.361   2
   0  -2  10 11990.4 463.226   1
  -2   2  10 10948.3 480.587   1
   2  -2  10 11582.3 411.539   1
   0   2  10 12303.8 396.306   2
  -2   0  10 10802.1 482.232   1
   2  -2  11 692.097 79.6930   2
   0  -2  11 586.317 123.449   1
   0   2  11 721.978 94.8226   2
   2   0  11 683.357 55.8316   2
  -2   0  11 600.854 134.616   1
  -2   2  11 542.507 119.553   1
   2  -2  11 717.447 102.351   1
   0  -2  12 7883.54 416.226   1
  -2   0  12 7017.92 408.033   1
  -2   2  12 7401.68 412.505   1
   2  -2  12 6553.50 338.556   1
   0   2  12 7618.94 318.026   2
   0  -2  13 67.5149 71.4570   1
  -2   2  13 38.6646 75.5058   1
   2  -2  13 102.786 58.7802   1
   0   2  13 207.707 59.9460   2
  -2   0  13 41.2770 67.9004   1
  -2   2  14 2280.44 250.441   1
   2  -2  14 1684.39 189.012   1
   0  -2  14 2177.62 235.130   1
  -2   0  14 2318.19 251.450   1
  -2   2  15 78.9096 60.0002   2
  -2   0  15 122.410 97.3148   1
   0  -2  15 51.1518 60.3175   1
   2  -2  15 234.891 81.0790   1
  -2   2  15-1.77405 61.7333   1
  -2   0  16 785.643 177.673   1
   0  -2  16 652.366 151.894   1
  -2   2  16 840.300 180.733   1
   2  -2  16 432.551 111.647   1
  -3   1  -8 15245.1 453.075   1
  -3   1  -7 683.939 80.1369   1
  -3   1  -6 35618.8 757.099   1
  -1  -2  -6 37042.2 758.510   2
  -3   1  -5 338.512 50.4533   1
  -1  -2  -5 477.241 55.9768   2
  -2  -1  -5 428.891 40.2636   2
   1  -3  -4 28914.6 689.564   1
  -2   3  -4 27972.5 647.226   2
  -1  -2  -4 27530.9 598.880   2
  -3   1  -4 28197.9 573.612   1
   1  -3  -4 28805.9 655.468   2
   2  -3  -4 25005.5 657.874   1
  -3   2  -4 27083.9 538.878   2
  -2  -1  -4 28086.9 557.175   2
  -1   3  -3 1963.72 136.448   2
   1  -3  -3 1834.21 132.774   1
  -2   3  -3 1913.25 126.996   2
   1  -3  -3 2020.53 129.624   2
  -1  -2  -3 1917.07 113.161   2
  -3   2  -3 2001.08 90.5148   2
   2  -3  -3 1696.67 119.270   1
  -2  -1  -3 1908.55 102.132   2
   1  -3  -2 36447.9 774.631   2
  -2   3  -2 36217.5 770.267   2
   2  -3  -2 36400.4 781.604   2
  -1   3  -2 36346.8 812.573   2
   2  -3  -2 36963.8 759.105   1
  -1  -2  -2 36919.7 763.454   2
  -3   2  -2 35692.9 699.377   2
  -2  -1  -2 35529.0 730.459   2
  -3   2  -1 1467.62 54.2692   1
   1  -3  -1 1792.37 119.260   2
  -2   3  -1 1623.69 114.166   2
  -1  -2  -1 1537.68 108.293   2
   2  -3  -1 1503.44 100.034   1
  -2  -1  -1 1576.36 104.399   2
   2  -3  -1 1610.38 109.930   2
  -3   2  -1 1730.93 97.6853   2
   1  -3   0 47928.8 946.011   2
  -3   2   0 45762.8 830.205   1
   2  -3   0 47023.9 919.028   2
  -1  -2   0 45541.1 942.598   2
   1   2   1 1673.17 114.845   2
   1  -3   1 1689.34 116.714   2
  -3   2   1 1691.66 92.1149   1
   2  -3   1 1741.40 104.589   2
  -1  -2   1 1580.17 116.583   2
   1  -3   2 37952.5 813.020   2
   2  -3   2 38892.8 787.751   2
  -1  -2   2 38546.5 841.129   2
  -3   2   2 39034.6 778.194   1
   1   2   2 37402.5 787.059   2
   1  -3   3 1844.94 123.735   2
   1   2   3 1715.16 111.349   2
  -3   2   3 1785.90 121.657   1
   2  -3   3 2053.02 117.455   2
  -1   3   3 1715.67 124.970   2
   1   2   4 28267.1 608.620   2
   1  -3   4 27607.3 657.925   2
  -3   2   4 29760.3 685.723   1
   2  -3   4 26020.4 609.471   2
  -1   3   4 28186.3 652.765   2
  -2   3   4 28356.7 669.445   2
   2  -3   5 564.387 67.2113   2
  -1   3   5 366.334 62.4799   2
   2   1   5 506.996 47.3194   2
   3  -2   5 263.394 22.8900   2
  -2   3   5 518.556 81.4192   2
   1  -3   5 397.075 62.7975   2
   1   2   5 444.572 59.4166   2
   1   2   6 36309.1 759.455   2
   2  -3   6 36588.1 795.018   2
  -2   3   6 36929.1 854.882   2
  -3   1   6 37409.9 922.213   1
  -1   3   6 34884.3 810.645   2
   3  -2   6 35817.3 660.080   2
   1  -3   6 36284.3 842.779   2
  -2   3   6 36359.4 890.608   1
   2   1   6 39656.6 716.950   2
  -2   3   7 634.567 88.4212   2
   1  -3   7 637.783 84.7074   2
  -1   3   7 642.066 88.2104   2
   1   2   7 717.046 75.3458   2
   3  -2   7 602.482 39.3203   2
   2   1   7 625.702 52.7119   2
  -2   3   7 843.777 116.377   1
  -3   1   7 636.117 101.082   1
  -3   2   7 652.808 98.5383   1
   2  -3   7 633.343 72.7708   2
   2  -3   7 237.075 47.7732   1
   1   2   8 17143.9 440.490   2
   3  -2   8 16161.9 335.743   2
   2   1   8 18209.3 387.051   2
  -3   2   8 16438.7 560.929   1
  -2   3   8 16374.0 579.738   1
  -2   3   8 17194.4 533.877   2
  -3   1   8 15946.6 561.954   1
   2  -3   8 16769.0 475.612   2
  -1   3   8 17019.7 500.883   2
   2  -3   8 16055.3 470.555   1
   3  -2   8 16639.2 465.381   1
   1   2   9 220.556 49.3502   2
   3  -2   9 196.585 25.0058   2
  -2   3   9 121.391 57.2380   2
   2  -3   9 159.423 53.1046   1
  -3   2   9 227.334 77.8157   1
   3  -2   9 255.215 64.0568   1
  -3   1   9 19.2970 44.1485   1
  -2   3   9 111.770 66.7254   1
   2   1   9 184.253 31.9578   2
   2  -3   9 176.798 50.3718   2
  -1   3   9 201.287 59.5266   2
  -3   2  10 7570.87 397.606   1
   2   1  10 8070.18 233.005   2
  -3   1  10 7932.14 426.508   1
  -2  -1  10 8914.28 440.092   1
   1   2  10 7821.41 283.561   2
   1  -3  10 7522.73 356.195   1
  -1   3  10 8422.10 347.977   2
   3  -2  10 7174.38 191.496   2
  -2   3  10 8153.06 364.828   2
   3  -2  10 7996.17 333.736   1
   2  -3  10 7752.96 333.646   1
  -2   3  10 8624.18 423.135   1
   2  -3  10 7254.38 303.084   2
   3  -2  11 96.7242 52.2635   1
  -3   1  11 4.21255 54.6111   1
  -2   3  11 65.5252 58.2425   2
  -3   2  11-33.0665 59.8516   1
  -1   3  11 36.3782 42.9130   2
  -2   3  11 16.2472 54.1028   1
   1   2  11 25.2288 34.0006   2
   2  -3  11 62.0851 50.8702   1
  -1  -2  11 7.55992 57.7847   1
  -2  -1  11 14.7734 51.1013   1
   2   1  11 19.7706 19.4487   2
   1  -3  11-71.8701 64.2348   1
   2  -3  12 5216.52 299.643   1
  -3   1  12 4864.41 350.312   1
   1  -3  12 5034.07 332.616   1
  -2   3  12 5138.90 375.599   1
   1   2  12 5493.58 241.976   2
  -1   3  12 5368.66 297.644   2
  -2   3  12 5174.67 305.166   2
  -1  -2  12 5234.13 337.893   1
  -2  -1  12 5231.65 357.476   1
  -3   2  12 5609.03 368.263   1
   1  -3  13 47.7162 66.9384   1
  -1   3  13 25.4910 43.6550   2
  -3   1  13 7.05243 77.4646   1
  -2  -1  13 42.2461 71.2658   1
   2  -3  13 17.8258 52.2341   1
  -1  -2  13-21.7537 53.5036   1
  -2   3  13 34.8705 54.6034   2
  -3   2  13-12.1535 77.7487   1
  -2   3  13 64.3827 70.2763   1
  -1  -2  14 1421.23 243.402   1
   1  -3  14 1967.91 223.531   1
  -2   3  14 1912.70 246.000   1
  -2  -1  14 1834.90 236.291   1
  -1   3  14 2041.78 187.895   2
   2  -3  14 1804.16 190.282   1
  -2   3  14 1893.89 191.201   2
  -3   2  14 1701.09 222.805   1
  -3   1  14 1933.18 235.452   1
   2  -3  15-5.55101 61.4315   1
  -3   1  15-212.092 110.491   1
  -2   3  15-62.1518 51.0141   2
   1  -3  15 30.6343 73.9317   1
  -2  -1  15-27.7369 69.2570   1
  -2   3  15 94.1507 91.3531   1
  -1  -2  15 181.130 104.171   1
  -3   2  15 88.7442 89.9171   1
   0  -3  -6 29624.7 692.367   2
  -3   0  -6 28464.3 690.171   1
  -3   3  -5 1560.20 109.396   2
   0  -3  -5 1666.03 120.838   2
  -3   3  -4 26196.5 588.814   2
  -3   0  -4 24698.1 494.492   2
   0  -3  -4 26677.4 617.530   2
   3  -3  -4 27794.9 647.723   1
   0  -3  -3 2063.50 131.571   2
   3  -3  -3 2254.83 136.119   1
  -3   3  -3 1833.40 113.013   2
   3  -3  -2 28241.5 614.739   1
   0  -3  -2 27834.3 651.311   2
  -3   3  -2 27197.3 607.894   2
   0  -3  -1 3657.05 184.048   2
   3  -3  -1 3586.08 147.483   1
  -3   3  -1 3445.12 160.377   2
  -3   3   0 42580.7 893.315   2
   3  -3   0 45409.9 820.409   1
   0  -3   0 43166.0 929.343   2
   0  -3   1 3263.40 177.084   2
   0   3   1 3213.23 175.354   2
   3  -3   1 3775.86 168.820   2
  -3   3   1 3414.12 138.896   1
  -3   3   1 3411.54 173.046   2
   3  -3   1 3440.80 102.177   1
   0   3   2 28610.2 676.451   2
   3  -3   2 29327.0 630.717   2
   0  -3   2 29456.1 698.633   2
  -3   3   2 31007.9 648.403   1
   3  -3   3 1880.15 105.983   2
   0  -3   3 1818.67 138.069   2
   0   3   3 1761.38 124.890   2
  -3   3   3 1982.62 129.247   1
   0  -3   4 24760.8 650.442   2
   3  -3   4 26298.2 477.561   1
   3  -3   4 25109.6 553.592   2
   0   3   4 26196.1 621.178   2
  -3   3   4 26133.9 639.622   1
   3  -3   5 1573.45 76.0349   1
   3  -3   5 1484.25 90.5380   2
   0   3   5 1600.55 124.898   2
  -3   3   5 1660.69 147.223   2
   0   3   6 28547.6 687.142   2
  -3   3   6 28411.0 747.183   1
   3  -3   6 29384.8 621.097   2
   3  -3   6 29638.3 602.303   1
   3  -3   7 380.230 51.4081   2
   0   3   7 420.213 70.2448   2
  -3   3   7 411.652 83.0151   1
   3  -3   7 646.742 65.3477   1
   3  -3   8 18544.7 452.373   2
   0   3   8 18216.6 518.964   2
  -3   3   8 16392.6 588.442   1
   3  -3   8 17604.4 463.613   1
   3  -3   9 451.589 64.8801   1
   0   3   9 531.409 83.2991   2
  -3   0   9 420.481 96.1338   1
   3  -3   9 479.770 61.0227   2
  -3   3   9 375.428 98.3449   1
  -3   3  10 6491.99 366.308   1
   3  -3  10 6186.37 233.134   2
  -3   0  10 5759.99 349.787   1
   0   3  10 7080.90 309.017   2
   3  -3  10 5819.89 267.467   1
  -3   0  11 155.033 71.1284   1
   0  -3  11-65.1413 86.1664   1
   0   3  11 177.533 59.8188   2
  -3   3  11 118.341 67.8656   2
   3  -3  11 59.3716 51.0094   1
  -3   3  11-17.6227 71.6009   1
   0   3  12 5400.61 275.246   2
  -3   0  12 4442.13 343.986   1
   0  -3  12 5372.33 341.383   1
  -3   3  12 5285.78 331.582   2
   3  -3  12 5005.28 277.031   1
  -3   3  12 4902.47 363.534   1
  -3   0  13 53.7359 85.0529   1
  -3   3  13 79.0617 62.5613   2
   0  -3  13 141.516 85.6728   1
   3  -3  13 41.3983 44.7077   1
  -3   3  13 132.574 84.3664   1
   0   3  13-22.8860 50.6103   2
  -3   3  14 1252.32 174.192   2
   0  -3  14 1550.90 212.929   1
  -3   0  14 1478.41 204.159   1
   3  -3  14 1370.16 166.802   1
  -3   3  14 1368.49 206.332   1
   0  -3  15 50.7908 67.1700   1
  -3   0  15-89.9665 89.0530   1
  -3   3  15 172.117 92.7874   1
  -3   3  15-19.1973 54.7804   2
  -4   2  -7-5.37984 19.8131   1
  -2  -2  -7 3.46701 14.9990   2
  -2  -2  -6 20656.0 490.458   2
  -4   2  -6 21842.0 481.695   1
  -4   2  -5 8.95810 9.08346   2
  -4   2  -5 14.3975 18.0064   1
  -2  -2  -5 30.1024 20.2254   2
  -2   4  -4 36725.0 863.766   2
  -2  -2  -4 37374.7 770.908   2
  -4   2  -4 36108.4 673.360   2
  -4   2  -4 34459.7 659.463   1
  -4   2  -3 4.11875 21.4064   2
   2  -4  -3-10.0518 29.4813   1
  -2   4  -3-29.3475 46.6058   2
  -2  -2  -3 33.2069 32.8409   2
  -2  -2  -2 36149.0 783.937   2
  -4   2  -2 33920.6 721.048   2
  -2   4  -2 37034.8 840.082   2
   2  -4  -1 68.4696 43.8821   2
  -2  -2  -1 52.9677 34.8214   2
  -2   4  -1 48.4147 51.6541   2
   2  -4   0 87953.0 1649.47   2
  -2  -2   0 85955.0 1651.18   2
   2  -4   1 83.7643 45.5069   2
  -2  -2   1-10.8239 30.2335   2
   2  -4   2 36361.4 811.939   2
   2  -4   3-56.8057 33.0049   2
   2   2   4 32579.5 722.371   2
  -2   4   4 29827.4 755.748   2
   2  -4   4 31030.7 739.451   2
  -2   4   5 8.18165 47.7652   2
   2   2   5 26.6134 36.6211   2
   2  -4   5-0.58319 18.7368   2
   2   2   6 17863.0 462.926   2
  -2   4   6 18069.3 548.366   2
  -4   2   6 18598.0 572.558   1
   2   2   7 45.9315 32.3582   2
  -4   2   7 46.6535 47.1709   1
  -2   4   7-41.0983 47.9000   2
  -2   4   8 6589.23 314.667   2
  -4   2   8 6254.21 350.827   1
   2   2   8 6770.12 246.498   2
  -4   2   9-83.0544 81.6772   1
  -2   4   9-102.349 60.2417   2
   2   2   9 1.56746 25.3838   2
  -4   2  10 2569.38 240.601   1
   2  -4  10 2517.32 205.027   1
  -2   4  10 2554.13 201.629   2
   2   2  10 2934.83 156.811   2
  -2   4  11 2.11881 42.1677   2
  -4   2  11-20.5950 60.3709   1
   2  -4  11-20.4158 51.2398   1
  -4   2  12 3734.03 306.815   1
  -2  -2  12 3315.72 294.491   1
   2  -4  12 3685.43 275.614   1
  -2   4  12 3383.71 246.811   2
  -2   4  13 36.0531 49.7222   2
  -4   2  13-138.437 91.4973   1
  -2  -2  13 17.3463 76.9002   1
   2  -4  13 6.39849 62.0310   1
   2  -4  14 1647.20 204.072   1
  -4   2  14 1303.28 207.251   1
  -2   4  14 1292.19 166.226   2
  -2  -2  14 1182.75 188.757   1
  -2  -2  15 45.6515 61.8307   1
  -4   2  15 61.0019 89.7427   1
  -2   4  15-21.3905 49.9613   2
  -4   1  -7 137.661 44.6028   1
  -1  -3  -7 104.740 40.3083   2
  -3  -1  -6 19774.7 420.910   2
  -1  -3  -6 20465.8 528.618   2
  -4   3  -6 20886.9 468.630   2
  -4   1  -6 19960.9 508.790   1
  -3  -1  -5 103.725 28.5828   2
  -1  -3  -5 113.879 36.1471   2
  -4   1  -5 101.687 35.8530   1
  -3   4  -5 5.38055 39.2883   2
  -4   3  -5 92.4636 31.1118   2
  -4   3  -4 20929.4 484.626   2
  -3  -1  -4 20846.8 483.431   2
  -1  -3  -4 22478.6 561.348   2
  -3   4  -4 20449.8 560.424   2
  -4   3  -3 54.3661 29.7578   2
  -3  -1  -3 7.98605 22.1304   2
   3  -4  -3 60.1456 38.8424   1
  -1  -3  -3 25.1749 33.5353   2
  -3   4  -3 2.07120 33.8845   2
  -3  -1  -2 30799.0 692.855   2
  -3   4  -2 32123.4 740.320   2
  -1  -3  -2 32900.5 748.971   2
  -4   3  -2 31136.1 676.418   2
   3  -4  -2 31327.1 699.742   1
  -3   4  -1-21.6645 37.8135   2
  -4   3  -1 38.1810 29.2978   2
  -4   3  -1 47.5514 12.7630   1
  -1  -3  -1 42.7402 28.2245   2
   3  -4  -1 89.2246 34.8137   1
  -1  -3   0 40881.7 914.012   2
  -4   3   0 41293.4 868.877   2
   3  -4   0 39412.1 806.172   1
  -4   3   0 40569.6 759.577   1
  -3   4   0 41755.2 906.790   2
   3  -4   0 41427.7 882.921   2
  -4   3   1 78.0836 27.0345   1
  -4   3   1 87.7280 50.1794   2
   1   3   1 185.743 69.5740   2
   3  -4   1 7.74465 30.0281   2
  -4   3   2 31456.1 684.290   1
   1   3   2 31151.7 748.230   2
   3  -4   2 30799.6 703.758   2
  -1   4   2 31809.1 755.664   2
  -4   3   3-8.84129 26.0653   1
   3  -4   3 11.3436 18.5407   2
   1   3   3-29.3761 43.0461   2
  -1   4   3-68.1299 50.2592   2
  -4   3   4 19020.1 529.537   1
   1   3   4 18578.6 519.193   2
  -1   4   4 20657.2 566.230   2
   3  -4   4 19961.3 509.649   2
  -1   4   5 67.8992 47.0223   2
  -3   4   5 92.7238 62.9248   2
   3  -4   5 33.8773 21.8314   2
   1   3   5 120.418 50.3392   2
  -4   3   6 19614.8 597.393   1
  -1   4   6 20560.1 579.926   2
   1   3   6 19222.6 528.509   2
  -3   4   6 19837.6 609.116   1
  -3   4   6 20441.7 608.338   2
   3  -4   6 20204.9 527.569   2
   3  -4   7 171.845 50.0096   2
  -3   4   7 130.451 70.8210   1
  -3   4   7 78.5996 54.5964   2
  -4   3   7 165.505 75.0705   1
   4  -3   7-14.2168 24.7576   2
   3  -4   7 49.5548 22.6679   1
   1   3   7 33.3682 37.6430   2
  -1   4   7 50.8320 38.7718   2
  -3   4   8 8206.56 370.367   2
   3  -4   8 8978.45 326.927   2
   3  -4   8 7989.05 286.912   1
  -4   1   8 8399.99 410.353   1
  -3   4   8 8631.42 415.434   1
   4  -3   8 7720.23 209.052   2
  -1   4   8 9627.90 389.356   2
   1   3   8 8649.76 318.768   2
  -4   3   8 7990.02 387.844   1
  -4   3   9 25.7192 52.5487   1
   3  -4   9 45.2311 40.0018   1
  -3   4   9 62.4577 59.8418   2
   4  -3   9-14.4829 12.2569   2
  -4   1   9 73.4875 64.2923   1
  -3   4   9 201.043 84.9871   1
  -1   4   9-22.8741 43.9597   2
   1   3   9-1.28286 30.8289   2
   3  -4   9 61.7533 43.0647   2
  -3   4  10 4392.94 279.647   2
  -4   3  10 4375.18 305.282   1
   1   3  10 4210.61 223.695   2
  -1   4  10 4603.33 271.234   2
  -3   4  10 4151.58 314.033   1
  -4   1  10 3930.84 300.382   1
   3  -4  10 4286.59 225.907   1
  -4   3  11 69.2800 61.7306   1
   3  -4  11 145.000 69.7729   1
  -4   1  11-105.730 86.5171   1
  -3   4  11 75.1553 79.9133   1
  -3  -1  11-176.495 99.2515   1
  -3   4  11-19.0711 52.1748   2
   1   3  11-62.8985 45.6475   2
  -1   4  11 50.3487 51.1143   2
  -3   4  12 3096.97 250.140   2
   1  -4  12 3202.40 280.384   1
  -1   4  12 3481.07 249.436   2
  -3   4  12 2982.58 288.332   1
  -4   1  12 3114.34 298.793   1
  -4   3  12 3151.09 274.768   1
   3  -4  12 3137.22 214.604   1
  -3  -1  12 3065.68 268.490   1
  -4   3  13-70.0654 78.0050   1
   3  -4  13 41.0572 42.5587   1
  -3   4  13 21.4713 49.1570   2
  -3   4  13-82.4265 77.2353   1
  -1   4  13 10.9031 51.1122   2
   1  -4  13 30.1343 71.9715   1
  -3  -1  13 149.062 89.4581   1
  -1  -3  13-28.9075 58.2267   1
  -4   1  13 46.5684 71.4642   1
  -4   1  14 1119.24 193.026   1
   1  -4  14 1444.17 230.638   1
  -1  -3  14 1604.14 210.054   1
  -3  -1  14 1328.44 203.502   1
  -3   4  14 1401.33 183.992   2
  -4   3  14 1331.60 204.319   1
  -3   4  15 78.6398 66.5722   2
  -1  -3  15 182.027 107.368   1
  -4   3  15-78.6551 67.0843   2
  -3  -1  15 93.2984 91.2325   1
   1  -4  15 42.6609 71.0660   1
  -4   4  -6 20736.4 554.574   2
  -4   4  -5 1195.86 106.625   2
  -4   0  -5 1145.58 67.0316   2
  -4   4  -4 12977.2 392.688   2
  -4   0  -4 13106.9 335.867   2
   4  -4  -3 711.856 82.6340   1
  -4   4  -3 609.835 73.1976   2
  -4   4  -2 15363.5 443.807   2
   4  -4  -2 15795.0 421.165   1
   4  -4  -1 1571.43 102.819   1
  -4   4  -1 1670.12 133.461   2
   0   4   0 26962.8 725.925   2
   4  -4   0 27722.2 565.299   1
   0   4   1 1484.72 138.593   2
   4  -4   1 1281.32 66.4162   1
   4  -4   2 18432.1 484.586   2
   0   4   2 16718.1 523.185   2
  -4   4   3 680.071 88.9320   1
   4  -4   3 646.858 73.5719   2
   0   4   3 679.194 98.1911   2
   4  -4   4 12249.6 360.490   2
  -4   4   4 12657.0 442.364   2
   0   4   4 12093.2 413.801   2
   4  -4   5 1315.70 101.453   2
   0   4   5 1091.17 121.635   2
  -4   4   5 1419.10 146.875   2
  -4   4   5 1324.92 136.357   1
   0   4   6 21902.3 621.458   2
   4  -4   6 23045.7 445.720   1
   4  -4   6 22250.0 543.949   2
  -4   4   6 22921.3 679.270   2
  -4   4   6 22365.0 669.082   1
  -4   4   7 137.526 68.8938   2
   4  -4   7 279.971 40.7636   1
  -4   4   7 190.220 68.2056   1
   4  -4   7 272.539 56.5996   2
   0   4   7 204.726 63.6028   2
   0   4   8 9175.79 377.412   2
  -4   4   8 8943.16 410.420   2
   4  -4   8 8937.52 293.328   2
   4  -4   8 9890.12 283.515   1
  -4   4   8 8716.97 421.817   1
  -4   4   9 267.306 80.9094   2
   4  -4   9 367.226 61.8458   1
  -4   4   9 333.735 97.7696   1
   0   4   9 335.913 78.2885   2
   0   4  10 5934.28 313.437   2
  -4   0  10 5362.13 360.124   1
  -4   4  10 4740.68 309.460   2
   4  -4  10 4899.82 226.341   1
  -4   4  10 5060.48 345.152   1
  -4   4  11 137.655 75.7293   2
  -4   0  11 121.557 73.1682   1
   4  -4  11 205.332 59.9738   1
  -4   4  11 245.845 112.820   1
   0   4  11 125.461 62.7949   2
   0   4  12 3477.19 241.911   2
  -4   4  12 3722.96 292.468   2
  -4   4  12 3623.85 307.209   1
  -4   0  12 3039.06 281.191   1
  -4   4  13 59.5231 68.8060   2
  -4   4  13 41.0738 75.2917   1
   0  -4  13-118.307 90.5853   1
  -4   0  13-61.9828 69.5923   1
   0  -4  14 1114.42 195.430   1
  -4   0  14 905.462 189.957   1
  -4   4  14 1108.01 168.228   2
  -4   4  14 1106.71 193.328   1
  -5   2  -7 45.5453 28.0455   1
  -3  -2  -7 62.4161 25.3880   2
  -2  -3  -7 45.6599 32.7997   2
  -3  -2  -6 12297.4 348.506   2
  -2  -3  -6 11529.4 370.458   2
  -5   3  -6 12147.6 306.710   2
  -5   2  -6 12868.8 334.001   1
  -3  -2  -5 28.6373 23.6423   2
  -5   2  -5 55.6145 18.3541   2
  -3   5  -5-21.0455 54.7658   2
  -5   2  -5 62.2714 27.3801   1
  -2  -3  -5 112.787 43.5288   2
  -5   3  -5 32.6578 19.0223   2
  -3  -2  -4 16469.8 465.181   2
  -3   5  -4 17974.7 560.411   2
  -5   2  -4 16304.0 383.010   2
  -2   5  -4 17065.5 581.459   2
  -5   3  -4 16262.3 416.886   2
  -5   3  -3 18.7598 22.3017   2
  -2   5  -3-28.4440 50.4160   2
  -3   5  -3-67.8393 53.8976   2
  -3  -2  -3-13.0131 25.4056   2
  -2   5  -2 28070.5 750.052   2
  -3   5  -2 28605.5 728.127   2
  -5   3  -2 25172.3 474.253   1
  -5   3  -2 27664.2 618.884   2
  -3  -2  -2 27147.6 664.436   2
   3  -5  -2 26838.8 660.589   1
   3  -5  -1 30.8469 32.6534   1
  -5   3  -1 52.9977 20.1120   1
  -2   5  -1 81.9971 63.4030   2
  -3   5  -1 23.2246 43.4476   2
  -5   3  -1 59.8767 44.0060   2
  -3   5   0 39777.7 945.989   2
  -5   3   0 39775.6 783.093   1
  -3   5   1 59.8787 48.6893   2
  -5   3   1 43.9188 28.1200   1
  -2   5   2 27462.6 737.831   2
  -5   3   2 27351.0 645.383   1
  -3   5   3-32.3527 46.4673   2
  -5   3   3 13.2532 35.1492   1
  -2   5   3-14.1416 59.0449   2
  -3   5   4 13950.2 495.915   2
  -2   5   4 14178.0 484.992   2
   2   3   4 14804.8 479.090   2
  -2   5   5 46.7847 60.8272   2
  -5   3   5 87.1457 56.8572   1
   2   3   5 7.80157 39.6012   2
  -3   5   5 109.650 61.4726   2
  -2   5   6 11682.8 458.796   2
  -3   5   6 11738.3 457.641   2
  -5   2   6 12891.9 484.384   1
   2   3   6 12382.1 415.221   2
  -5   3   6 12196.0 468.248   1
  -2   5   7 80.0688 48.7911   2
  -3   5   7 110.662 70.5088   2
  -5   2   7 96.8813 61.7398   1
   2   3   7 48.2742 36.4058   2
  -5   3   7 73.6653 59.6668   1
   2   3   8 3842.20 214.250   2
  -5   2   8 4243.58 287.580   1
  -3   5   8 3779.53 248.592   2
  -2   5   8 4138.82 277.973   2
  -5   3   8 3995.81 275.103   1
  -2   5   9-35.5425 48.9512   2
  -3   5   9 43.6224 55.1398   2
  -5   2   9 4.48980 58.7891   1
  -5   3   9 94.6093 78.0081   1
   2   3   9-15.1083 35.4105   2
   3  -5   9-53.9914 48.8959   1
  -5   3  10 2072.50 217.550   1
  -5   2  10 1937.57 232.331   1
   3  -5  10 2014.96 170.011   1
  -2   5  10 2392.73 212.947   2
  -3   5  10 2170.50 203.592   2
   2   3  10 2236.10 162.513   2
  -3   5  11 151.537 76.6268   2
   3  -5  11-7.13786 46.4677   1
  -5   3  11-116.476 79.7034   1
  -2   5  11 17.1537 58.4508   2
  -5   2  11 58.6844 74.0885   1
  -5   2  12 1979.26 234.490   1
   3  -5  12 2382.37 219.648   1
  -2   5  12 2396.26 227.216   2
   2  -5  12 2239.33 238.453   1
  -3   5  12 2397.85 225.111   2
  -5   3  12 1945.67 237.332   1
  -2   5  13 1.90471 61.1365   2
  -5   3  13 6.69886 71.1481   1
  -3   5  13 87.9635 51.8870   2
   2  -5  13-11.9677 71.0777   1
  -5   2  13 107.052 87.4113   1
  -3  -2  13-83.4648 85.3552   1
  -2   5  14 1191.30 166.960   2
  -3   5  14 1071.21 162.964   2
  -2  -3  14 844.289 155.618   1
  -5   2  14 1104.00 201.311   1
  -3  -2  14 872.200 152.741   1
  -5   3  14 1122.75 191.156   1
   2  -5  14 1576.87 225.334   1
  -5   1  -7 202.277 51.1768   1
  -5   4  -6 8895.37 307.918   2
  -4  -1  -6 9713.93 271.765   2
  -5   1  -6 8615.74 327.012   1
  -4  -1  -5 570.818 63.8869   2
  -5   4  -5 535.968 66.8487   2
  -5   1  -5 603.232 54.1143   2
  -4  -1  -4 13846.9 406.316   2
  -5   4  -4 14333.6 412.121   2
  -1   5  -3 550.629 104.988   2
  -5   4  -3 539.183 75.8119   2
  -4  -1  -3 407.649 64.2157   2
   4  -5  -2 10849.9 356.925   1
  -1   5  -2 11054.7 450.152   2
  -5   4  -2 11211.4 358.202   2
  -4  -1  -2 11310.0 371.493   2
  -4   5  -1 723.803 100.496   2
  -1   5  -1 688.559 113.509   2
   4  -5  -1 728.813 81.5738   1
  -1   5   0 21205.8 644.278   2
  -4   5   0 22621.5 619.350   2
   4  -5   0 21180.9 503.347   1
  -4   5   1 778.345 102.608   2
  -5   4   1 622.976 97.6077   2
   1   4   1 843.403 119.304   2
  -5   4   1 730.458 71.0382   1
  -1   5   1 692.640 113.572   2
   4  -5   1 639.087 62.7869   1
   1   4   2 12403.6 447.152   2
  -1   5   2 12109.8 443.796   2
  -4   5   2 12381.2 436.192   2
  -5   4   2 12066.6 437.638   2
   4  -5   2 11576.3 296.824   1
  -5   4   2 12267.8 367.306   1
  -5   4   3 514.441 71.9636   1
  -4   5   3 513.209 90.9255   2
  -5   4   3 461.369 88.9886   2
   1   4   3 411.570 84.9007   2
  -1   5   3 481.660 82.8899   2
   1   4   4 13857.2 481.071   2
  -1   5   4 13725.2 480.058   2
  -4   5   4 13044.8 480.131   2
  -5   4   4 14151.5 503.633   2
  -4   5   5 604.253 98.3069   2
  -5   4   5 604.970 114.183   2
   1   4   5 749.957 101.624   2
  -5   4   5 589.355 96.1984   1
  -1   5   5 478.847 90.1320   2
   1   4   6 9588.07 380.478   2
  -1   5   6 10106.8 415.135   2
   4  -5   6 9854.85 269.245   1
  -4   5   6 9831.48 419.766   2
  -5   4   6 10664.7 453.179   2
  -5   4   6 9213.92 399.019   1
  -4   5   7 115.387 55.8349   2
  -5   4   7 163.507 65.2661   1
   4  -5   7 121.244 30.4755   1
   1   4   7 160.525 59.1219   2
  -1   5   7 205.919 72.2818   2
   1   4   8 7792.60 339.707   2
  -1   5   8 8277.13 389.664   2
  -4   5   8 7927.93 391.255   2
   4  -5   8 6864.20 246.982   1
  -5   4   8 6946.90 367.550   1
  -1   5   9 90.4398 63.1377   2
  -5   1   9 115.035 82.8730   1
  -5   4   9 4.16119 51.1255   1
  -4   5   9 39.6474 47.0182   2
   4  -5   9 55.6275 20.7325   1
   1   4   9 28.0197 37.4902   2
   1   4  10 2828.73 205.047   2
  -5   1  10 2667.07 246.508   1
  -4   5  10 2610.45 235.203   2
  -1   5  10 2904.05 229.222   2
  -5   4  10 2384.10 238.811   2
  -5   4  10 2668.67 247.064   1
   4  -5  10 2731.18 161.001   1
  -1   5  11 49.6828 54.3550   2
  -4   5  11-38.8044 51.0170   2
  -5   4  11 60.1782 73.1115   2
  -5   1  11 77.1535 76.4759   1
   1   4  11 47.6200 48.9175   2
  -5   4  11 271.382 100.526   1
  -5   1  12 2359.91 269.129   1
  -1   5  12 2789.74 232.423   2
  -4   5  12 2662.41 249.870   2
  -4  -1  12 2082.93 243.517   1
  -5   4  12 2629.24 265.848   2
  -5   4  12 2206.11 249.481   1
  -1   5  13 16.8452 46.9265   2
  -5   1  13 60.8678 105.254   1
  -4   5  13-151.512 91.0819   2
   1  -5  13-149.488 102.553   1
  -5   4  13 236.174 115.338   2
  -4  -1  13 131.406 79.4282   1
  -5   4  13 60.2987 82.0027   1
  -5   1  14 714.417 177.987   1
   1  -5  14 752.504 155.440   1
  -4  -1  14 704.385 153.152   1
  -4   5  14 882.527 162.255   2
  -5   4  14 941.286 170.163   2
  -5   4  14 584.029 152.884   1
  -1  -4  14 585.641 140.001   1
  -5   0  -5 60.4665 26.6124   2
  -5   0  -4 7505.71 277.891   2
  -5   5  -2 9375.74 362.855   2
   5  -5  -2 10030.8 344.827   1
  -5   5  -1 1126.95 124.465   2
   0   5  -1 1017.65 138.945   2
  -5   5   0 10626.7 392.602   2
   0   5   0 10076.5 441.344   2
  -5   5   1 1003.34 124.849   2
   0   5   1 880.325 122.333   2
   0   5   2 10290.7 437.354   2
  -5   5   2 11198.8 418.051   2
  -5   5   3 1595.46 155.719   2
   0   5   3 1652.48 160.375   2
   0   5   4 6930.78 344.439   2
  -5   5   4 7716.98 364.122   2
  -5   5   5 11.5710 42.6353   2
  -5   5   5 41.7112 48.5327   1
   0   5   5-4.92674 49.1265   2
   0   5   6 11437.3 457.224   2
  -5   5   6 12208.7 494.638   2
   5  -5   6 11538.5 383.256   2
  -5   5   6 12308.4 473.391   1
   5  -5   7 422.911 62.7816   2
  -5   5   7 534.575 115.765   2
  -5   5   7 706.835 117.386   1
   0   5   7 552.045 102.821   2
   0   5   8 5624.34 312.520   2
  -5   5   8 5695.59 347.445   2
  -5   5   8 5747.94 345.527   1
  -5   5   9 81.7134 58.9275   2
  -5   5   9 78.9417 67.2875   1
   0   5   9 30.5027 43.8623   2
   0   5  10 3274.09 238.523   2
  -5   5  10 2855.55 261.638   2
  -5   5  10 3099.97 278.065   1
  -5   0  11 45.8273 72.9823   1
  -5   5  11-25.0240 76.3800   2
  -5   5  11 103.899 81.2972   1
   0   5  11 26.1671 60.4902   2
   0   5  12 1721.57 181.527   2
  -5   5  12 1709.71 210.526   2
  -5   5  12 1564.13 216.680   1
  -5   0  12 1543.71 210.179   1
  -5   5  13 76.6412 72.9024   2
  -5   5  13 107.541 92.5239   1
  -5   0  13 162.975 80.2596   1
  -6   3  -6 5877.88 187.554   2
  -6   3  -5 16.2721 19.7821   2
  -3   6  -5 1.05311 52.6494   2
  -6   3  -4 7949.72 251.479   2
  -3   6  -4 9020.40 404.298   2
  -6   3  -3-7.35140 23.9638   2
  -3   6  -3-27.1710 55.8760   2
  -3   6  -2 10250.8 443.817   2
  -6   3  -2 10280.4 350.720   2
  -3   6  -1-36.6014 51.6802   2
  -3   6   0 15291.1 539.192   2
  -3   6   1-101.756 61.6584   2
  -3   6   2 10030.9 432.764   2
  -6   3   2 10371.8 362.694   1
  -3   6   3-43.2647 57.4070   2
  -3   6   4 9126.97 406.453   2
  -6   3   4 8003.70 344.639   1
  -3   6   5 24.9194 57.9138   2
  -6   3   5-67.4842 54.0487   1
  -6   3   6 6096.66 329.404   1
  -3   6   6 6356.14 347.170   2
  -3   6   7-78.0706 73.7209   2
  -6   3   7 65.7843 59.7304   1
  -6   3   8 4560.08 315.122   1
  -3   6   8 4895.98 322.935   2
  -3   6   9-29.1268 55.4851   2
  -6   3   9-38.5625 55.0645   1
  -6   3  10 1652.19 212.150   1
  -3   6  10 2063.52 213.727   2
  -3   6  11-3.00207 60.2750   2
  -6   3  11 58.1153 58.3458   1
  -6   3  12 1506.74 208.079   1
  -3   6  12 1793.97 214.499   2
  -3   6  13 90.3520 87.7871   2
  -6   3  13 53.4611 73.9046   1
  -4   6  -6 8297.66 394.203   2
  -6   4  -6 8016.09 276.255   2
  -6   2  -5 285.969 38.9902   2
  -4   6  -5 215.964 70.4179   2
  -4  -2  -5 360.733 64.4107   2
  -6   4  -5 255.438 52.3947   2
  -2   6  -4 7222.56 394.552   2
  -4   6  -4 6927.38 347.775   2
  -6   4  -4 6778.55 260.889   2
  -6   2  -4 6883.95 244.248   2
  -2   6  -3 178.599 84.7335   2
  -4   6  -3 9.88411 47.2389   2
  -2   6  -2 8084.97 405.354   2
  -4   6  -2 7973.56 361.500   2
  -6   4  -1 176.307 55.4887   2
  -6   4  -1 180.209 26.3003   1
  -2   6  -1 179.547 75.3116   2
   4  -6  -1 131.695 43.5792   1
  -4   6  -1 103.466 46.2768   2
  -2   6   0 12935.6 512.675   2
  -4   6   0 13737.5 502.704   2
  -6   4   0 13717.7 452.094   2
   4  -6   0 12134.0 382.963   1
  -6   4   0 13017.8 333.917   1
  -4   6   1 185.646 67.1738   2
  -6   4   1 104.547 35.1289   1
  -6   4   1 196.443 68.1384   2
   4  -6   1 194.742 42.2262   1
  -2   6   1 204.878 73.7461   2
  -2   6   2 8440.34 397.161   2
  -4   6   2 8802.89 393.792   2
  -6   4   2 9289.18 388.582   2
  -6   4   2 8897.45 318.912   1
  -6   4   3 40.2128 44.0462   2
  -2   6   3-49.7930 66.2730   2
  -4   6   3-4.75230 54.7659   2
  -6   4   4 6510.68 297.989   1
  -2   6   4 6087.82 332.455   2
  -4   6   4 6927.21 362.104   2
  -6   4   5 300.507 78.8481   1
   2   4   5 429.723 89.8224   2
  -4   6   5 252.641 87.0236   2
  -2   6   5 272.733 85.0655   2
  -6   4   6 8688.06 392.023   1
   2   4   6 8913.57 389.293   2
  -2   6   6 8837.42 427.579   2
  -4   6   6 8081.07 403.271   2
  -6   2   7 66.1600 79.4712   1
  -4   6   7 56.6996 65.1809   2
  -6   4   7 89.5906 62.8871   1
   2   4   7 167.330 76.2594   2
  -2   6   7 150.202 95.1606   2
   2   4   8 4135.09 255.257   2
  -2   6   8 3942.73 285.645   2
  -4   6   8 3645.13 274.813   2
  -6   2   8 3649.64 277.132   1
  -6   4   8 3792.51 275.088   1
  -2   6   9 67.2618 60.7718   2
  -6   2   9 66.9994 63.5626   1
  -4   6   9-34.8614 74.0690   2
  -6   4   9 44.8808 71.7108   1
   2   4   9 19.5485 36.5234   2
  -6   2  10 2122.87 241.107   1
  -2   6  10 2279.85 226.619   2
  -4   6  10 2198.96 225.571   2
  -6   4  10 2184.14 234.865   1
  -2   6  11 0.54142 51.5848   2
  -4   6  11 18.2414 61.1747   2
  -6   2  11-20.7430 80.7379   1
  -6   4  11-37.3290 73.2556   1
  -2   6  12 1340.36 181.553   2
  -6   4  12 1402.35 199.972   1
  -6   2  12 1180.77 208.947   1
  -4   6  12 1542.15 198.326   2
  -6   4  13-25.5689 65.2788   1
  -2   6  13-83.7169 67.5140   2
  -4   6  13 51.9049 69.2751   2
  -6   2  13-91.5920 84.8642   1
  -5   6  -7 39.6779 48.2898   2
  -6   5  -7 140.768 48.2109   2
  -5   6  -6 6729.74 328.998   2
  -5   6  -5 216.118 69.5687   2
  -5   6  -4 4796.18 270.481   2
  -5  -1  -4 5040.60 245.911   2
  -6   5  -3 173.907 53.8561   2
  -1   6  -3 8.41891 66.2746   2
  -5   6  -3-21.6984 52.1210   2
  -1   6  -2 7136.50 392.004   2
   5  -6  -2 6225.15 283.801   1
  -5   6  -2 7264.00 342.786   2
  -6   5  -2 7357.65 318.439   2
  -5   6  -1 65.4843 56.0750   2
  -6   5  -1 71.9738 54.4445   2
  -1   6  -1-20.9895 50.1389   2
   5  -6  -1 43.8995 31.0043   1
   5  -6   0 7631.02 266.291   1
  -1   6   0 7937.12 389.604   2
  -5   6   0 8030.89 366.481   2
  -6   5   0 7940.99 344.911   2
  -5   6   1 17.1610 54.3688   2
  -6   5   1 35.9652 44.4706   2
   5  -6   1 46.3256 24.0722   1
  -1   6   1 97.6269 70.4480   2
  -1   6   2 7159.71 373.582   2
  -5   6   2 8448.88 385.858   2
  -6   5   2 7534.21 366.956   2
  -6   5   2 8260.94 308.734   1
   1   5   2 7768.50 380.603   2
   5  -6   2 7261.02 219.640   1
  -5   6   3 205.727 76.5068   2
   5  -6   3 113.918 21.5953   1
  -6   5   3 154.642 74.8795   2
   1   5   3 75.8763 53.0775   2
  -1   6   3 163.180 67.5952   2
  -1   6   4 5450.14 308.091   2
  -5   6   4 5661.64 312.376   2
  -6   5   4 5213.04 313.707   2
  -6   5   4 5489.56 272.839   1
   1   5   4 5090.29 295.848   2
  -5   6   5-7.43109 49.1347   2
  -6   5   5 99.3623 77.7227   2
   1   5   5-38.5239 65.7417   2
  -6   5   5 111.351 61.0333   1
  -1   6   5 173.756 79.6262   2
   1   5   6 7883.98 389.417   2
  -1   6   6 7876.78 389.756   2
  -5   6   6 6995.33 381.738   2
  -6   5   6 8260.36 422.547   2
  -6   5   6 7816.71 379.209   1
  -5   6   7 60.7719 63.9544   2
  -6   5   7 222.746 94.4651   2
   1   5   7 152.886 63.3103   2
  -6   5   7 247.455 89.4231   1
  -1   6   7 139.679 64.1535   2
   1   5   8 3825.92 268.389   2
  -1   6   8 3970.85 283.750   2
  -5   6   8 3569.55 281.209   2
  -6   5   8 4128.41 310.805   2
  -6   5   8 3860.08 290.035   1
  -5   6   9-113.642 68.6324   2
  -6   5   9 17.9871 59.6136   2
   1   5   9-34.5772 57.7292   2
  -6   5   9-87.1687 79.8253   1
  -1   6   9-38.2028 57.1655   2
   1   5  10 1686.00 174.810   2
  -1   6  10 1922.63 205.891   2
  -5   6  10 1750.72 206.923   2
  -6   1  10 1644.00 216.343   1
  -6   5  10 2051.83 230.618   2
  -6   5  10 1796.84 218.074   1
  -5   6  11 43.9131 65.7717   2
  -6   1  11 50.9013 77.4322   1
  -6   5  11-23.7355 73.9492   1
  -1   6  11-9.43012 50.4762   2
  -5   6  12 1106.98 176.339   2
  -6   5  12 1067.75 178.496   2
  -6   5  12 1163.37 196.078   1
  -6   1  12 1151.70 199.440   1
  -1   6  12 1088.02 160.390   2
  -6   6  -7 17.8228 48.2591   2
  -6   6  -6 3840.81 237.653   2
  -6   6  -5 14.5825 46.4900   2
  -6   6  -4 6414.02 312.920   2
  -6   6  -3 26.2990 40.6081   2
  -6   6  -2 5175.14 279.737   2
  -6   6  -1 62.5107 60.6415   2
  -6   6   0 10720.4 440.267   2
   0   6   0 10380.0 486.936   2
  -6   6   1 199.241 77.5229   2
   0   6   1-41.8751 56.6087   2
   0   6   2 4901.56 315.993   2
  -6   6   2 5286.87 304.205   2
  -6   6   3 43.5013 58.0429   2
   0   6   3-32.0284 56.3006   2
   0   6   4 6024.17 350.705   2
  -6   6   4 6002.07 343.835   2
  -6   6   5 16.9863 64.6140   2
   0   6   5-25.2336 58.0771   2
   0   6   6 3533.56 266.866   2
  -6   6   6 4389.71 305.421   2
  -6   6   7 32.6443 57.5172   2
   0   6   7 13.1207 59.2087   2
   0   6   8 2675.74 237.720   2
  -6   6   8 2266.66 236.351   2
  -6   6   9 53.5061 62.5595   2
   0   6   9-19.3770 57.2438   2
  -6   6  10 1068.97 177.782   2
   0   6  10 981.854 156.185   2
  -6   6  11 148.041 97.9551   2
   0   6  11 64.8686 75.1416   2
  -6   6  12 866.486 166.912   2
  -6   0  12 561.377 139.480   1
  -4   7  -6 4712.30 325.561   2
  -7   4  -5 28.1135 27.6676   2
  -3   7  -5 38.5062 61.9925   2
  -4   7  -5 57.4021 50.9137   2
  -3   7  -4 3595.95 281.423   2
  -4   7  -4 3599.06 277.242   2
  -7   3  -4 3705.03 194.254   2
  -3   7  -3 166.082 68.0203   2
  -4   7  -3 363.119 99.4075   2
  -3   7  -2 3899.34 290.887   2
  -4   7  -2 3953.64 282.615   2
  -7   4  -2 4377.43 238.760   2
  -7   3  -2 4209.80 234.934   2
  -7   4  -1 190.163 59.9170   2
  -7   4  -1 121.102 26.5943   1
  -3   7  -1 130.173 61.9500   2
  -4   7  -1 111.982 72.1628   2
  -7   4   0 5241.33 204.636   1
  -3   7   0 5591.63 334.332   2
  -4   7   0 5557.81 331.127   2
  -7   4   0 5342.47 285.235   2
  -7   4   1 169.483 67.7879   2
  -3   7   1 54.7045 56.0164   2
  -7   4   1 110.104 41.7983   1
  -4   7   1 101.703 48.6272   2
  -3   7   2 4489.34 301.801   2
  -4   7   2 4508.09 307.197   2
  -7   3   3 230.836 69.2549   1
  -3   7   3 193.298 71.8924   2
  -7   4   3 293.241 68.2268   1
  -4   7   3 222.385 76.0913   2
  -7   4   4 3822.12 234.080   1
  -3   7   4 3490.51 266.796   2
  -4   7   4 3862.42 277.826   2
  -7   3   4 3564.94 240.884   1
  -4   7   5-8.53793 53.5476   2
  -7   3   5 14.2135 63.9536   1
  -7   4   5 16.8261 41.6893   1
  -3   7   5 70.6221 71.9986   2
  -7   4   6 5255.51 307.822   1
  -3   7   6 5716.65 354.124   2
  -4   7   6 5567.19 345.949   2
  -7   3   6 4735.91 310.066   1
  -3   7   7 181.710 81.0702   2
  -4   7   7 176.338 78.8862   2
  -7   4   7 214.013 81.4071   1
  -7   3   7 89.5221 62.4353   1
  -7   4   8 2896.25 249.643   1
  -7   3   8 2661.16 248.313   1
  -3   7   8 2908.23 270.772   2
  -4   7   8 3139.63 274.671   2
  -3   7   9 16.0354 60.7342   2
  -4   7   9-53.1277 78.2135   2
  -7   3   9 23.4776 53.8945   1
  -7   4   9-74.3175 57.8830   1
  -7   3  10 1457.88 203.810   1
  -4   7  10 1380.16 199.265   2
  -3   7  10 1735.43 207.492   2
  -7   4  10 1522.63 200.480   1
  -3   7  11 216.388 94.6164   2
  -7   4  11 47.7643 78.9980   1
  -7   3  11-44.1174 70.5922   1
  -4   7  11 107.370 73.4190   2
  -3   7  12 1125.12 179.829   2
  -4   7  12 906.227 166.062   2
  -7   4  12 1161.53 194.928   1
  -7   3  12 798.017 159.583   1
  -5   7  -7 137.250 72.8450   2
  -5   7  -6 3345.66 257.669   2
  -5   7  -5 315.062 90.3875   2
  -5   7  -4 4220.76 285.768   2
  -7   5  -4 4159.61 226.559   2
  -2   7  -4 4507.61 339.328   2
  -7   5  -3 185.596 52.3508   2
  -2   7  -3 131.890 77.1687   2
  -5   7  -3 226.556 73.9408   2
  -2   7  -2 3498.98 282.829   2
  -5   7  -2 3376.57 250.526   2
  -7   5  -2 3457.47 215.196   2
  -7   5  -1 330.028 75.4851   2
  -2   7  -1 508.583 116.356   2
  -5   7  -1 368.176 82.8659   2
  -2   7   0 5007.83 335.920   2
  -5   7   0 5414.27 331.264   2
  -7   5   0 5440.90 300.072   2
   5  -7   0 4779.21 231.374   1
  -5   7   1 474.599 100.746   2
  -7   5   1 365.557 87.3104   2
  -7   5   1 386.961 60.1180   1
  -2   7   1 410.121 99.2987   2
   5  -7   1 350.829 56.2583   1
  -2   7   2 3823.57 283.304   2
  -5   7   2 3959.90 276.505   2
  -7   5   2 4205.54 275.924   2
  -7   5   2 3846.55 209.114   1
  -5   7   3 208.620 86.7593   2
  -7   5   3 190.266 69.2994   2
  -2   7   3 93.9373 61.6804   2
  -2   7   4 4196.07 298.400   2
  -5   7   4 3889.06 287.502   2
  -7   5   4 4453.96 304.841   2
  -7   5   4 4230.90 245.688   1
  -7   5   5 216.963 75.2760   1
  -5   7   5 414.391 120.543   2
  -7   5   5 384.695 104.591   2
  -2   7   5 225.305 89.3682   2
   2   5   6 4121.78 295.782   2
  -2   7   6 4078.64 297.118   2
  -5   7   6 3913.14 300.348   2
  -7   5   6 3953.41 301.298   2
  -7   5   6 3651.03 258.614   1
  -7   5   7 182.766 73.8804   1
   2   5   7 154.908 74.3685   2
  -5   7   7 171.080 88.9538   2
  -7   5   7 100.749 69.5462   2
  -7   2   7 130.844 82.4612   1
  -2   7   7 79.8883 82.6771   2
   2   5   8 2672.56 235.283   2
  -2   7   8 2735.67 255.000   2
  -5   7   8 2759.08 258.919   2
  -7   2   8 2414.86 247.333   1
  -7   5   8 2653.08 272.651   2
  -7   5   8 2364.29 227.887   1
  -7   5   9 66.7460 67.5831   1
  -5   7   9 116.733 75.6373   2
  -7   2   9-48.5078 77.1547   1
  -7   5   9 50.2792 76.2205   2
   2   5   9-51.5733 65.7593   2
  -2   7   9 43.8501 58.8832   2
  -5   7  10 995.547 163.385   2
  -7   5  10 1331.78 200.230   2
  -2   7  10 1217.57 183.623   2
  -7   5  10 1094.34 175.630   1
  -7   2  10 1140.51 181.817   1
  -5   7  11 157.643 90.0525   2
  -7   5  11 65.9511 91.4869   2
  -7   2  11 29.0817 76.0243   1
  -7   5  11-5.35470 58.0096   1
  -2   7  11 50.5857 54.1708   2
  -6   7  -7 53.4894 59.7032   2
  -6   7  -6 3182.97 242.990   2
  -6   7  -5 121.466 58.3442   2
  -7   6  -5 178.834 60.8452   2
  -6   7  -4 3325.25 242.590   2
  -7   6  -4 3269.76 217.416   2
  -7   6  -3 35.9373 46.6789   2
  -6   7  -3-15.8583 50.2038   2
  -6   7  -2 4804.73 299.071   2
  -7   6  -2 5095.88 285.080   2
  -1   7  -2 5953.70 392.224   2
  -7   6  -1 61.6313 55.3038   2
  -1   7  -1 68.0527 86.8407   2
  -6   7  -1 107.903 73.8801   2
  -1   7   0 5939.76 369.525   2
  -6   7   0 5817.38 337.278   2
  -7   6   0 6060.77 322.952   2
  -6   7   1 151.552 90.4432   2
  -7   6   1 86.6054 61.2187   2
  -1   7   1 26.2814 66.5348   2
  -1   7   2 5173.55 346.002   2
  -6   7   2 5625.08 346.404   2
  -7   6   2 5309.90 314.594   2
  -6   7   3-63.8389 49.1306   2
  -7   6   3 50.7005 54.3253   2
  -1   7   3-61.6200 68.3227   2
   1   6   4 2873.47 257.472   2
  -1   7   4 3064.87 259.600   2
  -6   7   4 3198.14 263.828   2
  -7   6   4 3368.78 266.788   2
  -6   7   5 47.5136 58.5038   2
  -7   6   5 37.5122 52.9482   2
  -7   6   5 71.2763 38.6462   1
   1   6   5-24.8130 70.6050   2
  -1   7   5 17.5417 63.2474   2
   1   6   6 2742.82 245.207   2
  -1   7   6 2764.59 253.277   2
  -6   7   6 2593.15 244.070   2
  -7   6   6 2825.11 259.171   2
  -7   6   6 2962.03 241.638   1
  -6   7   7 238.904 99.9313   2
  -7   6   7 105.951 73.2699   2
  -7   6   7 103.390 66.1507   1
   1   6   7 14.2767 52.3135   2
  -1   7   7 102.454 73.3433   2
  -6   7   8 1042.16 163.083   2
  -7   6   8 1071.11 171.805   2
  -7   6   8 1036.67 159.521   1
   1   6   8 1211.59 164.577   2
  -1   7   8 1548.74 195.561   2
  -6   7   9 123.571 83.9538   2
  -7   6   9 44.3684 60.6061   2
  -7   6   9 144.650 85.2737   1
   1   6   9 29.4153 54.8369   2
  -1   7   9 105.523 75.4375   2
  -6   7  10 738.480 145.505   2
  -7   6  10 727.914 150.749   2
  -7   1  10 582.053 145.237   1
  -7   6  10 504.775 128.941   1
  -1   7  10 689.271 141.617   2
  -6   7  11 71.2579 62.4837   2
  -7   6  11 199.312 110.158   2
  -7   6  11 55.2596 82.0065   1
  -7   1  11-120.938 98.5056   1
  -1   7  11 182.773 85.7094   2
  -7   7  -6 2092.48 191.812   2
  -7   7  -5-42.8920 47.9190   2
  -7   7  -4 2429.42 205.515   2
  -7   7  -3-25.7032 53.5354   2
  -7   7  -2 4322.58 288.937   2
  -7   7  -1 54.0463 59.0401   2
  -7   7   0 5570.69 333.808   2
  -7   7   1 180.779 82.7584   2
   0   7   1 234.073 106.762   2
   0   7   2 3872.33 312.542   2
  -7   7   2 3394.63 270.457   2
  -7   7   3 6.83317 64.2983   2
   0   7   3 84.7537 65.9354   2
   0   7   4 2369.25 240.680   2
  -7   7   4 2291.07 229.649   2
  -7   7   5-26.5951 50.7522   2
   0   7   5 19.2508 65.2164   2
   0   7   6 1739.60 217.042   2
  -7   7   6 1606.81 210.387   2
  -7   7   7 63.3900 69.1920   2
   0   7   7 64.4705 77.4297   2
  -7   7   8 578.860 124.736   2
   0   7   8 780.030 143.743   2
  -7   7   9 99.3049 76.9423   2
   0   7   9 57.2210 71.9468   2
  -7   7  10 323.943 111.258   2
   0   7  10 411.626 118.906   2
  -4   8  -6 2208.52 245.073   2
  -4   8  -5 68.0828 85.4336   2
  -4   8  -4 2654.77 257.160   2
  -8   4  -3 29.5604 34.3602   2
  -4   8  -3 30.6456 63.5025   2
  -4   8  -2 2435.74 245.721   2
  -8   4  -2 2597.23 195.127   2
  -8   4  -1 56.6180 55.8862   2
  -4   8  -1 54.7695 56.7407   2
  -4   8   0 4296.09 315.319   2
  -8   4   0 4059.40 261.889   2
  -4   8   1-23.3291 56.1017   2
  -8   4   2 2674.88 181.934   1
  -4   8   2 2597.55 246.878   2
  -8   4   3 10.6114 37.7872   1
  -4   8   3 77.6247 77.8703   2
  -8   4   4 2501.51 203.055   1
  -4   8   4 2511.01 241.213   2
  -8   4   5 54.9371 60.6424   1
  -4   8   5-2.72592 71.3429   2
  -8   4   6 1831.58 196.273   1
  -4   8   6 2295.14 244.993   2
  -8   4   7-20.1308 56.0586   1
  -4   8   7 116.165 84.0802   2
  -4   8   8 1462.98 207.209   2
  -8   4   8 1087.82 161.622   1
  -4   8   9-70.0902 73.6975   2
  -8   4   9 16.2294 59.4765   1
  -4   8  10 600.481 147.468   2
  -8   4  10 661.223 147.978   1
  -5   8  -6 2335.39 236.896   2
  -5   8  -5 4.58484 49.4215   2
  -3   8  -4 2126.05 243.697   2
  -5   8  -4 2084.07 215.883   2
  -8   5  -3-11.3689 31.8167   2
  -8   3  -3 75.6419 46.1944   2
  -3   8  -3 0.67737 64.2851   2
  -5   8  -3 27.6095 56.3834   2
  -3   8  -2 2641.60 255.762   2
  -8   5  -2 2650.62 204.979   2
  -5   8  -2 2658.67 245.113   2
  -8   5  -1-58.7229 41.0100   2
  -3   8  -1 89.0117 65.9662   2
  -5   8  -1 84.3752 72.0718   2
  -3   8   0 2924.54 268.917   2
  -5   8   0 3098.53 261.483   2
  -8   5   0 3073.79 233.225   2
  -8   5   1-61.6972 59.7386   2
  -3   8   1 72.7639 72.9727   2
  -3   8   2 2920.46 264.790   2
  -5   8   2 2705.49 260.445   2
  -8   5   2 2666.67 231.914   2
  -8   5   3 20.0831 39.1215   1
  -8   5   3-41.1695 52.9186   2
  -3   8   3 38.3489 75.1735   2
  -5   8   3 0.10320 55.1069   2
  -3   8   4 2181.52 234.781   2
  -5   8   4 2287.76 235.204   2
  -8   3   4 2005.03 194.928   1
  -8   5   4 1635.67 194.082   2
  -8   5   4 1956.57 175.624   1
  -5   8   5 77.7758 61.0517   2
  -8   3   5-44.6815 60.8096   1
  -8   5   5 0.69229 52.3500   1
  -8   5   5 130.070 85.4745   2
  -3   8   5 202.077 96.5316   2
  -3   8   6 1968.49 227.463   2
  -5   8   6 2011.63 230.308   2
  -8   3   6 1884.33 192.059   1
  -8   5   6 2079.97 233.505   2
  -8   5   6 2083.93 202.930   1
  -8   3   7 110.819 82.2571   1
  -5   8   7 142.402 82.6127   2
  -8   5   7 23.4731 56.2615   1
  -8   5   7-82.0805 80.1002   2
  -3   8   7 11.0532 63.6337   2
  -5   8   8 1384.81 200.124   2
  -8   5   8 1054.37 159.423   1
  -8   5   8 891.400 162.791   2
  -8   3   8 1088.89 168.498   1
  -3   8   8 1277.72 185.711   2
  -8   5   9 53.5653 76.7822   1
  -8   3   9-65.7992 79.0503   1
  -8   5   9 126.585 81.3766   2
  -5   8   9 24.0018 75.9418   2
  -3   8   9 24.6181 61.2546   2
  -8   5  10 186.258 87.7101   1
  -5   8  10 523.801 130.942   2
  -8   3  10 533.496 145.002   1
  -3   8  10 456.908 112.013   2
  -6   8  -7 93.9471 70.8298   2
  -6   8  -6 1840.32 196.393   2
  -6   8  -5-21.4821 59.3053   2
  -8   6  -4 1778.83 167.348   2
  -6   8  -4 1415.78 174.299   2
  -8   6  -3-56.7769 54.0763   2
  -2   8  -3-221.102 121.384   2
  -6   8  -3-29.5634 61.0955   2
  -2   8  -2 2330.45 254.644   2
  -6   8  -2 1980.97 207.083   2
  -8   6  -2 2049.02 183.319   2
  -8   6  -1-40.8729 46.0724   2
  -2   8  -1 31.7209 63.4017   2
  -6   8  -1 32.9620 51.5704   2
  -2   8   0 2907.56 268.220   2
  -6   8   0 3008.07 260.712   2
  -8   6   0 2676.51 223.545   2
  -8   6   1 29.7466 48.8083   2
  -2   8   1 9.56223 68.0190   2
  -6   8   1 100.315 84.9695   2
  -2   8   2 2150.50 230.335   2
  -6   8   2 2286.40 234.441   2
  -8   6   2 2438.63 223.232   2
  -6   8   3 219.802 93.8965   2
  -8   6   3 78.1167 65.0221   2
  -2   8   3 46.0139 66.5731   2
  -6   8   4 1690.21 206.557   2
  -8   6   4 1640.62 206.908   2
  -2   8   4 1529.64 208.075   2
  -6   8   5-76.5501 73.3438   2
  -8   6   5 66.1197 57.6560   2
  -8   6   5 150.726 73.3046   1
  -2   8   5-2.92185 64.2728   2
  -2   8   6 1674.16 216.033   2
  -6   8   6 2087.80 240.842   2
  -8   6   6 1788.96 219.111   2
  -8   6   6 1965.17 200.793   1
  -6   8   7 3.78884 66.3114   2
  -8   6   7 190.221 106.104   2
  -8   6   7 41.1849 64.9151   1
  -2   8   7 60.2837 67.0542   2
  -6   8   8 993.281 173.979   2
  -8   6   8 936.992 175.722   2
  -8   6   8 1004.99 161.920   1
  -8   2   8 753.475 156.140   1
  -2   8   8 945.757 167.847   2
  -6   8   9-33.4952 65.4464   2
  -8   6   9-60.3160 81.0322   2
  -8   2   9-51.4583 67.9216   1
  -8   6   9 49.2015 76.4459   1
  -2   8   9-66.7153 56.8327   2
  -7   8  -6 1035.30 153.092   2
  -7   8  -5 12.1623 56.7338   2
  -7   8  -4 1563.11 184.211   2
  -8   7  -4 1447.01 167.384   2
  -7   8  -3 12.1001 45.5190   2
  -8   7  -3 35.3899 60.8356   2
  -7   8  -2 1657.29 187.425   2
  -8   7  -2 1718.38 180.371   2
  -1   8  -1 118.409 81.8598   2
  -8   7  -1 98.9809 68.3498   2
  -7   8  -1-51.7215 73.8169   2
  -1   8   0 2819.71 279.875   2
  -7   8   0 2483.52 242.846   2
  -8   7   0 2665.38 240.783   2
  -7   8   1 90.4056 73.1258   2
  -8   7   1 6.99071 53.3461   2
  -1   8   1-22.3902 66.5347   2
  -7   8   2 1760.41 211.492   2
  -8   7   2 1769.81 194.582   2
  -1   8   2 1334.70 199.855   2
  -7   8   3-19.9110 56.4921   2
  -8   7   3 66.8903 79.7190   2
  -1   8   3 150.867 82.2620   2
   1   7   4 1449.82 195.494   2
  -7   8   4 1449.05 202.552   2
  -8   7   4 1221.69 174.742   2
  -1   8   4 1488.81 202.416   2
  -7   8   5 102.435 86.9969   2
  -8   7   5-40.9550 53.1501   2
   1   7   5-58.0082 68.2160   2
  -1   8   5 141.308 85.9615   2
  -7   8   6 929.673 168.417   2
  -8   7   6 1058.01 175.820   2
   1   7   6 964.225 171.852   2
  -1   8   6 1042.04 176.382   2
  -7   8   7-24.3751 63.0586   2
  -8   7   7 91.3945 85.4581   2
   1   7   7-12.3549 68.0937   2
  -1   8   7 19.9469 67.5957   2
  -7   8   8 688.993 149.400   2
  -8   7   8 920.288 175.376   2
   1   7   8 753.649 149.328   2
  -1   8   8 634.379 144.382   2
  -8   8  -4 913.042 146.579   2
  -8   8  -3 121.859 72.3984   2
  -8   8  -2 999.688 150.199   2
  -8   8  -1 115.695 83.3851   2
  -8   8   0 1514.12 190.100   2
  -8   8   1-54.5326 70.3529   2
   0   8   2 1232.70 202.740   2
  -8   8   2 1199.56 171.437   2
  -8   8   3 69.1426 73.7600   2
   0   8   3-30.8104 74.0050   2
  -8   8   4 976.645 163.612   2
   0   8   4 931.139 163.942   2
  -8   8   5 92.6305 77.8880   2
   0   8   5-60.6201 84.5194   2
  -8   8   6 734.612 156.853   2
   0   8   6 707.860 152.392   2
   0   8   7 14.3546 70.8519   2
  -5   9  -6 986.897 181.793   2
  -4   9  -5 185.391 110.500   2
  -5   9  -5 41.9836 79.0018   2
  -4   9  -4 1331.99 204.648   2
  -5   9  -4 1247.94 183.030   2
  -4   9  -3-43.2572 74.1332   2
  -5   9  -3 60.1572 65.9374   2
  -5   9  -2 1786.68 224.227   2
  -9   5  -2 1806.13 181.530   2
  -4   9  -2 1490.66 210.859   2
  -9   5  -1-40.4165 53.7097   2
  -9   4  -1 47.5220 49.3917   2
  -4   9  -1 107.679 90.3536   2
  -5   9  -1 22.1246 61.9223   2
  -4   9   0 2187.60 253.667   2
  -5   9   0 2460.51 254.964   2
  -9   5   0 2010.80 198.498   2
  -9   4   0 1734.82 178.481   2
  -9   5   1 27.2893 46.7499   2
  -4   9   1 119.344 91.1936   2
  -5   9   1 18.6946 67.7435   2
  -4   9   2 2235.00 256.837   2
  -5   9   2 1961.30 225.358   2
  -9   5   2 1486.43 183.642   2
  -9   5   3-5.79381 46.2986   2
  -4   9   3 53.1809 87.7370   2
  -5   9   3 110.374 87.5534   2
  -9   5   4 1086.07 162.201   2
  -4   9   4 1106.94 187.183   2
  -5   9   4 1206.88 185.077   2
  -9   5   5 97.6858 80.2699   2
  -4   9   5-9.28718 72.4315   2
  -5   9   5-65.8871 63.5373   2
  -9   4   6 744.020 129.322   1
  -9   5   6 748.130 146.344   2
  -4   9   6 1012.25 182.331   2
  -5   9   6 1031.90 179.165   2
  -9   4   7 119.815 71.7524   1
  -9   5   7-55.8182 71.4783   2
  -4   9   7-10.8772 61.4840   2
  -5   9   7 123.673 85.3968   2
  -9   5   8 393.475 109.710   1
  -9   4   8 169.402 74.1366   1
  -4   9   8 352.393 108.116   2
  -5   9   8 456.515 139.083   2
  -6   9  -7 66.2398 81.6620   2
  -6   9  -6 756.533 150.432   2
  -6   9  -5 155.655 87.8206   2
  -3   9  -4 1496.47 231.168   2
  -6   9  -4 1005.82 167.915   2
  -3   9  -3-49.3919 93.3624   2
  -6   9  -3-29.6669 59.8236   2
  -9   6  -2 992.481 144.978   2
  -3   9  -2 929.924 172.761   2
  -6   9  -2 759.105 146.507   2
  -9   6  -1-42.4420 48.3345   2
  -3   9  -1-44.0474 77.5148   2
  -6   9  -1 28.7190 64.2662   2
  -3   9   0 1704.72 230.549   2
  -9   6   0 1671.25 190.548   2
  -6   9   0 1413.05 188.537   2
  -9   6   1 79.6710 62.9774   2
  -3   9   1-34.5072 69.0376   2
  -6   9   1 23.2190 61.6553   2
  -9   6   2 1089.01 163.350   2
  -3   9   2 993.505 180.169   2
  -6   9   2 1163.77 174.854   2
  -9   6   3 56.5373 70.3929   2
  -3   9   3 75.0027 93.9874   2
  -6   9   3 7.16866 75.7979   2
  -9   6   4 920.595 156.668   2
  -3   9   4 1114.57 187.288   2
  -9   3   4 802.184 130.669   1
  -6   9   4 1073.51 173.847   2
  -6   9   5-24.0605 58.1426   2
  -9   3   5 55.8585 61.6909   1
  -9   6   5 24.4607 60.9054   2
  -3   9   5 104.682 69.8997   2
  -6   9   6 830.843 161.375   2
  -9   3   6 621.891 124.350   1
  -9   6   6 743.523 147.918   2
  -3   9   6 830.995 171.588   2
  -6   9   7 188.562 107.026   2
  -9   3   7 49.7957 69.2291   1
  -9   6   7 10.9574 65.3020   2
  -3   9   7-13.4328 73.1921   2
  -7   9  -6 704.540 135.066   2
  -7   9  -5 80.0849 67.9545   2
  -7   9  -4 609.286 124.570   2
  -7   9  -3 32.5392 62.4818   2
  -2   9  -2 801.505 175.507   2
  -9   7  -2 988.154 149.592   2
  -7   9  -2 954.264 158.772   2
  -9   7  -1 179.709 80.9120   2
  -2   9  -1-22.9256 81.7276   2
  -7   9  -1 127.039 69.8904   2
  -9   7   0 1108.05 161.182   2
  -2   9   0 916.722 167.255   2
  -7   9   0 1039.40 175.370   2
  -9   7   1 64.8138 64.1547   2
  -2   9   1 116.940 96.2651   2
  -7   9   1 79.4864 71.8707   2
  -9   7   2 688.149 134.357   2
  -2   9   2 1096.00 190.131   2
  -7   9   2 1202.43 203.227   2
  -7   9   3 166.229 97.9712   2
  -9   7   3 25.7128 49.7033   2
  -2   9   3 53.5984 90.0901   2
  -7   9   4 702.300 155.544   2
  -9   7   4 479.119 113.256   2
  -2   9   4 550.709 137.322   2
  -7   9   5 125.122 83.1995   2
  -9   7   5 65.1820 70.3661   2
  -2   9   5 72.6969 91.5484   2
  -7   9   6 750.463 166.702   2
  -9   7   6 817.359 158.003   2
  -2   9   6 691.929 158.820   2
  -8   9  -4 272.406 103.033   2
  -8   9  -3 6.28358 57.2388   2
  -8   9  -2 334.566 107.000   2
  -9   8  -2 706.380 134.590   2
  -9   8  -1-22.5261 52.6618   2
  -8   9  -1-69.1539 78.0117   2
  -9   8   0 511.471 125.850   2
  -8   9   0 547.718 127.865   2
  -8   9   1 63.7789 92.4697   2
  -9   8   1 89.0250 80.7333   2
  -1   9   1 237.372 120.507   2
  -8   9   2 733.161 150.693   2
  -9   8   2 489.288 131.709   2
  -1   9   2 382.948 132.249   2
  -8   9   3 20.7242 74.3512   2
  -9   8   3-31.9188 54.7200   2
  -1   9   3-147.578 103.018   2
  -8   9   4 431.304 123.769   2
  -9   8   4 445.744 133.768   2
  -1   9   4 335.655 113.593   2
  -5  10  -4 548.366 146.058   2
  -5  10  -3-59.0425 73.6588   2
  -5  10  -2 691.276 158.823   2
  -5  10  -1 240.262 108.340   2
 -10   5   0 903.632 141.070   2
  -5  10   0 1255.49 198.989   2
 -10   5   1 83.2977 53.0470   2
  -5  10   1 2.98113 66.3650   2
 -10   5   2 422.212 101.279   2
  -5  10   2 691.151 159.631   2
 -10   5   3-13.1916 48.0326   2
  -5  10   3-90.0475 69.0923   2
 -10   5   4 359.952 99.4125   2
  -4  10  -3-18.6901 86.3983   2
  -6  10  -3 113.728 98.7217   2
  -4  10  -2 537.912 143.867   2
  -6  10  -2 882.295 176.968   2
  -4  10  -1-75.1486 87.0206   2
  -6  10  -1-9.08515 83.7187   2
 -10   6   0 699.782 133.168   2
  -4  10   0 536.450 146.981   2
  -6  10   0 903.206 182.704   2
 -10   6   1 77.0679 59.3142   2
 -10   4   1 41.4593 47.1759   2
  -4  10   1-6.50125 59.5096   2
  -6  10   1 55.7321 59.0071   2
 -10   6   2 702.724 137.356   2
  -4  10   2 628.632 153.108   2
  -6  10   2 563.208 136.641   2
 -10   6   3-34.1511 60.5672   2
  -7  10  -1 96.7974 81.9252   2
 -10   7   0 404.031 106.195   2
  -7  10   0 536.973 144.865   2
 -10   7   1-93.6276 63.5568   2
  -7  10   1 162.733 97.2598   2
   0   0   0    0.00    0.00   0
TITL exp_3451 in P6(3)mc
REM P6(3)mc (#186 in standard setting)
CELL 0.71073   8.149848   8.149848  13.092199  90.0000  90.0000 120.0000
ZERR    3.00   0.000677   0.000677   0.000928   0.0000   0.0000   0.0000
LATT -1
SYMM -y, x-y, z
SYMM -x+y,-x, z
SYMM -x,-y, z+1/2
SYMM  y,-x+y, z+1/2
SYMM  x-y, x, z+1/2
SYMM -y,-x, z
SYMM -x+y, y, z
SYMM  x, x-y, z
SYMM  y, x, z+1/2
SYMM  x-y,-y, z+1/2
SYMM -x,-x+y, z+1/2
SFAC C H N S Re
UNIT 24.00 60.00 3.00 12.00 3.00
TREF
HKLF 4
END
;
_shelx_hkl_checksum              26001
_shelx_res_file
;
TITL exp_3451 in P6(3)mc
REM P6(3)mc (#186 in standard setting)
CELL 0.71073   8.150   8.150  13.092  90.0000  90.0000 120.0000
ZERR    2.00   0.002   0.0027   0.003   0.0000   0.0000   0.0000
LATT -1
SYMM -Y,+X-Y,+Z
SYMM +Y-X,-X,+Z
SYMM -X,-Y,0.5+Z
SYMM +Y,-X+Y,0.5+Z
SYMM -Y+X,+X,0.5+Z
SYMM -Y,-X,+Z
SYMM +Y-X,+Y,+Z
SYMM +X,+X-Y,+Z
SYMM +Y,+X,0.5+Z
SYMM -Y+X,-Y,0.5+Z
SYMM -X,-X+Y,0.5+Z
SFAC C H N S Re
UNIT 16 40 2 8 2
SIMU
eadp c2 c4 c6 c8
eadp c1 c3 c5 c7
L.S. 10
PLAN  20
TEMP 24
LIST 4
ACTA 52.8
BOND $H
FMAP 2
TWIN
WGHT    0.018900
BASF   0.14418
FVAR       2.08497
RE    5    0.000000    0.000000    0.055021    10.16667    0.06305    0.06305 =
         0.05298    0.00000    0.00000    0.03152
S1    4    0.000000    0.000000    0.217263    10.16667    0.09716    0.09716 =
         0.05447    0.00000    0.00000    0.04858
S2    4   -0.141960    0.141960    0.001005    10.50000    0.10486    0.10486 =
         0.09076    0.00803   -0.00803    0.06852
SAME 0.02 0.04 N1 C3 C4 C5 C6 C7 C8 C1 C2
PART -1
N1    3    0.678287    0.331133    0.310326    10.16667    0.04131
C1    1    0.513178    0.139391    0.328455    10.16667    0.06529
AFIX  23
H1A   2    0.403111    0.140160    0.300858    10.16667   -1.20000
H1B   2    0.495267    0.124985    0.401835    10.16667   -1.20000
AFIX   0
C2    1    0.506039   -0.037844    0.289524    10.16667    0.05436
AFIX  33
H2A   2    0.388112   -0.146292    0.309172    10.16667   -1.50000
H2B   2    0.609159   -0.047786    0.318166    10.16667   -1.50000
H2C   2    0.516291   -0.032493    0.216406    10.16667   -1.50000
AFIX   0
C3    1    0.850459    0.313774    0.293009    10.16667    0.06529
AFIX  23
H3A   2    0.887798    0.285719    0.358111    10.16667   -1.20000
H3B   2    0.814965    0.205610    0.248792    10.16667   -1.20000
AFIX   0
C4    1    1.019680    0.480341    0.247547    10.16667    0.05436
AFIX  33
H4A   2    1.120223    0.452159    0.240229    10.16667   -1.50000
H4B   2    1.060391    0.588212    0.291446    10.16667   -1.50000
H4C   2    0.987286    0.507804    0.181720    10.16667   -1.50000
AFIX   0
C5    1    0.661927    0.428270    0.217152    10.16667    0.06529
AFIX  23
H5A   2    0.789674    0.519168    0.195626    10.16667   -1.20000
H5B   2    0.607060    0.333592    0.163652    10.16667   -1.20000
AFIX   0
C6    1    0.553941    0.528529    0.220164    10.16667    0.05436
AFIX  33
H6A   2    0.558205    0.582153    0.154254    10.16667   -1.50000
H6B   2    0.608450    0.627815    0.270190    10.16667   -1.50000
H6C   2    0.424680    0.441064    0.238014    10.16667   -1.50000
AFIX   0
C7    1    0.704057    0.450651    0.402872    10.16667    0.06529
AFIX  23
H7A   2    0.592740    0.464131    0.408832    10.16667   -1.20000
H7B   2    0.810956    0.575964    0.389955    10.16667   -1.20000
AFIX   0
C8    1    0.735696    0.385920    0.504672    10.16667    0.05436
AFIX  33
H8A   2    0.749693    0.475639    0.556326    10.16667   -1.50000
H8B   2    0.848448    0.376568    0.501885    10.16667   -1.50000
H8C   2    0.629165    0.264189    0.520854    10.16667   -1.50000
AFIX   0
HKLF 4
REM  exp_3451 in P6(3)mc
REM R1 =  0.0208 for     392 Fo > 4sig(Fo)  and  0.0333 for all     513 data
REM     44 parameters refined using     34 restraints
END
WGHT      0.0188      0.0000
REM Highest difference peak  0.261,  deepest hole -0.424,  1-sigma level  0.053
Q1    1   0.0000  0.0000  0.3062  10.16667  0.05    0.26
Q2    1  -0.0687  0.0687  0.0096  10.50000  0.05    0.26
Q3    1   0.0702  0.1404  0.0877  10.50000  0.05    0.23
Q4    1   0.5945  0.5578  0.0567  11.00000  0.05    0.19
Q5    1   0.0740  0.1480  0.0243  10.50000  0.05    0.18
Q6    1  -0.0759 -0.1518  0.1025  10.50000  0.05    0.17
Q7    1  -0.0560  0.0560 -0.1292  10.50000  0.05    0.17
Q8    1   0.8629  0.1371  0.2718  10.50000  0.05    0.16
Q9    1   0.7319 -0.1340  0.3302  10.50000  0.05    0.15
Q10   1   1.0012  0.5006  0.5535  10.50000  0.05    0.15
Q11   1   0.8111  0.6221  0.3442  10.50000  0.05    0.15
Q12   1   0.6474  0.6321  0.1891  11.00000  0.05    0.14
Q13   1   0.5872  0.4128  0.0010  10.50000  0.05    0.14
Q14   1   0.5043  0.0086  0.3597  10.50000  0.05    0.14
Q15   1   0.0513  0.1027  0.2491  10.50000  0.05    0.13
Q16   1  -0.2648  0.2648 -0.0426  10.50000  0.05    0.13
Q17   1   0.6447  0.5695  0.0620  11.00000  0.05    0.13
Q18   1   0.6053  0.3947  0.4312  10.50000  0.05    0.13
Q19   1   0.5895  0.4105  0.1114  10.50000  0.05    0.13
Q20   1   0.8426  0.6852  0.6129  10.50000  0.05    0.13
;
_shelx_res_checksum              88081
_shelxl_version_number           20.13
loop_
_space_group_symop_operation_xyz
'x, y, z'
'-y, x-y, z'
'-x+y, -x, z'
'-x, -y, z+1/2'
'y, -x+y, z+1/2'
'x-y, x, z+1/2'
'-y, -x, z'
'-x+y, y, z'
'x, x-y, z'
'y, x, z+1/2'
'x-y, -y, z+1/2'
'-x, -x+y, z+1/2'
loop_
_atom_site_type_symbol
_atom_site_label
_atom_site_fract_x
_atom_site_fract_y
_atom_site_fract_z
_atom_site_U_iso_or_equiv
_atom_site_adp_type
_atom_site_calc_flag
_atom_site_occupancy
_atom_site_disorder_assembly
_atom_site_disorder_group
Re Re 0.0000 0.0000 0.0550(2) 0.0597(2) Uani d 1 . .
S S1 0.0000 0.0000 0.2173(4) 0.0829(17) Uani d 1 . .
S S2 -0.14196(19) 0.14196(19) 0.0010(3) 0.0930(8) Uani d 1 . .
N N1 0.678(4) 0.331(3) 0.3103(10) 0.041(3) Uiso d 0.1667 A -1
C C1 0.513(4) 0.139(3) 0.328(2) 0.065(5) Uiso d 0.1667 A -1
H H1A 0.4031 0.1402 0.3009 0.078 Uiso calc 0.1667 A -1
H H1B 0.4953 0.1250 0.4018 0.078 Uiso calc 0.1667 A -1
C C2 0.506(6) -0.038(3) 0.290(3) 0.054(5) Uiso d 0.1667 A -1
H H2A 0.3881 -0.1463 0.3092 0.082 Uiso calc 0.1667 A -1
H H2B 0.6092 -0.0478 0.3182 0.082 Uiso calc 0.1667 A -1
H H2C 0.5163 -0.0325 0.2164 0.082 Uiso calc 0.1667 A -1
C C3 0.850(4) 0.314(4) 0.293(3) 0.065(5) Uiso d 0.1667 A -1
H H3A 0.8878 0.2857 0.3581 0.078 Uiso calc 0.1667 A -1
H H3B 0.8150 0.2056 0.2488 0.078 Uiso calc 0.1667 A -1
C C4 1.020(5) 0.480(6) 0.248(3) 0.054(5) Uiso d 0.1667 A -1
H H4A 1.1202 0.4522 0.2402 0.082 Uiso calc 0.1667 A -1
H H4B 1.0604 0.5882 0.2914 0.082 Uiso calc 0.1667 A -1
H H4C 0.9873 0.5078 0.1817 0.082 Uiso calc 0.1667 A -1
C C5 0.662(5) 0.428(5) 0.2172(17) 0.065(5) Uiso d 0.1667 A -1
H H5A 0.7897 0.5192 0.1956 0.078 Uiso calc 0.1667 A -1
H H5B 0.6071 0.3336 0.1637 0.078 Uiso calc 0.1667 A -1
C C6 0.554(6) 0.529(6) 0.220(3) 0.054(5) Uiso d 0.1667 A -1
H H6A 0.5582 0.5822 0.1543 0.082 Uiso calc 0.1667 A -1
H H6B 0.6084 0.6278 0.2702 0.082 Uiso calc 0.1667 A -1
H H6C 0.4247 0.4411 0.2380 0.082 Uiso calc 0.1667 A -1
C C7 0.704(7) 0.451(3) 0.4029(16) 0.065(5) Uiso d 0.1667 A -1
H H7A 0.5927 0.4641 0.4088 0.078 Uiso calc 0.1667 A -1
H H7B 0.8110 0.5760 0.3900 0.078 Uiso calc 0.1667 A -1
C C8 0.736(3) 0.386(6) 0.5047(14) 0.054(5) Uiso d 0.1667 A -1
H H8A 0.7497 0.4756 0.5563 0.082 Uiso calc 0.1667 A -1
H H8B 0.8484 0.3766 0.5019 0.082 Uiso calc 0.1667 A -1
H H8C 0.6292 0.2642 0.5209 0.082 Uiso calc 0.1667 A -1
loop_
_atom_site_aniso_label
_atom_site_aniso_U_11
_atom_site_aniso_U_22
_atom_site_aniso_U_33
_atom_site_aniso_U_12
_atom_site_aniso_U_13
_atom_site_aniso_U_23
Re 0.0630(3) 0.0630(3) 0.0530(3) 0.03152(13) 0.000 0.000
S1 0.097(3) 0.097(3) 0.054(3) 0.0486(14) 0.000 0.000
S2 0.1049(17) 0.1049(17) 0.0908(15) 0.069(2) -0.0080(11) 0.0080(11)
loop_
_atom_type_symbol
_atom_type_description
_atom_type_scat_dispersion_real
_atom_type_scat_dispersion_imag
_atom_type_scat_source
C C 0.0033 0.0016 'International Tables Vol C Tables 4.2.6.8 and 6.1.1.4'
H H 0.0000 0.0000 'International Tables Vol C Tables 4.2.6.8 and 6.1.1.4'
N N 0.0061 0.0033 'International Tables Vol C Tables 4.2.6.8 and 6.1.1.4'
S S 0.1246 0.1234 'International Tables Vol C Tables 4.2.6.8 and 6.1.1.4'
Re Re -1.0185 7.2310 'International Tables Vol C Tables 4.2.6.8 and 6.1.1.4'
loop_
_exptl_crystal_face_index_h
_exptl_crystal_face_index_k
_exptl_crystal_face_index_l
_exptl_crystal_face_perp_dist
0 1 0 0.0128
1 5 1 0.0187
1 -1 0 0.0125
-1 1 0 0.0147
1 0 0 0.0151
-1 0 0 0.0151
3 -7 14 0.1296
1 -6 -15 0.1099
0 -1 0 0.0128
loop_
_geom_angle_atom_site_label_1
_geom_angle_atom_site_label_2
_geom_angle_atom_site_label_3
_geom_angle_site_symmetry_1
_geom_angle_site_symmetry_3
_geom_angle
S1 Re S2 . 2 109.44(14)
S1 Re S2 . 3 109.44(14)
S2 Re S2 2 3 109.51(14)
S1 Re S2 . . 109.44(14)
S2 Re S2 2 . 109.50(14)
S2 Re S2 3 . 109.50(14)
C1 N1 C5 . . 114(2)
C1 N1 C3 . . 108.9(18)
C5 N1 C3 . . 105.2(19)
C1 N1 C7 . . 108.2(18)
C5 N1 C7 . . 109.6(17)
C3 N1 C7 . . 110(3)
N1 C1 C2 . . 122(2)
N1 C1 H1A . . 106.7
C2 C1 H1A . . 106.7
N1 C1 H1B . . 106.7
C2 C1 H1B . . 106.7
H1A C1 H1B . . 106.6
C1 C2 H2A . . 109.5
C1 C2 H2B . . 109.5
H2A C2 H2B . . 109.5
C1 C2 H2C . . 109.5
H2A C2 H2C . . 109.5
H2B C2 H2C . . 109.5
C4 C3 N1 . . 117(2)
C4 C3 H3A . . 108.0
N1 C3 H3A . . 108.0
C4 C3 H3B . . 108.0
N1 C3 H3B . . 108.0
H3A C3 H3B . . 107.2
C3 C4 H4A . . 109.5
C3 C4 H4B . . 109.5
H4A C4 H4B . . 109.5
C3 C4 H4C . . 109.5
H4A C4 H4C . . 109.5
H4B C4 H4C . . 109.5
C6 C5 N1 . . 121(2)
C6 C5 H5A . . 107.2
N1 C5 H5A . . 107.2
C6 C5 H5B . . 107.2
N1 C5 H5B . . 107.2
H5A C5 H5B . . 106.8
C5 C6 H6A . . 109.5
C5 C6 H6B . . 109.5
H6A C6 H6B . . 109.5
C5 C6 H6C . . 109.5
H6A C6 H6C . . 109.5
H6B C6 H6C . . 109.5
N1 C7 C8 . . 119(2)
N1 C7 H7A . . 107.6
C8 C7 H7A . . 107.6
N1 C7 H7B . . 107.6
C8 C7 H7B . . 107.6
H7A C7 H7B . . 107.1
C7 C8 H8A . . 109.5
C7 C8 H8B . . 109.5
H8A C8 H8B . . 109.5
C7 C8 H8C . . 109.5
H8A C8 H8C . . 109.5
H8B C8 H8C . . 109.5
loop_
_geom_bond_atom_site_label_1
_geom_bond_atom_site_label_2
_geom_bond_site_symmetry_2
_geom_bond_distance
Re S1 . 2.124(5)
Re S2 2 2.125(3)
Re S2 3 2.125(3)
Re S2 . 2.125(3)
N1 C1 . 1.485(19)
N1 C5 . 1.496(19)
N1 C3 . 1.496(19)
N1 C7 . 1.502(18)
C1 C2 . 1.51(2)
C1 H1A . 0.9700
C1 H1B . 0.9700
C2 H2A . 0.9600
C2 H2B . 0.9600
C2 H2C . 0.9600
C3 C4 . 1.49(3)
C3 H3A . 0.9700
C3 H3B . 0.9700
C4 H4A . 0.9600
C4 H4B . 0.9600
C4 H4C . 0.9600
C5 C6 . 1.47(3)
C5 H5A . 0.9700
C5 H5B . 0.9700
C6 H6A . 0.9600
C6 H6B . 0.9600
C6 H6C . 0.9600
C7 C8 . 1.50(2)
C7 H7A . 0.9700
C7 H7B . 0.9700
C8 H8A . 0.9600
C8 H8B . 0.9600
C8 H8C . 0.9600

_cod_database_fobs_code 2021972
