#------------------------------------------------------------------------------
#$Date: 2020-01-01 09:41:38 +0200 (Wed, 01 Jan 2020) $
#$Revision: 246407 $
#$URL: file:///home/coder/svn-repositories/cod/cif/2/02/19/2021935.cif $
#------------------------------------------------------------------------------
#
# This file is available in the Crystallography Open Database (COD),
# http://www.crystallography.net/. The original data for this entry
# were provided by IUCr Journals, http://journals.iucr.org/.
#
# The file may be used within the scientific community so long as
# proper attribution is given to the journal article from which the
# data were obtained.
#
data_2021935
loop_
_publ_author_name
'Tan, Xue-Jie'
'Liu, Shuai'
'Hei, Xiao-Ming'
'Yang, Feng-Cun'
'He, Peng-Bing'
'Guo, Feng'
'Xing, Dian-Xiang'
_publ_section_title
;
 Structural and theoretical study of four novel norcantharidine
 derivatives: two new cases of conditional isomorphism
;
_journal_coeditor_code           YO3069
_journal_issue                   1
_journal_name_full               'Acta Crystallographica Section C'
_journal_page_first              75
_journal_page_last               86
_journal_paper_doi               10.1107/S2053229619016164
_journal_volume                  76
_journal_year                    2020
_chemical_absolute_configuration syn
_chemical_formula_iupac          'C14 H12 N2 O5'
_chemical_formula_moiety         'C14 H12 N2 O5'
_chemical_formula_sum            'C14 H12 N2 O5'
_chemical_formula_weight         288.26
_chemical_name_common
;
norcantharidine - 4-nitraaniline
;
_chemical_name_systematic
(3a<i>R</i>,4<i>S</i>,7<i>R</i>,7a<i>S</i>)-2-(4-nitrophenyl)-3a,4,5,6,7,7a-hexahydro-1<i>H</i>-4,7-epoxyisoindole-1,3(2<i>H</i>)-dione
_space_group_crystal_system      monoclinic
_space_group_IT_number           4
_space_group_name_Hall           'P 2yb'
_space_group_name_H-M_alt        'P 1 21 1'
_atom_sites_solution_hydrogens   difmap
_audit_creation_method           SHELXL-2016/6
_cell_angle_alpha                90
_cell_angle_beta                 98.918(7)
_cell_angle_gamma                90
_cell_formula_units_Z            2
_cell_length_a                   5.3661(4)
_cell_length_b                   18.6171(16)
_cell_length_c                   6.6116(5)
_cell_measurement_reflns_used    380
_cell_measurement_temperature    293(2)
_cell_measurement_theta_max      26.00
_cell_measurement_theta_min      2.45
_cell_volume                     652.52(9)
_computing_cell_refinement
;
SMART (Bruker, 2000)
;
_computing_data_collection
;
SMART (Bruker, 2000)
;
_computing_data_reduction
;
SAINT (Bruker, 2000)
;
_computing_molecular_graphics
;
SHELXTL (Bruker, 2000), PLATON (Spek, 2009), WinGX2014
(Farrugia, 2012),
DIAMOND (Brandenburg & Putz, 1999) and Mercury (Macrae <i>et al.</i>,
2008)
;
_computing_publication_material
;
SHELXL2016 (Sheldrick, 2015b)
;
_computing_structure_refinement
;
SHELXL2016 (Sheldrick, 2015b)
;
_computing_structure_solution
;
SHELXT (Sheldrick, 2015a)
;
_diffrn_ambient_temperature      293(2)
_diffrn_detector_area_resol_mean 10.12
_diffrn_measured_fraction_theta_full 0.995
_diffrn_measured_fraction_theta_max 0.963
_diffrn_measurement_device_type  'Bruker SMART CCD area detector'
_diffrn_measurement_method       'phi and omega scans'
_diffrn_radiation_type           CuK\a
_diffrn_radiation_wavelength     1.54184
_diffrn_reflns_av_R_equivalents  0.0217
_diffrn_reflns_av_unetI/netI     0.0355
_diffrn_reflns_limit_h_max       5
_diffrn_reflns_limit_h_min       -6
_diffrn_reflns_limit_k_max       22
_diffrn_reflns_limit_k_min       -22
_diffrn_reflns_limit_l_max       8
_diffrn_reflns_limit_l_min       -7
_diffrn_reflns_number            2121
_diffrn_reflns_theta_full        67.684
_diffrn_reflns_theta_max         71.350
_diffrn_reflns_theta_min         4.751
_diffrn_source                   'fine-focus sealed tube'
_exptl_absorpt_coefficient_mu    0.960
_exptl_absorpt_correction_T_max  0.080
_exptl_absorpt_correction_T_min  0.070
_exptl_absorpt_correction_type   multi-scan
_exptl_absorpt_process_details
;
(SADABS; Bruker, 2000)
;
_exptl_crystal_colour            'light yellow'
_exptl_crystal_density_diffrn    1.467
_exptl_crystal_density_method    'not measured'
_exptl_crystal_description       plate
_exptl_crystal_F_000             300
_exptl_crystal_size_max          0.33
_exptl_crystal_size_mid          0.30
_exptl_crystal_size_min          0.12
_refine_diff_density_max         0.177
_refine_diff_density_min         -0.157
_refine_ls_abs_structure_details
;
Flack <i>x</i> determined using 354 quotients [(I+)-(I-)]/[(I+)+(I-)]
(Parsons <i>et al.</i>,  2013)
;
_refine_ls_abs_structure_Flack   0.5(3)
_refine_ls_extinction_coef       0.0126(19)
_refine_ls_extinction_expression Fc^*^=kFc[1+0.001xFc^2^\l^3^/sin(2\q)]^-1/4^
_refine_ls_extinction_method
;
SHELXL2016 (Sheldrick, 2015b)
;
_refine_ls_goodness_of_fit_ref   1.059
_refine_ls_hydrogen_treatment    refall
_refine_ls_matrix_type           full
_refine_ls_number_parameters     239
_refine_ls_number_reflns         1717
_refine_ls_number_restraints     1
_refine_ls_restrained_S_all      1.058
_refine_ls_R_factor_all          0.0447
_refine_ls_R_factor_gt           0.0403
_refine_ls_shift/su_max          0.000
_refine_ls_shift/su_mean         0.000
_refine_ls_structure_factor_coef Fsqd
_refine_ls_weighting_details
'w=1/[\s^2^(Fo^2^)+(0.0546P)^2^+0.0162P] where P=(Fo^2^+2Fc^2^)/3'
_refine_ls_weighting_scheme      calc
_refine_ls_wR_factor_gt          0.1022
_refine_ls_wR_factor_ref         0.1091
_reflns_number_gt                1549
_reflns_number_total             1717
_reflns_threshold_expression     'I > 2\s(I)'
_cod_data_source_file            yo3069sup1.cif
_cod_data_source_block           NCA-NA
_cod_original_sg_symbol_H-M      'P 21'
_cod_database_code               2021935
_shelx_space_group_comment
;
The symmetry employed for this shelxl refinement is uniquely defined
by the following loop, which should always be used as a source of
symmetry information in preference to the above space-group names.
They are only intended as comments.
;
_shelx_estimated_absorpt_t_min   0.521
_shelx_estimated_absorpt_t_max   0.824
_shelx_hkl_file
;
   0 -22   0 2819.11 366.201  15
   0 -22   1 2350.87 325.622  15
   0 -22  -1 1662.47 275.916  15
   0 -22   2 970.136 189.611  15
   0 -21   0 140.914 136.324  15
   0 -21   1 1747.19 327.968  15
   0 -21   2 2699.44 373.059  15
   0 -21   3 175.083 92.9701  15
   0 -20   1 1040.98 288.711  15
   0 -20   2 1078.20 256.635  15
   0 -20   3 54.2521 127.088  15
   0 -19   1 1809.83 406.949  15
   0 -19   2 1654.58 373.405  15
   0 -19   3 701.557 225.239  15
   0 -19   4 755.172 197.342  15
   0 -18   2 2008.76 426.239  15
   0 -18   3 1205.14 300.294  15
   0 -18   4 301.691 142.362  15
   0 -17   2 549.154 243.821  15
   0 -17   3 1212.87 308.690  15
   0 -17   4 110.284 122.686  15
   0 -17   5 840.691 199.112  15
   0 -16   2 130.165 176.796  15
   0 -16   3 3571.29 557.532  15
   0 -16   4 249.533 109.001  15
   0 -16   5 996.923 251.651  15
   0 -15   2 5704.56 707.315  15
   0 -15   3 9833.94 932.361  15
   0 -15   4 466.774 197.622  15
   0 -15   5 1989.23 370.797  15
   0 -15   6 1067.11 199.275  15
   0 -14   0 190805. 4145.16   1
   0 -14   2 8269.71 822.246  15
   0 -14   3 4212.46 606.476  15
   0 -14   4 1625.18 383.769  15
   0 -14   5 3777.96 524.141  15
   0 -14   6 1880.08 294.905  15
   0 -13   0 4.51626 115.098   1
   0 -13  -1 12419.4 1036.90   1
   0 -13   2 5383.01 651.501  15
   0 -13   3 10256.8 924.890  15
   0 -13   4 17747.1 1228.68  15
   0 -13   5 16.5266 146.902  15
   0 -13   6 449.949 171.949  15
   0 -12   0 133590. 3190.02   1
   0 -12  -1 24973.0 1418.23   1
   0 -12   3 3225.93 513.465  15
   0 -12   4 6873.87 764.676  15
   0 -12   5 548.766 277.126  15
   0 -12   6 842.148 231.517  15
   0 -11   0-53.0122 96.3316   1
   0 -11  -1 31451.2 1512.21   1
   0 -11   1 36656.2 1544.31   1
   0 -11   4 20104.6 1293.53  15
   0 -11   5 7000.69 768.211  15
   0 -11   6 2283.22 403.675  15
   0 -11   7 703.912 161.345  15
   0 -10   0 136573. 2899.90   1
   0 -10   1 81400.6 2158.94   1
   0 -10  -1 70404.9 2137.79   1
   0 -10   4 27531.8 1486.47  15
   0 -10   5 6287.41 729.534  15
   0 -10   6 238.392 134.077  15
   0 -10   7-19.3730 50.5796  15
   0  -9   0 138.387 130.562   1
   0  -9   1 6014.07 545.854   1
   0  -9  -1 4594.50 521.900   1
   0  -9   4 1530.98 339.880  15
   0  -9   5 32750.3 1676.17  15
   0  -9   6 2519.32 451.875  15
   0  -9   7 2125.24 317.687  15
   0  -8   0 44216.5 1448.96   1
   0  -8   1 25647.5 1025.24   1
   0  -8  -1 23267.1 1093.77   1
   0  -8   5 34548.8 1698.03  15
   0  -8   6 2667.58 462.056  15
   0  -8   7 1159.00 257.349  15
   0  -8   7 1110.92 219.166  14
   0  -7   0 329.659 132.307   1
   0  -7   1 89970.5 1734.27   1
   0  -7  -1 79683.2 1898.50   1
   0  -7   5 22741.9 1371.26  15
   0  -7   6 2196.77 422.091  15
   0  -7   7 810.419 217.515  15
   0  -7   7 826.203 200.929  14
   0  -6   0 441881. 3814.13   1
   0  -6  -1 6865.92 513.710   1
   0  -6   5 51280.5 2036.52  15
   0  -6   6 4320.61 599.947  15
   0  -6   7 1638.25 309.260  14
   0  -6   7 1526.47 312.966  15
   0  -5   0 152.583 81.1327   1
   0  -5  -1 184226. 2452.42   1
   0  -5   5 28127.6 1484.62  15
   0  -5   6 13800.9 1066.51  15
   0  -5   7 229.285 147.109  15
   0  -4   0 213183. 2067.68   1
   0  -4  -1 62181.1 1295.00   1
   0  -4  -2 8059.48 225.898   7
   0  -4   5 13171.1 1017.50  15
   0  -4   6 503.290 229.021  15
   0  -4   7 29.5328 103.779  15
   0  -3   0 1332.65 140.630   1
   0  -3  -1 122642. 673.890   7
   0  -3  -1 130809. 1674.03   1
   0  -3   5 301.128 95.7468  15
   0  -3   6 9216.93 867.780  15
   0  -3   7 1668.27 332.407  15
   0  -3   7 1495.93 337.136  14
   0  -2   0 147285. 1183.99   1
   0  -2  -1 999999. 4088.31   1
   0  -2  -2 48634.1 791.383   4
   0  -2  -3 166623. 1956.29   4
   0  -2   5 8908.12 812.314  15
   0  -2   6 2291.97 424.996  15
   0  -2   7 3046.39 468.009  15
   0  -2   7 3044.59 450.512  14
   0  -1  -2 43019.1 848.908   4
   0  -1  -3 47169.1 1132.08   4
   0  -1   5 6888.33 703.861  15
   0  -1   6 3924.40 558.598  15
   0  -1   7 3121.89 474.065  14
   0  -1   8 374.579 116.191  14
   0   0  -2 11394.9 507.881   3
   0   0  -3 141885. 2102.71   4
   0   0   4 4299.35 413.961   5
   0   0   5 6508.25 683.689  15
   0   0   6 3956.93 570.675  15
   0   0   7 539.772 196.322  14
   0   0   8 136.512 62.6160  14
   0   1   1 39092.3 452.055   6
   0   1   2 40416.1 625.390   6
   0   1  -2 39933.0 956.757   3
   0   1   3 42147.1 1031.06   5
   0   1  -3 41735.8 1257.26   3
   0   1  -4 1139.15 224.894   4
   0   1   5 6478.95 677.009  15
   0   1   6 3700.04 558.668  15
   0   1   7 3176.62 469.666  14
   0   1   8 248.707 104.210  14
   0   2   2 44482.9 702.681   6
   0   2  -2 43390.9 1034.37   3
   0   2   2 44580.0 806.879   5
   0   2   3 158260. 1973.92   5
   0   2  -3 150051. 2434.00   3
   0   2  -4 33437.5 1326.04   4
   0   2   5 8505.31 784.766  15
   0   2   7 2927.73 446.798  14
   0   3   0 845.004 100.362   2
   0   3  -2 44009.0 1100.12   3
   0   3  -3 78569.7 1783.65   3
   0   3   3 83612.7 1426.74   5
   0   3  -4 36321.6 1420.30   4
   0   3   5 613.504 220.427  15
   0   3   6 9263.07 860.292  14
   0   3   7 1263.38 311.172  14
   0   4   0 210765. 1789.66   2
   0   4  -2 7877.37 493.338   3
   0   4  -3 18765.3 886.338   3
   0   4  -4 6923.93 665.372   3
   0   4   6 953.686 290.515  14
   0   4   7 419.416 171.959  14
   0   5  -2 76111.1 1605.59   3
   0   5  -3 70812.4 1797.01   3
   0   5  -4 14898.9 987.079   3
   0   5   5 27724.7 1419.92  14
   0   5   6 13821.3 1028.27  14
   0   5   7 342.188 147.849  14
   0   6  -2 3326.89 362.463   3
   0   6  -3 11501.9 750.734   3
   0   6  -4 515.050 173.343   3
   0   6   5 52320.8 1941.03  14
   0   6   6 4822.61 593.620  14
   0   6   7 1890.55 315.833  14
   0   7   0 308.325 119.385   2
   0   7  -2 167431. 2624.54   3
   0   7  -3 6639.96 589.540   3
   0   7  -4 8419.47 762.372   3
   0   7   5 23420.7 1288.43  14
   0   7   6 2654.60 433.511  14
   0   7   7 512.995 167.451  14
   0   8   0 49171.2 1296.00   2
   0   8   1 28701.7 989.788   2
   0   8  -2 69583.6 1782.24   3
   0   8  -3 8927.49 720.533   3
   0   8  -4 566.039 214.495   3
   0   8   5 36622.5 1596.14  14
   0   8   6 2830.37 425.806  14
   0   9   0 150.807 90.8477   2
   0   9   1 5263.02 430.424   2
   0   9  -2 111448. 2354.89   3
   0   9  -3 12202.0 865.751   3
   0  10   0 139291. 2514.65   2
   0  10   1 85674.1 1885.52   2
   0  10  -2 33647.6 1358.48   3
   0  10  -3 5883.44 636.607   3
   0  10  -7-40.0586 54.5745  16
   0  11  -2 15571.6 968.855   3
   0  11  -3 8998.99 789.620   3
   0  11  -7 575.428 136.988  16
   0  12  -2 1527.71 292.283   3
   0  12   3 2979.74 466.505   9
   0  13   2 5344.97 621.335   9
   0  13  -2 5537.50 625.780   3
   0  13   3 8565.70 815.613   9
   0  14   1 11371.4 902.992   9
   0  14   2 8440.52 813.942   9
   0  14   3 5270.71 655.489   9
   0  14  -6 2223.35 293.578  16
   0  15   0 166.671 126.705   9
   0  15   1 3713.48 540.468   9
   0  15  -1 2663.76 434.261   9
   0  15   2 5128.26 634.697   9
   0  15   3 11847.8 952.972   9
   0  16   0 12729.5 982.326   9
   0  16   1 8278.23 801.582   9
   0  16  -1 8426.09 777.244   9
   0  16   2 179.482 149.465   9
   0  16   3 4137.87 556.117   9
   0  17   0-255.879 151.750   9
   0  17  -1 256.887 135.678   9
   0  17   1 204.214 144.153   9
   0  17   2 518.315 178.871   9
   0  17   3 1845.48 364.939   9
   0  18   0 561.485 232.993   9
   0  18   1 307.002 138.784   9
   0  18  -1 295.572 138.872   9
   0  18   2 2563.12 431.119   9
   0  18   3 1855.27 352.289   9
   0  19   0-9.61535 80.0483   9
   0  19   1 2053.04 378.865   9
   0  19   2 1813.73 348.879   9
   0  19   3 838.142 205.548   9
   0  20   0 1044.82 261.640   9
   0  20   1 1080.96 281.468   9
   0  20   2 1310.93 277.535   9
   0  20   3-32.0860 61.0840   9
   0  21   1 1532.15 289.958   9
   0  21   2 2457.67 331.523   9
  -1 -22   2 1212.23 210.206  15
  -1 -22   1 1827.86 274.461  15
  -1 -22   0 762.264 193.197  15
   1 -22   0 1167.43 204.298  15
  -1 -22  -1 336.302 138.972  15
  -1 -21   3 1002.10 192.165  15
  -1 -21   2 912.056 220.021  15
  -1 -21   1 1635.91 317.737  15
   1 -21  -1 2545.67 351.279  15
  -1 -21   0-20.2344 105.181  15
   1 -21   0-59.5913 73.1603  15
   1 -21   1 570.646 161.898  15
   1 -21   2 1136.12 208.344  15
  -1 -20   3 1098.95 254.151  15
  -1 -20   2 4923.34 551.486  15
  -1 -20   1 1204.14 286.476  15
   1 -20   0 56.7448 109.655  15
   1 -20   1 59.6771 108.430  15
   1 -20   2 100.685 92.4460  15
   1 -20   3 212.730 119.645  15
  -1 -19   4 182.058 105.703  15
  -1 -19   3 259.291 125.182  15
  -1 -19   2 3131.81 477.908  15
  -1 -19   1 12061.7 958.920  15
   1 -19   0 866.016 268.804  15
   1 -19   1 7294.79 717.480  15
   1 -19   2 985.922 260.074  15
   1 -19   3 236.925 130.215  15
  -1 -18   4 209.245 110.819  15
  -1 -18   3 2516.15 445.770  15
  -1 -18   2 1910.66 400.352  15
   1 -18   1 856.383 281.143  15
   1 -18   2 1060.87 290.828  15
   1 -18   3 1384.20 300.898  15
   1 -18   4 2444.95 326.960  15
  -1 -17   5 188.274 95.1920  15
  -1 -17   4 697.477 218.385  15
  -1 -17   3 1499.23 372.250  15
  -1 -17   2 5625.66 701.075  15
   1 -17   1 8076.36 828.653  15
   1 -17   2 2515.07 465.387  15
   1 -17   3 297.276 146.895  15
   1 -17   4 1463.60 288.317  15
  -1 -16   5 27.9791 66.6911  15
  -1 -16   4 454.126 219.043  15
  -1 -16   3 15291.8 1139.17  15
  -1 -16   2 5227.02 668.896  15
   1 -16   1 11088.4 963.484  15
   1 -16   2 4051.08 583.593  15
   1 -16   3 1312.16 339.415  15
   1 -16   4 314.289 155.166  15
   1 -16   5 158.207 102.216  15
  -1 -15   6 229.989 91.4573  15
  -1 -15   5 142.146 176.738  15
  -1 -15   4 3623.28 541.052  15
  -1 -15   3 7548.38 819.801  15
  -1 -15   2 950.022 283.352  15
   1 -15   2 12136.3 1001.04  15
   1 -15   3 116.331 119.442  15
   1 -15   4 448.504 185.839  15
   1 -15   5 1748.92 299.395  15
  -1 -14   6 2243.02 325.805  15
  -1 -14   5 919.900 258.239  15
  -1 -14   4 40471.5 1836.43  15
  -1 -14   3 11641.2 998.799  15
   1 -14   2 297.834 168.144  15
   1 -14   3 4543.31 615.310  15
   1 -14   4 1722.25 377.116  15
   1 -14   5 377.548 165.602  15
  -1 -13   6 1376.46 278.770  15
  -1 -13   5 2902.75 486.239  15
  -1 -13   4 9034.16 885.298  15
  -1 -13   3 10354.1 941.484  15
   1 -13  -1 1969.99 447.104   1
   1 -13   0 1159.61 322.577   1
   1 -13   2 853.572 261.883  15
   1 -13   3 14597.5 1095.42  15
   1 -13   4 16112.0 1141.33  15
   1 -13   5 2099.77 390.172  15
   1 -13   6 1323.51 235.225  15
  -1 -12   6 5244.91 564.389  15
  -1 -12   5 10370.7 911.562  15
  -1 -12   4 10615.5 950.562  15
  -1 -12   3 3404.86 539.370  15
   1 -12  -2 2602.19 483.932   1
   1 -12  -1 1919.82 413.176   1
   1 -12   0 414.177 166.306   1
   1 -12   1 21929.8 1367.78   1
   1 -12   3 6630.92 735.839  15
   1 -12   4 3881.22 566.629  15
   1 -12   5 37.2456 75.6255  15
   1 -12   6 461.810 144.915  15
  -1 -11   7 890.235 177.102  15
  -1 -11   6 2750.13 438.365  15
  -1 -11   5 1734.83 361.330  15
  -1 -11   4 6425.15 739.316  15
   1 -11  -2 8123.62 833.979   1
   1 -11  -1 23661.2 1395.39   1
   1 -11   0 38969.7 1738.26   1
   1 -11   1 4546.88 579.113   1
   1 -11   3 10451.5 904.877  15
   1 -11   4 21296.1 1329.85  15
   1 -11   5 5446.32 654.209  15
   1 -11   6 2943.19 411.616  15
  -1 -10   7 279.715 118.084  15
  -1 -10   6 7758.30 746.913  15
  -1 -10   5 11630.6 986.327  15
  -1 -10   4 12583.8 1005.38  15
   1 -10  -3 84382.5 2648.92   1
   1 -10  -2 2864.79 478.566   1
   1 -10  -1 18861.7 1175.52   1
   1 -10   0 541.042 190.505   1
   1 -10   4 4613.71 618.209  15
   1 -10   5 267.038 172.755  15
   1 -10   6 3435.67 459.248  15
  -1  -9   7 1427.77 259.292  15
  -1  -9   6 3039.98 485.316  15
  -1  -9   5 3586.90 551.137  15
  -1  -9   4 625.414 227.169  15
   1  -9  -3 1010.29 290.817   1
   1  -9  -2 3381.75 494.440   1
   1  -9  -1 11398.2 869.730   1
   1  -9   0 9459.45 755.262   1
   1  -9   4 37773.9 1735.87  15
   1  -9   5 11189.7 951.955  15
   1  -9   6 760.453 231.328  15
   1  -9   7 2029.00 265.100  15
  -1  -8   7 442.685 165.940  15
  -1  -8   6 13818.0 1030.01  15
  -1  -8   5 24033.1 1401.14  15
   1  -8  -3 11397.8 893.906   1
   1  -8  -2 91143.3 2410.41   1
   1  -8  -1 15201.8 930.708   1
   1  -8   4 7275.37 748.226  15
   1  -8   5 8762.74 858.829  15
   1  -8   6 2677.41 439.681  15
   1  -8   7 3886.03 402.920  15
  -1  -7   7 192.299 114.244  15
  -1  -7   6 17277.3 1159.37  15
  -1  -7   5 4829.79 630.238  15
   1  -7  -3 8567.59 732.488   1
   1  -7  -2 29033.1 1281.32   1
   1  -7  -1 10780.0 734.084   1
   1  -7   4 10183.6 867.310  15
   1  -7   5 7367.60 794.528  15
   1  -7   6 472.072 204.206  15
   1  -7   7 365.869 127.975  15
  -1  -6   7 237.641 94.0087  14
  -1  -6   7 238.159 146.335  15
  -1  -6   6 4914.51 630.795  15
  -1  -6   5 7023.72 739.157  15
   1  -6  -3 40743.0 1493.30   1
   1  -6  -2 55696.2 1669.25   1
   1  -6  -1 45970.7 1382.76   1
   1  -6   5 16297.6 1153.77  15
   1  -6   6 2837.15 475.146  15
   1  -6   7 614.292 192.418  15
  -1  -5   7 2750.51 416.426  14
  -1  -5   7 2722.80 415.730  15
  -1  -5   6 20196.4 1263.05  15
  -1  -5   5 4333.22 580.320  15
   1  -5  -3 4978.71 490.978   1
   1  -5  -2 29455.2 1138.06   1
  -1  -5  -2 18648.1 630.959   7
   1  -5   5 27689.9 1491.78  15
   1  -5   6 1443.12 347.903  15
   1  -5   7-104.791 106.252  15
  -1  -4   7 54.0873 114.905  15
  -1  -4   7-60.5679 94.1806  14
  -1  -4   6 3174.87 497.208  15
  -1  -4   5 17281.9 1130.03  15
   1  -4  -2 75029.2 1680.68   1
  -1  -4  -1 251779. 2115.15   7
  -1  -4  -2 18085.6 617.579   7
   1  -4   5 5907.78 692.916  15
   1  -4   6 16919.1 1154.00  15
  -1  -3   7 2980.20 439.074  15
  -1  -3   7 2890.00 447.464  14
  -1  -3   6 5376.43 652.094  15
  -1  -3   5 938.317 246.170  15
  -1  -3   4 14157.5 872.419   5
   1  -3  -2 57190.9 1342.82   1
  -1  -3   0 996451. 2680.99   5
  -1  -3  -1 128216. 1464.34   7
  -1  -3  -2 108730. 1563.40   7
  -1  -3  -3 27123.0 917.760   7
   1  -3   5 8545.77 812.628  15
   1  -3   6 10565.0 928.656  15
  -1  -2   8 327.247 112.467  14
  -1  -2   7 872.086 255.720  15
  -1  -2   7 747.215 243.526  14
  -1  -2   6 433.417 213.871  15
  -1  -2   5 12232.6 910.416   5
  -1  -2   5 12881.9 951.164  15
  -1  -2   4 56678.7 1683.48   5
   1  -2  -2 16437.1 635.557   1
  -1  -2   0 197258. 1210.12   5
  -1  -2  -1 181996. 1746.97   7
  -1  -2  -2 45938.2 1052.14   7
  -1  -2  -3 14756.5 707.126   7
   1  -2   5 967.031 269.812  15
   1  -2   6 1563.34 352.745  15
  -1  -1   8 1207.03 212.129  14
  -1  -1   7 566.361 213.711  14
  -1  -1   6 4655.96 598.194  15
  -1  -1   6 4104.02 583.546  14
  -1  -1   5 1074.96 276.217   5
  -1  -1   4 42295.3 1438.06   5
  -1  -1   3 12897.5 660.026   5
   1  -1  -2 116600. 1310.56   3
   1  -1  -2 116234. 1448.25   1
  -1  -1  -1 234357. 2046.85   7
  -1  -1  -1 237780. 861.887   6
  -1  -1  -2 58852.8 1279.42   4
  -1  -1  -3 24125.2 974.938   4
   1  -1   5 18796.0 1207.95  15
   1  -1   6 1067.02 305.066  15
  -1   0   8 4.22587 67.2720  14
  -1   0   7 5342.40 621.837  14
  -1   0   6 1964.77 407.160  14
  -1   0   6 2080.38 409.798  15
  -1   0   5 348.321 135.811   5
  -1   0   4 155802. 2731.43   5
  -1   0   3 37000.6 1013.17   6
  -1   0   3 36827.4 1111.75   5
   1   0  -3 38686.7 1069.61   3
   1   0  -2 142.422 63.5372   3
  -1   0   2 50.6936 45.1568   5
   1   0  -2 44.2510 28.0710   1
   1   0  -1 930154. 3298.82   2
  -1   0   0 7770.96 279.972   6
  -1   0  -1 233819. 2178.73   4
  -1   0  -2 37199.7 1061.44   4
  -1   0  -3 44864.5 1385.66   4
  -1   0  -4 738.152 166.606   4
   1   0   5 2627.35 453.065  15
   1   0   6 2590.67 460.623  15
   1   0   7 618.153 214.388  14
  -1   1   8 1673.58 254.490  14
  -1   1   7 391.461 231.279  14
  -1   1   6 3581.72 561.210  14
  -1   1   6 4063.34 576.301  15
   1   1  -4 42603.3 1431.89   3
  -1   1   4 41017.0 1396.68   5
  -1   1   3 13903.6 620.860   6
  -1   1   3 13535.3 677.980   5
   1   1  -3 14754.3 678.480   3
  -1   1   2 109238. 1540.09   6
  -1   1   2 110791. 1606.83   5
   1   1  -1 513751. 2854.76   2
  -1   1   0 50046.3 747.285   6
  -1   1  -2 53918.5 1289.92   4
  -1   1  -3 24402.2 1035.07   4
  -1   1  -4 4826.18 540.168   4
   1   1   5 19888.8 1183.95  11
   1   1   5 18934.6 1206.89  15
   1   1   7 157.947 115.665  14
  -1   2   8 306.945 118.824  14
  -1   2   7 550.083 225.838  14
  -1   2   6 1143.10 331.892  14
  -1   2   5 11378.8 915.331  14
  -1   2   4 56552.1 1632.25   5
   1   2  -4 59613.2 1738.35   3
  -1   2   3 52125.4 1191.49   6
   1   2  -3 54440.9 1374.76   3
  -1   2   3 52644.9 1336.55   5
  -1   2   2 16422.1 597.846   6
  -1   2   2 16653.6 630.148   5
   1   2  -1 218816. 2110.48   2
  -1   2   1 219063. 1420.96   7
  -1   2   0 198789. 1624.86   6
  -1   2  -2 43285.5 1203.30   4
  -1   2  -3 13104.1 770.054   4
  -1   2  -4 2213.28 363.627   4
   1   2   5 934.164 295.691  15
   1   2   5 743.645 235.236  11
   1   2   7 627.770 198.476  14
  -1   3   8 128.858 82.1264  14
  -1   3   7 2730.13 437.988  14
  -1   3   6 4912.25 632.382  14
  -1   3   5 1096.02 277.984  14
  -1   3   5 934.858 276.269  15
   1   3  -4 14461.1 867.024   3
  -1   3   3 53086.3 1230.65   6
   1   3  -3 52962.7 1423.45   3
  -1   3   2 59690.9 1159.19   6
   1   3  -1 151423. 1919.91   2
  -1   3   1 154524. 1092.96   7
  -1   3   0 987291. 4018.59   4
  -1   3  -1 131005. 1831.22   4
  -1   3  -2 108388. 1992.21   4
  -1   3  -3 25485.3 1114.62   4
  -1   3  -4 36977.5 1544.22   4
   1   3   5 8742.32 798.971  11
   1   3   7 479.658 156.560  14
  -1   3  -7 218.087 121.004  16
  -1   4   7-95.2495 150.576  14
  -1   4   6 3018.79 500.901  14
  -1   4   5 15218.7 1064.28  14
   1   4  -4 29024.0 1259.16   3
  -1   4   3 15314.6 694.538   6
   1   4  -3 14084.2 774.059   3
  -1   4   2 83622.7 1475.70   6
  -1   4   1 29635.9 804.698   6
  -1   4   1 29677.4 449.422   7
  -1   4   0 331443. 1857.40   3
  -1   4  -1 244220. 2685.35   4
  -1   4  -1 256505. 2420.49   3
  -1   4  -2 18315.0 826.348   3
  -1   4  -2 16898.2 833.197   4
  -1   4  -3 32388.0 1303.07   4
  -1   4  -4 7585.63 706.173   4
   1   4   5 6006.91 674.927  11
   1   4   6 17508.7 1116.35  14
   1   4   7 906.722 222.809  14
  -1   4  -7 712.544 184.625  16
  -1   5   7 2806.55 430.148  14
  -1   5   6 19728.9 1247.09  14
  -1   5   5 3986.29 543.999  14
   1   5  -4 8608.19 713.238   3
   1   5  -3 4190.74 443.227   3
  -1   5   1 128817. 920.795   7
   1   5  -1 119050. 2037.95   2
  -1   5   0 142018. 1341.52   3
  -1   5  -1 327503. 3254.32   4
  -1   5  -1 321399. 2819.58   3
  -1   5  -2 16808.1 866.570   4
  -1   5  -2 19251.5 865.730   3
  -1   5  -3 10303.6 767.516   4
  -1   5  -4 28350.6 1402.92   4
   1   5   5 28705.0 1483.46  11
   1   5   6 1535.49 322.363  14
   1   5   7 198.375 97.8189  14
  -1   5  -7 0.35826 53.6030  16
  -1   6   7 457.115 174.295  14
  -1   6   6 4221.35 569.979  14
  -1   6   5 6487.86 692.741  14
   1   6  -4 11219.5 838.856   3
   1   6  -3 40224.3 1414.23   3
   1   6  -1 46160.9 1328.92   2
  -1   6   0 168493. 1648.30   3
  -1   6  -1 471867. 3571.97   3
  -1   6  -1 463938. 3998.65   4
  -1   6  -2 151145. 2464.81   3
  -1   6  -2 149575. 2678.63   4
  -1   6  -3 30613.2 1327.82   3
  -1   6  -3 29094.0 1340.50   4
  -1   6  -4 24282.5 1319.66   4
  -1   6  -7 878.476 202.227  16
  -1   7   7 446.295 168.987  14
  -1   7   6 17036.8 1130.79  14
  -1   7   5 4379.90 566.905  14
   1   7  -4 3448.70 479.304   3
   1   7  -3 13065.3 838.125   3
   1   7  -1 12502.7 734.600   2
  -1   7   0 28440.5 845.855   4
   1   7   0 27958.6 1084.77   2
  -1   7  -1 259454. 3155.26   4
  -1   7  -1 262257. 2805.39   3
  -1   7  -2 85018.8 2091.68   4
  -1   7  -2 80670.4 1867.16   3
  -1   7  -3 7405.32 668.854   3
  -1   7  -3 6173.56 636.752   4
   1   7   4 9183.27 805.146  11
  -1   7  -7 602.418 162.825  16
  -1   8   7 562.596 183.675  14
  -1   8   6 14591.8 1019.80  14
  -1   8   5 24208.3 1347.33  14
   1   8  -4 9768.45 836.907   3
   1   8  -3 11316.6 821.135   3
   1   8  -1 16472.2 887.705   2
  -1   8   0 11281.0 562.230   4
   1   8   0 10279.0 683.286   2
  -1   8  -1 150070. 2516.39   4
  -1   8  -1 147725. 2221.10   3
  -1   8  -2 123236. 2622.96   4
  -1   8  -2 119671. 2375.99   3
  -1   8  -3 32236.2 1435.38   3
  -1   8  -3 34079.7 1547.01   4
  -1   8  -7 4061.86 395.198  16
  -1   9   7 1294.30 238.853  14
  -1   9   6 2614.68 415.857  14
  -1   9   5 3178.84 489.088  14
  -1   9   4 517.121 184.814  14
   1   9  -3 1712.47 363.635   3
   1   9  -1 11625.6 784.746   2
   1   9   0 11210.8 742.262   2
  -1   9  -1 45115.2 1441.67   4
  -1   9  -1 41962.9 1248.56   3
  -1   9  -2 33617.7 1425.54   4
  -1   9  -2 33306.1 1283.76   3
  -1   9  -3 2169.80 402.964   4
  -1   9  -3 1882.16 362.810   3
  -1   9  -7 1951.75 256.665  16
  -1  10   6 7904.65 693.173  14
  -1  10   5 12049.8 919.692  14
  -1  10   4 13179.2 932.356  14
   1  10  -3 74755.4 2270.03   3
   1  10  -1 19516.0 1086.68   2
   1  10   0 702.386 216.730   2
   1  10   1 117276. 2692.17   2
  -1  10  -1 102209. 2278.74   4
  -1  10  -2 5382.88 600.188   4
  -1  10  -2 5241.79 528.697   3
  -1  10  -3 7859.60 762.633   3
  -1  10  -3 8870.64 835.059   4
  -1  10  -6 3581.28 473.954  16
  -1  11   6 3148.51 407.392  14
  -1  11   5 1957.40 370.827  14
   1  11  -3 9396.52 844.387   3
   1  11   0 41839.5 1641.08   2
  -1  11  -1 5347.29 535.556   4
   1  11   1 4542.03 542.948   2
  -1  11  -2 1847.43 354.605   4
   1  11   2 1911.50 379.912   2
   1  11   3 9987.96 883.420   9
  -1  11  -6 2611.10 383.498  16
   1  12   0 864.423 263.645   2
   1  12   1 24558.2 1298.15   2
  -1  12  -2 1168.26 306.230   4
   1  12   3 7235.56 764.700   9
   1  12   4 4447.80 592.803   9
  -1  12  -6 555.203 169.161  16
  -1  13   2 8811.28 790.248   9
   1  13   0 1941.36 391.539   2
   1  13   2 701.534 246.359   9
   1  13   3 12801.9 1024.83   9
   1  13   4 16780.7 1130.24   9
  -1  13  -5 2512.15 391.565  16
  -1  13  -6 1925.29 271.172  16
  -1  14   2 13796.4 1017.44   9
   1  14  -1 26288.1 1322.89   9
  -1  14   1 30088.4 1477.11   9
   1  14   0 1413.68 317.839   9
  -1  14   0 1237.83 298.828   9
   1  14   1 1915.05 384.729   9
   1  14   2 1193.24 315.479   9
   1  14   3 5025.45 641.091   9
   1  14   4 1899.45 372.109   9
  -1  14  -5 492.353 151.217  16
  -1  15   6 355.536 108.679  10
  -1  15   3 11380.7 911.042   9
  -1  15   2 721.847 236.697   9
   1  15  -1 12339.5 943.259   9
  -1  15   1 10510.6 895.353   9
   1  15   0 9372.01 839.058   9
  -1  15   0 11062.5 900.062   9
   1  15   1 12795.1 997.358   9
   1  15   2 11494.9 972.297   9
   1  15   3 522.198 202.747   9
   1  15   4 573.046 204.661   9
  -1  15  -5 1818.10 271.367  16
  -1  16   3 16168.4 1060.68   9
  -1  16   2 6224.15 692.938   9
   1  16  -1 6221.07 666.119   9
  -1  16   1 7681.60 775.983   9
  -1  16   1 7448.89 695.555  10
  -1  16   0 25487.3 1397.15   9
   1  16   0 25812.1 1401.05   9
   1  16   1 11523.7 963.297   9
   1  16   2 4696.66 634.383   9
   1  16   3 1153.37 307.269   9
   1  16   4 510.216 177.374   9
  -1  17   3 2186.00 381.911   9
  -1  17   2 5676.70 659.332   9
  -1  17   1 9765.62 868.440   9
   1  17  -1 9793.86 825.675   9
   1  17   0 29087.8 1479.36   9
  -1  17   0 27731.6 1452.86   9
   1  17   1 9302.86 870.463   9
   1  17   2 2419.88 452.612   9
   1  17   3 544.770 205.347   9
   1  17   4 2138.08 325.174   9
  -1  18   4 267.805 126.131  10
  -1  18   3 3398.29 452.302   9
  -1  18   2 2538.06 417.922   9
  -1  18   2 2517.17 397.336  10
  -1  18   1 12240.1 966.853   9
   1  18  -1 12547.9 909.130   9
   1  18   0 5661.42 653.088   9
   1  18   1 1356.26 334.510   9
   1  18   2 1375.78 314.947   9
   1  18   3 1634.04 330.816   9
   1  18   4 3092.20 341.994   9
  -1  19   4 288.338 101.574  10
  -1  19   3 237.710 111.745  10
  -1  19   2 2658.67 370.283  10
   1  19  -1 12417.6 859.905   9
   1  19   0 656.294 204.832   9
   1  19   1 8642.34 767.401   9
   1  19   2 1213.66 293.395   9
   1  19   3 266.189 110.233   9
  -1  20   3 809.681 172.915  10
   1  20   0 0.44628 84.6538   9
   1  20   1 346.910 168.783   9
   1  20   2 265.669 134.679   9
   1  20   3 18.4381 51.2393   9
   1  21   0 61.3314 68.7570   9
   1  21   1 614.883 162.733   9
   1  21   2 1151.32 217.934   9
   1  22   1 238.183 104.917   9
  -2 -21   1 629.400 162.653  15
  -2 -21   0 108.627 92.0180  15
  -2 -21  -1 701.844 171.597  15
  -2 -20   2 1595.32 275.934  15
  -2 -20   1 3149.83 414.214  15
  -2 -20   0 2484.23 389.648  15
  -2 -19   3 6482.90 550.345  15
  -2 -19   2 9878.84 769.512  15
  -2 -19   1 614.824 198.727  15
  -2 -18   4 601.812 165.181  15
  -2 -18   3 4097.01 489.590  15
  -2 -18   2 1752.36 359.221  15
  -2 -18   1 10303.9 874.135  15
  -2 -17   4 11467.3 779.583  15
  -2 -17   3 1980.52 379.549  15
  -2 -17   2 10400.5 897.110  15
  -2 -16   5 49.6157 60.2214  15
  -2 -16   4 545.655 175.466  15
  -2 -16   3 94.7511 109.873  15
  -2 -16   2 2485.38 458.481  15
  -2 -15   5 748.488 196.095  15
  -2 -15   4 4604.80 567.465  15
  -2 -15   3 4515.09 607.122  15
  -2 -15   2 3872.67 570.781  15
  -2 -14   5 2672.88 388.690  15
  -2 -14   4 4485.63 577.744  15
  -2 -14   3 2106.35 416.666  15
  -2 -14   2 722.089 214.317  15
  -2 -13   6 326.931 111.119  12
  -2 -13   5 634.855 189.915  15
  -2 -13   4 3968.84 564.427  15
  -2 -13   3 16502.4 1159.68  15
  -2 -13   2 570.751 210.509  15
  -2 -12   5 7809.75 743.767  15
  -2 -12   4 2733.16 472.766  15
  -2 -12   3 791.700 217.296  15
  -2 -11   5 3339.14 507.474  15
  -2 -11   4 18108.9 1202.09  15
   2 -11  -2 1431.79 382.935   1
   2 -11  -1 5450.66 712.823   1
   2 -11   0 30468.5 1647.96   1
   2 -11   5 810.260 218.437  15
  -2 -10   5 6562.12 707.406  15
  -2 -10   3 1928.16 360.827   5
   2 -10  -2 3619.05 572.357   1
   2 -10  -1 21139.6 1313.99   1
   2 -10   5 5340.20 584.939  15
  -2  -9   6 3055.48 434.321  12
  -2  -9   3 10149.5 811.466   5
   2  -9  -3 9152.95 889.605   1
   2  -9  -2 6641.35 742.666   1
   2  -9  -1 61501.5 2136.50   1
   2  -9   5 4068.61 528.879  15
   2  -9   6 566.405 158.131  15
  -2  -8   6 14887.9 974.013  12
   2  -8  -3 6270.50 698.768   1
  -2  -8   3 5886.33 599.662   5
   2  -8  -2 28172.2 1447.79   1
  -2  -8   2 30100.1 1169.91   5
   2  -8   5 8720.93 794.023  15
   2  -8   6 1466.19 270.538  15
  -2  -7   6 3368.33 480.698  12
   2  -7  -3 8529.38 778.121   1
  -2  -7   3 8547.17 691.726   5
  -2  -7   2 71013.2 1731.32   5
   2  -7  -2 70172.0 2144.60   1
   2  -7   5 10045.9 859.291  15
   2  -7   6 1740.70 302.985  15
  -2  -6   6 16826.1 1062.37  12
  -2  -6   4 7380.88 706.989   5
   2  -6  -3 25795.2 1284.48   1
  -2  -6   3 26717.7 1189.53   5
  -2  -6   2 4851.66 441.843   5
   2  -6  -2 4998.36 538.733   1
  -2  -6   1 37788.9 1013.89   5
  -2  -6  -2 4073.67 413.259   7
   2  -6   5 18423.3 1178.69  15
   2  -6   6 627.392 206.334  15
  -2  -5   4 14193.9 980.268   5
  -2  -5   3 19659.9 995.849   5
  -2  -5   2 56966.0 1472.09   5
   2  -5  -2 61968.1 1778.04   1
  -2  -5   1 40075.1 1016.68   5
  -2  -5  -1 14659.2 729.004   7
  -2  -5  -2 63988.2 1593.01   7
   2  -5   5 2298.49 422.521  15
   2  -5   6 1211.50 270.088  15
  -2  -4   4 77.8171 144.085   5
  -2  -4   3 4361.92 475.345   5
  -2  -4   2 47979.8 1321.07   5
   2  -4  -2 49623.4 1474.43   1
  -2  -4   1 105730. 1628.34   5
  -2  -4  -1 45999.8 1248.28   7
  -2  -4  -2 19012.6 855.036   7
   2  -4   5 45908.1 1868.78  15
   2  -4   6 1350.91 300.329  15
  -2  -3   7 1297.75 285.947  14
  -2  -3   6 1595.46 351.066  14
  -2  -3   5 190.849 132.467  12
  -2  -3   4 63720.0 1981.17   5
  -2  -3   3 44264.0 1462.16   5
  -2  -3   2 57486.1 1423.44   5
  -2  -3   1 112383. 1680.95   5
  -2  -3   0 40662.6 1110.70   7
  -2  -3  -1 83193.5 1642.56   7
  -2  -3  -2 10000.2 621.042   7
  -2  -3  -3 20786.1 976.195   7
   2  -3   5 21545.1 1284.50  15
   2  -3   6-95.8020 98.8985  11
  -2  -2   7 1049.21 259.099  14
  -2  -2   6 1007.85 299.590  14
  -2  -2   5 7920.85 764.804  14
  -2  -2   5 9342.49 795.853  12
  -2  -2   4 4578.69 493.425   6
  -2  -2   4 5528.75 579.262   5
  -2  -2   3 7633.46 600.692   5
  -2  -2   2 16041.0 749.557   5
  -2  -2   0 68676.1 1411.77   7
  -2  -2  -1 56025.2 1328.01   7
  -2  -2  -2 33562.0 1141.51   7
  -2  -2  -3 9096.26 665.179   7
   2  -2   5-9.06753 128.518  15
   2  -2   6 8770.78 742.766  11
  -2  -1   7 1780.86 347.979  14
  -2  -1   6 320.683 172.650  14
  -2  -1   5 2256.72 410.647  14
  -2  -1   5 795.679 223.009  12
  -2  -1   4 2654.35 383.698   6
  -2  -1   4 2880.48 406.578   5
  -2  -1   3 24646.5 1015.53   6
  -2  -1   3 23283.9 1042.75   5
  -2  -1   2 17460.7 772.122   5
   2  -1  -1 478526. 2760.64   2
  -2  -1   0 349382. 3121.21   7
  -2  -1   0 356972. 2687.92   6
  -2  -1  -1 6439.22 460.998   7
  -2  -1  -2 24954.1 1003.38   7
  -2  -1  -3 19375.8 996.231   7
   2  -1   5 4810.26 608.152  15
   2  -1   5 4878.66 619.510  11
   2  -1   6 2403.08 399.445  11
   2  -1   7 2877.84 342.674  14
  -2   0   7 3464.21 480.417  14
  -2   0   6 5722.87 687.524  14
  -2   0   5 5083.52 623.611  14
  -2   0   5 5296.42 590.984  12
  -2   0   4 10118.5 711.208   6
  -2   0   4 10536.6 798.231   5
  -2   0   3 197.198 115.646   6
  -2   0   3 120.464 99.3814   5
  -2   0   2 7663.52 504.799   6
  -2   0   1 13801.2 609.061   6
   2   0  -1 16133.8 593.662   2
  -2   0   0 132739. 1886.86   7
  -2   0   0 136745. 1658.78   6
  -2   0  -1 43004.6 1192.86   7
  -2   0  -2 70118.1 1714.29   7
  -2   0  -3 56677.1 1739.60   7
  -2   0  -4 3330.51 460.509   7
   2   0   5 6493.42 712.118  15
  -2   0  -5 7389.11 731.351  16
   2   0   5 6468.23 718.232  11
   2   0   6 20329.8 1160.03  11
   2   0   7 381.009 124.735  14
  -2   1   7 1790.20 348.580  14
  -2   1   6 278.471 166.829  14
  -2   1   5 605.336 223.425  14
  -2   1   5 566.215 209.014  12
  -2   1   4 2488.74 351.885   6
  -2   1   3 24383.5 994.969   6
  -2   1   2 17177.1 756.851   6
  -2   1   1 469542. 3535.10   6
  -2   1   1 472012. 3426.35   7
  -2   1   0 351679. 3051.33   7
  -2   1   0 352690. 2693.80   6
  -2   1  -1 6567.03 476.208   7
  -2   1  -2 24547.3 1045.30   7
  -2   1  -3 20955.8 1078.53   7
  -2   1  -4 21354.6 1196.13   7
   2   1   5 4890.75 627.803  11
  -2   1  -5 5121.18 628.586  16
   2   1   6 2052.95 369.730  11
   2   1   7 2082.42 275.944  14
  -2   2   7 1260.70 307.995  14
  -2   2   6 1202.13 321.293  14
  -2   2   5 10008.9 881.352  14
  -2   2   5 7906.15 729.446  12
  -2   2   4 5232.55 514.852   6
  -2   2   3 9110.21 607.208   6
   2   2  -3 8704.42 569.946   3
  -2   2   2 17126.6 749.832   6
  -2   2   1 113089. 1745.17   6
  -2   2   1 116245. 1643.85   7
   2   2  -1 114211. 1882.45   2
  -2   2   0 73471.1 1408.09   7
  -2   2   0 72730.8 1290.49   6
  -2   2  -1 58858.1 1458.44   7
   2   2   4 3703.21 512.636  11
  -2   2  -4 3821.18 533.474  16
   2   2   5-54.0197 150.110  11
  -2   2  -5 326.443 173.470  16
  -2   2  -6 7575.95 680.494  16
   2   2   6 8070.19 740.749  11
  -2   3   7 967.981 284.387  14
  -2   3   6 1261.72 325.436  14
  -2   3   5 53.6086 117.662  14
  -2   3   4 65198.6 1827.08   6
  -2   3   3 41291.7 1306.46   6
  -2   3   2 57936.0 1389.71   6
   2   3  -1 115913. 2025.37   2
  -2   3   1 112153. 1801.70   6
  -2   3   1 114417. 1602.39   7
  -2   3   0 39807.4 1071.70   7
  -2   3   0 40723.3 1033.76   6
  -2   3  -4 10287.1 883.543  16
   2   3   4 9378.86 828.927  11
  -2   3  -5 19688.4 1263.65  16
   2   3   5 20747.1 1280.93  11
   2   3   6-1.04532 81.4479  11
  -2   3  -6 266.412 148.373  16
  -2   4   7 4798.14 562.137  14
  -2   4   6 6828.80 738.606  14
  -2   4   5 10921.9 925.903  14
  -2   4   4 577.305 209.712   6
   2   4  -4 138.288 118.031   3
  -2   4   3 4670.62 461.455   6
  -2   4   2 47818.3 1326.34   6
   2   4  -1 96532.9 1923.03   2
  -2   4   1 94997.7 1754.16   6
  -2   4   0 32295.8 987.099   7
  -2   4  -2 18495.8 1014.35   4
  -2   4  -3 9715.67 825.717   4
   2   4   4 3058.99 466.778  11
   2   4   5 46084.7 1922.58  11
  -2   4  -5 42032.9 1842.05  16
  -2   4  -6 1434.79 303.290  16
  -2   5   7 1385.94 297.405  14
  -2   5   6 3593.29 535.474  14
  -2   5   5 16538.5 1153.25  14
  -2   5   4 12624.9 840.879   6
   2   5  -4 13001.1 889.299   3
  -2   5   3 20167.3 978.375   6
  -2   5   2 61713.0 1583.14   6
  -2   5   1 39538.8 932.087   7
   2   5  -1 38161.5 1298.13   2
  -2   5   1 37460.3 1160.00   6
  -2   5   0 50761.0 1265.80   7
  -2   5  -1 12927.4 767.699   4
  -2   5  -2 63777.6 1933.35   4
  -2   5  -3 605.959 219.775   4
   2   5   4 15722.7 1088.63  11
   2   5   5 2038.85 408.186  11
  -2   5  -5 1934.40 410.548  16
  -2   5  -6 1288.49 294.840  16
  -2   6   7 2316.90 369.886  14
  -2   6   6 16608.1 1140.75  14
  -2   6   5 2551.15 453.768  14
   2   6  -4 6966.65 687.670   3
   2   6  -1 37644.1 1359.27   2
  -2   6   0 6079.54 450.939   7
  -2   6  -1 164077. 2821.25   4
  -2   6  -2 3423.00 472.562   4
  -2   6  -3 21181.0 1267.09   4
   2   6   4 21827.8 1287.92  11
  -2   6  -5 15962.9 1136.87  16
   2   6   5 17601.4 1188.04  11
  -2   6  -6 442.447 178.919  16
  -2   7   7 235.014 125.600  14
  -2   7   6 3515.26 522.002  14
  -2   7   5 4589.63 601.038  14
  -2   7   4 4559.07 565.146  14
   2   7  -4 4188.52 542.724   3
   2   7  -1 8395.42 677.699   2
  -2   7   0 21960.7 884.123   7
   2   7   0 24056.6 1181.76   2
  -2   7  -1 48447.3 1584.50   4
  -2   7  -2 62481.2 2027.90   4
  -2   7  -3 228.822 182.462   4
   2   7   4 8884.31 842.615   9
   2   7   4 7644.77 786.136  11
  -2   7  -5 9546.15 887.217  16
  -2   7  -6 1517.76 298.518  16
  -2   8   7 2352.73 348.041  14
  -2   8   6 15416.4 1051.29  14
  -2   8   5 3480.98 521.274  14
  -2   8   4 5734.82 639.614  14
   2   8  -1 6609.47 640.809   2
   2   8   0 26200.5 1303.80   2
  -2   8  -1 67983.4 1935.28   4
  -2   8  -2 10911.0 863.449   4
   2   8   3 3546.16 529.055   9
   2   8   3 3078.50 458.655  11
   2   8   4 11146.2 953.727   9
  -2   8  -4 11700.0 986.212  16
  -2   8  -5 9150.01 858.406  16
  -2   8  -6 1476.30 288.719  16
  -2   9   7 593.985 165.971  14
  -2   9   6 3460.36 483.843  14
  -2   9   5 1214.52 309.623  14
  -2   9   4 163.845 140.479  14
   2   9  -1 69028.5 2181.57   2
   2   9   0 27396.9 1356.39   2
  -2   9  -1 149208. 2953.40   4
  -2   9  -2 3763.74 523.485   4
   2   9   3 823.742 272.596   9
  -2   9  -3 1428.46 345.817  16
   2   9   4 15050.8 1113.10   9
  -2   9  -4 14617.2 1093.59  16
  -2   9  -5 4065.51 565.011  16
  -2   9  -6 847.162 224.540  16
  -2  10   6 3454.84 464.534  14
  -2  10   5 5985.98 667.092  14
  -2  10   4 4449.51 578.252  14
   2  10  -1 21985.6 1280.27   2
   2  10   0 28502.9 1423.21   2
   2  10   1 11102.7 956.398   2
  -2  10  -2 22064.8 1298.88   4
   2  10   3 6457.66 736.733   9
  -2  10  -3 8159.70 804.207  16
   2  10   4 3953.80 568.237   9
  -2  10  -4 3986.18 570.970  16
  -2  10  -5 5256.48 605.653  16
  -2  10  -6 721.818 187.404  16
  -2  11   6-43.8167 70.4933  14
  -2  11   5 3425.09 483.049  14
  -2  11   4 16306.6 1096.18  14
  -2  11   3 8177.74 749.576  14
   2  11  -1 5114.11 641.886   2
   2  11   0 32478.7 1586.13   2
   2  11   1 12078.5 1028.42   2
   2  11   2 44441.1 1859.81   9
   2  11   3 12213.1 1010.73   9
  -2  11  -3 12657.5 991.975  16
   2  11   4 1486.18 330.212   9
  -2  11  -4 1823.68 404.066  16
  -2  11  -5 446.690 169.454  16
  -2  11  -6 294.811 110.489  16
  -2  12   6 178.074 115.045  10
  -2  12   5 7426.02 697.869  14
   2  12  -1 644.207 248.360   2
   2  12   0 165.910 167.225   2
   2  12   1 2007.11 397.578   9
   2  12   2 7692.95 796.533   9
   2  12   3 4149.54 598.347   9
  -2  12  -3 5645.66 654.504  16
   2  12   4 3365.13 514.449   9
  -2  12  -4 3516.97 509.126  16
  -2  12  -5 579.997 181.758  16
  -2  13   6 296.387 112.616  10
  -2  13   1 13621.0 956.023  10
   2  13   0 21106.2 1249.93   9
  -2  13   0 22296.6 1181.89  10
   2  13   1 1554.52 353.029   9
   2  13   2 3566.07 548.009   9
   2  13   3 19192.0 1261.66   9
   2  13   4 107.802 98.4715   9
  -2  13  -4 334.372 147.767  16
  -2  13  -5 115.701 91.8060  16
  -2  14   6 448.041 125.209  10
  -2  14   5 2677.91 405.890  10
  -2  14   2 794.191 228.636  10
  -2  14   1 6553.73 676.882  10
   2  14   0 26014.0 1410.01   9
  -2  14   0 27787.6 1339.12  10
   2  14   1 4006.27 570.421   9
   2  14   2 331.081 167.247   9
   2  14   3 4261.31 594.409   9
   2  14   4 1067.06 262.591   9
  -2  14  -5 273.357 120.545  16
  -2  15   5 466.644 179.632  10
  -2  15   2 3462.10 509.543  10
  -2  15   1 40748.4 1690.15  10
   2  15   0 678.667 218.396   9
  -2  15   0 1065.78 258.266  10
   2  15   1 1742.90 378.308   9
   2  15   2 5279.91 660.781   9
   2  15   3 274.344 158.541   9
   2  15   4 127.347 94.4444   9
  -2  16   5 12.0444 75.1849  10
  -2  16   4 720.064 234.834  10
  -2  16   3-54.6926 160.366  10
  -2  16   2 2342.20 419.121  10
  -2  16   1 12740.3 926.316  10
   2  16   0 4657.09 596.751   9
   2  16   1 1225.77 328.700   9
   2  16   2 231.532 160.148   9
   2  16   3 1173.84 300.668   9
   2  16   4 219.078 81.0412   9
  -2  17   5 1925.47 255.923  10
  -2  17   4 10915.4 764.074  10
  -2  17   3 2273.53 376.702  10
  -2  17   2 9875.88 809.395  10
  -2  17   1 10334.0 811.799  10
   2  17   0 2578.04 439.595   9
   2  17   1 1572.63 356.794   9
   2  17   2 3697.73 514.428   9
   2  17   3 457.259 189.134   9
   2  17   4-218.035 98.8948   9
  -2  18   4 551.953 159.525  10
  -2  18   3 4699.26 505.280  10
  -2  18   2 1776.53 319.202  10
  -2  18   1 8859.96 702.336  10
   2  18   0 1892.88 358.618   9
   2  18   1 856.313 255.535   9
   2  18   2 222.682 122.789   9
   2  18   3 888.370 221.739   9
  -2  19   4 35.6622 58.5775  10
  -2  19   3 6873.99 549.643  10
  -2  19   2 10838.7 723.343  10
   2  19   0 1729.14 315.566   9
   2  19   1 816.060 221.376   9
   2  19   2 1127.09 243.173   9
  -2  19  -2 1355.97 227.677   8
   2  19   3 1583.71 255.518   9
  -2  20   3 1232.11 197.922  10
  -2  20   2 1627.92 250.912  10
   2  20   0 2025.10 305.467   9
   2  20   1 1483.42 273.153   9
   2  20   2 170.843 80.7424   9
   2  21   0 73.6283 59.9855   9
   2  21   1 450.536 126.550   9
  -3 -16   5 460.633 133.068  12
  -3 -12   6 113.608 78.0463  12
  -3 -11   6 999.635 227.778  12
  -3 -10   6 897.334 220.342  12
  -3  -9   6 4974.34 543.375  12
  -3  -8   6 171.720 112.979  12
   3  -8  -2 642.908 248.974   1
  -3  -7   6 2824.73 443.102  12
  -3  -7   3 15372.2 1021.64   5
   3  -7  -2 8918.93 847.159   1
  -3  -6   6 265.102 158.363  12
  -3  -6   3 1437.90 331.635   5
   3  -6  -2 16174.7 1105.75   1
   3  -6   6 3565.03 345.147  11
  -3  -5   6 979.189 281.190  12
  -3  -5   5 8998.14 847.089  12
  -3  -5   3 18495.9 1100.30   5
  -3  -5  -2 1396.93 306.929   7
   3  -5   6 1657.35 256.452  11
  -3  -4   6 4375.09 565.004  12
  -3  -4   5 948.358 256.491  12
  -3  -4   4 18975.7 1204.20  13
  -3  -4  -1 15598.5 932.659   7
  -3  -4  -2 23008.1 1174.84   7
  -3  -4  -3-31.7374 80.0416   8
   3  -4   6 5523.29 485.984  11
  -3  -3   6 2375.03 419.969  12
  -3  -3   5 3427.57 508.448  12
  -3  -3   4 2248.55 425.914  13
  -3  -3   3 13823.9 921.740   6
  -3  -3  -1 10816.3 760.391   7
  -3  -3  -2 8290.37 704.290   7
  -3  -3  -3 9827.33 773.170   8
   3  -3   6 975.947 218.378  11
  -3  -2   6 136.017 135.954  12
  -3  -2   5 7844.28 786.230  12
  -3  -2   4 4297.57 582.016  13
  -3  -2   4 3650.94 502.393  12
  -3  -2   3 17545.0 1032.56   6
  -3  -2   2 18342.9 959.228   6
  -3  -2   1 71645.9 1758.99   6
  -3  -2   0 1918.40 253.199   6
  -3  -2   0 2965.30 379.457   7
  -3  -2  -1 12393.4 805.794   7
  -3  -2  -2 10555.5 790.068   7
  -3  -2  -3 5361.32 566.741   8
   3  -2   5 4719.65 599.526  11
   3  -2   6 7183.95 586.961  11
  -3  -1   6 3366.51 482.349  14
  -3  -1   6 3738.52 513.429  12
  -3  -1   5 24421.5 1368.94  12
  -3  -1   4 8947.03 836.324  13
  -3  -1   4 9058.72 791.605  12
  -3  -1   3 4925.58 533.462   6
  -3  -1   2 78688.7 1990.49   6
  -3  -1   1 142033. 2426.47   6
  -3  -1   0 1876.98 242.131   6
  -3  -1   0 4826.89 474.213   7
  -3  -1  -1 11560.5 773.461   7
  -3  -1  -2 66602.7 1987.35   7
  -3  -1  -3 4801.36 578.682  16
   3  -1   5 8554.11 811.375  11
   3  -1   6 551.994 172.257  11
  -3   0   7 48.3952 66.3989  14
  -3   0   6 97.6515 137.282  14
  -3   0   6-250.553 150.728  12
  -3   0   5 171.261 136.782  14
  -3   0   5 179.713 162.430  12
  -3   0   4 71696.6 2385.62  13
  -3   0   4 73606.1 2263.65  12
  -3   0   3 2805.37 384.253   6
  -3   0   2 3049.42 392.970   6
  -3   0   1 56174.1 1495.21   6
  -3   0   0 99279.0 2159.49   7
  -3   0   0 112603. 1901.62   6
  -3   0  -1 98352.3 2250.21   7
  -3   0  -2 8617.72 708.065   7
  -3   0  -3 24560.4 1327.69  16
  -3   0  -4 677.011 234.662  16
   3   0   5 1373.48 353.308  11
   3   0   6-73.3352 111.236  11
  -3   1   7 4951.63 516.843  14
  -3   1   6 3008.48 476.845  14
  -3   1   6 4127.29 536.845  12
  -3   1   5 24091.4 1389.17  14
  -3   1   5 24005.7 1371.64  12
  -3   1   4 8449.47 831.343  13
  -3   1   4 8468.35 769.709  12
  -3   1   3 5321.95 552.164   6
  -3   1   2 78839.3 1945.77   6
  -3   1   1 145692. 2391.17   6
  -3   1   1 146936. 2565.74   7
  -3   1   0 1631.54 282.421   7
  -3   1   0 1652.15 233.418   6
  -3   1  -1 12377.1 795.044   7
  -3   1  -2 61505.2 1941.51   7
  -3   1  -3 5324.71 623.115  16
  -3   1  -4 5252.92 637.316  16
   3   1   5 8110.53 793.783  11
   3   1   6 578.800 164.542  11
  -3   2   7 2545.36 376.825  14
  -3   2   6 446.191 183.484  14
  -3   2   6 271.927 146.932  12
  -3   2   5 8685.29 844.851  14
  -3   2   5 8009.02 790.022  12
  -3   2   4 4086.50 540.066  14
  -3   2   4 3546.66 499.828  12
  -3   2   3 16277.8 950.052   6
  -3   2   2 18338.7 926.689   6
   3   2  -1 76475.6 1909.72   2
  -3   2   1 70958.6 1707.27   6
  -3   2   1 75094.2 1840.77   7
  -3   2   0 1603.84 266.277   7
  -3   2   0 1720.44 254.185   6
  -3   2  -1 11088.7 766.925   7
  -3   2  -2 10355.2 802.988   7
  -3   2  -3 5772.78 659.886  16
   3   2   4 55.0905 91.4835  11
  -3   2  -4 135.888 90.3080  16
   3   2   5 4335.99 590.303  11
  -3   2  -5 4245.25 544.227  16
   3   2   6 6750.28 590.180  11
  -3   3   7 2687.43 384.416  14
  -3   3   6 2676.59 455.351  14
  -3   3   5 4016.93 579.572  14
  -3   3   5 4037.17 564.585  12
  -3   3   4 2587.82 428.661  14
  -3   3   4 2000.41 364.590  12
  -3   3   3 14000.4 899.473   6
  -3   3   2 15418.7 882.731   6
   3   3  -1 33452.3 1297.19   2
  -3   3   1 31819.0 1188.88   6
  -3   3   1 32686.6 1183.78   7
  -3   3   0 9336.24 667.191   7
  -3   3   0 9100.97 600.647   6
  -3   3  -1 11322.5 792.760   7
  -3   3  -2 8315.19 735.478   7
  -3   3  -3 7455.29 758.538  16
   3   3   3 8952.02 802.072  11
   3   3   4 7335.46 770.720  11
  -3   3  -4 6532.57 725.371  16
   3   3   5 1512.29 353.508  11
  -3   3  -5 1453.83 328.234  16
  -3   4   7 2828.76 389.866  14
  -3   4   6 4424.16 586.700  14
  -3   4   5 1116.15 297.883  14
  -3   4   5 838.257 264.366  12
  -3   4   4 17616.1 1146.23  14
  -3   4   4 18219.1 1161.27  12
  -3   4   3 4509.43 523.586   6
  -3   4   2 70617.1 1924.32   6
   3   4  -2 73442.7 2073.55   2
   3   4  -1 9615.01 741.005   2
  -3   4   1 8218.53 582.347   7
  -3   4   0 18641.3 943.095   7
  -3   4  -1 15183.3 929.058   7
  -3   4  -2 23332.8 1251.07   7
   3   4   3 1118.40 301.567  11
  -3   4  -3 22.2382 69.6748  16
   3   4   4 9715.06 892.731  11
  -3   4  -4 11085.6 947.816  16
   3   4   5 244.340 137.990  11
  -3   4  -5 441.314 198.688  16
  -3   5   7 281.194 131.215  14
  -3   5   6 1207.53 307.669  14
  -3   5   5 10853.4 939.156  14
  -3   5   4 5929.04 673.705  14
  -3   5   4 5544.26 646.006  12
  -3   5   3 18598.4 1084.15   6
   3   5  -2 2551.69 413.195   2
  -3   5   2 1993.66 319.004   6
   3   5  -1 22040.2 1190.29   2
  -3   5   0 29821.0 1200.41   7
  -3   5  -1 6985.92 647.287   7
  -3   5  -2 1265.92 292.180   7
   3   5   3 823.586 254.340  11
  -3   5  -3 1018.61 287.116  16
   3   5   4 17044.6 1170.01  11
  -3   5  -4 17056.8 1178.32  16
   3   5   5-5.49341 88.0203  11
  -3   5  -5 166.340 95.6554  16
  -3   6   7 1162.85 232.060  14
  -3   6   6 241.537 180.300  14
  -3   6   5 10497.3 921.225  14
  -3   6   4 7225.14 752.637  14
   3   6  -2 16222.5 1081.34   2
   3   6  -1 1299.51 269.295   2
  -3   6   0 20896.9 1012.57   7
  -3   6  -1 46076.8 1704.22   7
  -3   6  -2 8487.08 794.258   7
   3   6   3 11480.7 930.019  11
  -3   6  -3 11498.2 961.365  16
   3   6   4 10254.3 902.317  11
  -3   6  -4 9083.54 860.291  16
   3   6   5 273.261 141.515   9
  -3   6  -5 49.4475 98.3805  16
  -3   7   6 3158.14 482.195  14
  -3   7   5 2370.53 435.207  14
  -3   7   4 6314.25 703.708  14
  -3   7   3 15137.0 1036.02  14
  -3   7   3 14867.7 1006.06  10
   3   7  -2 7799.61 780.644   2
   3   7  -1 6545.63 713.317   2
   3   7   0 8120.29 818.312   2
  -3   7  -1 19307.4 1115.84   7
  -3   7  -2 31372.5 1376.69   8
   3   7   2 30457.8 1418.87  11
  -3   7  -2 34543.8 1594.68  16
   3   7   3 1442.77 340.032  11
  -3   7  -3 1218.22 332.664  16
   3   7   4 6733.64 750.912   9
   3   7   4 6568.82 723.512  11
  -3   7  -4 6691.92 733.206  16
   3   7   5 2795.49 418.854   9
  -3   7  -5 2538.94 413.823  16
  -3   8   6 187.174 137.446  14
  -3   8   5 148.456 153.909  14
  -3   8   4 1638.56 355.034  14
  -3   8   4 1900.85 384.281  10
  -3   8   3 8921.78 810.619  14
  -3   8   3 8195.69 765.677  10
   3   8  -1 11544.8 968.181   2
   3   8   0 53473.6 2186.60   2
  -3   8  -1 50227.4 1809.45   7
   3   8   2 1775.66 347.304  11
  -3   8  -2 1842.14 339.030   8
  -3   8  -2 2622.10 453.150  16
   3   8   3 1604.93 344.212  11
  -3   8  -3 1524.95 359.484  16
   3   8   4 6591.94 735.664   9
  -3   8  -4 6535.82 716.423  16
   3   8   5 546.219 172.252   9
  -3   8  -5 329.166 156.643  16
  -3   9   5-608.503 225.887  14
  -3   9   4 3111.51 498.160  14
  -3   9   4 2578.92 442.388  10
  -3   9   3 1954.66 381.769  10
  -3   9   2 4090.95 538.739  10
   3   9  -1 1198.22 297.293   2
   3   9   0 25587.4 1508.99   2
   3   9   1 383.860 195.079   9
  -3   9  -1 152.189 113.878  10
   3   9   2 7723.42 796.267   9
  -3   9  -2 8024.65 723.244   8
  -3   9  -2 9522.29 838.039  16
   3   9   3 1508.81 382.244   9
  -3   9  -3 1843.99 383.439  16
   3   9   4 5085.96 628.721   9
  -3   9  -4 4129.39 555.284  16
   3   9   5 268.465 125.799   9
  -3   9  -5 157.585 65.2918  16
  -3  10   5 1275.31 292.313  10
  -3  10   4 1871.41 373.576  10
  -3  10   3 199.208 93.4388  10
  -3  10   2 5839.76 646.896  10
  -3  10   1 475.872 185.569  10
   3  10   0 10756.3 882.565   9
  -3  10   0 12071.1 887.693  10
   3  10   1 18991.6 1218.90   9
  -3  10  -1 18431.7 1111.23  10
   3  10   2 15953.5 1160.71   9
  -3  10  -2 17242.6 1061.43   8
  -3  10  -2 19105.3 1193.68  16
   3  10   3 13429.5 1065.04   9
  -3  10  -3 13697.0 1032.18  16
   3  10   4 1276.23 314.193   9
  -3  10  -4 904.161 239.784  16
   3  10   5 148.309 94.9523   9
  -3  11   5 3661.44 470.910  10
  -3  11   4 91.6698 101.704  10
  -3  11   3 7482.38 766.634  10
  -3  11   2 3792.57 530.307  10
  -3  11   1 11393.0 900.287  10
   3  11   0 14130.5 1028.80   9
  -3  11   0 13420.0 967.681  10
   3  11   1 44437.8 1897.12   9
  -3  11  -1 46699.2 1788.07  10
   3  11   2 8684.37 863.452   9
  -3  11  -2 8216.65 738.244   8
   3  11   3 195.223 136.389   9
  -3  11  -3 350.919 198.994  16
   3  11   4 1862.77 357.016   9
  -3  11  -4 2338.18 385.846  16
   3  11   5 1177.48 216.423   9
  -3  12   5-43.6702 98.2137  10
  -3  12   4 2076.71 394.687  10
  -3  12   3 1536.05 344.736  10
  -3  12   2 2390.22 431.095  10
  -3  12   1 4791.84 596.062  10
   3  12   0 20569.5 1260.31   9
  -3  12   0 20992.9 1219.80  10
   3  12   1 3795.37 562.071   9
  -3  12  -1 4439.04 549.807  10
   3  12   2 2548.73 471.837   9
  -3  12  -2 2355.46 398.412   8
   3  12   3 7891.95 809.099   9
  -3  12  -3 9123.55 771.055  16
   3  12   4 1692.07 321.091   9
  -3  13   5 3223.18 417.293  10
  -3  13   4 546.914 180.117  10
  -3  13   3 3466.81 530.112  10
  -3  13   2 476.891 221.728  10
  -3  13   1 42795.3 1768.48  10
   3  13   0 12298.6 985.040   9
  -3  13   0 12194.7 940.792  10
   3  13   1 1481.86 361.618   9
  -3  13  -1 2420.90 408.324  10
   3  13   2 23185.4 1381.17   9
  -3  13  -2 22014.3 1193.39   8
   3  13   3 5074.68 621.395   9
   3  13   4 483.058 181.026   9
  -3  14   5 2845.49 365.479  10
  -3  14   4 2238.84 382.293  10
  -3  14   3 2299.97 420.278  10
  -3  14   2 5610.99 654.512  10
  -3  14   1 3636.34 516.733  10
   3  14   0 3680.71 534.478   9
  -3  14   0 3953.07 529.354  10
   3  14   1 7308.50 770.303   9
  -3  14  -1 7178.97 677.221  10
   3  14   2 6925.23 746.650   9
  -3  14  -2 6340.13 626.132   8
   3  14   3 2880.55 451.230   9
   3  14   4-14.1820 66.2272   9
  -3  15   5 2331.81 296.060  10
  -3  15   4-74.4047 94.5722  10
  -3  15   3 3643.14 506.695  10
  -3  15   2 13871.7 998.798  10
  -3  15   1 1526.10 339.956  10
   3  15   0 6908.61 708.063   9
  -3  15   0 7030.45 690.319  10
   3  15   1 2231.79 406.021   9
   3  15   2 1320.34 323.655   9
  -3  15  -2 1569.17 299.841   8
   3  15   3 6928.21 648.341   9
   3  15   4 272.812 119.221   9
  -3  16   4 757.116 204.678  10
  -3  16   3 226.631 132.465  10
  -3  16   2 600.499 213.923  10
  -3  16   1 764.173 224.648  10
   3  16   0 1469.39 314.689   9
  -3  16   0 1594.55 316.559  10
   3  16   1 1358.10 303.487   9
   3  16   2 1483.79 319.878   9
  -3  16  -2 1611.93 277.948   8
   3  16   3 1740.08 312.424   9
  -3  17   4 246.123 102.042  10
  -3  17   3 427.694 164.224  10
  -3  17   2-44.0144 107.678  10
  -3  17   1 1795.24 327.478  10
   3  17   0 613.016 199.257   9
  -3  17   0 694.850 194.376  10
   3  17   1 894.946 240.869   9
  -3  17  -1 626.984 182.919   8
   3  17   2 4107.23 474.620   9
  -3  17  -2 4275.17 418.840   8
   3  17   3 763.517 184.832   9
  -3  18   3 714.313 182.274  10
  -3  18   2 2747.95 370.180  10
  -3  18   1 269.309 129.530  10
   3  18   0 1355.06 258.062   9
   3  18   1 549.031 166.464   9
  -3  18  -1 612.913 166.263   8
   3  18   2 36.3002 56.0677   9
  -3  18  -2 93.7076 66.7467   8
  -3  19   3 1044.95 182.053  10
  -3  19   2 1238.43 215.450  10
  -3  19   2 1247.33 203.547   8
  -3  19   1-42.9266 57.6113  10
  -3  19   0 1146.10 233.614   8
   3  19   1 231.431 101.015   9
  -3  19  -1 39.1386 60.7575   8
  -3  20   1 395.341 108.067   8
  -3  20   0 654.699 146.542   8
  -4 -15   4 290.577 121.124  12
  -4 -14   4 4103.93 433.958  12
  -4 -13   5 930.630 195.356  12
  -4 -13   4 569.791 203.388  12
  -4 -12   5 3677.58 420.198  12
  -4 -11   5 3198.38 418.683  12
  -4 -10   6 441.880 132.557  12
  -4 -10   5 2717.70 412.143  12
  -4  -9   6 55.8424 78.5129  12
  -4  -9   5 97.2574 75.1380  12
  -4  -8   6 302.683 155.827  12
  -4  -8   5 528.114 221.525  12
  -4  -8   4 1424.79 351.861  12
  -4  -7   6 2082.82 332.666  12
  -4  -7   5 285.512 200.172  12
  -4  -7   4-102.499 175.573  12
  -4  -7   3 605.726 222.140  13
   4  -7   5 773.333 171.769  11
  -4  -6   6 171.819 105.073  12
  -4  -6   5 2462.73 440.469  12
  -4  -6   4 5619.16 668.239  13
  -4  -6   4 5133.88 647.972  12
  -4  -6   3 6939.54 761.346  13
  -4  -6   3 7763.63 786.834  12
  -4  -6   1-81.3458 74.3740   8
  -4  -6   0 21882.5 1241.17   8
  -4  -6  -1 22736.8 1276.49   8
   4  -6   5 560.189 153.124  11
  -4  -5   6 316.420 170.020  12
  -4  -5   5 774.269 257.283  12
  -4  -5   4 128.215 142.440  13
  -4  -5   4 87.0485 124.410  12
  -4  -5   3 6924.51 776.191  13
  -4  -5   3 7138.34 740.662  12
  -4  -5   1 1413.26 296.506   8
  -4  -5   0 20452.8 1174.60   8
  -4  -5  -1 22941.7 1270.82   8
  -4  -5  -2 1767.99 357.622   8
   4  -5   5 2303.79 322.394  11
  -4  -4   6 424.636 150.118  12
  -4  -4   5 5218.17 649.666  12
  -4  -4   4 6602.00 752.126  13
  -4  -4   4 6938.36 753.837  12
  -4  -4   3 8685.40 868.867  13
  -4  -4   3 8546.30 820.131  12
  -4  -4   1 29125.0 1334.38   8
  -4  -4   0 3565.94 481.542   8
  -4  -4  -1 981.631 266.395   8
  -4  -4  -2 11224.3 887.332   8
   4  -4   5 2720.03 362.099  11
  -4  -3   6 2558.57 414.991  12
  -4  -3   5 4533.74 599.863  12
  -4  -3   4 11117.0 997.744  13
  -4  -3   4 11977.4 978.577  12
  -4  -3   3 17768.6 1238.19  13
  -4  -3   3 17758.1 1160.75  12
  -4  -3   0 17345.7 1044.92   8
  -4  -3  -1 2555.29 421.491   8
  -4  -3  -2 9464.60 809.452   8
  -4  -3  -3 6364.61 652.967   8
   4  -3   5 2108.85 326.970  11
  -4  -2   6 471.494 206.118  12
  -4  -2   5 3799.91 561.565  12
  -4  -2   4 7432.23 808.513  13
  -4  -2   4 8175.46 814.642  12
  -4  -2   3 18065.6 1238.48  13
  -4  -2   3 18953.6 1191.15  12
  -4  -2   0 245.893 113.160   8
  -4  -2  -1 9413.00 785.454   8
  -4  -2  -2 6660.94 681.600   8
  -4  -2  -3 2740.44 426.710   8
   4  -2   5 198.729 147.123  11
  -4  -1   6 1640.24 320.434  12
  -4  -1   5 5207.13 648.546  12
  -4  -1   4 132.256 163.204  13
  -4  -1   4 57.6258 130.131  12
  -4  -1   3 1427.57 377.079  13
  -4  -1   3 1505.44 340.934  12
  -4  -1  -1 106.008 119.025   8
  -4  -1  -2 315.250 152.390   8
  -4  -1  -3 6499.42 648.801   8
   4  -1   4 173.553 115.446  11
   4  -1   5 66.4034 71.0942  11
  -4   0   6 219.331 138.595  12
  -4   0   5 5341.03 666.486  12
  -4   0   4 24877.6 1493.30  13
  -4   0   4 25973.4 1452.49  12
  -4   0   3 6299.59 743.045  13
  -4   0   3 5851.64 655.073  12
  -4   0   2 3841.78 538.140  13
  -4   0   1 1093.57 270.541   6
  -4   0   0 5117.95 622.466   7
  -4   0  -1 428.120 162.465   8
  -4   0  -2-9.44173 128.470   8
  -4   0  -3 7245.60 682.275   8
   4   0   4 15919.2 1068.85  11
   4   0   5 316.337 152.405  11
  -4   1   6 1227.77 283.460  12
  -4   1   5 4332.02 588.877  12
  -4   1   4 484.270 246.041  13
  -4   1   4-183.054 191.611  12
  -4   1   3 1824.95 385.386  13
  -4   1   3 1056.06 294.967  12
  -4   1   2 28099.1 1480.06  13
  -4   1   1 11369.4 813.812   6
  -4   1   0 560.569 243.240   7
  -4   1  -1 585.901 186.822   8
  -4   1  -2 134.312 75.4359   8
  -4   1  -3 7331.00 686.998   8
   4   1   4 459.938 195.379  11
   4   1   5 124.519 98.0086  11
  -4   2   5 4600.11 578.684  14
  -4   2   5 3958.30 575.534  12
  -4   2   4 7069.06 766.947  12
  -4   2   3 19597.5 1302.86  13
  -4   2   3 18612.2 1181.31  12
  -4   2   2 24167.1 1373.10  13
  -4   2   2 24026.3 1271.93  12
  -4   2   1 9493.84 753.083   6
  -4   2   0 259.667 149.096   7
  -4   2   0 7.42287 125.019   8
  -4   2  -1 9226.24 776.421   8
  -4   2  -2 6809.57 675.866   8
  -4   2  -3 2965.97 424.999   8
   4   2   3 2705.32 456.034  11
   4   2   4 8290.36 767.239  11
   4   2   5 152.399 84.2017   9
   4   2   5 286.499 153.491  11
  -4   3   5 4681.55 614.964  12
  -4   3   4 11587.2 965.974  12
  -4   3   3 17826.2 1248.52  13
  -4   3   3 17642.9 1160.03  12
  -4   3   2 12448.8 987.749  13
  -4   3   2 12608.3 931.943  12
  -4   3   1 4417.52 542.239   6
  -4   3   0 16712.7 1029.54   8
  -4   3   0 17534.9 1086.48  10
  -4   3   0 14860.3 1040.81   7
  -4   3  -1 2891.87 439.031   8
  -4   3  -2 8127.21 741.396   8
   4   3   2 9240.83 815.034  11
  -4   3  -3 7067.99 667.374   8
   4   3   3 6088.04 679.261  11
   4   3   4 978.491 274.379  11
   4   3   5 2294.33 318.321   9
   4   3   5 2175.93 332.059  11
  -4   4   4 7016.36 752.127  12
  -4   4   3 7989.33 836.800  13
  -4   4   3 7753.46 771.817  12
  -4   4   2 13855.4 1029.75  13
  -4   4   1 28942.5 1360.81   8
  -4   4   1 27882.8 1377.68  10
  -4   4   0 3214.40 457.504   8
  -4   4   0 3247.77 482.011  10
  -4   4  -1 1212.01 286.968   8
  -4   4  -2 11291.7 880.485   8
  -4   4  -3 13015.8 901.004   8
   4   4   3 13833.7 1019.12  11
   4   4   4 4688.21 578.898  11
   4   4   5 2726.75 343.930   9
  -4   5   3 7211.94 803.143  13
  -4   5   2 14971.0 1065.49  13
  -4   5   2 14042.0 992.074  10
  -4   5   1 1210.10 295.154   8
  -4   5   1 1697.96 356.203  10
  -4   5   0 19998.3 1154.81   8
  -4   5   0 20130.0 1188.38  10
  -4   5  -1 23286.1 1255.53   8
  -4   5  -2 2367.35 413.917   8
  -4   5  -3 4994.27 555.862   8
   4   5   3 4255.58 559.617  11
   4   5   4 3571.97 495.857  11
   4   5   5 2558.13 322.595   9
  -4   6   2 429.458 198.458  10
  -4   6   1 950.757 257.127   8
  -4   6   1 377.269 172.383  10
  -4   6   0 22518.9 1251.87   8
  -4   6   0 21135.6 1236.02  10
  -4   6  -1 22147.9 1239.69   8
  -4   6  -2 6978.19 692.784   8
  -4   6  -3 8964.04 733.461   8
   4   6   3 8667.64 793.351  11
   4   6   4 2100.45 374.871   9
   4   6   5 881.677 187.482   9
  -4   7   3 134.979 107.024  10
  -4   7   2 1491.71 348.309  10
  -4   7   1 1431.91 318.295   8
  -4   7   1 1215.84 291.301  10
  -4   7   0 13061.1 963.499   8
  -4   7   0 11503.1 931.958  10
  -4   7  -1 19412.2 1169.24   8
  -4   7  -2 16441.4 1059.59   8
   4   7   3-72.2612 90.2578  11
  -4   7  -3-32.5312 66.4943   8
   4   7   4 3698.04 492.685   9
  -4   8   3 3049.60 473.272  10
  -4   8   2 4839.09 615.409  10
  -4   8   1 128.818 87.7973   8
  -4   8   1 212.906 127.194  10
   4   8   0 15813.5 1109.69   9
  -4   8   0 15482.3 1057.35   8
  -4   8   0 15629.7 1086.08  10
  -4   8  -1 5348.99 627.050   8
  -4   8  -1 5779.79 655.037  10
  -4   8  -2 4858.96 579.783   8
   4   8   3 2025.39 410.928   9
  -4   8  -3 2566.70 368.342   8
   4   8   4 3872.43 482.813   9
  -4   9   4 1475.87 312.968  10
  -4   9   3 5612.04 645.909  10
  -4   9   2 2495.88 446.303  10
  -4   9   1 1002.75 249.547  10
  -4   9   1 1919.81 374.077   8
   4   9   0 27817.2 1468.38   9
  -4   9   0 27580.9 1405.19   8
  -4   9   0 27339.6 1430.36  10
   4   9   1 8536.89 838.552   9
  -4   9  -1 8873.17 793.572   8
  -4   9  -1 8173.87 774.326  10
   4   9   2 7633.91 794.385   9
  -4   9  -2 7399.82 696.986   8
   4   9   3 5992.56 675.970   9
  -4   9  -3 6490.30 577.461   8
   4   9   4 371.200 181.866   9
  -4  10   4 3950.59 504.337  10
  -4  10   3 3648.39 522.272  10
  -4  10   2 2274.79 390.888   8
  -4  10   2 2092.06 406.576  10
  -4  10   1 12602.0 951.187   8
  -4  10   1 11016.1 923.050  10
   4  10   0 5306.95 642.693   9
  -4  10   0 5085.60 610.085   8
  -4  10   0 5200.91 626.963  10
   4  10   1 3151.49 512.368   9
  -4  10  -1 3116.19 465.323   8
  -4  10  -1 3373.65 494.842  10
   4  10   2 211.887 111.277   9
  -4  10  -2 346.920 173.230   8
   4  10   3 396.020 176.891   9
  -4  10  -3 480.490 160.162   8
   4  10   4 635.823 178.085   9
  -4  11   4 4941.59 549.898  10
  -4  11   3 3380.47 497.325  10
  -4  11   2 4428.92 536.318   8
  -4  11   2 3613.19 530.711  10
  -4  11   1 9173.58 801.742   8
  -4  11   1 9935.20 865.641  10
  -4  11   0 4312.71 547.341   8
  -4  11   0 3687.08 530.208  10
   4  11   1 812.428 247.638   9
  -4  11  -1 1065.25 283.772   8
   4  11   2 647.619 238.438   9
  -4  11  -2 426.307 154.060   8
   4  11   3 766.400 235.291   9
   4  11   4 198.715 121.317   9
  -4  12   4 9946.57 756.731  10
  -4  12   3 9689.97 818.644  10
  -4  12   2 8915.79 753.624   8
  -4  12   2 7916.55 764.451  10
  -4  12   1 1203.25 305.947  10
  -4  12   1 1125.94 297.703   8
  -4  12   0 945.902 284.774  10
  -4  12   0 863.084 248.746   8
   4  12   1 1061.45 304.908   9
  -4  12  -1 1209.99 285.449   8
   4  12   2 304.675 151.534   9
  -4  12  -2 130.445 97.9197   8
   4  12   3 551.600 197.431   9
  -4  13   4 661.077 200.953  10
  -4  13   3 202.690 138.326  10
  -4  13   2 5145.69 554.595   8
  -4  13   2 5379.66 634.305  10
  -4  13   1 228.471 149.028  10
  -4  13   1 377.045 182.484   8
  -4  13   0 2011.89 378.972  10
  -4  13   0 2139.95 395.644   8
   4  13   1 2062.13 392.924   9
  -4  13  -1 1879.46 345.753   8
   4  13   2 2007.12 361.324   9
  -4  13  -2 1785.00 297.450   8
   4  13   3 900.605 226.478   9
  -4  14   4 4658.49 456.695  10
  -4  14   3 4536.46 514.457  10
  -4  14   2 1141.63 265.436   8
  -4  14   2 1110.88 279.173  10
  -4  14   1 2760.37 415.801   8
  -4  14   1 2684.10 418.572  10
  -4  14   0 3006.29 433.482   8
  -4  14   0 2900.66 419.464  10
   4  14   1 1982.96 355.195   9
  -4  14  -1 2016.11 344.760   8
   4  14   2 1046.02 247.934   9
  -4  14  -2 1170.93 238.080   8
   4  14   3 1293.05 234.497   9
  -4  15   4 0.28510 63.8742  10
  -4  15   3 77.5689 64.1818  10
  -4  15   2 1834.84 291.915   8
  -4  15   2 1949.78 342.165  10
  -4  15   1 993.135 232.299  10
  -4  15   1 937.146 232.746   8
  -4  15   0 1902.03 332.093  10
  -4  15   0 1562.20 311.348   8
   4  15   1 1825.59 313.260   9
  -4  15  -1 1923.88 310.903   8
   4  15   2 6968.61 575.318   9
  -4  15  -2 7424.28 511.600   8
  -4  16   3 278.522 111.840  10
  -4  16   2 1283.03 219.066   8
  -4  16   2 1592.33 281.293  10
  -4  16   1 1532.46 281.758  10
  -4  16   1 1967.90 304.702   8
  -4  16   0-43.8064 74.9177  10
  -4  16   0 233.170 142.826   8
   4  16   1 3079.92 365.643   9
  -4  16  -1 2656.03 334.905   8
   4  16   2 2808.15 331.061   9
  -4  17   3 636.032 139.459  10
  -4  17   2-108.366 67.9384   8
  -4  17   2-34.5904 62.8486  10
  -4  17   1 2803.63 329.890   8
  -4  17   1 2717.65 328.400  10
  -4  17   0 385.827 129.843   8
  -4  17  -1 4267.63 368.813   8
  -4  18   0 337.249 94.4536   8
  -5 -11   1 1509.97 303.247  13
  -5 -10   4 138.527 69.7711  12
  -5 -10   2 1503.41 295.140  13
  -5  -9   5 23.4605 75.8380  12
  -5  -9   4 1187.62 241.356  12
  -5  -9   2 1332.99 311.257  13
  -5  -8   5 205.761 110.465  12
  -5  -8   4 1059.24 241.483  12
  -5  -8   3 5641.64 606.306  13
  -5  -8   2 1179.95 314.108  13
  -5  -7   5 71.1808 97.1607  12
  -5  -7   4 1755.87 318.518  12
  -5  -7   3 4907.63 594.846  13
  -5  -7   2 10701.5 928.341  13
  -5  -6   5 1302.47 268.642  12
  -5  -6   4 1381.41 317.802  13
  -5  -6   4 1696.01 328.617  12
  -5  -6   3 18090.7 1191.95  13
  -5  -6   2 248.646 183.609  13
  -5  -5   5 660.518 212.080  12
  -5  -5   4 4609.71 575.783  13
  -5  -5   4 4001.49 526.642  12
  -5  -5   3 9580.43 897.921  13
  -5  -5   2 12676.4 1058.91  13
  -5  -5   0 3900.76 529.529   8
  -5  -4   5 176.934 120.264  12
  -5  -4   4 4468.95 583.345  13
  -5  -4   4 5049.18 588.511  12
  -5  -4   3 2164.42 444.408  13
  -5  -4   3 2137.22 402.929  12
  -5  -4   2 10533.4 972.155  13
  -5  -4   1 4994.13 587.767   8
  -5  -4   0 8494.69 786.443   8
  -5  -4  -1 3981.83 525.142   8
   5  -4   4-5.07434 73.0626  11
  -5  -3   5 577.170 205.081  12
  -5  -3   4 5102.51 631.035  13
  -5  -3   4 6081.62 653.400  12
  -5  -3   3 9348.82 908.598  13
  -5  -3   3 10788.9 877.068  12
  -5  -3   2 2393.13 484.683  13
  -5  -3   1 113.445 97.0776   8
  -5  -3   0 1043.97 284.126   8
  -5  -3  -1 16680.1 1089.32   8
  -5  -3  -2 2558.00 398.917   8
   5  -3   3 528.698 189.579  11
   5  -3   4 2133.23 274.621  11
  -5  -2   5 346.573 158.216  12
  -5  -2   4 339.270 182.810  13
  -5  -2   4 460.008 201.388  12
  -5  -2   3 1989.15 447.933  13
  -5  -2   3 1898.15 379.043  12
  -5  -2   2 1535.47 385.571  13
  -5  -2   1 2275.23 395.452   8
  -5  -2   0 1008.64 266.537   8
  -5  -2  -1 12585.7 945.576   8
  -5  -2  -2 5841.32 615.332   8
   5  -2   3 903.048 225.515  11
   5  -2   4 655.217 150.615  11
  -5  -1   5 173.631 128.282  12
  -5  -1   4 155.369 137.542  13
  -5  -1   4 205.139 142.999  12
  -5  -1   3 1707.85 376.973  13
  -5  -1   3 1638.97 365.086  12
  -5  -1   2 1245.75 333.867  13
  -5  -1   1 2014.44 372.574   8
  -5  -1   0 7086.92 717.970   8
  -5  -1  -1 2939.43 447.267   8
  -5  -1  -2 11592.1 868.839   8
  -5  -1  -3 5271.00 514.623   8
   5  -1   3 5359.80 545.918  11
   5  -1   4 713.692 168.614  11
  -5   0   5 106.208 75.9308  12
  -5   0   4 349.432 160.111  12
  -5   0   3 183.230 134.230  13
  -5   0   3 255.967 124.758  12
  -5   0   2 439.251 175.768  13
  -5   0   1 733.596 250.618   8
  -5   0   0 882.761 265.940   8
  -5   0  -1 247.144 115.011   8
  -5   0  -2 12517.9 899.062   8
  -5   0  -3 5491.85 524.562   8
   5   0   3 6331.97 587.384  11
   5   0   4 392.635 134.061  11
  -5   1   4 153.618 112.495  12
  -5   1   3 1089.81 320.694  13
  -5   1   3 1355.53 322.716  12
  -5   1   2 1221.91 338.886  13
  -5   1   1 2359.83 452.347  13
  -5   1   1 2649.67 422.030   8
  -5   1   0 7281.31 735.104   8
  -5   1  -1 2651.88 437.984   8
  -5   1  -2 11224.3 850.384   8
  -5   1  -3 5547.66 525.849   8
   5   1   3 5584.21 540.317  11
   5   1   4 612.192 158.092  11
  -5   2   3 2007.74 424.953  13
  -5   2   2 1838.31 405.890  13
  -5   2   1 2523.24 450.627  13
  -5   2   1 2675.81 436.236   8
  -5   2   0 1027.55 247.194   8
  -5   2  -1 13530.7 988.047   8
  -5   2  -2 5953.82 625.243   8
  -5   2  -3 791.678 198.967   8
   5   2   3 840.629 212.292  11
   5   2   4 973.969 216.283   9
  -5   3   3 10220.7 949.652  13
  -5   3   2 2767.20 485.830  13
  -5   3   1 198.571 129.685  13
  -5   3   1-95.0951 139.224   8
  -5   3   0 731.557 235.229   8
  -5   3  -1 15987.0 1057.15   8
  -5   3  -2 2800.72 421.329   8
  -5   3  -3 534.672 160.240   8
   5   3   4 2595.01 328.157   9
  -5   4   3 3417.17 536.673  13
  -5   4   2 11873.9 977.100  13
  -5   4   1 4975.63 617.783  13
  -5   4   1 4849.07 585.922   8
  -5   4   0 9168.50 825.711   8
  -5   4  -1 3764.36 506.733   8
  -5   4  -2 833.872 236.227   8
  -5   4  -3 553.601 140.668   8
   5   4   4-17.6227 49.3021   9
  -5   5   2 14974.2 1071.51  13
  -5   5   2 14036.7 983.007  10
  -5   5   1 3298.73 479.239   8
  -5   5   0 5095.18 608.920   8
  -5   5  -1 2139.58 385.973   8
  -5   5  -2 283.650 135.874   8
   5   5   3 1310.37 285.360   9
  -5   5  -3 1419.55 236.613   8
  -5   6   2 269.038 178.284  10
  -5   6   1 2594.87 428.734   8
  -5   6   0 3104.14 473.486   8
  -5   6  -1 2324.09 402.146   8
  -5   6  -2 564.351 188.802   8
   5   6   3 407.252 154.851   9
  -5   6  -3 226.061 102.083   8
  -5   7   2 11987.0 909.137  10
  -5   7   1 3363.27 480.107   8
  -5   7   1 2892.42 468.616  10
  -5   7   0 3973.56 513.051   8
   5   7   1 1155.93 271.660   9
  -5   7  -1 1219.82 281.461   8
   5   7   2 1563.39 330.669   9
  -5   7  -2 1298.84 281.774   8
   5   7   3 1896.93 311.141   9
  -5   7  -3 1559.78 231.147   8
  -5   8   3 5316.86 556.932  10
  -5   8   2 1323.46 292.048  10
  -5   8   1 376.268 132.218   8
  -5   8   1 134.661 145.516  10
  -5   8   0 63.8053 116.117   8
   5   8   1 1912.02 356.317   9
  -5   8  -1 1637.69 314.180   8
   5   8   2 137.102 115.682   9
  -5   8  -2 112.244 97.9407   8
   5   8   3 1423.32 259.900   9
  -5   8  -3 1639.34 219.703   8
  -5   9   3 2393.82 364.440  10
  -5   9   2 974.181 273.074  10
  -5   9   1 147.002 157.770   8
  -5   9   1 85.5060 100.893  10
  -5   9   0 643.917 227.656   8
   5   9   1 7173.01 673.331   9
  -5   9  -1 6213.03 603.778   8
   5   9   2 3354.49 438.790   9
  -5   9  -2 2816.18 361.891   8
   5   9   3 291.087 112.957   9
  -5  10   3 625.322 194.466  10
  -5  10   2 1197.25 276.989  10
  -5  10   1 8.12953 89.9739   8
  -5  10   1 162.360 113.683  10
  -5  10   0 2642.90 406.724   8
   5  10   1 1665.62 309.108   9
  -5  10  -1 1830.28 320.400   8
   5  10   2 215.157 113.892   9
  -5  10  -2 241.924 102.363   8
  -5  11   3 3556.69 415.684  10
  -5  11   2 1313.21 274.853  10
  -5  11   1 1092.26 245.026   8
  -5  11   1 936.545 231.718  10
  -5  11   0 1274.56 273.915   8
   5  11   1 560.173 172.499   9
  -5  11  -1 314.206 134.061   8
   5  11   2 2418.19 320.578   9
  -5  11  -2 2152.95 272.913   8
  -5  12   3 64.5418 53.1941  10
  -5  12   2 1232.24 259.267  10
  -5  12   1 102.038 110.953   8
  -5  12   1 112.544 103.306  10
  -5  12   0 1444.91 280.586   8
   5  12   1 5137.85 460.425   9
  -5  12  -1 5043.85 462.764   8
  -5  13   3 362.755 117.661  10
  -5  13   2 474.050 153.637  10
  -5  13   1 2835.83 353.015   8
  -5  13   0 584.105 169.974   8
  -5  13  -1 239.463 109.043   8
  -5  14   2 1845.48 265.039  10
  -5  14   1 557.742 144.604   8
  -5  14   0 1868.30 258.469   8
  -6  -8   2 125.544 82.3354  13
  -6  -8   1 953.996 220.979  13
  -6  -8   0 2069.17 299.949  13
  -6  -7   2 273.163 102.489  13
  -6  -7   1 39.1280 74.1369  13
  -6  -7   0 131.274 81.1391  13
  -6  -6   3 58.0568 70.3808  13
  -6  -6   2 153.590 110.604  13
  -6  -6   1 1436.64 284.707  13
  -6  -6   0 714.643 198.425  13
  -6  -5   3 249.392 139.688  13
  -6  -5   2 43.0183 117.015  13
  -6  -5   1 839.954 228.368  13
  -6  -5   0 35.6033 69.6403  13
  -6  -4   3 516.177 176.408  13
  -6  -4   2 406.639 155.561  13
  -6  -4   1 454.073 167.020  13
  -6  -4   0 257.288 95.8952  13
  -6  -3   3 1258.09 272.994  13
  -6  -3   2 1129.61 282.470  13
  -6  -3   1 42.3964 86.4546  13
  -6  -3   0 1763.36 327.399  13
  -6  -2   3 1289.81 286.673  13
  -6  -2   2 252.009 139.951  13
  -6  -2   1 70.4965 114.445  13
  -6  -2   0 2849.90 419.667  13
  -6  -2  -1 758.508 191.946  13
  -6  -1   3 369.600 167.790  13
  -6  -1   2 2689.11 430.948  13
  -6  -1   1 176.666 101.850  13
  -6  -1   1 515.029 174.315   8
  -6  -1   0 517.433 194.283  13
  -6  -1   0 503.865 145.014   8
  -6  -1  -1 5301.05 500.052   8
  -6  -1  -1 7427.23 576.157  13
  -6   0   3 1775.36 328.810  13
  -6   0   2 9839.02 795.160  13
  -6   0   1 2781.82 424.083  13
  -6   0   1 2655.23 366.635   8
  -6   0   0 1482.60 281.179  13
  -6   0   0 1349.14 275.392   8
  -6   0  -1 6174.40 541.526   8
  -6   1   2 2856.42 419.985  13
  -6   1   1 273.334 138.008  13
  -6   1   1 319.984 138.308   8
  -6   1   0 469.013 163.790  13
  -6   1   0 579.517 178.418   8
  -6   1  -1 5374.44 499.050   8
  -6   2   2 101.609 99.3859  13
  -6   2   1 117.157 115.161  13
  -6   2   1-7.19725 65.8118   8
  -6   2   0 2666.29 357.894   8
  -6   2  -1 577.146 164.426   8
  -6   2  -2 2595.82 286.525   8
  -6   3   2 1012.16 238.031  13
  -6   3   1 102.255 63.8790   8
  -6   3   0 1780.44 293.864   8
  -6   3  -1 1538.77 267.409   8
  -6   4   1 323.449 141.745   8
  -6   4   0 223.051 106.761   8
  -6   4  -1 172.032 76.6866   8
  -6   5   1 665.016 161.017   8
  -6   5   0 36.8403 64.6979   8
  -6   5  -1 2131.28 294.162   8
  -6   6   1 1559.55 251.660   8
  -6   6   0 965.955 207.714   8
  -6   6  -1 2311.76 285.784   8
  -6   7   1 49.3598 60.6100   8
  -6   7   0 4.44748 62.0879   8
  -6   7  -1 35.5573 41.1488   8
  -6   8   1 584.126 131.630   8
  -6   8   0 2416.03 278.771   8
   0   0   0    0.00    0.00   0
TITL exp_10195 in P2(1)
REM P2(1) (#4 in standard setting)
CELL 1.54184   5.366099  18.617070   6.611562  90.0000  98.9180  90.0000
ZERR    3.00   0.000396   0.001628   0.000510   0.0000   0.0070   0.0000
LATT -1
SYMM -x, y+1/2,-z
SFAC C H N O
UNIT 33.00 30.00 3.00 3.00
TREF
HKLF 4
END
;
_shelx_hkl_checksum              9947
_shelx_res_file
;
TITL
    shelx.res
    created by SHELXL-2016/6 at 11:12:15 on 10-Jun-2019
CELL  1.54184   5.3661  18.6171   6.6116   90.000   98.918   90.000
ZERR    2.00   0.0004   0.0016   0.0005    0.000    0.007    0.000
LATT  -1
SYMM  - X, 1/2 + Y, - Z
SFAC  C   H   N    O
UNIT  28  24  4   10
MERG   2
EQIV $1 -1+x,y,-1+z
EQIV $2 2-x,-1/2+y,1-z
EQIV $3 x,y,1+z
HTAB C6 O3_$1
HTAB C6 O4_$2
HTAB C14 O2_$3
HTAB C13 O5
FMAP   2
PLAN    1
ACTA
BOND   $H
L.S.  40
WGHT    0.054600    0.016200
EXTI    0.012560
FVAR      14.97655
C1    1    0.204830   -0.032028    0.308544    11.00000    0.04688    0.05292 =
         0.05237   -0.00122   -0.00609    0.00524
C2    1    0.490497   -0.022141    0.359792    11.00000    0.04259    0.05990 =
         0.03712   -0.00200    0.00898    0.00464
C3    1    0.552224   -0.068508    0.552081    11.00000    0.04204    0.04807 =
         0.04783    0.00363    0.00354    0.00657
C4    1    0.291101   -0.094022    0.584815    11.00000    0.05169    0.05195 =
         0.04901    0.00026    0.00560   -0.00321
C5    1    0.200910   -0.152382    0.428708    11.00000    0.05363    0.05491 =
         0.07320   -0.00489    0.00199   -0.00404
C6    1    0.147759   -0.109152    0.230499    11.00000    0.05958    0.06066 =
         0.06069   -0.01005   -0.00982    0.00267
C7    1    0.568773    0.053076    0.427918    11.00000    0.04189    0.05558 =
         0.03891    0.00404    0.01061   -0.00068
C8    1    0.674137   -0.018599    0.716566    11.00000    0.04518    0.05338 =
         0.05035    0.00903   -0.00163    0.00270
C9    1    0.820474    0.107482    0.739662    11.00000    0.04775    0.04296 =
         0.04679    0.00661    0.00352    0.00387
C10   1    1.015181    0.139592    0.658354    11.00000    0.05101    0.05252 =
         0.05880    0.00358    0.01278    0.00164
C11   1    1.159267    0.192114    0.769408    11.00000    0.04923    0.04634 =
         0.08456    0.00493    0.01124   -0.00084
C12   1    1.105890    0.209233    0.962753    11.00000    0.05412    0.04319 =
         0.06837   -0.00335   -0.00584    0.00504
C13   1    0.912982    0.178749    1.042731    11.00000    0.06049    0.05532 =
         0.05361   -0.00420    0.00160    0.00356
C14   1    0.766110    0.127047    0.929108    11.00000    0.05398    0.05569 =
         0.04835    0.00439    0.00758   -0.00235
N1    3    0.684281    0.050021    0.632125    11.00000    0.04410    0.04700 =
         0.03946    0.00535    0.00278   -0.00072
N2    3    1.266887    0.261775    1.087681    11.00000    0.06597    0.04804 =
         0.11816   -0.01434   -0.00321    0.00015
O1    4    0.135325   -0.033680    0.510581    11.00000    0.04319    0.05689 =
         0.06705   -0.00721    0.01130    0.00195
O2    4    0.534747    0.107627    0.331807    11.00000    0.08393    0.06220 =
         0.04697    0.01640    0.00185   -0.00688
O3    4    0.750716   -0.032640    0.891814    11.00000    0.10719    0.06263 =
         0.05180    0.01688   -0.02473   -0.01133
O4    4    1.435164    0.289696    1.013588    11.00000    0.07680    0.07289 =
         0.16674   -0.03634    0.01240   -0.02449
O5    4    1.227457    0.272680    1.262087    11.00000    0.13069    0.10137 =
         0.10978   -0.05614    0.00348   -0.02645
H1    2    0.115764    0.007223    0.230367    11.00000    0.05435
H2    2    0.580056   -0.033192    0.257502    11.00000    0.04734
H3    2    0.646916   -0.107211    0.536821    11.00000    0.05211
H4    2    0.280459   -0.102724    0.724024    11.00000    0.06208
H5A   2    0.041942   -0.175190    0.459822    11.00000    0.07656
H5B   2    0.319571   -0.184331    0.428751    11.00000    0.06376
H6A   2   -0.007655   -0.112042    0.170397    11.00000    0.09884
H6B   2    0.269154   -0.123058    0.136379    11.00000    0.08245
H10   2    1.061410    0.127875    0.526269    11.00000    0.04618
H11   2    1.282355    0.213865    0.712534    11.00000    0.07728
H13   2    0.894857    0.192499    1.177255    11.00000    0.06442
H14   2    0.640873    0.101594    0.992431    11.00000    0.04694
HKLF 4
REM
REM R1 =  0.0403 for    1549 Fo > 4sig(Fo)  and  0.0447 for all    1717 data
REM    239 parameters refined using      1 restraints
END
WGHT      0.0546      0.0162
REM Highest difference peak  0.177,  deepest hole -0.157,  1-sigma level  0.038
Q1    1  -0.0581 -0.0338  0.5480  11.00000  0.05    0.18
;
_shelx_res_checksum              50695
loop_
_space_group_symop_operation_xyz
'x, y, z'
'-x, y+1/2, -z'
loop_
_atom_site_type_symbol
_atom_site_label
_atom_site_fract_x
_atom_site_fract_y
_atom_site_fract_z
_atom_site_U_iso_or_equiv
_atom_site_adp_type
_atom_site_calc_flag
_atom_site_occupancy
C C1 0.2048(7) -0.0320(2) 0.3085(6) 0.0522(9) Uani d 1
C C2 0.4905(6) -0.0221(2) 0.3598(5) 0.0462(8) Uani d 1
C C3 0.5522(6) -0.0685(2) 0.5521(6) 0.0463(8) Uani d 1
C C4 0.2911(7) -0.0940(2) 0.5848(6) 0.0511(9) Uani d 1
C C5 0.2009(9) -0.1524(3) 0.4287(7) 0.0614(11) Uani d 1
C C6 0.1478(10) -0.1092(3) 0.2305(7) 0.0623(11) Uani d 1
C C7 0.5688(6) 0.0531(2) 0.4279(5) 0.0450(8) Uani d 1
C C8 0.6741(7) -0.0186(2) 0.7166(6) 0.0506(9) Uani d 1
C C9 0.8205(7) 0.1075(2) 0.7397(5) 0.0462(8) Uani d 1
C C10 1.0152(7) 0.1396(2) 0.6584(6) 0.0537(9) Uani d 1
C C11 1.1593(8) 0.1921(2) 0.7694(8) 0.0600(11) Uani d 1
C C12 1.1059(8) 0.2092(2) 0.9628(7) 0.0569(10) Uani d 1
C C13 0.9130(8) 0.1787(2) 1.0427(7) 0.0572(10) Uani d 1
C C14 0.7661(8) 0.1270(2) 0.9291(6) 0.0527(9) Uani d 1
N N1 0.6843(5) 0.05002(18) 0.6321(4) 0.0439(6) Uani d 1
N N2 1.2669(9) 0.2618(2) 1.0877(9) 0.0792(13) Uani d 1
O O1 0.1353(4) -0.03368(16) 0.5106(4) 0.0554(7) Uani d 1
O O2 0.5347(6) 0.10763(18) 0.3318(4) 0.0652(8) Uani d 1
O O3 0.7507(7) -0.0326(2) 0.8918(4) 0.0778(10) Uani d 1
O O4 1.4352(8) 0.2897(2) 1.0136(9) 0.1062(15) Uani d 1
O O5 1.2275(10) 0.2727(3) 1.2621(8) 0.1155(18) Uani d 1
H H1 0.116(8) 0.007(3) 0.230(7) 0.054(11) Uiso d 1
H H2 0.580(7) -0.033(2) 0.258(6) 0.047(10) Uiso d 1
H H3 0.647(8) -0.107(2) 0.537(6) 0.052(11) Uiso d 1
H H4 0.280(8) -0.103(3) 0.724(7) 0.062(13) Uiso d 1
H H5A 0.042(10) -0.175(3) 0.460(8) 0.077(15) Uiso d 1
H H5B 0.320(9) -0.184(3) 0.429(7) 0.064(13) Uiso d 1
H H6A -0.008(13) -0.112(3) 0.170(9) 0.10(2) Uiso d 1
H H6B 0.269(10) -0.123(3) 0.136(9) 0.082(16) Uiso d 1
H H10 1.061(7) 0.128(2) 0.526(6) 0.046(10) Uiso d 1
H H11 1.282(10) 0.214(3) 0.713(8) 0.077(16) Uiso d 1
H H13 0.895(9) 0.192(3) 1.177(8) 0.064(14) Uiso d 1
H H14 0.641(8) 0.102(2) 0.992(6) 0.047(10) Uiso d 1
loop_
_atom_site_aniso_label
_atom_site_aniso_U_11
_atom_site_aniso_U_22
_atom_site_aniso_U_33
_atom_site_aniso_U_12
_atom_site_aniso_U_13
_atom_site_aniso_U_23
C1 0.0469(17) 0.053(2) 0.0524(19) 0.0052(17) -0.0061(15) -0.0012(18)
C2 0.0426(16) 0.060(2) 0.0371(16) 0.0046(16) 0.0090(13) -0.0020(16)
C3 0.0420(16) 0.048(2) 0.0478(19) 0.0066(15) 0.0035(14) 0.0036(16)
C4 0.0517(19) 0.052(2) 0.049(2) -0.0032(17) 0.0056(16) 0.0003(17)
C5 0.054(2) 0.055(2) 0.073(3) -0.004(2) 0.002(2) -0.005(2)
C6 0.060(2) 0.061(2) 0.061(2) 0.003(2) -0.010(2) -0.010(2)
C7 0.0419(16) 0.056(2) 0.0389(15) -0.0007(17) 0.0106(13) 0.0040(17)
C8 0.0452(17) 0.053(2) 0.0504(19) 0.0027(17) -0.0016(14) 0.0090(18)
C9 0.0477(18) 0.0430(18) 0.0468(17) 0.0039(15) 0.0035(15) 0.0066(16)
C10 0.0510(19) 0.053(2) 0.059(2) 0.0016(18) 0.0128(17) 0.0036(19)
C11 0.0492(19) 0.046(2) 0.085(3) -0.0008(18) 0.011(2) 0.005(2)
C12 0.054(2) 0.043(2) 0.068(3) 0.0050(17) -0.0058(19) -0.0033(18)
C13 0.060(2) 0.055(2) 0.054(2) 0.0036(19) 0.0016(18) -0.0042(19)
C14 0.054(2) 0.056(2) 0.0483(19) -0.0023(18) 0.0076(16) 0.0044(18)
N1 0.0441(14) 0.0470(15) 0.0395(13) -0.0007(14) 0.0028(11) 0.0053(14)
N2 0.066(2) 0.048(2) 0.118(4) 0.0001(19) -0.003(2) -0.014(2)
O1 0.0432(12) 0.0569(15) 0.0671(16) 0.0020(12) 0.0113(11) -0.0072(14)
O2 0.084(2) 0.0622(17) 0.0470(14) -0.0069(16) 0.0018(13) 0.0164(14)
O3 0.107(2) 0.0626(19) 0.0518(15) -0.011(2) -0.0247(15) 0.0169(14)
O4 0.077(2) 0.073(2) 0.167(4) -0.024(2) 0.012(3) -0.036(3)
O5 0.131(4) 0.101(3) 0.110(3) -0.026(3) 0.003(3) -0.056(3)
loop_
_atom_type_symbol
_atom_type_description
_atom_type_scat_dispersion_real
_atom_type_scat_dispersion_imag
_atom_type_scat_source
C C 0.0181 0.0091 'International Tables Vol C Tables 4.2.6.8 and 6.1.1.4'
H H 0.0000 0.0000 'International Tables Vol C Tables 4.2.6.8 and 6.1.1.4'
N N 0.0311 0.0180 'International Tables Vol C Tables 4.2.6.8 and 6.1.1.4'
O O 0.0492 0.0322 'International Tables Vol C Tables 4.2.6.8 and 6.1.1.4'
loop_
_geom_angle_atom_site_label_1
_geom_angle_atom_site_label_2
_geom_angle_atom_site_label_3
_geom_angle
O1 C1 C2 101.1(3)
O1 C1 C6 102.9(4)
C2 C1 C6 109.1(4)
O1 C1 H1 109(3)
C2 C1 H1 115(3)
C6 C1 H1 118(3)
C7 C2 C1 113.6(3)
C7 C2 C3 105.1(3)
C1 C2 C3 101.3(3)
C7 C2 H2 106(3)
C1 C2 H2 116(2)
C3 C2 H2 115(3)
C8 C3 C4 113.4(3)
C8 C3 C2 105.5(3)
C4 C3 C2 102.0(3)
C8 C3 H3 113(3)
C4 C3 H3 108(3)
C2 C3 H3 114(3)
O1 C4 C5 102.6(3)
O1 C4 C3 101.9(3)
C5 C4 C3 109.1(3)
O1 C4 H4 110(3)
C5 C4 H4 118(3)
C3 C4 H4 113(3)
C4 C5 C6 101.7(4)
C4 C5 H5A 111(3)
C6 C5 H5A 110(3)
C4 C5 H5B 109(3)
C6 C5 H5B 114(3)
H5A C5 H5B 111(4)
C5 C6 C1 101.7(3)
C5 C6 H6A 113(4)
C1 C6 H6A 110(4)
C5 C6 H6B 110(3)
C1 C6 H6B 110(3)
H6A C6 H6B 112(5)
O2 C7 N1 123.8(4)
O2 C7 C2 128.0(3)
N1 C7 C2 108.2(3)
O3 C8 N1 123.9(4)
O3 C8 C3 127.7(4)
N1 C8 C3 108.4(3)
C14 C9 C10 121.2(4)
C14 C9 N1 119.2(3)
C10 C9 N1 119.4(3)
C9 C10 C11 119.5(4)
C9 C10 H10 125(2)
C11 C10 H10 116(2)
C10 C11 C12 118.2(4)
C10 C11 H11 119(4)
C12 C11 H11 123(4)
C13 C12 C11 122.7(4)
C13 C12 N2 118.4(4)
C11 C12 N2 118.8(4)
C12 C13 C14 118.8(4)
C12 C13 H13 117(3)
C14 C13 H13 124(3)
C9 C14 C13 119.5(4)
C9 C14 H14 121(3)
C13 C14 H14 119(2)
C7 N1 C8 112.6(3)
C7 N1 C9 124.7(3)
C8 N1 C9 122.4(3)
O4 N2 O5 124.1(5)
O4 N2 C12 118.0(5)
O5 N2 C12 117.9(5)
C4 O1 C1 96.5(3)
loop_
_geom_bond_atom_site_label_1
_geom_bond_atom_site_label_2
_geom_bond_distance
C1 O1 1.442(5)
C1 C2 1.529(5)
C1 C6 1.540(6)
C1 H1 0.98(5)
C2 C7 1.510(6)
C2 C3 1.530(5)
C2 H2 0.91(4)
C3 C8 1.501(5)
C3 C4 1.526(5)
C3 H3 0.90(5)
C4 O1 1.440(5)
C4 C5 1.525(6)
C4 H4 0.94(5)
C5 C6 1.527(7)
C5 H5A 1.00(5)
C5 H5B 0.87(5)
C6 H6A 0.87(7)
C6 H6B 1.00(6)
C7 O2 1.197(5)
C7 N1 1.397(4)
C8 O3 1.197(4)
C8 N1 1.399(5)
C9 C14 1.378(5)
C9 C10 1.383(5)
C9 N1 1.422(5)
C10 C11 1.385(6)
C10 H10 0.97(4)
C11 C12 1.390(7)
C11 H11 0.90(6)
C12 C13 1.358(6)
C12 N2 1.471(6)
C13 C14 1.389(6)
C13 H13 0.94(5)
C14 H14 0.97(4)
N2 O4 1.209(7)
N2 O5 1.221(7)
loop_
_geom_hbond_atom_site_label_D
_geom_hbond_atom_site_label_H
_geom_hbond_atom_site_label_A
_geom_hbond_site_symmetry_A
_geom_hbond_distance_DH
_geom_hbond_distance_HA
_geom_hbond_distance_DA
_geom_hbond_angle_DHA
C6 H6A O3 1_454 0.87(7) 2.55(7) 3.179(6) 130(5)
C6 H6B O4 2_746 1.00(6) 2.57(6) 3.504(7) 154(5)
C14 H14 O2 1_556 0.97(4) 2.40(4) 3.128(5) 131(3)
C13 H13 O5 . 0.94(5) 2.33(5) 2.693(6) 102(3)

_cod_database_fobs_code 2021935
