#------------------------------------------------------------------------------
#$Date: 2018-02-28 09:17:24 +0200 (Wed, 28 Feb 2018) $
#$Revision: 206690 $
#$URL: file:///home/coder/svn-repositories/cod/cif/2/02/10/2021042.cif $
#------------------------------------------------------------------------------
#
# This file is available in the Crystallography Open Database (COD),
# http://www.crystallography.net/. The original data for this entry
# were provided by IUCr Journals, http://journals.iucr.org/.
#
# The file may be used within the scientific community so long as
# proper attribution is given to the journal article from which the
# data were obtained.
#
data_2021042
loop_
_publ_author_name
'Cui, Wen'
'Wang, Ruyu'
'Shu, Xi'
'Fan, Yu'
'Liu, Yang'
'Jin, Yongdong'
'Xia, Chuanqin'
'Huang, Chao'
_publ_section_title
;
 Hydrothermal synthesis, crystal structure and properties of a
 two-dimensional uranyl coordination polymer based on a flexible
 zwitterionic ligand
;
_journal_coeditor_code           FP3045
_journal_issue                   3
_journal_name_full               'Acta Crystallographica Section C'
_journal_page_first
;
;
_journal_paper_doi               10.1107/S2053229618002279
_journal_volume                  74
_journal_year                    2018
_chemical_formula_iupac          '[U2 O4 (S O4)2 (C20 H16 N2 O4)]'
_chemical_formula_moiety         'C20 H16 N2 O16 S2 U2'
_chemical_formula_sum            'C20 H16 N2 O16 S2 U2'
_chemical_formula_weight         1080.52
_chemical_name_systematic
Poly[tetraoxido{\m~2~-1,1'-[1,4-phenylenebis(methylene)]bis(pyridin-1-ium-4-carboxylate)}di-\m~3~-sulfato-diuranium(VI)]
_space_group_crystal_system      triclinic
_space_group_IT_number           2
_space_group_name_Hall           '-P 1'
_space_group_name_H-M_alt        'P -1'
_symmetry_space_group_name_Hall  '-P 1'
_symmetry_space_group_name_H-M   'P -1'
_atom_sites_solution_hydrogens   geom
_audit_creation_method
;
Olex2 1.2
(compiled 2015.09.30 svn.r3233 for OlexSys, GUI svn.r5103)
;
_cell_angle_alpha                108.581(4)
_cell_angle_beta                 90.930(3)
_cell_angle_gamma                92.396(3)
_cell_formula_units_Z            1
_cell_length_a                   6.9406(2)
_cell_length_b                   8.5527(3)
_cell_length_c                   12.7193(6)
_cell_measurement_reflns_used    4875
_cell_measurement_temperature    288.2(3)
_cell_measurement_theta_max      71.7770
_cell_measurement_theta_min      3.6570
_cell_volume                     714.70(5)
_computing_cell_refinement
;
CrysAlis PRO (Agilent, 2014)
;
_computing_data_collection
;
CrysAlis PRO (Agilent, 2014)
;
_computing_data_reduction
;
CrysAlis PRO (Agilent, 2014)
;
_computing_molecular_graphics
;
<i>OLEX2</i> (Dolomanov <i>et al.</i>,  2009)
;
_computing_publication_material
;
<i>OLEX2</i> (Dolomanov <i>et al.</i>,  2009)
;
_computing_structure_refinement
;
SHELXL2014 (Sheldrick, 2015b)
;
_computing_structure_solution
;
SHELXT (Sheldrick, 2015a)
;
_diffrn_ambient_temperature      288.2(3)
_diffrn_detector_area_resol_mean 15.9595
_diffrn_measured_fraction_theta_full 0.999
_diffrn_measured_fraction_theta_max 0.999
_diffrn_measurement_device       'four-circle diffractometer'
_diffrn_measurement_device_type
'Agilent Gemini Dual Source diffractometer with an Eos detector'
_diffrn_measurement_method       '\w scans'
_diffrn_radiation_monochromator  graphite
_diffrn_radiation_type           CuK\a
_diffrn_radiation_wavelength     1.54184
_diffrn_reflns_av_R_equivalents  0.0640
_diffrn_reflns_limit_h_max       8
_diffrn_reflns_limit_h_min       -7
_diffrn_reflns_limit_k_max       10
_diffrn_reflns_limit_k_min       -8
_diffrn_reflns_limit_l_max       15
_diffrn_reflns_limit_l_min       -15
_diffrn_reflns_number            7889
_diffrn_reflns_theta_full        66.596
_diffrn_reflns_theta_max         66.596
_diffrn_reflns_theta_min         3.668
_exptl_absorpt_coefficient_mu    33.715
_exptl_absorpt_correction_T_max  1.00000
_exptl_absorpt_correction_T_min  0.12137
_exptl_absorpt_correction_type   multi-scan
_exptl_absorpt_process_details
;
(CrysAlis PRO; Agilent, 2014)
;
_exptl_crystal_colour            'clear orangish orange'
_exptl_crystal_density_diffrn    2.511
_exptl_crystal_description       ' '
_exptl_crystal_F_000             494
_exptl_crystal_size_max          0.1
_exptl_crystal_size_mid          0.06
_exptl_crystal_size_min          0.06
_refine_diff_density_max         2.909
_refine_diff_density_min         -2.232
_refine_ls_extinction_method     none
_refine_ls_goodness_of_fit_ref   1.063
_refine_ls_hydrogen_treatment    constr
_refine_ls_matrix_type           full
_refine_ls_number_parameters     190
_refine_ls_number_reflns         2521
_refine_ls_number_restraints     0
_refine_ls_restrained_S_all      1.063
_refine_ls_R_factor_all          0.0476
_refine_ls_R_factor_gt           0.0456
_refine_ls_shift/su_max          0.000
_refine_ls_shift/su_mean         0.000
_refine_ls_structure_factor_coef Fsqd
_refine_ls_weighting_details
'w=1/[\s^2^(Fo^2^)+(0.0780P)^2^] where P=(Fo^2^+2Fc^2^)/3'
_refine_ls_weighting_scheme      calc
_refine_ls_wR_factor_gt          0.1093
_refine_ls_wR_factor_ref         0.1113
_reflns_number_gt                2372
_reflns_number_total             2521
_reflns_threshold_expression     'I > 2\s(I)'
_cod_data_source_file            fp3045sup1.cif
_cod_data_source_block           I
_cod_database_code               2021042
_shelx_space_group_comment
;
The symmetry employed for this shelxl refinement is uniquely defined
by the following loop, which should always be used as a source of
symmetry information in preference to the above space-group names.
They are only intended as comments.
;
_shelx_hkl_file
;
  -8  -2   1   60.89   14.47
  -8  -2   2  360.58   23.41
  -8  -1   1  440.50   45.62
  -8  -1   2  906.95   71.54
  -8  -1   3   27.90    6.03
  -8   0   1 1442.66   94.04
  -8   0   2   24.63   12.94
  -8   0   3  538.76   48.33
  -8   1   1   47.28   14.20
  -8   1   2  392.31   33.77
  -8   1   3  608.34   43.26
  -8   2   1  354.34   31.41
  -8   2   2  622.69   45.07
  -7  -5   2  415.16   23.03
  -7  -5   3   90.47    9.51
  -7  -4   1  550.33   30.98
  -7  -4   2   19.74    5.88
  -7  -4   3  991.00   45.56
  -7  -4   4  427.34   28.05
  -7  -4   5   94.40   10.77
  -7  -4   6  731.36   35.14
  -7  -3   1   12.86    3.90
  -7  -3   2 1099.57   44.89
  -7  -3   3  559.96   29.86
  -7  -3   4   92.46   11.18
  -7  -3   5  669.05   37.32
  -7  -3   6  167.36   16.33
  -7  -3   7  140.23   13.23
  -7  -2   1  720.94   39.46
  -7  -2   2  592.90   33.23
  -7  -2   3   67.05   10.84
  -7  -2   4  558.71   31.00
  -7  -2   5  150.15   14.79
  -7  -2   6  140.68   15.44
  -7  -2   7  628.36   44.65
  -7  -2   8   22.90    4.54
  -7  -1   1  941.81   46.05
  -7  -1   2  157.60   16.30
  -7  -1   3  890.89   50.05
  -7  -1   4  180.32   14.07
  -7  -1   5  250.57   16.29
  -7  -1   6  722.80   33.48
  -7  -1   7   28.23    6.61
  -7  -1   8  323.63   24.71
  -7   0   1  152.26   31.26
  -7   0   2  854.30   41.74
  -7   0   3  183.51   18.56
  -7   0   4  286.71   26.60
  -7   0   5  865.71   38.41
  -7   0   6   67.97    8.51
  -7   0   7  653.79   37.22
  -7   1   1 1150.58   66.62
  -7   1   2  219.33   22.35
  -7   1   3  303.65   25.92
  -7   1   4  994.59   53.42
  -7   1   5   96.59   12.17
  -7   1   6  678.21   28.29
  -7   1   7  683.97   27.20
  -7   2   1   90.71   14.57
  -7   2   2  311.09   37.82
  -7   2   3  751.26   58.60
  -7   2   4   59.95    8.73
  -7   2   5  499.48   38.34
  -7   2   6  846.14   38.61
  -7   3   1  387.68   43.39
  -7   3   2  891.65   65.94
  -7   3   3  114.51   18.74
  -7   3   4  416.32   35.83
  -7   3   5  879.18   66.08
  -7   4   1 1140.68   77.58
  -7   4   2  205.96   25.28
  -7   4   3  488.82   37.56
  -7   4   4  965.84   82.01
  -7   5   1  195.50   20.96
  -6  -6   1  749.67   34.62
  -6  -6   2   96.67   11.00
  -6  -6   3  307.69   20.54
  -6  -6   4  732.34   34.81
  -6  -6   5    6.77    3.59
  -6  -6   6  315.79   19.19
  -6  -6   7  285.91   16.44
  -6  -5   1   90.07   11.22
  -6  -5   2  429.23   27.30
  -6  -5   3  923.91   47.63
  -6  -5   4    6.54    3.36
  -6  -5   5  515.66   30.56
  -6  -5   6  454.93   28.12
  -6  -5   7    6.60    4.97
  -6  -5   8  592.07   61.56
  -6  -5   9  322.59   54.62
  -6  -4   1  443.68   26.90
  -6  -4   2 1083.32   45.79
  -6  -4   3   22.16    6.31
  -6  -4   4  978.45   43.88
  -6  -4   5  694.19   39.92
  -6  -4   6   34.89    7.29
  -6  -4   7 1001.08   48.99
  -6  -4   8  565.56   30.87
  -6  -4   9  116.38   11.08
  -6  -3   1  880.12   42.11
  -6  -3   2    9.87    6.62
  -6  -3   3 1375.64   55.99
  -6  -3   4  877.09   43.82
  -6  -3   5    8.75    5.01
  -6  -3   6 1031.55   52.50
  -6  -3   7  875.77   47.76
  -6  -3   8   55.78    7.82
  -6  -3   9 1005.05   35.40
  -6  -3  10  375.73   20.41
  -6  -2   1   59.17   10.37
  -6  -2   2 1163.90   52.93
  -6  -2   3 1067.06   49.04
  -6  -2   4   10.33    4.21
  -6  -2   5 1288.32   49.48
  -6  -2   6 1112.70   47.27
  -6  -2   7   37.51    5.60
  -6  -2   8 1179.40   43.66
  -6  -2   9  455.29   21.12
  -6  -2  10   40.18    4.83
  -6  -1   1 2000.41   77.34
  -6  -1   2 1743.64   75.66
  -6  -1   3    6.80    6.02
  -6  -1   4 1165.33   47.15
  -6  -1   5 1188.69   59.78
  -6  -1   6    2.91    6.03
  -6  -1   7 1301.95   61.61
  -6  -1   8  707.77   48.59
  -6  -1   9   40.14    6.36
  -6  -1  10  577.21   19.38
  -6   0   1 2294.98   96.77
  -6   0   2    4.09    5.63
  -6   0   3 1600.68   65.19
  -6   0   4 1320.74   71.88
  -6   0   5    3.11    6.43
  -6   0   6 1667.80  109.33
  -6   0   7  658.76   39.39
  -6   0   8   40.65    8.48
  -6   0   9  546.47   30.38
  -6   0  10  249.23   12.87
  -6   1   1    0.80    6.09
  -6   1   2 1664.47  104.48
  -6   1   3 1578.86  103.89
  -6   1   4    9.16    7.12
  -6   1   5 1302.80   89.10
  -6   1   6  779.95   44.17
  -6   1   7   28.93    7.41
  -6   1   8  729.80   38.65
  -6   1   9  196.74   23.68
  -6   2   1  986.65   71.64
  -6   2   2 1429.48  107.78
  -6   2   3   18.99    6.37
  -6   2   4 1125.03   79.54
  -6   2   5  958.52   72.48
  -6   2   6   65.85   12.04
  -6   2   7  650.61   36.21
  -6   2   8  128.04   12.72
  -6   3   1 1197.62   88.32
  -6   3   2   21.22   14.79
  -6   3   3  702.93   63.89
  -6   3   4  730.41   58.35
  -6   3   5   53.28   12.16
  -6   3   6  553.49   56.78
  -6   3   7  203.97   45.52
  -6   3   8  128.58   18.11
  -6   4   1    2.15    6.58
  -6   4   2  640.36  109.99
  -6   4   3  540.79  117.89
  -6   4   4   45.96    9.13
  -6   4   5  666.40   33.64
  -6   4   6  130.34   11.40
  -6   5   1  757.35   43.20
  -6   5   2  535.73   41.17
  -6   5   3   95.75   11.24
  -6   5   4  842.49   36.47
  -6   5   5  160.19   23.23
  -6   6   1  372.47   21.62
  -6   6   2  134.23   10.91
  -6   6   3  765.45   46.96
  -5  -7   1  212.61   12.69
  -5  -7   2  172.70   12.44
  -5  -7   3  630.81   36.55
  -5  -7   4  138.36   18.08
  -5  -7   5  236.72   24.63
  -5  -7   6  521.69   36.69
  -5  -7   7   54.79    9.79
  -5  -7   8  200.27   18.10
  -5  -6   1  103.23   10.49
  -5  -6   2  728.41   42.34
  -5  -6   3  278.67   21.82
  -5  -6   4  340.78   23.99
  -5  -6   5  984.28   47.66
  -5  -6   6  186.40   16.17
  -5  -6   7  339.25   17.63
  -5  -6   8  815.70   30.00
  -5  -6   9   82.30    8.76
  -5  -6  10  272.99   15.61
  -5  -5   1 1343.46   58.34
  -5  -5   2  572.56   30.34
  -5  -5   3  307.52   25.46
  -5  -5   4 1684.06   71.85
  -5  -5   5  423.24   31.25
  -5  -5   6  331.79   26.73
  -5  -5   7 1052.91   40.95
  -5  -5   8  100.43   10.49
  -5  -5   9  507.99   29.16
  -5  -5  10  518.89   26.32
  -5  -5  11   31.64    4.55
  -5  -4   1  454.34   29.14
  -5  -4   2  300.67   22.88
  -5  -4   3 1581.49   62.07
  -5  -4   4  300.21   32.26
  -5  -4   5  366.66   25.68
  -5  -4   6 1472.84   69.23
  -5  -4   7  316.71   20.92
  -5  -4   8  394.80   22.82
  -5  -4   9  852.70   53.94
  -5  -4  10   69.29    9.54
  -5  -4  11  507.48   25.53
  -5  -3   1  201.88   17.60
  -5  -3   2 1615.66   63.16
  -5  -3   3  616.22   33.73
  -5  -3   4  116.79   13.74
  -5  -3   5  881.14   37.83
  -5  -3   6   75.55    8.44
  -5  -3   7  547.70   29.83
  -5  -3   8  966.05   40.76
  -5  -3   9    7.14    3.45
  -5  -3  10  439.39   29.48
  -5  -3  11  301.02   28.51
  -5  -3  12    8.15    2.65
  -5  -2   1 1312.91   78.77
  -5  -2   2  370.33   24.94
  -5  -2   3  586.13   35.62
  -5  -2   4 1063.59   51.35
  -5  -2   5  100.29   14.09
  -5  -2   6  421.22   44.14
  -5  -2   7  808.03   62.76
  -5  -2   8    2.39    4.56
  -5  -2   9  304.83   24.18
  -5  -2  10  508.97   29.66
  -5  -2  11   33.39    5.98
  -5  -2  12  612.40   22.77
  -5  -1   1  818.13   66.90
  -5  -1   2  213.36   32.38
  -5  -1   3  753.25   73.03
  -5  -1   4  109.45   15.57
  -5  -1   5  694.98   58.74
  -5  -1   6 1000.01   98.43
  -5  -1   7    9.85    7.21
  -5  -1   8  962.56   85.04
  -5  -1   9  692.85   56.45
  -5  -1  10   74.96   19.08
  -5  -1  11  846.14   67.97
  -5  -1  12  425.21   21.84
  -5   0   1  587.04   82.01
  -5   0   2 1691.74  116.88
  -5   0   3  155.56   61.51
  -5   0   4 1023.96  276.91
  -5   0   5 1465.02   96.30
  -5   0   6   10.89    6.74
  -5   0   7 1062.75   57.39
  -5   0   8  886.75   48.11
  -5   0   9   27.76    6.78
  -5   0  10 1366.58   90.32
  -5   0  11  759.70   79.34
  -5   1   1 1219.60  121.89
  -5   1   2  145.46   40.38
  -5   1   3  782.04   65.87
  -5   1   4 1386.08   97.97
  -5   1   5    7.81    7.04
  -5   1   6 1598.63  102.45
  -5   1   7 1220.92   62.32
  -5   1   8    9.96    5.70
  -5   1   9 1239.02   55.60
  -5   1  10 1047.93   72.50
  -5   1  11   13.88    8.48
  -5   2   1   45.14   20.41
  -5   2   2 1006.96   53.86
  -5   2   3 1295.62   96.82
  -5   2   4   18.43   10.89
  -5   2   5 1208.92   87.66
  -5   2   6  907.74   70.13
  -5   2   7    3.70    5.62
  -5   2   8  768.86   41.75
  -5   2   9  884.44  139.62
  -5   2  10   12.13    7.11
  -5   3   1  670.36   54.08
  -5   3   2 1115.85  125.93
  -5   3   3   22.16    9.83
  -5   3   4 1169.32  172.72
  -5   3   5 1271.05   64.74
  -5   3   6    8.74    5.99
  -5   3   7  811.46   43.10
  -5   3   8  745.18  101.20
  -5   3   9    9.28    4.69
  -5   4   1 1681.52   67.97
  -5   4   2   58.23   10.86
  -5   4   3 1265.01  150.27
  -5   4   4 1681.27   77.84
  -5   4   5    1.62    3.81
  -5   4   6  678.89   54.92
  -5   4   7  673.01   57.69
  -5   4   8    3.47    5.33
  -5   5   1  133.97   19.00
  -5   5   2  726.25   44.57
  -5   5   3 1332.51   86.58
  -5   5   4   28.78   11.80
  -5   5   5  679.16   52.53
  -5   5   6  762.82   35.95
  -5   5   7    0.12    1.79
  -5   6   1  516.85   44.91
  -5   6   2 1051.42   96.73
  -5   6   3   70.04   14.11
  -5   6   4  554.96   41.05
  -5   6   5  425.20   35.05
  -5   7   1  613.57   43.38
  -5   7   2   13.74    5.44
  -5   7   3  336.89   26.04
  -4  -8   1   84.82   12.12
  -4  -8   2  418.94   30.94
  -4  -8   3  483.41   20.09
  -4  -8   4    2.85    1.93
  -4  -8   5  420.52   21.97
  -4  -8   6  389.19   20.39
  -4  -8   7    3.18    2.77
  -4  -8   8  347.93   26.10
  -4  -7   1  362.21   19.11
  -4  -7   2  513.58   24.50
  -4  -7   3   43.62    6.01
  -4  -7   4  331.49   18.30
  -4  -7   5  310.38   17.62
  -4  -7   6    5.70    4.24
  -4  -7   7  483.31   26.59
  -4  -7   8  213.36   13.33
  -4  -7   9  155.28   12.64
  -4  -7  10  480.71   25.23
  -4  -6   1  948.24   39.12
  -4  -6   2   13.05    5.01
  -4  -6   3  690.69   27.81
  -4  -6   4  475.75   21.34
  -4  -6   5    3.24    3.40
  -4  -6   6  539.56   33.69
  -4  -6   7  212.62   26.76
  -4  -6   8  109.70   18.97
  -4  -6   9  582.92   44.80
  -4  -6  10   88.68   15.09
  -4  -6  11  219.85   21.17
  -4  -6  12  611.40   36.37
  -4  -5   1    1.26    2.72
  -4  -5   2  625.99   28.67
  -4  -5   3  475.10   34.03
  -4  -5   4   37.51   10.41
  -4  -5   5  838.49   45.13
  -4  -5   6  327.22   22.76
  -4  -5   7  369.28   23.77
  -4  -5   8 1462.06   92.22
  -4  -5   9  302.87   23.79
  -4  -5  10  191.91   16.80
  -4  -5  11 1031.42   62.33
  -4  -5  12   88.26   12.15
  -4  -4   1  741.71   63.61
  -4  -4   2  858.17   65.54
  -4  -4   3   13.92    6.99
  -4  -4   4 1120.51   58.67
  -4  -4   5  749.33   31.54
  -4  -4   6  349.90   22.08
  -4  -4   7 1498.65   86.54
  -4  -4   8  186.55   15.04
  -4  -4   9  724.39   40.46
  -4  -4  10 1483.21   62.76
  -4  -4  11  125.19   12.95
  -4  -4  12  433.09   23.54
  -4  -4  13  719.88   48.63
  -4  -3   1  613.46   70.04
  -4  -3   2  110.27   21.10
  -4  -3   3 1444.29   80.85
  -4  -3   4  633.21   53.86
  -4  -3   5  423.54   45.52
  -4  -3   6 2043.25   72.34
  -4  -3   7  594.33   38.80
  -4  -3   8  368.24   39.81
  -4  -3   9 1148.43   86.32
  -4  -3  10  500.43   32.25
  -4  -3  11  480.62   29.87
  -4  -3  12  944.43   43.35
  -4  -3  13   73.28    6.21
  -4  -2   1  127.58   25.74
  -4  -2   2 1485.67   75.56
  -4  -2   3  830.96   58.11
  -4  -2   4   35.79   13.77
  -4  -2   5 1730.67   80.91
  -4  -2   6  509.54   41.19
  -4  -2   7  271.32   24.58
  -4  -2   8 1441.53   96.27
  -4  -2   9  465.00   50.75
  -4  -2  10  637.13   36.81
  -4  -2  11 1003.73   47.75
  -4  -2  12  145.74   13.89
  -4  -2  13  181.66   13.62
  -4  -1   1 2684.54  136.01
  -4  -1   2 1800.57   87.10
  -4  -1   3  152.40   18.15
  -4  -1   4 2992.05  122.39
  -4  -1   5  709.72   51.93
  -4  -1   6  318.31   34.39
  -4  -1   7 1326.84   64.98
  -4  -1   8  383.66   30.88
  -4  -1   9  114.85   16.31
  -4  -1  10  865.71   70.04
  -4  -1  11  146.43   24.68
  -4  -1  12  279.88   19.72
  -4  -1  13  502.93   26.35
  -4   0   1 2395.72   98.68
  -4   0   2  222.65   39.44
  -4   0   3 2828.60  102.89
  -4   0   4 1140.58   67.93
  -4   0   5  418.77   40.10
  -4   0   6 1693.54  117.60
  -4   0   7  473.86   34.70
  -4   0   8  260.19   24.70
  -4   0   9 1680.48   73.89
  -4   0  10   53.18   15.25
  -4   0  11  370.66   52.30
  -4   0  12  567.53   28.29
  -4   1   1    8.56   16.36
  -4   1   2 2489.44  167.46
  -4   1   3 1649.32  123.29
  -4   1   4  539.47   65.85
  -4   1   5 1792.99  116.47
  -4   1   6  372.56   37.11
  -4   1   7  284.46   20.79
  -4   1   8  997.35   44.01
  -4   1   9   17.83    5.08
  -4   1  10  550.57   50.82
  -4   1  11  539.11   30.26
  -4   1  12    0.07    1.99
  -4   2   1 1526.40  106.95
  -4   2   2 1220.02   98.19
  -4   2   3  180.23   37.98
  -4   2   4 1294.58  134.41
  -4   2   5  456.02   39.60
  -4   2   6  147.05   19.19
  -4   2   7  843.98   46.52
  -4   2   8   55.70   16.17
  -4   2   9  749.29   42.95
  -4   2  10  744.62   38.65
  -4   2  11    9.25    3.75
  -4   3   1  988.26   87.29
  -4   3   2   13.24   10.83
  -4   3   3  829.83  106.04
  -4   3   4  236.49   23.65
  -4   3   5  301.14   26.64
  -4   3   6  830.89   69.23
  -4   3   7  101.29   16.64
  -4   3   8  604.09   36.14
  -4   3   9  789.38   40.73
  -4   3  10    4.31    4.48
  -4   4   1  163.00   37.20
  -4   4   2 1314.72   70.82
  -4   4   3  341.46   29.84
  -4   4   4  219.24   22.91
  -4   4   5  677.68   59.73
  -4   4   6   94.69   20.14
  -4   4   7  717.45   40.11
  -4   4   8  851.70   40.65
  -4   4   9    0.08    4.79
  -4   5   1 1128.31   64.68
  -4   5   2  138.84   18.73
  -4   5   3  720.29   62.49
  -4   5   4 1491.23   95.53
  -4   5   5   61.28   15.31
  -4   5   6  749.37   38.09
  -4   5   7  884.53   66.77
  -4   5   8   19.14    5.93
  -4   6   1  298.98   33.50
  -4   6   2  402.93   39.60
  -4   6   3 1158.14   74.72
  -4   6   4   55.14   12.47
  -4   6   5  445.14   35.72
  -4   6   6  850.61   51.13
  -4   7   1  362.72   33.45
  -4   7   2  916.29   57.81
  -4   7   3  148.44   18.17
  -4   7   4  320.53   25.88
  -4   8   1  707.73   43.07
  -4   8   2  152.03   14.80
  -3  -9   1   49.89    7.10
  -3  -9   2  523.04   38.97
  -3  -9   3  126.96    9.87
  -3  -9   4  184.44   12.59
  -3  -9   5  566.89   25.01
  -3  -9   6   35.91    5.69
  -3  -9   7  249.77   12.39
  -3  -8   1  555.54   27.22
  -3  -8   2   85.81    9.26
  -3  -8   3  213.36   15.64
  -3  -8   4  779.87   36.45
  -3  -8   5   53.11    6.15
  -3  -8   6  304.09   18.99
  -3  -8   7  623.03   30.91
  -3  -8   8   15.84    3.92
  -3  -8   9  556.85   26.50
  -3  -8  10  488.36   22.86
  -3  -7   1  223.97   15.23
  -3  -7   2  379.05   20.89
  -3  -7   3 1191.51   43.51
  -3  -7   4   58.41    7.48
  -3  -7   5  527.40   24.78
  -3  -7   6 1052.23   50.92
  -3  -7   7   35.19    7.41
  -3  -7   8  574.66   32.04
  -3  -7   9  700.42   49.11
  -3  -7  10   29.24    8.47
  -3  -7  11  257.86   23.40
  -3  -7  12  257.29   14.36
  -3  -6   1  691.92   29.39
  -3  -6   2 1272.98   57.83
  -3  -6   3  144.55   16.42
  -3  -6   4  594.13   86.78
  -3  -6   5 1425.13   88.00
  -3  -6   6  145.83   22.53
  -3  -6   7  717.37   56.50
  -3  -6   8 1352.00   87.92
  -3  -6   9    6.50    4.99
  -3  -6  10  596.18   45.98
  -3  -6  11  721.12   48.86
  -3  -6  12    2.38    2.25
  -3  -6  13  261.49   20.56
  -3  -5   1 1716.40  163.42
  -3  -5   2  598.17   39.28
  -3  -5   3  976.72   57.17
  -3  -5   4 2209.02  105.07
  -3  -5   5  402.45   42.27
  -3  -5   6  980.60   72.96
  -3  -5   7 1777.32  110.33
  -3  -5   8   49.67   16.31
  -3  -5   9  506.46   49.58
  -3  -5  10  755.47   57.48
  -3  -5  11    7.10    6.46
  -3  -5  12  691.65   48.87
  -3  -5  13  175.46   13.33
  -3  -4   1  340.93   28.09
  -3  -4   2 1371.57   71.08
  -3  -4   3 2364.67   94.92
  -3  -4   4  659.13   48.02
  -3  -4   5  822.09   69.71
  -3  -4   6 1751.58   79.39
  -3  -4   7   63.55   18.69
  -3  -4   8  777.31   61.86
  -3  -4   9 1036.06  166.84
  -3  -4  10   39.00    9.00
  -3  -4  11  701.56   39.83
  -3  -4  12  270.57   21.07
  -3  -4  13   64.51   11.23
  -3  -4  14  378.98   33.10
  -3  -3   1 1126.20   49.48
  -3  -3   2 3227.79  100.48
  -3  -3   3  865.58   54.24
  -3  -3   4  603.86   38.08
  -3  -3   5 2339.61   94.63
  -3  -3   6   65.55   24.03
  -3  -3   7  798.95   70.17
  -3  -3   8  747.51   59.21
  -3  -3   9    6.68    5.39
  -3  -3  10  887.44   47.15
  -3  -3  11  241.72   16.59
  -3  -3  12  156.78   11.82
  -3  -3  13  544.05   26.76
  -3  -3  14  146.19    9.52
  -3  -2   1 4227.22   98.91
  -3  -2   2  667.52   40.60
  -3  -2   3  903.69   48.84
  -3  -2   4 3016.05   96.53
  -3  -2   5    8.68   11.62
  -3  -2   6 1031.36   64.71
  -3  -2   7  609.14   66.92
  -3  -2   8    0.32   22.70
  -3  -2   9  559.45   57.24
  -3  -2  10  353.17   25.03
  -3  -2  11  163.40   12.70
  -3  -2  12  675.77   27.94
  -3  -2  13  168.91   11.42
  -3  -2  14  117.04   16.33
  -3  -1   1  958.20   34.20
  -3  -1   2 1157.32   49.90
  -3  -1   3 2993.21  105.02
  -3  -1   4   51.07    9.14
  -3  -1   5 2521.01  118.35
  -3  -1   6 1638.77   83.26
  -3  -1   7   55.19   20.09
  -3  -1   8  979.46   75.92
  -3  -1   9 1130.43  153.17
  -3  -1  10  367.68   30.06
  -3  -1  11 1148.63   48.53
  -3  -1  12  268.51   15.75
  -3  -1  13  111.55    8.63
  -3   0   1 1526.10   45.95
  -3   0   2 4980.66  159.56
  -3   0   3  901.99   48.54
  -3   0   4 3349.76  126.02
  -3   0   5 2089.30   97.54
  -3   0   6    2.62    4.88
  -3   0   7 1990.57  121.32
  -3   0   8 1014.28   51.41
  -3   0   9  387.02   24.54
  -3   0  10 1335.44   88.81
  -3   0  11  614.53   36.41
  -3   0  12   87.52    6.22
  -3   0  13  877.98   37.68
  -3   1   1 3327.83   94.67
  -3   1   2    4.36    8.38
  -3   1   3 4222.08  191.29
  -3   1   4 2265.53   80.88
  -3   1   5    3.65    7.74
  -3   1   6 1663.49  198.24
  -3   1   7 1623.89  179.61
  -3   1   8   13.83    9.78
  -3   1   9 1654.96   82.78
  -3   1  10  659.31   47.26
  -3   1  11   99.62   14.07
  -3   1  12  947.55   32.58
  -3   1  13  254.85   12.24
  -3   2   1  162.69   15.34
  -3   2   2 1908.98   79.84
  -3   2   3 2405.03  131.47
  -3   2   4   31.01   14.02
  -3   2   5 1463.20   92.30
  -3   2   6 1129.02   85.02
  -3   2   7   30.32   12.45
  -3   2   8 2042.88   87.88
  -3   2   9  511.82   34.28
  -3   2  10   31.42    7.69
  -3   2  11  604.02   33.48
  -3   2  12  261.47   21.22
  -3   3   1 2398.76  106.64
  -3   3   2 2934.24  172.23
  -3   3   3  141.77   20.41
  -3   3   4 1934.56  114.22
  -3   3   5 1491.17  300.23
  -3   3   6   45.89   15.11
  -3   3   7  961.06   51.98
  -3   3   8  462.59   31.23
  -3   3   9   55.98   10.04
  -3   3  10  520.67   32.99
  -3   3  11  282.74   25.95
  -3   4   1 2739.79  130.47
  -3   4   2    0.49   14.83
  -3   4   3 1437.70   79.73
  -3   4   4 1382.45   96.07
  -3   4   5   14.78    9.63
  -3   4   6 1410.63   90.59
  -3   4   7  832.00   44.59
  -3   4   8   97.54   17.98
  -3   4   9  600.23   44.54
  -3   4  10  335.51   27.38
  -3   5   1   24.02   13.01
  -3   5   2 1868.59   81.29
  -3   5   3 1780.14  109.05
  -3   5   4   55.52   15.35
  -3   5   5  780.79   60.91
  -3   5   6  826.10   58.52
  -3   5   7   52.57   11.70
  -3   5   8  601.93   42.30
  -3   5   9  175.61   17.12
  -3   6   1 1073.90   51.20
  -3   6   2 1065.54   72.34
  -3   6   3   15.15    7.42
  -3   6   4  654.15   49.25
  -3   6   5  687.81   49.34
  -3   6   6   89.88   14.37
  -3   6   7  584.99   37.22
  -3   7   1  749.62   53.67
  -3   7   2    2.12    4.41
  -3   7   3  496.60   37.56
  -3   7   4  329.06   27.69
  -3   7   5   32.53    7.19
  -3   7   6  303.80   21.58
  -3   8   1    4.37    4.06
  -3   8   2  342.44   26.67
  -3   8   3  217.32   17.90
  -2  -9   1  562.59   25.06
  -2  -9   2    2.84    1.50
  -2  -9   3  631.12   22.63
  -2  -9   4  541.85   21.60
  -2  -9   5   22.75    3.77
  -2  -9   6  633.38   28.70
  -2  -9   7  372.75   20.29
  -2  -9   8   40.05    5.70
  -2  -9   9  490.82   22.74
  -2  -8   1   15.11    4.53
  -2  -8   2  505.44   22.80
  -2  -8   3  646.62   31.79
  -2  -8   4    1.91    3.11
  -2  -8   5  769.37   37.12
  -2  -8   6  458.31   26.10
  -2  -8   7   62.74    8.70
  -2  -8   8  622.67   31.79
  -2  -8   9  161.95   18.87
  -2  -8  10  165.33   18.02
  -2  -8  11  330.93   24.78
  -2  -7   1  688.12   23.25
  -2  -7   2  525.04   25.66
  -2  -7   3    3.66    3.19
  -2  -7   4  668.92   36.67
  -2  -7   5  381.64   20.94
  -2  -7   6   29.83    9.05
  -2  -7   7  504.92   36.72
  -2  -7   8  216.78   26.42
  -2  -7   9  209.36   25.12
  -2  -7  10  537.70   42.05
  -2  -7  11   73.02   12.78
  -2  -7  12  288.32   24.12
  -2  -7  13  410.83   18.31
  -2  -6   1  556.42   36.99
  -2  -6   2    0.17    3.60
  -2  -6   3  949.80   47.56
  -2  -6   4  427.41   38.89
  -2  -6   5  102.91   17.99
  -2  -6   6  897.60   66.12
  -2  -6   7  160.70   24.60
  -2  -6   8  442.98   43.37
  -2  -6   9  757.14   59.59
  -2  -6  10  105.97   18.10
  -2  -6  11  344.19   22.45
  -2  -6  12  639.81   37.51
  -2  -6  13    1.80    1.63
  -2  -5   1  109.02   15.73
  -2  -5   2 2038.82   69.96
  -2  -5   3  679.72   39.28
  -2  -5   4  226.82   23.23
  -2  -5   5 1453.80   66.16
  -2  -5   6  204.10   23.43
  -2  -5   7  627.07   43.37
  -2  -5   8 1560.81  100.32
  -2  -5   9  171.24   28.51
  -2  -5  10  604.61   34.75
  -2  -5  11 1092.07   42.54
  -2  -5  12   18.63    4.46
  -2  -5  13  422.52   19.57
  -2  -5  14  503.69   38.48
  -2  -4   1  866.53   38.01
  -2  -4   2 1227.27   54.12
  -2  -4   3  476.96   33.75
  -2  -4   4 3227.74  118.25
  -2  -4   5  756.28   47.91
  -2  -4   6 1202.69   63.81
  -2  -4   7 3228.64  132.57
  -2  -4   8  168.52   28.99
  -2  -4   9  811.54   50.67
  -2  -4  10 1605.50   58.72
  -2  -4  11   84.95    9.75
  -2  -4  12  820.02   33.67
  -2  -4  13  763.80   30.28
  -2  -4  14   17.72    3.68
  -2  -3   1 2320.50   68.55
  -2  -3   2  723.48   33.68
  -2  -3   3 2375.07   98.12
  -2  -3   4  825.16   40.95
  -2  -3   5 1289.40   55.68
  -2  -3   6 3108.35   98.14
  -2  -3   7  414.53   31.57
  -2  -3   8  520.01   50.65
  -2  -3   9 1519.29   57.24
  -2  -3  10  127.26   12.92
  -2  -3  11  841.58   35.92
  -2  -3  12  854.05   34.14
  -2  -3  13   38.81    6.12
  -2  -3  14  350.76   21.00
  -2  -2   1 1173.99   39.52
  -2  -2   2 2192.49   59.46
  -2  -2   3 1246.66   47.07
  -2  -2   4  563.73   32.44
  -2  -2   5 2963.17   88.11
  -2  -2   6  595.12   44.12
  -2  -2   7  998.26   68.72
  -2  -2   8 2322.87  101.46
  -2  -2   9  498.07   42.58
  -2  -2  10  565.00   44.19
  -2  -2  11  950.15   37.73
  -2  -2  12   76.98    7.57
  -2  -2  13  290.87   20.67
  -2  -2  14  380.79   21.59
  -2  -1   1 7038.90  122.39
  -2  -1   2 1925.72   93.45
  -2  -1   3  832.72   52.07
  -2  -1   4 5375.93  135.60
  -2  -1   5  751.19   30.77
  -2  -1   6  826.96   38.95
  -2  -1   7 1994.16   89.98
  -2  -1   8  328.84   32.15
  -2  -1   9  565.22   35.79
  -2  -1  10  690.63   42.48
  -2  -1  11   11.01    5.73
  -2  -1  12  390.28   21.54
  -2  -1  13  563.02   32.42
  -2  -1  14    2.68    2.13
  -2   0   1 2950.16   76.50
  -2   0   2 1100.21   68.11
  -2   0   3 5888.31  462.56
  -2   0   4  472.99   31.73
  -2   0   5 2129.58   79.98
  -2   0   6 3918.67  162.35
  -2   0   7  592.75   59.02
  -2   0   8  461.56   46.21
  -2   0   9 1341.93   70.44
  -2   0  10   17.46    7.12
  -2   0  11  435.89   30.22
  -2   0  12  404.45   21.04
  -2   0  13   14.75    3.13
  -2   0  14  626.92   25.89
  -2   1   1  283.17   17.19
  -2   1   2 4032.26   92.10
  -2   1   3 2085.50   60.10
  -2   1   4 1396.10   43.57
  -2   1   5 3228.80   99.74
  -2   1   6  481.77   45.02
  -2   1   7  844.88   95.81
  -2   1   8 1585.78  119.40
  -2   1   9  154.77   14.34
  -2   1  10  852.35   37.45
  -2   1  11  623.49   53.12
  -2   1  12    1.68    3.55
  -2   1  13  648.55   28.79
  -2   2   1 2430.74   82.94
  -2   2   2 1478.31   82.48
  -2   2   3 1241.02   68.95
  -2   2   4 1884.30   61.45
  -2   2   5  398.02   42.95
  -2   2   6  585.36   55.44
  -2   2   7 1056.77   91.55
  -2   2   8    6.13    4.27
  -2   2   9  469.55   25.58
  -2   2  10  551.29   26.94
  -2   2  11   13.90    5.74
  -2   2  12  743.64   49.88
  -2   3   1  404.87   33.24
  -2   3   2  370.68   33.54
  -2   3   3 1021.66   49.81
  -2   3   4  227.73   32.62
  -2   3   5  346.74   35.79
  -2   3   6  838.84   56.01
  -2   3   7   16.93    6.50
  -2   3   8 1353.28   61.80
  -2   3   9  712.35   75.67
  -2   3  10    1.38    3.63
  -2   3  11  626.57   42.98
  -2   4   1  478.00   37.35
  -2   4   2 2064.37   96.87
  -2   4   3   39.86   18.29
  -2   4   4  738.08   63.03
  -2   4   5  972.71   63.56
  -2   4   6    7.84    8.72
  -2   4   7 1062.18   51.36
  -2   4   8  478.76   30.20
  -2   4   9    0.05    4.71
  -2   4  10  577.21   75.09
  -2   5   1 1762.00   97.37
  -2   5   2    0.37   11.28
  -2   5   3  855.97   46.96
  -2   5   4 1089.46   52.81
  -2   5   5   19.09    6.24
  -2   5   6 1143.50   53.96
  -2   5   7 1002.48   45.80
  -2   5   8    7.70    2.87
  -2   5   9  666.18   66.50
  -2   6   1   80.50    8.64
  -2   6   2  779.31   34.16
  -2   6   3 1147.43   53.22
  -2   6   4   11.77    5.09
  -2   6   5  992.34   44.74
  -2   6   6  951.76   42.94
  -2   6   7    5.44    2.89
  -2   6   8  472.87   21.22
  -2   7   1  605.10   23.83
  -2   7   2  952.76   36.08
  -2   7   3   68.23    9.18
  -2   7   4  390.38   22.76
  -2   7   5  730.55   31.36
  -2   7   6    1.63    1.28
  -2   8   1  673.78   50.91
  -2   8   2   43.86    9.54
  -2   8   3  343.05   26.62
  -2   8   4  540.44   32.59
  -2   9   1   57.48    8.09
  -1 -10   4   22.65    3.00
  -1 -10   5  243.43   10.88
  -1 -10   6  354.67   13.72
  -1  -9   1  177.94    7.73
  -1  -9   2  463.86   19.28
  -1  -9   3   58.37    5.84
  -1  -9   4  212.04   14.85
  -1  -9   5  476.18   25.29
  -1  -9   6    8.05    3.11
  -1  -9   7  566.37   27.36
  -1  -9   8  389.13   20.88
  -1  -9   9   20.43    3.99
  -1  -9  10  619.61   32.54
  -1  -8   1  409.99   16.94
  -1  -8   2    9.64    3.72
  -1  -8   3  562.67   31.13
  -1  -8   4  877.96   53.97
  -1  -8   5    4.05    2.56
  -1  -8   6  654.94   34.05
  -1  -8   7  493.35   28.25
  -1  -8   8   14.19    3.89
  -1  -8   9  598.22   29.88
  -1  -8  10  401.66   24.43
  -1  -8  11    7.55    2.51
  -1  -8  12  545.87   59.77
  -1  -7   1   90.05   16.77
  -1  -7   2  338.64   22.58
  -1  -7   3  734.71   38.33
  -1  -7   4    9.74    6.38
  -1  -7   5  839.08   58.24
  -1  -7   6  710.95   38.26
  -1  -7   7   21.45    5.15
  -1  -7   8  945.59   45.72
  -1  -7   9  720.04   36.90
  -1  -7  10   58.62    8.88
  -1  -7  11  633.61   31.78
  -1  -7  12  204.22   10.06
  -1  -7  13   41.66    5.58
  -1  -6   1  702.91   39.03
  -1  -6   2 1642.41   71.15
  -1  -6   3   85.77   15.04
  -1  -6   4 1603.19   65.49
  -1  -6   5 1354.95   65.61
  -1  -6   6    5.88    4.62
  -1  -6   7  809.29   41.87
  -1  -6   8  866.75   45.46
  -1  -6   9   31.22    8.07
  -1  -6  10  807.84   35.01
  -1  -6  11  459.23   23.23
  -1  -6  12   59.04    7.07
  -1  -6  13  454.67   19.49
  -1  -6  14  129.47    9.79
  -1  -5   1 1733.87   72.88
  -1  -5   2  267.93   22.91
  -1  -5   3 1892.63   77.40
  -1  -5   4 2097.21   80.46
  -1  -5   5   32.13   11.47
  -1  -5   6 1522.42   74.60
  -1  -5   7 1927.63   88.86
  -1  -5   8    0.02   12.57
  -1  -5   9 1161.86   46.51
  -1  -5  10  533.36   29.25
  -1  -5  11  124.52   18.20
  -1  -5  12 1015.47   43.61
  -1  -5  13  221.82   17.51
  -1  -5  14  188.18   14.06
  -1  -4   1  498.12   23.76
  -1  -4   2 3538.69  100.06
  -1  -4   3 3585.73  101.43
  -1  -4   4   51.23   12.10
  -1  -4   5 1323.30   73.64
  -1  -4   6 1197.68   58.19
  -1  -4   7   28.91    7.81
  -1  -4   8 1331.07   65.28
  -1  -4   9  614.38   41.24
  -1  -4  10  103.66   13.53
  -1  -4  11  833.95   48.18
  -1  -4  12  107.54   11.31
  -1  -4  13  295.56   17.57
  -1  -4  14  713.86   27.59
  -1  -4  15   53.60    6.06
  -1  -3   1 1770.65   62.74
  -1  -3   2 2080.51   97.93
  -1  -3   3   10.95    6.21
  -1  -3   4 1303.15   43.89
  -1  -3   5  945.23   38.53
  -1  -3   6    6.80    3.77
  -1  -3   7 2288.22   81.51
  -1  -3   8  480.38   37.19
  -1  -3   9  331.69   31.44
  -1  -3  10  934.03   50.74
  -1  -3  11  224.64   17.51
  -1  -3  12  288.53   18.81
  -1  -3  13  979.95   37.48
  -1  -3  14   76.84    7.56
  -1  -3  15  266.30   20.41
  -1  -2   1 7591.37  533.38
  -1  -2   2  105.14    8.94
  -1  -2   3 1547.23   41.94
  -1  -2   4  883.20   34.72
  -1  -2   5  194.78   15.92
  -1  -2   6 3123.05   75.08
  -1  -2   7  349.24   21.20
  -1  -2   8  347.87   24.27
  -1  -2   9 1025.68   54.18
  -1  -2  10  126.25   11.56
  -1  -2  11  644.07   30.72
  -1  -2  12 1105.96   42.21
  -1  -2  13   70.32    8.29
  -1  -2  14  421.01   19.34
  -1  -1   1   98.72    5.45
  -1  -1   2 1370.36   46.87
  -1  -1   3 1340.14   39.10
  -1  -1   4  121.80    6.98
  -1  -1   5 2892.64   73.28
  -1  -1   6 1663.16   54.01
  -1  -1   7  469.86   28.53
  -1  -1   8 2435.98   76.14
  -1  -1   9  368.28   28.88
  -1  -1  10  621.68   38.53
  -1  -1  11 1510.52   53.50
  -1  -1  12  319.13   19.27
  -1  -1  13  353.88   18.95
  -1  -1  14  734.67   27.28
  -1   0   1 2887.15   93.30
  -1   0   2 2439.76   91.64
  -1   0   3  160.78   18.02
  -1   0   4 4356.20   87.18
  -1   0   5 2643.15   92.16
  -1   0   6 1015.06   47.70
  -1   0   7 3263.95  128.01
  -1   0   8  659.07   66.84
  -1   0   9  797.54   46.36
  -1   0  10 1888.13   64.65
  -1   0  11  303.77   30.38
  -1   0  12  608.39   32.68
  -1   0  13 1266.39   47.95
  -1   0  14  143.73   11.07
  -1   1   1 1524.68   47.80
  -1   1   2  422.92   26.24
  -1   1   3 3944.84  123.32
  -1   1   4 1485.75   46.72
  -1   1   5  888.00   40.34
  -1   1   6 3381.71  112.38
  -1   1   7  679.02   46.37
  -1   1   8  497.07   41.62
  -1   1   9 1594.22   56.76
  -1   1  10  567.94   29.53
  -1   1  11  307.45   34.91
  -1   1  12 1100.30   69.01
  -1   1  13  121.16   10.99
  -1   2   1  719.92   31.22
  -1   2   2 2789.28   70.09
  -1   2   3 1381.83   89.70
  -1   2   4  555.68   64.05
  -1   2   5 3562.03  220.76
  -1   2   6  735.64   46.63
  -1   2   7  244.28   26.80
  -1   2   8 1844.25   96.18
  -1   2   9  287.46   23.38
  -1   2  10  367.68   25.86
  -1   2  11  913.74   47.88
  -1   2  13  264.66   14.69
  -1   3   1 1726.01   55.78
  -1   3   2 2116.86   62.90
  -1   3   3  533.03   31.53
  -1   3   4 3609.14  214.52
  -1   3   5 1072.83   77.43
  -1   3   6  226.44   24.44
  -1   3   7 1301.80   60.99
  -1   3   8  129.19   15.18
  -1   3   9  150.36   15.75
  -1   3  10  816.86   40.94
  -1   3  11  133.62   12.47
  -1   3  12  219.37   18.89
  -1   4   1 2477.23   86.34
  -1   4   2  146.89   16.07
  -1   4   3 2472.59   98.08
  -1   4   4 1288.51   98.67
  -1   4   5  108.84   21.44
  -1   4   6 1120.76   52.65
  -1   4   7  564.77   35.07
  -1   4   8  190.52   18.36
  -1   4   9 1032.99   45.78
  -1   4  10   70.61    9.18
  -1   4  11  223.67   19.14
  -1   5   1   10.42   10.54
  -1   5   2 2052.77   84.50
  -1   5   3 1175.22   75.67
  -1   5   4   78.40    9.27
  -1   5   5  980.61   48.46
  -1   5   6  364.27   25.14
  -1   5   7  456.05   22.35
  -1   5   8  723.95   83.76
  -1   5   9   90.20    8.80
  -1   5  10  189.45   30.11
  -1   6   1 1348.77   46.09
  -1   6   2  570.76   27.67
  -1   6   3   63.88    8.43
  -1   6   4  751.44   56.24
  -1   6   5  252.75   19.12
  -1   6   6  170.08   14.35
  -1   6   7  488.97   45.67
  -1   6   8   84.37   12.26
  -1   7   1  488.16   24.12
  -1   7   2   32.76    5.59
  -1   7   3  529.79   41.10
  -1   7   4  109.98   16.49
  -1   7   5  250.91   17.07
  -1   7   6  567.63   25.40
  -1   7   7   19.63    3.33
  -1   8   1   61.06    6.55
  -1   8   2  539.06   38.10
  -1   8   3  133.23   15.33
  -1   8   4  128.95    9.75
  -1   8   5  389.94   17.87
  -1   9   1  415.69   28.14
  -1   9   2  130.44    8.97
   0 -10   3   34.58    4.21
   0 -10   4  687.69   23.10
   0 -10   5  356.92   18.51
   0 -10   6   49.58   12.02
   0 -10   7  395.82   69.40
   0  -9   1  553.85   18.16
   0  -9   2   43.96    4.36
   0  -9   3  699.65   31.34
   0  -9   4  414.53   32.08
   0  -9   5  195.63   12.01
   0  -9   6  904.67   31.74
   0  -9   7  274.14   14.14
   0  -9   8   91.84    7.54
   0  -9   9  496.98   33.74
   0  -9  10   74.47   10.35
   0  -8   1   34.04    5.49
   0  -8   2  823.83   35.89
   0  -8   3  692.78   28.79
   0  -8   4   24.75    6.25
   0  -8   5  710.87   29.32
   0  -8   6  295.48   17.02
   0  -8   7  119.26   10.15
   0  -8   8  569.19   33.72
   0  -8   9   93.70    9.67
   0  -8  10  450.59   24.50
   0  -8  11  415.43   22.16
   0  -8  12    2.22    1.79
   0  -7   1  703.71   33.53
   0  -7   2  487.09   30.98
   0  -7   3   53.54    6.78
   0  -7   4 1233.15   43.94
   0  -7   5  259.54   17.23
   0  -7   6  110.95   12.90
   0  -7   7  518.87   30.17
   0  -7   8  145.42   15.49
   0  -7   9  264.94   14.78
   0  -7  10  329.14   22.70
   0  -7  11   22.25    7.08
   0  -7  12  374.21   26.38
   0  -7  13  377.03   30.90
   0  -6   1  735.38   45.36
   0  -6   2  143.93   18.92
   0  -6   3 1644.66   78.77
   0  -6   4  270.39   29.99
   0  -6   5  213.61   23.71
   0  -6   6  694.20   52.14
   0  -6   7   77.55   10.99
   0  -6   8  578.60   29.84
   0  -6   9 1100.13   43.30
   0  -6  10   13.59    3.85
   0  -6  11  701.24   30.07
   0  -6  12  435.19   30.84
   0  -6  13    5.56    3.67
   0  -6  14  554.45   25.08
   0  -5   1  188.93   17.65
   0  -5   2 3587.82  132.59
   0  -5   3 1160.09   52.74
   0  -5   4 1280.97   57.36
   0  -5   5 2537.07  100.17
   0  -5   6  199.52   19.65
   0  -5   7 1104.17   65.64
   0  -5   8 1824.23   87.65
   0  -5   9   14.26    4.44
   0  -5  10  846.85   33.73
   0  -5  11  777.84   54.65
   0  -5  12    4.76    4.24
   0  -5  13  644.96   28.72
   0  -5  14  491.61   32.42
   0  -4   1 4349.38  152.12
   0  -4   2 1906.32   55.71
   0  -4   3 2102.20   66.96
   0  -4   4 3422.45   93.21
   0  -4   5  429.13   30.60
   0  -4   6 1528.84   55.33
   0  -4   7 4302.84  104.33
   0  -4   8  155.21   22.44
   0  -4   9 1220.09   70.41
   0  -4  10 1276.52   51.59
   0  -4  11    5.96    4.35
   0  -4  12  972.84   39.04
   0  -4  13  927.17   36.55
   0  -4  14   15.82    4.09
   0  -4  15  406.32   16.50
   0  -3   1 2513.23   53.95
   0  -3   2 1885.20   62.83
   0  -3   3 4228.67  164.92
   0  -3   4  503.18   19.72
   0  -3   5 1332.49   39.83
   0  -3   6 5137.00  129.15
   0  -3   7  300.06   23.00
   0  -3   8 1341.69   67.59
   0  -3   9 1494.70  108.49
   0  -3  10   51.84    7.96
   0  -3  11  776.12   35.42
   0  -3  12  840.56   35.41
   0  -3  13    4.57    2.99
   0  -3  14  458.14   21.14
   0  -3  15  179.26   10.18
   0  -2   1 6407.58  235.48
   0  -2   2 6609.00  581.68
   0  -2   3  967.10   34.88
   0  -2   4  478.51   21.34
   0  -2   5 3347.48   81.40
   0  -2   6 1210.97   44.74
   0  -2   7 1090.39   43.63
   0  -2   8 2039.40   60.79
   0  -2   9  133.81   18.39
   0  -2  10  442.59   24.10
   0  -2  11  813.40   36.10
   0  -2  12   31.26    5.72
   0  -2  13  534.13   24.81
   0  -2  14  246.13   14.18
   0  -2  15   25.47    3.43
   0  -1   1 8586.84  226.76
   0  -1   2  824.17   31.82
   0  -1   3 3343.84   81.94
   0  -1   4 6602.32  174.54
   0  -1   5 1928.25   50.57
   0  -1   6 3668.35   92.19
   0  -1   7 2635.40   74.69
   0  -1   8  111.04   12.04
   0  -1   9  400.98   29.19
   0  -1  10  854.42   39.05
   0  -1  11    9.18    4.18
   0  -1  12  627.24   36.50
   0  -1  13  195.71   16.37
   0  -1  14   56.71    8.81
   0   0   1 3743.74  133.22
   0   0   2 2826.49   72.95
   0   0   3 7124.37  192.65
   0   0   4 1940.04   47.08
   0   0   5 3061.28   88.66
   0   0   6 3420.25   88.87
   0   0   7  216.35   22.23
   0   0   8  858.32   46.93
   0   0   9  826.74   48.14
   0   0  10   13.64    4.96
   0   0  12  293.27   21.23
   0   0  13   92.19    8.36
   0   0  14  500.16   24.21
   0   1   0 1031.00   46.13
   0   1   1 1243.57   71.10
   0   1   2 6158.50   95.32
   0   1   3 1986.42   73.93
   0   1   4 2327.39   57.65
   0   1   5 6925.19  151.33
   0   1   6  293.31   22.01
   0   1   7  957.42   44.80
   0   1   8  949.61   55.36
   0   1   9    3.70   11.97
   0   1  10  985.70   47.69
   0   1  11  489.09   31.51
   0   1  12  189.47   16.66
   0   1  13  643.17   24.43
   0   2   0 1373.19   97.67
   0   2   1 3942.21  109.23
   0   2   2 1725.42   68.19
   0   2   3  521.81   17.42
   0   2   4 3573.55  152.82
   0   2   5   67.33    9.50
   0   2   6  665.62   39.81
   0   2   7  672.25   39.59
   0   2   8    8.12    7.63
   0   2   9  788.01   42.66
   0   2  10  466.56   28.87
   0   2  11  153.25   14.22
   0   2  12  757.51   37.86
   0   2  13  196.01   10.03
   0   3   0 1798.80   71.74
   0   3   1  208.76   18.92
   0   3   2  898.34   41.71
   0   3   3 2880.59   81.33
   0   3   4  254.31   26.82
   0   3   5  626.76   43.22
   0   3   6  484.49   34.21
   0   3   7    8.36    5.47
   0   3   8  823.09   52.28
   0   3   9  778.68   40.93
   0   3  10   54.89    9.07
   0   3  11  662.59   45.17
   0   3  12  173.47    9.96
   0   4   0  322.30   26.50
   0   4   1  673.51   36.75
   0   4   2 2476.76   82.46
   0   4   3   32.00    9.63
   0   4   4 1597.83  107.65
   0   4   5  807.81   71.32
   0   4   6    4.66    7.47
   0   4   7 1158.25   42.30
   0   4   8  424.54   28.14
   0   4   9   86.02   11.05
   0   4  10  729.56   65.84
   0   4  11  280.82   19.60
   0   5   0 1207.50   49.46
   0   5   1 2756.31   87.88
   0   5   2   25.53    7.85
   0   5   3 1547.92   71.43
   0   5   4 1093.57   41.69
   0   5   5   30.67    8.62
   0   5   6 1126.89   53.84
   0   5   7  738.93   43.27
   0   5   8    6.38    4.35
   0   5   9  898.79   55.30
   0   5  10  285.99   14.94
   0   6   0 1149.93   48.89
   0   6   1   37.28    7.00
   0   6   2 1137.07   52.72
   0   6   3 1297.13   48.11
   0   6   4    5.18    5.76
   0   6   5  853.84   56.95
   0   6   6  941.60   43.19
   0   6   7   36.22    6.53
   0   6   8  761.53   30.67
   0   7   0   55.89    6.97
   0   7   1  896.13   33.96
   0   7   2 1076.59   39.36
   0   7   3    2.00    2.31
   0   7   4  635.86   31.70
   0   7   5  695.31   31.49
   0   7   6    8.30    2.88
   0   7   7  363.31   17.26
   0   8   0  652.05   44.22
   0   8   1  810.39   29.32
   0   8   2    9.67    2.44
   0   8   3  442.74   22.59
   0   8   4  513.74   23.26
   0   8   5    2.99    1.80
   0   9   0  805.66   23.66
   0   9   1    6.63    3.48
   0   9   2  456.44   20.19
   1 -10   3  270.04   19.84
   1 -10   4    4.10    1.46
   1 -10   5  270.12   17.02
   1 -10   6  225.86   12.77
   1 -10   7   17.93    4.62
   1  -9   0   41.02    5.64
   1  -9   1  278.30   16.88
   1  -9   2  326.28   15.70
   1  -9   3    7.59    2.23
   1  -9   4  552.32   25.21
   1  -9   5  453.96   20.82
   1  -9   6   18.49    4.77
   1  -9   7  593.23   28.65
   1  -9   8  297.04   20.06
   1  -9   9   90.34    8.90
   1  -9  10  596.46   62.01
   1  -8   0  381.66   18.73
   1  -8   1  603.14   25.71
   1  -8   2    0.83    3.95
   1  -8   3  764.37   34.73
   1  -8   4  597.16   25.54
   1  -8   5   52.07    6.46
   1  -8   6  919.18   43.09
   1  -8   7  398.46   24.68
   1  -8   8   70.76    9.03
   1  -8   9  836.33   58.58
   1  -8  10  280.67   21.98
   1  -8  11   19.07    5.86
   1  -8  12  433.10   29.72
   1  -7   0  690.97   29.94
   1  -7   1    3.52    2.46
   1  -7   2  730.01   31.39
   1  -7   3  800.11   34.00
   1  -7   4   41.81    7.31
   1  -7   5 1019.09   46.37
   1  -7   6  720.54   58.52
   1  -7   7   50.31    9.63
   1  -7   8 1085.77   48.44
   1  -7   9  580.38   33.13
   1  -7  10   76.81   15.93
   1  -7  11  880.66   39.89
   1  -7  12  122.12   11.44
   1  -7  13   76.94    7.87
   1  -6   0    8.59   12.20
   1  -6   1 1056.20   64.59
   1  -6   2 1516.48   93.43
   1  -6   3   19.80   10.66
   1  -6   4 1455.23   76.19
   1  -6   5 1167.19   56.76
   1  -6   6   57.41   13.23
   1  -6   7 1316.98  102.00
   1  -6   8  810.82   34.33
   1  -6   9  170.45   14.32
   1  -6  10  679.13   30.81
   1  -6  11  207.37   14.96
   1  -6  12   87.88    8.74
   1  -6  13  504.56   18.89
   1  -6  14   51.41    5.68
   1  -5   0 1383.57   82.24
   1  -5   1 2008.35   94.39
   1  -5   2   17.93    5.86
   1  -5   3 3717.29  105.07
   1  -5   4 1655.72   68.55
   1  -5   5   15.44    7.59
   1  -5   6 1678.25   75.66
   1  -5   7 1388.63   72.22
   1  -5   8   29.11   12.84
   1  -5   9  853.71   39.56
   1  -5  10  628.45   31.21
   1  -5  11  255.71   19.42
   1  -5  12  800.71   33.43
   1  -5  13   63.38    7.78
   1  -5  14  316.65   15.61
   1  -4   0 3488.18  142.21
   1  -4   1   25.94    4.26
   1  -4   2 3110.80   85.97
   1  -4   3 2368.24   78.88
   1  -4   4   26.73    6.42
   1  -4   5 1825.66   63.38
   1  -4   6 1034.59   51.22
   1  -4   7  369.30   32.69
   1  -4   8 2183.92   94.01
   1  -4   9  301.30   28.99
   1  -4  10  303.02   20.35
   1  -4  11  669.37   32.90
   1  -4  12  103.80   10.70
   1  -4  13  409.74   20.77
   1  -4  14  528.91   22.71
   1  -3   0   29.86    9.84
   1  -3   1 3696.21   90.31
   1  -3   2 3593.68   80.57
   1  -3   3  193.83   10.77
   1  -3   4 2459.50   71.72
   1  -3   5 1375.46   39.09
   1  -3   6   97.63   11.09
   1  -3   7 1537.01   70.50
   1  -3   8  114.67   18.14
   1  -3   9  275.63   43.04
   1  -3  10  765.66   34.92
   1  -3  11   55.65    9.26
   1  -3  12  555.79   28.33
   1  -3  13  808.16   32.48
   1  -3  14    6.03    2.79
   1  -2   0 1927.02   48.09
   1  -2   1 4424.16  105.12
   1  -2   2   49.93    3.64
   1  -2   3  541.67   23.85
   1  -2   4  389.26   19.47
   1  -2   5  731.86   27.88
   1  -2   6 4246.84   91.76
   1  -2   7  517.83   33.28
   1  -2   8  646.38   38.24
   1  -2   9 1267.28   70.42
   1  -2  10   70.97    9.11
   1  -2  11  651.47   34.30
   1  -2  12 1049.30   46.52
   1  -2  13    7.55    3.05
   1  -2  14  427.06   23.90
   1  -1   0 5343.75  268.46
   1  -1   1  493.71   25.67
   1  -1   2 3916.99  141.95
   1  -1   3 2162.75   45.40
   1  -1   4  120.88    5.98
   1  -1   5 3367.17  124.99
   1  -1   6  657.53   26.52
   1  -1   7  629.62   34.22
   1  -1   8 1641.91   66.35
   1  -1   9   91.95   13.41
   1  -1  10  970.62   60.90
   1  -1  11 1498.21   63.83
   1  -1  12   77.18   11.53
   1  -1  13  570.51   50.63
   1  -1  14  623.63   29.51
   1   0   0  364.34    7.32
   1   0   1 1528.39   39.93
   1   0   2  693.72   26.31
   1   0   3 1061.15   30.88
   1   0   4 5299.40  106.02
   1   0   5 2081.99   55.70
   1   0   6 1779.51   62.95
   1   0   7 3502.87   91.67
   1   0   8  337.87   25.67
   1   0   9  637.84   44.66
   1   0  10 1728.21   71.64
   1   0  11  232.16   19.64
   1   0  12  758.59   44.61
   1   0  13  770.91   32.71
   1   0  14   16.64    5.98
   1   1   0 9158.46  304.05
   1   1   1 2056.42   70.74
   1   1   2 1337.72   59.85
   1   1   3 4323.55  140.48
   1   1   4 1435.14   39.45
   1   1   5 2048.74   68.15
   1   1   6 1961.75   55.37
   1   1   7  198.78   16.49
   1   1   8  713.08   43.76
   1   1   9 1785.29  123.13
   1   1  10  205.29   25.84
   1   1  11  633.84   28.78
   1   1  12  704.96   28.92
   1   1  13   29.30    5.57
   1   2   0  210.43   10.30
   1   2   1  533.81   14.52
   1   2   2 2292.43   80.28
   1   2   3  945.44   30.43
   1   2   4 1262.56   73.89
   1   2   5 3192.21  171.65
   1   2   6  631.74   36.28
   1   2   7  479.58   44.63
   1   2   8 1194.98  153.73
   1   2   9  185.52   29.33
   1   2  10  423.63   39.62
   1   2  11  756.77   36.94
   1   2  12   25.33    5.83
   1   3   0   60.47   11.89
   1   3   1 2969.01   71.86
   1   3   2 1461.30   54.72
   1   3   3  528.51   33.87
   1   3   4 3495.50  141.67
   1   3   5  358.53   30.65
   1   3   6  380.32   38.54
   1   3   7 1129.59  118.27
   1   3   8  182.12   24.01
   1   3   9  419.73   37.42
   1   3  10  720.76   52.34
   1   3  11    9.60    3.51
   1   3  12  217.04   34.72
   1   4   0 2500.15   83.63
   1   4   1 1384.11   53.43
   1   4   2  359.10   29.30
   1   4   3 2824.32  101.99
   1   4   4  530.40   42.44
   1   4   5  195.35   25.76
   1   4   6 1043.44   51.84
   1   4   7  224.98   19.27
   1   4   8  311.88   22.65
   1   4   9  849.99   55.78
   1   4  10   20.82    5.01
   1   4  11  265.88   20.96
   1   5   0  880.74   43.32
   1   5   1  271.11   23.10
   1   5   2 2107.47   83.38
   1   5   3  631.79   43.18
   1   5   4  235.33   17.02
   1   5   5  940.81   45.73
   1   5   6  193.39   34.25
   1   5   7  444.45   36.56
   1   5   8  795.67   29.62
   1   5   9    2.62    2.24
   1   6   0   39.28   14.31
   1   6   1 1210.32   44.40
   1   6   2  311.38   18.71
   1   6   3  325.76   16.35
   1   6   4  646.66   25.18
   1   6   5   73.13   12.90
   1   6   6  453.38   24.91
   1   6   7  457.25   24.36
   1   6   8   12.68    2.93
   1   7   0 1001.64   37.83
   1   7   1  263.51   16.00
   1   7   2  150.00    8.88
   1   7   3  495.53   17.23
   1   7   4   59.11    8.67
   1   7   5  251.70   16.85
   1   7   6  425.55   20.32
   1   8   0  179.98   10.48
   1   8   1  139.90    7.87
   1   8   2  469.92   16.83
   1   8   3   27.28    4.63
   1   8   4  269.83   14.63
   1   9   0  172.40    7.20
   1   9   1  460.80   21.08
   2  -9   0  677.24   39.55
   2  -9   1  458.43   26.91
   2  -9   2  119.86   12.98
   2  -9   3  857.59   41.94
   2  -9   4  144.33   12.11
   2  -9   5  195.68   27.85
   2  -9   6  627.89   59.95
   2  -9   7   63.33    7.72
   2  -9   8  245.32   22.58
   2  -9   9  393.46   27.81
   2  -9  10    0.51    1.46
   2  -8   0  381.84   18.52
   2  -8   1  135.84    9.39
   2  -8   2  525.29   23.80
   2  -8   3  217.14   14.47
   2  -8   4  116.78   10.70
   2  -8   5  561.37   24.51
   2  -8   6   85.38    8.92
   2  -8   7  304.82   29.34
   2  -8   8  597.33   44.21
   2  -8   9    0.00    5.21
   2  -8  10  354.05   28.91
   2  -8  11  319.55   25.13
   2  -8  12   20.05    4.71
   2  -7   0   39.57    5.85
   2  -7   1  710.58   27.08
   2  -7   2  249.68   16.27
   2  -7   3  275.85   16.78
   2  -7   4  617.51   36.96
   2  -7   5  109.65   12.15
   2  -7   6  288.91   31.40
   2  -7   7  366.87   35.19
   2  -7   8   11.74    7.32
   2  -7   9  493.37   40.14
   2  -7  10  274.27   27.83
   2  -7  11   22.95    7.22
   2  -7  12  563.02   37.89
   2  -7  13  236.51   19.08
   2  -6   0 1352.11   49.75
   2  -6   1  244.51   26.99
   2  -6   2  354.64   33.44
   2  -6   3  836.18   61.23
   2  -6   4   67.05   23.39
   2  -6   5  526.59   34.22
   2  -6   6  644.50   50.21
   2  -6   7   19.46    5.91
   2  -6   8  821.53   34.76
   2  -6   9  594.20   24.09
   2  -6  10   10.13    4.36
   2  -6  11  848.51   28.92
   2  -6  12  337.33   15.53
   2  -6  13   80.52    7.34
   2  -5   0  579.44   48.04
   2  -5   1  611.18   51.99
   2  -5   2 2013.17   95.23
   2  -5   3  212.04   22.39
   2  -5   4  810.70   44.49
   2  -5   5 1697.77   78.14
   2  -5   6   55.72   15.88
   2  -5   7 1554.49  144.86
   2  -5   8  899.99   39.06
   2  -5   9  175.19   15.25
   2  -5  10 2041.66   80.41
   2  -5  11  611.51   29.06
   2  -5  12   83.50    9.94
   2  -5  13  899.08   33.47
   2  -5  14  389.15   14.18
   2  -4   0  559.05   35.27
   2  -4   1 1836.06   79.47
   2  -4   2  208.84   19.66
   2  -4   3 1704.31   64.13
   2  -4   4 2643.99   72.72
   2  -4   5   62.27    8.80
   2  -4   6 2858.72   89.02
   2  -4   7 2190.43   79.53
   2  -4   8   11.54   29.79
   2  -4   9  908.17   62.38
   2  -4  10 1127.42   54.91
   2  -4  11   86.68   10.72
   2  -4  12 1439.37   51.08
   2  -4  13  498.65   23.52
   2  -4  14   62.04    6.44
   2  -3   0 1741.51   59.73
   2  -3   1   29.10    9.69
   2  -3   2 1501.88   50.29
   2  -3   3 1408.99   38.89
   2  -3   4  154.21   12.83
   2  -3   5 1829.22   63.18
   2  -3   6 1718.76   67.00
   2  -3   7   19.71   13.24
   2  -3   8 1772.07   71.18
   2  -3   9 1720.19   78.34
   2  -3  10  100.89   12.65
   2  -3  11 1156.05   45.76
   2  -3  12  637.00   30.51
   2  -3  13   17.05    4.55
   2  -3  14  479.91   37.32
   2  -2   0    8.65    5.72
   2  -2   1 1720.54   43.84
   2  -2   2 2763.38   84.18
   2  -2   3   99.71    6.91
   2  -2   4 3401.14   99.67
   2  -2   5 2427.06   78.22
   2  -2   6    7.14    4.56
   2  -2   7 1238.30   53.37
   2  -2   8  840.91   41.35
   2  -2   9    1.24    5.48
   2  -2  10  680.26   44.18
   2  -2  11  520.93   33.65
   2  -2  12   44.44    9.06
   2  -2  13  618.68   47.86
   2  -2  14  254.72   24.71
   2  -1   0 3846.84  110.75
   2  -1   1 6273.26  220.54
   2  -1   2  168.38   18.18
   2  -1   3 3032.26   97.95
   2  -1   4 2968.31  110.15
   2  -1   5   35.48    6.90
   2  -1   6 2413.29   84.42
   2  -1   7 1602.54   84.72
   2  -1   8    0.83    4.64
   2  -1   9 1244.93   82.26
   2  -1  10  573.05   55.90
   2  -1  11   38.67    9.63
   2  -1  12  559.55   32.24
   2  -1  13  139.59   19.74
   2  -1  14  194.90   19.84
   2   0   0 8704.89  148.68
   2   0   1 1417.68   30.44
   2   0   2 2875.04   65.27
   2   0   3 5391.77  119.56
   2   0   4   21.34    8.50
   2   0   5 3712.66   91.92
   2   0   6 1842.14   65.44
   2   0   7   17.04    6.17
   2   0   8 1283.03   80.79
   2   0   9  348.17   18.83
   2   0  10  259.46   23.02
   2   0  11  943.58   48.78
   2   0  12  156.41   14.70
   2   0  13  207.75   30.14
   2   1   0  431.49   19.28
   2   1   1 1612.23   55.28
   2   1   2 4174.79  100.64
   2   1   3   77.78   12.26
   2   1   4 2093.86   64.48
   2   1   5 2027.08   57.70
   2   1   6   10.60    7.38
   2   1   7 1420.95   61.30
   2   1   8  471.16   30.78
   2   1   9  240.73   17.42
   2   1  10  971.61   39.10
   2   1  11  253.84   21.84
   2   1  12  292.40   26.60
   2   1  13  700.22   62.03
   2   2   0   74.73    9.24
   2   2   1 1891.96   46.31
   2   2   2   24.58    4.48
   2   2   3 1341.59   44.98
   2   2   4 1337.23   64.36
   2   2   5   30.84    9.98
   2   2   6 1015.91   73.04
   2   2   7  290.99   30.64
   2   2   8  231.36   21.41
   2   2   9 1111.07   43.32
   2   2  10  320.22   23.39
   2   2  11  334.80   31.78
   2   2  12  706.01   46.32
   2   3   0 1750.34   62.07
   2   3   1   13.67    7.16
   2   3   2 1116.19   40.93
   2   3   3  768.15   40.27
   2   3   4   50.01   13.51
   2   3   5  466.72   38.15
   2   3   6  301.67   18.59
   2   3   7  227.69   15.91
   2   3   8 1081.28   42.50
   2   3   9  259.86   16.42
   2   3  10  207.10   16.32
   2   3  11  764.39   47.13
   2   4   0   60.38   20.72
   2   4   1 1334.20   55.04
   2   4   2  865.22   48.09
   2   4   3  129.64   30.65
   2   4   4 1294.73   93.33
   2   4   5  606.80   26.23
   2   4   6  247.45   17.79
   2   4   7 1255.52   39.64
   2   4   8  309.48   20.38
   2   4   9  195.26   12.78
   2   4  10  838.64   44.83
   2   5   0 1559.72   71.71
   2   5   1 1234.81   62.30
   2   5   2   39.42   12.03
   2   5   3 1213.26   35.81
   2   5   4  397.93   19.89
   2   5   5  245.56   17.20
   2   5   6 1454.98   42.97
   2   5   7  342.71   16.86
   2   5   8  189.64   11.54
   2   5   9  743.71   30.41
   2   6   0  583.49   24.53
   2   6   1   96.42    8.88
   2   6   2 1319.13   33.57
   2   6   3  765.75   27.62
   2   6   4   22.53    5.19
   2   6   5 1111.06   39.62
   2   6   6  441.94   19.58
   2   6   7   87.47    8.56
   2   7   0    2.35    1.99
   2   7   1  674.33   24.22
   2   7   2  517.91   20.21
   2   7   3   41.65    4.97
   2   7   4  694.47   25.53
   2   7   5  302.06   18.82
   2   7   6  113.35    9.25
   2   8   0  830.95   25.88
   2   8   1  499.65   17.75
   2   8   2   20.94    3.01
   2   8   3  456.71   25.02
   2   8   4  280.72   33.65
   2   9   0  389.00   14.71
   3  -9   0    4.71    2.48
   3  -9   1  356.14   24.47
   3  -9   2  184.58   17.78
   3  -9   3   35.17    5.53
   3  -9   4  619.15   27.97
   3  -9   5  295.91   17.73
   3  -9   6   51.26    7.72
   3  -9   7  565.53   25.47
   3  -9   8  160.86   11.34
   3  -8   0  474.89   36.30
   3  -8   1  575.38   24.17
   3  -8   2    6.12    2.71
   3  -8   3 1115.42   48.82
   3  -8   4  381.80   23.85
   3  -8   5  106.58   11.70
   3  -8   6  965.59   74.48
   3  -8   7  259.15   24.47
   3  -8   8  172.65   18.76
   3  -8   9  510.22   36.94
   3  -8  10  128.72   14.47
   3  -8  11   92.52   10.85
   3  -7   0  856.23   35.15
   3  -7   1  110.74   10.97
   3  -7   2 1238.02   59.08
   3  -7   3  524.62   31.47
   3  -7   4   38.71    7.55
   3  -7   5 1069.12   69.95
   3  -7   6  467.75   41.63
   3  -7   7  130.71   20.68
   3  -7   8  960.86   42.57
   3  -7   9  250.80   19.82
   3  -7  10  108.18   11.16
   3  -7  11  543.04   26.25
   3  -7  12   72.33    8.34
   3  -6   0   43.81    8.19
   3  -6   1 1278.65   59.03
   3  -6   2 1178.65   56.86
   3  -6   3   53.27   10.28
   3  -6   4 1453.42   77.05
   3  -6   5  967.15   47.38
   3  -6   6  105.36   12.79
   3  -6   7 1169.42   54.37
   3  -6   8  326.25   23.36
   3  -6   9   89.33   19.69
   3  -6  10  621.35   41.88
   3  -6  11   62.90    8.66
   3  -6  12  331.72   19.84
   3  -6  13  328.76   25.14
   3  -5   0 2704.84  176.32
   3  -5   1 1644.04  131.97
   3  -5   2  233.62   44.17
   3  -5   3 2074.69  122.37
   3  -5   4 1522.04   77.62
   3  -5   5  117.30   22.43
   3  -5   6 1353.17   76.25
   3  -5   7  398.28   32.48
   3  -5   8  146.47   11.41
   3  -5   9  885.17   42.52
   3  -5  10  356.05   24.38
   3  -5  11  258.39   20.53
   3  -5  12  400.70   19.93
   3  -5  13    1.37    3.45
   3  -4   0 1555.70   81.76
   3  -4   1  203.21   35.06
   3  -4   2 2765.07  134.97
   3  -4   3 1843.34   82.20
   3  -4   4   37.09   13.72
   3  -4   5 2125.46   74.19
   3  -4   6  531.21   41.01
   3  -4   7  211.42   33.38
   3  -4   8  901.36   48.63
   3  -4   9  283.82   36.76
   3  -4  10  867.35   47.83
   3  -4  11  713.46   41.56
   3  -4  12    1.43    3.91
   3  -4  13  395.26   23.14
   3  -3   0   87.80   20.22
   3  -3   1 2793.67  127.11
   3  -3   2 2457.11   76.50
   3  -3   3   11.51    7.66
   3  -3   4 3056.11  108.60
   3  -3   5  380.32   23.81
   3  -3   6  566.40   30.69
   3  -3   7 1025.33   51.96
   3  -3   8   82.46   11.09
   3  -3   9  381.70   31.16
   3  -3  10  524.11   45.10
   3  -3  11    1.64    4.67
   3  -3  12  617.19   52.13
   3  -3  13  475.15   39.27
   3  -3  14    2.81    2.39
   3  -2   0 3057.05  130.07
   3  -2   1 2916.87   86.48
   3  -2   2   28.16    6.79
   3  -2   3 2662.15   78.05
   3  -2   4  690.80   33.57
   3  -2   5  604.21   36.28
   3  -2   6 1422.33   54.76
   3  -2   7  300.27   26.97
   3  -2   8  214.25   27.83
   3  -2   9 1352.65   94.35
   3  -2  10    6.75    7.58
   3  -2  11  912.38   71.93
   3  -2  12  630.43   50.55
   3  -2  13   10.36    6.09
   3  -1   0 1618.48   57.65
   3  -1   1   69.78   12.00
   3  -1   2 2916.69   70.54
   3  -1   3 1989.74   57.65
   3  -1   4 1202.36   49.78
   3  -1   5 2191.67   74.13
   3  -1   6  331.09   23.84
   3  -1   7  706.27   38.88
   3  -1   8 1530.86   77.99
   3  -1   9    7.65    6.34
   3  -1  10  858.77   47.96
   3  -1  11  837.09   45.22
   3  -1  12   14.84    5.40
   3  -1  13  551.01   39.35
   3   0   0  368.78   17.96
   3   0   1 5038.51  119.46
   3   0   2 1530.92   39.80
   3   0   3 2336.83   59.64
   3   0   4 3584.85  117.27
   3   0   5  551.67   37.64
   3   0   6  543.10   42.24
   3   0   7 1717.87   78.82
   3   0   8  129.16   18.66
   3   0   9  949.10   53.16
   3   0  10 1091.05   76.96
   3   0  11   27.30   10.69
   3   0  12  547.70   42.02
   3   0  13  499.92   32.91
   3   1   0 4524.04   87.86
   3   1   1 1546.89   44.02
   3   1   2 1219.86   42.00
   3   1   3 3734.42   86.35
   3   1   4  256.23   22.37
   3   1   5 1161.61   56.34
   3   1   6 2178.58   92.85
   3   1   7  159.07   19.08
   3   1   8 1229.80   47.94
   3   1   9 1195.10   59.53
   3   1  10   62.84   14.94
   3   1  11  479.03   39.74
   3   1  12  527.08   39.25
   3   2   0 1306.49   41.79
   3   2   1 1277.55   40.56
   3   2   2 4520.20  136.98
   3   2   3  411.10   27.39
   3   2   4  781.63   41.37
   3   2   5 1676.63   70.78
   3   2   6  411.71   20.82
   3   2   7  573.22   30.91
   3   2   8  798.58   41.15
   3   2   9   14.33    4.92
   3   2  10  366.89   37.17
   3   2  11  518.00   37.73
   3   3   0  229.31   23.31
   3   3   1 2991.68  113.71
   3   3   2  512.31   35.86
   3   3   3  560.12   42.07
   3   3   4 1691.83   77.65
   3   3   5  417.61   21.01
   3   3   6  762.49   31.95
   3   3   7 1243.81   47.47
   3   3   8   70.35   10.47
   3   3   9  233.81   14.89
   3   3  10  527.29   38.83
   3   3  11    0.66    2.38
   3   4   0 3494.77  129.82
   3   4   1  583.50   43.84
   3   4   2  606.19   57.60
   3   4   3 1927.82  103.99
   3   4   4  480.80   22.96
   3   4   5  236.72   14.85
   3   4   6  774.41   34.90
   3   4   7   14.82    7.25
   3   4   8  398.24   19.88
   3   4   9  445.37   19.08
   3   5   0  464.15   39.45
   3   5   1  428.68   24.31
   3   5   2 1322.72   64.70
   3   5   3  269.11   16.61
   3   5   4  322.42   17.85
   3   5   5 1285.20   57.30
   3   5   6   55.88   16.04
   3   5   7  377.41   18.45
   3   5   8  353.46   16.23
   3   6   0  418.35   18.24
   3   6   1 1234.81   40.00
   3   6   2  263.55   15.28
   3   6   3  250.11   16.43
   3   6   4  683.44   61.71
   3   6   5    1.67    2.67
   3   6   6  429.84   22.34
   3   6   7  243.93   13.82
   3   7   0  731.47   25.98
   3   7   1  107.77    9.28
   3   7   2  227.53   16.91
   3   7   3  492.19   25.80
   3   7   4   23.36    4.93
   3   7   5  345.13   35.72
   3   8   0   58.89    7.21
   3   8   1  174.00   14.78
   3   8   2  450.26   31.62
   4  -9   3  622.95   37.08
   4  -9   4   69.37    6.75
   4  -9   5  230.05   31.90
   4  -9   6  425.48   41.97
   4  -8   0  180.32   19.34
   4  -8   1  293.83   26.94
   4  -8   2  681.62   52.56
   4  -8   3   65.84    8.88
   4  -8   4  238.65   19.26
   4  -8   5  493.91   58.35
   4  -8   6   27.05    5.65
   4  -8   7  219.72   28.42
   4  -8   8  319.39   27.83
   4  -8   9    5.78    2.61
   4  -7   0  165.36   22.44
   4  -7   1  446.95   28.31
   4  -7   2  127.05   10.83
   4  -7   3  388.08   20.34
   4  -7   4  593.01   42.91
   4  -7   5   13.07    3.93
   4  -7   6  393.79   25.80
   4  -7   7  316.96   22.37
   4  -7   8   46.13   10.95
   4  -7   9  355.67   45.14
   4  -7  10  188.54   18.79
   4  -7  11   31.77    6.57
   4  -6   0 1486.39  138.60
   4  -6   1  193.23   14.95
   4  -6   2  775.54   51.52
   4  -6   3  685.40   43.01
   4  -6   4    7.99    5.22
   4  -6   5  611.84   62.93
   4  -6   6  423.46   31.00
   4  -6   7   66.90   13.20
   4  -6   8  696.36   51.60
   4  -6   9  391.28   34.25
   4  -6  10   86.41   14.32
   4  -6  11  781.80   48.48
   4  -6  12  137.56   15.12
   4  -5   0   22.69    7.57
   4  -5   1  595.55   47.83
   4  -5   2  962.56   65.62
   4  -5   3   25.41   10.69
   4  -5   4 1089.95   73.49
   4  -5   5 1048.74   69.89
   4  -5   6   78.39   16.84
   4  -5   7 1621.99   95.77
   4  -5   8  713.34   55.33
   4  -5   9   76.13   15.96
   4  -5  10 1174.23   73.21
   4  -5  11  350.16   32.26
   4  -5  12  180.32   19.93
   4  -4   0  452.24   53.84
   4  -4   1 1652.53  115.79
   4  -4   2   31.91   28.59
   4  -4   3 1012.49   82.83
   4  -4   4 1159.83   68.06
   4  -4   5   98.02   18.35
   4  -4   6 1801.68  106.31
   4  -4   7  800.05   62.61
   4  -4   8   35.17   10.61
   4  -4   9 1386.58   64.20
   4  -4  10  592.75   35.05
   4  -4  11  225.61   18.58
   4  -4  12  852.39   56.01
   4  -4  13  288.36   23.24
   4  -3   0  803.17   74.79
   4  -3   1   86.88   23.23
   4  -3   2 1482.76  104.20
   4  -3   3 1626.77   83.28
   4  -3   4    4.52    7.78
   4  -3   5 1526.85   75.13
   4  -3   6  888.42   54.15
   4  -3   7   12.04    6.11
   4  -3   8 1058.10   71.86
   4  -3   9 1075.68   58.61
   4  -3  10  119.22   17.25
   4  -3  11  873.26   49.26
   4  -3  12  243.01   18.53
   4  -3  13   74.38   11.81
   4  -2   0   18.62   24.82
   4  -2   1 1720.83  122.08
   4  -2   2 1727.73   94.05
   4  -2   3    1.78    6.69
   4  -2   4 2387.44  120.14
   4  -2   5 1180.50   58.55
   4  -2   6   28.86   10.54
   4  -2   7  869.24   39.75
   4  -2   8  646.64   56.15
   4  -2   9  223.48   29.96
   4  -2  10  624.28   97.43
   4  -2  11  215.10   19.07
   4  -2  12   29.88    9.29
   4  -2  13  301.38   23.69
   4  -1   0 3446.17  136.42
   4  -1   1 3839.08  266.10
   4  -1   2   45.02    9.67
   4  -1   3 3068.62  104.77
   4  -1   4 1246.76   62.15
   4  -1   5   46.33    9.78
   4  -1   6 1109.06   69.15
   4  -1   7  760.34   44.23
   4  -1   8   10.17    5.67
   4  -1   9  836.96   69.79
   4  -1  10  258.05   24.00
   4  -1  11  122.02   18.67
   4  -1  12  340.16   28.68
   4   0   0 3892.59  127.10
   4   0   1   83.26   19.60
   4   0   2 2280.31   83.75
   4   0   3 2265.04  109.01
   4   0   4   12.18   18.27
   4   0   5 1474.54  126.95
   4   0   6  937.28   44.43
   4   0   7   61.95   10.75
   4   0   8 1756.62   62.11
   4   0   9   99.78   23.89
   4   0  10  296.99   35.22
   4   0  11  596.32   45.64
   4   0  12   72.84   11.31
   4   1   0  321.13   29.63
   4   1   1 1149.09   54.18
   4   1   2 2026.41   79.27
   4   1   3   77.37   20.59
   4   1   4 1245.81   87.95
   4   1   5  706.53   97.63
   4   1   6   28.12    6.02
   4   1   7 1120.15   50.24
   4   1   8  159.31   13.92
   4   1   9  178.85   14.01
   4   1  10  625.17   50.33
   4   1  11   49.80   10.64
   4   2   0  786.89   61.32
   4   2   1  999.49   51.00
   4   2   2   32.14   12.05
   4   2   3  687.94   59.37
   4   2   4  401.34   52.99
   4   2   5   37.06    7.21
   4   2   6  879.17   35.29
   4   2   7  209.66   18.34
   4   2   8  497.64   27.40
   4   2   9  867.71   33.96
   4   2  10  171.12   21.31
   4   3   0  750.07   55.58
   4   3   1   34.15   13.06
   4   3   2  937.67   70.65
   4   3   3  301.60   18.07
   4   3   4  116.78   11.12
   4   3   5  803.56   29.77
   4   3   6  212.33   14.68
   4   3   7  428.69   23.29
   4   3   8  583.01   35.10
   4   3   9   71.30    8.01
   4   3  10  292.93   22.86
   4   4   0   25.38    7.07
   4   4   1 1152.29   43.52
   4   4   2  382.16   21.06
   4   4   3  156.48   12.95
   4   4   4  983.87   37.56
   4   4   5  321.31   15.64
   4   4   6  496.79   24.95
   4   4   7 1065.56   38.33
   4   4   8  145.48   10.12
   4   5   0 1180.16   41.47
   4   5   1  513.02   25.51
   4   5   2  209.15   16.54
   4   5   3 1361.91   43.31
   4   5   4  403.52   19.64
   4   5   5  433.24   28.15
   4   5   6 1086.71   46.25
   4   5   7  114.05   10.45
   4   6   0  354.57   18.56
   4   6   1  176.50   12.16
   4   6   2 1002.59   33.11
   4   6   3  361.92   18.93
   4   6   4  147.39   16.40
   4   6   5  927.63   38.73
   4   7   0   73.03    8.59
   4   7   1  627.92   27.77
   4   7   2  292.43   17.99
   4   7   3   99.11    9.04
   4   8   0  663.75   39.78
   5  -8   1  182.99   17.93
   5  -8   2   35.14    8.11
   5  -8   3  479.58   34.03
   5  -8   4   74.64   12.15
   5  -8   5  219.78   21.05
   5  -8   6  534.51   87.03
   5  -7   0  202.45   20.76
   5  -7   1  142.26   13.06
   5  -7   2 1156.14   72.54
   5  -7   3  317.49   20.32
   5  -7   4  198.09   15.10
   5  -7   5  760.64   39.39
   5  -7   6  115.74   11.05
   5  -7   7  223.44   15.64
   5  -7   8  639.14   29.32
   5  -7   9   52.10    6.36
   5  -6   0  113.66   13.92
   5  -6   1  740.56   42.19
   5  -6   2  327.49   24.13
   5  -6   3  275.10   22.31
   5  -6   4 1116.07   49.72
   5  -6   5  253.52   21.04
   5  -6   6  293.58   29.82
   5  -6   7 1145.49   67.76
   5  -6   8  108.04   15.89
   5  -6   9  322.69   27.89
   5  -6  10  463.17   24.00
   5  -5   0 1479.75   75.32
   5  -5   1 1121.27   76.35
   5  -5   2  406.05   29.24
   5  -5   3 1496.92   86.48
   5  -5   4  352.76   34.99
   5  -5   5  269.70   30.11
   5  -5   6  931.93   64.50
   5  -5   7   47.69   13.36
   5  -5   8  390.81   36.00
   5  -5   9  697.03   49.72
   5  -5  10    6.93    4.09
   5  -5  11  481.54   51.25
   5  -4   0  663.23   41.09
   5  -4   1  401.76   31.75
   5  -4   2 1333.30   54.20
   5  -4   3  346.37   38.71
   5  -4   4  313.07   35.58
   5  -4   5 1143.41   79.83
   5  -4   6  142.05   23.25
   5  -4   7  560.51   50.19
   5  -4   8  761.79   59.29
   5  -4   9   10.67    7.57
   5  -4  10  681.06   37.41
   5  -4  11  377.97   52.56
   5  -3   0   17.51   13.13
   5  -3   1 1652.63  143.25
   5  -3   2  634.58   36.39
   5  -3   3  164.05   21.56
   5  -3   4  769.09   46.17
   5  -3   5   56.16   22.85
   5  -3   6  827.38   66.95
   5  -3   7  728.68   44.15
   5  -3   8    5.09    3.98
   5  -3   9  734.30   81.86
   5  -3  10  385.91   27.58
   5  -3  11   93.61   15.64
   5  -2   0 1659.24  134.85
   5  -2   1  312.62   55.60
   5  -2   2  184.03   33.41
   5  -2   3  731.65   72.41
   5  -2   4   51.20   10.75
   5  -2   5  636.31   31.84
   5  -2   6  837.85   36.28
   5  -2   7    0.25    5.57
   5  -2   8  837.02   41.54
   5  -2   9  680.28   40.22
   5  -2  10   23.21    7.17
   5  -2  11  607.11   42.23
   5  -1   0  439.93   62.48
   5  -1   1  308.19   39.70
   5  -1   2  811.24   59.83
   5  -1   3    0.18   24.31
   5  -1   4  867.59   41.03
   5  -1   5 1269.14   52.81
   5  -1   6    0.05    5.81
   5  -1   7  955.75   42.45
   5  -1   8 1027.87   54.87
   5  -1   9   94.06   13.63
   5  -1  10 1109.26   73.49
   5  -1  11  581.69   40.29
   5   0   0  520.05   46.03
   5   0   1 1137.21   71.80
   5   0   2   55.28   39.28
   5   0   3 1200.12   89.12
   5   0   4 1399.44   58.02
   5   0   5    9.61    4.56
   5   0   6 1273.24   44.59
   5   0   7 1120.44   48.14
   5   0   8   39.38   10.61
   5   0   9  907.08   52.34
   5   0  10  807.27   57.43
   5   0  11    5.56    4.97
   5   1   0 1580.62  128.72
   5   1   1   85.78   23.34
   5   1   2 1232.83   77.90
   5   1   3 1364.97   62.31
   5   1   4   12.01    3.79
   5   1   5 1262.80   56.42
   5   1   6 1224.09   51.00
   5   1   7    3.12    4.05
   5   1   8 1237.11   48.34
   5   1   9  779.03   38.45
   5   1  10   21.88    7.45
   5   2   0  110.32   14.47
   5   2   1  528.67   24.51
   5   2   2 1389.74   47.90
   5   2   3   30.32    4.99
   5   2   4 1163.78   43.97
   5   2   5 1185.46   68.96
   5   2   6    4.44    4.40
   5   2   7 1131.00   43.45
   5   2   8  503.79   25.04
   5   2   9    0.05    2.55
   5   3   0  574.33   31.46
   5   3   1 1531.08   53.87
   5   3   2   61.56    7.50
   5   3   3  731.15   29.16
   5   3   4 1170.65   38.22
   5   3   5   48.78    7.83
   5   3   6  576.42   24.98
   5   3   7  585.35   25.87
   5   3   8    2.43    2.21
   5   4   0 1119.81   49.03
   5   4   1   83.96    9.99
   5   4   2  731.90   32.46
   5   4   3 1255.52   43.48
   5   4   4   30.78    5.61
   5   4   5  572.13   27.29
   5   4   6  561.74   35.99
   5   4   7   19.78    3.82
   5   5   0  159.43   13.79
   5   5   1  626.79   26.35
   5   5   2  920.24   38.20
   5   5   3   20.69    3.70
   5   5   4  441.50   21.45
   5   5   5  484.91   26.28
   5   5   6    6.60    2.58
   5   6   0  394.88   21.27
   5   6   1  677.29   23.97
   5   6   2   31.83    4.34
   5   6   3  335.56   20.06
   5   6   4  365.51   19.07
   5   7   0  412.67   18.52
   5   7   1    7.28    3.74
   6  -7   1  477.74   22.52
   6  -7   2   22.96   11.14
   6  -7   3  392.57   21.49
   6  -7   4  237.59   15.14
   6  -7   5    5.08    1.23
   6  -6   0  634.38   32.66
   6  -6   1   39.24    7.92
   6  -6   2  719.92   36.15
   6  -6   3  668.04   28.30
   6  -6   4   18.11    4.41
   6  -6   5  572.26   24.65
   6  -6   6  280.01   15.83
   6  -6   7   90.47    8.79
   6  -6   8  638.78   27.34
   6  -5   0   14.09    6.25
   6  -5   1  955.70   40.12
   6  -5   2  834.27   50.65
   6  -5   3   40.24    9.65
   6  -5   4  881.88   57.16
   6  -5   5  491.18   39.86
   6  -5   6   96.82   11.42
   6  -5   7 1404.75  125.92
   6  -5   8  429.99   25.82
   6  -5   9  173.21   14.07
   6  -4   0  597.50   39.49
   6  -4   1 1220.24  103.99
   6  -4   2   46.34   11.33
   6  -4   3 1382.84   66.56
   6  -4   4  747.67   46.69
   6  -4   5   82.89   16.61
   6  -4   6 1630.95   73.62
   6  -4   7  469.22   32.84
   6  -4   8  206.82   19.21
   6  -4   9  915.62   42.94
   6  -3   0 1504.39   85.71
   6  -3   1  180.24   18.06
   6  -3   2 1577.88   66.11
   6  -3   3  749.66   51.52
   6  -3   4   39.99    9.98
   6  -3   5 1350.11   56.80
   6  -3   6  748.27   37.28
   6  -3   7   61.80   14.53
   6  -3   8  849.24   49.77
   6  -3   9  253.37   15.50
   6  -3  10   99.20   13.11
   6  -2   0   54.02   10.79
   6  -2   1 1714.32  107.15
   6  -2   2 1067.86   44.12
   6  -2   3   81.36   12.61
   6  -2   4 1594.15   67.52
   6  -2   5 1065.08   66.89
   6  -2   6  149.92   21.33
   6  -2   7 1026.49   68.36
   6  -2   8  310.58   25.52
   6  -2   9   60.87   14.42
   6  -2  10  463.72   33.63
   6  -1   0 3328.12  132.29
   6  -1   1 1918.90   76.99
   6  -1   2   30.24   17.57
   6  -1   3 1422.01   74.22
   6  -1   4 1206.82   51.59
   6  -1   5  162.95   16.50
   6  -1   6 1094.83   48.08
   6  -1   7  327.15   25.90
   6  -1   8  136.81   21.81
   6  -1   9  587.56   48.16
   6   0   0 1458.16   76.77
   6   0   1   49.08    9.76
   6   0   2 1894.84   73.49
   6   0   3 1469.82   60.75
   6   0   4   54.00   15.62
   6   0   5 1446.31   70.77
   6   0   6  533.50   47.56
   6   0   7  117.98   17.38
   6   0   8  782.03   86.56
   6   0   9  105.19   16.01
   6   1   0   21.36    4.62
   6   1   1  896.28   38.11
   6   1   2  963.54   52.41
   6   1   3   35.16    9.86
   6   1   4 1426.36   79.45
   6   1   5  316.28   20.05
   6   1   6  205.74   23.80
   6   1   7  790.27   43.88
   6   1   8   39.58    8.39
   6   2   0  922.65   62.41
   6   2   1  672.15   27.72
   6   2   2   63.32    9.21
   6   2   3 1007.19   56.99
   6   2   4  351.67   18.31
   6   2   5  121.81   11.38
   6   2   6  457.49   24.56
   6   2   7   63.72    9.48
   6   2   8  206.08   22.01
   6   3   0  394.28   26.43
   6   3   1   37.94    7.27
   6   3   2  829.17   33.90
   6   3   3  261.06   33.36
   6   3   4  265.71   16.88
   6   3   5  616.42   24.06
   6   3   6   97.21    9.06
   6   4   0   75.83   10.97
   6   4   1 1251.67   45.14
   6   4   2  322.40   17.86
   6   4   3  251.32   14.18
   6   4   4  663.69   28.55
   6   4   5   68.15    8.54
   6   5   0  963.05   46.16
   6   5   1  261.84   19.47
   6   5   2  249.58   14.83
   6   5   3  872.37   30.30
   6   6   0  299.36   18.32
   6   6   1  170.53   15.06
   7  -5   0 1061.71   63.06
   7  -5   1  291.97   30.06
   7  -5   2  401.11   36.83
   7  -5   3  783.45  135.01
   7  -5   4   98.86    8.94
   7  -5   5  322.87   16.85
   7  -4   0  397.94   40.76
   7  -4   1  575.74   53.15
   7  -4   2 1319.16   52.69
   7  -4   3  145.38   13.35
   7  -4   4  368.34   21.99
   7  -4   5  757.32   48.09
   7  -4   6   27.44    6.41
   7  -4   7  419.98   40.87
   7  -3   0  200.97   32.25
   7  -3   1  965.35   75.51
   7  -3   2  146.69   16.33
   7  -3   3  256.05   21.24
   7  -3   4  597.38   40.10
   7  -3   5    6.12    6.08
   7  -3   6  808.34   44.89
   7  -3   7  502.56   42.98
   7  -2   0 1419.07   72.22
   7  -2   1  129.61   17.91
   7  -2   2  399.79   56.56
   7  -2   3  678.82   64.23
   7  -2   4   19.96   11.91
   7  -2   5  564.67   53.19
   7  -2   6  360.99   27.65
   7  -2   7   33.83    8.06
   7  -1   0   29.94    8.50
   7  -1   1  389.68   49.05
   7  -1   2  556.77   59.68
   7  -1   3    4.11    6.63
   7  -1   4 1027.88   56.49
   7  -1   5  932.87   57.99
   7  -1   6   27.13    9.39
   7  -1   7  786.75  104.10
   7   0   0  808.88   76.77
   7   0   1 1210.12   92.51
   7   0   2   15.56    8.66
   7   0   3  904.16   55.20
   7   0   4  999.33  114.93
   7   0   5   87.65   13.88
   7   0   6  918.58  126.06
   7   0   7  470.66   41.96
   7   1   0  702.98   67.91
   7   1   1    4.95    8.83
   7   1   2 1058.65   57.83
   7   1   3 1120.82   60.82
   7   1   4   18.50    8.31
   7   1   5  846.60   90.15
   7   1   6  670.16   50.93
   7   2   0   28.81    7.31
   7   2   1  626.57   43.77
   7   2   2  937.48   35.35
   7   2   3    0.36    3.89
   7   2   4  941.33   46.74
   7   2   5  524.14   33.34
   7   3   0  518.33   27.10
   7   3   1  807.10   43.35
   7   3   2    1.40    5.34
   7   3   3  722.97   36.58
   7   3   4  452.17   37.92
   7   4   0  860.85   64.01
   7   4   1   15.32    4.73
   7   4   2  524.89   38.47
   8  -2   0  121.90   24.88
   8  -2   1  959.05   70.69
   8  -2   2  346.07   36.83
   8  -2   3  162.11   23.60
   8  -1   0 1126.49   78.03
   8  -1   1  669.14   59.12
   8  -1   2  152.62   25.28
   8  -1   3 1082.79   72.25
   8   0   0  601.17   54.96
   8   0   1  108.84   22.09
   8   0   2  897.02   65.03
   8   0   3  253.48   29.44
   8   1   0   13.27    9.49
   8   1   1  615.94   50.62
   8   1   2  221.04   26.86
   0   0   0    0.00    0.00
;
_shelx_hkl_checksum              78600
_shelx_res_file
;
    dsd-huangchao.res created by SHELXL-2014/7
TITL dsd-huangchao_a.res in P-1
REM Old TITL dsd-huangchao in P1 #1
REM SHELXT solution in P-1
REM R1 0.073, Rweak 0.011, Alpha 0.056, Orientation as input
REM Formula found by SHELXT: C13 N2 O4 U S
CELL 1.54184 6.940632 8.552681 12.719312 108.5808 90.9301 92.396
ZERR 2 0.000207 0.00034 0.000578 0.0038 0.003 0.0028
LATT 1
SFAC C H N O S U
UNIT 20 16 2 16 2 2
L.S. 20
PLAN  20
FREE CF U1
BOND $H
LIST 6
fmap 2
ACTA
SHEL 999 0.84
REM <olex2.extras>
REM <HklSrc "%.\\dsd-huangchao-mask.hkl">
REM </olex2.extras>
WGHT    0.078000
FVAR       0.43675
S2  5    0.251624    0.557193    0.128763    11.00000    0.01415    0.03399 =
         0.02024    0.00644    0.00117    0.00474
O3  4    0.092875    0.669694    0.130041    11.00000    0.00913    0.04206 =
         0.03646    0.01489    0.00527    0.00681
O4  4    0.952081    0.764031    0.353597    11.00000    0.02714    0.06401 =
         0.02651    0.01058    0.00286    0.00918
O5  4    0.227389    0.474123    0.210488    11.00000    0.04509    0.04382 =
         0.03393    0.01997    0.00742    0.01343
N6  3    0.834516    0.889395    0.758403    11.00000    0.02332    0.02751 =
         0.02338    0.01041   -0.00183    0.00064
O7  4    0.435513    0.660248    0.147553    11.00000    0.00725    0.05260 =
         0.04996    0.01651   -0.00206    0.00301
O8  4    0.772608    0.882004    0.169972    11.00000    0.03101    0.03848 =
         0.04026    0.01737   -0.00006    0.00670
O9  4    0.637240    0.786933    0.365406    11.00000    0.02538    0.06276 =
         0.03459    0.01240   -0.00244    0.00733
OA  4    0.764632    0.469511    0.190088    11.00000    0.02307    0.04103 =
         0.04851    0.01997   -0.00410   -0.00102
CB  1    0.819765    0.832023    0.533679    11.00000    0.03410    0.03384 =
         0.03070    0.00956    0.00349    0.00769
CC  1    0.666908    0.961859    0.938783    11.00000    0.01729    0.03745 =
         0.03098    0.01672    0.00335    0.00183
OD  4    0.254823    0.433800    0.016241    11.00000    0.03184    0.05232 =
         0.02697    0.00286   -0.00034    0.00963
CE  1    0.511812    0.847517    0.919341    11.00000    0.02814    0.02821 =
         0.03172    0.00644    0.00405    0.00343
AFIX  43
HE  2    0.519885    0.744803    0.865589    11.00000   -1.20000
AFIX   0
CF  1    0.805215    0.795105    0.412264    11.00000    0.03755    0.03231 =
         0.03103    0.00074    0.00643    0.01001
CG  1    0.344906    0.884367    0.979002    11.00000    0.02734    0.02226 =
         0.03016    0.00694   -0.00488    0.00449
AFIX  43
HG  2    0.241191    0.807331    0.964513    11.00000   -1.20000
AFIX   0
CH  1    0.853500    0.921535    0.880759    11.00000    0.01992    0.03952 =
         0.02192    0.00846    0.00142    0.00423
AFIX  23
HA  2    0.902287    0.824751    0.894208    11.00000   -1.20000
HB  2    0.947155    1.012721    0.912144    11.00000   -1.20000
AFIX   0
CI  1    0.700362    0.960099    0.715311    11.00000    0.03771    0.04977 =
         0.03089    0.01505    0.00351    0.01296
AFIX  43
HI  2    0.615458    1.029885    0.761410    11.00000   -1.20000
AFIX   0
CJ  1    0.967861    0.797066    0.694375    11.00000    0.03449    0.05038 =
         0.03274    0.01585    0.00676    0.01619
AFIX  43
HJ  2    1.061852    0.751474    0.726962    11.00000   -1.20000
AFIX   0
CK  1    0.687624    0.929205    0.601016    11.00000    0.04613    0.05638 =
         0.02999    0.01407    0.00405    0.01967
AFIX  43
HK  2    0.590309    0.973981    0.570222    11.00000   -1.20000
AFIX   0
CL  1    0.967260    0.769261    0.582118    11.00000    0.03544    0.05052 =
         0.03005    0.00787    0.00557    0.01480
AFIX  43
HL  2    1.063175    0.709770    0.539027    11.00000   -1.20000
AFIX   0
U1    6    0.767280    0.673831    0.176654    11.00000    0.01375    0.02549 =
         0.02177    0.00585    0.00166    0.00204
HKLF 4
REM  dsd-huangchao_a.res in P-1
REM R1 =  0.0456 for    2372 Fo > 4sig(Fo)  and  0.0476 for all    2521 data
REM    190 parameters refined using      0 restraints
END
WGHT      0.0760      0.0000
REM Highest difference peak  2.909,  deepest hole -2.232,  1-sigma level  0.321
Q1    1   0.6690  0.6400  0.1264  11.00000  0.05    2.91
Q2    1   0.7701  0.7810  0.2237  11.00000  0.05    2.88
Q3    1   0.7675  0.5702  0.1233  11.00000  0.05    2.79
Q4    1   0.8728  0.7086  0.2175  11.00000  0.05    2.59
Q5    1   0.7937  0.7151  0.1203  11.00000  0.05    1.74
Q6    1   0.7340  0.6444  0.2360  11.00000  0.05    1.64
Q7    1   0.5073  0.6982  0.0978  11.00000  0.05    1.14
Q8    1   0.8707  0.6697  0.3406  11.00000  0.05    1.03
Q9    1   0.8926  0.4189  0.1462  11.00000  0.05    1.01
Q10   1   0.8843  0.9171  0.2189  11.00000  0.05    0.97
Q11   1   0.4882  0.5570  0.1157  11.00000  0.05    0.97
Q12   1   0.0424  0.5710  0.0947  11.00000  0.05    0.93
Q13   1   1.0102  0.6670  0.2745  11.00000  0.05    0.91
Q14   1   0.6632  0.4294  0.1401  11.00000  0.05    0.91
Q15   1   0.6314  0.9232  0.2187  11.00000  0.05    0.91
Q16   1   0.2534  0.4605  0.0766  11.00000  0.05    0.87
Q17   1   0.6139  0.6576  0.3142  11.00000  0.05    0.86
Q18   1   1.0283  0.8120  0.2625  11.00000  0.05    0.86
Q19   1   0.1075  0.6197  0.1567  11.00000  0.05    0.86
Q20   1   0.1344  0.4434 -0.0167  11.00000  0.05    0.83
;
_shelx_res_checksum              58216
loop_
_space_group_symop_operation_xyz
'x, y, z'
'-x, -y, -z'
loop_
_atom_site_type_symbol
_atom_site_label
_atom_site_fract_x
_atom_site_fract_y
_atom_site_fract_z
_atom_site_U_iso_or_equiv
_atom_site_adp_type
_atom_site_calc_flag
_atom_site_occupancy
S S2 0.2516(3) 0.5572(3) 0.12876(18) 0.0232(5) Uani d 1
O O3 0.0929(10) 0.6697(9) 0.1300(6) 0.0284(15) Uani d 1
O O4 0.9521(12) 0.7640(11) 0.3536(6) 0.0399(19) Uani d 1
O O5 0.2274(13) 0.4741(10) 0.2105(7) 0.0388(19) Uani d 1
N N6 0.8345(13) 0.8894(10) 0.7584(7) 0.0242(17) Uani d 1
O O7 0.4355(11) 0.6602(11) 0.1476(7) 0.0366(18) Uani d 1
O O8 0.7726(13) 0.8820(10) 0.1700(7) 0.0353(18) Uani d 1
O O9 0.6372(12) 0.7869(11) 0.3654(7) 0.0415(19) Uani d 1
O OA 0.7646(12) 0.4695(10) 0.1901(8) 0.0363(18) Uani d 1
C CB 0.8198(18) 0.8320(14) 0.5337(9) 0.033(2) Uani d 1
C CC 0.6669(15) 0.9619(13) 0.9388(9) 0.027(2) Uani d 1
O OD 0.2548(13) 0.4338(11) 0.0162(7) 0.0392(19) Uani d 1
C CE 0.5118(17) 0.8475(13) 0.9193(9) 0.030(2) Uani d 1
H HE 0.5199 0.7448 0.8656 0.036 Uiso calc 1
C CF 0.8052(19) 0.7951(14) 0.4123(10) 0.036(3) Uani d 1
C CG 0.3449(16) 0.8844(11) 0.9790(8) 0.027(2) Uani d 1
H HG 0.2412 0.8073 0.9645 0.032 Uiso calc 1
C CH 0.8535(15) 0.9215(13) 0.8808(8) 0.027(2) Uani d 1
H HA 0.9023 0.8248 0.8942 0.033 Uiso calc 1
H HB 0.9472 1.0127 0.9121 0.033 Uiso calc 1
C CI 0.7004(19) 0.9601(16) 0.7153(10) 0.039(3) Uani d 1
H HI 0.6155 1.0299 0.7614 0.046 Uiso calc 1
C CJ 0.9679(19) 0.7971(16) 0.6944(10) 0.038(3) Uani d 1
H HJ 1.0619 0.7515 0.7270 0.046 Uiso calc 1
C CK 0.688(2) 0.9292(17) 0.6010(10) 0.044(3) Uani d 1
H HK 0.5903 0.9740 0.5702 0.052 Uiso calc 1
C CL 0.9673(19) 0.7693(15) 0.5821(10) 0.039(3) Uani d 1
H HL 1.0632 0.7098 0.5390 0.047 Uiso calc 1
U U1 0.76728(4) 0.67383(3) 0.17665(2) 0.02069(16) Uani d 1
loop_
_atom_site_aniso_label
_atom_site_aniso_U_11
_atom_site_aniso_U_22
_atom_site_aniso_U_33
_atom_site_aniso_U_12
_atom_site_aniso_U_13
_atom_site_aniso_U_23
S2 0.0141(11) 0.0340(11) 0.0202(10) 0.0047(9) 0.0012(8) 0.0064(9)
O3 0.009(3) 0.042(4) 0.036(4) 0.007(3) 0.005(3) 0.015(3)
O4 0.027(4) 0.064(5) 0.027(4) 0.009(4) 0.003(3) 0.011(4)
O5 0.045(5) 0.044(4) 0.034(4) 0.013(4) 0.007(4) 0.020(4)
N6 0.023(4) 0.028(4) 0.023(4) 0.001(3) -0.002(3) 0.010(3)
O7 0.007(3) 0.053(5) 0.050(5) 0.003(3) -0.002(3) 0.017(4)
O8 0.031(5) 0.038(4) 0.040(4) 0.007(3) 0.000(4) 0.017(4)
O9 0.025(4) 0.063(5) 0.035(4) 0.007(4) -0.002(3) 0.012(4)
OA 0.023(4) 0.041(4) 0.049(5) -0.001(3) -0.004(4) 0.020(4)
CB 0.034(6) 0.034(5) 0.031(6) 0.008(5) 0.003(5) 0.010(4)
CC 0.017(5) 0.037(5) 0.031(5) 0.002(4) 0.003(4) 0.017(4)
OD 0.032(5) 0.052(5) 0.027(4) 0.010(4) 0.000(3) 0.003(4)
CE 0.028(6) 0.028(5) 0.032(5) 0.003(4) 0.004(5) 0.006(4)
CF 0.038(7) 0.032(5) 0.031(6) 0.010(5) 0.006(5) 0.001(4)
CG 0.027(6) 0.022(4) 0.030(5) 0.004(4) -0.005(4) 0.007(4)
CH 0.020(5) 0.040(5) 0.022(5) 0.004(4) 0.001(4) 0.008(4)
CI 0.038(7) 0.050(6) 0.031(6) 0.013(5) 0.004(5) 0.015(5)
CJ 0.034(7) 0.050(6) 0.033(6) 0.016(5) 0.007(5) 0.016(5)
CK 0.046(8) 0.056(7) 0.030(6) 0.020(6) 0.004(5) 0.014(5)
CL 0.035(7) 0.051(6) 0.030(6) 0.015(5) 0.006(5) 0.008(5)
U1 0.0137(2) 0.0255(2) 0.0218(2) 0.00204(13) 0.00166(13) 0.00585(14)
loop_
_atom_type_symbol
_atom_type_description
_atom_type_scat_dispersion_real
_atom_type_scat_dispersion_imag
_atom_type_scat_source
C C 0.0181 0.0091 'International Tables Vol C Tables 4.2.6.8 and 6.1.1.4'
H H 0.0000 0.0000 'International Tables Vol C Tables 4.2.6.8 and 6.1.1.4'
N N 0.0311 0.0180 'International Tables Vol C Tables 4.2.6.8 and 6.1.1.4'
O O 0.0492 0.0322 'International Tables Vol C Tables 4.2.6.8 and 6.1.1.4'
S S 0.3331 0.5567 'International Tables Vol C Tables 4.2.6.8 and 6.1.1.4'
U U -4.3638 13.4090 'International Tables Vol C Tables 4.2.6.8 and 6.1.1.4'
loop_
_geom_angle_atom_site_label_1
_geom_angle_atom_site_label_2
_geom_angle_atom_site_label_3
_geom_angle_site_symmetry_1
_geom_angle_site_symmetry_3
_geom_angle
_geom_angle_publ_flag
O5 S2 O3 . . 112.0(5) ?
O5 S2 O7 . . 112.0(5) ?
O5 S2 OD . . 109.9(5) ?
O7 S2 O3 . . 106.7(4) ?
OD S2 O3 . . 108.3(5) ?
OD S2 O7 . . 107.8(5) ?
S2 O3 U1 . 1_455 134.7(4) ?
CF O4 U1 . . 94.5(7) ?
CI N6 CH . . 121.1(9) ?
CI N6 CJ . . 121.2(10) ?
CJ N6 CH . . 117.4(9) ?
S2 O7 U1 . . 147.3(5) ?
CF O9 U1 . . 92.3(7) ?
CK CB CF . . 120.3(11) ?
CK CB CL . . 119.0(11) ?
CL CB CF . . 120.6(11) ?
CE CC CG . 2_677 119.3(10) ?
CE CC CH . . 122.0(10) ?
CG CC CH 2_677 . 118.5(9) ?
S2 OD U1 . 2_665 158.9(6) ?
CC CE HE . . 119.6 ?
CC CE CG . . 120.9(10) ?
CG CE HE . . 119.6 ?
O4 CF O9 . . 119.8(11) ?
O4 CF CB . . 121.2(11) ?
O9 CF CB . . 118.9(11) ?
CC CG HG 2_677 . 120.1 ?
CE CG CC . 2_677 119.8(10) ?
CE CG HG . . 120.1 ?
N6 CH HA . . 108.9 ?
N6 CH HB . . 108.9 ?
CC CH N6 . . 113.2(8) ?
CC CH HA . . 108.9 ?
CC CH HB . . 108.9 ?
HA CH HB . . 107.8 ?
N6 CI HI . . 120.1 ?
N6 CI CK . . 119.8(12) ?
CK CI HI . . 120.1 ?
N6 CJ HJ . . 119.4 ?
N6 CJ CL . . 121.1(11) ?
CL CJ HJ . . 119.4 ?
CB CK CI . . 119.8(12) ?
CB CK HK . . 120.1 ?
CI CK HK . . 120.1 ?
CB CL HL . . 120.6 ?
CJ CL CB . . 118.7(11) ?
CJ CL HL . . 120.6 ?
O3 U1 O4 1_655 . 74.2(3) y
O3 U1 O9 1_655 . 126.6(3) y
O4 U1 O9 . . 53.0(3) y
O7 U1 O3 . 1_655 157.1(3) y
O7 U1 O4 . . 128.3(3) y
O7 U1 O9 . . 75.4(3) y
O7 U1 OD . 2_665 79.5(3) y
O8 U1 O3 . 1_655 86.7(3) y
O8 U1 O4 . . 91.6(3) y
O8 U1 O7 . . 88.4(3) y
O8 U1 O9 . . 87.3(4) y
O8 U1 OD . 2_665 90.7(4) y
OA U1 O3 . 1_655 93.4(3) y
OA U1 O4 . . 85.9(3) y
OA U1 O7 . . 92.5(3) y
OA U1 O8 . . 177.4(3) y
OA U1 O9 . . 90.5(4) y
OA U1 OD . 2_665 91.9(4) y
OD U1 O3 2_665 1_655 78.2(3) y
OD U1 O4 2_665 . 152.1(3) y
OD U1 O9 2_665 . 154.8(3) y
loop_
_geom_bond_atom_site_label_1
_geom_bond_atom_site_label_2
_geom_bond_site_symmetry_2
_geom_bond_distance
_geom_bond_publ_flag
S2 O3 . 1.490(7) y
S2 O5 . 1.442(8) y
S2 O7 . 1.492(8) y
S2 OD . 1.484(8) y
O3 U1 1_455 2.344(7) y
O4 CF . 1.260(15) ?
O4 U1 . 2.454(8) y
N6 CH . 1.494(12) ?
N6 CI . 1.332(15) ?
N6 CJ . 1.349(16) ?
O7 U1 . 2.318(7) y
O8 U1 . 1.808(8) y
O9 CF . 1.290(16) ?
O9 U1 . 2.485(9) ?
OA U1 . 1.809(8) y
CB CF . 1.475(16) ?
CB CK . 1.379(18) ?
CB CL . 1.397(16) ?
CC CE . 1.388(15) ?
CC CG 2_677 1.402(15) ?
CC CH . 1.499(15) ?
OD U1 2_665 2.330(8) y
CE HE . 0.9300 ?
CE CG . 1.387(16) ?
CG CC 2_677 1.402(15) ?
CG HG . 0.9300 ?
CH HA . 0.9700 ?
CH HB . 0.9700 ?
CI HI . 0.9300 ?
CI CK . 1.393(16) ?
CJ HJ . 0.9300 ?
CJ CL . 1.371(17) ?
CK HK . 0.9300 ?
CL HL . 0.9300 ?
U1 O3 1_655 2.344(7) ?
U1 OD 2_665 2.330(8) ?

_cod_database_fobs_code 2021042
