#------------------------------------------------------------------------------
#$Date: 2019-12-26 21:46:41 +0200 (Thu, 26 Dec 2019) $
#$Revision: 246118 $
#$URL: file:///home/coder/svn-repositories/cod/cif/2/02/19/2021917.cif $
#------------------------------------------------------------------------------
#
# This file is available in the Crystallography Open Database (COD),
# http://www.crystallography.net/. The original data for this entry
# were provided by IUCr Journals, http://journals.iucr.org/.
#
# The file may be used within the scientific community so long as
# proper attribution is given to the journal article from which the
# data were obtained.
#
data_2021917
loop_
_publ_author_name
'Mishra, Risha'
'Pallepogu, Raghavaiah'
_publ_section_title
;
 Supramolecular heterosynthon assemblies of ortho-phenylenediamine with
 substituted aromatic carboxylic acids
;
_journal_coeditor_code           EB5067
_journal_issue                   1
_journal_name_full
'Acta Crystallographica Section B Structural Science, Crystal Engineering and Materials'
_journal_page_first              32
_journal_paper_doi               10.1107/S2052520617014299
_journal_volume                  74
_journal_year                    2018
_chemical_formula_moiety         'C7 H4 N O4, C6 H9 N2'
_chemical_formula_sum            'C13 H13 N3 O4'
_chemical_formula_weight         275.26
_space_group_crystal_system      monoclinic
_space_group_IT_number           4
_space_group_name_Hall           'P 2yb'
_space_group_name_H-M_alt        'P 1 21 1'
_atom_sites_solution_hydrogens   mixed
_atom_sites_solution_primary     direct
_audit_creation_date             2017-04-20
_audit_creation_method
;
Olex2 1.2
(compiled 2017.03.28 svn.r3405 for OlexSys, GUI svn.r5335)
;
_cell_angle_alpha                90
_cell_angle_beta                 91.021(4)
_cell_angle_gamma                90
_cell_formula_units_Z            2
_cell_length_a                   8.881(2)
_cell_length_b                   6.0754(16)
_cell_length_c                   11.995(3)
_cell_measurement_reflns_used    1756
_cell_measurement_temperature    298(2)
_cell_measurement_theta_max      25.01
_cell_measurement_theta_min      2.29
_cell_volume                     647.1(3)
_computing_molecular_graphics    'Olex2 (Dolomanov et al., 2009)'
_computing_publication_material  'Olex2 (Dolomanov et al., 2009)'
_computing_structure_refinement  'ShelXL (Sheldrick, 2015)'
_computing_structure_solution    'ShelXS (Sheldrick, 2008)'
_diffrn_ambient_temperature      298.15
_diffrn_detector                 'CCD area detector'
_diffrn_detector_type            'Bruker SMART CCD 1K area detector'
_diffrn_measured_fraction_theta_full 0.982
_diffrn_measured_fraction_theta_max 0.983
_diffrn_measurement_device       'three-circle diffractometer'
_diffrn_measurement_device_type  'CCD area detector'
_diffrn_measurement_method       'phi and omega scans'
_diffrn_radiation_monochromator  graphite
_diffrn_radiation_probe          x-ray
_diffrn_radiation_type           MoK\a
_diffrn_radiation_wavelength     0.71073
_diffrn_reflns_av_R_equivalents  0.0180
_diffrn_reflns_av_unetI/netI     0.0409
_diffrn_reflns_Laue_measured_fraction_full 0.982
_diffrn_reflns_Laue_measured_fraction_max 0.983
_diffrn_reflns_limit_h_max       10
_diffrn_reflns_limit_h_min       -10
_diffrn_reflns_limit_k_max       7
_diffrn_reflns_limit_k_min       -7
_diffrn_reflns_limit_l_max       12
_diffrn_reflns_limit_l_min       -14
_diffrn_reflns_number            2914
_diffrn_reflns_point_group_measured_fraction_full 0.892
_diffrn_reflns_point_group_measured_fraction_max 0.892
_diffrn_reflns_theta_full        25.000
_diffrn_reflns_theta_max         24.978
_diffrn_reflns_theta_min         1.698
_diffrn_source                   'sealed X-ray tube'
_diffrn_source_target            Mo
_exptl_absorpt_coefficient_mu    0.107
_exptl_absorpt_correction_type   none
_exptl_crystal_density_diffrn    1.413
_exptl_crystal_description       plate
_exptl_crystal_F_000             288
_exptl_crystal_size_max          0.38
_exptl_crystal_size_mid          0.12
_exptl_crystal_size_min          0.09
_refine_diff_density_max         0.161
_refine_diff_density_min         -0.159
_refine_diff_density_rms         0.039
_refine_ls_abs_structure_details
;
 Flack x determined using 533 quotients [(I+)-(I-)]/[(I+)+(I-)]
 (Parsons and Flack (2004), Acta Cryst. A60, s61).
;
_refine_ls_abs_structure_Flack   0.2(10)
_refine_ls_extinction_method     none
_refine_ls_goodness_of_fit_ref   1.041
_refine_ls_hydrogen_treatment    mixed
_refine_ls_matrix_type           full
_refine_ls_number_parameters     201
_refine_ls_number_reflns         2026
_refine_ls_number_restraints     5
_refine_ls_restrained_S_all      1.042
_refine_ls_R_factor_all          0.0645
_refine_ls_R_factor_gt           0.0499
_refine_ls_shift/su_max          0.000
_refine_ls_shift/su_mean         0.000
_refine_ls_structure_factor_coef Fsqd
_refine_ls_weighting_details
;
 w=1/[\s^2^(Fo^2^)+(0.0690P)^2^]
 where P=(Fo^2^+2Fc^2^)/3
;
_refine_ls_weighting_scheme      calc
_refine_ls_wR_factor_gt          0.1161
_refine_ls_wR_factor_ref         0.1256
_reflns_Friedel_coverage         0.644
_reflns_Friedel_fraction_full    0.780
_reflns_Friedel_fraction_max     0.781
_reflns_number_gt                1635
_reflns_number_total             2026
_reflns_threshold_expression     'I > 2\s(I)'
_iucr_refine_instructions_details
;
TITL skd207_m in P2(1)
CELL  0.71073   8.8809   6.0754  11.9953   90.000   91.021   90.000
ZERR     2.00   0.0024   0.0016   0.0032    0.000    0.004    0.000
LATT  -1
SYMM  - X, 1/2 + Y, - Z
SFAC  C    H    N    O
UNIT  26   26   6    8
MERG   2
OMIT    -1.00  50.00
EQIV $1 -X,-0.5+Y,1-Z
EQIV $2 1-X,0.5+Y,1-Z
EQIV $3 1-X,-0.5+Y,1-Z
EQIV $4 -1+X,+Y,+Z
EQIV $5 -1+X,1+Y,+Z
DFIX 0.85 N1 H1B
DFIX 0.89 N1 H1A
DFIX 0.87 N1 H1C
DFIX 0.85 N2 H2B
HTAB N1 N2_$1
HTAB N1 O2_$2
HTAB N1 O1_$3
HTAB N1 O2_$4
HTAB N2 O2_$5
HTAB N2 O1_$4
HTAB N1 O2_$2
HTAB N1 N2_$1
HTAB N1 O1_$3
HTAB N1 O2_$4
HTAB N2 O2_$5
HTAB N2 O1_$4
FMAP   2
PLAN   10
SIZE     0.090   0.120   0.380
ACTA    50.00
BOND   $H
L.S.   8
TEMP    25.00
WGHT    0.069000
FVAR       0.80429
C1    1    0.270126    0.653898    0.405853    11.00000    0.03477    0.03271 =
         0.03415    0.00304    0.00192   -0.00118
C2    1    0.303888    0.853376    0.458625    11.00000    0.03472    0.03412 =
         0.03914    0.00297   -0.00190    0.00218
C3    1    0.428322    0.967151    0.420426    11.00000    0.04736    0.04463 =
         0.04454    0.00265   -0.00331   -0.00674
AFIX  43
H3    2    0.452476    1.102432    0.452314    11.00000   -1.20000
AFIX   0
C4    1    0.516369    0.887078    0.337644    11.00000    0.04035    0.06375 =
         0.05245    0.01030    0.00296   -0.01189
AFIX  43
H4    2    0.598332    0.968294    0.313473    11.00000   -1.20000
AFIX   0
C5    1    0.483775    0.684947    0.289584    11.00000    0.04635    0.07490 =
         0.04560    0.00970    0.01335    0.00562
AFIX  43
H5    2    0.544865    0.627753    0.234472    11.00000   -1.20000
AFIX   0
C6    1    0.359380    0.569576    0.324613    11.00000    0.04883    0.04130 =
         0.04201   -0.00100    0.00248    0.00456
AFIX  43
H6    2    0.336193    0.433878    0.292800    11.00000   -1.20000
AFIX   0
C7    1    0.930508    0.403146    0.801798    11.00000    0.04587    0.03400 =
         0.03206   -0.00381   -0.00229    0.00187
C8    1    0.965036    0.195381    0.841972    11.00000    0.05077    0.03570 =
         0.03927    0.00113    0.00070    0.00524
AFIX  43
H8    2    1.041002    0.114099    0.809006    11.00000   -1.20000
AFIX   0
C9    1    0.888461    0.107871    0.929916    11.00000    0.05818    0.03921 =
         0.04077    0.00525   -0.00012   -0.00002
AFIX  43
H9    2    0.912511   -0.031230    0.957260    11.00000   -1.20000
AFIX   0
C10   1    0.775867    0.229303    0.976702    11.00000    0.05677    0.05179 =
         0.03936    0.00659    0.00670   -0.00855
C11   1    0.739438    0.436652    0.940729    11.00000    0.05893    0.05700 =
         0.05354   -0.00412    0.01509    0.00788
AFIX  43
H11   2    0.663841    0.517004    0.974705    11.00000   -1.20000
AFIX   0
C12   1    0.817869    0.523267    0.852715    11.00000    0.06296    0.03744 =
         0.04891    0.00532    0.00419    0.00930
AFIX  43
H12   2    0.794988    0.664056    0.827127    11.00000   -1.20000
AFIX   0
C13   1    1.010966    0.499175    0.703107    11.00000    0.04753    0.04185 =
         0.03409    0.00440   -0.00489   -0.00206
N1    3    0.130845    0.541204    0.436303    11.00000    0.04106    0.03363 =
         0.04557   -0.00238    0.00369   -0.00318
N2    3    0.212829    0.938963    0.541266    11.00000    0.05002    0.04147 =
         0.05248   -0.01402    0.00868   -0.00016
N3    3    0.689878    0.133387    1.068627    11.00000    0.08424    0.07218 =
         0.06457    0.00811    0.03038   -0.00122
O1    4    1.001453    0.702674    0.687900    11.00000    0.07880    0.03797 =
         0.05986    0.01260    0.01188    0.00110
O2    4    1.081063    0.368504    0.641238    11.00000    0.05437    0.04254 =
         0.04011   -0.00354    0.00996    0.00227
O3    4    0.601542    0.248210    1.116244    11.00000    0.16931    0.10454 =
         0.12036    0.01200    0.09851    0.00751
O4    4    0.708608   -0.057692    1.091244    11.00000    0.11279    0.08631 =
         0.10575    0.03972    0.04371    0.00279
H1A   2    0.050380    0.632683    0.417229    11.00000    0.07672
H1B   2    0.114583    0.425330    0.394966    11.00000    0.05673
H1C   2    0.132829    0.497266    0.509280    11.00000    0.08106
H2A   2    0.257676    1.051883    0.582791    11.00000    0.07886
H2B   2    0.168194    0.846066    0.585586    11.00000    0.08733
HKLF 4
 
REM  skd207_m in P2(1)
REM R1 =  0.0499 for    1635 Fo > 4sig(Fo)  and  0.0645 for all    2026 data
REM    201 parameters refined using      5 restraints
 
END  
     
WGHT      0.0690      0.0000 

REM Highest difference peak  0.161,  deepest hole -0.159,  1-sigma level  0.039
Q1    1   0.7178  0.2988  1.1606  11.00000  0.05    0.16
Q2    1   0.5634  0.3685  1.0569  11.00000  0.05    0.15
Q3    1   0.7471  0.5836  0.7814  11.00000  0.05    0.14
Q4    1   1.0931  0.0418  0.7684  11.00000  0.05    0.13
Q5    1   0.3829  0.4188  0.3064  11.00000  0.05    0.12
Q6    1   0.4550  0.4980  1.0888  11.00000  0.05    0.12
Q7    1   0.8460  0.4311  0.7881  11.00000  0.05    0.12
Q8    1   1.1565  0.6402  0.7206  11.00000  0.05    0.12
Q9    1   0.2948  1.1359  0.4213  11.00000  0.05    0.12
Q10   1   0.9257  0.7666  0.7420  11.00000  0.05    0.11
;
_cod_data_source_file            eb5067sup1.cif
_cod_data_source_block           OPDPNB
_cod_database_code               2021917
_shelxl_version_number           2012-9
_shelx_space_group_comment
;
The symmetry employed for this shelxl refinement is uniquely defined
by the following loop, which should always be used as a source of
symmetry information in preference to the above space-group names.
They are only intended as comments.
;
_shelx_estimated_absorpt_t_max   0.990
_shelx_estimated_absorpt_t_min   0.960
_olex2_refinement_description
;
1. Fixed Uiso
 At 1.2 times of:
  All C(H) groups
2. Restrained distances
 N1-H1B
 0.85 with sigma of 0.02
 N1-H1A
 0.89 with sigma of 0.02
 N1-H1C
 0.87 with sigma of 0.02
 N2-H2B
 0.85 with sigma of 0.02
3.a Aromatic/amide H refined with riding coordinates:
 C3(H3), C4(H4), C5(H5), C6(H6), C8(H8), C9(H9), C11(H11), C12(H12)
;
_olex2_submission_special_instructions 'No special instructions were received'
loop_
_space_group_symop_operation_xyz
'x, y, z'
'-x, y+1/2, -z'
loop_
_atom_site_label
_atom_site_type_symbol
_atom_site_fract_x
_atom_site_fract_y
_atom_site_fract_z
_atom_site_U_iso_or_equiv
_atom_site_adp_type
_atom_site_occupancy
_atom_site_site_symmetry_order
_atom_site_calc_flag
_atom_site_refinement_flags_posn
C1 C 0.2701(4) 0.6539(6) 0.4059(3) 0.0339(10) Uani 1 1 d .
C2 C 0.3039(4) 0.8534(7) 0.4586(3) 0.0360(10) Uani 1 1 d .
C3 C 0.4283(5) 0.9672(8) 0.4204(4) 0.0456(12) Uani 1 1 d .
H3 H 0.4525 1.1024 0.4523 0.055 Uiso 1 1 calc R
C4 C 0.5164(5) 0.8871(9) 0.3376(4) 0.0522(13) Uani 1 1 d .
H4 H 0.5983 0.9683 0.3135 0.063 Uiso 1 1 calc R
C5 C 0.4838(5) 0.6849(9) 0.2896(4) 0.0555(13) Uani 1 1 d .
H5 H 0.5449 0.6278 0.2345 0.067 Uiso 1 1 calc R
C6 C 0.3594(5) 0.5696(8) 0.3246(4) 0.0440(11) Uani 1 1 d .
H6 H 0.3362 0.4339 0.2928 0.053 Uiso 1 1 calc R
C7 C 0.9305(4) 0.4031(7) 0.8018(3) 0.0373(10) Uani 1 1 d .
C8 C 0.9650(5) 0.1954(7) 0.8420(4) 0.0419(10) Uani 1 1 d .
H8 H 1.0410 0.1141 0.8090 0.050 Uiso 1 1 calc R
C9 C 0.8885(5) 0.1079(8) 0.9299(4) 0.0461(12) Uani 1 1 d .
H9 H 0.9125 -0.0312 0.9573 0.055 Uiso 1 1 calc R
C10 C 0.7759(5) 0.2293(9) 0.9767(4) 0.0492(12) Uani 1 1 d .
C11 C 0.7394(5) 0.4367(9) 0.9407(4) 0.0563(13) Uani 1 1 d .
H11 H 0.6638 0.5170 0.9747 0.068 Uiso 1 1 calc R
C12 C 0.8179(5) 0.5233(8) 0.8527(4) 0.0497(13) Uani 1 1 d .
H12 H 0.7950 0.6641 0.8271 0.060 Uiso 1 1 calc R
C13 C 1.0110(5) 0.4992(7) 0.7031(4) 0.0412(12) Uani 1 1 d .
N1 N 0.1308(4) 0.5412(6) 0.4363(3) 0.0401(9) Uani 1 1 d D
N2 N 0.2128(5) 0.9390(7) 0.5413(4) 0.0479(10) Uani 1 1 d D
N3 N 0.6899(6) 0.1334(9) 1.0686(4) 0.0733(14) Uani 1 1 d .
O1 O 1.0015(4) 0.7027(5) 0.6879(3) 0.0587(10) Uani 1 1 d .
O2 O 1.0811(3) 0.3685(5) 0.6412(2) 0.0456(8) Uani 1 1 d .
O3 O 0.6015(7) 0.2482(10) 1.1162(5) 0.130(2) Uani 1 1 d .
O4 O 0.7086(5) -0.0577(9) 1.0912(4) 0.1011(15) Uani 1 1 d .
H1A H 0.050(4) 0.633(7) 0.417(4) 0.077(17) Uiso 1 1 d D
H1B H 0.115(5) 0.425(6) 0.395(3) 0.057(15) Uiso 1 1 d D
H1C H 0.133(6) 0.497(10) 0.509(3) 0.081(19) Uiso 1 1 d D
H2A H 0.258(6) 1.052(11) 0.583(5) 0.079(18) Uiso 1 1 d .
H2B H 0.168(6) 0.846(9) 0.586(4) 0.09(2) Uiso 1 1 d D
loop_
_atom_site_aniso_label
_atom_site_aniso_U_11
_atom_site_aniso_U_22
_atom_site_aniso_U_33
_atom_site_aniso_U_23
_atom_site_aniso_U_13
_atom_site_aniso_U_12
C1 0.035(2) 0.033(2) 0.034(2) 0.003(2) 0.0019(17) -0.0012(18)
C2 0.035(2) 0.034(2) 0.039(2) 0.003(2) -0.0019(19) 0.002(2)
C3 0.047(3) 0.045(3) 0.045(3) 0.003(2) -0.003(2) -0.007(2)
C4 0.040(2) 0.064(3) 0.052(3) 0.010(3) 0.003(2) -0.012(3)
C5 0.046(3) 0.075(4) 0.046(3) 0.010(3) 0.013(2) 0.006(3)
C6 0.049(2) 0.041(3) 0.042(3) -0.001(2) 0.002(2) 0.005(2)
C7 0.046(2) 0.034(3) 0.032(2) -0.004(2) -0.0023(18) 0.002(2)
C8 0.051(2) 0.036(2) 0.039(2) 0.001(2) 0.001(2) 0.005(2)
C9 0.058(3) 0.039(3) 0.041(2) 0.005(2) 0.000(2) 0.000(2)
C10 0.057(3) 0.052(3) 0.039(3) 0.007(2) 0.007(2) -0.009(2)
C11 0.059(3) 0.057(3) 0.054(3) -0.004(3) 0.015(2) 0.008(3)
C12 0.063(3) 0.037(3) 0.049(3) 0.005(2) 0.004(3) 0.009(2)
C13 0.048(3) 0.042(3) 0.034(3) 0.004(2) -0.005(2) -0.002(2)
N1 0.041(2) 0.034(2) 0.046(2) -0.0024(18) 0.0037(18) -0.0032(17)
N2 0.050(2) 0.041(2) 0.052(3) -0.014(2) 0.009(2) -0.0002(19)
N3 0.084(3) 0.072(4) 0.065(3) 0.008(3) 0.030(3) -0.001(3)
O1 0.079(2) 0.0380(19) 0.060(2) 0.0126(17) 0.0119(18) 0.0011(17)
O2 0.0544(17) 0.0425(18) 0.0401(17) -0.0035(16) 0.0100(14) 0.0023(15)
O3 0.169(5) 0.105(4) 0.120(4) 0.012(4) 0.099(4) 0.008(4)
O4 0.113(3) 0.086(3) 0.106(4) 0.040(3) 0.044(3) 0.003(3)
loop_
_atom_type_symbol
_atom_type_description
_atom_type_scat_dispersion_real
_atom_type_scat_dispersion_imag
_atom_type_scat_source
C C 0.0033 0.0016 'International Tables Vol C Tables 4.2.6.8 and 6.1.1.4'
H H 0.0000 0.0000 'International Tables Vol C Tables 4.2.6.8 and 6.1.1.4'
N N 0.0061 0.0033 'International Tables Vol C Tables 4.2.6.8 and 6.1.1.4'
O O 0.0106 0.0060 'International Tables Vol C Tables 4.2.6.8 and 6.1.1.4'
loop_
_geom_angle_atom_site_label_1
_geom_angle_atom_site_label_2
_geom_angle_atom_site_label_3
_geom_angle
C2 C1 N1 117.9(3)
C6 C1 C2 121.7(4)
C6 C1 N1 120.4(4)
C3 C2 C1 116.6(4)
C3 C2 N2 121.7(4)
N2 C2 C1 121.6(4)
C2 C3 H3 118.9
C4 C3 C2 122.2(4)
C4 C3 H3 118.9
C3 C4 H4 120.0
C3 C4 C5 120.1(4)
C5 C4 H4 120.0
C4 C5 H5 120.5
C6 C5 C4 119.1(5)
C6 C5 H5 120.5
C1 C6 C5 120.3(4)
C1 C6 H6 119.9
C5 C6 H6 119.9
C8 C7 C12 118.9(4)
C8 C7 C13 121.3(4)
C12 C7 C13 119.7(4)
C7 C8 H8 119.6
C9 C8 C7 120.8(4)
C9 C8 H8 119.6
C8 C9 H9 120.6
C10 C9 C8 118.8(4)
C10 C9 H9 120.6
C9 C10 N3 119.0(5)
C11 C10 C9 122.4(5)
C11 C10 N3 118.5(5)
C10 C11 H11 120.9
C10 C11 C12 118.2(5)
C12 C11 H11 120.9
C7 C12 H12 119.5
C11 C12 C7 120.9(4)
C11 C12 H12 119.5
O1 C13 C7 117.6(4)
O1 C13 O2 124.7(4)
O2 C13 C7 117.7(4)
C1 N1 H1A 108(3)
C1 N1 H1B 112(3)
C1 N1 H1C 112(3)
H1A N1 H1B 103(4)
H1A N1 H1C 114(5)
H1B N1 H1C 108(5)
C2 N2 H2A 114(3)
C2 N2 H2B 118(4)
H2A N2 H2B 110(5)
O3 N3 C10 118.5(6)
O3 N3 O4 122.8(5)
O4 N3 C10 118.6(5)
loop_
_geom_bond_atom_site_label_1
_geom_bond_atom_site_label_2
_geom_bond_distance
C1 C2 1.397(6)
C1 C6 1.367(6)
C1 N1 1.466(5)
C2 C3 1.388(6)
C2 N2 1.391(6)
C3 H3 0.9300
C3 C4 1.364(6)
C4 H4 0.9300
C4 C5 1.385(7)
C5 H5 0.9300
C5 C6 1.380(6)
C6 H6 0.9300
C7 C8 1.384(6)
C7 C12 1.389(6)
C7 C13 1.511(6)
C8 H8 0.9300
C8 C9 1.372(6)
C9 H9 0.9300
C9 C10 1.371(6)
C10 C11 1.369(8)
C10 N3 1.473(6)
C11 H11 0.9300
C11 C12 1.379(7)
C12 H12 0.9300
C13 O1 1.252(5)
C13 O2 1.259(5)
N1 H1A 0.93(2)
N1 H1B 0.87(2)
N1 H1C 0.92(3)
N2 H2A 0.93(6)
N2 H2B 0.88(3)
N3 O3 1.202(7)
N3 O4 1.203(6)
loop_
_geom_hbond_atom_site_label_D
_geom_hbond_atom_site_label_H
_geom_hbond_atom_site_label_A
_geom_hbond_distance_DH
_geom_hbond_distance_HA
_geom_hbond_distance_DA
_geom_hbond_angle_DHA
_geom_hbond_site_symmetry_A
N1 H1A N2 0.93(2) 2.67(5) 3.131(5) 111(4) 2_546
N1 H1A N2 0.93(2) 2.67(5) 3.131(5) 111(4) 2_546
N1 H1A O2 0.93(2) 1.97(3) 2.881(5) 166(5) 2_656
N1 H1A O2 0.93(2) 1.97(3) 2.881(5) 166(5) 2_656
N1 H1B O1 0.87(2) 1.96(3) 2.787(5) 158(4) 2_646
N1 H1B O1 0.87(2) 1.96(3) 2.787(5) 158(4) 2_646
N1 H1C O2 0.92(3) 1.83(3) 2.716(5) 162(5) 1_455
N1 H1C O2 0.92(3) 1.83(3) 2.716(5) 162(5) 1_455
N2 H2A O2 0.93(6) 2.59(6) 3.109(5) 116(4) 1_465
N2 H2A O2 0.93(6) 2.59(6) 3.109(5) 116(4) 1_465
N2 H2B O1 0.88(3) 2.13(3) 2.966(6) 160(5) 1_455
N2 H2B O1 0.88(3) 2.13(3) 2.966(6) 160(5) 1_455
loop_
_refln_index_h
_refln_index_k
_refln_index_l
_refln_F_squared_meas
_refln_F_squared_sigma
-1 0 0 341.33 4.56
-2 0 0 1.28 0.59
2 0 0 2.13 0.63
3 0 0 183.55 4
-3 0 0 186.51 3.94
-4 0 0 260.65 5.36
4 0 0 265.5 5.54
-5 0 0 62.25 2.79
5 0 0 50.84 2.75
-6 0 0 -0.24 0.88
6 0 0 -0.52 0.95
7 0 0 2.38 1.51
-7 0 0 1.8 1.16
8 0 0 2.53 1.69
-8 0 0 4.34 1.47
-9 0 0 3.28 1.54
9 0 0 -0.65 1.46
10 0 0 7.44 2.62
0 1 0 -0.05 0.34
0 1 0 0.05 0.32
-1 1 0 1675.73 18.73
-1 1 0 1680.01 20.04
1 -1 0 1681.87 18.76
1 1 0 1651.16 18.7
2 -1 0 109.39 2.66
-2 -1 0 110.5 2.29
2 1 0 104.12 2.65
-2 1 0 108 2.98
-3 1 0 254.18 5.31
3 -1 0 259.55 5.07
-3 -1 0 263.68 4.53
3 1 0 260.64 4.95
-4 1 0 378.42 7.33
4 -1 0 373.61 7.03
-4 -1 0 384.58 6.41
4 1 0 382.25 6.97
5 -1 0 67.68 3.1
-5 -1 0 72.55 2.75
5 1 0 67.92 3.08
-5 1 0 70.57 3.23
-6 1 0 60.62 3.33
6 -1 0 54.49 3.19
-6 -1 0 61.02 3
6 1 0 62.21 3.31
7 1 0 4.99 1.74
-7 -1 0 2.83 1.35
-7 1 0 5.75 1.58
7 -1 0 6.59 1.72
-8 1 0 6.23 1.74
8 -1 0 4.93 1.74
8 1 0 5.08 1.87
-9 1 0 39.16 3.37
9 1 0 32.04 3.16
9 -1 0 37.62 3.33
-10 1 0 4.26 1.75
10 1 0 6.09 2.33
10 -1 0 5.17 2.15
0 2 0 332.8 5.57
1 2 0 23.01 1.36
-1 2 0 20.36 1.52
1 -2 0 19.5 1.23
-1 2 0 20.72 1.38
-2 2 0 191.73 4.71
2 -2 0 189.02 4.3
2 2 0 194.78 4.23
-3 -2 0 80.91 2.33
3 -2 0 83.18 2.9
-3 2 0 82.24 3.29
3 2 0 83.62 2.91
4 -2 0 81.06 3.19
-4 2 0 81.1 3.49
-4 -2 0 80.58 2.6
4 2 0 85.05 3.13
5 2 0 30.37 2.22
5 -2 0 27.59 2.19
-5 2 0 28.44 2.51
-5 -2 0 32.66 2.05
6 2 0 43.55 2.94
-6 2 0 44.02 3.12
6 -2 0 43.28 2.97
-6 -2 0 42.97 2.48
-7 2 0 20.05 2.54
7 -2 0 21.04 2.41
7 2 0 21.59 2.53
-8 2 0 26.33 2.91
8 2 0 27.58 2.86
8 -2 0 32.16 3.08
-9 2 0 1.89 1.62
9 2 0 3.04 1.81
9 -2 0 2.34 1.69
-10 2 0 3.82 1.78
10 2 0 2.49 1.96
10 -2 0 -1.42 1.61
0 3 0 -0.29 0.59
1 3 0 128.61 3.67
-1 3 0 128.76 3.71
-1 3 0 133.91 4.16
1 -3 0 138.56 3.81
2 3 0 24.06 1.75
2 -3 0 20.94 1.62
-2 3 0 24.07 1.89
-2 3 0 23.85 2.04
3 -3 0 2.03 0.83
-3 -3 0 0.91 0.66
-3 3 0 3.43 1.23
3 3 0 1.75 0.94
-4 -3 0 16.55 1.57
4 -3 0 12.32 1.64
-4 3 0 16.65 2.17
4 3 0 18.05 1.84
5 -3 0 74.64 3.65
-5 3 0 70.35 3.87
5 3 0 69.89 3.39
6 3 0 9.77 1.78
-6 3 0 8.28 1.92
6 -3 0 4.62 1.54
-7 3 0 4.93 1.71
7 -3 0 4.33 1.54
7 3 0 10.21 1.96
-8 3 0 3.05 1.75
8 -3 0 1.74 1.37
8 3 0 1.85 1.41
9 3 0 -1.05 1.37
9 -3 0 0.02 1.33
-9 3 0 3 1.7
0 4 0 257.32 6.02
-1 4 0 4.37 1.12
1 4 0 2.59 1.03
1 -4 0 3.97 0.98
-2 4 0 9.27 1.58
2 -4 0 7.21 1.3
-2 4 0 14.86 2.07
2 4 0 8.16 1.38
3 -4 0 15.77 1.8
3 4 0 18.62 2.05
-3 4 0 15.51 2.37
4 -4 0 195.8 6.15
-4 4 0 218.88 6.91
4 4 0 184.66 5.75
-5 4 0 197.14 6.99
5 -4 0 181.27 6.13
5 4 0 192.11 5.99
6 4 0 15.68 2.16
6 -4 0 12.84 2.18
-6 4 0 13.6 2.5
7 4 0 7.14 1.86
7 -4 0 7.75 2.05
-7 4 0 12.08 2.58
8 -4 0 0.95 1.57
8 4 0 4.38 1.79
-8 4 0 5.74 2.01
9 4 0 5.34 2.04
-9 4 0 8.76 2.53
9 -4 0 6.76 2.29
0 -5 0 -0.91 0.57
0 5 0 0.96 1.05
-1 5 0 0.44 1.01
1 5 0 1.99 1.21
1 -5 0 3.99 1.07
2 -5 0 12.32 1.63
2 5 0 13.47 2
-2 5 0 15.4 2.14
3 -5 0 31.06 2.56
-3 5 0 31.03 3.1
3 5 0 33.01 2.67
4 5 0 25.35 2.63
-4 5 0 20.17 2.8
4 -5 0 23.35 2.45
5 -5 0 12.59 2.22
-5 5 0 18.31 2.82
5 5 0 15.9 2.31
6 -5 0 17.43 2.65
-6 5 0 16.32 2.85
6 5 0 17.28 2.58
7 -5 0 10.05 2.33
-7 5 0 6.36 2.41
7 5 0 10.37 2.26
-8 5 0 9.26 2.81
8 -5 0 15.83 3.04
0 6 0 30.77 2.63
0 -6 0 27.16 2.36
1 6 0 24.07 2.53
-1 6 0 26.84 2.61
1 -6 0 26.19 2.34
2 -6 0 26.52 2.44
-2 6 0 23.29 2.73
2 6 0 27.26 2.79
3 6 0 3.85 1.59
3 -6 0 4.13 1.44
4 6 0 9.72 2.11
-4 6 0 8.5 2.29
4 -6 0 9.65 2.08
5 -6 0 0.25 1.39
-5 6 0 0.48 1.7
6 -6 0 13.72 2.72
-6 6 0 9.34 2.89
1 -7 0 -0.3 0.91
-1 7 0 1.73 1.43
-2 7 0 4.89 1.85
2 -7 0 3.32 1.5
3 -7 0 0.84 1.23
10 0 -1 5.77 2.35
9 0 -1 0.85 1.72
-8 0 1 -0.33 1
8 0 -1 1.72 1.6
7 0 -1 1.78 1.46
-7 0 1 0.84 1.16
6 0 -1 3.15 1.4
-6 0 1 1.34 1.05
5 0 -1 1.55 0.96
-5 0 1 0.59 0.77
-4 0 1 0.78 0.67
4 0 -1 1.64 0.77
-3 0 1 126 3.02
3 0 -1 127.51 3.29
-2 0 1 100.95 2.35
-1 0 1 171.38 2.71
0 0 -1 41.34 0.97
1 0 1 186.64 2.96
-1 0 -1 193.6 3.33
-2 0 -1 847.67 11.17
2 0 1 866.96 10.6
-3 0 -1 52.01 2.18
3 0 1 53.53 2.12
4 0 1 1.66 0.83
-4 0 -1 0.64 0.77
-5 0 -1 4.17 1.13
5 0 1 5.03 1.19
6 0 1 5.34 1.48
-6 0 -1 9.38 1.6
-7 0 -1 3.5 1.41
7 0 1 2.9 1.6
8 0 1 4.26 1.74
-8 0 -1 2.72 1.42
9 0 1 4.15 2
-9 0 -1 6.35 1.75
10 0 1 -1.16 1.56
10 1 -1 24.31 3.1
-10 1 1 24.46 2.98
10 -1 -1 26.97 3.47
9 1 -1 33.74 3.25
9 -1 -1 30.81 3.35
-9 1 1 32.5 3.11
8 -1 -1 19.71 2.61
8 1 -1 22.16 2.71
-8 1 1 24 2.68
-7 1 1 38.52 2.88
7 -1 -1 31.15 2.87
-7 -1 1 32.03 2.49
7 1 -1 28.03 2.87
-6 1 1 45.01 2.89
-6 -1 1 45.2 2.5
6 -1 -1 45.29 3.01
6 1 -1 38.26 2.79
-5 -1 1 301.82 5.74
5 -1 -1 304.17 6.76
-5 1 1 295.21 6.74
5 1 -1 315.73 6.78
4 1 -1 74.09 2.92
-4 1 1 75.26 3.03
-4 -1 1 72.96 2.33
4 -1 -1 73.98 2.86
3 1 -1 417.1 7
3 -1 -1 433.8 7.02
-3 -1 1 431.38 6.03
-3 1 1 423.89 7.45
-2 -1 1 50.5 1.26
2 1 -1 55.14 2
2 -1 -1 52.42 1.86
-2 1 1 53.14 2.22
-1 1 1 315.86 5.28
1 -1 -1 317.7 4.47
1 1 -1 306.94 4.94
0 1 1 1055.03 12.1
0 1 -1 1069.05 12.63
0 1 -1 1086.64 12.9
1 1 1 45.24 1.31
-1 1 -1 41.78 1.72
-1 1 -1 44.06 1.58
1 -1 1 47.79 1.55
2 -1 1 732.07 9.77
-2 -1 -1 724.47 9.76
2 1 1 731.36 9.28
-2 1 -1 739.99 10.4
3 -1 1 167.21 3.9
-3 -1 -1 164.99 3.7
-3 1 -1 162.09 4.17
3 1 1 161.44 3.66
-4 -1 -1 121.92 3.53
-4 1 -1 130.97 4.05
4 -1 1 129.69 3.76
4 1 1 125.81 3.66
5 1 1 77.28 3.24
5 -1 1 76.56 3.28
-5 -1 -1 76.1 3.06
-5 1 -1 77.1 3.49
6 -1 1 0.47 0.94
-6 -1 -1 1.71 1.08
6 1 1 -0.87 1.04
-6 1 -1 0.1 1
7 -1 1 34.77 2.96
7 1 1 38.56 2.96
-7 1 -1 38.18 3.03
-7 -1 -1 39.7 2.94
-8 1 -1 12.57 2.18
8 -1 1 10.94 2.06
-8 -1 -1 8.53 1.71
8 1 1 12.18 2.25
9 1 1 16.48 2.67
-9 1 -1 13.72 2.38
9 -1 1 20.78 2.88
10 1 1 1.85 1.86
-10 1 -1 2.04 1.71
10 -1 1 -0.22 1.7
10 2 -1 -1.16 1.62
10 -2 -1 0.25 1.66
-10 2 1 2.74 1.84
9 2 -1 48.49 3.86
9 -2 -1 42.1 3.51
-9 2 1 50.33 3.89
-8 2 1 43.22 3.34
8 -2 -1 44.64 3.43
8 2 -1 41.7 3.38
7 -2 -1 11.62 2
-7 2 1 7.93 1.85
7 2 -1 11.18 2.07
-6 2 1 4.58 1.5
6 2 -1 1.34 1.17
6 -2 -1 5.65 1.5
-5 2 1 203.5 5.82
-5 -2 1 186.96 4.03
5 -2 -1 190.6 5.38
5 2 -1 189.62 5.32
4 2 -1 22.85 1.89
4 -2 -1 18.49 1.63
-4 -2 1 22.05 1.35
-4 2 1 19.23 2.01
3 2 -1 239.72 5.38
-3 -2 1 241.16 3.89
3 -2 -1 239.23 5.12
-3 2 1 241.51 5.91
2 -2 -1 82.36 2.56
2 2 -1 83.71 2.82
-2 -2 1 81.06 1.85
-2 2 1 83.68 3.08
1 -2 -1 303.34 5.08
1 2 -1 290.92 5.41
-1 2 1 306.05 5.04
-1 2 1 292.52 5.83
0 2 1 354.8 5.43
0 2 -1 350.11 6.02
0 2 -1 351.36 5.72
-1 2 -1 81.42 2.69
1 -2 1 77.18 2.56
1 2 1 78.68 2.19
-1 2 -1 74.47 2.55
-2 2 -1 18.51 1.64
2 -2 1 19.08 1.38
-2 -2 -1 18.48 1.33
-2 2 -1 16.69 1.43
2 2 1 16.54 1.32
-3 2 -1 64.12 2.92
-3 -2 -1 70.38 2.46
3 2 1 67.43 2.5
3 -2 1 70.98 2.77
4 2 1 104.44 3.36
-4 2 -1 101.14 3.92
4 -2 1 105.25 3.62
-4 -2 -1 95.55 3.13
-5 -2 -1 12.67 1.83
-5 2 -1 12.65 1.88
5 2 1 12.89 1.69
5 -2 1 12.36 1.71
6 -2 1 5.49 1.54
-6 -2 -1 5.93 1.4
-6 2 -1 5.26 1.62
6 2 1 7.05 1.51
7 2 1 16.84 2.37
-7 2 -1 11.97 2.16
7 -2 1 13.6 2.18
8 -2 1 5.96 1.81
8 2 1 4.44 1.66
-8 2 -1 6.74 2.02
9 2 1 5.56 1.9
-9 2 -1 4.27 1.87
9 -2 1 8.07 2.16
10 2 1 21.64 3.13
-10 2 -1 17.49 2.96
10 -2 1 13.43 2.84
9 3 -1 2.66 1.74
9 -3 -1 1.54 1.6
-9 3 1 2.72 1.81
8 3 -1 5.27 1.81
-8 3 1 2.92 1.7
8 -3 -1 3.82 1.78
-7 3 1 -0.09 1.34
7 -3 -1 0.09 1.19
7 3 -1 -0.85 1.1
6 3 -1 4.21 1.53
-6 3 1 4.7 1.72
6 -3 -1 5.61 1.64
5 3 -1 111.37 4.33
-5 3 1 111.8 4.89
5 -3 -1 100.02 4.16
4 -3 -1 87.84 3.5
4 3 -1 85.15 3.65
-4 3 1 80.54 3.94
-3 3 1 4.99 1.32
3 3 -1 2.88 1.03
3 -3 -1 5.78 1.16
-3 -3 1 3.35 0.69
2 -3 -1 20.99 1.57
-2 3 1 24.59 2.17
2 3 -1 24.21 1.85
-1 3 1 269.99 5.42
1 3 -1 258.13 5.67
1 -3 -1 267.51 5.41
0 3 -1 503.69 8.64
0 3 1 502.19 7.92
0 3 -1 491.9 8.34
-1 3 -1 79.8 3.06
-1 3 -1 84 3.13
1 -3 1 86.27 3.12
1 3 1 79.54 2.71
-2 3 -1 136.56 4.42
-2 3 -1 141.55 4.29
2 -3 1 141.3 4.29
2 3 1 140 3.77
-3 -3 -1 93.41 3.13
3 -3 1 94.36 3.68
3 3 1 92.37 3.26
-3 3 -1 93.32 3.87
-4 -3 -1 70.47 2.85
4 -3 1 68.16 3.34
4 3 1 69.02 3.02
-4 3 -1 63.64 3.56
-5 3 -1 13.35 2.14
5 -3 1 12.73 1.76
-5 -3 -1 16.61 1.94
5 3 1 15.41 1.83
6 -3 1 29 2.73
-6 3 -1 30.85 3.12
6 3 1 26.64 2.47
7 3 1 19.48 2.29
-7 3 -1 21.28 2.83
7 -3 1 25.26 2.74
-8 3 -1 3.14 1.86
8 -3 1 2.49 1.61
8 3 1 1.12 1.42
-9 3 -1 0.65 1.47
9 3 1 2.27 1.64
9 -3 1 -0.28 1.51
9 4 -1 9.41 2.42
-9 4 1 4.28 2.05
9 -4 -1 6.37 2.33
-8 4 1 8.62 2.37
8 4 -1 8.61 2.18
8 -4 -1 9.21 2.27
7 -4 -1 1.67 1.51
7 4 -1 4.25 1.62
-7 4 1 4.87 1.94
-6 4 1 2.62 1.55
6 4 -1 2.51 1.46
6 -4 -1 1.47 1.25
5 4 -1 4.69 1.45
-5 4 1 3.56 1.73
5 -4 -1 8.26 1.77
-4 4 1 1.48 1.47
4 -4 -1 1.62 1.09
4 4 -1 3.05 1.38
-3 4 1 39.51 3.23
3 -4 -1 40.03 2.55
3 4 -1 39.86 2.76
-2 4 1 2.84 1.22
2 -4 -1 4.39 0.96
2 4 -1 1.95 1.03
1 4 -1 7.46 1.36
1 -4 -1 5.24 1.03
-1 4 1 6.09 1.24
0 4 1 29.52 1.98
0 4 -1 30.56 2.25
1 -4 1 22.2 1.86
-1 4 -1 18.35 2.06
-1 4 -1 19.76 1.96
1 4 1 22.12 1.93
2 -4 1 72.53 3.38
-2 4 -1 67.77 3.39
2 4 1 77.52 3.16
-2 4 -1 69.68 3.57
-3 4 -1 6.93 1.71
3 4 1 5.16 1.22
-3 -4 -1 7.15 1.26
3 -4 1 4.67 1.24
4 4 1 64.53 3.26
4 -4 1 52.29 3.18
-4 4 -1 50.6 3.62
5 -4 1 102.01 4.71
-5 4 -1 96.64 4.97
5 4 1 97.39 4.13
-6 4 -1 0.13 1.38
6 4 1 -1.09 0.97
6 -4 1 1.61 1.26
-7 4 -1 12.16 2.55
7 -4 1 9.22 2.09
7 4 1 11.05 1.98
8 4 1 1.3 1.49
8 -4 1 -0.28 1.53
-8 4 -1 1.94 1.69
-9 4 -1 2.02 1.98
9 -4 1 -0.76 1.62
8 5 -1 2.63 1.76
-8 5 1 4.73 2.25
8 -5 -1 1.05 1.63
7 5 -1 11.08 2.35
7 -5 -1 10.18 2.31
-7 5 1 8.56 2.5
6 -5 -1 22.92 2.76
6 5 -1 16.69 2.56
-6 5 1 14.27 2.76
-5 5 1 70.63 4.86
5 5 -1 82.09 4.43
5 -5 -1 73.69 4.16
4 -5 -1 11 1.93
-4 5 1 13.56 2.53
4 5 -1 17.32 2.32
3 5 -1 73.47 3.89
3 -5 -1 69.52 3.63
2 5 -1 9.04 1.81
2 -5 -1 9.5 1.41
-2 5 1 17.25 2.11
1 -5 -1 0.91 0.72
1 5 -1 -1.44 0.98
-1 5 1 0.67 1.11
0 -5 -1 4.24 1.07
0 5 -1 4.44 1.45
0 5 1 2.25 1.17
1 -5 1 25.75 2.17
-1 5 -1 24.75 2.38
1 5 1 25.08 2.14
-2 5 -1 30.37 2.71
-2 5 -1 32.13 2.95
2 5 1 24.1 2.37
2 -5 1 26.36 2.35
3 5 1 16.74 2.17
-3 5 -1 21.69 2.66
3 -5 1 15.04 1.92
4 5 1 0.22 1.1
-4 5 -1 1.29 1.45
4 -5 1 -0.39 0.93
-5 5 -1 21.32 2.92
5 -5 1 14.39 2.14
5 5 1 17.05 2.41
6 -5 1 0.72 1.28
-6 5 -1 1.62 1.53
7 -5 1 7.38 2.22
-7 5 -1 10.59 2.71
8 -5 1 4.49 1.92
6 -6 -1 0.35 1.38
6 6 -1 1.03 1.55
-6 6 1 -1.98 1.68
5 -6 -1 18.58 2.56
5 6 -1 18.08 2.6
4 -6 -1 14.35 2.29
4 6 -1 15.4 2.56
3 -6 -1 24.19 2.48
3 6 -1 23.46 2.83
2 6 -1 0.2 1.16
2 -6 -1 0.31 0.81
-2 6 1 -0.02 1.16
-1 6 1 -1.37 1.05
1 6 -1 -0.13 1.2
1 -6 -1 -1.03 0.72
0 -6 1 18.3 2.02
0 -6 -1 18.37 1.91
0 6 -1 22.77 2.5
0 6 1 19.77 2.09
-1 6 -1 5.82 1.72
1 -6 1 7.66 1.64
2 -6 1 2.49 1.16
-2 6 -1 6.72 1.81
-3 6 -1 2.24 1.61
3 -6 1 3.31 1.28
-4 6 -1 7.4 2.3
4 -6 1 4.99 1.7
-5 6 -1 39.48 3.88
5 -6 1 38.22 3.47
6 -6 1 9.73 2.4
-6 6 -1 10.05 2.84
2 7 -1 3.42 1.68
1 7 -1 2.05 1.71
-1 -7 1 5.5 1.43
0 -7 1 3.71 1.36
0 7 -1 6.38 1.87
-1 7 -1 27.08 3.07
1 -7 1 32.91 2.91
2 -7 1 12.1 2.13
-2 7 -1 13.12 2.63
3 -7 1 -0.91 1.13
10 0 -2 -0.49 1.57
9 0 -2 6.85 2.19
8 0 -2 45.13 3.61
-8 0 2 44.37 3.05
-7 0 2 42.57 2.87
7 0 -2 39.91 3.14
-6 0 2 3.46 1.17
6 0 -2 5.18 1.52
-5 0 2 4.91 1.12
5 0 -2 5.48 1.29
4 0 -2 54.61 2.61
-4 0 2 53.35 2.24
-3 0 2 10.28 1.16
3 0 -2 10.32 1.41
2 0 -2 18.94 1.49
-2 0 2 21.76 1.28
1 0 -2 547.97 7.02
0 0 -2 266.14 3.64
0 0 -2 275.41 4.15
-1 0 -2 0.28 0.47
1 0 2 -0.16 0.25
-2 0 -2 9786.94 114.99
2 0 2 9999.6 106.33
3 0 2 249.52 4.72
-3 0 -2 243.62 5.13
-4 0 -2 20.57 1.89
4 0 2 17.99 1.64
5 0 2 186.49 4.99
-5 0 -2 184.91 5.24
-6 0 -2 368.52 8.3
6 0 2 382.99 8.2
-7 0 -2 6.68 1.75
7 0 2 10.36 1.96
8 0 2 5.81 1.81
-8 0 -2 5.64 1.67
-9 0 -2 9.32 2.12
9 0 2 10.37 2.41
-10 0 -2 4.99 1.87
10 0 2 3.15 2.16
10 -1 -2 8.35 2.46
10 1 -2 7.5 2.41
9 -1 -2 15.27 2.62
-9 1 2 17.19 2.56
9 1 -2 21.43 2.92
8 -1 -2 3.24 1.71
-8 1 2 4.82 1.63
8 1 -2 4.86 1.83
7 1 -2 14.33 2.26
-7 1 2 18.2 2.27
7 -1 -2 13.7 2.12
6 1 -2 24.82 2.37
6 -1 -2 27.91 2.59
-6 -1 2 24.08 2.01
-6 1 2 29.81 2.47
5 -1 -2 100.49 3.74
-5 1 2 102.21 3.79
5 1 -2 106.97 3.86
-5 -1 2 102.27 3.01
-4 -1 2 110.37 2.71
-4 1 2 108.83 3.73
4 -1 -2 108.87 3.5
4 1 -2 110.23 3.64
3 -1 -2 236.39 4.78
3 1 -2 231.29 4.94
-3 1 2 233.51 5.11
-3 -1 2 230.1 3.68
-2 1 2 515.62 8.29
2 -1 -2 526.39 7.32
2 1 -2 505.36 7.86
1 -1 -2 104.88 2.16
1 1 -2 105.98 2.74
0 1 -2 542.15 7.52
0 1 -2 545.2 7.17
0 -1 -2 540.95 6.51
-1 1 -2 2544.39 28.41
1 1 2 2535.55 27.94
-1 -1 -2 2551.78 29.98
1 -1 2 2558.94 28.53
-1 1 -2 2628.89 29.84
2 -1 2 3331.97 36.62
-2 -1 -2 3285.13 38.37
-2 1 -2 3286.32 38.55
2 1 2 3361.32 35.67
-3 -1 -2 68.12 2.58
3 -1 2 69.4 2.48
-3 1 -2 65.48 2.75
3 1 2 72.36 2.31
-4 -1 -2 63.6 2.82
-4 1 -2 58.47 2.94
4 -1 2 60.75 2.65
4 1 2 62.28 2.52
5 1 2 94.77 3.51
5 -1 2 102.6 3.8
-5 1 -2 105.05 4.13
-5 -1 -2 107.14 3.78
-6 -1 -2 29.55 2.57
6 -1 2 34.45 2.6
6 1 2 30.69 2.49
-6 1 -2 26.92 2.69
-7 -1 -2 2.52 1.5
7 1 2 3.08 1.6
7 -1 2 3.81 1.51
-7 1 -2 5.75 1.82
-8 -1 -2 0.35 1.23
8 -1 2 1.08 1.45
-8 1 -2 1.18 1.25
8 1 2 0.52 1.39
9 1 2 2.6 1.82
-9 -1 -2 1.54 1.48
9 -1 2 5.63 1.96
-9 1 -2 1.99 1.55
10 -1 2 2.86 1.91
-10 1 -2 3.84 1.93
10 1 2 1.07 1.81
-10 2 2 9.94 2.34
10 -2 -2 8.67 2.56
10 2 -2 11.37 2.69
9 -2 -2 1.61 1.6
9 2 -2 1.76 1.76
-9 2 2 1.52 1.56
-8 2 2 7.47 1.9
8 2 -2 9.63 2.2
8 -2 -2 7.59 1.94
-7 2 2 4.8 1.65
7 -2 -2 3.82 1.47
7 2 -2 2.9 1.54
6 2 -2 9.36 1.81
-6 2 2 13.49 2.08
6 -2 -2 10.81 1.76
5 -2 -2 97.98 3.81
5 2 -2 101.07 3.92
-5 2 2 98.66 4.22
-4 2 2 183.29 5.36
4 2 -2 186.98 5.19
4 -2 -2 188.99 4.87
3 2 -2 143.58 4.23
-3 2 2 145.98 4.56
3 -2 -2 147.48 3.81
2 2 -2 9.78 1.3
-2 2 2 10.36 1.5
2 -2 -2 10.98 1.06
1 2 -2 53.26 2.25
1 -2 -2 51.54 1.72
1 2 -2 52.56 1.53
0 2 2 140.94 2.77
0 2 -2 139.74 3.12
0 2 -2 135.56 3.55
0 -2 -2 140.32 2.75
-1 2 -2 317.39 5.8
-1 2 -2 312.32 5.88
1 2 2 308.58 4.71
-2 2 -2 43.83 2.19
-2 -2 -2 47.17 2.12
2 -2 2 48.42 2.22
2 2 2 43.5 1.68
-2 2 -2 44.24 2.17
-3 -2 -2 1.14 0.79
3 -2 2 0.57 0.6
3 2 2 0.2 0.57
-3 2 -2 0.23 0.71
4 -2 2 19.53 1.74
4 2 2 24.8 1.74
-4 -2 -2 19.91 1.85
-4 2 -2 23.75 2.11
5 2 2 12.54 1.65
-5 2 -2 12.18 1.85
-5 -2 -2 12.65 1.95
5 -2 2 12.84 1.7
6 2 2 17.58 2.05
6 -2 2 17.97 2.1
-6 2 -2 12.94 2.13
-6 -2 -2 16.76 2.33
-7 2 -2 9.52 2.1
7 -2 2 5.89 1.63
-7 -2 -2 11.8 1.92
7 2 2 7.4 1.67
-8 2 -2 8.45 2.19
8 2 2 6.12 1.83
8 -2 2 7.04 1.97
-9 2 -2 4.9 1.91
9 2 2 2.27 1.65
9 -2 2 6.17 2.07
10 -2 2 13.89 2.84
-10 2 -2 21.24 3.09
10 2 2 10.45 2.49
-9 3 2 0.96 1.63
9 -3 -2 2.97 1.74
9 3 -2 -1.43 1.42
8 3 -2 2.18 1.63
8 -3 -2 0.28 1.4
-8 3 2 1.78 1.54
-7 3 2 1.37 1.38
7 3 -2 3.75 1.53
7 -3 -2 -1.26 1.12
6 -3 -2 3.57 1.48
6 3 -2 1.1 1.38
-6 3 2 1.29 1.35
5 3 -2 9.72 1.8
5 -3 -2 8.8 1.64
-5 3 2 6.25 1.8
4 -3 -2 1.17 0.98
4 3 -2 2.06 1.02
-4 3 2 2.66 1.35
3 -3 -2 4.28 0.97
3 3 -2 4.1 1.2
-3 3 2 3.46 1.35
2 -3 -2 133.1 3.66
2 3 -2 125.86 4.15
1 -3 -2 197.22 4.36
1 3 -2 195.71 5
-1 3 2 198.47 4.43
0 3 -2 200.83 4.5
0 -3 -2 210.05 4.28
0 3 2 206.16 4.23
0 3 -2 205.49 5.19
-1 3 -2 249.95 5.77
1 3 2 255.64 4.82
-1 3 -2 244.47 5.52
-2 3 -2 12.91 1.7
2 -3 2 13.13 1.41
2 3 2 13.03 1.25
-2 3 -2 16.21 1.68
3 -3 2 19.21 1.83
-3 3 -2 18.22 2.05
3 3 2 18.88 1.56
-3 -3 -2 19.98 1.79
4 3 2 10.73 1.51
4 -3 2 11.05 1.7
-4 3 -2 8.5 1.71
-4 -3 -2 10.69 1.52
5 3 2 2.89 1.15
-5 -3 -2 3.31 1.26
5 -3 2 1.92 1.12
-5 3 -2 2.6 1.47
-6 3 -2 77.56 4.51
6 3 2 84.01 3.77
6 -3 2 78.24 4.14
7 -3 2 15.51 2.23
7 3 2 14.63 2
-7 3 -2 20.15 2.8
8 3 2 0.63 1.32
-8 3 -2 0.29 1.41
8 -3 2 0.54 1.37
9 3 2 1.14 1.51
9 -3 2 -0.89 1.45
-9 3 -2 0.45 1.6
9 4 -2 4.05 1.98
9 -4 -2 9.63 2.49
-9 4 2 5.28 2.17
-8 4 2 6.35 2.21
8 -4 -2 6.01 2.1
8 4 -2 6.4 2.08
-7 4 2 3.52 1.8
7 -4 -2 3.49 1.65
7 4 -2 1.95 1.59
-6 4 2 7.61 2.11
6 -4 -2 3.99 1.52
6 4 -2 4.36 1.62
-5 4 2 7.27 1.98
5 4 -2 9.11 1.9
5 -4 -2 7.13 1.67
4 -4 -2 10.54 1.73
4 4 -2 11.12 1.93
-4 4 2 8.27 2.1
3 4 -2 308.51 7.74
3 -4 -2 321.1 7.15
2 -4 -2 69.84 3.04
2 4 -2 66.87 3.38
1 -4 -2 25.87 1.75
-1 4 2 22.32 1.79
1 4 -2 22.37 2.05
0 4 -2 3.54 1
0 -4 -2 2.7 0.82
0 4 2 3.49 0.9
0 4 -2 1.96 1.04
1 -4 2 39.8 2.53
-1 4 -2 42.23 2.63
-1 4 -2 43.22 2.65
1 4 2 42.46 2.29
-2 4 -2 191.78 5.84
2 -4 2 193.69 5.79
2 4 2 200.69 4.91
-2 4 -2 193.42 5.82
3 -4 2 21.09 2.07
-3 4 -2 20.68 2.5
-3 4 -2 17.07 2.27
3 4 2 22.8 1.95
-3 -4 -2 19.91 2.06
4 -4 2 6.83 1.6
-4 4 -2 5.55 1.72
-4 -4 -2 7.17 1.49
4 4 2 10.35 1.58
5 -4 2 18.79 2.32
5 4 2 14.86 1.91
-5 4 -2 15.98 2.48
6 4 2 57.43 3.4
-6 4 -2 50.11 3.95
6 -4 2 58.42 3.88
7 -4 2 30.45 3.19
-7 4 -2 31.71 3.5
8 -4 2 6.28 2.19
-8 4 -2 5.88 2.05
9 -4 2 1.76 1.97
7 5 -2 6.84 2.09
-7 5 2 5.91 2.29
7 -5 -2 5.78 1.92
6 -5 -2 12.15 2.32
6 5 -2 13.49 2.48
-6 5 2 15.6 2.97
5 5 -2 58.29 4
-5 5 2 65.06 4.53
5 -5 -2 60.02 3.77
4 5 -2 162.46 6.13
4 -5 -2 170.82 5.75
3 5 -2 143.96 5.48
3 -5 -2 135.94 5.04
2 5 -2 81.46 4.14
2 -5 -2 75.42 3.52
1 5 -2 6.87 1.71
1 -5 -2 5.26 1.09
-1 5 2 3.4 1.16
0 5 2 13.23 1.62
0 -5 -2 12.37 1.42
0 5 -2 13.94 2.02
1 -5 2 16.66 1.95
1 5 2 13.21 1.72
-1 5 -2 15.19 2.12
-1 5 -2 14.6 2.11
2 -5 2 3.28 1.21
-2 5 -2 4 1.37
-2 5 -2 1.39 1.22
3 -5 2 20.41 2.14
-3 5 -2 16.63 2.37
-3 5 -2 20.58 2.51
-4 5 -2 0.79 1.3
4 -5 2 0.24 0.99
-5 5 -2 13.18 2.54
5 -5 2 13.37 2.38
-6 5 -2 0.93 1.66
6 -5 2 -0.69 1.08
-7 5 -2 5.26 2.27
7 -5 2 3.45 1.85
6 -6 -2 1.32 1.68
6 6 -2 2.94 1.77
5 -6 -2 17.04 2.46
5 6 -2 15.67 2.64
4 -6 -2 11.61 2.09
4 6 -2 12 2.41
3 6 -2 11.69 2.34
3 -6 -2 15.18 2.21
2 6 -2 5.97 1.81
1 6 -2 10.9 2.1
0 -6 2 20.84 2.26
0 6 -2 16.54 2.31
-1 6 -2 3.54 1.5
1 -6 2 5.56 1.51
2 -6 2 9.69 1.93
-2 6 -2 4.11 1.6
-2 6 -2 6.14 1.72
-3 6 -2 4.55 1.91
3 -6 2 4.58 1.52
-3 6 -2 7.39 2.12
4 -6 2 11.13 2.25
-4 6 -2 11.29 2.48
5 -6 2 15.42 2.75
-5 6 -2 14.04 2.8
-6 6 -2 10.45 2.88
6 -6 2 10.93 2.54
3 7 -2 9.86 2.48
2 7 -2 -1.02 1.17
1 7 -2 1.2 1.48
0 7 -2 1.88 1.54
0 -7 2 3.11 1.37
1 -7 2 1.34 1.13
-1 7 -2 0.85 1.46
-2 7 -2 4.63 1.99
2 -7 2 6.28 1.75
3 -7 2 7.23 1.97
10 0 -3 5.36 2.09
9 0 -3 14.47 2.62
8 0 -3 125.01 5.49
7 0 -3 48.26 3.5
-7 0 3 51.24 3.04
6 0 -3 6.74 1.66
-6 0 3 9.45 1.49
5 0 -3 18.11 2.03
-5 0 3 14.52 1.6
4 0 -3 19.47 1.76
-4 0 3 20.88 1.64
3 0 -3 75.52 2.62
-3 0 3 76.83 2.44
2 0 -3 1091.78 13.52
1 0 -3 1.14 0.6
0 0 -3 302.45 4.24
0 0 -3 290.08 4.91
1 0 3 108.5 2.19
-1 0 -3 118.89 3.02
-1 0 -3 110.9 2.19
2 0 3 23.84 1.19
-2 0 -3 22.9 1.73
-3 0 -3 24.26 1.94
3 0 3 23.03 1.41
4 0 3 160.91 4.15
-4 0 -3 159.08 4.61
5 0 3 18.3 1.81
-5 0 -3 17.79 2.18
6 0 3 86.1 3.71
-6 0 -3 75.02 3.89
-7 0 -3 1.92 1.47
7 0 3 1.56 1.42
8 0 3 7.27 1.95
-8 0 -3 9.07 2.03
9 0 3 -0.04 1.58
-9 0 -3 1.26 1.47
10 0 3 2.2 2.07
-10 0 -3 0.75 1.62
10 -1 -3 2.58 1.81
10 1 -3 3.04 2.04
9 1 -3 16.07 2.63
9 -1 -3 15.55 2.66
8 -1 -3 77.54 4.36
-8 1 3 74.32 4
8 1 -3 78.19 4.4
-7 1 3 50.41 3.23
7 -1 -3 45.54 3.45
7 1 -3 56.61 3.63
-6 1 3 17.23 2.1
6 -1 -3 20.47 2.4
6 1 -3 14.94 2.22
5 -1 -3 8.71 1.51
-5 -1 3 8.43 1.26
-5 1 3 7.24 1.38
5 1 -3 8.82 1.56
4 1 -3 228.82 5.55
-4 -1 3 226.64 4.12
4 -1 -3 237.43 5.38
-4 1 3 223.43 5.53
3 -1 -3 698.76 10.05
-3 1 3 715.06 11.02
3 1 -3 690.09 10.58
2 -1 -3 44.22 1.77
2 1 -3 47.83 2.09
1 1 -3 446.86 5.86
1 1 -3 445.77 6.94
1 -1 -3 434.32 5.79
0 1 -3 122.66 2.77
0 1 -3 126 3.05
-1 1 -3 2825.1 32.56
-1 -1 -3 2760.83 32.98
1 1 3 2797.74 31.86
1 -1 3 2766.25 31.18
-1 1 -3 2806.19 31.08
-2 1 -3 246.79 5.17
2 -1 3 248.48 4.8
-2 1 -3 244.85 4.84
2 1 3 241.97 3.81
-2 -1 -3 242.01 5.17
-3 -1 -3 52.1 2.47
3 -1 3 50.81 2.25
3 1 3 54.79 1.96
-3 1 -3 53.07 2.6
4 -1 3 33.26 2.03
4 1 3 31.56 1.84
-4 1 -3 39.91 2.6
-4 -1 -3 30.16 2.23
5 1 3 65.93 2.94
5 -1 3 68.63 3.12
-5 1 -3 73.31 3.67
-5 -1 -3 67.71 3.4
6 1 3 32.04 2.47
-6 -1 -3 29.21 2.69
-6 1 -3 27.65 2.82
6 -1 3 33.6 2.57
-7 1 -3 8.93 2.07
7 1 3 2.2 1.47
7 -1 3 7.4 1.78
-7 -1 -3 7.85 1.81
8 1 3 1.5 1.47
-8 -1 -3 1.5 1.32
8 -1 3 1.88 1.52
-8 1 -3 2.56 1.56
-9 1 -3 2.98 1.68
-9 -1 -3 2.54 1.55
9 -1 3 4.05 1.8
9 1 3 3.66 1.94
10 1 3 3.47 2.06
10 -1 3 4.65 2.07
-10 1 -3 4.36 1.99
-10 2 3 1.68 1.67
10 2 -3 1.15 1.79
10 -2 -3 0.19 1.61
-9 2 3 0.41 1.56
9 2 -3 3.79 1.88
9 -2 -3 1.11 1.48
8 2 -3 4.04 1.79
8 -2 -3 7.33 1.91
-8 2 3 3.82 1.61
7 -2 -3 4.36 1.55
7 2 -3 6.74 1.87
-7 2 3 6.87 1.82
6 2 -3 18.2 2.37
6 -2 -3 15.87 2.05
-6 2 3 16.65 2.31
5 2 -3 27.68 2.5
5 -2 -3 30.15 2.39
-5 2 3 32.06 2.66
-4 2 3 157.74 5.16
4 2 -3 155.35 4.88
4 -2 -3 160.76 4.48
3 -2 -3 1047.45 14.18
-3 2 3 1071.08 16.01
3 2 -3 1087.32 15.32
2 -2 -3 120.06 2.98
2 2 -3 119.07 3.71
1 2 -3 72.97 2.79
1 2 -3 70.33 1.81
1 -2 -3 72.34 1.92
0 -2 -3 58.99 1.45
0 2 -3 55.53 2.41
0 2 -3 58.78 1.99
0 2 3 57.88 1.5
-1 2 -3 238.18 5.19
1 2 3 235.6 3.55
-1 2 -3 230.26 4.85
2 2 3 668.18 8.57
-2 2 -3 667.64 10.63
-2 -2 -3 655.1 10.59
-2 2 -3 659.62 10.41
2 -2 3 650.78 10.43
-3 -2 -3 10.06 1.52
3 2 3 7.46 1.02
-3 2 -3 7.35 1.32
3 -2 3 7.92 1.14
-4 2 -3 6.32 1.39
4 -2 3 5.15 1.16
4 2 3 5.16 1
-4 -2 -3 6.8 1.31
-5 2 -3 0.22 1.05
5 -2 3 -1.08 0.64
-5 -2 -3 -0.43 1.06
5 2 3 0.57 0.78
6 2 3 12.93 1.73
6 -2 3 15.73 2.07
-6 -2 -3 17.14 2.49
-6 2 -3 8.52 1.96
7 2 3 16.74 2.04
-7 2 -3 18.35 2.59
-7 -2 -3 17.33 2.39
7 -2 3 18.28 2.35
-8 -2 -3 2.41 1.39
8 -2 3 0.76 1.33
-8 2 -3 0.73 1.67
8 2 3 0.78 1.31
9 -2 3 4.17 1.9
-9 2 -3 0.93 1.65
9 2 3 2.85 1.79
10 2 3 7.09 2.19
10 -2 3 2.08 2.05
-10 2 -3 7.35 2.21
9 -3 -3 0.67 1.42
-9 3 3 3.5 1.77
9 3 -3 3.45 2.07
8 -3 -3 4.57 1.78
-8 3 3 3.03 1.72
8 3 -3 6.3 2.09
7 3 -3 22.18 2.72
7 -3 -3 22.16 2.57
-7 3 3 24.16 2.85
6 3 -3 12.27 2.14
6 -3 -3 13.2 2.04
-6 3 3 13.14 2.25
5 3 -3 4.67 1.46
5 -3 -3 3.24 1.25
-5 3 3 5.6 1.84
4 3 -3 22.58 2.2
-4 3 3 19.63 2.49
4 -3 -3 21.51 1.95
3 -3 -3 3.76 0.95
3 3 -3 1.9 1.07
2 -3 -3 74.52 2.64
2 3 -3 73.43 3.33
1 -3 -3 35.74 1.68
1 3 -3 38.9 2.39
1 3 -3 36.91 1.63
0 -3 -3 98.76 2.58
0 3 -3 101.92 3.73
0 3 -3 98.16 2.94
0 3 3 98.04 2.63
1 3 3 54.12 1.97
-1 3 -3 61.81 2.69
-1 3 -3 61.9 2.93
-2 3 -3 108.62 3.99
2 3 3 107.17 2.84
2 -3 3 103.9 3.89
-2 3 -3 113.98 3.97
3 3 3 4.41 0.94
-3 3 -3 2.86 1.21
-3 3 -3 2.46 1.16
3 -3 3 2.48 0.94
-3 -3 -3 3.94 1.18
4 3 3 43.66 2.29
4 -3 3 38.98 2.65
-4 -3 -3 38.6 2.68
-4 3 -3 39.68 2.94
-5 3 -3 120.18 5.17
5 -3 3 119.63 4.75
5 3 3 114.85 3.96
-5 -3 -3 124.14 4.52
-6 3 -3 104.39 5.13
-6 -3 -3 107.53 4.49
6 3 3 111.02 4.07
6 -3 3 106.97 4.74
7 3 3 14.7 1.92
-7 3 -3 17.16 2.63
7 -3 3 19.43 2.42
-8 3 -3 22.7 3.18
8 -3 3 18.81 2.58
9 -3 3 3.7 1.95
-9 3 -3 3.85 2.04
-8 4 3 13.42 2.86
8 -4 -3 9.62 2.27
8 4 -3 11.84 2.54
7 -4 -3 9.52 2.18
-7 4 3 9.25 2.42
7 4 -3 10.05 2.29
-6 4 3 20.2 2.92
6 4 -3 20.76 2.57
6 -4 -3 17.14 2.34
-5 4 3 14.65 2.46
5 4 -3 20.05 2.4
5 -4 -3 13.04 1.97
4 -4 -3 16.6 2.06
4 4 -3 14.76 2.27
3 4 -3 69.68 3.79
3 -4 -3 64.99 3.04
2 4 -3 14.11 2.01
2 -4 -3 15.49 1.62
1 -4 -3 32.14 1.9
1 4 -3 33.62 2.65
0 -4 -3 18.42 1.39
0 4 -3 17.86 1.72
0 4 -3 15.79 2.06
0 4 3 17.27 1.53
1 -4 3 10.03 1.48
1 4 3 10.07 1.32
-1 4 -3 11.18 1.64
-1 4 -3 11.75 1.73
-2 4 -3 21.51 2.35
2 -4 3 22.95 2.08
2 4 3 27.61 1.88
-2 4 -3 23.56 2.21
-3 -4 -3 7.86 1.6
-3 4 -3 8.34 1.93
3 -4 3 5.71 1.42
-3 4 -3 10.04 1.83
-4 -4 -3 41.07 2.93
-4 4 -3 33.67 3.15
4 -4 3 37.61 2.89
5 -4 3 21.02 2.53
-5 -4 -3 19.47 2.45
-5 4 -3 24.53 2.83
6 -4 3 4.04 1.55
-6 4 -3 3.64 1.81
7 -4 3 19.38 2.67
-7 4 -3 14.9 2.89
-8 4 -3 -0.88 1.71
8 -4 3 -0.45 1.42
7 -5 -3 8.01 2.22
7 5 -3 4.17 1.87
6 5 -3 4.48 1.92
6 -5 -3 6.13 1.85
5 -5 -3 3 1.41
5 5 -3 4.86 1.88
4 5 -3 48.48 3.59
4 -5 -3 50.11 3.15
3 -5 -3 80.92 3.74
3 5 -3 80.58 4.28
2 -5 -3 2.55 1.11
2 5 -3 1.69 1.32
1 5 -3 21.15 2.55
0 5 -3 0.84 1.12
-1 5 -3 2.53 1.39
1 -5 3 1.37 0.96
-1 5 -3 0.92 1
-2 5 -3 1.62 1.33
-2 5 -3 4.58 1.46
2 -5 3 2.98 1.2
-3 5 -3 0.3 1.16
-3 -5 -3 1.36 1.1
3 -5 3 0.83 0.88
-3 5 -3 0.18 1.28
-4 5 -3 7.38 2
4 -5 3 6.98 1.8
-5 5 -3 0.79 1.46
5 -5 3 2.97 1.45
6 -5 3 3.19 1.61
-6 5 -3 2.38 1.7
7 -5 3 7.51 2.29
-7 5 -3 6.87 2.39
6 6 -3 -1.47 1.25
5 6 -3 5.61 2.12
4 6 -3 5.25 1.93
3 6 -3 7.13 2.03
2 6 -3 9.03 2.18
1 6 -3 24.94 2.85
0 6 -3 2.9 1.55
1 -6 3 4.27 1.36
-1 6 -3 2 1.41
2 -6 3 13.68 2.29
-2 6 -3 12.01 2.36
3 -6 3 5.85 1.68
-3 6 -3 2.74 1.68
-3 6 -3 6.54 2.1
4 -6 3 2.83 1.41
-4 6 -3 4.27 1.84
-5 6 -3 15.04 2.76
5 -6 3 11.4 2.47
6 -6 3 1.66 1.57
3 7 -3 0.77 1.47
2 7 -3 0.27 1.48
1 7 -3 2.45 1.77
0 -7 3 3.59 1.57
0 7 -3 1.66 1.53
1 -7 3 0.07 0.96
-1 7 -3 0.62 1.54
-2 7 -3 -0.69 1.31
2 -7 3 0.68 1.16
-3 7 -3 5.32 2.26
10 0 -4 -1.75 1.44
9 0 -4 25.69 3.05
8 0 -4 32.81 3.09
7 0 -4 59.02 3.63
-6 0 4 128.16 4.23
6 0 -4 132.97 4.9
5 0 -4 -0.1 0.93
-5 0 4 -0.15 0.85
4 0 -4 25.62 2.02
3 0 -4 284.09 5.64
2 0 -4 8.76 1.06
1 0 -4 177.88 3.52
0 0 -4 503.66 7.77
0 0 -4 509.48 6.79
-1 0 -4 132.23 3.49
-1 0 -4 132.18 2.59
1 0 4 134.24 2.63
-2 0 -4 24.93 1.83
2 0 4 21.19 1.24
-3 0 -4 74.95 3.15
3 0 4 75.23 2.46
-4 0 -4 259.25 6.39
4 0 4 255.2 5.49
5 0 4 73.15 3.1
-5 0 -4 74.79 3.71
-6 0 -4 9.69 1.89
6 0 4 8.56 1.61
-7 0 -4 13.35 2.24
7 0 4 15.01 2.24
8 0 4 45.04 3.36
-8 0 -4 49.95 3.73
9 0 4 -1.61 1.32
-9 0 -4 1.09 1.57
10 0 4 1.76 1.88
-10 0 -4 4.26 1.81
10 -1 -4 4.29 2.02
10 1 -4 3.48 2.17
9 1 -4 -0.9 1.41
9 -1 -4 1.64 1.75
8 1 -4 77.12 4.51
-8 1 4 75.89 4.07
8 -1 -4 72.22 4.36
-7 1 4 102 4.43
7 -1 -4 96.49 4.62
7 1 -4 96.66 4.67
-6 1 4 12.31 1.85
6 -1 -4 22.3 2.52
6 1 -4 13.28 2.06
5 -1 -4 51.34 2.96
5 1 -4 50.44 2.92
-5 1 4 46.94 2.86
4 1 -4 14.86 1.66
4 -1 -4 21.84 1.93
3 -1 -4 283.43 5.55
3 1 -4 290.64 6.26
2 1 -4 404.2 5.63
2 1 -4 399.71 7.08
2 -1 -4 403.14 6.27
1 -1 -4 258.1 3.99
1 1 -4 261.09 4.29
1 1 -4 263.58 5.16
0 1 -4 338.13 5.57
0 1 -4 325.26 5.79
-1 -1 -4 643.29 10.15
-1 1 -4 644.32 9.69
-1 1 -4 643.07 9.23
-2 1 -4 56.86 2.53
2 1 4 56.99 1.54
-2 -1 -4 55.63 2.61
-2 1 -4 56.33 2.25
2 -1 4 53.06 2.17
-3 -1 -4 440.47 8.38
-3 1 -4 465.83 8.63
3 -1 4 439.3 7.69
3 1 4 447.93 6.62
4 1 4 489.25 7.81
-4 1 -4 494.01 9.59
4 -1 4 489.25 8.67
-4 -1 -4 493.13 9.44
-5 -1 -4 14.32 2
5 -1 4 11.31 1.59
5 1 4 15.17 1.73
-5 1 -4 8.73 1.76
-6 1 -4 3.6 1.55
6 1 4 3.84 1.37
-6 -1 -4 6.1 1.7
6 -1 4 2.97 1.24
-7 -1 -4 33.74 3.07
7 -1 4 36.71 2.9
-7 1 -4 33.78 3.27
7 1 4 39.93 3.01
8 1 4 12.19 2.2
-8 1 -4 15.88 2.61
8 -1 4 10.82 2.17
-8 -1 -4 7.94 1.96
9 1 4 -1.51 1.6
-9 1 -4 1.13 1.63
9 -1 4 0.04 1.47
-9 -1 -4 1.52 1.54
10 -1 4 2.13 1.94
10 1 4 -0.93 1.68
-10 1 -4 1.57 1.69
10 -2 -4 2.2 1.96
10 2 -4 5.84 2.36
-9 2 4 -0.17 1.41
9 -2 -4 0.14 1.45
9 2 -4 0.69 1.58
8 -2 -4 14.61 2.42
8 2 -4 9.44 2.2
-8 2 4 15.91 2.48
7 -2 -4 3.54 1.52
7 2 -4 5.69 1.86
-7 2 4 4.89 1.71
6 -2 -4 8.85 1.74
6 2 -4 9.52 1.94
-6 2 4 11.19 2.1
5 -2 -4 23.39 2.23
5 2 -4 25.65 2.53
-5 2 4 23.88 2.47
4 2 -4 14.39 1.9
4 -2 -4 14 1.78
3 2 -4 58.42 2.94
3 -2 -4 61.89 2.54
2 2 -4 95.2 3.53
2 -2 -4 89.29 2.6
1 -2 -4 23.65 1.17
1 2 -4 23.13 1.83
1 2 -4 22.46 1.2
0 -2 -4 0.9 0.3
0 2 -4 -0.23 0.52
0 2 -4 0.68 0.7
-1 2 -4 15.19 1.49
-1 2 -4 16.63 1.6
2 -2 4 203.09 5.1
2 2 4 207.4 3.37
-2 -2 -4 199.8 5.27
-2 2 -4 208.62 5.17
-2 2 -4 201.48 5.14
-3 2 -4 477.91 8.98
3 2 4 473.3 6.92
-3 -2 -4 477.42 9.18
3 -2 4 480.28 8.92
-3 2 -4 481.54 9.29
4 2 4 52.65 2.22
-4 2 -4 53.29 3.26
4 -2 4 55.32 2.85
-4 -2 -4 49.19 2.96
5 2 4 9.62 1.35
5 -2 4 9.14 1.58
-5 -2 -4 8.4 1.75
-5 2 -4 5.95 1.74
6 -2 4 13.51 1.96
-6 2 -4 12.91 2.25
6 2 4 12.99 1.82
-6 -2 -4 17.91 2.49
7 2 4 12.63 1.89
-7 2 -4 14.33 2.52
-7 -2 -4 16.02 2.4
7 -2 4 16.85 2.25
8 2 4 15.91 2.21
8 -2 4 19.49 2.56
-8 -2 -4 13.99 2.25
-8 2 -4 11.92 2.53
-9 2 -4 5.28 2.03
9 -2 4 5.71 2.14
10 -2 4 5.46 2.29
9 -3 -4 1.84 1.66
-9 3 4 7.12 2.34
9 3 -4 1.3 1.56
8 -3 -4 12.78 2.4
8 3 -4 15.73 2.65
-8 3 4 15.76 2.77
-7 3 4 2.19 1.66
7 -3 -4 6.04 1.75
7 3 -4 3.08 1.53
6 3 -4 -1.2 1.11
6 -3 -4 2.09 1.26
-6 3 4 0.33 1.27
5 3 -4 4.91 1.67
5 -3 -4 4.31 1.42
4 -3 -4 7.24 1.41
4 3 -4 9.36 1.82
3 -3 -4 4.16 1.04
3 3 -4 1.65 1.19
2 3 -4 3.23 1.18
2 -3 -4 4.39 0.84
1 3 -4 35.09 2.42
1 3 -4 38.16 1.63
1 -3 -4 35.21 1.61
0 3 -4 72.38 2.63
0 3 -4 70.37 3.22
0 -3 -4 73.49 2.03
1 3 4 49.72 1.63
-1 3 -4 47.11 2.66
-1 -3 -4 47.64 1.57
-1 3 -4 51.5 2.51
-2 3 -4 48.08 2.71
2 3 4 51.22 1.8
-2 3 -4 56.58 2.96
-2 -3 -4 49.94 2.89
2 -3 4 48.38 2.7
-3 3 -4 94.99 3.94
-3 -3 -4 92.64 3.86
-3 3 -4 77.44 3.81
3 -3 4 85.09 3.82
4 -3 4 53.16 3.2
-4 3 -4 51.46 3.29
-4 -3 -4 53.57 3.22
-5 3 -4 41.52 3.3
-5 -3 -4 38.48 3.01
5 -3 4 35.75 2.8
-6 3 -4 6.42 1.99
-6 -3 -4 12.06 2.03
6 -3 4 7.43 1.8
-7 3 -4 1.08 1.64
-7 -3 -4 1.68 1.45
7 -3 4 2.86 1.45
8 -3 4 10.77 2.35
-8 3 -4 13.13 2.77
9 -3 4 5.16 2.02
-9 3 -4 4.84 2.22
8 4 -4 2.84 1.71
8 -4 -4 0.27 1.37
-8 4 4 -0.71 1.53
7 -4 -4 14.57 2.36
7 4 -4 19.83 2.7
6 -4 -4 4.77 1.61
6 4 -4 9.53 2.16
5 -4 -4 4.92 1.54
5 4 -4 1.68 1.43
4 -4 -4 103.83 4.09
4 4 -4 100.35 4.81
3 -4 -4 109.63 3.87
3 4 -4 107.91 4.8
2 4 -4 12.94 1.88
2 -4 -4 14.22 1.49
1 4 -4 65.1 3.56
1 -4 -4 61.79 2.48
0 4 -4 9.16 1.45
0 4 -4 8.15 1.77
-1 4 -4 3.81 1.1
-1 4 -4 2.75 1.2
-2 4 -4 47.01 2.98
2 -4 4 48.54 3.04
-2 -4 -4 38.77 2.88
-2 4 -4 43.4 2.89
-3 4 -4 18.08 2.34
3 -4 4 16.12 1.98
-3 4 -4 19.06 2.49
-3 -4 -4 15.08 2.23
4 -4 4 16.36 2.2
-4 -4 -4 16.09 2.24
-4 4 -4 10.5 2.09
-5 4 -4 23.39 2.89
-5 -4 -4 25.56 2.6
5 -4 4 23.56 2.56
-6 4 -4 6.97 2.02
6 -4 4 2.69 1.51
-7 4 -4 15 2.94
7 -4 4 11.93 2.41
-8 4 -4 6.61 2.46
8 -4 4 4.94 1.96
7 5 -4 2.38 1.86
7 -5 -4 2.46 1.83
6 -5 -4 3.47 1.56
6 5 -4 2.33 1.61
5 5 -4 6.66 2
4 5 -4 34.35 3.2
3 5 -4 155.56 6.14
2 5 -4 161.17 6.16
1 5 -4 137.65 5.64
0 5 -4 28.43 2.79
1 -5 4 23.31 2.36
-1 5 -4 26.75 2.72
-2 5 -4 58.68 3.79
2 -5 4 59.08 3.71
-2 5 -4 52.89 3.33
3 -5 4 21.92 2.47
-3 -5 -4 21.39 2.44
-3 5 -4 19.14 2.68
-3 5 -4 23.31 2.61
-4 -5 -4 7.84 1.95
-4 5 -4 3.62 1.72
4 -5 4 5.51 1.71
-5 5 -4 2.34 1.58
5 -5 4 2.21 1.37
6 -5 4 7.1 2.18
-6 5 -4 1.8 1.63
-7 5 -4 7.49 2.32
7 -5 4 1.86 1.85
5 6 -4 0.44 1.61
4 6 -4 3.13 1.73
3 6 -4 5.02 1.93
2 6 -4 48.97 3.99
1 6 -4 56.68 4.04
0 6 -4 0.94 1.37
1 -6 4 10.17 2.09
-1 6 -4 9.03 2.09
2 -6 4 7.82 1.98
-2 6 -4 11.1 2.27
-3 6 -4 7.79 2.06
-3 6 -4 8.62 2.39
3 -6 4 6.6 1.87
-4 6 -4 5.36 1.93
4 -6 4 3.94 1.74
-5 6 -4 3.16 1.83
5 -6 4 2.37 1.54
2 7 -4 3.9 2.15
1 7 -4 1.18 1.64
0 7 -4 4.78 1.89
0 -7 4 7.46 2.01
1 -7 4 0.21 1.26
-1 7 -4 -2 1.41
2 -7 4 4.79 1.71
-2 7 -4 4.26 2.12
10 0 -5 17.06 2.95
9 0 -5 3.14 1.6
8 0 -5 25.26 2.81
7 0 -5 83.89 4.31
6 0 -5 403.78 8.97
5 0 -5 5.82 1.45
4 0 -5 3.59 1.16
3 0 -5 0.42 0.75
2 0 -5 8.12 1.19
1 0 -5 342.02 6.23
1 0 -5 341.82 5.67
0 0 -5 286.19 5.69
0 0 -5 291.87 4.76
-1 0 -5 2.06 0.83
-1 0 -5 1.57 0.53
1 0 5 2.03 0.47
-2 0 -5 133.23 4.03
2 0 5 131.47 3.02
3 0 5 374.95 6.35
-3 0 -5 378.71 7.82
-4 0 -5 76.79 3.73
4 0 5 83.03 2.92
-5 0 -5 33.4 2.88
5 0 5 33.74 2.34
6 0 5 0.36 0.95
-6 0 -5 -0.05 1.3
7 0 5 13.94 2.01
-7 0 -5 15.29 2.39
-8 0 -5 8.68 2.16
8 0 5 7.61 1.91
-9 0 -5 1.69 1.62
9 0 5 1.14 1.61
-10 0 -5 6.41 2.24
10 0 5 6.35 2.38
10 -1 -5 4.85 2.02
10 1 -5 1.71 1.75
9 1 -5 0.27 1.42
9 -1 -5 1.13 1.36
8 -1 -5 1.71 1.52
8 1 -5 3.55 1.72
7 -1 -5 20.1 2.57
7 1 -5 21.83 2.62
-7 1 5 24.87 2.51
6 1 -5 1.59 1.41
6 -1 -5 0.57 1.34
5 1 -5 7.52 1.64
5 -1 -5 8.93 1.65
4 -1 -5 1.58 1.01
4 1 -5 2.63 1.15
3 -1 -5 201.32 4.59
3 1 -5 201.82 5.22
2 1 -5 255.46 4.41
2 -1 -5 254.47 4.75
2 1 -5 253.64 5.61
1 -1 -5 587.11 7.56
1 1 -5 554.64 8.25
1 1 -5 587.19 9.08
0 -1 -5 102.19 1.82
0 1 -5 106.18 3.01
0 1 -5 106.3 3.11
0 -1 -5 105.22 3.52
-1 -1 -5 67.98 2.94
-1 1 -5 70.61 2.78
-1 1 -5 68.96 2.52
-2 -1 -5 139.26 4.42
-2 1 -5 139.58 4.26
2 1 5 140.55 2.58
-2 1 -5 144.4 3.78
2 -1 5 140.63 3.75
3 1 5 714.68 9.52
-3 1 -5 726.26 12.12
3 -1 5 750.64 11.13
-3 -1 -5 717.55 12.25
4 1 5 32.04 1.82
-4 1 -5 29.23 2.63
4 -1 5 28.19 1.98
-4 -1 -5 33.16 2.71
-5 1 -5 20.29 2.5
5 -1 5 19.23 1.87
-5 -1 -5 13.2 2.02
5 1 5 18.54 1.84
-6 1 -5 2.31 1.55
-6 -1 -5 2.24 1.58
6 1 5 -0.33 0.99
6 -1 5 1.49 1.07
-7 1 -5 34.85 3.32
-7 -1 -5 34.82 3.14
7 1 5 38.84 2.93
7 -1 5 29.96 2.69
-8 -1 -5 6.82 2.05
-8 1 -5 6.48 2.11
8 1 5 9.49 2.03
8 -1 5 11.01 2.16
-9 1 -5 0.56 1.6
-9 -1 -5 2.05 1.7
9 -1 5 1 1.51
10 -1 5 4.09 2.18
-10 1 -5 5.31 2.22
-10 -1 -5 -0.84 1.54
9 2 -5 0.93 1.61
-9 2 5 1.31 1.64
9 -2 -5 3.63 1.92
-8 2 5 3.66 1.64
8 -2 -5 3.87 1.7
8 2 -5 3.74 1.64
7 2 -5 -0.09 1.14
7 -2 -5 0.28 1.27
6 2 -5 23.75 2.7
6 -2 -5 21.26 2.61
5 2 -5 11.33 1.89
5 -2 -5 11.43 1.69
4 2 -5 8.57 1.63
4 -2 -5 11.42 1.69
3 -2 -5 25.18 1.82
3 2 -5 23.03 2.07
2 -2 -5 274.18 4.88
2 2 -5 269.68 6.41
1 2 -5 217.46 4.05
1 2 -5 226.59 5.48
1 -2 -5 219.41 3.61
0 2 -5 25.51 1.86
0 2 -5 23.94 1.61
-1 2 -5 2.92 0.88
-1 2 -5 2.59 0.96
-1 -2 -5 0.55 0.88
-2 2 -5 407.43 8.05
-2 2 -5 417.53 7.94
-2 -2 -5 409.52 8.54
2 -2 5 414.93 8.02
3 -2 5 79.42 3.33
-3 2 -5 82.66 3.59
-3 2 -5 84.48 3.67
-3 -2 -5 81.7 3.71
3 2 5 85.43 2.22
4 -2 5 183.98 5.39
-4 -2 -5 181.57 5.68
-4 2 -5 162.08 5.62
-5 2 -5 13.9 2.24
-5 -2 -5 10.65 1.87
5 -2 5 10.78 1.71
-6 -2 -5 9.63 1.99
-6 2 -5 10.72 2.21
6 -2 5 8.6 1.68
-7 2 -5 36.64 3.51
7 -2 5 38.52 3
-7 -2 -5 38.39 3.32
-8 -2 -5 18.19 2.66
-8 2 -5 20.25 2.97
8 -2 5 21.76 2.67
-9 2 -5 4.33 2.05
9 -2 5 4.61 1.98
-9 -2 -5 9.22 2.3
9 -3 -5 -1.03 1.57
9 3 -5 0.47 1.68
8 -3 -5 2.54 1.56
8 3 -5 1.74 1.57
7 3 -5 24.21 2.84
7 -3 -5 23.44 2.66
6 3 -5 19.57 2.54
6 -3 -5 16.19 2.35
5 3 -5 25.09 2.74
5 -3 -5 32.55 2.68
4 -3 -5 5.54 1.33
4 3 -5 5.62 1.67
3 3 -5 21.31 2.35
3 -3 -5 20.71 1.86
2 -3 -5 123.73 3.32
2 3 -5 119.61 4.61
1 3 -5 36.76 2.6
1 -3 -5 30.72 1.54
0 3 -5 5.8 1.45
0 3 -5 7.65 1.09
-1 3 -5 17.16 1.98
-1 3 -5 15.79 1.68
-2 -3 -5 20.12 2.2
2 -3 5 20.1 1.92
-2 3 -5 19.08 2.1
-2 3 -5 22.86 2.12
-3 3 -5 15.37 2.14
-3 3 -5 17.51 2.28
3 -3 5 17.58 1.97
-3 -3 -5 17.94 2.25
4 -3 5 14.94 1.95
-4 3 -5 10.71 2.01
-4 -3 -5 12.69 2.03
5 -3 5 5.94 1.63
-5 3 -5 6.29 1.88
-5 -3 -5 5.92 1.72
6 -3 5 8.75 1.9
-6 3 -5 13.97 2.45
-6 -3 -5 14.43 2.31
7 -3 5 36.63 3.16
-7 3 -5 42.76 3.8
-7 -3 -5 48.36 3.67
-8 3 -5 15.28 2.9
8 -3 5 17.06 2.71
9 -3 5 1.37 1.78
-9 3 -5 1.22 1.63
8 -4 -5 0.72 1.69
8 4 -5 3.96 1.95
7 -4 -5 3.2 1.77
7 4 -5 9.18 2.27
6 4 -5 7.2 2.05
6 -4 -5 12.83 2.15
5 -4 -5 8.01 1.78
5 4 -5 14.19 2.41
4 4 -5 58.76 3.85
4 -4 -5 58.86 3.18
3 4 -5 37.85 3.2
2 4 -5 89.06 4.36
1 4 -5 35.28 2.83
0 4 -5 13.96 2.16
-1 4 -5 20.44 2.33
-1 4 -5 17.55 1.9
-2 -4 -5 11.45 1.92
-2 4 -5 12.16 1.8
2 -4 5 9.8 1.77
-2 4 -5 9.48 1.77
-3 -4 -5 4.57 1.59
3 -4 5 6.36 1.56
-3 4 -5 4.96 1.56
-3 4 -5 5.61 1.62
-4 -4 -5 -0.3 1.23
4 -4 5 0.11 1.02
-4 4 -5 0.26 1.28
-5 4 -5 -0.22 1.29
-5 -4 -5 -0.15 1.3
5 -4 5 0.5 1.1
-6 -4 -5 9.71 2.13
6 -4 5 5.29 1.79
-6 4 -5 9.89 2.4
-7 4 -5 3.11 1.93
7 -4 5 0.44 1.34
8 -4 5 2.33 1.91
-8 4 -5 3.78 2.21
7 5 -5 -0.22 1.63
6 5 -5 0.22 1.59
5 5 -5 0.57 1.54
4 5 -5 5.9 2.02
3 5 -5 11.78 2.36
2 5 -5 42.27 3.48
1 5 -5 14.33 2.44
0 5 -5 15.34 2.22
1 -5 5 7.99 1.81
-1 5 -5 6.59 1.85
-2 5 -5 10.5 1.89
-2 5 -5 8.82 1.95
-2 -5 -5 10.55 1.94
2 -5 5 8.02 1.77
-3 5 -5 3.67 1.47
3 -5 5 1.03 1.07
-3 -5 -5 3.28 1.63
-3 5 -5 2.46 1.56
-4 5 -5 8.47 2.07
4 -5 5 9.08 2.04
-4 -5 -5 6.3 1.92
-5 5 -5 3.85 1.74
5 -5 5 0.94 1.47
6 -5 5 10.43 2.44
-6 5 -5 6.86 2.21
7 -5 5 -0.49 1.37
-7 5 -5 5 2.5
5 6 -5 3.69 2
4 6 -5 4.58 2.01
3 6 -5 1.59 1.7
2 6 -5 21.15 2.94
1 6 -5 12.73 2.52
0 6 -5 0.34 1.39
-1 6 -5 10.88 2.27
1 -6 5 11.72 2.3
-2 -6 -5 22.11 2.56
2 -6 5 8.82 2.1
-2 6 -5 5.76 2.18
-3 6 -5 -0.28 1.46
3 -6 5 1.08 1.26
-4 6 -5 7.09 2.16
4 -6 5 6.71 1.95
-5 6 -5 0.93 1.54
5 -6 5 1.14 1.5
0 -7 5 5.26 1.83
0 7 -5 4.23 2.07
10 0 -6 5.26 2.06
9 0 -6 1.28 1.49
8 0 -6 1.23 1.54
7 0 -6 207.72 6.72
6 0 -6 183.84 6.03
5 0 -6 220.51 6.2
4 0 -6 0.38 0.92
3 0 -6 28.29 2
2 0 -6 283.56 5.68
1 0 -6 257.56 5.6
1 0 -6 249.36 4.91
0 0 -6 0.16 0.7
0 0 -6 0.55 0.55
1 0 6 39.4 1.58
-1 0 -6 45.42 1.74
-1 0 -6 39.55 2.42
2 0 6 147.71 3.36
-2 0 -6 146.63 4.62
3 0 6 88.25 2.73
-3 0 -6 85.04 3.85
4 0 6 48.62 2.31
-4 0 -6 42.18 3.11
5 0 6 1.22 0.94
-5 0 -6 0.06 1.28
-6 0 -6 -0.01 1.41
6 0 6 1 1.18
-7 0 -6 14.95 2.45
7 0 6 13.27 2.02
8 0 6 1.21 1.4
-8 0 -6 -0.37 1.53
-9 0 -6 1.35 1.64
9 0 6 3.96 1.81
9 -1 -6 0.9 1.49
9 1 -6 2.36 1.62
8 -1 -6 3.61 1.61
8 1 -6 4.73 1.7
7 -1 -6 40.36 3.11
7 1 -6 34.6 3.07
6 -1 -6 133.93 4.98
6 1 -6 126.59 5.06
5 1 -6 47.06 3.03
5 -1 -6 43.2 2.85
4 1 -6 44.85 2.89
4 -1 -6 42.63 2.54
3 1 -6 16.05 1.76
3 -1 -6 12.6 1.56
3 1 -6 15.5 1.27
2 -1 -6 109.59 3.01
2 1 -6 115.55 3.81
2 1 -6 110.86 2.98
1 1 -6 278.5 5.34
1 -1 -6 276.76 4.55
1 1 -6 284.18 5.91
0 1 -6 180.28 4.38
0 -1 -6 179.75 5.06
0 -1 -6 181.18 2.86
0 1 -6 179.58 4.39
-1 1 -6 60.92 2.74
-1 -1 -6 61.32 2.99
-1 1 -6 60.87 2.48
2 1 6 32.66 1.25
-2 -1 -6 34.2 2.52
-2 1 -6 35.47 2.06
-2 1 -6 36.64 2.49
2 -1 6 35.06 1.91
-3 -1 -6 99.56 4.11
3 1 6 96.41 2.56
3 -1 6 94.61 3.32
-3 1 -6 97.99 4.05
4 1 6 1.13 0.78
-4 -1 -6 0.31 1.18
-4 1 -6 1.12 1.24
4 -1 6 1.21 0.79
5 1 6 64.86 2.86
-5 -1 -6 60.87 3.75
-5 1 -6 57.69 3.78
5 -1 6 58.27 3.01
-6 -1 -6 41.4 3.47
-6 1 -6 44.09 3.54
6 -1 6 40.25 2.73
-7 1 -6 34.96 3.3
-7 -1 -6 33.95 3.23
7 -1 6 29.62 2.7
-8 1 -6 0.28 1.48
-8 -1 -6 -0.14 1.58
8 -1 6 0.89 1.39
9 -1 6 2.88 1.7
-9 1 -6 1.64 1.77
-9 -1 -6 3.57 1.91
9 2 -6 0.66 1.49
9 -2 -6 6.67 2.01
8 -2 -6 2.15 1.67
8 2 -6 0.24 1.37
7 -2 -6 0.95 1.38
7 2 -6 1 1.43
6 2 -6 3.1 1.5
6 -2 -6 0.4 1.39
5 2 -6 93.29 4.42
5 -2 -6 92.72 4.03
4 2 -6 27.3 2.64
4 -2 -6 29.87 2.34
3 -2 -6 60.74 2.63
3 2 -6 59.23 3.25
2 2 -6 0.77 0.85
2 -2 -6 4.16 0.87
1 -2 -6 41.53 1.48
1 2 -6 37.26 2.45
1 2 -6 40.72 1.85
0 2 -6 90.94 3.48
0 2 -6 87.7 2.99
-1 -2 -6 19.3 2.07
-1 2 -6 19.27 1.85
-1 2 -6 21.13 1.91
-2 2 -6 9.05 1.49
-2 2 -6 9.67 1.44
-2 -2 -6 9.59 1.66
2 -2 6 10.58 1.35
-3 2 -6 30.76 2.43
3 -2 6 26.04 2.05
-3 2 -6 27.13 2.54
-3 -2 -6 31.46 2.77
-4 -2 -6 35.27 2.96
-4 2 -6 33.87 2.94
4 -2 6 37.73 2.54
-5 -2 -6 96.44 4.67
-5 2 -6 98.95 4.87
5 -2 6 100.51 4.2
6 -2 6 24.21 2.4
-6 -2 -6 18.36 2.71
-6 2 -6 21.46 2.96
-7 -2 -6 18.07 2.84
7 -2 6 15.48 2.17
-7 2 -6 18.5 2.93
-8 2 -6 3.2 1.89
-8 -2 -6 0.23 1.62
8 -2 6 7.27 1.91
9 -2 6 7.89 2.22
-9 2 -6 8.52 2.63
-9 -2 -6 12.34 2.55
9 3 -6 1.08 1.91
8 3 -6 4.63 1.88
8 -3 -6 5.65 1.97
7 3 -6 11.14 2.33
7 -3 -6 13.09 2.31
6 -3 -6 24.3 2.55
6 3 -6 24.06 2.74
5 -3 -6 3.4 1.38
5 3 -6 1.54 1.29
4 -3 -6 2.45 1.22
4 3 -6 3.15 1.48
3 3 -6 14.4 2.15
2 3 -6 229.27 6.56
1 3 -6 69.39 3.59
0 3 -6 9.35 1.42
0 3 -6 8.65 1.68
-1 3 -6 5.69 1.48
-1 -3 -6 5.83 1.51
-1 3 -6 6.61 1.27
-2 -3 -6 19.55 2.39
-2 3 -6 27.6 2.37
-2 3 -6 24.64 2.37
-3 -3 -6 31.24 2.78
3 -3 6 33.4 2.59
-3 3 -6 29.63 2.73
-3 3 -6 37.11 2.92
4 -3 6 8.39 1.7
-4 3 -6 8.08 1.95
-4 -3 -6 9.37 2.02
-5 -3 -6 15.75 2.45
-5 3 -6 17.9 2.57
5 -3 6 14.88 2.1
-6 -3 -6 1.14 1.45
-6 3 -6 3.38 1.86
6 -3 6 -0.07 0.98
7 -3 6 22.09 2.69
-7 3 -6 16.91 2.86
-7 -3 -6 20.67 2.96
8 -3 6 2.36 1.71
-8 3 -6 2.13 1.9
-8 -3 -6 2.92 1.8
8 4 -6 3.67 2.09
7 4 -6 2.94 1.83
6 4 -6 7.87 2.11
5 4 -6 6.97 2.21
4 4 -6 22.21 2.78
3 4 -6 16.53 2.35
2 4 -6 178.49 6.31
1 4 -6 251.09 7.43
0 4 -6 5.36 1.72
-1 4 -6 -0.8 0.89
-1 4 -6 2.19 1.02
-2 -4 -6 12.15 2.14
2 -4 6 6.75 1.56
-2 4 -6 13.05 2.02
-2 4 -6 13.62 2.13
3 -4 6 5.99 1.62
-3 4 -6 2.08 1.5
-3 4 -6 3.82 1.4
-3 -4 -6 5.54 1.77
4 -4 6 1.98 1.24
-4 -4 -6 -0.53 1.21
-4 4 -6 -0.04 1.14
-5 -4 -6 -0.29 1.39
5 -4 6 -1.13 0.89
-5 4 -6 1.55 1.46
6 -4 6 1.06 1.28
-6 -4 -6 -1.19 1.44
-6 4 -6 1.49 1.6
7 -4 6 0.04 1.35
-7 4 -6 -0.05 1.65
6 5 -6 0.51 1.44
5 5 -6 2.84 1.75
4 5 -6 -1.01 1.28
3 5 -6 8.35 2.2
2 5 -6 1.06 1.45
1 5 -6 39.83 3.42
0 5 -6 36.2 3.19
1 -5 6 16.25 2.58
-1 5 -6 17.02 2.54
-2 -5 -6 23.4 2.69
-2 5 -6 20.95 2.55
2 -5 6 21.04 2.57
-3 5 -6 17.51 2.59
-3 5 -6 22.84 2.69
-3 -5 -6 20.42 2.71
3 -5 6 17.57 2.5
-4 5 -6 47.03 3.94
-4 5 -6 47.36 3.64
4 -5 6 38.78 3.55
-4 -5 -6 43.12 3.7
-5 5 -6 19.69 2.83
-5 -5 -6 12.57 2.65
5 -5 6 17.36 2.99
-6 5 -6 4.88 2.05
6 -5 6 3.19 1.95
4 6 -6 1.65 1.88
3 6 -6 1.59 1.82
2 6 -6 1.64 1.83
1 6 -6 9.67 2.42
0 6 -6 36.32 3.54
1 -6 6 44.5 3.73
-1 6 -6 44.19 3.84
-2 -6 -6 19.65 2.73
2 -6 6 11.36 2.35
-2 6 -6 16.3 2.85
-3 6 -6 0.68 1.51
3 -6 6 2.89 1.43
-3 -6 -6 6.96 2.07
4 -6 6 4.33 1.72
9 0 -7 2.13 1.63
8 0 -7 14.21 2.47
7 0 -7 8.73 2.01
6 0 -7 44.93 3.19
5 0 -7 111.7 4.43
4 0 -7 89.9 3.73
3 0 -7 0.32 0.88
2 0 -7 -0.3 0.69
2 0 -7 0.15 0.71
1 0 -7 85.6 3.35
1 0 -7 82.8 2.78
0 0 -7 37.42 2.39
0 0 -7 34.9 1.74
1 0 7 96.96 2.62
-1 0 -7 93.27 2.64
-1 0 -7 97.28 3.79
-2 0 -7 16.84 2.17
2 0 7 21.69 1.36
3 0 7 26.65 1.58
-3 0 -7 28.59 2.74
4 0 7 0.73 0.73
-4 0 -7 1.25 1.31
-5 0 -7 132.07 5.58
5 0 7 132.91 4.27
-6 0 -7 19.43 2.64
6 0 7 13.58 1.8
-7 0 -7 17.13 2.74
-8 0 -7 3.54 1.93
-9 0 -7 2.69 1.8
9 -1 -7 12.98 2.45
9 1 -7 16.34 2.75
8 -1 -7 3.56 1.59
8 1 -7 5.04 1.97
7 1 -7 10.75 2.2
7 -1 -7 12.57 2.15
6 1 -7 5.06 1.75
6 -1 -7 6.2 1.68
5 -1 -7 31.11 2.69
5 1 -7 31.42 2.87
4 -1 -7 38.22 2.52
4 1 -7 38.38 2.8
3 -1 -7 14.53 1.65
3 1 -7 15.2 1.92
2 1 -7 50.29 2.73
2 -1 -7 50.74 2.19
2 1 -7 48.32 2.31
1 1 -7 101.08 3.32
1 -1 -7 99.69 2.61
1 -1 -7 105.4 4.06
1 1 -7 99 3.48
0 -1 -7 34.22 1.27
0 1 -7 35.44 2.2
0 1 -7 32.87 2
0 -1 -7 34.57 2.53
-1 1 -7 39.2 2.52
-1 1 -7 42.39 2.21
-1 -1 -7 47.09 2.88
2 -1 7 4.45 0.93
-2 1 -7 4.14 1.3
-2 1 -7 3.95 1.02
-2 -1 -7 6.1 1.53
-3 1 -7 10.93 1.86
3 -1 7 14.46 1.4
-3 -1 -7 20.42 2.48
4 -1 7 7.59 1.29
-4 -1 -7 8.18 1.86
-4 1 -7 6.98 1.78
-5 -1 -7 23.69 2.9
5 -1 7 19.73 1.94
-5 1 -7 16.32 2.49
6 -1 7 0.46 0.94
-6 -1 -7 0.34 1.45
-6 1 -7 1.1 1.41
7 -1 7 8.49 1.76
-7 1 -7 9.72 2.31
-7 -1 -7 7.03 2.12
8 -1 7 6.25 1.9
-8 -1 -7 4.68 2
-8 1 -7 3.39 1.95
9 -1 7 24.1 3.11
-9 -1 -7 23.01 3.19
-9 1 -7 17.23 3.19
9 -2 -7 13.8 2.61
9 2 -7 13.93 2.76
8 2 -7 8.66 2.08
8 -2 -7 7.57 2.04
7 -2 -7 4.59 1.7
7 2 -7 8.23 1.96
6 2 -7 8.8 1.93
6 -2 -7 7.57 1.75
5 2 -7 23.39 2.63
5 -2 -7 29.13 2.63
4 -2 -7 6.91 1.4
4 2 -7 4.3 1.57
3 -2 -7 26.81 2.01
3 2 -7 23.48 2.39
2 2 -7 35.16 2.63
1 2 -7 12.45 1.45
1 2 -7 12.66 1.73
0 2 -7 101.65 3.91
0 -2 -7 99.09 4.3
0 2 -7 101.1 3.36
-1 -2 -7 52.28 3.2
-1 2 -7 51.13 2.76
-1 2 -7 58.11 2.96
2 -2 7 18.92 1.7
-2 2 -7 18.12 1.91
-2 2 -7 19.97 2.26
-2 -2 -7 15.91 2.19
3 -2 7 30.72 2.24
-3 -2 -7 34.73 3.01
-3 2 -7 29.08 2.67
-3 2 -7 24.55 2.3
-4 2 -7 149.94 5.72
-4 -2 -7 154.85 5.88
4 -2 7 150.09 5.05
5 -2 7 34.07 2.6
-5 -2 -7 29.87 3.1
-5 2 -7 31.98 3.1
-6 2 -7 28.18 3.21
6 -2 7 26.75 2.47
-6 -2 -7 22.54 2.89
-7 2 -7 18.83 2.96
-7 -2 -7 18.61 2.95
7 -2 7 19.09 2.39
-8 2 -7 5.27 2.2
8 -2 7 8.09 2.06
-8 -2 -7 12.82 2.6
9 -2 7 24.84 3.14
8 -3 -7 3.16 1.82
8 3 -7 2.89 1.72
7 3 -7 10.07 2.28
6 3 -7 25.96 2.83
5 3 -7 6.01 1.89
4 3 -7 7.74 1.93
3 3 -7 2.95 1.33
2 3 -7 49.66 3.33
1 3 -7 25.86 2.45
0 3 -7 46.23 3.08
-1 3 -7 0.12 0.92
-1 -3 -7 0.67 1.09
-1 3 -7 0.62 0.98
-2 -3 -7 12.83 2.15
-2 3 -7 10.53 1.77
2 -3 7 10.32 1.72
-2 3 -7 15.41 2.13
-3 3 -7 26.6 2.73
-3 -3 -7 22.26 2.67
3 -3 7 24.05 2.35
-3 3 -7 25.62 2.63
-4 3 -7 40.59 3.29
-4 -3 -7 38.89 3.41
4 -3 7 37.38 2.93
5 -3 7 28.48 2.66
-5 3 -7 25.08 3.01
-5 -3 -7 26.72 3.01
-6 3 -7 2.8 1.85
6 -3 7 4.42 1.65
-6 -3 -7 2.49 1.7
7 -3 7 1.38 1.35
-7 3 -7 -1.69 1.43
-7 -3 -7 1.77 1.73
-8 3 -7 3.97 2.27
-8 -3 -7 3.13 1.98
8 -3 7 -0.64 1.34
7 4 -7 6.13 2.06
6 4 -7 2.35 1.53
5 4 -7 16.35 2.37
4 4 -7 30.55 2.99
3 4 -7 0.85 1.11
2 4 -7 49.21 3.6
1 4 -7 52.56 3.55
0 4 -7 143.66 5.69
-1 -4 -7 16.3 2.35
-1 4 -7 16.88 2.16
-2 4 -7 16.75 2.12
-2 4 -7 17.15 2.31
2 -4 7 19.83 2.35
-2 -4 -7 21.86 2.67
-3 4 -7 5.97 1.58
3 -4 7 3.82 1.62
-3 4 -7 4.08 1.64
-3 -4 -7 3.77 1.79
-4 -4 -7 1.87 1.67
-4 4 -7 3.22 1.56
4 -4 7 2.64 1.31
-4 4 -7 4.5 1.77
-5 -4 -7 1.21 1.61
5 -4 7 -0.17 1.14
-5 4 -7 1.32 1.57
6 -4 7 0.43 1.26
-6 -4 -7 1.81 1.65
-6 4 -7 1.07 1.64
-7 -4 -7 2.18 2.05
-7 4 -7 1.64 1.82
7 -4 7 0.04 1.28
6 5 -7 -0.98 1.48
5 5 -7 13.88 2.8
4 5 -7 4.8 1.94
3 5 -7 7.43 2.2
2 5 -7 4.42 1.76
1 5 -7 7.33 1.82
0 5 -7 2.15 1.37
1 -5 7 0.43 1.17
-1 5 -7 0.08 1.19
-2 5 -7 2.85 1.51
2 -5 7 1.96 1.31
-2 -5 -7 2.33 1.48
-3 5 -7 2.29 1.7
-3 -5 -7 -1.49 1.49
3 -5 7 0.88 1.33
-4 -5 -7 8.34 2.18
-4 5 -7 8.18 2.21
4 -5 7 10.9 2.52
-4 5 -7 6.09 1.96
-5 -5 -7 2.5 1.9
5 -5 7 4.08 1.99
-5 5 -7 6.69 2.06
6 -5 7 6.59 2.4
-6 5 -7 7.25 2.47
3 6 -7 1.66 1.78
2 6 -7 4.6 2.09
1 6 -7 17.16 2.96
0 6 -7 17.11 2.93
-1 6 -7 4.03 2.02
1 -6 7 3.98 1.59
-2 -6 -7 4.34 1.93
2 -6 7 2.83 1.74
-2 6 -7 3.8 1.96
-3 -6 -7 2.63 2.02
3 -6 7 4.03 1.95
-3 6 -7 1.61 1.47
9 0 -8 5.25 2.09
8 0 -8 8.92 2.2
7 0 -8 5.74 1.73
6 0 -8 19.17 2.36
5 0 -8 129.32 4.95
4 0 -8 80.91 3.72
3 0 -8 49.09 2.66
3 0 -8 44.88 2.7
2 0 -8 0.52 0.91
2 0 -8 -1.14 0.77
1 0 -8 72.58 2.78
1 0 -8 75.17 3.38
0 0 -8 481.38 9.63
0 0 -8 479.21 7.76
1 0 8 222.2 4.44
-1 0 -8 223.34 4.5
-1 0 -8 228.59 6.27
-2 0 -8 32.91 2.92
2 0 8 34.05 1.72
-3 0 -8 11.57 2.04
-4 0 -8 10.08 2.15
-5 0 -8 24 3.1
-6 0 -8 5.32 1.94
-7 0 -8 8.49 2.34
-8 0 -8 2.37 1.89
9 -1 -8 2.65 1.68
9 1 -8 3.11 1.81
8 -1 -8 2.49 1.41
8 1 -8 -0.43 1.3
7 1 -8 -0.14 1.3
7 -1 -8 2.83 1.64
6 -1 -8 21.55 2.57
6 1 -8 19.35 2.46
5 -1 -8 280.91 7.05
5 1 -8 279.33 7.68
4 1 -8 132.29 4.98
4 -1 -8 129.12 4.36
3 -1 -8 25.56 2.06
3 1 -8 27.38 2.46
2 -1 -8 9.04 1.2
2 1 -8 9.2 1.38
2 1 -8 8.66 1.52
1 1 -8 11.53 1.5
1 1 -8 16.73 1.84
1 -1 -8 13.82 1.96
0 -1 -8 15.46 2.16
0 1 -8 15.38 1.95
0 1 -8 17.97 1.73
-1 1 -8 38.48 2.28
-1 -1 -8 44.7 3.05
-1 1 -8 39.22 2.73
2 -1 8 19.19 1.57
-2 1 -8 19.24 1.77
-2 1 -8 21.97 2.44
-2 -1 -8 17.77 2.4
-3 -1 -8 17.01 2.57
-3 1 -8 16.24 2.44
3 -1 8 16.26 1.57
-4 1 -8 9.95 2.04
4 -1 8 5.25 1.21
-4 -1 -8 9.76 2.08
-5 -1 -8 16.13 2.58
-5 1 -8 14.85 2.45
5 -1 8 10.07 1.61
-6 1 -8 0.39 1.44
-6 -1 -8 -0.09 1.55
6 -1 8 0.17 0.8
-7 1 -8 1.48 1.72
7 -1 8 1.64 1.1
-7 -1 -8 2.13 1.71
-8 -1 -8 3.06 2.06
-8 1 -8 0.79 1.79
8 2 -8 4.98 1.87
8 -2 -8 2.29 1.65
7 2 -8 1.59 1.42
7 -2 -8 0.54 1.61
6 -2 -8 9.07 1.88
6 2 -8 8.74 2.08
5 2 -8 18.95 2.32
4 2 -8 35.26 3
3 2 -8 27.11 2.61
2 2 -8 28.56 2.51
1 2 -8 15.99 2.09
0 -2 -8 64.37 3.67
0 2 -8 60.51 2.93
0 2 -8 58.53 3.23
-1 -2 -8 30.41 2.71
-1 2 -8 20.28 2.16
-1 2 -8 23.87 2.25
2 -2 8 7.89 1.38
-2 2 -8 7.94 1.52
-2 -2 -8 5.18 1.64
-2 2 -8 7.63 1.66
-3 -2 -8 11.68 2.17
-3 2 -8 9.7 1.83
-3 2 -8 8.95 1.88
3 -2 8 8.79 1.53
4 -2 8 27.16 2.36
-4 2 -8 29.94 3.03
-4 -2 -8 26 3.06
-5 -2 -8 2.66 1.67
-5 2 -8 3.47 1.78
5 -2 8 3.61 1.33
-6 2 -8 11.39 2.49
-6 -2 -8 10.69 2.51
6 -2 8 11.7 1.96
7 -2 8 3.79 1.57
-7 -2 -8 4.17 2.11
-7 2 -8 0.55 1.74
-8 -2 -8 25.41 3.38
8 -2 8 21.77 2.68
-8 2 -8 23.73 3.63
8 3 -8 5.38 2.09
7 3 -8 1.93 1.58
6 3 -8 0.75 1.25
5 3 -8 9.2 2.11
4 3 -8 8.28 1.88
3 3 -8 10.25 2.06
2 3 -8 6.24 1.76
1 3 -8 62.04 3.63
0 3 -8 243.84 7.13
-1 3 -8 88.19 3.73
-1 3 -8 81.88 4.06
-1 -3 -8 83.01 4.49
-2 -3 -8 49.7 3.66
-2 3 -8 42.99 3.08
-2 3 -8 40.46 2.93
2 -3 8 42.03 2.92
-3 3 -8 16.74 2.28
-3 3 -8 18.34 2.39
-3 -3 -8 19.65 2.62
3 -3 8 19.14 2.2
-4 -3 -8 29.76 3.15
-4 3 -8 34.32 3.14
4 -3 8 33.88 2.83
5 -3 8 5.61 1.64
-5 3 -8 5.95 2.08
-5 -3 -8 8.52 2.22
-6 -3 -8 -0.16 1.51
6 -3 8 0.11 1.08
-6 3 -8 1.05 1.57
-7 -3 -8 6.88 2.35
-7 3 -8 9.97 2.61
7 -3 8 7.59 2.01
7 4 -8 3.95 1.85
6 4 -8 3.2 1.6
5 4 -8 8.16 2.12
4 4 -8 26.42 2.99
3 4 -8 11.72 2.32
2 4 -8 28.17 2.91
1 4 -8 19.53 2.42
0 4 -8 11.19 2.11
-1 4 -8 58.06 3.68
-1 -4 -8 61.52 4.12
-2 -4 -8 14.48 2.5
2 -4 8 11.56 2.16
-2 4 -8 10.32 2.08
3 -4 8 0.41 1.15
-3 -4 -8 1.23 1.47
-3 4 -8 1.45 1.25
-3 4 -8 -0.54 1.17
4 -4 8 21.4 2.68
-4 -4 -8 19.44 3.03
-4 4 -8 18.28 2.63
-4 4 -8 20.02 2.78
-5 -4 -8 20.81 2.96
5 -4 8 16.1 2.66
-5 4 -8 19.55 2.74
-6 4 -8 2.84 1.84
6 -4 8 3.17 1.6
-6 -4 -8 0.6 1.63
5 5 -8 2.82 1.79
4 5 -8 5.86 1.88
3 5 -8 3.84 1.78
2 5 -8 1.17 1.53
1 5 -8 2.3 1.56
0 5 -8 1.49 1.16
-1 -5 -8 2.74 1.42
-1 5 -8 2.4 1.47
1 -5 8 2.64 1.44
2 -5 8 6.89 1.92
-2 -5 -8 12.82 2.6
-2 5 -8 7.2 1.93
-3 -5 -8 4.3 2
-3 5 -8 0.94 1.48
3 -5 8 4.07 1.82
-4 -5 -8 -0.32 1.55
-4 5 -8 0.02 1.49
4 -5 8 1.02 1.58
5 -5 8 0.47 1.64
-5 5 -8 7.54 2.32
-5 -5 -8 2.08 1.96
2 6 -8 2.09 1.88
1 6 -8 4.66 1.8
0 6 -8 2.08 1.51
1 -6 8 1.23 1.7
-1 6 -8 0.92 1.46
2 -6 8 17.1 3.25
-2 -6 -8 22.37 3.16
-2 6 -8 10.97 2.59
8 0 -9 8.83 2.13
7 0 -9 9.41 2.09
6 0 -9 3.27 1.6
5 0 -9 2.75 1.27
4 0 -9 18.84 2.16
3 0 -9 122.48 4.4
3 0 -9 129.29 4.58
2 0 -9 10.92 1.56
2 0 -9 10.56 1.72
1 0 -9 34.76 2.17
1 0 -9 32.38 2.68
0 0 -9 4.45 1.47
-1 0 -9 3.55 1.51
-2 0 -9 9.46 1.91
-3 0 -9 43.92 3.55
-4 0 -9 7.25 2.09
-5 0 -9 5.45 1.97
-6 0 -9 2.94 1.72
-7 0 -9 18.01 2.98
-8 0 -9 6.57 2.49
8 -1 -9 5.35 1.83
8 1 -9 4.4 1.84
7 1 -9 11.77 2.29
7 -1 -9 19.16 2.44
6 -1 -9 0.85 1.16
6 1 -9 2.29 1.45
5 1 -9 57.72 3.69
5 -1 -9 60.44 3.35
4 1 -9 58.03 3.49
3 1 -9 27.98 2.62
2 -1 -9 13.4 2.03
2 1 -9 16.99 1.99
1 -1 -9 19.29 2.37
1 1 -9 18.06 1.85
1 1 -9 22.84 2.25
0 -1 -9 5.12 1.54
0 1 -9 4.86 1.24
0 1 -9 4.36 1.39
-1 1 -9 18.07 2.38
-1 -1 -9 18.12 2.44
1 -1 9 19.66 1.62
-1 1 -9 18.02 1.8
-2 1 -9 4.22 1.6
2 -1 9 9.87 1.27
-2 -1 -9 9.29 2.03
-2 1 -9 5.8 1.31
3 -1 9 16.91 1.63
-3 1 -9 13.81 2.25
-3 -1 -9 18.97 2.69
-4 -1 -9 4.35 1.73
-4 1 -9 5.48 1.92
-5 1 -9 7.89 2.11
-5 -1 -9 7.6 2.2
-6 1 -9 8.55 2.37
-6 -1 -9 3.93 2.04
-7 -1 -9 1.36 1.69
-7 1 -9 0.12 1.8
-8 -1 -9 3.89 2.06
-8 1 -9 1.41 1.87
8 2 -9 6.15 1.95
7 2 -9 5.04 1.83
6 2 -9 7.61 1.95
5 2 -9 45.54 3.44
4 2 -9 11.52 2.09
3 2 -9 31.82 2.84
2 2 -9 13.1 2.03
1 -2 -9 11.65 2.04
1 2 -9 10.32 1.76
0 -2 -9 40.88 3.22
0 2 -9 40.06 2.66
0 2 -9 36.93 2.71
-1 2 -9 4.65 1.35
-1 -2 -9 3.31 1.56
-1 2 -9 2.95 1.32
-2 2 -9 15.78 2.35
2 -2 9 19.86 1.93
-2 2 -9 20.48 2.1
-2 -2 -9 19.61 2.69
-3 -2 -9 4.1 1.79
3 -2 9 9.25 1.64
-3 2 -9 2.87 1.55
-3 2 -9 8.21 1.73
4 -2 9 13.24 1.85
-4 -2 -9 14.75 2.61
-4 2 -9 13.95 2.34
-5 2 -9 0.93 1.42
-5 -2 -9 -0.64 1.6
5 -2 9 1.27 1.02
6 -2 9 14.78 2.03
-6 -2 -9 16.07 2.91
-6 2 -9 8.32 2.21
7 -2 9 -0.19 1.09
-7 2 -9 1.65 1.93
-7 -2 -9 2.82 1.96
7 3 -9 1.84 1.73
6 3 -9 0.86 1.4
5 3 -9 4.1 1.7
4 3 -9 1.05 1.46
3 3 -9 5.12 1.68
2 3 -9 -0.83 0.97
1 3 -9 51.49 3.43
0 -3 -9 58.18 3.89
0 3 -9 67.62 3.91
-1 -3 -9 24.15 2.84
-1 3 -9 25.9 2.5
-2 3 -9 3.04 1.3
2 -3 9 3.92 1.34
-2 -3 -9 2 1.55
-2 3 -9 2.97 1.39
-3 3 -9 5.75 1.7
-3 3 -9 1.56 1.29
-3 -3 -9 0.54 1.45
3 -3 9 1.25 1.09
4 -3 9 11.67 2.11
-4 -3 -9 9.96 2.4
-4 3 -9 11.66 2.3
5 -3 9 15.92 2.39
-5 3 -9 15.98 2.72
-5 -3 -9 16.31 2.86
-6 3 -9 11.92 2.64
-6 -3 -9 16.58 2.98
6 -3 9 17.18 2.43
-7 3 -9 1.94 2.01
7 -3 9 3.52 1.6
-7 -3 -9 4.04 2.21
6 4 -9 -0.95 1.27
5 4 -9 2.66 1.55
4 4 -9 3.13 1.63
3 4 -9 5.44 1.78
2 4 -9 7.99 2.08
1 4 -9 3.94 1.6
0 -4 -9 18.59 2.56
0 4 -9 9.18 2.11
-1 -4 -9 9.56 2.15
-1 4 -9 11.36 2.15
1 -4 9 9.04 2.05
-2 4 -9 39.51 3.24
2 -4 9 38.33 3.31
-2 -4 -9 42.42 3.81
3 -4 9 13.28 2.44
-3 4 -9 10.39 2.12
-3 -4 -9 4.58 2.09
-3 4 -9 9.7 2.24
-4 -4 -9 7.58 2.37
4 -4 9 14.3 2.49
-4 4 -9 15.09 2.53
-4 4 -9 7.21 2.3
5 -4 9 19.68 2.77
-5 -4 -9 16.87 3.04
-5 4 -9 18.11 2.81
-6 -4 -9 12.07 2.81
6 -4 9 8.5 2.14
-6 4 -9 13.11 2.75
4 5 -9 13.52 2.78
3 5 -9 14.75 2.83
2 5 -9 2.9 1.69
1 5 -9 8.41 2.15
0 5 -9 16.82 2.42
-1 -5 -9 15.47 2.8
-1 5 -9 13.02 2.46
1 -5 9 15.51 2.77
2 -5 9 18.17 3.05
-2 -5 -9 18.59 3.1
-2 5 -9 20.19 2.72
-3 5 -9 6.15 2.07
-3 -5 -9 2.25 1.92
3 -5 9 3.64 1.81
-4 -5 -9 2.23 1.94
4 -5 9 1.32 1.58
-4 5 -9 -1.48 1.16
8 0 -10 4.54 1.84
7 0 -10 3.01 1.73
6 0 -10 0.86 1.29
5 0 -10 1.25 1.19
4 0 -10 13.97 2.05
2 0 -10 21.84 2.55
1 0 -10 14.87 2.09
0 0 -10 6.6 1.76
-1 0 -10 42.21 3.42
-2 0 -10 26.68 2.94
-3 0 -10 19.5 2.78
-4 0 -10 18.36 2.8
-5 0 -10 7.42 2.31
-6 0 -10 6.74 2.44
-7 0 -10 2.09 1.91
7 1 -10 2.21 1.47
6 1 -10 0.61 1.31
5 1 -10 15.86 2.26
4 1 -10 3.03 1.39
3 -1 -10 170.34 5.9
3 1 -10 162.31 5.64
2 1 -10 35.7 2.73
2 -1 -10 37.45 3.07
1 1 -10 19.29 2.36
1 1 -10 18.24 1.96
1 -1 -10 14.19 2.17
0 -1 -10 4.33 1.66
0 1 -10 5.77 1.37
0 1 -10 4.56 1.51
-1 1 -10 35.3 3.02
-1 -1 -10 38.94 3.44
-2 -1 -10 50.25 3.77
-2 1 -10 43.39 3.37
-3 1 -10 9.85 2.14
-3 -1 -10 11.17 2.34
-4 1 -10 11.67 2.35
-4 -1 -10 10.23 2.44
-5 -1 -10 14.26 2.71
-5 1 -10 8.44 2.32
-6 1 -10 1.85 1.9
-6 -1 -10 1.78 2
-7 1 -10 4.66 2.22
-7 -1 -10 3.4 2.19
7 2 -10 2.44 1.52
6 2 -10 0.62 1.28
5 2 -10 15.2 2.55
4 2 -10 32.7 3.02
3 2 -10 91.02 4.55
2 2 -10 19.84 2.25
2 -2 -10 31.75 2.86
1 -2 -10 8.18 1.97
1 2 -10 8.82 1.8
0 2 -10 14.37 1.96
0 -2 -10 14.56 2.39
-1 -2 -10 19.59 2.63
-1 2 -10 18.12 2.32
-1 2 -10 20.24 2.19
1 -2 10 22.37 2.05
-2 2 -10 20.85 2.29
-2 2 -10 19.24 2.4
2 -2 10 19.41 2
-2 -2 -10 20.93 2.94
-3 2 -10 10.49 1.85
3 -2 10 10.35 1.72
-3 -2 -10 10.08 2.39
-3 2 -10 4.58 1.71
-4 2 -10 7.56 2.08
-4 -2 -10 14.52 2.67
4 -2 10 7.47 1.62
-5 -2 -10 0.35 1.74
-5 2 -10 0.79 1.55
-6 -2 -10 1.73 1.91
-6 2 -10 2.09 1.86
-7 -2 -10 2.13 2.12
-7 2 -10 0.83 1.96
6 3 -10 1.22 1.42
5 3 -10 1.52 1.35
4 3 -10 11.18 2.27
3 3 -10 19.14 2.63
2 3 -10 0.35 1.2
1 -3 -10 3.36 1.36
1 3 -10 2.69 1.32
0 -3 -10 2.88 1.6
0 3 -10 1.73 1.32
-1 3 -10 25.58 2.58
1 -3 10 24.27 2.45
-1 -3 -10 21.37 2.79
2 -3 10 61.78 3.77
-2 3 -10 65.31 3.73
-2 -3 -10 55.76 4.23
-2 3 -10 59.34 3.66
-3 3 -10 21.23 2.56
3 -3 10 23.51 2.57
-3 3 -10 15.19 2.36
-3 -3 -10 17.92 3.05
-4 -3 -10 -0.26 1.51
4 -3 10 1.34 1.31
-4 3 -10 3.83 1.69
-5 3 -10 7.01 2.22
-5 -3 -10 10.61 2.67
5 -3 10 6.04 1.76
6 -3 10 34.67 3.18
-6 3 -10 29.43 3.67
-6 -3 -10 34.8 3.94
5 4 -10 1.07 1.48
4 4 -10 4.79 1.88
3 4 -10 4.01 1.73
2 4 -10 17.67 2.63
1 4 -10 2.85 1.45
0 4 -10 14.72 2.43
0 -4 -10 18.64 2.72
-1 -4 -10 0.58 1.47
1 -4 10 3.38 1.52
-1 4 -10 -0.47 1.21
2 -4 10 1.94 1.33
-2 4 -10 1.29 1.32
-2 -4 -10 -1 1.33
3 -4 10 4.18 1.83
-3 4 -10 3.51 1.73
-3 -4 -10 4.62 2.07
4 -4 10 4.79 1.79
-4 4 -10 6.34 1.98
-4 -4 -10 6.02 2.36
-5 4 -10 10.55 2.49
5 -4 10 8.82 2.42
-5 -4 -10 8.6 2.63
3 5 -10 18.05 3.15
2 5 -10 5.68 2.18
1 5 -10 6.36 1.92
0 5 -10 9.88 2.24
0 -5 -10 18.5 2.79
-1 5 -10 4.24 1.71
1 -5 10 3.54 1.92
-1 -5 -10 1.82 1.7
2 -5 10 1.88 1.54
-2 -5 -10 -0.02 1.69
-2 5 -10 -0.33 1.27
3 -5 10 -0.48 1.5
-3 5 -10 2.72 1.74
2 0 -11 4.98 1.57
1 0 -11 2.29 1.37
0 0 -11 -0.04 1.35
-1 0 -11 11.15 2.15
-2 0 -11 5.22 1.93
-3 0 -11 0.63 1.64
-4 0 -11 8.04 2.27
-5 0 -11 19.84 3.25
-6 0 -11 -1.56 1.79
-7 0 -11 4.51 2.43
7 1 -11 21.47 2.84
6 1 -11 9.24 2.07
5 1 -11 2.05 1.45
4 1 -11 25.37 2.74
3 -1 -11 20.53 2.46
2 -1 -11 33.51 3.07
1 -1 -11 37.37 3.24
0 -1 -11 1.48 1.38
0 1 -11 3.43 1.45
-1 -1 -11 54.54 4
-1 1 -11 54.48 3.64
-2 1 -11 11.45 2.2
-2 -1 -11 13.3 2.52
-3 1 -11 4.21 1.8
-3 -1 -11 1.49 1.8
-4 1 -11 0.3 1.51
-4 -1 -11 1.2 1.78
-5 -1 -11 0.65 1.87
-5 1 -11 1.93 1.75
-6 -1 -11 6.59 2.33
-6 1 -11 3.24 2.06
6 2 -11 2.13 1.52
5 2 -11 2.33 1.42
4 2 -11 19.15 2.69
3 2 -11 73.14 4.18
2 2 -11 4.86 1.69
2 -2 -11 8.65 1.87
1 -2 -11 22.87 2.82
1 2 -11 20.93 2.26
0 -2 -11 33.95 3.3
0 2 -11 36.69 2.77
-1 2 -11 40.2 3.11
-1 -2 -11 36.73 3.48
-1 2 -11 38.84 2.93
-2 2 -11 38.73 3.23
-2 -2 -11 39.93 3.82
-3 -2 -11 3.36 1.81
-3 2 -11 2.79 1.72
-4 -2 -11 -0.03 1.79
-4 2 -11 2.84 1.67
-5 2 -11 1.13 1.75
-5 -2 -11 -0.44 1.8
-6 -2 -11 3.54 2.3
-6 2 -11 2.75 2.1
5 3 -11 7.74 2.21
4 3 -11 1.51 1.47
3 3 -11 18.64 2.64
2 3 -11 2.15 1.35
2 -3 -11 3.54 1.48
1 3 -11 6.34 1.89
1 -3 -11 8.64 2.18
0 -3 -11 11.96 2.58
0 3 -11 6.11 1.76
-1 -3 -11 10.61 2.38
-1 3 -11 14.11 2.28
1 -3 11 11.15 2.04
-2 -3 -11 12.76 2.74
2 -3 11 16.59 2.29
-2 3 -11 13.88 2.29
3 -3 11 9.11 1.98
-3 -3 -11 5.86 2.14
-3 3 -11 9.92 2.14
-3 3 -11 6.69 1.89
4 -3 11 1.61 1.35
-4 -3 -11 1.31 1.79
-4 3 -11 1.94 1.67
-5 -3 -11 -0.7 1.91
-5 3 -11 2.23 1.7
4 4 -11 5.52 1.96
3 4 -11 6.09 2.03
2 4 -11 4.76 1.79
1 4 -11 12.53 2.48
1 -4 -11 13.14 2.75
0 4 -11 7.55 1.98
0 -4 -11 5.69 2.23
1 -4 11 6.49 1.98
-1 4 -11 6.18 1.94
-1 -4 -11 2.73 1.95
2 -4 11 9.35 2.18
-2 -4 -11 6.59 2.22
-2 4 -11 4.75 1.87
-3 -4 -11 8.65 2.71
3 -4 11 7.09 2.06
-3 4 -11 4.45 1.82
4 -4 11 0.22 1.41
-4 -4 -11 4.86 2.31
1 0 -12 15.62 2.44
0 0 -12 -0.24 1.19
-1 0 -12 0.11 1.41
-2 0 -12 -0.65 1.47
-3 0 -12 -0.82 1.41
-4 0 -12 0.14 1.72
-5 0 -12 0.94 1.95
-6 0 -12 -1.24 1.89
2 -1 -12 3.7 1.7
1 -1 -12 16.14 2.52
0 -1 -12 5 1.9
-1 1 -12 14.76 2.33
-1 -1 -12 18.31 2.86
-2 -1 -12 7.89 2.43
-2 1 -12 5.66 1.97
-3 -1 -12 4.79 2.07
-3 1 -12 0.93 1.62
-4 1 -12 12.07 2.7
-4 -1 -12 11.33 2.83
-5 -1 -12 0.47 1.92
-5 1 -12 2.08 1.95
5 2 -12 0.64 1.44
4 2 -12 7.02 1.8
3 2 -12 11.32 2.3
3 -2 -12 12.43 2.36
2 -2 -12 9.54 2.33
1 -2 -12 49.41 3.98
0 -2 -12 18.45 2.94
-1 -2 -12 18.57 3.03
-2 -2 -12 7.2 2.47
-2 2 -12 6.54 1.91
-3 2 -12 29.02 3.28
-3 -2 -12 24.51 3.58
-4 2 -12 12.58 2.59
-4 -2 -12 10.37 2.98
-5 -2 -12 1.99 2.13
-5 2 -12 2.23 1.91
4 3 -12 1.34 1.43
3 -3 -12 12.66 2.46
3 3 -12 7.15 1.89
2 3 -12 7.89 1.89
2 -3 -12 16.69 2.55
1 -3 -12 20.33 2.98
1 3 -12 25.18 2.85
0 -3 -12 7.95 2.3
0 3 -12 3.94 1.69
-1 -3 -12 1.65 1.88
-1 3 -12 -0.12 1.4
1 -3 12 3.37 1.5
-2 -3 -12 -0.93 1.86
-3 -3 -12 0.49 1.8
-4 3 -12 8.59 2.33
-4 -3 -12 4.58 2.22
2 4 -12 3.09 1.61
2 -4 -12 3.56 1.65
1 4 -12 1.07 1.53
1 -4 -12 1.43 1.89
0 -4 -12 0.42 1.65
0 4 -12 -1.43 1.12
1 -4 12 1.11 1.63
-1 -4 -12 3.62 2.24
-1 4 -12 5.46 1.85
-2 -4 -12 1.75 2.01
2 -4 12 3.53 1.73
-2 4 -12 0.72 1.6
0 0 -13 5.75 2.04
-1 0 -13 0.3 1.63
-2 0 -13 0.11 1.73
-3 0 -13 17.08 3.06
-4 0 -13 0.05 1.96
2 -1 -13 10.18 2.39
1 -1 -13 10.8 2.57
0 -1 -13 8.72 2.33
-1 -1 -13 1.52 1.7
-1 1 -13 -1.01 1.43
-2 -1 -13 12.19 2.74
-2 1 -13 9.91 2.39
-3 -1 -13 30.19 3.89
-3 1 -13 38.72 3.91
-4 1 -13 11.72 2.79
-4 -1 -13 13.95 3.28
3 -2 -13 8.29 2.2
2 -2 -13 17.7 2.91
1 -2 -13 17.49 2.96
0 -2 -13 6.52 2.25
-1 -2 -13 8.38 2.62
-2 -2 -13 35.96 4.09
-3 -2 -13 8.79 2.84
-3 2 -13 10.79 2.5
2 -3 -13 16.45 2.88
1 -3 -13 15.92 2.92
0 -3 -13 2.25 2
-1 -3 -13 4.41 2.27
-2 -3 -13 -0.79 2.02
-1 0 -14 7.02 2.41
-2 0 -14 4.62 2.38
-3 0 -14 3.79 2.33
1 -1 -14 2.31 1.98
0 -1 -14 3.3 1.9
-1 -1 -14 1.21 1.79
-2 -1 -14 12.03 2.92
-2 1 -14 11.07 2.68
1 -2 -14 0.32 1.63
0 -2 -14 0.81 1.94
-1 -2 -14 8.86 2.83
