#------------------------------------------------------------------------------
#$Date: 2020-04-10 08:14:25 +0300 (Fri, 10 Apr 2020) $
#$Revision: 250611 $
#$URL: file:///home/coder/svn-repositories/cod/cif/2/02/20/2022032.cif $
#------------------------------------------------------------------------------
#
# This file is available in the Crystallography Open Database (COD),
# http://www.crystallography.net/. The original data for this entry
# were provided by IUCr Journals, http://journals.iucr.org/.
#
# The file may be used within the scientific community so long as
# proper attribution is given to the journal article from which the
# data were obtained.
#
data_2022032
loop_
_publ_author_name
'Jha, Kunal Kumar'
'Gruza, Barbara'
'Kumar, Prashant'
'Chodkiewicz, Michal Leszek'
'Dominiak, Paulina Maria'
_publ_section_title
;
 TAAM: a reliable and user friendly tool for hydrogen-atom location using
 routine X-ray diffraction data
;
_journal_issue                   3
_journal_name_full
'Acta Crystallographica Section B Structural Science, Crystal Engineering and Materials'
_journal_paper_doi               10.1107/S2052520620002917
_journal_volume                  76
_journal_year                    2020
_chemical_formula_moiety         'C H O2, H2 O'
_chemical_formula_sum            'C H3 O3'
_chemical_formula_weight         63.03
_space_group_crystal_system      monoclinic
_space_group_IT_number           14
_space_group_name_Hall           '-P 2ybc'
_space_group_name_H-M_alt        'P 1 21/c 1'
_symmetry_Int_Tables_number      14
_audit_creation_date             2019-09-27
_audit_creation_method
;
Olex2 1.2
(compiled 2018.05.29 svn.r3508 for OlexSys, GUI svn.r5506)
;
_cell_angle_alpha                90.00
_cell_angle_beta                 103.927(2)
_cell_angle_gamma                90.00
_cell_formula_units_Z            4
_cell_length_a                   6.0988(2)
_cell_length_b                   3.4954(1)
_cell_length_c                   11.8455(4)
_cell_measurement_temperature    100(1)
_cell_volume                     245.096(14)
_computing_molecular_graphics    'Olex2 (Dolomanov et al., 2009)'
_computing_publication_material  'Olex2 (Dolomanov et al., 2009)'
_computing_structure_refinement  'olex2.refine (Bourhis et al., 2015)'
_diffrn_ambient_temperature      100(1)
_diffrn_measured_fraction_theta_full 0.6954
_diffrn_measured_fraction_theta_max 0.6954
_diffrn_measurement_device_type  'APEX II CCD detector'
_diffrn_radiation_type           'Mo K\a'
_diffrn_radiation_wavelength     0.71073
_diffrn_reflns_av_R_equivalents  0.0000
_diffrn_reflns_av_unetI/netI     0.0307
_diffrn_reflns_limit_h_max       9
_diffrn_reflns_limit_h_min       -10
_diffrn_reflns_limit_k_max       7
_diffrn_reflns_limit_k_min       0
_diffrn_reflns_limit_l_max       23
_diffrn_reflns_limit_l_min       0
_diffrn_reflns_number            1434
_diffrn_reflns_theta_full        45.4819
_diffrn_reflns_theta_max         45.48
_diffrn_reflns_theta_min         3.44
_exptl_absorpt_coefficient_mu    0.181
_exptl_crystal_density_diffrn    1.7081
_exptl_crystal_F_000             132.1419
_refine_diff_density_max         0.2943
_refine_diff_density_min         -0.2059
_refine_diff_density_rms         0.0428
_refine_ls_d_res_high            0.4984
_refine_ls_d_res_low             5.9195
_refine_ls_goodness_of_fit_ref   1.2128
_refine_ls_hydrogen_treatment    refall
_refine_ls_matrix_type           full
_refine_ls_number_constraints    0
_refine_ls_number_parameters     64
_refine_ls_number_reflns         1434
_refine_ls_number_restraints     0
_refine_ls_restrained_S_all      1.2128
_refine_ls_R_factor_all          0.0203
_refine_ls_R_factor_gt           0.0203
_refine_ls_shift/su_max          0.0004
_refine_ls_shift/su_mean         0.0001
_refine_ls_structure_factor_coef Fsqd
_refine_ls_weighting_details
'w=1/[\s^2^(Fo^2^)+(0.0152P)^2^] where P=(Fo^2^+2Fc^2^)/3'
_refine_ls_weighting_scheme      calc
_refine_ls_wR_factor_gt          0.0523
_refine_ls_wR_factor_ref         0.0523
_reflns_Friedel_coverage         0.0
_reflns_limit_h_max              9
_reflns_limit_h_min              -10
_reflns_limit_k_max              7
_reflns_limit_k_min              0
_reflns_limit_l_max              23
_reflns_limit_l_min              0
_reflns_number_gt                1434
_reflns_number_total             1434
_reflns_threshold_expression     I>=2u(I)
_iucr_refine_instructions_details
;
TITL oxa10
CELL 0.71073 6.0988 3.4954 11.8455 90 103.927 90
ZERR 4 0 0 0 0 0 0
LATT 1
SYMM -X,0.5+Y,0.5-Z
SFAC C H O
UNIT 4 12 12

ACTA 
BOND $H
WGHT 0.015216 0
FVAR 1.00101
REM <olex2.extras>
REM <HklSrc "%.\\0e5624d8bf9ffae695e74c401258259e.hkl">
REM </olex2.extras>

O1    3     0.43479  0.44421  0.34986  11.00000  0.01333  0.01848  0.00883 =
 -0.00064  0.00225  0.00406 
O2    3     0.24257  0.74255  0.46368  11.00000  0.01151  0.01809  0.00945 =
 -0.00071  0.00101  0.00492 
C1    1     0.40303  0.55866  0.44794  11.00000  0.00970  0.01143  0.00858 =
 -0.00006  0.00145  0.00165 
O3    3     0.12983  0.63112  0.17836  11.00000  0.01110  0.01782  0.00972 =
 0.00113  0.00057 -0.00123 
H3a   2     0.01186  0.45777  0.15107  11.00000  0.03039  0.02346  0.02538 =
 0.00611  0.00881 -0.00941 
H3b   2     0.18670  0.68664  0.11563  11.00000  0.01001  0.03340  0.02485 =
 -0.00151  0.00395 -0.00041 
H1    2     0.31009  0.52169  0.28346  11.00000  0.03881  0.02979  0.04899 =
 -0.00792  0.03677 -0.01388 
HKLF 4

END
Q1 1 0.4375 0.444444 0.4 11 0.05 0.29
Q2 1 0.15625 0.888889 0.133333 11 0.05 0.14
Q3 1 -0.09375 0.611111 0.25 11 0.05 0.12
Q4 1 0.25 0.777778 0.433333 11 0.05 0.12
Q5 1 0.4375 0.444444 0.3 11 0.05 0.12
Q6 1 0.1875 0.888889 0.5 11 0.05 0.11
Q7 1 0.09375 0.833333 0.216667 11 0.05 0.11
Q8 1 0.25 0.222222 0.15 11 0.05 0.1
Q9 1 0.40625 1 0.25 11 0.05 0.1
Q10 1 -0.21875 0.611111 0.166667 11 0.05 0.09
Q11 1 0.40625 1.055556 0.483333 11 0.05 0.09
Q12 1 0.5625 0.722222 0.3 11 0.05 0.09
Q13 1 0.09375 0.277778 0.066667 11 0.05 0.09
Q14 1 -0.03125 0.388889 0.183333 11 0.05 0.09
Q15 1 0.0625 0.555556 0.483333 11 0.05 0.09
Q16 1 0.40625 1.055556 0.383333 11 0.05 0.09
Q17 1 0.125 0.388889 0.283333 11 0.05 0.08
Q18 1 -0.0625 0.944444 0.133333 11 0.05 0.08
Q19 1 0.40625 0.611111 0.2 11 0.05 0.08
Q20 1 0.21875 0.833333 0.3 11 0.05 0.08

  REM The information below was added by Olex2.
  REM
  REM R1 = 0.0203 for 1434 Fo > 4sig(Fo) and 0.0203 for all 1434 data
  REM 64 parameters refined using 0 restraints
  REM Highest difference peak 0.2943, deepest hole -0.2059
  REM Mean Shift 0.0001, Max Shift 0.0004.

  REM +++ Tabular Listing of Refinement Information +++
  REM R1_all = 0.0203
  REM R1_gt = 0.0203
  REM wR_ref = 0.0523
  REM GOOF = 1.2128
  REM Shift_max = 0.0004
  REM Shift_mean = 0.0001
  REM Reflections_all = 1434
  REM Reflections_gt = 1434
  REM Parameters = 64
  REM Hole = -0.2059
  REM Peak = 0.2943
  REM Flack = n/a

  
;
_cod_data_source_file            63_TAAM_ANIS_max.cif
_cod_data_source_block           63_TAAM_ANIS_max
_cod_original_cell_volume        245.10(1)
_cod_database_code               2022032
_olex2_refinement_description
;
;
_iucr_refine_fcf_details
;
data_oxa10
_computing_structure_refinement   'olex2.refine (Bourhis et al., 2015)'
_shelx_refln_list_code            4
loop_
  _space_group_symop_id
  _space_group_symop_operation_xyz
  1  x,y,z
  2  -x,y+1/2,-z+1/2
  3  -x,-y,-z
  4  x,-y-1/2,z-1/2

_space_group_crystal_system       monoclinic
_space_group_IT_number            14
_space_group_name_H-M_alt         'P 1 21/c 1'
_space_group_name_Hall            '-P 2ybc'
_symmetry_space_group_name_H-M    'P 1 21/c 1'
_symmetry_space_group_name_Hall   '-P 2ybc'
_symmetry_Int_Tables_number       14
_cell_length_a                    6.0988
_cell_length_b                    3.4954
_cell_length_c                    11.8455
_cell_angle_alpha                 90
_cell_angle_beta                  103.927
_cell_angle_gamma                 90
_cell_volume                      245.096086
loop_
  _refln_index_h
  _refln_index_k
  _refln_index_l
  _refln_F_squared_calc
  _refln_F_squared_meas
  _refln_F_squared_sigma
  _refln_F_squared_weight
  _refln_observed_status
-10 1 17 13.659 13.503 0.958 8.595 o
-10 2 11 10.752 11.367 0.868 10.565 o
-10 2 12 4.261 4.371 0.639 20.033 o
-10 2 13 10.441 9.441 0.808 12.196 o
-10 2 14 12.927 13.014 0.928 9.173 o
-10 3 6 10.124 8.333 0.968 8.619 o
-10 3 8 5.381 5.569 0.888 10.377 o
-10 3 10 7.539 6.916 0.399 48.069 o
-9 0 16 19.322 19.411 1.088 6.502 o
-9 1 9 16.719 16.008 0.918 9.116 o
-9 1 11 6.377 5.249 0.599 22.509 o
-9 1 14 13.000 14.201 0.649 17.860 o
-9 1 16 2.539 1.717 0.269 111.908 o
-9 1 17 32.991 33.233 1.158 5.183 o
-9 1 18 5.808 5.479 0.748 14.545 o
-9 1 19 2.359 2.485 0.279 103.982 o
-9 2 7 9.148 9.830 0.768 13.519 o
-9 2 8 52.052 50.428 1.497 2.892 o
-9 2 9 1.035 1.347 0.180 253.551 o
-9 2 10 5.193 4.710 0.289 92.141 o
-9 2 12 2.781 3.204 0.299 90.141 o
-9 2 13 28.727 28.662 0.908 8.132 o
-9 2 14 4.302 4.291 0.539 28.022 o
-9 2 16 8.704 9.201 0.449 37.554 o
-9 2 17 7.341 7.175 0.509 30.434 o
-9 2 18 13.731 12.674 0.569 22.623 o
-9 3 4 19.397 19.750 1.277 4.801 o
-9 3 6 0.911 0.878 0.140 419.011 o
-9 3 7 19.175 18.064 0.629 17.306 o
-9 3 8 6.312 5.499 0.349 63.302 o
-9 3 9 1.150 1.068 0.190 227.833 o
-9 3 10 4.870 4.780 0.319 76.883 o
-9 3 11 0.837 0.868 0.190 228.625 o
-9 3 12 38.503 37.504 1.168 4.856 o
-9 3 13 6.028 5.479 0.349 63.565 o
-9 3 14 5.578 5.040 0.499 32.291 o
-9 3 15 2.220 1.547 0.269 112.312 o
-9 3 16 2.732 2.445 0.279 103.623 o
-9 4 6 7.632 7.086 0.409 45.809 o
-9 4 7 0.622 0.928 0.170 285.701 o
-9 4 8 3.749 3.593 0.389 53.398 o
-9 4 9 1.663 1.158 0.180 251.876 o
-9 4 11 5.693 4.800 0.299 85.686 o
-9 4 12 5.763 5.279 0.479 34.883 o
-8 0 2 3.528 3.403 0.878 10.668 o
-8 0 4 4.572 3.353 0.888 10.415 o
-8 0 10 6.150 6.447 0.589 23.214 o
-8 0 12 2.931 2.914 0.499 32.904 o
-8 0 14 42.242 44.490 1.367 3.595 o
-8 0 16 10.890 11.776 0.519 27.686 o
-8 0 18 2.199 2.216 0.329 75.357 o
-8 0 20 37.851 40.877 1.557 2.978 o
-8 1 1 27.078 29.021 1.487 3.457 o
-8 1 3 18.230 20.429 0.998 7.652 o
-8 1 4 28.757 28.313 1.357 4.065 o
-8 1 5 22.387 22.764 1.078 6.456 o
-8 1 6 1.602 1.367 0.190 226.298 o
-8 1 7 52.906 53.622 1.587 2.604 o
-8 1 8 5.923 5.928 0.329 70.832 o
-8 1 9 12.402 13.902 0.449 34.377 o
-8 1 10 34.437 35.209 0.948 7.013 o
-8 1 11 1.629 1.517 0.160 316.606 o
-8 1 12 1.729 1.607 0.180 250.783 o
-8 1 14 0.433 0.529 0.140 421.956 o
-8 1 15 14.539 14.900 0.589 20.830 o
-8 1 16 7.821 7.764 0.539 27.119 o
-8 1 17 6.712 5.988 0.389 51.235 o
-8 1 18 9.725 9.890 0.768 13.479 o
-8 2 1 39.207 39.390 1.337 3.849 o
-8 2 3 6.633 6.736 1.068 7.177 o
-8 2 4 15.369 14.511 0.509 26.492 o
-8 2 5 31.113 32.275 0.858 8.546 o
-8 2 6 53.998 55.937 1.946 1.844 o
-8 2 7 6.372 6.367 0.339 66.315 o
-8 2 8 6.547 6.417 0.369 56.508 o
-8 2 9 1.279 1.477 0.160 318.651 o
-8 2 10 11.045 10.948 0.429 38.910 o
-8 2 11 19.655 18.742 0.868 9.825 o
-8 2 12 7.866 7.345 0.499 31.437 o
-8 2 13 1.880 1.846 0.200 203.166 o
-8 2 14 10.324 10.209 0.659 18.017 o
-8 2 16 35.122 34.550 1.178 4.947 o
-8 2 17 1.604 1.507 0.269 112.850 o
-8 2 18 12.564 12.535 0.539 25.261 o
-8 2 19 3.177 2.625 0.329 74.710 o
-8 3 2 8.136 9.072 0.739 14.696 o
-8 3 3 6.553 6.976 0.379 53.557 o
-8 3 5 0.772 0.699 0.150 366.398 o
-8 3 6 32.404 31.407 0.878 8.181 o
-8 3 7 9.656 9.930 0.379 49.803 o
-8 3 8 20.213 21.696 0.659 15.490 o
-8 3 9 5.064 5.778 0.279 97.623 o
-8 3 10 9.066 9.161 0.379 50.669 o
-8 3 11 6.129 6.058 0.299 84.038 o
-8 3 12 48.400 47.464 1.327 3.595 o
-8 3 13 1.265 1.297 0.180 252.956 o
-8 3 14 1.091 0.858 0.249 132.160 o
-8 3 16 16.116 16.277 0.639 17.627 o
-8 3 17 15.159 15.868 0.978 8.165 o
-8 4 1 20.592 23.173 1.158 5.708 o
-8 4 2 18.564 20.628 1.098 6.397 o
-8 4 3 14.192 15.010 1.657 2.957 o
-8 4 4 10.471 10.499 0.509 29.029 o
-8 4 5 3.034 3.194 0.269 110.383 o
-8 4 6 4.393 3.962 0.359 61.971 o
-8 4 7 2.785 2.545 0.200 198.832 o
-8 4 8 3.856 4.361 0.349 65.668 o
-8 4 11 20.743 20.838 0.719 13.401 o
-8 4 12 15.496 15.678 0.609 19.357 o
-8 4 13 9.976 9.880 0.549 25.474 o
-8 4 15 2.819 2.295 0.230 152.066 o
-8 5 1 4.248 4.301 0.649 19.430 o
-8 5 7 4.013 3.822 0.399 50.674 o
-8 5 8 7.569 7.225 0.359 58.179 o
-7 0 2 13.739 13.383 0.699 15.553 o
-7 0 4 40.971 39.440 2.196 1.588 o
-7 0 6 244.915 238.218 6.696 0.141 o
-7 0 10 1.323 1.347 0.150 361.891 o
-7 0 12 5.377 5.529 0.259 111.372 o
-7 0 14 9.914 10.189 0.399 45.242 o
-7 0 16 7.160 6.816 0.409 46.157 o
-7 0 18 6.869 6.686 0.978 8.538 o
-7 1 1 17.327 17.315 0.978 8.049 o
-7 1 2 83.829 90.627 3.014 0.765 o
-7 1 3 3.684 3.393 0.240 136.843 o
-7 1 5 2.253 1.976 0.210 183.501 o
-7 1 6 18.573 18.672 0.539 22.285 o
-7 1 7 51.194 51.187 1.277 3.689 o
-7 1 9 9.987 10.169 0.369 51.703 o
-7 1 10 29.049 28.133 1.158 5.392 o
-7 1 11 45.336 44.839 1.118 4.796 o
-7 1 12 2.791 2.515 0.279 103.523 o
-7 1 13 9.139 9.032 0.469 34.525 o
-7 1 14 14.190 14.521 0.449 33.161 o
-7 1 15 12.751 13.842 0.459 32.958 o
-7 1 16 5.800 5.718 0.230 136.720 o
-7 1 17 21.170 20.888 1.587 3.151 o
-7 1 19 24.430 24.959 0.758 11.543 o
-7 1 20 3.866 4.082 0.349 65.751 o
-7 1 21 2.727 3.213 0.259 119.233 o
-7 2 2 0.236 0.359 0.090 1021.400 o
-7 2 3 22.069 21.117 0.898 9.013 o
-7 2 4 3.351 3.024 0.200 195.354 o
-7 2 5 10.208 9.690 0.359 54.190 o
-7 2 6 2.052 1.926 0.140 403.698 o
-7 2 7 18.457 18.562 0.529 23.007 o
-7 2 8 15.735 16.596 0.479 28.584 o
-7 2 9 16.098 15.648 0.509 25.974 o
-7 2 10 75.789 74.839 1.866 1.720 o
-7 2 11 22.125 21.087 0.898 9.010 o
-7 2 12 7.727 7.345 0.409 45.677 o
-7 2 13 4.910 4.331 0.259 113.937 o
-7 2 14 2.971 3.024 0.379 56.607 o
-7 2 15 38.879 39.181 1.208 4.563 o
-7 2 16 11.396 11.127 0.499 29.642 o
-7 2 17 1.924 1.577 0.200 203.422 o
-7 2 18 4.322 4.241 0.309 82.595 o
-7 2 20 22.077 21.347 0.778 11.529 o
-7 3 1 1.829 1.876 0.170 279.260 o
-7 3 2 1.786 1.766 0.180 250.228 o
-7 3 3 2.085 2.295 0.160 310.780 o
-7 3 4 73.314 75.906 2.126 1.426 o
-7 3 5 31.992 32.395 1.507 3.290 o
-7 3 6 15.182 15.738 0.748 13.430 o
-7 3 9 9.195 9.361 0.349 58.231 o
-7 3 10 10.852 10.918 0.419 40.667 o
-7 3 12 0.980 0.579 0.150 365.804 o
-7 3 13 6.690 6.856 0.489 33.077 o
-7 3 14 21.688 21.307 0.699 13.864 o
-7 3 15 4.415 4.301 0.299 87.784 o
-7 3 16 20.912 21.437 0.938 8.401 o
-7 3 18 8.899 8.303 0.429 40.947 o
-7 4 1 20.653 21.576 0.699 14.003 o
-7 4 2 6.729 6.028 0.469 35.940 o
-7 4 3 0.487 0.599 0.130 488.773 o
-7 4 4 1.897 1.517 0.249 131.135 o
-7 4 5 22.464 20.958 1.188 5.426 o
-7 4 6 4.053 4.231 0.399 50.579 o
-7 4 7 3.940 3.633 0.259 116.744 o
-7 4 8 25.492 24.012 1.267 4.716 o
-7 4 9 4.787 5.309 0.319 76.687 o
-7 4 11 13.861 13.153 0.699 15.552 o
-7 4 12 3.098 3.403 0.299 89.755 o
-7 4 14 3.277 3.044 0.299 89.756 o
-7 4 15 11.819 11.766 0.699 15.873 o
-7 4 16 8.826 8.802 0.389 48.723 o
-7 5 1 3.574 4.221 0.579 24.406 o
-7 5 2 18.473 18.962 0.659 16.058 o
-7 5 3 3.049 2.874 0.579 24.496 o
-7 5 4 1.674 1.597 0.220 169.106 o
-7 5 6 7.563 7.126 0.709 16.041 o
-7 5 7 0.593 0.649 0.150 367.095 o
-7 5 10 4.969 5.030 0.319 76.641 o
-7 5 11 8.227 8.114 0.409 45.139 o
-7 5 12 23.479 24.131 0.878 9.163 o
-6 0 2 177.196 179.497 16.876 0.028 o
-6 0 4 3.317 2.744 0.249 128.011 o
-6 0 6 161.291 159.967 3.782 0.407 o
-6 0 8 1.112 0.928 0.200 205.966 o
-6 0 10 284.372 282.788 7.305 0.115 o
-6 0 14 24.290 24.640 0.948 7.965 o
-6 0 16 123.479 126.394 3.912 0.437 o
-6 0 18 14.108 15.119 1.437 3.907 o
-6 0 20 9.217 10.219 0.459 35.615 o
-6 0 22 2.607 3.623 0.619 21.457 o
-6 1 1 1.193 1.307 0.110 665.866 o
-6 1 2 6.645 6.327 0.240 122.763 o
-6 1 3 1.038 1.377 0.120 563.747 o
-6 1 4 32.571 31.287 1.198 4.935 o
-6 1 5 92.487 91.315 2.375 1.086 o
-6 1 6 147.777 146.454 3.473 0.483 o
-6 1 7 2.571 2.675 0.170 272.046 o
-6 1 8 2.817 3.054 0.160 300.967 o
-6 1 9 43.284 42.684 1.078 5.189 o
-6 1 10 49.502 48.163 1.148 4.406 o
-6 1 11 4.105 4.062 0.170 252.874 o
-6 1 12 40.742 40.708 1.078 5.342 o
-6 1 13 4.567 4.740 0.190 201.876 o
-6 1 14 21.445 22.095 0.599 17.676 o
-6 1 15 3.389 3.423 0.240 137.533 o
-6 1 16 0.649 0.459 0.120 572.633 o
-6 1 17 0.934 0.818 0.160 321.548 o
-6 1 18 0.614 0.709 0.140 420.958 o
-6 1 19 10.967 11.217 0.419 40.488 o
-6 1 20 26.266 27.105 1.497 3.435 o
-6 1 21 11.643 12.664 0.479 31.433 o
-6 1 22 1.470 1.297 0.289 98.051 o
-6 2 1 68.647 64.629 1.647 2.196 o
-6 2 2 37.485 39.520 0.978 6.383 o
-6 2 3 59.122 59.979 2.196 1.465 o
-6 2 4 5.254 5.219 0.230 139.850 o
-6 2 5 4.412 4.411 0.240 133.467 o
-6 2 6 0.964 0.868 0.130 484.828 o
-6 2 8 12.627 13.303 0.409 40.153 o
-6 2 9 30.874 30.718 0.958 7.258 o
-6 2 10 9.448 9.092 0.349 58.092 o
-6 2 12 8.896 8.732 0.299 76.653 o
-6 2 14 6.140 5.788 0.279 95.490 o
-6 2 15 2.585 2.635 0.210 181.540 o
-6 2 17 8.723 8.393 0.409 44.736 o
-6 2 18 18.128 17.185 0.609 18.596 o
-6 2 19 2.196 1.846 0.249 130.565 o
-6 2 20 18.919 19.171 1.527 3.419 o
-6 2 21 1.427 0.968 0.220 169.988 o
-6 3 1 12.727 13.133 0.419 38.590 o
-6 3 2 11.673 11.447 0.399 43.351 o
-6 3 3 1.277 1.218 0.110 665.053 o
-6 3 4 4.346 4.441 0.190 204.453 o
-6 3 5 0.589 0.629 0.100 822.219 o
-6 3 6 5.743 6.277 0.319 75.002 o
-6 3 7 7.837 7.635 0.379 52.335 o
-6 3 8 38.971 39.001 1.257 4.272 o
-6 3 9 30.339 30.898 0.878 8.367 o
-6 3 10 0.420 0.489 0.120 573.984 o
-6 3 11 4.386 4.401 0.249 123.787 o
-6 3 13 6.704 6.517 0.279 93.528 o
-6 3 14 52.589 53.392 1.497 2.860 o
-6 3 15 11.465 12.205 0.559 24.000 o
-6 3 16 1.595 1.677 0.180 251.169 o
-6 3 18 8.168 7.515 0.509 30.174 o
-6 3 19 14.292 13.652 0.998 7.926 o
-6 3 20 0.858 0.758 0.240 143.556 o
-6 4 1 7.964 7.645 0.299 79.457 o
-6 4 3 6.794 7.156 0.559 25.535 o
-6 4 4 40.640 41.516 1.607 2.781 o
-6 4 5 37.113 40.259 1.128 5.133 o
-6 4 6 1.803 1.976 0.190 224.673 o
-6 4 8 6.449 5.778 0.279 94.859 o
-6 4 10 1.650 1.766 0.160 315.711 o
-6 4 11 6.528 6.377 0.299 83.120 o
-6 4 12 11.115 11.018 0.389 45.898 o
-6 4 13 12.537 11.766 0.429 37.697 o
-6 4 14 12.817 12.924 0.459 33.166 o
-6 4 15 21.344 20.109 0.629 16.624 o
-6 5 2 0.570 0.649 0.140 421.259 o
-6 5 3 0.977 1.138 0.200 206.017 o
-6 5 4 36.414 36.416 1.567 2.990 o
-6 5 6 6.526 6.187 0.339 66.247 o
-6 5 7 2.625 2.415 0.240 140.255 o
-6 5 8 14.947 15.279 0.519 25.662 o
-6 5 9 1.118 1.138 0.160 320.209 o
-6 5 10 14.750 13.513 0.529 25.226 o
-6 5 14 2.291 1.936 0.220 167.515 o
-6 6 1 1.645 1.537 0.379 57.182 o
-6 6 2 3.880 3.752 0.329 73.818 o
-6 6 4 2.991 2.854 0.299 90.109 o
-6 6 5 9.628 8.313 1.218 5.498 o
-6 6 6 1.110 0.629 0.180 254.267 o
-5 0 2 88.063 94.449 2.625 0.941 o
-5 0 4 17.568 16.427 0.918 9.061 o
-5 0 6 113.300 111.185 2.555 0.873 o
-5 0 8 277.549 273.317 8.692 0.089 o
-5 0 10 98.940 99.609 2.375 1.043 o
-5 0 12 43.006 43.173 1.098 5.053 o
-5 0 14 0.649 0.489 0.110 680.606 o
-5 0 18 24.935 28.043 1.018 6.926 o
-5 0 20 92.550 102.832 3.473 0.582 o
-5 1 1 55.886 54.669 1.517 2.740 o
-5 1 2 247.994 242.510 5.689 0.178 o
-5 1 3 47.978 50.418 1.198 4.160 o
-5 1 4 91.394 90.866 2.585 0.959 o
-5 1 5 29.990 29.381 0.778 10.178 o
-5 1 6 3.953 3.782 0.180 230.776 o
-5 1 7 0.896 0.848 0.090 1001.370 o
-5 1 8 16.823 17.265 0.459 29.767 o
-5 1 9 261.001 261.052 6.118 0.155 o
-5 1 10 25.792 25.578 0.659 14.068 o
-5 1 12 24.338 24.401 0.609 16.257 o
-5 1 13 9.135 8.563 0.339 61.786 o
-5 1 14 24.793 25.928 0.649 14.552 o
-5 1 15 37.958 40.079 1.018 5.974 o
-5 1 16 52.196 55.358 1.407 3.132 o
-5 1 17 15.523 15.299 0.798 11.922 o
-5 1 19 38.441 40.219 1.088 5.376 o
-5 1 20 0.514 0.589 0.140 421.585 o
-5 1 22 1.253 1.178 0.190 227.475 o
-5 2 1 9.431 9.171 0.299 75.175 o
-5 2 2 0.587 0.579 0.090 1013.720 o
-5 2 3 4.375 4.331 0.200 186.664 o
-5 2 4 28.576 28.413 0.729 11.484 o
-5 2 5 170.321 174.876 4.132 0.345 o
-5 2 6 79.827 80.258 1.946 1.568 o
-5 2 7 21.376 21.297 0.569 19.244 o
-5 2 8 2.021 1.936 0.140 404.011 o
-5 2 11 38.492 38.382 0.968 6.454 o
-5 2 12 23.924 23.383 0.689 13.656 o
-5 2 13 70.720 70.108 1.727 1.999 o
-5 2 14 0.592 0.639 0.120 572.386 o
-5 2 15 11.647 11.547 0.908 9.647 o
-5 2 16 3.326 3.204 0.190 214.758 o
-5 2 17 7.816 7.265 0.369 55.115 o
-5 2 18 4.435 4.930 0.409 47.923 o
-5 2 19 10.564 9.700 0.439 38.009 o
-5 2 22 9.593 9.311 0.469 34.280 o
-5 3 1 18.835 19.461 0.539 22.058 o
-5 3 3 6.215 6.437 0.230 133.531 o
-5 3 4 11.624 11.646 0.339 56.386 o
-5 3 5 3.552 3.583 0.190 212.330 o
-5 3 6 4.761 4.441 0.230 143.114 o
-5 3 7 15.448 15.798 0.579 21.113 o
-5 3 8 2.230 2.076 0.190 222.869 o
-5 3 10 6.444 6.387 0.269 100.509 o
-5 3 11 0.560 0.509 0.090 1015.050 o
-5 3 12 0.661 0.649 0.130 487.729 o
-5 3 14 0.789 0.689 0.120 570.546 o
-5 3 15 2.274 2.016 0.230 153.510 o
-5 3 18 12.080 11.257 0.619 19.893 o
-5 3 19 5.226 5.459 0.878 10.617 o
-5 4 1 3.340 3.184 0.180 237.494 o
-5 4 3 23.757 23.812 0.828 10.108 o
-5 4 4 23.955 24.540 0.659 14.517 o
-5 4 5 13.837 13.143 0.409 39.271 o
-5 4 7 1.068 0.908 0.130 483.773 o
-5 4 8 24.153 24.161 0.729 12.402 o
-5 4 10 23.625 23.952 0.659 14.635 o
-5 4 12 1.924 1.607 0.150 356.341 o
-5 4 13 14.285 14.101 0.579 21.625 o
-5 4 14 6.435 7.345 0.359 59.160 o
-5 4 15 12.301 12.654 0.509 28.016 o
-5 4 17 2.224 2.026 0.279 104.319 o
-5 4 18 15.481 14.052 0.888 9.819 o
-5 5 1 2.777 2.245 0.190 220.105 o
-5 5 2 4.018 3.872 0.269 108.297 o
-5 5 3 2.924 3.243 0.200 196.786 o
-5 5 4 63.443 63.761 1.627 2.306 o
-5 5 6 8.779 9.251 0.469 34.625 o
-5 5 7 2.403 2.086 0.210 182.929 o
-5 5 8 6.017 5.219 0.279 96.313 o
-5 5 9 2.792 2.225 0.369 59.877 o
-5 5 10 3.359 3.303 0.269 109.831 o
-5 5 12 10.692 9.970 0.449 36.384 o
-5 5 13 3.710 3.583 0.240 136.537 o
-5 5 14 47.281 52.444 2.595 1.133 o
-5 6 3 19.103 18.612 1.178 5.618 o
-5 6 4 2.586 2.405 0.220 166.220 o
-5 6 5 1.387 0.858 0.240 143.103 o
-5 6 6 0.917 0.699 0.200 206.434 o
-5 6 7 1.544 1.297 0.180 252.048 o
-5 6 8 10.893 10.778 0.489 30.998 o
-5 6 9 2.182 1.697 0.220 168.020 o
-4 0 2 960.022 986.935 23.552 0.011 o
-4 0 4 117.834 130.646 3.383 0.554 o
-4 0 6 43.899 42.813 1.158 4.642 o
-4 0 8 572.892 536.915 12.824 0.035 o
-4 0 10 1.589 1.727 0.160 316.217 o
-4 0 12 238.051 231.971 5.758 0.179 o
-4 0 14 1.858 1.687 0.150 356.569 o
-4 0 16 54.930 55.258 2.535 1.159 o
-4 0 18 126.537 131.005 5.559 0.238 o
-4 1 1 91.081 90.577 2.245 1.187 o
-4 1 2 56.001 57.783 1.457 2.883 o
-4 1 3 1.746 1.507 0.120 551.090 o
-4 1 4 33.046 34.261 0.868 8.153 o
-4 1 6 177.427 178.220 4.142 0.338 o
-4 1 7 87.224 84.649 2.495 1.039 o
-4 1 8 171.004 167.851 3.842 0.385 o
-4 1 9 45.995 43.213 1.018 5.482 o
-4 1 11 1.667 1.677 0.110 650.392 o
-4 1 12 80.573 79.070 1.826 1.713 o
-4 1 13 15.301 14.790 0.399 38.888 o
-4 1 14 16.321 16.796 0.439 32.297 o
-4 1 16 21.706 21.347 0.609 17.259 o
-4 1 17 4.121 4.481 0.339 69.222 o
-4 1 18 0.992 0.998 0.130 484.042 o
-4 1 19 49.029 50.807 1.317 3.582 o
-4 1 20 11.319 11.547 0.509 28.564 o
-4 1 21 1.382 1.257 0.289 98.104 o
-4 1 22 21.503 21.896 0.968 7.899 o
-4 1 23 8.673 9.042 0.479 33.382 o
-4 2 1 52.320 51.725 1.238 3.823 o
-4 2 2 13.826 12.555 0.359 48.389 o
-4 2 3 78.931 77.933 1.816 1.746 o
-4 2 4 60.439 63.162 1.746 2.106 o
-4 2 5 5.905 6.237 0.230 135.232 o
-4 2 6 5.232 5.858 0.240 128.590 o
-4 2 7 6.591 6.966 0.269 99.436 o
-4 2 8 79.923 80.827 1.996 1.509 o
-4 2 9 13.459 13.323 0.429 36.571 o
-4 2 10 29.965 28.612 0.758 10.629 o
-4 2 11 7.496 7.555 0.289 85.277 o
-4 2 12 0.746 0.729 0.100 818.729 o
-4 2 13 3.035 2.884 0.170 267.718 o
-4 2 14 21.451 21.287 0.629 16.474 o
-4 2 15 32.893 35.199 0.938 7.229 o
-4 2 16 9.838 9.581 0.349 57.338 o
-4 2 17 6.979 7.475 0.339 65.049 o
-4 2 18 6.979 7.485 0.289 86.391 o
-4 2 19 5.808 5.080 0.309 80.266 o
-4 2 21 4.072 4.182 0.429 43.911 o
-4 2 22 3.527 3.483 0.299 89.283 o
-4 3 1 4.874 4.760 0.220 154.013 o
-4 3 2 13.550 13.273 0.419 37.947 o
-4 3 3 22.488 22.904 0.579 18.207 o
-4 3 4 235.913 242.470 6.387 0.153 o
-4 3 5 27.700 28.852 0.818 9.689 o
-4 3 6 8.415 8.553 0.279 87.242 o
-4 3 7 5.287 5.549 0.220 150.442 o
-4 3 8 0.298 0.299 0.070 1685.010 o
-4 3 9 37.040 36.646 1.228 4.532 o
-4 3 10 61.288 61.236 1.607 2.393 o
-4 3 11 19.928 20.449 0.848 10.156 o
-4 3 12 11.810 12.365 0.429 37.974 o
-4 3 14 30.533 30.478 0.918 7.801 o
-4 3 15 5.698 5.559 0.279 96.610 o
-4 3 16 3.886 3.413 0.339 69.776 o
-4 3 17 13.718 13.573 0.639 18.302 o
-4 3 18 2.534 2.535 0.519 30.496 o
-4 3 20 6.078 5.639 0.469 36.195 o
-4 4 2 5.132 5.239 0.220 151.839 o
-4 4 3 60.285 61.845 1.487 2.692 o
-4 4 4 0.825 0.788 0.100 816.613 o
-4 4 5 11.334 11.636 0.339 56.793 o
-4 4 6 28.146 30.488 0.768 10.530 o
-4 4 7 9.229 9.980 0.389 47.931 o
-4 4 8 4.199 4.900 0.279 99.937 o
-4 4 9 2.079 2.156 0.140 401.921 o
-4 4 10 2.826 2.874 0.200 197.992 o
-4 4 13 28.002 27.744 0.888 8.519 o
-4 4 14 22.218 21.686 0.699 13.752 o
-4 4 16 1.840 1.317 0.220 169.060 o
-4 4 17 4.567 4.271 0.409 48.000 o
-4 4 18 1.929 1.457 0.309 85.630 o
-4 5 2 22.262 22.944 0.629 16.117 o
-4 5 3 2.474 2.405 0.150 346.975 o
-4 5 6 5.427 5.130 0.289 91.418 o
-4 5 8 7.755 8.094 0.339 63.786 o
-4 5 10 12.057 12.105 0.459 33.776 o
-4 5 11 1.352 1.337 0.140 414.121 o
-4 5 12 7.520 7.086 0.439 40.203 o
-4 5 14 12.547 12.475 0.569 22.946 o
-4 6 2 4.785 4.561 0.249 122.551 o
-4 6 3 12.878 12.944 0.569 22.805 o
-4 6 4 3.135 3.393 0.329 74.489 o
-4 6 5 5.630 5.349 0.479 34.908 o
-4 6 6 1.707 1.507 0.379 57.173 o
-4 6 7 9.614 8.233 0.399 46.198 o
-4 6 8 1.480 1.108 0.200 205.097 o
-3 0 2 14.387 13.024 0.549 23.852 o
-3 0 4 89.013 89.180 2.525 1.006 o
-3 0 6 10.864 12.105 0.908 9.668 o
-3 0 8 20.668 20.578 0.898 9.121 o
-3 0 10 3.895 3.952 0.200 190.341 o
-3 0 12 145.063 143.989 3.603 0.463 o
-3 0 14 18.641 17.445 0.519 23.843 o
-3 0 16 13.441 13.722 0.798 12.147 o
-3 0 18 30.373 35.309 1.178 5.085 o
-3 0 20 9.240 9.870 0.748 14.216 o
-3 0 22 90.484 99.319 3.483 0.584 o
-3 1 1 326.539 336.779 7.894 0.094 o
-3 1 2 32.449 33.911 0.948 7.181 o
-3 1 3 156.162 163.370 4.880 0.279 o
-3 1 4 229.602 229.905 5.569 0.191 o
-3 1 5 204.462 219.257 5.569 0.201 o
-3 1 7 344.824 329.614 10.998 0.056 o
-3 1 8 9.355 7.874 0.249 102.677 o
-3 1 9 61.117 57.005 1.337 3.158 o
-3 1 10 3.068 3.683 0.190 214.860 o
-3 1 11 158.457 154.847 3.593 0.443 o
-3 1 12 52.839 52.544 1.277 3.629 o
-3 1 13 0.738 0.709 0.080 1271.050 o
-3 1 14 0.273 0.259 0.080 1292.170 o
-3 1 16 30.686 30.758 0.818 9.299 o
-3 1 17 56.884 57.594 1.557 2.598 o
-3 1 18 37.091 37.903 1.407 3.585 o
-3 1 20 1.894 2.046 0.200 202.831 o
-3 1 21 7.592 8.104 0.589 22.898 o
-3 1 22 1.814 1.816 0.240 142.062 o
-3 1 23 1.622 1.836 0.309 85.686 o
-3 2 1 82.159 82.413 1.926 1.565 o
-3 2 2 176.232 175.126 4.172 0.336 o
-3 2 3 295.602 306.470 7.275 0.112 o
-3 2 4 25.970 25.738 0.689 13.121 o
-3 2 5 2.733 2.545 0.160 304.190 o
-3 2 6 137.850 138.221 3.273 0.546 o
-3 2 7 162.907 162.122 4.691 0.294 o
-3 2 8 286.364 287.479 7.066 0.120 o
-3 2 9 49.304 50.638 1.387 3.307 o
-3 2 10 10.532 10.818 0.329 61.348 o
-3 2 11 22.842 23.133 0.639 15.588 o
-3 2 12 2.143 2.076 0.140 401.617 o
-3 2 13 52.011 52.504 1.277 3.651 o
-3 2 14 0.770 0.669 0.170 285.659 o
-3 2 15 28.004 27.255 0.918 8.086 o
-3 2 16 13.974 14.411 0.489 28.946 o
-3 2 17 0.943 1.048 0.200 206.142 o
-3 2 18 41.508 41.476 1.836 2.190 o
-3 2 20 3.488 3.054 0.269 109.824 o
-3 2 21 10.529 9.710 0.419 41.282 o
-3 3 1 3.564 3.952 0.160 288.195 o
-3 3 2 253.008 250.374 6.088 0.159 o
-3 3 3 3.658 3.543 0.170 259.549 o
-3 3 4 44.939 45.538 1.118 4.798 o
-3 3 5 21.808 22.494 0.569 18.940 o
-3 3 7 3.992 4.052 0.200 189.555 o
-3 3 8 17.138 18.053 0.489 26.675 o
-3 3 9 4.614 4.521 0.210 169.276 o
-3 3 10 19.786 19.520 0.519 22.994 o
-3 3 11 1.340 1.238 0.130 479.376 o
-3 3 12 41.452 42.005 1.048 5.508 o
-3 3 13 9.438 9.611 0.319 67.215 o
-3 3 14 67.330 68.262 2.695 0.993 o
-3 3 15 1.388 1.487 0.240 142.787 o
-3 3 17 1.009 1.088 0.230 156.005 o
-3 3 18 3.205 3.014 0.469 37.149 o
-3 3 19 9.973 10.080 0.559 24.612 o
-3 3 20 4.032 4.441 0.439 41.953 o
-3 4 1 21.070 21.546 0.559 19.819 o
-3 4 2 10.842 10.838 0.319 63.919 o
-3 4 3 57.318 58.392 1.397 3.034 o
-3 4 4 28.397 29.500 0.878 8.577 o
-3 4 5 0.366 0.359 0.070 1681.600 o
-3 4 6 25.427 25.928 0.788 10.680 o
-3 4 7 16.166 17.295 0.559 21.981 o
-3 4 8 0.545 0.559 0.110 681.296 o
-3 4 9 0.628 0.599 0.090 1012.540 o
-3 4 10 36.802 37.873 1.247 4.402 o
-3 4 11 3.878 3.463 0.230 147.665 o
-3 4 12 3.152 2.964 0.220 163.805 o
-3 4 13 30.829 31.566 0.958 7.235 o
-3 4 14 5.591 6.008 0.339 67.284 o
-3 4 16 3.698 3.423 0.359 62.519 o
-3 5 2 2.404 2.345 0.200 200.659 o
-3 5 3 4.398 4.281 0.240 133.698 o
-3 5 4 9.635 9.940 0.369 52.169 o
-3 5 5 1.035 1.068 0.130 483.347 o
-3 5 6 36.146 37.325 0.968 6.627 o
-3 5 7 4.122 3.942 0.369 58.916 o
-3 5 8 0.647 0.519 0.100 822.179 o
-3 5 9 4.165 4.122 0.269 107.815 o
-3 5 10 4.541 3.952 0.299 87.846 o
-3 5 11 1.389 1.188 0.160 318.831 o
-3 5 12 12.366 11.237 2.445 1.374 o
-3 6 1 8.457 8.932 0.359 56.461 o
-3 6 2 1.767 1.796 0.220 168.753 o
-3 6 4 1.179 1.098 0.180 253.498 o
-3 6 5 0.692 0.489 0.140 421.090 o
-3 6 7 0.742 0.659 0.160 322.394 o
-3 6 9 3.965 3.902 0.269 108.364 o
-3 6 10 3.017 2.764 0.240 139.121 o
-2 0 2 638.731 607.133 16.207 0.023 o
-2 0 4 2054.230 1873.430 47.634 0.003 o
-2 0 6 176.815 166.553 4.012 0.358 o
-2 0 8 455.347 451.777 30.169 0.009 o
-2 0 10 193.208 180.076 4.621 0.279 o
-2 0 12 15.082 16.616 0.509 26.187 o
-2 0 14 54.384 54.400 1.367 3.233 o
-2 0 16 11.255 10.629 0.389 45.946 o
-2 0 18 5.123 4.810 0.529 28.915 o
-2 0 20 16.037 17.964 0.958 8.407 o
-2 0 22 3.577 3.842 0.589 23.608 o
-2 1 1 184.060 189.217 4.361 0.306 o
-2 1 2 556.028 572.353 15.958 0.025 o
-2 1 3 20.680 20.848 0.649 15.870 o
-2 1 4 349.999 359.054 8.353 0.084 o
-2 1 5 21.693 20.808 0.599 17.776 o
-2 1 6 6.480 5.409 0.220 145.173 o
-2 1 7 36.407 33.413 0.898 7.528 o
-2 1 8 284.805 272.250 6.836 0.127 o
-2 1 9 22.174 21.796 0.549 19.956 o
-2 1 10 31.272 30.329 0.748 10.559 o
-2 1 11 83.799 81.515 1.896 1.591 o
-2 1 12 8.820 8.882 0.289 81.077 o
-2 1 13 32.661 30.698 0.878 8.189 o
-2 1 14 18.873 18.642 0.519 23.520 o
-2 1 15 11.038 11.696 0.489 30.759 o
-2 1 16 1.011 0.978 0.090 995.073 o
-2 1 17 28.455 29.939 0.808 9.744 o
-2 1 18 8.663 8.124 0.289 82.233 o
-2 1 19 1.719 1.746 0.160 315.335 o
-2 1 21 53.273 56.067 2.954 0.878 o
-2 1 22 10.816 11.177 0.679 16.914 o
-2 2 1 150.718 152.681 3.742 0.428 o
-2 2 2 472.454 479.960 11.766 0.043 o
-2 2 3 9.661 9.690 0.419 41.847 o
-2 2 4 24.332 22.983 0.619 16.038 o
-2 2 5 2.953 3.213 0.160 298.816 o
-2 2 6 70.473 70.148 1.687 2.069 o
-2 2 7 34.465 32.145 0.848 8.406 o
-2 2 8 29.051 26.866 0.739 11.295 o
-2 2 9 16.915 16.357 0.449 30.990 o
-2 2 10 87.224 86.575 2.036 1.400 o
-2 2 11 13.525 13.183 0.379 44.528 o
-2 2 12 108.204 105.756 2.505 0.923 o
-2 2 13 29.788 29.900 0.758 10.571 o
-2 2 14 13.347 13.493 0.449 33.952 o
-2 2 15 2.138 2.126 0.190 223.141 o
-2 2 16 35.965 38.153 1.317 4.034 o
-2 2 17 52.883 52.055 1.467 2.957 o
-2 2 18 26.582 27.275 0.818 9.876 o
-2 2 19 7.695 7.854 0.369 54.963 o
-2 2 20 6.375 6.706 0.359 59.490 o
-2 3 1 140.397 141.993 3.303 0.532 o
-2 3 2 65.571 67.613 1.896 1.791 o
-2 3 3 1.399 1.487 0.100 791.626 o
-2 3 4 9.263 9.112 0.289 79.858 o
-2 3 5 6.411 6.637 0.220 142.517 o
-2 3 6 358.176 371.798 8.902 0.075 o
-2 3 7 80.507 85.098 2.096 1.388 o
-2 3 8 26.738 25.548 0.709 12.461 o
-2 3 9 7.683 7.665 0.259 101.988 o
-2 3 10 22.010 22.794 0.639 15.796 o
-2 3 11 20.054 19.391 0.729 13.280 o
-2 3 12 82.550 83.571 2.176 1.306 o
-2 3 13 3.538 3.762 0.309 83.640 o
-2 3 14 4.864 4.700 0.389 52.652 o
-2 3 15 10.746 11.167 0.499 29.874 o
-2 3 16 31.743 31.187 1.028 6.416 o
-2 3 17 4.235 4.301 0.349 65.436 o
-2 4 1 16.856 16.936 0.549 22.485 o
-2 4 2 60.883 61.136 1.467 2.741 o
-2 4 3 32.552 33.832 0.818 8.962 o
-2 4 4 0.417 0.409 0.070 1678.490 o
-2 4 5 34.539 34.979 1.018 6.281 o
-2 4 6 3.664 4.172 0.240 135.891 o
-2 4 7 37.112 38.772 0.998 6.235 o
-2 4 8 0.558 0.489 0.090 1015.300 o
-2 4 10 23.582 23.522 0.808 10.560 o
-2 4 11 17.379 18.393 0.599 19.151 o
-2 4 13 10.428 11.048 0.968 8.573 o
-2 5 1 0.286 0.429 0.100 827.008 o
-2 5 2 15.911 16.197 0.499 26.785 o
-2 5 3 3.214 3.343 0.170 264.347 o
-2 5 4 3.357 3.463 0.249 127.220 o
-2 5 5 4.246 4.261 0.259 115.480 o
-2 5 10 3.146 2.874 0.359 62.924 o
-2 5 11 0.530 0.589 0.190 229.236 o
-2 5 13 5.465 4.261 0.778 13.496 o
-2 6 1 0.622 0.549 0.120 572.500 o
-2 6 3 16.339 14.820 0.469 29.701 o
-2 6 5 9.051 9.231 0.349 58.475 o
-2 6 7 3.713 3.792 0.379 56.156 o
-2 6 8 1.859 1.756 0.190 224.859 o
-2 6 9 3.137 2.595 0.220 164.412 o
-2 6 11 6.145 6.397 0.509 30.810 o
-1 0 2 773.358 751.221 17.265 0.019 o
-1 0 4 876.752 845.740 41.406 0.004 o
-1 0 6 205.244 190.974 4.910 0.247 o
-1 0 8 497.116 498.163 13.153 0.036 o
-1 0 10 3.775 3.034 0.249 126.795 o
-1 0 12 110.574 104.638 2.854 0.759 o
-1 0 14 48.551 46.885 1.188 4.249 o
-1 0 16 21.157 22.674 1.736 2.643 o
-1 0 18 58.312 63.981 1.746 2.123 o
-1 0 20 38.645 44.370 1.457 3.298 o
-1 1 1 2931.220 2720.760 62.304 0.001 o
-1 1 2 140.818 148.630 3.403 0.505 o
-1 1 3 338.705 334.853 7.744 0.096 o
-1 1 4 242.473 239.546 5.579 0.185 o
-1 1 5 1.496 0.848 0.120 560.955 o
-1 1 6 0.500 0.559 0.110 681.710 o
-1 1 7 421.171 410.221 9.900 0.060 o
-1 1 8 93.307 88.960 2.146 1.259 o
-1 1 9 172.041 168.958 4.321 0.325 o
-1 1 11 74.618 70.667 1.667 2.053 o
-1 1 12 84.213 85.048 2.036 1.424 o
-1 1 13 5.419 5.439 0.210 162.759 o
-1 1 14 43.932 44.640 1.377 3.517 o
-1 1 15 9.917 10.529 0.339 59.476 o
-1 1 16 5.987 5.858 0.230 135.675 o
-1 1 17 1.587 1.487 0.150 359.545 o
-1 1 18 14.512 14.710 0.449 32.916 o
-1 1 19 9.349 9.092 0.938 9.177 o
-1 1 20 2.735 2.774 0.249 129.039 o
-1 1 21 12.101 13.143 0.519 27.059 o
-1 1 22 11.683 11.766 0.519 27.430 o
-1 1 23 1.508 1.297 0.339 71.429 o
-1 2 1 142.664 137.472 3.213 0.553 o
-1 2 2 7.992 7.874 0.299 79.192 o
-1 2 3 168.409 170.665 4.441 0.313 o
-1 2 4 225.889 231.362 5.649 0.188 o
-1 2 5 488.623 485.578 11.537 0.044 o
-1 2 6 16.649 18.073 0.519 24.490 o
-1 2 7 1.364 1.347 0.110 661.786 o
-1 2 8 46.033 44.081 1.038 5.314 o
-1 2 9 7.887 7.615 0.240 115.596 o
-1 2 10 184.858 175.425 4.112 0.336 o
-1 2 11 69.981 70.108 1.677 2.093 o
-1 2 12 33.821 32.913 0.838 8.577 o
-1 2 13 13.053 12.245 0.429 37.200 o
-1 2 14 1.113 1.178 0.120 564.078 o
-1 2 15 12.207 11.776 0.369 48.565 o
-1 2 18 5.544 5.479 0.619 21.180 o
-1 2 19 4.011 4.022 0.609 22.061 o
-1 2 20 45.954 47.414 1.717 2.397 o
-1 3 2 31.448 32.464 0.868 8.360 o
-1 3 3 14.231 13.932 0.499 27.972 o
-1 3 4 56.865 56.087 1.527 2.687 o
-1 3 5 0.671 0.828 0.080 1271.370 o
-1 3 6 105.360 103.401 2.515 0.932 o
-1 3 7 1.594 1.567 0.110 653.706 o
-1 3 8 6.335 6.337 0.309 78.644 o
-1 3 9 1.130 1.108 0.100 805.543 o
-1 3 10 31.248 31.347 1.128 5.512 o
-1 3 11 41.402 41.396 1.068 5.372 o
-1 4 1 5.903 6.257 0.210 157.848 o
-1 4 2 9.871 9.760 0.279 82.191 o
-1 4 4 0.400 0.389 0.060 2280.040 o
-1 4 5 59.296 59.789 1.707 2.213 o
-1 4 6 80.641 81.785 2.196 1.302 o
-1 4 7 28.835 28.762 0.988 7.068 o
-1 4 8 8.198 8.183 0.359 57.102 o
-1 4 9 1.244 1.198 0.210 186.532 o
-1 4 11 2.740 3.293 0.289 96.314 o
-1 4 12 19.897 21.706 1.208 5.309 o
-1 5 1 9.811 10.728 0.409 43.209 o
-1 5 2 71.497 74.809 1.796 1.857 o
-1 5 3 1.192 1.208 0.140 415.962 o
-1 5 4 4.764 4.790 0.230 142.476 o
-1 5 6 32.492 32.684 1.228 4.713 o
-1 5 7 0.940 0.968 0.180 254.267 o
-1 5 8 0.835 0.848 0.170 285.287 o
-1 5 9 6.831 7.794 0.389 50.561 o
-1 5 10 14.172 15.978 0.729 14.207 o
-1 5 11 1.481 1.128 0.240 142.878 o
-1 5 12 14.070 13.632 1.198 5.583 o
-1 6 1 2.275 2.305 0.180 246.669 o
-1 6 2 6.668 6.627 0.269 99.667 o
-1 6 4 1.715 1.457 0.200 204.140 o
-1 6 5 0.795 0.739 0.200 206.565 o
-1 6 6 9.017 9.730 0.389 48.204 o
-1 6 7 9.206 8.922 0.479 33.206 o
-1 6 8 2.590 2.235 0.200 200.181 o
0 0 2 135.326 141.065 3.553 0.486 o
0 0 4 63.688 67.274 1.866 1.853 o
0 0 6 1035.680 979.101 25.748 0.009 o
0 0 8 289.961 293.666 9.032 0.082 o
0 0 10 393.759 384.084 10.938 0.053 o
0 0 12 13.437 13.702 0.569 22.567 o
0 0 14 49.869 55.208 1.557 2.715 o
0 0 16 10.515 10.399 0.419 41.065 o
0 0 20 9.003 9.391 0.739 14.624 o
0 0 22 15.004 15.579 0.948 8.672 o
0 1 1 455.709 444.332 10.738 0.051 o
0 1 2 90.753 87.962 2.345 1.121 o
0 1 3 19.518 17.964 0.559 20.858 o
0 1 4 1545.200 1523.360 34.630 0.005 o
0 1 5 64.761 70.517 1.776 1.973 o
0 1 6 297.672 307.888 7.405 0.109 o
0 1 7 38.030 35.119 1.028 6.008 o
0 1 8 26.334 26.357 0.758 11.222 o
0 1 9 38.230 35.927 0.908 7.183 o
0 1 10 143.885 141.873 3.303 0.527 o
0 1 11 201.013 199.527 4.720 0.261 o
0 1 13 25.807 25.518 0.669 13.760 o
0 1 14 8.609 8.583 0.289 81.857 o
0 1 15 3.647 3.483 0.170 259.922 o
0 1 16 3.386 3.433 0.150 329.162 o
0 1 17 18.783 19.720 0.559 20.814 o
0 1 18 24.837 25.538 2.216 1.634 o
0 1 19 46.580 47.793 2.944 0.900 o
0 1 20 3.347 2.884 0.259 118.503 o
0 1 21 14.817 15.079 0.579 21.368 o
0 1 22 3.962 3.922 0.329 73.687 o
0 2 0 12.896 13.243 0.539 25.053 o
0 2 1 74.508 72.653 1.836 1.781 o
0 2 2 125.972 130.327 2.994 0.649 o
0 2 4 182.812 183.709 5.349 0.227 o
0 2 5 47.614 48.911 1.277 3.812 o
0 2 6 5.387 5.449 0.259 111.449 o
0 2 7 134.239 135.416 3.323 0.542 o
0 2 8 0.437 0.399 0.070 1677.830 o
0 2 9 56.791 53.153 1.277 3.519 o
0 2 10 27.128 24.341 0.669 13.627 o
0 2 11 1.326 1.377 0.140 414.179 o
0 2 12 15.976 16.008 0.449 31.658 o
0 2 13 9.662 10.000 0.379 49.767 o
0 2 14 57.126 54.041 1.377 3.146 o
0 2 15 92.725 94.529 2.475 1.014 o
0 2 16 2.818 2.784 0.479 35.704 o
0 2 18 11.397 10.708 0.808 12.103 o
0 2 19 11.834 12.155 0.868 10.495 o
0 2 20 23.652 24.031 1.198 5.276 o
0 3 1 50.340 49.719 1.168 4.245 o
0 3 2 111.548 113.820 2.804 0.766 o
0 3 3 82.876 84.849 1.956 1.518 o
0 3 4 55.215 56.775 1.477 2.847 o
0 3 5 15.610 15.608 0.409 36.894 o
0 3 7 0.944 1.038 0.110 672.954 o
0 3 8 97.282 97.313 2.934 0.765 o
0 3 9 41.389 42.265 1.138 4.868 o
0 3 10 1.420 1.138 0.160 318.801 o
0 3 11 1.210 1.377 0.200 205.375 o
0 3 12 6.808 5.808 0.908 9.896 o
0 4 0 2.855 2.944 0.200 197.726 o
0 4 1 11.888 12.455 0.359 50.712 o
0 4 2 57.268 60.378 1.547 2.597 o
0 4 3 4.007 3.972 0.180 229.616 o
0 4 4 12.289 12.315 0.449 34.889 o
0 4 5 76.420 76.924 2.196 1.337 o
0 4 6 6.253 6.507 0.249 115.421 o
0 4 8 5.363 5.269 0.249 119.980 o
0 4 9 6.332 5.778 0.449 39.243 o
0 4 10 16.319 16.297 0.619 18.581 o
0 5 2 7.626 7.575 0.259 102.290 o
0 5 3 1.172 1.178 0.110 667.568 o
0 5 4 24.081 25.099 0.659 14.439 o
0 5 5 3.064 2.924 0.170 267.327 o
0 5 6 73.371 77.403 1.876 1.716 o
0 5 8 6.536 6.647 0.409 46.544 o
0 5 11 3.610 3.802 0.709 16.346 o
0 5 12 7.903 7.854 0.898 10.057 o
0 6 0 17.242 17.245 0.609 18.792 o
0 6 1 6.064 5.878 0.259 109.137 o
0 6 2 9.628 10.159 0.349 57.242 o
0 6 3 3.891 3.513 0.230 147.549 o
0 6 4 0.725 0.649 0.200 206.700 o
0 6 5 28.975 27.654 0.778 10.395 o
0 6 8 0.811 0.758 0.230 156.307 o
0 6 10 11.590 11.497 1.028 7.593 o
0 7 1 8.669 7.655 0.579 23.520 o
1 0 0 375.426 365.761 8.553 0.078 o
1 0 2 11.326 10.659 0.429 38.825 o
1 0 4 1802.290 1837.710 53.063 0.002 o
1 0 6 204.377 223.219 5.669 0.195 o
1 0 8 69.737 72.763 2.196 1.381 o
1 0 10 668.341 656.413 19.890 0.017 o
1 0 12 6.697 5.978 0.479 34.535 o
1 0 14 82.733 78.811 2.665 0.956 o
1 0 16 11.522 13.034 0.709 15.420 o
1 0 18 82.602 84.729 2.455 1.082 o
1 0 20 85.236 88.401 2.914 0.808 o
1 0 22 3.590 4.112 0.629 20.719 o
1 1 0 1571.690 1530.470 34.810 0.005 o
1 1 1 39.459 37.624 1.158 4.888 o
1 1 2 423.913 431.138 11.237 0.049 o
1 1 3 797.695 800.302 24.630 0.011 o
1 1 4 64.447 68.092 1.826 1.906 o
1 1 5 123.118 113.291 3.313 0.577 o
1 1 6 206.782 215.844 5.130 0.226 o
1 1 7 16.899 17.704 0.479 27.739 o
1 1 8 94.995 90.158 2.724 0.875 o
1 1 9 184.690 183.908 4.571 0.287 o
1 1 10 69.273 69.789 1.647 2.157 o
1 1 12 1.813 1.866 0.130 469.000 o
1 1 13 7.019 6.647 0.269 98.766 o
1 1 14 121.964 123.860 2.994 0.664 o
1 1 15 3.983 3.663 0.180 231.008 o
1 1 16 22.654 24.251 0.649 15.145 o
1 1 17 3.595 3.663 0.230 148.217 o
1 1 18 3.852 4.331 0.369 58.955 o
1 1 19 10.441 11.537 0.449 36.105 o
1 1 20 4.911 5.249 0.329 72.247 o
1 1 21 8.662 9.650 0.459 35.989 o
1 1 22 2.904 2.645 0.299 90.277 o
1 2 0 320.687 310.961 7.275 0.108 o
1 2 1 271.211 262.529 6.078 0.154 o
1 2 3 354.910 354.004 9.670 0.067 o
1 2 4 19.741 18.892 0.659 15.835 o
1 2 5 86.050 89.230 2.265 1.199 o
1 2 6 159.612 157.112 3.922 0.389 o
1 2 7 80.587 77.962 1.906 1.618 o
1 2 8 5.408 5.649 0.240 128.347 o
1 2 9 7.283 7.156 0.279 91.532 o
1 2 10 4.778 4.381 0.220 155.224 o
1 2 11 8.121 8.353 0.319 70.252 o
1 2 12 14.113 15.598 0.479 29.612 o
1 2 13 26.212 26.287 0.858 9.217 o
1 2 14 6.475 5.698 0.259 108.271 o
1 2 15 0.734 0.649 0.190 228.948 o
1 2 16 5.312 5.659 0.599 22.602 o
1 2 17 3.804 3.683 0.559 26.165 o
1 2 19 5.167 5.968 0.689 17.168 o
1 2 21 2.448 1.697 0.409 48.998 o
1 3 0 18.348 18.842 0.479 26.741 o
1 3 1 30.981 31.137 0.798 9.598 o
1 3 2 46.483 46.396 1.148 4.545 o
1 3 4 7.966 8.203 0.259 100.326 o
1 3 5 22.216 21.556 0.549 19.981 o
1 3 6 43.359 44.370 1.078 5.149 o
1 3 7 18.009 18.632 0.609 18.457 o
1 3 8 25.146 24.610 0.918 8.364 o
1 3 9 10.134 9.521 0.569 23.839 o
1 3 10 0.696 0.808 0.210 187.485 o
1 3 11 15.411 14.650 0.868 10.233 o
1 3 12 33.598 29.570 1.218 4.792 o
1 3 13 28.057 28.233 2.036 1.908 o
1 4 0 17.497 18.573 0.519 24.067 o
1 4 1 0.419 0.549 0.070 1675.150 o
1 4 2 55.339 56.825 1.527 2.705 o
1 4 3 14.475 14.630 0.439 34.170 o
1 4 4 2.994 3.024 0.150 337.090 o
1 4 5 50.792 50.767 1.387 3.275 o
1 4 6 7.972 8.333 0.309 74.483 o
1 4 7 1.272 1.437 0.200 205.188 o
1 4 8 58.667 56.147 1.627 2.414 o
1 4 9 12.102 12.076 0.529 26.331 o
1 4 12 1.500 1.776 0.499 33.088 o
1 5 0 4.352 4.132 0.180 226.205 o
1 5 2 12.172 12.844 0.379 46.034 o
1 5 3 0.603 0.679 0.090 1012.190 o
1 5 4 90.782 93.411 2.245 1.182 o
1 5 5 4.107 4.142 0.230 145.868 o
1 5 7 0.917 0.928 0.230 156.158 o
1 5 8 8.019 8.473 0.469 35.072 o
1 5 10 2.213 1.936 0.559 26.352 o
1 5 12 22.045 21.526 1.307 4.538 o
1 6 0 6.257 6.267 0.259 108.087 o
1 6 1 5.987 5.698 0.249 117.500 o
1 6 2 2.790 2.824 0.200 198.246 o
1 6 4 5.185 5.160 0.240 129.902 o
1 6 5 11.684 11.587 0.459 34.099 o
1 6 6 3.910 3.782 0.289 94.677 o
1 6 8 12.347 12.774 0.539 25.290 o
1 6 9 11.683 10.878 1.048 7.320 o
1 6 10 6.266 5.609 0.858 11.084 o
2 0 0 19.418 22.914 0.828 10.530 o
2 0 2 3671.930 3722.240 92.034 0.001 o
2 0 4 4.592 8.872 0.489 33.364 o
2 0 6 3.085 4.231 0.609 22.117 o
2 0 8 96.545 103.710 2.515 0.961 o
2 0 10 31.258 34.530 0.928 7.482 o
2 0 12 74.880 77.892 1.986 1.565 o
2 0 14 95.068 88.291 3.064 0.726 o
2 0 16 34.609 35.997 1.208 4.738 o
2 0 18 4.797 4.321 0.569 25.133 o
2 0 20 16.524 16.427 0.968 8.257 o
2 1 0 369.055 369.573 8.553 0.079 o
2 1 1 67.100 66.675 1.786 1.953 o
2 1 2 3.050 2.515 0.170 269.059 o
2 1 3 455.923 455.629 10.768 0.050 o
2 1 4 9.259 9.351 0.339 61.120 o
2 1 5 16.784 20.389 0.579 20.145 o
2 1 6 419.311 409.772 12.405 0.043 o
2 1 7 30.253 28.353 0.798 9.825 o
2 1 8 45.465 45.328 1.188 4.374 o
2 1 9 179.409 173.859 4.321 0.318 o
2 1 10 40.651 41.696 1.118 5.040 o
2 1 11 1.759 1.597 0.160 315.559 o
2 1 12 23.018 24.002 0.619 16.223 o
2 1 13 114.311 115.586 2.834 0.745 o
2 1 14 3.060 3.194 0.170 266.265 o
2 1 15 4.997 5.399 0.259 112.473 o
2 1 17 4.035 4.221 0.459 38.475 o
2 1 18 20.238 21.008 1.417 3.922 o
2 1 19 31.215 32.464 0.978 6.950 o
2 1 20 25.173 23.792 1.457 3.647 o
2 1 21 8.886 9.012 0.469 34.631 o
2 2 0 513.518 509.300 11.956 0.041 o
2 2 1 1.770 1.836 0.150 356.674 o
2 2 2 3.020 2.954 0.180 240.407 o
2 2 3 16.786 17.185 0.509 25.384 o
2 2 4 1.051 1.098 0.120 565.423 o
2 2 5 152.110 154.278 3.742 0.425 o
2 2 6 9.756 10.050 0.359 54.487 o
2 2 7 56.329 55.648 1.916 1.877 o
2 2 8 54.700 53.013 1.567 2.635 o
2 2 9 74.291 72.972 1.786 1.854 o
2 2 10 74.803 73.901 2.106 1.444 o
2 2 11 30.999 30.658 0.828 9.105 o
2 2 12 0.389 0.399 0.110 683.228 o
2 2 13 34.131 32.953 0.948 7.104 o
2 2 14 1.643 1.557 0.289 97.886 o
2 2 15 12.279 12.165 0.798 12.287 o
2 2 16 12.523 12.684 0.838 11.169 o
2 2 17 44.042 45.079 1.567 2.837 o
2 2 18 1.928 2.515 0.289 97.377 o
2 2 20 1.589 1.567 0.419 46.850 o
2 3 0 11.944 12.744 0.349 52.758 o
2 3 1 29.040 29.441 0.709 11.812 o
2 3 2 90.442 88.551 2.026 1.383 o
2 3 3 4.721 4.571 0.180 221.278 o
2 3 4 211.667 213.019 5.110 0.226 o
2 3 5 7.618 8.054 0.269 95.404 o
2 3 6 2.219 1.647 0.210 184.026 o
2 3 7 28.867 28.622 1.008 6.837 o
2 3 8 1.686 1.437 0.180 251.279 o
2 3 9 1.368 1.247 0.170 282.892 o
2 3 10 2.510 2.455 0.319 79.847 o
2 3 12 3.747 4.142 0.619 21.376 o
2 4 0 12.634 13.114 0.409 40.221 o
2 4 2 1.969 1.816 0.110 639.999 o
2 4 3 53.961 56.446 1.337 3.325 o
2 4 4 53.938 53.282 1.317 3.436 o
2 4 5 18.349 18.692 0.768 12.336 o
2 4 6 3.353 3.273 0.240 137.796 o
2 4 7 18.284 18.562 0.739 13.243 o
2 4 8 5.265 4.750 0.349 64.510 o
2 4 9 6.787 5.689 0.729 15.284 o
2 4 10 1.721 1.697 0.499 33.076 o
2 4 12 34.231 34.710 1.527 3.170 o
2 5 0 11.601 12.116 0.359 51.240 o
2 5 1 3.934 3.902 0.190 208.968 o
2 5 2 1.841 2.106 0.140 405.158 o
2 5 3 1.264 1.397 0.120 560.321 o
2 5 4 2.791 2.395 0.210 181.261 o
2 5 5 1.289 1.238 0.130 479.949 o
2 5 6 1.810 1.457 0.469 37.422 o
2 5 8 70.875 72.084 2.744 0.948 o
2 5 9 5.333 6.068 0.808 12.500 o
2 5 10 3.672 3.303 0.679 17.819 o
2 6 0 0.818 1.048 0.130 485.283 o
2 6 1 0.598 0.439 0.120 573.050 o
2 6 2 7.016 7.365 0.289 86.437 o
2 6 3 13.118 13.054 0.419 38.338 o
2 6 4 6.989 6.806 0.329 69.062 o
2 6 7 5.756 4.880 0.319 75.832 o
2 6 8 0.703 0.669 0.210 187.544 o
3 0 0 394.634 411.059 15.189 0.031 o
3 0 2 182.145 196.672 4.950 0.253 o
3 0 4 17.994 21.327 0.828 10.716 o
3 0 6 580.354 581.175 14.101 0.030 o
3 0 8 12.543 10.629 0.419 39.607 o
3 0 10 1.212 1.088 0.170 283.776 o
3 0 12 265.906 269.455 7.784 0.107 o
3 0 14 3.524 3.772 0.299 89.133 o
3 0 16 10.972 11.068 0.758 13.688 o
3 0 18 8.744 8.952 0.748 14.282 o
3 0 20 35.663 34.361 1.397 3.688 o
3 1 0 106.862 113.111 2.914 0.735 o
3 1 1 439.995 442.186 10.858 0.051 o
3 1 2 434.916 449.920 11.217 0.048 o
3 1 3 38.162 42.315 1.128 5.054 o
3 1 4 12.050 12.036 0.419 39.459 o
3 1 5 4.992 5.080 0.190 197.604 o
3 1 6 4.668 4.631 0.180 221.468 o
3 1 7 28.120 28.243 0.719 11.799 o
3 1 8 35.585 36.396 0.898 7.478 o
3 1 9 1.778 1.477 0.110 650.106 o
3 1 10 82.399 83.302 2.076 1.401 o
3 1 11 13.138 13.253 0.389 43.082 o
3 1 12 10.729 11.257 0.349 55.224 o
3 1 13 34.670 34.620 0.888 7.740 o
3 1 14 0.712 0.758 0.130 487.077 o
3 1 15 2.931 2.665 0.329 74.848 o
3 1 16 56.265 54.789 4.720 0.359 o
3 1 17 1.224 1.427 0.200 205.298 o
3 1 18 2.821 2.715 0.259 119.469 o
3 1 19 6.367 7.146 0.399 48.714 o
3 2 0 1.639 2.016 0.130 470.474 o
3 2 1 8.028 7.704 0.249 107.567 o
3 2 2 275.233 275.014 6.617 0.135 o
3 2 3 103.511 98.251 2.575 0.915 o
3 2 4 89.589 90.208 2.655 0.926 o
3 2 5 62.003 62.124 2.345 1.292 o
3 2 6 42.393 43.662 1.317 3.824 o
3 2 7 3.832 3.752 0.200 191.198 o
3 2 8 101.799 95.637 2.375 1.039 o
3 2 9 2.271 1.946 0.150 351.529 o
3 2 10 11.046 11.107 0.479 32.030 o
3 2 11 9.028 9.152 0.339 61.546 o
3 2 12 20.967 19.810 0.739 12.834 o
3 2 13 2.719 2.685 0.259 119.640 o
3 2 14 7.924 7.565 1.068 7.154 o
3 2 16 1.939 1.447 0.349 67.284 o
3 2 17 6.005 6.028 0.559 25.750 o
3 2 18 19.913 18.532 0.888 9.421 o
3 2 19 13.996 13.592 0.808 11.832 o
3 3 0 69.285 69.569 1.617 2.215 o
3 3 1 2.368 2.345 0.120 528.297 o
3 3 2 19.934 21.197 0.539 21.375 o
3 3 3 95.675 95.986 2.585 0.938 o
3 3 4 106.208 105.616 2.455 0.957 o
3 3 6 19.931 19.411 1.297 4.656 o
3 3 7 2.290 1.846 0.210 183.576 o
3 3 8 113.289 110.876 4.760 0.323 o
3 3 9 34.216 33.063 1.098 5.617 o
3 4 0 6.320 6.647 0.230 132.649 o
3 4 2 2.268 2.126 0.120 533.341 o
3 4 3 17.827 18.842 0.499 25.379 o
3 4 4 38.188 37.045 0.988 6.318 o
3 4 7 53.725 49.839 2.595 1.121 o
3 4 12 1.737 1.916 0.559 26.377 o
3 5 0 17.261 17.335 0.529 23.666 o
3 5 1 8.778 8.982 0.349 58.935 o
3 5 2 3.041 3.134 0.170 266.660 o
3 5 5 1.800 1.926 0.259 121.242 o
3 5 6 15.510 15.988 0.529 24.533 o
3 5 7 4.705 4.790 0.309 81.844 o
3 5 8 1.531 1.587 0.200 204.435 o
3 6 1 1.037 0.689 0.140 418.827 o
3 6 2 1.210 1.477 0.249 131.837 o
3 6 3 0.556 0.409 0.140 421.750 o
3 6 4 1.050 1.397 0.210 186.680 o
3 6 5 3.268 3.044 0.379 56.493 o
3 6 7 14.639 14.311 0.838 10.987 o
4 0 0 45.766 45.558 2.096 1.694 o
4 0 4 36.769 36.546 1.587 2.918 o
4 0 6 12.796 12.375 0.449 34.587 o
4 0 8 1.406 0.589 0.190 227.798 o
4 0 10 4.371 4.132 0.279 100.284 o
4 0 12 2.662 2.545 0.220 165.833 o
4 0 16 45.637 43.901 1.497 3.046 o
4 1 0 2.172 2.255 0.150 350.968 o
4 1 1 150.757 156.913 3.802 0.416 o
4 1 2 187.409 185.854 4.401 0.301 o
4 1 3 206.217 204.846 5.419 0.211 o
4 1 4 2.933 2.924 0.160 300.465 o
4 1 5 91.159 86.365 2.255 1.189 o
4 1 6 37.739 39.201 0.978 6.378 o
4 1 7 8.511 7.724 0.329 66.483 o
4 1 8 27.209 27.983 0.748 11.237 o
4 1 9 20.110 20.748 0.629 16.822 o
4 1 10 0.303 0.269 0.080 1291.570 o
4 1 11 122.551 119.898 2.944 0.683 o
4 1 12 10.770 10.968 0.359 52.847 o
4 1 13 6.104 5.828 0.349 63.341 o
4 1 14 2.213 2.455 0.289 97.178 o
4 1 15 9.029 8.633 0.379 50.931 o
4 1 16 3.470 3.114 0.319 78.959 o
4 1 17 8.017 7.515 0.389 49.822 o
4 1 19 1.447 0.968 0.230 155.606 o
4 2 0 116.183 116.485 2.695 0.795 o
4 2 1 74.900 72.493 1.697 1.990 o
4 2 2 284.279 288.147 6.836 0.126 o
4 2 3 53.849 52.424 1.357 3.301 o
4 2 4 16.101 15.569 0.479 28.656 o
4 2 5 0.439 0.499 0.100 825.108 o
4 2 6 7.133 6.866 0.259 104.779 o
4 2 7 150.621 147.322 4.411 0.335 o
4 2 8 0.613 0.639 0.100 821.774 o
4 2 9 13.729 14.251 0.439 34.760 o
4 2 10 39.253 40.239 1.048 5.653 o
4 2 11 1.315 1.028 0.160 319.575 o
4 2 12 97.946 98.930 2.425 1.017 o
4 2 13 25.583 26.876 0.958 7.685 o
4 2 14 10.708 10.030 0.649 18.506 o
4 2 15 24.899 24.570 0.988 7.384 o
4 2 16 2.512 1.886 0.419 46.678 o
4 2 17 4.909 4.221 0.559 26.017 o
4 2 18 4.880 5.030 0.609 21.950 o
4 3 0 5.444 5.738 0.220 149.289 o
4 3 1 36.334 36.027 0.998 6.353 o
4 3 2 0.897 0.818 0.080 1260.820 o
4 3 3 1.439 1.397 0.110 659.526 o
4 3 4 49.165 48.821 1.247 3.908 o
4 3 5 3.558 3.473 0.210 176.429 o
4 3 6 103.883 102.912 2.555 0.917 o
4 3 8 53.084 49.789 1.497 2.881 o
4 3 9 5.899 6.297 0.319 74.795 o
4 3 10 9.801 9.790 0.549 25.527 o
4 3 13 12.635 13.433 0.689 16.107 o
4 3 16 21.105 21.616 0.928 8.547 o
4 3 17 2.810 2.655 0.469 37.237 o
4 4 0 65.360 67.294 1.946 1.722 o
4 4 1 0.521 0.499 0.090 1015.960 o
4 4 2 0.561 0.529 0.090 1014.820 o
4 4 3 2.713 2.784 0.190 219.113 o
4 4 4 1.468 1.327 0.130 477.357 o
4 4 5 19.918 19.451 1.527 3.410 o
4 4 6 13.571 13.592 0.689 15.977 o
4 4 7 39.540 39.301 1.118 5.130 o
4 4 8 20.526 19.800 0.798 11.271 o
4 4 10 1.457 1.447 0.339 71.422 o
4 5 1 1.893 1.766 0.160 314.115 o
4 5 2 0.839 0.898 0.130 485.696 o
4 5 3 3.770 3.832 0.240 136.060 o
4 5 4 22.285 22.584 0.748 12.212 o
4 5 5 1.911 1.727 0.419 46.793 o
4 5 6 9.497 9.341 0.569 23.989 o
4 5 8 2.064 1.537 0.269 112.460 o
4 5 10 14.742 13.762 0.569 22.217 o
4 5 11 7.105 7.056 0.419 44.085 o
4 6 0 0.959 0.778 0.140 419.022 o
4 6 1 3.652 3.433 0.230 148.388 o
4 6 5 2.782 2.365 0.758 14.315 o
5 0 0 60.371 65.198 3.313 0.696 o
5 0 2 663.209 692.061 17.724 0.020 o
5 0 4 12.181 11.686 0.509 28.235 o
5 0 6 6.142 5.758 0.319 74.827 o
5 0 8 141.712 141.594 3.712 0.448 o
5 0 10 67.601 68.611 1.866 1.814 o
5 0 12 16.659 15.778 0.868 10.122 o
5 0 14 14.704 14.770 0.888 9.841 o
5 0 16 14.993 13.123 0.898 9.664 o
5 1 0 0.438 0.499 0.080 1285.750 o
5 1 1 101.984 101.545 2.515 0.946 o
5 1 2 56.297 58.063 1.557 2.603 o
5 1 3 1.738 1.786 0.130 470.701 o
5 1 4 37.704 38.712 1.148 4.998 o
5 1 5 1.271 1.238 0.120 561.418 o
5 1 6 80.077 79.888 1.926 1.591 o
5 1 7 4.854 4.830 0.220 153.949 o
5 1 8 1.570 1.367 0.140 412.006 o
5 1 9 1.753 1.846 0.210 184.915 o
5 1 10 0.733 0.659 0.120 571.176 o
5 1 11 27.432 27.095 1.307 4.388 o
5 1 12 53.323 51.975 1.357 3.317 o
5 1 13 15.437 15.459 0.739 13.749 o
5 1 15 16.217 16.666 0.609 19.089 o
5 1 18 5.569 4.361 0.369 57.940 o
5 2 0 23.657 24.151 0.609 16.451 o
5 2 1 24.998 25.239 0.639 14.918 o
5 2 2 3.364 3.373 0.170 262.925 o
5 2 3 24.372 23.453 0.659 14.541 o
5 2 4 60.557 59.410 1.497 2.682 o
5 2 5 14.714 14.860 0.449 32.752 o
5 2 6 46.882 47.145 1.198 4.246 o
5 2 7 3.884 3.683 0.230 147.309 o
5 2 8 13.643 13.672 0.509 27.326 o
5 2 9 10.048 10.070 0.359 54.156 o
5 2 10 38.701 37.953 1.168 4.841 o
5 2 11 10.022 10.788 0.689 16.561 o
5 2 12 20.782 21.377 0.938 8.410 o
5 2 14 5.819 5.020 0.579 24.134 o
5 2 16 11.359 11.058 0.798 12.385 o
5 2 17 22.668 22.275 1.088 6.348 o
5 3 0 120.892 118.900 3.273 0.587 o
5 3 1 25.664 26.616 0.808 10.198 o
5 3 2 5.467 5.469 0.240 128.454 o
5 3 3 4.812 4.331 0.269 106.396 o
5 3 4 3.815 3.703 0.220 160.324 o
5 3 5 39.955 40.099 1.128 5.029 o
5 3 6 88.477 89.120 2.545 0.995 o
5 3 7 4.448 4.631 0.309 82.236 o
5 3 8 3.100 3.243 0.449 40.485 o
5 3 10 37.486 36.865 1.168 4.901 o
5 3 11 21.017 20.529 0.898 9.101 o
5 3 13 4.182 3.303 0.519 30.270 o
5 3 14 28.288 27.754 1.108 5.857 o
5 3 16 31.339 29.351 1.168 5.223 o
5 4 0 9.075 8.962 0.349 58.603 o
5 4 1 4.586 4.930 0.230 142.869 o
5 4 3 1.065 1.537 0.379 57.283 o
5 4 4 25.160 28.442 1.068 6.353 o
5 4 5 18.736 18.552 0.878 9.692 o
5 4 6 8.742 8.992 0.649 18.819 o
5 4 7 18.514 19.421 0.898 9.292 o
5 4 9 7.197 7.225 0.629 20.274 o
5 4 10 15.361 13.253 0.778 12.594 o
5 4 11 2.425 2.625 0.459 38.919 o
5 5 0 4.993 4.800 0.249 121.671 o
5 5 2 4.554 5.140 0.828 11.945 o
5 5 3 1.160 1.347 0.439 42.751 o
5 5 4 3.428 3.413 0.559 26.212 o
5 5 6 6.098 6.467 0.649 19.216 o
5 5 8 7.276 7.016 0.669 17.989 o
5 6 0 6.409 7.086 0.399 48.707 o
5 6 1 4.381 4.321 0.339 69.084 o
5 6 2 4.146 4.361 0.339 69.249 o
5 6 3 2.170 1.966 0.289 97.401 o
5 6 4 1.728 1.487 0.339 71.337 o
5 6 5 7.358 8.423 0.968 8.685 o
6 0 0 223.646 244.925 7.714 0.115 o
6 0 2 28.624 29.410 0.848 9.047 o
6 0 4 1.421 1.707 0.200 204.556 o
6 0 6 41.215 41.985 1.437 3.352 o
6 0 8 15.474 14.760 0.559 22.558 o
6 0 10 32.290 32.764 1.238 4.652 o
6 0 12 88.229 84.589 2.635 0.950 o
6 0 14 3.200 3.503 0.599 22.871 o
6 0 16 2.047 2.345 0.549 27.313 o
6 1 0 0.505 0.409 0.100 824.863 o
6 1 1 179.471 190.595 5.579 0.212 o
6 1 2 59.170 61.236 1.746 2.129 o
6 1 3 21.987 22.265 0.709 13.429 o
6 1 4 54.065 56.496 1.677 2.354 o
6 1 5 57.589 59.051 1.607 2.456 o
6 1 6 20.420 20.339 0.579 19.146 o
6 1 7 11.935 11.407 0.379 46.966 o
6 1 8 40.719 40.638 1.058 5.496 o
6 1 9 32.491 31.856 0.888 8.017 o
6 1 11 30.623 29.251 1.786 2.428 o
6 1 12 0.704 0.739 0.180 254.975 o
6 1 13 13.242 11.676 0.928 9.187 o
6 1 15 1.704 1.727 0.509 31.795 o
6 1 16 24.457 23.103 1.168 5.517 o
6 2 1 9.348 9.840 0.389 47.891 o
6 2 3 13.680 13.104 0.519 26.517 o
6 2 4 46.511 45.368 1.208 4.233 o
6 2 5 94.312 93.571 2.555 0.963 o
6 2 6 2.229 1.816 0.259 120.838 o
6 2 7 1.179 0.958 0.150 363.921 o
6 2 8 5.258 5.219 0.559 25.911 o
6 2 9 33.513 32.045 1.178 5.038 o
6 2 10 1.316 1.267 0.409 49.210 o
6 2 11 5.544 5.649 0.619 21.172 o
6 2 12 3.520 3.223 0.549 27.166 o
6 2 13 6.412 5.659 0.649 19.223 o
6 2 14 31.517 31.975 1.307 4.254 o
6 2 15 14.488 14.331 0.918 9.266 o
6 2 16 7.701 7.445 0.748 14.396 o
6 3 2 0.619 0.599 0.130 488.104 o
6 3 3 0.640 0.629 0.160 322.701 o
6 3 7 5.251 4.790 0.549 26.873 o
6 3 8 6.029 6.657 0.619 21.074 o
6 3 9 2.848 3.194 0.519 30.434 o
6 3 10 30.995 31.436 1.208 4.908 o
6 3 11 1.625 1.337 0.439 42.708 o
6 3 12 1.542 1.447 0.429 44.715 o
6 4 0 16.293 16.986 0.888 9.691 o
6 4 2 25.741 28.512 1.168 5.405 o
6 4 4 6.251 6.597 0.639 19.788 o
6 4 5 13.570 15.279 0.878 10.101 o
6 4 7 1.979 1.916 0.449 40.766 o
6 4 9 7.566 7.425 0.689 16.948 o
6 4 10 18.547 18.283 0.958 8.285 o
6 4 11 1.910 1.417 0.449 40.803 o
6 5 0 26.381 25.598 0.838 9.594 o
6 5 1 3.947 3.882 0.339 69.570 o
6 5 4 14.946 16.058 0.968 8.330 o
6 5 6 44.117 47.554 1.717 2.414 o
6 5 7 2.724 2.964 0.529 29.327 o
6 6 0 11.315 11.936 1.048 7.316 o
7 0 0 102.664 113.740 5.279 0.271 o
7 0 2 34.099 35.778 1.048 6.001 o
7 0 4 262.046 268.817 8.034 0.102 o
7 0 6 1.154 0.848 0.200 205.963 o
7 0 8 41.392 40.199 1.397 3.527 o
7 0 10 57.971 56.556 1.816 2.032 o
7 0 12 17.048 16.756 1.008 7.629 o
7 0 14 10.887 10.639 0.868 10.575 o
7 1 0 80.513 82.513 2.345 1.175 o
7 1 1 1.100 1.238 0.190 227.757 o
7 1 3 7.133 7.545 0.349 61.516 o
7 1 4 33.724 34.261 0.978 6.754 o
7 1 5 38.627 38.822 1.297 4.068 o
7 1 6 1.068 1.168 0.200 205.838 o
7 1 7 1.437 1.337 0.409 49.191 o
7 1 8 45.281 44.021 1.467 3.154 o
7 1 10 3.272 3.293 0.559 26.231 o
7 1 11 14.991 15.409 0.958 8.506 o
7 1 12 14.830 13.772 0.918 9.263 o
7 1 13 13.373 14.630 0.958 8.585 o
7 1 14 22.958 20.349 1.118 6.062 o
7 1 15 20.804 19.910 1.118 6.132 o
7 2 0 34.325 36.197 1.068 5.803 o
7 2 1 10.726 10.349 0.599 21.474 o
7 2 2 6.274 5.968 0.449 39.230 o
7 2 3 4.920 4.411 0.309 81.815 o
7 2 6 5.732 5.788 0.609 21.832 o
7 2 7 3.285 3.104 0.519 30.392 o
7 2 8 7.151 6.876 0.669 18.006 o
7 2 9 18.791 20.668 1.038 7.091 o
7 2 11 10.278 9.042 0.768 13.471 o
7 2 13 3.946 3.922 0.619 21.370 o
7 2 14 5.918 6.008 0.699 16.642 o
7 3 0 0.736 0.569 0.160 322.532 o
7 3 1 26.446 27.534 1.128 5.742 o
7 3 2 22.239 23.293 1.048 6.790 o
7 3 3 15.228 16.137 0.888 9.776 o
7 3 4 13.267 14.820 0.868 10.351 o
7 3 5 0.970 1.287 0.409 49.246 o
7 3 6 6.715 6.557 0.659 18.594 o
7 3 7 3.417 3.463 0.569 25.307 o
7 3 8 11.911 11.936 0.838 11.226 o
7 3 9 9.698 9.301 0.768 13.500 o
7 3 12 3.565 3.313 0.589 23.628 o
7 4 0 9.405 9.491 0.758 13.859 o
7 4 2 1.751 1.487 0.439 42.686 o
7 4 4 2.362 2.744 0.539 28.295 o
7 4 5 19.016 20.838 1.068 6.717 o
7 4 6 29.109 32.325 1.317 4.243 o
7 4 9 9.489 11.327 0.848 11.111 o
7 5 0 13.459 13.782 0.938 8.950 o
7 5 2 12.245 11.577 0.878 10.262 o
7 5 4 2.255 2.685 0.559 26.328 o
8 0 0 26.195 28.163 1.966 2.048 o
8 0 2 15.006 14.770 1.537 3.421 o
8 1 2 2.078 1.856 0.389 54.181 o
8 1 3 81.850 82.473 2.405 1.125 o
8 1 4 32.315 34.141 1.287 4.327 o
8 1 6 4.205 4.152 0.589 23.544 o
8 1 8 18.344 19.481 1.058 6.880 o
8 1 9 9.370 8.662 0.788 12.885 o
8 1 10 18.363 18.403 1.068 6.777 o
8 1 11 5.996 6.277 0.739 14.907 o
8 1 12 3.976 4.022 0.669 18.320 o
8 1 13 9.992 11.407 0.908 9.714 o
8 2 0 39.901 43.502 1.427 3.402 o
8 2 1 20.036 20.179 0.998 7.581 o
8 2 3 4.669 4.720 0.599 22.710 o
8 2 4 13.208 14.940 0.908 9.506 o
8 2 5 7.421 7.365 0.699 16.493 o
8 2 7 34.245 31.227 1.317 4.147 o
8 2 8 4.284 3.992 0.619 21.344 o
8 2 10 14.120 13.623 0.948 8.749 o
8 3 0 16.551 16.806 0.948 8.576 o
8 3 2 9.549 9.092 0.758 13.863 o
8 3 4 10.073 10.419 0.818 11.904 o
8 3 5 16.708 18.113 1.028 7.341 o
8 3 6 13.425 14.091 0.928 9.130 o
8 3 8 3.016 4.092 0.639 20.113 o
8 3 10 2.711 2.774 0.579 24.521 o
8 4 1 2.066 1.727 0.479 35.850 o
8 4 2 13.850 14.082 0.938 8.928 o
8 4 3 2.083 2.794 0.559 26.335 o
8 4 4 2.341 2.784 0.559 26.319 o
8 4 5 2.745 2.385 0.539 28.279 o
8 4 6 3.828 3.573 0.619 21.389 o
8 4 7 4.000 4.002 0.639 20.061 o
9 1 8 1.663 1.497 0.499 33.087 o
9 2 3 5.200 5.030 0.659 18.770 o
9 2 4 34.630 35.518 1.417 3.605 o
9 2 5 2.788 2.695 0.539 28.263 o
9 2 6 2.869 3.104 0.599 22.904 o
9 2 8 2.260 1.746 0.509 31.754 o
9 2 9 14.859 14.740 0.998 7.889 o
9 3 1 6.232 6.796 0.719 15.704 o
9 3 2 2.139 1.717 0.499 33.043 o
9 3 3 13.112 14.431 0.958 8.599 o
9 3 4 6.593 7.016 0.758 14.098 o
9 3 6 15.099 15.858 1.008 7.714 o
9 4 1 1.992 2.744 0.569 25.429 o
9 4 2 12.193 14.171 0.958 8.637 o
;
_olex2_submission_special_instructions 'No special instructions were received'
loop_
_space_group_symop_id
_space_group_symop_operation_xyz
1 x,y,z
2 -x,y+1/2,-z+1/2
3 -x,-y,-z
4 x,-y-1/2,z-1/2
loop_
_atom_site_label
_atom_site_type_symbol
_atom_site_fract_x
_atom_site_fract_y
_atom_site_fract_z
_atom_site_U_iso_or_equiv
_atom_site_adp_type
_atom_site_occupancy
_atom_site_refinement_flags_posn
O1 O 0.43479(4) 0.44421(7) 0.34986(2) 0.01362(5) Uani 1.000000 .
O2 O 0.24257(4) 0.74255(7) 0.463676(19) 0.01327(5) Uani 1.000000 .
C1 C 0.40303(5) 0.55866(8) 0.44794(2) 0.01003(5) Uani 1.000000 .
O3 O 0.12983(4) 0.63112(8) 0.17836(2) 0.01321(5) Uani 1.000000 .
H3a H 0.0119(14) 0.458(2) 0.1511(7) 0.0261(18) Uani 1.000000 .
H3b H 0.1867(12) 0.687(2) 0.1156(7) 0.0228(16) Uani 1.000000 .
H1 H 0.3101(18) 0.522(3) 0.2835(9) 0.035(2) Uani 1.000000 .
loop_
_atom_site_aniso_label
_atom_site_aniso_U_11
_atom_site_aniso_U_22
_atom_site_aniso_U_33
_atom_site_aniso_U_12
_atom_site_aniso_U_13
_atom_site_aniso_U_23
O1 0.01333(12) 0.01848(10) 0.00883(8) 0.00406(8) 0.00225(7) -0.00064(7)
O2 0.01151(11) 0.01809(9) 0.00945(9) 0.00492(7) 0.00101(7) -0.00071(7)
C1 0.00970(13) 0.01143(9) 0.00858(9) 0.00165(8) 0.00145(8) -0.00006(8)
O3 0.01110(12) 0.01782(9) 0.00972(8) -0.00123(7) 0.00057(7) 0.00113(8)
H3a 0.030(5) 0.023(4) 0.025(4) -0.009(4) 0.009(3) 0.006(3)
H3b 0.010(4) 0.033(4) 0.025(4) -0.000(3) 0.004(3) -0.002(4)
H1 0.039(6) 0.030(5) 0.049(6) -0.014(5) 0.037(5) -0.008(5)
loop_
_atom_type_symbol
_atom_type_description
_atom_type_scat_dispersion_real
_atom_type_scat_dispersion_imag
_atom_type_scat_source
_atom_type_scat_dispersion_source
C C 0.00347 0.00161
'Clementi & Roetti, C., At. Data Nucl. Data Tables 1974, 14, (177-478); Clementi & Raimondi, J. Chem. Phys., 1963, 38, (2686-2689)'
'Henke, Gullikson and Davis, At. Data and Nucl. Data Tables, 1993, 54, 2'
H H 0.00000 0.00000
'Clementi & Roetti, C., At. Data Nucl. Data Tables 1974, 14, (177-478); Clementi & Raimondi, J. Chem. Phys., 1963, 38, (2686-2689)'
'Henke, Gullikson and Davis, At. Data and Nucl. Data Tables, 1993, 54, 2'
N N 0.00653 0.00323
'Clementi & Roetti, C., At. Data Nucl. Data Tables 1974, 14, (177-478); Clementi & Raimondi, J. Chem. Phys., 1963, 38, (2686-2689)'
'Henke, Gullikson and Davis, At. Data and Nucl. Data Tables, 1993, 54, 2'
O O 0.01158 0.00611
'Clementi & Roetti, C., At. Data Nucl. Data Tables 1974, 14, (177-478); Clementi & Raimondi, J. Chem. Phys., 1963, 38, (2686-2689)'
'Henke, Gullikson and Davis, At. Data and Nucl. Data Tables, 1993, 54, 2'
loop_
_geom_angle_atom_site_label_1
_geom_angle_atom_site_label_2
_geom_angle_atom_site_label_3
_geom_angle
_geom_angle_site_symmetry_1
_geom_angle_site_symmetry_3
_geom_angle_publ_flag
H1 O1 C1 112.2(5) . . ?
O2 C1 O1 126.96(3) . . ?
C1 C1 O1 112.68(3) 3_666 . ?
C1 C1 O2 120.35(3) 3_666 . ?
H3b O3 H3a 105.5(6) . . ?
loop_
_geom_bond_atom_site_label_1
_geom_bond_atom_site_label_2
_geom_bond_distance
_geom_bond_site_symmetry_2
_geom_bond_publ_flag
O1 C1 1.2868(3) . ?
O1 H1 0.991(13) . ?
O2 C1 1.2220(4) . ?
C1 C1 1.5447(6) 3_666 ?
O3 H3a 0.937(8) . ?
O3 H3b 0.913(8) . ?
loop_
_refln_index_h
_refln_index_k
_refln_index_l
_refln_F_squared_meas
_refln_F_squared_sigma
-10 1 17 13.53 0.96
-10 2 11 11.39 0.87
-10 2 12 4.38 0.64
-10 2 13 9.46 0.81
-10 2 14 13.04 0.93
-10 3 6 8.35 0.97
-10 3 8 5.58 0.89
-10 3 10 6.93 0.4
-9 0 16 19.45 1.09
-9 1 9 16.04 0.92
-9 1 11 5.26 0.6
-9 1 14 14.23 0.65
-9 1 16 1.72 0.27
-9 1 17 33.3 1.16
-9 1 18 5.49 0.75
-9 1 19 2.49 0.28
-9 2 7 9.85 0.77
-9 2 8 50.53 1.5
-9 2 9 1.35 0.18
-9 2 10 4.72 0.29
-9 2 12 3.21 0.3
-9 2 13 28.72 0.91
-9 2 14 4.3 0.54
-9 2 16 9.22 0.45
-9 2 17 7.19 0.51
-9 2 18 12.7 0.57
-9 3 4 19.79 1.28
-9 3 6 0.88 0.14
-9 3 7 18.1 0.63
-9 3 8 5.51 0.35
-9 3 9 1.07 0.19
-9 3 10 4.79 0.32
-9 3 11 0.87 0.19
-9 3 12 37.58 1.17
-9 3 13 5.49 0.35
-9 3 14 5.05 0.5
-9 3 15 1.55 0.27
-9 3 16 2.45 0.28
-9 4 6 7.1 0.41
-9 4 7 0.93 0.17
-9 4 8 3.6 0.39
-9 4 9 1.16 0.18
-9 4 11 4.81 0.3
-9 4 12 5.29 0.48
-8 0 2 3.41 0.88
-8 0 4 3.36 0.89
-8 0 10 6.46 0.59
-8 0 12 2.92 0.5
-8 0 14 44.58 1.37
-8 0 16 11.8 0.52
-8 0 18 2.22 0.33
-8 0 20 40.96 1.56
-8 1 1 29.08 1.49
-8 1 3 20.47 1
-8 1 4 28.37 1.36
-8 1 5 22.81 1.08
-8 1 6 1.37 0.19
-8 1 7 53.73 1.59
-8 1 8 5.94 0.33
-8 1 9 13.93 0.45
-8 1 10 35.28 0.95
-8 1 11 1.52 0.16
-8 1 12 1.61 0.18
-8 1 14 0.53 0.14
-8 1 15 14.93 0.59
-8 1 16 7.78 0.54
-8 1 17 6 0.39
-8 1 18 9.91 0.77
-8 2 1 39.47 1.34
-8 2 3 6.75 1.07
-8 2 4 14.54 0.51
-8 2 5 32.34 0.86
-8 2 6 56.05 1.95
-8 2 7 6.38 0.34
-8 2 8 6.43 0.37
-8 2 9 1.48 0.16
-8 2 10 10.97 0.43
-8 2 11 18.78 0.87
-8 2 12 7.36 0.5
-8 2 13 1.85 0.2
-8 2 14 10.23 0.66
-8 2 16 34.62 1.18
-8 2 17 1.51 0.27
-8 2 18 12.56 0.54
-8 2 19 2.63 0.33
-8 3 2 9.09 0.74
-8 3 3 6.99 0.38
-8 3 5 0.7 0.15
-8 3 6 31.47 0.88
-8 3 7 9.95 0.38
-8 3 8 21.74 0.66
-8 3 9 5.79 0.28
-8 3 10 9.18 0.38
-8 3 11 6.07 0.3
-8 3 12 47.56 1.33
-8 3 13 1.3 0.18
-8 3 14 0.86 0.25
-8 3 16 16.31 0.64
-8 3 17 15.9 0.98
-8 4 1 23.22 1.16
-8 4 2 20.67 1.1
-8 4 3 15.04 1.66
-8 4 4 10.52 0.51
-8 4 5 3.2 0.27
-8 4 6 3.97 0.36
-8 4 7 2.55 0.2
-8 4 8 4.37 0.35
-8 4 11 20.88 0.72
-8 4 12 15.71 0.61
-8 4 13 9.9 0.55
-8 4 15 2.3 0.23
-8 5 1 4.31 0.65
-8 5 7 3.83 0.4
-8 5 8 7.24 0.36
-7 0 2 13.41 0.7
-7 0 4 39.52 2.2
-7 0 6 238.7 6.71
-7 0 10 1.35 0.15
-7 0 12 5.54 0.26
-7 0 14 10.21 0.4
-7 0 16 6.83 0.41
-7 0 18 6.7 0.98
-7 1 1 17.35 0.98
-7 1 2 90.81 3.02
-7 1 3 3.4 0.24
-7 1 5 1.98 0.21
-7 1 6 18.71 0.54
-7 1 7 51.29 1.28
-7 1 9 10.19 0.37
-7 1 10 28.19 1.16
-7 1 11 44.93 1.12
-7 1 12 2.52 0.28
-7 1 13 9.05 0.47
-7 1 14 14.55 0.45
-7 1 15 13.87 0.46
-7 1 16 5.73 0.23
-7 1 17 20.93 1.59
-7 1 19 25.01 0.76
-7 1 20 4.09 0.35
-7 1 21 3.22 0.26
-7 2 2 0.36 0.09
-7 2 3 21.16 0.9
-7 2 4 3.03 0.2
-7 2 5 9.71 0.36
-7 2 6 1.93 0.14
-7 2 7 18.6 0.53
-7 2 8 16.63 0.48
-7 2 9 15.68 0.51
-7 2 10 74.99 1.87
-7 2 11 21.13 0.9
-7 2 12 7.36 0.41
-7 2 13 4.34 0.26
-7 2 14 3.03 0.38
-7 2 15 39.26 1.21
-7 2 16 11.15 0.5
-7 2 17 1.58 0.2
-7 2 18 4.25 0.31
-7 2 20 21.39 0.78
-7 3 1 1.88 0.17
-7 3 2 1.77 0.18
-7 3 3 2.3 0.16
-7 3 4 76.06 2.13
-7 3 5 32.46 1.51
-7 3 6 15.77 0.75
-7 3 9 9.38 0.35
-7 3 10 10.94 0.42
-7 3 12 0.58 0.15
-7 3 13 6.87 0.49
-7 3 14 21.35 0.7
-7 3 15 4.31 0.3
-7 3 16 21.48 0.94
-7 3 18 8.32 0.43
-7 4 1 21.62 0.7
-7 4 2 6.04 0.47
-7 4 3 0.6 0.13
-7 4 4 1.52 0.25
-7 4 5 21 1.19
-7 4 6 4.24 0.4
-7 4 7 3.64 0.26
-7 4 8 24.06 1.27
-7 4 9 5.32 0.32
-7 4 11 13.18 0.7
-7 4 12 3.41 0.3
-7 4 14 3.05 0.3
-7 4 15 11.79 0.7
-7 4 16 8.82 0.39
-7 5 1 4.23 0.58
-7 5 2 19 0.66
-7 5 3 2.88 0.58
-7 5 4 1.6 0.22
-7 5 6 7.14 0.71
-7 5 7 0.65 0.15
-7 5 10 5.04 0.32
-7 5 11 8.13 0.41
-7 5 12 24.18 0.88
-6 0 2 179.86 16.91
-6 0 4 2.75 0.25
-6 0 6 160.29 3.79
-6 0 8 0.93 0.2
-6 0 10 283.36 7.32
-6 0 14 24.69 0.95
-6 0 16 126.65 3.92
-6 0 18 15.15 1.44
-6 0 20 10.24 0.46
-6 0 22 3.63 0.62
-6 1 1 1.31 0.11
-6 1 2 6.34 0.24
-6 1 3 1.38 0.12
-6 1 4 31.35 1.2
-6 1 5 91.5 2.38
-6 1 6 146.75 3.48
-6 1 7 2.68 0.17
-6 1 8 3.06 0.16
-6 1 9 42.77 1.08
-6 1 10 48.26 1.15
-6 1 11 4.07 0.17
-6 1 12 40.79 1.08
-6 1 13 4.75 0.19
-6 1 14 22.14 0.6
-6 1 15 3.43 0.24
-6 1 16 0.46 0.12
-6 1 17 0.82 0.16
-6 1 18 0.71 0.14
-6 1 19 11.24 0.42
-6 1 20 27.16 1.5
-6 1 21 12.69 0.48
-6 1 22 1.3 0.29
-6 2 1 64.76 1.65
-6 2 2 39.6 0.98
-6 2 3 60.1 2.2
-6 2 4 5.23 0.23
-6 2 5 4.42 0.24
-6 2 6 0.87 0.13
-6 2 8 13.33 0.41
-6 2 9 30.78 0.96
-6 2 10 9.11 0.35
-6 2 12 8.75 0.3
-6 2 14 5.8 0.28
-6 2 15 2.64 0.21
-6 2 17 8.41 0.41
-6 2 18 17.22 0.61
-6 2 19 1.85 0.25
-6 2 20 19.21 1.53
-6 2 21 0.97 0.22
-6 3 1 13.16 0.42
-6 3 2 11.47 0.4
-6 3 3 1.22 0.11
-6 3 4 4.45 0.19
-6 3 5 0.63 0.1
-6 3 6 6.29 0.32
-6 3 7 7.65 0.38
-6 3 8 39.08 1.26
-6 3 9 30.96 0.88
-6 3 10 0.49 0.12
-6 3 11 4.41 0.25
-6 3 13 6.53 0.28
-6 3 14 53.5 1.5
-6 3 15 12.23 0.56
-6 3 16 1.68 0.18
-6 3 18 7.53 0.51
-6 3 19 13.68 1
-6 3 20 0.76 0.24
-6 4 1 7.66 0.3
-6 4 3 7.17 0.56
-6 4 4 41.6 1.61
-6 4 5 40.34 1.13
-6 4 6 1.98 0.19
-6 4 8 5.79 0.28
-6 4 10 1.77 0.16
-6 4 11 6.39 0.3
-6 4 12 11.04 0.39
-6 4 13 11.79 0.43
-6 4 14 12.95 0.46
-6 4 15 20.15 0.63
-6 5 2 0.65 0.14
-6 5 3 1.14 0.2
-6 5 4 36.49 1.57
-6 5 6 6.2 0.34
-6 5 7 2.42 0.24
-6 5 8 15.31 0.52
-6 5 9 1.14 0.16
-6 5 10 13.54 0.53
-6 5 14 1.94 0.22
-6 6 1 1.54 0.38
-6 6 2 3.76 0.33
-6 6 4 2.86 0.3
-6 6 5 8.33 1.22
-6 6 6 0.63 0.18
-5 0 2 94.64 2.63
-5 0 4 16.46 0.92
-5 0 6 111.41 2.56
-5 0 8 273.87 8.71
-5 0 10 99.81 2.38
-5 0 12 43.26 1.1
-5 0 14 0.49 0.11
-5 0 18 28.1 1.02
-5 0 20 103.04 3.48
-5 1 1 54.78 1.52
-5 1 2 243 5.7
-5 1 3 50.52 1.2
-5 1 4 91.05 2.59
-5 1 5 29.44 0.78
-5 1 6 3.79 0.18
-5 1 7 0.85 0.09
-5 1 8 17.3 0.46
-5 1 9 261.58 6.13
-5 1 10 25.63 0.66
-5 1 12 24.45 0.61
-5 1 13 8.58 0.34
-5 1 14 25.98 0.65
-5 1 15 40.16 1.02
-5 1 16 55.47 1.41
-5 1 17 15.33 0.8
-5 1 19 40.3 1.09
-5 1 20 0.59 0.14
-5 1 22 1.18 0.19
-5 2 1 9.19 0.3
-5 2 2 0.58 0.09
-5 2 3 4.34 0.2
-5 2 4 28.47 0.73
-5 2 5 175.23 4.14
-5 2 6 80.42 1.95
-5 2 7 21.34 0.57
-5 2 8 1.94 0.14
-5 2 11 38.46 0.97
-5 2 12 23.43 0.69
-5 2 13 70.25 1.73
-5 2 14 0.64 0.12
-5 2 15 11.57 0.91
-5 2 16 3.21 0.19
-5 2 17 7.28 0.37
-5 2 18 4.94 0.41
-5 2 19 9.72 0.44
-5 2 22 9.33 0.47
-5 3 1 19.5 0.54
-5 3 3 6.45 0.23
-5 3 4 11.67 0.34
-5 3 5 3.59 0.19
-5 3 6 4.45 0.23
-5 3 7 15.83 0.58
-5 3 8 2.08 0.19
-5 3 10 6.4 0.27
-5 3 11 0.51 0.09
-5 3 12 0.65 0.13
-5 3 14 0.69 0.12
-5 3 15 2.02 0.23
-5 3 18 11.28 0.62
-5 3 19 5.47 0.88
-5 4 1 3.19 0.18
-5 4 3 23.86 0.83
-5 4 4 24.59 0.66
-5 4 5 13.17 0.41
-5 4 7 0.91 0.13
-5 4 8 24.21 0.73
-5 4 10 24 0.66
-5 4 12 1.61 0.15
-5 4 13 14.13 0.58
-5 4 14 7.36 0.36
-5 4 15 12.68 0.51
-5 4 17 2.03 0.28
-5 4 18 14.08 0.89
-5 5 1 2.25 0.19
-5 5 2 3.88 0.27
-5 5 3 3.25 0.2
-5 5 4 63.89 1.63
-5 5 6 9.27 0.47
-5 5 7 2.09 0.21
-5 5 8 5.23 0.28
-5 5 9 2.23 0.37
-5 5 10 3.31 0.27
-5 5 12 9.99 0.45
-5 5 13 3.59 0.24
-5 5 14 52.55 2.6
-5 6 3 18.65 1.18
-5 6 4 2.41 0.22
-5 6 5 0.86 0.24
-5 6 6 0.7 0.2
-5 6 7 1.3 0.18
-5 6 8 10.8 0.49
-5 6 9 1.7 0.22
-4 0 2 988.93 23.6
-4 0 4 130.91 3.39
-4 0 6 42.9 1.16
-4 0 8 538 12.85
-4 0 10 1.73 0.16
-4 0 12 232.44 5.77
-4 0 14 1.69 0.15
-4 0 16 55.37 2.54
-4 0 18 131.27 5.57
-4 1 1 90.76 2.25
-4 1 2 57.9 1.46
-4 1 3 1.51 0.12
-4 1 4 34.33 0.87
-4 1 6 178.58 4.15
-4 1 7 84.82 2.5
-4 1 8 168.19 3.85
-4 1 9 43.3 1.02
-4 1 11 1.68 0.11
-4 1 12 79.23 1.83
-4 1 13 14.82 0.4
-4 1 14 16.83 0.44
-4 1 16 21.39 0.61
-4 1 17 4.49 0.34
-4 1 18 1 0.13
-4 1 19 50.91 1.32
-4 1 20 11.57 0.51
-4 1 21 1.26 0.29
-4 1 22 21.94 0.97
-4 1 23 9.06 0.48
-4 2 1 51.83 1.24
-4 2 2 12.58 0.36
-4 2 3 78.09 1.82
-4 2 4 63.29 1.75
-4 2 5 6.25 0.23
-4 2 6 5.87 0.24
-4 2 7 6.98 0.27
-4 2 8 80.99 2
-4 2 9 13.35 0.43
-4 2 10 28.67 0.76
-4 2 11 7.57 0.29
-4 2 12 0.73 0.1
-4 2 13 2.89 0.17
-4 2 14 21.33 0.63
-4 2 15 35.27 0.94
-4 2 16 9.6 0.35
-4 2 17 7.49 0.34
-4 2 18 7.5 0.29
-4 2 19 5.09 0.31
-4 2 21 4.19 0.43
-4 2 22 3.49 0.3
-4 3 1 4.77 0.22
-4 3 2 13.3 0.42
-4 3 3 22.95 0.58
-4 3 4 242.96 6.4
-4 3 5 28.91 0.82
-4 3 6 8.57 0.28
-4 3 7 5.56 0.22
-4 3 8 0.3 0.07
-4 3 9 36.72 1.23
-4 3 10 61.36 1.61
-4 3 11 20.49 0.85
-4 3 12 12.39 0.43
-4 3 14 30.54 0.92
-4 3 15 5.57 0.28
-4 3 16 3.42 0.34
-4 3 17 13.6 0.64
-4 3 18 2.54 0.52
-4 3 20 5.65 0.47
-4 4 2 5.25 0.22
-4 4 3 61.97 1.49
-4 4 4 0.79 0.1
-4 4 5 11.66 0.34
-4 4 6 30.55 0.77
-4 4 7 10 0.39
-4 4 8 4.91 0.28
-4 4 9 2.16 0.14
-4 4 10 2.88 0.2
-4 4 13 27.8 0.89
-4 4 14 21.73 0.7
-4 4 16 1.32 0.22
-4 4 17 4.28 0.41
-4 4 18 1.46 0.31
-4 5 2 22.99 0.63
-4 5 3 2.41 0.15
-4 5 6 5.14 0.29
-4 5 8 8.11 0.34
-4 5 10 12.13 0.46
-4 5 11 1.34 0.14
-4 5 12 7.1 0.44
-4 5 14 12.5 0.57
-4 6 2 4.57 0.25
-4 6 3 12.97 0.57
-4 6 4 3.4 0.33
-4 6 5 5.36 0.48
-4 6 6 1.51 0.38
-4 6 7 8.25 0.4
-4 6 8 1.11 0.2
-3 0 2 13.05 0.55
-3 0 4 89.36 2.53
-3 0 6 12.13 0.91
-3 0 8 20.62 0.9
-3 0 10 3.96 0.2
-3 0 12 144.28 3.61
-3 0 14 17.48 0.52
-3 0 16 13.75 0.8
-3 0 18 35.38 1.18
-3 0 20 9.89 0.75
-3 0 22 99.52 3.49
-3 1 1 337.46 7.91
-3 1 2 33.98 0.95
-3 1 3 163.7 4.89
-3 1 4 230.37 5.58
-3 1 5 219.7 5.58
-3 1 7 330.28 11.02
-3 1 8 7.89 0.25
-3 1 9 57.12 1.34
-3 1 10 3.69 0.19
-3 1 11 155.16 3.6
-3 1 12 52.65 1.28
-3 1 13 0.71 0.08
-3 1 14 0.26 0.08
-3 1 16 30.82 0.82
-3 1 17 57.71 1.56
-3 1 18 37.98 1.41
-3 1 20 2.05 0.2
-3 1 21 8.12 0.59
-3 1 22 1.82 0.24
-3 1 23 1.84 0.31
-3 2 1 82.58 1.93
-3 2 2 175.48 4.18
-3 2 3 307.09 7.29
-3 2 4 25.79 0.69
-3 2 5 2.55 0.16
-3 2 6 138.5 3.28
-3 2 7 162.45 4.7
-3 2 8 288.06 7.08
-3 2 9 50.74 1.39
-3 2 10 10.84 0.33
-3 2 11 23.18 0.64
-3 2 12 2.08 0.14
-3 2 13 52.61 1.28
-3 2 14 0.67 0.17
-3 2 15 27.31 0.92
-3 2 16 14.44 0.49
-3 2 17 1.05 0.2
-3 2 18 41.56 1.84
-3 2 20 3.06 0.27
-3 2 21 9.73 0.42
-3 3 1 3.96 0.16
-3 3 2 250.88 6.1
-3 3 3 3.55 0.17
-3 3 4 45.63 1.12
-3 3 5 22.54 0.57
-3 3 7 4.06 0.2
-3 3 8 18.09 0.49
-3 3 9 4.53 0.21
-3 3 10 19.56 0.52
-3 3 11 1.24 0.13
-3 3 12 42.09 1.05
-3 3 13 9.63 0.32
-3 3 14 68.4 2.7
-3 3 15 1.49 0.24
-3 3 17 1.09 0.23
-3 3 18 3.02 0.47
-3 3 19 10.1 0.56
-3 3 20 4.45 0.44
-3 4 1 21.59 0.56
-3 4 2 10.86 0.32
-3 4 3 58.51 1.4
-3 4 4 29.56 0.88
-3 4 5 0.36 0.07
-3 4 6 25.98 0.79
-3 4 7 17.33 0.56
-3 4 8 0.56 0.11
-3 4 9 0.6 0.09
-3 4 10 37.95 1.25
-3 4 11 3.47 0.23
-3 4 12 2.97 0.22
-3 4 13 31.63 0.96
-3 4 14 6.02 0.34
-3 4 16 3.43 0.36
-3 5 2 2.35 0.2
-3 5 3 4.29 0.24
-3 5 4 9.96 0.37
-3 5 5 1.07 0.13
-3 5 6 37.4 0.97
-3 5 7 3.95 0.37
-3 5 8 0.52 0.1
-3 5 9 4.13 0.27
-3 5 10 3.96 0.3
-3 5 11 1.19 0.16
-3 5 12 11.26 2.45
-3 6 1 8.95 0.36
-3 6 2 1.8 0.22
-3 6 4 1.1 0.18
-3 6 5 0.49 0.14
-3 6 7 0.66 0.16
-3 6 9 3.91 0.27
-3 6 10 2.77 0.24
-2 0 2 608.36 16.24
-2 0 4 1877.22 47.73
-2 0 6 166.89 4.02
-2 0 8 452.69 30.23
-2 0 10 180.44 4.63
-2 0 12 16.65 0.51
-2 0 14 54.51 1.37
-2 0 16 10.65 0.39
-2 0 18 4.82 0.53
-2 0 20 18 0.96
-2 0 22 3.85 0.59
-2 1 1 189.6 4.37
-2 1 2 573.51 15.99
-2 1 3 20.89 0.65
-2 1 4 359.78 8.37
-2 1 5 20.85 0.6
-2 1 6 5.42 0.22
-2 1 7 33.48 0.9
-2 1 8 272.8 6.85
-2 1 9 21.84 0.55
-2 1 10 30.39 0.75
-2 1 11 81.68 1.9
-2 1 12 8.9 0.29
-2 1 13 30.76 0.88
-2 1 14 18.68 0.52
-2 1 15 11.72 0.49
-2 1 16 0.98 0.09
-2 1 17 30 0.81
-2 1 18 8.14 0.29
-2 1 19 1.75 0.16
-2 1 21 56.18 2.96
-2 1 22 11.2 0.68
-2 2 1 152.99 3.75
-2 2 2 480.93 11.79
-2 2 3 9.71 0.42
-2 2 4 23.03 0.62
-2 2 5 3.22 0.16
-2 2 6 70.29 1.69
-2 2 7 32.21 0.85
-2 2 8 26.92 0.74
-2 2 9 16.39 0.45
-2 2 10 86.75 2.04
-2 2 11 13.21 0.38
-2 2 12 105.97 2.51
-2 2 13 29.96 0.76
-2 2 14 13.52 0.45
-2 2 15 2.13 0.19
-2 2 16 38.23 1.32
-2 2 17 52.16 1.47
-2 2 18 27.33 0.82
-2 2 19 7.87 0.37
-2 2 20 6.72 0.36
-2 3 1 142.28 3.31
-2 3 2 67.75 1.9
-2 3 3 1.49 0.1
-2 3 4 9.13 0.29
-2 3 5 6.65 0.22
-2 3 6 372.55 8.92
-2 3 7 85.27 2.1
-2 3 8 25.6 0.71
-2 3 9 7.68 0.26
-2 3 10 22.84 0.64
-2 3 11 19.43 0.73
-2 3 12 83.74 2.18
-2 3 13 3.77 0.31
-2 3 14 4.71 0.39
-2 3 15 11.19 0.5
-2 3 16 31.25 1.03
-2 3 17 4.31 0.35
-2 4 1 16.97 0.55
-2 4 2 61.26 1.47
-2 4 3 33.9 0.82
-2 4 4 0.41 0.07
-2 4 5 35.05 1.02
-2 4 6 4.18 0.24
-2 4 7 38.85 1
-2 4 8 0.49 0.09
-2 4 10 23.57 0.81
-2 4 11 18.43 0.6
-2 4 13 11.07 0.97
-2 5 1 0.43 0.1
-2 5 2 16.23 0.5
-2 5 3 3.35 0.17
-2 5 4 3.47 0.25
-2 5 5 4.27 0.26
-2 5 10 2.88 0.36
-2 5 11 0.59 0.19
-2 5 13 4.27 0.78
-2 6 1 0.55 0.12
-2 6 3 14.85 0.47
-2 6 5 9.25 0.35
-2 6 7 3.8 0.38
-2 6 8 1.76 0.19
-2 6 9 2.6 0.22
-2 6 11 6.41 0.51
-1 0 2 752.74 17.3
-1 0 4 847.45 41.49
-1 0 6 191.36 4.92
-1 0 8 499.17 13.18
-1 0 10 3.04 0.25
-1 0 12 104.85 2.86
-1 0 14 46.98 1.19
-1 0 16 22.72 1.74
-1 0 18 64.11 1.75
-1 0 20 44.46 1.46
-1 1 1 2726.26 62.43
-1 1 2 148.93 3.41
-1 1 3 335.53 7.76
-1 1 4 240.03 5.59
-1 1 5 0.85 0.12
-1 1 6 0.56 0.11
-1 1 7 411.05 9.92
-1 1 8 89.14 2.15
-1 1 9 169.3 4.33
-1 1 11 70.81 1.67
-1 1 12 85.22 2.04
-1 1 13 5.45 0.21
-1 1 14 44.73 1.38
-1 1 15 10.55 0.34
-1 1 16 5.87 0.23
-1 1 17 1.49 0.15
-1 1 18 14.74 0.45
-1 1 19 9.11 0.94
-1 1 20 2.78 0.25
-1 1 21 13.17 0.52
-1 1 22 11.79 0.52
-1 1 23 1.3 0.34
-1 2 1 137.75 3.22
-1 2 2 7.89 0.3
-1 2 3 171.01 4.45
-1 2 4 231.83 5.66
-1 2 5 486.56 11.56
-1 2 6 18.11 0.52
-1 2 7 1.35 0.11
-1 2 8 44.17 1.04
-1 2 9 7.63 0.24
-1 2 10 175.78 4.12
-1 2 11 70.25 1.68
-1 2 12 32.98 0.84
-1 2 13 12.27 0.43
-1 2 14 1.18 0.12
-1 2 15 11.8 0.37
-1 2 18 5.49 0.62
-1 2 19 4.03 0.61
-1 2 20 47.51 1.72
-1 3 2 32.53 0.87
-1 3 3 13.96 0.5
-1 3 4 56.2 1.53
-1 3 5 0.83 0.08
-1 3 6 103.61 2.52
-1 3 7 1.57 0.11
-1 3 8 6.35 0.31
-1 3 9 1.11 0.1
-1 3 10 31.41 1.13
-1 3 11 41.48 1.07
-1 4 1 6.27 0.21
-1 4 2 9.78 0.28
-1 4 4 0.39 0.06
-1 4 5 59.91 1.71
-1 4 6 81.95 2.2
-1 4 7 28.82 0.99
-1 4 8 8.2 0.36
-1 4 9 1.2 0.21
-1 4 11 3.3 0.29
-1 4 12 21.75 1.21
-1 5 1 10.75 0.41
-1 5 2 74.96 1.8
-1 5 3 1.21 0.14
-1 5 4 4.8 0.23
-1 5 6 32.75 1.23
-1 5 7 0.97 0.18
-1 5 8 0.85 0.17
-1 5 9 7.81 0.39
-1 5 10 16.01 0.73
-1 5 11 1.13 0.24
-1 5 12 13.66 1.2
-1 6 1 2.31 0.18
-1 6 2 6.64 0.27
-1 6 4 1.46 0.2
-1 6 5 0.74 0.2
-1 6 6 9.75 0.39
-1 6 7 8.94 0.48
-1 6 8 2.24 0.2
0 0 2 141.35 3.56
0 0 4 67.41 1.87
0 0 6 981.08 25.8
0 0 8 294.26 9.05
0 0 10 384.86 10.96
0 0 12 13.73 0.57
0 0 14 55.32 1.56
0 0 16 10.42 0.42
0 0 20 9.41 0.74
0 0 22 15.61 0.95
0 1 1 445.23 10.76
0 1 2 88.14 2.35
0 1 3 18 0.56
0 1 4 1526.44 34.7
0 1 5 70.66 1.78
0 1 6 308.51 7.42
0 1 7 35.19 1.03
0 1 8 26.41 0.76
0 1 9 36 0.91
0 1 10 142.16 3.31
0 1 11 199.93 4.73
0 1 13 25.57 0.67
0 1 14 8.6 0.29
0 1 15 3.49 0.17
0 1 16 3.44 0.15
0 1 17 19.76 0.56
0 1 18 25.59 2.22
0 1 19 47.89 2.95
0 1 20 2.89 0.26
0 1 21 15.11 0.58
0 1 22 3.93 0.33
0 2 0 13.27 0.54
0 2 1 72.8 1.84
0 2 2 130.59 3
0 2 4 184.08 5.36
0 2 5 49.01 1.28
0 2 6 5.46 0.26
0 2 7 135.69 3.33
0 2 8 0.4 0.07
0 2 9 53.26 1.28
0 2 10 24.39 0.67
0 2 11 1.38 0.14
0 2 12 16.04 0.45
0 2 13 10.02 0.38
0 2 14 54.15 1.38
0 2 15 94.72 2.48
0 2 16 2.79 0.48
0 2 18 10.73 0.81
0 2 19 12.18 0.87
0 2 20 24.08 1.2
0 3 1 49.82 1.17
0 3 2 114.05 2.81
0 3 3 85.02 1.96
0 3 4 56.89 1.48
0 3 5 15.64 0.41
0 3 7 1.04 0.11
0 3 8 97.51 2.94
0 3 9 42.35 1.14
0 3 10 1.14 0.16
0 3 11 1.38 0.2
0 3 12 5.82 0.91
0 4 0 2.95 0.2
0 4 1 12.48 0.36
0 4 2 60.5 1.55
0 4 3 3.98 0.18
0 4 4 12.34 0.45
0 4 5 77.08 2.2
0 4 6 6.52 0.25
0 4 8 5.28 0.25
0 4 9 5.79 0.45
0 4 10 16.33 0.62
0 5 2 7.59 0.26
0 5 3 1.18 0.11
0 5 4 25.15 0.66
0 5 5 2.93 0.17
0 5 6 77.56 1.88
0 5 8 6.66 0.41
0 5 11 3.81 0.71
0 5 12 7.87 0.9
0 6 0 17.28 0.61
0 6 1 5.89 0.26
0 6 2 10.18 0.35
0 6 3 3.52 0.23
0 6 4 0.65 0.2
0 6 5 27.71 0.78
0 6 8 0.76 0.23
0 6 10 11.52 1.03
0 7 1 7.67 0.58
1 0 0 366.5 8.57
1 0 2 10.68 0.43
1 0 4 1841.43 53.17
1 0 6 223.67 5.68
1 0 8 72.91 2.2
1 0 10 657.74 19.93
1 0 12 5.99 0.48
1 0 14 78.97 2.67
1 0 16 13.06 0.71
1 0 18 84.9 2.46
1 0 20 88.58 2.92
1 0 22 4.12 0.63
1 1 0 1533.56 34.88
1 1 1 37.7 1.16
1 1 2 432.01 11.26
1 1 3 801.92 24.68
1 1 4 68.23 1.83
1 1 5 113.52 3.32
1 1 6 216.28 5.14
1 1 7 17.74 0.48
1 1 8 90.34 2.73
1 1 9 184.28 4.58
1 1 10 69.93 1.65
1 1 12 1.87 0.13
1 1 13 6.66 0.27
1 1 14 124.11 3
1 1 15 3.67 0.18
1 1 16 24.3 0.65
1 1 17 3.67 0.23
1 1 18 4.34 0.37
1 1 19 11.56 0.45
1 1 20 5.26 0.33
1 1 21 9.67 0.46
1 1 22 2.65 0.3
1 2 0 311.59 7.29
1 2 1 263.06 6.09
1 2 3 354.72 9.69
1 2 4 18.93 0.66
1 2 5 89.41 2.27
1 2 6 157.43 3.93
1 2 7 78.12 1.91
1 2 8 5.66 0.24
1 2 9 7.17 0.28
1 2 10 4.39 0.22
1 2 11 8.37 0.32
1 2 12 15.63 0.48
1 2 13 26.34 0.86
1 2 14 5.71 0.26
1 2 15 0.65 0.19
1 2 16 5.67 0.6
1 2 17 3.69 0.56
1 2 19 5.98 0.69
1 2 21 1.7 0.41
1 3 0 18.88 0.48
1 3 1 31.2 0.8
1 3 2 46.49 1.15
1 3 4 8.22 0.26
1 3 5 21.6 0.55
1 3 6 44.46 1.08
1 3 7 18.67 0.61
1 3 8 24.66 0.92
1 3 9 9.54 0.57
1 3 10 0.81 0.21
1 3 11 14.68 0.87
1 3 12 29.63 1.22
1 3 13 28.29 2.04
1 4 0 18.61 0.52
1 4 1 0.55 0.07
1 4 2 56.94 1.53
1 4 3 14.66 0.44
1 4 4 3.03 0.15
1 4 5 50.87 1.39
1 4 6 8.35 0.31
1 4 7 1.44 0.2
1 4 8 56.26 1.63
1 4 9 12.1 0.53
1 4 12 1.78 0.5
1 5 0 4.14 0.18
1 5 2 12.87 0.38
1 5 3 0.68 0.09
1 5 4 93.6 2.25
1 5 5 4.15 0.23
1 5 7 0.93 0.23
1 5 8 8.49 0.47
1 5 10 1.94 0.56
1 5 12 21.57 1.31
1 6 0 6.28 0.26
1 6 1 5.71 0.25
1 6 2 2.83 0.2
1 6 4 5.17 0.24
1 6 5 11.61 0.46
1 6 6 3.79 0.29
1 6 8 12.8 0.54
1 6 9 10.9 1.05
1 6 10 5.62 0.86
2 0 0 22.96 0.83
2 0 2 3729.76 92.22
2 0 4 8.89 0.49
2 0 6 4.24 0.61
2 0 8 103.92 2.52
2 0 10 34.6 0.93
2 0 12 78.05 1.99
2 0 14 88.47 3.07
2 0 16 36.07 1.21
2 0 18 4.33 0.57
2 0 20 16.46 0.97
2 1 0 370.32 8.57
2 1 1 66.81 1.79
2 1 2 2.52 0.17
2 1 3 456.55 10.79
2 1 4 9.37 0.34
2 1 5 20.43 0.58
2 1 6 410.6 12.43
2 1 7 28.41 0.8
2 1 8 45.42 1.19
2 1 9 174.21 4.33
2 1 10 41.78 1.12
2 1 11 1.6 0.16
2 1 12 24.05 0.62
2 1 13 115.82 2.84
2 1 14 3.2 0.17
2 1 15 5.41 0.26
2 1 17 4.23 0.46
2 1 18 21.05 1.42
2 1 19 32.53 0.98
2 1 20 23.84 1.46
2 1 21 9.03 0.47
2 2 0 510.33 11.98
2 2 1 1.84 0.15
2 2 2 2.96 0.18
2 2 3 17.22 0.51
2 2 4 1.1 0.12
2 2 5 154.59 3.75
2 2 6 10.07 0.36
2 2 7 55.76 1.92
2 2 8 53.12 1.57
2 2 9 73.12 1.79
2 2 10 74.05 2.11
2 2 11 30.72 0.83
2 2 12 0.4 0.11
2 2 13 33.02 0.95
2 2 14 1.56 0.29
2 2 15 12.19 0.8
2 2 16 12.71 0.84
2 2 17 45.17 1.57
2 2 18 2.52 0.29
2 2 20 1.57 0.42
2 3 0 12.77 0.35
2 3 1 29.5 0.71
2 3 2 88.73 2.03
2 3 3 4.58 0.18
2 3 4 213.45 5.12
2 3 5 8.07 0.27
2 3 6 1.65 0.21
2 3 7 28.68 1.01
2 3 8 1.44 0.18
2 3 9 1.25 0.17
2 3 10 2.46 0.32
2 3 12 4.15 0.62
2 4 0 13.14 0.41
2 4 2 1.82 0.11
2 4 3 56.56 1.34
2 4 4 53.39 1.32
2 4 5 18.73 0.77
2 4 6 3.28 0.24
2 4 7 18.6 0.74
2 4 8 4.76 0.35
2 4 9 5.7 0.73
2 4 10 1.7 0.5
2 4 12 34.78 1.53
2 5 0 12.14 0.36
2 5 1 3.91 0.19
2 5 2 2.11 0.14
2 5 3 1.4 0.12
2 5 4 2.4 0.21
2 5 5 1.24 0.13
2 5 6 1.46 0.47
2 5 8 72.23 2.75
2 5 9 6.08 0.81
2 5 10 3.31 0.68
2 6 0 1.05 0.13
2 6 1 0.44 0.12
2 6 2 7.38 0.29
2 6 3 13.08 0.42
2 6 4 6.82 0.33
2 6 7 4.89 0.32
2 6 8 0.67 0.21
3 0 0 411.89 15.22
3 0 2 197.07 4.96
3 0 4 21.37 0.83
3 0 6 582.35 14.13
3 0 8 10.65 0.42
3 0 10 1.09 0.17
3 0 12 270 7.8
3 0 14 3.78 0.3
3 0 16 11.09 0.76
3 0 18 8.97 0.75
3 0 20 34.43 1.4
3 1 0 113.34 2.92
3 1 1 443.08 10.88
3 1 2 450.83 11.24
3 1 3 42.4 1.13
3 1 4 12.06 0.42
3 1 5 5.09 0.19
3 1 6 4.64 0.18
3 1 7 28.3 0.72
3 1 8 36.47 0.9
3 1 9 1.48 0.11
3 1 10 83.47 2.08
3 1 11 13.28 0.39
3 1 12 11.28 0.35
3 1 13 34.69 0.89
3 1 14 0.76 0.13
3 1 15 2.67 0.33
3 1 16 54.9 4.73
3 1 17 1.43 0.2
3 1 18 2.72 0.26
3 1 19 7.16 0.4
3 2 0 2.02 0.13
3 2 1 7.72 0.25
3 2 2 275.57 6.63
3 2 3 98.45 2.58
3 2 4 90.39 2.66
3 2 5 62.25 2.35
3 2 6 43.75 1.32
3 2 7 3.76 0.2
3 2 8 95.83 2.38
3 2 9 1.95 0.15
3 2 10 11.13 0.48
3 2 11 9.17 0.34
3 2 12 19.85 0.74
3 2 13 2.69 0.26
3 2 14 7.58 1.07
3 2 16 1.45 0.35
3 2 17 6.04 0.56
3 2 18 18.57 0.89
3 2 19 13.62 0.81
3 3 0 69.71 1.62
3 3 1 2.35 0.12
3 3 2 21.24 0.54
3 3 3 96.18 2.59
3 3 4 105.83 2.46
3 3 6 19.45 1.3
3 3 7 1.85 0.21
3 3 8 111.1 4.77
3 3 9 33.13 1.1
3 4 0 6.66 0.23
3 4 2 2.13 0.12
3 4 3 18.88 0.5
3 4 4 37.12 0.99
3 4 7 49.94 2.6
3 4 12 1.92 0.56
3 5 0 17.37 0.53
3 5 1 9 0.35
3 5 2 3.14 0.17
3 5 5 1.93 0.26
3 5 6 16.02 0.53
3 5 7 4.8 0.31
3 5 8 1.59 0.2
3 6 1 0.69 0.14
3 6 2 1.48 0.25
3 6 3 0.41 0.14
3 6 4 1.4 0.21
3 6 5 3.05 0.38
3 6 7 14.34 0.84
4 0 0 45.65 2.1
4 0 4 36.62 1.59
4 0 6 12.4 0.45
4 0 8 0.59 0.19
4 0 10 4.14 0.28
4 0 12 2.55 0.22
4 0 16 43.99 1.5
4 1 0 2.26 0.15
4 1 1 157.23 3.81
4 1 2 186.23 4.41
4 1 3 205.26 5.43
4 1 4 2.93 0.16
4 1 5 86.54 2.26
4 1 6 39.28 0.98
4 1 7 7.74 0.33
4 1 8 28.04 0.75
4 1 9 20.79 0.63
4 1 10 0.27 0.08
4 1 11 120.14 2.95
4 1 12 10.99 0.36
4 1 13 5.84 0.35
4 1 14 2.46 0.29
4 1 15 8.65 0.38
4 1 16 3.12 0.32
4 1 17 7.53 0.39
4 1 19 0.97 0.23
4 2 0 116.72 2.7
4 2 1 72.64 1.7
4 2 2 288.73 6.85
4 2 3 52.53 1.36
4 2 4 15.6 0.48
4 2 5 0.5 0.1
4 2 6 6.88 0.26
4 2 7 147.62 4.42
4 2 8 0.64 0.1
4 2 9 14.28 0.44
4 2 10 40.32 1.05
4 2 11 1.03 0.16
4 2 12 99.13 2.43
4 2 13 26.93 0.96
4 2 14 10.05 0.65
4 2 15 24.62 0.99
4 2 16 1.89 0.42
4 2 17 4.23 0.56
4 2 18 5.04 0.61
4 3 0 5.75 0.22
4 3 1 36.1 1
4 3 2 0.82 0.08
4 3 3 1.4 0.11
4 3 4 48.92 1.25
4 3 5 3.48 0.21
4 3 6 103.12 2.56
4 3 8 49.89 1.5
4 3 9 6.31 0.32
4 3 10 9.81 0.55
4 3 13 13.46 0.69
4 3 16 21.66 0.93
4 3 17 2.66 0.47
4 4 0 67.43 1.95
4 4 1 0.5 0.09
4 4 2 0.53 0.09
4 4 3 2.79 0.19
4 4 4 1.33 0.13
4 4 5 19.49 1.53
4 4 6 13.62 0.69
4 4 7 39.38 1.12
4 4 8 19.84 0.8
4 4 10 1.45 0.34
4 5 1 1.77 0.16
4 5 2 0.9 0.13
4 5 3 3.84 0.24
4 5 4 22.63 0.75
4 5 5 1.73 0.42
4 5 6 9.36 0.57
4 5 8 1.54 0.27
4 5 10 13.79 0.57
4 5 11 7.07 0.42
4 6 0 0.78 0.14
4 6 1 3.44 0.23
4 6 5 2.37 0.76
5 0 0 65.33 3.32
5 0 2 693.46 17.76
5 0 4 11.71 0.51
5 0 6 5.77 0.32
5 0 8 141.88 3.72
5 0 10 68.75 1.87
5 0 12 15.81 0.87
5 0 14 14.8 0.89
5 0 16 13.15 0.9
5 1 0 0.5 0.08
5 1 1 101.75 2.52
5 1 2 58.18 1.56
5 1 3 1.79 0.13
5 1 4 38.79 1.15
5 1 5 1.24 0.12
5 1 6 80.05 1.93
5 1 7 4.84 0.22
5 1 8 1.37 0.14
5 1 9 1.85 0.21
5 1 10 0.66 0.12
5 1 11 27.15 1.31
5 1 12 52.08 1.36
5 1 13 15.49 0.74
5 1 15 16.7 0.61
5 1 18 4.37 0.37
5 2 0 24.2 0.61
5 2 1 25.29 0.64
5 2 2 3.38 0.17
5 2 3 23.5 0.66
5 2 4 59.53 1.5
5 2 5 14.89 0.45
5 2 6 47.24 1.2
5 2 7 3.69 0.23
5 2 8 13.7 0.51
5 2 9 10.09 0.36
5 2 10 38.03 1.17
5 2 11 10.81 0.69
5 2 12 21.42 0.94
5 2 14 5.03 0.58
5 2 16 11.08 0.8
5 2 17 22.32 1.09
5 3 0 119.14 3.28
5 3 1 26.67 0.81
5 3 2 5.48 0.24
5 3 3 4.34 0.27
5 3 4 3.71 0.22
5 3 5 40.18 1.13
5 3 6 89.3 2.55
5 3 7 4.64 0.31
5 3 8 3.25 0.45
5 3 10 36.94 1.17
5 3 11 20.57 0.9
5 3 13 3.31 0.52
5 3 14 27.81 1.11
5 3 16 29.41 1.17
5 4 0 8.98 0.35
5 4 1 4.94 0.23
5 4 3 1.54 0.38
5 4 4 28.5 1.07
5 4 5 18.59 0.88
5 4 6 9.01 0.65
5 4 7 19.46 0.9
5 4 9 7.24 0.63
5 4 10 13.28 0.78
5 4 11 2.63 0.46
5 5 0 4.81 0.25
5 5 2 5.15 0.83
5 5 3 1.35 0.44
5 5 4 3.42 0.56
5 5 6 6.48 0.65
5 5 8 7.03 0.67
5 6 0 7.1 0.4
5 6 1 4.33 0.34
5 6 2 4.37 0.34
5 6 3 1.97 0.29
5 6 4 1.49 0.34
5 6 5 8.44 0.97
6 0 0 245.42 7.73
6 0 2 29.47 0.85
6 0 4 1.71 0.2
6 0 6 42.07 1.44
6 0 8 14.79 0.56
6 0 10 32.83 1.24
6 0 12 84.76 2.64
6 0 14 3.51 0.6
6 0 16 2.35 0.55
6 1 0 0.41 0.1
6 1 1 190.98 5.59
6 1 2 61.36 1.75
6 1 3 22.31 0.71
6 1 4 56.61 1.68
6 1 5 59.17 1.61
6 1 6 20.38 0.58
6 1 7 11.43 0.38
6 1 8 40.72 1.06
6 1 9 31.92 0.89
6 1 11 29.31 1.79
6 1 12 0.74 0.18
6 1 13 11.7 0.93
6 1 15 1.73 0.51
6 1 16 23.15 1.17
6 2 1 9.86 0.39
6 2 3 13.13 0.52
6 2 4 45.46 1.21
6 2 5 93.76 2.56
6 2 6 1.82 0.26
6 2 7 0.96 0.15
6 2 8 5.23 0.56
6 2 9 32.11 1.18
6 2 10 1.27 0.41
6 2 11 5.66 0.62
6 2 12 3.23 0.55
6 2 13 5.67 0.65
6 2 14 32.04 1.31
6 2 15 14.36 0.92
6 2 16 7.46 0.75
6 3 2 0.6 0.13
6 3 3 0.63 0.16
6 3 7 4.8 0.55
6 3 8 6.67 0.62
6 3 9 3.2 0.52
6 3 10 31.5 1.21
6 3 11 1.34 0.44
6 3 12 1.45 0.43
6 4 0 17.02 0.89
6 4 2 28.57 1.17
6 4 4 6.61 0.64
6 4 5 15.31 0.88
6 4 7 1.92 0.45
6 4 9 7.44 0.69
6 4 10 18.32 0.96
6 4 11 1.42 0.45
6 5 0 25.65 0.84
6 5 1 3.89 0.34
6 5 4 16.09 0.97
6 5 6 47.65 1.72
6 5 7 2.97 0.53
6 6 0 11.96 1.05
7 0 0 113.97 5.29
7 0 2 35.85 1.05
7 0 4 269.36 8.05
7 0 6 0.85 0.2
7 0 8 40.28 1.4
7 0 10 56.67 1.82
7 0 12 16.79 1.01
7 0 14 10.66 0.87
7 1 0 82.68 2.35
7 1 1 1.24 0.19
7 1 3 7.56 0.35
7 1 4 34.33 0.98
7 1 5 38.9 1.3
7 1 6 1.17 0.2
7 1 7 1.34 0.41
7 1 8 44.11 1.47
7 1 10 3.3 0.56
7 1 11 15.44 0.96
7 1 12 13.8 0.92
7 1 13 14.66 0.96
7 1 14 20.39 1.12
7 1 15 19.95 1.12
7 2 0 36.27 1.07
7 2 1 10.37 0.6
7 2 2 5.98 0.45
7 2 3 4.42 0.31
7 2 6 5.8 0.61
7 2 7 3.11 0.52
7 2 8 6.89 0.67
7 2 9 20.71 1.04
7 2 11 9.06 0.77
7 2 13 3.93 0.62
7 2 14 6.02 0.7
7 3 0 0.57 0.16
7 3 1 27.59 1.13
7 3 2 23.34 1.05
7 3 3 16.17 0.89
7 3 4 14.85 0.87
7 3 5 1.29 0.41
7 3 6 6.57 0.66
7 3 7 3.47 0.57
7 3 8 11.96 0.84
7 3 9 9.32 0.77
7 3 12 3.32 0.59
7 4 0 9.51 0.76
7 4 2 1.49 0.44
7 4 4 2.75 0.54
7 4 5 20.88 1.07
7 4 6 32.39 1.32
7 4 9 11.35 0.85
7 5 0 13.81 0.94
7 5 2 11.6 0.88
7 5 4 2.69 0.56
8 0 0 28.22 1.97
8 0 2 14.8 1.54
8 1 2 1.86 0.39
8 1 3 82.64 2.41
8 1 4 34.21 1.29
8 1 6 4.16 0.59
8 1 8 19.52 1.06
8 1 9 8.68 0.79
8 1 10 18.44 1.07
8 1 11 6.29 0.74
8 1 12 4.03 0.67
8 1 13 11.43 0.91
8 2 0 43.59 1.43
8 2 1 20.22 1
8 2 3 4.73 0.6
8 2 4 14.97 0.91
8 2 5 7.38 0.7
8 2 7 31.29 1.32
8 2 8 4 0.62
8 2 10 13.65 0.95
8 3 0 16.84 0.95
8 3 2 9.11 0.76
8 3 4 10.44 0.82
8 3 5 18.15 1.03
8 3 6 14.12 0.93
8 3 8 4.1 0.64
8 3 10 2.78 0.58
8 4 1 1.73 0.48
8 4 2 14.11 0.94
8 4 3 2.8 0.56
8 4 4 2.79 0.56
8 4 5 2.39 0.54
8 4 6 3.58 0.62
8 4 7 4.01 0.64
9 1 8 1.5 0.5
9 2 3 5.04 0.66
9 2 4 35.59 1.42
9 2 5 2.7 0.54
9 2 6 3.11 0.6
9 2 8 1.75 0.51
9 2 9 14.77 1
9 3 1 6.81 0.72
9 3 2 1.72 0.5
9 3 3 14.46 0.96
9 3 4 7.03 0.76
9 3 6 15.89 1.01
9 4 1 2.75 0.57
9 4 2 14.2 0.96
