#------------------------------------------------------------------------------
#$Date: 2020-04-10 08:18:07 +0300 (Fri, 10 Apr 2020) $
#$Revision: 250620 $
#$URL: file:///home/coder/svn-repositories/cod/cif/2/02/20/2022041.cif $
#------------------------------------------------------------------------------
#
# This file is available in the Crystallography Open Database (COD),
# http://www.crystallography.net/. The original data for this entry
# were provided by IUCr Journals, http://journals.iucr.org/.
#
# The file may be used within the scientific community so long as
# proper attribution is given to the journal article from which the
# data were obtained.
#
data_2022041
loop_
_publ_author_name
'Jha, Kunal Kumar'
'Gruza, Barbara'
'Kumar, Prashant'
'Chodkiewicz, Michal Leszek'
'Dominiak, Paulina Maria'
_publ_section_title
;
 TAAM: a reliable and user friendly tool for hydrogen-atom location using
 routine X-ray diffraction data
;
_journal_issue                   3
_journal_name_full
'Acta Crystallographica Section B Structural Science, Crystal Engineering and Materials'
_journal_paper_doi               10.1107/S2052520620002917
_journal_volume                  76
_journal_year                    2020
_chemical_formula_moiety         'C H O2, H2 O'
_chemical_formula_sum            'C H3 O3'
_chemical_formula_weight         63.03
_space_group_crystal_system      monoclinic
_space_group_IT_number           14
_space_group_name_Hall           '-P 2ybc'
_space_group_name_H-M_alt        'P 1 21/c 1'
_symmetry_Int_Tables_number      14
_audit_creation_date             2019-09-27
_audit_creation_method
;
Olex2 1.2
(compiled 2018.05.29 svn.r3508 for OlexSys, GUI svn.r5506)
;
_cell_angle_alpha                90.00
_cell_angle_beta                 103.948(2)
_cell_angle_gamma                90.00
_cell_formula_units_Z            4
_cell_length_a                   6.0937(4)
_cell_length_b                   3.4929(2)
_cell_length_c                   11.8533(7)
_cell_measurement_temperature    100(1)
_cell_volume                     244.85(3)
_computing_molecular_graphics    'Olex2 (Dolomanov et al., 2009)'
_computing_publication_material  'Olex2 (Dolomanov et al., 2009)'
_computing_structure_refinement  'olex2.refine (Bourhis et al., 2015)'
_diffrn_ambient_temperature      100(1)
_diffrn_measured_fraction_theta_full 0.9514
_diffrn_measured_fraction_theta_max 0.9514
_diffrn_measurement_device_type  'APEX II CCD detector'
_diffrn_radiation_type           'Mo K\a'
_diffrn_radiation_wavelength     0.71073
_diffrn_reflns_av_R_equivalents  0.0000
_diffrn_reflns_av_unetI/netI     0.0266
_diffrn_reflns_limit_h_max       13
_diffrn_reflns_limit_h_min       -14
_diffrn_reflns_limit_k_max       8
_diffrn_reflns_limit_k_min       0
_diffrn_reflns_limit_l_max       27
_diffrn_reflns_limit_l_min       0
_diffrn_reflns_number            2892
_diffrn_reflns_theta_full        26.4835
_diffrn_reflns_theta_max         26.48
_diffrn_reflns_theta_min         3.44
_exptl_absorpt_coefficient_mu    0.181
_exptl_crystal_density_diffrn    1.7097
_exptl_crystal_F_000             132.1419
_refine_diff_density_max         0.1045
_refine_diff_density_min         -0.1085
_refine_diff_density_rms         0.0288
_refine_ls_d_res_high            0.7969
_refine_ls_d_res_low             5.9140
_refine_ls_goodness_of_fit_ref   1.2410
_refine_ls_hydrogen_treatment    refall
_refine_ls_matrix_type           full
_refine_ls_number_constraints    0
_refine_ls_number_parameters     49
_refine_ls_number_reflns         489
_refine_ls_number_restraints     0
_refine_ls_restrained_S_all      1.2410
_refine_ls_R_factor_all          0.0143
_refine_ls_R_factor_gt           0.0143
_refine_ls_shift/su_max          0.0008
_refine_ls_shift/su_mean         0.0002
_refine_ls_structure_factor_coef Fsqd
_refine_ls_weighting_details
'w=1/[\s^2^(Fo^2^)+(0.0083P)^2^+0.0079P] where P=(Fo^2^+2Fc^2^)/3'
_refine_ls_weighting_scheme      calc
_refine_ls_wR_factor_gt          0.0406
_refine_ls_wR_factor_ref         0.0406
_reflns_Friedel_coverage         0.0
_reflns_limit_h_max              7
_reflns_limit_h_min              -7
_reflns_limit_k_max              4
_reflns_limit_k_min              0
_reflns_limit_l_max              14
_reflns_limit_l_min              0
_reflns_number_gt                489
_reflns_number_total             489
_reflns_threshold_expression     I>=2u(I)
_iucr_refine_instructions_details
;
TITL oxa12
CELL 0.71073 6.0937 3.4929 11.8533 90 103.948 90
ZERR 4 0 0 0 0 0 0
LATT 1
SYMM -X,0.5+Y,0.5-Z
SFAC C H O
UNIT 4 12 12

FREE O3 H1
ACTA 
BOND $H
OMIT -10 53
WGHT 0.008336 0.007891
FVAR 1.0174
REM <olex2.extras>
REM <HklSrc "%.\\ebb00b4a9416949e67c9a8b530c378e8.hkl">
REM </olex2.extras>

O1    3     0.43464  0.44433  0.34989  11.00000  0.01311  0.01800  0.00986 =
 -0.00069  0.00268  0.00385 
O2    3     0.24270  0.74231  0.46371  11.00000  0.01122  0.01832  0.00936 =
 -0.00074  0.00076  0.00486 
C1    1     0.40301  0.55863  0.44793  11.00000  0.00930  0.01164  0.00920 =
 0.00025  0.00066  0.00153 
O3    3     0.12986  0.63098  0.17828  11.00000  0.01068  0.01787  0.01004 =
 0.00118  0.00017 -0.00074 
H3a   2     0.01036  0.46089  0.15037  11.00000  0.02450 
H3b   2     0.18904  0.69323  0.11212  11.00000  0.02396 
H1    2     0.30006  0.52420  0.28242  11.00000  0.03471 
HKLF 4

END
Q1 1 0.45 0.333333 0.425 11 0.05 0.1
Q2 1 0.3 0.833333 0.5 11 0.05 0.08
Q3 1 -0.05 0.25 0.175 11 0.05 0.08
Q4 1 0.1 0.916667 0.075 11 0.05 0.08
Q5 1 0.25 0.583333 0.25 11 0.05 0.08
Q6 1 0.3 1.083333 0.4 11 0.05 0.07
Q7 1 0.45 0.75 0.3 11 0.05 0.07
Q8 1 0.35 1.083333 0.15 11 0.05 0.05
Q9 1 -0.2 0.75 0.05 11 0.05 0.05
Q10 1 0 0.583333 0.175 11 0.05 0.05
Q11 1 0.15 0.5 0.375 11 0.05 0.04
Q12 1 0.25 1.083333 0.225 11 0.05 0.03
Q13 1 0 0.5 0 11 0.05 0.03
Q14 1 0.2 0.75 0.15 11 0.05 0.03
Q15 1 0 0.916667 0.175 11 0.05 0.02

  REM The information below was added by Olex2.
  REM
  REM R1 = 0.0143 for 489 Fo > 4sig(Fo) and 0.0143 for all 489 data
  REM 49 parameters refined using 0 restraints
  REM Highest difference peak 0.1045, deepest hole -0.1085
  REM Mean Shift 0.0002, Max Shift 0.0008.

  REM +++ Tabular Listing of Refinement Information +++
  REM R1_all = 0.0143
  REM R1_gt = 0.0143
  REM wR_ref = 0.0406
  REM GOOF = 1.2410
  REM Shift_max = 0.0008
  REM Shift_mean = 0.0002
  REM Reflections_all = 489
  REM Reflections_gt = 489
  REM Parameters = 49
  REM Hole = -0.1085
  REM Peak = 0.1045
  REM Flack = n/a

  
;
_cod_data_source_file            65_TAAM_iso_0.8.cif
_cod_data_source_block           65_TAAM_iso_0.8
_cod_database_code               2022041
_olex2_refinement_description
;
;
_iucr_refine_fcf_details
;
data_oxa12
_computing_structure_refinement   'olex2.refine (Bourhis et al., 2015)'
_shelx_refln_list_code            4
loop_
  _space_group_symop_id
  _space_group_symop_operation_xyz
  1  x,y,z
  2  -x,y+1/2,-z+1/2
  3  -x,-y,-z
  4  x,-y-1/2,z-1/2

_space_group_crystal_system       monoclinic
_space_group_IT_number            14
_space_group_name_H-M_alt         'P 1 21/c 1'
_space_group_name_Hall            '-P 2ybc'
_symmetry_space_group_name_H-M    'P 1 21/c 1'
_symmetry_space_group_name_Hall   '-P 2ybc'
_symmetry_Int_Tables_number       14
_cell_length_a                    6.0937
_cell_length_b                    3.4929
_cell_length_c                    11.8533
_cell_angle_alpha                 90
_cell_angle_beta                  103.948
_cell_angle_gamma                 90
_cell_volume                      244.854844
loop_
  _refln_index_h
  _refln_index_k
  _refln_index_l
  _refln_F_squared_calc
  _refln_F_squared_meas
  _refln_F_squared_sigma
  _refln_F_squared_weight
  _refln_observed_status
-7 0 2 14.266 13.989 0.328 18.967 o
-7 0 4 39.922 38.025 0.927 3.470 o
-7 0 6 250.236 251.057 5.632 0.116 o
-7 0 8 0.305 0.251 0.029 1423.980 o
-7 1 1 18.238 17.786 0.396 13.751 o
-7 1 2 85.059 85.122 1.874 0.946 o
-7 1 3 3.470 3.671 0.097 116.305 o
-7 1 4 0.332 0.415 0.029 1201.270 o
-7 1 5 2.194 2.154 0.058 212.072 o
-7 1 6 18.487 18.626 0.415 12.935 o
-7 1 7 51.263 50.217 1.111 2.441 o
-6 0 2 176.993 185.383 5.681 0.123 o
-6 0 4 3.051 2.879 0.271 45.499 o
-6 0 6 160.257 160.902 5.227 0.146 o
-6 0 10 276.852 282.909 6.144 0.098 o
-6 1 1 1.160 1.217 0.155 133.128 o
-6 1 2 6.710 6.830 0.319 28.042 o
-6 1 3 1.164 1.198 0.174 111.911 o
-6 1 4 32.583 32.364 0.995 3.358 o
-6 1 5 94.066 93.585 2.618 0.540 o
-6 1 6 148.562 150.690 4.270 0.211 o
-6 1 7 2.658 2.637 0.116 127.188 o
-6 1 8 2.823 2.898 0.077 152.777 o
-6 1 9 42.145 42.682 0.947 3.272 o
-6 1 10 48.044 48.990 1.082 2.585 o
-6 1 11 3.840 4.048 0.106 102.597 o
-6 2 1 68.897 68.698 1.517 1.397 o
-6 2 2 38.583 38.586 0.831 4.036 o
-6 2 3 59.813 58.767 1.285 1.874 o
-6 2 4 5.339 5.294 0.174 59.722 o
-6 2 5 4.215 4.135 0.106 97.287 o
-6 2 6 1.169 1.053 0.039 422.014 o
-6 2 7 0.228 0.213 0.019 2076.730 o
-6 2 8 12.891 12.897 0.299 21.837 o
-5 0 2 88.549 89.576 2.270 0.692 o
-5 0 4 18.197 18.443 0.628 7.890 o
-5 0 6 115.688 112.008 3.323 0.345 o
-5 0 8 272.427 282.523 8.028 0.062 o
-5 0 10 96.018 98.232 8.511 0.060 o
-5 0 12 41.002 42.450 1.005 3.043 o
-5 1 1 55.008 55.618 1.420 1.664 o
-5 1 2 249.828 251.086 6.096 0.102 o
-5 1 3 48.636 49.725 1.266 2.057 o
-5 1 4 88.947 93.421 2.589 0.555 o
-5 1 5 30.316 31.755 0.937 3.734 o
-5 1 6 3.816 3.845 0.280 40.407 o
-5 1 7 0.938 0.966 0.174 117.331 o
-5 1 8 16.887 16.230 0.647 7.779 o
-5 1 9 254.181 256.902 6.946 0.081 o
-5 1 10 25.078 24.896 0.560 7.988 o
-5 1 11 0.141 0.184 0.029 2146.710 o
-5 1 12 24.425 23.862 0.541 8.447 o
-5 2 1 9.813 9.188 0.493 13.640 o
-5 2 3 4.542 4.396 0.415 21.165 o
-5 2 4 28.917 27.224 1.208 2.550 o
-5 2 5 170.967 170.573 4.879 0.163 o
-5 2 6 78.807 79.944 2.357 0.670 o
-5 2 7 21.754 21.399 0.802 5.238 o
-5 2 8 1.622 1.807 0.058 263.158 o
-5 2 9 0.169 0.135 0.019 2734.570 o
-5 2 11 39.189 38.373 0.879 3.740 o
-5 3 1 19.039 19.515 0.435 12.108 o
-5 3 2 0.041 0.077 0.019 5589.230 o
-5 3 3 5.890 5.999 0.135 65.668 o
-5 3 4 11.119 11.013 0.251 27.862 o
-5 3 5 3.806 3.565 0.097 111.655 o
-5 3 6 4.542 4.560 0.116 87.317 o
-5 3 7 15.320 15.747 0.357 16.639 o
-4 0 2 957.817 957.915 47.937 0.002 o
-4 0 4 115.062 121.205 4.521 0.199 o
-4 0 6 44.110 41.619 1.642 1.399 o
-4 0 8 558.798 554.448 23.698 0.008 o
-4 0 12 239.341 229.591 5.613 0.119 o
-4 0 14 1.605 1.816 0.068 246.422 o
-4 1 1 90.306 91.923 2.212 0.717 o
-4 1 2 55.806 56.342 1.362 1.762 o
-4 1 3 1.900 1.739 0.164 106.089 o
-4 1 4 33.079 33.446 1.072 2.978 o
-4 1 6 178.001 174.437 4.347 0.197 o
-4 1 7 83.274 83.789 2.309 0.685 o
-4 1 8 171.892 167.858 4.434 0.192 o
-4 1 9 44.514 44.401 1.285 2.072 o
-4 1 11 1.611 1.633 0.232 66.443 o
-4 1 12 77.501 77.596 1.720 1.112 o
-4 1 13 15.277 14.443 0.328 18.325 o
-4 2 1 53.525 50.932 2.145 0.851 o
-4 2 2 13.050 12.694 0.618 8.937 o
-4 2 3 76.207 75.712 2.029 0.866 o
-4 2 4 60.261 61.047 1.681 1.246 o
-4 2 5 5.891 6.096 0.338 27.056 o
-4 2 6 5.298 5.835 0.348 26.660 o
-4 2 7 6.699 7.091 0.367 23.098 o
-4 2 8 77.640 84.117 2.425 0.638 o
-4 2 9 13.070 13.458 0.560 10.303 o
-4 2 10 29.802 29.330 0.657 6.101 o
-4 2 11 7.354 7.400 0.174 48.093 o
-4 2 12 0.651 0.792 0.029 694.595 o
-4 3 1 4.901 5.072 0.213 51.538 o
-4 3 2 13.569 14.279 0.869 5.047 o
-4 3 3 21.971 23.041 2.009 1.043 o
-4 3 4 237.900 235.745 5.333 0.130 o
-4 3 5 26.932 27.688 0.618 6.839 o
-4 3 6 7.965 8.057 0.184 43.786 o
-4 3 7 4.886 5.159 0.126 78.081 o
-4 3 8 0.264 0.280 0.019 1771.340 o
-4 3 9 36.563 36.595 0.802 4.326 o
-3 0 2 14.880 14.298 0.473 12.487 o
-3 0 4 84.969 89.073 4.260 0.229 o
-3 0 6 13.097 15.390 0.696 7.308 o
-3 0 8 21.993 23.573 1.208 2.652 o
-3 0 10 3.583 4.193 0.406 22.672 o
-3 0 12 141.492 144.063 4.869 0.169 o
-3 0 14 18.034 17.341 0.386 14.214 o
-3 1 1 324.869 328.441 7.603 0.065 o
-3 1 2 32.913 34.093 0.985 3.381 o
-3 1 3 153.931 160.767 3.922 0.242 o
-3 1 4 226.938 228.973 6.144 0.103 o
-3 1 5 203.404 209.438 5.014 0.149 o
-3 1 7 335.075 334.537 8.067 0.059 o
-3 1 8 9.136 8.482 0.444 16.213 o
-3 1 9 61.899 60.313 1.652 1.276 o
-3 1 10 2.935 3.575 0.271 44.907 o
-3 1 11 157.496 155.241 4.357 0.202 o
-3 1 12 53.451 49.425 1.198 2.178 o
-3 1 13 0.701 0.792 0.039 607.085 o
-3 1 14 0.407 0.319 0.029 1157.810 o
-3 2 1 82.642 82.746 2.135 0.780 o
-3 2 2 173.145 179.132 5.874 0.117 o
-3 2 3 295.093 299.690 7.912 0.062 o
-3 2 4 27.414 27.418 0.927 3.927 o
-3 2 5 2.677 2.145 0.319 36.393 o
-3 2 6 135.156 138.769 3.768 0.268 o
-3 2 7 163.093 166.612 4.657 0.178 o
-3 2 8 281.967 284.561 8.009 0.062 o
-3 2 9 50.234 50.266 1.633 1.369 o
-3 2 10 10.553 11.400 0.551 11.168 o
-3 2 11 21.179 22.452 0.522 9.331 o
-3 2 12 2.249 2.116 0.068 198.711 o
-3 3 1 3.933 3.546 0.483 16.767 o
-3 3 2 248.530 248.488 7.304 0.074 o
-3 3 3 3.449 5.661 0.580 11.972 o
-3 3 4 44.277 43.687 1.478 1.662 o
-3 3 5 21.209 19.061 0.976 3.878 o
-3 3 6 0.068 0.309 0.048 1264.080 o
-3 3 7 3.840 3.816 0.106 104.162 o
-3 3 8 16.606 17.380 0.386 14.669 o
-3 3 9 4.696 5.478 0.135 74.982 o
-3 3 10 19.022 19.727 0.454 11.546 o
-3 4 1 20.687 20.838 0.464 10.849 o
-3 4 2 10.838 10.753 0.242 29.210 o
-3 4 3 59.088 57.685 1.266 1.925 o
-2 0 2 632.968 617.562 15.061 0.017 o
-2 0 6 171.109 171.915 5.835 0.118 o
-2 0 8 451.900 447.685 10.830 0.033 o
-2 0 10 190.037 183.818 5.265 0.140 o
-2 0 12 15.534 16.240 1.285 2.473 o
-2 0 14 55.533 53.599 1.285 1.933 o
-2 1 1 180.079 189.469 5.700 0.122 o
-2 1 2 548.832 563.268 12.781 0.023 o
-2 1 3 22.248 22.384 0.937 4.072 o
-2 1 4 352.302 363.607 8.415 0.054 o
-2 1 5 19.914 19.901 0.705 6.499 o
-2 1 6 5.877 4.599 0.425 19.633 o
-2 1 7 34.913 32.209 1.014 3.217 o
-2 1 8 284.185 279.924 7.149 0.075 o
-2 1 9 22.683 22.664 0.783 5.360 o
-2 1 10 31.757 32.113 0.956 3.584 o
-2 1 11 80.983 80.833 2.251 0.719 o
-2 1 12 8.715 9.458 0.454 15.692 o
-2 1 13 31.763 30.519 0.715 5.361 o
-2 1 14 18.163 17.602 0.444 12.252 o
-2 2 1 150.709 147.155 4.000 0.237 o
-2 2 2 470.741 489.536 11.506 0.029 o
-2 2 3 9.428 9.139 0.367 20.668 o
-2 2 4 23.116 23.611 0.705 6.167 o
-2 2 5 3.118 3.478 0.377 26.347 o
-2 2 6 67.976 71.848 2.280 0.729 o
-2 2 7 33.173 34.499 1.053 3.051 o
-2 2 8 29.681 28.471 0.956 3.677 o
-2 2 9 16.767 16.317 0.667 7.454 o
-2 2 10 86.278 90.281 2.811 0.486 o
-2 2 11 13.776 13.120 0.309 20.585 o
-2 2 12 107.025 105.284 2.338 0.625 o
-2 2 13 28.445 29.514 0.657 6.187 o
-2 3 1 139.454 135.523 4.502 0.195 o
-2 3 2 66.789 66.757 2.077 0.861 o
-2 3 3 1.637 1.478 0.232 66.720 o
-2 3 4 8.877 9.207 0.676 8.303 o
-2 3 5 6.401 6.338 0.193 48.975 o
-2 3 6 357.975 339.329 8.076 0.058 o
-2 3 7 78.565 78.929 1.961 0.905 o
-2 3 8 25.937 25.157 0.609 7.162 o
-2 3 9 7.726 7.854 0.184 44.687 o
-2 3 10 20.773 22.008 0.483 10.268 o
-2 4 1 16.199 16.182 0.367 15.787 o
-2 4 2 59.377 59.782 1.343 1.760 o
-2 4 3 32.289 32.934 0.725 5.185 o
-2 4 4 0.429 0.502 0.029 999.444 o
-2 4 5 34.035 34.016 0.744 4.912 o
-1 0 4 864.502 829.619 11.545 0.023 o
-1 0 6 206.887 199.401 4.879 0.157 o
-1 0 8 498.114 494.599 13.177 0.023 o
-1 0 10 3.006 2.860 0.328 33.622 o
-1 0 12 108.710 103.342 3.459 0.326 o
-1 0 14 46.733 46.643 1.169 2.350 o
-1 1 2 141.233 156.245 4.715 0.178 o
-1 1 3 333.632 341.696 9.700 0.042 o
-1 1 4 237.851 255.463 7.613 0.069 o
-1 1 5 1.327 1.111 0.155 130.732 o
-1 1 7 417.700 420.306 12.453 0.026 o
-1 1 8 92.202 90.600 2.647 0.533 o
-1 1 9 169.038 170.920 5.043 0.154 o
-1 1 11 72.237 70.119 1.923 0.960 o
-1 1 12 83.166 86.040 2.666 0.536 o
-1 1 13 5.412 5.169 0.126 74.103 o
-1 1 14 44.938 43.938 1.082 2.669 o
-1 2 1 141.805 137.909 3.729 0.270 o
-1 2 2 8.842 7.014 1.159 3.135 o
-1 2 3 170.856 163.646 4.135 0.217 o
-1 2 4 225.295 224.162 5.671 0.118 o
-1 2 5 481.268 486.870 11.912 0.027 o
-1 2 6 17.652 17.699 0.763 5.961 o
-1 2 7 1.249 1.208 0.174 110.560 o
-1 2 8 46.336 47.116 1.353 1.888 o
-1 2 9 7.881 7.767 0.541 12.352 o
-1 2 10 181.617 183.257 4.560 0.181 o
-1 2 11 69.286 70.341 1.565 1.329 o
-1 2 12 33.049 33.098 0.715 5.227 o
-1 2 13 12.344 12.463 0.299 22.379 o
-1 3 2 30.876 31.253 1.372 2.021 o
-1 3 3 13.493 12.984 0.570 10.020 o
-1 3 4 55.455 52.217 1.227 2.071 o
-1 3 5 0.816 0.783 0.077 358.307 o
-1 3 6 103.430 102.888 2.377 0.615 o
-1 3 7 1.557 1.729 0.097 199.172 o
-1 3 8 6.442 6.376 0.145 59.479 o
-1 3 9 1.040 1.140 0.039 441.403 o
-1 3 10 30.958 31.118 0.696 5.573 o
-1 4 1 6.023 5.980 0.135 64.976 o
-1 4 2 9.690 9.477 0.222 33.654 o
-1 4 4 0.446 0.464 0.029 1002.970 o
-1 4 5 60.038 60.294 1.324 1.789 o
-1 4 6 79.264 81.808 1.807 1.021 o
0 0 2 138.767 140.257 3.980 0.242 o
0 0 4 62.805 70.805 1.787 1.106 o
0 0 6 1018.440 1008.010 15.071 0.014 o
0 0 8 287.110 295.005 13.747 0.022 o
0 0 10 383.643 403.448 9.970 0.039 o
0 0 12 13.825 13.863 0.425 14.620 o
0 0 14 51.030 50.836 1.285 1.984 o
0 1 1 456.631 463.983 9.632 0.040 o
0 1 2 91.789 90.909 2.164 0.740 o
0 1 3 19.326 17.119 0.889 4.614 o
0 1 4 1525.170 1378.720 17.873 0.009 o
0 1 5 63.295 71.085 2.232 0.764 o
0 1 6 300.902 307.883 8.212 0.058 o
0 1 7 36.558 34.422 1.092 2.834 o
0 1 8 27.780 26.558 0.956 3.747 o
0 1 9 36.371 38.238 1.314 2.097 o
0 1 10 143.326 144.942 4.483 0.196 o
0 1 11 198.291 205.265 5.004 0.151 o
0 1 12 0.236 0.193 0.048 1084.750 o
0 1 13 24.420 24.741 0.560 8.069 o
0 1 14 8.266 8.589 0.242 34.287 o
0 2 0 12.686 14.569 1.034 3.738 o
0 2 1 74.641 79.577 2.309 0.699 o
0 2 2 126.415 132.006 3.227 0.353 o
0 2 4 181.848 175.867 5.072 0.151 o
0 2 5 46.945 47.416 1.952 1.023 o
0 2 6 5.425 5.227 0.454 17.698 o
0 2 7 134.346 133.861 4.087 0.233 o
0 2 9 55.554 54.014 1.266 1.973 o
0 2 10 26.520 25.862 0.638 6.694 o
0 2 11 1.284 1.353 0.048 347.333 o
0 2 12 16.087 16.259 0.377 15.419 o
0 3 1 50.048 52.507 1.555 1.477 o
0 3 2 111.245 114.317 3.034 0.404 o
0 3 3 83.401 84.832 2.174 0.754 o
0 3 4 55.118 53.773 1.179 2.185 o
0 3 5 14.831 15.061 0.406 14.889 o
0 3 6 0.129 0.348 0.058 894.126 o
0 3 7 0.893 0.927 0.087 300.429 o
0 3 8 97.269 95.324 2.096 0.763 o
0 3 9 40.688 40.411 0.879 3.670 o
0 3 10 1.413 1.295 0.048 333.252 o
0 4 0 2.858 2.869 0.116 121.145 o
0 4 1 12.202 11.912 0.271 24.780 o
0 4 2 56.479 56.767 1.275 1.931 o
0 4 3 3.716 3.913 0.097 110.355 o
0 4 4 11.774 12.115 0.271 25.072 o
0 4 5 75.415 75.954 1.710 1.131 o
1 0 0 372.213 381.702 6.347 0.084 o
1 0 2 11.173 9.545 0.647 8.679 o
1 0 4 1774.530 1761.110 21.853 0.006 o
1 0 6 212.190 211.284 5.053 0.146 o
1 0 8 69.499 68.757 2.174 0.791 o
1 0 10 663.824 674.291 25.582 0.006 o
1 0 12 5.937 5.806 0.174 55.994 o
1 1 1 38.755 37.977 1.691 1.358 o
1 1 2 428.848 422.731 8.318 0.052 o
1 1 3 791.469 766.852 14.192 0.018 o
1 1 4 63.638 65.800 2.203 0.785 o
1 1 5 119.617 117.515 2.792 0.456 o
1 1 6 205.923 212.346 5.149 0.142 o
1 1 7 17.498 17.786 0.638 7.819 o
1 1 8 93.869 92.194 2.493 0.587 o
1 1 9 180.297 186.581 7.951 0.066 o
1 1 10 68.840 71.075 1.662 1.216 o
1 1 12 1.915 1.913 0.077 207.786 o
1 1 13 6.469 6.540 0.155 56.784 o
1 2 0 317.767 319.012 8.685 0.052 o
1 2 1 268.951 273.017 7.777 0.065 o
1 2 3 352.185 366.196 8.704 0.051 o
1 2 4 19.504 17.940 0.676 7.012 o
1 2 5 86.937 91.005 2.579 0.562 o
1 2 6 157.056 157.511 6.879 0.088 o
1 2 7 78.781 79.509 1.845 0.993 o
1 2 8 5.935 5.758 0.184 53.754 o
1 2 9 7.253 7.323 0.222 40.125 o
1 2 10 4.367 4.570 0.135 81.106 o
1 2 11 8.363 8.212 0.222 37.008 o
1 2 12 13.915 13.912 0.328 19.177 o
1 3 0 18.512 19.312 0.995 3.812 o
1 3 1 30.996 29.485 1.111 2.879 o
1 3 2 46.132 43.242 0.956 3.137 o
1 3 4 7.744 7.874 0.222 38.532 o
1 3 5 21.833 20.742 0.560 8.600 o
1 3 6 43.746 42.160 1.053 2.806 o
1 3 7 18.084 18.375 0.435 12.471 o
1 3 8 24.807 24.365 0.531 8.538 o
1 3 9 9.898 9.690 0.222 33.167 o
1 4 0 17.471 17.660 0.415 13.339 o
1 4 1 0.554 0.599 0.029 828.376 o
1 4 2 54.727 55.202 1.246 2.019 o
1 4 3 14.154 14.462 0.319 19.419 o
1 4 4 2.982 2.898 0.077 148.283 o
1 4 5 50.658 51.386 1.130 2.384 o
2 0 0 21.346 24.114 0.792 5.291 o
2 0 4 5.469 8.134 0.271 35.138 o
2 0 6 3.798 3.748 0.242 49.711 o
2 0 8 93.034 103.256 3.913 0.265 o
2 0 10 31.677 33.514 0.850 4.221 o
2 0 12 73.175 75.838 1.613 1.242 o
2 1 0 366.013 355.492 7.362 0.067 o
2 1 1 65.068 68.341 1.565 1.353 o
2 1 2 3.144 2.734 0.174 81.187 o
2 1 3 448.195 456.641 11.535 0.029 o
2 1 4 9.247 9.139 0.415 17.649 o
2 1 5 18.509 19.940 0.812 5.318 o
2 1 6 416.743 413.041 11.535 0.030 o
2 1 7 30.280 29.611 1.005 3.385 o
2 1 8 45.912 45.938 1.072 2.672 o
2 1 9 176.724 175.490 4.415 0.192 o
2 1 10 42.015 42.402 1.014 2.985 o
2 1 11 1.686 1.691 0.068 245.094 o
2 1 12 23.540 23.466 0.570 8.076 o
2 2 0 515.043 501.187 11.477 0.029 o
2 2 1 1.991 1.990 0.184 89.231 o
2 2 2 3.121 2.927 0.193 71.374 o
2 2 3 17.671 16.530 0.541 9.852 o
2 2 4 1.095 1.014 0.155 136.799 o
2 2 5 151.463 144.131 4.019 0.235 o
2 2 6 9.625 9.989 0.299 25.592 o
2 2 7 55.863 57.154 1.343 1.796 o
2 2 8 54.099 54.091 1.266 1.986 o
2 2 9 74.619 77.191 1.758 1.086 o
2 2 10 73.710 72.698 1.623 1.236 o
2 2 11 30.107 31.243 0.696 5.618 o
2 3 0 12.305 13.351 0.647 8.364 o
2 3 1 28.675 27.707 0.638 6.460 o
2 3 2 88.581 86.764 1.990 0.854 o
2 3 3 4.616 4.357 0.213 53.831 o
2 3 4 211.666 214.356 5.565 0.124 o
2 3 5 7.622 7.478 0.222 39.183 o
2 3 6 2.187 2.270 0.126 131.952 o
2 3 7 28.459 28.500 0.676 6.003 o
2 3 8 1.786 1.710 0.048 269.628 o
2 4 0 12.420 12.685 0.290 22.898 o
2 4 2 1.983 1.961 0.058 230.603 o
2 4 3 53.704 54.072 1.208 2.127 o
3 0 0 386.813 392.522 15.409 0.018 o
3 0 2 178.338 186.474 7.304 0.078 o
3 0 4 19.241 18.771 0.879 4.672 o
3 0 6 579.413 569.857 20.326 0.010 o
3 0 8 11.814 10.299 0.271 25.877 o
3 0 10 1.461 1.140 0.058 312.765 o
3 1 0 105.823 105.729 2.599 0.530 o
3 1 1 435.395 423.968 10.443 0.035 o
3 1 2 438.620 442.749 11.786 0.028 o
3 1 3 39.088 41.233 1.266 2.188 o
3 1 4 11.638 11.081 0.502 12.598 o
3 1 5 4.544 4.879 0.386 23.631 o
3 1 6 4.776 4.753 0.425 20.157 o
3 1 7 27.335 28.335 0.676 6.081 o
3 1 8 35.580 39.127 0.927 3.563 o
3 1 9 1.550 1.362 0.068 269.262 o
3 1 10 81.858 83.200 1.855 0.972 o
3 1 11 13.058 13.071 0.290 22.282 o
3 2 0 1.662 2.164 0.203 79.394 o
3 2 1 7.597 7.381 0.444 16.996 o
3 2 2 271.370 265.278 6.724 0.085 o
3 2 3 103.148 97.546 2.570 0.546 o
3 2 4 90.862 92.068 2.773 0.493 o
3 2 5 62.030 61.144 1.488 1.495 o
3 2 6 42.572 43.561 1.159 2.448 o
3 2 7 3.773 3.613 0.145 86.379 o
3 2 8 101.594 102.029 2.348 0.630 o
3 2 9 2.355 2.241 0.068 190.791 o
3 2 10 11.109 11.004 0.261 27.037 o
3 3 0 70.424 70.901 1.623 1.253 o
3 3 1 2.261 2.077 0.097 163.998 o
3 3 2 19.540 20.211 0.502 10.179 o
3 3 3 96.751 97.044 2.299 0.661 o
3 3 4 106.057 104.086 2.309 0.639 o
3 3 5 0.102 0.135 0.029 2557.700 o
3 3 6 19.343 20.384 0.454 11.410 o
3 3 7 2.172 2.087 0.068 203.281 o
3 4 0 6.194 6.106 0.145 61.322 o
4 0 0 43.587 45.145 1.275 2.101 o
4 0 4 35.709 36.286 2.125 0.906 o
4 0 6 12.259 12.540 0.309 21.766 o
4 0 8 1.130 1.024 0.087 272.257 o
4 0 10 4.279 4.260 0.135 83.196 o
4 1 0 1.965 2.444 0.184 87.305 o
4 1 1 148.610 150.768 3.739 0.265 o
4 1 2 185.909 182.166 4.763 0.167 o
4 1 3 208.461 212.820 7.130 0.080 o
4 1 4 3.005 1.691 0.406 23.914 o
4 1 5 90.891 87.160 2.000 0.842 o
4 1 6 38.429 39.059 0.908 3.594 o
4 1 7 8.438 8.173 0.242 34.344 o
4 1 8 27.450 27.186 0.551 7.760 o
4 1 9 19.427 20.066 0.444 11.687 o
4 2 0 116.224 118.259 3.149 0.376 o
4 2 1 75.334 75.171 2.048 0.855 o
4 2 2 288.522 296.956 7.410 0.070 o
4 2 3 53.341 53.956 1.237 2.061 o
4 2 4 16.174 15.332 0.425 13.695 o
4 2 5 0.485 0.541 0.068 517.413 o
4 2 6 6.879 6.753 0.164 52.662 o
4 2 7 150.492 150.063 3.323 0.321 o
4 2 8 0.585 0.754 0.039 673.306 o
4 3 0 5.927 5.681 0.174 56.295 o
4 3 1 36.549 36.228 0.773 4.536 o
4 3 2 1.064 1.034 0.048 413.264 o
4 3 3 1.338 1.391 0.048 336.838 o
4 3 4 49.008 47.831 1.053 2.675 o
4 3 5 3.595 3.671 0.106 108.712 o
5 0 0 59.268 64.738 2.251 0.763 o
5 0 2 667.523 647.221 19.331 0.011 o
5 0 4 12.110 11.641 0.589 9.816 o
5 0 6 6.475 6.714 0.193 48.158 o
5 0 8 140.997 141.918 3.120 0.362 o
5 1 0 0.489 0.473 0.116 256.576 o
5 1 1 104.300 108.695 2.773 0.477 o
5 1 2 56.359 56.014 1.710 1.236 o
5 1 3 1.813 1.787 0.087 201.266 o
5 1 4 37.973 38.837 0.908 3.609 o
5 1 5 1.224 1.217 0.077 282.002 o
5 1 6 79.790 78.755 1.845 0.992 o
5 1 7 5.122 4.850 0.116 80.739 o
5 1 8 1.559 1.401 0.048 308.267 o
5 2 0 23.828 23.350 0.802 5.103 o
5 2 1 25.201 25.398 0.570 7.795 o
5 2 2 3.675 3.236 0.126 99.644 o
5 2 3 24.237 23.631 0.551 8.316 o
5 2 4 60.839 59.337 1.304 1.824 o
5 2 5 14.983 14.752 0.338 17.917 o
5 2 6 47.682 47.358 1.082 2.602 o
5 3 0 121.008 119.476 2.657 0.492 o
5 3 1 26.689 26.606 0.589 7.302 o
5 3 2 5.897 5.333 0.135 67.563 o
6 0 0 228.529 227.466 6.608 0.090 o
6 0 2 28.949 28.567 0.647 6.295 o
6 0 4 1.540 1.546 0.058 282.436 o
6 0 6 41.936 46.160 1.043 2.839 o
6 1 0 0.537 0.657 0.145 173.301 o
6 1 1 182.966 180.639 4.280 0.201 o
6 1 2 59.299 59.076 1.304 1.838 o
6 1 3 22.293 21.872 0.483 10.023 o
6 1 4 54.889 53.734 1.179 2.188 o
6 1 5 58.294 57.598 1.266 1.932 o
6 2 1 9.787 9.130 0.213 34.892 o
6 2 2 0.082 0.087 0.019 4295.620 o
6 2 3 13.523 13.554 0.299 21.187 o
7 0 0 106.361 108.096 2.241 0.665 o
7 0 2 34.673 34.663 0.744 4.868 o
7 1 0 82.266 81.161 1.797 1.021 o
7 1 1 0.985 1.130 0.039 455.814 o
;
_olex2_submission_special_instructions 'No special instructions were received'
loop_
_space_group_symop_id
_space_group_symop_operation_xyz
1 x,y,z
2 -x,y+1/2,-z+1/2
3 -x,-y,-z
4 x,-y-1/2,z-1/2
loop_
_atom_site_label
_atom_site_type_symbol
_atom_site_fract_x
_atom_site_fract_y
_atom_site_fract_z
_atom_site_U_iso_or_equiv
_atom_site_adp_type
_atom_site_occupancy
_atom_site_refinement_flags_posn
O1 O 0.43464(6) 0.44433(11) 0.34989(3) 0.01367(13) Uani 1.000000 .
O2 O 0.24270(6) 0.74231(11) 0.46371(3) 0.01326(13) Uani 1.000000 .
C1 C 0.40301(7) 0.55863(13) 0.44793(4) 0.01032(14) Uani 1.000000 .
O3 O 0.12986(6) 0.63098(12) 0.17828(3) 0.01326(13) Uani 1.000000 .
H3a H 0.0104(17) 0.461(3) 0.1504(8) 0.025(2) Uiso 1.000000 .
H3b H 0.1890(16) 0.693(3) 0.1121(10) 0.024(2) Uiso 1.000000 .
H1 H 0.300(2) 0.524(4) 0.2824(11) 0.035(3) Uiso 1.000000 .
loop_
_atom_site_aniso_label
_atom_site_aniso_U_11
_atom_site_aniso_U_22
_atom_site_aniso_U_33
_atom_site_aniso_U_12
_atom_site_aniso_U_13
_atom_site_aniso_U_23
O1 0.0131(2) 0.0180(2) 0.0099(2) 0.00385(13) 0.00268(15) -0.00069(12)
O2 0.0112(2) 0.0183(2) 0.0094(2) 0.00486(13) 0.00076(13) -0.00074(13)
C1 0.0093(2) 0.0116(2) 0.0092(3) 0.00153(16) 0.00066(18) 0.00025(15)
O3 0.01068(19) 0.0179(2) 0.0100(2) -0.00074(14) 0.00017(14) 0.00118(13)
loop_
_atom_type_symbol
_atom_type_description
_atom_type_scat_dispersion_real
_atom_type_scat_dispersion_imag
_atom_type_scat_source
_atom_type_scat_dispersion_source
C C 0.00347 0.00161
'Clementi & Roetti, C., At. Data Nucl. Data Tables 1974, 14, (177-478); Clementi & Raimondi, J. Chem. Phys., 1963, 38, (2686-2689)'
'Henke, Gullikson and Davis, At. Data and Nucl. Data Tables, 1993, 54, 2'
H H 0.00000 0.00000
'Clementi & Roetti, C., At. Data Nucl. Data Tables 1974, 14, (177-478); Clementi & Raimondi, J. Chem. Phys., 1963, 38, (2686-2689)'
'Henke, Gullikson and Davis, At. Data and Nucl. Data Tables, 1993, 54, 2'
N N 0.00653 0.00323
'Clementi & Roetti, C., At. Data Nucl. Data Tables 1974, 14, (177-478); Clementi & Raimondi, J. Chem. Phys., 1963, 38, (2686-2689)'
'Henke, Gullikson and Davis, At. Data and Nucl. Data Tables, 1993, 54, 2'
O O 0.01158 0.00611
'Clementi & Roetti, C., At. Data Nucl. Data Tables 1974, 14, (177-478); Clementi & Raimondi, J. Chem. Phys., 1963, 38, (2686-2689)'
'Henke, Gullikson and Davis, At. Data and Nucl. Data Tables, 1993, 54, 2'
loop_
_geom_angle_atom_site_label_1
_geom_angle_atom_site_label_2
_geom_angle_atom_site_label_3
_geom_angle
_geom_angle_site_symmetry_1
_geom_angle_site_symmetry_3
_geom_angle_publ_flag
H1 O1 C1 110.5(7) . . ?
O2 C1 O1 126.97(4) . . ?
C1 C1 O1 112.78(5) 3_666 . ?
C1 C1 O2 120.24(5) 3_666 . ?
H3b O3 H3a 105.5(8) . . ?
loop_
_geom_bond_atom_site_label_1
_geom_bond_atom_site_label_2
_geom_bond_distance
_geom_bond_site_symmetry_2
_geom_bond_publ_flag
O1 C1 1.2864(6) . ?
O1 H1 1.036(12) . ?
O2 C1 1.2202(6) . ?
C1 C1 1.5445(8) 3_666 ?
O3 H3a 0.936(11) . ?
O3 H3b 0.964(12) . ?
loop_
_refln_index_h
_refln_index_k
_refln_index_l
_refln_F_squared_meas
_refln_F_squared_sigma
-14 0 2 15.93 0.45
-14 0 6 2.26 0.1
-14 0 8 0.62 0.07
-14 0 10 1.34 0.12
-14 1 3 0.32 0.06
-14 1 5 0.38 0.04
-14 1 6 4.16 0.13
-14 1 7 7.31 0.18
-14 1 8 0.76 0.06
-14 1 9 0.25 0.04
-14 1 10 0.46 0.05
-13 0 6 34.7 1.14
-13 0 8 3.58 0.15
-13 0 10 0.37 0.07
-13 0 12 12.28 0.29
-13 0 14 1.61 0.08
-13 0 16 9.76 0.73
-13 1 1 2.81 0.15
-13 1 2 14.61 0.34
-13 1 3 0.25 0.06
-13 1 4 1.28 0.06
-13 1 5 10.42 0.25
-13 1 7 0.17 0.04
-13 1 8 3.89 0.11
-13 1 10 3.41 0.14
-13 1 12 3.31 0.11
-13 1 13 0.6 0.06
-13 1 15 1.66 0.07
-13 1 16 4.4 0.12
-13 2 1 4.64 0.13
-13 2 3 0.98 0.1
-13 2 4 0.9 0.05
-13 2 5 1.25 0.08
-13 2 6 0.47 0.04
-13 2 8 2.28 0.08
-13 2 9 1.47 0.08
-13 2 10 4.23 0.11
-13 2 12 1.18 0.07
-13 2 13 0.84 0.04
-13 2 14 3.16 0.09
-13 3 1 1.56 0.11
-13 3 2 0.45 0.05
-13 3 4 4.68 0.12
-13 3 5 2.33 0.08
-13 3 6 4.33 0.12
-13 3 7 2.41 0.09
-13 3 9 2.07 0.14
-13 3 10 4.34 0.14
-12 0 2 8.68 0.32
-12 0 4 42.55 0.94
-12 0 6 5.7 0.2
-12 0 10 2.51 0.18
-12 0 12 8.75 0.22
-12 0 14 5.67 0.16
-12 0 16 17.61 0.81
-12 0 18 0.63 0.07
-12 0 20 2.83 0.25
-12 1 1 1.88 0.08
-12 1 2 1 0.06
-12 1 4 0.14 0.04
-12 1 5 19.75 0.45
-12 1 6 4.38 0.2
-12 1 7 1.58 0.07
-12 1 8 12.49 0.29
-12 1 9 11.55 0.27
-12 1 10 2.86 0.09
-12 1 11 0.99 0.05
-12 1 12 7.03 0.17
-12 1 13 0.76 0.04
-12 1 14 0.18 0.04
-12 1 15 13.92 0.32
-12 1 16 1.75 0.07
-12 1 17 0.77 0.05
-12 1 19 1.54 0.07
-12 2 1 13.45 0.31
-12 2 2 5.43 0.14
-12 2 5 8.38 0.2
-12 2 6 0.3 0.04
-12 2 7 3.4 0.1
-12 2 8 4.61 0.12
-12 2 9 4.32 0.11
-12 2 11 8.8 0.21
-12 2 12 1.19 0.07
-12 2 13 5.15 0.15
-12 2 14 0.39 0.04
-12 2 16 0.25 0.04
-12 2 17 0.33 0.04
-12 2 18 5.43 0.2
-12 3 1 1.56 0.06
-12 3 2 0.47 0.04
-12 3 3 3.47 0.1
-12 3 4 0.18 0.04
-12 3 6 0.92 0.05
-12 3 7 1.32 0.07
-12 3 11 1.63 0.08
-12 3 12 0.48 0.04
-12 3 13 0.42 0.04
-12 3 14 3.9 0.15
-12 3 15 0.23 0.04
-12 3 16 1.67 0.07
-12 4 1 0.55 0.04
-12 4 2 1.14 0.06
-12 4 3 2.06 0.08
-12 4 4 1.68 0.06
-12 4 5 2.29 0.1
-12 4 6 5.71 0.21
-12 4 7 0.24 0.06
-12 4 8 0.52 0.05
-12 4 9 1.42 0.06
-12 4 11 1.5 0.1
-11 0 2 3.81 0.15
-11 0 4 9.75 0.28
-11 0 6 0.52 0.06
-11 0 8 87.71 1.97
-11 0 10 8.03 0.21
-11 0 12 2.59 0.11
-11 0 14 35.51 0.92
-11 0 16 1.42 0.09
-11 0 18 12.33 0.41
-11 0 20 1.88 0.09
-11 0 22 7.78 0.34
-11 1 1 0.2 0.03
-11 1 2 5.83 0.15
-11 1 3 14.11 0.34
-11 1 4 36.61 0.94
-11 1 5 2.13 0.07
-11 1 6 0.18 0.04
-11 1 7 1.5 0.07
-11 1 8 1.43 0.09
-11 1 9 6.26 0.16
-11 1 10 3.83 0.11
-11 1 11 4.22 0.13
-11 1 12 13.6 0.32
-11 1 13 0.49 0.04
-11 1 14 6.27 0.16
-11 1 15 6.05 0.17
-11 1 16 2.41 0.09
-11 1 17 0.2 0.04
-11 1 18 9.46 0.27
-11 1 19 11.1 0.26
-11 1 20 0.52 0.05
-11 2 1 2.84 0.09
-11 2 2 0.33 0.04
-11 2 3 1.33 0.06
-11 2 4 11.24 0.26
-11 2 5 2.13 0.11
-11 2 6 6.14 0.16
-11 2 7 8.15 0.2
-11 2 10 1.11 0.05
-11 2 11 2.13 0.08
-11 2 12 2.67 0.09
-11 2 13 0.58 0.04
-11 2 14 1.43 0.06
-11 2 15 10.17 0.24
-11 2 16 0.21 0.04
-11 2 17 0.7 0.05
-11 2 18 2.32 0.1
-11 2 19 0.78 0.06
-11 2 20 0.49 0.04
-11 2 21 3.68 0.13
-11 3 1 1.05 0.05
-11 3 2 3.25 0.1
-11 3 3 0.36 0.04
-11 3 4 4.47 0.13
-11 3 5 6.61 0.17
-11 3 6 2.96 0.09
-11 3 7 3.59 0.1
-11 3 9 1.33 0.05
-11 3 10 12.36 0.28
-11 3 11 4.29 0.12
-11 3 12 1 0.05
-11 3 13 2.65 0.08
-11 3 14 0.42 0.05
-11 3 16 3.79 0.12
-11 3 17 4.61 0.16
-11 4 1 1.46 0.06
-11 4 2 2.96 0.11
-11 4 3 5.63 0.16
-11 4 5 0.13 0.04
-11 4 6 6.94 0.2
-11 4 7 0.38 0.05
-11 4 9 2.56 0.1
-11 4 10 3.66 0.1
-11 4 12 3.17 0.09
-11 4 13 5.9 0.16
-11 4 15 0.59 0.04
-11 4 16 0.61 0.05
-11 5 1 0.32 0.08
-11 5 2 6.43 0.17
-11 5 4 3.48 0.11
-11 5 5 0.53 0.06
-11 5 6 3.65 0.1
-11 5 8 1.17 0.05
-10 0 4 8.45 0.21
-10 0 6 12.45 0.33
-10 0 8 17.72 0.4
-10 0 10 12.16 0.29
-10 0 12 11.86 0.28
-10 0 14 0.8 0.06
-10 0 16 3.13 0.14
-10 0 18 62.19 1.44
-10 0 20 1.9 0.16
-10 0 22 1.41 0.11
-10 1 1 3.46 0.1
-10 1 2 0.53 0.04
-10 1 3 2.29 0.07
-10 1 4 0.82 0.05
-10 1 5 9.7 0.23
-10 1 6 0.1 0.03
-10 1 7 47.65 1.06
-10 1 8 20.33 0.46
-10 1 9 9.82 0.23
-10 1 10 6.4 0.16
-10 1 11 2.02 0.08
-10 1 12 3.91 0.11
-10 1 13 11.66 0.27
-10 1 14 18 0.41
-10 1 16 0.87 0.05
-10 1 17 15.02 0.36
-10 1 18 2.31 0.08
-10 1 19 1.96 0.08
-10 1 21 0.47 0.06
-10 1 22 11.6 0.3
-10 1 23 0.45 0.06
-10 2 1 0.52 0.04
-10 2 2 11.3 0.27
-10 2 3 49.49 1.1
-10 2 4 28.53 0.63
-10 2 7 1.3 0.06
-10 2 8 9.26 0.22
-10 2 9 13.42 0.31
-10 2 10 0.78 0.04
-10 2 11 12 0.28
-10 2 12 5.14 0.13
-10 2 13 11.58 0.3
-10 2 14 13.7 0.32
-10 2 16 0.69 0.05
-10 2 17 3.73 0.11
-10 2 18 0.49 0.08
-10 2 20 0.36 0.04
-10 2 21 1.2 0.06
-10 3 1 2.74 0.09
-10 3 2 8.25 0.21
-10 3 3 3.79 0.11
-10 3 4 10.52 0.26
-10 3 6 11.09 0.26
-10 3 7 0.55 0.04
-10 3 8 6.1 0.16
-10 3 9 1.03 0.05
-10 3 10 7.86 0.19
-10 3 13 0.24 0.04
-10 3 14 7.99 0.19
-10 3 15 2.77 0.1
-10 3 16 0.14 0.04
-10 3 17 1.47 0.08
-10 3 18 0.41 0.04
-10 3 19 0.91 0.05
-10 3 20 6.94 0.25
-10 3 21 2.93 0.12
-10 4 2 10.93 0.25
-10 4 3 6.67 0.18
-10 4 4 0.28 0.04
-10 4 5 1.07 0.06
-10 4 6 3.54 0.11
-10 4 8 3.1 0.09
-10 4 9 3.1 0.11
-10 4 10 7.47 0.18
-10 4 13 7.92 0.22
-10 4 14 0.15 0.04
-10 4 16 10.79 0.25
-10 4 17 0.88 0.06
-10 5 2 7.2 0.21
-10 5 3 0.16 0.05
-10 5 4 2.23 0.07
-10 5 5 2.91 0.09
-10 5 6 6.29 0.16
-10 5 8 0.27 0.04
-10 5 10 0.69 0.06
-10 5 11 1.16 0.06
-10 5 12 14.92 0.34
-10 5 14 0.69 0.05
-9 0 2 4.11 0.11
-9 0 4 56.9 1.3
-9 0 6 24.81 0.56
-9 0 8 4.37 0.12
-9 0 10 53.47 1.19
-9 0 12 0.16 0.04
-9 0 14 1.98 0.1
-9 0 16 21.63 0.5
-9 0 18 0.37 0.06
-9 0 20 1.02 0.07
-9 0 22 6.83 0.19
-9 1 1 0.51 0.03
-9 1 2 1.41 0.05
-9 1 3 0.12 0.02
-9 1 4 10.57 0.27
-9 1 5 3.12 0.09
-9 1 6 22.46 0.5
-9 1 7 17.5 0.4
-9 1 8 4.87 0.12
-9 1 9 17.24 0.41
-9 1 10 1.17 0.06
-9 1 11 6.61 0.16
-9 1 12 0.11 0.03
-9 1 13 0.29 0.05
-9 1 14 13.68 0.32
-9 1 15 0.53 0.04
-9 1 16 2.56 0.09
-9 1 17 35.5 0.84
-9 1 18 6.62 0.17
-9 1 19 2.75 0.09
-9 1 20 4.4 0.14
-9 1 21 7.01 0.18
-9 1 23 2.13 0.1
-9 1 24 0.66 0.17
-9 2 1 4.96 0.13
-9 2 3 0.68 0.04
-9 2 4 0.4 0.03
-9 2 5 6 0.15
-9 2 6 34.54 0.78
-9 2 7 9.98 0.23
-9 2 8 56.05 1.27
-9 2 9 1.29 0.06
-9 2 10 5.48 0.14
-9 2 12 3.1 0.09
-9 2 13 31.26 0.69
-9 2 14 4.85 0.13
-9 2 15 0.48 0.04
-9 2 16 9.82 0.24
-9 2 17 8.25 0.22
-9 2 18 14.56 0.35
-9 2 19 3.85 0.12
-9 2 20 0.41 0.05
-9 2 21 7.03 0.27
-9 2 22 2.74 0.13
-9 2 23 7.49 0.53
-9 3 1 2.9 0.09
-9 3 2 86.18 1.93
-9 3 3 13.27 0.3
-9 3 4 21.67 0.48
-9 3 6 1.1 0.05
-9 3 7 20.56 0.46
-9 3 8 6.68 0.17
-9 3 9 1.73 0.06
-9 3 10 5.18 0.14
-9 3 11 1.19 0.05
-9 3 12 42.05 0.94
-9 3 13 6.87 0.19
-9 3 14 6.16 0.16
-9 3 15 2.95 0.09
-9 3 16 3.02 0.09
-9 3 17 0.15 0.04
-9 3 18 2.84 0.09
-9 3 21 0.73 0.06
-9 3 22 2.34 0.11
-9 4 1 12.24 0.3
-9 4 2 3.85 0.11
-9 4 3 21.74 0.49
-9 4 4 0.29 0.03
-9 4 6 8.26 0.2
-9 4 7 0.9 0.05
-9 4 8 4.35 0.12
-9 4 9 1.79 0.08
-9 4 10 0.64 0.04
-9 4 11 5.89 0.15
-9 4 12 6.29 0.16
-9 4 13 7.55 0.18
-9 4 14 0.28 0.04
-9 4 18 0.27 0.04
-9 4 19 0.62 0.05
-9 4 20 5.87 0.17
-9 5 1 1.5 0.07
-9 5 4 0.16 0.03
-9 5 6 0.88 0.04
-9 5 8 0.54 0.04
-9 5 9 3.66 0.11
-9 5 10 0.97 0.06
-9 5 12 3.2 0.09
-9 5 13 0.24 0.03
-9 5 14 0.21 0.04
-9 5 15 2.19 0.11
-9 5 16 8.96 0.22
-9 6 1 1.71 0.11
-9 6 2 0.22 0.04
-9 6 3 4.36 0.15
-9 6 4 0.27 0.04
-9 6 5 3.75 0.11
-9 6 6 0.89 0.05
-9 6 8 0.28 0.04
-9 6 9 0.27 0.04
-9 6 10 0.91 0.05
-9 6 11 8.46 0.36
-8 0 2 3.54 0.11
-8 0 4 4.57 0.12
-8 0 8 49.47 1.09
-8 0 10 6.55 0.16
-8 0 12 3.25 0.11
-8 0 14 43.56 0.96
-8 0 16 11.88 0.29
-8 0 18 2.35 0.1
-8 0 20 41.35 0.95
-8 0 22 0.26 0.07
-8 1 1 29.69 0.68
-8 1 3 19.31 0.46
-8 1 4 29.82 0.67
-8 1 5 22.81 0.5
-8 1 6 1.69 0.06
-8 1 7 56.07 1.24
-8 1 8 5.93 0.14
-8 1 9 13.73 0.32
-8 1 10 36.2 0.8
-8 1 11 1.66 0.06
-8 1 12 1.85 0.07
-8 1 14 0.57 0.04
-8 1 15 16.14 0.41
-8 1 16 8.76 0.22
-8 1 17 7.06 0.18
-8 1 18 10.31 0.25
-8 1 20 1.05 0.06
-8 1 21 4.25 0.13
-8 1 23 1.06 0.15
-8 1 24 8.98 0.36
-8 2 1 40.44 0.9
-8 2 2 16.68 0.37
-8 2 3 7.09 0.17
-8 2 4 15.95 0.36
-8 2 5 34.48 0.76
-8 2 6 57.77 1.32
-8 2 7 6.5 0.16
-8 2 8 6.83 0.18
-8 2 9 1.4 0.06
-8 2 10 11.34 0.26
-8 2 11 20.25 0.46
-8 2 12 8.01 0.2
-8 2 13 2.02 0.07
-8 2 14 11.4 0.3
-8 2 15 0.19 0.04
-8 2 16 36.83 0.83
-8 2 17 2.06 0.08
-8 2 18 13.57 0.32
-8 2 19 3.71 0.12
-8 2 20 0.39 0.05
-8 2 22 0.21 0.05
-8 2 23 2.78 0.1
-8 3 1 0.22 0.03
-8 3 2 8.65 0.2
-8 3 3 7.23 0.2
-8 3 5 0.87 0.04
-8 3 6 33.9 0.75
-8 3 7 10.5 0.24
-8 3 8 22.28 0.55
-8 3 9 5.42 0.14
-8 3 10 9.99 0.23
-8 3 11 6.26 0.15
-8 3 12 51.09 1.14
-8 3 13 1.58 0.06
-8 3 14 1.36 0.07
-8 3 15 0.46 0.04
-8 3 16 17.26 0.4
-8 3 17 16.89 0.41
-8 3 19 1.13 0.07
-8 3 20 7.79 0.2
-8 3 22 22.99 0.51
-8 3 23 3.02 0.23
-8 4 1 21.89 0.54
-8 4 2 20.48 0.48
-8 4 3 16.36 0.39
-8 4 4 11.51 0.27
-8 4 5 3.12 0.09
-8 4 6 4.86 0.12
-8 4 7 3.11 0.09
-8 4 8 4.48 0.12
-8 4 9 0.11 0.04
-8 4 10 0.35 0.04
-8 4 11 22.56 0.51
-8 4 12 17.31 0.41
-8 4 13 10.98 0.3
-8 4 15 3.12 0.09
-8 4 16 2.78 0.09
-8 4 18 4.94 0.13
-8 4 20 0.27 0.04
-8 4 21 7.26 0.51
-8 5 1 4.86 0.13
-8 5 2 28.1 0.65
-8 5 4 0.11 0.04
-8 5 5 1.41 0.06
-8 5 6 0.54 0.04
-8 5 7 4.9 0.13
-8 5 8 8.19 0.2
-8 5 10 2.45 0.09
-8 5 12 0.89 0.05
-8 5 13 0.17 0.04
-8 5 14 0.59 0.05
-8 5 15 0.71 0.05
-8 6 1 0.35 0.04
-8 6 2 0.63 0.07
-8 6 3 0.44 0.05
-8 6 4 0.71 0.05
-8 6 6 0.5 0.04
-8 6 7 1.2 0.07
-8 6 8 0.52 0.05
-8 6 9 0.39 0.04
-8 6 11 0.77 0.05
-8 6 13 1.68 0.07
-8 6 14 0.43 0.09
-7 0 2 14.48 0.34
-7 0 4 39.36 0.96
-7 0 6 259.87 5.83
-7 0 8 0.26 0.03
-7 0 10 1.39 0.06
-7 0 12 5.63 0.16
-7 0 14 12.8 0.29
-7 0 16 7 0.18
-7 0 18 7.51 0.19
-7 0 20 0.51 0.05
-7 0 22 0.5 0.09
-7 0 24 8.05 0.25
-7 0 26 1.88 0.1
-7 1 1 18.41 0.41
-7 1 2 88.11 1.94
-7 1 3 3.8 0.1
-7 1 4 0.43 0.03
-7 1 5 2.23 0.06
-7 1 6 19.28 0.43
-7 1 7 51.98 1.15
-7 1 9 10.53 0.24
-7 1 10 29.74 0.66
-7 1 11 46.1 1.02
-7 1 12 2.85 0.08
-7 1 13 9.17 0.21
-7 1 14 15.16 0.35
-7 1 15 13.69 0.31
-7 1 16 5.92 0.15
-7 1 17 22.76 0.51
-7 1 18 0.16 0.04
-7 1 19 26.45 0.59
-7 1 20 4.61 0.14
-7 1 21 3.13 0.11
-7 1 22 1.23 0.06
-7 1 23 1.12 0.06
-7 1 24 0.87 0.05
-7 1 25 7.77 0.23
-7 1 26 0.7 0.06
-7 2 2 0.37 0.02
-7 2 3 22.63 0.5
-7 2 4 3.44 0.09
-7 2 5 10.02 0.23
-7 2 6 2.2 0.06
-7 2 7 19.37 0.43
-7 2 8 16.89 0.38
-7 2 9 17.11 0.38
-7 2 10 78.45 1.73
-7 2 11 22.57 0.5
-7 2 12 8 0.19
-7 2 13 4.89 0.13
-7 2 14 3.68 0.11
-7 2 15 41.26 0.92
-7 2 16 12.58 0.32
-7 2 17 2.2 0.08
-7 2 18 4.66 0.12
-7 2 19 0.23 0.04
-7 2 20 23.9 0.54
-7 2 21 12.32 0.29
-7 2 22 4.56 0.16
-7 2 23 3.98 0.12
-7 2 24 4.8 0.18
-7 2 25 2.56 0.13
-7 3 1 2.1 0.06
-7 3 2 1.91 0.06
-7 3 3 2.22 0.06
-7 3 4 77.39 1.73
-7 3 5 34.89 0.8
-7 3 6 16.57 0.37
-7 3 8 0.08 0.03
-7 3 9 9.85 0.23
-7 3 10 11.67 0.27
-7 3 11 0.28 0.03
-7 3 12 0.93 0.04
-7 3 13 7.39 0.18
-7 3 14 22.66 0.54
-7 3 15 4.78 0.13
-7 3 16 22.54 0.51
-7 3 17 0.19 0.04
-7 3 18 9.83 0.24
-7 3 19 0.11 0.04
-7 3 20 2.71 0.09
-7 3 21 2.84 0.1
-7 3 22 2.82 0.09
-7 3 23 0.16 0.05
-7 3 24 2.48 0.09
-7 4 1 22.29 0.5
-7 4 2 7.02 0.17
-7 4 3 0.67 0.04
-7 4 4 2.17 0.07
-7 4 5 23.36 0.52
-7 4 6 4.48 0.12
-7 4 7 4.45 0.12
-7 4 8 26.39 0.62
-7 4 9 5.52 0.15
-7 4 10 0.21 0.03
-7 4 11 14.33 0.33
-7 4 12 3.61 0.1
-7 4 14 3.41 0.12
-7 4 15 12.53 0.32
-7 4 16 9.99 0.25
-7 4 17 3.68 0.1
-7 4 19 0.72 0.04
-7 4 20 0.28 0.04
-7 4 21 7.45 0.19
-7 4 22 9.84 0.24
-7 5 1 3.95 0.14
-7 5 2 20.41 0.46
-7 5 3 3.51 0.1
-7 5 4 1.85 0.07
-7 5 5 0.91 0.05
-7 5 6 8.22 0.2
-7 5 7 0.64 0.04
-7 5 10 5.53 0.15
-7 5 11 9.14 0.22
-7 5 12 25.66 0.58
-7 5 13 0.11 0.03
-7 5 14 1.27 0.07
-7 5 16 0.23 0.04
-7 5 17 2.27 0.1
-7 5 18 4.07 0.11
-7 5 19 0.53 0.04
-7 6 1 16.54 0.53
-7 6 2 3.2 0.1
-7 6 4 0.72 0.04
-7 6 5 1.26 0.05
-7 6 6 6.23 0.16
-7 6 7 2.42 0.08
-7 6 8 4.5 0.12
-7 6 9 2.16 0.08
-7 6 10 0.41 0.05
-7 6 11 1.8 0.07
-7 6 13 0.46 0.04
-7 7 1 0.32 0.05
-7 7 2 0.28 0.08
-7 7 4 0.75 0.07
-7 7 5 2.4 0.1
-7 7 6 1 0.08
-7 7 7 0.65 0.15
-6 0 2 191.89 5.88
-6 0 4 2.98 0.28
-6 0 6 166.55 5.41
-6 0 10 292.84 6.36
-6 0 14 25.77 0.56
-6 0 16 128.82 2.88
-6 0 18 15.24 0.36
-6 0 20 9.77 0.27
-6 0 22 2.69 0.13
-6 0 24 12.84 0.33
-6 0 26 4.7 0.16
-6 1 1 1.26 0.16
-6 1 2 7.07 0.33
-6 1 3 1.24 0.18
-6 1 4 33.5 1.03
-6 1 5 96.87 2.71
-6 1 6 155.98 4.42
-6 1 7 2.73 0.12
-6 1 8 3 0.08
-6 1 9 44.18 0.98
-6 1 10 50.71 1.12
-6 1 11 4.19 0.11
-6 1 12 42.14 0.93
-6 1 13 4.9 0.12
-6 1 14 21.68 0.49
-6 1 15 3.68 0.09
-6 1 16 0.59 0.03
-6 1 17 1.03 0.04
-6 1 18 0.61 0.04
-6 1 19 11.97 0.28
-6 1 20 28.16 0.65
-6 1 21 12.8 0.31
-6 1 22 1.42 0.07
-6 1 23 2.22 0.08
-6 1 24 0.36 0.05
-6 1 25 1.24 0.09
-6 1 26 1.75 0.07
-6 2 1 71.11 1.57
-6 2 2 39.94 0.86
-6 2 3 60.83 1.33
-6 2 4 5.48 0.18
-6 2 5 4.28 0.11
-6 2 6 1.09 0.04
-6 2 7 0.22 0.02
-6 2 8 13.35 0.31
-6 2 9 31.32 0.7
-6 2 10 9.78 0.23
-6 2 11 0.19 0.02
-6 2 12 8.9 0.22
-6 2 13 0.28 0.03
-6 2 14 6.31 0.15
-6 2 15 2.76 0.08
-6 2 16 0.34 0.03
-6 2 17 9.62 0.24
-6 2 18 19.23 0.44
-6 2 19 2.48 0.08
-6 2 20 21.11 0.52
-6 2 21 1.51 0.06
-6 2 22 0.13 0.04
-6 2 23 0.6 0.06
-6 2 24 0.22 0.04
-6 2 25 11.99 0.28
-6 3 1 13.66 0.31
-6 3 2 11.7 0.27
-6 3 3 1.63 0.05
-6 3 4 4.64 0.11
-6 3 5 0.71 0.04
-6 3 6 7.08 0.18
-6 3 7 7.78 0.18
-6 3 8 40.84 0.92
-6 3 9 31.97 0.71
-6 3 10 0.5 0.03
-6 3 11 4.35 0.11
-6 3 12 0.97 0.07
-6 3 13 6.7 0.16
-6 3 14 55.42 1.29
-6 3 15 12.78 0.32
-6 3 16 1.78 0.06
-6 3 17 0.62 0.04
-6 3 18 8.45 0.2
-6 3 19 15.71 0.37
-6 3 20 1.01 0.05
-6 3 21 0.48 0.05
-6 3 22 4.72 0.13
-6 3 23 0.73 0.06
-6 3 24 18.37 0.41
-6 3 25 2.1 0.22
-6 4 1 8.11 0.19
-6 4 3 7.29 0.19
-6 4 4 44 0.98
-6 4 5 40.35 0.9
-6 4 6 1.76 0.07
-6 4 8 6.94 0.17
-6 4 9 0.09 0.03
-6 4 10 1.98 0.08
-6 4 11 6.98 0.19
-6 4 12 11.67 0.27
-6 4 13 13.99 0.32
-6 4 14 13.61 0.35
-6 4 15 22.75 0.54
-6 4 16 0.56 0.04
-6 4 18 6.7 0.19
-6 4 19 1 0.06
-6 4 21 1.46 0.07
-6 4 22 0.55 0.05
-6 4 23 3.6 0.19
-6 5 2 0.75 0.04
-6 5 3 1.17 0.05
-6 5 4 38.1 0.85
-6 5 6 6.88 0.17
-6 5 7 2.65 0.09
-6 5 8 16.7 0.38
-6 5 9 1.35 0.06
-6 5 10 15.45 0.35
-6 5 11 0.59 0.04
-6 5 12 0.24 0.04
-6 5 13 0.65 0.04
-6 5 14 2.25 0.08
-6 5 15 1.45 0.06
-6 5 16 8.02 0.2
-6 5 17 0.2 0.05
-6 5 18 1.45 0.09
-6 5 19 0.19 0.04
-6 5 20 2.56 0.1
-6 6 1 1.81 0.11
-6 6 2 4.3 0.12
-6 6 3 0.54 0.04
-6 6 4 3.32 0.1
-6 6 5 9.54 0.24
-6 6 6 1.67 0.07
-6 6 7 0.77 0.05
-6 6 8 0.53 0.04
-6 6 10 5.23 0.14
-6 6 11 10.14 0.25
-6 6 12 4.68 0.13
-6 6 13 0.8 0.06
-6 6 14 0.94 0.05
-6 6 15 3.8 0.15
-6 6 16 2.12 0.1
-6 6 17 1.53 0.1
-6 7 1 6.2 0.2
-6 7 3 0.28 0.07
-6 7 4 0.48 0.07
-6 7 5 0.43 0.05
-6 7 6 1.26 0.08
-6 7 7 2.7 0.11
-6 7 8 0.25 0.04
-6 7 9 2.84 0.09
-5 0 2 92.72 2.35
-5 0 4 19.09 0.65
-5 0 6 115.94 3.44
-5 0 8 292.44 8.31
-5 0 10 101.68 8.81
-5 0 12 43.94 1.04
-5 0 14 0.59 0.04
-5 0 18 26.58 0.59
-5 0 20 102.11 2.64
-5 0 22 0.23 0.07
-5 0 24 0.56 0.09
-5 0 26 14.19 0.35
-5 1 1 57.57 1.47
-5 1 2 259.9 6.31
-5 1 3 51.47 1.31
-5 1 4 96.7 2.68
-5 1 5 32.87 0.97
-5 1 6 3.98 0.29
-5 1 7 1 0.18
-5 1 8 16.8 0.67
-5 1 9 265.92 7.19
-5 1 10 25.77 0.58
-5 1 11 0.19 0.03
-5 1 12 24.7 0.56
-5 1 13 8.77 0.2
-5 1 14 25.8 0.57
-5 1 15 39.24 0.87
-5 1 16 54.32 1.21
-5 1 17 16.13 0.36
-5 1 18 0.62 0.04
-5 1 19 40.48 0.91
-5 1 20 0.62 0.04
-5 1 21 1.08 0.06
-5 1 22 1.43 0.08
-5 1 23 0.33 0.06
-5 1 24 15.73 0.42
-5 1 25 1.08 0.06
-5 1 26 2.84 0.1
-5 1 27 2.37 0.08
-5 2 1 9.51 0.51
-5 2 3 4.55 0.43
-5 2 4 28.18 1.25
-5 2 5 176.56 5.05
-5 2 6 82.75 2.44
-5 2 7 22.15 0.83
-5 2 8 1.87 0.06
-5 2 9 0.14 0.02
-5 2 11 39.72 0.91
-5 2 12 23.98 0.56
-5 2 13 73.6 1.63
-5 2 14 0.7 0.03
-5 2 15 11.93 0.28
-5 2 16 3.4 0.09
-5 2 17 7.8 0.21
-5 2 18 4.99 0.13
-5 2 19 11.35 0.27
-5 2 21 0.24 0.04
-5 2 22 10.06 0.25
-5 2 23 7.58 0.19
-5 2 24 1.71 0.08
-5 2 26 0.28 0.04
-5 3 1 20.2 0.45
-5 3 2 0.08 0.02
-5 3 3 6.21 0.14
-5 3 4 11.4 0.26
-5 3 5 3.69 0.1
-5 3 6 4.72 0.12
-5 3 7 16.3 0.37
-5 3 8 2.27 0.07
-5 3 10 6.54 0.16
-5 3 11 0.61 0.03
-5 3 12 0.73 0.03
-5 3 14 0.85 0.04
-5 3 15 2.27 0.08
-5 3 17 0.12 0.03
-5 3 18 12.71 0.29
-5 3 19 5.91 0.17
-5 3 20 0.28 0.04
-5 3 21 0.86 0.05
-5 3 23 4.05 0.19
-5 3 24 8.89 0.23
-5 3 25 0.95 0.05
-5 4 1 3.31 0.1
-5 4 3 24.87 0.55
-5 4 4 24.81 0.58
-5 4 5 14.15 0.32
-5 4 7 1.14 0.05
-5 4 8 25.39 0.58
-5 4 10 24.46 0.56
-5 4 11 0.34 0.03
-5 4 12 2.08 0.07
-5 4 13 15.16 0.37
-5 4 14 7.28 0.19
-5 4 15 13.2 0.33
-5 4 17 2.43 0.08
-5 4 18 17.02 0.39
-5 4 19 0.5 0.05
-5 4 21 0.24 0.07
-5 4 22 2.58 0.09
-5 4 23 9.15 0.32
-5 5 1 2.85 0.09
-5 5 2 4.22 0.11
-5 5 3 3.23 0.1
-5 5 4 67.31 1.5
-5 5 5 0.3 0.03
-5 5 6 8.97 0.22
-5 5 7 2.53 0.08
-5 5 8 6.41 0.16
-5 5 9 2.94 0.09
-5 5 10 3.68 0.1
-5 5 12 11.97 0.28
-5 5 13 4.12 0.12
-5 5 14 50.75 1.13
-5 5 15 0.12 0.03
-5 5 16 0.8 0.05
-5 5 17 0.59 0.05
-5 5 18 1.53 0.07
-5 5 19 0.99 0.05
-5 5 20 3 0.2
-5 5 21 0.17 0.04
-5 6 2 0.35 0.04
-5 6 3 19.96 0.46
-5 6 4 2.94 0.09
-5 6 5 1.45 0.06
-5 6 6 0.88 0.04
-5 6 7 1.71 0.06
-5 6 8 12.34 0.28
-5 6 9 2.41 0.07
-5 6 10 9.9 0.23
-5 6 11 0.75 0.05
-5 6 13 1.6 0.06
-5 6 15 4.01 0.11
-5 6 16 0.25 0.04
-5 6 17 0.75 0.08
-5 7 1 0.17 0.04
-5 7 2 0.94 0.07
-5 7 3 0.6 0.06
-5 7 4 0.34 0.04
-5 7 5 0.12 0.04
-5 7 7 2.3 0.1
-5 7 9 2.38 0.08
-5 7 10 2.18 0.07
-5 7 11 2.75 0.09
-4 0 2 991.54 49.62
-4 0 4 125.46 4.68
-4 0 6 43.08 1.7
-4 0 8 573.91 24.53
-4 0 12 237.65 5.81
-4 0 14 1.88 0.07
-4 0 16 56.44 1.25
-4 0 18 130.03 3.03
-4 0 22 1.07 0.09
-4 0 24 1.76 0.12
-4 0 26 10.7 0.38
-4 1 1 95.15 2.29
-4 1 2 58.32 1.41
-4 1 3 1.8 0.17
-4 1 4 34.62 1.11
-4 1 6 180.56 4.5
-4 1 7 86.73 2.39
-4 1 8 173.75 4.59
-4 1 9 45.96 1.33
-4 1 11 1.69 0.24
-4 1 12 80.32 1.78
-4 1 13 14.95 0.34
-4 1 14 16.61 0.38
-4 1 15 0.1 0.02
-4 1 16 21.81 0.49
-4 1 17 4.49 0.12
-4 1 18 0.94 0.05
-4 1 19 52.84 1.28
-4 1 20 12.2 0.3
-4 1 21 1.45 0.07
-4 1 22 21.7 0.5
-4 1 23 9.9 0.26
-4 1 24 2.7 0.12
-4 1 25 4.42 0.13
-4 1 26 2.48 0.09
-4 1 27 5.82 0.18
-4 2 1 52.72 2.22
-4 2 2 13.14 0.64
-4 2 3 78.37 2.1
-4 2 4 63.19 1.74
-4 2 5 6.31 0.35
-4 2 6 6.04 0.36
-4 2 7 7.34 0.38
-4 2 8 87.07 2.51
-4 2 9 13.93 0.58
-4 2 10 30.36 0.68
-4 2 11 7.66 0.18
-4 2 12 0.82 0.03
-4 2 13 3.33 0.09
-4 2 14 22.47 0.51
-4 2 15 34.8 0.78
-4 2 16 10.39 0.24
-4 2 17 7.34 0.18
-4 2 18 7.59 0.23
-4 2 19 6.09 0.16
-4 2 20 0.11 0.03
-4 2 21 4.5 0.13
-4 2 22 4.03 0.12
-4 2 23 18.17 0.42
-4 2 24 2.39 0.1
-4 2 25 3.23 0.14
-4 2 26 1.33 0.06
-4 3 1 5.25 0.22
-4 3 2 14.78 0.9
-4 3 3 23.85 2.08
-4 3 4 244.02 5.52
-4 3 5 28.66 0.64
-4 3 6 8.34 0.19
-4 3 7 5.34 0.13
-4 3 8 0.29 0.02
-4 3 9 37.88 0.83
-4 3 10 64.78 1.44
-4 3 11 20.79 0.47
-4 3 12 12.5 0.28
-4 3 13 1.01 0.04
-4 3 14 31.6 0.71
-4 3 15 5.95 0.15
-4 3 16 4 0.14
-4 3 17 15.06 0.35
-4 3 18 2.59 0.08
-4 3 20 5.97 0.16
-4 3 21 1.51 0.09
-4 3 22 1 0.06
-4 3 23 0.41 0.05
-4 3 25 0.73 0.05
-4 4 1 0.14 0.02
-4 4 2 5.31 0.13
-4 4 3 62.2 1.38
-4 4 4 1.25 0.05
-4 4 5 11.76 0.27
-4 4 6 29.41 0.65
-4 4 7 9.84 0.22
-4 4 8 4.5 0.11
-4 4 9 2.18 0.06
-4 4 10 2.98 0.09
-4 4 11 0.13 0.02
-4 4 12 0.38 0.03
-4 4 13 29.21 0.69
-4 4 14 22.75 0.55
-4 4 15 0.88 0.04
-4 4 16 1.75 0.07
-4 4 17 4.61 0.13
-4 4 18 2.21 0.08
-4 4 20 4.62 0.13
-4 4 21 0.32 0.05
-4 4 22 3 0.13
-4 4 23 5.36 0.14
-4 5 2 23 0.51
-4 5 3 2.4 0.08
-4 5 4 0.5 0.03
-4 5 6 5.55 0.14
-4 5 7 0.09 0.03
-4 5 8 8.33 0.2
-4 5 9 0.17 0.03
-4 5 10 12.9 0.3
-4 5 11 1.4 0.06
-4 5 12 7.88 0.21
-4 5 13 0.57 0.06
-4 5 14 13.79 0.35
-4 5 15 0.19 0.04
-4 5 17 1.71 0.07
-4 5 18 12.6 0.29
-4 5 19 0.56 0.06
-4 5 20 0.33 0.06
-4 6 1 0.1 0.03
-4 6 2 5.04 0.13
-4 6 3 13.57 0.34
-4 6 4 3.56 0.1
-4 6 5 5.84 0.16
-4 6 6 1.84 0.08
-4 6 7 9.76 0.26
-4 6 8 1.39 0.06
-4 6 9 0.19 0.03
-4 6 10 0.21 0.03
-4 6 11 0.53 0.04
-4 6 12 4.45 0.12
-4 6 13 20.48 0.46
-4 6 14 4.92 0.16
-4 6 16 1.14 0.09
-4 6 17 0.48 0.06
-4 6 18 4.34 0.13
-4 7 2 4.6 0.14
-4 7 3 5.1 0.13
-4 7 4 2.81 0.1
-4 7 6 0.94 0.05
-4 7 7 2.98 0.09
-4 7 8 2.13 0.07
-4 7 9 7.78 0.21
-4 7 10 0.29 0.06
-4 7 11 0.91 0.05
-4 7 12 0.15 0.04
-4 7 13 0.3 0.04
-3 0 2 14.8 0.49
-3 0 4 92.2 4.41
-3 0 6 15.93 0.72
-3 0 8 24.4 1.25
-3 0 10 4.34 0.42
-3 0 12 149.12 5.04
-3 0 14 17.95 0.4
-3 0 16 13.4 0.36
-3 0 18 34.33 0.76
-3 0 20 9.4 0.64
-3 0 22 94.91 2.19
-3 0 24 0.55 0.1
-3 0 26 4.15 0.2
-3 1 1 339.97 7.87
-3 1 2 35.29 1.02
-3 1 3 166.41 4.06
-3 1 4 237.01 6.36
-3 1 5 216.79 5.19
-3 1 7 346.28 8.35
-3 1 8 8.78 0.46
-3 1 9 62.43 1.71
-3 1 10 3.7 0.28
-3 1 11 160.69 4.51
-3 1 12 51.16 1.24
-3 1 13 0.82 0.04
-3 1 14 0.33 0.03
-3 1 15 0.1 0.03
-3 1 16 31.53 0.77
-3 1 17 58.58 1.43
-3 1 18 38.53 0.91
-3 1 19 0.28 0.04
-3 1 20 2.02 0.09
-3 1 21 8.13 0.22
-3 1 22 2.35 0.1
-3 1 23 1.83 0.11
-3 1 24 0.31 0.05
-3 1 25 1.15 0.07
-3 1 26 17.07 0.39
-3 1 27 2.26 0.08
-3 2 1 85.65 2.21
-3 2 2 185.42 6.08
-3 2 3 310.21 8.19
-3 2 4 28.38 0.96
-3 2 5 2.22 0.33
-3 2 6 143.64 3.9
-3 2 7 172.46 4.82
-3 2 8 294.55 8.29
-3 2 9 52.03 1.69
-3 2 10 11.8 0.57
-3 2 11 23.24 0.54
-3 2 12 2.19 0.07
-3 2 13 53.34 1.19
-3 2 14 0.93 0.05
-3 2 15 28.68 0.64
-3 2 16 14.61 0.34
-3 2 17 1.03 0.07
-3 2 18 43.25 1
-3 2 19 0.36 0.04
-3 2 20 3.42 0.18
-3 2 21 10.73 0.26
-3 2 24 2.8 0.1
-3 2 25 0.23 0.04
-3 3 1 3.67 0.5
-3 3 2 257.21 7.56
-3 3 3 5.86 0.6
-3 3 4 45.22 1.53
-3 3 5 19.73 1.01
-3 3 6 0.32 0.05
-3 3 7 3.95 0.11
-3 3 8 17.99 0.4
-3 3 9 5.67 0.14
-3 3 10 20.42 0.47
-3 3 11 1.42 0.05
-3 3 12 43.31 0.96
-3 3 13 9.67 0.22
-3 3 14 70.14 1.68
-3 3 15 1.61 0.06
-3 3 17 1.15 0.05
-3 3 18 3.67 0.11
-3 3 19 10.71 0.29
-3 3 20 4.25 0.14
-3 3 21 7.16 0.18
-3 3 22 10.19 0.29
-3 3 24 10.69 0.26
-3 3 25 2.51 0.12
-3 4 1 21.57 0.48
-3 4 2 11.13 0.25
-3 4 3 59.71 1.31
-3 4 4 30.09 0.67
-3 4 5 0.39 0.02
-3 4 6 25.81 0.58
-3 4 7 16.96 0.38
-3 4 8 0.55 0.03
-3 4 9 0.58 0.03
-3 4 10 39.29 0.87
-3 4 11 3.91 0.1
-3 4 12 2.98 0.08
-3 4 13 32.69 0.75
-3 4 14 5.96 0.15
-3 4 16 4.07 0.12
-3 4 17 11.14 0.26
-3 4 18 4.13 0.12
-3 4 19 0.25 0.05
-3 4 20 9.08 0.25
-3 4 21 0.63 0.06
-3 4 23 7.75 0.19
-3 4 24 3.87 0.13
-3 5 1 0.19 0.02
-3 5 2 2.39 0.07
-3 5 3 4.44 0.11
-3 5 4 9.79 0.23
-3 5 5 1.2 0.05
-3 5 6 37.62 0.91
-3 5 7 4.03 0.11
-3 5 8 0.57 0.04
-3 5 9 4.35 0.11
-3 5 10 4.72 0.12
-3 5 11 1.42 0.06
-3 5 12 13.31 0.3
-3 5 13 0.33 0.03
-3 5 14 1.73 0.08
-3 5 16 17.94 0.48
-3 5 17 1.11 0.05
-3 5 18 1.27 0.06
-3 5 20 2.61 0.09
-3 6 1 8.7 0.24
-3 6 2 2.04 0.07
-3 6 3 1.22 0.08
-3 6 4 1.34 0.05
-3 6 5 0.68 0.04
-3 6 6 0.96 0.06
-3 6 7 0.77 0.04
-3 6 8 0.14 0.03
-3 6 9 4.53 0.12
-3 6 10 3.28 0.11
-3 6 11 0.37 0.04
-3 6 12 4.21 0.12
-3 6 13 1.98 0.08
-3 6 14 0.16 0.04
-3 6 15 0.67 0.05
-3 6 17 7.43 0.28
-3 7 1 0.84 0.05
-3 7 2 5.85 0.15
-3 7 3 0.37 0.04
-3 7 4 4.71 0.13
-3 7 5 1.89 0.09
-3 7 6 0.81 0.04
-3 7 7 0.31 0.04
-3 7 8 0.24 0.04
-3 7 9 0.34 0.04
-3 7 10 0.23 0.04
-3 7 11 0.4 0.05
-3 7 12 6.77 0.17
-3 7 13 4.46 0.13
-3 7 14 1.46 0.11
-2 0 2 639.24 15.59
-2 0 6 177.95 6.04
-2 0 8 463.4 11.21
-2 0 10 190.27 5.45
-2 0 12 16.81 1.33
-2 0 14 55.48 1.33
-2 0 16 11.46 0.29
-2 0 18 4.82 0.16
-2 0 20 17.35 0.39
-2 0 22 4.59 0.17
-2 0 26 3.67 0.21
-2 1 1 196.12 5.9
-2 1 2 583.04 13.23
-2 1 3 23.17 0.97
-2 1 4 376.37 8.71
-2 1 5 20.6 0.73
-2 1 6 4.76 0.44
-2 1 7 33.34 1.05
-2 1 8 289.75 7.4
-2 1 9 23.46 0.81
-2 1 10 33.24 0.99
-2 1 11 83.67 2.33
-2 1 12 9.79 0.47
-2 1 13 31.59 0.74
-2 1 14 18.22 0.46
-2 1 15 11.29 0.28
-2 1 16 1.04 0.05
-2 1 17 30.18 0.85
-2 1 18 8.55 0.21
-2 1 19 1.85 0.08
-2 1 20 0.98 0.06
-2 1 21 58.06 1.29
-2 1 22 10.83 0.27
-2 1 24 2.42 0.11
-2 1 25 0.52 0.05
-2 1 26 1.53 0.1
-2 1 27 11.1 0.26
-2 2 1 152.32 4.14
-2 2 2 506.72 11.91
-2 2 3 9.46 0.38
-2 2 4 24.44 0.73
-2 2 5 3.6 0.39
-2 2 6 74.37 2.36
-2 2 7 35.71 1.09
-2 2 8 29.47 0.99
-2 2 9 16.89 0.69
-2 2 10 93.45 2.91
-2 2 11 13.58 0.32
-2 2 12 108.98 2.42
-2 2 13 30.55 0.68
-2 2 14 13.38 0.32
-2 2 15 2.13 0.07
-2 2 16 36.71 0.91
-2 2 17 55.33 1.38
-2 2 18 27.91 0.64
-2 2 19 8.19 0.28
-2 2 20 7.03 0.19
-2 2 21 0.51 0.05
-2 2 22 9.52 0.26
-2 2 23 10.64 0.27
-2 2 24 0.47 0.05
-2 2 25 14.85 0.36
-2 2 26 7.73 0.19
-2 3 1 140.28 4.66
-2 3 2 69.1 2.15
-2 3 3 1.53 0.24
-2 3 4 9.53 0.7
-2 3 5 6.56 0.2
-2 3 6 351.24 8.36
-2 3 7 81.7 2.03
-2 3 8 26.04 0.63
-2 3 9 8.13 0.19
-2 3 10 22.78 0.5
-2 3 11 20.44 0.46
-2 3 12 85.9 1.9
-2 3 13 3.91 0.1
-2 3 14 4.87 0.12
-2 3 15 11.37 0.27
-2 3 16 32.37 0.72
-2 3 17 4.45 0.13
-2 3 18 9.08 0.25
-2 3 19 1.52 0.12
-2 3 20 15.07 0.44
-2 3 22 11.06 0.28
-2 3 23 1.27 0.09
-2 3 24 1.62 0.08
-2 3 25 0.16 0.04
-2 4 1 16.75 0.38
-2 4 2 61.88 1.39
-2 4 3 34.09 0.75
-2 4 4 0.52 0.03
-2 4 5 35.21 0.77
-2 4 6 4.02 0.1
-2 4 7 37.57 0.82
-2 4 8 0.56 0.03
-2 4 9 0.28 0.02
-2 4 10 24.79 0.55
-2 4 11 18.31 0.41
-2 4 12 0.1 0.03
-2 4 13 11.02 0.25
-2 4 14 9.14 0.21
-2 4 15 10.77 0.28
-2 4 16 15.42 0.36
-2 4 17 10.94 0.29
-2 4 18 1.17 0.06
-2 4 19 0.2 0.06
-2 4 20 2.73 0.1
-2 4 21 2.31 0.09
-2 4 22 0.26 0.05
-2 4 23 3.28 0.12
-2 4 24 6.38 0.2
-2 5 1 0.29 0.03
-2 5 2 16.01 0.36
-2 5 3 3.33 0.09
-2 5 4 3.55 0.09
-2 5 5 4.23 0.11
-2 5 7 0.27 0.03
-2 5 8 1.22 0.05
-2 5 9 0.9 0.04
-2 5 10 3.42 0.09
-2 5 11 0.57 0.04
-2 5 12 0.92 0.05
-2 5 13 5.81 0.15
-2 5 14 2.6 0.08
-2 5 15 0.17 0.03
-2 5 16 13.96 0.33
-2 5 17 0.63 0.06
-2 5 19 1.41 0.07
-2 5 20 5.19 0.2
-2 5 21 1.4 0.08
-2 6 1 0.59 0.04
-2 6 3 16.22 0.42
-2 6 5 9.66 0.23
-2 6 7 3.77 0.11
-2 6 8 1.95 0.07
-2 6 9 3.01 0.09
-2 6 11 6.61 0.17
-2 6 12 0.44 0.04
-2 6 13 0.2 0.06
-2 6 14 1.62 0.08
-2 6 15 5.96 0.19
-2 6 16 0.68 0.05
-2 7 1 6.51 0.16
-2 7 2 0.23 0.03
-2 7 3 0.23 0.04
-2 7 4 1.47 0.07
-2 7 5 0.24 0.03
-2 7 6 3.54 0.11
-2 7 7 4.83 0.13
-2 7 8 3.87 0.1
-2 7 9 0.42 0.04
-2 7 10 1.4 0.06
-2 7 11 3.48 0.12
-2 7 12 1.06 0.06
-2 8 1 0.24 0.04
-2 8 2 2.07 0.09
-2 8 4 2.7 0.11
-1 0 4 858.74 11.95
-1 0 6 206.4 5.05
-1 0 8 511.96 13.64
-1 0 10 2.96 0.34
-1 0 12 106.97 3.58
-1 0 14 48.28 1.21
-1 0 16 21.79 0.54
-1 0 18 61.57 1.41
-1 0 20 44.36 0.9
-1 0 22 0.7 0.06
-1 0 24 21.97 0.83
-1 0 26 6.24 0.17
-1 1 2 161.73 4.88
-1 1 3 353.69 10.04
-1 1 4 264.43 7.88
-1 1 5 1.15 0.16
-1 1 7 435.06 12.89
-1 1 8 93.78 2.74
-1 1 9 176.92 5.22
-1 1 11 72.58 1.99
-1 1 12 89.06 2.76
-1 1 13 5.35 0.13
-1 1 14 45.48 1.12
-1 1 15 10.43 0.28
-1 1 16 6.09 0.15
-1 1 17 1.68 0.07
-1 1 18 14.77 0.35
-1 1 19 9.52 0.31
-1 1 20 2.98 0.12
-1 1 21 13.61 0.34
-1 1 22 12.2 0.44
-1 1 23 1.68 0.08
-1 1 24 0.58 0.05
-1 1 25 1.37 0.06
-1 1 26 0.25 0.06
-1 1 27 0.69 0.18
-1 2 1 142.75 3.86
-1 2 2 7.26 1.2
-1 2 3 169.39 4.28
-1 2 4 232.03 5.87
-1 2 5 503.96 12.33
-1 2 6 18.32 0.79
-1 2 7 1.25 0.18
-1 2 8 48.77 1.4
-1 2 9 8.04 0.56
-1 2 10 189.69 4.72
-1 2 11 72.81 1.62
-1 2 12 34.26 0.74
-1 2 13 12.9 0.31
-1 2 14 1.33 0.06
-1 2 15 12.15 0.32
-1 2 18 5.41 0.15
-1 2 19 4.05 0.12
-1 2 20 49.19 1.08
-1 2 21 0.99 0.06
-1 2 22 19.25 0.44
-1 2 24 0.33 0.06
-1 2 25 0.48 0.05
-1 2 26 1.98 0.07
-1 3 2 32.35 1.42
-1 3 3 13.44 0.59
-1 3 4 54.05 1.27
-1 3 5 0.81 0.08
-1 3 6 106.5 2.46
-1 3 7 1.79 0.1
-1 3 8 6.6 0.15
-1 3 9 1.18 0.04
-1 3 10 32.21 0.72
-1 3 11 41.86 0.92
-1 3 12 0.23 0.03
-1 3 13 1.06 0.07
-1 3 14 26.63 0.69
-1 3 15 6.3 0.19
-1 3 16 116.84 2.69
-1 3 17 12.01 0.29
-1 3 18 1.04 0.07
-1 3 19 4.09 0.14
-1 3 20 0.22 0.05
-1 3 21 13.04 0.34
-1 3 22 5.45 0.15
-1 3 23 2.2 0.09
-1 3 24 13.59 0.31
-1 3 25 0.93 0.05
-1 4 1 6.19 0.14
-1 4 2 9.81 0.23
-1 4 4 0.48 0.03
-1 4 5 62.41 1.37
-1 4 6 84.68 1.87
-1 4 7 29.61 0.65
-1 4 8 8.16 0.19
-1 4 9 1.4 0.05
-1 4 11 2.97 0.11
-1 4 12 21.65 0.48
-1 4 13 0.31 0.04
-1 4 14 3.47 0.1
-1 4 15 38.68 0.85
-1 4 16 4.21 0.15
-1 4 17 10.42 0.29
-1 4 19 0.72 0.06
-1 4 20 10.04 0.29
-1 4 21 2.55 0.11
-1 4 22 1.17 0.08
-1 5 1 10.09 0.24
-1 5 2 74.45 1.65
-1 5 3 1.21 0.04
-1 5 4 5.03 0.12
-1 5 5 0.17 0.03
-1 5 6 32.92 0.76
-1 5 7 1.02 0.04
-1 5 8 0.94 0.04
-1 5 9 6.96 0.17
-1 5 10 15.06 0.34
-1 5 11 1.48 0.07
-1 5 12 14.4 0.41
-1 5 14 1.88 0.07
-1 5 15 1.21 0.07
-1 5 16 0.17 0.03
-1 5 17 0.48 0.04
-1 5 19 0.39 0.05
-1 5 21 0.15 0.05
-1 6 1 2.22 0.07
-1 6 2 6.87 0.17
-1 6 4 1.78 0.06
-1 6 5 0.9 0.04
-1 6 6 9.4 0.29
-1 6 7 9.48 0.23
-1 6 8 2.71 0.1
-1 6 10 0.51 0.04
-1 6 12 0.14 0.04
-1 6 13 3.38 0.1
-1 6 15 5.89 0.15
-1 6 16 0.67 0.05
-1 6 17 2.46 0.09
-1 6 18 0.7 0.05
-1 7 1 1.56 0.06
-1 7 3 3.38 0.09
-1 7 4 3.6 0.1
-1 7 5 0.17 0.04
-1 7 6 3.86 0.15
-1 7 8 0.43 0.04
-1 7 11 4.91 0.13
-1 7 12 0.11 0.04
-1 7 13 0.23 0.05
-1 7 14 4 0.13
-1 8 2 1.14 0.05
-1 8 4 1.09 0.09
-1 8 5 0.61 0.05
0 0 2 145.18 4.12
0 0 4 73.29 1.85
0 0 6 1043.39 15.6
0 0 8 305.36 14.23
0 0 10 417.61 10.32
0 0 12 14.35 0.44
0 0 14 52.62 1.33
0 0 16 11.34 0.29
0 0 20 12 0.28
0 0 22 16.87 0.4
0 0 24 1.72 0.1
0 0 26 2.38 0.1
0 1 1 480.27 9.97
0 1 2 94.1 2.24
0 1 3 17.72 0.92
0 1 4 1427.12 18.5
0 1 5 73.58 2.31
0 1 6 318.69 8.5
0 1 7 35.63 1.13
0 1 8 27.49 0.99
0 1 9 39.58 1.36
0 1 10 150.03 4.64
0 1 11 212.47 5.18
0 1 12 0.2 0.05
0 1 13 25.61 0.58
0 1 14 8.89 0.25
0 1 15 3.46 0.14
0 1 16 3.66 0.11
0 1 17 20.35 0.56
0 1 18 26.14 0.61
0 1 19 50.41 1.22
0 1 20 3.12 0.12
0 1 21 16.02 0.37
0 1 22 4.14 0.16
0 1 23 10.76 0.27
0 1 24 4.33 0.12
0 1 25 1.01 0.06
0 1 26 2.3 0.08
0 2 0 15.08 1.07
0 2 1 82.37 2.39
0 2 2 136.64 3.34
0 2 4 182.04 5.25
0 2 5 49.08 2.02
0 2 6 5.41 0.47
0 2 7 138.56 4.23
0 2 9 55.91 1.31
0 2 10 26.77 0.66
0 2 11 1.4 0.05
0 2 12 16.83 0.39
0 2 13 9.97 0.26
0 2 14 57.57 1.37
0 2 15 96.18 2.33
0 2 16 2.69 0.08
0 2 18 11.97 0.3
0 2 19 12.2 0.29
0 2 20 26.54 0.59
0 2 21 13.15 0.39
0 2 22 0.41 0.05
0 2 23 4.18 0.12
0 2 24 7.42 0.18
0 2 25 8.57 0.21
0 2 26 0.92 0.19
0 3 1 54.35 1.61
0 3 2 118.33 3.14
0 3 3 87.81 2.25
0 3 4 55.66 1.22
0 3 5 15.59 0.42
0 3 6 0.36 0.06
0 3 7 0.96 0.09
0 3 8 98.67 2.17
0 3 9 41.83 0.91
0 3 10 1.34 0.05
0 3 11 1.44 0.06
0 3 12 9.53 0.22
0 3 14 27.79 0.76
0 3 15 0.37 0.04
0 3 16 1.2 0.06
0 3 17 5.12 0.18
0 3 18 5.3 0.14
0 3 19 0.36 0.05
0 3 20 12.51 0.29
0 3 21 2.73 0.1
0 3 22 4.52 0.13
0 3 24 7.38 0.22
0 3 25 2.28 0.25
0 4 0 2.97 0.12
0 4 1 12.33 0.28
0 4 2 58.76 1.32
0 4 3 4.05 0.1
0 4 4 12.54 0.28
0 4 5 78.62 1.77
0 4 6 6.63 0.15
0 4 7 0.17 0.02
0 4 8 5.76 0.14
0 4 9 6.39 0.16
0 4 10 16.78 0.38
0 4 11 0.69 0.04
0 4 12 24.95 0.55
0 4 13 6.33 0.17
0 4 15 26.69 0.83
0 4 16 17.24 0.48
0 4 17 0.74 0.05
0 4 18 2.47 0.1
0 4 19 3.58 0.11
0 4 20 3.91 0.18
0 4 22 1.26 0.07
0 4 23 1 0.07
0 5 2 7.62 0.19
0 5 3 1.1 0.04
0 5 4 24.72 0.55
0 5 5 3.21 0.09
0 5 6 75.85 1.71
0 5 8 6.46 0.16
0 5 9 0.13 0.04
0 5 10 0.25 0.03
0 5 11 4.01 0.11
0 5 12 8.61 0.21
0 5 13 0.95 0.06
0 5 14 14.85 0.35
0 5 15 1.71 0.07
0 5 16 24.67 0.6
0 5 17 0.37 0.04
0 5 18 1.12 0.06
0 5 19 1.86 0.09
0 5 20 2.79 0.12
0 5 21 0.65 0.06
0 6 0 17.82 0.5
0 6 1 5.97 0.15
0 6 2 10.07 0.23
0 6 3 4.1 0.11
0 6 4 0.76 0.04
0 6 5 28.6 0.69
0 6 6 0.22 0.03
0 6 7 0.22 0.04
0 6 8 0.78 0.05
0 6 9 0.52 0.04
0 6 10 12.61 0.31
0 6 11 1.38 0.06
0 6 12 5.27 0.14
0 6 13 4.8 0.16
0 6 14 0.34 0.04
0 6 15 1.77 0.07
0 6 16 2.09 0.07
0 6 17 0.56 0.05
0 7 1 8.5 0.2
0 7 3 0.77 0.04
0 7 5 0.87 0.04
0 7 8 1.27 0.06
0 7 9 7.37 0.18
0 7 10 1.96 0.07
0 7 11 0.75 0.05
0 7 13 0.15 0.04
0 8 2 0.26 0.05
0 8 4 0.33 0.05
1 0 0 395.1 6.57
1 0 2 9.88 0.67
1 0 4 1822.93 22.62
1 0 6 218.7 5.23
1 0 8 71.17 2.25
1 0 10 697.96 26.48
1 0 12 6.01 0.18
1 0 14 86.56 2.02
1 0 16 12.7 0.31
1 0 18 91.5 2.12
1 0 20 91.82 2.15
1 0 22 4.17 0.15
1 0 24 1.05 0.19
1 1 1 39.31 1.75
1 1 2 437.57 8.61
1 1 3 793.77 14.69
1 1 4 68.11 2.28
1 1 5 121.64 2.89
1 1 6 219.8 5.33
1 1 7 18.41 0.66
1 1 8 95.43 2.58
1 1 9 193.13 8.23
1 1 10 73.57 1.72
1 1 12 1.98 0.08
1 1 13 6.77 0.16
1 1 14 127.19 2.94
1 1 15 4.12 0.11
1 1 16 23.58 0.57
1 1 17 3.66 0.11
1 1 18 4.14 0.12
1 1 19 11.83 0.27
1 1 20 5.2 0.15
1 1 21 9.9 0.24
1 1 22 3.06 0.1
1 1 23 8.37 0.22
1 1 24 14.23 0.84
1 1 25 2.58 0.25
1 2 0 330.21 8.99
1 2 1 282.6 8.05
1 2 3 379.05 9.01
1 2 4 18.57 0.7
1 2 5 94.2 2.67
1 2 6 163.04 7.12
1 2 7 82.3 1.91
1 2 8 5.96 0.19
1 2 9 7.58 0.23
1 2 10 4.73 0.14
1 2 11 8.5 0.23
1 2 12 14.4 0.34
1 2 13 27.04 0.65
1 2 14 6.5 0.17
1 2 15 0.82 0.04
1 2 16 5.69 0.14
1 2 17 4.12 0.11
1 2 18 0.16 0.03
1 2 19 5.99 0.15
1 2 20 0.54 0.07
1 2 21 2.48 0.12
1 2 22 11.65 0.29
1 2 23 0.54 0.05
1 2 24 10.48 0.52
1 2 25 9.92 0.38
1 3 0 19.99 1.03
1 3 1 30.52 1.15
1 3 2 44.76 0.99
1 3 4 8.15 0.23
1 3 5 21.47 0.58
1 3 6 43.64 1.09
1 3 7 19.02 0.45
1 3 8 25.22 0.55
1 3 9 10.03 0.23
1 3 10 0.8 0.03
1 3 11 15.48 0.35
1 3 12 34.84 0.77
1 3 13 29.13 0.78
1 3 14 15.01 0.39
1 3 15 0.91 0.05
1 3 16 0.34 0.04
1 3 17 1.77 0.07
1 3 18 37.31 0.92
1 3 19 14.56 0.34
1 3 20 0.35 0.04
1 3 21 1.33 0.11
1 3 23 2.57 0.16
1 3 24 4.33 0.28
1 4 0 18.28 0.43
1 4 1 0.62 0.03
1 4 2 57.14 1.29
1 4 3 14.97 0.33
1 4 4 3 0.08
1 4 5 53.19 1.17
1 4 6 8.07 0.19
1 4 7 1.32 0.05
1 4 8 60.41 1.32
1 4 9 12.49 0.3
1 4 11 1.42 0.05
1 4 12 1.59 0.07
1 4 13 8.27 0.25
1 4 14 1.78 0.07
1 4 15 19.3 0.44
1 4 16 12.74 0.3
1 4 17 4.39 0.18
1 4 18 0.74 0.05
1 4 19 4.51 0.17
1 4 20 2.68 0.09
1 4 22 7.71 0.19
1 5 0 4.46 0.11
1 5 1 0.08 0.02
1 5 2 12.59 0.29
1 5 3 0.63 0.04
1 5 4 92.78 2.2
1 5 5 4.45 0.12
1 5 6 0.17 0.03
1 5 7 0.98 0.05
1 5 8 8.24 0.2
1 5 9 0.82 0.04
1 5 10 2.39 0.08
1 5 11 0.89 0.05
1 5 12 22.98 0.51
1 5 13 0.4 0.05
1 5 14 20.05 0.46
1 5 15 0.19 0.04
1 5 16 7 0.18
1 5 17 0.28 0.05
1 5 19 0.29 0.05
1 5 20 2.17 0.1
1 6 0 6.57 0.16
1 6 1 5.79 0.16
1 6 2 2.99 0.09
1 6 3 0.6 0.04
1 6 4 5.43 0.14
1 6 5 12.02 0.3
1 6 6 4.02 0.12
1 6 7 0.24 0.04
1 6 8 13.21 0.32
1 6 9 12.04 0.3
1 6 10 6.92 0.18
1 6 11 0.24 0.04
1 6 13 2.31 0.09
1 6 14 0.64 0.05
1 6 15 12.23 0.29
1 6 16 1.27 0.06
1 6 17 2.08 0.08
1 7 0 2.24 0.07
1 7 1 1.75 0.09
1 7 2 0.73 0.05
1 7 3 0.46 0.04
1 7 4 1.62 0.08
1 7 5 3.76 0.12
1 7 9 4.69 0.12
1 7 10 0.65 0.05
1 7 11 2.81 0.13
1 7 13 2.9 0.09
1 8 0 4.81 0.22
1 8 1 0.23 0.04
1 8 2 0.25 0.04
2 0 0 24.96 0.82
2 0 4 8.42 0.28
2 0 6 3.88 0.25
2 0 8 106.88 4.05
2 0 10 34.69 0.88
2 0 12 78.5 1.67
2 0 14 99.73 2.39
2 0 16 36.47 0.87
2 0 18 5.16 0.22
2 0 20 19.12 0.51
2 1 0 367.97 7.62
2 1 1 70.74 1.62
2 1 2 2.83 0.18
2 1 3 472.67 11.94
2 1 4 9.46 0.43
2 1 5 20.64 0.84
2 1 6 427.54 11.94
2 1 7 30.65 1.04
2 1 8 47.55 1.11
2 1 9 181.65 4.57
2 1 10 43.89 1.05
2 1 11 1.75 0.07
2 1 12 24.29 0.59
2 1 13 118.22 2.85
2 1 14 3.15 0.1
2 1 15 5.35 0.14
2 1 16 0.5 0.04
2 1 17 4.61 0.13
2 1 18 21.92 0.5
2 1 19 35.39 0.77
2 1 20 26.28 0.64
2 1 21 9.82 0.82
2 1 22 0.73 0.19
2 1 23 6.98 0.34
2 2 0 518.78 11.88
2 2 1 2.06 0.19
2 2 2 3.03 0.2
2 2 3 17.11 0.56
2 2 4 1.05 0.16
2 2 5 149.19 4.16
2 2 6 10.34 0.31
2 2 7 59.16 1.39
2 2 8 55.99 1.31
2 2 9 79.9 1.82
2 2 10 75.25 1.68
2 2 11 32.34 0.72
2 2 12 0.43 0.03
2 2 13 35.77 0.81
2 2 14 1.63 0.06
2 2 15 12.75 0.29
2 2 16 13.24 0.3
2 2 17 48.16 1.07
2 2 18 2.38 0.08
2 2 20 2.02 0.09
2 2 22 2.91 0.27
2 2 23 11.3 0.41
2 3 0 13.82 0.67
2 3 1 28.68 0.66
2 3 2 89.81 2.06
2 3 3 4.51 0.22
2 3 4 221.88 5.76
2 3 5 7.74 0.23
2 3 6 2.35 0.13
2 3 7 29.5 0.7
2 3 8 1.77 0.05
2 3 9 1.34 0.04
2 3 10 2.56 0.07
2 3 11 0.21 0.03
2 3 12 3.77 0.1
2 3 13 0.09 0.03
2 3 14 8.57 0.2
2 3 15 5.17 0.13
2 3 16 3.93 0.12
2 3 17 0.26 0.04
2 3 18 1.47 0.12
2 3 19 0.32 0.05
2 3 20 0.33 0.09
2 3 21 1.73 0.11
2 3 22 4.84 0.3
2 3 23 5.29 0.22
2 4 0 13.13 0.3
2 4 2 2.03 0.06
2 4 3 55.97 1.25
2 4 4 54.86 1.25
2 4 5 18.87 0.42
2 4 6 3.62 0.1
2 4 7 19.4 0.44
2 4 8 5.43 0.14
2 4 9 6.92 0.2
2 4 10 1.69 0.06
2 4 11 0.23 0.03
2 4 12 35.91 0.8
2 4 13 12.08 0.28
2 4 14 8.13 0.25
2 4 15 5.71 0.14
2 4 17 6.45 0.23
2 4 18 11.43 0.3
2 4 19 3.91 0.12
2 4 20 0.3 0.05
2 4 22 2.35 0.11
2 5 0 11.85 0.29
2 5 1 3.79 0.1
2 5 2 1.97 0.07
2 5 3 1.4 0.05
2 5 4 2.8 0.08
2 5 5 1.2 0.05
2 5 6 1.84 0.07
2 5 7 0.23 0.03
2 5 8 74.84 1.68
2 5 9 5.93 0.17
2 5 10 3.64 0.1
2 5 11 0.3 0.04
2 5 12 0.83 0.05
2 5 13 1.71 0.07
2 5 14 19.35 0.44
2 5 15 1.25 0.09
2 5 16 7.33 0.19
2 5 18 16.45 0.37
2 5 19 1.01 0.13
2 5 20 0.56 0.17
2 6 0 0.89 0.04
2 6 1 0.55 0.04
2 6 2 7.23 0.17
2 6 3 13.19 0.32
2 6 4 7.43 0.18
2 6 5 0.21 0.03
2 6 6 0.27 0.03
2 6 7 5.62 0.14
2 6 8 0.67 0.05
2 6 9 0.53 0.04
2 6 11 3.41 0.12
2 6 12 8.58 0.21
2 6 13 0.63 0.05
2 6 14 4.61 0.13
2 6 16 1.2 0.06
2 7 0 1.27 0.06
2 7 1 2.44 0.07
2 7 2 0.37 0.04
2 7 3 2.22 0.08
2 7 4 4.64 0.12
2 7 6 2.36 0.07
2 7 7 3.4 0.12
2 7 8 0.35 0.04
2 7 9 0.29 0.04
2 7 10 0.42 0.07
2 7 11 0.51 0.09
2 8 0 3.09 0.13
3 0 0 406.3 15.95
3 0 2 193.02 7.56
3 0 4 19.43 0.91
3 0 6 589.86 21.04
3 0 8 10.66 0.28
3 0 10 1.18 0.06
3 0 12 288.46 6.35
3 0 14 3.94 0.14
3 0 16 11.73 0.44
3 0 18 10.88 0.39
3 1 0 109.44 2.69
3 1 1 438.85 10.81
3 1 2 458.29 12.2
3 1 3 42.68 1.31
3 1 4 11.47 0.52
3 1 5 5.05 0.4
3 1 6 4.92 0.44
3 1 7 29.33 0.7
3 1 8 40.5 0.96
3 1 9 1.41 0.07
3 1 10 86.12 1.92
3 1 11 13.53 0.3
3 1 12 11.27 0.27
3 1 13 36.33 0.8
3 1 14 0.57 0.05
3 1 15 3.15 0.1
3 1 16 60.65 1.38
3 1 17 1.52 0.09
3 1 18 3.05 0.11
3 1 19 7.92 0.21
3 1 20 0.47 0.08
3 1 21 4.33 0.3
3 1 22 0.8 0.19
3 2 0 2.24 0.21
3 2 1 7.64 0.46
3 2 2 274.59 6.96
3 2 3 100.97 2.66
3 2 4 95.3 2.87
3 2 5 63.29 1.54
3 2 6 45.09 1.2
3 2 7 3.74 0.15
3 2 8 105.61 2.43
3 2 9 2.32 0.07
3 2 10 11.39 0.27
3 2 11 9.41 0.3
3 2 12 21.89 0.56
3 2 13 3.02 0.11
3 2 14 8.01 0.26
3 2 15 1.3 0.07
3 2 16 1.96 0.1
3 2 17 7 0.21
3 2 18 21.62 0.51
3 2 19 14.9 0.36
3 2 20 6.71 0.19
3 2 21 5.51 0.17
3 2 22 1.9 0.25
3 2 23 1 0.19
3 3 0 73.39 1.68
3 3 1 2.15 0.1
3 3 2 20.92 0.52
3 3 3 100.45 2.38
3 3 4 107.74 2.39
3 3 5 0.14 0.03
3 3 6 21.1 0.47
3 3 7 2.16 0.07
3 3 8 117.59 2.62
3 3 9 37.53 0.86
3 3 10 0.25 0.04
3 3 11 16.4 0.38
3 3 12 34.05 0.76
3 3 13 12.52 0.29
3 3 14 51.02 1.13
3 3 15 5.12 0.14
3 3 16 8.28 0.21
3 3 17 7.24 0.24
3 3 18 2.34 0.1
3 3 19 0.73 0.1
3 3 20 0.47 0.08
3 3 21 3.69 0.12
3 3 22 6.13 0.34
3 4 0 6.32 0.15
3 4 1 0.3 0.02
3 4 2 2.37 0.07
3 4 3 18.7 0.43
3 4 4 38.76 0.87
3 4 5 0.26 0.02
3 4 6 0.31 0.03
3 4 7 56.39 1.24
3 4 8 20.52 0.46
3 4 9 9.83 0.23
3 4 10 11.51 0.27
3 4 12 1.77 0.06
3 4 13 13.91 0.33
3 4 14 3.22 0.1
3 4 16 2.48 0.1
3 4 17 16.33 0.38
3 4 18 9.76 0.26
3 4 19 0.96 0.07
3 5 0 18.06 0.41
3 5 1 9.22 0.21
3 5 2 3.2 0.09
3 5 4 0.09 0.03
3 5 5 1.84 0.06
3 5 6 16.33 0.4
3 5 7 4.87 0.12
3 5 8 1.53 0.06
3 5 9 0.46 0.04
3 5 12 1.63 0.07
3 5 13 0.39 0.04
3 5 14 1.76 0.12
3 5 15 1.99 0.09
3 5 16 4.26 0.14
3 5 18 14.88 0.34
3 5 19 0.56 0.17
3 6 0 0.48 0.04
3 6 1 0.92 0.04
3 6 2 1.37 0.06
3 6 3 1 0.06
3 6 4 1.29 0.06
3 6 5 3.48 0.1
3 6 6 0.82 0.04
3 6 7 15.22 0.35
3 6 8 0.3 0.04
3 6 9 1.06 0.06
3 6 10 2.32 0.08
3 6 11 2.63 0.09
3 6 12 3.02 0.13
3 6 13 4.13 0.12
3 6 14 0.38 0.06
3 6 15 0.77 0.1
3 7 0 1.35 0.06
3 7 2 3.95 0.11
3 7 3 5.35 0.14
3 7 4 0.74 0.04
3 7 6 0.63 0.04
3 7 8 1.35 0.07
3 7 9 2.29 0.12
3 7 10 1.73 0.18
3 7 11 2.87 0.12
4 0 0 46.73 1.32
4 0 4 37.56 2.2
4 0 6 12.98 0.32
4 0 8 1.06 0.09
4 0 10 4.41 0.14
4 0 12 3.09 0.22
4 0 16 49.38 0.97
4 1 0 2.53 0.19
4 1 1 156.06 3.87
4 1 2 188.56 4.93
4 1 3 220.29 7.38
4 1 4 1.75 0.42
4 1 5 90.22 2.07
4 1 6 40.43 0.94
4 1 7 8.46 0.25
4 1 8 28.14 0.57
4 1 9 20.77 0.46
4 1 10 0.29 0.03
4 1 11 128.8 2.94
4 1 12 11.53 0.28
4 1 13 6.16 0.17
4 1 14 2.46 0.1
4 1 15 9.69 0.24
4 1 16 3.34 0.12
4 1 17 9.27 0.5
4 1 18 0.48 0.08
4 1 19 1.43 0.11
4 1 20 18.03 0.53
4 1 21 14.73 0.47
4 1 22 5.08 0.16
4 1 23 0.54 0.17
4 2 0 122.41 3.26
4 2 1 77.81 2.12
4 2 2 307.38 7.67
4 2 3 55.85 1.28
4 2 4 15.87 0.44
4 2 5 0.56 0.07
4 2 6 6.99 0.17
4 2 7 155.33 3.44
4 2 8 0.78 0.04
4 2 9 14.53 0.33
4 2 10 41.88 0.92
4 2 11 1.34 0.06
4 2 12 102.6 2.29
4 2 13 27.23 0.61
4 2 14 11.03 0.33
4 2 15 26.75 0.8
4 2 16 2.51 0.11
4 2 17 5.32 0.16
4 2 18 5.78 0.19
4 2 19 2.96 0.14
4 2 20 2.86 0.14
4 2 21 2.36 0.1
4 2 22 12.48 0.43
4 3 0 5.88 0.18
4 3 1 37.5 0.8
4 3 2 1.07 0.05
4 3 3 1.44 0.05
4 3 4 49.51 1.09
4 3 5 3.8 0.11
4 3 6 108.31 2.44
4 3 7 0.31 0.03
4 3 8 55.35 1.22
4 3 9 6.18 0.15
4 3 10 9.93 0.23
4 3 11 0.35 0.04
4 3 13 13.3 0.32
4 3 16 23.41 0.56
4 3 17 2.91 0.11
4 3 18 33.48 0.82
4 3 19 2.44 0.1
4 3 21 3.79 0.28
4 3 22 2.44 0.24
4 4 0 67.92 1.52
4 4 1 0.52 0.03
4 4 2 0.58 0.03
4 4 3 2.87 0.09
4 4 4 1.64 0.06
4 4 5 20.56 0.46
4 4 6 13.74 0.33
4 4 7 41.61 0.92
4 4 8 21.58 0.52
4 4 9 0.97 0.06
4 4 10 1.37 0.07
4 4 11 0.46 0.05
4 4 12 0.31 0.04
4 4 13 0.56 0.04
4 4 14 21.64 0.49
4 4 15 5.16 0.19
4 4 17 18.63 0.43
4 4 18 0.23 0.06
4 4 20 1.97 0.23
4 5 0 0.18 0.03
4 5 1 2.01 0.06
4 5 2 0.89 0.04
4 5 3 3.55 0.1
4 5 4 23.23 0.54
4 5 5 2.13 0.08
4 5 6 9.92 0.25
4 5 7 0.16 0.03
4 5 8 2.19 0.08
4 5 10 15.81 0.36
4 5 11 7.75 0.19
4 5 12 2.09 0.08
4 5 16 8.12 0.21
4 5 17 1.2 0.17
4 6 0 1 0.06
4 6 1 3.84 0.11
4 6 2 0.62 0.04
4 6 3 0.69 0.04
4 6 5 2.99 0.09
4 6 7 0.83 0.05
4 6 8 2.27 0.08
4 6 9 1.86 0.11
4 6 12 0.23 0.06
4 6 14 1.79 0.1
4 7 0 0.3 0.04
4 7 1 5.18 0.16
4 7 2 0.87 0.06
4 7 3 0.16 0.04
4 7 4 0.15 0.03
4 7 5 1.02 0.05
4 7 6 7.02 0.2
4 7 7 0.56 0.06
4 7 8 4.05 0.15
4 7 9 0.27 0.05
5 0 0 67.01 2.33
5 0 2 669.94 20.01
5 0 4 12.05 0.61
5 0 6 6.95 0.2
5 0 8 146.9 3.23
5 0 10 72.52 1.58
5 0 12 17.08 0.38
5 0 14 15.87 0.97
5 0 16 15.72 0.48
5 0 18 1.85 0.25
5 0 20 2.08 0.25
5 1 0 0.49 0.12
5 1 1 112.51 2.87
5 1 2 57.98 1.77
5 1 3 1.85 0.09
5 1 4 40.2 0.94
5 1 5 1.26 0.08
5 1 6 81.52 1.91
5 1 7 5.02 0.12
5 1 8 1.45 0.05
5 1 9 1.9 0.07
5 1 10 0.81 0.07
5 1 11 29.63 0.67
5 1 12 56.11 1.27
5 1 13 16.94 0.4
5 1 14 0.36 0.05
5 1 15 18.62 0.47
5 1 18 5.44 0.54
5 1 19 0.79 0.14
5 1 20 1.28 0.2
5 1 21 23.93 0.53
5 2 0 24.17 0.83
5 2 1 26.29 0.59
5 2 2 3.35 0.13
5 2 3 24.46 0.57
5 2 4 61.42 1.35
5 2 5 15.27 0.35
5 2 6 49.02 1.12
5 2 7 4.34 0.12
5 2 8 14.15 0.35
5 2 9 10.91 0.31
5 2 10 40.46 0.94
5 2 11 10.68 0.25
5 2 12 22.15 0.5
5 2 14 6.11 0.16
5 2 16 11.57 0.39
5 2 17 24.9 0.67
5 2 18 3 0.12
5 2 19 3.01 0.14
5 2 20 18.09 0.54
5 2 21 2.77 0.12
5 3 0 123.67 2.75
5 3 1 27.54 0.61
5 3 2 5.52 0.14
5 3 3 4.55 0.11
5 3 4 4.01 0.1
5 3 5 41.76 0.92
5 3 6 92.17 2.05
5 3 7 4.95 0.12
5 3 8 3.34 0.09
5 3 9 0.31 0.04
5 3 10 39.11 0.9
5 3 11 22.24 0.5
5 3 12 0.62 0.05
5 3 13 4.29 0.12
5 3 14 30.52 0.68
5 3 15 0.83 0.1
5 3 16 32.87 0.75
5 3 19 4.33 0.2
5 4 0 9.44 0.22
5 4 1 4.67 0.12
5 4 3 1.42 0.06
5 4 4 26.23 0.59
5 4 5 19.36 0.43
5 4 6 8.92 0.21
5 4 7 19.61 0.47
5 4 9 7.94 0.19
5 4 10 15.83 0.36
5 4 11 2.73 0.09
5 4 12 0.58 0.07
5 4 14 2.58 0.12
5 4 15 12.52 0.29
5 4 16 1.48 0.09
5 4 17 5.29 0.15
5 4 18 7.53 0.35
5 4 19 1.68 0.23
5 5 0 5.49 0.14
5 5 2 4.92 0.15
5 5 3 1.19 0.06
5 5 4 3.65 0.11
5 5 5 0.41 0.04
5 5 6 6.76 0.17
5 5 7 1.36 0.08
5 5 8 7.39 0.19
5 5 9 0.39 0.04
5 5 10 0.23 0.04
5 5 13 0.46 0.06
5 5 14 2.98 0.14
5 5 15 1.06 0.07
5 5 16 2.9 0.15
5 6 0 7.42 0.19
5 6 1 4.73 0.16
5 6 2 4.42 0.2
5 6 3 2.18 0.09
5 6 4 1.76 0.08
5 6 5 8.09 0.25
5 6 6 3.19 0.11
5 6 7 12.02 0.28
5 6 8 0.82 0.05
5 6 9 2.39 0.09
5 6 10 0.2 0.06
5 6 11 0.34 0.06
5 6 12 0.68 0.06
5 6 13 0.27 0.06
5 7 0 1.87 0.1
5 7 1 9.04 0.22
5 7 2 1.65 0.08
5 7 3 2.06 0.08
5 7 4 1.26 0.07
5 7 5 1 0.09
5 7 6 0.56 0.05
5 7 7 0.95 0.06
6 0 0 235.45 6.84
6 0 2 29.57 0.67
6 0 4 1.6 0.06
6 0 6 47.78 1.08
6 0 8 15.91 0.49
6 0 10 34.31 0.73
6 0 12 93.02 2.26
6 0 14 4.34 0.27
6 0 16 2.02 0.25
6 0 18 12.08 0.44
6 0 20 23.66 0.58
6 1 0 0.68 0.15
6 1 1 186.98 4.43
6 1 2 61.15 1.35
6 1 3 22.64 0.5
6 1 4 55.62 1.22
6 1 5 59.62 1.31
6 1 6 21.79 0.49
6 1 7 12.14 0.27
6 1 8 42.97 0.93
6 1 9 35.37 0.78
6 1 10 0.3 0.03
6 1 11 32.6 0.72
6 1 12 0.7 0.05
6 1 13 14 0.33
6 1 15 1.96 0.09
6 1 16 26.76 0.64
6 1 17 0.4 0.06
6 1 18 3.21 0.12
6 1 19 6.11 0.19
6 1 21 1.8 0.24
6 2 1 9.45 0.22
6 2 2 0.09 0.02
6 2 3 14.03 0.31
6 2 4 48.85 1.12
6 2 5 99.95 2.23
6 2 6 2.21 0.07
6 2 7 1.14 0.05
6 2 8 5.32 0.18
6 2 9 34.69 0.83
6 2 10 1.5 0.06
6 2 11 5.91 0.15
6 2 12 3.46 0.1
6 2 13 7.15 0.18
6 2 14 34.94 0.84
6 2 15 15.65 0.37
6 2 16 7.9 0.22
6 2 17 1.39 0.13
6 2 18 0.71 0.07
6 2 20 2.97 0.2
6 3 0 0.49 0.06
6 3 2 0.76 0.04
6 3 3 0.88 0.05
6 3 4 0.32 0.03
6 3 5 0.16 0.02
6 3 6 0.24 0.04
6 3 7 5.19 0.14
6 3 8 6.33 0.17
6 3 9 3.93 0.11
6 3 10 33.29 0.85
6 3 11 1.7 0.07
6 3 12 1.38 0.07
6 3 13 0.58 0.05
6 3 15 12.21 0.3
6 3 16 5.82 0.18
6 3 17 0.54 0.07
6 3 18 8.79 0.33
6 3 19 0.22 0.07
6 4 0 17.3 0.39
6 4 2 27.3 0.61
6 4 3 0.28 0.04
6 4 4 6.39 0.16
6 4 5 15.35 0.35
6 4 6 0.84 0.05
6 4 7 2.12 0.07
6 4 8 0.12 0.04
6 4 9 7.89 0.19
6 4 10 19.27 0.48
6 4 11 1.84 0.11
6 4 12 0.27 0.04
6 4 14 3.12 0.1
6 4 15 4.79 0.15
6 4 16 4 0.29
6 5 0 27.82 0.65
6 5 1 4.48 0.14
6 5 2 0.21 0.05
6 5 3 0.7 0.05
6 5 4 15.81 0.37
6 5 6 47.63 1.06
6 5 7 3.1 0.11
6 5 8 0.66 0.05
6 5 9 1.42 0.1
6 5 10 0.44 0.05
6 5 12 0.62 0.06
6 5 13 1.71 0.08
6 5 14 8.62 0.21
6 6 0 12.95 0.3
6 6 1 2.2 0.11
6 6 2 4.99 0.14
6 6 3 5.49 0.16
6 6 4 0.3 0.05
6 6 5 1.22 0.07
6 6 7 1.93 0.14
6 6 8 0.91 0.06
6 6 9 0.56 0.06
6 6 10 7.63 0.41
6 6 11 5.37 0.25
6 7 0 1.86 0.1
6 7 1 0.6 0.07
6 7 2 0.65 0.05
6 7 4 0.16 0.04
6 7 5 0.33 0.06
7 0 0 111.89 2.32
7 0 2 35.88 0.77
7 0 4 275.48 6.1
7 0 6 1.1 0.07
7 0 8 44.41 1.06
7 0 10 60.46 1.27
7 0 12 17.42 0.51
7 0 14 12.09 0.45
7 0 16 8.76 0.39
7 0 18 16.97 0.51
7 1 0 84.01 1.86
7 1 1 1.17 0.04
7 1 2 0.2 0.02
7 1 3 7.59 0.17
7 1 4 35.36 0.82
7 1 5 40.88 0.95
7 1 6 1.06 0.05
7 1 7 1.4 0.08
7 1 8 46.97 1.06
7 1 10 3.38 0.1
7 1 11 17.38 0.39
7 1 12 15.56 0.36
7 1 13 15.49 0.36
7 1 14 24.15 0.54
7 1 15 22.81 0.52
7 1 17 3.57 0.12
7 1 18 0.36 0.11
7 1 19 4.45 0.3
7 2 0 35.86 0.79
7 2 1 10.78 0.26
7 2 2 6.61 0.16
7 2 3 4.87 0.12
7 2 4 0.63 0.04
7 2 5 0.77 0.04
7 2 6 5.96 0.15
7 2 7 3.41 0.1
7 2 8 7.46 0.18
7 2 9 21.06 0.47
7 2 10 0.95 0.05
7 2 11 10.25 0.25
7 2 12 0.42 0.04
7 2 13 4.04 0.14
7 2 14 6.61 0.21
7 2 15 12.13 0.29
7 2 16 1.14 0.08
7 2 18 3.91 0.27
7 2 19 16.11 0.48
7 3 0 0.62 0.04
7 3 1 28.51 0.63
7 3 2 22.78 0.52
7 3 3 15.53 0.37
7 3 4 14.36 0.34
7 3 5 1.06 0.05
7 3 6 6.92 0.17
7 3 7 3.47 0.1
7 3 8 12.5 0.29
7 3 9 10.23 0.25
7 3 10 1.98 0.07
7 3 12 3.69 0.11
7 3 13 1.67 0.07
7 3 14 0.28 0.06
7 3 16 2.08 0.1
7 3 17 0.61 0.08
7 4 0 10.2 0.24
7 4 1 1.5 0.06
7 4 2 1.79 0.07
7 4 3 1.14 0.09
7 4 4 2.71 0.09
7 4 5 21.47 0.51
7 4 6 31.26 0.71
7 4 7 0.15 0.04
7 4 9 10.58 0.25
7 4 10 0.32 0.06
7 4 12 4.96 0.14
7 4 13 0.31 0.04
7 4 14 7.17 0.18
7 4 15 3.5 0.13
7 4 16 1.32 0.21
7 5 0 14.31 0.4
7 5 2 13.01 0.36
7 5 3 1.39 0.08
7 5 4 2.53 0.12
7 5 6 1.21 0.08
7 5 7 0.24 0.04
7 5 8 3.97 0.13
7 5 10 21.71 0.49
7 5 11 1.38 0.08
7 5 12 1.39 0.09
7 6 0 0.81 0.07
7 6 2 2.42 0.09
7 6 3 0.15 0.04
7 6 4 4.16 0.13
7 6 5 4.51 0.17
7 6 6 3.6 0.1
7 6 7 3.78 0.12
7 6 8 3.45 0.1
7 6 9 4.9 0.15
7 7 0 0.3 0.06
7 7 1 0.73 0.16
8 0 0 28.15 0.63
8 0 2 14.67 0.39
8 0 4 65.84 1.45
8 0 6 4.54 0.26
8 0 8 29.74 0.88
8 0 10 0.65 0.11
8 0 12 24.72 0.68
8 0 14 83.39 2.02
8 0 16 1.02 0.21
8 1 1 0.41 0.03
8 1 2 2.2 0.07
8 1 3 86.38 1.94
8 1 4 33.87 0.75
8 1 6 4.2 0.11
8 1 7 0.34 0.03
8 1 8 19.56 0.44
8 1 9 9.71 0.23
8 1 10 18.69 0.44
8 1 11 6.3 0.17
8 1 12 4.28 0.14
8 1 13 11.35 0.28
8 1 15 1.56 0.11
8 1 16 0.62 0.08
8 1 18 20.92 0.55
8 2 0 42.42 0.94
8 2 1 21.69 0.5
8 2 2 0.17 0.03
8 2 3 5.04 0.13
8 2 4 14.31 0.34
8 2 5 7.59 0.2
8 2 7 35.92 0.79
8 2 8 4.39 0.12
8 2 9 0.15 0.04
8 2 10 15.58 0.38
8 2 11 0.15 0.04
8 2 13 3.98 0.12
8 2 14 0.45 0.06
8 2 15 2.55 0.11
8 2 16 2.12 0.09
8 2 17 0.88 0.08
8 3 0 17.52 0.4
8 3 1 0.19 0.03
8 3 2 9.63 0.23
8 3 3 0.59 0.04
8 3 4 11.22 0.27
8 3 5 18.24 0.44
8 3 6 14.45 0.35
8 3 7 0.11 0.03
8 3 8 3.78 0.11
8 3 10 2.69 0.11
8 3 11 5.88 0.18
8 3 12 3.46 0.12
8 3 13 6.66 0.17
8 3 14 5.8 0.26
8 3 15 1.21 0.1
8 3 16 2.45 0.09
8 4 0 0.11 0.04
8 4 1 2.34 0.08
8 4 2 14.62 0.34
8 4 3 2.58 0.09
8 4 4 2.46 0.09
8 4 5 2.84 0.11
8 4 6 3.87 0.14
8 4 7 4.33 0.14
8 4 9 12.87 0.31
8 4 10 6.09 0.16
8 4 11 0.29 0.05
8 4 12 6.26 0.17
8 4 13 0.2 0.06
8 5 0 1.07 0.06
8 5 1 0.14 0.04
8 5 2 7.1 0.2
8 5 3 3.98 0.16
8 5 4 0.92 0.05
8 5 6 7.05 0.24
8 5 7 2.19 0.15
8 5 8 21.25 0.48
8 5 9 3.03 0.11
8 5 10 0.85 0.08
8 5 11 0.42 0.04
8 6 0 0.18 0.04
8 6 1 0.51 0.04
8 6 2 5.29 0.17
8 6 3 1.53 0.07
8 6 4 2.94 0.09
9 0 0 18.75 0.41
9 0 2 47.68 1.1
9 0 4 4.65 0.15
9 0 6 27.47 0.62
9 0 10 13.85 0.48
9 0 12 8.91 0.41
9 0 16 0.72 0.2
9 1 0 33.56 0.76
9 1 1 0.25 0.03
9 1 2 4.73 0.12
9 1 3 26.96 0.6
9 1 4 2.57 0.08
9 1 5 6.28 0.16
9 1 6 7.85 0.19
9 1 7 13 0.31
9 1 8 1.71 0.07
9 1 9 2.08 0.08
9 1 10 9.4 0.24
9 1 12 0.94 0.07
9 1 13 27.01 0.61
9 1 14 9.02 0.24
9 1 15 0.95 0.09
9 1 16 2.13 0.23
9 2 0 1.84 0.07
9 2 1 3.5 0.1
9 2 2 37.08 0.83
9 2 3 5.22 0.13
9 2 4 36.19 0.83
9 2 5 3.34 0.11
9 2 6 3.05 0.09
9 2 7 1.75 0.08
9 2 8 2.36 0.08
9 2 9 15.57 0.36
9 2 10 1.97 0.07
9 2 11 8.91 0.22
9 2 12 6.48 0.17
9 2 14 7.58 0.19
9 2 15 2.58 0.1
9 3 0 2.42 0.09
9 3 1 6.71 0.17
9 3 2 2.5 0.08
9 3 3 15.18 0.35
9 3 4 6.8 0.18
9 3 5 1.26 0.08
9 3 6 16.88 0.39
9 3 7 0.24 0.05
9 3 8 16.48 0.41
9 3 9 0.2 0.03
9 3 10 2.89 0.08
9 3 11 4.11 0.11
9 3 12 4.84 0.13
9 3 13 0.31 0.04
9 3 14 1.13 0.26
9 4 1 2.47 0.09
9 4 2 13.36 0.32
9 4 5 0.3 0.05
9 4 6 5.16 0.14
9 4 7 18.75 0.43
9 4 8 12.89 0.33
9 4 9 5.21 0.14
9 4 10 1.03 0.1
9 4 11 0.2 0.06
9 5 1 0.88 0.06
9 5 2 4.36 0.14
9 5 3 1.58 0.08
9 5 4 1.12 0.05
9 5 5 0.95 0.07
9 5 8 5.47 0.14
9 6 1 1.71 0.09
10 0 0 8.35 0.22
10 0 2 2.96 0.12
10 0 4 14.67 0.38
10 0 6 17.68 0.48
10 0 8 0.9 0.21
10 0 10 11.62 0.45
10 0 12 11.72 0.45
10 0 14 3.23 0.28
10 1 0 9.81 0.23
10 1 1 32.75 0.73
10 1 3 8.63 0.21
10 1 4 9.64 0.25
10 1 5 3.53 0.12
10 1 6 7.92 0.2
10 1 8 1.39 0.07
10 1 9 1.23 0.08
10 1 10 5.37 0.19
10 1 11 3.79 0.13
10 1 12 0.66 0.09
10 1 13 1.61 0.11
10 1 14 5.42 0.39
10 2 0 9.6 0.27
10 2 1 1.89 0.07
10 2 2 29.11 0.81
10 2 3 8 0.2
10 2 4 1.49 0.07
10 2 5 10.26 0.25
10 2 6 7.3 0.18
10 2 7 3.83 0.11
10 2 8 3.31 0.1
10 2 9 0.41 0.05
10 2 10 6.52 0.16
10 2 11 1.27 0.06
10 2 12 15.91 0.42
10 2 13 0.86 0.06
10 3 0 0.73 0.05
10 3 1 1.21 0.06
10 3 2 19.15 0.43
10 3 3 3.99 0.11
10 3 4 3.52 0.1
10 3 5 0.17 0.04
10 3 6 13.91 0.42
10 3 7 11.96 0.35
10 3 8 24.55 0.55
10 3 9 0.5 0.05
10 3 10 1.03 0.05
10 3 11 0.91 0.08
10 4 0 2.61 0.09
10 4 1 5.26 0.14
10 4 3 1.6 0.09
10 4 4 3.4 0.11
10 4 5 1.06 0.06
10 4 6 0.83 0.06
10 4 7 7.22 0.2
10 4 8 0.51 0.05
10 4 9 0.29 0.05
10 5 0 2.02 0.08
10 5 1 2.56 0.09
10 5 2 0.67 0.04
10 5 3 0.46 0.04
10 5 4 1.81 0.07
10 5 5 0.84 0.06
11 0 0 34.21 0.75
11 0 2 25.46 0.59
11 0 6 2.37 0.12
11 0 10 0.8 0.21
11 1 1 3.87 0.13
11 1 2 8.3 0.21
11 1 3 11.49 0.27
11 1 4 1.68 0.07
11 1 5 12.7 0.36
11 1 6 3.73 0.12
11 1 7 4.62 0.14
11 1 8 0.23 0.05
11 1 9 1.39 0.08
11 1 10 5.49 0.16
11 1 11 9.88 0.42
11 2 0 0.11 0.04
11 2 1 12.01 0.29
11 2 3 0.86 0.07
11 2 4 6.91 0.2
11 2 6 19.24 0.44
11 2 7 16.38 0.37
11 2 8 2.75 0.09
11 2 9 0.85 0.06
11 2 10 0.97 0.06
11 3 0 19.66 0.44
11 3 1 2.2 0.08
11 3 2 1.23 0.07
11 3 3 1.53 0.08
11 3 4 3.16 0.1
11 3 5 0.78 0.06
11 3 6 2.34 0.11
11 3 8 1.37 0.07
11 4 0 1.56 0.07
11 4 1 3.7 0.14
11 4 2 3.53 0.14
11 4 3 0.31 0.05
11 4 4 6.85 0.17
11 4 5 0.6 0.05
12 0 0 1.68 0.11
12 0 2 20.85 0.47
12 0 4 8.24 0.3
12 0 6 20.31 0.56
12 0 8 0.46 0.07
12 1 0 8.87 0.21
12 1 1 3.32 0.1
12 1 2 8.45 0.21
12 1 3 3.34 0.1
12 1 4 0.51 0.04
12 1 5 3.67 0.12
12 1 6 12.25 0.32
12 1 7 2.56 0.09
12 1 8 0.98 0.06
12 2 0 0.67 0.04
12 2 3 2.16 0.07
12 2 4 4.06 0.12
12 2 5 2.7 0.19
12 2 6 0.98 0.11
12 2 7 1.09 0.07
12 3 0 4.54 0.12
12 3 1 0.24 0.04
12 3 2 0.18 0.04
12 3 3 2.85 0.09
12 3 4 4.92 0.13
12 3 5 3.76 0.13
12 4 0 4.53 0.28
13 0 0 0.22 0.05
13 0 2 11.93 0.28
13 0 4 9.47 0.23
13 1 0 1.31 0.06
13 1 1 2.32 0.08
13 1 2 1.42 0.07
13 1 3 2.49 0.11
13 1 4 1.02 0.24
13 2 0 1.01 0.06
13 2 1 3.02 0.13
13 2 2 2.62 0.1
