#------------------------------------------------------------------------------
#$Date: 2020-04-10 08:09:17 +0300 (Fri, 10 Apr 2020) $
#$Revision: 250598 $
#$URL: file:///home/coder/svn-repositories/cod/cif/2/02/20/2022019.cif $
#------------------------------------------------------------------------------
#
# This file is available in the Crystallography Open Database (COD),
# http://www.crystallography.net/. The original data for this entry
# were provided by IUCr Journals, http://journals.iucr.org/.
#
# The file may be used within the scientific community so long as
# proper attribution is given to the journal article from which the
# data were obtained.
#
data_2022019
loop_
_publ_author_name
'Jha, Kunal Kumar'
'Gruza, Barbara'
'Kumar, Prashant'
'Chodkiewicz, Michal Leszek'
'Dominiak, Paulina Maria'
_publ_section_title
;
 TAAM: a reliable and user friendly tool for hydrogen-atom location using
 routine X-ray diffraction data
;
_journal_issue                   3
_journal_name_full
'Acta Crystallographica Section B Structural Science, Crystal Engineering and Materials'
_journal_paper_doi               10.1107/S2052520620002917
_journal_volume                  76
_journal_year                    2020
_chemical_formula_moiety         'C H O2, H2 O'
_chemical_formula_sum            'C H3 O3'
_chemical_formula_weight         63.03
_space_group_crystal_system      monoclinic
_space_group_IT_number           14
_space_group_name_Hall           '-P 2ybc'
_space_group_name_H-M_alt        'P 1 21/c 1'
_symmetry_Int_Tables_number      14
_audit_creation_date             2019-09-27
_audit_creation_method
;
Olex2 1.2
(compiled 2018.05.29 svn.r3508 for OlexSys, GUI svn.r5506)
;
_cell_angle_alpha                90.00
_cell_angle_beta                 103.9387(9)
_cell_angle_gamma                90.00
_cell_formula_units_Z            4
_cell_length_a                   6.0954(2)
_cell_length_b                   3.4948(1)
_cell_length_c                   11.8499(3)
_cell_measurement_temperature    100(1)
_cell_volume                     244.996(12)
_computing_molecular_graphics    'Olex2 (Dolomanov et al., 2009)'
_computing_publication_material  'Olex2 (Dolomanov et al., 2009)'
_computing_structure_refinement  'olex2.refine (Bourhis et al., 2015)'
_diffrn_ambient_temperature      100(1)
_diffrn_measured_fraction_theta_full 0.9494
_diffrn_measured_fraction_theta_max 0.9494
_diffrn_measurement_device_type  'APEX II CCD detector'
_diffrn_radiation_type           'Mo K\a'
_diffrn_radiation_wavelength     0.71073
_diffrn_reflns_av_R_equivalents  0.0000
_diffrn_reflns_av_unetI/netI     0.0336
_diffrn_reflns_limit_h_max       13
_diffrn_reflns_limit_h_min       -14
_diffrn_reflns_limit_k_max       8
_diffrn_reflns_limit_k_min       0
_diffrn_reflns_limit_l_max       27
_diffrn_reflns_limit_l_min       0
_diffrn_reflns_number            2755
_diffrn_reflns_theta_full        26.4754
_diffrn_reflns_theta_max         26.48
_diffrn_reflns_theta_min         3.44
_exptl_absorpt_coefficient_mu    0.181
_exptl_crystal_density_diffrn    1.7088
_exptl_crystal_F_000             132.1419
_refine_diff_density_max         0.1241
_refine_diff_density_min         -0.1438
_refine_diff_density_rms         0.0442
_refine_ls_d_res_high            0.7971
_refine_ls_d_res_low             5.9159
_refine_ls_goodness_of_fit_ref   1.2389
_refine_ls_hydrogen_treatment    refall
_refine_ls_matrix_type           full
_refine_ls_number_constraints    0
_refine_ls_number_parameters     64
_refine_ls_number_reflns         488
_refine_ls_number_restraints     0
_refine_ls_restrained_S_all      1.2389
_refine_ls_R_factor_all          0.0176
_refine_ls_R_factor_gt           0.0176
_refine_ls_shift/su_max          0.0001
_refine_ls_shift/su_mean         0.0000
_refine_ls_structure_factor_coef Fsqd
_refine_ls_weighting_details
'w=1/[\s^2^(Fo^2^)+(0.0181P)^2^] where P=(Fo^2^+2Fc^2^)/3'
_refine_ls_weighting_scheme      calc
_refine_ls_wR_factor_gt          0.0467
_refine_ls_wR_factor_ref         0.0467
_reflns_Friedel_coverage         0.0
_reflns_limit_h_max              7
_reflns_limit_h_min              -7
_reflns_limit_k_max              4
_reflns_limit_k_min              0
_reflns_limit_l_max              14
_reflns_limit_l_min              0
_reflns_number_gt                488
_reflns_number_total             488
_reflns_threshold_expression     I>=2u(I)
_iucr_refine_instructions_details
;
TITL oxa09
CELL 0.71073 6.0954 3.4948 11.8499 90 103.939 90
ZERR 4 0 0 0 0 0 0
LATT 1
SYMM -X,0.5+Y,0.5-Z
SFAC C H O
UNIT 4 12 12

FREE O3 H1
ACTA 
BOND $H
OMIT -10 53
WGHT 0.018108 0
FVAR 1.021195
REM <olex2.extras>
REM <HklSrc "%.\\ec8c3685f74af9cf33eaad97dcd12f3a.hkl">
REM </olex2.extras>

O1    3     0.43465  0.44435  0.34992  11.00000  0.01371  0.01838  0.00969 =
 -0.00057  0.00251  0.00387 
O2    3     0.24272  0.74216  0.46366  11.00000  0.01192  0.01848  0.00911 =
 -0.00074  0.00056  0.00496 
C1    1     0.40298  0.55870  0.44788  11.00000  0.00974  0.01223  0.00918 =
 0.00064  0.00057  0.00145 
O3    3     0.12988  0.63092  0.17818  11.00000  0.01112  0.01818  0.00985 =
 0.00149  0.00018 -0.00067 
H3a   2     0.01106  0.45824  0.14883  11.00000  0.02259  0.02639  0.02810 =
 0.00336  0.01213 -0.01017 
H3b   2     0.18496  0.69088  0.11222  11.00000  0.01938  0.03549  0.01760 =
 0.01416  0.01484 -0.00347 
H1    2     0.30127  0.52561  0.28063  11.00000  0.03217  0.03069  0.04087 =
 -0.00504  0.01667 -0.00280 
HKLF 4

END
Q1 1 0.5 1 0.5 11 0.05 0.12
Q2 1 0.3 1.083333 0.175 11 0.05 0.11
Q3 1 0.25 0.083333 0.3 11 0.05 0.1
Q4 1 -0.15 0.416667 0.125 11 0.05 0.1
Q5 1 0.15 0.416667 0.375 11 0.05 0.1
Q6 1 0.3 0.333333 0.225 11 0.05 0.09
Q7 1 0.5 0.25 0.45 11 0.05 0.09
Q8 1 0.05 0.916667 0.075 11 0.05 0.09
Q9 1 0.55 0.75 0.325 11 0.05 0.08
Q10 1 0.7 0.666667 0.425 11 0.05 0.08
Q11 1 0.35 0.583333 0.05 11 0.05 0.08
Q12 1 0.35 1.083333 0.425 11 0.05 0.06
Q13 1 0 1 0.5 11 0.05 0.04
Q14 1 0.2 0.5 0.275 11 0.05 0.03
Q15 1 0 0.166667 0.225 11 0.05 0.02

  REM The information below was added by Olex2.
  REM
  REM R1 = 0.0176 for 488 Fo > 4sig(Fo) and 0.0176 for all 488 data
  REM 64 parameters refined using 0 restraints
  REM Highest difference peak 0.1241, deepest hole -0.1438
  REM Mean Shift 0.0000, Max Shift 0.0001.

  REM +++ Tabular Listing of Refinement Information +++
  REM R1_all = 0.0176
  REM R1_gt = 0.0176
  REM wR_ref = 0.0467
  REM GOOF = 1.2389
  REM Shift_max = 0.0001
  REM Shift_mean = 0.0000
  REM Reflections_all = 488
  REM Reflections_gt = 488
  REM Parameters = 64
  REM Hole = -0.1438
  REM Peak = 0.1241
  REM Flack = n/a

  
;
_cod_data_source_file            62_TAAM_ANIS_0.8.cif
_cod_data_source_block           62_TAAM_ANIS_0.8
_cod_original_cell_volume        245.00(1)
_cod_database_code               2022019
_olex2_refinement_description
;
;
_iucr_refine_fcf_details
;
data_oxa09
_computing_structure_refinement   'olex2.refine (Bourhis et al., 2015)'
_shelx_refln_list_code            4
loop_
  _space_group_symop_id
  _space_group_symop_operation_xyz
  1  x,y,z
  2  -x,y+1/2,-z+1/2
  3  -x,-y,-z
  4  x,-y-1/2,z-1/2

_space_group_crystal_system       monoclinic
_space_group_IT_number            14
_space_group_name_H-M_alt         'P 1 21/c 1'
_space_group_name_Hall            '-P 2ybc'
_symmetry_space_group_name_H-M    'P 1 21/c 1'
_symmetry_space_group_name_Hall   '-P 2ybc'
_symmetry_Int_Tables_number       14
_cell_length_a                    6.0954
_cell_length_b                    3.4948
_cell_length_c                    11.8499
_cell_angle_alpha                 90
_cell_angle_beta                  103.939
_cell_angle_gamma                 90
_cell_volume                      244.995644
loop_
  _refln_index_h
  _refln_index_k
  _refln_index_l
  _refln_F_squared_calc
  _refln_F_squared_meas
  _refln_F_squared_sigma
  _refln_F_squared_weight
  _refln_observed_status
-7 0 2 13.401 13.243 0.729 14.227 o
-7 0 4 38.528 39.364 1.611 2.715 o
-7 0 6 238.965 248.264 11.018 0.060 o
-7 0 8 0.277 0.384 0.115 631.929 o
-7 1 1 17.401 17.136 0.595 18.567 o
-7 1 2 82.736 79.562 2.273 1.141 o
-7 1 3 3.501 3.692 0.221 158.830 o
-7 1 5 2.106 2.090 0.211 182.530 o
-7 1 6 17.783 18.200 0.556 20.228 o
-7 1 7 49.339 47.054 1.151 3.998 o
-6 0 2 173.512 175.876 5.226 0.225 o
-6 0 4 3.197 2.781 0.268 111.601 o
-6 0 6 155.522 161.597 5.907 0.195 o
-6 0 8 1.092 1.218 0.403 51.576 o
-6 0 10 273.733 253.203 11.028 0.058 o
-6 1 1 1.197 1.247 0.134 453.249 o
-6 1 2 6.274 6.358 0.268 98.547 o
-6 1 3 1.065 1.084 0.134 455.878 o
-6 1 4 31.123 30.791 1.026 6.131 o
-6 1 5 90.243 91.510 2.637 0.869 o
-6 1 6 143.437 148.776 4.411 0.318 o
-6 1 7 2.525 2.263 0.316 82.163 o
-6 1 8 2.694 2.838 0.307 86.807 o
-6 1 9 40.895 40.840 1.218 4.130 o
-6 1 10 46.925 45.108 1.400 3.149 o
-6 1 11 3.594 3.663 0.163 271.761 o
-6 2 1 68.210 67.633 1.851 1.697 o
-6 2 2 37.420 40.121 1.199 4.373 o
-6 2 3 58.218 56.960 1.764 1.993 o
-6 2 4 5.282 5.447 0.336 68.762 o
-6 2 5 4.116 3.701 0.278 101.644 o
-6 2 6 1.090 0.892 0.201 205.104 o
-6 2 8 11.999 12.408 0.364 46.323 o
-5 0 2 87.621 86.341 2.445 0.990 o
-5 0 4 16.827 18.056 0.662 15.672 o
-5 0 6 111.009 109.873 3.404 0.538 o
-5 0 8 264.133 253.663 11.008 0.058 o
-5 0 10 93.971 89.285 5.754 0.234 o
-5 0 12 41.702 42.528 1.621 2.618 o
-5 1 1 54.463 56.183 1.534 2.506 o
-5 1 2 244.398 249.866 6.933 0.123 o
-5 1 3 47.393 49.145 1.390 3.120 o
-5 1 4 89.470 89.055 2.445 0.976 o
-5 1 5 29.804 29.075 0.892 7.753 o
-5 1 6 3.685 3.759 0.221 157.798 o
-5 1 7 0.922 0.777 0.125 531.198 o
-5 1 8 16.042 15.630 0.575 20.262 o
-5 1 9 252.875 242.588 7.412 0.111 o
-5 1 10 25.120 24.673 0.786 10.195 o
-5 1 12 23.736 23.743 0.710 12.186 o
-5 2 1 9.256 9.071 0.345 57.102 o
-5 2 2 0.480 0.595 0.096 903.521 o
-5 2 3 4.291 4.200 0.221 153.635 o
-5 2 4 27.500 27.205 0.901 7.923 o
-5 2 5 166.882 171.675 5.485 0.213 o
-5 2 6 76.352 76.953 2.637 0.945 o
-5 2 7 20.663 20.061 0.815 10.463 o
-5 2 8 1.684 2.110 0.173 271.574 o
-5 2 11 39.334 36.746 1.160 4.580 o
-5 3 1 18.887 19.265 0.777 11.620 o
-5 3 3 5.656 5.725 0.355 61.467 o
-5 3 4 10.914 11.210 0.614 20.143 o
-5 3 5 3.545 3.308 0.249 126.897 o
-5 3 6 4.552 4.382 0.221 151.759 o
-5 3 7 14.884 15.909 0.556 21.767 o
-4 0 2 943.886 956.513 26.035 0.009 o
-4 0 4 115.591 123.365 3.606 0.477 o
-4 0 6 43.675 44.331 1.429 3.138 o
-4 0 8 553.891 528.921 17.050 0.022 o
-4 0 10 1.576 1.707 0.192 222.831 o
-4 0 12 239.325 224.138 8.975 0.085 o
-4 0 14 1.782 1.899 0.153 340.589 o
-4 1 1 88.866 88.729 2.378 1.018 o
-4 1 2 56.514 57.209 1.477 2.592 o
-4 1 3 1.597 1.659 0.125 511.509 o
-4 1 4 31.306 34.070 0.949 6.755 o
-4 1 6 171.673 179.356 5.054 0.236 o
-4 1 7 81.718 81.585 2.723 0.873 o
-4 1 8 166.713 161.070 5.715 0.202 o
-4 1 9 42.947 40.562 1.170 4.299 o
-4 1 11 1.777 1.860 0.134 439.351 o
-4 1 12 77.539 78.133 2.570 0.977 o
-4 1 13 14.953 15.141 0.460 29.349 o
-4 2 1 52.069 51.830 1.410 2.919 o
-4 2 2 12.803 12.428 0.432 35.108 o
-4 2 3 76.770 79.015 2.167 1.258 o
-4 2 4 59.803 62.215 1.697 2.053 o
-4 2 5 5.701 5.744 0.249 115.105 o
-4 2 6 5.405 5.341 0.268 102.797 o
-4 2 7 6.497 6.597 0.297 81.950 o
-4 2 8 78.185 84.394 2.695 0.895 o
-4 2 9 13.061 13.348 0.489 28.344 o
-4 2 10 29.800 30.388 0.930 7.229 o
-4 2 11 7.383 7.221 0.345 61.322 o
-4 2 12 0.524 0.537 0.134 463.043 o
-4 3 1 4.894 4.967 0.249 119.668 o
-4 3 2 13.452 12.696 0.508 26.591 o
-4 3 3 22.023 21.442 0.844 9.660 o
-4 3 4 231.698 219.468 8.170 0.100 o
-4 3 5 26.639 27.387 1.055 6.215 o
-4 3 6 8.012 8.323 0.470 34.606 o
-4 3 7 4.695 5.025 0.307 82.451 o
-4 3 8 0.237 0.192 0.058 2521.530 o
-4 3 9 35.695 35.231 0.949 6.377 o
-3 0 2 15.274 14.288 0.547 22.548 o
-3 0 4 87.621 89.419 2.522 0.941 o
-3 0 6 12.024 12.591 0.412 38.313 o
-3 0 8 21.741 20.272 0.700 13.145 o
-3 0 10 3.396 3.855 0.345 68.026 o
-3 0 12 140.383 136.991 4.334 0.334 o
-3 0 14 18.837 17.644 0.719 13.341 o
-3 1 1 322.732 328.775 8.515 0.078 o
-3 1 2 31.366 33.946 0.901 7.275 o
-3 1 3 154.369 163.477 3.999 0.348 o
-3 1 4 225.208 229.824 5.734 0.169 o
-3 1 5 203.754 209.092 5.293 0.200 o
-3 1 6 0.336 0.316 0.048 3593.040 o
-3 1 7 334.592 339.438 9.762 0.063 o
-3 1 8 8.803 7.988 0.316 67.642 o
-3 1 9 60.805 59.348 1.889 1.762 o
-3 1 10 3.377 3.673 0.182 225.749 o
-3 1 11 158.942 157.062 4.373 0.307 o
-3 1 12 53.568 50.430 1.390 2.956 o
-3 1 13 0.668 0.710 0.105 743.680 o
-3 1 14 0.334 0.288 0.067 1847.950 o
-3 2 1 81.461 82.832 2.100 1.269 o
-3 2 2 174.650 178.915 4.699 0.260 o
-3 2 3 288.042 291.914 8.611 0.083 o
-3 2 4 27.425 27.128 0.729 10.809 o
-3 2 5 2.576 2.704 0.163 291.009 o
-3 2 6 132.543 134.067 5.264 0.250 o
-3 2 7 159.401 160.092 8.438 0.105 o
-3 2 8 274.872 276.562 10.673 0.060 o
-3 2 9 50.215 48.876 1.764 2.137 o
-3 2 10 10.368 11.795 0.422 38.728 o
-3 2 11 21.320 22.755 0.681 13.543 o
-3 2 12 2.081 2.100 0.182 242.254 o
-3 3 1 3.752 3.989 0.259 116.746 o
-3 3 2 245.899 247.296 7.058 0.120 o
-3 3 3 3.348 3.270 0.201 189.899 o
-3 3 4 44.422 41.492 1.573 2.713 o
-3 3 5 20.861 19.572 1.132 5.918 o
-3 3 7 3.722 3.797 0.307 84.928 o
-3 3 8 16.645 17.251 0.547 21.407 o
-3 3 9 4.554 4.967 0.182 207.549 o
-3 3 10 19.258 20.550 0.537 20.189 o
-3 4 1 20.326 20.137 1.803 2.478 o
-3 4 2 10.747 10.826 0.585 22.061 o
-3 4 3 57.063 56.317 1.582 2.355 o
-2 0 2 643.885 603.592 16.484 0.021 o
-2 0 4 2027.480 1962.780 55.800 0.002 o
-2 0 6 166.960 172.347 4.785 0.260 o
-2 0 8 452.273 438.591 12.169 0.039 o
-2 0 10 187.056 183.345 5.888 0.182 o
-2 0 12 15.461 16.714 0.681 15.356 o
-2 0 14 56.724 56.001 1.621 2.284 o
-2 1 1 179.562 181.917 4.334 0.285 o
-2 1 2 548.833 557.142 13.176 0.031 o
-2 1 3 20.844 19.984 0.508 21.135 o
-2 1 4 355.062 354.752 8.784 0.071 o
-2 1 5 20.356 20.809 0.662 14.570 o
-2 1 6 5.691 5.715 0.201 163.819 o
-2 1 7 34.188 32.833 1.074 5.494 o
-2 1 8 280.810 287.503 8.275 0.089 o
-2 1 9 22.504 22.487 0.710 12.528 o
-2 1 10 30.995 32.335 1.218 4.641 o
-2 1 11 79.711 80.741 2.464 1.026 o
-2 1 12 8.753 9.167 0.326 63.439 o
-2 1 13 32.622 31.213 0.834 8.104 o
-2 1 14 18.393 18.152 0.527 21.611 o
-2 2 1 149.243 145.046 3.826 0.385 o
-2 2 2 468.637 463.283 12.782 0.036 o
-2 2 3 8.881 9.388 0.326 62.993 o
-2 2 4 23.051 22.007 0.595 16.054 o
-2 2 5 3.174 3.414 0.182 228.758 o
-2 2 6 67.741 67.709 2.004 1.519 o
-2 2 7 33.534 33.255 1.170 4.834 o
-2 2 8 28.795 27.435 1.486 3.392 o
-2 2 9 16.297 16.206 0.700 14.542 o
-2 2 10 87.686 90.196 2.541 0.929 o
-2 2 11 14.128 12.974 0.422 34.956 o
-2 2 12 108.441 106.248 2.838 0.707 o
-2 2 13 28.377 30.148 0.873 8.092 o
-2 3 1 139.296 132.839 4.689 0.298 o
-2 3 2 64.607 65.552 1.975 1.587 o
-2 3 3 1.590 1.295 0.163 307.200 o
-2 3 4 8.974 8.697 0.566 24.245 o
-2 3 5 6.458 6.032 0.316 74.085 o
-2 3 6 351.948 348.567 16.187 0.028 o
-2 3 7 77.027 76.455 3.375 0.629 o
-2 3 8 25.088 24.117 0.681 12.620 o
-2 3 9 7.992 8.017 0.288 80.850 o
-2 3 10 20.468 22.468 0.566 17.979 o
-2 4 1 16.007 17.471 1.295 4.752 o
-2 4 2 58.546 57.506 3.184 0.746 o
-2 4 3 31.643 29.247 1.870 2.202 o
-2 4 4 0.380 0.499 0.105 749.978 o
-2 4 5 33.587 33.754 1.496 3.215 o
-1 0 2 767.329 743.221 19.754 0.014 o
-1 0 4 878.717 829.130 22.774 0.011 o
-1 0 6 208.278 198.746 7.441 0.121 o
-1 0 8 491.770 483.181 16.934 0.023 o
-1 0 10 3.043 2.886 0.163 284.260 o
-1 0 12 109.396 108.924 3.490 0.521 o
-1 0 14 47.297 48.646 1.429 3.007 o
-1 1 1 2927.250 2614.710 80.338 0.001 o
-1 1 2 140.181 154.281 4.104 0.354 o
-1 1 3 331.019 335.651 8.822 0.074 o
-1 1 4 239.007 252.551 7.259 0.116 o
-1 1 5 1.127 1.016 0.086 1070.180 o
-1 1 6 0.433 0.479 0.077 1409.450 o
-1 1 7 414.476 410.245 13.550 0.035 o
-1 1 8 92.089 89.055 2.330 1.029 o
-1 1 9 167.126 169.815 7.269 0.135 o
-1 1 11 72.962 69.378 2.388 1.135 o
-1 1 12 84.430 83.273 2.177 1.189 o
-1 1 13 5.829 5.581 0.240 122.811 o
-1 1 14 45.721 44.743 1.237 3.802 o
-1 2 1 142.097 133.079 3.471 0.456 o
-1 2 2 7.994 7.623 0.278 85.903 o
-1 2 3 169.971 163.381 6.166 0.178 o
-1 2 4 226.983 220.734 5.840 0.165 o
-1 2 5 476.875 471.875 14.144 0.031 o
-1 2 6 17.751 18.258 0.748 12.618 o
-1 2 7 1.344 1.227 0.182 248.497 o
-1 2 8 46.200 45.453 1.899 1.952 o
-1 2 9 7.664 7.911 0.403 46.117 o
-1 2 10 179.936 182.214 5.686 0.195 o
-1 2 11 70.891 72.609 2.014 1.464 o
-1 2 12 33.362 33.188 0.911 7.027 o
-1 2 13 12.516 12.706 0.422 36.483 o
-1 3 2 30.580 30.053 1.084 5.678 o
-1 3 3 13.164 13.022 0.499 27.496 o
-1 3 4 55.033 53.508 1.966 1.733 o
-1 3 5 0.963 0.508 0.153 353.082 o
-1 3 6 103.096 103.889 4.133 0.407 o
-1 3 7 1.735 1.678 0.268 114.811 o
-1 3 8 6.264 6.147 0.278 93.158 o
-1 3 9 1.033 1.170 0.144 398.073 o
-1 3 10 31.394 31.165 0.758 9.367 o
-1 4 1 5.683 5.370 0.710 16.327 o
-1 4 2 9.706 9.858 0.930 9.357 o
-1 4 4 0.466 0.374 0.096 906.056 o
-1 4 5 58.668 60.469 4.104 0.466 o
-1 4 6 77.417 86.168 5.782 0.236 o
0 0 2 139.817 141.335 5.121 0.257 o
0 0 4 64.800 73.511 1.947 1.585 o
0 0 6 1011.540 1012.820 27.722 0.008 o
0 0 8 282.853 287.762 8.477 0.085 o
0 0 10 388.728 399.918 12.102 0.043 o
0 0 12 13.896 13.665 0.585 20.722 o
0 0 14 51.546 51.897 1.601 2.439 o
0 1 1 453.947 443.980 13.914 0.032 o
0 1 2 90.386 86.149 2.436 0.984 o
0 1 3 19.250 17.443 0.479 24.390 o
0 1 4 1531.210 1473.520 51.974 0.002 o
0 1 5 62.164 70.059 1.736 1.911 o
0 1 6 301.756 314.286 8.189 0.086 o
0 1 7 36.473 36.880 0.921 6.518 o
0 1 8 27.364 28.346 0.748 10.344 o
0 1 9 36.632 36.832 0.997 5.840 o
0 1 10 144.179 149.486 4.075 0.356 o
0 1 11 199.664 197.729 5.226 0.208 o
0 1 13 24.779 25.488 0.690 12.301 o
0 1 14 8.430 8.400 0.288 79.127 o
0 2 0 13.053 12.907 0.585 21.095 o
0 2 1 74.004 70.807 2.004 1.456 o
0 2 2 125.505 125.475 3.289 0.525 o
0 2 4 183.577 173.152 5.466 0.207 o
0 2 5 47.899 49.221 1.458 2.902 o
0 2 6 4.880 5.274 0.249 119.152 o
0 2 7 133.903 140.808 3.941 0.388 o
0 2 9 55.177 56.059 1.793 1.986 o
0 2 10 26.069 25.383 0.738 10.977 o
0 2 11 1.274 1.352 0.134 451.517 o
0 2 12 16.921 17.145 0.527 22.495 o
0 3 1 48.699 46.709 1.697 2.306 o
0 3 2 111.727 114.342 3.673 0.475 o
0 3 3 83.337 84.375 3.145 0.688 o
0 3 4 53.581 53.019 1.918 1.818 o
0 3 5 14.510 15.410 0.690 15.289 o
0 3 7 0.827 0.882 0.221 171.607 o
0 3 8 97.226 95.480 2.838 0.754 o
0 3 9 40.050 40.764 1.381 3.439 o
0 3 10 1.250 1.170 0.077 1315.600 o
0 4 0 2.793 2.896 0.604 22.819 o
0 4 1 11.851 11.881 1.016 7.771 o
0 4 2 55.401 58.494 3.174 0.754 o
0 4 3 3.601 3.701 0.623 21.352 o
0 4 4 11.592 13.434 0.940 9.000 o
0 4 5 73.014 75.736 4.632 0.361 o
1 0 0 370.104 353.362 9.110 0.066 o
1 0 2 10.784 9.877 0.336 56.419 o
1 0 4 1777.310 1681.840 63.289 0.002 o
1 0 6 212.141 209.073 7.825 0.111 o
1 0 8 69.775 70.423 2.100 1.394 o
1 0 10 666.230 678.215 21.662 0.014 o
1 0 12 6.153 6.070 0.297 83.321 o
1 1 0 1571.130 1469.590 39.699 0.004 o
1 1 1 38.943 39.546 1.016 5.462 o
1 1 2 427.139 426.460 11.823 0.042 o
1 1 3 793.505 774.155 20.895 0.013 o
1 1 4 64.633 64.334 1.573 2.185 o
1 1 5 115.691 110.717 2.982 0.637 o
1 1 6 205.463 207.884 5.427 0.193 o
1 1 7 16.744 17.846 0.489 25.025 o
1 1 8 93.759 93.274 2.532 0.904 o
1 1 9 180.497 194.018 5.293 0.214 o
1 1 10 69.730 73.194 1.841 1.665 o
1 1 12 2.003 1.870 0.134 435.027 o
1 1 13 6.517 6.664 0.268 97.275 o
1 2 0 316.544 302.817 8.554 0.080 o
1 2 1 265.766 257.729 7.432 0.108 o
1 2 3 349.115 357.466 10.500 0.056 o
1 2 4 20.006 18.977 0.662 14.857 o
1 2 5 87.210 91.606 2.608 0.894 o
1 2 6 157.096 159.890 4.315 0.313 o
1 2 7 78.796 85.823 2.378 1.073 o
1 2 8 6.025 6.291 0.316 74.629 o
1 2 9 7.423 6.549 0.403 46.890 o
1 2 10 4.353 4.449 0.221 152.647 o
1 2 11 8.356 8.745 0.336 61.560 o
1 2 12 14.058 14.240 0.393 38.137 o
1 3 0 18.245 17.999 0.805 11.080 o
1 3 1 30.408 29.142 1.199 4.844 o
1 3 2 45.768 43.775 1.295 3.580 o
1 3 4 7.531 8.132 0.451 37.660 o
1 3 5 21.672 22.419 0.719 12.430 o
1 3 6 42.697 45.635 1.592 2.655 o
1 3 7 18.449 19.495 1.055 6.828 o
1 3 8 24.075 22.055 0.748 11.350 o
1 3 9 9.573 8.170 0.336 59.986 o
1 4 0 17.308 17.452 1.285 4.793 o
1 4 2 54.541 52.511 2.896 0.898 o
1 4 3 13.604 14.326 1.151 6.048 o
1 4 4 3.182 3.318 0.268 111.085 o
1 4 5 50.212 53.258 5.936 0.232 o
2 0 0 20.691 23.417 0.738 12.014 o
2 0 2 3647.970 3213.550 82.678 0.001 o
2 0 4 6.057 8.122 0.316 72.902 o
2 0 6 3.483 3.960 0.182 223.407 o
2 0 8 92.921 98.299 4.181 0.411 o
2 0 10 32.764 31.807 0.921 7.033 o
2 0 12 74.175 75.640 1.899 1.544 o
2 1 0 363.207 370.172 8.956 0.068 o
2 1 1 64.529 66.597 1.640 2.054 o
2 1 2 2.846 2.637 0.125 464.236 o
2 1 3 446.765 450.846 12.782 0.037 o
2 1 4 9.405 9.263 0.288 75.246 o
2 1 5 18.273 20.454 0.556 19.611 o
2 1 6 416.915 412.585 11.775 0.043 o
2 1 7 30.475 29.583 0.844 8.299 o
2 1 8 45.780 47.879 1.390 3.175 o
2 1 9 176.913 176.086 4.986 0.239 o
2 1 10 41.853 40.783 1.342 3.544 o
2 1 11 1.728 1.793 0.134 440.840 o
2 1 12 23.660 24.136 0.681 12.913 o
2 2 0 509.227 509.206 13.271 0.032 o
2 2 1 1.864 1.659 0.134 439.611 o
2 2 2 3.021 2.982 0.163 283.931 o
2 2 3 17.092 17.308 0.556 20.663 o
2 2 4 1.128 1.055 0.105 727.734 o
2 2 5 148.663 151.452 4.430 0.311 o
2 2 6 9.971 10.539 0.374 48.286 o
2 2 7 55.634 56.778 1.755 2.042 o
2 2 8 53.869 57.075 1.755 2.061 o
2 2 9 74.429 65.993 5.322 0.280 o
2 2 10 73.314 67.134 3.864 0.505 o
2 2 11 30.291 30.992 0.844 8.243 o
2 3 0 12.145 12.303 0.479 30.100 o
2 3 1 27.994 27.761 1.170 5.164 o
2 3 2 87.471 87.099 3.174 0.667 o
2 3 3 4.621 4.612 0.259 113.308 o
2 3 4 211.692 219.880 7.633 0.114 o
2 3 5 7.407 7.758 0.374 52.945 o
2 3 6 2.178 2.560 0.221 166.470 o
2 3 7 27.708 27.463 1.851 2.282 o
2 3 8 1.794 1.630 0.163 304.272 o
2 4 0 12.291 13.022 1.093 6.729 o
2 4 2 1.921 2.119 0.288 99.791 o
2 4 3 52.360 55.780 2.656 1.049 o
3 0 0 385.283 377.872 12.245 0.042 o
3 0 2 176.057 179.558 5.504 0.207 o
3 0 4 19.026 20.933 0.652 15.197 o
3 0 6 579.628 576.484 16.561 0.022 o
3 0 8 11.728 10.356 0.422 38.183 o
3 0 10 1.417 1.266 0.125 519.290 o
3 1 0 105.160 106.076 2.819 0.723 o
3 1 1 434.046 423.804 10.701 0.048 o
3 1 2 433.714 431.955 10.625 0.048 o
3 1 3 39.184 41.090 1.084 4.951 o
3 1 4 11.403 11.267 0.345 51.946 o
3 1 5 4.870 5.293 0.201 171.929 o
3 1 6 4.825 4.603 0.182 206.613 o
3 1 7 27.260 28.528 0.796 9.480 o
3 1 8 35.155 36.343 0.969 6.202 o
3 1 9 1.438 1.458 0.115 602.321 o
3 1 10 82.382 79.907 2.340 1.096 o
3 1 11 13.155 12.629 0.336 49.961 o
3 2 0 1.645 2.052 0.144 386.006 o
3 2 1 7.385 7.767 0.288 82.832 o
3 2 2 269.860 265.515 7.058 0.114 o
3 2 3 102.499 99.737 2.762 0.762 o
3 2 4 91.332 88.873 2.407 0.989 o
3 2 5 61.258 59.472 1.621 2.188 o
3 2 6 41.903 43.593 1.352 3.467 o
3 2 7 3.745 3.730 0.221 157.575 o
3 2 8 100.166 97.397 2.973 0.695 o
3 2 9 2.273 2.158 0.125 488.291 o
3 2 10 11.206 10.586 0.384 44.903 o
3 3 0 68.433 71.008 2.100 1.402 o
3 3 1 2.228 2.081 0.182 241.363 o
3 3 2 19.288 19.677 0.700 13.668 o
3 3 3 95.185 92.191 2.723 0.812 o
3 3 4 104.283 101.895 3.030 0.661 o
3 3 6 18.718 19.725 1.630 3.021 o
3 3 7 2.167 2.158 0.163 298.394 o
3 4 0 6.109 5.955 0.470 36.028 o
4 0 0 44.734 44.388 2.138 1.605 o
4 0 4 36.273 37.302 1.132 4.877 o
4 0 6 12.326 13.137 0.508 27.029 o
4 0 8 1.124 1.045 0.125 526.371 o
4 0 10 4.264 4.219 0.163 258.127 o
4 1 0 2.056 2.416 0.144 377.109 o
4 1 1 146.481 151.682 4.152 0.343 o
4 1 2 184.838 180.095 4.680 0.255 o
4 1 3 207.488 204.749 5.188 0.205 o
4 1 4 3.021 3.021 0.144 354.192 o
4 1 5 90.228 85.843 2.148 1.165 o
4 1 6 38.255 38.961 1.045 5.315 o
4 1 7 8.101 8.285 0.297 76.106 o
4 1 8 27.240 27.953 0.815 9.198 o
4 1 9 19.560 19.898 0.527 20.707 o
4 2 0 113.968 111.954 2.886 0.669 o
4 2 1 74.267 72.130 2.014 1.439 o
4 2 2 283.814 282.901 7.508 0.101 o
4 2 3 52.811 52.952 1.371 2.999 o
4 2 4 15.752 14.585 0.489 26.496 o
4 2 5 0.507 0.547 0.096 903.453 o
4 2 6 6.743 6.780 0.336 65.731 o
4 2 7 148.578 140.837 4.718 0.287 o
4 2 8 0.517 0.662 0.067 1819.300 o
4 3 0 5.641 5.859 0.326 71.688 o
4 3 1 36.096 36.775 1.285 4.025 o
4 3 2 1.040 0.901 0.144 399.159 o
4 3 3 1.287 1.342 0.163 309.131 o
4 3 4 48.812 45.357 1.553 2.656 o
4 3 5 3.311 3.817 0.192 205.831 o
5 0 0 58.290 61.438 2.206 1.394 o
5 0 2 660.086 634.767 19.236 0.016 o
5 0 4 11.803 11.526 0.479 30.517 o
5 0 6 6.143 6.415 0.403 47.944 o
5 0 8 139.571 139.465 3.864 0.393 o
5 1 0 0.361 0.336 0.077 1415.490 o
5 1 1 102.570 104.244 2.723 0.769 o
5 1 2 55.387 57.315 1.477 2.613 o
5 1 3 1.703 1.716 0.115 590.795 o
5 1 4 37.467 38.760 1.064 5.230 o
5 1 5 1.175 1.189 0.115 612.346 o
5 1 6 78.874 77.577 2.100 1.305 o
5 1 7 5.034 4.948 0.182 202.558 o
5 1 8 1.590 1.371 0.077 1263.300 o
5 2 0 23.481 24.078 0.681 12.956 o
5 2 1 25.072 25.411 0.719 11.566 o
5 2 2 3.614 3.423 0.173 247.235 o
5 2 3 24.197 23.283 0.690 12.635 o
5 2 4 60.201 57.852 1.640 2.181 o
5 2 5 14.987 14.489 0.566 21.391 o
5 2 6 48.066 48.924 1.774 2.143 o
5 3 0 118.780 115.368 3.788 0.444 o
5 3 1 25.572 26.457 0.921 7.862 o
5 3 2 5.769 5.351 0.288 90.046 o
6 0 0 221.250 216.524 6.799 0.135 o
6 0 2 27.914 28.096 1.170 5.161 o
6 0 4 1.495 1.410 0.201 203.308 o
6 0 6 41.144 40.227 1.285 3.816 o
6 1 0 0.598 0.585 0.096 900.850 o
6 1 1 179.160 180.939 5.418 0.210 o
6 1 2 58.598 58.743 1.582 2.310 o
6 1 3 21.790 21.998 0.690 13.243 o
6 1 4 54.112 53.910 1.515 2.578 o
6 1 5 58.057 59.530 1.544 2.391 o
6 2 1 9.700 9.225 0.336 58.864 o
6 2 3 13.285 12.552 0.451 32.399 o
7 0 0 103.917 107.140 3.548 0.518 o
7 0 2 33.793 34.320 1.304 4.034 o
7 1 0 79.470 82.208 2.340 1.105 o
7 1 1 0.918 1.122 0.125 528.896 o
;
_olex2_submission_special_instructions 'No special instructions were received'
loop_
_space_group_symop_id
_space_group_symop_operation_xyz
1 x,y,z
2 -x,y+1/2,-z+1/2
3 -x,-y,-z
4 x,-y-1/2,z-1/2
loop_
_atom_site_label
_atom_site_type_symbol
_atom_site_fract_x
_atom_site_fract_y
_atom_site_fract_z
_atom_site_U_iso_or_equiv
_atom_site_adp_type
_atom_site_occupancy
_atom_site_refinement_flags_posn
O1 O 0.43465(6) 0.44435(13) 0.34992(3) 0.01398(16) Uani 1.000000 .
O2 O 0.24272(6) 0.74216(13) 0.46366(3) 0.01351(16) Uani 1.000000 .
C1 C 0.40298(8) 0.55870(16) 0.44788(4) 0.01068(17) Uani 1.000000 .
O3 O 0.12988(8) 0.63092(15) 0.17818(4) 0.01345(16) Uani 1.000000 .
H3a H 0.0111(17) 0.458(3) 0.1488(8) 0.025(2) Uani 1.000000 .
H3b H 0.1850(15) 0.691(3) 0.1122(9) 0.022(2) Uani 1.000000 .
H1 H 0.3013(19) 0.526(3) 0.2806(10) 0.033(3) Uani 1.000000 .
loop_
_atom_site_aniso_label
_atom_site_aniso_U_11
_atom_site_aniso_U_22
_atom_site_aniso_U_33
_atom_site_aniso_U_12
_atom_site_aniso_U_13
_atom_site_aniso_U_23
O1 0.0137(3) 0.0184(3) 0.0097(2) 0.00387(15) 0.00251(17) -0.00057(14)
O2 0.0119(2) 0.0185(3) 0.0091(2) 0.00496(14) 0.00056(15) -0.00074(15)
C1 0.0097(3) 0.0122(3) 0.0092(3) 0.00145(18) 0.0006(2) 0.00064(18)
O3 0.0111(2) 0.0182(3) 0.0098(2) -0.00067(16) 0.00018(17) 0.00149(16)
H3a 0.023(6) 0.026(6) 0.028(5) -0.010(5) 0.012(5) 0.003(5)
H3b 0.019(5) 0.035(6) 0.018(5) -0.003(4) 0.015(4) 0.014(5)
H1 0.032(7) 0.031(7) 0.041(7) -0.003(6) 0.017(6) -0.005(6)
loop_
_atom_type_symbol
_atom_type_description
_atom_type_scat_dispersion_real
_atom_type_scat_dispersion_imag
_atom_type_scat_source
_atom_type_scat_dispersion_source
C C 0.00347 0.00161
'Clementi & Roetti, C., At. Data Nucl. Data Tables 1974, 14, (177-478); Clementi & Raimondi, J. Chem. Phys., 1963, 38, (2686-2689)'
'Henke, Gullikson and Davis, At. Data and Nucl. Data Tables, 1993, 54, 2'
H H 0.00000 0.00000
'Clementi & Roetti, C., At. Data Nucl. Data Tables 1974, 14, (177-478); Clementi & Raimondi, J. Chem. Phys., 1963, 38, (2686-2689)'
'Henke, Gullikson and Davis, At. Data and Nucl. Data Tables, 1993, 54, 2'
N N 0.00653 0.00323
'Clementi & Roetti, C., At. Data Nucl. Data Tables 1974, 14, (177-478); Clementi & Raimondi, J. Chem. Phys., 1963, 38, (2686-2689)'
'Henke, Gullikson and Davis, At. Data and Nucl. Data Tables, 1993, 54, 2'
O O 0.01158 0.00611
'Clementi & Roetti, C., At. Data Nucl. Data Tables 1974, 14, (177-478); Clementi & Raimondi, J. Chem. Phys., 1963, 38, (2686-2689)'
'Henke, Gullikson and Davis, At. Data and Nucl. Data Tables, 1993, 54, 2'
loop_
_geom_angle_atom_site_label_1
_geom_angle_atom_site_label_2
_geom_angle_atom_site_label_3
_geom_angle
_geom_angle_site_symmetry_1
_geom_angle_site_symmetry_3
_geom_angle_publ_flag
H1 O1 C1 111.5(6) . . ?
O2 C1 O1 127.00(4) . . ?
C1 C1 O1 112.75(6) 3_666 . ?
C1 C1 O2 120.25(6) 3_666 . ?
H3b O3 H3a 103.4(7) . . ?
loop_
_geom_bond_atom_site_label_1
_geom_bond_atom_site_label_2
_geom_bond_distance
_geom_bond_site_symmetry_2
_geom_bond_publ_flag
O1 C1 1.2854(6) . ?
O1 H1 1.046(13) . ?
O2 C1 1.2200(7) . ?
C1 C1 1.5458(9) 3_666 ?
O3 H3a 0.942(10) . ?
O3 H3b 0.945(10) . ?
loop_
_refln_index_h
_refln_index_k
_refln_index_l
_refln_F_squared_meas
_refln_F_squared_sigma
-14 0 2 15.4 0.85
-14 0 6 2.27 0.21
-14 0 8 0.58 0.1
-14 0 10 1.21 0.13
-14 0 12 0.92 0.23
-14 1 3 0.27 0.07
-14 1 5 0.36 0.1
-14 1 6 3.7 0.17
-14 1 7 7.52 0.28
-14 1 8 0.81 0.08
-14 1 9 0.19 0.06
-14 1 10 0.47 0.06
-14 1 11 0.3 0.07
-14 1 12 1.49 0.17
-14 1 13 1.9 0.18
-14 2 3 3.03 0.18
-14 2 4 2.19 0.14
-14 2 5 1.28 0.14
-14 2 6 8.55 0.3
-14 2 8 1 0.08
-14 2 9 1.57 0.14
-14 2 11 5.26 0.24
-13 0 6 34.47 1.04
-13 0 8 3.54 0.32
-13 0 10 0.47 0.14
-13 0 12 12.49 0.46
-13 0 14 1.78 0.18
-13 0 16 10.31 0.52
-13 0 18 1.41 0.24
-13 1 1 2.85 0.13
-13 1 2 13.67 0.52
-13 1 4 1.18 0.11
-13 1 5 10.05 0.36
-13 1 8 3.67 0.24
-13 1 10 3.27 0.13
-13 1 12 3.28 0.14
-13 1 13 0.56 0.09
-13 1 15 1.87 0.14
-13 1 16 4.27 0.2
-13 1 17 1.99 0.19
-13 2 1 4.14 0.23
-13 2 3 0.98 0.09
-13 2 4 0.86 0.11
-13 2 5 1.36 0.1
-13 2 6 0.46 0.06
-13 2 8 2.14 0.12
-13 2 9 1.34 0.09
-13 2 10 3.88 0.22
-13 2 12 1.01 0.08
-13 2 13 0.8 0.1
-13 2 14 3.11 0.19
-13 2 15 0.47 0.09
-13 2 16 3.74 0.18
-13 3 1 1.64 0.13
-13 3 2 0.46 0.09
-13 3 4 4.57 0.18
-13 3 5 2.35 0.17
-13 3 6 4.16 0.16
-13 3 7 2.31 0.11
-13 3 9 2.06 0.1
-13 3 10 3.94 0.16
-13 3 12 0.96 0.12
-13 3 14 7.01 0.69
-12 0 2 8.53 0.47
-12 0 4 42.36 2.66
-12 0 6 3.76 0.22
-12 0 10 2.25 0.15
-12 0 12 8.54 0.29
-12 0 14 6 0.3
-12 0 16 19.06 0.62
-12 1 1 1.88 0.12
-12 1 2 0.91 0.1
-12 1 5 19.05 0.49
-12 1 6 4.36 0.15
-12 1 7 1.61 0.09
-12 1 8 12.16 0.39
-12 1 9 11.15 0.45
-12 1 10 2.82 0.12
-12 1 11 0.99 0.07
-12 1 12 6.84 0.27
-12 1 13 0.76 0.09
-12 1 15 14.37 0.43
-12 1 16 1.63 0.22
-12 1 17 0.94 0.1
-12 1 19 1.54 0.13
-12 1 20 4.31 0.34
-12 2 1 13.11 0.43
-12 2 2 5.1 0.23
-12 2 5 7.93 0.27
-12 2 6 0.32 0.06
-12 2 7 3.34 0.14
-12 2 8 4.74 0.17
-12 2 9 4.38 0.17
-12 2 11 8.68 0.25
-12 2 12 1.04 0.11
-12 2 13 4.92 0.17
-12 2 14 0.43 0.08
-12 2 17 0.32 0.08
-12 2 18 5.61 0.23
-12 2 19 3.45 0.21
-12 3 1 1.75 0.12
-12 3 2 0.37 0.07
-12 3 3 3.38 0.15
-12 3 6 0.94 0.08
-12 3 7 1.18 0.08
-12 3 11 1.62 0.1
-12 3 12 0.35 0.08
-12 3 13 0.49 0.07
-12 3 14 3.46 0.16
-12 3 16 1.61 0.13
-12 4 1 0.52 0.1
-12 4 2 0.97 0.09
-12 4 3 1.9 0.14
-12 4 4 1.52 0.1
-12 4 5 2.37 0.13
-12 4 6 5.32 0.21
-12 4 7 0.31 0.09
-12 4 8 0.51 0.07
-12 4 9 1.35 0.1
-12 4 11 1.55 0.1
-12 4 13 2.09 0.12
-12 4 14 8.04 0.42
-11 0 2 3.58 0.25
-11 0 4 9.79 0.35
-11 0 6 0.54 0.08
-11 0 8 89.77 2.49
-11 0 10 7.96 0.3
-11 0 12 2.3 0.16
-11 0 14 36 1.06
-11 0 18 12.99 0.61
-11 1 1 0.32 0.08
-11 1 2 6.02 0.21
-11 1 3 13.98 0.41
-11 1 4 35.88 1.03
-11 1 5 2.14 0.12
-11 1 6 0.23 0.05
-11 1 7 1.49 0.08
-11 1 8 1.34 0.08
-11 1 9 6.13 0.21
-11 1 10 3.7 0.16
-11 1 11 4.29 0.16
-11 1 12 13.95 0.38
-11 1 13 0.43 0.07
-11 1 14 6.51 0.23
-11 1 15 6.58 0.23
-11 1 16 2.8 0.16
-11 1 18 9.88 0.38
-11 1 19 12.49 0.46
-11 2 1 2.84 0.13
-11 2 2 0.3 0.07
-11 2 3 1.22 0.12
-11 2 4 10.77 0.3
-11 2 5 2.19 0.11
-11 2 6 6.18 0.22
-11 2 7 8.25 0.24
-11 2 10 1 0.07
-11 2 11 2.17 0.11
-11 2 12 2.53 0.18
-11 2 13 0.56 0.07
-11 2 14 1.4 0.09
-11 2 15 10.63 0.34
-11 2 16 0.25 0.07
-11 2 17 0.6 0.08
-11 2 18 2.68 0.29
-11 2 19 0.58 0.17
-11 2 20 0.46 0.11
-11 2 21 3.66 0.31
-11 2 22 1.76 0.26
-11 3 1 1.15 0.1
-11 3 2 3.09 0.15
-11 3 3 0.35 0.07
-11 3 4 4.68 0.26
-11 3 5 6.66 0.21
-11 3 6 2.83 0.14
-11 3 7 3.83 0.15
-11 3 9 1.27 0.09
-11 3 10 12.41 0.37
-11 3 11 4.06 0.17
-11 3 12 0.83 0.09
-11 3 13 2.53 0.16
-11 3 14 0.37 0.08
-11 3 16 4.07 0.19
-11 3 17 4.81 0.24
-11 4 1 1.41 0.12
-11 4 2 2.77 0.14
-11 4 3 5.65 0.22
-11 4 5 0.2 0.06
-11 4 6 6.82 0.21
-11 4 7 0.43 0.07
-11 4 9 2.45 0.11
-11 4 10 3.94 0.16
-11 4 12 3.23 0.14
-11 4 13 5.67 0.2
-11 4 15 0.69 0.08
-11 4 16 0.67 0.14
-11 5 2 6.73 0.26
-11 5 4 3.27 0.22
-11 5 5 0.49 0.07
-11 5 6 3.33 0.17
-11 5 8 1.04 0.11
-11 5 12 0.78 0.09
-10 0 4 8.63 0.32
-10 0 6 12.23 0.48
-10 0 8 17.04 0.55
-10 0 10 12.19 0.36
-10 0 12 11.47 0.36
-10 0 14 1 0.15
-10 0 16 2.98 0.18
-10 0 18 65.19 1.78
-10 0 20 1.83 0.38
-10 1 1 3.57 0.15
-10 1 2 0.52 0.07
-10 1 3 2.47 0.16
-10 1 4 0.91 0.11
-10 1 5 9.07 0.27
-10 1 7 46.85 1.14
-10 1 8 19.87 0.49
-10 1 9 9.62 0.28
-10 1 10 6.18 0.19
-10 1 11 1.96 0.1
-10 1 12 3.86 0.21
-10 1 13 11.41 0.36
-10 1 14 19.1 0.51
-10 1 16 0.93 0.09
-10 1 17 15.52 0.45
-10 1 18 2.34 0.2
-10 1 19 2.06 0.17
-10 1 22 11.3 0.86
-10 1 24 5 0.54
-10 2 1 0.53 0.07
-10 2 2 10.64 0.31
-10 2 3 49.76 1.39
-10 2 4 28.26 0.71
-10 2 7 1.24 0.08
-10 2 8 9.02 0.26
-10 2 9 13.42 0.35
-10 2 10 0.79 0.07
-10 2 11 12.68 0.36
-10 2 12 5.33 0.18
-10 2 13 11.76 0.33
-10 2 14 13.94 0.47
-10 2 16 0.67 0.08
-10 2 17 4.19 0.29
-10 2 18 0.57 0.1
-10 2 23 0.69 0.2
-10 3 1 2.82 0.15
-10 3 2 8 0.46
-10 3 3 3.52 0.16
-10 3 4 10.61 0.39
-10 3 6 10.97 0.31
-10 3 7 0.6 0.06
-10 3 8 5.89 0.23
-10 3 9 1.06 0.07
-10 3 10 7.8 0.22
-10 3 13 0.21 0.06
-10 3 14 7.98 0.24
-10 3 15 2.66 0.11
-10 3 17 1.64 0.12
-10 3 18 0.41 0.09
-10 3 19 0.93 0.11
-10 3 20 7.29 0.27
-10 3 21 3.14 0.3
-10 3 22 0.84 0.23
-10 4 2 11.41 0.43
-10 4 3 6.16 0.26
-10 4 4 0.34 0.06
-10 4 5 1.19 0.09
-10 4 6 3.59 0.14
-10 4 8 3.3 0.14
-10 4 9 3.29 0.15
-10 4 10 7.45 0.24
-10 4 13 7.69 0.3
-10 4 14 0.17 0.05
-10 4 16 10.6 0.36
-10 4 17 0.73 0.1
-10 4 19 1.39 0.17
-10 5 2 7.24 0.25
-10 5 4 2.38 0.13
-10 5 5 3.3 0.16
-10 5 6 5.96 0.25
-10 5 8 0.23 0.06
-10 5 10 0.72 0.08
-10 5 11 1 0.11
-10 5 12 13.81 0.42
-10 5 14 0.85 0.09
-10 6 1 3.61 0.46
-10 6 2 2.44 0.16
-10 6 3 1.13 0.11
-10 6 5 1.14 0.12
-10 6 6 0.94 0.11
-10 6 7 0.35 0.08
-10 6 8 1.94 0.16
-9 0 2 4 0.18
-9 0 4 51.95 1.29
-9 0 6 23.79 0.63
-9 0 8 4.53 0.17
-9 0 10 52.01 1.3
-9 0 14 2.09 0.14
-9 0 16 23.19 0.65
-9 0 20 0.72 0.16
-9 0 22 6.92 0.6
-9 1 1 0.53 0.06
-9 1 2 1.36 0.08
-9 1 4 10.03 0.28
-9 1 5 3.18 0.13
-9 1 6 22.47 0.57
-9 1 7 16.76 0.43
-9 1 8 4.62 0.17
-9 1 9 16.95 0.44
-9 1 10 1.19 0.07
-9 1 11 6.43 0.19
-9 1 13 0.3 0.05
-9 1 14 14.34 0.39
-9 1 15 0.5 0.07
-9 1 16 2.48 0.13
-9 1 17 38.19 1.04
-9 1 18 7.07 0.25
-9 1 19 2.75 0.3
-9 1 20 4.41 0.3
-9 1 21 7.27 0.46
-9 1 23 1.88 0.41
-9 1 24 0.59 0.17
-9 2 1 5.05 0.22
-9 2 3 0.76 0.07
-9 2 4 0.34 0.07
-9 2 5 6.02 0.2
-9 2 6 34.44 0.88
-9 2 7 9.99 0.29
-9 2 8 55.33 1.71
-9 2 9 1.48 0.08
-9 2 10 5.24 0.17
-9 2 12 3.59 0.14
-9 2 13 31.55 0.81
-9 2 14 5.25 0.18
-9 2 15 0.51 0.07
-9 2 16 10.26 0.47
-9 2 17 8.97 0.29
-9 2 18 14.79 0.45
-9 2 19 4.05 0.18
-9 2 20 0.56 0.11
-9 2 21 7.37 0.28
-9 2 22 3 0.44
-9 2 23 8.14 0.41
-9 2 24 3.7 0.52
-9 3 1 3.07 0.23
-9 3 2 85.9 2.27
-9 3 3 13.19 0.37
-9 3 4 22.4 0.59
-9 3 6 0.81 0.1
-9 3 7 20.84 0.55
-9 3 8 6.67 0.2
-9 3 9 1.34 0.11
-9 3 10 5.25 0.17
-9 3 11 1.12 0.08
-9 3 12 41.81 1.02
-9 3 13 7.21 0.21
-9 3 14 6.32 0.19
-9 3 15 2.56 0.11
-9 3 16 3.35 0.15
-9 3 18 3.15 0.15
-9 3 22 2.34 0.18
-9 4 1 12.67 0.4
-9 4 2 3.79 0.21
-9 4 3 21.24 0.86
-9 4 4 0.26 0.06
-9 4 6 8.23 0.26
-9 4 7 0.88 0.07
-9 4 8 4.33 0.17
-9 4 9 1.92 0.11
-9 4 10 0.57 0.07
-9 4 11 6.01 0.2
-9 4 12 6.17 0.19
-9 4 13 7.52 0.25
-9 4 14 0.31 0.08
-9 4 18 0.35 0.11
-9 4 19 0.62 0.09
-9 4 20 5.9 0.39
-9 5 1 1.69 0.17
-9 5 4 0.17 0.06
-9 5 6 0.77 0.08
-9 5 8 0.47 0.07
-9 5 9 3.57 0.16
-9 5 10 1.09 0.13
-9 5 12 3.19 0.16
-9 5 13 0.34 0.06
-9 5 15 2.33 0.15
-9 5 16 9.04 0.49
-9 6 1 1.86 0.18
-9 6 2 0.32 0.09
-9 6 3 4.19 0.2
-9 6 4 0.29 0.07
-9 6 5 3.56 0.16
-9 6 6 0.6 0.07
-9 6 10 0.91 0.14
-9 6 11 7.27 0.26
-9 6 12 2.55 0.14
-9 6 13 0.44 0.1
-8 0 2 3.56 0.23
-8 0 4 3.81 0.23
-8 0 8 47.2 1.24
-8 0 10 6.54 0.23
-8 0 12 3.17 0.14
-8 0 14 45.82 1.18
-8 0 16 12.04 0.43
-8 0 18 2.2 0.35
-8 0 20 43.67 1.33
-8 1 1 28.79 0.86
-8 1 3 17.75 0.52
-8 1 4 27.78 0.97
-8 1 5 21.43 0.57
-8 1 6 1.81 0.1
-8 1 7 52.43 1.29
-8 1 8 5.71 0.18
-8 1 9 13.67 0.35
-8 1 10 35.24 0.95
-8 1 11 1.66 0.08
-8 1 12 1.68 0.09
-8 1 14 0.62 0.11
-8 1 15 16.07 0.41
-8 1 16 9.08 0.27
-8 1 17 7.07 0.23
-8 1 18 10.77 0.36
-8 1 20 0.88 0.2
-8 1 21 4.54 0.21
-8 1 23 1.03 0.16
-8 1 24 10.08 0.45
-8 2 1 37.85 0.96
-8 2 2 15.34 0.77
-8 2 3 7.09 0.25
-8 2 4 15.3 0.47
-8 2 5 32.67 1
-8 2 6 55.19 1.33
-8 2 7 6.46 0.2
-8 2 8 6.49 0.2
-8 2 9 1.33 0.08
-8 2 10 11.14 0.29
-8 2 11 20.36 0.49
-8 2 12 7.86 0.22
-8 2 13 2.13 0.11
-8 2 14 11.86 0.3
-8 2 16 38.52 1.02
-8 2 17 2.2 0.13
-8 2 18 14.06 0.54
-8 2 19 4.09 0.22
-8 2 20 0.43 0.09
-8 2 23 2.85 0.25
-8 2 25 0.89 0.26
-8 3 1 0.28 0.08
-8 3 2 8.23 0.28
-8 3 3 7.41 0.24
-8 3 5 0.93 0.08
-8 3 6 33.51 0.83
-8 3 7 10.39 0.39
-8 3 8 21.41 0.53
-8 3 9 5.26 0.16
-8 3 10 9.61 0.32
-8 3 11 6.17 0.2
-8 3 12 50.47 1.23
-8 3 13 1.5 0.09
-8 3 14 1.34 0.08
-8 3 15 0.35 0.07
-8 3 16 18.08 0.49
-8 3 17 17.43 0.48
-8 3 19 1.05 0.11
-8 3 20 8.1 0.29
-8 3 22 24.9 0.73
-8 3 23 3.18 0.19
-8 4 1 21.99 0.67
-8 4 2 20.53 0.63
-8 4 3 16.36 0.45
-8 4 4 11.07 0.33
-8 4 5 2.68 0.32
-8 4 6 4.67 0.17
-8 4 7 3.06 0.14
-8 4 8 4.35 0.14
-8 4 9 0.21 0.05
-8 4 10 0.37 0.05
-8 4 11 22.66 0.57
-8 4 12 17.43 0.45
-8 4 13 11.23 0.32
-8 4 15 3 0.13
-8 4 16 2.83 0.15
-8 4 18 4.81 0.19
-8 4 21 7.16 0.28
-8 5 1 5.34 0.24
-8 5 2 28.83 0.8
-8 5 5 1.3 0.09
-8 5 6 0.51 0.1
-8 5 7 4.81 0.18
-8 5 8 7.78 0.27
-8 5 10 2.36 0.16
-8 5 12 0.94 0.09
-8 5 14 0.55 0.08
-8 5 15 0.7 0.09
-8 5 19 0.89 0.2
-8 6 2 0.72 0.1
-8 6 3 0.52 0.08
-8 6 4 0.71 0.07
-8 6 6 0.33 0.06
-8 6 7 1.22 0.09
-8 6 8 0.4 0.1
-8 6 9 0.39 0.1
-8 6 11 0.7 0.1
-8 6 13 1.3 0.18
-8 6 15 4.72 0.36
-8 7 2 1.56 0.13
-7 0 2 13.81 0.76
-7 0 4 41.05 1.68
-7 0 6 258.9 11.49
-7 0 8 0.4 0.12
-7 0 10 1.35 0.14
-7 0 12 5.44 0.22
-7 0 14 10.11 0.28
-7 0 16 7.09 0.25
-7 0 18 8.13 0.28
-7 0 20 0.52 0.11
-7 1 1 17.87 0.62
-7 1 2 82.97 2.37
-7 1 3 3.85 0.23
-7 1 5 2.18 0.22
-7 1 6 18.98 0.58
-7 1 7 49.07 1.2
-7 1 9 9.8 0.29
-7 1 10 28.08 0.74
-7 1 11 45.56 1.14
-7 1 12 2.76 0.11
-7 1 13 8.95 0.27
-7 1 14 15.26 0.39
-7 1 15 13.52 0.39
-7 1 16 6.05 0.21
-7 1 17 24.22 0.63
-7 1 18 0.23 0.07
-7 1 19 27.67 0.72
-7 1 20 4.53 0.2
-7 1 21 2.52 0.23
-7 1 22 1.42 0.17
-7 1 23 1.23 0.17
-7 1 24 0.54 0.14
-7 1 25 7.74 0.62
-7 2 2 0.4 0.12
-7 2 3 20.97 0.83
-7 2 4 3.36 0.2
-7 2 5 9.64 0.47
-7 2 6 2.14 0.18
-7 2 7 18.48 0.54
-7 2 8 15.93 0.44
-7 2 9 16.1 0.42
-7 2 10 76.09 1.8
-7 2 11 21.84 0.64
-7 2 12 7.64 0.28
-7 2 13 5.03 0.15
-7 2 14 3.42 0.12
-7 2 15 41.25 1.13
-7 2 16 12.59 0.34
-7 2 17 2.01 0.14
-7 2 18 4.72 0.28
-7 2 19 0.27 0.08
-7 2 20 24.43 0.65
-7 2 21 12.72 0.38
-7 2 22 4.58 0.27
-7 2 23 3.88 0.26
-7 2 24 5.15 0.23
-7 2 25 2.58 0.19
-7 3 1 2.06 0.14
-7 3 2 1.99 0.11
-7 3 3 2.26 0.2
-7 3 4 74.63 2
-7 3 5 33.79 0.83
-7 3 6 15.58 0.41
-7 3 8 0.11 0.04
-7 3 9 9.64 0.26
-7 3 10 10.74 0.34
-7 3 12 1.18 0.07
-7 3 13 7.06 0.25
-7 3 14 22.7 0.56
-7 3 15 5.01 0.17
-7 3 16 22.73 0.59
-7 3 17 0.19 0.06
-7 3 18 10.01 0.53
-7 3 20 2.53 0.14
-7 3 21 3.15 0.15
-7 3 22 2.93 0.19
-7 3 24 2.29 0.19
-7 4 1 21.44 0.59
-7 4 2 6.91 0.23
-7 4 3 0.63 0.07
-7 4 4 2.07 0.13
-7 4 5 24.14 0.67
-7 4 6 4.21 0.18
-7 4 7 4.45 0.15
-7 4 8 26.1 0.68
-7 4 9 5.27 0.21
-7 4 10 0.2 0.04
-7 4 11 13.92 0.36
-7 4 12 3.62 0.14
-7 4 14 3.32 0.16
-7 4 15 12.99 0.36
-7 4 16 10.3 0.34
-7 4 17 3.96 0.16
-7 4 19 0.7 0.09
-7 4 20 0.23 0.07
-7 4 21 7.39 0.47
-7 4 22 9.78 0.38
-7 5 1 3.71 0.2
-7 5 2 20.27 0.91
-7 5 3 3.35 0.23
-7 5 4 1.56 0.15
-7 5 5 0.98 0.09
-7 5 6 8 0.33
-7 5 7 0.6 0.07
-7 5 10 5.54 0.29
-7 5 11 8.95 0.28
-7 5 12 25.21 0.72
-7 5 14 1.3 0.11
-7 5 16 0.23 0.07
-7 5 17 2.4 0.17
-7 5 18 3.66 0.19
-7 5 19 0.7 0.19
-7 6 1 16.83 0.74
-7 6 2 3.23 0.22
-7 6 4 0.71 0.08
-7 6 5 1.11 0.09
-7 6 6 6.5 0.35
-7 6 7 2.31 0.13
-7 6 8 4.54 0.26
-7 6 9 2.38 0.14
-7 6 10 0.34 0.08
-7 6 11 1.79 0.15
-7 6 13 0.48 0.09
-7 6 16 1.69 0.26
-7 7 2 0.29 0.09
-7 7 3 0.31 0.09
-7 7 4 0.71 0.21
-7 7 5 2.59 0.2
-7 7 6 0.84 0.11
-7 7 7 0.44 0.09
-6 0 2 183.41 5.45
-6 0 4 2.9 0.28
-6 0 6 168.52 6.16
-6 0 8 1.27 0.42
-6 0 10 264.05 11.5
-6 0 14 25.79 0.66
-6 0 16 137.88 3.79
-6 0 18 15.87 0.48
-6 0 20 10.4 0.34
-6 0 22 3.3 0.19
-6 0 24 13.11 0.92
-6 1 1 1.3 0.14
-6 1 2 6.63 0.28
-6 1 3 1.13 0.14
-6 1 4 32.11 1.07
-6 1 5 95.43 2.75
-6 1 6 155.15 4.6
-6 1 7 2.36 0.33
-6 1 8 2.96 0.32
-6 1 9 42.59 1.27
-6 1 10 47.04 1.46
-6 1 11 3.82 0.17
-6 1 12 39.79 1.01
-6 1 13 4.83 0.16
-6 1 14 22.61 0.62
-6 1 15 3.74 0.19
-6 1 16 0.55 0.08
-6 1 17 1.18 0.11
-6 1 18 0.68 0.1
-6 1 19 12.46 0.41
-6 1 20 29.48 0.9
-6 1 21 13.48 0.44
-6 1 22 1.51 0.16
-6 1 23 2.06 0.19
-6 1 24 0.44 0.12
-6 1 25 1.12 0.21
-6 1 26 1.24 0.36
-6 2 1 70.53 1.93
-6 2 2 41.84 1.25
-6 2 3 59.4 1.84
-6 2 4 5.68 0.35
-6 2 5 3.86 0.29
-6 2 6 0.93 0.21
-6 2 8 12.94 0.38
-6 2 9 30.86 1.04
-6 2 10 8.8 0.3
-6 2 11 0.26 0.06
-6 2 12 8.56 0.24
-6 2 13 0.3 0.04
-6 2 14 6.44 0.19
-6 2 15 2.98 0.14
-6 2 16 0.28 0.08
-6 2 17 10.07 0.47
-6 2 18 20.66 0.61
-6 2 19 2.81 0.19
-6 2 20 22.58 1.05
-6 2 21 1.35 0.14
-6 2 23 0.5 0.12
-6 2 25 12.36 0.44
-6 3 1 12.62 0.59
-6 3 2 10.72 0.58
-6 3 3 1.23 0.21
-6 3 4 4.24 0.29
-6 3 5 0.54 0.11
-6 3 6 6.26 0.27
-6 3 7 7.18 0.22
-6 3 8 38.16 1.13
-6 3 9 31.41 0.77
-6 3 10 0.51 0.04
-6 3 11 4.15 0.14
-6 3 12 0.45 0.06
-6 3 13 6.64 0.27
-6 3 14 55.82 1.33
-6 3 15 12.94 0.33
-6 3 16 1.77 0.1
-6 3 17 0.55 0.09
-6 3 18 8.4 0.25
-6 3 19 16.44 0.44
-6 3 20 0.96 0.11
-6 3 21 0.47 0.11
-6 3 22 5.06 0.23
-6 3 23 1 0.12
-6 3 24 18.53 0.64
-6 3 25 1.9 0.42
-6 4 1 7.85 0.32
-6 4 3 7.08 0.29
-6 4 4 41.97 1.13
-6 4 5 36.98 0.92
-6 4 6 1.69 0.09
-6 4 8 6.64 0.19
-6 4 9 0.12 0.04
-6 4 10 1.7 0.1
-6 4 11 6.6 0.2
-6 4 12 11.87 0.34
-6 4 13 14.03 0.37
-6 4 14 14.25 0.38
-6 4 15 22.77 0.61
-6 4 16 0.54 0.06
-6 4 18 6.69 0.24
-6 4 19 0.89 0.09
-6 4 21 1.43 0.11
-6 4 22 0.53 0.09
-6 4 23 3.54 0.5
-6 5 2 0.67 0.13
-6 5 3 1.26 0.09
-6 5 4 37.64 1.07
-6 5 6 6.96 0.23
-6 5 7 2.73 0.12
-6 5 8 16.47 0.43
-6 5 9 1.38 0.08
-6 5 10 14.18 0.42
-6 5 11 0.5 0.1
-6 5 12 0.25 0.07
-6 5 13 0.56 0.08
-6 5 14 2.33 0.14
-6 5 15 1.37 0.22
-6 5 16 7.71 0.28
-6 5 18 1.34 0.13
-6 5 20 2.16 0.25
-6 6 1 1.96 0.17
-6 6 2 4.24 0.2
-6 6 3 0.38 0.08
-6 6 4 3.22 0.18
-6 6 5 9.43 0.31
-6 6 6 0.96 0.08
-6 6 7 0.82 0.08
-6 6 8 0.45 0.1
-6 6 10 5.14 0.21
-6 6 11 9.71 0.31
-6 6 12 4.38 0.19
-6 6 13 0.93 0.11
-6 6 14 1.01 0.1
-6 6 15 3.84 0.18
-6 6 16 1.49 0.25
-6 7 1 5.93 0.51
-6 7 3 0.3 0.09
-6 7 4 0.42 0.08
-6 7 5 0.49 0.09
-6 7 6 1.08 0.14
-6 7 7 2.56 0.17
-6 7 9 2.58 0.35
-6 7 11 1.7 0.28
-6 7 12 0.65 0.2
-5 0 2 90.04 2.55
-5 0 4 18.83 0.69
-5 0 6 114.58 3.55
-5 0 8 264.53 11.48
-5 0 10 93.11 6
-5 0 12 44.35 1.69
-5 0 14 0.71 0.11
-5 0 18 28.09 0.75
-5 0 20 108.35 2.94
-5 0 26 15.08 0.82
-5 1 1 58.59 1.6
-5 1 2 260.57 7.23
-5 1 3 51.25 1.45
-5 1 4 92.87 2.55
-5 1 5 30.32 0.93
-5 1 6 3.92 0.23
-5 1 7 0.81 0.13
-5 1 8 16.3 0.6
-5 1 9 252.98 7.73
-5 1 10 25.73 0.82
-5 1 12 24.76 0.74
-5 1 13 9.06 0.34
-5 1 14 27.03 0.7
-5 1 15 42.22 1.04
-5 1 16 57.21 1.66
-5 1 17 17.41 0.46
-5 1 18 0.54 0.07
-5 1 19 44.94 1.14
-5 1 20 0.58 0.07
-5 1 21 0.99 0.1
-5 1 22 1.53 0.14
-5 1 24 15.68 0.55
-5 1 25 1.04 0.14
-5 1 26 3.14 0.19
-5 1 27 2.46 0.43
-5 2 1 9.46 0.36
-5 2 2 0.62 0.1
-5 2 3 4.38 0.23
-5 2 4 28.37 0.94
-5 2 5 179.03 5.72
-5 2 6 80.25 2.75
-5 2 7 20.92 0.85
-5 2 8 2.2 0.18
-5 2 11 38.32 1.21
-5 2 12 24.42 0.75
-5 2 13 75.63 2.08
-5 2 14 0.72 0.11
-5 2 15 12.45 0.37
-5 2 16 3.55 0.17
-5 2 17 8.15 0.28
-5 2 18 5.32 0.31
-5 2 19 11.86 0.38
-5 2 22 10.94 0.4
-5 2 23 7.9 0.27
-5 2 24 1.73 0.15
-5 3 1 20.09 0.81
-5 3 3 5.97 0.37
-5 3 4 11.69 0.64
-5 3 5 3.45 0.26
-5 3 6 4.57 0.23
-5 3 7 16.59 0.58
-5 3 8 2.07 0.13
-5 3 10 7.01 0.27
-5 3 11 0.59 0.06
-5 3 12 0.86 0.06
-5 3 14 0.91 0.06
-5 3 15 2.29 0.12
-5 3 18 13.69 0.4
-5 3 19 6.31 0.25
-5 3 21 0.93 0.11
-5 3 23 4.45 0.24
-5 3 24 9.58 0.48
-5 3 25 1.13 0.16
-5 4 1 3.38 0.28
-5 4 3 25.9 0.83
-5 4 4 23.11 1.19
-5 4 5 13.34 0.36
-5 4 7 1.07 0.07
-5 4 8 25.41 0.65
-5 4 10 23.88 0.67
-5 4 11 0.32 0.06
-5 4 12 2.06 0.14
-5 4 13 15.05 0.38
-5 4 14 6.98 0.2
-5 4 15 13.94 0.38
-5 4 17 2.35 0.12
-5 4 18 17.39 0.46
-5 4 19 0.34 0.07
-5 4 21 0.22 0.07
-5 4 22 2.46 0.14
-5 4 23 8.77 0.42
-5 4 24 5.65 0.57
-5 5 1 2.74 0.18
-5 5 2 4.39 0.23
-5 5 3 3.44 0.17
-5 5 4 67.47 1.86
-5 5 6 9.4 0.29
-5 5 7 2.57 0.11
-5 5 8 6.1 0.29
-5 5 9 2.79 0.12
-5 5 10 3.46 0.18
-5 5 12 12.15 0.37
-5 5 13 4.51 0.22
-5 5 14 49.03 1.44
-5 5 16 0.74 0.08
-5 5 17 0.58 0.09
-5 5 18 1.39 0.3
-5 5 19 1.16 0.14
-5 5 20 2.48 0.25
-5 6 2 0.32 0.08
-5 6 3 19.76 0.56
-5 6 4 2.87 0.18
-5 6 5 1.36 0.14
-5 6 6 1 0.08
-5 6 7 1.8 0.11
-5 6 8 12.32 0.34
-5 6 9 2.42 0.13
-5 6 10 9.15 0.32
-5 6 11 0.89 0.1
-5 6 13 1.55 0.15
-5 6 15 4.63 0.27
-5 6 17 0.71 0.19
-5 7 2 1.1 0.12
-5 7 3 0.72 0.11
-5 7 4 0.28 0.08
-5 7 7 2.42 0.17
-5 7 9 2.17 0.35
-5 7 10 1.73 0.3
-5 7 11 3.21 0.36
-4 0 2 997.49 27.15
-4 0 4 128.65 3.76
-4 0 6 46.23 1.49
-4 0 8 551.58 17.78
-4 0 10 1.78 0.2
-4 0 12 233.74 9.36
-4 0 14 1.98 0.16
-4 0 16 58.26 1.59
-4 0 18 142.32 4.02
-4 0 22 1.25 0.17
-4 0 24 1.67 0.16
-4 0 26 10.87 0.71
-4 1 1 92.53 2.48
-4 1 2 59.66 1.54
-4 1 3 1.73 0.13
-4 1 4 35.53 0.99
-4 1 6 187.04 5.27
-4 1 7 85.08 2.84
-4 1 8 167.97 5.96
-4 1 9 42.3 1.22
-4 1 11 1.94 0.14
-4 1 12 81.48 2.68
-4 1 13 15.79 0.48
-4 1 14 17.3 0.52
-4 1 16 23.27 0.58
-4 1 17 4.68 0.17
-4 1 18 1.09 0.08
-4 1 19 57.99 1.45
-4 1 20 13.33 0.38
-4 1 21 1.42 0.11
-4 1 22 24.02 0.65
-4 1 23 9.86 0.35
-4 1 24 2.8 0.21
-4 1 25 4.97 0.25
-4 1 26 2.87 0.24
-4 1 27 5.61 0.74
-4 2 1 54.05 1.47
-4 2 2 12.96 0.45
-4 2 3 82.4 2.26
-4 2 4 64.88 1.77
-4 2 5 5.99 0.26
-4 2 6 5.57 0.28
-4 2 7 6.88 0.31
-4 2 8 88.01 2.81
-4 2 9 13.92 0.51
-4 2 10 31.69 0.97
-4 2 11 7.53 0.36
-4 2 12 0.56 0.14
-4 2 13 3.58 0.2
-4 2 14 22.8 0.67
-4 2 15 36.77 0.95
-4 2 16 11.52 0.48
-4 2 17 7.7 0.27
-4 2 18 8.45 0.29
-4 2 19 6.69 0.3
-4 2 21 4.73 0.27
-4 2 22 4.58 0.19
-4 2 23 20.36 0.78
-4 2 24 2.58 0.16
-4 2 25 3.31 0.26
-4 2 26 1.47 0.17
-4 2 27 7.88 0.65
-4 3 1 5.18 0.26
-4 3 2 13.24 0.53
-4 3 3 22.36 0.88
-4 3 4 228.87 8.52
-4 3 5 28.56 1.1
-4 3 6 8.68 0.49
-4 3 7 5.24 0.32
-4 3 8 0.2 0.06
-4 3 9 36.74 0.99
-4 3 10 63.8 1.63
-4 3 11 21.69 0.68
-4 3 12 12.48 0.37
-4 3 13 1.27 0.14
-4 3 14 31.86 0.84
-4 3 15 6.05 0.24
-4 3 16 4.1 0.18
-4 3 17 15.78 0.44
-4 3 18 2.64 0.14
-4 3 20 6.31 0.27
-4 3 21 1.54 0.12
-4 3 22 1.18 0.13
-4 3 23 0.39 0.1
-4 3 25 0.68 0.12
-4 4 2 5.24 0.4
-4 4 3 57.5 2.25
-4 4 5 11.37 0.54
-4 4 6 28.68 0.74
-4 4 7 9.4 0.31
-4 4 8 4.5 0.17
-4 4 9 2.09 0.1
-4 4 10 2.94 0.12
-4 4 12 0.38 0.06
-4 4 13 29.26 0.7
-4 4 14 23.1 0.56
-4 4 15 0.85 0.07
-4 4 16 1.91 0.1
-4 4 17 4.67 0.18
-4 4 18 2.28 0.13
-4 4 20 4.54 0.18
-4 4 22 2.96 0.24
-4 4 23 5.23 0.39
-4 5 2 22.39 0.6
-4 5 3 2.36 0.15
-4 5 4 0.44 0.07
-4 5 6 5.01 0.23
-4 5 8 8.17 0.35
-4 5 9 0.16 0.05
-4 5 10 12.52 0.34
-4 5 11 1.39 0.09
-4 5 12 7.56 0.27
-4 5 13 0.66 0.08
-4 5 14 13.35 1.1
-4 5 15 0.22 0.07
-4 5 17 1.93 0.19
-4 5 18 12.22 0.42
-4 5 19 0.42 0.11
-4 6 2 4.59 0.23
-4 6 3 13.4 0.45
-4 6 4 3.36 0.26
-4 6 5 5.87 0.21
-4 6 6 1.69 0.17
-4 6 7 9.54 0.29
-4 6 8 1.22 0.11
-4 6 11 0.56 0.11
-4 6 12 4.5 0.45
-4 6 13 19.8 2.79
-4 6 14 4.91 0.78
-4 6 16 0.93 0.11
-4 7 2 4.65 0.6
-4 7 3 5.25 0.27
-4 7 4 3 0.18
-4 7 6 0.83 0.09
-4 7 7 2.92 0.21
-4 7 8 2.09 0.46
-4 7 9 7.92 0.31
-4 7 14 0.65 0.19
-3 0 2 14.9 0.57
-3 0 4 93.25 2.63
-3 0 6 13.13 0.43
-3 0 8 21.14 0.73
-3 0 10 4.02 0.36
-3 0 12 142.86 4.52
-3 0 14 18.4 0.75
-3 0 16 13.97 0.5
-3 0 18 35.84 0.94
-3 0 20 10.85 0.37
-3 0 22 103.93 3.37
-3 0 26 4.48 0.51
-3 1 1 342.86 8.88
-3 1 2 35.4 0.94
-3 1 3 170.48 4.17
-3 1 4 239.67 5.98
-3 1 5 218.05 5.52
-3 1 6 0.33 0.05
-3 1 7 353.98 10.18
-3 1 8 8.33 0.33
-3 1 9 61.89 1.97
-3 1 10 3.83 0.19
-3 1 11 163.79 4.56
-3 1 12 52.59 1.45
-3 1 13 0.74 0.11
-3 1 14 0.3 0.07
-3 1 16 33.3 0.86
-3 1 17 62.92 1.53
-3 1 18 42.48 1.06
-3 1 19 0.22 0.07
-3 1 20 1.92 0.12
-3 1 21 9.55 0.33
-3 1 22 2.3 0.14
-3 1 23 2.08 0.14
-3 1 24 0.29 0.09
-3 1 25 1.66 0.17
-3 1 26 19.12 0.72
-3 1 27 2.63 0.25
-3 2 1 86.38 2.19
-3 2 2 186.58 4.9
-3 2 3 304.42 8.98
-3 2 4 28.29 0.76
-3 2 5 2.82 0.17
-3 2 6 139.81 5.49
-3 2 7 166.95 8.8
-3 2 8 288.41 11.13
-3 2 9 50.97 1.84
-3 2 10 12.3 0.44
-3 2 11 23.73 0.71
-3 2 12 2.19 0.19
-3 2 13 53.65 1.55
-3 2 14 1.13 0.13
-3 2 15 29.88 0.79
-3 2 16 15.47 0.45
-3 2 17 1.2 0.1
-3 2 18 46.25 1.19
-3 2 19 0.29 0.08
-3 2 20 3.72 0.22
-3 2 21 11.96 0.34
-3 2 24 3.11 0.29
-3 2 27 1.35 0.42
-3 3 1 4.16 0.27
-3 3 2 257.89 7.36
-3 3 3 3.41 0.21
-3 3 4 43.27 1.64
-3 3 5 20.41 1.18
-3 3 7 3.96 0.32
-3 3 8 17.99 0.57
-3 3 9 5.18 0.19
-3 3 10 21.43 0.56
-3 3 11 1.35 0.15
-3 3 12 43.94 1.13
-3 3 13 10.13 0.29
-3 3 14 72.9 1.82
-3 3 15 1.72 0.11
-3 3 17 1.22 0.1
-3 3 18 3.85 0.17
-3 3 19 11.35 0.35
-3 3 20 4.68 0.25
-3 3 21 7.13 0.27
-3 3 22 10.24 0.55
-3 3 24 11.66 0.59
-3 3 25 2.31 0.19
-3 3 26 2.02 0.44
-3 4 1 21 1.88
-3 4 2 11.29 0.61
-3 4 3 58.73 1.65
-3 4 4 30.2 0.88
-3 4 5 0.38 0.11
-3 4 6 25.43 1.04
-3 4 7 16.59 0.47
-3 4 8 0.62 0.07
-3 4 9 0.6 0.06
-3 4 10 40.47 0.99
-3 4 11 4.31 0.2
-3 4 12 3.01 0.13
-3 4 13 34.47 1.36
-3 4 14 6.17 0.2
-3 4 16 4.66 0.18
-3 4 17 11.78 0.62
-3 4 18 4.66 0.35
-3 4 20 9.48 0.35
-3 4 21 0.81 0.12
-3 4 23 7.55 0.33
-3 4 24 4.13 0.53
-3 5 2 2.23 0.14
-3 5 3 4.24 0.19
-3 5 4 9.78 0.28
-3 5 5 1.08 0.08
-3 5 6 36.25 0.9
-3 5 7 3.92 0.14
-3 5 8 0.5 0.06
-3 5 9 4.39 0.22
-3 5 10 4.27 0.18
-3 5 11 1.47 0.09
-3 5 12 12.95 0.39
-3 5 13 0.39 0.07
-3 5 14 1.85 0.12
-3 5 16 18.44 0.5
-3 5 17 1 0.13
-3 5 18 1.15 0.21
-3 5 20 2.81 0.27
-3 6 1 9.29 0.51
-3 6 2 1.95 0.17
-3 6 3 0.89 0.13
-3 6 4 1.39 0.13
-3 6 5 0.89 0.11
-3 6 6 0.86 0.19
-3 6 7 0.8 0.08
-3 6 9 4.44 0.2
-3 6 10 3.07 0.17
-3 6 11 0.33 0.1
-3 6 12 4.12 0.92
-3 6 13 2.13 0.19
-3 6 17 7.22 0.4
-3 7 1 0.64 0.13
-3 7 2 6.63 0.33
-3 7 3 0.39 0.12
-3 7 4 5.11 0.23
-3 7 5 1.52 0.16
-3 7 6 0.84 0.15
-3 7 13 4.91 0.37
-3 7 14 1.62 0.25
-3 8 2 4.25 0.23
-3 8 3 0.86 0.11
-3 8 4 0.56 0.1
-3 8 6 1.43 0.17
-2 0 2 629.45 17.19
-2 0 4 2046.87 58.19
-2 0 6 179.73 4.99
-2 0 8 457.38 12.69
-2 0 10 191.2 6.14
-2 0 12 17.43 0.71
-2 0 14 58.4 1.69
-2 0 16 12.49 0.4
-2 0 18 5.24 0.23
-2 0 20 17.8 0.93
-2 0 22 4.5 0.25
-2 0 26 3.87 0.48
-2 1 1 189.71 4.52
-2 1 2 581.01 13.74
-2 1 3 20.84 0.53
-2 1 4 369.95 9.16
-2 1 5 21.7 0.69
-2 1 6 5.96 0.21
-2 1 7 34.24 1.12
-2 1 8 299.82 8.63
-2 1 9 23.45 0.74
-2 1 10 33.72 1.27
-2 1 11 84.2 2.57
-2 1 12 9.56 0.34
-2 1 13 32.55 0.87
-2 1 14 18.93 0.55
-2 1 15 11.91 0.37
-2 1 16 1.04 0.1
-2 1 17 32.6 0.82
-2 1 18 9.13 0.28
-2 1 19 1.83 0.13
-2 1 20 0.92 0.11
-2 1 21 64.01 1.72
-2 1 22 12.4 0.39
-2 1 24 2.53 0.18
-2 1 25 0.47 0.12
-2 1 26 1.81 0.23
-2 1 27 12.3 0.53
-2 2 1 151.26 3.99
-2 2 2 483.13 13.33
-2 2 3 9.79 0.34
-2 2 4 22.95 0.62
-2 2 5 3.56 0.19
-2 2 6 70.61 2.09
-2 2 7 34.68 1.22
-2 2 8 28.61 1.55
-2 2 9 16.9 0.73
-2 2 10 94.06 2.65
-2 2 11 13.53 0.44
-2 2 12 110.8 2.96
-2 2 13 31.44 0.91
-2 2 14 14.49 0.45
-2 2 15 2.52 0.12
-2 2 16 38.69 0.98
-2 2 17 57.1 1.47
-2 2 18 30.22 0.8
-2 2 19 8.81 0.28
-2 2 20 7.26 0.29
-2 2 21 0.56 0.08
-2 2 22 10.4 0.36
-2 2 23 11.64 0.36
-2 2 24 0.39 0.08
-2 2 25 16.69 0.6
-2 2 26 7.64 0.63
-2 2 27 1.89 0.45
-2 3 1 138.53 4.89
-2 3 2 68.36 2.06
-2 3 3 1.35 0.17
-2 3 4 9.07 0.59
-2 3 5 6.29 0.33
-2 3 6 363.5 16.88
-2 3 7 79.73 3.52
-2 3 8 25.15 0.71
-2 3 9 8.36 0.3
-2 3 10 23.43 0.59
-2 3 11 21.09 0.59
-2 3 12 87.83 2.29
-2 3 13 3.96 0.28
-2 3 14 4.9 0.17
-2 3 15 12.11 0.43
-2 3 16 33.97 0.85
-2 3 17 4.69 0.17
-2 3 18 9.78 0.29
-2 3 19 1.39 0.16
-2 3 20 16.19 0.48
-2 3 22 11.79 0.51
-2 3 23 1.28 0.18
-2 3 24 1.71 0.22
-2 3 26 1.86 0.46
-2 4 1 18.22 1.35
-2 4 2 59.97 3.32
-2 4 3 30.5 1.95
-2 4 4 0.52 0.11
-2 4 5 35.2 1.56
-2 4 6 3.86 0.23
-2 4 7 36.49 1.28
-2 4 8 0.51 0.07
-2 4 9 0.39 0.05
-2 4 10 25.35 0.64
-2 4 11 19.13 0.49
-2 4 13 12.38 0.56
-2 4 14 9.56 0.29
-2 4 15 10.15 0.44
-2 4 16 14.63 0.45
-2 4 17 11.02 0.37
-2 4 18 1.22 0.13
-2 4 20 2.7 0.2
-2 4 21 2.27 0.19
-2 4 23 3.29 0.22
-2 4 24 5.56 0.57
-2 5 1 0.47 0.07
-2 5 2 16.72 0.49
-2 5 3 3.34 0.23
-2 5 4 3.49 0.14
-2 5 5 4.35 0.34
-2 5 7 0.2 0.05
-2 5 8 1.34 0.1
-2 5 9 1.07 0.12
-2 5 10 3.29 0.14
-2 5 11 0.58 0.07
-2 5 12 0.95 0.09
-2 5 13 6.47 0.6
-2 5 14 2.36 0.28
-2 5 16 14.47 0.64
-2 5 17 0.63 0.18
-2 5 19 1.57 0.23
-2 5 20 5.21 0.33
-2 5 21 1.37 0.21
-2 6 3 16.45 0.81
-2 6 5 10.15 0.34
-2 6 7 4.06 0.17
-2 6 8 2.17 0.12
-2 6 9 3.06 0.19
-2 6 11 6.84 0.36
-2 6 12 0.65 0.11
-2 6 14 1.65 0.14
-2 6 15 6.18 0.63
-2 7 1 6.78 0.31
-2 7 4 1.64 0.14
-2 7 5 0.33 0.09
-2 7 6 3.76 0.18
-2 7 7 5.49 0.25
-2 7 8 3.99 0.78
-2 7 10 1.48 0.31
-2 7 12 0.94 0.24
-2 7 15 0.53 0.16
-2 8 2 2.07 0.2
-2 8 4 2.86 0.17
-1 0 2 775.06 20.6
-1 0 4 864.65 23.75
-1 0 6 207.26 7.76
-1 0 8 503.88 17.66
-1 0 10 3.01 0.17
-1 0 12 113.59 3.64
-1 0 14 50.73 1.49
-1 0 16 24.03 0.71
-1 0 18 64.29 1.71
-1 0 20 45.94 1.31
-1 0 22 0.72 0.13
-1 0 24 23.52 0.76
-1 0 26 6.59 0.58
-1 1 1 2726.72 83.78
-1 1 2 160.89 4.28
-1 1 3 350.03 9.2
-1 1 4 263.37 7.57
-1 1 5 1.06 0.09
-1 1 6 0.5 0.08
-1 1 7 427.82 14.13
-1 1 8 92.87 2.43
-1 1 9 177.09 7.58
-1 1 11 72.35 2.49
-1 1 12 86.84 2.27
-1 1 13 5.82 0.25
-1 1 14 46.66 1.29
-1 1 15 10.84 0.35
-1 1 16 6.64 0.21
-1 1 17 1.89 0.12
-1 1 18 15.71 0.45
-1 1 19 10.16 0.32
-1 1 20 3.06 0.16
-1 1 21 14.48 0.45
-1 1 22 13.72 0.45
-1 1 23 1.69 0.17
-1 1 24 0.59 0.12
-1 1 25 1.41 0.12
-1 1 26 0.35 0.09
-1 2 1 138.78 3.62
-1 2 2 7.95 0.29
-1 2 3 170.38 6.43
-1 2 4 230.19 6.09
-1 2 5 492.09 14.75
-1 2 6 19.04 0.78
-1 2 7 1.28 0.19
-1 2 8 47.4 1.98
-1 2 9 8.25 0.42
-1 2 10 190.02 5.93
-1 2 11 75.72 2.1
-1 2 12 34.61 0.95
-1 2 13 13.25 0.44
-1 2 14 1.21 0.11
-1 2 15 12.38 0.37
-1 2 18 5.95 0.2
-1 2 19 4.24 0.18
-1 2 20 50.9 1.3
-1 2 21 1.12 0.1
-1 2 22 20.8 0.56
-1 2 24 0.45 0.08
-1 2 25 0.42 0.1
-1 2 26 2.06 0.18
-1 3 2 31.34 1.13
-1 3 3 13.58 0.52
-1 3 4 55.8 2.05
-1 3 5 0.53 0.16
-1 3 6 108.34 4.31
-1 3 7 1.75 0.28
-1 3 8 6.41 0.29
-1 3 9 1.22 0.15
-1 3 10 32.5 0.79
-1 3 11 43.08 1.09
-1 3 12 0.21 0.07
-1 3 13 1.23 0.1
-1 3 14 27.3 0.72
-1 3 15 6.51 0.21
-1 3 16 118.57 3.04
-1 3 17 12.23 0.5
-1 3 18 1.24 0.1
-1 3 19 3.94 0.18
-1 3 20 0.26 0.07
-1 3 21 14.05 0.41
-1 3 22 5.54 0.23
-1 3 23 2.27 0.18
-1 3 24 14.35 0.58
-1 3 25 0.86 0.18
-1 4 1 5.6 0.74
-1 4 2 10.28 0.97
-1 4 4 0.39 0.1
-1 4 5 63.06 4.28
-1 4 6 89.86 6.03
-1 4 7 29.39 0.99
-1 4 8 8.96 0.64
-1 4 9 1.42 0.09
-1 4 11 3.2 0.13
-1 4 12 22.62 1.76
-1 4 13 0.4 0.09
-1 4 14 3.54 0.19
-1 4 15 40.04 1.7
-1 4 16 4.12 0.23
-1 4 17 10.63 0.39
-1 4 19 0.62 0.09
-1 4 20 9.95 1.06
-1 4 21 2.38 0.19
-1 4 22 1.09 0.24
-1 5 1 10.29 0.36
-1 5 2 78.73 2.4
-1 5 3 1.12 0.1
-1 5 4 4.9 0.21
-1 5 6 32.2 1.17
-1 5 7 1.03 0.09
-1 5 8 0.98 0.08
-1 5 9 7.59 0.26
-1 5 10 15.79 0.56
-1 5 11 1.4 0.26
-1 5 12 15.12 0.71
-1 5 14 2.14 0.19
-1 5 15 1.49 0.13
-1 6 1 2.17 0.18
-1 6 2 7.48 0.32
-1 6 4 2.11 0.15
-1 6 5 0.81 0.1
-1 6 6 10.61 0.5
-1 6 7 10.36 0.37
-1 6 8 2.91 0.18
-1 6 10 0.51 0.09
-1 6 13 3.39 0.19
-1 6 15 6.05 0.25
-1 6 16 0.66 0.1
-1 6 17 2.19 0.27
-1 7 1 1.59 0.19
-1 7 3 3.73 0.23
-1 7 4 3.84 0.34
-1 7 6 4.25 0.19
-1 7 11 4.42 0.41
-1 7 14 4.14 0.33
-1 8 2 0.98 0.14
-1 8 4 1.09 0.14
-1 8 6 0.46 0.12
-1 8 8 0.72 0.21
0 0 2 147.39 5.34
0 0 4 76.66 2.03
0 0 6 1056.21 28.91
0 0 8 300.09 8.84
0 0 10 417.05 12.62
0 0 12 14.25 0.61
0 0 14 54.12 1.67
0 0 16 11.12 0.4
0 0 18 0.59 0.1
0 0 20 10.31 0.38
0 0 22 16.98 0.66
0 0 24 1.24 0.21
0 0 26 1.77 0.39
0 1 1 463 14.51
0 1 2 89.84 2.54
0 1 3 18.19 0.5
0 1 4 1536.65 54.2
0 1 5 73.06 1.81
0 1 6 327.75 8.54
0 1 7 38.46 0.96
0 1 8 29.56 0.78
0 1 9 38.41 1.04
0 1 10 155.89 4.25
0 1 11 206.2 5.45
0 1 13 26.58 0.72
0 1 14 8.76 0.3
0 1 15 3.84 0.17
0 1 16 3.93 0.17
0 1 17 20.82 0.69
0 1 18 26.21 0.71
0 1 19 53.03 1.59
0 1 20 3.29 0.17
0 1 21 17.74 0.51
0 1 22 4.46 0.17
0 1 23 11.07 0.64
0 1 24 4.31 0.25
0 1 25 0.84 0.21
0 1 26 2.09 0.39
0 2 0 13.46 0.61
0 2 1 73.84 2.09
0 2 2 130.85 3.43
0 2 4 180.57 5.7
0 2 5 51.33 1.52
0 2 6 5.5 0.26
0 2 7 146.84 4.11
0 2 9 58.46 1.87
0 2 10 26.47 0.77
0 2 11 1.41 0.14
0 2 12 17.88 0.55
0 2 13 10.48 0.3
0 2 14 59.92 1.48
0 2 15 101.68 2.48
0 2 16 2.8 0.13
0 2 18 12.03 0.42
0 2 19 12.99 0.41
0 2 20 26.96 0.71
0 2 21 13.88 0.43
0 2 22 0.38 0.08
0 2 23 3.91 0.19
0 2 24 8.31 0.43
0 2 25 8.41 0.33
0 3 1 48.71 1.77
0 3 2 119.24 3.83
0 3 3 87.99 3.28
0 3 4 55.29 2
0 3 5 16.07 0.72
0 3 7 0.92 0.23
0 3 8 99.57 2.96
0 3 9 42.51 1.44
0 3 10 1.22 0.08
0 3 11 1.58 0.12
0 3 12 7.02 0.23
0 3 14 28.84 0.73
0 3 16 1.19 0.09
0 3 17 5.36 0.23
0 3 18 4.86 0.21
0 3 19 0.4 0.1
0 3 20 13.01 0.39
0 3 21 2.75 0.16
0 3 22 4.65 0.24
0 3 24 7.86 0.41
0 4 0 3.02 0.63
0 4 1 12.39 1.06
0 4 2 61 3.31
0 4 3 3.86 0.65
0 4 4 14.01 0.98
0 4 5 78.98 4.83
0 4 6 6.61 1.11
0 4 8 5.22 0.31
0 4 9 6.26 0.23
0 4 10 16.09 0.44
0 4 11 0.65 0.08
0 4 12 23.62 0.69
0 4 13 6.78 0.25
0 4 14 0.21 0.06
0 4 15 27 0.72
0 4 16 16.98 0.51
0 4 17 0.73 0.16
0 4 18 2.96 0.17
0 4 19 3.85 0.23
0 4 20 4.7 0.65
0 4 22 1.56 0.14
0 5 2 7.87 0.31
0 5 3 1.18 0.1
0 5 4 25.17 0.64
0 5 5 3.4 0.23
0 5 6 81.27 3.11
0 5 8 6.83 0.24
0 5 10 0.27 0.07
0 5 11 4.06 0.18
0 5 12 9.6 0.47
0 5 13 1.18 0.12
0 5 14 16.76 0.89
0 5 15 2.01 0.24
0 5 16 26.83 1.76
0 5 18 1.03 0.21
0 5 19 2.25 0.26
0 5 20 2.91 0.27
0 6 0 19.09 0.79
0 6 1 7.18 0.31
0 6 2 9.9 0.37
0 6 3 4.46 0.24
0 6 4 0.78 0.1
0 6 5 29.74 1.88
0 6 7 0.21 0.07
0 6 8 0.81 0.08
0 6 9 0.73 0.1
0 6 10 12.86 0.88
0 6 11 1.39 0.14
0 6 12 5.44 0.25
0 6 13 5.37 0.41
0 6 15 1.54 0.14
0 6 16 2.28 0.22
0 6 17 0.66 0.2
0 7 1 9.18 0.45
0 7 5 0.81 0.11
0 7 8 0.98 0.28
0 7 9 7.69 0.76
0 7 10 2.14 0.33
0 7 11 0.78 0.25
0 7 14 0.85 0.21
0 8 2 0.42 0.12
0 8 4 0.34 0.09
1 0 0 368.5 9.5
1 0 2 10.3 0.35
1 0 4 1753.89 66
1 0 6 218.03 8.16
1 0 8 73.44 2.19
1 0 10 707.27 22.59
1 0 12 6.33 0.31
1 0 14 89.22 2.61
1 0 16 12.49 0.48
1 0 18 88.31 2.47
1 0 20 96.28 2.87
1 0 22 4.07 0.3
1 0 24 1.13 0.2
1 1 0 1532.55 41.4
1 1 1 41.24 1.06
1 1 2 444.73 12.33
1 1 3 807.32 21.79
1 1 4 67.09 1.64
1 1 5 115.46 3.11
1 1 6 216.79 5.66
1 1 7 18.61 0.51
1 1 8 97.27 2.64
1 1 9 202.33 5.52
1 1 10 76.33 1.92
1 1 12 1.95 0.14
1 1 13 6.95 0.28
1 1 14 128.22 3.39
1 1 15 4.31 0.21
1 1 16 23.88 0.65
1 1 17 3.72 0.2
1 1 18 4.51 0.16
1 1 19 11.65 0.33
1 1 20 5.55 0.25
1 1 21 10.63 0.36
1 1 22 3.08 0.14
1 1 23 8.13 0.3
1 1 24 14.74 0.64
1 1 25 2.13 0.24
1 2 0 315.79 8.92
1 2 1 268.77 7.75
1 2 3 372.78 10.95
1 2 4 19.79 0.69
1 2 5 95.53 2.72
1 2 6 166.74 4.5
1 2 7 89.5 2.48
1 2 8 6.56 0.33
1 2 9 6.83 0.42
1 2 10 4.64 0.23
1 2 11 9.12 0.35
1 2 12 14.85 0.41
1 2 13 27.8 0.71
1 2 14 6.8 0.22
1 2 15 0.94 0.08
1 2 16 6 0.18
1 2 17 4.64 0.19
1 2 19 6.13 0.37
1 2 20 0.48 0.09
1 2 21 2.46 0.14
1 2 22 11.84 0.44
1 2 23 0.45 0.1
1 2 24 9.94 1.02
1 2 25 9.61 1.35
1 3 0 18.77 0.84
1 3 1 30.39 1.25
1 3 2 45.65 1.35
1 3 4 8.48 0.47
1 3 5 23.38 0.75
1 3 6 47.59 1.66
1 3 7 20.33 1.1
1 3 8 23 0.78
1 3 9 8.52 0.35
1 3 10 0.63 0.07
1 3 11 16.02 0.41
1 3 12 35.46 0.95
1 3 13 27.88 0.73
1 3 14 15.3 0.45
1 3 15 0.86 0.1
1 3 16 0.36 0.08
1 3 17 1.41 0.12
1 3 18 38.56 1.14
1 3 19 15.41 0.59
1 3 21 1.22 0.12
1 3 23 2.56 0.2
1 3 24 4.32 0.65
1 4 0 18.2 1.34
1 4 2 54.76 3.02
1 4 3 14.94 1.2
1 4 4 3.46 0.28
1 4 5 55.54 6.19
1 4 6 9.8 0.57
1 4 7 1.06 0.17
1 4 8 57.23 1.79
1 4 9 13.26 1.04
1 4 11 1.49 0.08
1 4 12 1.66 0.13
1 4 13 9.09 0.62
1 4 14 2.07 0.15
1 4 15 20.35 0.6
1 4 16 12.68 0.49
1 4 17 4.23 0.23
1 4 18 0.83 0.09
1 4 19 4.87 0.48
1 4 20 2.8 0.52
1 4 22 7.9 1.3
1 5 0 4.73 0.24
1 5 2 12.71 0.42
1 5 3 0.82 0.09
1 5 4 94.84 2.36
1 5 5 4.41 0.19
1 5 7 1.05 0.11
1 5 8 9.06 0.32
1 5 9 1.06 0.13
1 5 10 2.47 0.18
1 5 11 1.09 0.13
1 5 12 26.46 0.98
1 5 13 0.35 0.1
1 5 14 24.59 1.25
1 5 16 8.03 0.48
1 5 20 2.26 0.26
1 6 0 6.84 0.3
1 6 1 6.03 0.4
1 6 2 3.05 0.21
1 6 3 0.73 0.12
1 6 4 5.55 0.24
1 6 5 13.22 0.41
1 6 6 4.54 0.22
1 6 7 0.36 0.09
1 6 8 13.71 0.74
1 6 9 12.48 0.48
1 6 10 7.56 0.31
1 6 13 2.4 0.2
1 6 14 0.76 0.11
1 6 15 12.8 0.4
1 6 16 1.03 0.22
1 6 17 1.86 0.26
1 7 1 1.59 0.17
1 7 4 2 0.18
1 7 5 4.18 0.64
1 7 9 5.05 0.44
1 7 11 2.56 0.34
1 7 13 2.87 0.31
1 8 0 4.85 0.33
2 0 0 24.42 0.77
2 0 2 3351.22 86.22
2 0 4 8.47 0.33
2 0 6 4.13 0.19
2 0 8 102.51 4.36
2 0 10 33.17 0.96
2 0 12 78.88 1.98
2 0 14 101.54 3.49
2 0 16 36.19 1
2 0 18 5.23 0.31
2 0 20 19.25 0.64
2 0 22 15.2 1.1
2 0 24 32.94 2.36
2 1 0 386.03 9.34
2 1 1 69.45 1.71
2 1 2 2.75 0.13
2 1 3 470.16 13.33
2 1 4 9.66 0.3
2 1 5 21.33 0.58
2 1 6 430.26 12.28
2 1 7 30.85 0.88
2 1 8 49.93 1.45
2 1 9 183.63 5.2
2 1 10 42.53 1.4
2 1 11 1.87 0.14
2 1 12 25.17 0.71
2 1 13 121.7 3.01
2 1 14 3.11 0.12
2 1 15 5.51 0.18
2 1 16 0.38 0.06
2 1 17 4.47 0.17
2 1 18 21.05 0.55
2 1 19 35.26 0.89
2 1 20 25.39 0.68
2 1 21 9.48 0.4
2 1 22 0.66 0.09
2 1 23 7.39 0.26
2 1 24 8.2 0.33
2 2 0 531.02 13.84
2 2 1 1.73 0.14
2 2 2 3.11 0.17
2 2 3 18.05 0.58
2 2 4 1.1 0.11
2 2 5 157.94 4.62
2 2 6 10.99 0.39
2 2 7 59.21 1.83
2 2 8 59.52 1.83
2 2 9 68.82 5.55
2 2 10 70.01 4.03
2 2 11 32.32 0.88
2 2 12 0.36 0.07
2 2 13 36.63 0.98
2 2 14 1.47 0.11
2 2 15 12.99 0.47
2 2 16 13.11 0.4
2 2 17 48.99 1.25
2 2 18 2.44 0.14
2 2 20 2.02 0.15
2 2 22 3.14 0.14
2 2 23 12.44 0.39
2 3 0 12.83 0.5
2 3 1 28.95 1.22
2 3 2 90.83 3.31
2 3 3 4.81 0.27
2 3 4 229.3 7.96
2 3 5 8.09 0.39
2 3 6 2.67 0.23
2 3 7 28.64 1.93
2 3 8 1.7 0.17
2 3 9 1.37 0.1
2 3 10 2.29 0.14
2 3 11 0.2 0.04
2 3 12 3.94 0.13
2 3 14 8.63 0.37
2 3 15 5.38 0.28
2 3 16 4.08 0.17
2 3 17 0.24 0.05
2 3 18 1.82 0.11
2 3 19 0.36 0.08
2 3 20 0.27 0.07
2 3 21 1.79 0.21
2 3 22 5.76 0.25
2 3 23 5.68 0.56
2 4 0 13.58 1.14
2 4 2 2.21 0.3
2 4 3 58.17 2.77
2 4 4 53.23 2.29
2 4 5 19.93 1.4
2 4 6 3.12 0.25
2 4 7 18.59 0.54
2 4 8 5.47 0.3
2 4 9 7.4 0.25
2 4 10 1.64 0.29
2 4 12 35.58 1.42
2 4 13 12.9 0.69
2 4 14 7.72 0.28
2 4 15 5.98 0.41
2 4 17 6.24 0.3
2 4 18 13.96 0.54
2 4 19 3.6 0.23
2 4 21 0.31 0.09
2 5 0 12.32 0.66
2 5 1 4.24 0.22
2 5 2 1.91 0.16
2 5 3 1.5 0.11
2 5 4 3.05 0.19
2 5 5 1.29 0.11
2 5 6 2.11 0.14
2 5 7 0.27 0.07
2 5 8 77.3 4
2 5 9 6.73 0.52
2 5 10 3.93 0.18
2 5 11 0.35 0.07
2 5 12 0.94 0.11
2 5 13 1.42 0.17
2 5 14 22.06 0.77
2 5 15 1.52 0.14
2 5 16 8.2 0.28
2 5 18 18.18 0.63
2 5 19 1.21 0.22
2 6 0 0.7 0.12
2 6 1 0.55 0.13
2 6 2 7.27 0.31
2 6 3 14.59 0.48
2 6 4 7.43 0.31
2 6 6 0.35 0.11
2 6 7 5.63 0.29
2 6 8 1.01 0.09
2 6 9 0.39 0.09
2 6 11 4.09 0.48
2 6 12 8.5 0.32
2 6 13 0.66 0.11
2 6 14 4.85 0.48
2 6 16 1 0.22
2 7 0 1.29 0.16
2 7 1 2.77 0.27
2 7 2 0.48 0.12
2 7 3 2.39 0.2
2 7 4 5.05 0.28
2 7 6 2.28 0.14
2 7 7 3.35 0.23
2 7 8 0.53 0.12
2 7 13 0.85 0.21
2 8 0 2.81 0.2
2 8 4 1.54 0.19
3 0 0 394.06 12.77
3 0 2 187.25 5.74
3 0 4 21.83 0.68
3 0 6 601.18 17.27
3 0 8 10.8 0.44
3 0 10 1.32 0.13
3 0 12 294.11 11.61
3 0 14 4.01 0.17
3 0 16 10.86 0.33
3 0 18 9.91 0.32
3 0 20 35.2 0.96
3 0 22 37.06 1.29
3 0 24 1.69 0.19
3 1 0 110.62 2.94
3 1 1 441.96 11.16
3 1 2 450.46 11.08
3 1 3 42.85 1.13
3 1 4 11.75 0.36
3 1 5 5.52 0.21
3 1 6 4.8 0.19
3 1 7 29.75 0.83
3 1 8 37.9 1.01
3 1 9 1.52 0.12
3 1 10 83.33 2.44
3 1 11 13.17 0.35
3 1 12 10.5 0.32
3 1 13 36.16 0.99
3 1 14 0.66 0.05
3 1 15 2.93 0.11
3 1 16 57.78 1.4
3 1 17 1.32 0.08
3 1 18 3.11 0.12
3 1 19 7.57 0.33
3 1 20 0.41 0.06
3 1 21 4.38 0.16
3 1 22 0.77 0.09
3 1 23 22.81 0.6
3 1 24 4.94 0.2
3 2 0 2.14 0.15
3 2 1 8.1 0.3
3 2 2 276.89 7.36
3 2 3 104.01 2.88
3 2 4 92.68 2.51
3 2 5 62.02 1.69
3 2 6 45.46 1.41
3 2 7 3.89 0.23
3 2 8 101.57 3.1
3 2 9 2.25 0.13
3 2 10 11.04 0.4
3 2 11 9.28 0.25
3 2 12 22.71 0.54
3 2 13 3.06 0.11
3 2 14 8.17 0.24
3 2 15 1.32 0.12
3 2 16 1.95 0.1
3 2 17 7.09 0.3
3 2 18 21.82 0.61
3 2 19 14.57 0.41
3 2 20 6.28 0.3
3 2 21 5.51 0.39
3 2 22 1.87 0.13
3 2 23 1.13 0.11
3 3 0 74.05 2.19
3 3 1 2.17 0.19
3 3 2 20.52 0.73
3 3 3 96.14 2.84
3 3 4 106.26 3.16
3 3 6 20.57 1.7
3 3 7 2.25 0.17
3 3 8 117.63 7.76
3 3 9 32.56 0.99
3 3 10 0.29 0.05
3 3 11 16.07 0.47
3 3 12 34.7 0.87
3 3 13 12.96 0.5
3 3 14 52.05 1.32
3 3 15 4.92 0.25
3 3 16 9.17 0.49
3 3 17 8.09 0.26
3 3 18 2.07 0.17
3 3 19 0.83 0.11
3 3 20 0.46 0.08
3 3 21 4.53 0.23
3 3 22 6.82 0.92
3 4 0 6.21 0.49
3 4 2 2.41 0.27
3 4 3 17.78 0.74
3 4 4 36.29 1.3
3 4 6 0.36 0.07
3 4 7 56.11 2.42
3 4 8 21.37 1.78
3 4 9 9.95 0.3
3 4 10 11.47 1.03
3 4 12 1.87 0.1
3 4 13 14.64 0.49
3 4 14 3.35 0.27
3 4 16 2.26 0.2
3 4 17 18.15 1.32
3 4 18 9.25 0.42
3 4 19 1.07 0.2
3 5 0 17.05 0.52
3 5 1 9.46 0.34
3 5 2 3.16 0.25
3 5 5 1.97 0.13
3 5 6 16.91 0.53
3 5 7 5.24 0.32
3 5 8 1.73 0.11
3 5 9 0.32 0.06
3 5 12 1.97 0.18
3 5 13 0.43 0.09
3 5 14 1.96 0.23
3 5 15 2.11 0.15
3 5 16 4.65 0.49
3 5 18 16.67 0.6
3 6 1 0.87 0.13
3 6 2 1.5 0.18
3 6 3 0.63 0.12
3 6 4 1.12 0.13
3 6 5 3.4 0.22
3 6 6 0.88 0.14
3 6 7 16.97 0.72
3 6 8 0.3 0.08
3 6 9 0.58 0.1
3 6 10 2.45 0.15
3 6 11 2.98 0.19
3 6 12 3.07 0.19
3 6 13 4.16 0.6
3 6 14 0.61 0.13
3 6 15 1 0.11
3 7 0 1.42 0.17
3 7 2 4.28 0.25
3 7 3 5.75 0.28
3 7 4 0.94 0.13
3 7 6 0.69 0.11
3 7 8 1.52 0.22
3 7 9 2.02 0.33
3 7 10 1.58 0.29
3 7 11 3.21 0.34
3 7 12 0.84 0.22
3 8 2 3.54 0.21
4 0 0 46.29 2.23
4 0 4 38.9 1.18
4 0 6 13.7 0.53
4 0 8 1.09 0.13
4 0 10 4.4 0.17
4 0 12 2.83 0.13
4 0 14 0.16 0.04
4 0 16 49.45 1.52
4 0 22 28.72 1.56
4 1 0 2.52 0.15
4 1 1 158.18 4.33
4 1 2 187.81 4.88
4 1 3 213.52 5.41
4 1 4 3.15 0.15
4 1 5 89.52 2.24
4 1 6 40.63 1.09
4 1 7 8.64 0.31
4 1 8 29.15 0.85
4 1 9 20.75 0.55
4 1 10 0.3 0.04
4 1 11 125.91 3.04
4 1 12 11.52 0.38
4 1 13 6.01 0.18
4 1 14 2.47 0.12
4 1 15 9.35 0.26
4 1 16 3.17 0.16
4 1 17 8.67 0.26
4 1 18 0.46 0.08
4 1 19 1.47 0.1
4 1 20 16.94 0.46
4 1 21 13.85 0.46
4 1 22 4.51 0.19
4 1 23 0.66 0.12
4 2 0 116.75 3.01
4 2 1 75.22 2.1
4 2 2 295.02 7.83
4 2 3 55.22 1.43
4 2 4 15.21 0.51
4 2 5 0.57 0.1
4 2 6 7.07 0.35
4 2 7 146.87 4.92
4 2 8 0.69 0.07
4 2 9 15.28 0.41
4 2 10 41.48 1
4 2 11 1.23 0.08
4 2 12 103.6 3.04
4 2 13 28.57 0.7
4 2 14 11.53 0.3
4 2 15 28.25 0.82
4 2 16 2.37 0.12
4 2 17 5.45 0.3
4 2 18 5.92 0.28
4 2 19 2.98 0.16
4 2 20 3.28 0.16
4 2 21 2.47 0.15
4 2 22 13.81 0.47
4 3 0 6.11 0.34
4 3 1 38.35 1.34
4 3 2 0.94 0.15
4 3 3 1.4 0.17
4 3 4 47.3 1.62
4 3 5 3.98 0.2
4 3 6 106.31 3.56
4 3 7 0.38 0.07
4 3 8 54.56 1.33
4 3 9 6.18 0.19
4 3 10 9.78 0.48
4 3 11 0.46 0.06
4 3 13 14.19 0.63
4 3 16 24.62 0.86
4 3 17 3.62 0.18
4 3 18 33.44 0.97
4 3 19 2.43 0.18
4 3 21 3.34 0.24
4 4 0 65.13 2.41
4 4 2 0.55 0.11
4 4 3 2.95 0.2
4 4 4 1.61 0.16
4 4 5 19.88 0.56
4 4 6 13.96 0.8
4 4 7 43.01 1.09
4 4 8 23.19 1.47
4 4 9 1.19 0.09
4 4 10 1.52 0.26
4 4 11 0.42 0.07
4 4 12 0.21 0.06
4 4 13 0.57 0.11
4 4 14 24.03 1.17
4 4 15 5.93 0.28
4 4 17 21.25 1.58
4 5 1 2.38 0.19
4 5 2 0.9 0.13
4 5 3 3.62 0.38
4 5 4 25.46 0.73
4 5 5 2.24 0.17
4 5 6 10.53 0.43
4 5 8 2.25 0.13
4 5 10 17.03 0.99
4 5 11 8.47 0.35
4 5 12 2.17 0.19
4 5 16 9.19 0.51
4 5 17 1.66 0.25
4 6 0 0.98 0.19
4 6 1 4.25 0.38
4 6 2 0.69 0.12
4 6 3 0.81 0.13
4 6 5 2.83 0.23
4 6 7 1.07 0.12
4 6 8 2.22 0.34
4 6 9 1.94 0.2
4 6 14 1.74 0.28
4 7 1 5.5 0.5
4 7 2 1.04 0.15
4 7 5 1.06 0.11
4 7 6 7.25 0.26
4 7 7 0.56 0.13
4 7 8 4.19 0.4
4 8 0 0.83 0.16
4 8 1 0.62 0.12
5 0 0 64.07 2.3
5 0 2 661.96 20.06
5 0 4 12.02 0.5
5 0 6 6.69 0.42
5 0 8 145.44 4.03
5 0 10 74.01 1.86
5 0 12 16.88 0.44
5 0 14 16.1 0.44
5 0 16 15.73 0.47
5 0 18 2.06 0.16
5 0 20 1.83 0.17
5 0 22 0.78 0.12
5 1 0 0.35 0.08
5 1 1 108.71 2.84
5 1 2 59.77 1.54
5 1 3 1.79 0.12
5 1 4 40.42 1.11
5 1 5 1.24 0.12
5 1 6 80.9 2.19
5 1 7 5.16 0.19
5 1 8 1.43 0.08
5 1 9 2.11 0.09
5 1 10 0.78 0.06
5 1 11 29.35 0.83
5 1 12 55.75 1.47
5 1 13 17.14 0.47
5 1 14 0.23 0.05
5 1 15 18.46 0.47
5 1 18 5.72 0.25
5 1 19 0.8 0.09
5 1 20 1.39 0.16
5 1 21 23.93 0.69
5 2 0 25.11 0.71
5 2 1 26.5 0.75
5 2 2 3.57 0.18
5 2 3 24.28 0.72
5 2 4 60.33 1.71
5 2 5 15.11 0.59
5 2 6 51.02 1.85
5 2 7 4.41 0.2
5 2 8 13.93 0.43
5 2 9 10.7 0.38
5 2 10 41.64 1.12
5 2 11 11.04 0.31
5 2 12 23.4 0.61
5 2 14 6.44 0.2
5 2 16 12.17 0.5
5 2 17 27.31 1.12
5 2 18 2.92 0.37
5 2 19 3.04 0.28
5 2 20 18.33 0.53
5 2 21 2.83 0.19
5 2 22 13.14 0.75
5 3 0 120.31 3.95
5 3 1 27.59 0.96
5 3 2 5.58 0.3
5 3 3 5.31 0.24
5 3 4 4.34 0.23
5 3 5 39.42 1.41
5 3 6 91.28 2.35
5 3 7 5.12 0.34
5 3 8 3.44 0.17
5 3 9 0.31 0.05
5 3 10 40.14 0.98
5 3 11 22.32 1.08
5 3 12 0.73 0.07
5 3 13 4.63 0.17
5 3 14 30.38 0.79
5 3 15 0.82 0.08
5 3 16 35.24 1.39
5 3 19 4.27 0.53
5 4 0 9.21 0.37
5 4 1 5.25 0.25
5 4 3 1.32 0.11
5 4 4 27.43 1.22
5 4 5 21.07 1.23
5 4 6 9.75 0.3
5 4 7 19.05 0.76
5 4 9 7.46 0.32
5 4 10 17.19 1.38
5 4 11 2.86 0.18
5 4 12 0.59 0.07
5 4 14 2.93 0.41
5 4 15 13.84 0.4
5 4 16 1.75 0.22
5 4 17 6.06 0.4
5 4 18 9.27 0.46
5 5 0 5.74 0.27
5 5 2 5.31 0.26
5 5 3 1.11 0.16
5 5 4 3.86 0.19
5 5 6 7.18 0.31
5 5 7 1.23 0.11
5 5 8 7.82 0.58
5 5 9 0.36 0.09
5 5 13 0.37 0.1
5 5 14 3.3 0.19
5 5 15 1 0.12
5 5 16 2.96 0.3
5 6 0 7.38 0.32
5 6 1 5.02 0.26
5 6 2 4.37 0.25
5 6 3 2.15 0.15
5 6 4 1.88 0.15
5 6 5 8.6 0.3
5 6 6 3.47 0.19
5 6 7 12.21 0.47
5 6 8 0.73 0.14
5 6 9 2.34 0.23
5 7 0 1.81 0.26
5 7 1 9.76 0.38
5 7 2 1.78 0.17
5 7 3 2.3 0.19
5 7 4 1.62 0.16
5 7 6 0.46 0.13
5 7 7 0.86 0.12
6 0 0 225.8 7.09
6 0 2 29.3 1.22
6 0 4 1.47 0.21
6 0 6 41.95 1.34
6 0 8 16.49 0.45
6 0 10 36.56 1.19
6 0 12 97.23 2.52
6 0 14 4.71 0.2
6 0 16 2.21 0.17
6 0 18 12.24 0.44
6 0 20 23.64 0.72
6 1 0 0.61 0.1
6 1 1 188.69 5.65
6 1 2 61.26 1.65
6 1 3 22.94 0.72
6 1 4 56.22 1.58
6 1 5 62.08 1.61
6 1 6 20.94 0.59
6 1 7 12.17 0.33
6 1 8 44.05 1.07
6 1 9 35.78 0.97
6 1 10 0.32 0.04
6 1 11 33.73 0.99
6 1 12 0.65 0.06
6 1 13 14.55 0.37
6 1 15 1.95 0.1
6 1 16 28.12 0.75
6 1 17 0.42 0.08
6 1 18 3.33 0.15
6 1 19 6.18 0.23
6 1 21 1.92 0.39
6 2 1 9.62 0.35
6 2 3 13.09 0.47
6 2 4 46.76 1.25
6 2 5 96.73 2.74
6 2 6 2.26 0.11
6 2 7 1.12 0.09
6 2 8 5.53 0.21
6 2 9 35.05 0.86
6 2 10 1.56 0.09
6 2 11 6.27 0.21
6 2 12 3.37 0.14
6 2 13 7.44 0.29
6 2 14 34.84 0.89
6 2 15 16.79 0.5
6 2 16 9.02 0.3
6 2 17 1.39 0.12
6 2 18 0.67 0.13
6 2 20 2.92 0.2
6 3 2 0.66 0.11
6 3 3 0.76 0.1
6 3 4 0.28 0.06
6 3 7 5.49 0.27
6 3 8 6.24 0.24
6 3 9 3.8 0.21
6 3 10 33.66 1.48
6 3 11 1.96 0.13
6 3 12 1.37 0.1
6 3 13 0.6 0.08
6 3 15 13.83 0.9
6 3 16 5.73 0.35
6 3 17 0.63 0.12
6 3 18 8.88 0.53
6 4 0 16.66 0.72
6 4 2 27.9 2.51
6 4 3 0.25 0.08
6 4 4 6.24 0.27
6 4 5 14.1 0.45
6 4 6 0.86 0.15
6 4 7 1.96 0.12
6 4 9 8.39 0.28
6 4 10 19.42 1.78
6 4 11 1.86 0.16
6 4 12 0.35 0.07
6 4 14 3.65 0.17
6 4 15 5.49 0.25
6 4 16 4.93 0.25
6 5 0 29.09 1.04
6 5 1 4.38 0.47
6 5 4 16.39 0.52
6 5 6 47.99 1.61
6 5 7 3.04 0.23
6 5 8 0.59 0.11
6 5 9 1.57 0.17
6 5 12 0.53 0.11
6 5 13 1.92 0.35
6 5 14 9.24 0.47
6 6 0 12.76 0.45
6 6 1 2.52 0.17
6 6 2 4.94 0.33
6 6 3 5.98 0.33
6 6 5 1.25 0.12
6 6 7 1.89 0.12
6 6 8 0.99 0.15
6 6 9 0.5 0.12
6 6 10 8.67 0.53
6 6 11 5.62 0.42
6 6 12 1.84 0.29
6 7 0 2.04 0.18
6 7 1 0.56 0.1
6 7 2 0.59 0.17
6 7 5 0.57 0.08
6 7 7 2.04 0.19
7 0 0 111.73 3.7
7 0 2 35.79 1.36
7 0 4 257.77 11.62
7 0 6 1.31 0.1
7 0 8 46.16 1.25
7 0 10 63.24 1.58
7 0 12 18.74 0.49
7 0 14 13.01 0.8
7 0 16 9.18 0.51
7 0 18 17.03 1.88
7 0 20 4.03 0.47
7 1 0 85.73 2.44
7 1 1 1.17 0.13
7 1 3 8.14 0.46
7 1 4 38.62 1.78
7 1 5 40.24 1.02
7 1 6 0.97 0.07
7 1 7 1.56 0.09
7 1 8 47.77 1.18
7 1 10 3.66 0.13
7 1 11 17.29 0.51
7 1 12 16.34 0.58
7 1 13 16.74 0.57
7 1 14 26.2 0.84
7 1 15 24.9 0.68
7 1 17 3.46 0.16
7 1 18 0.44 0.09
7 1 19 4.78 0.25
7 2 0 35.94 1.07
7 2 1 11.39 0.48
7 2 2 6.08 0.33
7 2 3 5.17 0.22
7 2 4 0.56 0.08
7 2 5 0.84 0.1
7 2 6 6.45 0.27
7 2 7 3.85 0.16
7 2 8 7.25 0.25
7 2 9 20.96 0.55
7 2 10 0.94 0.07
7 2 11 11.01 0.32
7 2 12 0.32 0.06
7 2 13 4.38 0.26
7 2 14 6.93 0.31
7 2 15 12.41 0.77
7 2 16 1.15 0.13
7 2 18 4.19 0.88
7 2 19 15.21 0.8
7 3 0 0.6 0.09
7 3 1 27.17 0.76
7 3 2 23.15 1.13
7 3 3 14.88 0.42
7 3 4 14.36 0.45
7 3 5 1.06 0.1
7 3 6 6.95 0.25
7 3 7 3.53 0.16
7 3 8 12.92 0.59
7 3 9 10.7 0.63
7 3 10 1.85 0.13
7 3 12 3.64 0.22
7 3 13 1.64 0.12
7 3 14 0.29 0.07
7 3 16 2.12 0.17
7 4 0 10.48 0.87
7 4 1 1.62 0.13
7 4 2 1.58 0.11
7 4 3 1.23 0.1
7 4 4 2.42 0.22
7 4 5 22.56 0.66
7 4 6 30.64 1.06
7 4 9 11.71 0.38
7 4 12 5.72 0.76
7 4 14 7.88 0.27
7 4 15 4.22 0.34
7 5 0 13.82 0.64
7 5 2 12.83 0.45
7 5 3 1.3 0.11
7 5 4 2.53 0.19
7 5 8 4.21 0.24
7 5 10 21.81 1.15
7 5 11 1.14 0.28
7 5 12 1.63 0.29
7 6 0 0.61 0.13
7 6 2 2.56 0.18
7 6 4 4.15 0.18
7 6 5 4.31 0.36
7 6 6 3.46 0.15
7 6 7 3.85 0.4
7 6 8 2.85 0.36
7 6 9 5.17 0.42
7 6 10 2.18 0.32
7 7 1 0.74 0.11
7 7 3 5.73 0.27
8 0 0 28.39 2.19
8 0 2 16.36 0.58
8 0 4 65.03 2.02
8 0 6 5.01 0.25
8 0 8 30.66 1.11
8 0 10 0.89 0.12
8 0 12 25.64 1.14
8 0 14 81.84 2.44
8 0 16 0.97 0.14
8 1 2 2.16 0.14
8 1 3 85.93 2.46
8 1 4 34.66 0.93
8 1 6 4.37 0.17
8 1 7 0.43 0.07
8 1 8 20.35 0.78
8 1 9 9.79 0.3
8 1 10 18.8 0.49
8 1 11 6.11 0.2
8 1 12 4.39 0.25
8 1 13 10.82 0.35
8 1 15 1.73 0.12
8 1 16 0.71 0.11
8 1 18 19.96 0.94
8 2 0 39.13 0.99
8 2 1 22.93 0.64
8 2 3 4.97 0.2
8 2 4 14.51 0.52
8 2 5 8.11 0.31
8 2 7 34.52 0.97
8 2 8 4.32 0.19
8 2 10 16.15 0.7
8 2 13 3.82 0.22
8 2 15 2.77 0.21
8 2 16 2.27 0.19
8 2 17 0.97 0.31
8 3 0 17.47 0.53
8 3 2 9.86 0.3
8 3 3 0.73 0.1
8 3 4 11.19 0.49
8 3 5 18.26 0.68
8 3 6 14.78 0.43
8 3 8 3.67 0.16
8 3 10 2.65 0.13
8 3 11 5.66 0.23
8 3 12 3.41 0.17
8 3 13 7.1 0.27
8 3 14 5.85 0.94
8 3 15 1.18 0.33
8 4 1 2.32 0.3
8 4 2 14.86 0.46
8 4 3 2.65 0.15
8 4 4 2.42 0.24
8 4 5 2.91 0.45
8 4 6 4.16 0.26
8 4 7 4.32 0.23
8 4 9 13.18 0.39
8 4 10 5.72 0.61
8 4 12 6.39 0.45
8 5 0 1.41 0.16
8 5 2 7.4 0.28
8 5 3 4.22 0.22
8 5 4 1.01 0.11
8 5 6 6.83 0.34
8 5 7 2.21 0.15
8 5 8 21.2 1.03
8 5 9 2.67 0.46
8 5 12 0.86 0.23
8 6 1 0.55 0.11
8 6 2 5.02 0.27
8 6 3 1.27 0.11
8 6 4 3.1 0.16
9 0 0 18.39 0.65
9 0 2 48.36 4.54
9 0 4 5.02 0.31
9 0 6 27.01 0.81
9 0 10 14.24 0.47
9 0 12 8.74 0.29
9 1 0 32.71 1.02
9 1 2 5.05 0.39
9 1 3 27.02 1.94
9 1 4 2.82 0.16
9 1 5 6.22 0.22
9 1 6 8.35 0.28
9 1 7 13.34 0.39
9 1 8 1.79 0.14
9 1 9 1.93 0.13
9 1 10 9.43 0.28
9 1 11 0.23 0.06
9 1 12 1.01 0.09
9 1 13 25.42 0.81
9 1 14 9.54 0.39
9 1 15 1.11 0.18
9 1 16 2.29 0.4
9 2 0 1.87 0.11
9 2 1 3.77 0.18
9 2 2 35.63 1.32
9 2 3 5.01 0.21
9 2 4 36.09 1.03
9 2 5 3.47 0.17
9 2 6 3.19 0.2
9 2 7 1.92 0.14
9 2 8 2.4 0.17
9 2 9 15.97 0.45
9 2 10 1.99 0.13
9 2 11 8.56 0.36
9 2 12 6.55 0.27
9 2 14 6.49 0.58
9 2 15 2.48 0.4
9 3 0 2.2 0.15
9 3 1 6.72 0.24
9 3 2 2.76 0.15
9 3 3 14.49 0.57
9 3 4 6.61 0.44
9 3 5 1.22 0.12
9 3 6 15.89 0.54
9 3 7 0.54 0.1
9 3 8 16.42 0.48
9 3 10 3.06 0.18
9 3 11 3.68 0.22
9 3 12 5.03 0.41
9 4 1 2.65 0.17
9 4 2 14.1 0.43
9 4 6 5.59 0.46
9 4 7 19.74 0.59
9 4 8 12.77 0.42
9 4 9 5.18 0.46
9 4 10 0.97 0.28
9 5 1 0.92 0.15
9 5 2 4.55 0.2
9 5 3 1.67 0.14
9 5 4 1.27 0.13
9 5 5 1.02 0.22
9 5 8 5.5 0.44
9 6 1 1.67 0.16
9 6 3 1.14 0.1
9 6 4 0.27 0.08
10 0 0 7.59 0.66
10 0 2 2.96 0.58
10 0 4 14.44 0.51
10 0 6 17.61 0.75
10 0 8 0.63 0.13
10 0 10 11.42 0.41
10 0 12 11.59 0.47
10 0 14 2.82 0.42
10 1 0 9.67 0.35
10 1 1 34.72 0.97
10 1 3 8.92 0.33
10 1 4 9.43 0.3
10 1 5 3.86 0.17
10 1 6 7.93 0.27
10 1 8 1.33 0.15
10 1 9 1.27 0.11
10 1 10 5.23 0.19
10 1 11 3.73 0.17
10 1 12 0.67 0.08
10 1 13 1.72 0.31
10 1 14 5.27 0.52
10 2 0 9.63 0.3
10 2 1 1.71 0.13
10 2 2 29.35 0.82
10 2 3 8.12 0.28
10 2 4 1.56 0.12
10 2 5 9.88 0.32
10 2 6 7.58 0.43
10 2 7 3.89 0.2
10 2 8 3.19 0.18
10 2 9 0.55 0.09
10 2 10 6.2 0.53
10 2 11 1.14 0.12
10 2 12 15.42 1.04
10 3 0 0.8 0.09
10 3 1 1.46 0.15
10 3 2 19.73 0.57
10 3 3 3.84 0.25
10 3 4 3.19 0.19
10 3 6 14.29 0.82
10 3 7 11.61 0.41
10 3 8 24.18 0.97
10 3 9 0.49 0.08
10 3 10 1.02 0.15
10 3 12 1.37 0.22
10 4 0 2.77 0.18
10 4 1 5.65 0.45
10 4 3 1.51 0.14
10 4 4 3.45 0.24
10 4 5 1.16 0.19
10 4 6 0.99 0.14
10 4 7 7.34 0.68
10 5 0 2.35 0.17
10 5 1 2.95 0.18
10 5 2 0.46 0.15
10 5 3 0.43 0.1
10 5 4 1.7 0.14
10 5 5 0.89 0.11
10 5 6 0.89 0.26
11 0 0 34.73 1.17
11 0 2 24.79 0.88
11 0 6 2.39 0.2
11 0 10 0.91 0.14
11 1 1 4.07 0.18
11 1 2 8.67 0.39
11 1 3 11.57 0.41
11 1 4 1.73 0.15
11 1 5 12.82 0.4
11 1 6 3.67 0.25
11 1 7 4.69 0.21
11 1 9 1.32 0.12
11 1 10 5.32 0.29
11 1 11 10.01 0.34
11 2 1 12.6 0.53
11 2 3 0.88 0.12
11 2 4 6.97 0.3
11 2 6 18.14 0.6
11 2 7 16.04 0.54
11 2 8 2.91 0.17
11 2 9 0.82 0.1
11 2 10 1.05 0.35
11 2 11 4.78 0.33
11 3 0 20.11 0.63
11 3 1 2.21 0.19
11 3 2 1.51 0.17
11 3 3 1.45 0.34
11 3 4 3.37 0.22
11 3 5 0.68 0.14
11 3 6 2.31 0.16
11 3 8 1.37 0.12
11 4 0 1.46 0.13
11 4 1 3.57 0.19
11 4 2 3.09 0.21
11 4 4 6.76 0.3
11 4 5 0.51 0.12
11 4 6 0.43 0.13
11 4 7 0.98 0.26
11 5 2 1.63 0.18
12 0 0 1.42 0.15
12 0 2 20.95 0.69
12 0 4 7.69 0.49
12 0 6 18.31 0.63
12 0 8 0.52 0.13
12 1 0 8.44 0.28
12 1 1 3.43 0.16
12 1 2 7.81 0.41
12 1 3 3.22 0.26
12 1 5 3.78 0.19
12 1 6 12.2 0.38
12 1 7 2.75 0.16
12 1 8 1.2 0.12
12 2 0 0.55 0.12
12 2 3 2.62 0.23
12 2 4 3.91 0.21
12 2 5 2.51 0.2
12 2 6 0.87 0.12
12 2 7 1.06 0.12
12 2 8 1.38 0.25
12 3 0 4.29 0.4
12 3 3 2.58 0.2
12 3 4 4.89 0.25
12 3 5 3.93 0.36
12 3 6 0.55 0.11
12 4 0 4.25 0.24
12 4 1 2.07 0.19
13 0 2 12.15 0.78
13 0 4 8.98 0.56
13 0 6 8.56 0.45
13 1 0 1.29 0.11
13 1 1 2.03 0.19
13 1 2 1.1 0.13
13 1 3 2.58 0.16
13 1 4 0.99 0.14
13 1 5 10.84 0.72
13 1 6 2.41 0.23
13 2 0 0.82 0.12
13 2 1 2.96 0.17
13 2 2 2.34 0.22
13 2 3 4.8 0.23
