#------------------------------------------------------------------------------
#$Date: 2020-04-10 08:37:02 +0300 (Fri, 10 Apr 2020) $
#$Revision: 250653 $
#$URL: file:///home/coder/svn-repositories/cod/cif/2/02/20/2022074.cif $
#------------------------------------------------------------------------------
#
# This file is available in the Crystallography Open Database (COD),
# http://www.crystallography.net/. The original data for this entry
# were provided by IUCr Journals, http://journals.iucr.org/.
#
# The file may be used within the scientific community so long as
# proper attribution is given to the journal article from which the
# data were obtained.
#
data_2022074
loop_
_publ_author_name
'Jha, Kunal Kumar'
'Gruza, Barbara'
'Kumar, Prashant'
'Chodkiewicz, Michal Leszek'
'Dominiak, Paulina Maria'
_publ_section_title
;
 TAAM: a reliable and user friendly tool for hydrogen-atom location using
 routine X-ray diffraction data
;
_journal_issue                   3
_journal_name_full
'Acta Crystallographica Section B Structural Science, Crystal Engineering and Materials'
_journal_paper_doi               10.1107/S2052520620002917
_journal_volume                  76
_journal_year                    2020
_chemical_absolute_configuration unk
_chemical_formula_moiety         'C4 H3 N3 O'
_chemical_formula_sum            'C4 H3 N3 O'
_chemical_formula_weight         109.09
_space_group_crystal_system      orthorhombic
_space_group_IT_number           33
_space_group_name_Hall           'P 2c -2n'
_space_group_name_H-M_alt        'P n a 21'
_symmetry_Int_Tables_number      33
_audit_creation_date             2019-09-24
_audit_creation_method
;
Olex2 1.2
(compiled 2018.05.29 svn.r3508 for OlexSys, GUI svn.r5506)
;
_cell_angle_alpha                90
_cell_angle_beta                 90
_cell_angle_gamma                90
_cell_formula_units_Z            4
_cell_length_a                   12.584(3)
_cell_length_b                   9.699(2)
_cell_length_c                   3.674(2)
_cell_measurement_temperature    120
_cell_volume                     448.4(3)
_computing_molecular_graphics    'Olex2 (Dolomanov et al., 2009)'
_computing_publication_material  'Olex2 (Dolomanov et al., 2009)'
_computing_structure_refinement  'olex2.refine (Bourhis et al., 2015)'
_diffrn_ambient_temperature      120
_diffrn_measured_fraction_theta_full 0.9807
_diffrn_measured_fraction_theta_max 0.9807
_diffrn_measurement_device_type  'Siemens P4'
_diffrn_radiation_type           'Mo K\a'
_diffrn_radiation_wavelength     0.71073
_diffrn_reflns_av_R_equivalents  0.0000
_diffrn_reflns_av_unetI/netI     0.0277
_diffrn_reflns_limit_h_max       22
_diffrn_reflns_limit_h_min       0
_diffrn_reflns_limit_k_max       17
_diffrn_reflns_limit_k_min       0
_diffrn_reflns_limit_l_max       6
_diffrn_reflns_limit_l_min       0
_diffrn_reflns_number            1528
_diffrn_reflns_theta_full        40.1081
_diffrn_reflns_theta_max         40.11
_diffrn_reflns_theta_min         2.65
_exptl_absorpt_coefficient_mu    0.124
_exptl_crystal_density_diffrn    1.6157
_exptl_crystal_F_000             224.0996
_refine_diff_density_max         0.2898
_refine_diff_density_min         -0.2204
_refine_diff_density_rms         0.0643
_refine_ls_d_res_high            0.5516
_refine_ls_d_res_low             7.6821
_refine_ls_goodness_of_fit_ref   1.0485
_refine_ls_hydrogen_treatment    refall
_refine_ls_matrix_type           full
_refine_ls_number_constraints    0
_refine_ls_number_parameters     100
_refine_ls_number_reflns         1528
_refine_ls_number_restraints     1
_refine_ls_restrained_S_all      1.0485
_refine_ls_R_factor_all          0.0301
_refine_ls_R_factor_gt           0.0265
_refine_ls_shift/su_max          0.0008
_refine_ls_shift/su_mean         0.0001
_refine_ls_structure_factor_coef Fsqd
_refine_ls_weighting_details
'w=1/[\s^2^(Fo^2^)+(0.0230P)^2^+0.0915P] where P=(Fo^2^+2Fc^2^)/3'
_refine_ls_weighting_scheme      calc
_refine_ls_wR_factor_gt          0.0622
_refine_ls_wR_factor_ref         0.0658
_reflns_Friedel_coverage         0.0
_reflns_limit_h_max              22
_reflns_limit_h_min              0
_reflns_limit_k_max              17
_reflns_limit_k_min              0
_reflns_limit_l_max              6
_reflns_limit_l_min              0
_reflns_number_gt                1424
_reflns_number_total             1528
_reflns_threshold_expression     I>=2u(I)
_iucr_refine_instructions_details
;
TITL 4-Cyanoimidazolium-5-olate
CELL 0.71073 12.584 9.699 3.674 90 90 90
ZERR 4 0 0 0 0 0 0
LATT -1
SYMM -X,-Y,0.5+Z
SYMM 0.5-X,0.5+Y,0.5+Z
SYMM 0.5+X,0.5-Y,+Z
SFAC C H N O
UNIT 16 12 12 4

ACTA 
BOND $H
WGHT 0.023038 0.09151
FVAR 0.971741
REM <olex2.extras>
REM <HklSrc "%.\\4-Cyanoimidazolium-5-olate.hkl">
REM </olex2.extras>

N1    3     0.06656  0.14633 -0.22101  11.00000  0.00717  0.00911  0.01959 =
 0.00025 -0.00204  0.00018 
H1    2    -0.00761  0.11235 -0.28622  11.00000  0.02492  0.00822  0.04564 =
 0.00790 -0.01046  0.00792 
C2    1     0.10543  0.26987 -0.32267  11.00000  0.00883  0.00960  0.01893 =
 0.00239 -0.00217  0.00017 
H2    2     0.06187  0.34651 -0.46173  11.00000  0.03496  0.01893  0.05595 =
 0.01435 -0.02397 -0.00744 
N3    3     0.20664  0.27787 -0.23111  11.00000  0.00886  0.00876  0.01804 =
 0.00209 -0.00175 -0.00089 
H3    2     0.25875  0.35274 -0.29850  11.00000  0.03173  0.04067  0.02893 =
 0.01065 -0.00747  0.01989 
C4    1     0.23599  0.15416 -0.06534  11.00000  0.00660  0.00839  0.01745 =
 0.00220 -0.00127 -0.00074 
C5    1     0.14657  0.06850 -0.05424  11.00000  0.00692  0.00762  0.01697 =
 0.00130 -0.00054  0.00002 
C6    1     0.33776  0.12982  0.07360  11.00000  0.00720  0.01186  0.01828 =
 0.00167 -0.00302 -0.00074 
N7    3     0.42154  0.10833  0.19137  11.00000  0.00936  0.01904  0.02731 =
 0.00168 -0.00675  0.00045 
O8    4     0.13303 -0.05176  0.07343  11.00000  0.00757  0.00869  0.02643 =
 0.00480  0.00014 -0.00073 
HKLF 4

END
Q1 1 0.133333 -0.033333 0.277778 11 0.05 0.29
Q2 1 0.266667 0.155556 0.166667 11 0.05 0.28
Q3 1 0.066667 0.255556 -0.555556 11 0.05 0.25
Q4 1 0.033333 0.155556 0.055556 11 0.05 0.23
Q5 1 0.2 0.3 -0.444444 11 0.05 0.23
Q6 1 0.266667 0.122222 -0.333333 11 0.05 0.22
Q7 1 0.133333 0.266667 0.166667 11 0.05 0.22
Q8 1 0.133333 0.155556 -0.611111 11 0.05 0.22
Q9 1 0.35 0.155556 -0.333333 11 0.05 0.21
Q10 1 0.116667 0.055556 -0.277778 11 0.05 0.21
Q11 1 -0.016667 0.166667 -0.444444 11 0.05 0.21
Q12 1 -0.066667 0.088889 -0.055556 11 0.05 0.2
Q13 1 0.4 0.144444 0.444444 11 0.05 0.2
Q14 1 0.4 0.111111 -0.055556 11 0.05 0.19
Q15 1 0.066667 0.266667 -0.111111 11 0.05 0.19
Q16 1 0.05 0.1 -0.611111 11 0.05 0.19
Q17 1 0.15 -0.044444 -0.166667 11 0.05 0.19
Q18 1 0.116667 0.066667 0.166667 11 0.05 0.18
Q19 1 0.283333 0.233333 -0.5 11 0.05 0.18
Q20 1 0.4 0.3 0.166667 11 0.05 0.17

  REM The information below was added by Olex2.
  REM
  REM R1 = 0.0265 for 1424 Fo > 4sig(Fo) and 0.0301 for all 1528 data
  REM 100 parameters refined using 1 restraints
  REM Highest difference peak 0.2898, deepest hole -0.2204
  REM Mean Shift 0.0001, Max Shift 0.0008.

  REM +++ Tabular Listing of Refinement Information +++
  REM R1_all = 0.0301
  REM R1_gt = 0.0265
  REM wR_ref = 0.0658
  REM GOOF = 1.0485
  REM Shift_max = 0.0008
  REM Shift_mean = 0.0001
  REM Reflections_all = 1528
  REM Reflections_gt = 1424
  REM Parameters = 100
  REM Hole = -0.2204
  REM Peak = 0.2898
  REM Flack = n/a

  
;
_cod_data_source_file            7_TAAM_ANIS_max.cif
_cod_data_source_block           7_TAAM_ANIS_max
_cod_original_cell_volume        448.41(30)
_cod_original_sg_symbol_Hall     ' P 2c -2n'
_cod_database_code               2022074
_olex2_refinement_description
;
;
_iucr_refine_fcf_details
;
data_4-Cyanoimidazolium-5-olate
_computing_structure_refinement   'olex2.refine (Bourhis et al., 2015)'
_shelx_refln_list_code            4
loop_
  _space_group_symop_id
  _space_group_symop_operation_xyz
  1  x,y,z
  2  -x,-y,z+1/2
  3  -x+1/2,y+1/2,z+1/2
  4  x+1/2,-y+1/2,z

_space_group_crystal_system       orthorhombic
_space_group_IT_number            33
_space_group_name_H-M_alt         'P n a 21'
_space_group_name_Hall            ' P 2c -2n'
_symmetry_space_group_name_H-M    'P n a 21'
_symmetry_space_group_name_Hall   ' P 2c -2n'
_symmetry_Int_Tables_number       33
_cell_length_a                    12.584
_cell_length_b                    9.699
_cell_length_c                    3.674
_cell_angle_alpha                 90
_cell_angle_beta                  90
_cell_angle_gamma                 90
_cell_volume                      448.419842
loop_
  _refln_index_h
  _refln_index_k
  _refln_index_l
  _refln_F_squared_calc
  _refln_F_squared_meas
  _refln_F_squared_sigma
  _refln_F_squared_weight
  _refln_observed_status
0 0 2 396.974 380.777 12.126 0.650 o
0 0 4 38.116 36.737 1.843 22.630 o
0 0 6 46.924 39.151 1.472 23.648 o
0 1 1 3179.840 3010.220 78.250 0.015 o
0 1 3 35.643 36.080 0.572 40.135 o
0 1 5 29.039 33.295 1.758 26.979 o
0 2 0 322.560 331.438 2.171 1.894 o
0 2 2 754.011 675.827 68.221 0.034 o
0 2 4 22.740 23.002 0.614 62.656 o
0 2 6 1.685 2.542 0.900 173.115 o
0 3 1 809.788 787.531 22.525 0.186 o
0 3 3 288.377 282.374 13.174 0.706 o
0 3 5 27.675 31.368 2.997 14.237 o
0 4 0 1036.620 1068.620 5.517 0.243 o
0 4 2 34.619 31.601 2.362 18.573 o
0 4 4 0.321 0.159 0.318 1370.650 o
0 4 6 9.025 10.135 1.091 81.975 o
0 5 1 978.005 968.928 26.073 0.135 o
0 5 3 123.446 115.760 7.593 2.247 o
0 5 5 3.451 4.384 0.508 281.640 o
0 6 0 166.985 177.786 1.864 4.977 o
0 6 2 99.619 90.534 10.325 1.427 o
0 6 4 19.620 20.354 2.881 16.645 o
0 7 1 142.909 150.972 2.658 5.431 o
0 7 3 80.733 80.919 1.165 14.069 o
0 7 5 14.709 16.552 1.006 67.684 o
0 8 0 51.224 51.754 0.932 24.640 o
0 8 2 198.795 187.497 16.404 0.560 o
0 8 4 0.711 0.784 0.498 545.052 o
0 9 1 72.958 71.186 1.165 15.973 o
0 9 3 36.661 38.389 2.700 15.027 o
0 9 5 2.084 3.442 1.048 128.753 o
0 10 0 350.152 351.135 3.590 1.560 o
0 10 2 47.430 45.145 1.324 23.938 o
0 10 4 4.047 4.215 0.561 245.707 o
0 11 1 127.003 126.096 4.278 4.473 o
0 11 3 77.209 75.486 2.002 12.157 o
0 11 5 29.286 35.477 1.589 29.060 o
0 12 0 46.256 44.563 1.207 25.472 o
0 12 2 68.634 67.501 5.295 4.675 o
0 12 4 50.109 52.834 1.186 23.046 o
0 13 1 78.215 82.454 3.082 8.529 o
0 13 3 4.757 4.098 0.593 220.928 o
0 14 0 145.842 145.095 2.235 5.812 o
0 14 2 44.992 44.648 3.823 8.683 o
0 14 4 15.385 16.552 2.256 25.789 o
0 15 1 125.382 119.689 1.504 7.936 o
0 15 3 24.737 23.415 1.938 27.311 o
0 16 0 7.865 8.186 1.175 80.115 o
0 16 2 73.074 74.067 1.377 14.979 o
0 17 1 43.016 43.186 1.186 27.136 o
1 1 0 344.091 372.432 1.832 1.684 o
1 1 1 2716.160 2561.910 80.008 0.017 o
1 1 2 123.219 117.709 0.911 8.698 o
1 1 3 5.834 5.581 0.371 252.326 o
1 1 4 13.213 13.989 0.731 92.242 o
1 1 5 7.545 8.038 0.604 156.032 o
1 1 6 12.228 12.380 1.154 67.763 o
1 2 0 1658.180 1702.560 5.009 0.103 o
1 2 1 1732.710 1648.300 25.067 0.074 o
1 2 2 138.080 119.795 5.274 3.497 o
1 2 3 5.943 5.422 0.434 234.073 o
1 2 4 34.252 36.102 0.710 39.601 o
1 2 5 26.993 30.002 1.747 28.494 o
1 2 6 11.396 8.366 0.964 88.748 o
1 3 0 284.280 284.343 2.573 2.275 o
1 3 1 225.064 212.214 4.977 2.426 o
1 3 2 310.294 289.289 5.570 1.597 o
1 3 3 33.362 31.749 1.959 23.180 o
1 3 4 13.728 13.947 0.561 102.350 o
1 3 5 1.916 2.584 0.551 342.767 o
1 3 6 4.963 3.346 0.921 135.948 o
1 4 0 0.495 0.095 0.307 1347.780 o
1 4 1 257.173 261.003 3.357 2.442 o
1 4 2 164.004 146.408 9.711 1.408 o
1 4 3 82.772 80.675 2.700 9.351 o
1 4 4 35.602 34.248 3.844 9.214 o
1 4 5 4.778 5.645 0.540 223.479 o
1 4 6 2.873 0.678 0.699 250.191 o
1 5 0 0.754 2.182 0.402 624.185 o
1 5 1 153.200 148.759 2.012 5.700 o
1 5 2 36.121 37.552 1.430 28.154 o
1 5 3 25.218 25.321 0.879 50.221 o
1 5 4 1.985 2.467 0.487 394.069 o
1 5 5 1.642 2.436 0.487 415.411 o
1 6 0 1647.740 1728.980 8.896 0.100 o
1 6 1 323.034 313.074 12.750 0.698 o
1 6 2 129.360 129.919 2.139 6.782 o
1 6 3 87.362 80.749 4.734 5.047 o
1 6 4 26.934 27.100 1.800 28.184 o
1 6 5 0.767 0.731 0.455 620.911 o
1 7 0 6.365 5.602 0.530 199.976 o
1 7 1 203.810 195.440 6.788 2.000 o
1 7 2 269.610 261.003 1.959 2.603 o
1 7 3 42.378 44.235 2.955 12.594 o
1 7 4 9.285 8.853 0.604 138.009 o
1 7 5 2.575 4.946 1.218 95.624 o
1 7 6 3.181 0.519 0.699 245.068 o
1 8 0 187.409 186.629 2.107 4.280 o
1 8 1 83.797 86.892 0.964 13.737 o
1 8 2 66.356 63.604 3.516 8.333 o
1 8 3 9.751 10.156 0.561 135.150 o
1 8 4 14.484 14.847 1.779 37.237 o
1 8 5 9.510 10.410 0.635 127.060 o
1 9 0 554.175 572.658 5.369 0.696 o
1 9 1 263.377 255.348 4.278 2.197 o
1 9 2 57.623 58.065 0.826 22.202 o
1 9 3 27.497 28.159 1.377 35.510 o
1 9 4 4.155 4.278 0.911 140.540 o
1 9 5 18.631 20.704 1.334 45.866 o
1 10 0 51.190 52.304 1.112 23.331 o
1 10 1 14.579 13.545 0.572 98.925 o
1 10 2 50.322 48.026 3.177 10.787 o
1 10 3 7.501 7.053 0.604 161.241 o
1 10 4 41.200 40.772 2.510 15.693 o
1 10 5 2.445 1.514 0.985 147.161 o
1 11 0 3.881 3.548 0.710 200.769 o
1 11 1 143.480 144.502 2.870 5.308 o
1 11 2 2.695 2.849 0.540 314.166 o
1 11 3 2.044 1.652 0.477 425.225 o
1 11 4 8.817 8.557 0.625 139.741 o
1 11 5 10.891 10.982 1.324 61.047 o
1 12 0 2.174 1.387 0.688 264.082 o
1 12 1 8.224 8.430 0.604 148.180 o
1 12 2 123.740 122.199 4.638 4.207 o
1 12 3 41.810 38.919 1.896 20.915 o
1 12 4 10.029 11.215 0.847 99.372 o
1 13 0 9.581 9.150 0.921 97.659 o
1 13 1 21.473 21.159 0.868 58.218 o
1 13 2 15.928 15.599 0.900 71.886 o
1 13 3 67.302 66.961 2.775 10.580 o
1 13 4 5.684 3.707 1.832 44.872 o
1 14 0 1.528 1.377 0.837 205.495 o
1 14 1 50.794 46.607 1.038 24.933 o
1 14 2 32.075 33.772 2.891 14.428 o
1 14 3 12.556 12.412 0.858 87.527 o
1 14 4 0.950 2.648 1.726 55.087 o
1 15 0 47.790 43.896 1.557 21.962 o
1 15 1 27.378 28.000 0.943 45.028 o
1 15 2 6.005 6.460 0.794 141.513 o
1 15 3 18.659 20.619 0.995 58.133 o
1 16 0 81.106 81.819 1.917 11.747 o
1 16 1 14.291 16.669 2.393 23.772 o
1 16 2 3.047 2.595 1.832 47.394 o
1 17 0 12.103 10.251 1.292 61.589 o
1 17 1 26.692 26.337 1.059 43.749 o
2 0 0 498.405 516.383 2.340 0.921 o
2 0 1 3755.450 3573.200 207.798 0.003 o
2 0 2 351.503 328.854 2.986 1.666 o
2 0 3 171.801 163.225 4.967 3.109 o
2 0 4 0.630 1.165 0.392 754.331 o
2 0 5 20.026 21.784 1.133 50.609 o
2 0 6 26.565 16.012 1.091 47.993 o
2 1 0 586.492 616.311 2.806 0.684 o
2 1 1 504.731 470.856 7.900 0.726 o
2 1 2 426.742 407.199 10.050 0.737 o
2 1 3 10.529 9.425 0.402 149.883 o
2 1 4 48.136 48.195 1.832 19.107 o
2 1 5 14.925 17.643 0.688 83.604 o
2 1 6 12.246 8.673 1.027 80.616 o
2 2 0 223.740 236.561 2.150 3.238 o
2 2 1 1618.870 1551.740 5.835 0.112 o
2 2 2 62.781 61.147 1.271 18.349 o
2 2 3 2.233 2.849 0.678 250.632 o
2 2 4 8.355 8.642 1.091 85.883 o
2 2 5 2.379 3.759 1.006 134.657 o
2 2 6 4.335 0.561 0.657 239.433 o
2 3 0 2181.990 2364.600 7.402 0.059 o
2 3 1 39.027 37.679 0.445 38.038 o
2 3 2 921.229 858.368 11.459 0.267 o
2 3 3 100.269 99.494 0.964 11.167 o
2 3 4 18.065 19.698 0.614 75.907 o
2 3 5 23.740 26.390 0.519 60.419 o
2 3 6 16.422 7.837 0.911 79.268 o
2 4 0 145.373 147.509 1.525 6.360 o
2 4 1 256.056 246.992 9.055 1.235 o
2 4 2 406.849 376.964 3.198 1.320 o
2 4 3 43.768 40.560 1.546 23.653 o
2 4 4 41.061 42.646 2.912 13.014 o
2 4 5 27.854 28.720 0.699 49.323 o
2 4 6 0.950 0.201 0.604 400.837 o
2 5 0 2.988 3.262 0.424 368.570 o
2 5 1 194.948 193.375 1.377 4.323 o
2 5 2 2.638 6.661 2.256 31.471 o
2 5 3 88.607 87.463 2.192 10.103 o
2 5 4 75.924 77.456 3.601 7.452 o
2 5 5 30.388 33.465 1.303 33.728 o
2 6 0 0.736 0.424 0.360 915.552 o
2 6 1 80.379 79.987 0.773 15.129 o
2 6 2 46.327 43.843 1.716 20.943 o
2 6 3 87.973 85.970 3.707 6.668 o
2 6 4 48.302 50.218 1.980 17.769 o
2 6 5 15.816 16.055 1.281 53.193 o
2 7 0 3.372 2.648 0.498 318.589 o
2 7 1 15.596 17.505 0.477 92.773 o
2 7 2 10.930 11.416 0.477 131.441 o
2 7 3 36.008 34.862 1.663 25.656 o
2 7 4 5.564 5.930 0.572 198.784 o
2 7 5 1.038 1.101 0.498 497.723 o
2 7 6 0.171 0.212 0.625 421.921 o
2 8 0 15.013 15.557 0.688 86.496 o
2 8 1 562.676 551.870 6.767 0.654 o
2 8 2 12.325 12.867 1.038 74.573 o
2 8 3 2.062 2.446 0.477 399.608 o
2 8 4 6.170 4.924 0.593 191.816 o
2 8 5 3.171 3.315 0.561 279.400 o
2 9 0 2.017 2.489 0.604 303.718 o
2 9 1 38.895 39.522 1.377 27.342 o
2 9 2 93.495 92.070 3.357 7.050 o
2 9 3 10.541 11.861 0.614 118.836 o
2 9 4 5.318 5.983 0.985 115.090 o
2 9 5 6.506 9.266 1.154 84.187 o
2 10 0 21.849 20.682 0.858 58.372 o
2 10 1 72.137 67.692 0.900 17.314 o
2 10 2 42.167 40.698 0.784 32.122 o
2 10 3 6.467 6.693 0.826 131.814 o
2 10 4 33.700 34.270 1.133 34.406 o
2 10 5 0.545 2.129 0.964 167.247 o
2 11 0 106.574 109.448 1.663 9.170 o
2 11 1 29.334 30.108 0.731 46.362 o
2 11 2 2.299 2.542 0.540 335.337 o
2 11 3 61.685 61.253 1.091 19.459 o
2 11 4 25.153 24.527 0.762 53.800 o
2 11 5 6.300 6.534 1.228 81.278 o
2 12 0 0.229 0.180 0.561 513.731 o
2 12 1 3.787 4.713 0.572 241.791 o
2 12 2 11.571 10.516 1.133 72.282 o
2 12 3 12.988 12.676 1.313 57.446 o
2 12 4 16.838 19.496 0.932 64.675 o
2 13 0 0.000 0.477 0.614 438.568 o
2 13 1 3.865 3.315 0.614 238.228 o
2 13 2 88.962 88.025 2.298 9.784 o
2 13 3 0.994 0.868 0.519 481.553 o
2 13 4 33.827 36.938 4.225 7.923 o
2 14 0 28.959 27.947 1.281 36.595 o
2 14 1 44.059 42.784 1.006 28.567 o
2 14 2 1.757 2.404 0.667 273.790 o
2 14 3 2.467 2.955 0.741 216.478 o
2 15 0 175.007 177.765 2.637 4.353 o
2 15 1 12.107 10.389 0.815 95.951 o
2 15 2 11.314 12.814 0.837 92.637 o
2 15 3 5.350 6.862 2.129 33.797 o
2 16 0 5.336 4.427 1.112 100.470 o
2 16 1 13.860 13.439 0.890 80.054 o
2 16 2 8.900 9.595 0.868 105.175 o
2 17 0 0.723 0.847 0.879 203.890 o
2 17 1 17.933 16.478 1.154 55.602 o
3 1 0 379.569 412.621 2.764 1.382 o
3 1 1 424.408 418.202 5.009 1.085 o
3 1 2 191.886 180.688 6.227 2.298 o
3 1 3 107.073 107.087 1.387 9.650 o
3 1 4 22.398 23.658 1.048 49.617 o
3 1 5 10.054 10.887 1.006 85.319 o
3 1 6 2.100 1.949 0.752 227.571 o
3 2 0 507.325 530.658 3.410 0.861 o
3 2 1 110.375 104.588 2.446 7.759 o
3 2 2 690.369 615.495 27.672 0.162 o
3 2 3 340.110 325.105 21.561 0.310 o
3 2 4 32.836 33.274 2.764 15.296 o
3 2 5 28.898 33.782 3.008 13.934 o
3 2 6 0.926 0.201 0.614 390.432 o
3 3 0 1282.950 1321.110 5.909 0.165 o
3 3 1 127.954 123.777 1.874 7.283 o
3 3 2 66.931 64.006 2.976 9.991 o
3 3 3 182.826 180.550 4.924 2.937 o
3 3 4 37.181 39.215 0.752 35.873 o
3 3 5 39.941 44.288 1.080 29.308 o
3 3 6 6.732 8.133 1.080 92.738 o
3 4 0 2.434 3.421 0.445 377.930 o
3 4 1 310.650 314.716 2.044 2.036 o
3 4 2 45.866 41.079 1.324 25.111 o
3 4 3 18.688 18.405 0.868 65.118 o
3 4 4 140.001 146.704 6.280 2.720 o
3 4 5 24.781 24.463 0.678 56.520 o
3 5 0 92.241 99.907 1.197 11.552 o
3 5 1 110.624 118.185 0.964 9.507 o
3 5 2 47.010 45.569 0.614 29.710 o
3 5 3 24.076 24.760 0.794 54.239 o
3 5 4 21.170 21.869 0.688 64.230 o
3 5 5 0.542 0.487 0.424 755.422 o
3 6 0 300.814 324.067 3.071 1.948 o
3 6 1 15.101 15.049 0.434 101.713 o
3 6 2 214.734 208.339 3.357 3.141 o
3 6 3 14.333 13.005 0.540 103.201 o
3 6 4 1.031 1.197 0.508 479.491 o
3 6 5 0.634 0.678 0.455 643.849 o
3 7 0 134.980 146.630 1.716 6.639 o
3 7 1 172.454 168.880 1.387 5.182 o
3 7 2 166.097 162.018 2.330 4.923 o
3 7 3 27.143 26.740 0.667 52.016 o
3 7 4 10.209 11.819 0.646 117.552 o
3 7 5 12.661 12.867 0.657 102.169 o
3 8 0 81.734 83.376 1.218 13.633 o
3 8 1 103.826 105.477 1.123 10.357 o
3 8 2 38.066 37.076 1.959 21.355 o
3 8 3 1.499 1.303 0.455 505.985 o
3 8 4 9.174 9.160 0.635 133.477 o
3 8 5 2.121 3.018 0.487 372.067 o
3 9 0 437.460 444.349 4.342 1.063 o
3 9 1 24.424 24.738 0.604 58.685 o
3 9 2 23.738 23.256 0.635 60.166 o
3 9 3 65.335 66.410 1.578 15.924 o
3 9 4 2.773 2.256 0.667 250.260 o
3 9 5 28.052 31.389 1.461 32.696 o
3 10 0 16.028 16.012 0.794 76.947 o
3 10 1 97.141 93.034 3.039 7.514 o
3 10 2 12.955 12.306 0.858 86.459 o
3 10 3 16.940 17.760 1.927 31.548 o
3 10 4 25.205 23.362 1.832 28.991 o
3 10 5 5.693 4.278 1.048 107.984 o
3 11 0 45.526 46.469 1.175 25.680 o
3 11 1 20.383 19.486 0.678 68.431 o
3 11 2 27.799 27.248 1.250 38.245 o
3 11 3 80.719 80.156 2.542 9.950 o
3 11 4 6.175 6.608 0.604 178.289 o
3 11 5 9.414 8.070 1.186 75.707 o
3 12 0 19.796 20.238 0.985 57.169 o
3 12 1 4.455 4.014 0.593 227.389 o
3 12 2 60.588 59.781 2.605 12.070 o
3 12 3 92.240 86.849 2.743 8.532 o
3 12 4 58.237 64.981 1.525 17.532 o
3 13 0 2.696 1.938 0.784 204.371 o
3 13 1 24.762 26.539 1.578 33.361 o
3 13 2 62.295 63.636 1.514 16.974 o
3 13 3 37.266 36.250 0.858 35.516 o
3 13 4 5.497 5.623 0.953 120.042 o
3 14 0 2.917 3.399 0.900 156.666 o
3 14 1 80.167 77.668 3.918 6.622 o
3 14 2 2.940 2.859 0.688 230.689 o
3 14 3 9.304 8.345 0.837 109.816 o
3 15 0 8.185 7.794 1.101 86.596 o
3 15 1 23.497 21.922 0.921 53.187 o
3 15 2 7.495 7.191 0.815 125.389 o
3 15 3 20.122 22.462 0.995 54.807 o
3 16 0 20.971 24.442 1.345 41.980 o
3 16 1 5.916 5.835 0.943 118.876 o
3 16 2 2.544 2.340 0.773 207.677 o
3 17 0 4.508 5.486 1.186 92.315 o
3 17 1 40.727 40.592 1.175 28.724 o
4 0 0 1984.110 2038.700 6.598 0.073 o
4 0 1 475.309 455.130 24.061 0.233 o
4 0 2 704.907 673.635 28.254 0.154 o
4 0 3 133.356 127.144 6.216 2.874 o
4 0 4 10.751 11.067 0.519 129.674 o
4 0 5 41.810 47.793 0.943 29.052 o
4 0 6 5.195 1.938 0.731 187.005 o
4 1 0 0.539 1.345 0.318 980.948 o
4 1 1 127.415 119.128 1.165 8.179 o
4 1 2 62.762 60.416 0.593 21.315 o
4 1 3 13.310 14.159 0.445 111.606 o
4 1 4 35.975 38.198 0.720 37.408 o
4 1 5 17.211 18.766 0.657 77.398 o
4 1 6 0.909 1.716 0.868 199.225 o
4 2 0 811.715 837.336 4.649 0.379 o
4 2 1 64.701 62.174 1.800 15.277 o
4 2 2 127.979 122.675 0.932 8.233 o
4 2 3 21.968 22.207 0.551 66.639 o
4 2 4 14.204 15.843 0.561 96.529 o
4 2 5 7.531 9.245 0.455 174.705 o
4 2 6 22.355 26.761 1.377 39.266 o
4 3 0 10.595 12.549 0.445 132.795 o
4 3 1 17.350 18.437 0.360 89.646 o
4 3 2 16.873 17.092 0.731 76.820 o
4 3 3 68.541 68.708 1.006 17.559 o
4 3 4 156.202 162.653 4.670 3.464 o
4 3 5 43.850 48.153 0.805 29.226 o
4 3 6 14.380 16.531 1.260 55.603 o
4 4 0 17.688 19.814 0.508 81.006 o
4 4 1 436.638 427.722 2.637 1.173 o
4 4 2 11.312 10.241 0.413 138.950 o
4 4 3 247.673 237.419 2.002 2.962 o
4 4 4 47.855 48.778 0.837 27.113 o
4 4 5 1.536 2.446 0.487 421.786 o
4 4 6 2.236 2.150 0.943 157.238 o
4 5 0 357.094 357.214 3.421 1.533 o
4 5 1 306.799 311.698 2.139 2.063 o
4 5 2 63.143 61.105 1.334 17.962 o
4 5 3 329.985 310.384 3.812 1.724 o
4 5 4 73.151 75.454 1.017 16.064 o
4 5 5 23.569 26.369 0.710 56.082 o
4 6 0 467.699 486.434 4.405 0.944 o
4 6 1 60.646 60.670 1.250 18.959 o
4 6 2 54.377 53.925 0.699 24.510 o
4 6 3 54.261 52.008 1.451 20.167 o
4 6 4 63.725 63.710 2.828 10.754 o
4 6 5 22.638 23.679 1.440 38.548 o
4 7 0 52.050 55.376 0.985 23.431 o
4 7 1 115.148 117.317 1.154 9.016 o
4 7 2 54.506 56.170 2.679 12.429 o
4 7 3 12.815 13.555 0.762 92.037 o
4 7 4 4.732 5.899 0.858 141.055 o
4 7 5 11.371 12.867 0.667 106.997 o
4 8 0 39.777 37.944 0.879 33.235 o
4 8 1 73.728 73.410 0.868 16.575 o
4 8 2 69.526 70.064 2.499 11.303 o
4 8 3 37.149 35.625 0.773 36.852 o
4 8 4 0.539 0.805 0.371 881.262 o
4 8 5 5.013 3.357 0.720 183.330 o
4 9 0 173.637 179.142 2.256 4.584 o
4 9 1 33.820 33.083 1.017 36.531 o
4 9 2 12.709 11.946 0.773 94.439 o
4 9 3 34.228 34.566 1.112 34.337 o
4 9 4 10.144 9.881 0.921 94.278 o
4 9 5 16.555 15.620 1.271 53.017 o
4 10 0 27.181 25.744 0.921 46.816 o
4 10 1 6.849 8.017 1.250 76.319 o
4 10 2 53.374 49.572 0.879 24.614 o
4 10 3 48.770 46.861 3.421 9.914 o
4 10 4 28.061 27.809 1.027 42.634 o
4 10 5 10.943 4.893 1.038 88.755 o
4 11 0 17.909 20.619 0.911 62.746 o
4 11 1 38.718 38.950 0.805 34.392 o
4 11 2 96.208 95.734 1.874 9.992 o
4 11 3 0.862 0.646 0.455 613.833 o
4 11 4 7.098 7.932 0.635 155.162 o
4 11 5 2.741 0.286 0.879 180.802 o
4 12 0 35.945 33.592 1.133 33.320 o
4 12 1 14.249 14.085 0.678 92.133 o
4 12 2 30.703 28.900 0.847 43.470 o
4 12 3 6.847 8.610 0.879 115.936 o
4 12 4 6.303 7.233 0.794 136.473 o
4 13 0 17.369 15.673 1.038 62.160 o
4 13 1 2.226 2.192 0.434 436.383 o
4 13 2 18.736 20.301 0.847 64.199 o
4 13 3 11.238 10.812 0.667 112.625 o
4 13 4 4.216 3.209 1.334 80.171 o
4 14 0 0.002 0.233 0.741 308.645 o
4 14 1 6.544 6.110 0.720 152.632 o
4 14 2 7.834 6.778 1.356 67.344 o
4 14 3 15.165 15.991 0.900 73.136 o
4 15 0 0.205 0.254 0.773 278.094 o
4 15 1 5.351 4.861 0.762 160.549 o
4 15 2 11.932 12.666 0.879 87.430 o
4 15 3 17.875 18.649 0.964 62.207 o
4 16 0 74.263 75.603 1.874 12.909 o
4 16 1 1.936 2.446 0.741 230.799 o
4 16 2 31.597 31.527 1.101 37.106 o
4 17 0 20.110 19.740 1.408 42.698 o
4 17 1 52.569 53.872 1.843 17.650 o
5 1 0 36.198 36.144 0.657 38.734 o
5 1 1 486.994 470.994 12.645 0.525 o
5 1 2 22.669 23.002 0.445 67.186 o
5 1 3 95.793 92.398 4.988 4.487 o
5 1 4 55.283 57.006 0.858 22.904 o
5 1 5 27.140 30.425 1.175 39.157 o
5 1 6 5.367 7.455 1.091 97.413 o
5 2 0 437.110 472.148 3.887 1.054 o
5 2 1 298.788 302.389 3.368 1.985 o
5 2 2 136.026 134.462 1.048 7.393 o
5 2 3 62.062 60.639 1.927 15.123 o
5 2 4 5.852 7.265 0.508 200.243 o
5 2 5 1.515 2.129 0.752 237.266 o
5 2 6 0.818 1.186 0.815 228.671 o
5 3 0 15.240 16.944 0.519 92.968 o
5 3 1 345.378 326.736 2.118 1.779 o
5 3 2 80.073 77.540 0.762 15.395 o
5 3 3 13.063 13.079 0.487 112.774 o
5 3 4 53.055 54.825 1.747 18.109 o
5 3 5 25.537 27.555 0.688 53.091 o
5 3 6 4.783 4.882 1.048 110.715 o
5 4 0 5.382 4.935 0.402 262.219 o
5 4 1 74.092 72.955 0.699 16.985 o
5 4 2 303.881 293.938 3.918 1.893 o
5 4 3 108.387 108.284 1.546 9.271 o
5 4 4 71.770 72.415 1.546 14.653 o
5 4 5 8.250 8.176 0.837 115.450 o
5 4 6 14.534 19.390 1.292 52.301 o
5 5 0 74.028 80.474 1.070 15.351 o
5 5 1 67.786 65.245 0.720 19.047 o
5 5 2 80.678 78.419 1.112 14.392 o
5 5 3 39.109 39.300 0.710 35.053 o
5 5 4 11.318 10.188 0.604 120.248 o
5 5 5 7.559 8.673 0.593 154.708 o
5 6 0 0.623 0.900 0.445 651.953 o
5 6 1 1.260 1.652 0.487 470.043 o
5 6 2 266.932 261.903 4.268 2.153 o
5 6 3 59.334 58.828 1.356 18.865 o
5 6 4 91.577 90.492 2.605 8.790 o
5 6 5 38.992 39.861 1.165 29.780 o
5 7 0 15.364 14.614 0.678 87.513 o
5 7 1 283.086 279.334 2.065 2.380 o
5 7 2 26.212 25.723 0.604 55.288 o
5 7 3 13.395 13.788 0.593 101.894 o
5 7 4 8.871 10.008 0.667 128.533 o
5 7 5 44.539 42.339 1.991 19.114 o
5 8 0 141.837 149.182 1.906 6.163 o
5 8 1 29.003 27.905 0.604 50.246 o
5 8 2 55.910 55.788 0.815 23.116 o
5 8 3 5.063 4.331 0.551 227.134 o
5 8 4 5.916 5.909 1.228 83.067 o
5 8 5 9.548 6.449 1.048 89.650 o
5 9 0 35.901 36.430 0.953 35.067 o
5 9 1 59.281 58.553 0.995 20.847 o
5 9 2 77.479 78.451 1.737 12.874 o
5 9 3 0.823 1.472 0.508 485.332 o
5 9 4 20.682 21.127 0.688 65.835 o
5 9 5 1.375 1.546 0.953 165.152 o
5 10 0 1.168 0.805 0.572 405.852 o
5 10 1 23.054 23.362 0.657 60.623 o
5 10 2 19.940 20.852 0.699 67.167 o
5 10 3 38.097 39.543 1.112 30.927 o
5 10 4 32.941 32.575 0.794 40.861 o
5 10 5 10.189 5.136 0.995 95.071 o
5 11 0 52.500 53.480 1.239 21.890 o
5 11 1 106.786 105.731 1.250 9.926 o
5 11 2 4.819 4.861 0.604 209.825 o
5 11 3 26.451 25.723 1.430 35.751 o
5 11 4 46.539 50.621 0.953 26.400 o
5 12 0 11.698 11.988 0.911 86.679 o
5 12 1 1.675 1.885 0.826 203.704 o
5 12 2 2.306 2.563 0.508 357.811 o
5 12 3 54.487 52.400 1.567 19.277 o
5 12 4 12.025 11.776 0.879 88.532 o
5 13 0 0.077 0.212 0.635 414.180 o
5 13 1 17.426 16.563 0.784 73.492 o
5 13 2 34.951 34.693 2.076 21.102 o
5 13 3 11.989 12.528 0.710 101.352 o
5 13 4 22.135 22.790 1.027 51.056 o
5 14 0 13.051 14.551 1.112 66.765 o
5 14 1 3.520 4.935 0.688 202.752 o
5 14 2 10.975 10.707 0.964 86.454 o
5 14 3 22.523 23.002 0.985 51.782 o
5 15 0 31.223 31.400 1.419 31.850 o
5 15 1 54.354 54.274 1.726 18.056 o
5 15 2 10.318 9.859 1.303 64.081 o
5 15 3 12.788 11.977 0.921 82.718 o
5 16 0 16.909 16.944 1.313 50.179 o
5 16 1 1.903 1.461 0.974 154.604 o
5 16 2 36.695 35.763 1.133 32.326 o
5 17 0 2.282 2.499 1.080 124.065 o
6 0 0 450.620 446.965 3.961 1.048 o
6 0 1 609.656 582.952 19.179 0.280 o
6 0 2 487.837 466.133 18.660 0.334 o
6 0 3 94.921 95.438 6.354 3.190 o
6 0 4 97.655 98.043 2.690 8.084 o
6 0 5 54.395 56.710 2.732 12.163 o
6 0 6 6.648 6.396 1.059 98.478 o
6 1 0 523.270 530.086 4.310 0.806 o
6 1 1 145.083 137.512 1.091 6.868 o
6 1 2 70.451 68.052 1.345 15.975 o
6 1 3 11.448 12.909 1.133 70.092 o
6 1 4 90.386 94.876 3.209 7.412 o
6 1 5 8.311 9.510 0.561 149.122 o
6 1 6 23.892 25.628 1.387 38.345 o
6 2 0 443.570 447.875 4.098 1.057 o
6 2 1 481.993 461.918 7.169 0.800 o
6 2 2 6.313 5.433 0.466 218.308 o
6 2 3 69.706 69.037 1.557 15.149 o
6 2 4 15.051 14.402 1.387 50.561 o
6 2 5 22.880 23.627 0.657 60.692 o
6 2 6 1.211 2.584 0.943 164.840 o
6 3 0 26.184 28.794 0.593 53.438 o
6 3 1 114.823 115.495 2.033 7.924 o
6 3 2 207.126 198.913 1.483 3.990 o
6 3 3 105.620 105.519 1.271 9.995 o
6 3 4 27.240 27.216 0.710 50.708 o
6 3 5 22.882 24.929 0.699 58.461 o
6 3 6 9.368 11.289 1.091 79.603 o
6 4 0 121.325 125.821 1.483 8.014 o
6 4 1 13.212 14.307 0.402 114.397 o
6 4 2 134.989 130.904 1.673 7.013 o
6 4 3 20.191 20.386 0.572 71.651 o
6 4 4 28.958 28.858 1.578 30.793 o
6 4 5 14.551 14.413 0.995 70.721 o
6 5 0 3.868 3.770 0.487 288.298 o
6 5 1 146.352 143.834 1.281 6.560 o
6 5 2 63.292 62.143 1.408 17.463 o
6 5 3 97.407 95.999 2.235 9.116 o
6 5 4 65.334 68.931 3.791 7.534 o
6 5 5 77.531 84.826 1.038 14.579 o
6 6 0 79.940 88.258 1.260 13.438 o
6 6 1 79.802 77.540 1.250 14.189 o
6 6 2 156.817 155.769 1.641 5.727 o
6 6 3 25.051 24.791 0.657 56.412 o
6 6 4 7.124 7.117 0.593 166.794 o
6 6 5 2.150 3.368 0.540 324.835 o
6 7 0 90.111 96.761 1.419 11.467 o
6 7 1 38.147 38.760 0.635 36.612 o
6 7 2 43.354 42.604 0.752 31.269 o
6 7 3 22.503 23.245 1.281 42.978 o
6 7 4 7.901 7.847 0.635 148.392 o
6 7 5 4.169 3.929 0.498 272.435 o
6 8 0 87.343 93.002 1.408 11.955 o
6 8 1 136.890 129.803 1.218 7.344 o
6 8 2 23.906 23.351 0.995 49.663 o
6 8 3 12.805 13.545 0.625 102.590 o
6 8 4 43.152 44.002 1.430 24.480 o
6 8 5 1.770 0.530 0.741 254.733 o
6 9 0 68.356 66.156 1.218 17.018 o
6 9 1 106.023 105.181 1.101 10.215 o
6 9 2 10.261 9.213 0.604 129.841 o
6 9 3 16.174 16.679 1.260 53.280 o
6 9 4 1.632 1.207 0.508 433.990 o
6 9 5 16.175 7.964 1.133 65.855 o
6 10 1 22.864 21.689 1.483 37.998 o
6 10 2 50.110 50.112 0.900 25.540 o
6 10 3 16.117 15.165 1.091 62.083 o
6 10 4 3.281 3.484 0.974 136.210 o
6 10 5 11.103 3.346 0.900 105.543 o
6 11 0 1.890 0.985 0.667 290.383 o
6 11 1 37.525 36.705 1.747 23.873 o
6 11 2 2.104 2.753 0.572 316.941 o
6 11 3 21.003 20.036 0.678 66.638 o
6 11 4 2.475 1.885 0.699 245.579 o
6 12 0 27.612 27.174 1.112 41.408 o
6 12 1 21.033 21.413 0.794 61.271 o
6 12 2 15.261 14.487 1.133 61.898 o
6 12 3 0.294 1.737 0.667 332.808 o
6 12 4 7.941 8.281 0.837 116.791 o
6 13 0 52.904 56.074 1.461 19.938 o
6 13 1 27.073 27.534 0.900 46.506 o
6 13 2 13.622 12.348 0.794 88.996 o
6 13 3 2.154 2.933 0.741 222.177 o
6 13 4 26.215 31.188 1.080 41.613 o
6 14 0 2.232 1.885 0.890 174.052 o
6 14 1 10.631 10.834 0.773 104.954 o
6 14 2 13.377 13.344 0.710 94.353 o
6 14 3 37.289 37.330 1.123 31.753 o
6 15 0 3.622 6.121 1.059 111.612 o
6 15 1 33.712 32.120 1.048 36.410 o
6 15 2 55.753 56.964 3.601 8.689 o
6 15 3 1.136 1.260 1.048 142.300 o
6 16 0 93.388 95.353 2.107 9.687 o
6 16 1 42.473 43.197 1.175 27.457 o
6 16 2 8.904 8.578 0.890 104.962 o
7 1 0 409.101 416.931 3.823 1.208 o
7 1 1 34.252 36.303 0.519 41.772 o
7 1 2 94.371 92.621 1.620 10.824 o
7 1 3 9.810 9.870 0.561 135.757 o
7 1 4 20.233 21.265 1.504 39.333 o
7 1 5 1.133 1.567 0.466 513.070 o
7 1 6 0.153 0.244 0.731 312.042 o
7 2 0 26.963 26.443 0.572 54.393 o
7 2 1 159.542 154.668 2.097 5.356 o
7 2 2 80.915 79.330 1.726 12.484 o
7 2 3 152.965 154.054 2.626 5.144 o
7 2 4 42.156 43.599 2.033 19.093 o
7 2 5 15.962 16.626 0.625 85.483 o
7 3 0 357.219 376.054 3.590 1.478 o
7 3 1 3.754 3.759 0.339 368.747 o
7 3 2 57.617 59.124 0.699 22.613 o
7 3 3 87.294 86.330 0.932 13.382 o
7 3 4 10.545 11.596 0.604 120.646 o
7 3 5 18.415 20.566 0.667 71.899 o
7 4 0 40.289 44.235 0.805 31.980 o
7 4 1 24.599 24.760 0.487 61.030 o
7 4 2 60.148 59.717 0.720 21.697 o
7 4 3 140.831 134.272 4.225 4.218 o
7 4 4 0.742 0.688 0.445 650.037 o
7 4 5 24.645 27.005 0.784 52.320 o
7 5 0 6.173 8.366 0.551 178.942 o
7 5 1 28.323 28.794 0.540 51.632 o
7 5 2 8.999 8.610 0.455 162.012 o
7 5 3 9.546 9.160 1.313 65.261 o
7 5 4 57.773 61.412 0.985 20.921 o
7 5 5 2.047 2.542 0.540 346.001 o
7 6 0 18.921 21.402 0.731 67.443 o
7 6 1 368.002 368.619 3.198 1.483 o
7 6 2 2.993 2.743 0.434 374.195 o
7 6 3 12.476 11.946 0.582 111.229 o
7 6 4 43.412 46.490 2.086 18.152 o
7 6 5 19.983 19.920 0.773 65.198 o
7 7 0 943.387 980.111 8.631 0.266 o
7 7 1 28.741 29.102 1.811 27.010 o
7 7 2 8.981 8.239 0.530 153.428 o
7 7 3 103.508 103.645 2.849 7.381 o
7 7 4 30.534 31.114 0.710 45.030 o
7 7 5 6.452 2.965 0.953 122.110 o
7 8 0 3.041 2.902 0.593 272.573 o
7 8 1 167.815 161.414 1.461 5.393 o
7 8 2 11.808 13.153 0.572 112.442 o
7 8 3 45.263 44.150 0.879 28.881 o
7 8 4 50.466 50.546 1.504 20.868 o
7 8 5 27.744 10.241 1.101 49.486 o
7 9 0 9.650 9.319 0.762 114.362 o
7 9 1 17.193 17.071 1.334 49.013 o
7 9 2 223.794 219.320 1.864 3.434 o
7 9 3 38.174 38.876 1.133 30.789 o
7 9 4 25.347 26.719 0.943 47.695 o
7 9 5 19.914 7.032 1.112 61.478 o
7 10 0 31.183 31.018 1.027 38.898 o
7 10 1 21.181 22.515 0.688 63.625 o
7 10 2 29.474 27.619 0.794 46.279 o
7 10 3 17.118 17.357 0.635 80.513 o
7 10 4 6.103 6.418 0.604 180.339 o
7 10 5 5.376 0.635 0.678 211.024 o
7 11 0 0.430 1.281 0.667 336.486 o
7 11 1 8.090 8.027 0.614 149.409 o
7 11 2 2.770 1.440 0.741 224.554 o
7 11 3 10.429 9.637 0.625 124.945 o
7 11 4 1.762 1.260 0.784 225.693 o
7 12 0 25.819 25.194 1.101 44.011 o
7 12 1 31.656 31.124 0.847 41.668 o
7 12 2 45.967 45.167 0.995 27.358 o
7 12 3 17.966 15.218 0.815 72.223 o
7 12 4 0.369 0.275 0.519 572.386 o
7 13 0 6.699 5.221 0.974 111.764 o
7 13 1 15.890 13.608 0.815 79.159 o
7 13 2 8.055 8.176 0.752 128.161 o
7 13 3 5.042 4.691 0.773 161.942 o
7 14 0 13.970 15.366 1.133 63.284 o
7 14 1 9.240 10.262 0.773 112.830 o
7 14 2 27.084 28.053 1.006 43.853 o
7 14 3 51.155 53.501 1.250 22.186 o
7 15 0 2.374 6.058 1.038 121.571 o
7 15 1 27.081 26.782 1.006 44.433 o
7 15 2 51.525 56.530 1.250 21.668 o
7 16 0 3.257 3.590 1.101 112.523 o
7 16 1 12.554 14.456 0.964 77.138 o
8 0 0 2.774 2.902 0.424 389.364 o
8 0 1 508.808 504.437 10.082 0.604 o
8 0 2 459.096 429.682 24.399 0.231 o
8 0 3 140.625 135.034 10.452 1.300 o
8 0 4 65.210 69.291 3.749 7.638 o
8 0 5 10.698 11.278 0.741 106.794 o
8 0 6 1.083 2.054 0.837 207.122 o
8 1 0 572.316 581.406 5.306 0.670 o
8 1 1 18.449 17.495 0.424 85.367 o
8 1 2 33.101 32.734 0.572 43.816 o
8 1 3 217.376 211.113 5.687 2.242 o
8 1 4 7.888 7.021 0.551 166.957 o
8 1 5 21.929 23.944 0.699 60.772 o
8 1 6 5.231 6.534 0.890 129.520 o
8 2 0 187.979 192.580 2.002 4.253 o
8 2 1 235.859 232.251 1.631 3.221 o
8 2 2 2.358 3.071 0.371 454.075 o
8 2 3 25.190 24.643 0.614 57.328 o
8 2 4 52.171 53.660 0.932 24.001 o
8 2 5 7.276 8.017 0.572 164.372 o
8 3 0 237.035 237.324 2.510 2.971 o
8 3 1 112.931 115.601 1.017 9.378 o
8 3 2 119.353 119.551 1.620 8.136 o
8 3 3 36.959 35.900 0.688 37.896 o
8 3 4 104.086 107.172 5.708 3.575 o
8 3 5 17.665 19.030 0.678 74.986 o
8 4 0 158.066 159.434 1.843 5.501 o
8 4 1 117.150 113.536 1.334 8.801 o
8 4 2 129.087 130.268 1.292 7.666 o
8 4 3 3.747 4.067 0.477 292.455 o
8 4 4 3.663 4.744 0.794 170.556 o
8 4 5 9.622 11.077 0.625 125.483 o
8 5 0 3.402 3.876 0.540 275.303 o
8 5 1 129.367 130.650 1.175 7.741 o
8 5 2 194.546 193.661 3.262 3.548 o
8 5 3 2.523 3.219 0.699 230.776 o
8 5 4 2.305 2.700 0.572 310.661 o
8 5 5 8.042 9.224 0.635 141.619 o
8 6 0 25.127 23.415 0.752 54.860 o
8 6 1 165.697 165.396 2.139 5.013 o
8 6 2 6.438 6.608 0.477 203.657 o
8 6 3 39.124 41.344 1.186 29.137 o
8 6 4 13.643 15.514 0.561 99.415 o
8 6 5 9.450 8.927 0.837 107.783 o
8 7 0 0.013 0.148 0.455 807.986 o
8 7 1 6.676 6.100 0.561 184.652 o
8 7 2 0.624 0.477 0.392 833.074 o
8 7 3 33.907 33.380 0.784 39.921 o
8 7 4 3.414 3.431 0.519 292.064 o
8 7 5 13.091 13.312 1.281 58.480 o
8 8 0 184.048 183.208 2.287 4.299 o
8 8 1 105.836 103.391 1.260 10.078 o
8 8 2 12.262 11.871 0.625 108.854 o
8 8 3 43.615 42.657 1.927 19.818 o
8 8 4 9.219 8.737 0.593 140.380 o
8 8 5 11.662 2.986 0.847 110.082 o
8 9 0 162.495 166.984 2.203 5.035 o
8 9 1 9.949 9.881 0.572 133.458 o
8 9 2 14.040 13.269 0.657 95.835 o
8 9 3 36.729 36.875 0.890 35.254 o
8 9 4 3.337 3.876 0.572 262.197 o
8 9 5 2.417 0.244 0.752 238.097 o
8 10 0 72.106 73.929 1.377 15.134 o
8 10 1 0.209 0.381 0.413 881.261 o
8 10 2 61.000 60.046 1.006 20.172 o
8 10 3 4.457 5.189 0.540 234.241 o
8 10 4 20.979 22.536 0.953 55.063 o
8 11 0 0.242 0.201 0.614 431.545 o
8 11 1 14.614 15.409 0.699 87.341 o
8 11 2 11.969 11.289 0.593 114.614 o
8 11 3 40.339 39.766 1.345 27.113 o
8 11 4 2.815 1.896 0.731 224.096 o
8 12 0 6.104 4.342 0.879 132.851 o
8 12 1 6.550 6.471 0.678 159.282 o
8 12 2 9.223 8.292 0.741 122.113 o
8 12 3 10.488 11.077 0.688 113.645 o
8 12 4 7.333 5.962 0.815 130.266 o
8 13 0 37.794 37.203 1.398 27.967 o
8 13 1 15.392 15.949 0.805 78.040 o
8 13 2 24.869 25.575 1.864 28.146 o
8 13 3 41.483 42.170 1.324 26.468 o
8 14 0 1.317 0.265 0.794 238.756 o
8 14 1 0.242 0.392 0.540 539.671 o
8 14 2 24.602 25.194 0.985 48.195 o
8 14 3 22.584 22.207 1.027 50.872 o
8 15 0 15.487 14.720 1.281 54.401 o
8 15 1 58.581 60.681 1.334 18.946 o
8 15 2 25.412 24.781 1.027 46.466 o
8 16 0 8.082 6.534 1.197 79.753 o
8 16 1 39.470 39.596 1.154 29.748 o
9 1 0 26.651 27.661 0.688 51.607 o
9 1 1 235.516 238.054 1.716 3.169 o
9 1 2 93.441 92.960 2.224 9.495 o
9 1 3 55.276 57.599 0.815 23.032 o
9 1 4 12.950 12.412 1.091 70.288 o
9 1 5 19.754 21.593 0.932 58.206 o
9 2 0 37.245 39.183 0.762 35.722 o
9 2 1 167.938 169.494 1.345 5.323 o
9 2 2 213.314 212.098 2.372 3.495 o
9 2 3 10.519 11.416 0.519 130.058 o
9 2 4 16.101 16.235 0.678 82.812 o
9 2 5 13.018 13.757 0.635 100.446 o
9 3 0 1.175 1.250 0.466 524.476 o
9 3 1 35.217 37.605 0.593 39.638 o
9 3 2 146.493 146.853 1.271 6.500 o
9 3 3 19.567 19.920 0.604 72.470 o
9 3 4 21.288 21.286 1.038 52.624 o
9 3 5 2.721 2.298 0.530 330.471 o
9 4 0 136.197 139.715 1.726 6.722 o
9 4 1 124.345 123.501 1.123 8.269 o
9 4 2 67.487 70.911 0.837 18.128 o
9 4 3 39.265 39.808 0.762 34.254 o
9 4 4 11.927 13.036 0.657 105.001 o
9 4 5 4.523 4.363 0.593 222.794 o
9 5 0 106.238 102.057 1.430 9.836 o
9 5 1 1.535 2.044 0.392 552.442 o
9 5 2 63.452 63.276 1.737 15.694 o
9 5 3 32.799 33.751 0.752 41.134 o
9 5 4 0.961 1.133 0.445 589.395 o
9 5 5 7.411 9.012 0.815 120.557 o
9 6 0 38.663 36.059 0.911 34.055 o
9 6 1 68.353 66.357 1.175 17.172 o
9 6 2 168.288 167.355 2.054 4.971 o
9 6 3 30.715 29.430 0.762 44.755 o
9 6 4 44.827 45.823 1.451 23.477 o
9 6 5 14.832 14.826 1.271 55.637 o
9 7 0 127.522 132.111 1.800 7.194 o
9 7 1 87.820 87.834 2.415 9.568 o
9 7 2 19.985 19.920 0.646 69.981 o
9 7 3 41.024 41.365 2.330 17.030 o
9 7 4 24.366 24.611 0.762 54.802 o
9 7 5 8.307 7.074 1.228 75.882 o
9 8 0 33.612 33.613 1.006 36.661 o
9 8 1 29.494 29.366 0.688 47.351 o
9 8 2 24.863 24.315 0.710 55.701 o
9 8 3 37.099 38.145 2.054 20.478 o
9 8 4 37.844 39.109 0.826 34.639 o
9 9 0 26.392 29.409 1.017 43.627 o
9 9 1 229.957 225.240 1.949 3.281 o
9 9 2 6.476 7.085 0.593 174.187 o
9 9 3 38.732 37.785 0.773 35.097 o
9 9 4 7.332 7.921 1.281 72.787 o
9 9 5 1.952 1.260 0.731 247.962 o
9 10 0 0.097 0.191 0.582 489.586 o
9 10 1 118.239 121.839 1.345 8.461 o
9 10 2 24.390 24.166 0.794 54.216 o
9 10 3 2.463 2.976 0.540 320.361 o
9 10 4 23.682 26.846 0.985 48.295 o
9 11 0 13.980 15.101 1.006 70.574 o
9 11 1 29.364 29.334 0.826 44.919 o
9 11 2 101.029 107.002 1.345 10.187 o
9 11 3 13.646 13.576 1.091 67.794 o
9 11 4 15.695 16.044 0.911 71.336 o
9 12 0 51.961 53.205 1.472 20.420 o
9 12 1 65.367 66.241 1.525 16.179 o
9 12 2 9.155 8.970 0.752 119.227 o
9 12 3 21.930 22.843 1.419 39.865 o
9 12 4 48.981 40.031 9.563 1.776 o
9 13 0 85.568 87.061 1.821 11.362 o
9 13 1 16.226 16.362 0.837 73.773 o
9 13 2 48.629 49.339 1.536 21.224 o
9 13 3 29.634 30.891 1.737 27.514 o
9 14 0 44.065 42.540 2.965 12.466 o
9 14 1 15.499 17.940 0.900 70.308 o
9 14 2 4.081 4.744 0.794 166.141 o
9 14 3 23.399 23.319 1.038 49.018 o
9 15 0 7.678 10.389 1.144 80.585 o
9 15 1 26.460 25.628 1.038 44.789 o
9 15 2 25.070 25.872 1.059 45.454 o
9 16 0 14.600 14.699 1.324 53.619 o
10 0 0 88.093 91.774 1.281 12.232 o
10 0 1 481.708 489.844 11.617 0.566 o
10 0 2 350.965 347.090 10.357 0.842 o
10 0 3 4.978 5.994 1.207 87.723 o
10 0 4 7.860 9.044 0.604 148.670 o
10 0 5 11.998 11.585 1.631 44.989 o
10 1 0 84.295 85.970 1.260 13.044 o
10 1 1 134.785 130.862 1.175 7.455 o
10 1 2 6.061 5.094 0.530 208.817 o
10 1 3 28.691 29.049 0.762 46.975 o
10 1 4 35.976 36.843 4.035 8.467 o
10 1 5 3.052 1.758 0.678 244.506 o
10 2 0 339.396 341.329 3.421 1.649 o
10 2 1 90.285 91.361 1.123 12.350 o
10 2 2 26.427 27.471 0.593 54.002 o
10 2 3 10.171 11.024 0.551 130.380 o
10 2 4 7.157 7.688 0.604 161.506 o
10 2 5 1.236 1.440 0.508 453.842 o
10 3 0 9.150 8.461 0.614 139.057 o
10 3 1 250.607 244.355 1.927 2.901 o
10 3 2 1.150 1.980 0.402 585.362 o
10 3 3 24.967 26.931 0.688 54.265 o
10 3 4 26.936 26.920 0.805 49.141 o
10 3 5 12.653 11.734 0.794 93.315 o
10 4 0 362.251 362.212 3.759 1.470 o
10 4 1 228.003 223.207 2.828 3.073 o
10 4 2 16.085 16.796 1.059 62.344 o
10 4 3 45.974 48.037 0.837 28.055 o
10 4 4 2.832 2.902 0.424 386.159 o
10 4 5 1.582 2.605 0.995 147.020 o
10 5 0 30.239 32.395 0.890 41.581 o
10 5 1 81.743 78.419 0.943 14.665 o
10 5 2 187.640 182.732 3.230 3.751 o
10 5 3 100.512 100.320 1.525 10.185 o
10 5 4 18.982 17.272 0.646 75.303 o
10 5 5 4.909 4.638 1.091 104.590 o
10 6 0 66.072 66.982 1.197 17.457 o
10 6 1 3.070 2.700 0.943 147.817 o
10 6 2 75.806 75.899 0.953 15.765 o
10 6 3 33.359 32.247 0.815 40.328 o
10 6 4 1.137 1.387 0.487 491.284 o
10 6 5 6.670 8.006 1.154 85.480 o
10 7 0 155.643 157.188 2.012 5.494 o
10 7 1 58.860 59.379 1.027 20.688 o
10 7 2 91.931 93.394 2.383 9.206 o
10 7 3 13.666 14.318 0.688 93.065 o
10 7 4 3.167 3.950 0.805 177.590 o
10 7 5 2.858 0.540 0.625 294.514 o
10 8 0 44.976 46.289 1.133 26.299 o
10 8 1 14.666 14.688 0.604 94.350 o
10 8 2 1.344 2.150 0.614 326.559 o
10 8 3 6.723 7.265 0.477 194.368 o
10 8 4 28.782 28.879 0.900 44.203 o
10 9 0 0.321 0.593 0.604 427.344 o
10 9 1 6.163 5.412 0.815 140.339 o
10 9 2 28.946 30.457 0.974 41.870 o
10 9 3 19.570 19.285 0.667 70.764 o
10 9 4 6.549 6.894 0.752 143.359 o
10 10 0 120.018 118.651 1.949 7.698 o
10 10 1 40.728 40.507 1.197 28.502 o
10 10 2 9.286 9.351 0.582 138.926 o
10 10 3 29.087 28.297 0.773 46.747 o
10 10 4 1.889 1.864 0.710 253.686 o
10 11 0 23.553 24.823 1.133 45.425 o
10 11 1 48.511 48.640 0.815 27.023 o
10 11 2 48.217 47.232 2.012 17.812 o
10 11 3 22.069 22.578 0.657 62.981 o
10 11 4 15.080 14.159 0.932 73.561 o
10 12 0 1.622 1.705 0.858 193.480 o
10 12 1 18.421 17.897 0.826 67.958 o
10 12 2 31.610 32.469 0.974 38.986 o
10 12 3 31.043 30.129 1.038 39.133 o
10 13 0 10.276 11.967 1.123 74.253 o
10 13 1 5.569 6.492 0.752 153.242 o
10 13 2 2.531 2.563 0.995 140.060 o
10 13 3 7.708 10.378 0.858 110.028 o
10 14 0 19.359 18.511 1.303 47.270 o
10 14 1 2.358 1.800 0.731 233.743 o
10 14 2 22.278 24.569 1.006 50.508 o
10 15 0 4.855 7.127 1.133 94.721 o
10 15 1 12.895 13.089 0.932 80.171 o
11 1 0 417.653 430.836 4.268 1.135 o
11 1 1 94.463 92.600 2.817 8.108 o
11 1 2 47.684 47.274 1.694 20.405 o
11 1 3 2.996 4.533 0.498 298.697 o
11 1 4 4.046 4.850 0.487 267.690 o
11 1 5 9.882 9.340 0.805 108.388 o
11 2 0 823.433 792.455 7.011 0.362 o
11 2 1 27.924 27.365 0.582 52.301 o
11 2 2 13.807 15.260 0.551 99.945 o
11 2 3 72.897 75.422 1.112 15.810 o
11 2 4 5.833 5.073 0.445 237.060 o
11 2 5 13.194 15.599 0.858 81.041 o
11 3 0 6.756 6.629 0.625 167.060 o
11 3 1 124.874 121.087 1.154 8.281 o
11 3 2 13.028 13.301 0.540 108.520 o
11 3 3 62.045 62.418 2.086 14.211 o
11 3 4 16.903 18.480 0.635 79.566 o
11 3 5 2.522 4.003 1.048 124.530 o
11 4 0 25.970 25.490 0.826 50.578 o
11 4 1 21.205 22.356 0.593 66.748 o
11 4 2 69.042 69.069 0.890 17.826 o
11 4 3 31.721 32.988 1.832 25.101 o
11 4 4 11.626 12.316 0.604 112.770 o
11 4 5 13.108 14.657 1.271 58.053 o
11 5 0 22.115 24.399 0.837 55.958 o
11 5 1 159.002 159.232 1.451 5.711 o
11 5 2 0.189 0.169 0.328 1380.510 o
11 5 3 11.984 12.761 0.646 106.261 o
11 5 4 2.532 2.700 0.530 330.011 o
11 5 5 0.089 2.002 0.974 169.148 o
11 6 0 3.877 4.533 0.657 210.914 o
11 6 1 93.930 96.084 2.256 9.287 o
11 6 2 9.844 8.832 0.582 136.695 o
11 6 3 22.707 21.138 0.752 60.160 o
11 6 4 8.073 7.127 0.593 157.150 o
11 6 5 1.089 0.286 0.900 194.012 o
11 7 0 17.659 14.826 0.858 71.199 o
11 7 1 51.681 51.097 0.858 25.072 o
11 7 2 18.600 18.490 0.678 73.410 o
11 7 3 17.569 17.812 0.614 79.642 o
11 7 4 0.044 0.614 0.466 720.376 o
11 7 5 2.457 0.720 0.593 327.075 o
11 8 0 7.920 7.582 0.784 126.273 o
11 8 1 14.769 15.800 0.646 89.435 o
11 8 2 48.437 50.917 0.943 25.709 o
11 8 3 6.727 7.032 0.561 178.148 o
11 8 4 10.714 10.431 0.710 111.947 o
11 9 0 48.514 50.599 1.271 23.213 o
11 9 1 1.131 1.207 0.508 470.886 o
11 9 2 79.385 77.837 1.123 14.590 o
11 9 3 49.092 48.841 0.858 26.458 o
11 9 4 2.270 1.281 0.667 275.106 o
11 10 0 117.972 115.601 1.906 7.940 o
11 10 1 10.597 9.298 0.688 117.805 o
11 10 2 95.925 98.636 1.387 10.903 o
11 10 3 9.002 8.461 0.625 138.701 o
11 10 4 10.392 8.694 1.292 65.600 o
11 11 0 50.042 49.477 1.430 21.684 o
11 11 1 102.374 105.371 1.334 10.162 o
11 11 2 16.669 13.608 0.826 76.571 o
11 11 3 41.176 44.955 1.123 28.176 o
11 11 4 5.070 4.501 1.366 73.897 o
11 12 0 201.406 189.869 2.806 3.682 o
11 12 1 38.770 37.627 0.985 32.640 o
11 12 2 15.633 14.286 0.868 75.842 o
11 12 3 25.210 26.687 2.510 19.090 o
11 13 0 11.368 12.602 1.175 67.834 o
11 13 1 124.049 123.618 2.605 6.541 o
11 13 2 25.332 26.126 0.995 46.686 o
11 13 3 7.053 7.540 0.900 114.705 o
11 14 0 9.511 9.478 1.207 72.365 o
11 14 1 13.379 12.295 0.900 82.169 o
11 14 2 29.008 30.108 1.080 39.847 o
11 15 0 0.488 0.286 0.879 211.858 o
11 15 1 19.301 18.331 0.985 59.304 o
12 0 0 11.020 11.226 0.667 112.684 o
12 0 1 241.411 228.714 5.009 2.242 o
12 0 2 2.976 2.605 0.794 191.765 o
12 0 3 12.146 12.062 1.207 64.988 o
12 0 4 27.030 28.805 1.271 37.790 o
12 0 5 40.545 35.477 15.303 0.720 o
12 1 0 1.852 2.160 0.572 338.342 o
12 1 1 146.399 141.716 1.303 6.588 o
12 1 2 150.425 152.857 6.566 2.487 o
12 1 3 2.947 3.399 0.508 314.185 o
12 1 4 9.427 10.156 0.646 127.123 o
12 1 5 7.090 9.033 0.794 125.377 o
12 2 0 0.274 0.148 0.445 784.367 o
12 2 1 13.287 14.508 0.519 105.953 o
12 2 2 76.197 76.259 3.717 7.198 o
12 2 3 32.552 34.566 0.943 38.067 o
12 2 4 10.524 11.056 0.762 105.985 o
12 2 5 8.616 10.579 0.826 109.024 o
12 3 0 54.878 55.630 1.091 21.899 o
12 3 1 103.029 101.877 1.059 10.670 o
12 3 2 33.735 33.518 0.731 40.764 o
12 3 3 52.167 52.156 0.921 24.319 o
12 3 4 44.552 46.649 0.826 29.078 o
12 3 5 0.532 1.048 0.868 209.881 o
12 4 0 425.783 419.547 4.257 1.129 o
12 4 1 190.139 188.821 1.589 4.409 o
12 4 2 39.590 41.206 0.943 31.735 o
12 4 3 10.581 11.670 1.144 72.415 o
12 4 4 4.570 5.422 0.561 222.675 o
12 4 5 3.804 4.014 1.091 110.711 o
12 5 0 157.385 158.915 2.097 5.357 o
12 5 1 42.649 43.610 0.815 30.814 o
12 5 2 39.624 39.448 0.805 33.701 o
12 5 3 2.750 3.410 0.657 242.876 o
12 5 4 1.428 2.065 0.519 408.406 o
12 5 5 7.072 7.508 1.154 85.052 o
12 6 0 47.063 46.946 1.133 25.419 o
12 6 1 54.503 53.776 0.858 23.659 o
12 6 2 2.656 2.796 0.530 323.275 o
12 6 3 4.039 4.628 0.498 266.515 o
12 6 4 6.515 6.831 1.101 93.290 o
12 6 5 0.339 2.986 0.985 158.749 o
12 7 0 54.529 55.852 1.228 21.104 o
12 7 1 34.856 34.767 0.784 38.663 o
12 7 2 2.932 1.970 0.551 314.828 o
12 7 3 12.899 11.935 0.614 106.591 o
12 7 4 17.326 17.325 1.144 56.291 o
12 7 5 2.948 0.159 0.487 405.181 o
12 8 0 106.708 106.684 1.769 9.076 o
12 8 1 45.021 45.251 0.890 28.653 o
12 8 2 45.263 44.415 0.964 28.087 o
12 8 3 21.261 19.761 0.688 66.035 o
12 8 4 9.583 9.584 1.271 67.640 o
12 9 0 0.337 0.688 0.635 385.816 o
12 9 1 24.551 25.692 0.784 53.280 o
12 9 2 30.015 27.301 0.879 44.220 o
12 9 3 10.690 10.156 0.635 120.654 o
12 9 4 6.830 5.348 1.408 66.481 o
12 10 0 2.955 3.135 0.604 266.408 o
12 10 1 86.090 84.032 1.207 13.075 o
12 10 2 30.334 30.150 0.932 41.659 o
12 10 3 4.115 4.172 0.752 180.372 o
12 10 4 0.887 1.864 0.710 279.345 o
12 11 0 99.590 100.489 1.896 9.531 o
12 11 1 31.438 29.546 1.620 28.891 o
12 11 2 31.890 33.094 1.112 36.218 o
12 11 3 3.160 3.707 1.504 66.785 o
12 12 0 3.796 3.887 0.985 129.415 o
12 12 1 13.611 12.719 0.815 86.912 o
12 12 2 3.650 3.569 0.752 190.127 o
12 12 3 6.072 5.274 0.826 139.542 o
12 13 0 0.933 1.070 0.911 186.895 o
12 13 1 25.080 25.670 0.974 47.717 o
12 13 2 13.143 14.000 1.716 40.267 o
12 14 0 0.886 1.917 0.995 155.619 o
12 14 1 33.041 32.469 1.377 31.393 o
13 1 0 6.222 6.386 0.667 165.173 o
13 1 1 33.777 35.572 1.101 34.468 o
13 1 2 94.937 95.639 1.853 10.138 o
13 1 3 10.935 12.062 0.635 114.061 o
13 1 4 13.879 15.049 0.635 94.551 o
13 1 5 0.355 1.006 0.551 483.070 o
13 2 0 18.357 20.058 0.805 66.879 o
13 2 1 231.289 225.177 2.097 3.226 o
13 2 2 53.232 52.696 1.631 19.076 o
13 2 3 28.890 27.111 0.794 47.144 o
13 2 4 10.537 10.908 0.614 121.611 o
13 2 5 25.878 29.504 1.027 43.803 o
13 3 0 24.471 24.770 0.890 51.142 o
13 3 1 85.407 84.297 1.620 12.064 o
13 3 2 41.390 42.191 0.815 31.837 o
13 3 3 1.723 1.610 0.530 394.064 o
13 3 4 5.651 5.306 0.572 202.208 o
13 3 5 5.821 7.371 0.805 137.589 o
13 4 0 5.812 5.464 0.710 164.934 o
13 4 1 12.481 11.850 0.943 82.180 o
13 4 2 51.666 56.233 0.985 23.417 o
13 4 3 7.413 7.540 0.635 154.063 o
13 4 4 16.569 16.542 0.890 70.078 o
13 4 5 1.625 2.256 0.995 148.062 o
13 5 0 76.339 78.928 1.387 14.141 o
13 5 1 20.028 20.735 0.657 68.648 o
13 5 2 56.419 58.277 0.943 21.935 o
13 5 3 3.393 4.183 0.508 286.383 o
13 5 4 0.332 1.207 0.508 544.355 o
13 5 5 15.493 17.834 1.175 57.065 o
13 6 0 17.666 19.412 0.911 64.219 o
13 6 1 36.115 36.493 1.599 26.154 o
13 6 2 18.181 19.655 0.710 71.688 o
13 6 3 3.526 3.039 1.260 90.355 o
13 6 4 40.605 38.135 3.516 10.204 o
13 7 0 13.621 13.937 0.900 79.327 o
13 7 1 91.002 91.477 2.044 10.151 o
13 7 2 18.747 18.893 0.752 69.496 o
13 7 3 54.520 54.454 0.900 23.306 o
13 7 4 0.574 0.519 0.572 454.585 o
13 8 0 0.486 0.847 0.688 324.546 o
13 8 1 28.828 28.297 0.794 46.592 o
13 8 2 85.535 82.942 2.531 9.569 o
13 8 3 18.865 19.179 0.699 71.147 o
13 8 4 38.373 35.244 5.528 4.950 o
13 9 0 51.503 51.394 1.387 21.374 o
13 9 1 54.483 53.194 1.536 19.407 o
13 9 2 19.434 18.977 0.837 64.563 o
13 9 3 44.013 44.404 0.699 30.896 o
13 9 4 11.062 10.452 4.342 8.632 o
13 10 0 16.353 17.622 1.112 58.833 o
13 10 1 87.028 83.937 1.260 12.841 o
13 10 2 2.861 2.648 0.688 234.357 o
13 10 3 9.327 10.389 1.345 62.616 o
13 11 0 25.706 26.168 1.260 39.877 o
13 11 1 0.056 1.377 0.921 192.139 o
13 11 2 35.801 35.540 1.038 34.218 o
13 11 3 3.290 4.141 0.921 145.306 o
13 12 0 0.319 0.265 0.508 600.955 o
13 12 1 51.705 53.670 1.419 20.804 o
13 12 2 10.432 10.601 0.847 98.996 o
13 12 3 4.470 5.147 1.080 106.859 o
13 13 0 176.439 172.078 2.669 4.363 o
13 13 1 5.551 5.793 0.805 145.645 o
13 13 2 0.501 0.995 0.688 321.222 o
13 14 0 17.882 18.109 1.334 47.803 o
13 14 1 11.759 12.168 0.921 85.392 o
14 0 0 285.163 280.679 3.209 2.176 o
14 0 1 46.209 47.592 2.033 17.974 o
14 0 2 19.369 18.882 0.657 72.071 o
14 0 3 187.239 181.016 7.667 1.830 o
14 0 4 42.630 44.108 2.245 17.231 o
14 0 5 20.984 20.375 9.859 1.730 o
14 1 0 10.992 10.865 0.773 103.320 o
14 1 1 19.239 18.077 1.408 44.092 o
14 1 2 56.402 56.223 2.457 13.345 o
14 1 3 57.093 59.093 1.027 21.186 o
14 1 4 36.866 39.448 0.826 35.143 o
14 1 5 53.828 41.820 23.330 0.312 o
14 2 0 53.085 53.681 1.175 22.133 o
14 2 1 29.198 30.341 1.610 29.823 o
14 2 2 58.755 59.124 1.218 19.728 o
14 2 3 4.287 4.596 0.604 221.360 o
14 2 4 40.382 43.536 0.858 31.599 o
14 2 5 7.245 10.548 1.165 79.645 o
14 3 0 4.485 3.897 0.710 189.748 o
14 3 1 3.056 3.325 0.508 311.593 o
14 3 2 17.650 18.744 0.688 74.894 o
14 3 3 49.682 50.261 0.964 25.224 o
14 3 4 0.402 0.752 0.487 603.208 o
14 3 5 1.488 2.457 1.027 140.551 o
14 4 0 45.964 44.595 1.144 26.151 o
14 4 1 25.325 25.130 1.144 43.415 o
14 4 2 45.642 46.469 0.900 28.029 o
14 4 3 15.283 15.377 0.625 89.680 o
14 4 4 12.514 12.888 0.688 100.193 o
14 5 0 41.178 41.810 1.175 28.272 o
14 5 1 10.665 9.881 0.752 109.123 o
14 5 2 62.891 62.693 1.175 18.627 o
14 5 3 46.545 46.353 0.826 28.254 o
14 5 4 32.775 29.673 6.036 4.310 o
14 6 0 18.491 16.796 0.974 62.260 o
14 6 1 12.877 13.185 0.657 100.597 o
14 6 2 36.495 35.847 1.832 23.302 o
14 6 3 5.448 5.126 0.582 203.832 o
14 6 4 5.507 5.104 0.858 138.275 o
14 7 0 105.601 105.138 1.769 9.201 o
14 7 1 51.195 51.828 0.964 24.427 o
14 7 2 13.953 13.344 0.741 90.064 o
14 7 3 15.335 16.150 0.678 85.209 o
14 7 4 0.369 1.165 0.720 297.925 o
14 8 0 24.026 23.595 1.101 46.431 o
14 8 1 4.649 4.533 0.519 244.649 o
14 8 2 46.230 46.766 1.017 26.753 o
14 8 3 0.656 0.424 0.371 902.080 o
14 8 4 6.703 5.030 1.970 38.511 o
14 9 0 3.623 3.622 0.900 149.598 o
14 9 1 11.936 11.278 0.752 100.473 o
14 9 2 3.626 2.764 0.678 222.951 o
14 9 3 22.888 24.484 0.974 50.791 o
14 9 4 12.324 10.103 1.800 39.304 o
14 10 0 6.988 8.536 1.027 96.994 o
14 10 1 1.280 1.218 0.625 339.317 o
14 10 2 2.670 1.970 0.498 362.656 o
14 10 3 50.147 50.081 1.197 23.373 o
14 11 0 75.836 72.923 1.779 13.229 o
14 11 1 14.210 14.805 0.964 72.899 o
14 11 2 10.780 11.871 1.186 68.947 o
14 11 3 1.672 0.561 0.635 328.093 o
14 12 0 6.754 7.604 1.101 91.250 o
14 12 1 45.635 46.914 1.144 25.845 o
14 12 2 4.805 4.225 0.943 130.029 o
14 13 0 1.245 2.171 1.017 146.002 o
14 13 1 30.931 32.130 1.080 37.729 o
15 1 0 76.826 76.789 1.430 14.081 o
15 1 1 34.224 32.511 0.837 39.230 o
15 1 2 29.910 29.356 1.663 28.866 o
15 1 3 8.582 8.525 0.572 149.493 o
15 1 4 41.849 41.979 2.171 18.131 o
15 1 5 1.454 1.832 1.017 145.697 o
15 2 0 70.460 66.495 1.345 16.102 o
15 2 1 29.397 29.356 0.752 46.290 o
15 2 2 10.112 10.929 0.646 120.614 o
15 2 3 35.200 35.148 0.752 38.689 o
15 2 4 9.540 10.294 2.266 28.252 o
15 3 0 2.748 3.643 0.741 206.253 o
15 3 1 15.200 15.239 0.646 88.937 o
15 3 2 38.399 38.442 1.811 22.678 o
15 3 3 1.527 1.779 0.794 220.424 o
15 3 4 18.786 18.173 2.436 21.986 o
15 4 0 57.961 58.319 1.303 19.524 o
15 4 1 10.654 11.755 1.017 81.578 o
15 4 2 13.859 14.487 0.688 92.084 o
15 4 3 51.614 50.568 1.070 23.769 o
15 4 4 10.409 9.753 0.847 100.769 o
15 5 0 12.358 12.454 0.921 83.256 o
15 5 1 32.285 30.754 1.239 34.517 o
15 5 2 10.944 11.204 0.572 122.663 o
15 5 3 5.057 5.549 0.582 206.681 o
15 5 4 22.624 17.262 4.162 8.832 o
15 6 0 6.298 6.449 0.837 131.966 o
15 6 1 39.577 38.993 0.879 33.051 o
15 6 2 25.963 28.064 0.868 48.119 o
15 6 3 140.590 139.736 2.266 6.046 o
15 6 4 9.160 9.139 2.817 19.490 o
15 7 0 0.004 0.212 0.635 418.682 o
15 7 1 8.327 7.741 1.197 77.715 o
15 7 2 69.161 67.183 1.557 15.368 o
15 7 3 40.158 42.593 0.784 32.708 o
15 7 4 65.229 56.731 18.840 0.474 o
15 8 0 10.284 9.605 1.006 86.521 o
15 8 1 11.356 11.077 0.752 103.317 o
15 8 2 1.768 1.589 0.646 298.778 o
15 8 3 80.135 86.161 1.398 13.166 o
15 8 4 17.125 9.616 1.165 61.190 o
15 9 0 19.775 17.537 1.207 50.679 o
15 9 1 21.659 20.873 1.123 49.651 o
15 9 2 9.923 10.834 0.784 107.041 o
15 9 3 1.146 0.953 0.678 307.424 o
15 10 0 0.884 1.324 0.868 202.428 o
15 10 1 1.710 2.722 0.678 264.825 o
15 10 2 23.651 25.575 3.537 11.421 o
15 10 3 16.745 19.750 0.964 63.183 o
15 11 0 69.408 72.097 1.821 13.887 o
15 11 1 0.863 0.879 0.646 345.670 o
15 11 2 49.472 49.043 1.197 23.744 o
15 12 0 0.000 0.275 0.837 242.607 o
15 12 1 13.756 16.923 0.932 73.430 o
15 12 2 15.337 15.758 1.070 63.944 o
15 13 0 0.549 0.286 0.879 210.874 o
16 0 0 0.518 0.762 0.614 397.490 o
16 0 1 48.785 49.487 1.303 23.043 o
16 0 2 6.929 8.493 1.123 87.173 o
16 0 3 116.099 115.474 3.272 6.042 o
16 0 4 10.736 11.183 0.837 97.706 o
16 1 0 5.543 5.253 0.784 152.318 o
16 1 1 10.518 10.114 0.879 96.546 o
16 1 2 18.118 17.241 1.398 45.778 o
16 1 3 16.209 17.399 0.752 77.018 o
16 1 4 62.610 57.896 15.112 0.728 o
16 2 0 11.653 12.390 0.879 88.737 o
16 2 1 13.661 12.623 0.657 98.555 o
16 2 2 22.740 23.838 0.646 61.047 o
16 2 3 53.476 54.592 0.900 23.616 o
16 2 4 1.951 1.758 0.995 147.446 o
16 3 0 5.552 5.666 0.805 146.142 o
16 3 1 85.032 87.008 3.378 7.423 o
16 3 2 19.532 21.127 0.784 64.513 o
16 3 3 4.560 5.433 0.582 215.997 o
16 3 4 12.283 11.342 3.887 10.558 o
16 4 0 5.675 5.168 0.837 140.873 o
16 4 1 27.262 26.433 0.794 49.287 o
16 4 2 63.234 64.663 1.112 18.637 o
16 4 3 36.750 36.388 0.815 36.340 o
16 4 4 7.247 7.604 1.366 66.891 o
16 5 0 0.306 0.201 0.625 413.840 o
16 5 1 63.590 66.177 0.868 19.403 o
16 5 2 108.662 108.548 2.319 7.963 o
16 5 3 5.256 5.327 0.773 156.858 o
16 5 4 37.566 31.696 12.136 1.136 o
16 6 0 36.774 36.313 1.292 29.980 o
16 6 1 60.386 57.038 1.567 17.635 o
16 6 2 22.434 23.118 0.858 55.756 o
16 6 3 13.375 14.169 0.879 81.080 o
16 6 4 8.277 6.841 2.150 32.017 o
16 7 0 0.027 1.525 0.794 253.037 o
16 7 1 6.316 7.011 0.699 154.763 o
16 7 2 30.198 30.055 1.377 33.455 o
16 7 3 0.528 1.334 0.678 322.663 o
16 8 0 6.884 6.894 0.964 108.480 o
16 8 1 14.353 12.316 0.858 82.367 o
16 8 2 37.630 35.752 0.731 36.981 o
16 8 3 15.998 19.200 0.943 65.981 o
16 9 0 6.964 5.422 1.027 103.056 o
16 9 1 20.807 19.401 1.048 54.043 o
16 9 2 15.772 16.012 0.900 71.776 o
16 9 3 5.501 6.428 0.815 141.496 o
16 10 0 24.721 27.153 1.377 37.541 o
16 10 1 27.269 27.725 1.567 32.033 o
16 10 2 4.123 5.157 1.038 114.834 o
16 11 0 0.350 0.561 0.805 250.388 o
16 11 1 2.539 1.673 0.731 231.430 o
16 11 2 5.464 5.962 0.985 114.413 o
16 12 0 0.010 1.080 0.921 194.734 o
16 12 1 10.932 13.100 0.890 89.046 o
17 1 0 5.114 5.157 0.805 151.938 o
17 1 1 10.288 11.014 0.995 85.355 o
17 1 2 23.279 23.828 1.175 44.976 o
17 1 3 6.545 6.873 0.614 170.196 o
17 1 4 3.605 1.853 0.667 236.565 o
17 2 0 1.606 0.413 0.593 371.114 o
17 2 1 13.203 12.983 0.699 96.465 o
17 2 2 94.859 93.754 3.304 7.071 o
17 2 3 9.075 10.357 0.635 130.071 o
17 2 4 34.730 32.300 8.525 2.250 o
17 3 0 125.785 119.488 1.938 7.409 o
17 3 1 54.774 53.501 1.070 22.361 o
17 3 2 28.342 28.583 1.006 42.519 o
17 3 3 8.430 8.080 0.508 162.763 o
17 3 4 10.846 8.409 3.209 15.251 o
17 4 0 42.070 42.593 1.313 26.288 o
17 4 1 100.160 94.972 1.504 10.472 o
17 4 2 6.375 6.174 1.197 84.639 o
17 4 3 3.789 5.200 0.741 181.096 o
17 4 4 4.666 1.864 0.943 138.899 o
17 5 0 11.856 11.649 1.038 77.082 o
17 5 1 13.605 13.757 0.752 89.790 o
17 5 2 11.319 12.295 0.794 97.181 o
17 5 3 22.680 23.468 1.557 35.785 o
17 5 4 1.646 0.582 0.604 355.488 o
17 6 0 6.660 4.787 0.953 116.109 o
17 6 1 10.360 9.118 0.741 113.646 o
17 6 2 3.114 3.241 0.699 219.580 o
17 6 3 29.252 29.356 1.017 41.223 o
17 7 0 52.229 50.610 1.504 20.435 o
17 7 1 19.667 18.427 0.847 64.209 o
17 7 2 44.914 46.490 1.112 26.478 o
17 7 3 27.398 28.074 1.027 43.092 o
17 8 0 27.079 24.993 1.271 39.068 o
17 8 1 17.890 16.753 0.847 69.212 o
17 8 2 40.900 41.619 1.133 28.898 o
17 8 3 21.329 22.790 0.995 53.041 o
17 9 0 12.433 13.831 1.197 63.632 o
17 9 1 31.831 30.415 1.038 38.457 o
17 9 2 7.710 7.794 0.815 122.331 o
17 10 0 4.809 2.002 1.059 115.812 o
17 10 1 19.587 19.856 0.953 58.963 o
17 10 2 17.567 19.062 1.048 58.741 o
17 11 0 18.446 19.306 1.356 45.975 o
17 11 1 22.977 25.586 1.017 48.855 o
18 0 0 5.952 6.333 0.921 120.619 o
18 0 1 30.313 28.223 1.313 35.071 o
18 0 2 5.494 6.820 0.710 161.306 o
18 0 3 2.935 3.135 0.741 207.298 o
18 0 4 7.063 7.000 1.663 50.028 o
18 1 0 3.021 2.002 0.826 184.495 o
18 1 1 8.508 8.536 0.688 133.039 o
18 1 2 34.286 35.784 1.536 27.793 o
18 1 3 33.463 34.555 1.027 36.118 o
18 1 4 2.165 1.366 0.667 276.840 o
18 2 0 70.635 70.604 1.631 14.601 o
18 2 1 12.860 13.418 0.773 91.324 o
18 2 2 16.018 15.684 0.794 77.384 o
18 2 3 40.596 43.843 1.101 28.888 o
18 2 4 3.799 3.071 0.752 191.481 o
18 3 0 5.108 5.157 0.932 127.170 o
18 3 1 11.115 11.141 0.741 105.228 o
18 3 2 44.853 45.103 1.038 27.448 o
18 3 3 49.471 52.516 1.324 22.246 o
18 4 0 0.023 0.233 0.710 335.679 o
18 4 1 114.724 109.099 1.980 8.180 o
18 4 2 15.200 13.079 0.964 72.621 o
18 4 3 17.632 18.331 1.620 38.797 o
18 5 0 341.049 314.313 3.834 1.658 o
18 5 1 8.892 8.345 0.762 121.135 o
18 5 2 4.573 5.284 0.614 207.123 o
18 5 3 2.311 2.213 0.731 230.608 o
18 6 0 24.691 22.070 1.250 42.514 o
18 6 1 81.793 75.370 1.271 14.005 o
18 6 2 3.364 3.844 1.313 83.688 o
18 6 3 0.926 1.038 0.688 305.536 o
18 7 0 11.304 10.389 1.101 75.250 o
18 7 1 22.392 22.419 0.932 53.961 o
18 7 2 15.383 14.826 0.921 72.751 o
18 7 3 9.529 10.537 0.858 101.675 o
18 8 0 62.992 64.186 1.747 15.642 o
18 8 1 11.041 10.929 0.847 96.061 o
18 8 2 26.336 26.454 1.017 45.029 o
18 9 0 48.515 51.489 1.684 19.830 o
18 9 1 13.690 14.275 0.921 77.348 o
18 9 2 13.202 13.058 0.911 80.871 o
18 10 0 1.096 2.287 1.006 149.440 o
18 10 1 33.252 33.136 1.101 35.522 o
19 1 0 40.624 39.903 1.377 26.617 o
19 1 1 4.373 3.018 0.688 204.385 o
19 1 2 29.164 27.778 0.752 47.354 o
19 1 3 32.673 33.433 1.260 33.198 o
19 2 0 23.163 22.980 1.239 43.700 o
19 2 1 46.815 47.359 1.059 26.060 o
19 2 2 23.718 25.289 0.868 52.325 o
19 2 3 13.870 15.049 0.985 72.112 o
19 3 0 35.140 34.047 1.366 30.200 o
19 3 1 32.442 30.881 0.953 39.322 o
19 3 2 9.390 9.764 0.815 108.514 o
19 3 3 16.784 19.083 0.932 65.145 o
19 4 0 45.496 46.205 1.472 23.031 o
19 4 1 50.190 45.961 1.091 24.846 o
19 4 2 14.516 14.604 0.890 76.902 o
19 4 3 6.526 6.629 0.826 131.633 o
19 5 0 43.499 37.711 1.451 25.175 o
19 5 1 5.337 5.030 0.868 137.736 o
19 5 2 36.672 36.377 1.080 32.899 o
19 5 3 4.212 4.946 0.815 158.641 o
19 6 0 20.081 19.232 1.313 45.899 o
19 6 1 68.214 69.365 1.281 16.497 o
19 6 2 1.133 1.504 1.017 149.511 o
19 7 0 2.013 2.531 1.017 139.026 o
19 7 1 32.884 33.687 1.048 36.439 o
19 7 2 44.325 43.748 1.186 26.524 o
19 8 0 12.864 12.666 1.218 62.690 o
19 8 1 32.179 33.052 1.281 33.222 o
19 8 2 0.692 0.868 0.678 325.231 o
19 9 0 1.952 3.526 1.059 127.164 o
19 9 1 10.376 9.531 0.911 95.088 o
20 0 0 0.217 0.244 0.752 293.254 o
20 0 1 173.954 171.718 2.023 4.792 o
20 0 2 13.775 13.566 0.890 80.111 o
20 0 3 15.075 17.484 0.953 68.872 o
20 1 0 11.249 10.844 1.101 74.860 o
20 1 1 24.779 24.040 0.815 53.215 o
20 1 2 92.208 97.217 1.461 11.156 o
20 1 3 14.415 14.572 0.985 71.456 o
20 2 0 17.621 15.652 1.218 53.899 o
20 2 1 18.814 20.036 0.932 60.864 o
20 2 2 33.853 35.720 1.048 35.180 o
20 2 3 23.215 23.150 0.995 50.561 o
20 3 0 12.108 11.172 1.250 63.299 o
20 3 1 20.049 22.282 0.943 56.893 o
20 3 2 0.532 1.048 0.667 337.065 o
20 4 0 58.013 58.955 1.737 16.915 o
20 4 1 15.873 15.853 1.451 46.566 o
20 4 2 43.419 46.183 1.175 26.509 o
20 5 0 62.376 64.430 1.769 15.610 o
20 5 1 39.835 42.254 1.112 29.466 o
20 5 2 44.576 43.123 1.165 26.753 o
20 6 0 26.546 25.331 1.430 35.811 o
20 6 1 0.232 0.275 0.530 567.211 o
20 6 2 6.047 7.095 0.837 131.487 o
20 7 0 0.249 0.275 0.847 231.796 o
20 7 1 33.095 32.575 1.959 23.141 o
20 8 0 3.588 4.818 1.101 108.260 o
20 8 1 5.338 6.576 0.847 136.221 o
21 1 0 58.138 55.767 1.769 16.980 o
21 1 1 15.231 14.921 0.900 74.200 o
21 1 2 26.633 26.994 1.027 44.254 o
21 2 0 5.262 3.876 1.070 107.711 o
21 2 1 62.364 60.925 1.271 18.458 o
21 2 2 16.100 15.652 1.175 57.736 o
21 3 0 7.448 5.994 1.144 87.187 o
21 3 1 6.227 4.946 0.794 145.706 o
21 3 2 12.341 13.036 1.313 58.080 o
21 4 0 44.874 44.510 1.620 22.079 o
21 4 1 0.643 1.504 0.710 291.755 o
21 4 2 8.047 9.107 0.868 110.139 o
21 5 0 11.147 11.141 1.239 65.567 o
21 5 1 33.735 32.882 1.091 35.472 o
21 6 0 1.343 1.483 0.985 156.490 o
21 6 1 36.817 38.876 1.144 31.323 o
22 0 0 37.978 40.306 1.599 24.904 o
22 0 1 33.114 34.026 1.906 23.591 o
22 1 0 91.607 90.693 2.076 10.057 o
22 1 1 26.529 25.956 1.048 44.319 o
22 2 0 56.410 55.481 1.758 17.368 o
22 2 1 2.307 2.425 0.773 210.778 o
22 3 0 51.168 51.298 1.758 18.743 o
22 3 1 37.514 36.197 2.266 18.562 o
22 4 0 7.133 5.623 1.175 85.422 o
;
_olex2_submission_special_instructions 'No special instructions were received'
loop_
_space_group_symop_id
_space_group_symop_operation_xyz
1 x,y,z
2 -x,-y,z+1/2
3 -x+1/2,y+1/2,z+1/2
4 x+1/2,-y+1/2,z
loop_
_atom_site_label
_atom_site_type_symbol
_atom_site_fract_x
_atom_site_fract_y
_atom_site_fract_z
_atom_site_U_iso_or_equiv
_atom_site_adp_type
_atom_site_occupancy
_atom_site_refinement_flags_posn
N1 N 0.06656(5) 0.14633(7) -0.2210(2) 0.01195(12) Uani 1.000000 .
H1 H -0.0076(14) 0.1124(15) -0.286(7) 0.026(5) Uani 1.000000 .
C2 C 0.10543(6) 0.26987(8) -0.3227(3) 0.01245(13) Uani 1.000000 .
H2 H 0.0619(13) 0.3465(17) -0.462(8) 0.037(6) Uani 1.000000 .
N3 N 0.20664(5) 0.27787(7) -0.2311(2) 0.01189(12) Uani 1.000000 .
H3 H 0.2587(16) 0.3527(19) -0.298(8) 0.034(5) Uani 1.000000 .
C4 C 0.23599(5) 0.15416(7) -0.0653(3) 0.01081(12) Uani 1.000000 .
C5 C 0.14657(5) 0.06850(7) -0.0542(3) 0.01051(12) Uani 1.000000 .
C6 C 0.33776(6) 0.12982(8) 0.0736(3) 0.01245(13) Uani 1.000000 .
N7 N 0.42154(6) 0.10833(9) 0.1914(3) 0.01857(16) Uani 1.000000 .
O8 O 0.13303(4) -0.05176(6) 0.0734(2) 0.01423(12) Uani 1.000000 .
loop_
_atom_site_aniso_label
_atom_site_aniso_U_11
_atom_site_aniso_U_22
_atom_site_aniso_U_33
_atom_site_aniso_U_12
_atom_site_aniso_U_13
_atom_site_aniso_U_23
N1 0.0072(2) 0.0091(2) 0.0196(3) 0.00018(18) -0.0020(2) 0.0002(3)
H1 0.025(9) 0.008(7) 0.046(14) 0.008(7) -0.010(11) 0.008(10)
C2 0.0088(2) 0.0096(3) 0.0189(4) 0.0002(2) -0.0022(3) 0.0024(3)
H2 0.035(10) 0.019(9) 0.056(18) -0.007(7) -0.024(12) 0.014(12)
N3 0.0089(2) 0.0088(2) 0.0180(3) -0.00089(18) -0.0018(2) 0.0021(3)
H3 0.032(10) 0.041(12) 0.029(13) 0.020(9) -0.007(11) 0.011(13)
C4 0.0066(2) 0.0084(2) 0.0175(3) -0.00074(19) -0.0013(3) 0.0022(3)
C5 0.0069(2) 0.0076(2) 0.0170(3) 0.00002(18) -0.0005(3) 0.0013(3)
C6 0.0072(2) 0.0119(2) 0.0183(3) -0.0007(2) -0.0030(3) 0.0017(3)
N7 0.0094(2) 0.0190(3) 0.0273(4) 0.0005(2) -0.0067(3) 0.0017(3)
O8 0.00757(19) 0.00869(19) 0.0264(3) -0.00073(16) 0.0001(2) 0.0048(3)
loop_
_atom_type_symbol
_atom_type_description
_atom_type_scat_dispersion_real
_atom_type_scat_dispersion_imag
_atom_type_scat_source
_atom_type_scat_dispersion_source
C C 0.00347 0.00161
'Clementi & Roetti, C., At. Data Nucl. Data Tables 1974, 14, (177-478); Clementi & Raimondi, J. Chem. Phys., 1963, 38, (2686-2689)'
'Henke, Gullikson and Davis, At. Data and Nucl. Data Tables, 1993, 54, 2'
H H 0.00000 0.00000
'Clementi & Roetti, C., At. Data Nucl. Data Tables 1974, 14, (177-478); Clementi & Raimondi, J. Chem. Phys., 1963, 38, (2686-2689)'
'Henke, Gullikson and Davis, At. Data and Nucl. Data Tables, 1993, 54, 2'
N N 0.00653 0.00323
'Clementi & Roetti, C., At. Data Nucl. Data Tables 1974, 14, (177-478); Clementi & Raimondi, J. Chem. Phys., 1963, 38, (2686-2689)'
'Henke, Gullikson and Davis, At. Data and Nucl. Data Tables, 1993, 54, 2'
O O 0.01158 0.00611
'Clementi & Roetti, C., At. Data Nucl. Data Tables 1974, 14, (177-478); Clementi & Raimondi, J. Chem. Phys., 1963, 38, (2686-2689)'
'Henke, Gullikson and Davis, At. Data and Nucl. Data Tables, 1993, 54, 2'
loop_
_geom_angle_atom_site_label_1
_geom_angle_atom_site_label_2
_geom_angle_atom_site_label_3
_geom_angle
_geom_angle_site_symmetry_1
_geom_angle_site_symmetry_3
_geom_angle_publ_flag
C2 N1 H1 123.7(10) . . ?
C5 N1 H1 126.0(9) . . ?
C5 N1 C2 109.87(6) . . ?
H2 C2 N1 124.9(8) . . ?
N3 C2 N1 109.40(7) . . ?
N3 C2 H2 125.7(8) . . ?
H3 N3 C2 127.4(11) . . ?
C4 N3 C2 108.43(6) . . ?
C4 N3 H3 123.6(10) . . ?
C5 C4 N3 108.08(6) . . ?
C6 C4 N3 123.15(7) . . ?
C6 C4 C5 128.71(7) . . ?
C4 C5 N1 104.21(7) . . ?
O8 C5 N1 124.13(6) . . ?
O8 C5 C4 131.65(7) . . ?
N7 C6 C4 179.14(10) . . ?
loop_
_geom_bond_atom_site_label_1
_geom_bond_atom_site_label_2
_geom_bond_distance
_geom_bond_site_symmetry_2
_geom_bond_publ_flag
N1 H1 1.018(18) . ?
N1 C2 1.3470(11) . ?
N1 C5 1.3996(10) . ?
C2 H2 1.055(19) . ?
C2 N3 1.3196(10) . ?
N3 H3 1.01(2) . ?
N3 C4 1.3953(11) . ?
C4 C5 1.3994(10) . ?
C4 C6 1.3988(11) . ?
C5 O8 1.2687(10) . ?
C6 N7 1.1585(11) . ?
loop_
_refln_index_h
_refln_index_k
_refln_index_l
_refln_F_squared_meas
_refln_F_squared_sigma
2 0 0 487.61 2.21
4 0 0 1925.1 6.23
6 0 0 422.06 3.74
8 0 0 2.74 0.4
10 0 0 86.66 1.21
12 0 0 10.6 0.63
14 0 0 265.04 3.03
16 0 0 0.72 0.58
18 0 0 5.98 0.87
20 0 0 0.23 0.71
22 0 0 38.06 1.51
1 1 0 351.68 1.73
2 1 0 581.97 2.65
3 1 0 389.63 2.61
4 1 0 1.27 0.3
5 1 0 34.13 0.62
6 1 0 500.55 4.07
7 1 0 393.7 3.61
8 1 0 549.01 5.01
9 1 0 26.12 0.65
10 1 0 81.18 1.19
11 1 0 406.83 4.03
12 1 0 2.04 0.54
13 1 0 6.03 0.63
14 1 0 10.26 0.73
15 1 0 72.51 1.35
16 1 0 4.96 0.74
17 1 0 4.87 0.76
18 1 0 1.89 0.78
19 1 0 37.68 1.3
20 1 0 10.24 1.04
21 1 0 52.66 1.67
22 1 0 85.64 1.96
0 2 0 312.97 2.05
1 2 0 1607.69 4.73
2 2 0 223.38 2.03
3 2 0 501.09 3.22
4 2 0 790.68 4.39
5 2 0 445.84 3.67
6 2 0 422.92 3.87
7 2 0 24.97 0.54
8 2 0 181.85 1.89
9 2 0 37 0.72
10 2 0 322.31 3.23
11 2 0 748.3 6.62
12 2 0 0.14 0.42
13 2 0 18.94 0.76
14 2 0 50.69 1.11
15 2 0 62.79 1.27
16 2 0 11.7 0.83
17 2 0 0.39 0.56
18 2 0 66.67 1.54
19 2 0 21.7 1.17
20 2 0 14.78 1.15
21 2 0 3.66 1.01
22 2 0 52.39 1.66
1 3 0 268.5 2.43
2 3 0 2232.85 6.99
3 3 0 1247.5 5.58
4 3 0 11.85 0.42
5 3 0 16 0.49
6 3 0 27.19 0.56
7 3 0 355.1 3.39
8 3 0 224.1 2.37
9 3 0 1.18 0.44
10 3 0 7.99 0.58
11 3 0 6.26 0.59
12 3 0 52.53 1.03
13 3 0 23.39 0.84
14 3 0 3.68 0.67
15 3 0 3.44 0.7
16 3 0 5.35 0.76
17 3 0 112.83 1.83
18 3 0 4.87 0.88
19 3 0 32.15 1.29
20 3 0 10.55 1.18
21 3 0 5.66 1.08
22 3 0 48.44 1.66
0 4 0 1009.08 5.21
1 4 0 0.09 0.29
2 4 0 139.29 1.44
3 4 0 3.23 0.42
4 4 0 18.71 0.48
5 4 0 4.66 0.38
6 4 0 118.81 1.4
7 4 0 41.77 0.76
8 4 0 150.55 1.74
9 4 0 131.93 1.63
10 4 0 342.03 3.55
11 4 0 24.07 0.78
12 4 0 396.17 4.02
13 4 0 5.16 0.67
14 4 0 42.11 1.08
15 4 0 55.07 1.23
16 4 0 4.88 0.79
17 4 0 40.22 1.24
18 4 0 0.22 0.67
19 4 0 43.63 1.39
20 4 0 55.67 1.64
21 4 0 42.03 1.53
22 4 0 5.31 1.11
1 5 0 2.06 0.38
2 5 0 3.08 0.4
3 5 0 94.34 1.13
4 5 0 337.31 3.23
5 5 0 75.99 1.01
6 5 0 3.56 0.46
7 5 0 7.9 0.52
8 5 0 3.66 0.51
9 5 0 96.37 1.35
10 5 0 30.59 0.84
11 5 0 23.04 0.79
12 5 0 150.06 1.98
13 5 0 74.53 1.31
14 5 0 39.48 1.11
15 5 0 11.76 0.87
16 5 0 0.19 0.59
17 5 0 11 0.98
18 5 0 296.8 3.62
19 5 0 35.61 1.37
20 5 0 60.84 1.67
21 5 0 10.52 1.17
0 6 0 167.88 1.76
1 6 0 1632.64 8.4
2 6 0 0.4 0.34
3 6 0 306.01 2.9
4 6 0 459.33 4.16
5 6 0 0.85 0.42
6 6 0 83.34 1.19
7 6 0 20.21 0.69
8 6 0 22.11 0.71
9 6 0 34.05 0.86
10 6 0 63.25 1.13
11 6 0 4.28 0.62
12 6 0 44.33 1.07
13 6 0 18.33 0.86
14 6 0 15.86 0.92
15 6 0 6.09 0.79
16 6 0 34.29 1.22
17 6 0 4.52 0.9
18 6 0 20.84 1.18
19 6 0 18.16 1.24
20 6 0 23.92 1.35
21 6 0 1.4 0.93
1 7 0 5.29 0.5
2 7 0 2.5 0.47
3 7 0 138.46 1.62
4 7 0 52.29 0.93
5 7 0 13.8 0.64
6 7 0 91.37 1.34
7 7 0 925.5 8.15
8 7 0 0.14 0.43
9 7 0 124.75 1.7
10 7 0 148.43 1.9
11 7 0 14 0.81
12 7 0 52.74 1.16
13 7 0 13.16 0.85
14 7 0 99.28 1.67
15 7 0 0.2 0.6
16 7 0 1.44 0.75
17 7 0 47.79 1.42
18 7 0 9.81 1.04
19 7 0 2.39 0.96
20 7 0 0.26 0.8
0 8 0 48.87 0.88
1 8 0 176.23 1.99
2 8 0 14.69 0.65
3 8 0 78.73 1.15
4 8 0 35.83 0.83
5 8 0 140.87 1.8
6 8 0 87.82 1.33
7 8 0 2.74 0.56
8 8 0 173 2.16
9 8 0 31.74 0.95
10 8 0 43.71 1.07
11 8 0 7.16 0.74
12 8 0 100.74 1.67
13 8 0 0.8 0.65
14 8 0 22.28 1.04
15 8 0 9.07 0.95
16 8 0 6.51 0.91
17 8 0 23.6 1.2
18 8 0 60.61 1.65
19 8 0 11.96 1.15
20 8 0 4.55 1.04
1 9 0 540.75 5.07
2 9 0 2.35 0.57
3 9 0 419.59 4.1
4 9 0 169.16 2.13
5 9 0 34.4 0.9
6 9 0 62.47 1.15
7 9 0 8.8 0.72
8 9 0 157.68 2.08
9 9 0 27.77 0.96
10 9 0 0.56 0.57
11 9 0 47.78 1.2
12 9 0 0.65 0.6
13 9 0 48.53 1.31
14 9 0 3.42 0.85
15 9 0 16.56 1.14
16 9 0 5.12 0.97
17 9 0 13.06 1.13
18 9 0 48.62 1.59
19 9 0 3.33 1
0 10 0 331.57 3.39
1 10 0 49.39 1.05
2 10 0 19.53 0.81
3 10 0 15.12 0.75
4 10 0 24.31 0.87
5 10 0 0.76 0.54
7 10 0 29.29 0.97
8 10 0 69.81 1.3
9 10 0 0.18 0.55
10 10 0 112.04 1.84
11 10 0 109.16 1.8
12 10 0 2.96 0.57
13 10 0 16.64 1.05
14 10 0 8.06 0.97
15 10 0 1.25 0.82
16 10 0 25.64 1.3
17 10 0 1.89 1
18 10 0 2.16 0.95
1 11 0 3.35 0.67
2 11 0 103.35 1.57
3 11 0 43.88 1.11
4 11 0 19.47 0.86
5 11 0 50.5 1.17
6 11 0 0.93 0.63
7 11 0 1.21 0.63
8 11 0 0.19 0.58
9 11 0 14.26 0.95
10 11 0 23.44 1.07
11 11 0 46.72 1.35
12 11 0 94.89 1.79
13 11 0 24.71 1.19
14 11 0 68.86 1.68
15 11 0 68.08 1.72
16 11 0 0.53 0.76
17 11 0 18.23 1.28
0 12 0 42.08 1.14
1 12 0 1.31 0.65
2 12 0 0.17 0.53
3 12 0 19.11 0.93
4 12 0 31.72 1.07
5 12 0 11.32 0.86
6 12 0 25.66 1.05
7 12 0 23.79 1.04
8 12 0 4.1 0.83
9 12 0 50.24 1.39
10 12 0 1.61 0.81
11 12 0 179.29 2.65
12 12 0 3.67 0.93
13 12 0 0.25 0.48
14 12 0 7.18 1.04
15 12 0 0.26 0.79
16 12 0 1.02 0.87
1 13 0 8.64 0.87
2 13 0 0.45 0.58
3 13 0 1.83 0.74
4 13 0 14.8 0.98
5 13 0 0.2 0.6
6 13 0 52.95 1.38
7 13 0 4.93 0.92
8 13 0 35.13 1.32
9 13 0 82.21 1.72
10 13 0 11.3 1.06
11 13 0 11.9 1.11
12 13 0 1.01 0.86
13 13 0 162.49 2.52
14 13 0 2.05 0.96
15 13 0 0.27 0.83
0 14 0 137.01 2.11
1 14 0 1.3 0.79
2 14 0 26.39 1.21
3 14 0 3.21 0.85
4 14 0 0.22 0.7
5 14 0 13.74 1.05
6 14 0 1.78 0.84
7 14 0 14.51 1.07
8 14 0 0.25 0.75
9 14 0 40.17 2.8
10 14 0 17.48 1.23
11 14 0 8.95 1.14
12 14 0 1.81 0.94
13 14 0 17.1 1.26
1 15 0 41.45 1.47
2 15 0 167.86 2.49
3 15 0 7.36 1.04
4 15 0 0.24 0.73
5 15 0 29.65 1.34
6 15 0 5.78 1
7 15 0 5.72 0.98
8 15 0 13.9 1.21
9 15 0 9.81 1.08
10 15 0 6.73 1.07
11 15 0 0.27 0.83
0 16 0 7.73 1.11
1 16 0 77.26 1.81
2 16 0 4.18 1.05
3 16 0 23.08 1.27
4 16 0 71.39 1.77
5 16 0 16 1.24
6 16 0 90.04 1.99
7 16 0 3.39 1.04
8 16 0 6.17 1.13
9 16 0 13.88 1.25
1 17 0 9.68 1.22
2 17 0 0.8 0.83
3 17 0 5.18 1.12
4 17 0 18.64 1.33
5 17 0 2.36 1.02
2 0 1 3374.1 196.22
4 0 1 429.77 22.72
6 0 1 550.47 18.11
8 0 1 476.33 9.52
10 0 1 462.55 10.97
12 0 1 215.97 4.73
14 0 1 44.94 1.92
16 0 1 46.73 1.23
18 0 1 26.65 1.24
20 0 1 162.15 1.91
22 0 1 32.13 1.8
0 1 1 2842.49 73.89
1 1 1 2419.16 75.55
2 1 1 444.62 7.46
3 1 1 394.9 4.73
4 1 1 112.49 1.1
5 1 1 444.75 11.94
6 1 1 129.85 1.03
7 1 1 34.28 0.49
8 1 1 16.52 0.4
9 1 1 224.79 1.62
10 1 1 123.57 1.11
11 1 1 87.44 2.66
12 1 1 133.82 1.23
13 1 1 33.59 1.04
14 1 1 17.07 1.33
15 1 1 30.7 0.79
16 1 1 9.55 0.83
17 1 1 10.4 0.94
18 1 1 8.06 0.65
19 1 1 2.85 0.65
20 1 1 22.7 0.77
21 1 1 14.09 0.85
22 1 1 24.51 0.99
1 2 1 1556.46 23.67
2 2 1 1465.28 5.51
3 2 1 98.76 2.31
4 2 1 58.71 1.7
5 2 1 285.54 3.18
6 2 1 436.18 6.77
7 2 1 146.05 1.98
8 2 1 219.31 1.54
9 2 1 160.05 1.27
10 2 1 86.27 1.06
11 2 1 25.84 0.55
12 2 1 13.7 0.49
13 2 1 212.63 1.98
14 2 1 28.65 1.52
15 2 1 27.72 0.71
16 2 1 11.92 0.62
17 2 1 12.26 0.66
18 2 1 12.67 0.73
19 2 1 44.72 1
20 2 1 18.92 0.88
21 2 1 57.53 1.2
22 2 1 2.29 0.73
0 3 1 743.65 21.27
1 3 1 200.39 4.7
2 3 1 35.58 0.42
3 3 1 116.88 1.77
4 3 1 17.41 0.34
5 3 1 308.53 2
6 3 1 109.06 1.92
7 3 1 3.55 0.32
8 3 1 109.16 0.96
9 3 1 35.51 0.56
10 3 1 230.74 1.82
11 3 1 114.34 1.09
12 3 1 96.2 1
13 3 1 79.6 1.53
14 3 1 3.14 0.48
15 3 1 14.39 0.61
16 3 1 82.16 3.19
17 3 1 50.52 1.01
18 3 1 10.52 0.7
19 3 1 29.16 0.9
20 3 1 21.04 0.89
21 3 1 4.67 0.75
22 3 1 34.18 2.14
1 4 1 246.46 3.17
2 4 1 233.23 8.55
3 4 1 297.18 1.93
4 4 1 403.89 2.49
5 4 1 68.89 0.66
6 4 1 13.51 0.38
7 4 1 23.38 0.46
8 4 1 107.21 1.26
9 4 1 116.62 1.06
10 4 1 210.77 2.67
11 4 1 21.11 0.56
12 4 1 178.3 1.5
13 4 1 11.19 0.89
14 4 1 23.73 1.08
15 4 1 11.1 0.96
16 4 1 24.96 0.75
17 4 1 89.68 1.42
18 4 1 103.02 1.87
19 4 1 43.4 1.03
20 4 1 14.97 1.37
21 4 1 1.42 0.67
0 5 1 914.94 24.62
1 5 1 140.47 1.9
2 5 1 182.6 1.3
3 5 1 111.6 0.91
4 5 1 294.33 2.02
5 5 1 61.61 0.68
6 5 1 135.82 1.21
7 5 1 27.19 0.51
8 5 1 123.37 1.11
9 5 1 1.93 0.37
10 5 1 74.05 0.89
11 5 1 150.36 1.37
12 5 1 41.18 0.77
13 5 1 19.58 0.62
14 5 1 9.33 0.71
15 5 1 29.04 1.17
16 5 1 62.49 0.82
17 5 1 12.99 0.71
18 5 1 7.88 0.72
19 5 1 4.75 0.82
20 5 1 39.9 1.05
21 5 1 31.05 1.03
1 6 1 295.63 12.04
2 6 1 75.53 0.73
3 6 1 14.21 0.41
4 6 1 57.29 1.18
5 6 1 1.56 0.46
6 6 1 73.22 1.18
7 6 1 348.08 3.02
8 6 1 156.18 2.02
9 6 1 62.66 1.11
10 6 1 2.55 0.89
11 6 1 90.73 2.13
12 6 1 50.78 0.81
13 6 1 34.46 1.51
14 6 1 12.45 0.62
15 6 1 36.82 0.83
16 6 1 53.86 1.48
17 6 1 8.61 0.7
18 6 1 71.17 1.2
19 6 1 65.5 1.21
20 6 1 0.26 0.5
21 6 1 36.71 1.08
0 7 1 142.56 2.51
1 7 1 184.55 6.41
2 7 1 16.53 0.45
3 7 1 159.47 1.31
4 7 1 110.78 1.09
5 7 1 263.77 1.95
6 7 1 36.6 0.6
7 7 1 27.48 1.71
8 7 1 5.76 0.53
9 7 1 82.94 2.28
10 7 1 56.07 0.97
11 7 1 48.25 0.81
12 7 1 32.83 0.74
13 7 1 86.38 1.93
14 7 1 48.94 0.91
15 7 1 7.31 1.13
16 7 1 6.62 0.66
17 7 1 17.4 0.8
18 7 1 21.17 0.88
19 7 1 31.81 0.99
20 7 1 30.76 1.85
1 8 1 82.05 0.91
2 8 1 521.12 6.39
3 8 1 99.6 1.06
4 8 1 69.32 0.82
5 8 1 26.35 0.57
6 8 1 122.57 1.15
7 8 1 152.42 1.38
8 8 1 97.63 1.19
9 8 1 27.73 0.65
10 8 1 13.87 0.57
11 8 1 14.92 0.61
12 8 1 42.73 0.84
13 8 1 26.72 0.75
14 8 1 4.28 0.49
15 8 1 10.46 0.71
16 8 1 11.63 0.81
17 8 1 15.82 0.8
18 8 1 10.32 0.8
19 8 1 31.21 1.21
20 8 1 6.21 0.8
0 9 1 67.22 1.1
1 9 1 241.12 4.04
2 9 1 37.32 1.3
3 9 1 23.36 0.57
4 9 1 31.24 0.96
5 9 1 55.29 0.94
6 9 1 99.32 1.04
7 9 1 16.12 1.26
8 9 1 9.33 0.54
9 9 1 212.69 1.84
10 9 1 5.11 0.77
11 9 1 1.14 0.48
12 9 1 24.26 0.74
13 9 1 50.23 1.45
14 9 1 10.65 0.71
15 9 1 19.71 1.06
16 9 1 18.32 0.99
17 9 1 28.72 0.98
18 9 1 13.48 0.87
19 9 1 9 0.86
1 10 1 12.79 0.54
2 10 1 63.92 0.85
3 10 1 87.85 2.87
4 10 1 7.57 1.18
5 10 1 22.06 0.62
6 10 1 20.48 1.4
7 10 1 21.26 0.65
8 10 1 0.36 0.39
9 10 1 115.05 1.27
10 10 1 38.25 1.13
11 10 1 8.78 0.65
12 10 1 79.35 1.14
13 10 1 79.26 1.19
14 10 1 1.15 0.59
15 10 1 2.57 0.64
16 10 1 26.18 1.48
17 10 1 18.75 0.9
18 10 1 31.29 1.04
0 11 1 119.07 4.04
1 11 1 136.45 2.71
2 11 1 28.43 0.69
3 11 1 18.4 0.64
4 11 1 36.78 0.76
5 11 1 99.84 1.18
6 11 1 34.66 1.65
7 11 1 7.58 0.58
8 11 1 14.55 0.66
9 11 1 27.7 0.78
10 11 1 45.93 0.77
11 11 1 99.5 1.26
12 11 1 27.9 1.53
13 11 1 1.3 0.87
14 11 1 13.98 0.91
15 11 1 0.83 0.61
16 11 1 1.58 0.69
17 11 1 24.16 0.96
1 12 1 7.96 0.57
2 12 1 4.45 0.54
3 12 1 3.79 0.56
4 12 1 13.3 0.64
5 12 1 1.78 0.78
6 12 1 20.22 0.75
7 12 1 29.39 0.8
8 12 1 6.11 0.64
9 12 1 62.55 1.44
10 12 1 16.9 0.78
11 12 1 35.53 0.93
12 12 1 12.01 0.77
13 12 1 50.68 1.34
14 12 1 44.3 1.08
15 12 1 15.98 0.88
16 12 1 12.37 0.84
0 13 1 77.86 2.91
1 13 1 19.98 0.82
2 13 1 3.13 0.58
3 13 1 25.06 1.49
4 13 1 2.07 0.41
5 13 1 15.64 0.74
6 13 1 26 0.85
7 13 1 12.85 0.77
8 13 1 15.06 0.76
9 13 1 15.45 0.79
10 13 1 6.13 0.71
11 13 1 116.73 2.46
12 13 1 24.24 0.92
13 13 1 5.47 0.76
14 13 1 30.34 1.02
1 14 1 44.01 0.98
2 14 1 40.4 0.95
3 14 1 73.34 3.7
4 14 1 5.77 0.68
5 14 1 4.66 0.65
6 14 1 10.23 0.73
7 14 1 9.69 0.73
8 14 1 0.37 0.51
9 14 1 16.94 0.85
10 14 1 1.7 0.69
11 14 1 11.61 0.85
12 14 1 30.66 1.3
13 14 1 11.49 0.87
0 15 1 113.02 1.42
1 15 1 26.44 0.89
2 15 1 9.81 0.77
3 15 1 20.7 0.87
4 15 1 4.59 0.72
5 15 1 51.25 1.63
6 15 1 30.33 0.99
7 15 1 25.29 0.95
8 15 1 57.3 1.26
9 15 1 24.2 0.98
10 15 1 12.36 0.88
11 15 1 17.31 0.93
1 16 1 15.74 2.26
2 16 1 12.69 0.84
3 16 1 5.51 0.89
4 16 1 2.31 0.7
5 16 1 1.38 0.92
6 16 1 40.79 1.11
7 16 1 13.65 0.91
8 16 1 37.39 1.09
0 17 1 40.78 1.12
1 17 1 24.87 1
2 17 1 15.56 1.09
3 17 1 38.33 1.11
4 17 1 50.87 1.74
0 0 2 359.56 11.45
2 0 2 310.53 2.82
4 0 2 636.1 26.68
6 0 2 440.16 17.62
8 0 2 405.74 23.04
10 0 2 327.75 9.78
12 0 2 2.46 0.75
14 0 2 17.83 0.62
16 0 2 8.02 1.06
18 0 2 6.44 0.67
20 0 2 12.81 0.84
1 1 2 111.15 0.86
2 1 2 384.51 9.49
3 1 2 170.62 5.88
4 1 2 57.05 0.56
5 1 2 21.72 0.42
6 1 2 64.26 1.27
7 1 2 87.46 1.53
8 1 2 30.91 0.54
9 1 2 87.78 2.1
10 1 2 4.81 0.5
11 1 2 44.64 1.6
12 1 2 144.34 6.2
13 1 2 90.31 1.75
14 1 2 53.09 2.32
15 1 2 27.72 1.57
16 1 2 16.28 1.32
17 1 2 22.5 1.11
18 1 2 33.79 1.45
19 1 2 26.23 0.71
20 1 2 91.8 1.38
21 1 2 25.49 0.97
0 2 2 638.17 64.42
1 2 2 113.12 4.98
2 2 2 57.74 1.2
3 2 2 581.2 26.13
4 2 2 115.84 0.88
5 2 2 126.97 0.99
6 2 2 5.13 0.44
7 2 2 74.91 1.63
8 2 2 2.9 0.35
9 2 2 200.28 2.24
10 2 2 25.94 0.56
11 2 2 14.41 0.52
12 2 2 72.01 3.51
13 2 2 49.76 1.54
14 2 2 55.83 1.15
15 2 2 10.32 0.61
16 2 2 22.51 0.61
17 2 2 88.53 3.12
18 2 2 14.81 0.75
19 2 2 23.88 0.82
20 2 2 33.73 0.99
21 2 2 14.78 1.11
1 3 2 273.17 5.26
2 3 2 810.54 10.82
3 3 2 60.44 2.81
4 3 2 16.14 0.69
5 3 2 73.22 0.72
6 3 2 187.83 1.4
7 3 2 55.83 0.66
8 3 2 112.89 1.53
9 3 2 138.67 1.2
10 3 2 1.87 0.38
11 3 2 12.56 0.51
12 3 2 31.65 0.69
13 3 2 39.84 0.77
14 3 2 17.7 0.65
15 3 2 36.3 1.71
16 3 2 19.95 0.74
17 3 2 26.99 0.95
18 3 2 42.59 0.98
19 3 2 9.22 0.77
20 3 2 0.99 0.63
21 3 2 12.31 1.24
0 4 2 29.84 2.23
1 4 2 138.25 9.17
2 4 2 355.96 3.02
3 4 2 38.79 1.25
4 4 2 9.67 0.39
5 4 2 277.56 3.7
6 4 2 123.61 1.58
7 4 2 56.39 0.68
8 4 2 123.01 1.22
9 4 2 66.96 0.79
10 4 2 15.86 1
11 4 2 65.22 0.84
12 4 2 38.91 0.89
13 4 2 53.1 0.93
14 4 2 43.88 0.85
15 4 2 13.68 0.65
16 4 2 61.06 1.05
17 4 2 5.83 1.13
18 4 2 12.35 0.91
19 4 2 13.79 0.84
20 4 2 43.61 1.11
21 4 2 8.6 0.82
1 5 2 35.46 1.35
2 5 2 6.29 2.13
3 5 2 43.03 0.58
4 5 2 57.7 1.26
5 5 2 74.05 1.05
6 5 2 58.68 1.33
7 5 2 8.13 0.43
8 5 2 182.87 3.08
9 5 2 59.75 1.64
10 5 2 172.55 3.05
11 5 2 0.16 0.31
12 5 2 37.25 0.76
13 5 2 55.03 0.89
14 5 2 59.2 1.11
15 5 2 10.58 0.54
16 5 2 102.5 2.19
17 5 2 11.61 0.75
18 5 2 4.99 0.58
19 5 2 34.35 1.02
20 5 2 40.72 1.1
0 6 2 85.49 9.75
1 6 2 122.68 2.02
2 6 2 41.4 1.62
3 6 2 196.73 3.17
4 6 2 50.92 0.66
5 6 2 247.31 4.03
6 6 2 147.09 1.55
7 6 2 2.59 0.41
8 6 2 6.24 0.45
9 6 2 158.03 1.94
10 6 2 71.67 0.9
11 6 2 8.34 0.55
12 6 2 2.64 0.5
13 6 2 18.56 0.67
14 6 2 33.85 1.73
15 6 2 26.5 0.82
16 6 2 21.83 0.81
17 6 2 3.06 0.66
18 6 2 3.63 1.24
19 6 2 1.42 0.96
20 6 2 6.7 0.79
1 7 2 246.46 1.85
2 7 2 10.78 0.45
3 7 2 152.99 2.2
4 7 2 53.04 2.53
5 7 2 24.29 0.57
6 7 2 40.23 0.71
7 7 2 7.78 0.5
8 7 2 0.45 0.37
9 7 2 18.81 0.61
10 7 2 88.19 2.25
11 7 2 17.46 0.64
12 7 2 1.86 0.52
13 7 2 17.84 0.71
14 7 2 12.6 0.7
15 7 2 63.44 1.47
16 7 2 28.38 1.3
17 7 2 43.9 1.05
18 7 2 14 0.87
19 7 2 41.31 1.12
0 8 2 177.05 15.49
1 8 2 60.06 3.32
2 8 2 12.15 0.98
3 8 2 35.01 1.85
4 8 2 66.16 2.36
5 8 2 52.68 0.77
6 8 2 22.05 0.94
7 8 2 12.42 0.54
8 8 2 11.21 0.59
9 8 2 22.96 0.67
10 8 2 2.03 0.58
11 8 2 48.08 0.89
12 8 2 41.94 0.91
13 8 2 78.32 2.39
14 8 2 44.16 0.96
15 8 2 1.5 0.61
16 8 2 33.76 0.69
17 8 2 39.3 1.07
18 8 2 24.98 0.96
19 8 2 0.82 0.64
1 9 2 54.83 0.78
2 9 2 86.94 3.17
3 9 2 21.96 0.6
4 9 2 11.28 0.73
5 9 2 74.08 1.64
6 9 2 8.7 0.57
7 9 2 207.1 1.76
8 9 2 12.53 0.62
9 9 2 6.69 0.56
10 9 2 28.76 0.92
11 9 2 73.5 1.06
12 9 2 25.78 0.83
13 9 2 17.92 0.79
14 9 2 2.61 0.64
15 9 2 10.23 0.74
16 9 2 15.12 0.85
17 9 2 7.36 0.77
18 9 2 12.33 0.86
0 10 2 42.63 1.25
1 10 2 45.35 3
2 10 2 38.43 0.74
3 10 2 11.62 0.81
4 10 2 46.81 0.83
5 10 2 19.69 0.66
6 10 2 47.32 0.85
7 10 2 26.08 0.75
8 10 2 56.7 0.95
9 10 2 22.82 0.75
10 10 2 8.83 0.55
11 10 2 93.14 1.31
12 10 2 28.47 0.88
13 10 2 2.5 0.65
14 10 2 1.86 0.47
15 10 2 24.15 3.34
16 10 2 4.87 0.98
17 10 2 18 0.99
1 11 2 2.69 0.51
2 11 2 2.4 0.51
3 11 2 25.73 1.18
4 11 2 90.4 1.77
5 11 2 4.59 0.57
6 11 2 2.6 0.54
7 11 2 1.36 0.7
8 11 2 10.66 0.56
9 11 2 101.04 1.27
10 11 2 44.6 1.9
11 11 2 12.85 0.78
12 11 2 31.25 1.05
13 11 2 33.56 0.98
14 11 2 11.21 1.12
15 11 2 46.31 1.13
16 11 2 5.63 0.93
0 12 2 63.74 5
1 12 2 115.39 4.38
2 12 2 9.93 1.07
3 12 2 56.45 2.46
4 12 2 27.29 0.8
5 12 2 2.42 0.48
6 12 2 13.68 1.07
7 12 2 42.65 0.94
8 12 2 7.83 0.7
9 12 2 8.47 0.71
10 12 2 30.66 0.92
11 12 2 13.49 0.82
12 12 2 3.37 0.71
13 12 2 10.01 0.8
14 12 2 3.99 0.89
15 12 2 14.88 1.01
1 13 2 14.73 0.85
2 13 2 83.12 2.17
3 13 2 60.09 1.43
4 13 2 19.17 0.8
5 13 2 32.76 1.96
6 13 2 11.66 0.75
7 13 2 7.72 0.71
8 13 2 24.15 1.76
9 13 2 46.59 1.45
10 13 2 2.42 0.94
11 13 2 24.67 0.94
12 13 2 13.22 1.62
13 13 2 0.94 0.65
0 14 2 42.16 3.61
1 14 2 31.89 2.73
2 14 2 2.27 0.63
3 14 2 2.7 0.65
4 14 2 6.4 1.28
5 14 2 10.11 0.91
6 14 2 12.6 0.67
7 14 2 26.49 0.95
8 14 2 23.79 0.93
9 14 2 4.48 0.75
10 14 2 23.2 0.95
11 14 2 28.43 1.02
1 15 2 6.1 0.75
2 15 2 12.1 0.79
3 15 2 6.79 0.77
4 15 2 11.96 0.83
5 15 2 9.31 1.23
6 15 2 53.79 3.4
7 15 2 53.38 1.18
8 15 2 23.4 0.97
9 15 2 24.43 1
0 16 2 69.94 1.3
1 16 2 2.45 1.73
2 16 2 9.06 0.82
3 16 2 2.21 0.73
4 16 2 29.77 1.04
5 16 2 33.77 1.07
6 16 2 8.1 0.84
2 0 3 154.13 4.69
4 0 3 120.06 5.87
6 0 3 90.12 6
8 0 3 127.51 9.87
10 0 3 5.66 1.14
12 0 3 11.39 1.14
14 0 3 170.93 7.24
16 0 3 109.04 3.09
18 0 3 2.96 0.7
20 0 3 16.51 0.9
0 1 3 34.07 0.54
1 1 3 5.27 0.35
2 1 3 8.9 0.38
3 1 3 101.12 1.31
4 1 3 13.37 0.42
5 1 3 87.25 4.71
6 1 3 12.19 1.07
7 1 3 9.32 0.53
8 1 3 199.35 5.37
9 1 3 54.39 0.77
10 1 3 27.43 0.72
11 1 3 4.28 0.47
12 1 3 3.21 0.48
13 1 3 11.39 0.6
14 1 3 55.8 0.97
15 1 3 8.05 0.54
16 1 3 16.43 0.71
17 1 3 6.49 0.58
18 1 3 32.63 0.97
19 1 3 31.57 1.19
20 1 3 13.76 0.93
1 2 3 5.12 0.41
2 2 3 2.69 0.64
3 2 3 306.99 20.36
4 2 3 20.97 0.52
5 2 3 57.26 1.82
6 2 3 65.19 1.47
7 2 3 145.47 2.48
8 2 3 23.27 0.58
9 2 3 10.78 0.49
10 2 3 10.41 0.52
11 2 3 71.22 1.05
12 2 3 32.64 0.89
13 2 3 25.6 0.75
14 2 3 4.34 0.57
15 2 3 33.19 0.71
16 2 3 51.55 0.85
17 2 3 9.78 0.6
18 2 3 41.4 1.04
19 2 3 14.21 0.93
20 2 3 21.86 0.94
0 3 3 266.64 12.44
1 3 3 29.98 1.85
2 3 3 93.95 0.91
3 3 3 170.49 4.65
4 3 3 64.88 0.95
5 3 3 12.35 0.46
6 3 3 99.64 1.2
7 3 3 81.52 0.88
8 3 3 33.9 0.65
9 3 3 18.81 0.57
10 3 3 25.43 0.65
11 3 3 58.94 1.97
12 3 3 49.25 0.87
13 3 3 1.52 0.5
14 3 3 47.46 0.91
15 3 3 1.68 0.75
16 3 3 5.13 0.55
17 3 3 7.63 0.48
18 3 3 49.59 1.25
19 3 3 18.02 0.88
1 4 3 76.18 2.55
2 4 3 38.3 1.46
3 4 3 17.38 0.82
4 4 3 224.19 1.89
5 4 3 102.25 1.46
6 4 3 19.25 0.54
7 4 3 126.79 3.99
8 4 3 3.84 0.45
9 4 3 37.59 0.72
10 4 3 45.36 0.79
11 4 3 31.15 1.73
12 4 3 11.02 1.08
13 4 3 7.12 0.6
14 4 3 14.52 0.59
15 4 3 47.75 1.01
16 4 3 34.36 0.77
17 4 3 4.91 0.7
18 4 3 17.31 1.53
19 4 3 6.26 0.78
0 5 3 109.31 7.17
1 5 3 23.91 0.83
2 5 3 82.59 2.07
3 5 3 23.38 0.75
4 5 3 293.09 3.6
5 5 3 37.11 0.67
6 5 3 90.65 2.11
7 5 3 8.65 1.24
8 5 3 3.04 0.66
9 5 3 31.87 0.71
10 5 3 94.73 1.44
11 5 3 12.05 0.61
12 5 3 3.22 0.62
13 5 3 3.95 0.48
14 5 3 43.77 0.78
15 5 3 5.24 0.55
16 5 3 5.03 0.73
17 5 3 22.16 1.47
18 5 3 2.09 0.69
19 5 3 4.67 0.77
1 6 3 76.25 4.47
2 6 3 81.18 3.5
3 6 3 12.28 0.51
4 6 3 49.11 1.37
5 6 3 55.55 1.28
6 6 3 23.41 0.62
7 6 3 11.28 0.55
8 6 3 39.04 1.12
9 6 3 27.79 0.72
10 6 3 30.45 0.77
11 6 3 19.96 0.71
12 6 3 4.37 0.47
13 6 3 2.87 1.19
14 6 3 4.84 0.55
15 6 3 131.95 2.14
16 6 3 13.38 0.83
17 6 3 27.72 0.96
18 6 3 0.98 0.65
0 7 3 76.41 1.1
1 7 3 41.77 2.79
2 7 3 32.92 1.57
3 7 3 25.25 0.63
4 7 3 12.8 0.72
5 7 3 13.02 0.56
6 7 3 21.95 1.21
7 7 3 97.87 2.69
8 7 3 31.52 0.74
9 7 3 39.06 2.2
10 7 3 13.52 0.65
11 7 3 16.82 0.58
12 7 3 11.27 0.58
13 7 3 51.42 0.85
14 7 3 15.25 0.64
15 7 3 40.22 0.74
16 7 3 1.26 0.64
17 7 3 26.51 0.97
18 7 3 9.95 0.81
1 8 3 9.59 0.53
2 8 3 2.31 0.45
3 8 3 1.23 0.43
4 8 3 33.64 0.73
5 8 3 4.09 0.52
6 8 3 12.79 0.59
7 8 3 41.69 0.83
8 8 3 40.28 1.82
9 8 3 36.02 1.94
10 8 3 6.86 0.45
11 8 3 6.64 0.53
12 8 3 18.66 0.65
13 8 3 18.11 0.66
14 8 3 0.4 0.35
15 8 3 81.36 1.32
16 8 3 18.13 0.89
17 8 3 21.52 0.94
0 9 3 36.25 2.55
1 9 3 26.59 1.3
2 9 3 11.2 0.58
3 9 3 62.71 1.49
4 9 3 32.64 1.05
5 9 3 1.39 0.48
6 9 3 15.75 1.19
7 9 3 36.71 1.07
8 9 3 34.82 0.84
9 9 3 35.68 0.73
10 9 3 18.21 0.63
11 9 3 46.12 0.81
12 9 3 9.59 0.6
13 9 3 41.93 0.66
14 9 3 23.12 0.92
15 9 3 0.9 0.64
16 9 3 6.07 0.77
1 10 3 6.66 0.57
2 10 3 6.32 0.78
3 10 3 16.77 1.82
4 10 3 44.25 3.23
5 10 3 37.34 1.05
6 10 3 14.32 1.03
7 10 3 16.39 0.6
8 10 3 4.9 0.51
9 10 3 2.81 0.51
10 10 3 26.72 0.73
11 10 3 7.99 0.59
12 10 3 3.94 0.71
13 10 3 9.81 1.27
14 10 3 47.29 1.13
15 10 3 18.65 0.91
0 11 3 71.28 1.89
1 11 3 1.56 0.45
2 11 3 57.84 1.03
3 11 3 75.69 2.4
4 11 3 0.61 0.43
5 11 3 24.29 1.35
6 11 3 18.92 0.64
7 11 3 9.1 0.59
8 11 3 37.55 1.27
9 11 3 12.82 1.03
10 11 3 21.32 0.62
11 11 3 42.45 1.06
12 11 3 3.5 1.42
13 11 3 3.91 0.87
14 11 3 0.53 0.6
1 12 3 36.75 1.79
2 12 3 11.97 1.24
3 12 3 82.01 2.59
4 12 3 8.13 0.83
5 12 3 49.48 1.48
6 12 3 1.64 0.63
7 12 3 14.37 0.77
8 12 3 10.46 0.65
9 12 3 21.57 1.34
10 12 3 28.45 0.98
11 12 3 25.2 2.37
12 12 3 4.98 0.78
13 12 3 4.86 1.02
0 13 3 3.87 0.56
1 13 3 63.23 2.62
2 13 3 0.82 0.49
3 13 3 34.23 0.81
4 13 3 10.21 0.63
5 13 3 11.83 0.67
6 13 3 2.77 0.7
7 13 3 4.43 0.73
8 13 3 39.82 1.25
9 13 3 29.17 1.64
10 13 3 9.8 0.81
11 13 3 7.12 0.85
1 14 3 11.72 0.81
2 14 3 2.79 0.7
3 14 3 7.88 0.79
4 14 3 15.1 0.85
5 14 3 21.72 0.93
6 14 3 35.25 1.06
7 14 3 50.52 1.18
8 14 3 20.97 0.97
9 14 3 22.02 0.98
0 15 3 22.11 1.83
1 15 3 19.47 0.94
2 15 3 6.48 2.01
3 15 3 21.21 0.94
4 15 3 17.61 0.91
5 15 3 11.31 0.87
6 15 3 1.19 0.99
0 0 4 34.69 1.74
2 0 4 1.1 0.37
4 0 4 10.45 0.49
6 0 4 92.58 2.54
8 0 4 65.43 3.54
10 0 4 8.54 0.57
12 0 4 27.2 1.2
14 0 4 41.65 2.12
16 0 4 10.56 0.79
18 0 4 6.61 1.57
1 1 4 13.21 0.69
2 1 4 45.51 1.73
3 1 4 22.34 0.99
4 1 4 36.07 0.68
5 1 4 53.83 0.81
6 1 4 89.59 3.03
7 1 4 20.08 1.42
8 1 4 6.63 0.52
9 1 4 11.72 1.03
10 1 4 34.79 3.81
11 1 4 4.58 0.46
12 1 4 9.59 0.61
13 1 4 14.21 0.6
14 1 4 37.25 0.78
15 1 4 39.64 2.05
16 1 4 54.67 14.27
17 1 4 1.75 0.63
18 1 4 1.29 0.63
0 2 4 21.72 0.58
1 2 4 34.09 0.67
2 2 4 8.16 1.03
3 2 4 31.42 2.61
4 2 4 14.96 0.53
5 2 4 6.86 0.48
6 2 4 13.6 1.31
7 2 4 41.17 1.92
8 2 4 50.67 0.88
9 2 4 15.33 0.64
10 2 4 7.26 0.57
11 2 4 4.79 0.42
12 2 4 10.44 0.72
13 2 4 10.3 0.58
14 2 4 41.11 0.81
15 2 4 9.72 2.14
16 2 4 1.66 0.94
17 2 4 30.5 8.05
18 2 4 2.9 0.71
1 3 4 13.17 0.53
2 3 4 18.6 0.58
3 3 4 37.03 0.71
4 3 4 153.59 4.41
5 3 4 51.77 1.65
6 3 4 25.7 0.67
7 3 4 10.95 0.57
8 3 4 101.2 5.39
9 3 4 20.1 0.98
10 3 4 25.42 0.76
11 3 4 17.45 0.6
12 3 4 44.05 0.78
13 3 4 5.01 0.54
14 3 4 0.71 0.46
15 3 4 17.16 2.3
16 3 4 10.71 3.67
17 3 4 7.94 3.03
0 4 4 0.15 0.3
1 4 4 32.34 3.63
2 4 4 40.27 2.75
3 4 4 138.53 5.93
4 4 4 46.06 0.79
5 4 4 68.38 1.46
6 4 4 27.25 1.49
7 4 4 0.65 0.42
8 4 4 4.48 0.75
9 4 4 12.31 0.62
10 4 4 2.74 0.4
11 4 4 11.63 0.57
12 4 4 5.12 0.53
13 4 4 15.62 0.84
14 4 4 12.17 0.65
15 4 4 9.21 0.8
16 4 4 7.18 1.29
17 4 4 1.76 0.89
1 5 4 2.33 0.46
2 5 4 73.14 3.4
3 5 4 20.65 0.65
4 5 4 71.25 0.96
5 5 4 9.62 0.57
6 5 4 65.09 3.58
7 5 4 57.99 0.93
8 5 4 2.55 0.54
9 5 4 1.07 0.42
10 5 4 16.31 0.61
11 5 4 2.55 0.5
12 5 4 1.95 0.49
13 5 4 1.14 0.48
14 5 4 28.02 5.7
15 5 4 16.3 3.93
16 5 4 29.93 11.46
17 5 4 0.55 0.57
0 6 4 19.22 2.72
1 6 4 25.59 1.7
2 6 4 47.42 1.87
3 6 4 1.13 0.48
4 6 4 60.16 2.67
5 6 4 85.45 2.46
6 6 4 6.72 0.56
7 6 4 43.9 1.97
8 6 4 14.65 0.53
9 6 4 43.27 1.37
10 6 4 1.31 0.46
11 6 4 6.73 0.56
12 6 4 6.45 1.04
13 6 4 36.01 3.32
14 6 4 4.82 0.81
15 6 4 8.63 2.66
16 6 4 6.46 2.03
1 7 4 8.36 0.57
2 7 4 5.6 0.54
3 7 4 11.16 0.61
4 7 4 5.57 0.81
5 7 4 9.45 0.63
6 7 4 7.41 0.6
7 7 4 29.38 0.67
8 7 4 3.24 0.49
9 7 4 23.24 0.72
10 7 4 3.73 0.76
11 7 4 0.58 0.44
12 7 4 16.36 1.08
13 7 4 0.49 0.54
14 7 4 1.1 0.68
15 7 4 53.57 17.79
0 8 4 0.74 0.47
1 8 4 14.02 1.68
2 8 4 4.65 0.56
3 8 4 8.65 0.6
4 8 4 0.76 0.35
5 8 4 5.58 1.16
6 8 4 41.55 1.35
7 8 4 47.73 1.42
8 8 4 8.25 0.56
9 8 4 36.93 0.78
10 8 4 27.27 0.85
11 8 4 9.85 0.67
12 8 4 9.05 1.2
13 8 4 33.28 5.22
14 8 4 4.75 1.86
15 8 4 9.08 1.1
1 9 4 4.04 0.86
2 9 4 5.65 0.93
3 9 4 2.13 0.63
4 9 4 9.33 0.87
5 9 4 19.95 0.65
6 9 4 1.14 0.48
7 9 4 25.23 0.89
8 9 4 3.66 0.54
9 9 4 7.48 1.21
10 9 4 6.51 0.71
11 9 4 1.21 0.63
12 9 4 5.05 1.33
13 9 4 9.87 4.1
14 9 4 9.54 1.7
0 10 4 3.98 0.53
1 10 4 38.5 2.37
2 10 4 32.36 1.07
3 10 4 22.06 1.73
4 10 4 26.26 0.97
5 10 4 30.76 0.75
6 10 4 3.29 0.92
7 10 4 6.06 0.57
8 10 4 21.28 0.9
9 10 4 25.35 0.93
10 10 4 1.76 0.67
11 10 4 8.21 1.22
12 10 4 1.76 0.67
1 11 4 8.08 0.59
2 11 4 23.16 0.72
3 11 4 6.24 0.57
4 11 4 7.49 0.6
5 11 4 47.8 0.9
6 11 4 1.78 0.66
7 11 4 1.19 0.74
8 11 4 1.79 0.69
9 11 4 15.15 0.86
10 11 4 13.37 0.88
11 11 4 4.25 1.29
0 12 4 49.89 1.12
1 12 4 10.59 0.8
2 12 4 18.41 0.88
3 12 4 61.36 1.44
4 12 4 6.83 0.75
5 12 4 11.12 0.83
6 12 4 7.82 0.79
7 12 4 0.26 0.49
8 12 4 5.63 0.77
9 12 4 37.8 9.03
1 13 4 3.5 1.73
2 13 4 34.88 3.99
3 13 4 5.31 0.9
4 13 4 3.03 1.26
5 13 4 21.52 0.97
6 13 4 29.45 1.02
0 14 4 15.63 2.13
1 14 4 2.5 1.63
2 0 5 20.57 1.07
4 0 5 45.13 0.89
6 0 5 53.55 2.58
8 0 5 10.65 0.7
10 0 5 10.94 1.54
12 0 5 33.5 14.45
14 0 5 19.24 9.31
0 1 5 31.44 1.66
1 1 5 7.59 0.57
2 1 5 16.66 0.65
3 1 5 10.28 0.95
4 1 5 17.72 0.62
5 1 5 28.73 1.11
6 1 5 8.98 0.53
7 1 5 1.48 0.44
8 1 5 22.61 0.66
9 1 5 20.39 0.88
10 1 5 1.66 0.64
11 1 5 8.82 0.76
12 1 5 8.53 0.75
13 1 5 0.95 0.52
14 1 5 39.49 22.03
15 1 5 1.73 0.96
1 2 5 28.33 1.65
2 2 5 3.55 0.95
3 2 5 31.9 2.84
4 2 5 8.73 0.43
5 2 5 2.01 0.71
6 2 5 22.31 0.62
7 2 5 15.7 0.59
8 2 5 7.57 0.54
9 2 5 12.99 0.6
10 2 5 1.36 0.48
11 2 5 14.73 0.81
12 2 5 9.99 0.78
13 2 5 27.86 0.97
14 2 5 9.96 1.1
0 3 5 29.62 2.83
1 3 5 2.44 0.52
2 3 5 24.92 0.49
3 3 5 41.82 1.02
4 3 5 45.47 0.76
5 3 5 26.02 0.65
6 3 5 23.54 0.66
7 3 5 19.42 0.63
8 3 5 17.97 0.64
9 3 5 2.17 0.5
10 3 5 11.08 0.75
11 3 5 3.78 0.99
12 3 5 0.99 0.82
13 3 5 6.96 0.76
14 3 5 2.32 0.97
1 4 5 5.33 0.51
2 4 5 27.12 0.66
3 4 5 23.1 0.64
4 4 5 2.31 0.46
5 4 5 7.72 0.79
6 4 5 13.61 0.94
7 4 5 25.5 0.74
8 4 5 10.46 0.59
9 4 5 4.12 0.56
10 4 5 2.46 0.94
11 4 5 13.84 1.2
12 4 5 3.79 1.03
13 4 5 2.13 0.94
0 5 5 4.14 0.48
1 5 5 2.3 0.46
2 5 5 31.6 1.23
3 5 5 0.46 0.4
4 5 5 24.9 0.67
5 5 5 8.19 0.56
6 5 5 80.1 0.98
7 5 5 2.4 0.51
8 5 5 8.71 0.6
9 5 5 8.51 0.77
10 5 5 4.38 1.03
11 5 5 1.89 0.92
12 5 5 7.09 1.09
13 5 5 16.84 1.11
1 6 5 0.69 0.43
2 6 5 15.16 1.21
3 6 5 0.64 0.43
4 6 5 22.36 1.36
5 6 5 37.64 1.1
6 6 5 3.18 0.51
7 6 5 18.81 0.73
8 6 5 8.43 0.79
9 6 5 14 1.2
10 6 5 7.56 1.09
11 6 5 0.27 0.85
12 6 5 2.82 0.93
0 7 5 15.63 0.95
1 7 5 4.67 1.15
2 7 5 1.04 0.47
3 7 5 12.15 0.62
4 7 5 12.15 0.63
5 7 5 39.98 1.88
6 7 5 3.71 0.47
7 7 5 2.8 0.9
8 7 5 12.57 1.21
9 7 5 6.68 1.16
10 7 5 0.51 0.59
11 7 5 0.68 0.56
12 7 5 0.15 0.46
1 8 5 9.83 0.6
2 8 5 3.13 0.53
3 8 5 2.85 0.46
4 8 5 3.17 0.68
5 8 5 6.09 0.99
6 8 5 0.5 0.7
7 8 5 9.67 1.04
8 8 5 2.82 0.8
0 9 5 3.25 0.99
1 9 5 19.55 1.26
2 9 5 8.75 1.09
3 9 5 29.64 1.38
4 9 5 14.75 1.2
5 9 5 1.46 0.9
6 9 5 7.52 1.07
7 9 5 6.64 1.05
8 9 5 0.23 0.71
9 9 5 1.19 0.69
1 10 5 1.43 0.93
2 10 5 2.01 0.91
3 10 5 4.04 0.99
4 10 5 4.62 0.98
5 10 5 4.85 0.94
6 10 5 3.16 0.85
7 10 5 0.6 0.64
0 11 5 33.5 1.5
1 11 5 10.37 1.25
2 11 5 6.17 1.16
3 11 5 7.62 1.12
4 11 5 0.27 0.83
0 0 6 36.97 1.39
2 0 6 15.12 1.03
4 0 6 1.83 0.69
6 0 6 6.04 1
8 0 6 1.94 0.79
1 1 6 11.69 1.09
2 1 6 8.19 0.97
3 1 6 1.84 0.71
4 1 6 1.62 0.82
5 1 6 7.04 1.03
6 1 6 24.2 1.31
7 1 6 0.23 0.69
8 1 6 6.17 0.84
0 2 6 2.4 0.85
1 2 6 7.9 0.91
2 2 6 0.53 0.62
3 2 6 0.19 0.58
4 2 6 25.27 1.3
5 2 6 1.12 0.77
6 2 6 2.44 0.89
1 3 6 3.16 0.87
2 3 6 7.4 0.86
3 3 6 7.68 1.02
4 3 6 15.61 1.19
5 3 6 4.61 0.99
6 3 6 10.66 1.03
0 4 6 9.57 1.03
1 4 6 0.64 0.66
2 4 6 0.19 0.57
4 4 6 2.03 0.89
5 4 6 18.31 1.22
1 7 6 0.49 0.66
2 7 6 0.2 0.59
