#------------------------------------------------------------------------------
#$Date: 2020-04-10 08:27:20 +0300 (Fri, 10 Apr 2020) $
#$Revision: 250639 $
#$URL: file:///home/coder/svn-repositories/cod/cif/2/02/20/2022060.cif $
#------------------------------------------------------------------------------
#
# This file is available in the Crystallography Open Database (COD),
# http://www.crystallography.net/. The original data for this entry
# were provided by IUCr Journals, http://journals.iucr.org/.
#
# The file may be used within the scientific community so long as
# proper attribution is given to the journal article from which the
# data were obtained.
#
data_2022060
loop_
_publ_author_name
'Jha, Kunal Kumar'
'Gruza, Barbara'
'Kumar, Prashant'
'Chodkiewicz, Michal Leszek'
'Dominiak, Paulina Maria'
_publ_section_title
;
 TAAM: a reliable and user friendly tool for hydrogen-atom location using
 routine X-ray diffraction data
;
_journal_issue                   3
_journal_name_full
'Acta Crystallographica Section B Structural Science, Crystal Engineering and Materials'
_journal_paper_doi               10.1107/S2052520620002917
_journal_volume                  76
_journal_year                    2020
_chemical_formula_moiety         'C H O2, H2 O'
_chemical_formula_sum            'C H3 O3'
_chemical_formula_weight         63.03
_space_group_crystal_system      monoclinic
_space_group_IT_number           14
_space_group_name_Hall           '-P 2ybc'
_space_group_name_H-M_alt        'P 1 21/c 1'
_symmetry_Int_Tables_number      14
_audit_creation_date             2019-09-27
_audit_creation_method
;
Olex2 1.2
(compiled 2018.05.29 svn.r3508 for OlexSys, GUI svn.r5506)
;
_cell_angle_alpha                90.00
_cell_angle_beta                 103.922(2)
_cell_angle_gamma                90.00
_cell_formula_units_Z            4
_cell_length_a                   6.0988(1)
_cell_length_b                   3.4970(2)
_cell_length_c                   11.8494(2)
_cell_measurement_temperature    100(1)
_cell_volume                     245.294(15)
_computing_molecular_graphics    'Olex2 (Dolomanov et al., 2009)'
_computing_publication_material  'Olex2 (Dolomanov et al., 2009)'
_computing_structure_refinement  'olex2.refine (Bourhis et al., 2015)'
_diffrn_ambient_temperature      100(1)
_diffrn_measured_fraction_theta_full 0.9572
_diffrn_measured_fraction_theta_max 0.9572
_diffrn_measurement_device_type  'APEX II CCD detector'
_diffrn_radiation_type           'Mo K\a'
_diffrn_radiation_wavelength     0.71073
_diffrn_reflns_av_R_equivalents  0.0000
_diffrn_reflns_av_unetI/netI     0.0248
_diffrn_reflns_limit_h_max       13
_diffrn_reflns_limit_h_min       -13
_diffrn_reflns_limit_k_max       7
_diffrn_reflns_limit_k_min       0
_diffrn_reflns_limit_l_max       26
_diffrn_reflns_limit_l_min       0
_diffrn_reflns_number            2394
_diffrn_reflns_theta_full        26.4628
_diffrn_reflns_theta_max         26.46
_diffrn_reflns_theta_min         3.44
_exptl_absorpt_coefficient_mu    0.181
_exptl_crystal_density_diffrn    1.7067
_exptl_crystal_F_000             132.1419
_refine_diff_density_max         0.0960
_refine_diff_density_min         -0.1512
_refine_diff_density_rms         0.0407
_refine_ls_d_res_high            0.7975
_refine_ls_d_res_low             5.9196
_refine_ls_goodness_of_fit_ref   1.1503
_refine_ls_hydrogen_treatment    refall
_refine_ls_matrix_type           full
_refine_ls_number_constraints    0
_refine_ls_number_parameters     64
_refine_ls_number_reflns         492
_refine_ls_number_restraints     0
_refine_ls_restrained_S_all      1.1503
_refine_ls_R_factor_all          0.0139
_refine_ls_R_factor_gt           0.0139
_refine_ls_shift/su_max          0.0000
_refine_ls_shift/su_mean         0.0000
_refine_ls_structure_factor_coef Fsqd
_refine_ls_weighting_details
'w=1/[\s^2^(Fo^2^)+(0.0146P)^2^+0.0075P] where P=(Fo^2^+2Fc^2^)/3'
_refine_ls_weighting_scheme      calc
_refine_ls_wR_factor_gt          0.0370
_refine_ls_wR_factor_ref         0.0370
_reflns_Friedel_coverage         0.0
_reflns_limit_h_max              7
_reflns_limit_h_min              -7
_reflns_limit_k_max              4
_reflns_limit_k_min              0
_reflns_limit_l_max              14
_reflns_limit_l_min              0
_reflns_number_gt                492
_reflns_number_total             492
_reflns_threshold_expression     I>=2u(I)
_iucr_refine_instructions_details
;
TITL oxa13
CELL 0.71073 6.0988 3.497 11.8494 90 103.922 90
ZERR 4 0 0 0 0 0 0
LATT 1
SYMM -X,0.5+Y,0.5-Z
SFAC C H O
UNIT 4 12 12

FREE O3 H1
ACTA 
BOND $H
OMIT -10 53
WGHT 0.014616 0.007538
FVAR 1.007571
REM <olex2.extras>
REM <HklSrc "%.\\3828c9b2aac7acf36e9087bf3be638f1.hkl">
REM </olex2.extras>

O1    3     0.43461  0.44432  0.34990  11.00000  0.01304  0.01784  0.00921 =
 -0.00087  0.00278  0.00403 
O2    3     0.24271  0.74219  0.46369  11.00000  0.01112  0.01792  0.00890 =
 -0.00069  0.00094  0.00508 
C1    1     0.40304  0.55872  0.44791  11.00000  0.00892  0.01137  0.00852 =
 0.00042  0.00068  0.00155 
O3    3     0.12993  0.63072  0.17820  11.00000  0.01063  0.01748  0.00937 =
 0.00128  0.00029 -0.00081 
H3a   2     0.01151  0.46018  0.14905  11.00000  0.03422  0.02388  0.02684 =
 0.00034  0.00922 -0.01373 
H3b   2     0.18848  0.69196  0.11306  11.00000  0.02408  0.03240  0.01967 =
 0.00662  0.01094 -0.00448 
H1    2     0.29968  0.52477  0.28012  11.00000  0.03267  0.02578  0.05286 =
 -0.00797  0.02480 -0.00658 
HKLF 4

END
Q1 1 0.5 1 0.5 11 0.05 0.1
Q2 1 0.35 1.083333 0.15 11 0.05 0.09
Q3 1 0.05 0.916667 0.05 11 0.05 0.09
Q4 1 -0.15 0.5 0.175 11 0.05 0.08
Q5 1 0.5 0.25 0.425 11 0.05 0.07
Q6 1 0.15 0.333333 0.35 11 0.05 0.06
Q7 1 0.2 0.666667 0.275 11 0.05 0.06
Q8 1 0.5 0.5 0.5 11 0.05 0

  REM The information below was added by Olex2.
  REM
  REM R1 = 0.0139 for 492 Fo > 4sig(Fo) and 0.0139 for all 492 data
  REM 64 parameters refined using 0 restraints
  REM Highest difference peak 0.0960, deepest hole -0.1512
  REM Mean Shift 0.0000, Max Shift 0.0000.

  REM +++ Tabular Listing of Refinement Information +++
  REM R1_all = 0.0139
  REM R1_gt = 0.0139
  REM wR_ref = 0.0370
  REM GOOF = 1.1503
  REM Shift_max = 0.0000
  REM Shift_mean = 0.0000
  REM Reflections_all = 492
  REM Reflections_gt = 492
  REM Parameters = 64
  REM Hole = -0.1512
  REM Peak = 0.0960
  REM Flack = n/a

  
;
_cod_data_source_file            66_TAAM_ANIS_0.8.cif
_cod_data_source_block           66_TAAM_ANIS_0.8
_cod_original_cell_volume        245.294(6)
_cod_database_code               2022060
_olex2_refinement_description
;
;
_iucr_refine_fcf_details
;
data_oxa13
_computing_structure_refinement   'olex2.refine (Bourhis et al., 2015)'
_shelx_refln_list_code            4
loop_
  _space_group_symop_id
  _space_group_symop_operation_xyz
  1  x,y,z
  2  -x,y+1/2,-z+1/2
  3  -x,-y,-z
  4  x,-y-1/2,z-1/2

_space_group_crystal_system       monoclinic
_space_group_IT_number            14
_space_group_name_H-M_alt         'P 1 21/c 1'
_space_group_name_Hall            '-P 2ybc'
_symmetry_space_group_name_H-M    'P 1 21/c 1'
_symmetry_space_group_name_Hall   '-P 2ybc'
_symmetry_Int_Tables_number       14
_cell_length_a                    6.0988
_cell_length_b                    3.497
_cell_length_c                    11.8494
_cell_angle_alpha                 90
_cell_angle_beta                  103.922
_cell_angle_gamma                 90
_cell_volume                      245.294316
loop_
  _refln_index_h
  _refln_index_k
  _refln_index_l
  _refln_F_squared_calc
  _refln_F_squared_meas
  _refln_F_squared_sigma
  _refln_F_squared_weight
  _refln_observed_status
-7 0 2 14.100 14.243 0.355 29.267 o
-7 0 4 41.222 40.120 0.906 5.420 o
-7 0 6 253.879 259.141 5.595 0.171 o
-7 0 8 0.339 0.345 0.079 914.854 o
-7 1 1 18.554 17.839 0.414 21.143 o
-7 1 2 86.785 86.830 1.931 1.344 o
-7 1 3 3.622 3.743 0.099 200.456 o
-7 1 4 0.318 0.394 0.039 1933.550 o
-7 1 5 2.173 2.206 0.069 362.159 o
-7 1 6 18.424 18.854 0.433 20.060 o
-7 1 7 52.430 50.837 1.133 3.579 o
-6 0 2 180.267 179.374 3.861 0.347 o
-6 0 4 3.087 2.522 0.197 128.938 o
-6 0 6 162.119 166.086 3.517 0.417 o
-6 0 8 0.922 0.965 0.217 148.557 o
-6 0 10 289.535 290.465 6.265 0.136 o
-6 1 1 1.156 1.507 0.128 305.708 o
-6 1 2 6.617 6.688 0.345 45.155 o
-6 1 3 1.019 0.955 0.197 173.013 o
-6 1 4 32.671 31.757 0.818 7.088 o
-6 1 5 95.218 96.493 2.177 1.086 o
-6 1 6 151.563 151.547 3.300 0.475 o
-6 1 7 2.704 2.679 0.148 184.263 o
-6 1 8 3.020 3.320 0.138 180.498 o
-6 1 9 43.722 44.238 0.995 4.649 o
-6 1 10 49.289 50.601 1.123 3.721 o
-6 1 11 3.789 4.108 0.118 172.894 o
-6 2 1 70.662 71.454 1.576 1.967 o
-6 2 2 38.729 39.332 0.877 5.811 o
-6 2 3 60.108 60.697 1.340 2.661 o
-6 2 4 5.596 5.339 0.148 115.288 o
-6 2 5 4.583 4.413 0.118 153.485 o
-6 2 6 1.144 1.084 0.069 596.716 o
-6 2 7 0.259 0.167 0.049 1936.690 o
-6 2 8 12.843 13.278 0.315 34.518 o
-5 0 2 89.036 90.081 2.019 1.247 o
-5 0 4 17.892 17.987 0.650 12.856 o
-5 0 6 116.161 115.967 2.561 0.781 o
-5 0 8 279.591 285.777 7.476 0.107 o
-5 0 10 98.188 101.852 2.344 0.964 o
-5 0 12 43.079 44.277 1.015 4.573 o
-5 1 1 56.602 56.836 1.349 2.744 o
-5 1 2 250.054 253.635 5.487 0.177 o
-5 1 3 49.157 50.099 1.192 3.477 o
-5 1 4 92.322 92.987 2.088 1.169 o
-5 1 5 30.064 30.506 0.739 8.315 o
-5 1 6 3.915 3.812 0.217 101.384 o
-5 1 7 1.133 1.251 0.128 315.442 o
-5 1 8 16.647 16.736 0.630 13.824 o
-5 1 9 264.070 270.952 5.841 0.157 o
-5 1 10 25.941 25.532 0.640 10.785 o
-5 1 11 0.136 0.158 0.049 2294.010 o
-5 1 12 25.135 24.675 0.552 12.866 o
-5 2 1 9.515 8.983 0.325 41.366 o
-5 2 2 0.539 0.552 0.128 391.817 o
-5 2 3 4.534 4.167 0.296 64.560 o
-5 2 4 29.361 28.497 0.749 8.387 o
-5 2 5 174.664 179.906 3.989 0.337 o
-5 2 6 79.904 80.575 1.832 1.510 o
-5 2 7 21.410 20.942 0.601 13.036 o
-5 2 8 1.785 1.891 0.099 333.680 o
-5 2 9 0.217 0.266 0.049 1918.970 o
-5 2 11 41.186 40.091 0.906 5.423 o
-5 3 1 19.528 19.996 0.453 18.451 o
-5 3 3 5.994 5.989 0.158 103.665 o
-5 3 4 11.690 11.377 0.276 41.925 o
-5 3 5 3.763 3.615 0.108 188.690 o
-5 3 6 4.716 4.649 0.138 136.244 o
-5 3 7 15.799 15.957 0.374 25.706 o
-4 0 2 960.450 927.641 21.287 0.012 o
-4 0 4 120.211 122.774 2.669 0.721 o
-4 0 6 45.916 45.873 1.113 3.957 o
-4 0 8 569.838 572.449 12.382 0.035 o
-4 0 10 1.315 1.527 0.296 82.025 o
-4 0 12 249.032 242.957 5.043 0.200 o
-4 0 14 1.700 1.645 0.079 413.206 o
-4 1 1 91.208 91.342 2.177 1.118 o
-4 1 2 56.536 56.708 1.369 2.697 o
-4 1 3 1.747 1.606 0.099 348.110 o
-4 1 4 32.385 34.062 0.788 7.313 o
-4 1 6 177.684 179.315 3.911 0.344 o
-4 1 7 86.090 88.121 1.970 1.311 o
-4 1 8 174.645 174.902 3.832 0.358 o
-4 1 9 44.778 45.774 1.221 3.553 o
-4 1 11 1.692 1.428 0.167 197.942 o
-4 1 12 80.131 82.023 1.803 1.533 o
-4 1 13 15.613 15.475 0.355 27.311 o
-4 2 1 52.690 53.359 1.271 3.084 o
-4 2 2 13.468 12.992 0.364 29.715 o
-4 2 3 78.731 79.285 1.852 1.504 o
-4 2 4 60.594 62.008 1.418 2.464 o
-4 2 5 5.693 5.979 0.217 82.380 o
-4 2 6 5.712 5.684 0.207 86.849 o
-4 2 7 6.602 6.925 0.276 59.099 o
-4 2 8 81.161 84.102 2.118 1.230 o
-4 2 9 13.765 13.850 0.473 21.873 o
-4 2 10 30.657 31.324 0.729 8.321 o
-4 2 11 7.599 7.713 0.187 76.658 o
-4 2 12 0.610 0.749 0.039 1222.060 o
-4 3 1 4.965 4.748 0.286 65.156 o
-4 3 2 13.832 12.914 0.463 22.660 o
-4 3 3 22.239 21.710 0.650 11.621 o
-4 3 4 241.939 242.721 5.457 0.182 o
-4 3 5 28.027 28.773 0.709 9.080 o
-4 3 6 8.415 7.949 0.246 58.577 o
-4 3 7 5.048 5.201 0.148 122.342 o
-4 3 8 0.233 0.236 0.039 2419.430 o
-4 3 9 37.323 36.525 0.818 6.488 o
-3 0 2 14.691 14.529 0.424 24.002 o
-3 0 4 88.902 88.249 2.078 1.208 o
-3 0 6 12.112 11.899 0.335 34.429 o
-3 0 8 22.227 22.301 0.591 12.930 o
-3 0 10 3.744 3.379 0.305 65.286 o
-3 0 12 145.524 143.391 3.211 0.507 o
-3 0 14 19.244 16.942 0.424 20.564 o
-3 1 1 323.879 318.854 6.925 0.111 o
-3 1 2 32.879 33.619 0.778 7.390 o
-3 1 3 158.567 160.767 3.556 0.418 o
-3 1 4 226.949 230.083 5.024 0.212 o
-3 1 5 207.768 212.067 4.728 0.242 o
-3 1 6 0.318 0.561 0.079 870.202 o
-3 1 7 340.779 346.100 7.496 0.096 o
-3 1 8 9.368 8.491 0.276 49.687 o
-3 1 9 63.138 60.579 1.438 2.392 o
-3 1 10 3.277 3.664 0.325 60.178 o
-3 1 11 163.146 161.889 3.546 0.414 o
-3 1 12 55.218 54.443 1.330 2.848 o
-3 1 13 0.663 0.788 0.049 1027.020 o
-3 1 14 0.361 0.207 0.039 2061.490 o
-3 2 1 82.419 84.161 1.872 1.438 o
-3 2 2 176.491 179.433 3.960 0.339 o
-3 2 3 294.816 297.577 6.442 0.129 o
-3 2 4 27.495 27.216 0.660 10.034 o
-3 2 5 2.701 2.620 0.148 185.060 o
-3 2 6 137.827 140.347 3.083 0.549 o
-3 2 7 165.999 169.149 3.802 0.371 o
-3 2 8 285.446 288.377 6.147 0.140 o
-3 2 9 51.211 51.694 1.369 2.850 o
-3 2 10 10.719 10.993 0.414 29.009 o
-3 2 11 21.735 23.414 0.561 13.661 o
-3 2 12 2.218 2.069 0.079 341.860 o
-3 3 1 3.736 3.467 0.197 116.480 o
-3 3 2 253.354 253.399 5.496 0.176 o
-3 3 3 3.479 3.241 0.197 120.362 o
-3 3 4 45.762 45.380 1.133 3.886 o
-3 3 5 21.471 21.611 0.630 12.228 o
-3 3 7 4.142 4.039 0.148 142.794 o
-3 3 8 17.689 18.312 0.424 21.041 o
-3 3 9 4.606 4.718 0.128 143.792 o
-3 3 10 19.911 20.045 0.463 17.902 o
-3 4 1 21.192 21.030 0.483 16.510 o
-3 4 2 11.124 10.717 0.256 46.225 o
-3 4 3 60.231 58.806 1.310 2.749 o
-2 0 2 644.173 588.505 12.116 0.034 o
-2 0 4 2039.160 1840.760 41.864 0.003 o
-2 0 6 168.918 167.228 3.586 0.399 o
-2 0 8 459.570 453.468 9.860 0.055 o
-2 0 10 191.494 185.412 4.019 0.319 o
-2 0 12 15.222 16.411 0.837 9.247 o
-2 0 14 58.307 57.309 1.231 3.015 o
-2 1 1 181.909 186.624 4.088 0.318 o
-2 1 2 551.816 555.793 12.185 0.037 o
-2 1 3 20.989 20.449 0.493 16.370 o
-2 1 4 356.409 356.610 7.732 0.090 o
-2 1 5 20.785 20.883 0.512 15.733 o
-2 1 6 5.940 5.684 0.167 101.304 o
-2 1 7 34.947 33.412 0.818 6.817 o
-2 1 8 285.600 288.062 6.304 0.136 o
-2 1 9 22.879 22.311 0.601 12.543 o
-2 1 10 32.391 32.861 0.837 6.867 o
-2 1 11 82.738 82.358 1.950 1.369 o
-2 1 12 8.991 8.944 0.433 29.529 o
-2 1 13 33.184 32.486 0.739 7.848 o
-2 1 14 18.826 18.400 0.424 20.396 o
-2 2 1 150.039 152.758 3.329 0.471 o
-2 2 2 478.151 487.717 10.599 0.049 o
-2 2 3 9.108 10.047 0.296 45.419 o
-2 2 4 22.978 22.587 0.660 11.196 o
-2 2 5 3.361 3.507 0.148 161.018 o
-2 2 6 70.004 73.001 1.645 1.865 o
-2 2 7 34.634 34.141 0.877 6.281 o
-2 2 8 29.724 28.871 0.887 6.750 o
-2 2 9 17.007 16.480 0.650 13.201 o
-2 2 10 89.704 89.549 2.078 1.200 o
-2 2 11 14.536 13.741 0.404 25.631 o
-2 2 12 110.884 110.412 2.413 0.868 o
-2 2 13 29.570 30.427 0.699 8.902 o
-2 3 1 142.005 144.858 3.290 0.495 o
-2 3 2 66.876 68.134 1.596 2.003 o
-2 3 3 1.592 1.241 0.138 263.141 o
-2 3 4 9.126 9.161 0.345 39.172 o
-2 3 5 6.409 6.206 0.286 58.359 o
-2 3 6 364.980 367.465 7.821 0.087 o
-2 3 7 80.480 80.546 1.911 1.427 o
-2 3 8 26.307 25.621 0.591 11.652 o
-2 3 9 8.228 8.008 0.197 70.339 o
-2 3 10 21.395 22.271 0.502 15.597 o
-2 4 1 16.902 16.854 0.384 23.983 o
-2 4 2 61.238 61.141 1.359 2.590 o
-2 4 3 32.707 32.398 0.729 8.019 o
-2 4 4 0.397 0.424 0.049 1458.910 o
-2 4 5 34.725 34.033 0.758 7.392 o
-1 0 2 769.151 734.634 16.026 0.021 o
-1 0 4 879.290 823.957 17.553 0.017 o
-1 0 6 207.934 195.568 4.354 0.274 o
-1 0 8 499.807 491.726 11.397 0.043 o
-1 0 10 3.265 2.827 0.453 34.877 o
-1 0 12 111.515 113.741 2.807 0.705 o
-1 0 14 48.477 49.232 1.133 3.732 o
-1 1 1 2940.720 2664.680 59.456 0.002 o
-1 1 2 141.578 155.467 3.389 0.470 o
-1 1 3 334.645 342.938 7.476 0.097 o
-1 1 4 241.056 251.419 5.546 0.177 o
-1 1 5 1.236 0.995 0.079 529.508 o
-1 1 6 0.461 0.552 0.079 808.137 o
-1 1 7 420.976 418.174 9.082 0.065 o
-1 1 8 93.423 93.686 2.128 1.134 o
-1 1 9 169.969 172.222 3.792 0.368 o
-1 1 11 75.257 72.675 1.734 1.696 o
-1 1 12 85.196 87.559 2.049 1.253 o
-1 1 13 5.885 5.772 0.197 89.286 o
-1 1 14 46.861 45.636 1.015 4.375 o
-1 2 1 143.777 141.903 3.191 0.515 o
-1 2 2 8.234 8.274 0.227 62.901 o
-1 2 3 172.493 174.370 3.930 0.348 o
-1 2 4 227.393 229.334 5.122 0.206 o
-1 2 5 486.675 492.977 10.559 0.048 o
-1 2 6 17.884 18.420 0.502 17.574 o
-1 2 7 1.263 1.241 0.118 338.743 o
-1 2 8 46.924 45.183 1.113 3.934 o
-1 2 9 8.052 7.398 0.286 52.372 o
-1 2 10 185.840 188.308 4.167 0.307 o
-1 2 11 72.001 73.808 1.665 1.812 o
-1 2 12 34.124 34.111 0.778 7.245 o
-1 2 13 12.751 12.274 0.305 36.269 o
-1 3 2 31.886 33.471 0.827 6.982 o
-1 3 3 13.215 13.446 0.404 26.751 o
-1 3 4 55.769 56.107 1.517 2.376 o
-1 3 5 0.834 0.660 0.128 359.917 o
-1 3 6 106.275 106.817 2.699 0.766 o
-1 3 7 1.724 1.566 0.187 167.001 o
-1 3 8 6.725 7.013 0.315 50.107 o
-1 3 9 0.995 0.995 0.069 646.062 o
-1 3 10 32.382 31.935 0.729 8.083 o
-1 4 1 5.984 5.999 0.158 103.714 o
-1 4 2 9.928 9.545 0.227 55.264 o
-1 4 4 0.481 0.355 0.039 1642.660 o
-1 4 5 61.644 61.387 1.369 2.558 o
-1 4 6 81.817 82.112 1.803 1.519 o
0 0 2 139.266 147.528 3.339 0.487 o
0 0 4 64.178 70.902 1.615 1.987 o
0 0 6 1019.840 983.364 21.050 0.012 o
0 0 8 284.409 288.397 6.284 0.136 o
0 0 10 395.668 401.448 8.294 0.076 o
0 0 12 13.760 12.825 0.621 15.336 o
0 0 14 52.757 52.867 1.202 3.304 o
0 1 1 455.358 463.643 10.353 0.052 o
0 1 2 91.604 91.657 2.000 1.242 o
0 1 3 20.088 18.194 0.433 19.387 o
0 1 4 1535.860 1443.370 31.738 0.005 o
0 1 5 63.931 69.701 1.615 1.997 o
0 1 6 304.634 306.324 6.688 0.120 o
0 1 7 37.158 35.175 0.847 6.305 o
0 1 8 27.416 27.078 0.680 9.737 o
0 1 9 37.595 37.037 0.906 5.743 o
0 1 10 145.336 147.272 3.280 0.491 o
0 1 11 203.155 211.033 4.600 0.254 o
0 1 13 25.331 26.212 0.621 11.207 o
0 1 14 8.604 8.905 0.246 56.537 o
0 2 0 13.707 13.938 0.374 28.296 o
0 2 1 75.441 76.182 1.704 1.714 o
0 2 2 128.369 131.738 2.886 0.625 o
0 2 4 184.113 186.417 4.255 0.300 o
0 2 5 48.271 49.163 1.133 3.740 o
0 2 6 5.211 5.713 0.227 82.133 o
0 2 7 136.789 138.111 3.073 0.555 o
0 2 9 56.156 54.344 1.448 2.537 o
0 2 10 27.137 25.788 0.739 8.957 o
0 2 11 1.204 1.330 0.079 505.448 o
0 2 12 17.008 16.529 0.394 23.486 o
0 3 1 49.700 51.084 1.202 3.413 o
0 3 2 114.024 114.884 2.532 0.800 o
0 3 3 84.686 86.348 2.108 1.213 o
0 3 4 55.902 55.664 1.517 2.377 o
0 3 5 15.279 15.554 0.571 16.343 o
0 3 8 99.407 98.995 2.226 1.031 o
0 3 9 41.948 41.283 0.975 4.918 o
0 3 10 1.344 1.133 0.069 547.812 o
0 4 0 2.905 2.866 0.148 177.298 o
0 4 1 11.997 12.067 0.296 38.569 o
0 4 2 57.288 58.107 1.300 2.843 o
0 4 3 3.742 4.058 0.108 183.425 o
0 4 4 12.196 12.126 0.296 38.214 o
0 4 5 76.422 75.788 1.665 1.756 o
1 0 0 372.822 370.243 11.564 0.048 o
1 0 2 11.561 10.688 0.315 38.086 o
1 0 4 1789.280 1723.590 40.938 0.003 o
1 0 6 211.237 216.785 4.758 0.237 o
1 0 8 70.336 69.878 1.744 1.743 o
1 0 10 674.229 673.927 15.347 0.024 o
1 0 12 6.216 6.206 0.325 50.099 o
1 1 0 1575.400 1527.430 33.363 0.005 o
1 1 1 38.104 38.337 0.857 6.038 o
1 1 2 428.397 425.700 9.240 0.063 o
1 1 3 793.502 781.098 16.962 0.019 o
1 1 4 65.086 66.962 1.507 2.183 o
1 1 5 117.866 112.155 2.502 0.805 o
1 1 6 206.901 210.067 4.620 0.250 o
1 1 7 17.028 17.967 0.493 18.406 o
1 1 8 93.820 91.529 2.078 1.172 o
1 1 9 184.897 188.495 4.305 0.295 o
1 1 10 70.680 72.705 1.694 1.791 o
1 1 12 1.931 1.970 0.138 233.556 o
1 1 13 6.540 6.875 0.325 48.730 o
1 2 0 318.954 323.424 7.151 0.107 o
1 2 1 269.370 266.421 5.822 0.157 o
1 2 3 354.332 359.664 7.861 0.088 o
1 2 4 19.841 19.691 0.473 17.644 o
1 2 5 88.138 92.011 2.049 1.224 o
1 2 6 159.317 162.510 3.586 0.412 o
1 2 7 80.167 81.915 1.862 1.473 o
1 2 8 5.800 5.900 0.256 68.928 o
1 2 9 7.392 7.171 0.305 50.377 o
1 2 10 4.602 4.630 0.197 103.095 o
1 2 11 8.688 8.658 0.236 58.612 o
1 2 12 14.641 14.253 0.345 29.473 o
1 3 0 18.418 19.208 0.552 15.497 o
1 3 1 31.071 32.220 0.847 6.906 o
1 3 2 46.726 47.557 1.162 3.699 o
1 3 4 7.814 8.067 0.335 43.522 o
1 3 5 22.049 21.828 1.084 5.581 o
1 3 6 44.239 43.469 1.182 3.760 o
1 3 7 18.581 18.607 0.532 16.207 o
1 3 8 25.043 25.355 0.581 12.157 o
1 3 9 10.011 10.057 0.256 49.511 o
1 4 0 17.914 17.937 0.414 21.482 o
1 4 1 0.643 0.581 0.049 1118.120 o
1 4 2 56.679 55.763 1.231 3.074 o
1 4 3 14.522 14.480 0.345 29.479 o
1 4 4 3.025 2.837 0.099 237.495 o
1 4 5 52.105 52.010 1.152 3.501 o
2 0 0 22.064 25.374 0.640 11.517 o
2 0 2 3646.690 3199.330 65.248 0.001 o
2 0 4 5.850 8.245 0.335 46.895 o
2 0 6 3.575 4.285 0.197 113.991 o
2 0 8 96.383 103.615 2.305 0.989 o
2 0 10 33.039 34.190 1.005 5.368 o
2 0 12 74.402 76.379 2.266 1.167 o
2 1 0 363.799 360.915 7.851 0.087 o
2 1 1 65.899 67.553 1.507 2.167 o
2 1 2 2.962 2.591 0.128 203.798 o
2 1 3 453.763 459.713 9.998 0.054 o
2 1 4 9.395 8.993 0.276 49.043 o
2 1 5 18.101 20.666 0.561 15.055 o
2 1 6 419.002 416.766 8.875 0.068 o
2 1 7 30.770 29.994 0.847 7.024 o
2 1 8 46.064 46.277 1.133 3.861 o
2 1 9 180.183 177.601 3.920 0.341 o
2 1 10 42.474 42.750 1.054 4.428 o
2 1 11 1.808 1.714 0.089 367.317 o
2 1 12 24.114 24.281 0.621 11.636 o
2 2 0 514.876 514.116 10.983 0.044 o
2 2 1 1.765 1.704 0.099 342.592 o
2 2 2 3.123 2.876 0.108 219.817 o
2 2 3 16.963 17.228 0.433 21.276 o
2 2 4 1.083 1.074 0.089 495.595 o
2 2 5 151.460 153.901 3.369 0.461 o
2 2 6 9.863 10.106 0.345 37.466 o
2 2 7 56.435 57.142 1.359 2.720 o
2 2 8 55.181 53.881 1.369 2.751 o
2 2 9 76.477 78.182 1.970 1.405 o
2 2 10 74.078 75.719 1.665 1.780 o
2 2 11 30.953 31.166 0.719 8.419 o
2 3 0 12.480 13.416 0.463 23.293 o
2 3 1 28.782 29.679 0.818 7.538 o
2 3 2 90.335 91.391 2.088 1.184 o
2 3 3 4.652 4.206 0.217 94.473 o
2 3 4 215.400 221.681 4.905 0.225 o
2 3 5 7.629 7.861 0.384 36.880 o
2 3 6 2.193 2.433 0.128 232.502 o
2 3 7 29.243 29.718 0.680 9.275 o
2 3 8 1.872 1.694 0.079 391.325 o
2 4 0 12.724 12.461 0.296 37.164 o
2 4 2 1.973 2.049 0.069 389.552 o
2 4 3 54.894 54.994 1.241 3.099 o
3 0 0 389.824 390.012 8.225 0.078 o
3 0 2 181.299 184.653 4.196 0.309 o
3 0 4 19.180 20.912 0.719 10.746 o
3 0 6 584.584 562.294 11.032 0.041 o
3 0 8 12.400 10.619 0.827 10.024 o
3 0 10 1.439 1.389 0.148 244.131 o
3 1 0 108.247 109.210 2.433 0.870 o
3 1 1 435.946 430.704 9.338 0.062 o
3 1 2 434.264 435.225 9.407 0.061 o
3 1 3 38.965 40.396 0.946 5.285 o
3 1 4 11.629 10.954 0.335 35.647 o
3 1 5 4.733 5.201 0.197 99.705 o
3 1 6 4.934 4.787 0.207 95.067 o
3 1 7 28.527 28.044 0.749 8.511 o
3 1 8 36.241 38.308 0.936 5.571 o
3 1 9 1.381 0.995 0.108 374.298 o
3 1 10 82.851 85.116 1.901 1.404 o
3 1 11 13.278 13.298 0.325 33.071 o
3 2 0 1.556 1.704 0.158 214.809 o
3 2 1 7.764 8.028 0.256 58.377 o
3 2 2 274.695 275.601 5.910 0.151 o
3 2 3 103.498 101.842 2.256 0.991 o
3 2 4 92.401 91.578 2.049 1.201 o
3 2 5 62.310 62.559 1.468 2.330 o
3 2 6 42.518 44.582 1.192 3.754 o
3 2 7 3.612 3.310 0.197 118.581 o
3 2 8 103.170 103.290 2.285 0.973 o
3 2 9 2.449 2.335 0.099 276.560 o
3 2 10 11.065 11.131 0.276 43.318 o
3 3 0 70.359 72.144 1.714 1.771 o
3 3 1 2.213 1.891 0.296 77.325 o
3 3 2 20.187 20.469 0.581 13.921 o
3 3 3 97.858 100.355 2.266 1.012 o
3 3 4 107.818 108.462 2.384 0.896 o
3 3 6 19.543 19.878 0.463 18.096 o
3 3 7 2.183 2.000 0.079 347.588 o
3 4 0 6.464 5.989 0.158 99.590 o
4 0 0 44.728 43.587 1.093 4.130 o
4 0 4 36.401 38.249 0.975 5.289 o
4 0 6 13.027 13.318 0.542 18.761 o
4 0 8 1.003 1.221 0.236 125.352 o
4 0 10 4.132 4.137 0.197 109.384 o
4 1 0 2.087 2.275 0.108 278.355 o
4 1 1 149.867 151.517 3.428 0.455 o
4 1 2 186.276 183.757 4.009 0.325 o
4 1 3 211.177 205.487 4.462 0.261 o
4 1 4 3.007 2.689 0.158 166.028 o
4 1 5 91.879 89.529 2.019 1.232 o
4 1 6 38.870 40.268 0.985 5.042 o
4 1 7 8.652 8.323 0.296 48.134 o
4 1 8 27.318 28.024 0.660 9.998 o
4 1 9 19.702 20.656 0.483 17.152 o
4 2 0 117.827 119.188 2.699 0.721 o
4 2 1 74.173 74.064 1.714 1.724 o
4 2 2 288.909 296.848 6.501 0.129 o
4 2 3 54.613 54.108 1.290 2.973 o
4 2 4 16.275 15.534 0.493 19.253 o
4 2 5 0.461 0.414 0.118 463.577 o
4 2 6 6.611 6.935 0.217 75.083 o
4 2 7 153.158 154.807 3.379 0.457 o
4 2 8 0.517 0.640 0.059 1036.560 o
4 3 0 5.616 5.388 0.187 96.624 o
4 3 1 36.981 36.948 0.887 5.936 o
4 3 2 1.081 1.005 0.059 688.886 o
4 3 3 1.306 1.320 0.059 586.050 o
4 3 4 50.765 48.355 1.084 3.864 o
4 3 5 3.420 3.359 0.108 202.144 o
5 0 0 59.355 61.259 1.487 2.346 o
5 0 2 672.856 656.788 13.682 0.028 o
5 0 4 12.120 11.712 0.522 20.462 o
5 0 6 6.428 6.206 0.256 65.950 o
5 0 8 141.181 144.533 3.103 0.536 o
5 1 0 0.497 0.463 0.118 455.404 o
5 1 1 105.502 106.590 2.394 0.903 o
5 1 2 56.957 57.329 1.409 2.589 o
5 1 3 1.762 1.734 0.167 192.150 o
5 1 4 37.795 38.978 0.975 5.194 o
5 1 5 1.100 0.768 0.118 372.166 o
5 1 6 80.723 80.753 1.783 1.555 o
5 1 7 5.316 4.965 0.138 125.863 o
5 1 8 1.581 1.507 0.118 307.127 o
5 2 0 23.905 23.769 0.650 11.121 o
5 2 1 25.588 25.315 0.798 8.322 o
5 2 2 3.930 3.310 0.305 64.801 o
5 2 3 25.179 24.064 0.591 12.059 o
5 2 4 61.847 60.294 1.320 2.677 o
5 2 5 15.267 15.101 0.364 27.121 o
5 2 6 48.561 48.503 1.084 3.941 o
5 3 0 123.356 120.942 2.669 0.715 o
5 3 1 26.227 26.300 0.591 11.597 o
5 3 2 5.840 5.240 0.138 117.854 o
6 0 0 231.368 231.423 4.974 0.212 o
6 0 2 28.770 29.236 0.877 6.910 o
6 0 4 1.526 1.428 0.089 411.060 o
6 0 6 42.361 42.209 0.955 4.989 o
6 1 0 0.587 0.522 0.108 501.119 o
6 1 1 184.813 185.451 4.423 0.285 o
6 1 2 60.080 60.057 1.340 2.668 o
6 1 3 22.409 22.360 0.522 14.683 o
6 1 4 55.496 54.797 1.212 3.174 o
6 1 5 59.232 58.363 1.290 2.824 o
6 2 1 9.952 9.535 0.236 53.534 o
6 2 3 13.351 13.180 0.315 33.933 o
7 0 0 107.368 107.516 2.335 0.923 o
7 0 2 34.857 35.057 0.798 6.940 o
7 1 0 82.948 81.767 1.812 1.502 o
7 1 1 0.971 1.084 0.069 640.573 o
;
_olex2_submission_special_instructions 'No special instructions were received'
loop_
_space_group_symop_id
_space_group_symop_operation_xyz
1 x,y,z
2 -x,y+1/2,-z+1/2
3 -x,-y,-z
4 x,-y-1/2,z-1/2
loop_
_atom_site_label
_atom_site_type_symbol
_atom_site_fract_x
_atom_site_fract_y
_atom_site_fract_z
_atom_site_U_iso_or_equiv
_atom_site_adp_type
_atom_site_occupancy
_atom_site_refinement_flags_posn
O1 O 0.43461(6) 0.44432(11) 0.34990(3) 0.01335(13) Uani 1.000000 .
O2 O 0.24271(6) 0.74219(10) 0.46369(3) 0.01290(13) Uani 1.000000 .
C1 C 0.40304(7) 0.55872(13) 0.44791(4) 0.00985(13) Uani 1.000000 .
O3 O 0.12993(7) 0.63072(13) 0.17820(3) 0.01285(12) Uani 1.000000 .
H3a H 0.0115(16) 0.460(3) 0.1490(7) 0.028(2) Uani 1.000000 .
H3b H 0.1885(14) 0.692(3) 0.1131(9) 0.0244(19) Uani 1.000000 .
H1 H 0.2997(18) 0.525(3) 0.2801(10) 0.035(3) Uani 1.000000 .
loop_
_atom_site_aniso_label
_atom_site_aniso_U_11
_atom_site_aniso_U_22
_atom_site_aniso_U_33
_atom_site_aniso_U_12
_atom_site_aniso_U_13
_atom_site_aniso_U_23
O1 0.0130(2) 0.0178(2) 0.0092(2) 0.00403(13) 0.00278(15) -0.00087(13)
O2 0.0111(2) 0.0179(2) 0.0089(2) 0.00508(12) 0.00094(13) -0.00069(13)
C1 0.0089(2) 0.0114(2) 0.0085(3) 0.00155(15) 0.00068(18) 0.00042(15)
O3 0.0106(2) 0.0175(2) 0.0094(2) -0.00081(14) 0.00029(15) 0.00128(14)
H3a 0.034(6) 0.024(5) 0.027(5) -0.014(5) 0.009(4) 0.000(4)
H3b 0.024(5) 0.032(5) 0.020(5) -0.004(4) 0.011(4) 0.007(4)
H1 0.033(6) 0.026(5) 0.053(8) -0.007(5) 0.025(6) -0.008(5)
loop_
_atom_type_symbol
_atom_type_description
_atom_type_scat_dispersion_real
_atom_type_scat_dispersion_imag
_atom_type_scat_source
_atom_type_scat_dispersion_source
C C 0.00347 0.00161
'Clementi & Roetti, C., At. Data Nucl. Data Tables 1974, 14, (177-478); Clementi & Raimondi, J. Chem. Phys., 1963, 38, (2686-2689)'
'Henke, Gullikson and Davis, At. Data and Nucl. Data Tables, 1993, 54, 2'
H H 0.00000 0.00000
'Clementi & Roetti, C., At. Data Nucl. Data Tables 1974, 14, (177-478); Clementi & Raimondi, J. Chem. Phys., 1963, 38, (2686-2689)'
'Henke, Gullikson and Davis, At. Data and Nucl. Data Tables, 1993, 54, 2'
N N 0.00653 0.00323
'Clementi & Roetti, C., At. Data Nucl. Data Tables 1974, 14, (177-478); Clementi & Raimondi, J. Chem. Phys., 1963, 38, (2686-2689)'
'Henke, Gullikson and Davis, At. Data and Nucl. Data Tables, 1993, 54, 2'
O O 0.01158 0.00611
'Clementi & Roetti, C., At. Data Nucl. Data Tables 1974, 14, (177-478); Clementi & Raimondi, J. Chem. Phys., 1963, 38, (2686-2689)'
'Henke, Gullikson and Davis, At. Data and Nucl. Data Tables, 1993, 54, 2'
loop_
_geom_angle_atom_site_label_1
_geom_angle_atom_site_label_2
_geom_angle_atom_site_label_3
_geom_angle
_geom_angle_site_symmetry_1
_geom_angle_site_symmetry_3
_geom_angle_publ_flag
H1 O1 C1 111.5(5) . . ?
O2 C1 O1 126.96(4) . . ?
C1 C1 O1 112.75(5) 3_666 . ?
C1 C1 O2 120.29(5) 3_666 . ?
H3b O3 H3a 104.6(7) . . ?
loop_
_geom_bond_atom_site_label_1
_geom_bond_atom_site_label_2
_geom_bond_distance
_geom_bond_site_symmetry_2
_geom_bond_publ_flag
O1 C1 1.2858(6) . ?
O1 H1 1.055(13) . ?
O2 C1 1.2210(6) . ?
C1 C1 1.5455(8) 3_666 ?
O3 H3a 0.936(10) . ?
O3 H3b 0.950(10) . ?
loop_
_refln_index_h
_refln_index_k
_refln_index_l
_refln_F_squared_meas
_refln_F_squared_sigma
-13 0 6 34.73 0.85
-13 0 8 3.2 0.24
-13 0 12 11.84 0.43
-13 0 14 1.42 0.28
-13 1 1 2.46 0.16
-13 1 2 14.57 0.39
-13 1 4 1.15 0.12
-13 1 5 10.11 0.32
-13 1 8 3.44 0.19
-13 1 10 3.39 0.3
-13 1 12 3.2 0.17
-13 1 13 0.54 0.11
-13 2 1 4.07 0.25
-13 2 3 1.13 0.11
-13 2 4 0.65 0.11
-13 2 5 1.32 0.12
-13 2 6 0.48 0.15
-13 2 8 2.25 0.15
-13 2 9 1.02 0.33
-13 2 10 3.95 0.22
-12 0 2 8.91 0.33
-12 0 4 42.83 1.05
-12 0 6 4.03 0.22
-12 0 10 2.34 0.21
-12 0 12 8.46 0.41
-12 0 14 5.63 0.3
-12 0 16 17.9 0.87
-12 1 1 1.68 0.17
-12 1 2 0.76 0.15
-12 1 5 19.12 0.5
-12 1 6 4.45 0.16
-12 1 7 1.54 0.11
-12 1 8 12.2 0.33
-12 1 9 11.02 0.36
-12 1 10 2.63 0.16
-12 1 11 0.75 0.11
-12 1 12 6.62 0.22
-12 1 13 0.64 0.17
-12 1 15 13.46 0.37
-12 1 16 1.75 0.14
-12 1 17 0.91 0.12
-12 2 1 12.96 0.36
-12 2 2 5.09 0.2
-12 2 5 7.67 0.24
-12 2 7 3.37 0.16
-12 2 8 4.34 0.17
-12 2 9 4.1 0.17
-12 2 11 9 0.3
-12 2 12 0.85 0.16
-12 2 13 4.98 0.21
-12 3 1 1.57 0.13
-12 3 3 3.33 0.18
-12 3 6 0.83 0.1
-12 3 7 1.09 0.18
-12 3 11 1.44 0.16
-11 0 2 3.82 0.19
-11 0 4 9.46 0.31
-11 0 6 0.76 0.11
-11 0 8 88.87 1.91
-11 0 10 7.91 0.6
-11 0 12 2.62 0.2
-11 0 14 34.95 0.85
-11 0 16 1.46 0.25
-11 0 18 12.21 1.4
-11 0 20 1.35 0.38
-11 1 2 5.48 0.26
-11 1 3 13.74 0.35
-11 1 4 35.46 0.81
-11 1 5 2.18 0.13
-11 1 7 1.59 0.09
-11 1 8 1.36 0.09
-11 1 9 5.83 0.2
-11 1 10 3.72 0.17
-11 1 11 3.97 0.17
-11 1 12 12.89 0.36
-11 1 14 5.87 0.21
-11 1 15 6.14 0.21
-11 1 16 2.56 0.13
-11 1 18 9.45 0.3
-11 1 19 11.45 0.39
-11 1 20 0.59 0.15
-11 2 1 2.63 0.15
-11 2 2 0.4 0.09
-11 2 3 1.19 0.12
-11 2 4 10.73 0.3
-11 2 5 2.06 0.13
-11 2 6 5.97 0.19
-11 2 7 7.9 0.25
-11 2 10 0.93 0.13
-11 2 11 2.21 0.14
-11 2 12 2.74 0.14
-11 2 13 0.69 0.12
-11 2 14 1.25 0.11
-11 2 15 10.2 0.34
-11 2 16 0.32 0.09
-11 2 17 0.78 0.09
-11 2 18 2.29 0.16
-11 3 1 0.9 0.12
-11 3 2 3.34 0.15
-11 3 4 4.49 0.18
-11 3 5 6.38 0.22
-11 3 6 2.71 0.13
-11 3 7 3.53 0.16
-11 3 9 1.01 0.15
-11 3 10 12.13 0.36
-11 3 11 4.32 0.2
-11 3 12 1.1 0.14
-11 3 13 2.62 0.16
-11 3 16 3.34 0.17
-11 3 17 4.64 0.45
-11 4 1 1.21 0.12
-11 4 2 3.03 0.16
-11 4 3 5.5 0.21
-11 4 6 6.83 0.24
-11 4 9 2.65 0.15
-11 4 10 3.46 0.24
-11 4 12 3.11 0.2
-11 4 13 5.46 0.55
-10 0 4 8.56 0.26
-10 0 6 12.59 0.34
-10 0 8 16.96 0.44
-10 0 10 11.54 0.82
-10 0 12 11.74 0.41
-10 0 14 1.16 0.23
-10 0 16 2.9 0.26
-10 0 18 63.52 1.67
-10 0 20 1.32 0.23
-10 0 22 1.14 0.17
-10 1 1 3.61 0.13
-10 1 2 0.48 0.08
-10 1 3 2.17 0.1
-10 1 4 0.58 0.07
-10 1 5 9.24 0.25
-10 1 7 47.65 1.07
-10 1 8 19.94 0.47
-10 1 9 9.67 0.29
-10 1 10 6.16 0.21
-10 1 11 1.97 0.14
-10 1 12 3.62 0.22
-10 1 13 11.48 0.33
-10 1 14 17.73 0.58
-10 1 16 1.01 0.11
-10 1 17 15.79 0.42
-10 1 18 2.08 0.14
-10 1 19 2.21 0.16
-10 1 21 0.81 0.13
-10 1 22 11.4 0.67
-10 2 1 0.45 0.08
-10 2 2 11.02 0.28
-10 2 3 48.93 1.11
-10 2 4 27.83 0.66
-10 2 7 1.14 0.09
-10 2 8 8.88 0.25
-10 2 9 13.07 0.33
-10 2 10 0.7 0.1
-10 2 11 12.17 0.33
-10 2 12 5.09 0.19
-10 2 13 11.58 0.34
-10 2 14 13.67 0.36
-10 2 16 0.65 0.11
-10 2 17 3.95 0.17
-10 2 18 0.5 0.11
-10 2 20 0.48 0.11
-10 3 1 2.49 0.12
-10 3 2 8.39 0.25
-10 3 3 3.42 0.14
-10 3 4 10.62 0.29
-10 3 6 11.23 0.3
-10 3 7 0.59 0.09
-10 3 8 5.77 0.25
-10 3 9 0.75 0.14
-10 3 10 7.84 0.25
-10 3 14 8.37 0.28
-10 3 15 2.77 0.16
-10 3 17 1.34 0.13
-10 3 18 0.54 0.14
-10 3 19 0.88 0.15
-10 4 2 9.86 0.3
-10 4 3 6.15 0.2
-10 4 4 0.3 0.07
-10 4 5 1.12 0.09
-10 4 6 3.33 0.13
-10 4 8 3.06 0.15
-10 4 9 3.09 0.15
-10 4 10 7.2 0.23
-10 4 13 7.62 0.25
-10 4 16 10.57 0.38
-10 5 2 6.23 0.28
-10 5 4 1.93 0.13
-10 5 5 2.9 0.16
-10 5 6 6.05 0.25
-10 5 10 0.72 0.11
-10 5 11 0.94 0.2
-9 0 2 3.97 0.2
-9 0 4 56.59 1.25
-9 0 6 25.13 0.64
-9 0 8 4.22 0.26
-9 0 10 52.23 1.1
-9 0 14 2.03 0.17
-9 0 16 22.07 0.56
-9 0 20 0.75 0.17
-9 0 22 6.99 0.36
-9 1 1 0.57 0.06
-9 1 2 1.37 0.07
-9 1 3 0.17 0.05
-9 1 4 10.4 0.26
-9 1 5 3.27 0.11
-9 1 6 22.48 0.52
-9 1 7 16.87 0.4
-9 1 8 4.55 0.15
-9 1 9 16.9 0.42
-9 1 10 1.24 0.12
-9 1 11 6.83 0.23
-9 1 13 0.44 0.12
-9 1 14 13.48 0.36
-9 1 16 2.55 0.14
-9 1 17 35.81 0.83
-9 1 18 6.99 0.23
-9 1 19 2.92 0.14
-9 1 20 4.39 0.19
-9 1 21 7.23 0.25
-9 1 23 2.13 0.15
-9 2 1 4.81 0.16
-9 2 3 0.66 0.07
-9 2 4 0.42 0.06
-9 2 5 5.9 0.17
-9 2 6 34.35 0.78
-9 2 7 10.02 0.26
-9 2 8 55.89 1.26
-9 2 9 1.37 0.09
-9 2 10 5.42 0.18
-9 2 12 3.44 0.16
-9 2 13 30.71 0.72
-9 2 14 4.86 0.18
-9 2 15 0.34 0.11
-9 2 16 9.49 0.31
-9 2 17 8.06 0.25
-9 2 18 14.76 0.4
-9 2 19 3.58 0.23
-9 2 21 7.2 0.3
-9 2 22 2.58 0.2
-9 3 1 2.63 0.12
-9 3 2 83.98 1.85
-9 3 3 12.5 0.33
-9 3 4 21.27 0.5
-9 3 6 1.05 0.09
-9 3 7 20.02 0.47
-9 3 8 6.56 0.21
-9 3 9 1.42 0.11
-9 3 10 4.82 0.2
-9 3 11 1.22 0.1
-9 3 12 41.19 0.94
-9 3 13 7.02 0.23
-9 3 14 5.97 0.21
-9 3 15 2.43 0.14
-9 3 16 2.87 0.16
-9 3 18 2.78 0.23
-9 4 1 11.56 0.31
-9 4 2 3.89 0.14
-9 4 3 20.62 0.5
-9 4 6 7.9 0.22
-9 4 7 0.95 0.12
-9 4 8 4.16 0.15
-9 4 9 1.59 0.1
-9 4 10 0.5 0.09
-9 4 11 5.54 0.2
-9 4 12 5.86 0.27
-9 4 13 7.14 0.23
-9 5 1 1.41 0.15
-9 5 6 0.62 0.11
-9 5 8 0.48 0.1
-9 5 9 3.51 0.17
-9 5 10 1.07 0.12
-9 5 12 2.99 0.15
-9 5 13 0.31 0.1
-8 0 2 3.5 0.13
-8 0 4 4.08 0.15
-8 0 8 49.16 1.08
-8 0 10 6.95 0.32
-8 0 12 3.18 0.14
-8 0 14 43.12 1.46
-8 0 16 11.9 0.36
-8 0 18 2.92 0.26
-8 0 20 42.52 0.99
-8 1 1 29.04 0.66
-8 1 3 19.1 0.44
-8 1 4 29.42 0.67
-8 1 5 22.52 0.52
-8 1 6 1.68 0.07
-8 1 7 55.93 1.24
-8 1 8 6.02 0.19
-8 1 9 13.37 0.34
-8 1 10 36.27 0.85
-8 1 11 1.63 0.14
-8 1 12 1.58 0.13
-8 1 14 0.63 0.1
-8 1 15 16.07 0.4
-8 1 16 8.61 0.25
-8 1 17 7.07 0.22
-8 1 18 10.56 0.29
-8 1 20 0.88 0.11
-8 1 21 4.26 0.18
-8 1 23 1 0.3
-8 1 24 8.63 0.33
-8 2 1 39.46 0.88
-8 2 2 16.23 0.38
-8 2 3 7.04 0.19
-8 2 4 16.07 0.38
-8 2 5 33.86 0.76
-8 2 6 57.35 1.27
-8 2 7 6.43 0.17
-8 2 8 6.68 0.19
-8 2 9 1.15 0.08
-8 2 10 11.31 0.33
-8 2 11 19.93 0.5
-8 2 12 8.04 0.26
-8 2 13 1.97 0.14
-8 2 14 11.24 0.31
-8 2 16 37.56 0.86
-8 2 17 1.68 0.15
-8 2 18 13.83 0.39
-8 2 19 3.34 0.17
-8 2 20 0.67 0.12
-8 2 23 2.74 0.18
-8 3 1 0.22 0.06
-8 3 2 8.4 0.21
-8 3 3 7.21 0.19
-8 3 5 0.81 0.07
-8 3 6 33.49 0.77
-8 3 7 10.36 0.27
-8 3 8 21.77 0.51
-8 3 9 5.53 0.19
-8 3 10 9.78 0.28
-8 3 11 5.76 0.27
-8 3 12 51.01 1.13
-8 3 13 1.47 0.15
-8 3 14 1.4 0.14
-8 3 15 0.39 0.1
-8 3 16 17.88 0.5
-8 3 17 16.66 0.47
-8 3 19 1.07 0.16
-8 3 20 7.98 0.3
-8 3 22 24.76 0.68
-8 4 1 21 0.5
-8 4 2 19.84 0.47
-8 4 3 15.83 0.43
-8 4 4 10.75 0.28
-8 4 5 3.14 0.12
-8 4 6 4.83 0.15
-8 4 7 3.12 0.14
-8 4 8 4.35 0.15
-8 4 9 0.36 0.08
-8 4 11 22.57 0.57
-8 4 12 17.41 0.48
-8 4 13 11.06 0.37
-8 4 15 2.8 0.17
-8 4 16 2.92 0.18
-8 4 18 4.61 0.21
-8 5 1 4.69 0.18
-8 5 2 26.89 0.66
-8 5 5 1.57 0.11
-8 5 6 0.75 0.16
-8 5 7 4.77 0.17
-8 5 8 7.71 0.26
-8 5 10 2.47 0.13
-8 5 12 0.8 0.1
-8 5 14 0.48 0.11
-8 5 15 0.67 0.11
-8 6 2 0.63 0.12
-8 6 4 0.71 0.12
-8 6 7 0.88 0.24
-8 6 9 0.41 0.13
-7 0 2 14.46 0.36
-7 0 4 40.73 0.92
-7 0 6 263.08 5.68
-7 0 8 0.35 0.08
-7 0 10 1.44 0.14
-7 0 12 5.55 0.19
-7 0 14 10.97 0.32
-7 0 16 7.16 0.32
-7 0 18 7.29 0.31
-7 0 20 0.41 0.13
-7 0 24 7.24 0.7
-7 1 1 18.11 0.42
-7 1 2 88.15 1.96
-7 1 3 3.8 0.1
-7 1 4 0.4 0.04
-7 1 5 2.24 0.07
-7 1 6 19.14 0.44
-7 1 7 51.61 1.15
-7 1 9 10.65 0.27
-7 1 10 29.82 0.69
-7 1 11 46.59 1.04
-7 1 12 2.8 0.18
-7 1 13 9.42 0.26
-7 1 14 15.58 0.38
-7 1 15 13.78 0.34
-7 1 16 5.74 0.18
-7 1 17 22.59 0.54
-7 1 19 26.37 0.63
-7 1 20 4.64 0.18
-7 1 21 3.2 0.17
-7 1 22 1.31 0.16
-7 1 23 1.24 0.15
-7 1 24 0.87 0.14
-7 1 25 7.67 0.34
-7 2 2 0.22 0.06
-7 2 3 22.7 0.52
-7 2 4 3.39 0.1
-7 2 5 9.98 0.24
-7 2 6 2.19 0.08
-7 2 7 19.6 0.45
-7 2 8 16.73 0.39
-7 2 9 16.93 0.42
-7 2 10 78.02 1.75
-7 2 11 22.85 0.54
-7 2 12 8.18 0.25
-7 2 13 5.18 0.17
-7 2 14 3.36 0.14
-7 2 15 40.93 0.92
-7 2 16 12.61 0.32
-7 2 17 1.99 0.12
-7 2 18 4.82 0.17
-7 2 20 23.89 0.58
-7 2 21 12.35 0.34
-7 2 22 4.5 0.19
-7 2 23 4.28 0.23
-7 2 24 4.65 0.2
-7 3 1 2.05 0.08
-7 3 2 1.88 0.07
-7 3 3 2.11 0.08
-7 3 4 76.86 1.7
-7 3 5 34.93 0.8
-7 3 6 15.99 0.38
-7 3 9 9.65 0.25
-7 3 10 11.23 0.3
-7 3 12 0.96 0.09
-7 3 13 7.65 0.25
-7 3 14 22.74 0.55
-7 3 15 4.94 0.28
-7 3 16 22.26 0.55
-7 3 18 9.89 0.32
-7 3 20 2.5 0.17
-7 3 21 2.77 0.17
-7 3 22 2.66 0.22
-7 4 1 21.11 0.5
-7 4 2 6.72 0.2
-7 4 3 0.66 0.08
-7 4 4 2.21 0.09
-7 4 5 22.97 0.54
-7 4 6 4.37 0.14
-7 4 7 4.62 0.16
-7 4 8 26.47 0.61
-7 4 9 5.72 0.18
-7 4 10 0.28 0.08
-7 4 11 13.98 0.36
-7 4 12 3.68 0.19
-7 4 14 3.15 0.14
-7 4 15 12.2 0.33
-7 4 16 9.85 0.31
-7 4 17 3.63 0.16
-7 4 19 0.77 0.2
-7 4 21 7.9 0.45
-7 5 1 3.95 0.15
-7 5 2 19.31 0.48
-7 5 3 3.43 0.2
-7 5 4 1.84 0.11
-7 5 5 0.96 0.1
-7 5 6 7.81 0.3
-7 5 7 0.73 0.1
-7 5 10 5.61 0.21
-7 5 11 9.07 0.28
-7 5 12 24.36 0.59
-7 5 14 1.03 0.12
-7 5 17 2.29 0.14
-7 5 18 3.74 0.32
-7 6 1 16.1 0.42
-7 6 2 3.29 0.16
-7 6 5 0.54 0.14
-7 6 6 6.21 0.25
-7 6 7 2.42 0.16
-7 6 8 4.29 0.19
-7 6 9 1.83 0.14
-7 6 10 0.49 0.14
-7 6 11 1.38 0.15
-6 0 2 182.1 3.92
-6 0 4 2.56 0.2
-6 0 6 168.61 3.57
-6 0 8 0.98 0.22
-6 0 10 294.88 6.36
-6 0 14 25.77 0.6
-6 0 16 130.37 2.89
-6 0 18 15.4 0.42
-6 0 20 10.17 0.37
-6 0 22 3.38 0.5
-6 0 24 12.05 0.58
-6 0 26 4.71 0.51
-6 1 1 1.53 0.13
-6 1 2 6.79 0.35
-6 1 3 0.97 0.2
-6 1 4 32.24 0.83
-6 1 5 97.96 2.21
-6 1 6 153.85 3.35
-6 1 7 2.72 0.15
-6 1 8 3.37 0.14
-6 1 9 44.91 1.01
-6 1 10 51.37 1.14
-6 1 11 4.17 0.12
-6 1 12 42.37 0.95
-6 1 13 4.92 0.14
-6 1 14 21.82 0.5
-6 1 15 3.64 0.12
-6 1 16 0.65 0.08
-6 1 17 1.02 0.07
-6 1 18 0.46 0.07
-6 1 19 11.92 0.31
-6 1 20 27.84 0.65
-6 1 21 12.81 0.34
-6 1 22 1.33 0.18
-6 1 23 1.79 0.17
-6 1 25 0.89 0.12
-6 2 1 72.54 1.6
-6 2 2 39.93 0.89
-6 2 3 61.62 1.36
-6 2 4 5.42 0.15
-6 2 5 4.48 0.12
-6 2 6 1.1 0.07
-6 2 7 0.17 0.05
-6 2 8 13.48 0.32
-6 2 9 31.79 0.72
-6 2 10 9.8 0.25
-6 2 12 9.29 0.25
-6 2 13 0.28 0.06
-6 2 14 6.48 0.18
-6 2 15 2.93 0.1
-6 2 16 0.37 0.06
-6 2 17 9.36 0.26
-6 2 18 19.14 0.47
-6 2 19 2.63 0.15
-6 2 20 20.77 0.51
-6 2 21 1.56 0.11
-6 2 23 0.51 0.1
-6 2 25 11.56 0.58
-6 3 1 12.71 0.3
-6 3 2 11.51 0.27
-6 3 3 1.29 0.06
-6 3 4 4.49 0.14
-6 3 5 0.72 0.06
-6 3 6 6.2 0.17
-6 3 7 7.52 0.2
-6 3 8 40.45 0.9
-6 3 9 32.54 0.73
-6 3 10 0.7 0.08
-6 3 11 4.5 0.16
-6 3 13 6.5 0.2
-6 3 14 55.16 1.32
-6 3 15 12.85 0.33
-6 3 16 1.62 0.1
-6 3 17 0.76 0.1
-6 3 18 8.55 0.24
-6 3 19 16.05 0.42
-6 3 20 1.05 0.12
-6 3 22 4.69 0.23
-6 3 23 0.83 0.11
-6 4 1 7.66 0.21
-6 4 3 7 0.2
-6 4 4 42.81 0.97
-6 4 5 39.52 0.88
-6 4 6 1.85 0.08
-6 4 8 6.85 0.2
-6 4 10 1.78 0.11
-6 4 11 6.19 0.2
-6 4 12 11.61 0.31
-6 4 13 14 0.36
-6 4 14 13.37 0.35
-6 4 15 22.42 0.55
-6 4 16 0.59 0.11
-6 4 18 6.29 0.26
-6 4 19 0.9 0.14
-6 4 21 1.54 0.16
-6 5 2 0.67 0.1
-6 5 3 1.05 0.1
-6 5 4 36.51 0.87
-6 5 6 6.83 0.2
-6 5 7 2.7 0.14
-6 5 8 16.8 0.44
-6 5 9 1.32 0.13
-6 5 10 14.53 0.38
-6 5 11 0.6 0.1
-6 5 12 0.28 0.09
-6 5 13 0.4 0.09
-6 5 14 2.24 0.13
-6 5 15 1.13 0.16
-6 5 16 7.99 0.26
-6 5 18 1.68 0.14
-6 6 1 1.4 0.11
-6 6 2 4.2 0.16
-6 6 4 2.74 0.14
-6 6 5 9.85 0.3
-6 6 6 0.75 0.15
-6 6 7 0.68 0.09
-6 6 8 0.37 0.08
-6 6 10 4.89 0.22
-6 6 11 10.3 0.32
-6 6 12 4.42 0.2
-6 6 13 0.83 0.12
-6 6 14 1.04 0.13
-6 6 15 3.18 0.47
-6 7 1 5.84 0.33
-6 7 4 0.65 0.15
-6 7 5 0.66 0.15
-5 0 2 91.45 2.05
-5 0 4 18.26 0.66
-5 0 6 117.73 2.6
-5 0 8 290.12 7.59
-5 0 10 103.4 2.38
-5 0 12 44.95 1.03
-5 0 14 0.73 0.07
-5 0 18 26.55 0.63
-5 0 20 101.59 2.19
-5 0 26 14.92 0.89
-5 1 1 57.7 1.37
-5 1 2 257.49 5.57
-5 1 3 50.86 1.21
-5 1 4 94.4 2.12
-5 1 5 30.97 0.75
-5 1 6 3.87 0.22
-5 1 7 1.27 0.13
-5 1 8 16.99 0.64
-5 1 9 275.07 5.93
-5 1 10 25.92 0.65
-5 1 11 0.16 0.05
-5 1 12 25.05 0.56
-5 1 13 9.12 0.25
-5 1 14 25.94 0.59
-5 1 15 39.88 0.89
-5 1 16 55.65 1.23
-5 1 17 16.3 0.39
-5 1 18 0.37 0.09
-5 1 19 41.35 0.93
-5 1 20 0.31 0.08
-5 1 21 0.73 0.11
-5 1 22 1.34 0.1
-5 1 24 15.84 0.42
-5 1 25 1.06 0.16
-5 1 26 2.91 0.16
-5 2 1 9.12 0.33
-5 2 2 0.56 0.13
-5 2 3 4.23 0.3
-5 2 4 28.93 0.76
-5 2 5 182.64 4.05
-5 2 6 81.8 1.86
-5 2 7 21.26 0.61
-5 2 8 1.92 0.1
-5 2 9 0.27 0.05
-5 2 11 40.7 0.92
-5 2 12 23.95 0.54
-5 2 13 73.94 1.63
-5 2 14 0.65 0.08
-5 2 15 12.09 0.29
-5 2 16 3.31 0.12
-5 2 17 7.65 0.25
-5 2 18 4.8 0.15
-5 2 19 11.07 0.29
-5 2 22 9.77 0.28
-5 2 23 7.41 0.24
-5 2 24 1.71 0.17
-5 3 1 20.3 0.46
-5 3 3 6.08 0.16
-5 3 4 11.55 0.28
-5 3 5 3.67 0.11
-5 3 6 4.72 0.14
-5 3 7 16.2 0.38
-5 3 8 2.19 0.08
-5 3 10 6.31 0.17
-5 3 11 0.64 0.06
-5 3 12 0.78 0.08
-5 3 14 0.87 0.09
-5 3 15 2.29 0.11
-5 3 18 12.59 0.33
-5 3 19 6.05 0.19
-5 3 21 0.58 0.11
-5 3 23 4.04 0.17
-5 3 24 8.37 0.4
-5 4 1 3.15 0.1
-5 4 3 23.94 0.55
-5 4 4 23.84 0.55
-5 4 5 13.91 0.34
-5 4 7 1.14 0.06
-5 4 8 25.67 0.59
-5 4 10 23.33 0.55
-5 4 11 0.34 0.07
-5 4 12 1.91 0.1
-5 4 13 14.65 0.4
-5 4 14 7.2 0.22
-5 4 15 13.15 0.34
-5 4 17 2.44 0.13
-5 4 18 16.6 0.42
-5 4 19 0.56 0.1
-5 4 22 2.31 0.2
-5 5 1 2.4 0.13
-5 5 2 4.31 0.14
-5 5 3 3.32 0.13
-5 5 4 65.55 1.44
-5 5 6 8.41 0.25
-5 5 7 2.5 0.15
-5 5 8 6.06 0.2
-5 5 9 2.77 0.13
-5 5 10 3.28 0.17
-5 5 12 11.59 0.36
-5 5 13 4.32 0.17
-5 5 14 49.38 1.11
-5 5 16 0.87 0.14
-5 5 18 1.49 0.16
-5 5 19 0.82 0.17
-5 6 2 0.51 0.15
-5 6 3 18.74 0.59
-5 6 4 2.69 0.14
-5 6 5 1.57 0.13
-5 6 6 0.72 0.1
-5 6 7 1.87 0.13
-5 6 8 11.37 0.31
-5 6 9 2.34 0.21
-5 6 10 9.15 0.28
-5 6 11 0.87 0.13
-5 6 13 1.44 0.15
-5 6 15 4.39 0.22
-5 7 2 0.73 0.11
-5 7 3 0.74 0.11
-5 7 7 2.55 0.15
-5 7 9 2.01 0.21
-4 0 2 941.74 21.61
-4 0 4 124.64 2.71
-4 0 6 46.57 1.13
-4 0 8 581.15 12.57
-4 0 10 1.55 0.3
-4 0 12 246.65 5.12
-4 0 14 1.67 0.08
-4 0 16 57.45 1.26
-4 0 18 134.84 2.91
-4 0 22 1.38 0.14
-4 0 24 2 0.39
-4 0 26 11.37 0.48
-4 1 1 92.73 2.21
-4 1 2 57.57 1.39
-4 1 3 1.63 0.1
-4 1 4 34.58 0.8
-4 1 6 182.04 3.97
-4 1 7 89.46 2
-4 1 8 177.56 3.89
-4 1 9 46.47 1.24
-4 1 11 1.45 0.17
-4 1 12 83.27 1.83
-4 1 13 15.71 0.36
-4 1 14 16.47 0.38
-4 1 16 21.88 0.52
-4 1 17 4.77 0.14
-4 1 18 0.94 0.08
-4 1 19 54.24 1.21
-4 1 20 11.71 0.32
-4 1 21 1.49 0.1
-4 1 22 22.79 0.56
-4 1 23 9.56 0.35
-4 1 24 2.66 0.18
-4 1 25 4.58 0.2
-4 1 26 2.19 0.14
-4 2 1 54.17 1.29
-4 2 2 13.19 0.37
-4 2 3 80.49 1.88
-4 2 4 62.95 1.44
-4 2 5 6.07 0.22
-4 2 6 5.77 0.21
-4 2 7 7.03 0.28
-4 2 8 85.38 2.15
-4 2 9 14.06 0.48
-4 2 10 31.8 0.74
-4 2 11 7.83 0.19
-4 2 12 0.76 0.04
-4 2 13 3.47 0.11
-4 2 14 22.53 0.52
-4 2 15 34.85 0.79
-4 2 16 10.19 0.28
-4 2 17 7.56 0.21
-4 2 18 7.56 0.23
-4 2 19 6.48 0.2
-4 2 21 4.48 0.16
-4 2 22 4.14 0.18
-4 2 23 18.48 0.56
-4 2 24 2.35 0.13
-4 2 25 3.5 0.17
-4 3 1 4.82 0.29
-4 3 2 13.11 0.47
-4 3 3 22.04 0.66
-4 3 4 246.41 5.54
-4 3 5 29.21 0.72
-4 3 6 8.07 0.25
-4 3 7 5.28 0.15
-4 3 8 0.24 0.04
-4 3 9 37.08 0.83
-4 3 10 64.5 1.42
-4 3 11 20.42 0.47
-4 3 12 12.4 0.3
-4 3 13 0.91 0.06
-4 3 14 32.25 0.76
-4 3 15 5.79 0.17
-4 3 16 3.84 0.17
-4 3 17 14.55 0.36
-4 3 18 2.32 0.11
-4 3 20 5.89 0.19
-4 3 21 1.64 0.11
-4 3 22 0.86 0.11
-4 4 1 0.2 0.05
-4 4 2 5.02 0.14
-4 4 3 60.76 1.35
-4 4 4 1.02 0.06
-4 4 5 11.41 0.28
-4 4 6 28.49 0.65
-4 4 7 9.58 0.24
-4 4 8 4.4 0.14
-4 4 9 2.18 0.17
-4 4 10 2.83 0.1
-4 4 12 0.4 0.08
-4 4 13 28.48 0.67
-4 4 14 22.36 0.53
-4 4 15 0.78 0.08
-4 4 16 1.73 0.1
-4 4 17 4.88 0.18
-4 4 18 1.94 0.25
-4 4 20 4.62 0.19
-4 4 22 2.84 0.16
-4 5 2 21.88 0.52
-4 5 3 2.37 0.09
-4 5 4 0.52 0.06
-4 5 6 5.25 0.17
-4 5 8 7.75 0.23
-4 5 10 12.21 0.33
-4 5 11 1.32 0.09
-4 5 12 7.32 0.26
-4 5 13 0.53 0.1
-4 5 14 13.24 0.38
-4 5 17 1.72 0.16
-4 5 18 11.62 0.35
-4 5 19 0.53 0.13
-4 6 2 4.83 0.24
-4 6 3 13.02 0.35
-4 6 4 3.44 0.15
-4 6 5 5.39 0.21
-4 6 6 1.5 0.11
-4 6 7 9.35 0.31
-4 6 8 1.35 0.13
-4 6 11 0.55 0.14
-4 6 12 4.3 0.25
-4 6 13 19.73 0.55
-4 6 14 4.66 0.21
-4 6 16 0.93 0.14
-4 7 2 4.38 0.24
-4 7 3 4.79 0.25
-4 7 4 2.92 0.2
-4 7 6 0.71 0.12
-4 7 7 2.9 0.17
-4 7 8 1.79 0.29
-4 7 9 7.48 0.28
-3 0 2 14.75 0.43
-3 0 4 89.59 2.11
-3 0 6 12.08 0.34
-3 0 8 22.64 0.6
-3 0 10 3.43 0.31
-3 0 12 145.57 3.26
-3 0 14 17.2 0.43
-3 0 16 13.74 0.35
-3 0 18 34.18 0.89
-3 0 20 9.43 0.36
-3 0 22 98.38 2.44
-3 0 26 5.2 0.35
-3 1 1 323.7 7.03
-3 1 2 34.13 0.79
-3 1 3 163.21 3.61
-3 1 4 233.58 5.1
-3 1 5 215.29 4.8
-3 1 6 0.57 0.08
-3 1 7 351.36 7.61
-3 1 8 8.62 0.28
-3 1 9 61.5 1.46
-3 1 10 3.72 0.33
-3 1 11 164.35 3.6
-3 1 12 55.27 1.35
-3 1 13 0.8 0.05
-3 1 14 0.21 0.04
-3 1 15 0.19 0.05
-3 1 16 32.3 0.73
-3 1 17 60.56 1.34
-3 1 18 39.16 0.9
-3 1 20 2.07 0.1
-3 1 21 8.13 0.25
-3 1 22 2 0.12
-3 1 23 1.97 0.12
-3 1 24 0.47 0.1
-3 1 25 1.11 0.14
-3 1 26 17.36 0.45
-3 2 1 85.44 1.9
-3 2 2 182.16 4.02
-3 2 3 302.1 6.54
-3 2 4 27.63 0.67
-3 2 5 2.66 0.15
-3 2 6 142.48 3.13
-3 2 7 171.72 3.86
-3 2 8 292.76 6.24
-3 2 9 52.48 1.39
-3 2 10 11.16 0.42
-3 2 11 23.77 0.57
-3 2 12 2.1 0.08
-3 2 13 54.1 1.21
-3 2 14 0.93 0.06
-3 2 15 28.36 0.65
-3 2 16 14.71 0.36
-3 2 17 0.91 0.1
-3 2 18 43.93 1
-3 2 19 0.41 0.12
-3 2 20 3.46 0.14
-3 2 21 10.86 0.29
-3 2 23 0.29 0.09
-3 2 24 2.75 0.16
-3 3 1 3.52 0.2
-3 3 2 257.25 5.58
-3 3 3 3.29 0.2
-3 3 4 46.07 1.15
-3 3 5 21.94 0.64
-3 3 7 4.1 0.15
-3 3 8 18.59 0.43
-3 3 9 4.79 0.13
-3 3 10 20.35 0.47
-3 3 11 1.35 0.08
-3 3 12 42.48 0.95
-3 3 13 9.38 0.23
-3 3 14 71.56 1.61
-3 3 15 1.65 0.07
-3 3 17 1.19 0.08
-3 3 18 3.58 0.13
-3 3 19 10.5 0.3
-3 3 20 4.11 0.22
-3 3 21 6.43 0.23
-3 3 22 9.8 0.28
-3 3 24 10.54 0.3
-3 4 1 21.35 0.49
-3 4 2 10.88 0.26
-3 4 3 59.7 1.33
-3 4 4 29.38 0.67
-3 4 5 0.43 0.05
-3 4 6 24.62 0.57
-3 4 7 16.72 0.4
-3 4 8 0.54 0.06
-3 4 9 0.59 0.07
-3 4 10 38.66 0.87
-3 4 11 3.76 0.13
-3 4 12 2.78 0.11
-3 4 13 32.91 0.76
-3 4 14 5.77 0.18
-3 4 16 4.07 0.15
-3 4 17 10.68 0.3
-3 4 18 4.36 0.17
-3 4 20 9.09 0.29
-3 4 21 0.68 0.11
-3 4 23 7.39 0.57
-3 5 1 0.24 0.07
-3 5 2 2.5 0.09
-3 5 3 4.37 0.14
-3 5 4 9.64 0.25
-3 5 5 1.05 0.11
-3 5 6 36.21 0.82
-3 5 7 4.04 0.14
-3 5 8 0.33 0.07
-3 5 9 4.3 0.14
-3 5 10 4.41 0.17
-3 5 11 1.1 0.12
-3 5 12 12.93 0.34
-3 5 14 1.76 0.13
-3 5 16 18.06 0.48
-3 5 17 0.83 0.13
-3 5 18 1.36 0.16
-3 5 20 2.36 0.18
-3 6 1 8.41 0.32
-3 6 2 1.8 0.21
-3 6 3 0.88 0.11
-3 6 4 1.22 0.1
-3 6 5 0.61 0.09
-3 6 6 0.64 0.11
-3 6 7 0.85 0.13
-3 6 9 3.96 0.17
-3 6 10 3.01 0.16
-3 6 12 3.54 0.2
-3 6 13 1.81 0.13
-3 6 17 7.28 0.3
-3 7 1 0.67 0.12
-3 7 2 5.21 0.23
-3 7 4 4.49 0.27
-3 7 5 1.69 0.18
-3 7 6 0.7 0.12
-2 0 2 597.45 12.3
-2 0 4 1868.74 42.5
-2 0 6 169.77 3.64
-2 0 8 460.36 10.01
-2 0 10 188.23 4.08
-2 0 12 16.66 0.85
-2 0 14 58.18 1.25
-2 0 16 12.2 0.39
-2 0 18 5.06 0.2
-2 0 20 17.05 0.47
-2 0 22 4.55 0.2
-2 0 26 3.82 0.24
-2 1 1 189.46 4.15
-2 1 2 564.24 12.37
-2 1 3 20.76 0.5
-2 1 4 362.03 7.85
-2 1 5 21.2 0.52
-2 1 6 5.77 0.17
-2 1 7 33.92 0.83
-2 1 8 292.44 6.4
-2 1 9 22.65 0.61
-2 1 10 33.36 0.85
-2 1 11 83.61 1.98
-2 1 12 9.08 0.44
-2 1 13 32.98 0.75
-2 1 14 18.68 0.43
-2 1 15 11.39 0.28
-2 1 16 0.98 0.1
-2 1 17 31.29 0.71
-2 1 18 8.49 0.23
-2 1 19 1.74 0.1
-2 1 20 1.05 0.11
-2 1 21 59.2 1.41
-2 1 22 11.31 0.33
-2 1 24 2.29 0.14
-2 1 25 0.58 0.1
-2 1 26 1.72 0.13
-2 2 1 155.08 3.38
-2 2 2 495.13 10.76
-2 2 3 10.2 0.3
-2 2 4 22.93 0.67
-2 2 5 3.56 0.15
-2 2 6 74.11 1.67
-2 2 7 34.66 0.89
-2 2 8 29.31 0.9
-2 2 9 16.73 0.66
-2 2 10 90.91 2.11
-2 2 11 13.95 0.41
-2 2 12 112.09 2.45
-2 2 13 30.89 0.71
-2 2 14 13.92 0.34
-2 2 15 1.97 0.09
-2 2 16 37.58 0.84
-2 2 17 56.57 1.28
-2 2 18 28 0.67
-2 2 19 7.75 0.25
-2 2 20 7.02 0.3
-2 2 21 0.53 0.1
-2 2 22 9.58 0.29
-2 2 23 10.62 0.31
-2 2 24 0.56 0.12
-2 2 25 14.83 0.39
-2 3 1 147.06 3.34
-2 3 2 69.17 1.62
-2 3 3 1.26 0.14
-2 3 4 9.3 0.35
-2 3 5 6.3 0.29
-2 3 6 373.05 7.94
-2 3 7 81.77 1.94
-2 3 8 26.01 0.6
-2 3 9 8.13 0.2
-2 3 10 22.61 0.51
-2 3 11 20.26 0.47
-2 3 12 86.56 1.92
-2 3 13 3.65 0.12
-2 3 14 5.18 0.16
-2 3 15 11.68 0.31
-2 3 16 33.23 0.77
-2 3 17 4.23 0.14
-2 3 18 9.46 0.26
-2 3 19 1.2 0.1
-2 3 20 15.39 0.4
-2 3 22 11.37 0.33
-2 3 23 1.16 0.11
-2 3 24 1.44 0.19
-2 4 1 17.11 0.39
-2 4 2 62.07 1.38
-2 4 3 32.89 0.74
-2 4 4 0.43 0.05
-2 4 5 34.55 0.77
-2 4 6 3.81 0.13
-2 4 7 37.63 0.85
-2 4 8 0.49 0.04
-2 4 9 0.32 0.05
-2 4 10 23.98 0.55
-2 4 11 17.97 0.43
-2 4 12 0.19 0.06
-2 4 13 10.82 0.29
-2 4 14 9.11 0.28
-2 4 15 10.61 0.28
-2 4 16 14.62 0.38
-2 4 17 10.93 0.29
-2 4 18 1.09 0.1
-2 4 19 0.33 0.1
-2 4 20 2.55 0.17
-2 4 21 2.25 0.19
-2 5 1 0.29 0.06
-2 5 2 15.85 0.37
-2 5 3 3.26 0.1
-2 5 4 3.47 0.11
-2 5 5 4.11 0.13
-2 5 7 0.27 0.09
-2 5 8 1.02 0.08
-2 5 9 0.94 0.09
-2 5 10 3.03 0.13
-2 5 11 0.51 0.1
-2 5 12 0.94 0.1
-2 5 13 5.47 0.19
-2 5 14 2.42 0.14
-2 5 16 13.54 0.38
-2 5 17 0.5 0.09
-2 5 19 1.6 0.16
-2 5 20 5.18 0.22
-2 6 1 0.59 0.08
-2 6 3 15.7 0.39
-2 6 5 8.9 0.27
-2 6 7 3.59 0.23
-2 6 8 1.89 0.11
-2 6 9 2.72 0.13
-2 6 11 6.08 0.2
-2 6 12 0.67 0.11
-2 6 14 1.58 0.13
-2 6 15 5.58 0.21
-2 6 16 0.63 0.12
-2 7 1 6.28 0.25
-2 7 4 1.47 0.16
-2 7 6 3.14 0.21
-2 7 7 4.63 0.2
-2 7 8 3.71 0.21
-2 7 9 0.43 0.11
-2 7 10 1.71 0.12
-2 7 11 3.02 0.16
-2 7 12 1.28 0.33
-1 0 2 745.8 16.27
-1 0 4 836.48 17.82
-1 0 6 198.54 4.42
-1 0 8 499.2 11.57
-1 0 10 2.87 0.46
-1 0 12 115.47 2.85
-1 0 14 49.98 1.15
-1 0 16 22.51 0.56
-1 0 18 61.21 1.3
-1 0 20 44.02 0.99
-1 0 24 22.21 0.93
-1 0 26 6.23 0.3
-1 1 1 2705.18 60.36
-1 1 2 157.83 3.44
-1 1 3 348.15 7.59
-1 1 4 255.24 5.63
-1 1 5 1.01 0.08
-1 1 6 0.56 0.08
-1 1 7 424.53 9.22
-1 1 8 95.11 2.16
-1 1 9 174.84 3.85
-1 1 11 73.78 1.76
-1 1 12 88.89 2.08
-1 1 13 5.86 0.2
-1 1 14 46.33 1.03
-1 1 15 10.47 0.26
-1 1 16 6.49 0.19
-1 1 17 1.64 0.09
-1 1 18 15.55 0.39
-1 1 19 9.66 0.26
-1 1 20 2.58 0.13
-1 1 21 14.1 0.4
-1 1 22 12.43 0.38
-1 1 23 1.91 0.16
-1 1 24 0.5 0.11
-1 1 25 1.64 0.13
-1 2 1 144.06 3.24
-1 2 2 8.4 0.23
-1 2 3 177.02 3.99
-1 2 4 232.82 5.2
-1 2 5 500.47 10.72
-1 2 6 18.7 0.51
-1 2 7 1.26 0.12
-1 2 8 45.87 1.13
-1 2 9 7.51 0.29
-1 2 10 191.17 4.23
-1 2 11 74.93 1.69
-1 2 12 34.63 0.79
-1 2 13 12.46 0.31
-1 2 14 1.2 0.11
-1 2 15 12.25 0.34
-1 2 18 5.22 0.19
-1 2 19 4.21 0.17
-1 2 20 50.42 1.13
-1 2 21 0.85 0.13
-1 2 22 19.29 0.49
-1 2 24 0.37 0.11
-1 3 2 33.98 0.84
-1 3 3 13.65 0.41
-1 3 4 56.96 1.54
-1 3 5 0.67 0.13
-1 3 6 108.44 2.74
-1 3 7 1.59 0.19
-1 3 8 7.12 0.32
-1 3 9 1.01 0.07
-1 3 10 32.42 0.74
-1 3 11 41.74 0.93
-1 3 12 0.19 0.05
-1 3 13 1.23 0.12
-1 3 14 26.87 0.62
-1 3 15 6.02 0.19
-1 3 16 116.8 2.51
-1 3 17 11.7 0.32
-1 3 18 1.18 0.11
-1 3 19 4.2 0.22
-1 3 21 13.42 0.37
-1 3 22 5.29 0.2
-1 3 23 2.18 0.14
-1 3 24 13.82 0.38
-1 4 1 6.09 0.16
-1 4 2 9.69 0.23
-1 4 4 0.36 0.04
-1 4 5 62.32 1.39
-1 4 6 83.36 1.83
-1 4 7 29.26 0.66
-1 4 8 7.54 0.19
-1 4 9 1.21 0.06
-1 4 11 2.83 0.1
-1 4 12 21.02 0.49
-1 4 13 0.31 0.08
-1 4 14 3.33 0.14
-1 4 15 38.47 0.9
-1 4 16 4.04 0.18
-1 4 17 9.77 0.3
-1 4 19 0.57 0.11
-1 4 20 10.23 0.31
-1 4 21 2.53 0.15
-1 4 22 0.96 0.13
-1 5 1 10.21 0.28
-1 5 2 72.05 1.59
-1 5 3 1.24 0.08
-1 5 4 4.96 0.14
-1 5 5 0.25 0.05
-1 5 6 32.18 0.74
-1 5 7 0.87 0.1
-1 5 8 0.65 0.07
-1 5 9 6.8 0.2
-1 5 10 14.53 0.37
-1 5 11 1.48 0.1
-1 5 12 13.99 0.36
-1 5 14 1.89 0.11
-1 5 15 1.09 0.1
-1 5 17 0.33 0.09
-1 5 19 0.48 0.12
-1 6 1 2.31 0.11
-1 6 2 6.8 0.22
-1 6 4 1.89 0.1
-1 6 5 0.87 0.08
-1 6 6 9.01 0.28
-1 6 7 9.36 0.27
-1 6 8 2.42 0.12
-1 6 10 0.5 0.09
-1 6 13 3.22 0.16
-1 6 15 5.75 0.2
-1 6 16 0.46 0.1
-1 6 17 1.76 0.23
-1 7 1 1.51 0.11
-1 7 3 3.31 0.16
-1 7 4 3.42 0.26
-1 7 6 3.65 0.29
-1 7 8 0.41 0.1
-1 7 11 4.85 0.19
0 0 2 149.77 3.39
0 0 4 71.98 1.64
0 0 6 998.31 21.37
0 0 8 292.78 6.38
0 0 10 407.55 8.42
0 0 12 13.02 0.63
0 0 14 53.67 1.22
0 0 16 11.09 0.33
0 0 18 0.48 0.13
0 0 20 10.6 0.34
0 0 22 16.38 0.9
0 0 24 1.52 0.22
0 1 1 470.69 10.51
0 1 2 93.05 2.03
0 1 3 18.47 0.44
0 1 4 1465.31 32.22
0 1 5 70.76 1.64
0 1 6 310.98 6.79
0 1 7 35.71 0.86
0 1 8 27.49 0.69
0 1 9 37.6 0.92
0 1 10 149.51 3.33
0 1 11 214.24 4.67
0 1 13 26.61 0.63
0 1 14 9.04 0.25
0 1 15 3.78 0.15
0 1 16 3.42 0.16
0 1 17 20.35 0.51
0 1 18 26.07 0.68
0 1 19 51.62 1.14
0 1 20 3.01 0.15
0 1 21 17.08 0.44
0 1 22 4.06 0.27
0 1 23 11.02 0.33
0 1 24 4.46 0.18
0 1 25 0.93 0.11
0 2 0 14.15 0.38
0 2 1 77.34 1.73
0 2 2 133.74 2.93
0 2 4 189.25 4.32
0 2 5 49.91 1.15
0 2 6 5.8 0.23
0 2 7 140.21 3.12
0 2 9 55.17 1.47
0 2 10 26.18 0.75
0 2 11 1.35 0.08
0 2 12 16.78 0.4
0 2 13 10.17 0.26
0 2 14 58.1 1.29
0 2 15 99.28 2.15
0 2 16 2.54 0.14
0 2 18 12.01 0.34
0 2 19 11.88 0.34
0 2 20 26.65 0.66
0 2 21 13.56 0.36
0 2 23 4 0.17
0 2 24 7.6 0.26
0 2 25 8.79 0.61
0 3 1 51.86 1.22
0 3 2 116.63 2.57
0 3 3 87.66 2.14
0 3 4 56.51 1.54
0 3 5 15.79 0.58
0 3 8 100.5 2.26
0 3 9 41.91 0.99
0 3 10 1.15 0.07
0 3 11 1.46 0.1
0 3 12 7.08 0.2
0 3 14 28.52 0.66
0 3 15 0.39 0.09
0 3 16 1.05 0.09
0 3 17 5.06 0.22
0 3 18 4.57 0.22
0 3 19 0.34 0.1
0 3 20 12.45 0.36
0 3 21 2.77 0.16
0 3 22 4.36 0.19
0 4 0 2.91 0.15
0 4 1 12.25 0.3
0 4 2 58.99 1.32
0 4 3 4.12 0.11
0 4 4 12.31 0.3
0 4 5 76.94 1.69
0 4 6 6.57 0.18
0 4 8 5.56 0.16
0 4 9 6.38 0.17
0 4 10 16.53 0.39
0 4 11 0.53 0.06
0 4 12 24.24 0.56
0 4 13 6 0.19
0 4 15 26.14 0.62
0 4 16 17.11 0.43
0 4 17 0.85 0.1
0 4 18 2.27 0.15
0 4 19 3.53 0.19
0 4 20 3.96 0.22
0 4 22 1.09 0.2
0 5 2 7.53 0.2
0 5 3 1.13 0.07
0 5 4 24.68 0.57
0 5 5 2.91 0.12
0 5 6 74.32 1.63
0 5 8 6.62 0.2
0 5 9 0.31 0.07
0 5 11 3.75 0.17
0 5 12 7.85 0.23
0 5 13 0.8 0.1
0 5 14 14.35 0.39
0 5 15 1.49 0.12
0 5 16 23.75 0.58
0 5 18 0.98 0.11
0 5 19 1.72 0.18
0 6 0 17.49 0.46
0 6 1 5.46 0.18
0 6 2 9.67 0.27
0 6 3 3.72 0.14
0 6 4 0.6 0.09
0 6 5 27.74 0.65
0 6 8 0.73 0.11
0 6 9 0.43 0.1
0 6 10 11.65 0.31
0 6 11 1.23 0.1
0 6 12 4.98 0.18
0 6 13 4.72 0.19
0 6 15 1.49 0.12
0 6 16 2.16 0.15
0 7 1 8.27 0.3
0 7 3 0.48 0.15
0 7 5 1 0.13
0 7 8 0.95 0.11
0 7 9 6.94 0.23
0 7 10 1.78 0.21
0 7 11 0.63 0.12
1 0 0 375.87 11.74
1 0 2 10.85 0.32
1 0 4 1749.79 41.56
1 0 6 220.08 4.83
1 0 8 70.94 1.77
1 0 10 684.17 15.58
1 0 12 6.3 0.33
1 0 14 86.76 1.88
1 0 16 12.81 1.02
1 0 18 87.73 1.91
1 0 20 91.28 2.05
1 0 22 4.13 0.25
1 0 24 1.39 0.18
1 1 0 1550.65 33.87
1 1 1 38.92 0.87
1 1 2 432.17 9.38
1 1 3 792.97 17.22
1 1 4 67.98 1.53
1 1 5 113.86 2.54
1 1 6 213.26 4.69
1 1 7 18.24 0.5
1 1 8 92.92 2.11
1 1 9 191.36 4.37
1 1 10 73.81 1.72
1 1 12 2 0.14
1 1 13 6.98 0.33
1 1 14 127.84 2.81
1 1 15 4.2 0.16
1 1 16 23.42 0.56
1 1 17 3.91 0.16
1 1 18 4.25 0.18
1 1 19 11.89 0.34
1 1 20 5.15 0.21
1 1 21 9.8 0.33
1 1 22 2.75 0.17
1 1 23 7.89 0.31
1 1 24 14.63 0.41
1 1 25 2.52 0.29
1 2 0 328.34 7.26
1 2 1 270.47 5.91
1 2 3 365.13 7.98
1 2 4 19.99 0.48
1 2 5 93.41 2.08
1 2 6 164.98 3.64
1 2 7 83.16 1.89
1 2 8 5.99 0.26
1 2 9 7.28 0.31
1 2 10 4.7 0.2
1 2 11 8.79 0.24
1 2 12 14.47 0.35
1 2 13 27.36 0.63
1 2 14 6.71 0.21
1 2 15 0.95 0.11
1 2 16 5.42 0.19
1 2 17 4.23 0.2
1 2 19 6.05 0.22
1 2 20 0.64 0.12
1 2 21 2.52 0.15
1 2 22 11.59 0.38
1 2 23 0.94 0.13
1 2 24 10.06 0.36
1 3 0 19.5 0.56
1 3 1 32.71 0.86
1 3 2 48.28 1.18
1 3 4 8.19 0.34
1 3 5 22.16 1.1
1 3 6 44.13 1.2
1 3 7 18.89 0.54
1 3 8 25.74 0.59
1 3 9 10.21 0.26
1 3 10 0.7 0.06
1 3 11 14.94 0.37
1 3 12 34.47 0.79
1 3 13 28.69 0.66
1 3 14 15.26 0.38
1 3 15 0.91 0.1
1 3 17 1.73 0.17
1 3 18 37.01 0.87
1 3 19 15.18 0.45
1 3 21 1.01 0.23
1 3 23 2.2 0.14
1 4 0 18.21 0.42
1 4 1 0.59 0.05
1 4 2 56.61 1.25
1 4 3 14.7 0.35
1 4 4 2.88 0.1
1 4 5 52.8 1.17
1 4 6 8.14 0.2
1 4 7 1.29 0.07
1 4 8 58.94 1.31
1 4 9 12.12 0.3
1 4 11 1.32 0.1
1 4 12 1.42 0.08
1 4 13 8.2 0.24
1 4 14 1.83 0.11
1 4 15 18.39 0.5
1 4 16 12.69 0.34
1 4 17 4.17 0.17
1 4 18 0.94 0.17
1 4 19 4.69 0.29
1 4 20 2.55 0.16
1 5 0 4.48 0.15
1 5 2 12.03 0.3
1 5 3 0.55 0.07
1 5 4 91.03 1.98
1 5 5 4.31 0.14
1 5 7 0.74 0.2
1 5 8 7.64 0.22
1 5 9 0.76 0.08
1 5 10 2.25 0.11
1 5 11 0.74 0.11
1 5 12 22.58 0.54
1 5 13 0.5 0.09
1 5 14 19.66 0.49
1 5 16 6.76 0.23
1 6 0 6.5 0.2
1 6 1 5.55 0.18
1 6 2 2.73 0.13
1 6 3 0.6 0.07
1 6 4 5.33 0.17
1 6 5 11.54 0.3
1 6 6 3.77 0.14
1 6 8 12.55 0.34
1 6 9 11.16 0.31
1 6 10 6.41 0.22
1 6 13 2.4 0.15
1 6 14 0.65 0.12
1 6 15 11.47 0.42
1 6 16 1.42 0.17
1 7 0 1.87 0.13
1 7 1 1.48 0.12
1 7 2 0.51 0.13
1 7 3 0.41 0.1
1 7 4 1.36 0.16
1 7 5 3.44 0.16
1 7 9 4.33 0.19
1 7 11 1.94 0.2
2 0 0 25.76 0.65
2 0 2 3247.96 66.24
2 0 4 8.37 0.34
2 0 6 4.35 0.2
2 0 8 105.19 2.34
2 0 10 34.71 1.02
2 0 12 77.54 2.3
2 0 14 100.88 2.18
2 0 16 36.81 0.83
2 0 18 5.5 0.51
2 0 20 19.47 0.6
2 0 22 15.99 0.94
2 0 24 36.97 1.82
2 1 0 366.4 7.97
2 1 1 68.58 1.53
2 1 2 2.63 0.13
2 1 3 466.7 10.15
2 1 4 9.13 0.28
2 1 5 20.98 0.57
2 1 6 423.1 9.01
2 1 7 30.45 0.86
2 1 8 46.98 1.15
2 1 9 180.3 3.98
2 1 10 43.4 1.07
2 1 11 1.74 0.09
2 1 12 24.65 0.63
2 1 13 120.03 2.63
2 1 14 3.28 0.14
2 1 15 5.42 0.19
2 1 16 0.59 0.12
2 1 17 4.47 0.21
2 1 18 21.64 0.77
2 1 19 34.46 0.82
2 1 20 25.93 0.71
2 1 21 9.05 0.38
2 1 22 0.66 0.19
2 1 23 7.13 0.32
2 1 24 8.77 0.37
2 2 0 521.93 11.15
2 2 1 1.73 0.1
2 2 2 2.92 0.11
2 2 3 17.49 0.44
2 2 4 1.09 0.09
2 2 5 156.24 3.42
2 2 6 10.26 0.35
2 2 7 58.01 1.38
2 2 8 54.7 1.39
2 2 9 79.37 2
2 2 10 76.87 1.69
2 2 11 31.64 0.73
2 2 12 0.38 0.05
2 2 13 36.33 0.82
2 2 14 1.63 0.12
2 2 15 12.94 0.33
2 2 16 12.98 0.44
2 2 17 46.92 1.05
2 2 18 1.84 0.2
2 2 20 1.71 0.16
2 2 22 3.08 0.25
2 2 23 11.07 0.36
2 3 0 13.62 0.47
2 3 1 30.13 0.83
2 3 2 92.78 2.12
2 3 3 4.27 0.22
2 3 4 225.05 4.98
2 3 5 7.98 0.39
2 3 6 2.47 0.13
2 3 7 30.17 0.69
2 3 8 1.72 0.08
2 3 9 1.4 0.07
2 3 10 2.35 0.12
2 3 11 0.34 0.06
2 3 12 3.87 0.19
2 3 14 8.31 0.25
2 3 15 4.97 0.2
2 3 16 3.7 0.16
2 3 18 1.41 0.15
2 3 19 0.67 0.16
2 3 20 0.54 0.16
2 3 21 1.67 0.22
2 3 22 4.76 0.22
2 4 0 12.65 0.3
2 4 2 2.08 0.07
2 4 3 55.83 1.26
2 4 4 54.67 1.2
2 4 5 18.79 0.44
2 4 6 3.46 0.12
2 4 7 18.24 0.43
2 4 8 5.14 0.17
2 4 9 6.86 0.2
2 4 10 1.41 0.11
2 4 12 35.29 0.8
2 4 13 11.91 0.35
2 4 14 7.81 0.25
2 4 15 5.73 0.21
2 4 17 6.26 0.27
2 4 18 11.44 0.38
2 4 19 3.53 0.2
2 5 0 11.68 0.29
2 5 1 3.79 0.12
2 5 2 1.74 0.08
2 5 3 1.37 0.09
2 5 4 2.88 0.13
2 5 5 1.22 0.07
2 5 6 1.71 0.09
2 5 7 0.25 0.07
2 5 8 71.35 1.57
2 5 9 5.67 0.22
2 5 10 3.45 0.21
2 5 12 0.73 0.11
2 5 13 1.62 0.13
2 5 14 18.58 0.48
2 5 15 0.9 0.13
2 5 16 6.87 0.23
2 5 18 15.35 0.48
2 6 0 0.74 0.09
2 6 1 0.58 0.12
2 6 2 7.13 0.22
2 6 3 12.77 0.38
2 6 4 6.8 0.23
2 6 6 0.57 0.1
2 6 7 5.37 0.2
2 6 8 0.67 0.11
2 6 11 3.05 0.15
2 6 12 7.83 0.26
2 6 13 0.47 0.12
2 6 14 4.56 0.22
2 7 0 1.26 0.14
2 7 1 1.85 0.15
2 7 2 0.34 0.11
2 7 3 2.16 0.2
2 7 4 4.33 0.19
2 7 6 2.03 0.15
2 7 7 2.88 0.21
3 0 0 395.94 8.35
3 0 2 187.46 4.26
3 0 4 21.23 0.73
3 0 6 570.84 11.2
3 0 8 10.78 0.84
3 0 10 1.41 0.15
3 0 12 279.46 5.83
3 0 14 3.8 0.19
3 0 16 11.04 0.67
3 0 18 10.59 0.67
3 0 20 37.64 1.29
3 0 22 35.6 1.25
3 1 0 110.87 2.47
3 1 1 437.25 9.48
3 1 2 441.84 9.55
3 1 3 41.01 0.96
3 1 4 11.12 0.34
3 1 5 5.28 0.2
3 1 6 4.86 0.21
3 1 7 28.47 0.76
3 1 8 38.89 0.95
3 1 9 1.01 0.11
3 1 10 86.41 1.93
3 1 11 13.5 0.33
3 1 12 10.96 0.28
3 1 13 35.96 0.82
3 1 14 0.46 0.09
3 1 15 2.96 0.18
3 1 16 58.34 1.25
3 1 17 1.3 0.15
3 1 18 2.77 0.2
3 1 19 7.65 0.33
3 1 21 4.3 0.23
3 1 22 0.74 0.2
3 1 23 24.11 0.67
3 2 0 1.73 0.16
3 2 1 8.15 0.26
3 2 2 279.79 6
3 2 3 103.39 2.29
3 2 4 92.97 2.08
3 2 5 63.51 1.49
3 2 6 45.26 1.21
3 2 7 3.36 0.2
3 2 8 104.86 2.32
3 2 9 2.37 0.1
3 2 10 11.3 0.28
3 2 11 9.42 0.24
3 2 12 21.73 0.51
3 2 13 2.88 0.12
3 2 14 7.77 0.23
3 2 15 1.28 0.11
3 2 16 2.27 0.17
3 2 17 7.75 0.31
3 2 18 20.75 0.54
3 2 19 15.05 0.43
3 2 20 6.55 0.28
3 2 21 5.52 0.26
3 2 22 2.16 0.22
3 2 23 1.38 0.35
3 3 0 73.24 1.74
3 3 1 1.92 0.3
3 3 2 20.78 0.59
3 3 3 101.88 2.3
3 3 4 110.11 2.42
3 3 6 20.18 0.47
3 3 7 2.03 0.08
3 3 8 117.1 2.57
3 3 9 34.55 0.8
3 3 10 0.23 0.06
3 3 11 15.87 0.39
3 3 12 33.19 0.75
3 3 13 12.04 0.32
3 3 14 49.19 1.09
3 3 15 4.26 0.17
3 3 16 8.39 0.36
3 3 17 7.25 0.39
3 3 18 2.14 0.25
3 3 19 0.59 0.16
3 3 21 3.15 0.24
3 4 0 6.08 0.16
3 4 1 0.35 0.06
3 4 2 2.35 0.09
3 4 3 18.39 0.43
3 4 4 37.83 0.85
3 4 7 55.45 1.21
3 4 8 20.59 0.54
3 4 9 10.05 0.3
3 4 10 10.89 0.3
3 4 12 1.65 0.12
3 4 13 13.17 0.37
3 4 14 2.99 0.19
3 4 16 2.41 0.15
3 4 17 16.42 0.45
3 4 18 10.03 0.62
3 4 19 0.85 0.18
3 5 0 17.3 0.41
3 5 1 8.99 0.24
3 5 2 2.97 0.12
3 5 5 1.63 0.1
3 5 6 15.61 0.45
3 5 7 4.69 0.19
3 5 8 1.5 0.12
3 5 12 1.6 0.13
3 5 14 1.63 0.29
3 5 15 1.79 0.15
3 5 16 4.25 0.21
3 6 1 0.91 0.09
3 6 2 1.31 0.11
3 6 3 0.56 0.08
3 6 4 1.19 0.13
3 6 5 3.28 0.18
3 6 6 0.92 0.12
3 6 7 13.81 0.39
3 6 9 0.98 0.16
3 6 10 2.02 0.14
3 6 11 2.28 0.15
3 6 12 2.68 0.15
3 6 13 3.91 0.17
3 7 0 1.24 0.13
3 7 2 3.56 0.2
3 7 3 4.67 0.24
3 7 4 0.72 0.13
3 7 6 0.78 0.12
3 7 8 0.95 0.13
3 7 9 2.01 0.34
4 0 0 44.25 1.11
4 0 4 38.83 0.99
4 0 6 13.52 0.55
4 0 8 1.24 0.24
4 0 10 4.2 0.2
4 0 12 3 0.15
4 0 16 49.4 1.2
4 0 22 31.58 1.16
4 1 0 2.31 0.11
4 1 1 153.82 3.48
4 1 2 186.55 4.07
4 1 3 208.61 4.53
4 1 4 2.73 0.16
4 1 5 90.89 2.05
4 1 6 40.88 1
4 1 7 8.45 0.3
4 1 8 28.45 0.67
4 1 9 20.97 0.49
4 1 10 0.3 0.07
4 1 11 128.69 2.82
4 1 12 11.52 0.31
4 1 13 6.22 0.21
4 1 14 2.42 0.24
4 1 15 9.6 0.29
4 1 16 3.21 0.18
4 1 17 8.95 0.29
4 1 19 1.1 0.17
4 1 20 18.17 0.57
4 1 21 14.54 0.55
4 1 22 4.81 0.31
4 2 0 121 2.74
4 2 1 75.19 1.74
4 2 2 301.36 6.6
4 2 3 54.93 1.31
4 2 4 15.77 0.5
4 2 5 0.42 0.12
4 2 6 7.04 0.22
4 2 7 157.16 3.43
4 2 8 0.65 0.06
4 2 9 14.05 0.34
4 2 10 41.62 0.94
4 2 11 1.26 0.08
4 2 12 102.02 2.2
4 2 13 27.28 0.63
4 2 14 10.88 0.34
4 2 15 26.5 0.72
4 2 16 2.55 0.16
4 2 17 5.21 0.34
4 2 18 5.56 0.25
4 2 19 2.83 0.22
4 2 20 2.82 0.54
4 2 21 2.56 0.2
4 3 0 5.47 0.19
4 3 1 37.51 0.9
4 3 2 1.02 0.06
4 3 3 1.34 0.06
4 3 4 49.09 1.1
4 3 5 3.41 0.11
4 3 6 107.48 2.36
4 3 8 54.49 1.22
4 3 9 6.25 0.19
4 3 10 9.86 0.27
4 3 11 0.43 0.07
4 3 13 12.94 0.34
4 3 16 23.19 0.66
4 3 17 3.01 0.17
4 3 18 33.2 0.79
4 3 19 2.4 0.19
4 4 0 66.5 1.48
4 4 1 0.64 0.05
4 4 2 0.68 0.05
4 4 3 2.82 0.1
4 4 4 1.6 0.08
4 4 5 20.33 0.5
4 4 6 13.52 0.36
4 4 7 40.98 0.98
4 4 8 20.8 0.53
4 4 9 0.9 0.13
4 4 10 1.26 0.15
4 4 11 0.61 0.13
4 4 13 0.4 0.11
4 4 14 20.55 0.59
4 4 15 5.28 0.24
4 4 17 18.35 0.94
4 5 1 2.15 0.11
4 5 2 0.78 0.09
4 5 3 3.38 0.13
4 5 4 22.44 0.53
4 5 5 2.15 0.13
4 5 6 9.4 0.29
4 5 8 2.16 0.21
4 5 10 14.62 0.4
4 5 11 7.51 0.28
4 5 12 2.01 0.14
4 5 16 7.96 0.44
4 6 0 0.69 0.13
4 6 1 3.77 0.14
4 6 2 0.57 0.08
4 6 3 0.59 0.09
4 6 5 2.68 0.15
4 6 7 0.95 0.13
4 6 8 1.95 0.15
4 6 9 1.51 0.18
4 7 1 4.85 0.21
4 7 5 0.8 0.17
4 7 6 6.29 0.25
4 7 7 0.64 0.14
5 0 0 62.19 1.51
5 0 2 666.77 13.89
5 0 4 11.89 0.53
5 0 6 6.3 0.26
5 0 8 146.73 3.15
5 0 10 72.34 1.53
5 0 12 17.29 0.46
5 0 14 16.08 0.51
5 0 16 15.41 0.47
5 0 18 1.23 0.36
5 0 20 1.51 0.38
5 1 0 0.47 0.12
5 1 1 108.21 2.43
5 1 2 58.2 1.43
5 1 3 1.76 0.17
5 1 4 39.57 0.99
5 1 5 0.78 0.12
5 1 6 81.98 1.81
5 1 7 5.04 0.14
5 1 8 1.53 0.12
5 1 9 1.95 0.1
5 1 10 0.68 0.13
5 1 11 29.63 0.72
5 1 12 55.47 1.21
5 1 13 16.5 0.43
5 1 15 18.25 0.55
5 1 18 5.46 0.25
5 1 19 0.94 0.22
5 1 20 1.12 0.19
5 1 21 24.09 0.98
5 2 0 24.13 0.66
5 2 1 25.7 0.81
5 2 2 3.36 0.31
5 2 3 24.43 0.6
5 2 4 61.21 1.34
5 2 5 15.33 0.37
5 2 6 49.24 1.1
5 2 7 4.32 0.16
5 2 8 13.69 0.34
5 2 9 10.74 0.28
5 2 10 40.1 0.9
5 2 11 10.37 0.3
5 2 12 21.52 0.56
5 2 14 5.71 0.24
5 2 16 12.06 0.38
5 2 17 26.14 0.67
5 2 18 2.46 0.49
5 2 19 2.77 0.22
5 2 20 17.79 0.55
5 3 0 122.78 2.71
5 3 1 26.7 0.6
5 3 2 5.32 0.14
5 3 3 4.51 0.13
5 3 4 3.94 0.12
5 3 5 40.78 0.91
5 3 6 91.56 2.03
5 3 7 4.62 0.15
5 3 8 3.14 0.13
5 3 9 0.4 0.07
5 3 10 37.92 0.89
5 3 11 21.47 0.52
5 3 12 0.81 0.09
5 3 13 4.13 0.25
5 3 14 29.22 0.7
5 3 15 0.82 0.14
5 3 16 33.22 0.81
5 3 19 3.99 0.37
5 4 0 8.76 0.22
5 4 1 4.45 0.14
5 4 3 1.19 0.07
5 4 4 26.03 0.6
5 4 5 18.72 0.45
5 4 6 8.6 0.26
5 4 7 18.57 0.45
5 4 9 7.7 0.25
5 4 10 15.7 0.41
5 4 11 2.61 0.13
5 4 12 0.58 0.09
5 4 14 2.24 0.15
5 4 15 11.95 0.35
5 4 16 1.11 0.22
5 4 17 5 0.23
5 5 0 5.13 0.16
5 5 2 4.76 0.16
5 5 3 1.16 0.09
5 5 4 3.09 0.13
5 5 6 6.24 0.22
5 5 7 1.37 0.13
5 5 8 7.37 0.25
5 5 14 3.19 0.22
5 6 0 6.89 0.22
5 6 1 4.66 0.17
5 6 2 4.03 0.17
5 6 3 1.89 0.13
5 6 4 1.72 0.13
5 6 5 7.7 0.26
5 6 6 2.82 0.18
5 6 7 11.76 0.35
5 6 8 0.69 0.11
5 6 9 1.93 0.16
5 7 0 1.55 0.14
5 7 1 8.63 0.32
5 7 2 1.51 0.14
5 7 3 1.92 0.29
6 0 0 234.94 5.05
6 0 2 29.68 0.89
6 0 4 1.45 0.09
6 0 6 42.85 0.97
6 0 8 15.28 0.41
6 0 10 32.76 0.75
6 0 12 94.53 1.96
6 0 14 4.49 0.24
6 0 16 1.96 0.18
6 0 18 12.57 0.7
6 0 20 23.01 0.97
6 1 0 0.53 0.11
6 1 1 188.27 4.49
6 1 2 60.97 1.36
6 1 3 22.7 0.53
6 1 4 55.63 1.23
6 1 5 59.25 1.31
6 1 6 20.86 0.49
6 1 7 12.11 0.31
6 1 8 42.46 0.96
6 1 9 34.93 0.8
6 1 11 32.41 0.77
6 1 12 0.62 0.12
6 1 13 14.62 0.42
6 1 15 1.99 0.18
6 1 16 25.27 0.67
6 1 18 3.03 0.19
6 1 19 5.75 0.3
6 2 1 9.68 0.24
6 2 3 13.38 0.32
6 2 4 48.13 1.06
6 2 5 98.59 2.19
6 2 6 2.19 0.11
6 2 7 0.97 0.09
6 2 8 5.17 0.28
6 2 9 33.8 0.77
6 2 10 1.38 0.16
6 2 11 5.54 0.25
6 2 12 3.32 0.19
6 2 13 7.14 0.27
6 2 14 34.29 0.84
6 2 15 15.38 0.48
6 2 16 7.01 0.36
6 2 17 1.48 0.25
6 2 18 0.62 0.16
6 3 2 0.82 0.06
6 3 3 0.65 0.06
6 3 4 0.18 0.05
6 3 7 5.22 0.17
6 3 8 6.05 0.2
6 3 9 3.19 0.17
6 3 10 32.43 0.81
6 3 11 1.74 0.14
6 3 12 1.4 0.18
6 3 15 12.24 0.43
6 3 16 5.46 0.41
6 3 17 0.67 0.22
6 3 18 7.42 0.38
6 4 0 16.56 0.39
6 4 2 25.91 0.6
6 4 4 6.07 0.19
6 4 5 14.66 0.37
6 4 6 0.79 0.11
6 4 7 1.83 0.13
6 4 9 7.43 0.26
6 4 10 18.44 0.48
6 4 11 1.38 0.12
6 4 14 2.85 0.2
6 4 15 4.88 0.25
6 4 16 3.59 0.28
6 5 0 26.21 0.64
6 5 1 4.22 0.19
6 5 3 0.65 0.11
6 5 4 15.05 0.4
6 5 6 46.2 1.15
6 5 7 2.9 0.24
6 5 8 0.71 0.15
6 5 9 1.33 0.15
6 5 13 1.62 0.21
6 6 0 11.5 0.37
6 6 1 2.15 0.12
6 6 2 4.8 0.18
6 6 3 5.34 0.21
6 6 5 0.86 0.25
6 6 7 1.8 0.13
6 6 8 0.86 0.11
6 7 0 1.76 0.34
7 0 0 109.15 2.37
7 0 2 35.59 0.81
7 0 4 270.41 5.85
7 0 6 1.06 0.11
7 0 8 44.32 0.97
7 0 10 58.99 1.23
7 0 12 18.09 0.55
7 0 14 11.89 0.47
7 0 16 8.47 0.41
7 0 18 16.77 0.82
7 1 0 83.01 1.84
7 1 1 1.1 0.07
7 1 2 0.12 0.04
7 1 3 7.61 0.19
7 1 4 34.69 0.79
7 1 5 40.13 0.9
7 1 6 0.89 0.09
7 1 7 1.41 0.09
7 1 8 46.91 1.06
7 1 10 3.22 0.18
7 1 11 16.46 0.47
7 1 12 15.17 0.44
7 1 13 15.69 0.48
7 1 14 22.78 1.19
7 1 15 22.56 0.89
7 1 17 3.12 0.29
7 2 0 35.8 0.8
7 2 1 10.94 0.27
7 2 2 6.42 0.17
7 2 3 4.68 0.15
7 2 4 0.49 0.06
7 2 5 0.77 0.09
7 2 6 6.14 0.2
7 2 7 3.19 0.12
7 2 8 7.18 0.24
7 2 9 20.71 0.55
7 2 10 0.84 0.12
7 2 11 9.81 0.33
7 2 13 4.21 0.28
7 2 14 6.48 0.43
7 2 15 11 0.45
7 2 16 0.95 0.21
7 3 0 0.52 0.06
7 3 1 28.48 0.65
7 3 2 22.45 0.53
7 3 3 15.26 0.37
7 3 4 14.65 0.39
7 3 5 1.04 0.11
7 3 6 6.62 0.21
7 3 7 3.32 0.14
7 3 8 12.66 0.35
7 3 9 9.71 0.28
7 3 10 2.31 0.17
7 3 12 3.03 0.18
7 3 13 1.75 0.17
7 3 16 2.69 0.23
7 4 0 9.56 0.25
7 4 1 1.4 0.09
7 4 2 1.39 0.16
7 4 3 0.93 0.09
7 4 4 2.45 0.18
7 4 5 20.31 0.5
7 4 6 30.77 0.72
7 4 9 10.41 0.39
7 4 12 5.07 0.28
7 4 14 7.63 0.6
7 5 0 13.41 0.39
7 5 2 12.69 0.34
7 5 3 1.5 0.11
7 5 4 2.64 0.14
7 5 6 0.92 0.12
7 5 8 3.36 0.18
7 5 10 20.21 0.8
7 5 11 1.26 0.16
7 6 0 0.73 0.12
7 6 2 2.2 0.14
7 6 4 3.72 0.37
7 6 5 3.77 0.2
7 6 6 3.1 0.17
7 6 7 3.18 0.42
8 0 0 27.01 0.63
8 0 2 14.71 0.42
8 0 4 64.59 1.37
8 0 6 4.77 0.18
8 0 8 28.94 0.69
8 0 10 0.56 0.19
8 0 12 25.18 0.72
8 0 14 81.36 2.22
8 0 16 1.31 0.39
8 1 1 0.44 0.07
8 1 2 2.25 0.09
8 1 3 84.68 1.87
8 1 4 33.15 0.75
8 1 6 4.02 0.2
8 1 8 19.49 0.56
8 1 9 8.75 0.29
8 1 10 18.59 0.57
8 1 11 6.17 0.39
8 1 12 4.67 0.37
8 1 13 10.64 0.39
8 1 15 1.62 0.34
8 2 0 41.87 0.94
8 2 1 21.8 0.5
8 2 3 5.13 0.17
8 2 4 14.71 0.37
8 2 5 7.34 0.21
8 2 7 36.06 0.82
8 2 8 4.42 0.2
8 2 10 15.19 0.49
8 2 11 0.38 0.12
8 2 13 3.68 0.21
8 2 15 2.75 0.23
8 2 16 2.15 0.21
8 3 0 17.47 0.42
8 3 2 9.68 0.26
8 3 3 0.83 0.14
8 3 4 10.64 0.28
8 3 5 17.85 0.44
8 3 6 14.36 0.39
8 3 8 3.81 0.19
8 3 10 2.64 0.23
8 3 11 5.2 0.28
8 3 12 3.44 0.28
8 3 13 6.94 0.37
8 3 14 5.75 0.3
8 4 1 2.31 0.12
8 4 2 14.15 0.37
8 4 3 2.49 0.18
8 4 4 2.48 0.12
8 4 5 2.76 0.13
8 4 6 3.78 0.15
8 4 7 4.58 0.21
8 4 9 12.51 0.4
8 4 10 6.06 0.27
8 4 12 5.51 0.26
8 5 0 1.15 0.11
8 5 2 6.59 0.3
8 5 3 3.86 0.17
8 5 4 0.71 0.1
8 5 6 6.81 0.26
8 5 7 2.03 0.17
8 5 8 20.74 0.54
8 5 9 2.93 0.28
8 6 1 0.63 0.19
8 6 2 4.74 0.19
8 6 3 1.41 0.28
9 0 0 17.24 0.44
9 0 2 46.75 1.08
9 0 4 4.67 0.19
9 0 6 26.79 0.73
9 0 10 13.7 0.52
9 0 12 8.49 0.46
9 1 0 33.29 0.78
9 1 2 4.72 0.15
9 1 3 26.21 0.61
9 1 4 2.77 0.14
9 1 5 5.78 0.19
9 1 6 7.66 0.23
9 1 7 13.21 0.38
9 1 8 1.67 0.16
9 1 9 2.18 0.18
9 1 10 9.4 0.43
9 1 12 0.62 0.14
9 1 13 27.52 0.68
9 1 14 9.71 0.44
9 2 0 1.68 0.11
9 2 1 3.76 0.13
9 2 2 36.34 0.83
9 2 3 5.02 0.24
9 2 4 36.25 0.85
9 2 5 2.96 0.14
9 2 6 3.15 0.14
9 2 7 1.62 0.17
9 2 8 1.87 0.17
9 2 9 15.52 0.46
9 2 10 1.84 0.31
9 2 11 8.9 0.33
9 2 12 6.06 0.28
9 2 14 7.17 0.38
9 3 0 2.16 0.13
9 3 1 6.83 0.21
9 3 2 2.47 0.12
9 3 3 14.26 0.38
9 3 4 6.72 0.2
9 3 5 1.18 0.12
9 3 6 16.06 0.41
9 3 8 16.15 0.49
9 3 10 3.03 0.2
9 3 11 3.2 0.21
9 3 12 4.63 0.25
9 4 1 2.31 0.12
9 4 2 12.6 0.34
9 4 5 0.4 0.09
9 4 6 5.09 0.18
9 4 7 18.02 0.47
9 4 8 12.36 0.36
9 4 9 5.3 0.25
9 5 1 0.83 0.16
9 5 2 3.94 0.19
9 5 3 1.37 0.12
9 5 4 0.93 0.29
9 5 5 0.86 0.15
10 0 0 7.46 0.43
10 0 2 2.91 0.22
10 0 4 14.97 0.44
10 0 6 17.29 0.47
10 0 8 1.08 0.13
10 0 10 12 0.49
10 0 12 11.6 0.55
10 1 0 9.91 0.27
10 1 1 31.77 0.73
10 1 3 8.48 0.24
10 1 4 9.8 0.28
10 1 5 3.55 0.14
10 1 6 7.89 0.23
10 1 8 1.16 0.17
10 1 9 1.16 0.14
10 1 10 5.49 0.24
10 1 11 3.93 0.21
10 2 0 8.99 0.27
10 2 1 1.59 0.11
10 2 2 28.57 0.67
10 2 3 7.9 0.24
10 2 4 1.58 0.1
10 2 5 10.22 0.29
10 2 6 7.35 0.23
10 2 7 3.79 0.16
10 2 8 3.47 0.19
10 2 10 6.28 0.26
10 2 11 1.36 0.17
10 3 0 0.49 0.09
10 3 1 1.22 0.12
10 3 2 18.6 0.46
10 3 3 3.99 0.16
10 3 4 3.26 0.16
10 3 6 13.63 0.36
10 3 7 11.64 0.33
10 3 8 25.2 0.76
10 3 9 0.57 0.13
10 3 10 1.01 0.29
10 4 0 2.57 0.13
10 4 1 4.8 0.19
10 4 3 1.6 0.12
10 4 4 3.12 0.18
10 4 5 1.05 0.12
10 4 6 0.69 0.12
10 4 7 7.12 0.58
10 5 0 1.77 0.22
10 5 1 2.35 0.16
11 0 0 32.25 0.8
11 0 2 24.64 0.62
11 0 6 2.56 0.19
11 1 1 4.13 0.19
11 1 2 7.99 0.29
11 1 3 11.3 0.37
11 1 4 1.68 0.12
11 1 5 12.63 0.36
11 1 6 3.53 0.16
11 1 7 4.65 0.17
11 1 9 1.45 0.17
11 2 1 11.71 0.33
11 2 3 0.84 0.14
11 2 4 6.63 0.24
11 2 6 19.19 0.48
11 2 7 16.12 0.41
11 2 8 2.96 0.19
11 3 0 19.64 0.49
11 3 1 1.89 0.12
11 3 2 1.16 0.1
11 3 3 1.4 0.12
11 3 4 3.05 0.17
11 3 5 0.64 0.13
11 3 6 2.04 0.14
11 4 0 1.61 0.21
11 4 1 3.44 0.23
11 4 2 3.27 0.24
12 0 0 1.11 0.14
12 0 2 19.57 0.55
12 0 4 7.41 0.3
12 0 6 20.32 0.7
12 1 0 8.71 0.28
12 1 1 3.4 0.16
12 1 2 8.21 0.25
12 1 3 3.46 0.15
12 1 4 0.63 0.11
12 1 5 3.58 0.16
12 1 6 11.76 0.34
12 2 0 0.63 0.13
12 2 3 2.02 0.12
12 2 4 3.95 0.17
12 2 5 2.7 0.55
12 3 0 4.54 0.19
13 0 2 12.31 0.45
13 1 0 1.14 0.14
13 1 1 2.11 0.14
