#------------------------------------------------------------------------------
#$Date: 2020-08-15 07:50:46 +0300 (Sat, 15 Aug 2020) $
#$Revision: 255340 $
#$URL: file:///home/coder/svn-repositories/cod/cif/2/02/22/2022237.cif $
#------------------------------------------------------------------------------
#
# This file is available in the Crystallography Open Database (COD),
# http://www.crystallography.net/. The original data for this entry
# were provided by IUCr Journals, http://journals.iucr.org/.
#
# The file may be used within the scientific community so long as
# proper attribution is given to the journal article from which the
# data were obtained.
#
data_2022237
loop_
_publ_author_name
'Yan, Biao'
'Li, Hongya'
'Ma, Haixia'
'Ma, Xiangrong'
'Sun, Zhiyong'
'Ma, Yajun'
_publ_section_title
;
 Crystal structure, thermal behaviour and detonation characterization of
 bis(4,5-diamino-1,2,4-triazol-3-yl)methane monohydrate
;
_journal_coeditor_code           QS3093
_journal_issue                   9
_journal_name_full               'Acta Crystallographica Section C'
_journal_page_first
;
;
_journal_paper_doi               10.1107/S2053229620011080
_journal_volume                  76
_journal_year                    2020
_chemical_formula_iupac          'C5 H10 N10, H2 O'
_chemical_formula_moiety         'C5 H10 N10, H2 O'
_chemical_formula_sum            'C5 H12 N10 O'
_chemical_formula_weight         228.25
_chemical_name_systematic
;
Bis(4,5-diamino-1,2,4-triazol-3-yl)methane monohydrate
;
_space_group_crystal_system      triclinic
_space_group_IT_number           2
_space_group_name_Hall           '-P 1'
_space_group_name_H-M_alt        'P -1'
_atom_sites_solution_hydrogens   difmap
_atom_sites_solution_primary     direct
_atom_sites_solution_secondary   difmap
_audit_creation_method           SHELXL-2018/3
_cell_angle_alpha                83.623(3)
_cell_angle_beta                 87.617(3)
_cell_angle_gamma                86.146(3)
_cell_formula_units_Z            2
_cell_length_a                   5.4364(10)
_cell_length_b                   5.6202(11)
_cell_length_c                   15.844(3)
_cell_measurement_reflns_used    1383
_cell_measurement_temperature    296(2)
_cell_measurement_theta_max      28.02
_cell_measurement_theta_min      2.59
_cell_volume                     479.72(16)
_computing_cell_refinement
;
SAINT (Bruker, 2009)
;
_computing_data_collection
;
APEX2 (Bruker, 2009)
;
_computing_data_reduction
;
SAINT (Bruker, 2009)
;
_computing_molecular_graphics
;
SHELXTL (Sheldrick, 2008)
;
_computing_publication_material
;
SHELXTL (Sheldrick, 2008)
;
_computing_structure_refinement
;
SHELXL2018 (Sheldrick, 2015)
;
_computing_structure_solution
;
SHELXS97 (Sheldrick, 2008)
;
_diffrn_ambient_temperature      296(2)
_diffrn_measured_fraction_theta_full 0.993
_diffrn_measured_fraction_theta_max 0.993
_diffrn_measurement_device_type  'Bruker APEXII CCD'
_diffrn_measurement_method       '\f and \w scans'
_diffrn_radiation_type           MoK\a
_diffrn_radiation_wavelength     0.71073
_diffrn_reflns_av_R_equivalents  0.0113
_diffrn_reflns_av_unetI/netI     0.0204
_diffrn_reflns_limit_h_max       6
_diffrn_reflns_limit_h_min       -5
_diffrn_reflns_limit_k_max       6
_diffrn_reflns_limit_k_min       -6
_diffrn_reflns_limit_l_max       15
_diffrn_reflns_limit_l_min       -18
_diffrn_reflns_number            2421
_diffrn_reflns_theta_full        25.097
_diffrn_reflns_theta_max         25.097
_diffrn_reflns_theta_min         2.589
_exptl_absorpt_coefficient_mu    0.122
_exptl_absorpt_correction_T_max  0.982
_exptl_absorpt_correction_T_min  0.960
_exptl_absorpt_correction_type   multi-scan
_exptl_absorpt_process_details
;
(SADABS; Bruker, 2009)
;
_exptl_crystal_colour            colourless
_exptl_crystal_density_diffrn    1.580
_exptl_crystal_density_method    'not measured'
_exptl_crystal_description       rodlike
_exptl_crystal_F_000             240
_exptl_crystal_size_max          0.339
_exptl_crystal_size_mid          0.276
_exptl_crystal_size_min          0.153
_refine_diff_density_max         0.168
_refine_diff_density_min         -0.153
_refine_ls_extinction_coef       0.107(8)
_refine_ls_extinction_expression Fc^*^=kFc[1+0.001xFc^2^\l^3^/sin(2\q)]^-1/4^
_refine_ls_extinction_method
;
SHELXL2018 (Sheldrick, 2015)
;
_refine_ls_goodness_of_fit_ref   1.035
_refine_ls_hydrogen_treatment    refall
_refine_ls_matrix_type           full
_refine_ls_number_parameters     194
_refine_ls_number_reflns         1698
_refine_ls_number_restraints     0
_refine_ls_restrained_S_all      1.035
_refine_ls_R_factor_all          0.0390
_refine_ls_R_factor_gt           0.0351
_refine_ls_shift/su_max          0.000
_refine_ls_shift/su_mean         0.000
_refine_ls_structure_factor_coef Fsqd
_refine_ls_weighting_details
'w=1/[\s^2^(Fo^2^)+(0.0439P)^2^+0.1790P] where P=(Fo^2^+2Fc^2^)/3'
_refine_ls_weighting_scheme      calc
_refine_ls_wR_factor_gt          0.0877
_refine_ls_wR_factor_ref         0.0915
_reflns_number_gt                1522
_reflns_number_total             1698
_reflns_threshold_expression     'I > 2\s(I)'
_cod_data_source_file            qs3093sup1.cif
_cod_data_source_block           I
_cod_original_cell_volume        479.71(16)
_cod_database_code               2022237
_shelx_space_group_comment
;
The symmetry employed for this shelxl refinement is uniquely defined
by the following loop, which should always be used as a source of
symmetry information in preference to the above space-group names.
They are only intended as comments.
;
_shelx_estimated_absorpt_t_min   0.960
_shelx_estimated_absorpt_t_max   0.982
_shelx_hkl_file
;
   1   0   0  362.61    4.25
   1   0   0  374.60    4.06
   2   0   0  165.62    1.95
   2   0   0  168.15    1.87
   2   0   0  169.81    1.91
  -3   0   0    0.27    0.04
   3   0   0    0.31    0.05
   3   0   0    0.27    0.05
  -4   0   0    0.20    0.05
   4   0   0    0.14    0.05
   5   0   0    0.02    0.05
   6   0   0    0.38    0.11
   7   0   0    0.38    0.12
   7  -1   0    0.28    0.11
   6  -1   0   -0.02    0.06
   5  -1   0    7.43    0.31
   4  -1   0    2.62    0.15
   4  -1   0    2.73    0.16
   3  -1   0   13.61    0.33
   3  -1   0   13.33    0.32
   2  -1   0    6.57    0.20
   2  -1   0    6.66    0.19
   1  -1   0   48.85    0.64
   1  -1   0   48.94    0.66
   0  -1   0  274.72    3.01
  -1  -1   0  216.34    2.32
   1   1   0  212.11    2.41
  -2  -1   0   29.46    0.34
   2   1   0   30.05    0.45
  -3  -1   0    4.81    0.10
   3   1   0    4.75    0.17
   3   1   0    4.78    0.20
   4   1   0    9.31    0.30
   4   1   0    9.89    0.29
   5   1   0    7.99    0.30
   6   1   0    8.00    0.33
   7   1   0    0.06    0.08
   6  -2   0    1.88    0.22
   5  -2   0    0.04    0.05
  -5   2   0    0.12    0.06
   4  -2   0   23.14    0.55
   4  -2   0   23.71    0.55
   3  -2   0    2.29    0.15
   3  -2   0    2.44    0.15
   2  -2   0   64.22    0.96
   2  -2   0   63.07    0.91
   1  -2   0    0.44    0.06
   0  -2   0    0.06    0.03
  -1  -2   0   10.60    0.21
   1   2   0   10.68    0.22
  -2  -2   0   24.72    0.29
   2   2   0   24.17    0.41
   3   2   0    2.12    0.11
   4   2   0   27.41    0.54
   4   2   0   27.50    0.62
   5   2   0    1.83    0.17
   5   2   0    1.89    0.19
   6   2   0    1.53    0.17
   7   2   0    0.71    0.14
   6  -3   0    2.24    0.25
   5  -3   0    2.83    0.21
   5  -3   0    3.15    0.23
  -5   3   0    3.19    0.21
   4  -3   0   11.59    0.40
   4  -3   0   11.77    0.41
   3  -3   0   13.12    0.38
   3  -3   0   12.34    0.40
   2  -3   0    0.04    0.04
   1  -3   0   50.48    0.84
  -1   3   0   50.23    0.72
   0  -3   0    1.07    0.11
  -1  -3   0    0.75    0.08
   1   3   0    0.89    0.09
   2   3   0    1.36    0.10
   3   3   0    1.38    0.16
   3   3   0    1.55    0.11
   4   3   0    0.31    0.07
   4   3   0    0.20    0.08
   5   3   0   -0.02    0.05
   5   3   0    0.08    0.05
   6   3   0    0.17    0.08
   5  -4   0    0.07    0.08
  -5   4   0    0.02    0.06
   4  -4   0    0.04    0.07
   3  -4   0    6.23    0.31
   2  -4   0    0.42    0.10
   1  -4   0    0.30    0.08
  -1   4   0    0.38    0.07
   0  -4   0    3.34    0.18
   0   4   0    3.18    0.18
  -1  -4   0   33.02    0.59
   1   4   0   33.30    0.59
   2   4   0    0.10    0.06
   2   4   0    0.05    0.04
   3   4   0   20.16    0.45
   3   4   0   20.18    0.58
   4   4   0    1.98    0.14
   4   4   0    1.62    0.20
   5   4   0    0.04    0.05
   5   4   0    0.10    0.08
   6   4   0    0.62    0.15
   6   4   0    0.73    0.13
   4  -5   0    0.84    0.16
   3  -5   0    1.79    0.21
   2  -5   0   11.41    0.43
   1  -5   0   32.11    0.73
   0  -5   0    0.07    0.06
   0   5   0   -0.03    0.06
   1   5   0    2.67    0.16
   1   5   0    2.42    0.22
   2   5   0   -0.03    0.05
   4   5   0    0.10    0.08
   5   5   0    1.19    0.20
   2  -6   0    0.97    0.17
   1  -6   0    3.47    0.25
   0  -6   0    0.22    0.09
   1   6   0   29.56    0.74
   2   6   0    0.77    0.15
   3   6   0    2.87    0.29
   4   6   0    0.40    0.12
   1  -7   0    1.18    0.18
   2   7   0    3.13    0.31
   2   7  -1    1.43    0.22
   4   6  -1    0.86    0.18
   3   6  -1    1.81    0.23
   2   6  -1    0.25    0.09
   1   6  -1    0.00    0.06
   1  -6   1    3.31    0.24
   2  -6   1    0.09    0.07
   5   5  -1    0.04    0.08
   4   5  -1    4.98    0.31
   3   5  -1    1.18    0.14
   3   5  -1    1.02    0.17
   2   5  -1    2.94    0.23
   2   5  -1    2.87    0.17
   1   5  -1    2.99    0.18
   0   5  -1    1.55    0.18
   0  -5   1    1.73    0.17
   1  -5   1    3.28    0.22
   2  -5   1    8.55    0.37
   3  -5   1    0.14    0.08
  -4   5  -1    2.32    0.24
   6   4  -1    6.23    0.30
   6   4  -1    6.13    0.37
   5   4  -1    5.65    0.33
   5   4  -1    5.23    0.25
   4   4  -1    7.28    0.27
   4   4  -1    7.12    0.35
   3   4  -1   69.69    1.06
   2   4  -1    0.30    0.07
   1   4  -1    2.65    0.15
  -1  -4   1    2.50    0.14
   0  -4   1   11.92    0.35
   1  -4   1    1.27    0.14
   2  -4   1   -0.02    0.04
   3  -4   1    5.03    0.28
   4  -4   1    1.60    0.20
  -5   4  -1    0.46    0.12
   6   3  -1    0.08    0.07
   5   3  -1    6.77    0.33
   4   3  -1    2.74    0.16
   4   3  -1    2.79    0.21
   3   3  -1    5.88    0.21
   2   3  -1    6.19    0.21
   1   3  -1  226.79    2.68
  -1  -3   1  227.15    2.56
   0  -3   1    1.14    0.10
   1  -3   1   96.58    1.33
   2  -3   1    0.09    0.05
   3  -3   1    1.15    0.14
   3  -3   1    0.60    0.10
   4  -3   1    1.02    0.14
   4  -3   1    1.11    0.15
  -5   3  -1    4.91    0.27
   5  -3   1    4.51    0.28
   6  -3   1    1.31    0.20
   7   2  -1    0.82    0.14
   6   2  -1    0.76    0.13
   5   2  -1    4.00    0.21
   5   2  -1    4.44    0.25
   4   2  -1   23.86    0.50
   3   2  -1    1.00    0.10
   2   2  -1    4.81    0.16
   1   2  -1   23.73    0.40
  -1  -2   1   23.52    0.34
   0  -2   1    7.37    0.19
   1  -2   1   70.96    0.97
   2  -2   1   29.39    0.53
   2  -2   1   29.56    0.55
   3  -2   1   35.92    0.66
   3  -2   1   35.26    0.67
  -4   2  -1    5.02    0.23
   4  -2   1    4.82    0.24
   4  -2   1    5.18    0.24
  -5   2  -1    4.91    0.24
   5  -2   1    5.48    0.28
   6  -2   1    3.23    0.25
   7   1  -1    2.65    0.25
   6   1  -1    0.61    0.12
   5   1  -1    7.84    0.30
   4   1  -1   11.67    0.34
   4   1  -1   11.61    0.32
   3   1  -1   18.52    0.37
  -3  -1   1   18.76    0.25
   2   1  -1    3.38    0.12
   1   1  -1   69.86    0.85
   1   1  -1   68.76    0.74
   0  -1   1   11.49    0.20
   1  -1   1   78.24    0.98
   1  -1   1   81.08    0.98
   2  -1   1   28.17    0.47
   3  -1   1   10.56    0.28
   3  -1   1   10.28    0.29
  -4   1  -1   10.04    0.29
   4  -1   1   10.18    0.32
   5  -1   1    3.65    0.22
   6  -1   1   -0.02    0.06
   7  -1   1    3.02    0.29
   7   0  -1    0.49    0.13
   6   0  -1   16.81    0.51
   5   0  -1   28.46    0.62
   4   0  -1   17.25    0.41
   3   0  -1    8.44    0.21
   3   0  -1    8.71    0.24
   2   0  -1  104.11    1.20
   2   0  -1  102.11    1.26
   1   0  -1    2.49    0.07
  -1   0  -1   78.00    0.88
   1   0   1   79.22    0.92
  -2   0  -1   78.70    0.94
   2   0   1   80.94    0.97
   2   0   1   80.36    1.01
  -3   0  -1    3.69    0.13
   3   0   1    3.68    0.15
   3   0   1    3.67    0.13
  -4   0  -1    0.22    0.05
   4   0   1    0.18    0.06
   5   0   1    8.08    0.31
   6   0   1    6.33    0.31
   7   0   1    0.34    0.12
   7  -1  -1    1.20    0.19
   6  -1  -1    6.63    0.33
   5  -1  -1    9.27    0.34
   4  -1  -1   19.95    0.46
   4  -1  -1   20.19    0.45
   3  -1  -1   17.13    0.38
   3  -1  -1   17.09    0.37
   2  -1  -1   82.52    1.08
   2  -1  -1   82.34    1.06
   1  -1  -1    2.74    0.11
   1  -1  -1    2.69    0.09
   0  -1  -1    2.80    0.10
   0   1   1    2.66    0.09
  -1  -1  -1    7.90    0.12
   1   1   1    7.63    0.15
  -2  -1  -1   60.87    0.68
   2   1   1   60.69    0.78
  -3  -1  -1   40.06    0.50
   3   1   1   40.65    0.67
   3   1   1   40.91    0.63
   4   1   1   15.95    0.39
   4   1   1   16.88    0.40
   5   1   1   16.36    0.44
   6   1   1    6.68    0.31
   7   1   1    0.06    0.07
   6  -2  -1    0.42    0.11
   5  -2  -1    1.37    0.16
   5  -2  -1    1.46    0.17
   4  -2  -1   13.37    0.40
   4  -2  -1   12.66    0.38
   3  -2  -1    1.21    0.13
   3  -2  -1    1.20    0.12
   2  -2  -1  165.52    2.05
   2  -2  -1  165.33    2.01
   1  -2  -1    2.17    0.10
   1  -2  -1    2.06    0.12
  -1   2   1    2.14    0.08
   0   2   1   42.50    0.61
  -1  -2  -1    6.06    0.15
   1   2   1    5.91    0.20
   1   2   1    5.96    0.14
  -2  -2  -1   55.33    0.65
   2   2   1   55.71    0.75
   2   2   1   53.72    0.85
   3   2   1   31.14    0.52
   4   2   1   13.63    0.41
   4   2   1   13.90    0.36
   5   2   1    1.88    0.17
   5   2   1    1.43    0.17
   6   2   1    0.06    0.06
   7   2   1   -0.02    0.07
   6  -3  -1    1.23    0.19
   5  -3  -1   -0.02    0.05
   5  -3  -1    0.15    0.08
   4  -3  -1   20.72    0.53
   4  -3  -1   20.68    0.56
   3  -3  -1    2.75    0.17
   3  -3  -1    2.54    0.18
   2  -3  -1    7.72    0.26
   2  -3  -1    7.12    0.28
   1  -3  -1   18.01    0.43
  -1   3   1   17.26    0.33
   0  -3  -1    1.24    0.11
  -1  -3  -1   21.13    0.40
   1   3   1   21.03    0.47
   1   3   1   21.51    0.38
  -2  -3  -1   20.20    0.34
   2   3   1   20.31    0.49
   2   3   1   20.11    0.38
   3   3   1    0.42    0.07
   4   3   1   17.98    0.52
   4   3   1   17.14    0.41
   5   3   1   -0.01    0.05
   5   3   1    0.06    0.05
   6   3   1   13.25    0.43
   5  -4  -1    0.33    0.10
   5  -4  -1    0.35    0.11
   4  -4  -1    0.53    0.11
   4  -4  -1    0.42    0.11
   3  -4  -1   29.40    0.72
   2  -4  -1    8.41    0.34
   1  -4  -1    0.92    0.13
  -1   4   1    0.94    0.10
   0  -4  -1   19.47    0.47
   0   4   1   20.24    0.46
  -1  -4  -1   29.35    0.56
   1   4   1   28.69    0.52
   2   4   1    6.32    0.21
   2   4   1    5.74    0.27
   3   4   1    0.50    0.11
   3   4   1    0.50    0.08
   4   4   1    0.81    0.15
   4   4   1    0.76    0.10
   5   4   1    0.07    0.08
   5   4   1    0.04    0.05
   6   4   1    1.25    0.20
   4  -5  -1    0.03    0.07
   3  -5  -1    0.09    0.07
   2  -5  -1    3.25    0.24
   1  -5  -1    2.48    0.22
   0  -5  -1    2.45    0.19
   0   5   1    2.76    0.19
   1   5   1    9.54    0.36
   2   5   1    9.61    0.39
   3   5   1    3.64    0.25
   4   5   1    0.25    0.10
   5   5   1    4.34    0.31
   2  -6  -1   -0.02    0.06
   1  -6  -1    5.16    0.30
   0  -6  -1    2.47    0.23
   1   6   1    2.49    0.24
   2   6   1    7.44    0.37
   3   6   1    0.84    0.16
   4   6   1    0.26    0.10
   1  -7  -1    2.85    0.28
   2   7   1    1.91    0.24
   2   7  -2   -0.14    0.07
   4   6  -2   -0.05    0.06
   3   6  -2    0.08    0.09
   2   6  -2    3.38    0.26
   1   6  -2    6.79    0.35
  -1   6  -2    0.78    0.13
  -2   6  -2    3.84    0.25
   5   5  -2    0.77    0.17
   5   5  -2    0.56    0.12
   4   5  -2    0.46    0.12
   4   5  -2    0.46    0.10
   3   5  -2    2.44    0.17
   2   5  -2    9.86    0.33
   1   5  -2   11.58    0.37
   0  -5   2    5.95    0.27
   1  -5   2    2.53    0.19
   2  -5   2    0.28    0.09
  -3   5  -2    0.73    0.13
  -4   5  -2    2.28    0.24
   6   4  -2    0.07    0.09
   6   4  -2    0.10    0.07
   5   4  -2    3.75    0.22
   5   4  -2    4.09    0.29
   4   4  -2    0.16    0.06
   3   4  -2    0.97    0.12
   2   4  -2   17.39    0.42
   1   4  -2    0.94    0.09
   1   4  -2    1.20    0.13
   0  -4   2    0.73    0.10
   1  -4   2    0.24    0.07
   2  -4   2    3.35    0.21
   3  -4   2    8.51    0.36
  -4   4  -2    1.88    0.20
  -5   4  -2    0.13    0.08
   6   3  -2    0.33    0.09
   5   3  -2    0.92    0.16
   5   3  -2    0.87    0.12
   4   3  -2    0.57    0.09
   3   3  -2    0.82    0.11
   2   3  -2    8.16    0.25
   1   3  -2    2.33    0.13
   1   3  -2    2.43    0.10
   0  -3   2    0.01    0.03
   1  -3   2  121.25    1.60
   2  -3   2    3.73    0.20
   3  -3   2   20.43    0.53
  -4   3  -2    0.01    0.05
   4  -3   2    0.04    0.06
  -5   3  -2    0.07    0.06
   5  -3   2    0.01    0.06
  -6   3  -2    0.09    0.08
   6  -3   2    0.07    0.08
   6   2  -2    1.37    0.16
   5   2  -2    5.00    0.24
   5   2  -2    4.94    0.27
   4   2  -2    9.28    0.29
   3   2  -2   37.80    0.64
   2   2  -2   45.85    0.69
   1   2  -2    4.28    0.15
   1   2  -2    4.15    0.10
   0  -2   2  117.94    1.41
   1  -2   2   43.74    0.67
   2  -2   2    6.38    0.22
   2  -2   2    6.88    0.24
  -3   2  -2    0.05    0.04
   3  -2   2    0.01    0.04
   3  -2   2   -0.01    0.03
  -4   2  -2    2.26    0.16
   4  -2   2    2.83    0.18
  -5   2  -2   -0.01    0.04
   5  -2   2    0.05    0.06
   6  -2   2    0.01    0.08
   7   1  -2    2.27    0.23
   6   1  -2    0.28    0.09
   5   1  -2    3.07    0.19
   4   1  -2    8.15    0.27
   3   1  -2    0.54    0.07
  -3  -1   2    0.52    0.03
   2   1  -2   15.87    0.31
   2   1  -2   15.64    0.20
   1   1  -2  329.48    3.92
   1   1  -2  324.76    3.55
   0   1  -2  347.74    3.92
  -1   1  -2  680.44    7.51
   1  -1   2  656.62    7.88
  -2   1  -2   23.64    0.41
   2  -1   2   24.75    0.44
  -3   1  -2   41.98    0.66
  -4   1  -2    8.69    0.26
   4  -1   2    8.72    0.30
   5  -1   2    3.15    0.21
   6  -1   2    3.99    0.26
   7  -1   2    3.68    0.28
   7   0  -2    1.89    0.22
   6   0  -2    1.49    0.18
   5   0  -2    7.33    0.29
   4   0  -2    1.36    0.13
   3   0  -2    0.20    0.04
   3   0  -2    0.26    0.05
   2   0  -2   52.53    0.67
   2   0  -2   51.12    0.70
   1   0  -2   21.20    0.29
   1   0  -2   21.11    0.31
   0   0  -2    1.43    0.05
  -1   0  -2   36.63    0.45
   1   0   2   37.03    0.45
   1   0   2   36.63    0.48
  -2   0  -2   38.06    0.50
   2   0   2   38.53    0.51
  -3   0  -2   13.39    0.26
   3   0   2   13.87    0.32
   3   0   2   13.40    0.27
  -4   0  -2   13.83    0.29
   5   0   2   18.98    0.49
   6   0   2   16.72    0.52
   7   0   2    1.46    0.20
   7  -1  -2    0.05    0.07
   6  -1  -2    1.38    0.17
   5  -1  -2    0.55    0.10
   4  -1  -2    2.12    0.14
   4  -1  -2    2.29    0.14
   3  -1  -2    0.39    0.07
   3  -1  -2    0.46    0.08
   2  -1  -2   14.67    0.32
   2  -1  -2   14.47    0.28
   1  -1  -2   27.21    0.38
   0  -1  -2  208.95    2.32
   0   1   2  205.12    2.36
  -1  -1  -2    1.22    0.05
   1   1   2    1.37    0.05
   1   1   2    1.17    0.07
  -2  -1  -2   25.54    0.33
   2   1   2   25.51    0.39
   2   1   2   25.63    0.44
  -3  -1  -2    4.42    0.11
   3   1   2    4.44    0.18
   3   1   2    4.52    0.16
   4   1   2    1.17    0.12
   4   1   2    0.98    0.11
   5   1   2    3.02    0.18
   6   1   2    1.47    0.17
   7   1   2    2.09    0.22
   6  -2  -2    1.42    0.19
   5  -2  -2   -0.04    0.04
   5  -2  -2    0.00    0.05
   4  -2  -2   15.82    0.42
   4  -2  -2   15.84    0.44
   3  -2  -2   11.10    0.35
   3  -2  -2   10.80    0.30
   2  -2  -2   29.72    0.51
   2  -2  -2   30.12    0.58
   1  -2  -2   14.76    0.34
   1  -2  -2   14.61    0.28
  -1   2   2   14.89    0.23
   0  -2  -2  494.21    5.32
   0   2   2  491.64    5.57
  -1  -2  -2    4.25    0.13
   1   2   2    4.62    0.17
   1   2   2    4.36    0.11
  -2  -2  -2  225.83    2.43
   2   2   2  223.50    2.67
   2   2   2  221.51    2.54
   3   2   2    1.38    0.09
   3   2   2    1.09    0.12
   4   2   2   18.94    0.42
   4   2   2   19.37    0.49
   5   2   2    0.42    0.09
   5   2   2    0.78    0.12
   6   2   2    5.51    0.27
   7   2   2    0.30    0.11
   6  -3  -2    2.24    0.24
   5  -3  -2    0.53    0.12
   5  -3  -2    0.57    0.12
   4  -3  -2    1.80    0.19
   4  -3  -2    2.02    0.19
   3  -3  -2    1.47    0.17
   3  -3  -2    1.68    0.13
   2  -3  -2   -0.03    0.03
   2  -3  -2    0.04    0.03
   1  -3  -2    0.03    0.03
  -1   3   2   -0.02    0.02
   0  -3  -2    0.18    0.04
   0   3   2    0.26    0.05
  -1  -3  -2    1.23    0.09
   1   3   2    1.23    0.12
   1   3   2    1.10    0.07
  -2  -3  -2  133.37    1.57
   2   3   2  133.35    1.80
   2   3   2  134.53    1.62
   3   3   2    0.87    0.09
   3   3   2    0.83    0.12
   4   3   2   70.61    1.05
   4   3   2   72.17    1.22
   5   3   2    9.53    0.32
   5   3   2   10.60    0.41
   6   3   2    0.03    0.06
   5  -4  -2    3.98    0.28
   5  -4  -2    4.30    0.28
   4  -4  -2    0.63    0.13
   4  -4  -2    0.51    0.11
   3  -4  -2    5.72    0.30
   2  -4  -2   38.57    0.82
   1  -4  -2    0.02    0.04
  -1   4   2    0.01    0.03
   0  -4  -2    0.33    0.08
   0   4   2    0.38    0.08
  -1  -4  -2    6.19    0.23
   1   4   2    5.81    0.26
   1   4   2    6.05    0.19
   2   4   2    1.80    0.18
   2   4   2    2.31    0.12
   3   4   2    1.42    0.18
   3   4   2    1.70    0.12
   4   4   2    0.41    0.11
   5   4   2    9.77    0.43
   6   4   2    2.14    0.25
   4  -5  -2    1.33    0.20
   3  -5  -2    1.76    0.22
   2  -5  -2    1.63    0.19
   1  -5  -2    1.21    0.16
   0  -5  -2   21.17    0.55
   0   5   2   21.02    0.52
   1   5   2   12.63    0.42
   2   5   2    9.17    0.38
   3   5   2    0.26    0.10
   4   5   2    8.80    0.41
   5   5   2    3.02    0.30
   2  -6  -2    2.68    0.27
   1  -6  -2   12.09    0.47
   0  -6  -2    3.51    0.24
   1   6   2   21.89    0.61
   2   6   2   10.76    0.44
   3   6   2    1.25    0.19
   4   6   2    1.97    0.25
   1  -7  -2    0.43    0.13
   2   7   2    0.76    0.16
   3   7   2    0.35    0.13
   2   7  -3    9.06    0.46
   4   6  -3    0.13    0.10
   3   6  -3    5.12    0.34
   2   6  -3    8.09    0.34
   1   6  -3    0.13    0.07
   0   6  -3    7.40    0.34
  -1   6  -3    3.49    0.23
  -2   6  -3    0.32    0.10
   5   5  -3    1.45    0.17
   5   5  -3    1.72    0.24
   4   5  -3    0.04    0.06
   3   5  -3    5.61    0.26
   2   5  -3   24.61    0.57
   1   5  -3    0.75    0.12
   0   5  -3    6.01    0.28
   0   5  -3    5.79    0.25
  -1   5  -3    0.63    0.11
  -2   5  -3    0.92    0.14
  -3   5  -3    0.04    0.06
   6   4  -3    0.55    0.16
   6   4  -3    0.52    0.12
   5   4  -3    0.03    0.08
   5   4  -3    0.00    0.05
   4   4  -3    3.27    0.20
   3   4  -3    0.00    0.05
   2   4  -3    3.74    0.19
   1   4  -3   11.09    0.34
   1   4  -3   12.30    0.29
   0   4  -3   11.30    0.31
  -1   4  -3    0.07    0.05
  -2   4  -3   20.58    0.51
  -3   4  -3    4.25    0.24
  -4   4  -3    0.00    0.05
  -5   4  -3    4.03    0.26
   6   3  -3    0.68    0.12
   5   3  -3    4.31    0.23
   4   3  -3    1.23    0.14
   3   3  -3   23.91    0.51
   2   3  -3    0.06    0.04
   1   3  -3    0.00    0.02
   1   3  -3    0.03    0.03
   0   3  -3    6.31    0.20
  -1   3  -3   24.03    0.48
  -2   3  -3   23.81    0.51
  -3   3  -3    6.83    0.28
  -4   3  -3    0.53    0.11
   4  -3   3    0.83    0.14
  -5   3  -3    8.05    0.34
   5  -3   3    8.76    0.39
  -6   3  -3    0.00    0.07
   6  -3   3   -0.07    0.07
   6   2  -3    0.18    0.08
   5   2  -3   12.04    0.38
   4   2  -3   18.49    0.44
   3   2  -3   22.72    0.46
   2   2  -3   21.40    0.42
   2   2  -3   21.73    0.26
   1   2  -3    9.75    0.17
   1   2  -3   10.01    0.25
   0   2  -3   23.20    0.38
  -1   2  -3    0.40    0.06
  -2   2  -3    8.73    0.26
  -3   2  -3    3.12    0.17
   3  -2   3    2.96    0.17
  -4   2  -3   12.32    0.36
   4  -2   3   12.15    0.40
  -5   2  -3    1.62    0.16
   5  -2   3    1.55    0.18
   6  -2   3    1.59    0.21
   7   1  -3    2.13    0.23
   6   1  -3   14.68    0.47
   5   1  -3   23.48    0.55
   4   1  -3   35.00    0.64
   3   1  -3   32.67    0.56
   2   1  -3   28.08    0.47
   2   1  -3   28.37    0.36
   1   1  -3  948.48   11.80
   1   1  -3 1000.00   11.22
   0   1  -3    0.31    0.03
  -1   1  -3  912.30   10.02
  -2   1  -3    2.75    0.12
  -3   1  -3    0.85    0.09
   3  -1   3    0.95    0.11
  -4   1  -3   36.32    0.62
   4  -1   3   35.73    0.70
  -5   1  -3   22.62    0.48
   5  -1   3   21.91    0.58
   6  -1   3    2.67    0.25
   7  -1   3    0.38    0.13
   7   0  -3    0.63    0.13
   6   0  -3    9.92    0.38
   5   0  -3    6.83    0.28
   4   0  -3    0.17    0.06
   3   0  -3   62.42    0.85
   3   0  -3   62.84    0.90
   2   0  -3    9.78    0.22
   2   0  -3    9.63    0.21
   1   0  -3   61.60    0.73
   1   0  -3   61.10    0.76
   0   0  -3    0.07    0.02
  -1   0  -3  119.49    1.31
   1   0   3  117.89    1.37
   1   0   3  115.66    1.32
  -2   0  -3   80.65    0.96
   2   0   3   81.71    0.97
  -3   0  -3    0.52    0.06
   3   0   3    0.61    0.08
   3   0   3    0.68    0.06
  -4   0  -3   10.54    0.25
   4   0   3   10.10    0.32
   5   0   3    9.32    0.34
   6   0   3    4.51    0.27
   7   0   3    2.40    0.25
   6  -1  -3    0.03    0.06
   5  -1  -3    7.21    0.30
   4  -1  -3    0.02    0.03
   4  -1  -3    0.00    0.04
   3  -1  -3   57.38    0.88
   3  -1  -3   58.03    0.85
   2  -1  -3    1.36    0.08
   2  -1  -3    1.44    0.10
   1  -1  -3    4.74    0.15
   1  -1  -3    4.67    0.11
   0  -1  -3    0.08    0.02
   0   1   3    0.07    0.02
  -1  -1  -3    0.00    0.01
   1   1   3    0.01    0.01
  -2  -1  -3   13.67    0.22
   2   1   3   13.67    0.25
   2   1   3   13.49    0.29
  -3  -1  -3  149.89    1.68
   3   1   3  149.90    1.83
   3   1   3  151.89    1.86
   4   1   3    2.59    0.15
   4   1   3    2.41    0.14
   5   1   3    3.58    0.20
   6   1   3    1.18    0.15
   7   1   3   -0.01    0.07
   6  -2  -3    0.96    0.16
   5  -2  -3    5.32    0.27
   5  -2  -3    5.12    0.26
   4  -2  -3    0.25    0.07
   4  -2  -3    0.29    0.08
   3  -2  -3    0.54    0.08
   3  -2  -3    0.49    0.09
   2  -2  -3   36.77    0.66
   2  -2  -3   37.30    0.58
   1  -2  -3    0.61    0.06
   1  -2  -3    0.37    0.06
  -1   2   3    0.46    0.04
   0   2   3    8.53    0.20
  -1  -2  -3   52.96    0.70
   1   2   3   53.86    0.64
   1   2   3   52.79    0.78
  -2  -2  -3    4.20    0.12
   2   2   3    3.94    0.18
   2   2   3    4.19    0.12
   3   2   3    2.77    0.17
   3   2   3    2.67    0.12
   4   2   3    0.17    0.06
   4   2   3    0.05    0.06
   5   2   3    0.55    0.10
   5   2   3    0.54    0.11
   6   2   3    1.70    0.18
   7   2   3    3.10    0.24
   6  -3  -3    0.53    0.13
   5  -3  -3    0.00    0.06
   5  -3  -3    0.12    0.08
   4  -3  -3    0.56    0.11
   4  -3  -3    0.49    0.11
   3  -3  -3    5.80    0.23
   3  -3  -3    6.26    0.29
   2  -3  -3   63.57    1.06
   2  -3  -3   65.41    0.94
   1  -3  -3    0.10    0.04
  -1   3   3    0.10    0.03
   0  -3  -3    0.03    0.03
   0   3   3   -0.01    0.03
  -1  -3  -3    0.35    0.06
   1   3   3    0.31    0.04
   1   3   3    0.19    0.06
  -2  -3  -3   47.39    0.68
   2   3   3   46.24    0.82
   2   3   3   46.85    0.65
   3   3   3    4.30    0.23
   3   3   3    4.06    0.16
   4   3   3    1.89    0.13
   4   3   3    1.48    0.18
   5   3   3   -0.01    0.04
   5   3   3    0.02    0.06
   6   3   3    0.56    0.11
   5  -4  -3    0.12    0.09
   5  -4  -3    0.22    0.09
   4  -4  -3    1.63    0.20
   4  -4  -3    1.59    0.18
   3  -4  -3   -0.05    0.04
   3  -4  -3    0.07    0.05
   2  -4  -3    5.19    0.27
   1  -4  -3    3.14    0.20
  -1   4   3    2.62    0.13
   0  -4  -3   29.01    0.61
   0   4   3   27.50    0.55
  -1  -4  -3    6.82    0.25
   1   4   3    6.42    0.27
   2   4   3   23.61    0.58
   3   4   3   31.72    0.73
   4   4   3   17.59    0.55
   5   4   3    0.73    0.15
   6   4   3    1.52    0.21
   4  -5  -3    0.27    0.10
   3  -5  -3    1.22    0.18
   2  -5  -3    1.19    0.17
   1  -5  -3    3.50    0.23
   0  -5  -3   62.43    1.11
   0   5   3   65.27    1.05
  -1  -5  -3   18.15    0.49
   1   5   3   18.24    0.51
   2   5   3    3.87    0.24
   3   5   3    4.99    0.29
   4   5   3    0.06    0.07
   5   5   3    0.41    0.13
   2  -6  -3    0.32    0.11
   1  -6  -3    0.39    0.12
   0  -6  -3    9.55    0.40
   1   6   3    6.43    0.32
   2   6   3    2.34    0.25
   3   6   3    0.62    0.14
   4   6   3    0.95    0.17
   2   7   3    1.04    0.18
   3   7   3    0.17    0.10
   4   6  -4    0.03    0.10
   3   6  -4    0.64    0.13
   2   6  -4    7.96    0.34
   1   6  -4    2.48    0.23
   0   6  -4    0.73    0.14
  -1   6  -4    5.99    0.29
  -2   6  -4    0.06    0.07
   5   5  -4    2.45    0.29
   5   5  -4    2.36    0.22
   4   5  -4    9.04    0.36
   3   5  -4    0.06    0.06
   2   5  -4    1.49    0.17
   1   5  -4    9.42    0.35
   0   5  -4    0.10    0.05
   0   5  -4    0.14    0.07
  -1   5  -4    4.93    0.25
  -2   5  -4    3.40    0.22
  -3   5  -4    1.66    0.19
   6   4  -4    2.09    0.26
   6   4  -4    2.39    0.22
   5   4  -4    0.85    0.13
   4   4  -4    5.41    0.26
   3   4  -4    0.10    0.06
   2   4  -4    8.06    0.29
   1   4  -4    3.55    0.20
   1   4  -4    3.58    0.14
   0   4  -4   66.28    0.98
  -1   4  -4    1.02    0.12
  -2   4  -4    0.12    0.06
  -3   4  -4    0.48    0.10
  -4   4  -4    1.73    0.18
   6   3  -4    0.79    0.13
   5   3  -4    3.42    0.20
   4   3  -4   17.17    0.45
   3   3  -4   36.31    0.68
   2   3  -4    7.65    0.26
   1   3  -4   22.31    0.48
   1   3  -4   22.65    0.37
   0   3  -4    2.73    0.13
  -1   3  -4    1.74    0.12
  -2   3  -4    5.27    0.22
  -3   3  -4    0.55    0.09
  -4   3  -4    0.45    0.09
  -5   3  -4    0.56    0.12
   5  -3   4    0.46    0.12
   6  -3   4    2.10    0.26
   6   2  -4    0.20    0.08
   5   2  -4    2.16    0.16
   4   2  -4    0.19    0.06
   3   2  -4    9.85    0.29
   2   2  -4   73.78    0.83
   2   2  -4   73.17    1.04
   1   2  -4    5.35    0.19
   1   2  -4    5.29    0.12
   0   2  -4    0.44    0.05
  -1   2  -4    7.80    0.22
  -2   2  -4   49.55    0.77
  -3   2  -4    0.29    0.06
   3  -2   4    0.18    0.06
  -4   2  -4    9.38    0.31
   4  -2   4    8.99    0.35
  -5   2  -4    1.02    0.13
   5  -2   4    1.33    0.18
   6  -2   4    0.28    0.11
   7   1  -4    0.51    0.13
   6   1  -4    0.21    0.08
   5   1  -4    0.63    0.11
   4   1  -4    0.12    0.05
   3   1  -4    6.07    0.21
   2   1  -4   21.51    0.40
   2   1  -4   21.46    0.31
   1   1  -4   13.38    0.21
   1   1  -4   13.03    0.27
   0   1  -4  236.97    2.56
  -1   1  -4   37.42    0.52
  -2   1  -4   43.20    0.63
   2  -1   4   43.40    0.69
  -3   1  -4    8.88    0.24
   3  -1   4    8.83    0.28
  -4   1  -4    4.10    0.17
   4  -1   4    4.16    0.22
  -5   1  -4   10.35    0.30
   5  -1   4    9.39    0.37
   6  -1   4    2.21    0.23
   7   0  -4    0.79    0.15
   6   0  -4    0.04    0.06
   5   0  -4    2.09    0.16
   4   0  -4    4.47    0.20
   3   0  -4    0.38    0.06
   3   0  -4    0.22    0.04
   2   0  -4   77.06    0.96
   2   0  -4   76.11    0.99
   1   0  -4  508.05    5.94
   1   0  -4  504.98    5.65
   0   0  -4  163.82    1.79
  -1   0  -4  102.02    1.15
   1   0   4   98.57    1.16
  -2   0  -4    4.46    0.13
   2   0   4    4.45    0.12
   2   0   4    4.13    0.15
  -3   0  -4    5.78    0.17
   3   0   4    5.83    0.16
   3   0   4    5.94    0.21
  -4   0  -4    1.41    0.09
   4   0   4    1.33    0.13
   5   0   4    2.25    0.17
   6   0   4    0.14    0.09
   7   0   4    0.04    0.08
   6  -1  -4    2.24    0.22
   5  -1  -4    2.80    0.19
   4  -1  -4    0.91    0.11
   4  -1  -4    0.85    0.11
   3  -1  -4  122.65    1.56
   3  -1  -4  120.68    1.58
   2  -1  -4   86.47    1.15
   2  -1  -4   87.40    1.10
   1  -1  -4   98.87    1.15
   1  -1  -4   98.33    1.21
   0  -1  -4    4.11    0.12
   0   1   4    3.88    0.11
  -1  -1  -4   15.86    0.25
   1   1   4   15.51    0.23
   1   1   4   15.58    0.28
  -2  -1  -4   13.60    0.24
   2   1   4   14.11    0.30
   2   1   4   14.14    0.26
  -3  -1  -4    2.15    0.09
   3   1   4    2.08    0.11
   3   1   4    2.24    0.13
   4   1   4    0.27    0.07
   4   1   4    0.24    0.06
   5   1   4    2.67    0.17
   6   1   4    0.39    0.10
   6  -2  -4    0.03    0.07
   5  -2  -4   29.05    0.67
   5  -2  -4   28.24    0.66
   4  -2  -4    3.19    0.18
   4  -2  -4    3.53    0.21
   3  -2  -4   39.60    0.67
   3  -2  -4   40.97    0.76
   2  -2  -4    3.66    0.14
   2  -2  -4    3.57    0.18
   1  -2  -4   15.37    0.36
   1  -2  -4   15.76    0.27
  -1   2   4   15.95    0.26
   0  -2  -4    0.83    0.09
   0   2   4    0.85    0.07
  -1  -2  -4   87.83    1.09
   1   2   4   87.87    1.15
  -2  -2  -4    5.85    0.15
   2   2   4    5.68    0.21
   2   2   4    6.11    0.15
  -3  -2  -4    4.22    0.12
   3   2   4    4.11    0.15
   3   2   4    3.84    0.19
   4   2   4    2.34    0.16
   4   2   4    2.44    0.14
   5   2   4   49.26    0.87
   5   2   4   49.91    0.90
   6   2   4    6.19    0.29
   7   2   4    0.75    0.14
   6  -3  -4    0.21    0.09
   5  -3  -4    3.08    0.21
   5  -3  -4    2.91    0.26
   4  -3  -4   25.01    0.57
   4  -3  -4   23.01    0.63
   3  -3  -4    0.46    0.10
   3  -3  -4    0.38    0.08
   2  -3  -4   14.15    0.42
   2  -3  -4   14.68    0.33
   1  -3  -4    0.01    0.03
  -1   3   4    0.04    0.03
   0  -3  -4   19.17    0.43
   0   3   4   19.32    0.39
  -1  -3  -4   10.80    0.29
   1   3   4   11.00    0.31
   1   3   4   11.24    0.20
  -2  -3  -4    1.50    0.09
   2   3   4    1.71    0.16
   2   3   4    1.40    0.07
   3   3   4   23.37    0.42
   3   3   4   23.45    0.56
   4   3   4    4.15    0.18
   4   3   4    3.80    0.23
   5   3   4   11.21    0.35
   5   3   4   11.24    0.42
   5  -4  -4    2.62    0.25
   5  -4  -4    2.29    0.25
   4  -4  -4    5.82    0.28
   4  -4  -4    5.26    0.31
   3  -4  -4    1.62    0.19
   3  -4  -4    1.95    0.15
   2  -4  -4    8.95    0.37
   1  -4  -4   28.14    0.65
  -1   4   4   28.68    0.49
   0  -4  -4    6.48    0.27
   0   4   4    6.96    0.24
  -1  -4  -4    0.09    0.04
   1   4   4    0.03    0.05
   2   4   4   12.76    0.41
   3   4   4    2.83    0.21
   4   4   4    4.37    0.27
   5   4   4    5.87    0.33
   6   4   4    0.26    0.10
   4  -5  -4    2.63    0.28
   3  -5  -4    3.76    0.28
   2  -5  -4    2.43    0.24
   1  -5  -4    3.07    0.23
   0  -5  -4   17.86    0.52
   0   5   4   18.58    0.47
  -1  -5  -4    3.09    0.20
   1   5   4    3.49    0.21
   2   5   4   20.36    0.57
   3   5   4    4.78    0.29
   4   5   4    9.26    0.42
   5   5   4    0.03    0.09
   2  -6  -4    3.10    0.31
   1  -6  -4    0.20    0.10
   0  -6  -4    0.10    0.07
   1   6   4    0.07    0.07
   2   6   4    0.21    0.08
   3   6   4    2.55    0.26
   4   6   4    6.93    0.39
   2   7   4    0.37    0.11
   3   6  -5    0.09    0.08
   2   6  -5    0.11    0.08
   1   6  -5    2.84    0.22
   0   6  -5    1.75    0.21
  -1   6  -5    0.44    0.10
  -2   6  -5   -0.02    0.06
   5   5  -5    0.58    0.13
   4   5  -5    0.06    0.06
   3   5  -5    6.83    0.31
   2   5  -5    0.03    0.05
   1   5  -5    0.05    0.05
   0   5  -5    3.37    0.18
   0   5  -5    3.19    0.22
  -1   5  -5    1.47    0.15
  -2   5  -5    3.35    0.22
  -3   5  -5    2.08    0.21
   5   4  -5    0.32    0.09
   4   4  -5    0.10    0.06
   3   4  -5    0.22    0.07
   2   4  -5    0.97    0.13
   1   4  -5    0.43    0.09
   0   4  -5   19.40    0.42
  -1   4  -5    5.94    0.24
  -2   4  -5   16.28    0.45
  -3   4  -5   -0.06    0.04
  -4   4  -5    0.70    0.13
   6   3  -5    0.14    0.08
   5   3  -5    0.13    0.07
   4   3  -5   12.94    0.39
   3   3  -5    5.09    0.23
   2   3  -5   10.22    0.32
   1   3  -5    4.33    0.14
   1   3  -5    4.16    0.20
   0   3  -5   14.08    0.31
  -1   3  -5   14.07    0.35
  -2   3  -5    5.64    0.23
  -3   3  -5    6.34    0.26
  -4   3  -5    1.56    0.16
  -5   3  -5    0.29    0.08
   6   2  -5    0.20    0.08
   5   2  -5    8.97    0.33
   4   2  -5   26.64    0.57
   3   2  -5   11.36    0.33
   2   2  -5   58.62    0.89
   2   2  -5   58.84    0.70
   1   2  -5   68.36    0.82
   1   2  -5   67.70    0.99
   0   2  -5    2.46    0.10
  -1   2  -5   62.52    0.86
  -2   2  -5  226.03    2.63
  -3   2  -5   34.45    0.62
  -4   2  -5   11.40    0.34
   4  -2   5   11.05    0.40
  -5   2  -5    2.91    0.18
   5  -2   5    2.72    0.25
   6  -2   5   -0.06    0.07
   6   1  -5    2.31    0.21
   5   1  -5    0.73    0.11
   4   1  -5   17.29    0.42
   3   1  -5    5.57    0.20
   2   1  -5    4.87    0.18
   2   1  -5    4.94    0.13
   1   1  -5   14.00    0.23
   1   1  -5   13.68    0.30
   0   1  -5    0.20    0.03
  -1   1  -5   29.71    0.45
  -2   1  -5   48.45    0.69
  -3   1  -5   45.15    0.69
   3  -1   5   45.97    0.79
  -4   1  -5    1.02    0.11
   4  -1   5    1.09    0.14
  -5   1  -5    4.03    0.19
   5  -1   5    3.92    0.24
   6  -1   5    3.74    0.26
   6   0  -5    4.36    0.25
   5   0  -5    0.38    0.09
   4   0  -5    0.20    0.06
   3   0  -5    0.06    0.03
   3   0  -5    0.02    0.03
   2   0  -5    0.39    0.05
   2   0  -5    0.51    0.06
   1   0  -5   51.45    0.66
   1   0  -5   53.00    0.70
   0   0  -5    7.76    0.17
   0   0  -5    7.66    0.16
  -1   0  -5    0.02    0.02
  -2   0  -5   45.62    0.62
   2   0   5   44.96    0.61
   2   0   5   45.31    0.67
  -3   0  -5    0.02    0.02
   3   0   5    0.01    0.02
   3   0   5    0.04    0.04
  -4   0  -5    0.68    0.08
   4   0   5    0.44    0.09
   5   0   5    0.91    0.13
   6   0   5    4.31    0.27
   7   0   5    0.65    0.15
   6  -1  -5    0.66    0.13
   5  -1  -5    3.37    0.20
   4  -1  -5    0.57    0.09
   4  -1  -5    0.70    0.10
   3  -1  -5   10.52    0.28
   3  -1  -5   10.74    0.31
   2  -1  -5    0.58    0.08
   2  -1  -5    0.43    0.06
   1  -1  -5  180.60    2.04
   1  -1  -5  180.70    2.08
   0  -1  -5    8.31    0.19
   0   1   5    8.53    0.18
  -1  -1  -5  362.16    4.25
   1   1   5  357.14    4.08
  -2  -1  -5   47.24    0.63
   2   1   5   48.06    0.66
   2   1   5   48.00    0.69
  -3  -1  -5   81.28    1.01
   3   1   5   81.12    1.10
   3   1   5   82.22    1.10
   4   1   5    1.07    0.12
   4   1   5    1.21    0.12
   5   1   5    5.66    0.26
   6   1   5    0.49    0.11
   7   1   5    0.40    0.12
   6  -2  -5    0.20    0.10
   5  -2  -5    0.53    0.11
   4  -2  -5    2.06    0.15
   4  -2  -5    2.19    0.20
   3  -2  -5    3.46    0.16
   3  -2  -5    3.42    0.19
   2  -2  -5   28.03    0.57
   2  -2  -5   27.79    0.46
   1  -2  -5   41.28    0.56
   1  -2  -5   43.65    0.71
  -1   2   5   41.28    0.56
   0  -2  -5   31.24    0.52
   0   2   5   30.11    0.47
  -1  -2  -5   66.95    0.88
   1   2   5   66.43    0.92
  -2  -2  -5    0.02    0.02
   2   2   5    0.00    0.02
   2   2   5    0.00    0.02
  -3  -2  -5  127.63    1.49
   3   2   5  129.14    1.57
   3   2   5  126.82    1.69
   4   2   5    1.03    0.13
   4   2   5    0.89    0.10
   5   2   5    8.71    0.31
   5   2   5    8.85    0.33
   6   2   5    0.12    0.07
   6  -3  -5    0.33    0.11
   5  -3  -5    1.62    0.20
   5  -3  -5    1.74    0.19
   4  -3  -5    0.28    0.08
   4  -3  -5    0.37    0.10
   3  -3  -5   37.58    0.67
   3  -3  -5   37.08    0.79
   2  -3  -5    6.54    0.21
   2  -3  -5    6.68    0.28
   1  -3  -5   71.85    1.11
  -1   3   5   73.00    0.92
   0  -3  -5   34.91    0.64
   0   3   5   34.85    0.57
  -1  -3  -5   51.01    0.79
   1   3   5   50.79    0.81
  -2  -3  -5   25.69    0.47
   2   3   5   26.20    0.56
   3   3   5   36.05    0.72
   4   3   5    0.45    0.10
   5   3   5    1.50    0.18
   5  -4  -5    0.68    0.15
   4  -4  -5    0.33    0.11
   3  -4  -5    7.59    0.36
   2  -4  -5    1.66    0.19
   1  -4  -5   44.84    0.87
  -1   4   5   44.48    0.67
   0  -4  -5   61.33    1.02
   0   4   5   61.88    0.93
  -1  -4  -5    2.94    0.17
   1   4   5    2.85    0.18
   2   4   5    0.22    0.07
   3   4   5    6.76    0.31
   4   4   5    0.50    0.12
   5   4   5    0.46    0.12
   6   4   5    0.01    0.08
   3  -5  -5   -0.06    0.05
   2  -5  -5    7.93    0.38
   1  -5  -5    0.00    0.05
   0  -5  -5    0.77    0.13
   0   5   5    0.81    0.11
  -1  -5  -5   12.20    0.40
   1   5   5   11.87    0.39
   2   5   5    9.95    0.39
   3   5   5    9.78    0.41
   4   5   5    1.27    0.19
   5   5   5    0.15    0.09
   2  -6  -5    1.11    0.19
   1  -6  -5    8.63    0.41
   0  -6  -5    7.93    0.38
   1   6   5    0.30    0.10
   2   6   5    1.15    0.17
   3   6   5    0.37    0.12
   4   6   5    0.03    0.08
   2   7   5    6.63    0.36
   3   6  -6    1.59    0.20
   2   6  -6    0.91    0.15
   1   6  -6    5.85    0.32
   0   6  -6    0.21    0.10
  -1   6  -6    0.10    0.07
   4   5  -6    0.15    0.08
   3   5  -6    0.22    0.08
   2   5  -6    0.89    0.13
   1   5  -6    0.39    0.10
   0   5  -6    3.14    0.22
   0   5  -6    2.84    0.17
  -1   5  -6   11.78    0.37
  -2   5  -6    4.25    0.24
  -3   5  -6    0.37    0.10
   5   4  -6    0.61    0.12
   4   4  -6    1.72    0.18
   3   4  -6    2.38    0.18
   2   4  -6   17.90    0.48
   1   4  -6   -0.02    0.04
   0   4  -6    0.60    0.08
  -1   4  -6    0.23    0.06
  -2   4  -6    9.52    0.33
  -3   4  -6    5.77    0.27
  -4   4  -6    1.95    0.20
   6   3  -6    4.73    0.27
   5   3  -6    1.80    0.18
   4   3  -6    0.03    0.05
   3   3  -6    0.50    0.09
   2   3  -6    0.36    0.08
   1   3  -6   11.02    0.34
   1   3  -6   10.14    0.23
   0   3  -6    3.49    0.14
  -1   3  -6    5.69    0.21
  -2   3  -6    3.20    0.17
  -3   3  -6   10.82    0.35
  -4   3  -6    2.89    0.19
  -5   3  -6    1.39    0.16
   6   2  -6    1.13    0.16
   5   2  -6    0.80    0.12
   4   2  -6    3.64    0.20
   3   2  -6   30.61    0.61
   2   2  -6  162.82    1.79
   2   2  -6  159.37    2.04
   1   2  -6   46.00    0.76
   1   2  -6   45.96    0.61
   0   2  -6  104.13    1.26
  -1   2  -6   21.91    0.41
  -2   2  -6   20.70    0.42
  -3   2  -6   44.71    0.74
  -4   2  -6   12.10    0.35
  -5   2  -6    0.02    0.04
   5  -2   6    0.11    0.07
   6  -2   6    1.67    0.22
   6   1  -6    0.35    0.10
   5   1  -6    5.53    0.26
   4   1  -6    0.83    0.11
   3   1  -6    0.08    0.05
   2   1  -6  191.49    2.12
   2   1  -6  190.15    2.31
   1   1  -6  133.98    1.68
   1   1  -6  136.88    1.54
   0   1  -6   43.91    0.59
  -1   1  -6    9.79    0.22
  -2   1  -6    6.67    0.20
  -3   1  -6    0.84    0.09
   3  -1   6    0.69    0.10
  -4   1  -6    8.10    0.26
   4  -1   6    7.91    0.32
  -5   1  -6    0.88    0.11
   5  -1   6    0.86    0.14
   6  -1   6    0.25    0.10
   6   0  -6    1.31    0.17
   5   0  -6    0.10    0.06
   4   0  -6   12.14    0.35
   3   0  -6    3.70    0.16
   3   0  -6    3.75    0.16
   2   0  -6    2.45    0.12
   2   0  -6    2.48    0.11
   1   0  -6   67.89    0.85
   1   0  -6   68.56    0.89
   0   0  -6    1.25    0.07
   0   0  -6    1.35    0.08
  -1   0  -6   19.33    0.33
  -2   0  -6   85.32    1.06
   2   0   6   86.00    1.14
   2   0   6   86.09    1.06
  -3   0  -6    0.47    0.06
   3   0   6    0.57    0.08
   3   0   6    0.61    0.07
  -4   0  -6   41.23    0.65
   4   0   6   41.94    0.77
   5   0   6    0.85    0.13
   6   0   6    0.12    0.08
   6  -1  -6    1.77    0.20
   5  -1  -6    0.15    0.06
   4  -1  -6    0.92    0.12
   4  -1  -6    0.82    0.11
   3  -1  -6    0.36    0.07
   3  -1  -6    0.39    0.07
   2  -1  -6   23.88    0.41
   1  -1  -6   10.53    0.20
   1  -1  -6   10.56    0.26
   0  -1  -6   12.32    0.25
   0  -1  -6   12.22    0.19
   0   1   6   12.10    0.24
  -1  -1  -6    0.92    0.06
   1   1   6    0.85    0.06
  -2  -1  -6    6.56    0.17
   2   1   6    6.36    0.17
   2   1   6    6.56    0.19
  -3  -1  -6    5.89    0.17
   3   1   6    5.80    0.20
   3   1   6    5.91    0.20
  -4  -1  -6    0.35    0.06
   4   1   6    0.22    0.06
   4   1   6    0.13    0.05
   5   1   6    8.32    0.32
   6   1   6    8.08    0.35
   6  -2  -6    0.87    0.15
   5  -2  -6    0.03    0.05
   4  -2  -6   13.85    0.44
   4  -2  -6   13.62    0.38
   3  -2  -6   20.39    0.43
   3  -2  -6   20.50    0.51
   2  -2  -6   18.82    0.35
   2  -2  -6   19.76    0.46
   1  -2  -6  116.53    1.35
   1  -2  -6  116.74    1.51
  -1   2   6  115.30    1.37
   0  -2  -6   11.15    0.28
   0   2   6   10.98    0.24
  -1  -2  -6    4.18    0.15
   1   2   6    4.06    0.15
  -2  -2  -6    0.29    0.05
   2   2   6    0.07    0.04
   2   2   6    0.25    0.04
  -3  -2  -6    0.22    0.04
   3   2   6    0.20    0.06
   3   2   6    0.22    0.05
   4   2   6    7.68    0.25
   4   2   6    7.18    0.27
   5   2   6    4.28    0.23
   5   2   6    5.07    0.24
   6   2   6    3.45    0.22
   5  -3  -6   10.72    0.44
   5  -3  -6   10.89    0.40
   4  -3  -6    7.29    0.35
   4  -3  -6    7.34    0.29
   3  -3  -6   15.40    0.48
   3  -3  -6   15.78    0.38
   2  -3  -6   34.07    0.71
   2  -3  -6   32.95    0.55
   1  -3  -6    1.21    0.14
  -1   3   6    1.23    0.08
   0  -3  -6    0.14    0.05
   0   3   6    0.33    0.06
  -1  -3  -6   10.61    0.30
   1   3   6   10.69    0.30
  -2  -3  -6    8.91    0.25
   2   3   6    8.57    0.30
   3   3   6    1.83    0.17
   4   3   6   16.84    0.48
   5   3   6   10.04    0.38
   5  -4  -6    0.34    0.12
   4  -4  -6    9.13    0.42
   3  -4  -6   24.21    0.68
   2  -4  -6    0.56    0.12
   1  -4  -6   14.30    0.45
  -1   4   6   14.51    0.31
   0  -4  -6    0.50    0.10
   0   4   6    0.50    0.08
  -1  -4  -6   79.03    1.20
   1   4   6   79.10    1.19
  -2  -4  -6    5.93    0.24
   2   4   6    6.63    0.28
   3   4   6    0.28    0.09
   4   4   6   16.03    0.51
   5   4   6    0.31    0.10
   6   4   6    0.40    0.12
   3  -5  -6    1.91    0.23
   2  -5  -6    0.36    0.11
   1  -5  -6   32.05    0.78
   0  -5  -6    8.54    0.36
   0   5   6    8.02    0.28
  -1  -5  -6    0.50    0.10
   1   5   6    0.29    0.08
   2   5   6    6.67    0.31
   3   5   6   13.63    0.48
   4   5   6    4.69    0.30
   5   5   6    3.51    0.31
   2  -6  -6    0.00    0.07
   1  -6  -6    0.40    0.13
   0  -6  -6   20.24    0.62
   1   6   6    1.07    0.16
   2   6   6    3.36    0.24
   3   6   6    2.22    0.24
   4   6   6    0.08    0.09
   2   7   6    0.23    0.11
   3   6  -7    0.04    0.08
   2   6  -7    2.27    0.25
   1   6  -7   -0.03    0.07
   0   6  -7    5.09    0.31
  -1   6  -7    0.26    0.09
   4   5  -7    0.02    0.07
   3   5  -7    3.45    0.24
   2   5  -7    0.02    0.05
   1   5  -7    8.30    0.36
   0   5  -7    0.42    0.11
   0   5  -7    0.49    0.08
  -1   5  -7    2.62    0.17
  -2   5  -7    0.00    0.05
  -3   5  -7    0.57    0.12
   5   4  -7    1.56    0.19
   4   4  -7    1.30    0.17
   3   4  -7   18.10    0.52
   2   4  -7    7.22    0.30
   1   4  -7    0.87    0.13
   0   4  -7    1.10    0.11
   0   4  -7    1.38    0.16
  -1   4  -7    0.12    0.05
  -2   4  -7    4.47    0.22
  -3   4  -7    3.59    0.22
  -4   4  -7    2.14    0.20
   6   3  -7    0.09    0.08
   5   3  -7    0.04    0.06
   4   3  -7    2.30    0.17
   3   3  -7    0.70    0.11
   2   3  -7    3.10    0.18
   1   3  -7    2.32    0.16
   1   3  -7    2.40    0.11
   0   3  -7    0.00    0.03
  -1   3  -7    7.32    0.24
  -2   3  -7   27.52    0.55
  -3   3  -7   41.11    0.76
  -4   3  -7    3.25    0.20
  -5   3  -7    0.03    0.05
   6   2  -7    0.27    0.09
   5   2  -7    1.93    0.19
   4   2  -7    0.00    0.05
   3   2  -7   12.35    0.36
   2   2  -7    4.45    0.13
   2   2  -7    4.60    0.21
   1   2  -7   25.77    0.53
   1   2  -7   26.63    0.42
   0   2  -7   -0.01    0.02
  -1   2  -7   12.60    0.29
  -2   2  -7   43.92    0.70
  -3   2  -7    1.29    0.12
  -4   2  -7    9.12    0.30
  -5   2  -7   -0.04    0.03
   6  -2   7    1.54    0.22
   6   1  -7    5.03    0.28
   5   1  -7   11.95    0.39
   4   1  -7    0.07    0.05
   3   1  -7   12.17    0.33
   2   1  -7   63.17    0.81
   2   1  -7   62.28    0.93
   1   1  -7   11.57    0.23
   1   1  -7   11.50    0.30
   0   1  -7   10.96    0.23
  -1   1  -7    1.47    0.09
  -2   1  -7    7.77    0.22
  -3   1  -7    0.02    0.03
  -4   1  -7    6.12    0.22
   4  -1   7    6.34    0.29
  -5   1  -7    4.14    0.20
   5  -1   7    4.06    0.25
   6  -1   7    0.05    0.08
   6   0  -7    1.64    0.19
   5   0  -7    2.01    0.19
   4   0  -7   15.73    0.40
   3   0  -7    6.55    0.22
   3   0  -7    6.45    0.22
   2   0  -7   95.99    1.25
   2   0  -7   95.94    1.21
   1   0  -7   18.02    0.34
   1   0  -7   18.40    0.33
   0   0  -7    7.47    0.18
   0   0  -7    7.41    0.19
  -1   0  -7   28.90    0.45
  -2   0  -7    0.18    0.04
   2   0   7    0.21    0.04
  -3   0  -7    4.08    0.15
   3   0   7    3.80    0.14
  -4   0  -7    0.30    0.06
   4   0   7    0.21    0.07
   5   0   7    0.13    0.07
   6   0   7    0.60    0.13
   6  -1  -7    8.74    0.37
   5  -1  -7    0.02    0.05
   4  -1  -7   49.51    0.84
   4  -1  -7   49.25    0.87
   3  -1  -7    0.36    0.07
   3  -1  -7    0.34    0.06
   2  -1  -7   23.07    0.40
   2  -1  -7   22.63    0.46
   1  -1  -7   25.90    0.40
   1  -1  -7   26.58    0.47
   0  -1  -7  212.84    2.37
   0  -1  -7  205.35    2.35
  -1  -1  -7   39.96    0.58
  -2  -1  -7   17.73    0.33
   2   1   7   17.27    0.33
   2   1   7   18.07    0.35
  -3  -1  -7   13.97    0.30
   3   1   7   14.13    0.33
   3   1   7   13.96    0.33
  -4  -1  -7   30.82    0.52
   4   1   7   31.11    0.61
   4   1   7   31.01    0.57
   5   1   7    1.06    0.14
   6   1   7    7.40    0.34
   6  -2  -7    4.52    0.27
   5  -2  -7    4.39    0.24
   4  -2  -7    1.58    0.15
   4  -2  -7    1.75    0.18
   3  -2  -7   11.79    0.38
   3  -2  -7   12.04    0.31
   2  -2  -7    6.15    0.25
   2  -2  -7    5.91    0.17
   1  -2  -7   15.59    0.38
   1  -2  -7   15.83    0.26
   0  -2  -7   92.61    1.22
   0   2   7   90.14    1.15
  -1  -2  -7   29.79    0.50
   1   2   7   30.04    0.51
  -2  -2  -7   94.02    1.19
   2   2   7   95.98    1.28
   2   2   7   95.65    1.15
   3   2   7    0.29    0.07
   3   2   7    0.43    0.06
   4   2   7   11.37    0.32
   4   2   7   11.20    0.34
   5   2   7    0.06    0.06
   5  -3  -7    0.01    0.05
   5  -3  -7    0.05    0.08
   4  -3  -7    0.58    0.10
   4  -3  -7    0.62    0.13
   3  -3  -7    1.79    0.12
   3  -3  -7    1.53    0.18
   2  -3  -7    1.99    0.18
   1  -3  -7    1.17    0.13
  -1   3   7    1.30    0.08
   0  -3  -7    0.64    0.10
   0   3   7    0.49    0.07
  -1  -3  -7   41.23    0.70
   1   3   7   41.75    0.70
  -2  -3  -7    0.38    0.06
   2   3   7    0.46    0.08
   3   3   7   22.11    0.53
   4   3   7    9.93    0.36
   5   3   7    1.11    0.15
   4  -4  -7    2.99    0.29
   3  -4  -7    0.02    0.07
   2  -4  -7    0.00    0.05
   1  -4  -7    1.94    0.20
  -1   4   7    2.20    0.12
   0  -4  -7    2.73    0.19
   0   4   7    2.58    0.15
  -1  -4  -7    7.88    0.30
   1   4   7    8.39    0.29
  -2  -4  -7    3.99    0.20
   2   4   7    3.64    0.21
   3   4   7   59.33    1.07
   4   4   7    6.95    0.33
   5   4   7    4.85    0.29
   6   4   7   -0.01    0.07
   3  -5  -7   13.21    0.54
   2  -5  -7    5.00    0.31
   1  -5  -7    1.99    0.22
   0  -5  -7   19.58    0.57
   0   5   7   20.13    0.47
  -1  -5  -7   15.12    0.47
   1   5   7   15.70    0.45
   2   5   7    0.19    0.08
   3   5   7    5.78    0.31
   4   5   7    0.08    0.07
   5   5   7    0.48    0.12
   2  -6  -7    3.73    0.35
   1  -6  -7    5.81    0.35
   0  -6  -7    0.01    0.06
   1   6   7   21.71    0.58
   2   6   7    1.32    0.18
   3   6   7    0.06    0.07
   4   6   7    0.32    0.12
   2   7   7    4.60    0.30
   2   6  -8    0.25    0.11
   1   6  -8    0.29    0.10
   0   6  -8    2.15    0.25
  -1   6  -8    4.74    0.25
   4   5  -8    0.21    0.10
   3   5  -8    0.00    0.06
   2   5  -8    0.10    0.07
   1   5  -8    0.03    0.07
   0   5  -8    0.17    0.08
  -1   5  -8    7.51    0.29
  -2   5  -8    2.15    0.20
   5   4  -8    2.76    0.22
   4   4  -8   -0.05    0.05
   3   4  -8    3.99    0.24
   2   4  -8    2.38    0.18
   1   4  -8    9.17    0.36
   0   4  -8    0.19    0.08
   0   4  -8    0.16    0.05
  -1   4  -8    0.66    0.10
  -2   4  -8   -0.01    0.05
  -3   4  -8    1.74    0.17
  -4   4  -8    0.41    0.10
   5   3  -8    0.50    0.12
   4   3  -8   11.89    0.41
   3   3  -8   56.07    1.00
   2   3  -8   55.09    0.96
   1   3  -8    1.34    0.15
   1   3  -8    1.05    0.08
   0   3  -8    1.72    0.11
  -1   3  -8    8.38    0.26
  -2   3  -8    1.11    0.12
  -3   3  -8    0.04    0.05
  -4   3  -8    1.63    0.17
  -5   3  -8    1.13    0.15
   6   2  -8    0.56    0.12
   5   2  -8    1.24    0.15
   4   2  -8   10.12    0.35
   3   2  -8   21.78    0.52
   2   2  -8    1.21    0.13
   1   2  -8   29.11    0.60
   1   2  -8   30.20    0.47
   0   2  -8    6.38    0.19
  -1   2  -8    0.55    0.07
  -2   2  -8    0.17    0.05
  -3   2  -8    1.36    0.13
  -4   2  -8    9.22    0.31
  -5   2  -8    0.05    0.05
   6   1  -8    0.00    0.06
   5   1  -8    0.05    0.06
   4   1  -8    0.58    0.10
   3   1  -8    0.13    0.06
   2   1  -8    5.36    0.16
   2   1  -8    5.05    0.20
   1   1  -8    3.28    0.16
   1   1  -8    3.22    0.12
   0   1  -8   12.27    0.27
   0   1  -8   11.80    0.31
  -1   1  -8   10.18    0.25
  -2   1  -8    4.50    0.17
  -3   1  -8    5.92    0.21
  -4   1  -8    6.25    0.23
  -5   1  -8   11.32    0.34
   5  -1   8   11.53    0.44
   6  -1   8    0.07    0.08
   6   0  -8    0.11    0.07
   5   0  -8    0.80    0.12
   4   0  -8    0.79    0.11
   3   0  -8    2.97    0.15
   3   0  -8    2.95    0.15
   2   0  -8    0.45    0.07
   2   0  -8    0.35    0.06
   1   0  -8   13.54    0.30
   1   0  -8   13.78    0.29
   0   0  -8  105.19    1.32
   0   0  -8  104.17    1.27
  -1   0  -8    1.28    0.08
  -2   0  -8   61.39    0.85
  -3   0  -8   13.52    0.31
   3   0   8   13.57    0.37
   3   0   8   13.29    0.30
  -4   0  -8    4.15    0.18
   4   0   8    4.36    0.22
   5   0   8    0.58    0.12
   6   0   8    0.10    0.08
   6  -1  -8    0.20    0.08
   5  -1  -8    4.43    0.24
   4  -1  -8    1.21    0.13
   4  -1  -8    0.96    0.13
   3  -1  -8   33.07    0.64
   3  -1  -8   32.84    0.59
   2  -1  -8    0.52    0.08
   2  -1  -8    0.56    0.07
   1  -1  -8   20.39    0.41
   1  -1  -8   20.04    0.34
   0  -1  -8    2.43    0.09
   0  -1  -8    2.56    0.12
  -1  -1  -8    0.37    0.05
   1   1   8    0.33    0.05
  -2  -1  -8   61.87    0.84
   2   1   8   61.77    0.87
  -3  -1  -8    5.75    0.19
   3   1   8    5.29    0.20
   3   1   8    5.69    0.21
  -4  -1  -8    9.65    0.27
   4   1   8    9.35    0.28
   4   1   8    9.37    0.31
   5   1   8    1.49    0.16
   6   1   8    0.04    0.07
   6  -2  -8    0.61    0.13
   5  -2  -8    5.22    0.26
   4  -2  -8   38.05    0.81
   4  -2  -8   39.32    0.72
   3  -2  -8    3.27    0.16
   3  -2  -8    3.34    0.20
   2  -2  -8   12.82    0.28
   2  -2  -8   12.44    0.38
   1  -2  -8   14.58    0.25
   1  -2  -8   14.72    0.38
   0  -2  -8    2.13    0.13
   0   2   8    2.15    0.11
  -1  -2  -8   16.27    0.35
   1   2   8   15.93    0.34
  -2  -2  -8    6.86    0.21
   2   2   8    6.80    0.23
   3   2   8    7.22    0.25
   4   2   8   56.02    0.92
   5   2   8   11.06    0.36
   5  -3  -8    1.73    0.21
   4  -3  -8   17.39    0.56
   3  -3  -8    4.05    0.25
   2  -3  -8    8.99    0.35
   1  -3  -8   27.27    0.62
  -1   3   8   27.47    0.46
   0  -3  -8   10.26    0.33
   0   3   8    9.97    0.26
  -1  -3  -8   17.61    0.42
   1   3   8   17.98    0.40
  -2  -3  -8   17.14    0.40
   2   3   8   17.23    0.43
   3   3   8   23.32    0.54
   4   3   8   11.32    0.38
   5   3   8    6.52    0.30
   4  -4  -8    1.11    0.18
   3  -4  -8    3.68    0.26
   2  -4  -8    2.25    0.23
   1  -4  -8    0.61    0.12
  -1   4   8    0.51    0.07
   0  -4  -8   41.48    0.83
   0   4   8   41.11    0.69
  -1  -4  -8    1.23    0.14
   1   4   8    1.23    0.13
  -2  -4  -8   38.67    0.73
   2   4   8   39.20    0.77
   3   4   8    6.59    0.30
   4   4   8    4.23    0.25
   5   4   8    0.63    0.13
   3  -5  -8    0.26    0.11
   2  -5  -8    5.60    0.33
   1  -5  -8    0.77    0.15
   0  -5  -8   23.23    0.64
   0   5   8   23.10    0.51
  -1  -5  -8   23.90    0.62
   1   5   8   23.22    0.56
   2   5   8    1.06    0.15
   3   5   8    3.76    0.25
   4   5   8    0.08    0.07
   5   5   8    0.08    0.09
   1  -6  -8    0.08    0.08
   0  -6  -8    0.61    0.14
   1   6   8    3.76    0.23
   2   6   8   -0.02    0.06
   3   6   8    3.61    0.26
   4   6   8    0.05    0.09
   2   7   8    0.07    0.09
   2   6  -9    0.28    0.11
   1   6  -9    0.38    0.12
   0   6  -9    0.37    0.12
  -1   6  -9    0.47    0.13
   4   5  -9    0.02    0.07
   3   5  -9    0.43    0.12
   2   5  -9    7.00    0.35
   1   5  -9   11.15    0.45
   0   5  -9    0.28    0.10
  -1   5  -9    0.30    0.08
  -2   5  -9    0.10    0.06
   5   4  -9    0.58    0.13
   4   4  -9   -0.04    0.06
   3   4  -9    1.08    0.16
   2   4  -9    2.94    0.21
   1   4  -9    8.92    0.37
   0   4  -9    8.45    0.36
   0   4  -9    9.34    0.28
  -1   4  -9    0.48    0.08
  -2   4  -9    0.01    0.04
  -3   4  -9    3.04    0.20
   5   3  -9    0.78    0.13
   4   3  -9    0.01    0.05
   3   3  -9   10.72    0.38
   2   3  -9   10.18    0.36
   1   3  -9    4.86    0.17
   1   3  -9    4.92    0.25
   0   3  -9    0.05    0.03
   0   3  -9    0.05    0.06
  -1   3  -9    4.86    0.20
  -2   3  -9   23.64    0.52
  -3   3  -9    6.30    0.26
  -4   3  -9    0.95    0.13
   6   2  -9    1.17    0.17
   5   2  -9    3.73    0.23
   4   2  -9    6.50    0.29
   3   2  -9   36.93    0.74
   2   2  -9   32.10    0.65
   1   2  -9    4.12    0.15
   1   2  -9    4.15    0.21
   0   2  -9    4.27    0.21
   0   2  -9    4.16    0.16
  -1   2  -9   14.30    0.33
  -2   2  -9   13.32    0.34
  -3   2  -9   16.19    0.41
  -4   2  -9    0.85    0.12
  -5   2  -9    0.02    0.05
   6   1  -9    1.83    0.20
   5   1  -9    0.65    0.12
   4   1  -9    3.30    0.19
   3   1  -9    0.35    0.08
   2   1  -9    0.86    0.11
   2   1  -9    0.68    0.07
   1   1  -9   20.28    0.45
   1   1  -9   21.43    0.38
   0   1  -9   45.18    0.66
   0   1  -9   44.09    0.74
  -1   1  -9   13.53    0.30
  -2   1  -9    3.99    0.16
  -3   1  -9   12.06    0.32
  -4   1  -9    0.12    0.05
  -5   1  -9    2.37    0.16
   6  -1   9    0.47    0.13
   6   0  -9    1.39    0.18
   5   0  -9    0.02    0.05
   4   0  -9    2.46    0.16
   3   0  -9   21.15    0.46
   3   0  -9   21.74    0.46
   2   0  -9    0.61    0.08
   2   0  -9    0.31    0.06
   1   0  -9    2.74    0.14
   1   0  -9    2.51    0.12
   0   0  -9    8.97    0.24
   0   0  -9    8.92    0.23
  -1   0  -9    0.36    0.06
  -2   0  -9   11.13    0.28
  -3   0  -9    0.86    0.10
  -4   0  -9   18.43    0.41
   4   0   9   17.79    0.49
   5   0   9    1.48    0.18
   6   0   9    2.33    0.24
   6  -1  -9    1.74    0.19
   5  -1  -9   10.11    0.36
   4  -1  -9    0.70    0.11
   3  -1  -9   24.84    0.56
   3  -1  -9   25.09    0.49
   2  -1  -9   38.34    0.60
   2  -1  -9   37.24    0.67
   1  -1  -9   17.87    0.39
   1  -1  -9   18.22    0.33
   0  -1  -9    5.85    0.15
   0  -1  -9    5.95    0.19
  -1  -1  -9   75.46    1.00
  -2  -1  -9   15.62    0.33
  -3  -1  -9    5.25    0.19
   3   1   9    4.97    0.20
   3   1   9    4.80    0.19
  -4  -1  -9    7.87    0.25
   4   1   9    7.60    0.29
   4   1   9    8.09    0.26
   5   1   9    6.50    0.29
   6  -2  -9    0.52    0.12
   5  -2  -9    0.39    0.09
   4  -2  -9    0.59    0.11
   4  -2  -9    0.77    0.11
   3  -2  -9    1.24    0.12
   3  -2  -9    1.37    0.16
   2  -2  -9   20.88    0.38
   2  -2  -9   21.04    0.52
   1  -2  -9   57.44    0.92
   0  -2  -9   12.41    0.33
   0   2   9   12.72    0.29
  -1  -2  -9   11.82    0.31
   1   2   9   12.12    0.30
  -2  -2  -9    1.50    0.10
   2   2   9    1.56    0.11
   3   2   9    1.32    0.13
   4   2   9    0.15    0.06
   5   2   9    2.63    0.17
   5  -3  -9    0.30    0.10
   4  -3  -9    2.29    0.23
   3  -3  -9    9.39    0.38
   2  -3  -9   54.72    1.01
   1  -3  -9   12.16    0.40
  -1   3   9   12.35    0.29
   0  -3  -9   10.72    0.35
   0   3   9   11.87    0.29
  -1  -3  -9    9.26    0.30
   1   3   9    9.75    0.29
  -2  -3  -9   91.30    1.27
   2   3   9   92.89    1.32
  -3  -3  -9    1.24    0.12
   3   3   9    1.04    0.13
   4   3   9    0.89    0.13
   5   3   9    2.49    0.19
   4  -4  -9    0.08    0.08
   3  -4  -9    2.33    0.25
   2  -4  -9   67.03    1.24
   1  -4  -9   36.61    0.82
  -1   4   9   37.75    0.61
   0  -4  -9    0.95    0.14
   0   4   9    0.90    0.10
  -1  -4  -9    3.88    0.22
   1   4   9    3.93    0.20
  -2  -4  -9    0.08    0.05
   2   4   9   -0.01    0.04
   3   4   9    0.31    0.08
   4   4   9    0.63    0.12
   5   4   9    0.29    0.10
   3  -5  -9    2.14    0.26
   2  -5  -9    1.19    0.19
   1  -5  -9    7.59    0.38
   0  -5  -9    0.94    0.16
   0   5   9    0.82    0.11
  -1  -5  -9    4.95    0.28
   1   5   9    5.05    0.24
   2   5   9    0.60    0.12
   3   5   9    1.90    0.20
   4   5   9    1.30    0.18
   5   5   9    0.96    0.16
   1  -6  -9    1.98    0.25
   0  -6  -9    1.45    0.21
   1   6   9    0.64    0.12
   2   6   9    0.22    0.08
   3   6   9    4.78    0.30
   4   6   9    0.09    0.09
   1   6 -10    0.02    0.08
   0   6 -10    1.09    0.18
  -1   6 -10    0.33    0.13
   3   5 -10    0.13    0.10
   2   5 -10    7.98    0.38
   1   5 -10    1.43    0.20
   0   5 -10    0.57    0.13
  -1   5 -10    0.00    0.04
  -2   5 -10    0.41    0.10
   4   4 -10    0.79    0.14
   3   4 -10   11.81    0.45
   2   4 -10   10.21    0.40
   1   4 -10    6.82    0.33
   0   4 -10    0.14    0.05
   0   4 -10    0.17    0.08
  -1   4 -10    3.49    0.19
  -2   4 -10    1.14    0.14
  -3   4 -10    0.20    0.08
   5   3 -10    0.32    0.10
   4   3 -10    0.28    0.10
   3   3 -10    0.78    0.13
   2   3 -10    2.01    0.20
   1   3 -10    1.15    0.11
   1   3 -10    1.14    0.15
   0   3 -10    7.74    0.32
   0   3 -10    7.18    0.23
  -1   3 -10    1.27    0.12
  -2   3 -10    0.18    0.06
  -3   3 -10   24.52    0.57
  -4   3 -10    1.78    0.18
   5   2 -10    0.45    0.11
   4   2 -10    7.71    0.32
   3   2 -10    7.09    0.30
   2   2 -10    8.20    0.31
   1   2 -10    1.31    0.09
   1   2 -10    1.15    0.14
   0   2 -10    0.15    0.06
   0   2 -10    0.08    0.03
  -1   2 -10    0.05    0.03
  -2   2 -10    3.01    0.16
  -3   2 -10    6.37    0.25
  -4   2 -10    9.05    0.32
  -5   2 -10    0.02    0.06
   6   1 -10    1.88    0.21
   5   1 -10    1.15    0.15
   4   1 -10   -0.02    0.04
   3   1 -10    4.06    0.21
   2   1 -10    0.75    0.10
   2   1 -10    0.90    0.09
   1   1 -10   41.00    0.63
   1   1 -10   42.25    0.74
   0   1 -10    3.54    0.15
   0   1 -10    3.49    0.18
  -1   1 -10    7.76    0.23
  -2   1 -10    0.09    0.04
  -3   1 -10    0.21    0.06
  -4   1 -10    1.32    0.13
  -5   1 -10    0.41    0.08
   6   0 -10    0.28    0.10
   5   0 -10    6.83    0.30
   4   0 -10    0.43    0.09
   3   0 -10   15.79    0.39
   3   0 -10   16.30    0.40
   2   0 -10   23.34    0.48
   2   0 -10   25.11    0.48
   1   0 -10   33.50    0.56
   1   0 -10   33.21    0.57
   0   0 -10   10.57    0.27
   0   0 -10   10.64    0.27
  -1   0 -10   85.22    1.12
  -2   0 -10   22.59    0.44
  -3   0 -10    1.46    0.11
  -4   0 -10    1.11    0.12
  -5   0 -10    2.30    0.15
   5   0  10    2.11    0.22
   6   0  10    0.26    0.10
   6  -1 -10    2.78    0.22
   5  -1 -10   -0.04    0.04
   4  -1 -10    0.58    0.10
   3  -1 -10   14.74    0.36
   3  -1 -10   14.63    0.42
   2  -1 -10    0.03    0.03
   2  -1 -10    0.02    0.03
   1  -1 -10   42.27    0.71
   1  -1 -10   43.66    0.63
   0  -1 -10    1.10    0.07
   0  -1 -10    1.00    0.10
  -1  -1 -10    0.13    0.04
  -2  -1 -10    2.01    0.12
   2   1  10    2.00    0.12
  -3  -1 -10   47.99    0.75
   3   1  10   48.25    0.77
  -4  -1 -10    9.18    0.28
   4   1  10    9.77    0.33
   4   1  10    9.85    0.29
   5  -2 -10    1.38    0.17
   4  -2 -10    0.36    0.09
   4  -2 -10    0.38    0.08
   3  -2 -10    0.09    0.06
   2  -2 -10    2.42    0.17
   1  -2 -10    0.58    0.09
   0  -2 -10    8.87    0.28
  -1  -2 -10    2.85    0.15
   1   2  10    2.69    0.14
  -2  -2 -10   62.40    0.92
   2   2  10   62.05    0.94
  -3  -2 -10   16.14    0.38
   3   2  10   17.07    0.41
   4   2  10    1.44    0.15
   5   2  10    0.01    0.05
   4  -3 -10    8.08    0.38
   3  -3 -10   19.75    0.58
   2  -3 -10    3.95    0.24
   1  -3 -10    0.03    0.04
   0  -3 -10    1.73    0.17
   0   3  10    1.86    0.12
  -1  -3 -10    0.52    0.09
   1   3  10    0.38    0.07
  -2  -3 -10   22.34    0.50
   2   3  10   22.81    0.51
  -3  -3 -10   11.10    0.32
   3   3  10   11.17    0.36
   4   3  10   10.62    0.37
   5   3  10    0.16    0.08
   4  -4 -10    0.05    0.08
   3  -4 -10    0.10    0.07
   2  -4 -10    1.27    0.18
   1  -4 -10    5.45    0.30
  -1   4  10    5.96    0.21
   0  -4 -10    0.63    0.12
   0   4  10    0.74    0.10
  -1  -4 -10   35.68    0.74
   1   4  10   34.64    0.67
  -2  -4 -10   29.13    0.64
   2   4  10   28.92    0.63
   3   4  10    0.71    0.12
   4   4  10    0.88    0.13
   5   4  10    1.92    0.21
   2  -5 -10    3.27    0.30
   1  -5 -10    0.05    0.07
   0  -5 -10   22.22    0.64
   0   5  10   22.56    0.50
  -1  -5 -10    0.21    0.09
   1   5  10    0.18    0.07
   2   5  10   11.40    0.40
   3   5  10    0.33    0.10
   4   5  10    0.53    0.12
   1  -6 -10    0.21    0.11
   0  -6 -10    0.10    0.08
   1   6  10    1.28    0.16
   2   6  10    0.87    0.15
   3   6  10    1.19    0.17
   3   5 -11   -0.08    0.06
   2   5 -11    1.70    0.21
   1   5 -11    2.20    0.25
   0   5 -11    0.00    0.06
  -1   5 -11    0.18    0.07
   4   4 -11    2.03    0.23
   3   4 -11    0.37    0.11
   2   4 -11    0.53    0.12
   1   4 -11    1.50    0.19
   0   4 -11    1.33    0.13
   0   4 -11    1.25    0.18
  -1   4 -11    5.75    0.25
  -2   4 -11    3.32    0.20
  -3   4 -11    2.36    0.21
   5   3 -11    0.09    0.08
   4   3 -11    1.01    0.16
   3   3 -11    1.17    0.16
   2   3 -11    0.14    0.08
   1   3 -11    0.32    0.09
   1   3 -11    0.21    0.05
   0   3 -11   10.67    0.30
   0   3 -11    9.82    0.38
  -1   3 -11    8.35    0.28
  -2   3 -11    7.89    0.29
  -3   3 -11    0.29    0.07
  -4   3 -11    0.50    0.11
   5   2 -11    0.04    0.06
   4   2 -11    0.11    0.07
   3   2 -11    0.56    0.11
   2   2 -11    0.61    0.11
   1   2 -11    1.22    0.11
   1   2 -11    1.30    0.15
   0   2 -11   10.94    0.30
   0   2 -11   11.75    0.38
  -1   2 -11   17.04    0.39
  -2   2 -11    2.66    0.15
  -3   2 -11    5.51    0.24
  -4   2 -11    1.32    0.14
  -5   2 -11    0.18    0.08
   5   1 -11    0.43    0.10
   4   1 -11    1.40    0.16
   3   1 -11    0.12    0.06
   2   1 -11    9.93    0.27
   2   1 -11    9.42    0.32
   1   1 -11    4.16    0.20
   1   1 -11    4.13    0.17
   0   1 -11    7.56    0.27
   0   1 -11    7.36    0.23
  -1   1 -11   26.68    0.51
  -2   1 -11    0.33    0.07
  -3   1 -11    1.97    0.13
  -4   1 -11    1.24    0.13
  -5   1 -11    0.15    0.07
   6   0 -11    0.14    0.08
   5   0 -11    3.82    0.23
   4   0 -11   17.17    0.46
   3   0 -11    4.90    0.22
   3   0 -11    4.99    0.21
   2   0 -11   31.33    0.59
   2   0 -11   33.02    0.60
   1   0 -11    3.56    0.16
   1   0 -11    2.88    0.15
   0   0 -11    8.75    0.25
   0   0 -11    9.09    0.26
  -1   0 -11    9.64    0.27
  -2   0 -11   15.49    0.37
  -3   0 -11    2.37    0.15
  -4   0 -11   -0.03    0.03
  -5   0 -11    0.04    0.05
   5  -1 -11    2.26    0.20
   4  -1 -11    0.21    0.07
   3  -1 -11   21.17    0.46
   3  -1 -11   20.71    0.52
   2  -1 -11    2.67    0.16
   2  -1 -11    2.80    0.14
   1  -1 -11   37.65    0.58
   1  -1 -11   37.62    0.67
   0  -1 -11  126.90    1.61
  -1  -1 -11   11.86    0.31
  -2  -1 -11    2.67    0.14
   2   1  11    2.54    0.14
  -3  -1 -11   26.89    0.53
   3   1  11   27.11    0.53
  -4  -1 -11    1.78    0.13
   4   1  11    1.84    0.14
   4  -2 -11    0.27    0.09
   3  -2 -11   25.64    0.64
   2  -2 -11   50.12    0.92
   1  -2 -11   14.33    0.41
   0  -2 -11    1.46    0.15
  -1  -2 -11   11.77    0.33
   1   2  11   12.42    0.32
  -2  -2 -11    0.41    0.07
   2   2  11    0.54    0.09
  -3  -2 -11    0.59    0.09
   3   2  11    0.45    0.08
   4   2  11    2.25    0.16
   5   2  11    4.08    0.22
   4  -3 -11   -0.04    0.06
   3  -3 -11    6.38    0.33
   2  -3 -11   13.51    0.46
   1  -3 -11   46.79    0.90
   0  -3 -11    3.42    0.20
   0   3  11    3.30    0.16
  -1  -3 -11   47.29    0.84
   1   3  11   48.57    0.79
  -2  -3 -11    1.56    0.15
   2   3  11    1.26    0.13
  -3  -3 -11    0.69    0.10
   3   3  11    0.66    0.11
   4   3  11   -0.01    0.05
   5   3  11    0.64    0.12
   3  -4 -11    2.55    0.27
   2  -4 -11    2.88    0.26
   1  -4 -11   26.96    0.70
  -1   4  11   26.74    0.51
   0  -4 -11    1.41    0.17
   0   4  11    1.27    0.13
  -1  -4 -11   20.28    0.54
   1   4  11   19.72    0.47
  -2  -4 -11   13.34    0.41
   2   4  11   12.38    0.39
   3   4  11    4.37    0.24
   4   4  11    1.70    0.18
   5   4  11   -0.01    0.06
   2  -5 -11    0.28    0.11
   1  -5 -11    0.29    0.10
   0  -5 -11    7.56    0.37
   0   5  11    8.00    0.28
  -1  -5 -11    4.20    0.27
   1   5  11    4.52    0.23
   2   5  11    9.84    0.37
   3   5  11    1.10    0.15
   4   5  11    0.10    0.07
   0  -6 -11    0.83    0.17
  -1  -6 -11    0.16    0.10
   1   6  11    0.22    0.08
   2   6  11    1.50    0.18
   3   6  11   -0.08    0.05
   2   5 -12    0.94    0.17
   1   5 -12    0.71    0.15
   0   5 -12    3.61    0.27
  -1   5 -12    0.94    0.13
  -1   5 -12    1.00    0.18
   4   4 -12    3.04    0.28
   3   4 -12    2.79    0.27
   2   4 -12    1.01    0.16
   1   4 -12    2.47    0.25
   0   4 -12    0.12    0.05
   0   4 -12   -0.08    0.07
  -1   4 -12    5.86    0.25
  -2   4 -12    6.81    0.29
   4   3 -12   16.90    0.54
   3   3 -12   21.26    0.60
   2   3 -12    1.13    0.16
   1   3 -12    0.69    0.12
   0   3 -12    0.38    0.10
   0   3 -12    0.54    0.08
  -1   3 -12    5.12    0.22
  -2   3 -12    3.39    0.19
  -3   3 -12    1.33    0.15
   5   2 -12    3.90    0.25
   4   2 -12    1.04    0.15
   3   2 -12    0.16    0.07
   2   2 -12    0.70    0.12
   1   2 -12    1.01    0.14
   1   2 -12    1.15    0.11
   0   2 -12    0.79    0.10
   0   2 -12    0.71    0.12
  -1   2 -12    0.02    0.04
  -2   2 -12    0.38    0.08
  -3   2 -12    1.64    0.15
  -4   2 -12    0.60    0.10
   5   1 -12    1.58    0.18
   4   1 -12    0.75    0.12
   3   1 -12    2.64    0.18
   2   1 -12    5.69    0.25
   2   1 -12    5.89    0.22
   1   1 -12    6.04    0.21
   1   1 -12    6.23    0.25
   0   1 -12    0.10    0.04
   0   1 -12    0.07    0.05
  -1   1 -12    5.72    0.22
  -2   1 -12    5.11    0.22
  -3   1 -12   15.77    0.41
  -4   1 -12    0.03    0.05
  -5   1 -12    2.95    0.19
   5   0 -12    0.07    0.07
   4   0 -12    4.32    0.22
   3   0 -12    0.01    0.05
   2   0 -12   10.80    0.32
   2   0 -12   10.45    0.31
   1   0 -12    2.63    0.14
   1   0 -12    2.58    0.15
   0   0 -12   26.23    0.50
   0   0 -12   25.93    0.51
  -1   0 -12    2.73    0.15
  -2   0 -12   14.92    0.37
  -3   0 -12   19.47    0.45
  -4   0 -12   13.46    0.38
  -5   0 -12    0.15    0.07
   5  -1 -12    0.33    0.10
   4  -1 -12    0.38    0.09
   3  -1 -12    0.09    0.05
   3  -1 -12    0.02    0.04
   2  -1 -12    9.63    0.27
   2  -1 -12    9.00    0.32
   1  -1 -12    1.06    0.12
   0  -1 -12    0.09    0.04
  -1  -1 -12   -0.01    0.02
  -2  -1 -12    0.26    0.06
  -3  -1 -12    4.10    0.19
   3   1  12    4.05    0.19
  -4  -1 -12    1.52    0.15
   4   1  12    1.43    0.14
   4  -2 -12    2.18    0.22
   3  -2 -12    0.72    0.13
   2  -2 -12    6.62    0.29
   1  -2 -12   19.25    0.50
   0  -2 -12    1.54    0.15
  -1  -2 -12   39.91    0.72
   1   2  12   40.66    0.69
  -2  -2 -12    2.53    0.15
   2   2  12    2.87    0.17
  -3  -2 -12   21.18    0.48
   3   2  12   20.74    0.48
   4   2  12   -0.03    0.04
   5   2  12    2.08    0.19
   4  -3 -12    0.14    0.08
   3  -3 -12    7.59    0.36
   2  -3 -12    6.43    0.32
   1  -3 -12   18.23    0.52
   0  -3 -12    1.61    0.17
   0   3  12    2.10    0.14
  -1  -3 -12    3.44    0.20
   1   3  12    3.44    0.18
  -2  -3 -12   48.99    0.85
   2   3  12   48.68    0.84
  -3  -3 -12   19.52    0.47
   3   3  12   19.30    0.49
   4   3  12    4.69    0.24
   5   3  12    0.22    0.08
   3  -4 -12    0.16    0.09
   2  -4 -12    1.19    0.18
   1  -4 -12    2.43    0.25
   0  -4 -12    1.12    0.16
   0   4  12    1.20    0.13
  -1  -4 -12    0.20    0.07
   1   4  12    0.21    0.07
  -2  -4 -12    0.42    0.09
   2   4  12    0.26    0.08
   3   4  12    4.21    0.24
   4   4  12    3.34    0.22
   5   4  12    4.00    0.26
   2  -5 -12    0.21    0.10
   1  -5 -12    0.01    0.06
   0  -5 -12    4.96    0.31
   0   5  12    4.77    0.22
  -1  -5 -12    1.02    0.16
   1   5  12    1.30    0.15
   2   5  12    0.45    0.10
   3   5  12   -0.01    0.05
   4   5  12    5.57    0.31
   0  -6 -12   -0.04    0.06
  -1  -6 -12    0.21    0.10
   1   6  12    0.12    0.07
   2   6  12    2.51    0.24
   3   6  12    0.69    0.14
   2   5 -13    1.31    0.20
   1   5 -13    2.54    0.28
   0   5 -13    4.60    0.32
  -1   5 -13    1.04    0.19
   3   4 -13    0.06    0.09
   2   4 -13    1.59    0.21
   1   4 -13    1.41    0.19
   0   4 -13    2.82    0.27
   0   4 -13    2.81    0.17
  -1   4 -13    3.04    0.19
  -2   4 -13    1.40    0.16
   4   3 -13    2.73    0.26
   3   3 -13    2.23    0.23
   2   3 -13    0.07    0.07
   1   3 -13    0.30    0.10
   0   3 -13    2.16    0.14
   0   3 -13    2.57    0.24
  -1   3 -13    0.02    0.04
  -2   3 -13    2.54    0.17
  -3   3 -13    2.48    0.18
   5   2 -13    0.10    0.08
   4   2 -13    0.85    0.14
   3   2 -13    3.06    0.22
   2   2 -13    2.86    0.20
   1   2 -13    2.98    0.20
   1   2 -13    3.18    0.16
   0   2 -13    7.96    0.33
   0   2 -13    8.50    0.28
  -1   2 -13    1.39    0.14
  -2   2 -13    0.12    0.05
  -3   2 -13    0.38    0.08
  -4   2 -13    0.24    0.08
   5   1 -13    1.17    0.17
   4   1 -13    0.18    0.08
   3   1 -13    9.57    0.35
   2   1 -13    6.28    0.27
   2   1 -13    6.07    0.23
   1   1 -13   15.76    0.43
   1   1 -13   15.46    0.38
   0   1 -13   11.94    0.37
   0   1 -13   11.42    0.32
  -1   1 -13    0.03    0.04
  -2   1 -13    3.44    0.18
  -3   1 -13    0.24    0.07
  -4   1 -13   -0.03    0.05
  -5   1 -13    2.02    0.19
   5   0 -13    0.97    0.15
   4   0 -13    0.06    0.06
   3   0 -13    5.20    0.23
   2   0 -13   42.47    0.74
   2   0 -13   41.15    0.75
   1   0 -13   12.33    0.34
   1   0 -13   11.58    0.33
   0   0 -13    6.58    0.24
   0   0 -13    6.43    0.24
  -1   0 -13   18.71    0.43
  -2   0 -13    5.26    0.22
  -3   0 -13    5.83    0.24
  -4   0 -13    0.04    0.06
  -5   0 -13    0.07    0.06
   3  -1 -13    6.90    0.30
   2  -1 -13    8.18    0.31
   1  -1 -13   14.59    0.40
   0  -1 -13   15.03    0.39
  -1  -1 -13    4.05    0.19
  -2  -1 -13    0.50    0.09
  -3  -1 -13    3.13    0.17
  -4  -1 -13    3.19    0.19
   4  -2 -13    2.57    0.25
   3  -2 -13    0.70    0.13
   2  -2 -13    1.07    0.14
   1  -2 -13    1.59    0.17
   0  -2 -13    1.01    0.13
  -1  -2 -13   13.52    0.38
  -2  -2 -13   25.00    0.54
   2   2  13   24.29    0.53
  -3  -2 -13    8.06    0.29
   3   2  13    7.72    0.29
   4   2  13    5.27    0.25
   5   2  13    0.03    0.06
   4  -3 -13    7.23    0.38
   3  -3 -13    2.13    0.23
   2  -3 -13    2.69    0.25
   1  -3 -13    0.39    0.10
   0  -3 -13   18.96    0.53
  -1  -3 -13    0.52    0.10
   1   3  13    0.42    0.08
  -2  -3 -13   14.84    0.42
   2   3  13   15.63    0.42
  -3  -3 -13    3.53    0.20
   3   3  13    3.45    0.20
   4   3  13    3.99    0.23
   5   3  13    2.98    0.21
   3  -4 -13    0.14    0.08
   2  -4 -13    1.45    0.20
   1  -4 -13   16.58    0.56
   0  -4 -13    1.11    0.16
   0   4  13    1.32    0.14
  -1  -4 -13    8.23    0.35
   1   4  13    7.77    0.29
  -2  -4 -13    1.04    0.15
   2   4  13    0.98    0.13
   3   4  13    0.00    0.06
   4   4  13    4.76    0.27
   1  -5 -13    0.10    0.08
   0  -5 -13    0.20    0.10
   0   5  13    0.13    0.07
  -1  -5 -13    0.47    0.12
   1   5  13    0.68    0.11
   2   5  13    0.57    0.11
   3   5  13    0.76    0.14
   4   5  13    0.29    0.10
  -1  -6 -13    4.09    0.30
   1   6  13    4.05    0.24
   2   6  13    0.06    0.08
   0   5 -14    2.44    0.27
   3   4 -14    1.83    0.22
   2   4 -14    2.42    0.26
   1   4 -14    1.33    0.20
   0   4 -14    3.00    0.29
  -1   4 -14    0.74    0.11
  -1   4 -14    1.00    0.18
   4   3 -14    0.71    0.15
   3   3 -14   -0.08    0.06
   2   3 -14    0.91    0.16
   1   3 -14    1.68    0.20
   0   3 -14    0.58    0.10
   0   3 -14    0.35    0.11
  -1   3 -14    2.98    0.19
  -2   3 -14    6.68    0.28
   4   2 -14    0.64    0.13
   3   2 -14    0.32    0.10
   2   2 -14    4.39    0.26
   1   2 -14    7.21    0.32
   1   2 -14    6.62    0.24
   0   2 -14    5.80    0.23
   0   2 -14    5.80    0.28
  -1   2 -14    1.23    0.13
  -2   2 -14    4.09    0.22
  -3   2 -14   -0.06    0.05
   5   1 -14    0.83    0.15
   4   1 -14    2.76    0.20
   3   1 -14    9.37    0.36
   2   1 -14    9.45    0.35
   2   1 -14    9.91    0.32
   1   1 -14    9.02    0.32
   1   1 -14    8.70    0.29
   0   1 -14    8.90    0.33
   0   1 -14    9.19    0.29
  -1   1 -14    6.96    0.26
  -2   1 -14    3.25    0.19
  -3   1 -14    7.15    0.29
  -4   1 -14    0.33    0.09
   5   0 -14    1.29    0.16
   4   0 -14    0.91    0.13
   3   0 -14    0.03    0.06
   2   0 -14    0.89    0.12
   2   0 -14    1.00    0.13
   1   0 -14   16.98    0.42
   1   0 -14   15.91    0.41
  -1   0 -14   21.61    0.48
  -2   0 -14    9.45    0.31
  -3   0 -14    2.06    0.16
  -4   0 -14    3.41    0.20
  -5   0 -14    0.03    0.07
   3  -1 -14    1.34    0.16
   2  -1 -14    1.51    0.16
   1  -1 -14    8.36    0.31
   0  -1 -14    0.31    0.07
  -1  -1 -14    1.20    0.13
  -2  -1 -14   13.12    0.37
  -3  -1 -14    4.60    0.22
  -4  -1 -14    2.50    0.17
   3  -2 -14    7.08    0.35
   2  -2 -14    1.50    0.17
   1  -2 -14    2.79    0.19
   0  -2 -14   54.34    0.95
  -1  -2 -14   20.10    0.50
  -2  -2 -14    1.92    0.17
  -3  -2 -14   15.66    0.43
   3   2  14   15.76    0.44
  -4  -2 -14    4.94    0.24
   4   2  14    4.56    0.24
   5   2  14    0.20    0.08
   3  -3 -14    2.59    0.26
   2  -3 -14    9.43    0.41
   1  -3 -14    0.50    0.11
   0  -3 -14   19.29    0.55
  -1  -3 -14    3.54    0.22
   1   3  14    3.99    0.20
  -2  -3 -14    2.97    0.19
   2   3  14    2.65    0.18
  -3  -3 -14    0.12    0.07
   3   3  14    0.12    0.06
   4   3  14    4.99    0.26
   5   3  14    0.92    0.14
   2  -4 -14    1.06    0.18
   1  -4 -14    1.71    0.22
   0  -4 -14    0.05    0.06
  -1  -4 -14   18.65    0.56
   1   4  14   18.47    0.48
  -2  -4 -14    5.42    0.29
   2   4  14    5.40    0.26
   3   4  14    2.72    0.20
   4   4  14    0.18    0.08
   0  -5 -14    1.07    0.18
   0   5  14    1.34    0.15
  -1  -5 -14    0.43    0.12
   1   5  14    0.53    0.10
  -2  -5 -14    2.55    0.26
   2   5  14    2.99    0.20
   3   5  14    5.53    0.30
   1   6  14    1.24    0.16
   2   4 -15    0.59    0.15
   1   4 -15   -0.02    0.08
   0   4 -15    2.33    0.26
  -1   4 -15    1.43    0.21
   3   3 -15    0.02    0.09
   2   3 -15    0.07    0.08
   1   3 -15    0.30    0.11
   0   3 -15    1.17    0.18
   0   3 -15    1.09    0.13
  -1   3 -15    0.82    0.13
  -1   3 -15    0.66    0.14
  -2   3 -15    0.61    0.11
   4   2 -15    0.08    0.08
   3   2 -15    0.26    0.10
   2   2 -15    4.61    0.27
   1   2 -15   -0.01    0.04
   1   2 -15    0.09    0.08
   0   2 -15    6.50    0.31
   0   2 -15    6.04    0.25
  -1   2 -15    0.04    0.04
  -1   2 -15    0.14    0.07
  -2   2 -15    0.04    0.05
  -3   2 -15    1.12    0.15
   4   1 -15    0.95    0.15
   3   1 -15    0.10    0.08
   2   1 -15    5.42    0.27
   1   1 -15   18.00    0.49
   1   1 -15   17.15    0.44
   0   1 -15    7.75    0.32
   0   1 -15    7.27    0.27
  -1   1 -15    1.30    0.14
  -1   1 -15    0.95    0.14
  -2   1 -15    1.10    0.13
  -3   1 -15    0.16    0.07
  -4   1 -15    0.88    0.13
   4   0 -15    2.28    0.20
   3   0 -15    0.14    0.07
   2   0 -15    0.86    0.12
   1   0 -15    4.41    0.22
   0   0 -15    0.01    0.04
  -1   0 -15    2.68    0.17
  -2   0 -15   -0.03    0.04
  -3   0 -15    0.03    0.05
  -4   0 -15    2.70    0.19
   3  -1 -15    1.52    0.18
   2  -1 -15    0.95    0.13
   1  -1 -15   13.26    0.41
   0  -1 -15   17.05    0.45
  -1  -1 -15    0.40    0.09
  -2  -1 -15    9.82    0.33
  -3  -1 -15    0.99    0.13
  -4  -1 -15    0.09    0.07
   3  -2 -15   20.80    0.63
   2  -2 -15    0.31    0.09
   1  -2 -15    0.07    0.05
   0  -2 -15    1.20    0.15
  -1  -2 -15   13.94    0.42
  -2  -2 -15    0.52    0.10
  -3  -2 -15    5.77    0.26
  -4  -2 -15    1.24    0.16
   4   2  15    0.74    0.12
   5   2  15    0.33    0.10
   3  -3 -15    5.41    0.33
   2  -3 -15    8.87    0.40
   1  -3 -15    0.55    0.12
   0  -3 -15    1.50    0.18
  -1  -3 -15    0.25    0.08
  -2  -3 -15    0.63    0.11
   2   3  15    0.40    0.09
  -3  -3 -15    0.16    0.07
   3   3  15    0.07    0.06
   4   3  15    0.79    0.13
   1  -4 -15    0.44    0.12
   0  -4 -15    0.04    0.07
  -1  -4 -15    0.45    0.11
   1   4  15    0.53    0.10
  -2  -4 -15    0.53    0.11
   2   4  15    0.46    0.10
   3   4  15    1.55    0.17
   4   4  15    0.78    0.13
  -1  -5 -15    0.17    0.09
   1   5  15    0.08    0.07
  -2  -5 -15    0.39    0.12
   2   5  15    0.18    0.08
   3   5  15    0.94    0.15
   1   4 -16    0.16    0.11
   0   4 -16    0.13    0.09
  -1   4 -16    4.83    0.33
   3   3 -16   -0.03    0.08
   2   3 -16    0.39    0.12
   1   3 -16    0.17    0.10
   0   3 -16    0.45    0.13
   0   3 -16    0.50    0.10
  -1   3 -16    0.35    0.12
  -1   3 -16    0.15    0.07
   3   2 -16    0.02    0.07
   2   2 -16    4.72    0.28
   1   2 -16    0.71    0.11
   1   2 -16    1.16    0.17
   0   2 -16    0.75    0.11
   0   2 -16    0.90    0.15
  -1   2 -16   -0.01    0.04
  -1   2 -16    0.09    0.08
  -2   2 -16    0.33    0.09
   4   1 -16    0.27    0.10
   3   1 -16    3.05    0.21
   2   1 -16    0.44    0.11
   1   1 -16    0.54    0.10
   1   1 -16    0.45    0.11
   0   1 -16   -0.03    0.06
   0   1 -16    0.11    0.05
  -1   1 -16   11.83    0.41
  -1   1 -16   12.05    0.38
  -2   1 -16   22.66    0.55
  -3   1 -16    0.90    0.13
   2   0 -16    0.06    0.06
   1   0 -16    0.49    0.09
   0   0 -16   12.88    0.39
  -1   0 -16   17.76    0.46
  -2   0 -16    1.89    0.18
  -3   0 -16    2.63    0.18
  -4   0 -16    1.31    0.16
   3  -1 -16    0.07    0.06
   2  -1 -16    2.37    0.22
   1  -1 -16    1.33    0.16
   0  -1 -16   30.85    0.66
  -1  -1 -16   32.55    0.69
  -2  -1 -16    0.04    0.04
  -3  -1 -16    1.29    0.15
  -4  -1 -16    4.85    0.25
   3  -2 -16    4.18    0.29
   2  -2 -16    2.60    0.25
   1  -2 -16    2.79    0.20
   0  -2 -16    6.32    0.30
  -1  -2 -16   15.13    0.46
  -2  -2 -16    1.44    0.16
  -3  -2 -16    6.53    0.29
  -4  -2 -16    0.67    0.12
   2  -3 -16    3.80    0.27
   1  -3 -16    0.74    0.14
   0  -3 -16    7.23    0.34
  -1  -3 -16    1.60    0.19
  -2  -3 -16    0.57    0.11
  -3  -3 -16    9.98    0.38
   3   3  16   10.12    0.38
   4   3  16    1.25    0.17
   1  -4 -16    0.33    0.11
   0  -4 -16    0.98    0.17
  -1  -4 -16    0.49    0.12
  -2  -4 -16    0.07    0.07
   2   4  16   -0.09    0.04
   3   4  16    1.16    0.16
   1   5  16    0.50    0.11
   2   5  16    5.17    0.28
   2   3 -17    0.07    0.10
   1   3 -17    2.45    0.25
   0   3 -17    1.89    0.18
   0   3 -17    1.83    0.23
  -1   3 -17    1.07    0.18
   3   2 -17    0.94    0.17
   2   2 -17    0.64    0.14
   1   2 -17   12.99    0.46
   0   2 -17    5.36    0.25
   0   2 -17    5.44    0.30
  -1   2 -17    0.94    0.13
  -1   2 -17    0.81    0.15
   3   1 -17    0.08    0.08
   2   1 -17    2.44    0.23
   1   1 -17    0.43    0.09
   1   1 -17    0.38    0.11
   0   1 -17    8.88    0.33
  -1   1 -17    0.57    0.10
  -2   1 -17    0.19    0.08
   2   0 -17    3.86    0.23
   1   0 -17   10.53    0.37
   0   0 -17    4.38    0.23
  -1   0 -17    2.93    0.19
  -2   0 -17    2.41    0.20
  -3   0 -17    0.08    0.06
   2  -1 -17    1.97    0.21
   1  -1 -17    0.21    0.07
  -1  -1 -17    0.02    0.04
  -2  -1 -17    1.70    0.18
  -3  -1 -17    0.21    0.08
   3  -2 -17    2.46    0.26
   2  -2 -17    0.75    0.14
   1  -2 -17    2.92    0.26
   0  -2 -17    0.15    0.07
  -1  -2 -17    0.46    0.10
  -2  -2 -17   -0.05    0.04
  -3  -2 -17    1.13    0.15
   1  -3 -17    0.35    0.11
   0  -3 -17    4.37    0.28
  -1  -3 -17    1.03    0.17
  -2  -3 -17    4.51    0.26
  -3  -3 -17    0.00    0.05
   4   3  17    1.05    0.15
   2   4  17    1.49    0.17
   3   4  17    0.09    0.07
   1   3 -18    2.34    0.25
   0   3 -18   -0.01    0.08
  -1   3 -18    0.38    0.13
   2   2 -18    0.13    0.10
   1   2 -18    0.08    0.10
   0   2 -18    3.13    0.20
   0   2 -18    2.59    0.25
  -1   2 -18    5.73    0.32
  -2   2 -18    2.68    0.26
   1   1 -18    1.09    0.14
   0   1 -18    2.04    0.19
  -1   1 -18    3.55    0.22
   2   0 -18    0.93    0.14
   1   0 -18    2.26    0.21
   0   0 -18    0.08    0.06
  -1   0 -18    0.06    0.04
  -2   0 -18    1.19    0.15
   2  -1 -18    7.71    0.36
   1  -1 -18    0.49    0.10
   0  -1 -18    2.55    0.19
  -1  -1 -18    0.72    0.12
  -2  -1 -18    2.16    0.21
   2  -2 -18    0.62    0.13
   1  -2 -18    4.28    0.27
   0  -2 -18    2.64    0.24
  -1  -2 -18    0.83    0.14
  -2  -2 -18    2.64    0.20
   0  -3 -18    0.08    0.07
  -1  -3 -18    1.10    0.17
   1   2 -19    0.05    0.09
   0   2 -19    0.90    0.17
   1   1 -19    0.34    0.10
   0   1 -19    0.10    0.07
   1   0 -19    3.74    0.24
   0   0 -19    0.97    0.14
   1  -1 -19    1.99    0.22
   0  -1 -19    2.59    0.23
  -1  -1 -19    3.85    0.24
   0   0   0    0.00    0.00
;
_shelx_hkl_checksum              36337
_shelx_res_file
;
TITL 5 in P-1
    5.res
    created by SHELXL-2018/3 at 10:31:10 on 19-Dec-2019
CELL 0.71073   5.4364   5.6202  15.8435  83.623  87.617  86.146
ZERR    2.00   0.0010   0.0011   0.0030   0.003   0.003   0.003
LATT 1
SFAC C  H  N  O
UNIT 10 24 20 2
OMIT  -3.00  50.20
L.S. 20
ACTA
BOND $H
FMAP 2
PLAN 4
SIZE 0.339 0.276 0.153
CONF
HTAB
HTAB O1 N2
EQIV $1 x-1, y, z
HTAB O1 N7_$1
EQIV $2 -x, -y+1, -z+1
HTAB N4 N1_$2
EQIV $3 -x+1, -y, -z
HTAB N9 N6_$3
EQIV $4 -x+1, -y+2, -z+1
HTAB N4 N5_$4
EQIV $5 x, y+1, z
HTAB N10 N6_$5
HTAB N10 O1_$5
TEMP 23.000
WGHT    0.043900    0.179000
EXTI    0.107026
FVAR       0.42034
MOLE 1
N3    3    0.487669    0.694902    0.374792    11.00000    0.02925    0.02908 =
         0.02887   -0.00884    0.00011   -0.00813
N8    3    0.400569    0.453164    0.126924    11.00000    0.03269    0.02638 =
         0.02916   -0.00704    0.00214   -0.00264
N1    3    0.176160    0.466799    0.400380    11.00000    0.04600    0.04763 =
         0.03360   -0.01528    0.00953   -0.02048
N7    3    0.721048    0.206528    0.153918    11.00000    0.03991    0.04114 =
         0.03789   -0.01659   -0.00607    0.00224
N10   3    0.230677    0.653196    0.123843    11.00000    0.04447    0.03308 =
         0.04496   -0.00935   -0.00035    0.00482
N5    3    0.645601    0.875355    0.385233    11.00000    0.04260    0.04771 =
         0.05023   -0.02319    0.00698   -0.02330
N6    3    0.589556    0.122658    0.089662    11.00000    0.04312    0.03720 =
         0.03723   -0.01635   -0.00557    0.00181
N2    3    0.307620    0.405602    0.326490    11.00000    0.04534    0.04167 =
         0.03363   -0.01422    0.00735   -0.01887
C5    1    0.398132    0.275519    0.075533    11.00000    0.03608    0.03070 =
         0.02623   -0.00586    0.00202   -0.00491
C2    1    0.488776    0.545263    0.312878    11.00000    0.03321    0.02784 =
         0.02837   -0.00702   -0.00222   -0.00587
N9    3    0.225583    0.270173    0.016696    11.00000    0.04351    0.04817 =
         0.03850   -0.01619   -0.00635   -0.00065
C4    1    0.604596    0.402255    0.174300    11.00000    0.03171    0.03177 =
         0.02889   -0.00705    0.00298   -0.00526
N4    3    0.226822    0.755988    0.495534    11.00000    0.05093    0.05570 =
         0.04439   -0.02645    0.01765   -0.02412
C1    1    0.290604    0.640954    0.427404    11.00000    0.03301    0.03469 =
         0.02892   -0.00664    0.00156   -0.00747
C3    1    0.673677    0.551641    0.240525    11.00000    0.03352    0.03715 =
         0.03357   -0.01183    0.00193   -0.00886
MOLE 2
O1    4    0.106193   -0.004375    0.260056    11.00000    0.05613    0.03547 =
         0.06085   -0.00915   -0.01694   -0.00172
H3A   2    0.831557    0.492238    0.261196    11.00000    0.03244
H3B   2    0.685033    0.718384    0.215378    11.00000    0.04538
H4A   2    0.102573    0.707716    0.527868    11.00000    0.05038
H9A   2    0.247831    0.148331   -0.013877    11.00000    0.05077
H10B  2    0.186618    0.683033    0.176059    11.00000    0.07434
H4B   2    0.308212    0.874853    0.507664    11.00000    0.06315
H1A   2    0.170762    0.121659    0.278375    11.00000    0.07487
H1B   2   -0.011766    0.059360    0.220905    11.00000    0.07945
H9B   2    0.079146    0.327500    0.027895    11.00000    0.06988
H10A  2    0.315847    0.782117    0.100665    11.00000    0.08096
H5B   2    0.796598    0.818851    0.380699    11.00000    0.07507
H5A   2    0.621678    0.995285    0.344346    11.00000    0.12241
HKLF 4
REM  5 in P-1
REM wR2 = 0.0915, GooF = S = 1.035, Restrained GooF = 1.035 for all data
REM R1 = 0.0351 for 1522 Fo > 4sig(Fo) and 0.0390 for all 1698 data
REM 194 parameters refined using 0 restraints
END
WGHT      0.0439      0.1790
REM Instructions for potential hydrogen bonds
HTAB N4 N1_$2
HTAB N9 N6_$3
HTAB N10 O1_$5
HTAB N4 N5_$4
HTAB O1 N2
HTAB O1 N7_$1
HTAB N10 N6_$5
EQIV $6 x+1, y+1, z
HTAB N5 O1_$6
REM Highest difference peak  0.168,  deepest hole -0.153,  1-sigma level  0.036
Q1    1   0.6426  0.4899  0.2036  11.00000  0.05    0.17
Q2    1   0.5926  0.5413  0.2816  11.00000  0.05    0.16
Q3    1   0.5935  0.9441  0.4407  11.00000  0.05    0.15
Q4    1   0.1716  0.6103  0.3980  11.00000  0.05    0.15
;
_shelx_res_checksum              19537
loop_
_space_group_symop_operation_xyz
'x, y, z'
'-x, -y, -z'
loop_
_atom_site_type_symbol
_atom_site_label
_atom_site_fract_x
_atom_site_fract_y
_atom_site_fract_z
_atom_site_U_iso_or_equiv
_atom_site_adp_type
_atom_site_calc_flag
_atom_site_occupancy
_atom_site_disorder_assembly
_atom_site_disorder_group
N N3 0.4877(2) 0.6949(2) 0.37479(8) 0.0284(3) Uani d 1 . .
N N8 0.4006(2) 0.4532(2) 0.12692(8) 0.0292(3) Uani d 1 . .
N N1 0.1762(3) 0.4668(3) 0.40038(9) 0.0411(4) Uani d 1 . .
N N7 0.7210(3) 0.2065(2) 0.15392(9) 0.0388(4) Uani d 1 . .
N N10 0.2307(3) 0.6532(3) 0.12384(11) 0.0408(4) Uani d 1 . .
N N5 0.6456(3) 0.8754(3) 0.38523(11) 0.0448(4) Uani d 1 . .
N N6 0.5896(3) 0.1227(2) 0.08966(9) 0.0383(4) Uani d 1 . .
N N2 0.3076(3) 0.4056(3) 0.32649(8) 0.0390(4) Uani d 1 . .
C C5 0.3981(3) 0.2755(3) 0.07553(9) 0.0308(4) Uani d 1 . .
C C2 0.4888(3) 0.5453(3) 0.31288(9) 0.0293(4) Uani d 1 . .
N N9 0.2256(3) 0.2702(3) 0.01670(10) 0.0425(4) Uani d 1 . .
C C4 0.6046(3) 0.4023(3) 0.17430(9) 0.0305(4) Uani d 1 . .
N N4 0.2268(3) 0.7560(3) 0.49553(10) 0.0484(4) Uani d 1 . .
C C1 0.2906(3) 0.6410(3) 0.42740(9) 0.0318(4) Uani d 1 . .
C C3 0.6737(3) 0.5516(3) 0.24052(10) 0.0339(4) Uani d 1 . .
O O1 0.1062(3) -0.0044(2) 0.26006(9) 0.0502(4) Uani d 1 . .
H H3A 0.832(3) 0.492(3) 0.2612(10) 0.032(4) Uiso d 1 . .
H H3B 0.685(3) 0.718(4) 0.2154(12) 0.045(5) Uiso d 1 . .
H H4A 0.103(4) 0.708(4) 0.5279(13) 0.050(6) Uiso d 1 . .
H H9A 0.248(4) 0.148(4) -0.0139(13) 0.051(6) Uiso d 1 . .
H H10B 0.187(4) 0.683(4) 0.1761(16) 0.074(7) Uiso d 1 . .
H H4B 0.308(4) 0.875(4) 0.5077(14) 0.063(6) Uiso d 1 . .
H H1A 0.171(5) 0.122(5) 0.2784(15) 0.075(7) Uiso d 1 . .
H H1B -0.012(5) 0.059(4) 0.2209(16) 0.079(8) Uiso d 1 . .
H H9B 0.079(5) 0.327(4) 0.0279(15) 0.070(7) Uiso d 1 . .
H H10A 0.316(5) 0.782(5) 0.1007(16) 0.081(8) Uiso d 1 . .
H H5B 0.797(5) 0.819(4) 0.3807(15) 0.075(8) Uiso d 1 . .
H H5A 0.622(6) 0.995(6) 0.344(2) 0.122(13) Uiso d 1 . .
loop_
_atom_site_aniso_label
_atom_site_aniso_U_11
_atom_site_aniso_U_22
_atom_site_aniso_U_33
_atom_site_aniso_U_12
_atom_site_aniso_U_13
_atom_site_aniso_U_23
N3 0.0293(6) 0.0291(7) 0.0289(6) -0.0081(5) 0.0001(5) -0.0088(5)
N8 0.0327(7) 0.0264(6) 0.0292(7) -0.0026(5) 0.0021(5) -0.0070(5)
N1 0.0460(8) 0.0476(8) 0.0336(7) -0.0205(7) 0.0095(6) -0.0153(6)
N7 0.0399(8) 0.0411(8) 0.0379(8) 0.0022(6) -0.0061(6) -0.0166(6)
N10 0.0445(9) 0.0331(8) 0.0450(9) 0.0048(7) -0.0003(7) -0.0094(7)
N5 0.0426(9) 0.0477(9) 0.0502(10) -0.0233(7) 0.0070(7) -0.0232(8)
N6 0.0431(8) 0.0372(8) 0.0372(8) 0.0018(6) -0.0056(6) -0.0163(6)
N2 0.0453(8) 0.0417(8) 0.0336(7) -0.0189(6) 0.0074(6) -0.0142(6)
C5 0.0361(8) 0.0307(8) 0.0262(8) -0.0049(7) 0.0020(6) -0.0059(6)
C2 0.0332(8) 0.0278(7) 0.0284(8) -0.0059(6) -0.0022(6) -0.0070(6)
N9 0.0435(9) 0.0482(9) 0.0385(8) -0.0007(7) -0.0063(7) -0.0162(7)
C4 0.0317(8) 0.0318(8) 0.0289(8) -0.0053(6) 0.0030(6) -0.0070(6)
N4 0.0509(9) 0.0557(10) 0.0444(9) -0.0241(8) 0.0177(7) -0.0265(7)
C1 0.0330(8) 0.0347(8) 0.0289(8) -0.0075(7) 0.0016(6) -0.0066(6)
C3 0.0335(9) 0.0372(9) 0.0336(8) -0.0089(7) 0.0019(7) -0.0118(7)
O1 0.0561(8) 0.0355(7) 0.0608(9) -0.0017(6) -0.0169(7) -0.0092(6)
loop_
_atom_type_symbol
_atom_type_description
_atom_type_scat_dispersion_real
_atom_type_scat_dispersion_imag
_atom_type_scat_source
C C 0.0033 0.0016 'International Tables Vol C Tables 4.2.6.8 and 6.1.1.4'
H H 0.0000 0.0000 'International Tables Vol C Tables 4.2.6.8 and 6.1.1.4'
N N 0.0061 0.0033 'International Tables Vol C Tables 4.2.6.8 and 6.1.1.4'
O O 0.0106 0.0060 'International Tables Vol C Tables 4.2.6.8 and 6.1.1.4'
loop_
_geom_angle_atom_site_label_1
_geom_angle_atom_site_label_2
_geom_angle_atom_site_label_3
_geom_angle_site_symmetry_1
_geom_angle_site_symmetry_3
_geom_angle
_geom_angle_publ_flag
C1 N3 C2 . . 105.99(12) ?
C1 N3 N5 . . 124.19(12) ?
C2 N3 N5 . . 129.80(13) ?
C5 N8 C4 . . 106.00(12) ?
C5 N8 N10 . . 124.31(13) ?
C4 N8 N10 . . 129.53(13) ?
C1 N1 N2 . . 106.37(13) ?
C4 N7 N6 . . 107.58(13) ?
N8 N10 H10B . . 109.4(16) ?
N8 N10 H10A . . 106.1(16) ?
H10B N10 H10A . . 106(2) ?
N3 N5 H5B . . 109.2(16) ?
N3 N5 H5A . . 109(2) ?
H5B N5 H5A . . 108(3) ?
C5 N6 N7 . . 106.44(12) ?
C2 N2 N1 . . 107.62(12) ?
N6 C5 N9 . . 126.88(15) ?
N6 C5 N8 . . 109.99(13) ?
N9 C5 N8 . . 123.07(15) ?
N2 C2 N3 . . 110.01(13) ?
N2 C2 C3 . . 126.99(13) ?
N3 C2 C3 . . 122.99(13) ?
C5 N9 H9A . . 114.2(13) ?
C5 N9 H9B . . 117.9(16) ?
H9A N9 H9B . . 120(2) ?
N7 C4 N8 . . 109.98(13) ?
N7 C4 C3 . . 126.62(14) ?
N8 C4 C3 . . 123.39(13) ?
C1 N4 H4A . . 118.4(13) ?
C1 N4 H4B . . 121.1(15) ?
H4A N4 H4B . . 121(2) ?
N1 C1 N4 . . 126.74(15) ?
N1 C1 N3 . . 110.01(13) ?
N4 C1 N3 . . 123.25(14) ?
C4 C3 C2 . . 111.50(13) ?
C4 C3 H3A . . 108.8(10) ?
C2 C3 H3A . . 109.3(10) ?
C4 C3 H3B . . 109.5(11) ?
C2 C3 H3B . . 108.9(11) ?
H3A C3 H3B . . 108.8(14) ?
H1A O1 H1B . . 106(2) ?
loop_
_geom_bond_atom_site_label_1
_geom_bond_atom_site_label_2
_geom_bond_site_symmetry_2
_geom_bond_distance
_geom_bond_publ_flag
N3 C1 . 1.3593(19) ?
N3 C2 . 1.3607(18) ?
N3 N5 . 1.3997(18) ?
N8 C5 . 1.3576(19) ?
N8 C4 . 1.362(2) ?
N8 N10 . 1.4040(19) ?
N1 C1 . 1.314(2) ?
N1 N2 . 1.4094(19) ?
N7 C4 . 1.297(2) ?
N7 N6 . 1.4078(19) ?
N10 H10B . 0.88(3) ?
N10 H10A . 0.92(3) ?
N5 H5B . 0.86(3) ?
N5 H5A . 0.89(3) ?
N6 C5 . 1.314(2) ?
N2 C2 . 1.2966(19) ?
C5 N9 . 1.354(2) ?
C2 C3 . 1.492(2) ?
N9 H9A . 0.88(2) ?
N9 H9B . 0.86(3) ?
C4 C3 . 1.489(2) ?
N4 C1 . 1.341(2) ?
N4 H4A . 0.87(2) ?
N4 H4B . 0.87(2) ?
C3 H3A . 0.957(18) ?
C3 H3B . 0.982(19) ?
O1 H1A . 0.89(3) ?
O1 H1B . 0.94(3) ?
loop_
_geom_hbond_atom_site_label_D
_geom_hbond_atom_site_label_H
_geom_hbond_atom_site_label_A
_geom_hbond_site_symmetry_A
_geom_hbond_distance_DH
_geom_hbond_distance_HA
_geom_hbond_distance_DA
_geom_hbond_angle_DHA
_geom_hbond_publ_flag
O1 H1A N2 . 0.89(3) 2.04(3) 2.9308(19) 177(2) yes
O1 H1B N7 1_455 0.94(3) 1.92(3) 2.852(2) 172(2) yes
N4 H4A N1 2_566 0.87(2) 2.09(2) 2.949(2) 170.1(18) yes
N9 H9A N6 2_655 0.88(2) 2.16(2) 3.018(2) 163.6(18) yes
N4 H4B N5 2_676 0.87(2) 2.35(2) 3.084(2) 142.4(19) yes
N10 H10A N6 1_565 0.92(3) 2.49(3) 3.369(2) 160(2) yes
N10 H10B O1 1_565 0.88(3) 2.33(2) 3.073(2) 142(2) yes
loop_
_geom_torsion_atom_site_label_1
_geom_torsion_atom_site_label_2
_geom_torsion_atom_site_label_3
_geom_torsion_atom_site_label_4
_geom_torsion_site_symmetry_1
_geom_torsion_site_symmetry_2
_geom_torsion_site_symmetry_3
_geom_torsion_site_symmetry_4
_geom_torsion
_geom_torsion_publ_flag
C4 N7 N6 C5 . . . . -0.31(18) ?
C1 N1 N2 C2 . . . . -0.66(18) ?
N7 N6 C5 N9 . . . . 177.54(16) ?
N7 N6 C5 N8 . . . . 0.29(17) ?
C4 N8 C5 N6 . . . . -0.16(17) ?
N10 N8 C5 N6 . . . . 175.67(14) ?
C4 N8 C5 N9 . . . . -177.53(15) ?
N10 N8 C5 N9 . . . . -1.7(2) ?
N1 N2 C2 N3 . . . . 0.93(18) ?
N1 N2 C2 C3 . . . . -178.11(16) ?
C1 N3 C2 N2 . . . . -0.85(17) ?
N5 N3 C2 N2 . . . . -179.24(17) ?
C1 N3 C2 C3 . . . . 178.24(14) ?
N5 N3 C2 C3 . . . . -0.1(3) ?
N6 N7 C4 N8 . . . . 0.22(18) ?
N6 N7 C4 C3 . . . . 178.91(14) ?
C5 N8 C4 N7 . . . . -0.05(17) ?
N10 N8 C4 N7 . . . . -175.58(15) ?
C5 N8 C4 C3 . . . . -178.79(14) ?
N10 N8 C4 C3 . . . . 5.7(2) ?
N2 N1 C1 N4 . . . . 179.14(17) ?
N2 N1 C1 N3 . . . . 0.13(18) ?
C2 N3 C1 N1 . . . . 0.41(18) ?
N5 N3 C1 N1 . . . . 178.92(16) ?
C2 N3 C1 N4 . . . . -178.64(16) ?
N5 N3 C1 N4 . . . . -0.1(3) ?
N7 C4 C3 C2 . . . . -113.06(18) ?
N8 C4 C3 C2 . . . . 65.5(2) ?
N2 C2 C3 C4 . . . . 9.6(2) ?
N3 C2 C3 C4 . . . . -169.34(14) ?

_cod_database_fobs_code 2022237
