#------------------------------------------------------------------------------
#$Date: 2020-04-10 08:11:34 +0300 (Fri, 10 Apr 2020) $
#$Revision: 250604 $
#$URL: file:///home/coder/svn-repositories/cod/cif/2/02/20/2022025.cif $
#------------------------------------------------------------------------------
#
# This file is available in the Crystallography Open Database (COD),
# http://www.crystallography.net/. The original data for this entry
# were provided by IUCr Journals, http://journals.iucr.org/.
#
# The file may be used within the scientific community so long as
# proper attribution is given to the journal article from which the
# data were obtained.
#
data_2022025
loop_
_publ_author_name
'Jha, Kunal Kumar'
'Gruza, Barbara'
'Kumar, Prashant'
'Chodkiewicz, Michal Leszek'
'Dominiak, Paulina Maria'
_publ_section_title
;
 TAAM: a reliable and user friendly tool for hydrogen-atom location using
 routine X-ray diffraction data
;
_journal_issue                   3
_journal_name_full
'Acta Crystallographica Section B Structural Science, Crystal Engineering and Materials'
_journal_paper_doi               10.1107/S2052520620002917
_journal_volume                  76
_journal_year                    2020
_chemical_absolute_configuration unk
_chemical_formula_moiety         '2(C0.5 H2 N O0.5)'
_chemical_formula_sum            'C H4 N2 O'
_chemical_formula_weight         60.06
_space_group_crystal_system      tetragonal
_space_group_IT_number           113
_space_group_name_Hall           'P -4 2ab'
_space_group_name_H-M_alt        'P -4 21 m'
_symmetry_Int_Tables_number      113
_audit_creation_date             2019-09-27
_audit_creation_method
;
Olex2 1.2
(compiled 2018.05.29 svn.r3508 for OlexSys, GUI svn.r5506)
;
_cell_angle_alpha                90
_cell_angle_beta                 90
_cell_angle_gamma                90
_cell_formula_units_Z            2
_cell_length_a                   5.5780(6)
_cell_length_b                   5.5780(6)
_cell_length_c                   4.6860(7)
_cell_measurement_temperature    123(2)
_cell_volume                     145.80(3)
_computing_molecular_graphics    'Olex2 (Dolomanov et al., 2009)'
_computing_publication_material  'Olex2 (Dolomanov et al., 2009)'
_computing_structure_refinement  'olex2.refine (Bourhis et al., 2015)'
_diffrn_ambient_temperature      123(2)
_diffrn_measured_fraction_theta_full 0.9817
_diffrn_measured_fraction_theta_max 0.9817
_diffrn_measurement_device_type  'KM6-CH six-circle \k diffractometer'
_diffrn_radiation_type           synchrotron
_diffrn_radiation_wavelength     0.59960(10)
_diffrn_reflns_av_R_equivalents  0.0000
_diffrn_reflns_av_unetI/netI     0.0153
_diffrn_reflns_limit_h_max       15
_diffrn_reflns_limit_h_min       -15
_diffrn_reflns_limit_k_max       0
_diffrn_reflns_limit_k_min       -15
_diffrn_reflns_limit_l_max       0
_diffrn_reflns_limit_l_min       -13
_diffrn_reflns_number            1045
_diffrn_reflns_theta_full        86.9732
_diffrn_reflns_theta_max         86.97
_diffrn_reflns_theta_min         4.35
_exptl_absorpt_coefficient_mu    0.118
_exptl_crystal_density_diffrn    1.3679
_exptl_crystal_F_000             64.0315
_refine_diff_density_max         0.2410
_refine_diff_density_min         -0.3173
_refine_diff_density_rms         0.0399
_refine_ls_d_res_high            0.3559
_refine_ls_d_res_low             4.6860
_refine_ls_goodness_of_fit_ref   0.6809
_refine_ls_hydrogen_treatment    refall
_refine_ls_matrix_type           full
_refine_ls_number_constraints    0
_refine_ls_number_parameters     19
_refine_ls_number_reflns         1022
_refine_ls_number_restraints     0
_refine_ls_restrained_S_all      0.6809
_refine_ls_R_factor_all          0.0276
_refine_ls_R_factor_gt           0.0171
_refine_ls_shift/su_max          0.0004
_refine_ls_shift/su_mean         0.0001
_refine_ls_structure_factor_coef Fsqd
_refine_ls_weighting_details
'w=1/[\s^2^(Fo^2^)+(0.0309P)^2^+0.0030P] where P=(Fo^2^+2Fc^2^)/3'
_refine_ls_weighting_scheme      calc
_refine_ls_wR_factor_gt          0.0445
_refine_ls_wR_factor_ref         0.0446
_reflns_Friedel_coverage         0.0
_reflns_limit_h_max              15
_reflns_limit_h_min              0
_reflns_limit_k_max              10
_reflns_limit_k_min              0
_reflns_limit_l_max              13
_reflns_limit_l_min              0
_reflns_number_gt                803
_reflns_number_total             1022
_reflns_threshold_expression     I>=2u(I)
_iucr_refine_instructions_details
;
TITL UREA OLEX2: imported from CIF
CELL 0.71073 5.578 5.578 4.686 90 90 90
ZERR 2 0 0 0 0 0 0
LATT -1
SYMM +Y,-X,-Z
SYMM -X,-Y,+Z
SYMM -Y,+X,-Z
SYMM 0.5+X,0.5-Y,-Z
SYMM 0.5-X,0.5+Y,-Z
SYMM 0.5-Y,0.5-X,+Z
SYMM 0.5+Y,0.5+X,+Z
SFAC C H N O
UNIT 2 8 4 2

L.S. 20
PLAN  20
BOND 
BOND $H
CONF 
fmap 2 53
acta 
WGHT 0.030858 0.003017
FVAR 3.182497
REM <olex2.extras>
REM <HklSrc "%.\\urea.hkl">
REM </olex2.extras>

O1    4     10.00000  10.50000  0.59646  10.25000  0.01988  0.01988 =
 0.00656  10.00000 -10.00000  0.00212 
N2    3     0.14488  0.64488  0.17833  10.50000  0.02907  0.02907  0.00963 =
 0.00010  0.00010 -0.01523 
C4    1     10.00000  10.50000  0.32812  10.25000  0.01496  0.01496 =
 0.00701  10.00000 -10.00000  0.00002 
H2b   2     0.25161  0.75161  0.28935  10.50000  0.05485  0.05485  0.01686 =
 -0.00335 -0.00335 -0.02902 
H2a   2     0.14378  0.64378 -0.02933  10.50000  0.04353  0.04353  0.01954 =
 0.00049  0.00049 -0.00897 
HKLF 4

END
Q1 1 0 0.5 0.583333 11 0.05 0.24
Q2 1 0 0.5 0.861111 11 0.05 0.2
Q3 1 0 0.5 0.333333 11 0.05 0.14
Q4 1 -0.1375 0.6375 0.194444 11 0.05 0.13
Q5 1 0.275 0.775 0.277778 11 0.05 0.13
Q6 1 0.15 0.65 0.222222 11 0.05 0.11
Q7 1 0.25 0.95 0.416667 11 0.05 0.11
Q8 1 0.2 0.7 0.5 11 0.05 0.11
Q9 1 0.4 0.65 0.194444 11 0.05 0.11
Q10 1 0.025 0.75 0.333333 11 0.05 0.1
Q11 1 0 0.5 0.083333 11 0.05 0.1
Q12 1 0.4 0.575 -0.277778 11 0.05 0.1
Q13 1 0.2 0.7 -0.111111 11 0.05 0.09
Q14 1 -0.05 0.7 -0.055556 11 0.05 0.09
Q15 1 0 1 0.5 11 0.05 0.09
Q16 1 0.1 0.85 0.5 11 0.05 0.08
Q17 1 0 1 0 11 0.05 0.08
Q18 1 -0.1125 0.6125 0.444444 11 0.05 0.08

  REM The information below was added by Olex2.
  REM
  REM R1 = 0.0171 for 803 Fo > 4sig(Fo) and 0.0276 for all 1022 data
  REM 19 parameters refined using 0 restraints
  REM Highest difference peak 0.2410, deepest hole -0.3173
  REM Mean Shift 0.0001, Max Shift 0.0004.

  REM +++ Tabular Listing of Refinement Information +++
  REM R1_all = 0.0276
  REM R1_gt = 0.0171
  REM wR_ref = 0.0446
  REM GOOF = 0.6809
  REM Shift_max = 0.0004
  REM Shift_mean = 0.0001
  REM Reflections_all = 1022
  REM Reflections_gt = 803
  REM Parameters = 19
  REM Hole = -0.3173
  REM Peak = 0.2410
  REM Flack = n/a

  
;
_cod_data_source_file            80_TAAM_ANIS_max.cif
_cod_data_source_block           80_TAAM_ANIS_max
_cod_original_sg_symbol_Hall     ' P -4 2ab'
_cod_database_code               2022025
_olex2_refinement_description
;
1. Others
 Fixed U13: O1(0) C4(0)
 Fixed U23: O1(0) C4(0)
 Fixed X: O1(0) C4(0)
 Fixed Y: O1(0.5) C4(0.5)
;
_iucr_refine_fcf_details
;
data_urea
_computing_structure_refinement   'olex2.refine (Bourhis et al., 2015)'
_shelx_refln_list_code            4
loop_
  _space_group_symop_id
  _space_group_symop_operation_xyz
  1  x,y,z
  2  y,-x,-z
  3  -y,x,-z
  4  x+1/2,-y+1/2,-z
  5  -x+1/2,y+1/2,-z
  6  -x,-y,z
  7  -y+1/2,-x+1/2,z
  8  y+1/2,x+1/2,z

_space_group_crystal_system       tetragonal
_space_group_IT_number            113
_space_group_name_H-M_alt         'P -4 21 m'
_space_group_name_Hall            ' P -4 2ab'
_symmetry_space_group_name_H-M    'P -4 21 m'
_symmetry_space_group_name_Hall   ' P -4 2ab'
_symmetry_Int_Tables_number       113
_cell_length_a                    5.578
_cell_length_b                    5.578
_cell_length_c                    4.686
_cell_angle_alpha                 90
_cell_angle_beta                  90
_cell_angle_gamma                 90
_cell_volume                      145.800598
loop_
  _refln_index_h
  _refln_index_k
  _refln_index_l
  _refln_F_squared_calc
  _refln_F_squared_meas
  _refln_F_squared_sigma
  _refln_F_squared_weight
  _refln_observed_status
0 0 1 12.650 13.139 0.048 1.149 o
0 0 2 122.459 131.904 0.809 0.014 o
0 0 3 14.207 13.335 0.079 0.974 o
0 0 4 30.968 29.184 0.176 0.226 o
0 0 5 48.494 48.005 0.355 0.091 o
0 0 6 15.919 15.456 0.184 0.713 o
0 0 7 0.328 0.261 0.026 135.835 o
0 0 8 14.351 14.428 0.248 0.752 o
0 0 9 3.818 3.577 0.095 6.753 o
0 0 10 2.893 2.840 0.089 9.274 o
0 0 11 0.087 0.071 0.253 3.534 o
0 0 12 3.704 3.727 0.104 6.464 o
0 0 13 0.153 0.176 0.024 211.761 o
1 0 1 150.943 146.663 0.175 0.010 o
1 0 2 151.612 149.869 0.267 0.010 o
1 0 3 83.225 85.829 0.186 0.032 o
1 0 4 1.920 2.171 0.028 21.314 o
1 0 5 18.771 18.669 0.096 0.567 o
1 0 6 0.554 0.522 0.028 84.455 o
1 0 7 42.299 42.342 0.333 0.117 o
1 0 8 5.717 6.012 0.070 4.146 o
1 0 9 0.010 -0.015 0.310 2.358 o
1 0 10 0.192 0.184 0.015 275.317 o
1 0 11 1.525 1.403 0.039 27.856 o
1 0 12 1.260 1.233 0.038 33.962 o
1 0 13 0.033 0.005 0.303 2.465 o
1 1 0 1032.340 986.413 1.875 0.000 o
1 1 1 279.466 277.304 0.501 0.003 o
1 1 2 53.464 51.777 0.117 0.080 o
1 1 3 10.879 11.353 0.054 1.489 o
1 1 4 43.330 42.538 0.180 0.118 o
1 1 5 17.266 16.637 0.110 0.666 o
1 1 6 2.859 2.907 0.033 12.876 o
1 1 7 5.686 5.578 0.073 4.294 o
1 1 8 4.161 4.400 0.070 6.507 o
1 1 9 1.305 1.285 0.045 29.892 o
1 1 10 3.286 3.188 0.066 9.339 o
1 1 11 1.589 1.614 0.050 23.169 o
1 1 12 2.280 2.419 0.058 14.563 o
1 1 13 0.236 0.226 0.018 211.757 o
2 0 0 151.019 152.548 0.293 0.010 o
2 0 1 196.668 193.417 0.257 0.006 o
2 0 2 8.230 8.123 0.033 2.526 o
2 0 3 49.001 48.590 0.129 0.093 o
2 0 4 20.121 19.707 0.083 0.507 o
2 0 5 0.650 0.552 0.026 78.586 o
2 0 6 1.529 1.438 0.023 31.589 o
2 0 7 0.205 0.265 0.013 254.497 o
2 0 8 0.027 0.044 0.198 5.740 o
2 0 9 0.324 0.354 0.019 154.518 o
2 0 10 1.140 1.052 0.038 38.216 o
2 0 11 4.311 4.250 0.066 6.503 o
2 0 12 0.901 1.044 0.036 45.502 o
2 0 13 0.004 -0.027 0.295 2.600 o
2 1 0 227.650 221.978 0.276 0.005 o
2 1 1 50.371 48.501 0.074 0.090 o
2 1 2 29.381 29.579 0.070 0.247 o
2 1 3 68.068 67.162 0.152 0.049 o
2 1 4 43.739 44.366 0.141 0.114 o
2 1 5 13.382 13.297 0.071 1.054 o
2 1 6 13.876 13.628 0.088 0.983 o
2 1 7 10.452 10.566 0.085 1.578 o
2 1 8 14.715 14.617 0.128 0.852 o
2 1 9 3.196 3.239 0.045 10.511 o
2 1 10 1.209 1.177 0.033 37.502 o
2 1 11 1.919 1.868 0.039 21.252 o
2 1 12 0.429 0.411 0.020 123.489 o
2 1 13 0.224 0.207 0.012 268.341 o
2 2 0 229.099 222.454 0.408 0.005 o
2 2 1 199.707 195.511 0.385 0.006 o
2 2 2 56.379 53.600 0.155 0.073 o
2 2 3 28.787 26.944 0.113 0.266 o
2 2 4 43.365 42.526 0.208 0.117 o
2 2 5 9.998 9.574 0.082 1.758 o
2 2 6 2.691 2.703 0.047 13.107 o
2 2 7 9.993 9.877 0.116 1.646 o
2 2 8 1.745 1.805 0.048 21.318 o
2 2 9 1.604 1.632 0.050 22.938 o
2 2 10 3.754 3.587 0.072 7.715 o
2 2 11 2.791 2.722 0.062 11.615 o
2 2 12 1.623 1.714 0.049 22.606 o
3 0 1 93.863 91.387 0.171 0.027 o
3 0 2 17.553 17.447 0.056 0.651 o
3 0 3 11.458 11.369 0.053 1.402 o
3 0 4 101.184 102.675 0.370 0.022 o
3 0 5 0.426 0.361 0.017 136.720 o
3 0 6 10.684 10.651 0.087 1.529 o
3 0 7 0.458 0.490 0.023 105.955 o
3 0 8 15.315 15.245 0.158 0.772 o
3 0 9 4.018 4.173 0.062 7.101 o
3 0 10 4.874 4.733 0.071 5.422 o
3 0 11 0.393 0.401 0.021 127.915 o
3 0 12 0.034 0.042 0.163 8.504 o
3 1 0 29.159 28.488 0.067 0.255 o
3 1 1 140.813 139.263 0.222 0.012 o
3 1 2 15.297 14.559 0.045 0.861 o
3 1 3 66.811 64.765 0.173 0.052 o
3 1 4 14.407 14.204 0.066 0.931 o
3 1 5 1.671 1.638 0.028 26.999 o
3 1 6 5.218 5.121 0.045 5.233 o
3 1 7 1.445 1.504 0.031 30.633 o
3 1 8 0.476 0.464 0.018 116.134 o
3 1 9 1.327 1.456 0.034 32.168 o
3 1 10 1.074 1.053 0.032 42.755 o
3 1 11 5.325 5.306 0.066 4.786 o
3 1 12 0.521 0.578 0.025 90.068 o
3 2 0 16.781 17.029 0.047 0.700 o
3 2 1 4.949 5.022 0.032 5.730 o
3 2 2 10.433 10.771 0.041 1.626 o
3 2 3 25.292 25.092 0.086 0.329 o
3 2 4 13.191 13.370 0.066 1.071 o
3 2 5 7.408 7.471 0.052 2.917 o
3 2 6 2.931 2.979 0.036 12.304 o
3 2 7 15.812 15.793 0.127 0.751 o
3 2 8 6.953 6.902 0.071 3.157 o
3 2 9 0.584 0.669 0.029 74.916 o
3 2 10 0.163 0.117 0.017 303.199 o
3 2 11 0.977 0.932 0.032 47.406 o
3 2 12 0.418 0.402 0.018 131.647 o
3 3 0 220.925 214.739 0.602 0.005 o
3 3 1 7.821 7.951 0.051 2.659 o
3 3 2 8.150 7.784 0.054 2.560 o
3 3 3 0.462 0.502 0.030 89.731 o
3 3 4 15.876 15.449 0.115 0.765 o
3 3 5 13.416 13.093 0.083 1.051 o
3 3 6 5.442 5.464 0.071 4.554 o
3 3 7 0.137 0.150 0.022 246.837 o
3 3 8 5.463 5.510 0.088 4.290 o
3 3 9 1.054 0.972 0.045 36.784 o
3 3 10 1.439 1.472 0.048 25.997 o
3 3 11 0.308 0.306 0.023 147.917 o
3 3 12 1.803 1.936 0.051 19.776 o
4 0 0 5.199 5.395 0.056 4.988 o
4 0 1 93.575 95.491 0.234 0.026 o
4 0 2 7.373 7.518 0.041 2.961 o
4 0 3 71.538 70.357 0.249 0.044 o
4 0 4 5.911 5.795 0.046 4.300 o
4 0 5 2.529 2.549 0.036 15.075 o
4 0 6 7.695 7.625 0.072 2.686 o
4 0 7 0.139 0.155 0.013 365.185 o
4 0 8 1.158 1.096 0.037 37.797 o
4 0 9 1.920 2.089 0.044 19.447 o
4 0 10 0.508 0.414 0.023 104.427 o
4 0 11 5.813 5.881 0.083 3.983 o
4 0 12 0.224 0.225 0.015 240.056 o
4 1 0 6.684 6.983 0.038 3.450 o
4 1 1 11.220 11.408 0.042 1.443 o
4 1 2 2.716 2.689 0.026 14.338 o
4 1 3 12.679 12.841 0.058 1.155 o
4 1 4 41.275 42.086 0.173 0.126 o
4 1 5 1.389 1.484 0.028 32.514 o
4 1 6 5.753 5.627 0.051 4.451 o
4 1 7 3.415 3.331 0.035 10.147 o
4 1 8 9.785 9.904 0.098 1.729 o
4 1 9 1.785 1.829 0.037 23.019 o
4 1 10 1.804 1.774 0.038 22.927 o
4 1 11 0.592 0.558 0.024 86.075 o
4 1 12 0.044 0.028 0.269 3.137 o
4 2 0 94.010 91.369 0.214 0.026 o
4 2 1 25.114 25.160 0.077 0.332 o
4 2 2 5.362 5.323 0.033 5.100 o
4 2 3 4.147 4.137 0.033 7.578 o
4 2 4 16.674 16.247 0.087 0.713 o
4 2 5 5.275 5.194 0.032 5.264 o
4 2 6 1.110 1.109 0.029 42.442 o
4 2 7 1.655 1.659 0.033 26.135 o
4 2 8 1.785 1.823 0.036 23.218 o
4 2 9 0.384 0.382 0.016 146.502 o
4 2 10 1.432 1.403 0.035 30.584 o
4 2 11 1.192 1.174 0.034 37.499 o
4 2 12 1.165 1.204 0.032 38.601 o
4 3 0 3.250 3.193 0.028 11.082 o
4 3 1 20.579 20.154 0.074 0.488 o
4 3 2 18.857 18.336 0.075 0.575 o
4 3 3 16.482 16.449 0.078 0.722 o
4 3 4 0.302 0.302 0.016 181.728 o
4 3 5 12.801 12.982 0.090 1.109 o
4 3 6 1.159 1.125 0.029 40.949 o
4 3 7 23.632 23.587 0.199 0.353 o
4 3 8 2.827 2.978 0.043 12.283 o
4 3 9 0.238 0.205 0.013 252.337 o
4 3 10 0.217 0.248 0.014 244.949 o
4 3 11 0.984 1.031 0.032 45.652 o
4 3 12 0.772 0.719 0.030 61.333 o
4 4 0 80.546 81.225 0.380 0.034 o
4 4 1 4.690 4.656 0.049 6.061 o
4 4 2 4.159 3.923 0.047 7.454 o
4 4 3 0.197 0.157 0.015 281.349 o
4 4 4 8.493 8.509 0.061 2.309 o
4 4 5 5.510 5.461 0.071 4.500 o
4 4 6 2.512 2.526 0.053 13.765 o
4 4 7 0.105 0.115 0.023 265.944 o
4 4 8 2.783 2.916 0.061 11.395 o
4 4 9 0.425 0.444 0.022 116.148 o
4 4 10 0.849 0.723 0.044 45.071 o
4 4 11 0.354 0.347 0.024 130.324 o
4 4 12 1.098 1.153 0.044 34.718 o
5 0 1 0.104 0.103 0.011 514.299 o
5 0 2 0.069 0.088 0.016 469.404 o
5 0 3 8.333 8.342 0.056 2.399 o
5 0 4 17.405 17.592 0.112 0.637 o
5 0 5 1.795 1.845 0.035 23.161 o
5 0 6 2.069 1.945 0.039 19.683 o
5 0 7 6.295 6.226 0.074 3.664 o
5 0 8 5.827 5.843 0.077 4.053 o
5 0 9 0.555 0.536 0.029 82.088 o
5 0 10 0.573 0.519 0.030 79.676 o
5 0 11 0.465 0.440 0.022 110.604 o
5 0 12 0.099 0.083 0.016 419.968 o
5 1 0 40.990 41.372 0.146 0.129 o
5 1 1 29.248 29.692 0.102 0.246 o
5 1 2 7.870 8.087 0.044 2.636 o
5 1 3 10.143 10.011 0.056 1.733 o
5 1 4 15.330 15.140 0.089 0.822 o
5 1 5 3.201 3.324 0.037 10.729 o
5 1 6 0.843 0.749 0.028 59.017 o
5 1 7 3.007 2.971 0.041 11.745 o
5 1 8 0.777 0.818 0.031 57.853 o
5 1 9 0.558 0.582 0.022 91.303 o
5 1 10 1.488 1.532 0.036 28.525 o
5 1 11 1.679 1.728 0.037 24.671 o
5 1 12 0.822 0.798 0.027 59.682 o
5 2 0 20.391 20.975 0.081 0.480 o
5 2 1 7.239 7.052 0.041 3.130 o
5 2 2 7.707 7.261 0.043 2.866 o
5 2 3 20.883 20.905 0.101 0.464 o
5 2 4 7.197 7.421 0.054 3.013 o
5 2 5 8.977 8.976 0.069 2.087 o
5 2 6 6.146 6.055 0.058 3.944 o
5 2 7 10.142 10.025 0.095 1.659 o
5 2 8 6.210 6.482 0.072 3.656 o
5 2 9 1.271 1.332 0.034 34.294 o
5 2 10 0.127 0.117 0.014 392.672 o
5 2 11 1.235 1.228 0.033 36.391 o
5 2 12 0.386 0.401 0.015 146.883 o
5 3 0 42.449 42.260 0.159 0.122 o
5 3 1 11.481 11.604 0.060 1.375 o
5 3 2 2.222 2.206 0.029 18.603 o
5 3 3 3.362 3.310 0.034 10.366 o
5 3 4 8.406 8.333 0.061 2.363 o
5 3 5 2.245 2.371 0.034 17.424 o
5 3 6 0.543 0.559 0.023 92.320 o
5 3 7 0.713 0.788 0.029 63.581 o
5 3 8 1.057 1.045 0.033 42.820 o
5 3 9 0.172 0.177 0.013 316.235 o
5 3 10 0.817 0.841 0.032 54.812 o
5 3 11 0.878 0.801 0.032 53.186 o
5 3 12 0.746 0.696 0.026 67.351 o
5 4 0 3.100 2.827 0.032 12.124 o
5 4 1 0.455 0.468 0.021 112.444 o
5 4 2 0.659 0.680 0.025 74.538 o
5 4 3 5.863 5.619 0.033 4.503 o
5 4 4 8.482 8.275 0.066 2.333 o
5 4 5 2.529 2.543 0.037 15.019 o
5 4 6 1.532 1.550 0.033 28.492 o
5 4 7 4.916 4.990 0.059 5.440 o
5 4 8 3.613 3.544 0.049 8.875 o
5 4 9 0.428 0.450 0.016 129.906 o
5 4 10 0.261 0.247 0.014 220.918 o
5 4 11 0.407 0.470 0.021 119.509 o
5 4 12 0.110 0.112 0.011 490.618 o
5 5 0 6.465 6.620 0.072 3.471 o
5 5 1 15.401 15.309 0.134 0.783 o
5 5 2 5.154 4.896 0.043 5.444 o
5 5 3 10.428 10.052 0.107 1.579 o
5 5 4 6.617 6.814 0.086 3.235 o
5 5 5 1.605 1.635 0.046 23.837 o
5 5 6 0.792 0.800 0.039 49.717 o
5 5 7 2.350 2.385 0.056 14.526 o
5 5 8 0.212 0.247 0.019 211.081 o
5 5 9 0.503 0.496 0.032 82.550 o
5 5 10 0.843 0.799 0.044 44.225 o
5 5 11 1.353 1.383 0.047 27.885 o
6 0 0 57.938 60.224 0.403 0.063 o
6 0 1 4.326 4.377 0.040 6.931 o
6 0 2 2.678 2.508 0.034 14.552 o
6 0 3 0.273 0.227 0.013 225.319 o
6 0 4 7.355 7.604 0.067 2.846 o
6 0 5 4.366 4.295 0.052 6.707 o
6 0 6 1.878 1.915 0.039 21.253 o
6 0 7 0.065 0.032 0.319 2.225 o
6 0 8 2.208 2.304 0.046 16.559 o
6 0 9 0.272 0.262 0.015 206.305 o
6 0 10 0.745 0.723 0.035 57.556 o
6 0 11 0.377 0.432 0.020 130.922 o
6 0 12 0.919 0.998 0.030 49.478 o
6 1 0 5.097 5.210 0.043 5.335 o
6 1 1 5.592 5.566 0.039 4.714 o
6 1 2 4.582 4.603 0.038 6.420 o
6 1 3 10.289 10.303 0.066 1.663 o
6 1 4 2.817 2.856 0.035 13.058 o
6 1 5 6.182 6.315 0.057 3.843 o
6 1 6 1.889 1.878 0.034 22.225 o
6 1 7 10.717 10.681 0.104 1.490 o
6 1 8 3.240 3.238 0.047 10.297 o
6 1 9 0.358 0.369 0.016 154.780 o
6 1 10 0.013 -0.008 0.275 2.986 o
6 1 11 0.689 0.709 0.030 65.937 o
6 1 12 0.330 0.311 0.013 182.571 o
6 2 0 22.389 22.965 0.106 0.401 o
6 2 1 13.318 13.472 0.074 1.049 o
6 2 2 2.702 2.786 0.032 13.876 o
6 2 3 6.143 6.074 0.039 4.070 o
6 2 4 7.659 7.415 0.060 2.792 o
6 2 5 1.400 1.519 0.031 31.259 o
6 2 6 0.343 0.304 0.014 175.762 o
6 2 7 1.265 1.272 0.033 35.335 o
6 2 8 0.501 0.592 0.024 93.091 o
6 2 9 0.256 0.248 0.013 229.149 o
6 2 10 0.796 0.821 0.032 56.084 o
6 2 11 1.107 1.151 0.033 40.151 o
6 2 12 0.531 0.539 0.026 89.183 o
6 3 0 0.004 0.042 0.223 4.547 o
6 3 1 0.851 0.867 0.025 58.249 o
6 3 2 0.875 0.898 0.025 56.472 o
6 3 3 2.837 2.814 0.035 13.063 o
6 3 4 15.059 14.883 0.109 0.835 o
6 3 5 0.339 0.320 0.014 174.467 o
6 3 6 1.853 1.725 0.035 23.181 o
6 3 7 1.741 1.750 0.033 24.590 o
6 3 8 4.021 4.248 0.056 7.192 o
6 3 9 0.633 0.585 0.023 82.784 o
6 3 10 0.760 0.765 0.032 58.886 o
6 3 11 0.234 0.221 0.013 249.441 o
6 4 0 2.374 2.418 0.033 16.541 o
6 4 1 13.267 13.195 0.060 1.076 o
6 4 2 2.730 2.572 0.034 14.142 o
6 4 3 14.641 14.480 0.103 0.881 o
6 4 4 3.301 3.371 0.041 10.178 o
6 4 5 0.956 0.853 0.030 50.742 o
6 4 6 1.302 1.279 0.033 34.547 o
6 4 7 0.920 0.898 0.031 50.532 o
6 4 8 0.173 0.156 0.013 325.732 o
6 4 9 0.563 0.611 0.028 80.051 o
6 4 10 0.412 0.387 0.018 134.237 o
6 4 11 1.719 1.679 0.036 24.689 o
6 5 0 4.431 4.081 0.042 6.965 o
6 5 1 0.773 0.841 0.027 61.045 o
6 5 2 1.622 1.534 0.031 27.786 o
6 5 3 4.052 3.956 0.044 7.686 o
6 5 4 9.083 9.129 0.082 2.006 o
6 5 5 1.516 1.504 0.033 29.067 o
6 5 6 1.946 2.052 0.038 20.375 o
6 5 7 1.229 1.254 0.034 35.870 o
6 5 8 3.046 3.074 0.047 11.136 o
6 5 9 0.662 0.743 0.030 66.470 o
6 5 10 0.482 0.480 0.023 103.555 o
6 5 11 0.265 0.273 0.013 218.194 o
6 6 0 8.889 8.328 0.102 2.085 o
6 6 1 2.688 2.669 0.053 12.749 o
6 6 2 0.484 0.423 0.025 102.431 o
6 6 3 1.767 1.728 0.048 21.465 o
6 6 4 1.812 1.902 0.050 20.015 o
6 6 5 0.331 0.280 0.018 167.062 o
6 6 6 0.062 0.037 0.225 4.458 o
6 6 7 0.137 0.158 0.018 294.120 o
6 6 8 0.232 0.225 0.019 207.064 o
6 6 9 0.004 0.049 0.385 1.528 o
6 6 10 0.222 0.196 0.018 225.715 o
6 6 11 0.372 0.366 0.028 112.655 o
7 0 1 8.165 8.346 0.066 2.421 o
7 0 2 4.845 5.030 0.036 5.813 o
7 0 3 5.302 5.152 0.053 5.042 o
7 0 4 0.178 0.177 0.013 310.173 o
7 0 5 5.821 6.154 0.070 4.025 o
7 0 6 0.034 0.046 0.304 2.448 o
7 0 7 11.496 11.722 0.136 1.252 o
7 0 8 1.236 1.209 0.038 34.628 o
7 0 9 0.021 0.051 0.315 2.283 o
7 0 10 0.082 0.093 0.021 326.026 o
7 0 11 0.430 0.470 0.025 106.240 o
7 1 0 29.814 30.810 0.175 0.230 o
7 1 1 3.048 3.121 0.035 11.651 o
7 1 2 1.504 1.415 0.020 32.817 o
7 1 3 0.602 0.594 0.024 83.550 o
7 1 4 4.305 4.506 0.046 6.757 o
7 1 5 1.968 2.019 0.034 20.855 o
7 1 6 0.897 0.999 0.030 50.228 o
7 1 7 0.047 0.077 0.020 401.620 o
7 1 8 1.172 1.214 0.034 37.497 o
7 1 9 0.100 0.100 0.013 475.757 o
7 1 10 0.451 0.402 0.021 118.069 o
7 1 11 0.341 0.351 0.014 169.027 o
7 2 0 0.255 0.271 0.009 244.071 o
7 2 1 0.011 0.014 0.167 8.130 o
7 2 2 0.141 0.162 0.011 386.872 o
7 2 3 2.611 2.665 0.035 14.431 o
7 2 4 8.170 8.155 0.070 2.436 o
7 2 5 0.821 0.847 0.029 56.958 o
7 2 6 1.008 0.934 0.031 46.979 o
7 2 7 2.461 2.539 0.040 15.076 o
7 2 8 2.739 2.879 0.044 12.759 o
7 2 9 0.305 0.273 0.015 190.507 o
7 2 10 0.341 0.379 0.015 161.314 o
7 2 11 0.218 0.217 0.012 268.775 o
7 3 0 1.277 1.351 0.029 35.650 o
7 3 1 10.371 10.490 0.075 1.616 o
7 3 2 1.459 1.421 0.030 31.344 o
7 3 3 13.898 13.723 0.104 0.965 o
7 3 4 1.796 1.799 0.034 23.557 o
7 3 5 0.716 0.636 0.027 69.877 o
7 3 6 1.335 1.331 0.034 33.123 o
7 3 7 0.309 0.310 0.014 186.415 o
7 3 8 0.183 0.180 0.013 304.396 o
7 3 9 0.535 0.565 0.026 87.641 o
7 3 10 0.217 0.262 0.013 247.268 o
7 3 11 1.599 1.597 0.034 27.049 o
7 4 0 1.072 0.981 0.028 45.885 o
7 4 1 1.308 1.324 0.029 35.282 o
7 4 2 1.778 1.778 0.033 24.018 o
7 4 3 1.622 1.660 0.033 26.544 o
7 4 4 11.473 11.337 0.101 1.341 o
7 4 5 0.323 0.337 0.013 180.717 o
7 4 6 1.472 1.441 0.034 29.943 o
7 4 7 0.444 0.440 0.020 118.493 o
7 4 8 2.807 2.984 0.047 12.113 o
7 4 9 0.587 0.535 0.025 85.953 o
7 4 10 0.717 0.760 0.030 63.064 o
7 4 11 0.124 0.139 0.012 415.439 o
7 5 0 5.844 5.704 0.055 4.313 o
7 5 1 3.080 3.116 0.040 11.293 o
7 5 2 0.055 0.097 0.025 275.633 o
7 5 3 2.812 2.794 0.040 12.877 o
7 5 4 1.419 1.399 0.033 31.378 o
7 5 5 0.055 0.075 0.019 419.072 o
7 5 6 0.004 0.009 0.192 6.175 o
7 5 7 0.022 0.008 0.279 2.901 o
7 5 8 0.082 0.086 0.016 446.433 o
7 5 9 0.029 0.036 0.271 3.093 o
7 5 10 0.163 0.153 0.013 337.525 o
7 5 11 0.480 0.469 0.022 106.703 o
7 6 0 0.482 0.507 0.021 105.928 o
7 6 1 2.342 2.160 0.037 17.203 o
7 6 2 1.076 1.078 0.031 42.840 o
7 6 3 2.162 2.104 0.038 18.515 o
7 6 4 0.322 0.351 0.013 178.405 o
7 6 5 1.810 1.829 0.038 22.607 o
7 6 6 0.351 0.316 0.015 167.530 o
7 6 7 3.426 3.477 0.051 9.322 o
7 6 8 0.680 0.695 0.031 65.675 o
7 6 9 0.039 -0.013 0.280 2.880 o
7 6 10 0.003 -0.033 0.268 3.166 o
7 7 1 1.194 1.267 0.045 31.700 o
7 7 2 1.362 1.356 0.047 27.951 o
7 7 3 0.009 0.002 0.382 1.552 o
7 7 4 2.002 1.893 0.055 17.896 o
7 7 5 1.129 1.086 0.047 33.367 o
7 7 6 0.800 0.860 0.045 43.774 o
7 7 7 0.216 0.279 0.020 195.745 o
7 7 8 0.693 0.686 0.039 56.389 o
7 7 9 0.150 0.163 0.018 281.592 o
7 7 10 0.200 0.204 0.017 244.392 o
8 0 0 16.661 16.838 0.133 0.678 o
8 0 1 2.193 2.228 0.038 17.864 o
8 0 2 0.811 0.799 0.030 57.645 o
8 0 3 0.724 0.779 0.032 60.238 o
8 0 4 2.648 2.680 0.044 13.554 o
8 0 5 0.935 0.884 0.034 48.230 o
8 0 6 0.442 0.495 0.023 107.793 o
8 0 7 0.031 0.061 0.319 2.226 o
8 0 8 0.639 0.649 0.032 68.082 o
8 0 9 0.033 0.008 0.323 2.173 o
8 0 10 0.277 0.245 0.015 208.045 o
8 0 11 0.284 0.285 0.015 196.479 o
8 1 0 1.429 1.471 0.030 31.417 o
8 1 1 0.987 0.945 0.028 49.277 o
8 1 2 0.573 0.610 0.022 88.384 o
8 1 3 3.122 3.108 0.039 11.210 o
8 1 4 2.693 2.853 0.039 13.312 o
8 1 5 1.866 1.933 0.035 22.034 o
8 1 6 0.714 0.766 0.031 62.029 o
8 1 7 3.404 3.455 0.049 9.484 o
8 1 8 1.637 1.622 0.037 25.774 o
8 1 9 0.162 0.212 0.013 308.661 o
8 1 10 0.058 0.019 0.277 2.939 o
8 1 11 0.253 0.273 0.013 224.276 o
8 2 0 4.610 4.577 0.046 6.266 o
8 2 1 6.300 6.420 0.057 3.735 o
8 2 2 1.480 1.526 0.031 29.912 o
8 2 3 5.019 5.031 0.052 5.407 o
8 2 4 2.866 2.999 0.040 12.262 o
8 2 5 0.506 0.553 0.023 96.474 o
8 2 6 0.241 0.253 0.013 236.127 o
8 2 7 0.751 0.812 0.031 59.170 o
8 2 8 0.083 0.117 0.014 467.468 o
8 2 9 0.191 0.189 0.013 293.172 o
8 2 10 0.350 0.379 0.016 155.519 o
8 2 11 0.731 0.769 0.029 63.143 o
8 3 0 1.170 1.105 0.030 40.483 o
8 3 1 0.370 0.378 0.014 156.475 o
8 3 2 0.857 0.853 0.029 55.282 o
8 3 3 1.704 1.800 0.034 24.548 o
8 3 4 6.893 6.885 0.070 3.197 o
8 3 5 0.498 0.509 0.021 103.790 o
8 3 6 1.021 1.079 0.032 43.873 o
8 3 7 0.746 0.791 0.031 59.910 o
8 3 8 2.016 2.044 0.039 19.580 o
8 3 9 0.362 0.363 0.016 154.324 o
8 3 10 0.390 0.394 0.018 138.100 o
8 3 11 0.130 0.141 0.012 403.773 o
8 4 0 3.973 4.069 0.046 7.681 o
8 4 1 2.929 2.864 0.039 12.331 o
8 4 2 0.006 0.031 0.252 3.573 o
8 4 3 2.966 2.890 0.041 12.041 o
8 4 4 1.159 1.102 0.032 39.941 o
8 4 5 0.013 0.021 0.273 3.050 o
8 4 6 0.032 0.084 0.027 262.834 o
8 4 7 0.016 0.032 0.158 9.059 o
8 4 8 0.040 0.049 0.016 595.390 o
8 4 9 0.055 0.049 0.195 5.905 o
8 4 10 0.129 0.165 0.012 387.551 o
8 5 0 0.968 0.966 0.031 47.759 o
8 5 1 1.320 1.320 0.032 34.140 o
8 5 2 0.724 0.705 0.026 68.409 o
8 5 3 2.191 2.161 0.039 18.002 o
8 5 4 0.798 0.771 0.029 59.735 o
8 5 5 1.330 1.315 0.034 33.341 o
8 5 6 0.593 0.583 0.026 81.851 o
8 5 7 2.285 2.311 0.041 16.607 o
8 5 8 0.839 0.866 0.032 53.449 o
8 5 9 0.084 0.083 0.016 445.554 o
8 5 10 0.007 0.021 0.258 3.411 o
8 6 0 7.994 8.237 0.084 2.424 o
8 6 1 1.556 1.470 0.035 28.242 o
8 6 2 1.209 1.170 0.034 37.183 o
8 6 3 0.028 0.017 0.276 2.963 o
8 6 4 2.033 1.938 0.039 19.994 o
8 6 5 0.894 1.001 0.032 49.006 o
8 6 6 0.575 0.577 0.025 85.192 o
8 6 7 0.297 0.308 0.016 182.496 o
8 6 8 0.531 0.545 0.024 92.504 o
8 6 9 0.127 0.126 0.014 384.954 o
8 6 10 0.206 0.239 0.018 223.431 o
8 7 0 0.069 0.141 0.016 420.889 o
8 7 1 0.656 0.547 0.025 79.648 o
8 7 2 0.208 0.212 0.013 270.196 o
8 7 3 0.739 0.766 0.031 60.839 o
8 7 4 0.355 0.343 0.016 159.039 o
8 7 5 0.607 0.637 0.028 75.884 o
8 7 6 0.129 0.143 0.017 322.897 o
8 7 7 1.240 1.236 0.035 35.465 o
8 7 8 0.328 0.352 0.015 169.013 o
8 7 9 0.009 -0.001 0.262 3.310 o
8 8 0 0.887 0.868 0.045 41.536 o
8 8 1 0.858 0.846 0.041 45.408 o
8 8 2 0.155 0.153 0.018 282.181 o
8 8 3 0.934 0.935 0.046 39.054 o
8 8 4 0.347 0.341 0.022 139.498 o
8 8 5 0.039 0.006 0.401 1.410 o
8 8 6 0.014 0.000 0.396 1.446 o
8 8 7 0.081 0.028 0.397 1.437 o
8 8 8 0.005 0.009 0.377 1.593 o
9 0 1 0.003 -0.016 0.296 2.583 o
9 0 2 0.085 0.091 0.016 437.311 o
9 0 3 1.012 0.997 0.036 43.035 o
9 0 4 3.626 3.800 0.055 8.365 o
9 0 5 0.370 0.341 0.017 151.891 o
9 0 6 0.432 0.436 0.021 118.301 o
9 0 7 1.130 1.129 0.038 37.584 o
9 0 8 1.223 1.307 0.039 33.218 o
9 0 9 0.124 0.116 0.017 342.669 o
9 0 10 0.163 0.190 0.014 307.505 o
9 1 0 3.533 3.518 0.042 9.328 o
9 1 1 3.491 3.551 0.043 9.359 o
9 1 2 0.597 0.627 0.023 84.018 o
9 1 3 2.951 3.062 0.041 11.783 o
9 1 4 1.637 1.632 0.035 26.131 o
9 1 5 0.220 0.253 0.013 248.407 o
9 1 6 0.089 0.051 0.198 5.720 o
9 1 7 0.320 0.318 0.015 177.256 o
9 1 8 0.056 0.033 0.286 2.760 o
9 1 9 0.092 0.069 0.014 500.266 o
9 1 10 0.191 0.195 0.013 290.642 o
9 2 0 1.420 1.366 0.031 32.207 o
9 2 1 0.220 0.227 0.012 264.147 o
9 2 2 0.431 0.406 0.015 136.288 o
9 2 3 1.864 1.870 0.035 22.358 o
9 2 4 2.953 3.062 0.043 11.673 o
9 2 5 0.840 0.770 0.031 56.153 o
9 2 6 0.704 0.810 0.031 61.478 o
9 2 7 1.151 1.160 0.034 38.578 o
9 2 8 1.256 1.221 0.035 35.293 o
9 2 9 0.202 0.220 0.013 271.689 o
9 2 10 0.130 0.108 0.014 394.876 o
9 3 0 4.903 5.159 0.056 5.408 o
9 3 1 1.573 1.598 0.034 27.384 o
9 3 2 0.195 0.189 0.012 298.968 o
9 3 3 1.155 1.119 0.032 39.835 o
9 3 4 1.026 1.034 0.033 43.822 o
9 3 5 0.137 0.114 0.013 397.980 o
9 3 6 0.031 0.036 0.195 5.915 o
9 3 7 0.046 0.026 0.198 5.737 o
9 3 8 0.127 0.123 0.014 387.540 o
9 3 9 0.004 0.019 0.270 3.118 o
9 3 10 0.119 0.086 0.016 386.218 o
9 4 0 0.388 0.409 0.019 133.881 o
9 4 1 1.059 1.047 0.032 43.262 o
9 4 2 0.441 0.473 0.018 121.099 o
9 4 3 1.402 1.369 0.034 31.628 o
9 4 4 0.547 0.529 0.022 95.156 o
9 4 5 1.008 1.019 0.033 44.553 o
9 4 6 0.285 0.282 0.013 206.477 o
9 4 7 1.929 1.991 0.039 20.490 o
9 4 8 0.575 0.608 0.026 82.332 o
9 4 9 0.034 0.049 0.270 3.114 o
9 4 10 0.003 -0.026 0.262 3.311 o
9 5 0 5.754 6.156 0.069 4.080 o
9 5 1 1.424 1.330 0.034 31.589 o
9 5 2 0.882 0.959 0.031 50.834 o
9 5 3 0.101 0.063 0.020 341.658 o
9 5 4 1.636 1.561 0.037 26.153 o
9 5 5 0.599 0.634 0.029 75.097 o
9 5 6 0.362 0.372 0.015 156.373 o
9 5 7 0.257 0.272 0.014 216.398 o
9 5 8 0.360 0.368 0.018 147.624 o
9 5 9 0.087 0.047 0.193 6.077 o
9 6 0 0.149 0.173 0.014 329.527 o
9 6 1 0.407 0.409 0.018 133.057 o
9 6 2 0.146 0.147 0.013 361.099 o
9 6 3 0.695 0.749 0.029 65.567 o
9 6 4 0.510 0.489 0.022 101.606 o
9 6 5 0.450 0.443 0.020 117.349 o
9 6 6 0.183 0.158 0.013 314.014 o
9 6 7 0.905 0.923 0.033 49.262 o
9 6 8 0.353 0.387 0.015 156.906 o
9 6 9 0.020 0.027 0.261 3.333 o
9 7 0 0.710 0.793 0.029 63.594 o
9 7 1 0.822 0.884 0.032 53.752 o
9 7 2 0.098 0.053 0.199 5.661 o
9 7 3 0.998 0.973 0.033 45.532 o
9 7 4 0.281 0.289 0.014 201.663 o
9 7 5 0.026 -0.040 0.285 2.782 o
9 7 6 0.018 0.038 0.274 3.005 o
9 7 7 0.051 0.034 0.276 2.960 o
9 7 8 0.002 0.011 0.268 3.165 o
9 8 0 0.587 0.564 0.024 86.253 o
9 8 1 0.164 0.164 0.013 330.658 o
9 8 2 0.377 0.393 0.017 143.926 o
9 8 3 0.420 0.376 0.020 128.103 o
9 8 4 1.351 1.394 0.037 31.346 o
9 8 5 0.207 0.195 0.013 277.900 o
9 8 6 0.262 0.280 0.014 211.975 o
9 8 7 0.041 0.033 0.192 6.158 o
9 8 8 0.375 0.365 0.017 147.728 o
9 9 0 0.122 0.110 0.018 331.268 o
9 9 1 0.554 0.644 0.037 66.280 o
9 9 2 0.184 0.157 0.019 249.242 o
9 9 3 0.679 0.771 0.043 50.273 o
9 9 4 0.177 0.216 0.018 245.448 o
9 9 5 0.074 0.057 0.395 1.451 o
9 9 6 0.041 0.062 0.220 4.661 o
9 9 7 0.086 0.069 0.372 1.633 o
10 0 0 0.926 0.909 0.036 46.771 o
10 0 1 2.177 2.215 0.043 17.359 o
10 0 2 0.065 0.050 0.311 2.339 o
10 0 3 3.055 3.065 0.051 10.915 o
10 0 4 0.481 0.458 0.022 107.284 o
10 0 5 0.065 0.065 0.323 2.170 o
10 0 6 0.147 0.182 0.015 314.561 o
10 0 7 0.006 0.000 0.322 2.187 o
10 0 8 0.005 0.040 0.310 2.357 o
10 0 9 0.103 0.099 0.021 303.319 o
10 0 10 0.050 0.092 0.504 0.893 o
10 1 0 0.114 0.098 0.014 426.963 o
10 1 1 0.028 0.018 0.268 3.163 o
10 1 2 0.198 0.200 0.013 282.389 o
10 1 3 0.569 0.600 0.023 87.742 o
10 1 4 2.601 2.653 0.042 13.965 o
10 1 5 0.169 0.125 0.013 347.066 o
10 1 6 0.326 0.326 0.013 181.551 o
10 1 7 0.474 0.493 0.022 105.927 o
10 1 8 0.796 0.875 0.032 54.980 o
10 1 9 0.103 0.070 0.016 423.918 o
10 1 10 0.142 0.174 0.017 296.914 o
10 2 0 3.204 3.301 0.045 10.397 o
10 2 1 1.050 1.043 0.032 43.565 o
10 2 2 0.109 0.084 0.028 210.331 o
10 2 3 0.812 0.833 0.030 56.841 o
10 2 4 0.677 0.750 0.029 66.592 o
10 2 5 0.073 0.056 0.016 494.726 o
10 2 6 0.021 0.012 0.277 2.942 o
10 2 7 0.022 0.018 0.276 2.963 o
10 2 8 0.083 0.083 0.014 505.099 o
10 2 9 0.004 -0.020 0.271 3.097 o
10 2 10 0.075 0.043 0.365 1.696 o
10 3 0 0.043 0.066 0.020 415.477 o
10 3 1 0.878 0.855 0.031 52.922 o
10 3 2 0.268 0.315 0.013 206.583 o
10 3 3 0.791 0.833 0.030 57.777 o
10 3 4 0.277 0.305 0.013 204.879 o
10 3 5 0.750 0.759 0.032 59.463 o
10 3 6 0.070 0.105 0.020 353.168 o
10 3 7 1.541 1.516 0.037 27.663 o
10 3 8 0.331 0.285 0.014 182.888 o
10 3 9 0.004 0.050 0.262 3.308 o
10 4 0 4.737 4.980 0.069 5.472 o
10 4 1 0.607 0.597 0.024 83.028 o
10 4 2 0.511 0.491 0.019 107.163 o
10 4 3 0.035 0.025 0.275 2.983 o
10 4 4 0.909 0.990 0.032 48.660 o
10 4 5 0.402 0.392 0.018 135.654 o
10 4 6 0.293 0.303 0.015 189.366 o
10 4 7 0.072 0.076 0.016 476.034 o
10 4 8 0.287 0.257 0.013 211.343 o
10 4 9 0.042 -0.018 0.191 6.227 o
10 5 0 0.057 0.058 0.016 533.047 o
10 5 1 0.327 0.335 0.014 175.813 o
10 5 2 0.086 0.097 0.020 339.163 o
10 5 3 0.485 0.471 0.020 110.031 o
10 5 4 0.383 0.371 0.016 148.240 o
10 5 5 0.358 0.356 0.017 153.035 o
10 5 6 0.103 0.087 0.020 326.667 o
10 5 7 0.750 0.766 0.031 60.312 o
10 5 8 0.263 0.262 0.014 216.055 o
10 5 9 0.010 0.005 0.254 3.519 o
10 6 0 0.582 0.577 0.023 87.657 o
10 6 1 0.681 0.688 0.028 69.283 o
10 6 2 0.055 0.028 0.199 5.678 o
10 6 3 0.860 0.841 0.032 53.107 o
10 6 4 0.220 0.227 0.013 256.970 o
10 6 5 0.016 -0.007 0.279 2.902 o
10 6 6 0.014 -0.002 0.279 2.902 o
10 6 7 0.029 0.027 0.193 6.100 o
10 6 8 0.001 -0.003 0.263 3.286 o
10 7 0 0.386 0.357 0.018 142.887 o
10 7 1 0.141 0.124 0.017 319.780 o
10 7 2 0.317 0.317 0.015 178.387 o
10 7 3 0.287 0.311 0.015 190.026 o
10 7 4 1.237 1.256 0.035 35.317 o
10 7 5 0.137 0.132 0.014 366.675 o
10 7 6 0.206 0.184 0.014 273.832 o
10 7 7 0.033 0.023 0.193 6.100 o
10 7 8 0.321 0.329 0.014 178.981 o
10 8 0 0.105 0.099 0.017 376.124 o
10 8 1 0.506 0.500 0.024 97.546 o
10 8 2 0.151 0.160 0.013 347.600 o
10 8 3 0.661 0.722 0.030 67.140 o
10 8 4 0.146 0.164 0.013 351.198 o
10 8 5 0.065 0.033 0.197 5.788 o
10 8 6 0.040 0.053 0.191 6.219 o
10 8 7 0.068 0.051 0.013 635.555 o
10 9 0 0.004 0.011 0.196 5.868 o
10 9 1 0.027 0.037 0.275 2.983 o
10 9 2 0.001 0.003 0.274 3.008 o
10 9 3 0.071 0.070 0.016 484.525 o
10 9 4 0.152 0.174 0.014 326.207 o
10 9 5 0.050 0.021 0.273 3.047 o
10 9 6 0.017 0.033 0.184 6.707 o
10 10 0 0.558 0.580 0.036 69.231 o
10 10 1 0.101 0.121 0.023 266.255 o
10 10 2 0.085 0.070 0.393 1.465 o
10 10 3 0.000 -0.018 0.389 1.498 o
10 10 4 0.135 0.131 0.018 308.055 o
10 10 5 0.056 0.054 0.370 1.651 o
11 0 1 0.014 -0.005 0.320 2.214 o
11 0 2 0.135 0.080 0.017 350.808 o
11 0 3 0.267 0.319 0.016 191.367 o
11 0 4 1.587 1.514 0.040 26.115 o
11 0 5 0.066 0.018 0.325 2.145 o
11 0 6 0.179 0.133 0.017 282.856 o
11 0 7 0.246 0.265 0.015 217.990 o
11 0 8 0.463 0.490 0.025 100.920 o
11 0 9 0.056 -0.015 0.306 2.416 o
11 1 0 1.159 1.296 0.033 37.298 o
11 1 1 0.871 0.901 0.032 51.545 o
11 1 2 0.016 0.027 0.195 5.982 o
11 1 3 0.946 0.942 0.032 48.233 o
11 1 4 0.352 0.367 0.014 163.207 o
11 1 5 0.006 0.024 0.275 2.985 o
11 1 6 0.006 0.027 0.273 3.029 o
11 1 7 0.011 0.039 0.273 3.050 o
11 1 8 0.013 0.035 0.270 3.117 o
11 1 9 0.023 0.050 0.258 3.408 o
11 2 0 0.093 0.116 0.016 402.959 o
11 2 1 0.262 0.238 0.013 228.161 o
11 2 2 0.068 0.030 0.199 5.674 o
11 2 3 0.472 0.497 0.022 105.847 o
11 2 4 0.442 0.408 0.022 116.419 o
11 2 5 0.334 0.365 0.015 165.178 o
11 2 6 0.097 0.100 0.016 408.465 o
11 2 7 0.690 0.724 0.031 64.372 o
11 2 8 0.280 0.277 0.014 204.484 o
11 2 9 0.013 0.035 0.255 3.490 o
11 3 0 2.754 2.730 0.044 12.995 o
11 3 1 0.388 0.427 0.017 137.837 o
11 3 2 0.248 0.224 0.013 240.326 o
11 3 3 0.072 0.089 0.016 462.881 o
11 3 4 0.517 0.527 0.028 87.458 o
11 3 5 0.183 0.178 0.013 304.905 o
11 3 6 0.141 0.150 0.013 366.369 o
11 3 7 0.031 0.034 0.277 2.941 o
11 3 8 0.150 0.113 0.014 362.685 o
11 4 0 0.005 0.024 0.275 2.986 o
11 4 1 0.261 0.225 0.013 232.420 o
11 4 2 0.047 0.040 0.161 8.705 o
11 4 3 0.304 0.314 0.014 187.782 o
11 4 4 0.237 0.268 0.013 234.249 o
11 4 5 0.272 0.251 0.014 214.379 o
11 4 6 0.040 0.053 0.197 5.792 o
11 4 7 0.577 0.527 0.026 85.529 o
11 4 8 0.171 0.148 0.014 319.717 o
11 5 0 0.615 0.615 0.028 76.070 o
11 5 1 0.455 0.507 0.021 109.607 o
11 5 2 0.055 0.074 0.278 2.917 o
11 5 3 0.497 0.509 0.024 98.023 o
11 5 4 0.194 0.220 0.013 277.709 o
11 5 5 0.013 -0.014 0.279 2.902 o
11 5 6 0.003 0.036 0.273 3.028 o
11 5 7 0.029 0.045 0.267 3.185 o
11 5 8 0.007 -0.024 0.260 3.361 o
11 6 0 0.262 0.249 0.014 219.921 o
11 6 1 0.065 0.084 0.014 550.958 o
11 6 2 0.192 0.201 0.013 286.756 o
11 6 3 0.213 0.231 0.013 260.330 o
11 6 4 0.850 0.858 0.033 52.373 o
11 6 5 0.099 0.094 0.016 409.939 o
11 6 6 0.140 0.158 0.013 362.195 o
11 6 7 0.045 0.041 0.188 6.416 o
11 7 0 0.103 0.121 0.016 384.187 o
11 7 1 0.393 0.400 0.019 133.864 o
11 7 2 0.099 0.089 0.014 464.068 o
11 7 3 0.531 0.505 0.025 92.760 o
11 7 4 0.108 0.122 0.013 438.588 o
11 7 5 0.044 0.081 0.019 431.009 o
11 7 6 0.027 0.057 0.262 3.305 o
11 7 7 0.045 0.060 0.256 3.458 o
11 8 0 0.002 0.002 0.275 2.987 o
11 8 1 0.020 -0.006 0.283 2.821 o
11 8 2 0.002 -0.023 0.279 2.903 o
11 8 3 0.062 0.065 0.020 388.395 o
11 8 4 0.148 0.158 0.014 338.945 o
11 8 5 0.040 0.055 0.188 6.415 o
11 8 6 0.017 0.031 0.256 3.462 o
11 9 0 0.502 0.521 0.024 96.799 o
11 9 1 0.097 0.096 0.014 460.674 o
11 9 2 0.076 0.060 0.020 372.536 o
11 9 3 0.001 -0.024 0.271 3.097 o
11 9 4 0.125 0.129 0.016 350.246 o
11 9 5 0.049 0.048 0.184 6.691 o
11 10 0 0.050 0.048 0.273 3.024 o
11 10 1 0.132 0.108 0.014 391.330 o
11 10 2 0.062 0.055 0.016 523.899 o
11 10 3 0.099 0.078 0.019 355.039 o
12 0 0 0.879 0.974 0.037 46.540 o
12 0 1 0.371 0.363 0.022 132.300 o
12 0 2 0.015 0.004 0.211 5.073 o
12 0 3 0.355 0.332 0.017 156.936 o
12 0 4 0.198 0.195 0.015 266.739 o
12 0 5 0.006 0.014 0.319 2.228 o
12 0 6 0.003 0.037 0.313 2.313 o
12 0 7 0.001 0.028 0.308 2.388 o
12 0 8 0.020 0.051 0.300 2.513 o
12 1 0 0.062 0.053 0.282 2.836 o
12 1 1 0.083 0.079 0.016 450.940 o
12 1 2 0.026 0.044 0.277 2.941 o
12 1 3 0.244 0.275 0.013 228.001 o
12 1 4 0.372 0.365 0.016 151.696 o
12 1 5 0.151 0.158 0.014 335.293 o
12 1 6 0.067 0.009 0.285 2.779 o
12 1 7 0.314 0.356 0.016 168.872 o
12 1 8 0.183 0.183 0.012 313.446 o
12 2 0 1.126 1.147 0.034 39.298 o
12 2 1 0.348 0.350 0.015 163.352 o
12 2 2 0.099 0.120 0.020 314.756 o
12 2 3 0.172 0.167 0.013 320.780 o
12 2 4 0.289 0.284 0.014 199.302 o
12 2 5 0.052 0.010 0.283 2.819 o
12 2 6 0.034 -0.004 0.278 2.921 o
12 2 7 0.029 0.045 0.270 3.115 o
12 2 8 0.048 0.062 0.015 593.618 o
12 3 0 0.013 0.034 0.277 2.942 o
12 3 1 0.095 0.088 0.014 472.630 o
12 3 2 0.013 0.030 0.195 5.982 o
12 3 3 0.180 0.174 0.013 309.874 o
12 3 4 0.245 0.268 0.014 223.657 o
12 3 5 0.133 0.140 0.016 335.735 o
12 3 6 0.040 0.069 0.019 448.644 o
12 3 7 0.291 0.281 0.015 194.466 o
12 4 0 0.453 0.457 0.016 124.721 o
12 4 1 0.286 0.281 0.015 196.340 o
12 4 2 0.026 0.013 0.280 2.880 o
12 4 3 0.310 0.313 0.015 181.299 o
12 4 4 0.128 0.140 0.013 390.338 o
12 4 5 0.006 0.000 0.274 3.008 o
12 4 6 0.001 -0.009 0.271 3.097 o
12 4 7 0.013 0.033 0.262 3.308 o
12 5 0 0.154 0.117 0.017 310.948 o
12 5 1 0.018 0.016 0.282 2.841 o
12 5 2 0.091 0.094 0.016 423.914 o
12 5 3 0.144 0.129 0.014 360.270 o
12 5 4 0.486 0.539 0.022 101.529 o
12 5 5 0.070 0.062 0.273 3.022 o
12 5 6 0.081 0.080 0.269 3.132 o
12 5 7 0.056 0.033 0.258 3.405 o
12 6 0 0.126 0.144 0.013 390.431 o
12 6 1 0.260 0.267 0.013 221.964 o
12 6 2 0.060 0.047 0.201 5.563 o
12 6 3 0.325 0.367 0.016 164.073 o
12 6 4 0.084 0.074 0.016 453.457 o
12 6 5 0.024 0.029 0.193 6.102 o
12 6 6 0.010 0.010 0.264 3.260 o
12 7 0 0.002 -0.006 0.276 2.965 o
12 7 1 0.018 0.009 0.196 5.864 o
12 7 2 0.001 -0.001 0.276 2.965 o
12 7 3 0.049 0.059 0.014 644.145 o
12 7 4 0.114 0.126 0.012 443.457 o
12 7 5 0.034 0.004 0.191 6.229 o
12 8 0 0.389 0.423 0.018 135.227 o
12 8 1 0.077 0.058 0.016 484.214 o
12 8 2 0.055 0.085 0.019 411.230 o
12 8 3 0.003 0.004 0.268 3.165 o
12 8 4 0.096 0.094 0.016 414.752 o
12 9 0 0.041 0.051 0.271 3.091 o
12 9 1 0.105 0.061 0.020 337.929 o
12 9 2 0.047 -0.005 0.271 3.093 o
12 9 3 0.083 0.067 0.019 383.028 o
13 0 1 0.088 0.080 0.022 307.533 o
13 0 2 0.006 0.029 0.208 5.217 o
13 0 3 0.109 0.117 0.017 359.912 o
13 0 4 0.121 0.107 0.015 389.613 o
13 0 5 0.101 0.093 0.017 385.706 o
13 0 6 0.013 0.004 0.311 2.342 o
13 0 7 0.218 0.197 0.015 252.101 o
13 1 0 0.623 0.658 0.029 72.674 o
13 1 1 0.147 0.150 0.013 358.080 o
13 1 2 0.037 0.002 0.281 2.860 o
13 1 3 0.092 0.095 0.014 471.899 o
13 1 4 0.124 0.125 0.013 407.704 o
13 1 5 0.018 0.011 0.193 6.107 o
13 1 6 0.018 0.007 0.190 6.300 o
13 1 7 0.005 0.028 0.254 3.518 o
13 2 0 0.009 0.007 0.278 2.923 o
13 2 1 0.037 0.022 0.278 2.920 o
13 2 2 0.006 0.003 0.274 3.008 o
13 2 3 0.094 0.090 0.016 421.304 o
13 2 4 0.178 0.157 0.015 296.658 o
13 2 5 0.065 0.023 0.279 2.897 o
13 2 6 0.026 0.053 0.262 3.306 o
13 3 0 0.244 0.232 0.014 233.762 o
13 3 1 0.176 0.187 0.013 307.225 o
13 3 2 0.003 -0.005 0.280 2.882 o
13 3 3 0.214 0.213 0.013 265.960 o
13 3 4 0.069 0.051 0.282 2.836 o
13 3 5 0.001 0.010 0.270 3.119 o
13 3 6 0.000 0.008 0.262 3.310 o
13 4 0 0.046 0.017 0.198 5.739 o
13 4 1 0.004 0.029 0.275 2.985 o
13 4 2 0.041 0.040 0.276 2.961 o
13 4 3 0.063 0.065 0.016 508.019 o
13 4 4 0.289 0.296 0.015 192.272 o
13 4 5 0.029 -0.025 0.318 2.241 o
13 4 6 0.038 0.047 0.183 6.768 o
13 5 0 0.112 0.122 0.014 410.714 o
13 5 1 0.151 0.162 0.013 346.526 o
13 5 2 0.026 -0.015 0.278 2.922 o
13 5 3 0.189 0.180 0.013 298.986 o
13 5 4 0.052 0.001 0.277 2.940 o
13 5 5 0.010 0.043 0.258 3.410 o
13 6 0 0.002 0.008 0.274 3.008 o
13 6 1 0.015 0.013 0.272 3.073 o
13 6 2 0.000 -0.001 0.271 3.097 o
13 6 3 0.035 0.056 0.268 3.160 o
13 6 4 0.078 0.082 0.016 458.461 o
13 6 5 0.027 -0.010 0.261 3.333 o
13 7 0 0.273 0.257 0.014 212.506 o
13 7 1 0.048 0.048 0.016 572.292 o
13 7 2 0.032 0.023 0.156 9.280 o
13 7 3 0.005 -0.001 0.186 6.576 o
13 7 4 0.060 0.040 0.261 3.328 o
13 8 0 0.023 0.014 0.266 3.210 o
13 8 1 0.071 0.056 0.016 500.203 o
13 8 2 0.028 0.051 0.255 3.487 o
14 0 0 0.338 0.327 0.016 166.187 o
14 0 1 0.058 0.013 0.327 2.119 o
14 0 2 0.020 0.008 0.206 5.317 o
14 0 3 0.037 -0.007 0.324 2.160 o
14 0 4 0.057 0.076 0.021 362.544 o
14 0 5 0.009 0.000 0.304 2.450 o
14 1 0 0.000 0.008 0.273 3.030 o
14 1 1 0.032 0.027 0.273 3.026 o
14 1 2 0.000 -0.046 0.281 2.862 o
14 1 3 0.045 0.022 0.273 3.047 o
14 1 4 0.072 0.056 0.274 3.000 o
14 1 5 0.042 0.022 0.266 3.208 o
14 2 0 0.166 0.171 0.013 325.634 o
14 2 1 0.085 0.096 0.016 432.150 o
14 2 2 0.004 -0.012 0.275 2.987 o
14 2 3 0.095 0.088 0.016 421.721 o
14 2 4 0.040 0.042 0.267 3.184 o
14 2 5 0.000 -0.017 0.261 3.336 o
14 3 0 0.011 0.013 0.274 3.007 o
14 3 1 0.000 0.003 0.272 3.074 o
14 3 2 0.016 0.024 0.271 3.094 o
14 3 3 0.029 0.036 0.270 3.115 o
14 3 4 0.147 0.107 0.019 293.315 o
14 3 5 0.015 -0.018 0.255 3.491 o
14 4 0 0.075 0.071 0.014 540.414 o
14 4 1 0.081 0.071 0.020 359.603 o
14 4 2 0.007 -0.011 0.270 3.119 o
14 4 3 0.108 0.108 0.016 386.756 o
14 4 4 0.027 -0.006 0.185 6.638 o
14 5 0 0.001 -0.030 0.273 3.052 o
14 5 1 0.009 -0.022 0.194 6.049 o
14 5 2 0.001 -0.004 0.267 3.189 o
14 5 3 0.021 0.039 0.261 3.332 o
14 6 0 0.162 0.164 0.012 345.891 o
14 6 1 0.029 -0.007 0.189 6.363 o
14 6 2 0.016 -0.004 0.261 3.334 o
15 0 1 0.013 -0.010 0.312 2.328 o
15 0 2 0.000 -0.043 0.309 2.373 o
15 0 3 0.019 0.042 0.296 2.581 o
15 1 0 0.101 0.074 0.272 3.062 o
15 1 1 0.037 0.033 0.188 6.421 o
15 1 2 0.004 0.026 0.260 3.360 o
15 1 3 0.036 0.030 0.184 6.700 o
15 2 0 0.005 0.021 0.267 3.188 o
15 2 1 0.003 -0.001 0.265 3.237 o
15 2 2 0.004 -0.009 0.266 3.213 o
15 3 0 0.055 0.059 0.261 3.327 o
15 3 1 0.038 -0.021 0.267 3.186 o
15 3 2 0.003 0.014 0.252 3.574 o
15 4 0 0.000 0.007 0.182 6.866 o
;
_olex2_submission_special_instructions 'No special instructions were received'
loop_
_space_group_symop_id
_space_group_symop_operation_xyz
1 x,y,z
2 y,-x,-z
3 -y,x,-z
4 x+1/2,-y+1/2,-z
5 -x+1/2,y+1/2,-z
6 -x,-y,z
7 -y+1/2,-x+1/2,z
8 y+1/2,x+1/2,z
loop_
_atom_site_label
_atom_site_type_symbol
_atom_site_fract_x
_atom_site_fract_y
_atom_site_fract_z
_atom_site_U_iso_or_equiv
_atom_site_adp_type
_atom_site_occupancy
_atom_site_site_symmetry_order
_atom_site_refinement_flags_posn
_atom_site_refinement_flags_adp
_atom_site_refinement_flags_occupancy
O1 O 0.000000 0.500000 0.596460 0.015440 Uani 1.000000 4 S T P
N2 N 0.14488(3) 0.64488(3) 0.17833(4) 0.02259(4) Uani 1.000000 2 S T P
C4 C 0.000000 0.500000 0.328120 0.012310 Uani 1.000000 4 S T P
H2b H 0.2516(11) 0.7516(11) 0.2893(13) 0.042(2) Uani 1.000000 2 S T P
H2a H 0.1438(10) 0.6438(10) -0.0293(18) 0.0355(18) Uani 1.000000 2 S T P
loop_
_atom_site_aniso_label
_atom_site_aniso_U_11
_atom_site_aniso_U_22
_atom_site_aniso_U_33
_atom_site_aniso_U_12
_atom_site_aniso_U_13
_atom_site_aniso_U_23
O1 0.019880 0.019880 0.006560 0.002120 -0.000000 0.000000
N2 0.02907(7) 0.02907(7) 0.00963(4) -0.01523(8) 0.00010(3) 0.00010(3)
C4 0.014960 0.014960 0.007010 0.000020 -0.000000 0.000000
H2b 0.055(4) 0.055(4) 0.017(3) -0.029(5) -0.003(3) -0.003(3)
H2a 0.044(3) 0.044(3) 0.020(3) -0.009(5) 0.000(3) 0.000(3)
loop_
_atom_type_symbol
_atom_type_description
_atom_type_scat_dispersion_real
_atom_type_scat_dispersion_imag
_atom_type_scat_source
_atom_type_scat_dispersion_source
C C 0.00347 0.00161
'Clementi & Roetti, C., At. Data Nucl. Data Tables 1974, 14, (177-478); Clementi & Raimondi, J. Chem. Phys., 1963, 38, (2686-2689)'
'Henke, Gullikson and Davis, At. Data and Nucl. Data Tables, 1993, 54, 2'
H H 0.00000 0.00000
'Clementi & Roetti, C., At. Data Nucl. Data Tables 1974, 14, (177-478); Clementi & Raimondi, J. Chem. Phys., 1963, 38, (2686-2689)'
'Henke, Gullikson and Davis, At. Data and Nucl. Data Tables, 1993, 54, 2'
N N 0.00653 0.00323
'Clementi & Roetti, C., At. Data Nucl. Data Tables 1974, 14, (177-478); Clementi & Raimondi, J. Chem. Phys., 1963, 38, (2686-2689)'
'Henke, Gullikson and Davis, At. Data and Nucl. Data Tables, 1993, 54, 2'
O O 0.01158 0.00611
'Clementi & Roetti, C., At. Data Nucl. Data Tables 1974, 14, (177-478); Clementi & Raimondi, J. Chem. Phys., 1963, 38, (2686-2689)'
'Henke, Gullikson and Davis, At. Data and Nucl. Data Tables, 1993, 54, 2'
loop_
_geom_angle_atom_site_label_1
_geom_angle_atom_site_label_2
_geom_angle_atom_site_label_3
_geom_angle
_geom_angle_site_symmetry_1
_geom_angle_site_symmetry_3
_geom_angle_publ_flag
N2 C4 O1 121.556(8) . . ?
N2 C4 O1 121.556(8) 6_565 . ?
N2 C4 N2 116.887(16) 6_565 . ?
loop_
_geom_bond_atom_site_label_1
_geom_bond_atom_site_label_2
_geom_bond_distance
_geom_bond_site_symmetry_2
_geom_bond_publ_flag
O1 C4 1.2574 . ?
N2 C4 1.3412(2) 6_565 ?
loop_
_refln_index_h
_refln_index_k
_refln_index_l
_refln_F_squared_meas
_refln_F_squared_sigma
0 -2 -6 14.56 0.23
-1 -1 -6 29.44 0.33
0 -1 -6 5.29 0.28
0 0 -6 156.54 1.86
-4 0 -5 25.82 0.36
-3 0 -5 3.66 0.17
-2 0 -5 5.59 0.26
-1 0 -5 189.09 0.97
0 0 -5 486.21 3.6
4 -1 -5 15.03 0.28
3 -1 -5 16.59 0.28
2 -1 -5 134.68 0.72
1 -1 -5 168.5 1.11
-4 -2 -5 52.61 0.32
-3 -2 -5 75.67 0.53
-2 -2 -5 96.97 0.83
3 -3 -5 132.61 0.84
-2 -5 -4 75.16 0.55
-1 -5 -4 153.34 0.9
0 -5 -4 178.18 1.13
4 -4 -4 86.18 0.62
3 -4 -4 3.06 0.16
2 -4 -4 164.55 0.88
1 -4 -4 426.26 1.75
0 -4 -4 58.69 0.47
-3 -3 -4 156.47 1.16
-2 -3 -4 135.42 0.67
-1 -3 -4 143.86 0.67
0 -3 -4 1039.92 3.75
2 -2 -4 430.71 2.11
1 -2 -4 449.35 1.43
0 -2 -4 199.6 0.84
-1 -1 -4 430.84 1.82
0 -1 -4 21.99 0.28
0 0 -4 295.58 1.78
-6 0 -3 2.3 0.13
-5 0 -3 84.49 0.57
-4 0 -3 712.6 2.52
-3 0 -3 115.15 0.54
-2 0 -3 492.13 1.31
-1 0 -3 869.3 1.88
0 0 -3 135.06 0.8
6 -1 -3 104.35 0.67
5 -1 -3 101.39 0.57
4 -1 -3 130.06 0.59
3 -1 -3 655.96 1.75
2 -1 -3 680.24 1.54
1 -1 -3 114.99 0.55
-6 -2 -3 61.52 0.4
-5 -2 -3 211.73 1.02
-4 -2 -3 41.9 0.33
-3 -2 -3 254.14 0.87
-2 -2 -3 272.9 1.14
5 -3 -3 33.52 0.34
4 -3 -3 166.6 0.79
3 -3 -3 5.08 0.3
-5 -4 -3 56.91 0.33
-4 -4 -3 1.59 0.15
-1 -7 -2 14.33 0.2
0 -7 -2 50.95 0.36
3 -6 -2 9.1 0.25
2 -6 -2 28.22 0.32
1 -6 -2 46.62 0.38
0 -6 -2 25.4 0.34
-5 -5 -2 49.59 0.44
-4 -5 -2 6.89 0.25
-3 -5 -2 22.34 0.29
-2 -5 -2 73.54 0.44
-1 -5 -2 81.91 0.45
0 -5 -2 0.89 0.16
4 -4 -2 39.73 0.48
3 -4 -2 185.71 0.76
2 -4 -2 53.91 0.33
1 -4 -2 27.24 0.26
0 -4 -2 76.14 0.42
-3 -3 -2 78.84 0.55
-2 -3 -2 109.09 0.42
-1 -3 -2 147.46 0.46
0 -3 -2 176.71 0.57
2 -2 -2 542.88 1.57
1 -2 -2 299.59 0.71
0 -2 -2 82.27 0.33
-1 -1 -2 524.41 1.18
0 -1 -2 1517.92 2.7
-7 0 -1 84.53 0.67
-6 0 -1 44.33 0.41
-5 0 -1 1.04 0.11
-4 0 -1 967.16 2.37
-3 0 -1 925.59 1.73
-2 0 -1 1958.98 2.6
-1 0 -1 1485.44 1.77
0 0 -1 133.08 0.49
7 -1 -1 31.61 0.35
6 -1 -1 56.37 0.4
5 -1 -1 300.73 1.03
4 -1 -1 115.54 0.43
3 -1 -1 1410.5 2.25
2 -1 -1 491.23 0.75
1 -1 -1 2808.61 5.07
-7 -2 -1 0.14 1.69
-6 -2 -1 136.45 0.75
-5 -2 -1 71.42 0.42
-4 -2 -1 254.83 0.78
-3 -2 -1 50.86 0.32
-2 -2 -1 1980.19 3.9
6 -3 -1 8.78 0.25
5 -3 -1 117.53 0.61
4 -3 -1 204.13 0.75
3 -3 -1 80.53 0.52
-6 -4 -1 133.64 0.61
-5 -4 -1 4.74 0.21
-4 -4 -1 47.16 0.5
5 -5 -1 155.05 1.36
-2 -7 0 2.74 0.09
-1 -7 0 312.05 1.77
4 -6 0 24.49 0.33
3 -6 0 0.43 2.26
2 -6 0 232.6 1.07
1 -6 0 52.77 0.44
0 -6 0 609.97 4.08
-5 -5 0 67.05 0.73
-4 -5 0 28.63 0.32
-3 -5 0 428.02 1.61
-2 -5 0 212.44 0.82
-1 -5 0 419.03 1.48
4 -4 0 822.67 3.85
3 -4 0 32.34 0.28
2 -4 0 925.41 2.17
1 -4 0 70.73 0.38
0 -4 0 54.64 0.57
-3 -3 0 2174.94 6.1
-2 -3 0 172.47 0.48
-1 -3 0 288.54 0.68
2 -2 0 2253.08 4.13
1 -2 0 2248.26 2.8
0 -2 0 1545.05 2.97
-2 -11 -5 3.7 0.15
-1 -11 -5 0.24 2.79
0 -11 -5 0.18 3.29
5 -10 -5 3.61 0.17
4 -10 -5 3.97 0.18
3 -10 -5 7.69 0.32
-6 -9 -5 4.49 0.2
-5 -9 -5 6.42 0.29
7 -8 -5 6.45 0.28
10 -2 -5 0.57 0.16
-11 0 -4 15.33 0.41
11 -1 -4 3.72 0.14
-11 -2 -4 4.13 0.22
-11 -3 -4 5.34 0.28
-11 -4 -4 2.71 0.13
10 -5 -4 3.76 0.16
-10 -6 -4 2.3 0.13
-9 -6 -4 4.95 0.22
9 -7 -4 2.93 0.14
-8 -8 -4 3.45 0.22
2 -12 -3 1.69 0.13
1 -12 -3 2.79 0.13
0 -12 -3 3.36 0.17
-5 -11 -3 5.16 0.24
-4 -11 -3 3.18 0.14
-3 -11 -3 0.9 0.16
7 -10 -3 3.15 0.15
6 -10 -3 8.52 0.32
-8 -9 -3 3.81 0.2
-7 -9 -3 9.85 0.33
8 -8 -3 9.47 0.47
-12 0 -2 0.04 2.14
12 -1 -2 0.45 2.81
-12 -2 -2 1.22 0.2
12 -3 -2 0.3 1.97
-11 -4 -2 0.41 1.63
11 -5 -2 0.75 2.82
-10 -6 -2 0.28 2.02
10 -7 -2 3.21 0.15
-9 -8 -2 3.98 0.17
4 -12 -1 2.85 0.15
3 -12 -1 0.89 0.14
2 -12 -1 3.54 0.15
1 -12 -1 0.8 0.16
0 -12 -1 3.68 0.22
-6 -11 -1 0.85 0.14
-5 -11 -1 5.13 0.21
7 -10 -1 1.26 0.17
-8 -9 -1 1.66 0.13
-12 0 0 9.86 0.37
12 -1 0 0.54 2.86
-12 -2 0 11.62 0.34
12 -3 0 0.34 2.81
-12 -4 0 4.63 0.16
11 -5 0 6.23 0.28
-11 -6 0 2.52 0.14
10 -7 0 3.62 0.18
-9 -8 0 5.71 0.24
9 -9 0 1.11 0.18
1 -3 -11 53.74 0.67
0 -3 -11 4.06 0.21
-2 -2 -11 27.57 0.63
-1 -2 -11 18.92 0.39
0 -2 -11 43.05 0.67
1 -1 -11 16.35 0.51
0 -1 -11 14.21 0.4
0 0 -11 0.72 2.56
6 0 -10 7.32 0.35
5 0 -10 5.26 0.3
-6 -1 -10 -0.08 2.79
-5 -1 -10 15.52 0.36
6 -2 -10 8.32 0.32
5 -2 -10 1.18 0.14
-5 -3 -10 8.52 0.32
-4 -3 -10 2.51 0.14
5 -4 -10 2.5 0.14
4 -4 -10 7.32 0.45
-2 -8 -9 1.91 0.13
-1 -8 -9 2.15 0.13
0 -8 -9 0.08 3.27
4 -7 -9 5.42 0.25
3 -7 -9 5.72 0.26
2 -7 -9 2.77 0.15
1 -7 -9 1.01 0.13
0 -7 -9 0.52 3.19
-5 -6 -9 7.53 0.3
-4 -6 -9 6.19 0.28
5 -5 -9 5.02 0.32
9 0 -8 13.24 0.4
-9 -1 -8 0.33 2.9
9 -2 -8 12.37 0.35
-9 -3 -8 1.25 0.14
-8 -3 -8 20.7 0.4
8 -4 -8 0.5 0.16
-8 -5 -8 8.77 0.32
-7 -5 -8 0.87 0.16
7 -6 -8 7.04 0.31
6 -6 -8 2.28 0.19
-3 -10 -7 15.35 0.37
-2 -10 -7 0.18 2.8
-1 -10 -7 4.99 0.22
0 -10 -7 0 3.26
5 -9 -7 2.75 0.14
4 -9 -7 20.17 0.4
-7 -8 -7 12.52 0.35
-6 -8 -7 3.12 0.16
7 -7 -7 2.83 0.2
11 0 -6 1.35 0.17
-11 -1 -6 0.27 2.77
11 -2 -6 1.01 0.16
-11 -3 -6 1.52 0.13
10 -4 -6 3.07 0.15
-10 -5 -6 0.88 0.2
9 -6 -6 1.6 0.13
-9 -7 -6 0.38 2.78
-8 -7 -6 1.45 0.17
8 -8 -6 0 4.01
-2 -12 -5 0.1 2.87
-1 -12 -5 1.6 0.14
0 -12 -5 0.14 3.23
5 -11 -5 -0.14 2.83
4 -11 -5 2.54 0.14
3 -11 -5 1.8 0.13
-6 -10 -5 -0.07 2.83
8 -9 -5 1.97 0.13
7 -9 -5 -0.41 2.89
-8 -8 -5 0.06 4.06
12 0 -4 1.97 0.15
-12 -1 -4 3.7 0.16
12 -2 -4 2.88 0.14
-12 -3 -4 2.71 0.14
12 -4 -4 1.42 0.13
-11 -5 -4 2.23 0.13
11 -6 -4 8.69 0.33
-10 -7 -4 12.72 0.35
9 -8 -4 14.12 0.37
1 -13 -3 0.96 0.14
0 -13 -3 1.18 0.17
-5 -12 -3 1.31 0.14
-4 -12 -3 3.17 0.15
-3 -12 -3 1.76 0.13
7 -11 -3 5.11 0.25
6 -11 -3 2.34 0.13
-8 -10 -3 7.31 0.3
9 -9 -3 7.81 0.44
13 0 -2 0.29 2.11
-13 -1 -2 0.02 2.85
13 -2 -2 0.03 2.78
12 -4 -2 0.13 2.84
-12 -5 -2 0.95 0.16
11 -6 -2 2.04 0.13
-11 -7 -2 0.9 0.14
10 -8 -2 1.62 0.13
-9 -9 -2 1.59 0.19
-3 -13 -2 -0.05 2.84
3 -13 -1 1.89 0.13
2 -13 -1 0.22 2.82
1 -13 -1 1.52 0.13
0 -13 -1 0.81 0.22
-6 -12 -1 2.7 0.13
-5 -12 -1 0.16 2.86
7 -11 -1 4.05 0.19
-9 -10 -1 0.37 2.79
-8 -10 -1 5.06 0.24
9 -9 -1 6.52 0.37
-13 -1 0 6.66 0.29
13 -2 0 0.07 2.82
-13 -3 0 2.35 0.14
-12 -5 0 1.19 0.17
12 -6 0 1.46 0.13
-11 -7 0 1.23 0.16
10 -8 0 1 0.17
-10 -9 0 0.11 1.99
5 0 -11 4.46 0.22
4 0 -11 59.56 0.84
-5 -1 -11 17.5 0.37
-4 -1 -11 5.65 0.24
5 -2 -11 12.44 0.33
4 -2 -11 11.89 0.34
3 -2 -11 9.44 0.32
-4 -3 -11 10.44 0.32
-3 -3 -11 3.1 0.23
4 -4 -11 3.51 0.24
3 -7 -10 2.65 0.13
2 -7 -10 3.84 0.15
1 -7 -10 4.07 0.21
0 -7 -10 0.94 0.21
-5 -6 -10 4.86 0.23
-4 -6 -10 3.92 0.18
-3 -6 -10 7.75 0.32
5 -5 -10 8.09 0.45
9 0 -9 1.17 0.17
-9 -1 -9 0.7 0.14
9 -2 -9 2.23 0.13
-8 -3 -9 3.68 0.16
8 -4 -9 0.5 1.98
-7 -5 -9 0.36 2.74
7 -6 -9 -0.13 2.84
6 -6 -9 0.5 3.9
-5 -8 -9 0.84 0.16
-3 -10 -8 2.89 0.14
-2 -10 -8 0.84 0.14
-1 -10 -8 8.86 0.32
0 -10 -8 0.41 3.14
5 -9 -8 3.73 0.18
4 -9 -8 6.16 0.26
-7 -8 -8 3.57 0.15
-6 -8 -8 5.52 0.24
7 -7 -8 6.95 0.39
11 0 -7 2.68 0.15
-11 -1 -7 0.4 2.76
11 -2 -7 7.33 0.31
-11 -3 -7 0.34 2.81
10 -4 -7 0.77 0.16
-10 -5 -7 7.76 0.31
9 -6 -7 9.35 0.33
-9 -7 -7 0.34 2.8
8 -8 -7 0.28 4.02
-2 -12 -6 -0.04 2.82
-1 -12 -6 0.09 2.89
0 -12 -6 0.37 3.17
5 -11 -6 0.36 2.77
4 -11 -6 0.54 2
-7 -10 -6 1.86 0.14
-6 -10 -6 -0.02 2.83
8 -9 -6 2.84 0.14
-12 -3 -5 1.42 0.16
12 -4 -5 0 2.78
11 -6 -5 0.95 0.16
-10 -7 -5 1.34 0.14
10 -8 -5 0.33 2
-9 -9 -5 0.58 4
3 -13 -4 0.52 2.86
2 -13 -4 1.59 0.15
1 -13 -4 1.27 0.13
0 -13 -4 1.08 0.15
-6 -12 -4 0.75 0.16
-5 -12 -4 5.46 0.22
7 -11 -4 1.24 0.13
-9 -10 -4 1.76 0.14
-8 -10 -4 1.66 0.13
9 -9 -4 2.19 0.18
13 -2 -3 0.91 0.16
-13 -3 -3 2.16 0.13
13 -4 -3 0.66 0.16
12 -6 -3 3.72 0.16
11 -8 -3 0.66 0.2
-10 -9 -3 0.71 0.16
-1 -14 -2 -0.47 2.85
0 -14 -2 0.08 2.09
5 -13 -2 -0.15 2.82
4 -13 -2 0.41 2.8
-7 -12 -2 -0.01 2.8
-6 -12 -2 0.48 2.04
8 -11 -2 -0.23 2.83
-9 -10 -2 0.03 2.78
14 0 -1 0.13 3.31
-14 -1 -1 0.27 2.77
14 -2 -1 0.97 0.16
13 -4 -1 0.29 2.79
-13 -5 -1 1.64 0.13
-12 -7 -1 0.09 1.99
11 -8 -1 -0.06 2.87
-11 -9 -1 0.97 0.14
10 -10 -1 1.23 0.23
-2 -14 0 1.73 0.13
-1 -14 0 0.08 2.77
0 -14 0 3.31 0.16
5 -13 0 1.24 0.14
4 -13 0 0.17 2.01
-7 -12 0 -0.06 2.8
9 -11 0 5.28 0.24
8 -11 0 0.02 2.79
-10 -10 0 5.87 0.36
-1 -4 -12 0.28 2.72
0 -4 -12 2.28 0.15
3 -3 -12 19.61 0.52
2 -3 -12 4.07 0.18
1 -3 -12 5.85 0.25
0 -3 -12 0.43 1.65
-2 -2 -12 17.36 0.5
-1 -2 -12 4.16 0.2
0 -2 -12 10.57 0.36
1 -1 -12 24.5 0.59
0 -1 -12 12.49 0.38
0 0 -12 37.75 1.05
7 0 -11 4.76 0.25
6 0 -11 4.38 0.2
-7 -1 -11 3.55 0.14
-6 -1 -11 7.18 0.3
6 -2 -11 11.66 0.33
-6 -3 -11 2.24 0.13
-5 -3 -11 8.11 0.32
5 -4 -11 4.76 0.21
-5 -5 -11 14.01 0.48
0 -9 -10 1.92 0.14
-4 -8 -10 1.67 0.12
-3 -8 -10 3.99 0.18
-2 -8 -10 3.84 0.16
-1 -8 -10 0.19 2.81
0 -8 -10 2.48 0.15
5 -7 -10 1.55 0.13
4 -7 -10 7.7 0.3
-6 -6 -10 1.99 0.18
10 0 -9 1 0.21
-10 -1 -9 0.71 0.16
10 -2 -9 -0.2 2.74
-9 -3 -9 0.19 2.73
9 -4 -9 0.5 2.73
-9 -5 -9 0.48 1.95
8 -6 -9 1.28 0.14
-7 -7 -9 1.65 0.18
3 -11 -8 1.14 0.14
2 -11 -8 2.81 0.14
1 -11 -8 0.35 2.73
0 -11 -8 4.96 0.25
-5 -10 -8 2.65 0.14
-4 -10 -8 2.6 0.13
7 -9 -8 0.11 2.71
6 -9 -8 3.92 0.15
-8 -8 -8 0.09 3.82
12 0 -7 0.28 3.12
-12 -1 -7 3.61 0.16
12 -2 -7 0.46 2.73
-12 -3 -7 2.85 0.15
11 -4 -7 5.34 0.26
-11 -5 -7 0.46 2.7
10 -6 -7 0.27 1.95
-10 -7 -7 0.23 1.95
9 -8 -7 0.33 1.94
1 -13 -6 0.07 1.92
0 -13 -6 0.04 3.15
-5 -12 -6 0.81 2.72
-4 -12 -6 -0.09 2.74
-3 -12 -6 0.7 0.19
7 -11 -6 0.58 2.65
6 -11 -6 1.6 0.13
-8 -10 -6 0.54 1.93
9 -9 -6 0.63 2.23
13 0 -5 0.94 0.17
-13 -1 -5 0.11 1.95
13 -2 -5 0.23 2.83
-13 -3 -5 0.1 2.73
-13 -4 -5 -0.25 3.22
-12 -5 -5 0.63 2.77
12 -6 -5 0.29 1.95
-11 -7 -5 0.82 0.19
11 -8 -5 0.56 1.9
-10 -9 -5 0.21 2.76
-2 -14 -4 0.43 2.7
-1 -14 -4 0.57 2.78
0 -14 -4 0.77 0.21
5 -13 -4 0.01 2.81
4 -13 -4 3 0.15
-7 -12 -4 1.28 0.12
8 -11 -4 1.6 0.14
-10 -10 -4 1.33 0.18
14 0 -3 -0.07 3.28
-14 -1 -3 0.22 2.76
14 -2 -3 0.89 0.16
-14 -3 -3 0.36 2.73
-13 -5 -3 1.82 0.13
13 -6 -3 0.57 2.71
-12 -7 -3 0.6 0.14
12 -8 -3 0.04 2.71
-11 -9 -3 -0.24 2.74
10 -10 -3 -0.18 3.94
-4 -14 -2 -0.11 2.73
-3 -14 -2 0.24 2.74
-2 -14 -2 -0.12 2.79
6 -13 -2 -0.01 2.74
-8 -12 -2 0.86 0.19
9 -11 -2 0.61 0.2
-10 -10 -2 0.71 3.98
-14 -3 -1 0.03 2.75
14 -4 -1 0.72 0.2
-14 -5 -1 -0.22 1.96
13 -6 -1 0.13 2.75
-13 -7 -1 0.49 0.16
12 -8 -1 0.59 0.16
11 -10 -1 1.09 0.14
-5 -14 0 -0.3 2.76
-4 -14 0 0.72 0.14
-3 -14 0 0.13 2.78
7 -13 0 2.6 0.14
6 -13 0 0.08 2.78
-8 -12 0 4.28 0.18
10 -11 0 0.49 2.77
1 -6 -12 3.15 0.13
0 -6 -12 10.11 0.3
-3 -5 -12 7.05 0.26
-2 -5 -12 4.06 0.15
-1 -5 -12 8.08 0.27
0 -5 -12 0.84 0.16
0 -1 -13 0.05 3.07
0 0 -13 1.78 0.24
4 -2 -12 12.19 0.32
-4 -3 -12 7.28 0.3
4 -4 -12 11.68 0.45
-2 -8 -11 7.79 0.29
-1 -8 -11 2.76 0.13
0 -8 -11 2.89 0.15
4 -7 -11 1.41 0.12
3 -7 -11 16.17 0.34
2 -7 -11 2.2 0.12
-5 -6 -11 2.76 0.13
-4 -6 -11 17.01 0.36
-9 -1 -10 1.98 0.13
9 -2 -10 1.09 0.14
-9 -3 -10 0.87 0.16
9 -4 -10 -0.26 2.65
-8 -5 -10 0.21 2.61
7 -6 -10 -0.33 2.71
-7 -7 -10 2.07 0.17
2 -11 -9 0.35 2.58
1 -11 -9 0.51 2.61
0 -11 -9 -0.15 3.1
-5 -10 -9 0.05 2.57
-4 -10 -9 -0.18 1.93
-3 -10 -9 0.51 2.65
6 -9 -9 0.27 2.64
-7 -8 -9 -0.01 2.65
12 0 -8 0.52 3.04
-12 -1 -8 1.85 0.12
12 -2 -8 0.63 0.15
11 -4 -8 1.5 0.14
-11 -5 -8 -0.24 2.63
10 -6 -8 -0.03 2.66
-10 -7 -8 3.33 0.14
9 -8 -8 3.7 0.17
1 -13 -7 0.28 2.57
0 -13 -7 2 0.15
-5 -12 -7 0.33 2.61
-4 -12 -7 0.33 2.65
7 -11 -7 0.61 2.59
6 -11 -7 0.42 1.9
-8 -10 -7 0.52 0.13
9 -9 -7 0.7 3.77
13 -2 -6 0.54 2.65
-13 -3 -6 0.08 2.65
13 -4 -6 0.48 1.85
12 -6 -6 0.1 2.67
11 -8 -6 0.31 2.59
-10 -9 -6 0.33 1.86
-3 -14 -5 -0.18 2.58
-2 -14 -5 -0.17 2.64
-1 -14 -5 0.22 2.69
0 -14 -5 0 3.08
6 -13 -5 -0.1 2.64
5 -13 -5 0.44 2.61
-7 -12 -5 0.04 1.93
9 -11 -5 0.49 1.86
-10 -10 -5 0.55 3.75
-14 -3 -4 1.08 0.19
14 -4 -4 -0.06 1.87
13 -6 -4 0.83 0.16
-13 -7 -4 0.41 2.64
12 -8 -4 0.95 0.16
-11 -9 -4 1.31 0.16
1 -15 -3 0.3 1.86
0 -15 -3 0.43 3
-5 -14 -3 0.39 2.64
-4 -14 -3 1.09 0.16
7 -13 -3 -0.01 1.88
-9 -12 -3 0.68 0.19
10 -11 -3 0.79 0.19
15 0 -2 -0.44 3.13
-15 -1 -2 0.26 2.63
15 -2 -2 -0.09 2.69
-15 -3 -2 0.14 2.55
-14 -5 -2 -0.04 2.7
14 -6 -2 -0.04 2.64
-13 -7 -2 0.23 1.58
13 -8 -2 0.52 2.58
-12 -9 -2 -0.05 2.74
11 -10 -2 0.56 0.16
3 -15 -1 -0.21 2.7
2 -15 -1 -0.01 2.68
1 -15 -1 0.33 1.9
0 -15 -1 -0.1 3.16
-6 -14 -1 -0.07 1.91
8 -13 -1 0.57 0.16
-9 -12 -1 0.62 0.2
-15 -1 0 0.75 2.75
15 -2 0 0.21 2.7
-15 -3 0 0.6 2.64
15 -4 0 0.07 1.84
14 -6 0 1.66 0.12
13 -8 0 0.14 2.69
-12 -9 0 0.52 2.74
4 0 -13 0.05 2.88
3 0 -13 6.49 0.32
2 0 -13 -0.27 2.99
-4 -1 -13 2.35 0.12
-3 -1 -13 0.46 1.81
-2 -1 -13 2.1 0.12
-1 -1 -13 2.29 0.18
3 -2 -13 0.57 2.45
2 -2 -13 3.82 0.25
-3 -3 -13 0.72 3.45
2 -7 -12 0.26 2.46
1 -7 -12 6.53 0.26
0 -7 -12 3.05 0.21
-4 -6 -12 1.79 0.11
-3 -6 -12 -0.46 2.57
-2 -6 -12 5.46 0.26
5 -5 -12 3.77 0.27
4 -5 -12 1.13 0.11
9 0 -11 0.95 0.13
-9 -1 -11 4.57 0.2
9 -2 -11 1.35 0.11
-8 -3 -11 1.43 0.12
8 -4 -11 4.82 0.21
-7 -5 -11 4.75 0.22
7 -6 -11 1.93 0.11
6 -6 -11 3.71 0.28
-4 -10 -10 0.99 0.16
-3 -10 -10 -0.06 3.56
-2 -10 -10 0.44 3.7
-1 -10 -10 1.76 0.17
0 -10 -10 0.93 5.1
6 -9 -10 0.23 1.96
5 -9 -10 1.89 0.16
-7 -8 -10 -0.49 4.99
-6 -8 -10 2.42 0.18
-4 0 -7 1.57 0.13
-3 0 -7 4.96 0.23
-2 0 -7 2.68 0.13
-1 0 -7 428.85 3.37
0 0 -7 2.64 0.26
3 -1 -7 15.23 0.31
2 -1 -7 107.02 0.86
1 -1 -7 56.5 0.74
-3 -2 -7 159.96 1.29
-2 -2 -7 100.04 1.17
-1 -4 -7 33.74 0.35
-3 -5 -6 5.66 0.23
-2 -5 -6 61.33 0.59
-1 -5 -6 7.59 0.28
0 -5 -6 19.7 0.39
4 -4 -6 25.58 0.54
3 -4 -6 11.39 0.29
2 -4 -6 11.23 0.29
1 -4 -6 56.99 0.52
0 -4 -6 77.23 0.73
-3 -3 -6 55.34 0.72
-2 -3 -6 30.17 0.36
-1 -3 -6 51.87 0.46
0 -3 -6 107.88 0.88
2 -2 -6 27.38 0.48
1 -2 -6 138.03 0.89
-7 0 -5 62.33 0.71
-6 0 -5 43.5 0.53
-5 0 -5 18.69 0.35
7 -1 -5 20.45 0.34
6 -1 -5 63.96 0.58
5 -1 -5 33.67 0.37
-6 -2 -5 15.38 0.31
-5 -2 -5 90.91 0.7
6 -3 -5 3.24 0.14
5 -3 -5 24.01 0.34
4 -3 -5 131.49 0.91
-5 -4 -5 25.76 0.37
-4 -4 -5 55.31 0.72
5 -5 -5 16.56 0.47
-3 -7 -4 18.22 0.34
-2 -7 -4 82.6 0.71
-1 -7 -4 45.64 0.47
0 -7 -4 1.79 0.13
5 -6 -4 92.46 0.83
4 -6 -4 34.14 0.42
3 -6 -4 150.74 1.1
2 -6 -4 75.1 0.61
1 -6 -4 28.93 0.35
0 -6 -4 77.02 0.68
-5 -5 -4 69.01 0.87
-4 -5 -4 83.81 0.67
-3 -5 -4 84.4 0.62
-8 0 -3 7.89 0.32
-7 0 -3 52.18 0.54
8 -1 -3 31.48 0.4
7 -1 -3 6.02 0.24
-8 -2 -3 50.96 0.53
-7 -2 -3 26.99 0.35
8 -3 -3 18.23 0.34
7 -3 -3 138.99 1.05
6 -3 -3 28.5 0.35
-7 -4 -3 16.81 0.33
-6 -4 -3 146.66 1.04
6 -5 -3 40.07 0.45
5 -5 -3 101.81 1.08
-6 -6 -3 17.5 0.49
4 -8 -2 0.31 2.55
3 -8 -2 8.64 0.29
2 -8 -2 15.46 0.31
1 -8 -2 6.18 0.22
0 -8 -2 8.09 0.3
-5 -7 -2 0.98 0.25
-4 -7 -2 18.01 0.33
-3 -7 -2 14.39 0.3
-2 -7 -2 1.64 0.11
6 -6 -2 4.28 0.25
5 -6 -2 15.54 0.31
4 -6 -2 26.05 0.34
-9 0 -1 -0.16 3
-8 0 -1 22.57 0.38
9 -1 -1 35.97 0.44
8 -1 -1 9.57 0.28
-9 -2 -1 2.3 0.12
-8 -2 -1 65.02 0.58
8 -3 -1 3.83 0.14
7 -3 -1 106.25 0.76
-8 -4 -1 29.01 0.4
-7 -4 -1 13.41 0.29
7 -5 -1 31.56 0.41
6 -5 -1 8.52 0.27
-7 -6 -1 21.88 0.37
-6 -6 -1 27.03 0.54
-2 -9 0 13.84 0.31
-1 -9 0 35.63 0.43
4 -8 0 41.21 0.47
3 -8 0 11.19 0.3
2 -8 0 46.36 0.47
1 -8 0 14.9 0.3
0 -8 0 170.54 1.35
-6 -7 0 5.14 0.21
-5 -7 0 57.77 0.56
-4 -7 0 9.94 0.28
-3 -7 0 13.68 0.29
6 -6 0 84.35 1.03
5 -6 0 41.33 0.43
-2 -4 -8 18.46 0.36
-1 -4 -8 100.31 0.99
0 -4 -8 11.1 0.37
3 -3 -8 55.81 0.89
2 -3 -8 69.91 0.72
1 -3 -8 4.7 0.18
0 -3 -8 154.41 1.6
-2 -2 -8 18.28 0.49
-1 -2 -8 148.04 1.3
0 -2 -8 0.45 2.01
1 -1 -8 44.56 0.71
0 -1 -8 60.89 0.71
0 0 -8 146.13 2.51
6 0 -7 0.32 3.23
5 0 -7 63.06 0.75
-6 -1 -7 108.18 1.05
-5 -1 -7 30.09 0.42
6 -2 -7 12.88 0.33
5 -2 -7 101.54 0.96
4 -2 -7 16.8 0.33
-6 -3 -7 17.72 0.33
-5 -3 -7 7.98 0.29
-4 -3 -7 238.9 2.02
-3 -3 -7 1.52 0.22
5 -4 -7 50.54 0.6
4 -4 -7 1.16 0.23
3 -7 -6 13.48 0.34
2 -7 -6 9.46 0.31
1 -7 -6 10.12 0.3
0 -7 -6 0.47 3.08
-5 -6 -6 20.78 0.38
-4 -6 -6 12.95 0.33
-3 -6 -6 17.47 0.35
-2 -6 -6 3.08 0.14
-1 -6 -6 19.02 0.34
0 -6 -6 19.4 0.4
5 -5 -6 8.1 0.4
4 -5 -6 15.7 0.33
8 0 -5 8.95 0.34
-8 -1 -5 19.58 0.35
8 -2 -5 5.6 0.23
7 -2 -5 8.58 0.29
-8 -3 -5 5.16 0.21
-7 -3 -5 6.44 0.27
7 -4 -5 3.41 0.13
6 -4 -5 8.64 0.3
-7 -5 -5 0.76 0.19
-6 -5 -5 15.23 0.33
6 -6 -5 2.84 0.18
3 -9 -4 10.47 0.33
2 -9 -4 31.01 0.44
1 -9 -4 16.53 0.35
0 -9 -4 38.49 0.56
-5 -8 -4 7.81 0.29
-4 -8 -4 11.16 0.32
-3 -8 -4 69.73 0.71
-2 -8 -4 30.37 0.41
-1 -8 -4 28.9 0.4
0 -8 -4 27.14 0.45
6 -7 -4 3.55 0.13
5 -7 -4 14.17 0.33
4 -7 -4 114.82 1.02
-6 -6 -4 19.26 0.51
10 0 -3 31.04 0.52
9 0 -3 10.1 0.36
-10 -1 -3 6.08 0.23
-9 -1 -3 31.01 0.42
9 -2 -3 18.94 0.35
-9 -3 -3 11.33 0.32
9 -4 -3 13.87 0.34
8 -4 -3 29.27 0.42
-8 -5 -3 21.89 0.39
-7 -5 -3 28.3 0.41
8 -6 -3 0.17 2.8
7 -6 -3 21.31 0.38
-7 -7 -3 0.02 3.87
-2 -10 -2 0.85 0.28
-1 -10 -2 2.03 0.13
0 -10 -2 0.51 3.15
5 -9 -2 9.71 0.31
4 -9 -2 4.79 0.18
3 -9 -2 1.91 0.12
2 -9 -2 4.11 0.15
1 -9 -2 6.35 0.23
0 -9 -2 0.92 0.16
-6 -8 -2 11.85 0.34
-5 -8 -2 7.14 0.26
7 -7 -2 13.73 0.48
6 -7 -2 10.92 0.31
10 0 -1 22.43 0.44
-10 -1 -1 0.18 2.71
10 -2 -1 10.56 0.32
-10 -3 -1 8.66 0.31
-9 -3 -1 16.18 0.34
9 -4 -1 10.6 0.32
-9 -5 -1 13.47 0.34
-8 -5 -1 13.37 0.32
8 -6 -1 14.89 0.35
-8 -7 -1 5.54 0.25
-7 -7 -1 12.83 0.46
-3 -10 0 0.67 0.2
-2 -10 0 33.43 0.46
-1 -10 0 0.99 0.14
0 -10 0 9.21 0.36
5 -9 0 62.35 0.7
4 -9 0 4.14 0.19
3 -9 0 52.25 0.57
-7 -8 0 1.43 0.16
-6 -8 0 83.43 0.85
-5 -8 0 9.78 0.31
2 -4 -9 3.87 0.16
1 -4 -9 18.52 0.37
0 -4 -9 21.16 0.45
-3 -3 -9 9.84 0.46
-2 -3 -9 6.78 0.29
-1 -3 -9 14.75 0.34
0 -3 -9 42.27 0.63
2 -2 -9 16.53 0.51
1 -2 -9 32.81 0.46
0 -2 -9 3.59 0.19
-1 -1 -9 13.01 0.46
0 -1 -9 -0.15 3.14
0 0 -9 36.23 0.96
-6 0 -8 23.34 0.47
-5 0 -8 59.18 0.78
6 -1 -8 32.8 0.48
5 -1 -8 8.28 0.31
-6 -2 -8 6 0.24
-5 -2 -8 65.65 0.73
6 -3 -8 43.03 0.57
5 -3 -8 10.58 0.33
4 -3 -8 30.16 0.44
-5 -4 -8 35.89 0.5
-4 -4 -8 29.53 0.62
2 -8 -7 8.22 0.31
1 -8 -7 34.99 0.5
0 -8 -7 0.62 3.23
-4 -7 -7 4.46 0.2
-3 -7 -7 3.14 0.14
-2 -7 -7 25.72 0.41
-1 -7 -7 0.78 0.2
0 -7 -7 118.72 1.38
5 -6 -7 12.7 0.34
4 -6 -7 9.1 0.31
-5 -5 -7 24.16 0.57
-9 0 -6 4.42 0.21
-8 0 -6 5.01 0.23
9 -1 -6 0.52 2.01
8 -1 -6 7.76 0.31
-9 -2 -6 8.2 0.31
-8 -2 -6 2.56 0.13
8 -3 -6 10.93 0.32
-8 -4 -6 0.85 0.27
-7 -4 -6 14.59 0.34
7 -5 -6 0.09 1.94
-7 -6 -6 3.2 0.15
-6 -6 -6 0.37 2.28
1 -10 -5 1.27 0.13
0 -10 -5 0.66 3.27
-4 -9 -5 10.32 0.33
-3 -9 -5 1.15 0.13
-2 -9 -5 7.8 0.31
-1 -9 -5 2.56 0.13
0 -9 -5 3.45 0.17
6 -8 -5 10.14 0.32
5 -8 -5 13.32 0.34
4 -8 -5 0.21 2.76
-7 -7 -5 11 0.48
-6 -7 -5 18.52 0.38
-10 0 -4 4.64 0.22
10 -1 -4 26.87 0.43
-10 -2 -4 7.6 0.29
10 -3 -4 3.09 0.13
-10 -4 -4 10.03 0.32
-9 -4 -4 5.36 0.22
9 -5 -4 15.81 0.37
-8 -6 -4 19.63 0.39
8 -7 -4 3.47 0.16
7 -7 -4 19.17 0.56
-2 -11 -3 5.03 0.22
-1 -11 -3 9.54 0.32
0 -11 -3 3.23 0.16
5 -10 -3 4.77 0.2
4 -10 -3 0.25 2.79
3 -10 -3 8.44 0.3
2 -10 -3 8.44 0.3
-6 -9 -3 7.59 0.29
-5 -9 -3 0.64 0.2
7 -8 -3 7.76 0.31
-11 0 -2 0.81 0.17
11 -1 -2 0.27 1.97
-11 -2 -2 0.3 2.02
11 -3 -2 2.27 0.13
10 -3 -2 3.19 0.13
-10 -4 -2 4.97 0.19
10 -5 -2 0.98 0.2
-9 -6 -2 1.49 0.13
9 -7 -2 0.54 2.02
8 -7 -2 2.15 0.13
-8 -8 -2 1.55 0.18
-4 -11 -1 2.28 0.13
-3 -11 -1 4.32 0.17
-2 -11 -1 2.41 0.13
-1 -11 -1 9.13 0.32
0 -11 -1 -0.05 3.24
6 -10 -1 6.97 0.28
5 -10 -1 3.39 0.14
4 -10 -1 6.05 0.24
-7 -9 -1 8.95 0.32
-6 -9 -1 4.14 0.18
8 -8 -1 8.57 0.42
11 -1 0 13.13 0.33
-11 -2 0 1.17 0.16
11 -3 0 27.65 0.45
-11 -4 0 0.24 2.79
-10 -4 0 50.44 0.7
10 -5 0 0.59 0.16
-10 -6 0 5.84 0.23
-9 -6 0 1.75 0.14
9 -7 0 8.03 0.29
-8 -8 0 8.79 0.46
-4 0 -10 4.19 0.23
-3 0 -10 47.94 0.72
-2 0 -10 10.65 0.38
-1 0 -10 1.86 0.15
0 0 -10 28.76 0.9
4 -1 -10 17.97 0.38
3 -1 -10 10.67 0.32
2 -1 -10 11.92 0.33
1 -1 -10 32.29 0.67
-4 -2 -10 14.21 0.35
-3 -2 -10 1.19 0.17
-2 -2 -10 36.33 0.73
3 -3 -10 14.91 0.49
3 -6 -9 5.92 0.23
2 -6 -9 2.51 0.13
1 -6 -9 3.74 0.16
0 -6 -9 2.65 0.15
-4 -5 -9 4.56 0.16
-3 -5 -9 1.79 0.13
-2 -5 -9 13.49 0.34
-1 -5 -9 5.89 0.22
0 -5 -9 5.43 0.29
4 -4 -9 4.5 0.22
3 -4 -9 2.08 0.13
-8 0 -8 6.57 0.32
-7 0 -8 12.25 0.38
8 -1 -8 16.43 0.37
7 -1 -8 12.3 0.34
-8 -2 -8 1.19 0.14
-7 -2 -8 29.16 0.45
7 -3 -8 1.82 0.13
-7 -4 -8 30.22 0.48
-6 -4 -8 1.58 0.13
6 -5 -8 31.13 0.48
5 -5 -8 2.5 0.19
-3 -9 -7 0.26 2.01
-2 -9 -7 11.75 0.34
-1 -9 -7 3.22 0.15
0 -9 -7 11.43 0.38
5 -8 -7 23.41 0.42
4 -8 -7 0.32 1.6
3 -8 -7 8.01 0.31
-6 -7 -7 35.22 0.52
-5 -7 -7 0.08 2.83
6 -6 -7 1.6 0.18
-10 0 -6 1.84 0.15
10 -1 -6 3.3 0.13
-10 -2 -6 0.12 2.81
10 -3 -6 1.06 0.2
9 -3 -6 0.36 1.98
-9 -4 -6 2.86 0.13
9 -5 -6 3.77 0.15
8 -5 -6 5.9 0.26
-8 -6 -6 5.84 0.25
7 -7 -6 8.71 0.46
0 0 -2 1335.96 8.19
-1 -1 0 9990.67 18.99
