#------------------------------------------------------------------------------
#$Date: 2020-04-10 08:04:06 +0300 (Fri, 10 Apr 2020) $
#$Revision: 250586 $
#$URL: file:///home/coder/svn-repositories/cod/cif/2/02/20/2022007.cif $
#------------------------------------------------------------------------------
#
# This file is available in the Crystallography Open Database (COD),
# http://www.crystallography.net/. The original data for this entry
# were provided by IUCr Journals, http://journals.iucr.org/.
#
# The file may be used within the scientific community so long as
# proper attribution is given to the journal article from which the
# data were obtained.
#
data_2022007
loop_
_publ_author_name
'Jha, Kunal Kumar'
'Gruza, Barbara'
'Kumar, Prashant'
'Chodkiewicz, Michal Leszek'
'Dominiak, Paulina Maria'
_publ_section_title
;
 TAAM: a reliable and user friendly tool for hydrogen-atom location using
 routine X-ray diffraction data
;
_journal_issue                   3
_journal_name_full
'Acta Crystallographica Section B Structural Science, Crystal Engineering and Materials'
_journal_paper_doi               10.1107/S2052520620002917
_journal_volume                  76
_journal_year                    2020
_chemical_formula_moiety         'C H O2, H2 O'
_chemical_formula_sum            'C H3 O3'
_chemical_formula_weight         63.03
_space_group_crystal_system      monoclinic
_space_group_IT_number           14
_space_group_name_Hall           '-P 2ybc'
_space_group_name_H-M_alt        'P 1 21/c 1'
_symmetry_Int_Tables_number      14
_audit_creation_date             2019-09-27
_audit_creation_method
;
Olex2 1.2
(compiled 2018.05.29 svn.r3508 for OlexSys, GUI svn.r5506)
;
_cell_angle_alpha                90.00
_cell_angle_beta                 103.898(2)
_cell_angle_gamma                90.00
_cell_formula_units_Z            4
_cell_length_a                   6.0920(3)
_cell_length_b                   3.4919(2)
_cell_length_c                   11.8481(5)
_cell_measurement_temperature    100(1)
_cell_volume                     244.66(2)
_computing_molecular_graphics    'Olex2 (Dolomanov et al., 2009)'
_computing_publication_material  'Olex2 (Dolomanov et al., 2009)'
_computing_structure_refinement  'olex2.refine (Bourhis et al., 2015)'
_diffrn_ambient_temperature      100(1)
_diffrn_measured_fraction_theta_full 0.9844
_diffrn_measured_fraction_theta_max 0.9844
_diffrn_measurement_device_type  'APEX II CCD detector'
_diffrn_radiation_type           'Mo K\a'
_diffrn_radiation_wavelength     0.71073
_diffrn_reflns_av_R_equivalents  0.0000
_diffrn_reflns_av_unetI/netI     0.0230
_diffrn_reflns_limit_h_max       12
_diffrn_reflns_limit_h_min       -12
_diffrn_reflns_limit_k_max       7
_diffrn_reflns_limit_k_min       0
_diffrn_reflns_limit_l_max       24
_diffrn_reflns_limit_l_min       0
_diffrn_reflns_number            2125
_diffrn_reflns_theta_full        26.4969
_diffrn_reflns_theta_max         26.50
_diffrn_reflns_theta_min         3.45
_exptl_absorpt_coefficient_mu    0.181
_exptl_crystal_density_diffrn    1.7111
_exptl_crystal_F_000             132.1419
_refine_diff_density_max         0.1203
_refine_diff_density_min         -0.1176
_refine_diff_density_rms         0.0332
_refine_ls_d_res_high            0.7965
_refine_ls_d_res_low             5.9137
_refine_ls_goodness_of_fit_ref   1.1687
_refine_ls_hydrogen_treatment    refall
_refine_ls_matrix_type           full
_refine_ls_number_constraints    0
_refine_ls_number_parameters     64
_refine_ls_number_reflns         506
_refine_ls_number_restraints     0
_refine_ls_restrained_S_all      1.1687
_refine_ls_R_factor_all          0.0132
_refine_ls_R_factor_gt           0.0132
_refine_ls_shift/su_max          0.0001
_refine_ls_shift/su_mean         0.0000
_refine_ls_structure_factor_coef Fsqd
_refine_ls_weighting_details
'w=1/[\s^2^(Fo^2^)+(0.0147P)^2^+0.0121P] where P=(Fo^2^+2Fc^2^)/3'
_refine_ls_weighting_scheme      calc
_refine_ls_wR_factor_gt          0.0390
_refine_ls_wR_factor_ref         0.0390
_reflns_Friedel_coverage         0.0
_reflns_limit_h_max              7
_reflns_limit_h_min              -7
_reflns_limit_k_max              4
_reflns_limit_k_min              0
_reflns_limit_l_max              14
_reflns_limit_l_min              0
_reflns_number_gt                506
_reflns_number_total             506
_reflns_threshold_expression     I>=2u(I)
_iucr_refine_instructions_details
;
TITL oxa11
CELL 0.71073 6.092 3.4919 11.8481 90 103.898 90
ZERR 4 0 0 0 0 0 0
LATT 1
SYMM -X,0.5+Y,0.5-Z
SFAC C H O
UNIT 4 12 12

FREE O3 H1
ACTA 
BOND $H
OMIT -10 53
WGHT 0.014651 0.012068
FVAR 1.017481
REM <olex2.extras>
REM <HklSrc "%.\\1886551da2e8b2a3a81825630a2d2e7e.hkl">
REM </olex2.extras>

O1    3     0.43465  0.44436  0.34989  11.00000  0.01281  0.01734  0.00934 =
 -0.00074  0.00277  0.00387 
O2    3     0.24274  0.74236  0.46367  11.00000  0.01115  0.01771  0.00860 =
 -0.00069  0.00092  0.00502 
C1    1     0.40300  0.55874  0.44790  11.00000  0.00892  0.01150  0.00860 =
 0.00035  0.00066  0.00154 
O3    3     0.12986  0.63109  0.17819  11.00000  0.01040  0.01714  0.00956 =
 0.00120  0.00044 -0.00065 
H3a   2     0.01087  0.46016  0.14990  11.00000  0.02486  0.01839  0.02964 =
 0.00233  0.00765 -0.01249 
H3b   2     0.18825  0.69146  0.11357  11.00000  0.01666  0.03273  0.01803 =
 0.00402  0.01360 -0.00080 
H1    2     0.29939  0.52111  0.28004  11.00000  0.03466  0.03430  0.04165 =
 -0.00857  0.02055 -0.00687 
HKLF 4

END
Q1 1 0.25 0.75 0.075 11 0.05 0.12
Q2 1 0.55 0.416667 0.425 11 0.05 0.09
Q3 1 0.2 0.666667 0.275 11 0.05 0.08
Q4 1 0.05 0.666667 0.075 11 0.05 0.07
Q5 1 -0.05 0.25 0.175 11 0.05 0.06
Q6 1 0.5 0.75 0.3 11 0.05 0.06
Q7 1 0.35 0 0.3 11 0.05 0.04
Q8 1 0 0.583333 0.175 11 0.05 0.01
Q9 1 0.5 0.5 0.5 11 0.05 -0

  REM The information below was added by Olex2.
  REM
  REM R1 = 0.0132 for 506 Fo > 4sig(Fo) and 0.0132 for all 506 data
  REM 64 parameters refined using 0 restraints
  REM Highest difference peak 0.1203, deepest hole -0.1176
  REM Mean Shift 0.0000, Max Shift 0.0001.

  REM +++ Tabular Listing of Refinement Information +++
  REM R1_all = 0.0132
  REM R1_gt = 0.0132
  REM wR_ref = 0.0390
  REM GOOF = 1.1687
  REM Shift_max = 0.0001
  REM Shift_mean = 0.0000
  REM Reflections_all = 506
  REM Reflections_gt = 506
  REM Parameters = 64
  REM Hole = -0.1176
  REM Peak = 0.1203
  REM Flack = n/a

  
;
_cod_data_source_file            64_TAAM_ANIS_0.8.cif
_cod_data_source_block           64_TAAM_ANIS_0.8
_cod_database_code               2022007
_olex2_refinement_description
;
;
_iucr_refine_fcf_details
;
data_oxa11
_computing_structure_refinement   'olex2.refine (Bourhis et al., 2015)'
_shelx_refln_list_code            4
loop_
  _space_group_symop_id
  _space_group_symop_operation_xyz
  1  x,y,z
  2  -x,y+1/2,-z+1/2
  3  -x,-y,-z
  4  x,-y-1/2,z-1/2

_space_group_crystal_system       monoclinic
_space_group_IT_number            14
_space_group_name_H-M_alt         'P 1 21/c 1'
_space_group_name_Hall            '-P 2ybc'
_symmetry_space_group_name_H-M    'P 1 21/c 1'
_symmetry_space_group_name_Hall   '-P 2ybc'
_symmetry_Int_Tables_number       14
_cell_length_a                    6.092
_cell_length_b                    3.4919
_cell_length_c                    11.8481
_cell_angle_alpha                 90
_cell_angle_beta                  103.898
_cell_angle_gamma                 90
_cell_volume                      244.662021
loop_
  _refln_index_h
  _refln_index_k
  _refln_index_l
  _refln_F_squared_calc
  _refln_F_squared_meas
  _refln_F_squared_sigma
  _refln_F_squared_weight
  _refln_observed_status
-7 0 2 14.176 14.392 0.319 6.532 o
-7 0 4 41.170 39.980 0.869 1.291 o
-7 0 6 254.298 251.085 5.602 0.043 o
-7 0 8 0.269 0.241 0.019 587.391 o
-7 1 1 18.449 18.189 0.406 4.517 o
-7 1 2 86.494 87.234 1.932 0.324 o
-7 1 3 3.493 3.680 0.087 38.953 o
-7 1 4 0.359 0.396 0.019 423.783 o
-7 1 5 2.227 2.202 0.058 66.400 o
-7 1 6 18.927 19.106 0.425 4.252 o
-7 1 7 52.916 52.334 1.159 0.804 o
-6 0 2 178.263 179.577 3.989 0.083 o
-6 0 4 3.221 2.869 0.068 46.973 o
-6 0 6 163.499 163.253 3.642 0.099 o
-6 0 8 1.076 1.063 0.039 141.187 o
-6 0 10 291.397 291.847 6.510 0.032 o
-6 1 1 1.185 1.391 0.039 122.152 o
-6 1 2 6.477 6.704 0.155 18.466 o
-6 1 3 1.143 1.256 0.039 129.120 o
-6 1 4 32.882 31.789 0.705 1.855 o
-6 1 5 95.095 95.367 2.115 0.274 o
-6 1 6 151.448 152.782 3.400 0.113 o
-6 1 7 2.676 2.811 0.068 53.115 o
-6 1 8 2.826 3.033 0.068 50.142 o
-6 1 9 43.281 44.530 0.985 1.086 o
-6 1 10 49.867 51.108 1.130 0.854 o
-6 1 11 3.777 4.105 0.097 34.828 o
-6 2 1 71.151 70.581 1.565 0.472 o
-6 2 2 39.389 39.999 0.889 1.291 o
-6 2 3 60.890 61.008 1.352 0.616 o
-6 2 4 5.451 5.467 0.126 23.536 o
-6 2 5 4.404 4.366 0.106 30.275 o
-6 2 6 1.193 1.101 0.029 136.665 o
-6 2 7 0.272 0.232 0.010 640.899 o
-6 2 8 13.010 13.388 0.299 7.262 o
-5 0 2 90.175 91.039 1.990 0.304 o
-5 0 4 17.612 18.063 0.396 4.719 o
-5 0 6 115.739 116.559 2.569 0.190 o
-5 0 8 277.364 281.966 6.298 0.035 o
-5 0 10 98.380 102.640 2.260 0.245 o
-5 0 12 43.679 44.163 0.976 1.094 o
-5 1 1 55.547 55.841 1.236 0.723 o
-5 1 2 250.086 250.080 5.593 0.043 o
-5 1 3 48.665 51.050 1.130 0.863 o
-5 1 4 92.067 93.782 2.077 0.285 o
-5 1 5 30.746 30.620 0.676 2.011 o
-5 1 6 3.880 3.960 0.087 35.726 o
-5 1 7 1.002 0.956 0.029 159.823 o
-5 1 8 16.707 17.223 0.386 5.002 o
-5 1 9 263.306 265.941 5.950 0.039 o
-5 1 10 26.640 26.119 0.589 2.536 o
-5 1 11 0.188 0.174 0.010 896.097 o
-5 1 12 25.643 25.047 0.560 2.726 o
-5 2 1 9.573 9.370 0.213 11.556 o
-5 2 2 0.547 0.618 0.019 282.630 o
-5 2 3 4.387 4.308 0.097 31.366 o
-5 2 4 29.147 28.138 0.628 2.251 o
-5 2 5 173.979 174.911 3.902 0.087 o
-5 2 6 81.064 81.322 1.826 0.362 o
-5 2 7 21.874 21.733 0.483 3.459 o
-5 2 8 1.723 1.951 0.048 83.724 o
-5 2 9 0.177 0.155 0.010 965.155 o
-5 2 11 41.435 40.299 0.898 1.245 o
-5 3 1 20.162 19.840 0.444 3.940 o
-5 3 2 0.055 0.077 0.010 2446.590 o
-5 3 3 6.016 6.105 0.135 20.905 o
-5 3 4 11.679 11.379 0.261 8.758 o
-5 3 5 3.912 3.719 0.087 36.236 o
-5 3 6 4.837 4.675 0.106 28.021 o
-5 3 7 16.064 16.121 0.357 5.489 o
-4 0 2 956.996 917.348 20.140 0.003 o
-4 0 4 118.168 122.036 2.695 0.176 o
-4 0 6 44.763 45.341 0.995 1.054 o
-4 0 8 568.684 560.628 12.412 0.009 o
-4 0 10 1.641 1.710 0.048 90.031 o
-4 0 12 249.338 237.291 5.313 0.047 o
-4 0 14 1.695 1.864 0.058 82.337 o
-4 1 1 90.946 91.174 2.019 0.298 o
-4 1 2 57.141 56.671 1.256 0.699 o
-4 1 3 1.770 1.574 0.039 91.287 o
-4 1 4 32.022 33.711 0.744 1.764 o
-4 1 5 0.036 0.039 0.010 3864.600 o
-4 1 6 178.367 177.056 3.951 0.084 o
-4 1 7 85.187 88.267 1.961 0.320 o
-4 1 8 173.842 173.984 3.883 0.088 o
-4 1 9 45.325 46.123 1.034 1.003 o
-4 1 10 0.059 0.039 0.010 2854.950 o
-4 1 11 1.665 1.787 0.048 87.976 o
-4 1 12 81.241 82.027 1.826 0.361 o
-4 1 13 15.618 15.252 0.348 5.762 o
-4 2 1 53.112 53.204 1.178 0.786 o
-4 2 2 13.097 12.857 0.290 7.466 o
-4 2 3 79.270 78.859 1.748 0.387 o
-4 2 4 61.883 62.274 1.381 0.595 o
-4 2 5 5.816 5.940 0.135 21.501 o
-4 2 6 5.503 5.757 0.135 22.413 o
-4 2 7 6.521 6.964 0.155 18.185 o
-4 2 8 80.692 82.897 1.845 0.357 o
-4 2 9 13.546 13.774 0.309 6.910 o
-4 2 10 30.759 30.736 0.686 1.983 o
-4 2 11 7.535 7.602 0.174 15.494 o
-4 2 12 0.744 0.860 0.029 198.849 o
-4 3 1 5.037 5.052 0.116 25.978 o
-4 3 2 13.820 13.726 0.309 6.842 o
-4 3 3 23.075 23.144 0.512 3.161 o
-4 3 4 242.417 240.208 5.371 0.047 o
-4 3 5 28.186 28.427 0.628 2.284 o
-4 3 6 8.297 8.143 0.184 14.016 o
-4 3 7 4.835 5.284 0.126 25.494 o
-4 3 8 0.283 0.280 0.010 589.418 o
-4 3 9 37.992 37.266 0.831 1.427 o
-3 0 2 15.100 15.107 0.367 5.661 o
-3 0 4 89.891 90.856 2.115 0.283 o
-3 0 6 12.411 13.996 0.386 6.068 o
-3 0 8 21.780 22.072 0.502 3.346 o
-3 0 10 3.907 4.182 0.097 33.944 o
-3 0 12 145.683 145.151 3.188 0.126 o
-3 0 14 19.217 17.590 0.386 4.608 o
-3 1 1 326.305 319.415 7.177 0.027 o
-3 1 2 32.109 33.586 0.763 1.721 o
-3 1 3 156.581 162.808 3.632 0.101 o
-3 1 4 227.369 231.815 5.168 0.051 o
-3 1 5 206.273 210.516 4.820 0.059 o
-3 1 6 0.350 0.299 0.019 468.764 o
-3 1 7 340.493 342.327 7.698 0.023 o
-3 1 8 9.133 8.239 0.184 13.188 o
-3 1 9 62.087 61.366 1.352 0.610 o
-3 1 10 3.407 3.574 0.087 39.901 o
-3 1 11 161.554 158.635 3.545 0.103 o
-3 1 12 56.058 53.426 1.188 0.758 o
-3 1 13 0.708 0.831 0.029 207.145 o
-3 1 14 0.435 0.319 0.019 399.282 o
-3 2 1 82.944 84.017 1.864 0.347 o
-3 2 2 176.994 177.742 3.970 0.084 o
-3 2 3 296.218 297.073 6.626 0.031 o
-3 2 4 27.762 27.133 0.599 2.425 o
-3 2 5 2.655 2.550 0.058 56.830 o
-3 2 6 136.609 136.380 3.033 0.140 o
-3 2 7 165.432 166.344 3.709 0.096 o
-3 2 8 287.606 283.521 6.327 0.034 o
-3 2 9 51.415 52.257 1.159 0.815 o
-3 2 10 10.717 11.156 0.251 9.437 o
-3 2 11 22.163 23.163 0.512 3.225 o
-3 2 12 2.236 2.115 0.048 69.356 o
-3 3 1 3.938 3.912 0.087 35.535 o
-3 3 2 253.370 249.993 5.583 0.043 o
-3 3 3 3.866 6.018 0.164 23.869 o
-3 3 4 46.100 45.650 1.014 1.017 o
-3 3 5 21.612 21.714 0.483 3.481 o
-3 3 6 0.095 0.290 0.019 897.731 o
-3 3 7 4.022 4.038 0.097 33.729 o
-3 3 8 17.428 17.928 0.396 4.755 o
-3 3 9 4.563 5.458 0.126 26.054 o
-3 3 10 19.635 20.294 0.454 3.906 o
-3 4 1 21.079 20.874 0.464 3.677 o
-3 4 2 11.356 10.780 0.241 9.424 o
-3 4 3 60.016 58.497 1.294 0.657 o
-2 0 2 643.236 606.095 14.354 0.007 o
-2 0 6 169.608 172.603 3.999 0.085 o
-2 0 8 456.271 441.567 10.403 0.013 o
-2 0 10 189.060 184.542 4.182 0.076 o
-2 0 12 16.094 16.469 0.367 5.354 o
-2 0 14 58.295 55.744 1.207 0.724 o
-2 1 1 180.790 190.009 4.269 0.075 o
-2 1 2 552.832 551.616 12.219 0.009 o
-2 1 3 21.302 20.574 0.473 3.613 o
-2 1 4 357.680 360.332 8.046 0.021 o
-2 1 5 20.639 21.511 0.493 3.515 o
-2 1 6 5.888 5.535 0.145 21.185 o
-2 1 7 35.618 33.769 0.763 1.634 o
-2 1 8 286.976 283.733 6.337 0.034 o
-2 1 9 22.443 22.545 0.502 3.278 o
-2 1 10 32.293 32.417 0.734 1.796 o
-2 1 11 82.846 83.099 1.864 0.348 o
-2 1 12 8.903 9.466 0.213 12.001 o
-2 1 13 32.927 31.721 0.715 1.832 o
-2 1 14 19.038 18.546 0.425 4.272 o
-2 2 1 149.933 150.589 3.400 0.114 o
-2 2 2 473.260 476.775 10.577 0.012 o
-2 2 3 9.212 9.563 0.222 11.468 o
-2 2 4 23.034 22.622 0.502 3.231 o
-2 2 5 3.081 3.275 0.077 44.974 o
-2 2 6 69.892 71.566 1.584 0.468 o
-2 2 7 34.183 33.779 0.753 1.688 o
-2 2 8 29.229 28.485 0.638 2.212 o
-2 2 9 16.841 16.827 0.377 5.103 o
-2 2 10 89.376 89.928 1.999 0.305 o
-2 2 11 14.262 13.427 0.299 6.896 o
-2 2 12 111.648 108.841 2.415 0.211 o
-2 2 13 29.414 30.765 0.686 2.026 o
-2 3 1 141.962 143.074 3.188 0.128 o
-2 3 2 67.183 67.722 1.497 0.514 o
-2 3 3 1.596 1.439 0.039 100.404 o
-2 3 4 9.303 9.186 0.203 12.088 o
-2 3 5 6.909 6.713 0.155 17.776 o
-2 3 6 365.566 363.510 8.124 0.021 o
-2 3 7 80.810 81.902 1.816 0.364 o
-2 3 8 26.293 25.848 0.580 2.595 o
-2 3 9 7.978 8.104 0.184 14.357 o
-2 3 10 21.605 22.526 0.502 3.342 o
-2 4 1 16.506 16.527 0.367 5.277 o
-2 4 2 62.051 61.240 1.352 0.610 o
-2 4 3 34.058 33.093 0.734 1.740 o
-2 4 4 0.408 0.464 0.019 372.672 o
-2 4 5 35.404 34.803 0.773 1.608 o
-1 0 2 770.448 726.846 13.736 0.006 o
-1 0 4 880.142 781.508 36.087 0.001 o
-1 0 6 210.495 204.807 4.550 0.064 o
-1 0 8 497.845 488.144 11.282 0.011 o
-1 0 10 3.136 3.052 0.077 45.468 o
-1 0 12 110.744 111.044 2.540 0.199 o
-1 0 14 48.248 48.567 1.063 0.935 o
-1 1 2 141.097 158.471 3.506 0.111 o
-1 1 3 336.453 341.245 7.515 0.024 o
-1 1 4 239.691 253.751 6.356 0.037 o
-1 1 5 1.272 1.072 0.039 126.690 o
-1 1 6 0.409 0.483 0.029 338.618 o
-1 1 7 418.563 409.923 9.514 0.016 o
-1 1 8 93.618 93.860 2.115 0.277 o
-1 1 9 169.587 171.405 3.864 0.089 o
-1 1 10 0.114 0.039 0.010 1768.200 o
-1 1 11 74.506 73.430 1.642 0.434 o
-1 1 12 85.793 86.895 1.942 0.324 o
-1 1 13 5.673 5.583 0.126 22.838 o
-1 1 14 47.337 45.119 0.995 1.026 o
-1 2 1 143.659 143.258 3.178 0.127 o
-1 2 2 8.355 8.442 0.213 12.832 o
-1 2 3 172.082 173.318 3.922 0.087 o
-1 2 4 229.478 226.222 5.042 0.053 o
-1 2 5 489.055 478.234 10.703 0.012 o
-1 2 6 17.945 18.652 0.415 4.475 o
-1 2 7 1.331 1.323 0.039 115.716 o
-1 2 8 47.028 46.442 1.043 0.975 o
-1 2 9 8.115 7.921 0.174 14.661 o
-1 2 10 186.596 185.121 4.163 0.077 o
-1 2 11 71.667 73.401 1.642 0.442 o
-1 2 12 33.982 33.904 0.753 1.691 o
-1 2 13 12.901 12.876 0.290 7.526 o
-1 3 1 0.075 0.116 0.010 1773.010 o
-1 3 2 30.952 32.388 0.715 1.879 o
-1 3 3 13.496 13.668 0.309 6.939 o
-1 3 4 56.424 56.382 1.246 0.710 o
-1 3 5 0.820 0.792 0.029 192.469 o
-1 3 6 106.313 106.359 2.357 0.224 o
-1 3 7 1.701 1.768 0.048 87.157 o
-1 3 8 6.285 6.491 0.145 19.479 o
-1 3 9 1.094 1.207 0.029 140.217 o
-1 3 10 32.469 32.079 0.715 1.840 o
-1 4 1 6.113 6.037 0.135 20.776 o
-1 4 2 10.046 9.804 0.222 10.849 o
-1 4 3 0.024 0.039 0.010 4702.380 o
-1 4 4 0.490 0.425 0.019 341.090 o
-1 4 5 61.094 61.153 1.352 0.615 o
-1 4 6 82.193 82.684 1.855 0.352 o
0 0 2 137.864 144.320 3.516 0.113 o
0 0 4 63.333 70.871 1.787 0.421 o
0 0 6 1019.030 967.547 23.125 0.003 o
0 0 8 286.172 282.400 6.597 0.032 o
0 0 10 394.984 392.913 8.761 0.018 o
0 0 12 14.352 14.267 0.309 6.630 o
0 0 14 53.152 53.068 1.149 0.807 o
0 1 1 454.177 455.902 10.171 0.014 o
0 1 2 92.138 91.715 2.028 0.294 o
0 1 3 19.674 18.247 0.415 4.286 o
0 1 4 1542.430 1372.830 35.904 0.001 o
0 1 5 63.734 70.716 1.594 0.485 o
0 1 6 304.436 299.362 6.636 0.031 o
0 1 7 36.628 36.029 0.811 1.498 o
0 1 8 27.520 26.689 0.599 2.446 o
0 1 9 37.273 37.420 0.840 1.423 o
0 1 10 145.955 145.924 3.246 0.123 o
0 1 11 202.090 201.040 4.501 0.066 o
0 1 12 0.227 0.184 0.010 776.149 o
0 1 13 25.306 25.858 0.580 2.646 o
0 1 14 8.708 8.925 0.203 12.657 o
0 2 0 13.164 13.591 0.328 6.760 o
0 2 1 74.363 75.468 1.748 0.402 o
0 2 2 127.705 132.797 2.956 0.149 o
0 2 3 0.040 0.048 0.010 3381.060 o
0 2 4 184.486 182.088 4.057 0.080 o
0 2 5 47.608 48.915 1.092 0.914 o
0 2 6 5.168 5.216 0.116 25.335 o
0 2 7 135.673 138.187 3.081 0.137 o
0 2 8 0.495 0.483 0.019 326.020 o
0 2 9 55.925 54.846 1.217 0.736 o
0 2 10 26.612 25.926 0.570 2.613 o
0 2 11 1.178 1.420 0.039 121.699 o
0 2 12 17.134 17.010 0.386 4.952 o
0 3 1 50.117 51.291 1.130 0.851 o
0 3 2 114.476 115.120 2.550 0.193 o
0 3 3 84.919 87.050 1.932 0.327 o
0 3 4 55.656 56.961 1.256 0.707 o
0 3 5 15.392 15.890 0.357 5.637 o
0 3 6 0.160 0.309 0.010 787.218 o
0 3 7 0.972 1.024 0.029 159.489 o
0 3 8 100.219 99.124 2.212 0.251 o
0 3 9 42.118 41.680 0.927 1.187 o
0 3 10 1.442 1.333 0.039 109.730 o
0 4 0 2.898 2.850 0.068 50.358 o
0 4 1 12.809 12.345 0.270 7.960 o
0 4 2 57.844 57.966 1.285 0.675 o
0 4 3 3.740 3.980 0.097 35.372 o
0 4 4 12.142 12.374 0.280 8.030 o
0 4 5 77.718 76.521 1.690 0.408 o
1 0 0 371.389 358.719 7.979 0.021 o
1 0 2 11.517 10.413 0.309 8.067 o
1 0 4 1787.890 1583.190 17.367 0.002 o
1 0 6 214.360 217.480 4.917 0.056 o
1 0 8 70.207 69.798 1.536 0.486 o
1 0 10 672.750 663.915 14.730 0.006 o
1 0 12 6.104 6.201 0.174 18.435 o
1 1 1 38.763 39.236 0.889 1.307 o
1 1 2 428.769 423.330 9.659 0.015 o
1 1 3 793.247 749.855 18.855 0.004 o
1 1 4 64.463 66.495 1.478 0.534 o
1 1 5 118.242 115.497 2.589 0.187 o
1 1 6 206.708 211.250 4.704 0.061 o
1 1 7 16.913 18.343 0.415 4.631 o
1 1 8 93.767 92.594 2.067 0.285 o
1 1 9 184.072 189.439 4.231 0.075 o
1 1 10 71.444 73.382 1.632 0.445 o
1 1 11 0.081 0.058 0.010 2113.200 o
1 1 12 2.125 1.971 0.048 73.242 o
1 1 13 6.719 6.945 0.164 17.427 o
1 2 0 318.038 327.336 7.254 0.026 o
1 2 1 271.709 270.297 6.008 0.038 o
1 2 2 0.080 0.058 0.019 1653.560 o
1 2 3 354.555 350.557 8.143 0.021 o
1 2 4 20.165 19.763 0.444 3.943 o
1 2 5 87.492 90.315 2.028 0.302 o
1 2 6 160.150 159.524 3.584 0.102 o
1 2 7 80.609 81.708 1.816 0.365 o
1 2 8 5.906 5.863 0.135 21.391 o
1 2 9 7.396 7.293 0.164 16.254 o
1 2 10 4.454 4.521 0.106 29.757 o
1 2 11 8.511 8.800 0.193 13.185 o
1 2 12 14.673 14.953 0.338 6.105 o
1 3 0 19.142 19.058 0.425 4.230 o
1 3 1 31.500 31.364 0.695 1.926 o
1 3 2 47.193 46.973 1.043 0.971 o
1 3 3 0.051 0.068 0.010 2678.850 o
1 3 4 7.931 8.056 0.184 14.431 o
1 3 5 22.429 21.917 0.483 3.406 o
1 3 6 43.754 43.767 0.966 1.106 o
1 3 7 18.902 18.952 0.425 4.264 o
1 3 8 24.995 25.346 0.560 2.754 o
1 3 9 10.059 10.007 0.232 10.538 o
1 4 0 17.918 18.034 0.396 4.679 o
1 4 1 0.645 0.599 0.019 257.090 o
1 4 2 56.946 56.362 1.236 0.713 o
1 4 3 14.285 14.547 0.319 6.486 o
1 4 4 3.094 2.917 0.068 47.975 o
1 4 5 52.277 52.209 1.169 0.802 o
2 0 0 21.450 25.230 0.580 2.874 o
2 0 4 5.867 8.201 0.232 14.444 o
2 0 6 3.513 3.970 0.097 36.697 o
2 0 8 95.637 103.171 2.270 0.246 o
2 0 10 33.059 34.445 0.753 1.707 o
2 0 12 75.981 77.304 1.681 0.414 o
2 1 0 365.919 367.181 8.210 0.021 o
2 1 1 65.781 68.118 1.545 0.500 o
2 1 2 3.124 2.821 0.116 39.928 o
2 1 3 450.543 456.800 10.210 0.013 o
2 1 4 9.507 9.292 0.241 10.829 o
2 1 5 18.333 19.976 0.454 4.058 o
2 1 6 420.878 414.772 9.215 0.016 o
2 1 7 30.703 29.847 0.666 2.051 o
2 1 8 46.358 47.109 1.043 0.978 o
2 1 9 179.079 176.698 3.951 0.084 o
2 1 10 42.505 42.656 0.947 1.152 o
2 1 11 1.771 1.739 0.048 85.456 o
2 1 12 24.143 24.457 0.551 2.869 o
2 2 0 519.066 501.812 11.156 0.011 o
2 2 1 1.835 1.777 0.048 83.000 o
2 2 2 3.061 2.985 0.068 47.967 o
2 2 3 17.014 16.991 0.377 5.062 o
2 2 4 1.203 1.188 0.029 132.726 o
2 2 5 151.589 149.643 3.332 0.116 o
2 2 6 10.242 10.364 0.232 10.329 o
2 2 7 55.985 56.517 1.256 0.707 o
2 2 8 55.173 55.676 1.227 0.732 o
2 2 9 76.317 78.357 1.729 0.399 o
2 2 10 75.289 76.280 1.671 0.420 o
2 2 11 30.760 32.117 0.715 1.889 o
2 3 0 12.673 12.799 0.280 7.769 o
2 3 1 29.489 29.587 0.657 2.125 o
2 3 2 89.790 90.469 1.999 0.304 o
2 3 3 4.688 4.521 0.106 28.851 o
2 3 4 215.875 215.915 4.820 0.058 o
2 3 5 7.843 7.940 0.184 14.583 o
2 3 6 2.274 2.376 0.058 64.021 o
2 3 7 29.387 29.548 0.657 2.129 o
2 3 8 1.833 1.681 0.048 84.457 o
2 4 0 12.681 12.779 0.280 7.770 o
2 4 2 2.010 2.038 0.048 75.106 o
2 4 3 55.277 55.396 1.227 0.732 o
3 0 0 389.882 389.793 10.229 0.015 o
3 0 2 180.052 183.508 4.279 0.075 o
3 0 4 19.423 21.473 0.464 3.805 o
3 0 6 584.362 560.580 12.364 0.009 o
3 0 8 11.906 10.606 0.241 9.205 o
3 0 10 1.476 1.236 0.058 100.442 o
3 1 0 107.473 110.213 2.463 0.209 o
3 1 1 436.242 425.562 10.181 0.014 o
3 1 2 436.611 427.097 9.833 0.015 o
3 1 3 40.053 41.332 0.937 1.206 o
3 1 4 11.621 11.485 0.261 8.760 o
3 1 5 4.890 5.129 0.126 25.559 o
3 1 6 4.812 4.675 0.106 28.111 o
3 1 7 28.210 28.785 0.638 2.246 o
3 1 8 36.154 38.019 0.840 1.438 o
3 1 9 1.511 1.430 0.048 100.026 o
3 1 10 83.023 85.447 1.884 0.341 o
3 1 11 13.556 13.774 0.309 6.907 o
3 2 0 1.704 1.942 0.048 84.433 o
3 2 1 7.854 7.834 0.174 14.995 o
3 2 2 273.906 271.543 6.066 0.037 o
3 2 3 103.839 102.157 2.270 0.238 o
3 2 4 91.583 90.614 2.009 0.299 o
3 2 5 62.332 61.491 1.362 0.604 o
3 2 6 43.122 44.394 0.995 1.078 o
3 2 7 3.714 3.806 0.087 37.151 o
3 2 8 103.265 102.930 2.299 0.235 o
3 2 9 2.402 2.260 0.058 62.832 o
3 2 10 11.133 11.224 0.261 9.026 o
3 3 0 70.066 72.947 1.613 0.456 o
3 3 1 2.360 2.077 0.048 67.302 o
3 3 2 20.156 20.748 0.464 3.770 o
3 3 3 98.833 98.516 2.183 0.257 o
3 3 4 107.736 106.649 2.357 0.222 o
3 3 5 0.131 0.174 0.010 1120.680 o
3 3 6 19.541 20.430 0.464 3.844 o
3 3 7 2.306 2.135 0.058 65.592 o
3 4 0 6.574 6.279 0.145 19.154 o
4 0 0 44.337 44.114 0.976 1.087 o
4 0 4 36.527 37.353 0.850 1.421 o
4 0 6 12.681 12.644 0.280 7.793 o
4 0 8 1.112 1.014 0.039 140.225 o
4 0 10 4.103 4.337 0.106 31.628 o
4 1 0 2.178 2.357 0.058 65.884 o
4 1 1 149.964 149.614 3.332 0.117 o
4 1 2 186.098 180.610 4.028 0.080 o
4 1 3 210.566 205.628 4.588 0.063 o
4 1 4 2.925 2.927 0.068 49.661 o
4 1 5 91.509 88.731 2.009 0.301 o
4 1 6 38.959 39.487 0.879 1.316 o
4 1 7 8.498 8.162 0.184 13.811 o
4 1 8 27.582 28.292 0.618 2.343 o
4 1 9 19.579 20.816 0.473 3.759 o
4 2 0 116.300 117.670 2.618 0.185 o
4 2 1 75.505 74.628 1.652 0.427 o
4 2 2 292.185 292.437 6.530 0.032 o
4 2 3 54.145 54.836 1.217 0.747 o
4 2 4 16.015 15.416 0.338 5.772 o
4 2 5 0.491 0.599 0.019 305.129 o
4 2 6 6.927 6.906 0.155 17.602 o
4 2 7 153.483 153.728 3.419 0.111 o
4 2 8 0.580 0.811 0.048 199.968 o
4 3 0 5.840 5.844 0.135 21.553 o
4 3 1 37.306 36.792 0.811 1.477 o
4 3 2 1.073 1.024 0.029 149.789 o
4 3 3 1.495 1.430 0.039 104.961 o
4 3 4 50.275 48.731 1.072 0.908 o
4 3 5 3.470 3.613 0.087 39.333 o
5 0 0 59.853 62.641 1.372 0.608 o
5 0 2 672.730 635.527 14.875 0.006 o
5 0 4 12.320 11.726 0.261 8.426 o
5 0 6 6.344 6.259 0.145 19.583 o
5 0 8 141.489 145.798 3.178 0.128 o
5 1 0 0.412 0.386 0.019 392.753 o
5 1 1 105.852 107.306 2.405 0.218 o
5 1 2 56.918 57.541 1.285 0.681 o
5 1 3 1.756 1.748 0.048 85.767 o
5 1 4 38.256 38.898 0.869 1.347 o
5 1 5 1.226 1.227 0.039 124.687 o
5 1 6 80.935 80.762 1.797 0.369 o
5 1 7 5.210 5.033 0.116 25.482 o
5 1 8 1.630 1.439 0.039 99.019 o
5 2 0 24.284 24.467 0.541 2.903 o
5 2 1 25.548 25.143 0.560 2.728 o
5 2 2 3.748 3.361 0.077 39.486 o
5 2 3 25.216 23.974 0.531 2.903 o
5 2 4 61.816 60.380 1.333 0.623 o
5 2 5 15.332 14.933 0.338 5.964 o
5 2 6 48.617 48.065 1.092 0.909 o
5 3 0 124.227 121.911 2.705 0.172 o
5 3 1 26.932 26.824 0.599 2.470 o
5 3 2 5.961 5.448 0.126 22.312 o
6 0 0 229.860 229.728 5.216 0.050 o
6 0 2 29.030 29.152 0.705 2.012 o
6 0 4 1.506 1.526 0.048 98.275 o
6 0 6 42.452 45.447 1.024 1.047 o
6 1 0 0.597 0.599 0.019 270.342 o
6 1 1 185.199 181.576 4.096 0.079 o
6 1 2 60.378 60.158 1.352 0.621 o
6 1 3 22.654 22.284 0.502 3.272 o
6 1 4 55.296 54.450 1.227 0.735 o
6 1 5 59.566 58.487 1.314 0.649 o
6 2 0 0.066 0.087 0.010 2129.630 o
6 2 1 10.082 9.476 0.213 11.176 o
6 2 2 0.083 0.068 0.010 2010.390 o
6 2 3 13.882 13.707 0.309 6.828 o
7 0 0 108.456 107.885 2.453 0.210 o
7 0 2 35.018 34.967 0.753 1.653 o
7 1 0 83.178 81.989 1.835 0.355 o
7 1 1 0.997 1.140 0.029 151.372 o
;
_olex2_submission_special_instructions 'No special instructions were received'
loop_
_space_group_symop_id
_space_group_symop_operation_xyz
1 x,y,z
2 -x,y+1/2,-z+1/2
3 -x,-y,-z
4 x,-y-1/2,z-1/2
loop_
_atom_site_label
_atom_site_type_symbol
_atom_site_fract_x
_atom_site_fract_y
_atom_site_fract_z
_atom_site_U_iso_or_equiv
_atom_site_adp_type
_atom_site_occupancy
_atom_site_refinement_flags_posn
O1 O 0.43465(6) 0.44436(10) 0.34989(3) 0.01315(13) Uani 1.000000 .
O2 O 0.24274(5) 0.74236(10) 0.46367(3) 0.01273(13) Uani 1.000000 .
C1 C 0.40300(7) 0.55874(12) 0.44790(3) 0.00992(14) Uani 1.000000 .
O3 O 0.12986(7) 0.63109(12) 0.17819(3) 0.01270(13) Uani 1.000000 .
H3a H 0.0109(15) 0.460(3) 0.1499(7) 0.0241(19) Uani 1.000000 .
H3b H 0.1883(13) 0.691(2) 0.1136(8) 0.0209(17) Uani 1.000000 .
H1 H 0.2994(18) 0.521(3) 0.2800(10) 0.035(2) Uani 1.000000 .
loop_
_atom_site_aniso_label
_atom_site_aniso_U_11
_atom_site_aniso_U_22
_atom_site_aniso_U_33
_atom_site_aniso_U_12
_atom_site_aniso_U_13
_atom_site_aniso_U_23
O1 0.0128(2) 0.0173(2) 0.0093(2) 0.00387(13) 0.00277(15) -0.00074(12)
O2 0.0111(2) 0.0177(2) 0.00860(19) 0.00502(12) 0.00092(13) -0.00069(12)
C1 0.0089(2) 0.0115(2) 0.0086(3) 0.00154(15) 0.00066(18) 0.00035(15)
O3 0.0104(2) 0.0171(2) 0.0096(2) -0.00065(13) 0.00044(15) 0.00120(14)
H3a 0.025(5) 0.018(4) 0.030(5) -0.012(4) 0.008(4) 0.002(4)
H3b 0.017(4) 0.033(5) 0.018(4) -0.001(4) 0.014(3) 0.004(4)
H1 0.035(6) 0.034(5) 0.042(7) -0.007(5) 0.021(6) -0.009(5)
loop_
_atom_type_symbol
_atom_type_description
_atom_type_scat_dispersion_real
_atom_type_scat_dispersion_imag
_atom_type_scat_source
_atom_type_scat_dispersion_source
C C 0.00347 0.00161
'Clementi & Roetti, C., At. Data Nucl. Data Tables 1974, 14, (177-478); Clementi & Raimondi, J. Chem. Phys., 1963, 38, (2686-2689)'
'Henke, Gullikson and Davis, At. Data and Nucl. Data Tables, 1993, 54, 2'
H H 0.00000 0.00000
'Clementi & Roetti, C., At. Data Nucl. Data Tables 1974, 14, (177-478); Clementi & Raimondi, J. Chem. Phys., 1963, 38, (2686-2689)'
'Henke, Gullikson and Davis, At. Data and Nucl. Data Tables, 1993, 54, 2'
N N 0.00653 0.00323
'Clementi & Roetti, C., At. Data Nucl. Data Tables 1974, 14, (177-478); Clementi & Raimondi, J. Chem. Phys., 1963, 38, (2686-2689)'
'Henke, Gullikson and Davis, At. Data and Nucl. Data Tables, 1993, 54, 2'
O O 0.01158 0.00611
'Clementi & Roetti, C., At. Data Nucl. Data Tables 1974, 14, (177-478); Clementi & Raimondi, J. Chem. Phys., 1963, 38, (2686-2689)'
'Henke, Gullikson and Davis, At. Data and Nucl. Data Tables, 1993, 54, 2'
loop_
_geom_angle_atom_site_label_1
_geom_angle_atom_site_label_2
_geom_angle_atom_site_label_3
_geom_angle
_geom_angle_site_symmetry_1
_geom_angle_site_symmetry_3
_geom_angle_publ_flag
H1 O1 C1 111.8(5) . . ?
O2 C1 O1 126.95(4) . . ?
C1 C1 O1 112.79(5) 3_666 . ?
C1 C1 O2 120.26(5) 3_666 . ?
H3b O3 H3a 105.2(7) . . ?
loop_
_geom_bond_atom_site_label_1
_geom_bond_atom_site_label_2
_geom_bond_distance
_geom_bond_site_symmetry_2
_geom_bond_publ_flag
O1 C1 1.2856(6) . ?
O1 H1 1.053(12) . ?
O2 C1 1.2194(6) . ?
C1 C1 1.5455(8) 3_666 ?
O3 H3a 0.937(9) . ?
O3 H3b 0.942(9) . ?
loop_
_refln_index_h
_refln_index_k
_refln_index_l
_refln_F_squared_meas
_refln_F_squared_sigma
-12 0 2 9.3 0.22
-12 0 4 43.17 0.89
-12 0 6 5.26 0.14
-12 0 8 0.15 0.04
-12 0 10 2.54 0.09
-12 0 12 9.14 0.22
-12 1 1 2.05 0.06
-12 1 2 1.06 0.04
-12 1 5 19.73 0.44
-12 1 6 4.58 0.11
-12 1 7 1.55 0.06
-12 1 8 12.71 0.29
-12 1 9 11.65 0.33
-12 1 10 2.95 0.09
-12 1 11 1.09 0.04
-12 2 4 0.16 0.03
-12 2 5 8.32 0.2
-12 2 6 0.31 0.04
-12 2 7 3.47 0.11
-12 2 8 4.8 0.16
-11 0 2 3.7 0.11
-11 0 4 9.54 0.22
-11 0 6 0.59 0.04
-11 0 8 86.7 2.23
-11 0 10 8.06 0.2
-11 0 12 2.7 0.08
-11 0 14 36.05 1.1
-11 0 16 1.59 0.08
-11 1 1 0.21 0.02
-11 1 2 5.88 0.17
-11 1 3 13.95 0.31
-11 1 4 36.4 0.81
-11 1 5 2.09 0.06
-11 1 6 0.18 0.02
-11 1 7 1.56 0.06
-11 1 8 1.39 0.05
-11 1 9 6.2 0.18
-11 1 10 3.92 0.1
-11 1 11 4.3 0.11
-11 1 12 14.17 0.32
-11 1 13 0.49 0.03
-11 1 14 6.56 0.18
-11 1 15 6.16 0.15
-11 1 16 2.45 0.16
-11 2 1 2.86 0.08
-11 2 2 0.34 0.03
-11 2 3 1.38 0.04
-11 2 4 11.3 0.26
-11 2 5 2.1 0.06
-11 2 6 6.27 0.15
-11 2 7 8.5 0.2
-11 2 10 1.15 0.04
-11 2 11 2.2 0.06
-11 2 12 2.65 0.07
-11 2 13 0.53 0.03
-11 2 14 1.37 0.06
-11 3 1 1.03 0.04
-11 3 2 3.38 0.09
-11 3 3 0.41 0.03
-11 3 4 4.71 0.11
-11 3 5 6.91 0.16
-11 3 6 3.01 0.08
-11 3 7 3.71 0.09
-11 3 9 1.33 0.06
-11 3 10 12.68 0.29
-11 3 11 4.28 0.14
-10 0 4 8.84 0.2
-10 0 6 12.74 0.31
-10 0 8 17.61 0.45
-10 0 10 12.27 0.27
-10 0 12 11.95 0.28
-10 0 14 0.9 0.05
-10 0 16 3.19 0.1
-10 0 18 63.43 1.14
-10 1 1 3.5 0.09
-10 1 2 0.56 0.03
-10 1 3 2.28 0.06
-10 1 4 0.76 0.03
-10 1 5 9.76 0.22
-10 1 6 0.1 0.02
-10 1 7 48.28 1.07
-10 1 8 20.34 0.45
-10 1 9 10.09 0.23
-10 1 10 6.59 0.15
-10 1 11 1.98 0.06
-10 1 12 4.04 0.1
-10 1 13 11.74 0.28
-10 1 14 18.38 0.42
-10 1 16 0.95 0.05
-10 1 17 15.89 0.37
-10 1 18 2.41 0.07
-10 2 1 0.52 0.03
-10 2 2 11.21 0.27
-10 2 3 49.94 1.1
-10 2 4 28.98 0.64
-10 2 7 1.41 0.04
-10 2 8 9.37 0.21
-10 2 9 13.76 0.31
-10 2 10 0.78 0.03
-10 2 11 12.16 0.28
-10 2 12 5.29 0.13
-10 2 13 11.7 0.27
-10 2 14 14.27 0.36
-10 2 16 0.78 0.04
-10 2 17 4.03 0.12
-10 3 1 2.73 0.07
-10 3 2 8.35 0.21
-10 3 3 3.65 0.1
-10 3 4 10.68 0.24
-10 3 6 11.21 0.25
-10 3 7 0.63 0.03
-10 3 8 6.21 0.15
-10 3 9 1.01 0.05
-10 3 10 8.09 0.19
-10 3 13 0.33 0.03
-10 3 14 8.32 0.19
-10 3 15 3 0.1
-10 4 2 10.93 0.26
-10 4 3 6.63 0.16
-10 4 4 0.33 0.02
-10 4 5 1.26 0.04
-10 4 6 3.5 0.1
-10 4 8 3.21 0.08
-10 4 9 3.19 0.08
-10 4 10 7.68 0.18
-9 0 2 4.14 0.11
-9 0 4 57.81 1.35
-9 0 6 25.61 0.55
-9 0 8 4.42 0.11
-9 0 10 54.1 1.22
-9 0 12 0.09 0.03
-9 0 14 1.94 0.06
-9 0 16 21.95 0.47
-9 0 18 0.34 0.04
-9 0 20 1.1 0.06
-9 1 1 0.47 0.02
-9 1 2 1.44 0.04
-9 1 3 0.14 0.02
-9 1 4 10.71 0.24
-9 1 5 3.11 0.08
-9 1 6 23.03 0.51
-9 1 7 17.78 0.41
-9 1 8 4.94 0.12
-9 1 9 17.54 0.39
-9 1 10 1.23 0.04
-9 1 11 6.82 0.16
-9 1 12 0.09 0.02
-9 1 13 0.34 0.03
-9 1 14 14.24 0.33
-9 1 15 0.56 0.03
-9 1 16 2.61 0.07
-9 1 17 36.4 0.84
-9 1 18 6.95 0.16
-9 1 19 2.86 0.08
-9 1 20 4.78 0.12
-9 2 1 4.99 0.12
-9 2 3 0.71 0.03
-9 2 4 0.36 0.02
-9 2 5 6.28 0.14
-9 2 6 35.14 0.78
-9 2 7 10.11 0.23
-9 2 8 57 1.25
-9 2 9 1.34 0.05
-9 2 10 5.52 0.13
-9 2 12 3.27 0.09
-9 2 13 32.13 0.72
-9 2 14 5.08 0.12
-9 2 15 0.53 0.03
-9 2 16 9.78 0.22
-9 2 17 8.59 0.22
-9 2 18 15.77 0.35
-9 2 19 4.08 0.12
-9 3 1 2.89 0.07
-9 3 2 87 1.97
-9 3 3 13.3 0.3
-9 3 4 21.89 0.5
-9 3 6 1.06 0.04
-9 3 7 20.81 0.49
-9 3 8 6.69 0.16
-9 3 9 1.69 0.05
-9 3 10 5.18 0.12
-9 3 11 1.11 0.04
-9 3 12 43.03 0.96
-9 3 13 7.16 0.17
-9 3 14 6.42 0.15
-9 3 15 2.95 0.08
-9 3 16 3.25 0.1
-9 3 17 0.11 0.02
-9 4 1 11.88 0.28
-9 4 2 3.75 0.09
-9 4 3 21.41 0.49
-9 4 4 0.29 0.02
-9 4 6 8.15 0.2
-9 4 7 0.96 0.04
-9 4 8 4.35 0.11
-9 4 9 1.67 0.06
-9 4 10 0.61 0.03
-9 4 11 5.99 0.15
-9 4 12 6.39 0.15
-9 4 13 7.58 0.19
-9 4 14 0.31 0.03
-9 5 3 0.15 0.03
-9 5 4 0.21 0.03
-9 5 6 0.86 0.14
-8 0 2 3.65 0.1
-8 0 4 4.4 0.11
-8 0 8 51.14 1.11
-8 0 10 6.9 0.16
-8 0 12 3.13 0.09
-8 0 14 45.21 1.06
-8 0 16 12.15 0.28
-8 0 18 2.36 0.11
-8 0 20 43.05 0.92
-8 0 22 0.38 0.12
-8 1 1 30.22 0.67
-8 1 3 19.64 0.43
-8 1 4 30.32 0.69
-8 1 5 23.33 0.51
-8 1 6 1.81 0.05
-8 1 7 57.83 1.28
-8 1 8 6.12 0.14
-8 1 9 14.03 0.33
-8 1 10 37.85 0.83
-8 1 11 1.7 0.05
-8 1 12 1.79 0.05
-8 1 14 0.5 0.03
-8 1 15 16.4 0.36
-8 1 16 9.11 0.22
-8 1 17 7.06 0.17
-8 1 18 10.57 0.24
-8 1 20 1.13 0.05
-8 1 21 4.16 0.11
-8 2 1 40.9 0.92
-8 2 2 16.86 0.38
-8 2 3 7.17 0.17
-8 2 4 16.39 0.36
-8 2 5 34.84 0.78
-8 2 6 59.21 1.34
-8 2 7 6.61 0.15
-8 2 8 6.84 0.16
-8 2 9 1.46 0.04
-8 2 10 11.55 0.26
-8 2 11 20.83 0.47
-8 2 12 8.33 0.19
-8 2 13 2.12 0.06
-8 2 14 11.85 0.27
-8 2 15 0.14 0.02
-8 2 16 38.07 0.83
-8 2 17 2.05 0.07
-8 2 18 14.31 0.32
-8 2 19 3.85 0.1
-8 2 20 0.46 0.04
-8 3 1 0.24 0.02
-8 3 2 8.76 0.2
-8 3 3 7.29 0.17
-8 3 5 0.93 0.03
-8 3 6 34.18 0.76
-8 3 7 10.74 0.25
-8 3 8 22.86 0.5
-8 3 9 5.59 0.13
-8 3 10 10.04 0.23
-8 3 11 6.36 0.15
-8 3 12 51.87 1.17
-8 3 13 1.6 0.05
-8 3 14 1.35 0.04
-8 3 15 0.5 0.03
-8 3 16 17.89 0.4
-8 3 17 17.62 0.4
-8 3 19 1.15 0.08
-8 4 1 20.93 0.46
-8 4 2 20.34 0.48
-8 4 3 15.98 0.36
-8 4 4 11.44 0.26
-8 4 5 3.14 0.08
-8 4 6 4.93 0.12
-8 4 7 3.03 0.08
-8 4 8 4.47 0.11
-8 4 9 0.12 0.02
-8 4 10 0.38 0.02
-8 4 11 22.88 0.52
-8 4 12 17.71 0.4
-8 4 13 11.45 0.26
-8 4 15 3.2 0.09
-8 4 16 2.93 0.08
-8 5 1 4.93 0.12
-8 5 2 27.87 0.63
-8 5 4 0.17 0.03
-8 5 5 1.5 0.05
-8 5 6 0.52 0.03
-8 5 7 4.92 0.12
-8 5 8 8.26 0.19
-8 5 10 2.5 0.07
-7 0 2 14.9 0.33
-7 0 4 41.39 0.9
-7 0 6 259.94 5.8
-7 0 8 0.25 0.02
-7 0 10 1.45 0.04
-7 0 12 5.98 0.14
-7 0 14 12.07 0.27
-7 0 16 7.44 0.17
-7 0 18 7.6 0.24
-7 0 20 0.49 0.04
-7 0 22 0.47 0.04
-7 1 1 18.83 0.42
-7 1 2 90.31 2
-7 1 3 3.81 0.09
-7 1 4 0.41 0.02
-7 1 5 2.28 0.06
-7 1 6 19.78 0.44
-7 1 7 54.18 1.2
-7 1 9 10.93 0.25
-7 1 10 30.88 0.68
-7 1 11 48.2 1.06
-7 1 12 2.96 0.07
-7 1 13 9.59 0.22
-7 1 14 15.61 0.34
-7 1 15 13.99 0.31
-7 1 16 6.1 0.15
-7 1 17 23.21 0.53
-7 1 18 0.24 0.02
-7 1 19 27.2 0.6
-7 1 20 4.66 0.11
-7 1 21 3.07 0.08
-7 1 22 1.28 0.04
-7 2 2 0.35 0.02
-7 2 3 23.26 0.52
-7 2 4 3.61 0.09
-7 2 5 10.44 0.23
-7 2 6 2.18 0.06
-7 2 7 20.12 0.45
-7 2 8 17.31 0.39
-7 2 9 17.41 0.39
-7 2 10 81.38 1.83
-7 2 11 23.17 0.52
-7 2 12 8.27 0.19
-7 2 13 5.26 0.12
-7 2 14 3.62 0.09
-7 2 15 42.13 0.92
-7 2 16 12.76 0.3
-7 2 17 2.25 0.06
-7 2 18 4.84 0.12
-7 2 19 0.29 0.02
-7 2 20 24.4 0.56
-7 2 21 12.74 0.3
-7 3 1 2.1 0.06
-7 3 2 1.96 0.05
-7 3 3 2.31 0.06
-7 3 4 78.26 1.74
-7 3 5 35.56 0.79
-7 3 6 16.53 0.38
-7 3 8 0.05 0.01
-7 3 9 9.96 0.22
-7 3 10 11.78 0.27
-7 3 11 0.25 0.02
-7 3 12 1.01 0.03
-7 3 13 7.71 0.18
-7 3 14 23.5 0.53
-7 3 15 4.9 0.12
-7 3 16 23.14 0.51
-7 3 17 0.17 0.02
-7 3 18 10.25 0.24
-7 3 19 0.13 0.02
-7 3 20 2.71 0.08
-7 4 1 22.22 0.52
-7 4 2 6.91 0.17
-7 4 3 0.7 0.03
-7 4 4 2.2 0.06
-7 4 5 23.97 0.53
-7 4 6 4.46 0.11
-7 4 7 4.42 0.11
-7 4 8 27.11 0.61
-7 4 9 5.66 0.14
-7 4 10 0.25 0.02
-7 4 11 14.61 0.33
-7 4 12 3.69 0.09
-7 4 13 0.06 0.02
-7 4 14 3.51 0.09
-7 4 15 12.67 0.29
-7 4 16 10.15 0.23
-7 4 17 3.82 0.09
-7 5 1 3.96 0.1
-7 5 2 20.26 0.46
-7 5 3 3.57 0.09
-7 5 4 1.85 0.05
-7 5 5 0.99 0.04
-7 5 6 8.37 0.19
-7 5 7 0.62 0.03
-7 5 10 5.6 0.13
-7 5 11 9.26 0.21
-7 5 12 26.67 0.58
-7 5 13 0.14 0.02
-7 5 14 1.24 0.06
-6 0 2 185.91 4.13
-6 0 4 2.97 0.07
-6 0 6 169.01 3.77
-6 0 8 1.1 0.04
-6 0 10 302.14 6.74
-6 0 12 0.96 0.27
-6 0 14 27.2 0.6
-6 0 16 134.07 2.88
-6 0 18 15.79 0.35
-6 0 20 10.02 0.23
-6 0 22 3.02 0.09
-6 1 1 1.44 0.04
-6 1 2 6.94 0.16
-6 1 3 1.3 0.04
-6 1 4 32.91 0.73
-6 1 5 98.73 2.19
-6 1 6 158.17 3.52
-6 1 7 2.91 0.07
-6 1 8 3.14 0.07
-6 1 9 46.1 1.02
-6 1 10 52.91 1.17
-6 1 11 4.25 0.1
-6 1 12 43.85 0.97
-6 1 13 5.06 0.12
-6 1 14 22.94 0.52
-6 1 15 3.71 0.09
-6 1 16 0.63 0.03
-6 1 17 1.1 0.04
-6 1 18 0.71 0.03
-6 1 19 11.85 0.27
-6 1 20 28.66 0.66
-6 1 21 13.09 0.3
-6 1 22 1.51 0.05
-6 1 23 2.27 0.07
-6 2 1 73.07 1.62
-6 2 2 41.41 0.92
-6 2 3 63.16 1.4
-6 2 4 5.66 0.13
-6 2 5 4.52 0.11
-6 2 6 1.14 0.03
-6 2 7 0.24 0.01
-6 2 8 13.86 0.31
-6 2 9 32.75 0.73
-6 2 10 10.11 0.24
-6 2 11 0.26 0.02
-6 2 12 9.39 0.21
-6 2 13 0.27 0.02
-6 2 14 6.53 0.15
-6 2 15 2.85 0.07
-6 2 16 0.37 0.02
-6 2 17 9.72 0.22
-6 2 18 19.65 0.44
-6 2 19 2.59 0.07
-6 2 20 21.46 0.5
-6 2 21 1.6 0.05
-6 2 22 0.15 0.02
-6 3 1 13.71 0.31
-6 3 2 12.13 0.27
-6 3 3 1.79 0.05
-6 3 4 4.75 0.11
-6 3 5 0.67 0.03
-6 3 6 6.97 0.16
-6 3 7 7.89 0.18
-6 3 8 41.19 0.94
-6 3 9 32.91 0.73
-6 3 10 0.54 0.02
-6 3 11 4.49 0.11
-6 3 12 0.94 0.03
-6 3 13 7.09 0.16
-6 3 14 57.19 1.29
-6 3 15 13.16 0.29
-6 3 16 1.86 0.05
-6 3 17 0.61 0.03
-6 3 18 8.72 0.21
-6 3 19 16.27 0.36
-6 3 20 0.96 0.04
-6 3 21 0.44 0.13
-6 4 1 8.17 0.19
-6 4 3 7.25 0.17
-6 4 4 43.8 0.97
-6 4 5 40.5 0.89
-6 4 6 1.91 0.06
-6 4 8 7.03 0.16
-6 4 9 0.09 0.02
-6 4 10 1.9 0.05
-6 4 11 7.05 0.16
-6 4 12 11.92 0.28
-6 4 13 14.25 0.32
-6 4 14 14.04 0.31
-6 4 15 23.3 0.51
-6 4 16 0.57 0.03
-6 4 17 0.09 0.02
-6 4 18 6.84 0.18
-6 5 2 0.77 0.03
-6 5 3 1.2 0.04
-6 5 4 38.59 0.88
-6 5 6 6.89 0.16
-6 5 7 2.68 0.07
-6 5 8 16.81 0.37
-6 5 9 1.41 0.05
-6 5 10 15.48 0.35
-6 5 11 0.52 0.03
-6 5 12 0.24 0.02
-6 5 13 0.58 0.03
-6 5 14 2.33 0.07
-6 5 15 1.44 0.05
-6 6 1 1.89 0.06
-6 6 2 4.57 0.11
-6 6 3 0.56 0.03
-6 6 4 3.43 0.08
-6 6 5 9.92 0.23
-6 6 6 1.54 0.05
-6 6 7 0.77 0.04
-6 6 8 0.53 0.03
-5 0 2 94.25 2.06
-5 0 4 18.7 0.41
-5 0 6 120.67 2.66
-5 0 8 291.91 6.52
-5 0 10 106.26 2.34
-5 0 12 45.72 1.01
-5 0 14 0.59 0.03
-5 0 16 0.13 0.03
-5 0 18 26.99 0.57
-5 0 20 99.75 2.1
-5 0 22 0.21 0.03
-5 0 24 0.53 0.12
-5 1 1 57.81 1.28
-5 1 2 258.9 5.79
-5 1 3 52.85 1.17
-5 1 4 97.09 2.15
-5 1 5 31.7 0.7
-5 1 6 4.1 0.09
-5 1 7 0.99 0.03
-5 1 8 17.83 0.4
-5 1 9 275.32 6.16
-5 1 10 27.04 0.61
-5 1 11 0.18 0.01
-5 1 12 25.93 0.58
-5 1 13 9.36 0.21
-5 1 14 26.96 0.6
-5 1 15 41.15 0.91
-5 1 16 56.41 1.24
-5 1 17 16.65 0.38
-5 1 18 0.59 0.03
-5 1 19 41.98 0.96
-5 1 20 0.57 0.03
-5 1 21 1.03 0.04
-5 1 22 1.58 0.05
-5 1 23 0.2 0.03
-5 2 1 9.7 0.22
-5 2 2 0.64 0.02
-5 2 3 4.46 0.1
-5 2 4 29.13 0.65
-5 2 5 181.08 4.04
-5 2 6 84.19 1.89
-5 2 7 22.5 0.5
-5 2 8 2.02 0.05
-5 2 9 0.16 0.01
-5 2 11 41.72 0.93
-5 2 12 25.1 0.56
-5 2 13 75.59 1.69
-5 2 14 0.74 0.03
-5 2 15 12.4 0.28
-5 2 16 3.53 0.08
-5 2 17 8.1 0.18
-5 2 18 5.15 0.12
-5 2 19 11.64 0.26
-5 2 21 0.23 0.03
-5 2 22 10.56 0.24
-5 2 23 7.94 0.2
-5 3 1 20.54 0.46
-5 3 2 0.08 0.01
-5 3 3 6.32 0.14
-5 3 4 11.78 0.27
-5 3 5 3.85 0.09
-5 3 6 4.84 0.11
-5 3 7 16.69 0.37
-5 3 8 2.33 0.06
-5 3 10 6.85 0.16
-5 3 11 0.59 0.02
-5 3 12 0.76 0.03
-5 3 13 0.04 0.01
-5 3 14 0.84 0.03
-5 3 15 2.38 0.07
-5 3 17 0.15 0.02
-5 3 18 12.91 0.29
-5 3 19 6.16 0.14
-5 3 20 0.26 0.03
-5 3 21 0.93 0.05
-5 4 1 3.39 0.09
-5 4 3 25.23 0.56
-5 4 4 25.02 0.56
-5 4 5 14.02 0.32
-5 4 7 1.11 0.03
-5 4 8 25.75 0.59
-5 4 10 24.39 0.55
-5 4 11 0.33 0.02
-5 4 12 2.01 0.05
-5 4 13 15.19 0.34
-5 4 14 7.35 0.17
-5 4 15 13.56 0.3
-5 4 17 2.41 0.07
-5 4 18 17.38 0.4
-5 4 19 0.5 0.03
-5 5 1 2.81 0.07
-5 5 2 4.28 0.1
-5 5 3 3.29 0.08
-5 5 4 67.88 1.49
-5 5 5 0.33 0.02
-5 5 6 9.13 0.21
-5 5 7 2.54 0.07
-5 5 8 6.51 0.15
-5 5 9 2.91 0.07
-5 5 10 3.65 0.09
-5 5 12 11.66 0.26
-5 5 13 4.19 0.11
-5 5 14 51.05 1.28
-5 5 15 0.14 0.03
-5 5 16 0.7 0.03
-5 6 2 0.4 0.03
-5 6 3 20.07 0.44
-5 6 4 2.95 0.08
-5 6 5 1.44 0.05
-5 6 6 0.89 0.03
-5 6 7 1.81 0.05
-5 6 8 12.17 0.28
-5 6 9 2.53 0.07
-5 6 10 10.01 0.23
-5 6 11 0.78 0.03
-4 0 2 949.7 20.85
-4 0 4 126.34 2.79
-4 0 6 46.94 1.03
-4 0 8 580.4 12.85
-4 0 10 1.77 0.05
-4 0 12 245.66 5.5
-4 0 14 1.93 0.06
-4 0 16 58.52 1.26
-4 0 18 135.95 3.12
-4 0 22 1.36 0.06
-4 0 24 1.95 0.08
-4 1 1 94.39 2.09
-4 1 2 58.67 1.3
-4 1 3 1.63 0.04
-4 1 4 34.9 0.77
-4 1 5 0.04 0.01
-4 1 6 183.3 4.09
-4 1 7 91.38 2.03
-4 1 8 180.12 4.02
-4 1 9 47.75 1.07
-4 1 10 0.04 0.01
-4 1 11 1.85 0.05
-4 1 12 84.92 1.89
-4 1 13 15.79 0.36
-4 1 14 17.34 0.39
-4 1 15 0.11 0.01
-4 1 16 22.65 0.52
-4 1 17 4.56 0.11
-4 1 18 0.95 0.04
-4 1 19 54.05 1.21
-4 1 20 12.1 0.27
-4 1 21 1.55 0.05
-4 1 22 22.79 0.51
-4 1 23 9.87 0.23
-4 1 24 2.7 0.11
-4 2 1 55.08 1.22
-4 2 2 13.31 0.3
-4 2 3 81.64 1.81
-4 2 4 64.47 1.43
-4 2 5 6.15 0.14
-4 2 6 5.96 0.14
-4 2 7 7.21 0.16
-4 2 8 85.82 1.91
-4 2 9 14.26 0.32
-4 2 10 31.82 0.71
-4 2 11 7.87 0.18
-4 2 12 0.89 0.03
-4 2 13 3.41 0.08
-4 2 14 23.3 0.53
-4 2 15 35.64 0.8
-4 2 16 10.64 0.24
-4 2 17 7.54 0.17
-4 2 18 7.82 0.18
-4 2 19 6.29 0.16
-4 2 20 0.13 0.03
-4 2 21 4.51 0.11
-4 2 22 4.27 0.11
-4 2 23 19.31 0.43
-4 3 1 5.23 0.12
-4 3 2 14.21 0.32
-4 3 3 23.96 0.53
-4 3 4 248.68 5.56
-4 3 5 29.43 0.65
-4 3 6 8.43 0.19
-4 3 7 5.47 0.13
-4 3 8 0.29 0.01
-4 3 9 38.58 0.86
-4 3 10 66.5 1.47
-4 3 11 21.57 0.48
-4 3 12 12.78 0.29
-4 3 13 1.04 0.04
-4 3 14 32.76 0.74
-4 3 15 6.03 0.14
-4 3 16 4.05 0.1
-4 3 17 15.11 0.35
-4 3 18 2.66 0.07
-4 3 20 6.26 0.15
-4 3 21 1.71 0.06
-4 3 22 1.11 0.08
-4 4 1 0.19 0.02
-4 4 2 5.41 0.13
-4 4 3 62.47 1.38
-4 4 4 1.11 0.03
-4 4 5 11.75 0.26
-4 4 6 29.9 0.66
-4 4 7 9.93 0.22
-4 4 8 4.63 0.11
-4 4 9 2.27 0.06
-4 4 10 2.98 0.07
-4 4 11 0.11 0.01
-4 4 12 0.45 0.02
-4 4 13 29.72 0.66
-4 4 14 23.07 0.51
-4 4 15 0.9 0.03
-4 4 16 1.84 0.05
-4 4 17 4.87 0.12
-4 4 18 2.3 0.06
-4 4 20 4.82 0.14
-4 5 1 0.06 0.02
-4 5 2 23 0.51
-4 5 3 2.33 0.06
-4 5 4 0.53 0.02
-4 5 5 0.06 0.01
-4 5 6 5.66 0.14
-4 5 7 0.06 0.01
-4 5 8 8.22 0.19
-4 5 9 0.17 0.02
-4 5 10 12.65 0.28
-4 5 11 1.39 0.04
-4 5 12 7.72 0.18
-4 5 13 0.61 0.03
-4 5 14 13.49 0.33
-4 5 15 0.21 0.02
-4 5 17 1.64 0.06
-4 6 1 0.17 0.02
-4 6 2 5.01 0.12
-4 6 3 13.52 0.31
-4 6 4 3.54 0.09
-4 6 5 5.82 0.14
-4 6 6 1.8 0.05
-4 6 7 9.8 0.22
-4 6 8 1.4 0.04
-4 6 9 0.2 0.02
-4 6 10 0.21 0.02
-4 6 11 0.57 0.03
-4 6 12 4.54 0.12
-3 0 2 15.64 0.38
-3 0 4 94.06 2.19
-3 0 6 14.49 0.4
-3 0 8 22.85 0.52
-3 0 10 4.33 0.1
-3 0 12 150.27 3.3
-3 0 14 18.21 0.4
-3 0 16 13.48 0.3
-3 0 18 34.14 0.77
-3 0 20 9.56 0.22
-3 0 22 98.53 4.9
-3 0 24 0.41 0.05
-3 1 1 330.68 7.43
-3 1 2 34.77 0.79
-3 1 3 168.55 3.76
-3 1 4 239.99 5.35
-3 1 5 217.94 4.99
-3 1 6 0.31 0.02
-3 1 7 354.4 7.97
-3 1 8 8.53 0.19
-3 1 9 63.53 1.4
-3 1 10 3.7 0.09
-3 1 11 164.23 3.67
-3 1 12 55.31 1.23
-3 1 13 0.86 0.03
-3 1 14 0.33 0.02
-3 1 15 0.12 0.02
-3 1 16 32.4 0.74
-3 1 17 60.75 1.38
-3 1 18 39.65 0.89
-3 1 19 0.3 0.03
-3 1 20 2.05 0.06
-3 1 21 8.44 0.19
-3 1 22 2.2 0.06
-3 1 23 1.98 0.06
-3 1 24 0.25 0.06
-3 2 1 86.98 1.93
-3 2 2 184.01 4.11
-3 2 3 307.55 6.86
-3 2 4 28.09 0.62
-3 2 5 2.64 0.06
-3 2 6 141.19 3.14
-3 2 7 172.21 3.84
-3 2 8 293.52 6.55
-3 2 9 54.1 1.2
-3 2 10 11.55 0.26
-3 2 11 23.98 0.53
-3 2 12 2.19 0.05
-3 2 13 55.2 1.23
-3 2 14 0.96 0.03
-3 2 15 29.35 0.65
-3 2 16 14.89 0.33
-3 2 17 0.98 0.04
-3 2 18 44.31 0.97
-3 2 19 0.35 0.03
-3 2 20 3.51 0.09
-3 2 21 11.21 0.27
-3 2 23 0.15 0.02
-3 3 1 4.05 0.09
-3 3 2 258.81 5.78
-3 3 3 6.23 0.17
-3 3 4 47.26 1.05
-3 3 5 22.48 0.5
-3 3 6 0.3 0.02
-3 3 7 4.18 0.1
-3 3 8 18.56 0.41
-3 3 9 5.65 0.13
-3 3 10 21.01 0.47
-3 3 11 1.47 0.04
-3 3 12 44.42 0.98
-3 3 13 9.59 0.22
-3 3 14 72.25 1.59
-3 3 15 1.68 0.05
-3 3 17 1.22 0.04
-3 3 18 3.54 0.09
-3 3 19 10.84 0.25
-3 3 20 4.38 0.11
-3 3 21 7.03 0.17
-3 3 22 10.82 0.28
-3 4 1 21.61 0.48
-3 4 2 11.16 0.25
-3 4 3 60.56 1.34
-3 4 4 30.38 0.68
-3 4 5 0.4 0.02
-3 4 6 26.38 0.59
-3 4 7 17.35 0.39
-3 4 8 0.59 0.02
-3 4 9 0.56 0.02
-3 4 10 39.51 0.88
-3 4 11 3.99 0.1
-3 4 12 3.05 0.08
-3 4 13 33.09 0.74
-3 4 14 6.08 0.14
-3 4 16 4.05 0.1
-3 4 17 10.99 0.26
-3 4 18 4.38 0.11
-3 4 19 0.29 0.03
-3 4 20 9.75 0.24
-3 5 1 0.18 0.02
-3 5 2 2.41 0.06
-3 5 3 4.53 0.11
-3 5 4 9.73 0.22
-3 5 5 1.16 0.04
-3 5 6 37.77 0.84
-3 5 7 4.19 0.1
-3 5 8 0.58 0.03
-3 5 9 4.42 0.11
-3 5 10 4.61 0.11
-3 5 11 1.44 0.04
-3 5 12 12.99 0.29
-3 5 13 0.33 0.02
-3 5 14 1.79 0.05
-3 5 16 18.45 0.41
-3 5 17 1.08 0.04
-3 6 1 8.76 0.21
-3 6 2 1.95 0.07
-3 6 3 1.13 0.04
-3 6 4 1.4 0.04
-3 6 5 0.71 0.03
-3 6 6 0.95 0.03
-3 6 7 0.8 0.03
-3 6 8 0.14 0.02
-3 6 9 4.41 0.11
-3 6 10 3.28 0.08
-3 6 11 0.39 0.02
-3 6 12 4.33 0.11
-3 6 13 1.98 0.06
-3 7 1 0.91 0.13
-2 0 2 627.47 14.86
-2 0 6 178.69 4.14
-2 0 8 457.14 10.77
-2 0 10 191.05 4.33
-2 0 12 17.05 0.38
-2 0 14 57.71 1.25
-2 0 16 12.01 0.27
-2 0 18 5.15 0.13
-2 0 20 17.37 0.46
-2 0 22 4.61 0.13
-2 1 1 196.71 4.42
-2 1 2 571.07 12.65
-2 1 3 21.3 0.49
-2 1 4 373.04 8.33
-2 1 5 22.27 0.51
-2 1 6 5.73 0.15
-2 1 7 34.96 0.79
-2 1 8 293.74 6.56
-2 1 9 23.34 0.52
-2 1 10 33.56 0.76
-2 1 11 86.03 1.93
-2 1 12 9.8 0.22
-2 1 13 32.84 0.74
-2 1 14 19.2 0.44
-2 1 15 11.59 0.28
-2 1 16 1.06 0.04
-2 1 17 31.71 0.8
-2 1 18 8.84 0.2
-2 1 19 1.88 0.05
-2 1 20 1.02 0.04
-2 1 21 59.98 1.31
-2 1 22 11.5 0.26
-2 1 24 2.27 0.1
-2 2 1 155.9 3.52
-2 2 2 493.59 10.95
-2 2 3 9.9 0.23
-2 2 4 23.42 0.52
-2 2 5 3.39 0.08
-2 2 6 74.09 1.64
-2 2 7 34.97 0.78
-2 2 8 29.49 0.66
-2 2 9 17.42 0.39
-2 2 10 93.1 2.07
-2 2 11 13.9 0.31
-2 2 12 112.68 2.5
-2 2 13 31.85 0.71
-2 2 14 14.11 0.32
-2 2 15 2.27 0.06
-2 2 16 38.32 0.9
-2 2 17 56.66 1.24
-2 2 18 29.01 0.64
-2 2 19 8.63 0.2
-2 2 20 7.05 0.17
-2 2 21 0.6 0.03
-2 2 22 10.29 0.23
-2 2 23 11.18 0.25
-2 3 1 148.12 3.3
-2 3 2 70.11 1.55
-2 3 3 1.49 0.04
-2 3 4 9.51 0.21
-2 3 5 6.95 0.16
-2 3 6 376.33 8.41
-2 3 7 84.79 1.88
-2 3 8 26.76 0.6
-2 3 9 8.39 0.19
-2 3 10 23.32 0.52
-2 3 11 20.84 0.47
-2 3 12 88.64 1.97
-2 3 13 4.03 0.1
-2 3 14 5.04 0.12
-2 3 15 11.55 0.26
-2 3 16 33.56 0.74
-2 3 17 4.64 0.11
-2 3 18 9.72 0.23
-2 3 19 1.51 0.05
-2 3 20 15.86 0.37
-2 3 22 11.52 0.27
-2 4 1 17.11 0.38
-2 4 2 63.4 1.4
-2 4 3 34.26 0.76
-2 4 4 0.48 0.02
-2 4 5 36.03 0.8
-2 4 6 4 0.09
-2 4 7 38.48 0.85
-2 4 8 0.59 0.02
-2 4 9 0.28 0.02
-2 4 10 24.89 0.55
-2 4 11 18.33 0.41
-2 4 12 0.12 0.02
-2 4 13 10.89 0.25
-2 4 14 9.29 0.22
-2 4 15 10.88 0.25
-2 4 16 15.21 0.35
-2 4 17 11.17 0.25
-2 4 18 1.21 0.05
-2 4 19 0.25 0.03
-2 4 20 2.79 0.09
-2 5 1 0.34 0.02
-2 5 2 16.55 0.37
-2 5 3 3.41 0.08
-2 5 4 3.61 0.09
-2 5 5 4.19 0.1
-2 5 7 0.29 0.02
-2 5 8 1.17 0.04
-2 5 9 0.98 0.03
-2 5 10 3.49 0.09
-2 5 11 0.58 0.03
-2 5 12 0.91 0.03
-2 5 13 5.67 0.14
-2 5 14 2.61 0.07
-2 5 15 0.17 0.03
-2 5 16 13.84 0.31
-2 5 17 0.7 0.04
-2 6 1 0.65 0.03
-2 6 2 0.06 0.02
-2 6 3 15.96 0.35
-2 6 4 0.09 0.02
-2 6 5 9.51 0.22
-2 6 7 3.68 0.09
-2 6 8 2.01 0.06
-2 6 9 3 0.08
-2 6 10 0.09 0.02
-2 6 11 6.67 0.16
-2 6 12 0.43 0.03
-2 6 13 0.21 0.03
-2 7 1 6.76 0.16
-2 7 2 0.21 0.03
-2 7 3 0.22 0.03
-2 7 4 1.61 0.06
-2 7 5 0.31 0.06
-1 0 2 752.48 14.22
-1 0 4 809.07 37.36
-1 0 6 212.03 4.71
-1 0 8 505.36 11.68
-1 0 10 3.16 0.08
-1 0 12 114.96 2.63
-1 0 14 50.28 1.1
-1 0 16 23.36 0.5
-1 0 18 62.16 1.28
-1 0 20 44.74 0.95
-1 0 22 0.66 0.05
-1 0 24 22.88 0.96
-1 1 2 164.06 3.63
-1 1 3 353.28 7.78
-1 1 4 262.7 6.58
-1 1 5 1.11 0.04
-1 1 6 0.5 0.03
-1 1 7 424.38 9.85
-1 1 8 97.17 2.19
-1 1 9 177.45 4
-1 1 10 0.04 0.01
-1 1 11 76.02 1.7
-1 1 12 89.96 2.01
-1 1 13 5.78 0.13
-1 1 14 46.71 1.03
-1 1 15 10.78 0.25
-1 1 16 6.52 0.16
-1 1 17 1.82 0.05
-1 1 18 15.52 0.34
-1 1 19 9.99 0.23
-1 1 20 2.92 0.08
-1 1 21 14.19 0.32
-1 1 22 12.78 0.29
-1 1 23 1.82 0.06
-1 2 1 148.31 3.29
-1 2 2 8.74 0.22
-1 2 3 179.43 4.06
-1 2 4 234.2 5.22
-1 2 5 495.1 11.08
-1 2 6 19.31 0.43
-1 2 7 1.37 0.04
-1 2 8 48.08 1.08
-1 2 9 8.2 0.18
-1 2 10 191.65 4.31
-1 2 11 75.99 1.7
-1 2 12 35.1 0.78
-1 2 13 13.33 0.3
-1 2 14 1.32 0.04
-1 2 15 12.82 0.29
-1 2 16 0.06 0.02
-1 2 18 5.66 0.14
-1 2 19 4.38 0.11
-1 2 20 50.13 1.12
-1 2 21 1.1 0.04
-1 2 22 20.22 0.46
-1 3 1 0.12 0.01
-1 3 2 33.53 0.74
-1 3 3 14.15 0.32
-1 3 4 58.37 1.29
-1 3 5 0.82 0.03
-1 3 6 110.11 2.44
-1 3 7 1.83 0.05
-1 3 8 6.72 0.15
-1 3 9 1.25 0.03
-1 3 10 33.21 0.74
-1 3 11 43.52 0.97
-1 3 12 0.22 0.02
-1 3 13 1.17 0.04
-1 3 14 27.41 0.6
-1 3 15 6.41 0.15
-1 3 16 119.74 2.64
-1 3 17 12.49 0.28
-1 3 18 1.16 0.04
-1 3 19 4.05 0.11
-1 3 20 0.22 0.03
-1 3 21 13.89 0.31
-1 4 1 6.25 0.14
-1 4 2 10.15 0.23
-1 4 3 0.04 0.01
-1 4 4 0.44 0.02
-1 4 5 63.31 1.4
-1 4 6 85.6 1.92
-1 4 7 29.82 0.66
-1 4 8 8.11 0.19
-1 4 9 1.42 0.04
-1 4 11 3.02 0.07
-1 4 12 21.25 0.47
-1 4 13 0.36 0.02
-1 4 14 3.54 0.09
-1 4 15 39.15 0.86
-1 4 16 4.36 0.11
-1 4 17 10.78 0.25
-1 4 19 0.69 0.04
-1 4 20 10.01 0.24
-1 5 1 10.32 0.24
-1 5 2 74.64 1.64
-1 5 3 1.23 0.04
-1 5 4 5.05 0.12
-1 5 5 0.18 0.01
-1 5 6 32.77 0.72
-1 5 7 1.07 0.04
-1 5 8 0.89 0.03
-1 5 9 6.95 0.16
-1 5 10 15.25 0.34
-1 5 11 1.59 0.05
-1 5 12 14.49 0.33
-1 5 14 1.89 0.08
-1 5 15 1.12 0.05
-1 5 16 0.26 0.03
-1 5 17 0.54 0.03
-1 6 1 2.21 0.06
-1 6 2 7 0.16
-1 6 3 0.07 0.02
-1 6 4 1.77 0.06
-1 6 5 0.84 0.03
-1 6 6 9.74 0.22
-1 6 7 9.39 0.21
-1 6 8 2.73 0.07
-1 6 10 0.51 0.03
-1 6 12 0.13 0.03
-1 6 13 3.46 0.1
-1 7 1 1.58 0.05
-1 7 3 3.49 0.09
-1 7 4 3.68 0.1
-1 7 5 0.18 0.03
0 0 2 149.41 3.64
0 0 4 73.37 1.85
0 0 6 1001.67 23.94
0 0 8 292.36 6.83
0 0 10 406.77 9.07
0 0 12 14.77 0.32
0 0 14 54.94 1.19
0 0 16 11.53 0.26
0 0 18 1.63 0.13
0 0 20 11.77 0.27
0 0 22 17.75 0.39
0 1 1 471.98 10.53
0 1 2 94.95 2.1
0 1 3 18.89 0.43
0 1 4 1421.25 37.17
0 1 5 73.21 1.65
0 1 6 309.92 6.87
0 1 7 37.3 0.84
0 1 8 27.63 0.62
0 1 9 38.74 0.87
0 1 10 151.07 3.36
0 1 11 208.13 4.66
0 1 12 0.19 0.01
0 1 13 26.77 0.6
0 1 14 9.24 0.21
0 1 15 3.68 0.09
0 1 16 3.82 0.09
0 1 17 20.82 0.46
0 1 18 26.86 0.59
0 1 19 52.15 1.18
0 1 20 3.32 0.09
0 1 21 16.99 0.42
0 1 22 4.42 0.11
0 1 23 11.25 0.27
0 2 0 14.07 0.34
0 2 1 78.13 1.81
0 2 2 137.48 3.06
0 2 3 0.05 0.01
0 2 4 188.51 4.2
0 2 5 50.64 1.13
0 2 6 5.4 0.12
0 2 7 143.06 3.19
0 2 8 0.5 0.02
0 2 9 56.78 1.26
0 2 10 26.84 0.59
0 2 11 1.47 0.04
0 2 12 17.61 0.4
0 2 13 10.43 0.23
0 2 14 60.59 1.35
0 2 15 101.03 2.24
0 2 16 2.78 0.07
0 2 18 12.05 0.27
0 2 19 12.85 0.29
0 2 20 27.35 0.68
0 2 21 14.1 0.34
0 2 22 0.43 0.04
0 3 1 53.1 1.17
0 3 2 119.18 2.64
0 3 3 90.12 2
0 3 4 58.97 1.3
0 3 5 16.45 0.37
0 3 6 0.32 0.01
0 3 7 1.06 0.03
0 3 8 102.62 2.29
0 3 9 43.15 0.96
0 3 10 1.38 0.04
0 3 11 1.53 0.04
0 3 12 8.73 0.2
0 3 14 28.91 0.66
0 3 15 0.35 0.03
0 3 16 1.23 0.05
0 3 17 5.34 0.13
0 3 18 5.42 0.13
0 3 19 0.42 0.04
0 3 20 13.05 0.29
0 3 21 2.8 0.09
0 4 0 2.95 0.07
0 4 1 12.78 0.28
0 4 2 60.01 1.33
0 4 3 4.12 0.1
0 4 4 12.81 0.29
0 4 5 79.22 1.75
0 4 6 6.68 0.15
0 4 7 0.16 0.01
0 4 8 5.85 0.14
0 4 9 6.39 0.15
0 4 10 17.01 0.38
0 4 11 0.71 0.03
0 4 12 25.12 0.56
0 4 13 6.38 0.15
0 4 14 0.12 0.02
0 4 15 27.09 0.61
0 4 16 17.59 0.39
0 4 17 0.77 0.04
0 4 18 2.45 0.08
0 4 19 3.63 0.1
0 5 2 7.7 0.17
0 5 3 1.19 0.04
0 5 4 24.92 0.55
0 5 5 3.17 0.08
0 5 6 76.21 1.68
0 5 8 6.59 0.16
0 5 9 0.12 0.02
0 5 10 0.21 0.02
0 5 11 3.94 0.11
0 5 12 8.37 0.2
0 5 13 1.02 0.04
0 5 14 14.79 0.33
0 5 15 1.65 0.06
0 5 16 24.68 0.54
0 5 17 0.39 0.05
0 6 0 18 0.39
0 6 1 6.04 0.14
0 6 2 10.14 0.24
0 6 3 4.16 0.1
0 6 4 0.74 0.03
0 6 5 29.22 0.69
0 6 6 0.21 0.02
0 6 7 0.25 0.02
0 6 8 0.84 0.04
0 6 9 0.5 0.03
0 6 10 12.44 0.28
0 6 11 1.37 0.06
0 6 12 5.34 0.13
0 6 13 4.87 0.14
0 7 1 8.9 0.2
0 7 3 0.82 0.04
0 7 5 1 0.05
1 0 0 371.37 8.26
1 0 2 10.78 0.32
1 0 4 1639.02 17.98
1 0 6 225.15 5.09
1 0 8 72.26 1.59
1 0 10 687.33 15.25
1 0 12 6.42 0.18
1 0 14 89.03 2.06
1 0 16 13.31 0.33
1 0 18 91.18 2.04
1 0 20 97.53 1.75
1 0 22 4.45 0.13
1 1 1 40.62 0.92
1 1 2 438.26 10
1 1 3 776.3 19.52
1 1 4 68.84 1.53
1 1 5 119.57 2.68
1 1 6 218.7 4.87
1 1 7 18.99 0.43
1 1 8 95.86 2.14
1 1 9 196.12 4.38
1 1 10 75.97 1.69
1 1 11 0.06 0.01
1 1 12 2.04 0.05
1 1 13 7.19 0.17
1 1 14 132.26 2.92
1 1 15 4.32 0.1
1 1 16 24.23 0.56
1 1 17 3.81 0.1
1 1 18 4.3 0.12
1 1 19 12.03 0.27
1 1 20 5.43 0.13
1 1 21 10.16 0.23
1 1 22 3.11 0.09
1 2 0 338.88 7.51
1 2 1 279.83 6.22
1 2 2 0.06 0.02
1 2 3 362.92 8.43
1 2 4 20.46 0.46
1 2 5 93.5 2.1
1 2 6 165.15 3.71
1 2 7 84.59 1.88
1 2 8 6.07 0.14
1 2 9 7.55 0.17
1 2 10 4.68 0.11
1 2 11 9.11 0.2
1 2 12 15.48 0.35
1 2 13 28.52 0.63
1 2 14 6.75 0.15
1 2 15 0.9 0.03
1 2 16 5.97 0.14
1 2 17 4.3 0.11
1 2 18 0.15 0.03
1 2 19 6.2 0.15
1 2 20 0.53 0.04
1 2 21 2.55 0.09
1 2 22 12.26 0.29
1 3 0 19.73 0.44
1 3 1 32.47 0.72
1 3 2 48.63 1.08
1 3 3 0.07 0.01
1 3 4 8.34 0.19
1 3 5 22.69 0.5
1 3 6 45.31 1
1 3 7 19.62 0.44
1 3 8 26.24 0.58
1 3 9 10.36 0.24
1 3 10 0.75 0.03
1 3 11 15.83 0.35
1 3 12 35.34 0.78
1 3 13 29.35 0.64
1 3 14 15.36 0.34
1 3 15 0.98 0.04
1 3 16 0.37 0.03
1 3 17 1.67 0.06
1 3 18 38.88 0.93
1 3 19 16.17 0.36
1 3 20 0.29 0.03
1 4 0 18.67 0.41
1 4 1 0.62 0.02
1 4 2 58.35 1.28
1 4 3 15.06 0.33
1 4 4 3.02 0.07
1 4 5 54.05 1.21
1 4 6 8.39 0.19
1 4 7 1.36 0.04
1 4 8 60.35 1.36
1 4 9 12.61 0.28
1 4 10 0.05 0.02
1 4 11 1.45 0.04
1 4 12 1.54 0.05
1 4 13 8.24 0.19
1 4 14 1.82 0.07
1 4 15 19.35 0.43
1 4 16 13.26 0.33
1 4 17 4.34 0.11
1 4 18 0.88 0.04
1 4 19 4.36 0.14
1 5 0 4.46 0.11
1 5 1 0.09 0.02
1 5 2 12.9 0.29
1 5 3 0.67 0.03
1 5 4 94.46 2.09
1 5 5 4.19 0.1
1 5 6 0.16 0.02
1 5 7 1.01 0.04
1 5 8 8.14 0.19
1 5 9 0.82 0.03
1 5 10 2.31 0.06
1 5 11 0.9 0.04
1 5 12 23.01 0.56
1 5 13 0.39 0.03
1 5 14 20.35 0.45
1 5 15 0.24 0.03
1 5 16 7.25 0.18
1 6 0 6.68 0.16
1 6 1 5.9 0.14
1 6 2 3 0.08
1 6 3 0.61 0.03
1 6 4 5.37 0.13
1 6 5 11.92 0.29
1 6 6 3.95 0.1
1 6 7 0.27 0.03
1 6 8 13.15 0.29
1 6 9 11.89 0.27
1 6 10 6.73 0.16
1 6 11 0.24 0.03
1 6 12 0.1 0.03
1 7 0 2.2 0.06
1 7 1 1.73 0.05
1 7 2 0.78 0.04
1 7 3 0.49 0.03
1 7 4 1.64 0.07
2 0 0 26.12 0.6
2 0 4 8.49 0.24
2 0 6 4.11 0.1
2 0 8 106.81 2.35
2 0 10 35.66 0.78
2 0 12 80.03 1.74
2 0 14 103.66 2.22
2 0 16 37.39 0.81
2 0 18 5.63 0.18
2 0 20 19.97 0.56
2 0 22 16.26 0.45
2 1 0 380.13 8.5
2 1 1 70.52 1.6
2 1 2 2.92 0.12
2 1 3 472.91 10.57
2 1 4 9.62 0.25
2 1 5 20.68 0.47
2 1 6 429.4 9.54
2 1 7 30.9 0.69
2 1 8 48.77 1.08
2 1 9 182.93 4.09
2 1 10 44.16 0.98
2 1 11 1.8 0.05
2 1 12 25.32 0.57
2 1 13 124.1 2.73
2 1 14 3.24 0.08
2 1 15 5.63 0.14
2 1 16 0.48 0.03
2 1 17 4.57 0.15
2 1 18 22.52 0.54
2 1 19 35.4 0.9
2 1 20 26.43 0.57
2 1 21 9.87 0.23
2 1 22 0.65 0.05
2 2 0 519.51 11.55
2 2 1 1.84 0.05
2 2 2 3.09 0.07
2 2 3 17.59 0.39
2 2 4 1.23 0.03
2 2 5 154.92 3.45
2 2 6 10.73 0.24
2 2 7 58.51 1.3
2 2 8 57.64 1.27
2 2 9 81.12 1.79
2 2 10 78.97 1.73
2 2 11 33.25 0.74
2 2 12 0.47 0.03
2 2 13 37.4 0.82
2 2 14 1.66 0.05
2 2 15 13.18 0.29
2 2 16 13.74 0.31
2 2 17 48.46 1.13
2 2 18 2.54 0.08
2 2 20 2.04 0.07
2 3 0 13.25 0.29
2 3 1 30.63 0.68
2 3 2 93.66 2.07
2 3 3 4.68 0.11
2 3 4 223.53 4.99
2 3 5 8.22 0.19
2 3 6 2.46 0.06
2 3 7 30.59 0.68
2 3 8 1.74 0.05
2 3 9 1.39 0.04
2 3 10 2.61 0.07
2 3 11 0.25 0.02
2 3 12 3.98 0.1
2 3 13 0.14 0.02
2 3 14 8.73 0.23
2 3 15 5.3 0.15
2 3 16 3.91 0.1
2 3 17 0.23 0.04
2 3 18 1.51 0.06
2 3 19 0.28 0.04
2 3 20 0.33 0.04
2 4 0 13.23 0.29
2 4 2 2.11 0.05
2 4 3 57.35 1.27
2 4 4 56.3 1.25
2 4 5 18.97 0.42
2 4 6 3.71 0.09
2 4 7 19 0.43
2 4 8 5.4 0.13
2 4 9 6.93 0.16
2 4 10 1.71 0.06
2 4 11 0.23 0.02
2 4 12 35.91 0.8
2 4 13 12.04 0.27
2 4 14 8.19 0.2
2 4 15 5.75 0.14
2 4 17 6.54 0.16
2 4 18 11.66 0.27
2 5 0 11.85 0.26
2 5 1 3.87 0.1
2 5 2 1.95 0.05
2 5 3 1.47 0.04
2 5 4 2.96 0.07
2 5 5 1.26 0.04
2 5 6 1.92 0.06
2 5 7 0.26 0.02
2 5 8 74.01 1.64
2 5 9 5.86 0.14
2 5 10 3.61 0.09
2 5 11 0.31 0.02
2 5 12 0.83 0.04
2 5 13 1.75 0.06
2 5 14 19.29 0.43
2 5 15 1.26 0.06
2 6 0 0.89 0.04
2 6 1 0.57 0.03
2 6 2 7.38 0.19
2 6 3 13.31 0.3
2 6 4 7.46 0.18
2 6 5 0.22 0.02
2 6 6 0.29 0.02
2 6 7 5.62 0.13
2 6 8 0.78 0.04
2 6 9 0.48 0.03
2 6 11 3.53 0.1
2 7 0 1.24 0.04
2 7 1 2.44 0.07
2 7 2 0.42 0.03
2 7 3 2.2 0.08
3 0 0 403.54 10.59
3 0 2 189.98 4.43
3 0 4 22.23 0.48
3 0 6 580.35 12.8
3 0 8 10.98 0.25
3 0 10 1.28 0.06
3 0 12 288 6.51
3 0 14 3.87 0.12
3 0 16 11.44 0.35
3 0 18 10.45 0.25
3 0 20 38.36 0.85
3 1 0 114.1 2.55
3 1 1 440.57 10.54
3 1 2 442.16 10.18
3 1 3 42.79 0.97
3 1 4 11.89 0.27
3 1 5 5.31 0.13
3 1 6 4.84 0.11
3 1 7 29.8 0.66
3 1 8 39.36 0.87
3 1 9 1.48 0.05
3 1 10 88.46 1.95
3 1 11 14.26 0.32
3 1 12 11.47 0.26
3 1 13 37.76 0.86
3 1 14 0.67 0.03
3 1 15 3.18 0.09
3 1 16 60.97 1.37
3 1 17 1.42 0.07
3 1 18 3.03 0.09
3 1 19 8.01 0.26
3 1 20 0.45 0.04
3 1 21 4.48 0.13
3 2 0 2.01 0.05
3 2 1 8.11 0.18
3 2 2 281.12 6.28
3 2 3 105.76 2.35
3 2 4 93.81 2.08
3 2 5 63.66 1.41
3 2 6 45.96 1.03
3 2 7 3.94 0.09
3 2 8 106.56 2.38
3 2 9 2.34 0.06
3 2 10 11.62 0.27
3 2 11 9.6 0.22
3 2 12 22.68 0.54
3 2 13 2.9 0.08
3 2 14 8.06 0.19
3 2 15 1.24 0.05
3 2 16 1.94 0.06
3 2 17 7.23 0.19
3 2 18 21.52 0.58
3 2 19 15.44 0.37
3 2 20 6.7 0.17
3 3 0 75.52 1.67
3 3 1 2.15 0.05
3 3 2 21.48 0.48
3 3 3 101.99 2.26
3 3 4 110.41 2.44
3 3 5 0.18 0.01
3 3 6 21.15 0.48
3 3 7 2.21 0.06
3 3 8 119.67 2.64
3 3 9 37.45 0.84
3 3 10 0.3 0.02
3 3 11 16.65 0.38
3 3 12 33.48 0.75
3 3 13 12.48 0.33
3 3 14 50.94 1.16
3 3 15 5.1 0.12
3 3 16 8.37 0.22
3 3 17 7.57 0.19
3 3 18 2.29 0.1
3 3 19 0.86 0.07
3 4 0 6.5 0.15
3 4 1 0.33 0.02
3 4 2 2.37 0.06
3 4 3 18.96 0.42
3 4 4 39.76 0.87
3 4 5 0.27 0.02
3 4 6 0.29 0.02
3 4 7 56.94 1.25
3 4 8 21.05 0.46
3 4 9 9.92 0.22
3 4 10 11.49 0.27
3 4 12 1.82 0.06
3 4 13 13.44 0.3
3 4 14 3.26 0.09
3 4 16 2.5 0.08
3 4 17 17.15 0.42
3 5 0 18.23 0.42
3 5 1 9.29 0.21
3 5 2 3.22 0.08
3 5 4 0.09 0.02
3 5 5 1.87 0.05
3 5 6 16.12 0.36
3 5 7 4.72 0.11
3 5 8 1.6 0.05
3 5 9 0.44 0.03
3 5 12 1.68 0.06
3 5 13 0.41 0.04
3 5 14 1.7 0.08
3 6 0 0.38 0.03
3 6 1 1.02 0.05
3 6 2 1.34 0.05
3 6 3 1 0.04
3 6 4 1.23 0.05
3 6 5 3.45 0.09
3 6 6 0.78 0.03
3 6 7 15.27 0.34
3 6 8 0.26 0.03
3 6 9 1.11 0.05
3 6 10 2.4 0.07
4 0 0 45.67 1.01
4 0 4 38.67 0.88
4 0 6 13.09 0.29
4 0 8 1.05 0.04
4 0 10 4.49 0.11
4 0 12 3.02 0.09
4 0 14 0.1 0.03
4 0 16 52.32 1.04
4 0 18 0.19 0.04
4 1 0 2.44 0.06
4 1 1 154.89 3.45
4 1 2 186.98 4.17
4 1 3 212.88 4.75
4 1 4 3.03 0.07
4 1 5 91.86 2.08
4 1 6 40.88 0.91
4 1 7 8.45 0.19
4 1 8 29.29 0.64
4 1 9 21.55 0.49
4 1 10 0.3 0.02
4 1 11 132.64 2.91
4 1 12 12.01 0.27
4 1 13 6.31 0.15
4 1 14 2.55 0.07
4 1 15 9.78 0.27
4 1 16 3.4 0.09
4 1 17 8.97 0.23
4 1 18 0.47 0.06
4 1 19 1.48 0.06
4 1 20 18.07 0.4
4 2 0 121.82 2.71
4 2 1 77.26 1.71
4 2 2 302.75 6.76
4 2 3 56.77 1.26
4 2 4 15.96 0.35
4 2 5 0.62 0.02
4 2 6 7.15 0.16
4 2 7 159.15 3.54
4 2 8 0.84 0.05
4 2 9 14.86 0.33
4 2 10 42.54 0.95
4 2 11 1.32 0.05
4 2 12 104.82 2.77
4 2 13 27.92 0.66
4 2 14 11.09 0.25
4 2 15 27.64 0.6
4 2 16 2.4 0.07
4 2 17 5.25 0.14
4 2 18 5.85 0.15
4 2 19 3.06 0.09
4 3 0 6.05 0.14
4 3 1 38.09 0.84
4 3 2 1.06 0.03
4 3 3 1.48 0.04
4 3 4 50.45 1.11
4 3 5 3.74 0.09
4 3 6 111.18 2.46
4 3 7 0.32 0.02
4 3 8 56.69 1.27
4 3 9 6.37 0.15
4 3 10 10.25 0.23
4 3 11 0.4 0.03
4 3 13 13.4 0.37
4 3 16 24.45 0.55
4 3 17 3.08 0.1
4 3 18 33.49 1.65
4 4 0 69.17 1.53
4 4 1 0.52 0.03
4 4 2 0.58 0.02
4 4 3 2.88 0.07
4 4 4 1.68 0.05
4 4 5 21.21 0.47
4 4 6 14.07 0.31
4 4 7 41.63 0.91
4 4 8 21.66 0.48
4 4 9 1.01 0.04
4 4 10 1.39 0.05
4 4 11 0.47 0.03
4 4 12 0.31 0.04
4 4 13 0.64 0.05
4 4 14 21.65 0.47
4 4 15 5.45 0.14
4 4 16 0.23 0.04
4 5 0 0.19 0.02
4 5 1 2.04 0.06
4 5 2 0.91 0.03
4 5 3 3.58 0.09
4 5 4 23.69 0.52
4 5 5 2.14 0.06
4 5 6 9.98 0.23
4 5 7 0.14 0.02
4 5 8 2.17 0.06
4 5 10 15.54 0.35
4 5 11 7.7 0.19
4 5 12 2.13 0.08
4 6 0 1.02 0.04
4 6 1 3.77 0.1
4 6 2 0.56 0.03
4 6 3 0.68 0.03
4 6 4 0.14 0.02
4 6 5 2.84 0.07
4 6 6 0.08 0.02
4 6 7 0.91 0.04
4 6 8 2.36 0.07
5 0 0 64.85 1.42
5 0 2 657.94 15.4
5 0 4 12.14 0.27
5 0 6 6.48 0.15
5 0 8 150.94 3.29
5 0 10 74.41 1.64
5 0 12 17.63 0.46
5 0 14 16.36 0.62
5 0 16 16.05 1
5 0 18 1.89 0.12
5 1 0 0.4 0.02
5 1 1 111.09 2.49
5 1 2 59.57 1.33
5 1 3 1.81 0.05
5 1 4 40.27 0.9
5 1 5 1.27 0.04
5 1 6 83.61 1.86
5 1 7 5.21 0.12
5 1 8 1.49 0.04
5 1 9 1.99 0.06
5 1 10 0.78 0.04
5 1 11 30.03 0.66
5 1 12 57.49 1.34
5 1 13 17.33 0.42
5 1 14 0.34 0.03
5 1 15 18.66 0.44
5 1 16 0.13 0.03
5 1 17 0.1 0.03
5 1 18 5.88 0.19
5 1 19 0.92 0.07
5 2 0 25.33 0.56
5 2 1 26.03 0.58
5 2 2 3.48 0.08
5 2 3 24.82 0.55
5 2 4 62.51 1.38
5 2 5 15.46 0.35
5 2 6 49.76 1.13
5 2 7 4.41 0.11
5 2 8 14.45 0.32
5 2 9 11.06 0.26
5 2 10 41.69 0.93
5 2 11 11.09 0.26
5 2 12 22.52 0.52
5 2 14 6.43 0.17
5 2 16 12.26 0.29
5 2 17 25.5 0.54
5 2 18 3.12 0.1
5 3 0 126.21 2.8
5 3 1 27.77 0.62
5 3 2 5.64 0.13
5 3 3 4.72 0.11
5 3 4 4.04 0.09
5 3 5 42.45 0.94
5 3 6 94.21 2.08
5 3 7 4.91 0.12
5 3 8 3.45 0.09
5 3 9 0.32 0.03
5 3 10 39.38 0.89
5 3 11 21.8 0.49
5 3 12 0.65 0.04
5 3 13 4.54 0.13
5 3 14 30.63 0.71
5 3 15 0.85 0.05
5 3 16 34.45 0.8
5 4 0 9.21 0.21
5 4 1 4.79 0.11
5 4 2 0.09 0.01
5 4 3 1.32 0.04
5 4 4 26.5 0.59
5 4 5 19.6 0.43
5 4 6 9.02 0.21
5 4 7 19.41 0.43
5 4 9 7.96 0.18
5 4 10 16.23 0.36
5 4 11 2.6 0.08
5 4 12 0.6 0.04
5 4 14 2.5 0.09
5 5 0 5.37 0.13
5 5 1 0.09 0.02
5 5 2 5.04 0.12
5 5 3 1.23 0.04
5 5 4 3.61 0.09
5 5 5 0.38 0.03
5 5 6 6.66 0.16
5 5 7 1.32 0.05
5 5 8 7.66 0.18
5 5 9 0.34 0.03
5 5 10 0.26 0.06
5 6 0 7.34 0.17
5 6 1 4.79 0.12
5 6 2 4.4 0.11
5 6 3 2.16 0.06
5 6 4 1.72 0.06
5 6 5 8.09 0.19
5 6 6 3.15 0.09
6 0 0 237.83 5.4
6 0 2 30.18 0.73
6 0 4 1.58 0.05
6 0 6 47.05 1.06
6 0 8 15.95 0.47
6 0 10 33.94 0.7
6 0 12 97.21 2.66
6 0 14 4.18 0.13
6 0 16 2.34 0.11
6 1 0 0.62 0.02
6 1 1 187.98 4.24
6 1 2 62.28 1.4
6 1 3 23.07 0.52
6 1 4 56.37 1.27
6 1 5 60.55 1.36
6 1 6 21.71 0.49
6 1 7 12.32 0.29
6 1 8 43.68 0.99
6 1 9 35.6 0.81
6 1 10 0.34 0.03
6 1 11 32.64 0.84
6 1 12 0.7 0.04
6 1 13 14.16 0.35
6 1 14 0.07 0.02
6 1 15 2.06 0.07
6 1 16 27.07 0.73
6 1 17 0.36 0.03
6 2 0 0.09 0.01
6 2 1 9.81 0.22
6 2 2 0.07 0.01
6 2 3 14.19 0.32
6 2 4 49.54 1.09
6 2 5 99.44 2.2
6 2 6 2.25 0.06
6 2 7 1.15 0.04
6 2 8 5.48 0.13
6 2 9 35.39 0.8
6 2 10 1.55 0.05
6 2 11 5.84 0.15
6 2 12 3.4 0.09
6 2 13 7.23 0.17
6 2 14 34.76 0.87
6 2 15 15.98 0.46
6 2 16 8.18 0.22
6 3 0 0.46 0.1
6 3 1 0.06 0.01
6 3 2 0.8 0.03
6 3 3 0.87 0.03
6 3 4 0.29 0.02
6 3 5 0.15 0.02
6 3 6 0.22 0.02
6 3 7 5.22 0.12
6 3 8 6.37 0.15
6 3 9 3.7 0.09
6 3 10 33.5 0.72
6 3 11 1.76 0.06
6 3 12 1.27 0.05
6 3 13 0.7 0.04
6 3 15 12.92 0.3
6 4 0 17.29 0.39
6 4 1 0.05 0.02
6 4 2 26.85 0.6
6 4 3 0.31 0.02
6 4 4 6.49 0.15
6 4 5 14.74 0.33
6 4 6 0.8 0.04
6 4 7 1.99 0.07
6 4 8 0.13 0.02
6 4 9 7.81 0.18
6 4 10 18.89 0.46
6 4 11 1.75 0.08
6 4 12 0.28 0.04
6 5 0 27.71 0.63
6 5 1 4.38 0.11
6 5 2 0.21 0.02
6 5 3 0.69 0.05
6 5 4 15.79 0.36
6 5 6 46.99 1.3
6 5 7 2.98 0.11
6 5 8 0.67 0.07
6 5 9 1.55 0.07
6 6 0 12.61 0.29
6 6 1 2.15 0.06
6 6 2 5.02 0.12
6 6 3 5.71 0.14
7 0 0 111.69 2.54
7 0 2 36.2 0.78
7 0 4 273.82 6.34
7 0 6 1.16 0.05
7 0 8 44.57 1.16
7 0 10 60.95 1.29
7 0 12 17.88 0.39
7 0 14 12.43 0.38
7 0 16 8.79 0.22
7 1 0 84.88 1.9
7 1 1 1.18 0.03
7 1 2 0.19 0.01
7 1 3 7.57 0.17
7 1 4 35.91 0.8
7 1 5 41.46 0.94
7 1 6 0.94 0.04
7 1 7 1.43 0.04
7 1 8 47.88 1.05
7 1 9 0.07 0.02
7 1 10 3.38 0.09
7 1 11 16.82 0.39
7 1 12 16.18 0.36
7 1 13 15.88 0.39
7 1 14 24.97 0.55
7 1 15 23.16 0.59
7 2 0 36.8 0.82
7 2 1 11.22 0.25
7 2 2 6.68 0.15
7 2 3 4.97 0.12
7 2 4 0.57 0.03
7 2 5 0.85 0.03
7 2 6 6.05 0.14
7 2 7 3.34 0.09
7 2 8 7.48 0.17
7 2 9 21.43 0.47
7 2 10 0.96 0.04
7 2 11 10.45 0.28
7 2 12 0.34 0.03
7 2 13 4.23 0.13
7 2 14 7.08 0.17
7 2 15 12.06 0.28
7 3 0 0.62 0.03
7 3 1 28.83 0.64
7 3 2 23.22 0.51
7 3 3 15.82 0.35
7 3 4 14.6 0.32
7 3 5 1.04 0.04
7 3 6 6.81 0.16
7 3 7 3.48 0.09
7 3 8 12.84 0.32
7 3 9 10.36 0.24
7 3 10 1.91 0.06
7 3 12 3.66 0.1
7 3 13 1.68 0.07
7 4 0 10.05 0.24
7 4 1 1.53 0.05
7 4 2 1.77 0.05
7 4 3 1.17 0.04
7 4 4 2.65 0.08
7 4 5 21.45 0.47
7 4 6 31.34 0.69
7 4 7 0.12 0.03
7 4 9 10.64 0.25
7 4 10 0.32 0.04
7 5 0 14.07 0.32
7 5 1 0.08 0.02
7 5 2 13.01 0.29
7 5 3 1.33 0.05
7 5 4 2.61 0.08
7 5 6 1.14 0.05
7 5 7 0.26 0.04
8 0 0 28.03 0.61
8 0 2 15.49 0.34
8 0 4 66.65 1.42
8 0 6 4.62 0.12
8 0 8 29.56 0.62
8 0 10 0.91 0.06
8 0 12 25.7 0.61
8 0 14 84.79 1.75
8 1 1 0.44 0.02
8 1 2 2.18 0.07
8 1 3 87.39 1.92
8 1 4 34.05 0.75
8 1 6 4.26 0.1
8 1 7 0.3 0.02
8 1 8 19.68 0.45
8 1 9 9.79 0.25
8 1 10 18.83 0.42
8 1 11 6.24 0.15
8 1 12 4.63 0.12
8 1 13 11.66 0.26
8 2 0 43.76 0.97
8 2 1 21.97 0.51
8 2 2 0.16 0.01
8 2 3 5.16 0.13
8 2 4 14.53 0.32
8 2 5 7.65 0.18
8 2 7 35.97 0.81
8 2 8 4.4 0.12
8 2 9 0.16 0.03
8 2 10 15.77 0.36
8 2 11 0.13 0.03
8 2 13 4.02 0.12
8 3 0 18.18 0.41
8 3 1 0.2 0.02
8 3 2 9.71 0.22
8 3 3 0.6 0.03
8 3 4 11.1 0.25
8 3 5 18.27 0.43
8 3 6 14.68 0.35
8 3 7 0.2 0.03
8 3 8 3.89 0.1
8 3 9 0.09 0.02
8 3 10 2.77 0.08
8 3 11 6.02 0.15
8 4 1 2.32 0.07
8 4 2 14.65 0.35
8 4 3 2.62 0.07
8 4 4 2.48 0.07
8 4 5 2.77 0.08
8 4 6 3.84 0.1
8 4 7 4.55 0.11
8 5 0 1.13 0.05
8 5 1 0.22 0.03
8 5 2 6.78 0.16
8 5 3 4.01 0.12
8 5 4 0.95 0.07
9 0 0 18.78 0.45
9 0 2 47.76 1.04
9 0 4 4.68 0.13
9 0 6 28.15 0.63
9 0 10 14.23 0.36
9 0 12 9.02 0.23
9 1 0 34.16 0.75
9 1 1 0.23 0.02
9 1 2 4.85 0.12
9 1 3 27.17 0.62
9 1 4 2.65 0.07
9 1 5 6.32 0.15
9 1 6 7.68 0.18
9 1 7 13.31 0.3
9 1 8 1.73 0.06
9 1 9 2.07 0.07
9 1 10 9.36 0.22
9 1 11 0.2 0.03
9 2 0 1.8 0.05
9 2 1 3.64 0.09
9 2 2 37.3 0.87
9 2 3 5.28 0.13
9 2 4 37.08 0.81
9 2 5 3.38 0.09
9 2 6 3.1 0.1
9 2 7 1.77 0.06
9 2 8 2.23 0.07
9 2 9 15.73 0.44
9 2 10 2.08 0.09
9 3 0 2.37 0.07
9 3 1 6.62 0.16
9 3 2 2.52 0.07
9 3 3 14.65 0.35
9 3 4 6.76 0.17
9 3 5 1.41 0.05
9 3 6 16.71 0.38
9 3 7 0.33 0.03
9 3 8 16.63 0.38
9 4 1 2.45 0.07
9 4 2 13.6 0.3
9 4 5 0.32 0.03
10 0 0 8.17 0.19
10 0 2 3.02 0.08
10 0 4 14.68 0.33
10 0 6 17.9 0.41
10 0 8 1.19 0.07
10 1 0 9.84 0.24
10 1 1 32.82 0.75
10 1 3 8.63 0.2
10 1 4 9.73 0.22
10 1 5 3.66 0.09
10 1 6 8 0.21
10 1 8 1.38 0.05
10 1 9 1.13 0.05
10 2 0 9.62 0.22
10 2 1 1.68 0.05
10 2 2 29.48 0.65
10 2 3 7.93 0.19
10 2 4 1.62 0.06
10 2 5 10.13 0.25
10 2 6 7.86 0.19
10 2 7 3.92 0.1
10 2 8 3.42 0.17
10 3 0 0.81 0.04
10 3 1 1.42 0.05
10 3 2 19.04 0.45
10 3 3 3.98 0.1
10 3 4 3.35 0.09
10 3 5 0.22 0.03
10 4 0 2.61 0.08
10 4 1 5.24 0.16
11 0 0 33.89 0.74
11 0 2 25.4 0.61
11 0 6 2.46 0.09
11 1 0 0.09 0.02
11 1 1 3.97 0.1
11 1 2 8.43 0.19
11 1 3 11.7 0.27
11 1 4 1.77 0.06
11 1 5 12.95 0.29
11 2 0 0.14 0.02
11 2 1 12.26 0.3
11 2 3 1 0.04
11 2 4 7.07 0.21
11 3 0 19.99 0.51
12 0 0 1.55 0.06
12 1 0 9.05 0.21
