#------------------------------------------------------------------------------
#$Date: 2020-04-10 08:32:09 +0300 (Fri, 10 Apr 2020) $
#$Revision: 250647 $
#$URL: file:///home/coder/svn-repositories/cod/cif/2/02/20/2022068.cif $
#------------------------------------------------------------------------------
#
# This file is available in the Crystallography Open Database (COD),
# http://www.crystallography.net/. The original data for this entry
# were provided by IUCr Journals, http://journals.iucr.org/.
#
# The file may be used within the scientific community so long as
# proper attribution is given to the journal article from which the
# data were obtained.
#
data_2022068
loop_
_publ_author_name
'Jha, Kunal Kumar'
'Gruza, Barbara'
'Kumar, Prashant'
'Chodkiewicz, Michal Leszek'
'Dominiak, Paulina Maria'
_publ_section_title
;
 TAAM: a reliable and user friendly tool for hydrogen-atom location using
 routine X-ray diffraction data
;
_journal_issue                   3
_journal_name_full
'Acta Crystallographica Section B Structural Science, Crystal Engineering and Materials'
_journal_paper_doi               10.1107/S2052520620002917
_journal_volume                  76
_journal_year                    2020
_chemical_formula_moiety         'C H O2, H2 O'
_chemical_formula_sum            'C H3 O3'
_chemical_formula_weight         63.03
_space_group_crystal_system      monoclinic
_space_group_IT_number           14
_space_group_name_Hall           '-P 2ybc'
_space_group_name_H-M_alt        'P 1 21/c 1'
_symmetry_Int_Tables_number      14
_audit_creation_date             2019-09-27
_audit_creation_method
;
Olex2 1.2
(compiled 2018.05.29 svn.r3508 for OlexSys, GUI svn.r5506)
;
_cell_angle_alpha                90.00
_cell_angle_beta                 103.901(2)
_cell_angle_gamma                90.00
_cell_formula_units_Z            4
_cell_length_a                   6.0910(3)
_cell_length_b                   3.4928(2)
_cell_length_c                   11.8372(6)
_cell_measurement_temperature    100(1)
_cell_volume                     244.46(2)
_computing_molecular_graphics    'Olex2 (Dolomanov et al., 2009)'
_computing_publication_material  'Olex2 (Dolomanov et al., 2009)'
_computing_structure_refinement  'olex2.refine (Bourhis et al., 2015)'
_diffrn_ambient_temperature      100(1)
_diffrn_measured_fraction_theta_full 0.9611
_diffrn_measured_fraction_theta_max 0.9611
_diffrn_measurement_device_type  'APEX II CCD detector'
_diffrn_radiation_type           'Mo K\a'
_diffrn_radiation_wavelength     0.71073
_diffrn_reflns_av_R_equivalents  0.0000
_diffrn_reflns_av_unetI/netI     0.0257
_diffrn_reflns_limit_h_max       13
_diffrn_reflns_limit_h_min       -14
_diffrn_reflns_limit_k_max       8
_diffrn_reflns_limit_k_min       0
_diffrn_reflns_limit_l_max       27
_diffrn_reflns_limit_l_min       0
_diffrn_reflns_number            2588
_diffrn_reflns_theta_full        26.4991
_diffrn_reflns_theta_max         26.50
_diffrn_reflns_theta_min         3.45
_exptl_absorpt_coefficient_mu    0.181
_exptl_crystal_density_diffrn    1.7125
_exptl_crystal_F_000             132.1419
_refine_diff_density_max         0.0895
_refine_diff_density_min         -0.1012
_refine_diff_density_rms         0.0289
_refine_ls_d_res_high            0.7965
_refine_ls_d_res_low             5.9126
_refine_ls_goodness_of_fit_ref   1.2518
_refine_ls_hydrogen_treatment    refall
_refine_ls_matrix_type           full
_refine_ls_number_constraints    0
_refine_ls_number_parameters     64
_refine_ls_number_reflns         494
_refine_ls_number_restraints     0
_refine_ls_restrained_S_all      1.2518
_refine_ls_R_factor_all          0.0123
_refine_ls_R_factor_gt           0.0123
_refine_ls_shift/su_max          0.0000
_refine_ls_shift/su_mean         0.0000
_refine_ls_structure_factor_coef Fsqd
_refine_ls_weighting_details
'w=1/[\s^2^(Fo^2^)+(0.0000P)^2^+0.0097P] where P=(Fo^2^+2Fc^2^)/3'
_refine_ls_weighting_scheme      calc
_refine_ls_wR_factor_gt          0.0370
_refine_ls_wR_factor_ref         0.0370
_reflns_Friedel_coverage         0.0
_reflns_limit_h_max              7
_reflns_limit_h_min              -7
_reflns_limit_k_max              4
_reflns_limit_k_min              0
_reflns_limit_l_max              14
_reflns_limit_l_min              0
_reflns_number_gt                494
_reflns_number_total             494
_reflns_threshold_expression     I>=2u(I)
_iucr_refine_instructions_details
;
TITL oxa03
CELL 0.71073 6.091 3.4928 11.8372 90 103.901 90
ZERR 4 0 0 0 0 0 0
LATT 1
SYMM -X,0.5+Y,0.5-Z
SFAC C H O
UNIT 4 12 12

FREE O3 H1
ACTA 
BOND $H
OMIT -10 53
WGHT 0 0.00972
FVAR 1.013799
REM <olex2.extras>
REM <HklSrc "%.\\864414077256b6af1f3d621fc1702d42.hkl">
REM </olex2.extras>

O1    3     0.43467  0.44433  0.34994  11.00000  0.01326  0.01825  0.01000 =
 -0.00062  0.00323  0.00390 
O2    3     0.24267  0.74227  0.46363  11.00000  0.01169  0.01840  0.00928 =
 -0.00075  0.00142  0.00503 
C1    1     0.40300  0.55880  0.44785  11.00000  0.00923  0.01210  0.00941 =
 0.00028  0.00102  0.00159 
O3    3     0.12988  0.63108  0.17818  11.00000  0.01083  0.01782  0.01039 =
 0.00115  0.00094 -0.00065 
H3a   2     0.01147  0.46236  0.15065  11.00000  0.02317  0.03062  0.02522 =
 0.00149  0.00765 -0.01455 
H3b   2     0.19013  0.69299  0.11341  11.00000  0.01815  0.03593  0.01902 =
 0.00431  0.01575 -0.00391 
H1    2     0.30080  0.52062  0.28123  11.00000  0.04030  0.03182  0.04449 =
 -0.01401  0.03003 -0.00905 
HKLF 4

END
Q1 1 0.45 0.333333 0.425 11 0.05 0.09
Q2 1 0 0.5 0.5 11 0.05 0.08
Q3 1 0.5 1 0.5 11 0.05 0.08
Q4 1 0.65 0.666667 0.325 11 0.05 0.07
Q5 1 0.35 0.833333 0.525 11 0.05 0.07
Q6 1 0.25 1 0.3 11 0.05 0.07
Q7 1 0.2 0.666667 0.25 11 0.05 0.06
Q8 1 0.55 0.166667 0.375 11 0.05 0.06
Q9 1 -0.1 0.833333 0.075 11 0.05 0.06
Q10 1 0.2 0.333333 0.225 11 0.05 0.06
Q11 1 0.15 0.833333 0.4 11 0.05 0.05
Q12 1 0.25 0.833333 0.075 11 0.05 0.05
Q13 1 0 0.166667 0.15 11 0.05 0.04
Q14 1 0.35 0.5 0.275 11 0.05 0.03
Q15 1 0.25 1.083333 0.45 11 0.05 0.02
Q16 1 0.5 0.5 0.5 11 0.05 0

  REM The information below was added by Olex2.
  REM
  REM R1 = 0.0123 for 494 Fo > 4sig(Fo) and 0.0123 for all 494 data
  REM 64 parameters refined using 0 restraints
  REM Highest difference peak 0.0895, deepest hole -0.1012
  REM Mean Shift 0.0000, Max Shift 0.0000.

  REM +++ Tabular Listing of Refinement Information +++
  REM R1_all = 0.0123
  REM R1_gt = 0.0123
  REM wR_ref = 0.0370
  REM GOOF = 1.2518
  REM Shift_max = 0.0000
  REM Shift_mean = 0.0000
  REM Reflections_all = 494
  REM Reflections_gt = 494
  REM Parameters = 64
  REM Hole = -0.1012
  REM Peak = 0.0895
  REM Flack = n/a

  
;
_cod_data_source_file            57_TAAM_ANIS_0.8.cif
_cod_data_source_block           57_TAAM_ANIS_0.8
_cod_database_code               2022068
_olex2_refinement_description
;
;
_iucr_refine_fcf_details
;
data_oxa03
_computing_structure_refinement   'olex2.refine (Bourhis et al., 2015)'
_shelx_refln_list_code            4
loop_
  _space_group_symop_id
  _space_group_symop_operation_xyz
  1  x,y,z
  2  -x,y+1/2,-z+1/2
  3  -x,-y,-z
  4  x,-y-1/2,z-1/2

_space_group_crystal_system       monoclinic
_space_group_IT_number            14
_space_group_name_H-M_alt         'P 1 21/c 1'
_space_group_name_Hall            '-P 2ybc'
_symmetry_space_group_name_H-M    'P 1 21/c 1'
_symmetry_space_group_name_Hall   '-P 2ybc'
_symmetry_Int_Tables_number       14
_cell_length_a                    6.091
_cell_length_b                    3.4928
_cell_length_c                    11.8372
_cell_angle_alpha                 90
_cell_angle_beta                  103.901
_cell_angle_gamma                 90
_cell_volume                      244.456636
loop_
  _refln_index_h
  _refln_index_k
  _refln_index_l
  _refln_F_squared_calc
  _refln_F_squared_meas
  _refln_F_squared_sigma
  _refln_F_squared_weight
  _refln_observed_status
-7 0 2 13.908 13.865 0.331 22.877 o
-7 0 4 40.530 39.318 0.895 4.695 o
-7 0 6 251.231 252.708 6.208 0.136 o
-7 0 8 0.259 0.224 0.039 1426.940 o
-7 1 1 18.127 17.630 0.399 16.760 o
-7 1 2 84.461 83.782 1.868 1.298 o
-7 1 3 3.497 3.629 0.097 127.453 o
-7 1 4 0.381 0.457 0.029 1164.600 o
-7 1 5 2.151 2.111 0.068 220.050 o
-7 1 6 18.741 18.720 0.428 15.308 o
-7 1 7 52.192 52.053 1.168 2.991 o
-6 0 2 175.661 177.634 4.339 0.272 o
-6 0 4 3.120 2.734 0.107 138.001 o
-6 0 6 162.381 161.629 3.678 0.370 o
-6 0 8 0.998 1.109 0.068 380.430 o
-6 0 10 290.241 292.794 6.675 0.118 o
-6 1 1 1.222 1.382 0.068 328.348 o
-6 1 2 6.456 6.558 0.165 61.841 o
-6 1 3 1.079 1.284 0.058 384.160 o
-6 1 4 32.428 31.125 0.710 6.859 o
-6 1 5 93.839 91.819 2.063 1.084 o
-6 1 6 150.165 149.360 3.376 0.435 o
-6 1 7 2.624 2.617 0.088 168.711 o
-6 1 8 2.758 2.958 0.088 159.248 o
-6 1 9 42.926 43.647 0.983 4.037 o
-6 1 10 48.955 50.886 1.138 3.146 o
-6 1 11 3.774 4.009 0.126 104.659 o
-6 2 1 69.258 68.701 1.528 1.861 o
-6 2 2 38.241 38.539 0.866 4.982 o
-6 2 3 59.923 59.750 1.352 2.320 o
-6 2 4 5.370 5.322 0.146 76.260 o
-6 2 5 4.320 4.242 0.126 96.872 o
-6 2 6 1.148 1.158 0.058 383.155 o
-6 2 7 0.270 0.204 0.039 1424.450 o
-6 2 8 12.646 13.232 0.311 25.221 o
-5 0 2 88.526 89.639 2.053 1.101 o
-5 0 4 17.213 17.640 0.457 14.803 o
-5 0 6 115.096 115.851 2.685 0.671 o
-5 0 8 274.563 274.716 6.548 0.123 o
-5 0 10 98.001 101.071 2.267 0.917 o
-5 0 12 42.493 43.346 1.216 2.951 o
-5 1 1 54.812 54.982 1.255 2.652 o
-5 1 2 246.939 250.704 5.779 0.156 o
-5 1 3 48.521 49.874 1.138 3.156 o
-5 1 4 91.296 91.741 2.121 1.038 o
-5 1 5 30.517 30.298 0.701 7.110 o
-5 1 6 3.891 4.301 0.165 84.099 o
-5 1 7 1.065 1.070 0.058 405.996 o
-5 1 8 16.594 16.686 0.467 14.730 o
-5 1 9 262.244 263.469 6.422 0.128 o
-5 1 10 26.549 25.842 0.603 9.026 o
-5 1 11 0.199 0.195 0.039 1628.590 o
-5 1 12 25.445 25.287 0.584 9.518 o
-5 2 1 9.288 9.000 0.224 40.115 o
-5 2 2 0.532 0.535 0.049 741.284 o
-5 2 3 4.458 4.203 0.126 95.597 o
-5 2 4 28.519 27.730 0.642 8.141 o
-5 2 5 172.034 172.905 3.931 0.327 o
-5 2 6 79.953 78.012 1.751 1.457 o
-5 2 7 21.610 21.279 0.486 12.550 o
-5 2 8 1.652 1.868 0.068 261.419 o
-5 2 9 0.202 0.156 0.039 1681.320 o
-5 2 11 40.665 38.987 0.885 4.765 o
-5 3 1 19.337 19.226 0.438 14.745 o
-5 3 3 5.894 5.974 0.165 65.870 o
-5 3 4 11.330 11.277 0.272 30.368 o
-5 3 5 3.747 3.435 0.097 124.625 o
-5 3 6 4.656 4.524 0.126 91.946 o
-5 3 7 15.427 15.480 0.370 19.500 o
-4 0 2 953.658 936.721 22.320 0.011 o
-4 0 4 117.341 120.725 3.104 0.519 o
-4 0 6 44.995 45.126 1.109 3.353 o
-4 0 8 568.152 580.441 13.466 0.030 o
-4 0 10 1.750 1.635 0.117 184.800 o
-4 0 12 247.221 238.133 5.945 0.148 o
-4 0 14 1.608 1.888 0.117 185.404 o
-4 1 1 89.904 90.291 2.033 1.116 o
-4 1 2 56.003 56.286 1.284 2.548 o
-4 1 3 1.642 1.605 0.068 273.114 o
-4 1 4 31.801 33.334 0.759 6.284 o
-4 1 6 177.698 172.905 3.950 0.323 o
-4 1 7 83.604 86.312 2.131 1.043 o
-4 1 8 172.854 172.273 4.203 0.289 o
-4 1 9 45.251 45.690 1.041 3.667 o
-4 1 11 1.587 1.839 0.078 250.836 o
-4 1 12 79.675 79.559 1.819 1.369 o
-4 1 13 15.472 15.198 0.360 20.040 o
-4 2 1 52.130 50.740 1.168 2.998 o
-4 2 2 12.926 12.541 0.311 25.269 o
-4 2 3 77.776 78.129 1.761 1.450 o
-4 2 4 60.626 61.764 1.430 2.120 o
-4 2 5 5.668 5.750 0.165 67.617 o
-4 2 6 5.620 5.789 0.165 67.768 o
-4 2 7 6.448 6.957 0.185 56.783 o
-4 2 8 79.686 82.537 1.956 1.214 o
-4 2 9 13.668 13.631 0.350 21.897 o
-4 2 10 30.209 31.203 0.710 6.980 o
-4 2 11 7.454 7.579 0.204 48.800 o
-4 2 12 0.741 0.827 0.058 513.600 o
-4 3 1 4.895 4.982 0.136 84.211 o
-4 3 2 13.673 13.534 0.321 23.745 o
-4 3 3 22.301 22.592 0.516 11.565 o
-4 3 4 236.639 238.318 5.478 0.173 o
-4 3 5 27.820 28.887 0.671 7.719 o
-4 3 6 8.032 8.027 0.204 46.686 o
-4 3 7 4.612 5.186 0.156 78.859 o
-4 3 8 0.259 0.243 0.039 1404.940 o
-4 3 9 37.206 35.980 0.817 5.453 o
-3 0 2 14.479 14.225 0.360 20.752 o
-3 0 4 89.039 87.285 2.199 0.982 o
-3 0 6 13.219 15.130 0.418 18.058 o
-3 0 8 21.424 22.534 0.555 10.768 o
-3 0 10 3.835 4.437 0.185 76.196 o
-3 0 12 143.361 147.093 4.262 0.286 o
-3 0 14 18.788 17.659 0.496 13.154 o
-3 1 1 324.788 320.202 7.326 0.098 o
-3 1 2 32.161 32.993 0.827 5.597 o
-3 1 3 155.950 159.469 3.658 0.375 o
-3 1 4 225.518 227.557 5.157 0.194 o
-3 1 5 206.438 209.070 4.738 0.229 o
-3 1 6 0.355 0.350 0.039 1130.290 o
-3 1 7 339.231 349.138 8.007 0.083 o
-3 1 8 9.236 8.241 0.234 39.644 o
-3 1 9 60.918 59.993 1.605 1.766 o
-3 1 10 3.447 3.746 0.126 110.817 o
-3 1 11 159.825 154.283 3.561 0.393 o
-3 1 12 55.116 53.484 1.430 2.171 o
-3 1 13 0.674 0.876 0.068 472.314 o
-3 1 14 0.473 0.389 0.049 835.321 o
-3 2 1 81.220 81.243 1.868 1.307 o
-3 2 2 175.021 175.785 3.989 0.317 o
-3 2 3 292.609 295.051 6.772 0.115 o
-3 2 4 27.404 26.971 0.632 8.411 o
-3 2 5 2.789 2.637 0.107 146.919 o
-3 2 6 134.191 137.042 3.133 0.503 o
-3 2 7 164.078 167.106 3.833 0.343 o
-3 2 8 283.921 288.231 6.782 0.115 o
-3 2 9 50.644 51.013 1.226 2.802 o
-3 2 10 10.502 10.926 0.311 27.910 o
-3 2 11 21.503 22.028 0.623 9.345 o
-3 2 12 2.220 2.131 0.097 181.842 o
-3 3 1 3.668 3.619 0.117 113.846 o
-3 3 2 246.803 247.395 5.682 0.161 o
-3 3 3 3.586 8.056 0.457 21.640 o
-3 3 4 45.080 45.058 1.022 3.774 o
-3 3 5 21.145 21.337 0.516 11.848 o
-3 3 6 0.076 0.292 0.049 1468.940 o
-3 3 7 3.850 3.950 0.136 99.340 o
-3 3 8 17.378 17.426 0.477 14.111 o
-3 3 9 4.513 5.351 0.136 85.867 o
-3 3 10 19.110 19.333 0.486 13.218 o
-3 4 1 20.580 20.598 0.496 12.531 o
-3 4 2 10.877 10.634 0.272 31.218 o
-3 4 3 57.930 56.461 1.265 2.591 o
-2 0 2 642.588 620.702 19.527 0.014 o
-2 0 4 2035.640 2028.630 55.206 0.002 o
-2 0 6 169.452 174.015 4.262 0.282 o
-2 0 8 451.927 452.126 13.476 0.030 o
-2 0 10 187.159 187.354 5.118 0.200 o
-2 0 12 15.828 16.861 0.623 10.263 o
-2 0 14 57.205 55.858 2.092 1.135 o
-2 1 1 181.437 188.132 4.446 0.259 o
-2 1 2 550.500 559.571 12.843 0.033 o
-2 1 3 21.334 20.364 0.545 11.161 o
-2 1 4 355.964 362.390 8.455 0.075 o
-2 1 5 19.544 18.875 0.594 10.356 o
-2 1 6 5.895 5.351 0.195 59.880 o
-2 1 7 35.235 34.939 0.827 5.454 o
-2 1 8 284.101 285.575 7.832 0.087 o
-2 1 9 22.293 21.483 0.525 11.412 o
-2 1 10 31.854 31.991 1.002 4.255 o
-2 1 11 81.090 80.532 1.917 1.254 o
-2 1 12 8.716 9.370 0.272 34.727 o
-2 1 13 32.234 31.115 0.739 6.530 o
-2 1 14 18.348 17.893 0.457 14.490 o
-2 2 1 147.538 146.470 3.328 0.447 o
-2 2 2 469.447 475.876 11.160 0.043 o
-2 2 3 9.095 9.584 0.253 36.323 o
-2 2 4 22.916 22.680 0.691 7.999 o
-2 2 5 3.180 3.366 0.126 117.713 o
-2 2 6 68.722 71.571 1.771 1.467 o
-2 2 7 34.074 33.528 0.866 5.182 o
-2 2 8 28.523 27.496 0.662 7.859 o
-2 2 9 16.327 16.502 0.438 15.936 o
-2 2 10 87.454 86.516 1.995 1.159 o
-2 2 11 14.002 13.125 0.331 23.045 o
-2 2 12 108.392 105.498 2.393 0.826 o
-2 2 13 27.906 29.189 0.662 7.843 o
-2 3 1 139.667 140.885 3.182 0.487 o
-2 3 2 66.058 64.799 1.440 2.063 o
-2 3 3 1.523 1.450 0.078 271.183 o
-2 3 4 9.234 9.117 0.234 38.866 o
-2 3 5 6.777 6.587 0.185 56.248 o
-2 3 6 358.060 366.564 8.436 0.075 o
-2 3 7 79.394 80.620 1.829 1.357 o
-2 3 8 25.537 25.599 0.623 8.791 o
-2 3 9 7.662 7.784 0.195 49.610 o
-2 3 10 20.780 21.600 0.516 11.886 o
-2 4 1 15.912 15.976 0.370 19.182 o
-2 4 2 59.670 58.699 1.313 2.429 o
-2 4 3 32.327 31.281 0.710 6.860 o
-2 4 4 0.412 0.448 0.039 992.216 o
-2 4 5 33.796 33.723 0.769 6.085 o
-1 0 2 771.142 762.054 17.163 0.019 o
-1 0 4 872.799 833.976 27.593 0.007 o
-1 0 6 208.359 194.369 6.451 0.128 o
-1 0 8 492.956 485.596 13.660 0.029 o
-1 0 10 3.034 3.201 0.175 92.136 o
-1 0 12 108.363 110.139 2.773 0.639 o
-1 0 14 46.434 44.562 1.197 2.979 o
-1 1 1 2922.410 2747.600 60.421 0.002 o
-1 1 2 140.500 155.509 4.213 0.292 o
-1 1 3 334.406 348.798 8.280 0.078 o
-1 1 4 238.172 248.738 6.431 0.128 o
-1 1 5 1.260 1.080 0.078 315.573 o
-1 1 6 0.461 0.506 0.058 696.379 o
-1 1 7 414.360 383.785 8.805 0.069 o
-1 1 8 91.998 90.846 2.510 0.778 o
-1 1 9 167.093 164.295 3.717 0.362 o
-1 1 11 72.591 70.618 1.605 1.707 o
-1 1 12 83.182 83.821 1.985 1.177 o
-1 1 13 5.570 5.439 0.165 68.987 o
-1 1 14 45.487 43.414 1.031 3.731 o
-1 2 1 143.146 136.692 3.133 0.500 o
-1 2 2 8.347 8.046 0.234 41.526 o
-1 2 3 170.711 169.159 3.824 0.344 o
-1 2 4 229.120 228.559 5.254 0.187 o
-1 2 5 483.946 487.669 11.296 0.042 o
-1 2 6 17.716 18.331 0.438 15.286 o
-1 2 7 1.340 1.391 0.088 268.137 o
-1 2 8 45.868 44.503 1.002 3.869 o
-1 2 9 8.076 7.677 0.243 41.013 o
-1 2 10 181.013 178.967 4.193 0.289 o
-1 2 11 69.267 69.732 1.586 1.753 o
-1 2 12 32.934 32.215 0.846 5.407 o
-1 2 13 12.376 12.493 0.302 26.426 o
-1 3 2 30.953 31.436 0.710 6.931 o
-1 3 3 13.466 13.223 0.331 23.349 o
-1 3 4 54.856 54.807 1.275 2.592 o
-1 3 5 0.831 0.778 0.068 445.708 o
-1 3 6 103.581 103.864 2.345 0.860 o
-1 3 7 1.747 1.644 0.088 230.014 o
-1 3 8 6.065 6.305 0.175 61.868 o
-1 3 9 1.083 1.148 0.058 395.468 o
-1 3 10 31.432 30.794 0.701 7.042 o
-1 4 1 5.876 5.663 0.156 69.342 o
-1 4 2 9.641 9.360 0.224 39.145 o
-1 4 4 0.496 0.399 0.039 928.675 o
-1 4 5 59.116 59.059 1.343 2.353 o
-1 4 6 79.262 80.016 1.839 1.346 o
0 0 4 64.691 69.752 1.615 1.719 o
0 0 8 282.340 278.073 6.441 0.126 o
0 0 12 13.886 13.514 0.370 20.679 o
0 1 1 456.439 462.557 10.372 0.050 o
0 1 2 92.454 91.352 2.170 0.998 o
0 1 3 19.179 18.136 0.555 11.400 o
0 1 4 1534.800 1476.650 33.986 0.005 o
0 1 5 64.055 70.647 1.644 1.671 o
0 1 6 301.859 300.198 9.340 0.062 o
0 1 7 36.404 34.793 0.876 5.014 o
0 1 8 26.808 25.784 0.701 7.477 o
0 1 9 36.119 35.328 0.808 5.589 o
0 1 10 141.638 141.031 3.201 0.481 o
0 1 11 196.031 196.363 4.563 0.246 o
0 1 12 0.230 0.165 0.049 1273.810 o
0 1 13 24.163 24.947 0.710 7.539 o
0 1 14 8.431 8.757 0.224 42.026 o
0 2 1 74.190 74.364 1.693 1.559 o
0 2 2 126.031 128.100 2.997 0.548 o
0 2 4 181.141 183.180 4.155 0.294 o
0 2 5 47.280 48.259 1.138 3.180 o
0 2 6 5.056 4.962 0.156 76.540 o
0 2 7 132.531 134.824 3.045 0.529 o
0 2 8 0.496 0.574 0.068 575.940 o
0 2 9 54.115 52.180 1.177 2.935 o
0 2 10 25.377 24.869 0.642 8.508 o
0 2 11 1.105 1.333 0.088 292.110 o
0 2 12 16.351 16.511 0.379 18.432 o
0 3 1 49.213 49.942 1.197 2.924 o
0 3 2 112.447 114.742 2.578 0.722 o
0 3 3 83.925 86.555 1.956 1.203 o
0 3 4 54.607 57.580 1.313 2.469 o
0 3 5 14.943 15.538 0.379 19.209 o
0 3 6 0.151 0.341 0.049 1257.720 o
0 3 7 0.956 0.973 0.068 399.980 o
0 3 8 97.008 97.510 2.209 0.961 o
0 3 9 40.300 39.512 0.915 4.563 o
0 3 10 1.420 1.343 0.058 329.789 o
0 4 0 2.693 2.608 0.107 149.734 o
0 4 1 11.959 11.578 0.292 27.935 o
0 4 2 55.879 56.373 1.265 2.608 o
0 4 3 3.664 3.795 0.126 107.484 o
0 4 4 11.768 11.928 0.282 28.753 o
0 4 5 73.978 74.266 1.683 1.574 o
1 0 0 372.624 394.002 8.504 0.074 o
1 0 2 11.574 10.450 0.341 24.877 o
1 0 4 1784.520 1773.650 57.210 0.002 o
1 0 6 211.477 215.132 5.030 0.204 o
1 0 8 68.410 68.390 1.868 1.346 o
1 0 10 650.189 642.623 14.789 0.025 o
1 0 12 5.813 5.984 0.224 52.204 o
1 1 0 1571.350 1528.550 37.284 0.004 o
1 1 1 38.480 38.130 0.895 4.763 o
1 1 2 426.616 431.480 9.915 0.055 o
1 1 3 789.149 779.052 17.727 0.017 o
1 1 4 63.945 65.811 1.537 1.870 o
1 1 5 117.025 109.916 2.783 0.631 o
1 1 6 201.803 202.707 4.982 0.209 o
1 1 7 16.617 17.426 0.457 14.984 o
1 1 8 92.022 87.810 2.014 1.133 o
1 1 9 179.447 181.429 4.155 0.294 o
1 1 10 69.567 70.112 1.586 1.752 o
1 1 12 2.094 2.043 0.136 144.346 o
1 1 13 6.586 6.548 0.165 61.292 o
1 2 0 317.663 316.729 7.326 0.099 o
1 2 1 268.476 262.729 6.324 0.131 o
1 2 3 350.537 350.646 8.124 0.081 o
1 2 4 19.475 18.924 0.516 12.335 o
1 2 5 86.204 87.177 2.179 1.000 o
1 2 6 157.051 152.639 3.473 0.412 o
1 2 7 78.772 78.810 1.771 1.434 o
1 2 8 5.833 5.507 0.165 67.388 o
1 2 9 7.050 6.986 0.185 54.570 o
1 2 10 4.318 4.456 0.136 91.730 o
1 2 11 8.198 8.241 0.204 46.005 o
1 2 12 13.736 14.254 0.370 20.570 o
1 3 0 18.584 18.827 0.506 12.787 o
1 3 1 30.546 30.240 0.720 6.868 o
1 3 2 45.577 45.817 1.099 3.384 o
1 3 4 7.740 7.842 0.214 46.077 o
1 3 5 21.774 21.318 0.506 11.998 o
1 3 6 42.197 42.509 0.963 4.177 o
1 3 7 18.197 18.194 0.438 15.175 o
1 3 8 23.799 24.081 0.555 10.361 o
1 3 9 9.335 9.263 0.224 39.786 o
1 4 0 17.421 17.513 0.399 17.012 o
1 4 1 0.637 0.613 0.039 733.140 o
1 4 2 55.007 54.574 1.236 2.715 o
1 4 3 13.707 13.943 0.331 22.976 o
1 4 4 2.997 2.792 0.088 154.786 o
1 4 5 50.028 49.942 1.119 3.218 o
2 0 0 21.226 25.667 0.759 7.021 o
2 0 2 3635.190 3389.230 66.794 0.001 o
2 0 4 5.675 8.037 0.272 40.814 o
2 0 6 3.203 3.931 0.243 60.361 o
2 0 8 92.864 98.055 2.364 0.859 o
2 0 10 31.930 33.052 0.788 5.981 o
2 0 12 73.046 73.897 2.501 0.803 o
2 1 0 364.372 366.613 8.475 0.074 o
2 1 1 65.603 66.356 1.528 1.881 o
2 1 2 3.017 2.530 0.117 135.158 o
2 1 3 449.917 457.565 10.469 0.049 o
2 1 4 9.452 9.156 0.272 33.870 o
2 1 5 18.002 19.313 0.506 12.851 o
2 1 6 412.523 406.845 9.379 0.061 o
2 1 7 29.987 28.323 0.701 7.200 o
2 1 8 45.073 44.678 1.138 3.228 o
2 1 9 172.089 169.403 3.872 0.336 o
2 1 10 40.727 41.166 0.934 4.405 o
2 1 11 1.645 1.654 0.088 236.122 o
2 1 12 22.697 23.273 0.603 9.538 o
2 2 0 511.000 509.609 11.695 0.039 o
2 2 1 1.811 1.703 0.088 224.419 o
2 2 2 3.023 2.997 0.136 116.871 o
2 2 3 16.423 16.171 0.409 17.166 o
2 2 4 1.176 1.099 0.078 324.452 o
2 2 5 147.264 145.030 3.279 0.459 o
2 2 6 9.720 9.817 0.253 35.222 o
2 2 7 54.627 54.155 1.216 2.784 o
2 2 8 53.263 52.832 1.177 2.940 o
2 2 9 73.593 74.899 1.742 1.490 o
2 2 10 72.283 72.729 1.625 1.672 o
2 2 11 29.033 30.999 0.701 7.177 o
2 3 0 12.233 12.483 0.302 26.546 o
2 3 1 28.434 28.868 0.662 7.817 o
2 3 2 87.687 88.005 1.965 1.186 o
2 3 3 4.598 4.378 0.136 89.432 o
2 3 4 209.519 213.517 4.972 0.209 o
2 3 5 7.519 7.570 0.195 50.333 o
2 3 6 2.187 2.189 0.088 193.315 o
2 3 7 27.962 28.138 0.632 8.319 o
2 3 8 1.698 1.566 0.068 269.966 o
2 4 0 12.444 12.347 0.302 26.430 o
2 4 2 1.882 1.868 0.097 201.795 o
2 4 3 52.974 53.007 1.197 2.872 o
3 0 0 389.101 389.108 10.498 0.049 o
3 0 2 179.845 181.146 4.301 0.276 o
3 0 4 18.822 20.695 0.555 11.263 o
3 0 6 569.178 548.635 12.979 0.032 o
3 0 8 11.308 9.876 0.331 26.049 o
3 0 10 1.367 1.099 0.068 327.844 o
3 1 0 107.074 107.756 2.423 0.809 o
3 1 1 432.562 439.060 10.060 0.053 o
3 1 2 429.011 438.087 10.557 0.048 o
3 1 3 39.587 41.049 0.983 4.127 o
3 1 4 11.545 11.238 0.311 26.868 o
3 1 5 4.823 4.913 0.146 81.679 o
3 1 6 4.687 4.456 0.136 88.265 o
3 1 7 27.212 27.447 0.632 8.408 o
3 1 8 34.692 36.467 0.827 5.446 o
3 1 9 1.425 1.362 0.068 305.885 o
3 1 10 79.443 81.457 1.839 1.344 o
3 1 11 12.846 13.028 0.311 25.149 o
3 2 0 1.648 1.781 0.078 248.522 o
3 2 1 7.661 7.414 0.204 48.460 o
3 2 2 270.208 263.654 6.606 0.121 o
3 2 3 100.940 97.394 2.335 0.871 o
3 2 4 89.862 86.535 1.946 1.203 o
3 2 5 60.637 59.477 1.411 2.171 o
3 2 6 41.705 42.450 0.973 4.129 o
3 2 7 3.592 3.756 0.107 119.261 o
3 2 8 98.157 99.184 2.228 0.944 o
3 2 9 2.353 2.141 0.078 198.029 o
3 2 10 10.530 10.995 0.263 32.354 o
3 3 0 68.684 73.332 1.644 1.652 o
3 3 1 2.221 1.946 0.088 197.166 o
3 3 2 19.785 20.169 0.486 13.000 o
3 3 3 95.272 94.786 2.228 0.950 o
3 3 4 103.213 103.728 2.374 0.842 o
3 3 5 0.110 0.126 0.029 2832.810 o
3 3 6 18.970 20.277 0.457 14.062 o
3 3 7 2.202 2.121 0.068 216.975 o
3 4 0 6.234 6.120 0.165 63.859 o
4 0 0 43.983 44.717 1.070 3.550 o
4 0 4 35.407 35.212 0.905 4.812 o
4 0 6 12.312 12.678 0.623 10.996 o
4 0 8 1.051 0.983 0.058 417.253 o
4 0 10 3.996 3.989 0.165 84.518 o
4 1 0 2.226 2.413 0.097 176.386 o
4 1 1 148.762 149.408 3.415 0.427 o
4 1 2 182.712 179.920 4.145 0.295 o
4 1 3 205.697 201.802 4.670 0.235 o
4 1 4 2.866 2.841 0.117 135.063 o
4 1 5 88.607 85.786 1.956 1.196 o
4 1 6 37.655 38.403 0.876 4.927 o
4 1 7 8.018 7.881 0.204 46.906 o
4 1 8 26.115 26.902 0.603 9.017 o
4 1 9 18.508 19.809 0.467 13.905 o
4 2 0 114.676 115.296 2.627 0.698 o
4 2 1 73.155 70.695 1.596 1.721 o
4 2 2 284.744 285.351 6.567 0.122 o
4 2 3 52.817 52.890 1.187 2.909 o
4 2 4 15.451 14.682 0.341 21.213 o
4 2 5 0.433 0.525 0.039 928.868 o
4 2 6 6.769 6.752 0.175 58.011 o
4 2 7 147.010 146.840 3.337 0.445 o
4 2 8 0.495 0.710 0.039 796.460 o
4 3 0 5.631 5.711 0.156 70.593 o
4 3 1 36.095 35.961 0.837 5.324 o
4 3 2 0.980 1.031 0.058 427.046 o
4 3 3 1.364 1.382 0.058 334.479 o
4 3 4 48.485 47.344 1.061 3.512 o
4 3 5 3.363 3.415 0.097 132.143 o
5 0 0 59.978 60.694 1.459 2.060 o
5 0 2 657.964 648.899 19.216 0.015 o
5 0 4 11.863 11.170 0.311 26.633 o
5 0 6 5.991 6.169 0.175 62.505 o
5 0 8 133.349 140.165 4.116 0.306 o
5 1 0 0.404 0.409 0.058 760.959 o
5 1 1 104.550 105.294 2.413 0.818 o
5 1 2 55.416 55.654 1.255 2.645 o
5 1 3 1.754 1.722 0.088 227.247 o
5 1 4 36.577 36.904 0.944 4.484 o
5 1 5 1.208 1.284 0.058 363.314 o
5 1 6 78.259 77.662 1.742 1.475 o
5 1 7 5.170 4.933 0.126 85.412 o
5 1 8 1.570 1.430 0.058 306.989 o
5 2 0 23.688 23.225 0.564 10.221 o
5 2 1 24.749 24.236 0.555 10.235 o
5 2 2 3.615 3.191 0.107 123.677 o
5 2 3 24.510 23.244 0.535 10.745 o
5 2 4 59.297 58.349 1.304 2.460 o
5 2 5 14.655 14.312 0.341 21.737 o
5 2 6 46.610 46.858 1.051 3.590 o
5 3 0 119.456 117.690 2.637 0.690 o
5 3 1 25.790 26.017 0.594 9.265 o
5 3 2 5.711 5.283 0.136 76.953 o
6 0 0 225.794 221.923 5.225 0.190 o
6 0 2 28.145 28.459 0.671 7.711 o
6 0 4 1.368 1.440 0.078 285.541 o
6 0 6 41.474 46.683 1.031 3.770 o
6 1 0 0.563 0.584 0.049 707.395 o
6 1 1 180.225 177.760 4.038 0.310 o
6 1 2 58.838 58.271 1.304 2.464 o
6 1 3 21.832 21.561 0.486 12.484 o
6 1 4 53.208 52.861 1.177 2.940 o
6 1 5 57.193 57.784 1.313 2.450 o
6 2 0 0.073 0.126 0.039 2333.460 o
6 2 1 9.844 9.224 0.224 38.907 o
6 2 3 13.157 12.979 0.302 25.622 o
7 0 0 105.411 104.448 2.325 0.870 o
7 0 2 33.873 34.258 0.778 5.973 o
7 1 0 80.802 79.695 1.790 1.403 o
7 1 1 0.959 1.061 0.049 465.429 o
;
_olex2_submission_special_instructions 'No special instructions were received'
loop_
_space_group_symop_id
_space_group_symop_operation_xyz
1 x,y,z
2 -x,y+1/2,-z+1/2
3 -x,-y,-z
4 x,-y-1/2,z-1/2
loop_
_atom_site_label
_atom_site_type_symbol
_atom_site_fract_x
_atom_site_fract_y
_atom_site_fract_z
_atom_site_U_iso_or_equiv
_atom_site_adp_type
_atom_site_occupancy
_atom_site_refinement_flags_posn
O1 O 0.43467(6) 0.44433(11) 0.34994(3) 0.01376(13) Uani 1.000000 .
O2 O 0.24267(5) 0.74227(10) 0.46363(3) 0.01331(13) Uani 1.000000 .
C1 C 0.40300(7) 0.55880(13) 0.44785(4) 0.01045(14) Uani 1.000000 .
O3 O 0.12988(7) 0.63108(13) 0.17818(3) 0.01329(13) Uani 1.000000 .
H3a H 0.0115(16) 0.462(3) 0.1507(7) 0.026(2) Uani 1.000000 .
H3b H 0.1901(13) 0.693(3) 0.1134(9) 0.0224(19) Uani 1.000000 .
H1 H 0.3008(19) 0.521(3) 0.2812(10) 0.035(3) Uani 1.000000 .
loop_
_atom_site_aniso_label
_atom_site_aniso_U_11
_atom_site_aniso_U_22
_atom_site_aniso_U_33
_atom_site_aniso_U_12
_atom_site_aniso_U_13
_atom_site_aniso_U_23
O1 0.0133(2) 0.0183(2) 0.0100(2) 0.00390(13) 0.00323(15) -0.00062(13)
O2 0.0117(2) 0.0184(2) 0.0093(2) 0.00503(12) 0.00142(13) -0.00075(13)
C1 0.0092(2) 0.0121(2) 0.0094(3) 0.00159(15) 0.00102(18) 0.00028(16)
O3 0.0108(2) 0.0178(2) 0.0104(2) -0.00065(14) 0.00094(15) 0.00115(14)
H3a 0.023(5) 0.031(6) 0.025(5) -0.015(5) 0.008(4) 0.001(4)
H3b 0.018(4) 0.036(5) 0.019(5) -0.004(4) 0.016(4) 0.004(4)
H1 0.040(7) 0.032(6) 0.044(7) -0.009(6) 0.030(6) -0.014(6)
loop_
_atom_type_symbol
_atom_type_description
_atom_type_scat_dispersion_real
_atom_type_scat_dispersion_imag
_atom_type_scat_source
_atom_type_scat_dispersion_source
C C 0.00347 0.00161
'Clementi & Roetti, C., At. Data Nucl. Data Tables 1974, 14, (177-478); Clementi & Raimondi, J. Chem. Phys., 1963, 38, (2686-2689)'
'Henke, Gullikson and Davis, At. Data and Nucl. Data Tables, 1993, 54, 2'
H H 0.00000 0.00000
'Clementi & Roetti, C., At. Data Nucl. Data Tables 1974, 14, (177-478); Clementi & Raimondi, J. Chem. Phys., 1963, 38, (2686-2689)'
'Henke, Gullikson and Davis, At. Data and Nucl. Data Tables, 1993, 54, 2'
N N 0.00653 0.00323
'Clementi & Roetti, C., At. Data Nucl. Data Tables 1974, 14, (177-478); Clementi & Raimondi, J. Chem. Phys., 1963, 38, (2686-2689)'
'Henke, Gullikson and Davis, At. Data and Nucl. Data Tables, 1993, 54, 2'
O O 0.01158 0.00611
'Clementi & Roetti, C., At. Data Nucl. Data Tables 1974, 14, (177-478); Clementi & Raimondi, J. Chem. Phys., 1963, 38, (2686-2689)'
'Henke, Gullikson and Davis, At. Data and Nucl. Data Tables, 1993, 54, 2'
loop_
_geom_angle_atom_site_label_1
_geom_angle_atom_site_label_2
_geom_angle_atom_site_label_3
_geom_angle
_geom_angle_site_symmetry_1
_geom_angle_site_symmetry_3
_geom_angle_publ_flag
H1 O1 C1 111.5(5) . . ?
O2 C1 O1 126.99(4) . . ?
C1 C1 O1 112.74(5) 3_666 . ?
C1 C1 O2 120.27(5) 3_666 . ?
H3b O3 H3a 106.2(7) . . ?
loop_
_geom_bond_atom_site_label_1
_geom_bond_atom_site_label_2
_geom_bond_distance
_geom_bond_site_symmetry_2
_geom_bond_publ_flag
O1 C1 1.2836(6) . ?
O1 H1 1.039(13) . ?
O2 C1 1.2194(6) . ?
C1 C1 1.5455(8) 3_666 ?
O3 H3a 0.928(10) . ?
O3 H3b 0.951(10) . ?
loop_
_refln_index_h
_refln_index_k
_refln_index_l
_refln_F_squared_meas
_refln_F_squared_sigma
-14 0 6 2.26 0.37
-13 0 6 34.95 0.9
-13 0 8 3.32 0.17
-13 1 1 2.75 0.4
-13 1 2 14.46 0.7
-13 1 4 1.2 0.14
-13 1 5 10.12 0.93
-13 1 8 3.81 0.17
-13 1 10 3.31 0.16
-13 1 12 3.56 0.19
-13 2 1 4.09 0.4
-13 2 3 1.17 0.31
-13 2 4 0.53 0.13
-13 2 5 1.19 0.15
-13 2 6 0.51 0.15
-13 2 8 2.21 0.32
-13 2 9 1.47 0.28
-12 0 2 9.07 0.31
-12 0 4 43.55 1.13
-12 0 6 5.31 0.22
-12 0 10 2.46 0.13
-12 0 12 8.88 0.31
-12 0 14 5.65 0.23
-12 0 16 19.42 0.66
-12 1 1 2 0.11
-12 1 2 1.05 0.14
-12 1 5 19 0.48
-12 1 6 4.37 0.14
-12 1 7 1.54 0.13
-12 1 8 12.08 0.31
-12 1 9 11.73 0.3
-12 1 10 2.83 0.17
-12 1 11 1.06 0.07
-12 1 12 6.96 0.21
-12 1 13 0.84 0.08
-12 1 14 0.23 0.07
-12 1 15 14.28 0.42
-12 1 16 1.73 0.11
-12 1 17 0.9 0.28
-12 2 1 13.56 0.38
-12 2 2 5.31 0.24
-12 2 5 7.66 0.25
-12 2 6 0.31 0.08
-12 2 7 3.43 0.13
-12 2 8 4.45 0.17
-12 2 9 4.35 0.2
-12 2 11 8.71 0.25
-12 2 12 1.17 0.11
-12 2 13 4.82 0.23
-12 3 1 1.64 0.1
-12 3 2 0.61 0.09
-12 3 3 3.25 0.19
-12 3 6 1.01 0.09
-12 3 7 1.32 0.1
-12 3 11 1.43 0.11
-12 3 12 0.5 0.09
-12 3 14 4.35 0.43
-12 4 3 1.89 0.15
-12 4 4 1.52 0.16
-12 4 5 1.99 0.34
-12 4 6 5.32 0.24
-12 4 8 0.62 0.09
-12 4 9 1.2 0.12
-11 0 2 3.59 0.2
-11 0 4 9.42 0.27
-11 0 6 0.48 0.11
-11 0 8 88.87 2.49
-11 0 10 8.1 0.24
-11 0 12 2.52 0.14
-11 0 14 36.53 0.92
-11 0 16 1.34 0.1
-11 0 18 12.73 0.37
-11 0 20 1.9 0.33
-11 1 2 6.02 0.17
-11 1 3 14.18 0.39
-11 1 4 37.19 0.85
-11 1 5 2.13 0.13
-11 1 6 0.24 0.06
-11 1 7 1.46 0.1
-11 1 8 1.4 0.08
-11 1 9 5.97 0.19
-11 1 10 3.83 0.13
-11 1 11 4.35 0.15
-11 1 12 13.87 0.34
-11 1 13 0.4 0.06
-11 1 14 6.39 0.21
-11 1 15 6.06 0.21
-11 1 16 2.49 0.12
-11 1 18 9.9 0.27
-11 1 19 12.02 0.36
-11 1 20 0.43 0.12
-11 2 1 2.83 0.11
-11 2 2 0.34 0.07
-11 2 3 1.23 0.1
-11 2 4 11.1 0.29
-11 2 5 2.09 0.1
-11 2 6 6.49 0.19
-11 2 7 8.54 0.27
-11 2 10 1.17 0.08
-11 2 11 2.11 0.11
-11 2 12 2.67 0.11
-11 2 13 0.52 0.07
-11 2 14 1.31 0.08
-11 2 15 10.22 0.28
-11 2 17 0.72 0.13
-11 2 18 2.56 0.17
-11 3 1 1.04 0.07
-11 3 2 3.32 0.12
-11 3 3 0.36 0.06
-11 3 4 4.43 0.18
-11 3 5 6.66 0.19
-11 3 6 2.92 0.15
-11 3 7 3.67 0.12
-11 3 9 1.31 0.08
-11 3 10 12.52 0.31
-11 3 11 4.52 0.17
-11 3 12 1.12 0.08
-11 3 13 2.75 0.16
-11 3 14 0.32 0.1
-11 3 16 3.79 0.3
-11 3 17 4.86 0.39
-11 4 1 1.39 0.14
-11 4 2 2.9 0.12
-11 4 3 5.57 0.22
-11 4 6 6.65 0.2
-11 4 7 0.48 0.07
-11 4 9 2.62 0.1
-11 4 10 3.84 0.13
-11 4 12 3.23 0.21
-11 4 13 5.71 0.22
-10 0 4 8.74 0.23
-10 0 6 12.78 0.35
-10 0 8 17.71 0.43
-10 0 10 11.94 0.32
-10 0 12 11.59 0.3
-10 0 14 0.89 0.08
-10 0 16 3.08 0.15
-10 0 18 65.33 1.95
-10 0 20 1.89 0.22
-10 1 1 3.52 0.12
-10 1 2 0.51 0.06
-10 1 3 2.2 0.09
-10 1 4 0.72 0.06
-10 1 5 9.65 0.25
-10 1 7 47.64 1.09
-10 1 8 19.93 0.47
-10 1 9 9.92 0.24
-10 1 10 6.43 0.17
-10 1 11 1.88 0.09
-10 1 12 3.79 0.12
-10 1 13 11.51 0.3
-10 1 14 18.59 0.51
-10 1 16 0.98 0.07
-10 1 17 15.39 0.41
-10 1 18 2.43 0.1
-10 1 19 1.86 0.15
-10 1 21 0.51 0.13
-10 1 22 11.96 0.38
-10 2 1 0.47 0.06
-10 2 2 11.3 0.39
-10 2 3 48.27 1.13
-10 2 4 29.1 0.8
-10 2 7 1.26 0.07
-10 2 8 9.36 0.24
-10 2 9 13.33 0.33
-10 2 10 0.76 0.06
-10 2 11 12.1 0.3
-10 2 12 5.22 0.16
-10 2 13 11.74 0.29
-10 2 14 14.23 0.36
-10 2 16 0.68 0.06
-10 2 17 3.91 0.14
-10 2 18 0.48 0.07
-10 2 20 0.38 0.11
-10 2 21 0.81 0.09
-10 3 1 2.86 0.11
-10 3 2 8.43 0.22
-10 3 3 3.62 0.14
-10 3 4 10.57 0.27
-10 3 6 11.09 0.28
-10 3 7 0.54 0.06
-10 3 8 6.05 0.17
-10 3 9 0.94 0.07
-10 3 10 7.87 0.21
-10 3 13 0.29 0.06
-10 3 14 8.12 0.24
-10 3 15 3.03 0.12
-10 3 17 1.45 0.1
-10 3 19 0.75 0.11
-10 3 20 7.32 0.28
-10 4 2 10.97 0.31
-10 4 3 6.7 0.19
-10 4 4 0.3 0.06
-10 4 5 1.2 0.1
-10 4 6 3.61 0.14
-10 4 8 3.14 0.11
-10 4 9 3.25 0.16
-10 4 10 7.64 0.21
-10 4 13 8.09 0.24
-10 4 16 10.88 0.36
-10 4 17 0.92 0.14
-10 5 2 7.09 0.23
-10 5 4 2.27 0.1
-10 5 5 3.04 0.13
-10 5 6 6.05 0.18
-10 5 10 0.78 0.1
-10 5 11 1.19 0.14
-10 5 12 14.71 0.6
-9 0 2 4.08 0.14
-9 0 4 58 1.3
-9 0 6 25.19 0.58
-9 0 8 4.28 0.15
-9 0 10 52.88 1.51
-9 0 14 1.97 0.1
-9 0 16 22.07 0.53
-9 0 20 1.08 0.11
-9 0 22 7.25 0.52
-9 0 24 3.6 0.42
-9 1 1 0.41 0.04
-9 1 2 1.54 0.07
-9 1 4 10.6 0.25
-9 1 5 3.04 0.1
-9 1 6 22.91 0.52
-9 1 7 17.72 0.41
-9 1 8 4.91 0.13
-9 1 9 17.68 0.43
-9 1 10 1.18 0.06
-9 1 11 6.8 0.17
-9 1 12 0.14 0.04
-9 1 13 0.28 0.04
-9 1 14 13.93 0.34
-9 1 15 0.52 0.05
-9 1 16 2.61 0.09
-9 1 17 36.33 0.85
-9 1 18 6.99 0.2
-9 1 19 2.79 0.11
-9 1 20 4.47 0.14
-9 1 21 7.45 0.22
-9 1 23 2.31 0.16
-9 1 24 0.48 0.11
-9 2 1 5 0.14
-9 2 3 0.66 0.05
-9 2 4 0.3 0.05
-9 2 5 6.08 0.16
-9 2 6 34.81 0.8
-9 2 7 9.99 0.24
-9 2 8 56.29 1.31
-9 2 9 1.41 0.07
-9 2 10 5.43 0.16
-9 2 12 3.22 0.11
-9 2 13 32.02 0.73
-9 2 14 5.18 0.14
-9 2 15 0.35 0.05
-9 2 16 9.44 0.24
-9 2 17 8.48 0.24
-9 2 18 15.44 0.37
-9 2 19 3.97 0.17
-9 2 20 0.43 0.06
-9 2 21 7.01 0.22
-9 2 22 2.81 0.22
-9 2 23 7.66 0.23
-9 3 1 2.68 0.1
-9 3 2 86.98 2.13
-9 3 3 13.62 0.35
-9 3 4 21.79 0.52
-9 3 6 1.04 0.06
-9 3 7 20.41 0.53
-9 3 8 6.75 0.18
-9 3 9 1.72 0.1
-9 3 10 5.14 0.15
-9 3 11 1.1 0.07
-9 3 12 42.98 1.03
-9 3 13 7.1 0.21
-9 3 14 6.23 0.21
-9 3 15 2.84 0.13
-9 3 16 3.37 0.17
-9 3 18 2.68 0.21
-9 3 21 0.87 0.11
-9 4 1 12.1 0.36
-9 4 2 3.88 0.17
-9 4 3 21.33 0.51
-9 4 4 0.31 0.09
-9 4 6 8.36 0.26
-9 4 7 0.94 0.07
-9 4 8 4.17 0.14
-9 4 9 1.66 0.1
-9 4 10 0.69 0.07
-9 4 11 5.86 0.18
-9 4 12 6.28 0.18
-9 4 13 7.57 0.23
-9 4 14 0.27 0.09
-9 4 19 0.54 0.14
-9 5 1 1.52 0.12
-9 5 6 0.84 0.07
-9 5 8 0.61 0.07
-9 5 9 3.62 0.13
-9 5 10 0.93 0.08
-9 5 12 3.12 0.16
-9 5 15 2.14 0.17
-9 5 16 8.95 0.31
-9 6 1 1.71 0.19
-9 6 3 4.26 0.21
-9 6 5 3.51 0.16
-9 6 6 0.84 0.1
-8 0 2 3.53 0.11
-8 0 4 4.4 0.14
-8 0 8 50.65 1.13
-8 0 10 7.23 0.2
-8 0 12 3.21 0.13
-8 0 14 45.38 1.15
-8 0 16 13.04 0.33
-8 0 18 2.35 0.12
-8 0 20 41.96 1.23
-8 0 22 0.4 0.09
-8 0 24 0.49 0.09
-8 1 1 29.6 0.67
-8 1 3 19.12 0.44
-8 1 4 29.84 0.67
-8 1 5 23.06 0.52
-8 1 6 1.73 0.06
-8 1 7 56.42 1.33
-8 1 8 5.88 0.16
-8 1 9 13.91 0.33
-8 1 10 36.9 0.87
-8 1 11 1.69 0.06
-8 1 12 1.79 0.07
-8 1 14 0.49 0.04
-8 1 15 16.37 0.38
-8 1 16 8.95 0.23
-8 1 17 7.2 0.19
-8 1 18 10.62 0.26
-8 1 20 1.21 0.08
-8 1 21 4.1 0.15
-8 1 23 0.89 0.09
-8 1 24 9.12 0.25
-8 2 1 39.89 0.93
-8 2 2 16.3 0.4
-8 2 3 6.84 0.2
-8 2 4 16.11 0.39
-8 2 5 34.29 0.8
-8 2 6 57.81 1.3
-8 2 7 6.48 0.17
-8 2 8 6.87 0.19
-8 2 9 1.36 0.06
-8 2 10 11.27 0.28
-8 2 11 20.48 0.48
-8 2 12 8.13 0.2
-8 2 13 2.23 0.08
-8 2 14 11.79 0.3
-8 2 16 38.02 0.87
-8 2 17 2.09 0.08
-8 2 18 14.46 0.37
-8 2 19 3.73 0.12
-8 2 20 0.46 0.06
-8 2 23 2.81 0.18
-8 3 1 0.25 0.04
-8 3 2 8.74 0.24
-8 3 3 7.16 0.19
-8 3 5 0.82 0.05
-8 3 6 33.55 0.77
-8 3 7 10.8 0.27
-8 3 8 22.36 0.53
-8 3 9 5.75 0.18
-8 3 10 9.94 0.25
-8 3 11 6.32 0.17
-8 3 12 52.11 1.31
-8 3 13 1.68 0.08
-8 3 14 1.35 0.07
-8 3 15 0.51 0.06
-8 3 16 18.26 0.53
-8 3 17 17.8 0.44
-8 3 19 1.17 0.07
-8 3 20 8.11 0.23
-8 3 22 23.54 0.73
-8 3 23 3.17 0.15
-8 4 1 21.86 0.51
-8 4 2 20.54 0.48
-8 4 3 16.24 0.4
-8 4 4 11.18 0.28
-8 4 5 3.09 0.13
-8 4 6 4.87 0.15
-8 4 7 3.02 0.17
-8 4 8 4.61 0.15
-8 4 10 0.34 0.06
-8 4 11 23.23 0.54
-8 4 12 17.56 0.43
-8 4 13 10.8 0.4
-8 4 15 3.22 0.16
-8 4 16 3.06 0.15
-8 4 18 4.55 0.2
-8 4 20 0.33 0.07
-8 5 1 5.07 0.15
-8 5 2 28.06 0.65
-8 5 5 1.39 0.09
-8 5 6 0.51 0.06
-8 5 7 4.7 0.15
-8 5 8 7.8 0.21
-8 5 10 2.38 0.12
-8 5 12 0.85 0.09
-8 5 14 0.6 0.09
-8 5 15 0.86 0.09
-8 6 1 0.32 0.06
-8 6 2 0.56 0.08
-8 6 3 0.34 0.07
-8 6 4 0.7 0.07
-8 6 6 0.4 0.07
-8 6 7 1.24 0.08
-8 6 8 0.52 0.07
-8 6 11 0.83 0.11
-7 0 2 14.25 0.34
-7 0 4 40.41 0.92
-7 0 6 259.73 6.38
-7 0 8 0.23 0.04
-7 0 10 1.38 0.07
-7 0 12 5.52 0.22
-7 0 14 12.84 0.32
-7 0 16 7.34 0.2
-7 0 18 7.74 0.22
-7 0 20 0.58 0.08
-7 0 24 8.15 0.28
-7 0 26 1.57 0.15
-7 1 1 18.12 0.41
-7 1 2 86.11 1.92
-7 1 3 3.73 0.1
-7 1 4 0.47 0.03
-7 1 5 2.17 0.07
-7 1 6 19.24 0.44
-7 1 7 53.5 1.2
-7 1 9 10.68 0.25
-7 1 10 30.04 0.68
-7 1 11 47.36 1.06
-7 1 12 2.87 0.09
-7 1 13 9.49 0.23
-7 1 14 15.46 0.36
-7 1 15 13.83 0.32
-7 1 16 6.15 0.17
-7 1 17 23.57 0.54
-7 1 19 26.96 0.62
-7 1 20 4.71 0.14
-7 1 21 3.04 0.13
-7 1 22 1.29 0.07
-7 1 23 1.05 0.08
-7 1 24 0.74 0.09
-7 1 25 7.7 0.26
-7 2 2 0.33 0.03
-7 2 3 22.65 0.54
-7 2 4 3.51 0.1
-7 2 5 10.1 0.24
-7 2 6 2.22 0.08
-7 2 7 19.35 0.45
-7 2 8 16.77 0.39
-7 2 9 17.23 0.42
-7 2 10 79.89 1.83
-7 2 11 23.1 0.55
-7 2 12 8.15 0.2
-7 2 13 5.14 0.14
-7 2 14 3.65 0.12
-7 2 15 42.69 0.97
-7 2 16 13.01 0.33
-7 2 17 2.18 0.1
-7 2 18 4.84 0.18
-7 2 19 0.19 0.06
-7 2 20 24.07 0.57
-7 2 21 12.78 0.32
-7 2 22 4.57 0.18
-7 2 23 3.96 0.18
-7 2 24 4.42 0.16
-7 2 25 2.62 0.16
-7 3 1 2.03 0.07
-7 3 2 1.82 0.07
-7 3 3 2.12 0.08
-7 3 4 76.49 1.73
-7 3 5 34.73 0.83
-7 3 6 16.2 0.39
-7 3 8 0.12 0.04
-7 3 9 9.73 0.25
-7 3 10 11.11 0.27
-7 3 11 0.27 0.05
-7 3 12 1.07 0.07
-7 3 13 7.62 0.2
-7 3 14 23.32 0.54
-7 3 15 5.03 0.17
-7 3 16 23.19 0.54
-7 3 17 0.23 0.06
-7 3 18 9.74 0.26
-7 3 20 2.52 0.14
-7 3 21 2.9 0.13
-7 3 22 2.82 0.12
-7 4 1 22.09 0.53
-7 4 2 6.87 0.18
-7 4 3 0.67 0.05
-7 4 4 2.25 0.08
-7 4 5 23.58 0.55
-7 4 6 4.4 0.13
-7 4 7 4.46 0.14
-7 4 8 26.57 0.61
-7 4 9 5.72 0.16
-7 4 10 0.25 0.04
-7 4 11 14.07 0.33
-7 4 12 3.71 0.13
-7 4 14 3.44 0.13
-7 4 15 12.37 0.35
-7 4 16 9.98 0.27
-7 4 17 3.87 0.14
-7 4 19 0.75 0.09
-7 4 20 0.24 0.07
-7 4 21 7.26 0.27
-7 4 22 10.22 0.38
-7 5 1 3.98 0.13
-7 5 2 20.68 0.48
-7 5 3 3.64 0.12
-7 5 4 1.75 0.11
-7 5 5 0.97 0.07
-7 5 6 8.06 0.21
-7 5 7 0.58 0.06
-7 5 10 5.59 0.22
-7 5 11 9.26 0.25
-7 5 12 25.86 0.61
-7 5 14 1 0.09
-7 5 17 2.44 0.19
-7 5 18 3.74 0.3
-7 6 1 16.84 0.42
-7 6 2 3.21 0.14
-7 6 4 0.68 0.07
-7 6 5 1.11 0.08
-7 6 6 6.17 0.19
-7 6 7 2.52 0.11
-7 6 8 4.54 0.15
-7 6 9 2.02 0.12
-7 6 10 0.38 0.08
-7 6 11 1.69 0.12
-7 6 13 0.31 0.09
-6 0 2 182.57 4.46
-6 0 4 2.81 0.11
-6 0 6 166.12 3.78
-6 0 8 1.14 0.07
-6 0 10 300.93 6.86
-6 0 12 2.61 0.13
-6 0 14 26.66 0.6
-6 0 16 133.81 3.09
-6 0 18 16.11 0.39
-6 0 20 10.33 0.29
-6 0 22 2.77 0.14
-6 0 24 13.23 0.35
-6 0 26 4.88 0.2
-6 1 1 1.42 0.07
-6 1 2 6.74 0.17
-6 1 3 1.32 0.06
-6 1 4 31.99 0.73
-6 1 5 94.37 2.12
-6 1 6 153.51 3.47
-6 1 7 2.69 0.09
-6 1 8 3.04 0.09
-6 1 9 44.86 1.01
-6 1 10 52.3 1.17
-6 1 11 4.12 0.13
-6 1 12 42.53 1
-6 1 13 5.08 0.13
-6 1 14 22.52 0.53
-6 1 15 3.79 0.11
-6 1 16 0.63 0.05
-6 1 17 1.04 0.06
-6 1 18 0.64 0.07
-6 1 19 12.28 0.3
-6 1 20 29.09 0.67
-6 1 21 13.07 0.32
-6 1 22 1.36 0.07
-6 1 23 2.23 0.1
-6 1 24 0.25 0.06
-6 1 25 1.13 0.08
-6 1 26 1.51 0.11
-6 2 1 70.61 1.57
-6 2 2 39.61 0.89
-6 2 3 61.41 1.39
-6 2 4 5.47 0.15
-6 2 5 4.36 0.13
-6 2 6 1.19 0.06
-6 2 7 0.21 0.04
-6 2 8 13.6 0.32
-6 2 9 31.46 0.75
-6 2 10 9.82 0.24
-6 2 11 0.23 0.03
-6 2 12 9.25 0.22
-6 2 13 0.16 0.04
-6 2 14 6.53 0.17
-6 2 15 2.9 0.11
-6 2 16 0.32 0.05
-6 2 17 9.89 0.26
-6 2 18 19.52 0.46
-6 2 19 2.53 0.12
-6 2 20 21.32 0.5
-6 2 21 1.36 0.08
-6 2 23 0.71 0.07
-6 2 24 0.25 0.08
-6 2 25 12.21 0.34
-6 3 1 13.28 0.34
-6 3 2 11.73 0.28
-6 3 3 1.69 0.06
-6 3 4 4.46 0.12
-6 3 5 0.72 0.04
-6 3 6 7.08 0.18
-6 3 7 7.73 0.21
-6 3 8 40.4 0.91
-6 3 9 32.12 0.73
-6 3 10 0.54 0.04
-6 3 11 4.49 0.13
-6 3 12 0.91 0.06
-6 3 13 6.89 0.2
-6 3 14 56.7 1.28
-6 3 15 12.98 0.31
-6 3 16 1.73 0.11
-6 3 17 0.66 0.07
-6 3 18 8.66 0.24
-6 3 19 15.72 0.46
-6 3 20 0.94 0.08
-6 3 21 0.46 0.08
-6 3 22 4.77 0.16
-6 3 23 0.79 0.09
-6 3 24 18.8 0.49
-6 4 1 7.98 0.2
-6 4 3 7.36 0.2
-6 4 4 43.31 0.97
-6 4 5 40.01 0.9
-6 4 6 1.87 0.07
-6 4 8 6.99 0.18
-6 4 10 1.9 0.08
-6 4 11 7.05 0.2
-6 4 12 11.69 0.29
-6 4 13 14 0.36
-6 4 14 13.65 0.33
-6 4 15 22.77 0.62
-6 4 16 0.61 0.1
-6 4 18 6.83 0.22
-6 4 19 0.93 0.09
-6 4 21 1.3 0.09
-6 4 22 0.43 0.07
-6 5 2 0.78 0.06
-6 5 3 1.12 0.06
-6 5 4 38.25 0.87
-6 5 6 6.95 0.2
-6 5 7 2.71 0.12
-6 5 8 16.5 0.42
-6 5 9 1.3 0.07
-6 5 10 15.15 0.38
-6 5 11 0.59 0.07
-6 5 13 0.56 0.08
-6 5 14 2.68 0.15
-6 5 15 1.27 0.21
-6 5 16 7.75 0.27
-6 5 17 0.33 0.11
-6 5 18 1.38 0.13
-6 5 20 2.54 0.2
-6 6 1 1.87 0.09
-6 6 2 4.33 0.13
-6 6 3 0.56 0.07
-6 6 4 3.23 0.11
-6 6 5 9.79 0.26
-6 6 6 1.65 0.13
-6 6 7 0.7 0.07
-6 6 8 0.42 0.08
-6 6 10 5.46 0.21
-6 6 11 10.2 0.31
-6 6 12 4.68 0.18
-6 6 13 0.73 0.11
-6 6 14 1.01 0.12
-6 6 15 3.76 0.26
-6 7 1 6 0.19
-6 7 3 0.34 0.07
-6 7 4 0.39 0.09
-6 7 6 1.28 0.14
-6 7 7 2.82 0.18
-6 7 9 2.5 0.41
-5 0 2 92.13 2.11
-5 0 4 18.13 0.47
-5 0 6 119.07 2.76
-5 0 8 282.35 6.73
-5 0 10 103.88 2.33
-5 0 12 44.55 1.25
-5 0 14 0.61 0.05
-5 0 18 27.02 0.62
-5 0 20 104.36 2.47
-5 0 24 0.47 0.09
-5 0 26 14.9 0.39
-5 1 1 56.51 1.29
-5 1 2 257.67 5.94
-5 1 3 51.26 1.17
-5 1 4 94.29 2.18
-5 1 5 31.14 0.72
-5 1 6 4.42 0.17
-5 1 7 1.1 0.06
-5 1 8 17.15 0.48
-5 1 9 270.79 6.6
-5 1 10 26.56 0.62
-5 1 11 0.2 0.04
-5 1 12 25.99 0.6
-5 1 13 9.15 0.23
-5 1 14 26.65 0.62
-5 1 15 40.63 0.91
-5 1 16 56.57 1.28
-5 1 17 16.73 0.39
-5 1 18 0.53 0.05
-5 1 19 42.82 0.97
-5 1 20 0.62 0.06
-5 1 21 0.95 0.06
-5 1 22 1.42 0.07
-5 1 23 0.16 0.05
-5 1 24 15.95 0.44
-5 1 25 1.12 0.07
-5 1 26 3.02 0.13
-5 2 1 9.25 0.23
-5 2 2 0.55 0.05
-5 2 3 4.32 0.13
-5 2 4 28.5 0.66
-5 2 5 177.71 4.04
-5 2 6 80.18 1.8
-5 2 7 21.87 0.5
-5 2 8 1.92 0.07
-5 2 9 0.16 0.04
-5 2 11 40.07 0.91
-5 2 12 24.37 0.58
-5 2 13 74.11 1.71
-5 2 14 0.76 0.05
-5 2 15 12.08 0.3
-5 2 16 3.3 0.12
-5 2 17 7.92 0.23
-5 2 18 5.17 0.16
-5 2 19 11.35 0.28
-5 2 21 0.26 0.06
-5 2 22 10.67 0.28
-5 2 23 7.95 0.29
-5 2 24 1.6 0.08
-5 3 1 19.76 0.45
-5 3 3 6.14 0.17
-5 3 4 11.59 0.28
-5 3 5 3.53 0.1
-5 3 6 4.65 0.13
-5 3 7 15.91 0.38
-5 3 8 2.26 0.08
-5 3 10 6.48 0.17
-5 3 11 0.58 0.05
-5 3 12 0.68 0.05
-5 3 14 0.83 0.06
-5 3 15 2.45 0.11
-5 3 18 13.13 0.33
-5 3 19 6.29 0.18
-5 3 20 0.26 0.06
-5 3 21 0.82 0.07
-5 3 23 3.95 0.16
-5 3 24 9.01 0.26
-5 4 1 3.27 0.1
-5 4 3 24.46 0.56
-5 4 4 24.05 0.6
-5 4 5 13.89 0.32
-5 4 7 1.05 0.05
-5 4 8 25.06 0.6
-5 4 10 23.97 0.55
-5 4 11 0.39 0.05
-5 4 12 1.93 0.08
-5 4 13 14.94 0.36
-5 4 14 7.51 0.22
-5 4 15 13.39 0.34
-5 4 17 2.34 0.1
-5 4 18 16.66 0.41
-5 4 19 0.52 0.07
-5 4 22 2.68 0.11
-5 4 23 9.4 0.3
-5 5 1 2.71 0.1
-5 5 2 3.99 0.12
-5 5 3 3.49 0.12
-5 5 4 67.51 1.52
-5 5 5 0.36 0.05
-5 5 6 8.93 0.24
-5 5 7 2.55 0.1
-5 5 8 6.34 0.19
-5 5 9 2.99 0.14
-5 5 10 3.64 0.16
-5 5 12 11.9 0.31
-5 5 13 4.2 0.17
-5 5 14 50.97 1.23
-5 5 16 0.69 0.07
-5 5 17 0.54 0.08
-5 5 18 1.41 0.09
-5 5 19 1.06 0.13
-5 5 20 2.57 0.2
-5 6 2 0.38 0.06
-5 6 3 20.21 0.54
-5 6 4 2.95 0.13
-5 6 5 1.38 0.11
-5 6 6 0.94 0.09
-5 6 7 1.7 0.09
-5 6 8 12.1 0.36
-5 6 9 2.42 0.16
-5 6 10 9.97 0.28
-5 6 11 0.62 0.1
-5 6 13 1.46 0.25
-5 6 15 3.89 0.22
-5 7 2 0.83 0.11
-5 7 3 0.66 0.08
-5 7 7 2.47 0.15
-5 7 9 2 0.14
-5 7 10 2.05 0.17
-5 7 11 2.48 0.39
-4 0 2 962.75 22.94
-4 0 4 124.08 3.19
-4 0 6 46.38 1.14
-4 0 8 596.57 13.84
-4 0 10 1.68 0.12
-4 0 12 244.75 6.11
-4 0 14 1.94 0.12
-4 0 16 59.21 1.33
-4 0 18 136.96 3.19
-4 0 22 1.23 0.09
-4 0 24 1.88 0.11
-4 0 26 11.61 0.84
-4 1 1 92.8 2.09
-4 1 2 57.85 1.32
-4 1 3 1.65 0.07
-4 1 4 34.26 0.78
-4 1 6 177.71 4.06
-4 1 7 88.71 2.19
-4 1 8 177.06 4.32
-4 1 9 46.96 1.07
-4 1 11 1.89 0.08
-4 1 12 81.77 1.87
-4 1 13 15.62 0.37
-4 1 14 16.62 0.42
-4 1 16 22.04 0.5
-4 1 17 4.71 0.14
-4 1 18 0.88 0.06
-4 1 19 54.95 1.24
-4 1 20 12.32 0.3
-4 1 21 1.43 0.07
-4 1 22 23.06 0.54
-4 1 23 9.72 0.27
-4 1 24 2.76 0.12
-4 1 25 4.43 0.16
-4 1 26 2.48 0.14
-4 2 1 52.15 1.2
-4 2 2 12.89 0.32
-4 2 3 80.3 1.81
-4 2 4 63.48 1.47
-4 2 5 5.91 0.17
-4 2 6 5.95 0.17
-4 2 7 7.15 0.19
-4 2 8 84.83 2.01
-4 2 9 14.01 0.36
-4 2 10 32.07 0.73
-4 2 11 7.79 0.21
-4 2 12 0.85 0.06
-4 2 13 3.29 0.11
-4 2 14 22.75 0.55
-4 2 15 35.31 0.8
-4 2 16 10.42 0.25
-4 2 17 7.63 0.21
-4 2 18 7.8 0.2
-4 2 19 6.08 0.18
-4 2 21 4.43 0.16
-4 2 22 4.1 0.16
-4 2 23 19.21 0.46
-4 2 24 2.3 0.16
-4 2 25 3.21 0.12
-4 2 26 1.16 0.09
-4 3 1 5.12 0.14
-4 3 2 13.91 0.33
-4 3 3 23.22 0.53
-4 3 4 244.94 5.63
-4 3 5 29.69 0.69
-4 3 6 8.25 0.21
-4 3 7 5.33 0.16
-4 3 8 0.25 0.04
-4 3 9 36.98 0.84
-4 3 10 63.57 1.43
-4 3 11 20 0.46
-4 3 12 12.28 0.29
-4 3 13 0.98 0.06
-4 3 14 31.49 0.75
-4 3 15 6.07 0.17
-4 3 16 4.22 0.17
-4 3 17 15.26 0.36
-4 3 18 2.59 0.13
-4 3 20 6.11 0.18
-4 3 21 1.63 0.09
-4 3 22 0.99 0.08
-4 3 23 0.32 0.07
-4 3 25 0.71 0.14
-4 4 1 0.19 0.03
-4 4 2 5.13 0.13
-4 4 3 60.38 1.37
-4 4 4 1.24 0.05
-4 4 5 11.31 0.27
-4 4 6 28.93 0.65
-4 4 7 9.7 0.24
-4 4 8 4.44 0.12
-4 4 9 2.18 0.08
-4 4 10 2.87 0.09
-4 4 12 0.42 0.05
-4 4 13 29.59 0.69
-4 4 14 23.13 0.62
-4 4 15 0.8 0.07
-4 4 16 1.92 0.11
-4 4 17 4.8 0.21
-4 4 18 2.33 0.1
-4 4 20 4.4 0.14
-4 4 21 0.25 0.07
-4 4 22 2.98 0.11
-4 4 23 5.21 0.17
-4 5 2 22.82 0.52
-4 5 3 2.44 0.1
-4 5 4 0.52 0.04
-4 5 6 5.46 0.19
-4 5 8 8.17 0.21
-4 5 9 0.16 0.05
-4 5 10 12.51 0.31
-4 5 11 1.33 0.08
-4 5 12 7.97 0.22
-4 5 13 0.53 0.07
-4 5 14 13.39 0.39
-4 5 17 1.58 0.18
-4 5 18 12.02 0.51
-4 6 2 4.84 0.15
-4 6 3 13.66 0.35
-4 6 4 3.66 0.14
-4 6 5 5.66 0.18
-4 6 6 1.71 0.12
-4 6 7 9.79 0.35
-4 6 8 1.25 0.1
-4 6 10 0.25 0.07
-4 6 11 0.54 0.08
-4 6 12 4.6 0.18
-4 6 13 19.73 0.78
-4 6 14 5.03 0.19
-4 6 16 0.98 0.11
-4 7 2 4.73 0.19
-4 7 3 5.14 0.21
-4 7 4 2.88 0.2
-4 7 6 0.82 0.12
-4 7 7 2.59 0.17
-4 7 8 1.8 0.14
-4 7 9 7.64 0.26
-4 7 11 0.8 0.11
-3 0 2 14.62 0.37
-3 0 4 89.71 2.26
-3 0 6 15.55 0.43
-3 0 8 23.16 0.57
-3 0 10 4.56 0.19
-3 0 12 151.18 4.38
-3 0 14 18.15 0.51
-3 0 16 13.71 0.34
-3 0 18 33.84 0.93
-3 0 20 9.86 0.33
-3 0 22 98.34 4.77
-3 0 24 0.44 0.11
-3 0 26 3.95 0.23
-3 1 1 329.1 7.53
-3 1 2 33.91 0.85
-3 1 3 163.9 3.76
-3 1 4 233.88 5.3
-3 1 5 214.88 4.87
-3 1 6 0.36 0.04
-3 1 7 358.84 8.23
-3 1 8 8.47 0.24
-3 1 9 61.66 1.65
-3 1 10 3.85 0.13
-3 1 11 158.57 3.66
-3 1 12 54.97 1.47
-3 1 13 0.9 0.07
-3 1 14 0.4 0.05
-3 1 16 31.72 0.72
-3 1 17 59.96 1.34
-3 1 18 38.58 0.89
-3 1 19 0.31 0.06
-3 1 20 2.03 0.09
-3 1 21 8.14 0.22
-3 1 22 2.24 0.12
-3 1 23 2.02 0.12
-3 1 24 0.22 0.06
-3 1 25 1.17 0.09
-3 1 26 17.57 0.47
-3 1 27 2.15 0.15
-3 2 1 83.5 1.92
-3 2 2 180.67 4.1
-3 2 3 303.25 6.96
-3 2 4 27.72 0.65
-3 2 5 2.71 0.11
-3 2 6 140.85 3.22
-3 2 7 171.75 3.94
-3 2 8 296.24 6.97
-3 2 9 52.43 1.26
-3 2 10 11.23 0.32
-3 2 11 22.64 0.64
-3 2 12 2.19 0.1
-3 2 13 52.85 1.19
-3 2 14 0.85 0.06
-3 2 15 29.05 0.68
-3 2 16 14.93 0.35
-3 2 17 1.1 0.06
-3 2 18 45.16 1.03
-3 2 19 0.39 0.06
-3 2 20 3.59 0.13
-3 2 21 11.59 0.3
-3 2 24 2.91 0.14
-3 3 1 3.72 0.12
-3 3 2 254.27 5.84
-3 3 3 8.28 0.47
-3 3 4 46.31 1.05
-3 3 5 21.93 0.53
-3 3 6 0.3 0.05
-3 3 7 4.06 0.14
-3 3 8 17.91 0.49
-3 3 9 5.5 0.14
-3 3 10 19.87 0.5
-3 3 11 1.46 0.07
-3 3 12 42.62 1
-3 3 13 9.45 0.25
-3 3 14 69.33 1.56
-3 3 15 1.53 0.07
-3 3 17 1.27 0.07
-3 3 18 3.5 0.12
-3 3 19 10.83 0.28
-3 3 20 4.56 0.15
-3 3 21 7.31 0.21
-3 3 22 10.48 0.27
-3 3 24 11.6 0.29
-3 3 25 2.35 0.19
-3 4 1 21.17 0.51
-3 4 2 10.93 0.28
-3 4 3 58.03 1.3
-3 4 4 29.17 0.66
-3 4 5 0.38 0.04
-3 4 6 25.05 0.57
-3 4 7 16.92 0.39
-3 4 8 0.53 0.04
-3 4 9 0.56 0.04
-3 4 10 38.62 0.87
-3 4 11 3.92 0.12
-3 4 12 2.96 0.1
-3 4 13 32.8 0.75
-3 4 14 5.95 0.17
-3 4 16 4.15 0.14
-3 4 17 11.14 0.28
-3 4 18 4.04 0.13
-3 4 19 0.32 0.06
-3 4 20 9.56 0.27
-3 4 21 0.62 0.07
-3 4 23 7.76 0.23
-3 5 1 0.2 0.04
-3 5 2 2.48 0.09
-3 5 3 4.4 0.12
-3 5 4 9.69 0.23
-3 5 5 1.2 0.06
-3 5 6 37.12 0.84
-3 5 7 4.23 0.13
-3 5 8 0.5 0.06
-3 5 9 4.46 0.19
-3 5 10 4.66 0.15
-3 5 11 1.5 0.08
-3 5 12 12.91 0.39
-3 5 13 0.29 0.06
-3 5 14 1.62 0.11
-3 5 16 18.16 0.59
-3 5 17 0.99 0.08
-3 5 18 1.26 0.09
-3 5 20 2.71 0.15
-3 6 1 8.96 0.31
-3 6 2 1.99 0.09
-3 6 3 1.07 0.07
-3 6 4 1.41 0.07
-3 6 5 0.63 0.07
-3 6 6 0.9 0.07
-3 6 7 0.81 0.07
-3 6 9 4.33 0.14
-3 6 10 3.2 0.18
-3 6 11 0.3 0.07
-3 6 12 4.18 0.16
-3 6 13 1.93 0.11
-3 6 15 0.67 0.1
-3 6 17 7.13 0.24
-3 7 1 0.81 0.08
-3 7 2 5.63 0.25
-3 7 3 0.44 0.1
-3 7 4 4.41 0.2
-3 7 5 1.96 0.29
-3 7 6 0.72 0.11
-3 7 9 0.43 0.11
-3 7 11 0.47 0.11
-3 7 12 6.85 0.39
-2 0 2 637.95 20.07
-2 0 4 2085 56.74
-2 0 6 178.85 4.38
-2 0 8 464.69 13.85
-2 0 10 192.56 5.26
-2 0 12 17.33 0.64
-2 0 14 57.41 2.15
-2 0 16 11.4 0.33
-2 0 18 4.93 0.18
-2 0 20 17.43 0.58
-2 0 22 4.75 0.32
-2 0 26 3.9 0.34
-2 1 1 193.36 4.57
-2 1 2 575.12 13.2
-2 1 3 20.93 0.56
-2 1 4 372.46 8.69
-2 1 5 19.4 0.61
-2 1 6 5.5 0.2
-2 1 7 35.91 0.85
-2 1 8 293.51 8.05
-2 1 9 22.08 0.54
-2 1 10 32.88 1.03
-2 1 11 82.77 1.97
-2 1 12 9.63 0.28
-2 1 13 31.98 0.76
-2 1 14 18.39 0.47
-2 1 15 11.3 0.28
-2 1 16 1.15 0.07
-2 1 17 30.67 0.7
-2 1 18 8.67 0.25
-2 1 19 1.88 0.09
-2 1 20 1 0.07
-2 1 21 60.04 1.38
-2 1 22 11.7 0.32
-2 1 24 2.47 0.12
-2 1 25 0.57 0.12
-2 1 26 1.47 0.12
-2 2 1 150.54 3.42
-2 2 2 489.1 11.47
-2 2 3 9.85 0.26
-2 2 4 23.31 0.71
-2 2 5 3.46 0.13
-2 2 6 73.56 1.82
-2 2 7 34.46 0.89
-2 2 8 28.26 0.68
-2 2 9 16.96 0.45
-2 2 10 88.92 2.05
-2 2 11 13.49 0.34
-2 2 12 108.43 2.46
-2 2 13 30 0.68
-2 2 14 13.82 0.32
-2 2 15 2.22 0.1
-2 2 16 37.95 0.86
-2 2 17 55.39 1.25
-2 2 18 28.25 0.65
-2 2 19 8.37 0.23
-2 2 20 7.17 0.23
-2 2 21 0.5 0.09
-2 2 22 10.29 0.28
-2 2 23 10.82 0.31
-2 2 24 0.46 0.08
-2 2 25 14.86 0.37
-2 2 26 7.46 0.28
-2 3 1 144.8 3.27
-2 3 2 66.6 1.48
-2 3 3 1.49 0.08
-2 3 4 9.37 0.24
-2 3 5 6.77 0.19
-2 3 6 376.75 8.67
-2 3 7 82.86 1.88
-2 3 8 26.31 0.64
-2 3 9 8 0.2
-2 3 10 22.2 0.53
-2 3 11 19.91 0.46
-2 3 12 84.46 1.9
-2 3 13 3.82 0.11
-2 3 14 4.96 0.13
-2 3 15 11.34 0.27
-2 3 16 32.81 0.75
-2 3 17 4.63 0.14
-2 3 18 9.5 0.25
-2 3 19 1.32 0.08
-2 3 20 15.56 0.42
-2 3 22 11.37 0.29
-2 3 23 1.21 0.15
-2 3 24 1.59 0.08
-2 4 1 16.42 0.38
-2 4 2 60.33 1.35
-2 4 3 32.15 0.73
-2 4 4 0.46 0.04
-2 4 5 34.66 0.79
-2 4 6 3.94 0.13
-2 4 7 36.95 0.85
-2 4 8 0.59 0.04
-2 4 9 0.34 0.04
-2 4 10 24.6 0.57
-2 4 11 18.38 0.45
-2 4 13 10.84 0.3
-2 4 14 9.09 0.24
-2 4 15 10.92 0.29
-2 4 16 14.7 0.35
-2 4 17 11.06 0.27
-2 4 18 1.23 0.07
-2 4 19 0.22 0.07
-2 4 20 2.77 0.12
-2 4 21 2.31 0.12
-2 4 23 3.26 0.14
-2 5 1 0.31 0.04
-2 5 2 16.03 0.38
-2 5 3 3.32 0.1
-2 5 4 3.57 0.11
-2 5 5 4.21 0.13
-2 5 7 0.24 0.05
-2 5 8 1.21 0.07
-2 5 9 1.01 0.06
-2 5 10 3.34 0.17
-2 5 11 0.5 0.05
-2 5 12 0.97 0.06
-2 5 13 5.96 0.17
-2 5 14 2.59 0.11
-2 5 16 13.76 0.34
-2 5 17 0.59 0.07
-2 5 19 1.57 0.11
-2 5 20 5.18 0.19
-2 5 21 1.28 0.14
-2 6 1 0.56 0.06
-2 6 3 16.05 0.38
-2 6 5 9.42 0.26
-2 6 7 3.67 0.14
-2 6 8 2.06 0.09
-2 6 9 3.06 0.12
-2 6 11 6.56 0.2
-2 6 12 0.45 0.08
-2 6 14 1.75 0.11
-2 6 15 5.97 0.21
-2 6 16 0.6 0.1
-2 7 1 6.44 0.19
-2 7 3 0.24 0.07
-2 7 4 1.38 0.12
-2 7 5 0.23 0.07
-2 7 6 3.47 0.14
-2 7 7 4.82 0.17
-2 7 8 3.75 0.19
-2 7 9 0.5 0.08
-2 7 10 1.45 0.09
-2 7 11 3.33 0.14
-2 7 12 1.04 0.11
-1 0 2 783.23 17.64
-1 0 4 857.15 28.36
-1 0 6 199.77 6.63
-1 0 8 499.09 14.04
-1 0 10 3.29 0.18
-1 0 12 113.2 2.85
-1 0 14 45.8 1.23
-1 0 16 22.98 0.54
-1 0 18 61.65 1.4
-1 0 20 45.14 1.04
-1 0 22 0.74 0.12
-1 0 24 23.5 0.77
-1 0 26 7.02 0.28
-1 1 1 2823.95 62.1
-1 1 2 159.83 4.33
-1 1 3 358.49 8.51
-1 1 4 255.65 6.61
-1 1 5 1.11 0.08
-1 1 6 0.52 0.06
-1 1 7 394.45 9.05
-1 1 8 93.37 2.58
-1 1 9 168.86 3.82
-1 1 11 72.58 1.65
-1 1 12 86.15 2.04
-1 1 13 5.59 0.17
-1 1 14 44.62 1.06
-1 1 15 10.68 0.26
-1 1 16 6.23 0.18
-1 1 17 1.67 0.09
-1 1 18 15.41 0.38
-1 1 19 10.28 0.29
-1 1 20 2.93 0.13
-1 1 21 14.54 0.39
-1 1 22 13.19 0.35
-1 1 23 1.8 0.11
-1 1 24 0.56 0.09
-1 1 25 1.59 0.13
-1 1 26 0.3 0.08
-1 2 1 140.49 3.22
-1 2 2 8.27 0.24
-1 2 3 173.86 3.93
-1 2 4 234.91 5.4
-1 2 5 501.22 11.61
-1 2 6 18.84 0.45
-1 2 7 1.43 0.09
-1 2 8 45.74 1.03
-1 2 9 7.89 0.25
-1 2 10 183.94 4.31
-1 2 11 71.67 1.63
-1 2 12 33.11 0.87
-1 2 13 12.84 0.31
-1 2 14 1.22 0.06
-1 2 15 12.41 0.32
-1 2 18 5.43 0.18
-1 2 19 4.26 0.14
-1 2 20 50.57 1.16
-1 2 21 1.11 0.08
-1 2 22 19.48 0.55
-1 2 25 0.56 0.1
-1 3 2 32.31 0.73
-1 3 3 13.59 0.34
-1 3 4 56.33 1.31
-1 3 5 0.8 0.07
-1 3 6 106.75 2.41
-1 3 7 1.69 0.09
-1 3 8 6.48 0.18
-1 3 9 1.18 0.06
-1 3 10 31.65 0.72
-1 3 11 42.17 0.97
-1 3 12 0.24 0.04
-1 3 13 1.18 0.05
-1 3 14 26.77 0.61
-1 3 15 6.35 0.16
-1 3 16 117 2.72
-1 3 17 12.25 0.3
-1 3 18 1.1 0.07
-1 3 19 4.13 0.15
-1 3 21 13.65 0.35
-1 3 22 5.7 0.22
-1 3 23 2.41 0.17
-1 3 24 13.43 0.41
-1 4 1 5.82 0.16
-1 4 2 9.62 0.23
-1 4 4 0.41 0.04
-1 4 5 60.7 1.38
-1 4 6 82.24 1.89
-1 4 7 28.93 0.66
-1 4 8 7.91 0.19
-1 4 9 1.37 0.06
-1 4 11 2.99 0.1
-1 4 12 20.92 0.48
-1 4 13 0.36 0.05
-1 4 14 3.58 0.11
-1 4 15 39.36 0.93
-1 4 16 4.18 0.13
-1 4 17 10.43 0.26
-1 4 19 0.65 0.07
-1 4 20 10.2 0.3
-1 4 21 2.45 0.15
-1 4 22 1.3 0.1
-1 5 1 10.27 0.25
-1 5 2 72.82 1.64
-1 5 3 1.26 0.06
-1 5 4 4.84 0.13
-1 5 5 0.16 0.04
-1 5 6 32.68 0.76
-1 5 7 1.05 0.06
-1 5 8 0.9 0.06
-1 5 9 7 0.18
-1 5 10 15.09 0.35
-1 5 11 1.49 0.07
-1 5 12 13.86 0.33
-1 5 14 1.75 0.08
-1 5 15 1.18 0.07
-1 5 17 0.5 0.06
-1 5 19 0.46 0.08
-1 6 1 2.19 0.1
-1 6 2 7.11 0.19
-1 6 4 1.8 0.09
-1 6 5 0.81 0.07
-1 6 6 9.51 0.24
-1 6 7 9.09 0.25
-1 6 8 2.74 0.11
-1 6 10 0.45 0.06
-1 6 12 0.21 0.06
-1 6 13 3.27 0.14
-1 6 15 5.33 0.16
-1 6 16 0.6 0.1
-1 6 17 2.03 0.43
-1 7 1 1.59 0.1
-1 7 3 3.25 0.14
-1 7 4 3.7 0.17
-1 7 6 4.04 0.15
-1 7 8 0.45 0.08
-1 7 11 4.74 0.18
0 0 4 71.69 1.66
0 0 8 285.8 6.62
0 0 12 13.89 0.38
0 0 16 11.91 0.43
0 0 20 12.82 0.78
0 0 24 1.9 0.33
0 1 1 475.41 10.66
0 1 2 93.89 2.23
0 1 3 18.64 0.57
0 1 4 1517.68 34.93
0 1 5 72.61 1.69
0 1 6 308.54 9.6
0 1 7 35.76 0.9
0 1 8 26.5 0.72
0 1 9 36.31 0.83
0 1 10 144.95 3.29
0 1 11 201.82 4.69
0 1 12 0.17 0.05
0 1 13 25.64 0.73
0 1 14 9 0.23
0 1 15 3.39 0.11
0 1 16 3.74 0.13
0 1 17 20.5 0.48
0 1 18 25.9 0.61
0 1 19 53.44 1.22
0 1 20 3.8 0.2
0 1 21 17.41 0.46
0 1 22 4.35 0.21
0 1 23 11.02 0.31
0 1 24 4.28 0.17
0 1 25 1.09 0.13
0 1 26 2.27 0.13
0 2 1 76.43 1.74
0 2 2 131.66 3.08
0 2 4 188.27 4.27
0 2 5 49.6 1.17
0 2 6 5.1 0.16
0 2 7 138.57 3.13
0 2 8 0.59 0.07
0 2 9 53.63 1.21
0 2 10 25.56 0.66
0 2 11 1.37 0.09
0 2 12 16.97 0.39
0 2 13 9.97 0.25
0 2 14 57.98 1.3
0 2 15 97.55 2.2
0 2 16 2.81 0.12
0 2 18 11.95 0.29
0 2 19 12.57 0.35
0 2 20 26.62 0.64
0 2 21 13.62 0.38
0 2 22 0.39 0.08
0 2 23 4.29 0.18
0 2 24 7.09 0.27
0 2 25 8.32 0.3
0 3 1 51.33 1.23
0 3 2 117.93 2.65
0 3 3 88.96 2.01
0 3 4 59.18 1.35
0 3 5 15.97 0.39
0 3 6 0.35 0.05
0 3 7 1 0.07
0 3 8 100.22 2.27
0 3 9 40.61 0.94
0 3 10 1.38 0.06
0 3 11 1.43 0.06
0 3 12 9.73 0.26
0 3 14 28.11 0.65
0 3 15 0.35 0.04
0 3 16 1.17 0.06
0 3 17 5.1 0.16
0 3 18 5.38 0.17
0 3 19 0.37 0.06
0 3 20 12.8 0.33
0 3 21 2.71 0.13
0 3 22 4.61 0.18
0 3 24 7.17 0.27
0 4 0 2.68 0.11
0 4 1 11.9 0.3
0 4 2 57.94 1.3
0 4 3 3.9 0.13
0 4 4 12.26 0.29
0 4 5 76.33 1.73
0 4 6 6.51 0.16
0 4 7 0.14 0.03
0 4 8 5.66 0.14
0 4 9 6.55 0.17
0 4 10 16.56 0.38
0 4 11 0.75 0.05
0 4 12 24.46 0.56
0 4 13 6.34 0.17
0 4 14 0.14 0.04
0 4 15 26.9 0.67
0 4 16 17.75 0.54
0 4 17 0.7 0.07
0 4 18 2.37 0.1
0 4 19 3.42 0.13
0 4 20 3.98 0.2
0 4 22 1.15 0.09
0 5 2 7.45 0.18
0 5 3 1.11 0.05
0 5 4 24.65 0.56
0 5 5 3.25 0.1
0 5 6 75.26 1.7
0 5 8 6.55 0.17
0 5 10 0.24 0.04
0 5 11 3.79 0.11
0 5 12 8.34 0.21
0 5 13 0.99 0.06
0 5 14 14.28 0.34
0 5 15 1.54 0.11
0 5 16 23.95 0.69
0 5 17 0.38 0.07
0 5 18 1.03 0.09
0 5 19 1.89 0.11
0 5 20 2.55 0.15
0 6 1 6.03 0.18
0 6 2 9.89 0.27
0 6 3 4.08 0.2
0 6 4 0.78 0.06
0 6 5 28.99 0.67
0 6 6 0.22 0.05
0 6 7 0.26 0.06
0 6 8 0.81 0.07
0 6 9 0.51 0.06
0 6 10 12.36 0.3
0 6 11 1.37 0.08
0 6 12 5.26 0.23
0 6 13 5.07 0.17
0 6 14 0.29 0.07
0 6 15 1.74 0.1
0 6 16 2.03 0.22
0 7 1 8.9 0.26
0 7 3 0.79 0.08
0 7 5 0.99 0.12
0 7 8 1.04 0.12
0 7 9 7.17 0.42
0 7 10 1.8 0.21
0 7 11 0.67 0.15
1 0 0 404.95 8.74
1 0 2 10.74 0.35
1 0 4 1822.94 58.8
1 0 6 221.11 5.17
1 0 8 70.29 1.92
1 0 10 660.48 15.2
1 0 12 6.15 0.23
1 0 14 86.03 1.92
1 0 16 11.94 0.33
1 0 18 88.48 2.21
1 0 20 93.41 2.24
1 0 22 4.2 0.46
1 0 24 0.97 0.3
1 1 0 1571.02 38.32
1 1 1 39.19 0.92
1 1 2 443.47 10.19
1 1 3 800.7 18.22
1 1 4 67.64 1.58
1 1 5 112.97 2.86
1 1 6 208.34 5.12
1 1 7 17.91 0.47
1 1 8 90.25 2.07
1 1 9 186.47 4.27
1 1 10 72.06 1.63
1 1 12 2.1 0.14
1 1 13 6.73 0.17
1 1 14 125.82 2.84
1 1 15 4.17 0.14
1 1 16 23.77 0.55
1 1 17 3.84 0.15
1 1 18 4.2 0.25
1 1 19 12.31 0.32
1 1 20 5.55 0.2
1 1 21 10.48 0.35
1 1 22 3.49 0.19
1 1 23 8.62 0.26
1 1 24 14.7 0.39
1 1 25 2.64 0.16
1 2 0 325.53 7.53
1 2 1 270.03 6.5
1 2 3 360.39 8.35
1 2 4 19.45 0.53
1 2 5 89.6 2.24
1 2 6 156.88 3.57
1 2 7 81 1.82
1 2 8 5.66 0.17
1 2 9 7.18 0.19
1 2 10 4.58 0.14
1 2 11 8.47 0.21
1 2 12 14.65 0.38
1 2 13 27.17 0.61
1 2 14 6.5 0.18
1 2 15 0.77 0.06
1 2 16 5.56 0.16
1 2 17 4.28 0.13
1 2 19 6.01 0.18
1 2 20 0.49 0.08
1 2 21 2.29 0.12
1 2 22 11.82 0.58
1 2 24 10.23 0.44
1 2 25 9.63 0.49
1 3 0 19.35 0.52
1 3 1 31.08 0.74
1 3 2 47.09 1.13
1 3 4 8.06 0.22
1 3 5 21.91 0.52
1 3 6 43.69 0.99
1 3 7 18.7 0.45
1 3 8 24.75 0.57
1 3 9 9.52 0.23
1 3 10 0.79 0.04
1 3 11 15.02 0.35
1 3 12 34.44 0.78
1 3 13 28.79 0.65
1 3 14 15.1 0.36
1 3 15 0.92 0.06
1 3 16 0.29 0.05
1 3 17 1.73 0.08
1 3 18 37.27 0.91
1 3 19 15.49 0.47
1 3 20 0.31 0.1
1 3 21 1.19 0.14
1 3 23 2.31 0.12
1 4 0 18 0.41
1 4 1 0.63 0.04
1 4 2 56.09 1.27
1 4 3 14.33 0.34
1 4 4 2.87 0.09
1 4 5 51.33 1.15
1 4 6 8.12 0.2
1 4 7 1.37 0.05
1 4 8 59.46 1.39
1 4 9 12.07 0.28
1 4 11 1.5 0.07
1 4 12 1.55 0.07
1 4 13 8.17 0.23
1 4 14 1.62 0.07
1 4 15 18.64 0.44
1 4 16 12.9 0.32
1 4 17 4.25 0.14
1 4 18 0.89 0.07
1 4 19 4.44 0.15
1 4 20 2.7 0.13
1 4 22 7.43 0.24
1 5 0 4.35 0.12
1 5 2 12.3 0.29
1 5 3 0.63 0.05
1 5 4 91.98 2.08
1 5 5 4.33 0.14
1 5 7 0.96 0.05
1 5 8 7.9 0.2
1 5 9 0.8 0.05
1 5 10 2.12 0.08
1 5 11 0.89 0.06
1 5 12 22.55 0.54
1 5 13 0.36 0.06
1 5 14 19.82 0.55
1 5 16 7.27 0.22
1 5 17 0.3 0.09
1 6 0 6.77 0.19
1 6 1 5.89 0.18
1 6 2 3.03 0.11
1 6 3 0.65 0.06
1 6 4 5.49 0.18
1 6 5 11.78 0.33
1 6 6 3.77 0.12
1 6 7 0.28 0.06
1 6 8 12.89 0.41
1 6 9 11.56 0.3
1 6 10 6.61 0.19
1 6 11 0.23 0.06
1 6 13 2.23 0.13
1 6 14 0.76 0.09
1 6 15 12.61 0.35
1 6 16 1.14 0.11
1 7 0 1.88 0.12
1 7 1 1.36 0.09
1 7 2 0.75 0.08
1 7 3 0.51 0.07
1 7 4 1.62 0.1
1 7 5 3.85 0.16
1 7 9 4.75 0.21
1 7 10 0.61 0.2
1 7 11 2.65 0.19
1 8 0 4.4 0.24
2 0 0 26.38 0.78
2 0 2 3483.41 68.65
2 0 4 8.26 0.28
2 0 6 4.04 0.25
2 0 8 100.78 2.43
2 0 10 33.97 0.81
2 0 12 75.95 2.57
2 0 14 97.8 2.46
2 0 16 35.88 0.85
2 0 18 5.23 0.21
2 0 20 19.27 1.68
2 0 22 15.49 0.49
2 0 24 35.95 0.93
2 1 0 376.8 8.71
2 1 1 68.2 1.57
2 1 2 2.6 0.12
2 1 3 470.28 10.76
2 1 4 9.41 0.28
2 1 5 19.85 0.52
2 1 6 418.15 9.64
2 1 7 29.11 0.72
2 1 8 45.92 1.17
2 1 9 174.11 3.98
2 1 10 42.31 0.96
2 1 11 1.7 0.09
2 1 12 23.92 0.62
2 1 13 115.45 2.61
2 1 14 3.1 0.11
2 1 15 5.38 0.16
2 1 16 0.61 0.06
2 1 17 4.35 0.16
2 1 18 21.8 0.52
2 1 19 34.69 0.81
2 1 20 26.25 0.64
2 1 21 9.96 0.42
2 1 22 0.63 0.11
2 1 23 7.26 0.3
2 1 24 8.55 0.3
2 2 0 523.77 12.02
2 2 1 1.75 0.09
2 2 2 3.08 0.14
2 2 3 16.62 0.42
2 2 4 1.13 0.08
2 2 5 149.06 3.37
2 2 6 10.09 0.26
2 2 7 55.66 1.25
2 2 8 54.3 1.21
2 2 9 76.98 1.79
2 2 10 74.75 1.67
2 2 11 31.86 0.72
2 2 12 0.36 0.04
2 2 13 36.09 0.81
2 2 14 1.69 0.08
2 2 15 12.62 0.31
2 2 16 13.06 0.32
2 2 17 46.91 1.1
2 2 18 2.33 0.11
2 2 20 2.05 0.14
2 2 22 2.92 0.19
2 2 23 11.31 0.34
2 3 0 12.83 0.31
2 3 1 29.67 0.68
2 3 2 90.45 2.02
2 3 3 4.5 0.14
2 3 4 219.45 5.11
2 3 5 7.78 0.2
2 3 6 2.25 0.09
2 3 7 28.92 0.65
2 3 8 1.61 0.07
2 3 9 1.33 0.06
2 3 10 2.34 0.08
2 3 11 0.23 0.04
2 3 12 3.83 0.12
2 3 14 8.57 0.22
2 3 15 5.02 0.14
2 3 16 3.82 0.13
2 3 17 0.18 0.06
2 3 18 1.44 0.08
2 3 19 0.28 0.06
2 3 20 0.35 0.06
2 3 21 1.79 0.12
2 3 22 4.97 0.18
2 3 23 5.1 0.42
2 4 0 12.69 0.31
2 4 2 1.92 0.1
2 4 3 54.48 1.23
2 4 4 53.95 1.21
2 4 5 18.53 0.42
2 4 6 3.55 0.1
2 4 7 18.43 0.42
2 4 8 5.43 0.14
2 4 9 6.78 0.17
2 4 10 1.75 0.07
2 4 11 0.25 0.04
2 4 12 35.45 0.83
2 4 13 12.17 0.31
2 4 14 8.03 0.21
2 4 15 5.54 0.17
2 4 17 6.32 0.2
2 4 18 11.23 0.3
2 4 19 3.74 0.18
2 4 20 0.29 0.07
2 5 0 11.59 0.28
2 5 1 3.75 0.12
2 5 2 1.96 0.08
2 5 3 1.42 0.07
2 5 4 2.93 0.11
2 5 5 1.23 0.07
2 5 6 1.89 0.08
2 5 7 0.32 0.06
2 5 8 73.17 1.67
2 5 9 5.87 0.17
2 5 10 3.59 0.13
2 5 11 0.31 0.05
2 5 12 0.82 0.08
2 5 13 1.67 0.12
2 5 14 18.68 0.78
2 5 15 1.03 0.1
2 5 16 7.64 0.28
2 5 18 15.87 0.54
2 6 0 0.89 0.06
2 6 1 0.52 0.06
2 6 2 7.37 0.2
2 6 3 13.65 0.35
2 6 4 7.36 0.2
2 6 6 0.23 0.06
2 6 7 5.73 0.19
2 6 8 0.72 0.07
2 6 9 0.48 0.06
2 6 11 3.37 0.16
2 6 12 8.43 0.26
2 6 13 0.66 0.09
2 6 14 4.63 0.18
2 7 0 1.15 0.08
2 7 1 2.27 0.13
2 7 2 0.34 0.07
2 7 3 2.13 0.12
2 7 4 4.46 0.17
2 7 6 2.24 0.13
2 7 7 3.13 0.18
2 7 9 0.29 0.09
3 0 0 399.92 10.79
3 0 2 186.18 4.42
3 0 4 21.27 0.57
3 0 6 563.88 13.34
3 0 8 10.15 0.34
3 0 10 1.13 0.07
3 0 12 278.83 7.05
3 0 14 3.64 0.15
3 0 16 11.12 0.32
3 0 18 10.5 0.34
3 0 20 36.15 0.99
3 0 22 33.96 0.96
3 1 0 110.75 2.49
3 1 1 451.26 10.34
3 1 2 450.26 10.85
3 1 3 42.19 1.01
3 1 4 11.55 0.32
3 1 5 5.05 0.15
3 1 6 4.58 0.14
3 1 7 28.21 0.65
3 1 8 37.48 0.85
3 1 9 1.4 0.07
3 1 10 83.72 1.89
3 1 11 13.39 0.32
3 1 12 10.68 0.27
3 1 13 35.19 0.79
3 1 14 0.6 0.05
3 1 15 2.94 0.11
3 1 16 58.59 1.33
3 1 17 1.28 0.09
3 1 18 3 0.17
3 1 19 7.78 0.23
3 1 21 4.38 0.23
3 1 22 0.93 0.13
3 1 23 22.49 1.23
3 1 24 5.52 0.42
3 2 0 1.83 0.08
3 2 1 7.62 0.21
3 2 2 270.98 6.79
3 2 3 100.1 2.4
3 2 4 88.94 2
3 2 5 61.13 1.45
3 2 6 43.63 1
3 2 7 3.86 0.11
3 2 8 101.94 2.29
3 2 9 2.2 0.08
3 2 10 11.3 0.27
3 2 11 9.13 0.23
3 2 12 21.67 0.52
3 2 13 3.1 0.12
3 2 14 7.76 0.2
3 2 15 1.25 0.07
3 2 16 1.87 0.1
3 2 17 7.16 0.19
3 2 18 21.33 0.5
3 2 19 14.87 0.38
3 2 20 6.91 0.27
3 2 21 5.34 0.46
3 2 22 1.62 0.32
3 3 0 75.37 1.69
3 3 1 2 0.09
3 3 2 20.73 0.5
3 3 3 97.42 2.29
3 3 4 106.61 2.44
3 3 5 0.13 0.03
3 3 6 20.84 0.47
3 3 7 2.18 0.07
3 3 8 113.54 2.63
3 3 9 36.25 0.81
3 3 10 0.18 0.04
3 3 11 16.27 0.4
3 3 12 33.58 0.76
3 3 13 12.07 0.29
3 3 14 49.7 1.13
3 3 15 5.14 0.16
3 3 16 8.4 0.24
3 3 17 7.38 0.22
3 3 18 2.31 0.12
3 3 19 0.72 0.08
3 3 20 0.37 0.08
3 3 21 3.75 0.27
3 3 22 6.52 0.45
3 4 0 6.29 0.17
3 4 1 0.35 0.04
3 4 2 2.26 0.08
3 4 3 18.34 0.42
3 4 4 38.09 0.88
3 4 5 0.25 0.03
3 4 6 0.33 0.04
3 4 7 55.8 1.28
3 4 8 20.63 0.47
3 4 9 9.91 0.26
3 4 10 11.23 0.27
3 4 12 1.83 0.08
3 4 13 13.74 0.34
3 4 14 3.13 0.12
3 4 16 2.52 0.12
3 4 17 16.77 0.43
3 4 18 9.66 0.33
3 4 19 0.94 0.09
3 5 0 17.75 0.42
3 5 1 9.25 0.23
3 5 2 3.11 0.11
3 5 5 1.81 0.08
3 5 6 16.32 0.4
3 5 7 4.73 0.14
3 5 8 1.62 0.08
3 5 9 0.37 0.05
3 5 12 1.35 0.12
3 5 13 0.39 0.07
3 5 14 1.72 0.12
3 5 15 1.8 0.18
3 5 16 4.08 0.18
3 5 18 14.11 0.55
3 6 0 0.53 0.07
3 6 1 0.91 0.07
3 6 2 1.29 0.1
3 6 3 1.04 0.07
3 6 4 1.28 0.08
3 6 5 3.42 0.13
3 6 6 0.91 0.08
3 6 7 15.12 0.41
3 6 8 0.17 0.06
3 6 9 1.02 0.07
3 6 10 2.28 0.1
3 6 11 2.33 0.17
3 6 12 2.61 0.16
3 6 13 4.05 0.2
3 6 14 0.4 0.12
3 7 0 1.2 0.08
3 7 2 3.83 0.14
3 7 3 5.27 0.17
3 7 4 0.78 0.09
3 7 6 0.59 0.09
3 7 8 1.23 0.11
3 7 9 1.69 0.16
3 7 10 1.56 0.15
4 0 0 45.96 1.1
4 0 4 36.19 0.93
4 0 6 13.03 0.64
4 0 8 1.01 0.06
4 0 10 4.1 0.17
4 0 12 2.99 0.13
4 0 16 48.01 1.16
4 1 0 2.48 0.1
4 1 1 153.56 3.51
4 1 2 184.92 4.26
4 1 3 207.41 4.8
4 1 4 2.92 0.12
4 1 5 88.17 2.01
4 1 6 39.47 0.9
4 1 7 8.1 0.21
4 1 8 27.65 0.62
4 1 9 20.36 0.48
4 1 10 0.27 0.03
4 1 11 127.13 2.87
4 1 12 11.34 0.27
4 1 13 5.97 0.16
4 1 14 2.13 0.12
4 1 15 9.43 0.24
4 1 16 3.21 0.13
4 1 17 8.67 0.3
4 1 18 0.48 0.08
4 1 19 1.02 0.14
4 1 20 17.59 0.49
4 1 21 14.08 0.57
4 1 22 4.75 0.42
4 2 0 118.5 2.7
4 2 1 72.66 1.64
4 2 2 293.28 6.75
4 2 3 54.36 1.22
4 2 4 15.09 0.35
4 2 5 0.54 0.04
4 2 6 6.94 0.18
4 2 7 150.92 3.43
4 2 8 0.73 0.04
4 2 9 14.25 0.34
4 2 10 40.26 0.9
4 2 11 1.22 0.06
4 2 12 100.15 2.34
4 2 13 27.2 0.63
4 2 14 11.16 0.28
4 2 15 26.27 0.63
4 2 16 2.19 0.11
4 2 17 5.16 0.17
4 2 18 5.47 0.21
4 2 19 2.96 0.17
4 2 20 3.03 0.22
4 2 21 2.39 0.41
4 2 22 13.58 0.57
4 3 0 5.87 0.16
4 3 1 36.96 0.86
4 3 2 1.06 0.06
4 3 3 1.42 0.06
4 3 4 48.66 1.09
4 3 5 3.51 0.1
4 3 6 105.71 2.42
4 3 7 0.33 0.03
4 3 8 54.48 1.23
4 3 9 6.19 0.16
4 3 10 9.8 0.26
4 3 11 0.36 0.05
4 3 13 13.17 0.32
4 3 16 23.48 0.79
4 3 17 3.06 0.14
4 3 18 33.19 0.88
4 3 19 2.24 0.23
4 3 21 3.98 0.4
4 4 0 66.91 1.53
4 4 1 0.49 0.04
4 4 2 0.52 0.04
4 4 3 2.81 0.1
4 4 4 1.55 0.06
4 4 5 20.46 0.47
4 4 6 13.82 0.32
4 4 7 41.03 1
4 4 8 21.01 0.48
4 4 9 0.85 0.05
4 4 10 1.29 0.06
4 4 11 0.48 0.06
4 4 12 0.29 0.06
4 4 13 0.57 0.07
4 4 14 21.51 0.52
4 4 15 5.49 0.2
4 4 17 18.33 0.63
4 5 0 0.15 0.05
4 5 1 2.06 0.08
4 5 2 0.82 0.05
4 5 3 3.6 0.11
4 5 4 22.9 0.55
4 5 5 2.21 0.09
4 5 6 9.7 0.24
4 5 8 2.15 0.09
4 5 10 15.88 0.4
4 5 11 7.81 0.22
4 5 12 2.11 0.12
4 5 16 7.69 0.25
4 5 17 1.19 0.28
4 6 0 0.92 0.08
4 6 1 3.8 0.13
4 6 2 0.65 0.06
4 6 3 0.62 0.07
4 6 5 2.95 0.15
4 6 7 0.78 0.07
4 6 8 2.29 0.1
4 6 9 1.83 0.09
4 7 1 5.06 0.17
4 7 2 0.93 0.08
4 7 5 0.93 0.09
4 7 6 6.96 0.27
4 7 7 0.56 0.11
4 7 8 4.02 0.22
5 0 0 62.38 1.5
5 0 2 666.93 19.75
5 0 4 11.48 0.32
5 0 6 6.34 0.18
5 0 8 144.06 4.23
5 0 10 70.44 1.74
5 0 12 16.9 0.4
5 0 14 15.31 0.58
5 0 16 15.15 0.41
5 0 18 1.62 0.38
5 0 20 1.29 0.34
5 1 0 0.42 0.06
5 1 1 108.22 2.48
5 1 2 57.2 1.29
5 1 3 1.77 0.09
5 1 4 37.93 0.97
5 1 5 1.32 0.06
5 1 6 79.82 1.79
5 1 7 5.07 0.13
5 1 8 1.47 0.06
5 1 9 1.88 0.07
5 1 10 0.72 0.04
5 1 11 28.79 0.65
5 1 12 55.5 1.25
5 1 13 16.5 0.39
5 1 14 0.28 0.05
5 1 15 17.78 0.44
5 1 18 5.48 0.33
5 1 19 0.8 0.12
5 1 20 0.98 0.16
5 1 21 24.31 0.69
5 2 0 23.87 0.58
5 2 1 24.91 0.57
5 2 2 3.28 0.11
5 2 3 23.89 0.55
5 2 4 59.97 1.34
5 2 5 14.71 0.35
5 2 6 48.16 1.08
5 2 7 4.11 0.11
5 2 8 14 0.34
5 2 9 10.74 0.26
5 2 10 40.69 0.91
5 2 11 10.67 0.26
5 2 12 21.74 0.56
5 2 14 6.1 0.17
5 2 16 11.43 0.3
5 2 17 24.84 0.62
5 2 18 2.86 0.15
5 2 19 2.3 0.17
5 2 20 16.58 1.13
5 2 21 2.94 0.39
5 3 0 120.96 2.71
5 3 1 26.74 0.61
5 3 2 5.43 0.14
5 3 3 4.53 0.12
5 3 4 3.91 0.11
5 3 5 40.83 0.95
5 3 6 90.9 2.09
5 3 7 4.67 0.12
5 3 8 3.36 0.1
5 3 9 0.37 0.04
5 3 10 38.97 0.88
5 3 11 21.4 0.5
5 3 12 0.66 0.07
5 3 13 4.27 0.15
5 3 14 29.71 0.79
5 3 15 0.87 0.09
5 3 16 33.58 0.8
5 3 19 4.03 0.21
5 4 0 9.15 0.25
5 4 1 4.49 0.13
5 4 3 1.23 0.06
5 4 4 26.04 0.6
5 4 5 19.08 0.44
5 4 6 8.89 0.23
5 4 7 19.41 0.46
5 4 9 8.05 0.22
5 4 10 16.28 0.39
5 4 11 2.62 0.12
5 4 12 0.53 0.07
5 4 14 2.45 0.13
5 4 15 11.75 0.48
5 4 16 1.16 0.13
5 4 17 5.09 0.2
5 4 18 7.39 0.47
5 5 0 5.32 0.15
5 5 2 4.96 0.14
5 5 3 1.22 0.06
5 5 4 3.62 0.12
5 5 5 0.33 0.05
5 5 6 6.49 0.18
5 5 7 1.28 0.1
5 5 8 7.26 0.21
5 5 9 0.36 0.06
5 5 13 0.41 0.1
5 5 14 2.53 0.29
5 5 15 0.83 0.27
5 5 16 2.24 0.35
5 6 0 7.26 0.23
5 6 1 4.81 0.15
5 6 2 4.23 0.14
5 6 3 2.12 0.1
5 6 4 1.65 0.09
5 6 5 7.91 0.22
5 6 6 3.14 0.18
5 6 7 11.83 0.32
5 6 8 0.72 0.09
5 6 9 2.11 0.15
5 7 0 1.74 0.1
5 7 1 9.63 0.28
5 7 2 1.78 0.1
5 7 3 2.18 0.13
5 7 4 1.51 0.1
5 7 5 1.14 0.11
5 7 6 0.57 0.11
6 0 0 228.09 5.37
6 0 2 29.25 0.69
6 0 4 1.48 0.08
6 0 6 47.98 1.06
6 0 8 15.66 0.4
6 0 10 33.67 0.77
6 0 12 93.15 2.13
6 0 14 4.22 0.2
6 0 16 1.99 0.24
6 0 18 11.55 0.62
6 1 0 0.6 0.05
6 1 1 182.7 4.15
6 1 2 59.89 1.34
6 1 3 22.16 0.5
6 1 4 54.33 1.21
6 1 5 59.39 1.35
6 1 6 21.07 0.52
6 1 7 12.35 0.29
6 1 8 42.27 0.98
6 1 9 34.43 0.78
6 1 10 0.33 0.04
6 1 11 31.96 0.73
6 1 12 0.65 0.06
6 1 13 13.66 0.34
6 1 15 1.91 0.12
6 1 16 26.71 1.57
6 1 18 3.08 0.15
6 1 19 5.7 0.23
6 2 0 0.13 0.04
6 2 1 9.48 0.23
6 2 3 13.34 0.31
6 2 4 46.75 1.14
6 2 5 97.1 2.23
6 2 6 2.15 0.07
6 2 7 1.1 0.05
6 2 8 5.35 0.15
6 2 9 34.61 0.81
6 2 10 1.5 0.07
6 2 11 5.83 0.18
6 2 12 3.41 0.14
6 2 13 7.29 0.19
6 2 14 33.51 0.78
6 2 15 15.51 0.4
6 2 16 8.05 0.25
6 2 17 1.26 0.14
6 2 18 0.63 0.19
6 2 20 2.85 0.36
6 3 0 0.56 0.04
6 3 2 0.75 0.04
6 3 3 0.84 0.04
6 3 4 0.28 0.03
6 3 5 0.12 0.03
6 3 6 0.24 0.03
6 3 7 5.41 0.15
6 3 8 6.32 0.16
6 3 9 3.91 0.12
6 3 10 32.8 0.84
6 3 11 1.47 0.1
6 3 12 1.32 0.08
6 3 13 0.46 0.06
6 3 15 12.2 0.32
6 3 16 5.78 0.24
6 3 17 0.6 0.09
6 3 18 8.67 0.49
6 4 0 17.08 0.4
6 4 2 27.14 0.63
6 4 3 0.3 0.04
6 4 4 6.41 0.16
6 4 5 14.61 0.34
6 4 6 0.83 0.05
6 4 7 1.9 0.07
6 4 9 7.91 0.28
6 4 10 18.57 0.46
6 4 11 1.68 0.11
6 4 14 2.77 0.15
6 4 15 4.83 0.25
6 4 16 4.21 0.22
6 5 0 28.39 0.65
6 5 1 4.2 0.14
6 5 2 0.22 0.05
6 5 3 0.7 0.06
6 5 4 15.91 0.38
6 5 6 47.1 1.1
6 5 7 3.24 0.16
6 5 8 0.6 0.07
6 5 9 1.4 0.08
6 5 10 0.4 0.07
6 5 12 0.54 0.09
6 5 13 1.37 0.14
6 5 14 7.75 0.44
6 6 0 13.15 0.33
6 6 1 2.11 0.1
6 6 2 5.03 0.16
6 6 3 5.77 0.2
6 6 4 0.33 0.08
6 6 5 1.13 0.14
6 6 7 1.86 0.11
6 6 8 0.78 0.1
6 6 9 0.73 0.11
6 6 10 7.1 0.39
6 7 0 1.98 0.12
6 7 1 0.64 0.1
6 7 2 0.63 0.13
7 0 0 107.35 2.39
7 0 2 35.21 0.8
7 0 4 265.95 6.45
7 0 6 1.02 0.07
7 0 8 44.63 1.14
7 0 10 59.84 1.42
7 0 12 17.13 0.46
7 0 14 12.19 0.33
7 0 16 7.94 0.46
7 1 0 81.91 1.84
7 1 1 1.09 0.05
7 1 2 0.19 0.03
7 1 3 7.6 0.19
7 1 4 34.99 0.78
7 1 5 40.47 0.95
7 1 6 0.99 0.05
7 1 7 1.39 0.06
7 1 8 45.93 1.04
7 1 10 3.17 0.11
7 1 11 16.43 0.39
7 1 12 15.18 0.36
7 1 13 15.09 0.36
7 1 14 23.88 0.59
7 1 15 22.56 0.55
7 1 17 3.27 0.15
7 2 0 35.48 0.84
7 2 1 10.5 0.25
7 2 2 6.34 0.16
7 2 3 4.81 0.13
7 2 4 0.58 0.04
7 2 5 0.76 0.05
7 2 6 5.93 0.17
7 2 7 3.62 0.12
7 2 8 7.24 0.2
7 2 9 21.02 0.54
7 2 10 0.96 0.07
7 2 11 10.05 0.25
7 2 12 0.39 0.07
7 2 13 4.02 0.14
7 2 14 6.37 0.2
7 2 15 11.5 0.31
7 2 16 1.2 0.15
7 2 18 3.68 0.4
7 3 0 0.59 0.04
7 3 1 28.04 0.68
7 3 2 22.92 0.54
7 3 3 15.29 0.36
7 3 4 14.63 0.34
7 3 5 1.05 0.05
7 3 6 6.79 0.17
7 3 7 3.54 0.11
7 3 8 12.35 0.29
7 3 9 9.9 0.26
7 3 10 1.94 0.09
7 3 12 3.52 0.15
7 3 13 1.58 0.1
7 3 16 1.68 0.15
7 4 0 10.05 0.25
7 4 1 1.46 0.06
7 4 2 1.77 0.09
7 4 3 1.17 0.06
7 4 4 2.54 0.09
7 4 5 20.73 0.51
7 4 6 30.8 0.7
7 4 9 10.51 0.28
7 4 10 0.31 0.06
7 4 12 5.04 0.17
7 4 14 6.77 0.23
7 4 15 3.81 0.38
7 5 0 14.12 0.34
7 5 2 13.14 0.32
7 5 3 1.48 0.08
7 5 4 2.57 0.1
7 5 6 1.01 0.1
7 5 7 0.28 0.06
7 5 8 3.79 0.15
7 5 10 20.21 0.53
7 5 11 1.21 0.22
7 5 12 1.4 0.28
7 6 0 0.85 0.07
7 6 2 2.45 0.13
7 6 4 4.23 0.16
7 6 5 4.45 0.16
7 6 6 3.39 0.14
7 6 7 3.6 0.18
7 6 8 3.16 0.2
8 0 0 27.52 0.65
8 0 2 15.11 0.39
8 0 4 65.49 1.48
8 0 6 4.92 0.2
8 0 8 29.14 0.67
8 0 10 0.92 0.07
8 0 12 24.31 0.58
8 0 14 82.3 2.29
8 0 16 0.92 0.25
8 1 1 0.39 0.04
8 1 2 2.17 0.11
8 1 3 85.21 2.02
8 1 4 33.41 0.83
8 1 6 4.23 0.15
8 1 7 0.33 0.05
8 1 8 20.15 0.47
8 1 9 9.65 0.25
8 1 10 18.52 0.5
8 1 11 6.12 0.23
8 1 12 4.34 0.17
8 1 13 10.84 0.31
8 1 15 1.54 0.12
8 1 16 0.7 0.09
8 2 0 42.7 1.03
8 2 1 21.81 0.53
8 2 2 0.13 0.04
8 2 3 5.02 0.14
8 2 4 14.76 0.39
8 2 5 7.6 0.22
8 2 7 36.34 0.87
8 2 8 4.27 0.14
8 2 9 0.18 0.06
8 2 10 15.49 0.37
8 2 11 0.2 0.07
8 2 13 3.82 0.15
8 2 15 2.68 0.28
8 2 16 1.78 0.31
8 3 0 17.66 0.41
8 3 1 0.19 0.04
8 3 2 9.6 0.23
8 3 3 0.51 0.05
8 3 4 10.71 0.27
8 3 5 18.02 0.5
8 3 6 14.78 0.36
8 3 8 3.95 0.14
8 3 10 2.78 0.13
8 3 11 5.54 0.19
8 3 12 3.27 0.12
8 3 13 6.24 0.21
8 3 14 5.52 0.43
8 3 15 1.35 0.3
8 4 1 2.23 0.08
8 4 2 14.63 0.38
8 4 3 2.67 0.1
8 4 4 2.52 0.1
8 4 5 2.64 0.1
8 4 6 3.77 0.12
8 4 7 4.48 0.17
8 4 9 12.58 0.39
8 4 10 5.68 0.18
8 4 12 5.64 0.2
8 5 0 1.13 0.08
8 5 1 0.3 0.05
8 5 2 6.95 0.19
8 5 3 3.94 0.13
8 5 4 0.85 0.06
8 5 6 7.24 0.25
8 5 7 2.49 0.14
8 5 8 20.73 0.7
8 5 9 2.77 0.35
8 5 10 0.88 0.26
8 6 1 0.49 0.08
8 6 2 5.17 0.33
8 6 3 1.31 0.16
8 6 4 2.73 0.17
9 0 0 19.29 0.46
9 0 2 47.66 1.36
9 0 4 4.67 0.16
9 0 6 28.59 0.67
9 0 10 13.79 0.41
9 0 12 8.47 0.37
9 1 0 33.15 0.77
9 1 1 0.3 0.05
9 1 2 4.87 0.14
9 1 3 27.1 0.71
9 1 4 2.51 0.1
9 1 5 6.33 0.19
9 1 6 7.97 0.21
9 1 7 13.01 0.38
9 1 8 1.72 0.16
9 1 9 1.96 0.09
9 1 10 9.33 0.24
9 1 12 1.03 0.08
9 1 13 26.76 0.64
9 1 14 9.15 0.3
9 1 15 0.9 0.27
9 2 0 1.79 0.07
9 2 1 3.78 0.12
9 2 2 36.56 0.84
9 2 3 5.18 0.2
9 2 4 36.68 0.95
9 2 5 3.33 0.12
9 2 6 3.04 0.11
9 2 7 1.79 0.08
9 2 8 2.38 0.12
9 2 9 14.91 0.37
9 2 10 1.97 0.11
9 2 11 8.68 0.25
9 2 12 6.51 0.19
9 2 14 7.3 0.47
9 3 0 2.22 0.08
9 3 1 6.65 0.19
9 3 2 2.52 0.09
9 3 3 15.31 0.37
9 3 4 6.91 0.19
9 3 5 1.38 0.09
9 3 6 16.94 0.41
9 3 7 0.3 0.07
9 3 8 16.3 0.53
9 3 10 2.63 0.19
9 3 11 4.07 0.15
9 3 12 4.78 0.25
9 4 1 2.5 0.1
9 4 2 13.11 0.36
9 4 5 0.28 0.06
9 4 6 5.15 0.19
9 4 7 17.86 0.51
9 4 8 12.47 0.35
9 4 9 5.53 0.2
9 4 10 1.04 0.19
9 5 1 0.95 0.07
9 5 2 4.35 0.14
9 5 3 1.63 0.1
9 5 4 1.23 0.11
9 5 5 0.88 0.1
10 0 0 8.43 0.24
10 0 2 2.89 0.13
10 0 4 14.49 0.43
10 0 6 17.71 0.56
10 0 8 1.05 0.09
10 0 10 11.75 0.33
10 0 12 11.52 0.53
10 1 0 10.11 0.27
10 1 1 33.23 0.76
10 1 3 8.93 0.25
10 1 4 9.52 0.25
10 1 5 3.7 0.14
10 1 6 7.93 0.21
10 1 8 1.38 0.08
10 1 9 1.05 0.07
10 1 10 5.31 0.17
10 1 11 3.63 0.15
10 1 12 0.71 0.1
10 1 13 1.61 0.28
10 2 0 9.57 0.24
10 2 1 1.74 0.08
10 2 2 29.95 0.7
10 2 3 8.13 0.25
10 2 4 1.59 0.08
10 2 5 10.29 0.3
10 2 6 7.58 0.23
10 2 7 3.75 0.14
10 2 8 2.83 0.14
10 2 9 0.41 0.07
10 2 10 6.36 0.26
10 2 11 1.14 0.11
10 2 12 15.17 0.58
10 3 0 0.78 0.06
10 3 1 1.38 0.08
10 3 2 18.93 0.45
10 3 3 3.84 0.18
10 3 4 3.48 0.14
10 3 6 13.81 0.34
10 3 7 11.59 0.29
10 3 8 25.23 0.71
10 3 9 0.54 0.08
10 3 10 0.85 0.28
10 4 0 2.57 0.12
10 4 1 5.05 0.17
10 4 3 1.36 0.12
10 4 4 3.55 0.15
10 4 5 0.95 0.11
10 4 6 0.61 0.1
10 4 7 7.17 0.26
10 5 0 2.01 0.15
10 5 1 2.67 0.14
10 5 2 0.65 0.11
11 0 0 34.31 0.81
11 0 2 25.46 0.62
11 0 6 2.65 0.14
11 1 1 3.83 0.15
11 1 2 8.25 0.23
11 1 3 11.36 0.3
11 1 4 1.63 0.14
11 1 5 12.53 0.39
11 1 6 3.69 0.14
11 1 7 4.67 0.23
11 1 9 1.5 0.11
11 1 10 5.25 0.39
11 2 1 12.05 0.32
11 2 3 0.91 0.09
11 2 4 7.13 0.3
11 2 6 19.2 0.48
11 2 7 16.01 0.43
11 2 8 2.68 0.18
11 3 0 19.6 0.56
11 3 1 2.17 0.12
11 3 2 1.18 0.09
11 3 3 1.52 0.14
11 3 4 2.95 0.15
11 3 5 0.67 0.1
11 3 6 2.31 0.14
11 4 0 1.58 0.23
11 4 1 3.61 0.16
11 4 2 3.41 0.27
11 4 4 6.54 0.43
12 0 0 1.64 0.12
12 0 2 20.91 0.51
12 0 4 8.21 0.29
12 1 0 9.28 0.27
12 1 1 3.5 0.17
12 1 2 8.58 0.24
12 1 3 3.73 0.17
12 1 4 0.6 0.08
12 1 5 3.54 0.16
12 1 6 12.86 0.56
12 1 7 2.46 0.38
12 2 0 0.54 0.08
12 2 3 2.15 0.16
12 2 4 3.94 0.27
12 2 5 2.33 0.37
12 2 6 0.95 0.3
12 3 0 4.57 0.21
12 3 3 2.47 0.36
13 1 0 1.15 0.3
13 1 1 2.16 0.33
13 1 2 1.33 0.29
13 1 3 2.66 0.38
13 2 1 2.43 0.36
