#------------------------------------------------------------------------------
#$Date: 2020-04-10 08:21:52 +0300 (Fri, 10 Apr 2020) $
#$Revision: 250628 $
#$URL: file:///home/coder/svn-repositories/cod/cif/2/02/20/2022049.cif $
#------------------------------------------------------------------------------
#
# This file is available in the Crystallography Open Database (COD),
# http://www.crystallography.net/. The original data for this entry
# were provided by IUCr Journals, http://journals.iucr.org/.
#
# The file may be used within the scientific community so long as
# proper attribution is given to the journal article from which the
# data were obtained.
#
data_2022049
loop_
_publ_author_name
'Jha, Kunal Kumar'
'Gruza, Barbara'
'Kumar, Prashant'
'Chodkiewicz, Michal Leszek'
'Dominiak, Paulina Maria'
_publ_section_title
;
 TAAM: a reliable and user friendly tool for hydrogen-atom location using
 routine X-ray diffraction data
;
_journal_issue                   3
_journal_name_full
'Acta Crystallographica Section B Structural Science, Crystal Engineering and Materials'
_journal_paper_doi               10.1107/S2052520620002917
_journal_volume                  76
_journal_year                    2020
_chemical_formula_moiety         'C H O2, H2 O'
_chemical_formula_sum            'C H3 O3'
_chemical_formula_weight         63.03
_space_group_crystal_system      monoclinic
_space_group_IT_number           14
_space_group_name_Hall           '-P 2ybc'
_space_group_name_H-M_alt        'P 1 21/c 1'
_symmetry_Int_Tables_number      14
_audit_creation_date             2019-09-27
_audit_creation_method
;
Olex2 1.2
(compiled 2018.05.29 svn.r3508 for OlexSys, GUI svn.r5506)
;
_cell_angle_alpha                90.00
_cell_angle_beta                 103.930(1)
_cell_angle_gamma                90.00
_cell_formula_units_Z            4
_cell_length_a                   6.0889(2)
_cell_length_b                   3.4870(1)
_cell_length_c                   11.8299(3)
_cell_measurement_temperature    100(1)
_cell_volume                     243.786(12)
_computing_molecular_graphics    'Olex2 (Dolomanov et al., 2009)'
_computing_publication_material  'Olex2 (Dolomanov et al., 2009)'
_computing_structure_refinement  'olex2.refine (Bourhis et al., 2015)'
_diffrn_ambient_temperature      100(1)
_diffrn_measured_fraction_theta_full 0.9590
_diffrn_measured_fraction_theta_max 0.9590
_diffrn_measurement_device_type  'APEX II CCD detector'
_diffrn_radiation_type           'Mo K\a'
_diffrn_radiation_wavelength     0.71073
_diffrn_reflns_av_R_equivalents  0.0000
_diffrn_reflns_av_unetI/netI     0.0278
_diffrn_reflns_limit_h_max       13
_diffrn_reflns_limit_h_min       -13
_diffrn_reflns_limit_k_max       7
_diffrn_reflns_limit_k_min       0
_diffrn_reflns_limit_l_max       26
_diffrn_reflns_limit_l_min       0
_diffrn_reflns_number            2205
_diffrn_reflns_theta_full        26.4861
_diffrn_reflns_theta_max         26.49
_diffrn_reflns_theta_min         3.45
_exptl_absorpt_coefficient_mu    0.182
_exptl_crystal_density_diffrn    1.7172
_exptl_crystal_F_000             132.1419
_refine_diff_density_max         0.0882
_refine_diff_density_min         -0.0810
_refine_diff_density_rms         0.0232
_refine_ls_d_res_high            0.7968
_refine_ls_d_res_low             5.9098
_refine_ls_goodness_of_fit_ref   1.3975
_refine_ls_hydrogen_treatment    refall
_refine_ls_matrix_type           full
_refine_ls_number_constraints    0
_refine_ls_number_parameters     64
_refine_ls_number_reflns         491
_refine_ls_number_restraints     0
_refine_ls_restrained_S_all      1.3975
_refine_ls_R_factor_all          0.0116
_refine_ls_R_factor_gt           0.0116
_refine_ls_shift/su_max          0.0004
_refine_ls_shift/su_mean         0.0001
_refine_ls_structure_factor_coef Fsqd
_refine_ls_weighting_details
'w=1/[\s^2^(Fo^2^)+(0.0049P)^2^] where P=(Fo^2^+2Fc^2^)/3'
_refine_ls_weighting_scheme      calc
_refine_ls_wR_factor_gt          0.0368
_refine_ls_wR_factor_ref         0.0368
_reflns_Friedel_coverage         0.0
_reflns_limit_h_max              7
_reflns_limit_h_min              -7
_reflns_limit_k_max              4
_reflns_limit_k_min              0
_reflns_limit_l_max              14
_reflns_limit_l_min              0
_reflns_number_gt                491
_reflns_number_total             491
_reflns_threshold_expression     I>=2u(I)
_iucr_refine_instructions_details
;
TITL oxa04
CELL 0.71073 6.0889 3.487 11.8299 90 103.93 90
ZERR 4 0 0 0 0 0 0
LATT 1
SYMM -X,0.5+Y,0.5-Z
SFAC C H O
UNIT 4 12 12

FREE O3 H1
ACTA 
BOND $H
OMIT -10 53
WGHT 0.004947 0
FVAR 1.029605
REM <olex2.extras>
REM <HklSrc "%.\\9d2bbb17b1450b8b4b2753b016eea3d4.hkl">
REM </olex2.extras>

O1    3     0.43471  0.44444  0.34988  11.00000  0.01281  0.01749  0.01002 =
 -0.00066  0.00258  0.00349 
O2    3     0.24261  0.74270  0.46365  11.00000  0.01128  0.01800  0.00909 =
 -0.00059  0.00084  0.00447 
C1    1     0.40302  0.55897  0.44782  11.00000  0.00917  0.01235  0.00930 =
 0.00044  0.00063  0.00138 
O3    3     0.12996  0.63164  0.17814  11.00000  0.01076  0.01721  0.01011 =
 0.00111  0.00047 -0.00061 
H3a   2     0.01251  0.46145  0.15018  11.00000  0.02811  0.02519  0.02474 =
 0.00367  0.00820 -0.01361 
H3b   2     0.18888  0.69362  0.11315  11.00000  0.01895  0.03603  0.01585 =
 0.00672  0.01313 -0.00361 
H1    2     0.30166  0.52611  0.28203  11.00000  0.03454  0.03456  0.04477 =
 -0.01050  0.02615 -0.00650 
HKLF 4

END
Q1 1 0.45 0.333333 0.425 11 0.05 0.09
Q2 1 0.65 0.666667 0.35 11 0.05 0.07
Q3 1 0.5 1 0.5 11 0.05 0.06
Q4 1 0.2 0.833333 0.4 11 0.05 0.06
Q5 1 0.2 0.75 0.275 11 0.05 0.06
Q6 1 0.2 0.666667 0.525 11 0.05 0.06
Q7 1 0.55 0.166667 0.375 11 0.05 0.05
Q8 1 0.25 0.5 0.225 11 0.05 0.04
Q9 1 -0.2 0.666667 0.15 11 0.05 0.04
Q10 1 -0.1 0.833333 0.1 11 0.05 0.04
Q11 1 0 1 0 11 0.05 0.04
Q12 1 0.15 1 0.125 11 0.05 0.04
Q13 1 0.25 0.583333 0.45 11 0.05 0.03
Q14 1 0.05 0.333333 0.05 11 0.05 0.02
Q15 1 0.4 0.583333 0.275 11 0.05 0.01
Q16 1 0.4 0.166667 0.25 11 0.05 0.01

  REM The information below was added by Olex2.
  REM
  REM R1 = 0.0116 for 491 Fo > 4sig(Fo) and 0.0116 for all 491 data
  REM 64 parameters refined using 0 restraints
  REM Highest difference peak 0.0882, deepest hole -0.0810
  REM Mean Shift 0.0001, Max Shift 0.0004.

  REM +++ Tabular Listing of Refinement Information +++
  REM R1_all = 0.0116
  REM R1_gt = 0.0116
  REM wR_ref = 0.0368
  REM GOOF = 1.3975
  REM Shift_max = 0.0004
  REM Shift_mean = 0.0001
  REM Reflections_all = 491
  REM Reflections_gt = 491
  REM Parameters = 64
  REM Hole = -0.0810
  REM Peak = 0.0882
  REM Flack = n/a

  
;
_cod_data_source_file            58_TAAM_ANIS_0.8.cif
_cod_data_source_block           58_TAAM_ANIS_0.8
_cod_original_cell_volume        243.79(1)
_cod_database_code               2022049
_olex2_refinement_description
;
;
_iucr_refine_fcf_details
;
data_oxa04
_computing_structure_refinement   'olex2.refine (Bourhis et al., 2015)'
_shelx_refln_list_code            4
loop_
  _space_group_symop_id
  _space_group_symop_operation_xyz
  1  x,y,z
  2  -x,y+1/2,-z+1/2
  3  -x,-y,-z
  4  x,-y-1/2,z-1/2

_space_group_crystal_system       monoclinic
_space_group_IT_number            14
_space_group_name_H-M_alt         'P 1 21/c 1'
_space_group_name_Hall            '-P 2ybc'
_symmetry_space_group_name_H-M    'P 1 21/c 1'
_symmetry_space_group_name_Hall   '-P 2ybc'
_symmetry_Int_Tables_number       14
_cell_length_a                    6.0889
_cell_length_b                    3.487
_cell_length_c                    11.8299
_cell_angle_alpha                 90
_cell_angle_beta                  103.93
_cell_angle_gamma                 90
_cell_volume                      243.785532
loop_
  _refln_index_h
  _refln_index_k
  _refln_index_l
  _refln_F_squared_calc
  _refln_F_squared_meas
  _refln_F_squared_sigma
  _refln_F_squared_weight
  _refln_observed_status
-7 0 2 14.195 14.546 0.443 28.966 o
-7 0 4 39.936 39.667 0.981 5.831 o
-7 0 6 248.723 256.621 6.330 0.140 o
-7 1 1 18.516 18.829 0.604 15.656 o
-7 1 2 85.817 86.238 2.009 1.384 o
-7 1 3 3.437 3.585 0.151 253.018 o
-7 1 4 0.369 0.424 0.075 1024.620 o
-7 1 5 2.239 2.443 0.123 384.939 o
-7 1 6 18.889 19.140 0.481 24.303 o
-7 1 7 50.852 51.883 1.198 3.894 o
-6 0 2 176.039 177.118 4.019 0.345 o
-6 0 4 3.255 3.122 0.179 180.351 o
-6 0 6 159.893 163.845 3.688 0.410 o
-6 0 8 0.935 0.802 0.123 387.772 o
-6 0 10 282.027 283.100 6.566 0.130 o
-6 1 1 1.167 1.302 0.104 540.494 o
-6 1 2 6.417 6.641 0.217 121.383 o
-6 1 3 1.214 1.321 0.094 653.375 o
-6 1 4 31.886 31.384 0.736 10.316 o
-6 1 5 91.987 92.549 2.094 1.271 o
-6 1 6 147.902 148.592 3.349 0.497 o
-6 1 7 2.772 2.839 0.141 288.879 o
-6 1 8 2.912 2.981 0.151 253.970 o
-6 1 9 42.919 44.411 1.028 5.292 o
-6 1 10 48.230 48.647 1.160 4.160 o
-6 1 11 3.634 3.736 0.170 200.238 o
-6 2 1 69.304 69.136 1.585 2.221 o
-6 2 2 39.695 39.535 0.924 6.538 o
-6 2 3 61.226 59.844 1.406 2.826 o
-6 2 4 5.634 5.462 0.189 160.611 o
-6 2 5 4.388 4.245 0.170 199.338 o
-6 2 6 1.078 0.934 0.113 454.760 o
-6 2 7 0.350 0.302 0.094 655.979 o
-6 2 8 12.909 13.612 0.396 36.223 o
-5 0 2 88.917 89.172 2.151 1.212 o
-5 0 4 17.559 17.791 0.500 22.670 o
-5 0 6 114.044 113.104 2.990 0.631 o
-5 0 8 272.947 278.487 6.386 0.137 o
-5 0 10 94.863 98.256 2.245 1.109 o
-5 0 12 42.155 43.214 1.104 4.626 o
-5 1 1 53.864 53.090 1.226 3.709 o
-5 1 2 249.246 246.999 5.698 0.172 o
-5 1 3 49.064 51.100 1.207 3.845 o
-5 1 4 91.836 90.691 2.179 1.179 o
-5 1 5 29.862 29.554 0.689 11.775 o
-5 1 6 3.667 3.792 0.151 252.588 o
-5 1 7 1.052 1.170 0.094 654.039 o
-5 1 8 17.086 17.027 0.434 29.879 o
-5 1 9 255.749 260.385 5.896 0.161 o
-5 1 10 25.591 25.111 0.623 14.473 o
-5 1 12 25.238 24.319 0.585 16.343 o
-5 2 1 9.576 9.216 0.255 87.074 o
-5 2 2 0.601 0.594 0.075 1023.700 o
-5 2 3 4.263 4.245 0.151 251.426 o
-5 2 4 27.306 26.205 0.660 12.867 o
-5 2 5 167.447 168.071 3.839 0.378 o
-5 2 6 79.736 79.286 1.830 1.666 o
-5 2 7 21.813 22.140 0.575 17.030 o
-5 2 8 1.570 1.726 0.132 333.554 o
-5 2 11 39.411 37.667 0.868 7.391 o
-5 3 1 19.379 19.338 0.491 23.375 o
-5 3 3 5.860 5.783 0.189 160.294 o
-5 3 4 11.254 10.697 0.443 29.259 o
-5 3 5 3.860 3.556 0.189 162.467 o
-5 3 6 5.022 5.103 0.226 112.550 o
-4 0 2 953.789 947.272 21.545 0.012 o
-4 0 4 118.696 120.471 2.698 0.766 o
-4 0 6 44.365 44.430 1.179 4.059 o
-4 0 8 560.127 555.945 12.320 0.037 o
-4 0 10 1.624 1.660 0.189 163.744 o
-4 0 12 242.677 236.396 7.056 0.114 o
-4 0 14 1.607 1.736 0.141 290.669 o
-4 1 1 89.839 88.248 2.000 1.392 o
-4 1 2 55.457 55.467 1.273 3.441 o
-4 1 3 1.722 1.670 0.104 538.741 o
-4 1 4 31.736 32.611 0.783 9.150 o
-4 1 6 175.246 171.694 3.896 0.367 o
-4 1 7 82.609 83.842 1.972 1.440 o
-4 1 8 170.539 167.901 4.434 0.287 o
-4 1 9 43.385 43.091 1.000 5.584 o
-4 1 11 1.479 1.462 0.104 539.635 o
-4 1 12 78.980 79.739 1.915 1.528 o
-4 1 13 14.860 14.791 0.377 39.516 o
-4 2 1 51.452 50.939 1.321 3.229 o
-4 2 2 12.814 12.339 0.340 48.967 o
-4 2 3 77.877 76.682 1.821 1.687 o
-4 2 4 61.345 61.967 1.566 2.295 o
-4 2 5 6.103 6.245 0.236 103.270 o
-4 2 6 5.547 5.594 0.274 77.242 o
-4 2 7 6.758 6.952 0.245 95.264 o
-4 2 8 77.404 79.758 1.934 1.501 o
-4 2 9 12.645 12.952 0.387 38.024 o
-4 2 10 29.345 30.035 0.745 10.124 o
-4 2 11 7.369 7.613 0.434 30.788 o
-4 2 12 0.702 0.896 0.123 387.901 o
-4 3 1 4.738 4.660 0.245 96.199 o
-4 3 2 13.950 13.631 0.396 36.119 o
-4 3 3 24.328 23.800 0.594 15.890 o
-4 3 4 234.125 233.698 5.377 0.193 o
-4 3 5 27.161 26.932 0.717 10.977 o
-4 3 6 7.888 8.075 0.274 76.444 o
-4 3 7 4.596 4.981 0.198 146.751 o
-4 3 8 0.325 0.311 0.075 1024.830 o
-4 3 9 38.115 36.686 1.057 5.073 o
-3 0 2 14.367 14.480 0.453 27.792 o
-3 0 4 89.451 87.710 1.962 1.444 o
-3 0 6 12.191 13.056 0.604 15.854 o
-3 0 8 21.915 21.621 0.783 9.347 o
-3 0 10 4.027 4.236 0.208 134.294 o
-3 0 12 140.066 140.611 3.292 0.516 o
-3 0 14 19.201 17.036 0.764 9.860 o
-3 1 1 323.327 321.549 7.386 0.102 o
-3 1 2 31.328 33.092 0.802 8.743 o
-3 1 3 154.916 153.723 3.368 0.490 o
-3 1 4 228.623 232.425 5.235 0.203 o
-3 1 5 204.633 204.719 4.594 0.264 o
-3 1 6 0.333 0.292 0.085 809.818 o
-3 1 7 335.555 335.322 7.556 0.098 o
-3 1 8 8.953 8.075 0.274 76.156 o
-3 1 9 60.824 59.552 1.358 3.018 o
-3 1 10 3.122 3.302 0.236 104.523 o
-3 1 11 157.537 154.469 3.453 0.466 o
-3 1 12 54.484 53.420 1.217 3.761 o
-3 1 13 0.730 0.915 0.113 455.136 o
-3 1 14 0.468 0.424 0.066 1337.600 o
-3 2 1 79.365 80.107 2.056 1.332 o
-3 2 2 177.390 179.627 4.122 0.329 o
-3 2 3 294.695 297.193 6.707 0.124 o
-3 2 4 26.767 26.281 0.651 13.241 o
-3 2 5 2.512 2.264 0.160 225.784 o
-3 2 6 131.659 134.697 3.085 0.587 o
-3 2 7 160.240 161.119 3.698 0.408 o
-3 2 8 282.223 283.656 6.537 0.131 o
-3 2 9 51.136 51.958 1.481 2.586 o
-3 2 10 10.193 10.641 0.406 34.933 o
-3 2 11 21.348 22.866 0.623 14.623 o
-3 2 12 2.169 2.264 0.141 289.920 o
-3 3 1 4.126 3.849 0.170 199.766 o
-3 3 2 249.306 252.442 5.849 0.163 o
-3 3 3 3.658 7.641 0.358 45.228 o
-3 3 4 45.569 46.572 1.104 4.599 o
-3 3 5 21.254 21.130 0.623 14.648 o
-3 3 7 3.412 3.754 0.321 56.596 o
-3 3 8 16.572 17.329 0.707 11.506 o
-3 3 9 4.037 4.783 0.208 134.174 o
-3 3 10 18.690 19.234 0.509 21.771 o
-3 4 1 20.448 20.262 0.509 21.654 o
-3 4 2 11.505 10.980 0.424 31.849 o
-2 0 2 642.953 609.017 12.933 0.033 o
-2 0 4 2030.220 2031.090 43.723 0.003 o
-2 0 6 166.447 166.270 4.377 0.294 o
-2 0 8 448.929 430.965 10.027 0.055 o
-2 0 10 187.492 181.249 4.085 0.333 o
-2 0 12 15.934 16.319 0.443 28.780 o
-2 0 14 56.677 55.109 1.273 3.437 o
-2 1 1 184.776 192.286 4.377 0.292 o
-2 1 2 550.050 562.973 12.433 0.036 o
-2 1 3 21.333 20.055 0.500 22.401 o
-2 1 4 354.343 354.660 8.150 0.084 o
-2 1 5 20.116 19.715 0.519 20.932 o
-2 1 6 5.932 5.603 0.189 160.309 o
-2 1 7 35.436 32.271 0.783 9.096 o
-2 1 8 283.038 278.911 6.273 0.141 o
-2 1 9 21.710 21.725 0.538 19.421 o
-2 1 10 31.535 31.337 0.736 10.323 o
-2 1 11 79.774 79.409 1.821 1.683 o
-2 1 12 8.793 9.603 0.264 81.353 o
-2 1 13 32.015 30.997 0.811 8.553 o
-2 1 14 18.797 18.272 0.500 22.593 o
-2 2 1 150.820 151.271 3.424 0.475 o
-2 2 2 466.252 471.905 10.631 0.049 o
-2 2 3 9.262 9.528 0.255 87.137 o
-2 2 4 23.455 22.536 0.594 15.941 o
-2 2 5 3.095 3.151 0.151 253.678 o
-2 2 6 67.809 68.674 1.783 1.774 o
-2 2 7 33.895 33.582 0.821 8.324 o
-2 2 8 28.245 27.498 0.679 12.152 o
-2 2 9 17.007 16.829 0.424 31.188 o
-2 2 10 86.620 88.276 2.141 1.224 o
-2 2 11 13.546 12.584 0.349 46.304 o
-2 2 12 108.048 104.850 2.764 0.737 o
-2 2 13 28.098 29.394 0.698 11.512 o
-2 3 1 140.185 139.970 3.217 0.539 o
-2 3 2 66.069 65.589 1.839 1.673 o
-2 3 3 1.301 1.283 0.104 540.239 o
-2 3 4 9.420 9.329 0.302 62.598 o
-2 3 5 7.873 8.131 0.302 63.008 o
-2 3 6 355.891 362.008 8.886 0.071 o
-2 3 7 78.619 80.588 1.906 1.543 o
-2 3 8 25.456 25.885 0.736 10.475 o
-2 3 9 7.973 7.924 0.424 32.128 o
-2 3 10 20.793 22.036 0.736 10.570 o
-2 4 1 15.315 15.131 0.547 19.142 o
-2 4 2 60.870 59.995 1.358 3.018 o
-2 4 3 33.624 33.337 0.774 9.330 o
-2 4 4 0.363 0.443 0.075 1024.610 o
-2 4 5 34.657 34.148 0.858 7.623 o
-1 0 2 765.505 771.343 18.998 0.016 o
-1 0 4 873.240 850.535 20.187 0.014 o
-1 0 6 208.822 199.578 4.085 0.330 o
-1 0 8 486.955 466.528 12.037 0.039 o
-1 0 10 2.918 2.745 0.170 201.128 o
-1 0 12 107.219 103.973 2.292 1.056 o
-1 0 14 46.052 47.515 1.094 4.670 o
-1 1 1 2915.920 2819.170 62.127 0.001 o
-1 1 2 137.912 150.148 3.377 0.491 o
-1 1 3 332.987 342.567 8.047 0.086 o
-1 1 4 239.017 250.800 5.518 0.183 o
-1 1 5 1.063 0.924 0.094 654.320 o
-1 1 6 0.363 0.434 0.075 1024.620 o
-1 1 7 411.811 403.213 9.112 0.067 o
-1 1 8 92.486 90.653 2.028 1.352 o
-1 1 9 168.307 166.515 3.820 0.382 o
-1 1 11 72.598 71.560 1.613 2.139 o
-1 1 12 82.972 83.965 1.934 1.494 o
-1 1 13 5.617 5.622 0.208 133.185 o
-1 1 14 45.901 43.930 1.132 4.385 o
-1 2 1 141.364 135.461 3.339 0.502 o
-1 2 2 8.291 8.122 0.226 110.348 o
-1 2 3 167.798 162.949 3.613 0.425 o
-1 2 4 232.688 224.708 4.952 0.226 o
-1 2 5 485.513 481.065 11.452 0.043 o
-1 2 6 17.406 17.838 0.472 25.387 o
-1 2 7 1.298 1.302 0.094 653.149 o
-1 2 8 46.170 45.572 1.094 4.675 o
-1 2 9 7.998 7.509 0.236 102.228 o
-1 2 10 182.278 184.900 4.169 0.321 o
-1 2 11 70.212 71.438 1.641 2.073 o
-1 2 12 32.178 31.960 0.811 8.545 o
-1 2 13 12.835 12.669 0.340 48.935 o
-1 3 2 30.352 31.280 0.745 10.096 o
-1 3 3 13.618 13.603 0.424 31.609 o
-1 3 4 55.564 55.750 1.283 3.392 o
-1 3 5 0.893 0.858 0.094 654.781 o
-1 3 6 104.396 104.925 2.396 0.972 o
-1 3 7 1.708 1.651 0.113 453.213 o
-1 3 8 5.836 6.113 0.217 121.816 o
-1 3 9 1.315 1.349 0.113 454.155 o
-1 3 10 31.463 31.799 0.783 9.160 o
-1 4 1 6.128 6.028 0.198 145.425 o
-1 4 2 9.717 9.650 0.274 75.697 o
-1 4 4 0.586 0.528 0.085 809.216 o
-1 4 5 57.480 58.684 1.358 3.030 o
-1 4 6 79.875 79.201 2.556 0.873 o
0 0 2 138.448 144.564 3.104 0.577 o
0 0 4 65.507 71.343 1.670 2.014 o
0 0 6 1013.560 1003.640 26.554 0.008 o
0 0 8 283.349 281.251 6.283 0.141 o
0 0 10 387.249 387.280 8.499 0.077 o
0 0 12 13.604 13.989 0.472 25.714 o
0 0 14 51.229 53.184 2.651 0.823 o
0 1 1 453.236 456.359 10.556 0.050 o
0 1 2 92.543 91.502 2.113 1.250 o
0 1 3 17.900 16.225 0.415 32.505 o
0 1 4 1536.740 1528.100 33.422 0.005 o
0 1 5 63.338 69.343 1.585 2.232 o
0 1 6 302.419 307.664 6.867 0.118 o
0 1 7 35.971 35.412 0.858 7.601 o
0 1 8 26.655 25.036 0.632 14.031 o
0 1 9 36.658 36.261 0.858 7.588 o
0 1 10 143.502 142.111 3.179 0.551 o
0 1 11 194.770 194.767 4.726 0.251 o
0 1 13 24.377 25.253 0.689 11.938 o
0 1 14 8.522 8.509 0.255 87.613 o
0 2 0 11.667 11.584 0.434 30.474 o
0 2 1 74.528 72.362 1.632 2.088 o
0 2 2 125.567 126.282 3.028 0.611 o
0 2 4 183.176 179.382 4.179 0.320 o
0 2 5 46.469 45.902 1.047 5.083 o
0 2 6 4.889 4.943 0.170 198.469 o
0 2 7 132.379 133.178 3.085 0.587 o
0 2 8 0.547 0.604 0.094 655.603 o
0 2 9 55.371 53.298 1.273 3.445 o
0 2 10 25.514 25.102 0.613 14.906 o
0 2 11 1.051 1.207 0.104 540.802 o
0 2 12 16.766 16.291 0.453 27.572 o
0 3 1 50.392 50.430 1.160 4.146 o
0 3 2 112.685 110.944 2.509 0.884 o
0 3 3 85.304 86.436 1.990 1.410 o
0 3 4 53.615 54.562 1.255 3.549 o
0 3 5 15.555 16.150 0.415 32.739 o
0 3 6 0.166 0.274 0.075 1025.100 o
0 3 7 1.077 1.179 0.104 540.780 o
0 3 8 98.554 98.322 2.368 0.999 o
0 3 9 41.329 41.619 1.132 4.412 o
0 3 10 1.456 1.424 0.123 386.957 o
0 4 0 2.678 2.754 0.189 163.225 o
0 4 1 12.971 12.999 0.434 30.346 o
0 4 2 56.602 55.995 1.509 2.479 o
0 4 3 3.597 4.075 0.170 200.128 o
0 4 4 11.756 12.678 0.368 42.035 o
0 4 5 76.195 79.182 1.906 1.546 o
1 0 0 373.330 390.308 14.131 0.029 o
1 0 2 11.149 9.990 0.349 46.842 o
1 0 4 1782.720 1851.790 39.950 0.003 o
1 0 6 212.960 218.265 5.066 0.218 o
1 0 8 69.776 67.570 1.538 2.354 o
1 0 10 653.689 646.561 14.159 0.028 o
1 0 12 5.921 8.216 0.906 7.111 o
1 1 0 1581.890 1612.870 36.572 0.004 o
1 1 1 39.276 38.695 0.953 6.178 o
1 1 2 427.119 434.644 9.697 0.059 o
1 1 3 789.775 788.153 20.347 0.014 o
1 1 4 63.023 64.948 1.462 2.610 o
1 1 5 118.393 113.510 2.538 0.862 o
1 1 6 204.533 205.549 4.868 0.236 o
1 1 7 16.336 17.829 0.472 25.454 o
1 1 8 92.555 91.606 2.085 1.282 o
1 1 9 180.019 183.523 4.103 0.331 o
1 1 10 70.442 70.881 1.613 2.144 o
1 1 12 2.090 2.198 0.132 332.677 o
1 1 13 6.680 7.122 0.321 56.140 o
1 2 0 320.124 319.446 7.188 0.108 o
1 2 1 270.383 264.394 5.896 0.160 o
1 2 3 348.431 348.783 7.801 0.091 o
1 2 4 20.128 19.866 0.547 18.886 o
1 2 5 86.792 89.238 2.009 1.382 o
1 2 6 160.426 161.940 3.641 0.420 o
1 2 7 79.793 79.833 1.821 1.682 o
1 2 8 5.633 5.698 0.217 122.014 o
1 2 9 7.343 7.433 0.245 94.968 o
1 2 10 4.023 4.009 0.189 162.244 o
1 2 11 8.138 8.348 0.274 76.342 o
1 2 12 14.267 14.216 0.406 34.448 o
1 3 0 19.176 19.149 0.491 23.393 o
1 3 1 30.553 30.111 0.745 10.102 o
1 3 2 47.158 46.411 1.094 4.667 o
1 3 4 7.902 8.273 0.292 67.045 o
1 3 5 22.576 22.225 0.547 18.733 o
1 3 6 42.251 42.053 1.009 5.496 o
1 3 7 18.704 19.008 0.519 21.016 o
1 3 8 24.412 24.743 0.660 12.954 o
1 3 9 9.666 9.716 0.679 12.595 o
1 4 0 17.510 17.470 0.472 25.392 o
1 4 1 0.595 0.641 0.075 1023.640 o
1 4 2 56.514 54.694 1.283 3.390 o
1 4 3 13.194 13.131 0.434 30.326 o
1 4 4 3.053 3.104 0.170 200.918 o
1 4 5 50.955 51.015 1.207 3.838 o
2 0 0 21.460 23.762 0.585 16.488 o
2 0 2 3649.440 3499.120 74.758 0.001 o
2 0 4 5.488 8.546 0.377 40.715 o
2 0 6 3.210 3.547 0.208 134.730 o
2 0 8 94.039 98.549 2.349 1.017 o
2 0 10 32.798 32.828 1.509 2.534 o
2 0 12 74.691 76.211 1.906 1.549 o
2 1 0 364.930 372.319 8.254 0.082 o
2 1 1 65.230 67.004 1.604 2.181 o
2 1 2 2.921 2.660 0.123 383.263 o
2 1 3 449.989 463.311 10.301 0.053 o
2 1 4 9.370 9.292 0.264 81.210 o
2 1 5 17.590 19.055 0.481 24.385 o
2 1 6 418.012 417.909 9.358 0.064 o
2 1 7 29.656 28.111 0.755 9.892 o
2 1 8 45.746 45.836 1.245 3.645 o
2 1 9 174.225 171.948 3.915 0.364 o
2 1 10 41.417 40.365 0.962 6.038 o
2 1 11 1.720 1.783 0.123 386.367 o
2 1 12 23.425 24.828 0.868 7.611 o
2 2 0 514.188 511.675 11.584 0.042 o
2 2 1 1.908 1.849 0.113 452.598 o
2 2 2 3.100 3.113 0.170 200.882 o
2 2 3 16.408 16.791 0.500 22.751 o
2 2 4 1.221 1.123 0.094 653.642 o
2 2 5 150.911 150.280 3.415 0.478 o
2 2 6 10.281 10.631 0.340 49.496 o
2 2 7 54.881 55.562 1.443 2.707 o
2 2 8 53.847 53.052 1.236 3.655 o
2 2 9 74.419 75.022 1.849 1.643 o
2 2 10 73.964 73.985 1.689 1.956 o
2 2 11 30.022 31.092 0.745 10.103 o
2 3 0 11.978 12.527 0.358 44.197 o
2 3 1 30.003 30.488 0.745 10.109 o
2 3 2 86.835 86.748 2.085 1.289 o
2 3 3 4.605 4.358 0.179 178.979 o
2 3 4 212.770 212.813 4.839 0.238 o
2 3 5 8.304 8.396 0.292 66.950 o
2 3 6 2.350 2.217 0.189 163.448 o
2 3 7 28.667 29.545 0.717 10.924 o
2 3 8 1.694 1.651 0.123 386.498 o
2 4 0 12.531 12.367 0.340 49.012 o
2 4 2 1.962 1.877 0.123 385.925 o
2 4 3 53.486 53.543 1.330 3.175 o
3 0 0 391.713 406.995 9.094 0.067 o
3 0 2 180.028 187.343 4.160 0.322 o
3 0 4 18.664 20.291 0.575 17.166 o
3 0 6 577.363 558.134 14.348 0.027 o
3 0 8 11.309 10.329 0.377 40.178 o
3 0 10 1.448 1.141 0.236 104.905 o
3 1 0 106.640 108.284 2.434 0.941 o
3 1 1 436.287 433.974 9.726 0.059 o
3 1 2 435.144 448.482 10.009 0.056 o
3 1 3 40.256 42.166 0.972 5.928 o
3 1 4 11.829 11.537 0.311 58.231 o
3 1 5 4.905 5.047 0.179 178.434 o
3 1 6 4.640 4.452 0.179 178.911 o
3 1 7 27.739 28.960 0.698 11.524 o
3 1 8 35.446 36.837 0.906 6.856 o
3 1 9 1.522 1.424 0.104 539.577 o
3 1 10 81.585 83.842 1.915 1.523 o
3 1 11 13.368 13.178 0.368 41.803 o
3 2 0 1.853 2.151 0.123 385.880 o
3 2 1 7.530 7.499 0.226 110.925 o
3 2 2 273.011 268.440 6.226 0.144 o
3 2 3 101.948 98.464 2.245 1.104 o
3 2 4 88.947 87.663 2.019 1.368 o
3 2 5 61.507 61.561 1.443 2.684 o
3 2 6 42.977 44.346 1.075 4.855 o
3 2 7 3.858 4.037 0.208 134.402 o
3 2 8 100.653 101.124 2.792 0.726 o
3 2 9 2.442 2.405 0.179 180.953 o
3 2 10 10.670 10.537 0.292 66.144 o
3 3 0 67.889 69.721 1.604 2.173 o
3 3 1 2.569 2.302 0.132 331.922 o
3 3 2 19.858 20.734 0.538 19.525 o
3 3 3 95.357 95.954 2.179 1.174 o
3 3 4 105.244 105.991 2.387 0.978 o
3 3 5 0.223 0.311 0.085 809.924 o
3 3 6 19.487 19.744 0.575 17.149 o
3 3 7 2.393 2.349 0.151 254.773 o
3 4 0 6.308 6.311 0.217 121.527 o
4 0 0 44.241 43.883 1.019 5.379 o
4 0 4 36.189 36.855 0.924 6.582 o
4 0 6 12.505 12.820 0.424 31.719 o
4 0 8 1.197 1.141 0.151 255.938 o
4 0 10 4.109 4.622 0.292 67.925 o
4 1 0 2.269 2.377 0.141 289.754 o
4 1 1 149.865 151.629 3.415 0.478 o
4 1 2 184.675 180.372 4.047 0.340 o
4 1 3 206.549 202.653 4.566 0.267 o
4 1 4 2.996 2.990 0.141 288.474 o
4 1 5 90.588 87.229 2.132 1.232 o
4 1 6 38.603 39.082 0.924 6.551 o
4 1 7 8.084 7.952 0.255 87.868 o
4 1 8 27.017 27.488 0.717 10.975 o
4 1 9 18.923 19.829 0.509 21.745 o
4 2 0 114.397 113.642 2.547 0.858 o
4 2 1 76.351 73.664 1.670 1.995 o
4 2 2 288.572 289.505 6.547 0.130 o
4 2 3 52.780 51.760 1.198 3.886 o
4 2 4 15.194 14.329 0.387 37.666 o
4 2 5 0.413 0.613 0.104 542.014 o
4 2 6 7.150 6.528 0.255 88.404 o
4 2 7 150.951 149.478 3.679 0.414 o
4 2 8 0.602 0.821 0.085 808.848 o
4 3 0 6.154 6.169 0.255 88.741 o
4 3 1 36.537 35.639 0.962 6.095 o
4 3 2 0.863 0.830 0.085 808.108 o
4 3 3 1.609 1.660 0.104 539.059 o
4 3 4 48.496 46.364 1.075 4.816 o
4 3 5 3.602 3.783 0.179 179.929 o
5 0 0 60.216 62.335 1.594 2.218 o
5 0 2 667.324 659.333 14.555 0.026 o
5 0 4 11.941 11.707 0.387 38.157 o
5 0 6 6.210 6.066 0.321 56.255 o
5 0 8 138.902 140.706 3.500 0.459 o
5 1 0 0.356 0.377 0.075 1024.700 o
5 1 1 104.638 105.784 2.396 0.971 o
5 1 2 56.091 57.608 1.349 3.076 o
5 1 3 1.641 1.849 0.123 386.434 o
5 1 4 37.480 38.450 0.943 6.314 o
5 1 5 1.390 1.368 0.104 539.951 o
5 1 6 80.365 80.616 1.877 1.586 o
5 1 7 5.002 4.717 0.179 178.494 o
5 1 8 1.689 1.585 0.104 538.945 o
5 2 0 23.798 23.989 0.575 16.922 o
5 2 1 24.428 24.847 0.594 15.869 o
5 2 2 3.332 3.424 0.141 287.660 o
5 2 3 24.278 23.083 0.594 15.904 o
5 2 4 60.996 59.646 1.368 2.978 o
5 2 5 14.508 14.310 0.368 41.574 o
5 2 6 47.726 46.364 1.075 4.821 o
5 3 0 121.822 119.236 2.821 0.702 o
5 3 1 27.442 26.790 0.774 9.472 o
5 3 2 5.683 5.245 0.179 177.619 o
6 0 0 227.857 228.981 5.424 0.190 o
6 0 2 29.000 28.884 0.783 9.216 o
6 0 4 1.263 1.368 0.132 333.996 o
6 0 6 42.127 45.223 1.160 4.195 o
6 1 0 0.483 0.613 0.104 541.957 o
6 1 1 182.298 181.023 4.188 0.318 o
6 1 2 60.364 59.250 1.368 2.981 o
6 1 3 22.046 21.470 0.623 14.623 o
6 1 4 54.400 53.911 1.245 3.599 o
6 1 5 58.246 58.259 1.302 3.285 o
6 2 1 9.560 8.933 0.292 66.614 o
6 2 3 14.038 14.301 0.377 39.651 o
7 0 0 106.102 98.841 3.047 0.612 o
7 0 2 34.773 35.110 0.802 8.680 o
7 1 0 82.230 80.814 1.887 1.568 o
7 1 1 1.188 1.217 0.075 1019.000 o
;
_olex2_submission_special_instructions 'No special instructions were received'
loop_
_space_group_symop_id
_space_group_symop_operation_xyz
1 x,y,z
2 -x,y+1/2,-z+1/2
3 -x,-y,-z
4 x,-y-1/2,z-1/2
loop_
_atom_site_label
_atom_site_type_symbol
_atom_site_fract_x
_atom_site_fract_y
_atom_site_fract_z
_atom_site_U_iso_or_equiv
_atom_site_adp_type
_atom_site_occupancy
_atom_site_refinement_flags_posn
O1 O 0.43471(6) 0.44444(10) 0.34988(3) 0.01347(13) Uani 1.000000 .
O2 O 0.24261(5) 0.74270(10) 0.46365(3) 0.01307(13) Uani 1.000000 .
C1 C 0.40302(7) 0.55897(12) 0.44782(4) 0.01054(14) Uani 1.000000 .
O3 O 0.12996(6) 0.63164(12) 0.17814(3) 0.01304(12) Uani 1.000000 .
H3a H 0.0125(15) 0.461(3) 0.1502(7) 0.026(2) Uani 1.000000 .
H3b H 0.1889(12) 0.694(2) 0.1132(8) 0.0221(17) Uani 1.000000 .
H1 H 0.3017(18) 0.526(3) 0.2820(10) 0.035(2) Uani 1.000000 .
loop_
_atom_site_aniso_label
_atom_site_aniso_U_11
_atom_site_aniso_U_22
_atom_site_aniso_U_33
_atom_site_aniso_U_12
_atom_site_aniso_U_13
_atom_site_aniso_U_23
O1 0.0128(2) 0.0175(2) 0.0100(2) 0.00349(13) 0.00258(15) -0.00066(12)
O2 0.0113(2) 0.0180(2) 0.00909(19) 0.00447(11) 0.00084(13) -0.00059(12)
C1 0.0092(2) 0.0124(2) 0.0093(2) 0.00138(14) 0.00063(18) 0.00044(15)
O3 0.0108(2) 0.0172(2) 0.0101(2) -0.00061(13) 0.00047(15) 0.00111(14)
H3a 0.028(5) 0.025(5) 0.025(5) -0.014(4) 0.008(4) 0.004(4)
H3b 0.019(4) 0.036(5) 0.016(4) -0.004(4) 0.013(3) 0.007(4)
H1 0.035(6) 0.035(6) 0.045(7) -0.006(5) 0.026(6) -0.010(5)
loop_
_atom_type_symbol
_atom_type_description
_atom_type_scat_dispersion_real
_atom_type_scat_dispersion_imag
_atom_type_scat_source
_atom_type_scat_dispersion_source
C C 0.00347 0.00161
'Clementi & Roetti, C., At. Data Nucl. Data Tables 1974, 14, (177-478); Clementi & Raimondi, J. Chem. Phys., 1963, 38, (2686-2689)'
'Henke, Gullikson and Davis, At. Data and Nucl. Data Tables, 1993, 54, 2'
H H 0.00000 0.00000
'Clementi & Roetti, C., At. Data Nucl. Data Tables 1974, 14, (177-478); Clementi & Raimondi, J. Chem. Phys., 1963, 38, (2686-2689)'
'Henke, Gullikson and Davis, At. Data and Nucl. Data Tables, 1993, 54, 2'
N N 0.00653 0.00323
'Clementi & Roetti, C., At. Data Nucl. Data Tables 1974, 14, (177-478); Clementi & Raimondi, J. Chem. Phys., 1963, 38, (2686-2689)'
'Henke, Gullikson and Davis, At. Data and Nucl. Data Tables, 1993, 54, 2'
O O 0.01158 0.00611
'Clementi & Roetti, C., At. Data Nucl. Data Tables 1974, 14, (177-478); Clementi & Raimondi, J. Chem. Phys., 1963, 38, (2686-2689)'
'Henke, Gullikson and Davis, At. Data and Nucl. Data Tables, 1993, 54, 2'
loop_
_geom_angle_atom_site_label_1
_geom_angle_atom_site_label_2
_geom_angle_atom_site_label_3
_geom_angle
_geom_angle_site_symmetry_1
_geom_angle_site_symmetry_3
_geom_angle_publ_flag
H1 O1 C1 110.8(5) . . ?
O2 C1 O1 127.03(4) . . ?
C1 C1 O1 112.74(5) 3_666 . ?
C1 C1 O2 120.23(5) 3_666 . ?
H3b O3 H3a 105.5(7) . . ?
loop_
_geom_bond_atom_site_label_1
_geom_bond_atom_site_label_2
_geom_bond_distance
_geom_bond_site_symmetry_2
_geom_bond_publ_flag
O1 C1 1.2832(6) . ?
O1 H1 1.034(12) . ?
O2 C1 1.2197(6) . ?
C1 C1 1.5448(8) 3_666 ?
O3 H3a 0.927(9) . ?
O3 H3b 0.948(9) . ?
loop_
_refln_index_h
_refln_index_k
_refln_index_l
_refln_F_squared_meas
_refln_F_squared_sigma
-13 0 6 35.58 5.98
-13 0 8 3.55 0.27
-13 0 14 1.43 0.37
-13 1 1 2.51 0.46
-13 1 2 16.08 0.7
-13 1 4 1.31 0.2
-13 1 5 11.64 1.27
-13 1 8 4.54 0.52
-13 1 10 3.84 0.3
-13 1 12 3.63 0.36
-13 1 13 0.53 0.17
-13 1 15 1.89 0.4
-13 2 1 4.75 0.65
-13 2 3 1.42 0.21
-13 2 4 0.93 0.2
-13 2 5 1.61 0.47
-13 2 8 2.82 0.45
-13 2 9 1.66 0.54
-13 2 10 5.36 0.57
-13 2 12 1.24 0.23
-13 2 13 0.97 0.18
-12 0 2 10.04 0.96
-12 0 4 51.1 1.54
-12 0 6 6.17 0.41
-12 0 10 2.25 0.44
-12 0 12 9.69 0.7
-12 0 14 6.71 0.63
-12 0 16 20.31 0.92
-12 1 1 2.13 0.25
-12 1 2 1.12 0.15
-12 1 5 20.42 0.64
-12 1 6 4.67 0.62
-12 1 7 1.52 0.19
-12 1 8 13.04 0.42
-12 1 9 12.37 0.41
-12 1 10 3 0.22
-12 1 11 1.21 0.17
-12 1 12 7.63 0.37
-12 1 13 0.9 0.16
-12 1 15 15.74 0.54
-12 1 16 2.02 0.31
-12 2 1 13.95 0.56
-12 2 2 6 0.31
-12 2 5 8.3 0.53
-12 2 7 4 0.3
-12 2 8 4.77 0.28
-12 2 9 5.11 0.31
-12 2 11 9.51 0.43
-12 2 12 1.49 0.18
-12 2 13 5.64 0.32
-12 3 1 1.78 0.29
-12 3 3 3.48 0.29
-12 3 6 0.93 0.15
-12 3 7 1.04 0.17
-12 3 11 1.44 0.22
-12 3 14 4.49 0.25
-12 4 3 1.41 0.31
-12 4 4 1.58 0.22
-12 4 5 1.92 0.22
-12 4 6 6.05 0.4
-11 0 2 3.82 0.81
-11 0 4 10.81 0.55
-11 0 6 0.61 0.14
-11 0 8 93.75 2.36
-11 0 10 8.58 0.69
-11 0 12 2.54 0.63
-11 0 14 38.49 1.27
-11 0 18 15.12 0.84
-11 0 20 1.85 0.42
-11 1 2 7.05 0.32
-11 1 3 14.33 0.54
-11 1 4 38.35 0.96
-11 1 5 2.14 0.19
-11 1 6 0.37 0.11
-11 1 7 1.82 0.16
-11 1 8 1.52 0.18
-11 1 9 6.91 0.27
-11 1 10 3.72 0.29
-11 1 11 4.2 0.24
-11 1 12 14.93 0.44
-11 1 13 0.39 0.13
-11 1 14 7.18 0.46
-11 1 15 7.09 0.33
-11 1 16 2.73 0.24
-11 1 18 11.65 0.46
-11 1 19 13.29 0.49
-11 1 20 0.77 0.19
-11 2 1 3.19 0.23
-11 2 3 1.55 0.18
-11 2 4 12.27 0.41
-11 2 5 1.71 0.2
-11 2 6 6.35 0.31
-11 2 7 8.53 0.36
-11 2 10 1.37 0.15
-11 2 11 2.42 0.16
-11 2 12 3.1 0.18
-11 2 13 0.7 0.13
-11 2 14 1.46 0.15
-11 2 15 10.77 0.39
-11 2 17 1.09 0.17
-11 2 18 2.58 0.21
-11 3 1 0.89 0.14
-11 3 2 3.32 0.27
-11 3 3 0.42 0.14
-11 3 4 5.01 0.28
-11 3 5 7.2 0.31
-11 3 6 2.99 0.33
-11 3 7 4.18 0.27
-11 3 9 1.4 0.2
-11 3 10 13.52 0.74
-11 3 11 4.51 0.28
-11 3 12 1.23 0.15
-11 3 13 2.65 0.31
-11 3 14 0.47 0.15
-11 3 16 4.38 0.25
-11 3 17 4.86 0.4
-11 4 1 1.46 0.2
-11 4 2 3.39 0.26
-11 4 3 6.23 0.89
-11 4 6 7.32 0.34
-11 4 9 2.75 0.5
-11 4 10 4.31 0.46
-11 4 12 3.5 0.29
-11 4 13 6.68 0.85
-10 0 4 8.6 0.45
-10 0 6 13.57 0.6
-10 0 8 19.27 0.52
-10 0 10 13.13 0.58
-10 0 12 12.57 0.42
-10 0 14 0.79 0.16
-10 0 16 2.77 0.27
-10 0 18 69.15 3.2
-10 0 20 2.52 0.47
-10 1 1 4.21 0.18
-10 1 2 0.54 0.1
-10 1 3 2.84 0.16
-10 1 4 0.94 0.11
-10 1 5 10.52 0.33
-10 1 7 50.23 1.18
-10 1 8 21.48 0.54
-10 1 9 10.53 0.32
-10 1 10 7.04 0.32
-10 1 11 2.05 0.13
-10 1 12 4.02 0.22
-10 1 13 12.2 0.46
-10 1 14 19.15 0.75
-10 1 16 0.97 0.15
-10 1 17 16.19 0.68
-10 1 18 2.69 0.47
-10 1 19 2.29 0.36
-10 1 22 12.92 0.73
-10 2 1 0.69 0.1
-10 2 2 11.82 0.36
-10 2 3 52.24 1.25
-10 2 4 30.02 0.85
-10 2 7 1.41 0.14
-10 2 8 9.75 0.3
-10 2 9 14.75 0.41
-10 2 10 0.69 0.12
-10 2 11 12.92 0.4
-10 2 12 5.01 0.22
-10 2 13 12.08 0.5
-10 2 14 15.5 0.5
-10 2 17 4.16 0.27
-10 2 18 0.66 0.18
-10 3 1 2.75 0.16
-10 3 2 8.73 0.33
-10 3 3 3.56 0.19
-10 3 4 11.21 0.36
-10 3 6 11.53 0.69
-10 3 8 6.65 0.37
-10 3 9 1.06 0.15
-10 3 10 7.98 0.85
-10 3 14 8.24 1.05
-10 3 15 3.09 0.25
-10 3 17 1.17 0.39
-10 4 2 12.77 0.51
-10 4 3 7.51 0.32
-10 4 5 1.03 0.16
-10 4 6 4.07 0.28
-10 4 8 3.82 0.26
-10 4 9 3.49 0.31
-10 4 10 6.94 0.57
-10 4 16 11.5 0.66
-10 4 17 1.08 0.35
-10 5 2 7.65 0.54
-10 5 4 2.41 0.35
-10 5 5 2.76 0.61
-10 5 6 7.14 0.36
-10 5 10 0.81 0.23
-10 5 12 18.06 1.03
-9 0 2 4.62 0.21
-9 0 4 59.31 1.42
-9 0 6 25.45 0.64
-9 0 8 4.47 0.2
-9 0 10 56.96 1.35
-9 0 14 2.06 0.21
-9 0 16 23.52 0.65
-9 0 22 7.52 0.62
-9 1 1 0.44 0.09
-9 1 2 1.43 0.11
-9 1 4 11.17 0.33
-9 1 5 3.13 0.14
-9 1 6 23.71 0.7
-9 1 7 18.3 0.51
-9 1 8 5.23 0.19
-9 1 9 18.52 0.47
-9 1 10 1.21 0.1
-9 1 11 7.6 0.26
-9 1 14 15.54 0.45
-9 1 15 0.54 0.12
-9 1 16 2.81 0.2
-9 1 17 38.48 0.95
-9 1 18 7.44 0.43
-9 1 19 2.83 0.2
-9 1 20 4.66 0.39
-9 1 21 7.91 0.67
-9 1 23 2.48 0.32
-9 2 1 5.32 0.19
-9 2 3 0.65 0.1
-9 2 4 0.4 0.09
-9 2 5 6.91 0.27
-9 2 6 37.09 0.94
-9 2 7 10.05 0.3
-9 2 8 58.41 1.41
-9 2 9 1.28 0.14
-9 2 10 5.76 0.22
-9 2 12 3.28 0.17
-9 2 13 33.01 1
-9 2 14 5.41 0.21
-9 2 15 0.59 0.14
-9 2 16 9.39 0.54
-9 2 17 8.72 0.54
-9 2 18 15.59 0.56
-9 2 19 4.17 0.67
-9 2 21 8.05 0.38
-9 2 22 3.38 0.31
-9 2 23 9.18 0.64
-9 3 1 3.66 0.23
-9 3 2 90.72 2.1
-9 3 3 13.72 0.45
-9 3 4 22.57 0.62
-9 3 6 1.05 0.13
-9 3 7 22.12 0.81
-9 3 8 7.82 0.41
-9 3 9 1.76 0.15
-9 3 10 5.2 0.21
-9 3 11 1.18 0.12
-9 3 12 43.87 1.18
-9 3 13 7.21 0.3
-9 3 14 6.53 0.36
-9 3 15 2.95 0.24
-9 3 16 3.21 0.24
-9 3 18 3.44 0.29
-9 4 1 12.79 0.4
-9 4 2 3.75 0.27
-9 4 3 23.1 0.6
-9 4 4 0.41 0.13
-9 4 6 9.3 0.39
-9 4 7 0.64 0.16
-9 4 8 4.53 0.31
-9 4 9 1.99 0.22
-9 4 11 6.6 0.97
-9 4 12 6.65 0.59
-9 4 13 8.27 0.65
-9 5 1 1.54 0.16
-9 5 6 0.79 0.16
-9 5 8 0.69 0.17
-9 5 9 3.95 0.33
-9 6 1 2.03 0.23
-9 6 3 4.63 0.32
-9 6 5 3.87 0.28
-8 0 2 3.88 0.34
-8 0 4 4.31 0.18
-8 0 8 51.05 1.23
-8 0 10 7.27 0.26
-8 0 12 3.26 0.19
-8 0 14 47.34 1.61
-8 0 16 12.44 0.5
-8 0 18 2.23 0.17
-8 0 20 44.61 1.65
-8 1 1 30.07 0.8
-8 1 3 19.59 0.56
-8 1 4 30.27 0.76
-8 1 5 24.12 0.62
-8 1 6 2.04 0.11
-8 1 7 58.5 1.34
-8 1 8 6.4 0.2
-8 1 9 14.02 0.38
-8 1 10 38.2 0.89
-8 1 11 1.91 0.11
-8 1 12 1.81 0.12
-8 1 14 0.55 0.11
-8 1 15 16.8 0.49
-8 1 16 9.47 0.28
-8 1 17 7.56 0.25
-8 1 18 11.87 0.39
-8 1 20 1.03 0.2
-8 1 21 4.07 0.34
-8 1 23 0.92 0.19
-8 1 24 10.89 0.7
-8 2 1 42.88 1.07
-8 2 2 17.95 0.45
-8 2 3 7.3 0.32
-8 2 4 15.88 0.41
-8 2 5 35.51 0.85
-8 2 6 59.63 1.36
-8 2 7 7.2 0.23
-8 2 8 7.51 0.23
-8 2 9 1.46 0.11
-8 2 10 12.62 0.35
-8 2 11 21.79 0.55
-8 2 12 8.22 0.26
-8 2 13 1.81 0.14
-8 2 14 12.67 0.36
-8 2 16 39.38 1.37
-8 2 17 1.76 0.25
-8 2 18 14.19 0.46
-8 2 19 4.58 0.35
-8 2 23 3.02 0.27
-8 3 1 0.27 0.08
-8 3 2 9.83 0.29
-8 3 3 7.42 0.33
-8 3 5 0.82 0.12
-8 3 6 35.32 0.86
-8 3 7 10.65 0.34
-8 3 8 23.12 0.62
-8 3 9 5.83 0.2
-8 3 10 10.7 0.35
-8 3 11 7.38 0.24
-8 3 12 53.86 1.54
-8 3 13 1.72 0.16
-8 3 14 1.4 0.14
-8 3 16 18.66 0.55
-8 3 17 17.97 0.96
-8 3 19 1.07 0.21
-8 3 20 9.53 0.42
-8 3 22 27.29 1.02
-8 3 23 3.3 0.51
-8 4 1 22.21 0.68
-8 4 2 21.77 0.95
-8 4 3 15.95 0.44
-8 4 4 12.18 0.38
-8 4 5 3.42 0.23
-8 4 6 4.89 0.31
-8 4 7 3.28 0.36
-8 4 8 4.56 0.26
-8 4 11 23.17 0.64
-8 4 12 17.99 0.6
-8 4 13 12.25 1.17
-8 4 15 3.12 0.6
-8 4 16 3.33 0.61
-8 4 18 5.72 0.41
-8 5 1 4.98 0.27
-8 5 2 29.11 1.38
-8 5 5 1.6 0.15
-8 5 6 0.78 0.19
-8 5 7 4.72 0.3
-8 5 8 8.29 0.72
-8 6 2 0.81 0.16
-8 6 4 0.81 0.18
-8 6 7 1.34 0.43
-7 0 2 15.42 0.47
-7 0 4 42.05 1.04
-7 0 6 272.04 6.71
-7 0 10 1.58 0.13
-7 0 12 5.92 0.22
-7 0 14 13.02 0.43
-7 0 16 7.65 0.31
-7 0 18 8.02 0.27
-7 0 20 0.39 0.12
-7 0 24 8.4 0.38
-7 0 26 1.54 0.35
-7 1 1 19.96 0.64
-7 1 2 91.42 2.13
-7 1 3 3.8 0.16
-7 1 4 0.45 0.08
-7 1 5 2.59 0.13
-7 1 6 20.29 0.51
-7 1 7 55 1.27
-7 1 9 11.25 0.3
-7 1 10 31.21 0.73
-7 1 11 48.35 1.16
-7 1 12 2.84 0.13
-7 1 13 9.42 0.25
-7 1 14 15.91 0.4
-7 1 15 14.38 0.36
-7 1 16 6.44 0.21
-7 1 17 23.85 0.59
-7 1 19 28.49 0.81
-7 1 20 4.69 0.27
-7 1 21 3.21 0.19
-7 1 22 1.22 0.11
-7 1 23 0.96 0.13
-7 1 24 0.91 0.13
-7 1 25 8.13 0.29
-7 2 2 0.33 0.06
-7 2 3 22.46 0.61
-7 2 4 3.98 0.16
-7 2 5 10.88 0.37
-7 2 6 2.16 0.16
-7 2 7 19.9 0.53
-7 2 8 17.13 0.53
-7 2 9 17.26 0.49
-7 2 10 81.05 1.82
-7 2 11 24.03 0.58
-7 2 12 9.07 0.27
-7 2 13 5.06 0.19
-7 2 14 3.19 0.16
-7 2 15 43.77 1.05
-7 2 16 13.86 0.4
-7 2 17 2.29 0.16
-7 2 18 5.23 0.35
-7 2 20 25.85 1.42
-7 2 21 13.31 0.91
-7 2 22 5.33 0.34
-7 2 23 3.67 0.46
-7 2 24 5.33 0.28
-7 2 25 2.53 0.48
-7 3 1 2.24 0.12
-7 3 2 1.75 0.1
-7 3 3 2.75 0.18
-7 3 4 78.74 1.88
-7 3 5 35.14 0.84
-7 3 6 16.94 0.68
-7 3 9 9.94 0.28
-7 3 10 11.58 0.34
-7 3 11 0.37 0.11
-7 3 12 0.88 0.17
-7 3 13 7.79 0.31
-7 3 14 25.22 0.66
-7 3 15 4.63 0.23
-7 3 16 24.27 0.8
-7 3 18 11.17 0.69
-7 3 20 3.04 0.23
-7 3 21 2.96 0.44
-7 3 22 2.65 0.26
-7 4 1 24.87 0.64
-7 4 2 7.26 0.27
-7 4 3 0.77 0.13
-7 4 4 1.84 0.14
-7 4 5 23.8 0.6
-7 4 6 4.25 0.27
-7 4 7 4.23 0.24
-7 4 8 28.06 0.71
-7 4 9 5.3 0.23
-7 4 11 15.62 0.83
-7 4 12 3.54 0.25
-7 4 14 4.19 0.3
-7 4 15 13.77 0.75
-7 4 16 10.47 1.2
-7 4 17 3.99 0.31
-7 4 21 7.7 0.66
-7 5 1 3.94 0.22
-7 5 2 21.32 0.56
-7 5 3 3.76 0.21
-7 5 4 2.07 0.17
-7 5 5 0.69 0.19
-7 5 6 7.64 0.35
-7 5 14 1.28 0.39
-7 5 17 2.16 0.44
-7 5 18 4.75 0.54
-7 6 1 17.39 0.53
-7 6 2 3.79 0.22
-7 6 4 0.77 0.17
-7 6 5 1.58 0.21
-7 6 6 6.53 0.49
-7 6 7 2.45 0.43
-7 6 8 5.96 0.65
-7 6 9 2.13 0.43
-6 0 2 187.76 4.26
-6 0 4 3.31 0.19
-6 0 6 173.69 3.91
-6 0 8 0.85 0.13
-6 0 10 300.11 6.96
-6 0 12 1.76 0.23
-6 0 14 26.56 0.63
-6 0 16 134.31 3.09
-6 0 18 16.63 0.44
-6 0 20 10.6 0.58
-6 0 22 2.96 0.3
-6 0 24 13.16 0.74
-6 0 26 5.41 0.33
-6 1 1 1.38 0.11
-6 1 2 7.04 0.23
-6 1 3 1.4 0.1
-6 1 4 33.27 0.78
-6 1 5 98.11 2.22
-6 1 6 157.52 3.55
-6 1 7 3.01 0.15
-6 1 8 3.16 0.16
-6 1 9 47.08 1.09
-6 1 10 51.57 1.23
-6 1 11 3.96 0.18
-6 1 12 42.76 0.99
-6 1 13 4.86 0.16
-6 1 14 22.56 0.58
-6 1 15 3.49 0.13
-6 1 16 0.73 0.1
-6 1 17 1.07 0.09
-6 1 18 0.72 0.08
-6 1 19 12.9 0.39
-6 1 20 30.91 0.75
-6 1 21 13.72 0.37
-6 1 22 1.33 0.23
-6 1 23 2.39 0.2
-6 1 25 1.37 0.15
-6 1 26 1.87 0.16
-6 2 1 73.29 1.68
-6 2 2 41.91 0.98
-6 2 3 63.44 1.49
-6 2 4 5.79 0.2
-6 2 5 4.5 0.18
-6 2 6 0.99 0.12
-6 2 7 0.32 0.1
-6 2 8 14.43 0.42
-6 2 9 31.45 0.74
-6 2 10 9.7 0.26
-6 2 11 0.28 0.08
-6 2 12 9.55 0.26
-6 2 13 0.3 0.07
-6 2 14 6.77 0.22
-6 2 15 2.74 0.14
-6 2 16 0.42 0.09
-6 2 17 10.24 0.3
-6 2 18 21.25 0.54
-6 2 19 2.39 0.15
-6 2 20 23.04 0.59
-6 2 21 1.54 0.15
-6 2 23 0.78 0.14
-6 2 25 13.76 0.51
-6 3 1 14.57 0.37
-6 3 2 11.72 0.31
-6 3 3 1.4 0.1
-6 3 4 5.25 0.18
-6 3 5 0.72 0.08
-6 3 6 6.24 0.25
-6 3 7 8.57 0.25
-6 3 8 42.23 0.96
-6 3 9 32.69 0.77
-6 3 10 0.47 0.08
-6 3 11 4.68 0.19
-6 3 12 0.59 0.1
-6 3 13 7.52 0.38
-6 3 14 58.73 1.61
-6 3 15 13.44 0.57
-6 3 16 2.01 0.23
-6 3 18 9.02 0.56
-6 3 19 16.22 1.71
-6 3 20 1.26 0.18
-6 3 21 0.72 0.17
-6 3 22 5.72 0.29
-6 3 23 0.96 0.17
-6 3 24 20.46 0.58
-6 4 1 8.21 0.28
-6 4 3 7.19 0.26
-6 4 4 42.99 1.38
-6 4 5 38.9 0.94
-6 4 6 2.04 0.15
-6 4 8 6.81 0.34
-6 4 10 1.71 0.17
-6 4 11 7.23 0.44
-6 4 12 12.46 0.39
-6 4 13 14.19 0.44
-6 4 14 14.95 0.46
-6 4 15 23.76 1.68
-6 4 18 7.95 0.39
-6 4 19 0.82 0.21
-6 4 21 1.83 0.24
-6 4 22 0.71 0.2
-6 5 2 0.65 0.12
-6 5 3 1.13 0.13
-6 5 4 39.46 1.09
-6 5 6 6.86 0.31
-6 5 7 2.31 0.2
-6 5 8 16.82 0.71
-6 5 10 16.71 1.25
-6 5 14 2.25 0.45
-6 5 15 1.9 0.43
-6 5 16 8.65 0.69
-6 5 18 1.42 0.38
-6 5 20 2.91 0.48
-6 6 1 1.58 0.15
-6 6 2 4.74 0.24
-6 6 3 0.82 0.17
-6 6 4 3.77 0.4
-6 6 5 11.64 0.46
-6 6 6 1.33 0.23
-6 6 15 3.88 0.51
-6 7 1 6.39 0.63
-5 0 2 94.53 2.28
-5 0 4 18.86 0.53
-5 0 6 119.9 3.17
-5 0 8 295.22 6.77
-5 0 10 104.16 2.38
-5 0 12 45.81 1.17
-5 0 14 0.5 0.07
-5 0 18 27.84 0.69
-5 0 20 105.56 2.58
-5 0 26 13.82 0.75
-5 1 1 56.28 1.3
-5 1 2 261.84 6.04
-5 1 3 54.17 1.28
-5 1 4 96.14 2.31
-5 1 5 31.33 0.73
-5 1 6 4.02 0.16
-5 1 7 1.24 0.1
-5 1 8 18.05 0.46
-5 1 9 276.03 6.25
-5 1 10 26.62 0.66
-5 1 12 25.78 0.62
-5 1 13 9.16 0.24
-5 1 14 26.7 0.68
-5 1 15 40.5 0.96
-5 1 16 57 1.28
-5 1 17 17.09 0.43
-5 1 18 0.62 0.08
-5 1 19 44.73 1.03
-5 1 20 0.65 0.11
-5 1 21 1.25 0.12
-5 1 22 1.55 0.15
-5 1 24 16.47 0.5
-5 1 25 1.05 0.23
-5 1 26 3.13 0.23
-5 2 1 9.77 0.27
-5 2 2 0.63 0.08
-5 2 3 4.5 0.16
-5 2 4 27.78 0.7
-5 2 5 178.17 4.07
-5 2 6 84.05 1.94
-5 2 7 23.47 0.61
-5 2 8 1.83 0.14
-5 2 11 39.93 0.92
-5 2 12 25.98 0.65
-5 2 13 76.01 1.7
-5 2 14 0.63 0.07
-5 2 15 12 0.37
-5 2 16 3.71 0.16
-5 2 17 8.72 0.34
-5 2 18 5.45 0.21
-5 2 19 12.68 0.35
-5 2 22 11.54 0.33
-5 2 23 8.92 0.31
-5 2 24 2.04 0.16
-5 3 1 20.5 0.52
-5 3 3 6.13 0.2
-5 3 4 11.34 0.47
-5 3 5 3.77 0.2
-5 3 6 5.41 0.24
-5 3 7 16.5 0.48
-5 3 8 2.28 0.12
-5 3 10 7.21 0.25
-5 3 11 0.72 0.1
-5 3 12 0.69 0.09
-5 3 14 0.8 0.11
-5 3 15 2.46 0.23
-5 3 18 14.48 0.41
-5 3 19 6.97 0.26
-5 3 21 0.98 0.23
-5 3 23 4.86 0.27
-5 3 24 10.06 0.38
-5 4 1 3.59 0.17
-5 4 3 26.12 0.63
-5 4 4 25.31 0.61
-5 4 5 13.92 0.43
-5 4 7 1.18 0.14
-5 4 8 26.1 0.64
-5 4 10 26.69 0.69
-5 4 12 2.21 0.17
-5 4 13 15.95 0.54
-5 4 14 8.28 0.34
-5 4 15 15.19 0.47
-5 4 17 2.29 0.23
-5 4 18 18.41 0.6
-5 4 22 3.04 0.23
-5 4 23 10.37 0.66
-5 5 1 3.02 0.16
-5 5 2 4.1 0.27
-5 5 3 3.08 0.27
-5 5 4 69.06 1.6
-5 5 6 9.82 0.35
-5 5 7 2.48 0.35
-5 5 8 7.1 0.77
-5 5 9 3.22 0.8
-5 5 10 4.49 0.33
-5 5 12 12.08 0.77
-5 5 13 3.89 0.61
-5 5 14 55.99 1.5
-5 5 16 0.79 0.21
-5 5 18 1.39 0.3
-5 5 20 3.53 0.3
-5 6 3 20.17 1.42
-5 6 4 3.04 0.42
-5 6 5 1.32 0.22
-5 6 13 1.58 0.4
-5 6 15 4.47 0.54
-4 0 2 1004.19 22.84
-4 0 4 127.71 2.86
-4 0 6 47.1 1.25
-4 0 8 589.35 13.06
-4 0 10 1.76 0.2
-4 0 12 250.6 7.48
-4 0 14 1.84 0.15
-4 0 16 58.24 1.76
-4 0 18 141.75 3.23
-4 0 22 1.52 0.18
-4 0 24 1.81 0.2
-4 0 26 13.42 0.78
-4 1 1 93.55 2.12
-4 1 2 58.8 1.35
-4 1 3 1.77 0.11
-4 1 4 34.57 0.83
-4 1 6 182.01 4.13
-4 1 7 88.88 2.09
-4 1 8 177.99 4.7
-4 1 9 45.68 1.06
-4 1 11 1.55 0.11
-4 1 12 84.53 2.03
-4 1 13 15.68 0.4
-4 1 14 17.22 0.42
-4 1 16 23.12 0.54
-4 1 17 4.63 0.16
-4 1 18 1.06 0.08
-4 1 19 55.91 1.28
-4 1 20 13.01 0.43
-4 1 21 1.94 0.14
-4 1 22 25.45 0.82
-4 1 23 10.28 0.32
-4 1 24 2.87 0.17
-4 1 25 5.19 0.33
-4 1 26 2.78 0.19
-4 2 1 54 1.4
-4 2 2 13.08 0.36
-4 2 3 81.29 1.93
-4 2 4 65.69 1.66
-4 2 5 6.62 0.25
-4 2 6 5.93 0.29
-4 2 7 7.37 0.26
-4 2 8 84.55 2.05
-4 2 9 13.73 0.41
-4 2 10 31.84 0.79
-4 2 11 8.07 0.46
-4 2 12 0.95 0.13
-4 2 13 3.53 0.14
-4 2 14 23.73 0.58
-4 2 15 35.87 0.83
-4 2 16 11.35 0.31
-4 2 17 7.93 0.23
-4 2 18 7.94 0.27
-4 2 19 6.75 0.22
-4 2 21 4.89 0.21
-4 2 22 4.67 0.22
-4 2 23 20.57 0.54
-4 2 24 2.36 0.19
-4 2 25 3.63 0.22
-4 2 26 1.77 0.16
-4 3 1 4.94 0.26
-4 3 2 14.45 0.42
-4 3 3 25.23 0.63
-4 3 4 247.74 5.7
-4 3 5 28.55 0.76
-4 3 6 8.56 0.29
-4 3 7 5.28 0.21
-4 3 8 0.33 0.08
-4 3 9 38.89 1.12
-4 3 10 66.28 1.56
-4 3 11 22.52 0.78
-4 3 12 12.93 0.36
-4 3 13 0.98 0.1
-4 3 14 32.65 0.85
-4 3 15 6.71 0.28
-4 3 16 4.47 0.19
-4 3 17 16.5 0.44
-4 3 18 2.99 0.16
-4 3 20 6.96 0.26
-4 3 21 1.83 0.15
-4 3 22 1.11 0.14
-4 4 1 0.32 0.08
-4 4 2 5.41 0.19
-4 4 3 60.18 1.37
-4 4 4 1.29 0.12
-4 4 5 12.04 0.35
-4 4 6 29.35 0.82
-4 4 7 10.63 0.3
-4 4 8 4.49 0.19
-4 4 9 2.24 0.17
-4 4 10 2.99 0.2
-4 4 12 0.6 0.16
-4 4 13 31.07 1.04
-4 4 14 24.12 0.98
-4 4 15 0.97 0.25
-4 4 16 2.07 0.38
-4 4 17 5.84 0.34
-4 4 18 2.1 0.2
-4 4 20 5.38 0.28
-4 4 22 3.52 0.25
-4 4 23 6.09 0.29
-4 5 2 23.66 0.58
-4 5 3 2.4 0.22
-4 5 6 6.38 0.28
-4 5 8 9.01 0.95
-4 5 10 13.09 1.57
-4 5 11 1 0.28
-4 5 12 7.7 0.49
-4 5 13 0.87 0.23
-4 5 14 14.85 0.84
-4 5 17 1.55 0.3
-4 5 18 13.75 0.51
-4 6 2 5.83 0.64
-4 6 3 14.5 0.84
-4 6 4 3.43 0.57
-4 6 5 5.45 0.38
-4 6 12 4.72 0.58
-4 6 13 23.23 0.96
-4 6 14 6.83 0.64
-3 0 2 15.35 0.48
-3 0 4 92.98 2.08
-3 0 6 13.84 0.64
-3 0 8 22.92 0.83
-3 0 10 4.49 0.22
-3 0 12 149.06 3.49
-3 0 14 18.06 0.81
-3 0 16 13.6 0.5
-3 0 18 34.29 0.87
-3 0 20 10.33 0.36
-3 0 22 104.18 3.36
-3 0 26 5 0.32
-3 1 1 340.87 7.83
-3 1 2 35.08 0.85
-3 1 3 162.96 3.57
-3 1 4 246.39 5.55
-3 1 5 217.02 4.87
-3 1 6 0.31 0.09
-3 1 7 355.47 8.01
-3 1 8 8.56 0.29
-3 1 9 63.13 1.44
-3 1 10 3.5 0.25
-3 1 11 163.75 3.66
-3 1 12 56.63 1.29
-3 1 13 0.97 0.12
-3 1 14 0.45 0.07
-3 1 16 32.73 0.77
-3 1 17 61.73 1.38
-3 1 18 40.37 0.94
-3 1 19 0.4 0.09
-3 1 20 2.19 0.14
-3 1 21 9.22 0.29
-3 1 22 2.46 0.18
-3 1 23 2.06 0.23
-3 1 25 1.34 0.15
-3 1 26 19.25 0.56
-3 2 1 84.92 2.18
-3 2 2 190.42 4.37
-3 2 3 315.05 7.11
-3 2 4 27.86 0.69
-3 2 5 2.4 0.17
-3 2 6 142.79 3.27
-3 2 7 170.8 3.92
-3 2 8 300.7 6.93
-3 2 9 55.08 1.57
-3 2 10 11.28 0.43
-3 2 11 24.24 0.66
-3 2 12 2.4 0.15
-3 2 13 55.45 1.35
-3 2 14 1.03 0.08
-3 2 15 29.3 0.83
-3 2 16 15.26 0.41
-3 2 17 0.9 0.12
-3 2 18 47.07 1.28
-3 2 20 3.85 0.18
-3 2 21 12.15 0.38
-3 2 24 3.46 0.23
-3 3 1 4.08 0.18
-3 3 2 267.61 6.2
-3 3 3 8.1 0.38
-3 3 4 49.37 1.17
-3 3 5 22.4 0.66
-3 3 7 3.98 0.34
-3 3 8 18.37 0.75
-3 3 9 5.07 0.22
-3 3 10 20.39 0.54
-3 3 11 1.49 0.11
-3 3 12 44.22 1.04
-3 3 13 10.34 0.3
-3 3 14 74.49 1.69
-3 3 15 1.82 0.13
-3 3 17 1.06 0.13
-3 3 18 3.56 0.33
-3 3 19 12.16 0.39
-3 3 20 4.69 0.19
-3 3 21 7.42 0.32
-3 3 22 11.58 0.35
-3 3 24 12.78 0.41
-3 3 25 3.01 0.42
-3 4 1 21.48 0.54
-3 4 2 11.64 0.45
-3 4 3 57.98 1.33
-3 4 4 30.8 0.75
-3 4 6 27.02 0.64
-3 4 7 17.27 0.46
-3 4 8 0.35 0.1
-3 4 9 0.42 0.13
-3 4 10 40.22 1.09
-3 4 11 3.64 0.22
-3 4 12 3.56 0.26
-3 4 13 33.59 1.08
-3 4 14 6.67 0.35
-3 4 16 4.64 0.29
-3 4 17 12.89 0.51
-3 4 18 4.46 0.61
-3 4 20 11.07 0.46
-3 4 21 0.97 0.17
-3 4 23 8.82 0.51
-3 5 2 2.04 0.2
-3 5 3 4.4 0.22
-3 5 4 10.86 0.41
-3 5 5 1.02 0.14
-3 5 6 40.65 1.05
-3 5 7 4.99 0.77
-3 5 8 0.9 0.24
-3 5 9 4.56 0.53
-3 5 10 5.42 0.41
-3 5 11 1.15 0.28
-3 5 12 12.64 0.61
-3 5 14 1.74 0.46
-3 5 16 21.12 0.94
-3 5 17 1.46 0.46
-3 5 20 2.94 0.27
-3 6 1 8.79 0.71
-3 6 2 1.56 0.46
-3 6 4 1.78 0.25
-3 6 17 8.27 0.63
-2 0 2 645.61 13.71
-2 0 4 2153.13 46.35
-2 0 6 176.26 4.64
-2 0 8 456.86 10.63
-2 0 10 192.14 4.33
-2 0 12 17.3 0.47
-2 0 14 58.42 1.35
-2 0 16 12.41 0.35
-2 0 18 5.2 0.23
-2 0 20 17.46 0.56
-2 0 22 4.71 0.27
-2 0 26 4.24 0.3
-2 1 1 203.84 4.64
-2 1 2 596.8 13.18
-2 1 3 21.26 0.53
-2 1 4 375.97 8.64
-2 1 5 20.9 0.55
-2 1 6 5.94 0.2
-2 1 7 34.21 0.83
-2 1 8 295.67 6.65
-2 1 9 23.03 0.57
-2 1 10 33.22 0.78
-2 1 11 84.18 1.93
-2 1 12 10.18 0.28
-2 1 13 32.86 0.86
-2 1 14 19.37 0.53
-2 1 15 11.32 0.31
-2 1 16 0.94 0.07
-2 1 17 31.71 0.87
-2 1 18 9.54 0.27
-2 1 19 1.99 0.12
-2 1 20 0.95 0.1
-2 1 21 62.91 1.6
-2 1 22 13.04 0.37
-2 1 24 2.4 0.17
-2 1 25 0.54 0.13
-2 1 26 1.79 0.16
-2 2 1 160.36 3.63
-2 2 2 500.26 11.27
-2 2 3 10.1 0.27
-2 2 4 23.89 0.63
-2 2 5 3.34 0.16
-2 2 6 72.8 1.89
-2 2 7 35.6 0.87
-2 2 8 29.15 0.72
-2 2 9 17.84 0.45
-2 2 10 93.58 2.27
-2 2 11 13.34 0.37
-2 2 12 111.15 2.93
-2 2 13 31.16 0.74
-2 2 14 13.87 0.36
-2 2 15 2.26 0.13
-2 2 16 38.34 0.88
-2 2 17 57.71 1.31
-2 2 18 30.92 0.73
-2 2 19 9.12 0.27
-2 2 20 7.35 0.25
-2 2 21 0.61 0.11
-2 2 22 10.48 0.33
-2 2 23 12.15 0.37
-2 2 24 0.66 0.13
-2 2 25 16.76 0.5
-2 2 26 8.83 0.39
-2 3 1 148.38 3.41
-2 3 2 69.53 1.95
-2 3 3 1.36 0.11
-2 3 4 9.89 0.32
-2 3 5 8.62 0.32
-2 3 6 383.76 9.42
-2 3 7 85.43 2.02
-2 3 8 27.44 0.78
-2 3 9 8.4 0.45
-2 3 10 23.36 0.78
-2 3 11 20.73 0.61
-2 3 12 88.04 2.33
-2 3 13 4.08 0.18
-2 3 14 5.07 0.2
-2 3 15 11.25 0.33
-2 3 16 34.13 0.93
-2 3 17 4.58 0.19
-2 3 18 9.88 0.33
-2 3 19 2.13 0.22
-2 3 20 16.49 0.44
-2 3 22 12.32 0.39
-2 3 24 1.74 0.21
-2 4 1 16.04 0.58
-2 4 2 63.6 1.44
-2 4 3 35.34 0.82
-2 4 4 0.47 0.08
-2 4 5 36.2 0.91
-2 4 6 4.42 0.25
-2 4 7 37.66 0.92
-2 4 8 0.67 0.12
-2 4 9 0.34 0.11
-2 4 10 25.73 0.68
-2 4 11 19.21 0.54
-2 4 13 11.45 0.4
-2 4 14 9.88 0.38
-2 4 15 11.75 0.47
-2 4 16 17.04 0.57
-2 4 17 11.67 0.71
-2 4 18 1.4 0.43
-2 4 21 2.65 0.47
-2 4 23 3.75 0.29
-2 5 2 16.62 0.77
-2 5 3 3.43 0.25
-2 5 4 3.95 0.36
-2 5 5 4.34 0.35
-2 5 8 1.02 0.25
-2 5 9 1.25 0.33
-2 5 10 4.12 0.37
-2 5 12 0.88 0.19
-2 5 13 6.21 0.32
-2 5 14 2.71 0.49
-2 5 20 6.36 0.35
-1 0 2 817.69 20.14
-1 0 4 901.64 21.4
-1 0 6 211.57 4.33
-1 0 8 494.56 12.76
-1 0 10 2.91 0.18
-1 0 12 110.22 2.43
-1 0 14 50.37 1.16
-1 0 16 23.82 0.58
-1 0 18 64.44 2.28
-1 0 20 44.87 1.14
-1 0 22 0.73 0.15
-1 0 24 24.97 0.72
-1 0 26 6.95 0.35
-1 1 1 2988.56 65.86
-1 1 2 159.17 3.58
-1 1 3 363.15 8.53
-1 1 4 265.87 5.85
-1 1 5 0.98 0.1
-1 1 6 0.46 0.08
-1 1 7 427.44 9.66
-1 1 8 96.1 2.15
-1 1 9 176.52 4.05
-1 1 11 75.86 1.71
-1 1 12 89.01 2.05
-1 1 13 5.96 0.22
-1 1 14 46.57 1.2
-1 1 15 10.65 0.33
-1 1 16 6.65 0.21
-1 1 17 1.92 0.1
-1 1 18 16.25 0.41
-1 1 19 11.1 0.32
-1 1 20 2.91 0.19
-1 1 21 15.5 0.46
-1 1 22 13.5 0.41
-1 1 23 1.7 0.13
-1 1 24 0.85 0.13
-1 1 25 1.55 0.15
-1 2 1 143.6 3.54
-1 2 2 8.61 0.24
-1 2 3 172.74 3.83
-1 2 4 238.21 5.25
-1 2 5 509.97 12.14
-1 2 6 18.91 0.5
-1 2 7 1.38 0.1
-1 2 8 48.31 1.16
-1 2 9 7.96 0.25
-1 2 10 196.01 4.42
-1 2 11 75.73 1.74
-1 2 12 33.88 0.86
-1 2 13 13.43 0.36
-1 2 14 1.4 0.1
-1 2 15 13.16 0.34
-1 2 18 5.96 0.21
-1 2 19 4.67 0.19
-1 2 20 53.79 1.62
-1 2 21 1.23 0.12
-1 2 22 21.9 0.57
-1 3 2 33.16 0.79
-1 3 3 14.42 0.45
-1 3 4 59.1 1.36
-1 3 5 0.91 0.1
-1 3 6 111.23 2.54
-1 3 7 1.75 0.12
-1 3 8 6.48 0.23
-1 3 9 1.43 0.12
-1 3 10 33.71 0.83
-1 3 11 42.38 1.06
-1 3 12 0.31 0.08
-1 3 13 1.08 0.1
-1 3 14 28.65 0.71
-1 3 15 6.5 0.28
-1 3 16 120.68 3.25
-1 3 17 13.22 0.38
-1 3 18 1.36 0.14
-1 3 19 3.93 0.31
-1 3 21 14.54 0.47
-1 3 22 6.01 0.42
-1 3 23 2.4 0.24
-1 3 24 14.24 1.44
-1 4 1 6.39 0.21
-1 4 2 10.23 0.29
-1 4 4 0.56 0.09
-1 4 5 62.21 1.44
-1 4 6 83.96 2.71
-1 4 7 29.09 0.73
-1 4 8 8.4 0.3
-1 4 9 1.87 0.17
-1 4 11 3.08 0.23
-1 4 12 22.21 0.69
-1 4 13 0.54 0.16
-1 4 14 3.62 0.25
-1 4 16 3.82 0.86
-1 4 20 11.46 0.68
-1 4 21 2.46 0.68
-1 4 22 1.5 0.21
-1 5 1 10.63 0.56
-1 5 2 78.69 1.92
-1 5 3 1.33 0.14
-1 5 4 4.89 0.27
-1 5 6 34.65 1.01
-1 5 7 1.29 0.24
-1 5 9 6.77 1
-1 5 10 14.97 1.13
-1 5 12 15.08 1.22
0 0 2 153.25 3.29
0 0 4 75.63 1.77
0 0 6 1063.95 28.15
0 0 8 298.15 6.66
0 0 10 410.55 9.01
0 0 12 14.83 0.5
0 0 14 56.38 2.81
0 0 16 12.21 0.34
0 0 18 1.44 0.17
0 0 20 12.44 0.4
0 0 22 17.4 0.52
0 0 24 1.65 0.25
0 0 26 2.03 0.39
0 1 1 483.78 11.19
0 1 2 97 2.24
0 1 3 17.2 0.44
0 1 4 1619.92 35.43
0 1 5 73.51 1.68
0 1 6 326.15 7.28
0 1 7 37.54 0.91
0 1 8 26.54 0.67
0 1 9 38.44 0.91
0 1 10 150.65 3.37
0 1 11 206.47 5.01
0 1 13 26.77 0.73
0 1 14 9.02 0.27
0 1 15 3.75 0.2
0 1 16 3.75 0.16
0 1 17 21.06 0.52
0 1 18 27.16 0.7
0 1 19 55.37 1.27
0 1 20 4.12 0.17
0 1 21 17.27 0.45
0 1 22 4.61 0.22
0 1 23 12.19 0.45
0 1 24 5.08 0.28
0 1 25 0.67 0.17
0 1 26 2.15 0.21
0 2 0 12.28 0.46
0 2 1 76.71 1.73
0 2 2 133.87 3.21
0 2 4 190.16 4.43
0 2 5 48.66 1.11
0 2 6 5.24 0.18
0 2 7 141.18 3.27
0 2 8 0.64 0.1
0 2 9 56.5 1.35
0 2 10 26.61 0.65
0 2 11 1.28 0.11
0 2 12 17.27 0.48
0 2 13 10.01 0.3
0 2 14 60.08 1.42
0 2 15 99.48 2.25
0 2 16 2.75 0.15
0 2 18 12.3 0.37
0 2 19 13.3 0.39
0 2 20 27.53 0.96
0 2 21 14.75 1.01
0 2 22 0.56 0.16
0 2 23 4.56 0.32
0 2 24 8.25 0.64
0 2 25 9.1 0.4
0 3 1 53.46 1.23
0 3 2 117.61 2.66
0 3 3 91.63 2.11
0 3 4 57.84 1.33
0 3 5 17.12 0.44
0 3 6 0.29 0.08
0 3 7 1.25 0.11
0 3 8 104.23 2.51
0 3 9 44.12 1.2
0 3 10 1.51 0.13
0 3 11 1.57 0.15
0 3 12 8.7 0.28
0 3 14 28.79 0.74
0 3 16 1.27 0.14
0 3 17 5.53 0.26
0 3 18 5.53 0.32
0 3 20 13.63 0.76
0 3 21 2.97 0.22
0 3 22 5.06 0.32
0 3 24 8.18 0.64
0 4 0 2.92 0.2
0 4 1 13.78 0.46
0 4 2 59.36 1.6
0 4 3 4.32 0.18
0 4 4 13.44 0.39
0 4 5 83.94 2.02
0 4 6 6.88 0.25
0 4 8 6.28 0.47
0 4 9 6.56 0.29
0 4 10 18.15 0.6
0 4 11 0.99 0.18
0 4 12 25.12 0.76
0 4 13 6.26 0.28
0 4 15 28.15 1.57
0 4 16 18.02 0.65
0 4 18 3.28 0.51
0 4 19 3.78 0.52
0 4 20 4.3 0.53
0 4 22 1.27 0.24
0 5 2 8.22 0.58
0 5 3 1.08 0.17
0 5 4 26.34 0.71
0 5 5 3.12 0.25
0 5 6 77.96 1.81
0 5 8 5.74 0.79
0 5 11 4.63 0.87
0 5 12 9.08 1.02
0 6 5 31.23 1.09
1 0 0 413.76 14.98
1 0 2 10.59 0.37
1 0 4 1963.06 42.35
1 0 6 231.38 5.37
1 0 8 71.63 1.63
1 0 10 685.41 15.01
1 0 12 8.71 0.96
1 0 14 85.41 2.02
1 0 16 12.97 0.36
1 0 18 93.52 2.11
1 0 20 99.83 2.42
1 0 22 4.58 0.38
1 0 24 1.39 0.38
1 1 0 1709.78 38.77
1 1 1 41.02 1.01
1 1 2 460.76 10.28
1 1 3 835.51 21.57
1 1 4 68.85 1.55
1 1 5 120.33 2.69
1 1 6 217.9 5.16
1 1 7 18.9 0.5
1 1 8 97.11 2.21
1 1 9 194.55 4.35
1 1 10 75.14 1.71
1 1 12 2.33 0.14
1 1 13 7.55 0.34
1 1 14 130.85 3.91
1 1 15 4.21 0.17
1 1 16 24.34 0.6
1 1 17 3.98 0.23
1 1 18 4.53 0.19
1 1 19 12.41 0.36
1 1 20 5.99 0.3
1 1 21 10.12 0.31
1 1 22 3.37 0.19
1 1 23 9.25 0.43
1 1 24 15.89 0.53
1 1 25 3.23 0.48
1 2 0 338.64 7.62
1 2 1 280.28 6.25
1 2 3 369.74 8.27
1 2 4 21.06 0.58
1 2 5 94.6 2.13
1 2 6 171.67 3.86
1 2 7 84.63 1.93
1 2 8 6.04 0.23
1 2 9 7.88 0.26
1 2 10 4.25 0.2
1 2 11 8.85 0.29
1 2 12 15.07 0.43
1 2 13 28.23 0.7
1 2 14 7.06 0.27
1 2 15 0.81 0.1
1 2 16 5.38 0.41
1 2 17 4.08 0.32
1 2 19 6.16 0.28
1 2 20 0.5 0.13
1 2 21 2.47 0.25
1 2 22 13.1 1.19
1 2 24 11 1.01
1 2 25 10.02 0.63
1 3 0 20.3 0.52
1 3 1 31.92 0.79
1 3 2 49.2 1.16
1 3 4 8.77 0.31
1 3 5 23.56 0.58
1 3 6 44.58 1.07
1 3 7 20.15 0.55
1 3 8 26.23 0.7
1 3 9 10.3 0.72
1 3 10 0.86 0.15
1 3 11 16.33 0.54
1 3 12 35.17 0.87
1 3 13 30.28 0.77
1 3 14 14.8 0.53
1 3 15 1.22 0.14
1 3 17 1.61 0.26
1 3 18 39.17 1.19
1 3 19 16.53 0.69
1 3 21 1.24 0.21
1 3 23 2.65 0.26
1 4 0 18.52 0.5
1 4 1 0.68 0.08
1 4 2 57.98 1.36
1 4 3 13.92 0.46
1 4 4 3.29 0.18
1 4 5 54.08 1.28
1 4 6 8.12 0.32
1 4 7 1.08 0.14
1 4 8 61.22 1.4
1 4 9 12.93 0.38
1 4 11 1.58 0.15
1 4 12 1.37 0.16
1 4 13 8.47 0.44
1 4 14 1.86 0.19
1 4 15 19.81 1.33
1 4 16 13.61 0.5
1 4 17 4.61 0.55
1 4 19 5.02 0.57
1 4 20 3.27 0.49
1 4 22 8.36 0.38
1 5 0 4.09 0.43
1 5 2 12.18 0.55
1 5 3 0.6 0.15
1 5 4 97.84 2.34
1 5 5 3.56 0.4
1 5 8 9.3 1.1
1 5 12 21.61 1.43
1 6 0 6.81 0.65
1 6 1 6.47 0.67
1 6 2 2.96 0.51
1 6 4 6.61 0.64
1 6 5 11.88 0.59
1 6 6 4 0.32
2 0 0 25.19 0.62
2 0 2 3709.37 79.25
2 0 4 9.06 0.4
2 0 6 3.76 0.22
2 0 8 104.47 2.49
2 0 10 34.8 1.6
2 0 12 80.79 2.02
2 0 14 100.25 3.07
2 0 16 37.44 0.9
2 0 18 4.94 0.4
2 0 20 20.13 0.63
2 0 22 16.72 0.58
2 0 24 36.76 1.11
2 1 0 394.69 8.75
2 1 1 71.03 1.7
2 1 2 2.82 0.13
2 1 3 491.15 10.92
2 1 4 9.85 0.28
2 1 5 20.2 0.51
2 1 6 443.02 9.92
2 1 7 29.8 0.8
2 1 8 48.59 1.32
2 1 9 182.28 4.15
2 1 10 42.79 1.02
2 1 11 1.89 0.13
2 1 12 26.32 0.92
2 1 13 120.25 2.92
2 1 14 3.37 0.2
2 1 15 5.56 0.27
2 1 16 0.4 0.08
2 1 17 4.79 0.19
2 1 18 22.88 0.65
2 1 19 35.54 1.23
2 1 20 27.27 0.88
2 1 21 11.18 0.52
2 1 22 0.92 0.17
2 1 23 6.96 0.62
2 1 24 8.96 0.63
2 2 0 542.42 12.28
2 2 1 1.96 0.12
2 2 2 3.3 0.18
2 2 3 17.8 0.53
2 2 4 1.19 0.1
2 2 5 159.31 3.62
2 2 6 11.27 0.36
2 2 7 58.9 1.53
2 2 8 56.24 1.31
2 2 9 79.53 1.96
2 2 10 78.43 1.79
2 2 11 32.96 0.79
2 2 12 0.52 0.08
2 2 13 37.03 0.87
2 2 14 1.94 0.16
2 2 15 13.57 0.42
2 2 16 14.72 0.6
2 2 17 50.52 2.45
2 2 18 2.65 0.21
2 2 20 2.01 0.23
2 2 22 3.62 0.54
2 3 0 13.28 0.38
2 3 1 32.32 0.79
2 3 2 91.96 2.21
2 3 3 4.62 0.19
2 3 4 225.6 5.13
2 3 5 8.9 0.31
2 3 6 2.35 0.2
2 3 7 31.32 0.76
2 3 8 1.75 0.13
2 3 9 1.37 0.1
2 3 10 2.96 0.15
2 3 12 3.44 0.19
2 3 14 9 0.35
2 3 15 5.11 0.28
2 3 16 4.16 0.27
2 3 18 1.5 0.43
2 3 21 1.88 0.22
2 3 22 5.54 0.36
2 3 23 5.52 0.53
2 4 0 13.11 0.36
2 4 2 1.99 0.13
2 4 3 56.76 1.41
2 4 4 55.2 1.42
2 4 5 18.56 0.63
2 4 6 3.85 0.18
2 4 7 19.57 0.54
2 4 8 5.96 0.23
2 4 9 6.92 0.28
2 4 10 1.95 0.13
2 4 12 37.24 0.95
2 4 13 11.6 0.41
2 4 14 8.3 0.35
2 4 15 5.39 0.33
2 4 17 6.42 0.62
2 4 18 12.14 0.75
2 4 19 4.15 0.55
2 5 0 11.73 0.41
2 5 1 4.01 0.2
2 5 2 2.63 0.21
2 5 3 1.15 0.17
2 5 4 2.99 0.23
2 5 5 1.37 0.19
2 5 6 1.66 0.3
2 5 8 78.04 1.91
2 5 9 4.99 0.32
2 5 10 3.74 0.84
2 5 13 1.91 0.41
2 5 14 22.72 0.92
2 5 15 1.19 0.38
2 5 16 7.94 0.61
2 5 18 17.39 0.79
2 6 2 7.56 0.66
2 6 3 14.54 0.54
2 6 4 7.82 0.4
2 6 7 6.11 0.59
2 7 6 2.15 0.48
2 7 7 2.68 0.48
3 0 0 431.45 9.64
3 0 2 198.6 4.41
3 0 4 21.51 0.61
3 0 6 591.67 15.21
3 0 8 10.95 0.4
3 0 10 1.21 0.25
3 0 12 281.68 8.63
3 0 14 4.07 0.17
3 0 16 11.7 0.38
3 0 18 11.37 0.43
3 0 20 38.1 1.75
3 0 22 38.27 1.15
3 1 0 114.79 2.58
3 1 1 460.05 10.31
3 1 2 475.43 10.61
3 1 3 44.7 1.03
3 1 4 12.23 0.33
3 1 5 5.35 0.19
3 1 6 4.72 0.19
3 1 7 30.7 0.74
3 1 8 39.05 0.96
3 1 9 1.51 0.11
3 1 10 88.88 2.03
3 1 11 13.97 0.39
3 1 12 11.66 0.31
3 1 13 36.17 0.84
3 1 14 0.66 0.09
3 1 15 3.14 0.16
3 1 16 63.4 1.49
3 1 17 1.22 0.14
3 1 18 2.89 0.22
3 1 19 8.24 0.41
3 1 21 4.4 0.35
3 1 23 23.54 0.92
3 1 24 5.37 0.51
3 2 0 2.28 0.13
3 2 1 7.95 0.24
3 2 2 284.57 6.6
3 2 3 104.38 2.38
3 2 4 92.93 2.14
3 2 5 65.26 1.53
3 2 6 47.01 1.14
3 2 7 4.28 0.22
3 2 8 107.2 2.96
3 2 9 2.55 0.19
3 2 10 11.17 0.31
3 2 11 9.7 0.27
3 2 12 21.76 0.53
3 2 13 2.86 0.16
3 2 14 8.64 0.29
3 2 15 1.21 0.13
3 2 16 2.3 0.23
3 2 17 6.96 0.64
3 2 18 23.06 0.7
3 2 19 16.02 1.47
3 2 20 7.64 0.39
3 2 21 6.09 0.6
3 2 22 1.58 0.4
3 2 23 1.44 0.37
3 3 0 73.91 1.7
3 3 1 2.44 0.14
3 3 2 21.98 0.57
3 3 3 101.72 2.31
3 3 4 112.36 2.53
3 3 5 0.33 0.09
3 3 6 20.93 0.61
3 3 7 2.49 0.16
3 3 8 117.24 2.96
3 3 9 38.54 0.91
3 3 11 17.18 0.49
3 3 12 34.1 0.82
3 3 13 12.45 0.59
3 3 14 51.03 2
3 3 15 5.97 0.64
3 3 16 8.91 1.33
3 3 17 7.33 0.39
3 3 18 2.04 0.45
3 3 21 4.74 0.54
3 3 22 6.67 0.57
3 4 0 6.69 0.23
3 4 2 2.25 0.19
3 4 3 18.23 0.46
3 4 4 40.29 1.22
3 4 5 0.4 0.07
3 4 6 0.33 0.07
3 4 7 57.86 1.46
3 4 8 21.23 0.55
3 4 9 9.44 0.3
3 4 10 11.59 0.35
3 4 12 2.21 0.2
3 4 13 14.08 0.7
3 4 14 2.98 0.26
3 4 16 2.35 0.47
3 4 17 17.85 0.89
3 4 18 10.91 0.72
3 4 19 1.15 0.38
3 5 0 19.57 0.5
3 5 1 9.48 0.33
3 5 2 3.02 0.17
3 5 5 1.84 0.32
3 5 6 17.41 0.57
3 5 7 4.17 0.27
3 5 8 1.85 0.17
3 5 12 2.17 0.44
3 5 14 1.4 0.41
3 5 15 2.12 0.43
3 5 16 4.37 0.55
3 5 18 16.21 0.75
3 6 5 3.67 0.59
3 6 7 16.98 0.87
3 7 2 4.15 0.62
3 7 3 5.6 0.65
3 7 8 1.33 0.42
4 0 0 46.52 1.08
4 0 4 39.07 0.98
4 0 6 13.59 0.45
4 0 8 1.21 0.16
4 0 10 4.9 0.31
4 0 12 2.86 0.15
4 0 16 50.7 1.17
4 1 0 2.52 0.15
4 1 1 160.74 3.62
4 1 2 191.21 4.29
4 1 3 214.83 4.84
4 1 4 3.17 0.15
4 1 5 92.47 2.26
4 1 6 41.43 0.98
4 1 7 8.43 0.27
4 1 8 29.14 0.76
4 1 9 21.02 0.54
4 1 11 129.73 2.92
4 1 12 11.78 0.34
4 1 13 6.15 0.22
4 1 14 2.46 0.13
4 1 15 9.79 0.29
4 1 16 3.66 0.2
4 1 17 8.86 0.38
4 1 19 1.47 0.18
4 1 20 18.06 0.61
4 1 21 15.09 0.77
4 1 22 5.43 0.55
4 2 0 120.47 2.7
4 2 1 78.09 1.77
4 2 2 306.9 6.94
4 2 3 54.87 1.27
4 2 4 15.19 0.41
4 2 5 0.65 0.11
4 2 6 6.92 0.27
4 2 7 158.46 3.9
4 2 8 0.87 0.09
4 2 9 15.04 0.39
4 2 10 43.22 1
4 2 11 1.34 0.13
4 2 12 105.52 2.39
4 2 13 28.25 0.73
4 2 14 11.03 0.34
4 2 15 29.75 0.8
4 2 16 2.48 0.17
4 2 17 5.47 0.25
4 2 18 5.97 0.69
4 2 19 3.42 0.3
4 2 20 3.32 0.53
4 2 21 2.94 0.49
4 3 0 6.54 0.27
4 3 1 37.78 1.02
4 3 2 0.88 0.09
4 3 3 1.76 0.11
4 3 4 49.15 1.14
4 3 5 4.01 0.19
4 3 6 109.49 2.62
4 3 7 0.23 0.07
4 3 8 55.62 1.3
4 3 9 6.3 0.2
4 3 10 9.66 0.28
4 3 11 0.35 0.1
4 3 13 13.16 0.41
4 3 16 24.92 2.26
4 3 17 3.75 0.55
4 3 18 34.9 0.94
4 3 19 2.75 0.47
4 3 21 4.47 0.51
4 4 0 67.9 1.7
4 4 1 0.49 0.09
4 4 2 0.44 0.08
4 4 3 3.03 0.15
4 4 4 1.95 0.11
4 4 5 20.79 0.53
4 4 6 13.67 0.4
4 4 7 42.05 1.13
4 4 8 22.5 0.57
4 4 9 1.15 0.13
4 4 10 1.77 0.16
4 4 11 0.51 0.12
4 4 13 0.49 0.14
4 4 14 24.12 1.03
4 4 15 5.61 0.66
4 4 17 20.39 0.93
4 5 1 1.89 0.12
4 5 2 0.92 0.12
4 5 3 3.3 0.21
4 5 4 26.02 0.8
4 5 5 1.96 0.15
4 5 6 10.22 0.5
4 5 8 1.79 0.26
4 5 10 16.97 0.53
4 5 11 7.41 0.6
4 5 12 2.48 0.46
4 5 16 8.8 0.64
4 5 17 1.18 0.35
4 6 1 3.87 0.61
4 6 5 2.74 0.5
4 6 8 2.37 0.46
4 6 9 1.92 0.45
4 7 1 5.56 0.66
4 7 6 7.17 0.63
5 0 0 66.08 1.69
5 0 2 698.95 15.43
5 0 4 12.41 0.41
5 0 6 6.43 0.34
5 0 8 149.16 3.71
5 0 10 73.19 1.7
5 0 12 18.82 0.66
5 0 14 16.88 0.47
5 0 16 16.23 0.46
5 0 18 1.68 0.55
5 1 0 0.4 0.08
5 1 1 112.14 2.54
5 1 2 61.07 1.43
5 1 3 1.96 0.13
5 1 4 40.76 1
5 1 5 1.45 0.11
5 1 6 85.46 1.99
5 1 7 5 0.19
5 1 8 1.68 0.11
5 1 9 2.12 0.1
5 1 10 0.87 0.08
5 1 11 30.44 0.71
5 1 12 57.49 1.31
5 1 13 16.83 0.48
5 1 14 0.28 0.08
5 1 15 19.42 0.49
5 1 18 6.1 0.3
5 1 19 0.8 0.16
5 1 20 1.32 0.35
5 1 21 25.27 0.91
5 2 0 25.43 0.61
5 2 1 26.34 0.63
5 2 2 3.63 0.15
5 2 3 24.47 0.63
5 2 4 63.23 1.45
5 2 5 15.17 0.39
5 2 6 49.15 1.14
5 2 7 4.06 0.17
5 2 8 14.48 0.36
5 2 9 10.44 0.36
5 2 10 42.27 0.96
5 2 11 11.07 0.33
5 2 12 22.62 0.56
5 2 14 6.75 0.25
5 2 16 12.5 0.4
5 2 17 26.5 1.19
5 2 18 2.53 0.25
5 2 19 3.51 0.54
5 2 20 17.91 0.82
5 2 21 2.96 0.46
5 3 0 126.4 2.99
5 3 1 28.4 0.82
5 3 2 5.56 0.19
5 3 3 4.8 0.16
5 3 4 3.84 0.14
5 3 5 42.25 0.96
5 3 6 91.86 2.06
5 3 7 5.56 0.2
5 3 8 3.4 0.15
5 3 9 0.34 0.07
5 3 10 40.57 1.09
5 3 11 23.14 0.68
5 3 12 0.48 0.14
5 3 13 4.9 0.26
5 3 14 31.72 1.37
5 3 16 38.21 1.27
5 3 19 4.88 0.54
5 4 0 9.86 0.29
5 4 1 5.29 0.19
5 4 3 1.44 0.12
5 4 4 26.49 0.69
5 4 5 20.02 0.58
5 4 6 9.53 0.3
5 4 7 21.22 0.6
5 4 9 8.62 0.29
5 4 10 16.06 0.69
5 4 11 2.59 0.19
5 4 12 0.59 0.14
5 4 14 3.45 0.54
5 4 15 12.72 0.81
5 4 16 1.57 0.43
5 4 17 5.29 0.59
5 4 18 8.54 0.61
5 5 0 6.41 0.23
5 5 2 4.81 0.23
5 5 3 1.17 0.14
5 5 4 3.84 0.2
5 5 6 6.44 0.29
5 5 7 1.33 0.2
5 5 8 8.08 0.37
5 5 14 3.36 0.53
5 5 16 3.12 0.46
5 6 0 7.69 0.36
5 6 1 4.78 0.31
5 6 2 4.82 0.68
5 6 3 2.28 0.23
5 6 4 1.72 0.25
5 6 5 8.36 0.67
5 6 6 2.92 0.69
5 6 7 12.33 1.12
5 6 8 1.23 0.2
5 6 9 2.78 0.25
5 7 0 2.01 0.5
5 7 3 1.87 0.46
6 0 0 242.74 5.75
6 0 2 30.62 0.83
6 0 4 1.45 0.14
6 0 6 47.94 1.23
6 0 8 16.48 0.45
6 0 10 35.24 0.95
6 0 12 98.26 2.27
6 0 14 4.8 0.26
6 0 16 1.94 0.22
6 0 18 12.32 0.95
6 1 0 0.65 0.11
6 1 1 191.9 4.44
6 1 2 62.81 1.45
6 1 3 22.76 0.66
6 1 4 57.15 1.32
6 1 5 61.76 1.38
6 1 6 22.72 0.55
6 1 7 12.87 0.36
6 1 8 44.24 1.04
6 1 9 36 0.83
6 1 10 0.38 0.07
6 1 11 34.4 0.81
6 1 12 0.67 0.09
6 1 13 15.44 0.41
6 1 15 2.25 0.13
6 1 16 28.31 0.79
6 1 18 3.5 0.55
6 2 1 9.47 0.31
6 2 3 15.16 0.4
6 2 4 49.31 1.23
6 2 5 99.16 2.26
6 2 6 1.91 0.1
6 2 7 1.07 0.08
6 2 8 5.49 0.2
6 2 9 36.75 0.86
6 2 10 1.87 0.14
6 2 11 5.87 0.31
6 2 12 3.53 0.41
6 2 13 7.14 0.26
6 2 14 36.59 0.89
6 2 15 16.9 0.48
6 2 16 7.99 0.3
6 2 17 1.26 0.21
6 2 18 0.91 0.3
6 2 20 2.86 0.44
6 3 0 0.29 0.07
6 3 2 0.88 0.08
6 3 3 0.7 0.07
6 3 4 0.42 0.06
6 3 7 5.65 0.22
6 3 8 7.39 0.25
6 3 9 3.19 0.16
6 3 10 34.8 0.84
6 3 11 2.13 0.18
6 3 12 1.28 0.18
6 3 15 13.76 0.45
6 3 16 6.52 0.36
6 3 18 9.36 0.4
6 4 0 18.45 0.47
6 4 2 28.05 0.68
6 4 4 6.84 0.33
6 4 5 15.18 0.48
6 4 6 0.95 0.11
6 4 7 1.98 0.14
6 4 9 8.38 0.45
6 4 10 20.32 1.23
6 4 11 2.36 0.23
6 4 14 3.6 0.44
6 4 15 5.95 0.63
6 4 16 4.31 0.62
6 5 0 30.39 0.77
6 5 1 4.39 0.27
6 5 3 0.76 0.13
6 5 4 16.67 0.47
6 5 6 49.17 1.24
6 5 7 3.07 0.65
6 5 8 0.86 0.24
6 5 9 1.61 0.37
6 5 13 1.58 0.21
6 5 14 9.39 0.65
6 6 0 13.55 0.51
6 6 1 1.9 0.37
6 6 2 5.28 0.44
6 6 3 5.83 0.54
6 6 5 1.17 0.27
6 6 7 2.09 0.24
6 6 8 0.82 0.2
6 6 10 8.17 0.6
6 7 0 1.71 0.46
7 0 0 104.78 3.23
7 0 2 37.22 0.85
7 0 4 285.63 6.37
7 0 6 1.17 0.12
7 0 8 46.61 1.09
7 0 10 64.03 1.56
7 0 12 18.09 0.6
7 0 14 13.68 0.45
7 0 16 8.64 0.58
7 0 18 18.28 0.85
7 1 0 85.67 2
7 1 1 1.29 0.08
7 1 3 7.82 0.23
7 1 4 36.45 0.86
7 1 5 42.97 0.99
7 1 6 1 0.09
7 1 7 1.3 0.09
7 1 8 50.42 1.18
7 1 10 3.72 0.17
7 1 11 17.63 0.51
7 1 12 16.1 0.51
7 1 13 16.7 0.54
7 1 14 25.66 0.81
7 1 15 24.75 0.77
7 1 17 4.04 0.41
7 2 0 36.98 0.9
7 2 1 11.43 0.32
7 2 2 6.82 0.2
7 2 3 4.8 0.2
7 2 4 0.52 0.06
7 2 5 0.81 0.08
7 2 6 6.62 0.21
7 2 7 3.46 0.2
7 2 8 7.89 0.27
7 2 9 21.59 0.56
7 2 10 0.99 0.11
7 2 11 10.8 0.35
7 2 13 4.33 0.21
7 2 14 7.33 0.32
7 2 15 12.29 0.42
7 2 16 1.19 0.19
7 2 18 4.18 0.48
7 3 0 0.69 0.08
7 3 1 29.46 0.69
7 3 2 24.53 0.59
7 3 3 17.93 0.46
7 3 4 15.09 0.41
7 3 5 0.97 0.13
7 3 6 7.48 0.32
7 3 7 3.58 0.2
7 3 8 13.51 0.38
7 3 9 10.96 0.33
7 3 10 1.71 0.14
7 3 12 4.4 0.3
7 3 13 1.78 0.21
7 3 16 1.89 0.23
7 4 0 10.72 0.33
7 4 1 1.28 0.13
7 4 2 1.82 0.14
7 4 3 1.08 0.12
7 4 4 2.44 0.15
7 4 5 21.04 0.56
7 4 6 31.42 0.8
7 4 9 11.54 0.44
7 4 12 5.52 0.33
7 4 14 7.63 0.59
7 4 15 4.02 0.54
7 5 0 14.67 0.63
7 5 2 13.26 0.43
7 5 3 1.31 0.16
7 5 4 2.28 0.17
7 5 6 0.97 0.16
7 5 8 4.74 0.45
7 5 10 23.84 0.72
7 5 11 1.44 0.22
7 5 12 1.27 0.39
7 6 0 0.64 0.14
7 6 2 2.68 0.48
7 6 4 4.75 0.33
7 6 5 4.92 0.53
7 6 6 3.52 0.74
7 6 7 3.6 0.38
7 6 8 3.36 0.5
8 0 0 28.35 0.7
8 0 2 16.27 0.46
8 0 4 69.17 1.57
8 0 6 5.1 0.26
8 0 8 32.12 1.7
8 0 10 1.04 0.16
8 0 12 27.1 0.74
8 0 14 90.24 2.5
8 1 1 0.57 0.07
8 1 2 2.44 0.1
8 1 3 91.68 2.06
8 1 4 36.47 0.93
8 1 6 4.41 0.18
8 1 8 21.61 0.69
8 1 9 10.7 0.32
8 1 10 20.36 0.58
8 1 11 6.68 0.26
8 1 12 5.15 0.25
8 1 13 12.17 0.42
8 1 15 1.61 0.2
8 2 0 46.12 1.12
8 2 1 22.09 0.52
8 2 3 5.44 0.18
8 2 4 15.22 0.4
8 2 5 8.36 0.25
8 2 7 38.95 0.91
8 2 8 5.18 0.25
8 2 10 16.88 0.47
8 2 13 4.33 0.21
8 2 15 3.05 0.27
8 2 16 2.56 0.31
8 3 0 18.99 0.83
8 3 2 10.1 0.31
8 3 3 0.61 0.09
8 3 4 12.23 0.36
8 3 5 19.3 0.5
8 3 6 15.74 0.45
8 3 8 4.24 0.2
8 3 10 2.91 0.18
8 3 11 6.71 0.37
8 3 12 3.48 0.29
8 3 13 7.43 0.67
8 3 14 6.22 0.29
8 3 15 2.08 0.4
8 4 1 2.21 0.16
8 4 2 15.78 0.54
8 4 3 2.2 0.16
8 4 4 2.35 0.16
8 4 5 3.07 0.25
8 4 6 4.83 0.33
8 4 7 4.45 0.32
8 4 9 14.07 0.74
8 4 10 6.2 0.35
8 4 12 6.43 0.3
8 5 0 0.89 0.14
8 5 2 7.34 0.34
8 5 3 4.23 0.27
8 5 4 0.95 0.15
8 5 6 7.97 0.33
8 5 7 2.04 0.38
8 5 8 23.92 0.73
8 5 9 2.78 0.35
8 6 2 5.75 0.35
8 6 3 1.37 0.22
8 6 4 3.08 0.48
9 0 0 19.91 0.68
9 0 2 51.39 1.21
9 0 4 5.13 0.44
9 0 6 31.42 0.83
9 0 10 14.71 0.53
9 0 12 8.95 0.47
9 1 0 35.1 0.81
9 1 2 5.56 0.21
9 1 3 29.37 0.78
9 1 4 2.8 0.29
9 1 5 6.41 0.3
9 1 6 8.12 0.27
9 1 7 14.44 0.41
9 1 8 1.95 0.14
9 1 9 2.37 0.16
9 1 10 9.92 0.38
9 1 12 1.22 0.29
9 1 13 30.64 0.88
9 1 14 9.86 0.37
9 1 15 1.41 0.22
9 2 0 1.86 0.1
9 2 1 3.88 0.19
9 2 2 39.16 0.9
9 2 3 5.8 0.22
9 2 4 39.89 0.98
9 2 5 3.46 0.17
9 2 6 3.39 0.24
9 2 7 1.96 0.13
9 2 8 2.59 0.24
9 2 9 17.4 0.52
9 2 10 2.53 0.2
9 2 11 9.8 0.42
9 2 12 7.03 0.45
9 2 14 7.64 0.49
9 3 0 2.47 0.14
9 3 1 7.15 0.26
9 3 2 2.5 0.24
9 3 3 15.07 0.48
9 3 4 7.41 0.26
9 3 5 1.71 0.17
9 3 6 18.14 0.48
9 3 7 0.33 0.11
9 3 8 19.03 0.53
9 3 10 3.27 0.25
9 3 11 4.39 0.31
9 3 12 5.07 0.32
9 4 1 2.5 0.22
9 4 2 14.32 0.56
9 4 6 5.34 0.46
9 4 7 19.32 0.54
9 4 8 13.37 0.55
9 4 9 5.81 0.29
9 4 10 1.17 0.17
9 5 1 0.72 0.17
9 5 2 4.8 0.24
9 5 3 1.5 0.18
9 5 4 1.01 0.19
9 5 5 1.01 0.16
10 0 0 8.38 1.36
10 0 2 3.7 0.23
10 0 4 15.15 0.53
10 0 6 19.42 1.13
10 0 8 1.54 0.22
10 0 10 13.78 0.78
10 0 12 13.13 1.08
10 1 0 10.76 0.33
10 1 1 36.66 0.96
10 1 3 9.81 0.31
10 1 4 10.48 0.35
10 1 5 4.37 0.2
10 1 6 9.06 0.33
10 1 8 1.45 0.16
10 1 9 1.4 0.15
10 1 10 5.55 0.26
10 1 11 4.64 0.24
10 1 12 0.89 0.14
10 1 13 1.73 0.4
10 2 0 10.18 0.31
10 2 1 2.01 0.13
10 2 2 32.3 0.84
10 2 3 8.55 0.27
10 2 4 1.84 0.14
10 2 5 11.22 0.57
10 2 6 8.36 0.34
10 2 7 4.13 0.24
10 2 8 3.71 0.22
10 2 9 0.48 0.15
10 2 10 6.81 0.55
10 2 11 1.4 0.19
10 2 12 17.46 0.84
10 3 0 1.02 0.12
10 3 1 1.28 0.13
10 3 2 20.78 0.55
10 3 3 4.7 0.23
10 3 4 3.56 0.18
10 3 6 14.85 0.6
10 3 7 11.98 0.39
10 3 8 27.96 0.72
10 3 9 0.71 0.14
10 3 10 1.47 0.22
10 4 0 2.13 0.2
10 4 1 5.67 0.37
10 4 3 1.29 0.15
10 4 4 3.73 0.24
10 4 5 1.11 0.16
10 4 6 0.89 0.14
10 4 7 8.08 0.32
10 5 0 2.21 0.21
10 5 1 2.91 0.22
10 5 2 0.81 0.19
11 0 0 36.85 2.31
11 0 2 31.43 1.24
11 0 6 2.27 0.24
11 0 10 0.84 0.23
11 1 1 4.26 0.47
11 1 2 9.33 0.37
11 1 3 12.19 0.5
11 1 4 1.9 0.22
11 1 5 14.5 0.44
11 1 6 3.94 0.25
11 1 7 5.52 0.26
11 1 9 1.8 0.19
11 1 10 6.04 0.26
11 2 1 13.85 0.61
11 2 3 0.88 0.16
11 2 4 7.87 0.34
11 2 6 21.44 0.81
11 2 7 18.18 0.6
11 2 8 2.71 0.22
11 3 0 21.97 1.82
11 3 1 2.65 0.18
11 3 2 1.31 0.17
11 3 3 1.46 0.15
11 3 4 3.34 0.31
11 3 6 2.78 0.47
11 4 0 1.46 0.24
11 4 1 3.56 0.28
11 4 2 3.44 0.23
11 4 4 7.22 0.4
12 0 2 24.81 1.08
12 0 4 9.04 0.76
12 0 6 21.91 0.87
12 1 0 10.03 1.05
12 1 1 3.61 1.07
12 1 2 10.28 0.47
12 1 3 3.9 0.35
12 1 4 0.54 0.17
12 1 5 3.73 0.31
12 1 6 13.4 0.5
12 1 7 2.22 0.53
12 2 0 0.7 0.18
12 2 3 2.46 0.4
12 2 4 3.94 0.27
12 2 5 2.94 0.25
12 3 0 4.72 0.91
13 1 0 1.52 0.37
13 1 1 2.79 0.46
13 1 2 1.63 0.42
