#------------------------------------------------------------------------------
#$Date: 2020-04-10 08:14:41 +0300 (Fri, 10 Apr 2020) $
#$Revision: 250612 $
#$URL: file:///home/coder/svn-repositories/cod/cif/2/02/20/2022033.cif $
#------------------------------------------------------------------------------
#
# This file is available in the Crystallography Open Database (COD),
# http://www.crystallography.net/. The original data for this entry
# were provided by IUCr Journals, http://journals.iucr.org/.
#
# The file may be used within the scientific community so long as
# proper attribution is given to the journal article from which the
# data were obtained.
#
data_2022033
loop_
_publ_author_name
'Jha, Kunal Kumar'
'Gruza, Barbara'
'Kumar, Prashant'
'Chodkiewicz, Michal Leszek'
'Dominiak, Paulina Maria'
_publ_section_title
;
 TAAM: a reliable and user friendly tool for hydrogen-atom location using
 routine X-ray diffraction data
;
_journal_issue                   3
_journal_name_full
'Acta Crystallographica Section B Structural Science, Crystal Engineering and Materials'
_journal_paper_doi               10.1107/S2052520620002917
_journal_volume                  76
_journal_year                    2020
_chemical_formula_moiety         'C H O2, H2 O'
_chemical_formula_sum            'C H3 O3'
_chemical_formula_weight         63.03
_space_group_crystal_system      monoclinic
_space_group_IT_number           14
_space_group_name_Hall           '-P 2ybc'
_space_group_name_H-M_alt        'P 1 21/c 1'
_symmetry_Int_Tables_number      14
_audit_creation_date             2019-09-27
_audit_creation_method
;
Olex2 1.2
(compiled 2018.05.29 svn.r3508 for OlexSys, GUI svn.r5506)
;
_cell_angle_alpha                90.00
_cell_angle_beta                 103.951(2)
_cell_angle_gamma                90.00
_cell_formula_units_Z            4
_cell_length_a                   6.0939(3)
_cell_length_b                   3.4965(2)
_cell_length_c                   11.8441(5)
_cell_measurement_temperature    100(1)
_cell_volume                     244.92(2)
_computing_molecular_graphics    'Olex2 (Dolomanov et al., 2009)'
_computing_publication_material  'Olex2 (Dolomanov et al., 2009)'
_computing_structure_refinement  'olex2.refine (Bourhis et al., 2015)'
_diffrn_ambient_temperature      100(1)
_diffrn_measured_fraction_theta_full 0.9611
_diffrn_measured_fraction_theta_max 0.9611
_diffrn_measurement_device_type  'APEX II CCD detector'
_diffrn_radiation_type           'Mo K\a'
_diffrn_radiation_wavelength     0.71073
_diffrn_reflns_av_R_equivalents  0.0000
_diffrn_reflns_av_unetI/netI     0.0341
_diffrn_reflns_limit_h_max       13
_diffrn_reflns_limit_h_min       -14
_diffrn_reflns_limit_k_max       8
_diffrn_reflns_limit_k_min       0
_diffrn_reflns_limit_l_max       27
_diffrn_reflns_limit_l_min       0
_diffrn_reflns_number            2765
_diffrn_reflns_theta_full        26.4726
_diffrn_reflns_theta_max         26.47
_diffrn_reflns_theta_min         3.44
_exptl_absorpt_coefficient_mu    0.181
_exptl_crystal_density_diffrn    1.7093
_exptl_crystal_F_000             132.1419
_refine_diff_density_max         0.1400
_refine_diff_density_min         -0.1635
_refine_diff_density_rms         0.0514
_refine_ls_d_res_high            0.7972
_refine_ls_d_res_low             5.9141
_refine_ls_goodness_of_fit_ref   1.1938
_refine_ls_hydrogen_treatment    refall
_refine_ls_matrix_type           full
_refine_ls_number_constraints    0
_refine_ls_number_parameters     49
_refine_ls_number_reflns         494
_refine_ls_number_restraints     0
_refine_ls_restrained_S_all      1.1938
_refine_ls_R_factor_all          0.0172
_refine_ls_R_factor_gt           0.0172
_refine_ls_shift/su_max          0.0001
_refine_ls_shift/su_mean         0.0000
_refine_ls_structure_factor_coef Fsqd
_refine_ls_weighting_details
'w=1/[\s^2^(Fo^2^)+(0.0121P)^2^+0.0136P] where P=(Fo^2^+2Fc^2^)/3'
_refine_ls_weighting_scheme      calc
_refine_ls_wR_factor_gt          0.0446
_refine_ls_wR_factor_ref         0.0446
_reflns_Friedel_coverage         0.0
_reflns_limit_h_max              7
_reflns_limit_h_min              -7
_reflns_limit_k_max              4
_reflns_limit_k_min              0
_reflns_limit_l_max              14
_reflns_limit_l_min              0
_reflns_number_gt                494
_reflns_number_total             494
_reflns_threshold_expression     I>=2u(I)
_iucr_refine_instructions_details
;
TITL oxa05
CELL 0.71073 6.0939 3.4965 11.8441 90 103.951 90
ZERR 4 0 0 0 0 0 0
LATT 1
SYMM -X,0.5+Y,0.5-Z
SFAC C H O
UNIT 4 12 12

FREE O3 H1
ACTA 
BOND $H
OMIT -10 53
WGHT 0.012094 0.013582
FVAR 1.017264
REM <olex2.extras>
REM <HklSrc "%.\\1058fa144f16618aec499c3fdbb673e2.hkl">
REM </olex2.extras>

O1    3     0.43458  0.44424  0.34991  11.00000  0.01361  0.01945  0.00913 =
 -0.00085  0.00293  0.00403 
O2    3     0.24271  0.74208  0.46365  11.00000  0.01172  0.01993  0.00850 =
 -0.00091  0.00095  0.00520 
C1    1     0.40313  0.55875  0.44793  11.00000  0.00966  0.01324  0.00827 =
 0.00036  0.00066  0.00167 
O3    3     0.12991  0.63077  0.17831  11.00000  0.01116  0.01940  0.00929 =
 0.00130  0.00033 -0.00069 
H3a   2     0.01181  0.45582  0.15017  11.00000  0.02544 
H3b   2     0.18780  0.69247  0.11326  11.00000  0.02228 
H1    2     0.30079  0.52191  0.28065  11.00000  0.03508 
HKLF 4

END
Q1 1 0.25 0.833333 0.075 11 0.05 0.14
Q2 1 0 0.166667 0.2 11 0.05 0.13
Q3 1 0.25 1.166667 0.425 11 0.05 0.13
Q4 1 0.45 0.833333 0.3 11 0.05 0.11
Q5 1 0.25 0.333333 0.2 11 0.05 0.11
Q6 1 0.2 0.666667 0.275 11 0.05 0.11
Q7 1 0.45 0.25 0.45 11 0.05 0.1
Q8 1 0.05 0.75 0.075 11 0.05 0.1
Q9 1 0.3 0.833333 0.35 11 0.05 0.08
Q10 1 0.15 1 0.125 11 0.05 0.07
Q11 1 0.3 0.5 0.475 11 0.05 0.07
Q12 1 0 0.5 0.2 11 0.05 0.05

  REM The information below was added by Olex2.
  REM
  REM R1 = 0.0172 for 494 Fo > 4sig(Fo) and 0.0172 for all 494 data
  REM 49 parameters refined using 0 restraints
  REM Highest difference peak 0.1400, deepest hole -0.1635
  REM Mean Shift 0.0000, Max Shift 0.0001.

  REM +++ Tabular Listing of Refinement Information +++
  REM R1_all = 0.0172
  REM R1_gt = 0.0172
  REM wR_ref = 0.0446
  REM GOOF = 1.1938
  REM Shift_max = 0.0001
  REM Shift_mean = 0.0000
  REM Reflections_all = 494
  REM Reflections_gt = 494
  REM Parameters = 49
  REM Hole = -0.1635
  REM Peak = 0.1400
  REM Flack = n/a

  
;
_cod_data_source_file            59_TAAM_iso_0.8.cif
_cod_data_source_block           59_TAAM_iso_0.8
_cod_database_code               2022033
_olex2_refinement_description
;
;
_iucr_refine_fcf_details
;
data_oxa05
_computing_structure_refinement   'olex2.refine (Bourhis et al., 2015)'
_shelx_refln_list_code            4
loop_
  _space_group_symop_id
  _space_group_symop_operation_xyz
  1  x,y,z
  2  -x,y+1/2,-z+1/2
  3  -x,-y,-z
  4  x,-y-1/2,z-1/2

_space_group_crystal_system       monoclinic
_space_group_IT_number            14
_space_group_name_H-M_alt         'P 1 21/c 1'
_space_group_name_Hall            '-P 2ybc'
_symmetry_space_group_name_H-M    'P 1 21/c 1'
_symmetry_space_group_name_Hall   '-P 2ybc'
_symmetry_Int_Tables_number       14
_cell_length_a                    6.0939
_cell_length_b                    3.4965
_cell_length_c                    11.8441
_cell_angle_alpha                 90
_cell_angle_beta                  103.951
_cell_angle_gamma                 90
_cell_volume                      244.921818
loop_
  _refln_index_h
  _refln_index_k
  _refln_index_l
  _refln_F_squared_calc
  _refln_F_squared_meas
  _refln_F_squared_sigma
  _refln_F_squared_weight
  _refln_observed_status
-7 0 2 13.454 12.804 0.367 15.991 o
-7 0 4 39.006 37.204 0.937 3.367 o
-7 0 6 246.757 241.973 6.494 0.100 o
-7 0 8 0.331 0.251 0.048 838.992 o
-7 1 1 17.661 17.104 0.474 10.748 o
-7 1 2 82.849 81.589 2.271 0.748 o
-7 1 3 3.307 3.527 0.106 92.410 o
-7 1 4 0.317 0.367 0.029 1010.180 o
-7 1 5 2.073 2.107 0.077 155.809 o
-7 1 6 17.768 18.061 0.425 11.574 o
-7 1 7 50.803 49.941 1.169 2.242 o
-6 0 2 174.297 178.581 5.035 0.169 o
-6 0 4 2.939 2.677 0.135 93.450 o
-6 0 6 159.288 161.003 5.354 0.157 o
-6 0 8 1.092 1.092 0.116 191.211 o
-6 0 10 282.250 289.430 8.117 0.067 o
-6 1 1 1.205 1.276 0.068 253.290 o
-6 1 2 6.434 6.407 0.174 44.035 o
-6 1 3 1.116 1.140 0.058 289.258 o
-6 1 4 32.241 30.971 0.725 4.922 o
-6 1 5 92.834 93.832 2.329 0.684 o
-6 1 6 147.690 149.416 4.126 0.244 o
-6 1 7 2.534 2.735 0.097 119.187 o
-6 1 8 2.826 2.870 0.097 110.816 o
-6 1 9 42.112 43.196 1.005 2.940 o
-6 1 10 48.416 48.907 1.189 2.250 o
-6 1 11 3.811 3.991 0.106 82.359 o
-6 2 1 67.058 68.137 1.652 1.262 o
-6 2 2 37.221 38.383 0.899 3.567 o
-6 2 3 57.258 58.309 1.372 1.727 o
-6 2 4 5.309 5.238 0.135 57.775 o
-6 2 5 4.197 4.194 0.116 74.520 o
-6 2 6 1.199 1.053 0.058 283.701 o
-6 2 7 0.209 0.174 0.029 1544.530 o
-6 2 8 12.555 12.717 0.300 19.142 o
-5 0 2 88.178 89.088 2.416 0.665 o
-5 0 4 17.545 17.539 0.483 10.529 o
-5 0 6 115.193 115.710 3.585 0.332 o
-5 0 8 275.464 291.112 8.523 0.062 o
-5 0 10 98.091 105.873 3.063 0.445 o
-5 0 12 42.052 44.365 1.082 2.692 o
-5 1 1 54.795 54.202 1.353 1.809 o
-5 1 2 245.532 241.683 6.117 0.110 o
-5 1 3 48.299 49.371 1.169 2.292 o
-5 1 4 88.750 91.561 2.271 0.720 o
-5 1 5 30.200 29.686 0.705 5.245 o
-5 1 6 3.818 3.972 0.126 77.147 o
-5 1 7 0.929 0.957 0.048 357.744 o
-5 1 8 16.259 16.128 0.396 13.090 o
-5 1 9 257.410 261.116 6.619 0.095 o
-5 1 10 25.767 25.338 0.589 6.874 o
-5 1 11 0.138 0.126 0.029 2041.060 o
-5 1 12 24.913 23.869 0.551 7.502 o
-5 2 1 9.243 8.823 0.213 30.069 o
-5 2 2 0.543 0.541 0.039 611.177 o
-5 2 3 4.489 4.136 0.106 74.068 o
-5 2 4 28.551 27.009 0.647 5.947 o
-5 2 5 169.503 169.188 4.291 0.218 o
-5 2 6 77.101 75.636 1.807 1.054 o
-5 2 7 20.961 20.148 0.493 9.277 o
-5 2 8 1.648 1.836 0.068 192.674 o
-5 2 9 0.165 0.126 0.029 1874.470 o
-5 2 11 39.901 38.934 0.889 3.494 o
-5 3 1 18.522 18.506 0.435 11.087 o
-5 3 3 5.347 5.779 0.145 54.410 o
-5 3 4 10.741 10.823 0.261 23.525 o
-5 3 5 3.649 3.469 0.097 90.733 o
-5 3 6 4.314 4.436 0.126 70.027 o
-5 3 7 14.618 14.669 0.348 15.496 o
-4 0 4 115.804 124.794 3.846 0.295 o
-4 0 6 44.701 46.645 2.194 0.950 o
-4 0 8 562.575 474.650 118.242 0.000 o
-4 0 10 1.387 1.768 0.135 138.805 o
-4 0 12 247.635 250.110 7.895 0.073 o
-4 0 14 1.548 1.788 0.087 181.012 o
-4 1 1 89.901 89.078 2.136 0.783 o
-4 1 2 56.157 54.599 1.295 1.886 o
-4 1 3 1.764 1.508 0.068 195.795 o
-4 1 4 32.691 31.996 0.763 4.620 o
-4 1 6 176.854 174.455 4.474 0.202 o
-4 1 7 84.819 87.058 2.203 0.768 o
-4 1 8 173.893 173.981 4.445 0.205 o
-4 1 9 44.995 46.684 1.160 2.400 o
-4 1 11 1.681 1.884 0.077 180.319 o
-4 1 12 79.239 79.868 1.933 0.948 o
-4 1 13 15.979 15.017 0.367 14.192 o
-4 2 1 52.708 51.603 1.256 2.023 o
-4 2 2 12.390 12.215 0.300 19.469 o
-4 2 3 75.701 74.515 1.807 1.063 o
-4 2 4 59.090 58.155 1.450 1.598 o
-4 2 5 5.649 5.653 0.164 50.194 o
-4 2 6 5.307 5.556 0.155 53.675 o
-4 2 7 6.261 6.571 0.184 43.156 o
-4 2 8 78.026 80.912 1.962 0.933 o
-4 2 9 13.455 13.722 0.329 17.070 o
-4 2 10 30.067 29.899 0.705 5.247 o
-4 2 11 7.403 7.325 0.184 38.353 o
-4 2 12 0.649 0.715 0.039 509.577 o
-4 3 1 4.787 4.706 0.126 64.973 o
-4 3 2 12.708 12.910 0.300 18.950 o
-4 3 3 20.171 21.347 0.493 9.316 o
-4 3 4 229.057 229.101 5.701 0.126 o
-4 3 5 26.421 26.777 0.638 6.252 o
-4 3 6 7.716 7.769 0.193 35.999 o
-4 3 7 4.642 5.151 0.135 62.513 o
-4 3 8 0.198 0.203 0.029 1530.200 o
-4 3 9 34.323 34.131 0.850 4.000 o
-3 0 2 14.961 13.722 0.387 14.396 o
-3 0 4 86.509 86.285 3.440 0.386 o
-3 0 6 12.646 14.118 0.396 15.087 o
-3 0 8 22.524 22.941 0.812 5.222 o
-3 0 10 3.702 4.097 0.213 54.731 o
-3 0 12 146.981 151.088 4.938 0.184 o
-3 0 14 18.623 16.998 0.570 8.798 o
-3 1 1 324.365 306.680 10.688 0.041 o
-3 1 2 32.294 32.566 0.783 4.512 o
-3 1 3 154.912 154.644 5.015 0.177 o
-3 1 4 225.404 221.680 5.653 0.128 o
-3 1 5 204.258 211.398 5.537 0.137 o
-3 1 6 0.275 0.329 0.039 992.755 o
-3 1 7 335.634 351.682 9.403 0.049 o
-3 1 8 9.064 8.398 0.232 29.362 o
-3 1 9 62.204 62.136 1.527 1.454 o
-3 1 10 3.275 3.720 0.145 78.602 o
-3 1 11 161.404 162.375 4.358 0.217 o
-3 1 12 55.181 52.531 1.227 2.034 o
-3 1 13 0.633 0.763 0.039 506.124 o
-3 1 14 0.400 0.280 0.029 945.732 o
-3 2 1 82.698 81.086 1.962 0.914 o
-3 2 2 169.420 168.637 4.349 0.214 o
-3 2 3 287.251 284.405 7.132 0.082 o
-3 2 4 26.848 26.246 0.638 6.236 o
-3 2 5 2.614 2.493 0.087 125.120 o
-3 2 6 134.755 133.742 3.402 0.339 o
-3 2 7 164.004 160.500 4.088 0.239 o
-3 2 8 278.626 269.910 7.170 0.082 o
-3 2 9 49.213 49.506 1.160 2.296 o
-3 2 10 10.466 10.717 0.261 23.902 o
-3 2 11 21.358 22.303 0.531 8.428 o
-3 2 12 2.255 1.971 0.068 157.256 o
-3 3 1 3.635 3.604 0.097 89.953 o
-3 3 2 237.517 229.817 5.682 0.125 o
-3 3 3 3.501 6.552 0.222 47.833 o
-3 3 4 42.331 42.539 1.053 2.793 o
-3 3 5 20.121 20.486 0.512 9.111 o
-3 3 6 0.085 0.222 0.029 2075.040 o
-3 3 7 3.864 3.972 0.126 76.659 o
-3 3 8 16.517 17.549 0.406 12.499 o
-3 3 9 4.684 5.383 0.184 52.305 o
-3 3 10 18.781 19.482 0.464 10.338 o
-3 4 1 19.033 19.192 0.502 9.630 o
-3 4 2 9.817 10.089 0.242 26.249 o
-3 4 3 55.541 55.265 1.285 1.906 o
-2 0 2 637.255 599.628 40.925 0.003 o
-2 0 6 171.759 173.633 5.354 0.154 o
-2 0 8 459.035 456.831 12.611 0.028 o
-2 0 10 190.998 189.220 6.948 0.097 o
-2 0 12 15.845 16.824 0.435 12.172 o
-2 0 14 57.896 54.628 1.305 1.847 o
-2 1 1 177.868 184.331 4.938 0.172 o
-2 1 2 545.507 501.022 26.178 0.007 o
-2 1 3 21.125 19.482 0.502 9.161 o
-2 1 4 355.018 348.329 22.922 0.010 o
-2 1 5 20.356 20.892 0.541 8.590 o
-2 1 6 5.921 5.556 0.155 50.570 o
-2 1 7 34.339 32.402 0.879 3.895 o
-2 1 8 284.833 295.016 8.079 0.067 o
-2 1 9 22.708 23.192 0.560 7.759 o
-2 1 10 32.288 32.865 0.773 4.560 o
-2 1 11 83.266 85.010 2.116 0.819 o
-2 1 12 8.826 9.277 0.232 29.021 o
-2 1 13 32.944 31.281 0.783 4.511 o
-2 1 14 18.423 17.636 0.406 11.838 o
-2 2 1 147.379 145.812 3.730 0.285 o
-2 2 2 462.117 447.148 19.829 0.013 o
-2 2 3 9.178 9.045 0.232 28.630 o
-2 2 4 22.265 21.907 0.541 8.178 o
-2 2 5 2.958 3.179 0.097 104.916 o
-2 2 6 67.193 68.234 1.710 1.206 o
-2 2 7 32.997 32.208 0.792 4.426 o
-2 2 8 29.084 27.396 0.676 5.645 o
-2 2 9 16.241 15.442 0.377 13.728 o
-2 2 10 87.563 85.010 2.097 0.815 o
-2 2 11 14.259 13.539 0.358 15.680 o
-2 2 12 109.239 105.486 2.599 0.548 o
-2 2 13 29.104 29.638 0.676 5.548 o
-2 3 1 134.235 135.955 3.479 0.328 o
-2 3 2 63.660 64.359 1.575 1.379 o
-2 3 3 1.595 1.450 0.058 220.121 o
-2 3 4 8.390 8.755 0.222 30.985 o
-2 3 5 5.848 5.962 0.203 43.115 o
-2 3 6 347.329 341.256 8.784 0.055 o
-2 3 7 76.551 77.520 1.884 0.997 o
-2 3 8 25.206 24.062 0.580 7.127 o
-2 3 9 7.602 7.692 0.184 37.295 o
-2 3 10 20.091 21.405 0.522 8.879 o
-2 4 1 15.070 15.259 0.377 14.278 o
-2 4 2 55.381 55.265 1.546 1.515 o
-2 4 3 30.087 31.290 0.725 5.060 o
-2 4 4 0.419 0.483 0.029 794.292 o
-2 4 5 31.721 32.392 0.870 4.062 o
-1 0 4 876.097 910.028 37.156 0.004 o
-1 0 6 207.257 205.465 7.885 0.076 o
-1 0 8 503.993 538.535 40.857 0.003 o
-1 0 10 3.187 3.276 0.155 78.731 o
-1 0 12 112.832 117.488 3.373 0.367 o
-1 0 14 48.658 46.394 1.295 2.043 o
-1 1 2 141.929 152.586 3.991 0.259 o
-1 1 3 334.326 338.231 9.557 0.048 o
-1 1 4 236.920 242.379 6.571 0.099 o
-1 1 5 1.365 1.034 0.058 263.675 o
-1 1 6 0.526 0.502 0.039 634.987 o
-1 1 7 419.354 415.084 21.637 0.011 o
-1 1 8 93.517 93.301 2.358 0.671 o
-1 1 9 169.433 172.155 4.522 0.201 o
-1 1 11 74.021 74.138 1.952 0.968 o
-1 1 12 86.519 87.049 2.657 0.583 o
-1 1 13 5.577 5.441 0.135 55.574 o
-1 1 14 46.792 44.317 1.063 2.637 o
-1 2 1 139.523 138.207 3.836 0.280 o
-1 2 2 8.304 7.972 0.193 34.338 o
-1 2 3 170.508 162.453 4.233 0.224 o
-1 2 4 221.862 218.617 5.711 0.127 o
-1 2 5 473.879 475.355 12.678 0.027 o
-1 2 6 17.644 18.042 0.435 11.412 o
-1 2 7 1.223 1.305 0.058 264.553 o
-1 2 8 46.218 44.046 1.459 1.784 o
-1 2 9 7.868 7.460 0.203 35.115 o
-1 2 10 181.507 178.513 4.648 0.189 o
-1 2 11 69.298 68.582 1.691 1.210 o
-1 2 12 33.484 32.431 0.754 4.616 o
-1 2 13 12.390 12.166 0.280 20.303 o
-1 3 1 0.053 0.184 0.039 1935.660 o
-1 3 2 29.219 30.575 0.860 4.279 o
-1 3 3 12.811 12.910 0.338 17.385 o
-1 3 4 53.059 52.782 1.276 1.974 o
-1 3 5 0.771 0.715 0.048 430.722 o
-1 3 6 100.128 99.717 2.561 0.580 o
-1 3 7 1.613 1.720 0.058 208.042 o
-1 3 8 6.235 6.378 0.261 34.182 o
-1 3 9 0.896 1.073 0.058 330.386 o
-1 3 10 30.864 30.285 0.860 4.205 o
-1 4 1 5.434 5.247 0.164 52.233 o
-1 4 2 8.834 9.093 0.213 30.570 o
-1 4 4 0.436 0.406 0.029 818.006 o
-1 4 5 56.737 57.411 1.546 1.495 o
-1 4 6 74.333 76.013 1.826 1.052 o
0 0 2 137.261 134.747 18.689 0.015 o
0 0 4 62.245 70.118 1.788 1.159 o
0 0 6 1020.050 977.411 32.537 0.004 o
0 0 8 290.272 264.760 9.354 0.053 o
0 0 10 394.154 391.477 27.695 0.007 o
0 0 12 14.855 15.597 0.406 13.495 o
0 0 14 53.430 52.086 1.440 1.699 o
0 1 1 454.778 435.378 21.859 0.011 o
0 1 2 90.445 87.165 2.116 0.793 o
0 1 3 20.165 18.090 0.541 8.879 o
0 1 4 1526.300 1162.570 47.486 0.002 o
0 1 5 63.507 70.195 1.730 1.205 o
0 1 6 302.112 320.982 13.075 0.029 o
0 1 7 36.713 35.861 0.908 3.594 o
0 1 8 28.306 27.792 0.696 5.541 o
0 1 9 36.713 38.074 0.908 3.552 o
0 1 10 144.497 155.157 4.368 0.224 o
0 1 11 203.299 216.046 6.088 0.118 o
0 1 12 0.258 0.174 0.029 1371.210 o
0 1 13 25.234 25.338 0.696 5.910 o
0 1 14 8.580 8.687 0.203 32.184 o
0 2 0 12.615 12.920 0.338 17.508 o
0 2 1 72.749 71.384 1.730 1.148 o
0 2 2 124.719 126.128 3.112 0.398 o
0 2 4 178.002 175.334 4.841 0.179 o
0 2 5 47.178 47.660 1.160 2.350 o
0 2 6 5.363 5.170 0.184 49.563 o
0 2 7 134.375 134.351 3.952 0.271 o
0 2 8 0.422 0.416 0.029 827.895 o
0 2 9 55.152 52.357 1.430 1.694 o
0 2 10 26.388 25.241 0.812 4.897 o
0 2 11 1.385 1.565 0.077 209.963 o
0 2 12 16.714 16.167 0.406 12.676 o
0 3 1 47.410 48.317 1.189 2.273 o
0 3 2 107.238 110.250 2.851 0.481 o
0 3 3 81.229 81.705 2.068 0.857 o
0 3 4 53.286 54.444 1.363 1.810 o
0 3 5 14.136 14.611 0.435 13.170 o
0 3 6 0.124 0.213 0.029 1860.220 o
0 3 7 0.813 0.860 0.058 369.683 o
0 3 8 94.146 92.064 2.319 0.687 o
0 3 9 39.547 38.403 0.889 3.518 o
0 3 10 1.324 1.227 0.048 270.415 o
0 4 0 2.468 2.455 0.087 129.831 o
0 4 1 11.469 10.427 0.387 17.080 o
0 4 2 52.050 51.381 1.440 1.716 o
0 4 3 3.338 3.595 0.097 94.544 o
0 4 4 10.945 11.171 0.300 21.157 o
0 4 5 70.076 69.548 1.778 1.128 o
1 0 0 372.009 340.946 18.554 0.015 o
1 0 2 11.409 10.871 0.280 21.808 o
1 0 6 214.234 227.014 19.578 0.014 o
1 0 8 69.997 73.066 1.981 0.967 o
1 0 10 676.911 724.306 22.477 0.009 o
1 0 12 6.263 6.117 0.280 32.274 o
1 1 1 37.788 37.166 0.918 3.488 o
1 1 2 424.235 413.393 20.129 0.012 o
1 1 3 787.571 709.666 27.628 0.006 o
1 1 4 63.928 66.939 1.923 1.047 o
1 1 5 118.691 113.517 3.334 0.370 o
1 1 6 206.428 226.154 6.842 0.097 o
1 1 7 17.720 19.472 0.541 9.215 o
1 1 8 95.022 94.267 2.368 0.663 o
1 1 9 182.876 193.482 5.315 0.152 o
1 1 10 70.159 75.066 1.884 1.031 o
1 1 11 0.123 0.126 0.039 1709.830 o
1 1 12 2.072 1.952 0.068 166.000 o
1 1 13 6.549 6.571 0.164 44.482 o
1 2 0 311.648 313.541 7.818 0.068 o
1 2 1 263.486 261.426 6.697 0.093 o
1 2 2 0.078 0.097 0.029 2745.510 o
1 2 3 349.048 352.456 11.055 0.038 o
1 2 4 19.223 18.622 0.560 8.700 o
1 2 5 85.693 87.512 2.271 0.733 o
1 2 6 154.716 150.847 3.923 0.260 o
1 2 7 77.334 78.603 2.503 0.663 o
1 2 8 5.973 5.991 0.213 41.333 o
1 2 9 7.189 7.025 0.242 33.440 o
1 2 10 4.517 4.667 0.184 55.074 o
1 2 11 8.580 8.494 0.280 26.493 o
1 2 12 13.920 13.877 0.338 16.411 o
1 3 0 17.745 17.713 0.435 11.431 o
1 3 1 29.748 29.261 0.725 5.157 o
1 3 2 44.465 45.022 1.131 2.500 o
1 3 4 7.597 7.528 0.203 35.692 o
1 3 5 20.827 19.820 0.522 8.890 o
1 3 6 42.927 42.171 1.044 2.812 o
1 3 7 17.600 17.771 0.454 11.066 o
1 3 8 23.992 23.588 0.580 7.318 o
1 3 9 9.497 9.113 0.213 29.366 o
1 4 0 16.212 16.041 0.416 12.646 o
1 4 1 0.575 0.580 0.029 624.180 o
1 4 2 51.023 49.854 1.285 2.004 o
1 4 3 13.075 13.268 0.319 17.816 o
1 4 4 2.720 2.522 0.077 126.366 o
1 4 5 46.965 47.515 1.189 2.288 o
2 0 0 21.158 23.840 0.580 7.698 o
2 0 4 5.379 8.040 0.454 18.311 o
2 0 6 3.833 3.691 0.145 73.007 o
2 0 8 93.710 104.085 3.798 0.318 o
2 0 10 32.277 34.682 0.899 3.840 o
2 0 12 75.190 75.742 2.522 0.662 o
2 1 0 364.182 366.671 12.302 0.031 o
2 1 1 65.206 65.093 1.614 1.324 o
2 1 2 3.323 2.628 0.097 103.200 o
2 1 3 445.725 468.784 12.553 0.028 o
2 1 4 9.422 9.519 0.251 26.592 o
2 1 5 18.764 20.100 0.493 9.755 o
2 1 6 415.271 423.540 10.968 0.036 o
2 1 7 30.490 30.508 0.821 4.442 o
2 1 8 45.926 46.897 1.121 2.476 o
2 1 9 178.413 184.746 5.228 0.157 o
2 1 10 42.582 43.920 1.111 2.603 o
2 1 11 1.750 1.739 0.068 189.298 o
2 1 12 23.704 23.782 0.551 7.684 o
2 2 0 503.843 498.683 12.804 0.026 o
2 2 1 1.752 1.604 0.068 193.443 o
2 2 2 3.017 2.870 0.097 106.815 o
2 2 3 17.494 16.283 0.396 12.600 o
2 2 4 1.073 1.034 0.058 303.637 o
2 2 5 149.549 142.787 3.749 0.283 o
2 2 6 9.336 9.712 0.261 25.950 o
2 2 7 55.415 55.778 1.904 1.127 o
2 2 8 54.077 54.463 1.324 1.864 o
2 2 9 74.600 76.090 2.802 0.561 o
2 2 10 73.040 71.713 1.788 1.099 o
2 2 11 29.814 30.527 0.734 5.040 o
2 3 0 12.109 12.050 0.300 19.763 o
2 3 1 27.300 27.290 0.647 6.053 o
2 3 2 85.524 86.652 2.232 0.753 o
2 3 3 4.350 4.049 0.126 71.460 o
2 3 4 202.972 208.441 5.576 0.136 o
2 3 5 7.268 7.286 0.213 35.860 o
2 3 6 2.084 2.107 0.087 148.626 o
2 3 7 27.255 26.816 0.657 5.996 o
2 3 8 1.754 1.691 0.058 199.037 o
2 4 0 11.513 11.306 0.300 20.584 o
2 4 2 1.771 1.759 0.058 195.574 o
2 4 3 50.063 50.018 1.218 2.152 o
3 0 0 386.072 393.264 42.104 0.003 o
3 0 2 176.845 179.238 6.233 0.119 o
3 0 4 19.332 20.999 0.792 5.692 o
3 0 6 578.110 575.102 17.674 0.015 o
3 0 8 12.087 10.485 0.589 10.385 o
3 0 10 1.502 1.208 0.087 202.127 o
3 1 0 105.126 105.941 2.599 0.554 o
3 1 1 431.085 411.973 10.321 0.039 o
3 1 2 433.202 433.503 10.688 0.037 o
3 1 3 38.182 40.123 0.986 3.164 o
3 1 4 11.903 11.007 0.271 21.719 o
3 1 5 4.518 5.015 0.135 63.919 o
3 1 6 4.704 4.812 0.164 57.485 o
3 1 7 27.501 28.604 0.686 5.651 o
3 1 8 35.410 37.514 0.899 3.654 o
3 1 9 1.513 1.372 0.068 219.417 o
3 1 10 82.233 82.207 2.116 0.826 o
3 1 11 13.284 12.968 0.300 18.498 o
3 2 0 1.556 1.797 0.068 200.108 o
3 2 1 7.779 7.537 0.203 35.238 o
3 2 2 264.177 268.171 7.035 0.086 o
3 2 3 101.309 98.355 2.464 0.611 o
3 2 4 89.495 88.913 2.145 0.779 o
3 2 5 60.653 60.001 1.508 1.500 o
3 2 6 41.535 42.278 1.044 2.846 o
3 2 7 3.610 3.489 0.135 79.257 o
3 2 8 99.890 97.446 2.532 0.592 o
3 2 9 2.383 2.223 0.077 141.675 o
3 2 10 10.936 10.842 0.309 20.837 o
3 3 0 66.939 68.669 1.633 1.280 o
3 3 1 2.055 1.875 0.068 168.683 o
3 3 2 18.577 19.337 0.454 10.588 o
3 3 3 92.968 93.156 2.271 0.708 o
3 3 4 102.001 102.143 2.503 0.593 o
3 3 5 0.089 0.106 0.019 3282.630 o
3 3 6 18.492 19.163 0.454 10.633 o
3 3 7 2.020 1.962 0.058 174.842 o
3 4 0 5.770 5.634 0.155 51.112 o
4 0 0 43.769 42.258 1.053 2.761 o
4 0 4 34.959 36.132 0.889 3.744 o
4 0 6 12.528 12.765 0.358 16.881 o
4 0 8 1.160 1.015 0.097 221.061 o
4 0 10 4.257 4.136 0.126 71.917 o
4 1 0 2.064 2.339 0.077 151.444 o
4 1 1 146.150 146.517 3.711 0.288 o
4 1 2 184.012 180.958 4.677 0.186 o
4 1 3 206.587 203.377 5.238 0.149 o
4 1 4 2.962 2.957 0.097 107.060 o
4 1 5 89.189 88.875 2.261 0.727 o
4 1 6 37.999 38.982 0.947 3.333 o
4 1 7 8.512 8.021 0.213 32.239 o
4 1 8 26.925 27.290 0.638 6.175 o
4 1 9 19.234 19.752 0.522 9.207 o
4 2 0 113.328 114.077 2.860 0.469 o
4 2 1 72.421 71.046 1.720 1.159 o
4 2 2 280.319 283.864 7.209 0.081 o
4 2 3 53.046 53.043 1.256 2.008 o
4 2 4 15.593 15.065 0.387 13.825 o
4 2 5 0.502 0.628 0.048 556.900 o
4 2 6 6.631 6.243 0.184 42.442 o
4 2 7 147.533 146.653 3.672 0.292 o
4 2 8 0.526 0.686 0.039 578.091 o
4 3 0 5.489 5.421 0.135 56.143 o
4 3 1 34.294 34.779 0.812 4.184 o
4 3 2 1.129 1.063 0.048 310.022 o
4 3 3 1.270 1.285 0.058 260.174 o
4 3 4 46.666 46.220 1.092 2.542 o
4 3 5 3.318 3.189 0.097 98.242 o
5 0 0 58.907 62.001 1.672 1.316 o
5 0 2 658.295 635.643 19.230 0.012 o
5 0 4 11.736 11.616 0.319 19.393 o
5 0 6 6.550 6.407 0.213 38.948 o
5 0 8 138.587 140.942 4.165 0.246 o
5 1 0 0.484 0.416 0.039 698.256 o
5 1 1 103.142 103.689 2.696 0.532 o
5 1 2 55.675 56.164 1.363 1.772 o
5 1 3 1.864 1.778 0.097 156.558 o
5 1 4 36.917 38.132 0.928 3.463 o
5 1 5 1.122 1.160 0.068 269.774 o
5 1 6 78.989 79.675 2.029 0.890 o
5 1 7 5.063 4.928 0.135 60.360 o
5 1 8 1.604 1.343 0.058 223.866 o
5 2 0 22.783 23.299 0.541 7.982 o
5 2 1 24.821 24.458 0.570 7.257 o
5 2 2 3.624 3.324 0.097 92.199 o
5 2 3 23.689 23.163 0.541 7.851 o
5 2 4 58.593 57.459 1.372 1.717 o
5 2 5 14.858 14.302 0.338 15.763 o
5 2 6 46.441 46.723 1.140 2.419 o
5 3 0 114.241 115.005 2.793 0.483 o
5 3 1 24.738 24.941 0.580 7.130 o
5 3 2 5.463 5.035 0.135 57.455 o
6 0 0 224.539 228.647 6.832 0.095 o
6 0 2 28.629 28.488 0.821 4.602 o
6 0 4 1.519 1.575 0.097 178.011 o
6 0 6 41.450 44.867 1.401 1.938 o
6 1 0 0.545 0.589 0.048 545.078 o
6 1 1 178.582 172.889 5.160 0.162 o
6 1 2 57.837 57.411 1.479 1.574 o
6 1 3 21.706 21.095 0.551 8.206 o
6 1 4 53.702 53.642 1.334 1.858 o
6 1 5 56.885 56.435 1.343 1.786 o
6 2 1 9.449 9.219 0.261 26.131 o
6 2 3 12.617 12.640 0.367 16.506 o
7 0 0 104.005 109.381 3.682 0.327 o
7 0 2 33.828 31.976 1.305 2.351 o
7 1 0 79.140 77.743 2.300 0.749 o
7 1 1 0.949 1.053 0.077 279.356 o
;
_olex2_submission_special_instructions 'No special instructions were received'
loop_
_space_group_symop_id
_space_group_symop_operation_xyz
1 x,y,z
2 -x,y+1/2,-z+1/2
3 -x,-y,-z
4 x,-y-1/2,z-1/2
loop_
_atom_site_label
_atom_site_type_symbol
_atom_site_fract_x
_atom_site_fract_y
_atom_site_fract_z
_atom_site_U_iso_or_equiv
_atom_site_adp_type
_atom_site_occupancy
_atom_site_refinement_flags_posn
O1 O 0.43458(6) 0.44424(11) 0.34991(3) 0.01403(15) Uani 1.000000 .
O2 O 0.24271(6) 0.74208(11) 0.46365(3) 0.01364(15) Uani 1.000000 .
C1 C 0.40313(8) 0.55875(14) 0.44793(4) 0.01065(16) Uani 1.000000 .
O3 O 0.12991(6) 0.63077(12) 0.17831(3) 0.01365(15) Uani 1.000000 .
H3a H 0.0118(17) 0.456(3) 0.1502(8) 0.025(2) Uiso 1.000000 .
H3b H 0.1878(15) 0.692(3) 0.1133(9) 0.0223(19) Uiso 1.000000 .
H1 H 0.301(2) 0.522(3) 0.2807(10) 0.035(3) Uiso 1.000000 .
loop_
_atom_site_aniso_label
_atom_site_aniso_U_11
_atom_site_aniso_U_22
_atom_site_aniso_U_33
_atom_site_aniso_U_12
_atom_site_aniso_U_13
_atom_site_aniso_U_23
O1 0.0136(2) 0.0195(2) 0.0091(2) 0.00403(14) 0.00293(16) -0.00085(14)
O2 0.0117(2) 0.0199(2) 0.0085(2) 0.00520(14) 0.00095(15) -0.00091(14)
C1 0.0097(3) 0.0132(3) 0.0083(3) 0.00167(17) 0.0007(2) 0.00036(17)
O3 0.0112(2) 0.0194(2) 0.0093(2) -0.00069(15) 0.00033(16) 0.00130(14)
loop_
_atom_type_symbol
_atom_type_description
_atom_type_scat_dispersion_real
_atom_type_scat_dispersion_imag
_atom_type_scat_source
_atom_type_scat_dispersion_source
C C 0.00347 0.00161
'Clementi & Roetti, C., At. Data Nucl. Data Tables 1974, 14, (177-478); Clementi & Raimondi, J. Chem. Phys., 1963, 38, (2686-2689)'
'Henke, Gullikson and Davis, At. Data and Nucl. Data Tables, 1993, 54, 2'
H H 0.00000 0.00000
'Clementi & Roetti, C., At. Data Nucl. Data Tables 1974, 14, (177-478); Clementi & Raimondi, J. Chem. Phys., 1963, 38, (2686-2689)'
'Henke, Gullikson and Davis, At. Data and Nucl. Data Tables, 1993, 54, 2'
N N 0.00653 0.00323
'Clementi & Roetti, C., At. Data Nucl. Data Tables 1974, 14, (177-478); Clementi & Raimondi, J. Chem. Phys., 1963, 38, (2686-2689)'
'Henke, Gullikson and Davis, At. Data and Nucl. Data Tables, 1993, 54, 2'
O O 0.01158 0.00611
'Clementi & Roetti, C., At. Data Nucl. Data Tables 1974, 14, (177-478); Clementi & Raimondi, J. Chem. Phys., 1963, 38, (2686-2689)'
'Henke, Gullikson and Davis, At. Data and Nucl. Data Tables, 1993, 54, 2'
loop_
_geom_angle_atom_site_label_1
_geom_angle_atom_site_label_2
_geom_angle_atom_site_label_3
_geom_angle
_geom_angle_site_symmetry_1
_geom_angle_site_symmetry_3
_geom_angle_publ_flag
H1 O1 C1 111.7(6) . . ?
O2 C1 O1 126.93(4) . . ?
C1 C1 O1 112.76(5) 3_666 . ?
C1 C1 O2 120.31(5) 3_666 . ?
H3b O3 H3a 105.2(7) . . ?
loop_
_geom_bond_atom_site_label_1
_geom_bond_atom_site_label_2
_geom_bond_distance
_geom_bond_site_symmetry_2
_geom_bond_publ_flag
O1 C1 1.2855(6) . ?
O1 H1 1.043(12) . ?
O2 C1 1.2202(7) . ?
C1 C1 1.5433(10) 3_666 ?
O3 H3a 0.942(11) . ?
O3 H3b 0.946(11) . ?
loop_
_refln_index_h
_refln_index_k
_refln_index_l
_refln_F_squared_meas
_refln_F_squared_sigma
-14 0 2 12.26 0.32
-14 0 6 1.88 0.1
-14 0 10 1.07 0.13
-14 1 5 0.33 0.06
-14 1 6 3.63 0.12
-14 1 7 6.58 0.17
-14 1 8 0.51 0.05
-14 1 9 0.17 0.04
-13 0 6 30.63 1.33
-13 0 8 3.16 0.1
-13 0 10 0.41 0.05
-13 0 12 10.66 0.41
-13 0 14 1.38 0.08
-13 0 16 7.76 0.24
-13 1 1 2.55 0.09
-13 1 2 13.37 0.36
-13 1 3 0.28 0.04
-13 1 4 1.04 0.05
-13 1 5 9.52 0.23
-13 1 7 0.13 0.03
-13 1 8 3.52 0.1
-13 1 10 3.15 0.09
-13 1 12 2.98 0.09
-13 1 13 0.52 0.04
-13 1 15 1.35 0.08
-13 1 16 3.67 0.17
-13 2 1 3.75 0.15
-13 2 3 0.78 0.06
-13 2 4 0.61 0.04
-13 2 5 1.21 0.06
-13 2 6 0.38 0.04
-13 2 8 2.04 0.08
-13 2 9 1.28 0.08
-13 2 10 3.73 0.12
-13 2 12 1.01 0.07
-13 2 13 0.84 0.06
-13 2 14 2.66 0.12
-13 3 4 4.25 0.13
-13 3 5 2.13 0.08
-13 3 6 3.77 0.24
-13 3 7 1.96 0.09
-13 3 9 1.83 0.1
-13 3 10 3.71 0.22
-12 0 2 8.28 0.22
-12 0 4 39.86 1.42
-12 0 6 4.65 0.19
-12 0 8 0.14 0.04
-12 0 10 2.17 0.09
-12 0 12 8.56 0.23
-12 0 14 4.98 0.15
-12 0 16 16.13 0.41
-12 0 18 0.51 0.12
-12 1 1 1.81 0.07
-12 1 2 0.91 0.05
-12 1 5 17.68 0.41
-12 1 6 4.16 0.11
-12 1 7 1.43 0.06
-12 1 8 10.98 0.29
-12 1 9 9.79 0.25
-12 1 10 2.54 0.08
-12 1 11 0.91 0.06
-12 1 12 6.38 0.17
-12 1 13 0.66 0.04
-12 1 14 0.17 0.04
-12 1 15 12.02 0.29
-12 1 16 1.67 0.07
-12 1 17 0.61 0.06
-12 1 19 1.35 0.13
-12 2 1 12.08 0.39
-12 2 2 4.67 0.19
-12 2 4 0.14 0.04
-12 2 5 7.51 0.26
-12 2 6 0.2 0.04
-12 2 7 3.13 0.1
-12 2 8 4.12 0.12
-12 2 9 3.98 0.11
-12 2 11 8 0.2
-12 2 12 0.87 0.07
-12 2 13 4.37 0.13
-12 2 14 0.29 0.04
-12 2 16 0.17 0.05
-12 2 17 0.17 0.06
-12 2 18 4.54 0.2
-12 3 1 1.35 0.14
-12 3 2 0.31 0.04
-12 3 3 2.99 0.09
-12 3 6 0.73 0.08
-12 3 7 1.18 0.07
-12 3 11 1.53 0.07
-12 3 12 0.36 0.07
-12 3 13 0.41 0.05
-12 3 14 3.09 0.1
-12 3 15 0.31 0.07
-12 3 16 1.52 0.16
-12 4 1 0.42 0.11
-12 4 2 1.05 0.11
-12 4 3 1.84 0.16
-12 4 4 1.54 0.27
-12 4 5 2.08 0.11
-12 4 6 5.06 0.5
-12 4 7 0.29 0.07
-12 4 8 0.5 0.06
-12 4 9 1.06 0.08
-12 4 11 1.47 0.14
-11 0 2 3.38 0.12
-11 0 4 8.97 0.25
-11 0 6 0.46 0.05
-11 0 8 86.37 2.52
-11 0 10 7.57 0.28
-11 0 12 2.59 0.11
-11 0 14 33.37 0.81
-11 0 16 1.48 0.12
-11 0 18 11.57 0.31
-11 0 20 1.9 0.12
-11 1 1 0.22 0.04
-11 1 2 5.33 0.16
-11 1 3 13.44 0.32
-11 1 4 33.28 0.86
-11 1 5 1.91 0.07
-11 1 6 0.16 0.03
-11 1 7 1.39 0.06
-11 1 8 1.28 0.06
-11 1 9 5.75 0.15
-11 1 10 3.48 0.1
-11 1 11 4.14 0.11
-11 1 12 12.53 0.3
-11 1 13 0.4 0.04
-11 1 14 6.05 0.17
-11 1 15 5.73 0.15
-11 1 16 2.46 0.1
-11 1 17 0.14 0.05
-11 1 18 8.74 0.23
-11 1 19 10.23 0.26
-11 1 20 0.37 0.05
-11 2 1 2.61 0.09
-11 2 2 0.33 0.04
-11 2 3 1.34 0.07
-11 2 4 10.18 0.28
-11 2 5 2.07 0.08
-11 2 6 5.69 0.16
-11 2 7 7.92 0.23
-11 2 10 0.98 0.06
-11 2 11 2.02 0.08
-11 2 12 2.19 0.08
-11 2 13 0.48 0.04
-11 2 14 1.32 0.06
-11 2 15 9.91 0.27
-11 2 16 0.25 0.05
-11 2 17 0.55 0.05
-11 2 18 2.23 0.09
-11 2 19 0.96 0.07
-11 2 20 0.39 0.12
-11 3 1 0.93 0.06
-11 3 2 3.02 0.1
-11 3 3 0.25 0.04
-11 3 4 4.13 0.13
-11 3 5 5.71 0.16
-11 3 6 2.59 0.11
-11 3 7 3.23 0.1
-11 3 9 1.09 0.08
-11 3 10 11.32 0.35
-11 3 11 3.8 0.12
-11 3 12 0.81 0.09
-11 3 13 2.27 0.08
-11 3 14 0.34 0.04
-11 3 16 3.37 0.4
-11 3 17 4.14 0.21
-11 4 1 1.33 0.15
-11 4 2 2.76 0.13
-11 4 3 4.87 0.17
-11 4 6 6.21 0.18
-11 4 7 0.33 0.08
-11 4 9 1.85 0.3
-11 4 10 3.1 0.13
-11 4 12 2.98 0.15
-11 4 13 5.27 0.48
-11 4 15 0.62 0.12
-11 5 2 5.44 0.2
-11 5 4 3.27 0.39
-11 5 5 0.42 0.09
-11 5 6 3.39 0.17
-11 5 8 1.02 0.13
-10 0 4 7.7 0.22
-10 0 6 11.73 0.41
-10 0 8 16.85 0.49
-10 0 10 11.56 0.29
-10 0 12 11.58 0.3
-10 0 14 0.82 0.07
-10 0 16 2.91 0.15
-10 0 18 60.49 2.14
-10 0 20 1.89 0.11
-10 0 22 1.21 0.1
-10 1 1 3.14 0.1
-10 1 2 0.52 0.04
-10 1 3 2.09 0.08
-10 1 4 0.69 0.04
-10 1 5 8.71 0.28
-10 1 7 45.79 1.17
-10 1 8 19.05 0.46
-10 1 9 9.79 0.25
-10 1 10 6.21 0.18
-10 1 11 1.85 0.07
-10 1 12 3.81 0.11
-10 1 13 11.39 0.28
-10 1 14 17.56 0.42
-10 1 16 0.86 0.06
-10 1 17 14.68 0.36
-10 1 18 2.28 0.09
-10 1 19 1.78 0.08
-10 1 21 0.45 0.06
-10 1 22 10.18 0.44
-10 2 1 0.48 0.04
-10 2 2 10.81 0.27
-10 2 3 47.69 1.15
-10 2 4 26.77 0.73
-10 2 7 1.22 0.07
-10 2 8 8.34 0.22
-10 2 9 12.44 0.35
-10 2 10 0.7 0.04
-10 2 11 11.69 0.28
-10 2 12 4.99 0.14
-10 2 13 11.2 0.27
-10 2 14 12.81 0.32
-10 2 16 0.62 0.05
-10 2 17 3.57 0.11
-10 2 18 0.55 0.05
-10 2 20 0.28 0.06
-10 2 21 0.98 0.08
-10 3 1 2.57 0.1
-10 3 2 7.8 0.21
-10 3 3 3.49 0.11
-10 3 4 9.66 0.24
-10 3 6 10.45 0.29
-10 3 7 0.57 0.04
-10 3 8 5.37 0.15
-10 3 9 0.8 0.05
-10 3 10 6.96 0.19
-10 3 13 0.21 0.04
-10 3 14 7.81 0.21
-10 3 15 2.71 0.13
-10 3 17 1.42 0.09
-10 3 18 0.31 0.06
-10 3 19 0.75 0.15
-10 3 20 6.13 0.24
-10 3 21 2.66 0.17
-10 4 2 9.8 0.34
-10 4 3 6.06 0.29
-10 4 4 0.22 0.06
-10 4 5 1.14 0.08
-10 4 6 3.32 0.12
-10 4 8 2.79 0.14
-10 4 9 3 0.1
-10 4 10 6.94 0.21
-10 4 13 7.07 0.56
-10 4 14 0.25 0.07
-10 4 16 9.22 0.29
-10 4 17 0.69 0.13
-10 5 2 6.57 0.24
-10 5 4 1.83 0.12
-10 5 5 2.8 0.15
-10 5 6 5.32 0.17
-10 5 8 0.37 0.11
-10 5 10 0.64 0.11
-10 5 11 1.07 0.14
-10 5 12 14.08 0.34
-9 0 2 3.95 0.14
-9 0 4 53.64 1.71
-9 0 6 23.25 0.58
-9 0 8 4.25 0.13
-9 0 10 52.4 1.26
-9 0 14 2.01 0.11
-9 0 16 22.17 0.98
-9 0 18 0.31 0.08
-9 0 20 0.85 0.09
-9 0 22 6.39 0.36
-9 1 1 0.44 0.04
-9 1 2 1.18 0.07
-9 1 3 0.14 0.03
-9 1 4 9.68 0.25
-9 1 5 2.96 0.11
-9 1 6 21.24 0.53
-9 1 7 16.62 0.42
-9 1 8 4.67 0.12
-9 1 9 17.32 0.41
-9 1 10 1.19 0.05
-9 1 11 6.48 0.16
-9 1 13 0.35 0.04
-9 1 14 13.82 0.33
-9 1 15 0.5 0.04
-9 1 16 2.52 0.09
-9 1 17 36.17 0.86
-9 1 18 6.91 0.18
-9 1 19 2.77 0.09
-9 1 20 4.27 0.16
-9 1 21 6.64 0.19
-9 1 23 1.92 0.15
-9 2 1 4.59 0.13
-9 2 3 0.6 0.04
-9 2 4 0.34 0.04
-9 2 5 5.65 0.16
-9 2 6 32.95 0.88
-9 2 7 9.91 0.26
-9 2 8 54.84 1.27
-9 2 9 1.33 0.07
-9 2 10 4.97 0.14
-9 2 12 3.13 0.09
-9 2 13 30.88 0.71
-9 2 14 4.55 0.13
-9 2 15 0.38 0.04
-9 2 16 9.63 0.24
-9 2 17 8.47 0.21
-9 2 18 13.78 0.37
-9 2 19 3.61 0.15
-9 2 20 0.33 0.05
-9 2 21 6.6 0.17
-9 2 22 2.76 0.11
-9 2 23 7.22 0.25
-9 3 1 2.36 0.09
-9 3 2 79.56 2.02
-9 3 3 12.48 0.39
-9 3 4 20.09 0.5
-9 3 6 1 0.05
-9 3 7 19.02 0.5
-9 3 8 6.14 0.16
-9 3 9 1.39 0.07
-9 3 10 4.68 0.14
-9 3 11 1.11 0.06
-9 3 12 40.66 0.96
-9 3 13 6.88 0.2
-9 3 14 6.1 0.17
-9 3 15 2.62 0.14
-9 3 16 2.9 0.12
-9 3 18 2.61 0.1
-9 3 21 0.64 0.07
-9 3 22 2.16 0.18
-9 4 1 11.28 0.34
-9 4 2 3.66 0.15
-9 4 3 20.09 0.66
-9 4 4 0.2 0.04
-9 4 6 7.33 0.33
-9 4 7 0.85 0.06
-9 4 8 4 0.12
-9 4 9 1.43 0.07
-9 4 10 0.56 0.06
-9 4 11 5.58 0.17
-9 4 12 5.73 0.18
-9 4 13 6.79 0.19
-9 4 14 0.28 0.06
-9 4 19 0.64 0.1
-9 4 20 5.14 0.22
-9 5 1 1.38 0.09
-9 5 6 0.68 0.06
-9 5 8 0.48 0.07
-9 5 9 3.41 0.15
-9 5 10 0.78 0.16
-9 5 12 2.51 0.55
-9 5 13 0.24 0.07
-9 5 15 2.16 0.17
-9 5 16 6.77 0.23
-9 6 1 1.53 0.4
-9 6 2 0.23 0.07
-9 6 3 3.94 0.17
-9 6 4 0.34 0.11
-9 6 5 3.35 0.17
-9 6 6 0.8 0.13
-9 6 10 0.82 0.13
-8 0 2 3.42 0.14
-8 0 4 4.03 0.14
-8 0 8 48.45 1.15
-8 0 10 6.52 0.17
-8 0 12 3.07 0.1
-8 0 14 43.79 1.29
-8 0 16 12.35 0.44
-8 0 18 2.44 0.17
-8 0 20 41.86 1.2
-8 0 22 0.41 0.09
-8 1 1 27.25 0.74
-8 1 3 18.02 0.49
-8 1 4 28.63 0.74
-8 1 5 22.02 0.52
-8 1 6 1.56 0.06
-8 1 7 54.2 1.26
-8 1 8 5.7 0.14
-8 1 9 13.55 0.33
-8 1 10 36.03 0.84
-8 1 11 1.56 0.06
-8 1 12 1.82 0.06
-8 1 14 0.46 0.04
-8 1 15 16.35 0.39
-8 1 16 8.96 0.22
-8 1 17 7.07 0.18
-8 1 18 10.33 0.26
-8 1 20 1.06 0.07
-8 1 21 3.93 0.12
-8 1 23 0.87 0.07
-8 1 24 8.37 0.54
-8 2 1 38.17 1.04
-8 2 2 15.55 0.43
-8 2 3 6.46 0.16
-8 2 4 15.25 0.41
-8 2 5 32.49 0.76
-8 2 6 55.29 1.31
-8 2 7 6.16 0.16
-8 2 8 6.46 0.16
-8 2 9 1.27 0.05
-8 2 10 10.8 0.26
-8 2 11 19.38 0.46
-8 2 12 7.99 0.2
-8 2 13 2.14 0.08
-8 2 14 11.57 0.28
-8 2 15 0.15 0.04
-8 2 16 36.68 0.85
-8 2 17 2.23 0.08
-8 2 18 13.51 0.32
-8 2 19 3.66 0.12
-8 2 20 0.42 0.05
-8 2 23 2.7 0.1
-8 3 1 0.23 0.03
-8 3 2 7.95 0.22
-8 3 3 6.75 0.17
-8 3 5 0.89 0.05
-8 3 6 31.92 0.74
-8 3 7 10.37 0.29
-8 3 8 21.08 0.57
-8 3 9 5.15 0.14
-8 3 10 9.54 0.24
-8 3 11 5.6 0.18
-8 3 12 49.65 1.15
-8 3 13 1.63 0.07
-8 3 14 1.3 0.06
-8 3 15 0.51 0.04
-8 3 16 16.98 0.47
-8 3 17 16.58 0.4
-8 3 19 1.1 0.07
-8 3 20 7.61 0.31
-8 3 22 22.35 0.81
-8 3 23 2.86 0.19
-8 4 1 20.69 0.56
-8 4 2 18.72 0.63
-8 4 3 15.09 0.42
-8 4 4 10.5 0.3
-8 4 5 2.84 0.1
-8 4 6 4.53 0.13
-8 4 7 2.8 0.09
-8 4 8 4.09 0.12
-8 4 10 0.34 0.05
-8 4 11 22.56 0.59
-8 4 12 17.07 0.41
-8 4 13 10.82 0.32
-8 4 15 2.82 0.11
-8 4 16 2.56 0.17
-8 4 18 4.47 0.23
-8 4 20 0.25 0.08
-8 4 21 6.14 0.24
-8 5 1 4.43 0.13
-8 5 2 23.61 1.58
-8 5 5 1.22 0.07
-8 5 6 0.44 0.05
-8 5 7 4.37 0.2
-8 5 8 7.27 0.22
-8 5 10 2.24 0.11
-8 5 12 0.68 0.07
-8 5 14 0.39 0.08
-8 5 15 0.44 0.06
-8 6 1 0.26 0.05
-8 6 2 0.44 0.09
-8 6 3 0.41 0.08
-8 6 4 0.71 0.08
-8 6 6 0.33 0.06
-8 6 7 1.28 0.11
-8 6 8 0.31 0.08
-8 6 9 0.31 0.09
-8 6 11 0.82 0.11
-7 0 2 13.25 0.38
-7 0 4 38.5 0.97
-7 0 6 250.4 6.72
-7 0 8 0.26 0.05
-7 0 10 1.29 0.07
-7 0 12 5.5 0.15
-7 0 14 12.07 0.32
-7 0 16 7.45 0.21
-7 0 18 7.66 0.22
-7 0 20 0.47 0.06
-7 0 22 0.44 0.06
-7 0 24 7.55 0.28
-7 1 1 17.7 0.49
-7 1 2 84.43 2.35
-7 1 3 3.65 0.11
-7 1 4 0.38 0.03
-7 1 5 2.18 0.08
-7 1 6 18.69 0.44
-7 1 7 51.68 1.21
-7 1 9 10.19 0.24
-7 1 10 28.9 0.68
-7 1 11 46.53 1.09
-7 1 12 2.84 0.09
-7 1 13 9.33 0.23
-7 1 14 15.39 0.37
-7 1 15 13.67 0.34
-7 1 16 5.86 0.16
-7 1 17 22.9 0.53
-7 1 18 0.17 0.04
-7 1 19 26.11 0.62
-7 1 20 4.62 0.14
-7 1 21 3.13 0.11
-7 1 22 1.23 0.07
-7 1 23 1.12 0.07
-7 1 24 0.69 0.05
-7 1 25 6.58 0.2
-7 2 2 0.35 0.03
-7 2 3 21.68 0.64
-7 2 4 3.23 0.09
-7 2 5 9.6 0.24
-7 2 6 2.11 0.07
-7 2 7 18.7 0.43
-7 2 8 16.76 0.39
-7 2 9 16.72 0.39
-7 2 10 77.5 1.8
-7 2 11 21.99 0.51
-7 2 12 7.73 0.19
-7 2 13 5.19 0.14
-7 2 14 3.67 0.11
-7 2 15 41.03 1.03
-7 2 16 12.64 0.3
-7 2 17 2.06 0.08
-7 2 18 4.62 0.14
-7 2 19 0.27 0.05
-7 2 20 22.82 0.77
-7 2 21 11.78 0.42
-7 2 22 4.23 0.16
-7 2 23 3.59 0.12
-7 2 24 4.54 0.13
-7 2 25 2.36 0.15
-7 3 1 1.94 0.07
-7 3 2 1.82 0.06
-7 3 3 1.91 0.07
-7 3 4 74.3 1.75
-7 3 5 34.17 0.81
-7 3 6 15.66 0.37
-7 3 9 9.46 0.23
-7 3 10 10.97 0.26
-7 3 11 0.23 0.03
-7 3 12 1.01 0.05
-7 3 13 7.62 0.19
-7 3 14 22.7 0.52
-7 3 15 4.85 0.17
-7 3 16 22.33 0.53
-7 3 17 0.21 0.04
-7 3 18 9.86 0.25
-7 3 20 2.59 0.09
-7 3 21 2.78 0.12
-7 3 22 2.61 0.1
-7 3 24 2.06 0.18
-7 4 1 19.81 0.47
-7 4 2 6.44 0.17
-7 4 3 0.68 0.04
-7 4 4 2.13 0.07
-7 4 5 22.08 0.59
-7 4 6 4.16 0.12
-7 4 7 4.41 0.13
-7 4 8 25.17 0.59
-7 4 9 5.42 0.14
-7 4 10 0.27 0.04
-7 4 11 13.94 0.34
-7 4 12 3.44 0.11
-7 4 14 3.15 0.11
-7 4 15 12.25 0.3
-7 4 16 9.79 0.25
-7 4 17 3.73 0.12
-7 4 19 0.65 0.05
-7 4 21 7.65 0.2
-7 4 22 8.44 0.28
-7 5 1 3.88 0.13
-7 5 2 18.99 0.53
-7 5 3 3.35 0.1
-7 5 4 1.74 0.07
-7 5 5 0.92 0.06
-7 5 6 7.67 0.2
-7 5 7 0.52 0.05
-7 5 10 5.27 0.15
-7 5 11 9.22 0.29
-7 5 12 24.82 0.6
-7 5 13 0.14 0.05
-7 5 14 1.06 0.07
-7 5 17 2.29 0.1
-7 5 18 3.18 0.82
-7 5 19 0.55 0.12
-7 6 1 15.53 0.41
-7 6 2 3.04 0.1
-7 6 4 0.59 0.05
-7 6 5 1.1 0.07
-7 6 6 5.94 0.18
-7 6 7 2.19 0.09
-7 6 8 3.99 0.2
-7 6 9 2.03 0.13
-7 6 10 0.38 0.06
-7 6 11 1.65 0.1
-7 6 13 0.34 0.1
-7 7 4 0.69 0.11
-7 7 5 1.98 0.14
-7 7 6 0.9 0.13
-6 0 2 184.8 5.21
-6 0 4 2.77 0.14
-6 0 6 166.61 5.54
-6 0 8 1.13 0.12
-6 0 10 299.51 8.4
-6 0 12 2.94 0.17
-6 0 14 26.36 0.63
-6 0 16 132.09 3.55
-6 0 18 15.48 0.38
-6 0 20 10.02 0.27
-6 0 22 2.75 0.12
-6 0 24 12.14 0.46
-6 0 26 4.47 0.21
-6 1 1 1.32 0.07
-6 1 2 6.63 0.18
-6 1 3 1.18 0.06
-6 1 4 32.05 0.75
-6 1 5 97.1 2.41
-6 1 6 154.62 4.27
-6 1 7 2.83 0.1
-6 1 8 2.97 0.1
-6 1 9 44.7 1.04
-6 1 10 50.61 1.23
-6 1 11 4.13 0.11
-6 1 12 42.5 0.98
-6 1 13 5.1 0.13
-6 1 14 22.49 0.52
-6 1 15 3.59 0.1
-6 1 16 0.62 0.04
-6 1 17 1.1 0.06
-6 1 18 0.65 0.04
-6 1 19 11.73 0.34
-6 1 20 28.34 0.66
-6 1 21 12.86 0.31
-6 1 22 1.43 0.08
-6 1 23 2.17 0.1
-6 1 24 0.27 0.05
-6 1 25 1.3 0.08
-6 1 26 1.4 0.15
-6 2 1 70.51 1.71
-6 2 2 39.72 0.93
-6 2 3 60.34 1.42
-6 2 4 5.42 0.14
-6 2 5 4.34 0.12
-6 2 6 1.09 0.06
-6 2 7 0.18 0.03
-6 2 8 13.16 0.31
-6 2 9 31.52 0.72
-6 2 10 9.84 0.23
-6 2 11 0.22 0.02
-6 2 12 8.81 0.21
-6 2 13 0.22 0.03
-6 2 14 6.29 0.16
-6 2 15 2.74 0.08
-6 2 16 0.3 0.03
-6 2 17 9.6 0.23
-6 2 18 19.28 0.45
-6 2 19 2.54 0.09
-6 2 20 20.93 0.49
-6 2 21 1.51 0.08
-6 2 22 0.15 0.05
-6 2 23 0.59 0.06
-6 2 24 0.27 0.05
-6 2 25 11.71 0.43
-6 3 1 12.37 0.32
-6 3 2 11.29 0.27
-6 3 3 1.52 0.06
-6 3 4 4.3 0.12
-6 3 5 0.62 0.03
-6 3 6 6.57 0.23
-6 3 7 7.15 0.2
-6 3 8 38.95 0.91
-6 3 9 30.93 0.77
-6 3 10 0.48 0.03
-6 3 11 4.17 0.11
-6 3 12 0.64 0.04
-6 3 13 6.38 0.19
-6 3 14 55.6 1.29
-6 3 15 12.73 0.32
-6 3 16 1.76 0.07
-6 3 17 0.65 0.05
-6 3 18 8.22 0.2
-6 3 19 15.63 0.37
-6 3 20 0.87 0.05
-6 3 21 0.42 0.04
-6 3 22 4.56 0.16
-6 3 23 0.8 0.07
-6 3 24 17.68 1.25
-6 4 1 7.76 0.19
-6 4 3 6.73 0.17
-6 4 4 40.43 0.96
-6 4 5 37.73 0.88
-6 4 6 1.87 0.07
-6 4 8 6.83 0.18
-6 4 9 0.15 0.04
-6 4 10 1.8 0.07
-6 4 11 6.63 0.18
-6 4 12 11.27 0.28
-6 4 13 13.63 0.37
-6 4 14 13.57 0.33
-6 4 15 22 0.53
-6 4 16 0.56 0.05
-6 4 18 6.2 0.19
-6 4 19 0.89 0.06
-6 4 21 1.27 0.1
-6 4 23 2.96 0.2
-6 5 2 0.72 0.04
-6 5 3 1.13 0.06
-6 5 4 35.38 1.05
-6 5 6 6.49 0.19
-6 5 7 2.6 0.09
-6 5 8 15.64 0.41
-6 5 9 1.38 0.08
-6 5 10 14.49 0.36
-6 5 11 0.48 0.05
-6 5 12 0.21 0.04
-6 5 13 0.51 0.04
-6 5 14 2.29 0.08
-6 5 15 1.47 0.07
-6 5 16 7.87 0.23
-6 5 17 0.23 0.04
-6 5 18 1.41 0.07
-6 5 19 0.19 0.06
-6 5 20 2.51 0.12
-6 6 1 1.78 0.07
-6 6 2 4.23 0.13
-6 6 3 0.44 0.04
-6 6 4 2.97 0.1
-6 6 5 9.05 0.28
-6 6 6 1.23 0.07
-6 6 7 0.67 0.05
-6 6 8 0.38 0.04
-6 6 10 5.07 0.16
-6 6 11 9.9 0.27
-6 6 12 4.37 0.15
-6 6 13 0.66 0.2
-6 6 14 0.62 0.13
-6 6 15 3.68 0.16
-6 6 16 2.3 0.14
-6 7 1 5.62 0.2
-6 7 5 0.4 0.11
-6 7 6 1 0.14
-6 7 7 2.5 0.16
-6 7 9 2.34 0.15
-5 0 2 92.19 2.5
-5 0 4 18.15 0.5
-5 0 6 119.74 3.71
-5 0 8 301.25 8.82
-5 0 10 109.56 3.17
-5 0 12 45.91 1.12
-5 0 14 0.59 0.06
-5 0 18 26.52 0.79
-5 0 20 102.97 2.67
-5 0 22 0.18 0.06
-5 0 24 0.39 0.08
-5 0 26 12.75 0.36
-5 1 1 56.09 1.4
-5 1 2 250.1 6.33
-5 1 3 51.09 1.21
-5 1 4 94.75 2.35
-5 1 5 30.72 0.73
-5 1 6 4.11 0.13
-5 1 7 0.99 0.05
-5 1 8 16.69 0.41
-5 1 9 270.21 6.85
-5 1 10 26.22 0.61
-5 1 11 0.13 0.03
-5 1 12 24.7 0.57
-5 1 13 8.95 0.21
-5 1 14 26.92 0.62
-5 1 15 40.8 0.93
-5 1 16 55.67 1.28
-5 1 17 16.33 0.39
-5 1 18 0.58 0.04
-5 1 19 41.31 1.07
-5 1 20 0.55 0.04
-5 1 21 1.03 0.07
-5 1 22 1.45 0.08
-5 1 23 0.22 0.05
-5 1 24 14.63 0.36
-5 1 25 1.05 0.07
-5 1 26 2.75 0.12
-5 2 1 9.13 0.22
-5 2 2 0.56 0.04
-5 2 3 4.28 0.11
-5 2 4 27.95 0.67
-5 2 5 175.08 4.44
-5 2 6 78.27 1.87
-5 2 7 20.85 0.51
-5 2 8 1.9 0.07
-5 2 9 0.13 0.03
-5 2 11 40.29 0.92
-5 2 12 23.82 0.54
-5 2 13 73.66 1.7
-5 2 14 0.75 0.04
-5 2 15 12.29 0.29
-5 2 16 3.31 0.09
-5 2 17 7.74 0.2
-5 2 18 5.03 0.13
-5 2 19 11.21 0.27
-5 2 21 0.17 0.04
-5 2 22 9.59 0.26
-5 2 23 7.38 0.29
-5 2 24 1.59 0.08
-5 3 1 19.15 0.45
-5 3 3 5.98 0.15
-5 3 4 11.2 0.27
-5 3 5 3.59 0.1
-5 3 6 4.59 0.13
-5 3 7 15.18 0.36
-5 3 8 2.33 0.07
-5 3 10 6.22 0.16
-5 3 11 0.53 0.03
-5 3 12 0.69 0.04
-5 3 14 0.82 0.05
-5 3 15 2.3 0.08
-5 3 17 0.13 0.04
-5 3 18 12.57 0.3
-5 3 19 6 0.15
-5 3 20 0.22 0.04
-5 3 21 0.81 0.05
-5 3 23 3.96 0.13
-5 3 24 8.68 0.35
-5 3 25 0.49 0.13
-5 4 1 2.98 0.09
-5 4 3 23.31 0.58
-5 4 4 22.81 0.59
-5 4 5 13.5 0.32
-5 4 7 1.11 0.05
-5 4 8 24.64 0.56
-5 4 10 22.43 0.55
-5 4 11 0.36 0.04
-5 4 12 1.96 0.07
-5 4 13 14.6 0.4
-5 4 14 7.09 0.2
-5 4 15 13.36 0.32
-5 4 17 2.38 0.09
-5 4 18 16.22 0.38
-5 4 19 0.49 0.04
-5 4 21 0.19 0.04
-5 4 22 2.58 0.1
-5 4 23 8.93 0.24
-5 5 1 2.44 0.09
-5 5 2 3.85 0.11
-5 5 3 3.17 0.1
-5 5 4 60.98 1.45
-5 5 5 0.34 0.04
-5 5 6 8.26 0.21
-5 5 7 2.36 0.08
-5 5 8 5.92 0.17
-5 5 9 2.84 0.1
-5 5 10 3.37 0.13
-5 5 12 11.54 0.28
-5 5 13 4.17 0.13
-5 5 14 47.65 1.38
-5 5 16 0.67 0.05
-5 5 17 0.47 0.05
-5 5 18 1.45 0.08
-5 5 19 1.01 0.08
-5 5 20 2.9 0.14
-5 6 2 0.37 0.04
-5 6 3 18.21 0.44
-5 6 4 2.69 0.09
-5 6 5 1.27 0.07
-5 6 6 0.8 0.05
-5 6 7 1.6 0.07
-5 6 8 11.21 0.28
-5 6 9 2.26 0.09
-5 6 10 9.01 0.25
-5 6 11 0.62 0.05
-5 6 13 1.47 0.09
-5 6 15 4.06 0.13
-5 6 16 0.27 0.07
-5 6 17 0.71 0.12
-5 7 2 0.83 0.06
-5 7 3 0.51 0.05
-5 7 4 0.35 0.06
-5 7 7 2.07 0.1
-5 7 9 2.01 0.16
-5 7 10 2.07 0.15
-5 7 11 2.58 0.16
-4 0 4 129.14 3.98
-4 0 6 48.27 2.27
-4 0 8 491.18 122.36
-4 0 10 1.83 0.14
-4 0 12 258.82 8.17
-4 0 14 1.85 0.09
-4 0 16 58.01 1.38
-4 0 18 135.86 3.5
-4 0 22 1.14 0.09
-4 0 24 1.72 0.17
-4 0 26 9.95 0.29
-4 1 1 92.18 2.21
-4 1 2 56.5 1.34
-4 1 3 1.56 0.07
-4 1 4 33.11 0.79
-4 1 6 180.53 4.63
-4 1 7 90.09 2.28
-4 1 8 180.04 4.6
-4 1 9 48.31 1.2
-4 1 11 1.95 0.08
-4 1 12 82.65 2
-4 1 13 15.54 0.38
-4 1 14 16.89 0.39
-4 1 15 0.12 0.03
-4 1 16 22.06 0.51
-4 1 17 4.64 0.12
-4 1 18 0.97 0.05
-4 1 19 54.62 1.26
-4 1 20 12.02 0.28
-4 1 21 1.49 0.07
-4 1 22 21.66 0.62
-4 1 23 9.13 0.23
-4 1 24 2.54 0.09
-4 1 25 4.14 0.13
-4 1 26 2.3 0.08
-4 1 27 5.19 0.2
-4 2 1 53.4 1.3
-4 2 2 12.64 0.31
-4 2 3 77.11 1.87
-4 2 4 60.18 1.5
-4 2 5 5.85 0.17
-4 2 6 5.75 0.16
-4 2 7 6.8 0.19
-4 2 8 83.73 2.03
-4 2 9 14.2 0.34
-4 2 10 30.94 0.73
-4 2 11 7.58 0.19
-4 2 12 0.74 0.04
-4 2 13 3.39 0.1
-4 2 14 22.88 0.53
-4 2 15 35.79 0.83
-4 2 16 10.32 0.24
-4 2 17 7.49 0.18
-4 2 18 7.98 0.2
-4 2 19 6.31 0.16
-4 2 20 0.14 0.04
-4 2 21 4.5 0.12
-4 2 22 4.02 0.11
-4 2 23 18.09 0.5
-4 2 24 2.24 0.09
-4 2 25 3.14 0.1
-4 2 26 0.97 0.09
-4 3 1 4.87 0.13
-4 3 2 13.36 0.31
-4 3 3 22.09 0.51
-4 3 4 237.08 5.9
-4 3 5 27.71 0.66
-4 3 6 8.04 0.2
-4 3 7 5.33 0.14
-4 3 8 0.21 0.03
-4 3 9 35.32 0.88
-4 3 10 63.31 1.46
-4 3 11 20.61 0.47
-4 3 12 12.35 0.3
-4 3 13 1.15 0.06
-4 3 14 32.16 0.77
-4 3 15 5.69 0.14
-4 3 16 3.99 0.11
-4 3 17 14.52 0.34
-4 3 18 2.55 0.08
-4 3 20 5.8 0.15
-4 3 21 1.53 0.07
-4 3 22 1.05 0.05
-4 3 23 0.33 0.04
-4 3 25 0.41 0.12
-4 4 1 0.15 0.03
-4 4 2 4.79 0.13
-4 4 3 59.09 1.38
-4 4 4 0.93 0.05
-4 4 5 10.76 0.27
-4 4 6 27.91 0.65
-4 4 7 9.05 0.23
-4 4 8 4.28 0.11
-4 4 9 2.11 0.07
-4 4 10 2.84 0.09
-4 4 11 0.12 0.03
-4 4 12 0.36 0.04
-4 4 13 27.78 0.73
-4 4 14 21.95 0.51
-4 4 15 0.82 0.05
-4 4 16 1.81 0.07
-4 4 17 4.57 0.14
-4 4 18 2.24 0.08
-4 4 20 4.36 0.12
-4 4 21 0.25 0.05
-4 4 22 3.05 0.15
-4 4 23 5.27 0.35
-4 5 2 21.17 0.58
-4 5 3 2.27 0.08
-4 5 4 0.5 0.04
-4 5 6 5.09 0.14
-4 5 8 7.77 0.19
-4 5 9 0.19 0.03
-4 5 10 12.15 0.29
-4 5 11 1.23 0.06
-4 5 12 7.39 0.2
-4 5 13 0.55 0.04
-4 5 14 13.25 0.32
-4 5 15 0.2 0.04
-4 5 17 1.73 0.08
-4 5 18 11.91 0.3
-4 5 19 0.4 0.05
-4 5 20 0.2 0.06
-4 6 1 0.14 0.04
-4 6 2 4.55 0.13
-4 6 3 12.6 0.3
-4 6 4 3.41 0.11
-4 6 5 5.27 0.19
-4 6 6 1.48 0.07
-4 6 7 8.84 0.22
-4 6 8 1.23 0.07
-4 6 10 0.19 0.04
-4 6 11 0.58 0.05
-4 6 12 4.26 0.13
-4 6 13 18.83 0.5
-4 6 14 4.6 0.18
-4 6 16 1.21 0.1
-4 6 17 0.42 0.07
-4 6 18 3.92 0.17
-4 7 2 4.38 0.13
-4 7 3 4.5 0.13
-4 7 4 2.51 0.09
-4 7 6 0.81 0.05
-4 7 7 2.74 0.11
-4 7 8 1.89 0.09
-4 7 9 7.11 0.2
-4 7 11 0.76 0.11
-3 0 2 14.2 0.4
-3 0 4 89.29 3.56
-3 0 6 14.61 0.41
-3 0 8 23.74 0.84
-3 0 10 4.24 0.22
-3 0 12 156.35 5.11
-3 0 14 17.59 0.59
-3 0 16 13.49 0.33
-3 0 18 34.34 0.81
-3 0 20 9.63 0.25
-3 0 22 96.87 3.35
-3 0 24 0.65 0.09
-3 0 26 3.81 0.15
-3 1 1 317.36 11.06
-3 1 2 33.7 0.81
-3 1 3 160.03 5.19
-3 1 4 229.4 5.85
-3 1 5 218.76 5.73
-3 1 6 0.34 0.04
-3 1 7 363.93 9.73
-3 1 8 8.69 0.24
-3 1 9 64.3 1.58
-3 1 10 3.85 0.15
-3 1 11 168.03 4.51
-3 1 12 54.36 1.27
-3 1 13 0.79 0.04
-3 1 14 0.29 0.03
-3 1 15 0.12 0.02
-3 1 16 31.87 0.72
-3 1 17 60.08 1.38
-3 1 18 39.1 0.9
-3 1 19 0.33 0.04
-3 1 20 2.01 0.08
-3 1 21 8.06 0.22
-3 1 22 2.13 0.09
-3 1 23 1.97 0.09
-3 1 24 0.24 0.05
-3 1 25 1.23 0.07
-3 1 26 15.54 1.93
-3 1 27 2.12 0.11
-3 2 1 83.91 2.03
-3 2 2 174.51 4.5
-3 2 3 294.31 7.38
-3 2 4 27.16 0.66
-3 2 5 2.58 0.09
-3 2 6 138.4 3.52
-3 2 7 166.09 4.23
-3 2 8 279.31 7.42
-3 2 9 51.23 1.2
-3 2 10 11.09 0.27
-3 2 11 23.08 0.55
-3 2 12 2.04 0.07
-3 2 13 53.36 1.22
-3 2 14 0.77 0.04
-3 2 15 28.77 0.65
-3 2 16 14.76 0.34
-3 2 17 1.05 0.05
-3 2 18 44.05 1.01
-3 2 19 0.42 0.04
-3 2 20 3.5 0.1
-3 2 21 10.93 0.28
-3 2 24 2.56 0.12
-3 3 1 3.73 0.1
-3 3 2 237.82 5.88
-3 3 3 6.78 0.23
-3 3 4 44.02 1.09
-3 3 5 21.2 0.53
-3 3 6 0.23 0.03
-3 3 7 4.11 0.13
-3 3 8 18.16 0.42
-3 3 9 5.57 0.19
-3 3 10 20.16 0.48
-3 3 11 1.36 0.06
-3 3 12 41.78 1.04
-3 3 13 9.25 0.22
-3 3 14 71.02 1.65
-3 3 15 1.66 0.06
-3 3 17 1.26 0.06
-3 3 18 3.69 0.1
-3 3 19 10.51 0.25
-3 3 20 4.24 0.12
-3 3 21 6.92 0.2
-3 3 22 10.03 0.25
-3 3 24 11.26 0.27
-3 3 25 2.04 0.11
-3 4 1 19.86 0.52
-3 4 2 10.44 0.25
-3 4 3 57.19 1.33
-3 4 4 28.61 0.66
-3 4 5 0.36 0.03
-3 4 6 23.98 0.62
-3 4 7 16.14 0.37
-3 4 8 0.6 0.03
-3 4 9 0.51 0.03
-3 4 10 38.36 0.88
-3 4 11 3.93 0.12
-3 4 12 2.69 0.09
-3 4 13 32.5 0.75
-3 4 14 5.99 0.15
-3 4 16 4.09 0.11
-3 4 17 10.5 0.25
-3 4 18 4.15 0.11
-3 4 19 0.25 0.04
-3 4 20 9.01 0.24
-3 4 21 0.62 0.04
-3 4 23 7.91 0.23
-3 5 1 0.16 0.03
-3 5 2 2.48 0.08
-3 5 3 4.22 0.12
-3 5 4 9.02 0.22
-3 5 5 1.14 0.06
-3 5 6 35.42 0.82
-3 5 7 3.95 0.11
-3 5 8 0.49 0.04
-3 5 9 4.18 0.12
-3 5 10 4.36 0.12
-3 5 11 1.3 0.06
-3 5 12 12.46 0.3
-3 5 13 0.35 0.04
-3 5 14 1.76 0.08
-3 5 16 16.75 0.45
-3 5 17 0.84 0.06
-3 5 18 1.23 0.08
-3 5 20 2.45 0.11
-3 6 1 7.99 0.26
-3 6 2 1.72 0.08
-3 6 3 0.9 0.06
-3 6 4 1.19 0.08
-3 6 5 0.62 0.04
-3 6 6 0.77 0.05
-3 6 7 0.72 0.04
-3 6 9 4.03 0.13
-3 6 10 3.05 0.1
-3 6 11 0.37 0.04
-3 6 12 3.74 0.11
-3 6 13 1.81 0.08
-3 6 15 0.41 0.04
-3 6 17 7.11 0.2
-3 7 1 0.69 0.05
-3 7 2 5.13 0.15
-3 7 3 0.33 0.05
-3 7 4 4.02 0.13
-3 7 5 1.79 0.08
-3 7 6 0.68 0.05
-3 7 7 0.29 0.04
-3 7 8 0.2 0.05
-3 7 9 0.28 0.05
-3 7 11 0.42 0.05
-3 7 12 5.6 0.62
-3 7 13 3.54 0.19
-2 0 2 620.51 42.35
-2 0 6 179.68 5.54
-2 0 8 472.74 13.05
-2 0 10 195.81 7.19
-2 0 12 17.41 0.45
-2 0 14 56.53 1.35
-2 0 16 11.69 0.29
-2 0 18 4.73 0.17
-2 0 20 16.71 0.63
-2 0 22 4.63 0.17
-2 0 26 3.4 0.14
-2 1 1 190.75 5.11
-2 1 2 518.47 27.09
-2 1 3 20.16 0.52
-2 1 4 360.46 23.72
-2 1 5 21.62 0.56
-2 1 6 5.75 0.16
-2 1 7 33.53 0.91
-2 1 8 305.29 8.36
-2 1 9 24 0.58
-2 1 10 34.01 0.8
-2 1 11 87.97 2.19
-2 1 12 9.6 0.24
-2 1 13 32.37 0.81
-2 1 14 18.25 0.42
-2 1 15 11.62 0.32
-2 1 16 1.02 0.05
-2 1 17 30.58 0.7
-2 1 18 8.39 0.2
-2 1 19 1.85 0.07
-2 1 20 1 0.06
-2 1 21 58.8 1.62
-2 1 22 10.94 0.33
-2 1 24 2 0.09
-2 1 25 0.54 0.06
-2 1 26 1.5 0.08
-2 1 27 10.01 0.32
-2 2 1 150.89 3.86
-2 2 2 462.72 20.52
-2 2 3 9.36 0.24
-2 2 4 22.67 0.56
-2 2 5 3.29 0.1
-2 2 6 70.61 1.77
-2 2 7 33.33 0.82
-2 2 8 28.35 0.7
-2 2 9 15.98 0.39
-2 2 10 87.97 2.17
-2 2 11 14.01 0.37
-2 2 12 109.16 2.69
-2 2 13 30.67 0.7
-2 2 14 13.41 0.31
-2 2 15 2.23 0.07
-2 2 16 37.87 0.86
-2 2 17 55.85 1.29
-2 2 18 28.37 0.65
-2 2 19 8.39 0.21
-2 2 20 7.28 0.19
-2 2 21 0.54 0.05
-2 2 22 9.71 0.25
-2 2 23 10.44 0.38
-2 2 24 0.47 0.08
-2 2 25 13.78 0.35
-2 2 26 6.91 0.53
-2 3 1 140.69 3.6
-2 3 2 66.6 1.63
-2 3 3 1.5 0.06
-2 3 4 9.06 0.23
-2 3 5 6.17 0.21
-2 3 6 353.14 9.09
-2 3 7 80.22 1.95
-2 3 8 24.9 0.6
-2 3 9 7.96 0.19
-2 3 10 22.15 0.54
-2 3 11 19.51 0.45
-2 3 12 84.92 2.05
-2 3 13 3.69 0.11
-2 3 14 5.01 0.13
-2 3 15 11.44 0.27
-2 3 16 32.94 0.78
-2 3 17 4.56 0.12
-2 3 18 9.29 0.23
-2 3 19 1.41 0.07
-2 3 20 15.55 0.36
-2 3 22 11.16 0.29
-2 3 23 1.05 0.08
-2 3 24 1.59 0.08
-2 4 1 15.79 0.39
-2 4 2 57.19 1.6
-2 4 3 32.38 0.75
-2 4 4 0.5 0.03
-2 4 5 33.52 0.9
-2 4 6 3.7 0.11
-2 4 7 36.43 0.86
-2 4 8 0.54 0.03
-2 4 9 0.35 0.03
-2 4 10 23.51 0.58
-2 4 11 17.86 0.41
-2 4 12 0.12 0.03
-2 4 13 10.87 0.26
-2 4 14 8.95 0.22
-2 4 15 10.29 0.27
-2 4 16 14.56 0.4
-2 4 17 11.25 0.32
-2 4 18 1.2 0.06
-2 4 19 0.22 0.04
-2 4 20 2.7 0.09
-2 4 21 2.26 0.08
-2 4 22 0.25 0.04
-2 4 23 3.33 0.11
-2 5 1 0.34 0.03
-2 5 2 15.23 0.41
-2 5 3 3.08 0.09
-2 5 4 3.33 0.1
-2 5 5 3.92 0.11
-2 5 7 0.22 0.03
-2 5 8 1.13 0.05
-2 5 9 0.92 0.05
-2 5 10 3.23 0.1
-2 5 11 0.53 0.04
-2 5 12 0.93 0.05
-2 5 13 5.54 0.15
-2 5 14 2.42 0.08
-2 5 16 13.43 0.32
-2 5 17 0.64 0.04
-2 5 19 1.45 0.07
-2 5 20 5.15 0.16
-2 5 21 1.47 0.08
-2 6 1 0.57 0.04
-2 6 3 14.81 0.36
-2 6 5 8.79 0.22
-2 6 7 3.4 0.11
-2 6 8 1.89 0.08
-2 6 9 2.71 0.1
-2 6 11 5.93 0.2
-2 6 12 0.41 0.05
-2 6 14 1.44 0.07
-2 6 15 5.55 0.17
-2 6 16 0.53 0.05
-2 7 1 6.04 0.17
-2 7 2 0.19 0.05
-2 7 3 0.22 0.05
-2 7 4 1.25 0.07
-2 7 5 0.19 0.04
-2 7 6 3.04 0.11
-2 7 7 3.72 0.32
-2 7 8 3.63 0.12
-2 7 9 0.42 0.06
-2 7 10 1.31 0.08
-2 7 11 2.85 0.13
-2 8 1 0.23 0.07
-2 8 2 1.69 0.1
-2 8 4 2.04 0.14
-1 0 4 941.72 38.45
-1 0 6 212.62 8.16
-1 0 8 557.29 42.28
-1 0 10 3.39 0.16
-1 0 12 121.58 3.49
-1 0 14 48.01 1.34
-1 0 16 22.87 0.54
-1 0 18 62.44 1.66
-1 0 20 43.19 1.55
-1 0 22 0.57 0.07
-1 0 24 20.76 1.48
-1 0 26 5.82 0.21
-1 1 2 157.9 4.13
-1 1 3 350.01 9.89
-1 1 4 250.82 6.8
-1 1 5 1.07 0.06
-1 1 6 0.52 0.04
-1 1 7 429.54 22.39
-1 1 8 96.55 2.44
-1 1 9 178.15 4.68
-1 1 11 76.72 2.02
-1 1 12 90.08 2.75
-1 1 13 5.63 0.14
-1 1 14 45.86 1.1
-1 1 15 10.66 0.27
-1 1 16 6.25 0.16
-1 1 17 1.78 0.07
-1 1 18 15.16 0.38
-1 1 19 9.74 0.25
-1 1 20 2.8 0.09
-1 1 21 13.61 0.35
-1 1 22 11.95 0.35
-1 1 23 1.67 0.09
-1 1 24 0.55 0.06
-1 1 25 1.25 0.08
-1 1 26 0.27 0.06
-1 1 27 0.81 0.08
-1 2 1 143.02 3.97
-1 2 2 8.25 0.2
-1 2 3 168.11 4.38
-1 2 4 226.23 5.91
-1 2 5 491.91 13.12
-1 2 6 18.67 0.45
-1 2 7 1.35 0.06
-1 2 8 45.58 1.51
-1 2 9 7.72 0.21
-1 2 10 184.73 4.81
-1 2 11 70.97 1.75
-1 2 12 33.56 0.78
-1 2 13 12.59 0.29
-1 2 14 1.21 0.05
-1 2 15 12.12 0.28
-1 2 18 5.39 0.14
-1 2 19 4.01 0.11
-1 2 20 49.87 1.43
-1 2 21 1.09 0.09
-1 2 22 19.2 0.71
-1 2 24 0.31 0.05
-1 2 25 0.42 0.05
-1 2 26 1.76 0.14
-1 3 1 0.19 0.04
-1 3 2 31.64 0.89
-1 3 3 13.36 0.35
-1 3 4 54.62 1.32
-1 3 5 0.74 0.05
-1 3 6 103.19 2.65
-1 3 7 1.78 0.06
-1 3 8 6.6 0.27
-1 3 9 1.11 0.06
-1 3 10 31.34 0.89
-1 3 11 41.58 1.01
-1 3 12 0.22 0.03
-1 3 13 1.13 0.05
-1 3 14 26.41 0.64
-1 3 15 5.99 0.17
-1 3 16 117.4 2.94
-1 3 17 11.99 0.35
-1 3 18 1.12 0.05
-1 3 19 4.12 0.14
-1 3 20 0.27 0.04
-1 3 21 12.83 0.39
-1 3 22 5.01 0.15
-1 3 23 2.18 0.09
-1 3 24 12.81 0.47
-1 3 25 0.87 0.23
-1 4 1 5.43 0.17
-1 4 2 9.41 0.22
-1 4 4 0.42 0.03
-1 4 5 59.41 1.6
-1 4 6 78.66 1.89
-1 4 7 27.86 0.64
-1 4 8 7.36 0.23
-1 4 9 1.31 0.05
-1 4 11 3.01 0.09
-1 4 12 20.65 0.48
-1 4 13 0.28 0.03
-1 4 14 3.53 0.1
-1 4 15 38.27 1.03
-1 4 16 4.21 0.12
-1 4 17 10.68 0.26
-1 4 19 0.53 0.04
-1 4 20 9.99 0.25
-1 4 21 2.51 0.09
-1 4 22 1.26 0.08
-1 5 1 9.49 0.24
-1 5 2 67.78 1.72
-1 5 3 1.17 0.05
-1 5 4 4.66 0.13
-1 5 5 0.17 0.03
-1 5 6 31.03 0.71
-1 5 7 0.94 0.04
-1 5 8 0.76 0.05
-1 5 9 6.65 0.17
-1 5 10 14.35 0.35
-1 5 11 1.62 0.07
-1 5 12 13.34 0.52
-1 5 14 1.83 0.08
-1 5 15 1.22 0.07
-1 5 16 0.23 0.04
-1 5 17 0.43 0.05
-1 5 19 0.25 0.05
-1 6 1 1.98 0.07
-1 6 2 5.99 0.21
-1 6 4 1.66 0.07
-1 6 5 0.74 0.04
-1 6 6 8.8 0.23
-1 6 7 8.64 0.23
-1 6 8 2.46 0.1
-1 6 10 0.49 0.05
-1 6 12 0.19 0.05
-1 6 13 3.09 0.12
-1 6 15 5.13 0.18
-1 6 16 0.62 0.06
-1 6 17 2.05 0.18
-1 6 18 0.61 0.09
-1 7 1 1.41 0.07
-1 7 3 2.94 0.1
-1 7 4 3.27 0.11
-1 7 5 0.21 0.04
-1 7 6 3.6 0.11
-1 7 8 0.35 0.05
-1 7 11 4.2 0.31
-1 7 13 0.2 0.06
-1 7 14 3.36 0.19
-1 8 2 0.89 0.14
-1 8 4 0.65 0.11
-1 8 5 0.53 0.11
0 0 2 139.44 19.34
0 0 4 72.56 1.85
0 0 6 1011.45 33.67
0 0 8 273.98 9.68
0 0 10 405.11 28.66
0 0 12 16.14 0.42
0 0 14 53.9 1.49
0 0 16 11.73 0.31
0 0 18 2.09 0.12
0 0 20 12.1 0.45
0 0 22 17.24 0.76
0 0 24 1.87 0.13
0 1 1 450.54 22.62
0 1 2 90.2 2.19
0 1 3 18.72 0.56
0 1 4 1203.06 49.14
0 1 5 72.64 1.79
0 1 6 332.16 13.53
0 1 7 37.11 0.94
0 1 8 28.76 0.72
0 1 9 39.4 0.94
0 1 10 160.56 4.52
0 1 11 223.57 6.3
0 1 12 0.18 0.03
0 1 13 26.22 0.72
0 1 14 8.99 0.21
0 1 15 3.59 0.1
0 1 16 3.75 0.11
0 1 17 20.94 0.52
0 1 18 25.69 0.59
0 1 19 51.29 1.48
0 1 20 3.29 0.1
0 1 21 15.91 0.39
0 1 22 4.04 0.13
0 1 23 10.58 0.44
0 1 24 4.14 0.15
0 1 25 0.84 0.07
0 1 26 1.9 0.11
0 2 0 13.37 0.35
0 2 1 73.87 1.79
0 2 2 130.52 3.22
0 2 4 181.44 5.01
0 2 5 49.32 1.2
0 2 6 5.35 0.19
0 2 7 139.03 4.09
0 2 8 0.43 0.03
0 2 9 54.18 1.48
0 2 10 26.12 0.84
0 2 11 1.62 0.08
0 2 12 16.73 0.42
0 2 13 10.17 0.27
0 2 14 57.44 1.31
0 2 15 97.4 2.29
0 2 16 2.76 0.08
0 2 18 11.74 0.28
0 2 19 12.16 0.36
0 2 20 25.63 0.76
0 2 21 13.01 0.33
0 2 22 0.4 0.06
0 2 23 3.91 0.14
0 2 24 6.78 0.49
0 2 25 7.6 0.22
0 2 26 0.88 0.16
0 3 1 50 1.23
0 3 2 114.09 2.95
0 3 3 84.55 2.14
0 3 4 56.34 1.41
0 3 5 15.12 0.45
0 3 6 0.22 0.03
0 3 7 0.89 0.06
0 3 8 95.27 2.4
0 3 9 39.74 0.92
0 3 10 1.27 0.05
0 3 11 1.35 0.05
0 3 12 8.67 0.22
0 3 14 27.85 0.68
0 3 15 0.24 0.03
0 3 16 1.19 0.05
0 3 17 5 0.14
0 3 18 4.94 0.14
0 3 19 0.41 0.04
0 3 20 12.87 0.32
0 3 21 2.72 0.12
0 3 22 4.32 0.16
0 3 24 6.48 0.18
0 4 0 2.54 0.09
0 4 1 10.79 0.4
0 4 2 53.17 1.49
0 4 3 3.72 0.1
0 4 4 11.56 0.31
0 4 5 71.97 1.84
0 4 6 6.13 0.18
0 4 7 0.19 0.03
0 4 8 5.42 0.14
0 4 9 6.24 0.17
0 4 10 15.92 0.41
0 4 11 0.57 0.04
0 4 12 23.53 0.59
0 4 13 6.33 0.16
0 4 14 0.11 0.03
0 4 15 27.09 0.66
0 4 16 17.06 0.48
0 4 17 0.75 0.05
0 4 18 2.37 0.09
0 4 19 3.52 0.13
0 4 20 4.04 0.12
0 4 22 1.19 0.07
0 4 23 0.86 0.13
0 5 2 6.95 0.18
0 5 3 1.07 0.06
0 5 4 23.46 0.61
0 5 5 3 0.09
0 5 6 70.08 1.68
0 5 8 5.9 0.17
0 5 9 0.11 0.03
0 5 10 0.24 0.04
0 5 11 3.86 0.12
0 5 12 8.3 0.22
0 5 13 0.95 0.06
0 5 14 14.19 0.43
0 5 15 1.59 0.1
0 5 16 23.89 0.66
0 5 17 0.33 0.05
0 5 18 0.82 0.07
0 5 19 1.89 0.09
0 5 20 2.83 0.14
0 5 21 0.62 0.12
0 6 0 15.87 0.56
0 6 1 5.6 0.17
0 6 2 9.01 0.23
0 6 3 3.78 0.12
0 6 4 0.63 0.05
0 6 5 26.75 0.63
0 6 6 0.13 0.04
0 6 7 0.18 0.04
0 6 8 0.75 0.06
0 6 9 0.52 0.05
0 6 10 11.68 0.36
0 6 11 1.19 0.07
0 6 12 4.91 0.15
0 6 13 4.56 0.13
0 6 14 0.3 0.05
0 6 15 1.65 0.08
0 6 16 1.94 0.1
0 6 17 0.59 0.07
0 7 1 7.87 0.2
0 7 3 0.67 0.05
0 7 5 0.81 0.05
0 7 8 0.99 0.07
0 7 9 6.64 0.18
0 7 10 1.56 0.09
0 7 11 0.67 0.09
0 8 2 0.25 0.07
1 0 0 352.82 19.2
1 0 2 11.25 0.29
1 0 6 234.92 20.26
1 0 8 75.61 2.05
1 0 10 749.53 23.26
1 0 12 6.33 0.29
1 0 14 88.29 2.33
1 0 16 12.56 0.33
1 0 18 90 2.61
1 0 20 93.36 2.61
1 0 22 4.16 0.18
1 0 24 1.01 0.19
1 0 26 0.63 0.11
1 1 1 38.46 0.95
1 1 2 427.79 20.83
1 1 3 734.38 28.59
1 1 4 69.27 1.99
1 1 5 117.47 3.45
1 1 6 234.03 7.08
1 1 7 20.15 0.56
1 1 8 97.55 2.45
1 1 9 200.22 5.5
1 1 10 77.68 1.95
1 1 11 0.13 0.04
1 1 12 2.02 0.07
1 1 13 6.8 0.17
1 1 14 131.59 3.15
1 1 15 4.49 0.14
1 1 16 23.87 0.58
1 1 17 3.69 0.11
1 1 18 4.24 0.12
1 1 19 11.85 0.29
1 1 20 5.02 0.14
1 1 21 10.31 0.29
1 1 22 2.91 0.11
1 1 23 8.45 0.22
1 1 24 13.74 0.39
1 1 25 2.44 0.11
1 1 26 0.48 0.07
1 2 0 324.46 8.09
1 2 1 270.53 6.93
1 2 2 0.1 0.03
1 2 3 364.73 11.44
1 2 4 19.27 0.58
1 2 5 90.56 2.35
1 2 6 156.1 4.06
1 2 7 81.34 2.59
1 2 8 6.2 0.22
1 2 9 7.27 0.25
1 2 10 4.83 0.19
1 2 11 8.79 0.29
1 2 12 14.36 0.35
1 2 13 27.57 0.67
1 2 14 6.67 0.17
1 2 15 0.92 0.04
1 2 16 5.76 0.15
1 2 17 4.32 0.12
1 2 18 0.15 0.04
1 2 19 6.15 0.18
1 2 20 0.56 0.05
1 2 21 2.37 0.09
1 2 22 11.99 0.3
1 2 23 0.43 0.05
1 2 24 9.65 0.41
1 2 25 9.79 0.29
1 3 0 18.33 0.45
1 3 1 30.28 0.75
1 3 2 46.59 1.17
1 3 4 7.79 0.21
1 3 5 20.51 0.54
1 3 6 43.64 1.08
1 3 7 18.39 0.47
1 3 8 24.41 0.6
1 3 9 9.43 0.22
1 3 10 0.64 0.03
1 3 11 14.54 0.34
1 3 12 33.97 0.8
1 3 13 28.02 0.68
1 3 14 15.24 0.38
1 3 15 0.87 0.04
1 3 16 0.26 0.03
1 3 17 1.51 0.06
1 3 18 38.67 0.98
1 3 19 15.24 0.4
1 3 20 0.27 0.05
1 3 21 1.12 0.07
1 3 23 2.23 0.14
1 3 24 3.97 0.31
1 4 0 16.6 0.43
1 4 1 0.6 0.03
1 4 2 51.59 1.33
1 4 3 13.73 0.33
1 4 4 2.61 0.08
1 4 5 49.17 1.23
1 4 6 7.82 0.19
1 4 7 1.28 0.06
1 4 8 55.11 1.34
1 4 9 11.22 0.32
1 4 11 1.24 0.06
1 4 12 1.55 0.06
1 4 13 8.14 0.2
1 4 14 1.64 0.06
1 4 15 18.02 0.55
1 4 16 12.64 0.4
1 4 17 4.11 0.12
1 4 18 0.73 0.05
1 4 19 4.34 0.13
1 4 20 2.52 0.12
1 4 22 6.05 0.23
1 5 0 4.05 0.11
1 5 2 11.4 0.28
1 5 3 0.58 0.04
1 5 4 84.78 2.02
1 5 5 4.1 0.11
1 5 6 0.19 0.03
1 5 7 0.91 0.06
1 5 8 7.59 0.2
1 5 9 0.75 0.04
1 5 10 2.29 0.09
1 5 11 0.92 0.05
1 5 12 22.55 0.61
1 5 13 0.36 0.04
1 5 14 20.11 0.49
1 5 15 0.22 0.05
1 5 16 7.27 0.2
1 5 17 0.24 0.05
1 5 19 0.25 0.05
1 5 20 2.03 0.11
1 6 0 6.01 0.16
1 6 1 5.51 0.15
1 6 2 2.69 0.09
1 6 3 0.59 0.04
1 6 4 4.85 0.14
1 6 5 10.74 0.3
1 6 6 3.71 0.11
1 6 7 0.31 0.05
1 6 8 12.14 0.3
1 6 9 11.07 0.3
1 6 10 6.21 0.17
1 6 13 2.14 0.09
1 6 14 0.65 0.06
1 6 15 10.84 0.27
1 6 16 1.21 0.09
1 6 17 1.74 0.12
1 7 0 1.84 0.08
1 7 1 1.42 0.07
1 7 2 0.57 0.05
1 7 3 0.41 0.04
1 7 4 1.49 0.06
1 7 5 3.44 0.1
1 7 9 4.15 0.12
1 7 10 0.5 0.07
1 7 11 2.15 0.37
1 7 13 1.65 0.18
1 8 0 3.91 0.14
2 0 0 24.67 0.6
2 0 4 8.32 0.47
2 0 6 3.82 0.15
2 0 8 107.71 3.93
2 0 10 35.89 0.93
2 0 12 78.38 2.61
2 0 14 103.81 3.25
2 0 16 35.94 0.84
2 0 18 5.1 0.22
2 0 20 19.6 0.64
2 0 22 14.53 0.38
2 0 24 32.54 0.81
2 1 0 379.44 12.73
2 1 1 67.36 1.67
2 1 2 2.72 0.1
2 1 3 485.11 12.99
2 1 4 9.85 0.26
2 1 5 20.8 0.51
2 1 6 438.29 11.35
2 1 7 31.57 0.85
2 1 8 48.53 1.16
2 1 9 191.18 5.41
2 1 10 45.45 1.15
2 1 11 1.8 0.07
2 1 12 24.61 0.57
2 1 13 123.58 2.95
2 1 14 3.17 0.1
2 1 15 5.47 0.14
2 1 16 0.45 0.04
2 1 17 4.84 0.14
2 1 18 21.18 0.5
2 1 19 34.5 0.87
2 1 20 25.7 0.82
2 1 21 9.41 0.32
2 1 22 0.63 0.06
2 1 23 6.96 0.35
2 1 24 7.88 0.21
2 2 0 516.05 13.25
2 2 1 1.66 0.07
2 2 2 2.97 0.1
2 2 3 16.85 0.41
2 2 4 1.07 0.06
2 2 5 147.76 3.88
2 2 6 10.05 0.27
2 2 7 57.72 1.97
2 2 8 56.36 1.37
2 2 9 78.74 2.9
2 2 10 74.21 1.85
2 2 11 31.59 0.76
2 2 12 0.38 0.03
2 2 13 35.83 0.84
2 2 14 1.66 0.06
2 2 15 12.92 0.37
2 2 16 12.83 0.42
2 2 17 47.64 1.34
2 2 18 2.22 0.1
2 2 20 1.96 0.08
2 2 22 2.87 0.1
2 2 23 11.22 0.39
2 3 0 12.47 0.31
2 3 1 28.24 0.67
2 3 2 89.67 2.31
2 3 3 4.19 0.13
2 3 4 215.7 5.77
2 3 5 7.54 0.22
2 3 6 2.18 0.09
2 3 7 27.75 0.68
2 3 8 1.75 0.06
2 3 9 1.31 0.06
2 3 10 2.27 0.07
2 3 11 0.16 0.03
2 3 12 3.76 0.1
2 3 13 0.11 0.03
2 3 14 8.26 0.24
2 3 15 4.93 0.14
2 3 16 3.78 0.12
2 3 17 0.24 0.04
2 3 18 1.53 0.08
2 3 19 0.32 0.05
2 3 20 0.24 0.05
2 3 21 1.64 0.11
2 3 22 4.58 0.18
2 3 23 4.74 0.28
2 4 0 11.7 0.31
2 4 2 1.82 0.06
2 4 3 51.76 1.26
2 4 4 50.99 1.23
2 4 5 17.76 0.43
2 4 6 3.3 0.1
2 4 7 17.12 0.46
2 4 8 4.97 0.14
2 4 9 6.8 0.18
2 4 10 1.62 0.07
2 4 11 0.19 0.03
2 4 12 34.62 0.8
2 4 13 11.47 0.28
2 4 14 7.65 0.28
2 4 15 5.65 0.15
2 4 17 6.64 0.19
2 4 18 10.81 0.34
2 4 19 3.45 0.13
2 4 20 0.3 0.04
2 4 21 0.25 0.05
2 4 22 1.99 0.16
2 5 0 10.8 0.3
2 5 1 3.62 0.1
2 5 2 1.71 0.07
2 5 3 1.27 0.06
2 5 4 2.74 0.08
2 5 5 1.11 0.05
2 5 6 1.72 0.07
2 5 7 0.26 0.04
2 5 8 68.36 1.65
2 5 9 5.6 0.16
2 5 10 3.58 0.11
2 5 11 0.3 0.04
2 5 12 0.76 0.06
2 5 13 1.57 0.09
2 5 14 18.35 0.49
2 5 15 1.12 0.07
2 5 16 6.98 0.21
2 5 17 0.15 0.05
2 5 18 15.68 0.75
2 5 19 1.05 0.1
2 6 0 0.75 0.04
2 6 1 0.43 0.04
2 6 2 6.77 0.17
2 6 3 12.13 0.3
2 6 4 6.56 0.17
2 6 5 0.14 0.04
2 6 6 0.27 0.04
2 6 7 5.05 0.17
2 6 8 0.66 0.04
2 6 9 0.54 0.05
2 6 11 3.2 0.1
2 6 12 7.46 0.24
2 6 13 0.6 0.05
2 6 14 4.03 0.14
2 6 16 0.84 0.23
2 7 0 1.12 0.07
2 7 1 2.06 0.1
2 7 2 0.29 0.05
2 7 3 1.92 0.08
2 7 4 4.15 0.13
2 7 6 2.06 0.08
2 7 7 3.14 0.11
2 7 8 0.35 0.05
2 7 9 0.32 0.06
2 7 10 0.27 0.08
2 7 11 0.42 0.11
2 8 0 2.32 0.11
3 0 0 406.96 43.57
3 0 2 185.48 6.45
3 0 4 21.73 0.82
3 0 6 595.13 18.29
3 0 8 10.85 0.61
3 0 10 1.25 0.09
3 0 12 280.35 8.35
3 0 14 3.89 0.12
3 0 16 11.06 0.28
3 0 18 10.48 0.27
3 0 20 36.11 3.35
3 0 22 37.68 1.03
3 0 24 1.94 0.15
3 1 0 109.63 2.69
3 1 1 426.32 10.68
3 1 2 448.6 11.06
3 1 3 41.52 1.02
3 1 4 11.39 0.28
3 1 5 5.19 0.14
3 1 6 4.98 0.17
3 1 7 29.6 0.71
3 1 8 38.82 0.93
3 1 9 1.42 0.07
3 1 10 85.07 2.19
3 1 11 13.42 0.31
3 1 12 10.9 0.25
3 1 13 36.72 0.85
3 1 14 0.65 0.04
3 1 15 3.18 0.09
3 1 16 60.22 1.49
3 1 17 1.44 0.06
3 1 18 2.89 0.09
3 1 19 7.8 0.23
3 1 20 0.41 0.04
3 1 21 4.28 0.21
3 1 22 1 0.09
3 1 23 22.59 1.24
3 1 24 4.6 0.15
3 2 0 1.86 0.07
3 2 1 7.8 0.21
3 2 2 277.51 7.28
3 2 3 101.78 2.55
3 2 4 92.01 2.22
3 2 5 62.09 1.56
3 2 6 43.75 1.08
3 2 7 3.61 0.14
3 2 8 100.84 2.62
3 2 9 2.3 0.08
3 2 10 11.22 0.32
3 2 11 8.97 0.23
3 2 12 22.1 0.53
3 2 13 2.98 0.09
3 2 14 7.91 0.2
3 2 15 1.28 0.06
3 2 16 1.84 0.08
3 2 17 7.14 0.22
3 2 18 21.13 0.63
3 2 19 14.74 0.5
3 2 20 6.33 0.18
3 2 21 5.27 0.15
3 2 22 1.78 0.08
3 2 23 1.03 0.09
3 3 0 71.06 1.69
3 3 1 1.94 0.07
3 3 2 20.01 0.47
3 3 3 96.4 2.35
3 3 4 105.7 2.59
3 3 5 0.11 0.02
3 3 6 19.83 0.47
3 3 7 2.03 0.06
3 3 8 111 2.75
3 3 9 33.79 0.81
3 3 10 0.21 0.03
3 3 11 15.33 0.36
3 3 12 33.05 0.76
3 3 13 12.29 0.3
3 3 14 48.76 1.32
3 3 15 4.51 0.19
3 3 16 8.44 0.25
3 3 17 6.98 0.22
3 3 18 2.19 0.09
3 3 19 0.73 0.06
3 3 20 0.49 0.05
3 3 21 3.59 0.17
3 3 22 5.54 0.47
3 4 0 5.83 0.16
3 4 1 0.31 0.04
3 4 2 2.06 0.07
3 4 3 17.52 0.44
3 4 4 36.37 0.84
3 4 5 0.19 0.03
3 4 6 0.27 0.03
3 4 7 51.74 1.23
3 4 8 19.31 0.47
3 4 9 9.67 0.33
3 4 10 10.83 0.43
3 4 12 1.78 0.07
3 4 13 12.88 0.44
3 4 14 3.13 0.11
3 4 16 2.35 0.1
3 4 17 16.34 0.39
3 4 18 9.77 0.24
3 4 19 1.04 0.07
3 5 0 16.43 0.43
3 5 1 8.68 0.21
3 5 2 2.9 0.09
3 5 5 1.67 0.06
3 5 6 15.03 0.36
3 5 7 4.48 0.13
3 5 8 1.48 0.08
3 5 9 0.38 0.04
3 5 12 1.32 0.12
3 5 13 0.3 0.04
3 5 14 1.54 0.09
3 5 15 1.93 0.08
3 5 16 4.29 0.13
3 5 18 13.97 1.15
3 6 0 0.31 0.04
3 6 1 0.79 0.05
3 6 2 1.31 0.07
3 6 3 0.75 0.06
3 6 4 0.96 0.06
3 6 5 3.03 0.1
3 6 6 0.64 0.05
3 6 7 13.99 0.35
3 6 8 0.17 0.04
3 6 9 0.96 0.06
3 6 10 2.02 0.09
3 6 11 2.33 0.1
3 6 12 2.69 0.09
3 6 13 3.88 0.11
3 6 14 0.33 0.06
3 6 15 0.83 0.15
3 7 0 1.21 0.06
3 7 2 3.5 0.11
3 7 3 4.6 0.13
3 7 4 0.7 0.06
3 7 6 0.44 0.07
3 7 8 1.07 0.09
3 7 9 2.04 0.18
3 7 10 1.41 0.09
4 0 0 43.73 1.09
4 0 4 37.39 0.92
4 0 6 13.21 0.37
4 0 8 1.05 0.1
4 0 10 4.28 0.13
4 0 12 2.93 0.13
4 0 16 49.55 1.27
4 0 18 0.19 0.06
4 0 22 32.68 0.87
4 1 0 2.42 0.08
4 1 1 151.62 3.84
4 1 2 187.26 4.84
4 1 3 210.46 5.42
4 1 4 3.06 0.1
4 1 5 91.97 2.34
4 1 6 40.34 0.98
4 1 7 8.3 0.22
4 1 8 28.24 0.66
4 1 9 20.44 0.54
4 1 10 0.25 0.03
4 1 11 128.76 3.12
4 1 12 11.6 0.29
4 1 13 6.14 0.17
4 1 14 2.52 0.08
4 1 15 9.72 0.25
4 1 16 3.22 0.1
4 1 17 8.82 0.26
4 1 18 0.5 0.05
4 1 19 1.36 0.07
4 1 20 18.44 0.68
4 1 21 13.8 0.35
4 1 22 5.01 0.18
4 2 0 118.05 2.96
4 2 1 73.52 1.78
4 2 2 293.75 7.46
4 2 3 54.89 1.3
4 2 4 15.59 0.4
4 2 5 0.65 0.05
4 2 6 6.46 0.19
4 2 7 151.76 3.8
4 2 8 0.71 0.04
4 2 9 13.97 0.34
4 2 10 39.99 0.97
4 2 11 1.18 0.05
4 2 12 102.02 2.42
4 2 13 27.5 0.63
4 2 14 11.33 0.28
4 2 15 27.68 0.65
4 2 16 2.36 0.1
4 2 17 5.21 0.15
4 2 18 5.8 0.17
4 2 19 3.04 0.13
4 2 20 2.99 0.12
4 2 21 2.47 0.19
4 2 22 13.32 0.36
4 3 0 5.61 0.14
4 3 1 35.99 0.84
4 3 2 1.1 0.05
4 3 3 1.33 0.06
4 3 4 47.83 1.13
4 3 5 3.3 0.1
4 3 6 100.34 2.47
4 3 7 0.38 0.04
4 3 8 52.35 1.34
4 3 9 6.06 0.18
4 3 10 9.75 0.28
4 3 11 0.38 0.04
4 3 13 13.51 0.33
4 3 16 24.2 0.57
4 3 17 3.01 0.1
4 3 18 34.1 1.23
4 3 19 2.62 0.12
4 4 0 62.16 1.67
4 4 1 0.54 0.03
4 4 2 0.53 0.03
4 4 3 2.53 0.08
4 4 4 1.39 0.06
4 4 5 18.75 0.45
4 4 6 12.93 0.31
4 4 7 38.56 0.95
4 4 8 19.9 0.47
4 4 9 0.86 0.06
4 4 10 1.34 0.07
4 4 11 0.4 0.04
4 4 12 0.19 0.04
4 4 13 0.56 0.04
4 4 14 21.58 0.57
4 4 15 5.32 0.15
4 4 16 0.16 0.05
4 4 17 18.65 0.44
4 4 18 0.25 0.05
4 4 19 0.2 0.06
4 5 0 0.13 0.03
4 5 1 1.9 0.07
4 5 2 0.77 0.04
4 5 3 3.3 0.1
4 5 4 21.24 0.56
4 5 5 2 0.07
4 5 6 8.85 0.25
4 5 7 0.13 0.04
4 5 8 1.88 0.12
4 5 10 14.15 0.34
4 5 11 7.5 0.19
4 5 12 1.65 0.1
4 5 16 7.85 0.28
4 5 17 1.14 0.1
4 6 0 0.9 0.06
4 6 1 3.36 0.13
4 6 2 0.45 0.05
4 6 3 0.6 0.04
4 6 5 2.56 0.09
4 6 7 0.74 0.05
4 6 8 2.01 0.1
4 6 9 1.87 0.09
4 6 12 0.16 0.04
4 6 14 1.08 0.33
4 7 0 0.2 0.04
4 7 1 4.73 0.14
4 7 2 0.84 0.06
4 7 5 0.81 0.09
4 7 6 6.24 0.44
4 7 7 0.49 0.08
4 7 8 3.66 0.16
5 0 0 64.16 1.73
5 0 2 657.78 19.9
5 0 4 12.02 0.33
5 0 6 6.63 0.22
5 0 8 145.85 4.31
5 0 10 73.35 1.82
5 0 12 17.04 0.41
5 0 14 15.55 0.39
5 0 16 15.42 0.55
5 0 18 1.85 0.12
5 0 20 1.98 0.13
5 1 0 0.43 0.04
5 1 1 107.3 2.79
5 1 2 58.12 1.41
5 1 3 1.84 0.1
5 1 4 39.46 0.96
5 1 5 1.2 0.07
5 1 6 82.45 2.1
5 1 7 5.1 0.14
5 1 8 1.39 0.06
5 1 9 1.83 0.07
5 1 10 0.75 0.04
5 1 11 28.69 0.71
5 1 12 55.83 1.33
5 1 13 17.34 0.41
5 1 14 0.27 0.04
5 1 15 18.97 0.45
5 1 18 5.73 0.17
5 1 19 0.89 0.07
5 1 20 1.4 0.1
5 1 21 25.05 0.6
5 2 0 24.11 0.56
5 2 1 25.31 0.59
5 2 2 3.44 0.1
5 2 3 23.97 0.56
5 2 4 59.46 1.42
5 2 5 14.8 0.35
5 2 6 48.35 1.18
5 2 7 4.21 0.12
5 2 8 13.93 0.33
5 2 9 10.67 0.26
5 2 10 40.23 0.93
5 2 11 10.31 0.28
5 2 12 21.4 0.53
5 2 14 5.91 0.17
5 2 16 12.43 0.3
5 2 17 25.79 1.2
5 2 18 3.1 0.13
5 2 19 2.86 0.13
5 2 20 18.07 0.44
5 3 0 119.01 2.89
5 3 1 25.81 0.6
5 3 2 5.21 0.14
5 3 3 4.26 0.12
5 3 4 3.78 0.11
5 3 5 39.87 0.95
5 3 6 86.73 2.19
5 3 7 4.32 0.12
5 3 8 3.15 0.1
5 3 9 0.24 0.04
5 3 10 35.39 0.93
5 3 11 20.07 0.59
5 3 12 0.52 0.04
5 3 13 4.08 0.16
5 3 14 29.32 0.78
5 3 15 0.92 0.06
5 3 16 33.86 0.82
5 3 19 4.35 0.15
5 4 0 8.49 0.21
5 4 1 4.32 0.12
5 4 2 0.11 0.03
5 4 3 1.08 0.05
5 4 4 23.63 0.65
5 4 5 17.63 0.42
5 4 6 8.15 0.21
5 4 7 17.53 0.41
5 4 9 7.45 0.21
5 4 10 16.05 0.38
5 4 11 2.67 0.1
5 4 12 0.54 0.05
5 4 14 2.46 0.12
5 4 15 12.31 0.32
5 4 16 1.33 0.08
5 4 17 5.05 0.15
5 5 0 4.98 0.13
5 5 1 0.12 0.03
5 5 2 4.63 0.13
5 5 3 1.16 0.05
5 5 4 3.28 0.11
5 5 5 0.34 0.04
5 5 6 6.21 0.17
5 5 7 1.12 0.07
5 5 8 6.97 0.2
5 5 9 0.22 0.05
5 5 10 0.17 0.05
5 5 13 0.38 0.05
5 5 14 2.65 0.11
5 5 15 0.8 0.11
5 5 16 2.81 0.17
5 6 0 6.76 0.19
5 6 1 4.33 0.18
5 6 2 4.01 0.12
5 6 3 1.86 0.08
5 6 4 1.35 0.1
5 6 5 6.98 0.32
5 6 6 2.87 0.15
5 6 7 11.32 0.29
5 6 8 0.66 0.06
5 6 9 2.18 0.09
5 6 12 0.47 0.12
5 7 0 1.61 0.14
5 7 1 8.14 0.26
5 7 2 1.51 0.09
5 7 3 1.85 0.12
5 7 6 0.5 0.08
6 0 0 236.61 7.07
6 0 2 29.48 0.85
6 0 4 1.63 0.1
6 0 6 46.43 1.45
6 0 8 15.86 0.39
6 0 10 33.16 0.85
6 0 12 92.35 2.39
6 0 14 4.41 0.23
6 0 16 2.28 0.11
6 0 18 12.46 0.56
6 0 20 23.5 1.96
6 1 0 0.61 0.05
6 1 1 178.91 5.34
6 1 2 59.41 1.53
6 1 3 21.83 0.57
6 1 4 55.51 1.38
6 1 5 58.4 1.39
6 1 6 20.71 0.49
6 1 7 11.28 0.28
6 1 8 42.68 0.99
6 1 9 35.19 0.81
6 1 10 0.28 0.04
6 1 11 31.91 0.77
6 1 12 0.59 0.04
6 1 13 13.79 0.39
6 1 15 1.98 0.08
6 1 16 26.99 0.63
6 1 17 0.44 0.05
6 1 18 3.2 0.12
6 1 19 6.07 0.17
6 2 1 9.54 0.27
6 2 3 13.08 0.38
6 2 4 45.49 1.13
6 2 5 95.43 2.35
6 2 6 2.14 0.08
6 2 7 1.04 0.06
6 2 8 5.16 0.15
6 2 9 33.31 0.86
6 2 10 1.38 0.06
6 2 11 5.72 0.16
6 2 12 3.1 0.1
6 2 13 7.06 0.18
6 2 14 33.99 1.07
6 2 15 15.91 0.5
6 2 16 8.33 0.22
6 2 17 1.46 0.08
6 2 18 0.72 0.08
6 3 0 0.3 0.03
6 3 2 0.63 0.04
6 3 3 0.71 0.04
6 3 4 0.25 0.03
6 3 5 0.13 0.04
6 3 6 0.21 0.04
6 3 7 4.68 0.14
6 3 8 5.91 0.17
6 3 9 3.44 0.11
6 3 10 31.54 0.89
6 3 11 1.66 0.11
6 3 12 1.28 0.07
6 3 13 0.55 0.05
6 3 15 12.68 0.33
6 3 16 5.86 0.18
6 3 17 0.56 0.1
6 3 18 8.6 0.33
6 4 0 15.82 0.41
6 4 2 24.6 0.75
6 4 3 0.23 0.04
6 4 4 5.98 0.16
6 4 5 13.52 0.36
6 4 6 0.76 0.06
6 4 7 1.9 0.08
6 4 9 7.62 0.21
6 4 10 16.61 0.74
6 4 11 1.84 0.09
6 4 12 0.25 0.05
6 4 14 2.95 0.12
6 4 15 4.87 0.14
6 4 16 3.76 0.13
6 5 0 25.6 0.7
6 5 1 3.85 0.11
6 5 2 0.22 0.03
6 5 3 0.61 0.04
6 5 4 14.39 0.4
6 5 6 44.46 1.07
6 5 7 3.13 0.11
6 5 8 0.58 0.06
6 5 9 1.35 0.08
6 5 10 0.41 0.06
6 5 12 0.45 0.07
6 5 13 1.63 0.1
6 5 14 8.3 0.26
6 6 0 11.52 0.33
6 6 1 2.05 0.07
6 6 2 4.55 0.13
6 6 3 5.08 0.19
6 6 4 0.27 0.05
6 6 5 1.09 0.07
6 6 7 1.69 0.1
6 6 8 0.81 0.07
6 6 9 0.47 0.09
6 6 10 7.04 0.24
6 6 11 4.97 0.2
6 7 0 1.76 0.16
6 7 1 0.48 0.1
7 0 0 113.19 3.81
7 0 2 33.09 1.35
7 0 4 255.74 9.84
7 0 6 1.12 0.11
7 0 8 43.88 1.07
7 0 10 57.75 1.41
7 0 12 17.7 0.46
7 0 14 12.2 0.45
7 0 16 8.85 0.31
7 0 18 16.64 0.67
7 1 0 80.45 2.38
7 1 1 1.09 0.08
7 1 2 0.16 0.04
7 1 3 7.04 0.22
7 1 4 34.27 0.8
7 1 5 39.55 0.93
7 1 6 0.85 0.06
7 1 7 1.42 0.07
7 1 8 46.83 1.1
7 1 10 3.19 0.1
7 1 11 16.59 0.42
7 1 12 15.44 0.43
7 1 13 15.5 0.42
7 1 14 24.44 0.57
7 1 15 22.78 0.64
7 1 17 3.66 0.13
7 1 18 0.45 0.06
7 2 0 33.81 0.93
7 2 1 10.17 0.28
7 2 2 6.04 0.16
7 2 3 4.78 0.14
7 2 4 0.54 0.04
7 2 5 0.66 0.04
7 2 6 5.64 0.15
7 2 7 3.13 0.11
7 2 8 6.84 0.19
7 2 9 20.31 0.52
7 2 10 0.84 0.05
7 2 11 10.09 0.31
7 2 12 0.34 0.04
7 2 13 4.18 0.15
7 2 14 6.87 0.19
7 2 15 11.98 0.33
7 2 16 1.03 0.1
7 2 18 4.01 0.15
7 3 0 0.57 0.04
7 3 1 26.42 0.62
7 3 2 21.51 0.5
7 3 3 14.34 0.34
7 3 4 13.54 0.33
7 3 5 1.05 0.07
7 3 6 6.27 0.17
7 3 7 3.04 0.13
7 3 8 11.67 0.31
7 3 9 9.23 0.3
7 3 10 1.74 0.08
7 3 12 3.36 0.11
7 3 13 1.54 0.12
7 3 14 0.29 0.06
7 3 15 0.26 0.07
7 3 16 2.02 0.1
7 4 0 9.24 0.3
7 4 1 1.45 0.07
7 4 2 1.55 0.07
7 4 3 1.23 0.06
7 4 4 2.45 0.09
7 4 5 19.34 0.56
7 4 6 28.36 0.79
7 4 9 10.29 0.27
7 4 10 0.18 0.05
7 4 12 4.87 0.15
7 4 13 0.19 0.06
7 4 14 6.72 0.25
7 5 0 12.67 0.43
7 5 2 12.24 0.33
7 5 3 1.37 0.07
7 5 4 2.46 0.09
7 5 6 0.97 0.08
7 5 7 0.18 0.05
7 5 8 3.62 0.13
7 5 10 20.66 0.51
7 5 11 1.46 0.1
7 5 12 1.36 0.16
7 6 0 0.8 0.05
7 6 2 2.22 0.09
7 6 4 3.95 0.13
7 6 5 3.96 0.13
7 6 6 3.13 0.14
7 6 7 3.48 0.18
7 6 8 3.02 0.17
7 6 9 4.83 0.19
8 0 0 25.4 0.62
8 0 2 13.62 0.33
8 0 4 63.96 1.73
8 0 6 4.58 0.17
8 0 8 28.4 0.71
8 0 10 0.87 0.07
8 0 12 24.6 0.61
8 0 14 82.66 5.14
8 0 16 0.85 0.13
8 1 1 0.38 0.04
8 1 2 1.99 0.08
8 1 3 81.78 2.12
8 1 4 31.62 0.74
8 1 6 4.18 0.12
8 1 7 0.26 0.04
8 1 8 19.31 0.51
8 1 9 9.14 0.29
8 1 10 18.12 0.43
8 1 11 6.13 0.16
8 1 12 4.5 0.14
8 1 13 11.24 0.39
8 1 15 1.63 0.08
8 1 16 0.65 0.05
8 2 0 39.81 1
8 2 1 20.53 0.49
8 2 2 0.16 0.03
8 2 3 4.83 0.14
8 2 4 14.05 0.34
8 2 5 7.23 0.19
8 2 7 33.04 0.78
8 2 8 4.04 0.14
8 2 9 0.17 0.04
8 2 10 14.95 0.48
8 2 13 3.92 0.17
8 2 14 0.31 0.05
8 2 15 2.68 0.1
8 2 16 2.02 0.09
8 3 0 16.62 0.39
8 3 1 0.17 0.03
8 3 2 9.15 0.23
8 3 3 0.59 0.05
8 3 4 10.21 0.27
8 3 5 17.33 0.41
8 3 6 13.52 0.33
8 3 8 3.32 0.11
8 3 10 2.59 0.12
8 3 11 5.61 0.2
8 3 12 3.23 0.13
8 3 13 5.87 0.18
8 3 14 5.8 0.16
8 4 1 2.24 0.08
8 4 2 13.4 0.45
8 4 3 2.52 0.12
8 4 4 2.31 0.09
8 4 5 2.61 0.09
8 4 6 3.51 0.11
8 4 7 4.14 0.15
8 4 9 12.56 0.31
8 4 10 5.73 0.17
8 4 11 0.26 0.05
8 4 12 5.86 0.17
8 5 0 1.07 0.07
8 5 1 0.16 0.04
8 5 2 6.13 0.17
8 5 3 3.76 0.12
8 5 4 0.81 0.06
8 5 6 6.85 0.2
8 5 7 2.19 0.1
8 5 8 20.95 0.52
8 5 9 2.98 0.19
8 5 10 0.92 0.13
8 6 1 0.41 0.07
8 6 2 4.82 0.17
8 6 3 1.31 0.16
8 6 4 2.59 0.18
9 0 0 16.58 0.73
9 0 2 43.72 1.25
9 0 4 4.47 0.17
9 0 6 25.68 0.69
9 0 10 14 0.44
9 0 12 8.38 0.68
9 0 16 0.54 0.1
9 1 0 31.02 0.76
9 1 1 0.16 0.03
9 1 2 4.47 0.14
9 1 3 26.04 0.64
9 1 4 2.46 0.09
9 1 5 6.14 0.17
9 1 6 7.43 0.2
9 1 7 12.84 0.41
9 1 8 1.64 0.09
9 1 9 2.11 0.1
9 1 10 9.11 0.37
9 1 11 0.19 0.06
9 1 12 1.03 0.08
9 1 13 26.93 0.63
9 1 14 9.32 0.24
9 1 15 1.12 0.08
9 2 0 1.66 0.07
9 2 1 3.52 0.1
9 2 2 34.91 0.82
9 2 3 4.89 0.15
9 2 4 34.06 0.81
9 2 5 3.13 0.1
9 2 6 3.21 0.12
9 2 7 1.58 0.07
9 2 8 2.04 0.1
9 2 9 15.84 0.39
9 2 10 2.06 0.1
9 2 11 9.04 0.24
9 2 12 6.5 0.23
9 2 14 7.52 0.2
9 3 0 2.1 0.08
9 3 1 6.16 0.17
9 3 2 2.51 0.09
9 3 3 14.33 0.36
9 3 4 6.55 0.18
9 3 5 1.27 0.08
9 3 6 14.5 0.36
9 3 7 0.3 0.06
9 3 8 14.17 1.08
9 3 10 2.75 0.15
9 3 11 3.62 0.16
9 3 12 4.58 0.25
9 4 1 2.27 0.09
9 4 2 12.69 0.38
9 4 5 0.24 0.05
9 4 6 4.7 0.15
9 4 7 16.7 0.93
9 4 8 12.48 0.31
9 4 9 5.17 0.15
9 4 10 0.96 0.08
9 5 1 0.84 0.07
9 5 2 4.06 0.14
9 5 3 1.66 0.1
9 5 4 1.07 0.11
9 5 5 0.96 0.16
9 5 8 5.05 0.2
9 6 1 1.3 0.15
10 0 0 7.68 0.22
10 0 2 2.77 0.18
10 0 4 14.12 0.41
10 0 6 17.05 0.47
10 0 8 1.02 0.11
10 0 10 11.56 0.3
10 0 12 11.77 0.37
10 1 0 9.19 0.23
10 1 1 31.38 0.74
10 1 3 8.06 0.22
10 1 4 9.43 0.25
10 1 5 3.54 0.12
10 1 6 7.69 0.31
10 1 8 1.12 0.1
10 1 9 1.16 0.08
10 1 10 5.39 0.19
10 1 11 3.79 0.13
10 1 12 0.72 0.06
10 1 13 1.65 0.11
10 2 0 8.79 0.22
10 2 1 1.5 0.08
10 2 2 27.91 0.66
10 2 3 7.64 0.2
10 2 4 1.44 0.07
10 2 5 9.64 0.27
10 2 6 6.82 0.91
10 2 7 3.53 0.17
10 2 8 2.96 0.26
10 2 9 0.43 0.07
10 2 10 6.11 0.19
10 2 11 1.33 0.08
10 2 12 15.81 0.4
10 3 0 0.76 0.05
10 3 1 1.25 0.08
10 3 2 18.15 0.44
10 3 3 3.87 0.15
10 3 4 2.88 0.11
10 3 5 0.2 0.04
10 3 6 12.69 0.71
10 3 7 10.78 0.48
10 3 8 22.23 1.04
10 3 9 0.37 0.09
10 3 10 0.93 0.24
10 4 0 2.57 0.12
10 4 1 4.67 0.19
10 4 3 1.44 0.09
10 4 4 2.58 0.35
10 4 5 0.92 0.08
10 4 6 0.72 0.12
10 4 7 6.02 0.86
10 4 8 0.44 0.12
10 5 0 1.74 0.16
10 5 1 2.49 0.18
10 5 2 0.49 0.12
10 5 4 1.51 0.16
11 0 0 32.55 0.93
11 0 2 25.07 0.62
11 0 6 2.54 0.21
11 0 10 0.83 0.12
11 1 1 3.61 0.12
11 1 2 8.28 0.24
11 1 3 11.52 0.3
11 1 4 1.73 0.1
11 1 5 12.87 0.35
11 1 6 3.34 0.16
11 1 7 4.35 0.15
11 1 8 0.21 0.05
11 1 9 1.26 0.07
11 1 10 5.34 0.4
11 2 1 11.34 0.4
11 2 3 0.81 0.07
11 2 4 6.29 0.28
11 2 6 17.46 1.58
11 2 7 15.87 0.73
11 2 8 2.62 0.14
11 2 9 0.71 0.07
11 3 0 18.82 0.44
11 3 1 1.84 0.1
11 3 2 1.03 0.13
11 3 3 1.4 0.08
11 3 4 2.79 0.12
11 3 5 0.68 0.06
11 3 6 1.96 0.11
11 4 0 1.55 0.16
11 4 1 3.17 0.18
11 4 4 6.38 0.22
11 4 5 0.58 0.12
12 0 0 1.56 0.1
12 0 2 20.5 0.5
12 0 4 7.76 0.29
12 0 6 20.07 0.51
12 1 0 8.2 0.22
12 1 1 3.36 0.13
12 1 2 7.79 0.32
12 1 3 3.37 0.11
12 1 4 0.41 0.06
12 1 5 3.65 0.13
12 1 6 11.28 0.49
12 1 7 2.6 0.13
12 2 0 0.61 0.05
12 2 3 2.08 0.16
12 2 4 3.94 0.23
12 2 5 2.75 0.14
12 3 0 4.53 0.16
12 3 3 2.32 0.17
13 0 2 11.33 1.14
13 0 4 7.31 0.24
13 1 0 1.05 0.1
13 1 1 1.88 0.13
13 1 2 1.1 0.09
13 1 3 2.07 0.12
13 1 4 0.58 0.13
13 2 0 0.66 0.06
13 2 1 2.43 0.13
13 2 2 1.73 0.16
