#------------------------------------------------------------------------------
#$Date: 2017-10-13 08:28:26 +0300 (Fri, 13 Oct 2017) $
#$Revision: 201972 $
#$URL: file:///home/coder/svn-repositories/cod/cif/2/10/02/2100273.cif $
#------------------------------------------------------------------------------
#
# This file is available in the Crystallography Open Database (COD),
# http://www.crystallography.net/. The original data for this entry
# were provided by IUCr Journals, http://journals.iucr.org/.
#
# The file may be used within the scientific community so long as
# proper attribution is given to the journal article from which the
# data were obtained.
#
data_2100273
loop_
_publ_author_name
'Nichol, Gary S.'
'Clegg, William'
_publ_section_title
;
 A variable-temperature study of a phase transition in barbituric acid
 dihydrate
;
_journal_coeditor_code           WS5026
_journal_issue                   4
_journal_name_full               'Acta Crystallographica Section B'
_journal_page_first              464
_journal_page_last               472
_journal_paper_doi               10.1107/S0108768105017258
_journal_volume                  61
_journal_year                    2005
_chemical_formula_moiety         'C4 H4 N2 O3, 2 H2 O'
_chemical_formula_sum            'C4 H8 N2 O5'
_chemical_formula_weight         164.12
_chemical_name_systematic
;
 ?
;
_space_group_IT_number           14
_symmetry_cell_setting           monoclinic
_symmetry_space_group_name_Hall  '-P 2yn'
_symmetry_space_group_name_H-M   'P 1 21/n 1'
_atom_sites_solution_hydrogens   mixed
_atom_sites_solution_primary     'using coordinates of another structure'
_atom_sites_solution_secondary   difmap
_audit_creation_method           SHELXL-97
_cell_angle_alpha                90.00
_cell_angle_beta                 92.5280(15)
_cell_angle_gamma                90.00
_cell_formula_units_Z            4
_cell_length_a                   6.1377(5)
_cell_length_b                   12.7306(11)
_cell_length_c                   8.8641(8)
_cell_measurement_reflns_used    5464
_cell_measurement_temperature    190(2)
_cell_measurement_theta_max      28.2
_cell_measurement_theta_min      2.30
_cell_volume                     691.94(10)
_computing_cell_refinement       'Bruker SAINT'
_computing_data_collection       'Bruker SMART'
_computing_data_reduction        'Bruker SAINT'
_computing_molecular_graphics    'Bruker SHELXTL'
_computing_publication_material  'Bruker SHELXTL and local programs'
_computing_structure_refinement  'Bruker SHELXTL'
_computing_structure_solution    'using coordinates of another structure'
_diffrn_ambient_temperature      190(2)
_diffrn_measured_fraction_theta_full 0.999
_diffrn_measured_fraction_theta_max 0.962
_diffrn_measurement_device_type  'Bruker SMART 1K CCD diffractometer'
_diffrn_measurement_method       'thin-slice \w scans'
_diffrn_radiation_monochromator  graphite
_diffrn_radiation_source         'sealed tube'
_diffrn_radiation_type           MoK\a
_diffrn_radiation_wavelength     0.71073
_diffrn_reflns_av_R_equivalents  0.0236
_diffrn_reflns_av_sigmaI/netI    0.0082
_diffrn_reflns_limit_h_max       8
_diffrn_reflns_limit_h_min       -8
_diffrn_reflns_limit_k_max       16
_diffrn_reflns_limit_k_min       -16
_diffrn_reflns_limit_l_max       11
_diffrn_reflns_limit_l_min       -11
_diffrn_reflns_number            9902
_diffrn_reflns_theta_full        26.00
_diffrn_reflns_theta_max         28.30
_diffrn_reflns_theta_min         2.80
_diffrn_standards_number         0
_exptl_absorpt_coefficient_mu    0.146
_exptl_absorpt_correction_T_max  0.9784
_exptl_absorpt_correction_T_min  0.7819
_exptl_absorpt_correction_type   multi-scan
_exptl_absorpt_process_details   'TWINABS; Sheldrick (2002)'
_exptl_crystal_colour            colourless
_exptl_crystal_density_diffrn    1.575
_exptl_crystal_density_method    'not measured'
_exptl_crystal_description       block
_exptl_crystal_F_000             344
_exptl_crystal_size_max          0.53
_exptl_crystal_size_mid          0.42
_exptl_crystal_size_min          0.15
_refine_diff_density_max         0.262
_refine_diff_density_min         -0.281
_refine_ls_extinction_method     none
_refine_ls_goodness_of_fit_ref   1.063
_refine_ls_hydrogen_treatment    mixed
_refine_ls_matrix_type           full
_refine_ls_number_parameters     120
_refine_ls_number_reflns         2140
_refine_ls_number_restraints     0
_refine_ls_restrained_S_all      1.063
_refine_ls_R_factor_all          0.0418
_refine_ls_R_factor_gt           0.0374
_refine_ls_shift/su_max          0.003
_refine_ls_shift/su_mean         0.000
_refine_ls_structure_factor_coef Fsqd
_refine_ls_weighting_details
'calc w=1/[\s^2^(Fo^2^)+(0.0601P)^2^+0.1202P] where P=(Fo^2^+2Fc^2^)/3'
_refine_ls_weighting_scheme      calc
_refine_ls_wR_factor_gt          0.1004
_refine_ls_wR_factor_ref         0.1047
_reflns_number_gt                1930
_reflns_number_total             2140
_reflns_threshold_expression     >2sigma(I)
_cod_data_source_file            ws5026.cif
_cod_data_source_block           190
_cod_original_sg_symbol_H-M      'P 21/n'
_cod_database_code               2100273
loop_
_symmetry_equiv_pos_as_xyz
'x, y, z'
'-x+1/2, y+1/2, -z+1/2'
'-x, -y, -z'
'x-1/2, -y-1/2, z-1/2'
loop_
_atom_site_label
_atom_site_fract_x
_atom_site_fract_y
_atom_site_fract_z
_atom_site_U_iso_or_equiv
_atom_site_adp_type
_atom_site_calc_flag
_atom_site_refinement_flags
_atom_site_occupancy
_atom_site_disorder_assembly
_atom_site_disorder_group
_atom_site_type_symbol
O1 0.2470(2) 0.55228(6) 0.47638(9) 0.0343(3) Uani d . 1 . . O
O2 0.23972(19) 0.44178(6) 0.95852(9) 0.0319(2) Uani d . 1 . . O
O3 0.2813(2) 0.79045(6) 0.88757(10) 0.0405(3) Uani d . 1 . . O
O4 0.2365(2) 0.88652(7) 0.24005(10) 0.0376(3) Uani d . 1 . . O
H1O 0.249(3) 0.9176(14) 0.325(2) 0.045 Uiso d . 1 . . H
H2O 0.242(3) 0.9292(15) 0.170(2) 0.045 Uiso d . 1 . . H
O5 0.2721(2) 0.67279(8) 0.21639(10) 0.0432(3) Uani d . 1 . . O
H3O 0.257(3) 0.7361(18) 0.227(2) 0.052 Uiso d . 1 . . H
H4O 0.257(3) 0.6450(16) 0.301(2) 0.052 Uiso d . 1 . . H
N1 0.23998(19) 0.49869(7) 0.71727(10) 0.0237(2) Uani d . 1 . . N
H1N 0.235(3) 0.4360(13) 0.6896(16) 0.028 Uiso d . 1 . . H
N2 0.25388(19) 0.61724(7) 0.91976(10) 0.0225(2) Uani d . 1 . . N
H2N 0.256(3) 0.6303(12) 1.0161(18) 0.027 Uiso d . 1 . . H
C1 0.2458(2) 0.57501(8) 0.60989(12) 0.0221(2) Uani d . 1 . . C
C2 0.2438(2) 0.51508(8) 0.87111(12) 0.0217(2) Uani d . 1 . . C
C3 0.2633(2) 0.70402(8) 0.83004(13) 0.0237(3) Uani d . 1 . . C
C4 0.2478(2) 0.68704(8) 0.66203(11) 0.0231(3) Uani d . 1 . . C
H4A 0.1129 0.7214 0.6213 0.028 Uiso calc R 1 . . H
H4B 0.3725 0.7230 0.6174 0.028 Uiso calc R 1 . . H
loop_
_atom_site_aniso_label
_atom_site_aniso_U_11
_atom_site_aniso_U_22
_atom_site_aniso_U_33
_atom_site_aniso_U_12
_atom_site_aniso_U_13
_atom_site_aniso_U_23
O1 0.0644(7) 0.0225(4) 0.0160(4) 0.0010(5) 0.0024(4) -0.0005(3)
O2 0.0595(7) 0.0169(4) 0.0192(4) -0.0010(4) 0.0026(4) 0.0043(3)
O3 0.0834(9) 0.0152(4) 0.0226(4) -0.0019(5) -0.0021(5) -0.0008(3)
O4 0.0712(8) 0.0223(4) 0.0193(4) -0.0017(5) 0.0024(5) -0.0008(3)
O5 0.0897(10) 0.0232(4) 0.0172(4) -0.0008(6) 0.0075(5) 0.0002(3)
N1 0.0412(6) 0.0125(4) 0.0173(5) -0.0008(4) 0.0015(4) -0.0011(3)
N2 0.0379(6) 0.0157(4) 0.0139(4) -0.0002(4) 0.0019(4) -0.0003(3)
C1 0.0312(6) 0.0177(5) 0.0174(5) 0.0003(5) 0.0007(5) 0.0008(4)
C2 0.0312(6) 0.0165(5) 0.0173(5) -0.0001(5) 0.0014(4) 0.0008(4)
C3 0.0359(7) 0.0150(5) 0.0200(5) 0.0006(5) 0.0001(5) 0.0010(4)
C4 0.0379(7) 0.0144(5) 0.0170(5) 0.0004(5) 0.0005(5) 0.0028(4)
loop_
_atom_type_symbol
_atom_type_description
_atom_type_scat_dispersion_real
_atom_type_scat_dispersion_imag
_atom_type_scat_source
C C 0.0033 0.0016 'International Tables Vol C Tables 4.2.6.8 and 6.1.1.4'
H H 0.0000 0.0000 'International Tables Vol C Tables 4.2.6.8 and 6.1.1.4'
N N 0.0061 0.0033 'International Tables Vol C Tables 4.2.6.8 and 6.1.1.4'
O O 0.0106 0.0060 'International Tables Vol C Tables 4.2.6.8 and 6.1.1.4'
loop_
_geom_angle_atom_site_label_1
_geom_angle_atom_site_label_2
_geom_angle_atom_site_label_3
_geom_angle
H1O O4 H2O 110.8(18)
H3O O5 H4O 107.2(18)
H1N N1 C1 118.6(10)
H1N N1 C2 115.7(10)
C1 N1 C2 125.70(9)
H2N N2 C2 119.3(10)
H2N N2 C3 114.7(10)
C2 N2 C3 125.99(9)
O1 C1 N1 120.72(10)
O1 C1 C4 121.67(9)
N1 C1 C4 117.60(9)
O2 C2 N1 121.00(10)
O2 C2 N2 122.04(10)
N1 C2 N2 116.96(9)
O3 C3 N2 119.60(10)
O3 C3 C4 123.10(10)
N2 C3 C4 117.29(9)
C1 C4 C3 116.20(9)
C1 C4 H4A 108.2
C1 C4 H4B 108.2
C3 C4 H4A 108.2
C3 C4 H4B 108.2
H4A C4 H4B 107.4
loop_
_geom_bond_atom_site_label_1
_geom_bond_atom_site_label_2
_geom_bond_site_symmetry_2
_geom_bond_distance
_geom_bond_publ_flag
O1 C1 . 1.2186(14) ?
O2 C2 . 1.2139(13) ?
O3 C3 . 1.2157(14) ?
O4 H1O . 0.852(18) ?
O4 H2O . 0.827(19) ?
O5 H3O . 0.82(2) ?
O5 H4O . 0.84(2) ?
N1 H1N . 0.835(16) ?
N1 C1 . 1.3617(14) ?
N1 C2 . 1.3787(14) ?
N2 H2N . 0.870(16) ?
N2 C2 . 1.3707(14) ?
N2 C3 . 1.3640(13) ?
C1 C4 . 1.4992(14) ?
C3 C4 . 1.5037(15) ?
C4 H4A . 0.9900 ?
C4 H4B . 0.9900 ?
loop_
_geom_hbond_atom_site_label_D
_geom_hbond_atom_site_label_H
_geom_hbond_atom_site_label_A
_geom_hbond_site_symmetry_A
_geom_hbond_distance_DH
_geom_hbond_distance_HA
_geom_hbond_distance_DA
_geom_hbond_angle_DHA
O4 H1O O2 2_556 0.852(18) 1.941(19) 2.7606(13) 161.1(17)
O4 H2O O1 2 0.827(19) 2.037(19) 2.8567(12) 170.7(17)
O5 H3O O4 . 0.82(2) 1.92(2) 2.7384(14) 175(2)
O5 H4O O1 . 0.84(2) 1.96(2) 2.7785(13) 167.3(18)
N1 H1N O3 2_546 0.835(16) 1.976(16) 2.8103(13) 176.8(14)
N2 H2N O5 1_556 0.870(16) 1.854(16) 2.7204(13) 173.7(15)
loop_
_geom_torsion_atom_site_label_1
_geom_torsion_atom_site_label_2
_geom_torsion_atom_site_label_3
_geom_torsion_atom_site_label_4
_geom_torsion
C2 N1 C1 O1 178.21(13)
C2 N1 C1 C4 -2.6(2)
C3 N2 C2 O2 178.68(14)
C3 N2 C2 N1 -0.9(2)
C1 N1 C2 O2 -179.41(13)
C1 N1 C2 N2 0.2(2)
C2 N2 C3 O3 -176.78(13)
C2 N2 C3 C4 3.9(2)
O1 C1 C4 C3 -175.51(13)
N1 C1 C4 C3 5.29(18)
O3 C3 C4 C1 174.83(13)
N2 C3 C4 C1 -5.89(18)
loop_
_cod_related_entry_id
_cod_related_entry_database
_cod_related_entry_code
1 ChemSpider 21140097
