#------------------------------------------------------------------------------
#$Date: 2017-10-13 08:28:26 +0300 (Fri, 13 Oct 2017) $
#$Revision: 201972 $
#$URL: file:///home/coder/svn-repositories/cod/cif/2/10/02/2100281.cif $
#------------------------------------------------------------------------------
#
# This file is available in the Crystallography Open Database (COD),
# http://www.crystallography.net/. The original data for this entry
# were provided by IUCr Journals, http://journals.iucr.org/.
#
# The file may be used within the scientific community so long as
# proper attribution is given to the journal article from which the
# data were obtained.
#
data_2100281
loop_
_publ_author_name
'Nichol, Gary S.'
'Clegg, William'
_publ_section_title
;
 A variable-temperature study of a phase transition in barbituric acid
 dihydrate
;
_journal_coeditor_code           WS5026
_journal_issue                   4
_journal_name_full               'Acta Crystallographica Section B'
_journal_page_first              464
_journal_page_last               472
_journal_paper_doi               10.1107/S0108768105017258
_journal_volume                  61
_journal_year                    2005
_chemical_formula_moiety         'C4 H4 N2 O3, 2 H2 O'
_chemical_formula_sum            'C4 H8 N2 O5'
_chemical_formula_weight         164.12
_chemical_name_systematic
;
 ?
;
_space_group_IT_number           62
_symmetry_cell_setting           orthorhombic
_symmetry_space_group_name_Hall  '-P 2bc 2a'
_symmetry_space_group_name_H-M   'P m n b'
_atom_sites_solution_hydrogens   difmap
_atom_sites_solution_primary     'using coordinates of another structure'
_atom_sites_solution_secondary   difmap
_audit_creation_method           SHELXL-97
_cell_angle_alpha                90.00
_cell_angle_beta                 90.00
_cell_angle_gamma                90.00
_cell_formula_units_Z            4
_cell_length_a                   6.1665(12)
_cell_length_b                   12.763(2)
_cell_length_c                   8.8814(17)
_cell_measurement_reflns_used    4044
_cell_measurement_temperature    220(2)
_cell_measurement_theta_max      28.3
_cell_measurement_theta_min      2.25
_cell_volume                     699.0(2)
_computing_cell_refinement       'Bruker SAINT'
_computing_data_collection       'Bruker SMART'
_computing_data_reduction        'Bruker SAINT'
_computing_molecular_graphics    'Bruker SHELXTL'
_computing_publication_material  'Bruker SHELXTL and local programs'
_computing_structure_refinement  'Bruker SHELXTL'
_computing_structure_solution    'using coordinates of another structure'
_diffrn_ambient_temperature      220(2)
_diffrn_measured_fraction_theta_full 0.996
_diffrn_measured_fraction_theta_max 0.966
_diffrn_measurement_device_type  'Bruker SMART 1K CCD diffractometer'
_diffrn_measurement_method       'thin-slice \w scans'
_diffrn_radiation_monochromator  graphite
_diffrn_radiation_source         'sealed tube'
_diffrn_radiation_type           MoK\a
_diffrn_radiation_wavelength     0.71073
_diffrn_reflns_av_R_equivalents  0.0429
_diffrn_reflns_av_sigmaI/netI    0.0266
_diffrn_reflns_limit_h_max       8
_diffrn_reflns_limit_h_min       -8
_diffrn_reflns_limit_k_max       15
_diffrn_reflns_limit_k_min       -16
_diffrn_reflns_limit_l_max       11
_diffrn_reflns_limit_l_min       -11
_diffrn_reflns_number            5578
_diffrn_reflns_theta_full        26.00
_diffrn_reflns_theta_max         28.38
_diffrn_reflns_theta_min         2.79
_diffrn_standards_number         0
_exptl_absorpt_coefficient_mu    0.145
_exptl_absorpt_correction_T_max  0.9786
_exptl_absorpt_correction_T_min  0.4515
_exptl_absorpt_correction_type   multi-scan
_exptl_absorpt_process_details   'SADABS; Sheldrick (2003)'
_exptl_crystal_colour            colourless
_exptl_crystal_density_diffrn    1.560
_exptl_crystal_density_method    'not measured'
_exptl_crystal_description       block
_exptl_crystal_F_000             344
_exptl_crystal_size_max          0.53
_exptl_crystal_size_mid          0.42
_exptl_crystal_size_min          0.15
_refine_diff_density_max         0.264
_refine_diff_density_min         -0.275
_refine_ls_extinction_method     none
_refine_ls_goodness_of_fit_ref   1.093
_refine_ls_hydrogen_treatment    refxyz
_refine_ls_matrix_type           full
_refine_ls_number_parameters     82
_refine_ls_number_reflns         923
_refine_ls_number_restraints     0
_refine_ls_restrained_S_all      1.093
_refine_ls_R_factor_all          0.0495
_refine_ls_R_factor_gt           0.0453
_refine_ls_shift/su_max          0.000
_refine_ls_shift/su_mean         0.000
_refine_ls_structure_factor_coef Fsqd
_refine_ls_weighting_details
'calc w=1/[\s^2^(Fo^2^)+(0.0685P)^2^+0.2425P] where P=(Fo^2^+2Fc^2^)/3'
_refine_ls_weighting_scheme      calc
_refine_ls_wR_factor_gt          0.1198
_refine_ls_wR_factor_ref         0.1237
_reflns_number_gt                824
_reflns_number_total             923
_reflns_threshold_expression     >2sigma(I)
_cod_data_source_file            ws5026.cif
_cod_data_source_block           220
_cod_database_code               2100281
_cod_database_fobs_code          2100281
loop_
_symmetry_equiv_pos_as_xyz
'x, y, z'
'-x, -y+1/2, z+1/2'
'x+1/2, -y, -z'
'-x+1/2, y+1/2, -z+1/2'
'-x, -y, -z'
'x, y-1/2, -z-1/2'
'-x-1/2, y, z'
'x-1/2, -y-1/2, z-1/2'
loop_
_atom_site_label
_atom_site_fract_x
_atom_site_fract_y
_atom_site_fract_z
_atom_site_U_iso_or_equiv
_atom_site_adp_type
_atom_site_calc_flag
_atom_site_refinement_flags
_atom_site_occupancy
_atom_site_disorder_assembly
_atom_site_disorder_group
_atom_site_type_symbol
O1 0.2500 0.55228(10) 0.47671(15) 0.0410(5) Uani d S 1 . . O
O2 0.2500 0.44186(10) 0.95839(15) 0.0383(4) Uani d S 1 . . O
O3 0.2500 0.79037(10) 0.88713(17) 0.0519(6) Uani d S 1 . . O
O4 0.2500 0.88645(12) 0.24042(18) 0.0454(5) Uani d S 1 . . O
H1O 0.2500 0.917(2) 0.321(4) 0.055 Uiso d S 1 . . H
H2O 0.2500 0.929(3) 0.168(4) 0.055 Uiso d S 1 . . H
O5 0.2500 0.67261(13) 0.21539(17) 0.0534(6) Uani d S 1 . . O
H3O 0.2500 0.736(3) 0.220(4) 0.064 Uiso d S 1 . . H
H4O 0.2500 0.648(3) 0.298(4) 0.064 Uiso d S 1 . . H
N1 0.2500 0.49880(12) 0.71729(16) 0.0282(4) Uani d S 1 . . N
H1N 0.2500 0.438(2) 0.688(3) 0.034 Uiso d S 1 . . H
N2 0.2500 0.61723(11) 0.91948(17) 0.0270(4) Uani d S 1 . . N
H2N 0.2500 0.631(2) 1.021(3) 0.032 Uiso d S 1 . . H
C1 0.2500 0.57491(13) 0.60995(19) 0.0259(4) Uani d S 1 . . C
C2 0.2500 0.51520(13) 0.8713(2) 0.0255(4) Uani d S 1 . . C
C3 0.2500 0.70406(13) 0.8297(2) 0.0290(4) Uani d S 1 . . C
C4 0.2500 0.68711(13) 0.6623(2) 0.0269(4) Uani d S 1 . . C
H1 0.127(3) 0.7160(12) 0.6216(19) 0.032 Uiso d . 1 . . H
loop_
_atom_site_aniso_label
_atom_site_aniso_U_11
_atom_site_aniso_U_22
_atom_site_aniso_U_33
_atom_site_aniso_U_12
_atom_site_aniso_U_13
_atom_site_aniso_U_23
O1 0.0840(12) 0.0237(7) 0.0154(7) 0.000 0.000 -0.0007(5)
O2 0.0794(12) 0.0158(6) 0.0197(7) 0.000 0.000 0.0050(5)
O3 0.1180(17) 0.0139(7) 0.0238(8) 0.000 0.000 -0.0009(5)
O4 0.0928(14) 0.0224(7) 0.0210(7) 0.000 0.000 -0.0014(6)
O5 0.1193(18) 0.0238(7) 0.0171(7) 0.000 0.000 0.0004(5)
N1 0.0562(11) 0.0117(7) 0.0168(8) 0.000 0.000 -0.0011(5)
N2 0.0521(10) 0.0140(7) 0.0148(7) 0.000 0.000 0.0006(5)
C1 0.0441(11) 0.0162(8) 0.0172(8) 0.000 0.000 0.0009(6)
C2 0.0447(11) 0.0143(8) 0.0176(8) 0.000 0.000 0.0003(6)
C3 0.0536(12) 0.0133(7) 0.0203(9) 0.000 0.000 0.0015(6)
C4 0.0488(12) 0.0142(7) 0.0178(8) 0.000 0.000 0.0032(6)
loop_
_atom_type_symbol
_atom_type_description
_atom_type_scat_dispersion_real
_atom_type_scat_dispersion_imag
_atom_type_scat_source
C C 0.0033 0.0016 'International Tables Vol C Tables 4.2.6.8 and 6.1.1.4'
H H 0.0000 0.0000 'International Tables Vol C Tables 4.2.6.8 and 6.1.1.4'
N N 0.0061 0.0033 'International Tables Vol C Tables 4.2.6.8 and 6.1.1.4'
O O 0.0106 0.0060 'International Tables Vol C Tables 4.2.6.8 and 6.1.1.4'
loop_
_geom_angle_atom_site_label_1
_geom_angle_atom_site_label_2
_geom_angle_atom_site_label_3
_geom_angle
H1O O4 H2O 111(3)
H3O O5 H4O 110(3)
C1 N1 C2 125.76(15)
C1 N1 H1N 117.2(18)
C2 N1 H1N 117.0(18)
C3 N2 C2 126.06(15)
C3 N2 H2N 115.0(16)
C2 N2 H2N 119.0(16)
O1 C1 N1 120.74(16)
O1 C1 C4 121.71(16)
N1 C1 C4 117.54(15)
O2 C2 N2 122.21(17)
O2 C2 N1 120.88(16)
N2 C2 N1 116.91(15)
O3 C3 N2 119.42(17)
O3 C3 C4 123.13(16)
N2 C3 C4 117.45(15)
C3 C4 C1 116.28(14)
C3 C4 H1 109.4(10)
C1 C4 H1 105.1(10)
loop_
_geom_bond_atom_site_label_1
_geom_bond_atom_site_label_2
_geom_bond_site_symmetry_2
_geom_bond_distance
_geom_bond_publ_flag
O1 C1 . 1.218(2) ?
O2 C2 . 1.214(2) ?
O3 C3 . 1.214(2) ?
O4 H1O . 0.81(3) ?
O4 H2O . 0.85(3) ?
O5 H3O . 0.81(4) ?
O5 H4O . 0.80(4) ?
N1 C1 . 1.361(2) ?
N1 C2 . 1.383(2) ?
N1 H1N . 0.82(3) ?
N2 C3 . 1.365(2) ?
N2 C2 . 1.371(2) ?
N2 H2N . 0.92(3) ?
C1 C4 . 1.506(2) ?
C3 C4 . 1.502(2) ?
C4 H1 . 0.917(17) ?
loop_
_geom_hbond_atom_site_label_D
_geom_hbond_atom_site_label_H
_geom_hbond_atom_site_label_A
_geom_hbond_site_symmetry_A
_geom_hbond_distance_DH
_geom_hbond_distance_HA
_geom_hbond_distance_DA
_geom_hbond_angle_DHA
O4 H1O O2 4_556 0.81(3) 1.99(3) 2.767(2) 161(3)
O4 H2O O1 4 0.85(3) 2.03(3) 2.863(2) 170(3)
O5 H3O O4 . 0.81(4) 1.93(4) 2.738(2) 178(3)
O5 H4O O1 . 0.80(4) 2.00(4) 2.783(2) 166(3)
N1 H1N O3 4_546 0.82(3) 2.00(3) 2.817(2) 179(2)
N2 H2N O5 1_556 0.92(3) 1.80(3) 2.721(2) 173(2)
loop_
_geom_torsion_atom_site_label_1
_geom_torsion_atom_site_label_2
_geom_torsion_atom_site_label_3
_geom_torsion_atom_site_label_4
_geom_torsion
C2 N1 C1 O1 180.0
C2 N1 C1 C4 0.0
C3 N2 C2 O2 180.0
C3 N2 C2 N1 0.0
C1 N1 C2 O2 180.0
C1 N1 C2 N2 0.0
C2 N2 C3 O3 180.0
C2 N2 C3 C4 0.0000(10)
O3 C3 C4 C1 180.0
N2 C3 C4 C1 0.0
O1 C1 C4 C3 180.0
N1 C1 C4 C3 0.0
loop_
_cod_related_entry_id
_cod_related_entry_database
_cod_related_entry_code
1 ChemSpider 21140097
