#------------------------------------------------------------------------------
#$Date: 2017-10-13 08:28:26 +0300 (Fri, 13 Oct 2017) $
#$Revision: 201972 $
#$URL: file:///home/coder/svn-repositories/cod/cif/2/10/07/2100710.cif $
#------------------------------------------------------------------------------
#
# This file is available in the Crystallography Open Database (COD),
# http://www.crystallography.net/. The original data for this entry
# were provided by IUCr Journals, http://journals.iucr.org/.
#
# The file may be used within the scientific community so long as
# proper attribution is given to the journal article from which the
# data were obtained.
#
data_2100710
loop_
_publ_author_name
'P. A. Wood'
'R. S. Forgan'
'D. Henderson'
'S. Parsons'
'E. Pidcock'
'P. A. Tasker'
'J. E. Warren'
_publ_contact_author_email       P.A.Wood@sms.ed.ac.uk
_publ_contact_author_name        'Peter A. Wood'
_publ_section_title
;
 Effect of pressure on the crystal structure of salicylaldoxime-I, and
 the structure of salicylaldoxime-II at 5.93GPa
;
_journal_coeditor_code           SO5004
_journal_date_accepted           2006-08-11
_journal_date_recd_electronic    2006-06-03
_journal_issue                   6
_journal_name_full               'Acta Crystallographica Section B'
_journal_page_first              1099
_journal_page_last               1111
_journal_paper_category          FA
_journal_paper_doi               10.1107/S0108768106031752
_journal_volume                  62
_journal_year                    2006
_chemical_formula_moiety         'C7 H7 N1 O2'
_chemical_formula_sum            'C7 H7 N O2'
_chemical_formula_weight         137.14
_chemical_melting_point          60.0(10)
_chemical_name_common            salicylaldoxime
_chemical_name_systematic        '2-hydroxybenzaldehyde oxime'
_space_group_IT_number           14
_symmetry_cell_setting           monoclinic
_symmetry_space_group_name_Hall  '-P 2yn'
_symmetry_space_group_name_H-M   'P 1 21/n 1'
_atom_sites_solution_hydrogens   geom
_atom_sites_solution_primary     direct
_audit_creation_method           CRYSTALS_ver_12.80
_cell_angle_alpha                90
_cell_angle_beta                 110.607(11)
_cell_angle_gamma                90
_cell_formula_units_Z            4
_cell_length_a                   9.7148(16)
_cell_length_b                   4.9322(3)
_cell_length_c                   12.0145(16)
_cell_measurement_reflns_used    337
_cell_measurement_temperature    293
_cell_measurement_theta_max      25
_cell_measurement_theta_min      3
_cell_volume                     538.84(12)
_computing_cell_refinement       SAINT
_computing_data_collection       'APEX-II (Bruker-Nonius, 2000)'
_computing_data_reduction        'SAINT (Bruker-Nonius, 2003)'
_computing_molecular_graphics    'CAMERON (Watkin et al., 1996)'
_computing_publication_material  'CRYSTALS (Betteridge et al., 2003)'
_computing_structure_refinement  'CRYSTALS (Betteridge et al., 2003)'
_computing_structure_solution    'SIR92 (Altomare et al., 1994)'
_diffrn_ambient_temperature      293
_diffrn_measured_fraction_theta_full 0.383
_diffrn_measured_fraction_theta_max 0.375
_diffrn_measurement_device_type  'Bruker-Nonius Apex II CCD'
_diffrn_measurement_method       \w
_diffrn_radiation_monochromator  silicon
_diffrn_radiation_type           synchrotron
_diffrn_radiation_wavelength     0.6889
_diffrn_reflns_av_R_equivalents  0.061
_diffrn_reflns_limit_h_max       5
_diffrn_reflns_limit_h_min       -5
_diffrn_reflns_limit_k_max       6
_diffrn_reflns_limit_k_min       -6
_diffrn_reflns_limit_l_max       13
_diffrn_reflns_limit_l_min       -13
_diffrn_reflns_number            2031
_diffrn_reflns_theta_full        25.031
_diffrn_reflns_theta_max         26.349
_diffrn_reflns_theta_min         3.340
_diffrn_standards_number         0
_exptl_absorpt_coefficient_mu    0.126
_exptl_absorpt_correction_T_max  0.99
_exptl_absorpt_correction_T_min  0.62
_exptl_absorpt_correction_type   multi-scan
_exptl_absorpt_process_details   'SADABS version 2004/1'
_exptl_crystal_colour            colourless
_exptl_crystal_density_diffrn    1.690
_exptl_crystal_description       block
_exptl_crystal_F_000             288
_exptl_crystal_size_max          0.18
_exptl_crystal_size_mid          0.15
_exptl_crystal_size_min          0.10
_refine_diff_density_max         0.13
_refine_diff_density_min         -0.14
_refine_ls_extinction_method     None
_refine_ls_goodness_of_fit_ref   0.8746
_refine_ls_hydrogen_treatment    mixed
_refine_ls_matrix_type           full
_refine_ls_number_parameters     97
_refine_ls_number_reflns         412
_refine_ls_number_restraints     84
_refine_ls_R_factor_all          0.0524
_refine_ls_R_factor_gt           0.0420
_refine_ls_shift/su_max          0.000138
_refine_ls_structure_factor_coef Fsqd
_refine_ls_weighting_details
;
 Method, part 1, Chebychev polynomial, (Watkin, 1994, Prince, 1982)
 [weight] = 1.0/[A~0~*T~0~(x)+A~1~*T~1~(x) ... +A~n-1~]*T~n-1~(x)]
 where A~i~ are the Chebychev coefficients listed below and x= Fcalc/Fmax
 Method = Robust Weighting (Prince, 1982)
 W = [weight] * [1-(deltaF/6*sigmaF)^2^]^2^
 A~i~ are:
 526. 806. 496. 179. 28.7
;
_refine_ls_weighting_scheme      calc
_refine_ls_wR_factor_all         0.1070
_refine_ls_wR_factor_gt          0.0932
_refine_ls_wR_factor_ref         0.1070
_reflns_number_gt                317
_reflns_number_total             412
_reflns_threshold_expression     I>2.00u(I)
_cod_data_source_file            so5004.cif
_cod_data_source_block           3_46GPa
_cod_depositor_comments
;
The following automatic conversions were performed:
'_symmetry_cell_setting' value 'Monoclinic' changed to 'monoclinic'
according to '/home/saulius/struct/CIF-dictionaries/cif_core.dic'
dictionary named 'cif_core.dic' version 2.4.1 from 2010-06-29.

Automatic conversion script
Id: cif_fix_enum 1527 2010-12-29 10:47:43Z saulius 

The following automatic conversions were performed:

'_chemical_melting_point' value '59-61' was changed to '60.0(10)' -
the average value was taken and precision was estimated.

Automatic conversion script
Id: cif_fix_values 1646 2011-03-28 12:23:43Z adriana 

The following automatic conversions were performed:

'_chemical_melting_point' value '59-61' was changed to '60.0(10)' -
the average value was taken and precision was
estimated.

'_symmetry_cell_setting' value 'Monoclinic' changed to
'monoclinic' according to
/home/saulius/struct/CIF-dictionaries/cif_core.dic dictionary named
'cif_core.dic' version 2.4.1 from 2010-06-29.

Automatic conversion script
Id: cif_fix_values 1715 2011-07-08 13:25:40Z adriana 
;
_cod_original_sg_symbol_H-M      'P 1 21/n 1 '
_cod_original_formula_sum        'C7 H7 N1 O2'
_cod_database_code               2100710
_cod_database_fobs_code          2100710
loop_
_symmetry_equiv_pos_as_xyz
x,y,z
-x,-y,-z
-x+1/2,y+1/2,-z+1/2
x+1/2,-y+1/2,z+1/2
loop_
_atom_site_type_symbol
_atom_site_label
_atom_site_fract_x
_atom_site_fract_y
_atom_site_fract_z
_atom_site_U_iso_or_equiv
_atom_site_adp_type
_atom_site_occupancy
O O1 0.7462(5) 1.0490(4) 0.68831(19) 0.0386 Uani 1.0000
N N2 0.6931(6) 0.8796(4) 0.5889(2) 0.0335 Uani 1.0000
C C3 0.7858(7) 0.7063(5) 0.5853(3) 0.0326 Uani 1.0000
C C4 0.7518(7) 0.5057(5) 0.4892(3) 0.0340 Uani 1.0000
C C5 0.6097(7) 0.4976(5) 0.4010(3) 0.0332 Uani 1.0000
O O5 0.5041(5) 0.6767(4) 0.39837(18) 0.0398 Uani 1.0000
C C6 0.5772(7) 0.2936(5) 0.3146(3) 0.0331 Uani 1.0000
C C7 0.6824(8) 0.1128(5) 0.3136(3) 0.0395 Uani 1.0000
C C8 0.8239(7) 0.1241(5) 0.3987(3) 0.0392 Uani 1.0000
C C9 0.8549(7) 0.3193(5) 0.4864(3) 0.0353 Uani 1.0000
H H3 0.8794 0.7002 0.6474 0.0420 Uiso 1.0000
H H6 0.4829 0.2860 0.2562 0.0416 Uiso 1.0000
H H7 0.6593 -0.0218 0.2552 0.0614 Uiso 1.0000
H H8 0.8960 -0.0027 0.3979 0.0479 Uiso 1.0000
H H9 0.9490 0.3192 0.5469 0.0535 Uiso 1.0000
H H1 0.686(4) 1.173(7) 0.674(4) 0.0586 Uiso 1.0000
H H5 0.544(8) 0.784(6) 0.452(3) 0.0644 Uiso 1.0000
loop_
_atom_site_aniso_label
_atom_site_aniso_U_11
_atom_site_aniso_U_22
_atom_site_aniso_U_33
_atom_site_aniso_U_12
_atom_site_aniso_U_13
_atom_site_aniso_U_23
O1 0.046(6) 0.0304(9) 0.0246(11) 0.0023(13) -0.005(2) -0.0082(7)
N2 0.046(5) 0.0236(11) 0.0200(11) -0.0010(15) -0.003(2) -0.0016(8)
C3 0.040(6) 0.0259(13) 0.0221(14) -0.0011(18) -0.001(2) 0.0036(9)
C4 0.044(5) 0.0219(11) 0.0240(14) -0.0001(16) -0.003(2) 0.0039(9)
C5 0.041(5) 0.0207(11) 0.0278(15) 0.0021(16) 0.000(2) 0.0017(9)
O5 0.044(5) 0.0293(10) 0.0318(12) 0.0062(13) -0.004(2) -0.0053(7)
C6 0.041(5) 0.0266(12) 0.0220(14) -0.0048(17) -0.001(2) -0.0004(9)
C7 0.056(5) 0.0251(12) 0.0290(15) 0.0018(19) 0.004(2) -0.0005(10)
C8 0.053(5) 0.0226(11) 0.0330(16) 0.0057(16) 0.004(3) 0.0068(9)
C9 0.042(5) 0.0259(12) 0.0274(15) 0.0005(18) 0.000(2) 0.0070(9)
loop_
_atom_type_symbol
_atom_type_scat_dispersion_real
_atom_type_scat_dispersion_imag
_atom_type_scat_source
C 0.0033 0.0016 'International Tables Vol C 4.2.6.8 and 6.1.1.4'
H 0.0000 0.0000 'International Tables Vol C 4.2.6.8 and 6.1.1.4'
N 0.0061 0.0033 'International Tables Vol C 4.2.6.8 and 6.1.1.4'
O 0.0106 0.0060 'International Tables Vol C 4.2.6.8 and 6.1.1.4'
loop_
_geom_angle_atom_site_label_1
_geom_angle_atom_site_label_2
_geom_angle_atom_site_label_3
_geom_angle
_geom_angle_publ_flag
N2 O1 H1 104(3) no
O1 N2 C3 112.5(3) yes
N2 C3 C4 121.4(4) yes
N2 C3 H3 119.6 no
C4 C3 H3 118.9 no
C3 C4 C5 119.9(5) yes
C3 C4 C9 120.6(4) yes
C5 C4 C9 119.5(3) yes
C4 C5 O5 122.3(3) yes
C4 C5 C6 118.8(5) yes
O5 C5 C6 118.9(4) yes
C5 O5 H5 105(5) no
C5 C6 C7 120.3(4) yes
C5 C6 H6 119.3 no
C7 C6 H6 120.4 no
C6 C7 C8 121.2(3) yes
C6 C7 H7 119.3 no
C8 C7 H7 119.5 no
C7 C8 C9 118.7(5) yes
C7 C8 H8 120.8 no
C9 C8 H8 120.5 no
C8 C9 C4 121.5(4) yes
C8 C9 H9 118.5 no
C4 C9 H9 119.9 no
loop_
_geom_bond_atom_site_label_1
_geom_bond_atom_site_label_2
_geom_bond_distance
_geom_bond_publ_flag
O1 N2 1.399(3) yes
O1 H1 0.8200(9) no
N2 C3 1.254(7) yes
C3 C4 1.467(4) yes
C3 H3 0.953 no
C4 C5 1.415(7) yes
C4 C9 1.369(8) yes
C5 O5 1.346(7) yes
C5 C6 1.400(4) yes
O5 H5 0.8200(9) no
C6 C7 1.359(8) yes
C6 H6 0.938 no
C7 C8 1.396(7) yes
C7 H7 0.934 no
C8 C9 1.380(4) yes
C8 H8 0.941 no
C9 H9 0.947 no
loop_
_cod_related_entry_id
_cod_related_entry_database
_cod_related_entry_code
1 ChemSpider 10229769
