#------------------------------------------------------------------------------
#$Date: 2017-10-13 08:28:26 +0300 (Fri, 13 Oct 2017) $
#$Revision: 201972 $
#$URL: file:///home/coder/svn-repositories/cod/cif/2/10/04/2100473.cif $
#------------------------------------------------------------------------------
#
# This file is available in the Crystallography Open Database (COD),
# http://www.crystallography.net/. The original data for this entry
# were provided by IUCr Journals, http://journals.iucr.org/.
#
# The file may be used within the scientific community so long as
# proper attribution is given to the journal article from which the
# data were obtained.
#
data_2100473
loop_
_publ_author_name
'Edwin A Collier'
'Roger J Davey'
'Simon N Black'
'Ronald J Roberts'
_publ_section_title
;
 17 salts of ephedrine: crystal structures and packing analysis
;
_journal_coeditor_code           BK5025
_journal_date_accepted           2006-04-03
_journal_date_recd_electronic    2005-10-17
_journal_issue                   3
_journal_name_full               'Acta Crystallographica Section B'
_journal_page_first              498
_journal_page_last               505
_journal_paper_category          FA
_journal_paper_doi               10.1107/S0108768106012018
_journal_volume                  62
_journal_year                    2006
_chemical_formula_moiety         'C10 H14 N2 O4'
_chemical_formula_structural     'C10 H14 N2 O4'
_chemical_formula_sum            'C10 H16 N2 O4'
_chemical_formula_weight         228.25
_chemical_name_systematic
;
(1R, 2S)-(-)-ephedrine nitrate
;
_space_group_IT_number           4
_symmetry_cell_setting           monoclinic
_symmetry_space_group_name_Hall  'P 2yb'
_symmetry_space_group_name_H-M   'P 1 21 1'
_atom_sites_solution_hydrogens   geom
_atom_sites_solution_primary     direct
_atom_sites_solution_secondary   difmap
_cell_angle_alpha                90
_cell_angle_beta                 97.243(6)
_cell_angle_gamma                90
_cell_formula_units_Z            2
_cell_length_a                   5.5309(4)
_cell_length_b                   6.8501(6)
_cell_length_c                   15.6906(13)
_cell_measurement_reflns_used    4151
_cell_measurement_temperature    150
_cell_measurement_theta_max      27.485
_cell_measurement_theta_min      1.018
_cell_volume                     589.73(8)
_computing_cell_refinement       'HKL Scalepack (Otwinowski & Minor 1997)'
_computing_data_collection       'Collect (Nonius BV, 1997-2000)'
_computing_data_reduction
'HKL Denzo and Scalepack (Otwinowski & Minor 1997)'
_computing_molecular_graphics    'Ortep-3 for Windows (Farrugia, 1997)'
_computing_publication_material  'WinGX publication routines (Farrugia, 1999)'
_computing_structure_refinement  'SHELXL-97 (Sheldrick, 1997)'
_computing_structure_solution    'SHELXS-97 (Sheldrick, 1997)'
_diffrn_ambient_temperature      293(2)
_diffrn_measured_fraction_theta_full 0.873
_diffrn_measured_fraction_theta_max 0.873
_diffrn_measurement_device       '95mm CCD camera on \k-goniostat'
_diffrn_measurement_device_type  KappaCCD
_diffrn_measurement_method       'CCD rotation images, thick slices'
_diffrn_radiation_monochromator  graphite
_diffrn_radiation_type           MoK\a
_diffrn_radiation_wavelength     0.71073
_diffrn_reflns_av_R_equivalents  0.0321
_diffrn_reflns_limit_h_max       7
_diffrn_reflns_limit_h_min       -5
_diffrn_reflns_limit_k_max       8
_diffrn_reflns_limit_k_min       -6
_diffrn_reflns_limit_l_max       17
_diffrn_reflns_limit_l_min       -17
_diffrn_reflns_number            2914
_diffrn_reflns_reduction_process
;
 Scaled and merged with SORTAV
 R.H. Blessing, (1987) Cryst. Rev. 1, 3-58
 R.H. Blessing, (1989) J. Appl. Cryst. 22, 396-397
;
_diffrn_reflns_theta_full        27.45
_diffrn_reflns_theta_max         27.45
_diffrn_reflns_theta_min         3.25
_exptl_absorpt_coefficient_mu    0.1
_exptl_absorpt_correction_T_max  1.041
_exptl_absorpt_correction_T_min  0.951
_exptl_absorpt_correction_type   multi-scan
_exptl_absorpt_process_details
;
 R.H. Blessing, Acta Cryst. (1995), A51, 33-38
;
_exptl_crystal_colour            yellow
_exptl_crystal_density_diffrn    1.285
_exptl_crystal_density_method    'not measured'
_exptl_crystal_description       plate
_exptl_crystal_F_000             244
_exptl_crystal_size_max          0.2
_exptl_crystal_size_mid          0.2
_exptl_crystal_size_min          0.05
_refine_diff_density_max         0.173
_refine_diff_density_min         -0.23
_refine_ls_extinction_method     none
_refine_ls_goodness_of_fit_ref   1.067
_refine_ls_hydrogen_treatment    mixed
_refine_ls_matrix_type           full
_refine_ls_number_parameters     185
_refine_ls_number_reflns         1274
_refine_ls_number_restraints     1
_refine_ls_restrained_S_all      1.067
_refine_ls_R_factor_all          0.0671
_refine_ls_R_factor_gt           0.0437
_refine_ls_shift/su_max          0
_refine_ls_shift/su_mean         0
_refine_ls_structure_factor_coef Fsqd
_refine_ls_weighting_details
'calc w=1/[\s^2^(Fo^2^)+(0.0466P)^2^+0.0000P] where P=(Fo^2^+2Fc^2^)/3'
_refine_ls_weighting_scheme      calc
_refine_ls_wR_factor_gt          0.092
_refine_ls_wR_factor_ref         0.1025
_reflns_number_gt                991
_reflns_number_total             1274
_reflns_threshold_expression     >2sigma(I)
_cod_data_source_file            bk5025.cif
_cod_data_source_block           EPHENITR
_cod_original_sg_symbol_H-M      'P 21'
_cod_database_code               2100473
loop_
_symmetry_equiv_pos_as_xyz
'x, y, z'
'-x, y+1/2, -z'
loop_
_atom_site_type_symbol
_atom_site_label
_atom_site_fract_x
_atom_site_fract_y
_atom_site_fract_z
_atom_site_U_iso_or_equiv
_atom_site_adp_type
_atom_site_calc_flag
_atom_site_refinement_flags
_atom_site_occupancy
C C1 -0.0329(6) 0.5459(5) 0.3402(2) 0.0404(7) Uani d . 1
H H1 -0.169(7) 0.565(6) 0.299(2) 0.049 Uiso d . 1
C C2 -0.0436(7) 0.6236(6) 0.4211(2) 0.0498(8) Uani d . 1
H H2 -0.185(7) 0.693(7) 0.435(2) 0.06 Uiso d . 1
C C3 0.1510(6) 0.6036(6) 0.4847(2) 0.0505(9) Uani d . 1
H H3 0.140(6) 0.654(7) 0.542(2) 0.061 Uiso d . 1
C C4 0.3562(7) 0.5038(6) 0.4677(2) 0.0518(9) Uani d . 1
H H4 0.483(7) 0.489(7) 0.511(3) 0.062 Uiso d . 1
C C5 0.3679(6) 0.4258(5) 0.3870(2) 0.0432(8) Uani d . 1
H H5 0.516(6) 0.353(7) 0.3714(19) 0.052 Uiso d . 1
C C6 0.1751(5) 0.4460(4) 0.32202(19) 0.0364(7) Uani d . 1
H H6 0.456(6) 0.437(7) 0.188(2) 0.044 Uiso d . 1
C C7 0.1859(5) 0.3675(5) 0.23264(18) 0.0332(6) Uani d . 1
H H7 0.100(5) 0.462(6) 0.196(2) 0.04 Uiso d . 1
C C8 0.0613(5) 0.1688(5) 0.21980(18) 0.0365(7) Uani d . 1
H H8 -0.111(5) 0.190(6) 0.2266(18) 0.044 Uiso d . 1
C C9 0.1802(8) 0.0130(6) 0.2798(2) 0.0510(9) Uani d . 1
H H9A 0.360(7) 0.018(7) 0.280(2) 0.061 Uiso d . 1
H H9B 0.108(6) -0.114(7) 0.268(2) 0.061 Uiso d . 1
H H9C 0.136(6) 0.038(7) 0.343(2) 0.061 Uiso d . 1
C C10 -0.0222(6) 0.2406(5) 0.0604(2) 0.0439(8) Uani d . 1
H H12A -0.1764 0.2913 0.0721 0.066 Uiso calc R 1
H H12B -0.0422 0.1754 0.0058 0.066 Uiso calc R 1
H H12C 0.0918 0.3459 0.0591 0.066 Uiso calc R 1
N N1 0.0715(5) 0.0995(4) 0.12897(15) 0.0363(6) Uani d . 1
H H10 0.244(6) 0.070(5) 0.1250(19) 0.044 Uiso d . 1
H H11 -0.016(6) 0.002(7) 0.121(2) 0.044 Uiso d . 1
N N2 0.5696(4) 0.8008(4) 0.11488(15) 0.0366(6) Uani d . 1
O O1 0.4272(3) 0.3458(4) 0.21190(14) 0.0403(5) Uani d . 1
O O2 0.7798(4) 0.7339(4) 0.12860(14) 0.0479(6) Uani d . 1
O O3 0.3895(4) 0.7037(4) 0.12808(14) 0.0500(6) Uani d . 1
O O4 0.5408(4) 0.9729(4) 0.08800(15) 0.0537(7) Uani d . 1
loop_
_atom_site_aniso_label
_atom_site_aniso_U_11
_atom_site_aniso_U_22
_atom_site_aniso_U_33
_atom_site_aniso_U_12
_atom_site_aniso_U_13
_atom_site_aniso_U_23
C1 0.0421(16) 0.0297(18) 0.0500(18) -0.0046(14) 0.0077(14) -0.0037(14)
C2 0.055(2) 0.035(2) 0.064(2) -0.0082(16) 0.0229(17) -0.0081(16)
C3 0.062(2) 0.045(2) 0.0456(18) -0.0174(18) 0.0110(16) -0.0052(15)
C4 0.056(2) 0.051(2) 0.0473(18) -0.0136(18) 0.0021(15) 0.0017(17)
C5 0.0448(16) 0.036(2) 0.0488(18) -0.0062(14) 0.0056(14) 0.0030(14)
C6 0.0400(15) 0.0230(17) 0.0463(16) -0.0087(12) 0.0056(13) 0.0054(12)
C7 0.0344(13) 0.0215(15) 0.0430(15) -0.0013(13) 0.0025(11) 0.0035(12)
C8 0.0406(16) 0.0265(17) 0.0427(17) -0.0068(13) 0.0067(13) 0.0023(13)
C9 0.075(2) 0.026(2) 0.050(2) -0.0067(17) 0.0003(17) 0.0086(15)
C10 0.0523(17) 0.0343(19) 0.0445(16) -0.0021(15) 0.0036(13) 0.0016(14)
N1 0.0373(14) 0.0244(15) 0.0468(15) -0.0035(11) 0.0033(11) 0.0027(11)
N2 0.0384(13) 0.0274(15) 0.0449(13) -0.0016(11) 0.0086(10) 0.0027(11)
O1 0.0392(11) 0.0291(14) 0.0534(13) -0.0019(9) 0.0089(9) 0.0032(9)
O2 0.0390(11) 0.0423(14) 0.0616(13) 0.0056(11) 0.0033(9) 0.0008(11)
O3 0.0453(11) 0.0386(14) 0.0673(14) -0.0071(11) 0.0115(10) 0.0110(11)
O4 0.0479(13) 0.0296(14) 0.0858(17) -0.0015(11) 0.0162(12) 0.0137(12)
loop_
_atom_type_symbol
_atom_type_description
_atom_type_scat_dispersion_real
_atom_type_scat_dispersion_imag
_atom_type_scat_source
C C 0.0033 0 'International Tables Vol C Tables 4.2.6.8 and 6.1.1.4'
H H 0 0 'International Tables Vol C Tables 4.2.6.8 and 6.1.1.4'
N N 0.0061 0 'International Tables Vol C Tables 4.2.6.8 and 6.1.1.4'
O O 0.0106 0 'International Tables Vol C Tables 4.2.6.8 and 6.1.1.4'
loop_
_geom_angle_atom_site_label_1
_geom_angle_atom_site_label_2
_geom_angle_atom_site_label_3
_geom_angle
C2 C1 C6 120.4(3)
C2 C1 H1 117(2)
C6 C1 H1 123(2)
C3 C2 C1 120.4(4)
C3 C2 H2 118(2)
C1 C2 H2 122(2)
C2 C3 C4 119.7(4)
C2 C3 H3 120(2)
C4 C3 H3 120(2)
C3 C4 C5 120.2(3)
C3 C4 H4 119(3)
C5 C4 H4 121(3)
C4 C5 C6 121.0(3)
C4 C5 H5 123.0(17)
C6 C5 H5 116.1(17)
C5 C6 C1 118.4(3)
C5 C6 C7 122.1(3)
C1 C6 C7 119.6(3)
O1 C7 C6 113.5(2)
O1 C7 C8 107.3(2)
C6 C7 C8 111.7(2)
O1 C7 H7 110.2(18)
C6 C7 H7 104(2)
C8 C7 H7 110(2)
N1 C8 C9 107.4(3)
N1 C8 C7 109.6(2)
C9 C8 C7 113.1(3)
N1 C8 H8 107.4(17)
C9 C8 H8 113(2)
C7 C8 H8 107(2)
C8 C9 H9A 109(2)
C8 C9 H9B 112(2)
H9A C9 H9B 115(4)
C8 C9 H9C 109(2)
H9A C9 H9C 110(3)
H9B C9 H9C 101(3)
N1 C10 H12A 109.5
N1 C10 H12B 109.5
H12A C10 H12B 109.5
N1 C10 H12C 109.5
H12A C10 H12C 109.5
H12B C10 H12C 109.5
C10 N1 C8 115.3(3)
C10 N1 H10 110(2)
C8 N1 H10 106.1(18)
C10 N1 H11 106(2)
C8 N1 H11 108(2)
H10 N1 H11 112(3)
O3 N2 O2 121.9(3)
O3 N2 O4 119.4(2)
O2 N2 O4 118.7(2)
C7 O1 H6 107(3)
loop_
_geom_bond_atom_site_label_1
_geom_bond_atom_site_label_2
_geom_bond_distance
C1 C2 1.385(5)
C1 C6 1.399(4)
C1 H1 0.94(4)
C2 C3 1.379(5)
C2 H2 0.96(4)
C3 C4 1.379(6)
C3 H3 0.97(4)
C4 C5 1.383(5)
C4 H4 0.91(4)
C5 C6 1.387(4)
C5 H5 1.01(4)
C6 C7 1.510(4)
C7 O1 1.421(3)
C7 C8 1.527(4)
C7 H7 0.95(4)
C8 N1 1.510(4)
C8 C9 1.517(5)
C8 H8 0.99(3)
C9 H9A 0.99(4)
C9 H9B 0.97(5)
C9 H9C 1.06(4)
C10 N1 1.490(4)
C10 H12A 0.96
C10 H12B 0.96
C10 H12C 0.96
N1 H10 0.99(3)
N1 H11 0.83(4)
N2 O3 1.237(3)
N2 O2 1.243(3)
N2 O4 1.256(3)
O1 H6 0.76(4)
loop_
_geom_hbond_atom_site_label_D
_geom_hbond_atom_site_label_H
_geom_hbond_atom_site_label_A
_geom_hbond_site_symmetry_A
_geom_hbond_distance_DH
_geom_hbond_distance_HA
_geom_hbond_distance_DA
_geom_hbond_angle_DHA
N1 H10 O4 1_545 0.99(3) 1.93(3) 2.885(4) 164(3)
N1 H10 N2 1_545 0.99(3) 2.59(4) 3.461(4) 147(3)
N1 H10 O3 1_545 0.99(3) 2.63(4) 3.233(4) 120(3)
N1 H11 O2 1_445 0.83(4) 2.16(4) 2.978(4) 168(3)
N1 H11 O4 1_445 0.83(4) 2.45(3) 3.051(3) 130(3)
N1 H11 N2 1_445 0.83(4) 2.66(4) 3.433(4) 155(3)
loop_
_geom_torsion_atom_site_label_1
_geom_torsion_atom_site_label_2
_geom_torsion_atom_site_label_3
_geom_torsion_atom_site_label_4
_geom_torsion
C6 C1 C2 C3 0.1(5)
C1 C2 C3 C4 -0.7(5)
C2 C3 C4 C5 0.7(5)
C3 C4 C5 C6 -0.1(5)
C4 C5 C6 C1 -0.5(5)
C4 C5 C6 C7 178.2(3)
C2 C1 C6 C5 0.5(4)
C2 C1 C6 C7 -178.2(3)
C5 C6 C7 O1 -23.9(4)
C1 C6 C7 O1 154.8(3)
C5 C6 C7 C8 97.6(3)
C1 C6 C7 C8 -83.7(3)
O1 C7 C8 N1 -56.5(3)
C6 C7 C8 N1 178.5(2)
O1 C7 C8 C9 63.3(4)
C6 C7 C8 C9 -61.6(4)
C9 C8 N1 C10 -176.0(3)
C7 C8 N1 C10 -52.7(3)
loop_
_cod_related_entry_id
_cod_related_entry_database
_cod_related_entry_code
1 ChemSpider 21188134
