#------------------------------------------------------------------------------
#$Date: 2017-10-13 08:28:26 +0300 (Fri, 13 Oct 2017) $
#$Revision: 201972 $
#$URL: file:///home/coder/svn-repositories/cod/cif/2/10/05/2100534.cif $
#------------------------------------------------------------------------------
#
# This file is available in the Crystallography Open Database (COD),
# http://www.crystallography.net/. The original data for this entry
# were provided by IUCr Journals, http://journals.iucr.org/.
#
# The file may be used within the scientific community so long as
# proper attribution is given to the journal article from which the
# data were obtained.
#
data_2100534
loop_
_publ_author_name
'Cuffini, Silvia'
'Glidewell, Christopher'
'Low, John N.'
'de Oliviera, Aline G.'
'de Souza, Marcus V. N.'
'Vasconcelos, Thatyana R. A.'
'Wardell, Solange M. S. V.'
'Wardell, James L.'
_publ_section_title
;
 Nine <i>N</i>-aryl-2-chloronicotinamides: supramolecular structures in
 one, two and three dimensions
;
_journal_coeditor_code           BM5033
_journal_issue                   4
_journal_name_full               'Acta Crystallographica Section B'
_journal_page_first              651
_journal_page_last               665
_journal_paper_doi               10.1107/S0108768106015497
_journal_volume                  62
_journal_year                    2006
_chemical_formula_moiety         'C12 H8 Cl F N2 O, H2 O'
_chemical_formula_sum            'C12 H10 Cl F N2 O2'
_chemical_formula_weight         268.67
_chemical_name_systematic
;
N-(4-Fluorophenyl)-2-chloronicotinamide monohydrate
;
_space_group_IT_number           2
_symmetry_cell_setting           triclinic
_symmetry_space_group_name_Hall  '-P 1'
_symmetry_space_group_name_H-M   'P -1'
_atom_sites_solution_hydrogens   geom
_atom_sites_solution_primary     direct
_atom_sites_solution_secondary   difmap
_cell_angle_alpha                84.032(3)
_cell_angle_beta                 84.297(2)
_cell_angle_gamma                69.569(3)
_cell_formula_units_Z            2
_cell_length_a                   6.8033(4)
_cell_length_b                   8.1303(3)
_cell_length_c                   11.5356(6)
_cell_measurement_reflns_used    2720
_cell_measurement_temperature    120(2)
_cell_measurement_theta_max      27.75
_cell_measurement_theta_min      3.33
_cell_volume                     593.32(5)
_computing_cell_refinement       'DENZO (Otwinowski & Minor, 1997) & COLLECT'
_computing_data_collection       'COLLECT (Hooft, 1999)'
_computing_data_reduction        'DENZO & COLLECT'
_computing_molecular_graphics    'PLATON (Spek, 2003)'
_computing_publication_material  'SHELXL-97 and PRPKAPPA (Ferguson, 1999)'
_computing_structure_refinement  'OSCAIL and SHELXL-97 (Sheldrick, 1997)'
_computing_structure_solution
'OSCAIL (McArdle, 2003) and SHELXS-97 (Sheldrick, 1997)'
_diffrn_ambient_temperature      120(2)
_diffrn_detector_area_resol_mean 9.091
_diffrn_measured_fraction_theta_full 0.996
_diffrn_measured_fraction_theta_max 0.971
_diffrn_measurement_device_type
'Bruker-Nonius 95mm CCD camera on \k goniostat'
_diffrn_measurement_method       '\f & \w scans'
_diffrn_radiation_monochromator  graphite
_diffrn_radiation_source         'Bruker-Nonius FR591 rotating anode'
_diffrn_radiation_type           'Mo K\a'
_diffrn_radiation_wavelength     0.71073
_diffrn_reflns_av_R_equivalents  0.0522
_diffrn_reflns_av_sigmaI/netI    0.0536
_diffrn_reflns_limit_h_max       8
_diffrn_reflns_limit_h_min       -8
_diffrn_reflns_limit_k_max       10
_diffrn_reflns_limit_k_min       -9
_diffrn_reflns_limit_l_max       14
_diffrn_reflns_limit_l_min       -14
_diffrn_reflns_number            12303
_diffrn_reflns_theta_full        27.50
_diffrn_reflns_theta_max         27.75
_diffrn_reflns_theta_min         3.33
_diffrn_standards_decay_%        0
_exptl_absorpt_coefficient_mu    0.330
_exptl_absorpt_correction_T_max  0.990
_exptl_absorpt_correction_T_min  0.933
_exptl_absorpt_correction_type   multi-scan
_exptl_absorpt_process_details   'SADABS 2.10 (Sheldrick,. 2003)'
_exptl_crystal_colour            colourless
_exptl_crystal_density_diffrn    1.504
_exptl_crystal_density_method    'not measured'
_exptl_crystal_description       plate
_exptl_crystal_F_000             276
_exptl_crystal_size_max          0.18
_exptl_crystal_size_mid          0.16
_exptl_crystal_size_min          0.03
_refine_diff_density_max         0.259
_refine_diff_density_min         -0.293
_refine_ls_extinction_method     none
_refine_ls_goodness_of_fit_ref   1.049
_refine_ls_hydrogen_treatment    constr
_refine_ls_matrix_type           full
_refine_ls_number_parameters     163
_refine_ls_number_reflns         2720
_refine_ls_number_restraints     0
_refine_ls_restrained_S_all      1.049
_refine_ls_R_factor_all          0.0751
_refine_ls_R_factor_gt           0.0436
_refine_ls_shift/su_max          0.000
_refine_ls_shift/su_mean         0.000
_refine_ls_structure_factor_coef Fsqd
_refine_ls_weighting_details
'w=1/[\s^2^(Fo^2^)+(0.0536P)^2^+0.1705P] where P=(Fo^2^+2Fc^2^)/3'
_refine_ls_weighting_scheme      calc
_refine_ls_wR_factor_gt          0.1001
_refine_ls_wR_factor_ref         0.1130
_reflns_number_gt                1943
_reflns_number_total             2720
_reflns_threshold_expression     I>2\s(I)
_cod_data_source_file            bm5033.cif
_cod_data_source_block           III
_cod_depositor_comments
;
The following automatic conversions were performed:
'_exptl_absorpt_correction_type' value 'Multi-scan' changed to
'multi-scan' according to
'/home/saulius/struct/CIF-dictionaries/cif_core.dic' dictionary named
'cif_core.dic' version 2.4.1 from 2010-06-29.

Automatic conversion script
Id: cif_fix_enum 1527 2010-12-29 10:47:43Z saulius 

The following automatic conversions were performed:

'_exptl_absorpt_correction_type' value 'Multi-scan' changed to
'multi-scan' according to
/home/saulius/struct/CIF-dictionaries/cif_core.dic dictionary named
'cif_core.dic' version 2.4.1 from 2010-06-29.

Automatic conversion script
Id: cif_fix_values 1715 2011-07-08 13:25:40Z adriana 
;
_cod_database_code               2100534
loop_
_symmetry_equiv_pos_as_xyz
'x, y, z'
'-x, -y, -z'
loop_
_atom_site_type_symbol
_atom_site_label
_atom_site_fract_x
_atom_site_fract_y
_atom_site_fract_z
_atom_site_U_iso_or_equiv
_atom_site_adp_type
_atom_site_calc_flag
_atom_site_refinement_flags
_atom_site_occupancy
N N11 0.7571(3) 0.9978(2) 0.48546(15) 0.0235(4) Uani d . 1
C C12 0.7752(3) 0.9063(3) 0.58821(17) 0.0199(4) Uani d . 1
Cl Cl1 0.78295(8) 1.02152(7) 0.70544(5) 0.02776(17) Uani d . 1
C C13 0.7785(3) 0.7329(2) 0.60679(17) 0.0197(4) Uani d . 1
C C14 0.7568(3) 0.6539(3) 0.50950(18) 0.0234(5) Uani d . 1
C C15 0.7400(3) 0.7458(3) 0.40094(18) 0.0258(5) Uani d . 1
C C16 0.7432(3) 0.9155(3) 0.39284(19) 0.0258(5) Uani d . 1
C C17 0.8196(3) 0.6272(3) 0.72202(17) 0.0209(4) Uani d . 1
O O1 0.9775(2) 0.61153(18) 0.77274(12) 0.0271(4) Uani d . 1
N N21 0.6788(3) 0.5477(2) 0.75786(14) 0.0209(4) Uani d . 1
C C21 0.6875(3) 0.4219(2) 0.85440(17) 0.0205(4) Uani d . 1
C C22 0.5108(3) 0.3715(3) 0.87844(18) 0.0231(5) Uani d . 1
C C23 0.5070(4) 0.2461(3) 0.96891(18) 0.0270(5) Uani d . 1
C C24 0.6789(4) 0.1759(3) 1.03364(18) 0.0277(5) Uani d . 1
F F24 0.6761(2) 0.05172(17) 1.12278(11) 0.0396(4) Uani d . 1
C C25 0.8533(4) 0.2245(3) 1.01359(19) 0.0288(5) Uani d . 1
C C26 0.8583(3) 0.3489(3) 0.92234(19) 0.0268(5) Uani d . 1
O O2 0.3127(2) 0.65660(18) 0.63096(13) 0.0276(4) Uani d . 1
H H14 0.7534 0.5374 0.5177 0.028 Uiso calc R 1
H H15 0.7267 0.6935 0.3336 0.031 Uiso calc R 1
H H16 0.7353 0.9775 0.3180 0.031 Uiso calc R 1
H H21 0.5606 0.5839 0.7159 0.025 Uiso d R 1
H H22 0.3927 0.4232 0.8327 0.028 Uiso calc R 1
H H23 0.3880 0.2098 0.9855 0.032 Uiso calc R 1
H H25 0.9689 0.1740 1.0612 0.035 Uiso calc R 1
H H26 0.9784 0.3839 0.9066 0.032 Uiso calc R 1
H H2A 0.2798 0.7599 0.5792 0.041 Uiso d R 1
H H2B 0.2058 0.6458 0.6689 0.041 Uiso d R 1
loop_
_atom_site_aniso_label
_atom_site_aniso_U_11
_atom_site_aniso_U_22
_atom_site_aniso_U_33
_atom_site_aniso_U_12
_atom_site_aniso_U_13
_atom_site_aniso_U_23
N11 0.0174(9) 0.0273(9) 0.0255(10) -0.0077(7) -0.0038(7) 0.0021(7)
C12 0.0127(10) 0.0235(10) 0.0238(11) -0.0060(8) -0.0026(8) -0.0026(8)
Cl1 0.0311(3) 0.0269(3) 0.0277(3) -0.0113(2) -0.0042(2) -0.0056(2)
C13 0.0122(10) 0.0223(10) 0.0235(11) -0.0052(8) -0.0003(8) -0.0001(8)
C14 0.0182(11) 0.0239(11) 0.0277(12) -0.0062(8) -0.0033(9) -0.0027(9)
C15 0.0214(11) 0.0311(12) 0.0245(12) -0.0075(9) -0.0033(9) -0.0048(9)
C16 0.0199(11) 0.0321(12) 0.0229(11) -0.0068(9) -0.0020(9) 0.0027(9)
C17 0.0181(11) 0.0223(10) 0.0221(11) -0.0063(8) -0.0025(8) -0.0021(8)
O1 0.0237(8) 0.0326(8) 0.0279(8) -0.0134(6) -0.0084(6) 0.0044(6)
N21 0.0169(9) 0.0217(9) 0.0249(10) -0.0078(7) -0.0061(7) 0.0039(7)
C21 0.0226(11) 0.0171(10) 0.0211(11) -0.0057(8) -0.0015(8) -0.0026(8)
C22 0.0234(11) 0.0254(11) 0.0227(11) -0.0105(9) -0.0028(9) -0.0031(8)
C23 0.0325(13) 0.0292(11) 0.0240(12) -0.0168(10) -0.0002(10) -0.0033(9)
C24 0.0413(14) 0.0222(11) 0.0197(11) -0.0123(10) -0.0010(10) 0.0012(8)
F24 0.0566(9) 0.0359(7) 0.0300(8) -0.0230(7) -0.0073(7) 0.0111(6)
C25 0.0285(12) 0.0275(12) 0.0277(12) -0.0056(9) -0.0081(10) 0.0022(9)
C26 0.0233(12) 0.0271(11) 0.0297(12) -0.0086(9) -0.0046(9) 0.0016(9)
O2 0.0212(8) 0.0271(8) 0.0357(9) -0.0111(6) -0.0052(6) 0.0057(6)
loop_
_atom_type_symbol
_atom_type_description
_atom_type_scat_dispersion_real
_atom_type_scat_dispersion_imag
_atom_type_scat_source
C C 0.0033 0.0016 'International Tables Vol C Tables 4.2.6.8 and 6.1.1.4'
H H 0.0000 0.0000 'International Tables Vol C Tables 4.2.6.8 and 6.1.1.4'
Cl Cl 0.1484 0.1585 'International Tables Vol C Tables 4.2.6.8 and 6.1.1.4'
F F 0.0171 0.0103 'International Tables Vol C Tables 4.2.6.8 and 6.1.1.4'
N N 0.0061 0.0033 'International Tables Vol C Tables 4.2.6.8 and 6.1.1.4'
O O 0.0106 0.0060 'International Tables Vol C Tables 4.2.6.8 and 6.1.1.4'
loop_
_geom_angle_atom_site_label_1
_geom_angle_atom_site_label_2
_geom_angle_atom_site_label_3
_geom_angle
_geom_angle_publ_flag
C12 N11 C16 117.01(17) no
N11 C12 C13 124.72(19) no
N11 C12 Cl1 115.00(15) no
C13 C12 Cl1 120.21(15) no
C14 C13 C12 116.67(18) no
C14 C13 C17 119.78(18) no
C12 C13 C17 123.38(18) no
C15 C14 C13 119.74(19) no
C15 C14 H14 120.1 no
C13 C14 H14 120.1 no
C16 C15 C14 118.4(2) no
C16 C15 H15 120.8 no
C14 C15 H15 120.8 no
N11 C16 C15 123.42(19) no
N11 C16 H16 118.3 no
C15 C16 H16 118.3 no
O1 C17 N21 125.40(18) no
O1 C17 C13 120.50(17) no
N21 C17 C13 113.99(17) no
C17 N21 C21 127.79(17) no
C17 N21 H21 114.9 no
C21 N21 H21 117.2 no
C26 C21 C22 120.02(19) no
C26 C21 N21 123.98(18) no
C22 C21 N21 116.00(18) no
C23 C22 C21 120.2(2) no
C23 C22 H22 119.9 no
C21 C22 H22 119.9 no
C24 C23 C22 118.3(2) no
C24 C23 H23 120.9 no
C22 C23 H23 120.9 no
C25 C24 C23 123.1(2) no
C25 C24 F24 118.5(2) no
C23 C24 F24 118.43(19) no
C24 C25 C26 118.8(2) no
C24 C25 H25 120.6 no
C26 C25 H25 120.6 no
C21 C26 C25 119.7(2) no
C21 C26 H26 120.2 no
C25 C26 H26 120.2 no
H2A O2 H2B 112.3 no
loop_
_geom_bond_atom_site_label_1
_geom_bond_atom_site_label_2
_geom_bond_distance
_geom_bond_publ_flag
N11 C12 1.325(3) no
N11 C16 1.345(3) no
C12 C13 1.397(3) no
C12 Cl1 1.738(2) no
C13 C14 1.394(3) no
C13 C17 1.501(3) no
C14 C15 1.384(3) no
C14 H14 0.95 no
C15 C16 1.381(3) no
C15 H15 0.95 no
C16 H16 0.95 no
C17 O1 1.235(2) no
C17 N21 1.343(2) no
N21 C21 1.423(2) no
N21 H21 0.9217 no
C21 C26 1.386(3) no
C21 C22 1.394(3) no
C22 C23 1.386(3) no
C22 H22 0.95 no
C23 C24 1.368(3) no
C23 H23 0.95 no
C24 C25 1.367(3) no
C24 F24 1.368(2) no
C25 C26 1.389(3) no
C25 H25 0.95 no
C26 H26 0.95 no
O2 H2A 0.9508 no
O2 H2B 0.8371 no
loop_
_geom_hbond_atom_site_label_D
_geom_hbond_atom_site_label_H
_geom_hbond_atom_site_label_A
_geom_hbond_site_symmetry_A
_geom_hbond_distance_DH
_geom_hbond_distance_HA
_geom_hbond_distance_DA
_geom_hbond_angle_DHA
_geom_hbond_publ_flag
O2 H2A N11 2_676 0.95 1.97 2.887(2) 161 no
O2 H2B O1 1_455 0.84 1.95 2.780(2) 173 no
N21 H21 O2 . 0.92 1.91 2.837(2) 179 no
loop_
_geom_torsion_atom_site_label_1
_geom_torsion_atom_site_label_2
_geom_torsion_atom_site_label_3
_geom_torsion_atom_site_label_4
_geom_torsion
_geom_torsion_publ_flag
C16 N11 C12 C13 -0.7(3) no
C16 N11 C12 Cl1 -177.79(14) no
N11 C12 C13 C14 -1.4(3) no
Cl1 C12 C13 C14 175.56(14) no
N11 C12 C13 C17 174.01(18) no
Cl1 C12 C13 C17 -9.1(3) no
C12 C13 C14 C15 2.0(3) no
C17 C13 C14 C15 -173.52(18) no
C13 C14 C15 C16 -0.7(3) no
C12 N11 C16 C15 2.2(3) no
C14 C15 C16 N11 -1.5(3) no
C14 C13 C17 O1 122.2(2) no
C12 C13 C17 O1 -53.0(3) no
C14 C13 C17 N21 -54.2(2) no
C12 C13 C17 N21 130.5(2) no
O1 C17 N21 C21 -4.9(3) no
C13 C17 N21 C21 171.39(18) no
C17 N21 C21 C26 -5.9(3) no
C17 N21 C21 C22 174.60(18) no
C26 C21 C22 C23 -1.2(3) no
N21 C21 C22 C23 178.30(17) no
C21 C22 C23 C24 0.7(3) no
C22 C23 C24 C25 0.4(3) no
C22 C23 C24 F24 -179.80(18) no
C23 C24 C25 C26 -1.0(3) no
F24 C24 C25 C26 179.21(18) no
C22 C21 C26 C25 0.6(3) no
N21 C21 C26 C25 -178.85(19) no
C24 C25 C26 C21 0.5(3) no
loop_
_cod_related_entry_id
_cod_related_entry_database
_cod_related_entry_code
1 ChemSpider 21140044
