#------------------------------------------------------------------------------
#$Date: 2017-10-13 08:28:26 +0300 (Fri, 13 Oct 2017) $
#$Revision: 201972 $
#$URL: file:///home/coder/svn-repositories/cod/cif/2/10/02/2100283.cif $
#------------------------------------------------------------------------------
#
# This file is available in the Crystallography Open Database (COD),
# http://www.crystallography.net/. The original data for this entry
# were provided by IUCr Journals, http://journals.iucr.org/.
#
# The file may be used within the scientific community so long as
# proper attribution is given to the journal article from which the
# data were obtained.
#
data_2100283
loop_
_publ_author_name
'Nichol, Gary S.'
'Clegg, William'
_publ_section_title
;
 A variable-temperature study of a phase transition in barbituric acid
 dihydrate
;
_journal_coeditor_code           WS5026
_journal_issue                   4
_journal_name_full               'Acta Crystallographica Section B'
_journal_page_first              464
_journal_page_last               472
_journal_paper_doi               10.1107/S0108768105017258
_journal_volume                  61
_journal_year                    2005
_chemical_formula_moiety         'C4 H4 N2 O3, 2 H2 O'
_chemical_formula_sum            'C4 H8 N2 O5'
_chemical_formula_weight         164.12
_chemical_name_systematic
;
 ?
;
_space_group_IT_number           62
_symmetry_cell_setting           orthorhombic
_symmetry_space_group_name_Hall  '-P 2bc 2a'
_symmetry_space_group_name_H-M   'P m n b'
_atom_sites_solution_hydrogens   difmap
_atom_sites_solution_primary     'using coordinates of another structure'
_atom_sites_solution_secondary   difmap
_audit_creation_method           SHELXL-97
_cell_angle_alpha                90.00
_cell_angle_beta                 90.00
_cell_angle_gamma                90.00
_cell_formula_units_Z            4
_cell_length_a                   6.2144(7)
_cell_length_b                   12.7512(14)
_cell_length_c                   8.8841(10)
_cell_measurement_reflns_used    3968
_cell_measurement_temperature    270(2)
_cell_measurement_theta_max      28.15
_cell_measurement_theta_min      2.2
_cell_volume                     703.99(14)
_computing_cell_refinement       'Bruker SAINT'
_computing_data_collection       'Bruker SMART'
_computing_data_reduction        'Bruker SAINT'
_computing_molecular_graphics    'Bruker SHELXTL'
_computing_publication_material  'Bruker SHELXTL and local programs'
_computing_structure_refinement  'Bruker SHELXTL'
_computing_structure_solution    'using coordinates of 150K structure'
_diffrn_ambient_temperature      270(2)
_diffrn_measured_fraction_theta_full 1.000
_diffrn_measured_fraction_theta_max 0.984
_diffrn_measurement_device_type  'Bruker SMART 1K CCD diffractometer'
_diffrn_measurement_method       'thin-slice \w scans'
_diffrn_radiation_monochromator  graphite
_diffrn_radiation_source         'sealed tube'
_diffrn_radiation_type           MoK\a
_diffrn_radiation_wavelength     0.71073
_diffrn_reflns_av_R_equivalents  0.0233
_diffrn_reflns_av_sigmaI/netI    0.0173
_diffrn_reflns_limit_h_max       8
_diffrn_reflns_limit_h_min       -8
_diffrn_reflns_limit_k_max       16
_diffrn_reflns_limit_k_min       -16
_diffrn_reflns_limit_l_max       11
_diffrn_reflns_limit_l_min       -11
_diffrn_reflns_number            5918
_diffrn_reflns_theta_full        26.00
_diffrn_reflns_theta_max         28.28
_diffrn_reflns_theta_min         2.79
_diffrn_standards_number         0
_exptl_absorpt_coefficient_mu    0.144
_exptl_absorpt_correction_T_max  0.9788
_exptl_absorpt_correction_T_min  0.7974
_exptl_absorpt_correction_type   multi-scan
_exptl_absorpt_process_details   'SADABS; Sheldrick (2003)'
_exptl_crystal_colour            colourless
_exptl_crystal_density_diffrn    1.549
_exptl_crystal_density_method    'not measured'
_exptl_crystal_description       block
_exptl_crystal_F_000             344
_exptl_crystal_size_max          0.53
_exptl_crystal_size_mid          0.42
_exptl_crystal_size_min          0.15
_refine_diff_density_max         0.237
_refine_diff_density_min         -0.287
_refine_ls_extinction_coef       0.040(7)
_refine_ls_extinction_expression Fc^*^=kFc[1+0.001xFc^2^\l^3^/sin(2\q)]^-1/4^
_refine_ls_extinction_method     SHELXL
_refine_ls_goodness_of_fit_ref   1.109
_refine_ls_hydrogen_treatment    refxyz
_refine_ls_matrix_type           full
_refine_ls_number_parameters     83
_refine_ls_number_reflns         940
_refine_ls_number_restraints     0
_refine_ls_restrained_S_all      1.109
_refine_ls_R_factor_all          0.0463
_refine_ls_R_factor_gt           0.0410
_refine_ls_shift/su_max          0.000
_refine_ls_shift/su_mean         0.000
_refine_ls_structure_factor_coef Fsqd
_refine_ls_weighting_details
'calc w=1/[\s^2^(Fo^2^)+(0.0639P)^2^+0.1693P] where P=(Fo^2^+2Fc^2^)/3'
_refine_ls_weighting_scheme      calc
_refine_ls_wR_factor_gt          0.1100
_refine_ls_wR_factor_ref         0.1164
_reflns_number_gt                820
_reflns_number_total             940
_reflns_threshold_expression     I>2\s(I)
_cod_data_source_file            ws5026.cif
_cod_data_source_block           270
_cod_database_code               2100283
_cod_database_fobs_code          2100283
loop_
_symmetry_equiv_pos_as_xyz
'x, y, z'
'-x, -y+1/2, z+1/2'
'x+1/2, -y, -z'
'-x+1/2, y+1/2, -z+1/2'
'-x, -y, -z'
'x, y-1/2, -z-1/2'
'-x-1/2, y, z'
'x-1/2, -y-1/2, z-1/2'
loop_
_atom_site_label
_atom_site_fract_x
_atom_site_fract_y
_atom_site_fract_z
_atom_site_U_iso_or_equiv
_atom_site_adp_type
_atom_site_calc_flag
_atom_site_refinement_flags
_atom_site_occupancy
_atom_site_disorder_assembly
_atom_site_disorder_group
_atom_site_type_symbol
O1 0.2500 0.55220(10) 0.47730(15) 0.0518(5) Uani d S 1 . . O
O2 0.2500 0.44201(9) 0.95826(15) 0.0484(4) Uani d S 1 . . O
O3 0.2500 0.79018(10) 0.88679(16) 0.0632(6) Uani d S 1 . . O
O4 0.2500 0.88616(12) 0.24031(18) 0.0582(5) Uani d S 1 . . O
H1O 0.2500 0.916(2) 0.320(4) 0.070 Uiso d S 1 . . H
H2O 0.2500 0.926(2) 0.174(3) 0.070 Uiso d S 1 . . H
O5 0.2500 0.67234(13) 0.21568(16) 0.0664(6) Uani d S 1 . . O
H3O 0.2500 0.736(3) 0.224(4) 0.080 Uiso d S 1 . . H
H4O 0.2500 0.646(3) 0.301(4) 0.080 Uiso d S 1 . . H
N1 0.2500 0.49881(11) 0.71776(15) 0.0358(4) Uani d S 1 . . N
H1N 0.2500 0.437(2) 0.689(3) 0.043 Uiso d S 1 . . H
N2 0.2500 0.61715(11) 0.91930(15) 0.0343(4) Uani d S 1 . . N
H2N 0.2500 0.6303(19) 1.018(3) 0.041 Uiso d S 1 . . H
C1 0.2500 0.57485(13) 0.61060(18) 0.0331(4) Uani d S 1 . . C
C2 0.2500 0.51514(12) 0.87106(18) 0.0325(4) Uani d S 1 . . C
C3 0.2500 0.70391(12) 0.8297(2) 0.0363(4) Uani d S 1 . . C
C4 0.2500 0.68682(12) 0.66246(19) 0.0348(4) Uani d S 1 . . C
H1 0.129(3) 0.7188(11) 0.6226(17) 0.042 Uiso d . 1 . . H
loop_
_atom_site_aniso_label
_atom_site_aniso_U_11
_atom_site_aniso_U_22
_atom_site_aniso_U_33
_atom_site_aniso_U_12
_atom_site_aniso_U_13
_atom_site_aniso_U_23
O1 0.1011(12) 0.0322(7) 0.0221(6) 0.000 0.000 -0.0012(5)
O2 0.0948(12) 0.0239(6) 0.0266(7) 0.000 0.000 0.0061(5)
O3 0.1365(16) 0.0208(6) 0.0323(7) 0.000 0.000 -0.0010(5)
O4 0.1134(14) 0.0326(7) 0.0287(7) 0.000 0.000 -0.0014(5)
O5 0.1405(18) 0.0348(7) 0.0239(7) 0.000 0.000 0.0004(5)
N1 0.0653(10) 0.0178(6) 0.0242(7) 0.000 0.000 -0.0011(5)
N2 0.0616(10) 0.0211(7) 0.0201(6) 0.000 0.000 0.0004(5)
C1 0.0520(10) 0.0243(7) 0.0230(8) 0.000 0.000 0.0014(6)
C2 0.0516(10) 0.0216(7) 0.0242(8) 0.000 0.000 0.0014(6)
C3 0.0621(11) 0.0195(7) 0.0274(8) 0.000 0.000 0.0015(6)
C4 0.0588(11) 0.0203(7) 0.0252(8) 0.000 0.000 0.0039(6)
loop_
_atom_type_symbol
_atom_type_description
_atom_type_scat_dispersion_real
_atom_type_scat_dispersion_imag
_atom_type_scat_source
C C 0.0033 0.0016 'International Tables Vol C Tables 4.2.6.8 and 6.1.1.4'
H H 0.0000 0.0000 'International Tables Vol C Tables 4.2.6.8 and 6.1.1.4'
N N 0.0061 0.0033 'International Tables Vol C Tables 4.2.6.8 and 6.1.1.4'
O O 0.0106 0.0060 'International Tables Vol C Tables 4.2.6.8 and 6.1.1.4'
loop_
_geom_angle_atom_site_label_1
_geom_angle_atom_site_label_2
_geom_angle_atom_site_label_3
_geom_angle
H1O O4 H2O 111(3)
H3O O5 H4O 109(3)
H1N N1 C1 117.6(16)
H1N N1 C2 116.6(16)
C1 N1 C2 125.78(14)
H2N N2 C2 119.0(15)
H2N N2 C3 114.9(15)
C2 N2 C3 126.03(14)
O1 C1 N1 120.77(16)
O1 C1 C4 121.59(15)
N1 C1 C4 117.64(14)
O2 C2 N1 121.02(15)
O2 C2 N2 122.04(16)
N1 C2 N2 116.93(14)
O3 C3 N2 119.52(16)
O3 C3 C4 123.09(15)
N2 C3 C4 117.39(14)
C1 C4 C3 116.23(13)
C1 C4 H1 107.5(9)
C3 C4 H1 108.3(9)
loop_
_geom_bond_atom_site_label_1
_geom_bond_atom_site_label_2
_geom_bond_site_symmetry_2
_geom_bond_distance
_geom_bond_publ_flag
O1 C1 . 1.219(2) ?
O2 C2 . 1.212(2) ?
O3 C3 . 1.211(2) ?
O4 H1O . 0.80(3) ?
O4 H2O . 0.78(3) ?
O5 H3O . 0.82(4) ?
O5 H4O . 0.83(4) ?
N1 H1N . 0.83(3) ?
N1 C1 . 1.359(2) ?
N1 C2 . 1.378(2) ?
N2 H2N . 0.90(2) ?
N2 C2 . 1.369(2) ?
N2 C3 . 1.363(2) ?
C1 C4 . 1.500(2) ?
C3 C4 . 1.502(2) ?
C4 H1 . 0.927(15) ?
loop_
_geom_hbond_atom_site_label_D
_geom_hbond_atom_site_label_H
_geom_hbond_atom_site_label_A
_geom_hbond_site_symmetry_A
_geom_hbond_distance_DH
_geom_hbond_distance_HA
_geom_hbond_distance_DA
_geom_hbond_angle_DHA
O4 H1O O2 4_556 0.80(3) 2.00(3) 2.771(2) 162(3)
O4 H2O O1 4 0.78(3) 2.09(3) 2.867(2) 171(3)
O5 H3O O4 . 0.82(4) 1.92(4) 2.735(2) 179(3)
O5 H4O O1 . 0.83(4) 1.97(4) 2.784(2) 167(3)
N1 H1N O3 4_546 0.83(3) 1.99(3) 2.818(2) 178(2)
N2 H2N O5 1_556 0.90(2) 1.83(3) 2.725(2) 174(2)
loop_
_geom_torsion_atom_site_label_1
_geom_torsion_atom_site_label_2
_geom_torsion_atom_site_label_3
_geom_torsion_atom_site_label_4
_geom_torsion
C2 N1 C1 O1 180.0
C2 N1 C1 C4 0.0
C3 N2 C2 O2 180.0
C3 N2 C2 N1 0.0
C1 N1 C2 O2 180.0
C1 N1 C2 N2 0.0
C2 N2 C3 O3 180.0
C2 N2 C3 C4 0.0
O1 C1 C4 C3 180.0
N1 C1 C4 C3 0.0
O3 C3 C4 C1 180.0
N2 C3 C4 C1 0.0
loop_
_cod_related_entry_id
_cod_related_entry_database
_cod_related_entry_code
1 ChemSpider 21140097
