#------------------------------------------------------------------------------
#$Date: 2023-12-04 16:07:24 +0200 (Mon, 04 Dec 2023) $
#$Revision: 287988 $
#$URL: file:///home/coder/svn-repositories/cod/cif/2/10/03/2100369.cif $
#------------------------------------------------------------------------------
#
# This file is available in the Crystallography Open Database (COD),
# http://www.crystallography.net/. The original data for this entry
# were provided by IUCr Journals, http://journals.iucr.org/.
#
# The file may be used within the scientific community so long as
# proper attribution is given to the journal article from which the
# data were obtained.
#
data_2100369
loop_
_publ_author_name
'Britton, Doyle'
_publ_section_title
;
 3,5-Dihalo-4-hydroxybenzonitriles: isostructures, polymorphs and
 solvates
;
_journal_coeditor_code           DE5020
_journal_date_accepted           2005-11-19
_journal_date_recd_electronic    2005-04-29
_journal_issue                   1
_journal_name_full               'Acta Crystallographica Section B'
_journal_page_first              109
_journal_page_last               117
_journal_paper_category          FA
_journal_paper_doi               10.1107/S0108768105038267
_journal_volume                  62
_journal_year                    2006
_chemical_formula_moiety         'C7 H3 Br2 N O'
_chemical_formula_sum            'C7 H3 Br2 N O'
_chemical_formula_weight         276.92
_chemical_name_common            Bromoxynil
_chemical_name_systematic
;
 3,5-dibromo-4-hydroxybenzonitrile - polymorph A
;
_space_group_IT_number           2
_symmetry_cell_setting           triclinic
_symmetry_space_group_name_Hall  '-P 1'
_symmetry_space_group_name_H-M   'P -1'
_atom_sites_solution_hydrogens   geom
_atom_sites_solution_primary     direct
_atom_sites_solution_secondary   difmap
_audit_creation_method           SHELXTL
_cell_angle_alpha                95.600(10)
_cell_angle_beta                 108.550(10)
_cell_angle_gamma                106.130(10)
_cell_formula_units_Z            4
_cell_length_a                   8.244(2)
_cell_length_b                   9.120(2)
_cell_length_c                   11.687(3)
_cell_measurement_reflns_used    2861
_cell_measurement_temperature    174(2)
_cell_measurement_theta_max      27.49
_cell_measurement_theta_min      2.38
_cell_volume                     783.4(3)
_computing_cell_refinement       'SAINT (Bruker, 2002)'
_computing_data_collection       'SMART (Bruker, 2002)'
_computing_data_reduction        SAINT
_computing_molecular_graphics    SHELXTL
_computing_publication_material  SHELXTL
_computing_structure_refinement  SHELXTL
_computing_structure_solution    'SHELXTL (Sheldrick, 1997)'
_diffrn_ambient_temperature      174(2)
_diffrn_measured_fraction_theta_full 0.989
_diffrn_measured_fraction_theta_max 0.989
_diffrn_measurement_device_type
;
Siemens area detector diffractometer
;
_diffrn_measurement_method       '\w scans'
_diffrn_radiation_monochromator  graphite
_diffrn_radiation_source         'fine-focus sealed tube'
_diffrn_radiation_type           MoK\a
_diffrn_radiation_wavelength     0.71073
_diffrn_reflns_av_R_equivalents  0.027
_diffrn_reflns_av_sigmaI/netI    0.032
_diffrn_reflns_limit_h_max       10
_diffrn_reflns_limit_h_min       -10
_diffrn_reflns_limit_k_max       11
_diffrn_reflns_limit_k_min       -11
_diffrn_reflns_limit_l_max       15
_diffrn_reflns_limit_l_min       -15
_diffrn_reflns_number            9376
_diffrn_reflns_theta_full        27.52
_diffrn_reflns_theta_max         27.52
_diffrn_reflns_theta_min         1.88
_diffrn_standards_decay_%        'less than 1'
_diffrn_standards_number         0
_exptl_absorpt_coefficient_mu    10.281
_exptl_absorpt_correction_T_max  0.214
_exptl_absorpt_correction_T_min  0.174
_exptl_absorpt_correction_type   multi-scan
_exptl_absorpt_process_details
;
 SADABS;  Sheldrick, 1996;  Blessing, 1995'
;
_exptl_crystal_colour            colorless
_exptl_crystal_density_diffrn    2.348
_exptl_crystal_density_meas      ?
_exptl_crystal_density_method    .
_exptl_crystal_description       prism
_exptl_crystal_F_000             520
_exptl_crystal_size_max          0.20
_exptl_crystal_size_mid          0.15
_exptl_crystal_size_min          0.15
_refine_diff_density_max         0.65
_refine_diff_density_min         -0.61
_refine_ls_extinction_coef       0.0029(3)
_refine_ls_extinction_expression
;
 Fc^*^=kFc[1+0.001xFc^2^\l^3^/sin(2\q)]^-1/4^
;
_refine_ls_extinction_method     SHELXTL
_refine_ls_goodness_of_fit_ref   1.09
_refine_ls_hydrogen_treatment    constr
_refine_ls_matrix_type           full
_refine_ls_number_parameters     200
_refine_ls_number_reflns         3568
_refine_ls_number_restraints     0
_refine_ls_restrained_S_all      1.09
_refine_ls_R_factor_all          0.046
_refine_ls_R_factor_gt           0.035
_refine_ls_shift/su_max          0.006
_refine_ls_shift/su_mean         0.001
_refine_ls_structure_factor_coef Fsqd
_refine_ls_weighting_details
;
 calc w=1/[\s^2^(Fo^2^)+(0.028P)^2^+2.20P] where
P=(Fo^2^+2Fc^2^)/3
;
_refine_ls_weighting_scheme      calc
_refine_ls_wR_factor_gt          0.076
_refine_ls_wR_factor_ref         0.079
_reflns_number_gt                3107
_reflns_number_total             3568
_reflns_threshold_expression     '>2\s(I) '
_cod_data_source_file            de5020.cif
_cod_data_source_block           MBr-A
_cod_database_code               2100369
_cod_database_fobs_code          2100369
loop_
_symmetry_equiv_pos_as_xyz
'x, y, z'
'-x, -y, -z'
loop_
_atom_site_label
_atom_site_fract_x
_atom_site_fract_y
_atom_site_fract_z
_atom_site_U_iso_or_equiv
_atom_site_adp_type
_atom_site_calc_flag
_atom_site_refinement_flags
_atom_site_occupancy
_atom_site_type_symbol
C11 0.3313(5) 0.5626(5) 0.7730(4) 0.0191(8) Uani d . 1 C
C12 0.2655(6) 0.6579(5) 0.6969(4) 0.0203(8) Uani d . 1 C
H12 0.2423 0.7459 0.7300 0.024 Uiso calc R 1 H
Br13 0.15142(6) 0.75285(5) 0.46807(4) 0.02491(12) Uani d . 1 Br
C13 0.2350(6) 0.6227(5) 0.5733(4) 0.0214(8) Uani d . 1 C
C14 0.2638(6) 0.4918(5) 0.5218(4) 0.0202(8) Uani d . 1 C
O14 0.2313(4) 0.4505(4) 0.4000(3) 0.0280(7) Uani d . 1 O
H14 0.1922 0.5149 0.3626 0.034 Uiso calc R 1 H
Br15 0.36496(6) 0.21886(5) 0.53131(4) 0.02649(13) Uani d . 1 Br
C15 0.3292(5) 0.3990(4) 0.5995(4) 0.0184(8) Uani d . 1 C
C16 0.3655(5) 0.4331(5) 0.7244(4) 0.0196(8) Uani d . 1 C
H16 0.4130 0.3697 0.7766 0.023 Uiso calc R 1 H
N17 0.4017(5) 0.6404(4) 1.0065(3) 0.0275(8) Uani d . 1 N
C17 0.3704(6) 0.6033(5) 0.9032(4) 0.0219(9) Uani d . 1 C
C21 0.1629(5) 0.2828(5) 0.0757(4) 0.0191(8) Uani d . 1 C
C22 0.2438(5) 0.2029(5) 0.1612(4) 0.0194(8) Uani d . 1 C
H22 0.2725 0.2367 0.2469 0.023 Uiso calc R 1 H
Br23 0.38345(6) -0.03975(5) 0.23138(4) 0.02698(13) Uani d . 1 Br
C23 0.2809(5) 0.0742(5) 0.1186(4) 0.0201(8) Uani d . 1 C
O24 0.2752(4) -0.1024(3) -0.0518(3) 0.0265(7) Uani d . 1 O
H24 0.3238 -0.1414 0.0066 0.040 Uiso calc R 1 H
C24 0.2412(6) 0.0233(4) -0.0067(4) 0.0205(8) Uani d . 1 C
Br25 0.10256(6) 0.03445(5) -0.25968(4) 0.02639(13) Uani d . 1 Br
C25 0.1602(5) 0.1054(4) -0.0892(3) 0.0175(8) Uani d . 1 C
C26 0.1214(5) 0.2337(5) -0.0497(4) 0.0192(8) Uani d . 1 C
H26 0.0669 0.2884 -0.1074 0.023 Uiso calc R 1 H
C27 0.1232(6) 0.4164(5) 0.1214(4) 0.0242(9) Uani d . 1 C
N27 0.0903(6) 0.5194(5) 0.1612(3) 0.0331(9) Uani d . 1 N
loop_
_atom_site_aniso_label
_atom_site_aniso_U_11
_atom_site_aniso_U_22
_atom_site_aniso_U_33
_atom_site_aniso_U_12
_atom_site_aniso_U_13
_atom_site_aniso_U_23
C11 0.0168(19) 0.0197(19) 0.0177(18) 0.0034(16) 0.0049(15) 0.0023(15)
C12 0.022(2) 0.0173(19) 0.023(2) 0.0074(16) 0.0083(17) 0.0039(15)
Br13 0.0301(3) 0.0252(2) 0.0237(2) 0.01436(19) 0.00877(18) 0.01145(16)
C13 0.024(2) 0.0183(19) 0.022(2) 0.0083(17) 0.0070(17) 0.0075(16)
C14 0.022(2) 0.021(2) 0.0169(18) 0.0061(17) 0.0068(16) 0.0027(15)
O14 0.043(2) 0.0292(16) 0.0175(14) 0.0196(15) 0.0109(14) 0.0078(12)
Br15 0.0380(3) 0.0234(2) 0.0232(2) 0.01689(19) 0.01198(19) 0.00432(16)
C15 0.019(2) 0.0151(18) 0.0216(19) 0.0064(16) 0.0076(16) 0.0011(15)
C16 0.018(2) 0.0182(19) 0.0213(19) 0.0055(16) 0.0055(16) 0.0049(15)
N17 0.039(2) 0.0266(19) 0.0198(18) 0.0158(17) 0.0096(16) 0.0042(15)
C17 0.022(2) 0.0162(19) 0.026(2) 0.0086(16) 0.0058(17) 0.0036(16)
C21 0.017(2) 0.0172(19) 0.023(2) 0.0051(16) 0.0086(16) 0.0043(16)
C22 0.018(2) 0.0182(19) 0.0197(19) 0.0036(16) 0.0065(16) 0.0036(15)
Br23 0.0349(3) 0.0253(2) 0.0239(2) 0.01680(19) 0.00730(18) 0.01010(17)
C23 0.018(2) 0.0189(19) 0.024(2) 0.0062(16) 0.0074(16) 0.0092(16)
O24 0.0357(18) 0.0250(15) 0.0245(15) 0.0199(14) 0.0098(14) 0.0056(12)
C24 0.021(2) 0.0153(18) 0.025(2) 0.0055(16) 0.0098(17) 0.0032(16)
Br25 0.0372(3) 0.0276(2) 0.0184(2) 0.0156(2) 0.01084(18) 0.00519(16)
C25 0.017(2) 0.0186(19) 0.0158(18) 0.0034(16) 0.0066(15) 0.0036(15)
C26 0.0155(19) 0.0209(19) 0.0222(19) 0.0071(16) 0.0068(16) 0.0055(16)
C27 0.031(2) 0.026(2) 0.0169(19) 0.0116(19) 0.0071(17) 0.0086(16)
N27 0.052(3) 0.033(2) 0.0218(18) 0.028(2) 0.0115(18) 0.0052(16)
loop_
_atom_type_symbol
_atom_type_description
_atom_type_scat_dispersion_real
_atom_type_scat_dispersion_imag
_atom_type_scat_source
C C 0.0033 0.0016 'International Tables Vol C Tables 4.2.6.8 and 6.1.1.4'
H H 0.0000 0.0000 'International Tables Vol C Tables 4.2.6.8 and 6.1.1.4'
N N 0.0061 0.0033 'International Tables Vol C Tables 4.2.6.8 and 6.1.1.4'
O O 0.0106 0.0060 'International Tables Vol C Tables 4.2.6.8 and 6.1.1.4'
Br Br -0.2901 2.4595 'International Tables Vol C Tables 4.2.6.8 and 6.1.1.4'
loop_
_geom_angle_atom_site_label_1
_geom_angle_atom_site_label_2
_geom_angle_atom_site_label_3
_geom_angle
C12 C11 C16 120.6(4)
C12 C11 C17 118.9(4)
C16 C11 C17 120.4(4)
C13 C12 C11 119.0(4)
C13 C12 H12 120.5
C11 C12 H12 120.5
C12 C13 C14 121.6(4)
C12 C13 Br13 120.1(3)
C14 C13 Br13 118.4(3)
O14 C14 C15 118.2(3)
O14 C14 C13 123.6(4)
C15 C14 C13 118.3(4)
C14 O14 H14 109.5
C16 C15 C14 121.7(3)
C16 C15 Br15 119.3(3)
C14 C15 Br15 119.0(3)
C15 C16 C11 118.9(4)
C15 C16 H16 120.6
C11 C16 H16 120.6
N17 C17 C11 177.8(4)
C26 C21 C22 120.7(4)
C26 C21 C27 121.2(4)
C22 C21 C27 118.1(4)
C23 C22 C21 118.7(4)
C23 C22 H22 120.6
C21 C22 H22 120.6
C22 C23 C24 121.6(4)
C22 C23 Br23 119.7(3)
C24 C23 Br23 118.7(3)
C24 O24 H24 109.5
O24 C24 C23 123.2(4)
O24 C24 C25 118.6(3)
C23 C24 C25 118.1(3)
C26 C25 C24 121.7(4)
C26 C25 Br25 120.1(3)
C24 C25 Br25 118.2(3)
C25 C26 C21 119.2(4)
C25 C26 H26 120.4
C21 C26 H26 120.4
N27 C27 C21 177.3(5)
loop_
_geom_bond_atom_site_label_1
_geom_bond_atom_site_label_2
_geom_bond_distance
C11 C12 1.396(5)
C11 C16 1.397(5)
C11 C17 1.438(6)
C12 C13 1.373(6)
C12 H12 0.9500
Br13 C13 1.896(4)
C13 C14 1.398(5)
C14 O14 1.356(5)
C14 C15 1.386(5)
O14 H14 0.8400
Br15 C15 1.893(4)
C15 C16 1.378(5)
C16 H16 0.9500
N17 C17 1.145(5)
C21 C26 1.391(5)
C21 C22 1.401(5)
C21 C27 1.443(5)
C22 C23 1.379(6)
C22 H22 0.9500
Br23 C23 1.892(4)
C23 C24 1.395(6)
O24 C24 1.351(5)
O24 H24 0.8400
C24 C25 1.395(5)
Br25 C25 1.894(4)
C25 C26 1.372(5)
C26 H26 0.9500
C27 N27 1.144(5)
loop_
_cod_related_entry_id
_cod_related_entry_database
_cod_related_entry_code
1 ChemSpider 14775
