#------------------------------------------------------------------------------
#$Date: 2017-10-13 08:28:26 +0300 (Fri, 13 Oct 2017) $
#$Revision: 201972 $
#$URL: file:///home/coder/svn-repositories/cod/cif/2/10/02/2100274.cif $
#------------------------------------------------------------------------------
#
# This file is available in the Crystallography Open Database (COD),
# http://www.crystallography.net/. The original data for this entry
# were provided by IUCr Journals, http://journals.iucr.org/.
#
# The file may be used within the scientific community so long as
# proper attribution is given to the journal article from which the
# data were obtained.
#
data_2100274
loop_
_publ_author_name
'Nichol, Gary S.'
'Clegg, William'
_publ_section_title
;
 A variable-temperature study of a phase transition in barbituric acid
 dihydrate
;
_journal_coeditor_code           WS5026
_journal_issue                   4
_journal_name_full               'Acta Crystallographica Section B'
_journal_page_first              464
_journal_page_last               472
_journal_paper_doi               10.1107/S0108768105017258
_journal_volume                  61
_journal_year                    2005
_chemical_formula_moiety         'C4 H4 N2 O3, 2 H2 O'
_chemical_formula_sum            'C4 H8 N2 O5'
_chemical_formula_weight         164.12
_chemical_name_systematic
;
 ?
;
_space_group_IT_number           14
_symmetry_cell_setting           monoclinic
_symmetry_space_group_name_Hall  '-P 2yn'
_symmetry_space_group_name_H-M   'P 1 21/n 1'
_atom_sites_solution_hydrogens   mixed
_atom_sites_solution_primary     'using coordinates of another structure'
_atom_sites_solution_secondary   difmap
_audit_creation_method           SHELXL-97
_cell_angle_alpha                90.00
_cell_angle_beta                 92.187(4)
_cell_angle_gamma                90.00
_cell_formula_units_Z            4
_cell_length_a                   6.1313(12)
_cell_length_b                   12.703(2)
_cell_length_c                   8.8456(17)
_cell_measurement_reflns_used    4075
_cell_measurement_temperature    200(2)
_cell_measurement_theta_max      28.2
_cell_measurement_theta_min      2.3
_cell_volume                     688.4(2)
_computing_cell_refinement       'Bruker SAINT'
_computing_data_collection       'Bruker SMART'
_computing_data_reduction        'Bruker SAINT'
_computing_molecular_graphics    'Bruker SHELXTL'
_computing_publication_material  'Bruker SHELXTL and local programs'
_computing_structure_refinement  'Bruker SHELXTL'
_computing_structure_solution    'using coordinates of another structure'
_diffrn_ambient_temperature      200(2)
_diffrn_measured_fraction_theta_full 0.990
_diffrn_measured_fraction_theta_max 0.935
_diffrn_measurement_device_type  'Bruker SMART 1K CCD diffractometer'
_diffrn_measurement_method       'thin-slice \w scans'
_diffrn_radiation_monochromator  graphite
_diffrn_radiation_source         'fine-focus sealed tube'
_diffrn_radiation_type           MoK\a
_diffrn_radiation_wavelength     0.71073
_diffrn_reflns_av_R_equivalents  0.0294
_diffrn_reflns_av_sigmaI/netI    0.0083
_diffrn_reflns_limit_h_max       7
_diffrn_reflns_limit_h_min       -7
_diffrn_reflns_limit_k_max       16
_diffrn_reflns_limit_k_min       -16
_diffrn_reflns_limit_l_max       11
_diffrn_reflns_limit_l_min       -11
_diffrn_reflns_number            7874
_diffrn_reflns_theta_full        26.00
_diffrn_reflns_theta_max         28.25
_diffrn_reflns_theta_min         2.81
_diffrn_standards_number         0
_exptl_absorpt_coefficient_mu    0.147
_exptl_absorpt_correction_T_max  0.9783
_exptl_absorpt_correction_T_min  0.5527
_exptl_absorpt_correction_type   multi-scan
_exptl_absorpt_process_details   'TWINABS; Sheldrick (2002)'
_exptl_crystal_colour            colourless
_exptl_crystal_density_diffrn    1.583
_exptl_crystal_density_method    'not measured'
_exptl_crystal_description       block
_exptl_crystal_F_000             344
_exptl_crystal_size_max          0.53
_exptl_crystal_size_mid          0.42
_exptl_crystal_size_min          0.15
_refine_diff_density_max         0.495
_refine_diff_density_min         -0.581
_refine_ls_extinction_method     none
_refine_ls_goodness_of_fit_ref   1.307
_refine_ls_hydrogen_treatment    mixed
_refine_ls_matrix_type           full
_refine_ls_number_parameters     120
_refine_ls_number_reflns         2456
_refine_ls_number_restraints     0
_refine_ls_restrained_S_all      1.307
_refine_ls_R_factor_all          0.0881
_refine_ls_R_factor_gt           0.0869
_refine_ls_shift/su_max          0.004
_refine_ls_shift/su_mean         0.000
_refine_ls_structure_factor_coef Fsqd
_refine_ls_weighting_details
'calc w=1/[\s^2^(Fo^2^)+(0.0377P)^2^+1.4289P] where P=(Fo^2^+2Fc^2^)/3'
_refine_ls_weighting_scheme      calc
_refine_ls_wR_factor_gt          0.1967
_refine_ls_wR_factor_ref         0.1974
_reflns_number_gt                2397
_reflns_number_total             2456
_reflns_threshold_expression     >2sigma(I)
_cod_data_source_file            ws5026.cif
_cod_data_source_block           200
_cod_original_cell_volume        688.5(2)
_cod_original_sg_symbol_H-M      'P 21/n'
_cod_database_code               2100274
loop_
_symmetry_equiv_pos_as_xyz
'x, y, z'
'-x+1/2, y+1/2, -z+1/2'
'-x, -y, -z'
'x-1/2, -y-1/2, z-1/2'
loop_
_atom_site_label
_atom_site_fract_x
_atom_site_fract_y
_atom_site_fract_z
_atom_site_U_iso_or_equiv
_atom_site_adp_type
_atom_site_calc_flag
_atom_site_refinement_flags
_atom_site_occupancy
_atom_site_disorder_assembly
_atom_site_disorder_group
_atom_site_type_symbol
O1 0.2471(6) 0.55228(17) 0.4762(2) 0.0314(6) Uani d . 1 . . O
O2 0.2414(5) 0.44196(16) 0.9585(2) 0.0296(6) Uani d . 1 . . O
O3 0.2771(6) 0.79017(17) 0.8872(3) 0.0385(7) Uani d . 1 . . O
O4 0.2382(6) 0.88663(18) 0.2402(3) 0.0346(7) Uani d . 1 . . O
H1O 0.256(9) 0.921(3) 0.322(5) 0.042 Uiso d . 1 . . H
H2O 0.249(9) 0.930(3) 0.175(5) 0.042 Uiso d . 1 . . H
O5 0.2702(7) 0.6728(2) 0.2160(3) 0.0415(8) Uani d . 1 . . O
H3O 0.246(9) 0.733(4) 0.225(5) 0.050 Uiso d . 1 . . H
H4O 0.245(9) 0.645(4) 0.293(5) 0.050 Uiso d . 1 . . H
N1 0.2413(6) 0.49912(18) 0.7177(3) 0.0206(6) Uani d . 1 . . N
H1N 0.243(7) 0.439(3) 0.689(4) 0.025 Uiso d . 1 . . H
N2 0.2537(5) 0.61703(18) 0.9196(3) 0.0193(5) Uani d . 1 . . N
H2N 0.255(7) 0.630(3) 1.013(4) 0.023 Uiso d . 1 . . H
C1 0.2456(6) 0.5748(2) 0.6096(3) 0.0177(6) Uani d . 1 . . C
C2 0.2444(6) 0.5154(2) 0.8710(3) 0.0179(6) Uani d . 1 . . C
C3 0.2612(6) 0.7044(2) 0.8301(3) 0.0202(6) Uani d . 1 . . C
C4 0.2485(6) 0.6873(2) 0.6626(3) 0.0190(6) Uani d . 1 . . C
H4A 0.3748 0.7230 0.6185 0.023 Uiso calc R 1 . . H
H4B 0.1148 0.7223 0.6212 0.023 Uiso calc R 1 . . H
loop_
_atom_site_aniso_label
_atom_site_aniso_U_11
_atom_site_aniso_U_22
_atom_site_aniso_U_33
_atom_site_aniso_U_12
_atom_site_aniso_U_13
_atom_site_aniso_U_23
O1 0.0622(18) 0.0206(11) 0.0116(10) 0.0009(13) 0.0049(13) -0.0011(8)
O2 0.0586(17) 0.0145(10) 0.0156(10) 0.0024(12) 0.0010(13) 0.0043(8)
O3 0.082(2) 0.0126(10) 0.0204(11) -0.0023(14) -0.0025(15) -0.0021(9)
O4 0.069(2) 0.0170(11) 0.0177(11) -0.0053(14) 0.0011(15) -0.0022(9)
O5 0.091(3) 0.0211(12) 0.0130(11) -0.0004(17) 0.0104(16) 0.0018(9)
N1 0.0391(17) 0.0070(10) 0.0156(11) 0.0002(12) -0.0006(13) -0.0019(8)
N2 0.0328(16) 0.0137(11) 0.0113(11) 0.0024(12) 0.0003(12) -0.0027(9)
C1 0.0237(17) 0.0126(12) 0.0170(13) 0.0049(13) 0.0017(14) 0.0000(10)
C2 0.0250(17) 0.0143(12) 0.0142(12) -0.0008(13) -0.0011(14) -0.0025(10)
C3 0.0281(18) 0.0132(12) 0.0193(13) -0.0003(14) 0.0017(14) -0.0005(10)
C4 0.0337(19) 0.0085(11) 0.0144(13) -0.0024(14) -0.0060(15) 0.0024(9)
loop_
_atom_type_symbol
_atom_type_description
_atom_type_scat_dispersion_real
_atom_type_scat_dispersion_imag
_atom_type_scat_source
C C 0.0033 0.0016 'International Tables Vol C Tables 4.2.6.8 and 6.1.1.4'
H H 0.0000 0.0000 'International Tables Vol C Tables 4.2.6.8 and 6.1.1.4'
N N 0.0061 0.0033 'International Tables Vol C Tables 4.2.6.8 and 6.1.1.4'
O O 0.0106 0.0060 'International Tables Vol C Tables 4.2.6.8 and 6.1.1.4'
loop_
_geom_angle_atom_site_label_1
_geom_angle_atom_site_label_2
_geom_angle_atom_site_label_3
_geom_angle
H1O O4 H2O 104(4)
H3O O5 H4O 108(5)
C1 N1 C2 126.2(2)
C1 N1 H1N 117(3)
C2 N1 H1N 117(3)
C2 N2 C3 126.1(2)
C2 N2 H2N 120(2)
C3 N2 H2N 114(2)
O1 C1 N1 121.2(2)
O1 C1 C4 121.7(2)
N1 C1 C4 117.1(2)
O2 C2 N2 122.0(3)
O2 C2 N1 121.0(2)
N2 C2 N1 117.0(2)
O3 C3 N2 119.8(3)
O3 C3 C4 123.1(3)
N2 C3 C4 117.1(2)
C3 C4 C1 116.4(2)
C3 C4 H4A 108.2
C1 C4 H4A 108.2
C3 C4 H4B 108.2
C1 C4 H4B 108.2
H4A C4 H4B 107.3
loop_
_geom_bond_atom_site_label_1
_geom_bond_atom_site_label_2
_geom_bond_site_symmetry_2
_geom_bond_distance
_geom_bond_publ_flag
O1 C1 . 1.215(3) ?
O2 C2 . 1.212(3) ?
O3 C3 . 1.203(4) ?
O4 H1O . 0.85(5) ?
O4 H2O . 0.80(5) ?
O5 H3O . 0.78(5) ?
O5 H4O . 0.79(5) ?
N1 C1 . 1.357(4) ?
N1 C2 . 1.371(4) ?
N1 H1N . 0.80(4) ?
N2 C2 . 1.362(3) ?
N2 C3 . 1.365(4) ?
N2 H2N . 0.85(4) ?
C1 C4 . 1.504(4) ?
C3 C4 . 1.497(4) ?
C4 H4A . 0.9900 ?
C4 H4B . 0.9900 ?
loop_
_geom_hbond_atom_site_label_D
_geom_hbond_atom_site_label_H
_geom_hbond_atom_site_label_A
_geom_hbond_site_symmetry_A
_geom_hbond_distance_DH
_geom_hbond_distance_HA
_geom_hbond_distance_DA
_geom_hbond_angle_DHA
O4 H1O O2 2_556 0.85(5) 1.96(5) 2.755(3) 155(4)
O4 H2O O1 2 0.80(5) 2.05(5) 2.848(3) 173(5)
O5 H3O O4 . 0.78(5) 1.96(5) 2.733(3) 170(6)
O5 H4O O1 . 0.79(5) 2.00(5) 2.772(3) 165(5)
N1 H1N O3 2_546 0.80(4) 2.01(4) 2.813(3) 175(4)
N2 H2N O5 1_556 0.85(4) 1.87(4) 2.714(3) 174(4)
loop_
_geom_torsion_atom_site_label_1
_geom_torsion_atom_site_label_2
_geom_torsion_atom_site_label_3
_geom_torsion_atom_site_label_4
_geom_torsion
C2 N1 C1 O1 178.4(4)
C2 N1 C1 C4 -1.6(6)
C3 N2 C2 O2 178.9(4)
C3 N2 C2 N1 -0.3(6)
C1 N1 C2 O2 -179.6(4)
C1 N1 C2 N2 -0.3(6)
C2 N2 C3 O3 -177.3(4)
C2 N2 C3 C4 2.8(6)
O3 C3 C4 C1 175.7(4)
N2 C3 C4 C1 -4.4(5)
O1 C1 C4 C3 -176.1(4)
N1 C1 C4 C3 3.9(5)
loop_
_cod_related_entry_id
_cod_related_entry_database
_cod_related_entry_code
1 ChemSpider 21140097
