#------------------------------------------------------------------------------
#$Date: 2022-09-05 12:44:03 +0300 (Mon, 05 Sep 2022) $
#$Revision: 277628 $
#$URL: file:///home/coder/svn-repositories/cod/cif/2/10/11/2101130.cif $
#------------------------------------------------------------------------------
#
# This file is available in the Crystallography Open Database (COD),
# http://www.crystallography.net/. The original data for this entry
# were provided by IUCr Journals, http://journals.iucr.org/.
#
# The file may be used within the scientific community so long as
# proper attribution is given to the journal article from which the
# data were obtained.
#
data_2101130
loop_
_publ_author_name
'Tereshko, V.'
'Monserrat, J. M.'
'P\'erez-Folch, J.'
'Aymam\'i, J.'
'Fita, I.'
'Subirana, J. A.'
_publ_section_title
;
 Structure of the stacked cyclic oligoamides: 1,6-diaza-2,7-cyclodecadione and
 1,5,9-triaza-2,6,10-cyclododecatrione. A ring model of the \a-helix
;
_journal_coden_ASTM              ASBSDK
_journal_issue                   2
_journal_name_full
;
 Acta Crystallographica, Section B: Structural Science
;
_journal_page_first              243
_journal_page_last               251
_journal_paper_doi               10.1107/S0108768193008924
_journal_volume                  50
_journal_year                    1994
_chemical_formula_sum            'C8 H14 N2 O2'
_chemical_formula_weight         170
_space_group_crystal_system      monoclinic
_space_group_IT_number           14
_space_group_name_Hall           '-P 2yn'
_space_group_name_H-M_alt        'P 1 21/n 1'
_cell_angle_alpha                90
_cell_angle_beta                 107.3(3)
_cell_angle_gamma                90
_cell_formula_units_Z            2
_cell_length_a                   4.874(2)
_cell_length_b                   11.714(4)
_cell_length_c                   8.088(2)
_cell_volume                     440.9(8)
_diffrn_radiation_type           Mo
_diffrn_radiation_wavelength     0.71073
_exptl_crystal_density_diffrn    1.28
_cod_data_source_file            se0129.cif
_cod_data_source_block           se0129a
_cod_original_cell_volume        440.8(4)
_cod_database_code               2101130
loop_
_space_group_symop_id
_space_group_symop_operation_xyz
1 x,y,z
2 -x+1/2,y+1/2,-z+1/2
3 -x,-y,-z
4 x+1/2,-y+1/2,z+1/2
loop_
_atom_site_label
_atom_site_fract_x
_atom_site_fract_y
_atom_site_fract_z
C(2) .4800(10) .4090(5) .6360(10)
O(2) .2256(9) .3899(4) .6188(8)
N(1) .6070(10) .3710(4) .5228(9)
C(10) .456(2) .3251(6) .3570(10)
C(9) .456(2) .4009(7) .2080(10)
C(3) .6630(10) .4782(6) .7870(10)
H(1) .8150(10) .3875(4) .5436(9)
loop_
_geom_angle_atom_site_label_1
_geom_angle_atom_site_label_2
_geom_angle_atom_site_label_3
_geom_angle
N(1) C(2) O(2) 121.6(7)
H(1) N(1) C(2) 118.7(4)
C(4) C(2) O(2) 121.5(7)
C(10) N(1) H(1) 116.2(4)
C(3) C(2) N(1) 116.9(6)
C(2) N(1) C(10) 124.2(6)
C(9) C(10) N(1) 114.2(6)
C(8) C(9) C(10) 116.1(6)
C(2) C(3) C(4) 112.2(6)
H(1) N(1) C(2) 118.7(4)
C(10) N(1) H(1) 116.2(4)
H(10A) C(10) N(1) 108.9(3)
H(10B) C(10) N(1) 107.3(4)
H(10B) C(10) H(10A) 109.5000
C(9) C(10) H(10A) 108.6(4)
C(9) C(10) H(10B) 108.2(4)
H(9A) C(9) C(10) 108.3(4)
H(9B) C(9) C(10) 106.8(4)
H(9B) C(9) H(9A) 109.5000
H(3A) C(3) C(2) 109.3(4)
H(3B) C(3) C(2) 108.1(4)
H(3B) C(3) H(3A) 109.5000
loop_
_geom_bond_atom_site_label_1
_geom_bond_atom_site_label_2
_geom_bond_distance
O(2) C(2) 1.225(7)
H(1) N(1) 1.00
N(1) C(2) 1.324(9)
C(2) C(3) 1.520(10)
C(10) N(1) 1.430(9)
C(9) C(10) 1.490(10)
C(8) C(9) 1.540(10)
H(10A) C(10) 1.08
H(10B) C(10) 1.08
H(9A) C(9) 1.08
H(9B) C(9) 1.08
H(3A) C(3) 1.08
H(3B) C(3) 1.08
loop_
_cod_changelog_entry_id
_cod_changelog_entry_author
_cod_changelog_entry_date
_cod_changelog_entry_text
1 'Vaitkus, Antanas' 2022-09-05T12:25:00+03:00
'Updated space group information.'
2 'Vaitkus, Antanas' 2022-09-05T12:43:00+03:00
'Updated bibliographic information.'
