#------------------------------------------------------------------------------
#$Date: 2016-02-14 16:26:36 +0200 (Sun, 14 Feb 2016) $
#$Revision: 176435 $
#$URL: svn://www.crystallography.net/cod/cif/2/10/15/2101524.cif $
#------------------------------------------------------------------------------
#
# This file is available in the Crystallography Open Database (COD),
# http://www.crystallography.net/. The original data for this entry
# were provided by IUCr Journals, http://journals.iucr.org/.
#
# The file may be used within the scientific community so long as
# proper attribution is given to the journal article from which the
# data were obtained.
#
data_2101524
loop_
_publ_author_name
'Bianchi, R.'
'Gatti, C.'
'Adovasio, V.'
'Nardelli, M.'
_publ_section_title
;
 Theoretical and experimental (113 K) electron-density study of lithium
 bis(tetramethylammonium) hexanitrocobaltate(III)
;
_journal_issue                   3
_journal_name_full               'Acta Crystallographica Section B'
_journal_page_first              471
_journal_page_last               478
_journal_paper_doi               10.1107/S0108768195016879
_journal_volume                  52
_journal_year                    1996
_chemical_formula_sum            'C8 H24 Co Li N8 O12'
_chemical_formula_weight         490.20
_symmetry_cell_setting           trigonal
_symmetry_space_group_name_Hall  '-P 3 2"'
_symmetry_space_group_name_H-M   'P -3 m 1'
_cell_angle_alpha                90
_cell_angle_beta                 90
_cell_angle_gamma                120
_cell_formula_units_Z            1
_cell_length_a                   8.8560(10)
_cell_length_b                   8.8560(10)
_cell_length_c                   7.017(2)
_cell_measurement_temperature    113.0(10)
_cell_volume                     476.6(2)
_exptl_absorpt_coefficient_mu    0.979
_exptl_crystal_density_diffrn    1.708
_cod_data_source_file            cr0508.cif
_cod_original_formula_sum        'C8 H24 Co1 Li1 N8 O12'
_cod_database_code               2101524
loop_
_atom_site_label
_atom_site_fract_x
_atom_site_fract_y
_atom_site_fract_z
Co .0 .0 .0
Li .0 .0 .5
O1 .10684(2) -.10684(2) .32931(4)
O2 .17754(3) -.17754(3) .06854(5)
N1 .10745(2) -.10745(2) .15261(4)
N2 .33333 .66667 .64148(7)
C1 .42519(3) .57481(3) .71250(7)
C2 .33333 .66667 .42831(9)
H11 .3567(12) .4422(15) .6580(11)
H12 .4250(8) .5750(8) .866(2)
H21 .2680(12) .7320(12) .3804(18)
loop_
_geom_angle_atom_site_label_1
_geom_angle_atom_site_label_2
_geom_angle_atom_site_label_3
_geom_angle
_geom_angle_publ_flag
Li O1 N1 126.59(2) yes
O1 N1 O2 119.19(3) yes
Co N1 O2 118.23(2) yes
Co N1 O1 122.58(2) yes
C1 N2 C2 109.48(3) yes
N2 C1 H11 108.0(7) yes
N2 C1 H12 109.3(5) yes
H11 C1 H12 110.7(5) yes
N2 C2 H21 108.6(7) yes
loop_
_geom_bond_atom_site_label_1
_geom_bond_atom_site_label_2
_geom_bond_distance
_geom_bond_publ_flag
Co N1 1.9655(2) yes
O1 N1 1.2399(4) yes
O2 N1 1.2263(4) yes
N2 C1 1.4946(4) yes
N2 C2 1.4958(8) yes
Li O1 2.0299(2) yes
C1 H11 1.087(11) yes
C1 H12 1.077(14) yes
C2 H21 1.057(13) yes
