#------------------------------------------------------------------------------
#$Date: 2018-01-30 16:30:45 +0200 (Tue, 30 Jan 2018) $
#$Revision: 205898 $
#$URL: file:///home/coder/svn-repositories/cod/cif/2/10/10/2101089.cif $
#------------------------------------------------------------------------------
#
# This file is available in the Crystallography Open Database (COD),
# http://www.crystallography.net/. The original data for this entry
# were provided by IUCr Journals, http://journals.iucr.org/.
#
# The file may be used within the scientific community so long as
# proper attribution is given to the journal article from which the
# data were obtained.
#
data_2101089
loop_
_publ_author_name
'Prout, K.'
'Bannister, C.'
'Burns, K.'
'Chen, M.'
'Warrington, B. H.'
'Vinter, J. G.'
_publ_section_title
;
 Crystal and molecular structures of pyridazinone cardiovascular agents
;
_journal_issue                   1
_journal_name_full               'Acta Crystallographica Section B'
_journal_page_first              71
_journal_page_last               85
_journal_paper_doi               10.1107/S0108768193005713
_journal_volume                  50
_journal_year                    1994
_chemical_formula_sum            'C11 H11 N3 O'
_chemical_formula_weight         201.23
_space_group_crystal_system      monoclinic
_space_group_IT_number           4
_space_group_name_Hall           'P 2yb'
_space_group_name_H-M_alt        'P 1 21 1'
_cell_angle_alpha                90.0
_cell_angle_beta                 98.29
_cell_angle_gamma                90.0
_cell_formula_units_Z            2
_cell_length_a                   8.017(2)
_cell_length_b                   7.199(5)
_cell_length_c                   8.944(2)
_cell_volume                     510.8(4)
_diffrn_radiation_type           MoK\a
_diffrn_radiation_wavelength     0.71073
_exptl_absorpt_coefficient_mu    0.095
_exptl_crystal_density_diffrn    1.31
_exptl_crystal_F_000             212
_cod_data_source_file            ha0118.cif
_cod_data_source_block           ha0118c
_cod_original_cell_volume        510.81
_cod_database_code               2101089
loop_
_space_group_symop_id
_space_group_symop_operation_xyz
1 x,y,z
2 -x,y+1/2,-z
loop_
_atom_site_label
_atom_site_fract_x
_atom_site_fract_y
_atom_site_fract_z
_atom_site_U_iso_or_equiv
N(1) .6674(3) .3477(5) .8010(3) .0386
N(2) .8100(3) .3143(5) .8978(3) .0371
C(3) .8585(4) .1492(5) .9636(3) .0353
C(4) .7393(4) .0009(6) .9279(3) .0347
C(5) .5935(3) .0280(5) .8346(3) .0324
C(6) .5625(3) .2095 .7683(3) .0309
O(7) .9953(3) .1380(5) 1.0494(3) .0466
C(8) .4099(3) .2557(5) .6595(3) .0311
C(9) .3132(4) .4102(6) .6835(3) .0380
C(10) .1787(4) .4645(6) .5773(4) .0431
C(11) .1368(3) .3659(6) .4433(3) .0384
C(12) .2333(4) .2120(6) .4190(3) .0409
C(13) .3672(4) .1563(6) .5250(3) .0373
N(14) .0031(4) .4194(7) .3369(4) .0557
C(15) .4643(5) -.1237(6) .8088(5) .0475
H(1) -.0091 .3899 .2456 ?
H(2) -.0600 .5065 .3501 ?
H(3) .1102 .5773 .5974 ?
H(4) .3270 .4746 .7739 ?
H(5) .4447 .0432 .5009 ?
H(6) .2050 .1511 .3295 ?
H(7) .8822 .4120 .9162 ?
H(8) .7751 -.1148 .9800 ?
H(9) .3546 -.0937 .8163 ?
H(10) .5020 -.2271 .8733 ?
H(11) .4469 -.1593 .7052 ?
loop_
_geom_angle_atom_site_label_1
_geom_angle_atom_site_label_2
_geom_angle_atom_site_label_3
_geom_angle
C(12) C(11) C(10) 118.1(3)
C(11) C(10) C(9) 120.9(2)
C(10) C(9) C(8) 121.0(3)
C(9) C(8) C(13) 118.0(3)
C(8) C(13) C(12) 120.7(3)
C(13) C(12) C(11) 121.2(3)
N(1) C(6) C(5) 122.0(2)
C(6) N(1) N(2) 117.7(2)
N(1) N(2) C(3) 126.6(2)
N(2) C(3) C(4) 114.5(2)
C(3) C(4) C(5) 121.3(2)
C(4) C(5) C(6) 117.9(2)
N(2) C(3) O(7) 119.6(3)
C(4) C(3) O(7) 125.9(3)
N(1) C(6) C(8) 114.7(2)
C(5) C(6) C(8) 122.3(2)
C(6) C(8) C(9) 120.2(2)
C(6) C(8) C(13) 121.6(3)
C(10) C(11) N(14) 121.2(3)
C(12) C(11) N(14) 120.7(3)
loop_
_geom_bond_atom_site_label_1
_geom_bond_atom_site_label_2
_geom_bond_distance
N(14) C(11) 1.382(4)
C(11) C(10) 1.391(4)
C(10) C(9) 1.386(4)
C(9) C(8) 1.390(4)
C(8) C(13) 1.399(4)
C(13) C(12) 1.385(4)
C(12) C(11) 1.387(4)
C(6) C(8) 1.487(3)
C(6) N(1) 1.309(3)
N(1) N(2) 1.353(3)
N(2) C(3) 1.353(3)
C(3) O(7) 1.247(3)
C(3) C(4) 1.438(4)
C(4) C(5) 1.349(4)
C(5) C(6) 1.442(4)
N(2) H(7) .911(2)
C(4) H(8) .977(3)
C(5) C(15) 1.500(4)
C(9) H(4) .925(3)
C(10) H(3) 1.011(3)
C(12) H(6) .912(3)
C(13) H(5) 1.065(3)
N(14) H(1) .836(3)
N(14) H(2) .825(3)
C(15) H(9) .917(3)
C(15) H(10) .963(3)
C(15) H(11) .952(3)
