#------------------------------------------------------------------------------
#$Date: 2022-09-28 18:08:17 +0300 (Wed, 28 Sep 2022) $
#$Revision: 278247 $
#$URL: file:///home/coder/svn-repositories/cod/cif/2/10/14/2101465.cif $
#------------------------------------------------------------------------------
#
# This file is available in the Crystallography Open Database (COD),
# http://www.crystallography.net/. The original data for this entry
# were provided by IUCr Journals, http://journals.iucr.org/.
#
# The file may be used within the scientific community so long as
# proper attribution is given to the journal article from which the
# data were obtained.
#
data_2101465
loop_
_publ_author_name
'Hirano, A.'
'Kubozono, Y.'
'Maeda, H.'
'Ishida, H.'
'Kashino, S.'
_publ_section_title
;
 Structure of ammonium hydrogen succinate above and below the phase
 transition around 170K
;
_journal_issue                   2
_journal_name_full               'Acta Crystallographica Section B'
_journal_page_first              323
_journal_page_last               327
_journal_paper_doi               10.1107/S0108768195012432
_journal_volume                  52
_journal_year                    1996
_chemical_formula_sum            'C4 H9 N O4'
_chemical_formula_weight         135.119
_space_group_IT_number           2
_space_group_name_Hall           '-P 1'
_space_group_name_H-M_alt        'P -1'
_symmetry_cell_setting           triclinic
_symmetry_space_group_name_Hall  '-P 1'
_symmetry_space_group_name_H-M   'P -1'
_atom_type_scat_source
;Cromer & Waber (1974) for non-H atoms and Stewart,
 Davidson & Simpson (1992) for H atoms
;
_cell_angle_alpha                91.29(6)
_cell_angle_beta                 93.23(6)
_cell_angle_gamma                100.24(4)
_cell_formula_units_Z            2
_cell_length_a                   7.483(4)
_cell_length_b                   8.881(4)
_cell_length_c                   4.731(4)
_cell_measurement_reflns_used    25
_cell_measurement_temperature    297
_cell_measurement_theta_max      11.5
_cell_measurement_theta_min      10
_cell_volume                     308.7(3)
_diffrn_measurement_device       'Rigaku AFC-5R'
_diffrn_measurement_method       \w-2\q
_diffrn_radiation_type           MoK\a
_diffrn_radiation_wavelength     0.71073
_diffrn_reflns_av_R_equivalents  0.042
_diffrn_reflns_limit_h_max       9
_diffrn_reflns_limit_h_min       -9
_diffrn_reflns_limit_k_max       11
_diffrn_reflns_limit_k_min       -11
_diffrn_reflns_limit_l_max       6
_diffrn_reflns_limit_l_min       0
_diffrn_reflns_theta_max         27.55
_diffrn_standards_decay_%        1
_exptl_absorpt_coefficient_mu    0.122
_exptl_absorpt_correction_type   none
_exptl_crystal_colour            colourless
_exptl_crystal_density_diffrn    1.453
_exptl_crystal_description       prism
_exptl_crystal_F_000             144
_exptl_crystal_size_max          0.40
_exptl_crystal_size_mid          0.28
_exptl_crystal_size_min          0.23
_refine_diff_density_max         0.2
_refine_diff_density_min         -0.2
_refine_ls_extinction_coef       'g = 1.13E-5'
_refine_ls_extinction_method     'I~corr~ = I~o~(1 + gI~c~)'
_refine_ls_goodness_of_fit_obs   1.49
_refine_ls_hydrogen_treatment    refall
_refine_ls_number_parameters     123
_refine_ls_number_reflns         981
_refine_ls_R_factor_obs          0.034
_refine_ls_shift/esd_max         0.41
_refine_ls_structure_factor_coef F
_refine_ls_weighting_details     'w = 1/\s^2^(F~o~)'
_refine_ls_weighting_scheme      calc
_refine_ls_wR_factor_obs         0.029
_reflns_number_observed          981
_reflns_observed_criterion       I~o~>3.0\s(I)
_cod_data_source_file            as0697.cif
_cod_data_source_block           as0697a
_cod_depositor_comments
;
The following automatic conversions were performed:

'_refine_ls_weighting_scheme' value 'w = 1/\s^2^(F~o~)' was changed
to 'calc'. New tag '_refine_ls_weighting_details' was created. The
value of the new tag was set to 'w = 1/\s^2^(F~o~)'.

Automatic conversion script
Id: cif_fix_values 3143 2015-03-26 13:38:13Z robertas 
;
_cod_original_formula_sum        'C4 H9 N1 O4'
_cod_database_code               2101465
loop_
_space_group_symop_id
_space_group_symop_operation_xyz
1 x,y,z
2 -x,-y,-z
loop_
_atom_site_label
_atom_site_fract_x
_atom_site_fract_y
_atom_site_fract_z
O(1) .3035(2) .03140(10) .2482(3)
O(2) .0338(2) .10160(10) .1926(3)
O(3) .4121(2) .41590(10) .1684(3)
O(4) .2725(2) .61200(10) .2536(2)
N(1) .3270(3) .8093(2) -.2242(4)
C(1) .1940(2) .1124(2) .3161(3)
C(2) .2377(3) .2285(2) .5585(4)
C(3) .1845(2) .3828(2) .5013(4)
C(4) .2961(2) .4793(2) .2942(3)
H(1) .012(6) .031(4) .061(8)
H(2) .367(2) .240(2) .614(3)
H(3) .168(2) .184(2) .717(3)
H(4) .057(3) .370(2) .429(4)
H(5) .189(2) .447(2) .684(4)
H(6) .470(6) .470(5) .050(10)
H(7) .287(4) .750(3) -.389(7)
H(8) .249(4) .866(3) -.186(6)
H(9) .442(3) .873(3) -.232(5)
H(10) .327(3) .741(3) -.069(5)
loop_
_geom_angle_atom_site_label_1
_geom_angle_atom_site_label_2
_geom_angle_atom_site_label_3
_geom_angle
O(1) C(1) O(2) 123.10(10)
O(1) C(1) C(2) 121.5(2)
O(2) C(1) C(2) 115.3(2)
O(3) C(4) O(4) 123.9(2)
O(3) C(4) C(3) 116.2(2)
O(4) C(4) C(3) 119.90(10)
C(1) C(2) C(3) 115.0(2)
C(2) C(3) C(4) 115.70(10)
C(1) O(2) H(1) 113(3)
C(4) O(3) H(6) 114(3)
H(7) N(1) H(8) 110(2)
H(7) N(1) H(9) 115(2)
H(7) N(1) H(10) 108(2)
H(8) N(1) H(9) 108(2)
H(8) N(1) H(10) 105(2)
H(9) N(1) H(10) 111(2)
loop_
_geom_bond_atom_site_label_1
_geom_bond_atom_site_label_2
_geom_bond_distance
C(1) C(2) 1.507(2)
C(2) C(3) 1.519(3)
C(3) C(4) 1.506(2)
C(1) O(1) 1.2330(10)
C(1) O(2) 1.2900(10)
C(4) O(3) 1.2810(10)
C(4) O(4) 1.2400(10)
O(2) H(1) 0.86(4)
O(3) H(6) 0.84(5)
C(2) H(2) 0.980(10)
C(2) H(3) 0.990(10)
C(3) H(4) 0.98(2)
C(3) H(5) 1.02(2)
N(1) H(7) 0.94(3)
N(1) H(8) 0.86(3)
N(1) H(9) 0.95(2)
N(1) H(10) 0.96(2)
