#------------------------------------------------------------------------------
#$Date: 2017-10-13 08:28:26 +0300 (Fri, 13 Oct 2017) $
#$Revision: 201972 $
#$URL: file:///home/coder/svn-repositories/cod/cif/2/10/17/2101707.cif $
#------------------------------------------------------------------------------
#
# This file is available in the Crystallography Open Database (COD),
# http://www.crystallography.net/. The original data for this entry
# were provided by IUCr Journals, http://journals.iucr.org/.
#
# The file may be used within the scientific community so long as
# proper attribution is given to the journal article from which the
# data were obtained.
#
data_2101707
loop_
_publ_author_name
'Larsen, S.'
'Marthi, K.'
_publ_section_title
;
 Structures of the Optically Active Monofluoro-Substituted Mandelic
 Acids: Relation to Their Racemic Counterparts and Thermochemical
 Properties
;
_journal_issue                   2
_journal_name_full               'Acta Crystallographica Section B'
_journal_page_first              280
_journal_page_last               292
_journal_paper_doi               10.1107/S0108768196013419
_journal_volume                  53
_journal_year                    1997
_chemical_formula_moiety
;
FC~6~H~5~CH(OH)COOH
;
_chemical_formula_sum            'C8 H7 F O3'
_chemical_formula_weight         170.14
_chemical_melting_point          394.2
_chemical_name_systematic
;
(R)-(-)-meta-fluoromandelic acid
;
_space_group_IT_number           4
_symmetry_cell_setting           monoclinic
_symmetry_space_group_name_Hall  'P 2yb'
_symmetry_space_group_name_H-M   'P 1 21 1'
_audit_creation_method           SHELXL
_cell_angle_alpha                90.00
_cell_angle_beta                 104.10(2)
_cell_angle_gamma                90.00
_cell_formula_units_Z            4
_cell_length_a                   8.493(3)
_cell_length_b                   5.8426(7)
_cell_length_c                   15.628(3)
_cell_measurement_reflns_used    20
_cell_measurement_temperature    112.0(5)
_cell_measurement_theta_max      45.55
_cell_measurement_theta_min      37.76
_cell_volume                     752.1(3)
_computing_cell_refinement       'CAD-4 Software (Enraf-Nonius, 1989)'
_computing_data_collection       'CAD-4 Software (Enraf-Nonius, 1989)'
_computing_data_reduction        'DREADD (Blessing, 1987)'
_computing_molecular_graphics    'OrtepII (Johnson, 1976) '
_computing_publication_material
;
SHELXL-93 (Sheldrick, 1995) and local programs
;
_computing_structure_refinement  'SHELXL-93 (Sheldrick, 1995)'
_computing_structure_solution    'SHELXS-86 (Sheldrick, 1990)'
_diffrn_ambient_temperature      112.0(5)
_diffrn_measurement_device       'Enraf Nonius CAD4'
_diffrn_measurement_method       \w-2\q
_diffrn_radiation_monochromator  graphite
_diffrn_radiation_source         'fine-focus sealed tube'
_diffrn_radiation_type           CuK\a
_diffrn_radiation_wavelength     1.54184
_diffrn_reflns_av_R_equivalents  0.0192
_diffrn_reflns_av_sigmaI/netI    0.0294
_diffrn_reflns_limit_h_max       10
_diffrn_reflns_limit_h_min       -10
_diffrn_reflns_limit_k_max       7
_diffrn_reflns_limit_k_min       -7
_diffrn_reflns_limit_l_max       19
_diffrn_reflns_limit_l_min       -19
_diffrn_reflns_number            5815
_diffrn_reflns_theta_max         74.88
_diffrn_reflns_theta_min         2.92
_diffrn_standards_decay_%        11.5
_diffrn_standards_interval_time  166.7
_diffrn_standards_number         5
_exptl_absorpt_coefficient_mu    1.096
_exptl_absorpt_correction_T_max  0.956
_exptl_absorpt_correction_T_min  0.770
_exptl_absorpt_correction_type   integration
_exptl_crystal_colour            'white, silky'
_exptl_crystal_density_diffrn    1.503
_exptl_crystal_density_method    none
_exptl_crystal_description       needle
_exptl_crystal_F_000             352
_exptl_crystal_size_max          0.40
_exptl_crystal_size_mid          0.12
_exptl_crystal_size_min          0.04
_refine_diff_density_max         0.206
_refine_diff_density_min         -0.216
_refine_ls_abs_structure_details '-0.04(11) (Flack, 1983)'
_refine_ls_abs_structure_Flack   -0.04(11)
_refine_ls_extinction_coef       0.0104(9)
_refine_ls_extinction_method     'SHELXL93 (Sheldrick, 1993)'
_refine_ls_goodness_of_fit_all   1.052
_refine_ls_goodness_of_fit_obs   1.057
_refine_ls_hydrogen_treatment    refxyz
_refine_ls_matrix_type           full
_refine_ls_number_parameters     260
_refine_ls_number_reflns         3095
_refine_ls_number_restraints     1
_refine_ls_restrained_S_all      1.058
_refine_ls_restrained_S_obs      1.056
_refine_ls_R_factor_all          0.0329
_refine_ls_R_factor_obs          0.0292
_refine_ls_shift/esd_max         0.002
_refine_ls_shift/esd_mean        0.000
_refine_ls_structure_factor_coef Fsqd
_refine_ls_weighting_details
'w = 1/[\s^2^(Fo^2^)+(0.0559P)^2^+0.0267P] where P=(Fo^2^+2Fc^2^)/3'
_refine_ls_weighting_scheme      calc
_refine_ls_wR_factor_all         0.0873
_refine_ls_wR_factor_obs         0.0827
_reflns_number_observed          2810
_reflns_number_total             3096
_reflns_observed_criterion       >2sigma(I)
_cod_data_source_file            ab0363.cif
_cod_data_source_block           OM
_cod_depositor_comments
;
The following automatic conversions were performed:

'_refine_ls_weighting_scheme' value 'calc w =
1/[\s^2^(Fo^2^)+(0.0559P)^2^+0.0267P] where P=(Fo^2^+2Fc^2^)/3' was
changed to 'calc'. New tag '_refine_ls_weighting_details' was
created. The value of the new tag was set to 'w =
1/[\s^2^(Fo^2^)+(0.0559P)^2^+0.0267P] where P=(Fo^2^+2Fc^2^)/3'.

Automatic conversion script
Id: cif_fix_values 3143 2015-03-26 13:38:13Z robertas 
;
_cod_original_sg_symbol_Hall     'P 2y1'
_cod_database_code               2101707
loop_
_symmetry_equiv_pos_as_xyz
'x, y, z'
'-x, y+1/2, -z'
loop_
_atom_site_aniso_label
_atom_site_aniso_U_11
_atom_site_aniso_U_22
_atom_site_aniso_U_33
_atom_site_aniso_U_12
_atom_site_aniso_U_13
_atom_site_aniso_U_23
F1A 0.0391(4) 0.0318(4) 0.0221(3) -0.0003(6) 0.0197(3) -0.0015(5)
O1A 0.0316(5) 0.0093(5) 0.0260(5) 0.0002(4) 0.0160(4) -0.0003(4)
O2A 0.0246(5) 0.0151(5) 0.0205(5) 0.0017(4) 0.0116(4) -0.0009(4)
O3A 0.0444(6) 0.0102(5) 0.0247(5) 0.0030(4) 0.0229(5) 0.0032(4)
C1A 0.0154(6) 0.0123(6) 0.0135(6) 0.0014(5) 0.0030(4) -0.0006(5)
C2A 0.0193(6) 0.0113(7) 0.0165(6) 0.0014(5) 0.0076(4) 0.0016(5)
C3A 0.0189(5) 0.0093(5) 0.0159(5) 0.0001(6) 0.0074(4) 0.0004(6)
C4A 0.0192(5) 0.0145(6) 0.0168(5) -0.0013(6) 0.0067(4) -0.0007(6)
C5A 0.0277(6) 0.0162(6) 0.0192(6) 0.0002(8) 0.0129(5) -0.0003(8)
C6A 0.0347(7) 0.0196(7) 0.0137(6) 0.0004(8) 0.0026(5) -0.0006(7)
C7A 0.0221(6) 0.0242(7) 0.0257(6) -0.0011(8) 0.0009(5) -0.0014(8)
C8A 0.0197(5) 0.0184(6) 0.0235(6) -0.0006(7) 0.0065(4) -0.0003(8)
F1B 0.0241(4) 0.0299(4) 0.0272(4) -0.0005(5) -0.0044(3) 0.0008(5)
O1B 0.0303(5) 0.0101(5) 0.0249(5) 0.0005(4) 0.0145(4) -0.0005(4)
O2B 0.0251(5) 0.0153(5) 0.0194(4) -0.0018(4) 0.0106(4) 0.0011(4)
O3B 0.0384(6) 0.0094(5) 0.0205(5) -0.0019(4) 0.0175(4) -0.0023(4)
C1B 0.0148(6) 0.0121(6) 0.0124(5) -0.0022(5) 0.0021(4) 0.0004(5)
C2B 0.0192(5) 0.0099(6) 0.0158(5) -0.0011(5) 0.0069(4) -0.0007(5)
C3B 0.0198(5) 0.0086(5) 0.0155(5) 0.0005(6) 0.0067(4) 0.0013(6)
C4B 0.0206(5) 0.0135(6) 0.0191(6) -0.0006(7) 0.0064(4) 0.0000(7)
C5B 0.0213(5) 0.0163(6) 0.0207(6) 0.0007(7) 0.0002(4) 0.0013(8)
C6B 0.0355(7) 0.0197(7) 0.0136(6) 0.0003(9) 0.0065(5) 0.0008(7)
C7B 0.0288(6) 0.0256(7) 0.0204(6) -0.0007(9) 0.0133(5) -0.0002(9)
C8B 0.0207(5) 0.0190(6) 0.0194(6) -0.0010(7) 0.0085(4) -0.0003(8)
loop_
_atom_site_label
_atom_site_fract_x
_atom_site_fract_y
_atom_site_fract_z
_atom_site_U_iso_or_equiv
_atom_site_thermal_displace_type
_atom_site_calc_flag
_atom_site_occupancy
_atom_site_type_symbol
F1A 0.18461(10) 0.5963(3) 0.91553(5) 0.0289(2) Uani d 1 F
O1A 0.31847(13) 0.1574(2) 0.63407(7) 0.0208(2) Uani d 1 O
H1A 0.350(2) 0.041(5) 0.6130(14) 0.031 Uiso d 1 H
O2A 0.45835(12) 0.3254(2) 0.54619(6) 0.0190(2) Uani d 1 O
O3A 0.39150(14) 0.7445(2) 0.59253(7) 0.0239(3) Uani d 1 O
H3A 0.436(2) 0.689(4) 0.5521(14) 0.036 Uiso d 1 H
C1A 0.3750(2) 0.3341(3) 0.59933(8) 0.0138(3) Uani d 1 C
C2A 0.32239(15) 0.5625(2) 0.63116(8) 0.0151(3) Uani d 1 C
H2A 0.2044(19) 0.566(4) 0.6138(10) 0.018 Uiso d 1 H
C3A 0.37105(14) 0.5795(3) 0.73088(7) 0.0142(2) Uani d 1 C
C4A 0.25209(14) 0.5809(3) 0.77847(8) 0.0164(2) Uani d 1 C
H4A 0.137(2) 0.567(4) 0.7518(11) 0.020 Uiso d 1 H
C5A 0.3011(2) 0.5942(3) 0.86947(8) 0.0198(3) Uani d 1 C
C6A 0.4620(2) 0.6065(3) 0.91529(8) 0.0233(3) Uani d 1 C
H6A 0.490(2) 0.628(4) 0.9743(12) 0.028 Uiso d 1 H
C7A 0.5788(2) 0.6053(4) 0.86700(9) 0.0248(3) Uani d 1 C
H7A 0.702(2) 0.598(6) 0.8966(11) 0.030 Uiso d 1 H
C8A 0.53509(14) 0.5937(4) 0.77537(8) 0.0203(3) Uani d 1 C
H8A 0.620(2) 0.603(5) 0.7386(12) 0.024 Uiso d 1 H
F1B -0.24318(9) 0.5986(3) 0.08989(5) 0.0289(2) Uani d 1 F
O1B 0.18017(13) 0.1648(2) 0.36567(7) 0.0204(2) Uani d 1 O
H1B 0.147(2) 0.037(4) 0.3869(14) 0.031 Uiso d 1 H
O2B 0.04074(12) 0.3322(2) 0.45368(6) 0.0191(2) Uani d 1 O
O3B 0.09927(14) 0.7521(2) 0.40344(7) 0.0210(2) Uani d 1 O
H3B 0.064(2) 0.703(4) 0.4444(14) 0.032 Uiso d 1 H
C1B 0.1223(2) 0.3411(3) 0.39988(8) 0.0133(3) Uani d 1 C
C2B 0.17127(14) 0.5697(3) 0.36623(8) 0.0145(3) Uani d 1 C
H2B 0.2919(18) 0.577(4) 0.3836(10) 0.017 Uiso d 1 H
C3B 0.12198(14) 0.5828(3) 0.26652(7) 0.0143(2) Uani d 1 C
C4B -0.04337(14) 0.5867(3) 0.22315(8) 0.0175(2) Uani d 1 C
H4B -0.1326(19) 0.593(5) 0.2570(11) 0.021 Uiso d 1 H
C5B -0.08349(15) 0.5964(3) 0.13220(8) 0.0203(3) Uani d 1 C
C6B 0.0299(2) 0.6027(3) 0.08234(8) 0.0229(3) Uani d 1 C
H6B -0.007(2) 0.614(5) 0.0225(12) 0.027 Uiso d 1 H
C7B 0.1929(2) 0.6001(4) 0.12628(8) 0.0237(3) Uani d 1 C
H7B 0.282(2) 0.606(6) 0.0948(11) 0.028 Uiso d 1 H
C8B 0.23900(14) 0.5899(3) 0.21839(8) 0.0191(3) Uani d 1 C
H8B 0.353(2) 0.599(5) 0.2466(11) 0.023 Uiso d 1 H
loop_
_atom_type_symbol
_atom_type_description
_atom_type_scat_dispersion_real
_atom_type_scat_dispersion_imag
_atom_type_scat_source
C C 0.0181 0.0091 'International Tables Vol C Tables 4.2.6.8 and 6.1.1.4'
H H 0.0000 0.0000 'International Tables Vol C Tables 4.2.6.8 and 6.1.1.4'
F F 0.0727 0.0534 'International Tables Vol C Tables 4.2.6.8 and 6.1.1.4'
O O 0.0492 0.0322 'International Tables Vol C Tables 4.2.6.8 and 6.1.1.4'
loop_
_geom_angle_atom_site_label_1
_geom_angle_atom_site_label_2
_geom_angle_atom_site_label_3
_geom_angle
_geom_angle_publ_flag
C1A O1A H1A 107.4(15) no
C2A O3A H3A 109.2(16) no
O2A C1A O1A 125.62(13) yes
O2A C1A C2A 121.57(12) yes
O1A C1A C2A 112.80(11) yes
O3A C2A C3A 110.57(11) yes
O3A C2A C1A 109.39(11) yes
C3A C2A C1A 111.34(11) yes
O3A C2A H2A 111.7(12) no
C3A C2A H2A 106.9(9) no
C1A C2A H2A 106.9(12) no
C4A C3A C8A 119.87(11) yes
C4A C3A C2A 119.87(11) yes
C8A C3A C2A 120.26(11) yes
C5A C4A C3A 118.26(11) yes
C5A C4A H4A 117.7(10) no
C3A C4A H4A 124.0(10) no
F1A C5A C6A 118.77(11) yes
F1A C5A C4A 118.01(11) yes
C6A C5A C4A 123.22(11) yes
C5A C6A C7A 117.82(12) yes
C5A C6A H6A 121.2(11) no
C7A C6A H6A 120.7(11) no
C6A C7A C8A 120.94(12) yes
C6A C7A H7A 122.4(10) no
C8A C7A H7A 116.4(10) no
C7A C8A C3A 119.88(11) yes
C7A C8A H8A 121.7(10) no
C3A C8A H8A 118.3(9) no
C1B O1B H1B 109.0(14) no
C2B O3B H3B 109.4(17) no
O2B C1B O1B 125.65(13) yes
O2B C1B C2B 121.64(13) yes
O1B C1B C2B 112.70(11) yes
O3B C2B C3B 110.15(11) yes
O3B C2B C1B 109.50(11) yes
C3B C2B C1B 111.59(11) yes
O3B C2B H2B 111.9(13) no
C3B C2B H2B 106.7(9) no
C1B C2B H2B 106.9(13) no
C8B C3B C4B 120.21(11) yes
C8B C3B C2B 120.35(11) yes
C4B C3B C2B 119.43(11) yes
C5B C4B C3B 117.73(11) yes
C5B C4B H4B 120.2(9) no
C3B C4B H4B 122.0(9) no
F1B C5B C6B 118.52(11) yes
F1B C5B C4B 117.98(11) yes
C6B C5B C4B 123.50(11) yes
C5B C6B C7B 118.04(11) yes
C5B C6B H6B 118.1(11) no
C7B C6B H6B 123.8(11) no
C6B C7B C8B 120.36(11) yes
C6B C7B H7B 122.6(10) no
C8B C7B H7B 117.0(10) no
C3B C8B C7B 120.16(11) yes
C3B C8B H8B 121.9(10) no
C7B C8B H8B 117.8(10) no
loop_
_geom_bond_atom_site_label_1
_geom_bond_atom_site_label_2
_geom_bond_distance
_geom_bond_publ_flag
F1A C5A 1.3580(14) yes
O1A C1A 1.310(2) yes
O1A H1A 0.83(3) no
O2A C1A 1.217(2) yes
O3A C2A 1.419(2) yes
O3A H3A 0.87(2) no
C1A C2A 1.528(2) yes
C2A C3A 1.515(2) yes
C2A H2A 0.97(2) no
C3A C4A 1.393(2) yes
C3A C8A 1.400(2) yes
C4A C5A 1.383(2) yes
C4A H4A 0.97(2) no
C5A C6A 1.381(2) yes
C6A C7A 1.385(2) yes
C6A H6A 0.90(2) no
C7A C8A 1.391(2) yes
C7A H7A 1.04(2) no
C8A H8A 1.03(2) no
F1B C5B 1.3564(14) yes
O1B C1B 1.310(2) yes
O1B H1B 0.89(2) no
O2B C1B 1.214(2) yes
O3B C2B 1.422(2) yes
O3B H3B 0.82(2) no
C1B C2B 1.530(2) yes
C2B C3B 1.514(2) yes
C2B H2B 0.99(2) no
C3B C8B 1.385(2) yes
C3B C4B 1.403(2) yes
C4B C5B 1.380(2) yes
C4B H4B 1.03(2) no
C5B C6B 1.379(2) yes
C6B C7B 1.387(2) yes
C6B H6B 0.91(2) no
C7B C8B 1.398(2) yes
C7B H7B 1.00(2) no
C8B H8B 0.96(2) no
loop_
_geom_torsion_atom_site_label_1
_geom_torsion_atom_site_label_2
_geom_torsion_atom_site_label_3
_geom_torsion_atom_site_label_4
_geom_torsion
_geom_torsion_publ_flag
O2A C1A C2A O3A -2.6(2) yes
C1A C2A C3A C4A -112.2(2) yes
C1A C2A C3A C8A 67.8(2) no
O2B C1B C2B O3B -3.4(2) yes
C1B C2B C3B C4B 66.4(2) yes
C1B C2B C3B C8B -113.3(2) no
loop_
_cod_related_entry_id
_cod_related_entry_database
_cod_related_entry_code
1 ChemSpider 5362476
