#------------------------------------------------------------------------------
#$Date: 2018-01-30 16:30:45 +0200 (Tue, 30 Jan 2018) $
#$Revision: 205898 $
#$URL: file:///home/coder/svn-repositories/cod/cif/2/10/15/2101536.cif $
#------------------------------------------------------------------------------
#
# This file is available in the Crystallography Open Database (COD),
# http://www.crystallography.net/. The original data for this entry
# were provided by IUCr Journals, http://journals.iucr.org/.
#
# The file may be used within the scientific community so long as
# proper attribution is given to the journal article from which the
# data were obtained.
#
data_2101536
loop_
_publ_author_name
'Espinosa, E.'
'Lecomte, C.'
'Molins, E.'
'Veintemillas, S.'
'Cousson, A.'
'Paulus, W.'
_publ_section_title
;
 Electron density study of a new non-linear optical material:
 <small>L</small>-arginine phosphate monohydrate (LAP). Comparison
 between <i>X</i>--<i>X</i> and <i>X</i>--(<i>X</i> + <i>N</i>)
 refinements
;
_journal_issue                   3
_journal_name_full               'Acta Crystallographica Section B'
_journal_page_first              519
_journal_page_last               534
_journal_paper_doi               10.1107/S0108768195015205
_journal_volume                  52
_journal_year                    1996
_chemical_formula_sum            'C6 H19 N4 O7 P'
_chemical_formula_weight         290.22
_space_group_crystal_system      monoclinic
_space_group_IT_number           4
_space_group_name_Hall           'P 2yb'
_space_group_name_H-M_alt        'P 1 21 1'
_cell_angle_alpha                90.0
_cell_angle_beta                 98.00(10)
_cell_angle_gamma                90.0
_cell_formula_units_Z            2
_cell_length_a                   7.333(6)
_cell_length_b                   7.93(2)
_cell_length_c                   10.81(2)
_cell_measurement_reflns_used    16
_cell_measurement_temperature    130(5)
_cell_measurement_theta_max      16.2
_cell_measurement_theta_min      10.6
_cell_volume                     622.5
_diffrn_radiation_probe          neutron
_diffrn_radiation_type           neutron
_diffrn_radiation_wavelength     0.8302(2)
_exptl_absorpt_coefficient_mu    0.22
_exptl_crystal_colour            colorless
_exptl_crystal_density_diffrn    1.54
_exptl_crystal_description       prismatic
_exptl_crystal_size_max          3.5
_exptl_crystal_size_mid          3.0
_exptl_crystal_size_min          2.5
_cod_data_source_file            pa0310.cif
_cod_depositor_comments
;
 Added _atom_site_type_symbol label and values.

 Antanas Vaitkus
 2013-04-09
;
_cod_original_formula_sum        'C6 H19 N4 O7 P1'
_cod_database_code               2101536
loop_
_space_group_symop_id
_space_group_symop_operation_xyz
1 x,y,z
2 -x,y+1/2,-z
loop_
_atom_site_label
_atom_site_type_symbol
_atom_site_fract_x
_atom_site_fract_y
_atom_site_fract_z
P P .1781(3) -.7500 -.0114(2)
O1 O .0079(3) -.8410(4) .0171(2)
O2 O .3537(3) -.8490(4) .0122(2)
O3 O .1332(3) -.6952(4) -.1546(2)
O4 O .2090(3) -.5821(4) .0658(2)
O5 O .9268(3) -.8349(4) .3608(2)
O6 O .6877(3) -.9463(4) .2373(2)
Ow O .8446(3) -.0820(4) .5230(2)
N1 N .6856(2) -.6812(3) .07540(10)
N2 N .4974(2) -.2225(3) .37110(10)
N3 N .3075(2) -.0622(3) .22990(10)
N4 N .1881(2) -.2940(3) .31820(10)
C1 C .7963(2) -.8255(3) .27580(10)
C2 C .7547(2) -.6540(3) .2109(2)
C3 C .6107(2) -.5535(3) .2708(2)
C4 C .6906(2) -.4783(3) .3971(2)
C5 C .5517(2) -.3670(3) .45230(10)
C6 C .3315(2) -.1951(3) .30760(10)
H1 H .8850(5) -.5828(6) .2147(4)
H2 H .7881(5) -.7420(6) .0350(3)
H3 H .6613(5) -.5634(5) .0326(3)
H4 H .5638(5) -.7534(6) .0627(3)
H5 H .4910(5) -.6344(6) .2804(4)
H6 H .5637(6) -.4499(6) .2068(4)
H7 H .7347(6) -.5792(6) .4645(4)
H8 H .8130(5) -.4020(6) .3868(4)
H9 H .4300(5) -.4397(6) .4651(4)
H10 H .6129(6) -.3191(6) .5446(3)
H11 H .5982(5) -.1368(6) .3602(4)
H12 H .4180(6) .0087(6) .2146(4)
H13 H .1790(6) -.0307(6) .1890(5)
H14 H .1963(6) -.3989(6) .3717(4)
H15 H .0669(5) -.2686(6) .2609(4)
H16 H .9035(6) -.0170(6) .4638(4)
H17 H .9329(5) -.1661(6) .5618(4)
H18 H .2117(5) -.6029(5) -.1843(4)
H19 H .1159(5) -.4906(5) .0406(4)
loop_
_geom_angle_atom_site_label_1
_geom_angle_atom_site_label_2
_geom_angle_atom_site_label_3
_geom_angle
_geom_angle_publ_flag
O1 P O2 115.5(2) yes
O1 P O3 105.2(2) yes
O1 P O4 111.0(2) yes
O2 P O3 111.3(2) yes
O2 P O4 107.2(2) yes
O3 P O4 106.2(2) yes
P O3 H18 117.0(3) yes
P O4 H19 115.1(2) yes
H16 Ow H17 108.4(4) yes
C2 N1 H2 108.1(2) yes
C2 N1 H3 108.5(2) yes
C2 N1 H4 111.8(2) yes
H2 N1 H3 108.5(3) yes
H2 N1 H4 110.1(3) yes
H3 N1 H4 109.8(3) yes
C5 N2 C6 126.20(10) yes
C5 N2 H11 116.6(2) yes
C6 N2 H11 117.2(2) yes
C6 N3 H12 119.7(3) yes
C6 N3 H13 119.9(3) yes
H12 N3 H13 120.3(4) yes
C6 N4 H14 123.4(2) yes
C6 N4 H15 117.4(3) yes
H14 N4 H15 118.9(3) yes
O5 C1 O6 125.6(2) yes
O5 C1 C2 118.5(2) yes
O6 C1 C2 115.90(10) yes
N1 C2 C1 109.70(10) yes
N1 C2 C3 109.10(10) yes
N1 C2 H1 106.5(2) yes
C1 C2 C3 111.70(10) yes
C1 C2 H1 108.5(2) yes
C3 C2 H1 111.1(2) yes
C2 C3 C4 112.20(10) yes
C2 C3 H5 109.9(3) yes
C2 C3 H6 107.3(3) yes
C4 C3 H5 110.7(3) yes
C4 C3 H6 108.6(3) yes
H5 C3 H6 108.1(3) yes
C3 C4 C5 112.30(10) yes
C3 C4 H7 110.4(2) yes
C3 C4 H8 109.9(2) yes
C5 C4 H7 108.1(3) yes
C5 C4 H8 108.6(3) yes
H7 C4 H8 107.3(3) yes
N2 C5 C4 111.00(10) yes
N2 C5 H9 109.4(2) yes
N2 C5 H10 108.3(3) yes
C4 C5 H9 110.3(3) yes
C4 C5 H10 110.0(2) yes
H9 C5 H10 107.8(3) yes
N2 C6 N3 118.80(10) yes
N2 C6 N4 122.50(10) yes
N3 C6 N4 118.70(10) yes
loop_
_geom_bond_atom_site_label_1
_geom_bond_atom_site_label_2
_geom_bond_distance
_geom_bond_publ_flag
P O1 1.510(3) yes
P O2 1.500(3) yes
P O3 1.598(3) yes
P O4 1.571(3) yes
O5 C1 1.234(3) yes
O6 C1 1.278(3) yes
N1 C2 1.497(2) yes
N2 C5 1.465(2) yes
N2 C6 1.329(2) yes
N3 C6 1.344(2) yes
N4 C6 1.330(2) yes
C1 C2 1.541(2) yes
C2 C3 1.536(2) yes
C3 C4 1.531(2) yes
C4 C5 1.529(2) yes
C2 H1 1.106(4) yes
N1 H2 1.039(4) yes
N1 H3 1.047(4) yes
N1 H4 1.053(4) yes
C3 H5 1.104(4) yes
C3 H6 1.098(4) yes
C4 H7 1.100(4) yes
C4 H8 1.101(4) yes
C5 H9 1.088(4) yes
C5 H10 1.103(4) yes
N2 H11 1.023(4) yes
N3 H12 1.019(4) yes
N3 H13 1.015(4) yes
N4 H14 1.010(4) yes
N4 H15 1.030(4) yes
Ow H16 0.968(5) yes
Ow H17 0.983(5) yes
O3 H18 1.011(4) yes
O4 H19 1.008(4) yes
