#------------------------------------------------------------------------------
#$Date: 2017-08-07 04:53:34 +0300 (Mon, 07 Aug 2017) $
#$Revision: 199607 $
#$URL: file:///home/coder/svn-repositories/cod/cif/2/10/17/2101730.cif $
#------------------------------------------------------------------------------
#
# This file is available in the Crystallography Open Database (COD),
# http://www.crystallography.net/. The original data for this entry
# were provided by IUCr Journals, http://journals.iucr.org/.
#
# The file may be used within the scientific community so long as
# proper attribution is given to the journal article from which the
# data were obtained.
#
data_2101730
loop_
_publ_author_name
'Marsh, R. E.'
_publ_section_title
;
 The perils of <i>Cc</i> revisited
;
_journal_issue                   2
_journal_name_full               'Acta Crystallographica Section B'
_journal_page_first              317
_journal_page_last               322
_journal_paper_doi               10.1107/S010876819601381X
_journal_volume                  53
_journal_year                    1997
_chemical_formula_moiety         'C4 H8 O2 Cl2 Ge'
_chemical_formula_sum            'C4 H8 Cl2 Ge O2'
_space_group_IT_number           15
_symmetry_cell_setting           monoclinic
_symmetry_space_group_name_Hall  '-C 2yc'
_symmetry_space_group_name_H-M   'C 1 2/c 1'
_audit_creation_method           CSD-QUEST3D-V5
_cell_angle_alpha                90
_cell_angle_beta                 96.3
_cell_angle_gamma                90
_cell_formula_units_Z            4
_cell_length_a                   7.590(10)
_cell_length_b                   11.72(2)
_cell_length_c                   8.850(10)
_cell_volume                     782.5(19)
_cod_data_source_file            an0533.cif
_cod_data_source_block           CSD_CIF_MIF_DIOXGC01
_cod_depositor_comments
;
 Marking attached hydrogen atoms.

 Antanas Vaitkus,
 2017-08-07

  Added moiety chemical formula from Marsh (1997) paper. The summary
  chemical formula is calculated from moiety formula using 'AdHocParser'
  (svn://www.crystallography.net/cod-tools/trunk/Formulae/AdHocParser.yp,
  revision 1441.)

  Removing 4 atoms which were symmetric equivalents of the atoms from
  the asymmetric unit.

  Andrius Merkys
  2013-11-06
;
_cod_original_sg_symbol_H-M      'C 2/c'
_cod_database_code               2101730
loop_
_symmetry_equiv_pos_as_xyz
x,y,z
-x,y,1/2-z
1/2+x,1/2+y,z
1/2-x,1/2+y,1/2-z
-x,-y,-z
x,-y,-1/2+z
-1/2-x,-1/2-y,-z
-1/2+x,-1/2-y,-1/2+z
loop_
_atom_site_label
_atom_site_fract_x
_atom_site_fract_y
_atom_site_fract_z
_atom_site_type_symbol
_atom_site_attached_hydrogens
Ge1 .0 .026 .25 Ge 0
Cl1 -.007 .156 .440 Cl 0
C1 .404 .138 .222 C 2
C2 .404 -.063 .214 C 2
O1 .324 .036 .268 O 0
loop_
_atom_type_symbol
C
Cl
Ge
O
