#------------------------------------------------------------------------------
#$Date: 2017-10-13 08:28:26 +0300 (Fri, 13 Oct 2017) $
#$Revision: 201972 $
#$URL: file:///home/coder/svn-repositories/cod/cif/2/10/20/2102014.cif $
#------------------------------------------------------------------------------
#
# This file is available in the Crystallography Open Database (COD),
# http://www.crystallography.net/. The original data for this entry
# were provided by IUCr Journals, http://journals.iucr.org/.
#
# The file may be used within the scientific community so long as
# proper attribution is given to the journal article from which the
# data were obtained.
#
data_2102014
loop_
_publ_author_name
'Boldyreva, Elena V.'
'Shakhtshneider, Tatiana P.'
'Vasilchenko, Marina A.'
'Ahsbahs, Hans'
'Uchtmann, H.'
_publ_section_title
;
 Anisotropic crystal structure distortion of the monoclinic polymorph
 of acetaminophen at high hydrostatic pressures
;
_journal_issue                   2
_journal_name_full               'Acta Crystallographica Section B'
_journal_page_first              299
_journal_page_last               309
_journal_paper_doi               10.1107/S0108768199013634
_journal_volume                  56
_journal_year                    2000
_chemical_formula_moiety         'C8 H9 N O2'
_chemical_formula_sum            'C8 H9 N O2'
_chemical_formula_weight         151.16
_chemical_melting_point          171.5(5)
_chemical_name_common            Acetaminophen
_chemical_name_systematic
;
 4-acetaminophenol
;
_space_group_IT_number           14
_symmetry_cell_setting           monoclinic
_symmetry_space_group_name_Hall  '-P 2yn'
_symmetry_space_group_name_H-M   'P 1 21/n 1'
_audit_creation_method           SHELXL-97
_cell_angle_alpha                90.00
_cell_angle_beta                 99.120(10)
_cell_angle_gamma                90.00
_cell_formula_units_Z            4
_cell_length_a                   6.8850(10)
_cell_length_b                   8.5819(7)
_cell_length_c                   11.5190(10)
_cell_measurement_reflns_used    12
_cell_measurement_temperature    293(2)
_cell_measurement_theta_max      9.01
_cell_measurement_theta_min      2.95
_cell_volume                     672.01(13)
_computing_cell_refinement       'CRYMIS (Kutoglu, 1995)'
_computing_data_collection       'MDIF4 (Kutoglu, 1997)'
_computing_data_reduction        'PROFILE (Naumov and Boldyreva, 1997)'
_computing_molecular_graphics    'CAVITY (Naumov and Boldyreva, 1999)'
_computing_publication_material  'SHELXL-97 (Sheldrick, 1997b)'
_computing_structure_refinement  'SHELXL-97 (Sheldrick, 1997b)'
_computing_structure_solution    'SHELXS-97 (Sheldrick, 1997a)'
_diffrn_ambient_temperature      293(2)
_diffrn_measured_fraction_theta_full .399
_diffrn_measured_fraction_theta_max .399
_diffrn_measurement_device_type  'STOE 4-circle diffractometer'
_diffrn_measurement_method       \w
_diffrn_radiation_monochromator  graphite
_diffrn_radiation_source         'fine-focus sealed tube'
_diffrn_radiation_type           MoK\a
_diffrn_radiation_wavelength     .71073
_diffrn_reflns_av_R_equivalents  .0668
_diffrn_reflns_av_sigmaI/netI    .0848
_diffrn_reflns_limit_h_max       5
_diffrn_reflns_limit_h_min       -5
_diffrn_reflns_limit_k_max       11
_diffrn_reflns_limit_k_min       -11
_diffrn_reflns_limit_l_max       13
_diffrn_reflns_limit_l_min       -13
_diffrn_reflns_number            2167
_diffrn_reflns_theta_full        27.49
_diffrn_reflns_theta_max         27.49
_diffrn_reflns_theta_min         2.97
_diffrn_standards_decay_%        0
_diffrn_standards_interval_time  300
_diffrn_standards_number         1
_exptl_absorpt_coefficient_mu    .108
_exptl_absorpt_correction_type   none
_exptl_crystal_colour            colourless
_exptl_crystal_density_diffrn    1.494
_exptl_crystal_density_method    'not measured'
_exptl_crystal_description       prism
_exptl_crystal_F_000             320
_exptl_crystal_size_max          .25
_exptl_crystal_size_mid          .15
_exptl_crystal_size_min          .07
_refine_diff_density_max         .105
_refine_diff_density_min         -.100
_refine_ls_extinction_coef       .0080(15)
_refine_ls_extinction_method     SHELXL
_refine_ls_goodness_of_fit_ref   .919
_refine_ls_hydrogen_treatment    combination
_refine_ls_matrix_type           full
_refine_ls_number_parameters     113
_refine_ls_number_reflns         613
_refine_ls_number_restraints     2
_refine_ls_restrained_S_all      .921
_refine_ls_R_factor_all          .0859
_refine_ls_R_factor_gt           .0325
_refine_ls_shift/su_max          .000
_refine_ls_shift/su_mean         .000
_refine_ls_structure_factor_coef Fsqd
_refine_ls_weighting_details
'calc w=1/[\s^2^(Fo^2^)+(0.0000P)^2^+0.0000P] where P=(Fo^2^+2Fc^2^)/3'
_refine_ls_weighting_scheme      calc
_refine_ls_wR_factor_ref         .0546
_reflns_number_gt                360
_reflns_number_total             613
_reflns_threshold_expression     >2sigma(I)
_cod_data_source_file            av0025.cif
_cod_data_source_block           (2.0GPa)
_cod_depositor_comments
;
The following automatic conversions were performed:
'_symmetry_cell_setting' value 'Monoclinic' changed to 'monoclinic'
according to '/home/saulius/struct/CIF-dictionaries/cif_core.dic'
dictionary named 'cif_core.dic' version 2.4.1 from 2010-06-29.

Automatic conversion script
Id: cif_fix_enum 1527 2010-12-29 10:47:43Z saulius 

The following automatic conversions were performed:

'_chemical_melting_point' value '171-172' was changed to '171.5(5)' -
the average value was taken and precision was estimated.

Automatic conversion script
Id: cif_fix_values 1646 2011-03-28 12:23:43Z adriana 

The following automatic conversions were performed:

'_chemical_melting_point' value '171-172' was changed to '171.5(5)' -
the average value was taken and precision was
estimated.

'_symmetry_cell_setting' value 'Monoclinic' changed to
'monoclinic' according to
/home/saulius/struct/CIF-dictionaries/cif_core.dic dictionary named
'cif_core.dic' version 2.4.1 from 2010-06-29.

Automatic conversion script
Id: cif_fix_values 1715 2011-07-08 13:25:40Z adriana 
;
_cod_database_code               2102014
loop_
_symmetry_equiv_pos_as_xyz
'x, y, z'
'-x+1/2, y+1/2, -z+1/2'
'-x, -y, -z'
'x-1/2, -y-1/2, z-1/2'
loop_
_atom_site_label
_atom_site_fract_x
_atom_site_fract_y
_atom_site_fract_z
_atom_site_U_iso_or_equiv
_atom_site_adp_type
_atom_site_calc_flag
_atom_site_refinement_flags
_atom_site_occupancy
_atom_site_type_symbol
O1 .1537(5) .9479(2) .2216(2) .039(2) Uani d D 1 O
H1' .053(4) .985(4) .246(3) .047 Uiso d D 1 H
C1 .1228(7) .8456(3) .1292(3) .022(3) Uani d . 1 C
C2 -.0579(6) .8346(2) .0565(2) .025(3) Uani d . 1 C
H2 -.172(4) .897(2) .0719(5) .030 Uiso calc R 1 H
C3 -.0748(7) .7335(3) -.0381(3) .036(3) Uani d . 1 C
H3 -.194(3) .7270(3) -.0883(12) .044 Uiso calc R 1 H
C4 .0769(6) .6436(2) -.0601(2) .015(3) Uani d . 1 C
C5 .2589(6) .6505(2) .0146(2) .028(3) Uani d . 1 C
H5 .366(3) .587(2) .0011(5) .033 Uiso calc R 1 H
C6 .2771(7) .7527(3) .1090(3) .019(3) Uani d . 1 C
H6 .397(3) .7587(3) .1601(10) .023 Uiso calc R 1 H
N1 .0458(7) .5454(2) -.1610(2) .020(3) Uani d . 1 N
H2' -.078(4) .5306(5) -.1909(9) .024 Uiso calc R 1 H
C7 .1732(9) .4727(3) -.2172(3) .031(3) Uani d . 1 C
O2 .3530(6) .4752(2) -.1850(2) .037(3) Uani d . 1 O
C8 .0824(7) .3854(3) -.3257(3) .041(3) Uani d . 1 C
H8A .153(2) .409(2) -.3889(11) .061 Uiso calc R 1 H
H8B -.052(2) .416(2) -.3472(12) .061 Uiso calc R 1 H
H8C .089(4) .2756(16) -.3101(8) .061 Uiso calc R 1 H
loop_
_atom_site_aniso_label
_atom_site_aniso_U_11
_atom_site_aniso_U_22
_atom_site_aniso_U_33
_atom_site_aniso_U_12
_atom_site_aniso_U_13
_atom_site_aniso_U_23
O1 .035(5) .0370(12) .0412(17) .0024(13) -.006(3) -.0150(11)
C1 .019(6) .0262(15) .022(2) -.0019(18) .007(4) .0006(13)
C2 .016(6) .0283(14) .032(2) .0082(16) .006(4) -.0003(13)
C3 .042(7) .0280(15) .032(2) .0064(18) -.015(4) .0021(14)
C4 .013(6) .0206(13) .016(2) -.0026(18) .011(4) .0034(12)
C5 .027(6) .0258(14) .028(2) .0025(16) -.002(4) .0047(13)
C6 .003(6) .0299(16) .024(2) .0022(17) .003(4) .0005(14)
N1 .009(6) .0298(14) .022(2) -.0010(17) .004(3) .0016(12)
C7 .029(8) .0215(17) .039(3) .005(2) .000(4) .0003(16)
O2 .016(6) .0530(14) .043(2) .0040(15) .007(3) -.0003(11)
C8 .057(7) .0314(13) .033(2) .0009(19) .004(4) -.0047(13)
loop_
_atom_type_symbol
_atom_type_description
_atom_type_scat_dispersion_real
_atom_type_scat_dispersion_imag
_atom_type_scat_source
C C .0033 .0016 'International Tables Vol C Tables 4.2.6.8 and 6.1.1.4'
H H .0000 .0000 'International Tables Vol C Tables 4.2.6.8 and 6.1.1.4'
N N .0061 .0033 'International Tables Vol C Tables 4.2.6.8 and 6.1.1.4'
O O .0106 .0060 'International Tables Vol C Tables 4.2.6.8 and 6.1.1.4'
loop_
_geom_angle_atom_site_label_1
_geom_angle_atom_site_label_2
_geom_angle_atom_site_label_3
_geom_angle
_geom_angle_publ_flag
O1 C1 C2 121.7(4) yes
C1 C2 C3 118.2(4) yes
C2 C3 C4 122.3(3) yes
C3 C4 C5 120.1(3) yes
C3 C4 N1 118.0(3) yes
C5 C4 N1 121.9(4) yes
C4 C5 C6 117.9(4) yes
C5 C6 C1 121.5(3) yes
C6 C1 O1 118.3(3) yes
C6 C1 C2 120.0(3) yes
C4 N1 C7 130.7(4) yes
N1 C7 O2 123.6(3) yes
N1 C7 C8 114.8(5) yes
O2 C7 C8 121.5(5) yes
loop_
_geom_bond_atom_site_label_1
_geom_bond_atom_site_label_2
_geom_bond_distance
_geom_bond_publ_flag
O1 C1 1.370(3) yes
C1 C2 1.389(4) yes
C2 C3 1.383(4) yes
C3 C4 1.354(6) yes
C4 C5 1.405(4) yes
C5 C6 1.387(4) yes
C6 C1 1.377(6) yes
C4 N1 1.423(3) yes
N1 C7 1.327(8) yes
C7 O2 1.235(6) yes
C7 C8 1.505(3) yes
loop_
_cod_related_entry_id
_cod_related_entry_database
_cod_related_entry_code
1 ChemSpider 1906
