#------------------------------------------------------------------------------
#$Date: 2016-02-20 02:53:41 +0200 (Sat, 20 Feb 2016) $
#$Revision: 176768 $
#$URL: svn://www.crystallography.net/cod/cif/2/10/28/2102816.cif $
#------------------------------------------------------------------------------
#
# This file is available in the Crystallography Open Database (COD),
# http://www.crystallography.net/. The original data for this entry
# were provided by IUCr Journals, http://journals.iucr.org/.
#
# The file may be used within the scientific community so long as
# proper attribution is given to the journal article from which the
# data were obtained.
#
data_2102816
loop_
_publ_author_name
'Weller, Mark T.'
'Henry, Paul F.'
'Light, Mark E.'
_publ_section_title
;
 Rapid structure determination of the hydrogen-containing compound
 Cs~2~C~2~O~4~&#x00B7;H~2~O by joint single-crystal X-ray and powder
 neutron diffraction
;
_journal_issue                   3
_journal_name_full               'Acta Crystallographica Section B'
_journal_page_first              426
_journal_page_last               432
_journal_paper_doi               10.1107/S0108768107014826
_journal_volume                  63
_journal_year                    2007
_chemical_formula_sum            'C2 H2 Cs2 O5'
_chemical_formula_weight         371.84
_chemical_name_systematic        ' ?'
_space_group_IT_number           15
_symmetry_cell_setting           monoclinic
_symmetry_space_group_name_Hall  '-C 2yc'
_symmetry_space_group_name_H-M   'C 1 2/c 1'
_audit_creation_method           'from EXP file using GSAS2CIF'
_cell_angle_alpha                90.0
_cell_angle_beta                 107.190(4)
_cell_angle_gamma                90.0
_cell_formula_units_Z            4
_cell_length_a                   10.1127(5)
_cell_length_b                   6.6535(4)
_cell_length_c                   11.3257(6)
_cell_volume                     728.00(8)
_computing_structure_refinement  GSAS
_diffrn_radiation_wavelength     1.36
_exptl_absorpt_correction_T_max  1.00000
_exptl_absorpt_correction_T_min  1.00000
_exptl_absorpt_process_details
;   GSAS Absorption/surface roughness correction: function number 0
 No correction is applied.
;
_refine_ls_goodness_of_fit_all   1.44
_refine_ls_matrix_type           full
_refine_ls_number_parameters     71
_refine_ls_number_restraints     0
_refine_ls_shift/su_max          0.61
_refine_ls_shift/su_mean         0.07
_reflns_number_total             995
_cod_data_source_file            bk5052.cif
_cod_depositor_comments
;
The following automatic conversions were performed:
'_geom_bond_publ_flag' value 'N' changed to 'n' according to
'/home/saulius/struct/CIF-dictionaries/cif_core.dic' dictionary named
'cif_core.dic' version 2.4.1 from 2010-06-29 (93
times).

'_geom_angle_publ_flag' value 'N' changed to 'n' according to
'/home/saulius/struct/CIF-dictionaries/cif_core.dic' dictionary named
'cif_core.dic' version 2.4.1 from 2010-06-29 (98 times).

Automatic conversion script
Id: cif_fix_enum 1527 2010-12-29 10:47:43Z saulius 
;
_cod_original_sg_symbol_H-M      'C 2/c'
_cod_database_code               2102816
loop_
_symmetry_equiv_pos_site_id
_symmetry_equiv_pos_as_xyz
1 +x,+y,+z
2 -x,+y,-z+1/2
-1 -x,-y,-z
-2 +x,-y,+z+1/2
101 +x+1/2,+y+1/2,+z
102 -x+1/2,+y+1/2,-z+1/2
-101 -x+1/2,-y+1/2,-z
-102 +x+1/2,-y+1/2,+z+1/2
loop_
_atom_site_aniso_label
_atom_site_aniso_U_11
_atom_site_aniso_U_22
_atom_site_aniso_U_33
_atom_site_aniso_U_12
_atom_site_aniso_U_13
_atom_site_aniso_U_23
O1 0.113(8) 0.024(4) 0.101(8) 0.0 0.086(7) 0.0
O2 0.029(3) 0.037(3) 0.034(3) -0.006(2) 0.025(2) -0.007(2)
O3 0.031(3) 0.025(2) 0.034(3) -0.004(2) 0.015(2) -0.009(2)
CS4 0.020(3) 0.029(3) 0.032(3) -0.001(2) 0.010(2) -0.003(2)
C5 0.0217(19) 0.021(2) 0.0105(18) 0.0028(19) 0.0044(17) 0.0010(16)
H6 0.057(6) 0.046(6) 0.061(7) 0.001(4) 0.032(6) -0.007(5)
loop_
_atom_site_type_symbol
_atom_site_label
_atom_site_fract_x
_atom_site_fract_y
_atom_site_fract_z
_atom_site_U_iso_or_equiv
_atom_site_thermal_displace_type
_atom_site_occupancy
O O1 0.0 -0.4475(12) 0.25 0.06749 Uani 1.0
O O2 0.8610(5) -0.2705(6) 0.4051(4) 0.02992 Uani 1.0
O O3 0.6750(5) -0.4535(7) 0.4042(4) 0.02898 Uani 1.0
Cs CS4 0.8729(4) 0.1932(7) 0.3741(4) 0.02648 Uani 1.0
C C5 0.7606(4) -0.3157(6) 0.4458(3) 0.01775 Uani 1.0
H H6 0.9556(11) -0.3644(13) 0.2988(8) 0.05145 Uani 1.0
loop_
_atom_type_symbol
_atom_type_scat_source
O International_Tables_Vol_C
Cs International_Tables_Vol_C
C International_Tables_Vol_C
H International_Tables_Vol_C
loop_
_geom_angle_atom_site_label_1
_geom_angle_atom_site_label_2
_geom_angle_atom_site_label_3
_geom_angle_site_symmetry_1
_geom_angle_site_symmetry_3
_geom_angle
_geom_angle_publ_flag
O2 O1 O2 1_455 2_655 130.5(3) n
O2 O1 H6 1_455 1_455 9.6(5) n
O2 O1 H6 1_455 2_655 120.9(6) n
O2 O1 H6 2_655 1_455 120.9(6) n
O2 O1 H6 2_655 2_655 9.6(5) n
H6 O1 H6 1_455 2_655 111.2(10) n
O1 O2 O3 1_655 1_555 110.1(2) n
O1 O2 O3 1_655 -101_535 158.3(2) n
O1 O2 CS4 1_655 1_555 107.6(2) n
O1 O2 CS4 1_655 -1_756 95.59(15) n
O1 O2 C5 1_655 1_555 136.8(3) n
O1 O2 C5 1_655 -101_646 168.7(2) n
O1 O2 H6 1_655 1_555 5.1(2) n
O3 O2 O3 1_555 -101_535 89.6(2) n
O3 O2 CS4 1_555 1_555 126.8(2) n
O3 O2 CS4 1_555 -1_756 128.1(2) n
O3 O2 C5 1_555 1_555 27.3(2) n
O3 O2 C5 1_555 -101_646 62.3(2) n
O3 O2 H6 1_555 1_555 114.1(4) n
O3 O2 CS4 -101_646 1_555 64.38(16) n
O3 O2 CS4 -101_646 -1_756 64.08(16) n
O3 O2 C5 -101_646 1_555 62.3(3) n
O3 O2 C5 -101_646 -101_646 27.27(13) n
O3 O2 H6 -101_646 1_555 155.6(4) n
CS4 O2 CS4 1_555 -1_756 82.78(17) n
CS4 O2 C5 1_555 1_555 109.7(3) n
CS4 O2 C5 1_555 -101_646 83.62(15) n
CS4 O2 H6 1_555 1_555 102.5(3) n
CS4 O2 C5 -1_756 1_555 109.9(3) n
CS4 O2 C5 -1_756 -101_646 84.16(16) n
CS4 O2 H6 -1_756 1_555 95.0(3) n
C5 O2 C5 1_555 -101_646 35.0(3) n
C5 O2 H6 1_555 1_555 141.1(5) n
C5 O2 H6 -101_646 1_555 173.7(3) n
O2 O3 O2 1_555 -101_536 90.5(2) n
O2 O3 CS4 1_555 1_545 81.23(17) n
O2 O3 CS4 1_555 101_445 128.5(2) n
O2 O3 CS4 1_555 102_645 73.78(19) n
O2 O3 CS4 1_555 -101_646 127.1(3) n
O2 O3 C5 1_555 1_555 27.7(2) n
O2 O3 C5 1_555 -101_646 62.8(2) n
O2 O3 CS4 -101_646 1_545 136.4(2) n
O2 O3 CS4 -101_646 101_445 64.05(16) n
O2 O3 CS4 -101_646 102_645 126.6(2) n
O2 O3 CS4 -101_646 -101_646 63.63(16) n
O2 O3 C5 -101_646 1_555 62.8(3) n
O2 O3 C5 -101_646 -101_646 27.64(11) n
CS4 O3 CS4 1_545 101_445 147.87(19) n
CS4 O3 CS4 1_545 102_645 92.12(14) n
CS4 O3 CS4 1_545 -101_646 87.74(16) n
CS4 O3 C5 1_545 1_555 101.3(3) n
CS4 O3 C5 1_545 -101_646 125.20(18) n
CS4 O3 CS4 101_445 102_645 86.50(16) n
CS4 O3 CS4 101_445 -101_646 82.45(18) n
CS4 O3 C5 101_445 1_555 110.9(3) n
CS4 O3 C5 101_445 -101_646 84.09(16) n
CS4 O3 CS4 102_645 -101_646 158.8(2) n
CS4 O3 C5 102_645 1_555 92.0(3) n
CS4 O3 C5 102_645 -101_646 113.4(2) n
CS4 O3 C5 -101_646 1_555 108.9(3) n
CS4 O3 C5 -101_646 -101_646 83.52(18) n
C5 O3 C5 1_555 -101_646 35.2(3) n
O2 CS4 O2 1_555 -1_756 97.22(17) n
O2 CS4 O3 1_555 1_565 132.57(18) n
O2 CS4 O3 1_555 101_555 75.37(16) n
O2 CS4 O3 1_555 102_655 78.97(15) n
O2 CS4 O3 1_555 -101_535 52.00(14) n
O2 CS4 O3 -1_756 1_565 102.33(17) n
O2 CS4 O3 -1_756 101_555 51.87(13) n
O2 CS4 O3 -1_756 102_655 133.03(19) n
O2 CS4 O3 -1_756 -101_535 75.10(15) n
O3 CS4 O3 1_565 101_555 147.87(19) n
O3 CS4 O3 1_565 102_655 114.57(17) n
O3 CS4 O3 1_565 -101_535 92.26(16) n
O3 CS4 O3 101_555 102_655 82.56(17) n
O3 CS4 O3 101_555 -101_535 97.55(18) n
O3 CS4 O3 102_655 -101_535 128.39(16) n
O2 C5 O2 1_555 -101_536 145.0(3) n
O2 C5 O3 1_555 1_555 125.0(4) n
O2 C5 O3 1_555 -101_535 90.1(3) n
O2 C5 C5 1_555 -101_646 117.4(5) n
O2 C5 H6 1_555 1_555 23.2(3) n
O2 C5 O3 -101_535 1_555 89.9(3) n
O2 C5 O3 -101_535 -101_535 54.91(14) n
O2 C5 C5 -101_646 -101_646 27.6(2) n
O2 C5 H6 -101_646 1_555 167.6(3) n
O3 C5 O3 1_555 -101_535 144.8(3) n
O3 C5 C5 1_555 -101_646 117.5(4) n
O3 C5 H6 1_555 1_555 102.1(3) n
O3 C5 C5 -101_646 -101_646 27.3(2) n
O3 C5 H6 -101_646 1_555 113.0(3) n
C5 C5 H6 -101_646 1_555 140.3(4) n
O1 H6 O2 1_655 1_555 165.3(7) n
O1 H6 C5 1_655 1_555 151.0(6) n
O1 H6 H6 1_655 2_755 34.4(5) n
O2 H6 C5 1_555 1_555 15.67(18) n
O2 H6 H6 1_555 2_755 160.3(3) n
C5 H6 H6 1_555 2_755 169.9(7) n
loop_
_geom_bond_atom_site_label_1
_geom_bond_atom_site_label_2
_geom_bond_site_symmetry_2
_geom_bond_distance
_geom_bond_publ_flag
O1 O2 1_455 2.812(5) n
O1 O2 2_655 2.812(5) n
O1 O3 101_445 3.961(8) n
O1 O3 101_455 3.893(8) n
O1 O3 102_545 3.961(8) n
O1 O3 102_555 3.893(8) n
O1 CS4 1_445 3.227(7) n
O1 CS4 2_645 3.227(7) n
O1 CS4 101_445 3.733(4) n
O1 CS4 102_545 3.733(4) n
O1 C5 1_455 3.837(4) n
O1 C5 2_655 3.837(4) n
O1 C5 -1_646 3.909(5) n
O1 C5 -2_444 3.909(5) n
O1 C5 101_445 3.796(6) n
O1 C5 102_545 3.796(6) n
O1 H6 1_455 0.980(9) n
O1 H6 2_655 0.980(9) n
O2 O1 1_655 2.812(5) n
O2 O2 -101_536 3.549(9) n
O2 O3 1_555 2.238(6) n
O2 O3 101_555 3.814(6) n
O2 O3 -101_536 2.736(6) n
O2 CS4 1_545 3.591(6) n
O2 CS4 1_555 3.111(6) n
O2 CS4 -1_756 3.128(5) n
O2 CS4 102_645 3.351(6) n
O2 C5 1_555 1.269(5) n
O2 C5 -101_536 2.433(5) n
O2 H6 1_555 1.853(9) n
O2 H6 2_755 3.419(9) n
O3 O1 101_545 3.893(8) n
O3 O1 101_555 3.961(8) n
O3 O2 1_555 2.238(6) n
O3 O2 101_445 3.814(6) n
O3 O2 -101_536 2.736(6) n
O3 O3 -101_536 3.521(9) n
O3 CS4 1_545 3.170(6) n
O3 CS4 101_445 3.129(6) n
O3 CS4 102_645 3.197(7) n
O3 CS4 -101_536 3.131(7) n
O3 C5 1_555 1.254(6) n
O3 C5 -101_536 2.422(6) n
O3 H6 1_555 3.440(9) n
O3 H6 101_445 3.500(10) n
O3 H6 102_645 3.565(10) n
CS4 O1 1_665 3.227(7) n
CS4 O1 101_555 3.733(4) n
CS4 O2 1_555 3.111(6) n
CS4 O2 1_565 3.591(6) n
CS4 O2 -1_756 3.128(5) n
CS4 O2 102_655 3.351(6) n
CS4 O3 1_565 3.170(6) n
CS4 O3 101_555 3.129(6) n
CS4 O3 102_655 3.197(7) n
CS4 O3 -101_536 3.131(7) n
CS4 C5 1_555 3.736(6) n
CS4 C5 1_565 3.629(7) n
CS4 C5 -1_756 3.754(5) n
CS4 C5 101_555 3.762(6) n
CS4 C5 102_655 3.473(5) n
CS4 C5 -101_536 3.731(5) n
CS4 H6 1_555 3.951(10) n
CS4 H6 1_565 3.243(10) n
CS4 H6 -1_756 3.772(11) n
CS4 H6 102_655 3.343(12) n
C5 O1 1_655 3.837(4) n
C5 O1 -1_646 3.909(5) n
C5 O1 101_555 3.796(6) n
C5 O2 1_555 1.269(5) n
C5 O2 -101_536 2.433(5) n
C5 O3 1_555 1.254(6) n
C5 O3 -101_536 2.422(6) n
C5 CS4 1_545 3.629(7) n
C5 CS4 1_555 3.736(6) n
C5 CS4 -1_756 3.754(5) n
C5 CS4 101_445 3.762(6) n
C5 CS4 102_645 3.473(5) n
C5 CS4 -101_536 3.731(5) n
C5 C5 -101_536 1.572(6) n
C5 H6 1_555 2.951(9) n
H6 O1 1_655 0.980(9) n
H6 O2 1_555 1.853(9) n
H6 O2 2_755 3.419(9) n
H6 O3 1_555 3.440(9) n
H6 O3 101_555 3.500(10) n
H6 O3 102_655 3.565(10) n
H6 CS4 1_545 3.243(10) n
H6 CS4 1_555 3.951(10) n
H6 CS4 -1_756 3.772(11) n
H6 CS4 102_645 3.343(12) n
H6 C5 1_555 2.951(9) n
H6 H6 2_755 1.617(16) n
loop_
_refln_index_h
_refln_index_k
_refln_index_l
1 1 0
0 0 2
1 1 -1
2 0 0
1 1 1
2 0 -2
1 1 -2
1 1 2
0 2 0
1 1 -3
0 2 1
2 0 2
3 1 -1
3 1 0
3 1 -2
0 2 2
1 1 3
2 2 -1
2 2 0
2 0 -4
0 0 4
3 1 1
2 2 -2
3 1 -3
1 1 -4
2 2 1
4 0 -2
0 2 3
4 0 0
2 2 -3
3 1 2
3 1 -4
2 2 2
1 1 4
1 3 0
1 3 -1
4 0 -4
1 1 -5
2 2 -4
2 0 4
0 2 4
1 3 1
1 3 -2
2 2 3
3 1 3
4 2 -1
3 1 -5
4 2 -2
4 0 2
1 3 2
4 2 0
5 1 -2
5 1 -1
4 2 -3
1 3 -3
1 1 5
5 1 -3
2 0 -6
2 2 -5
5 1 0
3 3 -1
4 2 1
3 3 0
3 3 -2
0 2 5
1 1 -6
0 0 6
1 3 3
4 2 -4
5 1 -4
2 2 4
3 1 4
3 1 -6
3 3 1
3 3 -3
5 1 1
1 3 -4
4 2 2
4 0 -6
6 0 -2
0 4 0
4 2 -5
5 1 -5
3 3 2
3 3 -4
0 4 1
2 2 -6
1 3 4
1 1 6
5 1 2
6 0 0
6 0 -4
0 4 2
0 2 6
4 0 4
1 3 -5
2 4 -1
2 2 5
2 4 0
4 2 3
1 1 -7
2 4 -2
3 1 5
2 0 6
3 1 -7
2 4 1
3 3 3
5 1 -6
3 3 -5
4 2 -6
0 4 3
6 2 -2
2 4 -3
5 3 -2
6 2 -1
6 2 -3
5 3 -1
5 1 3
1 3 5
2 4 2
5 3 -3
5 3 0
2 2 -7
6 2 0
6 2 -4
1 3 -6
6 0 2
4 2 4
6 0 -6
1 1 7
5 3 -4
2 4 -4
0 4 4
2 0 -8
7 1 -2
3 3 4
3 3 -6
7 1 -3
5 3 1
2 2 6
0 2 7
5 1 -7
2 4 3
7 1 -1
6 2 1
4 4 -1
6 2 -5
4 4 -2
4 2 -7
7 1 -4
3 1 6
3 1 -8
4 4 0
1 1 -8
4 0 -8
5 1 4
4 4 -3
5 3 -5
0 0 8
7 1 0
1 3 6
2 4 -5
5 3 2
7 1 -5
4 4 1
0 4 5
1 5 0
6 2 2
1 5 -1
4 4 -4
6 2 -6
2 4 4
4 2 5
2 2 -8
1 5 1
1 3 -7
7 1 1
3 3 5
1 5 -2
3 3 -7
5 3 -6
5 1 -8
4 4 2
4 0 6
7 1 -6
1 5 2
1 1 8
4 2 -8
8 0 -2
2 2 7
5 3 3
4 4 -5
1 5 -3
0 2 8
8 0 -4
2 4 -6
5 1 5
3 5 -1
6 2 3
3 1 7
6 2 -7
6 0 4
3 1 -9
7 1 2
6 0 -8
3 5 0
3 5 -2
0 4 6
1 5 3
1 3 7
1 1 -9
2 4 5
4 4 3
2 0 8
7 3 -2
8 0 0
7 3 -3
3 5 1
3 5 -3
7 1 -7
1 5 -4
5 3 -7
7 3 -1
4 4 -6
4 2 6
7 3 -4
3 3 6
3 3 -8
6 4 -2
1 3 -8
8 2 -3
8 2 -2
5 3 4
6 4 -1
8 0 -6
6 4 -3
2 2 -9
5 1 -9
7 3 0
3 5 2
3 5 -4
8 2 -4
1 5 4
8 2 -1
7 1 3
2 4 -7
7 3 -5
6 4 0
6 4 -4
6 2 4
4 2 -9
6 2 -8
4 4 4
1 5 -5
8 2 -5
5 1 6
2 2 8
8 2 0
1 1 9
7 3 1
7 1 -8
2 4 6
0 4 7
0 2 9
2 0 -10
3 5 3
6 4 1
3 5 -5
6 4 -5
5 3 -8
4 4 -7
7 3 -6
4 0 -10
3 1 8
3 1 -10
1 3 8
5 5 -2
8 0 2
8 2 -6
5 5 -1
0 6 0
9 1 -3
1 5 5
0 6 1
9 1 -2
9 1 -4
5 5 -3
5 3 5
8 2 1
1 1 -10
5 5 0
3 3 7
4 2 7
3 3 -9
7 3 2
7 1 4
0 6 2
9 1 -1
1 5 -6
6 4 2
9 1 -5
6 4 -6
2 6 -1
0 0 10
1 3 -9
2 6 0
5 5 -4
6 2 5
4 4 5
2 4 -8
5 1 -10
6 2 -9
3 5 4
3 5 -6
2 6 -2
5 5 1
7 3 -7
8 0 -8
2 2 -10
2 6 1
8 2 -7
7 1 -9
4 2 -10
0 6 3
9 1 0
9 1 -6
6 0 6
4 4 -8
2 6 -3
4 0 8
6 0 -10
8 2 2
2 4 7
5 5 -5
5 1 7
0 4 8
5 3 -9
2 6 2
1 5 6
5 5 2
7 3 3
6 4 3
2 2 9
6 4 -7
1 1 10
0 2 10
2 6 -4
5 3 6
9 1 1
0 6 4
9 1 -7
1 5 -7
1 3 9
7 3 -8
7 1 5
3 5 5
8 2 -8
3 5 -7
3 1 9
3 1 -11
2 6 3
5 5 -6
4 6 -1
4 6 -2
4 4 6
10 0 -4
3 3 8
3 3 -10
4 6 0
6 2 6
8 4 -3
8 2 3
4 2 8
8 4 -2
6 2 -10
10 0 -2
4 6 -3
5 5 3
2 4 -9
9 3 -3
8 4 -4
8 0 4
9 3 -2
9 3 -4
1 1 -11
7 1 -10
2 0 10
8 4 -1
1 3 -10
5 1 -11
2 6 -5
4 6 1
6 4 4
4 4 -9
6 4 -8
7 3 4
9 1 2
0 6 5
9 3 -1
9 1 -8
9 3 -5
4 6 -4
1 5 7
8 4 -5
2 6 4
10 0 -6
2 4 8
2 2 -11
5 3 -10
7 5 -2
4 2 -11
8 4 0
7 5 -3
5 5 -7
0 4 9
7 5 -1
8 2 -9
5 1 8
7 3 -9
4 6 2
7 5 -4
10 2 -3
3 5 6
9 3 0
10 0 0
3 5 -8
10 2 -4
9 3 -6
1 5 -8
5 5 4
10 2 -2
8 4 -6
4 6 -5
8 0 -10
5 3 7
7 5 0
10 2 -5
7 1 6
8 2 4
2 6 -6
2 2 10
8 4 1
7 5 -5
4 4 7
1 7 0
10 2 -1
9 1 3
1 7 -1
0 6 6
0 2 11
9 1 -9
1 3 10
2 6 5
1 1 11
4 6 3
10 2 -6
4 0 -12
6 4 5
9 3 1
1 7 1
6 2 7
9 3 -7
6 4 -9
6 2 -11
2 0 -12
7 5 1
7 3 5
1 7 -2
3 1 10
3 3 9
2 4 -10
3 1 -12
7 1 -11
3 3 -11
8 4 -7
5 5 -8
4 6 -6
4 2 9
7 5 -6
4 4 -10
10 2 0
1 7 2
6 6 -2
10 0 -8
1 5 8
8 4 2
6 6 -1
6 6 -3
1 7 -3
8 2 -10
5 1 -12
10 2 -7
1 3 -11
7 3 -10
5 5 5
5 3 -11
3 7 -1
2 6 -7
1 1 -12
2 4 9
3 5 7
6 6 0
6 6 -4
3 5 -9
7 5 2
3 7 0
3 7 -2
6 0 8
11 1 -4
9 3 2
6 0 -12
11 1 -3
9 3 -8
1 7 3
4 6 4
0 4 10
8 2 5
1 5 -9
10 0 2
4 2 -12
11 1 -5
10 2 1
2 2 -12
11 1 -2
3 7 1
3 7 -3
0 0 12
9 1 4
7 5 -7
2 6 6
1 7 -4
0 6 7
8 4 -8
9 1 -10
5 1 9
6 6 1
6 6 -5
7 1 7
5 3 8
4 6 -7
4 0 10
11 1 -6
10 2 -8
6 4 6
8 4 3
4 4 8
6 4 -10
8 0 6
11 1 -1
5 5 -9
3 7 2
3 7 -4
7 3 6
1 7 4
7 5 3
2 2 11
6 2 8
6 2 -12
9 3 3
6 6 2
11 1 -7
7 1 -12
6 6 -6
1 7 -5
9 3 -9
10 2 2
5 5 6
1 3 11
4 6 5
8 2 -11
2 6 -8
2 4 -11
4 4 -11
1 5 9
11 1 0
7 5 -8
0 2 12
3 3 10
3 3 -12
7 3 -11
3 7 3
1 1 12
8 4 -9
3 7 -5
3 1 11
10 4 -3
3 1 -13
4 2 10
10 4 -4
3 5 8
10 2 -9
3 5 -10
4 6 -8
5 7 -2
2 6 7
10 4 -2
5 7 -1
8 2 6
9 5 -3
9 1 5
1 7 5
0 6 8
10 0 -10
5 3 -12
10 4 -5
9 1 -11
8 4 4
9 5 -2
9 5 -4
5 1 -13
5 7 -3
11 1 -8
2 4 10
8 0 -12
1 5 -10
5 7 0
1 3 -12
6 6 3
6 6 -7
7 5 4
10 4 -1
11 3 -4
11 1 1
11 3 -3
9 5 -1
1 7 -6
9 5 -5
0 4 11
5 7 -4
10 4 -6
11 3 -5
6 4 7
1 1 -13
5 5 -10
6 4 -11
3 7 4
12 0 -4
10 2 3
2 0 12
3 7 -6
11 3 -2
7 1 8
4 2 -13
9 3 4
5 7 1
9 3 -10
5 3 9
7 3 7
7 5 -9
5 1 10
4 6 6
4 4 9
2 2 -13
9 5 0
10 4 0
11 3 -6
10 0 4
9 5 -6
8 6 -3
0 8 0
11 3 -1
12 0 -2
2 6 -9
5 7 -5
8 6 -2
12 0 -6
8 4 -10
5 5 7
10 2 -10
11 1 -9
0 8 1
8 6 -4
10 4 -7
1 7 6
8 6 -1
8 2 -12
5 7 2
6 6 4
4 6 -9
6 2 9
6 6 -8
7 1 -13
11 1 2
6 2 -13
0 8 2
11 3 -7
7 3 -12
2 8 -1
1 5 10
8 6 -5
8 4 5
2 8 0
4 4 -12
9 5 1
2 6 8
9 5 -7
1 7 -7
10 4 1
12 2 -4
2 4 -12
8 6 0
2 2 12
11 3 0
2 8 -2
7 5 5
3 7 5
3 7 -7
9 1 6
0 6 9
3 5 9
12 2 -3
12 2 -5
3 5 -11
2 8 1
9 1 -12
8 2 7
1 3 12
5 7 -6
3 3 11
0 8 3
3 3 -13
10 2 4
10 4 -8
4 0 -14
2 8 -3
12 2 -2
12 2 -6
0 2 13
8 6 -6
5 7 3
9 3 5
12 0 0
4 2 11
9 3 -11
2 8 2
12 0 -8
1 5 -11
5 3 -13
7 5 -10
11 3 -8
1 1 13
11 1 -10
3 1 12
8 6 1
5 5 -11
3 1 -14
2 0 -14
4 6 7
2 4 11
6 4 8
9 5 2
5 1 -14
6 4 -12
11 3 1
9 5 -8
10 2 -11
12 2 -1
1 7 7
12 2 -7
6 0 10
2 8 -4
10 4 2
6 6 5
0 8 4
11 1 3
8 4 -11
1 3 -13
6 0 -14
6 6 -9
7 7 -2
7 7 -3
0 4 12
7 3 8
8 0 8
5 7 -7
7 1 9
2 6 -10
2 8 3
8 6 -7
7 7 -1
4 8 -1
5 5 8
4 8 -2
3 7 6
4 6 -10
5 3 10
4 4 10
3 7 -8
7 7 -4
10 4 -9
4 8 0
1 7 -8
4 2 -14
10 0 -12
8 6 2
5 7 4
8 4 6
4 8 -3
1 1 -14
8 2 -13
11 3 -9
7 7 0
12 2 0
7 5 6
5 1 11
12 2 -8
2 8 -5
7 7 -5
4 8 1
2 2 -14
2 6 9
7 3 -13
10 2 5
11 3 2
9 1 7
9 5 -9
0 6 10
7 1 -14
11 1 -11
6 2 10
2 8 4
1 5 11
9 1 -13
4 0 12
0 0 14
6 2 -14
13 1 -4
13 1 -5
10 4 3
7 7 1
4 4 -13
8 6 -8
9 3 6
8 2 8
3 5 10
3 5 -12
7 5 -11
13 1 -3
9 3 -12
5 7 -8
4 8 2
13 1 -6
2 4 -13
7 7 -6
4 6 8
12 0 2
10 2 -12
6 6 -10
12 2 -9
4 8 -5
10 0 6
12 0 -10
13 1 -2
10 4 -10
2 8 -6
5 5 -12
2 2 13
5 7 5
1 3 13
8 0 -14
11 3 -10
3 3 12
8 4 -12
3 3 -14
13 1 -7
1 5 -12
3 7 7
3 7 -9
6 4 9
7 7 2
11 5 -4
5 3 -14
6 4 -13
11 5 -3
0 8 6
1 7 -9
2 8 5
4 8 3
11 3 3
4 2 12
11 5 -5
0 2 14
2 6 -11
13 1 -1
4 6 -11
12 4 -4
2 4 12
11 5 -2
9 5 4
7 7 -7
7 3 9
12 4 -3
9 5 -10
12 4 -5
5 5 9
8 4 7
3 1 13
8 6 -9
7 5 7
3 1 -15
1 1 14
5 1 -15
4 8 -6
10 6 -3
13 1 -8
10 6 -4
11 5 -6
10 4 4
7 1 10
6 8 -2
11 1 -12
12 4 -2
12 2 2
12 4 -6
0 4 13
10 6 -2
6 8 -1
6 8 -3
11 5 -1
10 2 6
12 2 -10
1 3 -14
4 4 11
10 6 -5
5 3 11
8 6 4
8 2 -14
5 7 -9
2 6 10
7 7 3
2 8 -7
6 8 0
6 8 -4
13 1 0
10 6 -1
1 9 0
1 9 -1
11 1 5
9 1 8
11 5 -7
4 8 4
10 4 -11
4 2 -15
7 5 -12
12 4 -1
9 3 7
0 6 11
12 4 -7
7 3 -14
11 3 -11
5 7 6
9 1 -14
10 6 -6
9 3 -13
1 9 1
6 6 7
13 3 -4
6 6 -11
5 1 12
13 3 -5
1 7 9
11 5 0
7 7 -8
1 9 -2
13 1 -9
2 8 6
0 8 7
10 2 -13
13 3 -3
1 1 -15
1 5 12
6 8 1
8 2 9
6 8 -5
2 0 14
7 1 -15
4 8 -7
6 2 11
3 5 -13
10 6 0
4 6 9
13 3 -6
11 3 4
2 2 -15
3 7 8
1 9 2
3 5 11
3 7 -10
6 2 -15
4 4 -14
9 7 -3
1 9 -3
9 5 5
8 6 -10
13 3 -2
