#------------------------------------------------------------------------------
#$Date: 2016-02-20 02:53:41 +0200 (Sat, 20 Feb 2016) $
#$Revision: 176768 $
#$URL: svn://www.crystallography.net/cod/cif/2/10/26/2102612.cif $
#------------------------------------------------------------------------------
#
# This file is available in the Crystallography Open Database (COD),
# http://www.crystallography.net/. The original data for this entry
# were provided by IUCr Journals, http://journals.iucr.org/.
#
# The file may be used within the scientific community so long as
# proper attribution is given to the journal article from which the
# data were obtained.
#
data_2102612
loop_
_publ_author_name
'Harada, Jun'
'Harakawa, Mayuko'
'Ogawa, Keiichiro'
_publ_section_title
;
 Conformational change of <i>N</i>-benzylideneanilines in crystals
;
_journal_issue                   5
_journal_name_full               'Acta Crystallographica Section B'
_journal_page_first              589
_journal_page_last               597
_journal_paper_doi               10.1107/S0108768104016623
_journal_volume                  60
_journal_year                    2004
_chemical_formula_sum            'C15 H15 N'
_chemical_formula_weight         209.28
_chemical_melting_point          362.55
_chemical_name_systematic
;
N-(4-methylbenzylidene)-4-methylaniline
;
_space_group_IT_number           14
_symmetry_cell_setting           monoclinic
_symmetry_space_group_name_Hall  '-P 2ybc'
_symmetry_space_group_name_H-M   'P 1 21/c 1'
_atom_sites_solution_hydrogens   geom
_atom_sites_solution_primary     direct
_audit_creation_method           SHELXL-97
_cell_angle_alpha                90.00
_cell_angle_beta                 90.4890(10)
_cell_angle_gamma                90.00
_cell_formula_units_Z            2
_cell_length_a                   9.8785(7)
_cell_length_b                   4.8853(3)
_cell_length_c                   12.0209(8)
_cell_measurement_reflns_used    2644
_cell_measurement_temperature    300
_cell_measurement_theta_max      29.8
_cell_measurement_theta_min      3.4
_cell_volume                     580.10(7)
_computing_cell_refinement       'SAINT (Bruker, 1998)'
_computing_data_collection       'SMART (Bruker, 1998)'
_computing_data_reduction        SAINT
_computing_molecular_graphics    'SHELXTL (Bruker, 2000)'
_computing_publication_material  SHELXTL
_computing_structure_refinement  'SHELXL-97 (Sheldrick, 1997)'
_computing_structure_solution    'SHELXS-97 (Sheldrick, 1990)'
_diffrn_ambient_temperature      300
_diffrn_detector_area_resol_mean 8.192
_diffrn_measured_fraction_theta_full 0.999
_diffrn_measured_fraction_theta_max 0.999
_diffrn_measurement_device_type  'Bruker SMART 1000 CCD diffractometer'
_diffrn_measurement_method       \w_scan
_diffrn_radiation_monochromator  graphite
_diffrn_radiation_source         'fine-focus sealed tube'
_diffrn_radiation_type           MoK\a
_diffrn_radiation_wavelength     0.71073
_diffrn_reflns_av_R_equivalents  0.0274
_diffrn_reflns_av_sigmaI/netI    0.0185
_diffrn_reflns_limit_h_max       13
_diffrn_reflns_limit_h_min       -13
_diffrn_reflns_limit_k_max       6
_diffrn_reflns_limit_k_min       -6
_diffrn_reflns_limit_l_max       16
_diffrn_reflns_limit_l_min       -16
_diffrn_reflns_number            8524
_diffrn_reflns_theta_full        30.02
_diffrn_reflns_theta_max         30.02
_diffrn_reflns_theta_min         2.06
_diffrn_standards_decay_%        1
_exptl_absorpt_coefficient_mu    0.069
_exptl_absorpt_correction_T_max  0.9945
_exptl_absorpt_correction_T_min  0.9727
_exptl_absorpt_correction_type   multi-scan
_exptl_absorpt_process_details   'SADABS (Sheldrick, 2002)'
_exptl_crystal_colour            colourless
_exptl_crystal_density_diffrn    1.198
_exptl_crystal_density_method    'not measured'
_exptl_crystal_description       plate
_exptl_crystal_F_000             224
_exptl_crystal_size_max          0.40
_exptl_crystal_size_mid          0.30
_exptl_crystal_size_min          0.08
_refine_diff_density_max         0.222
_refine_diff_density_min         -0.229
_refine_ls_extinction_coef       0.37(3)
_refine_ls_extinction_expression Fc^*^=kFc[1+0.001xFc^2^\l^3^/sin(2\q)]^-1/4^
_refine_ls_extinction_method     SHELXL
_refine_ls_goodness_of_fit_ref   1.065
_refine_ls_hydrogen_treatment    constr
_refine_ls_matrix_type           full
_refine_ls_number_parameters     89
_refine_ls_number_reflns         1691
_refine_ls_number_restraints     0
_refine_ls_restrained_S_all      1.065
_refine_ls_R_factor_all          0.0685
_refine_ls_R_factor_gt           0.0535
_refine_ls_shift/su_max          0.000
_refine_ls_shift/su_mean         0.000
_refine_ls_structure_factor_coef Fsqd
_refine_ls_weighting_details
'calc w=1/[\s^2^(Fo^2^)+(0.0699P)^2^+0.1095P] where P=(Fo^2^+2Fc^2^)/3'
_refine_ls_weighting_scheme      calc
_refine_ls_wR_factor_gt          0.1450
_refine_ls_wR_factor_ref         0.1584
_reflns_number_gt                1299
_reflns_number_total             1691
_reflns_threshold_expression     >2sigma(I)
_cod_data_source_file            bk5008.cif
_cod_depositor_comments
;
The following automatic conversions were performed:

'_chemical_melting_point' value '89.4_C' was changed to '362.55' - it
was converted from degrees Celsius(C) to Kelvins(K).

Automatic conversion script
Id: cif_fix_values 1646 2011-03-28 12:23:43Z adriana 
;
_cod_original_sg_symbol_H-M      P_1_21/c_1
_cod_database_code               2102612
loop_
_symmetry_equiv_pos_as_xyz
'x, y, z'
'-x, y+1/2, -z+1/2'
'-x, -y, -z'
'x, -y-1/2, z-1/2'
loop_
_atom_site_label
_atom_site_fract_x
_atom_site_fract_y
_atom_site_fract_z
_atom_site_U_iso_or_equiv
_atom_site_adp_type
_atom_site_calc_flag
_atom_site_refinement_flags
_atom_site_occupancy
_atom_site_disorder_assembly
_atom_site_disorder_group
_atom_site_type_symbol
N1A 0.45652(19) 0.5681(4) 0.52730(17) 0.0479(5) Uani d P 0.29 . 3 N
C1A 0.36918(18) 0.7684(4) 0.47549(19) 0.0380(4) Uani d P 0.59 A 1 C
C2A 0.2710(2) 0.8901(5) 0.54178(19) 0.0469(5) Uani d P 0.59 A 1 C
H2A 0.2648 0.8422 0.6164 0.056 Uiso calc PR 0.59 A 1 H
C3A 0.1821(3) 1.0826(6) 0.4972(3) 0.0507(6) Uani d P 0.59 A 1 C
H3A 0.1170 1.1600 0.5430 0.061 Uiso calc PR 0.59 A 1 H
C4A 0.1873(3) 1.1623(6) 0.3873(3) 0.0394(5) Uani d P 0.59 A 1 C
C5A 0.2873(4) 1.0451(7) 0.3235(2) 0.0512(6) Uani d P 0.59 A 1 C
H5A 0.2950 1.0978 0.2494 0.061 Uiso calc PR 0.59 A 1 H
C6A 0.3772(2) 0.8507(5) 0.3658(2) 0.0485(6) Uani d P 0.59 A 1 C
H6A 0.4429 0.7759 0.3200 0.058 Uiso calc PR 0.59 A 1 H
C7A 0.45652(19) 0.5681(4) 0.52730(17) 0.0479(5) Uani d P 0.29 . 1 C
H7A 0.4491 0.5374 0.6033 0.057 Uiso calc PR 0.29 . 1 H
C8A 0.0875(7) 1.3742(13) 0.3464(6) 0.0642(9) Uani d P 0.59 A 1 C
H81A 0.1295 1.5514 0.3475 0.096 Uiso calc PR 0.59 A 1 H
H82A 0.0099 1.3755 0.3940 0.096 Uiso calc PR 0.59 A 1 H
H83A 0.0596 1.3306 0.2718 0.096 Uiso calc PR 0.59 A 1 H
N1B 0.4949(3) 0.5581(6) 0.4528(2) 0.0449(4) Uiso d P 0.21 . 4 N
C1B 0.3901(3) 0.7635(5) 0.4344(2) 0.0449(4) Uiso d PG 0.41 B 2 C
C2B 0.3009(3) 0.8502(6) 0.51600(19) 0.0449(4) Uiso d PG 0.41 B 2 C
H2B 0.3066 0.7771 0.5873 0.054 Uiso calc PR 0.41 B 2 H
C3B 0.2033(4) 1.0462(8) 0.4910(3) 0.0449(4) Uiso d PG 0.41 B 2 C
H3B 0.1437 1.1042 0.5456 0.054 Uiso calc PR 0.41 B 2 H
C4B 0.1948(4) 1.1554(9) 0.3844(3) 0.0449(4) Uiso d PG 0.41 B 2 C
C5B 0.2840(4) 1.0686(9) 0.3028(2) 0.0449(4) Uiso d PG 0.41 B 2 C
H5B 0.2783 1.1417 0.2315 0.054 Uiso calc PR 0.41 B 2 H
C6B 0.3816(3) 0.8727(7) 0.3278(2) 0.0449(4) Uiso d PG 0.41 B 2 C
H6B 0.4412 0.8146 0.2732 0.054 Uiso calc PR 0.41 B 2 H
C7B 0.4949(3) 0.5581(6) 0.4528(2) 0.0449(4) Uiso d P 0.21 . 2 C
H7B 0.5540 0.5124 0.3959 0.054 Uiso calc PR 0.21 . 2 H
C8B 0.0929(9) 1.3651(18) 0.3467(6) 0.0449(4) Uiso d P 0.41 B 2 C
H81B 0.0048 1.2827 0.3430 0.067 Uiso calc PR 0.41 B 2 H
H82B 0.1171 1.4320 0.2745 0.067 Uiso calc PR 0.41 B 2 H
H83B 0.0918 1.5144 0.3986 0.067 Uiso calc PR 0.41 B 2 H
loop_
_atom_site_aniso_label
_atom_site_aniso_U_11
_atom_site_aniso_U_22
_atom_site_aniso_U_33
_atom_site_aniso_U_12
_atom_site_aniso_U_13
_atom_site_aniso_U_23
N1A 0.0441(9) 0.0378(9) 0.0616(12) 0.0078(8) -0.0092(8) 0.0060(8)
C1A 0.0312(8) 0.0318(8) 0.0509(10) 0.0015(6) -0.0037(7) -0.0018(8)
C2A 0.0450(11) 0.0475(11) 0.0482(11) 0.0148(9) 0.0027(8) 0.0022(9)
C3A 0.0456(13) 0.0468(13) 0.0597(13) 0.0190(9) 0.0002(9) 0.0009(10)
C4A 0.0340(9) 0.0242(8) 0.0600(12) -0.0016(6) -0.0129(8) -0.0028(7)
C5A 0.0595(13) 0.0490(13) 0.0452(13) 0.0041(10) -0.0006(11) 0.0072(10)
C6A 0.0453(10) 0.0516(12) 0.0488(12) 0.0119(9) 0.0086(9) -0.0019(11)
C7A 0.0441(9) 0.0378(9) 0.0616(12) 0.0078(8) -0.0092(8) 0.0060(8)
C8A 0.0553(15) 0.0365(11) 0.100(2) 0.0130(10) -0.0282(13) 0.0022(12)
loop_
_atom_type_symbol
_atom_type_description
_atom_type_scat_dispersion_real
_atom_type_scat_dispersion_imag
_atom_type_scat_source
C C 0.0033 0.0016 'International Tables Vol C Tables 4.2.6.8 and 6.1.1.4'
H H 0.0000 0.0000 'International Tables Vol C Tables 4.2.6.8 and 6.1.1.4'
N N 0.0061 0.0033 'International Tables Vol C Tables 4.2.6.8 and 6.1.1.4'
loop_
_geom_angle_atom_site_label_1
_geom_angle_atom_site_label_2
_geom_angle_atom_site_label_3
_geom_angle
C6A C1A C2A 117.85(17)
C3A C2A C1A 120.55(19)
C4A C3A C2A 122.12(19)
C3A C4A C5A 116.61(18)
C3A C4A C8A 118.4(3)
C5A C4A C8A 124.9(4)
C4A C5A C6A 122.43(19)
C1A C6A C5A 120.40(18)
C2B C1B C6B 120.0
C1B C2B C3B 120.0
C2B C3B C4B 120.0
C5B C4B C3B 120.0
C5B C4B C8B 114.9(3)
C3B C4B C8B 125.0(3)
C6B C5B C4B 120.0
C5B C6B C1B 120.0
loop_
_geom_bond_atom_site_label_1
_geom_bond_atom_site_label_2
_geom_bond_site_symmetry_2
_geom_bond_distance
N1A N1A 3_666 1.273(4)
C1A C6A . 1.381(3)
C1A C2A . 1.394(3)
C2A C3A . 1.391(3)
C3A C4A . 1.379(3)
C4A C5A . 1.381(3)
C4A C8A . 1.509(6)
C5A C6A . 1.393(3)
N1B N1B 3_666 1.272(5)
C1B C2B . 1.3900
C1B C6B . 1.3900
C2B C3B . 1.3900
C3B C4B . 1.3900
C4B C5B . 1.3900
C4B C8B . 1.503(9)
C5B C6B . 1.3900
loop_
_geom_torsion_atom_site_label_1
_geom_torsion_atom_site_label_2
_geom_torsion_atom_site_label_3
_geom_torsion_atom_site_label_4
_geom_torsion
C6A C1A C2A C3A 1.7(3)
C1A C2A C3A C4A -0.4(3)
C2A C3A C4A C5A -1.2(3)
C2A C3A C4A C8A -179.5(4)
C3A C4A C5A C6A 1.5(3)
C8A C4A C5A C6A 179.7(5)
C2A C1A C6A C5A -1.3(3)
C4A C5A C6A C1A -0.3(4)
C6B C1B C2B C3B 0.0
C1B C2B C3B C4B 0.0
C2B C3B C4B C5B 0.0
C2B C3B C4B C8B 179.2(6)
C3B C4B C5B C6B 0.0
C8B C4B C5B C6B -179.2(6)
C4B C5B C6B C1B 0.0
C2B C1B C6B C5B 0.0
