#------------------------------------------------------------------------------
#$Date: 2016-02-20 02:53:41 +0200 (Sat, 20 Feb 2016) $
#$Revision: 176768 $
#$URL: svn://www.crystallography.net/cod/cif/2/10/27/2102784.cif $
#------------------------------------------------------------------------------
#
# This file is available in the Crystallography Open Database (COD),
# http://www.crystallography.net/. The original data for this entry
# were provided by IUCr Journals, http://journals.iucr.org/.
#
# The file may be used within the scientific community so long as
# proper attribution is given to the journal article from which the
# data were obtained.
#
data_2102784
loop_
_publ_author_name
'Parkin, Andrew'
'Adam, Martin'
'Cooper, Richard I.'
'Middlemiss, Derek S.'
'Wilson, Chick C.'
_publ_section_title
;
 Structure and hydrogen bonding in 2,4-dihydroxybenzoic acid at 90,
 100, 110 and 150K; a theoretical and single-crystal X-ray diffraction
 study
;
_journal_coeditor_code           BS5037
_journal_issue                   2
_journal_name_full               'Acta Crystallographica Section B'
_journal_page_first              303
_journal_page_last               308
_journal_paper_doi               10.1107/S0108768106055212
_journal_volume                  63
_journal_year                    2007
_chemical_formula_moiety         'C7 H6 O4'
_chemical_formula_sum            'C7 H6 O4'
_chemical_formula_weight         154.12
_chemical_name_systematic        '2,4-dihydroxybenzoic acid'
_space_group_IT_number           14
_symmetry_cell_setting           monoclinic
_symmetry_space_group_name_Hall  '-P 2yn'
_symmetry_space_group_name_H-M   'P 1 21/n 1'
_atom_sites_solution_hydrogens   geom
_atom_sites_solution_primary     direct
_audit_creation_method           CRYSTALS_ver_12.24
_cell_angle_alpha                90
_cell_angle_beta                 99.567(3)
_cell_angle_gamma                90
_cell_formula_units_Z            4
_cell_length_a                   3.6742(5)
_cell_length_b                   22.341(3)
_cell_length_c                   8.0065(10)
_cell_measurement_reflns_used    13719
_cell_measurement_temperature    110
_cell_measurement_theta_max      33
_cell_measurement_theta_min      0
_cell_volume                     648.08(15)
_computing_cell_refinement       'Denzo/Scalepack (Otwinowski & Minor, 1996)'
_computing_data_collection       'COLLECT (Nonius BV, 1997)'
_computing_data_reduction        'Denzo/Scalepack (Otwinowski & Minor, 1996)'
_computing_molecular_graphics    'CAMERON (Watkin et al 1996)'
_computing_publication_material  'CRYSTALS (Betteridge et al 2003)'
_computing_structure_refinement  'CRYSTALS (Betteridge et al 2003)'
_computing_structure_solution    'SIR92 (Altomare et al, 1994)'
_diffrn_ambient_temperature      110
_diffrn_measured_fraction_theta_full 0.994
_diffrn_measured_fraction_theta_max 0.794
_diffrn_measurement_device_type  'Nonius Kappa CCD'
_diffrn_measurement_method       '\f & \w scans'
_diffrn_radiation_monochromator  graphite
_diffrn_radiation_type           'Mo K\a'
_diffrn_radiation_wavelength     0.71073
_diffrn_reflns_av_R_equivalents  0.036
_diffrn_reflns_limit_h_max       5
_diffrn_reflns_limit_h_min       -5
_diffrn_reflns_limit_k_max       25
_diffrn_reflns_limit_k_min       -28
_diffrn_reflns_limit_l_max       11
_diffrn_reflns_limit_l_min       -12
_diffrn_reflns_number            7722
_diffrn_reflns_theta_full        24.818
_diffrn_reflns_theta_max         33.090
_diffrn_reflns_theta_min         1.823
_diffrn_standards_number         0
_exptl_absorpt_coefficient_mu    0.132
_exptl_absorpt_correction_T_max  0.99
_exptl_absorpt_correction_T_min  0.96
_exptl_absorpt_correction_type   multi-scan
_exptl_absorpt_process_details   'SORTAV (Blessing)'
_exptl_crystal_colour            colourless
_exptl_crystal_density_diffrn    1.580
_exptl_crystal_description       plate
_exptl_crystal_F_000             320
_exptl_crystal_size_max          0.80
_exptl_crystal_size_mid          0.30
_exptl_crystal_size_min          0.08
_refine_diff_density_max         0.82
_refine_diff_density_min         -0.76
_refine_ls_extinction_method     None
_refine_ls_goodness_of_fit_ref   0.9458
_refine_ls_hydrogen_treatment    mixed
_refine_ls_matrix_type           full
_refine_ls_number_parameters     106
_refine_ls_number_reflns         1963
_refine_ls_number_restraints     0
_refine_ls_R_factor_all          0.1044
_refine_ls_R_factor_gt           0.0508
_refine_ls_shift/su_max          0.000141
_refine_ls_structure_factor_coef Fsqd
_refine_ls_weighting_details
;
 p=P(6)*max(Fo^2^,0) + (1-P(6))Fc^2^
 Method = SHELXL 97 (Sheldrick, 1997)
 W = 1. / [Sigma^2^(F*)+(P(1)p)^2^+P(2)p+P(4)+P(5)Sin(theta) ]
 P(i) are:
 0.384E-01 0.159 0.00 0.00 0.00 0.333
;
_refine_ls_weighting_scheme      calc
_refine_ls_wR_factor_all         0.1226
_refine_ls_wR_factor_gt          0.1046
_refine_ls_wR_factor_ref         0.1226
_reflns_number_gt                1139
_reflns_number_total             1963
_reflns_threshold_expression     I>2.00s(I)
_cod_data_source_file            bs5037.cif
_cod_data_source_block           110k
_cod_depositor_comments
;
The following automatic conversions were performed:
'_symmetry_cell_setting' value 'Monoclinic' changed to 'monoclinic'
according to '/home/saulius/struct/CIF-dictionaries/cif_core.dic'
dictionary named 'cif_core.dic' version 2.4.1 from 2010-06-29.

Automatic conversion script
Id: cif_fix_enum 1527 2010-12-29 10:47:43Z saulius 

The following automatic conversions were performed:

'_symmetry_cell_setting' value 'Monoclinic' changed to 'monoclinic'
according to /home/saulius/struct/CIF-dictionaries/cif_core.dic
dictionary named 'cif_core.dic' version 2.4.1 from 2010-06-29.

Automatic conversion script
Id: cif_fix_values 1715 2011-07-08 13:25:40Z adriana 
;
_cod_original_sg_symbol_H-M      'P 1 21/n 1 '
_cod_database_code               2102784
_cod_database_fobs_code          2102784
loop_
_symmetry_equiv_pos_as_xyz
x,y,z
-x,-y,-z
-x+1/2,y+1/2,-z+1/2
x+1/2,-y+1/2,z+1/2
loop_
_atom_site_type_symbol
_atom_site_label
_atom_site_fract_x
_atom_site_fract_y
_atom_site_fract_z
_atom_site_U_iso_or_equiv
_atom_site_adp_type
_atom_site_occupancy
C C1 0.3011(5) 0.09402(8) 0.7174(2) 0.0153 Uani 1.0000
C C2 0.3933(5) 0.15417(8) 0.7592(2) 0.0150 Uani 1.0000
O O2 0.3785(4) 0.17743(6) 0.91569(17) 0.0209 Uani 1.0000
C C3 0.4999(5) 0.19273(8) 0.6393(2) 0.0164 Uani 1.0000
C C4 0.5163(5) 0.17131(8) 0.4777(2) 0.0161 Uani 1.0000
O O4 0.6170(4) 0.20646(6) 0.35488(18) 0.0208 Uani 1.0000
C C5 0.4249(5) 0.11185(8) 0.4331(2) 0.0172 Uani 1.0000
C C6 0.3195(5) 0.07439(8) 0.5524(2) 0.0165 Uani 1.0000
C C7 0.1804(5) 0.05405(8) 0.8411(2) 0.0162 Uani 1.0000
O O8 0.1489(4) 0.07034(6) 0.98720(16) 0.0203 Uani 1.0000
O O9 0.1041(4) -0.00109(6) 0.78805(17) 0.0207 Uani 1.0000
H H31 0.5659 0.2353 0.6693 0.0170 Uiso 1.0000
H H51 0.4378 0.0968 0.3165 0.0195 Uiso 1.0000
H H61 0.2534 0.0319 0.5215 0.0179 Uiso 1.0000
H H4 0.676(7) 0.2414(13) 0.395(3) 0.048(8) Uiso 1.0000
H H81 0.0722 0.0441 1.0593 0.027(8) Uiso 0.2500
H H82 0.2045 0.1082 1.0207 0.042(9) Uiso 0.1500
H H9 0.0272 -0.0280 0.8583 0.027(8) Uiso 0.7500
H H2 0.3086 0.1540 0.9963 0.044(9) Uiso 0.8500
loop_
_atom_site_aniso_label
_atom_site_aniso_U_11
_atom_site_aniso_U_22
_atom_site_aniso_U_33
_atom_site_aniso_U_12
_atom_site_aniso_U_13
_atom_site_aniso_U_23
C1 0.0150(9) 0.0147(9) 0.0165(9) 0.0003(7) 0.0036(7) 0.0002(7)
C2 0.0151(9) 0.0158(9) 0.0145(9) 0.0012(7) 0.0035(7) -0.0018(7)
O2 0.0321(8) 0.0163(7) 0.0159(7) -0.0008(6) 0.0085(6) -0.0014(5)
C3 0.0164(9) 0.0134(9) 0.0196(9) -0.0005(7) 0.0041(8) 0.0003(7)
C4 0.0137(9) 0.0170(10) 0.0180(10) 0.0016(7) 0.0036(7) 0.0039(7)
O4 0.0283(8) 0.0173(7) 0.0184(7) -0.0028(6) 0.0083(6) 0.0025(6)
C5 0.0176(10) 0.0200(10) 0.0146(9) -0.0008(8) 0.0044(8) -0.0014(7)
C6 0.0166(9) 0.0144(9) 0.0183(9) -0.0005(7) 0.0030(8) -0.0012(7)
C7 0.0145(9) 0.0170(10) 0.0172(9) 0.0011(7) 0.0025(8) 0.0004(7)
O8 0.0290(8) 0.0166(7) 0.0164(7) -0.0038(6) 0.0069(6) 0.0009(5)
O9 0.0305(8) 0.0124(7) 0.0205(7) -0.0039(6) 0.0078(6) 0.0002(5)
loop_
_atom_type_symbol
_atom_type_scat_dispersion_real
_atom_type_scat_dispersion_imag
_atom_type_scat_source
C 0.0033 0.0016 'International Tables Vol C 4.2.6.8 and 6.1.1.4'
H 0.0000 0.0000 'International Tables Vol C 4.2.6.8 and 6.1.1.4'
O 0.0106 0.0060 'International Tables Vol C 4.2.6.8 and 6.1.1.4'
loop_
_geom_angle_atom_site_label_1
_geom_angle_atom_site_label_2
_geom_angle_atom_site_label_3
_geom_angle
_geom_angle_publ_flag
C2 C1 C6 118.21(16) yes
C2 C1 C7 120.71(16) yes
C6 C1 C7 121.06(17) yes
C1 C2 O2 122.32(16) yes
C1 C2 C3 120.59(16) yes
O2 C2 C3 117.09(16) yes
C2 O2 H2 119.753 no
C2 C3 C4 119.27(17) yes
C2 C3 H31 120.428 no
C4 C3 H31 120.302 no
C3 C4 O4 122.31(17) yes
C3 C4 C5 121.21(17) yes
O4 C4 C5 116.48(17) yes
C4 O4 H4 109.7(18) no
C4 C5 C6 118.89(17) yes
C4 C5 H51 120.648 no
C6 C5 H51 120.456 no
C1 C6 C5 121.83(17) yes
C1 C6 H61 118.769 no
C5 C6 H61 119.402 no
C1 C7 O8 122.98(17) yes
C1 C7 O9 115.26(16) yes
O8 C7 O9 121.76(17) yes
C7 O8 H81 119.918 no
C7 O8 H82 120.069 no
H81 O8 H82 120.011 no
C7 O9 H9 119.691 no
loop_
_geom_bond_atom_site_label_1
_geom_bond_atom_site_label_2
_geom_bond_distance
_geom_bond_publ_flag
C1 C2 1.412(3) yes
C1 C6 1.404(2) yes
C1 C7 1.456(3) yes
C2 O2 1.366(2) yes
C2 C3 1.393(3) yes
O2 H2 0.900 no
C3 C4 1.390(3) yes
C3 H31 1.000 no
C4 O4 1.357(2) yes
C4 C5 1.402(3) yes
O4 H4 0.86(3) no
C5 C6 1.373(3) yes
C5 H51 1.000 no
C6 H61 1.000 no
C7 O8 1.249(2) yes
C7 O9 1.318(2) yes
O8 H81 0.900 no
O8 H82 0.900 no
O9 H9 0.900 no
