#------------------------------------------------------------------------------
#$Date: 2017-10-13 08:28:26 +0300 (Fri, 13 Oct 2017) $
#$Revision: 201972 $
#$URL: file:///home/coder/svn-repositories/cod/cif/2/10/33/2103305.cif $
#------------------------------------------------------------------------------
#
# This file is available in the Crystallography Open Database (COD),
# http://www.crystallography.net/. The original data for this entry
# were provided by IUCr Journals, http://journals.iucr.org/.
#
# The file may be used within the scientific community so long as
# proper attribution is given to the journal article from which the
# data were obtained.
#
data_2103305
loop_
_publ_author_name
'Cole, Jacqueline M.'
'Goeta, Andr\'es E.'
'Howard, Judith A. K.'
'McIntyre, Garry J.'
_publ_section_title
;
 X-ray and neutron diffraction studies of the non-linear optical
 compounds MBANP and MBADNP at 20K: charge-density and hydrogen-bonding
 analyses
;
_journal_issue                   4
_journal_name_full               'Acta Crystallographica Section B'
_journal_page_first              690
_journal_page_last               700
_journal_paper_doi               10.1107/S0108768102006109
_journal_volume                  58
_journal_year                    2002
_chemical_formula_sum            'C13 H12 N4 O4'
_chemical_formula_weight         288.00
_chemical_name_common            methylbenzylaminodinitropyridine
_chemical_name_systematic
;
 ?
;
_space_group_IT_number           4
_symmetry_cell_setting           monoclinic
_symmetry_space_group_name_Hall  'P 2yb'
_symmetry_space_group_name_H-M   'P 1 21 1'
_atom_sites_solution_hydrogens   geom
_atom_sites_solution_primary     direct
_atom_sites_solution_secondary   difmap
_audit_creation_method           SHELXL
_cell_angle_alpha                90.00
_cell_angle_beta                 93.98(2)
_cell_angle_gamma                90.00
_cell_formula_units_Z            2
_cell_length_a                   8.352(3)
_cell_length_b                   8.570(3)
_cell_length_c                   8.909(4)
_cell_measurement_reflns_used    4
_cell_measurement_temperature    20.00(10)
_cell_measurement_theta_max      12
_cell_measurement_theta_min      10
_cell_volume                     636.1(4)
_computing_cell_refinement       'RAFD9 (local program)'
_computing_data_collection       'MAD (Bartelemy, 1984)'
_computing_data_reduction        'RACER (Wilkinson et al, 1988)'
_computing_molecular_graphics    'SHELXTL_PLUS (1995)'
_computing_publication_material  'SHELXL-93 (Sheldrick, 1993)'
_computing_structure_refinement  'SHELXL-93 (Sheldrick, 1993)'
_computing_structure_solution    'SHELXS-86 (Sheldrick, 1990)'
_diffrn_ambient_temperature      20.00(10)
_diffrn_measurement_device       'High-flux four-circle diffractometer, D9'
_diffrn_measurement_method       '\w-x-2\q scans'
_diffrn_radiation_monochromator  'Cu (220)'
_diffrn_radiation_probe          neutron
_diffrn_radiation_source
'Institut Laue Langevin Reactor, Grenoble, France'
_diffrn_radiation_type           neutron
_diffrn_radiation_wavelength     0.83717
_diffrn_reflns_av_R_equivalents  0.0283
_diffrn_reflns_av_sigmaI/netI    0.0367
_diffrn_reflns_limit_h_max       14
_diffrn_reflns_limit_h_min       0
_diffrn_reflns_limit_k_max       14
_diffrn_reflns_limit_k_min       -10
_diffrn_reflns_limit_l_max       13
_diffrn_reflns_limit_l_min       -15
_diffrn_reflns_number            3755
_diffrn_reflns_theta_max         46.56
_diffrn_reflns_theta_min         3.81
_diffrn_standards_decay_%        0
_diffrn_standards_interval_count 50
_diffrn_standards_number         1
_exptl_absorpt_coefficient_mu    0.1407
_exptl_absorpt_correction_T_max  0.8802
_exptl_absorpt_correction_T_min  0.7569
_exptl_absorpt_correction_type   integration
_exptl_absorpt_process_details   'Gaussian integration (Coppens et al, 1965)'
_exptl_crystal_colour            yellow
_exptl_crystal_density_diffrn    1.504
_exptl_crystal_density_method    none
_exptl_crystal_description       'hexagonal prism'
_exptl_crystal_F_000             230
_exptl_crystal_size_max          3.0
_exptl_crystal_size_mid          2.5
_exptl_crystal_size_min          1.0
_refine_diff_density_max         0.815
_refine_diff_density_min         -0.909
_refine_ls_abs_structure_details
;
The absolute structure is known a priori from reagents in the
synthesis (see paper)
;
_refine_ls_extinction_method     none
_refine_ls_goodness_of_fit_all   1.471
_refine_ls_goodness_of_fit_obs   1.484
_refine_ls_hydrogen_treatment    refall
_refine_ls_matrix_type           full
_refine_ls_number_parameters     298
_refine_ls_number_reflns         3397
_refine_ls_number_restraints     1
_refine_ls_restrained_S_all      1.621
_refine_ls_restrained_S_obs      1.484
_refine_ls_R_factor_all          0.0324
_refine_ls_R_factor_obs          0.0291
_refine_ls_shift/esd_max         0.000
_refine_ls_shift/esd_mean        0.000
_refine_ls_structure_factor_coef Fsqd
_refine_ls_weighting_details
'calc w=1/[\s^2^(Fo^2^)+(0.0000P)^2^+0.0000P] where P=(Fo^2^+2Fc^2^)/3'
_refine_ls_weighting_scheme      calc
_refine_ls_wR_factor_all         0.0518
_refine_ls_wR_factor_obs         0.0464
_reflns_number_observed          3267
_reflns_number_total             3401
_reflns_observed_criterion       >2sigma(I)
_cod_data_source_file            an0602.cif
_cod_data_source_block           MBADNP
_cod_original_sg_symbol_H-M      P2(1)
_cod_database_code               2103305
_cod_database_fobs_code          2103305
loop_
_symmetry_equiv_pos_as_xyz
'x, y, z'
'-x, y+1/2, -z'
loop_
_atom_site_aniso_label
_atom_site_aniso_U_11
_atom_site_aniso_U_22
_atom_site_aniso_U_33
_atom_site_aniso_U_12
_atom_site_aniso_U_13
_atom_site_aniso_U_23
O1 0.0064(3) 0.0062(3) 0.0106(4) 0.0020(3) 0.0039(3) 0.0023(3)
O2 0.0086(4) 0.0077(4) 0.0087(4) 0.0028(3) 0.0028(3) 0.0047(3)
O3 0.0066(3) 0.0071(4) 0.0080(4) 0.0007(3) 0.0027(3) 0.0030(3)
O4 0.0046(3) 0.0072(4) 0.0094(4) 0.0009(3) 0.0007(3) 0.0012(3)
N1 0.0046(2) 0.0042(2) 0.0066(2) 0.0007(2) 0.0019(2) 0.0017(2)
H1N 0.0137(8) 0.0183(9) 0.0296(11) 0.0067(7) 0.0060(8) 0.0098(8)
N2 0.0042(2) 0.0042(2) 0.0066(2) 0.0006(2) 0.0012(2) 0.0021(2)
N3 0.0042(2) 0.0039(2) 0.0050(2) 0.0008(2) 0.0004(2) 0.0008(2)
N4 0.0037(2) 0.0044(2) 0.0050(2) 0.0003(2) 0.0010(2) -0.0002(2)
C1 0.0049(3) 0.0040(3) 0.0037(3) -0.0006(2) 0.0003(2) -0.0001(2)
C2 0.0049(3) 0.0060(3) 0.0058(3) -0.0015(3) 0.0007(2) -0.0011(3)
H2 0.0201(8) 0.0204(9) 0.0196(9) -0.0064(8) 0.0034(7) -0.0090(8)
C3 0.0046(3) 0.0073(3) 0.0066(3) -0.0012(2) 0.0015(2) -0.0003(3)
H3 0.0142(8) 0.0273(11) 0.0261(11) -0.0092(8) 0.0048(7) -0.0043(9)
C4 0.0058(3) 0.0060(3) 0.0060(3) 0.0009(3) 0.0019(2) 0.0005(3)
H4 0.0166(8) 0.0261(11) 0.0210(9) -0.0002(8) 0.0104(7) -0.0041(8)
C5 0.0075(3) 0.0056(3) 0.0052(3) -0.0002(3) 0.0015(2) -0.0010(3)
H5 0.0256(10) 0.0192(9) 0.0207(9) -0.0031(8) 0.0039(8) -0.0114(8)
C6 0.0059(3) 0.0045(3) 0.0054(3) -0.0013(2) 0.0012(2) -0.0015(3)
H6 0.0157(8) 0.0250(10) 0.0257(10) -0.0110(8) 0.0048(7) -0.0067(8)
C7 0.0042(3) 0.0033(3) 0.0047(3) 0.0002(2) 0.0004(2) 0.0006(2)
H7 0.0124(6) 0.0155(8) 0.0183(8) 0.0022(6) -0.0029(6) 0.0026(6)
C8 0.0073(3) 0.0054(3) 0.0062(3) -0.0007(3) 0.0007(3) -0.0017(3)
H8A 0.0312(11) 0.0116(8) 0.0280(11) -0.0027(8) 0.0028(9) 0.0024(8)
H8B 0.0227(9) 0.0278(11) 0.0219(9) -0.0005(9) 0.0113(8) -0.0071(9)
H8C 0.0184(9) 0.0272(11) 0.0203(9) 0.0039(8) -0.0065(7) -0.0037(8)
C9 0.0040(3) 0.0031(3) 0.0041(3) 0.0000(2) 0.0008(2) 0.0006(2)
C10 0.0040(3) 0.0034(3) 0.0046(3) 0.0002(2) 0.0006(2) 0.0007(2)
C11 0.0041(3) 0.0033(3) 0.0048(3) 0.0005(2) 0.0007(2) 0.0006(2)
H11 0.0181(8) 0.0135(8) 0.0214(8) 0.0004(7) 0.0037(7) 0.0076(7)
C12 0.0032(3) 0.0040(3) 0.0056(3) 0.0003(2) 0.0013(2) 0.0007(2)
C13 0.0039(3) 0.0039(3) 0.0064(3) 0.0003(2) 0.0009(2) 0.0017(2)
H13 0.0123(7) 0.0177(9) 0.0306(11) 0.0072(7) 0.0034(7) 0.0074(8)
loop_
_atom_site_label
_atom_site_fract_x
_atom_site_fract_y
_atom_site_fract_z
_atom_site_U_iso_or_equiv
_atom_site_thermal_displace_type
_atom_site_calc_flag
_atom_site_occupancy
_atom_site_type_symbol
O1 -0.15593(12) 0.96547(13) 0.73206(12) 0.0076(2) Uani d 1 O
O2 -0.01945(13) 1.06825(13) 0.55930(12) 0.0082(2) Uani d 1 O
O3 0.51576(12) 0.89189(13) 0.49365(12) 0.0071(2) Uani d 1 O
O4 0.61174(12) 0.69667(13) 0.62704(12) 0.0071(2) Uani d 1 O
N1 -0.08104(7) 0.67472(7) 0.82438(7) 0.00506(9) Uani d 1 N
H1N -0.1746(3) 0.7477(3) 0.7998(3) 0.0203(4) Uani d 1 H
N2 0.17873(7) 0.60357(7) 0.78741(7) 0.00496(9) Uani d 1 N
N3 -0.03933(7) 0.96757(7) 0.65345(7) 0.00438(9) Uani d 1 N
N4 0.50107(7) 0.78427(7) 0.58286(7) 0.00431(9) Uani d 1 N
C1 -0.24396(10) 0.55579(10) 1.00641(10) 0.00419(12) Uani d 1 C
C2 -0.38679(10) 0.47043(11) 1.00011(10) 0.00554(12) Uani d 1 C
H2 -0.4081(3) 0.3772(3) 0.9181(3) 0.0199(4) Uani d 1 H
C3 -0.50539(10) 0.50292(11) 1.09938(10) 0.00608(13) Uani d 1 C
H3 -0.6170(3) 0.4370(3) 1.0907(3) 0.0224(4) Uani d 1 H
C4 -0.48078(10) 0.61863(11) 1.20866(10) 0.00586(13) Uani d 1 C
H4 -0.5733(3) 0.6411(3) 1.2864(3) 0.0208(4) Uani d 1 H
C5 -0.33708(11) 0.70326(11) 1.21700(10) 0.00606(13) Uani d 1 C
H5 -0.3150(3) 0.7913(3) 1.3034(3) 0.0217(4) Uani d 1 H
C6 -0.22085(10) 0.67300(11) 1.11570(10) 0.00524(12) Uani d 1 C
H6 -0.1108(3) 0.7410(3) 1.1218(3) 0.0220(4) Uani d 1 H
C7 -0.11286(10) 0.52602(10) 0.89968(9) 0.00404(12) Uani d 1 C
H7 -0.0012(2) 0.4945(3) 0.9657(2) 0.0156(3) Uani d 1 H
C8 -0.15256(11) 0.39796(10) 0.78310(10) 0.00631(13) Uani d 1 C
H8A -0.1687(3) 0.2854(3) 0.8380(3) 0.0236(4) Uani d 1 H
H8B -0.0542(3) 0.3866(3) 0.7081(3) 0.0237(4) Uani d 1 H
H8C -0.2630(3) 0.4254(3) 0.7153(3) 0.0223(4) Uani d 1 H
C9 0.05708(10) 0.70823(10) 0.76388(9) 0.00371(12) Uani d 1 C
C10 0.08145(10) 0.84614(10) 0.67666(10) 0.00400(12) Uani d 1 C
C11 0.22537(10) 0.87061(10) 0.61283(10) 0.00406(12) Uani d 1 C
H11 0.2447(3) 0.9743(3) 0.5467(3) 0.0176(3) Uani d 1 H
C12 0.34521(10) 0.76013(10) 0.64042(10) 0.00420(12) Uani d 1 C
C13 0.31768(10) 0.63001(10) 0.72972(10) 0.00468(12) Uani d 1 C
H13 0.4132(3) 0.5450(3) 0.7533(3) 0.0201(4) Uani d 1 H
loop_
_atom_type_symbol
_atom_type_description
_atom_type_scat_dispersion_real
_atom_type_scat_dispersion_imag
_atom_type_scat_source
C C 0.0000 0.0000 'International Tables Vol C Tables 4.2.6.8 and 6.1.1.4'
H H 0.0000 0.0000 'International Tables Vol C Tables 4.2.6.8 and 6.1.1.4'
N N 0.0000 0.0000 'International Tables Vol C Tables 4.2.6.8 and 6.1.1.4'
O O 0.0000 0.0000 'International Tables Vol C Tables 4.2.6.8 and 6.1.1.4'
loop_
_geom_angle_atom_site_label_1
_geom_angle_atom_site_label_2
_geom_angle_atom_site_label_3
_geom_angle
N3 O1 H1N 105.60(10)
C9 N1 C7 123.85(6)
C9 N1 H1N 117.00(10)
C7 N1 H1N 118.20(10)
C13 N2 C9 119.59(7)
O2 N3 O1 123.21(9)
O2 N3 C10 118.47(8)
O1 N3 C10 118.30(8)
O3 N4 O4 123.82(8)
O3 N4 C12 117.98(7)
O4 N4 C12 118.20(7)
C2 C1 C6 118.60(8)
C2 C1 C7 122.47(8)
C6 C1 C7 118.93(8)
C1 C2 C3 120.65(8)
C1 C2 H2 120.70(10)
C3 C2 H2 118.7(2)
C4 C3 C2 120.37(8)
C4 C3 H3 120.2(2)
C2 C3 H3 119.5(2)
C3 C4 C5 119.32(8)
C3 C4 H4 119.5(2)
C5 C4 H4 121.2(2)
C6 C5 C4 120.13(8)
C6 C5 H5 119.8(2)
C4 C5 H5 120.0(2)
C5 C6 C1 120.92(8)
C5 C6 H6 119.5(2)
C1 C6 H6 119.6(2)
N1 C7 C1 107.46(7)
N1 C7 C8 110.40(7)
C1 C7 C8 114.39(7)
N1 C7 H7 106.40(10)
C1 C7 H7 109.10(10)
C8 C7 H7 108.80(10)
C7 C8 H8A 110.9(2)
C7 C8 H8B 109.9(2)
H8A C8 H8B 108.3(2)
C7 C8 H8C 110.8(2)
H8A C8 H8C 108.1(2)
H8B C8 H8C 108.8(2)
N1 C9 N2 116.87(7)
N1 C9 C10 123.57(7)
N2 C9 C10 119.56(7)
C11 C10 C9 120.51(7)
C11 C10 N3 116.60(7)
C9 C10 N3 122.87(7)
C10 C11 C12 117.47(8)
C10 C11 H11 121.00(10)
C12 C11 H11 121.50(10)
C11 C12 C13 120.00(8)
C11 C12 N4 119.70(7)
C13 C12 N4 120.22(7)
N2 C13 C12 122.80(8)
N2 C13 H13 117.5(2)
C12 C13 H13 119.7(2)
loop_
_geom_bond_atom_site_label_1
_geom_bond_atom_site_label_2
_geom_bond_distance
O1 N3 1.2390(10)
O1 H1N 1.971(3)
O2 N3 1.2230(10)
O3 N4 1.2290(10)
O4 N4 1.2340(10)
N1 C9 1.3380(10)
N1 C7 1.4730(10)
N1 H1N 1.013(2)
N2 C13 1.3210(10)
N2 C9 1.3610(10)
N3 C10 1.4540(10)
N4 C12 1.4470(10)
C1 C2 1.3970(10)
C1 C6 1.4030(10)
C1 C7 1.5210(10)
C2 C3 1.4010(10)
C2 H2 1.089(2)
C3 C4 1.3950(10)
C3 H3 1.089(2)
C4 C5 1.4000(10)
C4 H4 1.090(2)
C5 C6 1.3950(10)
C5 H5 1.084(2)
C6 H6 1.086(2)
C7 C8 1.5320(10)
C7 H7 1.101(2)
C8 H8A 1.094(3)
C8 H8B 1.098(2)
C8 H8C 1.093(2)
C9 C10 1.4370(10)
C10 C11 1.3810(10)
C11 C12 1.3870(10)
C11 H11 1.084(2)
C12 C13 1.3980(10)
C13 H13 1.090(2)
loop_
_cod_related_entry_id
_cod_related_entry_database
_cod_related_entry_code
1 ChemSpider 21186293
