#------------------------------------------------------------------------------
#$Date: 2017-10-13 08:28:26 +0300 (Fri, 13 Oct 2017) $
#$Revision: 201972 $
#$URL: file:///home/coder/svn-repositories/cod/cif/2/10/34/2103409.cif $
#------------------------------------------------------------------------------
#
# This file is available in the Crystallography Open Database (COD),
# http://www.crystallography.net/. The original data for this entry
# were provided by IUCr Journals, http://journals.iucr.org/.
#
# The file may be used within the scientific community so long as
# proper attribution is given to the journal article from which the
# data were obtained.
#
data_2103409
loop_
_publ_author_name
'Tremayne, Maryjane'
'Seaton, Colin C.'
'Glidewell, Christopher'
_publ_section_title
;
 Structures of three substituted arenesulfonamides from X-ray powder
 diffraction data using the differential evolution technique
;
_journal_issue                   5
_journal_name_full               'Acta Crystallographica Section B'
_journal_page_first              823
_journal_page_last               834
_journal_paper_doi               10.1107/S0108768102011928
_journal_volume                  58
_journal_year                    2002
_chemical_formula_moiety         'C6 H6 N2 O4 S'
_chemical_formula_sum            'C6 H6 N2 O4 S'
_chemical_formula_weight         202.20
_chemical_name_systematic        4-nitrobenzenesulfonamide
_space_group_IT_number           14
_symmetry_cell_setting           monoclinic
_symmetry_space_group_name_Hall  '-P 2yn'
_symmetry_space_group_name_H-M   'P 1 21/n 1'
_cell_angle_alpha                90
_cell_angle_beta                 100.466(2)
_cell_angle_gamma                90
_cell_formula_units_Z            4
_cell_length_a                   8.8424(3)
_cell_length_b                   13.4933(4)
_cell_length_c                   7.0732(2)
_cell_measurement_temperature    273
_cell_volume                     829.89(4)
_computing_data_collection       'Diffrac-AT (Siemens)'
_computing_structure_refinement  'GSAS (Larson et al. 1994)'
_computing_structure_solution    'POSSUM (Tremayne, Seaton 2002)'
_diffrn_ambient_temperature      273
_diffrn_measurement_device       'position sensitive detector'
_diffrn_measurement_method       'Debye Scherrer'
_diffrn_radiation_monochromator  Ge
_diffrn_radiation_source         'sealed X-ray tube'
_diffrn_radiation_type           'Cu K\a'
_diffrn_radiation_wavelength     1.54056
_exptl_absorpt_correction_type   none
_refine_ls_goodness_of_fit_all   5.812
_refine_ls_hydrogen_treatment    constr
_refine_ls_number_parameters     58
_refine_ls_number_reflns         179
_refine_ls_number_restraints     46
_cod_data_source_file            bm0052.cif
_cod_data_source_block           4NBS
_cod_depositor_comments
;
The following automatic conversions were performed:
'_atom_site_thermal_displace_type' value 'uiso' changed to 'Uiso'
according to '/home/saulius/struct/CIF-dictionaries/cif_core.dic'
dictionary named 'cif_core.dic' version 2.4.1 from 2010-06-29 (19 times).

Automatic conversion script
Id: cif_fix_enum 1527 2010-12-29 10:47:43Z saulius 

The following automatic conversions were performed:

'_atom_site_thermal_displace_type' value 'uiso' changed to 'Uiso'
according to /home/saulius/struct/CIF-dictionaries/cif_core.dic
dictionary named 'cif_core.dic' version 2.4.1 from 2010-06-29 (19
times).

Automatic conversion script
Id: cif_fix_values 1715 2011-07-08 13:25:40Z adriana 
;
_cod_original_cell_volume        829.9(2)
_cod_original_sg_symbol_H-M      'P 21/n'
_cod_database_code               2103409
loop_
_symmetry_equiv_pos_as_xyz
'x, y, z'
'1/2-X, 1/2+Y, 1/2-Z'
'-x, -y, -z'
'1/2+X, 1/2-Y, 1/2+Z'
loop_
_atom_site_label
_atom_site_fract_x
_atom_site_fract_y
_atom_site_fract_z
_atom_site_U_iso_or_equiv
_atom_site_thermal_displace_type
_atom_site_occupancy
S1 0.5590(7) 0.7705(4) 0.8930(8) 0.033(3) Uiso 1
N1 0.6911(9) 0.7149(3) 1.0340(10) 0.010(7) Uiso 1
O11 0.5870(10) 0.8316(7) 0.7370(10) 0.028(5) Uiso 1
O12 0.4660(10) 0.6857(7) 0.8170(10) 0.028(5) Uiso 1
C1 0.448(2) 0.8490(10) 1.022(2) 0.025(4) Uiso 1
C2 0.333(2) 0.9100(10) 0.920(2) 0.025(4) Uiso 1
C3 0.257(2) 0.9780(10) 1.022(2) 0.025(4) Uiso 1
C4 0.275(2) 0.967(2) 1.221(2) 0.025(4) Uiso 1
C5 0.396(2) 0.910(2) 1.325(2) 0.025(4) Uiso 1
C6 0.483(2) 0.851(2) 1.223(2) 0.025(4) Uiso 1
N4 0.176(2) 1.0230(10) 1.337(2) 0.010(8) Uiso 1
O41 0.2220(10) 1.0171(9) 1.506(2) 0.015(5) Uiso 1
O42 0.0890(10) 1.0712(9) 1.2250(10) 0.015(5) Uiso 1
H21 0.330(10) 0.919(6) 0.764(3) 0.05 Uiso 1
H31 0.220(10) 1.050(3) 0.957(6) 0.05 Uiso 1
H51 0.431(9) 0.921(6) 1.481(3) 0.05 Uiso 1
H61 0.570(10) 0.804(8) 1.302(4) 0.05 Uiso 1
H11 0.777 0.746 1.124 0.05 Uiso 1
H12 0.700 0.640 1.025 0.05 Uiso 1
loop_
_atom_type_symbol
_atom_type_description
_atom_type_scat_dispersion_real
_atom_type_scat_dispersion_imag
_atom_type_scat_source
S S 0.1246 0.1234 'International Tables Vol C Tables 4.2.6.8 and 6.1.1.4'
C C 0.0033 0.0016 'International Tables Vol C Tables 4.2.6.8 and 6.1.1.4'
O O 0.0106 0.0060 'International Tables Vol C Tables 4.2.6.8 and 6.1.1.4'
N N 0.0061 0.0033 'International Tables Vol C Tables 4.2.6.8 and 6.1.1.4'
H H 0.0000 0.0000 'International Tables Vol C Tables 4.2.6.8 and 6.1.1.4'
loop_
_geom_angle_atom_site_label_1
_geom_angle_atom_site_label_2
_geom_angle_atom_site_label_3
_geom_angle
C2 C1 C6 120.0(10)
C2 C1 S1 120.0(10)
C6 C1 S1 119.0(10)
C1 C2 C3 120.0(10)
C2 C3 C4 118.0(10)
C3 C4 C5 120.0(10)
C3 C4 N4 121.0(10)
C5 C4 N4 117.0(10)
C4 C5 C6 118.0(10)
C1 C6 C5 120.0(10)
C1 S1 N1 112.0(10)
C1 S1 O11 104.0(10)
C1 S1 O12 109.0(10)
N1 S1 O11 123.0(10)
N1 S1 O12 99.0(10)
O11 S1 O12 109.0(10)
C4 N4 O41 112.0(10)
C4 N4 O42 107.0(10)
O41 N4 O42 140.0(10)
loop_
_geom_bond_atom_site_label_1
_geom_bond_atom_site_label_2
_geom_bond_distance
C1 C2 1.403(4)
C1 C6 1.401(4)
C1 S1 1.797(4)
C2 C3 1.408(4)
C3 C4 1.402(4)
C4 C5 1.403(4)
C4 N4 1.511(4)
C5 C6 1.396(4)
S1 N1 1.579(4)
S1 O11 1.435(4)
S1 O12 1.453(4)
N4 O41 1.193(4)
N4 O42 1.192(4)
loop_
_cod_related_entry_id
_cod_related_entry_database
_cod_related_entry_code
1 ChemSpider 21360
