#------------------------------------------------------------------------------
#$Date: 2017-10-13 08:28:26 +0300 (Fri, 13 Oct 2017) $
#$Revision: 201972 $
#$URL: file:///home/coder/svn-repositories/cod/cif/2/10/34/2103429.cif $
#------------------------------------------------------------------------------
#
# This file is available in the Crystallography Open Database (COD),
# http://www.crystallography.net/. The original data for this entry
# were provided by IUCr Journals, http://journals.iucr.org/.
#
# The file may be used within the scientific community so long as
# proper attribution is given to the journal article from which the
# data were obtained.
#
data_2103429
loop_
_publ_author_name
'K\'alm\'an, Alajos'
'F\'abi\'an, L\'aszl\'o'
'Argay, Gyula'
'Bern\'ath, G\'abor'
'Gyarmati, Zsuzsanna'
_publ_section_title
;
 Predictable close-packing similarities between <i>cis</i>- and
 <i>trans</i>-2-hydroxy-1-cyclooctanecarboxylic acids and
 <i>trans</i>-2-hydroxy-1-cyclooctanecarboxamide
;
_journal_issue                   5
_journal_name_full               'Acta Crystallographica Section B'
_journal_page_first              855
_journal_page_last               863
_journal_paper_doi               10.1107/S0108768102009631
_journal_volume                  58
_journal_year                    2002
_chemical_formula_moiety         'C9 H16 O3'
_chemical_formula_sum            'C9 H16 O3'
_chemical_formula_weight         172.22
_chemical_name_systematic
;
 (1R*,2R*)-trans-2-hydroxy-1-cyclooctanecarboxylic acid
;
_space_group_IT_number           2
_symmetry_cell_setting           triclinic
_symmetry_space_group_name_Hall  '-P 1'
_symmetry_space_group_name_H-M   'P -1'
_atom_sites_solution_hydrogens   geom
_atom_sites_solution_primary     direct
_atom_sites_solution_secondary   difmap
_audit_creation_method           SHELXL-97
_cell_angle_alpha                84.290(10)
_cell_angle_beta                 76.370(10)
_cell_angle_gamma                77.950(10)
_cell_formula_units_Z            2
_cell_length_a                   6.0350(10)
_cell_length_b                   8.3900(10)
_cell_length_c                   9.389(2)
_cell_measurement_reflns_used    25
_cell_measurement_temperature    293(2)
_cell_measurement_theta_max      18.91
_cell_measurement_theta_min      17.00
_cell_volume                     451.20(14)
_computing_cell_refinement       'CAD4 Express'
_computing_data_collection       'CAD4 Express'
_computing_data_reduction        'XCAD4 (Harms 1996)'
_computing_structure_refinement  'SHELXL-97 (Sheldrick, 1997)'
_computing_structure_solution    'SHELXS-97 (Sheldrick, 1997)'
_diffrn_ambient_temperature      293(2)
_diffrn_measured_fraction_theta_full 0.993
_diffrn_measured_fraction_theta_max 0.993
_diffrn_measurement_device_type  'Enraf-Nonius CAD4'
_diffrn_measurement_method       \w--2\q
_diffrn_radiation_monochromator  graphite
_diffrn_radiation_source         'fine-focus sealed tube'
_diffrn_radiation_type           'MO k\a'
_diffrn_radiation_wavelength     0.710730
_diffrn_reflns_av_R_equivalents  0.0213
_diffrn_reflns_av_sigmaI/netI    0.0261
_diffrn_reflns_limit_h_max       9
_diffrn_reflns_limit_h_min       -9
_diffrn_reflns_limit_k_max       13
_diffrn_reflns_limit_k_min       -13
_diffrn_reflns_limit_l_max       15
_diffrn_reflns_limit_l_min       -15
_diffrn_reflns_number            8683
_diffrn_reflns_theta_full        34.95
_diffrn_reflns_theta_max         34.95
_diffrn_reflns_theta_min         2.49
_diffrn_standards_decay_%        3
_diffrn_standards_interval_time  60
_diffrn_standards_number         3
_exptl_absorpt_coefficient_mu    0.094
_exptl_absorpt_correction_T_max  0.9799
_exptl_absorpt_correction_T_min  0.9346
_exptl_absorpt_correction_type   psi-scan
_exptl_crystal_colour            colourless
_exptl_crystal_density_diffrn    1.268
_exptl_crystal_density_method    'not measured'
_exptl_crystal_description       prism
_exptl_crystal_F_000             188
_exptl_crystal_size_max          0.60
_exptl_crystal_size_mid          0.40
_exptl_crystal_size_min          0.30
_refine_diff_density_max         0.327
_refine_diff_density_min         -0.195
_refine_ls_extinction_method     none
_refine_ls_goodness_of_fit_ref   0.949
_refine_ls_hydrogen_treatment    riding
_refine_ls_matrix_type           full
_refine_ls_number_parameters     111
_refine_ls_number_reflns         3931
_refine_ls_number_restraints     101
_refine_ls_restrained_S_all      0.943
_refine_ls_R_factor_all          0.0693
_refine_ls_R_factor_gt           0.0442
_refine_ls_shift/su_max          0.000
_refine_ls_shift/su_mean         0.000
_refine_ls_structure_factor_coef Fsqd
_refine_ls_weighting_details
'calc w=1/[\s^2^(Fo^2^)+(0.1000P)^2^+0.0000P] where P=(Fo^2^+2Fc^2^)/3'
_refine_ls_weighting_scheme      calc
_refine_ls_wR_factor_gt          0.1284
_refine_ls_wR_factor_ref         0.1417
_reflns_number_gt                2585
_reflns_number_total             3931
_reflns_threshold_expression     >2sigma(I)
_cod_data_source_file            de0017.cif
_cod_data_source_block           8T
_cod_original_cell_volume        451.20(13)
_cod_original_sg_symbol_H-M      P-1
_cod_database_code               2103429
_cod_database_fobs_code          2103429
loop_
_symmetry_equiv_pos_as_xyz
'x, y, z'
'-x, -y, -z'
loop_
_atom_site_label
_atom_site_fract_x
_atom_site_fract_y
_atom_site_fract_z
_atom_site_U_iso_or_equiv
_atom_site_adp_type
_atom_site_calc_flag
_atom_site_refinement_flags
_atom_site_occupancy
_atom_site_type_symbol
O1 0.24663(10) 0.42030(7) 0.17893(7) 0.03759(15) Uani d U 1 O
H1 0.3888 0.3949 0.1606 0.049 Uiso calc R 1 H
O2 0.27899(11) 0.66197(10) -0.12937(7) 0.05039(19) Uani d U 1 O
O3 -0.07127(10) 0.68921(8) 0.01809(6) 0.04129(16) Uani d U 1 O
H3 -0.1044 0.6574 -0.0526 0.054 Uiso calc R 1 H
C1 0.23780(13) 0.71043(9) 0.12595(8) 0.03272(15) Uani d U 1 C
H1A 0.4072 0.6990 0.0995 0.043 Uiso calc R 1 H
C2 0.17562(13) 0.57618(9) 0.24366(8) 0.03178(15) Uani d U 1 C
H2 0.0059 0.5961 0.2756 0.041 Uiso calc R 1 H
C3 0.27376(17) 0.56596(10) 0.38111(9) 0.04166(19) Uani d U 1 C
H3A 0.4407 0.5577 0.3504 0.054 Uiso calc R 1 H
H3B 0.2459 0.4659 0.4374 0.054 Uiso calc R 1 H
C4 0.1765(2) 0.70824(12) 0.48309(9) 0.0492(2) Uani d U 1 C
H4A 0.0278 0.7635 0.4635 0.064 Uiso calc R 1 H
H4B 0.1480 0.6636 0.5836 0.064 Uiso calc R 1 H
C5 0.3300(2) 0.83474(13) 0.47017(11) 0.0539(3) Uani d U 1 C
H5A 0.2344 0.9321 0.5159 0.070 Uiso calc R 1 H
H5B 0.4469 0.7924 0.5267 0.070 Uiso calc R 1 H
C6 0.45338(19) 0.88506(16) 0.31697(13) 0.0588(3) Uani d U 1 C
H6A 0.5449 0.7875 0.2696 0.076 Uiso calc R 1 H
H6B 0.5606 0.9529 0.3262 0.076 Uiso calc R 1 H
C7 0.2998(3) 0.97648(14) 0.21741(12) 0.0593(3) Uani d U 1 C
H7A 0.3994 1.0105 0.1274 0.077 Uiso calc R 1 H
H7B 0.2102 1.0747 0.2645 0.077 Uiso calc R 1 H
C8 0.1307(2) 0.88565(10) 0.17615(10) 0.0456(2) Uani d U 1 C
H8A 0.0667 0.9487 0.0978 0.059 Uiso calc R 1 H
H8B 0.0030 0.8799 0.2603 0.059 Uiso calc R 1 H
C9 0.15477(13) 0.68416(9) -0.00872(8) 0.03344(16) Uani d U 1 C
loop_
_atom_site_aniso_label
_atom_site_aniso_U_11
_atom_site_aniso_U_22
_atom_site_aniso_U_33
_atom_site_aniso_U_12
_atom_site_aniso_U_13
_atom_site_aniso_U_23
O1 0.0362(3) 0.0354(3) 0.0461(3) -0.0020(2) -0.0179(2) -0.0150(2)
O2 0.0391(3) 0.0799(5) 0.0333(3) -0.0071(3) -0.0095(2) -0.0140(3)
O3 0.0323(3) 0.0551(4) 0.0409(3) -0.0039(2) -0.0146(2) -0.0172(3)
C1 0.0320(3) 0.0380(3) 0.0320(3) -0.0069(3) -0.0114(3) -0.0094(2)
C2 0.0305(3) 0.0339(3) 0.0335(3) -0.0029(2) -0.0115(2) -0.0102(2)
C3 0.0531(5) 0.0400(4) 0.0366(4) -0.0029(3) -0.0217(3) -0.0086(3)
C4 0.0655(6) 0.0506(5) 0.0332(4) -0.0059(4) -0.0144(4) -0.0135(3)
C5 0.0657(6) 0.0526(5) 0.0529(5) -0.0023(4) -0.0312(5) -0.0231(4)
C6 0.0445(5) 0.0724(6) 0.0692(6) -0.0208(5) -0.0102(4) -0.0356(5)
C7 0.0882(8) 0.0534(5) 0.0463(5) -0.0365(6) -0.0110(5) -0.0111(4)
C8 0.0629(6) 0.0344(4) 0.0454(4) -0.0056(4) -0.0243(4) -0.0079(3)
C9 0.0329(3) 0.0358(3) 0.0342(3) -0.0029(3) -0.0129(3) -0.0084(3)
loop_
_atom_type_symbol
_atom_type_description
_atom_type_scat_dispersion_real
_atom_type_scat_dispersion_imag
_atom_type_scat_source
C C 0.0033 0.0016 'International Tables Vol C Tables 4.2.6.8 and 6.1.1.4'
H H 0.0000 0.0000 'International Tables Vol C Tables 4.2.6.8 and 6.1.1.4'
O O 0.0106 0.0060 'International Tables Vol C Tables 4.2.6.8 and 6.1.1.4'
loop_
_geom_angle_atom_site_label_1
_geom_angle_atom_site_label_2
_geom_angle_atom_site_label_3
_geom_angle
C2 O1 H1 109.5
C9 O3 H3 109.5
C9 C1 C2 108.18(6)
C9 C1 C8 109.36(6)
C2 C1 C8 113.69(7)
C9 C1 H1A 108.5
C2 C1 H1A 108.5
C8 C1 H1A 108.5
O1 C2 C1 109.35(6)
O1 C2 C3 108.70(6)
C1 C2 C3 116.62(7)
O1 C2 H2 107.3
C1 C2 H2 107.3
C3 C2 H2 107.3
C2 C3 C4 116.39(7)
C2 C3 H3A 108.2
C4 C3 H3A 108.2
C2 C3 H3B 108.2
C4 C3 H3B 108.2
H3A C3 H3B 107.3
C5 C4 C3 115.80(9)
C5 C4 H4A 108.3
C3 C4 H4A 108.3
C5 C4 H4B 108.3
C3 C4 H4B 108.3
H4A C4 H4B 107.4
C6 C5 C4 117.39(7)
C6 C5 H5A 108.0
C4 C5 H5A 108.0
C6 C5 H5B 108.0
C4 C5 H5B 108.0
H5A C5 H5B 107.2
C5 C6 C7 116.26(9)
C5 C6 H6A 108.2
C7 C6 H6A 108.2
C5 C6 H6B 108.2
C7 C6 H6B 108.2
H6A C6 H6B 107.4
C6 C7 C8 117.19(9)
C6 C7 H7A 108.0
C8 C7 H7A 108.0
C6 C7 H7B 108.0
C8 C7 H7B 108.0
H7A C7 H7B 107.2
C7 C8 C1 114.96(9)
C7 C8 H8A 108.5
C1 C8 H8A 108.5
C7 C8 H8B 108.5
C1 C8 H8B 108.5
H8A C8 H8B 107.5
O2 C9 O3 122.46(7)
O2 C9 C1 124.59(7)
O3 C9 C1 112.94(6)
loop_
_geom_bond_atom_site_label_1
_geom_bond_atom_site_label_2
_geom_bond_distance
O1 C2 1.4369(8)
O1 H1 0.8200
O2 C9 1.2096(10)
O3 C9 1.3199(10)
O3 H3 0.8200
C1 C9 1.5161(10)
C1 C2 1.5376(12)
C1 C8 1.5488(12)
C1 H1A 0.9800
C2 C3 1.5299(10)
C2 H2 0.9800
C3 C4 1.5351(11)
C3 H3A 0.9700
C3 H3B 0.9700
C4 C5 1.5269(15)
C4 H4A 0.9700
C4 H4B 0.9700
C5 C6 1.5190(17)
C5 H5A 0.9700
C5 H5B 0.9700
C6 C7 1.513(2)
C6 H6A 0.9700
C6 H6B 0.9700
C7 C8 1.5306(15)
C7 H7A 0.9700
C7 H7B 0.9700
C8 H8A 0.9700
C8 H8B 0.9700
loop_
_geom_hbond_atom_site_label_D
_geom_hbond_atom_site_label_H
_geom_hbond_atom_site_label_A
_geom_hbond_site_symmetry_A
_geom_hbond_distance_DH
_geom_hbond_distance_HA
_geom_hbond_distance_DA
_geom_hbond_angle_DHA
O1 H1 O2 2_665 0.82 1.92 2.7386(10) 176.6
O3 H3 O1 2_565 0.82 1.85 2.6557(8) 165.7
loop_
_geom_torsion_atom_site_label_1
_geom_torsion_atom_site_label_2
_geom_torsion_atom_site_label_3
_geom_torsion_atom_site_label_4
_geom_torsion
C9 C1 C2 O1 48.02(8)
C8 C1 C2 O1 169.70(6)
C9 C1 C2 C3 171.82(6)
C8 C1 C2 C3 -66.51(9)
O1 C2 C3 C4 -167.79(8)
C1 C2 C3 C4 68.09(10)
C2 C3 C4 C5 -101.20(10)
C3 C4 C5 C6 40.99(13)
C4 C5 C6 C7 66.15(12)
C5 C6 C7 C8 -63.33(13)
C6 C7 C8 C1 -47.01(13)
C9 C1 C8 C7 -135.91(8)
C2 C1 C8 C7 103.08(9)
C2 C1 C9 O2 -121.22(9)
C8 C1 C9 O2 114.48(10)
C2 C1 C9 O3 59.34(8)
C8 C1 C9 O3 -64.96(9)
loop_
_cod_related_entry_id
_cod_related_entry_database
_cod_related_entry_code
1 ChemSpider 16221976
