#------------------------------------------------------------------------------
#$Date: 2017-10-13 08:28:26 +0300 (Fri, 13 Oct 2017) $
#$Revision: 201972 $
#$URL: file:///home/coder/svn-repositories/cod/cif/2/10/33/2103302.cif $
#------------------------------------------------------------------------------
#
# This file is available in the Crystallography Open Database (COD),
# http://www.crystallography.net/. The original data for this entry
# were provided by IUCr Journals, http://journals.iucr.org/.
#
# The file may be used within the scientific community so long as
# proper attribution is given to the journal article from which the
# data were obtained.
#
data_2103302
loop_
_publ_author_name
'Yufit, D. S.'
'Kozhushkov, S. I.'
'Howard, J. A. K.'
'de Meijere, A.'
_publ_section_title
;
 Crystal structure of 5-oxatricyclo[5.1.0.0^1,3^]octane-4-one: two
 polymorphs in one crystal
;
_journal_issue                   4
_journal_name_full               'Acta Crystallographica Section B'
_journal_page_first              673
_journal_page_last               676
_journal_paper_doi               10.1107/S010876810200887X
_journal_volume                  58
_journal_year                    2002
_chemical_formula_sum            'C7 H8 O2'
_chemical_formula_weight         124.13
_chemical_melting_point          42.5(5)
_chemical_name_systematic
;
5-oxatricyclo[5.1.0.0^1,3^]octane-4-one
;
_space_group_IT_number           19
_symmetry_cell_setting           orthorhombic
_symmetry_space_group_name_Hall  'P 2ac 2ab'
_symmetry_space_group_name_H-M   'P 21 21 21'
_atom_sites_solution_hydrogens   difmap
_atom_sites_solution_primary     direct
_atom_sites_solution_secondary   difmap
_cell_angle_alpha                90.00
_cell_angle_beta                 90.00
_cell_angle_gamma                90.00
_cell_formula_units_Z            4
_cell_length_a                   9.9644(8)
_cell_length_b                   8.1854(7)
_cell_length_c                   7.4422(6)
_cell_measurement_reflns_used    4038
_cell_measurement_temperature    110.0(2)
_cell_measurement_theta_max      30.05
_cell_measurement_theta_min      2.25
_cell_volume                     607.01(9)
_computing_cell_refinement       'Bruker SAINT'
_computing_data_collection       'Bruker SMART'
_computing_data_reduction        'Bruker SHELXTL'
_computing_molecular_graphics    'Bruker SHELXTL'
_computing_publication_material  'Bruker SHELXTL'
_computing_structure_refinement  'SHELXL-97 (Sheldrick, 1997)'
_computing_structure_solution    'SHELXS-97 (Sheldrick, 1990)'
_diffrn_ambient_temperature      110.0(2)
_diffrn_detector_area_resol_mean 8
_diffrn_measured_fraction_theta_full 0.687
_diffrn_measured_fraction_theta_max 0.687
_diffrn_measurement_device_type  'Bruker SMART CCD 1K'
_diffrn_measurement_method       \w-scan
_diffrn_radiation_monochromator  graphite
_diffrn_radiation_source         'fine-focus sealed tube'
_diffrn_radiation_type           MoK\a
_diffrn_radiation_wavelength     0.71073
_diffrn_reflns_av_R_equivalents  0.0487
_diffrn_reflns_av_sigmaI/netI    0.0326
_diffrn_reflns_limit_h_max       13
_diffrn_reflns_limit_h_min       -13
_diffrn_reflns_limit_k_max       11
_diffrn_reflns_limit_k_min       -11
_diffrn_reflns_limit_l_max       10
_diffrn_reflns_limit_l_min       -10
_diffrn_reflns_number            4859
_diffrn_reflns_theta_full        30.24
_diffrn_reflns_theta_max         30.24
_diffrn_reflns_theta_min         3.22
_diffrn_standards_decay_%        0
_exptl_absorpt_coefficient_mu    0.099
_exptl_absorpt_correction_T_max  0.9843
_exptl_absorpt_correction_T_min  0.9539
_exptl_absorpt_correction_type   none
_exptl_crystal_colour            colourless
_exptl_crystal_density_diffrn    1.358
_exptl_crystal_density_method    'not measured'
_exptl_crystal_description       plate
_exptl_crystal_F_000             264
_exptl_crystal_size_max          0.48
_exptl_crystal_size_mid          0.34
_exptl_crystal_size_min          0.16
_refine_diff_density_max         0.163
_refine_diff_density_min         -0.145
_refine_ls_abs_structure_details 'Flack H D (1983), Acta Cryst. A39, 876-881'
_refine_ls_abs_structure_Flack   -0.2(12)
_refine_ls_extinction_method     none
_refine_ls_goodness_of_fit_ref   1.169
_refine_ls_hydrogen_treatment    refall
_refine_ls_matrix_type           full
_refine_ls_number_parameters     114
_refine_ls_number_reflns         1266
_refine_ls_number_restraints     0
_refine_ls_restrained_S_all      1.169
_refine_ls_R_factor_all          0.0416
_refine_ls_R_factor_gt           0.0373
_refine_ls_shift/su_max          0.000
_refine_ls_shift/su_mean         0.000
_refine_ls_structure_factor_coef Fsqd
_refine_ls_weighting_details
'calc w=1/[\s^2^(Fo^2^)+(0.0500P)^2^+0.0000P] where P=(Fo^2^+2Fc^2^)/3'
_refine_ls_weighting_scheme      calc
_refine_ls_wR_factor_gt          0.0868
_refine_ls_wR_factor_ref         0.0890
_reflns_number_gt                1166
_reflns_number_total             1266
_reflns_threshold_expression     >2sigma(I)
_cod_data_source_file            an0591.cif
_cod_data_source_block           a
_cod_depositor_comments
;
The following automatic conversions were performed:
'_symmetry_cell_setting' value 'Orthorhombic' changed to 'orthorhombic'
according to '/home/saulius/struct/CIF-dictionaries/cif_core.dic'
dictionary named 'cif_core.dic' version 2.4.1 from 2010-06-29.

Automatic conversion script
Id: cif_fix_enum 1527 2010-12-29 10:47:43Z saulius 

The following automatic conversions were performed:

'_chemical_melting_point' value '42-43' was changed to '42.5(5)' -
the average value was taken and precision was estimated.

Automatic conversion script
Id: cif_fix_values 1646 2011-03-28 12:23:43Z adriana 

The following automatic conversions were performed:

'_chemical_melting_point' value '42-43' was changed to '42.5(5)' -
the average value was taken and precision was
estimated.

'_symmetry_cell_setting' value 'Orthorhombic' changed to
'orthorhombic' according to
/home/saulius/struct/CIF-dictionaries/cif_core.dic dictionary named
'cif_core.dic' version 2.4.1 from 2010-06-29.

Automatic conversion script
Id: cif_fix_values 1715 2011-07-08 13:25:40Z adriana 
;
_cod_original_sg_symbol_H-M      'P 2~1~2~1~2~1~'
_cod_database_code               2103302
_cod_database_fobs_code          2103302
loop_
_symmetry_equiv_pos_as_xyz
'x, y, z'
'-x+1/2, -y, z+1/2'
'-x, y+1/2, -z+1/2'
'x+1/2, -y+1/2, -z'
loop_
_atom_site_label
_atom_site_fract_x
_atom_site_fract_y
_atom_site_fract_z
_atom_site_U_iso_or_equiv
_atom_site_adp_type
_atom_site_calc_flag
_atom_site_occupancy
_atom_site_type_symbol
O1 0.21905(11) -0.15125(12) 0.26290(18) 0.0260(3) Uani d 1 O
O2 0.38301(9) 0.02799(12) 0.25365(16) 0.0210(2) Uani d 1 O
C1 0.34883(14) 0.32494(17) 0.2517(2) 0.0201(3) Uani d 1 C
C2 0.26266(16) 0.42739(19) 0.1214(2) 0.0252(3) Uani d 1 C
C3 0.15590(15) 0.12333(19) 0.1939(2) 0.0198(3) Uani d 1 C
C4 0.09789(14) 0.2307(2) 0.3476(2) 0.0239(3) Uani d 1 C
C5 0.20336(14) 0.29164(17) 0.2272(2) 0.0196(3) Uani d 1 C
C6 0.43111(15) 0.18587(19) 0.1806(2) 0.0213(3) Uani d 1 C
C7 0.25171(13) -0.01082(17) 0.23866(19) 0.0190(3) Uani d 1 C
H1A 0.382(2) 0.378(2) 0.365(3) 0.028(5) Uiso d 1 H
H2A 0.2750(19) 0.401(3) -0.013(3) 0.033(6) Uiso d 1 H
H2B 0.2432(19) 0.536(3) 0.165(3) 0.023(5) Uiso d 1 H
H3A 0.0930(16) 0.098(2) 0.090(2) 0.022(5) Uiso d 1 H
H4A 0.125(2) 0.205(3) 0.476(3) 0.041(5) Uiso d 1 H
H4B 0.0041(14) 0.262(2) 0.332(3) 0.019(5) Uiso d 1 H
H6A 0.5222(16) 0.196(2) 0.208(2) 0.012(4) Uiso d 1 H
H6B 0.4208(15) 0.175(3) 0.050(2) 0.019(4) Uiso d 1 H
loop_
_atom_site_aniso_label
_atom_site_aniso_U_11
_atom_site_aniso_U_22
_atom_site_aniso_U_33
_atom_site_aniso_U_12
_atom_site_aniso_U_13
_atom_site_aniso_U_23
O1 0.0261(5) 0.0182(5) 0.0339(6) -0.0019(4) 0.0004(5) 0.0015(5)
O2 0.0166(5) 0.0185(5) 0.0279(5) 0.0011(3) 0.0010(4) 0.0019(4)
C1 0.0197(6) 0.0174(6) 0.0230(6) -0.0009(5) -0.0016(6) -0.0008(6)
C2 0.0317(8) 0.0172(7) 0.0269(8) 0.0031(6) -0.0025(6) 0.0046(6)
C3 0.0189(6) 0.0192(7) 0.0213(7) -0.0003(5) -0.0024(5) 0.0011(6)
C4 0.0177(7) 0.0269(8) 0.0272(8) 0.0044(6) 0.0032(6) 0.0011(6)
C5 0.0194(6) 0.0190(7) 0.0203(6) 0.0016(5) -0.0014(5) 0.0007(5)
C6 0.0190(6) 0.0197(7) 0.0252(7) -0.0027(6) 0.0030(5) -0.0001(6)
C7 0.0199(6) 0.0202(6) 0.0169(6) 0.0014(5) 0.0013(5) -0.0003(5)
loop_
_atom_type_symbol
_atom_type_description
_atom_type_scat_dispersion_real
_atom_type_scat_dispersion_imag
_atom_type_scat_source
C C 0.0033 0.0016 'International Tables Vol C Tables 4.2.6.8 and 6.1.1.4'
H H 0.0000 0.0000 'International Tables Vol C Tables 4.2.6.8 and 6.1.1.4'
O O 0.0106 0.0060 'International Tables Vol C Tables 4.2.6.8 and 6.1.1.4'
loop_
_geom_angle_atom_site_label_1
_geom_angle_atom_site_label_2
_geom_angle_atom_site_label_3
_geom_angle
_geom_angle_publ_flag
C7 O2 C6 119.22(11) yes
C5 C1 C6 110.55(11) yes
C5 C1 C2 58.66(9) yes
C6 C1 C2 119.70(13) yes
C5 C1 H1A 120.0(11) no
C6 C1 H1A 116.6(11) no
C2 C1 H1A 118.3(11) no
C5 C2 C1 58.76(9) yes
C5 C2 H2A 114.0(12) no
C1 C2 H2A 115.5(11) no
C5 C2 H2B 115.7(12) no
C1 C2 H2B 113.8(13) no
H2A C2 H2B 122.6(16) no
C5 C3 C7 116.34(12) yes
C5 C3 C4 57.87(10) yes
C7 C3 C4 119.31(13) yes
C5 C3 H3A 120.9(11) no
C7 C3 H3A 114.5(11) no
C4 C3 H3A 116.4(10) no
C5 C4 C3 58.43(10) yes
C5 C4 H4A 116.9(14) no
C3 C4 H4A 118.2(14) no
C5 C4 H4B 121.6(12) no
C3 C4 H4B 114.6(11) no
H4A C4 H4B 115.2(16) no
C4 C5 C3 63.70(10) yes
C4 C5 C2 149.61(14) yes
C3 C5 C2 137.43(15) yes
C4 C5 C1 133.27(14) yes
C3 C5 C1 120.25(12) yes
C2 C5 C1 62.58(10) yes
O2 C6 C1 110.85(11) yes
O2 C6 H6A 107.9(10) no
C1 C6 H6A 112.8(10) no
O2 C6 H6B 104.4(12) no
C1 C6 H6B 111.2(11) no
H6A C6 H6B 109.3(13) no
O1 C7 O2 118.18(12) yes
O1 C7 C3 124.12(13) yes
O2 C7 C3 117.70(12) yes
loop_
_geom_bond_atom_site_label_1
_geom_bond_atom_site_label_2
_geom_bond_distance
_geom_bond_publ_flag
O1 C7 1.2082(18) yes
O2 C7 1.3510(17) yes
O2 C6 1.4816(18) yes
C1 C5 1.4861(19) yes
C1 C6 1.499(2) yes
C1 C2 1.543(2) yes
C1 H1A 1.00(2) no
C2 C5 1.484(2) yes
C2 H2A 1.03(2) no
C2 H2B 0.97(2) no
C3 C5 1.477(2) yes
C3 C7 1.493(2) yes
C3 C4 1.555(2) yes
C3 H3A 1.017(18) no
C4 C5 1.469(2) yes
C4 H4A 1.01(2) no
C4 H4B 0.976(14) no
C6 H6A 0.935(16) no
C6 H6B 0.982(18) no
loop_
_cod_related_entry_id
_cod_related_entry_database
_cod_related_entry_code
1 ChemSpider 21188379
