#------------------------------------------------------------------------------
#$Date: 2016-02-20 02:53:41 +0200 (Sat, 20 Feb 2016) $
#$Revision: 176768 $
#$URL: svn://www.crystallography.net/cod/cif/2/10/37/2103710.cif $
#------------------------------------------------------------------------------
#
# This file is available in the Crystallography Open Database (COD),
# http://www.crystallography.net/. The original data for this entry
# were provided by IUCr Journals, http://journals.iucr.org/.
#
# The file may be used within the scientific community so long as
# proper attribution is given to the journal article from which the
# data were obtained.
#
data_2103710
loop_
_publ_author_name
'K\'alm\'an, Alajos'
'Argay, Gyula'
'F\'abi\'an, L\'aszl\'o'
'Bern\'ath, G\'abor'
'F\"ul\"op, Ferenc'
_publ_section_title
;
 Basic forms of supramolecular self-assembly organized by parallel and
 antiparallel hydrogen bonds in the racemic crystal structures of six
 disubstituted and trisubstituted cyclopentane derivatives
;
_journal_issue                   4
_journal_name_full               'Acta Crystallographica Section B'
_journal_page_first              539
_journal_page_last               550
_journal_paper_doi               10.1107/S0108768101006723
_journal_volume                  57
_journal_year                    2001
_chemical_formula_sum            'C10 H18 O3'
_chemical_formula_weight         186.24
_chemical_name_systematic
;
 (1R*,2S*,4R*)-4-tert-butyl-2-hydroxy-1-cyclopentanecarboxylic acid
;
_space_group_IT_number           2
_symmetry_cell_setting           triclinic
_symmetry_space_group_name_Hall  '-P 1'
_symmetry_space_group_name_H-M   'P -1'
_audit_creation_method           SHELXL-97
_cell_angle_alpha                84.30(4)
_cell_angle_beta                 89.97(4)
_cell_angle_gamma                62.28(4)
_cell_formula_units_Z            2
_cell_length_a                   5.9310(10)
_cell_length_b                   6.2000(10)
_cell_length_c                   15.951(3)
_cell_measurement_reflns_used    25
_cell_measurement_temperature    293(2)
_cell_measurement_theta_max      13.2
_cell_measurement_theta_min      11.0
_cell_volume                     516.0(3)
_computing_cell_refinement       'CAD4 Express (Enraf-Nonius, 1992)'
_computing_data_collection       'CAD4 Express (Enraf-Nonius, 1992)'
_computing_data_reduction        'XCAD4 (Harms 1996)'
_computing_molecular_graphics
;
 PLUTO in CSD(Allen F.H & Kennard O.(1993)) and PLATON(Spek A.L(1998))
;
_computing_structure_refinement  'SHELXL-97 (Sheldrick, 1997)'
_computing_structure_solution    'SHELXS-97 (Sheldrick, 1997a)'
_diffrn_ambient_temperature      293(2)
_diffrn_measured_fraction_theta_full 1.000
_diffrn_measured_fraction_theta_max 1.000
_diffrn_measurement_device_type  'Enraf-Nonius CAD4'
_diffrn_measurement_method       \w--2\q
_diffrn_radiation_monochromator  graphite
_diffrn_radiation_source         'fine-focus sealed tube'
_diffrn_radiation_type           MoK\a
_diffrn_radiation_wavelength     .71070
_diffrn_reflns_av_R_equivalents  .0193
_diffrn_reflns_av_sigmaI/netI    .0277
_diffrn_reflns_limit_h_max       8
_diffrn_reflns_limit_h_min       0
_diffrn_reflns_limit_k_max       8
_diffrn_reflns_limit_k_min       -7
_diffrn_reflns_limit_l_max       22
_diffrn_reflns_limit_l_min       -22
_diffrn_reflns_number            3107
_diffrn_reflns_theta_full        29.95
_diffrn_reflns_theta_max         29.95
_diffrn_reflns_theta_min         2.57
_diffrn_standards_interval_time  60
_diffrn_standards_number         3
_exptl_absorpt_coefficient_mu    .087
_exptl_absorpt_correction_T_max  .9922
_exptl_absorpt_correction_T_min  .9661
_exptl_absorpt_correction_type   psi-scan
_exptl_absorpt_process_details
'North A.C., Philips, D.C. & Mathews, F.(1968) Acta Cryst. A24, 350-359.'
_exptl_crystal_colour            colourless
_exptl_crystal_density_diffrn    1.199
_exptl_crystal_density_method    'not measured'
_exptl_crystal_description       block
_exptl_crystal_F_000             204
_exptl_crystal_size_max          .40
_exptl_crystal_size_mid          .20
_exptl_crystal_size_min          .09
_refine_diff_density_max         .300
_refine_diff_density_min         -.268
_refine_ls_extinction_coef       .029(11)
_refine_ls_extinction_method     SHELXL
_refine_ls_goodness_of_fit_ref   1.147
_refine_ls_hydrogen_treatment    mixed
_refine_ls_matrix_type           full
_refine_ls_number_parameters     124
_refine_ls_number_reflns         2998
_refine_ls_number_restraints     0
_refine_ls_restrained_S_all      1.147
_refine_ls_R_factor_all          .0910
_refine_ls_R_factor_gt           .0477
_refine_ls_shift/su_max          .000
_refine_ls_shift/su_mean         .000
_refine_ls_structure_factor_coef Fsqd
_refine_ls_weighting_details
'calc w=1/[\s^2^(Fo^2^)+(0.0626P)^2^+0.1708P] where P=(Fo^2^+2Fc^2^)/3'
_refine_ls_weighting_scheme      calc
_refine_ls_wR_factor_ref         .1776
_reflns_number_gt                1971
_reflns_number_total             2998
_reflns_threshold_expression     >2sigma(I)
_cod_data_source_file            de0011.cif
_cod_data_source_block           4
_cod_original_cell_volume        515.97(15)
_cod_original_sg_symbol_H-M      P-1
_cod_database_code               2103710
_cod_database_fobs_code          2103710
loop_
_symmetry_equiv_pos_as_xyz
'x, y, z'
'-x, -y, -z'
loop_
_atom_site_label
_atom_site_fract_x
_atom_site_fract_y
_atom_site_fract_z
_atom_site_U_iso_or_equiv
_atom_site_adp_type
_atom_site_calc_flag
_atom_site_refinement_flags
_atom_site_occupancy
_atom_site_type_symbol
C1 .7882(3) .3707(3) .36328(11) .0474(4) Uani d . 1 C
H1 .7288 .2469 .3703 .062 Uiso calc R 1 H
C2 .5662(3) .6158(3) .38003(10) .0463(4) Uani d . 1 C
H2 .4813 .5987 .4311 .060 Uiso calc R 1 H
C3 .3899(3) .6885(3) .30148(11) .0495(4) Uani d . 1 C
H3A .3063 .8651 .2873 .064 Uiso calc R 1 H
H3B .2601 .6365 .3110 .064 Uiso calc R 1 H
C4 .5580(3) .5598(3) .22890(10) .0460(4) Uani d . 1 C
H4 .5043 .4409 .2134 .060 Uiso calc R 1 H
C5 .8292(3) .4107(3) .27038(11) .0571(5) Uani d . 1 C
H5A .9200 .2553 .2473 .074 Uiso calc R 1 H
H5B .9253 .5011 .2618 .074 Uiso calc R 1 H
C6 1.0209(3) .2834(2) .42122(11) .0458(4) Uani d . 1 C
C7 .5363(3) .7255(3) .14759(11) .0498(4) Uani d . 1 C
C8 .7260(4) .5711(5) .08542(14) .0751(6) Uani d . 1 C
H8A .7034 .6706 .0329 .113 Uiso calc R 1 H
H8B .6964 .4355 .0761 .113 Uiso calc R 1 H
H8C .8969 .5104 .1084 .113 Uiso calc R 1 H
C9 .2666(4) .8324(4) .10708(13) .0669(5) Uani d . 1 C
H9A .2361 .7016 .0922 .100 Uiso calc R 1 H
H9B .2502 .9402 .0573 .100 Uiso calc R 1 H
H9C .1445 .9223 .1464 .100 Uiso calc R 1 H
C10 .5879(5) .9360(4) .16529(16) .0689(6) Uani d . 1 C
H10A .5835 1.0294 .1130 .103 Uiso calc R 1 H
H10B .7528 .8713 .1936 .103 Uiso calc R 1 H
H10C .4597 1.0399 .2004 .103 Uiso calc R 1 H
O1 .6676(2) .7837(2) .38681(8) .0512(3) Uani d . 1 O
H1A .5509 .9198 .3927 .067 Uiso calc R 1 H
O2 1.2327(2) .2288(2) .39724(9) .0587(4) Uani d . 1 O
O3 .9693(2) .2736(2) .50166(8) .0525(3) Uani d . 1 O
H3C 1.0925 .2539 .5309 .068 Uiso calc R 1 H
loop_
_atom_site_aniso_label
_atom_site_aniso_U_11
_atom_site_aniso_U_22
_atom_site_aniso_U_33
_atom_site_aniso_U_12
_atom_site_aniso_U_13
_atom_site_aniso_U_23
C1 .0436(8) .0361(7) .0557(9) -.0133(6) -.0028(6) -.0037(6)
C2 .0362(7) .0475(8) .0454(8) -.0120(6) .0045(5) -.0016(6)
C3 .0384(7) .0520(9) .0521(9) -.0165(6) .0024(6) -.0038(7)
C4 .0469(8) .0389(7) .0507(8) -.0182(6) -.0011(6) -.0085(6)
C5 .0481(9) .0483(9) .0520(9) -.0014(7) .0031(7) -.0163(7)
C6 .0429(7) .0263(6) .0565(9) -.0064(5) .0009(6) -.0052(6)
C7 .0469(8) .0501(9) .0502(8) -.0203(7) .0037(6) -.0074(7)
C8 .0714(13) .0813(15) .0585(11) -.0221(12) .0121(10) -.0173(10)
C9 .0584(11) .0728(13) .0583(11) -.0225(10) -.0072(8) -.0004(9)
C10 .0745(13) .0591(11) .0808(14) -.0386(10) .0112(11) -.0024(10)
O1 .0387(6) .0374(6) .0614(7) -.0032(4) -.0034(5) -.0114(5)
O2 .0404(6) .0468(7) .0698(8) -.0035(5) .0041(5) -.0112(6)
O3 .0493(6) .0468(6) .0537(7) -.0172(5) -.0038(5) .0012(5)
loop_
_atom_type_symbol
_atom_type_description
_atom_type_scat_dispersion_real
_atom_type_scat_dispersion_imag
_atom_type_scat_source
C C .0033 .0016 'International Tables Vol C Tables 4.2.6.8 and 6.1.1.4'
H H .0000 .0000 'International Tables Vol C Tables 4.2.6.8 and 6.1.1.4'
O O .0106 .0060 'International Tables Vol C Tables 4.2.6.8 and 6.1.1.4'
loop_
_geom_angle_atom_site_label_1
_geom_angle_atom_site_label_2
_geom_angle_atom_site_label_3
_geom_angle
C6 C1 C5 115.18(15)
C6 C1 C2 114.76(14)
C5 C1 C2 103.37(14)
O1 C2 C3 111.47(14)
O1 C2 C1 107.25(12)
C3 C2 C1 103.32(14)
C2 C3 C4 107.04(13)
C7 C4 C5 115.09(15)
C7 C4 C3 116.37(14)
C5 C4 C3 104.57(13)
C1 C5 C4 104.55(14)
O2 C6 O3 123.41(16)
O2 C6 C1 124.04(16)
O3 C6 C1 112.55(14)
C10 C7 C9 108.72(17)
C10 C7 C8 109.87(18)
C9 C7 C8 108.30(16)
C10 C7 C4 111.62(15)
C9 C7 C4 109.08(15)
C8 C7 C4 109.17(16)
loop_
_geom_bond_atom_site_label_1
_geom_bond_atom_site_label_2
_geom_bond_distance
C1 C6 1.503(2)
C1 C5 1.516(3)
C1 C2 1.527(2)
C2 O1 1.436(2)
C2 C3 1.522(2)
C3 C4 1.554(2)
C4 C7 1.538(2)
C4 C5 1.541(2)
C6 O2 1.212(2)
C6 O3 1.321(2)
C7 C10 1.523(3)
C7 C9 1.531(3)
C7 C8 1.533(3)
loop_
_geom_hbond_atom_site_label_D
_geom_hbond_atom_site_label_H
_geom_hbond_atom_site_label_A
_geom_hbond_site_symmetry_A
_geom_hbond_distance_DH
_geom_hbond_distance_HA
_geom_hbond_distance_DA
_geom_hbond_angle_DHA
O3 H3C O1 2_766 .82 1.85 2.664(2) 169.5
O1 H1A O2 1_465 .82 1.97 2.786(2) 170.2
loop_
_geom_torsion_atom_site_label_1
_geom_torsion_atom_site_label_2
_geom_torsion_atom_site_label_3
_geom_torsion_atom_site_label_4
_geom_torsion
C6 C1 C2 O1 48.47(18)
C5 C1 C2 O1 -77.77(16)
C6 C1 C2 C3 166.34(14)
C5 C1 C2 C3 40.09(17)
O1 C2 C3 C4 89.62(16)
C1 C2 C3 C4 -25.25(17)
C2 C3 C4 C7 -126.96(15)
C2 C3 C4 C5 1.20(18)
C6 C1 C5 C4 -165.72(13)
C2 C1 C5 C4 -39.75(17)
C7 C4 C5 C1 152.56(15)
C3 C4 C5 C1 23.63(18)
C5 C1 C6 O2 -5.6(2)
C2 C1 C6 O2 -125.45(17)
C5 C1 C6 O3 174.09(14)
C2 C1 C6 O3 54.21(19)
C5 C4 C7 C10 -67.9(2)
C3 C4 C7 C10 54.9(2)
C5 C4 C7 C9 171.94(15)
C3 C4 C7 C9 -65.22(19)
C5 C4 C7 C8 53.8(2)
C3 C4 C7 C8 176.60(15)
