#------------------------------------------------------------------------------
#$Date: 2017-10-13 08:28:26 +0300 (Fri, 13 Oct 2017) $
#$Revision: 201972 $
#$URL: file:///home/coder/svn-repositories/cod/cif/2/10/30/2103057.cif $
#------------------------------------------------------------------------------
#
# This file is available in the Crystallography Open Database (COD),
# http://www.crystallography.net/. The original data for this entry
# were provided by IUCr Journals, http://journals.iucr.org/.
#
# The file may be used within the scientific community so long as
# proper attribution is given to the journal article from which the
# data were obtained.
#
data_2103057
loop_
_publ_author_name
'Wardell, Solange M. S. V.'
'de Souza, Marcus V. N.'
'Vasconcelos, Thatyana R. A.'
'Ferreira, Marcelle de L.'
'Wardell, James L.'
'Low, John N.'
'Glidewell, Christopher'
_publ_section_title
;
 Patterns of hydrogen bonding in mono- and di-substituted
 <i>N</i>-arylpyrazinecarboxamides
;
_journal_coeditor_code           BM5049
_journal_issue                   1
_journal_name_full               'Acta Crystallographica Section B'
_journal_page_first              84
_journal_page_last               100
_journal_paper_doi               10.1107/S0108768107051804
_journal_volume                  64
_journal_year                    2008
_chemical_formula_moiety         'C12 H8 F3 N3 O'
_chemical_formula_sum            'C12 H8 F3 N3 O'
_chemical_formula_weight         267.21
_chemical_name_systematic
;
N-(4-trifluoromethylphenyl)pyrazinecarboxamide
;
_space_group_IT_number           2
_symmetry_cell_setting           triclinic
_symmetry_space_group_name_Hall  '-P 1'
_symmetry_space_group_name_H-M   'P -1'
_atom_sites_solution_hydrogens   geom
_atom_sites_solution_primary     direct
_atom_sites_solution_secondary   difmap
_cell_angle_alpha                78.349(7)
_cell_angle_beta                 86.460(8)
_cell_angle_gamma                70.146(8)
_cell_formula_units_Z            2
_cell_length_a                   5.8885(6)
_cell_length_b                   7.5257(9)
_cell_length_c                   13.2762(16)
_cell_measurement_reflns_used    2499
_cell_measurement_temperature    120(2)
_cell_measurement_theta_max      27.57
_cell_measurement_theta_min      1.57
_cell_volume                     541.95(11)
_computing_cell_refinement       'DENZO (Otwinowski & Minor, 1997) & COLLECT'
_computing_data_collection       'COLLECT (Hooft, 1999)'
_computing_data_reduction        'DENZO & COLLECT'
_computing_molecular_graphics    'PLATON (Spek, 2003)'
_computing_publication_material  'SHELXL-97 & PRPKAPPA (Ferguson, 1999)'
_computing_structure_refinement  'OSCAIL and SHELXL-97 (Sheldrick, 1997)'
_computing_structure_solution
'OSCAIL (McArdle, 2003) & SHELXS-97 (Sheldrick, 1997)'
_diffrn_ambient_temperature      120(2)
_diffrn_detector_area_resol_mean 9.091
_diffrn_measured_fraction_theta_full 0.995
_diffrn_measured_fraction_theta_max 0.992
_diffrn_measurement_device_type  'Bruker-Nonius KappaCCD'
_diffrn_measurement_method       '\f & \w scans'
_diffrn_radiation_monochromator  graphite
_diffrn_radiation_source         'Bruker-Nonius FR591 rotating anode'
_diffrn_radiation_type           'Mo K\a'
_diffrn_radiation_wavelength     0.71073
_diffrn_reflns_av_R_equivalents  0.0565
_diffrn_reflns_av_sigmaI/netI    0.0541
_diffrn_reflns_limit_h_max       7
_diffrn_reflns_limit_h_min       -7
_diffrn_reflns_limit_k_max       9
_diffrn_reflns_limit_k_min       -9
_diffrn_reflns_limit_l_max       17
_diffrn_reflns_limit_l_min       -17
_diffrn_reflns_number            11286
_diffrn_reflns_theta_full        27.00
_diffrn_reflns_theta_max         27.57
_diffrn_reflns_theta_min         1.57
_diffrn_standards_decay_%        0
_diffrn_standards_number         0
_exptl_absorpt_coefficient_mu    0.143
_exptl_absorpt_correction_T_max  0.991
_exptl_absorpt_correction_T_min  0.923
_exptl_absorpt_correction_type   multi-scan
_exptl_absorpt_process_details   'SADABS 2.10 (Sheldrick, 2003)'
_exptl_crystal_colour            colourless
_exptl_crystal_density_diffrn    1.637
_exptl_crystal_density_method    'not measured'
_exptl_crystal_description       plate
_exptl_crystal_F_000             272
_exptl_crystal_size_max          0.62
_exptl_crystal_size_mid          0.36
_exptl_crystal_size_min          0.06
_refine_diff_density_max         0.324
_refine_diff_density_min         -0.481
_refine_ls_extinction_method     none
_refine_ls_goodness_of_fit_ref   1.010
_refine_ls_hydrogen_treatment    constr
_refine_ls_matrix_type           full
_refine_ls_number_parameters     172
_refine_ls_number_reflns         2499
_refine_ls_number_restraints     0
_refine_ls_restrained_S_all      1.010
_refine_ls_R_factor_all          0.0905
_refine_ls_R_factor_gt           0.0571
_refine_ls_shift/su_max          0.000
_refine_ls_shift/su_mean         0.000
_refine_ls_structure_factor_coef Fsqd
_refine_ls_weighting_details
'w=1/[\s^2^(Fo^2^)+(0.1116P)^2^] where P=(Fo^2^+2Fc^2^)/3'
_refine_ls_weighting_scheme      calc
_refine_ls_wR_factor_gt          0.1417
_refine_ls_wR_factor_ref         0.1672
_reflns_number_gt                1693
_reflns_number_total             2499
_reflns_threshold_expression     I>2\s(I)
_cod_data_source_file            bm5049.cif
_cod_data_source_block           VII
_cod_depositor_comments
;
The following automatic conversions were performed:
'_exptl_absorpt_correction_type' value 'Multi-scan' changed to
'multi-scan' according to
'/home/saulius/struct/CIF-dictionaries/cif_core.dic' dictionary named
'cif_core.dic' version 2.4.1 from 2010-06-29.

Automatic conversion script
Id: cif_fix_enum 1527 2010-12-29 10:47:43Z saulius 

The following automatic conversions were performed:

'_exptl_absorpt_correction_type' value 'Multi-scan' changed to
'multi-scan' according to
/home/saulius/struct/CIF-dictionaries/cif_core.dic dictionary named
'cif_core.dic' version 2.4.1 from 2010-06-29.

Automatic conversion script
Id: cif_fix_values 1715 2011-07-08 13:25:40Z adriana 
;
_cod_database_code               2103057
loop_
_symmetry_equiv_pos_as_xyz
'x, y, z'
'-x, -y, -z'
loop_
_atom_site_type_symbol
_atom_site_label
_atom_site_fract_x
_atom_site_fract_y
_atom_site_fract_z
_atom_site_U_iso_or_equiv
_atom_site_adp_type
_atom_site_calc_flag
_atom_site_refinement_flags
_atom_site_occupancy
N N1 0.4642(3) 0.0776(2) 0.67664(12) 0.0278(4) Uani d . 1
C C2 0.6716(3) 0.0956(3) 0.63740(14) 0.0248(5) Uani d . 1
C C3 0.8860(3) 0.0147(3) 0.69233(15) 0.0271(5) Uani d . 1
N N4 0.8998(3) -0.0863(2) 0.78857(12) 0.0298(4) Uani d . 1
C C5 0.6928(3) -0.1037(3) 0.82780(15) 0.0281(5) Uani d . 1
C C6 0.4765(4) -0.0230(3) 0.77258(15) 0.0276(5) Uani d . 1
C C7 0.6718(3) 0.2071(3) 0.53023(15) 0.0262(5) Uani d . 1
O O7 0.8569(2) 0.2324(2) 0.49320(10) 0.0325(4) Uani d . 1
N N17 0.4543(3) 0.2760(2) 0.48069(12) 0.0267(4) Uani d . 1
C C11 0.3975(3) 0.3849(3) 0.38014(14) 0.0255(5) Uani d . 1
C C12 0.5729(3) 0.4053(3) 0.30741(15) 0.0288(5) Uani d . 1
C C13 0.5035(3) 0.5075(3) 0.20846(15) 0.0293(5) Uani d . 1
C C14 0.2613(3) 0.5896(3) 0.18149(14) 0.0267(5) Uani d . 1
C C141 0.1909(3) 0.6885(3) 0.07300(15) 0.0299(5) Uani d . 1
F F141 -0.0373(2) 0.80723(19) 0.06405(9) 0.0435(4) Uani d . 1
F F142 0.3306(2) 0.79080(18) 0.03048(9) 0.0410(4) Uani d . 1
F F143 0.2095(2) 0.56168(19) 0.01173(9) 0.0421(4) Uani d . 1
C C15 0.0874(3) 0.5709(3) 0.25408(15) 0.0284(5) Uani d . 1
C C16 0.1548(4) 0.4684(3) 0.35307(15) 0.0292(5) Uani d . 1
H H3 1.0286 0.0312 0.6608 0.033 Uiso calc R 1
H H5 0.6928 -0.1738 0.8959 0.034 Uiso calc R 1
H H6 0.3339 -0.0398 0.8040 0.033 Uiso calc R 1
H H17 0.3343 0.2492 0.5157 0.032 Uiso d R 1
H H12 0.7393 0.3495 0.3255 0.035 Uiso calc R 1
H H13 0.6230 0.5211 0.1589 0.035 Uiso calc R 1
H H15 -0.0789 0.6286 0.2360 0.034 Uiso calc R 1
H H16 0.0347 0.4554 0.4024 0.035 Uiso calc R 1
loop_
_atom_site_aniso_label
_atom_site_aniso_U_11
_atom_site_aniso_U_22
_atom_site_aniso_U_33
_atom_site_aniso_U_12
_atom_site_aniso_U_13
_atom_site_aniso_U_23
N1 0.0248(9) 0.0286(9) 0.0296(9) -0.0101(7) 0.0007(7) -0.0028(7)
C2 0.0260(10) 0.0217(10) 0.0277(11) -0.0096(8) 0.0015(8) -0.0048(8)
C3 0.0252(10) 0.0262(10) 0.0294(11) -0.0097(8) 0.0012(8) -0.0023(8)
N4 0.0280(9) 0.0322(10) 0.0284(9) -0.0122(8) -0.0016(7) -0.0004(7)
C5 0.0300(11) 0.0276(11) 0.0266(10) -0.0118(9) -0.0005(8) -0.0010(8)
C6 0.0259(10) 0.0293(11) 0.0279(11) -0.0119(8) 0.0029(8) -0.0022(8)
C7 0.0272(10) 0.0231(10) 0.0289(11) -0.0091(8) -0.0008(8) -0.0047(8)
O7 0.0277(8) 0.0387(9) 0.0313(8) -0.0152(7) 0.0004(6) 0.0003(6)
N17 0.0238(8) 0.0302(9) 0.0252(9) -0.0114(7) 0.0011(7) 0.0006(7)
C11 0.0298(10) 0.0216(10) 0.0259(10) -0.0100(8) -0.0006(8) -0.0039(8)
C12 0.0250(10) 0.0306(11) 0.0298(11) -0.0091(9) 0.0001(8) -0.0041(8)
C13 0.0284(10) 0.0328(11) 0.0279(11) -0.0138(9) 0.0029(8) -0.0034(8)
C14 0.0296(11) 0.0215(10) 0.0286(11) -0.0089(8) -0.0013(8) -0.0030(8)
C141 0.0276(11) 0.0312(11) 0.0294(11) -0.0098(9) -0.0006(8) -0.0027(8)
F141 0.0307(7) 0.0497(8) 0.0347(7) 0.0000(6) -0.0037(5) 0.0043(6)
F142 0.0450(8) 0.0443(8) 0.0334(7) -0.0239(6) -0.0019(6) 0.0093(6)
F143 0.0556(9) 0.0420(8) 0.0295(7) -0.0163(6) -0.0044(6) -0.0073(6)
C15 0.0234(10) 0.0291(11) 0.0322(11) -0.0091(8) -0.0027(8) -0.0035(8)
C16 0.0274(10) 0.0319(11) 0.0297(11) -0.0134(9) 0.0025(8) -0.0034(8)
loop_
_atom_type_symbol
_atom_type_description
_atom_type_scat_dispersion_real
_atom_type_scat_dispersion_imag
_atom_type_scat_source
C C 0.0033 0.0016 'International Tables Vol C Tables 4.2.6.8 and 6.1.1.4'
H H 0.0000 0.0000 'International Tables Vol C Tables 4.2.6.8 and 6.1.1.4'
F F 0.0171 0.0103 'International Tables Vol C Tables 4.2.6.8 and 6.1.1.4'
N N 0.0061 0.0033 'International Tables Vol C Tables 4.2.6.8 and 6.1.1.4'
O O 0.0106 0.0060 'International Tables Vol C Tables 4.2.6.8 and 6.1.1.4'
loop_
_geom_angle_atom_site_label_1
_geom_angle_atom_site_label_2
_geom_angle_atom_site_label_3
_geom_angle
_geom_angle_publ_flag
C6 N1 C2 115.89(17) no
N1 C2 C3 122.16(17) no
N1 C2 C7 118.94(17) no
C3 C2 C7 118.90(17) no
N4 C3 C2 122.31(17) no
N4 C3 H3 118.8 no
C2 C3 H3 118.8 no
C5 N4 C3 115.51(17) no
N4 C5 C6 122.38(18) no
N4 C5 H5 118.8 no
C6 C5 H5 118.8 no
N1 C6 C5 121.75(18) no
N1 C6 H6 119.1 no
C5 C6 H6 119.1 no
O7 C7 N17 124.54(17) no
O7 C7 C2 120.66(17) no
N17 C7 C2 114.80(16) no
C7 N17 C11 128.06(16) no
C7 N17 H17 116.0 no
C11 N17 H17 116.0 no
C16 C11 C12 119.63(18) no
C16 C11 N17 117.31(17) no
C12 C11 N17 123.02(18) no
C13 C12 C11 119.79(19) no
C13 C12 H12 120.1 no
C11 C12 H12 120.1 no
C14 C13 C12 120.45(18) no
C14 C13 H13 119.8 no
C12 C13 H13 119.8 no
C15 C14 C13 119.68(18) no
C15 C14 C141 120.66(18) no
C13 C14 C141 119.58(17) no
F141 C141 F142 107.34(16) no
F141 C141 F143 105.88(17) no
F142 C141 F143 105.67(16) no
F141 C141 C14 112.81(16) no
F142 C141 C14 112.92(17) no
F143 C141 C14 111.71(17) no
C14 C15 C16 120.32(18) no
C14 C15 H15 119.8 no
C16 C15 H15 119.8 no
C15 C16 C11 120.13(18) no
C15 C16 H16 119.9 no
C11 C16 H16 119.9 no
loop_
_geom_bond_atom_site_label_1
_geom_bond_atom_site_label_2
_geom_bond_distance
_geom_bond_publ_flag
N1 C6 1.336(3) no
N1 C2 1.337(2) no
C2 C3 1.381(3) no
C2 C7 1.499(3) no
C3 N4 1.340(2) no
C3 H3 0.95 no
N4 C5 1.333(2) no
C5 C6 1.392(3) no
C5 H5 0.95 no
C6 H6 0.95 no
C7 O7 1.226(2) no
C7 N17 1.363(2) no
N17 C11 1.412(3) no
N17 H17 0.88 no
C11 C16 1.389(3) no
C11 C12 1.395(3) no
C12 C13 1.389(3) no
C12 H12 0.95 no
C13 C14 1.386(3) no
C13 H13 0.95 no
C14 C15 1.385(3) no
C14 C141 1.494(3) no
C141 F141 1.334(2) no
C141 F142 1.336(2) no
C141 F143 1.347(2) no
C15 C16 1.388(3) no
C15 H15 0.95 no
C16 H16 0.95 no
loop_
_geom_hbond_atom_site_label_D
_geom_hbond_atom_site_label_H
_geom_hbond_atom_site_label_A
_geom_hbond_site_symmetry_A
_geom_hbond_distance_DH
_geom_hbond_distance_HA
_geom_hbond_distance_DA
_geom_hbond_angle_DHA
_geom_hbond_publ_flag
N17 H17 N1 . 0.88 2.29 2.719(2) 110 no
C16 H16 O7 1_455 0.95 2.36 3.174(2) 143 no
loop_
_geom_torsion_atom_site_label_1
_geom_torsion_atom_site_label_2
_geom_torsion_atom_site_label_3
_geom_torsion_atom_site_label_4
_geom_torsion
_geom_torsion_publ_flag
C6 N1 C2 C3 0.3(3) no
C6 N1 C2 C7 -179.80(17) no
N1 C2 C3 N4 -0.3(3) no
C7 C2 C3 N4 179.78(18) no
C2 C3 N4 C5 0.1(3) no
C3 N4 C5 C6 0.2(3) no
C2 N1 C6 C5 -0.1(3) no
N4 C5 C6 N1 -0.2(3) no
N1 C2 C7 O7 177.35(18) no
C3 C2 C7 O7 -2.7(3) no
N1 C2 C7 N17 -2.1(3) no
C3 C2 C7 N17 177.83(17) no
O7 C7 N17 C11 0.6(3) no
C2 C7 N17 C11 -179.95(17) no
C7 N17 C11 C16 -168.54(18) no
C7 N17 C11 C12 13.9(3) no
C16 C11 C12 C13 -0.5(3) no
N17 C11 C12 C13 177.02(18) no
C11 C12 C13 C14 0.1(3) no
C12 C13 C14 C15 0.5(3) no
C12 C13 C14 C141 -176.27(18) no
C15 C14 C141 F141 21.9(3) no
C13 C14 C141 F141 -161.33(18) no
C15 C14 C141 F142 143.82(18) no
C13 C14 C141 F142 -39.4(3) no
C15 C14 C141 F143 -97.2(2) no
C13 C14 C141 F143 79.5(2) no
C13 C14 C15 C16 -0.8(3) no
C141 C14 C15 C16 175.95(18) no
C14 C15 C16 C11 0.4(3) no
C12 C11 C16 C15 0.2(3) no
N17 C11 C16 C15 -177.44(18) no
loop_
_cod_related_entry_id
_cod_related_entry_database
_cod_related_entry_code
1 ChemSpider 1044632
