#------------------------------------------------------------------------------
#$Date: 2017-10-13 08:28:26 +0300 (Fri, 13 Oct 2017) $
#$Revision: 201972 $
#$URL: file:///home/coder/svn-repositories/cod/cif/2/10/37/2103708.cif $
#------------------------------------------------------------------------------
#
# This file is available in the Crystallography Open Database (COD),
# http://www.crystallography.net/. The original data for this entry
# were provided by IUCr Journals, http://journals.iucr.org/.
#
# The file may be used within the scientific community so long as
# proper attribution is given to the journal article from which the
# data were obtained.
#
data_2103708
loop_
_publ_author_name
'K\'alm\'an, Alajos'
'Argay, Gyula'
'F\'abi\'an, L\'aszl\'o'
'Bern\'ath, G\'abor'
'F\"ul\"op, Ferenc'
_publ_section_title
;
 Basic forms of supramolecular self-assembly organized by parallel and
 antiparallel hydrogen bonds in the racemic crystal structures of six
 disubstituted and trisubstituted cyclopentane derivatives
;
_journal_issue                   4
_journal_name_full               'Acta Crystallographica Section B'
_journal_page_first              539
_journal_page_last               550
_journal_paper_doi               10.1107/S0108768101006723
_journal_volume                  57
_journal_year                    2001
_chemical_formula_sum            'C6 H11 N O2'
_chemical_formula_weight         129.16
_chemical_name_systematic
;
 trans(1S*,2S*)-2-hydroxy-1-cyclopentanecarboxamide
;
_space_group_IT_number           29
_symmetry_cell_setting           orthorhombic
_symmetry_space_group_name_Hall  'P 2c -2ac'
_symmetry_space_group_name_H-M   'P c a 21'
_audit_creation_method           SHELXL-97
_cell_angle_alpha                90.00
_cell_angle_beta                 90.00
_cell_angle_gamma                90.00
_cell_formula_units_Z            4
_cell_length_a                   9.879(2)
_cell_length_b                   8.410(2)
_cell_length_c                   8.250(2)
_cell_measurement_reflns_used    25
_cell_measurement_temperature    293(2)
_cell_measurement_theta_max      24.14
_cell_measurement_theta_min      17.48
_cell_volume                     685.4(3)
_computing_cell_refinement       'CAD4 Express (Enraf-Nonius, 1992)'
_computing_data_collection       'CAD4 Express (Enraf-Nonius, 1992)'
_computing_data_reduction        'XCAD4 (Harms 1996)'
_computing_molecular_graphics
;
 PLUTO in CSD(Allen F.H & Kennard O.(1993)) and PLATON(Spek A.L(1998))
;
_computing_structure_refinement  'SHELXL-97 (Sheldrick, 1997)'
_computing_structure_solution    'SHELXS-97 (Sheldrick, 1997a)'
_diffrn_ambient_temperature      293(2)
_diffrn_measured_fraction_theta_full 1.000
_diffrn_measured_fraction_theta_max 1.000
_diffrn_measurement_device_type  'Enraf-Nonius CAD4'
_diffrn_measurement_method       \w--2\q
_diffrn_radiation_monochromator  graphite
_diffrn_radiation_source         'fine-focus sealed tube'
_diffrn_radiation_type           CuK\a
_diffrn_radiation_wavelength     1.54178
_diffrn_reflns_av_R_equivalents  .0089
_diffrn_reflns_av_sigmaI/netI    .0249
_diffrn_reflns_limit_h_max       12
_diffrn_reflns_limit_h_min       -12
_diffrn_reflns_limit_k_max       10
_diffrn_reflns_limit_k_min       -10
_diffrn_reflns_limit_l_max       10
_diffrn_reflns_limit_l_min       -9
_diffrn_reflns_number            1569
_diffrn_reflns_theta_full        74.78
_diffrn_reflns_theta_max         74.78
_diffrn_reflns_theta_min         5.26
_diffrn_standards_interval_time  60
_diffrn_standards_number         3
_exptl_absorpt_coefficient_mu    .775
_exptl_absorpt_correction_T_max  1.000
_exptl_absorpt_correction_T_min  .944
_exptl_absorpt_correction_type   psi-scan
_exptl_absorpt_process_details
'North A.C., Philips, D.C. & Mathews, F.(1968) Acta Cryst. A24, 350-359.'
_exptl_crystal_colour            colourless
_exptl_crystal_density_diffrn    1.252
_exptl_crystal_density_method    'not measured'
_exptl_crystal_description       block
_exptl_crystal_F_000             280
_exptl_crystal_size_max          .15
_exptl_crystal_size_mid          .12
_exptl_crystal_size_min          .05
_refine_diff_density_max         .127
_refine_diff_density_min         -.134
_refine_ls_abs_structure_details 'Flack H D (1983), Acta Cryst. A39, 876-881'
_refine_ls_abs_structure_Flack   .1(3)
_refine_ls_extinction_method     none
_refine_ls_goodness_of_fit_ref   .860
_refine_ls_hydrogen_treatment    mixed
_refine_ls_matrix_type           full
_refine_ls_number_parameters     83
_refine_ls_number_reflns         1375
_refine_ls_number_restraints     1
_refine_ls_restrained_S_all      .860
_refine_ls_R_factor_all          .0479
_refine_ls_R_factor_gt           .0340
_refine_ls_shift/su_max          .000
_refine_ls_shift/su_mean         .000
_refine_ls_structure_factor_coef Fsqd
_refine_ls_weighting_details
'calc w=1/[\s^2^(Fo^2^)+(0.1000P)^2^+0.0000P] where P=(Fo^2^+2Fc^2^)/3'
_refine_ls_weighting_scheme      calc
_refine_ls_wR_factor_ref         .1133
_reflns_number_gt                1145
_reflns_number_total             1375
_reflns_threshold_expression     >2sigma(I)
_cod_data_source_file            de0011.cif
_cod_data_source_block           2
_cod_original_formula_sum        'C6 H11 N1 O2'
_cod_database_code               2103708
_cod_database_fobs_code          2103708
loop_
_symmetry_equiv_pos_as_xyz
'x, y, z'
'-x, -y, z+1/2'
'x+1/2, -y, z'
'-x+1/2, y, z+1/2'
loop_
_atom_site_label
_atom_site_fract_x
_atom_site_fract_y
_atom_site_fract_z
_atom_site_U_iso_or_equiv
_atom_site_adp_type
_atom_site_calc_flag
_atom_site_refinement_flags
_atom_site_occupancy
_atom_site_type_symbol
C1 .05343(18) .2870(2) .2612(2) .0387(4) Uani d . 1 C
H1 .1094 .3291 .3494 .050 Uiso calc R 1 H
C2 -.02949(17) .1463(2) .3261(2) .0407(4) Uani d . 1 C
H2 -.0697 .0875 .2356 .053 Uiso calc R 1 H
C3 -.1409(3) .2272(3) .4250(4) .0672(7) Uani d . 1 C
H3A -.2204 .1599 .4320 .087 Uiso calc R 1 H
H3B -.1095 .2507 .5338 .087 Uiso calc R 1 H
C4 -.1724(2) .3786(3) .3338(4) .0696(7) Uani d . 1 C
H4A -.1826 .4665 .4089 .090 Uiso calc R 1 H
H4B -.2560 .3669 .2734 .090 Uiso calc R 1 H
C5 -.0542(2) .4102(3) .2178(3) .0605(6) Uani d . 1 C
H5A -.0829 .3978 .1060 .079 Uiso calc R 1 H
H5B -.0194 .5171 .2325 .079 Uiso calc R 1 H
C6 .14426(18) .2349(2) .1256(2) .0373(4) Uani d . 1 C
O1 .05542(15) .04453(19) .4167(2) .0533(4) Uani d . 1 O
H1A .0128 -.0347 .4441 .069 Uiso calc R 1 H
O2 .09957(15) .21887(19) -.01527(15) .0482(4) Uani d . 1 O
N3 .27140(16) .2017(2) .1626(2) .0482(4) Uani d . 1 N
H3C .3258 .1680 .0888 .063 Uiso calc R 1 H
H3D .2997 .2137 .2604 .063 Uiso calc R 1 H
loop_
_atom_site_aniso_label
_atom_site_aniso_U_11
_atom_site_aniso_U_22
_atom_site_aniso_U_33
_atom_site_aniso_U_12
_atom_site_aniso_U_13
_atom_site_aniso_U_23
C1 .0425(9) .0372(8) .0364(9) -.0037(7) .0012(7) -.0010(7)
C2 .0416(8) .0429(9) .0375(9) -.0074(7) .0013(8) .0012(8)
C3 .0529(13) .0730(16) .0758(17) -.0035(11) .0223(12) -.0049(14)
C4 .0508(10) .0718(15) .0862(18) .0088(11) .0064(12) -.0150(14)
C5 .0594(12) .0530(12) .0691(14) .0126(10) .0032(11) .0071(11)
C6 .0447(9) .0332(8) .0341(8) -.0062(6) .0023(8) .0003(7)
O1 .0543(7) .0527(8) .0530(8) -.0143(6) -.0073(7) .0157(7)
O2 .0520(7) .0593(9) .0334(7) -.0092(6) -.0039(6) -.0008(6)
N3 .0449(9) .0651(10) .0345(7) .0063(7) .0021(7) -.0007(7)
loop_
_atom_type_symbol
_atom_type_description
_atom_type_scat_dispersion_real
_atom_type_scat_dispersion_imag
_atom_type_scat_source
C C .0181 .0091 'International Tables Vol C Tables 4.2.6.8 and 6.1.1.4'
H H .0000 .0000 'International Tables Vol C Tables 4.2.6.8 and 6.1.1.4'
N N .0311 .0180 'International Tables Vol C Tables 4.2.6.8 and 6.1.1.4'
O O .0492 .0322 'International Tables Vol C Tables 4.2.6.8 and 6.1.1.4'
loop_
_geom_angle_atom_site_label_1
_geom_angle_atom_site_label_2
_geom_angle_atom_site_label_3
_geom_angle
C6 C1 C5 116.08(18)
C6 C1 C2 110.77(15)
C5 C1 C2 103.49(16)
O1 C2 C1 109.55(14)
O1 C2 C3 114.49(18)
C1 C2 C3 103.12(17)
C4 C3 C2 104.9(2)
C3 C4 C5 107.47(19)
C1 C5 C4 105.4(2)
O2 C6 N3 121.79(18)
O2 C6 C1 120.91(17)
N3 C6 C1 117.25(16)
loop_
_geom_bond_atom_site_label_1
_geom_bond_atom_site_label_2
_geom_bond_distance
C1 C6 1.499(3)
C1 C5 1.528(3)
C1 C2 1.535(2)
C2 O1 1.412(2)
C2 C3 1.529(3)
C3 C4 1.512(4)
C4 C5 1.533(4)
C6 O2 1.251(2)
C6 N3 1.322(3)
loop_
_geom_hbond_atom_site_label_D
_geom_hbond_atom_site_label_H
_geom_hbond_atom_site_label_A
_geom_hbond_site_symmetry_A
_geom_hbond_distance_DH
_geom_hbond_distance_HA
_geom_hbond_distance_DA
_geom_hbond_angle_DHA
O1 H1A O2 2 .82 1.93 2.751(2) 173.2
N3 H3C O1 4_554 .86 2.11 2.964(2) 169.7
N3 H3D O2 4 .86 2.10 2.951(2) 169.3
loop_
_geom_torsion_atom_site_label_1
_geom_torsion_atom_site_label_2
_geom_torsion_atom_site_label_3
_geom_torsion_atom_site_label_4
_geom_torsion
C6 C1 C2 O1 73.10(19)
C5 C1 C2 O1 -161.83(18)
C6 C1 C2 C3 -164.59(19)
C5 C1 C2 C3 -39.5(2)
O1 C2 C3 C4 153.89(19)
C1 C2 C3 C4 35.0(2)
C2 C3 C4 C5 -17.1(3)
C6 C1 C5 C4 150.6(2)
C2 C1 C5 C4 29.0(2)
C3 C4 C5 C1 -7.5(3)
C5 C1 C6 O2 -36.9(3)
C2 C1 C6 O2 80.7(2)
C5 C1 C6 N3 145.42(18)
C2 C1 C6 N3 -96.97(19)
loop_
_cod_related_entry_id
_cod_related_entry_database
_cod_related_entry_code
1 ChemSpider 10642204
