#------------------------------------------------------------------------------
#$Date: 2016-02-20 02:53:41 +0200 (Sat, 20 Feb 2016) $
#$Revision: 176768 $
#$URL: svn://www.crystallography.net/cod/cif/2/10/37/2103715.cif $
#------------------------------------------------------------------------------
#
# This file is available in the Crystallography Open Database (COD),
# http://www.crystallography.net/. The original data for this entry
# were provided by IUCr Journals, http://journals.iucr.org/.
#
# The file may be used within the scientific community so long as
# proper attribution is given to the journal article from which the
# data were obtained.
#
data_2103715
loop_
_publ_author_name
'Lenstra, A. T. H.'
'Kataeva, O. N.'
_publ_section_title
;
 Structures of copper(II) and manganese(II) di(hydrogen malonate)
 dihydrate; effects of intensity profile truncation and background
 modelling on structure models
;
_journal_issue                   4
_journal_name_full               'Acta Crystallographica Section B'
_journal_page_first              497
_journal_page_last               506
_journal_paper_doi               10.1107/S0108768101004050
_journal_volume                  57
_journal_year                    2001
_chemical_formula_moiety         'C6 H10 Cu O10'
_chemical_formula_sum            'C6 H10 Cu O10'
_chemical_formula_weight         305.68
_chemical_name_systematic        ' Copper(II) bis(hydrogenmalonate) dihydrate'
_space_group_IT_number           14
_symmetry_cell_setting           monoclinic
_symmetry_space_group_name_Hall  '-P 2yn'
_symmetry_space_group_name_H-M   'P 1 21/n 1'
_cell_angle_alpha                90.00
_cell_angle_beta                 100.88(2)
_cell_angle_gamma                90.00
_cell_formula_units_Z            2
_cell_length_a                   7.0655(7)
_cell_length_b                   7.5017(8)
_cell_length_c                   9.6760(10)
_cell_measurement_reflns_used    25
_cell_measurement_temperature    294
_cell_measurement_theta_max      23.0
_cell_measurement_theta_min      10.0
_cell_volume                     503.64(10)
_computing_cell_refinement       CAD4_(Enraf-Nonius,_1994)
_computing_data_collection       CAD4_(Enraf-Nonius,_1994)
_computing_data_reduction        process_MolEN_(Fair,_1990)
_computing_molecular_graphics    Platon_(Spek,_2000)
_computing_publication_material  BTABLE_PTABLE_CIF_IN_MolEN_(Fair,_1990)
_computing_structure_refinement  LSFM_MolEN_(Fair,_1990)
_computing_structure_solution    Patterson_and_Fourier
_diffrn_ambient_temperature      294
_diffrn_measurement_device_type  Enraf_Nonius_CAD4
_diffrn_measurement_method       \w/2\q
_diffrn_radiation_monochromator  graphite
_diffrn_radiation_type           Mo-K\a
_diffrn_radiation_wavelength     .71073
_diffrn_reflns_av_R_equivalents  0
_diffrn_reflns_av_sigmaI/netI    0
_diffrn_reflns_limit_h_max       14
_diffrn_reflns_limit_h_min       0
_diffrn_reflns_limit_k_max       14
_diffrn_reflns_limit_k_min       0
_diffrn_reflns_limit_l_max       19
_diffrn_reflns_limit_l_min       -19
_diffrn_reflns_number            4333
_diffrn_reflns_theta_max         44.95
_diffrn_reflns_theta_min         1.5
_diffrn_standards_decay_%        0
_diffrn_standards_interval_time  120
_diffrn_standards_number         3
_exptl_absorpt_coefficient_mu    2.216
_exptl_absorpt_correction_T_max  1.0
_exptl_absorpt_correction_T_min  .90
_exptl_absorpt_correction_type   psi-scan
_exptl_absorpt_process_details   'North et al. (1968)'
_exptl_crystal_colour            blue
_exptl_crystal_density_diffrn    2.02
_exptl_crystal_density_method    none
_exptl_crystal_description       prism
_exptl_crystal_F_000             310
_exptl_crystal_size_max          .20
_exptl_crystal_size_mid          .20
_exptl_crystal_size_min          .20
_refine_diff_density_max         1.088
_refine_diff_density_min         -1.835
_refine_ls_abs_structure_details
' 'weight  4Fo^2^/(\s^2^(Fo^2^) + 0.0001 Fo^4^)''
_refine_ls_extinction_method     none
_refine_ls_goodness_of_fit_all   4.114
_refine_ls_goodness_of_fit_ref   4.108
_refine_ls_hydrogen_treatment    refall
_refine_ls_matrix_type           full
_refine_ls_number_constraints    0
_refine_ls_number_parameters     99
_refine_ls_number_reflns         4117
_refine_ls_number_restraints     0
_refine_ls_R_factor_all          .083
_refine_ls_R_factor_gt           .083
_refine_ls_shift/esd_mean        .020
_refine_ls_shift/su_max          .05
_refine_ls_structure_factor_coef F
_refine_ls_weighting_scheme      sigma
_refine_ls_wR_factor_all         .065
_refine_ls_wR_factor_ref         .064
_reflns_number_gt                4117
_reflns_number_total             4117
_reflns_threshold_expression     >0.0\s(I)
_cod_data_source_file            lc0029.cif
_cod_data_source_block           Cu294K
_cod_depositor_comments
;
The following automatic conversions were performed:
'_exptl_absorpt_correction_type' value 'psi_scan' changed to 'psi-scan'
according to '/home/saulius/struct/CIF-dictionaries/cif_core.dic'
dictionary named 'cif_core.dic' version 2.4.1 from 2010-06-29.

Automatic conversion script
Id: cif_fix_enum 1527 2010-12-29 10:47:43Z saulius 

The following automatic conversions were performed:

'_exptl_absorpt_correction_type' value 'psi_scan' changed to
'psi-scan' according to
/home/saulius/struct/CIF-dictionaries/cif_core.dic dictionary named
'cif_core.dic' version 2.4.1 from 2010-06-29.

Automatic conversion script
Id: cif_fix_values 1715 2011-07-08 13:25:40Z adriana 
;
_cod_original_cell_volume        503.6(2)
_cod_database_code               2103715
_cod_database_fobs_code          2103715
loop_
_symmetry_equiv_pos_as_xyz
x,y,z
1/2-x,1/2+y,1/2-z
-x,-y,-z
1/2+x,1/2-y,1/2+z
loop_
_atom_site_label
_atom_site_fract_x
_atom_site_fract_y
_atom_site_fract_z
_atom_site_U_iso_or_equiv
_atom_site_adp_type
_atom_site_type_symbol
Cu1 1.0000 .0000 1.0000 .01851(9) Uani Cu
O1 .7338(2) .4889(2) .9444(2) .0322(6) Uani O
O2 .9134(2) .24750(10) 1.01330(10) .0233(4) Uani O
O3 .4451(2) -.0606(2) .7995(2) .0279(5) Uani O
O4 .7488(2) -.08100(10) .90620(10) .0221(4) Uani O
Ow 1.0838(2) .0884(2) .77230(10) .0264(5) Uani O
C1 .7609(2) .3142(2) .94710(10) .0176(4) Uani C
C3 .5996(2) .0093(2) .8578(2) .0183(5) Uani C
C2 .5960(2) .2097(2) .8651(2) .0270(7) Uani C
H1w 1.087(3) .180(3) .762(2) .049(7) Uiso H
H2_1 .588(5) .224(4) .777(3) .100(10) Uiso H
H2w 1.198(4) .054(3) .778(3) .048(7) Uiso H
H2_2 .480(6) .229(5) .914(4) .130(10) Uiso H
H1_1 .8372 .5798 1.0037 .0909 Uiso H
loop_
_atom_site_aniso_label
_atom_site_aniso_U_11
_atom_site_aniso_U_22
_atom_site_aniso_U_33
_atom_site_aniso_U_12
_atom_site_aniso_U_13
_atom_site_aniso_U_23
_atom_site_aniso_type_symbol
Cu1 .01515(8) .01567(9) .02670(10) .00193(7) -.00413(8) -.00311(8) Cu
O1 .0277(6) .0240(5) .0503(8) .0029(4) -.0054(6) -.0073(5) O
O2 .0201(4) .0188(4) .0335(5) .0035(4) -.0070(4) -.0057(4) O
O3 .0172(4) .0213(4) .0591(8) -.0011(4) -.0054(5) -.0079(5) O
O4 .0173(4) .0188(4) .0333(5) .0018(4) -.0036(4) -.0033(4) O
Ow .0221(4) .0230(5) .0361(5) .0000(4) .0041(4) .0015(4) O
C1 .0169(4) .0179(5) .0181(4) .0010(4) .0015(4) -.0006(4) C
C3 .0148(4) .0178(5) .0234(5) -.0008(4) .0008(4) -.0018(4) C
C2 .0253(6) .0175(5) .0444(8) -.0011(5) -.0134(6) .0016(6) C
loop_
_atom_type_symbol
_atom_type_scat_dispersion_real
_atom_type_scat_dispersion_imag
_atom_type_scat_source
C .002 .002 International_Tables_Vol_IV_Table_2.3.1
H .000 .000 International_Tables_Vol_IV_Table_2.3.1
O .008 .006 International_Tables_Vol_IV_Table_2.3.1
Cu .263 1.266 International_Tables_Vol_IV_Table_2.3.1
loop_
_diffrn_standard_refln_index_h
_diffrn_standard_refln_index_k
_diffrn_standard_refln_index_l
4 0 0
0 4 0
0 0 8
loop_
_geom_angle_atom_site_label_1
_geom_angle_atom_site_label_2
_geom_angle_atom_site_label_3
_geom_angle
O2 Cu1 O4 93.34(5)
C1 O1 H1_1 122.20(10)
H1w Ow H2w 104(2)
O1 C1 O2 120.90(10)
O1 C1 C2 114.30(10)
O2 C1 C2 124.80(10)
O3 C3 O4 122.60(10)
O3 C3 C2 114.90(10)
O4 C3 C2 122.50(10)
C1 C2 C3 121.90(10)
C1 C2 H2_1 111(2)
C1 C2 H2_2 106.0(10)
C3 C2 H2_1 94.0(10)
C3 C2 H2_2 100.0(10)
H2_1 C2 H2_2 122(3)
loop_
_geom_bond_atom_site_label_1
_geom_bond_atom_site_label_2
_geom_bond_distance
Cu1 O2 1.9670(10)
Cu1 O4 1.9330(10)
O1 C1 1.324(2)
O1 H1_1 1.0820(10)
O2 C1 1.249(2)
O3 C3 1.246(2)
O4 C3 1.267(2)
Ow H1w .70(2)
Ow H2w .84(3)
C1 C2 1.501(2)
C3 C2 1.505(2)
C2 H2_1 .85(3)
C2 H2_2 1.03(4)
