#------------------------------------------------------------------------------
#$Date: 2017-10-13 08:28:26 +0300 (Fri, 13 Oct 2017) $
#$Revision: 201972 $
#$URL: file:///home/coder/svn-repositories/cod/cif/2/10/34/2103430.cif $
#------------------------------------------------------------------------------
#
# This file is available in the Crystallography Open Database (COD),
# http://www.crystallography.net/. The original data for this entry
# were provided by IUCr Journals, http://journals.iucr.org/.
#
# The file may be used within the scientific community so long as
# proper attribution is given to the journal article from which the
# data were obtained.
#
data_2103430
loop_
_publ_author_name
'K\'alm\'an, Alajos'
'F\'abi\'an, L\'aszl\'o'
'Argay, Gyula'
'Bern\'ath, G\'abor'
'Gyarmati, Zsuzsanna'
_publ_section_title
;
 Predictable close-packing similarities between <i>cis</i>- and
 <i>trans</i>-2-hydroxy-1-cyclooctanecarboxylic acids and
 <i>trans</i>-2-hydroxy-1-cyclooctanecarboxamide
;
_journal_issue                   5
_journal_name_full               'Acta Crystallographica Section B'
_journal_page_first              855
_journal_page_last               863
_journal_paper_doi               10.1107/S0108768102009631
_journal_volume                  58
_journal_year                    2002
_chemical_formula_moiety         'C9 H17 N O2'
_chemical_formula_sum            'C9 H17 N O2'
_chemical_formula_weight         171.24
_chemical_name_systematic
;
 (1R*,2R*)-trans-2-hydroxy-1-cyclooctanecarboxamide
 ?
;
_space_group_IT_number           2
_symmetry_cell_setting           triclinic
_symmetry_space_group_name_Hall  '-P 1'
_symmetry_space_group_name_H-M   'P -1'
_atom_sites_solution_hydrogens   geom
_atom_sites_solution_primary     direct
_atom_sites_solution_secondary   difmap
_audit_creation_method           SHELXL-97
_cell_angle_alpha                79.220(10)
_cell_angle_beta                 74.120(10)
_cell_angle_gamma                69.450(10)
_cell_formula_units_Z            2
_cell_length_a                   6.7600(10)
_cell_length_b                   7.3140(10)
_cell_length_c                   11.2170(10)
_cell_measurement_reflns_used    25
_cell_measurement_temperature    293(2)
_cell_measurement_theta_max      14.35
_cell_measurement_theta_min      12.04
_cell_volume                     496.93(12)
_computing_cell_refinement       'CAD4 Express'
_computing_data_collection       'CAD4 Express'
_computing_data_reduction        'XCAD4 (Harms 1996)'
_computing_structure_refinement  'SHELXL-97 (Sheldrick, 1997)'
_computing_structure_solution    'SHELXS-97 (Sheldrick, 1997)'
_diffrn_ambient_temperature      293(2)
_diffrn_measured_fraction_theta_full 0.999
_diffrn_measured_fraction_theta_max 0.999
_diffrn_measurement_device_type  'Enraf-Nonius CAD4'
_diffrn_measurement_method       \w--2\q
_diffrn_radiation_monochromator  graphite
_diffrn_radiation_source         'fine-focus sealed tube'
_diffrn_radiation_type           'MO k\a'
_diffrn_radiation_wavelength     0.710730
_diffrn_reflns_av_R_equivalents  0.0257
_diffrn_reflns_av_sigmaI/netI    0.0574
_diffrn_reflns_limit_h_max       8
_diffrn_reflns_limit_h_min       -8
_diffrn_reflns_limit_k_max       9
_diffrn_reflns_limit_k_min       -9
_diffrn_reflns_limit_l_max       13
_diffrn_reflns_limit_l_min       -13
_diffrn_reflns_number            4315
_diffrn_reflns_theta_full        25.99
_diffrn_reflns_theta_max         25.99
_diffrn_reflns_theta_min         2.99
_diffrn_standards_decay_%        2
_diffrn_standards_interval_time  60
_diffrn_standards_number         3
_exptl_absorpt_coefficient_mu    0.080
_exptl_absorpt_correction_T_max  0.9946
_exptl_absorpt_correction_T_min  0.8932
_exptl_absorpt_correction_type   psi-scan
_exptl_crystal_colour            colourless
_exptl_crystal_density_diffrn    1.144
_exptl_crystal_density_method    'not measured'
_exptl_crystal_description       prism
_exptl_crystal_F_000             188
_exptl_crystal_size_max          0.30
_exptl_crystal_size_mid          0.25
_exptl_crystal_size_min          0.02
_refine_diff_density_max         0.163
_refine_diff_density_min         -0.141
_refine_ls_extinction_method     none
_refine_ls_goodness_of_fit_ref   0.837
_refine_ls_hydrogen_treatment    riding
_refine_ls_matrix_type           full
_refine_ls_number_parameters     110
_refine_ls_number_reflns         1941
_refine_ls_number_restraints     146
_refine_ls_restrained_S_all      0.812
_refine_ls_R_factor_all          0.1043
_refine_ls_R_factor_gt           0.0431
_refine_ls_shift/su_max          0.000
_refine_ls_shift/su_mean         0.000
_refine_ls_structure_factor_coef Fsqd
_refine_ls_weighting_details
'calc w=1/[\s^2^(Fo^2^)+(0.1000P)^2^+0.0000P] where P=(Fo^2^+2Fc^2^)/3'
_refine_ls_weighting_scheme      calc
_refine_ls_wR_factor_gt          0.1225
_refine_ls_wR_factor_ref         0.1464
_reflns_number_gt                989
_reflns_number_total             1941
_reflns_threshold_expression     >2sigma(I)
_cod_data_source_file            de0017.cif
_cod_data_source_block           8Tstar
_cod_original_cell_volume        496.93(11)
_cod_original_sg_symbol_H-M      P-1
_cod_database_code               2103430
_cod_database_fobs_code          2103430
loop_
_symmetry_equiv_pos_as_xyz
'x, y, z'
'-x, -y, -z'
loop_
_atom_site_label
_atom_site_fract_x
_atom_site_fract_y
_atom_site_fract_z
_atom_site_U_iso_or_equiv
_atom_site_adp_type
_atom_site_calc_flag
_atom_site_refinement_flags
_atom_site_occupancy
_atom_site_type_symbol
O1 0.7699(2) 0.3358(2) 0.52719(13) 0.0553(4) Uani d U 1 O
H1 0.6963 0.3068 0.4911 0.072 Uiso calc R 1 H
O2 0.4304(2) 0.79742(19) 0.60322(14) 0.0552(4) Uani d U 1 O
N1 0.7632(3) 0.8183(2) 0.52684(17) 0.0550(5) Uani d U 1 N
H1B 0.7152 0.9264 0.4825 0.071 Uiso calc R 1 H
H1C 0.8997 0.7686 0.5245 0.071 Uiso calc R 1 H
C1 0.7208(3) 0.5425(3) 0.67721(19) 0.0455(5) Uani d U 1 C
H1A 0.8794 0.5032 0.6519 0.059 Uiso calc R 1 H
C2 0.6472(3) 0.3823(3) 0.65028(19) 0.0497(5) Uani d U 1 C
H2 0.4946 0.4419 0.6459 0.065 Uiso calc R 1 H
C3 0.6631(4) 0.2002(3) 0.7427(2) 0.0630(6) Uani d U 1 C
H3A 0.5780 0.2422 0.8235 0.082 Uiso calc R 1 H
H3B 0.5941 0.1215 0.7183 0.082 Uiso calc R 1 H
C4 0.8849(4) 0.0676(3) 0.7595(3) 0.0708(7) Uani d U 1 C
H4A 0.9677 0.0190 0.6800 0.092 Uiso calc R 1 H
H4B 0.8660 -0.0447 0.8172 0.092 Uiso calc R 1 H
C5 1.0213(4) 0.1550(4) 0.8062(3) 0.0758(8) Uani d U 1 C
H5A 1.1439 0.0489 0.8286 0.099 Uiso calc R 1 H
H5B 1.0784 0.2394 0.7383 0.099 Uiso calc R 1 H
C6 0.9013(5) 0.2732(4) 0.9180(3) 0.0872(9) Uani d U 1 C
H6A 0.9957 0.2398 0.9756 0.113 Uiso calc R 1 H
H6B 0.7754 0.2327 0.9604 0.113 Uiso calc R 1 H
C7 0.8258(5) 0.4964(4) 0.8882(2) 0.0793(8) Uani d U 1 C
H7A 0.7742 0.5544 0.9665 0.103 Uiso calc R 1 H
H7B 0.9518 0.5347 0.8425 0.103 Uiso calc R 1 H
C8 0.6510(4) 0.5874(3) 0.8147(2) 0.0638(6) Uani d U 1 C
H8A 0.6021 0.7286 0.8166 0.083 Uiso calc R 1 H
H8B 0.5285 0.5415 0.8559 0.083 Uiso calc R 1 H
C9 0.6286(3) 0.7294(3) 0.59782(18) 0.0436(5) Uani d U 1 C
loop_
_atom_site_aniso_label
_atom_site_aniso_U_11
_atom_site_aniso_U_22
_atom_site_aniso_U_33
_atom_site_aniso_U_12
_atom_site_aniso_U_13
_atom_site_aniso_U_23
O1 0.0512(8) 0.0545(10) 0.0644(10) -0.0112(7) -0.0224(7) -0.0130(7)
O2 0.0439(8) 0.0441(8) 0.0742(10) -0.0057(6) -0.0221(7) -0.0010(7)
N1 0.0496(10) 0.0415(10) 0.0670(12) -0.0095(8) -0.0187(9) 0.0093(9)
C1 0.0469(11) 0.0388(11) 0.0511(12) -0.0100(9) -0.0177(9) -0.0023(9)
C2 0.0432(10) 0.0438(11) 0.0594(13) -0.0078(9) -0.0167(10) -0.0033(10)
C3 0.0656(14) 0.0465(13) 0.0777(16) -0.0201(11) -0.0193(12) 0.0007(11)
C4 0.0827(16) 0.0475(13) 0.0781(17) -0.0155(12) -0.0291(14) 0.0095(12)
C5 0.0811(17) 0.0616(16) 0.0823(18) -0.0118(13) -0.0406(15) 0.0099(14)
C6 0.117(2) 0.0747(19) 0.0737(18) -0.0218(17) -0.0511(16) 0.0096(15)
C7 0.112(2) 0.0728(18) 0.0606(16) -0.0252(16) -0.0388(15) -0.0034(13)
C8 0.0838(16) 0.0481(13) 0.0564(15) -0.0152(12) -0.0179(12) -0.0059(11)
C9 0.0489(11) 0.0357(10) 0.0473(12) -0.0070(9) -0.0183(9) -0.0081(9)
loop_
_atom_type_symbol
_atom_type_description
_atom_type_scat_dispersion_real
_atom_type_scat_dispersion_imag
_atom_type_scat_source
C C 0.0033 0.0016 'International Tables Vol C Tables 4.2.6.8 and 6.1.1.4'
H H 0.0000 0.0000 'International Tables Vol C Tables 4.2.6.8 and 6.1.1.4'
N N 0.0061 0.0033 'International Tables Vol C Tables 4.2.6.8 and 6.1.1.4'
O O 0.0106 0.0060 'International Tables Vol C Tables 4.2.6.8 and 6.1.1.4'
loop_
_geom_angle_atom_site_label_1
_geom_angle_atom_site_label_2
_geom_angle_atom_site_label_3
_geom_angle
C2 O1 H1 109.5
C9 N1 H1B 120.0
C9 N1 H1C 120.0
H1B N1 H1C 120.0
C9 C1 C2 107.95(16)
C9 C1 C8 108.31(16)
C2 C1 C8 115.21(18)
C9 C1 H1A 108.4
C2 C1 H1A 108.4
C8 C1 H1A 108.4
O1 C2 C3 112.02(18)
O1 C2 C1 104.85(16)
C3 C2 C1 117.76(18)
O1 C2 H2 107.2
C3 C2 H2 107.2
C1 C2 H2 107.2
C4 C3 C2 118.8(2)
C4 C3 H3A 107.6
C2 C3 H3A 107.6
C4 C3 H3B 107.6
C2 C3 H3B 107.6
H3A C3 H3B 107.1
C3 C4 C5 117.7(2)
C3 C4 H4A 107.9
C5 C4 H4A 107.9
C3 C4 H4B 107.9
C5 C4 H4B 107.9
H4A C4 H4B 107.2
C6 C5 C4 115.2(2)
C6 C5 H5A 108.5
C4 C5 H5A 108.5
C6 C5 H5B 108.5
C4 C5 H5B 108.5
H5A C5 H5B 107.5
C5 C6 C7 115.7(2)
C5 C6 H6A 108.4
C7 C6 H6A 108.4
C5 C6 H6B 108.4
C7 C6 H6B 108.4
H6A C6 H6B 107.4
C8 C7 C6 118.3(2)
C8 C7 H7A 107.7
C6 C7 H7A 107.7
C8 C7 H7B 107.7
C6 C7 H7B 107.7
H7A C7 H7B 107.1
C7 C8 C1 115.1(2)
C7 C8 H8A 108.5
C1 C8 H8A 108.5
C7 C8 H8B 108.5
C1 C8 H8B 108.5
H8A C8 H8B 107.5
O2 C9 N1 121.56(17)
O2 C9 C1 120.54(18)
N1 C9 C1 117.87(16)
loop_
_geom_bond_atom_site_label_1
_geom_bond_atom_site_label_2
_geom_bond_distance
O1 C2 1.436(2)
O1 H1 0.8200
O2 C9 1.243(2)
N1 C9 1.307(3)
N1 H1B 0.8600
N1 H1C 0.8600
C1 C9 1.517(3)
C1 C2 1.528(3)
C1 C8 1.546(3)
C1 H1A 0.9800
C2 C3 1.518(3)
C2 H2 0.9800
C3 C4 1.513(3)
C3 H3A 0.9700
C3 H3B 0.9700
C4 C5 1.529(4)
C4 H4A 0.9700
C4 H4B 0.9700
C5 C6 1.527(4)
C5 H5A 0.9700
C5 H5B 0.9700
C6 C7 1.530(4)
C6 H6A 0.9700
C6 H6B 0.9700
C7 C8 1.515(3)
C7 H7A 0.9700
C7 H7B 0.9700
C8 H8A 0.9700
C8 H8B 0.9700
loop_
_geom_hbond_atom_site_label_D
_geom_hbond_atom_site_label_H
_geom_hbond_atom_site_label_A
_geom_hbond_site_symmetry_A
_geom_hbond_distance_DH
_geom_hbond_distance_HA
_geom_hbond_distance_DA
_geom_hbond_angle_DHA
O1 H1 O2 2_666 0.82 1.92 2.732(2) 170.0
N1 H1B O2 2_676 0.86 2.09 2.945(2) 172.3
N1 H1C O1 2_766 0.86 2.04 2.883(2) 165.9
loop_
_geom_torsion_atom_site_label_1
_geom_torsion_atom_site_label_2
_geom_torsion_atom_site_label_3
_geom_torsion_atom_site_label_4
_geom_torsion
C9 C1 C2 O1 71.69(18)
C8 C1 C2 O1 -167.14(16)
C9 C1 C2 C3 -163.01(18)
C8 C1 C2 C3 -41.8(3)
O1 C2 C3 C4 57.1(3)
C1 C2 C3 C4 -64.6(3)
C2 C3 C4 C5 61.3(3)
C3 C4 C5 C6 46.7(3)
C4 C5 C6 C7 -100.3(3)
C5 C6 C7 C8 66.8(4)
C6 C7 C8 C1 -68.7(3)
C9 C1 C8 C7 -138.0(2)
C2 C1 C8 C7 101.0(2)
C2 C1 C9 O2 55.2(2)
C8 C1 C9 O2 -70.2(2)
C2 C1 C9 N1 -126.63(19)
C8 C1 C9 N1 108.0(2)
loop_
_cod_related_entry_id
_cod_related_entry_database
_cod_related_entry_code
1 ChemSpider 21140403
