#------------------------------------------------------------------------------
#$Date: 2016-02-20 02:53:41 +0200 (Sat, 20 Feb 2016) $
#$Revision: 176768 $
#$URL: svn://www.crystallography.net/cod/cif/2/10/31/2103145.cif $
#------------------------------------------------------------------------------
#
# This file is available in the Crystallography Open Database (COD),
# http://www.crystallography.net/. The original data for this entry
# were provided by IUCr Journals, http://journals.iucr.org/.
#
# The file may be used within the scientific community so long as
# proper attribution is given to the journal article from which the
# data were obtained.
#
data_2103145
loop_
_publ_author_name
'Pink, Maren'
'Britton, Doyle'
_publ_section_title
;
 5-Chloro- and 5-bromobenzfurazan 1-oxide revisited
;
_journal_issue                   1
_journal_name_full               'Acta Crystallographica Section B'
_journal_page_first              116
_journal_page_last               124
_journal_paper_doi               10.1107/S0108768101014744
_journal_volume                  58
_journal_year                    2002
_chemical_formula_sum            'C6 H3 Cl N2 O2'
_chemical_formula_weight         170.55
_chemical_name_systematic
;
 5-chlorobenzfurazan-1-oxide
;
_space_group_IT_number           14
_symmetry_cell_setting           monoclinic
_symmetry_space_group_name_Hall  '-P 2yn'
_symmetry_space_group_name_H-M   'P 1 21/n 1'
_atom_sites_solution_hydrogens   geom
_atom_sites_solution_primary     direct
_atom_sites_solution_secondary   difmap
_audit_creation_method           'SHELXTL plus manual additions'
_cell_angle_alpha                90.00
_cell_angle_beta                 93.612(2)
_cell_angle_gamma                90.00
_cell_formula_units_Z            4
_cell_length_a                   7.8317(10)
_cell_length_b                   7.0527(9)
_cell_length_c                   12.2576(15)
_cell_measurement_reflns_used    1621
_cell_measurement_temperature    98.0(10)
_cell_measurement_theta_max      25.0
_cell_measurement_theta_min      3.0
_cell_volume                     675.70(15)
_computing_cell_refinement       'SAINT (Siemens, 1995)'
_computing_data_collection       'SMART (Siemens, 1995)'
_computing_data_reduction        SAINT
_computing_molecular_graphics    SHELXLTL
_computing_publication_material  SHELXLTL
_computing_structure_refinement  SHELXLTL
_computing_structure_solution    'SHELXTL (Sheldrick, 1994)'
_diffrn_ambient_temperature      98.0(10)
_diffrn_measurement_device
;
Siemens SMART area-detector diffractometer
;
_diffrn_measurement_method       'omega scans'
_diffrn_radiation_monochromator  graphite
_diffrn_radiation_source         'fine-focus sealed tube'
_diffrn_radiation_type           MoK\a
_diffrn_radiation_wavelength     .71073
_diffrn_reflns_av_R_equivalents  .0214
_diffrn_reflns_av_sigmaI/netI    .0215
_diffrn_reflns_limit_h_max       5
_diffrn_reflns_limit_h_min       -9
_diffrn_reflns_limit_k_max       7
_diffrn_reflns_limit_k_min       -8
_diffrn_reflns_limit_l_max       14
_diffrn_reflns_limit_l_min       -14
_diffrn_reflns_number            3517
_diffrn_reflns_theta_max         25.06
_diffrn_reflns_theta_min         3.00
_diffrn_standards_decay_%        'less than 1'
_diffrn_standards_interval_time  '18 hours'
_diffrn_standards_number         124
_exptl_absorpt_coefficient_mu    .505
_exptl_absorpt_correction_T_max  .89
_exptl_absorpt_correction_T_min  .87
_exptl_absorpt_correction_type   multi-scan
_exptl_absorpt_process_details
;
SADABS; Sheldrick, 1996; Blessing, 1995
;
_exptl_crystal_colour            yellow
_exptl_crystal_density_diffrn    1.677
_exptl_crystal_density_meas      ?
_exptl_crystal_density_method    .
_exptl_crystal_description       prism
_exptl_crystal_F_000             344
_exptl_crystal_size_max          .26
_exptl_crystal_size_mid          .24
_exptl_crystal_size_min          .22
_refine_diff_density_max         .258
_refine_diff_density_min         -.197
_refine_ls_extinction_expression Fc^*^=kFc[1+0.001xFc^2^\l^3^/sin(2\q)]^-1/4^
_refine_ls_extinction_method     none
_refine_ls_goodness_of_fit_all   1.043
_refine_ls_goodness_of_fit_obs   1.117
_refine_ls_hydrogen_treatment    constr
_refine_ls_matrix_type           full
_refine_ls_number_parameters     165
_refine_ls_number_reflns         1199
_refine_ls_number_restraints     28
_refine_ls_restrained_S_all      1.030
_refine_ls_restrained_S_obs      1.100
_refine_ls_R_factor_all          .0453
_refine_ls_R_factor_obs          .0356
_refine_ls_shift/esd_max         .013
_refine_ls_shift/esd_mean        .002
_refine_ls_structure_factor_coef Fsqd
_refine_ls_weighting_details
'calc w=1/[\s^2^(Fo^2^)+(0.062P)^2^+0.113P] where P=(Fo^2^+2Fc^2^)/3'
_refine_ls_weighting_scheme      calc
_refine_ls_wR_factor_all         .1027
_refine_ls_wR_factor_obs         .0973
_reflns_number_observed          971
_reflns_number_total             1199
_reflns_observed_criterion       >2sigma(I)
_cod_data_source_file            bk0096.cif
_cod_data_source_block           Cl98K
_cod_original_sg_symbol_H-M      P2~1~/n
_cod_database_code               2103145
_cod_database_fobs_code          2103145
loop_
_symmetry_equiv_pos_as_xyz
'x, y, z'
'-x+1/2, y+1/2, -z+1/2'
'-x, -y, -z'
'x-1/2, -y-1/2, z-1/2'
loop_
_atom_site_aniso_label
_atom_site_aniso_U_11
_atom_site_aniso_U_22
_atom_site_aniso_U_33
_atom_site_aniso_U_12
_atom_site_aniso_U_13
_atom_site_aniso_U_23
Cl1 .0384(6) .0792(13) .0506(11) -.0013(8) -.0012(7) .0284(9)
O1 .058(2) .064(2) .097(2) -.0210(14) -.0043(14) .024(2)
O2 .0394(13) .078(2) .042(2) .0052(13) .0072(11) .0177(14)
N1 .033(2) .055(2) .053(2) -.0026(13) -.004(2) .008(2)
N2 .0436(14) .063(2) .0364(15) .0123(13) .0074(11) .0022(13)
C1 .0252(11) .047(2) .036(2) .001(2) -.0007(13) .0049(13)
C2 .0258(11) .054(2) .0249(12) .0099(15) .0002(10) .0005(12)
C3 .034(2) .039(2) .0362(12) .007(2) -.0026(9) -.0034(13)
C4 .017(3) .0535(13) .0318(10) .0040(10) -.0030(10) .0060(8)
C5 .0312(10) .062(2) .030(2) .0059(14) -.002(2) -.0073(14)
C6 .039(2) .0482(15) .051(3) -.0010(12) -.007(2) -.0142(13)
Cl11 .052(4) .042(2) .076(7) -.014(2) -.016(4) .017(3)
O11 .077(6) .070(7) .044(5) .038(5) .028(5) .012(5)
O12 .042(7) .072(9) .052(7) .010(6) .011(4) .029(6)
N11 .033(5) .075(9) .032(6) .027(6) .008(4) .023(6)
N12 .035(5) .043(5) .053(6) -.009(4) -.001(4) .006(5)
C11 .0258(11) .054(2) .0249(12) .0099(15) .0002(10) .0005(12)
C12 .0252(11) .047(2) .036(2) .001(2) -.0007(13) .0049(13)
C13 .039(2) .0482(15) .051(3) -.0010(12) -.007(2) -.0142(13)
C14 .0312(10) .062(2) .030(2) .0059(14) -.002(2) -.0073(14)
C15 .017(3) .0535(13) .0318(10) .0040(10) -.0030(10) .0060(8)
C16 .034(2) .039(2) .0362(12) .007(2) -.0026(9) -.0034(13)
loop_
_atom_site_label
_atom_site_fract_x
_atom_site_fract_y
_atom_site_fract_z
_atom_site_U_iso_or_equiv
_atom_site_thermal_displace_type
_atom_site_calc_flag
_atom_site_refinement_flags
_atom_site_occupancy
_atom_site_disorder_group
_atom_site_type_symbol
Cl1 .8966(5) .2572(4) .8685(3) .0562(7) Uani d PD .789(4) 1 Cl
O1 .5451(3) -.4599(4) 1.1480(3) .0736(9) Uani d PD .789(4) 1 O
O2 .5587(3) -.1674(4) 1.2318(2) .0527(7) Uani d PD .789(4) 1 O
N1 .5888(5) -.2928(5) 1.1415(3) .0472(9) Uani d PD .789(4) 1 N
N2 .6163(3) .0127(4) 1.2088(2) .0474(7) Uani d PD .789(4) 1 N
C1 .6627(4) -.1862(4) 1.0668(2) .0363(7) Uani d PD .789(4) 1 C
C2 .6776(4) -.0023(4) 1.1104(2) .0351(7) Uani d PD .789(4) 1 C
C3 .7511(6) .1441(4) 1.0484(3) .0366(7) Uani d PD .789(4) 1 C
H3 .7601(6) .2686(4) 1.0732(3) .044 Uiso calc PR .789(4) 1 H
C4 .8068(9) .0897(5) .9510(4) .0343(10) Uani d PD .789(4) 1 C
C5 .7893(16) -.0966(6) .9064(4) .0414(9) Uani d PD .789(4) 1 C
H5 .8273(16) -.1222(6) .8375(4) .050 Uiso calc PR .789(4) 1 H
C6 .7177(5) -.2358(4) .9637(3) .0462(8) Uani d PD .789(4) 1 C
H6 .7055(5) -.3583(4) .9363(3) .055 Uiso calc PR .789(4) 1 H
Cl11 .8808(18) .2834(12) .8960(9) .058(3) Uani d PD .211(4) 2 Cl
O11 .5628(11) -.0397(11) 1.2681(5) .063(3) Uani d PD .211(4) 2 O
O12 .5499(16) -.3268(9) 1.1782(6) .055(4) Uani d PD .211(4) 2 O
N11 .5946(11) -.1277(10) 1.1849(5) .046(3) Uani d PD .211(4) 2 N
N12 .5984(10) -.4001(8) 1.0803(5) .044(2) Uani d PD .211(4) 2 N
C11 .6680(18) -.0863(8) 1.0918(6) .0351(7) Uani d PD .211(4) 2 C
C12 .6681(16) -.2544(8) 1.0304(6) .0363(7) Uani d PD .211(4) 2 C
C13 .734(2) -.2532(12) .9248(8) .0462(8) Uani d PD .211(4) 2 C
H13 .740(2) -.3622(12) .8824(8) .055 Uiso calc PR .211(4) 2 H
C14 .789(6) -.083(2) .8904(18) .0414(9) Uani d PD .211(4) 2 C
H14 .835(6) -.077(2) .8224(18) .050 Uiso calc PR .211(4) 2 H
C15 .780(4) .0897(16) .9508(13) .0343(10) Uani d PD .211(4) 2 C
C16 .732(3) .0868(11) 1.0546(9) .0366(7) Uani d PD .211(4) 2 C
H16 .741(3) .1936(11) 1.0992(9) .044 Uiso calc PR .211(4) 2 H
loop_
_atom_type_symbol
_atom_type_description
_atom_type_scat_dispersion_real
_atom_type_scat_dispersion_imag
_atom_type_scat_source
C C .0033 .0016 'International Tables Vol C Tables 4.2.6.8 and 6.1.1.4'
H H .0000 .0000 'International Tables Vol C Tables 4.2.6.8 and 6.1.1.4'
N N .0061 .0033 'International Tables Vol C Tables 4.2.6.8 and 6.1.1.4'
O O .0106 .0060 'International Tables Vol C Tables 4.2.6.8 and 6.1.1.4'
Cl Cl .1484 .1585 'International Tables Vol C Tables 4.2.6.8 and 6.1.1.4'
loop_
_geom_angle_atom_site_label_1
_geom_angle_atom_site_label_2
_geom_angle_atom_site_label_3
_geom_angle
N2 O2 N1 109.5(2)
O1 N1 C1 135.5(4)
O1 N1 O2 118.4(3)
C1 N1 O2 106.1(2)
C2 N2 O2 104.7(3)
N1 C1 C2 106.7(3)
N1 C1 C6 130.1(3)
C2 C1 C6 123.3(3)
N2 C2 C1 113.1(3)
N2 C2 C3 127.3(3)
C1 C2 C3 119.6(2)
C4 C3 C2 115.4(2)
C3 C4 C5 124.9(3)
C3 C4 Cl1 119.2(2)
C5 C4 Cl1 115.9(2)
C6 C5 C4 120.2(3)
C5 C6 C1 116.6(3)
N12 O12 N11 109.5(2)
O11 N11 C11 135.6(4)
O11 N11 O12 118.4(4)
C11 N11 O12 106.1(3)
C12 N12 O12 104.7(3)
N11 C11 C12 106.7(3)
N11 C11 C16 130.1(3)
C12 C11 C16 123.2(3)
N12 C12 C11 113.1(3)
N12 C12 C13 127.2(3)
C11 C12 C13 119.6(3)
C14 C13 C12 115.4(3)
C13 C14 C15 124.8(4)
C16 C15 C14 120.0(4)
C16 C15 Cl11 122.5(7)
C14 C15 Cl11 115.7(3)
C15 C16 C11 116.4(3)
loop_
_geom_bond_atom_site_label_1
_geom_bond_atom_site_label_2
_geom_bond_distance
Cl1 C4 1.733(3)
O1 N1 1.232(4)
O2 N2 1.383(4)
O2 N1 1.448(4)
N1 C1 1.343(5)
N2 C2 1.330(4)
C1 C2 1.404(4)
C1 C6 1.406(4)
C2 C3 1.425(4)
C3 C4 1.352(4)
C4 C5 1.427(3)
C5 C6 1.349(4)
Cl11 C15 1.733(3)
O11 N11 1.232(4)
O12 N12 1.382(4)
O12 N11 1.448(4)
N11 C11 1.343(5)
N12 C12 1.330(4)
C11 C12 1.404(4)
C11 C16 1.406(5)
C12 C13 1.425(4)
C13 C14 1.352(4)
C14 C15 1.427(4)
C15 C16 1.351(5)
