#------------------------------------------------------------------------------
#$Date: 2017-10-13 08:28:26 +0300 (Fri, 13 Oct 2017) $
#$Revision: 201972 $
#$URL: file:///home/coder/svn-repositories/cod/cif/2/10/35/2103562.cif $
#------------------------------------------------------------------------------
#
# This file is available in the Crystallography Open Database (COD),
# http://www.crystallography.net/. The original data for this entry
# were provided by IUCr Journals, http://journals.iucr.org/.
#
# The file may be used within the scientific community so long as
# proper attribution is given to the journal article from which the
# data were obtained.
#
data_2103562
loop_
_publ_author_name
'In, Yasuko'
'Fujii, Mayumi'
'Sasada, Yasuhiro'
'Ishida, Toshimasa'
_publ_section_title
;
 Structural studies on C-amidated amino acids and peptides: structures
 of hydrochloride salts of C-amidated Ile, Val, Thr, Ser, Met, Trp, Gln
 and Arg, and comparison with their C-unamidated counterparts
;
_journal_issue                   1
_journal_name_full               'Acta Crystallographica Section B'
_journal_page_first              72
_journal_page_last               81
_journal_paper_doi               10.1107/S0108768100013975
_journal_volume                  57
_journal_year                    2001
_chemical_formula_moiety         'C6 H15 N2 O +,Cl -'
_chemical_formula_sum            'C6 H15 Cl N2 O'
_chemical_formula_weight         166.65
_chemical_name_systematic
;
 ?
;
_space_group_IT_number           4
_symmetry_cell_setting           monoclinic
_symmetry_space_group_name_Hall  'P 2yb'
_symmetry_space_group_name_H-M   'P 1 21 1'
_audit_creation_method           SHELXL-97
_cell_angle_alpha                90.00
_cell_angle_beta                 94.195(12)
_cell_angle_gamma                90.00
_cell_formula_units_Z            2
_cell_length_a                   7.5775(13)
_cell_length_b                   4.8971(13)
_cell_length_c                   12.5686(14)
_cell_measurement_reflns_used    25
_cell_measurement_temperature    293(2)
_cell_measurement_theta_max      65.02
_cell_measurement_theta_min      .3
_cell_volume                     465.14(16)
_computing_cell_refinement       'MSC/AFC (Molecular Structure Corp. 1991)'
_computing_data_collection       'MSC/AFC (Molecular Structure Corp. 1991)'
_computing_data_reduction        'MSC/AFC (Molecular Structure Corp. 1991)'
_computing_structure_refinement  'SHELXL-97 (Sheldrick, 1997)'
_computing_structure_solution    'SHELXS-97 (Sheldrick, 1990)'
_diffrn_ambient_temperature      293(2)
_diffrn_measured_fraction_theta_full .998
_diffrn_measured_fraction_theta_max .999
_diffrn_measurement_device_type  'Rigaku AFC5R'
_diffrn_measurement_method       \w-2\q
_diffrn_radiation_monochromator  graphite
_diffrn_radiation_source         'fine-focus sealed tube'
_diffrn_radiation_type           CuK\a
_diffrn_radiation_wavelength     1.54180
_diffrn_reflns_av_R_equivalents  .0518
_diffrn_reflns_av_sigmaI/netI    .0235
_diffrn_reflns_limit_h_max       8
_diffrn_reflns_limit_h_min       0
_diffrn_reflns_limit_k_max       0
_diffrn_reflns_limit_k_min       -5
_diffrn_reflns_limit_l_max       14
_diffrn_reflns_limit_l_min       -14
_diffrn_reflns_number            963
_diffrn_reflns_theta_full        65.02
_diffrn_reflns_theta_max         65.02
_diffrn_reflns_theta_min         3.53
_diffrn_standards_decay_%        2
_diffrn_standards_interval_count 100
_diffrn_standards_number         3
_exptl_absorpt_coefficient_mu    3.199
_exptl_absorpt_correction_T_max  .999
_exptl_absorpt_correction_T_min  .629
_exptl_absorpt_correction_type   \y-scan
_exptl_absorpt_process_details   'North, et al., 1990'
_exptl_crystal_colour            colourless
_exptl_crystal_density_diffrn    1.190
_exptl_crystal_density_meas      1.221(5)
_exptl_crystal_density_method    measured
_exptl_crystal_description       plate
_exptl_crystal_F_000             180
_exptl_crystal_size_max          .6
_exptl_crystal_size_mid          .4
_exptl_crystal_size_min          .05
_refine_diff_density_max         .699
_refine_diff_density_min         -.289
_refine_ls_abs_structure_details 'Flack H D (1983), Acta Cryst. A39, 876-881'
_refine_ls_abs_structure_Flack   -.04(5)
_refine_ls_extinction_method     none
_refine_ls_goodness_of_fit_ref   1.659
_refine_ls_hydrogen_treatment    mixed
_refine_ls_matrix_type           full
_refine_ls_number_parameters     90
_refine_ls_number_reflns         893
_refine_ls_number_restraints     0
_refine_ls_restrained_S_all      1.659
_refine_ls_R_factor_all          .0754
_refine_ls_R_factor_gt           .0688
_refine_ls_shift/su_max          .094
_refine_ls_shift/su_mean         .019
_refine_ls_structure_factor_coef Fsqd
_refine_ls_weighting_details
'w=1/[\s^2^(Fo^2^)+(0.1P)^2^] where P=(Fo^2^+2Fc^2^)/3'
_refine_ls_weighting_scheme      calc
_refine_ls_wR_factor_ref         .1872
_reflns_number_gt                817
_reflns_number_total             893
_reflns_threshold_expression     >2\s(I)
_cod_data_source_file            oa0030.cif
_cod_data_source_block           ileNH2
_cod_depositor_comments
;
The following automatic conversions were performed:

'_refine_ls_weighting_scheme' value 'calc
w=1/[\s^2^(Fo^2^)+(0.1P)^2^] where P=(Fo^2^+2Fc^2^)/3' was changed to
'calc'. New tag '_refine_ls_weighting_details' was created. The value
of the new tag was set to 'w=1/[\s^2^(Fo^2^)+(0.1P)^2^] where
P=(Fo^2^+2Fc^2^)/3'.

Automatic conversion script
Id: cif_fix_values 3143 2015-03-26 13:38:13Z robertas 
;
_cod_original_sg_symbol_Hall     'P 2y1'
_cod_original_sg_symbol_H-M      'P 21'
_cod_database_code               2103562
_cod_database_fobs_code          2103562
loop_
_symmetry_equiv_pos_as_xyz
'x, y, z'
'-x, y+1/2, -z'
loop_
_atom_site_label
_atom_site_fract_x
_atom_site_fract_y
_atom_site_fract_z
_atom_site_U_iso_or_equiv
_atom_site_adp_type
_atom_site_calc_flag
_atom_site_refinement_flags
_atom_site_occupancy
_atom_site_type_symbol
Cl1 .52108(13) .6504 .62484(10) .0460(5) Uani d . 1 Cl
N1 -.2267(5) 1.1570(14) .5937(3) .0364(9) Uani d . 1 N
H1A -.2103 1.1621 .5219 .044 Uiso d R 1 H
H1B -.2803 .9893 .6014 .044 Uiso d R 1 H
H1C -.2970 1.3129 .6052 .044 Uiso d R 1 H
C1 -.0721(6) 1.1726(14) .6735(3) .0345(11) Uani d . 1 C
H1 -.0375 1.3637 .6853 .041 Uiso calc R 1 H
C1' .0777(7) 1.0162(14) .6266(4) .0359(11) Uani d . 1 C
O1' .0556(5) .7854(10) .5938(3) .0409(9) Uani d . 1 O
N2 .2334(5) 1.1489(16) .6269(4) .0498(11) Uani d . 1 N
H2NA .2524 1.3614 .6416 .060 Uiso d R 1 H
H2NB .3220 1.0614 .6019 .060 Uiso d R 1 H
C2 -.1145(7) 1.0406(16) .7800(4) .0442(13) Uani d . 1 C
H2 -.1540 .8530 .7651 .053 Uiso calc R 1 H
C3 -.2628(9) 1.1903(18) .8297(5) .063(2) Uani d . 1 C
H3A -.2184 1.3641 .8574 .075 Uiso calc R 1 H
H3B -.3564 1.2278 .7749 .075 Uiso calc R 1 H
C4 .0499(11) 1.028(3) .8553(5) .086(3) Uani d . 1 C
H4A .0222 .9414 .9206 .130 Uiso calc R 1 H
H4B .0926 1.2092 .8701 .130 Uiso calc R 1 H
H4C .1393 .9239 .8231 .130 Uiso calc R 1 H
C5 -.3392(14) 1.033(3) .9187(7) .093(3) Uani d . 1 C
H5A -.4323 1.1379 .9468 .139 Uiso calc R 1 H
H5B -.2481 .9995 .9743 .139 Uiso calc R 1 H
H5C -.3857 .8626 .8917 .139 Uiso calc R 1 H
loop_
_atom_site_aniso_label
_atom_site_aniso_U_11
_atom_site_aniso_U_22
_atom_site_aniso_U_33
_atom_site_aniso_U_12
_atom_site_aniso_U_13
_atom_site_aniso_U_23
Cl1 .0287(7) .0366(7) .0725(8) .0020(6) .0025(5) .0008(7)
N1 .0270(17) .039(2) .0435(18) .000(3) .0066(14) .002(3)
C1 .024(2) .032(3) .047(2) -.001(2) .0026(17) -.005(3)
C1' .030(2) .033(3) .044(2) .002(3) .0024(18) .000(2)
O1' .0277(17) .036(2) .0596(19) -.0024(16) .0095(15) -.0081(18)
N2 .0231(19) .045(2) .082(3) -.004(3) .0072(18) -.009(4)
C2 .045(3) .044(3) .044(3) .006(3) .003(2) .001(3)
C3 .069(4) .067(5) .055(3) .026(4) .025(3) .011(3)
C4 .071(5) .137(9) .050(3) .010(6) -.009(3) .012(5)
C5 .109(7) .097(7) .078(5) .023(6) .050(5) .016(5)
loop_
_atom_type_symbol
_atom_type_description
_atom_type_scat_dispersion_real
_atom_type_scat_dispersion_imag
_atom_type_scat_source
C C .0181 .0091 'International Tables Vol C Tables 4.2.6.8 and 6.1.1.4'
H H .0000 .0000 'International Tables Vol C Tables 4.2.6.8 and 6.1.1.4'
O O .0492 .0322 'International Tables Vol C Tables 4.2.6.8 and 6.1.1.4'
N N .0311 .0180 'International Tables Vol C Tables 4.2.6.8 and 6.1.1.4'
Cl Cl .3639 .7018 'International Tables Vol C Tables 4.2.6.8 and 6.1.1.4'
loop_
_geom_angle_atom_site_label_1
_geom_angle_atom_site_label_2
_geom_angle_atom_site_label_3
_geom_angle
N1 C1 C1' 106.6(4)
N1 C1 C2 111.1(4)
C1' C1 C2 109.5(5)
O1' C1' N2 123.4(6)
O1' C1' C1 120.9(5)
N2 C1' C1 115.7(5)
C4 C2 C1 110.3(5)
C4 C2 C3 111.4(5)
C1 C2 C3 111.3(5)
C5 C3 C2 113.3(7)
loop_
_geom_bond_atom_site_label_1
_geom_bond_atom_site_label_2
_geom_bond_distance
N1 C1 1.487(5)
C1 C1' 1.523(7)
C1 C2 1.541(7)
C1' O1' 1.211(7)
C1' N2 1.347(8)
C2 C4 1.510(8)
C2 C3 1.515(8)
C3 C5 1.507(11)
loop_
_cod_related_entry_id
_cod_related_entry_database
_cod_related_entry_code
1 ChemSpider 17346845
