#------------------------------------------------------------------------------
#$Date: 2016-02-20 02:53:41 +0200 (Sat, 20 Feb 2016) $
#$Revision: 176768 $
#$URL: svn://www.crystallography.net/cod/cif/2/10/31/2103127.cif $
#------------------------------------------------------------------------------
#
# This file is available in the Crystallography Open Database (COD),
# http://www.crystallography.net/. The original data for this entry
# were provided by IUCr Journals, http://journals.iucr.org/.
#
# The file may be used within the scientific community so long as
# proper attribution is given to the journal article from which the
# data were obtained.
#
data_2103127
loop_
_publ_author_name
'Farrell, Dorcas M. M.'
'Ferguson, George'
'Lough, Alan J.'
'Glidewell, Christopher'
_publ_section_title
;
Chiral versus racemic building blocks in supramolecular
chemistry: malate salts of organic diamines
;
_journal_issue                   3
_journal_name_full               'Acta Crystallographica, Section B'
_journal_page_first              530
_journal_page_last               544
_journal_paper_doi               10.1107/S0108768102000642
_journal_volume                  58
_journal_year                    2002
_chemical_formula_moiety         'C10 H8.5 N2, C4 H5.5 O5'
_chemical_formula_sum            'C14 H14 N2 O5'
_chemical_formula_weight         290.27
_chemical_name_systematic
;
4,4'-Bipyridyl--(S)-malic acid (1/1),triclinic polymorph
;
_space_group_IT_number           1
_symmetry_cell_setting           triclinic
_symmetry_space_group_name_Hall  'P 1'
_symmetry_space_group_name_H-M   'P 1'
_atom_sites_solution_hydrogens   geom
_atom_sites_solution_primary     direct
_atom_sites_solution_secondary   difmap
_cell_angle_alpha                83.235(3)
_cell_angle_beta                 89.808(3)
_cell_angle_gamma                79.601(3)
_cell_formula_units_Z            1
_cell_length_a                   5.1647(4)
_cell_length_b                   6.2749(5)
_cell_length_c                   10.2126(9)
_cell_measurement_reflns_used    1351
_cell_measurement_temperature    150(2)
_cell_measurement_theta_max      27.43
_cell_measurement_theta_min      3.67
_cell_volume                     323.21(5)
_computing_cell_refinement       'DENZO-SMN (Otwinowski & Minor, 1997)'
_computing_data_collection       'Kappa-CCD server software (Nonius, 1997)'
_computing_data_reduction        'DENZO-SMN (Otwinowski & Minor, 1997)'
_computing_molecular_graphics    'PLATON (Spek, 2001)'
_computing_publication_material
'SHELXL-97 (Sheldrick, 1997b) and PRPKAPPA (Ferguson, 1999)'
_computing_structure_refinement  'SHELXL-97 (Sheldrick, 1997b)'
_computing_structure_solution    'SHELXS-97 (Sheldrick, 1997a)'
_diffrn_ambient_temperature      150(2)
_diffrn_measured_fraction_theta_full 0.993
_diffrn_measured_fraction_theta_max 0.993
_diffrn_measurement_device_type  Kappa-CCD
_diffrn_measurement_method       '\f scans, and \w scans with \k offsets'
_diffrn_radiation_monochromator  graphite
_diffrn_radiation_source         'fine-focus sealed X-ray tube'
_diffrn_radiation_type           'Mo K\a'
_diffrn_radiation_wavelength     0.71073
_diffrn_reflns_av_R_equivalents  0.036
_diffrn_reflns_av_sigmaI/netI    0.0573
_diffrn_reflns_limit_h_max       6
_diffrn_reflns_limit_h_min       0
_diffrn_reflns_limit_k_max       8
_diffrn_reflns_limit_k_min       -7
_diffrn_reflns_limit_l_max       13
_diffrn_reflns_limit_l_min       -13
_diffrn_reflns_number            3702
_diffrn_reflns_theta_full        27.43
_diffrn_reflns_theta_max         27.43
_diffrn_reflns_theta_min         3.67
_diffrn_standards_decay_%        0
_exptl_absorpt_coefficient_mu    0.115
_exptl_absorpt_correction_T_max  0.9663
_exptl_absorpt_correction_T_min  0.9555
_exptl_absorpt_correction_type   multi-scan
_exptl_absorpt_process_details   'DENZO-SMN (Otwinowski & Minor, 1997)'
_exptl_crystal_colour            colourless
_exptl_crystal_density_diffrn    1.491
_exptl_crystal_density_method    'not measured'
_exptl_crystal_description       block
_exptl_crystal_F_000             152
_exptl_crystal_size_max          0.40
_exptl_crystal_size_mid          0.30
_exptl_crystal_size_min          0.30
_refine_diff_density_max         0.412
_refine_diff_density_min         -0.245
_refine_ls_extinction_method     none
_refine_ls_goodness_of_fit_ref   1.032
_refine_ls_hydrogen_treatment    constr
_refine_ls_matrix_type           full
_refine_ls_number_parameters     195
_refine_ls_number_reflns         1465
_refine_ls_number_restraints     3
_refine_ls_restrained_S_all      1.030
_refine_ls_R_factor_all          0.0639
_refine_ls_R_factor_gt           0.0478
_refine_ls_shift/su_max          0.000
_refine_ls_shift/su_mean         0.000
_refine_ls_structure_factor_coef Fsqd
_refine_ls_weighting_details
'w=1/[\s^2^(Fo^2^)+(0.0823P)^2^+0.0245P] where P=(Fo^2^+2Fc^2^)/3'
_refine_ls_weighting_scheme      calc
_refine_ls_wR_factor_gt          0.1193
_refine_ls_wR_factor_ref         0.1303
_reflns_number_gt                1195
_reflns_number_total             1465
_reflns_threshold_expression     >2\s(I)
_cod_data_source_file            na0134.cif
_cod_depositor_comments
;
The following automatic conversions were performed:
'_exptl_absorpt_correction_type' value 'Multi-scan' changed to
'multi-scan' according to
'/home/saulius/struct/CIF-dictionaries/cif_core.dic' dictionary named
'cif_core.dic' version 2.4.1 from 2010-06-29.

Automatic conversion script
Id: cif_fix_enum 1527 2010-12-29 10:47:43Z saulius 
;
_cod_original_sg_symbol_H-M      P1
_cod_database_code               2103127
loop_
_symmetry_equiv_pos_as_xyz
'x, y, z'
loop_
_atom_site_label
_atom_site_fract_x
_atom_site_fract_y
_atom_site_fract_z
_atom_site_U_iso_or_equiv
_atom_site_adp_type
_atom_site_calc_flag
_atom_site_refinement_flags
_atom_site_occupancy
_atom_site_type_symbol
O1 0.4999(4) 0.5001(4) 0.4999(3) 0.0299(6) Uani d . 1 O
O2 0.5276(5) 0.1762(4) 0.6218(3) 0.0370(7) Uani d . 1 O
O3 0.0331(4) -0.0958(4) 0.3020(2) 0.0302(6) Uani d . 1 O
O4 0.1493(5) 0.1301(4) 0.1360(2) 0.0345(6) Uani d . 1 O
O5 0.0886(5) 0.4473(4) 0.3617(3) 0.0411(7) Uani d . 1 O
C1 0.4325(7) 0.3122(6) 0.5305(3) 0.0251(8) Uani d . 1 C
C2 0.2265(6) 0.2619(5) 0.4367(3) 0.0249(8) Uani d . 1 C
C3 0.3680(6) 0.1000(6) 0.3468(3) 0.0259(8) Uani d . 1 C
C4 0.1730(6) 0.0464(5) 0.2506(3) 0.0253(8) Uani d . 1 C
N11 0.8519(6) 0.5652(5) 0.6578(3) 0.0257(6) Uani d . 1 N
N21 1.7390(6) 0.7974(5) 1.1249(3) 0.0264(6) Uani d . 1 N
C12 0.9171(7) 0.4272(6) 0.7682(4) 0.0286(8) Uani d . 1 C
C13 1.0959(7) 0.4635(6) 0.8609(4) 0.0283(8) Uani d . 1 C
C14 1.2095(6) 0.6499(6) 0.8391(3) 0.0228(7) Uani d . 1 C
C15 1.1430(7) 0.7881(6) 0.7232(3) 0.0279(8) Uani d . 1 C
C16 0.9630(7) 0.7417(6) 0.6354(3) 0.0278(8) Uani d . 1 C
C22 1.6992(6) 0.9162(6) 1.0073(4) 0.0272(8) Uani d . 1 C
C23 1.5299(7) 0.8738(6) 0.9119(3) 0.0266(8) Uani d . 1 C
C24 1.3973(6) 0.6992(6) 0.9383(3) 0.0231(7) Uani d . 1 C
C25 1.4408(7) 0.5763(6) 1.0613(4) 0.0295(8) Uani d . 1 C
C26 1.6124(7) 0.6289(7) 1.1515(4) 0.0312(9) Uani d . 1 C
H1 0.6102 0.5187 0.5558 0.045 Uiso calc PR 0.50 H
H3 -0.0552 -0.1321 0.2421 0.045 Uiso calc R 1 H
H5 0.1439 0.5580 0.3806 0.062 Uiso calc R 1 H
H2 0.0974 0.1897 0.4905 0.030 Uiso calc R 1 H
H3A 0.5062 0.1643 0.2974 0.031 Uiso calc R 1 H
H3B 0.4538 -0.0354 0.4010 0.031 Uiso calc R 1 H
H11 0.7372 0.5394 0.6009 0.031 Uiso calc PR 0.50 H
H12 0.8386 0.3010 0.7835 0.034 Uiso calc R 1 H
H13 1.1401 0.3629 0.9380 0.034 Uiso calc R 1 H
H15 1.2206 0.9142 0.7042 0.034 Uiso calc R 1 H
H16 0.9174 0.8384 0.5568 0.033 Uiso calc R 1 H
H22 1.7901 1.0346 0.9878 0.033 Uiso calc R 1 H
H23 1.5049 0.9630 0.8294 0.032 Uiso calc R 1 H
H25 1.3532 0.4566 1.0836 0.035 Uiso calc R 1 H
H26 1.6413 0.5427 1.2349 0.037 Uiso calc R 1 H
loop_
_atom_site_aniso_label
_atom_site_aniso_U_11
_atom_site_aniso_U_22
_atom_site_aniso_U_33
_atom_site_aniso_U_12
_atom_site_aniso_U_13
_atom_site_aniso_U_23
O1 0.0338(13) 0.0276(13) 0.0302(14) -0.0129(10) -0.0120(10) 0.0003(10)
O2 0.0480(16) 0.0339(15) 0.0307(15) -0.0169(13) -0.0153(12) 0.0054(12)
O3 0.0375(14) 0.0338(15) 0.0233(13) -0.0186(11) -0.0111(10) -0.0007(10)
O4 0.0467(15) 0.0366(15) 0.0237(13) -0.0199(12) -0.0068(11) 0.0022(11)
O5 0.0416(14) 0.0304(13) 0.0508(17) -0.0042(11) -0.0169(12) -0.0054(12)
C1 0.0285(17) 0.0284(19) 0.0204(18) -0.0090(14) -0.0023(13) -0.0054(15)
C2 0.0248(16) 0.0241(17) 0.0272(19) -0.0078(14) -0.0034(13) -0.0031(14)
C3 0.0258(17) 0.0280(19) 0.0251(18) -0.0073(15) -0.0080(13) -0.0043(14)
C4 0.0261(17) 0.0230(18) 0.028(2) -0.0056(14) -0.0046(14) -0.0046(15)
N11 0.0265(13) 0.0295(16) 0.0232(15) -0.0095(12) -0.0049(11) -0.0049(12)
N21 0.0271(14) 0.0307(16) 0.0231(15) -0.0107(12) -0.0048(11) -0.0019(12)
C12 0.0354(19) 0.0271(18) 0.0258(19) -0.0136(15) -0.0076(14) -0.0011(15)
C13 0.0341(18) 0.0288(18) 0.0233(18) -0.0109(15) -0.0092(14) 0.0000(14)
C14 0.0226(15) 0.0280(18) 0.0184(17) -0.0057(14) -0.0021(12) -0.0038(13)
C15 0.0286(16) 0.032(2) 0.025(2) -0.0127(15) -0.0046(14) -0.0018(16)
C16 0.0294(17) 0.0305(19) 0.0252(19) -0.0116(15) -0.0064(13) -0.0008(15)
C22 0.0272(17) 0.0301(18) 0.026(2) -0.0110(14) -0.0045(13) -0.0028(15)
C23 0.0312(17) 0.0291(19) 0.0210(18) -0.0115(14) -0.0034(13) -0.0001(14)
C24 0.0225(15) 0.0256(17) 0.0228(17) -0.0071(13) -0.0039(12) -0.0045(14)
C25 0.0333(18) 0.0297(19) 0.028(2) -0.0159(16) -0.0084(14) 0.0032(15)
C26 0.0341(19) 0.039(2) 0.023(2) -0.0147(17) -0.0073(14) 0.0014(16)
loop_
_atom_type_symbol
_atom_type_description
_atom_type_scat_dispersion_real
_atom_type_scat_dispersion_imag
_atom_type_scat_source
C C 0.0033 0.0016 'International Tables Vol C Tables 4.2.6.8 and 6.1.1.4'
H H 0.0000 0.0000 'International Tables Vol C Tables 4.2.6.8 and 6.1.1.4'
N N 0.0061 0.0033 'International Tables Vol C Tables 4.2.6.8 and 6.1.1.4'
O O 0.0106 0.0060 'International Tables Vol C Tables 4.2.6.8 and 6.1.1.4'
loop_
_geom_angle_atom_site_label_1
_geom_angle_atom_site_label_2
_geom_angle_atom_site_label_3
_geom_angle
_geom_angle_publ_flag
C1 O1 H1 109.5 no
C4 O3 H3 109.5 no
C2 O5 H5 109.5 no
O2 C1 O1 125.2(3) no
O2 C1 C2 120.5(3) no
O1 C1 C2 114.2(3) no
O5 C2 C1 113.3(3) no
O5 C2 C3 110.5(3) no
C1 C2 C3 108.0(2) no
O5 C2 H2 108.3 no
C1 C2 H2 108.3 no
C3 C2 H2 108.3 no
C4 C3 C2 110.2(2) no
C4 C3 H3A 109.6 no
C2 C3 H3A 109.6 no
C4 C3 H3B 109.6 no
C2 C3 H3B 109.6 no
H3A C3 H3B 108.1 no
O4 C4 O3 123.6(3) no
O4 C4 C3 122.6(3) no
O3 C4 C3 113.8(3) no
C16 N11 C12 119.2(3) no
C16 N11 H11 120.4 no
C12 N11 H11 120.4 no
C22 N21 C26 118.5(3) no
N11 C12 C13 122.0(3) no
N11 C12 H12 119.0 no
C13 C12 H12 119.0 no
C12 C13 C14 119.0(3) no
C12 C13 H13 120.5 no
C14 C13 H13 120.5 no
C15 C14 C13 118.0(3) no
C15 C14 C24 121.1(3) no
C13 C14 C24 120.9(3) no
C16 C15 C14 119.8(4) no
C16 C15 H15 120.1 no
C14 C15 H15 120.1 no
N11 C16 C15 121.9(3) no
N11 C16 H16 119.0 no
C15 C16 H16 119.0 no
N21 C22 C23 122.7(4) no
N21 C22 H22 118.7 no
C23 C22 H22 118.7 no
C22 C23 C24 119.4(3) no
C22 C23 H23 120.3 no
C24 C23 H23 120.3 no
C25 C24 C23 117.4(3) no
C25 C24 C14 121.4(3) no
C23 C24 C14 121.1(3) no
C26 C25 C24 119.9(4) no
C26 C25 H25 120.1 no
C24 C25 H25 120.1 no
N21 C26 C25 122.2(3) no
N21 C26 H26 118.9 no
C25 C26 H26 118.9 no
loop_
_geom_bond_atom_site_label_1
_geom_bond_atom_site_label_2
_geom_bond_distance
_geom_bond_publ_flag
O1 C1 1.292(4) no
O1 H1 0.84 no
O2 C1 1.226(4) no
O3 C4 1.309(4) no
O3 H3 0.84 no
O4 C4 1.222(4) no
O5 C2 1.394(4) no
O5 H5 0.84 no
C1 C2 1.532(4) no
C2 C3 1.535(4) no
C2 H2 1.00 no
C3 C4 1.516(5) no
C3 H3A 0.99 no
C3 H3B 0.99 no
N11 C16 1.333(5) no
N11 C12 1.342(5) no
N11 H11 0.88 no
N21 C22 1.333(5) no
N21 C26 1.341(5) no
C12 C13 1.391(5) no
C12 H12 0.95 no
C13 C14 1.395(5) no
C13 H13 0.95 no
C14 C15 1.387(5) no
C14 C24 1.501(4) no
C15 C16 1.385(5) no
C15 H15 0.95 no
C16 H16 0.95 no
C22 C23 1.391(5) no
C22 H22 0.95 no
C23 C24 1.393(5) no
C23 H23 0.95 no
C24 C25 1.391(5) no
C25 C26 1.388(5) no
C25 H25 0.95 no
C26 H26 0.95 no
loop_
_geom_hbond_atom_site_label_D
_geom_hbond_atom_site_label_H
_geom_hbond_atom_site_label_A
_geom_hbond_site_symmetry_A
_geom_hbond_distance_DH
_geom_hbond_distance_HA
_geom_hbond_distance_DA
_geom_hbond_angle_DHA
_geom_hbond_publ_flag
O1 H1 N11 . 0.84 1.71 2.553(4) 175 y
O3 H3 N21 1_344 0.84 1.75 2.588(4) 176 y
O5 H5 O1 . 0.84 2.16 2.646(3) 117 y
O5 H5 O3 1_565 0.84 2.20 2.823(4) 131 y
N11 H11 O1 . 0.88 1.67 2.553(4) 175 y
C13 H13 O4 1_656 0.95 2.35 3.280(5) 167 y
C15 H15 O2 1_665 0.95 2.56 3.477(4) 163 y
C23 H23 O2 1_665 0.95 2.38 3.324(4) 170 y
C25 H25 O4 1_656 0.95 2.47 3.420(5) 176 y
loop_
_geom_torsion_atom_site_label_1
_geom_torsion_atom_site_label_2
_geom_torsion_atom_site_label_3
_geom_torsion_atom_site_label_4
_geom_torsion
_geom_torsion_publ_flag
O2 C1 C2 O5 164.0(3) no
O1 C1 C2 O5 -19.0(4) no
O2 C1 C2 C3 -73.3(4) no
O1 C1 C2 C3 103.6(3) no
O5 C2 C3 C4 -55.0(3) no
C1 C2 C3 C4 -179.4(3) no
C2 C3 C4 O4 100.7(4) no
C2 C3 C4 O3 -78.9(3) no
C16 N11 C12 C13 0.5(6) no
N11 C12 C13 C14 0.5(6) no
C12 C13 C14 C15 -1.7(5) no
C12 C13 C14 C24 178.2(3) no
C13 C14 C15 C16 1.8(5) no
C24 C14 C15 C16 -178.1(3) no
C12 N11 C16 C15 -0.4(5) no
C14 C15 C16 N11 -0.7(6) no
C26 N21 C22 C23 0.7(5) no
N21 C22 C23 C24 -0.7(5) no
C22 C23 C24 C25 0.6(5) no
C22 C23 C24 C14 179.0(3) no
C15 C14 C24 C25 172.2(4) no
C13 C14 C24 C25 -7.6(4) no
C15 C14 C24 C23 -6.1(5) no
C13 C14 C24 C23 174.0(4) no
C23 C24 C25 C26 -0.5(5) no
C14 C24 C25 C26 -178.9(3) no
C22 N21 C26 C25 -0.6(6) no
C24 C25 C26 N21 0.5(6) no
