#------------------------------------------------------------------------------
#$Date: 2017-10-13 08:28:26 +0300 (Fri, 13 Oct 2017) $
#$Revision: 201972 $
#$URL: file:///home/coder/svn-repositories/cod/cif/2/10/30/2103056.cif $
#------------------------------------------------------------------------------
#
# This file is available in the Crystallography Open Database (COD),
# http://www.crystallography.net/. The original data for this entry
# were provided by IUCr Journals, http://journals.iucr.org/.
#
# The file may be used within the scientific community so long as
# proper attribution is given to the journal article from which the
# data were obtained.
#
data_2103056
loop_
_publ_author_name
'Wardell, Solange M. S. V.'
'de Souza, Marcus V. N.'
'Vasconcelos, Thatyana R. A.'
'Ferreira, Marcelle de L.'
'Wardell, James L.'
'Low, John N.'
'Glidewell, Christopher'
_publ_section_title
;
 Patterns of hydrogen bonding in mono- and di-substituted
 <i>N</i>-arylpyrazinecarboxamides
;
_journal_coeditor_code           BM5049
_journal_issue                   1
_journal_name_full               'Acta Crystallographica Section B'
_journal_page_first              84
_journal_page_last               100
_journal_paper_doi               10.1107/S0108768107051804
_journal_volume                  64
_journal_year                    2008
_chemical_formula_moiety         'C12 H8 F3 N3 O'
_chemical_formula_sum            'C12 H8 F3 N3 O'
_chemical_formula_weight         267.21
_chemical_name_systematic
;
N-(2-trifluoromethylphenyl)pyrazinecarboxamide
;
_space_group_IT_number           2
_symmetry_cell_setting           triclinic
_symmetry_space_group_name_Hall  '-P 1'
_symmetry_space_group_name_H-M   'P -1'
_atom_sites_solution_hydrogens   geom
_atom_sites_solution_primary     direct
_atom_sites_solution_secondary   difmap
_cell_angle_alpha                96.682(2)
_cell_angle_beta                 103.357(3)
_cell_angle_gamma                101.659(2)
_cell_formula_units_Z            2
_cell_length_a                   7.6748(3)
_cell_length_b                   7.8967(3)
_cell_length_c                   9.8421(5)
_cell_measurement_reflns_used    2568
_cell_measurement_temperature    120(2)
_cell_measurement_theta_max      27.59
_cell_measurement_theta_min      3.39
_cell_volume                     559.99(4)
_computing_cell_refinement       'DENZO (Otwinowski & Minor, 1997) & COLLECT'
_computing_data_collection       'COLLECT (Hooft, 1999)'
_computing_data_reduction        'DENZO & COLLECT'
_computing_molecular_graphics    'PLATON (Spek, 2003)'
_computing_publication_material  'SHELXL-97 & PRPKAPPA (Ferguson, 1999)'
_computing_structure_refinement  'OSCAIL and SHELXL-97 (Sheldrick, 1997)'
_computing_structure_solution
'OSCAIL (McArdle, 2003) & SHELXS-97 (Sheldrick, 1997)'
_diffrn_ambient_temperature      120(2)
_diffrn_detector_area_resol_mean 9.091
_diffrn_measured_fraction_theta_full 0.996
_diffrn_measured_fraction_theta_max 0.990
_diffrn_measurement_device_type  'Bruker-Nonius KappaCCD'
_diffrn_measurement_method       '\f & \w scans'
_diffrn_radiation_monochromator  graphite
_diffrn_radiation_source         'Bruker-Nonius FR591 rotating anode'
_diffrn_radiation_type           'Mo K\a'
_diffrn_radiation_wavelength     0.71073
_diffrn_reflns_av_R_equivalents  0.0474
_diffrn_reflns_av_sigmaI/netI    0.0471
_diffrn_reflns_limit_h_max       9
_diffrn_reflns_limit_h_min       -9
_diffrn_reflns_limit_k_max       10
_diffrn_reflns_limit_k_min       -10
_diffrn_reflns_limit_l_max       12
_diffrn_reflns_limit_l_min       -12
_diffrn_reflns_number            11305
_diffrn_reflns_theta_full        25.00
_diffrn_reflns_theta_max         27.59
_diffrn_reflns_theta_min         3.39
_diffrn_standards_decay_%        0
_diffrn_standards_number         0
_exptl_absorpt_coefficient_mu    0.139
_exptl_absorpt_correction_T_max  0.992
_exptl_absorpt_correction_T_min  0.974
_exptl_absorpt_correction_type   multi-scan
_exptl_absorpt_process_details   'SADABS 2.10 (Sheldrick, 2003)'
_exptl_crystal_colour            colourless
_exptl_crystal_density_diffrn    1.585
_exptl_crystal_density_method    'not measured'
_exptl_crystal_description       plate
_exptl_crystal_F_000             272
_exptl_crystal_size_max          0.24
_exptl_crystal_size_mid          0.20
_exptl_crystal_size_min          0.06
_refine_diff_density_max         0.236
_refine_diff_density_min         -0.315
_refine_ls_extinction_method     none
_refine_ls_goodness_of_fit_ref   1.072
_refine_ls_hydrogen_treatment    constr
_refine_ls_matrix_type           full
_refine_ls_number_parameters     172
_refine_ls_number_reflns         2568
_refine_ls_number_restraints     0
_refine_ls_restrained_S_all      1.072
_refine_ls_R_factor_all          0.0686
_refine_ls_R_factor_gt           0.0470
_refine_ls_shift/su_max          0.000
_refine_ls_shift/su_mean         0.000
_refine_ls_structure_factor_coef Fsqd
_refine_ls_weighting_details
'w=1/[\s^2^(Fo^2^)+(0.0619P)^2^+0.1239P] where P=(Fo^2^+2Fc^2^)/3'
_refine_ls_weighting_scheme      calc
_refine_ls_wR_factor_gt          0.1158
_refine_ls_wR_factor_ref         0.1286
_reflns_number_gt                1916
_reflns_number_total             2568
_reflns_threshold_expression     I>2\s(I)
_cod_data_source_file            bm5049.cif
_cod_data_source_block           V
_cod_depositor_comments
;
The following automatic conversions were performed:
'_exptl_absorpt_correction_type' value 'Multi-scan' changed to
'multi-scan' according to
'/home/saulius/struct/CIF-dictionaries/cif_core.dic' dictionary named
'cif_core.dic' version 2.4.1 from 2010-06-29.

Automatic conversion script
Id: cif_fix_enum 1527 2010-12-29 10:47:43Z saulius 

The following automatic conversions were performed:

'_exptl_absorpt_correction_type' value 'Multi-scan' changed to
'multi-scan' according to
/home/saulius/struct/CIF-dictionaries/cif_core.dic dictionary named
'cif_core.dic' version 2.4.1 from 2010-06-29.

Automatic conversion script
Id: cif_fix_values 1715 2011-07-08 13:25:40Z adriana 
;
_cod_database_code               2103056
loop_
_symmetry_equiv_pos_as_xyz
'x, y, z'
'-x, -y, -z'
loop_
_atom_site_type_symbol
_atom_site_label
_atom_site_fract_x
_atom_site_fract_y
_atom_site_fract_z
_atom_site_U_iso_or_equiv
_atom_site_adp_type
_atom_site_calc_flag
_atom_site_refinement_flags
_atom_site_occupancy
N N1 0.34737(18) 0.79967(17) 0.59128(15) 0.0243(3) Uani d . 1
C C2 0.2689(2) 0.6787(2) 0.65814(17) 0.0221(4) Uani d . 1
C C3 0.2443(2) 0.7214(2) 0.79182(18) 0.0264(4) Uani d . 1
N N4 0.2970(2) 0.88637(19) 0.86311(15) 0.0309(4) Uani d . 1
C C5 0.3737(2) 1.0065(2) 0.79589(19) 0.0305(4) Uani d . 1
C C6 0.3993(2) 0.9642(2) 0.66203(18) 0.0277(4) Uani d . 1
C C7 0.2068(2) 0.4908(2) 0.58368(17) 0.0235(4) Uani d . 1
O O7 0.12952(19) 0.37674(16) 0.63717(14) 0.0374(3) Uani d . 1
N N17 0.24636(19) 0.46685(17) 0.45599(14) 0.0243(3) Uani d . 1
C C11 0.2126(2) 0.3095(2) 0.36122(17) 0.0219(3) Uani d . 1
C C12 0.2401(2) 0.3143(2) 0.22472(17) 0.0217(3) Uani d . 1
C C121 0.2910(2) 0.4849(2) 0.17449(18) 0.0263(4) Uani d . 1
F F121 0.44325(15) 0.59610(13) 0.26314(12) 0.0395(3) Uani d . 1
F F122 0.15813(15) 0.57363(14) 0.16439(13) 0.0417(3) Uani d . 1
F F123 0.32610(17) 0.46648(14) 0.04791(12) 0.0434(3) Uani d . 1
C C13 0.2135(2) 0.1596(2) 0.13159(18) 0.0258(4) Uani d . 1
C C14 0.1573(2) -0.0021(2) 0.17053(19) 0.0277(4) Uani d . 1
C C15 0.1266(2) -0.0077(2) 0.30308(19) 0.0272(4) Uani d . 1
C C16 0.1541(2) 0.1454(2) 0.39789(18) 0.0257(4) Uani d . 1
H H3 0.1882 0.6308 0.8344 0.032 Uiso calc R 1
H H5 0.4121 1.1257 0.8414 0.037 Uiso calc R 1
H H6 0.4555 1.0549 0.6196 0.033 Uiso calc R 1
H H17 0.3020 0.5730 0.4383 0.029 Uiso d R 1
H H13 0.2339 0.1642 0.0404 0.031 Uiso calc R 1
H H14 0.1401 -0.1077 0.1067 0.033 Uiso calc R 1
H H15 0.0861 -0.1179 0.3295 0.033 Uiso calc R 1
H H16 0.1331 0.1389 0.4888 0.031 Uiso calc R 1
loop_
_atom_site_aniso_label
_atom_site_aniso_U_11
_atom_site_aniso_U_22
_atom_site_aniso_U_33
_atom_site_aniso_U_12
_atom_site_aniso_U_13
_atom_site_aniso_U_23
N1 0.0239(7) 0.0245(7) 0.0232(7) 0.0040(6) 0.0053(6) 0.0037(6)
C2 0.0183(7) 0.0243(8) 0.0231(8) 0.0049(6) 0.0041(6) 0.0044(6)
C3 0.0262(8) 0.0280(9) 0.0244(9) 0.0031(7) 0.0085(7) 0.0046(7)
N4 0.0315(8) 0.0334(8) 0.0259(8) 0.0029(6) 0.0099(6) 0.0005(6)
C5 0.0325(9) 0.0262(9) 0.0290(10) 0.0013(7) 0.0082(8) -0.0014(7)
C6 0.0298(9) 0.0256(8) 0.0276(9) 0.0041(7) 0.0094(7) 0.0046(7)
C7 0.0209(8) 0.0256(8) 0.0235(8) 0.0041(7) 0.0061(7) 0.0038(7)
O7 0.0469(8) 0.0290(7) 0.0357(8) -0.0044(6) 0.0231(6) 0.0012(5)
N17 0.0320(8) 0.0187(7) 0.0221(7) 0.0030(6) 0.0095(6) 0.0037(5)
C11 0.0217(8) 0.0234(8) 0.0214(8) 0.0062(6) 0.0061(6) 0.0043(6)
C12 0.0209(8) 0.0214(8) 0.0228(8) 0.0046(6) 0.0057(6) 0.0050(6)
C121 0.0318(9) 0.0254(8) 0.0238(9) 0.0064(7) 0.0108(7) 0.0060(7)
F121 0.0409(6) 0.0314(6) 0.0390(6) -0.0075(5) 0.0083(5) 0.0105(5)
F122 0.0455(7) 0.0339(6) 0.0577(8) 0.0189(5) 0.0209(6) 0.0238(5)
F123 0.0724(8) 0.0346(6) 0.0324(6) 0.0104(6) 0.0301(6) 0.0127(5)
C13 0.0286(9) 0.0270(8) 0.0232(8) 0.0085(7) 0.0078(7) 0.0044(7)
C14 0.0310(9) 0.0225(8) 0.0287(9) 0.0066(7) 0.0075(7) 0.0007(7)
C15 0.0307(9) 0.0196(8) 0.0320(10) 0.0044(7) 0.0093(7) 0.0074(7)
C16 0.0291(9) 0.0251(8) 0.0262(9) 0.0074(7) 0.0106(7) 0.0083(7)
loop_
_atom_type_symbol
_atom_type_description
_atom_type_scat_dispersion_real
_atom_type_scat_dispersion_imag
_atom_type_scat_source
C C 0.0033 0.0016 'International Tables Vol C Tables 4.2.6.8 and 6.1.1.4'
H H 0.0000 0.0000 'International Tables Vol C Tables 4.2.6.8 and 6.1.1.4'
N N 0.0061 0.0033 'International Tables Vol C Tables 4.2.6.8 and 6.1.1.4'
O O 0.0106 0.0060 'International Tables Vol C Tables 4.2.6.8 and 6.1.1.4'
F F 0.0171 0.0103 'International Tables Vol C Tables 4.2.6.8 and 6.1.1.4'
loop_
_geom_angle_atom_site_label_1
_geom_angle_atom_site_label_2
_geom_angle_atom_site_label_3
_geom_angle
_geom_angle_publ_flag
C6 N1 C2 115.55(14) no
N1 C2 C3 122.27(15) no
N1 C2 C7 118.10(14) no
C3 C2 C7 119.63(15) no
N4 C3 C2 122.22(15) no
N4 C3 H3 118.9 no
C2 C3 H3 118.9 no
C5 N4 C3 115.35(15) no
N4 C5 C6 122.64(15) no
N4 C5 H5 118.7 no
C6 C5 H5 118.7 no
N1 C6 C5 121.97(15) no
N1 C6 H6 119.0 no
C5 C6 H6 119.0 no
O7 C7 N17 125.81(15) no
O7 C7 C2 120.90(15) no
N17 C7 C2 113.29(13) no
C7 N17 C11 128.28(13) no
C7 N17 H17 109.2 no
C11 N17 H17 122.5 no
C16 C11 N17 122.16(15) no
C16 C11 C12 118.11(15) no
N17 C11 C12 119.73(14) no
C13 C12 C11 120.37(14) no
C13 C12 C121 118.37(15) no
C11 C12 C121 121.22(14) no
F123 C121 F122 106.51(14) no
F123 C121 F121 105.76(13) no
F122 C121 F121 105.17(13) no
F123 C121 C12 113.45(14) no
F122 C121 C12 112.39(13) no
F121 C121 C12 112.91(14) no
C12 C13 C14 120.64(16) no
C12 C13 H13 119.7 no
C14 C13 H13 119.7 no
C15 C14 C13 119.29(15) no
C15 C14 H14 120.4 no
C13 C14 H14 120.4 no
C14 C15 C16 120.85(15) no
C14 C15 H15 119.6 no
C16 C15 H15 119.6 no
C15 C16 C11 120.72(15) no
C15 C16 H16 119.6 no
C11 C16 H16 119.6 no
loop_
_geom_bond_atom_site_label_1
_geom_bond_atom_site_label_2
_geom_bond_distance
_geom_bond_publ_flag
N1 C6 1.335(2) no
N1 C2 1.344(2) no
C2 C3 1.385(2) no
C2 C7 1.505(2) no
C3 N4 1.340(2) no
C3 H3 0.95 no
N4 C5 1.336(2) no
C5 C6 1.389(2) no
C5 H5 0.95 no
C6 H6 0.95 no
C7 O7 1.2161(19) no
C7 N17 1.361(2) no
N17 C11 1.403(2) no
N17 H17 0.9160 no
C11 C16 1.400(2) no
C11 C12 1.411(2) no
C12 C13 1.388(2) no
C12 C121 1.498(2) no
C121 F123 1.3319(19) no
C121 F122 1.342(2) no
C121 F121 1.3540(19) no
C13 C14 1.390(2) no
C13 H13 0.95 no
C14 C15 1.382(2) no
C14 H14 0.95 no
C15 C16 1.386(2) no
C15 H15 0.95 no
C16 H16 0.95 no
loop_
_geom_hbond_atom_site_label_D
_geom_hbond_atom_site_label_H
_geom_hbond_atom_site_label_A
_geom_hbond_site_symmetry_A
_geom_hbond_distance_DH
_geom_hbond_distance_HA
_geom_hbond_distance_DA
_geom_hbond_angle_DHA
_geom_hbond_publ_flag
N17 H17 N1 . 0.92 2.11 2.6770(19) 119 no
C15 H15 O7 2_556 0.95 2.46 3.365(2) 159 no
loop_
_geom_torsion_atom_site_label_1
_geom_torsion_atom_site_label_2
_geom_torsion_atom_site_label_3
_geom_torsion_atom_site_label_4
_geom_torsion
_geom_torsion_publ_flag
C6 N1 C2 C3 -0.3(2) no
C6 N1 C2 C7 179.83(14) no
N1 C2 C3 N4 0.1(3) no
C7 C2 C3 N4 179.95(15) no
C2 C3 N4 C5 0.4(3) no
C3 N4 C5 C6 -0.7(3) no
C2 N1 C6 C5 0.0(2) no
N4 C5 C6 N1 0.5(3) no
N1 C2 C7 O7 -177.54(15) no
C3 C2 C7 O7 2.6(2) no
N1 C2 C7 N17 2.4(2) no
C3 C2 C7 N17 -177.45(14) no
O7 C7 N17 C11 -1.8(3) no
C2 C7 N17 C11 178.20(15) no
C7 N17 C11 C16 -9.8(3) no
C7 N17 C11 C12 171.11(15) no
C16 C11 C12 C13 -1.4(2) no
N17 C11 C12 C13 177.75(15) no
C16 C11 C12 C121 176.11(15) no
N17 C11 C12 C121 -4.7(2) no
C13 C12 C121 F123 -7.5(2) no
C11 C12 C121 F123 174.96(14) no
C13 C12 C121 F122 113.44(17) no
C11 C12 C121 F122 -64.1(2) no
C13 C12 C121 F121 -127.78(16) no
C11 C12 C121 F121 54.6(2) no
C11 C12 C13 C14 0.8(2) no
C121 C12 C13 C14 -176.82(15) no
C12 C13 C14 C15 0.5(3) no
C13 C14 C15 C16 -1.1(3) no
C14 C15 C16 C11 0.4(3) no
N17 C11 C16 C15 -178.32(15) no
C12 C11 C16 C15 0.8(2) no
loop_
_cod_related_entry_id
_cod_related_entry_database
_cod_related_entry_code
1 ChemSpider 586398
